 "x_c",  "y_c",  "u_c",  "v_c",  "exx",  "eyy",  "exy",  "e1",  "e2",  "gamma",  "e_vonmises",  "sigma",  "x",  "y",  "u",  "v"
-700,715,0,0,0,0,0,0,0,0,0,-1,524,309,0,0
-693,715,0,0,0,0,0,0,0,0,0,-1,531,309,0,0
-686,715,0,0,0,0,0,0,0,0,0,-1,538,309,0,0
-679,715,0,0,0,0,0,0,0,0,0,-1,545,309,0,0
-672,715,0,0,0,0,0,0,0,0,0,-1,552,309,0,0
-665,715,0,0,0,0,0,0,0,0,0,-1,559,309,0,0
-658,715,0,0,0,0,0,0,0,0,0,-1,566,309,0,0
-651,715,0,0,0,0,0,0,0,0,0,-1,573,309,0,0
-644,715,0,0,0,0,0,0,0,0,0,-1,580,309,0,0
-637,715,0,0,0,0,0,0,0,0,0,-1,587,309,0,0
-630,715,0,0,0,0,0,0,0,0,0,-1,594,309,0,0
-623,715,0,0,0,0,0,0,0,0,0,-1,601,309,0,0
-616,715,0,0,0,0,0,0,0,0,0,-1,608,309,0,0
-609,715,0,0,0,0,0,0,0,0,0,-1,615,309,0,0
-602,715,0,0,0,0,0,0,0,0,0,-1,622,309,0,0
-595,715,0,0,0,0,0,0,0,0,0,-1,629,309,0,0
-588,715,0,0,0,0,0,0,0,0,0,-1,636,309,0,0
-581,715,0,0,0,0,0,0,0,0,0,-1,643,309,0,0
-574,715,0,0,0,0,0,0,0,0,0,-1,650,309,0,0
-567,715,0,0,0,0,0,0,0,0,0,-1,657,309,0,0
-560,715,0,0,0,0,0,0,0,0,0,-1,664,309,0,0
-553,715,0,0,0,0,0,0,0,0,0,-1,671,309,0,0
-546,715,0,0,0,0,0,0,0,0,0,-1,678,309,0,0
-539,715,0,0,0,0,0,0,0,0,0,-1,685,309,0,0
-532,715,0,0,0,0,0,0,0,0,0,-1,692,309,0,0
-525,715,0,0,0,0,0,0,0,0,0,-1,699,309,0,0
-518,715,0,0,0,0,0,0,0,0,0,-1,706,309,0,0
-511,715,0,0,0,0,0,0,0,0,0,-1,713,309,0,0
-504,715,0,0,0,0,0,0,0,0,0,-1,720,309,0,0
-497,715,0,0,0,0,0,0,0,0,0,-1,727,309,0,0
-490,715,0,0,0,0,0,0,0,0,0,-1,734,309,0,0
-483,715,0,0,0,0,0,0,0,0,0,-1,741,309,0,0
-476,715,0,0,0,0,0,0,0,0,0,-1,748,309,0,0
-469,715,0,0,0,0,0,0,0,0,0,-1,755,309,0,0
-462,715,0,0,0,0,0,0,0,0,0,-1,762,309,0,0
-455,715,0,0,0,0,0,0,0,0,0,-1,769,309,0,0
-448,715,0,0,0,0,0,0,0,0,0,-1,776,309,0,0
-441,715,0,0,0,0,0,0,0,0,0,-1,783,309,0,0
-434,715,0,0,0,0,0,0,0,0,0,-1,790,309,0,0
-427,715,0,0,0,0,0,0,0,0,0,-1,797,309,0,0
-420,715,0,0,0,0,0,0,0,0,0,-1,804,309,0,0
-413,715,0,0,0,0,0,0,0,0,0,-1,811,309,0,0
-406,715,0,0,0,0,0,0,0,0,0,-1,818,309,0,0
-399,715,0,0,0,0,0,0,0,0,0,-1,825,309,0,0
-392,715,0,0,0,0,0,0,0,0,0,-1,832,309,0,0
-385,715,0,0,0,0,0,0,0,0,0,-1,839,309,0,0
-378,715,0,0,0,0,0,0,0,0,0,-1,846,309,0,0
-371,715,0,0,0,0,0,0,0,0,0,-1,853,309,0,0
-364,715,0,0,0,0,0,0,0,0,0,-1,860,309,0,0
-357,715,0,0,0,0,0,0,0,0,0,-1,867,309,0,0
-350,715,0,0,0,0,0,0,0,0,0,-1,874,309,0,0
-343,715,0,0,0,0,0,0,0,0,0,-1,881,309,0,0
-336,715,0,0,0,0,0,0,0,0,0,-1,888,309,0,0
-329,715,0,0,0,0,0,0,0,0,0,-1,895,309,0,0
-322,715,0,0,0,0,0,0,0,0,0,-1,902,309,0,0
-315,715,0,0,0,0,0,0,0,0,0,-1,909,309,0,0
-308,715,0,0,0,0,0,0,0,0,0,-1,916,309,0,0
-301,715,0,0,0,0,0,0,0,0,0,-1,923,309,0,0
-294,715,0,0,0,0,0,0,0,0,0,-1,930,309,0,0
-287,715,0,0,0,0,0,0,0,0,0,-1,937,309,0,0
-280,715,0,0,0,0,0,0,0,0,0,-1,944,309,0,0
-273,715,0,0,0,0,0,0,0,0,0,-1,951,309,0,0
-266,715,0,0,0,0,0,0,0,0,0,-1,958,309,0,0
-259,715,0,0,0,0,0,0,0,0,0,-1,965,309,0,0
-252,715,0,0,0,0,0,0,0,0,0,-1,972,309,0,0
-245,715,0,0,0,0,0,0,0,0,0,-1,979,309,0,0
-238,715,0,0,0,0,0,0,0,0,0,-1,986,309,0,0
-231,715,0,0,0,0,0,0,0,0,0,-1,993,309,0,0
-224,715,0,0,0,0,0,0,0,0,0,-1,1000,309,0,0
-217,715,0,0,0,0,0,0,0,0,0,-1,1007,309,0,0
-210,715,0,0,0,0,0,0,0,0,0,-1,1014,309,0,0
-203,715,0,0,0,0,0,0,0,0,0,-1,1021,309,0,0
-196,715,0,0,0,0,0,0,0,0,0,-1,1028,309,0,0
-189,715,0,0,0,0,0,0,0,0,0,-1,1035,309,0,0
-182,715,0,0,0,0,0,0,0,0,0,-1,1042,309,0,0
-175,715,0,0,0,0,0,0,0,0,0,-1,1049,309,0,0
-168,715,0,0,0,0,0,0,0,0,0,-1,1056,309,0,0
-161,715,0,0,0,0,0,0,0,0,0,-1,1063,309,0,0
-154,715,0,0,0,0,0,0,0,0,0,-1,1070,309,0,0
-147,715,0,0,0,0,0,0,0,0,0,-1,1077,309,0,0
-140,715,0,0,0,0,0,0,0,0,0,-1,1084,309,0,0
-133,715,0,0,0,0,0,0,0,0,0,-1,1091,309,0,0
-126,715,0,0,0,0,0,0,0,0,0,-1,1098,309,0,0
-119,715,0,0,0,0,0,0,0,0,0,-1,1105,309,0,0
-112,715,0,0,0,0,0,0,0,0,0,-1,1112,309,0,0
-105,715,0,0,0,0,0,0,0,0,0,-1,1119,309,0,0
-98,715,0,0,0,0,0,0,0,0,0,-1,1126,309,0,0
-91,715,0,0,0,0,0,0,0,0,0,-1,1133,309,0,0
-84,715,0,0,0,0,0,0,0,0,0,-1,1140,309,0,0
-77,715,0,0,0,0,0,0,0,0,0,-1,1147,309,0,0
-70,715,0,0,0,0,0,0,0,0,0,-1,1154,309,0,0
-63,715,0,0,0,0,0,0,0,0,0,-1,1161,309,0,0
-56,715,0,0,0,0,0,0,0,0,0,-1,1168,309,0,0
-49,715,0,0,0,0,0,0,0,0,0,-1,1175,309,0,0
-42,715,0,0,0,0,0,0,0,0,0,-1,1182,309,0,0
-35,715,0,0,0,0,0,0,0,0,0,-1,1189,309,0,0
-28,715,0,0,0,0,0,0,0,0,0,-1,1196,309,0,0
-21,715,0,0,0,0,0,0,0,0,0,-1,1203,309,0,0
-14,715,0,0,0,0,0,0,0,0,0,-1,1210,309,0,0
-7,715,0,0,0,0,0,0,0,0,0,-1,1217,309,0,0
0,715,0,0,0,0,0,0,0,0,0,-1,1224,309,0,0
7,715,0,0,0,0,0,0,0,0,0,-1,1231,309,0,0
14,715,0,0,0,0,0,0,0,0,0,-1,1238,309,0,0
21,715,0,0,0,0,0,0,0,0,0,-1,1245,309,0,0
28,715,0,0,0,0,0,0,0,0,0,-1,1252,309,0,0
35,715,0,0,0,0,0,0,0,0,0,-1,1259,309,0,0
42,715,0,0,0,0,0,0,0,0,0,-1,1266,309,0,0
49,715,0,0,0,0,0,0,0,0,0,-1,1273,309,0,0
56,715,0,0,0,0,0,0,0,0,0,-1,1280,309,0,0
63,715,6.35632,-56.6688,-0.0319833,0.119033,-0.066673,0.144256,-0.0572063,-1.20913,0.119879,0.0416559,1287,309,6.35632,56.6688
70,715,6.87341,-57.0174,0,0,0,0,0,0,0,-1,1294,309,6.87339,57.0174
77,715,0,0,0,0,0,0,0,0,0,-1,1301,309,0,0
84,715,0,0,0,0,0,0,0,0,0,-1,1308,309,0,0
91,715,0,0,0,0,0,0,0,0,0,-1,1315,309,0,0
98,715,0,0,0,0,0,0,0,0,0,-1,1322,309,0,0
105,715,0,0,0,0,0,0,0,0,0,-1,1329,309,0,0
112,715,0,0,0,0,0,0,0,0,0,-1,1336,309,0,0
119,715,0,0,0,0,0,0,0,0,0,-1,1343,309,0,0
126,715,0,0,0,0,0,0,0,0,0,-1,1350,309,0,0
133,715,0,0,0,0,0,0,0,0,0,-1,1357,309,0,0
140,715,0,0,0,0,0,0,0,0,0,-1,1364,309,0,0
147,715,0,0,0,0,0,0,0,0,0,-1,1371,309,0,0
154,715,0,0,0,0,0,0,0,0,0,-1,1378,309,0,0
161,715,0,0,0,0,0,0,0,0,0,-1,1385,309,0,0
168,715,0,0,0,0,0,0,0,0,0,-1,1392,309,0,0
175,715,0,0,0,0,0,0,0,0,0,-1,1399,309,0,0
182,715,0,0,0,0,0,0,0,0,0,-1,1406,309,0,0
189,715,0,0,0,0,0,0,0,0,0,-1,1413,309,0,0
196,715,0,0,0,0,0,0,0,0,0,-1,1420,309,0,0
203,715,0,0,0,0,0,0,0,0,0,-1,1427,309,0,0
210,715,0,0,0,0,0,0,0,0,0,-1,1434,309,0,0
217,715,0,0,0,0,0,0,0,0,0,-1,1441,309,0,0
224,715,0,0,0,0,0,0,0,0,0,-1,1448,309,0,0
231,715,0,0,0,0,0,0,0,0,0,-1,1455,309,0,0
238,715,0,0,0,0,0,0,0,0,0,-1,1462,309,0,0
245,715,0,0,0,0,0,0,0,0,0,-1,1469,309,0,0
252,715,0,0,0,0,0,0,0,0,0,-1,1476,309,0,0
259,715,0,0,0,0,0,0,0,0,0,-1,1483,309,0,0
266,715,0,0,0,0,0,0,0,0,0,-1,1490,309,0,0
273,715,0,0,0,0,0,0,0,0,0,-1,1497,309,0,0
280,715,0,0,0,0,0,0,0,0,0,-1,1504,309,0,0
287,715,0,0,0,0,0,0,0,0,0,-1,1511,309,0,0
294,715,0,0,0,0,0,0,0,0,0,-1,1518,309,0,0
301,715,0,0,0,0,0,0,0,0,0,-1,1525,309,0,0
308,715,0,0,0,0,0,0,0,0,0,-1,1532,309,0,0
315,715,0,0,0,0,0,0,0,0,0,-1,1539,309,0,0
322,715,0,0,0,0,0,0,0,0,0,-1,1546,309,0,0
329,715,0,0,0,0,0,0,0,0,0,-1,1553,309,0,0
336,715,0,0,0,0,0,0,0,0,0,-1,1560,309,0,0
343,715,0,0,0,0,0,0,0,0,0,-1,1567,309,0,0
350,715,0,0,0,0,0,0,0,0,0,-1,1574,309,0,0
357,715,0,0,0,0,0,0,0,0,0,-1,1581,309,0,0
364,715,0,0,0,0,0,0,0,0,0,-1,1588,309,0,0
371,715,0,0,0,0,0,0,0,0,0,-1,1595,309,0,0
378,715,0,0,0,0,0,0,0,0,0,-1,1602,309,0,0
385,715,0,0,0,0,0,0,0,0,0,-1,1609,309,0,0
392,715,0,0,0,0,0,0,0,0,0,-1,1616,309,0,0
399,715,0,0,0,0,0,0,0,0,0,-1,1623,309,0,0
406,715,0,0,0,0,0,0,0,0,0,-1,1630,309,0,0
413,715,0,0,0,0,0,0,0,0,0,-1,1637,309,0,0
420,715,0,0,0,0,0,0,0,0,0,-1,1644,309,0,0
427,715,0,0,0,0,0,0,0,0,0,-1,1651,309,0,0
434,715,0,0,0,0,0,0,0,0,0,-1,1658,309,0,0
441,715,0,0,0,0,0,0,0,0,0,-1,1665,309,0,0
448,715,0,0,0,0,0,0,0,0,0,-1,1672,309,0,0
455,715,0,0,0,0,0,0,0,0,0,-1,1679,309,0,0
462,715,0,0,0,0,0,0,0,0,0,-1,1686,309,0,0
469,715,0,0,0,0,0,0,0,0,0,-1,1693,309,0,0
476,715,0,0,0,0,0,0,0,0,0,-1,1700,309,0,0
483,715,0,0,0,0,0,0,0,0,0,-1,1707,309,0,0
490,715,0,0,0,0,0,0,0,0,0,-1,1714,309,0,0
497,715,0,0,0,0,0,0,0,0,0,-1,1721,309,0,0
504,715,0,0,0,0,0,0,0,0,0,-1,1728,309,0,0
511,715,0,0,0,0,0,0,0,0,0,-1,1735,309,0,0
518,715,0,0,0,0,0,0,0,0,0,-1,1742,309,0,0
525,715,0,0,0,0,0,0,0,0,0,-1,1749,309,0,0
532,715,0,0,0,0,0,0,0,0,0,-1,1756,309,0,0
539,715,0,0,0,0,0,0,0,0,0,-1,1763,309,0,0
546,715,0,0,0,0,0,0,0,0,0,-1,1770,309,0,0
553,715,0,0,0,0,0,0,0,0,0,-1,1777,309,0,0
560,715,0,0,0,0,0,0,0,0,0,-1,1784,309,0,0
567,715,0,0,0,0,0,0,0,0,0,-1,1791,309,0,0
574,715,0,0,0,0,0,0,0,0,0,-1,1798,309,0,0
581,715,0,0,0,0,0,0,0,0,0,-1,1805,309,0,0
588,715,0,0,0,0,0,0,0,0,0,-1,1812,309,0,0
595,715,0,0,0,0,0,0,0,0,0,-1,1819,309,0,0
602,715,0,0,0,0,0,0,0,0,0,-1,1826,309,0,0
609,715,0,0,0,0,0,0,0,0,0,-1,1833,309,0,0
616,715,0,0,0,0,0,0,0,0,0,-1,1840,309,0,0
623,715,0,0,0,0,0,0,0,0,0,-1,1847,309,0,0
630,715,0,0,0,0,0,0,0,0,0,-1,1854,309,0,0
637,715,0,0,0,0,0,0,0,0,0,-1,1861,309,0,0
644,715,0,0,0,0,0,0,0,0,0,-1,1868,309,0,0
651,715,0,0,0,0,0,0,0,0,0,-1,1875,309,0,0
658,715,0,0,0,0,0,0,0,0,0,-1,1882,309,0,0
665,715,0,0,0,0,0,0,0,0,0,-1,1889,309,0,0
672,715,0,0,0,0,0,0,0,0,0,-1,1896,309,0,0
679,715,0,0,0,0,0,0,0,0,0,-1,1903,309,0,0
686,715,0,0,0,0,0,0,0,0,0,-1,1910,309,0,0
693,715,0,0,0,0,0,0,0,0,0,-1,1917,309,0,0
700,715,0,0,0,0,0,0,0,0,0,-1,1924,309,0,0
707,715,0,0,0,0,0,0,0,0,0,-1,1931,309,0,0
714,715,0,0,0,0,0,0,0,0,0,-1,1938,309,0,0
721,715,0,0,0,0,0,0,0,0,0,-1,1945,309,0,0
728,715,0,0,0,0,0,0,0,0,0,-1,1952,309,0,0
735,715,0,0,0,0,0,0,0,0,0,-1,1959,309,0,0
742,715,0,0,0,0,0,0,0,0,0,-1,1966,309,0,0
749,715,0,0,0,0,0,0,0,0,0,-1,1973,309,0,0
756,715,0,0,0,0,0,0,0,0,0,-1,1980,309,0,0
763,715,0,0,0,0,0,0,0,0,0,-1,1987,309,0,0
770,715,0,0,0,0,0,0,0,0,0,-1,1994,309,0,0
777,715,0,0,0,0,0,0,0,0,0,-1,2001,309,0,0
784,715,0,0,0,0,0,0,0,0,0,-1,2008,309,0,0
791,715,0,0,0,0,0,0,0,0,0,-1,2015,309,0,0
798,715,0,0,0,0,0,0,0,0,0,-1,2022,309,0,0
805,715,0,0,0,0,0,0,0,0,0,-1,2029,309,0,0
812,715,0,0,0,0,0,0,0,0,0,-1,2036,309,0,0
-700,708,0,0,0,0,0,0,0,0,0,-1,524,316,0,0
-693,708,0,0,0,0,0,0,0,0,0,-1,531,316,0,0
-686,708,0,0,0,0,0,0,0,0,0,-1,538,316,0,0
-679,708,0,0,0,0,0,0,0,0,0,-1,545,316,0,0
-672,708,0,0,0,0,0,0,0,0,0,-1,552,316,0,0
-665,708,0,0,0,0,0,0,0,0,0,-1,559,316,0,0
-658,708,0,0,0,0,0,0,0,0,0,-1,566,316,0,0
-651,708,0,0,0,0,0,0,0,0,0,-1,573,316,0,0
-644,708,0,0,0,0,0,0,0,0,0,-1,580,316,0,0
-637,708,0,0,0,0,0,0,0,0,0,-1,587,316,0,0
-630,708,0,0,0,0,0,0,0,0,0,-1,594,316,0,0
-623,708,0,0,0,0,0,0,0,0,0,-1,601,316,0,0
-616,708,0,0,0,0,0,0,0,0,0,-1,608,316,0,0
-609,708,0,0,0,0,0,0,0,0,0,-1,615,316,0,0
-602,708,0,0,0,0,0,0,0,0,0,-1,622,316,0,0
-595,708,0,0,0,0,0,0,0,0,0,-1,629,316,0,0
-588,708,0,0,0,0,0,0,0,0,0,-1,636,316,0,0
-581,708,0,0,0,0,0,0,0,0,0,-1,643,316,0,0
-574,708,0,0,0,0,0,0,0,0,0,-1,650,316,0,0
-567,708,0,0,0,0,0,0,0,0,0,-1,657,316,0,0
-560,708,0,0,0,0,0,0,0,0,0,-1,664,316,0,0
-553,708,0,0,0,0,0,0,0,0,0,-1,671,316,0,0
-546,708,0,0,0,0,0,0,0,0,0,-1,678,316,0,0
-539,708,0,0,0,0,0,0,0,0,0,-1,685,316,0,0
-532,708,0,0,0,0,0,0,0,0,0,-1,692,316,0,0
-525,708,0,0,0,0,0,0,0,0,0,-1,699,316,0,0
-518,708,0,0,0,0,0,0,0,0,0,-1,706,316,0,0
-511,708,0,0,0,0,0,0,0,0,0,-1,713,316,0,0
-504,708,0,0,0,0,0,0,0,0,0,-1,720,316,0,0
-497,708,0,0,0,0,0,0,0,0,0,-1,727,316,0,0
-490,708,0,0,0,0,0,0,0,0,0,-1,734,316,0,0
-483,708,0,0,0,0,0,0,0,0,0,-1,741,316,0,0
-476,708,0,0,0,0,0,0,0,0,0,-1,748,316,0,0
-469,708,0,0,0,0,0,0,0,0,0,-1,755,316,0,0
-462,708,0,0,0,0,0,0,0,0,0,-1,762,316,0,0
-455,708,0,0,0,0,0,0,0,0,0,-1,769,316,0,0
-448,708,0,0,0,0,0,0,0,0,0,-1,776,316,0,0
-441,708,0,0,0,0,0,0,0,0,0,-1,783,316,0,0
-434,708,0,0,0,0,0,0,0,0,0,-1,790,316,0,0
-427,708,0,0,0,0,0,0,0,0,0,-1,797,316,0,0
-420,708,0,0,0,0,0,0,0,0,0,-1,804,316,0,0
-413,708,0,0,0,0,0,0,0,0,0,-1,811,316,0,0
-406,708,0,0,0,0,0,0,0,0,0,-1,818,316,0,0
-399,708,0,0,0,0,0,0,0,0,0,-1,825,316,0,0
-392,708,0,0,0,0,0,0,0,0,0,-1,832,316,0,0
-385,708,0,0,0,0,0,0,0,0,0,-1,839,316,0,0
-378,708,0,0,0,0,0,0,0,0,0,-1,846,316,0,0
-371,708,0,0,0,0,0,0,0,0,0,-1,853,316,0,0
-364,708,0,0,0,0,0,0,0,0,0,-1,860,316,0,0
-357,708,0,0,0,0,0,0,0,0,0,-1,867,316,0,0
-350,708,0,0,0,0,0,0,0,0,0,-1,874,316,0,0
-343,708,0,0,0,0,0,0,0,0,0,-1,881,316,0,0
-336,708,0,0,0,0,0,0,0,0,0,-1,888,316,0,0
-329,708,0,0,0,0,0,0,0,0,0,-1,895,316,0,0
-322,708,0,0,0,0,0,0,0,0,0,-1,902,316,0,0
-315,708,0,0,0,0,0,0,0,0,0,-1,909,316,0,0
-308,708,0,0,0,0,0,0,0,0,0,-1,916,316,0,0
-301,708,0,0,0,0,0,0,0,0,0,-1,923,316,0,0
-294,708,0,0,0,0,0,0,0,0,0,-1,930,316,0,0
-287,708,0,0,0,0,0,0,0,0,0,-1,937,316,0,0
-280,708,0,0,0,0,0,0,0,0,0,-1,944,316,0,0
-273,708,0,0,0,0,0,0,0,0,0,-1,951,316,0,0
-266,708,0,0,0,0,0,0,0,0,0,-1,958,316,0,0
-259,708,0,0,0,0,0,0,0,0,0,-1,965,316,0,0
-252,708,0,0,0,0,0,0,0,0,0,-1,972,316,0,0
-245,708,0,0,0,0,0,0,0,0,0,-1,979,316,0,0
-238,708,0,0,0,0,0,0,0,0,0,-1,986,316,0,0
-231,708,0,0,0,0,0,0,0,0,0,-1,993,316,0,0
-224,708,0,0,0,0,0,0,0,0,0,-1,1000,316,0,0
-217,708,0,0,0,0,0,0,0,0,0,-1,1007,316,0,0
-210,708,0,0,0,0,0,0,0,0,0,-1,1014,316,0,0
-203,708,0,0,0,0,0,0,0,0,0,-1,1021,316,0,0
-196,708,0,0,0,0,0,0,0,0,0,-1,1028,316,0,0
-189,708,0,0,0,0,0,0,0,0,0,-1,1035,316,0,0
-182,708,0,0,0,0,0,0,0,0,0,-1,1042,316,0,0
-175,708,0,0,0,0,0,0,0,0,0,-1,1049,316,0,0
-168,708,0,0,0,0,0,0,0,0,0,-1,1056,316,0,0
-161,708,0,0,0,0,0,0,0,0,0,-1,1063,316,0,0
-154,708,0,0,0,0,0,0,0,0,0,-1,1070,316,0,0
-147,708,0,0,0,0,0,0,0,0,0,-1,1077,316,0,0
-140,708,0,0,0,0,0,0,0,0,0,-1,1084,316,0,0
-133,708,0,0,0,0,0,0,0,0,0,-1,1091,316,0,0
-126,708,0,0,0,0,0,0,0,0,0,-1,1098,316,0,0
-119,708,0,0,0,0,0,0,0,0,0,-1,1105,316,0,0
-112,708,0,0,0,0,0,0,0,0,0,-1,1112,316,0,0
-105,708,0,0,0,0,0,0,0,0,0,-1,1119,316,0,0
-98,708,0,0,0,0,0,0,0,0,0,-1,1126,316,0,0
-91,708,0,0,0,0,0,0,0,0,0,-1,1133,316,0,0
-84,708,0,0,0,0,0,0,0,0,0,-1,1140,316,0,0
-77,708,0,0,0,0,0,0,0,0,0,-1,1147,316,0,0
-70,708,0,0,0,0,0,0,0,0,0,-1,1154,316,0,0
-63,708,0,0,0,0,0,0,0,0,0,-1,1161,316,0,0
-56,708,0,0,0,0,0,0,0,0,0,-1,1168,316,0,0
-49,708,0,0,0,0,0,0,0,0,0,-1,1175,316,0,0
-42,708,0,0,0,0,0,0,0,0,0,-1,1182,316,0,0
-35,708,-2.71204,-6.31558,0,0,0,0,0,0,0,-1,1189,316,-2.712,6.3156
-28,708,-2.92371,-5.53253,0,0,0,0,0,0,0,-1,1196,316,-2.92375,5.53254
-21,708,-0.417969,-24.5911,0,0,0,0,0,0,0,-1,1203,316,-0.418022,24.5911
-14,708,9.65771,-57.0417,0,0,0,0,0,0,0,-1,1210,316,9.65766,57.0417
-7,708,10.0844,-56.2023,0,0,0,0,0,0,0,-1,1217,316,10.0844,56.2023
0,708,10.0889,-55.5195,0,0,0,0,0,0,0,-1,1224,316,10.0889,55.5195
7,708,8.98254,-53.7176,0,0,0,0,0,0,0,-1,1231,316,8.98258,53.7176
14,708,8.95422,-54.894,0,0,0,0,0,0,0,-1,1238,316,8.95422,54.894
21,708,9.10168,-54.5925,0,0,0,0,0,0,0,-1,1245,316,9.1017,54.5925
28,708,9.05432,-54.2419,0,0,0,0,0,0,0,-1,1252,316,9.05432,54.2419
35,708,10.2155,-54.5224,0,0,0,0,0,0,0,-1,1259,316,10.2155,54.5224
42,708,8.59595,-54.7971,0,0,0,0,0,0,0,-1,1266,316,8.59598,54.7971
49,708,8.22241,-55.3721,-0.026461,0.145162,-0.0300714,0.150279,-0.0315775,-1.40227,0.112203,0.0456733,1273,316,8.22241,55.3721
56,708,7.20374,-56.4019,-0.0306196,0.133351,-0.0402792,0.142711,-0.0399798,-1.34247,0.110896,0.042833,1280,316,7.20378,56.4019
63,708,7.1886,-57.1206,-0.0342057,0.119826,-0.0457785,0.132404,-0.0467841,-1.30265,0.107319,0.0414202,1287,316,7.18864,57.1206
70,708,7.5188,-57.3661,0,0,0,0,0,0,0,-1,1294,316,7.51877,57.3661
77,708,3.75793,-59.5363,0,0,0,0,0,0,0,-1,1301,316,3.75791,59.5363
84,708,5.29358,-53.764,0,0,0,0,0,0,0,-1,1308,316,5.29359,53.764
91,708,2.32117,-55.7872,0,0,0,0,0,0,0,-1,1315,316,2.32121,55.7872
98,708,1.86609,-56.2238,-0.0632177,0.0751353,-0.0678077,0.102826,-0.0909085,-1.18309,0.111923,0.0458323,1322,316,1.86614,56.2238
105,708,1.62122,-56.6997,-0.0678018,0.0715521,-0.0694693,0.100267,-0.0965162,-1.17884,0.113619,0.0448559,1329,316,1.62119,56.6997
112,708,1.52502,-57.092,-0.0714211,0.0654841,-0.0715915,0.0960825,-0.102019,-1.16689,0.114391,0.0438747,1336,316,1.52506,57.092
119,708,1.24109,-57.1556,0,0,0,0,0,0,0,-1,1343,316,1.24109,57.1556
126,708,0.934204,-57.2738,0,0,0,0,0,0,0,-1,1350,316,0.934265,57.2738
133,708,0.630493,-57.4492,0,0,0,0,0,0,0,-1,1357,316,0.630478,57.4492
140,708,-0.759888,-58.8908,0,0,0,0,0,0,0,-1,1364,316,-0.75985,58.8908
147,708,-1.43298,-59.4758,0,0,0,0,0,0,0,-1,1371,316,-1.43302,59.4758
154,708,0,0,0,0,0,0,0,0,0,-1,1378,316,0,0
161,708,0,0,0,0,0,0,0,0,0,-1,1385,316,0,0
168,708,0,0,0,0,0,0,0,0,0,-1,1392,316,0,0
175,708,0,0,0,0,0,0,0,0,0,-1,1399,316,0,0
182,708,0,0,0,0,0,0,0,0,0,-1,1406,316,0,0
189,708,0,0,0,0,0,0,0,0,0,-1,1413,316,0,0
196,708,0,0,0,0,0,0,0,0,0,-1,1420,316,0,0
203,708,0,0,0,0,0,0,0,0,0,-1,1427,316,0,0
210,708,0,0,0,0,0,0,0,0,0,-1,1434,316,0,0
217,708,0,0,0,0,0,0,0,0,0,-1,1441,316,0,0
224,708,0,0,0,0,0,0,0,0,0,-1,1448,316,0,0
231,708,0,0,0,0,0,0,0,0,0,-1,1455,316,0,0
238,708,0,0,0,0,0,0,0,0,0,-1,1462,316,0,0
245,708,0,0,0,0,0,0,0,0,0,-1,1469,316,0,0
252,708,0,0,0,0,0,0,0,0,0,-1,1476,316,0,0
259,708,0,0,0,0,0,0,0,0,0,-1,1483,316,0,0
266,708,0,0,0,0,0,0,0,0,0,-1,1490,316,0,0
273,708,0,0,0,0,0,0,0,0,0,-1,1497,316,0,0
280,708,0,0,0,0,0,0,0,0,0,-1,1504,316,0,0
287,708,0,0,0,0,0,0,0,0,0,-1,1511,316,0,0
294,708,0,0,0,0,0,0,0,0,0,-1,1518,316,0,0
301,708,0,0,0,0,0,0,0,0,0,-1,1525,316,0,0
308,708,0,0,0,0,0,0,0,0,0,-1,1532,316,0,0
315,708,0,0,0,0,0,0,0,0,0,-1,1539,316,0,0
322,708,0,0,0,0,0,0,0,0,0,-1,1546,316,0,0
329,708,0,0,0,0,0,0,0,0,0,-1,1553,316,0,0
336,708,0,0,0,0,0,0,0,0,0,-1,1560,316,0,0
343,708,0,0,0,0,0,0,0,0,0,-1,1567,316,0,0
350,708,0,0,0,0,0,0,0,0,0,-1,1574,316,0,0
357,708,0,0,0,0,0,0,0,0,0,-1,1581,316,0,0
364,708,0,0,0,0,0,0,0,0,0,-1,1588,316,0,0
371,708,0,0,0,0,0,0,0,0,0,-1,1595,316,0,0
378,708,0,0,0,0,0,0,0,0,0,-1,1602,316,0,0
385,708,0,0,0,0,0,0,0,0,0,-1,1609,316,0,0
392,708,0,0,0,0,0,0,0,0,0,-1,1616,316,0,0
399,708,0,0,0,0,0,0,0,0,0,-1,1623,316,0,0
406,708,0,0,0,0,0,0,0,0,0,-1,1630,316,0,0
413,708,0,0,0,0,0,0,0,0,0,-1,1637,316,0,0
420,708,0,0,0,0,0,0,0,0,0,-1,1644,316,0,0
427,708,0,0,0,0,0,0,0,0,0,-1,1651,316,0,0
434,708,0,0,0,0,0,0,0,0,0,-1,1658,316,0,0
441,708,0,0,0,0,0,0,0,0,0,-1,1665,316,0,0
448,708,0,0,0,0,0,0,0,0,0,-1,1672,316,0,0
455,708,0,0,0,0,0,0,0,0,0,-1,1679,316,0,0
462,708,0,0,0,0,0,0,0,0,0,-1,1686,316,0,0
469,708,0,0,0,0,0,0,0,0,0,-1,1693,316,0,0
476,708,0,0,0,0,0,0,0,0,0,-1,1700,316,0,0
483,708,0,0,0,0,0,0,0,0,0,-1,1707,316,0,0
490,708,0,0,0,0,0,0,0,0,0,-1,1714,316,0,0
497,708,0,0,0,0,0,0,0,0,0,-1,1721,316,0,0
504,708,0,0,0,0,0,0,0,0,0,-1,1728,316,0,0
511,708,0,0,0,0,0,0,0,0,0,-1,1735,316,0,0
518,708,0,0,0,0,0,0,0,0,0,-1,1742,316,0,0
525,708,0,0,0,0,0,0,0,0,0,-1,1749,316,0,0
532,708,0,0,0,0,0,0,0,0,0,-1,1756,316,0,0
539,708,0,0,0,0,0,0,0,0,0,-1,1763,316,0,0
546,708,0,0,0,0,0,0,0,0,0,-1,1770,316,0,0
553,708,0,0,0,0,0,0,0,0,0,-1,1777,316,0,0
560,708,0,0,0,0,0,0,0,0,0,-1,1784,316,0,0
567,708,0,0,0,0,0,0,0,0,0,-1,1791,316,0,0
574,708,0,0,0,0,0,0,0,0,0,-1,1798,316,0,0
581,708,0,0,0,0,0,0,0,0,0,-1,1805,316,0,0
588,708,0,0,0,0,0,0,0,0,0,-1,1812,316,0,0
595,708,0,0,0,0,0,0,0,0,0,-1,1819,316,0,0
602,708,0,0,0,0,0,0,0,0,0,-1,1826,316,0,0
609,708,0,0,0,0,0,0,0,0,0,-1,1833,316,0,0
616,708,0,0,0,0,0,0,0,0,0,-1,1840,316,0,0
623,708,0,0,0,0,0,0,0,0,0,-1,1847,316,0,0
630,708,0,0,0,0,0,0,0,0,0,-1,1854,316,0,0
637,708,0,0,0,0,0,0,0,0,0,-1,1861,316,0,0
644,708,0,0,0,0,0,0,0,0,0,-1,1868,316,0,0
651,708,0,0,0,0,0,0,0,0,0,-1,1875,316,0,0
658,708,0,0,0,0,0,0,0,0,0,-1,1882,316,0,0
665,708,0,0,0,0,0,0,0,0,0,-1,1889,316,0,0
672,708,0,0,0,0,0,0,0,0,0,-1,1896,316,0,0
679,708,0,0,0,0,0,0,0,0,0,-1,1903,316,0,0
686,708,0,0,0,0,0,0,0,0,0,-1,1910,316,0,0
693,708,0,0,0,0,0,0,0,0,0,-1,1917,316,0,0
700,708,0,0,0,0,0,0,0,0,0,-1,1924,316,0,0
707,708,0,0,0,0,0,0,0,0,0,-1,1931,316,0,0
714,708,0,0,0,0,0,0,0,0,0,-1,1938,316,0,0
721,708,0,0,0,0,0,0,0,0,0,-1,1945,316,0,0
728,708,0,0,0,0,0,0,0,0,0,-1,1952,316,0,0
735,708,0,0,0,0,0,0,0,0,0,-1,1959,316,0,0
742,708,0,0,0,0,0,0,0,0,0,-1,1966,316,0,0
749,708,0,0,0,0,0,0,0,0,0,-1,1973,316,0,0
756,708,0,0,0,0,0,0,0,0,0,-1,1980,316,0,0
763,708,0,0,0,0,0,0,0,0,0,-1,1987,316,0,0
770,708,0,0,0,0,0,0,0,0,0,-1,1994,316,0,0
777,708,0,0,0,0,0,0,0,0,0,-1,2001,316,0,0
784,708,0,0,0,0,0,0,0,0,0,-1,2008,316,0,0
791,708,0,0,0,0,0,0,0,0,0,-1,2015,316,0,0
798,708,0,0,0,0,0,0,0,0,0,-1,2022,316,0,0
805,708,0,0,0,0,0,0,0,0,0,-1,2029,316,0,0
812,708,0,0,0,0,0,0,0,0,0,-1,2036,316,0,0
-700,701,0,0,0,0,0,0,0,0,0,-1,524,323,0,0
-693,701,0,0,0,0,0,0,0,0,0,-1,531,323,0,0
-686,701,0,0,0,0,0,0,0,0,0,-1,538,323,0,0
-679,701,0,0,0,0,0,0,0,0,0,-1,545,323,0,0
-672,701,0,0,0,0,0,0,0,0,0,-1,552,323,0,0
-665,701,0,0,0,0,0,0,0,0,0,-1,559,323,0,0
-658,701,0,0,0,0,0,0,0,0,0,-1,566,323,0,0
-651,701,0,0,0,0,0,0,0,0,0,-1,573,323,0,0
-644,701,0,0,0,0,0,0,0,0,0,-1,580,323,0,0
-637,701,0,0,0,0,0,0,0,0,0,-1,587,323,0,0
-630,701,0,0,0,0,0,0,0,0,0,-1,594,323,0,0
-623,701,0,0,0,0,0,0,0,0,0,-1,601,323,0,0
-616,701,0,0,0,0,0,0,0,0,0,-1,608,323,0,0
-609,701,0,0,0,0,0,0,0,0,0,-1,615,323,0,0
-602,701,0,0,0,0,0,0,0,0,0,-1,622,323,0,0
-595,701,0,0,0,0,0,0,0,0,0,-1,629,323,0,0
-588,701,0,0,0,0,0,0,0,0,0,-1,636,323,0,0
-581,701,0,0,0,0,0,0,0,0,0,-1,643,323,0,0
-574,701,0,0,0,0,0,0,0,0,0,-1,650,323,0,0
-567,701,0,0,0,0,0,0,0,0,0,-1,657,323,0,0
-560,701,0,0,0,0,0,0,0,0,0,-1,664,323,0,0
-553,701,0,0,0,0,0,0,0,0,0,-1,671,323,0,0
-546,701,0,0,0,0,0,0,0,0,0,-1,678,323,0,0
-539,701,0,0,0,0,0,0,0,0,0,-1,685,323,0,0
-532,701,0,0,0,0,0,0,0,0,0,-1,692,323,0,0
-525,701,0,0,0,0,0,0,0,0,0,-1,699,323,0,0
-518,701,0,0,0,0,0,0,0,0,0,-1,706,323,0,0
-511,701,0,0,0,0,0,0,0,0,0,-1,713,323,0,0
-504,701,0,0,0,0,0,0,0,0,0,-1,720,323,0,0
-497,701,0,0,0,0,0,0,0,0,0,-1,727,323,0,0
-490,701,0,0,0,0,0,0,0,0,0,-1,734,323,0,0
-483,701,0,0,0,0,0,0,0,0,0,-1,741,323,0,0
-476,701,0,0,0,0,0,0,0,0,0,-1,748,323,0,0
-469,701,0,0,0,0,0,0,0,0,0,-1,755,323,0,0
-462,701,0,0,0,0,0,0,0,0,0,-1,762,323,0,0
-455,701,0,0,0,0,0,0,0,0,0,-1,769,323,0,0
-448,701,0,0,0,0,0,0,0,0,0,-1,776,323,0,0
-441,701,0,0,0,0,0,0,0,0,0,-1,783,323,0,0
-434,701,0,0,0,0,0,0,0,0,0,-1,790,323,0,0
-427,701,0,0,0,0,0,0,0,0,0,-1,797,323,0,0
-420,701,0,0,0,0,0,0,0,0,0,-1,804,323,0,0
-413,701,0,0,0,0,0,0,0,0,0,-1,811,323,0,0
-406,701,0,0,0,0,0,0,0,0,0,-1,818,323,0,0
-399,701,0,0,0,0,0,0,0,0,0,-1,825,323,0,0
-392,701,0,0,0,0,0,0,0,0,0,-1,832,323,0,0
-385,701,0,0,0,0,0,0,0,0,0,-1,839,323,0,0
-378,701,0,0,0,0,0,0,0,0,0,-1,846,323,0,0
-371,701,0,0,0,0,0,0,0,0,0,-1,853,323,0,0
-364,701,0,0,0,0,0,0,0,0,0,-1,860,323,0,0
-357,701,0,0,0,0,0,0,0,0,0,-1,867,323,0,0
-350,701,0,0,0,0,0,0,0,0,0,-1,874,323,0,0
-343,701,0,0,0,0,0,0,0,0,0,-1,881,323,0,0
-336,701,0,0,0,0,0,0,0,0,0,-1,888,323,0,0
-329,701,0,0,0,0,0,0,0,0,0,-1,895,323,0,0
-322,701,0,0,0,0,0,0,0,0,0,-1,902,323,0,0
-315,701,0,0,0,0,0,0,0,0,0,-1,909,323,0,0
-308,701,0,0,0,0,0,0,0,0,0,-1,916,323,0,0
-301,701,0,0,0,0,0,0,0,0,0,-1,923,323,0,0
-294,701,0,0,0,0,0,0,0,0,0,-1,930,323,0,0
-287,701,0,0,0,0,0,0,0,0,0,-1,937,323,0,0
-280,701,0,0,0,0,0,0,0,0,0,-1,944,323,0,0
-273,701,0,0,0,0,0,0,0,0,0,-1,951,323,0,0
-266,701,0,0,0,0,0,0,0,0,0,-1,958,323,0,0
-259,701,0,0,0,0,0,0,0,0,0,-1,965,323,0,0
-252,701,0,0,0,0,0,0,0,0,0,-1,972,323,0,0
-245,701,0,0,0,0,0,0,0,0,0,-1,979,323,0,0
-238,701,0,0,0,0,0,0,0,0,0,-1,986,323,0,0
-231,701,0,0,0,0,0,0,0,0,0,-1,993,323,0,0
-224,701,0,0,0,0,0,0,0,0,0,-1,1000,323,0,0
-217,701,0,0,0,0,0,0,0,0,0,-1,1007,323,0,0
-210,701,0,0,0,0,0,0,0,0,0,-1,1014,323,0,0
-203,701,0,0,0,0,0,0,0,0,0,-1,1021,323,0,0
-196,701,0,0,0,0,0,0,0,0,0,-1,1028,323,0,0
-189,701,0,0,0,0,0,0,0,0,0,-1,1035,323,0,0
-182,701,0,0,0,0,0,0,0,0,0,-1,1042,323,0,0
-175,701,0,0,0,0,0,0,0,0,0,-1,1049,323,0,0
-168,701,0,0,0,0,0,0,0,0,0,-1,1056,323,0,0
-161,701,0,0,0,0,0,0,0,0,0,-1,1063,323,0,0
-154,701,0,0,0,0,0,0,0,0,0,-1,1070,323,0,0
-147,701,0,0,0,0,0,0,0,0,0,-1,1077,323,0,0
-140,701,0,0,0,0,0,0,0,0,0,-1,1084,323,0,0
-133,701,0,0,0,0,0,0,0,0,0,-1,1091,323,0,0
-126,701,0,0,0,0,0,0,0,0,0,-1,1098,323,0,0
-119,701,0,0,0,0,0,0,0,0,0,-1,1105,323,0,0
-112,701,0,0,0,0,0,0,0,0,0,-1,1112,323,0,0
-105,701,0,0,0,0,0,0,0,0,0,-1,1119,323,0,0
-98,701,0,0,0,0,0,0,0,0,0,-1,1126,323,0,0
-91,701,0,0,0,0,0,0,0,0,0,-1,1133,323,0,0
-84,701,0,0,0,0,0,0,0,0,0,-1,1140,323,0,0
-77,701,0,0,0,0,0,0,0,0,0,-1,1147,323,0,0
-70,701,-12.7566,-30.413,0,0,0,0,0,0,0,-1,1154,323,-12.7566,30.413
-63,701,-18.3169,-21.2322,0,0,0,0,0,0,0,-1,1161,323,-18.3169,21.2322
-56,701,-0.420166,-0.101776,0,0,0,0,0,0,0,-1,1168,323,-0.420119,0.101777
-49,701,-1.09021,-0.155762,0,0,0,0,0,0,0,-1,1175,323,-1.09024,0.155768
-42,701,-0.210327,-0.299133,0,0,0,0,0,0,0,-1,1182,323,-0.210379,0.29914
-35,701,-2.9635,-7.98676,0,0,0,0,0,0,0,-1,1189,323,-2.9635,7.98676
-28,701,-6.64417,-5.4917,0,0,0,0,0,0,0,-1,1196,323,-6.64411,5.4917
-21,701,8.80872,-58.7184,0,0,0,0,0,0,0,-1,1203,323,8.80876,58.7184
-14,701,9.06299,-57.9953,0,0,0,0,0,0,0,-1,1210,323,9.06297,57.9953
-7,701,9.30737,-57.231,0.000375002,0.116976,0.0557878,0.139368,-0.0220166,1.18911,0.101053,0.0452128,1217,323,9.30741,57.231
0,701,9.39966,-56.4751,-0.00508847,0.132404,0.0488748,0.148007,-0.0206915,1.26178,0.106242,0.0490445,1224,323,9.39962,56.4751
7,701,9.00952,-55.9486,0,0,0,0,0,0,0,-1,1231,323,9.00953,55.9486
14,701,8.81128,-55.7108,-0.0122056,0.14461,0.0260443,0.148823,-0.0164179,1.41045,0.105116,0.0470031,1238,323,8.81128,55.7108
21,701,8.91516,-55.6152,0,0,0,0,0,0,0,-1,1245,323,8.91516,55.6152
28,701,9.40698,-55.5733,-0.0174204,0.146975,0.00710124,0.147281,-0.0177266,1.52771,0.104598,0.0433733,1252,323,9.40697,55.5733
35,701,9.5885,-55.6693,-0.0191158,0.143709,-0.00150997,0.143723,-0.0191298,-1.56152,0.102787,0.0443904,1259,323,9.58845,55.6693
42,701,8.62732,-55.1469,-0.0202922,0.139103,-0.00939698,0.139655,-0.0208443,-1.51211,0.100773,0.0439382,1266,323,8.62731,55.1469
49,701,8.36646,-55.8214,-0.0247148,0.134,-0.0190282,0.13625,-0.0269641,-1.45313,0.101028,0.0441942,1273,323,8.36645,55.8214
56,701,7.87146,-56.6839,-0.0292882,0.12473,-0.0270208,0.129333,-0.0338912,-1.40207,0.0994627,0.0414014,1280,323,7.87142,56.6839
63,701,7.85132,-57.4046,-0.0333442,0.113437,-0.0312894,0.119828,-0.0397359,-1.36929,0.095915,0.0419211,1287,323,7.85136,57.4046
70,701,7.67883,-57.4613,-0.0389643,0.10508,-0.0349446,0.11311,-0.0469941,-1.34493,0.0950268,0.0455458,1294,323,7.67881,57.4613
77,701,7.33337,-57.264,0,0,0,0,0,0,0,-1,1301,323,7.33336,57.264
84,701,6.96387,-57.3919,0,0,0,0,0,0,0,-1,1308,323,6.96388,57.3919
91,701,6.58105,-57.5327,0,0,0,0,0,0,0,-1,1315,323,6.5811,57.5327
98,701,2.42419,-56.5647,-0.0633569,0.073128,-0.0513791,0.0903071,-0.0805361,-1.24812,0.0986901,0.0439123,1322,323,2.42422,56.5647
105,701,2.15332,-57.0487,-0.0674816,0.06974,-0.0535078,0.088138,-0.0858796,-1.23962,0.100472,0.0431811,1329,323,2.15327,57.0487
112,701,2.00024,-57.3637,-0.070288,0.0646378,-0.055949,0.0848193,-0.0904694,-1.22461,0.101221,0.0413778,1336,323,2.00023,57.3637
119,701,2.49463,-56.3614,0,0,0,0,0,0,0,-1,1343,323,2.49463,56.3614
126,701,1.72522,-56.5909,0,0,0,0,0,0,0,-1,1350,323,1.72521,56.5909
133,701,0.672241,-57.2754,0,0,0,0,0,0,0,-1,1357,323,0.672278,57.2754
140,701,-0.21936,-58.3909,-0.0641874,0.0278438,-0.078095,0.0724718,-0.108815,-1.05163,0.105365,0.0460152,1364,323,-0.219417,58.3909
147,701,-0.942383,-59.0597,0,0,0,0,0,0,0,-1,1371,323,-0.942444,59.0597
154,701,-1.60706,-59.6882,0,0,0,0,0,0,0,-1,1378,323,-1.60701,59.6882
161,701,-0.704102,-37.5125,0,0,0,0,0,0,0,-1,1385,323,-0.704147,37.5126
168,701,30.7272,1.76184,0,0,0,0,0,0,0,-1,1392,323,30.7272,-1.76184
175,701,31.5035,2.25711,0,0,0,0,0,0,0,-1,1399,323,31.5036,-2.25712
182,701,8.80652,5.42807,0,0,0,0,0,0,0,-1,1406,323,8.8065,-5.42808
189,701,8.58081,4.24493,0,0,0,0,0,0,0,-1,1413,323,8.58082,-4.24494
196,701,0,0,0,0,0,0,0,0,0,-1,1420,323,0,0
203,701,0,0,0,0,0,0,0,0,0,-1,1427,323,0,0
210,701,0,0,0,0,0,0,0,0,0,-1,1434,323,0,0
217,701,0,0,0,0,0,0,0,0,0,-1,1441,323,0,0
224,701,0,0,0,0,0,0,0,0,0,-1,1448,323,0,0
231,701,0,0,0,0,0,0,0,0,0,-1,1455,323,0,0
238,701,0,0,0,0,0,0,0,0,0,-1,1462,323,0,0
245,701,0,0,0,0,0,0,0,0,0,-1,1469,323,0,0
252,701,0,0,0,0,0,0,0,0,0,-1,1476,323,0,0
259,701,0,0,0,0,0,0,0,0,0,-1,1483,323,0,0
266,701,0,0,0,0,0,0,0,0,0,-1,1490,323,0,0
273,701,0,0,0,0,0,0,0,0,0,-1,1497,323,0,0
280,701,0,0,0,0,0,0,0,0,0,-1,1504,323,0,0
287,701,0,0,0,0,0,0,0,0,0,-1,1511,323,0,0
294,701,0,0,0,0,0,0,0,0,0,-1,1518,323,0,0
301,701,0,0,0,0,0,0,0,0,0,-1,1525,323,0,0
308,701,0,0,0,0,0,0,0,0,0,-1,1532,323,0,0
315,701,0,0,0,0,0,0,0,0,0,-1,1539,323,0,0
322,701,0,0,0,0,0,0,0,0,0,-1,1546,323,0,0
329,701,0,0,0,0,0,0,0,0,0,-1,1553,323,0,0
336,701,0,0,0,0,0,0,0,0,0,-1,1560,323,0,0
343,701,0,0,0,0,0,0,0,0,0,-1,1567,323,0,0
350,701,0,0,0,0,0,0,0,0,0,-1,1574,323,0,0
357,701,0,0,0,0,0,0,0,0,0,-1,1581,323,0,0
364,701,0,0,0,0,0,0,0,0,0,-1,1588,323,0,0
371,701,0,0,0,0,0,0,0,0,0,-1,1595,323,0,0
378,701,0,0,0,0,0,0,0,0,0,-1,1602,323,0,0
385,701,0,0,0,0,0,0,0,0,0,-1,1609,323,0,0
392,701,0,0,0,0,0,0,0,0,0,-1,1616,323,0,0
399,701,0,0,0,0,0,0,0,0,0,-1,1623,323,0,0
406,701,0,0,0,0,0,0,0,0,0,-1,1630,323,0,0
413,701,0,0,0,0,0,0,0,0,0,-1,1637,323,0,0
420,701,0,0,0,0,0,0,0,0,0,-1,1644,323,0,0
427,701,0,0,0,0,0,0,0,0,0,-1,1651,323,0,0
434,701,0,0,0,0,0,0,0,0,0,-1,1658,323,0,0
441,701,0,0,0,0,0,0,0,0,0,-1,1665,323,0,0
448,701,0,0,0,0,0,0,0,0,0,-1,1672,323,0,0
455,701,0,0,0,0,0,0,0,0,0,-1,1679,323,0,0
462,701,0,0,0,0,0,0,0,0,0,-1,1686,323,0,0
469,701,0,0,0,0,0,0,0,0,0,-1,1693,323,0,0
476,701,0,0,0,0,0,0,0,0,0,-1,1700,323,0,0
483,701,0,0,0,0,0,0,0,0,0,-1,1707,323,0,0
490,701,0,0,0,0,0,0,0,0,0,-1,1714,323,0,0
497,701,0,0,0,0,0,0,0,0,0,-1,1721,323,0,0
504,701,0,0,0,0,0,0,0,0,0,-1,1728,323,0,0
511,701,0,0,0,0,0,0,0,0,0,-1,1735,323,0,0
518,701,0,0,0,0,0,0,0,0,0,-1,1742,323,0,0
525,701,0,0,0,0,0,0,0,0,0,-1,1749,323,0,0
532,701,0,0,0,0,0,0,0,0,0,-1,1756,323,0,0
539,701,0,0,0,0,0,0,0,0,0,-1,1763,323,0,0
546,701,0,0,0,0,0,0,0,0,0,-1,1770,323,0,0
553,701,0,0,0,0,0,0,0,0,0,-1,1777,323,0,0
560,701,0,0,0,0,0,0,0,0,0,-1,1784,323,0,0
567,701,0,0,0,0,0,0,0,0,0,-1,1791,323,0,0
574,701,0,0,0,0,0,0,0,0,0,-1,1798,323,0,0
581,701,0,0,0,0,0,0,0,0,0,-1,1805,323,0,0
588,701,0,0,0,0,0,0,0,0,0,-1,1812,323,0,0
595,701,0,0,0,0,0,0,0,0,0,-1,1819,323,0,0
602,701,0,0,0,0,0,0,0,0,0,-1,1826,323,0,0
609,701,0,0,0,0,0,0,0,0,0,-1,1833,323,0,0
616,701,0,0,0,0,0,0,0,0,0,-1,1840,323,0,0
623,701,0,0,0,0,0,0,0,0,0,-1,1847,323,0,0
630,701,0,0,0,0,0,0,0,0,0,-1,1854,323,0,0
637,701,0,0,0,0,0,0,0,0,0,-1,1861,323,0,0
644,701,0,0,0,0,0,0,0,0,0,-1,1868,323,0,0
651,701,0,0,0,0,0,0,0,0,0,-1,1875,323,0,0
658,701,0,0,0,0,0,0,0,0,0,-1,1882,323,0,0
665,701,0,0,0,0,0,0,0,0,0,-1,1889,323,0,0
672,701,0,0,0,0,0,0,0,0,0,-1,1896,323,0,0
679,701,0,0,0,0,0,0,0,0,0,-1,1903,323,0,0
686,701,0,0,0,0,0,0,0,0,0,-1,1910,323,0,0
693,701,0,0,0,0,0,0,0,0,0,-1,1917,323,0,0
700,701,0,0,0,0,0,0,0,0,0,-1,1924,323,0,0
707,701,0,0,0,0,0,0,0,0,0,-1,1931,323,0,0
714,701,0,0,0,0,0,0,0,0,0,-1,1938,323,0,0
721,701,0,0,0,0,0,0,0,0,0,-1,1945,323,0,0
728,701,0,0,0,0,0,0,0,0,0,-1,1952,323,0,0
735,701,0,0,0,0,0,0,0,0,0,-1,1959,323,0,0
742,701,0,0,0,0,0,0,0,0,0,-1,1966,323,0,0
749,701,0,0,0,0,0,0,0,0,0,-1,1973,323,0,0
756,701,0,0,0,0,0,0,0,0,0,-1,1980,323,0,0
763,701,0,0,0,0,0,0,0,0,0,-1,1987,323,0,0
770,701,0,0,0,0,0,0,0,0,0,-1,1994,323,0,0
777,701,0,0,0,0,0,0,0,0,0,-1,2001,323,0,0
784,701,0,0,0,0,0,0,0,0,0,-1,2008,323,0,0
791,701,0,0,0,0,0,0,0,0,0,-1,2015,323,0,0
798,701,0,0,0,0,0,0,0,0,0,-1,2022,323,0,0
805,701,0,0,0,0,0,0,0,0,0,-1,2029,323,0,0
812,701,0,0,0,0,0,0,0,0,0,-1,2036,323,0,0
-700,694,0,0,0,0,0,0,0,0,0,-1,524,330,0,0
-693,694,0,0,0,0,0,0,0,0,0,-1,531,330,0,0
-686,694,0,0,0,0,0,0,0,0,0,-1,538,330,0,0
-679,694,0,0,0,0,0,0,0,0,0,-1,545,330,0,0
-672,694,0,0,0,0,0,0,0,0,0,-1,552,330,0,0
-665,694,0,0,0,0,0,0,0,0,0,-1,559,330,0,0
-658,694,0,0,0,0,0,0,0,0,0,-1,566,330,0,0
-651,694,0,0,0,0,0,0,0,0,0,-1,573,330,0,0
-644,694,0,0,0,0,0,0,0,0,0,-1,580,330,0,0
-637,694,0,0,0,0,0,0,0,0,0,-1,587,330,0,0
-630,694,0,0,0,0,0,0,0,0,0,-1,594,330,0,0
-623,694,0,0,0,0,0,0,0,0,0,-1,601,330,0,0
-616,694,0,0,0,0,0,0,0,0,0,-1,608,330,0,0
-609,694,0,0,0,0,0,0,0,0,0,-1,615,330,0,0
-602,694,0,0,0,0,0,0,0,0,0,-1,622,330,0,0
-595,694,0,0,0,0,0,0,0,0,0,-1,629,330,0,0
-588,694,0,0,0,0,0,0,0,0,0,-1,636,330,0,0
-581,694,0,0,0,0,0,0,0,0,0,-1,643,330,0,0
-574,694,0,0,0,0,0,0,0,0,0,-1,650,330,0,0
-567,694,0,0,0,0,0,0,0,0,0,-1,657,330,0,0
-560,694,0,0,0,0,0,0,0,0,0,-1,664,330,0,0
-553,694,0,0,0,0,0,0,0,0,0,-1,671,330,0,0
-546,694,0,0,0,0,0,0,0,0,0,-1,678,330,0,0
-539,694,0,0,0,0,0,0,0,0,0,-1,685,330,0,0
-532,694,0,0,0,0,0,0,0,0,0,-1,692,330,0,0
-525,694,0,0,0,0,0,0,0,0,0,-1,699,330,0,0
-518,694,0,0,0,0,0,0,0,0,0,-1,706,330,0,0
-511,694,0,0,0,0,0,0,0,0,0,-1,713,330,0,0
-504,694,0,0,0,0,0,0,0,0,0,-1,720,330,0,0
-497,694,0,0,0,0,0,0,0,0,0,-1,727,330,0,0
-490,694,0,0,0,0,0,0,0,0,0,-1,734,330,0,0
-483,694,0,0,0,0,0,0,0,0,0,-1,741,330,0,0
-476,694,0,0,0,0,0,0,0,0,0,-1,748,330,0,0
-469,694,0,0,0,0,0,0,0,0,0,-1,755,330,0,0
-462,694,0,0,0,0,0,0,0,0,0,-1,762,330,0,0
-455,694,0,0,0,0,0,0,0,0,0,-1,769,330,0,0
-448,694,0,0,0,0,0,0,0,0,0,-1,776,330,0,0
-441,694,0,0,0,0,0,0,0,0,0,-1,783,330,0,0
-434,694,0,0,0,0,0,0,0,0,0,-1,790,330,0,0
-427,694,0,0,0,0,0,0,0,0,0,-1,797,330,0,0
-420,694,0,0,0,0,0,0,0,0,0,-1,804,330,0,0
-413,694,0,0,0,0,0,0,0,0,0,-1,811,330,0,0
-406,694,0,0,0,0,0,0,0,0,0,-1,818,330,0,0
-399,694,0,0,0,0,0,0,0,0,0,-1,825,330,0,0
-392,694,0,0,0,0,0,0,0,0,0,-1,832,330,0,0
-385,694,0,0,0,0,0,0,0,0,0,-1,839,330,0,0
-378,694,0,0,0,0,0,0,0,0,0,-1,846,330,0,0
-371,694,0,0,0,0,0,0,0,0,0,-1,853,330,0,0
-364,694,0,0,0,0,0,0,0,0,0,-1,860,330,0,0
-357,694,0,0,0,0,0,0,0,0,0,-1,867,330,0,0
-350,694,0,0,0,0,0,0,0,0,0,-1,874,330,0,0
-343,694,0,0,0,0,0,0,0,0,0,-1,881,330,0,0
-336,694,0,0,0,0,0,0,0,0,0,-1,888,330,0,0
-329,694,0,0,0,0,0,0,0,0,0,-1,895,330,0,0
-322,694,0,0,0,0,0,0,0,0,0,-1,902,330,0,0
-315,694,0,0,0,0,0,0,0,0,0,-1,909,330,0,0
-308,694,0,0,0,0,0,0,0,0,0,-1,916,330,0,0
-301,694,0,0,0,0,0,0,0,0,0,-1,923,330,0,0
-294,694,0,0,0,0,0,0,0,0,0,-1,930,330,0,0
-287,694,0,0,0,0,0,0,0,0,0,-1,937,330,0,0
-280,694,0,0,0,0,0,0,0,0,0,-1,944,330,0,0
-273,694,0,0,0,0,0,0,0,0,0,-1,951,330,0,0
-266,694,0,0,0,0,0,0,0,0,0,-1,958,330,0,0
-259,694,0,0,0,0,0,0,0,0,0,-1,965,330,0,0
-252,694,0,0,0,0,0,0,0,0,0,-1,972,330,0,0
-245,694,0,0,0,0,0,0,0,0,0,-1,979,330,0,0
-238,694,0,0,0,0,0,0,0,0,0,-1,986,330,0,0
-231,694,0,0,0,0,0,0,0,0,0,-1,993,330,0,0
-224,694,0,0,0,0,0,0,0,0,0,-1,1000,330,0,0
-217,694,0,0,0,0,0,0,0,0,0,-1,1007,330,0,0
-210,694,0,0,0,0,0,0,0,0,0,-1,1014,330,0,0
-203,694,0,0,0,0,0,0,0,0,0,-1,1021,330,0,0
-196,694,0,0,0,0,0,0,0,0,0,-1,1028,330,0,0
-189,694,0,0,0,0,0,0,0,0,0,-1,1035,330,0,0
-182,694,0,0,0,0,0,0,0,0,0,-1,1042,330,0,0
-175,694,0,0,0,0,0,0,0,0,0,-1,1049,330,0,0
-168,694,0,0,0,0,0,0,0,0,0,-1,1056,330,0,0
-161,694,0,0,0,0,0,0,0,0,0,-1,1063,330,0,0
-154,694,0,0,0,0,0,0,0,0,0,-1,1070,330,0,0
-147,694,0,0,0,0,0,0,0,0,0,-1,1077,330,0,0
-140,694,0,0,0,0,0,0,0,0,0,-1,1084,330,0,0
-133,694,0,0,0,0,0,0,0,0,0,-1,1091,330,0,0
-126,694,0,0,0,0,0,0,0,0,0,-1,1098,330,0,0
-119,694,0,0,0,0,0,0,0,0,0,-1,1105,330,0,0
-112,694,0,0,0,0,0,0,0,0,0,-1,1112,330,0,0
-105,694,2.5188,-19.3963,0,0,0,0,0,0,0,-1,1119,330,2.51882,19.3963
-98,694,1.34875,-10.1051,0,0,0,0,0,0,0,-1,1126,330,1.34874,10.1051
-91,694,6.62366,-46.8039,0,0,0,0,0,0,0,-1,1133,330,6.62363,46.8039
-84,694,0.0577393,-40.8823,0,0,0,0,0,0,0,-1,1140,330,0.0577026,40.8823
-77,694,-5.51379,-31.2714,0,0,0,0,0,0,0,-1,1147,330,-5.51383,31.2714
-70,694,-11.9945,-25.5143,0,0,0,0,0,0,0,-1,1154,330,-11.9945,25.5143
-63,694,-18.4752,-19.7572,0,0,0,0,0,0,0,-1,1161,330,-18.4752,19.7572
-56,694,-6.50623,-0.649139,0,0,0,0,0,0,0,-1,1168,330,-6.5062,0.649126
-49,694,-1.11426,0.0341797,0,0,0,0,0,0,0,-1,1175,330,-1.11424,-0.0341846
-42,694,-0.346313,-0.709595,0,0,0,0,0,0,0,-1,1182,330,-0.346298,0.709581
-35,694,-0.459106,-1.24713,0,0,0,0,0,0,0,-1,1189,330,-0.459142,1.24714
-28,694,-6.48413,-3.95972,0,0,0,0,0,0,0,-1,1196,330,-6.48414,3.9597
-21,694,7.13831,-55.3012,0,0,0,0,0,0,0,-1,1203,330,7.13827,55.3012
-14,694,8.46826,-58.9489,0,0,0,0,0,0,0,-1,1210,330,8.46828,58.9489
-7,694,9.22876,-58.0772,-0.00328978,0.0996773,0.0418711,0.114555,-0.018167,1.2294,0.08309,0.0476236,1217,330,9.22875,58.0772
0,694,8.89893,-57.2219,-0.00701529,0.111747,0.0369869,0.122324,-0.0175924,1.29226,0.0880013,0.0473186,1224,330,8.89888,57.2219
7,694,8.79712,-56.8356,0,0,0,0,0,0,0,-1,1231,330,8.79716,56.8356
14,694,8.60034,-56.5929,0,0,0,0,0,0,0,-1,1238,330,8.60034,56.5929
21,694,8.39771,-56.3737,0,0,0,0,0,0,0,-1,1245,330,8.3977,56.3737
28,694,8.9635,-57.0161,-0.0157192,0.126994,0.00732041,0.127368,-0.0160937,1.51968,0.0907535,0.0441538,1252,330,8.96348,57.016
35,694,8.98743,-57.5091,-0.0172084,0.12521,0.00118362,0.12522,-0.0172182,1.56249,0.0897715,0.0426331,1259,330,8.98744,57.5091
42,694,6.71545,-57.5605,-0.0182043,0.122589,-0.00443325,0.122729,-0.0183437,-1.53935,0.0885693,0.0472127,1266,330,6.71549,57.5606
49,694,8.47742,-56.2539,-0.0224782,0.119257,-0.011634,0.120206,-0.0234268,-1.48944,0.08898,0.0444765,1273,330,8.47738,56.2539
56,694,8.11023,-57.0373,-0.0269517,0.112125,-0.0177392,0.114352,-0.0291787,-1.44591,0.0875958,0.0407346,1280,330,8.11018,57.0373
63,694,8.06873,-57.7448,-0.0309217,0.103066,-0.0209285,0.106259,-0.0341146,-1.4194,0.0845376,0.0431057,1287,330,8.06876,57.7449
70,694,7.78625,-57.7229,-0.0362694,0.0961492,-0.0237022,0.100264,-0.0403841,-1.39891,0.0836203,0.0451701,1294,330,7.78629,57.7229
77,694,7.34485,-57.72,0,0,0,0,0,0,0,-1,1301,330,7.34479,57.72
84,694,6.95947,-57.7675,-0.0496444,0.0834437,-0.029623,0.0897394,-0.0559401,-1.36138,0.0848593,0.0474548,1308,330,6.95945,57.7676
91,694,6.61218,-57.8452,0,0,0,0,0,0,0,-1,1315,330,6.61221,57.8452
98,694,6.07788,-57.9419,-0.0589653,0.0679059,-0.0386704,0.0787634,-0.0698229,-1.29707,0.0858381,0.0466463,1322,330,6.07787,57.9419
105,694,2.63135,-57.6499,-0.0624232,0.0649038,-0.0408761,0.0768967,-0.0744161,-1.28541,0.0873644,0.0427636,1329,330,2.6314,57.6499
112,694,2.11621,-57.7997,-0.0645568,0.060753,-0.0432432,0.0742271,-0.0780308,-1.26874,0.0879153,0.0418066,1336,330,2.11616,57.7997
119,694,2.50574,-56.7402,-0.0674459,0.0553422,-0.0468429,0.0711718,-0.0832755,-1.24492,0.0892614,0.0454615,1343,330,2.50576,56.7402
126,694,1.89746,-56.9161,0,0,0,0,0,0,0,-1,1350,330,1.89745,56.9161
133,694,1.21082,-57.2646,-0.0616003,0.0417756,-0.0562468,0.0664771,-0.0863018,-1.15699,0.0884542,0.0438567,1357,330,1.21077,57.2646
140,694,0.423096,-58.0116,-0.0583404,0.0355542,-0.06048,0.0651698,-0.087956,-1.11544,0.0887329,0.0454841,1364,330,0.423075,58.0116
147,694,-0.289185,-58.7345,0,0,0,0,0,0,0,-1,1371,330,-0.289165,58.7345
154,694,-2.88672,-49.1509,0,0,0,0,0,0,0,-1,1378,330,-2.88667,49.1509
161,694,0.0187988,-38.6779,0,0,0,0,0,0,0,-1,1385,330,0.0187579,38.6779
168,694,30.451,0.196686,0,0,0,0,0,0,0,-1,1392,330,30.4511,-0.196674
175,694,31.0701,0.869873,0,0,0,0,0,0,0,-1,1399,330,31.07,-0.869874
182,694,8.29028,5.75238,0,0,0,0,0,0,0,-1,1406,330,8.29034,-5.75237
189,694,7.9801,4.46118,0,0,0,0,0,0,0,-1,1413,330,7.9801,-4.46118
196,694,7.39331,3.32632,0,0,0,0,0,0,0,-1,1420,330,7.39329,-3.32633
203,694,7.04492,2.20529,0,0,0,0,0,0,0,-1,1427,330,7.04496,-2.20529
210,694,6.44714,0.646912,0,0,0,0,0,0,0,-1,1434,330,6.44717,-0.646903
217,694,7.12061,-0.644958,0,0,0,0,0,0,0,-1,1441,330,7.12059,0.644961
224,694,6.74011,-1.70544,0,0,0,0,0,0,0,-1,1448,330,6.74013,1.70546
231,694,0,0,0,0,0,0,0,0,0,-1,1455,330,0,0
238,694,0,0,0,0,0,0,0,0,0,-1,1462,330,0,0
245,694,0,0,0,0,0,0,0,0,0,-1,1469,330,0,0
252,694,0,0,0,0,0,0,0,0,0,-1,1476,330,0,0
259,694,0,0,0,0,0,0,0,0,0,-1,1483,330,0,0
266,694,0,0,0,0,0,0,0,0,0,-1,1490,330,0,0
273,694,0,0,0,0,0,0,0,0,0,-1,1497,330,0,0
280,694,0,0,0,0,0,0,0,0,0,-1,1504,330,0,0
287,694,0,0,0,0,0,0,0,0,0,-1,1511,330,0,0
294,694,0,0,0,0,0,0,0,0,0,-1,1518,330,0,0
301,694,0,0,0,0,0,0,0,0,0,-1,1525,330,0,0
308,694,0,0,0,0,0,0,0,0,0,-1,1532,330,0,0
315,694,0,0,0,0,0,0,0,0,0,-1,1539,330,0,0
322,694,0,0,0,0,0,0,0,0,0,-1,1546,330,0,0
329,694,0,0,0,0,0,0,0,0,0,-1,1553,330,0,0
336,694,0,0,0,0,0,0,0,0,0,-1,1560,330,0,0
343,694,0,0,0,0,0,0,0,0,0,-1,1567,330,0,0
350,694,0,0,0,0,0,0,0,0,0,-1,1574,330,0,0
357,694,0,0,0,0,0,0,0,0,0,-1,1581,330,0,0
364,694,0,0,0,0,0,0,0,0,0,-1,1588,330,0,0
371,694,0,0,0,0,0,0,0,0,0,-1,1595,330,0,0
378,694,0,0,0,0,0,0,0,0,0,-1,1602,330,0,0
385,694,0,0,0,0,0,0,0,0,0,-1,1609,330,0,0
392,694,0,0,0,0,0,0,0,0,0,-1,1616,330,0,0
399,694,0,0,0,0,0,0,0,0,0,-1,1623,330,0,0
406,694,0,0,0,0,0,0,0,0,0,-1,1630,330,0,0
413,694,0,0,0,0,0,0,0,0,0,-1,1637,330,0,0
420,694,0,0,0,0,0,0,0,0,0,-1,1644,330,0,0
427,694,0,0,0,0,0,0,0,0,0,-1,1651,330,0,0
434,694,0,0,0,0,0,0,0,0,0,-1,1658,330,0,0
441,694,0,0,0,0,0,0,0,0,0,-1,1665,330,0,0
448,694,0,0,0,0,0,0,0,0,0,-1,1672,330,0,0
455,694,0,0,0,0,0,0,0,0,0,-1,1679,330,0,0
462,694,0,0,0,0,0,0,0,0,0,-1,1686,330,0,0
469,694,0,0,0,0,0,0,0,0,0,-1,1693,330,0,0
476,694,0,0,0,0,0,0,0,0,0,-1,1700,330,0,0
483,694,0,0,0,0,0,0,0,0,0,-1,1707,330,0,0
490,694,0,0,0,0,0,0,0,0,0,-1,1714,330,0,0
497,694,0,0,0,0,0,0,0,0,0,-1,1721,330,0,0
504,694,0,0,0,0,0,0,0,0,0,-1,1728,330,0,0
511,694,0,0,0,0,0,0,0,0,0,-1,1735,330,0,0
518,694,0,0,0,0,0,0,0,0,0,-1,1742,330,0,0
525,694,0,0,0,0,0,0,0,0,0,-1,1749,330,0,0
532,694,0,0,0,0,0,0,0,0,0,-1,1756,330,0,0
539,694,0,0,0,0,0,0,0,0,0,-1,1763,330,0,0
546,694,0,0,0,0,0,0,0,0,0,-1,1770,330,0,0
553,694,0,0,0,0,0,0,0,0,0,-1,1777,330,0,0
560,694,0,0,0,0,0,0,0,0,0,-1,1784,330,0,0
567,694,0,0,0,0,0,0,0,0,0,-1,1791,330,0,0
574,694,0,0,0,0,0,0,0,0,0,-1,1798,330,0,0
581,694,0,0,0,0,0,0,0,0,0,-1,1805,330,0,0
588,694,0,0,0,0,0,0,0,0,0,-1,1812,330,0,0
595,694,0,0,0,0,0,0,0,0,0,-1,1819,330,0,0
602,694,0,0,0,0,0,0,0,0,0,-1,1826,330,0,0
609,694,0,0,0,0,0,0,0,0,0,-1,1833,330,0,0
616,694,0,0,0,0,0,0,0,0,0,-1,1840,330,0,0
623,694,0,0,0,0,0,0,0,0,0,-1,1847,330,0,0
630,694,0,0,0,0,0,0,0,0,0,-1,1854,330,0,0
637,694,0,0,0,0,0,0,0,0,0,-1,1861,330,0,0
644,694,0,0,0,0,0,0,0,0,0,-1,1868,330,0,0
651,694,0,0,0,0,0,0,0,0,0,-1,1875,330,0,0
658,694,0,0,0,0,0,0,0,0,0,-1,1882,330,0,0
665,694,0,0,0,0,0,0,0,0,0,-1,1889,330,0,0
672,694,0,0,0,0,0,0,0,0,0,-1,1896,330,0,0
679,694,0,0,0,0,0,0,0,0,0,-1,1903,330,0,0
686,694,0,0,0,0,0,0,0,0,0,-1,1910,330,0,0
693,694,0,0,0,0,0,0,0,0,0,-1,1917,330,0,0
700,694,0,0,0,0,0,0,0,0,0,-1,1924,330,0,0
707,694,0,0,0,0,0,0,0,0,0,-1,1931,330,0,0
714,694,0,0,0,0,0,0,0,0,0,-1,1938,330,0,0
721,694,0,0,0,0,0,0,0,0,0,-1,1945,330,0,0
728,694,0,0,0,0,0,0,0,0,0,-1,1952,330,0,0
735,694,0,0,0,0,0,0,0,0,0,-1,1959,330,0,0
742,694,0,0,0,0,0,0,0,0,0,-1,1966,330,0,0
749,694,0,0,0,0,0,0,0,0,0,-1,1973,330,0,0
756,694,0,0,0,0,0,0,0,0,0,-1,1980,330,0,0
763,694,0,0,0,0,0,0,0,0,0,-1,1987,330,0,0
770,694,0,0,0,0,0,0,0,0,0,-1,1994,330,0,0
777,694,0,0,0,0,0,0,0,0,0,-1,2001,330,0,0
784,694,0,0,0,0,0,0,0,0,0,-1,2008,330,0,0
791,694,0,0,0,0,0,0,0,0,0,-1,2015,330,0,0
798,694,0,0,0,0,0,0,0,0,0,-1,2022,330,0,0
805,694,0,0,0,0,0,0,0,0,0,-1,2029,330,0,0
812,694,0,0,0,0,0,0,0,0,0,-1,2036,330,0,0
-700,687,0,0,0,0,0,0,0,0,0,-1,524,337,0,0
-693,687,0,0,0,0,0,0,0,0,0,-1,531,337,0,0
-686,687,0,0,0,0,0,0,0,0,0,-1,538,337,0,0
-679,687,0,0,0,0,0,0,0,0,0,-1,545,337,0,0
-672,687,0,0,0,0,0,0,0,0,0,-1,552,337,0,0
-665,687,0,0,0,0,0,0,0,0,0,-1,559,337,0,0
-658,687,0,0,0,0,0,0,0,0,0,-1,566,337,0,0
-651,687,0,0,0,0,0,0,0,0,0,-1,573,337,0,0
-644,687,0,0,0,0,0,0,0,0,0,-1,580,337,0,0
-637,687,0,0,0,0,0,0,0,0,0,-1,587,337,0,0
-630,687,0,0,0,0,0,0,0,0,0,-1,594,337,0,0
-623,687,0,0,0,0,0,0,0,0,0,-1,601,337,0,0
-616,687,0,0,0,0,0,0,0,0,0,-1,608,337,0,0
-609,687,0,0,0,0,0,0,0,0,0,-1,615,337,0,0
-602,687,0,0,0,0,0,0,0,0,0,-1,622,337,0,0
-595,687,0,0,0,0,0,0,0,0,0,-1,629,337,0,0
-588,687,0,0,0,0,0,0,0,0,0,-1,636,337,0,0
-581,687,0,0,0,0,0,0,0,0,0,-1,643,337,0,0
-574,687,0,0,0,0,0,0,0,0,0,-1,650,337,0,0
-567,687,0,0,0,0,0,0,0,0,0,-1,657,337,0,0
-560,687,0,0,0,0,0,0,0,0,0,-1,664,337,0,0
-553,687,0,0,0,0,0,0,0,0,0,-1,671,337,0,0
-546,687,0,0,0,0,0,0,0,0,0,-1,678,337,0,0
-539,687,0,0,0,0,0,0,0,0,0,-1,685,337,0,0
-532,687,0,0,0,0,0,0,0,0,0,-1,692,337,0,0
-525,687,0,0,0,0,0,0,0,0,0,-1,699,337,0,0
-518,687,0,0,0,0,0,0,0,0,0,-1,706,337,0,0
-511,687,0,0,0,0,0,0,0,0,0,-1,713,337,0,0
-504,687,0,0,0,0,0,0,0,0,0,-1,720,337,0,0
-497,687,0,0,0,0,0,0,0,0,0,-1,727,337,0,0
-490,687,0,0,0,0,0,0,0,0,0,-1,734,337,0,0
-483,687,0,0,0,0,0,0,0,0,0,-1,741,337,0,0
-476,687,0,0,0,0,0,0,0,0,0,-1,748,337,0,0
-469,687,0,0,0,0,0,0,0,0,0,-1,755,337,0,0
-462,687,0,0,0,0,0,0,0,0,0,-1,762,337,0,0
-455,687,0,0,0,0,0,0,0,0,0,-1,769,337,0,0
-448,687,0,0,0,0,0,0,0,0,0,-1,776,337,0,0
-441,687,0,0,0,0,0,0,0,0,0,-1,783,337,0,0
-434,687,0,0,0,0,0,0,0,0,0,-1,790,337,0,0
-427,687,0,0,0,0,0,0,0,0,0,-1,797,337,0,0
-420,687,0,0,0,0,0,0,0,0,0,-1,804,337,0,0
-413,687,0,0,0,0,0,0,0,0,0,-1,811,337,0,0
-406,687,0,0,0,0,0,0,0,0,0,-1,818,337,0,0
-399,687,0,0,0,0,0,0,0,0,0,-1,825,337,0,0
-392,687,0,0,0,0,0,0,0,0,0,-1,832,337,0,0
-385,687,0,0,0,0,0,0,0,0,0,-1,839,337,0,0
-378,687,0,0,0,0,0,0,0,0,0,-1,846,337,0,0
-371,687,0,0,0,0,0,0,0,0,0,-1,853,337,0,0
-364,687,0,0,0,0,0,0,0,0,0,-1,860,337,0,0
-357,687,0,0,0,0,0,0,0,0,0,-1,867,337,0,0
-350,687,0,0,0,0,0,0,0,0,0,-1,874,337,0,0
-343,687,0,0,0,0,0,0,0,0,0,-1,881,337,0,0
-336,687,0,0,0,0,0,0,0,0,0,-1,888,337,0,0
-329,687,0,0,0,0,0,0,0,0,0,-1,895,337,0,0
-322,687,0,0,0,0,0,0,0,0,0,-1,902,337,0,0
-315,687,0,0,0,0,0,0,0,0,0,-1,909,337,0,0
-308,687,0,0,0,0,0,0,0,0,0,-1,916,337,0,0
-301,687,0,0,0,0,0,0,0,0,0,-1,923,337,0,0
-294,687,0,0,0,0,0,0,0,0,0,-1,930,337,0,0
-287,687,0,0,0,0,0,0,0,0,0,-1,937,337,0,0
-280,687,0,0,0,0,0,0,0,0,0,-1,944,337,0,0
-273,687,0,0,0,0,0,0,0,0,0,-1,951,337,0,0
-266,687,0,0,0,0,0,0,0,0,0,-1,958,337,0,0
-259,687,0,0,0,0,0,0,0,0,0,-1,965,337,0,0
-252,687,0,0,0,0,0,0,0,0,0,-1,972,337,0,0
-245,687,0,0,0,0,0,0,0,0,0,-1,979,337,0,0
-238,687,0,0,0,0,0,0,0,0,0,-1,986,337,0,0
-231,687,0,0,0,0,0,0,0,0,0,-1,993,337,0,0
-224,687,0,0,0,0,0,0,0,0,0,-1,1000,337,0,0
-217,687,0,0,0,0,0,0,0,0,0,-1,1007,337,0,0
-210,687,0,0,0,0,0,0,0,0,0,-1,1014,337,0,0
-203,687,0,0,0,0,0,0,0,0,0,-1,1021,337,0,0
-196,687,0,0,0,0,0,0,0,0,0,-1,1028,337,0,0
-189,687,0,0,0,0,0,0,0,0,0,-1,1035,337,0,0
-182,687,0,0,0,0,0,0,0,0,0,-1,1042,337,0,0
-175,687,0,0,0,0,0,0,0,0,0,-1,1049,337,0,0
-168,687,0,0,0,0,0,0,0,0,0,-1,1056,337,0,0
-161,687,0,0,0,0,0,0,0,0,0,-1,1063,337,0,0
-154,687,0,0,0,0,0,0,0,0,0,-1,1070,337,0,0
-147,687,0,0,0,0,0,0,0,0,0,-1,1077,337,0,0
-140,687,0,0,0,0,0,0,0,0,0,-1,1084,337,0,0
-133,687,7.93958,-37.548,0,0,0,0,0,0,0,-1,1091,337,7.93957,37.548
-126,687,0.688477,-38.7298,0,0,0,0,0,0,0,-1,1098,337,0.688509,38.7298
-119,687,7.70825,-33.9236,0,0,0,0,0,0,0,-1,1105,337,7.70826,33.9236
-112,687,7.99866,-32.2983,0,0,0,0,0,0,0,-1,1112,337,7.99866,32.2983
-105,687,1.3208,-29.8313,0,0,0,0,0,0,0,-1,1119,337,1.3208,29.8313
-98,687,13.7111,-47.5645,0,0,0,0,0,0,0,-1,1126,337,13.711,47.5645
-91,687,7.22083,-41.1667,0,0,0,0,0,0,0,-1,1133,337,7.22079,41.1666
-84,687,0.745117,-35.0345,0,0,0,0,0,0,0,-1,1140,337,0.745155,35.0345
-77,687,-5.74353,-28.9553,0,0,0,0,0,0,0,-1,1147,337,-5.74357,28.9553
-70,687,-11.6842,-19.8473,0,0,0,0,0,0,0,-1,1154,337,-11.6842,19.8473
-63,687,-17.6757,-14.8966,0,0,0,0,0,0,0,-1,1161,337,-17.6756,14.8966
-56,687,-18.104,7.81931,0,0,0,0,0,0,0,-1,1168,337,-18.104,-7.81931
-49,687,-15.6449,-9.94391,0,0,0,0,0,0,0,-1,1175,337,-15.6449,9.94392
-42,687,-4.2019,-0.405609,0,0,0,0,0,0,0,-1,1182,337,-4.20192,0.405614
-35,687,-4.42273,-0.688171,0,0,0,0,0,0,0,-1,1189,337,-4.42276,0.688178
-28,687,-1.14038,-1.39072,0,0,0,0,0,0,0,-1,1196,337,-1.14035,1.3907
-21,687,8.57568,-58.074,0,0,0,0,0,0,0,-1,1203,337,8.57564,58.074
-14,687,8.66626,-58.0955,-0.0035804,0.0702974,0.030946,0.081547,-0.0148301,1.22212,0.0599229,0.0463076,1210,337,8.66622,58.0955
-7,687,8.7395,-58.0794,-0.0057352,0.0832903,0.0306848,0.0928418,-0.0152867,1.26903,0.067569,0.0457541,1217,337,8.73956,58.0794
0,687,8.80933,-58.0412,-0.00820118,0.0925811,0.0273098,0.0995057,-0.0151257,1.32247,0.0719113,0.0474311,1224,337,8.80935,58.0412
7,687,8.77686,-58.0311,0,0,0,0,0,0,0,-1,1231,337,8.7769,58.0311
14,687,8.58704,-57.5339,-0.0117472,0.103062,0.0158158,0.105201,-0.0138861,1.43637,0.0751915,0.0461794,1238,337,8.58705,57.5339
21,687,8.41187,-57.528,0,0,0,0,0,0,0,-1,1245,337,8.41191,57.528
28,687,8.38306,-57.7214,0,0,0,0,0,0,0,-1,1252,337,8.38302,57.7214
35,687,7.73279,-57.9042,0,0,0,0,0,0,0,-1,1259,337,7.73282,57.9042
42,687,7.26318,-57.7658,0,0,0,0,0,0,0,-1,1266,337,7.2632,57.7658
49,687,6.79358,-57.6275,0,0,0,0,0,0,0,-1,1273,337,6.79359,57.6275
56,687,7.11755,-58.1772,0,0,0,0,0,0,0,-1,1280,337,7.11757,58.1772
63,687,7.802,-58.2366,-0.0276273,0.0907601,-0.0134511,0.0922691,-0.0291364,-1.45907,0.0731844,0.0437782,1287,337,7.80199,58.2366
70,687,7.82959,-58.2257,-0.0323831,0.0852072,-0.0154951,0.0872147,-0.0343907,-1.44195,0.0723832,0.0419706,1294,337,7.82956,58.2257
77,687,8.87341,-57.5662,0,0,0,0,0,0,0,-1,1301,337,8.87343,57.5662
84,687,6.68921,-58.3917,0,0,0,0,0,0,0,-1,1308,337,6.68916,58.3917
91,687,6.64331,-58.1577,0,0,0,0,0,0,0,-1,1315,337,6.64333,58.1577
98,687,4.23352,-58.3523,-0.0523838,0.0610649,-0.0285684,0.0678528,-0.0591717,-1.33752,0.0733947,0.0443049,1322,337,4.23352,58.3523
105,687,3.23511,-58.2689,-0.0552016,0.0585227,-0.0306256,0.0662456,-0.0629245,-1.32377,0.0745846,0.0456092,1329,337,3.23506,58.2688
112,687,2.25793,-58.1735,0,0,0,0,0,0,0,-1,1336,337,2.25793,58.1735
119,687,2.5929,-57.4001,0,0,0,0,0,0,0,-1,1343,337,2.59291,57.4001
126,687,1.93323,-57.1112,0,0,0,0,0,0,0,-1,1350,337,1.93327,57.1112
133,687,1.74573,-57.2509,-0.0540918,0.0414773,-0.043263,0.0581525,-0.0707669,-1.20291,0.0745503,0.0448913,1357,337,1.74568,57.2509
140,687,1.25024,-57.9696,-0.050756,0.0376007,-0.0460176,0.0572137,-0.0703691,-1.1679,0.0737904,0.0488124,1364,337,1.25027,57.9696
147,687,0.559326,-58.5696,0,0,0,0,0,0,0,-1,1371,337,0.559314,58.5696
154,687,5.29272,-50.2722,0,0,0,0,0,0,0,-1,1378,337,5.29275,50.2722
161,687,29.3895,-1.90628,0,0,0,0,0,0,0,-1,1385,337,29.3895,1.90628
168,687,29.8564,-1.19434,0,0,0,0,0,0,0,-1,1392,337,29.8564,1.19434
175,687,30.3419,-0.453583,0,0,0,0,0,0,0,-1,1399,337,30.3419,0.45357
182,687,6.67249,0.289917,0,0,0,0,0,0,0,-1,1406,337,6.67247,-0.289916
189,687,7.76062,4.53635,0,0,0,0,0,0,0,-1,1413,337,7.76064,-4.53636
196,687,6.99048,3.2966,0,0,0,0,0,0,0,-1,1420,337,6.99046,-3.2966
203,687,6.36499,2.1445,0,0,0,0,0,0,0,-1,1427,337,6.36499,-2.14451
210,687,6.68066,0.674652,0,0,0,0,0,0,0,-1,1434,337,6.68062,-0.674655
217,687,5.99683,-0.630493,0,0,0,0,0,0,0,-1,1441,337,5.99684,0.630497
224,687,5.52917,0.524902,0,0,0,0,0,0,0,-1,1448,337,5.5292,-0.524915
231,687,5.85583,-1.73651,0,0,0,0,0,0,0,-1,1455,337,5.85577,1.73651
238,687,5.96582,-2.96774,0,0,0,0,0,0,0,-1,1462,337,5.96577,2.96773
245,687,1.28259,2.32211,0,0,0,0,0,0,0,-1,1469,337,1.28258,-2.32211
252,687,1.97278,3.88422,0,0,0,0,0,0,0,-1,1476,337,1.97281,-3.88421
259,687,0,0,0,0,0,0,0,0,0,-1,1483,337,0,0
266,687,0,0,0,0,0,0,0,0,0,-1,1490,337,0,0
273,687,0,0,0,0,0,0,0,0,0,-1,1497,337,0,0
280,687,0,0,0,0,0,0,0,0,0,-1,1504,337,0,0
287,687,0,0,0,0,0,0,0,0,0,-1,1511,337,0,0
294,687,0,0,0,0,0,0,0,0,0,-1,1518,337,0,0
301,687,0,0,0,0,0,0,0,0,0,-1,1525,337,0,0
308,687,0,0,0,0,0,0,0,0,0,-1,1532,337,0,0
315,687,0,0,0,0,0,0,0,0,0,-1,1539,337,0,0
322,687,0,0,0,0,0,0,0,0,0,-1,1546,337,0,0
329,687,0,0,0,0,0,0,0,0,0,-1,1553,337,0,0
336,687,0,0,0,0,0,0,0,0,0,-1,1560,337,0,0
343,687,0,0,0,0,0,0,0,0,0,-1,1567,337,0,0
350,687,0,0,0,0,0,0,0,0,0,-1,1574,337,0,0
357,687,0,0,0,0,0,0,0,0,0,-1,1581,337,0,0
364,687,0,0,0,0,0,0,0,0,0,-1,1588,337,0,0
371,687,0,0,0,0,0,0,0,0,0,-1,1595,337,0,0
378,687,0,0,0,0,0,0,0,0,0,-1,1602,337,0,0
385,687,0,0,0,0,0,0,0,0,0,-1,1609,337,0,0
392,687,0,0,0,0,0,0,0,0,0,-1,1616,337,0,0
399,687,0,0,0,0,0,0,0,0,0,-1,1623,337,0,0
406,687,0,0,0,0,0,0,0,0,0,-1,1630,337,0,0
413,687,0,0,0,0,0,0,0,0,0,-1,1637,337,0,0
420,687,0,0,0,0,0,0,0,0,0,-1,1644,337,0,0
427,687,0,0,0,0,0,0,0,0,0,-1,1651,337,0,0
434,687,0,0,0,0,0,0,0,0,0,-1,1658,337,0,0
441,687,0,0,0,0,0,0,0,0,0,-1,1665,337,0,0
448,687,0,0,0,0,0,0,0,0,0,-1,1672,337,0,0
455,687,0,0,0,0,0,0,0,0,0,-1,1679,337,0,0
462,687,0,0,0,0,0,0,0,0,0,-1,1686,337,0,0
469,687,0,0,0,0,0,0,0,0,0,-1,1693,337,0,0
476,687,0,0,0,0,0,0,0,0,0,-1,1700,337,0,0
483,687,0,0,0,0,0,0,0,0,0,-1,1707,337,0,0
490,687,0,0,0,0,0,0,0,0,0,-1,1714,337,0,0
497,687,0,0,0,0,0,0,0,0,0,-1,1721,337,0,0
504,687,0,0,0,0,0,0,0,0,0,-1,1728,337,0,0
511,687,0,0,0,0,0,0,0,0,0,-1,1735,337,0,0
518,687,0,0,0,0,0,0,0,0,0,-1,1742,337,0,0
525,687,0,0,0,0,0,0,0,0,0,-1,1749,337,0,0
532,687,0,0,0,0,0,0,0,0,0,-1,1756,337,0,0
539,687,0,0,0,0,0,0,0,0,0,-1,1763,337,0,0
546,687,0,0,0,0,0,0,0,0,0,-1,1770,337,0,0
553,687,0,0,0,0,0,0,0,0,0,-1,1777,337,0,0
560,687,0,0,0,0,0,0,0,0,0,-1,1784,337,0,0
567,687,0,0,0,0,0,0,0,0,0,-1,1791,337,0,0
574,687,0,0,0,0,0,0,0,0,0,-1,1798,337,0,0
581,687,0,0,0,0,0,0,0,0,0,-1,1805,337,0,0
588,687,0,0,0,0,0,0,0,0,0,-1,1812,337,0,0
595,687,0,0,0,0,0,0,0,0,0,-1,1819,337,0,0
602,687,0,0,0,0,0,0,0,0,0,-1,1826,337,0,0
609,687,0,0,0,0,0,0,0,0,0,-1,1833,337,0,0
616,687,0,0,0,0,0,0,0,0,0,-1,1840,337,0,0
623,687,0,0,0,0,0,0,0,0,0,-1,1847,337,0,0
630,687,0,0,0,0,0,0,0,0,0,-1,1854,337,0,0
637,687,0,0,0,0,0,0,0,0,0,-1,1861,337,0,0
644,687,0,0,0,0,0,0,0,0,0,-1,1868,337,0,0
651,687,0,0,0,0,0,0,0,0,0,-1,1875,337,0,0
658,687,0,0,0,0,0,0,0,0,0,-1,1882,337,0,0
665,687,0,0,0,0,0,0,0,0,0,-1,1889,337,0,0
672,687,0,0,0,0,0,0,0,0,0,-1,1896,337,0,0
679,687,0,0,0,0,0,0,0,0,0,-1,1903,337,0,0
686,687,0,0,0,0,0,0,0,0,0,-1,1910,337,0,0
693,687,0,0,0,0,0,0,0,0,0,-1,1917,337,0,0
700,687,0,0,0,0,0,0,0,0,0,-1,1924,337,0,0
707,687,0,0,0,0,0,0,0,0,0,-1,1931,337,0,0
714,687,0,0,0,0,0,0,0,0,0,-1,1938,337,0,0
721,687,0,0,0,0,0,0,0,0,0,-1,1945,337,0,0
728,687,0,0,0,0,0,0,0,0,0,-1,1952,337,0,0
735,687,0,0,0,0,0,0,0,0,0,-1,1959,337,0,0
742,687,0,0,0,0,0,0,0,0,0,-1,1966,337,0,0
749,687,0,0,0,0,0,0,0,0,0,-1,1973,337,0,0
756,687,0,0,0,0,0,0,0,0,0,-1,1980,337,0,0
763,687,0,0,0,0,0,0,0,0,0,-1,1987,337,0,0
770,687,0,0,0,0,0,0,0,0,0,-1,1994,337,0,0
777,687,0,0,0,0,0,0,0,0,0,-1,2001,337,0,0
784,687,0,0,0,0,0,0,0,0,0,-1,2008,337,0,0
791,687,0,0,0,0,0,0,0,0,0,-1,2015,337,0,0
798,687,0,0,0,0,0,0,0,0,0,-1,2022,337,0,0
805,687,0,0,0,0,0,0,0,0,0,-1,2029,337,0,0
812,687,0,0,0,0,0,0,0,0,0,-1,2036,337,0,0
-700,680,0,0,0,0,0,0,0,0,0,-1,524,344,0,0
-693,680,0,0,0,0,0,0,0,0,0,-1,531,344,0,0
-686,680,0,0,0,0,0,0,0,0,0,-1,538,344,0,0
-679,680,0,0,0,0,0,0,0,0,0,-1,545,344,0,0
-672,680,0,0,0,0,0,0,0,0,0,-1,552,344,0,0
-665,680,0,0,0,0,0,0,0,0,0,-1,559,344,0,0
-658,680,0,0,0,0,0,0,0,0,0,-1,566,344,0,0
-651,680,0,0,0,0,0,0,0,0,0,-1,573,344,0,0
-644,680,0,0,0,0,0,0,0,0,0,-1,580,344,0,0
-637,680,0,0,0,0,0,0,0,0,0,-1,587,344,0,0
-630,680,0,0,0,0,0,0,0,0,0,-1,594,344,0,0
-623,680,0,0,0,0,0,0,0,0,0,-1,601,344,0,0
-616,680,0,0,0,0,0,0,0,0,0,-1,608,344,0,0
-609,680,0,0,0,0,0,0,0,0,0,-1,615,344,0,0
-602,680,0,0,0,0,0,0,0,0,0,-1,622,344,0,0
-595,680,0,0,0,0,0,0,0,0,0,-1,629,344,0,0
-588,680,0,0,0,0,0,0,0,0,0,-1,636,344,0,0
-581,680,0,0,0,0,0,0,0,0,0,-1,643,344,0,0
-574,680,0,0,0,0,0,0,0,0,0,-1,650,344,0,0
-567,680,0,0,0,0,0,0,0,0,0,-1,657,344,0,0
-560,680,0,0,0,0,0,0,0,0,0,-1,664,344,0,0
-553,680,0,0,0,0,0,0,0,0,0,-1,671,344,0,0
-546,680,0,0,0,0,0,0,0,0,0,-1,678,344,0,0
-539,680,0,0,0,0,0,0,0,0,0,-1,685,344,0,0
-532,680,0,0,0,0,0,0,0,0,0,-1,692,344,0,0
-525,680,0,0,0,0,0,0,0,0,0,-1,699,344,0,0
-518,680,0,0,0,0,0,0,0,0,0,-1,706,344,0,0
-511,680,0,0,0,0,0,0,0,0,0,-1,713,344,0,0
-504,680,0,0,0,0,0,0,0,0,0,-1,720,344,0,0
-497,680,0,0,0,0,0,0,0,0,0,-1,727,344,0,0
-490,680,0,0,0,0,0,0,0,0,0,-1,734,344,0,0
-483,680,0,0,0,0,0,0,0,0,0,-1,741,344,0,0
-476,680,0,0,0,0,0,0,0,0,0,-1,748,344,0,0
-469,680,0,0,0,0,0,0,0,0,0,-1,755,344,0,0
-462,680,0,0,0,0,0,0,0,0,0,-1,762,344,0,0
-455,680,0,0,0,0,0,0,0,0,0,-1,769,344,0,0
-448,680,0,0,0,0,0,0,0,0,0,-1,776,344,0,0
-441,680,0,0,0,0,0,0,0,0,0,-1,783,344,0,0
-434,680,0,0,0,0,0,0,0,0,0,-1,790,344,0,0
-427,680,0,0,0,0,0,0,0,0,0,-1,797,344,0,0
-420,680,0,0,0,0,0,0,0,0,0,-1,804,344,0,0
-413,680,0,0,0,0,0,0,0,0,0,-1,811,344,0,0
-406,680,0,0,0,0,0,0,0,0,0,-1,818,344,0,0
-399,680,0,0,0,0,0,0,0,0,0,-1,825,344,0,0
-392,680,0,0,0,0,0,0,0,0,0,-1,832,344,0,0
-385,680,0,0,0,0,0,0,0,0,0,-1,839,344,0,0
-378,680,0,0,0,0,0,0,0,0,0,-1,846,344,0,0
-371,680,0,0,0,0,0,0,0,0,0,-1,853,344,0,0
-364,680,0,0,0,0,0,0,0,0,0,-1,860,344,0,0
-357,680,0,0,0,0,0,0,0,0,0,-1,867,344,0,0
-350,680,0,0,0,0,0,0,0,0,0,-1,874,344,0,0
-343,680,0,0,0,0,0,0,0,0,0,-1,881,344,0,0
-336,680,0,0,0,0,0,0,0,0,0,-1,888,344,0,0
-329,680,0,0,0,0,0,0,0,0,0,-1,895,344,0,0
-322,680,0,0,0,0,0,0,0,0,0,-1,902,344,0,0
-315,680,0,0,0,0,0,0,0,0,0,-1,909,344,0,0
-308,680,0,0,0,0,0,0,0,0,0,-1,916,344,0,0
-301,680,0,0,0,0,0,0,0,0,0,-1,923,344,0,0
-294,680,0,0,0,0,0,0,0,0,0,-1,930,344,0,0
-287,680,0,0,0,0,0,0,0,0,0,-1,937,344,0,0
-280,680,0,0,0,0,0,0,0,0,0,-1,944,344,0,0
-273,680,0,0,0,0,0,0,0,0,0,-1,951,344,0,0
-266,680,0,0,0,0,0,0,0,0,0,-1,958,344,0,0
-259,680,0,0,0,0,0,0,0,0,0,-1,965,344,0,0
-252,680,0,0,0,0,0,0,0,0,0,-1,972,344,0,0
-245,680,0,0,0,0,0,0,0,0,0,-1,979,344,0,0
-238,680,0,0,0,0,0,0,0,0,0,-1,986,344,0,0
-231,680,0,0,0,0,0,0,0,0,0,-1,993,344,0,0
-224,680,0,0,0,0,0,0,0,0,0,-1,1000,344,0,0
-217,680,0,0,0,0,0,0,0,0,0,-1,1007,344,0,0
-210,680,0,0,0,0,0,0,0,0,0,-1,1014,344,0,0
-203,680,0,0,0,0,0,0,0,0,0,-1,1021,344,0,0
-196,680,0,0,0,0,0,0,0,0,0,-1,1028,344,0,0
-189,680,0,0,0,0,0,0,0,0,0,-1,1035,344,0,0
-182,680,0,0,0,0,0,0,0,0,0,-1,1042,344,0,0
-175,680,0,0,0,0,0,0,0,0,0,-1,1049,344,0,0
-168,680,0,0,0,0,0,0,0,0,0,-1,1056,344,0,0
-161,680,0,0,0,0,0,0,0,0,0,-1,1063,344,0,0
-154,680,2.25244,-29.1442,0,0,0,0,0,0,0,-1,1070,344,2.25241,29.1442
-147,680,9.29614,-33.0369,0,0,0,0,0,0,0,-1,1077,344,9.29612,33.0369
-140,680,6.98022,-36.6899,0,0,0,0,0,0,0,-1,1084,344,6.98023,36.6899
-133,680,1.85693,-39.7233,0,0,0,0,0,0,0,-1,1091,344,1.85699,39.7233
-126,680,2.30017,-38.3751,0,0,0,0,0,0,0,-1,1098,344,2.30011,38.3751
-119,680,2.74329,-37.0269,0,0,0,0,0,0,0,-1,1105,344,2.74323,37.0269
-112,680,7.7467,-32.4407,0,0,0,0,0,0,0,-1,1112,344,7.74668,32.4407
-105,680,20.6371,-48.461,0,0,0,0,0,0,0,-1,1119,344,20.6371,48.461
-98,680,14.2684,-41.9997,0,0,0,0,0,0,0,-1,1126,344,14.2685,41.9997
-91,680,7.89648,-35.5147,0,0,0,0,0,0,0,-1,1133,344,7.8965,35.5147
-84,680,1.47168,-29.471,0,0,0,0,0,0,0,-1,1140,344,1.47163,29.471
-77,680,-4.95337,-23.3355,0,0,0,0,0,0,0,-1,1147,344,-4.9534,23.3356
-70,680,-11.5099,-17.4337,0,0,0,0,0,0,0,-1,1154,344,-11.5098,17.4338
-63,680,-17.2391,-1.43134,0,0,0,0,0,0,0,-1,1161,344,-17.2392,1.43133
-56,680,-6.96912,-8.83356,0,0,0,0,0,0,0,-1,1168,344,-6.96907,8.83354
-49,680,-6.7677,-2.24063,0,0,0,0,0,0,0,-1,1175,344,-6.76772,2.24063
-42,680,-1.02368,0.618805,0,0,0,0,0,0,0,-1,1182,344,-1.0237,-0.618797
-35,680,-0.947876,-0.942719,0,0,0,0,0,0,0,-1,1189,344,-0.947842,0.942731
-28,680,-1.46118,-1.10574,0,0,0,0,0,0,0,-1,1196,344,-1.4612,1.10575
-21,680,8.44592,-57.6417,0,0,0,0,0,0,0,-1,1203,344,8.44598,57.6417
-14,680,8.35559,-57.9816,-0.00563187,0.0584392,0.0216563,0.0650724,-0.012265,1.27358,0.0479952,0.0452327,1210,344,8.35553,57.9816
-7,680,8.4115,-58.2454,-0.00714637,0.0681115,0.021743,0.0739417,-0.0129766,1.30882,0.0541409,0.0454219,1217,344,8.41148,58.2454
0,680,8.44568,-58.3319,-0.00869989,0.0751502,0.0195124,0.0794685,-0.0130181,1.353,0.057809,0.0464548,1224,344,8.44562,58.3319
7,680,8.48193,-58.3569,0,0,0,0,0,0,0,-1,1231,344,8.48198,58.3569
14,680,8.49658,-58.3887,0,0,0,0,0,0,0,-1,1238,344,8.49654,58.3887
21,680,8.26294,-58.3377,0,0,0,0,0,0,0,-1,1245,344,8.26294,58.3377
28,680,8.10376,-58.7927,0,0,0,0,0,0,0,-1,1252,344,8.1037,58.7927
35,680,7.81958,-58.4747,0,0,0,0,0,0,0,-1,1259,344,7.81959,58.4747
42,680,7.54053,-58.5978,-0.0140099,0.0879776,0.000364343,0.0879789,-0.0140112,1.56722,0.0638376,0.0438791,1266,344,7.54051,58.5978
49,680,7.26526,-58.7571,-0.0172906,0.0867838,-0.00330141,0.0868884,-0.0173953,-1.53912,0.0645106,0.0435505,1273,344,7.26524,58.7571
56,680,7.17163,-58.8447,-0.0208145,0.0828704,-0.00655014,0.0832825,-0.0212266,-1.50796,0.0637856,0.0424157,1280,344,7.17163,58.8447
63,680,7.26819,-58.7015,-0.0238441,0.077696,-0.0081215,0.0783414,-0.0244896,-1.49149,0.0620239,0.0398372,1287,344,7.26814,58.7015
70,680,7.5188,-58.7692,-0.0278479,0.0733897,-0.00956493,0.0742855,-0.0287437,-1.47742,0.0613904,0.0379702,1294,344,7.51879,58.7692
77,680,8.07507,-58.4194,-0.0328249,0.0696575,-0.0108831,0.0708005,-0.0339679,-1.46616,0.0617215,0.0403698,1301,344,8.07509,58.4194
84,680,6.91931,-58.8303,-0.0379372,0.0645859,-0.0135611,0.0663494,-0.0397006,-1.44149,0.061869,0.0458918,1308,344,6.91927,58.8303
91,680,5.8175,-58.8736,0,0,0,0,0,0,0,-1,1315,344,5.81746,58.8736
98,680,4.76843,-58.8191,-0.0447464,0.0534433,-0.0204648,0.0575379,-0.0488409,-1.37333,0.0614862,0.0442941,1322,344,4.76841,58.8191
105,680,3.84521,-58.4284,-0.0469953,0.0513532,-0.0222518,0.0561535,-0.0517956,-1.35833,0.0623414,0.0452315,1329,344,3.84518,58.4284
112,680,3.15601,-58.171,0,0,0,0,0,0,0,-1,1336,344,3.156,58.171
119,680,2.44446,-57.9069,0,0,0,0,0,0,0,-1,1343,344,2.44444,57.9069
126,680,1.78162,-57.6031,0,0,0,0,0,0,0,-1,1350,344,1.78165,57.6031
133,680,2.22351,-57.1943,-0.0457158,0.038752,-0.0323579,0.0497228,-0.0566866,-1.24391,0.0614793,0.0424008,1357,344,2.22346,57.1943
140,680,2.04285,-57.7337,-0.0425051,0.0363342,-0.034061,0.0490112,-0.0551821,-1.2145,0.0601912,0.0452822,1364,344,2.04281,57.7337
147,680,5.14331,-56.366,0,0,0,0,0,0,0,-1,1371,344,5.14337,56.366
154,680,5.34192,-56.1122,0,0,0,0,0,0,0,-1,1378,344,5.34195,56.1122
161,680,5.56555,-51.1379,0,0,0,0,0,0,0,-1,1385,344,5.56556,51.1379
168,680,29.4142,-2.51651,0,0,0,0,0,0,0,-1,1392,344,29.4142,2.51652
175,680,6.66541,0.942078,0,0,0,0,0,0,0,-1,1399,344,6.66538,-0.942088
182,680,6.52917,0.532379,0,0,0,0,0,0,0,-1,1406,344,6.52922,-0.532385
189,680,7.55884,4.77695,0,0,0,0,0,0,0,-1,1413,344,7.55886,-4.77694
196,680,6.55627,3.35254,0,0,0,0,0,0,0,-1,1420,344,6.55622,-3.35255
203,680,5.7334,1.90753,0,0,0,0,0,0,0,-1,1427,344,5.73341,-1.90754
210,680,5.27515,0.493622,0,0,0,0,0,0,0,-1,1434,344,5.27514,-0.493632
217,680,6.56384,-0.374176,0,0,0,0,0,0,0,-1,1441,344,6.56379,0.374176
224,680,3.9491,-0.640228,0,0,0,0,0,0,0,-1,1448,344,3.94908,0.64024
231,680,4.24866,-1.96881,0,0,0,0,0,0,0,-1,1455,344,4.2486,1.96882
238,680,4.29333,-3.23984,0,0,0,0,0,0,0,-1,1462,344,4.29332,3.23984
245,680,2.44397,0.985382,0,0,0,0,0,0,0,-1,1469,344,2.44402,-0.985394
252,680,3.07349,2.18951,0,0,0,0,0,0,0,-1,1476,344,3.0735,-2.18952
259,680,2.82971,1.30682,0,0,0,0,0,0,0,-1,1483,344,2.82972,-1.30684
266,680,2.67554,1.44067,0,0,0,0,0,0,0,-1,1490,344,2.67551,-1.44066
273,680,2.46411,1.54666,0,0,0,0,0,0,0,-1,1497,344,2.46407,-1.54666
280,680,0,0,0,0,0,0,0,0,0,-1,1504,344,0,0
287,680,0,0,0,0,0,0,0,0,0,-1,1511,344,0,0
294,680,0,0,0,0,0,0,0,0,0,-1,1518,344,0,0
301,680,0,0,0,0,0,0,0,0,0,-1,1525,344,0,0
308,680,0,0,0,0,0,0,0,0,0,-1,1532,344,0,0
315,680,0,0,0,0,0,0,0,0,0,-1,1539,344,0,0
322,680,0,0,0,0,0,0,0,0,0,-1,1546,344,0,0
329,680,0,0,0,0,0,0,0,0,0,-1,1553,344,0,0
336,680,0,0,0,0,0,0,0,0,0,-1,1560,344,0,0
343,680,0,0,0,0,0,0,0,0,0,-1,1567,344,0,0
350,680,0,0,0,0,0,0,0,0,0,-1,1574,344,0,0
357,680,0,0,0,0,0,0,0,0,0,-1,1581,344,0,0
364,680,0,0,0,0,0,0,0,0,0,-1,1588,344,0,0
371,680,0,0,0,0,0,0,0,0,0,-1,1595,344,0,0
378,680,0,0,0,0,0,0,0,0,0,-1,1602,344,0,0
385,680,0,0,0,0,0,0,0,0,0,-1,1609,344,0,0
392,680,0,0,0,0,0,0,0,0,0,-1,1616,344,0,0
399,680,0,0,0,0,0,0,0,0,0,-1,1623,344,0,0
406,680,0,0,0,0,0,0,0,0,0,-1,1630,344,0,0
413,680,0,0,0,0,0,0,0,0,0,-1,1637,344,0,0
420,680,0,0,0,0,0,0,0,0,0,-1,1644,344,0,0
427,680,0,0,0,0,0,0,0,0,0,-1,1651,344,0,0
434,680,0,0,0,0,0,0,0,0,0,-1,1658,344,0,0
441,680,0,0,0,0,0,0,0,0,0,-1,1665,344,0,0
448,680,0,0,0,0,0,0,0,0,0,-1,1672,344,0,0
455,680,0,0,0,0,0,0,0,0,0,-1,1679,344,0,0
462,680,0,0,0,0,0,0,0,0,0,-1,1686,344,0,0
469,680,0,0,0,0,0,0,0,0,0,-1,1693,344,0,0
476,680,0,0,0,0,0,0,0,0,0,-1,1700,344,0,0
483,680,0,0,0,0,0,0,0,0,0,-1,1707,344,0,0
490,680,0,0,0,0,0,0,0,0,0,-1,1714,344,0,0
497,680,0,0,0,0,0,0,0,0,0,-1,1721,344,0,0
504,680,0,0,0,0,0,0,0,0,0,-1,1728,344,0,0
511,680,0,0,0,0,0,0,0,0,0,-1,1735,344,0,0
518,680,0,0,0,0,0,0,0,0,0,-1,1742,344,0,0
525,680,0,0,0,0,0,0,0,0,0,-1,1749,344,0,0
532,680,0,0,0,0,0,0,0,0,0,-1,1756,344,0,0
539,680,0,0,0,0,0,0,0,0,0,-1,1763,344,0,0
546,680,0,0,0,0,0,0,0,0,0,-1,1770,344,0,0
553,680,0,0,0,0,0,0,0,0,0,-1,1777,344,0,0
560,680,0,0,0,0,0,0,0,0,0,-1,1784,344,0,0
567,680,0,0,0,0,0,0,0,0,0,-1,1791,344,0,0
574,680,0,0,0,0,0,0,0,0,0,-1,1798,344,0,0
581,680,0,0,0,0,0,0,0,0,0,-1,1805,344,0,0
588,680,0,0,0,0,0,0,0,0,0,-1,1812,344,0,0
595,680,0,0,0,0,0,0,0,0,0,-1,1819,344,0,0
602,680,0,0,0,0,0,0,0,0,0,-1,1826,344,0,0
609,680,0,0,0,0,0,0,0,0,0,-1,1833,344,0,0
616,680,0,0,0,0,0,0,0,0,0,-1,1840,344,0,0
623,680,0,0,0,0,0,0,0,0,0,-1,1847,344,0,0
630,680,0,0,0,0,0,0,0,0,0,-1,1854,344,0,0
637,680,0,0,0,0,0,0,0,0,0,-1,1861,344,0,0
644,680,0,0,0,0,0,0,0,0,0,-1,1868,344,0,0
651,680,0,0,0,0,0,0,0,0,0,-1,1875,344,0,0
658,680,0,0,0,0,0,0,0,0,0,-1,1882,344,0,0
665,680,0,0,0,0,0,0,0,0,0,-1,1889,344,0,0
672,680,0,0,0,0,0,0,0,0,0,-1,1896,344,0,0
679,680,0,0,0,0,0,0,0,0,0,-1,1903,344,0,0
686,680,0,0,0,0,0,0,0,0,0,-1,1910,344,0,0
693,680,0,0,0,0,0,0,0,0,0,-1,1917,344,0,0
700,680,0,0,0,0,0,0,0,0,0,-1,1924,344,0,0
707,680,0,0,0,0,0,0,0,0,0,-1,1931,344,0,0
714,680,0,0,0,0,0,0,0,0,0,-1,1938,344,0,0
721,680,0,0,0,0,0,0,0,0,0,-1,1945,344,0,0
728,680,0,0,0,0,0,0,0,0,0,-1,1952,344,0,0
735,680,0,0,0,0,0,0,0,0,0,-1,1959,344,0,0
742,680,0,0,0,0,0,0,0,0,0,-1,1966,344,0,0
749,680,0,0,0,0,0,0,0,0,0,-1,1973,344,0,0
756,680,0,0,0,0,0,0,0,0,0,-1,1980,344,0,0
763,680,0,0,0,0,0,0,0,0,0,-1,1987,344,0,0
770,680,0,0,0,0,0,0,0,0,0,-1,1994,344,0,0
777,680,0,0,0,0,0,0,0,0,0,-1,2001,344,0,0
784,680,0,0,0,0,0,0,0,0,0,-1,2008,344,0,0
791,680,0,0,0,0,0,0,0,0,0,-1,2015,344,0,0
798,680,0,0,0,0,0,0,0,0,0,-1,2022,344,0,0
805,680,0,0,0,0,0,0,0,0,0,-1,2029,344,0,0
812,680,0,0,0,0,0,0,0,0,0,-1,2036,344,0,0
-700,673,0,0,0,0,0,0,0,0,0,-1,524,351,0,0
-693,673,0,0,0,0,0,0,0,0,0,-1,531,351,0,0
-686,673,0,0,0,0,0,0,0,0,0,-1,538,351,0,0
-679,673,0,0,0,0,0,0,0,0,0,-1,545,351,0,0
-672,673,0,0,0,0,0,0,0,0,0,-1,552,351,0,0
-665,673,0,0,0,0,0,0,0,0,0,-1,559,351,0,0
-658,673,0,0,0,0,0,0,0,0,0,-1,566,351,0,0
-651,673,0,0,0,0,0,0,0,0,0,-1,573,351,0,0
-644,673,0,0,0,0,0,0,0,0,0,-1,580,351,0,0
-637,673,0,0,0,0,0,0,0,0,0,-1,587,351,0,0
-630,673,0,0,0,0,0,0,0,0,0,-1,594,351,0,0
-623,673,0,0,0,0,0,0,0,0,0,-1,601,351,0,0
-616,673,0,0,0,0,0,0,0,0,0,-1,608,351,0,0
-609,673,0,0,0,0,0,0,0,0,0,-1,615,351,0,0
-602,673,0,0,0,0,0,0,0,0,0,-1,622,351,0,0
-595,673,0,0,0,0,0,0,0,0,0,-1,629,351,0,0
-588,673,0,0,0,0,0,0,0,0,0,-1,636,351,0,0
-581,673,0,0,0,0,0,0,0,0,0,-1,643,351,0,0
-574,673,0,0,0,0,0,0,0,0,0,-1,650,351,0,0
-567,673,0,0,0,0,0,0,0,0,0,-1,657,351,0,0
-560,673,0,0,0,0,0,0,0,0,0,-1,664,351,0,0
-553,673,0,0,0,0,0,0,0,0,0,-1,671,351,0,0
-546,673,0,0,0,0,0,0,0,0,0,-1,678,351,0,0
-539,673,0,0,0,0,0,0,0,0,0,-1,685,351,0,0
-532,673,0,0,0,0,0,0,0,0,0,-1,692,351,0,0
-525,673,0,0,0,0,0,0,0,0,0,-1,699,351,0,0
-518,673,0,0,0,0,0,0,0,0,0,-1,706,351,0,0
-511,673,0,0,0,0,0,0,0,0,0,-1,713,351,0,0
-504,673,0,0,0,0,0,0,0,0,0,-1,720,351,0,0
-497,673,0,0,0,0,0,0,0,0,0,-1,727,351,0,0
-490,673,0,0,0,0,0,0,0,0,0,-1,734,351,0,0
-483,673,0,0,0,0,0,0,0,0,0,-1,741,351,0,0
-476,673,0,0,0,0,0,0,0,0,0,-1,748,351,0,0
-469,673,0,0,0,0,0,0,0,0,0,-1,755,351,0,0
-462,673,0,0,0,0,0,0,0,0,0,-1,762,351,0,0
-455,673,0,0,0,0,0,0,0,0,0,-1,769,351,0,0
-448,673,0,0,0,0,0,0,0,0,0,-1,776,351,0,0
-441,673,0,0,0,0,0,0,0,0,0,-1,783,351,0,0
-434,673,0,0,0,0,0,0,0,0,0,-1,790,351,0,0
-427,673,0,0,0,0,0,0,0,0,0,-1,797,351,0,0
-420,673,0,0,0,0,0,0,0,0,0,-1,804,351,0,0
-413,673,0,0,0,0,0,0,0,0,0,-1,811,351,0,0
-406,673,0,0,0,0,0,0,0,0,0,-1,818,351,0,0
-399,673,0,0,0,0,0,0,0,0,0,-1,825,351,0,0
-392,673,0,0,0,0,0,0,0,0,0,-1,832,351,0,0
-385,673,0,0,0,0,0,0,0,0,0,-1,839,351,0,0
-378,673,0,0,0,0,0,0,0,0,0,-1,846,351,0,0
-371,673,0,0,0,0,0,0,0,0,0,-1,853,351,0,0
-364,673,0,0,0,0,0,0,0,0,0,-1,860,351,0,0
-357,673,0,0,0,0,0,0,0,0,0,-1,867,351,0,0
-350,673,0,0,0,0,0,0,0,0,0,-1,874,351,0,0
-343,673,0,0,0,0,0,0,0,0,0,-1,881,351,0,0
-336,673,0,0,0,0,0,0,0,0,0,-1,888,351,0,0
-329,673,0,0,0,0,0,0,0,0,0,-1,895,351,0,0
-322,673,0,0,0,0,0,0,0,0,0,-1,902,351,0,0
-315,673,0,0,0,0,0,0,0,0,0,-1,909,351,0,0
-308,673,0,0,0,0,0,0,0,0,0,-1,916,351,0,0
-301,673,0,0,0,0,0,0,0,0,0,-1,923,351,0,0
-294,673,0,0,0,0,0,0,0,0,0,-1,930,351,0,0
-287,673,0,0,0,0,0,0,0,0,0,-1,937,351,0,0
-280,673,0,0,0,0,0,0,0,0,0,-1,944,351,0,0
-273,673,0,0,0,0,0,0,0,0,0,-1,951,351,0,0
-266,673,0,0,0,0,0,0,0,0,0,-1,958,351,0,0
-259,673,0,0,0,0,0,0,0,0,0,-1,965,351,0,0
-252,673,0,0,0,0,0,0,0,0,0,-1,972,351,0,0
-245,673,0,0,0,0,0,0,0,0,0,-1,979,351,0,0
-238,673,0,0,0,0,0,0,0,0,0,-1,986,351,0,0
-231,673,0,0,0,0,0,0,0,0,0,-1,993,351,0,0
-224,673,0,0,0,0,0,0,0,0,0,-1,1000,351,0,0
-217,673,0,0,0,0,0,0,0,0,0,-1,1007,351,0,0
-210,673,0,0,0,0,0,0,0,0,0,-1,1014,351,0,0
-203,673,0,0,0,0,0,0,0,0,0,-1,1021,351,0,0
-196,673,0,0,0,0,0,0,0,0,0,-1,1028,351,0,0
-189,673,0,0,0,0,0,0,0,0,0,-1,1035,351,0,0
-182,673,0,0,0,0,0,0,0,0,0,-1,1042,351,0,0
-175,673,7.10449,-31.8279,0,0,0,0,0,0,0,-1,1049,351,7.10448,31.8279
-168,673,7.33081,-32.7122,0,0,0,0,0,0,0,-1,1056,351,7.33085,32.7122
-161,673,7.8938,-33.5352,0,0,0,0,0,0,0,-1,1063,351,7.89385,33.5352
-154,673,8.80566,-35.3518,0,0,0,0,0,0,0,-1,1070,351,8.80563,35.3518
-147,673,2.89221,-37.7351,0,0,0,0,0,0,0,-1,1077,351,2.89224,37.7351
-140,673,3.35046,-37.7151,0,0,0,0,0,0,0,-1,1084,351,3.35046,37.715
-133,673,3.35339,-39.0288,0,0,0,0,0,0,0,-1,1091,351,3.35342,39.0288
-126,673,3.7533,-38.0453,0,0,0,0,0,0,0,-1,1098,351,3.7533,38.0453
-119,673,4.1532,-37.0618,0,0,0,0,0,0,0,-1,1105,351,4.15318,37.0618
-112,673,7.27234,-32.5801,0,0,0,0,0,0,0,-1,1112,351,7.27231,32.5801
-105,673,21.1144,-43.3143,0,0,0,0,0,0,0,-1,1119,351,21.1143,43.3143
-98,673,14.8014,-36.7519,0,0,0,0,0,0,0,-1,1126,351,14.8014,36.7519
-91,673,8.54944,-29.9639,0,0,0,0,0,0,0,-1,1133,351,8.54949,29.9639
-84,673,2.17102,-24.3204,0,0,0,0,0,0,0,-1,1140,351,2.17107,24.3204
-77,673,-4.25378,-18.8346,0,0,0,0,0,0,0,-1,1147,351,-4.25381,18.8346
-70,673,-10.7933,-13.6681,0,0,0,0,0,0,0,-1,1154,351,-10.7934,13.6681
-63,673,-17.3896,-8.24469,0,0,0,0,0,0,0,-1,1161,351,-17.3896,8.2447
-56,673,-18.0282,2.79053,0,0,0,0,0,0,0,-1,1168,351,-18.0283,-2.79052
-49,673,-0.926758,-0.115448,0,0,0,0,0,0,0,-1,1175,351,-0.926732,0.115444
-42,673,-1.15015,0.289917,0,0,0,0,0,0,0,-1,1182,351,-1.15017,-0.289932
-35,673,-0.919556,-1.00711,0,0,0,0,0,0,0,-1,1189,351,-0.919514,1.00711
-28,673,5.28918,-39.2331,0,0,0,0,0,0,0,-1,1196,351,5.28924,39.2331
-21,673,8.32764,-57.9322,0,0,0,0,0,0,0,-1,1203,351,8.32758,57.9322
-14,673,8.20227,-58.2462,-0.00666279,0.0471942,0.0145137,0.0508564,-0.010325,1.32363,0.0378187,0.0468637,1210,351,8.20228,58.2462
-7,673,8.15747,-58.5158,-0.00765159,0.0542842,0.0147855,0.0576328,-0.0110002,1.34808,0.042565,0.0442771,1217,351,8.15742,58.5158
0,673,8.04822,-58.7382,-0.00855489,0.0595373,0.0134002,0.0620795,-0.0110971,1.38331,0.0455383,0.0491642,1224,351,8.04828,58.7381
7,673,8.18701,-58.6826,0,0,0,0,0,0,0,-1,1231,351,8.18706,58.6826
14,673,8.12695,-58.6796,-0.00989432,0.0670314,0.00840273,0.0679386,-0.0108015,1.46325,0.049289,0.0488052,1238,351,8.12699,58.6796
21,673,7.85803,-58.9891,-0.0102429,0.0692936,0.00648692,0.0698192,-0.0107685,1.48995,0.0505196,0.0353239,1245,351,7.85803,58.9891
28,673,7.7915,-59.1834,-0.0105975,0.0711295,0.00476222,0.0714061,-0.0108741,1.51279,0.051612,0.0365871,1252,351,7.7915,59.1834
35,673,7.64636,-59.2213,0,0,0,0,0,0,0,-1,1259,351,7.64634,59.2213
42,673,7.41125,-59.289,-0.0118358,0.0716437,0.00126021,0.0716628,-0.0118548,1.5557,0.0521776,0.0419594,1266,351,7.41125,59.289
49,673,7.25244,-59.4467,-0.0144998,0.0710616,-0.00119128,0.0710782,-0.0145164,-1.55688,0.0528925,0.0251839,1273,351,7.25247,59.4467
56,673,7.20544,-59.4461,-0.0173946,0.0683227,-0.00342685,0.0684595,-0.0175314,-1.5309,0.052469,0.0186055,1280,351,7.20542,59.4461
63,673,7.26416,-59.26,-0.0198253,0.0646698,-0.00444745,0.0649033,-0.0200588,-1.51835,0.0512799,0.0235402,1287,351,7.26416,59.26
70,673,7.22449,-59.216,-0.0230326,0.0614417,-0.00541232,0.061787,-0.0233779,-1.50707,0.0508095,0.0363308,1294,351,7.22454,59.216
77,673,7.30823,-59.0147,-0.0270019,0.0586029,-0.00631395,0.059066,-0.0274651,-1.49757,0.0510572,0.040265,1301,351,7.30828,59.0147
84,673,6.97949,-59.2462,-0.0311847,0.0545018,-0.00844632,0.0553264,-0.0320093,-1.47347,0.0510188,0.047164,1308,351,6.97944,59.2462
91,673,6.53699,-59.5229,0,0,0,0,0,0,0,-1,1315,351,6.53695,59.5229
98,673,6.49072,-59.5299,0,0,0,0,0,0,0,-1,1322,351,6.49067,59.5299
105,673,6.23352,-59.3148,0,0,0,0,0,0,0,-1,1329,351,6.2335,59.3148
112,673,3.22485,-58.9245,0,0,0,0,0,0,0,-1,1336,351,3.22481,58.9245
119,673,2.51001,-58.6554,0,0,0,0,0,0,0,-1,1343,351,2.50996,58.6554
126,673,3.17053,-57.7598,0,0,0,0,0,0,0,-1,1350,351,3.17051,57.7598
133,673,2.77563,-57.2675,0,0,0,0,0,0,0,-1,1357,351,2.7756,57.2675
140,673,5.81287,-58.2087,0,0,0,0,0,0,0,-1,1364,351,5.81292,58.2087
147,673,5.55603,-57.2862,-0.0316969,0.0326794,-0.0243489,0.0408514,-0.0398689,-1.24699,0.0466051,0.0473314,1371,351,5.55605,57.2862
154,673,5.60938,-56.8828,-0.0278202,0.0306102,-0.0238794,0.0391276,-0.0363377,-1.22818,0.0435798,0.0467762,1378,351,5.60934,56.8828
161,673,5.48572,-56.3663,0,0,0,0,0,0,0,-1,1385,351,5.48572,56.3663
168,673,6.87061,1.83954,0,0,0,0,0,0,0,-1,1392,351,6.87063,-1.83953
175,673,6.6228,1.1459,0,0,0,0,0,0,0,-1,1399,351,6.62276,-1.14591
182,673,6.37244,0.796112,0,0,0,0,0,0,0,-1,1406,351,6.3724,-0.796102
189,673,6.12097,0.265472,0,0,0,0,0,0,0,-1,1413,351,6.121,-0.265482
196,673,6.02173,3.12717,0,0,0,0,0,0,0,-1,1420,351,6.02176,-3.12717
203,673,5.04456,1.6351,0,0,0,0,0,0,0,-1,1427,351,5.04455,-1.63509
210,673,4.79224,0.447479,0,0,0,0,0,0,0,-1,1434,351,4.79229,-0.447469
217,673,2.01648,0.972687,0,0,0,0,0,0,0,-1,1441,351,2.01644,-0.972691
224,673,2.3689,-1.80539,0,0,0,0,0,0,0,-1,1448,351,2.36896,1.80539
231,673,2.65857,-2.18497,0,0,0,0,0,0,0,-1,1455,351,2.65852,2.18496
238,673,3.77844,-2.06088,0,0,0,0,0,0,0,-1,1462,351,3.77839,2.06088
245,673,3.5376,-0.190399,0,0,0,0,0,0,0,-1,1469,351,3.53759,0.1904
252,673,3.80518,0.55603,0,0,0,0,0,0,0,-1,1476,351,3.80519,-0.556022
259,673,3.88562,1.29617,0,0,0,0,0,0,0,-1,1483,351,3.88562,-1.29618
266,673,4.22424,2.04834,0,0,0,0,0,0,0,-1,1490,351,4.22429,-2.04834
273,673,6.07886,0.385895,0,0,0,0,0,0,0,-1,1497,351,6.0789,-0.385906
280,673,6.97534,-0.0820007,0,0,0,0,0,0,0,-1,1504,351,6.97536,0.0820122
287,673,7.66968,-0.348541,0,0,0,0,0,0,0,-1,1511,351,7.66969,0.348534
294,673,8.20996,0.28537,0,0,0,0,0,0,0,-1,1518,351,8.20993,-0.28536
301,673,0,0,0,0,0,0,0,0,0,-1,1525,351,0,0
308,673,0,0,0,0,0,0,0,0,0,-1,1532,351,0,0
315,673,0,0,0,0,0,0,0,0,0,-1,1539,351,0,0
322,673,0,0,0,0,0,0,0,0,0,-1,1546,351,0,0
329,673,0,0,0,0,0,0,0,0,0,-1,1553,351,0,0
336,673,0,0,0,0,0,0,0,0,0,-1,1560,351,0,0
343,673,0,0,0,0,0,0,0,0,0,-1,1567,351,0,0
350,673,0,0,0,0,0,0,0,0,0,-1,1574,351,0,0
357,673,0,0,0,0,0,0,0,0,0,-1,1581,351,0,0
364,673,0,0,0,0,0,0,0,0,0,-1,1588,351,0,0
371,673,0,0,0,0,0,0,0,0,0,-1,1595,351,0,0
378,673,0,0,0,0,0,0,0,0,0,-1,1602,351,0,0
385,673,0,0,0,0,0,0,0,0,0,-1,1609,351,0,0
392,673,0,0,0,0,0,0,0,0,0,-1,1616,351,0,0
399,673,0,0,0,0,0,0,0,0,0,-1,1623,351,0,0
406,673,0,0,0,0,0,0,0,0,0,-1,1630,351,0,0
413,673,0,0,0,0,0,0,0,0,0,-1,1637,351,0,0
420,673,0,0,0,0,0,0,0,0,0,-1,1644,351,0,0
427,673,0,0,0,0,0,0,0,0,0,-1,1651,351,0,0
434,673,0,0,0,0,0,0,0,0,0,-1,1658,351,0,0
441,673,0,0,0,0,0,0,0,0,0,-1,1665,351,0,0
448,673,0,0,0,0,0,0,0,0,0,-1,1672,351,0,0
455,673,0,0,0,0,0,0,0,0,0,-1,1679,351,0,0
462,673,0,0,0,0,0,0,0,0,0,-1,1686,351,0,0
469,673,0,0,0,0,0,0,0,0,0,-1,1693,351,0,0
476,673,0,0,0,0,0,0,0,0,0,-1,1700,351,0,0
483,673,0,0,0,0,0,0,0,0,0,-1,1707,351,0,0
490,673,0,0,0,0,0,0,0,0,0,-1,1714,351,0,0
497,673,0,0,0,0,0,0,0,0,0,-1,1721,351,0,0
504,673,0,0,0,0,0,0,0,0,0,-1,1728,351,0,0
511,673,0,0,0,0,0,0,0,0,0,-1,1735,351,0,0
518,673,0,0,0,0,0,0,0,0,0,-1,1742,351,0,0
525,673,0,0,0,0,0,0,0,0,0,-1,1749,351,0,0
532,673,0,0,0,0,0,0,0,0,0,-1,1756,351,0,0
539,673,0,0,0,0,0,0,0,0,0,-1,1763,351,0,0
546,673,0,0,0,0,0,0,0,0,0,-1,1770,351,0,0
553,673,0,0,0,0,0,0,0,0,0,-1,1777,351,0,0
560,673,0,0,0,0,0,0,0,0,0,-1,1784,351,0,0
567,673,0,0,0,0,0,0,0,0,0,-1,1791,351,0,0
574,673,0,0,0,0,0,0,0,0,0,-1,1798,351,0,0
581,673,0,0,0,0,0,0,0,0,0,-1,1805,351,0,0
588,673,0,0,0,0,0,0,0,0,0,-1,1812,351,0,0
595,673,0,0,0,0,0,0,0,0,0,-1,1819,351,0,0
602,673,0,0,0,0,0,0,0,0,0,-1,1826,351,0,0
609,673,0,0,0,0,0,0,0,0,0,-1,1833,351,0,0
616,673,0,0,0,0,0,0,0,0,0,-1,1840,351,0,0
623,673,0,0,0,0,0,0,0,0,0,-1,1847,351,0,0
630,673,0,0,0,0,0,0,0,0,0,-1,1854,351,0,0
637,673,0,0,0,0,0,0,0,0,0,-1,1861,351,0,0
644,673,0,0,0,0,0,0,0,0,0,-1,1868,351,0,0
651,673,0,0,0,0,0,0,0,0,0,-1,1875,351,0,0
658,673,0,0,0,0,0,0,0,0,0,-1,1882,351,0,0
665,673,0,0,0,0,0,0,0,0,0,-1,1889,351,0,0
672,673,0,0,0,0,0,0,0,0,0,-1,1896,351,0,0
679,673,0,0,0,0,0,0,0,0,0,-1,1903,351,0,0
686,673,0,0,0,0,0,0,0,0,0,-1,1910,351,0,0
693,673,0,0,0,0,0,0,0,0,0,-1,1917,351,0,0
700,673,0,0,0,0,0,0,0,0,0,-1,1924,351,0,0
707,673,0,0,0,0,0,0,0,0,0,-1,1931,351,0,0
714,673,0,0,0,0,0,0,0,0,0,-1,1938,351,0,0
721,673,0,0,0,0,0,0,0,0,0,-1,1945,351,0,0
728,673,0,0,0,0,0,0,0,0,0,-1,1952,351,0,0
735,673,0,0,0,0,0,0,0,0,0,-1,1959,351,0,0
742,673,0,0,0,0,0,0,0,0,0,-1,1966,351,0,0
749,673,0,0,0,0,0,0,0,0,0,-1,1973,351,0,0
756,673,0,0,0,0,0,0,0,0,0,-1,1980,351,0,0
763,673,0,0,0,0,0,0,0,0,0,-1,1987,351,0,0
770,673,0,0,0,0,0,0,0,0,0,-1,1994,351,0,0
777,673,0,0,0,0,0,0,0,0,0,-1,2001,351,0,0
784,673,0,0,0,0,0,0,0,0,0,-1,2008,351,0,0
791,673,0,0,0,0,0,0,0,0,0,-1,2015,351,0,0
798,673,0,0,0,0,0,0,0,0,0,-1,2022,351,0,0
805,673,0,0,0,0,0,0,0,0,0,-1,2029,351,0,0
812,673,0,0,0,0,0,0,0,0,0,-1,2036,351,0,0
-700,666,0,0,0,0,0,0,0,0,0,-1,524,358,0,0
-693,666,0,0,0,0,0,0,0,0,0,-1,531,358,0,0
-686,666,0,0,0,0,0,0,0,0,0,-1,538,358,0,0
-679,666,0,0,0,0,0,0,0,0,0,-1,545,358,0,0
-672,666,0,0,0,0,0,0,0,0,0,-1,552,358,0,0
-665,666,0,0,0,0,0,0,0,0,0,-1,559,358,0,0
-658,666,0,0,0,0,0,0,0,0,0,-1,566,358,0,0
-651,666,0,0,0,0,0,0,0,0,0,-1,573,358,0,0
-644,666,0,0,0,0,0,0,0,0,0,-1,580,358,0,0
-637,666,0,0,0,0,0,0,0,0,0,-1,587,358,0,0
-630,666,0,0,0,0,0,0,0,0,0,-1,594,358,0,0
-623,666,0,0,0,0,0,0,0,0,0,-1,601,358,0,0
-616,666,0,0,0,0,0,0,0,0,0,-1,608,358,0,0
-609,666,0,0,0,0,0,0,0,0,0,-1,615,358,0,0
-602,666,0,0,0,0,0,0,0,0,0,-1,622,358,0,0
-595,666,0,0,0,0,0,0,0,0,0,-1,629,358,0,0
-588,666,0,0,0,0,0,0,0,0,0,-1,636,358,0,0
-581,666,0,0,0,0,0,0,0,0,0,-1,643,358,0,0
-574,666,0,0,0,0,0,0,0,0,0,-1,650,358,0,0
-567,666,0,0,0,0,0,0,0,0,0,-1,657,358,0,0
-560,666,0,0,0,0,0,0,0,0,0,-1,664,358,0,0
-553,666,0,0,0,0,0,0,0,0,0,-1,671,358,0,0
-546,666,0,0,0,0,0,0,0,0,0,-1,678,358,0,0
-539,666,0,0,0,0,0,0,0,0,0,-1,685,358,0,0
-532,666,0,0,0,0,0,0,0,0,0,-1,692,358,0,0
-525,666,0,0,0,0,0,0,0,0,0,-1,699,358,0,0
-518,666,0,0,0,0,0,0,0,0,0,-1,706,358,0,0
-511,666,0,0,0,0,0,0,0,0,0,-1,713,358,0,0
-504,666,0,0,0,0,0,0,0,0,0,-1,720,358,0,0
-497,666,0,0,0,0,0,0,0,0,0,-1,727,358,0,0
-490,666,0,0,0,0,0,0,0,0,0,-1,734,358,0,0
-483,666,0,0,0,0,0,0,0,0,0,-1,741,358,0,0
-476,666,0,0,0,0,0,0,0,0,0,-1,748,358,0,0
-469,666,0,0,0,0,0,0,0,0,0,-1,755,358,0,0
-462,666,0,0,0,0,0,0,0,0,0,-1,762,358,0,0
-455,666,0,0,0,0,0,0,0,0,0,-1,769,358,0,0
-448,666,0,0,0,0,0,0,0,0,0,-1,776,358,0,0
-441,666,0,0,0,0,0,0,0,0,0,-1,783,358,0,0
-434,666,0,0,0,0,0,0,0,0,0,-1,790,358,0,0
-427,666,0,0,0,0,0,0,0,0,0,-1,797,358,0,0
-420,666,0,0,0,0,0,0,0,0,0,-1,804,358,0,0
-413,666,0,0,0,0,0,0,0,0,0,-1,811,358,0,0
-406,666,0,0,0,0,0,0,0,0,0,-1,818,358,0,0
-399,666,0,0,0,0,0,0,0,0,0,-1,825,358,0,0
-392,666,0,0,0,0,0,0,0,0,0,-1,832,358,0,0
-385,666,0,0,0,0,0,0,0,0,0,-1,839,358,0,0
-378,666,0,0,0,0,0,0,0,0,0,-1,846,358,0,0
-371,666,0,0,0,0,0,0,0,0,0,-1,853,358,0,0
-364,666,0,0,0,0,0,0,0,0,0,-1,860,358,0,0
-357,666,0,0,0,0,0,0,0,0,0,-1,867,358,0,0
-350,666,0,0,0,0,0,0,0,0,0,-1,874,358,0,0
-343,666,0,0,0,0,0,0,0,0,0,-1,881,358,0,0
-336,666,0,0,0,0,0,0,0,0,0,-1,888,358,0,0
-329,666,0,0,0,0,0,0,0,0,0,-1,895,358,0,0
-322,666,0,0,0,0,0,0,0,0,0,-1,902,358,0,0
-315,666,0,0,0,0,0,0,0,0,0,-1,909,358,0,0
-308,666,0,0,0,0,0,0,0,0,0,-1,916,358,0,0
-301,666,0,0,0,0,0,0,0,0,0,-1,923,358,0,0
-294,666,0,0,0,0,0,0,0,0,0,-1,930,358,0,0
-287,666,0,0,0,0,0,0,0,0,0,-1,937,358,0,0
-280,666,0,0,0,0,0,0,0,0,0,-1,944,358,0,0
-273,666,0,0,0,0,0,0,0,0,0,-1,951,358,0,0
-266,666,0,0,0,0,0,0,0,0,0,-1,958,358,0,0
-259,666,0,0,0,0,0,0,0,0,0,-1,965,358,0,0
-252,666,0,0,0,0,0,0,0,0,0,-1,972,358,0,0
-245,666,0,0,0,0,0,0,0,0,0,-1,979,358,0,0
-238,666,0,0,0,0,0,0,0,0,0,-1,986,358,0,0
-231,666,0,0,0,0,0,0,0,0,0,-1,993,358,0,0
-224,666,0,0,0,0,0,0,0,0,0,-1,1000,358,0,0
-217,666,0,0,0,0,0,0,0,0,0,-1,1007,358,0,0
-210,666,0,0,0,0,0,0,0,0,0,-1,1014,358,0,0
-203,666,0,0,0,0,0,0,0,0,0,-1,1021,358,0,0
-196,666,4.03418,-28.8724,0,0,0,0,0,0,0,-1,1028,358,4.03422,28.8724
-189,666,5.00366,-29.597,0,0,0,0,0,0,0,-1,1035,358,5.00363,29.597
-182,666,6.83252,-30.9843,0,0,0,0,0,0,0,-1,1042,358,6.83247,30.9844
-175,666,7.01611,-31.8763,0,0,0,0,0,0,0,-1,1049,358,7.01617,31.8762
-168,666,7.21545,-32.7414,0,0,0,0,0,0,0,-1,1056,358,7.2154,32.7414
-161,666,7.69116,-33.6269,0,0,0,0,0,0,0,-1,1063,358,7.69121,33.6269
-154,666,3.79041,-37.9204,0,0,0,0,0,0,0,-1,1070,358,3.79034,37.9204
-147,666,4.17908,-37.7466,0,0,0,0,0,0,0,-1,1077,358,4.17912,37.7466
-140,666,4.54309,-37.735,0,0,0,0,0,0,0,-1,1084,358,4.54304,37.735
-133,666,4.65723,-39.0643,0,0,0,0,0,0,0,-1,1091,358,4.65727,39.0643
-126,666,5.02368,-38.0699,0,0,0,0,0,0,0,-1,1098,358,5.02363,38.0698
-119,666,5.39001,-37.0754,0,0,0,0,0,0,0,-1,1105,358,5.38999,37.0754
-112,666,6.77014,-32.8165,0,0,0,0,0,0,0,-1,1112,358,6.77013,32.8165
-105,666,6.30908,-29.0855,0,0,0,0,0,0,0,-1,1119,358,6.30905,29.0855
-98,666,15.4427,-31.5168,0,0,0,0,0,0,0,-1,1126,358,15.4428,31.5168
-91,666,9.5127,-25.1347,0,0,0,0,0,0,0,-1,1133,358,9.51269,25.1347
-84,666,2.91589,-19.4071,0,0,0,0,0,0,0,-1,1140,358,2.91592,19.4071
-77,666,-3.48083,-14.0782,0,0,0,0,0,0,0,-1,1147,358,-3.48081,14.0782
-70,666,-9.99438,-8.90146,0,0,0,0,0,0,0,-1,1154,358,-9.99433,8.90146
-63,666,-11.7778,-0.975189,0,0,0,0,0,0,0,-1,1161,358,-11.7778,0.97519
-56,666,0.424683,-2.04132,0,0,0,0,0,0,0,-1,1168,358,0.424665,2.04132
-49,666,0.754395,-2.23169,0,0,0,0,0,0,0,-1,1175,358,0.754383,2.23169
-42,666,1.34473,-3.53897,0,0,0,0,0,0,0,-1,1182,358,1.34476,3.53896
-35,666,8.0813,-57.9719,0,0,0,0,0,0,0,-1,1189,358,8.08135,57.9719
-28,666,8.34338,-57.8233,0,0,0,0,0,0,0,-1,1196,358,8.34339,57.8233
-21,666,8.18005,-58.165,-0.00623552,0.0329952,0.00926741,0.0350743,-0.00831456,1.35011,0.0265913,0.0409521,1203,358,8.18011,58.165
-14,666,7.93445,-58.4613,-0.0067923,0.036994,0.0092628,0.0388729,-0.00867118,1.37067,0.0292375,0.038444,1210,358,7.93448,58.4613
-7,666,7.89014,-58.7338,-0.00736228,0.0420921,0.00959369,0.0438879,-0.00915815,1.38574,0.0327411,0.0235674,1217,358,7.89016,58.7338
0,666,7.87805,-58.9943,-0.00780654,0.0459376,0.00879373,0.0473399,-0.0092088,1.41267,0.0350353,0.0153404,1224,358,7.87799,58.9943
7,666,7.73218,-59.1075,-0.00837964,0.0493669,0.00733742,0.0502847,-0.00929736,1.44637,0.0370135,0.0222349,1231,358,7.73223,59.1075
14,666,7.64612,-59.1777,-0.00845175,0.0519454,0.00575176,0.0524883,-0.00899463,1.47669,0.0383437,0.0216314,1238,358,7.64608,59.1777
21,666,7.57813,-59.4313,-0.00853968,0.0539531,0.00463425,0.0542949,-0.00888147,1.49718,0.0394914,0.0170903,1245,358,7.57817,59.4313
28,666,7.5033,-59.5984,-0.00867834,0.0556455,0.00368656,0.0558561,-0.00888893,1.51373,0.0405266,0.0243915,1252,358,7.50326,59.5984
35,666,7.47888,-59.6272,-0.00921566,0.0562218,0.00253526,0.0563199,-0.00931374,1.53213,0.0410053,0.0226727,1259,358,7.47894,59.6272
42,666,7.35486,-59.7599,-0.00956378,0.0566371,0.00158211,0.0566749,-0.00960157,1.54692,0.041357,0.0186952,1266,358,7.3548,59.76
49,666,7.23926,-59.829,-0.0116227,0.0564431,3.53901e-05,0.0564431,-0.0116227,1.57028,0.042042,0.0178307,1273,358,7.2393,59.829
56,666,7.20435,-59.8596,-0.0138848,0.0546085,-0.00142672,0.0546382,-0.0139145,-1.54998,0.0418421,0.018101,1280,358,7.20434,59.8596
63,666,7.16174,-59.9637,-0.015737,0.0521439,-0.00204068,0.0522052,-0.0157983,-1.54077,0.0410946,0.0203232,1287,358,7.16175,59.9637
70,666,7.08777,-59.9442,-0.0181852,0.0497967,-0.00264095,0.0498992,-0.0182877,-1.53203,0.0407535,0.0191152,1294,358,7.08779,59.9442
77,666,6.99207,-59.8037,-0.0212027,0.0477042,-0.00320825,0.0478533,-0.0213518,-1.52437,0.0409204,0.0229677,1301,358,6.9921,59.8037
84,666,6.91821,-59.8044,-0.0244717,0.0445288,-0.00481255,0.0448629,-0.0248057,-1.5015,0.040775,0.0321003,1308,358,6.9182,59.8044
91,666,6.77698,-59.8173,-0.0269835,0.0403053,-0.00724538,0.0410766,-0.0277548,-1.46474,0.0399872,0.0274204,1315,358,6.77695,59.8173
98,666,6.62366,-59.7104,-0.028861,0.0375993,-0.00908228,0.0388181,-0.0300798,-1.4374,0.0398847,0.0228897,1322,358,6.62368,59.7104
105,666,6.49207,-59.5253,-0.0301764,0.036303,-0.0101929,0.0378307,-0.0317041,-1.42202,0.0401978,0.0278854,1329,358,6.49202,59.5253
112,666,6.48914,-59.3351,0,0,0,0,0,0,0,-1,1336,358,6.48916,59.3351
119,666,6.42664,-59.1331,0,0,0,0,0,0,0,-1,1343,358,6.42667,59.1331
126,666,6.34009,-58.9417,0,0,0,0,0,0,0,-1,1350,358,6.34004,58.9417
133,666,6.20605,-58.7712,0,0,0,0,0,0,0,-1,1357,358,6.20611,58.7712
140,666,6.07153,-58.496,-0.0262491,0.028841,-0.0162169,0.0332603,-0.0306684,-1.30475,0.0369193,0.044517,1364,358,6.0715,58.496
147,666,5.91614,-58.1598,-0.024184,0.028885,-0.0159816,0.0333262,-0.0286251,-1.29974,0.0358019,0.0319953,1371,358,5.91618,58.1598
154,666,5.88,-57.6064,-0.0207696,0.0276396,-0.0152608,0.0320489,-0.0251788,-1.28953,0.0331197,0.0277873,1378,358,5.88006,57.6064
161,666,5.85583,-57.247,-0.0183693,0.0281363,-0.0140513,0.0320521,-0.0222851,-1.29901,0.0315401,0.0368939,1385,358,5.85578,57.247
168,666,5.7395,-57.2966,0,0,0,0,0,0,0,-1,1392,358,5.73947,57.2966
175,666,5.84546,-57.0693,0,0,0,0,0,0,0,-1,1399,358,5.84544,57.0693
182,666,2.60876,-5.17068,0,0,0,0,0,0,0,-1,1406,358,2.6088,5.17068
189,666,2.46973,-5.49979,0,0,0,0,0,0,0,-1,1413,358,2.46975,5.49979
196,666,2.32458,-5.23651,0,0,0,0,0,0,0,-1,1420,358,2.32461,5.23653
203,666,2.28064,-3.88004,0,0,0,0,0,0,0,-1,1427,358,2.28059,3.88003
210,666,3.02576,-5.83548,0,0,0,0,0,0,0,-1,1434,358,3.02581,5.83547
217,666,2.30444,-5.36011,0,0,0,0,0,0,0,-1,1441,358,2.30447,5.3601
224,666,1.82324,-6.03101,0,0,0,0,0,0,0,-1,1448,358,1.82322,6.031
231,666,2.29797,-10.1093,0,0,0,0,0,0,0,-1,1455,358,2.29801,10.1093
238,666,2.52429,-6.10568,0,0,0,0,0,0,0,-1,1462,358,2.52423,6.10567
245,666,4.53345,-1.38205,0,0,0,0,0,0,0,-1,1469,358,4.53349,1.38204
252,666,4.77405,-0.246979,0,0,0,0,0,0,0,-1,1476,358,4.77405,0.246993
259,666,4.83655,1.14087,0,0,0,0,0,0,0,-1,1483,358,4.83652,-1.14087
266,666,6.14148,0.749512,0,0,0,0,0,0,0,-1,1490,358,6.14144,-0.749519
273,666,3.17737,-33.7881,0,0,0,0,0,0,0,-1,1497,358,3.17735,33.7881
280,666,3.37268,-35.2123,0,0,0,0,0,0,0,-1,1504,358,3.37266,35.2123
287,666,-7.06934,-20.3464,0,0,0,0,0,0,0,-1,1511,358,-7.06933,20.3464
294,666,-2.11157,-23.2753,0,0,0,0,0,0,0,-1,1518,358,-2.11162,23.2753
301,666,-4.77222,-21.6957,0,0,0,0,0,0,0,-1,1525,358,-4.77218,21.6957
308,666,-7.45471,-24.766,0,0,0,0,0,0,0,-1,1532,358,-7.45475,24.766
315,666,1.76294,-0.284027,0,0,0,0,0,0,0,-1,1539,358,1.76291,0.284016
322,666,0,0,0,0,0,0,0,0,0,-1,1546,358,0,0
329,666,0,0,0,0,0,0,0,0,0,-1,1553,358,0,0
336,666,0,0,0,0,0,0,0,0,0,-1,1560,358,0,0
343,666,0,0,0,0,0,0,0,0,0,-1,1567,358,0,0
350,666,0,0,0,0,0,0,0,0,0,-1,1574,358,0,0
357,666,0,0,0,0,0,0,0,0,0,-1,1581,358,0,0
364,666,0,0,0,0,0,0,0,0,0,-1,1588,358,0,0
371,666,0,0,0,0,0,0,0,0,0,-1,1595,358,0,0
378,666,0,0,0,0,0,0,0,0,0,-1,1602,358,0,0
385,666,0,0,0,0,0,0,0,0,0,-1,1609,358,0,0
392,666,0,0,0,0,0,0,0,0,0,-1,1616,358,0,0
399,666,0,0,0,0,0,0,0,0,0,-1,1623,358,0,0
406,666,0,0,0,0,0,0,0,0,0,-1,1630,358,0,0
413,666,0,0,0,0,0,0,0,0,0,-1,1637,358,0,0
420,666,0,0,0,0,0,0,0,0,0,-1,1644,358,0,0
427,666,0,0,0,0,0,0,0,0,0,-1,1651,358,0,0
434,666,0,0,0,0,0,0,0,0,0,-1,1658,358,0,0
441,666,0,0,0,0,0,0,0,0,0,-1,1665,358,0,0
448,666,0,0,0,0,0,0,0,0,0,-1,1672,358,0,0
455,666,0,0,0,0,0,0,0,0,0,-1,1679,358,0,0
462,666,0,0,0,0,0,0,0,0,0,-1,1686,358,0,0
469,666,0,0,0,0,0,0,0,0,0,-1,1693,358,0,0
476,666,0,0,0,0,0,0,0,0,0,-1,1700,358,0,0
483,666,0,0,0,0,0,0,0,0,0,-1,1707,358,0,0
490,666,0,0,0,0,0,0,0,0,0,-1,1714,358,0,0
497,666,0,0,0,0,0,0,0,0,0,-1,1721,358,0,0
504,666,0,0,0,0,0,0,0,0,0,-1,1728,358,0,0
511,666,0,0,0,0,0,0,0,0,0,-1,1735,358,0,0
518,666,0,0,0,0,0,0,0,0,0,-1,1742,358,0,0
525,666,0,0,0,0,0,0,0,0,0,-1,1749,358,0,0
532,666,0,0,0,0,0,0,0,0,0,-1,1756,358,0,0
539,666,0,0,0,0,0,0,0,0,0,-1,1763,358,0,0
546,666,0,0,0,0,0,0,0,0,0,-1,1770,358,0,0
553,666,0,0,0,0,0,0,0,0,0,-1,1777,358,0,0
560,666,0,0,0,0,0,0,0,0,0,-1,1784,358,0,0
567,666,0,0,0,0,0,0,0,0,0,-1,1791,358,0,0
574,666,0,0,0,0,0,0,0,0,0,-1,1798,358,0,0
581,666,0,0,0,0,0,0,0,0,0,-1,1805,358,0,0
588,666,0,0,0,0,0,0,0,0,0,-1,1812,358,0,0
595,666,0,0,0,0,0,0,0,0,0,-1,1819,358,0,0
602,666,0,0,0,0,0,0,0,0,0,-1,1826,358,0,0
609,666,0,0,0,0,0,0,0,0,0,-1,1833,358,0,0
616,666,0,0,0,0,0,0,0,0,0,-1,1840,358,0,0
623,666,0,0,0,0,0,0,0,0,0,-1,1847,358,0,0
630,666,0,0,0,0,0,0,0,0,0,-1,1854,358,0,0
637,666,0,0,0,0,0,0,0,0,0,-1,1861,358,0,0
644,666,0,0,0,0,0,0,0,0,0,-1,1868,358,0,0
651,666,0,0,0,0,0,0,0,0,0,-1,1875,358,0,0
658,666,0,0,0,0,0,0,0,0,0,-1,1882,358,0,0
665,666,0,0,0,0,0,0,0,0,0,-1,1889,358,0,0
672,666,0,0,0,0,0,0,0,0,0,-1,1896,358,0,0
679,666,0,0,0,0,0,0,0,0,0,-1,1903,358,0,0
686,666,0,0,0,0,0,0,0,0,0,-1,1910,358,0,0
693,666,0,0,0,0,0,0,0,0,0,-1,1917,358,0,0
700,666,0,0,0,0,0,0,0,0,0,-1,1924,358,0,0
707,666,0,0,0,0,0,0,0,0,0,-1,1931,358,0,0
714,666,0,0,0,0,0,0,0,0,0,-1,1938,358,0,0
721,666,0,0,0,0,0,0,0,0,0,-1,1945,358,0,0
728,666,0,0,0,0,0,0,0,0,0,-1,1952,358,0,0
735,666,0,0,0,0,0,0,0,0,0,-1,1959,358,0,0
742,666,0,0,0,0,0,0,0,0,0,-1,1966,358,0,0
749,666,0,0,0,0,0,0,0,0,0,-1,1973,358,0,0
756,666,0,0,0,0,0,0,0,0,0,-1,1980,358,0,0
763,666,0,0,0,0,0,0,0,0,0,-1,1987,358,0,0
770,666,0,0,0,0,0,0,0,0,0,-1,1994,358,0,0
777,666,0,0,0,0,0,0,0,0,0,-1,2001,358,0,0
784,666,0,0,0,0,0,0,0,0,0,-1,2008,358,0,0
791,666,0,0,0,0,0,0,0,0,0,-1,2015,358,0,0
798,666,0,0,0,0,0,0,0,0,0,-1,2022,358,0,0
805,666,0,0,0,0,0,0,0,0,0,-1,2029,358,0,0
812,666,0,0,0,0,0,0,0,0,0,-1,2036,358,0,0
-700,659,0,0,0,0,0,0,0,0,0,-1,524,365,0,0
-693,659,0,0,0,0,0,0,0,0,0,-1,531,365,0,0
-686,659,0,0,0,0,0,0,0,0,0,-1,538,365,0,0
-679,659,0,0,0,0,0,0,0,0,0,-1,545,365,0,0
-672,659,0,0,0,0,0,0,0,0,0,-1,552,365,0,0
-665,659,0,0,0,0,0,0,0,0,0,-1,559,365,0,0
-658,659,0,0,0,0,0,0,0,0,0,-1,566,365,0,0
-651,659,0,0,0,0,0,0,0,0,0,-1,573,365,0,0
-644,659,0,0,0,0,0,0,0,0,0,-1,580,365,0,0
-637,659,0,0,0,0,0,0,0,0,0,-1,587,365,0,0
-630,659,0,0,0,0,0,0,0,0,0,-1,594,365,0,0
-623,659,0,0,0,0,0,0,0,0,0,-1,601,365,0,0
-616,659,0,0,0,0,0,0,0,0,0,-1,608,365,0,0
-609,659,0,0,0,0,0,0,0,0,0,-1,615,365,0,0
-602,659,0,0,0,0,0,0,0,0,0,-1,622,365,0,0
-595,659,0,0,0,0,0,0,0,0,0,-1,629,365,0,0
-588,659,0,0,0,0,0,0,0,0,0,-1,636,365,0,0
-581,659,0,0,0,0,0,0,0,0,0,-1,643,365,0,0
-574,659,0,0,0,0,0,0,0,0,0,-1,650,365,0,0
-567,659,0,0,0,0,0,0,0,0,0,-1,657,365,0,0
-560,659,0,0,0,0,0,0,0,0,0,-1,664,365,0,0
-553,659,0,0,0,0,0,0,0,0,0,-1,671,365,0,0
-546,659,0,0,0,0,0,0,0,0,0,-1,678,365,0,0
-539,659,0,0,0,0,0,0,0,0,0,-1,685,365,0,0
-532,659,0,0,0,0,0,0,0,0,0,-1,692,365,0,0
-525,659,0,0,0,0,0,0,0,0,0,-1,699,365,0,0
-518,659,0,0,0,0,0,0,0,0,0,-1,706,365,0,0
-511,659,0,0,0,0,0,0,0,0,0,-1,713,365,0,0
-504,659,0,0,0,0,0,0,0,0,0,-1,720,365,0,0
-497,659,0,0,0,0,0,0,0,0,0,-1,727,365,0,0
-490,659,0,0,0,0,0,0,0,0,0,-1,734,365,0,0
-483,659,0,0,0,0,0,0,0,0,0,-1,741,365,0,0
-476,659,0,0,0,0,0,0,0,0,0,-1,748,365,0,0
-469,659,0,0,0,0,0,0,0,0,0,-1,755,365,0,0
-462,659,0,0,0,0,0,0,0,0,0,-1,762,365,0,0
-455,659,0,0,0,0,0,0,0,0,0,-1,769,365,0,0
-448,659,0,0,0,0,0,0,0,0,0,-1,776,365,0,0
-441,659,0,0,0,0,0,0,0,0,0,-1,783,365,0,0
-434,659,0,0,0,0,0,0,0,0,0,-1,790,365,0,0
-427,659,0,0,0,0,0,0,0,0,0,-1,797,365,0,0
-420,659,0,0,0,0,0,0,0,0,0,-1,804,365,0,0
-413,659,0,0,0,0,0,0,0,0,0,-1,811,365,0,0
-406,659,0,0,0,0,0,0,0,0,0,-1,818,365,0,0
-399,659,0,0,0,0,0,0,0,0,0,-1,825,365,0,0
-392,659,0,0,0,0,0,0,0,0,0,-1,832,365,0,0
-385,659,0,0,0,0,0,0,0,0,0,-1,839,365,0,0
-378,659,0,0,0,0,0,0,0,0,0,-1,846,365,0,0
-371,659,0,0,0,0,0,0,0,0,0,-1,853,365,0,0
-364,659,0,0,0,0,0,0,0,0,0,-1,860,365,0,0
-357,659,0,0,0,0,0,0,0,0,0,-1,867,365,0,0
-350,659,0,0,0,0,0,0,0,0,0,-1,874,365,0,0
-343,659,0,0,0,0,0,0,0,0,0,-1,881,365,0,0
-336,659,0,0,0,0,0,0,0,0,0,-1,888,365,0,0
-329,659,0,0,0,0,0,0,0,0,0,-1,895,365,0,0
-322,659,0,0,0,0,0,0,0,0,0,-1,902,365,0,0
-315,659,0,0,0,0,0,0,0,0,0,-1,909,365,0,0
-308,659,0,0,0,0,0,0,0,0,0,-1,916,365,0,0
-301,659,0,0,0,0,0,0,0,0,0,-1,923,365,0,0
-294,659,0,0,0,0,0,0,0,0,0,-1,930,365,0,0
-287,659,0,0,0,0,0,0,0,0,0,-1,937,365,0,0
-280,659,0,0,0,0,0,0,0,0,0,-1,944,365,0,0
-273,659,0,0,0,0,0,0,0,0,0,-1,951,365,0,0
-266,659,0,0,0,0,0,0,0,0,0,-1,958,365,0,0
-259,659,0,0,0,0,0,0,0,0,0,-1,965,365,0,0
-252,659,0,0,0,0,0,0,0,0,0,-1,972,365,0,0
-245,659,0,0,0,0,0,0,0,0,0,-1,979,365,0,0
-238,659,0,0,0,0,0,0,0,0,0,-1,986,365,0,0
-231,659,0,0,0,0,0,0,0,0,0,-1,993,365,0,0
-224,659,0,0,0,0,0,0,0,0,0,-1,1000,365,0,0
-217,659,10.1305,-25.2622,0,0,0,0,0,0,0,-1,1007,365,10.1305,25.2622
-210,659,9.65643,-25.515,0,0,0,0,0,0,0,-1,1014,365,9.65642,25.515
-203,659,8.58911,-25.7432,0,0,0,0,0,0,0,-1,1021,365,8.58916,25.7432
-196,659,2.68323,-27.8121,0,0,0,0,0,0,0,-1,1028,365,2.6832,27.8121
-189,659,6.88049,-28.9412,0,0,0,0,0,0,0,-1,1035,365,6.88045,28.9412
-182,659,6.94189,-30.6316,0,0,0,0,0,0,0,-1,1042,365,6.94189,30.6316
-175,659,6.948,-32.0092,0,0,0,0,0,0,0,-1,1049,365,6.94798,32.0093
-168,659,7.1416,-32.7405,0,0,0,0,0,0,0,-1,1056,365,7.14157,32.7405
-161,659,7.57361,-33.7099,0,0,0,0,0,0,0,-1,1063,365,7.57355,33.7099
-154,659,7.71448,-34.8995,0,0,0,0,0,0,0,-1,1070,365,7.7145,34.8995
-147,659,5.46606,-37.758,0,0,0,0,0,0,0,-1,1077,365,5.46601,37.758
-140,659,5.7356,-37.755,0,0,0,0,0,0,0,-1,1084,365,5.73562,37.755
-133,659,5.91455,-37.9017,0,0,0,0,0,0,0,-1,1091,365,5.9146,37.9017
-126,659,6.31226,-37.9904,0,0,0,0,0,0,0,-1,1098,365,6.3122,37.9904
-119,659,6.26941,-35.0837,0,0,0,0,0,0,0,-1,1105,365,6.26943,35.0837
-112,659,6.24353,-35.0562,0,0,0,0,0,0,0,-1,1112,365,6.24349,35.0562
-105,659,5.38696,-30.5854,0,0,0,0,0,0,0,-1,1119,365,5.387,30.5854
-98,659,4.68042,-26.2438,0,0,0,0,0,0,0,-1,1126,365,4.68041,26.2438
-91,659,4.20776,-20.8654,0,0,0,0,0,0,0,-1,1133,365,4.20777,20.8654
-84,659,2.8584,-17.8303,0,0,0,0,0,0,0,-1,1140,365,2.85836,17.8303
-77,659,2.80139,-15.3457,0,0,0,0,0,0,0,-1,1147,365,2.80139,15.3457
-70,659,2.9353,-12.7028,0,0,0,0,0,0,0,-1,1154,365,2.93533,12.7028
-63,659,2.11267,-9.7796,0,0,0,0,0,0,0,-1,1161,365,2.11266,9.7796
-56,659,2.11182,-9.91541,0,0,0,0,0,0,0,-1,1168,365,2.11178,9.91541
-49,659,8.15381,-57.2841,0,0,0,0,0,0,0,-1,1175,365,8.15381,57.2841
-42,659,8.11987,-57.622,0,0,0,0,0,0,0,-1,1182,365,8.11991,57.622
-35,659,8.02576,-57.9351,-0.00678003,0.0214917,0.0050857,0.0223788,-0.00766704,1.39812,0.0180268,0.0427589,1189,365,8.0257,57.9351
-28,659,8.01111,-58.1512,-0.00640217,0.022958,0.0053516,0.0239031,-0.00734721,1.39601,0.0188675,0.0164947,1196,365,8.01111,58.1512
-21,659,7.90784,-58.4821,-0.00591921,0.0253377,0.00541051,0.0262478,-0.00682925,1.40416,0.0201642,0.0153501,1203,365,7.90784,58.4821
-14,659,7.78979,-58.79,-0.00613616,0.0281291,0.00557545,0.0290135,-0.00702054,1.41349,0.0220581,0.0131121,1210,365,7.78974,58.79
-7,659,7.72314,-59.0058,-0.00637736,0.0316514,0.00590045,0.0325458,-0.00727183,1.42035,0.0244838,0.0120821,1217,365,7.72313,59.0058
0,659,7.69678,-59.1945,-0.00650442,0.0343339,0.00548872,0.0350587,-0.00722925,1.4395,0.0261179,0.00978582,1224,365,7.69683,59.1945
7,659,7.6554,-59.3614,-0.00673358,0.03682,0.00464354,0.0373095,-0.00722316,1.46575,0.0275976,0.0103135,1231,365,7.65535,59.3614
14,659,7.56287,-59.4753,-0.00676763,0.038896,0.00384914,0.0392182,-0.00708982,1.48729,0.0288011,0.0129109,1238,365,7.5629,59.4753
21,659,7.48535,-59.6248,-0.0067271,0.0405532,0.00329298,0.0407815,-0.00695535,1.50159,0.0297781,0.013268,1245,365,7.48537,59.6248
28,659,7.39392,-59.7802,-0.00675317,0.0419779,0.00288314,0.0421479,-0.00692316,1.51191,0.0306679,0.0120035,1252,365,7.39397,59.7802
35,659,7.36279,-59.8933,-0.00714428,0.0426009,0.00225838,0.0427032,-0.00724659,1.52552,0.0311664,0.0127728,1259,365,7.36275,59.8933
42,659,7.31848,-59.9864,-0.00743114,0.0430992,0.00179345,0.0431628,-0.00749472,1.53536,0.0315714,0.0147383,1266,365,7.31844,59.9864
49,659,7.21875,-60.0449,-0.00898712,0.0431449,0.000910797,0.0431608,-0.00900302,1.55333,0.0321972,0.0165805,1273,365,7.21879,60.0449
56,659,7.14099,-60.0845,-0.0106937,0.0419943,2.13355e-05,0.0419943,-0.0106937,1.57039,0.032159,0.0204023,1280,365,7.14095,60.0845
63,659,7.14868,-60.1371,-0.0120383,0.0404311,-0.000315442,0.040433,-0.0120402,-1.56478,0.0317393,0.0173819,1287,365,7.14872,60.1371
70,659,7.05273,-60.1409,-0.0138173,0.0388061,-0.000669255,0.0388146,-0.0138258,-1.55808,0.0315128,0.0171987,1294,365,7.05277,60.1409
77,659,6.93188,-60.1166,-0.0159887,0.03735,-0.00101747,0.0373694,-0.0160081,-1.55173,0.0316294,0.0194614,1301,365,6.93192,60.1166
84,659,6.89148,-60.0578,-0.0184003,0.0349908,-0.00219614,0.035081,-0.0184905,-1.52976,0.03142,0.0143214,1308,365,6.89144,60.0578
91,659,6.82703,-59.9819,-0.0202918,0.031828,-0.00401578,0.0321356,-0.0205994,-1.49435,0.0306884,0.0124894,1315,365,6.82705,59.9819
98,659,6.74438,-59.8561,-0.0216609,0.0297976,-0.00536167,0.0303503,-0.0222137,-1.46807,0.0304688,0.00900751,1322,365,6.7444,59.8561
105,659,6.68372,-59.6879,-0.0225817,0.0288108,-0.00618764,0.0295453,-0.0233162,-1.45265,0.0305901,0.0105069,1329,365,6.68366,59.6879
112,659,6.62,-59.5143,-0.0229443,0.0277677,-0.00694632,0.0287019,-0.0238786,-1.4371,0.0303999,0.0166476,1336,365,6.62005,59.5143
119,659,6.55469,-59.3455,-0.0230529,0.0264251,-0.00809003,0.0277143,-0.0243421,-1.41277,0.0300758,0.0192547,1343,365,6.55472,59.3455
126,659,6.47205,-59.106,-0.0225219,0.0252605,-0.00930123,0.0270072,-0.0242686,-1.38516,0.0296182,0.0187087,1350,365,6.47209,59.106
133,659,6.37366,-58.8798,-0.0210416,0.0243069,-0.0101177,0.0264619,-0.0231965,-1.36094,0.028691,0.0186112,1357,365,6.37365,58.8798
140,659,6.28662,-58.6978,-0.019045,0.0239313,-0.0101418,0.0262044,-0.0213181,-1.35031,0.0274854,0.0133262,1364,365,6.28659,58.6978
147,659,6.23645,-58.4523,-0.0174719,0.024291,-0.0097316,0.0264473,-0.0196282,-1.35274,0.0266986,0.0109879,1371,365,6.23641,58.4523
154,659,6.14526,-58.1249,-0.0148165,0.0237458,-0.0089458,0.02572,-0.0167907,-1.35359,0.0247234,0.012607,1378,365,6.14527,58.1249
161,659,6.07056,-57.7906,-0.0129556,0.0243904,-0.00771109,0.0259199,-0.0144851,-1.37498,0.0236372,0.014254,1385,365,6.07055,57.7906
168,659,6.0105,-57.4211,-0.0128587,0.0249893,-0.0064479,0.0260576,-0.013927,-1.4066,0.0234366,0.0196873,1392,365,6.0105,57.4211
175,659,5.97937,-57.0819,-0.0126486,0.0250774,-0.00508892,0.0257518,-0.013323,-1.43904,0.0229371,0.0427551,1399,365,5.97943,57.0819
182,659,5.84668,-56.8187,0,0,0,0,0,0,0,-1,1406,365,5.84672,56.8187
189,659,5.81299,-56.2699,0,0,0,0,0,0,0,-1,1413,365,5.81295,56.2699
196,659,2.41248,-13.4371,0,0,0,0,0,0,0,-1,1420,365,2.41243,13.4371
203,659,2.38623,-12.2163,0,0,0,0,0,0,0,-1,1427,365,2.38617,12.2163
210,659,2.20789,-13.9792,0,0,0,0,0,0,0,-1,1434,365,2.20794,13.9792
217,659,2.24121,-13.487,0,0,0,0,0,0,0,-1,1441,365,2.24116,13.487
224,659,2.3479,-15.2926,0,0,0,0,0,0,0,-1,1448,365,2.34793,15.2926
231,659,2.47974,-17.8629,0,0,0,0,0,0,0,-1,1455,365,2.47976,17.8628
238,659,3.57886,-21.1258,0,0,0,0,0,0,0,-1,1462,365,3.57889,21.1258
245,659,3.29883,-25.0283,0,0,0,0,0,0,0,-1,1469,365,3.29889,25.0283
252,659,2.81909,-24.1604,0,0,0,0,0,0,0,-1,1476,365,2.81905,24.1604
259,659,2.33069,-3.36703,0,0,0,0,0,0,0,-1,1483,365,2.33073,3.36702
266,659,3.40918,-35.2544,0,0,0,0,0,0,0,-1,1490,365,3.40913,35.2544
273,659,4.45557,-42.3683,0,0,0,0,0,0,0,-1,1497,365,4.45554,42.3683
280,659,4.87903,-41.4995,0,0,0,0,0,0,0,-1,1504,365,4.87898,41.4995
287,659,1.09851,-23.7787,0,0,0,0,0,0,0,-1,1511,365,1.09847,23.7787
294,659,-0.146973,-23.1876,0,0,0,0,0,0,0,-1,1518,365,-0.146929,23.1876
301,659,-1.39233,-22.5964,0,0,0,0,0,0,0,-1,1525,365,-1.39232,22.5964
308,659,-4.59692,-21.4031,0,0,0,0,0,0,0,-1,1532,365,-4.59689,21.4031
315,659,-6.78564,-21.0916,0,0,0,0,0,0,0,-1,1539,365,-6.78563,21.0916
322,659,-8.245,-20.894,0,0,0,0,0,0,0,-1,1546,365,-8.245,20.894
329,659,-7.67749,-23.0449,0,0,0,0,0,0,0,-1,1553,365,-7.67745,23.0449
336,659,-7.71436,-22.4188,0,0,0,0,0,0,0,-1,1560,365,-7.71432,22.4188
343,659,0,0,0,0,0,0,0,0,0,-1,1567,365,0,0
350,659,0,0,0,0,0,0,0,0,0,-1,1574,365,0,0
357,659,0,0,0,0,0,0,0,0,0,-1,1581,365,0,0
364,659,0,0,0,0,0,0,0,0,0,-1,1588,365,0,0
371,659,0,0,0,0,0,0,0,0,0,-1,1595,365,0,0
378,659,0,0,0,0,0,0,0,0,0,-1,1602,365,0,0
385,659,0,0,0,0,0,0,0,0,0,-1,1609,365,0,0
392,659,0,0,0,0,0,0,0,0,0,-1,1616,365,0,0
399,659,0,0,0,0,0,0,0,0,0,-1,1623,365,0,0
406,659,0,0,0,0,0,0,0,0,0,-1,1630,365,0,0
413,659,0,0,0,0,0,0,0,0,0,-1,1637,365,0,0
420,659,0,0,0,0,0,0,0,0,0,-1,1644,365,0,0
427,659,0,0,0,0,0,0,0,0,0,-1,1651,365,0,0
434,659,0,0,0,0,0,0,0,0,0,-1,1658,365,0,0
441,659,0,0,0,0,0,0,0,0,0,-1,1665,365,0,0
448,659,0,0,0,0,0,0,0,0,0,-1,1672,365,0,0
455,659,0,0,0,0,0,0,0,0,0,-1,1679,365,0,0
462,659,0,0,0,0,0,0,0,0,0,-1,1686,365,0,0
469,659,0,0,0,0,0,0,0,0,0,-1,1693,365,0,0
476,659,0,0,0,0,0,0,0,0,0,-1,1700,365,0,0
483,659,0,0,0,0,0,0,0,0,0,-1,1707,365,0,0
490,659,0,0,0,0,0,0,0,0,0,-1,1714,365,0,0
497,659,0,0,0,0,0,0,0,0,0,-1,1721,365,0,0
504,659,0,0,0,0,0,0,0,0,0,-1,1728,365,0,0
511,659,0,0,0,0,0,0,0,0,0,-1,1735,365,0,0
518,659,0,0,0,0,0,0,0,0,0,-1,1742,365,0,0
525,659,0,0,0,0,0,0,0,0,0,-1,1749,365,0,0
532,659,0,0,0,0,0,0,0,0,0,-1,1756,365,0,0
539,659,0,0,0,0,0,0,0,0,0,-1,1763,365,0,0
546,659,0,0,0,0,0,0,0,0,0,-1,1770,365,0,0
553,659,0,0,0,0,0,0,0,0,0,-1,1777,365,0,0
560,659,0,0,0,0,0,0,0,0,0,-1,1784,365,0,0
567,659,0,0,0,0,0,0,0,0,0,-1,1791,365,0,0
574,659,0,0,0,0,0,0,0,0,0,-1,1798,365,0,0
581,659,0,0,0,0,0,0,0,0,0,-1,1805,365,0,0
588,659,0,0,0,0,0,0,0,0,0,-1,1812,365,0,0
595,659,0,0,0,0,0,0,0,0,0,-1,1819,365,0,0
602,659,0,0,0,0,0,0,0,0,0,-1,1826,365,0,0
609,659,0,0,0,0,0,0,0,0,0,-1,1833,365,0,0
616,659,0,0,0,0,0,0,0,0,0,-1,1840,365,0,0
623,659,0,0,0,0,0,0,0,0,0,-1,1847,365,0,0
630,659,0,0,0,0,0,0,0,0,0,-1,1854,365,0,0
637,659,0,0,0,0,0,0,0,0,0,-1,1861,365,0,0
644,659,0,0,0,0,0,0,0,0,0,-1,1868,365,0,0
651,659,0,0,0,0,0,0,0,0,0,-1,1875,365,0,0
658,659,0,0,0,0,0,0,0,0,0,-1,1882,365,0,0
665,659,0,0,0,0,0,0,0,0,0,-1,1889,365,0,0
672,659,0,0,0,0,0,0,0,0,0,-1,1896,365,0,0
679,659,0,0,0,0,0,0,0,0,0,-1,1903,365,0,0
686,659,0,0,0,0,0,0,0,0,0,-1,1910,365,0,0
693,659,0,0,0,0,0,0,0,0,0,-1,1917,365,0,0
700,659,0,0,0,0,0,0,0,0,0,-1,1924,365,0,0
707,659,0,0,0,0,0,0,0,0,0,-1,1931,365,0,0
714,659,0,0,0,0,0,0,0,0,0,-1,1938,365,0,0
721,659,0,0,0,0,0,0,0,0,0,-1,1945,365,0,0
728,659,0,0,0,0,0,0,0,0,0,-1,1952,365,0,0
735,659,0,0,0,0,0,0,0,0,0,-1,1959,365,0,0
742,659,0,0,0,0,0,0,0,0,0,-1,1966,365,0,0
749,659,0,0,0,0,0,0,0,0,0,-1,1973,365,0,0
756,659,0,0,0,0,0,0,0,0,0,-1,1980,365,0,0
763,659,0,0,0,0,0,0,0,0,0,-1,1987,365,0,0
770,659,0,0,0,0,0,0,0,0,0,-1,1994,365,0,0
777,659,0,0,0,0,0,0,0,0,0,-1,2001,365,0,0
784,659,0,0,0,0,0,0,0,0,0,-1,2008,365,0,0
791,659,0,0,0,0,0,0,0,0,0,-1,2015,365,0,0
798,659,0,0,0,0,0,0,0,0,0,-1,2022,365,0,0
805,659,0,0,0,0,0,0,0,0,0,-1,2029,365,0,0
812,659,0,0,0,0,0,0,0,0,0,-1,2036,365,0,0
-700,652,0,0,0,0,0,0,0,0,0,-1,524,372,0,0
-693,652,0,0,0,0,0,0,0,0,0,-1,531,372,0,0
-686,652,0,0,0,0,0,0,0,0,0,-1,538,372,0,0
-679,652,0,0,0,0,0,0,0,0,0,-1,545,372,0,0
-672,652,0,0,0,0,0,0,0,0,0,-1,552,372,0,0
-665,652,0,0,0,0,0,0,0,0,0,-1,559,372,0,0
-658,652,0,0,0,0,0,0,0,0,0,-1,566,372,0,0
-651,652,0,0,0,0,0,0,0,0,0,-1,573,372,0,0
-644,652,0,0,0,0,0,0,0,0,0,-1,580,372,0,0
-637,652,0,0,0,0,0,0,0,0,0,-1,587,372,0,0
-630,652,0,0,0,0,0,0,0,0,0,-1,594,372,0,0
-623,652,0,0,0,0,0,0,0,0,0,-1,601,372,0,0
-616,652,0,0,0,0,0,0,0,0,0,-1,608,372,0,0
-609,652,0,0,0,0,0,0,0,0,0,-1,615,372,0,0
-602,652,0,0,0,0,0,0,0,0,0,-1,622,372,0,0
-595,652,0,0,0,0,0,0,0,0,0,-1,629,372,0,0
-588,652,0,0,0,0,0,0,0,0,0,-1,636,372,0,0
-581,652,0,0,0,0,0,0,0,0,0,-1,643,372,0,0
-574,652,0,0,0,0,0,0,0,0,0,-1,650,372,0,0
-567,652,0,0,0,0,0,0,0,0,0,-1,657,372,0,0
-560,652,0,0,0,0,0,0,0,0,0,-1,664,372,0,0
-553,652,0,0,0,0,0,0,0,0,0,-1,671,372,0,0
-546,652,0,0,0,0,0,0,0,0,0,-1,678,372,0,0
-539,652,0,0,0,0,0,0,0,0,0,-1,685,372,0,0
-532,652,0,0,0,0,0,0,0,0,0,-1,692,372,0,0
-525,652,0,0,0,0,0,0,0,0,0,-1,699,372,0,0
-518,652,0,0,0,0,0,0,0,0,0,-1,706,372,0,0
-511,652,0,0,0,0,0,0,0,0,0,-1,713,372,0,0
-504,652,0,0,0,0,0,0,0,0,0,-1,720,372,0,0
-497,652,0,0,0,0,0,0,0,0,0,-1,727,372,0,0
-490,652,0,0,0,0,0,0,0,0,0,-1,734,372,0,0
-483,652,0,0,0,0,0,0,0,0,0,-1,741,372,0,0
-476,652,0,0,0,0,0,0,0,0,0,-1,748,372,0,0
-469,652,0,0,0,0,0,0,0,0,0,-1,755,372,0,0
-462,652,0,0,0,0,0,0,0,0,0,-1,762,372,0,0
-455,652,0,0,0,0,0,0,0,0,0,-1,769,372,0,0
-448,652,0,0,0,0,0,0,0,0,0,-1,776,372,0,0
-441,652,0,0,0,0,0,0,0,0,0,-1,783,372,0,0
-434,652,0,0,0,0,0,0,0,0,0,-1,790,372,0,0
-427,652,0,0,0,0,0,0,0,0,0,-1,797,372,0,0
-420,652,0,0,0,0,0,0,0,0,0,-1,804,372,0,0
-413,652,0,0,0,0,0,0,0,0,0,-1,811,372,0,0
-406,652,0,0,0,0,0,0,0,0,0,-1,818,372,0,0
-399,652,0,0,0,0,0,0,0,0,0,-1,825,372,0,0
-392,652,0,0,0,0,0,0,0,0,0,-1,832,372,0,0
-385,652,0,0,0,0,0,0,0,0,0,-1,839,372,0,0
-378,652,0,0,0,0,0,0,0,0,0,-1,846,372,0,0
-371,652,0,0,0,0,0,0,0,0,0,-1,853,372,0,0
-364,652,0,0,0,0,0,0,0,0,0,-1,860,372,0,0
-357,652,0,0,0,0,0,0,0,0,0,-1,867,372,0,0
-350,652,0,0,0,0,0,0,0,0,0,-1,874,372,0,0
-343,652,0,0,0,0,0,0,0,0,0,-1,881,372,0,0
-336,652,0,0,0,0,0,0,0,0,0,-1,888,372,0,0
-329,652,0,0,0,0,0,0,0,0,0,-1,895,372,0,0
-322,652,0,0,0,0,0,0,0,0,0,-1,902,372,0,0
-315,652,0,0,0,0,0,0,0,0,0,-1,909,372,0,0
-308,652,0,0,0,0,0,0,0,0,0,-1,916,372,0,0
-301,652,0,0,0,0,0,0,0,0,0,-1,923,372,0,0
-294,652,0,0,0,0,0,0,0,0,0,-1,930,372,0,0
-287,652,0,0,0,0,0,0,0,0,0,-1,937,372,0,0
-280,652,0,0,0,0,0,0,0,0,0,-1,944,372,0,0
-273,652,0,0,0,0,0,0,0,0,0,-1,951,372,0,0
-266,652,0,0,0,0,0,0,0,0,0,-1,958,372,0,0
-259,652,0,0,0,0,0,0,0,0,0,-1,965,372,0,0
-252,652,0,0,0,0,0,0,0,0,0,-1,972,372,0,0
-245,652,0,0,0,0,0,0,0,0,0,-1,979,372,0,0
-238,652,0,0,0,0,0,0,0,0,0,-1,986,372,0,0
-231,652,8.79358,-27.1656,0,0,0,0,0,0,0,-1,993,372,8.79357,27.1656
-224,652,8.84552,-27.675,0,0,0,0,0,0,0,-1,1000,372,8.84555,27.675
-217,652,9.03113,-27.7474,0,0,0,0,0,0,0,-1,1007,372,9.0311,27.7474
-210,652,9.72803,-30.4624,0,0,0,0,0,0,0,-1,1014,372,9.72805,30.4624
-203,652,7.2677,-26.0732,0,0,0,0,0,0,0,-1,1021,372,7.26775,26.0732
-196,652,5.90686,-26.957,0,0,0,0,0,0,0,-1,1028,372,5.9068,26.957
-189,652,6.21326,-28.3035,0,0,0,0,0,0,0,-1,1035,372,6.21331,28.3035
-182,652,6.45068,-29.9377,0,0,0,0,0,0,0,-1,1042,372,6.45074,29.9377
-175,652,6.72559,-31.6948,0,0,0,0,0,0,0,-1,1049,372,6.72563,31.6948
-168,652,7.08533,-32.8669,0,0,0,0,0,0,0,-1,1056,372,7.08532,32.8669
-161,652,7.85291,-37.3545,0,0,0,0,0,0,0,-1,1063,372,7.85294,37.3545
-154,652,7.54639,-37.9586,0,0,0,0,0,0,0,-1,1070,372,7.54642,37.9586
-147,652,7.85571,-42.3712,0,0,0,0,0,0,0,-1,1077,372,7.8557,42.3712
-140,652,5.6842,-33.9781,0,0,0,0,0,0,0,-1,1084,372,5.68421,33.9781
-133,652,6.3009,-35.2887,0,0,0,0,0,0,0,-1,1091,372,6.30093,35.2887
-126,652,5.86841,-37.0981,0,0,0,0,0,0,0,-1,1098,372,5.86845,37.0981
-119,652,8.18018,-49.52,0,0,0,0,0,0,0,-1,1105,372,8.18015,49.52
-112,652,7.81982,-48.4793,0,0,0,0,0,0,0,-1,1112,372,7.81981,48.4793
-105,652,6.63855,-39.9965,0,0,0,0,0,0,0,-1,1119,372,6.63852,39.9965
-98,652,5.84302,-35.2455,0,0,0,0,0,0,0,-1,1126,372,5.84307,35.2455
-91,652,5.66296,-32.9003,0,0,0,0,0,0,0,-1,1133,372,5.66297,32.9003
-84,652,5.46057,-34.9186,0,0,0,0,0,0,0,-1,1140,372,5.46057,34.9186
-77,652,8.18274,-55.5315,0,0,0,0,0,0,0,-1,1147,372,8.18272,55.5315
-70,652,8.1333,-56.1196,0,0,0,0,0,0,0,-1,1154,372,8.13332,56.1196
-63,652,8.07568,-56.5269,0,0,0,0,0,0,0,-1,1161,372,8.07566,56.5269
-56,652,7.98279,-56.9608,0,0,0,0,0,0,0,-1,1168,372,7.98273,56.9608
-49,652,7.91589,-57.3176,-0.00674442,0.0133845,0.00149632,0.0134951,-0.00685505,1.497,0.0119558,0.0377373,1175,372,7.91584,57.3176
-42,652,7.84155,-57.6165,-0.00616298,0.0142464,0.00199631,0.0144399,-0.00635642,1.4742,0.0123054,0.0131052,1182,372,7.84152,57.6165
-35,652,7.79443,-57.9296,-0.00572471,0.0158261,0.00248641,0.0161093,-0.00600786,1.45741,0.0132058,0.0106192,1189,372,7.79438,57.9296
-28,652,7.72668,-58.23,-0.0053083,0.0169265,0.00278106,0.0172691,-0.00565087,1.44823,0.0137879,0.00877701,1196,372,7.72664,58.23
-21,652,7.64514,-58.544,-0.00481856,0.0185363,0.0029449,0.0189019,-0.00518417,1.44728,0.0146386,0.00946989,1203,372,7.64513,58.544
-14,652,7.59705,-58.809,-0.00479743,0.0203172,0.00315801,0.0207083,-0.00518844,1.44761,0.0158212,0.0116605,1210,372,7.5971,58.809
-7,652,7.53711,-59.0558,-0.00481943,0.0225575,0.00342813,0.0229803,-0.00524218,1.4481,0.0173338,0.01404,1217,372,7.53706,59.0558
0,652,7.49585,-59.2621,-0.00468092,0.024291,0.00332021,0.0246666,-0.00505655,1.45814,0.0183635,0.013625,1224,372,7.49591,59.2621
7,652,7.46997,-59.4029,-0.00464889,0.0259863,0.00298078,0.0262736,-0.00493622,1.4747,0.019372,0.0149099,1231,372,7.46992,59.4029
14,652,7.43176,-59.5788,-0.0045585,0.0274701,0.00271836,0.0276991,-0.00478757,1.48672,0.0202515,0.0128659,1238,372,7.43181,59.5788
21,652,7.35742,-59.7507,-0.00439711,0.0286819,0.00256398,0.0288794,-0.00459467,1.4939,0.0209531,0.0123684,1245,372,7.3574,59.7507
28,652,7.31177,-59.901,-0.0042875,0.0297456,0.00253661,0.0299337,-0.00447552,1.49681,0.0216027,0.0110437,1252,372,7.31175,59.901
35,652,7.26648,-60.0027,-0.00450565,0.0302715,0.00230274,0.0304233,-0.00465747,1.50497,0.0219996,0.0103686,1259,372,7.26649,60.0027
42,652,7.22437,-60.0664,-0.00467555,0.0307277,0.00219766,0.0308636,-0.00481145,1.50904,0.0223528,0.0114051,1266,372,7.22435,60.0664
49,652,7.21021,-60.1083,-0.0057583,0.0309189,0.00183765,0.0310107,-0.00585014,1.52086,0.0228746,0.0149705,1273,372,7.21022,60.1083
56,652,7.18506,-60.1212,-0.00697338,0.0302904,0.00141198,0.0303438,-0.00702681,1.53298,0.0229332,0.0176442,1280,372,7.1851,60.1212
63,652,7.12976,-60.1834,-0.00792815,0.0294574,0.0013018,0.0295026,-0.00797343,1.53603,0.0227959,0.0209593,1287,372,7.12976,60.1834
70,652,7.04956,-60.17,-0.00918128,0.0284767,0.00114513,0.0285115,-0.00921607,1.54043,0.0227118,0.0177562,1294,372,7.04956,60.17
77,652,6.97961,-60.1501,-0.0107133,0.0276269,0.000983623,0.0276521,-0.0107385,1.54516,0.0228706,0.0172934,1301,372,6.97967,60.1501
84,652,6.95215,-60.1109,-0.0124584,0.0260458,0.000174793,0.0260466,-0.0124592,1.56626,0.022688,0.0151165,1308,372,6.95211,60.1109
91,652,6.89148,-60.0909,-0.0139156,0.0238032,-0.00114382,0.0238378,-0.0139503,-1.54051,0.0220645,0.0188969,1315,372,6.89151,60.0909
98,652,6.86584,-59.9621,-0.0149903,0.022377,-0.00210756,0.0224955,-0.0151088,-1.51463,0.02185,0.0144348,1322,372,6.86583,59.9621
105,652,6.81335,-59.7936,-0.0157513,0.0216585,-0.00277731,0.0218636,-0.0159564,-1.49709,0.021924,0.0120626,1329,372,6.8133,59.7936
112,652,6.75525,-59.6232,-0.0160158,0.0209223,-0.00339595,0.0212319,-0.0163254,-1.47988,0.0217453,0.010583,1336,372,6.75531,59.6232
119,652,6.71191,-59.4342,-0.0159999,0.0199924,-0.0042764,0.0204935,-0.016501,-1.45415,0.0214002,0.0112306,1343,372,6.71191,59.4342
126,652,6.63904,-59.2043,-0.0155954,0.0192595,-0.00513367,0.0199999,-0.0163358,-1.42756,0.0210139,0.0136336,1350,372,6.639,59.2042
133,652,6.57471,-58.979,-0.0145183,0.0187231,-0.00572816,0.0196825,-0.0154777,-1.40485,0.0203481,0.0131599,1357,372,6.57468,58.979
140,652,6.53235,-58.7576,-0.012989,0.0186689,-0.00563504,0.0196421,-0.0139621,-1.39979,0.0194935,0.00919131,1364,372,6.53238,58.7576
147,652,6.49573,-58.5045,-0.0118534,0.0191873,-0.00526778,0.0200569,-0.0127231,-1.40719,0.0190828,0.00944409,1371,372,6.49578,58.5045
154,652,6.43994,-58.2237,-0.00995303,0.0191121,-0.00464104,0.0198352,-0.0106761,-1.41624,0.0178783,0.00958333,1378,372,6.43998,58.2237
161,652,6.36365,-57.9013,-0.00868475,0.0198162,-0.00363914,0.0202735,-0.00914207,-1.44578,0.0173837,0.0114951,1385,372,6.36368,57.9013
168,652,6.29968,-57.529,-0.00868233,0.0203355,-0.00260707,0.0205679,-0.00891469,-1.4819,0.0174594,0.0128998,1392,372,6.2997,57.529
175,652,6.25427,-57.1551,-0.00867401,0.0204775,-0.00148978,0.0205535,-0.00874994,-1.51987,0.0173698,0.0130572,1399,372,6.25433,57.1551
182,652,6.18335,-56.8133,-0.00864337,0.0206109,-0.000187853,0.0206121,-0.00864458,-1.56438,0.017356,0.0193081,1406,372,6.18341,56.8133
189,652,6.15674,-56.3938,-0.00784266,0.0210257,0.00228896,0.021206,-0.00802303,1.49216,0.0174382,0.0315055,1413,372,6.15671,56.3938
196,652,6.07043,-55.9986,0,0,0,0,0,0,0,-1,1420,372,6.07038,55.9986
203,652,6.0282,-55.5224,0,0,0,0,0,0,0,-1,1427,372,6.02816,55.5224
210,652,6.03699,-54.9727,0,0,0,0,0,0,0,-1,1434,372,6.03694,54.9727
217,652,5.88513,-53.8912,0,0,0,0,0,0,0,-1,1441,372,5.88513,53.8913
224,652,3.63794,-31.2791,0,0,0,0,0,0,0,-1,1448,372,3.63799,31.2791
231,652,3.83936,-30.4812,0,0,0,0,0,0,0,-1,1455,372,3.8393,30.4812
238,652,4.42358,-36.4103,0,0,0,0,0,0,0,-1,1462,372,4.4236,36.4103
245,652,4.53296,-41.8512,0,0,0,0,0,0,0,-1,1469,372,4.5329,41.8512
252,652,5.00793,-47.7065,0,0,0,0,0,0,0,-1,1476,372,5.00791,47.7064
259,652,3.44922,-31.2655,0,0,0,0,0,0,0,-1,1483,372,3.44921,31.2655
266,652,5.23499,-50.126,0,0,0,0,0,0,0,-1,1490,372,5.23495,50.126
273,652,5.12207,-49.9677,0,0,0,0,0,0,0,-1,1497,372,5.12212,49.9678
280,652,4.05066,-24.6993,0,0,0,0,0,0,0,-1,1504,372,4.05066,24.6993
287,652,3.0979,-23.6951,0,0,0,0,0,0,0,-1,1511,372,3.09796,23.6951
294,652,1.79321,-23.0648,0,0,0,0,0,0,0,-1,1518,372,1.79317,23.0648
301,652,0.488403,-22.4346,0,0,0,0,0,0,0,-1,1525,372,0.488378,22.4346
308,652,-2.57666,-21.5525,0,0,0,0,0,0,0,-1,1532,372,-2.5766,21.5525
315,652,-4.21008,-21.5407,0,0,0,0,0,0,0,-1,1539,372,-4.21006,21.5407
322,652,-5.69116,-21.7166,0,0,0,0,0,0,0,-1,1546,372,-5.6911,21.7166
329,652,-7.12329,-21.7065,0,0,0,0,0,0,0,-1,1553,372,-7.12334,21.7065
336,652,-3.56519,-22.3688,0,0,0,0,0,0,0,-1,1560,372,-3.56517,22.3688
343,652,-3.58069,-21.9185,0,0,0,0,0,0,0,-1,1567,372,-3.58069,21.9185
350,652,5.28394,-25.6715,0,0,0,0,0,0,0,-1,1574,372,5.28393,25.6715
357,652,0,0,0,0,0,0,0,0,0,-1,1581,372,0,0
364,652,0,0,0,0,0,0,0,0,0,-1,1588,372,0,0
371,652,0,0,0,0,0,0,0,0,0,-1,1595,372,0,0
378,652,0,0,0,0,0,0,0,0,0,-1,1602,372,0,0
385,652,0,0,0,0,0,0,0,0,0,-1,1609,372,0,0
392,652,0,0,0,0,0,0,0,0,0,-1,1616,372,0,0
399,652,0,0,0,0,0,0,0,0,0,-1,1623,372,0,0
406,652,0,0,0,0,0,0,0,0,0,-1,1630,372,0,0
413,652,0,0,0,0,0,0,0,0,0,-1,1637,372,0,0
420,652,0,0,0,0,0,0,0,0,0,-1,1644,372,0,0
427,652,0,0,0,0,0,0,0,0,0,-1,1651,372,0,0
434,652,0,0,0,0,0,0,0,0,0,-1,1658,372,0,0
441,652,0,0,0,0,0,0,0,0,0,-1,1665,372,0,0
448,652,0,0,0,0,0,0,0,0,0,-1,1672,372,0,0
455,652,0,0,0,0,0,0,0,0,0,-1,1679,372,0,0
462,652,0,0,0,0,0,0,0,0,0,-1,1686,372,0,0
469,652,0,0,0,0,0,0,0,0,0,-1,1693,372,0,0
476,652,0,0,0,0,0,0,0,0,0,-1,1700,372,0,0
483,652,0,0,0,0,0,0,0,0,0,-1,1707,372,0,0
490,652,0,0,0,0,0,0,0,0,0,-1,1714,372,0,0
497,652,0,0,0,0,0,0,0,0,0,-1,1721,372,0,0
504,652,0,0,0,0,0,0,0,0,0,-1,1728,372,0,0
511,652,0,0,0,0,0,0,0,0,0,-1,1735,372,0,0
518,652,0,0,0,0,0,0,0,0,0,-1,1742,372,0,0
525,652,0,0,0,0,0,0,0,0,0,-1,1749,372,0,0
532,652,0,0,0,0,0,0,0,0,0,-1,1756,372,0,0
539,652,0,0,0,0,0,0,0,0,0,-1,1763,372,0,0
546,652,0,0,0,0,0,0,0,0,0,-1,1770,372,0,0
553,652,0,0,0,0,0,0,0,0,0,-1,1777,372,0,0
560,652,0,0,0,0,0,0,0,0,0,-1,1784,372,0,0
567,652,0,0,0,0,0,0,0,0,0,-1,1791,372,0,0
574,652,0,0,0,0,0,0,0,0,0,-1,1798,372,0,0
581,652,0,0,0,0,0,0,0,0,0,-1,1805,372,0,0
588,652,0,0,0,0,0,0,0,0,0,-1,1812,372,0,0
595,652,0,0,0,0,0,0,0,0,0,-1,1819,372,0,0
602,652,0,0,0,0,0,0,0,0,0,-1,1826,372,0,0
609,652,0,0,0,0,0,0,0,0,0,-1,1833,372,0,0
616,652,0,0,0,0,0,0,0,0,0,-1,1840,372,0,0
623,652,0,0,0,0,0,0,0,0,0,-1,1847,372,0,0
630,652,0,0,0,0,0,0,0,0,0,-1,1854,372,0,0
637,652,0,0,0,0,0,0,0,0,0,-1,1861,372,0,0
644,652,0,0,0,0,0,0,0,0,0,-1,1868,372,0,0
651,652,0,0,0,0,0,0,0,0,0,-1,1875,372,0,0
658,652,0,0,0,0,0,0,0,0,0,-1,1882,372,0,0
665,652,0,0,0,0,0,0,0,0,0,-1,1889,372,0,0
672,652,0,0,0,0,0,0,0,0,0,-1,1896,372,0,0
679,652,0,0,0,0,0,0,0,0,0,-1,1903,372,0,0
686,652,0,0,0,0,0,0,0,0,0,-1,1910,372,0,0
693,652,0,0,0,0,0,0,0,0,0,-1,1917,372,0,0
700,652,0,0,0,0,0,0,0,0,0,-1,1924,372,0,0
707,652,0,0,0,0,0,0,0,0,0,-1,1931,372,0,0
714,652,0,0,0,0,0,0,0,0,0,-1,1938,372,0,0
721,652,0,0,0,0,0,0,0,0,0,-1,1945,372,0,0
728,652,0,0,0,0,0,0,0,0,0,-1,1952,372,0,0
735,652,0,0,0,0,0,0,0,0,0,-1,1959,372,0,0
742,652,0,0,0,0,0,0,0,0,0,-1,1966,372,0,0
749,652,0,0,0,0,0,0,0,0,0,-1,1973,372,0,0
756,652,0,0,0,0,0,0,0,0,0,-1,1980,372,0,0
763,652,0,0,0,0,0,0,0,0,0,-1,1987,372,0,0
770,652,0,0,0,0,0,0,0,0,0,-1,1994,372,0,0
777,652,0,0,0,0,0,0,0,0,0,-1,2001,372,0,0
784,652,0,0,0,0,0,0,0,0,0,-1,2008,372,0,0
791,652,0,0,0,0,0,0,0,0,0,-1,2015,372,0,0
798,652,0,0,0,0,0,0,0,0,0,-1,2022,372,0,0
805,652,0,0,0,0,0,0,0,0,0,-1,2029,372,0,0
812,652,0,0,0,0,0,0,0,0,0,-1,2036,372,0,0
-700,645,0,0,0,0,0,0,0,0,0,-1,524,379,0,0
-693,645,0,0,0,0,0,0,0,0,0,-1,531,379,0,0
-686,645,0,0,0,0,0,0,0,0,0,-1,538,379,0,0
-679,645,0,0,0,0,0,0,0,0,0,-1,545,379,0,0
-672,645,0,0,0,0,0,0,0,0,0,-1,552,379,0,0
-665,645,0,0,0,0,0,0,0,0,0,-1,559,379,0,0
-658,645,0,0,0,0,0,0,0,0,0,-1,566,379,0,0
-651,645,0,0,0,0,0,0,0,0,0,-1,573,379,0,0
-644,645,0,0,0,0,0,0,0,0,0,-1,580,379,0,0
-637,645,0,0,0,0,0,0,0,0,0,-1,587,379,0,0
-630,645,0,0,0,0,0,0,0,0,0,-1,594,379,0,0
-623,645,0,0,0,0,0,0,0,0,0,-1,601,379,0,0
-616,645,0,0,0,0,0,0,0,0,0,-1,608,379,0,0
-609,645,0,0,0,0,0,0,0,0,0,-1,615,379,0,0
-602,645,0,0,0,0,0,0,0,0,0,-1,622,379,0,0
-595,645,0,0,0,0,0,0,0,0,0,-1,629,379,0,0
-588,645,0,0,0,0,0,0,0,0,0,-1,636,379,0,0
-581,645,0,0,0,0,0,0,0,0,0,-1,643,379,0,0
-574,645,0,0,0,0,0,0,0,0,0,-1,650,379,0,0
-567,645,0,0,0,0,0,0,0,0,0,-1,657,379,0,0
-560,645,0,0,0,0,0,0,0,0,0,-1,664,379,0,0
-553,645,0,0,0,0,0,0,0,0,0,-1,671,379,0,0
-546,645,0,0,0,0,0,0,0,0,0,-1,678,379,0,0
-539,645,0,0,0,0,0,0,0,0,0,-1,685,379,0,0
-532,645,0,0,0,0,0,0,0,0,0,-1,692,379,0,0
-525,645,0,0,0,0,0,0,0,0,0,-1,699,379,0,0
-518,645,0,0,0,0,0,0,0,0,0,-1,706,379,0,0
-511,645,0,0,0,0,0,0,0,0,0,-1,713,379,0,0
-504,645,0,0,0,0,0,0,0,0,0,-1,720,379,0,0
-497,645,0,0,0,0,0,0,0,0,0,-1,727,379,0,0
-490,645,0,0,0,0,0,0,0,0,0,-1,734,379,0,0
-483,645,0,0,0,0,0,0,0,0,0,-1,741,379,0,0
-476,645,0,0,0,0,0,0,0,0,0,-1,748,379,0,0
-469,645,0,0,0,0,0,0,0,0,0,-1,755,379,0,0
-462,645,0,0,0,0,0,0,0,0,0,-1,762,379,0,0
-455,645,0,0,0,0,0,0,0,0,0,-1,769,379,0,0
-448,645,0,0,0,0,0,0,0,0,0,-1,776,379,0,0
-441,645,0,0,0,0,0,0,0,0,0,-1,783,379,0,0
-434,645,0,0,0,0,0,0,0,0,0,-1,790,379,0,0
-427,645,0,0,0,0,0,0,0,0,0,-1,797,379,0,0
-420,645,0,0,0,0,0,0,0,0,0,-1,804,379,0,0
-413,645,0,0,0,0,0,0,0,0,0,-1,811,379,0,0
-406,645,0,0,0,0,0,0,0,0,0,-1,818,379,0,0
-399,645,0,0,0,0,0,0,0,0,0,-1,825,379,0,0
-392,645,0,0,0,0,0,0,0,0,0,-1,832,379,0,0
-385,645,0,0,0,0,0,0,0,0,0,-1,839,379,0,0
-378,645,0,0,0,0,0,0,0,0,0,-1,846,379,0,0
-371,645,0,0,0,0,0,0,0,0,0,-1,853,379,0,0
-364,645,0,0,0,0,0,0,0,0,0,-1,860,379,0,0
-357,645,0,0,0,0,0,0,0,0,0,-1,867,379,0,0
-350,645,0,0,0,0,0,0,0,0,0,-1,874,379,0,0
-343,645,0,0,0,0,0,0,0,0,0,-1,881,379,0,0
-336,645,0,0,0,0,0,0,0,0,0,-1,888,379,0,0
-329,645,0,0,0,0,0,0,0,0,0,-1,895,379,0,0
-322,645,0,0,0,0,0,0,0,0,0,-1,902,379,0,0
-315,645,0,0,0,0,0,0,0,0,0,-1,909,379,0,0
-308,645,0,0,0,0,0,0,0,0,0,-1,916,379,0,0
-301,645,0,0,0,0,0,0,0,0,0,-1,923,379,0,0
-294,645,0,0,0,0,0,0,0,0,0,-1,930,379,0,0
-287,645,0,0,0,0,0,0,0,0,0,-1,937,379,0,0
-280,645,0,0,0,0,0,0,0,0,0,-1,944,379,0,0
-273,645,0,0,0,0,0,0,0,0,0,-1,951,379,0,0
-266,645,0,0,0,0,0,0,0,0,0,-1,958,379,0,0
-259,645,0,0,0,0,0,0,0,0,0,-1,965,379,0,0
-252,645,2.95691,-26.9133,0,0,0,0,0,0,0,-1,972,379,2.9569,26.9133
-245,645,2.73169,-27.0215,0,0,0,0,0,0,0,-1,979,379,2.73172,27.0215
-238,645,2.6665,-26.9464,0,0,0,0,0,0,0,-1,986,379,2.66649,26.9464
-231,645,7.26807,-29.1054,0,0,0,0,0,0,0,-1,993,379,7.26806,29.1054
-224,645,7.69073,-29.5737,0,0,0,0,0,0,0,-1,1000,379,7.69071,29.5737
-217,645,8.65485,-33.4136,0,0,0,0,0,0,0,-1,1007,379,8.65487,33.4136
-210,645,9.21594,-32.5157,0,0,0,0,0,0,0,-1,1014,379,9.21591,32.5156
-203,645,9.77698,-31.6176,0,0,0,0,0,0,0,-1,1021,379,9.77696,31.6177
-196,645,10.2664,-29.7741,0,0,0,0,0,0,0,-1,1028,379,10.2664,29.7741
-189,645,5.88062,-28.2191,0,0,0,0,0,0,0,-1,1035,379,5.88062,28.2191
-182,645,6.34167,-29.2525,0,0,0,0,0,0,0,-1,1042,379,6.3417,29.2525
-175,645,6.36462,-35.5586,0,0,0,0,0,0,0,-1,1049,379,6.3646,35.5586
-168,645,7.19116,-39.5785,0,0,0,0,0,0,0,-1,1056,379,7.19115,39.5785
-161,645,7.22083,-37.6093,0,0,0,0,0,0,0,-1,1063,379,7.22085,37.6094
-154,645,7.42102,-41.6806,0,0,0,0,0,0,0,-1,1070,379,7.42105,41.6806
-147,645,8.76526,-50.338,0,0,0,0,0,0,0,-1,1077,379,8.76528,50.3379
-140,645,8.29285,-50.692,0,0,0,0,0,0,0,-1,1084,379,8.29281,50.692
-133,645,8.31311,-51.5271,0,0,0,0,0,0,0,-1,1091,379,8.31305,51.5271
-126,645,8.31714,-52.0697,0,0,0,0,0,0,0,-1,1098,379,8.31719,52.0697
-119,645,8.14856,-52.5715,0,0,0,0,0,0,0,-1,1105,379,8.1485,52.5715
-112,645,8.04956,-53.1918,0,0,0,0,0,0,0,-1,1112,379,8.04957,53.1918
-105,645,8.01782,-53.8481,0,0,0,0,0,0,0,-1,1119,379,8.01781,53.8481
-98,645,7.94678,-54.3624,0,0,0,0,0,0,0,-1,1126,379,7.94681,54.3624
-91,645,7.84961,-54.8778,0,0,0,0,0,0,0,-1,1133,379,7.84959,54.8778
-84,645,7.77319,-55.3404,0,0,0,0,0,0,0,-1,1140,379,7.7732,55.3404
-77,645,7.82813,-55.7538,-0.00705279,0.00489346,-0.00195509,0.00520529,-0.00736462,-1.41263,0.00729284,0.0436946,1147,379,7.8281,55.7538
-70,645,7.72839,-56.1631,-0.0071801,0.00574596,-0.00180033,0.00599202,-0.00742617,-1.43496,0.00776173,0.0152409,1154,379,7.72834,56.1632
-63,645,7.69043,-56.5466,-0.0064918,0.00657932,-0.00155793,0.00676244,-0.00667492,-1.45379,0.00775812,0.0115864,1161,379,7.69046,56.5466
-56,645,7.64551,-56.8967,-0.00581584,0.00765278,-0.000797345,0.00769981,-0.00586288,-1.51187,0.00785433,0.0140989,1168,379,7.64545,56.8967
-49,645,7.5946,-57.2816,-0.00516854,0.00891607,-8.86389e-05,0.00891663,-0.00516909,-1.5645,0.00822778,0.0123759,1175,379,7.59459,57.2816
-42,645,7.52979,-57.6333,-0.004682,0.00938052,0.000245131,0.00938479,-0.00468627,1.55337,0.00827352,0.0116219,1182,379,7.52973,57.6333
-35,645,7.48389,-57.9837,-0.0043236,0.010257,0.000587368,0.0102806,-0.00434722,1.5306,0.00867388,0.0113753,1189,379,7.48388,57.9837
-28,645,7.4281,-58.3241,-0.00393283,0.0108887,0.000804337,0.0109322,-0.00397635,1.51674,0.0089143,0.00982338,1196,379,7.42807,58.3241
-21,645,7.37122,-58.5924,-0.00352226,0.0116494,0.000930716,0.0117063,-0.00357914,1.50976,0.00923149,0.0113664,1203,379,7.37124,58.5924
-14,645,7.3573,-58.8534,-0.00336271,0.0124271,0.00105901,0.0124978,-0.00343342,1.50412,0.00968146,0.0108083,1210,379,7.35729,58.8534
-7,645,7.34033,-59.1117,-0.00321361,0.0133287,0.00117441,0.0134117,-0.00329657,1.50027,0.0102188,0.0145906,1217,379,7.34031,59.1117
0,645,7.31128,-59.2919,-0.00296216,0.014117,0.00117729,0.0141978,-0.00304293,1.5023,0.0106257,0.0263936,1224,379,7.31134,59.2919
7,645,7.24915,-59.4835,-0.00278512,0.0149491,0.00107474,0.015014,-0.00285002,1.51049,0.0110822,0.017555,1231,379,7.24909,59.4835
14,645,7.22253,-59.6349,-0.00259974,0.0157284,0.0010603,0.0157895,-0.00266087,1.5132,0.0115162,0.0175499,1238,379,7.22258,59.6349
21,645,7.20215,-59.7956,-0.00234816,0.0164503,0.00113646,0.0165187,-0.00241662,1.51063,0.0119001,0.012669,1245,379,7.2021,59.7956
28,645,7.19653,-59.9325,-0.00212388,0.0171082,0.00131757,0.017198,-0.00221373,1.50271,0.01227,0.0106488,1252,379,7.19649,59.9325
35,645,7.16565,-60.0426,-0.00217765,0.0175101,0.00133833,0.0176007,-0.00226821,1.50323,0.0125583,0.00933532,1259,379,7.16566,60.0426
42,645,7.14478,-60.1414,-0.00223886,0.0179291,0.00145267,0.0180332,-0.00234296,1.49926,0.0128744,0.00959548,1266,379,7.1448,60.1414
49,645,7.17444,-60.1716,-0.00286803,0.0182338,0.00152654,0.0183436,-0.00297789,1.49895,0.013333,0.0135007,1273,379,7.17444,60.1716
56,645,7.17041,-60.182,-0.00358289,0.0181064,0.00150185,0.0182099,-0.00368639,1.50199,0.0135371,0.0138767,1280,379,7.17039,60.182
63,645,7.12268,-60.2292,-0.00414452,0.0179284,0.00161263,0.0180456,-0.00426171,1.49825,0.0136742,0.013164,1287,379,7.12269,60.2292
70,645,7.05371,-60.2187,-0.00488666,0.0175678,0.00167019,0.0176913,-0.00501021,1.49696,0.0137715,0.0168013,1294,379,7.05366,60.2187
77,645,7.04346,-60.1991,-0.00581929,0.0173103,0.00171585,0.0174369,-0.00594589,1.49715,0.014033,0.0196494,1301,379,7.0435,60.1991
84,645,7.03027,-60.1502,-0.00688746,0.0165324,0.0013141,0.0166059,-0.00696096,1.51492,0.013981,0.0149588,1308,379,7.03021,60.1502
91,645,6.95752,-60.119,-0.0078653,0.0153218,0.000610709,0.0153379,-0.00788138,1.54448,0.0136341,0.0175976,1315,379,6.95751,60.119
98,645,6.94263,-59.9972,-0.00861233,0.0146388,0.000116197,0.0146393,-0.00861291,1.5658,0.0135742,0.0150048,1322,379,6.9426,59.9972
105,645,6.92834,-59.8289,-0.00912209,0.0141963,-0.000321337,0.0142008,-0.00912652,-1.55702,0.0135738,0.0110214,1329,379,6.9283,59.8288
112,645,6.89856,-59.6705,-0.00927237,0.0137964,-0.00073412,0.0138197,-0.00929571,-1.53902,0.0134306,0.00921492,1336,379,6.89856,59.6705
119,645,6.89124,-59.488,-0.00920233,0.0133103,-0.00130948,0.0133862,-0.00927825,-1.51289,0.0131568,0.00906725,1343,379,6.89124,59.488
126,645,6.84619,-59.264,-0.00892088,0.0130239,-0.00187888,0.0131836,-0.00908058,-1.486,0.0129268,0.0123346,1350,379,6.84619,59.2641
133,645,6.82312,-59.0348,-0.00826835,0.0129482,-0.00230847,0.0131965,-0.00851662,-1.46366,0.0126328,0.0130838,1357,379,6.82318,59.0348
140,645,6.79663,-58.8131,-0.00726558,0.0132132,-0.00222285,0.0134517,-0.00750408,-1.46391,0.0122602,0.0120573,1364,379,6.79659,58.8131
147,645,6.74719,-58.5486,-0.00658979,0.0138521,-0.00201369,0.0140485,-0.00678627,-1.47353,0.0122701,0.0142267,1371,379,6.74714,58.5485
154,645,6.71765,-58.2667,-0.00545592,0.0142166,-0.00174613,0.0143704,-0.00560971,-1.48295,0.0118994,0.0132516,1378,379,6.71768,58.2667
161,645,6.68396,-57.9307,-0.00477027,0.014923,-0.00109762,0.014984,-0.00483126,-1.51529,0.0119304,0.0155162,1385,379,6.68396,57.9307
168,645,6.64319,-57.5851,-0.0049369,0.0154037,-0.000423933,0.0154125,-0.00494573,-1.54997,0.0122607,0.0182324,1392,379,6.64313,57.5851
175,645,6.63611,-57.2373,-0.00514174,0.0156197,0.000331154,0.015625,-0.00514702,1.55485,0.012491,0.0154636,1399,379,6.63608,57.2373
182,645,6.56177,-56.8647,-0.00536352,0.0157887,0.00116028,0.0158522,-0.00542697,1.51616,0.0127676,0.0109927,1406,379,6.56179,56.8647
189,645,6.51648,-56.4335,-0.00511165,0.0160248,0.00271116,0.016367,-0.00545387,1.44523,0.013113,0.012349,1413,379,6.51646,56.4335
196,645,6.44885,-56.0297,-0.00465633,0.0163803,0.00455538,0.0173244,-0.00560041,1.36644,0.0138005,0.0128369,1420,379,6.44882,56.0297
203,645,6.36365,-55.5767,-0.00504979,0.0150512,0.00503111,0.0162401,-0.00623871,1.33874,0.0133995,0.0122117,1427,379,6.36362,55.5767
210,645,6.35046,-55.0392,-0.00547168,0.0134125,0.0053609,0.0148282,-0.00688741,1.31261,0.0128139,0.0217886,1434,379,6.35049,55.0392
217,645,6.34509,-54.5099,0,0,0,0,0,0,0,-1,1441,379,6.34513,54.5099
224,645,6.23376,-54.1537,0,0,0,0,0,0,0,-1,1448,379,6.23382,54.1537
231,645,6.11377,-53.6002,0,0,0,0,0,0,0,-1,1455,379,6.11375,53.6002
238,645,6.00085,-53.0704,0,0,0,0,0,0,0,-1,1462,379,6.00081,53.0704
245,645,6.02026,-52.3715,0,0,0,0,0,0,0,-1,1469,379,6.02023,52.3715
252,645,6.0564,-51.6996,0,0,0,0,0,0,0,-1,1476,379,6.05634,51.6996
259,645,5.90723,-51.2798,0,0,0,0,0,0,0,-1,1483,379,5.90728,51.2798
266,645,5.7406,-50.5614,-0.0028894,0.0270173,0.00749576,0.0287908,-0.00466295,1.33846,0.0209221,0.0476852,1490,379,5.7406,50.5614
273,645,5.69751,-50.1317,-0.00176879,0.0295451,0.00869987,0.0317998,-0.00402351,1.31721,0.0226604,0.0342674,1497,379,5.69756,50.1317
280,645,5.81421,-49.6656,0,0,0,0,0,0,0,-1,1504,379,5.81426,49.6656
287,645,5.25439,-22.6157,0,0,0,0,0,0,0,-1,1511,379,5.25445,22.6157
294,645,3.76428,-22.9539,0,0,0,0,0,0,0,-1,1518,379,3.7643,22.9539
301,645,1.35217,-22.1208,0,0,0,0,0,0,0,-1,1525,379,1.3522,22.1208
308,645,-0.529297,-21.7611,0,0,0,0,0,0,0,-1,1532,379,-0.529316,21.7611
315,645,5.62427,-45.4924,0,0,0,0,0,0,0,-1,1539,379,5.62432,45.4924
322,645,5.8894,-44.4522,0,0,0,0,0,0,0,-1,1546,379,5.88945,44.4522
329,645,-4.45581,-22.707,0,0,0,0,0,0,0,-1,1553,379,-4.45579,22.707
336,645,-5.83154,-22.8404,0,0,0,0,0,0,0,-1,1560,379,-5.83149,22.8404
343,645,4.03186,-38.0623,0,0,0,0,0,0,0,-1,1567,379,4.03187,38.0623
350,645,4.76404,-22.1987,0,0,0,0,0,0,0,-1,1574,379,4.76399,22.1987
357,645,4.61316,-21.967,0,0,0,0,0,0,0,-1,1581,379,4.61316,21.967
364,645,-0.0794678,-3.22021,0,0,0,0,0,0,0,-1,1588,379,-0.0794987,3.22021
371,645,0,0,0,0,0,0,0,0,0,-1,1595,379,0,0
378,645,0,0,0,0,0,0,0,0,0,-1,1602,379,0,0
385,645,0,0,0,0,0,0,0,0,0,-1,1609,379,0,0
392,645,0,0,0,0,0,0,0,0,0,-1,1616,379,0,0
399,645,0,0,0,0,0,0,0,0,0,-1,1623,379,0,0
406,645,0,0,0,0,0,0,0,0,0,-1,1630,379,0,0
413,645,0,0,0,0,0,0,0,0,0,-1,1637,379,0,0
420,645,0,0,0,0,0,0,0,0,0,-1,1644,379,0,0
427,645,0,0,0,0,0,0,0,0,0,-1,1651,379,0,0
434,645,0,0,0,0,0,0,0,0,0,-1,1658,379,0,0
441,645,0,0,0,0,0,0,0,0,0,-1,1665,379,0,0
448,645,0,0,0,0,0,0,0,0,0,-1,1672,379,0,0
455,645,0,0,0,0,0,0,0,0,0,-1,1679,379,0,0
462,645,0,0,0,0,0,0,0,0,0,-1,1686,379,0,0
469,645,0,0,0,0,0,0,0,0,0,-1,1693,379,0,0
476,645,0,0,0,0,0,0,0,0,0,-1,1700,379,0,0
483,645,0,0,0,0,0,0,0,0,0,-1,1707,379,0,0
490,645,0,0,0,0,0,0,0,0,0,-1,1714,379,0,0
497,645,0,0,0,0,0,0,0,0,0,-1,1721,379,0,0
504,645,0,0,0,0,0,0,0,0,0,-1,1728,379,0,0
511,645,0,0,0,0,0,0,0,0,0,-1,1735,379,0,0
518,645,0,0,0,0,0,0,0,0,0,-1,1742,379,0,0
525,645,0,0,0,0,0,0,0,0,0,-1,1749,379,0,0
532,645,0,0,0,0,0,0,0,0,0,-1,1756,379,0,0
539,645,0,0,0,0,0,0,0,0,0,-1,1763,379,0,0
546,645,0,0,0,0,0,0,0,0,0,-1,1770,379,0,0
553,645,0,0,0,0,0,0,0,0,0,-1,1777,379,0,0
560,645,0,0,0,0,0,0,0,0,0,-1,1784,379,0,0
567,645,0,0,0,0,0,0,0,0,0,-1,1791,379,0,0
574,645,0,0,0,0,0,0,0,0,0,-1,1798,379,0,0
581,645,0,0,0,0,0,0,0,0,0,-1,1805,379,0,0
588,645,0,0,0,0,0,0,0,0,0,-1,1812,379,0,0
595,645,0,0,0,0,0,0,0,0,0,-1,1819,379,0,0
602,645,0,0,0,0,0,0,0,0,0,-1,1826,379,0,0
609,645,0,0,0,0,0,0,0,0,0,-1,1833,379,0,0
616,645,0,0,0,0,0,0,0,0,0,-1,1840,379,0,0
623,645,0,0,0,0,0,0,0,0,0,-1,1847,379,0,0
630,645,0,0,0,0,0,0,0,0,0,-1,1854,379,0,0
637,645,0,0,0,0,0,0,0,0,0,-1,1861,379,0,0
644,645,0,0,0,0,0,0,0,0,0,-1,1868,379,0,0
651,645,0,0,0,0,0,0,0,0,0,-1,1875,379,0,0
658,645,0,0,0,0,0,0,0,0,0,-1,1882,379,0,0
665,645,0,0,0,0,0,0,0,0,0,-1,1889,379,0,0
672,645,0,0,0,0,0,0,0,0,0,-1,1896,379,0,0
679,645,0,0,0,0,0,0,0,0,0,-1,1903,379,0,0
686,645,0,0,0,0,0,0,0,0,0,-1,1910,379,0,0
693,645,0,0,0,0,0,0,0,0,0,-1,1917,379,0,0
700,645,0,0,0,0,0,0,0,0,0,-1,1924,379,0,0
707,645,0,0,0,0,0,0,0,0,0,-1,1931,379,0,0
714,645,0,0,0,0,0,0,0,0,0,-1,1938,379,0,0
721,645,0,0,0,0,0,0,0,0,0,-1,1945,379,0,0
728,645,0,0,0,0,0,0,0,0,0,-1,1952,379,0,0
735,645,0,0,0,0,0,0,0,0,0,-1,1959,379,0,0
742,645,0,0,0,0,0,0,0,0,0,-1,1966,379,0,0
749,645,0,0,0,0,0,0,0,0,0,-1,1973,379,0,0
756,645,0,0,0,0,0,0,0,0,0,-1,1980,379,0,0
763,645,0,0,0,0,0,0,0,0,0,-1,1987,379,0,0
770,645,0,0,0,0,0,0,0,0,0,-1,1994,379,0,0
777,645,0,0,0,0,0,0,0,0,0,-1,2001,379,0,0
784,645,0,0,0,0,0,0,0,0,0,-1,2008,379,0,0
791,645,0,0,0,0,0,0,0,0,0,-1,2015,379,0,0
798,645,0,0,0,0,0,0,0,0,0,-1,2022,379,0,0
805,645,0,0,0,0,0,0,0,0,0,-1,2029,379,0,0
812,645,0,0,0,0,0,0,0,0,0,-1,2036,379,0,0
-700,638,0,0,0,0,0,0,0,0,0,-1,524,386,0,0
-693,638,0,0,0,0,0,0,0,0,0,-1,531,386,0,0
-686,638,0,0,0,0,0,0,0,0,0,-1,538,386,0,0
-679,638,0,0,0,0,0,0,0,0,0,-1,545,386,0,0
-672,638,0,0,0,0,0,0,0,0,0,-1,552,386,0,0
-665,638,0,0,0,0,0,0,0,0,0,-1,559,386,0,0
-658,638,0,0,0,0,0,0,0,0,0,-1,566,386,0,0
-651,638,0,0,0,0,0,0,0,0,0,-1,573,386,0,0
-644,638,0,0,0,0,0,0,0,0,0,-1,580,386,0,0
-637,638,0,0,0,0,0,0,0,0,0,-1,587,386,0,0
-630,638,0,0,0,0,0,0,0,0,0,-1,594,386,0,0
-623,638,0,0,0,0,0,0,0,0,0,-1,601,386,0,0
-616,638,0,0,0,0,0,0,0,0,0,-1,608,386,0,0
-609,638,0,0,0,0,0,0,0,0,0,-1,615,386,0,0
-602,638,0,0,0,0,0,0,0,0,0,-1,622,386,0,0
-595,638,0,0,0,0,0,0,0,0,0,-1,629,386,0,0
-588,638,0,0,0,0,0,0,0,0,0,-1,636,386,0,0
-581,638,0,0,0,0,0,0,0,0,0,-1,643,386,0,0
-574,638,0,0,0,0,0,0,0,0,0,-1,650,386,0,0
-567,638,0,0,0,0,0,0,0,0,0,-1,657,386,0,0
-560,638,0,0,0,0,0,0,0,0,0,-1,664,386,0,0
-553,638,0,0,0,0,0,0,0,0,0,-1,671,386,0,0
-546,638,0,0,0,0,0,0,0,0,0,-1,678,386,0,0
-539,638,0,0,0,0,0,0,0,0,0,-1,685,386,0,0
-532,638,0,0,0,0,0,0,0,0,0,-1,692,386,0,0
-525,638,0,0,0,0,0,0,0,0,0,-1,699,386,0,0
-518,638,0,0,0,0,0,0,0,0,0,-1,706,386,0,0
-511,638,0,0,0,0,0,0,0,0,0,-1,713,386,0,0
-504,638,0,0,0,0,0,0,0,0,0,-1,720,386,0,0
-497,638,0,0,0,0,0,0,0,0,0,-1,727,386,0,0
-490,638,0,0,0,0,0,0,0,0,0,-1,734,386,0,0
-483,638,0,0,0,0,0,0,0,0,0,-1,741,386,0,0
-476,638,0,0,0,0,0,0,0,0,0,-1,748,386,0,0
-469,638,0,0,0,0,0,0,0,0,0,-1,755,386,0,0
-462,638,0,0,0,0,0,0,0,0,0,-1,762,386,0,0
-455,638,0,0,0,0,0,0,0,0,0,-1,769,386,0,0
-448,638,0,0,0,0,0,0,0,0,0,-1,776,386,0,0
-441,638,0,0,0,0,0,0,0,0,0,-1,783,386,0,0
-434,638,0,0,0,0,0,0,0,0,0,-1,790,386,0,0
-427,638,0,0,0,0,0,0,0,0,0,-1,797,386,0,0
-420,638,0,0,0,0,0,0,0,0,0,-1,804,386,0,0
-413,638,0,0,0,0,0,0,0,0,0,-1,811,386,0,0
-406,638,0,0,0,0,0,0,0,0,0,-1,818,386,0,0
-399,638,0,0,0,0,0,0,0,0,0,-1,825,386,0,0
-392,638,0,0,0,0,0,0,0,0,0,-1,832,386,0,0
-385,638,0,0,0,0,0,0,0,0,0,-1,839,386,0,0
-378,638,0,0,0,0,0,0,0,0,0,-1,846,386,0,0
-371,638,0,0,0,0,0,0,0,0,0,-1,853,386,0,0
-364,638,0,0,0,0,0,0,0,0,0,-1,860,386,0,0
-357,638,0,0,0,0,0,0,0,0,0,-1,867,386,0,0
-350,638,0,0,0,0,0,0,0,0,0,-1,874,386,0,0
-343,638,0,0,0,0,0,0,0,0,0,-1,881,386,0,0
-336,638,0,0,0,0,0,0,0,0,0,-1,888,386,0,0
-329,638,0,0,0,0,0,0,0,0,0,-1,895,386,0,0
-322,638,0,0,0,0,0,0,0,0,0,-1,902,386,0,0
-315,638,0,0,0,0,0,0,0,0,0,-1,909,386,0,0
-308,638,0,0,0,0,0,0,0,0,0,-1,916,386,0,0
-301,638,0,0,0,0,0,0,0,0,0,-1,923,386,0,0
-294,638,0,0,0,0,0,0,0,0,0,-1,930,386,0,0
-287,638,0,0,0,0,0,0,0,0,0,-1,937,386,0,0
-280,638,0,0,0,0,0,0,0,0,0,-1,944,386,0,0
-273,638,0,0,0,0,0,0,0,0,0,-1,951,386,0,0
-266,638,10.1613,-36.3326,0,0,0,0,0,0,0,-1,958,386,10.1612,36.3326
-259,638,9.95282,-34.6103,0,0,0,0,0,0,0,-1,965,386,9.9528,34.6103
-252,638,9.95746,-33.6964,0,0,0,0,0,0,0,-1,972,386,9.95744,33.6965
-245,638,9.84143,-32.9009,0,0,0,0,0,0,0,-1,979,386,9.84145,32.9009
-238,638,2.93518,-26.3649,0,0,0,0,0,0,0,-1,986,386,2.93516,26.3649
-231,638,2.36829,-26.0088,0,0,0,0,0,0,0,-1,993,386,2.3683,26.0088
-224,638,6.3465,-30.9124,0,0,0,0,0,0,0,-1,1000,386,6.34648,30.9124
-217,638,7.41205,-32.7263,0,0,0,0,0,0,0,-1,1007,386,7.41204,32.7262
-210,638,8.7038,-34.5688,0,0,0,0,0,0,0,-1,1014,386,8.70378,34.5689
-203,638,4.32593,-27.5803,0,0,0,0,0,0,0,-1,1021,386,4.32594,27.5803
-196,638,6.0614,-28.4651,0,0,0,0,0,0,0,-1,1028,386,6.06143,28.4651
-189,638,11.4561,-30.1556,0,0,0,0,0,0,0,-1,1035,386,11.456,30.1556
-182,638,6.45471,-33.4271,0,0,0,0,0,0,0,-1,1042,386,6.45473,33.427
-175,638,7.91394,-47.8045,0,0,0,0,0,0,0,-1,1049,386,7.91391,47.8045
-168,638,8.06604,-48.9371,0,0,0,0,0,0,0,-1,1056,386,8.06601,48.9371
-161,638,8.10144,-49.5966,0,0,0,0,0,0,0,-1,1063,386,8.10146,49.5966
-154,638,7.95093,-49.7555,0,0,0,0,0,0,0,-1,1070,386,7.9509,49.7555
-147,638,8.00879,-50.1752,0,0,0,0,0,0,0,-1,1077,386,8.0088,50.1752
-140,638,7.88855,-50.8942,-0.00431484,0.0165761,-0.009876,0.0205057,-0.00824446,-1.19211,0.0170947,0.0417604,1084,386,7.88852,50.8942
-133,638,7.80054,-51.719,-0.0047714,0.0144364,-0.0085662,0.0177017,-0.00803663,-1.20662,0.0152052,0.034849,1091,386,7.80057,51.719
-126,638,7.73584,-52.2568,-0.00525582,0.0121528,-0.0071367,0.0147045,-0.0078075,-1.22742,0.0131991,0.023535,1098,386,7.73581,52.2568
-119,638,7.6571,-52.8235,-0.00568354,0.00998694,-0.00571623,0.0118505,-0.00754708,-1.25565,0.0112907,0.0229967,1105,386,7.65714,52.8235
-112,638,7.61377,-53.3702,-0.00568083,0.00844083,-0.0047042,0.00986438,-0.00710438,-1.27694,0.00984003,0.0207693,1112,386,7.61373,53.3702
-105,638,7.5719,-53.8899,-0.00548303,0.00718674,-0.00398431,0.00833553,-0.00663182,-1.29008,0.00866005,0.01848,1119,386,7.57195,53.8899
-98,638,7.51404,-54.3935,-0.00533347,0.00604951,-0.00327745,0.00692572,-0.00620968,-1.30956,0.00758748,0.0166525,1126,386,7.51409,54.3935
-91,638,7.45496,-54.8776,-0.00514239,0.00518547,-0.00268711,0.00584277,-0.00579969,-1.33089,0.0067218,0.0130149,1133,386,7.45501,54.8776
-84,638,7.38965,-55.3332,-0.00484058,0.00392864,-0.00204556,0.00438233,-0.00529427,-1.35254,0.00559505,0.0144855,1140,386,7.38964,55.3332
-77,638,7.33728,-55.7677,-0.0045964,0.00381559,-0.00167224,0.00413583,-0.00491664,-1.38159,0.00523292,0.0126947,1147,386,7.33729,55.7677
-70,638,7.29956,-56.1813,-0.00453488,0.0042204,-0.00148648,0.00446589,-0.00478037,-1.40712,0.00533936,0.0133532,1154,386,7.29959,56.1813
-63,638,7.28064,-56.5739,-0.00401096,0.00464849,-0.00126608,0.0048298,-0.00419228,-1.42855,0.00521323,0.012905,1161,386,7.28068,56.574
-56,638,7.27588,-56.9394,-0.00341463,0.00506007,-0.000965103,0.00516858,-0.00352314,-1.45883,0.00504806,0.0159317,1168,386,7.27586,56.9394
-49,638,7.2373,-57.3168,-0.00286566,0.00547678,-0.000612096,0.00552145,-0.00291033,-1.49794,0.00494528,0.0143481,1175,386,7.23736,57.3168
-42,638,7.20862,-57.6811,-0.0024,0.00558621,-0.000374945,0.00560377,-0.00241756,-1.52398,0.00475134,0.0129063,1182,386,7.2086,57.6811
-35,638,7.18799,-58.0143,-0.00200515,0.00596768,-0.000131835,0.00596986,-0.00200733,-1.55427,0.00479129,0.0118184,1189,386,7.18801,58.0143
-28,638,7.16724,-58.3341,-0.0016073,0.00610875,2.20721e-05,0.00610881,-0.00160737,1.56794,0.00470084,0.0116298,1196,386,7.16725,58.3341
-21,638,7.10925,-58.6029,-0.00121395,0.00616852,0.000113772,0.00617027,-0.00121571,1.55539,0.00457294,0.0125573,1203,386,7.1093,58.6029
-14,638,7.08484,-58.8837,-0.000908169,0.00621842,0.000189854,0.00622347,-0.000913223,1.54418,0.00448449,0.0122569,1210,386,7.08483,58.8837
-7,638,7.10583,-59.165,-0.000696947,0.0062272,0.000213527,0.00623378,-0.000703525,1.54,0.00440911,0.0186266,1217,386,7.10578,59.165
0,638,7.13293,-59.3354,-0.000493213,0.00627991,0.000236259,0.00628814,-0.000501444,1.53597,0.00436884,0.0350769,1224,386,7.13292,59.3354
7,638,7.07178,-59.5088,-0.000313414,0.00641177,0.000236828,0.0064201,-0.000321744,1.53564,0.00439124,0.0267616,1231,386,7.07173,59.5088
14,638,7.03455,-59.6913,-0.00018147,0.00655807,0.000298564,0.00657127,-0.00019467,1.52661,0.00444716,0.0143524,1238,386,7.0345,59.6913
21,638,7.05859,-59.842,1.2698e-05,0.00675573,0.000432775,0.00678339,-1.49645e-05,1.50696,0.00452726,0.0126916,1245,386,7.05858,59.842
28,638,7.06873,-59.9622,0.000210205,0.00696165,0.000648183,0.00702331,0.000148538,1.47594,0.00463349,0.0101197,1252,386,7.06872,59.9622
35,638,7.06775,-60.0593,0.000209547,0.00711718,0.000749822,0.00719764,0.000129092,1.46391,0.00475598,0.0115084,1259,386,7.06773,60.0593
42,638,7.08936,-60.1699,0.000170715,0.00739003,0.000912957,0.00750369,5.70519e-05,1.44693,0.00498355,0.0109609,1266,386,7.08935,60.1699
49,638,7.12598,-60.2015,-1.18731e-05,0.00765805,0.00106941,0.00780436,-0.000158189,1.43482,0.00525643,0.00965974,1273,386,7.12602,60.2015
56,638,7.10181,-60.2282,-0.000206512,0.00778826,0.00114302,0.00794847,-0.00036672,1.43154,0.00542535,0.0122293,1280,386,7.10185,60.2282
63,638,7.07251,-60.249,-0.000329392,0.00793765,0.00121597,0.00811279,-0.000504534,1.42775,0.00558431,0.0142885,1287,386,7.07249,60.249
70,638,7.07288,-60.2559,-0.000536432,0.00794292,0.00122984,0.00811769,-0.000711204,1.42963,0.00566376,0.0194117,1294,386,7.07291,60.2559
77,638,7.09436,-60.2088,-0.000808182,0.00811301,0.00123242,0.00828014,-0.000975305,1.43601,0.00587225,0.0191879,1301,386,7.09435,60.2088
84,638,7.1239,-60.1512,-0.00113179,0.00794924,0.00101048,0.00806032,-0.00124287,1.46131,0.00583215,0.014368,1308,386,7.12386,60.1511
91,638,7.09216,-60.0747,-0.00156846,0.00740676,0.000638305,0.00745193,-0.00161363,1.50015,0.00558409,0.0164131,1315,386,7.09222,60.0747
98,638,7.06519,-59.9503,-0.00189006,0.0071743,0.000394686,0.00719145,-0.00190721,1.52736,0.00554056,0.0142461,1322,386,7.06513,59.9504
105,638,7.05627,-59.8428,-0.00208972,0.00694713,0.000151728,0.00694968,-0.00209226,1.55401,0.0054657,0.010763,1329,386,7.05628,59.8428
112,638,7.05591,-59.7032,-0.00217576,0.0067862,-6.56159e-05,0.00678668,-0.00217624,-1.56348,0.00539813,0.00993546,1336,386,7.05589,59.7032
119,638,7.0802,-59.5317,-0.00216493,0.00662442,-0.000340395,0.00663758,-0.00217809,-1.53215,0.00530236,0.0121339,1343,386,7.08022,59.5317
126,638,7.08472,-59.3173,-0.00215578,0.00665817,-0.000625257,0.0067023,-0.00219991,-1.50033,0.00535433,0.0162921,1350,386,7.08471,59.3173
133,638,7.06152,-59.083,-0.00201968,0.00689691,-0.000822025,0.00697206,-0.00209483,-1.47963,0.00548141,0.0170343,1357,386,7.0615,59.083
140,638,7.01746,-58.8646,-0.00165905,0.00737627,-0.000653013,0.00742322,-0.001706,-1.49902,0.00560471,0.0173857,1364,386,7.01743,58.8646
147,638,6.99341,-58.5991,-0.00154333,0.00804462,-0.000467444,0.00806736,-0.00156607,-1.5222,0.00596914,0.0191344,1371,386,6.99338,58.5991
154,638,6.99829,-58.2914,-0.00135887,0.0086605,-0.000267625,0.00866765,-0.00136602,-1.54411,0.00628346,0.0171567,1378,386,6.99828,58.2913
161,638,6.98901,-57.9362,-0.00132051,0.00941663,0.000138108,0.00941841,-0.00132229,1.55794,0.00676293,0.0197714,1385,386,6.98902,57.9363
168,638,7.00366,-57.5637,-0.00165222,0.00998748,0.000581423,0.0100164,-0.0016812,1.52101,0.00730282,0.0249043,1392,386,7.00361,57.5636
175,638,7.01318,-57.2354,-0.0020357,0.0104248,0.00106093,0.0105145,-0.00212539,1.48646,0.00781507,0.0195947,1399,386,7.01315,57.2354
182,638,6.91577,-56.883,-0.00246282,0.0107641,0.00153714,0.0109404,-0.00263911,1.45661,0.00831409,0.0127996,1406,386,6.91578,56.883
189,638,6.88672,-56.4848,-0.00271211,0.0110494,0.00233322,0.0114343,-0.00309694,1.40733,0.00883792,0.0122288,1413,386,6.88671,56.4848
196,638,6.83972,-56.046,-0.00280373,0.0113268,0.00325066,0.0120387,-0.00351566,1.35519,0.00941899,0.0146292,1420,386,6.83974,56.046
203,638,6.77942,-55.6294,-0.00319251,0.0108633,0.00368315,0.0117699,-0.00409915,1.32944,0.00951211,0.0200668,1427,386,6.77937,55.6294
210,638,6.7417,-55.2398,-0.00360309,0.0101466,0.00402822,0.0112398,-0.00469631,1.30579,0.00945573,0.017851,1434,386,6.74167,55.2398
217,638,6.7207,-54.7377,-0.00373611,0.0107411,0.00414535,0.0118441,-0.00483905,1.31075,0.00991098,0.0148165,1441,386,6.7207,54.7377
224,638,6.67188,-54.1877,-0.00375724,0.011914,0.00423163,0.0129837,-0.00482688,1.32321,0.0106363,0.0122017,1448,386,6.67187,54.1877
231,638,6.57056,-53.6619,-0.00364895,0.0129966,0.00450772,0.014139,-0.00479127,1.32261,0.0113649,0.0127569,1455,386,6.57053,53.6619
238,638,6.50415,-53.1544,-0.00365727,0.0142513,0.00469313,0.0154067,-0.00481262,1.32942,0.0121961,0.0159717,1462,386,6.50415,53.1544
245,638,6.49475,-52.5551,-0.00379808,0.0156819,0.00485152,0.0168233,-0.00493948,1.33973,0.0131744,0.0265356,1469,386,6.49481,52.555
252,638,6.56372,-51.9173,-0.0035449,0.017279,0.00511325,0.0184668,-0.00473269,1.34255,0.014155,0.0460657,1476,386,6.5637,51.9173
259,638,6.43542,-51.5314,-0.00275709,0.0194999,0.0059884,0.0210088,-0.00426602,1.32396,0.0156232,0.0378888,1483,386,6.4354,51.5314
266,638,6.25916,-50.9004,-0.00229289,0.0211663,0.0066821,0.0229361,-0.0040627,1.31188,0.0168094,0.016689,1490,386,6.25913,50.9004
273,638,6.22388,-50.327,-0.00157845,0.0231434,0.0077164,0.0253542,-0.00378926,1.29176,0.0182971,0.0124228,1497,386,6.22389,50.327
280,638,6.26807,-49.6697,-0.00048629,0.0252784,0.00901769,0.028121,-0.00332888,1.26543,0.0199498,0.0249966,1504,386,6.26811,49.6697
287,638,6.33496,-48.893,0,0,0,0,0,0,0,-1,1511,386,6.33502,48.893
294,638,6.09448,-48.124,0,0,0,0,0,0,0,-1,1518,386,6.09453,48.124
301,638,5.8092,-47.4148,0,0,0,0,0,0,0,-1,1525,386,5.80918,47.4148
308,638,6.45447,-46.1321,0,0,0,0,0,0,0,-1,1532,386,6.45444,46.1321
315,638,6.39209,-45.6606,0,0,0,0,0,0,0,-1,1539,386,6.39211,45.6606
322,638,6.1698,-44.6835,0,0,0,0,0,0,0,-1,1546,386,6.16984,44.6835
329,638,6.06885,-44.2856,0,0,0,0,0,0,0,-1,1553,386,6.06881,44.2855
336,638,5.15234,-38.1966,0,0,0,0,0,0,0,-1,1560,386,5.15238,38.1966
343,638,4.8208,-37.2159,0,0,0,0,0,0,0,-1,1567,386,4.82078,37.2159
350,638,4.35254,-37.1565,0,0,0,0,0,0,0,-1,1574,386,4.35259,37.1565
357,638,0.387329,-3.01077,0,0,0,0,0,0,0,-1,1581,386,0.387332,3.01077
364,638,3.78149,-6.45215,0,0,0,0,0,0,0,-1,1588,386,3.78155,6.45216
371,638,4.18604,-6.71164,0,0,0,0,0,0,0,-1,1595,386,4.18598,6.71164
378,638,4.59045,-6.97113,0,0,0,0,0,0,0,-1,1602,386,4.5904,6.97112
385,638,0,0,0,0,0,0,0,0,0,-1,1609,386,0,0
392,638,0,0,0,0,0,0,0,0,0,-1,1616,386,0,0
399,638,0,0,0,0,0,0,0,0,0,-1,1623,386,0,0
406,638,0,0,0,0,0,0,0,0,0,-1,1630,386,0,0
413,638,0,0,0,0,0,0,0,0,0,-1,1637,386,0,0
420,638,0,0,0,0,0,0,0,0,0,-1,1644,386,0,0
427,638,0,0,0,0,0,0,0,0,0,-1,1651,386,0,0
434,638,0,0,0,0,0,0,0,0,0,-1,1658,386,0,0
441,638,0,0,0,0,0,0,0,0,0,-1,1665,386,0,0
448,638,0,0,0,0,0,0,0,0,0,-1,1672,386,0,0
455,638,0,0,0,0,0,0,0,0,0,-1,1679,386,0,0
462,638,0,0,0,0,0,0,0,0,0,-1,1686,386,0,0
469,638,0,0,0,0,0,0,0,0,0,-1,1693,386,0,0
476,638,0,0,0,0,0,0,0,0,0,-1,1700,386,0,0
483,638,0,0,0,0,0,0,0,0,0,-1,1707,386,0,0
490,638,0,0,0,0,0,0,0,0,0,-1,1714,386,0,0
497,638,0,0,0,0,0,0,0,0,0,-1,1721,386,0,0
504,638,0,0,0,0,0,0,0,0,0,-1,1728,386,0,0
511,638,0,0,0,0,0,0,0,0,0,-1,1735,386,0,0
518,638,0,0,0,0,0,0,0,0,0,-1,1742,386,0,0
525,638,0,0,0,0,0,0,0,0,0,-1,1749,386,0,0
532,638,0,0,0,0,0,0,0,0,0,-1,1756,386,0,0
539,638,0,0,0,0,0,0,0,0,0,-1,1763,386,0,0
546,638,0,0,0,0,0,0,0,0,0,-1,1770,386,0,0
553,638,0,0,0,0,0,0,0,0,0,-1,1777,386,0,0
560,638,0,0,0,0,0,0,0,0,0,-1,1784,386,0,0
567,638,0,0,0,0,0,0,0,0,0,-1,1791,386,0,0
574,638,0,0,0,0,0,0,0,0,0,-1,1798,386,0,0
581,638,0,0,0,0,0,0,0,0,0,-1,1805,386,0,0
588,638,0,0,0,0,0,0,0,0,0,-1,1812,386,0,0
595,638,0,0,0,0,0,0,0,0,0,-1,1819,386,0,0
602,638,0,0,0,0,0,0,0,0,0,-1,1826,386,0,0
609,638,0,0,0,0,0,0,0,0,0,-1,1833,386,0,0
616,638,0,0,0,0,0,0,0,0,0,-1,1840,386,0,0
623,638,0,0,0,0,0,0,0,0,0,-1,1847,386,0,0
630,638,0,0,0,0,0,0,0,0,0,-1,1854,386,0,0
637,638,0,0,0,0,0,0,0,0,0,-1,1861,386,0,0
644,638,0,0,0,0,0,0,0,0,0,-1,1868,386,0,0
651,638,0,0,0,0,0,0,0,0,0,-1,1875,386,0,0
658,638,0,0,0,0,0,0,0,0,0,-1,1882,386,0,0
665,638,0,0,0,0,0,0,0,0,0,-1,1889,386,0,0
672,638,0,0,0,0,0,0,0,0,0,-1,1896,386,0,0
679,638,0,0,0,0,0,0,0,0,0,-1,1903,386,0,0
686,638,0,0,0,0,0,0,0,0,0,-1,1910,386,0,0
693,638,0,0,0,0,0,0,0,0,0,-1,1917,386,0,0
700,638,0,0,0,0,0,0,0,0,0,-1,1924,386,0,0
707,638,0,0,0,0,0,0,0,0,0,-1,1931,386,0,0
714,638,0,0,0,0,0,0,0,0,0,-1,1938,386,0,0
721,638,0,0,0,0,0,0,0,0,0,-1,1945,386,0,0
728,638,0,0,0,0,0,0,0,0,0,-1,1952,386,0,0
735,638,0,0,0,0,0,0,0,0,0,-1,1959,386,0,0
742,638,0,0,0,0,0,0,0,0,0,-1,1966,386,0,0
749,638,0,0,0,0,0,0,0,0,0,-1,1973,386,0,0
756,638,0,0,0,0,0,0,0,0,0,-1,1980,386,0,0
763,638,0,0,0,0,0,0,0,0,0,-1,1987,386,0,0
770,638,0,0,0,0,0,0,0,0,0,-1,1994,386,0,0
777,638,0,0,0,0,0,0,0,0,0,-1,2001,386,0,0
784,638,0,0,0,0,0,0,0,0,0,-1,2008,386,0,0
791,638,0,0,0,0,0,0,0,0,0,-1,2015,386,0,0
798,638,0,0,0,0,0,0,0,0,0,-1,2022,386,0,0
805,638,0,0,0,0,0,0,0,0,0,-1,2029,386,0,0
812,638,0,0,0,0,0,0,0,0,0,-1,2036,386,0,0
-700,631,0,0,0,0,0,0,0,0,0,-1,524,393,0,0
-693,631,0,0,0,0,0,0,0,0,0,-1,531,393,0,0
-686,631,0,0,0,0,0,0,0,0,0,-1,538,393,0,0
-679,631,0,0,0,0,0,0,0,0,0,-1,545,393,0,0
-672,631,0,0,0,0,0,0,0,0,0,-1,552,393,0,0
-665,631,0,0,0,0,0,0,0,0,0,-1,559,393,0,0
-658,631,0,0,0,0,0,0,0,0,0,-1,566,393,0,0
-651,631,0,0,0,0,0,0,0,0,0,-1,573,393,0,0
-644,631,0,0,0,0,0,0,0,0,0,-1,580,393,0,0
-637,631,0,0,0,0,0,0,0,0,0,-1,587,393,0,0
-630,631,0,0,0,0,0,0,0,0,0,-1,594,393,0,0
-623,631,0,0,0,0,0,0,0,0,0,-1,601,393,0,0
-616,631,0,0,0,0,0,0,0,0,0,-1,608,393,0,0
-609,631,0,0,0,0,0,0,0,0,0,-1,615,393,0,0
-602,631,0,0,0,0,0,0,0,0,0,-1,622,393,0,0
-595,631,0,0,0,0,0,0,0,0,0,-1,629,393,0,0
-588,631,0,0,0,0,0,0,0,0,0,-1,636,393,0,0
-581,631,0,0,0,0,0,0,0,0,0,-1,643,393,0,0
-574,631,0,0,0,0,0,0,0,0,0,-1,650,393,0,0
-567,631,0,0,0,0,0,0,0,0,0,-1,657,393,0,0
-560,631,0,0,0,0,0,0,0,0,0,-1,664,393,0,0
-553,631,0,0,0,0,0,0,0,0,0,-1,671,393,0,0
-546,631,0,0,0,0,0,0,0,0,0,-1,678,393,0,0
-539,631,0,0,0,0,0,0,0,0,0,-1,685,393,0,0
-532,631,0,0,0,0,0,0,0,0,0,-1,692,393,0,0
-525,631,0,0,0,0,0,0,0,0,0,-1,699,393,0,0
-518,631,0,0,0,0,0,0,0,0,0,-1,706,393,0,0
-511,631,0,0,0,0,0,0,0,0,0,-1,713,393,0,0
-504,631,0,0,0,0,0,0,0,0,0,-1,720,393,0,0
-497,631,0,0,0,0,0,0,0,0,0,-1,727,393,0,0
-490,631,0,0,0,0,0,0,0,0,0,-1,734,393,0,0
-483,631,0,0,0,0,0,0,0,0,0,-1,741,393,0,0
-476,631,0,0,0,0,0,0,0,0,0,-1,748,393,0,0
-469,631,0,0,0,0,0,0,0,0,0,-1,755,393,0,0
-462,631,0,0,0,0,0,0,0,0,0,-1,762,393,0,0
-455,631,0,0,0,0,0,0,0,0,0,-1,769,393,0,0
-448,631,0,0,0,0,0,0,0,0,0,-1,776,393,0,0
-441,631,0,0,0,0,0,0,0,0,0,-1,783,393,0,0
-434,631,0,0,0,0,0,0,0,0,0,-1,790,393,0,0
-427,631,0,0,0,0,0,0,0,0,0,-1,797,393,0,0
-420,631,0,0,0,0,0,0,0,0,0,-1,804,393,0,0
-413,631,0,0,0,0,0,0,0,0,0,-1,811,393,0,0
-406,631,0,0,0,0,0,0,0,0,0,-1,818,393,0,0
-399,631,0,0,0,0,0,0,0,0,0,-1,825,393,0,0
-392,631,0,0,0,0,0,0,0,0,0,-1,832,393,0,0
-385,631,0,0,0,0,0,0,0,0,0,-1,839,393,0,0
-378,631,0,0,0,0,0,0,0,0,0,-1,846,393,0,0
-371,631,0,0,0,0,0,0,0,0,0,-1,853,393,0,0
-364,631,0,0,0,0,0,0,0,0,0,-1,860,393,0,0
-357,631,0,0,0,0,0,0,0,0,0,-1,867,393,0,0
-350,631,0,0,0,0,0,0,0,0,0,-1,874,393,0,0
-343,631,0,0,0,0,0,0,0,0,0,-1,881,393,0,0
-336,631,0,0,0,0,0,0,0,0,0,-1,888,393,0,0
-329,631,0,0,0,0,0,0,0,0,0,-1,895,393,0,0
-322,631,0,0,0,0,0,0,0,0,0,-1,902,393,0,0
-315,631,0,0,0,0,0,0,0,0,0,-1,909,393,0,0
-308,631,0,0,0,0,0,0,0,0,0,-1,916,393,0,0
-301,631,0,0,0,0,0,0,0,0,0,-1,923,393,0,0
-294,631,0,0,0,0,0,0,0,0,0,-1,930,393,0,0
-287,631,0,0,0,0,0,0,0,0,0,-1,937,393,0,0
-280,631,7.71283,-34.969,0,0,0,0,0,0,0,-1,944,393,7.71282,34.969
-273,631,8.04437,-34.934,0,0,0,0,0,0,0,-1,951,393,8.04436,34.9339
-266,631,8.40277,-34.7584,0,0,0,0,0,0,0,-1,958,393,8.40275,34.7584
-259,631,8.56659,-34.037,0,0,0,0,0,0,0,-1,965,393,8.56662,34.037
-252,631,8.44446,-33.2643,0,0,0,0,0,0,0,-1,972,393,8.44445,33.2644
-245,631,8.34705,-32.527,0,0,0,0,0,0,0,-1,979,393,8.34704,32.527
-238,631,8.41888,-31.8855,0,0,0,0,0,0,0,-1,986,393,8.41887,31.8855
-231,631,2.14966,-25.2306,0,0,0,0,0,0,0,-1,993,393,2.14968,25.2306
-224,631,6.83575,-19.7909,0,0,0,0,0,0,0,-1,1000,393,6.83575,19.7909
-217,631,5.05188,-18.3867,0,0,0,0,0,0,0,-1,1007,393,5.0519,18.3866
-210,631,3.37842,-26.3769,0,0,0,0,0,0,0,-1,1014,393,3.37839,26.3769
-203,631,5.05298,-26.4169,0,0,0,0,0,0,0,-1,1021,393,5.05302,26.4169
-196,631,7.91113,-45.5681,0,0,0,0,0,0,0,-1,1028,393,7.91116,45.5681
-189,631,6.57983,-42.4494,0,0,0,0,0,0,0,-1,1035,393,6.57983,42.4494
-182,631,7.57324,-47.0151,0,0,0,0,0,0,0,-1,1042,393,7.57319,47.0151
-175,631,7.49805,-47.7836,-0.000760409,0.0219183,-0.0142738,0.0288086,-0.00765076,-1.12106,0.0221999,0.0489545,1049,393,7.49808,47.7836
-168,631,7.5647,-48.7133,-0.00146408,0.0198716,-0.0128073,0.0258719,-0.00746443,-1.13266,0.0202012,0.0369613,1056,393,7.56468,48.7133
-161,631,7.52368,-49.4252,-0.0020169,0.0180708,-0.0114285,0.0232418,-0.00718783,-1.1459,0.0183655,0.0209017,1063,393,7.52368,49.4252
-154,631,7.4408,-50.0812,-0.00248616,0.0162207,-0.0100694,0.0206106,-0.00687604,-1.15968,0.0165166,0.0187936,1070,393,7.44079,50.0812
-147,631,7.25232,-50.0125,0,0,0,0,0,0,0,-1,1077,393,7.25232,50.0125
-140,631,7.35889,-51.2469,-0.00312309,0.0127393,-0.00769452,0.0158584,-0.00624221,-1.18567,0.0131563,0.0117781,1084,393,7.35885,51.2469
-133,631,7.27234,-51.8063,-0.00334331,0.0110576,-0.00665745,0.0136637,-0.0059494,-1.19768,0.0116119,0.00882932,1091,393,7.27236,51.8063
-126,631,7.23035,-52.3392,-0.00359428,0.00926626,-0.00553738,0.0113219,-0.00564994,-1.21533,0.00997944,0.0124767,1098,393,7.23035,52.3392
-119,631,7.18896,-52.8654,-0.0037752,0.00758367,-0.00442154,0.00910187,-0.00529341,-1.24004,0.00840751,0.0154057,1105,393,7.18894,52.8654
-112,631,7.14038,-53.3929,-0.00363503,0.00638229,-0.00363034,0.00755959,-0.00481232,-1.2572,0.00720139,0.0150786,1112,393,7.14043,53.3929
-105,631,7.15027,-53.8973,-0.00337102,0.00540454,-0.00308115,0.0063783,-0.00434478,-1.26469,0.00622797,0.0205563,1119,393,7.15028,53.8973
-98,631,7.08936,-54.3966,-0.00313513,0.00452771,-0.002561,0.00530481,-0.00391223,-1.27619,0.00534167,0.0176238,1126,393,7.08937,54.3966
-91,631,7.04639,-54.8714,-0.00285067,0.00384813,-0.00211573,0.0044604,-0.00346294,-1.2891,0.00458661,0.0182361,1133,393,7.04639,54.8714
-84,631,7.00134,-55.3465,-0.00249051,0.0029013,-0.00161206,0.00334652,-0.00293573,-1.30133,0.00362964,0.0171089,1140,393,7.00136,55.3465
-77,631,6.9364,-55.7858,-0.00217799,0.00268135,-0.00128582,0.00300061,-0.00249725,-1.32742,0.00317862,0.0126646,1147,393,6.93636,55.7858
-70,631,6.9043,-56.1829,-0.00194095,0.00272086,-0.0010728,0.00295589,-0.00217598,-1.35512,0.00297427,0.0151693,1154,393,6.90428,56.1829
-63,631,6.89868,-56.5991,-0.00147995,0.00278328,-0.000881126,0.00295821,-0.00165489,-1.37481,0.00269857,0.0155392,1161,393,6.89866,56.5991
-56,631,6.88501,-57.0144,-0.000991352,0.00274899,-0.000655706,0.0028606,-0.00110297,-1.40219,0.00236218,0.0155699,1168,393,6.88498,57.0144
-49,631,6.87891,-57.3459,-0.000546991,0.00263875,-0.00039787,0.00268769,-0.000595929,-1.44841,0.00201996,0.0118114,1175,393,6.87895,57.3459
-42,631,6.8844,-57.6872,-9.03348e-05,0.00243557,-0.00018411,0.00244892,-0.000103684,-1.49842,0.00166825,0.0101453,1182,393,6.88443,57.6872
-35,631,6.89587,-58.0126,0.000343978,0.00234271,-2.58035e-06,0.00234271,0.000343974,-1.56951,0.00146071,0.0113068,1189,393,6.89589,58.0126
-28,631,6.89246,-58.3039,0.000745476,0.00197115,0.000112702,0.00198143,0.000735199,1.47986,0.00115659,0.0142495,1196,393,6.89245,58.3039
-21,631,6.85071,-58.5925,0.00114414,0.00150951,0.000152765,0.00156497,0.00108868,1.22258,0.000926306,0.0121019,1203,393,6.85074,58.5925
-14,631,6.82751,-58.8696,0.00147819,0.00115589,0.000160681,0.00154461,0.00108947,0.391972,0.000916506,0.0145402,1210,393,6.82752,58.8696
-7,631,6.8905,-59.1485,0.00173168,0.000563245,0.000131393,0.00174627,0.000548652,0.110612,0.00103116,0.0230585,1217,393,6.89047,59.1485
0,631,6.89539,-59.3941,0.00198706,8.8369e-05,0.000151379,0.00199906,7.63756e-05,0.0790626,0.00130799,0.0262744,1224,393,6.89534,59.3941
7,631,6.89209,-59.5628,0.00219311,-0.000304321,0.000148501,0.00220191,-0.00031312,0.0591836,0.00158267,0.0219641,1231,393,6.89215,59.5628
14,631,6.90442,-59.7082,0.00231116,-0.000673691,0.000183024,0.00232234,-0.000684872,0.0610131,0.00181999,0.0124411,1238,393,6.90448,59.7082
21,631,6.92065,-59.851,0.00247324,-0.000971144,0.000272064,0.0024946,-0.000992501,0.0783402,0.00207461,0.015198,1245,393,6.92064,59.851
28,631,6.92529,-59.9565,0.00268431,-0.0012387,0.000427206,0.00273029,-0.00128468,0.107223,0.0023676,0.0165043,1252,393,6.92535,59.9565
35,631,6.99023,-60.0459,0.00274203,-0.00140575,0.000522751,0.0028069,-0.00147061,0.12346,0.00250947,0.0151272,1259,393,6.99025,60.0459
42,631,7.03906,-60.1478,0.00275482,-0.00134029,0.000657123,0.00285768,-0.00144315,0.155274,0.00252746,0.012867,1266,393,7.03904,60.1478
49,631,7.05713,-60.2136,0.00278712,-0.00112233,0.000768038,0.00293259,-0.0012678,0.187191,0.00248778,0.0114006,1273,393,7.05709,60.2136
56,631,7.06848,-60.2784,0.00285411,-0.000870125,0.000837116,0.00303362,-0.00104964,0.21124,0.00244847,0.0135579,1280,393,7.06844,60.2784
63,631,7.04504,-60.3235,0.00293811,-0.000517614,0.000841671,0.0031322,-0.000711709,0.226644,0.0023614,0.0168076,1287,393,7.04502,60.3236
70,631,7.06812,-60.2737,0.00298586,-0.000190565,0.00078332,0.00316852,-0.00037323,0.2291,0.00224712,0.017413,1294,393,7.06807,60.2737
77,631,7.13013,-60.2205,0.0030383,0.000427923,0.00070797,0.00321795,0.000248275,0.248505,0.00206751,0.0167668,1301,393,7.13009,60.2205
84,631,7.1781,-60.1739,0.0030898,0.000749098,0.000552687,0.00321374,0.00062516,0.220597,0.00196749,0.0148831,1308,393,7.17812,60.1739
91,631,7.18457,-60.08,0.00293942,0.000625952,0.00032722,0.00298481,0.00058056,0.13784,0.00182736,0.0183428,1315,393,7.1846,60.08
98,631,7.20813,-59.9662,0.00277247,0.000763447,0.000157571,0.00278475,0.000751163,0.0777979,0.00166363,0.0146954,1322,393,7.20815,59.9662
105,631,7.18591,-59.8476,0.00264274,0.000692489,-1.01003e-05,0.0026428,0.000692436,-0.00517877,0.00158239,0.0117756,1329,393,7.18587,59.8476
112,631,7.21045,-59.7245,0.00258279,0.000650885,-9.68504e-05,0.00258763,0.000646042,-0.0499652,0.00155513,0.0123646,1336,393,7.21044,59.7246
119,631,7.24158,-59.5722,0.00255776,0.000655725,-0.000184051,0.00257541,0.000638079,-0.0955838,0.0015487,0.0135201,1343,393,7.24157,59.5722
126,631,7.25476,-59.3412,0.00242294,0.000830789,-0.000316408,0.00248351,0.000770213,-0.189158,0.00146791,0.0182594,1350,393,7.25472,59.3413
133,631,7.26843,-59.092,0.00224468,0.00120248,-0.000397674,0.00237908,0.00106808,-0.325932,0.00137595,0.0197315,1357,393,7.26841,59.0921
140,631,7.255,-58.8701,0.0021945,0.00168985,-0.000254033,0.00230022,0.00158412,-0.394388,0.00135919,0.0209014,1364,393,7.25502,58.8701
147,631,7.26807,-58.5715,0.00201259,0.00226116,-0.00012652,0.00231423,0.00195952,-1.17364,0.00143923,0.0237691,1371,393,7.26806,58.5715
154,631,7.28796,-58.2656,0.00178591,0.00290104,-2.6991e-06,0.00290105,0.0017859,-1.56838,0.00168978,0.0221653,1378,393,7.28794,58.2656
161,631,7.30212,-57.9454,0.00148379,0.00372234,0.000200795,0.00374021,0.00146592,1.48204,0.00217616,0.024217,1385,393,7.30213,57.9454
168,631,7.34045,-57.5396,0.00102391,0.00446965,0.000461277,0.00453033,0.00096323,1.44,0.00275584,0.0282237,1392,393,7.34045,57.5396
175,631,7.32715,-57.2441,0.000525838,0.00516748,0.000746298,0.00528452,0.000408797,1.41523,0.00339496,0.021185,1399,393,7.32709,57.2441
182,631,7.2666,-56.915,-1.30183e-05,0.00579176,0.00103059,0.0059693,-0.000190562,1.4002,0.00404455,0.0116926,1406,393,7.26661,56.915
189,631,7.24622,-56.5116,-0.000499426,0.00637264,0.00144443,0.0066639,-0.000790685,1.37182,0.00472825,0.0116711,1413,393,7.24619,56.5116
196,631,7.22095,-56.0724,-0.000818082,0.00691489,0.001939,0.00737384,-0.00127703,1.33838,0.00539222,0.0123151,1420,393,7.22089,56.0724
203,631,7.22241,-55.6399,-0.00122516,0.00713512,0.00233663,0.00774386,-0.00183391,1.31594,0.00587016,0.0140251,1427,393,7.22237,55.6399
210,631,7.18958,-55.2227,-0.00168548,0.0070979,0.00268406,0.00785316,-0.00244074,1.2965,0.00621099,0.0164449,1434,393,7.18956,55.2227
217,631,7.15283,-54.7895,-0.00196745,0.00779024,0.00289251,0.00858324,-0.00276044,1.30322,0.00683083,0.0181819,1441,393,7.15284,54.7895
224,631,7.11353,-54.2638,-0.00213006,0.00876319,0.0030782,0.00957284,-0.00293972,1.31359,0.00755492,0.0147571,1448,393,7.11352,54.2638
231,631,7.04614,-53.7472,-0.00215809,0.00965379,0.00340665,0.0105659,-0.00307017,1.3092,0.00825975,0.0117683,1455,393,7.04611,53.7471
238,631,7.01355,-53.2006,-0.00225298,0.0106541,0.00366257,0.011621,-0.00321986,1.3127,0.00901435,0.0176933,1462,393,7.0136,53.2006
245,631,6.99902,-52.6659,-0.00245439,0.0117899,0.00387993,0.0127781,-0.00344266,1.32139,0.00986855,0.0186273,1469,393,6.99899,52.6659
252,631,6.94128,-52.1472,-0.00238517,0.0130928,0.00417678,0.0141479,-0.00344036,1.32334,0.0107636,0.0176464,1476,393,6.94124,52.1472
259,631,6.87964,-51.5712,-0.00189886,0.0149062,0.00497399,0.0162681,-0.00326071,1.30355,0.0120799,0.0133356,1483,393,6.87958,51.5712
266,631,6.85266,-50.9814,-0.00166787,0.016263,0.00561743,0.0178775,-0.00328234,1.29093,0.0131497,0.0120992,1490,393,6.85268,50.9813
273,631,6.8092,-50.3684,-0.00126247,0.0178387,0.00648959,0.0198349,-0.00325868,1.27238,0.0144326,0.0150827,1497,393,6.80915,50.3684
280,631,6.77441,-49.711,-0.000561861,0.0195082,0.00755042,0.0220314,-0.00308513,1.24828,0.0158166,0.0139435,1504,393,6.77447,49.711
287,631,6.68958,-49.064,0.000396253,0.0215314,0.00897325,0.0248272,-0.00289953,1.2188,0.0175978,0.0158925,1511,393,6.68956,49.064
294,631,6.60254,-48.3258,0.00134576,0.0234857,0.0104611,0.0276466,-0.0028151,1.19223,0.0194375,0.0222425,1518,393,6.60255,48.3258
301,631,6.46021,-47.5557,0.00235508,0.0254174,0.0120389,0.0305567,-0.00278419,1.16733,0.0213598,0.0368494,1525,393,6.46021,47.5557
308,631,6.82434,-46.5771,0.00352205,0.0274756,0.0137149,0.0337071,-0.00270946,1.14432,0.0234268,0.0422357,1532,393,6.82429,46.5771
315,631,6.67188,-46.4493,0,0,0,0,0,0,0,-1,1539,393,6.6719,46.4493
322,631,6.58618,-45.9354,0,0,0,0,0,0,0,-1,1546,393,6.5862,45.9354
329,631,5.70972,-38.2651,0,0,0,0,0,0,0,-1,1553,393,5.70967,38.2651
336,631,5.38281,-39.6306,0,0,0,0,0,0,0,-1,1560,393,5.38277,39.6306
343,631,6.21558,-38.7278,0,0,0,0,0,0,0,-1,1567,393,6.21558,38.7278
350,631,5.18359,-35.9677,0,0,0,0,0,0,0,-1,1574,393,5.18355,35.9677
357,631,2.6449,-9.60303,0,0,0,0,0,0,0,-1,1581,393,2.64491,9.60304
364,631,3.39136,-5.7594,0,0,0,0,0,0,0,-1,1588,393,3.39137,5.75939
371,631,3.72839,-6.0574,0,0,0,0,0,0,0,-1,1595,393,3.72845,6.05742
378,631,4.06555,-6.35544,0,0,0,0,0,0,0,-1,1602,393,4.06553,6.35544
385,631,3.90442,-3.58298,0,0,0,0,0,0,0,-1,1609,393,3.90437,3.58299
392,631,0.352295,-2.21301,0,0,0,0,0,0,0,-1,1616,393,0.352345,2.213
399,631,0,0,0,0,0,0,0,0,0,-1,1623,393,0,0
406,631,0,0,0,0,0,0,0,0,0,-1,1630,393,0,0
413,631,0,0,0,0,0,0,0,0,0,-1,1637,393,0,0
420,631,0,0,0,0,0,0,0,0,0,-1,1644,393,0,0
427,631,0,0,0,0,0,0,0,0,0,-1,1651,393,0,0
434,631,0,0,0,0,0,0,0,0,0,-1,1658,393,0,0
441,631,0,0,0,0,0,0,0,0,0,-1,1665,393,0,0
448,631,0,0,0,0,0,0,0,0,0,-1,1672,393,0,0
455,631,0,0,0,0,0,0,0,0,0,-1,1679,393,0,0
462,631,0,0,0,0,0,0,0,0,0,-1,1686,393,0,0
469,631,0,0,0,0,0,0,0,0,0,-1,1693,393,0,0
476,631,0,0,0,0,0,0,0,0,0,-1,1700,393,0,0
483,631,0,0,0,0,0,0,0,0,0,-1,1707,393,0,0
490,631,0,0,0,0,0,0,0,0,0,-1,1714,393,0,0
497,631,0,0,0,0,0,0,0,0,0,-1,1721,393,0,0
504,631,0,0,0,0,0,0,0,0,0,-1,1728,393,0,0
511,631,0,0,0,0,0,0,0,0,0,-1,1735,393,0,0
518,631,0,0,0,0,0,0,0,0,0,-1,1742,393,0,0
525,631,0,0,0,0,0,0,0,0,0,-1,1749,393,0,0
532,631,0,0,0,0,0,0,0,0,0,-1,1756,393,0,0
539,631,0,0,0,0,0,0,0,0,0,-1,1763,393,0,0
546,631,0,0,0,0,0,0,0,0,0,-1,1770,393,0,0
553,631,0,0,0,0,0,0,0,0,0,-1,1777,393,0,0
560,631,0,0,0,0,0,0,0,0,0,-1,1784,393,0,0
567,631,0,0,0,0,0,0,0,0,0,-1,1791,393,0,0
574,631,0,0,0,0,0,0,0,0,0,-1,1798,393,0,0
581,631,0,0,0,0,0,0,0,0,0,-1,1805,393,0,0
588,631,0,0,0,0,0,0,0,0,0,-1,1812,393,0,0
595,631,0,0,0,0,0,0,0,0,0,-1,1819,393,0,0
602,631,0,0,0,0,0,0,0,0,0,-1,1826,393,0,0
609,631,0,0,0,0,0,0,0,0,0,-1,1833,393,0,0
616,631,0,0,0,0,0,0,0,0,0,-1,1840,393,0,0
623,631,0,0,0,0,0,0,0,0,0,-1,1847,393,0,0
630,631,0,0,0,0,0,0,0,0,0,-1,1854,393,0,0
637,631,0,0,0,0,0,0,0,0,0,-1,1861,393,0,0
644,631,0,0,0,0,0,0,0,0,0,-1,1868,393,0,0
651,631,0,0,0,0,0,0,0,0,0,-1,1875,393,0,0
658,631,0,0,0,0,0,0,0,0,0,-1,1882,393,0,0
665,631,0,0,0,0,0,0,0,0,0,-1,1889,393,0,0
672,631,0,0,0,0,0,0,0,0,0,-1,1896,393,0,0
679,631,0,0,0,0,0,0,0,0,0,-1,1903,393,0,0
686,631,0,0,0,0,0,0,0,0,0,-1,1910,393,0,0
693,631,0,0,0,0,0,0,0,0,0,-1,1917,393,0,0
700,631,0,0,0,0,0,0,0,0,0,-1,1924,393,0,0
707,631,0,0,0,0,0,0,0,0,0,-1,1931,393,0,0
714,631,0,0,0,0,0,0,0,0,0,-1,1938,393,0,0
721,631,0,0,0,0,0,0,0,0,0,-1,1945,393,0,0
728,631,0,0,0,0,0,0,0,0,0,-1,1952,393,0,0
735,631,0,0,0,0,0,0,0,0,0,-1,1959,393,0,0
742,631,0,0,0,0,0,0,0,0,0,-1,1966,393,0,0
749,631,0,0,0,0,0,0,0,0,0,-1,1973,393,0,0
756,631,0,0,0,0,0,0,0,0,0,-1,1980,393,0,0
763,631,0,0,0,0,0,0,0,0,0,-1,1987,393,0,0
770,631,0,0,0,0,0,0,0,0,0,-1,1994,393,0,0
777,631,0,0,0,0,0,0,0,0,0,-1,2001,393,0,0
784,631,0,0,0,0,0,0,0,0,0,-1,2008,393,0,0
791,631,0,0,0,0,0,0,0,0,0,-1,2015,393,0,0
798,631,0,0,0,0,0,0,0,0,0,-1,2022,393,0,0
805,631,0,0,0,0,0,0,0,0,0,-1,2029,393,0,0
812,631,0,0,0,0,0,0,0,0,0,-1,2036,393,0,0
-700,624,0,0,0,0,0,0,0,0,0,-1,524,400,0,0
-693,624,0,0,0,0,0,0,0,0,0,-1,531,400,0,0
-686,624,0,0,0,0,0,0,0,0,0,-1,538,400,0,0
-679,624,0,0,0,0,0,0,0,0,0,-1,545,400,0,0
-672,624,0,0,0,0,0,0,0,0,0,-1,552,400,0,0
-665,624,0,0,0,0,0,0,0,0,0,-1,559,400,0,0
-658,624,0,0,0,0,0,0,0,0,0,-1,566,400,0,0
-651,624,0,0,0,0,0,0,0,0,0,-1,573,400,0,0
-644,624,0,0,0,0,0,0,0,0,0,-1,580,400,0,0
-637,624,0,0,0,0,0,0,0,0,0,-1,587,400,0,0
-630,624,0,0,0,0,0,0,0,0,0,-1,594,400,0,0
-623,624,0,0,0,0,0,0,0,0,0,-1,601,400,0,0
-616,624,0,0,0,0,0,0,0,0,0,-1,608,400,0,0
-609,624,0,0,0,0,0,0,0,0,0,-1,615,400,0,0
-602,624,0,0,0,0,0,0,0,0,0,-1,622,400,0,0
-595,624,0,0,0,0,0,0,0,0,0,-1,629,400,0,0
-588,624,0,0,0,0,0,0,0,0,0,-1,636,400,0,0
-581,624,0,0,0,0,0,0,0,0,0,-1,643,400,0,0
-574,624,0,0,0,0,0,0,0,0,0,-1,650,400,0,0
-567,624,0,0,0,0,0,0,0,0,0,-1,657,400,0,0
-560,624,0,0,0,0,0,0,0,0,0,-1,664,400,0,0
-553,624,0,0,0,0,0,0,0,0,0,-1,671,400,0,0
-546,624,0,0,0,0,0,0,0,0,0,-1,678,400,0,0
-539,624,0,0,0,0,0,0,0,0,0,-1,685,400,0,0
-532,624,0,0,0,0,0,0,0,0,0,-1,692,400,0,0
-525,624,0,0,0,0,0,0,0,0,0,-1,699,400,0,0
-518,624,0,0,0,0,0,0,0,0,0,-1,706,400,0,0
-511,624,0,0,0,0,0,0,0,0,0,-1,713,400,0,0
-504,624,0,0,0,0,0,0,0,0,0,-1,720,400,0,0
-497,624,0,0,0,0,0,0,0,0,0,-1,727,400,0,0
-490,624,0,0,0,0,0,0,0,0,0,-1,734,400,0,0
-483,624,0,0,0,0,0,0,0,0,0,-1,741,400,0,0
-476,624,0,0,0,0,0,0,0,0,0,-1,748,400,0,0
-469,624,0,0,0,0,0,0,0,0,0,-1,755,400,0,0
-462,624,0,0,0,0,0,0,0,0,0,-1,762,400,0,0
-455,624,0,0,0,0,0,0,0,0,0,-1,769,400,0,0
-448,624,0,0,0,0,0,0,0,0,0,-1,776,400,0,0
-441,624,0,0,0,0,0,0,0,0,0,-1,783,400,0,0
-434,624,0,0,0,0,0,0,0,0,0,-1,790,400,0,0
-427,624,0,0,0,0,0,0,0,0,0,-1,797,400,0,0
-420,624,0,0,0,0,0,0,0,0,0,-1,804,400,0,0
-413,624,0,0,0,0,0,0,0,0,0,-1,811,400,0,0
-406,624,0,0,0,0,0,0,0,0,0,-1,818,400,0,0
-399,624,0,0,0,0,0,0,0,0,0,-1,825,400,0,0
-392,624,0,0,0,0,0,0,0,0,0,-1,832,400,0,0
-385,624,0,0,0,0,0,0,0,0,0,-1,839,400,0,0
-378,624,0,0,0,0,0,0,0,0,0,-1,846,400,0,0
-371,624,0,0,0,0,0,0,0,0,0,-1,853,400,0,0
-364,624,0,0,0,0,0,0,0,0,0,-1,860,400,0,0
-357,624,0,0,0,0,0,0,0,0,0,-1,867,400,0,0
-350,624,0,0,0,0,0,0,0,0,0,-1,874,400,0,0
-343,624,0,0,0,0,0,0,0,0,0,-1,881,400,0,0
-336,624,0,0,0,0,0,0,0,0,0,-1,888,400,0,0
-329,624,0,0,0,0,0,0,0,0,0,-1,895,400,0,0
-322,624,0,0,0,0,0,0,0,0,0,-1,902,400,0,0
-315,624,0,0,0,0,0,0,0,0,0,-1,909,400,0,0
-308,624,0,0,0,0,0,0,0,0,0,-1,916,400,0,0
-301,624,0,0,0,0,0,0,0,0,0,-1,923,400,0,0
-294,624,5.08527,-28.5311,0,0,0,0,0,0,0,-1,930,400,5.08525,28.5311
-287,624,6.70825,-33.8,0,0,0,0,0,0,0,-1,937,400,6.70827,33.8
-280,624,6.92474,-33.8738,0,0,0,0,0,0,0,-1,944,400,6.92477,33.8739
-273,624,8.617,-37.3463,0,0,0,0,0,0,0,-1,951,400,8.61697,37.3463
-266,624,7.71747,-37.0599,0,0,0,0,0,0,0,-1,958,400,7.7175,37.0599
-259,624,7.33569,-33.1199,0,0,0,0,0,0,0,-1,965,400,7.33567,33.1199
-252,624,7.5528,-32.8158,0,0,0,0,0,0,0,-1,972,400,7.5528,32.8158
-245,624,6.8396,-32.02,0,0,0,0,0,0,0,-1,979,400,6.83963,32.02
-238,624,6.99402,-31.5278,0,0,0,0,0,0,0,-1,986,400,6.99404,31.5278
-231,624,3.86121,-29.6032,0,0,0,0,0,0,0,-1,993,400,3.86122,29.6032
-224,624,4.59351,-27.4048,0,0,0,0,0,0,0,-1,1000,400,4.59353,27.4048
-217,624,5.90167,-32.048,0,0,0,0,0,0,0,-1,1007,400,5.90167,32.048
-210,624,7.40454,-44.4743,0,0,0,0,0,0,0,-1,1014,400,7.40456,44.4743
-203,624,7.31494,-45.3511,0,0,0,0,0,0,0,-1,1021,400,7.315,45.3511
-196,624,7.25708,-45.902,0,0,0,0,0,0,0,-1,1028,400,7.25707,45.902
-189,624,7.15955,-46.6521,0,0,0,0,0,0,0,-1,1035,400,7.15957,46.6521
-182,624,7.00378,-47.2865,-0.000482355,0.018336,-0.0118198,0.0240345,-0.00618084,-1.12156,0.018432,0.0494567,1042,400,7.00378,47.2865
-175,624,7.03284,-48.0048,-0.000803638,0.0167821,-0.0107834,0.0219032,-0.00592469,-1.12743,0.0169262,0.0291481,1049,400,7.03279,48.0048
-168,624,7.04895,-48.8191,-0.00121851,0.0150744,-0.0096718,0.0195735,-0.00571754,-1.1354,0.0153148,0.021279,1056,400,7.049,48.8191
-161,624,6.9491,-49.4963,-0.00152319,0.0135664,-0.0086105,0.01747,-0.00542675,-1.14516,0.0138155,0.0119724,1063,400,6.94906,49.4963
-154,624,6.90015,-50.0838,-0.00175334,0.0120361,-0.00754563,0.0153626,-0.00507987,-1.15557,0.0122901,0.0109518,1070,400,6.90016,50.0838
-147,624,6.87451,-50.6783,-0.00190734,0.010643,-0.00657155,0.0134542,-0.00471859,-1.16656,0.0108887,0.0118198,1077,400,6.87457,50.6783
-140,624,6.8374,-51.2645,-0.00197853,0.00916643,-0.00566944,0.0115435,-0.00435558,-1.17378,0.00948687,0.0103403,1084,400,6.83744,51.2645
-133,624,6.76721,-51.8247,-0.00202811,0.0077815,-0.00484097,0.00976815,-0.00401476,-1.18137,0.0081854,0.0110896,1091,400,6.76716,51.8248
-126,624,6.73743,-52.3554,-0.00209562,0.00634633,-0.00396891,0.00791922,-0.0036685,-1.19348,0.00683858,0.0125257,1098,400,6.73742,52.3554
-119,624,6.69788,-52.8648,-0.00207278,0.00504573,-0.00311198,0.00621434,-0.00324139,-1.21157,0.00554849,0.0145356,1105,400,6.69793,52.8648
-112,624,6.65845,-53.3728,-0.00180927,0.00413228,-0.00250936,0.00505025,-0.00272724,-1.2201,0.00455662,0.0176581,1112,400,6.65847,53.3728
-105,624,6.67273,-53.882,-0.0014695,0.0034148,-0.00210548,0.00419712,-0.00225181,-1.21505,0.00377933,0.0135163,1119,400,6.67274,53.882
-98,624,6.62634,-54.3548,-0.00113196,0.00279459,-0.00174548,0.00345832,-0.00179569,-1.20743,0.00308362,0.0142371,1126,400,6.62638,54.3548
-91,624,6.59448,-54.8574,-0.000730143,0.00232747,-0.00143614,0.00289623,-0.0012989,-1.19372,0.00247989,0.0209453,1133,400,6.59447,54.8574
-84,624,6.58081,-55.3482,-0.000261821,0.00171352,-0.00106674,0.00217961,-0.000727912,-1.15886,0.00174701,0.0196635,1140,400,6.58087,55.3482
-77,624,6.56128,-55.7688,0.000165681,0.00145651,-0.000795243,0.00183529,-0.000213097,-1.12628,0.00130039,0.0148999,1147,400,6.56132,55.7688
-70,624,6.56445,-56.1747,0.000599092,0.00122052,-0.000561269,0.00155134,0.000268273,-1.0382,0.000957416,0.0172662,1154,400,6.56446,56.1746
-63,624,6.57959,-56.6126,0.00116818,0.000869763,-0.00032107,0.00137302,0.000664924,-0.567884,0.000792843,0.0195669,1161,400,6.57962,56.6126
-56,624,6.52747,-57.0075,0.00167031,0.000388346,-6.46742e-05,0.00167356,0.000385091,-0.0502793,0.00101207,0.0154409,1168,400,6.52752,57.0075
-49,624,6.54187,-57.3618,0.00210771,-0.000119173,0.000170977,0.00212076,-0.000132224,0.0761836,0.00145991,0.0111749,1175,400,6.54183,57.3618
-42,624,6.55115,-57.6967,0.00261132,-0.000640474,0.000391335,0.00265775,-0.000686906,0.118098,0.00203973,0.0104703,1182,400,6.5511,57.6967
-35,624,6.56787,-58.0029,0.00310784,-0.00108372,0.000536645,0.00317546,-0.00115133,0.125337,0.00258759,0.0153287,1189,400,6.56788,58.0029
-28,624,6.56787,-58.3159,0.00352529,-0.00198353,0.000619237,0.00359404,-0.00205228,0.11057,0.00330016,0.0206703,1196,400,6.56792,58.3159
-21,624,6.56287,-58.5974,0.00392892,-0.00298823,0.000598797,0.00398037,-0.00303969,0.0857172,0.00406514,0.0147528,1203,400,6.56282,58.5974
-14,624,6.59595,-58.8576,0.00427767,-0.00372853,0.000516556,0.00431086,-0.00376172,0.064165,0.0046643,0.0156546,1210,400,6.59593,58.8576
-7,624,6.6593,-59.0631,0.00451869,-0.00493303,0.00039363,0.00453505,-0.00494939,0.0415505,0.00547759,0.0210974,1217,400,6.65924,59.0631
0,624,6.70349,-59.2896,0.00475901,-0.00592191,0.000373962,0.00477208,-0.00593499,0.0349551,0.00619387,0.0225153,1224,400,6.70346,59.2896
7,624,6.68604,-59.5162,0.00493283,-0.0068342,0.000325601,0.00494183,-0.0068432,0.0276424,0.00683355,0.0169317,1231,400,6.68608,59.5162
14,624,6.75769,-59.6967,0.00499694,-0.00769585,0.000313458,0.00500467,-0.00770359,0.0246757,0.00739207,0.0142389,1238,400,6.75764,59.6967
21,624,6.78186,-59.8485,0.00510978,-0.0084564,0.00033985,0.00511829,-0.00846491,0.0250303,0.0079212,0.0161761,1245,400,6.78186,59.8485
28,624,6.80347,-59.9679,0.00530018,-0.00915515,0.000436872,0.00531337,-0.00916834,0.0301855,0.00845919,0.0146609,1252,400,6.80349,59.9679
35,624,6.8667,-60.0421,0.00536212,-0.00959521,0.000519718,0.00538016,-0.00961324,0.0346909,0.00877069,0.0168222,1259,400,6.86673,60.0422
42,624,6.91895,-60.1479,0.00539907,-0.00961266,0.000631529,0.00542559,-0.00963918,0.0419702,0.00881033,0.0181508,1266,400,6.9189,60.1479
49,624,7.00305,-60.2115,0.00554305,-0.00933512,0.000727001,0.00557849,-0.00937055,0.048709,0.0087229,0.0195345,1273,400,7.00305,60.2116
56,624,7.05774,-60.2768,0.00573466,-0.00890998,0.000790231,0.00577718,-0.0089525,0.0537524,0.0085698,0.0198312,1280,400,7.05775,60.2768
63,624,7.07788,-60.2962,0.00593473,-0.00829379,0.00074417,0.00597354,-0.00833261,0.0521118,0.00829701,0.0169244,1287,400,7.07793,60.2962
70,624,7.07678,-60.3216,0.00611963,-0.00762355,0.000606598,0.00614635,-0.00765028,0.044024,0.00798124,0.0153007,1294,400,7.07684,60.3216
77,624,7.14636,-60.2616,0.00634659,-0.00647085,0.000431348,0.00636108,-0.00648535,0.0336026,0.00741701,0.0164222,1301,400,7.14638,60.2616
84,624,7.22095,-60.1854,0.00661585,-0.00572944,0.000210126,0.00661943,-0.00573301,0.0170142,0.0071378,0.0146136,1308,400,7.22092,60.1854
91,624,7.25293,-60.0883,0.00661181,-0.00564428,-0.000100324,0.00661263,-0.0056451,-0.00818494,0.00708435,0.0151853,1315,400,7.25296,60.0883
98,624,7.30237,-60.0049,0.00650898,-0.00524648,-0.000374411,0.0065209,-0.0052584,-0.0318069,0.00681379,0.0145382,1322,400,7.30232,60.0049
105,624,7.33594,-59.8962,0.00640714,-0.00532234,-0.000657805,0.00644392,-0.00535911,-0.0558479,0.00682407,0.0147213,1329,400,7.33598,59.8962
112,624,7.3877,-59.7551,0.00635606,-0.0054115,-0.000793589,0.00640934,-0.00546478,-0.0670342,0.00686275,0.0150735,1336,400,7.38765,59.7551
119,624,7.42261,-59.6187,0.00628698,-0.00540393,-0.000876179,0.00635228,-0.00546923,-0.0743915,0.0068315,0.0155686,1343,400,7.4226,59.6187
126,624,7.40515,-59.3622,0.00604728,-0.00521035,-0.000996983,0.00613489,-0.00529796,-0.0876517,0.00660665,0.0194302,1350,400,7.4051,59.3622
133,624,7.47778,-59.0847,0.0056702,-0.00475743,-0.00106325,0.00577751,-0.00486474,-0.100585,0.00615183,0.0203392,1357,400,7.47773,59.0846
140,624,7.49841,-58.8465,0.00534813,-0.00426188,-0.000973333,0.00544572,-0.00435947,-0.0999311,0.0056726,0.02023,1364,400,7.49836,58.8465
147,624,7.49207,-58.5414,0.00499097,-0.00374423,-0.000885201,0.00507977,-0.00383303,-0.0999829,0.00516256,0.0246826,1371,400,7.49211,58.5414
154,624,7.57214,-58.263,0.0045555,-0.00303871,-0.000821595,0.00464337,-0.00312658,-0.106545,0.00451439,0.026721,1378,400,7.57215,58.263
161,624,7.6261,-57.9768,0.00408272,-0.00205441,-0.000699155,0.00416136,-0.00213305,-0.11201,0.00369644,0.0249544,1385,400,7.62611,57.9768
168,624,7.66833,-57.6048,0.00353224,-0.00101992,-0.000505185,0.00358763,-0.00107531,-0.109207,0.00281939,0.0240604,1392,400,7.66833,57.6048
175,624,7.68665,-57.2881,0.00295525,3.2955e-05,-0.000289324,0.00298362,4.58583e-06,-0.0977413,0.00198755,0.0180244,1399,400,7.68662,57.2881
182,624,7.65173,-56.9425,0.00233368,0.00101553,-6.73306e-05,0.00233711,0.0010121,-0.0509031,0.00135336,0.011205,1406,400,7.65174,56.9425
189,624,7.63281,-56.5385,0.00169992,0.00203077,0.000220957,0.00214136,0.00158932,1.10672,0.00128376,0.0110442,1413,400,7.63282,56.5385
196,624,7.61548,-56.0997,0.00126399,0.00297956,0.000599641,0.00316837,0.00107518,1.26575,0.00186047,0.0121977,1420,400,7.61548,56.0997
203,624,7.63904,-55.6317,0.000824307,0.00374194,0.00097586,0.00403824,0.000528003,1.27601,0.00253456,0.0153875,1427,400,7.63898,55.6317
210,624,7.62012,-55.2008,0.000273643,0.0042177,0.00133054,0.00462459,-0.000133245,1.27402,0.00312842,0.0181912,1434,400,7.62009,55.2008
217,624,7.57397,-54.7311,-0.000175932,0.00497299,0.00163017,0.00544571,-0.000648651,1.28856,0.00386487,0.0203397,1441,400,7.57397,54.7311
224,624,7.55115,-54.2266,-0.000488564,0.00582628,0.0019178,0.00636308,-0.00102536,1.29788,0.00462191,0.0171879,1448,400,7.5512,54.2266
231,624,7.55847,-53.7597,-0.000657807,0.00660945,0.00231506,0.00728428,-0.00133263,1.28716,0.00535594,0.0127505,1455,400,7.5585,53.7597
238,624,7.53345,-53.2458,-0.000824077,0.00746014,0.00264564,0.00823296,-0.00159689,1.28659,0.00609111,0.0175185,1462,400,7.5335,53.2458
245,624,7.50427,-52.722,-0.00106837,0.00841747,0.00290811,0.00923804,-0.00188894,1.29578,0.00687539,0.0180719,1469,400,7.50429,52.7219
252,624,7.47083,-52.1619,-0.00115658,0.0095176,0.00321944,0.0104134,-0.00205242,1.2994,0.00771794,0.0133609,1476,400,7.47086,52.1619
259,624,7.41992,-51.5985,-0.0009487,0.0109903,0.00390931,0.0121565,-0.00211486,1.2809,0.00889348,0.00955033,1483,400,7.41996,51.5985
266,624,7.41223,-50.9921,-0.000914528,0.0121167,0.00448579,0.0135116,-0.00230938,1.26933,0.00986801,0.0132035,1490,400,7.41229,50.9921
273,624,7.35437,-50.3852,-0.000753427,0.0134167,0.00521451,0.0151288,-0.00246548,1.25356,0.0110002,0.0167516,1497,400,7.35432,50.3852
280,624,7.29333,-49.7895,-0.000356321,0.0147778,0.00608346,0.01692,-0.00249847,1.23223,0.0121984,0.0152056,1504,400,7.29328,49.7895
287,624,7.23743,-49.1822,0.000242459,0.0164016,0.00721886,0.0191568,-0.0025127,1.2062,0.0136858,0.0113367,1511,400,7.23739,49.1822
294,624,7.18372,-48.5517,0.000797172,0.017911,0.00835646,0.0213145,-0.00260631,1.18402,0.0151533,0.010481,1518,400,7.18377,48.5517
301,624,7.12244,-47.8566,0.00138414,0.0193721,0.00953197,0.0234835,-0.00272723,1.16358,0.0166394,0.0133032,1525,400,7.12247,47.8566
308,624,7.11267,-47.1301,0.00208098,0.0209162,0.0107553,0.0257943,-0.0027971,1.14499,0.0182004,0.0205497,1532,400,7.11268,47.1301
315,624,7.1178,-46.4753,0.00284103,0.0225855,0.0120574,0.0282967,-0.00287013,1.12844,0.0198903,0.0255586,1539,400,7.1178,46.4753
322,624,7.05994,-45.8278,0.00354498,0.0239356,0.0134664,0.0306308,-0.00315017,1.10941,0.0215475,0.0437478,1546,400,7.05995,45.8278
329,624,7.01257,-45.1705,0,0,0,0,0,0,0,-1,1553,400,7.01253,45.1705
336,624,6.9054,-43.8964,0,0,0,0,0,0,0,-1,1560,400,6.90533,43.8964
343,624,6.53369,-39.5615,0,0,0,0,0,0,0,-1,1567,400,6.53364,39.5615
350,624,1.99194,-7.29742,0,0,0,0,0,0,0,-1,1574,400,1.99198,7.29741
357,624,2.64075,-3.13092,0,0,0,0,0,0,0,-1,1581,400,2.64076,3.13091
364,624,3.16565,-4.9458,0,0,0,0,0,0,0,-1,1588,400,3.16564,4.94579
371,624,3.37561,-5.23529,0,0,0,0,0,0,0,-1,1595,400,3.37563,5.23529
378,624,1.50439,-5.22165,0,0,0,0,0,0,0,-1,1602,400,1.50438,5.22164
385,624,1.2301,-10.5866,0,0,0,0,0,0,0,-1,1609,400,1.2301,10.5866
392,624,4.26819,-5.14236,0,0,0,0,0,0,0,-1,1616,400,4.26818,5.14236
399,624,2.22168,-9.19293,0,0,0,0,0,0,0,-1,1623,400,2.22173,9.19294
406,624,2.68213,-9.91171,0,0,0,0,0,0,0,-1,1630,400,2.68213,9.91171
413,624,0,0,0,0,0,0,0,0,0,-1,1637,400,0,0
420,624,0,0,0,0,0,0,0,0,0,-1,1644,400,0,0
427,624,0,0,0,0,0,0,0,0,0,-1,1651,400,0,0
434,624,0,0,0,0,0,0,0,0,0,-1,1658,400,0,0
441,624,0,0,0,0,0,0,0,0,0,-1,1665,400,0,0
448,624,0,0,0,0,0,0,0,0,0,-1,1672,400,0,0
455,624,0,0,0,0,0,0,0,0,0,-1,1679,400,0,0
462,624,0,0,0,0,0,0,0,0,0,-1,1686,400,0,0
469,624,0,0,0,0,0,0,0,0,0,-1,1693,400,0,0
476,624,0,0,0,0,0,0,0,0,0,-1,1700,400,0,0
483,624,0,0,0,0,0,0,0,0,0,-1,1707,400,0,0
490,624,0,0,0,0,0,0,0,0,0,-1,1714,400,0,0
497,624,0,0,0,0,0,0,0,0,0,-1,1721,400,0,0
504,624,0,0,0,0,0,0,0,0,0,-1,1728,400,0,0
511,624,0,0,0,0,0,0,0,0,0,-1,1735,400,0,0
518,624,0,0,0,0,0,0,0,0,0,-1,1742,400,0,0
525,624,0,0,0,0,0,0,0,0,0,-1,1749,400,0,0
532,624,0,0,0,0,0,0,0,0,0,-1,1756,400,0,0
539,624,0,0,0,0,0,0,0,0,0,-1,1763,400,0,0
546,624,0,0,0,0,0,0,0,0,0,-1,1770,400,0,0
553,624,0,0,0,0,0,0,0,0,0,-1,1777,400,0,0
560,624,0,0,0,0,0,0,0,0,0,-1,1784,400,0,0
567,624,0,0,0,0,0,0,0,0,0,-1,1791,400,0,0
574,624,0,0,0,0,0,0,0,0,0,-1,1798,400,0,0
581,624,0,0,0,0,0,0,0,0,0,-1,1805,400,0,0
588,624,0,0,0,0,0,0,0,0,0,-1,1812,400,0,0
595,624,0,0,0,0,0,0,0,0,0,-1,1819,400,0,0
602,624,0,0,0,0,0,0,0,0,0,-1,1826,400,0,0
609,624,0,0,0,0,0,0,0,0,0,-1,1833,400,0,0
616,624,0,0,0,0,0,0,0,0,0,-1,1840,400,0,0
623,624,0,0,0,0,0,0,0,0,0,-1,1847,400,0,0
630,624,0,0,0,0,0,0,0,0,0,-1,1854,400,0,0
637,624,0,0,0,0,0,0,0,0,0,-1,1861,400,0,0
644,624,0,0,0,0,0,0,0,0,0,-1,1868,400,0,0
651,624,0,0,0,0,0,0,0,0,0,-1,1875,400,0,0
658,624,0,0,0,0,0,0,0,0,0,-1,1882,400,0,0
665,624,0,0,0,0,0,0,0,0,0,-1,1889,400,0,0
672,624,0,0,0,0,0,0,0,0,0,-1,1896,400,0,0
679,624,0,0,0,0,0,0,0,0,0,-1,1903,400,0,0
686,624,0,0,0,0,0,0,0,0,0,-1,1910,400,0,0
693,624,0,0,0,0,0,0,0,0,0,-1,1917,400,0,0
700,624,0,0,0,0,0,0,0,0,0,-1,1924,400,0,0
707,624,0,0,0,0,0,0,0,0,0,-1,1931,400,0,0
714,624,0,0,0,0,0,0,0,0,0,-1,1938,400,0,0
721,624,0,0,0,0,0,0,0,0,0,-1,1945,400,0,0
728,624,0,0,0,0,0,0,0,0,0,-1,1952,400,0,0
735,624,0,0,0,0,0,0,0,0,0,-1,1959,400,0,0
742,624,0,0,0,0,0,0,0,0,0,-1,1966,400,0,0
749,624,0,0,0,0,0,0,0,0,0,-1,1973,400,0,0
756,624,0,0,0,0,0,0,0,0,0,-1,1980,400,0,0
763,624,0,0,0,0,0,0,0,0,0,-1,1987,400,0,0
770,624,0,0,0,0,0,0,0,0,0,-1,1994,400,0,0
777,624,0,0,0,0,0,0,0,0,0,-1,2001,400,0,0
784,624,0,0,0,0,0,0,0,0,0,-1,2008,400,0,0
791,624,0,0,0,0,0,0,0,0,0,-1,2015,400,0,0
798,624,0,0,0,0,0,0,0,0,0,-1,2022,400,0,0
805,624,0,0,0,0,0,0,0,0,0,-1,2029,400,0,0
812,624,0,0,0,0,0,0,0,0,0,-1,2036,400,0,0
-700,617,0,0,0,0,0,0,0,0,0,-1,524,407,0,0
-693,617,0,0,0,0,0,0,0,0,0,-1,531,407,0,0
-686,617,0,0,0,0,0,0,0,0,0,-1,538,407,0,0
-679,617,0,0,0,0,0,0,0,0,0,-1,545,407,0,0
-672,617,0,0,0,0,0,0,0,0,0,-1,552,407,0,0
-665,617,0,0,0,0,0,0,0,0,0,-1,559,407,0,0
-658,617,0,0,0,0,0,0,0,0,0,-1,566,407,0,0
-651,617,0,0,0,0,0,0,0,0,0,-1,573,407,0,0
-644,617,0,0,0,0,0,0,0,0,0,-1,580,407,0,0
-637,617,0,0,0,0,0,0,0,0,0,-1,587,407,0,0
-630,617,0,0,0,0,0,0,0,0,0,-1,594,407,0,0
-623,617,0,0,0,0,0,0,0,0,0,-1,601,407,0,0
-616,617,0,0,0,0,0,0,0,0,0,-1,608,407,0,0
-609,617,0,0,0,0,0,0,0,0,0,-1,615,407,0,0
-602,617,0,0,0,0,0,0,0,0,0,-1,622,407,0,0
-595,617,0,0,0,0,0,0,0,0,0,-1,629,407,0,0
-588,617,0,0,0,0,0,0,0,0,0,-1,636,407,0,0
-581,617,0,0,0,0,0,0,0,0,0,-1,643,407,0,0
-574,617,0,0,0,0,0,0,0,0,0,-1,650,407,0,0
-567,617,0,0,0,0,0,0,0,0,0,-1,657,407,0,0
-560,617,0,0,0,0,0,0,0,0,0,-1,664,407,0,0
-553,617,0,0,0,0,0,0,0,0,0,-1,671,407,0,0
-546,617,0,0,0,0,0,0,0,0,0,-1,678,407,0,0
-539,617,0,0,0,0,0,0,0,0,0,-1,685,407,0,0
-532,617,0,0,0,0,0,0,0,0,0,-1,692,407,0,0
-525,617,0,0,0,0,0,0,0,0,0,-1,699,407,0,0
-518,617,0,0,0,0,0,0,0,0,0,-1,706,407,0,0
-511,617,0,0,0,0,0,0,0,0,0,-1,713,407,0,0
-504,617,0,0,0,0,0,0,0,0,0,-1,720,407,0,0
-497,617,0,0,0,0,0,0,0,0,0,-1,727,407,0,0
-490,617,0,0,0,0,0,0,0,0,0,-1,734,407,0,0
-483,617,0,0,0,0,0,0,0,0,0,-1,741,407,0,0
-476,617,0,0,0,0,0,0,0,0,0,-1,748,407,0,0
-469,617,0,0,0,0,0,0,0,0,0,-1,755,407,0,0
-462,617,0,0,0,0,0,0,0,0,0,-1,762,407,0,0
-455,617,0,0,0,0,0,0,0,0,0,-1,769,407,0,0
-448,617,0,0,0,0,0,0,0,0,0,-1,776,407,0,0
-441,617,0,0,0,0,0,0,0,0,0,-1,783,407,0,0
-434,617,0,0,0,0,0,0,0,0,0,-1,790,407,0,0
-427,617,0,0,0,0,0,0,0,0,0,-1,797,407,0,0
-420,617,0,0,0,0,0,0,0,0,0,-1,804,407,0,0
-413,617,0,0,0,0,0,0,0,0,0,-1,811,407,0,0
-406,617,0,0,0,0,0,0,0,0,0,-1,818,407,0,0
-399,617,0,0,0,0,0,0,0,0,0,-1,825,407,0,0
-392,617,0,0,0,0,0,0,0,0,0,-1,832,407,0,0
-385,617,0,0,0,0,0,0,0,0,0,-1,839,407,0,0
-378,617,0,0,0,0,0,0,0,0,0,-1,846,407,0,0
-371,617,0,0,0,0,0,0,0,0,0,-1,853,407,0,0
-364,617,0,0,0,0,0,0,0,0,0,-1,860,407,0,0
-357,617,0,0,0,0,0,0,0,0,0,-1,867,407,0,0
-350,617,0,0,0,0,0,0,0,0,0,-1,874,407,0,0
-343,617,0,0,0,0,0,0,0,0,0,-1,881,407,0,0
-336,617,0,0,0,0,0,0,0,0,0,-1,888,407,0,0
-329,617,0,0,0,0,0,0,0,0,0,-1,895,407,0,0
-322,617,0,0,0,0,0,0,0,0,0,-1,902,407,0,0
-315,617,0,0,0,0,0,0,0,0,0,-1,909,407,0,0
-308,617,0,0,0,0,0,0,0,0,0,-1,916,407,0,0
-301,617,6.81897,-24.525,0,0,0,0,0,0,0,-1,923,407,6.81899,24.525
-294,617,6.19263,-26.917,0,0,0,0,0,0,0,-1,930,407,6.19261,26.917
-287,617,7.00409,-31.9773,0,0,0,0,0,0,0,-1,937,407,7.00406,31.9773
-280,617,9.1106,-36.5021,0,0,0,0,0,0,0,-1,944,407,9.11059,36.5021
-273,617,8.35004,-36.2751,0,0,0,0,0,0,0,-1,951,407,8.35003,36.2751
-266,617,7.61749,-36.1671,0,0,0,0,0,0,0,-1,958,407,7.61746,36.1671
-259,617,6.83643,-36.3605,0,0,0,0,0,0,0,-1,965,407,6.83643,36.3605
-252,617,6.02264,-36.5001,0,0,0,0,0,0,0,-1,972,407,6.02265,36.5001
-245,617,6.72626,-34.4465,0,0,0,0,0,0,0,-1,979,407,6.72627,34.4465
-238,617,5.6474,-34.6842,0,0,0,0,0,0,0,-1,986,407,5.64741,34.6842
-231,617,6.45605,-40.3772,0,0,0,0,0,0,0,-1,993,407,6.45605,40.3772
-224,617,6.59888,-43.0142,0,0,0,0,0,0,0,-1,1000,407,6.59888,43.0142
-217,617,6.78192,-43.9487,0,0,0,0,0,0,0,-1,1007,407,6.78193,43.9487
-210,617,6.77728,-44.7854,-0.000656584,0.0209923,-0.0114489,0.0259237,-0.00558797,-1.16408,0.0194151,0.035527,1014,407,6.77727,44.7854
-203,617,6.7207,-45.6188,-0.000621103,0.0187412,-0.0106768,0.0234725,-0.00535241,-1.15366,0.0177043,0.0233601,1021,407,6.72066,45.6188
-196,617,6.60608,-46.2076,-0.000550091,0.0167199,-0.00994765,0.0212576,-0.00508775,-1.14284,0.0161372,0.0200503,1028,407,6.60608,46.2075
-189,617,6.55078,-46.8572,-0.000498014,0.015237,-0.00942673,0.0196479,-0.00490899,-1.13314,0.015005,0.016849,1035,407,6.55079,46.8572
-182,617,6.53442,-47.5394,-0.000536156,0.0137564,-0.0087037,0.0178717,-0.00465149,-1.12912,0.0137302,0.0179474,1042,407,6.53441,47.5394
-175,617,6.52686,-48.1863,-0.000625787,0.0123811,-0.00789218,0.0161042,-0.00434884,-1.13001,0.0124417,0.0165977,1049,407,6.52685,48.1863
-168,617,6.44995,-48.873,-0.000819953,0.0108763,-0.00701868,0.014164,-0.00410759,-1.13274,0.0110689,0.0127317,1056,407,6.44994,48.873
-161,617,6.36829,-49.5333,-0.00093349,0.00954635,-0.006181,0.0124096,-0.00379675,-1.13699,0.0097873,0.0117439,1063,407,6.3683,49.5333
-154,617,6.34265,-50.1136,-0.000977455,0.00822416,-0.00533227,0.0106661,-0.00341941,-1.14134,0.00848346,0.0130227,1070,407,6.3426,50.1135
-147,617,6.3125,-50.6875,-0.000954572,0.00704199,-0.00455925,0.00910779,-0.00302037,-1.14537,0.00729028,0.0182869,1077,407,6.31244,50.6875
-140,617,6.27307,-51.2958,-0.000872112,0.00578423,-0.00383345,0.00753268,-0.00262056,-1.14288,0.00608636,0.0133037,1084,407,6.27309,51.2958
-133,617,6.24744,-51.8362,-0.000776298,0.00463006,-0.00317343,0.00609555,-0.00224179,-1.13817,0.00498203,0.0142588,1091,407,6.24749,51.8362
-126,617,6.21143,-52.3461,-0.000685682,0.00349155,-0.00250586,0.00466509,-0.00185922,-1.13281,0.00388119,0.0134062,1098,407,6.21146,52.3461
-119,617,6.17786,-52.8748,-0.00048462,0.0025212,-0.00187378,0.00342033,-0.00138375,-1.1234,0.00285551,0.0138901,1105,407,6.17789,52.8748
-112,617,6.14807,-53.3734,-0.000107224,0.00186761,-0.00143378,0.00262109,-0.000860705,-1.08694,0.00209411,0.0158856,1112,407,6.14806,53.3734
-105,617,6.12793,-53.8805,0.000303722,0.00139727,-0.00114692,0.00212108,-0.000420093,-1.00783,0.0015729,0.0171805,1119,407,6.12796,53.8804
-98,617,6.13562,-54.3647,0.000730324,0.000997943,-0.000902173,0.00177618,-4.79084e-05,-0.859021,0.00120041,0.0141723,1126,407,6.13558,54.3647
-91,617,6.13098,-54.8474,0.00125967,0.000729022,-0.000694867,0.00173815,0.000250548,-0.603024,0.00108493,0.0202973,1133,407,6.13104,54.8474
-84,617,6.14807,-55.3292,0.00187807,0.000425103,-0.000438419,0.00200011,0.000303065,-0.271488,0.00124474,0.0195564,1140,407,6.14805,55.3292
-77,617,6.13574,-55.7398,0.00245677,0.00017556,-0.00022022,0.00247783,0.000154495,-0.095363,0.00160288,0.014489,1147,407,6.13574,55.7398
-70,617,6.16443,-56.1778,0.00309622,-0.00028853,4.30842e-05,0.00309676,-0.000289078,0.0127262,0.0021673,0.017886,1154,407,6.16448,56.1778
-63,617,6.22083,-56.6338,0.00386312,-0.000993089,0.000323504,0.00388458,-0.00101455,0.0662264,0.00298592,0.0223638,1161,407,6.22077,56.6337
-56,617,6.17725,-56.9995,0.00443452,-0.00185111,0.000624539,0.00449598,-0.00191257,0.098082,0.00379886,0.0161006,1168,407,6.17723,56.9995
-49,617,6.198,-57.3605,0.00490552,-0.0026577,0.000870043,0.00500432,-0.0027565,0.113068,0.00454292,0.011808,1175,407,6.19806,57.3605
-42,617,6.22888,-57.7087,0.00548453,-0.00347369,0.00110855,0.00561967,-0.00360883,0.121309,0.00537008,0.012338,1182,407,6.22891,57.7087
-35,617,6.2749,-58.0091,0.0060429,-0.00418905,0.00123524,0.00618991,-0.00433606,0.118457,0.00610851,0.0166463,1189,407,6.27496,58.0091
-28,617,6.26196,-58.3074,0.00647248,-0.00560403,0.00129235,0.00660923,-0.00574078,0.105423,0.00713615,0.0194064,1196,407,6.26191,58.3074
-21,617,6.31055,-58.5744,0.00687998,-0.00716324,0.00121324,0.00698403,-0.00726729,0.0855489,0.00822854,0.014261,1203,407,6.3105,58.5744
-14,617,6.36047,-58.8355,0.00723082,-0.00830837,0.00102699,0.0072984,-0.00837595,0.0657097,0.00905671,0.0158723,1210,407,6.36046,58.8355
-7,617,6.39197,-58.9874,0.007403,-0.0101384,0.000783599,0.00743794,-0.0101733,0.0445532,0.0102086,0.0199645,1217,407,6.39199,58.9874
0,617,6.44177,-59.2047,0.00756294,-0.0116305,0.00070811,0.00758903,-0.0116566,0.0368267,0.0111939,0.0187934,1224,407,6.44176,59.2047
7,617,6.53381,-59.4928,0.00766269,-0.0130543,0.000599764,0.00768004,-0.0130716,0.0289181,0.012115,0.0135636,1231,407,6.53376,59.4928
14,617,6.59875,-59.7188,0.00764615,-0.0143784,0.000540602,0.00765942,-0.0143916,0.0245258,0.0129274,0.0159109,1238,407,6.59878,59.7188
21,617,6.66858,-59.8487,0.0077087,-0.0155575,0.000518976,0.00772027,-0.015569,0.0222913,0.0136983,0.0152911,1245,407,6.66857,59.8487
28,617,6.72449,-59.9979,0.00785476,-0.0166077,0.000606025,0.00786976,-0.0166227,0.0247534,0.0144386,0.0135344,1252,407,6.72454,59.9979
35,617,6.73669,-60.1043,0.00785982,-0.0172334,0.000691834,0.00787888,-0.0172524,0.0275427,0.0148422,0.0154182,1259,407,6.7367,60.1043
42,617,6.81299,-60.1519,0.00791673,-0.0171991,0.000820449,0.0079435,-0.0172259,0.0326202,0.0148573,0.0223332,1266,407,6.81299,60.1519
49,617,6.9115,-60.2025,0.00816598,-0.0167141,0.000936985,0.00820122,-0.0167494,0.037589,0.0146843,0.0222838,1273,407,6.91151,60.2025
56,617,7.02209,-60.2502,0.00847854,-0.0159869,0.00102268,0.00852122,-0.0160296,0.0417041,0.0143937,0.0154247,1280,407,7.02211,60.2501
63,617,7.06189,-60.286,0.00880272,-0.0149854,0.000939769,0.00883979,-0.0150224,0.039424,0.0139301,0.0120053,1287,407,7.06192,60.286
70,617,7.09729,-60.3279,0.00914156,-0.0139264,0.000702387,0.00916292,-0.0139478,0.030411,0.013438,0.0177892,1294,407,7.09732,60.3279
77,617,7.23096,-60.2513,0.0095422,-0.0121655,0.000401323,0.00954962,-0.0121729,0.0184792,0.012572,0.0156975,1301,407,7.23098,60.2513
84,617,7.30896,-60.1542,0.0100205,-0.0110866,5.77309e-05,0.0100206,-0.0110868,0.00273512,0.0121915,0.0124654,1308,407,7.30892,60.1542
91,617,7.33826,-60.0934,0.0101176,-0.0110283,-0.000441476,0.0101268,-0.0110375,-0.0208656,0.0122229,0.0120777,1315,407,7.33826,60.0933
98,617,7.41833,-60.0121,0.0100682,-0.0104719,-0.000900757,0.0101076,-0.0105113,-0.0437418,0.0119051,0.0129875,1322,407,7.41836,60.012
105,617,7.49634,-59.8669,0.00998637,-0.0106847,-0.00139978,0.0100807,-0.0107791,-0.0673071,0.0120457,0.0141153,1329,407,7.49634,59.8669
112,617,7.58606,-59.7164,0.0099082,-0.0109914,-0.00168822,0.0100437,-0.0111269,-0.0800856,0.0122282,0.0168945,1336,407,7.58609,59.7164
119,617,7.61853,-59.5308,0.00977972,-0.0111352,-0.00187486,0.00994646,-0.0113019,-0.0886999,0.0122761,0.0189281,1343,407,7.61848,59.5308
126,617,7.65186,-59.3318,0.00944865,-0.0110278,-0.00208885,0.00965956,-0.0112387,-0.100631,0.0120771,0.0216645,1350,407,7.65188,59.3318
133,617,7.71008,-59.1114,0.00895376,-0.0105683,-0.00223356,0.00920605,-0.0108205,-0.112476,0.0115749,0.0200773,1357,407,7.71004,59.1114
140,617,7.771,-58.8673,0.00849216,-0.0100741,-0.00219951,0.00874917,-0.0103311,-0.116323,0.0110286,0.0175912,1364,407,7.77094,58.8673
147,617,7.76892,-58.5342,0.0080015,-0.00957503,-0.00215558,0.008262,-0.00983552,-0.120266,0.0104618,0.0216745,1371,407,7.76888,58.5342
154,617,7.84375,-58.2596,0.00743378,-0.00877018,-0.00213456,0.00771025,-0.00904665,-0.128804,0.00968485,0.0248227,1378,407,7.84372,58.2596
161,617,7.94861,-58.0268,0.00683854,-0.00755816,-0.00205211,0.00712534,-0.00784496,-0.138857,0.00864643,0.0249566,1385,407,7.94864,58.0268
168,617,8.03271,-57.7305,0.00618606,-0.00619069,-0.0018811,0.00646565,-0.00647028,-0.147549,0.00746856,0.0221591,1392,407,8.03269,57.7305
175,617,8.04761,-57.3473,0.00551327,-0.00475726,-0.00168138,0.00578152,-0.00502552,-0.158209,0.00624453,0.0176769,1399,407,8.04765,57.3473
182,617,8.03784,-56.9401,0.00478324,-0.0034218,-0.00146566,0.00503719,-0.00367575,-0.171563,0.00505085,0.0121545,1406,407,8.03783,56.9401
189,617,8.02637,-56.5266,0.00397969,-0.00194713,-0.00118871,0.00420921,-0.00217665,-0.190739,0.00374862,0.0117313,1413,407,8.02642,56.5266
196,617,8.01282,-56.1123,0.00342361,-0.000556416,-0.000783312,0.00357222,-0.000705031,-0.187498,0.00264797,0.0157506,1420,407,8.01281,56.1123
203,617,8.01807,-55.693,0.00293146,0.000602139,-0.000411223,0.00300192,0.000531672,-0.16971,0.00184971,0.0168165,1427,407,8.01808,55.693
210,617,8.05298,-55.207,0.00225532,0.00146333,-4.02481e-05,0.00225736,0.00146129,-0.0506452,0.00132202,0.0152842,1434,407,8.05293,55.207
217,617,8.03845,-54.7062,0.00162425,0.00226686,0.00034925,0.00242012,0.00147099,1.15727,0.00140804,0.0196413,1441,407,8.03841,54.7062
224,617,8.04016,-54.23,0.00116066,0.00306289,0.000733941,0.00331315,0.000910409,1.24219,0.00197647,0.0203286,1448,407,8.04021,54.23
231,617,8.05847,-53.7627,0.000847911,0.00379635,0.00122022,0.00423583,0.000408428,1.22509,0.00269807,0.0159285,1455,407,8.0585,53.7627
238,617,8.06104,-53.2733,0.000629009,0.00453502,0.00162343,0.00512165,4.23798e-05,1.22404,0.00340039,0.0167137,1462,407,8.06106,53.2732
245,617,8.04089,-52.74,0.000363793,0.00535664,0.00190969,0.00600331,-0.000282877,1.24429,0.00409976,0.0134201,1469,407,8.04093,52.74
252,617,8.00195,-52.1569,0.000141842,0.0062867,0.00222023,0.00700496,-0.000576408,1.25792,0.00487348,0.0140995,1476,407,8.00189,52.1569
259,617,7.9696,-51.5932,9.9146e-05,0.00744785,0.00279048,0.00838735,-0.000840354,1.24604,0.0058917,0.0121043,1483,407,7.96957,51.5932
266,617,7.95105,-50.9935,-2.82588e-05,0.00838664,0.00329117,0.00952096,-0.00116258,1.23889,0.00676819,0.0145463,1490,407,7.95107,50.9935
273,617,7.91199,-50.3809,-5.81009e-05,0.00949432,0.00389067,0.0108784,-0.0014422,1.22901,0.00777772,0.0152906,1497,407,7.91195,50.3809
280,617,7.86597,-49.7818,0.000104228,0.0106568,0.00460165,0.0123816,-0.00162051,1.21219,0.00884418,0.0136615,1504,407,7.86596,49.7818
287,617,7.81482,-49.1597,0.000436038,0.0120245,0.00550952,0.0142257,-0.00176523,1.19069,0.0101237,0.012679,1511,407,7.81478,49.1597
294,617,7.77808,-48.5417,0.000717027,0.013288,0.00639301,0.0159679,-0.00196285,1.17386,0.0113562,0.0105039,1518,407,7.77808,48.5418
301,617,7.72839,-47.9147,0.00101584,0.0145096,0.00728937,0.0176953,-0.00216981,1.15878,0.0125826,0.0083892,1525,407,7.72841,47.9147
308,617,7.66455,-47.2534,0.0013962,0.0158002,0.00821143,0.0195205,-0.00232408,1.1454,0.0138535,0.00910744,1532,407,7.6646,47.2534
315,617,7.61157,-46.5985,0.00179339,0.0171222,0.00916458,0.0214049,-0.00248928,1.13364,0.0151679,0.0106224,1539,407,7.61155,46.5985
322,617,7.54626,-45.8964,0.00211082,0.0182363,0.0101501,0.0231362,-0.00278915,1.12104,0.016433,0.016688,1546,407,7.54624,45.8964
329,617,7.52173,-45.1723,0.00225339,0.0195897,0.0111259,0.0250256,-0.00318247,1.11633,0.0178394,0.0223841,1553,407,7.52176,45.1723
336,617,7.60559,-44.2899,0.00224821,0.0214005,0.0120629,0.0272262,-0.00357748,1.12089,0.0194533,0.0454796,1560,407,7.60557,44.2899
343,617,7.34033,-43.8901,0,0,0,0,0,0,0,-1,1567,407,7.34028,43.8901
350,617,7.22412,-42.9838,0,0,0,0,0,0,0,-1,1574,407,7.22413,42.9838
357,617,7.15796,-41.9407,0,0,0,0,0,0,0,-1,1581,407,7.15799,41.9407
364,617,7.59924,-38.6995,0,0,0,0,0,0,0,-1,1588,407,7.59927,38.6995
371,617,2.60266,-6.20667,0,0,0,0,0,0,0,-1,1595,407,2.60261,6.20668
378,617,1.56921,-10.3601,0,0,0,0,0,0,0,-1,1602,407,1.56918,10.3601
385,617,1.74146,-10.3561,0,0,0,0,0,0,0,-1,1609,407,1.7414,10.3561
392,617,1.96936,-5.10449,0,0,0,0,0,0,0,-1,1616,407,1.96931,5.10451
399,617,2.48889,-5.81256,0,0,0,0,0,0,0,-1,1623,407,2.48888,5.81255
406,617,3.01465,-6.51642,0,0,0,0,0,0,0,-1,1630,407,3.01461,6.51643
413,617,3.6427,-7.2074,0,0,0,0,0,0,0,-1,1637,407,3.64274,7.20739
420,617,3.42737,-4.47391,0,0,0,0,0,0,0,-1,1644,407,3.42737,4.47391
427,617,0,0,0,0,0,0,0,0,0,-1,1651,407,0,0
434,617,0,0,0,0,0,0,0,0,0,-1,1658,407,0,0
441,617,0,0,0,0,0,0,0,0,0,-1,1665,407,0,0
448,617,0,0,0,0,0,0,0,0,0,-1,1672,407,0,0
455,617,0,0,0,0,0,0,0,0,0,-1,1679,407,0,0
462,617,0,0,0,0,0,0,0,0,0,-1,1686,407,0,0
469,617,0,0,0,0,0,0,0,0,0,-1,1693,407,0,0
476,617,0,0,0,0,0,0,0,0,0,-1,1700,407,0,0
483,617,0,0,0,0,0,0,0,0,0,-1,1707,407,0,0
490,617,0,0,0,0,0,0,0,0,0,-1,1714,407,0,0
497,617,0,0,0,0,0,0,0,0,0,-1,1721,407,0,0
504,617,0,0,0,0,0,0,0,0,0,-1,1728,407,0,0
511,617,0,0,0,0,0,0,0,0,0,-1,1735,407,0,0
518,617,0,0,0,0,0,0,0,0,0,-1,1742,407,0,0
525,617,0,0,0,0,0,0,0,0,0,-1,1749,407,0,0
532,617,0,0,0,0,0,0,0,0,0,-1,1756,407,0,0
539,617,0,0,0,0,0,0,0,0,0,-1,1763,407,0,0
546,617,0,0,0,0,0,0,0,0,0,-1,1770,407,0,0
553,617,0,0,0,0,0,0,0,0,0,-1,1777,407,0,0
560,617,0,0,0,0,0,0,0,0,0,-1,1784,407,0,0
567,617,0,0,0,0,0,0,0,0,0,-1,1791,407,0,0
574,617,0,0,0,0,0,0,0,0,0,-1,1798,407,0,0
581,617,0,0,0,0,0,0,0,0,0,-1,1805,407,0,0
588,617,0,0,0,0,0,0,0,0,0,-1,1812,407,0,0
595,617,0,0,0,0,0,0,0,0,0,-1,1819,407,0,0
602,617,0,0,0,0,0,0,0,0,0,-1,1826,407,0,0
609,617,0,0,0,0,0,0,0,0,0,-1,1833,407,0,0
616,617,0,0,0,0,0,0,0,0,0,-1,1840,407,0,0
623,617,0,0,0,0,0,0,0,0,0,-1,1847,407,0,0
630,617,0,0,0,0,0,0,0,0,0,-1,1854,407,0,0
637,617,0,0,0,0,0,0,0,0,0,-1,1861,407,0,0
644,617,0,0,0,0,0,0,0,0,0,-1,1868,407,0,0
651,617,0,0,0,0,0,0,0,0,0,-1,1875,407,0,0
658,617,0,0,0,0,0,0,0,0,0,-1,1882,407,0,0
665,617,0,0,0,0,0,0,0,0,0,-1,1889,407,0,0
672,617,0,0,0,0,0,0,0,0,0,-1,1896,407,0,0
679,617,0,0,0,0,0,0,0,0,0,-1,1903,407,0,0
686,617,0,0,0,0,0,0,0,0,0,-1,1910,407,0,0
693,617,0,0,0,0,0,0,0,0,0,-1,1917,407,0,0
700,617,0,0,0,0,0,0,0,0,0,-1,1924,407,0,0
707,617,0,0,0,0,0,0,0,0,0,-1,1931,407,0,0
714,617,0,0,0,0,0,0,0,0,0,-1,1938,407,0,0
721,617,0,0,0,0,0,0,0,0,0,-1,1945,407,0,0
728,617,0,0,0,0,0,0,0,0,0,-1,1952,407,0,0
735,617,0,0,0,0,0,0,0,0,0,-1,1959,407,0,0
742,617,0,0,0,0,0,0,0,0,0,-1,1966,407,0,0
749,617,0,0,0,0,0,0,0,0,0,-1,1973,407,0,0
756,617,0,0,0,0,0,0,0,0,0,-1,1980,407,0,0
763,617,0,0,0,0,0,0,0,0,0,-1,1987,407,0,0
770,617,0,0,0,0,0,0,0,0,0,-1,1994,407,0,0
777,617,0,0,0,0,0,0,0,0,0,-1,2001,407,0,0
784,617,0,0,0,0,0,0,0,0,0,-1,2008,407,0,0
791,617,0,0,0,0,0,0,0,0,0,-1,2015,407,0,0
798,617,0,0,0,0,0,0,0,0,0,-1,2022,407,0,0
805,617,0,0,0,0,0,0,0,0,0,-1,2029,407,0,0
812,617,0,0,0,0,0,0,0,0,0,-1,2036,407,0,0
-700,610,0,0,0,0,0,0,0,0,0,-1,524,414,0,0
-693,610,0,0,0,0,0,0,0,0,0,-1,531,414,0,0
-686,610,0,0,0,0,0,0,0,0,0,-1,538,414,0,0
-679,610,0,0,0,0,0,0,0,0,0,-1,545,414,0,0
-672,610,0,0,0,0,0,0,0,0,0,-1,552,414,0,0
-665,610,0,0,0,0,0,0,0,0,0,-1,559,414,0,0
-658,610,0,0,0,0,0,0,0,0,0,-1,566,414,0,0
-651,610,0,0,0,0,0,0,0,0,0,-1,573,414,0,0
-644,610,0,0,0,0,0,0,0,0,0,-1,580,414,0,0
-637,610,0,0,0,0,0,0,0,0,0,-1,587,414,0,0
-630,610,0,0,0,0,0,0,0,0,0,-1,594,414,0,0
-623,610,0,0,0,0,0,0,0,0,0,-1,601,414,0,0
-616,610,0,0,0,0,0,0,0,0,0,-1,608,414,0,0
-609,610,0,0,0,0,0,0,0,0,0,-1,615,414,0,0
-602,610,0,0,0,0,0,0,0,0,0,-1,622,414,0,0
-595,610,0,0,0,0,0,0,0,0,0,-1,629,414,0,0
-588,610,0,0,0,0,0,0,0,0,0,-1,636,414,0,0
-581,610,0,0,0,0,0,0,0,0,0,-1,643,414,0,0
-574,610,0,0,0,0,0,0,0,0,0,-1,650,414,0,0
-567,610,0,0,0,0,0,0,0,0,0,-1,657,414,0,0
-560,610,0,0,0,0,0,0,0,0,0,-1,664,414,0,0
-553,610,0,0,0,0,0,0,0,0,0,-1,671,414,0,0
-546,610,0,0,0,0,0,0,0,0,0,-1,678,414,0,0
-539,610,0,0,0,0,0,0,0,0,0,-1,685,414,0,0
-532,610,0,0,0,0,0,0,0,0,0,-1,692,414,0,0
-525,610,0,0,0,0,0,0,0,0,0,-1,699,414,0,0
-518,610,0,0,0,0,0,0,0,0,0,-1,706,414,0,0
-511,610,0,0,0,0,0,0,0,0,0,-1,713,414,0,0
-504,610,0,0,0,0,0,0,0,0,0,-1,720,414,0,0
-497,610,0,0,0,0,0,0,0,0,0,-1,727,414,0,0
-490,610,0,0,0,0,0,0,0,0,0,-1,734,414,0,0
-483,610,0,0,0,0,0,0,0,0,0,-1,741,414,0,0
-476,610,0,0,0,0,0,0,0,0,0,-1,748,414,0,0
-469,610,0,0,0,0,0,0,0,0,0,-1,755,414,0,0
-462,610,0,0,0,0,0,0,0,0,0,-1,762,414,0,0
-455,610,0,0,0,0,0,0,0,0,0,-1,769,414,0,0
-448,610,0,0,0,0,0,0,0,0,0,-1,776,414,0,0
-441,610,0,0,0,0,0,0,0,0,0,-1,783,414,0,0
-434,610,0,0,0,0,0,0,0,0,0,-1,790,414,0,0
-427,610,0,0,0,0,0,0,0,0,0,-1,797,414,0,0
-420,610,0,0,0,0,0,0,0,0,0,-1,804,414,0,0
-413,610,0,0,0,0,0,0,0,0,0,-1,811,414,0,0
-406,610,0,0,0,0,0,0,0,0,0,-1,818,414,0,0
-399,610,0,0,0,0,0,0,0,0,0,-1,825,414,0,0
-392,610,0,0,0,0,0,0,0,0,0,-1,832,414,0,0
-385,610,0,0,0,0,0,0,0,0,0,-1,839,414,0,0
-378,610,0,0,0,0,0,0,0,0,0,-1,846,414,0,0
-371,610,0,0,0,0,0,0,0,0,0,-1,853,414,0,0
-364,610,0,0,0,0,0,0,0,0,0,-1,860,414,0,0
-357,610,0,0,0,0,0,0,0,0,0,-1,867,414,0,0
-350,610,0,0,0,0,0,0,0,0,0,-1,874,414,0,0
-343,610,0,0,0,0,0,0,0,0,0,-1,881,414,0,0
-336,610,0,0,0,0,0,0,0,0,0,-1,888,414,0,0
-329,610,0,0,0,0,0,0,0,0,0,-1,895,414,0,0
-322,610,0,0,0,0,0,0,0,0,0,-1,902,414,0,0
-315,610,7.68475,-21.5402,0,0,0,0,0,0,0,-1,909,414,7.68475,21.5402
-308,610,3.97211,-23.4133,0,0,0,0,0,0,0,-1,916,414,3.9721,23.4133
-301,610,7.38513,-22.4166,0,0,0,0,0,0,0,-1,923,414,7.38516,22.4166
-294,610,6.77832,-24.1945,0,0,0,0,0,0,0,-1,930,414,6.77829,24.1946
-287,610,3.39276,-28.5804,0,0,0,0,0,0,0,-1,937,414,3.39276,28.5803
-280,610,8.8728,-35.4336,0,0,0,0,0,0,0,-1,944,414,8.87283,35.4336
-273,610,8.14722,-35.5264,0,0,0,0,0,0,0,-1,951,414,8.14723,35.5264
-266,610,7.38361,-35.6366,0,0,0,0,0,0,0,-1,958,414,7.38359,35.6366
-259,610,6.47375,-35.762,0,0,0,0,0,0,0,-1,965,414,6.47373,35.762
-252,610,5.65308,-35.8931,0,0,0,0,0,0,0,-1,972,414,5.65305,35.8931
-245,610,6.78363,-41.0206,0,0,0,0,0,0,0,-1,979,414,6.7836,41.0206
-238,610,6.29858,-41.8272,0,0,0,0,0,0,0,-1,986,414,6.29861,41.8272
-231,610,6.13586,-42.4715,0,0,0,0,0,0,0,-1,993,414,6.13584,42.4715
-224,610,6.12329,-43.2736,-0.00119061,0.0200733,-0.00982228,0.023916,-0.00503331,-1.19788,0.0178598,0.0312782,1000,414,6.12329,43.2736
-217,610,6.16248,-44.1159,-0.000768751,0.0180684,-0.00931471,0.0218964,-0.00459681,-1.18087,0.0163468,0.0217606,1007,414,6.16247,44.1159
-210,610,6.13092,-44.9447,-0.000565037,0.0162376,-0.00868313,0.0199184,-0.0042459,-1.16985,0.0148973,0.0156453,1014,414,6.1309,44.9447
-203,610,6.1012,-45.6531,-0.000437301,0.0143917,-0.00803388,0.0179097,-0.00395523,-1.15806,0.0134534,0.0174996,1021,414,6.10115,45.6531
-196,610,6.02893,-46.3048,-0.000318974,0.0126596,-0.00741246,0.016022,-0.00368136,-1.14494,0.0120966,0.0158034,1028,414,6.02895,46.3048
-189,610,5.97668,-46.9392,-0.000188904,0.011234,-0.00696384,0.014529,-0.00348388,-1.12885,0.0110322,0.0126882,1035,414,5.97667,46.9393
-182,610,5.94336,-47.5592,-0.000107899,0.00984619,-0.0063534,0.0129399,-0.00320159,-1.11766,0.00986844,0.0137256,1042,414,5.94334,47.5592
-175,610,5.91577,-48.1921,-7.06694e-05,0.00855124,-0.00567694,0.0113685,-0.00288797,-1.11014,0.0087029,0.0158231,1049,414,5.91581,48.1921
-168,610,5.8313,-48.8654,-0.000142307,0.00716131,-0.00494748,0.00965875,-0.00263975,-1.10332,0.00747608,0.0147231,1056,414,5.83124,48.8654
-161,610,5.78625,-49.5389,-0.000150781,0.00593447,-0.00424437,0.00811413,-0.00233044,-1.09637,0.00633086,0.0130248,1063,414,5.78622,49.5389
-154,610,5.79346,-50.1185,-8.48848e-05,0.00474661,-0.00352927,0.00660773,-0.001946,-1.08552,0.0051772,0.0154621,1070,414,5.79341,50.1185
-147,610,5.75427,-50.6558,4.95619e-05,0.00370436,-0.00287807,0.00528616,-0.00153224,-1.06826,0.00413069,0.019248,1077,414,5.75423,50.6558
-140,610,5.71545,-51.2498,0.000233748,0.00261021,-0.00226187,0.00397696,-0.001133,-1.02725,0.00309881,0.0142171,1084,414,5.71548,51.2498
-133,610,5.70703,-51.7951,0.00043423,0.00163894,-0.00170954,0.00284914,-0.000775968,-0.954781,0.00220409,0.0147655,1091,414,5.70699,51.7951
-126,610,5.6792,-52.3159,0.000655596,0.000759273,-0.00118403,0.0018926,-0.000477733,-0.807275,0.0014475,0.0128768,1098,414,5.67915,52.3159
-119,610,5.66394,-52.8558,0.00102135,7.1033e-05,-0.000734103,0.00142065,-0.000328269,-0.498173,0.00107339,0.0107687,1105,414,5.66392,52.8558
-112,610,5.67139,-53.3602,0.00149712,-0.000364399,-0.000421472,0.0015881,-0.000455379,-0.212601,0.00123875,0.0187813,1112,414,5.6714,53.3602
-105,610,5.64355,-53.8622,0.00197171,-0.000619883,-0.000218914,0.00199007,-0.000638245,-0.083681,0.00158295,0.0195392,1119,414,5.64351,53.8623
-98,610,5.66455,-54.3622,0.00247763,-0.000842568,-4.65306e-05,0.00247829,-0.00084322,-0.0140107,0.00199362,0.0141203,1126,414,5.66452,54.3622
-91,610,5.67212,-54.8423,0.00313964,-0.000940376,8.98422e-05,0.00314162,-0.000942354,0.0220059,0.00246921,0.0156859,1133,414,5.67218,54.8422
-84,610,5.68591,-55.2885,0.00393071,-0.000969228,0.000260397,0.00394451,-0.000983027,0.0529442,0.00301132,0.0157514,1140,414,5.68589,55.2885
-77,610,5.67834,-55.7563,0.00468076,-0.00117539,0.000434847,0.00471287,-0.00120751,0.0737159,0.00361233,0.0126407,1147,414,5.67832,55.7564
-70,610,5.71985,-56.199,0.00551992,-0.00178096,0.000737434,0.00559366,-0.0018547,0.0996649,0.00447728,0.0163392,1154,414,5.71989,56.199
-63,610,5.771,-56.5944,0.00650605,-0.00271484,0.00104539,0.00662308,-0.00283187,0.111487,0.00560319,0.0168341,1161,414,5.77099,56.5944
-56,610,5.82422,-56.968,0.00714482,-0.00384353,0.00138288,0.00731618,-0.0040149,0.123289,0.00663391,0.0144724,1168,414,5.82419,56.968
-49,610,5.84424,-57.3178,0.00763631,-0.00483795,0.00163607,0.00784731,-0.00504896,0.128266,0.00750387,0.0136743,1175,414,5.84428,57.3178
-42,610,5.86365,-57.6592,0.00828043,-0.00586244,0.00190036,0.00853133,-0.00611334,0.131267,0.00849343,0.0162868,1182,414,5.86371,57.6592
-35,610,5.94202,-57.9933,0.00890129,-0.00672671,0.00202651,0.0091598,-0.00698521,0.126876,0.00934947,0.0164141,1189,414,5.94198,57.9933
-28,610,5.99817,-58.2849,0.00934898,-0.00861906,0.00206237,0.00958266,-0.00885274,0.112825,0.0106465,0.0138564,1196,414,5.9982,58.2849
-21,610,6.05054,-58.5351,0.00977335,-0.0107379,0.00193026,0.00995343,-0.0109179,0.0930194,0.0120544,0.0115651,1203,414,6.05058,58.5351
-14,610,6.10754,-58.7803,0.0101307,-0.0123023,0.00162738,0.0102481,-0.0124198,0.0720415,0.0131073,0.0131067,1210,414,6.10754,58.7803
-7,610,6.18445,-58.9708,0.0102067,-0.0148401,0.00123274,0.0102672,-0.0149006,0.0490594,0.0146125,0.0162153,1217,414,6.18449,58.9708
0,610,6.24121,-59.2047,0.0102515,-0.0169288,0.00109326,0.0102954,-0.0169727,0.0401359,0.0158998,0.0137359,1224,414,6.24124,59.2047
7,610,6.32751,-59.4757,0.010261,-0.0189844,0.000911731,0.0102894,-0.0190128,0.0311349,0.0171657,0.0165046,1231,414,6.32752,59.4757
14,610,6.51001,-59.6041,0.0101485,-0.0208762,0.000800971,0.0101691,-0.0208969,0.0257943,0.018289,0.0235473,1238,414,6.50996,59.6041
21,610,6.58484,-59.7189,0.0101395,-0.0225671,0.000736978,0.0101561,-0.0225837,0.0225178,0.0193509,0.0236026,1245,414,6.58478,59.7189
28,610,6.55542,-59.8823,0.0102126,-0.0240137,0.000847074,0.0102335,-0.0240347,0.024729,0.0203126,0.0207414,1252,414,6.55538,59.8823
35,610,6.74963,-59.9774,0.0101555,-0.0248366,0.000962504,0.010182,-0.0248631,0.0274786,0.0208167,0.0225555,1259,414,6.74967,59.9774
42,610,6.75305,-60.0252,0.0102263,-0.0247057,0.00114199,0.0102636,-0.024743,0.0326453,0.0207794,0.0204835,1266,414,6.75309,60.0252
49,610,6.83203,-60.2097,0,0,0,0,0,0,0,-1,1273,414,6.83209,60.2097
56,610,6.89026,-60.1785,0.0110125,-0.0227778,0.00145598,0.0110752,-0.0228404,0.0429824,0.01997,0.0198127,1280,414,6.89031,60.1785
63,610,6.96899,-60.199,0.0114907,-0.0212365,0.00134249,0.0115456,-0.0212915,0.0409288,0.0192348,0.02783,1287,414,6.96904,60.199
70,610,7.11096,-60.1719,0.0120186,-0.0197058,0.000971951,0.0120483,-0.0197355,0.0305991,0.0185285,0.0396139,1294,414,7.11094,60.1719
77,610,7.26538,-59.9556,0.0126322,-0.0171926,0.000517473,0.0126411,-0.0172015,0.0173435,0.0172966,0.0439153,1301,414,7.26537,59.9556
84,610,7.36121,-59.9855,0.0133891,-0.0157952,1.52553e-05,0.0133891,-0.0157952,0.000522722,0.0168686,0.0405419,1308,414,7.36116,59.9855
91,610,7.38513,-60.0941,0.0136114,-0.0159536,-0.000722807,0.013629,-0.0159713,-0.0244287,0.0171075,0.031268,1315,414,7.3851,60.0941
98,610,7.56689,-60.0262,0.0136325,-0.015279,-0.00139958,0.0137001,-0.0153465,-0.048259,0.016779,0.0270814,1322,414,7.56688,60.0262
105,610,7.67761,-59.8268,0.0135949,-0.0156801,-0.00215106,0.0137521,-0.0158373,-0.0729556,0.0170976,0.021904,1329,414,7.67763,59.8268
112,610,7.74658,-59.6404,0.013503,-0.0162173,-0.00259749,0.0137283,-0.0164426,-0.0865237,0.0174427,0.0142241,1336,414,7.74657,59.6404
119,610,7.8219,-59.4548,0.0133198,-0.0165608,-0.00289685,0.0135981,-0.016839,-0.0957592,0.017606,0.0197557,1343,414,7.8219,59.4548
126,610,7.92004,-59.2872,0.0129225,-0.0165307,-0.00321961,0.0132704,-0.0168786,-0.107619,0.017448,0.0286504,1350,414,7.92003,59.2872
133,610,7.98535,-59.1143,0.0123365,-0.0160171,-0.00345749,0.012752,-0.0164326,-0.119607,0.0168944,0.0230207,1357,414,7.98539,59.1143
140,610,8.09265,-58.8802,0.0117567,-0.0154408,-0.00346673,0.0121916,-0.0158758,-0.124807,0.0162512,0.0199331,1364,414,8.09264,58.8802
147,610,8.08276,-58.5349,0.0111491,-0.0148508,-0.00345957,0.0116016,-0.0153033,-0.130047,0.0155824,0.0215711,1371,414,8.08279,58.5348
154,610,8.09802,-58.1957,0.0104578,-0.0138486,-0.00348305,0.0109471,-0.0143379,-0.139557,0.014642,0.0262064,1378,414,8.09801,58.1957
161,610,8.25305,-57.9437,0.00974218,-0.0123327,-0.00344319,0.0102668,-0.0128573,-0.151195,0.0133786,0.0291545,1385,414,8.25303,57.9437
168,610,8.36047,-57.6512,0.00897954,-0.0105896,-0.00330274,0.00952192,-0.011132,-0.162769,0.0119366,0.0266529,1392,414,8.36047,57.6512
175,610,8.396,-57.3127,0.00819582,-0.00877449,-0.00312119,0.00875167,-0.00933033,-0.17624,0.0104414,0.0214564,1399,414,8.39599,57.3127
182,610,8.42993,-56.9233,0.00733512,-0.00712755,-0.00290707,0.00789758,-0.00769001,-0.191119,0.00899977,0.0161082,1406,414,8.42999,56.9233
189,610,8.4198,-56.4924,0.00633249,-0.00525694,-0.00263894,0.00690509,-0.00582954,-0.21367,0.00736108,0.0153822,1413,414,8.4198,56.4924
196,610,8.45825,-56.0909,0.0056521,-0.00351481,-0.00219735,0.0061516,-0.00401431,-0.223519,0.00591237,0.015536,1420,414,8.45829,56.0909
203,610,8.47437,-55.6671,0.00508993,-0.00218848,-0.00181758,0.00551858,-0.00261712,-0.231601,0.00479568,0.0162295,1427,414,8.47441,55.6671
210,610,8.48035,-55.2252,0.00424661,-0.00114484,-0.00142526,0.00460019,-0.00149843,-0.243175,0.0036697,0.0120128,1434,414,8.48039,55.2252
217,610,8.54114,-54.7323,0.00341958,-0.000337297,-0.000946924,0.00364476,-0.000562473,-0.233462,0.0026374,0.0178493,1441,414,8.54114,54.7323
224,610,8.57776,-54.2444,0.0028039,0.000461506,-0.000467074,0.0028936,0.000371806,-0.189736,0.00181785,0.0215663,1448,414,8.57777,54.2444
231,610,8.5625,-53.761,0.0023488,0.00119209,0.000126914,0.00236256,0.00117833,0.108008,0.00136403,0.0177041,1455,414,8.56244,53.761
238,610,8.54663,-53.2456,0.00209374,0.00184697,0.000608653,0.00259139,0.00134933,0.685394,0.00149657,0.0131075,1462,414,8.54667,53.2456
245,610,8.55957,-52.6892,0.0017894,0.00253139,0.00091681,0.00314942,0.00117137,0.977655,0.0018381,0.0125032,1469,414,8.55953,52.6892
252,610,8.55493,-52.1346,0.00143802,0.00324965,0.00123605,0.00387626,0.000811413,1.10161,0.00236065,0.0135735,1476,414,8.5549,52.1346
259,610,8.53223,-51.5702,0.00117064,0.0040859,0.00169151,0.00486118,0.000395365,1.14103,0.00311736,0.0128869,1483,414,8.53217,51.5702
266,610,8.52258,-50.9874,0.000904328,0.0048253,0.00211292,0.00574716,-1.75333e-05,1.1594,0.0038373,0.0133762,1490,414,8.52263,50.9874
273,610,8.48999,-50.4045,0.000716197,0.00575865,0.00260119,0.00685996,-0.000385114,1.17029,0.00470693,0.0108772,1497,414,8.49004,50.4045
280,610,8.44849,-49.779,0.000691355,0.00676159,0.00318998,0.00812965,-0.0006767,1.16566,0.00565883,0.00991089,1504,414,8.44851,49.779
287,610,8.38867,-49.1241,0.000823212,0.00793537,0.00392506,0.00967569,-0.000917101,1.15346,0.00677687,0.0129611,1511,414,8.38866,49.124
294,610,8.37122,-48.5074,0.000919861,0.00906176,0.00463673,0.0111611,-0.00117944,1.14566,0.00786339,0.0113367,1518,414,8.37126,48.5075
301,610,8.3512,-47.9274,0.00103208,0.0101799,0.00535672,0.0126498,-0.00143781,1.13877,0.00895105,0.0104302,1525,414,8.35117,47.9274
308,610,8.302,-47.2867,0.00121275,0.0113775,0.00609882,0.0142341,-0.00164377,1.13277,0.0100821,0.0127516,1532,414,8.30197,47.2867
315,610,8.23474,-46.649,0.00138794,0.0125727,0.00685294,0.0158256,-0.00186486,1.12763,0.0112238,0.0138705,1539,414,8.2347,46.6489
322,610,8.17065,-45.9253,0.00147693,0.0136611,0.00761795,0.0173233,-0.00218529,1.12268,0.012342,0.0135793,1546,414,8.17063,45.9253
329,610,8.13037,-45.211,0.00145431,0.014856,0.0083847,0.0188885,-0.00257818,1.12252,0.0135338,0.0125508,1553,414,8.13039,45.211
336,610,8.11914,-44.5359,0.00136149,0.0163981,0.00915905,0.0207294,-0.00296981,1.12906,0.0149084,0.0152001,1560,414,8.11916,44.5359
343,610,8.04016,-43.8293,0.00126219,0.0183395,0.00999785,0.0229486,-0.003347,1.13882,0.0165281,0.023342,1567,414,8.04011,43.8293
350,610,7.94727,-43.0246,0.00113256,0.0206633,0.0108329,0.0254827,-0.00368682,1.15221,0.0183413,0.0307077,1574,414,7.94721,43.0246
357,610,7.91602,-42.1326,0.000748361,0.0229264,0.0117917,0.0280241,-0.00434934,1.16275,0.0202885,0.0416108,1581,414,7.91601,42.1326
364,610,7.98938,-41.1597,0,0,0,0,0,0,0,-1,1588,414,7.98942,41.1597
371,610,7.94299,-40.4783,0,0,0,0,0,0,0,-1,1595,414,7.94294,40.4783
378,610,7.86743,-39.6608,0,0,0,0,0,0,0,-1,1602,414,7.86744,39.6608
385,610,2.57104,-10.3878,0,0,0,0,0,0,0,-1,1609,414,2.57109,10.3878
392,610,1.99744,-1.83582,0,0,0,0,0,0,0,-1,1616,414,1.99741,1.8358
399,610,2.77136,-2.60333,0,0,0,0,0,0,0,-1,1623,414,2.77133,2.60332
406,610,3.54529,-3.37085,0,0,0,0,0,0,0,-1,1630,414,3.54525,3.37084
413,610,3.01929,-3.20306,0,0,0,0,0,0,0,-1,1637,414,3.01929,3.20306
420,610,4.78149,-3.64041,0,0,0,0,0,0,0,-1,1644,414,4.78152,3.64042
427,610,8.85168,-23.3853,0,0,0,0,0,0,0,-1,1651,414,8.85174,23.3853
434,610,8.73706,-22.6227,0,0,0,0,0,0,0,-1,1658,414,8.73703,22.6227
441,610,0,0,0,0,0,0,0,0,0,-1,1665,414,0,0
448,610,0,0,0,0,0,0,0,0,0,-1,1672,414,0,0
455,610,0,0,0,0,0,0,0,0,0,-1,1679,414,0,0
462,610,0,0,0,0,0,0,0,0,0,-1,1686,414,0,0
469,610,0,0,0,0,0,0,0,0,0,-1,1693,414,0,0
476,610,0,0,0,0,0,0,0,0,0,-1,1700,414,0,0
483,610,0,0,0,0,0,0,0,0,0,-1,1707,414,0,0
490,610,0,0,0,0,0,0,0,0,0,-1,1714,414,0,0
497,610,0,0,0,0,0,0,0,0,0,-1,1721,414,0,0
504,610,0,0,0,0,0,0,0,0,0,-1,1728,414,0,0
511,610,0,0,0,0,0,0,0,0,0,-1,1735,414,0,0
518,610,0,0,0,0,0,0,0,0,0,-1,1742,414,0,0
525,610,0,0,0,0,0,0,0,0,0,-1,1749,414,0,0
532,610,0,0,0,0,0,0,0,0,0,-1,1756,414,0,0
539,610,0,0,0,0,0,0,0,0,0,-1,1763,414,0,0
546,610,0,0,0,0,0,0,0,0,0,-1,1770,414,0,0
553,610,0,0,0,0,0,0,0,0,0,-1,1777,414,0,0
560,610,0,0,0,0,0,0,0,0,0,-1,1784,414,0,0
567,610,0,0,0,0,0,0,0,0,0,-1,1791,414,0,0
574,610,0,0,0,0,0,0,0,0,0,-1,1798,414,0,0
581,610,0,0,0,0,0,0,0,0,0,-1,1805,414,0,0
588,610,0,0,0,0,0,0,0,0,0,-1,1812,414,0,0
595,610,0,0,0,0,0,0,0,0,0,-1,1819,414,0,0
602,610,0,0,0,0,0,0,0,0,0,-1,1826,414,0,0
609,610,0,0,0,0,0,0,0,0,0,-1,1833,414,0,0
616,610,0,0,0,0,0,0,0,0,0,-1,1840,414,0,0
623,610,0,0,0,0,0,0,0,0,0,-1,1847,414,0,0
630,610,0,0,0,0,0,0,0,0,0,-1,1854,414,0,0
637,610,0,0,0,0,0,0,0,0,0,-1,1861,414,0,0
644,610,0,0,0,0,0,0,0,0,0,-1,1868,414,0,0
651,610,0,0,0,0,0,0,0,0,0,-1,1875,414,0,0
658,610,0,0,0,0,0,0,0,0,0,-1,1882,414,0,0
665,610,0,0,0,0,0,0,0,0,0,-1,1889,414,0,0
672,610,0,0,0,0,0,0,0,0,0,-1,1896,414,0,0
679,610,0,0,0,0,0,0,0,0,0,-1,1903,414,0,0
686,610,0,0,0,0,0,0,0,0,0,-1,1910,414,0,0
693,610,0,0,0,0,0,0,0,0,0,-1,1917,414,0,0
700,610,0,0,0,0,0,0,0,0,0,-1,1924,414,0,0
707,610,0,0,0,0,0,0,0,0,0,-1,1931,414,0,0
714,610,0,0,0,0,0,0,0,0,0,-1,1938,414,0,0
721,610,0,0,0,0,0,0,0,0,0,-1,1945,414,0,0
728,610,0,0,0,0,0,0,0,0,0,-1,1952,414,0,0
735,610,0,0,0,0,0,0,0,0,0,-1,1959,414,0,0
742,610,0,0,0,0,0,0,0,0,0,-1,1966,414,0,0
749,610,0,0,0,0,0,0,0,0,0,-1,1973,414,0,0
756,610,0,0,0,0,0,0,0,0,0,-1,1980,414,0,0
763,610,0,0,0,0,0,0,0,0,0,-1,1987,414,0,0
770,610,0,0,0,0,0,0,0,0,0,-1,1994,414,0,0
777,610,0,0,0,0,0,0,0,0,0,-1,2001,414,0,0
784,610,0,0,0,0,0,0,0,0,0,-1,2008,414,0,0
791,610,0,0,0,0,0,0,0,0,0,-1,2015,414,0,0
798,610,0,0,0,0,0,0,0,0,0,-1,2022,414,0,0
805,610,0,0,0,0,0,0,0,0,0,-1,2029,414,0,0
812,610,0,0,0,0,0,0,0,0,0,-1,2036,414,0,0
-700,603,0,0,0,0,0,0,0,0,0,-1,524,421,0,0
-693,603,0,0,0,0,0,0,0,0,0,-1,531,421,0,0
-686,603,0,0,0,0,0,0,0,0,0,-1,538,421,0,0
-679,603,0,0,0,0,0,0,0,0,0,-1,545,421,0,0
-672,603,0,0,0,0,0,0,0,0,0,-1,552,421,0,0
-665,603,0,0,0,0,0,0,0,0,0,-1,559,421,0,0
-658,603,0,0,0,0,0,0,0,0,0,-1,566,421,0,0
-651,603,0,0,0,0,0,0,0,0,0,-1,573,421,0,0
-644,603,0,0,0,0,0,0,0,0,0,-1,580,421,0,0
-637,603,0,0,0,0,0,0,0,0,0,-1,587,421,0,0
-630,603,0,0,0,0,0,0,0,0,0,-1,594,421,0,0
-623,603,0,0,0,0,0,0,0,0,0,-1,601,421,0,0
-616,603,0,0,0,0,0,0,0,0,0,-1,608,421,0,0
-609,603,0,0,0,0,0,0,0,0,0,-1,615,421,0,0
-602,603,0,0,0,0,0,0,0,0,0,-1,622,421,0,0
-595,603,0,0,0,0,0,0,0,0,0,-1,629,421,0,0
-588,603,0,0,0,0,0,0,0,0,0,-1,636,421,0,0
-581,603,0,0,0,0,0,0,0,0,0,-1,643,421,0,0
-574,603,0,0,0,0,0,0,0,0,0,-1,650,421,0,0
-567,603,0,0,0,0,0,0,0,0,0,-1,657,421,0,0
-560,603,0,0,0,0,0,0,0,0,0,-1,664,421,0,0
-553,603,0,0,0,0,0,0,0,0,0,-1,671,421,0,0
-546,603,0,0,0,0,0,0,0,0,0,-1,678,421,0,0
-539,603,0,0,0,0,0,0,0,0,0,-1,685,421,0,0
-532,603,0,0,0,0,0,0,0,0,0,-1,692,421,0,0
-525,603,0,0,0,0,0,0,0,0,0,-1,699,421,0,0
-518,603,0,0,0,0,0,0,0,0,0,-1,706,421,0,0
-511,603,0,0,0,0,0,0,0,0,0,-1,713,421,0,0
-504,603,0,0,0,0,0,0,0,0,0,-1,720,421,0,0
-497,603,0,0,0,0,0,0,0,0,0,-1,727,421,0,0
-490,603,0,0,0,0,0,0,0,0,0,-1,734,421,0,0
-483,603,0,0,0,0,0,0,0,0,0,-1,741,421,0,0
-476,603,0,0,0,0,0,0,0,0,0,-1,748,421,0,0
-469,603,0,0,0,0,0,0,0,0,0,-1,755,421,0,0
-462,603,0,0,0,0,0,0,0,0,0,-1,762,421,0,0
-455,603,0,0,0,0,0,0,0,0,0,-1,769,421,0,0
-448,603,0,0,0,0,0,0,0,0,0,-1,776,421,0,0
-441,603,0,0,0,0,0,0,0,0,0,-1,783,421,0,0
-434,603,0,0,0,0,0,0,0,0,0,-1,790,421,0,0
-427,603,0,0,0,0,0,0,0,0,0,-1,797,421,0,0
-420,603,0,0,0,0,0,0,0,0,0,-1,804,421,0,0
-413,603,0,0,0,0,0,0,0,0,0,-1,811,421,0,0
-406,603,0,0,0,0,0,0,0,0,0,-1,818,421,0,0
-399,603,0,0,0,0,0,0,0,0,0,-1,825,421,0,0
-392,603,0,0,0,0,0,0,0,0,0,-1,832,421,0,0
-385,603,0,0,0,0,0,0,0,0,0,-1,839,421,0,0
-378,603,0,0,0,0,0,0,0,0,0,-1,846,421,0,0
-371,603,0,0,0,0,0,0,0,0,0,-1,853,421,0,0
-364,603,0,0,0,0,0,0,0,0,0,-1,860,421,0,0
-357,603,0,0,0,0,0,0,0,0,0,-1,867,421,0,0
-350,603,0,0,0,0,0,0,0,0,0,-1,874,421,0,0
-343,603,0,0,0,0,0,0,0,0,0,-1,881,421,0,0
-336,603,0,0,0,0,0,0,0,0,0,-1,888,421,0,0
-329,603,4.09686,-17.9702,0,0,0,0,0,0,0,-1,895,421,4.09687,17.9702
-322,603,8.83179,-28.7376,0,0,0,0,0,0,0,-1,902,421,8.83179,28.7376
-315,603,5.99744,-20.4501,0,0,0,0,0,0,0,-1,909,421,5.99745,20.4501
-308,603,5.92249,-20.778,0,0,0,0,0,0,0,-1,916,421,5.92248,20.778
-301,603,2.72424,-20.9059,0,0,0,0,0,0,0,-1,923,421,2.72424,20.9059
-294,603,2.41553,-20.6767,0,0,0,0,0,0,0,-1,930,421,2.41554,20.6767
-287,603,1.91766,-21.2242,0,0,0,0,0,0,0,-1,937,421,1.91767,21.2242
-280,603,2.36121,-27.3314,0,0,0,0,0,0,0,-1,944,421,2.36119,27.3314
-273,603,7.96613,-34.8225,0,0,0,0,0,0,0,-1,951,421,7.96613,34.8225
-266,603,7.18787,-34.9736,0,0,0,0,0,0,0,-1,958,421,7.18788,34.9736
-259,603,5.44666,-36.8901,0,0,0,0,0,0,0,-1,965,421,5.44664,36.8901
-252,603,5.69366,-40.4265,0,0,0,0,0,0,0,-1,972,421,5.69367,40.4265
-245,603,5.86377,-41.1439,-0.0024114,0.0206289,-0.00964138,0.0241311,-0.00591357,-1.22237,0.0183785,0.0400324,979,421,5.86379,41.1439
-238,603,5.70837,-41.9481,-0.00209016,0.0186257,-0.00874489,0.0218235,-0.00528804,-1.22022,0.016595,0.0246134,986,421,5.70839,41.9481
-231,603,5.61407,-42.754,-0.00171849,0.0170218,-0.00794723,0.0199381,-0.00463485,-1.21909,0.0150764,0.0144546,993,421,5.61405,42.754
-224,603,5.55725,-43.5066,-0.00110518,0.0154643,-0.00756597,0.0183992,-0.0040401,-1.20075,0.0138112,0.0144581,1000,421,5.55728,43.5066
-217,603,5.52795,-44.206,-0.000712394,0.0137327,-0.00706504,0.0166136,-0.00359332,-1.18361,0.0124476,0.0140617,1007,421,5.52798,44.206
-210,603,5.495,-44.9215,-0.000439517,0.0120691,-0.00649029,0.0148282,-0.00319854,-1.16884,0.0111062,0.0118534,1014,421,5.49497,44.9215
-203,603,5.46802,-45.6535,-0.00020612,0.0104026,-0.00590343,0.0130347,-0.00283817,-1.1514,0.00977419,0.017226,1021,421,5.46804,45.6535
-196,603,5.43701,-46.3542,-1.05515e-05,0.00880092,-0.00533663,0.0113155,-0.00252508,-1.13047,0.00851112,0.0196427,1028,421,5.43696,46.3542
-189,603,5.40076,-46.9487,0.000205993,0.00737693,-0.00490461,0.00986688,-0.00228396,-1.10103,0.00745676,0.016489,1035,421,5.40071,46.9487
-182,603,5.34119,-47.5598,0.00041115,0.00601297,-0.00434624,0.00838264,-0.00195852,-1.07163,0.00634287,0.0122374,1042,421,5.3412,47.5598
-175,603,5.28979,-48.1863,0.000577636,0.00475664,-0.0037491,0.00695919,-0.00162492,-1.03963,0.00526535,0.0127813,1049,421,5.28975,48.1863
-168,603,5.22815,-48.8341,0.000627369,0.00346436,-0.00311818,0.00547153,-0.0013798,-0.998863,0.00418415,0.0164666,1056,421,5.22819,48.8341
-161,603,5.18884,-49.489,0.000719862,0.00233658,-0.00251175,0.00416685,-0.0011104,-0.94108,0.00321265,0.0160109,1063,421,5.18889,49.489
-154,603,5.19861,-50.0696,0.000882971,0.00128724,-0.00190225,0.00299807,-0.000827857,-0.83833,0.00232434,0.0140272,1070,421,5.19857,50.0696
-147,603,5.17297,-50.6151,0.00110805,0.000399535,-0.00134554,0.00214518,-0.000637598,-0.656678,0.0016834,0.0167147,1077,421,5.17294,50.6151
-140,603,5.17163,-51.1874,0.00136313,-0.000527768,-0.000818149,0.00166798,-0.000832616,-0.35667,0.00147033,0.0140626,1084,421,5.17161,51.1874
-133,603,5.15601,-51.754,0.00162937,-0.00131016,-0.000355195,0.00167168,-0.00135247,-0.118561,0.00174923,0.0134863,1091,421,5.15595,51.754
-126,603,5.15295,-52.2776,0.00194437,-0.00190727,4.97315e-05,0.00194501,-0.00190791,0.0129089,0.00222452,0.0116474,1098,421,5.1529,52.2776
-119,603,5.1554,-52.799,0.00244997,-0.00235183,0.000343967,0.00247449,-0.00237634,0.0711489,0.00280082,0.0113369,1105,421,5.15539,52.799
-112,603,5.15991,-53.3405,0.00300478,-0.00260034,0.000548731,0.003058,-0.00265356,0.096675,0.00330032,0.0162766,1112,421,5.15987,53.3406
-105,603,5.17285,-53.8629,0.00353146,-0.0026686,0.000686516,0.00360656,-0.00274371,0.108969,0.0036776,0.0171423,1119,421,5.17289,53.8629
-98,603,5.17859,-54.3225,0.00409878,-0.0027561,0.0008232,0.00419625,-0.00285357,0.117857,0.00409475,0.0143507,1126,421,5.17854,54.3225
-91,603,5.18726,-54.7988,0.0048922,-0.00271493,0.000921576,0.00500226,-0.00282499,0.118856,0.00457697,0.0107741,1133,421,5.18729,54.7988
-84,603,5.23438,-55.2852,0.00588245,-0.00251923,0.00103809,0.00600881,-0.00264559,0.121131,0.00512085,0.0123534,1140,421,5.23434,55.2852
-77,603,5.27173,-55.7411,0.00683321,-0.0026258,0.00117935,0.00697804,-0.00277062,0.122189,0.00580049,0.0185716,1147,421,5.27177,55.7411
-70,603,5.24854,-56.2118,0,0,0,0,0,0,0,-1,1154,421,5.24856,56.2118
-63,603,5.29065,-56.467,0,0,0,0,0,0,0,-1,1161,421,5.29066,56.4671
-56,603,5.40833,-56.8987,0,0,0,0,0,0,0,-1,1168,421,5.40834,56.8987
-49,603,5.47314,-57.2768,0,0,0,0,0,0,0,-1,1175,421,5.47314,57.2768
-42,603,5.49133,-57.5878,0,0,0,0,0,0,0,-1,1182,421,5.49135,57.5878
-35,603,5.50818,-57.8683,0.0119596,-0.00920951,0.00297736,0.0123704,-0.00962029,0.137104,0.0127294,0.0449604,1189,421,5.50816,57.8683
-28,603,5.60132,-58.1247,0.0124134,-0.0116279,0.00298818,0.0127793,-0.0119938,0.121824,0.0143051,0.0314847,1196,421,5.60133,58.1247
-21,603,5.70129,-58.4079,0.0128343,-0.014399,0.00277249,0.0131137,-0.0146784,0.100432,0.0160542,0.0260569,1203,421,5.70128,58.4079
-14,603,5.84033,-58.6432,0.0131764,-0.0164604,0.00230224,0.0133542,-0.0166382,0.0770655,0.0173507,0.0240849,1210,421,5.84037,58.6432
-7,603,5.93298,-58.9041,0.0130819,-0.019904,0.00168756,0.013168,-0.0199901,0.0509826,0.0192784,0.0288912,1217,421,5.93302,58.9041
0,603,5.97717,-59.2074,0.0129082,-0.0227974,0.00144963,0.0129669,-0.0228561,0.0405106,0.0209435,0.0375492,1224,421,5.97718,59.2074
7,603,6.04102,-59.4518,0,0,0,0,0,0,0,-1,1231,421,6.04099,59.4518
14,603,6.30005,-59.1711,0,0,0,0,0,0,0,-1,1238,421,6.30008,59.1712
21,603,6.39063,-59.0826,0.0122846,-0.0309515,0.00083166,0.0123006,-0.0309675,0.0192258,0.0257441,0.0449722,1245,421,6.39065,59.0825
28,603,6.47253,-59.2638,0.0121932,-0.0330542,0.000962282,0.0122136,-0.0330747,0.0212543,0.0270561,0.0479349,1252,421,6.47247,59.2638
35,603,6.86572,-59.7246,0,0,0,0,0,0,0,-1,1259,421,6.86567,59.7246
42,603,6.67578,-59.3984,0.0120721,-0.0342269,0.00139746,0.0121143,-0.034269,0.0301469,0.027779,0.044684,1266,421,6.67572,59.3984
49,603,6.62964,-59.5884,0.0125413,-0.0332214,0.00166791,0.012602,-0.0332822,0.0363826,0.0273734,0.0242867,1273,421,6.62959,59.5884
56,603,6.68762,-59.835,0,0,0,0,0,0,0,-1,1280,421,6.68762,59.8349
63,603,6.82593,-60.0329,0,0,0,0,0,0,0,-1,1287,421,6.82589,60.0329
70,603,7.05042,-59.9279,0,0,0,0,0,0,0,-1,1294,421,7.05042,59.9278
77,603,7.28552,-59.598,0,0,0,0,0,0,0,-1,1301,421,7.28551,59.598
84,603,7.39172,-59.8738,0,0,0,0,0,0,0,-1,1308,421,7.39169,59.8738
91,603,7.40125,-60.1282,0,0,0,0,0,0,0,-1,1315,421,7.40124,60.1282
98,603,7.72827,-60.169,0,0,0,0,0,0,0,-1,1322,421,7.72825,60.169
105,603,7.87585,-59.8495,0,0,0,0,0,0,0,-1,1329,421,7.8759,59.8495
112,603,7.98572,-59.4118,0.0173377,-0.0225002,-0.0037635,0.0176901,-0.0228526,-0.0933698,0.0234705,0.0441562,1336,421,7.98566,59.4118
119,603,8.15137,-59.1928,0.0170641,-0.0230452,-0.00421316,0.0175019,-0.023483,-0.103536,0.0237465,0.0466285,1343,421,8.15137,59.1928
126,603,8.24695,-58.9411,0,0,0,0,0,0,0,-1,1350,421,8.24699,58.9411
133,603,8.28711,-58.6982,0.0159122,-0.0224106,-0.00502648,0.0165606,-0.0230589,-0.128271,0.0229766,0.049598,1357,421,8.28711,58.6982
140,603,8.5387,-58.4059,0.0151733,-0.0216384,-0.00508339,0.0158624,-0.0223275,-0.134733,0.022154,0.0421788,1364,421,8.53875,58.4058
147,603,8.41809,-58.2304,0.0144173,-0.0208333,-0.00510794,0.0151426,-0.0215585,-0.14104,0.021297,0.0334211,1371,421,8.41814,58.2304
154,603,8.30444,-58.1273,0.0135777,-0.019474,-0.00516746,0.0143667,-0.0202631,-0.151529,0.0200899,0.0389996,1378,421,8.30444,58.1273
161,603,8.54199,-57.8317,0.012721,-0.0174775,-0.00515426,0.0135765,-0.018333,-0.164478,0.018491,0.0352814,1385,421,8.542,57.8317
168,603,8.70813,-57.5041,0.0118409,-0.0152042,-0.00502168,0.0127433,-0.0161065,-0.177786,0.0166941,0.0361158,1392,421,8.7081,57.5041
175,603,8.948,-57.2084,0.0109367,-0.0128774,-0.00482533,0.0118773,-0.013818,-0.192512,0.0148493,0.0407002,1399,421,8.94805,57.2084
182,603,9.04846,-56.8366,0.00992868,-0.0108029,-0.00456121,0.0108878,-0.0117621,-0.207264,0.0130802,0.0467585,1406,421,9.04849,56.8367
189,603,8.94165,-56.3909,0.00870505,-0.00845633,-0.00424962,0.00969972,-0.009451,-0.229922,0.011057,0.0399826,1413,421,8.9416,56.3909
196,603,8.89319,-55.9357,0.00788804,-0.00631784,-0.00371396,0.00880041,-0.00723022,-0.24089,0.00927008,0.0293103,1420,421,8.89325,55.9357
203,603,8.94031,-55.5932,0.00725601,-0.00482319,-0.00327849,0.00808847,-0.00565566,-0.248662,0.0079765,0.0176089,1427,421,8.94025,55.5932
210,603,8.97778,-55.2778,0.00623694,-0.00362987,-0.00282739,0.00698971,-0.00438264,-0.260207,0.00662309,0.0141077,1434,421,8.97778,55.2778
217,603,8.995,-54.7433,0.00521019,-0.00285047,-0.00225637,0.00579882,-0.0034391,-0.255186,0.0053912,0.0148842,1441,421,8.99502,54.7433
224,603,9.07483,-54.2448,0.00444073,-0.00199952,-0.00168467,0.00485479,-0.00241358,-0.241005,0.00427457,0.0186504,1448,421,9.07477,54.2447
231,603,9.08032,-53.7573,0.00384396,-0.0012311,-0.000960028,0.00401949,-0.00140664,-0.180844,0.00325159,0.0165819,1455,421,9.08032,53.7573
238,603,9.07837,-53.2257,0.00357257,-0.000646475,-0.000394515,0.00360915,-0.000683048,-0.0924403,0.00266314,0.0120884,1462,421,9.07833,53.2257
245,603,9.08862,-52.6829,0.00323823,-9.19786e-05,-6.92118e-05,0.00323967,-9.34164e-05,-0.0207711,0.00219158,0.0114511,1469,421,9.08861,52.6829
252,603,9.09705,-52.1226,0.00276959,0.000408415,0.000262925,0.00279852,0.000379492,0.109565,0.00175293,0.0105354,1476,421,9.09709,52.1226
259,603,9.08191,-51.5607,0.00230281,0.000923759,0.000615859,0.0025378,0.00068877,0.364512,0.00151538,0.0113483,1483,421,9.08193,51.5607
266,603,9.07825,-50.9826,0.00187171,0.00142939,0.000925757,0.00260235,0.000698739,0.668148,0.00155522,0.0122205,1490,421,9.0783,50.9826
273,603,9.08105,-50.3972,0.00151136,0.0021736,0.00129424,0.00317841,0.000506559,0.910633,0.00197189,0.0111322,1497,421,9.08105,50.3972
280,603,9.05713,-49.7673,0.00129821,0.00299529,0.00176285,0.0041032,0.000190311,1.0097,0.00267429,0.0125166,1504,421,9.05718,49.7673
287,603,9.026,-49.123,0.00123992,0.0039689,0.00233582,0.00530957,-0.000100751,1.04974,0.00357377,0.011791,1511,421,9.02605,49.1229
294,603,8.98352,-48.5073,0.00118039,0.00497359,0.00291159,0.00655182,-0.00039784,1.07408,0.00450635,0.0100716,1518,421,8.98348,48.5073
301,603,8.9563,-47.8979,0.00115439,0.00600923,0.00350668,0.00784669,-0.000683066,1.08814,0.00547304,0.0116429,1525,421,8.95625,47.8979
308,603,8.92883,-47.2606,0.00121015,0.0071442,0.00413653,0.00926777,-0.000913416,1.09651,0.0065044,0.0167797,1532,421,8.92884,47.2606
315,603,8.8811,-46.6074,0.00127193,0.00828208,0.0047848,0.0107083,-0.00115425,1.10152,0.00755305,0.0156809,1539,421,8.88107,46.6074
322,603,8.81616,-45.9198,0.00127077,0.00940693,0.00545965,0.0121475,-0.00146975,1.10558,0.00863003,0.0161707,1546,421,8.81612,45.9198
329,603,8.79553,-45.2082,0.00121614,0.0105816,0.00615937,0.0136362,-0.00183843,1.11042,0.00976146,0.0122794,1553,421,8.79552,45.2082
336,603,8.77551,-44.5353,0.00113854,0.0120362,0.0068879,0.0153699,-0.00219515,1.12004,0.0110513,0.0100428,1560,421,8.77551,44.5353
343,603,8.73083,-43.8362,0.00103618,0.0138625,0.00767656,0.0174522,-0.00255358,1.13338,0.0125728,0.0112219,1567,421,8.73086,43.8362
350,603,8.67896,-43.1021,0.000895875,0.0159874,0.00846999,0.0197853,-0.00290206,1.14927,0.0142563,0.0120539,1574,421,8.67896,43.1021
357,603,8.61938,-42.3462,0.000592887,0.0180475,0.00934497,0.0221067,-0.0034663,1.16102,0.0160187,0.0149515,1581,421,8.61937,42.3462
364,603,8.5946,-41.5466,0.000110499,0.0202723,0.00996368,0.0243653,-0.0039825,1.18102,0.0177208,0.0214407,1588,421,8.59456,41.5466
371,603,8.53564,-40.728,1.79616e-06,0.0236443,0.0109029,0.0279046,-0.00425844,1.19829,0.0201729,0.0304893,1595,421,8.53566,40.728
378,603,8.4845,-39.9811,0.000541324,0.0273783,0.011876,0.031879,-0.00395933,1.20855,0.0226879,0.0491867,1602,421,8.48448,39.9811
385,603,8.26257,-38.9768,0,0,0,0,0,0,0,-1,1609,421,8.26258,38.9768
392,603,8.33118,-38.0066,0,0,0,0,0,0,0,-1,1616,421,8.3312,38.0065
399,603,8.19946,-37.0551,0,0,0,0,0,0,0,-1,1623,421,8.19949,37.055
406,603,3.01917,-2.37219,0,0,0,0,0,0,0,-1,1630,421,3.01915,2.37219
413,603,2.38928,-2.41275,0,0,0,0,0,0,0,-1,1637,421,2.38926,2.41274
420,603,8.22217,-23.7068,0,0,0,0,0,0,0,-1,1644,421,8.22215,23.7068
427,603,8.20386,-23.1278,0,0,0,0,0,0,0,-1,1651,421,8.2039,23.1278
434,603,8.01489,-22.5655,0,0,0,0,0,0,0,-1,1658,421,8.01493,22.5655
441,603,8.00122,-22.3072,0,0,0,0,0,0,0,-1,1665,421,8.00116,22.3071
448,603,1.14355,-4.59842,0,0,0,0,0,0,0,-1,1672,421,1.14355,4.59841
455,603,0,0,0,0,0,0,0,0,0,-1,1679,421,0,0
462,603,0,0,0,0,0,0,0,0,0,-1,1686,421,0,0
469,603,0,0,0,0,0,0,0,0,0,-1,1693,421,0,0
476,603,0,0,0,0,0,0,0,0,0,-1,1700,421,0,0
483,603,0,0,0,0,0,0,0,0,0,-1,1707,421,0,0
490,603,0,0,0,0,0,0,0,0,0,-1,1714,421,0,0
497,603,0,0,0,0,0,0,0,0,0,-1,1721,421,0,0
504,603,0,0,0,0,0,0,0,0,0,-1,1728,421,0,0
511,603,0,0,0,0,0,0,0,0,0,-1,1735,421,0,0
518,603,0,0,0,0,0,0,0,0,0,-1,1742,421,0,0
525,603,0,0,0,0,0,0,0,0,0,-1,1749,421,0,0
532,603,0,0,0,0,0,0,0,0,0,-1,1756,421,0,0
539,603,0,0,0,0,0,0,0,0,0,-1,1763,421,0,0
546,603,0,0,0,0,0,0,0,0,0,-1,1770,421,0,0
553,603,0,0,0,0,0,0,0,0,0,-1,1777,421,0,0
560,603,0,0,0,0,0,0,0,0,0,-1,1784,421,0,0
567,603,0,0,0,0,0,0,0,0,0,-1,1791,421,0,0
574,603,0,0,0,0,0,0,0,0,0,-1,1798,421,0,0
581,603,0,0,0,0,0,0,0,0,0,-1,1805,421,0,0
588,603,0,0,0,0,0,0,0,0,0,-1,1812,421,0,0
595,603,0,0,0,0,0,0,0,0,0,-1,1819,421,0,0
602,603,0,0,0,0,0,0,0,0,0,-1,1826,421,0,0
609,603,0,0,0,0,0,0,0,0,0,-1,1833,421,0,0
616,603,0,0,0,0,0,0,0,0,0,-1,1840,421,0,0
623,603,0,0,0,0,0,0,0,0,0,-1,1847,421,0,0
630,603,0,0,0,0,0,0,0,0,0,-1,1854,421,0,0
637,603,0,0,0,0,0,0,0,0,0,-1,1861,421,0,0
644,603,0,0,0,0,0,0,0,0,0,-1,1868,421,0,0
651,603,0,0,0,0,0,0,0,0,0,-1,1875,421,0,0
658,603,0,0,0,0,0,0,0,0,0,-1,1882,421,0,0
665,603,0,0,0,0,0,0,0,0,0,-1,1889,421,0,0
672,603,0,0,0,0,0,0,0,0,0,-1,1896,421,0,0
679,603,0,0,0,0,0,0,0,0,0,-1,1903,421,0,0
686,603,0,0,0,0,0,0,0,0,0,-1,1910,421,0,0
693,603,0,0,0,0,0,0,0,0,0,-1,1917,421,0,0
700,603,0,0,0,0,0,0,0,0,0,-1,1924,421,0,0
707,603,0,0,0,0,0,0,0,0,0,-1,1931,421,0,0
714,603,0,0,0,0,0,0,0,0,0,-1,1938,421,0,0
721,603,0,0,0,0,0,0,0,0,0,-1,1945,421,0,0
728,603,0,0,0,0,0,0,0,0,0,-1,1952,421,0,0
735,603,0,0,0,0,0,0,0,0,0,-1,1959,421,0,0
742,603,0,0,0,0,0,0,0,0,0,-1,1966,421,0,0
749,603,0,0,0,0,0,0,0,0,0,-1,1973,421,0,0
756,603,0,0,0,0,0,0,0,0,0,-1,1980,421,0,0
763,603,0,0,0,0,0,0,0,0,0,-1,1987,421,0,0
770,603,0,0,0,0,0,0,0,0,0,-1,1994,421,0,0
777,603,0,0,0,0,0,0,0,0,0,-1,2001,421,0,0
784,603,0,0,0,0,0,0,0,0,0,-1,2008,421,0,0
791,603,0,0,0,0,0,0,0,0,0,-1,2015,421,0,0
798,603,0,0,0,0,0,0,0,0,0,-1,2022,421,0,0
805,603,0,0,0,0,0,0,0,0,0,-1,2029,421,0,0
812,603,0,0,0,0,0,0,0,0,0,-1,2036,421,0,0
-700,596,0,0,0,0,0,0,0,0,0,-1,524,428,0,0
-693,596,0,0,0,0,0,0,0,0,0,-1,531,428,0,0
-686,596,0,0,0,0,0,0,0,0,0,-1,538,428,0,0
-679,596,0,0,0,0,0,0,0,0,0,-1,545,428,0,0
-672,596,0,0,0,0,0,0,0,0,0,-1,552,428,0,0
-665,596,0,0,0,0,0,0,0,0,0,-1,559,428,0,0
-658,596,0,0,0,0,0,0,0,0,0,-1,566,428,0,0
-651,596,0,0,0,0,0,0,0,0,0,-1,573,428,0,0
-644,596,0,0,0,0,0,0,0,0,0,-1,580,428,0,0
-637,596,0,0,0,0,0,0,0,0,0,-1,587,428,0,0
-630,596,0,0,0,0,0,0,0,0,0,-1,594,428,0,0
-623,596,0,0,0,0,0,0,0,0,0,-1,601,428,0,0
-616,596,0,0,0,0,0,0,0,0,0,-1,608,428,0,0
-609,596,0,0,0,0,0,0,0,0,0,-1,615,428,0,0
-602,596,0,0,0,0,0,0,0,0,0,-1,622,428,0,0
-595,596,0,0,0,0,0,0,0,0,0,-1,629,428,0,0
-588,596,0,0,0,0,0,0,0,0,0,-1,636,428,0,0
-581,596,0,0,0,0,0,0,0,0,0,-1,643,428,0,0
-574,596,0,0,0,0,0,0,0,0,0,-1,650,428,0,0
-567,596,0,0,0,0,0,0,0,0,0,-1,657,428,0,0
-560,596,0,0,0,0,0,0,0,0,0,-1,664,428,0,0
-553,596,0,0,0,0,0,0,0,0,0,-1,671,428,0,0
-546,596,0,0,0,0,0,0,0,0,0,-1,678,428,0,0
-539,596,0,0,0,0,0,0,0,0,0,-1,685,428,0,0
-532,596,0,0,0,0,0,0,0,0,0,-1,692,428,0,0
-525,596,0,0,0,0,0,0,0,0,0,-1,699,428,0,0
-518,596,0,0,0,0,0,0,0,0,0,-1,706,428,0,0
-511,596,0,0,0,0,0,0,0,0,0,-1,713,428,0,0
-504,596,0,0,0,0,0,0,0,0,0,-1,720,428,0,0
-497,596,0,0,0,0,0,0,0,0,0,-1,727,428,0,0
-490,596,0,0,0,0,0,0,0,0,0,-1,734,428,0,0
-483,596,0,0,0,0,0,0,0,0,0,-1,741,428,0,0
-476,596,0,0,0,0,0,0,0,0,0,-1,748,428,0,0
-469,596,0,0,0,0,0,0,0,0,0,-1,755,428,0,0
-462,596,0,0,0,0,0,0,0,0,0,-1,762,428,0,0
-455,596,0,0,0,0,0,0,0,0,0,-1,769,428,0,0
-448,596,0,0,0,0,0,0,0,0,0,-1,776,428,0,0
-441,596,0,0,0,0,0,0,0,0,0,-1,783,428,0,0
-434,596,0,0,0,0,0,0,0,0,0,-1,790,428,0,0
-427,596,0,0,0,0,0,0,0,0,0,-1,797,428,0,0
-420,596,0,0,0,0,0,0,0,0,0,-1,804,428,0,0
-413,596,0,0,0,0,0,0,0,0,0,-1,811,428,0,0
-406,596,0,0,0,0,0,0,0,0,0,-1,818,428,0,0
-399,596,0,0,0,0,0,0,0,0,0,-1,825,428,0,0
-392,596,0,0,0,0,0,0,0,0,0,-1,832,428,0,0
-385,596,0,0,0,0,0,0,0,0,0,-1,839,428,0,0
-378,596,0,0,0,0,0,0,0,0,0,-1,846,428,0,0
-371,596,0,0,0,0,0,0,0,0,0,-1,853,428,0,0
-364,596,0,0,0,0,0,0,0,0,0,-1,860,428,0,0
-357,596,0,0,0,0,0,0,0,0,0,-1,867,428,0,0
-350,596,0,0,0,0,0,0,0,0,0,-1,874,428,0,0
-343,596,0,0,0,0,0,0,0,0,0,-1,881,428,0,0
-336,596,6.81445,-30.5258,0,0,0,0,0,0,0,-1,888,428,6.81446,30.5258
-329,596,6.84772,-28.9253,0,0,0,0,0,0,0,-1,895,428,6.84773,28.9253
-322,596,6.97449,-27.9047,0,0,0,0,0,0,0,-1,902,428,6.97451,27.9047
-315,596,7.10132,-26.8841,0,0,0,0,0,0,0,-1,909,428,7.10129,26.8841
-308,596,0.254761,-20.841,0,0,0,0,0,0,0,-1,916,428,0.254731,20.841
-301,596,3.43213,-26.756,0,0,0,0,0,0,0,-1,923,428,3.43214,26.756
-294,596,4.1767,-27.6454,0,0,0,0,0,0,0,-1,930,428,4.17667,27.6454
-287,596,4.36041,-27.6119,0,0,0,0,0,0,0,-1,937,428,4.3604,27.6119
-280,596,5.56976,-37.5982,0,0,0,0,0,0,0,-1,944,428,5.56976,37.5982
-273,596,5.29053,-38.2794,0,0,0,0,0,0,0,-1,951,428,5.29051,38.2794
-266,596,5.09912,-38.9774,0,0,0,0,0,0,0,-1,958,428,5.09914,38.9774
-259,596,5.13141,-39.6684,0,0,0,0,0,0,0,-1,965,428,5.1314,39.6684
-252,596,5.04962,-40.5485,-0.00247317,0.0175597,-0.00849942,0.0206799,-0.00559329,-1.21897,0.0159807,0.0248102,972,428,5.04962,40.5485
-245,596,5.04883,-41.3686,-0.00202204,0.0158086,-0.00774237,0.0187012,-0.00491465,-1.21325,0.0143882,0.0152613,979,428,5.04881,41.3686
-238,596,5.02606,-42.1037,-0.00165313,0.0141285,-0.00694793,0.0167514,-0.00427606,-1.20983,0.0128327,0.0128964,986,428,5.02609,42.1037
-231,596,4.93524,-42.861,-0.00126739,0.0126381,-0.00619107,0.014995,-0.00362433,-1.20704,0.0113985,0.0130645,993,428,4.93524,42.861
-224,596,4.88611,-43.568,-0.000722085,0.0111647,-0.0057165,0.0134676,-0.00302504,-1.18783,0.0101383,0.0128563,1000,428,4.88614,43.568
-217,596,4.85889,-44.2441,-0.000308882,0.00951966,-0.00516974,0.0117381,-0.00252737,-1.16543,0.00878985,0.0143298,1007,428,4.85889,44.2441
-210,596,4.85925,-44.9393,4.11551e-05,0.00788792,-0.00458475,0.00999885,-0.00206977,-1.13931,0.00745225,0.0135945,1014,428,4.85924,44.9393
-203,596,4.82263,-45.6047,0.000371883,0.00629333,-0.00400975,0.00831698,-0.00165177,-1.10341,0.00616939,0.0175094,1021,428,4.82257,45.6047
-196,596,4.80127,-46.2764,0.000634423,0.00476888,-0.00346433,0.00673588,-0.00133258,-1.0544,0.0049944,0.0176435,1028,428,4.80126,46.2764
-189,596,4.75598,-46.9198,0.000901939,0.00337543,-0.0030259,0.00540757,-0.0011302,-0.979398,0.00403489,0.0140244,1035,428,4.75597,46.9198
-182,596,4.71448,-47.5349,0.0011836,0.00205747,-0.0025017,0.0041601,-0.000919036,-0.871854,0.00312512,0.0127823,1042,428,4.71452,47.5349
-175,596,4.68201,-48.1767,0.00143198,0.000871244,-0.00197234,0.00314378,-0.000840555,-0.714796,0.00242509,0.0147562,1049,428,4.68202,48.1767
-168,596,4.64526,-48.8101,0.00155889,-0.000286664,-0.00143532,0.00234247,-0.00107025,-0.499712,0.00201545,0.0177008,1056,428,4.64532,48.8101
-161,596,4.63379,-49.4286,0.00171318,-0.00127353,-0.0009258,0.00197688,-0.00153723,-0.277478,0.00203415,0.0163326,1063,428,4.63376,49.4286
-154,596,4.61243,-50.0322,0.00192696,-0.0021475,-0.000429721,0.00197179,-0.00219233,-0.103943,0.00240528,0.0130773,1070,428,4.61242,50.0322
-147,596,4.63257,-50.5775,0.00218911,-0.00283093,3.82658e-05,0.0021894,-0.00283122,0.00762202,0.00290654,0.0138902,1077,428,4.63258,50.5775
-140,596,4.63806,-51.1422,0.00248752,-0.00359975,0.000494097,0.00252736,-0.00363959,0.0804671,0.00357974,0.0159221,1084,428,4.63805,51.1422
-133,596,4.62134,-51.7274,0.00279044,-0.0042073,0.000890328,0.00290194,-0.0043188,0.124587,0.00419556,0.0157761,1091,428,4.62138,51.7274
-126,596,4.63184,-52.2631,0.0031733,-0.00454127,0.00120459,0.00335701,-0.00472498,0.151346,0.00468837,0.0119289,1098,428,4.63183,52.2631
-119,596,4.65076,-52.802,0.00379561,-0.00477834,0.00136875,0.00400882,-0.00499154,0.154526,0.00520668,0.0143989,1105,428,4.6507,52.802
-112,596,4.60425,-53.3149,0.00440787,-0.00486942,0.00148344,0.0046393,-0.00510085,0.154761,0.00562558,0.0162689,1112,428,4.60431,53.3149
-105,596,4.65808,-53.8596,0.00497258,-0.00477794,0.00157319,0.00522012,-0.00502549,0.15607,0.00591566,0.0244951,1119,428,4.65803,53.8596
-98,596,4.70947,-54.3528,0.00557739,-0.00477608,0.00171165,0.00585302,-0.00505172,0.159664,0.00630152,0.0329272,1126,428,4.70944,54.3527
-91,596,4.6438,-54.9329,0,0,0,0,0,0,0,-1,1133,428,4.64384,54.9329
-84,596,4.78174,-55.2859,0,0,0,0,0,0,0,-1,1140,428,4.78169,55.2859
-77,596,4.87866,-55.7418,0,0,0,0,0,0,0,-1,1147,428,4.87868,55.7418
-70,596,3.50696,-32.137,0,0,0,0,0,0,0,-1,1154,428,3.50696,32.137
-63,596,1.95569,-12.2758,0,0,0,0,0,0,0,-1,1161,428,1.95563,12.2759
-56,596,1.60107,-10.5827,0,0,0,0,0,0,0,-1,1168,428,1.60108,10.5827
-49,596,1.59473,-10.0393,0,0,0,0,0,0,0,-1,1175,428,1.59472,10.0393
-42,596,1.99585,-6.6246,0,0,0,0,0,0,0,-1,1182,428,1.99586,6.62459
-35,596,4.90137,-57.5375,0,0,0,0,0,0,0,-1,1189,428,4.90139,57.5375
-28,596,5.2085,-57.9063,0,0,0,0,0,0,0,-1,1196,428,5.20845,57.9063
-21,596,5.33484,-58.2248,0,0,0,0,0,0,0,-1,1203,428,5.33486,58.2248
-14,596,5.5675,-58.4602,0,0,0,0,0,0,0,-1,1210,428,5.56754,58.4602
-7,596,5.66687,-58.7668,0,0,0,0,0,0,0,-1,1217,428,5.66688,58.7667
0,596,5.69092,-59.2028,0,0,0,0,0,0,0,-1,1224,428,5.69088,59.2028
7,596,10.1212,-62.9142,0,0,0,0,0,0,0,-1,1231,428,10.1212,62.9142
14,596,6.74353,-57.8412,0,0,0,0,0,0,0,-1,1238,428,6.74348,57.8413
21,596,6.20215,-58.0844,0,0,0,0,0,0,0,-1,1245,428,6.20217,58.0844
28,596,6.33081,-58.432,0,0,0,0,0,0,0,-1,1252,428,6.33085,58.432
35,596,6.05603,-57.33,0,0,0,0,0,0,0,-1,1259,428,6.05602,57.3299
42,596,6.51208,-58.7928,0,0,0,0,0,0,0,-1,1266,428,6.51208,58.7928
49,596,6.15137,-59.3647,0,0,0,0,0,0,0,-1,1273,428,6.15134,59.3647
56,596,5.56189,-59.6839,0,0,0,0,0,0,0,-1,1280,428,5.5619,59.6839
63,596,5.76855,-58.4064,0,0,0,0,0,0,0,-1,1287,428,5.76854,58.4064
70,596,5.16846,-58.2259,0,0,0,0,0,0,0,-1,1294,428,5.1684,58.2259
77,596,4.57727,-58.0567,0,0,0,0,0,0,0,-1,1301,428,4.57731,58.0567
84,596,2.06641,-58.7311,0,0,0,0,0,0,0,-1,1308,428,2.06646,58.7311
91,596,1.30322,-58.9293,0,0,0,0,0,0,0,-1,1315,428,1.30326,58.9293
98,596,0.510254,-59.6605,0,0,0,0,0,0,0,-1,1322,428,0.510242,59.6605
105,596,2.40173,-55.2708,0,0,0,0,0,0,0,-1,1329,428,2.40169,55.2708
112,596,8.2168,-59.177,0,0,0,0,0,0,0,-1,1336,428,8.21686,59.177
119,596,8.50696,-58.7687,0,0,0,0,0,0,0,-1,1343,428,8.50701,58.7687
126,596,2.04529,-56.099,0,0,0,0,0,0,0,-1,1350,428,2.04534,56.099
133,596,8.6499,-58.1511,0,0,0,0,0,0,0,-1,1357,428,8.64984,58.1511
140,596,9.03662,-57.6355,0,0,0,0,0,0,0,-1,1364,428,9.03657,57.6355
147,596,8.73999,-57.4973,0,0,0,0,0,0,0,-1,1371,428,8.74004,57.4973
154,596,8.37219,-57.8232,0,0,0,0,0,0,0,-1,1378,428,8.37216,57.8232
161,596,8.87183,-57.51,0,0,0,0,0,0,0,-1,1385,428,8.87184,57.51
168,596,9.1366,-57.0482,0,0,0,0,0,0,0,-1,1392,428,9.13657,57.0482
175,596,9.39026,-56.7997,0,0,0,0,0,0,0,-1,1399,428,9.39021,56.7997
182,596,9.54993,-56.6382,0,0,0,0,0,0,0,-1,1406,428,9.54998,56.6382
189,596,9.47925,-56.2585,0,0,0,0,0,0,0,-1,1413,428,9.47927,56.2585
196,596,9.39331,-55.6302,0,0,0,0,0,0,0,-1,1420,428,9.39332,55.6302
203,596,9.35217,-55.5374,0,0,0,0,0,0,0,-1,1427,428,9.35216,55.5374
210,596,9.43262,-55.3193,0,0,0,0,0,0,0,-1,1434,428,9.43266,55.3193
217,596,9.45691,-54.7361,0,0,0,0,0,0,0,-1,1441,428,9.4569,54.7361
224,596,9.54138,-54.2336,0,0,0,0,0,0,0,-1,1448,428,9.54143,54.2336
231,596,9.64685,-53.7592,0.00533871,-0.00351192,-0.00203839,0.00578561,-0.00395882,-0.215825,0.00565881,0.0272812,1455,428,9.64683,53.7592
238,596,9.63428,-53.1901,0.00507042,-0.00299395,-0.0013795,0.00529987,-0.0032234,-0.16482,0.00496935,0.0175349,1462,428,9.63431,53.1901
245,596,9.64185,-52.6494,0.00469782,-0.00258242,-0.00103828,0.004843,-0.0027276,-0.138927,0.0044274,0.0140913,1469,428,9.64188,52.6493
252,596,9.64697,-52.0944,0.00411959,-0.00233044,-0.000682215,0.00419095,-0.0024018,-0.104233,0.00385277,0.0108329,1476,428,9.64703,52.0944
259,596,9.64978,-51.537,0.0034828,-0.00213355,-0.000416194,0.00351347,-0.00216423,-0.0735683,0.00330873,0.0100592,1483,428,9.64973,51.537
266,596,9.65027,-50.9712,0.00290332,-0.00186605,-0.000214914,0.00291298,-0.00187571,-0.0449399,0.00278629,0.0109141,1490,428,9.65029,50.9712
273,596,9.66357,-50.3847,0.00238512,-0.00130563,4.52137e-05,0.00238568,-0.00130618,0.0122481,0.00216165,0.0123094,1497,428,9.66363,50.3847
280,596,9.66248,-49.7768,0.00201611,-0.000703231,0.00037291,0.00206632,-0.000753442,0.133841,0.00168578,0.0133395,1504,428,9.66244,49.7768
287,596,9.63501,-49.1463,0.00180362,7.10083e-05,0.000749109,0.00208259,-0.000207959,0.356488,0.00146265,0.0121749,1511,428,9.63503,49.1463
294,596,9.60059,-48.5163,0.00161065,0.000963683,0.00118302,0.00251362,6.07198e-05,0.65194,0.00165587,0.0093235,1518,428,9.60058,48.5163
301,596,9.58203,-47.8828,0.00145943,0.00192001,0.00164757,0.0033533,2.61334e-05,0.854837,0.00222688,0.0102288,1525,428,9.58198,47.8828
308,596,9.56055,-47.2267,0.00139327,0.00300087,0.00216176,0.00450343,-0.00010929,0.96339,0.00303937,0.0160692,1532,428,9.56051,47.2267
315,596,9.50415,-46.5477,0.0013371,0.00411144,0.00271349,0.00577178,-0.000323235,1.02169,0.00396,0.0171133,1539,428,9.50416,46.5477
322,596,9.48438,-45.8655,0.00122785,0.00529359,0.00332896,0.0071613,-0.000639861,1.05951,0.00500115,0.0146445,1546,428,9.48432,45.8655
329,596,9.4563,-45.2034,0.00110533,0.0065133,0.00400533,0.00864193,-0.0010233,1.08231,0.00613092,0.0110238,1553,428,9.45629,45.2034
336,596,9.41968,-44.5369,0.00098717,0.0079714,0.00472794,0.0103571,-0.00139849,1.10348,0.00741496,0.0100334,1560,428,9.41964,44.5369
343,596,9.39368,-43.8364,0.000837198,0.00978004,0.00552308,0.0124148,-0.00179758,1.12568,0.0089362,0.0120735,1567,428,9.39373,43.8364
350,596,9.36145,-43.0995,0.000663749,0.0118281,0.00633834,0.014692,-0.00220009,1.14642,0.0106044,0.011636,1574,428,9.36144,43.0995
357,596,9.28906,-42.3901,0.000388224,0.013817,0.00720414,0.0169506,-0.00274536,1.16051,0.0123179,0.0100118,1581,428,9.28905,42.3901
364,596,9.22546,-41.638,2.74707e-05,0.0159035,0.00791387,0.0191745,-0.00324349,1.17886,0.0139901,0.0115065,1588,428,9.22545,41.638
371,596,9.19775,-40.9073,-0.000124967,0.0186589,0.00877776,0.0221222,-0.00358829,1.19499,0.0160783,0.0125131,1595,428,9.19779,40.9073
378,596,9.14246,-40.1367,0.000262794,0.0215264,0.00958502,0.0252092,-0.00342001,1.20396,0.0180544,0.0174441,1602,428,9.14246,40.1367
385,596,9.08948,-39.1017,0.00137715,0.024751,0.0106745,0.0288922,-0.00276407,1.20072,0.0202458,0.0374059,1609,428,9.08951,39.1017
392,596,9.06836,-38.0751,0.00307732,0.0271627,0.0115136,0.031781,-0.00154101,1.18933,0.0217192,0.0483861,1616,428,9.06833,38.0751
399,596,8.99805,-37.2631,0.0054236,0.0301499,0.0130791,0.0357843,-0.00021073,1.16403,0.0239267,0.0498255,1623,428,8.998,37.2631
406,596,8.91809,-36.6775,0,0,0,0,0,0,0,-1,1630,428,8.91815,36.6775
413,596,3.39124,-2.63528,0,0,0,0,0,0,0,-1,1637,428,3.39122,2.6353
420,596,2.6344,-3.06308,0,0,0,0,0,0,0,-1,1644,428,2.63439,3.06308
427,596,7.61975,-22.7222,0,0,0,0,0,0,0,-1,1651,428,7.61974,22.7222
434,596,5.09753,-22.5213,0,0,0,0,0,0,0,-1,1658,428,5.09755,22.5213
441,596,7.19043,-22.087,0,0,0,0,0,0,0,-1,1665,428,7.19046,22.087
448,596,1.0769,0.0083313,0,0,0,0,0,0,0,-1,1672,428,1.07684,-0.00832231
455,596,2.00769,-1.43329,0,0,0,0,0,0,0,-1,1679,428,2.00765,1.4333
462,596,0,0,0,0,0,0,0,0,0,-1,1686,428,0,0
469,596,0,0,0,0,0,0,0,0,0,-1,1693,428,0,0
476,596,0,0,0,0,0,0,0,0,0,-1,1700,428,0,0
483,596,0,0,0,0,0,0,0,0,0,-1,1707,428,0,0
490,596,0,0,0,0,0,0,0,0,0,-1,1714,428,0,0
497,596,0,0,0,0,0,0,0,0,0,-1,1721,428,0,0
504,596,0,0,0,0,0,0,0,0,0,-1,1728,428,0,0
511,596,0,0,0,0,0,0,0,0,0,-1,1735,428,0,0
518,596,0,0,0,0,0,0,0,0,0,-1,1742,428,0,0
525,596,0,0,0,0,0,0,0,0,0,-1,1749,428,0,0
532,596,0,0,0,0,0,0,0,0,0,-1,1756,428,0,0
539,596,0,0,0,0,0,0,0,0,0,-1,1763,428,0,0
546,596,0,0,0,0,0,0,0,0,0,-1,1770,428,0,0
553,596,0,0,0,0,0,0,0,0,0,-1,1777,428,0,0
560,596,0,0,0,0,0,0,0,0,0,-1,1784,428,0,0
567,596,0,0,0,0,0,0,0,0,0,-1,1791,428,0,0
574,596,0,0,0,0,0,0,0,0,0,-1,1798,428,0,0
581,596,0,0,0,0,0,0,0,0,0,-1,1805,428,0,0
588,596,0,0,0,0,0,0,0,0,0,-1,1812,428,0,0
595,596,0,0,0,0,0,0,0,0,0,-1,1819,428,0,0
602,596,0,0,0,0,0,0,0,0,0,-1,1826,428,0,0
609,596,0,0,0,0,0,0,0,0,0,-1,1833,428,0,0
616,596,0,0,0,0,0,0,0,0,0,-1,1840,428,0,0
623,596,0,0,0,0,0,0,0,0,0,-1,1847,428,0,0
630,596,0,0,0,0,0,0,0,0,0,-1,1854,428,0,0
637,596,0,0,0,0,0,0,0,0,0,-1,1861,428,0,0
644,596,0,0,0,0,0,0,0,0,0,-1,1868,428,0,0
651,596,0,0,0,0,0,0,0,0,0,-1,1875,428,0,0
658,596,0,0,0,0,0,0,0,0,0,-1,1882,428,0,0
665,596,0,0,0,0,0,0,0,0,0,-1,1889,428,0,0
672,596,0,0,0,0,0,0,0,0,0,-1,1896,428,0,0
679,596,0,0,0,0,0,0,0,0,0,-1,1903,428,0,0
686,596,0,0,0,0,0,0,0,0,0,-1,1910,428,0,0
693,596,0,0,0,0,0,0,0,0,0,-1,1917,428,0,0
700,596,0,0,0,0,0,0,0,0,0,-1,1924,428,0,0
707,596,0,0,0,0,0,0,0,0,0,-1,1931,428,0,0
714,596,0,0,0,0,0,0,0,0,0,-1,1938,428,0,0
721,596,0,0,0,0,0,0,0,0,0,-1,1945,428,0,0
728,596,0,0,0,0,0,0,0,0,0,-1,1952,428,0,0
735,596,0,0,0,0,0,0,0,0,0,-1,1959,428,0,0
742,596,0,0,0,0,0,0,0,0,0,-1,1966,428,0,0
749,596,0,0,0,0,0,0,0,0,0,-1,1973,428,0,0
756,596,0,0,0,0,0,0,0,0,0,-1,1980,428,0,0
763,596,0,0,0,0,0,0,0,0,0,-1,1987,428,0,0
770,596,0,0,0,0,0,0,0,0,0,-1,1994,428,0,0
777,596,0,0,0,0,0,0,0,0,0,-1,2001,428,0,0
784,596,0,0,0,0,0,0,0,0,0,-1,2008,428,0,0
791,596,0,0,0,0,0,0,0,0,0,-1,2015,428,0,0
798,596,0,0,0,0,0,0,0,0,0,-1,2022,428,0,0
805,596,0,0,0,0,0,0,0,0,0,-1,2029,428,0,0
812,596,0,0,0,0,0,0,0,0,0,-1,2036,428,0,0
-700,589,0,0,0,0,0,0,0,0,0,-1,524,435,0,0
-693,589,0,0,0,0,0,0,0,0,0,-1,531,435,0,0
-686,589,0,0,0,0,0,0,0,0,0,-1,538,435,0,0
-679,589,0,0,0,0,0,0,0,0,0,-1,545,435,0,0
-672,589,0,0,0,0,0,0,0,0,0,-1,552,435,0,0
-665,589,0,0,0,0,0,0,0,0,0,-1,559,435,0,0
-658,589,0,0,0,0,0,0,0,0,0,-1,566,435,0,0
-651,589,0,0,0,0,0,0,0,0,0,-1,573,435,0,0
-644,589,0,0,0,0,0,0,0,0,0,-1,580,435,0,0
-637,589,0,0,0,0,0,0,0,0,0,-1,587,435,0,0
-630,589,0,0,0,0,0,0,0,0,0,-1,594,435,0,0
-623,589,0,0,0,0,0,0,0,0,0,-1,601,435,0,0
-616,589,0,0,0,0,0,0,0,0,0,-1,608,435,0,0
-609,589,0,0,0,0,0,0,0,0,0,-1,615,435,0,0
-602,589,0,0,0,0,0,0,0,0,0,-1,622,435,0,0
-595,589,0,0,0,0,0,0,0,0,0,-1,629,435,0,0
-588,589,0,0,0,0,0,0,0,0,0,-1,636,435,0,0
-581,589,0,0,0,0,0,0,0,0,0,-1,643,435,0,0
-574,589,0,0,0,0,0,0,0,0,0,-1,650,435,0,0
-567,589,0,0,0,0,0,0,0,0,0,-1,657,435,0,0
-560,589,0,0,0,0,0,0,0,0,0,-1,664,435,0,0
-553,589,0,0,0,0,0,0,0,0,0,-1,671,435,0,0
-546,589,0,0,0,0,0,0,0,0,0,-1,678,435,0,0
-539,589,0,0,0,0,0,0,0,0,0,-1,685,435,0,0
-532,589,0,0,0,0,0,0,0,0,0,-1,692,435,0,0
-525,589,0,0,0,0,0,0,0,0,0,-1,699,435,0,0
-518,589,0,0,0,0,0,0,0,0,0,-1,706,435,0,0
-511,589,0,0,0,0,0,0,0,0,0,-1,713,435,0,0
-504,589,0,0,0,0,0,0,0,0,0,-1,720,435,0,0
-497,589,0,0,0,0,0,0,0,0,0,-1,727,435,0,0
-490,589,0,0,0,0,0,0,0,0,0,-1,734,435,0,0
-483,589,0,0,0,0,0,0,0,0,0,-1,741,435,0,0
-476,589,0,0,0,0,0,0,0,0,0,-1,748,435,0,0
-469,589,0,0,0,0,0,0,0,0,0,-1,755,435,0,0
-462,589,0,0,0,0,0,0,0,0,0,-1,762,435,0,0
-455,589,0,0,0,0,0,0,0,0,0,-1,769,435,0,0
-448,589,0,0,0,0,0,0,0,0,0,-1,776,435,0,0
-441,589,0,0,0,0,0,0,0,0,0,-1,783,435,0,0
-434,589,0,0,0,0,0,0,0,0,0,-1,790,435,0,0
-427,589,0,0,0,0,0,0,0,0,0,-1,797,435,0,0
-420,589,0,0,0,0,0,0,0,0,0,-1,804,435,0,0
-413,589,0,0,0,0,0,0,0,0,0,-1,811,435,0,0
-406,589,0,0,0,0,0,0,0,0,0,-1,818,435,0,0
-399,589,0,0,0,0,0,0,0,0,0,-1,825,435,0,0
-392,589,0,0,0,0,0,0,0,0,0,-1,832,435,0,0
-385,589,0,0,0,0,0,0,0,0,0,-1,839,435,0,0
-378,589,0,0,0,0,0,0,0,0,0,-1,846,435,0,0
-371,589,0,0,0,0,0,0,0,0,0,-1,853,435,0,0
-364,589,0,0,0,0,0,0,0,0,0,-1,860,435,0,0
-357,589,0,0,0,0,0,0,0,0,0,-1,867,435,0,0
-350,589,-0.799927,-20.664,0,0,0,0,0,0,0,-1,874,435,-0.799952,20.664
-343,589,5.15289,-30.4847,0,0,0,0,0,0,0,-1,881,435,5.15291,30.4847
-336,589,5.07684,-29.2368,0,0,0,0,0,0,0,-1,888,435,5.07687,29.2368
-329,589,4.9624,-28.1366,0,0,0,0,0,0,0,-1,895,435,4.96242,28.1366
-322,589,5.10156,-27.065,0,0,0,0,0,0,0,-1,902,435,5.10155,27.065
-315,589,4.22705,-27.9655,0,0,0,0,0,0,0,-1,909,435,4.22705,27.9655
-308,589,4.46698,-29.037,0,0,0,0,0,0,0,-1,916,435,4.46696,29.037
-301,589,4.94867,-33.7458,0,0,0,0,0,0,0,-1,923,435,4.94869,33.7458
-294,589,4.1037,-31.2976,0,0,0,0,0,0,0,-1,930,435,4.10371,31.2976
-287,589,4.64606,-36.5168,0,0,0,0,0,0,0,-1,937,435,4.64607,36.5168
-280,589,4.70435,-37.4412,-0.00405399,0.0189942,-0.00921523,0.0222257,-0.0072854,-1.23353,0.0177511,0.0479551,944,435,4.70433,37.4412
-273,589,4.57422,-38.2397,-0.00330016,0.0176061,-0.00864989,0.0207209,-0.00641495,-1.22516,0.0163765,0.0300807,951,435,4.57424,38.2396
-266,589,4.49896,-39.062,-0.00271955,0.016088,-0.00800149,0.0190315,-0.00566303,-1.21829,0.0149375,0.0279155,958,435,4.49893,39.062
-259,589,4.44073,-39.8754,-0.00221428,0.0145825,-0.00741461,0.0173872,-0.00501898,-1.20916,0.0135773,0.022893,965,435,4.44073,39.8754
-252,589,4.42346,-40.6979,-0.00179992,0.0130946,-0.00669049,0.0156586,-0.00436387,-1.20484,0.0121576,0.0114254,972,435,4.42345,40.6979
-245,589,4.40314,-41.4316,-0.00132985,0.0115324,-0.00600545,0.0139004,-0.00369787,-1.1952,0.0107144,0.0108493,979,435,4.40313,41.4317
-238,589,4.33514,-42.1298,-0.000929633,0.00997755,-0.0052514,0.0120949,-0.00304696,-1.18754,0.00924777,0.0154432,986,435,4.33515,42.1298
-231,589,4.27661,-42.83,-0.000540092,0.00846862,-0.0045002,0.0103314,-0.00240292,-1.17833,0.00781276,0.014394,993,435,4.27664,42.8301
-224,589,4.22076,-43.5201,-6.18595e-05,0.00698501,-0.00393717,0.00874512,-0.00182197,-1.1504,0.00652278,0.0141297,1000,435,4.22074,43.5201
-217,589,4.19623,-44.2311,0.000342441,0.00534741,-0.00333606,0.00701527,-0.00132541,-1.10719,0.00517553,0.0162666,1007,435,4.19626,44.2311
-210,589,4.18408,-44.9248,0.000725157,0.00369982,-0.00272919,0.00532065,-0.000895669,-1.03489,0.00388027,0.0168988,1014,435,4.1841,44.9248
-203,589,4.15869,-45.584,0.00111481,0.00213857,-0.00216709,0.00385341,-0.000600036,-0.901376,0.00279054,0.0130956,1021,435,4.15868,45.584
-196,589,4.12512,-46.243,0.00142182,0.000671084,-0.00165368,0.00274219,-0.000649292,-0.673795,0.00207864,0.0152475,1028,435,4.12516,46.243
-189,589,4.10132,-46.9228,0.00171651,-0.000673259,-0.00122338,0.00223171,-0.00118846,-0.39859,0.00200503,0.0190297,1035,435,4.10128,46.9228
-182,589,4.07739,-47.5089,0.00205302,-0.00193664,-0.00074251,0.00218673,-0.00207035,-0.178164,0.00245813,0.0137782,1042,435,4.07734,47.509
-175,589,4.0719,-48.1414,0.00236643,-0.00303859,-0.000289434,0.00238188,-0.00305405,-0.0533459,0.00314642,0.0165808,1049,435,4.0719,48.1414
-168,589,4.06006,-48.7987,0.00256145,-0.00405656,0.000134275,0.00256417,-0.00405928,0.0202782,0.00385639,0.014076,1056,435,4.06006,48.7987
-161,589,4.06433,-49.391,0.00277228,-0.00489556,0.000531532,0.00280895,-0.00493223,0.0688807,0.00452506,0.0129423,1063,435,4.06433,49.391
-154,589,4.03577,-49.9919,0.00302646,-0.00560019,0.000902429,0.00311985,-0.00569358,0.103122,0.00516025,0.0122833,1070,435,4.03572,49.9919
-147,589,4.05664,-50.5601,0.0033031,-0.00607163,0.00129408,0.00347845,-0.00624699,0.134685,0.00569032,0.0126821,1077,435,4.05667,50.5601
-140,589,4.07141,-51.111,0.00361595,-0.0066801,0.0016908,0.0038865,-0.00695065,0.158669,0.00633965,0.0152574,1084,435,4.07147,51.111
-133,589,4.06482,-51.682,0.00391877,-0.00711099,0.00203797,0.00428328,-0.0074755,0.176988,0.00687182,0.0147978,1091,435,4.06486,51.682
-126,589,4.09875,-52.2434,0.00433684,-0.00717234,0.00228522,0.00477398,-0.00760948,0.189007,0.0072118,0.0122739,1098,435,4.09873,52.2434
-119,589,4.08801,-52.7778,0.00505293,-0.00723665,0.00234531,0.0054853,-0.00766901,0.182305,0.00762945,0.0229058,1105,435,4.08804,52.7778
-112,589,4.06616,-53.3061,0,0,0,0,0,0,0,-1,1112,435,4.06618,53.3061
-105,589,4.09619,-53.8892,0,0,0,0,0,0,0,-1,1119,435,4.09617,53.8892
-98,589,4.1438,-54.5975,0,0,0,0,0,0,0,-1,1126,435,4.14378,54.5975
-91,589,3.39563,-37.8231,0,0,0,0,0,0,0,-1,1133,435,3.39565,37.8231
-84,589,2.76538,-22.6013,0,0,0,0,0,0,0,-1,1140,435,2.76539,22.6014
-77,589,2.18152,-14.8023,0,0,0,0,0,0,0,-1,1147,435,2.18155,14.8023
-70,589,1.48267,-9.90961,0,0,0,0,0,0,0,-1,1154,435,1.48264,9.9096
-63,589,0.880127,-5.50586,0,0,0,0,0,0,0,-1,1161,435,0.880186,5.50587
-56,589,-2.78052,-7.28082,0,0,0,0,0,0,0,-1,1168,435,-2.78053,7.28082
-49,589,-0.525757,-2.76703,0,0,0,0,0,0,0,-1,1175,435,-0.525771,2.76702
-42,589,-2.7738,-2.87921,0,0,0,0,0,0,0,-1,1182,435,-2.77383,2.87922
-35,589,-2.55225,-3.27551,0,0,0,0,0,0,0,-1,1189,435,-2.55223,3.27552
-28,589,-0.0632324,-3.42938,0,0,0,0,0,0,0,-1,1196,435,-0.063241,3.42938
-21,589,3.68359,-57.0168,0,0,0,0,0,0,0,-1,1203,435,3.68359,57.0168
-14,589,3.44397,-56.9379,0,0,0,0,0,0,0,-1,1210,435,3.44398,56.9379
-7,589,3.5188,-57.0017,0,0,0,0,0,0,0,-1,1217,435,3.51874,57.0017
0,589,11.6169,-63.2163,0,0,0,0,0,0,0,-1,1224,435,11.6169,63.2163
7,589,11.0763,-62.9752,0,0,0,0,0,0,0,-1,1231,435,11.0763,62.9752
14,589,10.127,-62.3629,0,0,0,0,0,0,0,-1,1238,435,10.1269,62.3629
21,589,9.52551,-62.0526,0,0,0,0,0,0,0,-1,1245,435,9.52556,62.0527
28,589,8.92468,-61.7475,0,0,0,0,0,0,0,-1,1252,435,8.92462,61.7475
35,589,8.38391,-61.1129,0,0,0,0,0,0,0,-1,1259,435,8.38389,61.1129
42,589,7.26233,-60.3877,0,0,0,0,0,0,0,-1,1266,435,7.26238,60.3877
49,589,5.6969,-59.1992,0,0,0,0,0,0,0,-1,1273,435,5.69694,59.1991
56,589,6.30652,-58.4788,0,0,0,0,0,0,0,-1,1280,435,6.30654,58.4788
63,589,5.83557,-58.4365,0,0,0,0,0,0,0,-1,1287,435,5.83559,58.4365
70,589,5.22302,-58.2443,0,0,0,0,0,0,0,-1,1294,435,5.22303,58.2443
77,589,2.56543,-58.2198,0,0,0,0,0,0,0,-1,1301,435,2.56538,58.2198
84,589,1.83008,-58.4456,0,0,0,0,0,0,0,-1,1308,435,1.83003,58.4455
91,589,1.06641,-58.6736,0,0,0,0,0,0,0,-1,1315,435,1.06646,58.6736
98,589,2.34924,-56.2771,0,0,0,0,0,0,0,-1,1322,435,2.3492,56.2771
105,589,2.32214,-55.7621,0,0,0,0,0,0,0,-1,1329,435,2.32213,55.7621
112,589,2.53906,-55.4715,0,0,0,0,0,0,0,-1,1336,435,2.53902,55.4715
119,589,2.09558,-54.794,0,0,0,0,0,0,0,-1,1343,435,2.09556,54.794
126,589,1.88867,-55.6635,0,0,0,0,0,0,0,-1,1350,435,1.88866,55.6635
133,589,1.10754,-56.0854,0,0,0,0,0,0,0,-1,1357,435,1.10754,56.0854
140,589,0.379883,-55.5643,0,0,0,0,0,0,0,-1,1364,435,0.379915,55.5643
147,589,4.36267,-70.4608,0,0,0,0,0,0,0,-1,1371,435,4.36273,70.4608
154,589,4.0575,-71.5477,0,0,0,0,0,0,0,-1,1378,435,4.05752,71.5477
161,589,-2.87488,-52.599,0,0,0,0,0,0,0,-1,1385,435,-2.87491,52.599
168,589,20.0441,-47.9614,0,0,0,0,0,0,0,-1,1392,435,20.044,47.9613
175,589,8.66992,-7.65527,0,0,0,0,0,0,0,-1,1399,435,8.66994,7.65528
182,589,3.8136,-2.45389,0,0,0,0,0,0,0,-1,1406,435,3.81363,2.4539
189,589,3.69983,-3.68149,0,0,0,0,0,0,0,-1,1413,435,3.69987,3.68147
196,589,3.31055,-5.31677,0,0,0,0,0,0,0,-1,1420,435,3.31059,5.31678
203,589,2.72559,-8.84338,0,0,0,0,0,0,0,-1,1427,435,2.72558,8.84338
210,589,3.62378,-14.4032,0,0,0,0,0,0,0,-1,1434,435,3.62378,14.4032
217,589,4.65601,-22.3745,0,0,0,0,0,0,0,-1,1441,435,4.65607,22.3745
224,589,6.79028,-33.9412,0,0,0,0,0,0,0,-1,1448,435,6.79028,33.9412
231,589,10.2329,-53.8017,0,0,0,0,0,0,0,-1,1455,435,10.2329,53.8017
238,589,10.1873,-53.1719,0,0,0,0,0,0,0,-1,1462,435,10.1873,53.1719
245,589,10.1946,-52.6075,0,0,0,0,0,0,0,-1,1469,435,10.1945,52.6075
252,589,10.22,-52.0351,0.00550041,-0.00480991,-0.00170585,0.00577532,-0.00508481,-0.15978,0.00627432,0.0256187,1476,435,10.2199,52.0351
259,589,10.218,-51.5164,0.00470737,-0.00502117,-0.00148258,0.00492829,-0.00524209,-0.147923,0.0058728,0.0115982,1483,435,10.218,51.5164
266,589,10.2379,-50.9336,0.00396499,-0.00508103,-0.00137426,0.00416915,-0.0052852,-0.147487,0.00547113,0.0105631,1490,435,10.2379,50.9336
273,589,10.2596,-50.3687,0.00328201,-0.0047646,-0.00119434,0.00345554,-0.00493813,-0.144285,0.00487122,0.0120916,1497,435,10.2596,50.3687
280,589,10.2496,-49.7657,0.00275992,-0.0044152,-0.000978068,0.00289085,-0.00454613,-0.13308,0.00432905,0.012872,1504,435,10.2497,49.7657
287,589,10.2297,-49.1368,0.00240116,-0.00384588,-0.000772153,0.00249518,-0.0039399,-0.121174,0.00374638,0.0119107,1511,435,10.2297,49.1368
294,589,10.2185,-48.4842,0.00208735,-0.00305008,-0.000463306,0.00212879,-0.00309153,-0.0892233,0.00303099,0.0105338,1518,435,10.2185,48.4842
301,589,10.2214,-47.8498,0.00182857,-0.00218047,-0.00012849,0.00183269,-0.00218458,-0.0320062,0.00232234,0.0106816,1525,435,10.2214,47.8498
308,589,10.2166,-47.2084,0.00166052,-0.00114585,0.000262798,0.00168492,-0.00117024,0.0925711,0.00165733,0.0108114,1532,435,10.2166,47.2084
315,589,10.1786,-46.5374,0.00151454,-4.03404e-05,0.000712078,0.00179136,-0.000317162,0.370772,0.0013128,0.0111365,1539,435,10.1786,46.5374
322,589,10.1636,-45.8616,0.00133715,0.00121973,0.00125675,0.00253656,2.03165e-05,0.762058,0.00168431,0.0120648,1546,435,10.1636,45.8616
329,589,10.1245,-45.1956,0.00118736,0.0025116,0.00189196,0.00385395,-0.000154993,0.95372,0.00262249,0.0107447,1553,435,10.1245,45.1956
336,589,10.0941,-44.5272,0.00106289,0.00399722,0.00258912,0.00550598,-0.000445867,1.04317,0.00382794,0.0102024,1560,435,10.0941,44.5272
343,589,10.0652,-43.8349,0.000901741,0.00581122,0.00338098,0.00753461,-0.000821653,1.09939,0.00531816,0.0109712,1567,435,10.0651,43.8349
350,589,10.0292,-43.1215,0.000735455,0.00781762,0.00421667,0.00978286,-0.00122978,1.13466,0.0069681,0.0160472,1574,435,10.0292,43.1215
357,589,10.0054,-42.3874,0.000497248,0.00978586,0.00508678,0.0120296,-0.00174647,1.15538,0.00866077,0.0144559,1581,435,10.0053,42.3874
364,589,9.97681,-41.6515,0.000213587,0.0117748,0.0058718,0.0142339,-0.00224556,1.17418,0.0103196,0.0122776,1588,435,9.97683,41.6515
371,589,9.92285,-40.9178,5.24353e-05,0.0141372,0.0067302,0.016836,-0.00264636,1.18943,0.0122022,0.0123855,1595,435,9.92289,40.9178
378,589,9.86914,-40.1648,0.000321753,0.0164582,0.00747362,0.0193878,-0.00260781,1.19722,0.0138764,0.0134762,1602,435,9.86911,40.1648
385,589,9.8252,-39.3784,0.00118568,0.0190095,0.00840522,0.0223479,-0.00215271,1.19272,0.0156655,0.0218019,1609,435,9.82519,39.3784
392,589,9.76001,-38.4448,0.00251504,0.0207698,0.00913995,0.0245594,-0.00127454,1.17775,0.0168139,0.0302384,1616,435,9.76007,38.4448
399,589,9.77026,-37.5247,0.00425716,0.0229306,0.0104005,0.0275705,-0.000382712,1.15117,0.0185092,0.0377538,1623,435,9.77021,37.5247
406,589,9.59229,-36.863,0,0,0,0,0,0,0,-1,1630,435,9.59234,36.863
413,589,5.61377,-19.0606,0,0,0,0,0,0,0,-1,1637,435,5.61372,19.0606
420,589,2.79724,-5.79956,0,0,0,0,0,0,0,-1,1644,435,2.7973,5.79955
427,589,9.02429,-34.7371,0,0,0,0,0,0,0,-1,1651,435,9.02434,34.7371
434,589,9.78113,-33.2408,0,0,0,0,0,0,0,-1,1658,435,9.78111,33.2408
441,589,7.85901,-29.8665,0,0,0,0,0,0,0,-1,1665,435,7.85898,29.8666
448,589,0.453735,-3.2868,0,0,0,0,0,0,0,-1,1672,435,0.453701,3.28681
455,589,0.664307,-3.46848,0,0,0,0,0,0,0,-1,1679,435,0.66425,3.46846
462,589,3.46716,-4.41891,0,0,0,0,0,0,0,-1,1686,435,3.4672,4.41891
469,589,0.0238037,-3.81497,0,0,0,0,0,0,0,-1,1693,435,0.0237965,3.81498
476,589,0,0,0,0,0,0,0,0,0,-1,1700,435,0,0
483,589,0,0,0,0,0,0,0,0,0,-1,1707,435,0,0
490,589,0,0,0,0,0,0,0,0,0,-1,1714,435,0,0
497,589,0,0,0,0,0,0,0,0,0,-1,1721,435,0,0
504,589,0,0,0,0,0,0,0,0,0,-1,1728,435,0,0
511,589,0,0,0,0,0,0,0,0,0,-1,1735,435,0,0
518,589,0,0,0,0,0,0,0,0,0,-1,1742,435,0,0
525,589,0,0,0,0,0,0,0,0,0,-1,1749,435,0,0
532,589,0,0,0,0,0,0,0,0,0,-1,1756,435,0,0
539,589,0,0,0,0,0,0,0,0,0,-1,1763,435,0,0
546,589,0,0,0,0,0,0,0,0,0,-1,1770,435,0,0
553,589,0,0,0,0,0,0,0,0,0,-1,1777,435,0,0
560,589,0,0,0,0,0,0,0,0,0,-1,1784,435,0,0
567,589,0,0,0,0,0,0,0,0,0,-1,1791,435,0,0
574,589,0,0,0,0,0,0,0,0,0,-1,1798,435,0,0
581,589,0,0,0,0,0,0,0,0,0,-1,1805,435,0,0
588,589,0,0,0,0,0,0,0,0,0,-1,1812,435,0,0
595,589,0,0,0,0,0,0,0,0,0,-1,1819,435,0,0
602,589,0,0,0,0,0,0,0,0,0,-1,1826,435,0,0
609,589,0,0,0,0,0,0,0,0,0,-1,1833,435,0,0
616,589,0,0,0,0,0,0,0,0,0,-1,1840,435,0,0
623,589,0,0,0,0,0,0,0,0,0,-1,1847,435,0,0
630,589,0,0,0,0,0,0,0,0,0,-1,1854,435,0,0
637,589,0,0,0,0,0,0,0,0,0,-1,1861,435,0,0
644,589,0,0,0,0,0,0,0,0,0,-1,1868,435,0,0
651,589,0,0,0,0,0,0,0,0,0,-1,1875,435,0,0
658,589,0,0,0,0,0,0,0,0,0,-1,1882,435,0,0
665,589,0,0,0,0,0,0,0,0,0,-1,1889,435,0,0
672,589,0,0,0,0,0,0,0,0,0,-1,1896,435,0,0
679,589,0,0,0,0,0,0,0,0,0,-1,1903,435,0,0
686,589,0,0,0,0,0,0,0,0,0,-1,1910,435,0,0
693,589,0,0,0,0,0,0,0,0,0,-1,1917,435,0,0
700,589,0,0,0,0,0,0,0,0,0,-1,1924,435,0,0
707,589,0,0,0,0,0,0,0,0,0,-1,1931,435,0,0
714,589,0,0,0,0,0,0,0,0,0,-1,1938,435,0,0
721,589,0,0,0,0,0,0,0,0,0,-1,1945,435,0,0
728,589,0,0,0,0,0,0,0,0,0,-1,1952,435,0,0
735,589,0,0,0,0,0,0,0,0,0,-1,1959,435,0,0
742,589,0,0,0,0,0,0,0,0,0,-1,1966,435,0,0
749,589,0,0,0,0,0,0,0,0,0,-1,1973,435,0,0
756,589,0,0,0,0,0,0,0,0,0,-1,1980,435,0,0
763,589,0,0,0,0,0,0,0,0,0,-1,1987,435,0,0
770,589,0,0,0,0,0,0,0,0,0,-1,1994,435,0,0
777,589,0,0,0,0,0,0,0,0,0,-1,2001,435,0,0
784,589,0,0,0,0,0,0,0,0,0,-1,2008,435,0,0
791,589,0,0,0,0,0,0,0,0,0,-1,2015,435,0,0
798,589,0,0,0,0,0,0,0,0,0,-1,2022,435,0,0
805,589,0,0,0,0,0,0,0,0,0,-1,2029,435,0,0
812,589,0,0,0,0,0,0,0,0,0,-1,2036,435,0,0
-700,582,0,0,0,0,0,0,0,0,0,-1,524,442,0,0
-693,582,0,0,0,0,0,0,0,0,0,-1,531,442,0,0
-686,582,0,0,0,0,0,0,0,0,0,-1,538,442,0,0
-679,582,0,0,0,0,0,0,0,0,0,-1,545,442,0,0
-672,582,0,0,0,0,0,0,0,0,0,-1,552,442,0,0
-665,582,0,0,0,0,0,0,0,0,0,-1,559,442,0,0
-658,582,0,0,0,0,0,0,0,0,0,-1,566,442,0,0
-651,582,0,0,0,0,0,0,0,0,0,-1,573,442,0,0
-644,582,0,0,0,0,0,0,0,0,0,-1,580,442,0,0
-637,582,0,0,0,0,0,0,0,0,0,-1,587,442,0,0
-630,582,0,0,0,0,0,0,0,0,0,-1,594,442,0,0
-623,582,0,0,0,0,0,0,0,0,0,-1,601,442,0,0
-616,582,0,0,0,0,0,0,0,0,0,-1,608,442,0,0
-609,582,0,0,0,0,0,0,0,0,0,-1,615,442,0,0
-602,582,0,0,0,0,0,0,0,0,0,-1,622,442,0,0
-595,582,0,0,0,0,0,0,0,0,0,-1,629,442,0,0
-588,582,0,0,0,0,0,0,0,0,0,-1,636,442,0,0
-581,582,0,0,0,0,0,0,0,0,0,-1,643,442,0,0
-574,582,0,0,0,0,0,0,0,0,0,-1,650,442,0,0
-567,582,0,0,0,0,0,0,0,0,0,-1,657,442,0,0
-560,582,0,0,0,0,0,0,0,0,0,-1,664,442,0,0
-553,582,0,0,0,0,0,0,0,0,0,-1,671,442,0,0
-546,582,0,0,0,0,0,0,0,0,0,-1,678,442,0,0
-539,582,0,0,0,0,0,0,0,0,0,-1,685,442,0,0
-532,582,0,0,0,0,0,0,0,0,0,-1,692,442,0,0
-525,582,0,0,0,0,0,0,0,0,0,-1,699,442,0,0
-518,582,0,0,0,0,0,0,0,0,0,-1,706,442,0,0
-511,582,0,0,0,0,0,0,0,0,0,-1,713,442,0,0
-504,582,0,0,0,0,0,0,0,0,0,-1,720,442,0,0
-497,582,0,0,0,0,0,0,0,0,0,-1,727,442,0,0
-490,582,0,0,0,0,0,0,0,0,0,-1,734,442,0,0
-483,582,0,0,0,0,0,0,0,0,0,-1,741,442,0,0
-476,582,0,0,0,0,0,0,0,0,0,-1,748,442,0,0
-469,582,0,0,0,0,0,0,0,0,0,-1,755,442,0,0
-462,582,0,0,0,0,0,0,0,0,0,-1,762,442,0,0
-455,582,0,0,0,0,0,0,0,0,0,-1,769,442,0,0
-448,582,0,0,0,0,0,0,0,0,0,-1,776,442,0,0
-441,582,0,0,0,0,0,0,0,0,0,-1,783,442,0,0
-434,582,0,0,0,0,0,0,0,0,0,-1,790,442,0,0
-427,582,0,0,0,0,0,0,0,0,0,-1,797,442,0,0
-420,582,0,0,0,0,0,0,0,0,0,-1,804,442,0,0
-413,582,0,0,0,0,0,0,0,0,0,-1,811,442,0,0
-406,582,0,0,0,0,0,0,0,0,0,-1,818,442,0,0
-399,582,0,0,0,0,0,0,0,0,0,-1,825,442,0,0
-392,582,0,0,0,0,0,0,0,0,0,-1,832,442,0,0
-385,582,0,0,0,0,0,0,0,0,0,-1,839,442,0,0
-378,582,0,0,0,0,0,0,0,0,0,-1,846,442,0,0
-371,582,0,0,0,0,0,0,0,0,0,-1,853,442,0,0
-364,582,0,0,0,0,0,0,0,0,0,-1,860,442,0,0
-357,582,-1.4903,-21.5295,0,0,0,0,0,0,0,-1,867,442,-1.49031,21.5295
-350,582,-0.880859,-19.7966,0,0,0,0,0,0,0,-1,874,442,-0.880885,19.7966
-343,582,0.939941,-19.1705,0,0,0,0,0,0,0,-1,881,442,0.939935,19.1705
-336,582,3.33929,-27.9479,0,0,0,0,0,0,0,-1,888,442,3.33928,27.9479
-329,582,3.63544,-26.4736,0,0,0,0,0,0,0,-1,895,442,3.63546,26.4736
-322,582,3.67145,-27.1796,0,0,0,0,0,0,0,-1,902,442,3.67143,27.1796
-315,582,3.90686,-27.6446,0,0,0,0,0,0,0,-1,909,442,3.90689,27.6446
-308,582,4.07587,-33.1895,0,0,0,0,0,0,0,-1,916,442,4.07588,33.1895
-301,582,4.28564,-34.9206,0,0,0,0,0,0,0,-1,923,442,4.28562,34.9206
-294,582,4.06738,-35.8099,0,0,0,0,0,0,0,-1,930,442,4.0674,35.8099
-287,582,3.94165,-36.6378,-0.00406509,0.0156762,-0.0079213,0.0184616,-0.00685054,-1.23266,0.0151178,0.0392647,937,442,3.94164,36.6378
-280,582,3.90887,-37.4986,-0.00326154,0.0146355,-0.00733639,0.0172584,-0.00588448,-1.22743,0.013889,0.0190681,944,442,3.90886,37.4986
-273,582,3.89941,-38.3643,-0.00258726,0.0135136,-0.00685828,0.0160388,-0.00511253,-1.21799,0.0127433,0.0136568,951,442,3.89941,38.3643
-266,582,3.8349,-39.1512,-0.00207384,0.0121831,-0.00626294,0.0145436,-0.00443428,-1.21037,0.0114633,0.0114254,958,442,3.83487,39.1512
-259,582,3.7757,-39.9239,-0.00158569,0.0107476,-0.00567107,0.0129588,-0.00379691,-1.19902,0.0101445,0.0084367,965,442,3.77568,39.9239
-252,582,3.73486,-40.6864,-0.00116262,0.00928186,-0.00497508,0.0112723,-0.0031531,-1.19021,0.00875722,0.00775407,972,442,3.73484,40.6864
-245,582,3.72443,-41.3894,-0.000692785,0.00775643,-0.00430207,0.00956134,-0.0024977,-1.17355,0.00734965,0.0125776,979,442,3.7244,41.3894
-238,582,3.67688,-42.0553,-0.000272809,0.00618418,-0.00354938,0.00775374,-0.00184236,-1.15444,0.00588029,0.0180073,986,442,3.67685,42.0553
-231,582,3.60986,-42.7563,0.000128205,0.00455217,-0.00279002,0.00590068,-0.0012203,-1.12057,0.00439736,0.0133637,993,442,3.60983,42.7563
-224,582,3.55627,-43.4876,0.000565229,0.00297092,-0.00215621,0.0042371,-0.000700948,-1.03982,0.00308504,0.0107511,1000,442,3.55628,43.4876
-217,582,3.52026,-44.1905,0.000974387,0.00126048,-0.00151375,0.00263793,-0.000403054,-0.832508,0.00190722,0.0137326,1007,442,3.52025,44.1905
-210,582,3.50598,-44.8611,0.00139719,-0.000461872,-0.000895362,0.00175828,-0.000822962,-0.383339,0.00152254,0.0148345,1014,442,3.50596,44.8612
-203,582,3.50903,-45.5402,0.00185641,-0.00204284,-0.000358372,0.00188907,-0.0020755,-0.0908934,0.00228979,0.0117727,1021,442,3.50899,45.5401
-196,582,3.47681,-46.2328,0.00222966,-0.0034968,0.00010893,0.00223173,-0.00349887,0.019013,0.00333542,0.0178768,1028,442,3.47676,46.2328
-189,582,3.46191,-46.8985,0.00256783,-0.00482266,0.000515939,0.00260368,-0.0048585,0.0693629,0.00437336,0.025022,1035,442,3.46187,46.8985
-182,582,3.42456,-47.5246,0.0029642,-0.00603545,0.000941424,0.00306163,-0.00613288,0.103119,0.00540627,0.0164581,1042,442,3.42458,47.5246
-175,582,3.41663,-48.1131,0.00336799,-0.00699917,0.0013134,0.0035318,-0.00716297,0.124077,0.00629215,0.0140003,1049,442,3.41668,48.1131
-168,582,3.42102,-48.7548,0.00364432,-0.00788215,0.00160648,0.00386403,-0.00810186,0.135923,0.00705145,0.0121141,1056,442,3.42104,48.7548
-161,582,3.42322,-49.352,0.00390233,-0.00858632,0.00188134,0.00417959,-0.00886358,0.146319,0.00769063,0.0131818,1063,442,3.42328,49.352
-154,582,3.42273,-49.9454,0.00419412,-0.00915129,0.0021068,0.00451881,-0.00947598,0.152914,0.00824713,0.0126107,1070,442,3.42278,49.9454
-147,582,3.43494,-50.5403,0.00444401,-0.00933371,0.00240528,0.00485184,-0.00974155,0.167961,0.0085817,0.0132295,1077,442,3.43497,50.5403
-140,582,3.43884,-51.0736,0.0047338,-0.00973042,0.00272512,0.00523018,-0.0102268,0.180177,0.00907819,0.0149871,1084,442,3.43888,51.0736
-133,582,3.49976,-51.6318,0.0049814,-0.00992138,0.00300264,0.00556363,-0.0105036,0.191529,0.00942144,0.0198071,1091,442,3.49977,51.6318
-126,582,3.53467,-52.0798,0.0053715,-0.00961778,0.00316227,0.00601133,-0.0102576,0.199637,0.00949893,0.0192925,1098,442,3.53466,52.0798
-119,582,3.49023,-52.6178,0.00614301,-0.00947464,0.00307424,0.00672637,-0.010058,0.187527,0.00975388,0.0452518,1105,442,3.49026,52.6178
-112,582,3.44958,-53.3641,0,0,0,0,0,0,0,-1,1112,442,3.44963,53.3641
-105,582,2.87219,-43.073,0,0,0,0,0,0,0,-1,1119,442,2.87217,43.073
-98,582,2.61938,-32.8673,0,0,0,0,0,0,0,-1,1126,442,2.61944,32.8673
-91,582,2.16492,-24.1119,0,0,0,0,0,0,0,-1,1133,442,2.16496,24.1119
-84,582,2.10278,-16.7533,0,0,0,0,0,0,0,-1,1140,442,2.10279,16.7533
-77,582,2.30212,-11.4907,0,0,0,0,0,0,0,-1,1147,442,2.30207,11.4907
-70,582,1.49255,-6.36548,0,0,0,0,0,0,0,-1,1154,442,1.49251,6.36549
-63,582,-4.62915,-4.0347,0,0,0,0,0,0,0,-1,1161,442,-4.6292,4.03471
-56,582,-5.81714,-5.24149,0,0,0,0,0,0,0,-1,1168,442,-5.81718,5.24149
-49,582,-3.88672,-10.1064,0,0,0,0,0,0,0,-1,1175,442,-3.88678,10.1064
-42,582,-0.948975,1.13968,0,0,0,0,0,0,0,-1,1182,442,-0.949003,-1.13969
-35,582,-2.58435,-3.86911,0,0,0,0,0,0,0,-1,1189,442,-2.58437,3.86912
-28,582,-0.825317,-3.45941,0,0,0,0,0,0,0,-1,1196,442,-0.825377,3.45942
-21,582,3.22595,-57.2831,0,0,0,0,0,0,0,-1,1203,442,3.2259,57.2831
-14,582,2.9679,-57.2292,0,0,0,0,0,0,0,-1,1210,442,2.96793,57.2292
-7,582,3.13159,-57.0041,0,0,0,0,0,0,0,-1,1217,442,3.13157,57.0041
0,582,12.5748,-63.4825,0,0,0,0,0,0,0,-1,1224,442,12.5749,63.4825
7,582,11.917,-62.9572,0,0,0,0,0,0,0,-1,1231,442,11.917,62.9572
14,582,11.3054,-62.4398,0,0,0,0,0,0,0,-1,1238,442,11.3055,62.4398
21,582,10.5133,-61.9234,0,0,0,0,0,0,0,-1,1245,442,10.5133,61.9234
28,582,9.7655,-61.4448,0,0,0,0,0,0,0,-1,1252,442,9.76545,61.4448
35,582,9.0929,-60.9481,0,0,0,0,0,0,0,-1,1259,442,9.09287,60.9481
42,582,8.18604,-60.2576,0,0,0,0,0,0,0,-1,1266,442,8.18599,60.2576
49,582,7.45264,-59.424,0,0,0,0,0,0,0,-1,1273,442,7.45267,59.424
56,582,6.73389,-58.9499,0,0,0,0,0,0,0,-1,1280,442,6.73386,58.9499
63,582,5.96008,-58.451,0,0,0,0,0,0,0,-1,1287,442,5.96003,58.451
70,582,5.33655,-58.143,0,0,0,0,0,0,0,-1,1294,442,5.33657,58.143
77,582,2.3927,-57.6717,0,0,0,0,0,0,0,-1,1301,442,2.3927,57.6717
84,582,1.38293,-58.1229,0,0,0,0,0,0,0,-1,1308,442,1.38296,58.1229
91,582,0.345947,-58.5812,0,0,0,0,0,0,0,-1,1315,442,0.345912,58.5812
98,582,2.35583,-56.7285,0,0,0,0,0,0,0,-1,1322,442,2.35582,56.7285
105,582,2.25549,-56.2292,0,0,0,0,0,0,0,-1,1329,442,2.2555,56.2292
112,582,2.31335,-55.6354,0,0,0,0,0,0,0,-1,1336,442,2.31332,55.6354
119,582,1.99658,-55.3008,0,0,0,0,0,0,0,-1,1343,442,1.99663,55.3007
126,582,1.80225,-55.3164,0,0,0,0,0,0,0,-1,1350,442,1.80222,55.3164
133,582,1.17834,-55.627,0,0,0,0,0,0,0,-1,1357,442,1.17833,55.6271
140,582,0.46167,-55.7964,0,0,0,0,0,0,0,-1,1364,442,0.461716,55.7964
147,582,-0.181519,-55.8953,0,0,0,0,0,0,0,-1,1371,442,-0.181508,55.8953
154,582,3.85791,-70.96,0,0,0,0,0,0,0,-1,1378,442,3.85786,70.9599
161,582,3.60242,-72.0464,0,0,0,0,0,0,0,-1,1385,442,3.60244,72.0464
168,582,0.081665,-40.4535,0,0,0,0,0,0,0,-1,1392,442,0.0816215,40.4535
175,582,6.50549,-2.00424,0,0,0,0,0,0,0,-1,1399,442,6.50546,2.00425
182,582,5.18958,-2.18652,0,0,0,0,0,0,0,-1,1406,442,5.1896,2.18652
189,582,6.19751,-0.880951,0,0,0,0,0,0,0,-1,1413,442,6.19754,0.88096
196,582,4.87354,-2.22327,0,0,0,0,0,0,0,-1,1420,442,4.87348,2.22325
203,582,3.11401,-4.48257,0,0,0,0,0,0,0,-1,1427,442,3.11404,4.48259
210,582,2.93115,-11.0731,0,0,0,0,0,0,0,-1,1434,442,2.93113,11.0731
217,582,4.94092,-16.5476,0,0,0,0,0,0,0,-1,1441,442,4.94087,16.5476
224,582,5.21008,-20.9908,0,0,0,0,0,0,0,-1,1448,442,5.21006,20.9908
231,582,5.70032,-25.622,0,0,0,0,0,0,0,-1,1455,442,5.70026,25.6221
238,582,6.44189,-30.7028,0,0,0,0,0,0,0,-1,1462,442,6.44195,30.7028
245,582,10.0378,-45.1569,0,0,0,0,0,0,0,-1,1469,442,10.0379,45.1568
252,582,10.8177,-52.1989,0,0,0,0,0,0,0,-1,1476,442,10.8178,52.1988
259,582,10.7971,-51.5071,0.00601122,-0.00798787,-0.00235964,0.00639825,-0.0083749,-0.162574,0.00855469,0.0280737,1483,442,10.7971,51.5071
266,582,10.8345,-50.8891,0.00506692,-0.0084283,-0.00244496,0.00549622,-0.0088576,-0.173815,0.00836259,0.0132484,1490,442,10.8345,50.8891
273,582,10.8761,-50.3233,0.00419156,-0.00836031,-0.0023973,0.00463384,-0.00880259,-0.182439,0.007881,0.0116413,1497,442,10.8761,50.3233
280,582,10.8821,-49.7318,0.00351096,-0.00828339,-0.00234428,0.00395984,-0.00873226,-0.189186,0.00749847,0.0113721,1504,442,10.882,49.7318
287,582,10.8794,-49.1081,0.00300726,-0.00789806,-0.00235234,0.00349303,-0.00838383,-0.203645,0.00704825,0.0115614,1511,442,10.8794,49.1081
294,582,10.8643,-48.4565,0.00257512,-0.00717646,-0.00218507,0.00304235,-0.00764369,-0.210656,0.00635738,0.00955353,1518,442,10.8642,48.4565
301,582,10.8721,-47.8131,0.00222219,-0.00636408,-0.00198157,0.00265744,-0.00679933,-0.216215,0.00563172,0.0102602,1525,442,10.872,47.8131
308,582,10.88,-47.1664,0.00196923,-0.005343,-0.00170667,0.00234795,-0.00572172,-0.218368,0.00479283,0.0133338,1532,442,10.88,47.1663
315,582,10.8501,-46.5054,0.00175096,-0.00421177,-0.00134579,0.00204063,-0.00450144,-0.212009,0.00386511,0.0138079,1539,442,10.85,46.5054
322,582,10.8114,-45.8263,0.00152773,-0.00286618,-0.000840577,0.00168305,-0.0030215,-0.182713,0.00275257,0.0105517,1546,442,10.8115,45.8263
329,582,10.7781,-45.1728,0.00137076,-0.00147092,-0.000215342,0.00138698,-0.00148715,-0.0752074,0.00165972,0.0107011,1553,442,10.7781,45.1728
336,582,10.7672,-44.4927,0.00124136,8.14915e-05,0.000471353,0.00140875,-8.59007e-05,0.341239,0.000969073,0.011401,1560,442,10.7673,44.4927
343,582,10.7505,-43.7638,0.00106717,0.00193824,0.00128122,0.00285593,0.000149479,0.949239,0.00185614,0.0136457,1567,442,10.7505,43.7638
350,582,10.7312,-43.0529,0.000910986,0.00393406,0.00215645,0.00505597,-0.00021092,1.09108,0.00344311,0.0173315,1574,442,10.7312,43.0529
357,582,10.7139,-42.3326,0.000693549,0.00591181,0.00305186,0.00731783,-0.000712471,1.13907,0.00513255,0.014922,1581,442,10.7139,42.3326
364,582,10.6749,-41.6196,0.000443336,0.00782601,0.00391005,0.00951189,-0.00124255,1.16371,0.00679343,0.0112664,1588,442,10.6749,41.6196
371,582,10.6272,-40.8976,0.000284094,0.00993653,0.00480375,0.0119197,-0.00169912,1.17926,0.00856921,0.0157845,1595,442,10.6272,40.8976
378,582,10.5588,-40.1554,0.000453927,0.0119243,0.00553558,0.01416,-0.00178177,1.18695,0.0100865,0.0170721,1602,442,10.5588,40.1554
385,582,10.5138,-39.3997,0.00110728,0.0140683,0.00638362,0.0166843,-0.00150878,1.18186,0.0116584,0.0126046,1609,442,10.5138,39.3998
392,582,10.4531,-38.6388,0.00215445,0.0154622,0.00707765,0.0185226,-0.000905949,1.16267,0.0126612,0.0112679,1616,442,10.4531,38.6388
399,582,10.3732,-37.8986,0.00348436,0.0171263,0.00814636,0.0209302,-0.000319591,1.13394,0.0140612,0.0181664,1623,442,10.3732,37.8986
406,582,10.3186,-36.993,0.00507818,0.0185186,0.00898997,0.0230225,0.00057427,1.10635,0.0151605,0.0342636,1630,442,10.3186,36.993
413,582,10.3005,-36.0538,0,0,0,0,0,0,0,-1,1637,442,10.3005,36.0538
420,582,10.2118,-35.3978,0,0,0,0,0,0,0,-1,1644,442,10.2118,35.3978
427,582,9.99158,-34.6024,0.0106041,0.0199082,0.0112349,0.0274161,0.00309621,0.981687,0.0173378,0.0485377,1651,442,9.99153,34.6024
434,582,10.2788,-33.5579,0.0127991,0.0198281,0.0119623,0.0287815,0.00384564,0.928277,0.0180429,0.0498168,1658,442,10.2789,33.5579
441,582,10.3073,-32.8766,0,0,0,0,0,0,0,-1,1665,442,10.3072,32.8766
448,582,10.0519,-31.8645,0,0,0,0,0,0,0,-1,1672,442,10.0519,31.8645
455,582,6.4585,-19.4734,0,0,0,0,0,0,0,-1,1679,442,6.45854,19.4734
462,582,5.35022,-19.2616,0,0,0,0,0,0,0,-1,1686,442,5.35025,19.2616
469,582,6.28601,-21.5695,0,0,0,0,0,0,0,-1,1693,442,6.28597,21.5695
476,582,1.93579,-8.53891,0,0,0,0,0,0,0,-1,1700,442,1.93579,8.53892
483,582,0,0,0,0,0,0,0,0,0,-1,1707,442,0,0
490,582,0,0,0,0,0,0,0,0,0,-1,1714,442,0,0
497,582,0,0,0,0,0,0,0,0,0,-1,1721,442,0,0
504,582,0,0,0,0,0,0,0,0,0,-1,1728,442,0,0
511,582,0,0,0,0,0,0,0,0,0,-1,1735,442,0,0
518,582,0,0,0,0,0,0,0,0,0,-1,1742,442,0,0
525,582,0,0,0,0,0,0,0,0,0,-1,1749,442,0,0
532,582,0,0,0,0,0,0,0,0,0,-1,1756,442,0,0
539,582,0,0,0,0,0,0,0,0,0,-1,1763,442,0,0
546,582,0,0,0,0,0,0,0,0,0,-1,1770,442,0,0
553,582,0,0,0,0,0,0,0,0,0,-1,1777,442,0,0
560,582,0,0,0,0,0,0,0,0,0,-1,1784,442,0,0
567,582,0,0,0,0,0,0,0,0,0,-1,1791,442,0,0
574,582,0,0,0,0,0,0,0,0,0,-1,1798,442,0,0
581,582,0,0,0,0,0,0,0,0,0,-1,1805,442,0,0
588,582,0,0,0,0,0,0,0,0,0,-1,1812,442,0,0
595,582,0,0,0,0,0,0,0,0,0,-1,1819,442,0,0
602,582,0,0,0,0,0,0,0,0,0,-1,1826,442,0,0
609,582,0,0,0,0,0,0,0,0,0,-1,1833,442,0,0
616,582,0,0,0,0,0,0,0,0,0,-1,1840,442,0,0
623,582,0,0,0,0,0,0,0,0,0,-1,1847,442,0,0
630,582,0,0,0,0,0,0,0,0,0,-1,1854,442,0,0
637,582,0,0,0,0,0,0,0,0,0,-1,1861,442,0,0
644,582,0,0,0,0,0,0,0,0,0,-1,1868,442,0,0
651,582,0,0,0,0,0,0,0,0,0,-1,1875,442,0,0
658,582,0,0,0,0,0,0,0,0,0,-1,1882,442,0,0
665,582,0,0,0,0,0,0,0,0,0,-1,1889,442,0,0
672,582,0,0,0,0,0,0,0,0,0,-1,1896,442,0,0
679,582,0,0,0,0,0,0,0,0,0,-1,1903,442,0,0
686,582,0,0,0,0,0,0,0,0,0,-1,1910,442,0,0
693,582,0,0,0,0,0,0,0,0,0,-1,1917,442,0,0
700,582,0,0,0,0,0,0,0,0,0,-1,1924,442,0,0
707,582,0,0,0,0,0,0,0,0,0,-1,1931,442,0,0
714,582,0,0,0,0,0,0,0,0,0,-1,1938,442,0,0
721,582,0,0,0,0,0,0,0,0,0,-1,1945,442,0,0
728,582,0,0,0,0,0,0,0,0,0,-1,1952,442,0,0
735,582,0,0,0,0,0,0,0,0,0,-1,1959,442,0,0
742,582,0,0,0,0,0,0,0,0,0,-1,1966,442,0,0
749,582,0,0,0,0,0,0,0,0,0,-1,1973,442,0,0
756,582,0,0,0,0,0,0,0,0,0,-1,1980,442,0,0
763,582,0,0,0,0,0,0,0,0,0,-1,1987,442,0,0
770,582,0,0,0,0,0,0,0,0,0,-1,1994,442,0,0
777,582,0,0,0,0,0,0,0,0,0,-1,2001,442,0,0
784,582,0,0,0,0,0,0,0,0,0,-1,2008,442,0,0
791,582,0,0,0,0,0,0,0,0,0,-1,2015,442,0,0
798,582,0,0,0,0,0,0,0,0,0,-1,2022,442,0,0
805,582,0,0,0,0,0,0,0,0,0,-1,2029,442,0,0
812,582,0,0,0,0,0,0,0,0,0,-1,2036,442,0,0
-700,575,0,0,0,0,0,0,0,0,0,-1,524,449,0,0
-693,575,0,0,0,0,0,0,0,0,0,-1,531,449,0,0
-686,575,0,0,0,0,0,0,0,0,0,-1,538,449,0,0
-679,575,0,0,0,0,0,0,0,0,0,-1,545,449,0,0
-672,575,0,0,0,0,0,0,0,0,0,-1,552,449,0,0
-665,575,0,0,0,0,0,0,0,0,0,-1,559,449,0,0
-658,575,0,0,0,0,0,0,0,0,0,-1,566,449,0,0
-651,575,0,0,0,0,0,0,0,0,0,-1,573,449,0,0
-644,575,0,0,0,0,0,0,0,0,0,-1,580,449,0,0
-637,575,0,0,0,0,0,0,0,0,0,-1,587,449,0,0
-630,575,0,0,0,0,0,0,0,0,0,-1,594,449,0,0
-623,575,0,0,0,0,0,0,0,0,0,-1,601,449,0,0
-616,575,0,0,0,0,0,0,0,0,0,-1,608,449,0,0
-609,575,0,0,0,0,0,0,0,0,0,-1,615,449,0,0
-602,575,0,0,0,0,0,0,0,0,0,-1,622,449,0,0
-595,575,0,0,0,0,0,0,0,0,0,-1,629,449,0,0
-588,575,0,0,0,0,0,0,0,0,0,-1,636,449,0,0
-581,575,0,0,0,0,0,0,0,0,0,-1,643,449,0,0
-574,575,0,0,0,0,0,0,0,0,0,-1,650,449,0,0
-567,575,0,0,0,0,0,0,0,0,0,-1,657,449,0,0
-560,575,0,0,0,0,0,0,0,0,0,-1,664,449,0,0
-553,575,0,0,0,0,0,0,0,0,0,-1,671,449,0,0
-546,575,0,0,0,0,0,0,0,0,0,-1,678,449,0,0
-539,575,0,0,0,0,0,0,0,0,0,-1,685,449,0,0
-532,575,0,0,0,0,0,0,0,0,0,-1,692,449,0,0
-525,575,0,0,0,0,0,0,0,0,0,-1,699,449,0,0
-518,575,0,0,0,0,0,0,0,0,0,-1,706,449,0,0
-511,575,0,0,0,0,0,0,0,0,0,-1,713,449,0,0
-504,575,0,0,0,0,0,0,0,0,0,-1,720,449,0,0
-497,575,0,0,0,0,0,0,0,0,0,-1,727,449,0,0
-490,575,0,0,0,0,0,0,0,0,0,-1,734,449,0,0
-483,575,0,0,0,0,0,0,0,0,0,-1,741,449,0,0
-476,575,0,0,0,0,0,0,0,0,0,-1,748,449,0,0
-469,575,0,0,0,0,0,0,0,0,0,-1,755,449,0,0
-462,575,0,0,0,0,0,0,0,0,0,-1,762,449,0,0
-455,575,0,0,0,0,0,0,0,0,0,-1,769,449,0,0
-448,575,0,0,0,0,0,0,0,0,0,-1,776,449,0,0
-441,575,0,0,0,0,0,0,0,0,0,-1,783,449,0,0
-434,575,0,0,0,0,0,0,0,0,0,-1,790,449,0,0
-427,575,0,0,0,0,0,0,0,0,0,-1,797,449,0,0
-420,575,0,0,0,0,0,0,0,0,0,-1,804,449,0,0
-413,575,0,0,0,0,0,0,0,0,0,-1,811,449,0,0
-406,575,0,0,0,0,0,0,0,0,0,-1,818,449,0,0
-399,575,0,0,0,0,0,0,0,0,0,-1,825,449,0,0
-392,575,0,0,0,0,0,0,0,0,0,-1,832,449,0,0
-385,575,0,0,0,0,0,0,0,0,0,-1,839,449,0,0
-378,575,0,0,0,0,0,0,0,0,0,-1,846,449,0,0
-371,575,0.56897,-3.52304,0,0,0,0,0,0,0,-1,853,449,0.568955,3.52306
-364,575,1.49805,-4.67191,0,0,0,0,0,0,0,-1,860,449,1.49803,4.6719
-357,575,3.15521,-8.29892,0,0,0,0,0,0,0,-1,867,449,3.15521,8.29891
-350,575,-0.825928,-18.5347,0,0,0,0,0,0,0,-1,874,449,-0.825948,18.5347
-343,575,0.465393,-16.3569,0,0,0,0,0,0,0,-1,881,449,0.465397,16.3569
-336,575,3.1994,-17.5725,0,0,0,0,0,0,0,-1,888,449,3.19941,17.5725
-329,575,2.81946,-29.1576,0,0,0,0,0,0,0,-1,895,449,2.81945,29.1576
-322,575,4.28943,-27.9487,0,0,0,0,0,0,0,-1,902,449,4.28944,27.9487
-315,575,4.23724,-30.0034,0,0,0,0,0,0,0,-1,909,449,4.23723,30.0034
-308,575,3.49152,-34.3946,0,0,0,0,0,0,0,-1,916,449,3.49149,34.3946
-301,575,3.51361,-35.1524,-0.00447997,0.0141909,-0.00760543,0.0168968,-0.00718583,-1.22898,0.0142759,0.0402706,923,449,3.51363,35.1524
-294,575,3.36688,-35.9468,-0.00382572,0.0128061,-0.00681814,0.0152439,-0.00626347,-1.22742,0.012773,0.0266109,930,449,3.36691,35.9468
-287,575,3.28998,-36.7887,-0.00330394,0.011759,-0.00615718,0.0139555,-0.00550047,-1.22813,0.0115811,0.018122,937,449,3.28995,36.7887
-280,575,3.25031,-37.612,-0.00259839,0.0109073,-0.00566453,0.0129686,-0.0046596,-1.22181,0.0105477,0.0137152,944,449,3.25028,37.612
-273,575,3.198,-38.3923,-0.0020101,0.00990597,-0.00520814,0.0118614,-0.00396553,-1.21163,0.00950918,0.0123459,951,449,3.19802,38.3923
-266,575,3.15259,-39.1425,-0.00153849,0.00867807,-0.00463429,0.010467,-0.0033274,-1.2024,0.00831216,0.0131693,958,449,3.1526,39.1425
-259,575,3.07947,-39.8931,-0.00107246,0.00730232,-0.00402435,0.00892265,-0.00269279,-1.18802,0.00702034,0.0122768,965,449,3.07945,39.8931
-252,575,2.99707,-40.6218,-0.000630736,0.00579502,-0.0033334,0.00721185,-0.00204756,-1.16889,0.00561624,0.0118053,972,449,2.9971,40.6218
-245,575,2.9751,-41.3386,-0.000149479,0.00424738,-0.0026505,0.00549253,-0.00139463,-1.13162,0.00420439,0.0162854,979,449,2.97508,41.3386
-238,575,2.97052,-42.028,0.00031044,0.00260623,-0.00188228,0.00366302,-0.000746351,-1.05921,0.00272508,0.0163074,986,449,2.97051,42.028
-231,575,2.92694,-42.7398,0.000760005,0.000809728,-0.00110508,0.00189022,-0.000320492,-0.796645,0.00137945,0.012802,993,449,2.92693,42.7398
-224,575,2.85706,-43.4538,0.00119131,-0.000930708,-0.00038695,0.00125967,-0.000999066,-0.174855,0.00130697,0.0127893,1000,449,2.85704,43.4538
-217,575,2.8432,-44.1396,0.00163441,-0.00278499,0.000316091,0.0016569,-0.00280748,0.0710417,0.00260589,0.0116701,1007,449,2.84321,44.1396
-210,575,2.86481,-44.8274,0.00212202,-0.00465428,0.000961302,0.00225576,-0.00478802,0.13823,0.0041534,0.0105495,1014,449,2.86478,44.8274
-203,575,2.85992,-45.5138,0.00267203,-0.00632705,0.00148359,0.0029103,-0.00656532,0.159248,0.00560478,0.0139697,1021,449,2.85995,45.5138
-196,575,2.83997,-46.1996,0.00313298,-0.00781989,0.0018973,0.00345233,-0.00813924,0.166754,0.00687233,0.0186765,1028,449,2.83992,46.1996
-189,575,2.78491,-46.8526,0.00353599,-0.00913898,0.00225228,0.00392431,-0.0095273,0.170734,0.0079877,0.0187019,1035,449,2.78487,46.8526
-182,575,2.75378,-47.4673,0.00400639,-0.010325,0.00259323,0.0044612,-0.0107798,0.173616,0.00904795,0.0151744,1042,449,2.75379,47.4673
-175,575,2.78345,-48.0804,0.00450872,-0.0111739,0.0028477,0.0050098,-0.011675,0.174178,0.00988584,0.0125889,1049,449,2.7835,48.0804
-168,575,2.77368,-48.6882,0.0048805,-0.0119346,0.0029615,0.00538683,-0.0124409,0.169336,0.010558,0.0121722,1056,449,2.77362,48.6882
-161,575,2.77698,-49.2935,0.00520337,-0.0124982,0.00305656,0.00571629,-0.0130111,0.16626,0.0110823,0.0164774,1063,449,2.77696,49.2935
-154,575,2.79639,-49.8919,0.0055321,-0.0129155,0.00306866,0.00602916,-0.0134125,0.160585,0.0114913,0.0170308,1070,449,2.79641,49.8919
-147,575,2.81824,-50.425,0.00571593,-0.0127316,0.00324445,0.0062699,-0.0132856,0.169116,0.01153,0.0158309,1077,449,2.81827,50.425
-140,575,2.79175,-50.8722,0.00594474,-0.0129007,0.00348215,0.00656756,-0.0135236,0.176991,0.0118291,0.024265,1084,449,2.79176,50.8722
-133,575,2.83374,-51.2969,0.00606798,-0.0128345,0.003712,0.0067708,-0.0135373,0.187122,0.0119399,0.0388006,1091,449,2.83373,51.2969
-126,575,2.99988,-51.5782,0,0,0,0,0,0,0,-1,1098,449,2.99994,51.5783
-119,575,2.93359,-52.0503,0,0,0,0,0,0,0,-1,1105,449,2.93357,52.0503
-112,575,2.70337,-43.3701,0,0,0,0,0,0,0,-1,1112,449,2.70333,43.3701
-105,575,2.18347,-36.5414,0,0,0,0,0,0,0,-1,1119,449,2.18351,36.5414
-98,575,1.521,-25.6961,0,0,0,0,0,0,0,-1,1126,449,1.52105,25.6961
-91,575,1.60803,-16.4247,0,0,0,0,0,0,0,-1,1133,449,1.60802,16.4247
-84,575,1.16553,-11.9056,0,0,0,0,0,0,0,-1,1140,449,1.16558,11.9056
-77,575,0.205078,-11.2584,0,0,0,0,0,0,0,-1,1147,449,0.205117,11.2584
-70,575,-4.2467,-1.78738,0,0,0,0,0,0,0,-1,1154,449,-4.24674,1.78739
-63,575,-4.52209,-3.48798,0,0,0,0,0,0,0,-1,1161,449,-4.5221,3.48796
-56,575,-5.5968,-5.4928,0,0,0,0,0,0,0,-1,1168,449,-5.59683,5.49281
-49,575,-5.96863,-7.17612,0,0,0,0,0,0,0,-1,1175,449,-5.96868,7.1761
-42,575,-0.830322,0.773499,0,0,0,0,0,0,0,-1,1182,449,-0.83038,-0.77351
-35,575,-0.62085,0.205139,0,0,0,0,0,0,0,-1,1189,449,-0.620855,-0.205126
-28,575,0.49292,-3.87988,0,0,0,0,0,0,0,-1,1196,449,0.492941,3.87989
-21,575,2.45972,-56.5009,0,0,0,0,0,0,0,-1,1203,449,2.45974,56.5009
-14,575,2.5863,-57.0562,0,0,0,0,0,0,0,-1,1210,449,2.58625,57.0562
-7,575,12.8842,-63.3195,0,0,0,0,0,0,0,-1,1217,449,12.8842,63.3195
0,575,12.4248,-62.9966,0,0,0,0,0,0,0,-1,1224,449,12.4248,62.9966
7,575,12.024,-62.6553,0,0,0,0,0,0,0,-1,1231,449,12.0241,62.6553
14,575,12.1094,-62.1708,0,0,0,0,0,0,0,-1,1238,449,12.1094,62.1708
21,575,11.4493,-61.6065,0,0,0,0,0,0,0,-1,1245,449,11.4493,61.6065
28,575,10.5698,-61.1958,0,0,0,0,0,0,0,-1,1252,449,10.5698,61.1958
35,575,9.88757,-60.7211,0,0,0,0,0,0,0,-1,1259,449,9.88758,60.7211
42,575,8.75488,-60.2239,0,0,0,0,0,0,0,-1,1266,449,8.75483,60.2239
49,575,7.87793,-59.7999,0,0,0,0,0,0,0,-1,1273,449,7.87796,59.7999
56,575,6.91772,-59.3233,0,0,0,0,0,0,0,-1,1280,449,6.91777,59.3233
63,575,6.0553,-58.5582,0,0,0,0,0,0,0,-1,1287,449,6.05529,58.5582
70,575,5.34802,-58.2175,0,0,0,0,0,0,0,-1,1294,449,5.34807,58.2175
77,575,4.65039,-57.8442,0,0,0,0,0,0,0,-1,1301,449,4.65039,57.8442
84,575,1.03625,-57.7104,0,0,0,0,0,0,0,-1,1308,449,1.03629,57.7104
91,575,-0.0634766,-58.0845,0,0,0,0,0,0,0,-1,1315,449,-0.0635099,58.0845
98,575,2.33484,-57.2005,0,0,0,0,0,0,0,-1,1322,449,2.33485,57.2005
105,575,2.15833,-56.7413,0,0,0,0,0,0,0,-1,1329,449,2.15828,56.7413
112,575,2.0105,-56.2746,0,0,0,0,0,0,0,-1,1336,449,2.01047,56.2746
119,575,1.88928,-55.8177,0,0,0,0,0,0,0,-1,1343,449,1.88933,55.8177
126,575,1.77966,-55.4232,0,0,0,0,0,0,0,-1,1350,449,1.77963,55.4233
133,575,1.63037,-55.0302,0,0,0,0,0,0,0,-1,1357,449,1.63034,55.0302
140,575,0.543457,-56.0284,0,0,0,0,0,0,0,-1,1364,449,0.543517,56.0284
147,575,-8.00549,-58.4072,0,0,0,0,0,0,0,-1,1371,449,-8.00554,58.4072
154,575,3.6582,-70.3721,0,0,0,0,0,0,0,-1,1378,449,3.6582,70.3722
161,575,12.8262,-51.4623,0,0,0,0,0,0,0,-1,1385,449,12.8262,51.4623
168,575,7.5509,-35.3165,0,0,0,0,0,0,0,-1,1392,449,7.5509,35.3165
175,575,4.32617,1.93634,0,0,0,0,0,0,0,-1,1399,449,4.32612,-1.93634
182,575,6.3147,-2.88345,0,0,0,0,0,0,0,-1,1406,449,6.31466,2.88346
189,575,6.10449,-1.30817,0,0,0,0,0,0,0,-1,1413,449,6.10455,1.30817
196,575,5.79895,0.818359,0,0,0,0,0,0,0,-1,1420,449,5.79895,-0.81837
203,575,3.29724,-1.46378,0,0,0,0,0,0,0,-1,1427,449,3.29722,1.46377
210,575,2.32739,-7.74503,0,0,0,0,0,0,0,-1,1434,449,2.32741,7.74502
217,575,3.33618,-11.5521,0,0,0,0,0,0,0,-1,1441,449,3.3362,11.5521
224,575,5.51709,-16.3903,0,0,0,0,0,0,0,-1,1448,449,5.51713,16.3903
231,575,5.48572,-20.4595,0,0,0,0,0,0,0,-1,1455,449,5.48571,20.4595
238,575,5.33484,-22.3575,0,0,0,0,0,0,0,-1,1462,449,5.33478,22.3575
245,575,5.59741,-23.513,0,0,0,0,0,0,0,-1,1469,449,5.5974,23.513
252,575,10.5602,-44.9309,0,0,0,0,0,0,0,-1,1476,449,10.5602,44.9309
259,575,11.3242,-51.3267,0,0,0,0,0,0,0,-1,1483,449,11.3242,51.3267
266,575,11.4264,-50.7567,0.00650639,-0.0115483,-0.00303042,0.00700146,-0.0120434,-0.161936,0.0111233,0.0327383,1490,449,11.4264,50.7567
273,575,11.5197,-50.2363,0.005369,-0.0118062,-0.00321298,0.00595038,-0.0123876,-0.179008,0.0108027,0.0194843,1497,449,11.5196,50.2363
280,575,11.5441,-49.636,0.0044878,-0.0121385,-0.0034521,0.00517606,-0.0128268,-0.196795,0.0107022,0.0148324,1504,449,11.5441,49.6361
287,575,11.5153,-49.07,0.00379641,-0.0120117,-0.00380782,0.00466581,-0.0128811,-0.224473,0.0104943,0.0135555,1511,449,11.5153,49.07
294,575,11.531,-48.4543,0.00319765,-0.0114195,-0.0038706,0.00415932,-0.0123811,-0.243523,0.0099351,0.0112681,1518,449,11.5311,48.4542
301,575,11.5439,-47.8156,0.00270821,-0.0107259,-0.00387035,0.00374347,-0.0117612,-0.261366,0.00934206,0.0103414,1525,449,11.5439,47.8156
308,575,11.5453,-47.1524,0.00233848,-0.0097534,-0.00376117,0.00341292,-0.0108278,-0.278255,0.00858538,0.0115007,1532,449,11.5453,47.1524
315,575,11.5132,-46.4912,0.00203355,-0.00859504,-0.00350852,0.00308726,-0.00964874,-0.291758,0.00767152,0.0115935,1539,449,11.5131,46.4912
322,575,11.4945,-45.8153,0.00175813,-0.00716181,-0.00304654,0.00269934,-0.00810302,-0.299642,0.00649164,0.0101566,1546,449,11.4944,45.8153
329,575,11.4745,-45.1563,0.00158446,-0.00562982,-0.00242311,0.00232277,-0.00636812,-0.295758,0.00519572,0.011127,1553,449,11.4745,45.1563
336,575,11.4547,-44.4615,0.00143854,-0.00396283,-0.00173152,0.00194595,-0.00447024,-0.285061,0.00379875,0.013271,1560,449,11.4547,44.4615
343,575,11.4581,-43.6975,0.00125309,-0.00200912,-0.00087457,0.00147276,-0.00222879,-0.246087,0.0021519,0.0144356,1567,449,11.4582,43.6975
350,575,11.4404,-42.9648,0.00112037,5.81052e-05,8.17782e-05,0.00112663,5.18465e-05,0.0763846,0.000734417,0.0135051,1574,449,11.4405,42.9648
357,575,11.4067,-42.2705,0.000935364,0.00213645,0.00104633,0.00274233,0.000329479,1.04592,0.00172889,0.0120049,1581,449,11.4068,42.2705
364,575,11.376,-41.5975,0.000726331,0.00407725,0.00201948,0.0050258,-0.000222229,1.13168,0.00342701,0.0112694,1588,449,11.376,41.5975
371,575,11.3457,-40.8852,0.000575038,0.00606571,0.00299035,0.00737982,-0.000739069,1.15675,0.00518383,0.0205472,1595,449,11.3457,40.8852
378,575,11.2761,-40.1173,0.000641902,0.00787938,0.0037506,0.00947239,-0.000951103,1.16915,0.00665466,0.0192547,1602,449,11.2761,40.1173
385,575,11.2207,-39.3651,0.0010688,0.00979841,0.00456393,0.0117487,-0.000881533,1.16695,0.00814226,0.0120351,1609,449,11.2207,39.3651
392,575,11.1746,-38.6345,0.00182833,0.0110152,0.00525454,0.013401,-0.000557477,1.14458,0.00912552,0.0100848,1616,449,11.1746,38.6345
399,575,11.1039,-37.9174,0.00280322,0.012391,0.00617628,0.0154155,-0.000221325,1.11542,0.0103516,0.0113761,1623,449,11.1039,37.9174
406,575,11.0649,-37.1055,0.00393409,0.0135688,0.00688505,0.0171545,0.000348412,1.09065,0.011322,0.0130778,1630,449,11.065,37.1055
413,575,11.0199,-36.2968,0.00513414,0.0142911,0.00743857,0.0184473,0.000977912,1.06127,0.0119855,0.0148809,1637,449,11.0199,36.2968
420,575,10.959,-35.4568,0.00630554,0.0146597,0.00803384,0.0195375,0.00142776,1.02513,0.0125761,0.0151778,1644,449,10.959,35.4568
427,575,10.8728,-34.6176,0.00739974,0.0146233,0.00862628,0.0203634,0.00165965,0.983658,0.0130576,0.0186299,1651,449,10.8728,34.6176
434,575,10.777,-33.9164,0.00863959,0.0145436,0.00916438,0.0212197,0.0019635,0.941209,0.0135395,0.0300723,1658,449,10.777,33.9164
441,575,11.0859,-33.2398,0.00925493,0.0138554,0.00948446,0.0213146,0.00179575,0.904364,0.0136506,0.0456547,1665,449,11.0859,33.2398
448,575,11.4946,-32.4403,0,0,0,0,0,0,0,-1,1672,449,11.4947,32.4403
455,575,10.9758,-30.88,0,0,0,0,0,0,0,-1,1679,449,10.9758,30.88
462,575,7.12781,-21.7179,0,0,0,0,0,0,0,-1,1686,449,7.12778,21.7178
469,575,9.54492,-29.1065,0,0,0,0,0,0,0,-1,1693,449,9.54495,29.1065
476,575,9.43701,-26.9697,0,0,0,0,0,0,0,-1,1700,449,9.43705,26.9697
483,575,8.9624,-26.4681,0,0,0,0,0,0,0,-1,1707,449,8.96243,26.4681
490,575,7.42871,-25.5027,0,0,0,0,0,0,0,-1,1714,449,7.42869,25.5027
497,575,0,0,0,0,0,0,0,0,0,-1,1721,449,0,0
504,575,0,0,0,0,0,0,0,0,0,-1,1728,449,0,0
511,575,0,0,0,0,0,0,0,0,0,-1,1735,449,0,0
518,575,0,0,0,0,0,0,0,0,0,-1,1742,449,0,0
525,575,0,0,0,0,0,0,0,0,0,-1,1749,449,0,0
532,575,0,0,0,0,0,0,0,0,0,-1,1756,449,0,0
539,575,0,0,0,0,0,0,0,0,0,-1,1763,449,0,0
546,575,0,0,0,0,0,0,0,0,0,-1,1770,449,0,0
553,575,0,0,0,0,0,0,0,0,0,-1,1777,449,0,0
560,575,0,0,0,0,0,0,0,0,0,-1,1784,449,0,0
567,575,0,0,0,0,0,0,0,0,0,-1,1791,449,0,0
574,575,0,0,0,0,0,0,0,0,0,-1,1798,449,0,0
581,575,0,0,0,0,0,0,0,0,0,-1,1805,449,0,0
588,575,0,0,0,0,0,0,0,0,0,-1,1812,449,0,0
595,575,0,0,0,0,0,0,0,0,0,-1,1819,449,0,0
602,575,0,0,0,0,0,0,0,0,0,-1,1826,449,0,0
609,575,0,0,0,0,0,0,0,0,0,-1,1833,449,0,0
616,575,0,0,0,0,0,0,0,0,0,-1,1840,449,0,0
623,575,0,0,0,0,0,0,0,0,0,-1,1847,449,0,0
630,575,0,0,0,0,0,0,0,0,0,-1,1854,449,0,0
637,575,0,0,0,0,0,0,0,0,0,-1,1861,449,0,0
644,575,0,0,0,0,0,0,0,0,0,-1,1868,449,0,0
651,575,0,0,0,0,0,0,0,0,0,-1,1875,449,0,0
658,575,0,0,0,0,0,0,0,0,0,-1,1882,449,0,0
665,575,0,0,0,0,0,0,0,0,0,-1,1889,449,0,0
672,575,0,0,0,0,0,0,0,0,0,-1,1896,449,0,0
679,575,0,0,0,0,0,0,0,0,0,-1,1903,449,0,0
686,575,0,0,0,0,0,0,0,0,0,-1,1910,449,0,0
693,575,0,0,0,0,0,0,0,0,0,-1,1917,449,0,0
700,575,0,0,0,0,0,0,0,0,0,-1,1924,449,0,0
707,575,0,0,0,0,0,0,0,0,0,-1,1931,449,0,0
714,575,0,0,0,0,0,0,0,0,0,-1,1938,449,0,0
721,575,0,0,0,0,0,0,0,0,0,-1,1945,449,0,0
728,575,0,0,0,0,0,0,0,0,0,-1,1952,449,0,0
735,575,0,0,0,0,0,0,0,0,0,-1,1959,449,0,0
742,575,0,0,0,0,0,0,0,0,0,-1,1966,449,0,0
749,575,0,0,0,0,0,0,0,0,0,-1,1973,449,0,0
756,575,0,0,0,0,0,0,0,0,0,-1,1980,449,0,0
763,575,0,0,0,0,0,0,0,0,0,-1,1987,449,0,0
770,575,0,0,0,0,0,0,0,0,0,-1,1994,449,0,0
777,575,0,0,0,0,0,0,0,0,0,-1,2001,449,0,0
784,575,0,0,0,0,0,0,0,0,0,-1,2008,449,0,0
791,575,0,0,0,0,0,0,0,0,0,-1,2015,449,0,0
798,575,0,0,0,0,0,0,0,0,0,-1,2022,449,0,0
805,575,0,0,0,0,0,0,0,0,0,-1,2029,449,0,0
812,575,0,0,0,0,0,0,0,0,0,-1,2036,449,0,0
-700,568,0,0,0,0,0,0,0,0,0,-1,524,456,0,0
-693,568,0,0,0,0,0,0,0,0,0,-1,531,456,0,0
-686,568,0,0,0,0,0,0,0,0,0,-1,538,456,0,0
-679,568,0,0,0,0,0,0,0,0,0,-1,545,456,0,0
-672,568,0,0,0,0,0,0,0,0,0,-1,552,456,0,0
-665,568,0,0,0,0,0,0,0,0,0,-1,559,456,0,0
-658,568,0,0,0,0,0,0,0,0,0,-1,566,456,0,0
-651,568,0,0,0,0,0,0,0,0,0,-1,573,456,0,0
-644,568,0,0,0,0,0,0,0,0,0,-1,580,456,0,0
-637,568,0,0,0,0,0,0,0,0,0,-1,587,456,0,0
-630,568,0,0,0,0,0,0,0,0,0,-1,594,456,0,0
-623,568,0,0,0,0,0,0,0,0,0,-1,601,456,0,0
-616,568,0,0,0,0,0,0,0,0,0,-1,608,456,0,0
-609,568,0,0,0,0,0,0,0,0,0,-1,615,456,0,0
-602,568,0,0,0,0,0,0,0,0,0,-1,622,456,0,0
-595,568,0,0,0,0,0,0,0,0,0,-1,629,456,0,0
-588,568,0,0,0,0,0,0,0,0,0,-1,636,456,0,0
-581,568,0,0,0,0,0,0,0,0,0,-1,643,456,0,0
-574,568,0,0,0,0,0,0,0,0,0,-1,650,456,0,0
-567,568,0,0,0,0,0,0,0,0,0,-1,657,456,0,0
-560,568,0,0,0,0,0,0,0,0,0,-1,664,456,0,0
-553,568,0,0,0,0,0,0,0,0,0,-1,671,456,0,0
-546,568,0,0,0,0,0,0,0,0,0,-1,678,456,0,0
-539,568,0,0,0,0,0,0,0,0,0,-1,685,456,0,0
-532,568,0,0,0,0,0,0,0,0,0,-1,692,456,0,0
-525,568,0,0,0,0,0,0,0,0,0,-1,699,456,0,0
-518,568,0,0,0,0,0,0,0,0,0,-1,706,456,0,0
-511,568,0,0,0,0,0,0,0,0,0,-1,713,456,0,0
-504,568,0,0,0,0,0,0,0,0,0,-1,720,456,0,0
-497,568,0,0,0,0,0,0,0,0,0,-1,727,456,0,0
-490,568,0,0,0,0,0,0,0,0,0,-1,734,456,0,0
-483,568,0,0,0,0,0,0,0,0,0,-1,741,456,0,0
-476,568,0,0,0,0,0,0,0,0,0,-1,748,456,0,0
-469,568,0,0,0,0,0,0,0,0,0,-1,755,456,0,0
-462,568,0,0,0,0,0,0,0,0,0,-1,762,456,0,0
-455,568,0,0,0,0,0,0,0,0,0,-1,769,456,0,0
-448,568,0,0,0,0,0,0,0,0,0,-1,776,456,0,0
-441,568,0,0,0,0,0,0,0,0,0,-1,783,456,0,0
-434,568,0,0,0,0,0,0,0,0,0,-1,790,456,0,0
-427,568,0,0,0,0,0,0,0,0,0,-1,797,456,0,0
-420,568,0,0,0,0,0,0,0,0,0,-1,804,456,0,0
-413,568,0,0,0,0,0,0,0,0,0,-1,811,456,0,0
-406,568,0,0,0,0,0,0,0,0,0,-1,818,456,0,0
-399,568,0,0,0,0,0,0,0,0,0,-1,825,456,0,0
-392,568,0,0,0,0,0,0,0,0,0,-1,832,456,0,0
-385,568,0,0,0,0,0,0,0,0,0,-1,839,456,0,0
-378,568,0.321777,-7.29929,0,0,0,0,0,0,0,-1,846,456,0.321806,7.29927
-371,568,1.09595,-7.46707,0,0,0,0,0,0,0,-1,853,456,1.09597,7.46707
-364,568,2.70746,-23.4782,0,0,0,0,0,0,0,-1,860,456,2.70746,23.4782
-357,568,2.14166,-7.67645,0,0,0,0,0,0,0,-1,867,456,2.14167,7.67646
-350,568,2.7467,-11.2507,0,0,0,0,0,0,0,-1,874,456,2.7467,11.2507
-343,568,2.16516,-11.3762,0,0,0,0,0,0,0,-1,881,456,2.16514,11.3762
-336,568,1.14984,-29.3232,0,0,0,0,0,0,0,-1,888,456,1.14984,29.3231
-329,568,2.69049,-31.681,0,0,0,0,0,0,0,-1,895,456,2.69052,31.681
-322,568,2.33887,-32.5432,0,0,0,0,0,0,0,-1,902,456,2.33886,32.5432
-315,568,2.80316,-33.3248,0,0,0,0,0,0,0,-1,909,456,2.80316,33.3248
-308,568,2.77515,-34.4589,0,0,0,0,0,0,0,-1,916,456,2.77513,34.4589
-301,568,2.73346,-35.2658,-0.00351614,0.0107725,-0.00604766,0.0129885,-0.00573213,-1.21957,0.0110757,0.0243698,923,456,2.73346,35.2658
-294,568,2.64386,-36.027,-0.00295503,0.00954256,-0.00531056,0.0114943,-0.00490681,-1.21859,0.00972048,0.0141023,930,456,2.64388,36.027
-287,568,2.58606,-36.8406,-0.00249939,0.00865489,-0.00468081,0.0103589,-0.00420335,-1.22168,0.00865425,0.0119214,937,456,2.58603,36.8406
-280,568,2.54803,-37.6433,-0.00190032,0.00786209,-0.00422735,0.00943818,-0.00347642,-1.21393,0.00771653,0.0116993,944,456,2.54806,37.6433
-273,568,2.49359,-38.4045,-0.0014041,0.00688397,-0.00375408,0.00833155,-0.00285168,-1.20276,0.00671005,0.0127582,951,456,2.49357,38.4045
-266,568,2.43304,-39.1357,-0.000983953,0.0056602,-0.00316096,0.00692374,-0.00224749,-1.19052,0.00551968,0.0120932,958,456,2.43306,39.1356
-259,568,2.37366,-39.8678,-0.000553936,0.00426336,-0.00249529,0.00532286,-0.00161344,-1.16926,0.00419121,0.0125868,965,456,2.37366,39.8678
-252,568,2.29443,-40.5714,-0.000105771,0.00262405,-0.00177268,0.00349641,-0.000978132,-1.11348,0.00271634,0.0129616,972,456,2.29442,40.5714
-245,568,2.25592,-41.2703,0.000371062,0.000971046,-0.00104464,0.00175792,-0.000415811,-0.925221,0.00133236,0.0153532,979,456,2.25592,41.2703
-238,568,2.2616,-41.9973,0.000861644,-0.000815532,-0.000229363,0.000892445,-0.000846333,-0.13349,0.001004,0.0136394,986,456,2.26161,41.9973
-231,568,2.21552,-42.709,0.00135971,-0.00285598,0.000598025,0.00144291,-0.00293917,0.138225,0.00257869,0.0116843,993,456,2.21553,42.709
-224,568,2.14526,-43.407,0.00181295,-0.00481621,0.0014001,0.00209652,-0.00509979,0.199835,0.00427369,0.0136105,1000,456,2.14527,43.407
-217,568,2.15649,-44.088,0.00231396,-0.00687022,0.00216547,0.00279894,-0.0073552,0.220321,0.00605602,0.0120132,1007,456,2.15652,44.088
-210,568,2.17609,-44.7703,0.00288486,-0.00893899,0.00284255,0.00353273,-0.00958687,0.224092,0.00783882,0.0124151,1014,456,2.1761,44.7703
-203,568,2.16907,-45.4514,0.00354228,-0.0107637,0.00334916,0.00428753,-0.0115089,0.21895,0.00943242,0.0116037,1021,456,2.16906,45.4514
-196,568,2.18677,-46.1091,0.00411671,-0.0123463,0.00370174,0.00491075,-0.0131404,0.211303,0.0107768,0.0161177,1028,456,2.18681,46.1091
-189,568,2.13928,-46.7399,0.00460808,-0.0136872,0.003993,0.00544159,-0.0145207,0.205787,0.011916,0.0152588,1035,456,2.13925,46.7399
-182,568,2.13977,-47.411,0.00516765,-0.0148629,0.00423922,0.00602788,-0.0157231,0.200205,0.0129671,0.0143274,1042,456,2.13976,47.4111
-175,568,2.16577,-48.0235,0.00579446,-0.0155776,0.0043668,0.00665227,-0.0164354,0.193969,0.0137228,0.0155044,1049,456,2.16574,48.0235
-168,568,2.15674,-48.5166,0.00629182,-0.0162436,0.00426911,0.00707345,-0.0170252,0.181084,0.0143033,0.0224379,1056,456,2.15675,48.5166
-161,568,2.14136,-49.1034,0.00669946,-0.0167082,0.00414946,0.00741327,-0.017422,0.170357,0.0147216,0.032924,1063,456,2.14141,49.1034
-154,568,2.32129,-49.8711,0.00707887,-0.0170647,0.00388876,0.00768976,-0.0176756,0.15582,0.0150182,0.0366289,1070,456,2.32129,49.8711
-147,568,2.453,-50.3936,0.00711999,-0.0164074,0.00393027,0.00775918,-0.0170466,0.161221,0.0146524,0.0377375,1077,456,2.45299,50.3936
-140,568,2.36829,-50.8239,0.00722281,-0.0163378,0.00409756,0.0079151,-0.01703,0.167371,0.0147191,0.042977,1084,456,2.36826,50.8239
-133,568,2.39502,-51.1786,0.00711282,-0.0160007,0.0043102,0.00789042,-0.0167783,0.17849,0.0145473,0.0475626,1091,456,2.39503,51.1786
-126,568,2.29504,-51.3962,0,0,0,0,0,0,0,-1,1098,456,2.29501,51.3962
-119,568,1.89978,-50.8443,0,0,0,0,0,0,0,-1,1105,456,1.89978,50.8443
-112,568,1.98242,-35.0942,0,0,0,0,0,0,0,-1,1112,456,1.98247,35.0942
-105,568,2.02454,-25.038,0,0,0,0,0,0,0,-1,1119,456,2.02459,25.038
-98,568,1.58618,-14.7874,0,0,0,0,0,0,0,-1,1126,456,1.58617,14.7874
-91,568,1.11621,-11.1853,0,0,0,0,0,0,0,-1,1133,456,1.11626,11.1853
-84,568,0.461792,-9.7959,0,0,0,0,0,0,0,-1,1140,456,0.461793,9.7959
-77,568,-1.13806,-8.57822,0,0,0,0,0,0,0,-1,1147,456,-1.13807,8.57821
-70,568,-4.09766,-1.42911,0,0,0,0,0,0,0,-1,1154,456,-4.09767,1.4291
-63,568,-5.92273,-3.70752,0,0,0,0,0,0,0,-1,1161,456,-5.92272,3.70751
-56,568,-5.24158,-6.01385,0,0,0,0,0,0,0,-1,1168,456,-5.24161,6.01386
-49,568,-5.24365,-8.33557,0,0,0,0,0,0,0,-1,1175,456,-5.24371,8.33557
-42,568,-0.664795,0.521973,0,0,0,0,0,0,0,-1,1182,456,-0.664829,-0.521984
-35,568,-0.153076,-1.67731,0,0,0,0,0,0,0,-1,1189,456,-0.153068,1.67731
-28,568,1.25439,-4.48798,0,0,0,0,0,0,0,-1,1196,456,1.2544,4.48797
-21,568,2.30737,-56.2372,0,0,0,0,0,0,0,-1,1203,456,2.30731,56.2372
-14,568,2.53967,-56.9185,0,0,0,0,0,0,0,-1,1210,456,2.53969,56.9184
-7,568,2.82117,-57.6257,0,0,0,0,0,0,0,-1,1217,456,2.82112,57.6257
0,568,13.0833,-63.5024,0,0,0,0,0,0,0,-1,1224,456,13.0832,63.5024
7,568,13.0032,-62.6942,0,0,0,0,0,0,0,-1,1231,456,13.0032,62.6941
14,568,12.8701,-61.9377,0,0,0,0,0,0,0,-1,1238,456,12.8701,61.9377
21,568,12.451,-61.4079,0,0,0,0,0,0,0,-1,1245,456,12.451,61.4079
28,568,9.3512,-60.9985,0,0,0,0,0,0,0,-1,1252,456,9.35121,60.9985
35,568,8.80334,-60.8242,0,0,0,0,0,0,0,-1,1259,456,8.80338,60.8241
42,568,8.4762,-60.5867,0,0,0,0,0,0,0,-1,1266,456,8.47616,60.5867
49,568,8.13477,-60.1371,0,0,0,0,0,0,0,-1,1273,456,8.13476,60.1371
56,568,6.64099,-59.2608,0,0,0,0,0,0,0,-1,1280,456,6.64095,59.2608
63,568,5.85547,-58.7009,0,0,0,0,0,0,0,-1,1287,456,5.8555,58.7009
70,568,5.20374,-58.331,0,0,0,0,0,0,0,-1,1294,456,5.2037,58.331
77,568,4.30688,-57.7795,0,0,0,0,0,0,0,-1,1301,456,4.30689,57.7795
84,568,3.60388,-57.7653,0,0,0,0,0,0,0,-1,1308,456,3.60394,57.7653
91,568,2.80713,-57.8262,0,0,0,0,0,0,0,-1,1315,456,2.80709,57.8262
98,568,2.11487,-57.7147,0,0,0,0,0,0,0,-1,1322,456,2.11492,57.7147
105,568,2.06226,-57.2249,0,0,0,0,0,0,0,-1,1329,456,2.06221,57.2249
112,568,1.85364,-56.7556,0,0,0,0,0,0,0,-1,1336,456,1.85364,56.7556
119,568,1.62219,-56.3361,0,0,0,0,0,0,0,-1,1343,456,1.62214,56.3361
126,568,1.77686,-55.7574,0,0,0,0,0,0,0,-1,1350,456,1.7768,55.7574
133,568,2.12463,-55.2573,0,0,0,0,0,0,0,-1,1357,456,2.1246,55.2573
140,568,-8.30859,-58.9365,0,0,0,0,0,0,0,-1,1364,456,-8.3086,58.9365
147,568,3.35278,-68.8009,0,0,0,0,0,0,0,-1,1371,456,3.35275,68.8009
154,568,3.09143,-69.9826,0,0,0,0,0,0,0,-1,1378,456,3.09145,69.9826
161,568,2.81067,-71.1118,0,0,0,0,0,0,0,-1,1385,456,2.81065,71.1118
168,568,-1.74231,-39.2641,0,0,0,0,0,0,0,-1,1392,456,-1.74226,39.2641
175,568,10.5151,0.747498,0,0,0,0,0,0,0,-1,1399,456,10.5152,-0.747501
182,568,6.35095,-3.63361,0,0,0,0,0,0,0,-1,1406,456,6.35093,3.63359
189,568,6.17493,-1.70911,0,0,0,0,0,0,0,-1,1413,456,6.17497,1.70911
196,568,6.04724,0.200836,0,0,0,0,0,0,0,-1,1420,456,6.04724,-0.200835
203,568,5.9281,2.08649,0,0,0,0,0,0,0,-1,1427,456,5.92812,-2.08648
210,568,1.46216,-2.50446,0,0,0,0,0,0,0,-1,1434,456,1.46219,2.50446
217,568,2.62366,-7.86703,0,0,0,0,0,0,0,-1,1441,456,2.62365,7.86704
224,568,3.43494,-12.1555,0,0,0,0,0,0,0,-1,1448,456,3.43492,12.1555
231,568,4.38245,-9.3205,0,0,0,0,0,0,0,-1,1455,456,4.38244,9.32048
238,568,5.88879,-20.7448,0,0,0,0,0,0,0,-1,1462,456,5.88876,20.7449
245,568,3.34387,-10.6774,0,0,0,0,0,0,0,-1,1469,456,3.34389,10.6774
252,568,3.56946,-9.28928,0,0,0,0,0,0,0,-1,1476,456,3.56948,9.28928
259,568,3.38843,-8.73068,0,0,0,0,0,0,0,-1,1483,456,3.38842,8.73068
266,568,12.0168,-50.5967,0,0,0,0,0,0,0,-1,1490,456,12.0168,50.5967
273,568,12.129,-50.1357,0,0,0,0,0,0,0,-1,1497,456,12.129,50.1357
280,568,12.1283,-49.5809,0.00505848,-0.0167885,-0.00470807,0.00602989,-0.0177599,-0.203473,0.0142807,0.038934,1504,456,12.1283,49.5809
287,568,12.1237,-48.8586,0.00426312,-0.016814,-0.00547668,0.00560123,-0.0181521,-0.239634,0.0143379,0.0275339,1511,456,12.1237,48.8586
294,568,12.1915,-48.2957,0.0035779,-0.0162395,-0.00578115,0.00514109,-0.0178027,-0.264078,0.0139027,0.0234762,1518,456,12.1916,48.2957
301,568,12.1937,-47.7254,0.00305442,-0.0155692,-0.00597344,0.00480569,-0.0173204,-0.285185,0.0134384,0.0194342,1525,456,12.1938,47.7254
308,568,12.1882,-47.0895,0.00265886,-0.0145353,-0.00600894,0.00455069,-0.0164271,-0.305011,0.0127421,0.0140134,1532,456,12.1882,47.0895
315,568,12.1892,-46.4569,0.00234204,-0.0132403,-0.0058278,0.00428049,-0.0151788,-0.32111,0.0118075,0.00881408,1539,456,12.1892,46.4569
322,568,12.1833,-45.8023,0.00207813,-0.0116274,-0.00536845,0.00393058,-0.0134798,-0.332268,0.0105438,0.010296,1546,456,12.1833,45.8024
329,568,12.1573,-45.1147,0.00192812,-0.00987762,-0.00471222,0.00357833,-0.0115278,-0.33685,0.0091152,0.0111838,1553,456,12.1574,45.1147
336,568,12.1512,-44.4099,0.0017775,-0.00803186,-0.00398246,0.00319072,-0.00944508,-0.340999,0.00758732,0.011464,1560,456,12.1513,44.4099
343,568,12.1746,-43.6786,0.00158061,-0.00592863,-0.00304503,0.00266018,-0.00700819,-0.340709,0.00576712,0.0131658,1567,456,12.1746,43.6786
350,568,12.1521,-42.978,0.00146665,-0.0037488,-0.00198559,0.00213654,-0.00441869,-0.325387,0.00386036,0.0118903,1574,456,12.1521,42.978
357,568,12.1053,-42.272,0.00128827,-0.00151448,-0.000919865,0.0015632,-0.00178941,-0.290431,0.0019371,0.0102875,1581,456,12.1054,42.272
364,568,12.1084,-41.5848,0.00106089,0.000494472,0.000166686,0.0011063,0.00044906,0.265984,0.000642481,0.0122488,1588,456,12.1083,41.5848
371,568,12.077,-40.8329,0.000930815,0.00249533,0.00126324,0.00319891,0.000227242,1.06263,0.00206104,0.0216172,1595,456,12.077,40.8329
378,568,12.0067,-40.0551,0.000903453,0.00427309,0.00209864,0.00527954,-0.000102994,1.12363,0.00355452,0.019098,1602,456,12.0067,40.0551
385,568,11.9498,-39.322,0.00110911,0.0061168,0.00293341,0.00746965,-0.000243751,1.13868,0.00506298,0.00947701,1609,456,11.9499,39.322
392,568,11.8932,-38.6128,0.00159503,0.007295,0.00366528,0.00908793,-0.000197902,1.11585,0.00612566,0.01069,1616,456,11.8931,38.6128
399,568,11.8401,-37.9245,0.00226919,0.00852073,0.00448172,0.010859,-6.91223e-05,1.0899,0.00726251,0.0186591,1623,456,11.8401,37.9245
406,568,11.8195,-37.1301,0.00302993,0.00962276,0.00511894,0.0124149,0.00023784,1.07146,0.00819844,0.0171797,1630,456,11.8194,37.1301
413,568,11.778,-36.2877,0.00379896,0.0102926,0.00561411,0.0135311,0.000560397,1.04756,0.00883987,0.0136141,1637,456,11.7779,36.2876
420,568,11.7218,-35.4923,0.00448972,0.0106264,0.00611748,0.0144019,0.000714207,1.01785,0.00937226,0.0121584,1644,456,11.7218,35.4923
427,568,11.6599,-34.6894,0.00507353,0.0106434,0.00659249,0.0150151,0.000701891,0.98525,0.00978449,0.0144239,1651,456,11.6599,34.6894
434,568,11.6395,-33.872,0.00573147,0.0106278,0.00704264,0.0156357,0.000723625,0.952676,0.0101912,0.0213012,1658,456,11.6395,33.872
441,568,11.6682,-33.0975,0.00588097,0.0102367,0.00735272,0.0157273,0.000390364,0.929382,0.0103572,0.0278542,1665,456,11.6682,33.0975
448,568,11.7887,-32.0475,0.00551926,0.00938646,0.00755474,0.0152511,-0.000345402,0.910681,0.0102845,0.0420167,1672,456,11.7887,32.0475
455,568,11.4305,-31.0402,0,0,0,0,0,0,0,-1,1679,456,11.4306,31.0402
462,568,11.2499,-30.4914,0,0,0,0,0,0,0,-1,1686,456,11.2499,30.4914
469,568,11.094,-29.984,0,0,0,0,0,0,0,-1,1693,456,11.094,29.984
476,568,10.9904,-29.2127,0,0,0,0,0,0,0,-1,1700,456,10.9904,29.2127
483,568,9.50525,-26.0135,0,0,0,0,0,0,0,-1,1707,456,9.50521,26.0135
490,568,9.21021,-25.4427,0,0,0,0,0,0,0,-1,1714,456,9.21025,25.4427
497,568,9.19275,-22.8114,0,0,0,0,0,0,0,-1,1721,456,9.19273,22.8114
504,568,0,0,0,0,0,0,0,0,0,-1,1728,456,0,0
511,568,0,0,0,0,0,0,0,0,0,-1,1735,456,0,0
518,568,0,0,0,0,0,0,0,0,0,-1,1742,456,0,0
525,568,0,0,0,0,0,0,0,0,0,-1,1749,456,0,0
532,568,0,0,0,0,0,0,0,0,0,-1,1756,456,0,0
539,568,0,0,0,0,0,0,0,0,0,-1,1763,456,0,0
546,568,0,0,0,0,0,0,0,0,0,-1,1770,456,0,0
553,568,0,0,0,0,0,0,0,0,0,-1,1777,456,0,0
560,568,0,0,0,0,0,0,0,0,0,-1,1784,456,0,0
567,568,0,0,0,0,0,0,0,0,0,-1,1791,456,0,0
574,568,0,0,0,0,0,0,0,0,0,-1,1798,456,0,0
581,568,0,0,0,0,0,0,0,0,0,-1,1805,456,0,0
588,568,0,0,0,0,0,0,0,0,0,-1,1812,456,0,0
595,568,0,0,0,0,0,0,0,0,0,-1,1819,456,0,0
602,568,0,0,0,0,0,0,0,0,0,-1,1826,456,0,0
609,568,0,0,0,0,0,0,0,0,0,-1,1833,456,0,0
616,568,0,0,0,0,0,0,0,0,0,-1,1840,456,0,0
623,568,0,0,0,0,0,0,0,0,0,-1,1847,456,0,0
630,568,0,0,0,0,0,0,0,0,0,-1,1854,456,0,0
637,568,0,0,0,0,0,0,0,0,0,-1,1861,456,0,0
644,568,0,0,0,0,0,0,0,0,0,-1,1868,456,0,0
651,568,0,0,0,0,0,0,0,0,0,-1,1875,456,0,0
658,568,0,0,0,0,0,0,0,0,0,-1,1882,456,0,0
665,568,0,0,0,0,0,0,0,0,0,-1,1889,456,0,0
672,568,0,0,0,0,0,0,0,0,0,-1,1896,456,0,0
679,568,0,0,0,0,0,0,0,0,0,-1,1903,456,0,0
686,568,0,0,0,0,0,0,0,0,0,-1,1910,456,0,0
693,568,0,0,0,0,0,0,0,0,0,-1,1917,456,0,0
700,568,0,0,0,0,0,0,0,0,0,-1,1924,456,0,0
707,568,0,0,0,0,0,0,0,0,0,-1,1931,456,0,0
714,568,0,0,0,0,0,0,0,0,0,-1,1938,456,0,0
721,568,0,0,0,0,0,0,0,0,0,-1,1945,456,0,0
728,568,0,0,0,0,0,0,0,0,0,-1,1952,456,0,0
735,568,0,0,0,0,0,0,0,0,0,-1,1959,456,0,0
742,568,0,0,0,0,0,0,0,0,0,-1,1966,456,0,0
749,568,0,0,0,0,0,0,0,0,0,-1,1973,456,0,0
756,568,0,0,0,0,0,0,0,0,0,-1,1980,456,0,0
763,568,0,0,0,0,0,0,0,0,0,-1,1987,456,0,0
770,568,0,0,0,0,0,0,0,0,0,-1,1994,456,0,0
777,568,0,0,0,0,0,0,0,0,0,-1,2001,456,0,0
784,568,0,0,0,0,0,0,0,0,0,-1,2008,456,0,0
791,568,0,0,0,0,0,0,0,0,0,-1,2015,456,0,0
798,568,0,0,0,0,0,0,0,0,0,-1,2022,456,0,0
805,568,0,0,0,0,0,0,0,0,0,-1,2029,456,0,0
812,568,0,0,0,0,0,0,0,0,0,-1,2036,456,0,0
-700,561,0,0,0,0,0,0,0,0,0,-1,524,463,0,0
-693,561,0,0,0,0,0,0,0,0,0,-1,531,463,0,0
-686,561,0,0,0,0,0,0,0,0,0,-1,538,463,0,0
-679,561,0,0,0,0,0,0,0,0,0,-1,545,463,0,0
-672,561,0,0,0,0,0,0,0,0,0,-1,552,463,0,0
-665,561,0,0,0,0,0,0,0,0,0,-1,559,463,0,0
-658,561,0,0,0,0,0,0,0,0,0,-1,566,463,0,0
-651,561,0,0,0,0,0,0,0,0,0,-1,573,463,0,0
-644,561,0,0,0,0,0,0,0,0,0,-1,580,463,0,0
-637,561,0,0,0,0,0,0,0,0,0,-1,587,463,0,0
-630,561,0,0,0,0,0,0,0,0,0,-1,594,463,0,0
-623,561,0,0,0,0,0,0,0,0,0,-1,601,463,0,0
-616,561,0,0,0,0,0,0,0,0,0,-1,608,463,0,0
-609,561,0,0,0,0,0,0,0,0,0,-1,615,463,0,0
-602,561,0,0,0,0,0,0,0,0,0,-1,622,463,0,0
-595,561,0,0,0,0,0,0,0,0,0,-1,629,463,0,0
-588,561,0,0,0,0,0,0,0,0,0,-1,636,463,0,0
-581,561,0,0,0,0,0,0,0,0,0,-1,643,463,0,0
-574,561,0,0,0,0,0,0,0,0,0,-1,650,463,0,0
-567,561,0,0,0,0,0,0,0,0,0,-1,657,463,0,0
-560,561,0,0,0,0,0,0,0,0,0,-1,664,463,0,0
-553,561,0,0,0,0,0,0,0,0,0,-1,671,463,0,0
-546,561,0,0,0,0,0,0,0,0,0,-1,678,463,0,0
-539,561,0,0,0,0,0,0,0,0,0,-1,685,463,0,0
-532,561,0,0,0,0,0,0,0,0,0,-1,692,463,0,0
-525,561,0,0,0,0,0,0,0,0,0,-1,699,463,0,0
-518,561,0,0,0,0,0,0,0,0,0,-1,706,463,0,0
-511,561,0,0,0,0,0,0,0,0,0,-1,713,463,0,0
-504,561,0,0,0,0,0,0,0,0,0,-1,720,463,0,0
-497,561,0,0,0,0,0,0,0,0,0,-1,727,463,0,0
-490,561,0,0,0,0,0,0,0,0,0,-1,734,463,0,0
-483,561,0,0,0,0,0,0,0,0,0,-1,741,463,0,0
-476,561,0,0,0,0,0,0,0,0,0,-1,748,463,0,0
-469,561,0,0,0,0,0,0,0,0,0,-1,755,463,0,0
-462,561,0,0,0,0,0,0,0,0,0,-1,762,463,0,0
-455,561,0,0,0,0,0,0,0,0,0,-1,769,463,0,0
-448,561,0,0,0,0,0,0,0,0,0,-1,776,463,0,0
-441,561,0,0,0,0,0,0,0,0,0,-1,783,463,0,0
-434,561,0,0,0,0,0,0,0,0,0,-1,790,463,0,0
-427,561,0,0,0,0,0,0,0,0,0,-1,797,463,0,0
-420,561,0,0,0,0,0,0,0,0,0,-1,804,463,0,0
-413,561,0,0,0,0,0,0,0,0,0,-1,811,463,0,0
-406,561,0,0,0,0,0,0,0,0,0,-1,818,463,0,0
-399,561,0,0,0,0,0,0,0,0,0,-1,825,463,0,0
-392,561,4.92407,-2.54578,0,0,0,0,0,0,0,-1,832,463,4.92408,2.54576
-385,561,5.55634,-1.02338,0,0,0,0,0,0,0,-1,839,463,5.55634,1.02338
-378,561,0.160522,-4.51785,0,0,0,0,0,0,0,-1,846,463,0.160542,4.51785
-371,561,2.20026,-26.5992,0,0,0,0,0,0,0,-1,853,463,2.20026,26.5992
-364,561,2.58044,-27.161,0,0,0,0,0,0,0,-1,860,463,2.58046,27.161
-357,561,2.16742,-23.5582,0,0,0,0,0,0,0,-1,867,463,2.1674,23.5582
-350,561,1.33124,-11.9406,0,0,0,0,0,0,0,-1,874,463,1.33127,11.9406
-343,561,1.13214,-14.1837,0,0,0,0,0,0,0,-1,881,463,1.13217,14.1837
-336,561,2.34875,-31.1842,0,0,0,0,0,0,0,-1,888,463,2.34876,31.1842
-329,561,1.75647,-32.185,0,0,0,0,0,0,0,-1,895,463,1.75646,32.185
-322,561,1.8327,-32.7825,0,0,0,0,0,0,0,-1,902,463,1.83268,32.7825
-315,561,1.90887,-33.3801,0,0,0,0,0,0,0,-1,909,463,1.9089,33.3801
-308,561,2.19122,-34.1159,0,0,0,0,0,0,0,-1,916,463,2.19125,34.1159
-301,561,1.97943,-35.2491,-0.00266421,0.00806314,-0.00470158,0.00983206,-0.00443312,-1.21094,0.00843033,0.0170361,923,463,1.97941,35.2491
-294,561,1.89813,-36.0575,-0.00215728,0.00693443,-0.00399563,0.00844083,-0.00366368,-1.21026,0.00716766,0.0115553,930,463,1.89815,36.0575
-287,561,1.84338,-36.8257,-0.0017323,0.00612031,-0.00338158,0.00737579,-0.00298778,-1.2153,0.0061596,0.0101705,937,463,1.84337,36.8257
-280,561,1.79529,-37.5844,-0.00122384,0.00528256,-0.00293985,0.00641411,-0.00235539,-1.20337,0.00524071,0.0126592,944,463,1.79529,37.5844
-273,561,1.73065,-38.3124,-0.000807017,0.00425598,-0.00242752,0.0052318,-0.00178284,-1.18858,0.00420992,0.0153757,951,463,1.73067,38.3124
-266,561,1.7019,-39.0594,-0.000430463,0.00296852,-0.00179061,0.00373774,-0.00119968,-1.16505,0.00297352,0.0101114,958,463,1.70191,39.0594
-259,561,1.66766,-39.8222,-3.81845e-05,0.00149209,-0.00104029,0.00201832,-0.000564419,-1.10248,0.00156792,0.0106765,965,463,1.66765,39.8222
-252,561,1.60797,-40.5329,0.000414868,-0.000339139,-0.000259263,0.000495411,-0.000419682,-0.301209,0.000528932,0.0155731,972,463,1.60797,40.5329
-245,561,1.56537,-41.2509,0.000876325,-0.00216359,0.000542581,0.000970265,-0.00225753,0.171436,0.00191233,0.0176543,979,463,1.56539,41.2509
-238,561,1.55579,-41.9798,0.00138172,-0.00415795,0.00143391,0.00173087,-0.0045071,0.238848,0.00371848,0.0135472,986,463,1.5558,41.9798
-231,561,1.4964,-42.6926,0.00193183,-0.00646778,0.00232938,0.00253456,-0.00707051,0.253199,0.00574792,0.0113688,993,463,1.4964,42.6926
-224,561,1.47272,-43.3842,0.00241841,-0.00868086,0.00322597,0.00328791,-0.00955036,0.263275,0.00770052,0.0114451,1000,463,1.47272,43.3842
-217,561,1.48706,-44.0534,0.00298607,-0.0109817,0.00407002,0.00408548,-0.0120811,0.263828,0.00970686,0.0119751,1007,463,1.48705,44.0534
-210,561,1.48669,-44.7373,0.00364387,-0.0133017,0.00480022,0.00490916,-0.014567,0.257728,0.0116963,0.012773,1014,463,1.48671,44.7373
-203,561,1.47345,-45.3938,0.00441091,-0.0153523,0.00531736,0.00575073,-0.0166922,0.246833,0.0134609,0.0146263,1021,463,1.47344,45.3938
-196,561,1.4209,-46.0078,0.00510917,-0.0171114,0.00562939,0.00645394,-0.0184561,0.23449,0.0149279,0.017665,1028,463,1.42091,46.0078
-189,561,1.50366,-46.6201,0.00569818,-0.0185676,0.00587202,0.00704445,-0.0199138,0.225373,0.0161447,0.0232552,1035,463,1.50372,46.6202
-182,561,1.60315,-47.2031,0.00634239,-0.0198096,0.00603838,0.0076693,-0.0211365,0.216308,0.0172262,0.0276014,1042,463,1.60316,47.2031
-175,561,1.43115,-47.8116,0.0071053,-0.0204147,0.00605411,0.00837826,-0.0216877,0.207245,0.0179165,0.0439853,1049,463,1.43115,47.8116
-168,561,1.2251,-48.4302,0,0,0,0,0,0,0,-1,1056,463,1.2251,48.4302
-161,561,1.50708,-48.9477,0,0,0,0,0,0,0,-1,1063,463,1.50711,48.9477
-154,561,1.98621,-49.94,0,0,0,0,0,0,0,-1,1070,463,1.98615,49.94
-147,561,2.12537,-50.4144,0,0,0,0,0,0,0,-1,1077,463,2.12543,50.4145
-140,561,2.03735,-50.7314,0,0,0,0,0,0,0,-1,1084,463,2.03739,50.7314
-133,561,2.18433,-50.898,0,0,0,0,0,0,0,-1,1091,463,2.18435,50.898
-126,561,1.77014,-49.4318,0,0,0,0,0,0,0,-1,1098,463,1.7702,49.4318
-119,561,-0.336304,-35.422,0,0,0,0,0,0,0,-1,1105,463,-0.336245,35.422
-112,561,1.24365,-29.1982,0,0,0,0,0,0,0,-1,1112,463,1.2437,29.1981
-105,561,0.530518,-13.5379,0,0,0,0,0,0,0,-1,1119,463,0.530477,13.5379
-98,561,1.5387,-7.54352,0,0,0,0,0,0,0,-1,1126,463,1.53871,7.54351
-91,561,1.29553,-6.57968,0,0,0,0,0,0,0,-1,1133,463,1.29549,6.5797
-84,561,1.23364,-5.84555,0,0,0,0,0,0,0,-1,1140,463,1.23363,5.84556
-77,561,-2.36023,1.00204,0,0,0,0,0,0,0,-1,1147,463,-2.3602,-1.00205
-70,561,-3.90015,-1.41541,0,0,0,0,0,0,0,-1,1154,463,-3.90009,1.4154
-63,561,-6.95691,-4.02756,0,0,0,0,0,0,0,-1,1161,463,-6.95696,4.02756
-56,561,-5.37988,-6.66855,0,0,0,0,0,0,0,-1,1168,463,-5.37988,6.66854
-49,561,-5.7439,-9.11029,0,0,0,0,0,0,0,-1,1175,463,-5.74387,9.1103
-42,561,-1.72644,-5.63065,0,0,0,0,0,0,0,-1,1182,463,-1.72648,5.63064
-35,561,-1.65674,-4.87994,0,0,0,0,0,0,0,-1,1189,463,-1.6567,4.87993
-28,561,-1.91418,-3.86896,0,0,0,0,0,0,0,-1,1196,463,-1.91414,3.86895
-21,561,2.44299,-56.4518,0,0,0,0,0,0,0,-1,1203,463,2.44293,56.4518
-14,561,2.69971,-57.1433,0,0,0,0,0,0,0,-1,1210,463,2.69968,57.1433
-7,561,2.75452,-57.6694,0,0,0,0,0,0,0,-1,1217,463,2.75448,57.6694
0,561,3.39905,-54.9312,0,0,0,0,0,0,0,-1,1224,463,3.39906,54.9312
7,561,14.1421,-62.506,0,0,0,0,0,0,0,-1,1231,463,14.142,62.5061
14,561,13.6488,-61.5765,0,0,0,0,0,0,0,-1,1238,463,13.6488,61.5765
21,561,13.1943,-60.845,0,0,0,0,0,0,0,-1,1245,463,13.1944,60.845
28,561,12.7286,-60.1663,0,0,0,0,0,0,0,-1,1252,463,12.7287,60.1663
35,561,12.2773,-59.3982,0,0,0,0,0,0,0,-1,1259,463,12.2774,59.3982
42,561,8.50183,-61.2781,0,0,0,0,0,0,0,-1,1266,463,8.50178,61.2781
49,561,8.17822,-60.907,0,0,0,0,0,0,0,-1,1273,463,8.17818,60.9071
56,561,6.48279,-59.2446,0,0,0,0,0,0,0,-1,1280,463,6.48281,59.2446
63,561,5.67249,-58.6583,0,0,0,0,0,0,0,-1,1287,463,5.67251,58.6583
70,561,5.01074,-58.1532,0,0,0,0,0,0,0,-1,1294,463,5.01074,58.1532
77,561,4.32581,-58.0441,0,0,0,0,0,0,0,-1,1301,463,4.32577,58.0441
84,561,3.60876,-58.0231,0,0,0,0,0,0,0,-1,1308,463,3.60872,58.0231
91,561,2.62878,-58.0866,0,0,0,0,0,0,0,-1,1315,463,2.62872,58.0866
98,561,1.91895,-57.9441,0,0,0,0,0,0,0,-1,1322,463,1.91897,57.9441
105,561,1.71143,-57.7601,0,0,0,0,0,0,0,-1,1329,463,1.71138,57.7601
112,561,1.49194,-57.4883,0,0,0,0,0,0,0,-1,1336,463,1.4919,57.4883
119,561,1.01843,-57.4304,0,0,0,0,0,0,0,-1,1343,463,1.01849,57.4304
126,561,0.645508,-57.5519,0,0,0,0,0,0,0,-1,1350,463,0.64545,57.5519
133,561,0.0228271,-57.6559,0,0,0,0,0,0,0,-1,1357,463,0.0227935,57.656
140,561,3.3894,-67.1954,0,0,0,0,0,0,0,-1,1364,463,3.38944,67.1954
147,561,3.31396,-68.5279,0,0,0,0,0,0,0,-1,1371,463,3.31402,68.5279
154,561,2.9801,-69.6845,0,0,0,0,0,0,0,-1,1378,463,2.9801,69.6845
161,561,2.58667,-70.5203,0,0,0,0,0,0,0,-1,1385,463,2.58669,70.5203
168,561,2.2384,-71.3521,0,0,0,0,0,0,0,-1,1392,463,2.23841,71.352
175,561,10.4185,0.276398,0,0,0,0,0,0,0,-1,1399,463,10.4185,-0.276394
182,561,6.45703,-4.02127,0,0,0,0,0,0,0,-1,1406,463,6.45704,4.02127
189,561,6.50854,-2.08685,0,0,0,0,0,0,0,-1,1413,463,6.50851,2.08686
196,561,6.44775,-0.27182,0,0,0,0,0,0,0,-1,1420,463,6.44773,0.271814
203,561,6.18591,1.1301,0,0,0,0,0,0,0,-1,1427,463,6.18592,-1.13009
210,561,5.68713,2.68427,0,0,0,0,0,0,0,-1,1434,463,5.6871,-2.68425
217,561,3.61743,-7.33582,0,0,0,0,0,0,0,-1,1441,463,3.61738,7.33581
224,561,4.27466,-8.59171,0,0,0,0,0,0,0,-1,1448,463,4.27466,8.59171
231,561,4.93188,-9.8476,0,0,0,0,0,0,0,-1,1455,463,4.93193,9.84761
238,561,2.18018,-5.18359,0,0,0,0,0,0,0,-1,1462,463,2.18023,5.18359
245,561,3.07568,-3.50238,0,0,0,0,0,0,0,-1,1469,463,3.0757,3.50238
252,561,3.47412,-3.71109,0,0,0,0,0,0,0,-1,1476,463,3.47413,3.71109
259,561,3.42212,-3.2334,0,0,0,0,0,0,0,-1,1483,463,3.42214,3.2334
266,561,4.44373,-5.90027,0,0,0,0,0,0,0,-1,1490,463,4.44372,5.90026
273,561,2.59485,-3.65268,0,0,0,0,0,0,0,-1,1497,463,2.5948,3.65268
280,561,12.7095,-49.5162,0,0,0,0,0,0,0,-1,1504,463,12.7095,49.5162
287,561,12.5902,-48.6958,0,0,0,0,0,0,0,-1,1511,463,12.5902,48.6958
294,561,12.8569,-48.0452,0.00374436,-0.0224633,-0.00807767,0.00603401,-0.024753,-0.276208,0.0188382,0.0440141,1518,463,12.8569,48.0452
301,561,12.71,-47.3858,0.00325983,-0.0215903,-0.00846932,0.00587177,-0.0242023,-0.299145,0.018407,0.0347843,1525,463,12.71,47.3858
308,561,12.8287,-46.8863,0.00289396,-0.0202565,-0.00863141,0.00575782,-0.0231204,-0.320365,0.0176488,0.0286545,1532,463,12.8288,46.8863
315,561,12.8861,-46.3481,0.00260758,-0.0186099,-0.00847782,0.00557892,-0.0215813,-0.337106,0.0165634,0.0160985,1539,463,12.8862,46.348
322,561,12.8606,-45.746,0.00239817,-0.0166318,-0.00796915,0.00529456,-0.0195282,-0.348607,0.0150964,0.0149154,1546,463,12.8606,45.746
329,561,12.8513,-45.0702,0.00229949,-0.0145077,-0.00722791,0.00498025,-0.0171885,-0.355163,0.0134305,0.0120989,1553,463,12.8513,45.0702
336,561,12.8619,-44.3609,0.00214424,-0.0123549,-0.00640249,0.0045667,-0.0147774,-0.361714,0.0116754,0.0110732,1560,463,12.8619,44.3609
343,561,12.8627,-43.6783,0.00193184,-0.0099967,-0.00532786,0.00396498,-0.0120298,-0.364549,0.00961796,0.0112024,1567,463,12.8627,43.6784
350,561,12.8315,-42.9782,0.00183845,-0.00760569,-0.0041163,0.00338072,-0.00914795,-0.358483,0.00748453,0.0112136,1574,463,12.8316,42.9782
357,561,12.8135,-42.2553,0.00166201,-0.00513601,-0.00290908,0.00273693,-0.00621093,-0.353944,0.00529424,0.0109295,1581,463,12.8135,42.2553
364,561,12.8062,-41.5485,0.0014101,-0.00298735,-0.00168091,0.00197902,-0.00355627,-0.326356,0.00323876,0.00958084,1588,463,12.8062,41.5485
371,561,12.7648,-40.8094,0.00130189,-0.000838524,-0.000417968,0.00138062,-0.000917247,-0.186166,0.00133563,0.014907,1595,463,12.7648,40.8094
378,561,12.7124,-40.048,0.00118729,0.00104809,0.000534972,0.00165717,0.000578208,0.720712,0.000971218,0.0116185,1602,463,12.7124,40.048
385,561,12.6842,-39.2909,0.00118214,0.00295694,0.001447,0.00376698,0.000372106,1.06046,0.00239693,0.0108669,1609,463,12.6841,39.2909
392,561,12.6439,-38.559,0.0014225,0.00422822,0.00226574,0.00549024,0.000160473,1.06259,0.00360786,0.0147831,1616,463,12.6439,38.559
399,561,12.6097,-37.8206,0.0018492,0.00541951,0.00300605,0.00713051,0.000138201,1.05334,0.00470828,0.0204608,1623,463,12.6098,37.8207
406,561,12.5974,-37.0522,0.00233065,0.00655482,0.00361646,0.00863077,0.000254699,1.04969,0.00567085,0.0186029,1630,463,12.5975,37.0523
413,561,12.5472,-36.2619,0.00280662,0.00725575,0.0040978,0.00969387,0.000368499,1.03407,0.00634332,0.0184253,1637,463,12.5472,36.2619
420,561,12.4891,-35.4727,0.00319978,0.00762703,0.00455323,0.0104762,0.000350602,1.01166,0.00687026,0.0148628,1644,463,12.4891,35.4727
427,561,12.4556,-34.6655,0.0034905,0.00773187,0.00496625,0.0110113,0.000211098,0.987188,0.0072715,0.0111054,1651,463,12.4556,34.6655
434,561,12.4063,-33.8521,0.00382826,0.00779192,0.00537707,0.0115408,7.94185e-05,0.961959,0.0076675,0.0129238,1658,463,12.4063,33.8521
441,561,12.3936,-33.0306,0.00377591,0.00762645,0.00569957,0.0117171,-0.000314781,0.948277,0.00791844,0.0150153,1665,463,12.3936,33.0306
448,561,12.3329,-32.1327,0.00331547,0.00711156,0.00591908,0.0114295,-0.00100244,0.940551,0.00797482,0.0234576,1672,463,12.3329,32.1327
455,561,12.2148,-31.2455,0.00250418,0.00642296,0.00607654,0.0108482,-0.00192107,0.94136,0.00795024,0.0451916,1679,463,12.2148,31.2455
462,561,12.082,-30.657,0.00140447,0.0058544,0.006255,0.0102684,-0.00300951,0.956274,0.00803878,0.0414189,1686,463,12.082,30.6569
469,561,11.9434,-29.9692,-2.55615e-05,0.00505534,0.00631338,0.00932024,-0.00429046,0.976681,0.008035,0.0286831,1693,463,11.9433,29.9692
476,561,11.7556,-29.0897,-0.00162356,0.00392229,0.00637715,0.00810329,-0.00580456,0.990479,0.00806618,0.0444885,1700,463,11.7556,29.0897
483,561,11.5403,-28.1835,0,0,0,0,0,0,0,-1,1707,463,11.5403,28.1835
490,561,10.2549,-20.4551,0,0,0,0,0,0,0,-1,1714,463,10.2548,20.4551
497,561,11.7618,-20.3894,0,0,0,0,0,0,0,-1,1721,463,11.7618,20.3894
504,561,12.9351,-20.1285,0,0,0,0,0,0,0,-1,1728,463,12.935,20.1285
511,561,0,0,0,0,0,0,0,0,0,-1,1735,463,0,0
518,561,0,0,0,0,0,0,0,0,0,-1,1742,463,0,0
525,561,0,0,0,0,0,0,0,0,0,-1,1749,463,0,0
532,561,0,0,0,0,0,0,0,0,0,-1,1756,463,0,0
539,561,0,0,0,0,0,0,0,0,0,-1,1763,463,0,0
546,561,0,0,0,0,0,0,0,0,0,-1,1770,463,0,0
553,561,0,0,0,0,0,0,0,0,0,-1,1777,463,0,0
560,561,0,0,0,0,0,0,0,0,0,-1,1784,463,0,0
567,561,0,0,0,0,0,0,0,0,0,-1,1791,463,0,0
574,561,0,0,0,0,0,0,0,0,0,-1,1798,463,0,0
581,561,0,0,0,0,0,0,0,0,0,-1,1805,463,0,0
588,561,0,0,0,0,0,0,0,0,0,-1,1812,463,0,0
595,561,0,0,0,0,0,0,0,0,0,-1,1819,463,0,0
602,561,0,0,0,0,0,0,0,0,0,-1,1826,463,0,0
609,561,0,0,0,0,0,0,0,0,0,-1,1833,463,0,0
616,561,0,0,0,0,0,0,0,0,0,-1,1840,463,0,0
623,561,0,0,0,0,0,0,0,0,0,-1,1847,463,0,0
630,561,0,0,0,0,0,0,0,0,0,-1,1854,463,0,0
637,561,0,0,0,0,0,0,0,0,0,-1,1861,463,0,0
644,561,0,0,0,0,0,0,0,0,0,-1,1868,463,0,0
651,561,0,0,0,0,0,0,0,0,0,-1,1875,463,0,0
658,561,0,0,0,0,0,0,0,0,0,-1,1882,463,0,0
665,561,0,0,0,0,0,0,0,0,0,-1,1889,463,0,0
672,561,0,0,0,0,0,0,0,0,0,-1,1896,463,0,0
679,561,0,0,0,0,0,0,0,0,0,-1,1903,463,0,0
686,561,0,0,0,0,0,0,0,0,0,-1,1910,463,0,0
693,561,0,0,0,0,0,0,0,0,0,-1,1917,463,0,0
700,561,0,0,0,0,0,0,0,0,0,-1,1924,463,0,0
707,561,0,0,0,0,0,0,0,0,0,-1,1931,463,0,0
714,561,0,0,0,0,0,0,0,0,0,-1,1938,463,0,0
721,561,0,0,0,0,0,0,0,0,0,-1,1945,463,0,0
728,561,0,0,0,0,0,0,0,0,0,-1,1952,463,0,0
735,561,0,0,0,0,0,0,0,0,0,-1,1959,463,0,0
742,561,0,0,0,0,0,0,0,0,0,-1,1966,463,0,0
749,561,0,0,0,0,0,0,0,0,0,-1,1973,463,0,0
756,561,0,0,0,0,0,0,0,0,0,-1,1980,463,0,0
763,561,0,0,0,0,0,0,0,0,0,-1,1987,463,0,0
770,561,0,0,0,0,0,0,0,0,0,-1,1994,463,0,0
777,561,0,0,0,0,0,0,0,0,0,-1,2001,463,0,0
784,561,0,0,0,0,0,0,0,0,0,-1,2008,463,0,0
791,561,0,0,0,0,0,0,0,0,0,-1,2015,463,0,0
798,561,0,0,0,0,0,0,0,0,0,-1,2022,463,0,0
805,561,0,0,0,0,0,0,0,0,0,-1,2029,463,0,0
812,561,0,0,0,0,0,0,0,0,0,-1,2036,463,0,0
-700,554,0,0,0,0,0,0,0,0,0,-1,524,470,0,0
-693,554,0,0,0,0,0,0,0,0,0,-1,531,470,0,0
-686,554,0,0,0,0,0,0,0,0,0,-1,538,470,0,0
-679,554,0,0,0,0,0,0,0,0,0,-1,545,470,0,0
-672,554,0,0,0,0,0,0,0,0,0,-1,552,470,0,0
-665,554,0,0,0,0,0,0,0,0,0,-1,559,470,0,0
-658,554,0,0,0,0,0,0,0,0,0,-1,566,470,0,0
-651,554,0,0,0,0,0,0,0,0,0,-1,573,470,0,0
-644,554,0,0,0,0,0,0,0,0,0,-1,580,470,0,0
-637,554,0,0,0,0,0,0,0,0,0,-1,587,470,0,0
-630,554,0,0,0,0,0,0,0,0,0,-1,594,470,0,0
-623,554,0,0,0,0,0,0,0,0,0,-1,601,470,0,0
-616,554,0,0,0,0,0,0,0,0,0,-1,608,470,0,0
-609,554,0,0,0,0,0,0,0,0,0,-1,615,470,0,0
-602,554,0,0,0,0,0,0,0,0,0,-1,622,470,0,0
-595,554,0,0,0,0,0,0,0,0,0,-1,629,470,0,0
-588,554,0,0,0,0,0,0,0,0,0,-1,636,470,0,0
-581,554,0,0,0,0,0,0,0,0,0,-1,643,470,0,0
-574,554,0,0,0,0,0,0,0,0,0,-1,650,470,0,0
-567,554,0,0,0,0,0,0,0,0,0,-1,657,470,0,0
-560,554,0,0,0,0,0,0,0,0,0,-1,664,470,0,0
-553,554,0,0,0,0,0,0,0,0,0,-1,671,470,0,0
-546,554,0,0,0,0,0,0,0,0,0,-1,678,470,0,0
-539,554,0,0,0,0,0,0,0,0,0,-1,685,470,0,0
-532,554,0,0,0,0,0,0,0,0,0,-1,692,470,0,0
-525,554,0,0,0,0,0,0,0,0,0,-1,699,470,0,0
-518,554,0,0,0,0,0,0,0,0,0,-1,706,470,0,0
-511,554,0,0,0,0,0,0,0,0,0,-1,713,470,0,0
-504,554,0,0,0,0,0,0,0,0,0,-1,720,470,0,0
-497,554,0,0,0,0,0,0,0,0,0,-1,727,470,0,0
-490,554,0,0,0,0,0,0,0,0,0,-1,734,470,0,0
-483,554,0,0,0,0,0,0,0,0,0,-1,741,470,0,0
-476,554,0,0,0,0,0,0,0,0,0,-1,748,470,0,0
-469,554,0,0,0,0,0,0,0,0,0,-1,755,470,0,0
-462,554,0,0,0,0,0,0,0,0,0,-1,762,470,0,0
-455,554,0,0,0,0,0,0,0,0,0,-1,769,470,0,0
-448,554,0,0,0,0,0,0,0,0,0,-1,776,470,0,0
-441,554,0,0,0,0,0,0,0,0,0,-1,783,470,0,0
-434,554,0,0,0,0,0,0,0,0,0,-1,790,470,0,0
-427,554,0,0,0,0,0,0,0,0,0,-1,797,470,0,0
-420,554,0,0,0,0,0,0,0,0,0,-1,804,470,0,0
-413,554,0,0,0,0,0,0,0,0,0,-1,811,470,0,0
-406,554,0,0,0,0,0,0,0,0,0,-1,818,470,0,0
-399,554,-1.32275,-3.95142,0,0,0,0,0,0,0,-1,825,470,-1.32275,3.95141
-392,554,-1.35632,-3.7406,0,0,0,0,0,0,0,-1,832,470,-1.35632,3.7406
-385,554,-0.849243,-4.14447,0,0,0,0,0,0,0,-1,839,470,-0.849262,4.14446
-378,554,0.715332,-26.4245,0,0,0,0,0,0,0,-1,846,470,0.715328,26.4245
-371,554,1.08099,-26.9558,0.0520227,0.0601478,0.0236142,0.0800463,0.0321242,0.870584,0.0465138,0.0466369,853,470,1.081,26.9558
-364,554,1.42053,-27.5194,0.0419792,0.0499005,0.0176929,0.0640706,0.0278091,0.895512,0.0370984,0.0427502,860,470,1.42055,27.5194
-357,554,1.76245,-28.0988,0,0,0,0,0,0,0,-1,867,470,1.76246,28.0988
-350,554,1.17157,-18.1341,0,0,0,0,0,0,0,-1,874,470,1.17156,18.1341
-343,554,1.68866,-30.5784,0,0,0,0,0,0,0,-1,881,470,1.68868,30.5784
-336,554,1.54303,-31.229,0.0114016,0.020864,0.00103032,0.0209749,0.0112907,1.46358,0.0121217,0.0428427,888,470,1.54304,31.229
-329,554,1.34283,-32.071,0.00703449,0.0165294,-0.00100078,0.0166337,0.00693015,-1.46692,0.00964789,0.0234085,895,470,1.34284,32.071
-322,554,1.28271,-32.8673,0.00379391,0.0130051,-0.00214386,0.0134797,0.00331939,-1.35297,0.00810968,0.0163638,902,470,1.28273,32.8673
-315,554,1.2641,-33.6452,0.000748268,0.00933062,-0.00353682,0.0106003,-0.00052143,-1.22613,0.00724694,0.0155875,909,470,1.26409,33.6452
-308,554,1.2215,-34.4249,-0.00133994,0.00701657,-0.0039537,0.00859067,-0.00291404,-1.1919,0.00690651,0.0152301,916,470,1.22149,34.4249
-301,554,1.18896,-35.2531,-0.00185375,0.00586087,-0.00351153,0.00721985,-0.00321273,-1.20154,0.00616958,0.0142704,923,470,1.18894,35.2531
-294,554,1.13025,-36.0475,-0.00138726,0.00482299,-0.00284291,0.00592785,-0.00249211,-1.20013,0.00499435,0.0122184,930,470,1.13026,36.0475
-287,554,1.07343,-36.7981,-0.000978909,0.0040379,-0.00224668,0.00489694,-0.00183795,-1.20559,0.00401986,0.0122614,937,470,1.07341,36.7981
-280,554,1.01178,-37.5435,-0.000558547,0.003081,-0.00180167,0.00382201,-0.00129956,-1.1806,0.00307416,0.0121124,944,470,1.01181,37.5436
-273,554,0.963379,-38.2913,-0.000227168,0.00193596,-0.00122233,0.00248653,-0.000777743,-1.14759,0.00196883,0.0155879,951,470,0.96336,38.2913
-266,554,0.941589,-39.045,0.000104303,0.000524073,-0.000511797,0.00086735,-0.000238974,-0.979987,0.000672203,0.0127887,958,470,0.941592,39.045
-259,554,0.901611,-39.7389,0.000454257,-0.0010599,0.000343459,0.000528522,-0.00113416,0.212948,0.000980949,0.0128868,965,470,0.901633,39.7389
-252,554,0.862793,-40.46,0.000899917,-0.00312802,0.00120785,0.00123435,-0.00346245,0.270112,0.00281157,0.0157711,972,470,0.862823,40.46
-245,554,0.841309,-41.2068,0.00132357,-0.00517769,0.00211736,0.00195234,-0.00580646,0.288668,0.00466013,0.0167664,979,470,0.841301,41.2068
-238,554,0.835571,-41.9377,0.00182543,-0.00741886,0.00310923,0.00277387,-0.00836731,0.296077,0.00669713,0.0124349,986,470,0.835584,41.9377
-231,554,0.798279,-42.6617,0.00241998,-0.0100319,0.00410133,0.00364945,-0.0112614,0.29125,0.00897492,0.0109883,993,470,0.798277,42.6617
-224,554,0.79364,-43.327,0.00294659,-0.012551,0.00512078,0.00448576,-0.0140901,0.291983,0.0111924,0.0103712,1000,470,0.793615,43.327
-217,554,0.803833,-43.9861,0.00359418,-0.015159,0.00607607,0.00539073,-0.0169556,0.287486,0.0134652,0.0107805,1007,470,0.803856,43.9861
-210,554,0.803955,-44.6594,0.00436172,-0.0178009,0.00689238,0.00633032,-0.0197695,0.278213,0.0157206,0.0148958,1014,470,0.803984,44.6594
-203,554,0.798889,-45.2311,0.00526793,-0.0201772,0.00745729,0.0072924,-0.0222016,0.265086,0.0177388,0.0233133,1021,470,0.798891,45.2311
-196,554,0.794922,-45.8161,0.00613738,-0.022232,0.00775372,0.00811826,-0.0242129,0.250124,0.0194221,0.0322872,1028,470,0.794981,45.8161
-189,554,0.921265,-46.3499,0.00687154,-0.0239423,0.00796802,0.00881001,-0.0258808,0.238645,0.0208214,0.0379953,1035,470,0.921232,46.3498
-182,554,1.08386,-46.7007,0.00762088,-0.0253887,0.00808049,0.00949277,-0.0272606,0.22764,0.0220306,0.0490744,1042,470,1.08388,46.7007
-175,554,1.05383,-47.0214,0,0,0,0,0,0,0,-1,1049,470,1.05384,47.0214
-168,554,1.0968,-46.834,0,0,0,0,0,0,0,-1,1056,470,1.09681,46.834
-161,554,1.09583,-42.015,0,0,0,0,0,0,0,-1,1063,470,1.09577,42.015
-154,554,1.03186,-42.7216,0,0,0,0,0,0,0,-1,1070,470,1.03187,42.7216
-147,554,1.4552,-41.5187,0,0,0,0,0,0,0,-1,1077,470,1.45525,41.5187
-140,554,0.428101,-38.9893,0,0,0,0,0,0,0,-1,1084,470,0.428152,38.9893
-133,554,2.67163,-32.8187,0,0,0,0,0,0,0,-1,1091,470,2.67161,32.8187
-126,554,0.851929,-33.5393,0,0,0,0,0,0,0,-1,1098,470,0.851942,33.5393
-119,554,-1.03479,-32.1628,0,0,0,0,0,0,0,-1,1105,470,-1.03476,32.1628
-112,554,1.03162,-24.5784,0,0,0,0,0,0,0,-1,1112,470,1.03156,24.5784
-105,554,0.608765,-21.0475,0,0,0,0,0,0,0,-1,1119,470,0.608728,21.0475
-98,554,1.51929,-7.3624,0,0,0,0,0,0,0,-1,1126,470,1.51928,7.36241
-91,554,1.41089,-6.5864,0,0,0,0,0,0,0,-1,1133,470,1.41093,6.58638
-84,554,1.62305,-5.87186,0,0,0,0,0,0,0,-1,1140,470,1.62299,5.87186
-77,554,-2.56958,1.33258,0,0,0,0,0,0,0,-1,1147,470,-2.56959,-1.33257
-70,554,-3.68164,-1.18332,0,0,0,0,0,0,0,-1,1154,470,-3.68158,1.18331
-63,554,-4.86853,-3.88708,0,0,0,0,0,0,0,-1,1161,470,-4.86853,3.88708
-56,554,-5.69958,-6.45422,0,0,0,0,0,0,0,-1,1168,470,-5.69955,6.45422
-49,554,-6.23645,-8.8569,0,0,0,0,0,0,0,-1,1175,470,-6.23643,8.85689
-42,554,-6.62524,-11.5382,0,0,0,0,0,0,0,-1,1182,470,-6.62522,11.5382
-35,554,-2.40173,-4.59482,0,0,0,0,0,0,0,-1,1189,470,-2.40169,4.59481
-28,554,-0.760132,-1.65555,0,0,0,0,0,0,0,-1,1196,470,-0.760095,1.65556
-21,554,7.92444,-43.2634,0,0,0,0,0,0,0,-1,1203,470,7.92438,43.2634
-14,554,2.6394,-57.1053,0,0,0,0,0,0,0,-1,1210,470,2.6394,57.1054
-7,554,4.14246,-54.6483,0,0,0,0,0,0,0,-1,1217,470,4.1425,54.6483
0,554,9.53613,-55.2457,0,0,0,0,0,0,0,-1,1224,470,9.53616,55.2457
7,554,14.842,-61.8957,0,0,0,0,0,0,0,-1,1231,470,14.842,61.8957
14,554,14.4038,-61.1771,0,0,0,0,0,0,0,-1,1238,470,14.4038,61.1771
21,554,13.9757,-60.4576,0,0,0,0,0,0,0,-1,1245,470,13.9758,60.4577
28,554,13.5317,-59.7906,0,0,0,0,0,0,0,-1,1252,470,13.5317,59.7907
35,554,13.0901,-59.0502,0,0,0,0,0,0,0,-1,1259,470,13.0901,59.0502
42,554,12.6709,-58.3567,0,0,0,0,0,0,0,-1,1266,470,12.6709,58.3567
49,554,8.41394,-61.7356,0,0,0,0,0,0,0,-1,1273,470,8.41393,61.7356
56,554,6.34692,-59.1266,0,0,0,0,0,0,0,-1,1280,470,6.34689,59.1266
63,554,5.51819,-58.5803,0,0,0,0,0,0,0,-1,1287,470,5.51822,58.5802
70,554,5.09424,-58.4096,0,0,0,0,0,0,0,-1,1294,470,5.09423,58.4096
77,554,4.56775,-58.3484,0,0,0,0,0,0,0,-1,1301,470,4.5678,58.3484
84,554,3.93079,-58.2439,0,0,0,0,0,0,0,-1,1308,470,3.9308,58.2439
91,554,3.29797,-58.152,0,0,0,0,0,0,0,-1,1315,470,3.29797,58.152
98,554,1.70715,-58.1863,0,0,0,0,0,0,0,-1,1322,470,1.7071,58.1864
105,554,1.02319,-58.0554,0,0,0,0,0,0,0,-1,1329,470,1.02313,58.0554
112,554,0.871338,-58.5909,0,0,0,0,0,0,0,-1,1336,470,0.871359,58.591
119,554,0.525879,-58.5724,0,0,0,0,0,0,0,-1,1343,470,0.525888,58.5724
126,554,0.0180664,-58.6077,0,0,0,0,0,0,0,-1,1350,470,0.0180608,58.6078
133,554,-0.595215,-58.7241,0,0,0,0,0,0,0,-1,1357,470,-0.595192,58.724
140,554,-1.13306,-58.787,0,0,0,0,0,0,0,-1,1364,470,-1.13302,58.787
147,554,3.19788,-67.9967,0,0,0,0,0,0,0,-1,1371,470,3.19791,67.9967
154,554,2.79199,-69.7485,0,0,0,0,0,0,0,-1,1378,470,2.79198,69.7485
161,554,2.5188,-70.3378,0,0,0,0,0,0,0,-1,1385,470,2.51883,70.3378
168,554,2.19226,-70.7622,0,0,0,0,0,0,0,-1,1392,470,2.19222,70.7622
175,554,10.663,0.286957,0,0,0,0,0,0,0,-1,1399,470,10.663,-0.286966
182,554,6.71106,-4.50217,0,0,0,0,0,0,0,-1,1406,470,6.71107,4.50215
189,554,6.90479,-2.50348,0,0,0,0,0,0,0,-1,1413,470,6.90477,2.50348
196,554,6.96216,-0.740906,0,0,0,0,0,0,0,-1,1420,470,6.96214,0.740912
203,554,6.43518,0.414154,0,0,0,0,0,0,0,-1,1427,470,6.43523,-0.414141
210,554,6.21167,1.96707,0,0,0,0,0,0,0,-1,1434,470,6.21165,-1.96706
217,554,5.64551,3.4989,0,0,0,0,0,0,0,-1,1441,470,5.64555,-3.49891
224,554,4.85144,-8.85172,0,0,0,0,0,0,0,-1,1448,470,4.85146,8.85173
231,554,3.25073,-5.29642,0,0,0,0,0,0,0,-1,1455,470,3.25078,5.29642
238,554,4.28625,-3.25253,0,0,0,0,0,0,0,-1,1462,470,4.28622,3.25252
245,554,4.0752,-2.90033,0,0,0,0,0,0,0,-1,1469,470,4.07515,2.90032
252,554,3.52112,-0.934998,0,0,0,0,0,0,0,-1,1476,470,3.52113,0.934996
259,554,3.96448,-2.16425,0,0,0,0,0,0,0,-1,1483,470,3.96446,2.16424
266,554,3.0592,-2.71716,0,0,0,0,0,0,0,-1,1490,470,3.05923,2.71718
273,554,2.58521,-3.06876,0,0,0,0,0,0,0,-1,1497,470,2.58524,3.06874
280,554,2.83301,-0.991699,0,0,0,0,0,0,0,-1,1504,470,2.83303,0.991704
287,554,12.9904,-47.3695,0,0,0,0,0,0,0,-1,1511,470,12.9903,47.3695
294,554,13.6079,-47.6556,0,0,0,0,0,0,0,-1,1518,470,13.6079,47.6556
301,554,13.1526,-46.8336,0,0,0,0,0,0,0,-1,1525,470,13.1526,46.8336
308,554,13.4701,-46.6766,0,0,0,0,0,0,0,-1,1532,470,13.4701,46.6766
315,554,13.8979,-45.9503,0.00252909,-0.0252975,-0.0119347,0.00694655,-0.029715,-0.3545,0.0224861,0.0468728,1539,470,13.898,45.9503
322,554,13.6614,-45.4685,0.00248909,-0.0226666,-0.0112383,0.00677841,-0.0269559,-0.364606,0.0206051,0.0351083,1546,470,13.6614,45.4685
329,554,13.6117,-44.8962,0.00254065,-0.0199005,-0.0102675,0.00652938,-0.0238892,-0.370537,0.0184909,0.0216893,1553,470,13.6117,44.8962
336,554,13.5708,-44.2899,0.00243729,-0.0172032,-0.00919712,0.00607156,-0.0208375,-0.376322,0.016297,0.0134869,1560,470,13.5708,44.2899
343,554,13.5542,-43.6417,0.00225266,-0.0143896,-0.00784723,0.0053692,-0.0175062,-0.378048,0.0138128,0.0106464,1567,470,13.5542,43.6417
350,554,13.5455,-42.9232,0.00222113,-0.0116043,-0.00636614,0.00470593,-0.0140891,-0.372129,0.0112931,0.00973287,1574,470,13.5456,42.9232
357,554,13.5533,-42.2089,0.00207939,-0.00874903,-0.00492165,0.00398203,-0.0106517,-0.36889,0.00873639,0.0110548,1581,470,13.5533,42.2089
364,554,13.5223,-41.5107,0.00181946,-0.00633578,-0.00348859,0.00310814,-0.00762447,-0.353853,0.00637673,0.0089056,1588,470,13.5223,41.5106
371,554,13.4849,-40.7781,0.00174116,-0.00393333,-0.00201915,0.00238629,-0.00457846,-0.309253,0.00408695,0.00825966,1595,470,13.4848,40.7781
378,554,13.4581,-40.0157,0.00153722,-0.00179676,-0.000900784,0.00176503,-0.00202457,-0.247708,0.00218964,0.01004,1602,470,13.4581,40.0157
385,554,13.4402,-39.2606,0.00131917,0.000295759,0.000142118,0.00133854,0.00027639,0.135453,0.000815986,0.0102243,1609,470,13.4402,39.2606
392,554,13.4,-38.5052,0.00131489,0.00173988,0.00106747,0.0026158,0.000438971,0.883646,0.00161752,0.0141692,1616,470,13.4,38.5052
399,554,13.3641,-37.7083,0.00153064,0.00297363,0.00175211,0.00414699,0.00035729,0.980711,0.00265359,0.0192467,1623,470,13.3642,37.7083
406,554,13.3235,-36.9207,0.00179667,0.00421136,0.00236627,0.0056605,0.000347529,1.0213,0.00366332,0.0175245,1630,470,13.3235,36.9206
413,554,13.3,-36.196,0.0020714,0.00500033,0.00286064,0.00674957,0.000322155,1.02197,0.00439626,0.016132,1637,470,13.3001,36.196
420,554,13.2633,-35.4326,0.00227822,0.0054462,0.00328535,0.00750948,0.000214937,1.01003,0.00493623,0.01662,1644,470,13.2633,35.4326
427,554,13.2219,-34.632,0.00240066,0.00564974,0.00365697,0.00802677,2.36304e-05,0.994421,0.00534332,0.0112113,1651,470,13.2219,34.632
434,554,13.1647,-33.8598,0.00256311,0.00578427,0.00404034,0.00852321,-0.000175828,0.975058,0.00574165,0.0101368,1658,470,13.1647,33.8598
441,554,13.1326,-33.0706,0.00244767,0.00578975,0.0043723,0.00879946,-0.000562042,0.967927,0.00606234,0.0117975,1665,470,13.1326,33.0706
448,554,13.0653,-32.2013,0.00201545,0.00550388,0.00460869,0.00868737,-0.00116804,0.9663,0.00621761,0.0171638,1672,470,13.0654,32.2013
455,554,12.9928,-31.3954,0.00136138,0.0050793,0.00479997,0.00836771,-0.00192704,0.970147,0.00631953,0.0192025,1679,470,12.9928,31.3954
462,554,12.8981,-30.6559,0.000684303,0.00472392,0.00507891,0.00816992,-0.00276169,0.974653,0.00656378,0.0215096,1686,470,12.8981,30.6559
469,554,12.7119,-29.8836,-5.01647e-05,0.00424522,0.00528683,0.00780394,-0.00360888,0.978333,0.00673594,0.0266729,1693,470,12.712,29.8836
476,554,12.5704,-28.9848,-0.00077698,0.00355887,0.00555097,0.00735024,-0.00456835,0.971564,0.0069434,0.0452592,1700,470,12.5704,28.9848
483,554,12.455,-28.0818,0,0,0,0,0,0,0,-1,1707,470,12.455,28.0818
490,554,12.5504,-17.9805,0,0,0,0,0,0,0,-1,1714,470,12.5505,17.9805
497,554,14.3204,-17.9055,0,0,0,0,0,0,0,-1,1721,470,14.3204,17.9055
504,554,2.13257,-3.81628,0,0,0,0,0,0,0,-1,1728,470,2.1326,3.8163
511,554,1.31396,-4.02713,0,0,0,0,0,0,0,-1,1735,470,1.31398,4.02712
518,554,5.04236,-5.9472,0,0,0,0,0,0,0,-1,1742,470,5.04231,5.94721
525,554,0,0,0,0,0,0,0,0,0,-1,1749,470,0,0
532,554,0,0,0,0,0,0,0,0,0,-1,1756,470,0,0
539,554,0,0,0,0,0,0,0,0,0,-1,1763,470,0,0
546,554,0,0,0,0,0,0,0,0,0,-1,1770,470,0,0
553,554,0,0,0,0,0,0,0,0,0,-1,1777,470,0,0
560,554,0,0,0,0,0,0,0,0,0,-1,1784,470,0,0
567,554,0,0,0,0,0,0,0,0,0,-1,1791,470,0,0
574,554,0,0,0,0,0,0,0,0,0,-1,1798,470,0,0
581,554,0,0,0,0,0,0,0,0,0,-1,1805,470,0,0
588,554,0,0,0,0,0,0,0,0,0,-1,1812,470,0,0
595,554,0,0,0,0,0,0,0,0,0,-1,1819,470,0,0
602,554,0,0,0,0,0,0,0,0,0,-1,1826,470,0,0
609,554,0,0,0,0,0,0,0,0,0,-1,1833,470,0,0
616,554,0,0,0,0,0,0,0,0,0,-1,1840,470,0,0
623,554,0,0,0,0,0,0,0,0,0,-1,1847,470,0,0
630,554,0,0,0,0,0,0,0,0,0,-1,1854,470,0,0
637,554,0,0,0,0,0,0,0,0,0,-1,1861,470,0,0
644,554,0,0,0,0,0,0,0,0,0,-1,1868,470,0,0
651,554,0,0,0,0,0,0,0,0,0,-1,1875,470,0,0
658,554,0,0,0,0,0,0,0,0,0,-1,1882,470,0,0
665,554,0,0,0,0,0,0,0,0,0,-1,1889,470,0,0
672,554,0,0,0,0,0,0,0,0,0,-1,1896,470,0,0
679,554,0,0,0,0,0,0,0,0,0,-1,1903,470,0,0
686,554,0,0,0,0,0,0,0,0,0,-1,1910,470,0,0
693,554,0,0,0,0,0,0,0,0,0,-1,1917,470,0,0
700,554,0,0,0,0,0,0,0,0,0,-1,1924,470,0,0
707,554,0,0,0,0,0,0,0,0,0,-1,1931,470,0,0
714,554,0,0,0,0,0,0,0,0,0,-1,1938,470,0,0
721,554,0,0,0,0,0,0,0,0,0,-1,1945,470,0,0
728,554,0,0,0,0,0,0,0,0,0,-1,1952,470,0,0
735,554,0,0,0,0,0,0,0,0,0,-1,1959,470,0,0
742,554,0,0,0,0,0,0,0,0,0,-1,1966,470,0,0
749,554,0,0,0,0,0,0,0,0,0,-1,1973,470,0,0
756,554,0,0,0,0,0,0,0,0,0,-1,1980,470,0,0
763,554,0,0,0,0,0,0,0,0,0,-1,1987,470,0,0
770,554,0,0,0,0,0,0,0,0,0,-1,1994,470,0,0
777,554,0,0,0,0,0,0,0,0,0,-1,2001,470,0,0
784,554,0,0,0,0,0,0,0,0,0,-1,2008,470,0,0
791,554,0,0,0,0,0,0,0,0,0,-1,2015,470,0,0
798,554,0,0,0,0,0,0,0,0,0,-1,2022,470,0,0
805,554,0,0,0,0,0,0,0,0,0,-1,2029,470,0,0
812,554,0,0,0,0,0,0,0,0,0,-1,2036,470,0,0
-700,547,0,0,0,0,0,0,0,0,0,-1,524,477,0,0
-693,547,0,0,0,0,0,0,0,0,0,-1,531,477,0,0
-686,547,0,0,0,0,0,0,0,0,0,-1,538,477,0,0
-679,547,0,0,0,0,0,0,0,0,0,-1,545,477,0,0
-672,547,0,0,0,0,0,0,0,0,0,-1,552,477,0,0
-665,547,0,0,0,0,0,0,0,0,0,-1,559,477,0,0
-658,547,0,0,0,0,0,0,0,0,0,-1,566,477,0,0
-651,547,0,0,0,0,0,0,0,0,0,-1,573,477,0,0
-644,547,0,0,0,0,0,0,0,0,0,-1,580,477,0,0
-637,547,0,0,0,0,0,0,0,0,0,-1,587,477,0,0
-630,547,0,0,0,0,0,0,0,0,0,-1,594,477,0,0
-623,547,0,0,0,0,0,0,0,0,0,-1,601,477,0,0
-616,547,0,0,0,0,0,0,0,0,0,-1,608,477,0,0
-609,547,0,0,0,0,0,0,0,0,0,-1,615,477,0,0
-602,547,0,0,0,0,0,0,0,0,0,-1,622,477,0,0
-595,547,0,0,0,0,0,0,0,0,0,-1,629,477,0,0
-588,547,0,0,0,0,0,0,0,0,0,-1,636,477,0,0
-581,547,0,0,0,0,0,0,0,0,0,-1,643,477,0,0
-574,547,0,0,0,0,0,0,0,0,0,-1,650,477,0,0
-567,547,0,0,0,0,0,0,0,0,0,-1,657,477,0,0
-560,547,0,0,0,0,0,0,0,0,0,-1,664,477,0,0
-553,547,0,0,0,0,0,0,0,0,0,-1,671,477,0,0
-546,547,0,0,0,0,0,0,0,0,0,-1,678,477,0,0
-539,547,0,0,0,0,0,0,0,0,0,-1,685,477,0,0
-532,547,0,0,0,0,0,0,0,0,0,-1,692,477,0,0
-525,547,0,0,0,0,0,0,0,0,0,-1,699,477,0,0
-518,547,0,0,0,0,0,0,0,0,0,-1,706,477,0,0
-511,547,0,0,0,0,0,0,0,0,0,-1,713,477,0,0
-504,547,0,0,0,0,0,0,0,0,0,-1,720,477,0,0
-497,547,0,0,0,0,0,0,0,0,0,-1,727,477,0,0
-490,547,0,0,0,0,0,0,0,0,0,-1,734,477,0,0
-483,547,0,0,0,0,0,0,0,0,0,-1,741,477,0,0
-476,547,0,0,0,0,0,0,0,0,0,-1,748,477,0,0
-469,547,0,0,0,0,0,0,0,0,0,-1,755,477,0,0
-462,547,0,0,0,0,0,0,0,0,0,-1,762,477,0,0
-455,547,0,0,0,0,0,0,0,0,0,-1,769,477,0,0
-448,547,0,0,0,0,0,0,0,0,0,-1,776,477,0,0
-441,547,0,0,0,0,0,0,0,0,0,-1,783,477,0,0
-434,547,0,0,0,0,0,0,0,0,0,-1,790,477,0,0
-427,547,0,0,0,0,0,0,0,0,0,-1,797,477,0,0
-420,547,0,0,0,0,0,0,0,0,0,-1,804,477,0,0
-413,547,0,0,0,0,0,0,0,0,0,-1,811,477,0,0
-406,547,0.144592,-11.0292,0,0,0,0,0,0,0,-1,818,477,0.144583,11.0292
-399,547,0.775513,-10.0294,0,0,0,0,0,0,0,-1,825,477,0.775482,10.0295
-392,547,-1.52271,-4.41675,0,0,0,0,0,0,0,-1,832,477,-1.52273,4.41674
-385,547,-1.73743,-4.6431,0,0,0,0,0,0,0,-1,839,477,-1.73743,4.64308
-378,547,-0.279053,-27.0299,0,0,0,0,0,0,0,-1,846,477,-0.279051,27.0299
-371,547,-0.0546875,-27.381,0.0414769,0.0506956,0.0132322,0.0600984,0.0320742,0.952997,0.0347241,0.0425075,853,477,-0.0546824,27.381
-364,547,0.322937,-27.8274,0.0335024,0.0421035,0.00928128,0.0480322,0.0275738,1.00235,0.0278326,0.0418262,860,477,0.322909,27.8274
-357,547,0.858459,-28.2322,0.0262102,0.0342717,0.00598806,0.0374593,0.0230227,1.08163,0.0218157,0.0470609,867,477,0.858446,28.2322
-350,547,0.789917,-29.2677,0,0,0,0,0,0,0,-1,874,477,0.789888,29.2677
-343,547,0.70813,-30.2397,0.0137654,0.0217625,0.00104637,0.0218972,0.0136308,1.44282,0.0127682,0.0446801,881,477,0.70813,30.2397
-336,547,0.703735,-31.2245,0.00931165,0.0171465,-0.000629881,0.0171969,0.00926134,-1.49108,0.00993844,0.019225,888,477,0.703737,31.2245
-329,547,0.606018,-32.0186,0.00584807,0.0133618,-0.0016961,0.0137269,0.00548295,-1.35876,0.00797849,0.0113265,895,477,0.606019,32.0186
-322,547,0.550293,-32.8308,0.00325194,0.0102207,-0.00216476,0.0108384,0.00263423,-1.29284,0.00652717,0.0121239,902,477,0.550318,32.8308
-315,547,0.489075,-33.6671,0.000876609,0.00711606,-0.0028861,0.00824631,-0.000253639,-1.19754,0.00558401,0.0110277,909,477,0.489102,33.6671
-308,547,0.451294,-34.4395,-0.000728307,0.00514041,-0.00296098,0.00637473,-0.00196262,-1.17584,0.00503323,0.0118512,916,477,0.451291,34.4395
-301,547,0.420532,-35.2224,-0.00110363,0.00406239,-0.00247913,0.00505961,-0.00210085,-1.18836,0.00425011,0.0112447,923,477,0.420516,35.2224
-294,547,0.372559,-36.0069,-0.000652764,0.00309257,-0.0018383,0.00384407,-0.00140426,-1.18273,0.00313737,0.0099604,930,477,0.372588,36.0069
-287,547,0.307129,-36.7491,-0.000240441,0.00229564,-0.00124791,0.0028067,-0.000751502,-1.1821,0.00216555,0.0120227,937,477,0.307154,36.7491
-280,547,0.264038,-37.4965,9.77861e-05,0.00115337,-0.000781228,0.00156838,-0.000317228,-1.08248,0.00116581,0.0142835,944,477,0.264036,37.4965
-273,547,0.222656,-38.2482,0.000362477,-0.000143062,-0.000127161,0.00039266,-0.000173245,-0.233051,0.000334812,0.0131341,951,477,0.222628,38.2482
-266,547,0.180725,-38.9997,0.000664398,-0.00170907,0.000668219,0.000839595,-0.00188427,0.256413,0.00161072,0.0129661,958,477,0.180713,38.9997
-259,547,0.142334,-39.7057,0.000967636,-0.00340004,0.00164365,0.00151706,-0.00394947,0.322596,0.00325859,0.0118197,965,477,0.142324,39.7057
-252,547,0.158997,-40.4351,0.00138836,-0.0057161,0.00261239,0.00224555,-0.00657328,0.317053,0.00529197,0.0117825,972,477,0.159023,40.4351
-245,547,0.156555,-41.1643,0.00173964,-0.008015,0.00365424,0.00295672,-0.00923208,0.321505,0.00734151,0.0129745,979,477,0.156558,41.1643
-238,547,0.132446,-41.89,0.0021863,-0.0105409,0.00478561,0.00378496,-0.0121395,0.3224,0.00960651,0.00944494,986,477,0.132476,41.89
-231,547,0.0983276,-42.5968,0.00278041,-0.013501,0.00593162,0.00471221,-0.0154328,0.314845,0.0121673,0.00905579,993,477,0.0983106,42.5968
-224,547,0.0722046,-43.2432,0.0033097,-0.016406,0.00714277,0.00562544,-0.0187218,0.313515,0.0147191,0.0106604,1000,477,0.0721842,43.2432
-217,547,0.0770264,-43.8651,0.00400228,-0.0194157,0.00828803,0.00663875,-0.0220521,0.307983,0.0173432,0.0154655,1007,477,0.0770107,43.8651
-210,547,0.0848389,-44.4033,0.00485202,-0.0224957,0.0092756,0.00770121,-0.0253449,0.298022,0.0199651,0.0270025,1014,477,0.0848377,44.4033
-203,547,0.315002,-44.6945,0.00587744,-0.0253505,0.00997913,0.00879395,-0.0282671,0.284342,0.0223601,0.0401224,1021,477,0.315004,44.6944
-196,547,0.242554,-45.4524,0,0,0,0,0,0,0,-1,1028,477,0.242606,45.4524
-189,547,0.295654,-45.8759,0,0,0,0,0,0,0,-1,1035,477,0.295633,45.8759
-182,547,0.548828,-46.0582,0,0,0,0,0,0,0,-1,1042,477,0.548776,46.0582
-175,547,0.253174,-45.8817,0,0,0,0,0,0,0,-1,1049,477,0.253132,45.8817
-168,547,0.761719,-32.9387,0,0,0,0,0,0,0,-1,1056,477,0.761738,32.9387
-161,547,0.0430908,-34.6016,0,0,0,0,0,0,0,-1,1063,477,0.0431231,34.6016
-154,547,-0.284424,-31.1176,0,0,0,0,0,0,0,-1,1070,477,-0.284395,31.1176
-147,547,3.69434,-26.413,0,0,0,0,0,0,0,-1,1077,477,3.69437,26.413
-140,547,1.55676,-22.5229,0,0,0,0,0,0,0,-1,1084,477,1.5568,22.5229
-133,547,2.31665,-17.9421,0,0,0,0,0,0,0,-1,1091,477,2.31667,17.9421
-126,547,-1.15271,-30.6984,0,0,0,0,0,0,0,-1,1098,477,-1.15267,30.6984
-119,547,0.967651,-24.9351,0,0,0,0,0,0,0,-1,1105,477,0.967657,24.9351
-112,547,1.15674,-22.2276,0,0,0,0,0,0,0,-1,1112,477,1.15677,22.2276
-105,547,0.966797,-20.5777,0,0,0,0,0,0,0,-1,1119,477,0.966804,20.5777
-98,547,0.70166,-18.9755,0,0,0,0,0,0,0,-1,1126,477,0.701713,18.9755
-91,547,1.37805,-7.12024,0,0,0,0,0,0,0,-1,1133,477,1.37804,7.12025
-84,547,1.94202,-6.66241,0,0,0,0,0,0,0,-1,1140,477,1.94201,6.66241
-77,547,-2.28357,1.8588,0,0,0,0,0,0,0,-1,1147,477,-2.28356,-1.85879
-70,547,-3.70178,-0.874908,0,0,0,0,0,0,0,-1,1154,477,-3.70182,0.874918
-63,547,-5.12012,-3.60861,0,0,0,0,0,0,0,-1,1161,477,-5.12009,3.60862
-56,547,-6.01917,-6.2399,0,0,0,0,0,0,0,-1,1168,477,-6.01921,6.23991
-49,547,-6.729,-8.60349,0,0,0,0,0,0,0,-1,1175,477,-6.72899,8.60348
-42,547,-2.41736,-5.53012,0,0,0,0,0,0,0,-1,1182,477,-2.41734,5.53011
-35,547,-2.96838,-4.45734,0,0,0,0,0,0,0,-1,1189,477,-2.96839,4.45734
-28,547,-0.869141,-1.29901,0,0,0,0,0,0,0,-1,1196,477,-0.869135,1.29901
-21,547,-7.68262,-30.8089,0,0,0,0,0,0,0,-1,1203,477,-7.68256,30.8089
-14,547,12.377,-55.4496,0,0,0,0,0,0,0,-1,1210,477,12.377,55.4496
-7,547,4.08606,-54.6218,0,0,0,0,0,0,0,-1,1217,477,4.0861,54.6218
0,547,13.0702,-56.3131,0,0,0,0,0,0,0,-1,1224,477,13.0702,56.3131
7,547,8.28198,-56.8908,0,0,0,0,0,0,0,-1,1231,477,8.28199,56.8908
14,547,0,0,0,0,0,0,0,0,0,-1,1238,477,0,0
21,547,0,0,0,0,0,0,0,0,0,-1,1245,477,0,0
28,547,0,0,0,0,0,0,0,0,0,-1,1252,477,0,0
35,547,0,0,0,0,0,0,0,0,0,-1,1259,477,0,0
42,547,0,0,0,0,0,0,0,0,0,-1,1266,477,0,0
49,547,0,0,0,0,0,0,0,0,0,-1,1273,477,0,0
56,547,0,0,0,0,0,0,0,0,0,-1,1280,477,0,0
63,547,0,0,0,0,0,0,0,0,0,-1,1287,477,0,0
70,547,0,0,0,0,0,0,0,0,0,-1,1294,477,0,0
77,547,0,0,0,0,0,0,0,0,0,-1,1301,477,0,0
84,547,0,0,0,0,0,0,0,0,0,-1,1308,477,0,0
91,547,0,0,0,0,0,0,0,0,0,-1,1315,477,0,0
98,547,0,0,0,0,0,0,0,0,0,-1,1322,477,0,0
105,547,0.194458,-59.3774,0,0,0,0,0,0,0,-1,1329,477,0.19446,59.3774
112,547,0.352051,-59.424,0,0,0,0,0,0,0,-1,1336,477,0.352105,59.424
119,547,0.224121,-59.2823,0,0,0,0,0,0,0,-1,1343,477,0.224137,59.2824
126,547,-0.609375,-59.6636,0,0,0,0,0,0,0,-1,1350,477,-0.609328,59.6636
133,547,-1.1925,-59.7703,0,0,0,0,0,0,0,-1,1357,477,-1.19256,59.7703
140,547,-1.6875,-59.8236,0,0,0,0,0,0,0,-1,1364,477,-1.6875,59.8236
147,547,2.81067,-68.8452,0,0,0,0,0,0,0,-1,1371,477,2.81066,68.8451
154,547,2.70801,-69.8948,0,0,0,0,0,0,0,-1,1378,477,2.70798,69.8948
161,547,2.22986,-70.2653,0,0,0,0,0,0,0,-1,1385,477,2.22983,70.2653
168,547,0.68689,-68.7853,0,0,0,0,0,0,0,-1,1392,477,0.68688,68.7854
175,547,3.35034,-0.26532,0,0,0,0,0,0,0,-1,1399,477,3.3503,0.265306
182,547,4.26038,3.72672,0,0,0,0,0,0,0,-1,1406,477,4.26039,-3.7267
189,547,3.40454,1.28671,0,0,0,0,0,0,0,-1,1413,477,3.40457,-1.28673
196,547,3.53931,1.87793,0,0,0,0,0,0,0,-1,1420,477,3.53928,-1.87794
203,547,6.49414,-0.425842,0,0,0,0,0,0,0,-1,1427,477,6.4941,0.425844
210,547,4.82092,0.53595,0,0,0,0,0,0,0,-1,1434,477,4.82096,-0.535942
217,547,4.68579,0.480072,0,0,0,0,0,0,0,-1,1441,477,4.68577,-0.480069
224,547,4.55615,0.739807,0,0,0,0,0,0,0,-1,1448,477,4.55613,-0.73981
231,547,5.90869,-3.57721,0,0,0,0,0,0,0,-1,1455,477,5.90871,3.57722
238,547,5.50049,-3.15356,0,0,0,0,0,0,0,-1,1462,477,5.50045,3.15356
245,547,5.13708,-2.65213,0,0,0,0,0,0,0,-1,1469,477,5.13708,2.65212
252,547,3.73511,-0.645233,0,0,0,0,0,0,0,-1,1476,477,3.73515,0.645237
259,547,5.86816,-3.20816,0,0,0,0,0,0,0,-1,1483,477,5.86815,3.20816
266,547,5.40222,-2.45731,0,0,0,0,0,0,0,-1,1490,477,5.40221,2.45732
273,547,3.05737,0.495789,0,0,0,0,0,0,0,-1,1497,477,3.05742,-0.49578
280,547,2.0885,1.47797,0,0,0,0,0,0,0,-1,1504,477,2.08848,-1.47795
287,547,2.31177,-2.21716,0,0,0,0,0,0,0,-1,1511,477,2.31174,2.21717
294,547,2.4823,-3.03659,0,0,0,0,0,0,0,-1,1518,477,2.48229,3.0366
301,547,13.6584,-46.2795,0,0,0,0,0,0,0,-1,1525,477,13.6585,46.2796
308,547,14.2695,-44.3525,0,0,0,0,0,0,0,-1,1532,477,14.2695,44.3525
315,547,14.9343,-45.499,0,0,0,0,0,0,0,-1,1539,477,14.9343,45.499
322,547,14.3043,-44.7407,0,0,0,0,0,0,0,-1,1546,477,14.3043,44.7407
329,547,14.4003,-44.3969,0.00267072,-0.0266011,-0.0141814,0.00841428,-0.0323447,-0.384814,0.0248474,0.0478826,1553,477,14.4002,44.3969
336,547,14.5331,-44.0687,0.00265275,-0.0229881,-0.0126633,0.00785239,-0.0281877,-0.389617,0.021884,0.0363772,1560,477,14.5331,44.0687
343,547,14.6677,-43.5269,0,0,0,0,0,0,0,-1,1567,477,14.6677,43.5269
350,547,14.293,-42.8898,0.00258163,-0.0159182,-0.00890766,0.00617334,-0.0195099,-0.383275,0.0154803,0.0205901,1574,477,14.293,42.8898
357,547,14.2772,-42.1786,0.00250097,-0.0124251,-0.00706876,0.00531725,-0.0152414,-0.379136,0.0123219,0.014055,1581,477,14.2772,42.1786
364,547,14.2495,-41.4727,0.00224638,-0.00955562,-0.00532168,0.00429158,-0.0116008,-0.366912,0.00949345,0.0100669,1588,477,14.2496,41.4727
371,547,14.2318,-40.721,0.00220435,-0.0067385,-0.00357228,0.0034561,-0.00799026,-0.337039,0.00677919,0.00953852,1595,477,14.2318,40.721
378,547,14.2198,-39.9767,0.00191604,-0.00424917,-0.0022429,0.00264566,-0.00497879,-0.314505,0.00447015,0.0108195,1602,477,14.2199,39.9767
385,547,14.1918,-39.2391,0.00152659,-0.00189,-0.00100612,0.00180086,-0.00216427,-0.266132,0.00229247,0.0112416,1609,477,14.1918,39.2391
392,547,14.1366,-38.4783,0.00132579,-0.000254243,4.91378e-05,0.00132732,-0.000255769,0.0310592,0.000981308,0.01244,1616,477,14.1366,38.4783
399,547,14.0924,-37.6846,0.00138456,0.00105235,0.000692103,0.00193022,0.000506703,0.667625,0.00115555,0.0146807,1623,477,14.0924,37.6846
406,547,14.0754,-36.9203,0.00150398,0.00240661,0.00133032,0.00336009,0.000550502,0.948931,0.00208097,0.014739,1630,477,14.0754,36.9203
413,547,14.0709,-36.1989,0.00165609,0.00328177,0.00185499,0.0044942,0.000443657,0.991893,0.00285974,0.0144947,1637,477,14.071,36.1989
420,547,14.0479,-35.4393,0.0017549,0.00381688,0.00227528,0.00528386,0.000287929,0.998124,0.00343063,0.0162201,1644,477,14.0479,35.4393
427,547,14.0037,-34.6227,0.00177587,0.00412551,0.00263051,0.00583162,6.975e-05,0.995415,0.00386471,0.0153166,1651,477,14.0037,34.6227
434,547,13.9269,-33.8448,0.00182442,0.00433791,0.00300186,0.00633548,-0.000173147,0.983641,0.00428254,0.0109086,1658,477,13.9269,33.8448
441,547,13.8805,-33.0952,0.00169296,0.00447692,0.00334789,0.00671068,-0.000540799,0.982415,0.00466452,0.0112478,1665,477,13.8805,33.0952
448,547,13.8142,-32.2509,0.0013122,0.00436179,0.00360667,0.00675274,-0.00107875,0.985389,0.00490115,0.0116623,1672,477,13.8143,32.2509
455,547,13.7782,-31.4217,0.000797662,0.00413514,0.00383681,0.00665039,-0.00171759,0.990523,0.00510339,0.0117621,1679,477,13.7782,31.4217
462,547,13.7131,-30.6281,0.000416245,0.00395976,0.00419598,0.00674271,-0.00236671,0.985168,0.00545786,0.0118602,1686,477,13.7132,30.6281
469,547,13.5548,-29.8097,0.000104307,0.00372827,0.00451756,0.0067837,-0.00295112,0.976124,0.00576376,0.020895,1693,477,13.5548,29.8097
476,547,13.4758,-28.8304,-0.00017312,0.0033797,0.00489977,0.00681514,-0.00360856,0.959304,0.0061123,0.0368254,1700,477,13.4758,28.8304
483,547,13.5985,-28.039,0,0,0,0,0,0,0,-1,1707,477,13.5985,28.039
490,547,3.65271,-3.71707,0,0,0,0,0,0,0,-1,1714,477,3.65277,3.71708
497,547,2.55481,-3.81421,0,0,0,0,0,0,0,-1,1721,477,2.55476,3.8142
504,547,4.01953,-2.22714,0,0,0,0,0,0,0,-1,1728,477,4.0195,2.22713
511,547,5.2146,-6.9552,0,0,0,0,0,0,0,-1,1735,477,5.21464,6.95521
518,547,5.24243,-6.56122,0,0,0,0,0,0,0,-1,1742,477,5.24241,6.56121
525,547,5.89368,-5.49866,0,0,0,0,0,0,0,-1,1749,477,5.89372,5.49866
532,547,0,0,0,0,0,0,0,0,0,-1,1756,477,0,0
539,547,0,0,0,0,0,0,0,0,0,-1,1763,477,0,0
546,547,0,0,0,0,0,0,0,0,0,-1,1770,477,0,0
553,547,0,0,0,0,0,0,0,0,0,-1,1777,477,0,0
560,547,0,0,0,0,0,0,0,0,0,-1,1784,477,0,0
567,547,0,0,0,0,0,0,0,0,0,-1,1791,477,0,0
574,547,0,0,0,0,0,0,0,0,0,-1,1798,477,0,0
581,547,0,0,0,0,0,0,0,0,0,-1,1805,477,0,0
588,547,0,0,0,0,0,0,0,0,0,-1,1812,477,0,0
595,547,0,0,0,0,0,0,0,0,0,-1,1819,477,0,0
602,547,0,0,0,0,0,0,0,0,0,-1,1826,477,0,0
609,547,0,0,0,0,0,0,0,0,0,-1,1833,477,0,0
616,547,0,0,0,0,0,0,0,0,0,-1,1840,477,0,0
623,547,0,0,0,0,0,0,0,0,0,-1,1847,477,0,0
630,547,0,0,0,0,0,0,0,0,0,-1,1854,477,0,0
637,547,0,0,0,0,0,0,0,0,0,-1,1861,477,0,0
644,547,0,0,0,0,0,0,0,0,0,-1,1868,477,0,0
651,547,0,0,0,0,0,0,0,0,0,-1,1875,477,0,0
658,547,0,0,0,0,0,0,0,0,0,-1,1882,477,0,0
665,547,0,0,0,0,0,0,0,0,0,-1,1889,477,0,0
672,547,0,0,0,0,0,0,0,0,0,-1,1896,477,0,0
679,547,0,0,0,0,0,0,0,0,0,-1,1903,477,0,0
686,547,0,0,0,0,0,0,0,0,0,-1,1910,477,0,0
693,547,0,0,0,0,0,0,0,0,0,-1,1917,477,0,0
700,547,0,0,0,0,0,0,0,0,0,-1,1924,477,0,0
707,547,0,0,0,0,0,0,0,0,0,-1,1931,477,0,0
714,547,0,0,0,0,0,0,0,0,0,-1,1938,477,0,0
721,547,0,0,0,0,0,0,0,0,0,-1,1945,477,0,0
728,547,0,0,0,0,0,0,0,0,0,-1,1952,477,0,0
735,547,0,0,0,0,0,0,0,0,0,-1,1959,477,0,0
742,547,0,0,0,0,0,0,0,0,0,-1,1966,477,0,0
749,547,0,0,0,0,0,0,0,0,0,-1,1973,477,0,0
756,547,0,0,0,0,0,0,0,0,0,-1,1980,477,0,0
763,547,0,0,0,0,0,0,0,0,0,-1,1987,477,0,0
770,547,0,0,0,0,0,0,0,0,0,-1,1994,477,0,0
777,547,0,0,0,0,0,0,0,0,0,-1,2001,477,0,0
784,547,0,0,0,0,0,0,0,0,0,-1,2008,477,0,0
791,547,0,0,0,0,0,0,0,0,0,-1,2015,477,0,0
798,547,0,0,0,0,0,0,0,0,0,-1,2022,477,0,0
805,547,0,0,0,0,0,0,0,0,0,-1,2029,477,0,0
812,547,0,0,0,0,0,0,0,0,0,-1,2036,477,0,0
-700,540,0,0,0,0,0,0,0,0,0,-1,524,484,0,0
-693,540,0,0,0,0,0,0,0,0,0,-1,531,484,0,0
-686,540,0,0,0,0,0,0,0,0,0,-1,538,484,0,0
-679,540,0,0,0,0,0,0,0,0,0,-1,545,484,0,0
-672,540,0,0,0,0,0,0,0,0,0,-1,552,484,0,0
-665,540,0,0,0,0,0,0,0,0,0,-1,559,484,0,0
-658,540,0,0,0,0,0,0,0,0,0,-1,566,484,0,0
-651,540,0,0,0,0,0,0,0,0,0,-1,573,484,0,0
-644,540,0,0,0,0,0,0,0,0,0,-1,580,484,0,0
-637,540,0,0,0,0,0,0,0,0,0,-1,587,484,0,0
-630,540,0,0,0,0,0,0,0,0,0,-1,594,484,0,0
-623,540,0,0,0,0,0,0,0,0,0,-1,601,484,0,0
-616,540,0,0,0,0,0,0,0,0,0,-1,608,484,0,0
-609,540,0,0,0,0,0,0,0,0,0,-1,615,484,0,0
-602,540,0,0,0,0,0,0,0,0,0,-1,622,484,0,0
-595,540,0,0,0,0,0,0,0,0,0,-1,629,484,0,0
-588,540,0,0,0,0,0,0,0,0,0,-1,636,484,0,0
-581,540,0,0,0,0,0,0,0,0,0,-1,643,484,0,0
-574,540,0,0,0,0,0,0,0,0,0,-1,650,484,0,0
-567,540,0,0,0,0,0,0,0,0,0,-1,657,484,0,0
-560,540,0,0,0,0,0,0,0,0,0,-1,664,484,0,0
-553,540,0,0,0,0,0,0,0,0,0,-1,671,484,0,0
-546,540,0,0,0,0,0,0,0,0,0,-1,678,484,0,0
-539,540,0,0,0,0,0,0,0,0,0,-1,685,484,0,0
-532,540,0,0,0,0,0,0,0,0,0,-1,692,484,0,0
-525,540,0,0,0,0,0,0,0,0,0,-1,699,484,0,0
-518,540,0,0,0,0,0,0,0,0,0,-1,706,484,0,0
-511,540,0,0,0,0,0,0,0,0,0,-1,713,484,0,0
-504,540,0,0,0,0,0,0,0,0,0,-1,720,484,0,0
-497,540,0,0,0,0,0,0,0,0,0,-1,727,484,0,0
-490,540,0,0,0,0,0,0,0,0,0,-1,734,484,0,0
-483,540,0,0,0,0,0,0,0,0,0,-1,741,484,0,0
-476,540,0,0,0,0,0,0,0,0,0,-1,748,484,0,0
-469,540,0,0,0,0,0,0,0,0,0,-1,755,484,0,0
-462,540,0,0,0,0,0,0,0,0,0,-1,762,484,0,0
-455,540,0,0,0,0,0,0,0,0,0,-1,769,484,0,0
-448,540,0,0,0,0,0,0,0,0,0,-1,776,484,0,0
-441,540,0,0,0,0,0,0,0,0,0,-1,783,484,0,0
-434,540,0,0,0,0,0,0,0,0,0,-1,790,484,0,0
-427,540,0,0,0,0,0,0,0,0,0,-1,797,484,0,0
-420,540,0.227051,-10.0402,0,0,0,0,0,0,0,-1,804,484,0.227063,10.0402
-413,540,-0.0393677,-10.3862,0,0,0,0,0,0,0,-1,811,484,-0.0393683,10.3862
-406,540,-0.518372,-11.5288,0,0,0,0,0,0,0,-1,818,484,-0.518402,11.5288
-399,540,0.0863037,-11.3801,0,0,0,0,0,0,0,-1,825,484,0.0863201,11.3801
-392,540,-0.517395,-10.6735,0,0,0,0,0,0,0,-1,832,484,-0.517377,10.6735
-385,540,-2.29407,-5.03418,0,0,0,0,0,0,0,-1,839,484,-2.29408,5.03418
-378,540,-1.60217,-27.8152,0,0,0,0,0,0,0,-1,846,484,-1.60218,27.8153
-371,540,-1.50287,-27.8064,0,0,0,0,0,0,0,-1,853,484,-1.50288,27.8064
-364,540,0.269043,-27.1552,0,0,0,0,0,0,0,-1,860,484,0.269025,27.1552
-357,540,0.154968,-28.1854,0.0204176,0.0283226,0.00147462,0.0285888,0.0201515,1.39225,0.0169613,0.0464126,867,484,0.154991,28.1854
-350,540,0.0371704,-29.178,0.0152614,0.0226885,6.96365e-05,0.0226891,0.0152608,1.56142,0.0133572,0.035171,874,484,0.0371763,29.178
-343,540,-0.0562134,-30.2946,0.0109168,0.0178421,-0.000963072,0.0179735,0.0107854,-1.43516,0.0104461,0.0190871,881,484,-0.0562062,30.2946
-336,540,-0.126038,-31.2623,0.00744448,0.0138519,-0.00169911,0.0142746,0.0070218,-1.32698,0.0082418,0.0132394,888,484,-0.126025,31.2623
-329,540,-0.187317,-32.0193,0.00474307,0.0105756,-0.00207497,0.0112385,0.00408022,-1.26159,0.00656916,0.0104757,895,484,-0.187314,32.0193
-322,540,-0.237549,-32.8089,0.0026958,0.00778667,-0.0020503,0.00850972,0.00197275,-1.23176,0.00514326,0.0151071,902,484,-0.237546,32.8089
-315,540,-0.269409,-33.6338,0.000907392,0.00518887,-0.00224308,0.00614881,-5.25406e-05,-1.16643,0.00411683,0.0131968,909,484,-0.26938,33.6338
-308,540,-0.270996,-34.3981,-0.000233825,0.00352658,-0.00204325,0.00442307,-0.00113032,-1.15733,0.00338891,0.0121196,916,484,-0.271021,34.3981
-301,540,-0.347351,-35.1258,-0.000441851,0.00253109,-0.00152653,0.00317533,-0.00108609,-1.17145,0.00255699,0.0126796,923,484,-0.347378,35.1258
-294,540,-0.400452,-35.8999,-9.34084e-06,0.00167164,-0.000914143,0.00207296,-0.000410657,-1.15712,0.00153725,0.0119197,930,484,-0.400437,35.8999
-287,540,-0.41687,-36.6953,0.000413412,0.00087727,-0.000338974,0.00105607,0.000234616,-1.08542,0.000640329,0.00899171,937,484,-0.41684,36.6952
-280,540,-0.468384,-37.442,0.000679395,-0.00046409,0.000149937,0.000698729,-0.000483423,0.128235,0.000686278,0.0102723,944,484,-0.468403,37.442
-273,540,-0.502319,-38.2036,0.000886577,-0.00192679,0.000883427,0.00114098,-0.00218119,0.280384,0.00194914,0.0121441,951,484,-0.502292,38.2036
-266,540,-0.520081,-38.9725,0.00117691,-0.00366777,0.00177233,0.00175605,-0.00424691,0.31583,0.00356388,0.0128855,958,484,-0.520083,38.9725
-259,540,-0.561401,-39.7191,0.00144783,-0.00546112,0.00287904,0.00249028,-0.00650356,0.347396,0.00536215,0.0122527,965,484,-0.561409,39.7191
-252,540,-0.561279,-40.3849,0.00185116,-0.00804442,0.00397334,0.00324908,-0.00944234,0.3383,0.00761266,0.0127476,972,484,-0.561273,40.3849
-245,540,-0.56073,-41.0808,0.00211598,-0.0106646,0.00518822,0.00395694,-0.0125056,0.340975,0.0099226,0.0130915,979,484,-0.560719,41.0808
-238,540,-0.613098,-41.7974,0.00247088,-0.0135636,0.00651163,0.00478211,-0.0158748,0.341069,0.0124863,0.01009,986,484,-0.61308,41.7974
-231,540,-0.635071,-42.4777,0.00303601,-0.0169636,0.00788835,0.00577284,-0.0197004,0.333952,0.0154224,0.0130572,993,484,-0.635096,42.4777
-224,540,-0.663025,-43.1121,0.00355393,-0.0203897,0.00938393,0.00679338,-0.0236292,0.332403,0.0184392,0.0186237,1000,484,-0.663009,43.1121
-217,540,-0.703918,-43.5705,0.00428445,-0.0239386,0.0108226,0.00795676,-0.0276109,0.327126,0.0215548,0.0296646,1007,484,-0.70392,43.5705
-210,540,-0.717468,-44.08,0.00521678,-0.027604,0.0120968,0.00919351,-0.0315807,0.317612,0.0246955,0.0421859,1014,484,-0.717462,44.08
-203,540,-0.77124,-44.5791,0,0,0,0,0,0,0,-1,1021,484,-0.771246,44.5791
-196,540,0.010498,-44.6584,0,0,0,0,0,0,0,-1,1028,484,0.0105067,44.6584
-189,540,-0.92334,-43.4509,0,0,0,0,0,0,0,-1,1035,484,-0.923387,43.4509
-182,540,-0.826782,-43.3494,0,0,0,0,0,0,0,-1,1042,484,-0.826777,43.3494
-175,540,1.73413,-10.728,0,0,0,0,0,0,0,-1,1049,484,1.73414,10.728
-168,540,1.18164,-7.65347,0,0,0,0,0,0,0,-1,1056,484,1.18163,7.65347
-161,540,-0.405884,-9.86481,0,0,0,0,0,0,0,-1,1063,484,-0.405886,9.8648
-154,540,1.96863,-22.0727,0,0,0,0,0,0,0,-1,1070,484,1.96859,22.0727
-147,540,1.32764,-21.9952,0,0,0,0,0,0,0,-1,1077,484,1.32762,21.9952
-140,540,1.40735,-15.6289,0,0,0,0,0,0,0,-1,1084,484,1.4073,15.6289
-133,540,2.28345,-17.6413,0,0,0,0,0,0,0,-1,1091,484,2.2835,17.6413
-126,540,1.25293,-23.9108,0,0,0,0,0,0,0,-1,1098,484,1.25288,23.9108
-119,540,1.55969,-23.0125,0,0,0,0,0,0,0,-1,1105,484,1.55968,23.0125
-112,540,1.4801,-21.6515,0,0,0,0,0,0,0,-1,1112,484,1.4801,21.6515
-105,540,1.30078,-19.8938,0,0,0,0,0,0,0,-1,1119,484,1.30077,19.8938
-98,540,1.08105,-18.1304,0,0,0,0,0,0,0,-1,1126,484,1.08101,18.1304
-91,540,1.56519,-7.48666,0,0,0,0,0,0,0,-1,1133,484,1.56514,7.48667
-84,540,-0.945923,4.43073,0,0,0,0,0,0,0,-1,1140,484,-0.945891,-4.43074
-77,540,-2.28894,2.14368,0,0,0,0,0,0,0,-1,1147,484,-2.28894,-2.14368
-70,540,-3.75244,-0.452576,0,0,0,0,0,0,0,-1,1154,484,-3.75244,0.452576
-63,540,-5.26257,-3.04767,0,0,0,0,0,0,0,-1,1161,484,-5.26262,3.04766
-56,540,-5.19055,-6.12595,0,0,0,0,0,0,0,-1,1168,484,-5.19057,6.12595
-49,540,-5.63867,-8.52298,0,0,0,0,0,0,0,-1,1175,484,-5.63871,8.52298
-42,540,0,0,0,0,0,0,0,0,0,-1,1182,484,0,0
-35,540,0,0,0,0,0,0,0,0,0,-1,1189,484,0,0
-28,540,0,0,0,0,0,0,0,0,0,-1,1196,484,0,0
-21,540,0,0,0,0,0,0,0,0,0,-1,1203,484,0,0
-14,540,0,0,0,0,0,0,0,0,0,-1,1210,484,0,0
-7,540,0,0,0,0,0,0,0,0,0,-1,1217,484,0,0
0,540,0,0,0,0,0,0,0,0,0,-1,1224,484,0,0
7,540,0,0,0,0,0,0,0,0,0,-1,1231,484,0,0
14,540,0,0,0,0,0,0,0,0,0,-1,1238,484,0,0
21,540,0,0,0,0,0,0,0,0,0,-1,1245,484,0,0
28,540,0,0,0,0,0,0,0,0,0,-1,1252,484,0,0
35,540,0,0,0,0,0,0,0,0,0,-1,1259,484,0,0
42,540,0,0,0,0,0,0,0,0,0,-1,1266,484,0,0
49,540,0,0,0,0,0,0,0,0,0,-1,1273,484,0,0
56,540,0,0,0,0,0,0,0,0,0,-1,1280,484,0,0
63,540,0,0,0,0,0,0,0,0,0,-1,1287,484,0,0
70,540,0,0,0,0,0,0,0,0,0,-1,1294,484,0,0
77,540,0,0,0,0,0,0,0,0,0,-1,1301,484,0,0
84,540,0,0,0,0,0,0,0,0,0,-1,1308,484,0,0
91,540,0,0,0,0,0,0,0,0,0,-1,1315,484,0,0
98,540,0,0,0,0,0,0,0,0,0,-1,1322,484,0,0
105,540,0,0,0,0,0,0,0,0,0,-1,1329,484,0,0
112,540,0,0,0,0,0,0,0,0,0,-1,1336,484,0,0
119,540,0,0,0,0,0,0,0,0,0,-1,1343,484,0,0
126,540,0,0,0,0,0,0,0,0,0,-1,1350,484,0,0
133,540,0,0,0,0,0,0,0,0,0,-1,1357,484,0,0
140,540,0,0,0,0,0,0,0,0,0,-1,1364,484,0,0
147,540,0,0,0,0,0,0,0,0,0,-1,1371,484,0,0
154,540,0,0,0,0,0,0,0,0,0,-1,1378,484,0,0
161,540,0,0,0,0,0,0,0,0,0,-1,1385,484,0,0
168,540,3.05078,-0.0010376,0,0,0,0,0,0,0,-1,1392,484,3.05084,0.00102554
175,540,3.37708,0.617035,0,0,0,0,0,0,0,-1,1399,484,3.37707,-0.617046
182,540,3.32678,1.23267,0,0,0,0,0,0,0,-1,1406,484,3.32678,-1.23266
189,540,3.5813,2.15619,0,0,0,0,0,0,0,-1,1413,484,3.58129,-2.1562
196,540,1.84448,-0.801483,0,0,0,0,0,0,0,-1,1420,484,1.84446,0.80148
203,540,4.14648,0.702087,0,0,0,0,0,0,0,-1,1427,484,4.14645,-0.702089
210,540,4.50671,-0.56076,0,0,0,0,0,0,0,-1,1434,484,4.50667,0.560771
217,540,5.00452,-0.278717,0,0,0,0,0,0,0,-1,1441,484,5.00452,0.278709
224,540,6.44458,-2.83527,0,0,0,0,0,0,0,-1,1448,484,6.44457,2.83525
231,540,6.9231,-3.10504,0,0,0,0,0,0,0,-1,1455,484,6.92307,3.10505
238,540,6.4823,-2.58365,0,0,0,0,0,0,0,-1,1462,484,6.48225,2.58363
245,540,6.02087,-1.97916,0,0,0,0,0,0,0,-1,1469,484,6.02088,1.97915
252,540,6.50647,-3.56006,0,0,0,0,0,0,0,-1,1476,484,6.50649,3.56006
259,540,6.01941,-2.798,0,0,0,0,0,0,0,-1,1483,484,6.01941,2.79801
266,540,5.5332,-2.02853,0,0,0,0,0,0,0,-1,1490,484,5.53323,2.02855
273,540,5.06787,-1.28137,0,0,0,0,0,0,0,-1,1497,484,5.06786,1.28136
280,540,1.62903,-2.14609,0,0,0,0,0,0,0,-1,1504,484,1.62906,2.1461
287,540,1.97156,-2.45053,0,0,0,0,0,0,0,-1,1511,484,1.97159,2.45053
294,540,2.44165,-2.6185,0,0,0,0,0,0,0,-1,1518,484,2.44167,2.6185
301,540,4.36169,-2.54272,0,0,0,0,0,0,0,-1,1525,484,4.36165,2.54272
308,540,4.2019,-4.30469,0,0,0,0,0,0,0,-1,1532,484,4.20193,4.3047
315,540,4.45923,-5.32101,0,0,0,0,0,0,0,-1,1539,484,4.45923,5.32103
322,540,4.71655,-6.33737,0,0,0,0,0,0,0,-1,1546,484,4.71653,6.33736
329,540,15.3063,-44.123,0,0,0,0,0,0,0,-1,1553,484,15.3063,44.123
336,540,15.2548,-43.4717,0,0,0,0,0,0,0,-1,1560,484,15.2547,43.4717
343,540,15.0394,-42.9707,0,0,0,0,0,0,0,-1,1567,484,15.0394,42.9707
350,540,15.0399,-42.4738,0.00294962,-0.0204896,-0.011794,0.00785674,-0.0253967,-0.394281,0.0200694,0.0466182,1574,484,15.0399,42.4738
357,540,15.0421,-41.9357,0.00297589,-0.0159599,-0.00932832,0.00679929,-0.0197833,-0.388986,0.0159461,0.0358149,1581,484,15.0421,41.9357
364,540,14.9651,-41.3337,0.00274417,-0.0123376,-0.00711083,0.00556807,-0.0151615,-0.378028,0.0123881,0.0229495,1588,484,14.9651,41.3337
371,540,14.9408,-40.6707,0.00274142,-0.00887445,-0.00498213,0.00458553,-0.0107186,-0.354506,0.00906924,0.0180984,1595,484,14.9408,40.6706
378,540,14.9738,-39.928,0.00234739,-0.00589973,-0.00338187,0.00355682,-0.00710916,-0.343449,0.00627082,0.0147969,1602,484,14.9737,39.928
385,540,14.9359,-39.1993,0.00177158,-0.00327886,-0.00192774,0.0024233,-0.00393057,-0.326009,0.00370265,0.0148715,1609,484,14.9359,39.1993
392,540,14.8583,-38.4513,0.0013728,-0.00158741,-0.000804171,0.00157715,-0.00179176,-0.248851,0.00194636,0.013499,1616,484,14.8582,38.4513
399,540,14.8184,-37.6896,0.00130041,-0.000314993,-0.000251588,0.00133869,-0.000353269,-0.15098,0.0010306,0.0176768,1623,484,14.8183,37.6896
406,540,14.8372,-36.9208,0.0013259,0.00104622,0.000393341,0.00160352,0.000768599,0.614602,0.000926056,0.0185061,1630,484,14.8371,36.9208
413,540,14.8271,-36.1618,0.00141973,0.00191435,0.000935885,0.00263505,0.000699028,0.914572,0.00157623,0.0157855,1637,484,14.8272,36.1618
420,540,14.8053,-35.3702,0.00147766,0.00248038,0.00134834,0.00341755,0.00054049,0.963395,0.00212128,0.0143972,1644,484,14.8053,35.3703
427,540,14.7465,-34.5915,0.00146088,0.00284262,0.00170061,0.00398734,0.000316169,0.978339,0.00255935,0.0145974,1651,484,14.7465,34.5915
434,540,14.7023,-33.8163,0.00145705,0.00310818,0.00208264,0.00452291,4.23142e-05,0.974099,0.00300127,0.0179492,1658,484,14.7022,33.8163
441,540,14.709,-32.9943,0.00135081,0.00336667,0.00246552,0.00502233,-0.000304848,0.979437,0.00345432,0.0212343,1665,484,14.7089,32.9942
448,540,14.6184,-32.2023,0.0010477,0.00340755,0.00277334,0.00524153,-0.000786282,0.986525,0.00378378,0.0124879,1672,484,14.6184,32.2022
455,540,14.5688,-31.3821,0.000667581,0.00334796,0.00306353,0.00535162,-0.00133608,0.991589,0.00408657,0.0108841,1679,484,14.5688,31.3822
462,540,14.5022,-30.5905,0.000507859,0.00331939,0.00350546,0.00569045,-0.0018632,0.976092,0.00454387,0.0110987,1686,484,14.5022,30.5905
469,540,14.4244,-29.766,0.000488292,0.00328721,0.00392991,0.0060594,-0.0022839,0.956449,0.0049787,0.0155385,1693,484,14.4244,29.766
476,540,14.366,-28.9564,0.000514832,0.00319365,0.00441284,0.00646588,-0.0027574,0.932742,0.00546666,0.0228371,1700,484,14.366,28.9564
483,540,14.4324,-28.0556,0.000675632,0.003133,0.00503893,0.00709089,-0.00328225,0.904984,0.00612202,0.0399824,1707,484,14.4324,28.0556
490,540,14.649,-27.0353,0,0,0,0,0,0,0,-1,1714,484,14.6491,27.0353
497,540,10.3452,-16.9359,0,0,0,0,0,0,0,-1,1721,484,10.3453,16.9359
504,540,12.519,-18.0764,0,0,0,0,0,0,0,-1,1728,484,12.519,18.0765
511,540,5.82471,-6.83521,0,0,0,0,0,0,0,-1,1735,484,5.82465,6.83522
518,540,9.98181,-12.4608,0,0,0,0,0,0,0,-1,1742,484,9.98187,12.4608
525,540,12.4843,-16.3481,0,0,0,0,0,0,0,-1,1749,484,12.4842,16.3481
532,540,2.84265,-1.07925,0,0,0,0,0,0,0,-1,1756,484,2.84269,1.07927
539,540,0,0,0,0,0,0,0,0,0,-1,1763,484,0,0
546,540,0,0,0,0,0,0,0,0,0,-1,1770,484,0,0
553,540,0,0,0,0,0,0,0,0,0,-1,1777,484,0,0
560,540,0,0,0,0,0,0,0,0,0,-1,1784,484,0,0
567,540,0,0,0,0,0,0,0,0,0,-1,1791,484,0,0
574,540,0,0,0,0,0,0,0,0,0,-1,1798,484,0,0
581,540,0,0,0,0,0,0,0,0,0,-1,1805,484,0,0
588,540,0,0,0,0,0,0,0,0,0,-1,1812,484,0,0
595,540,0,0,0,0,0,0,0,0,0,-1,1819,484,0,0
602,540,0,0,0,0,0,0,0,0,0,-1,1826,484,0,0
609,540,0,0,0,0,0,0,0,0,0,-1,1833,484,0,0
616,540,0,0,0,0,0,0,0,0,0,-1,1840,484,0,0
623,540,0,0,0,0,0,0,0,0,0,-1,1847,484,0,0
630,540,0,0,0,0,0,0,0,0,0,-1,1854,484,0,0
637,540,0,0,0,0,0,0,0,0,0,-1,1861,484,0,0
644,540,0,0,0,0,0,0,0,0,0,-1,1868,484,0,0
651,540,0,0,0,0,0,0,0,0,0,-1,1875,484,0,0
658,540,0,0,0,0,0,0,0,0,0,-1,1882,484,0,0
665,540,0,0,0,0,0,0,0,0,0,-1,1889,484,0,0
672,540,0,0,0,0,0,0,0,0,0,-1,1896,484,0,0
679,540,0,0,0,0,0,0,0,0,0,-1,1903,484,0,0
686,540,0,0,0,0,0,0,0,0,0,-1,1910,484,0,0
693,540,0,0,0,0,0,0,0,0,0,-1,1917,484,0,0
700,540,0,0,0,0,0,0,0,0,0,-1,1924,484,0,0
707,540,0,0,0,0,0,0,0,0,0,-1,1931,484,0,0
714,540,0,0,0,0,0,0,0,0,0,-1,1938,484,0,0
721,540,0,0,0,0,0,0,0,0,0,-1,1945,484,0,0
728,540,0,0,0,0,0,0,0,0,0,-1,1952,484,0,0
735,540,0,0,0,0,0,0,0,0,0,-1,1959,484,0,0
742,540,0,0,0,0,0,0,0,0,0,-1,1966,484,0,0
749,540,0,0,0,0,0,0,0,0,0,-1,1973,484,0,0
756,540,0,0,0,0,0,0,0,0,0,-1,1980,484,0,0
763,540,0,0,0,0,0,0,0,0,0,-1,1987,484,0,0
770,540,0,0,0,0,0,0,0,0,0,-1,1994,484,0,0
777,540,0,0,0,0,0,0,0,0,0,-1,2001,484,0,0
784,540,0,0,0,0,0,0,0,0,0,-1,2008,484,0,0
791,540,0,0,0,0,0,0,0,0,0,-1,2015,484,0,0
798,540,0,0,0,0,0,0,0,0,0,-1,2022,484,0,0
805,540,0,0,0,0,0,0,0,0,0,-1,2029,484,0,0
812,540,0,0,0,0,0,0,0,0,0,-1,2036,484,0,0
-700,533,0,0,0,0,0,0,0,0,0,-1,524,491,0,0
-693,533,0,0,0,0,0,0,0,0,0,-1,531,491,0,0
-686,533,0,0,0,0,0,0,0,0,0,-1,538,491,0,0
-679,533,0,0,0,0,0,0,0,0,0,-1,545,491,0,0
-672,533,0,0,0,0,0,0,0,0,0,-1,552,491,0,0
-665,533,0,0,0,0,0,0,0,0,0,-1,559,491,0,0
-658,533,0,0,0,0,0,0,0,0,0,-1,566,491,0,0
-651,533,0,0,0,0,0,0,0,0,0,-1,573,491,0,0
-644,533,0,0,0,0,0,0,0,0,0,-1,580,491,0,0
-637,533,0,0,0,0,0,0,0,0,0,-1,587,491,0,0
-630,533,0,0,0,0,0,0,0,0,0,-1,594,491,0,0
-623,533,0,0,0,0,0,0,0,0,0,-1,601,491,0,0
-616,533,0,0,0,0,0,0,0,0,0,-1,608,491,0,0
-609,533,0,0,0,0,0,0,0,0,0,-1,615,491,0,0
-602,533,0,0,0,0,0,0,0,0,0,-1,622,491,0,0
-595,533,0,0,0,0,0,0,0,0,0,-1,629,491,0,0
-588,533,0,0,0,0,0,0,0,0,0,-1,636,491,0,0
-581,533,0,0,0,0,0,0,0,0,0,-1,643,491,0,0
-574,533,0,0,0,0,0,0,0,0,0,-1,650,491,0,0
-567,533,0,0,0,0,0,0,0,0,0,-1,657,491,0,0
-560,533,0,0,0,0,0,0,0,0,0,-1,664,491,0,0
-553,533,0,0,0,0,0,0,0,0,0,-1,671,491,0,0
-546,533,0,0,0,0,0,0,0,0,0,-1,678,491,0,0
-539,533,0,0,0,0,0,0,0,0,0,-1,685,491,0,0
-532,533,0,0,0,0,0,0,0,0,0,-1,692,491,0,0
-525,533,0,0,0,0,0,0,0,0,0,-1,699,491,0,0
-518,533,0,0,0,0,0,0,0,0,0,-1,706,491,0,0
-511,533,0,0,0,0,0,0,0,0,0,-1,713,491,0,0
-504,533,0,0,0,0,0,0,0,0,0,-1,720,491,0,0
-497,533,0,0,0,0,0,0,0,0,0,-1,727,491,0,0
-490,533,0,0,0,0,0,0,0,0,0,-1,734,491,0,0
-483,533,0,0,0,0,0,0,0,0,0,-1,741,491,0,0
-476,533,0,0,0,0,0,0,0,0,0,-1,748,491,0,0
-469,533,0,0,0,0,0,0,0,0,0,-1,755,491,0,0
-462,533,0,0,0,0,0,0,0,0,0,-1,762,491,0,0
-455,533,0,0,0,0,0,0,0,0,0,-1,769,491,0,0
-448,533,0,0,0,0,0,0,0,0,0,-1,776,491,0,0
-441,533,0,0,0,0,0,0,0,0,0,-1,783,491,0,0
-434,533,0,0,0,0,0,0,0,0,0,-1,790,491,0,0
-427,533,0.559814,-4.40222,0,0,0,0,0,0,0,-1,797,491,0.559816,4.40222
-420,533,-1.11127,-10.9054,0,0,0,0,0,0,0,-1,804,491,-1.11124,10.9054
-413,533,-0.704773,-11.0942,0,0,0,0,0,0,0,-1,811,491,-0.704742,11.0942
-406,533,-0.670898,-12.0899,0,0,0,0,0,0,0,-1,818,491,-0.670908,12.0899
-399,533,-0.455017,-12.4423,0,0,0,0,0,0,0,-1,825,491,-0.455032,12.4423
-392,533,-1.89661,-10.3905,0,0,0,0,0,0,0,-1,832,491,-1.89661,10.3905
-385,533,0.797729,-17.0485,0,0,0,0,0,0,0,-1,839,491,0.797746,17.0485
-378,533,-1.89435,-19.6771,0,0,0,0,0,0,0,-1,846,491,-1.89433,19.6771
-371,533,-1.18445,-26.6313,0,0,0,0,0,0,0,-1,853,491,-1.18443,26.6313
-364,533,-0.929199,-27.5611,0.0196578,0.0278826,-0.000553945,0.0279197,0.0196207,-1.50385,0.0165553,0.0481762,860,491,-0.929207,27.5611
-357,533,-0.700562,-28.554,0.0155757,0.0228136,-0.00129388,0.023038,0.0153513,-1.39911,0.0135441,0.0265413,867,491,-0.700569,28.5539
-350,533,-0.73877,-29.4899,0.0117215,0.0182175,-0.00178226,0.0186744,0.0112646,-1.31987,0.010858,0.0142613,874,491,-0.738753,29.4899
-343,533,-0.805969,-30.3836,0.00844272,0.0141732,-0.00206383,0.0148391,0.00777681,-1.25869,0.00857067,0.0126608,881,491,-0.805945,30.3836
-336,533,-0.895874,-31.2206,0.00577491,0.0107864,-0.00218496,0.0116052,0.00495608,-1.21224,0.00672402,0.0158419,888,491,-0.895884,31.2206
-329,533,-0.9505,-31.9875,0.00371191,0.00799044,-0.00210599,0.00885311,0.00284924,-1.18202,0.00521839,0.014792,895,491,-0.950515,31.9875
-322,533,-0.991577,-32.7655,0.00213979,0.00554957,-0.00175559,0.00629187,0.00139749,-1.17077,0.00381504,0.0123636,902,491,-0.991603,32.7655
-315,533,-1.03033,-33.581,0.00087065,0.00342788,-0.0015651,0.00417026,0.000128273,-1.12789,0.00273842,0.0131493,909,491,-1.03031,33.581
-308,533,-1.06451,-34.3515,0.000171418,0.00207996,-0.00116912,0.00263482,-0.00038344,-1.12768,0.00189732,0.0122868,916,491,-1.06452,34.3515
-301,533,-1.1416,-35.088,0.000162152,0.00122159,-0.000647111,0.00152815,-0.000144402,-1.12839,0.00107015,0.0138884,923,491,-1.14163,35.088
-294,533,-1.16187,-35.846,0.00059715,0.000527203,-7.80986e-05,0.000647748,0.000476605,-0.574883,0.000387591,0.0133066,930,491,-1.16186,35.846
-287,533,-1.16791,-36.6324,0.00104188,-0.000231061,0.00046682,0.00119473,-0.000383904,0.316412,0.000950651,0.0100541,937,491,-1.16789,36.6325
-280,533,-1.20215,-37.4141,0.00123946,-0.00176917,0.000976524,0.00152862,-0.00205834,0.287888,0.00207844,0.0088149,944,491,-1.20217,37.4141
-273,533,-1.23651,-38.1682,0.00138771,-0.00341515,0.00178305,0.00197729,-0.00400473,0.31934,0.00351922,0.0119651,951,491,-1.2365,38.1682
-266,533,-1.26367,-38.9165,0.00166257,-0.00537526,0.00276958,0.00262175,-0.00633444,0.333399,0.00531689,0.0117564,958,491,-1.26367,38.9165
-259,533,-1.28485,-39.6631,0.00188988,-0.00731611,0.00402212,0.00339958,-0.0088258,0.359076,0.00728639,0.0126092,965,491,-1.28483,39.6631
-252,533,-1.29968,-40.3711,0.00225284,-0.0102538,0.00527687,0.00418178,-0.0121827,0.350457,0.00981726,0.0191798,972,491,-1.29968,40.3711
-245,533,-1.36859,-41.0544,0.00237253,-0.0133578,0.00672852,0.00485792,-0.0158431,0.353835,0.0125001,0.026624,979,491,-1.36861,41.0545
-238,533,-1.28748,-41.5908,0.00254841,-0.0168113,0.0083168,0.00563056,-0.0198935,0.354901,0.0154842,0.0267811,986,491,-1.28749,41.5908
-231,533,-1.28357,-42.0519,0.0030125,-0.0208222,0.0100267,0.00666945,-0.0244791,0.349728,0.0189382,0.0333891,993,491,-1.28357,42.052
-224,533,-1.60791,-42.7744,0.00347794,-0.0249356,0.0118961,0.00780089,-0.0292585,0.348554,0.0225601,0.0403062,1000,491,-1.60794,42.7743
-217,533,-1.49683,-43.3976,0.00420617,-0.0291683,0.0137458,0.00913865,-0.0341007,0.344523,0.0263144,0.0421736,1007,491,-1.4968,43.3976
-210,533,-1.56042,-44.0896,0.00517165,-0.0335107,0.0154325,0.010574,-0.0389131,0.336733,0.0300925,0.0486152,1014,491,-1.56044,44.0896
-203,533,-1.57587,-44.7463,0,0,0,0,0,0,0,-1,1021,491,-1.57584,44.7463
-196,533,0.688354,-19.5743,0,0,0,0,0,0,0,-1,1028,491,0.688406,19.5743
-189,533,-1.75317,-43.4744,0,0,0,0,0,0,0,-1,1035,491,-1.75312,43.4744
-182,533,1.26123,-11.4969,0,0,0,0,0,0,0,-1,1042,491,1.26128,11.4969
-175,533,0.937744,-7.36966,0,0,0,0,0,0,0,-1,1049,491,0.937769,7.36965
-168,533,2.64807,-2.7543,0,0,0,0,0,0,0,-1,1056,491,2.64812,2.7543
-161,533,1.91833,-1.76553,0,0,0,0,0,0,0,-1,1063,491,1.91836,1.76554
-154,533,0.376709,-11.0633,0,0,0,0,0,0,0,-1,1070,491,0.376715,11.0632
-147,533,0.383789,-12.1586,0,0,0,0,0,0,0,-1,1077,491,0.383829,12.1586
-140,533,1.14001,-15.4608,0,0,0,0,0,0,0,-1,1084,491,1.14005,15.4608
-133,533,0.189941,-16.0795,0,0,0,0,0,0,0,-1,1091,491,0.18994,16.0795
-126,533,2.89612,-2.59003,0,0,0,0,0,0,0,-1,1098,491,2.89608,2.59003
-119,533,1.78284,-22.5394,0,0,0,0,0,0,0,-1,1105,491,1.78279,22.5394
-112,533,1.83862,-21.2401,0,0,0,0,0,0,0,-1,1112,491,1.83859,21.24
-105,533,1.67554,-19.4018,0,0,0,0,0,0,0,-1,1119,491,1.6755,19.4018
-98,533,-1.39392,-5.16367,0,0,0,0,0,0,0,-1,1126,491,-1.39394,5.16367
-91,533,0.367432,4.49753,0,0,0,0,0,0,0,-1,1133,491,0.367468,-4.49754
-84,533,-0.88623,3.03604,0,0,0,0,0,0,0,-1,1140,491,-0.886288,-3.03605
-77,533,0,0,0,0,0,0,0,0,0,-1,1147,491,0,0
-70,533,0,0,0,0,0,0,0,0,0,-1,1154,491,0,0
-63,533,0,0,0,0,0,0,0,0,0,-1,1161,491,0,0
-56,533,0,0,0,0,0,0,0,0,0,-1,1168,491,0,0
-49,533,0,0,0,0,0,0,0,0,0,-1,1175,491,0,0
-42,533,0,0,0,0,0,0,0,0,0,-1,1182,491,0,0
-35,533,0,0,0,0,0,0,0,0,0,-1,1189,491,0,0
-28,533,0,0,0,0,0,0,0,0,0,-1,1196,491,0,0
-21,533,0,0,0,0,0,0,0,0,0,-1,1203,491,0,0
-14,533,0,0,0,0,0,0,0,0,0,-1,1210,491,0,0
-7,533,0,0,0,0,0,0,0,0,0,-1,1217,491,0,0
0,533,0,0,0,0,0,0,0,0,0,-1,1224,491,0,0
7,533,0,0,0,0,0,0,0,0,0,-1,1231,491,0,0
14,533,0,0,0,0,0,0,0,0,0,-1,1238,491,0,0
21,533,0,0,0,0,0,0,0,0,0,-1,1245,491,0,0
28,533,0,0,0,0,0,0,0,0,0,-1,1252,491,0,0
35,533,0,0,0,0,0,0,0,0,0,-1,1259,491,0,0
42,533,0,0,0,0,0,0,0,0,0,-1,1266,491,0,0
49,533,0,0,0,0,0,0,0,0,0,-1,1273,491,0,0
56,533,0,0,0,0,0,0,0,0,0,-1,1280,491,0,0
63,533,0,0,0,0,0,0,0,0,0,-1,1287,491,0,0
70,533,0,0,0,0,0,0,0,0,0,-1,1294,491,0,0
77,533,0,0,0,0,0,0,0,0,0,-1,1301,491,0,0
84,533,0,0,0,0,0,0,0,0,0,-1,1308,491,0,0
91,533,0,0,0,0,0,0,0,0,0,-1,1315,491,0,0
98,533,0,0,0,0,0,0,0,0,0,-1,1322,491,0,0
105,533,0,0,0,0,0,0,0,0,0,-1,1329,491,0,0
112,533,0,0,0,0,0,0,0,0,0,-1,1336,491,0,0
119,533,0,0,0,0,0,0,0,0,0,-1,1343,491,0,0
126,533,0,0,0,0,0,0,0,0,0,-1,1350,491,0,0
133,533,0,0,0,0,0,0,0,0,0,-1,1357,491,0,0
140,533,0,0,0,0,0,0,0,0,0,-1,1364,491,0,0
147,533,0,0,0,0,0,0,0,0,0,-1,1371,491,0,0
154,533,0,0,0,0,0,0,0,0,0,-1,1378,491,0,0
161,533,0,0,0,0,0,0,0,0,0,-1,1385,491,0,0
168,533,0,0,0,0,0,0,0,0,0,-1,1392,491,0,0
175,533,0,0,0,0,0,0,0,0,0,-1,1399,491,0,0
182,533,0,0,0,0,0,0,0,0,0,-1,1406,491,0,0
189,533,0,0,0,0,0,0,0,0,0,-1,1413,491,0,0
196,533,0,0,0,0,0,0,0,0,0,-1,1420,491,0,0
203,533,3.7887,1.16193,0,0,0,0,0,0,0,-1,1427,491,3.78872,-1.16193
210,533,5.09558,-0.216034,0,0,0,0,0,0,0,-1,1434,491,5.09559,0.216028
217,533,6.91614,-2.46814,0,0,0,0,0,0,0,-1,1441,491,6.91618,2.46814
224,533,7.23621,-2.1857,0,0,0,0,0,0,0,-1,1448,491,7.23621,2.1857
231,533,7.23474,-1.92282,0,0,0,0,0,0,0,-1,1455,491,7.2347,1.92282
238,533,7.23535,-1.67258,0,0,0,0,0,0,0,-1,1462,491,7.23539,1.67258
245,533,6.86682,-1.2301,0,0,0,0,0,0,0,-1,1469,491,6.86686,1.23011
252,533,6.63354,-3.07825,0,0,0,0,0,0,0,-1,1476,491,6.6335,3.07824
259,533,6.16431,-2.35037,0,0,0,0,0,0,0,-1,1483,491,6.1643,2.35037
266,533,5.68884,-1.6214,0,0,0,0,0,0,0,-1,1490,491,5.68885,1.6214
273,533,5.21399,-0.864227,0,0,0,0,0,0,0,-1,1497,491,5.21403,0.864227
280,533,1.41089,-1.97946,0,0,0,0,0,0,0,-1,1504,491,1.41087,1.97946
287,533,1.6814,-2.44443,0,0,0,0,0,0,0,-1,1511,491,1.6814,2.44444
294,533,2.2384,-2.57626,0,0,0,0,0,0,0,-1,1518,491,2.23839,2.57625
301,533,3.39941,-4.0817,0,0,0,0,0,0,0,-1,1525,491,3.3994,4.08171
308,533,4.13733,-4.14752,0,0,0,0,0,0,0,-1,1532,491,4.13727,4.14752
315,533,4.80762,-5.29349,0,0,0,0,0,0,0,-1,1539,491,4.80762,5.29347
322,533,5.47803,-6.43942,0,0,0,0,0,0,0,-1,1546,491,5.47798,6.43943
329,533,3.88477,-3.86301,0,0,0,0,0,0,0,-1,1553,491,3.88475,3.86299
336,533,14.5214,-40.908,0,0,0,0,0,0,0,-1,1560,491,14.5214,40.908
343,533,15.411,-42.4144,0,0,0,0,0,0,0,-1,1567,491,15.4111,42.4144
350,533,15.5919,-42.0099,0,0,0,0,0,0,0,-1,1574,491,15.5919,42.0099
357,533,15.7396,-41.7354,0,0,0,0,0,0,0,-1,1581,491,15.7396,41.7354
364,533,15.6187,-41.2582,0,0,0,0,0,0,0,-1,1588,491,15.6187,41.2582
371,533,15.6449,-40.6448,0,0,0,0,0,0,0,-1,1595,491,15.6449,40.6448
378,533,15.7297,-39.8594,0,0,0,0,0,0,0,-1,1602,491,15.7297,39.8593
385,533,15.7207,-39.1291,0.00213385,-0.00393735,-0.00257989,0.00308205,-0.00488556,-0.352212,0.00463922,0.0366265,1609,491,15.7207,39.1291
392,533,15.6416,-38.422,0.00154341,-0.00219952,-0.00139111,0.00200381,-0.00265991,-0.319609,0.00270147,0.0156155,1616,491,15.6415,38.422
399,533,15.6263,-37.6841,0.00135415,-0.000989833,-0.000943267,0.00168659,-0.00132227,-0.338843,0.00174141,0.0139587,1623,491,15.6263,37.6841
406,533,15.6298,-36.9075,0.00131253,0.000331569,-0.00030284,0.00139849,0.000245609,-0.276571,0.000862195,0.0161129,1630,491,15.6298,36.9075
413,533,15.5919,-36.0999,0.0013803,0.00113812,0.000238371,0.00152657,0.000991844,0.550384,0.000894442,0.0146148,1637,491,15.5919,36.0998
420,533,15.5394,-35.3148,0.00141822,0.00167147,0.000623639,0.00218121,0.000908481,0.885556,0.00126516,0.0142265,1644,491,15.5394,35.3148
427,533,15.4973,-34.5292,0.00137368,0.00201165,0.000956314,0.00270078,0.000684555,0.946375,0.00162125,0.0146935,1651,491,15.4973,34.5292
434,533,15.4563,-33.772,0.00132781,0.00226324,0.00131799,0.00319404,0.00039701,0.955903,0.00201014,0.0133556,1658,491,15.4563,33.772
441,533,15.4678,-32.9572,0.00124598,0.00254686,0.00170161,0.00371811,7.47347e-05,0.967954,0.00245421,0.0156207,1665,491,15.4678,32.9571
448,533,15.4174,-32.1563,0.00101104,0.00264887,0.00203204,0.00402079,-0.00036089,0.976944,0.00280857,0.0175202,1672,491,15.4174,32.1562
455,533,15.3453,-31.3513,0.000734134,0.00267235,0.00236037,0.00425481,-0.000848334,0.980192,0.00315754,0.0168941,1679,491,15.3453,31.3513
462,533,15.2848,-30.5318,0.000704695,0.00272165,0.00283352,0.0047208,-0.00129446,0.956363,0.00365589,0.0160548,1686,491,15.2848,30.5318
469,533,15.2411,-29.7425,0.000847006,0.00279383,0.00330048,0.00526145,-0.00162062,0.928798,0.00415458,0.0106371,1693,491,15.2411,29.7425
476,533,15.2198,-28.8954,0.00102383,0.00282536,0.00382273,0.00585202,-0.00200283,0.901105,0.00471301,0.0125249,1700,491,15.2199,28.8955
483,533,15.2352,-28.0038,0.00134864,0.00288322,0.0044766,0.00665782,-0.00242595,0.870273,0.00543091,0.0236773,1707,491,15.2352,28.0038
490,533,15.3342,-26.9465,0,0,0,0,0,0,0,-1,1714,491,15.3343,26.9465
497,533,15.2407,-26.2009,0,0,0,0,0,0,0,-1,1721,491,15.2408,26.2009
504,533,14.6896,-22.6455,0,0,0,0,0,0,0,-1,1728,491,14.6895,22.6455
511,533,13.6221,-19.2798,0,0,0,0,0,0,0,-1,1735,491,13.6221,19.2798
518,533,14.1954,-19.4995,0,0,0,0,0,0,0,-1,1742,491,14.1955,19.4995
525,533,13.7935,-19.6901,0,0,0,0,0,0,0,-1,1749,491,13.7934,19.6901
532,533,15.4377,-17.9016,0,0,0,0,0,0,0,-1,1756,491,15.4377,17.9015
539,533,12.8733,-18.2556,0,0,0,0,0,0,0,-1,1763,491,12.8733,18.2556
546,533,3.59607,1.65799,0,0,0,0,0,0,0,-1,1770,491,3.59605,-1.658
553,533,0,0,0,0,0,0,0,0,0,-1,1777,491,0,0
560,533,0,0,0,0,0,0,0,0,0,-1,1784,491,0,0
567,533,0,0,0,0,0,0,0,0,0,-1,1791,491,0,0
574,533,0,0,0,0,0,0,0,0,0,-1,1798,491,0,0
581,533,0,0,0,0,0,0,0,0,0,-1,1805,491,0,0
588,533,0,0,0,0,0,0,0,0,0,-1,1812,491,0,0
595,533,0,0,0,0,0,0,0,0,0,-1,1819,491,0,0
602,533,0,0,0,0,0,0,0,0,0,-1,1826,491,0,0
609,533,0,0,0,0,0,0,0,0,0,-1,1833,491,0,0
616,533,0,0,0,0,0,0,0,0,0,-1,1840,491,0,0
623,533,0,0,0,0,0,0,0,0,0,-1,1847,491,0,0
630,533,0,0,0,0,0,0,0,0,0,-1,1854,491,0,0
637,533,0,0,0,0,0,0,0,0,0,-1,1861,491,0,0
644,533,0,0,0,0,0,0,0,0,0,-1,1868,491,0,0
651,533,0,0,0,0,0,0,0,0,0,-1,1875,491,0,0
658,533,0,0,0,0,0,0,0,0,0,-1,1882,491,0,0
665,533,0,0,0,0,0,0,0,0,0,-1,1889,491,0,0
672,533,0,0,0,0,0,0,0,0,0,-1,1896,491,0,0
679,533,0,0,0,0,0,0,0,0,0,-1,1903,491,0,0
686,533,0,0,0,0,0,0,0,0,0,-1,1910,491,0,0
693,533,0,0,0,0,0,0,0,0,0,-1,1917,491,0,0
700,533,0,0,0,0,0,0,0,0,0,-1,1924,491,0,0
707,533,0,0,0,0,0,0,0,0,0,-1,1931,491,0,0
714,533,0,0,0,0,0,0,0,0,0,-1,1938,491,0,0
721,533,0,0,0,0,0,0,0,0,0,-1,1945,491,0,0
728,533,0,0,0,0,0,0,0,0,0,-1,1952,491,0,0
735,533,0,0,0,0,0,0,0,0,0,-1,1959,491,0,0
742,533,0,0,0,0,0,0,0,0,0,-1,1966,491,0,0
749,533,0,0,0,0,0,0,0,0,0,-1,1973,491,0,0
756,533,0,0,0,0,0,0,0,0,0,-1,1980,491,0,0
763,533,0,0,0,0,0,0,0,0,0,-1,1987,491,0,0
770,533,0,0,0,0,0,0,0,0,0,-1,1994,491,0,0
777,533,0,0,0,0,0,0,0,0,0,-1,2001,491,0,0
784,533,0,0,0,0,0,0,0,0,0,-1,2008,491,0,0
791,533,0,0,0,0,0,0,0,0,0,-1,2015,491,0,0
798,533,0,0,0,0,0,0,0,0,0,-1,2022,491,0,0
805,533,0,0,0,0,0,0,0,0,0,-1,2029,491,0,0
812,533,0,0,0,0,0,0,0,0,0,-1,2036,491,0,0
-700,526,0,0,0,0,0,0,0,0,0,-1,524,498,0,0
-693,526,0,0,0,0,0,0,0,0,0,-1,531,498,0,0
-686,526,0,0,0,0,0,0,0,0,0,-1,538,498,0,0
-679,526,0,0,0,0,0,0,0,0,0,-1,545,498,0,0
-672,526,0,0,0,0,0,0,0,0,0,-1,552,498,0,0
-665,526,0,0,0,0,0,0,0,0,0,-1,559,498,0,0
-658,526,0,0,0,0,0,0,0,0,0,-1,566,498,0,0
-651,526,0,0,0,0,0,0,0,0,0,-1,573,498,0,0
-644,526,0,0,0,0,0,0,0,0,0,-1,580,498,0,0
-637,526,0,0,0,0,0,0,0,0,0,-1,587,498,0,0
-630,526,0,0,0,0,0,0,0,0,0,-1,594,498,0,0
-623,526,0,0,0,0,0,0,0,0,0,-1,601,498,0,0
-616,526,0,0,0,0,0,0,0,0,0,-1,608,498,0,0
-609,526,0,0,0,0,0,0,0,0,0,-1,615,498,0,0
-602,526,0,0,0,0,0,0,0,0,0,-1,622,498,0,0
-595,526,0,0,0,0,0,0,0,0,0,-1,629,498,0,0
-588,526,0,0,0,0,0,0,0,0,0,-1,636,498,0,0
-581,526,0,0,0,0,0,0,0,0,0,-1,643,498,0,0
-574,526,0,0,0,0,0,0,0,0,0,-1,650,498,0,0
-567,526,0,0,0,0,0,0,0,0,0,-1,657,498,0,0
-560,526,0,0,0,0,0,0,0,0,0,-1,664,498,0,0
-553,526,0,0,0,0,0,0,0,0,0,-1,671,498,0,0
-546,526,0,0,0,0,0,0,0,0,0,-1,678,498,0,0
-539,526,0,0,0,0,0,0,0,0,0,-1,685,498,0,0
-532,526,0,0,0,0,0,0,0,0,0,-1,692,498,0,0
-525,526,0,0,0,0,0,0,0,0,0,-1,699,498,0,0
-518,526,0,0,0,0,0,0,0,0,0,-1,706,498,0,0
-511,526,0,0,0,0,0,0,0,0,0,-1,713,498,0,0
-504,526,0,0,0,0,0,0,0,0,0,-1,720,498,0,0
-497,526,0,0,0,0,0,0,0,0,0,-1,727,498,0,0
-490,526,0,0,0,0,0,0,0,0,0,-1,734,498,0,0
-483,526,0,0,0,0,0,0,0,0,0,-1,741,498,0,0
-476,526,0,0,0,0,0,0,0,0,0,-1,748,498,0,0
-469,526,0,0,0,0,0,0,0,0,0,-1,755,498,0,0
-462,526,0,0,0,0,0,0,0,0,0,-1,762,498,0,0
-455,526,0,0,0,0,0,0,0,0,0,-1,769,498,0,0
-448,526,0,0,0,0,0,0,0,0,0,-1,776,498,0,0
-441,526,0,0,0,0,0,0,0,0,0,-1,783,498,0,0
-434,526,-0.153564,-5.96649,0,0,0,0,0,0,0,-1,790,498,-0.153589,5.9665
-427,526,1.23206,-4.59808,0,0,0,0,0,0,0,-1,797,498,1.23208,4.59809
-420,526,-1.76373,-11.6241,0,0,0,0,0,0,0,-1,804,498,-1.76373,11.6241
-413,526,-1.38965,-11.7916,0,0,0,0,0,0,0,-1,811,498,-1.38963,11.7916
-406,526,-1.35187,-12.5182,0,0,0,0,0,0,0,-1,818,498,-1.35185,12.5181
-399,526,-1.32715,-13.2116,0,0,0,0,0,0,0,-1,825,498,-1.32713,13.2116
-392,526,0.197571,-15.303,0,0,0,0,0,0,0,-1,832,498,0.197598,15.303
-385,526,-2.69397,-19.6176,0,0,0,0,0,0,0,-1,839,498,-2.69399,19.6176
-378,526,-1.69098,-25.3306,0,0,0,0,0,0,0,-1,846,498,-1.69099,25.3306
-371,526,-1.65137,-26.5239,0.017397,0.0261922,-0.00250934,0.0268578,0.0167315,-1.31153,0.0156619,0.0448796,853,498,-1.65135,26.5238
-364,526,-1.55493,-27.7151,0.0143761,0.0218313,-0.00274962,0.0227357,0.0134717,-1.25302,0.0132012,0.0217308,860,498,-1.55491,27.7151
-357,526,-1.50214,-28.6476,0.0114749,0.0178148,-0.00279975,0.0188741,0.0104155,-1.20906,0.0109165,0.0135134,867,498,-1.50216,28.6477
-350,526,-1.52954,-29.4844,0.00869719,0.0141216,-0.0027128,0.0152455,0.00757333,-1.17804,0.00880204,0.0126059,874,498,-1.52955,29.4844
-343,526,-1.61194,-30.3479,0.00631217,0.0107942,-0.00252427,0.0119287,0.00517766,-1.14841,0.00690696,0.016539,881,498,-1.61192,30.3479
-336,526,-1.68066,-31.1621,0.00433476,0.00795501,-0.00225115,0.00903353,0.00325625,-1.12401,0.00528278,0.0166504,888,498,-1.68068,31.1621
-329,526,-1.73004,-31.9417,0.00280222,0.0056014,-0.00188195,0.00654714,0.00185648,-1.10512,0.00389626,0.0171965,895,498,-1.73006,31.9417
-322,526,-1.74139,-32.721,0.00164245,0.00352025,-0.00134191,0.00421911,0.000943591,-1.09065,0.00255692,0.0110503,902,498,-1.74141,32.721
-315,526,-1.79675,-33.5352,0.000830186,0.00185691,-0.000898258,0.00237815,0.000308942,-1.045,0.00149314,0.00963379,909,498,-1.79675,33.5352
-308,526,-1.85498,-34.3373,0.000545845,0.000829069,-0.000384005,0.00109674,0.000278172,-0.96205,0.000658328,0.00916842,916,498,-1.85501,34.3373
-301,526,-1.91821,-35.082,0.000749793,0.00015852,0.000115017,0.000771379,0.000136934,0.185516,0.00047523,0.0104852,923,498,-1.9182,35.082
-294,526,-1.91907,-35.8246,0.00119702,-0.000323125,0.000615626,0.00141506,-0.000541166,0.340392,0.00116639,0.0105805,930,498,-1.9191,35.8246
-287,526,-1.93231,-36.592,0.00166904,-0.00101253,0.00110846,0.00206791,-0.0014114,0.345413,0.00202066,0.0109509,937,498,-1.93231,36.592
-280,526,-1.97375,-37.3651,0.00180133,-0.00275481,0.00164267,0.00233181,-0.0032853,0.312367,0.00325858,0.0131383,944,498,-1.97377,37.3651
-273,526,-1.99481,-38.1256,0.00192735,-0.00461985,0.00250946,0.00277853,-0.00547104,0.327013,0.00484672,0.0106495,951,498,-1.99479,38.1256
-266,526,-2.0351,-38.854,0.00222662,-0.00687902,0.00360207,0.00347924,-0.00813164,0.334668,0.00688059,0.0170471,958,498,-2.03507,38.854
-259,526,-2.01013,-39.5967,0.00242515,-0.00902541,0.00503122,0.00432168,-0.0109219,0.360482,0.00907174,0.0455905,965,498,-2.01011,39.5967
-252,526,-2.03613,-40.3829,0,0,0,0,0,0,0,-1,972,498,-2.03611,40.3829
-245,526,-2.1001,-41.0754,0,0,0,0,0,0,0,-1,979,498,-2.10012,41.0754
-238,526,-1.9519,-41.4009,0,0,0,0,0,0,0,-1,986,498,-1.95188,41.4009
-231,526,-1.90161,-41.0024,0,0,0,0,0,0,0,-1,993,498,-1.90164,41.0024
-224,526,-2.52008,-42.4705,0,0,0,0,0,0,0,-1,1000,498,-2.5201,42.4704
-217,526,-2.25037,-43.3334,0,0,0,0,0,0,0,-1,1007,498,-2.25035,43.3334
-210,526,-2.38544,-44.0952,0,0,0,0,0,0,0,-1,1014,498,-2.38544,44.0952
-203,526,-0.659302,-18.8818,0,0,0,0,0,0,0,-1,1021,498,-0.659273,18.8818
-196,526,-0.328247,-12.179,0,0,0,0,0,0,0,-1,1028,498,-0.328238,12.179
-189,526,0.401245,-5.96826,0,0,0,0,0,0,0,-1,1035,498,0.401197,5.96826
-182,526,1.7323,-2.99405,0,0,0,0,0,0,0,-1,1042,498,1.73226,2.99404
-175,526,2.27637,-2.07983,0,0,0,0,0,0,0,-1,1049,498,2.27639,2.07984
-168,526,2.12036,-1.66049,0,0,0,0,0,0,0,-1,1056,498,2.12035,1.66048
-161,526,2.09082,-1.20572,0,0,0,0,0,0,0,-1,1063,498,2.09086,1.2057
-154,526,-1.3446,-5.37799,0,0,0,0,0,0,0,-1,1070,498,-1.34457,5.37799
-147,526,-0.472656,-6.64996,0,0,0,0,0,0,0,-1,1077,498,-0.472659,6.64997
-140,526,0.422852,-8.03339,0,0,0,0,0,0,0,-1,1084,498,0.422844,8.0334
-133,526,1.09583,-9.2215,0,0,0,0,0,0,0,-1,1091,498,1.09581,9.2215
-126,526,3.42529,-2.36053,0,0,0,0,0,0,0,-1,1098,498,3.42523,2.36052
-119,526,2.7771,-0.764099,0,0,0,0,0,0,0,-1,1105,498,2.7771,0.764107
-112,526,2.57715,-1.1893,0,0,0,0,0,0,0,-1,1112,498,2.57718,1.1893
-105,526,0,0,0,0,0,0,0,0,0,-1,1119,498,0,0
-98,526,0,0,0,0,0,0,0,0,0,-1,1126,498,0,0
-91,526,0,0,0,0,0,0,0,0,0,-1,1133,498,0,0
-84,526,0,0,0,0,0,0,0,0,0,-1,1140,498,0,0
-77,526,0,0,0,0,0,0,0,0,0,-1,1147,498,0,0
-70,526,0,0,0,0,0,0,0,0,0,-1,1154,498,0,0
-63,526,0,0,0,0,0,0,0,0,0,-1,1161,498,0,0
-56,526,0,0,0,0,0,0,0,0,0,-1,1168,498,0,0
-49,526,0,0,0,0,0,0,0,0,0,-1,1175,498,0,0
-42,526,0,0,0,0,0,0,0,0,0,-1,1182,498,0,0
-35,526,0,0,0,0,0,0,0,0,0,-1,1189,498,0,0
-28,526,0,0,0,0,0,0,0,0,0,-1,1196,498,0,0
-21,526,0,0,0,0,0,0,0,0,0,-1,1203,498,0,0
-14,526,0,0,0,0,0,0,0,0,0,-1,1210,498,0,0
-7,526,0,0,0,0,0,0,0,0,0,-1,1217,498,0,0
0,526,0,0,0,0,0,0,0,0,0,-1,1224,498,0,0
7,526,0,0,0,0,0,0,0,0,0,-1,1231,498,0,0
14,526,0,0,0,0,0,0,0,0,0,-1,1238,498,0,0
21,526,0,0,0,0,0,0,0,0,0,-1,1245,498,0,0
28,526,0,0,0,0,0,0,0,0,0,-1,1252,498,0,0
35,526,0,0,0,0,0,0,0,0,0,-1,1259,498,0,0
42,526,0,0,0,0,0,0,0,0,0,-1,1266,498,0,0
49,526,0,0,0,0,0,0,0,0,0,-1,1273,498,0,0
56,526,0,0,0,0,0,0,0,0,0,-1,1280,498,0,0
63,526,0,0,0,0,0,0,0,0,0,-1,1287,498,0,0
70,526,0,0,0,0,0,0,0,0,0,-1,1294,498,0,0
77,526,0,0,0,0,0,0,0,0,0,-1,1301,498,0,0
84,526,0,0,0,0,0,0,0,0,0,-1,1308,498,0,0
91,526,0,0,0,0,0,0,0,0,0,-1,1315,498,0,0
98,526,0,0,0,0,0,0,0,0,0,-1,1322,498,0,0
105,526,0,0,0,0,0,0,0,0,0,-1,1329,498,0,0
112,526,0,0,0,0,0,0,0,0,0,-1,1336,498,0,0
119,526,0,0,0,0,0,0,0,0,0,-1,1343,498,0,0
126,526,0,0,0,0,0,0,0,0,0,-1,1350,498,0,0
133,526,0,0,0,0,0,0,0,0,0,-1,1357,498,0,0
140,526,0,0,0,0,0,0,0,0,0,-1,1364,498,0,0
147,526,0,0,0,0,0,0,0,0,0,-1,1371,498,0,0
154,526,0,0,0,0,0,0,0,0,0,-1,1378,498,0,0
161,526,0,0,0,0,0,0,0,0,0,-1,1385,498,0,0
168,526,0,0,0,0,0,0,0,0,0,-1,1392,498,0,0
175,526,0,0,0,0,0,0,0,0,0,-1,1399,498,0,0
182,526,0,0,0,0,0,0,0,0,0,-1,1406,498,0,0
189,526,0,0,0,0,0,0,0,0,0,-1,1413,498,0,0
196,526,0,0,0,0,0,0,0,0,0,-1,1420,498,0,0
203,526,0,0,0,0,0,0,0,0,0,-1,1427,498,0,0
210,526,0,0,0,0,0,0,0,0,0,-1,1434,498,0,0
217,526,0,0,0,0,0,0,0,0,0,-1,1441,498,0,0
224,526,0,0,0,0,0,0,0,0,0,-1,1448,498,0,0
231,526,7.93237,-1.30618,0,0,0,0,0,0,0,-1,1455,498,7.93238,1.30618
238,526,7.97717,-1.08197,0,0,0,0,0,0,0,-1,1462,498,7.97723,1.08196
245,526,7.2793,-0.792938,0,0,0,0,0,0,0,-1,1469,498,7.27931,0.792926
252,526,6.73523,-2.23608,0,0,0,0,0,0,0,-1,1476,498,6.73525,2.23608
259,526,6.22949,-1.84967,0,0,0,0,0,0,0,-1,1483,498,6.22953,1.84968
266,526,5.72375,-1.46329,0,0,0,0,0,0,0,-1,1490,498,5.72381,1.46328
273,526,4.33984,0.49173,0,0,0,0,0,0,0,-1,1497,498,4.33979,-0.491727
280,526,1.4585,-1.59897,0,0,0,0,0,0,0,-1,1504,498,1.45846,1.59895
287,526,1.46411,-2.40134,0,0,0,0,0,0,0,-1,1511,498,1.46406,2.40133
294,526,5.57471,-4.59085,0,0,0,0,0,0,0,-1,1518,498,5.57466,4.59084
301,526,4.42786,-3.99677,0,0,0,0,0,0,0,-1,1525,498,4.42788,3.99676
308,526,5.79529,-4.19366,0,0,0,0,0,0,0,-1,1532,498,5.79528,4.19368
315,526,5.09851,-5.20068,0,0,0,0,0,0,0,-1,1539,498,5.09851,5.20068
322,526,5.50708,-4.72348,0,0,0,0,0,0,0,-1,1546,498,5.50713,4.72347
329,526,3.88672,-4.345,0,0,0,0,0,0,0,-1,1553,498,3.88674,4.34501
336,526,4.97876,-2.23828,0,0,0,0,0,0,0,-1,1560,498,4.97877,2.23828
343,526,3.31665,-2.69696,0,0,0,0,0,0,0,-1,1567,498,3.31667,2.69696
350,526,6.06287,-6.12015,0,0,0,0,0,0,0,-1,1574,498,6.06286,6.12014
357,526,12.9944,-29.1665,0,0,0,0,0,0,0,-1,1581,498,12.9943,29.1665
364,526,13.2582,-29.5416,0,0,0,0,0,0,0,-1,1588,498,13.2581,29.5416
371,526,12.4481,-29.0131,0,0,0,0,0,0,0,-1,1595,498,12.4481,29.0131
378,526,15.619,-39.1503,0,0,0,0,0,0,0,-1,1602,498,15.619,39.1503
385,526,16.4131,-39.2889,0,0,0,0,0,0,0,-1,1609,498,16.4131,39.289
392,526,16.4393,-38.4102,0,0,0,0,0,0,0,-1,1616,498,16.4393,38.4101
399,526,16.3904,-37.6553,0.00188351,-0.00105391,-0.00133754,0.00240128,-0.00157168,-0.369345,0.0023104,0.0245431,1623,498,16.3904,37.6553
406,526,16.4095,-36.8326,0.00177915,0.000196819,-0.000709265,0.00205053,-7.45591e-05,-0.365433,0.00139254,0.0137326,1630,498,16.4095,36.8327
413,526,16.3572,-36.0564,0.00177185,0.00086954,-0.000204961,0.00181622,0.000825165,-0.213214,0.00105005,0.0131863,1637,498,16.3571,36.0564
420,526,16.312,-35.2726,0.001701,0.00127201,0.000104456,0.00172508,0.00124793,0.226591,0.00102858,0.0142734,1644,498,16.312,35.2726
427,526,16.2816,-34.5011,0.00153113,0.00149266,0.000366553,0.00187895,0.00114483,0.759186,0.00109342,0.014872,1651,498,16.2817,34.5011
434,526,16.2268,-33.7392,0.001354,0.00164743,0.000656379,0.00217329,0.00082814,0.895352,0.00126653,0.0123878,1658,498,16.2268,33.7392
441,526,16.2017,-32.9229,0.00121819,0.00186309,0.000994394,0.00258601,0.000495272,0.942183,0.00158492,0.0115404,1665,498,16.2016,32.9229
448,526,16.1888,-32.1224,0.000987985,0.00195716,0.00131296,0.0028721,7.30455e-05,0.962184,0.00189086,0.0112478,1672,498,16.1888,32.1224
455,526,16.1396,-31.3364,0.000751961,0.00201785,0.00165002,0.00315216,-0.000382347,0.968542,0.00223979,0.0143595,1679,498,16.1396,31.3364
462,526,16.0911,-30.5122,0.000782256,0.00213469,0.00212723,0.0036906,-0.000773647,0.939291,0.00275473,0.011425,1686,498,16.091,30.5122
469,526,16.0544,-29.7154,0.00100623,0.00228571,0.00261317,0.00433631,-0.00104437,0.905444,0.00329464,0.00843641,1693,498,16.0544,29.7154
476,526,16.0181,-28.8796,0.00124995,0.00240266,0.00314817,0.0050268,-0.00137419,0.875933,0.00389101,0.00966371,1700,498,16.0181,28.8796
483,526,15.9882,-27.9786,0.00167402,0.00252811,0.003802,0.00592697,-0.00172484,0.841325,0.00463452,0.0141895,1707,498,15.9881,27.9786
490,526,16.0358,-27.0278,0.00218489,0.0024194,0.00448456,0.00678824,-0.00218394,0.798468,0.00540267,0.0374853,1714,498,16.0358,27.0278
497,526,16.1284,-26.1895,0,0,0,0,0,0,0,-1,1721,498,16.1284,26.1895
504,526,16.2577,-25.4863,0,0,0,0,0,0,0,-1,1728,498,16.2577,25.4863
511,526,16.425,-24.5056,0,0,0,0,0,0,0,-1,1735,498,16.425,24.5056
518,526,14.7889,-20.4046,0,0,0,0,0,0,0,-1,1742,498,14.7889,20.4046
525,526,14.7009,-19.7487,0,0,0,0,0,0,0,-1,1749,498,14.7009,19.7486
532,526,15.7457,-17.9624,0,0,0,0,0,0,0,-1,1756,498,15.7458,17.9624
539,526,16.1064,-16.42,0,0,0,0,0,0,0,-1,1763,498,16.1065,16.42
546,526,12.4675,-17.1617,0,0,0,0,0,0,0,-1,1770,498,12.4675,17.1617
553,526,3.40796,1.37137,0,0,0,0,0,0,0,-1,1777,498,3.40792,-1.37138
560,526,0,0,0,0,0,0,0,0,0,-1,1784,498,0,0
567,526,0,0,0,0,0,0,0,0,0,-1,1791,498,0,0
574,526,0,0,0,0,0,0,0,0,0,-1,1798,498,0,0
581,526,0,0,0,0,0,0,0,0,0,-1,1805,498,0,0
588,526,0,0,0,0,0,0,0,0,0,-1,1812,498,0,0
595,526,0,0,0,0,0,0,0,0,0,-1,1819,498,0,0
602,526,0,0,0,0,0,0,0,0,0,-1,1826,498,0,0
609,526,0,0,0,0,0,0,0,0,0,-1,1833,498,0,0
616,526,0,0,0,0,0,0,0,0,0,-1,1840,498,0,0
623,526,0,0,0,0,0,0,0,0,0,-1,1847,498,0,0
630,526,0,0,0,0,0,0,0,0,0,-1,1854,498,0,0
637,526,0,0,0,0,0,0,0,0,0,-1,1861,498,0,0
644,526,0,0,0,0,0,0,0,0,0,-1,1868,498,0,0
651,526,0,0,0,0,0,0,0,0,0,-1,1875,498,0,0
658,526,0,0,0,0,0,0,0,0,0,-1,1882,498,0,0
665,526,0,0,0,0,0,0,0,0,0,-1,1889,498,0,0
672,526,0,0,0,0,0,0,0,0,0,-1,1896,498,0,0
679,526,0,0,0,0,0,0,0,0,0,-1,1903,498,0,0
686,526,0,0,0,0,0,0,0,0,0,-1,1910,498,0,0
693,526,0,0,0,0,0,0,0,0,0,-1,1917,498,0,0
700,526,0,0,0,0,0,0,0,0,0,-1,1924,498,0,0
707,526,0,0,0,0,0,0,0,0,0,-1,1931,498,0,0
714,526,0,0,0,0,0,0,0,0,0,-1,1938,498,0,0
721,526,0,0,0,0,0,0,0,0,0,-1,1945,498,0,0
728,526,0,0,0,0,0,0,0,0,0,-1,1952,498,0,0
735,526,0,0,0,0,0,0,0,0,0,-1,1959,498,0,0
742,526,0,0,0,0,0,0,0,0,0,-1,1966,498,0,0
749,526,0,0,0,0,0,0,0,0,0,-1,1973,498,0,0
756,526,0,0,0,0,0,0,0,0,0,-1,1980,498,0,0
763,526,0,0,0,0,0,0,0,0,0,-1,1987,498,0,0
770,526,0,0,0,0,0,0,0,0,0,-1,1994,498,0,0
777,526,0,0,0,0,0,0,0,0,0,-1,2001,498,0,0
784,526,0,0,0,0,0,0,0,0,0,-1,2008,498,0,0
791,526,0,0,0,0,0,0,0,0,0,-1,2015,498,0,0
798,526,0,0,0,0,0,0,0,0,0,-1,2022,498,0,0
805,526,0,0,0,0,0,0,0,0,0,-1,2029,498,0,0
812,526,0,0,0,0,0,0,0,0,0,-1,2036,498,0,0
-700,519,0,0,0,0,0,0,0,0,0,-1,524,505,0,0
-693,519,0,0,0,0,0,0,0,0,0,-1,531,505,0,0
-686,519,0,0,0,0,0,0,0,0,0,-1,538,505,0,0
-679,519,0,0,0,0,0,0,0,0,0,-1,545,505,0,0
-672,519,0,0,0,0,0,0,0,0,0,-1,552,505,0,0
-665,519,0,0,0,0,0,0,0,0,0,-1,559,505,0,0
-658,519,0,0,0,0,0,0,0,0,0,-1,566,505,0,0
-651,519,0,0,0,0,0,0,0,0,0,-1,573,505,0,0
-644,519,0,0,0,0,0,0,0,0,0,-1,580,505,0,0
-637,519,0,0,0,0,0,0,0,0,0,-1,587,505,0,0
-630,519,0,0,0,0,0,0,0,0,0,-1,594,505,0,0
-623,519,0,0,0,0,0,0,0,0,0,-1,601,505,0,0
-616,519,0,0,0,0,0,0,0,0,0,-1,608,505,0,0
-609,519,0,0,0,0,0,0,0,0,0,-1,615,505,0,0
-602,519,0,0,0,0,0,0,0,0,0,-1,622,505,0,0
-595,519,0,0,0,0,0,0,0,0,0,-1,629,505,0,0
-588,519,0,0,0,0,0,0,0,0,0,-1,636,505,0,0
-581,519,0,0,0,0,0,0,0,0,0,-1,643,505,0,0
-574,519,0,0,0,0,0,0,0,0,0,-1,650,505,0,0
-567,519,0,0,0,0,0,0,0,0,0,-1,657,505,0,0
-560,519,0,0,0,0,0,0,0,0,0,-1,664,505,0,0
-553,519,0,0,0,0,0,0,0,0,0,-1,671,505,0,0
-546,519,0,0,0,0,0,0,0,0,0,-1,678,505,0,0
-539,519,0,0,0,0,0,0,0,0,0,-1,685,505,0,0
-532,519,0,0,0,0,0,0,0,0,0,-1,692,505,0,0
-525,519,0,0,0,0,0,0,0,0,0,-1,699,505,0,0
-518,519,0,0,0,0,0,0,0,0,0,-1,706,505,0,0
-511,519,0,0,0,0,0,0,0,0,0,-1,713,505,0,0
-504,519,0,0,0,0,0,0,0,0,0,-1,720,505,0,0
-497,519,0,0,0,0,0,0,0,0,0,-1,727,505,0,0
-490,519,0,0,0,0,0,0,0,0,0,-1,734,505,0,0
-483,519,0,0,0,0,0,0,0,0,0,-1,741,505,0,0
-476,519,0,0,0,0,0,0,0,0,0,-1,748,505,0,0
-469,519,0,0,0,0,0,0,0,0,0,-1,755,505,0,0
-462,519,0,0,0,0,0,0,0,0,0,-1,762,505,0,0
-455,519,0,0,0,0,0,0,0,0,0,-1,769,505,0,0
-448,519,0,0,0,0,0,0,0,0,0,-1,776,505,0,0
-441,519,1.34839,-5.29346,0,0,0,0,0,0,0,-1,783,505,1.3484,5.29347
-434,519,0.949585,-5.77313,0,0,0,0,0,0,0,-1,790,505,0.949598,5.77315
-427,519,-0.0523682,-9.31567,0,0,0,0,0,0,0,-1,797,505,-0.0523854,9.31568
-420,519,-2.38867,-12.1938,0,0,0,0,0,0,0,-1,804,505,-2.38867,12.1938
-413,519,-2.2298,-12.4998,0,0,0,0,0,0,0,-1,811,505,-2.22979,12.4998
-406,519,-1.44373,-12.3475,0,0,0,0,0,0,0,-1,818,505,-1.44376,12.3475
-399,519,-1.60516,-15.0849,0,0,0,0,0,0,0,-1,825,505,-1.60518,15.0849
-392,519,-1.89258,-23.4095,0,0,0,0,0,0,0,-1,832,505,-1.89259,23.4096
-385,519,-2.60632,-24.5804,0,0,0,0,0,0,0,-1,839,505,-2.6063,24.5804
-378,519,-2.40442,-25.6441,0.0143285,0.0237615,-0.00412147,0.0253085,0.0127814,-1.21171,0.0146121,0.0413425,846,505,-2.4044,25.6441
-371,519,-2.2533,-26.7692,0.0123814,0.0201755,-0.00405906,0.0219055,0.0106515,-1.16792,0.0126487,0.0203201,853,505,-2.2533,26.7692
-364,519,-2.28107,-27.7704,0.010298,0.0166536,-0.00379865,0.0184284,0.00852325,-1.13372,0.0106496,0.0112985,860,505,-2.28105,27.7704
-357,519,-2.28174,-28.6542,0.00824827,0.0134441,-0.00343396,0.0151521,0.00654022,-1.10923,0.00877529,0.0109627,867,505,-2.28171,28.6542
-350,519,-2.33331,-29.4683,0.00628312,0.0104667,-0.00299834,0.0120308,0.004719,-1.08997,0.00699954,0.0129463,874,505,-2.33334,29.4683
-343,519,-2.43439,-30.2608,0.00458744,0.00772308,-0.00251789,0.00912138,0.00318914,-1.06386,0.00534502,0.0162405,881,505,-2.43439,30.2608
-336,519,-2.51379,-31.0764,0.00315175,0.00535552,-0.00201086,0.00654661,0.00196066,-1.03604,0.00387967,0.0167214,888,505,-2.51377,31.0764
-329,519,-2.50586,-31.8911,0.00204434,0.00338631,-0.00146736,0.00432882,0.00110183,-0.999841,0.0025977,0.0149143,895,505,-2.50586,31.891
-322,519,-2.50665,-32.6741,0.00122831,0.0016563,-0.000834495,0.0023038,0.000580807,-0.910913,0.00138352,0.0119128,902,505,-2.50666,32.6741
-315,519,-2.55884,-33.4829,0.000796403,0.00042296,-0.000240481,0.000914142,0.000305221,-0.45529,0.000537401,0.00953124,909,505,-2.55883,33.4829
-308,519,-2.62994,-34.3071,0.00087324,-0.00028067,0.000332085,0.000961986,-0.000369416,0.261136,0.000793658,0.00778141,916,505,-2.62994,34.3071
-301,519,-2.6991,-35.0744,0.0012669,-0.000710677,0.000798733,0.0015492,-0.000992982,0.339737,0.00147939,0.0122952,923,505,-2.69912,35.0744
-294,519,-2.70428,-35.7953,0.00169208,-0.000920871,0.00123059,0.00218038,-0.00140918,0.377749,0.00208831,0.0158815,930,505,-2.70426,35.7953
-287,519,-2.73773,-36.551,0.00214827,-0.00147697,0.00165251,0.00278848,-0.00211718,0.369613,0.00284111,0.0119299,937,505,-2.73773,36.551
-280,519,-2.78052,-37.3236,0.00217037,-0.00340103,0.0022082,0.00293942,-0.00417008,0.335134,0.00412512,0.024922,944,505,-2.78052,37.3236
-273,519,-2.78784,-38.2097,0,0,0,0,0,0,0,-1,951,505,-2.78783,38.2097
-266,519,-2.8222,-38.9179,0,0,0,0,0,0,0,-1,958,505,-2.82223,38.9179
-259,519,-2.66608,-39.8281,0,0,0,0,0,0,0,-1,965,505,-2.66611,39.828
-252,519,-1.84009,-26.8372,0,0,0,0,0,0,0,-1,972,505,-1.8401,26.8372
-245,519,-1.23254,-23.2696,0,0,0,0,0,0,0,-1,979,505,-1.23256,23.2696
-238,519,-0.645386,-38.9008,0,0,0,0,0,0,0,-1,986,505,-0.645375,38.9008
-231,519,-2.31134,-40.0056,0,0,0,0,0,0,0,-1,993,505,-2.31134,40.0056
-224,519,-2.90112,-39.5726,0,0,0,0,0,0,0,-1,1000,505,-2.90114,39.5726
-217,519,-2.87396,-38.149,0,0,0,0,0,0,0,-1,1007,505,-2.87394,38.149
-210,519,-0.883362,-34.799,0,0,0,0,0,0,0,-1,1014,505,-0.883379,34.799
-203,519,-0.513611,-5.39017,0,0,0,0,0,0,0,-1,1021,505,-0.513585,5.39017
-196,519,-0.374023,-5.41635,0,0,0,0,0,0,0,-1,1028,505,-0.374047,5.41635
-189,519,-0.234497,-5.44254,0,0,0,0,0,0,0,-1,1035,505,-0.234508,5.44253
-182,519,2.76697,-1.19659,0,0,0,0,0,0,0,-1,1042,505,2.76696,1.19661
-175,519,2.31323,-0.960938,0,0,0,0,0,0,0,-1,1049,505,2.31319,0.960941
-168,519,2.01074,-0.721405,0,0,0,0,0,0,0,-1,1056,505,2.01072,0.721407
-161,519,2.32056,-0.522339,0,0,0,0,0,0,0,-1,1063,505,2.32057,0.522328
-154,519,2.55566,0.116669,0,0,0,0,0,0,0,-1,1070,505,2.55563,-0.116661
-147,519,-0.55127,-6.14001,0,0,0,0,0,0,0,-1,1077,505,-0.551252,6.14001
-140,519,0.240601,-7.53503,0,0,0,0,0,0,0,-1,1084,505,0.240653,7.53501
-133,519,2.70911,-4.4516,0,0,0,0,0,0,0,-1,1091,505,2.70915,4.45161
-126,519,0,0,0,0,0,0,0,0,0,-1,1098,505,0,0
-119,519,0,0,0,0,0,0,0,0,0,-1,1105,505,0,0
-112,519,0,0,0,0,0,0,0,0,0,-1,1112,505,0,0
-105,519,0,0,0,0,0,0,0,0,0,-1,1119,505,0,0
-98,519,0,0,0,0,0,0,0,0,0,-1,1126,505,0,0
-91,519,0,0,0,0,0,0,0,0,0,-1,1133,505,0,0
-84,519,0,0,0,0,0,0,0,0,0,-1,1140,505,0,0
-77,519,0,0,0,0,0,0,0,0,0,-1,1147,505,0,0
-70,519,0,0,0,0,0,0,0,0,0,-1,1154,505,0,0
-63,519,0,0,0,0,0,0,0,0,0,-1,1161,505,0,0
-56,519,0,0,0,0,0,0,0,0,0,-1,1168,505,0,0
-49,519,0,0,0,0,0,0,0,0,0,-1,1175,505,0,0
-42,519,0,0,0,0,0,0,0,0,0,-1,1182,505,0,0
-35,519,0,0,0,0,0,0,0,0,0,-1,1189,505,0,0
-28,519,0,0,0,0,0,0,0,0,0,-1,1196,505,0,0
-21,519,0,0,0,0,0,0,0,0,0,-1,1203,505,0,0
-14,519,0,0,0,0,0,0,0,0,0,-1,1210,505,0,0
-7,519,0,0,0,0,0,0,0,0,0,-1,1217,505,0,0
0,519,0,0,0,0,0,0,0,0,0,-1,1224,505,0,0
7,519,0,0,0,0,0,0,0,0,0,-1,1231,505,0,0
14,519,0,0,0,0,0,0,0,0,0,-1,1238,505,0,0
21,519,0,0,0,0,0,0,0,0,0,-1,1245,505,0,0
28,519,0,0,0,0,0,0,0,0,0,-1,1252,505,0,0
35,519,0,0,0,0,0,0,0,0,0,-1,1259,505,0,0
42,519,0,0,0,0,0,0,0,0,0,-1,1266,505,0,0
49,519,0,0,0,0,0,0,0,0,0,-1,1273,505,0,0
56,519,0,0,0,0,0,0,0,0,0,-1,1280,505,0,0
63,519,0,0,0,0,0,0,0,0,0,-1,1287,505,0,0
70,519,0,0,0,0,0,0,0,0,0,-1,1294,505,0,0
77,519,0,0,0,0,0,0,0,0,0,-1,1301,505,0,0
84,519,0,0,0,0,0,0,0,0,0,-1,1308,505,0,0
91,519,0,0,0,0,0,0,0,0,0,-1,1315,505,0,0
98,519,0,0,0,0,0,0,0,0,0,-1,1322,505,0,0
105,519,0,0,0,0,0,0,0,0,0,-1,1329,505,0,0
112,519,0,0,0,0,0,0,0,0,0,-1,1336,505,0,0
119,519,0,0,0,0,0,0,0,0,0,-1,1343,505,0,0
126,519,0,0,0,0,0,0,0,0,0,-1,1350,505,0,0
133,519,0,0,0,0,0,0,0,0,0,-1,1357,505,0,0
140,519,0,0,0,0,0,0,0,0,0,-1,1364,505,0,0
147,519,0,0,0,0,0,0,0,0,0,-1,1371,505,0,0
154,519,0,0,0,0,0,0,0,0,0,-1,1378,505,0,0
161,519,0,0,0,0,0,0,0,0,0,-1,1385,505,0,0
168,519,0,0,0,0,0,0,0,0,0,-1,1392,505,0,0
175,519,0,0,0,0,0,0,0,0,0,-1,1399,505,0,0
182,519,0,0,0,0,0,0,0,0,0,-1,1406,505,0,0
189,519,0,0,0,0,0,0,0,0,0,-1,1413,505,0,0
196,519,0,0,0,0,0,0,0,0,0,-1,1420,505,0,0
203,519,0,0,0,0,0,0,0,0,0,-1,1427,505,0,0
210,519,0,0,0,0,0,0,0,0,0,-1,1434,505,0,0
217,519,0,0,0,0,0,0,0,0,0,-1,1441,505,0,0
224,519,0,0,0,0,0,0,0,0,0,-1,1448,505,0,0
231,519,0,0,0,0,0,0,0,0,0,-1,1455,505,0,0
238,519,0,0,0,0,0,0,0,0,0,-1,1462,505,0,0
245,519,0,0,0,0,0,0,0,0,0,-1,1469,505,0,0
252,519,5.26208,0.0938416,0,0,0,0,0,0,0,-1,1476,505,5.26207,-0.0938493
259,519,6.14246,-1.36441,0,0,0,0,0,0,0,-1,1483,505,6.14241,1.36441
266,519,5.31909,-0.400787,0,0,0,0,0,0,0,-1,1490,505,5.31912,0.400773
273,519,4.02393,0.325531,0,0,0,0,0,0,0,-1,1497,505,4.0239,-0.325522
280,519,4.68848,0.53006,0,0,0,0,0,0,0,-1,1504,505,4.68842,-0.530073
287,519,7.9519,-3.80801,0,0,0,0,0,0,0,-1,1511,505,7.95193,3.808
294,519,6.92273,-3.38889,0,0,0,0,0,0,0,-1,1518,505,6.92268,3.38888
301,519,5.35669,-2.92661,0,0,0,0,0,0,0,-1,1525,505,5.35675,2.9266
308,519,7.37549,-5.64529,0,0,0,0,0,0,0,-1,1532,505,7.3755,5.64529
315,519,6.30029,-4.53754,0,0,0,0,0,0,0,-1,1539,505,6.30024,4.53753
322,519,5.84302,-5.45117,0,0,0,0,0,0,0,-1,1546,505,5.84303,5.45116
329,519,4.92407,0.62384,0,0,0,0,0,0,0,-1,1553,505,4.92403,-0.623832
336,519,3.10095,-0.329285,0,0,0,0,0,0,0,-1,1560,505,3.1009,0.329283
343,519,2.49146,-2.31119,0,0,0,0,0,0,0,-1,1567,505,2.49145,2.31119
350,519,3.47729,-2.22516,0,0,0,0,0,0,0,-1,1574,505,3.47726,2.22515
357,519,13.271,-29.6344,0,0,0,0,0,0,0,-1,1581,505,13.271,29.6344
364,519,12.8292,-28.3627,0,0,0,0,0,0,0,-1,1588,505,12.8292,28.3627
371,519,12.3875,-27.0911,0,0,0,0,0,0,0,-1,1595,505,12.3874,27.091
378,519,6.36597,-10.0967,0,0,0,0,0,0,0,-1,1602,505,6.36597,10.0967
385,519,6.24756,-9.72186,0,0,0,0,0,0,0,-1,1609,505,6.24752,9.72183
392,519,16.8391,-37.6736,0,0,0,0,0,0,0,-1,1616,505,16.8391,37.6737
399,519,17.1909,-37.6454,0,0,0,0,0,0,0,-1,1623,505,17.1909,37.6454
406,519,17.1378,-36.8128,0.00235991,0.000197191,-0.0012215,0.00290992,-0.000352827,-0.423088,0.00206762,0.0354368,1630,505,17.1378,36.8128
413,519,17.1729,-36.0224,0.00237258,0.000773932,-0.000678983,0.00262203,0.000524476,-0.352087,0.00160207,0.0157729,1637,505,17.1729,36.0224
420,519,17.1188,-35.2155,0.00225785,0.00107007,-0.000378135,0.00236802,0.000959911,-0.283488,0.00137531,0.0158013,1644,505,17.1188,35.2155
427,519,17.0906,-34.4769,0.0019912,0.00117625,-0.000132551,0.00201222,0.00115523,-0.15725,0.001166,0.014799,1651,505,17.0906,34.4769
434,519,17.0359,-33.7114,0.00167855,0.00124873,0.000119392,0.00170949,0.0012178,0.253544,0.00101622,0.0133602,1658,505,17.0359,33.7114
441,519,16.9954,-32.8773,0.00146669,0.00139909,0.000429639,0.00186386,0.00100192,0.746147,0.00107711,0.0128591,1665,505,16.9953,32.8773
448,519,16.9785,-32.0776,0.0012084,0.00148484,0.000744217,0.00210356,0.000589677,0.877215,0.00125296,0.0100483,1672,505,16.9785,32.0776
455,519,16.9362,-31.2928,0.000956904,0.00157138,0.00107549,0.00238266,0.000145632,0.92453,0.00154219,0.0109578,1679,505,16.9362,31.2928
462,519,16.8958,-30.4738,0.000958453,0.00173796,0.00152505,0.00292228,-0.000225859,0.910505,0.00202767,0.0105571,1686,505,16.8957,30.4738
469,519,16.875,-29.6558,0.00117233,0.00194006,0.00200662,0.0035992,-0.00048681,0.879905,0.00257711,0.0108306,1693,505,16.875,29.6558
476,519,16.8431,-28.8218,0.00140271,0.00210751,0.00253104,0.00431057,-0.000800347,0.854569,0.00317431,0.0128712,1700,505,16.8431,28.8218
483,519,16.7965,-27.9881,0.00178582,0.0022566,0.00314554,0.00517554,-0.00113312,0.822744,0.00388357,0.0137874,1707,505,16.7966,27.9881
490,519,16.7485,-27.134,0.00221564,0.002208,0.00374438,0.0059562,-0.00153256,0.784888,0.00456816,0.0123938,1714,505,16.7485,27.134
497,519,16.6931,-26.4057,0.0028643,0.0020112,0.00427857,0.00673753,-0.00186204,0.735715,0.00522418,0.034638,1721,505,16.6931,26.4057
504,519,16.5577,-25.5257,0.00363253,0.0017492,0.00474718,0.00753054,-0.00214881,0.687488,0.00586925,0.0371874,1728,505,16.5577,25.5257
511,519,16.7078,-24.5045,0.00454719,0.0012309,0.0053298,0.00847082,-0.00269273,0.63459,0.0067269,0.0463438,1735,505,16.7078,24.5045
518,519,16.6487,-23.6487,0,0,0,0,0,0,0,-1,1742,505,16.6487,23.6487
525,519,15.9647,-20.5714,0,0,0,0,0,0,0,-1,1749,505,15.9648,20.5714
532,519,15.825,-19.0025,0,0,0,0,0,0,0,-1,1756,505,15.8249,19.0025
539,519,16.5902,-16.8075,0,0,0,0,0,0,0,-1,1763,505,16.5903,16.8075
546,519,12.4001,-16.5616,0,0,0,0,0,0,0,-1,1770,505,12.4002,16.5616
553,519,4.14136,0.0667419,0,0,0,0,0,0,0,-1,1777,505,4.14141,-0.0667503
560,519,3.77856,0.279724,0,0,0,0,0,0,0,-1,1784,505,3.77861,-0.279731
567,519,0,0,0,0,0,0,0,0,0,-1,1791,505,0,0
574,519,0,0,0,0,0,0,0,0,0,-1,1798,505,0,0
581,519,0,0,0,0,0,0,0,0,0,-1,1805,505,0,0
588,519,0,0,0,0,0,0,0,0,0,-1,1812,505,0,0
595,519,0,0,0,0,0,0,0,0,0,-1,1819,505,0,0
602,519,0,0,0,0,0,0,0,0,0,-1,1826,505,0,0
609,519,0,0,0,0,0,0,0,0,0,-1,1833,505,0,0
616,519,0,0,0,0,0,0,0,0,0,-1,1840,505,0,0
623,519,0,0,0,0,0,0,0,0,0,-1,1847,505,0,0
630,519,0,0,0,0,0,0,0,0,0,-1,1854,505,0,0
637,519,0,0,0,0,0,0,0,0,0,-1,1861,505,0,0
644,519,0,0,0,0,0,0,0,0,0,-1,1868,505,0,0
651,519,0,0,0,0,0,0,0,0,0,-1,1875,505,0,0
658,519,0,0,0,0,0,0,0,0,0,-1,1882,505,0,0
665,519,0,0,0,0,0,0,0,0,0,-1,1889,505,0,0
672,519,0,0,0,0,0,0,0,0,0,-1,1896,505,0,0
679,519,0,0,0,0,0,0,0,0,0,-1,1903,505,0,0
686,519,0,0,0,0,0,0,0,0,0,-1,1910,505,0,0
693,519,0,0,0,0,0,0,0,0,0,-1,1917,505,0,0
700,519,0,0,0,0,0,0,0,0,0,-1,1924,505,0,0
707,519,0,0,0,0,0,0,0,0,0,-1,1931,505,0,0
714,519,0,0,0,0,0,0,0,0,0,-1,1938,505,0,0
721,519,0,0,0,0,0,0,0,0,0,-1,1945,505,0,0
728,519,0,0,0,0,0,0,0,0,0,-1,1952,505,0,0
735,519,0,0,0,0,0,0,0,0,0,-1,1959,505,0,0
742,519,0,0,0,0,0,0,0,0,0,-1,1966,505,0,0
749,519,0,0,0,0,0,0,0,0,0,-1,1973,505,0,0
756,519,0,0,0,0,0,0,0,0,0,-1,1980,505,0,0
763,519,0,0,0,0,0,0,0,0,0,-1,1987,505,0,0
770,519,0,0,0,0,0,0,0,0,0,-1,1994,505,0,0
777,519,0,0,0,0,0,0,0,0,0,-1,2001,505,0,0
784,519,0,0,0,0,0,0,0,0,0,-1,2008,505,0,0
791,519,0,0,0,0,0,0,0,0,0,-1,2015,505,0,0
798,519,0,0,0,0,0,0,0,0,0,-1,2022,505,0,0
805,519,0,0,0,0,0,0,0,0,0,-1,2029,505,0,0
812,519,0,0,0,0,0,0,0,0,0,-1,2036,505,0,0
-700,512,0,0,0,0,0,0,0,0,0,-1,524,512,0,0
-693,512,0,0,0,0,0,0,0,0,0,-1,531,512,0,0
-686,512,0,0,0,0,0,0,0,0,0,-1,538,512,0,0
-679,512,0,0,0,0,0,0,0,0,0,-1,545,512,0,0
-672,512,0,0,0,0,0,0,0,0,0,-1,552,512,0,0
-665,512,0,0,0,0,0,0,0,0,0,-1,559,512,0,0
-658,512,0,0,0,0,0,0,0,0,0,-1,566,512,0,0
-651,512,0,0,0,0,0,0,0,0,0,-1,573,512,0,0
-644,512,0,0,0,0,0,0,0,0,0,-1,580,512,0,0
-637,512,0,0,0,0,0,0,0,0,0,-1,587,512,0,0
-630,512,0,0,0,0,0,0,0,0,0,-1,594,512,0,0
-623,512,0,0,0,0,0,0,0,0,0,-1,601,512,0,0
-616,512,0,0,0,0,0,0,0,0,0,-1,608,512,0,0
-609,512,0,0,0,0,0,0,0,0,0,-1,615,512,0,0
-602,512,0,0,0,0,0,0,0,0,0,-1,622,512,0,0
-595,512,0,0,0,0,0,0,0,0,0,-1,629,512,0,0
-588,512,0,0,0,0,0,0,0,0,0,-1,636,512,0,0
-581,512,0,0,0,0,0,0,0,0,0,-1,643,512,0,0
-574,512,0,0,0,0,0,0,0,0,0,-1,650,512,0,0
-567,512,0,0,0,0,0,0,0,0,0,-1,657,512,0,0
-560,512,0,0,0,0,0,0,0,0,0,-1,664,512,0,0
-553,512,0,0,0,0,0,0,0,0,0,-1,671,512,0,0
-546,512,0,0,0,0,0,0,0,0,0,-1,678,512,0,0
-539,512,0,0,0,0,0,0,0,0,0,-1,685,512,0,0
-532,512,0,0,0,0,0,0,0,0,0,-1,692,512,0,0
-525,512,0,0,0,0,0,0,0,0,0,-1,699,512,0,0
-518,512,0,0,0,0,0,0,0,0,0,-1,706,512,0,0
-511,512,0,0,0,0,0,0,0,0,0,-1,713,512,0,0
-504,512,0,0,0,0,0,0,0,0,0,-1,720,512,0,0
-497,512,0,0,0,0,0,0,0,0,0,-1,727,512,0,0
-490,512,0,0,0,0,0,0,0,0,0,-1,734,512,0,0
-483,512,0,0,0,0,0,0,0,0,0,-1,741,512,0,0
-476,512,0,0,0,0,0,0,0,0,0,-1,748,512,0,0
-469,512,0,0,0,0,0,0,0,0,0,-1,755,512,0,0
-462,512,0,0,0,0,0,0,0,0,0,-1,762,512,0,0
-455,512,0,0,0,0,0,0,0,0,0,-1,769,512,0,0
-448,512,1.96283,-4.15674,0,0,0,0,0,0,0,-1,776,512,1.96285,4.15677
-441,512,1.78198,-4.88824,0,0,0,0,0,0,0,-1,783,512,1.78201,4.88826
-434,512,0.0726929,-9.85822,0,0,0,0,0,0,0,-1,790,512,0.0727008,9.85819
-427,512,-0.384583,-9.94824,0,0,0,0,0,0,0,-1,797,512,-0.384552,9.94823
-420,512,-2.93219,-12.4855,0,0,0,0,0,0,0,-1,804,512,-2.93219,12.4855
-413,512,-2.22711,-11.4485,0,0,0,0,0,0,0,-1,811,512,-2.22712,11.4485
-406,512,-2.38037,-13.5743,0,0,0,0,0,0,0,-1,818,512,-2.38034,13.5743
-399,512,-3.10394,-22.4773,0,0,0,0,0,0,0,-1,825,512,-3.10395,22.4773
-392,512,-2.86292,-24.4432,0,0,0,0,0,0,0,-1,832,512,-2.86292,24.4432
-385,512,-2.92047,-25.2095,0.0107518,0.0207267,-0.00525614,0.0229851,0.00849349,-1.16498,0.0134202,0.0234739,839,512,-2.9205,25.2095
-378,512,-2.97351,-26.0037,0.00965413,0.0178612,-0.00491011,0.0201567,0.00735858,-1.13347,0.0117779,0.0188335,846,512,-2.97349,26.0038
-371,512,-3.02466,-26.887,0.0084616,0.0150278,-0.00453161,0.0173406,0.00614879,-1.09888,0.0101517,0.0141463,853,512,-3.02468,26.887
-364,512,-3.07098,-27.8105,0.00711843,0.0121963,-0.00400362,0.0143981,0.00491656,-1.06798,0.00845089,0.0102018,860,512,-3.07099,27.8105
-357,512,-3.08643,-28.64,0.00574781,0.00963719,-0.00341915,0.011626,0.003759,-1.04397,0.00685052,0.0109671,867,512,-3.08645,28.64
-350,512,-3.14362,-29.4377,0.00441199,0.00724574,-0.00281076,0.00897655,0.00268118,-1.01885,0.00532079,0.0115916,874,512,-3.14359,29.4378
-343,512,-3.24139,-30.2225,0.00325052,0.00499136,-0.00218723,0.006475,0.00176687,-0.97477,0.00386477,0.0133777,881,512,-3.24136,30.2225
-336,512,-3.31305,-31.0502,0.00223897,0.00302852,-0.00156661,0.00424933,0.00101816,-0.908825,0.00256185,0.0148727,888,512,-3.31306,31.0503
-329,512,-3.28632,-31.8494,0.00146149,0.00139074,-0.000938859,0.00236564,0.000486589,-0.766569,0.00144252,0.0174277,895,512,-3.28632,31.8494
-322,512,-3.3053,-32.6331,0.000926248,-4.08617e-06,-0.000290814,0.00100967,-8.75108e-05,-0.279365,0.000704101,0.0150227,902,512,-3.30533,32.6331
-315,512,-3.35242,-33.4525,0.000807941,-0.000853115,0.000366806,0.000885336,-0.000930509,0.207946,0.00104849,0.0124099,909,512,-3.35242,33.4525
-308,512,-3.42743,-34.2468,0.00120431,-0.00127103,0.000954202,0.00152943,-0.00159616,0.328393,0.0018047,0.0113719,916,512,-3.42741,34.2468
-301,512,-3.49084,-35.0302,0.00176955,-0.00147571,0.00140687,0.00229452,-0.00200069,0.357149,0.00248177,0.0152121,923,512,-3.49083,35.0302
-294,512,-3.48035,-35.7552,0.00212971,-0.00145337,0.00182821,0.00289785,-0.00222151,0.397765,0.00296425,0.0162331,930,512,-3.48037,35.7552
-287,512,-3.49286,-36.4853,0,0,0,0,0,0,0,-1,937,512,-3.49289,36.4853
-280,512,-3.5575,-37.2936,0,0,0,0,0,0,0,-1,944,512,-3.55749,37.2936
-273,512,-2.90118,-34.7153,0,0,0,0,0,0,0,-1,951,512,-2.90121,34.7153
-266,512,-2.33594,-25.9839,0,0,0,0,0,0,0,-1,958,512,-2.33592,25.9839
-259,512,-0.525452,-14.0815,0,0,0,0,0,0,0,-1,965,512,-0.525475,14.0815
-252,512,1.45941,-3.43475,0,0,0,0,0,0,0,-1,972,512,1.45938,3.43475
-245,512,-1.6731,-22.8959,0,0,0,0,0,0,0,-1,979,512,-1.67312,22.8959
-238,512,0.227051,-8.92969,0,0,0,0,0,0,0,-1,986,512,0.227073,8.92968
-231,512,-1.90576,-38.0918,0,0,0,0,0,0,0,-1,993,512,-1.90575,38.0918
-224,512,-1.29974,-33.6304,0,0,0,0,0,0,0,-1,1000,512,-1.29974,33.6304
-217,512,-0.963196,-34.1697,0,0,0,0,0,0,0,-1,1007,512,-0.963226,34.1697
-210,512,-3.76642,-1.94702,0,0,0,0,0,0,0,-1,1014,512,-3.76641,1.94702
-203,512,-2.48328,-5.19061,0,0,0,0,0,0,0,-1,1021,512,-2.48328,5.19059
-196,512,-1.14929,-4.63202,0,0,0,0,0,0,0,-1,1028,512,-1.14934,4.632
-189,512,0.197998,4.55505,0,0,0,0,0,0,0,-1,1035,512,0.197996,-4.55506
-182,512,2.73938,0.0778503,0,0,0,0,0,0,0,-1,1042,512,2.73944,-0.077852
-175,512,2.29565,0.209808,0,0,0,0,0,0,0,-1,1049,512,2.29565,-0.209813
-168,512,2.09399,-0.302856,0,0,0,0,0,0,0,-1,1056,512,2.09403,0.302826
-161,512,2.76636,0.0921021,0,0,0,0,0,0,0,-1,1063,512,2.76633,-0.0921104
-154,512,3.41382,0.466187,0,0,0,0,0,0,0,-1,1070,512,3.41382,-0.466178
-147,512,0,0,0,0,0,0,0,0,0,-1,1077,512,0,0
-140,512,0,0,0,0,0,0,0,0,0,-1,1084,512,0,0
-133,512,0,0,0,0,0,0,0,0,0,-1,1091,512,0,0
-126,512,0,0,0,0,0,0,0,0,0,-1,1098,512,0,0
-119,512,0,0,0,0,0,0,0,0,0,-1,1105,512,0,0
-112,512,0,0,0,0,0,0,0,0,0,-1,1112,512,0,0
-105,512,0,0,0,0,0,0,0,0,0,-1,1119,512,0,0
-98,512,0,0,0,0,0,0,0,0,0,-1,1126,512,0,0
-91,512,0,0,0,0,0,0,0,0,0,-1,1133,512,0,0
-84,512,0,0,0,0,0,0,0,0,0,-1,1140,512,0,0
-77,512,0,0,0,0,0,0,0,0,0,-1,1147,512,0,0
-70,512,0,0,0,0,0,0,0,0,0,-1,1154,512,0,0
-63,512,0,0,0,0,0,0,0,0,0,-1,1161,512,0,0
-56,512,0,0,0,0,0,0,0,0,0,-1,1168,512,0,0
-49,512,0,0,0,0,0,0,0,0,0,-1,1175,512,0,0
-42,512,0,0,0,0,0,0,0,0,0,-1,1182,512,0,0
-35,512,0,0,0,0,0,0,0,0,0,-1,1189,512,0,0
-28,512,0,0,0,0,0,0,0,0,0,-1,1196,512,0,0
-21,512,0,0,0,0,0,0,0,0,0,-1,1203,512,0,0
-14,512,0,0,0,0,0,0,0,0,0,-1,1210,512,0,0
-7,512,0,0,0,0,0,0,0,0,0,-1,1217,512,0,0
0,512,0,0,0,0,0,0,0,0,0,-1,1224,512,0,0
7,512,0,0,0,0,0,0,0,0,0,-1,1231,512,0,0
14,512,0,0,0,0,0,0,0,0,0,-1,1238,512,0,0
21,512,0,0,0,0,0,0,0,0,0,-1,1245,512,0,0
28,512,0,0,0,0,0,0,0,0,0,-1,1252,512,0,0
35,512,0,0,0,0,0,0,0,0,0,-1,1259,512,0,0
42,512,0,0,0,0,0,0,0,0,0,-1,1266,512,0,0
49,512,0,0,0,0,0,0,0,0,0,-1,1273,512,0,0
56,512,0,0,0,0,0,0,0,0,0,-1,1280,512,0,0
63,512,0,0,0,0,0,0,0,0,0,-1,1287,512,0,0
70,512,0,0,0,0,0,0,0,0,0,-1,1294,512,0,0
77,512,0,0,0,0,0,0,0,0,0,-1,1301,512,0,0
84,512,0,0,0,0,0,0,0,0,0,-1,1308,512,0,0
91,512,0,0,0,0,0,0,0,0,0,-1,1315,512,0,0
98,512,0,0,0,0,0,0,0,0,0,-1,1322,512,0,0
105,512,0,0,0,0,0,0,0,0,0,-1,1329,512,0,0
112,512,0,0,0,0,0,0,0,0,0,-1,1336,512,0,0
119,512,0,0,0,0,0,0,0,0,0,-1,1343,512,0,0
126,512,0,0,0,0,0,0,0,0,0,-1,1350,512,0,0
133,512,0,0,0,0,0,0,0,0,0,-1,1357,512,0,0
140,512,0,0,0,0,0,0,0,0,0,-1,1364,512,0,0
147,512,0,0,0,0,0,0,0,0,0,-1,1371,512,0,0
154,512,0,0,0,0,0,0,0,0,0,-1,1378,512,0,0
161,512,0,0,0,0,0,0,0,0,0,-1,1385,512,0,0
168,512,0,0,0,0,0,0,0,0,0,-1,1392,512,0,0
175,512,0,0,0,0,0,0,0,0,0,-1,1399,512,0,0
182,512,0,0,0,0,0,0,0,0,0,-1,1406,512,0,0
189,512,0,0,0,0,0,0,0,0,0,-1,1413,512,0,0
196,512,0,0,0,0,0,0,0,0,0,-1,1420,512,0,0
203,512,0,0,0,0,0,0,0,0,0,-1,1427,512,0,0
210,512,0,0,0,0,0,0,0,0,0,-1,1434,512,0,0
217,512,0,0,0,0,0,0,0,0,0,-1,1441,512,0,0
224,512,0,0,0,0,0,0,0,0,0,-1,1448,512,0,0
231,512,0,0,0,0,0,0,0,0,0,-1,1455,512,0,0
238,512,0,0,0,0,0,0,0,0,0,-1,1462,512,0,0
245,512,0,0,0,0,0,0,0,0,0,-1,1469,512,0,0
252,512,0,0,0,0,0,0,0,0,0,-1,1476,512,0,0
259,512,0,0,0,0,0,0,0,0,0,-1,1483,512,0,0
266,512,0,0,0,0,0,0,0,0,0,-1,1490,512,0,0
273,512,4.00745,0.618622,0,0,0,0,0,0,0,-1,1497,512,4.00747,-0.618611
280,512,4.49609,0.649841,0,0,0,0,0,0,0,-1,1504,512,4.49612,-0.649834
287,512,4.77234,0.458069,0,0,0,0,0,0,0,-1,1511,512,4.77233,-0.458083
294,512,8.54956,-2.36273,0,0,0,0,0,0,0,-1,1518,512,8.54952,2.36274
301,512,6.302,-1.69092,0,0,0,0,0,0,0,-1,1525,512,6.30196,1.69093
308,512,8.2439,-6.22754,0,0,0,0,0,0,0,-1,1532,512,8.24394,6.22757
315,512,7.53687,-6.04211,0,0,0,0,0,0,0,-1,1539,512,7.53691,6.04211
322,512,6.82983,-5.85663,0,0,0,0,0,0,0,-1,1546,512,6.82988,5.85666
329,512,4.38147,-0.329651,0,0,0,0,0,0,0,-1,1553,512,4.38144,0.329662
336,512,4.41467,-0.741455,0,0,0,0,0,0,0,-1,1560,512,4.41467,0.741442
343,512,4.44727,-1.21667,0,0,0,0,0,0,0,-1,1567,512,4.44732,1.21666
350,512,4.55469,-1.65082,0,0,0,0,0,0,0,-1,1574,512,4.5547,1.65083
357,512,5.79993,-2.67456,0,0,0,0,0,0,0,-1,1581,512,5.79991,2.67454
364,512,13.118,-28.5485,0,0,0,0,0,0,0,-1,1588,512,13.1181,28.5485
371,512,5.28467,-7.69269,0,0,0,0,0,0,0,-1,1595,512,5.28464,7.69269
378,512,6.29407,-9.88055,0,0,0,0,0,0,0,-1,1602,512,6.29412,9.88057
385,512,6.45569,-9.32233,0,0,0,0,0,0,0,-1,1609,512,6.45565,9.3223
392,512,6.35522,-8.98425,0,0,0,0,0,0,0,-1,1616,512,6.35526,8.98422
399,512,16.9089,-33.7311,0,0,0,0,0,0,0,-1,1623,512,16.9089,33.7311
406,512,17.9519,-36.8945,0,0,0,0,0,0,0,-1,1630,512,17.952,36.8945
413,512,17.9318,-36.1963,0,0,0,0,0,0,0,-1,1637,512,17.9317,36.1963
420,512,17.9569,-35.2608,0.00302994,0.00086654,-0.000641489,0.00320585,0.00069063,-0.267643,0.00194826,0.0273588,1644,512,17.9569,35.2608
427,512,17.9104,-34.4588,0.00263176,0.00088391,-0.000477374,0.00275364,0.000762028,-0.249977,0.0016418,0.0155646,1651,512,17.9104,34.4588
434,512,17.8419,-33.6816,0.00215301,0.000888774,-0.000333847,0.00223575,0.00080603,-0.242953,0.00130745,0.0118966,1658,512,17.8419,33.6816
441,512,17.7939,-32.8604,0.00182597,0.000992247,-9.94531e-05,0.00183766,0.000980547,-0.1171,0.00106177,0.0134177,1665,512,17.7939,32.8603
448,512,17.7708,-32.0671,0.00151493,0.00107792,0.00017562,0.00157676,0.0010161,0.338509,0.000922913,0.00991229,1672,512,17.7708,32.0671
455,512,17.7253,-31.2452,0.0012207,0.00118673,0.000469775,0.0016738,0.000733635,0.767328,0.000968817,0.00914473,1679,512,17.7253,31.2453
462,512,17.6877,-30.4154,0.00114155,0.00137812,0.000862013,0.00212993,0.000389743,0.853584,0.00130951,0.00946912,1686,512,17.6877,30.4154
469,512,17.6476,-29.6071,0.0012842,0.00160684,0.00132463,0.00277993,0.000111102,0.845991,0.00181739,0.0114982,1693,512,17.6476,29.6071
476,512,17.608,-28.7893,0.00145673,0.00179612,0.00182938,0.00346366,-0.000210808,0.831646,0.00238248,0.0147398,1700,512,17.6081,28.7893
483,512,17.5869,-27.9418,0.0017619,0.00194436,0.00240327,0.00425814,-0.000551873,0.804369,0.00303946,0.013731,1707,512,17.5869,27.9418
490,512,17.5692,-27.1191,0.00205535,0.00191926,0.00291478,0.00490288,-0.000928267,0.773728,0.00361792,0.0115958,1714,512,17.5692,27.1191
497,512,17.5031,-26.2653,0.00252584,0.00178863,0.0034011,0.00557825,-0.00126378,0.73142,0.0042039,0.0134623,1721,512,17.5031,26.2652
504,512,17.4189,-25.3964,0.00309568,0.00157034,0.00385121,0.00625901,-0.00159299,0.687646,0.00479275,0.0170445,1728,512,17.419,25.3964
511,512,17.3591,-24.4959,0.00363635,0.00117013,0.00429449,0.00687126,-0.00206478,0.645591,0.00540227,0.0238353,1735,512,17.3592,24.4959
518,512,17.4388,-23.6453,0.00407275,0.000739303,0.004571,0.00727142,-0.00245936,0.610574,0.00584257,0.0315404,1742,512,17.4389,23.6454
525,512,17.62,-22.7811,0,0,0,0,0,0,0,-1,1749,512,17.62,22.7811
532,512,16.6807,-19.0635,0,0,0,0,0,0,0,-1,1756,512,16.6807,19.0635
539,512,12.6367,-16.4022,0,0,0,0,0,0,0,-1,1763,512,12.6367,16.4021
546,512,2.77551,-0.66449,0,0,0,0,0,0,0,-1,1770,512,2.77548,0.664503
553,512,3.927,-0.448853,0,0,0,0,0,0,0,-1,1777,512,3.92704,0.448843
560,512,3.55762,-0.201233,0,0,0,0,0,0,0,-1,1784,512,3.55768,0.201259
567,512,3.09045,0.191193,0,0,0,0,0,0,0,-1,1791,512,3.09045,-0.191203
574,512,0,0,0,0,0,0,0,0,0,-1,1798,512,0,0
581,512,0,0,0,0,0,0,0,0,0,-1,1805,512,0,0
588,512,0,0,0,0,0,0,0,0,0,-1,1812,512,0,0
595,512,0,0,0,0,0,0,0,0,0,-1,1819,512,0,0
602,512,0,0,0,0,0,0,0,0,0,-1,1826,512,0,0
609,512,0,0,0,0,0,0,0,0,0,-1,1833,512,0,0
616,512,0,0,0,0,0,0,0,0,0,-1,1840,512,0,0
623,512,0,0,0,0,0,0,0,0,0,-1,1847,512,0,0
630,512,0,0,0,0,0,0,0,0,0,-1,1854,512,0,0
637,512,0,0,0,0,0,0,0,0,0,-1,1861,512,0,0
644,512,0,0,0,0,0,0,0,0,0,-1,1868,512,0,0
651,512,0,0,0,0,0,0,0,0,0,-1,1875,512,0,0
658,512,0,0,0,0,0,0,0,0,0,-1,1882,512,0,0
665,512,0,0,0,0,0,0,0,0,0,-1,1889,512,0,0
672,512,0,0,0,0,0,0,0,0,0,-1,1896,512,0,0
679,512,0,0,0,0,0,0,0,0,0,-1,1903,512,0,0
686,512,0,0,0,0,0,0,0,0,0,-1,1910,512,0,0
693,512,0,0,0,0,0,0,0,0,0,-1,1917,512,0,0
700,512,0,0,0,0,0,0,0,0,0,-1,1924,512,0,0
707,512,0,0,0,0,0,0,0,0,0,-1,1931,512,0,0
714,512,0,0,0,0,0,0,0,0,0,-1,1938,512,0,0
721,512,0,0,0,0,0,0,0,0,0,-1,1945,512,0,0
728,512,0,0,0,0,0,0,0,0,0,-1,1952,512,0,0
735,512,0,0,0,0,0,0,0,0,0,-1,1959,512,0,0
742,512,0,0,0,0,0,0,0,0,0,-1,1966,512,0,0
749,512,0,0,0,0,0,0,0,0,0,-1,1973,512,0,0
756,512,0,0,0,0,0,0,0,0,0,-1,1980,512,0,0
763,512,0,0,0,0,0,0,0,0,0,-1,1987,512,0,0
770,512,0,0,0,0,0,0,0,0,0,-1,1994,512,0,0
777,512,0,0,0,0,0,0,0,0,0,-1,2001,512,0,0
784,512,0,0,0,0,0,0,0,0,0,-1,2008,512,0,0
791,512,0,0,0,0,0,0,0,0,0,-1,2015,512,0,0
798,512,0,0,0,0,0,0,0,0,0,-1,2022,512,0,0
805,512,0,0,0,0,0,0,0,0,0,-1,2029,512,0,0
812,512,0,0,0,0,0,0,0,0,0,-1,2036,512,0,0
-700,505,0,0,0,0,0,0,0,0,0,-1,524,519,0,0
-693,505,0,0,0,0,0,0,0,0,0,-1,531,519,0,0
-686,505,0,0,0,0,0,0,0,0,0,-1,538,519,0,0
-679,505,0,0,0,0,0,0,0,0,0,-1,545,519,0,0
-672,505,0,0,0,0,0,0,0,0,0,-1,552,519,0,0
-665,505,0,0,0,0,0,0,0,0,0,-1,559,519,0,0
-658,505,0,0,0,0,0,0,0,0,0,-1,566,519,0,0
-651,505,0,0,0,0,0,0,0,0,0,-1,573,519,0,0
-644,505,0,0,0,0,0,0,0,0,0,-1,580,519,0,0
-637,505,0,0,0,0,0,0,0,0,0,-1,587,519,0,0
-630,505,0,0,0,0,0,0,0,0,0,-1,594,519,0,0
-623,505,0,0,0,0,0,0,0,0,0,-1,601,519,0,0
-616,505,0,0,0,0,0,0,0,0,0,-1,608,519,0,0
-609,505,0,0,0,0,0,0,0,0,0,-1,615,519,0,0
-602,505,0,0,0,0,0,0,0,0,0,-1,622,519,0,0
-595,505,0,0,0,0,0,0,0,0,0,-1,629,519,0,0
-588,505,0,0,0,0,0,0,0,0,0,-1,636,519,0,0
-581,505,0,0,0,0,0,0,0,0,0,-1,643,519,0,0
-574,505,0,0,0,0,0,0,0,0,0,-1,650,519,0,0
-567,505,0,0,0,0,0,0,0,0,0,-1,657,519,0,0
-560,505,0,0,0,0,0,0,0,0,0,-1,664,519,0,0
-553,505,0,0,0,0,0,0,0,0,0,-1,671,519,0,0
-546,505,0,0,0,0,0,0,0,0,0,-1,678,519,0,0
-539,505,0,0,0,0,0,0,0,0,0,-1,685,519,0,0
-532,505,0,0,0,0,0,0,0,0,0,-1,692,519,0,0
-525,505,0,0,0,0,0,0,0,0,0,-1,699,519,0,0
-518,505,0,0,0,0,0,0,0,0,0,-1,706,519,0,0
-511,505,0,0,0,0,0,0,0,0,0,-1,713,519,0,0
-504,505,0,0,0,0,0,0,0,0,0,-1,720,519,0,0
-497,505,0,0,0,0,0,0,0,0,0,-1,727,519,0,0
-490,505,0,0,0,0,0,0,0,0,0,-1,734,519,0,0
-483,505,0,0,0,0,0,0,0,0,0,-1,741,519,0,0
-476,505,0,0,0,0,0,0,0,0,0,-1,748,519,0,0
-469,505,0,0,0,0,0,0,0,0,0,-1,755,519,0,0
-462,505,0,0,0,0,0,0,0,0,0,-1,762,519,0,0
-455,505,2.72137,-3.26379,0,0,0,0,0,0,0,-1,769,519,2.72135,3.26377
-448,505,2.51111,-3.94989,0,0,0,0,0,0,0,-1,776,519,2.51112,3.94986
-441,505,2.80212,-6.8902,0,0,0,0,0,0,0,-1,783,519,2.80209,6.89019
-434,505,-0.155212,-10.6374,0,0,0,0,0,0,0,-1,790,519,-0.155194,10.6374
-427,505,-0.474426,-10.4702,0,0,0,0,0,0,0,-1,797,519,-0.474433,10.4702
-420,505,-0.922546,-10.1928,0,0,0,0,0,0,0,-1,804,519,-0.92257,10.1928
-413,505,-3.33948,-13.6183,0,0,0,0,0,0,0,-1,811,519,-3.33949,13.6184
-406,505,-3.2439,-18.3408,0,0,0,0,0,0,0,-1,818,519,-3.24389,18.3408
-399,505,-3.63623,-23.1941,0,0,0,0,0,0,0,-1,825,519,-3.63626,23.1941
-392,505,-3.66663,-24.3246,0.00754251,0.0178901,-0.0059963,0.0206361,0.00479647,-1.14135,0.01247,0.0258916,832,519,-3.66663,24.3246
-385,505,-3.72437,-25.1917,0.00695394,0.0154247,-0.00537521,0.0180327,0.00434599,-1.11907,0.0108668,0.0109892,839,519,-3.72434,25.1917
-378,505,-3.79913,-26.0494,0.00635531,0.0130921,-0.00482656,0.0156095,0.00383798,-1.09005,0.00939211,0.0121434,846,519,-3.79914,26.0494
-371,505,-3.84564,-26.9229,0.0056475,0.0107832,-0.00430014,0.0132238,0.00320684,-1.05456,0.00796511,0.0149711,853,519,-3.84566,26.9229
-364,505,-3.88763,-27.7827,0.00480206,0.0084375,-0.00364484,0.0106927,0.00254682,-1.01671,0.0064494,0.0158301,860,519,-3.88764,27.7827
-357,505,-3.89911,-28.6141,0.00391062,0.0063547,-0.00296006,0.00833506,0.00193027,-0.981163,0.00503809,0.0123232,867,519,-3.89911,28.6141
-350,505,-3.97198,-29.4055,0.00302838,0.00440882,-0.00228071,0.00610146,0.00133574,-0.932333,0.00370357,0.0121461,874,519,-3.97199,29.4055
-343,505,-4.03076,-30.213,0.00225754,0.00254766,-0.00160146,0.00401061,0.000794587,-0.830564,0.00245217,0.0114418,881,519,-4.03076,30.213
-336,505,-4.08179,-31.0226,0.00156592,0.000913251,-0.000937034,0.00223182,0.000247354,-0.617834,0.00141267,0.0141113,888,519,-4.08176,31.0226
-329,505,-4.08234,-31.7838,0.0010422,-0.000454878,-0.000278835,0.00109245,-0.000505125,-0.178291,0.00094291,0.0202273,895,519,-4.08236,31.7837
-322,505,-4.12158,-32.5964,0.000737236,-0.00154163,0.000330669,0.000784247,-0.00158865,0.141223,0.00139598,0.0244713,902,519,-4.12158,32.5964
-315,505,-4.17767,-33.4261,0.000870085,-0.00206753,0.000980716,0.0011674,-0.00236485,0.294357,0.00207804,0.01812,909,519,-4.17766,33.4261
-308,505,-4.22961,-34.1832,0.00153072,-0.00225725,0.001542,0.00207905,-0.00280559,0.341656,0.00283053,0.0133307,916,519,-4.22962,34.1832
-301,505,-4.24957,-34.9931,0.00224381,-0.00227935,0.00199161,0.00299574,-0.00303128,0.361004,0.00347972,0.0198752,923,519,-4.24956,34.9931
-294,505,-4.24866,-35.7043,0,0,0,0,0,0,0,-1,930,519,-4.24865,35.7043
-287,505,-4.271,-36.0826,0,0,0,0,0,0,0,-1,937,519,-4.27101,36.0826
-280,505,-2.79846,-27.7252,0,0,0,0,0,0,0,-1,944,519,-2.79845,27.7252
-273,505,-0.0680542,-9.44867,0,0,0,0,0,0,0,-1,951,519,-0.0680462,9.44866
-266,505,-0.036377,-9.07922,0,0,0,0,0,0,0,-1,958,519,-0.0364055,9.0792
-259,505,0.10321,-6.69824,0,0,0,0,0,0,0,-1,965,519,0.103235,6.69826
-252,505,6.82312,-15.6972,0,0,0,0,0,0,0,-1,972,519,6.82314,15.6972
-245,505,4.26727,-12.9861,0,0,0,0,0,0,0,-1,979,519,4.2673,12.9861
-238,505,1.67432,-11.2307,0,0,0,0,0,0,0,-1,986,519,1.67429,11.2307
-231,505,-0.958435,-8.3075,0,0,0,0,0,0,0,-1,993,519,-0.958421,8.30751
-224,505,-1.46399,-33.4399,0,0,0,0,0,0,0,-1,1000,519,-1.46397,33.4399
-217,505,-6.34302,-1.65533,0,0,0,0,0,0,0,-1,1007,519,-6.34299,1.65535
-210,505,-3.06128,-0.396301,0,0,0,0,0,0,0,-1,1014,519,-3.06129,0.396294
-203,505,-4.26465,2.03607,0,0,0,0,0,0,0,-1,1021,519,-4.26462,-2.03606
-196,505,-5.47595,4.27295,0,0,0,0,0,0,0,-1,1028,519,-5.47597,-4.27292
-189,505,1.51526,5.56207,0,0,0,0,0,0,0,-1,1035,519,1.51523,-5.56209
-182,505,2.97815,7.5097,0,0,0,0,0,0,0,-1,1042,519,2.97812,-7.5097
-175,505,-2.38416,-2.17548,0,0,0,0,0,0,0,-1,1049,519,-2.38411,2.1755
-168,505,0,0,0,0,0,0,0,0,0,-1,1056,519,0,0
-161,505,0,0,0,0,0,0,0,0,0,-1,1063,519,0,0
-154,505,0,0,0,0,0,0,0,0,0,-1,1070,519,0,0
-147,505,0,0,0,0,0,0,0,0,0,-1,1077,519,0,0
-140,505,0,0,0,0,0,0,0,0,0,-1,1084,519,0,0
-133,505,0,0,0,0,0,0,0,0,0,-1,1091,519,0,0
-126,505,0,0,0,0,0,0,0,0,0,-1,1098,519,0,0
-119,505,0,0,0,0,0,0,0,0,0,-1,1105,519,0,0
-112,505,0,0,0,0,0,0,0,0,0,-1,1112,519,0,0
-105,505,0,0,0,0,0,0,0,0,0,-1,1119,519,0,0
-98,505,0,0,0,0,0,0,0,0,0,-1,1126,519,0,0
-91,505,0,0,0,0,0,0,0,0,0,-1,1133,519,0,0
-84,505,0,0,0,0,0,0,0,0,0,-1,1140,519,0,0
-77,505,0,0,0,0,0,0,0,0,0,-1,1147,519,0,0
-70,505,0,0,0,0,0,0,0,0,0,-1,1154,519,0,0
-63,505,0,0,0,0,0,0,0,0,0,-1,1161,519,0,0
-56,505,0,0,0,0,0,0,0,0,0,-1,1168,519,0,0
-49,505,0,0,0,0,0,0,0,0,0,-1,1175,519,0,0
-42,505,0,0,0,0,0,0,0,0,0,-1,1182,519,0,0
-35,505,0,0,0,0,0,0,0,0,0,-1,1189,519,0,0
-28,505,0,0,0,0,0,0,0,0,0,-1,1196,519,0,0
-21,505,0,0,0,0,0,0,0,0,0,-1,1203,519,0,0
-14,505,0,0,0,0,0,0,0,0,0,-1,1210,519,0,0
-7,505,0,0,0,0,0,0,0,0,0,-1,1217,519,0,0
0,505,0,0,0,0,0,0,0,0,0,-1,1224,519,0,0
7,505,0,0,0,0,0,0,0,0,0,-1,1231,519,0,0
14,505,0,0,0,0,0,0,0,0,0,-1,1238,519,0,0
21,505,0,0,0,0,0,0,0,0,0,-1,1245,519,0,0
28,505,0,0,0,0,0,0,0,0,0,-1,1252,519,0,0
35,505,0,0,0,0,0,0,0,0,0,-1,1259,519,0,0
42,505,0,0,0,0,0,0,0,0,0,-1,1266,519,0,0
49,505,0,0,0,0,0,0,0,0,0,-1,1273,519,0,0
56,505,0,0,0,0,0,0,0,0,0,-1,1280,519,0,0
63,505,0,0,0,0,0,0,0,0,0,-1,1287,519,0,0
70,505,0,0,0,0,0,0,0,0,0,-1,1294,519,0,0
77,505,0,0,0,0,0,0,0,0,0,-1,1301,519,0,0
84,505,0,0,0,0,0,0,0,0,0,-1,1308,519,0,0
91,505,0,0,0,0,0,0,0,0,0,-1,1315,519,0,0
98,505,0,0,0,0,0,0,0,0,0,-1,1322,519,0,0
105,505,0,0,0,0,0,0,0,0,0,-1,1329,519,0,0
112,505,0,0,0,0,0,0,0,0,0,-1,1336,519,0,0
119,505,0,0,0,0,0,0,0,0,0,-1,1343,519,0,0
126,505,0,0,0,0,0,0,0,0,0,-1,1350,519,0,0
133,505,0,0,0,0,0,0,0,0,0,-1,1357,519,0,0
140,505,0,0,0,0,0,0,0,0,0,-1,1364,519,0,0
147,505,0,0,0,0,0,0,0,0,0,-1,1371,519,0,0
154,505,0,0,0,0,0,0,0,0,0,-1,1378,519,0,0
161,505,0,0,0,0,0,0,0,0,0,-1,1385,519,0,0
168,505,0,0,0,0,0,0,0,0,0,-1,1392,519,0,0
175,505,0,0,0,0,0,0,0,0,0,-1,1399,519,0,0
182,505,0,0,0,0,0,0,0,0,0,-1,1406,519,0,0
189,505,0,0,0,0,0,0,0,0,0,-1,1413,519,0,0
196,505,0,0,0,0,0,0,0,0,0,-1,1420,519,0,0
203,505,0,0,0,0,0,0,0,0,0,-1,1427,519,0,0
210,505,0,0,0,0,0,0,0,0,0,-1,1434,519,0,0
217,505,0,0,0,0,0,0,0,0,0,-1,1441,519,0,0
224,505,0,0,0,0,0,0,0,0,0,-1,1448,519,0,0
231,505,0,0,0,0,0,0,0,0,0,-1,1455,519,0,0
238,505,0,0,0,0,0,0,0,0,0,-1,1462,519,0,0
245,505,0,0,0,0,0,0,0,0,0,-1,1469,519,0,0
252,505,0,0,0,0,0,0,0,0,0,-1,1476,519,0,0
259,505,0,0,0,0,0,0,0,0,0,-1,1483,519,0,0
266,505,0,0,0,0,0,0,0,0,0,-1,1490,519,0,0
273,505,0,0,0,0,0,0,0,0,0,-1,1497,519,0,0
280,505,0,0,0,0,0,0,0,0,0,-1,1504,519,0,0
287,505,4.39478,0.499512,0,0,0,0,0,0,0,-1,1511,519,4.39476,-0.499506
294,505,4.88867,0.0822754,0,0,0,0,0,0,0,-1,1518,519,4.88871,-0.0822748
301,505,4.82153,-0.0704346,0,0,0,0,0,0,0,-1,1525,519,4.82156,0.0704312
308,505,4.67761,-0.29187,0,0,0,0,0,0,0,-1,1532,519,4.67762,0.291845
315,505,8.44055,-6.54352,0,0,0,0,0,0,0,-1,1539,519,8.44059,6.54349
322,505,4.78955,-0.594116,0,0,0,0,0,0,0,-1,1546,519,4.78957,0.594096
329,505,5.16321,0.434631,0,0,0,0,0,0,0,-1,1553,519,5.16316,-0.434614
336,505,4.94495,-0.920471,0,0,0,0,0,0,0,-1,1560,519,4.945,0.920495
343,505,5.01855,-1.4823,0,0,0,0,0,0,0,-1,1567,519,5.01851,1.48227
350,505,5.33154,-1.77838,0,0,0,0,0,0,0,-1,1574,519,5.33152,1.77838
357,505,5.56567,-1.9425,0,0,0,0,0,0,0,-1,1581,519,5.56562,1.94248
364,505,5.85205,-2.6579,0,0,0,0,0,0,0,-1,1588,519,5.85211,2.65788
371,505,5.88477,-7.00922,0,0,0,0,0,0,0,-1,1595,519,5.88473,7.00924
378,505,5.44104,-7.10162,0,0,0,0,0,0,0,-1,1602,519,5.44099,7.10162
385,505,6.64661,-8.65015,0,0,0,0,0,0,0,-1,1609,519,6.64662,8.65014
392,505,6.34558,-8.3429,0,0,0,0,0,0,0,-1,1616,519,6.34554,8.34288
399,505,7.45898,-9.70386,0,0,0,0,0,0,0,-1,1623,519,7.45899,9.70388
406,505,7.08679,-9.4928,0,0,0,0,0,0,0,-1,1630,519,7.08678,9.49278
413,505,8.4032,-14.0308,0,0,0,0,0,0,0,-1,1637,519,8.4032,14.0308
420,505,18.726,-35.4513,0,0,0,0,0,0,0,-1,1644,519,18.726,35.4513
427,505,18.7346,-34.5444,0.00292448,0.000638146,-0.000919997,0.0032487,0.000313926,-0.338824,0.00206911,0.0320986,1651,519,18.7346,34.5444
434,505,18.6626,-33.6464,0.00233259,0.000565327,-0.000871672,0.00269018,0.000207743,-0.389292,0.00172837,0.0130067,1658,519,18.6626,33.6463
441,505,18.6282,-32.7926,0.00196271,0.000588572,-0.00069039,0.00224965,0.000301627,-0.393905,0.00141002,0.0108042,1665,519,18.6282,32.7926
448,505,18.5812,-32.011,0.00169,0.000671559,-0.000418134,0.00183968,0.000521885,-0.343744,0.00109477,0.0111919,1672,519,18.5812,32.011
455,505,18.54,-31.1976,0.00144729,0.000797716,-0.000122613,0.00146967,0.000775343,-0.180487,0.000848942,0.0114215,1679,519,18.54,31.1976
462,505,18.5072,-30.3732,0.00134474,0.000998198,0.000235072,0.0014635,0.00087944,0.467801,0.00085067,0.010991,1686,519,18.5072,30.3732
469,505,18.4519,-29.5665,0.00145436,0.00124643,0.000703147,0.00206118,0.000639603,0.712004,0.00121824,0.0115449,1693,519,18.4519,29.5665
476,505,18.3993,-28.7573,0.00161379,0.00145714,0.00121205,0.00275004,0.00032089,0.753132,0.00173631,0.012556,1700,519,18.3993,28.7574
483,505,18.3971,-27.9305,0.00187295,0.00161487,0.00177077,0.00351938,-3.15621e-05,0.749026,0.00235684,0.0131863,1707,519,18.3971,27.9305
490,505,18.3785,-27.0988,0.0020516,0.00165085,0.00223532,0.00409551,-0.000393059,0.740698,0.00287035,0.0127352,1714,519,18.3786,27.0988
497,505,18.318,-26.2437,0.00234354,0.00163122,0.00269798,0.00470877,-0.000734012,0.719773,0.00341028,0.013348,1721,519,18.318,26.2437
504,505,18.2289,-25.3796,0.0026885,0.00146825,0.00311097,0.00524861,-0.00109186,0.688567,0.00391412,0.0131997,1728,519,18.2288,25.3796
511,505,18.1642,-24.5199,0.00291834,0.00120597,0.00344741,0.00561429,-0.00148999,0.663683,0.00432592,0.0143095,1735,519,18.1642,24.5199
518,505,18.2633,-23.6948,0.00294649,0.000900446,0.00357912,0.00564592,-0.00179898,0.646195,0.00448552,0.0358124,1742,519,18.2633,23.6947
525,505,18.4146,-22.7738,0,0,0,0,0,0,0,-1,1749,519,18.4146,22.7738
532,505,17.2922,-20.1019,0,0,0,0,0,0,0,-1,1756,519,17.2923,20.1019
539,505,13.9879,-13.9018,0,0,0,0,0,0,0,-1,1763,519,13.988,13.9018
546,505,7.94946,-6.64539,0,0,0,0,0,0,0,-1,1770,519,7.94947,6.64539
553,505,2.82837,0.162659,0,0,0,0,0,0,0,-1,1777,519,2.82841,-0.162672
560,505,3.66223,-0.479797,0,0,0,0,0,0,0,-1,1784,519,3.66219,0.47982
567,505,4.65271,-0.950256,0,0,0,0,0,0,0,-1,1791,519,4.65274,0.95028
574,505,5.54443,-1.19977,0,0,0,0,0,0,0,-1,1798,519,5.54443,1.19974
581,505,0,0,0,0,0,0,0,0,0,-1,1805,519,0,0
588,505,0,0,0,0,0,0,0,0,0,-1,1812,519,0,0
595,505,0,0,0,0,0,0,0,0,0,-1,1819,519,0,0
602,505,0,0,0,0,0,0,0,0,0,-1,1826,519,0,0
609,505,0,0,0,0,0,0,0,0,0,-1,1833,519,0,0
616,505,0,0,0,0,0,0,0,0,0,-1,1840,519,0,0
623,505,0,0,0,0,0,0,0,0,0,-1,1847,519,0,0
630,505,0,0,0,0,0,0,0,0,0,-1,1854,519,0,0
637,505,0,0,0,0,0,0,0,0,0,-1,1861,519,0,0
644,505,0,0,0,0,0,0,0,0,0,-1,1868,519,0,0
651,505,0,0,0,0,0,0,0,0,0,-1,1875,519,0,0
658,505,0,0,0,0,0,0,0,0,0,-1,1882,519,0,0
665,505,0,0,0,0,0,0,0,0,0,-1,1889,519,0,0
672,505,0,0,0,0,0,0,0,0,0,-1,1896,519,0,0
679,505,0,0,0,0,0,0,0,0,0,-1,1903,519,0,0
686,505,0,0,0,0,0,0,0,0,0,-1,1910,519,0,0
693,505,0,0,0,0,0,0,0,0,0,-1,1917,519,0,0
700,505,0,0,0,0,0,0,0,0,0,-1,1924,519,0,0
707,505,0,0,0,0,0,0,0,0,0,-1,1931,519,0,0
714,505,0,0,0,0,0,0,0,0,0,-1,1938,519,0,0
721,505,0,0,0,0,0,0,0,0,0,-1,1945,519,0,0
728,505,0,0,0,0,0,0,0,0,0,-1,1952,519,0,0
735,505,0,0,0,0,0,0,0,0,0,-1,1959,519,0,0
742,505,0,0,0,0,0,0,0,0,0,-1,1966,519,0,0
749,505,0,0,0,0,0,0,0,0,0,-1,1973,519,0,0
756,505,0,0,0,0,0,0,0,0,0,-1,1980,519,0,0
763,505,0,0,0,0,0,0,0,0,0,-1,1987,519,0,0
770,505,0,0,0,0,0,0,0,0,0,-1,1994,519,0,0
777,505,0,0,0,0,0,0,0,0,0,-1,2001,519,0,0
784,505,0,0,0,0,0,0,0,0,0,-1,2008,519,0,0
791,505,0,0,0,0,0,0,0,0,0,-1,2015,519,0,0
798,505,0,0,0,0,0,0,0,0,0,-1,2022,519,0,0
805,505,0,0,0,0,0,0,0,0,0,-1,2029,519,0,0
812,505,0,0,0,0,0,0,0,0,0,-1,2036,519,0,0
-700,498,0,0,0,0,0,0,0,0,0,-1,524,526,0,0
-693,498,0,0,0,0,0,0,0,0,0,-1,531,526,0,0
-686,498,0,0,0,0,0,0,0,0,0,-1,538,526,0,0
-679,498,0,0,0,0,0,0,0,0,0,-1,545,526,0,0
-672,498,0,0,0,0,0,0,0,0,0,-1,552,526,0,0
-665,498,0,0,0,0,0,0,0,0,0,-1,559,526,0,0
-658,498,0,0,0,0,0,0,0,0,0,-1,566,526,0,0
-651,498,0,0,0,0,0,0,0,0,0,-1,573,526,0,0
-644,498,0,0,0,0,0,0,0,0,0,-1,580,526,0,0
-637,498,0,0,0,0,0,0,0,0,0,-1,587,526,0,0
-630,498,0,0,0,0,0,0,0,0,0,-1,594,526,0,0
-623,498,0,0,0,0,0,0,0,0,0,-1,601,526,0,0
-616,498,0,0,0,0,0,0,0,0,0,-1,608,526,0,0
-609,498,0,0,0,0,0,0,0,0,0,-1,615,526,0,0
-602,498,0,0,0,0,0,0,0,0,0,-1,622,526,0,0
-595,498,0,0,0,0,0,0,0,0,0,-1,629,526,0,0
-588,498,0,0,0,0,0,0,0,0,0,-1,636,526,0,0
-581,498,0,0,0,0,0,0,0,0,0,-1,643,526,0,0
-574,498,0,0,0,0,0,0,0,0,0,-1,650,526,0,0
-567,498,0,0,0,0,0,0,0,0,0,-1,657,526,0,0
-560,498,0,0,0,0,0,0,0,0,0,-1,664,526,0,0
-553,498,0,0,0,0,0,0,0,0,0,-1,671,526,0,0
-546,498,0,0,0,0,0,0,0,0,0,-1,678,526,0,0
-539,498,0,0,0,0,0,0,0,0,0,-1,685,526,0,0
-532,498,0,0,0,0,0,0,0,0,0,-1,692,526,0,0
-525,498,0,0,0,0,0,0,0,0,0,-1,699,526,0,0
-518,498,0,0,0,0,0,0,0,0,0,-1,706,526,0,0
-511,498,0,0,0,0,0,0,0,0,0,-1,713,526,0,0
-504,498,0,0,0,0,0,0,0,0,0,-1,720,526,0,0
-497,498,0,0,0,0,0,0,0,0,0,-1,727,526,0,0
-490,498,0,0,0,0,0,0,0,0,0,-1,734,526,0,0
-483,498,0,0,0,0,0,0,0,0,0,-1,741,526,0,0
-476,498,0,0,0,0,0,0,0,0,0,-1,748,526,0,0
-469,498,0,0,0,0,0,0,0,0,0,-1,755,526,0,0
-462,498,6.81024,1.15515,0,0,0,0,0,0,0,-1,762,526,6.81026,-1.15514
-455,498,3.25757,-3.0592,0,0,0,0,0,0,0,-1,769,526,3.25754,3.05921
-448,498,3.05939,-3.74298,0,0,0,0,0,0,0,-1,776,526,3.05939,3.74296
-441,498,2.77191,-6.08209,0,0,0,0,0,0,0,-1,783,526,2.77189,6.08207
-434,498,2.10681,-6.95929,0,0,0,0,0,0,0,-1,790,526,2.10682,6.9593
-427,498,-0.368042,-10.7726,0,0,0,0,0,0,0,-1,797,526,-0.36807,10.7726
-420,498,-1.05035,-10.5142,0,0,0,0,0,0,0,-1,804,526,-1.05034,10.5142
-413,498,-4.52112,-18.8354,0,0,0,0,0,0,0,-1,811,526,-4.52111,18.8354
-406,498,-4.37256,-22.3851,0,0,0,0,0,0,0,-1,818,526,-4.37258,22.3852
-399,498,-4.41644,-23.3901,0.00422164,0.0147916,-0.00672266,0.018058,0.000955303,-1.11852,0.0117332,0.0296062,825,526,-4.41646,23.3901
-392,498,-4.50342,-24.3269,0.00411098,0.0127198,-0.0061265,0.0159028,0.00092793,-1.09163,0.0103065,0.0154317,832,526,-4.5034,24.3269
-385,498,-4.5387,-25.1671,0.00396276,0.0107687,-0.00542894,0.013773,0.000958424,-1.06535,0.00887981,0.00954509,839,526,-4.53867,25.1671
-378,498,-4.59589,-26.0239,0.00377589,0.00891025,-0.00473112,0.0117258,0.000960331,-1.03398,0.00751757,0.0109011,846,526,-4.59592,26.0239
-371,498,-4.65686,-26.8689,0.00347173,0.00707401,-0.00406272,0.00971695,0.000828791,-0.994046,0.00622013,0.0169854,853,526,-4.65688,26.8689
-364,498,-4.70447,-27.7266,0.00305675,0.00517519,-0.00326567,0.00754912,0.000682822,-0.94222,0.00482129,0.0166249,860,526,-4.70444,27.7265
-357,498,-4.70929,-28.558,0.00259234,0.00352644,-0.00245291,0.00555637,0.000562415,-0.879475,0.00353173,0.0113425,867,526,-4.70928,28.558
-350,498,-4.78546,-29.3623,0.00210852,0.00197894,-0.0016694,0.00371439,0.000373069,-0.766002,0.00236175,0.0121139,874,526,-4.78546,29.3623
-343,498,-4.83429,-30.2047,0.00167102,0.000477414,-0.000901466,0.00215534,-6.89994e-06,-0.493002,0.0014392,0.0155413,881,526,-4.83429,30.2047
-336,498,-4.8338,-31.0305,0.00124358,-0.000871179,-0.00016134,0.00125582,-0.000883418,-0.0757085,0.00124131,0.020466,888,526,-4.83377,31.0305
-329,498,-4.84882,-31.7573,0.000912233,-0.00202606,0.000554687,0.00101346,-0.00212729,0.180505,0.00185093,0.0267514,895,526,-4.84879,31.7573
-322,498,-4.9328,-32.5517,0.000777572,-0.00284055,0.00113181,0.00110245,-0.00316542,0.279527,0.00255821,0.0285183,902,526,-4.93279,32.5517
-315,498,-4.99139,-33.3665,0.00101287,-0.00320169,0.00166616,0.00159198,-0.0037808,0.334512,0.00318663,0.0211515,909,526,-4.99137,33.3665
-308,498,-5.01031,-34.1202,0.00178304,-0.00332111,0.00206985,0.0025169,-0.00405497,0.34072,0.00382875,0.0221224,916,526,-5.01032,34.1202
-301,498,-5.0307,-34.9506,0,0,0,0,0,0,0,-1,923,526,-5.03073,34.9506
-294,498,-4.74579,-34.9152,0,0,0,0,0,0,0,-1,930,526,-4.7458,34.9152
-287,498,-0.91394,-13.4327,0,0,0,0,0,0,0,-1,937,526,-0.913935,13.4327
-280,498,-0.341614,-8.66608,0,0,0,0,0,0,0,-1,944,526,-0.341589,8.66606
-273,498,-0.988892,-8.62921,0,0,0,0,0,0,0,-1,951,526,-0.988906,8.62922
-266,498,0.362488,-6.33545,0,0,0,0,0,0,0,-1,958,526,0.362478,6.33547
-259,498,10.9454,-17.3615,0,0,0,0,0,0,0,-1,965,526,10.9454,17.3614
-252,498,8.56586,-14.6886,0,0,0,0,0,0,0,-1,972,526,8.56584,14.6886
-245,498,5.97382,-11.928,0,0,0,0,0,0,0,-1,979,526,5.97381,11.928
-238,498,2.24841,-13.8145,0,0,0,0,0,0,0,-1,986,526,2.24838,13.8145
-231,498,0.665894,-10.4898,0,0,0,0,0,0,0,-1,993,526,0.665863,10.4898
-224,498,-2.11243,-4.76312,0,0,0,0,0,0,0,-1,1000,526,-2.11245,4.76314
-217,498,-3.82239,-1.42841,0,0,0,0,0,0,0,-1,1007,526,-3.82241,1.42843
-210,498,-1.80591,-0.358215,0,0,0,0,0,0,0,-1,1014,526,-1.8059,0.3582
-203,498,-3.17316,1.06641,0,0,0,0,0,0,0,-1,1021,526,-3.17313,-1.0664
-196,498,-0.103271,5.40527,0,0,0,0,0,0,0,-1,1028,526,-0.103285,-5.40528
-189,498,3.00256,6.47137,0,0,0,0,0,0,0,-1,1035,526,3.00256,-6.47139
-182,498,0,0,0,0,0,0,0,0,0,-1,1042,526,0,0
-175,498,0,0,0,0,0,0,0,0,0,-1,1049,526,0,0
-168,498,0,0,0,0,0,0,0,0,0,-1,1056,526,0,0
-161,498,0,0,0,0,0,0,0,0,0,-1,1063,526,0,0
-154,498,0,0,0,0,0,0,0,0,0,-1,1070,526,0,0
-147,498,0,0,0,0,0,0,0,0,0,-1,1077,526,0,0
-140,498,0,0,0,0,0,0,0,0,0,-1,1084,526,0,0
-133,498,0,0,0,0,0,0,0,0,0,-1,1091,526,0,0
-126,498,0,0,0,0,0,0,0,0,0,-1,1098,526,0,0
-119,498,0,0,0,0,0,0,0,0,0,-1,1105,526,0,0
-112,498,0,0,0,0,0,0,0,0,0,-1,1112,526,0,0
-105,498,0,0,0,0,0,0,0,0,0,-1,1119,526,0,0
-98,498,0,0,0,0,0,0,0,0,0,-1,1126,526,0,0
-91,498,0,0,0,0,0,0,0,0,0,-1,1133,526,0,0
-84,498,0,0,0,0,0,0,0,0,0,-1,1140,526,0,0
-77,498,0,0,0,0,0,0,0,0,0,-1,1147,526,0,0
-70,498,0,0,0,0,0,0,0,0,0,-1,1154,526,0,0
-63,498,0,0,0,0,0,0,0,0,0,-1,1161,526,0,0
-56,498,0,0,0,0,0,0,0,0,0,-1,1168,526,0,0
-49,498,0,0,0,0,0,0,0,0,0,-1,1175,526,0,0
-42,498,0,0,0,0,0,0,0,0,0,-1,1182,526,0,0
-35,498,0,0,0,0,0,0,0,0,0,-1,1189,526,0,0
-28,498,0,0,0,0,0,0,0,0,0,-1,1196,526,0,0
-21,498,0,0,0,0,0,0,0,0,0,-1,1203,526,0,0
-14,498,0,0,0,0,0,0,0,0,0,-1,1210,526,0,0
-7,498,0,0,0,0,0,0,0,0,0,-1,1217,526,0,0
0,498,0,0,0,0,0,0,0,0,0,-1,1224,526,0,0
7,498,0,0,0,0,0,0,0,0,0,-1,1231,526,0,0
14,498,0,0,0,0,0,0,0,0,0,-1,1238,526,0,0
21,498,0,0,0,0,0,0,0,0,0,-1,1245,526,0,0
28,498,0,0,0,0,0,0,0,0,0,-1,1252,526,0,0
35,498,0,0,0,0,0,0,0,0,0,-1,1259,526,0,0
42,498,0,0,0,0,0,0,0,0,0,-1,1266,526,0,0
49,498,0,0,0,0,0,0,0,0,0,-1,1273,526,0,0
56,498,0,0,0,0,0,0,0,0,0,-1,1280,526,0,0
63,498,0,0,0,0,0,0,0,0,0,-1,1287,526,0,0
70,498,0,0,0,0,0,0,0,0,0,-1,1294,526,0,0
77,498,0,0,0,0,0,0,0,0,0,-1,1301,526,0,0
84,498,0,0,0,0,0,0,0,0,0,-1,1308,526,0,0
91,498,0,0,0,0,0,0,0,0,0,-1,1315,526,0,0
98,498,0,0,0,0,0,0,0,0,0,-1,1322,526,0,0
105,498,0,0,0,0,0,0,0,0,0,-1,1329,526,0,0
112,498,0,0,0,0,0,0,0,0,0,-1,1336,526,0,0
119,498,0,0,0,0,0,0,0,0,0,-1,1343,526,0,0
126,498,0,0,0,0,0,0,0,0,0,-1,1350,526,0,0
133,498,0,0,0,0,0,0,0,0,0,-1,1357,526,0,0
140,498,0,0,0,0,0,0,0,0,0,-1,1364,526,0,0
147,498,0,0,0,0,0,0,0,0,0,-1,1371,526,0,0
154,498,0,0,0,0,0,0,0,0,0,-1,1378,526,0,0
161,498,0,0,0,0,0,0,0,0,0,-1,1385,526,0,0
168,498,0,0,0,0,0,0,0,0,0,-1,1392,526,0,0
175,498,0,0,0,0,0,0,0,0,0,-1,1399,526,0,0
182,498,0,0,0,0,0,0,0,0,0,-1,1406,526,0,0
189,498,0,0,0,0,0,0,0,0,0,-1,1413,526,0,0
196,498,0,0,0,0,0,0,0,0,0,-1,1420,526,0,0
203,498,0,0,0,0,0,0,0,0,0,-1,1427,526,0,0
210,498,0,0,0,0,0,0,0,0,0,-1,1434,526,0,0
217,498,0,0,0,0,0,0,0,0,0,-1,1441,526,0,0
224,498,0,0,0,0,0,0,0,0,0,-1,1448,526,0,0
231,498,0,0,0,0,0,0,0,0,0,-1,1455,526,0,0
238,498,0,0,0,0,0,0,0,0,0,-1,1462,526,0,0
245,498,0,0,0,0,0,0,0,0,0,-1,1469,526,0,0
252,498,0,0,0,0,0,0,0,0,0,-1,1476,526,0,0
259,498,0,0,0,0,0,0,0,0,0,-1,1483,526,0,0
266,498,0,0,0,0,0,0,0,0,0,-1,1490,526,0,0
273,498,0,0,0,0,0,0,0,0,0,-1,1497,526,0,0
280,498,0,0,0,0,0,0,0,0,0,-1,1504,526,0,0
287,498,0,0,0,0,0,0,0,0,0,-1,1511,526,0,0
294,498,0,0,0,0,0,0,0,0,0,-1,1518,526,0,0
301,498,0,0,0,0,0,0,0,0,0,-1,1525,526,0,0
308,498,4.77942,-0.293884,0,0,0,0,0,0,0,-1,1532,526,4.77939,0.293899
315,498,4.56091,-0.564148,0,0,0,0,0,0,0,-1,1539,526,4.56097,0.564142
322,498,4.52344,-0.447266,0,0,0,0,0,0,0,-1,1546,526,4.52341,0.447295
329,498,4.63232,-0.156982,0,0,0,0,0,0,0,-1,1553,526,4.63238,0.156991
336,498,5.22644,0.0925903,0,0,0,0,0,0,0,-1,1560,526,5.22648,-0.0926188
343,498,6.22607,-1.67615,0,0,0,0,0,0,0,-1,1567,526,6.22605,1.67617
350,498,6.19373,-1.59906,0,0,0,0,0,0,0,-1,1574,526,6.19367,1.59906
357,498,6.21472,-1.58929,0,0,0,0,0,0,0,-1,1581,526,6.21476,1.58927
364,498,5.73547,-1.2019,0,0,0,0,0,0,0,-1,1588,526,5.73547,1.20192
371,498,3.27087,-4.55334,0,0,0,0,0,0,0,-1,1595,526,3.27089,4.55332
378,498,8.42944,-4.70624,0,0,0,0,0,0,0,-1,1602,526,8.42942,4.70624
385,498,4.7793,-5.15314,0,0,0,0,0,0,0,-1,1609,526,4.77935,5.15311
392,498,9.12439,-8.57953,0,0,0,0,0,0,0,-1,1616,526,9.12443,8.57955
399,498,7.98938,-9.46021,0,0,0,0,0,0,0,-1,1623,526,7.98936,9.4602
406,498,7.58081,-9.26819,0,0,0,0,0,0,0,-1,1630,526,7.58085,9.26817
413,498,7.17236,-9.07611,0,0,0,0,0,0,0,-1,1637,526,7.17234,9.07614
420,498,11.4314,-16.1147,0,0,0,0,0,0,0,-1,1644,526,11.4313,16.1147
427,498,19.415,-34.5853,0,0,0,0,0,0,0,-1,1651,526,19.4151,34.5854
434,498,19.3746,-33.6086,0.00229957,0.000194814,-0.0015327,0.0031064,-0.000612025,-0.484556,0.00230222,0.0380986,1658,526,19.3746,33.6086
441,498,19.434,-32.7668,0.00185116,0.000150596,-0.00138547,0.00262646,-0.000624706,-0.510178,0.00199213,0.0128626,1665,526,19.434,32.7668
448,498,19.4031,-31.959,0.0016112,0.000266248,-0.00109582,0.00222443,-0.000346986,-0.510192,0.00161112,0.0112197,1672,526,19.4031,31.959
455,498,19.3634,-31.155,0.00141593,0.000444917,-0.000790559,0.00185817,2.68465e-06,-0.510025,0.00123788,0.0147247,1679,526,19.3635,31.155
462,498,19.3539,-30.3493,0.00126724,0.000663454,-0.000468209,0.00152245,0.000408248,-0.499048,0.000909939,0.0163306,1686,526,19.3539,30.3493
469,498,19.285,-29.5505,0.00131775,0.000926516,9.0514e-06,0.00131796,0.000926307,0.023119,0.000781516,0.0139139,1693,526,19.2851,29.5504
476,498,19.2379,-28.7263,0.00145772,0.00115038,0.000529057,0.00185497,0.000753129,0.644058,0.00107726,0.0106289,1700,526,19.238,28.7262
483,498,19.203,-27.9017,0.00167024,0.00131479,0.00107942,0.00258647,0.000398563,0.703805,0.00160801,0.00872437,1707,526,19.203,27.9018
490,498,19.1577,-27.0781,0.00176202,0.00141476,0.0015208,0.00311907,5.77169e-05,0.728559,0.00206041,0.0109273,1714,526,19.1578,27.0781
497,498,19.1099,-26.2188,0.00192702,0.0014994,0.00198488,0.00370957,-0.000283158,0.731746,0.00257264,0.0128768,1721,526,19.1098,26.2188
504,498,19.0603,-25.3489,0.00212873,0.00136745,0.00237421,0.00415262,-0.000656444,0.705913,0.00301117,0.0143725,1728,526,19.0603,25.3489
511,498,18.9861,-24.4771,0.00218051,0.00117678,0.00266044,0.00438601,-0.00102871,0.692174,0.00332046,0.0154845,1735,526,18.9861,24.4771
518,498,19.0388,-23.6103,0.00200185,0.000944285,0.00275873,0.00428201,-0.00133588,0.690709,0.0033889,0.0220545,1742,526,19.0388,23.6103
525,498,18.8728,-22.7991,0.0016179,0.00058436,0.00270908,0.00385906,-0.0016568,0.691153,0.0032681,0.038455,1749,526,18.8728,22.7991
532,498,18.8361,-21.8973,0,0,0,0,0,0,0,-1,1756,526,18.8361,21.8973
539,498,18.3168,-20.9863,0,0,0,0,0,0,0,-1,1763,526,18.3168,20.9863
546,498,10.2014,-8.47589,0,0,0,0,0,0,0,-1,1770,526,10.2014,8.47589
553,498,5.93958,-1.71448,0,0,0,0,0,0,0,-1,1777,526,5.93956,1.71447
560,498,3.69385,-0.615112,0,0,0,0,0,0,0,-1,1784,526,3.69381,0.615118
567,498,5.12695,-0.581604,0,0,0,0,0,0,0,-1,1791,526,5.12699,0.58159
574,498,3.88,0.0286255,0,0,0,0,0,0,0,-1,1798,526,3.87999,-0.0286535
581,498,10.8722,2.58551,0,0,0,0,0,0,0,-1,1805,526,10.8723,-2.58551
588,498,0,0,0,0,0,0,0,0,0,-1,1812,526,0,0
595,498,0,0,0,0,0,0,0,0,0,-1,1819,526,0,0
602,498,0,0,0,0,0,0,0,0,0,-1,1826,526,0,0
609,498,0,0,0,0,0,0,0,0,0,-1,1833,526,0,0
616,498,0,0,0,0,0,0,0,0,0,-1,1840,526,0,0
623,498,0,0,0,0,0,0,0,0,0,-1,1847,526,0,0
630,498,0,0,0,0,0,0,0,0,0,-1,1854,526,0,0
637,498,0,0,0,0,0,0,0,0,0,-1,1861,526,0,0
644,498,0,0,0,0,0,0,0,0,0,-1,1868,526,0,0
651,498,0,0,0,0,0,0,0,0,0,-1,1875,526,0,0
658,498,0,0,0,0,0,0,0,0,0,-1,1882,526,0,0
665,498,0,0,0,0,0,0,0,0,0,-1,1889,526,0,0
672,498,0,0,0,0,0,0,0,0,0,-1,1896,526,0,0
679,498,0,0,0,0,0,0,0,0,0,-1,1903,526,0,0
686,498,0,0,0,0,0,0,0,0,0,-1,1910,526,0,0
693,498,0,0,0,0,0,0,0,0,0,-1,1917,526,0,0
700,498,0,0,0,0,0,0,0,0,0,-1,1924,526,0,0
707,498,0,0,0,0,0,0,0,0,0,-1,1931,526,0,0
714,498,0,0,0,0,0,0,0,0,0,-1,1938,526,0,0
721,498,0,0,0,0,0,0,0,0,0,-1,1945,526,0,0
728,498,0,0,0,0,0,0,0,0,0,-1,1952,526,0,0
735,498,0,0,0,0,0,0,0,0,0,-1,1959,526,0,0
742,498,0,0,0,0,0,0,0,0,0,-1,1966,526,0,0
749,498,0,0,0,0,0,0,0,0,0,-1,1973,526,0,0
756,498,0,0,0,0,0,0,0,0,0,-1,1980,526,0,0
763,498,0,0,0,0,0,0,0,0,0,-1,1987,526,0,0
770,498,0,0,0,0,0,0,0,0,0,-1,1994,526,0,0
777,498,0,0,0,0,0,0,0,0,0,-1,2001,526,0,0
784,498,0,0,0,0,0,0,0,0,0,-1,2008,526,0,0
791,498,0,0,0,0,0,0,0,0,0,-1,2015,526,0,0
798,498,0,0,0,0,0,0,0,0,0,-1,2022,526,0,0
805,498,0,0,0,0,0,0,0,0,0,-1,2029,526,0,0
812,498,0,0,0,0,0,0,0,0,0,-1,2036,526,0,0
-700,491,0,0,0,0,0,0,0,0,0,-1,524,533,0,0
-693,491,0,0,0,0,0,0,0,0,0,-1,531,533,0,0
-686,491,0,0,0,0,0,0,0,0,0,-1,538,533,0,0
-679,491,0,0,0,0,0,0,0,0,0,-1,545,533,0,0
-672,491,0,0,0,0,0,0,0,0,0,-1,552,533,0,0
-665,491,0,0,0,0,0,0,0,0,0,-1,559,533,0,0
-658,491,0,0,0,0,0,0,0,0,0,-1,566,533,0,0
-651,491,0,0,0,0,0,0,0,0,0,-1,573,533,0,0
-644,491,0,0,0,0,0,0,0,0,0,-1,580,533,0,0
-637,491,0,0,0,0,0,0,0,0,0,-1,587,533,0,0
-630,491,0,0,0,0,0,0,0,0,0,-1,594,533,0,0
-623,491,0,0,0,0,0,0,0,0,0,-1,601,533,0,0
-616,491,0,0,0,0,0,0,0,0,0,-1,608,533,0,0
-609,491,0,0,0,0,0,0,0,0,0,-1,615,533,0,0
-602,491,0,0,0,0,0,0,0,0,0,-1,622,533,0,0
-595,491,0,0,0,0,0,0,0,0,0,-1,629,533,0,0
-588,491,0,0,0,0,0,0,0,0,0,-1,636,533,0,0
-581,491,0,0,0,0,0,0,0,0,0,-1,643,533,0,0
-574,491,0,0,0,0,0,0,0,0,0,-1,650,533,0,0
-567,491,0,0,0,0,0,0,0,0,0,-1,657,533,0,0
-560,491,0,0,0,0,0,0,0,0,0,-1,664,533,0,0
-553,491,0,0,0,0,0,0,0,0,0,-1,671,533,0,0
-546,491,0,0,0,0,0,0,0,0,0,-1,678,533,0,0
-539,491,0,0,0,0,0,0,0,0,0,-1,685,533,0,0
-532,491,0,0,0,0,0,0,0,0,0,-1,692,533,0,0
-525,491,0,0,0,0,0,0,0,0,0,-1,699,533,0,0
-518,491,0,0,0,0,0,0,0,0,0,-1,706,533,0,0
-511,491,0,0,0,0,0,0,0,0,0,-1,713,533,0,0
-504,491,0,0,0,0,0,0,0,0,0,-1,720,533,0,0
-497,491,0,0,0,0,0,0,0,0,0,-1,727,533,0,0
-490,491,0,0,0,0,0,0,0,0,0,-1,734,533,0,0
-483,491,0,0,0,0,0,0,0,0,0,-1,741,533,0,0
-476,491,0,0,0,0,0,0,0,0,0,-1,748,533,0,0
-469,491,-5.85913,4.55011,0,0,0,0,0,0,0,-1,755,533,-5.8591,-4.55009
-462,491,-9.93713,4.90381,0,0,0,0,0,0,0,-1,762,533,-9.93716,-4.9038
-455,491,1.9494,-0.27887,0,0,0,0,0,0,0,-1,769,533,1.94941,0.27885
-448,491,2.68909,-1.8999,0,0,0,0,0,0,0,-1,776,533,2.6891,1.89988
-441,491,3.46069,-3.51855,0,0,0,0,0,0,0,-1,783,533,3.46071,3.51854
-434,491,2.67145,-7.44061,0,0,0,0,0,0,0,-1,790,533,2.67146,7.44061
-427,491,2.27136,-8.34546,0,0,0,0,0,0,0,-1,797,533,2.27136,8.34546
-420,491,-5.63605,-20.2184,0,0,0,0,0,0,0,-1,804,533,-5.63603,20.2184
-413,491,-5.24371,-21.5056,0,0,0,0,0,0,0,-1,811,533,-5.24369,21.5056
-406,491,-5.1958,-22.5817,0.00179371,0.012493,-0.00674718,0.015754,-0.00146729,-1.12059,0.0110243,0.0277952,818,533,-5.19582,22.5817
-399,491,-5.21564,-23.5166,0.0017446,0.0105836,-0.0061976,0.0137761,-0.00144787,-1.09513,0.00970276,0.0136241,825,533,-5.21563,23.5166
-392,491,-5.31671,-24.3474,0.0017522,0.0088628,-0.00561967,0.0119574,-0.00134237,-1.06744,0.00845464,0.0113466,832,533,-5.31668,24.3474
-385,491,-5.35516,-25.1489,0.00182171,0.00727319,-0.0049486,0.0101971,-0.00110218,-1.03713,0.00719365,0.00925667,839,533,-5.35515,25.1489
-378,491,-5.40326,-25.9774,0.00188537,0.00574962,-0.00420191,0.00844234,-0.000807344,-1.00089,0.00591573,0.0138333,846,533,-5.40324,25.9774
-371,491,-5.45984,-26.8151,0.00188079,0.00425137,-0.00345769,0.00672129,-0.000589127,-0.95052,0.00468958,0.0152754,853,533,-5.45982,26.8151
-364,491,-5.50305,-27.671,0.00182629,0.00268366,-0.00256778,0.00485829,-0.000348347,-0.868109,0.003361,0.013519,860,533,-5.50303,27.671
-357,491,-5.52991,-28.4896,0.00175982,0.00134731,-0.00165871,0.00322506,-0.000117923,-0.723542,0.0021904,0.0120522,867,533,-5.5299,28.4896
-350,491,-5.59796,-29.288,0.00168639,8.56507e-05,-0.000786034,0.00200782,-0.000235783,-0.388181,0.00142366,0.016177,874,533,-5.59795,29.288
-343,491,-5.60571,-30.1189,0.00162552,-0.00114439,6.73154e-05,0.00162715,-0.00114602,0.0242833,0.00160911,0.0268451,881,533,-5.60573,30.1189
-336,491,-5.64636,-30.9221,0.00153709,-0.00229034,0.000888565,0.00173331,-0.00248657,0.217347,0.00244925,0.0277405,888,533,-5.64634,30.9221
-329,491,-5.6861,-31.6885,0.00148707,-0.00330692,0.00167336,0.00201338,-0.00383323,0.304727,0.00342962,0.0282901,895,533,-5.68611,31.6885
-322,491,-5.75775,-32.4858,0.00162872,-0.00387801,0.00220861,0.00240509,-0.00465437,0.338025,0.00414417,0.0250939,902,533,-5.75777,32.4859
-315,491,-5.79614,-33.2241,0.00199059,-0.00420419,0.00244604,0.00283997,-0.00505356,0.334218,0.00461668,0.0225186,909,533,-5.79616,33.2241
-308,491,-5.75983,-34.1766,0,0,0,0,0,0,0,-1,916,533,-5.75985,34.1767
-301,491,-5.66852,-34.481,0,0,0,0,0,0,0,-1,923,533,-5.66849,34.481
-294,491,-0.777283,-8.60913,0,0,0,0,0,0,0,-1,930,533,-0.777288,8.6091
-287,491,-0.26123,-8.69055,0,0,0,0,0,0,0,-1,937,533,-0.261204,8.69053
-280,491,0.2948,-5.99219,0,0,0,0,0,0,0,-1,944,533,0.294811,5.99221
-273,491,0.369995,-5.33691,0,0,0,0,0,0,0,-1,951,533,0.369985,5.33693
-266,491,1.1167,-5.0321,0,0,0,0,0,0,0,-1,958,533,1.11668,5.0321
-259,491,12.0862,-16.9615,0,0,0,0,0,0,0,-1,965,533,12.0862,16.9615
-252,491,9.72443,-13.8417,0,0,0,0,0,0,0,-1,972,533,9.72444,13.8418
-245,491,5.27258,-14.3619,0,0,0,0,0,0,0,-1,979,533,5.27255,14.3619
-238,491,3.65381,-11.1472,0,0,0,0,0,0,0,-1,986,533,3.6538,11.1472
-231,491,2.17719,-7.86835,0,0,0,0,0,0,0,-1,993,533,2.17719,7.86832
-224,491,0.554626,-4.61725,0,0,0,0,0,0,0,-1,1000,533,0.554608,4.61727
-217,491,-2.92743,-1.0766,0,0,0,0,0,0,0,-1,1007,533,-2.92743,1.07659
-210,491,-0.92395,0.374512,0,0,0,0,0,0,0,-1,1014,533,-0.923959,-0.374531
-203,491,0.417419,4.77161,0,0,0,0,0,0,0,-1,1021,533,0.417446,-4.77162
-196,491,0,0,0,0,0,0,0,0,0,-1,1028,533,0,0
-189,491,0,0,0,0,0,0,0,0,0,-1,1035,533,0,0
-182,491,0,0,0,0,0,0,0,0,0,-1,1042,533,0,0
-175,491,0,0,0,0,0,0,0,0,0,-1,1049,533,0,0
-168,491,0,0,0,0,0,0,0,0,0,-1,1056,533,0,0
-161,491,0,0,0,0,0,0,0,0,0,-1,1063,533,0,0
-154,491,0,0,0,0,0,0,0,0,0,-1,1070,533,0,0
-147,491,0,0,0,0,0,0,0,0,0,-1,1077,533,0,0
-140,491,0,0,0,0,0,0,0,0,0,-1,1084,533,0,0
-133,491,0,0,0,0,0,0,0,0,0,-1,1091,533,0,0
-126,491,0,0,0,0,0,0,0,0,0,-1,1098,533,0,0
-119,491,0,0,0,0,0,0,0,0,0,-1,1105,533,0,0
-112,491,0,0,0,0,0,0,0,0,0,-1,1112,533,0,0
-105,491,0,0,0,0,0,0,0,0,0,-1,1119,533,0,0
-98,491,0,0,0,0,0,0,0,0,0,-1,1126,533,0,0
-91,491,0,0,0,0,0,0,0,0,0,-1,1133,533,0,0
-84,491,0,0,0,0,0,0,0,0,0,-1,1140,533,0,0
-77,491,0,0,0,0,0,0,0,0,0,-1,1147,533,0,0
-70,491,0,0,0,0,0,0,0,0,0,-1,1154,533,0,0
-63,491,0,0,0,0,0,0,0,0,0,-1,1161,533,0,0
-56,491,0,0,0,0,0,0,0,0,0,-1,1168,533,0,0
-49,491,0,0,0,0,0,0,0,0,0,-1,1175,533,0,0
-42,491,0,0,0,0,0,0,0,0,0,-1,1182,533,0,0
-35,491,0,0,0,0,0,0,0,0,0,-1,1189,533,0,0
-28,491,0,0,0,0,0,0,0,0,0,-1,1196,533,0,0
-21,491,0,0,0,0,0,0,0,0,0,-1,1203,533,0,0
-14,491,0,0,0,0,0,0,0,0,0,-1,1210,533,0,0
-7,491,0,0,0,0,0,0,0,0,0,-1,1217,533,0,0
0,491,0,0,0,0,0,0,0,0,0,-1,1224,533,0,0
7,491,0,0,0,0,0,0,0,0,0,-1,1231,533,0,0
14,491,0,0,0,0,0,0,0,0,0,-1,1238,533,0,0
21,491,0,0,0,0,0,0,0,0,0,-1,1245,533,0,0
28,491,0,0,0,0,0,0,0,0,0,-1,1252,533,0,0
35,491,0,0,0,0,0,0,0,0,0,-1,1259,533,0,0
42,491,0,0,0,0,0,0,0,0,0,-1,1266,533,0,0
49,491,0,0,0,0,0,0,0,0,0,-1,1273,533,0,0
56,491,0,0,0,0,0,0,0,0,0,-1,1280,533,0,0
63,491,0,0,0,0,0,0,0,0,0,-1,1287,533,0,0
70,491,0,0,0,0,0,0,0,0,0,-1,1294,533,0,0
77,491,0,0,0,0,0,0,0,0,0,-1,1301,533,0,0
84,491,0,0,0,0,0,0,0,0,0,-1,1308,533,0,0
91,491,0,0,0,0,0,0,0,0,0,-1,1315,533,0,0
98,491,0,0,0,0,0,0,0,0,0,-1,1322,533,0,0
105,491,0,0,0,0,0,0,0,0,0,-1,1329,533,0,0
112,491,0,0,0,0,0,0,0,0,0,-1,1336,533,0,0
119,491,0,0,0,0,0,0,0,0,0,-1,1343,533,0,0
126,491,0,0,0,0,0,0,0,0,0,-1,1350,533,0,0
133,491,0,0,0,0,0,0,0,0,0,-1,1357,533,0,0
140,491,0,0,0,0,0,0,0,0,0,-1,1364,533,0,0
147,491,0,0,0,0,0,0,0,0,0,-1,1371,533,0,0
154,491,0,0,0,0,0,0,0,0,0,-1,1378,533,0,0
161,491,0,0,0,0,0,0,0,0,0,-1,1385,533,0,0
168,491,0,0,0,0,0,0,0,0,0,-1,1392,533,0,0
175,491,0,0,0,0,0,0,0,0,0,-1,1399,533,0,0
182,491,0,0,0,0,0,0,0,0,0,-1,1406,533,0,0
189,491,0,0,0,0,0,0,0,0,0,-1,1413,533,0,0
196,491,0,0,0,0,0,0,0,0,0,-1,1420,533,0,0
203,491,0,0,0,0,0,0,0,0,0,-1,1427,533,0,0
210,491,0,0,0,0,0,0,0,0,0,-1,1434,533,0,0
217,491,0,0,0,0,0,0,0,0,0,-1,1441,533,0,0
224,491,0,0,0,0,0,0,0,0,0,-1,1448,533,0,0
231,491,0,0,0,0,0,0,0,0,0,-1,1455,533,0,0
238,491,0,0,0,0,0,0,0,0,0,-1,1462,533,0,0
245,491,0,0,0,0,0,0,0,0,0,-1,1469,533,0,0
252,491,0,0,0,0,0,0,0,0,0,-1,1476,533,0,0
259,491,0,0,0,0,0,0,0,0,0,-1,1483,533,0,0
266,491,0,0,0,0,0,0,0,0,0,-1,1490,533,0,0
273,491,0,0,0,0,0,0,0,0,0,-1,1497,533,0,0
280,491,0,0,0,0,0,0,0,0,0,-1,1504,533,0,0
287,491,0,0,0,0,0,0,0,0,0,-1,1511,533,0,0
294,491,0,0,0,0,0,0,0,0,0,-1,1518,533,0,0
301,491,0,0,0,0,0,0,0,0,0,-1,1525,533,0,0
308,491,0,0,0,0,0,0,0,0,0,-1,1532,533,0,0
315,491,0,0,0,0,0,0,0,0,0,-1,1539,533,0,0
322,491,4.26331,-0.734314,0,0,0,0,0,0,0,-1,1546,533,4.26326,0.734324
329,491,4.25354,-0.783752,0,0,0,0,0,0,0,-1,1553,533,4.25359,0.783734
336,491,4.81604,-0.722107,0,0,0,0,0,0,0,-1,1560,533,4.81605,0.722115
343,491,6.14478,-1.44281,0,0,0,0,0,0,0,-1,1567,533,6.14474,1.44281
350,491,6.36353,-1.30792,0,0,0,0,0,0,0,-1,1574,533,6.36352,1.3079
357,491,6.69482,-1.06018,0,0,0,0,0,0,0,-1,1581,533,6.69489,1.06018
364,491,8.01086,-1.69604,0,0,0,0,0,0,0,-1,1588,533,8.01087,1.69607
371,491,8.2135,-0.539307,0,0,0,0,0,0,0,-1,1595,533,8.21348,0.53929
378,491,13.3589,2.17267,0,0,0,0,0,0,0,-1,1602,533,13.3589,-2.17264
385,491,8.08228,-4.95471,0,0,0,0,0,0,0,-1,1609,533,8.08227,4.95474
392,491,2.88721,-4.30988,0,0,0,0,0,0,0,-1,1616,533,2.88716,4.30986
399,491,8.95862,-8.55518,0,0,0,0,0,0,0,-1,1623,533,8.95864,8.55516
406,491,8.16541,-9.00806,0,0,0,0,0,0,0,-1,1630,533,8.16535,9.00807
413,491,5.31848,-3.7124,0,0,0,0,0,0,0,-1,1637,533,5.31849,3.7124
420,491,4.86389,-3.95892,0,0,0,0,0,0,0,-1,1644,533,4.86387,3.95893
427,491,11.5096,-15.2742,0,0,0,0,0,0,0,-1,1651,533,11.5096,15.2742
434,491,20.2927,-33.2106,0,0,0,0,0,0,0,-1,1658,533,20.2927,33.2106
441,491,20.2578,-32.5032,0.00161022,-0.00042112,-0.0021794,0.00299899,-0.00180989,-0.567345,0.00280456,0.0337299,1665,533,20.2578,32.5031
448,491,20.2202,-31.9323,0.00139872,-0.00016454,-0.00184335,0.00261931,-0.00138513,-0.584875,0.00234828,0.0208038,1672,533,20.2203,31.9323
455,491,20.1655,-31.095,0.00126359,0.000141185,-0.00151025,0.00231353,-0.000908763,-0.607507,0.00191842,0.0145554,1679,533,20.1656,31.095
462,491,20.1602,-30.2848,0.00104857,0.000402532,-0.00121352,0.00198133,-0.000530224,-0.655322,0.00152859,0.0157069,1686,533,20.1601,30.2848
469,491,20.0908,-29.4997,0.0010062,0.000675551,-0.000707104,0.00156705,0.000114703,-0.670558,0.00100864,0.0149751,1693,533,20.0908,29.4997
476,491,20.0682,-28.6814,0.0011277,0.000892611,-0.000159823,0.00120855,0.00081176,-0.468335,0.000711333,0.0112884,1700,533,20.0682,28.6814
483,491,20.0298,-27.8373,0.00130692,0.00104436,0.000392308,0.00158933,0.000761944,0.623937,0.000917857,0.0124599,1707,533,20.0298,27.8373
490,491,19.9734,-27.0259,0.00135351,0.00119243,0.00083322,0.00211007,0.000435867,0.737217,0.00128628,0.0110596,1714,533,19.9733,27.026
497,491,19.91,-26.1915,0.0014436,0.00135025,0.00131628,0.00271403,7.98221e-05,0.767676,0.00178334,0.0123056,1721,533,19.91,26.1915
504,491,19.8878,-25.3133,0.00156552,0.00122263,0.00170053,0.00310322,-0.000315074,0.735159,0.00218144,0.0136228,1728,533,19.8879,25.3133
511,491,19.8248,-24.4366,0.00153028,0.00107338,0.00197379,0.00328879,-0.000685136,0.727784,0.00245301,0.0130537,1735,533,19.8248,24.4366
518,491,19.7792,-23.6188,0.0012719,0.000904037,0.00208677,0.00318282,-0.00100689,0.741441,0.00252533,0.0107959,1742,533,19.7792,23.6188
525,491,19.7572,-22.775,0.000880021,0.000647083,0.00209481,0.0028616,-0.0013345,0.757627,0.00247552,0.0116521,1749,533,19.7572,22.775
532,491,19.7068,-21.919,0.000327644,0.000407018,0.00201216,0.00237988,-0.00164522,0.795259,0.00233676,0.0269652,1756,533,19.7068,21.919
539,491,19.5115,-21.1783,-0.000537901,0.000201006,0.00169258,0.00156399,-0.00190089,0.892852,0.0020036,0.0476353,1763,533,19.5114,21.1784
546,491,19.1566,-20.1898,0,0,0,0,0,0,0,-1,1770,533,19.1566,20.1897
553,491,10.5021,-7.77869,0,0,0,0,0,0,0,-1,1777,533,10.502,7.77871
560,491,6.28455,-1.43585,0,0,0,0,0,0,0,-1,1784,533,6.28458,1.43586
567,491,5.67651,-1.3562,0,0,0,0,0,0,0,-1,1791,533,5.67649,1.3562
574,491,8.0719,1.58325,0,0,0,0,0,0,0,-1,1798,533,8.07195,-1.58326
581,491,9.44812,1.60931,0,0,0,0,0,0,0,-1,1805,533,9.44808,-1.60933
588,491,11.0497,1.54962,0,0,0,0,0,0,0,-1,1812,533,11.0496,-1.54963
595,491,0,0,0,0,0,0,0,0,0,-1,1819,533,0,0
602,491,0,0,0,0,0,0,0,0,0,-1,1826,533,0,0
609,491,0,0,0,0,0,0,0,0,0,-1,1833,533,0,0
616,491,0,0,0,0,0,0,0,0,0,-1,1840,533,0,0
623,491,0,0,0,0,0,0,0,0,0,-1,1847,533,0,0
630,491,0,0,0,0,0,0,0,0,0,-1,1854,533,0,0
637,491,0,0,0,0,0,0,0,0,0,-1,1861,533,0,0
644,491,0,0,0,0,0,0,0,0,0,-1,1868,533,0,0
651,491,0,0,0,0,0,0,0,0,0,-1,1875,533,0,0
658,491,0,0,0,0,0,0,0,0,0,-1,1882,533,0,0
665,491,0,0,0,0,0,0,0,0,0,-1,1889,533,0,0
672,491,0,0,0,0,0,0,0,0,0,-1,1896,533,0,0
679,491,0,0,0,0,0,0,0,0,0,-1,1903,533,0,0
686,491,0,0,0,0,0,0,0,0,0,-1,1910,533,0,0
693,491,0,0,0,0,0,0,0,0,0,-1,1917,533,0,0
700,491,0,0,0,0,0,0,0,0,0,-1,1924,533,0,0
707,491,0,0,0,0,0,0,0,0,0,-1,1931,533,0,0
714,491,0,0,0,0,0,0,0,0,0,-1,1938,533,0,0
721,491,0,0,0,0,0,0,0,0,0,-1,1945,533,0,0
728,491,0,0,0,0,0,0,0,0,0,-1,1952,533,0,0
735,491,0,0,0,0,0,0,0,0,0,-1,1959,533,0,0
742,491,0,0,0,0,0,0,0,0,0,-1,1966,533,0,0
749,491,0,0,0,0,0,0,0,0,0,-1,1973,533,0,0
756,491,0,0,0,0,0,0,0,0,0,-1,1980,533,0,0
763,491,0,0,0,0,0,0,0,0,0,-1,1987,533,0,0
770,491,0,0,0,0,0,0,0,0,0,-1,1994,533,0,0
777,491,0,0,0,0,0,0,0,0,0,-1,2001,533,0,0
784,491,0,0,0,0,0,0,0,0,0,-1,2008,533,0,0
791,491,0,0,0,0,0,0,0,0,0,-1,2015,533,0,0
798,491,0,0,0,0,0,0,0,0,0,-1,2022,533,0,0
805,491,0,0,0,0,0,0,0,0,0,-1,2029,533,0,0
812,491,0,0,0,0,0,0,0,0,0,-1,2036,533,0,0
-700,484,0,0,0,0,0,0,0,0,0,-1,524,540,0,0
-693,484,0,0,0,0,0,0,0,0,0,-1,531,540,0,0
-686,484,0,0,0,0,0,0,0,0,0,-1,538,540,0,0
-679,484,0,0,0,0,0,0,0,0,0,-1,545,540,0,0
-672,484,0,0,0,0,0,0,0,0,0,-1,552,540,0,0
-665,484,0,0,0,0,0,0,0,0,0,-1,559,540,0,0
-658,484,0,0,0,0,0,0,0,0,0,-1,566,540,0,0
-651,484,0,0,0,0,0,0,0,0,0,-1,573,540,0,0
-644,484,0,0,0,0,0,0,0,0,0,-1,580,540,0,0
-637,484,0,0,0,0,0,0,0,0,0,-1,587,540,0,0
-630,484,0,0,0,0,0,0,0,0,0,-1,594,540,0,0
-623,484,0,0,0,0,0,0,0,0,0,-1,601,540,0,0
-616,484,0,0,0,0,0,0,0,0,0,-1,608,540,0,0
-609,484,0,0,0,0,0,0,0,0,0,-1,615,540,0,0
-602,484,0,0,0,0,0,0,0,0,0,-1,622,540,0,0
-595,484,0,0,0,0,0,0,0,0,0,-1,629,540,0,0
-588,484,0,0,0,0,0,0,0,0,0,-1,636,540,0,0
-581,484,0,0,0,0,0,0,0,0,0,-1,643,540,0,0
-574,484,0,0,0,0,0,0,0,0,0,-1,650,540,0,0
-567,484,0,0,0,0,0,0,0,0,0,-1,657,540,0,0
-560,484,0,0,0,0,0,0,0,0,0,-1,664,540,0,0
-553,484,0,0,0,0,0,0,0,0,0,-1,671,540,0,0
-546,484,0,0,0,0,0,0,0,0,0,-1,678,540,0,0
-539,484,0,0,0,0,0,0,0,0,0,-1,685,540,0,0
-532,484,0,0,0,0,0,0,0,0,0,-1,692,540,0,0
-525,484,0,0,0,0,0,0,0,0,0,-1,699,540,0,0
-518,484,0,0,0,0,0,0,0,0,0,-1,706,540,0,0
-511,484,0,0,0,0,0,0,0,0,0,-1,713,540,0,0
-504,484,0,0,0,0,0,0,0,0,0,-1,720,540,0,0
-497,484,0,0,0,0,0,0,0,0,0,-1,727,540,0,0
-490,484,0,0,0,0,0,0,0,0,0,-1,734,540,0,0
-483,484,0,0,0,0,0,0,0,0,0,-1,741,540,0,0
-476,484,-8.46552,1.44702,0,0,0,0,0,0,0,-1,748,540,-8.46554,-1.44702
-469,484,-7.82343,1.70355,0,0,0,0,0,0,0,-1,755,540,-7.82345,-1.70355
-462,484,-8.36987,3.08612,0,0,0,0,0,0,0,-1,762,540,-8.36988,-3.0861
-455,484,-6.77197,2.07092,0,0,0,0,0,0,0,-1,769,540,-6.77197,-2.07094
-448,484,3.54895,-1.40106,0,0,0,0,0,0,0,-1,776,540,3.54897,1.40106
-441,484,4.28906,-3.05884,0,0,0,0,0,0,0,-1,783,540,4.28905,3.05883
-434,484,-2.17548,-5.07245,0,0,0,0,0,0,0,-1,790,540,-2.17546,5.07243
-427,484,-5.83704,-19.4307,0,0,0,0,0,0,0,-1,797,540,-5.83705,19.4307
-420,484,-5.79791,-20.5414,0,0,0,0,0,0,0,-1,804,540,-5.79792,20.5414
-413,484,-5.86554,-21.5781,0.00108527,0.0111393,-0.00522393,0.0133622,-0.00113756,-1.16849,0.00931048,0.0332817,811,540,-5.86555,21.5781
-406,484,-5.96338,-22.5688,0.00116995,0.00938773,-0.00492282,0.0116911,-0.00113342,-1.13316,0.00819804,0.0187043,818,540,-5.96335,22.5688
-399,484,-6.06934,-23.4389,0.00115268,0.00772004,-0.00442815,0.00994917,-0.00107645,-1.10443,0.00701916,0.0170537,825,540,-6.06935,23.4389
-392,484,-6.13165,-24.2728,0.00122715,0.00621981,-0.00391483,0.00836649,-0.000919528,-1.06922,0.00590807,0.0193653,832,540,-6.13168,24.2728
-385,484,-6.17493,-25.117,0.00139503,0.0048475,-0.00336565,0.00690379,-0.000661266,-1.02235,0.00483803,0.0136961,839,540,-6.17496,25.117
-378,484,-6.24084,-25.9531,0.00153631,0.00351069,-0.0027243,0.00542115,-0.000374148,-0.959221,0.00374505,0.0152565,846,540,-6.24087,25.9531
-371,484,-6.28406,-26.7673,0.00162165,0.00221115,-0.00209284,0.00402989,-0.0001971,-0.855356,0.00275465,0.0171798,853,540,-6.28408,26.7673
-364,484,-6.33228,-27.595,0.00167171,0.000863469,-0.00134919,0.002676,-0.000140821,-0.639886,0.00183275,0.0124473,860,540,-6.3323,27.595
-357,484,-6.37152,-28.4152,0.00171858,-0.00027296,-0.000610945,0.00189106,-0.000445442,-0.275158,0.00143246,0.0132066,867,540,-6.37149,28.4152
-350,484,-6.43463,-29.2182,0.00176028,-0.00134302,7.75273e-05,0.00176222,-0.00134496,0.0249614,0.00179931,0.0159471,874,540,-6.43462,29.2182
-343,484,-6.46332,-30.0313,0.00178178,-0.00235641,0.000755224,0.0019153,-0.00248994,0.174988,0.00255057,0.0228967,881,540,-6.46329,30.0313
-336,484,-6.49951,-30.818,0.0017614,-0.00333892,0.00142063,0.0021304,-0.00370792,0.25413,0.00341153,0.0255552,888,540,-6.4995,30.818
-329,484,-6.55768,-31.6007,0.00176532,-0.00423254,0.00206984,0.00241026,-0.00487749,0.302056,0.0042872,0.0364316,895,540,-6.5577,31.6007
-322,484,-6.50458,-32.3911,0,0,0,0,0,0,0,-1,902,540,-6.5046,32.391
-315,484,-6.38611,-33.2155,0,0,0,0,0,0,0,-1,909,540,-6.3861,33.2155
-308,484,-1.32623,-8.9317,0,0,0,0,0,0,0,-1,916,540,-1.32626,8.93173
-301,484,-1.33453,-6.52667,0,0,0,0,0,0,0,-1,923,540,-1.33454,6.5267
-294,484,-1.61224,-8.17059,0,0,0,0,0,0,0,-1,930,540,-1.61227,8.17058
-287,484,-0.715759,-5.62103,0,0,0,0,0,0,0,-1,937,540,-0.715772,5.62105
-280,484,2.66742,-1.6795,0,0,0,0,0,0,0,-1,944,540,2.6674,1.67949
-273,484,2.53125,-2.22296,0,0,0,0,0,0,0,-1,951,540,2.53128,2.22295
-266,484,2.6778,-2.72058,0,0,0,0,0,0,0,-1,958,540,2.6778,2.72061
-259,484,2.41718,-2.59894,0,0,0,0,0,0,0,-1,965,540,2.41717,2.59892
-252,484,10.6069,-11.696,0,0,0,0,0,0,0,-1,972,540,10.6069,11.696
-245,484,6.34106,-11.6107,0,0,0,0,0,0,0,-1,979,540,6.34104,11.6107
-238,484,4.89319,-8.54059,0,0,0,0,0,0,0,-1,986,540,4.89321,8.5406
-231,484,3.47675,-5.22064,0,0,0,0,0,0,0,-1,993,540,3.47676,5.22067
-224,484,1.71344,-2.03473,0,0,0,0,0,0,0,-1,1000,540,1.71342,2.03472
-217,484,-0.745056,1.17358,0,0,0,0,0,0,0,-1,1007,540,-0.745043,-1.17359
-210,484,0,0,0,0,0,0,0,0,0,-1,1014,540,0,0
-203,484,0,0,0,0,0,0,0,0,0,-1,1021,540,0,0
-196,484,0,0,0,0,0,0,0,0,0,-1,1028,540,0,0
-189,484,0,0,0,0,0,0,0,0,0,-1,1035,540,0,0
-182,484,0,0,0,0,0,0,0,0,0,-1,1042,540,0,0
-175,484,0,0,0,0,0,0,0,0,0,-1,1049,540,0,0
-168,484,0,0,0,0,0,0,0,0,0,-1,1056,540,0,0
-161,484,0,0,0,0,0,0,0,0,0,-1,1063,540,0,0
-154,484,0,0,0,0,0,0,0,0,0,-1,1070,540,0,0
-147,484,0,0,0,0,0,0,0,0,0,-1,1077,540,0,0
-140,484,0,0,0,0,0,0,0,0,0,-1,1084,540,0,0
-133,484,0,0,0,0,0,0,0,0,0,-1,1091,540,0,0
-126,484,0,0,0,0,0,0,0,0,0,-1,1098,540,0,0
-119,484,0,0,0,0,0,0,0,0,0,-1,1105,540,0,0
-112,484,0,0,0,0,0,0,0,0,0,-1,1112,540,0,0
-105,484,0,0,0,0,0,0,0,0,0,-1,1119,540,0,0
-98,484,0,0,0,0,0,0,0,0,0,-1,1126,540,0,0
-91,484,0,0,0,0,0,0,0,0,0,-1,1133,540,0,0
-84,484,0,0,0,0,0,0,0,0,0,-1,1140,540,0,0
-77,484,0,0,0,0,0,0,0,0,0,-1,1147,540,0,0
-70,484,0,0,0,0,0,0,0,0,0,-1,1154,540,0,0
-63,484,0,0,0,0,0,0,0,0,0,-1,1161,540,0,0
-56,484,0,0,0,0,0,0,0,0,0,-1,1168,540,0,0
-49,484,0,0,0,0,0,0,0,0,0,-1,1175,540,0,0
-42,484,0,0,0,0,0,0,0,0,0,-1,1182,540,0,0
-35,484,0,0,0,0,0,0,0,0,0,-1,1189,540,0,0
-28,484,0,0,0,0,0,0,0,0,0,-1,1196,540,0,0
-21,484,0,0,0,0,0,0,0,0,0,-1,1203,540,0,0
-14,484,0,0,0,0,0,0,0,0,0,-1,1210,540,0,0
-7,484,0,0,0,0,0,0,0,0,0,-1,1217,540,0,0
0,484,0,0,0,0,0,0,0,0,0,-1,1224,540,0,0
7,484,0,0,0,0,0,0,0,0,0,-1,1231,540,0,0
14,484,0,0,0,0,0,0,0,0,0,-1,1238,540,0,0
21,484,0,0,0,0,0,0,0,0,0,-1,1245,540,0,0
28,484,0,0,0,0,0,0,0,0,0,-1,1252,540,0,0
35,484,0,0,0,0,0,0,0,0,0,-1,1259,540,0,0
42,484,0,0,0,0,0,0,0,0,0,-1,1266,540,0,0
49,484,0,0,0,0,0,0,0,0,0,-1,1273,540,0,0
56,484,0,0,0,0,0,0,0,0,0,-1,1280,540,0,0
63,484,0,0,0,0,0,0,0,0,0,-1,1287,540,0,0
70,484,0,0,0,0,0,0,0,0,0,-1,1294,540,0,0
77,484,0,0,0,0,0,0,0,0,0,-1,1301,540,0,0
84,484,0,0,0,0,0,0,0,0,0,-1,1308,540,0,0
91,484,0,0,0,0,0,0,0,0,0,-1,1315,540,0,0
98,484,0,0,0,0,0,0,0,0,0,-1,1322,540,0,0
105,484,0,0,0,0,0,0,0,0,0,-1,1329,540,0,0
112,484,0,0,0,0,0,0,0,0,0,-1,1336,540,0,0
119,484,0,0,0,0,0,0,0,0,0,-1,1343,540,0,0
126,484,0,0,0,0,0,0,0,0,0,-1,1350,540,0,0
133,484,0,0,0,0,0,0,0,0,0,-1,1357,540,0,0
140,484,0,0,0,0,0,0,0,0,0,-1,1364,540,0,0
147,484,0,0,0,0,0,0,0,0,0,-1,1371,540,0,0
154,484,0,0,0,0,0,0,0,0,0,-1,1378,540,0,0
161,484,0,0,0,0,0,0,0,0,0,-1,1385,540,0,0
168,484,0,0,0,0,0,0,0,0,0,-1,1392,540,0,0
175,484,0,0,0,0,0,0,0,0,0,-1,1399,540,0,0
182,484,0,0,0,0,0,0,0,0,0,-1,1406,540,0,0
189,484,0,0,0,0,0,0,0,0,0,-1,1413,540,0,0
196,484,0,0,0,0,0,0,0,0,0,-1,1420,540,0,0
203,484,0,0,0,0,0,0,0,0,0,-1,1427,540,0,0
210,484,0,0,0,0,0,0,0,0,0,-1,1434,540,0,0
217,484,0,0,0,0,0,0,0,0,0,-1,1441,540,0,0
224,484,0,0,0,0,0,0,0,0,0,-1,1448,540,0,0
231,484,0,0,0,0,0,0,0,0,0,-1,1455,540,0,0
238,484,0,0,0,0,0,0,0,0,0,-1,1462,540,0,0
245,484,0,0,0,0,0,0,0,0,0,-1,1469,540,0,0
252,484,0,0,0,0,0,0,0,0,0,-1,1476,540,0,0
259,484,0,0,0,0,0,0,0,0,0,-1,1483,540,0,0
266,484,0,0,0,0,0,0,0,0,0,-1,1490,540,0,0
273,484,0,0,0,0,0,0,0,0,0,-1,1497,540,0,0
280,484,0,0,0,0,0,0,0,0,0,-1,1504,540,0,0
287,484,0,0,0,0,0,0,0,0,0,-1,1511,540,0,0
294,484,0,0,0,0,0,0,0,0,0,-1,1518,540,0,0
301,484,0,0,0,0,0,0,0,0,0,-1,1525,540,0,0
308,484,0,0,0,0,0,0,0,0,0,-1,1532,540,0,0
315,484,0,0,0,0,0,0,0,0,0,-1,1539,540,0,0
322,484,0,0,0,0,0,0,0,0,0,-1,1546,540,0,0
329,484,0,0,0,0,0,0,0,0,0,-1,1553,540,0,0
336,484,4.38708,-1.64136,0,0,0,0,0,0,0,-1,1560,540,4.38704,1.64138
343,484,7.57996,-1.05457,0,0,0,0,0,0,0,-1,1567,540,7.57995,1.05454
350,484,8.10425,-1.18878,0,0,0,0,0,0,0,-1,1574,540,8.1043,1.18877
357,484,7.74902,-3.80286,0,0,0,0,0,0,0,-1,1581,540,7.74901,3.80287
364,484,6.31262,-3.87213,0,0,0,0,0,0,0,-1,1588,540,6.31263,3.87215
371,484,7.21008,0.973511,0,0,0,0,0,0,0,-1,1595,540,7.21014,-0.973541
378,484,11.0563,1.5014,0,0,0,0,0,0,0,-1,1602,540,11.0563,-1.5014
385,484,14.3469,2.5545,0,0,0,0,0,0,0,-1,1609,540,14.3469,-2.55453
392,484,7.39453,-4.95026,0,0,0,0,0,0,0,-1,1616,540,7.39448,4.95023
399,484,7.14417,-2.5639,0,0,0,0,0,0,0,-1,1623,540,7.14417,2.56391
406,484,7.88953,-2.47321,0,0,0,0,0,0,0,-1,1630,540,7.88954,2.47323
413,484,4.4895,-1.08673,0,0,0,0,0,0,0,-1,1637,540,4.48952,1.08674
420,484,4.50012,-2.11255,0,0,0,0,0,0,0,-1,1644,540,4.50012,2.11256
427,484,5.28601,-3.54053,0,0,0,0,0,0,0,-1,1651,540,5.28599,3.54051
434,484,11.1488,-13.5359,0,0,0,0,0,0,0,-1,1658,540,11.1489,13.5359
441,484,21.0251,-32.1693,0,0,0,0,0,0,0,-1,1665,540,21.0252,32.1692
448,484,21.0371,-31.9736,0,0,0,0,0,0,0,-1,1672,540,21.0371,31.9737
455,484,21.0167,-31.0813,0,0,0,0,0,0,0,-1,1679,540,21.0167,31.0813
462,484,20.9851,-30.2501,0.000937379,0.000184188,-0.00204947,0.00264457,-0.001523,-0.694535,0.00243502,0.028999,1686,540,20.9851,30.2501
469,484,20.9601,-29.464,0.000747552,0.000486829,-0.00143471,0.00205781,-0.00082343,-0.740091,0.00171362,0.0185494,1693,540,20.9601,29.464
476,484,20.8916,-28.5843,0.000843407,0.000711885,-0.000791814,0.00157219,-1.68942e-05,-0.743968,0.0010538,0.0172955,1700,540,20.8916,28.5843
483,484,20.8494,-27.7597,0.000996868,0.000853067,-0.000194257,0.0011321,0.000717832,-0.608151,0.000661406,0.0144521,1707,540,20.8493,27.7597
490,484,20.8097,-26.9795,0.00102805,0.00105978,0.000292041,0.00133639,0.000751443,0.812531,0.000773556,0.0140371,1714,540,20.8096,26.9795
497,484,20.7515,-26.139,0.00107039,0.00127674,0.000819782,0.00199982,0.00034732,0.847997,0.00123384,0.0147208,1721,540,20.7514,26.139
504,484,20.6952,-25.2635,0.00113562,0.00113966,0.00120615,0.00234379,-6.85032e-05,0.786236,0.00158586,0.0168945,1728,540,20.6952,25.2635
511,484,20.6833,-24.3989,0.00105403,0.00100885,0.00147222,0.00250383,-0.000440952,0.777726,0.00183396,0.0199641,1735,540,20.6834,24.399
518,484,20.6389,-23.5762,0.000777882,0.000875526,0.00160049,0.00242794,-0.000774533,0.800646,0.00192934,0.0170351,1742,540,20.6389,23.5762
525,484,20.5846,-22.7539,0.00041922,0.000695761,0.00164029,0.0022036,-0.00108862,0.827447,0.00193676,0.0148196,1749,540,20.5846,22.7539
532,484,20.5408,-21.8414,-3.50548e-05,0.000614871,0.00161932,0.00194151,-0.00136169,0.884422,0.00191687,0.016459,1756,540,20.5408,21.8414
539,484,20.4465,-20.9233,-0.000663109,0.000564248,0.00145768,0.00153216,-0.00163102,0.984636,0.00182656,0.0417202,1763,540,20.4465,20.9233
546,484,20.3771,-19.8948,0,0,0,0,0,0,0,-1,1770,540,20.377,19.8948
553,484,12.4246,-8.96423,0,0,0,0,0,0,0,-1,1777,540,12.4246,8.96422
560,484,10.0549,-5.47931,0,0,0,0,0,0,0,-1,1784,540,10.055,5.47928
567,484,7.78223,-1.38312,0,0,0,0,0,0,0,-1,1791,540,7.78224,1.38311
574,484,5.74463,1.50922,0,0,0,0,0,0,0,-1,1798,540,5.74463,-1.50924
581,484,10.34,2.9491,0,0,0,0,0,0,0,-1,1805,540,10.34,-2.94912
588,484,10.6669,2.88568,0,0,0,0,0,0,0,-1,1812,540,10.6669,-2.88567
595,484,10.7233,1.04767,0,0,0,0,0,0,0,-1,1819,540,10.7233,-1.04766
602,484,0,0,0,0,0,0,0,0,0,-1,1826,540,0,0
609,484,0,0,0,0,0,0,0,0,0,-1,1833,540,0,0
616,484,0,0,0,0,0,0,0,0,0,-1,1840,540,0,0
623,484,0,0,0,0,0,0,0,0,0,-1,1847,540,0,0
630,484,0,0,0,0,0,0,0,0,0,-1,1854,540,0,0
637,484,0,0,0,0,0,0,0,0,0,-1,1861,540,0,0
644,484,0,0,0,0,0,0,0,0,0,-1,1868,540,0,0
651,484,0,0,0,0,0,0,0,0,0,-1,1875,540,0,0
658,484,0,0,0,0,0,0,0,0,0,-1,1882,540,0,0
665,484,0,0,0,0,0,0,0,0,0,-1,1889,540,0,0
672,484,0,0,0,0,0,0,0,0,0,-1,1896,540,0,0
679,484,0,0,0,0,0,0,0,0,0,-1,1903,540,0,0
686,484,0,0,0,0,0,0,0,0,0,-1,1910,540,0,0
693,484,0,0,0,0,0,0,0,0,0,-1,1917,540,0,0
700,484,0,0,0,0,0,0,0,0,0,-1,1924,540,0,0
707,484,0,0,0,0,0,0,0,0,0,-1,1931,540,0,0
714,484,0,0,0,0,0,0,0,0,0,-1,1938,540,0,0
721,484,0,0,0,0,0,0,0,0,0,-1,1945,540,0,0
728,484,0,0,0,0,0,0,0,0,0,-1,1952,540,0,0
735,484,0,0,0,0,0,0,0,0,0,-1,1959,540,0,0
742,484,0,0,0,0,0,0,0,0,0,-1,1966,540,0,0
749,484,0,0,0,0,0,0,0,0,0,-1,1973,540,0,0
756,484,0,0,0,0,0,0,0,0,0,-1,1980,540,0,0
763,484,0,0,0,0,0,0,0,0,0,-1,1987,540,0,0
770,484,0,0,0,0,0,0,0,0,0,-1,1994,540,0,0
777,484,0,0,0,0,0,0,0,0,0,-1,2001,540,0,0
784,484,0,0,0,0,0,0,0,0,0,-1,2008,540,0,0
791,484,0,0,0,0,0,0,0,0,0,-1,2015,540,0,0
798,484,0,0,0,0,0,0,0,0,0,-1,2022,540,0,0
805,484,0,0,0,0,0,0,0,0,0,-1,2029,540,0,0
812,484,0,0,0,0,0,0,0,0,0,-1,2036,540,0,0
-700,477,0,0,0,0,0,0,0,0,0,-1,524,547,0,0
-693,477,0,0,0,0,0,0,0,0,0,-1,531,547,0,0
-686,477,0,0,0,0,0,0,0,0,0,-1,538,547,0,0
-679,477,0,0,0,0,0,0,0,0,0,-1,545,547,0,0
-672,477,0,0,0,0,0,0,0,0,0,-1,552,547,0,0
-665,477,0,0,0,0,0,0,0,0,0,-1,559,547,0,0
-658,477,0,0,0,0,0,0,0,0,0,-1,566,547,0,0
-651,477,0,0,0,0,0,0,0,0,0,-1,573,547,0,0
-644,477,0,0,0,0,0,0,0,0,0,-1,580,547,0,0
-637,477,0,0,0,0,0,0,0,0,0,-1,587,547,0,0
-630,477,0,0,0,0,0,0,0,0,0,-1,594,547,0,0
-623,477,0,0,0,0,0,0,0,0,0,-1,601,547,0,0
-616,477,0,0,0,0,0,0,0,0,0,-1,608,547,0,0
-609,477,0,0,0,0,0,0,0,0,0,-1,615,547,0,0
-602,477,0,0,0,0,0,0,0,0,0,-1,622,547,0,0
-595,477,0,0,0,0,0,0,0,0,0,-1,629,547,0,0
-588,477,0,0,0,0,0,0,0,0,0,-1,636,547,0,0
-581,477,0,0,0,0,0,0,0,0,0,-1,643,547,0,0
-574,477,0,0,0,0,0,0,0,0,0,-1,650,547,0,0
-567,477,0,0,0,0,0,0,0,0,0,-1,657,547,0,0
-560,477,0,0,0,0,0,0,0,0,0,-1,664,547,0,0
-553,477,0,0,0,0,0,0,0,0,0,-1,671,547,0,0
-546,477,0,0,0,0,0,0,0,0,0,-1,678,547,0,0
-539,477,0,0,0,0,0,0,0,0,0,-1,685,547,0,0
-532,477,0,0,0,0,0,0,0,0,0,-1,692,547,0,0
-525,477,0,0,0,0,0,0,0,0,0,-1,699,547,0,0
-518,477,0,0,0,0,0,0,0,0,0,-1,706,547,0,0
-511,477,0,0,0,0,0,0,0,0,0,-1,713,547,0,0
-504,477,0,0,0,0,0,0,0,0,0,-1,720,547,0,0
-497,477,0,0,0,0,0,0,0,0,0,-1,727,547,0,0
-490,477,0,0,0,0,0,0,0,0,0,-1,734,547,0,0
-483,477,-7.73151,-0.224182,0,0,0,0,0,0,0,-1,741,547,-7.73152,0.224176
-476,477,-6.25806,-0.310547,0,0,0,0,0,0,0,-1,748,547,-6.25804,0.310549
-469,477,-7.26617,0.525085,0,0,0,0,0,0,0,-1,755,547,-7.2662,-0.525111
-462,477,-6.65143,1.06042,0,0,0,0,0,0,0,-1,762,547,-6.65143,-1.06043
-455,477,-5.31757,0.429016,0,0,0,0,0,0,0,-1,769,547,-5.31756,-0.42902
-448,477,-4.0697,0.273376,0,0,0,0,0,0,0,-1,776,547,-4.06971,-0.273363
-441,477,-2.47504,-4.76971,0,0,0,0,0,0,0,-1,783,547,-2.47505,4.76973
-434,477,-6.43842,-19.2675,0,0,0,0,0,0,0,-1,790,547,-6.43842,19.2674
-427,477,-6.66644,-19.7443,0.000521317,0.0113942,-0.0035493,0.0124502,-0.000534735,-1.2816,0.00848402,0.0460715,797,547,-6.66646,19.7443
-420,477,-6.71948,-20.4126,0.000564876,0.00985637,-0.0037501,0.0111811,-0.000759825,-1.23123,0.0077198,0.037065,804,547,-6.71948,20.4126
-413,477,-6.72681,-21.5652,0.000658374,0.00834975,-0.00373859,0.00986749,-0.000859371,-1.18516,0.00688269,0.0215625,811,547,-6.72678,21.5652
-406,477,-6.84869,-22.5191,0.000701768,0.0068539,-0.00346361,0.00841019,-0.000854526,-1.1485,0.00591226,0.0119216,818,547,-6.84871,22.5191
-399,477,-6.90918,-23.3561,0.000709452,0.00545431,-0.00305014,0.00694604,-0.000782285,-1.11593,0.00491226,0.0199273,825,547,-6.90918,23.3561
-392,477,-6.96796,-24.2209,0.000832745,0.00416912,-0.00262245,0.005609,-0.000607135,-1.06868,0.00395726,0.0187346,832,547,-6.96795,24.2209
-385,477,-6.97156,-25.0809,0.00107867,0.00299757,-0.00219165,0.00443058,-0.000354338,-0.991718,0.00307864,0.0168133,839,547,-6.97158,25.0809
-378,477,-7.05267,-25.9103,0.0013005,0.00183407,-0.00165559,0.00324424,-0.000109665,-0.865283,0.00220029,0.0146607,846,547,-7.05267,25.9103
-371,477,-7.10846,-26.706,0.00150825,0.000726027,-0.00112764,0.00231068,-7.63997e-05,-0.618469,0.00156654,0.0141072,853,547,-7.10847,26.706
-364,477,-7.15582,-27.5211,0.0017229,-0.000387485,-0.000526478,0.00184695,-0.000511534,-0.2314,0.00143258,0.0143509,860,547,-7.15582,27.5211
-357,477,-7.21338,-28.3424,0.00196324,-0.00133635,4.48294e-05,0.00196384,-0.00133695,0.013583,0.00191714,0.011744,867,547,-7.2134,28.3424
-350,477,-7.25964,-29.1462,0.00221748,-0.00224461,0.000558547,0.00228633,-0.00231346,0.122655,0.00265571,0.0108314,874,547,-7.25964,29.1462
-343,477,-7.22772,-30.0026,0.00243264,-0.00308394,0.00108527,0.00263847,-0.00328977,0.187427,0.00342955,0.0210737,881,547,-7.22769,30.0026
-336,477,-7.14081,-30.8135,0.00260836,-0.00394961,0.00163314,0.00299255,-0.0043338,0.231049,0.00425344,0.0438635,888,547,-7.14081,30.8135
-329,477,-6.97876,-31.591,0,0,0,0,0,0,0,-1,895,547,-6.97874,31.591
-322,477,-5.91638,-27.4468,0,0,0,0,0,0,0,-1,902,547,-5.91639,27.4468
-315,477,-1.67358,-9.15253,0,0,0,0,0,0,0,-1,909,547,-1.67356,9.15253
-308,477,-1.30127,-6.55188,0,0,0,0,0,0,0,-1,916,547,-1.30128,6.55185
-301,477,-1.21185,-6.28351,0,0,0,0,0,0,0,-1,923,547,-1.21184,6.28352
-294,477,-0.352905,3.27142,0,0,0,0,0,0,0,-1,930,547,-0.35292,-3.27144
-287,477,3.54364,2.15399,0,0,0,0,0,0,0,-1,937,547,3.54362,-2.15396
-280,477,1.97308,-0.954163,0,0,0,0,0,0,0,-1,944,547,1.9731,0.954178
-273,477,2.11621,-3.76709,0,0,0,0,0,0,0,-1,951,547,2.11619,3.76706
-266,477,2.04669,-3.42389,0,0,0,0,0,0,0,-1,958,547,2.04671,3.42391
-259,477,-1.33478,-3.41205,0,0,0,0,0,0,0,-1,965,547,-1.3348,3.41206
-252,477,0.597168,-5.32922,0,0,0,0,0,0,0,-1,972,547,0.597144,5.32924
-245,477,8.2309,-8.48492,0,0,0,0,0,0,0,-1,979,547,8.23091,8.48494
-238,477,6.60938,-5.64063,0,0,0,0,0,0,0,-1,986,547,6.60938,5.64063
-231,477,4.71716,-2.52484,0,0,0,0,0,0,0,-1,993,547,4.71716,2.52483
-224,477,0,0,0,0,0,0,0,0,0,-1,1000,547,0,0
-217,477,0,0,0,0,0,0,0,0,0,-1,1007,547,0,0
-210,477,0,0,0,0,0,0,0,0,0,-1,1014,547,0,0
-203,477,0,0,0,0,0,0,0,0,0,-1,1021,547,0,0
-196,477,0,0,0,0,0,0,0,0,0,-1,1028,547,0,0
-189,477,0,0,0,0,0,0,0,0,0,-1,1035,547,0,0
-182,477,0,0,0,0,0,0,0,0,0,-1,1042,547,0,0
-175,477,0,0,0,0,0,0,0,0,0,-1,1049,547,0,0
-168,477,0,0,0,0,0,0,0,0,0,-1,1056,547,0,0
-161,477,0,0,0,0,0,0,0,0,0,-1,1063,547,0,0
-154,477,0,0,0,0,0,0,0,0,0,-1,1070,547,0,0
-147,477,0,0,0,0,0,0,0,0,0,-1,1077,547,0,0
-140,477,0,0,0,0,0,0,0,0,0,-1,1084,547,0,0
-133,477,0,0,0,0,0,0,0,0,0,-1,1091,547,0,0
-126,477,0,0,0,0,0,0,0,0,0,-1,1098,547,0,0
-119,477,0,0,0,0,0,0,0,0,0,-1,1105,547,0,0
-112,477,0,0,0,0,0,0,0,0,0,-1,1112,547,0,0
-105,477,0,0,0,0,0,0,0,0,0,-1,1119,547,0,0
-98,477,0,0,0,0,0,0,0,0,0,-1,1126,547,0,0
-91,477,0,0,0,0,0,0,0,0,0,-1,1133,547,0,0
-84,477,0,0,0,0,0,0,0,0,0,-1,1140,547,0,0
-77,477,0,0,0,0,0,0,0,0,0,-1,1147,547,0,0
-70,477,0,0,0,0,0,0,0,0,0,-1,1154,547,0,0
-63,477,0,0,0,0,0,0,0,0,0,-1,1161,547,0,0
-56,477,0,0,0,0,0,0,0,0,0,-1,1168,547,0,0
-49,477,0,0,0,0,0,0,0,0,0,-1,1175,547,0,0
-42,477,0,0,0,0,0,0,0,0,0,-1,1182,547,0,0
-35,477,0,0,0,0,0,0,0,0,0,-1,1189,547,0,0
-28,477,0,0,0,0,0,0,0,0,0,-1,1196,547,0,0
-21,477,0,0,0,0,0,0,0,0,0,-1,1203,547,0,0
-14,477,0,0,0,0,0,0,0,0,0,-1,1210,547,0,0
-7,477,0,0,0,0,0,0,0,0,0,-1,1217,547,0,0
0,477,0,0,0,0,0,0,0,0,0,-1,1224,547,0,0
7,477,0,0,0,0,0,0,0,0,0,-1,1231,547,0,0
14,477,0,0,0,0,0,0,0,0,0,-1,1238,547,0,0
21,477,0,0,0,0,0,0,0,0,0,-1,1245,547,0,0
28,477,0,0,0,0,0,0,0,0,0,-1,1252,547,0,0
35,477,0,0,0,0,0,0,0,0,0,-1,1259,547,0,0
42,477,0,0,0,0,0,0,0,0,0,-1,1266,547,0,0
49,477,0,0,0,0,0,0,0,0,0,-1,1273,547,0,0
56,477,0,0,0,0,0,0,0,0,0,-1,1280,547,0,0
63,477,0,0,0,0,0,0,0,0,0,-1,1287,547,0,0
70,477,0,0,0,0,0,0,0,0,0,-1,1294,547,0,0
77,477,0,0,0,0,0,0,0,0,0,-1,1301,547,0,0
84,477,0,0,0,0,0,0,0,0,0,-1,1308,547,0,0
91,477,0,0,0,0,0,0,0,0,0,-1,1315,547,0,0
98,477,0,0,0,0,0,0,0,0,0,-1,1322,547,0,0
105,477,0,0,0,0,0,0,0,0,0,-1,1329,547,0,0
112,477,0,0,0,0,0,0,0,0,0,-1,1336,547,0,0
119,477,0,0,0,0,0,0,0,0,0,-1,1343,547,0,0
126,477,0,0,0,0,0,0,0,0,0,-1,1350,547,0,0
133,477,0,0,0,0,0,0,0,0,0,-1,1357,547,0,0
140,477,0,0,0,0,0,0,0,0,0,-1,1364,547,0,0
147,477,0,0,0,0,0,0,0,0,0,-1,1371,547,0,0
154,477,0,0,0,0,0,0,0,0,0,-1,1378,547,0,0
161,477,0,0,0,0,0,0,0,0,0,-1,1385,547,0,0
168,477,0,0,0,0,0,0,0,0,0,-1,1392,547,0,0
175,477,0,0,0,0,0,0,0,0,0,-1,1399,547,0,0
182,477,0,0,0,0,0,0,0,0,0,-1,1406,547,0,0
189,477,0,0,0,0,0,0,0,0,0,-1,1413,547,0,0
196,477,0,0,0,0,0,0,0,0,0,-1,1420,547,0,0
203,477,0,0,0,0,0,0,0,0,0,-1,1427,547,0,0
210,477,0,0,0,0,0,0,0,0,0,-1,1434,547,0,0
217,477,0,0,0,0,0,0,0,0,0,-1,1441,547,0,0
224,477,0,0,0,0,0,0,0,0,0,-1,1448,547,0,0
231,477,0,0,0,0,0,0,0,0,0,-1,1455,547,0,0
238,477,0,0,0,0,0,0,0,0,0,-1,1462,547,0,0
245,477,0,0,0,0,0,0,0,0,0,-1,1469,547,0,0
252,477,0,0,0,0,0,0,0,0,0,-1,1476,547,0,0
259,477,0,0,0,0,0,0,0,0,0,-1,1483,547,0,0
266,477,0,0,0,0,0,0,0,0,0,-1,1490,547,0,0
273,477,0,0,0,0,0,0,0,0,0,-1,1497,547,0,0
280,477,0,0,0,0,0,0,0,0,0,-1,1504,547,0,0
287,477,0,0,0,0,0,0,0,0,0,-1,1511,547,0,0
294,477,0,0,0,0,0,0,0,0,0,-1,1518,547,0,0
301,477,0,0,0,0,0,0,0,0,0,-1,1525,547,0,0
308,477,0,0,0,0,0,0,0,0,0,-1,1532,547,0,0
315,477,0,0,0,0,0,0,0,0,0,-1,1539,547,0,0
322,477,0,0,0,0,0,0,0,0,0,-1,1546,547,0,0
329,477,0,0,0,0,0,0,0,0,0,-1,1553,547,0,0
336,477,0,0,0,0,0,0,0,0,0,-1,1560,547,0,0
343,477,0,0,0,0,0,0,0,0,0,-1,1567,547,0,0
350,477,1.7699,-3.32275,0,0,0,0,0,0,0,-1,1574,547,1.7699,3.32272
357,477,3.073,-4.83313,0,0,0,0,0,0,0,-1,1581,547,3.07303,4.83316
364,477,4.30127,-4.22864,0,0,0,0,0,0,0,-1,1588,547,4.30125,4.22865
371,477,4.57703,0.283264,0,0,0,0,0,0,0,-1,1595,547,4.57706,-0.283262
378,477,8.57947,1.05969,0,0,0,0,0,0,0,-1,1602,547,8.5795,-1.05972
385,477,12.3726,2.02356,0,0,0,0,0,0,0,-1,1609,547,12.3725,-2.02355
392,477,16.4678,2.76843,0,0,0,0,0,0,0,-1,1616,547,16.4678,-2.76845
399,477,8.00037,-2.29523,0,0,0,0,0,0,0,-1,1623,547,8.00031,2.2952
406,477,4.82495,2.7475,0,0,0,0,0,0,0,-1,1630,547,4.825,-2.74752
413,477,4.88171,-0.336426,0,0,0,0,0,0,0,-1,1637,547,4.88169,0.336398
420,477,3.34875,0.102722,0,0,0,0,0,0,0,-1,1644,547,3.34871,-0.1027
427,477,1.66772,-0.373108,0,0,0,0,0,0,0,-1,1651,547,1.66768,0.373104
434,477,3.76978,-2.30798,0,0,0,0,0,0,0,-1,1658,547,3.76974,2.30801
441,477,4.05444,-2.80402,0,0,0,0,0,0,0,-1,1665,547,4.05444,2.804
448,477,10.4247,-11.7421,0,0,0,0,0,0,0,-1,1672,547,10.4247,11.7421
455,477,13.3054,-16.8109,0,0,0,0,0,0,0,-1,1679,547,13.3054,16.8109
462,477,21.7828,-30.3984,0,0,0,0,0,0,0,-1,1686,547,21.7829,30.3984
469,477,21.7317,-29.5768,0,0,0,0,0,0,0,-1,1693,547,21.7316,29.5768
476,477,21.7333,-28.5887,0.000694505,0.000576102,-0.00126479,0.00190148,-0.000630871,-0.762012,0.00152216,0.027934,1700,547,21.7333,28.5887
483,477,21.7156,-27.7345,0.000889733,0.000735354,-0.000599411,0.0014169,0.000208183,-0.721363,0.000883423,0.0140666,1707,547,21.7155,27.7345
490,477,21.6501,-26.9461,0.000968524,0.00103349,-5.02945e-05,0.00106088,0.000941134,-1.07212,0.000670909,0.0136649,1714,547,21.6502,26.9461
497,477,21.6,-26.0657,0.00100308,0.00131758,0.000530598,0.00171374,0.00060692,0.929458,0.00100336,0.0143605,1721,547,21.6,26.0658
504,477,21.5477,-25.1885,0.00103305,0.00117018,0.000916787,0.00202096,0.000182268,0.822722,0.00129085,0.019025,1728,547,21.5477,25.1885
511,477,21.5432,-24.3725,0.000925014,0.00103649,0.00117146,0.00215354,-0.000192035,0.809171,0.0015038,0.0234494,1735,547,21.5432,24.3725
518,477,21.5037,-23.5507,0.000643248,0.000910805,0.00130575,0.00208961,-0.000535556,0.836447,0.00160172,0.0207661,1742,547,21.5037,23.5507
525,477,21.4263,-22.704,0.000297402,0.000771815,0.00135505,0.00191026,-0.000841047,0.872047,0.00162796,0.0182385,1749,547,21.4262,22.704
532,477,21.3434,-21.8214,-0.000118961,0.000757242,0.00135923,0.00174723,-0.00110895,0.941299,0.00166269,0.0205985,1756,547,21.3434,21.8214
539,477,21.308,-20.8857,-0.000640596,0.000792393,0.00128365,0.00154597,-0.00139418,1.03995,0.00169825,0.0181939,1763,547,21.308,20.8857
546,477,21.2057,-20.1075,-0.00121784,0.00112193,0.00121517,0.00163884,-0.00173475,1.1686,0.00194801,0.0435837,1770,547,21.2057,20.1075
553,477,21.2391,-19.0931,0,0,0,0,0,0,0,-1,1777,547,21.2392,19.0931
560,477,19.4597,-16.1135,0,0,0,0,0,0,0,-1,1784,547,19.4597,16.1135
567,477,13.9529,-8.70972,0,0,0,0,0,0,0,-1,1791,547,13.9529,8.7097
574,477,6.82593,-0.916992,0,0,0,0,0,0,0,-1,1798,547,6.82598,0.916977
581,477,9.29321,-0.557007,0,0,0,0,0,0,0,-1,1805,547,9.29324,0.55703
588,477,9.75195,0.422729,0,0,0,0,0,0,0,-1,1812,547,9.75198,-0.42273
595,477,9.89172,1.21326,0,0,0,0,0,0,0,-1,1819,547,9.89174,-1.21328
602,477,6.5271,-0.964417,0,0,0,0,0,0,0,-1,1826,547,6.52706,0.964427
609,477,0,0,0,0,0,0,0,0,0,-1,1833,547,0,0
616,477,0,0,0,0,0,0,0,0,0,-1,1840,547,0,0
623,477,0,0,0,0,0,0,0,0,0,-1,1847,547,0,0
630,477,0,0,0,0,0,0,0,0,0,-1,1854,547,0,0
637,477,0,0,0,0,0,0,0,0,0,-1,1861,547,0,0
644,477,0,0,0,0,0,0,0,0,0,-1,1868,547,0,0
651,477,0,0,0,0,0,0,0,0,0,-1,1875,547,0,0
658,477,0,0,0,0,0,0,0,0,0,-1,1882,547,0,0
665,477,0,0,0,0,0,0,0,0,0,-1,1889,547,0,0
672,477,0,0,0,0,0,0,0,0,0,-1,1896,547,0,0
679,477,0,0,0,0,0,0,0,0,0,-1,1903,547,0,0
686,477,0,0,0,0,0,0,0,0,0,-1,1910,547,0,0
693,477,0,0,0,0,0,0,0,0,0,-1,1917,547,0,0
700,477,0,0,0,0,0,0,0,0,0,-1,1924,547,0,0
707,477,0,0,0,0,0,0,0,0,0,-1,1931,547,0,0
714,477,0,0,0,0,0,0,0,0,0,-1,1938,547,0,0
721,477,0,0,0,0,0,0,0,0,0,-1,1945,547,0,0
728,477,0,0,0,0,0,0,0,0,0,-1,1952,547,0,0
735,477,0,0,0,0,0,0,0,0,0,-1,1959,547,0,0
742,477,0,0,0,0,0,0,0,0,0,-1,1966,547,0,0
749,477,0,0,0,0,0,0,0,0,0,-1,1973,547,0,0
756,477,0,0,0,0,0,0,0,0,0,-1,1980,547,0,0
763,477,0,0,0,0,0,0,0,0,0,-1,1987,547,0,0
770,477,0,0,0,0,0,0,0,0,0,-1,1994,547,0,0
777,477,0,0,0,0,0,0,0,0,0,-1,2001,547,0,0
784,477,0,0,0,0,0,0,0,0,0,-1,2008,547,0,0
791,477,0,0,0,0,0,0,0,0,0,-1,2015,547,0,0
798,477,0,0,0,0,0,0,0,0,0,-1,2022,547,0,0
805,477,0,0,0,0,0,0,0,0,0,-1,2029,547,0,0
812,477,0,0,0,0,0,0,0,0,0,-1,2036,547,0,0
-700,470,0,0,0,0,0,0,0,0,0,-1,524,554,0,0
-693,470,0,0,0,0,0,0,0,0,0,-1,531,554,0,0
-686,470,0,0,0,0,0,0,0,0,0,-1,538,554,0,0
-679,470,0,0,0,0,0,0,0,0,0,-1,545,554,0,0
-672,470,0,0,0,0,0,0,0,0,0,-1,552,554,0,0
-665,470,0,0,0,0,0,0,0,0,0,-1,559,554,0,0
-658,470,0,0,0,0,0,0,0,0,0,-1,566,554,0,0
-651,470,0,0,0,0,0,0,0,0,0,-1,573,554,0,0
-644,470,0,0,0,0,0,0,0,0,0,-1,580,554,0,0
-637,470,0,0,0,0,0,0,0,0,0,-1,587,554,0,0
-630,470,0,0,0,0,0,0,0,0,0,-1,594,554,0,0
-623,470,0,0,0,0,0,0,0,0,0,-1,601,554,0,0
-616,470,0,0,0,0,0,0,0,0,0,-1,608,554,0,0
-609,470,0,0,0,0,0,0,0,0,0,-1,615,554,0,0
-602,470,0,0,0,0,0,0,0,0,0,-1,622,554,0,0
-595,470,0,0,0,0,0,0,0,0,0,-1,629,554,0,0
-588,470,0,0,0,0,0,0,0,0,0,-1,636,554,0,0
-581,470,0,0,0,0,0,0,0,0,0,-1,643,554,0,0
-574,470,0,0,0,0,0,0,0,0,0,-1,650,554,0,0
-567,470,0,0,0,0,0,0,0,0,0,-1,657,554,0,0
-560,470,0,0,0,0,0,0,0,0,0,-1,664,554,0,0
-553,470,0,0,0,0,0,0,0,0,0,-1,671,554,0,0
-546,470,0,0,0,0,0,0,0,0,0,-1,678,554,0,0
-539,470,0,0,0,0,0,0,0,0,0,-1,685,554,0,0
-532,470,0,0,0,0,0,0,0,0,0,-1,692,554,0,0
-525,470,0,0,0,0,0,0,0,0,0,-1,699,554,0,0
-518,470,0,0,0,0,0,0,0,0,0,-1,706,554,0,0
-511,470,0,0,0,0,0,0,0,0,0,-1,713,554,0,0
-504,470,0,0,0,0,0,0,0,0,0,-1,720,554,0,0
-497,470,0,0,0,0,0,0,0,0,0,-1,727,554,0,0
-490,470,-9.13263,-1.03125,0,0,0,0,0,0,0,-1,734,554,-9.1326,1.03127
-483,470,-7.68677,-1.03955,0,0,0,0,0,0,0,-1,741,554,-7.68678,1.03958
-476,470,-6.17969,-1.03394,0,0,0,0,0,0,0,-1,748,554,-6.17971,1.03395
-469,470,-6.23016,-0.651855,0,0,0,0,0,0,0,-1,755,554,-6.23014,0.651829
-462,470,-4.87915,-1.03705,0,0,0,0,0,0,0,-1,762,554,-4.87914,1.03702
-455,470,-4.14777,-1.37079,0,0,0,0,0,0,0,-1,769,554,-4.14779,1.37078
-448,470,-2.9314,-5.74518,0,0,0,0,0,0,0,-1,776,554,-2.93137,5.74518
-441,470,-6.77209,-16.3221,0,0,0,0,0,0,0,-1,783,554,-6.77212,16.3221
-434,470,-7.53253,-18.915,0,0,0,0,0,0,0,-1,790,554,-7.53253,18.915
-427,470,-7.58221,-19.8185,8.333e-05,0.00824783,-0.00239211,0.00889707,-0.000565907,-1.30577,0.00612873,0.0262706,797,554,-7.58222,19.8186
-420,470,-7.57263,-20.7282,0.000283664,0.00717497,-0.00258119,0.00803456,-0.00057592,-1.24933,0.0055583,0.0182772,804,554,-7.57265,20.7282
-413,470,-7.6264,-21.6203,0.000438351,0.00606347,-0.00256957,0.00706053,-0.000558705,-1.20066,0.00490387,0.0152582,811,554,-7.6264,21.6203
-406,470,-7.66553,-22.4763,0.000513105,0.00487612,-0.00232395,0.00588205,-0.00049282,-1.16229,0.00409553,0.0133362,818,554,-7.6655,22.4763
-399,470,-7.72589,-23.3323,0.000594812,0.00376836,-0.00199449,0.00473027,-0.000367105,-1.12142,0.00328273,0.0162832,825,554,-7.72589,23.3323
-392,470,-7.75385,-24.1872,0.00079806,0.00271775,-0.00165327,0.00366961,-0.000153799,-1.0484,0.00249925,0.0150535,832,554,-7.75386,24.1872
-385,470,-7.81305,-25.0128,0.00113639,0.00175139,-0.00133881,0.00281756,7.02176e-05,-0.898281,0.00185541,0.0125279,839,554,-7.81307,25.0128
-378,470,-7.86188,-25.8419,0.00145342,0.000765874,-0.000924725,0.0020962,0.000123088,-0.607436,0.0013583,0.0174862,846,554,-7.8619,25.8418
-371,470,-7.9212,-26.6666,0.00179986,-0.000151382,-0.000523624,0.00193149,-0.000283018,-0.246291,0.00139163,0.0146804,853,554,-7.92123,26.6666
-364,470,-7.9668,-27.4777,0.00219519,-0.00102103,-0.000106598,0.00219872,-0.00102456,-0.0330955,0.00190167,0.0151445,860,554,-7.96677,27.4777
-357,470,-8.03809,-28.2988,0.00264169,-0.00182165,0.000244822,0.00265508,-0.00183504,0.0546333,0.00260674,0.0151416,867,554,-8.03806,28.2988
-350,470,-8.0694,-29.1306,0.00310684,-0.00265965,0.000534623,0.00315598,-0.0027088,0.091671,0.00338931,0.0135205,874,554,-8.06939,29.1306
-343,470,-8.07544,-30.0544,0,0,0,0,0,0,0,-1,881,554,-8.07541,30.0544
-336,470,-7.68005,-30.7884,0,0,0,0,0,0,0,-1,888,554,-7.68007,30.7884
-329,470,-2.78516,-12.3594,0,0,0,0,0,0,0,-1,895,554,-2.78517,12.3594
-322,470,-2.30829,-11.4527,0,0,0,0,0,0,0,-1,902,554,-2.30827,11.4527
-315,470,-1.04797,-8.29529,0,0,0,0,0,0,0,-1,909,554,-1.04797,8.29526
-308,470,-1.39368,-6.68152,0,0,0,0,0,0,0,-1,916,554,-1.39369,6.68149
-301,470,-0.0340576,3.34888,0,0,0,0,0,0,0,-1,923,554,-0.0340496,-3.3489
-294,470,-1.18378,3.22266,0,0,0,0,0,0,0,-1,930,554,-1.18376,-3.22268
-287,470,-2.15454,3.2204,0,0,0,0,0,0,0,-1,937,554,-2.15452,-3.22037
-280,470,-3.00537,3.099,0,0,0,0,0,0,0,-1,944,554,-3.00536,-3.09898
-273,470,-12.3932,3.65009,0,0,0,0,0,0,0,-1,951,554,-12.3932,-3.65011
-266,470,-11.5706,1.16028,0,0,0,0,0,0,0,-1,958,554,-11.5706,-1.16031
-259,470,-7.50415,-2.77167,0,0,0,0,0,0,0,-1,965,554,-7.50413,2.7717
-252,470,-0.371155,-5.87823,0,0,0,0,0,0,0,-1,972,554,-0.37114,5.87821
-245,470,1.33221,-6.81122,0,0,0,0,0,0,0,-1,979,554,1.33223,6.8112
-238,470,0,0,0,0,0,0,0,0,0,-1,986,554,0,0
-231,470,0,0,0,0,0,0,0,0,0,-1,993,554,0,0
-224,470,0,0,0,0,0,0,0,0,0,-1,1000,554,0,0
-217,470,0,0,0,0,0,0,0,0,0,-1,1007,554,0,0
-210,470,0,0,0,0,0,0,0,0,0,-1,1014,554,0,0
-203,470,0,0,0,0,0,0,0,0,0,-1,1021,554,0,0
-196,470,0,0,0,0,0,0,0,0,0,-1,1028,554,0,0
-189,470,0,0,0,0,0,0,0,0,0,-1,1035,554,0,0
-182,470,0,0,0,0,0,0,0,0,0,-1,1042,554,0,0
-175,470,0,0,0,0,0,0,0,0,0,-1,1049,554,0,0
-168,470,0,0,0,0,0,0,0,0,0,-1,1056,554,0,0
-161,470,0,0,0,0,0,0,0,0,0,-1,1063,554,0,0
-154,470,0,0,0,0,0,0,0,0,0,-1,1070,554,0,0
-147,470,0,0,0,0,0,0,0,0,0,-1,1077,554,0,0
-140,470,0,0,0,0,0,0,0,0,0,-1,1084,554,0,0
-133,470,0,0,0,0,0,0,0,0,0,-1,1091,554,0,0
-126,470,0,0,0,0,0,0,0,0,0,-1,1098,554,0,0
-119,470,0,0,0,0,0,0,0,0,0,-1,1105,554,0,0
-112,470,0,0,0,0,0,0,0,0,0,-1,1112,554,0,0
-105,470,0,0,0,0,0,0,0,0,0,-1,1119,554,0,0
-98,470,0,0,0,0,0,0,0,0,0,-1,1126,554,0,0
-91,470,0,0,0,0,0,0,0,0,0,-1,1133,554,0,0
-84,470,0,0,0,0,0,0,0,0,0,-1,1140,554,0,0
-77,470,0,0,0,0,0,0,0,0,0,-1,1147,554,0,0
-70,470,0,0,0,0,0,0,0,0,0,-1,1154,554,0,0
-63,470,0,0,0,0,0,0,0,0,0,-1,1161,554,0,0
-56,470,0,0,0,0,0,0,0,0,0,-1,1168,554,0,0
-49,470,0,0,0,0,0,0,0,0,0,-1,1175,554,0,0
-42,470,0,0,0,0,0,0,0,0,0,-1,1182,554,0,0
-35,470,0,0,0,0,0,0,0,0,0,-1,1189,554,0,0
-28,470,0,0,0,0,0,0,0,0,0,-1,1196,554,0,0
-21,470,0,0,0,0,0,0,0,0,0,-1,1203,554,0,0
-14,470,0,0,0,0,0,0,0,0,0,-1,1210,554,0,0
-7,470,0,0,0,0,0,0,0,0,0,-1,1217,554,0,0
0,470,0,0,0,0,0,0,0,0,0,-1,1224,554,0,0
7,470,0,0,0,0,0,0,0,0,0,-1,1231,554,0,0
14,470,0,0,0,0,0,0,0,0,0,-1,1238,554,0,0
21,470,0,0,0,0,0,0,0,0,0,-1,1245,554,0,0
28,470,0,0,0,0,0,0,0,0,0,-1,1252,554,0,0
35,470,0,0,0,0,0,0,0,0,0,-1,1259,554,0,0
42,470,0,0,0,0,0,0,0,0,0,-1,1266,554,0,0
49,470,0,0,0,0,0,0,0,0,0,-1,1273,554,0,0
56,470,0,0,0,0,0,0,0,0,0,-1,1280,554,0,0
63,470,0,0,0,0,0,0,0,0,0,-1,1287,554,0,0
70,470,0,0,0,0,0,0,0,0,0,-1,1294,554,0,0
77,470,0,0,0,0,0,0,0,0,0,-1,1301,554,0,0
84,470,0,0,0,0,0,0,0,0,0,-1,1308,554,0,0
91,470,0,0,0,0,0,0,0,0,0,-1,1315,554,0,0
98,470,0,0,0,0,0,0,0,0,0,-1,1322,554,0,0
105,470,0,0,0,0,0,0,0,0,0,-1,1329,554,0,0
112,470,0,0,0,0,0,0,0,0,0,-1,1336,554,0,0
119,470,0,0,0,0,0,0,0,0,0,-1,1343,554,0,0
126,470,0,0,0,0,0,0,0,0,0,-1,1350,554,0,0
133,470,0,0,0,0,0,0,0,0,0,-1,1357,554,0,0
140,470,0,0,0,0,0,0,0,0,0,-1,1364,554,0,0
147,470,0,0,0,0,0,0,0,0,0,-1,1371,554,0,0
154,470,0,0,0,0,0,0,0,0,0,-1,1378,554,0,0
161,470,0,0,0,0,0,0,0,0,0,-1,1385,554,0,0
168,470,0,0,0,0,0,0,0,0,0,-1,1392,554,0,0
175,470,0,0,0,0,0,0,0,0,0,-1,1399,554,0,0
182,470,0,0,0,0,0,0,0,0,0,-1,1406,554,0,0
189,470,0,0,0,0,0,0,0,0,0,-1,1413,554,0,0
196,470,0,0,0,0,0,0,0,0,0,-1,1420,554,0,0
203,470,0,0,0,0,0,0,0,0,0,-1,1427,554,0,0
210,470,0,0,0,0,0,0,0,0,0,-1,1434,554,0,0
217,470,0,0,0,0,0,0,0,0,0,-1,1441,554,0,0
224,470,0,0,0,0,0,0,0,0,0,-1,1448,554,0,0
231,470,0,0,0,0,0,0,0,0,0,-1,1455,554,0,0
238,470,0,0,0,0,0,0,0,0,0,-1,1462,554,0,0
245,470,0,0,0,0,0,0,0,0,0,-1,1469,554,0,0
252,470,0,0,0,0,0,0,0,0,0,-1,1476,554,0,0
259,470,0,0,0,0,0,0,0,0,0,-1,1483,554,0,0
266,470,0,0,0,0,0,0,0,0,0,-1,1490,554,0,0
273,470,0,0,0,0,0,0,0,0,0,-1,1497,554,0,0
280,470,0,0,0,0,0,0,0,0,0,-1,1504,554,0,0
287,470,0,0,0,0,0,0,0,0,0,-1,1511,554,0,0
294,470,0,0,0,0,0,0,0,0,0,-1,1518,554,0,0
301,470,0,0,0,0,0,0,0,0,0,-1,1525,554,0,0
308,470,0,0,0,0,0,0,0,0,0,-1,1532,554,0,0
315,470,0,0,0,0,0,0,0,0,0,-1,1539,554,0,0
322,470,0,0,0,0,0,0,0,0,0,-1,1546,554,0,0
329,470,0,0,0,0,0,0,0,0,0,-1,1553,554,0,0
336,470,0,0,0,0,0,0,0,0,0,-1,1560,554,0,0
343,470,0,0,0,0,0,0,0,0,0,-1,1567,554,0,0
350,470,0,0,0,0,0,0,0,0,0,-1,1574,554,0,0
357,470,0,0,0,0,0,0,0,0,0,-1,1581,554,0,0
364,470,1.33423,0.293335,0,0,0,0,0,0,0,-1,1588,554,1.33422,-0.293348
371,470,2.22498,-0.0305176,0,0,0,0,0,0,0,-1,1595,554,2.22494,0.0305046
378,470,6.27051,0.710083,0,0,0,0,0,0,0,-1,1602,554,6.27054,-0.710093
385,470,10.3657,1.47296,0,0,0,0,0,0,0,-1,1609,554,10.3657,-1.47299
392,470,15.3881,3.01935,0,0,0,0,0,0,0,-1,1616,554,15.388,-3.01937
399,470,18.4479,2.93793,0,0,0,0,0,0,0,-1,1623,554,18.4479,-2.93792
406,470,15.1896,1.36676,0,0,0,0,0,0,0,-1,1630,554,15.1896,-1.36679
413,470,6.55383,1.99207,0,0,0,0,0,0,0,-1,1637,554,6.5538,-1.99208
420,470,4.47095,0.845703,0,0,0,0,0,0,0,-1,1644,554,4.47098,-0.845718
427,470,3.51038,1.19684,0,0,0,0,0,0,0,-1,1651,554,3.51039,-1.19684
434,470,3.31775,-1.37427,0,0,0,0,0,0,0,-1,1658,554,3.31781,1.37426
441,470,2.55457,-2.05902,0,0,0,0,0,0,0,-1,1665,554,2.55461,2.05904
448,470,3.27258,-2.64032,0,0,0,0,0,0,0,-1,1672,554,3.27257,2.64029
455,470,10.3658,-9.82233,0,0,0,0,0,0,0,-1,1679,554,10.3659,9.82233
462,470,11.0651,-11.9958,0,0,0,0,0,0,0,-1,1686,554,11.0651,11.9958
469,470,15.4242,-19.0521,0,0,0,0,0,0,0,-1,1693,554,15.4242,19.0521
476,470,22.5403,-28.6572,0,0,0,0,0,0,0,-1,1700,554,22.5403,28.6572
483,470,22.5724,-27.7097,0.00104618,0.000799761,-0.00073285,0.00166611,0.000179837,-0.702114,0.00105591,0.020823,1707,554,22.5724,27.7097
490,470,22.4873,-26.8846,0.0012024,0.00116091,-0.000159608,0.00134261,0.00102071,-0.720777,0.000809396,0.0135992,1714,554,22.4873,26.8846
497,470,22.444,-26.0284,0.00123063,0.00147003,0.00044016,0.00180648,0.000894183,0.918163,0.00104299,0.013652,1721,554,22.444,26.0285
504,470,22.4344,-25.2147,0.00121425,0.00128477,0.000794495,0.00204479,0.000454232,0.807576,0.00123983,0.0200015,1728,554,22.4345,25.2147
511,470,22.4149,-24.4056,0.00108182,0.00111685,0.00101897,0.00211846,8.02201e-05,0.793992,0.00138634,0.0272178,1735,554,22.4149,24.4056
518,470,22.3594,-23.5323,0.00080388,0.00097279,0.00115563,0.00204704,-0.000270372,0.821874,0.00146317,0.0267503,1742,554,22.3593,23.5323
525,470,22.3091,-22.6563,0.000464079,0.000853372,0.0012133,0.00188754,-0.00057009,0.864934,0.00148532,0.0167763,1749,554,22.309,22.6562
532,470,22.2048,-21.7355,6.88937e-05,0.000877047,0.00123734,0.00177462,-0.000828682,0.943223,0.00153574,0.0147421,1756,554,22.2048,21.7355
539,470,22.1362,-20.8601,-0.000374809,0.000966498,0.00121852,0.00168673,-0.00109504,1.03697,0.00161812,0.0177287,1763,554,22.1362,20.8601
546,470,22.0923,-20.0148,-0.000808247,0.00134603,0.00121212,0.00189045,-0.00135267,1.14865,0.00188098,0.015851,1770,554,22.0923,20.0147
553,470,22.0952,-19.118,-0.00114595,0.00192143,0.00127724,0.00238362,-0.00160814,1.22359,0.0023191,0.0264132,1777,554,22.0952,19.1181
560,470,22.1436,-18.007,0,0,0,0,0,0,0,-1,1784,554,22.1435,18.0069
567,470,22.0359,-17.033,0,0,0,0,0,0,0,-1,1791,554,22.0359,17.0329
574,470,14.2793,-8.07147,0,0,0,0,0,0,0,-1,1798,554,14.2793,8.07147
581,470,8.24646,-4.06317,0,0,0,0,0,0,0,-1,1805,554,8.24648,4.06318
588,470,11.1803,1.74927,0,0,0,0,0,0,0,-1,1812,554,11.1803,-1.74926
595,470,4.72192,3.44116,0,0,0,0,0,0,0,-1,1819,554,4.72191,-3.44116
602,470,14.4307,2.76141,0,0,0,0,0,0,0,-1,1826,554,14.4306,-2.76139
609,470,20.9181,4.41058,0,0,0,0,0,0,0,-1,1833,554,20.9181,-4.4106
616,470,0,0,0,0,0,0,0,0,0,-1,1840,554,0,0
623,470,0,0,0,0,0,0,0,0,0,-1,1847,554,0,0
630,470,0,0,0,0,0,0,0,0,0,-1,1854,554,0,0
637,470,0,0,0,0,0,0,0,0,0,-1,1861,554,0,0
644,470,0,0,0,0,0,0,0,0,0,-1,1868,554,0,0
651,470,0,0,0,0,0,0,0,0,0,-1,1875,554,0,0
658,470,0,0,0,0,0,0,0,0,0,-1,1882,554,0,0
665,470,0,0,0,0,0,0,0,0,0,-1,1889,554,0,0
672,470,0,0,0,0,0,0,0,0,0,-1,1896,554,0,0
679,470,0,0,0,0,0,0,0,0,0,-1,1903,554,0,0
686,470,0,0,0,0,0,0,0,0,0,-1,1910,554,0,0
693,470,0,0,0,0,0,0,0,0,0,-1,1917,554,0,0
700,470,0,0,0,0,0,0,0,0,0,-1,1924,554,0,0
707,470,0,0,0,0,0,0,0,0,0,-1,1931,554,0,0
714,470,0,0,0,0,0,0,0,0,0,-1,1938,554,0,0
721,470,0,0,0,0,0,0,0,0,0,-1,1945,554,0,0
728,470,0,0,0,0,0,0,0,0,0,-1,1952,554,0,0
735,470,0,0,0,0,0,0,0,0,0,-1,1959,554,0,0
742,470,0,0,0,0,0,0,0,0,0,-1,1966,554,0,0
749,470,0,0,0,0,0,0,0,0,0,-1,1973,554,0,0
756,470,0,0,0,0,0,0,0,0,0,-1,1980,554,0,0
763,470,0,0,0,0,0,0,0,0,0,-1,1987,554,0,0
770,470,0,0,0,0,0,0,0,0,0,-1,1994,554,0,0
777,470,0,0,0,0,0,0,0,0,0,-1,2001,554,0,0
784,470,0,0,0,0,0,0,0,0,0,-1,2008,554,0,0
791,470,0,0,0,0,0,0,0,0,0,-1,2015,554,0,0
798,470,0,0,0,0,0,0,0,0,0,-1,2022,554,0,0
805,470,0,0,0,0,0,0,0,0,0,-1,2029,554,0,0
812,470,0,0,0,0,0,0,0,0,0,-1,2036,554,0,0
-700,463,0,0,0,0,0,0,0,0,0,-1,524,561,0,0
-693,463,0,0,0,0,0,0,0,0,0,-1,531,561,0,0
-686,463,0,0,0,0,0,0,0,0,0,-1,538,561,0,0
-679,463,0,0,0,0,0,0,0,0,0,-1,545,561,0,0
-672,463,0,0,0,0,0,0,0,0,0,-1,552,561,0,0
-665,463,0,0,0,0,0,0,0,0,0,-1,559,561,0,0
-658,463,0,0,0,0,0,0,0,0,0,-1,566,561,0,0
-651,463,0,0,0,0,0,0,0,0,0,-1,573,561,0,0
-644,463,0,0,0,0,0,0,0,0,0,-1,580,561,0,0
-637,463,0,0,0,0,0,0,0,0,0,-1,587,561,0,0
-630,463,0,0,0,0,0,0,0,0,0,-1,594,561,0,0
-623,463,0,0,0,0,0,0,0,0,0,-1,601,561,0,0
-616,463,0,0,0,0,0,0,0,0,0,-1,608,561,0,0
-609,463,0,0,0,0,0,0,0,0,0,-1,615,561,0,0
-602,463,0,0,0,0,0,0,0,0,0,-1,622,561,0,0
-595,463,0,0,0,0,0,0,0,0,0,-1,629,561,0,0
-588,463,0,0,0,0,0,0,0,0,0,-1,636,561,0,0
-581,463,0,0,0,0,0,0,0,0,0,-1,643,561,0,0
-574,463,0,0,0,0,0,0,0,0,0,-1,650,561,0,0
-567,463,0,0,0,0,0,0,0,0,0,-1,657,561,0,0
-560,463,0,0,0,0,0,0,0,0,0,-1,664,561,0,0
-553,463,0,0,0,0,0,0,0,0,0,-1,671,561,0,0
-546,463,0,0,0,0,0,0,0,0,0,-1,678,561,0,0
-539,463,0,0,0,0,0,0,0,0,0,-1,685,561,0,0
-532,463,0,0,0,0,0,0,0,0,0,-1,692,561,0,0
-525,463,0,0,0,0,0,0,0,0,0,-1,699,561,0,0
-518,463,0,0,0,0,0,0,0,0,0,-1,706,561,0,0
-511,463,0,0,0,0,0,0,0,0,0,-1,713,561,0,0
-504,463,0,0,0,0,0,0,0,0,0,-1,720,561,0,0
-497,463,-9.81451,-1.67126,0,0,0,0,0,0,0,-1,727,561,-9.81452,1.67127
-490,463,-8.57043,-1.58942,0,0,0,0,0,0,0,-1,734,561,-8.57045,1.58944
-483,463,-7.29224,-1.7226,0,0,0,0,0,0,0,-1,741,561,-7.29226,1.72261
-476,463,-5.77704,-1.7312,0,0,0,0,0,0,0,-1,748,561,-5.77703,1.73121
-469,463,-5.14545,-2.138,0,0,0,0,0,0,0,-1,755,561,-5.14546,2.13799
-462,463,-3.13672,-3.07977,0,0,0,0,0,0,0,-1,762,561,-3.13672,3.07974
-455,463,-2.91406,-5.61798,0,0,0,0,0,0,0,-1,769,561,-2.91406,5.61801
-448,463,-4.00177,-8.54681,0,0,0,0,0,0,0,-1,776,561,-4.00175,8.54683
-441,463,-8.46216,-17.7797,0,0,0,0,0,0,0,-1,783,561,-8.46216,17.7797
-434,463,-8.33649,-18.945,-0.000384779,0.00649194,-0.00123957,0.00670856,-0.000601397,-1.39779,0.00468572,0.035997,790,561,-8.33647,18.945
-427,463,-8.37354,-19.856,-5.44316e-05,0.00584285,-0.00154281,0.00622208,-0.000433665,-1.32977,0.0042999,0.0115299,797,561,-8.37353,19.856
-420,463,-8.39874,-20.718,0.000210351,0.00510668,-0.00174306,0.0056638,-0.000346774,-1.26143,0.00389661,0.0104689,804,561,-8.39877,20.7179
-413,463,-8.45343,-21.5748,0.000410158,0.00428829,-0.00175653,0.0049656,-0.000267143,-1.20277,0.00340294,0.010976,811,561,-8.45346,21.5747
-406,463,-8.50879,-22.4316,0.000521876,0.00335955,-0.00155629,0.00404668,-0.000165262,-1.15501,0.00275453,0.0112715,818,561,-8.50878,22.4317
-399,463,-8.55713,-23.2914,0.000682388,0.00250086,-0.00131585,0.00319105,-7.80635e-06,-1.08772,0.00212998,0.0114507,825,561,-8.55712,23.2914
-392,463,-8.62225,-24.1225,0.000972172,0.00167079,-0.00106742,0.0024446,0.00019836,-0.943529,0.0015678,0.0112135,832,561,-8.62227,24.1225
-385,463,-8.67297,-24.9642,0.00141087,0.000912991,-0.000870059,0.0020669,0.000256958,-0.646062,0.00130077,0.0119464,839,561,-8.67298,24.9642
-378,463,-8.71356,-25.7949,0.001849,0.000136463,-0.000592635,0.00203408,-4.86199e-05,-0.302707,0.00137255,0.0133197,846,561,-8.71354,25.7949
-371,463,-8.75146,-26.6388,0.00237597,-0.000535258,-0.000338495,0.00241481,-0.000574097,-0.114242,0.00183148,0.0131232,853,561,-8.75148,26.6388
-364,463,-8.78131,-27.4309,0.00300267,-0.00106502,-0.000136482,0.00300724,-0.00106959,-0.0335026,0.00244077,0.0148343,860,561,-8.78129,27.4309
-357,463,-8.85205,-28.2222,0.00370248,-0.00162924,-3.67448e-05,0.00370273,-0.00162949,-0.00689131,0.00315517,0.0209636,867,561,-8.85207,28.2222
-350,463,-8.79614,-29.1045,0.00442867,-0.00236376,1.44409e-05,0.0044287,-0.0023638,0.00212601,0.00398159,0.0450943,874,561,-8.79613,29.1045
-343,463,-8.47449,-30.0271,0,0,0,0,0,0,0,-1,881,561,-8.47449,30.0271
-336,463,-2.94928,-12.2127,0,0,0,0,0,0,0,-1,888,561,-2.94925,12.2127
-329,463,-2.64307,-12.7037,0,0,0,0,0,0,0,-1,895,561,-2.64307,12.7038
-322,463,-1.82898,-9.11957,0,0,0,0,0,0,0,-1,902,561,-1.829,9.11957
-315,463,-0.944763,-5.96234,0,0,0,0,0,0,0,-1,909,561,-0.94479,5.96237
-308,463,-1.1535,-3.17889,0,0,0,0,0,0,0,-1,916,561,-1.15352,3.17889
-301,463,-1.50366,-3.15338,0,0,0,0,0,0,0,-1,923,561,-1.50364,3.15341
-294,463,-2.35889,-3.93463,0,0,0,0,0,0,0,-1,930,561,-2.35886,3.93465
-287,463,-2.80322,2.73999,0,0,0,0,0,0,0,-1,937,561,-2.80322,-2.74
-280,463,-12.864,5.25146,0,0,0,0,0,0,0,-1,944,561,-12.864,-5.25149
-273,463,-12.4598,3.39178,0,0,0,0,0,0,0,-1,951,561,-12.4598,-3.3918
-266,463,-8.78101,-3.7356,0,0,0,0,0,0,0,-1,958,561,-8.78098,3.73562
-259,463,-6.23285,-5.68842,0,0,0,0,0,0,0,-1,965,561,-6.23288,5.68843
-252,463,0,0,0,0,0,0,0,0,0,-1,972,561,0,0
-245,463,0,0,0,0,0,0,0,0,0,-1,979,561,0,0
-238,463,0,0,0,0,0,0,0,0,0,-1,986,561,0,0
-231,463,0,0,0,0,0,0,0,0,0,-1,993,561,0,0
-224,463,0,0,0,0,0,0,0,0,0,-1,1000,561,0,0
-217,463,0,0,0,0,0,0,0,0,0,-1,1007,561,0,0
-210,463,0,0,0,0,0,0,0,0,0,-1,1014,561,0,0
-203,463,0,0,0,0,0,0,0,0,0,-1,1021,561,0,0
-196,463,0,0,0,0,0,0,0,0,0,-1,1028,561,0,0
-189,463,0,0,0,0,0,0,0,0,0,-1,1035,561,0,0
-182,463,0,0,0,0,0,0,0,0,0,-1,1042,561,0,0
-175,463,0,0,0,0,0,0,0,0,0,-1,1049,561,0,0
-168,463,0,0,0,0,0,0,0,0,0,-1,1056,561,0,0
-161,463,0,0,0,0,0,0,0,0,0,-1,1063,561,0,0
-154,463,0,0,0,0,0,0,0,0,0,-1,1070,561,0,0
-147,463,0,0,0,0,0,0,0,0,0,-1,1077,561,0,0
-140,463,0,0,0,0,0,0,0,0,0,-1,1084,561,0,0
-133,463,0,0,0,0,0,0,0,0,0,-1,1091,561,0,0
-126,463,0,0,0,0,0,0,0,0,0,-1,1098,561,0,0
-119,463,0,0,0,0,0,0,0,0,0,-1,1105,561,0,0
-112,463,0,0,0,0,0,0,0,0,0,-1,1112,561,0,0
-105,463,0,0,0,0,0,0,0,0,0,-1,1119,561,0,0
-98,463,0,0,0,0,0,0,0,0,0,-1,1126,561,0,0
-91,463,0,0,0,0,0,0,0,0,0,-1,1133,561,0,0
-84,463,0,0,0,0,0,0,0,0,0,-1,1140,561,0,0
-77,463,0,0,0,0,0,0,0,0,0,-1,1147,561,0,0
-70,463,0,0,0,0,0,0,0,0,0,-1,1154,561,0,0
-63,463,0,0,0,0,0,0,0,0,0,-1,1161,561,0,0
-56,463,0,0,0,0,0,0,0,0,0,-1,1168,561,0,0
-49,463,0,0,0,0,0,0,0,0,0,-1,1175,561,0,0
-42,463,0,0,0,0,0,0,0,0,0,-1,1182,561,0,0
-35,463,0,0,0,0,0,0,0,0,0,-1,1189,561,0,0
-28,463,0,0,0,0,0,0,0,0,0,-1,1196,561,0,0
-21,463,0,0,0,0,0,0,0,0,0,-1,1203,561,0,0
-14,463,0,0,0,0,0,0,0,0,0,-1,1210,561,0,0
-7,463,0,0,0,0,0,0,0,0,0,-1,1217,561,0,0
0,463,0,0,0,0,0,0,0,0,0,-1,1224,561,0,0
7,463,0,0,0,0,0,0,0,0,0,-1,1231,561,0,0
14,463,0,0,0,0,0,0,0,0,0,-1,1238,561,0,0
21,463,0,0,0,0,0,0,0,0,0,-1,1245,561,0,0
28,463,0,0,0,0,0,0,0,0,0,-1,1252,561,0,0
35,463,0,0,0,0,0,0,0,0,0,-1,1259,561,0,0
42,463,0,0,0,0,0,0,0,0,0,-1,1266,561,0,0
49,463,0,0,0,0,0,0,0,0,0,-1,1273,561,0,0
56,463,0,0,0,0,0,0,0,0,0,-1,1280,561,0,0
63,463,0,0,0,0,0,0,0,0,0,-1,1287,561,0,0
70,463,0,0,0,0,0,0,0,0,0,-1,1294,561,0,0
77,463,0,0,0,0,0,0,0,0,0,-1,1301,561,0,0
84,463,0,0,0,0,0,0,0,0,0,-1,1308,561,0,0
91,463,0,0,0,0,0,0,0,0,0,-1,1315,561,0,0
98,463,0,0,0,0,0,0,0,0,0,-1,1322,561,0,0
105,463,0,0,0,0,0,0,0,0,0,-1,1329,561,0,0
112,463,0,0,0,0,0,0,0,0,0,-1,1336,561,0,0
119,463,0,0,0,0,0,0,0,0,0,-1,1343,561,0,0
126,463,0,0,0,0,0,0,0,0,0,-1,1350,561,0,0
133,463,0,0,0,0,0,0,0,0,0,-1,1357,561,0,0
140,463,0,0,0,0,0,0,0,0,0,-1,1364,561,0,0
147,463,0,0,0,0,0,0,0,0,0,-1,1371,561,0,0
154,463,0,0,0,0,0,0,0,0,0,-1,1378,561,0,0
161,463,0,0,0,0,0,0,0,0,0,-1,1385,561,0,0
168,463,0,0,0,0,0,0,0,0,0,-1,1392,561,0,0
175,463,0,0,0,0,0,0,0,0,0,-1,1399,561,0,0
182,463,0,0,0,0,0,0,0,0,0,-1,1406,561,0,0
189,463,0,0,0,0,0,0,0,0,0,-1,1413,561,0,0
196,463,0,0,0,0,0,0,0,0,0,-1,1420,561,0,0
203,463,0,0,0,0,0,0,0,0,0,-1,1427,561,0,0
210,463,0,0,0,0,0,0,0,0,0,-1,1434,561,0,0
217,463,0,0,0,0,0,0,0,0,0,-1,1441,561,0,0
224,463,0,0,0,0,0,0,0,0,0,-1,1448,561,0,0
231,463,0,0,0,0,0,0,0,0,0,-1,1455,561,0,0
238,463,0,0,0,0,0,0,0,0,0,-1,1462,561,0,0
245,463,0,0,0,0,0,0,0,0,0,-1,1469,561,0,0
252,463,0,0,0,0,0,0,0,0,0,-1,1476,561,0,0
259,463,0,0,0,0,0,0,0,0,0,-1,1483,561,0,0
266,463,0,0,0,0,0,0,0,0,0,-1,1490,561,0,0
273,463,0,0,0,0,0,0,0,0,0,-1,1497,561,0,0
280,463,0,0,0,0,0,0,0,0,0,-1,1504,561,0,0
287,463,0,0,0,0,0,0,0,0,0,-1,1511,561,0,0
294,463,0,0,0,0,0,0,0,0,0,-1,1518,561,0,0
301,463,0,0,0,0,0,0,0,0,0,-1,1525,561,0,0
308,463,0,0,0,0,0,0,0,0,0,-1,1532,561,0,0
315,463,0,0,0,0,0,0,0,0,0,-1,1539,561,0,0
322,463,0,0,0,0,0,0,0,0,0,-1,1546,561,0,0
329,463,0,0,0,0,0,0,0,0,0,-1,1553,561,0,0
336,463,0,0,0,0,0,0,0,0,0,-1,1560,561,0,0
343,463,0,0,0,0,0,0,0,0,0,-1,1567,561,0,0
350,463,0,0,0,0,0,0,0,0,0,-1,1574,561,0,0
357,463,0,0,0,0,0,0,0,0,0,-1,1581,561,0,0
364,463,0,0,0,0,0,0,0,0,0,-1,1588,561,0,0
371,463,1.75842,0.152588,0,0,0,0,0,0,0,-1,1595,561,1.75844,-0.152558
378,463,4.58813,-0.0444336,0,0,0,0,0,0,0,-1,1602,561,4.58809,0.0444505
385,463,8.88574,1.65057,0,0,0,0,0,0,0,-1,1609,561,8.88575,-1.65055
392,463,14.0912,2.50513,0,0,0,0,0,0,0,-1,1616,561,14.0912,-2.5051
399,463,21.4769,2.7002,0,0,0,0,0,0,0,-1,1623,561,21.477,-2.70017
406,463,26.2987,4.32318,0,0,0,0,0,0,0,-1,1630,561,26.2987,-4.3232
413,463,26.5011,2.65222,0,0,0,0,0,0,0,-1,1637,561,26.5011,-2.65224
420,463,8.849,2.26611,0,0,0,0,0,0,0,-1,1644,561,8.84899,-2.26613
427,463,5.12207,1.69183,0,0,0,0,0,0,0,-1,1651,561,5.12206,-1.69184
434,463,4.59814,1.81995,0,0,0,0,0,0,0,-1,1658,561,4.59812,-1.81994
441,463,1.76392,-5.99225,0,0,0,0,0,0,0,-1,1665,561,1.7639,5.99225
448,463,2.49939,-4.30536,0,0,0,0,0,0,0,-1,1672,561,2.49941,4.30536
455,463,4.40295,-3.02557,0,0,0,0,0,0,0,-1,1679,561,4.40299,3.02558
462,463,5.38293,-4.06445,0,0,0,0,0,0,0,-1,1686,561,5.38289,4.06444
469,463,5.94373,-4.50647,0,0,0,0,0,0,0,-1,1693,561,5.94368,4.50646
476,463,15.2559,-17.3189,0,0,0,0,0,0,0,-1,1700,561,15.2558,17.3189
483,463,23.3949,-27.791,0,0,0,0,0,0,0,-1,1707,561,23.3948,27.791
490,463,23.3831,-26.9274,0.00177323,0.00120979,4.10386e-05,0.0017762,0.00120682,0.0723274,0.00104727,0.0333104,1714,561,23.3831,26.9275
497,463,23.2896,-25.9686,0.00178079,0.00162218,0.000631923,0.00233837,0.0010646,0.722974,0.00135186,0.015979,1721,561,23.2895,25.9686
504,463,23.2848,-25.1556,0.00166084,0.00145572,0.000905783,0.00246985,0.000646708,0.729024,0.00147891,0.0169169,1728,561,23.2848,25.1557
511,463,23.2837,-24.3649,0.00145378,0.00127017,0.00104957,0.00241555,0.000308396,0.741774,0.00151805,0.0249912,1735,561,23.2836,24.3649
518,463,23.2245,-23.4671,0.00114123,0.00110763,0.00114475,0.00226931,-2.04414e-05,0.778061,0.00151973,0.0261746,1742,561,23.2245,23.4671
525,463,23.142,-22.6103,0.000770723,0.0010064,0.00116361,0.00205812,-0.000281003,0.83586,0.0014747,0.0202594,1749,561,23.142,22.6103
532,463,23.1226,-21.7124,0.000374435,0.00104961,0.00116389,0.00192388,-0.000499843,0.926549,0.00147766,0.0180258,1756,561,23.1225,21.7124
539,463,23.0234,-20.7939,-1.66069e-05,0.00115818,0.00115979,0.00187084,-0.000729269,1.0198,0.00154865,0.0203667,1763,561,23.0235,20.7939
546,463,22.9393,-19.9849,-0.000357809,0.00152346,0.00117059,0.00208451,-0.000918865,1.12385,0.001777,0.0159272,1770,561,22.9393,19.9849
553,463,22.9213,-19.101,-0.000624637,0.0020495,0.00124566,0.00253984,-0.00111498,1.19579,0.0021629,0.0117932,1777,561,22.9212,19.101
560,463,22.922,-18.0909,-0.000693993,0.0027814,0.00142723,0.00329238,-0.00120498,1.22699,0.00268817,0.0247169,1784,561,22.922,18.091
567,463,22.7389,-17.2266,-0.000705991,0.00368057,0.00172726,0.00427905,-0.00130447,1.23725,0.00337268,0.0393784,1791,561,22.7389,17.2266
574,463,22.838,-16.3501,0,0,0,0,0,0,0,-1,1798,561,22.838,16.3501
581,463,9.4939,-3.88245,0,0,0,0,0,0,0,-1,1805,561,9.49392,3.88245
588,463,1.97424,2.16016,0,0,0,0,0,0,0,-1,1812,561,1.97422,-2.16013
595,463,9.98657,2.99854,0,0,0,0,0,0,0,-1,1819,561,9.98662,-2.99856
602,463,17.2202,4.91302,0,0,0,0,0,0,0,-1,1826,561,17.2202,-4.91305
609,463,17.96,4.03131,0,0,0,0,0,0,0,-1,1833,561,17.96,-4.03132
616,463,20.8352,3.15131,0,0,0,0,0,0,0,-1,1840,561,20.8352,-3.1513
623,463,0,0,0,0,0,0,0,0,0,-1,1847,561,0,0
630,463,0,0,0,0,0,0,0,0,0,-1,1854,561,0,0
637,463,0,0,0,0,0,0,0,0,0,-1,1861,561,0,0
644,463,0,0,0,0,0,0,0,0,0,-1,1868,561,0,0
651,463,0,0,0,0,0,0,0,0,0,-1,1875,561,0,0
658,463,0,0,0,0,0,0,0,0,0,-1,1882,561,0,0
665,463,0,0,0,0,0,0,0,0,0,-1,1889,561,0,0
672,463,0,0,0,0,0,0,0,0,0,-1,1896,561,0,0
679,463,0,0,0,0,0,0,0,0,0,-1,1903,561,0,0
686,463,0,0,0,0,0,0,0,0,0,-1,1910,561,0,0
693,463,0,0,0,0,0,0,0,0,0,-1,1917,561,0,0
700,463,0,0,0,0,0,0,0,0,0,-1,1924,561,0,0
707,463,0,0,0,0,0,0,0,0,0,-1,1931,561,0,0
714,463,0,0,0,0,0,0,0,0,0,-1,1938,561,0,0
721,463,0,0,0,0,0,0,0,0,0,-1,1945,561,0,0
728,463,0,0,0,0,0,0,0,0,0,-1,1952,561,0,0
735,463,0,0,0,0,0,0,0,0,0,-1,1959,561,0,0
742,463,0,0,0,0,0,0,0,0,0,-1,1966,561,0,0
749,463,0,0,0,0,0,0,0,0,0,-1,1973,561,0,0
756,463,0,0,0,0,0,0,0,0,0,-1,1980,561,0,0
763,463,0,0,0,0,0,0,0,0,0,-1,1987,561,0,0
770,463,0,0,0,0,0,0,0,0,0,-1,1994,561,0,0
777,463,0,0,0,0,0,0,0,0,0,-1,2001,561,0,0
784,463,0,0,0,0,0,0,0,0,0,-1,2008,561,0,0
791,463,0,0,0,0,0,0,0,0,0,-1,2015,561,0,0
798,463,0,0,0,0,0,0,0,0,0,-1,2022,561,0,0
805,463,0,0,0,0,0,0,0,0,0,-1,2029,561,0,0
812,463,0,0,0,0,0,0,0,0,0,-1,2036,561,0,0
-700,456,0,0,0,0,0,0,0,0,0,-1,524,568,0,0
-693,456,0,0,0,0,0,0,0,0,0,-1,531,568,0,0
-686,456,0,0,0,0,0,0,0,0,0,-1,538,568,0,0
-679,456,0,0,0,0,0,0,0,0,0,-1,545,568,0,0
-672,456,0,0,0,0,0,0,0,0,0,-1,552,568,0,0
-665,456,0,0,0,0,0,0,0,0,0,-1,559,568,0,0
-658,456,0,0,0,0,0,0,0,0,0,-1,566,568,0,0
-651,456,0,0,0,0,0,0,0,0,0,-1,573,568,0,0
-644,456,0,0,0,0,0,0,0,0,0,-1,580,568,0,0
-637,456,0,0,0,0,0,0,0,0,0,-1,587,568,0,0
-630,456,0,0,0,0,0,0,0,0,0,-1,594,568,0,0
-623,456,0,0,0,0,0,0,0,0,0,-1,601,568,0,0
-616,456,0,0,0,0,0,0,0,0,0,-1,608,568,0,0
-609,456,0,0,0,0,0,0,0,0,0,-1,615,568,0,0
-602,456,0,0,0,0,0,0,0,0,0,-1,622,568,0,0
-595,456,0,0,0,0,0,0,0,0,0,-1,629,568,0,0
-588,456,0,0,0,0,0,0,0,0,0,-1,636,568,0,0
-581,456,0,0,0,0,0,0,0,0,0,-1,643,568,0,0
-574,456,0,0,0,0,0,0,0,0,0,-1,650,568,0,0
-567,456,0,0,0,0,0,0,0,0,0,-1,657,568,0,0
-560,456,0,0,0,0,0,0,0,0,0,-1,664,568,0,0
-553,456,0,0,0,0,0,0,0,0,0,-1,671,568,0,0
-546,456,0,0,0,0,0,0,0,0,0,-1,678,568,0,0
-539,456,0,0,0,0,0,0,0,0,0,-1,685,568,0,0
-532,456,0,0,0,0,0,0,0,0,0,-1,692,568,0,0
-525,456,0,0,0,0,0,0,0,0,0,-1,699,568,0,0
-518,456,0,0,0,0,0,0,0,0,0,-1,706,568,0,0
-511,456,0,0,0,0,0,0,0,0,0,-1,713,568,0,0
-504,456,-10.3994,-2.34839,0,0,0,0,0,0,0,-1,720,568,-10.3994,2.3484
-497,456,-9.21375,-2.38068,0,0,0,0,0,0,0,-1,727,568,-9.21372,2.38069
-490,456,-8.09058,-2.31824,0,0,0,0,0,0,0,-1,734,568,-8.09057,2.31821
-483,456,-6.66119,-2.24329,0,0,0,0,0,0,0,-1,741,568,-6.66121,2.24331
-476,456,-5.1499,-2.21185,0,0,0,0,0,0,0,-1,748,568,-5.14992,2.21184
-469,456,-2.81238,-3.51501,0,0,0,0,0,0,0,-1,755,568,-2.81237,3.51501
-462,456,-4.2431,-5.27478,0,0,0,0,0,0,0,-1,762,568,-4.24312,5.27476
-455,456,-5.98364,-8.72119,0,0,0,0,0,0,0,-1,769,568,-5.98364,8.72122
-448,456,-8.57849,-16.2391,0,0,0,0,0,0,0,-1,776,568,-8.57846,16.2392
-441,456,-9.27557,-17.9745,0,0,0,0,0,0,0,-1,783,568,-9.27557,17.9745
-434,456,-9.18243,-18.9397,-0.000409843,0.00458576,-0.000835651,0.00472184,-0.000545921,-1.40937,0.00334475,0.0214247,790,568,-9.18244,18.9397
-427,456,-9.21057,-19.8109,-2.3347e-06,0.00413938,-0.0011066,0.00441651,-0.000279459,-1.32541,0.00304177,0.00920987,797,568,-9.21055,19.8109
-420,456,-9.25018,-20.6693,0.000356648,0.00364766,-0.00131153,0.00410639,-0.000102083,-1.23433,0.00277224,0.00979828,804,568,-9.25016,20.6692
-413,456,-9.30823,-21.5129,0.000622543,0.00305883,-0.00134374,0.00365439,2.69826e-05,-1.1536,0.00242732,0.00929249,811,568,-9.30821,21.5129
-406,456,-9.38977,-22.3564,0.000790181,0.00234867,-0.00118566,0.00298823,0.000150622,-1.07612,0.00194389,0.00927408,818,568,-9.3898,22.3564
-399,456,-9.43561,-23.2032,0.00102714,0.00170615,-0.00102019,0.00244185,0.000291442,-0.946025,0.00153997,0.011057,825,568,-9.4356,23.2032
-392,456,-9.466,-24.0449,0.00138699,0.00106763,-0.000841859,0.00208418,0.000370441,-0.691674,0.00128391,0.0111861,832,568,-9.46601,24.0449
-385,456,-9.51318,-24.883,0.00189062,0.00048274,-0.000713429,0.00218893,0.000184427,-0.396047,0.00140186,0.0109181,839,568,-9.51316,24.883
-378,456,-9.56897,-25.7321,0.00240686,-0.000107315,-0.00051574,0.00250855,-0.000208997,-0.194662,0.0017462,0.0119963,846,568,-9.569,25.7321
-371,456,-9.60309,-26.5663,0.00305795,-0.000546914,-0.0003352,0.00308886,-0.000577818,-0.0919352,0.00227642,0.0123921,853,568,-9.6031,26.5663
-364,456,-9.60889,-27.351,0.00384796,-0.000723334,-0.000268576,0.00386369,-0.00073906,-0.0584846,0.00285422,0.0233143,860,568,-9.60891,27.3509
-357,456,-9.56885,-28.2136,0,0,0,0,0,0,0,-1,867,568,-9.56884,28.2137
-350,456,-9.43756,-29.286,0,0,0,0,0,0,0,-1,874,568,-9.43754,29.286
-343,456,-3.39081,-12.0217,0,0,0,0,0,0,0,-1,881,568,-3.39078,12.0217
-336,456,-3.04517,-12.4623,0,0,0,0,0,0,0,-1,888,568,-3.04519,12.4624
-329,456,-1.06183,-10.7184,0,0,0,0,0,0,0,-1,895,568,-1.06184,10.7184
-322,456,-0.662537,-7.66632,0,0,0,0,0,0,0,-1,902,568,-0.662564,7.66633
-315,456,-0.675476,-3.38397,0,0,0,0,0,0,0,-1,909,568,-0.675473,3.38399
-308,456,-1.1618,-3.15314,0,0,0,0,0,0,0,-1,916,568,-1.16178,3.15314
-301,456,-1.83551,-3.26447,0,0,0,0,0,0,0,-1,923,568,-1.8355,3.26449
-294,456,-2.93414,-3.35449,0,0,0,0,0,0,0,-1,930,568,-2.93413,3.35451
-287,456,-3.7569,-3.53101,0,0,0,0,0,0,0,-1,937,568,-3.75692,3.53101
-280,456,-13.072,4.52856,0,0,0,0,0,0,0,-1,944,568,-13.072,-4.52855
-273,456,-8.26538,-6.66748,0,0,0,0,0,0,0,-1,951,568,-8.26536,6.66745
-266,456,-5.71527,-9.36884,0,0,0,0,0,0,0,-1,958,568,-5.71529,9.36885
-259,456,0,0,0,0,0,0,0,0,0,-1,965,568,0,0
-252,456,0,0,0,0,0,0,0,0,0,-1,972,568,0,0
-245,456,0,0,0,0,0,0,0,0,0,-1,979,568,0,0
-238,456,0,0,0,0,0,0,0,0,0,-1,986,568,0,0
-231,456,0,0,0,0,0,0,0,0,0,-1,993,568,0,0
-224,456,0,0,0,0,0,0,0,0,0,-1,1000,568,0,0
-217,456,0,0,0,0,0,0,0,0,0,-1,1007,568,0,0
-210,456,0,0,0,0,0,0,0,0,0,-1,1014,568,0,0
-203,456,0,0,0,0,0,0,0,0,0,-1,1021,568,0,0
-196,456,0,0,0,0,0,0,0,0,0,-1,1028,568,0,0
-189,456,0,0,0,0,0,0,0,0,0,-1,1035,568,0,0
-182,456,0,0,0,0,0,0,0,0,0,-1,1042,568,0,0
-175,456,0,0,0,0,0,0,0,0,0,-1,1049,568,0,0
-168,456,0,0,0,0,0,0,0,0,0,-1,1056,568,0,0
-161,456,0,0,0,0,0,0,0,0,0,-1,1063,568,0,0
-154,456,0,0,0,0,0,0,0,0,0,-1,1070,568,0,0
-147,456,0,0,0,0,0,0,0,0,0,-1,1077,568,0,0
-140,456,0,0,0,0,0,0,0,0,0,-1,1084,568,0,0
-133,456,0,0,0,0,0,0,0,0,0,-1,1091,568,0,0
-126,456,0,0,0,0,0,0,0,0,0,-1,1098,568,0,0
-119,456,0,0,0,0,0,0,0,0,0,-1,1105,568,0,0
-112,456,0,0,0,0,0,0,0,0,0,-1,1112,568,0,0
-105,456,0,0,0,0,0,0,0,0,0,-1,1119,568,0,0
-98,456,0,0,0,0,0,0,0,0,0,-1,1126,568,0,0
-91,456,0,0,0,0,0,0,0,0,0,-1,1133,568,0,0
-84,456,0,0,0,0,0,0,0,0,0,-1,1140,568,0,0
-77,456,0,0,0,0,0,0,0,0,0,-1,1147,568,0,0
-70,456,0,0,0,0,0,0,0,0,0,-1,1154,568,0,0
-63,456,0,0,0,0,0,0,0,0,0,-1,1161,568,0,0
-56,456,0,0,0,0,0,0,0,0,0,-1,1168,568,0,0
-49,456,0,0,0,0,0,0,0,0,0,-1,1175,568,0,0
-42,456,0,0,0,0,0,0,0,0,0,-1,1182,568,0,0
-35,456,0,0,0,0,0,0,0,0,0,-1,1189,568,0,0
-28,456,0,0,0,0,0,0,0,0,0,-1,1196,568,0,0
-21,456,0,0,0,0,0,0,0,0,0,-1,1203,568,0,0
-14,456,0,0,0,0,0,0,0,0,0,-1,1210,568,0,0
-7,456,0,0,0,0,0,0,0,0,0,-1,1217,568,0,0
0,456,0,0,0,0,0,0,0,0,0,-1,1224,568,0,0
7,456,0,0,0,0,0,0,0,0,0,-1,1231,568,0,0
14,456,0,0,0,0,0,0,0,0,0,-1,1238,568,0,0
21,456,0,0,0,0,0,0,0,0,0,-1,1245,568,0,0
28,456,0,0,0,0,0,0,0,0,0,-1,1252,568,0,0
35,456,0,0,0,0,0,0,0,0,0,-1,1259,568,0,0
42,456,0,0,0,0,0,0,0,0,0,-1,1266,568,0,0
49,456,0,0,0,0,0,0,0,0,0,-1,1273,568,0,0
56,456,0,0,0,0,0,0,0,0,0,-1,1280,568,0,0
63,456,0,0,0,0,0,0,0,0,0,-1,1287,568,0,0
70,456,0,0,0,0,0,0,0,0,0,-1,1294,568,0,0
77,456,0,0,0,0,0,0,0,0,0,-1,1301,568,0,0
84,456,0,0,0,0,0,0,0,0,0,-1,1308,568,0,0
91,456,0,0,0,0,0,0,0,0,0,-1,1315,568,0,0
98,456,0,0,0,0,0,0,0,0,0,-1,1322,568,0,0
105,456,0,0,0,0,0,0,0,0,0,-1,1329,568,0,0
112,456,0,0,0,0,0,0,0,0,0,-1,1336,568,0,0
119,456,0,0,0,0,0,0,0,0,0,-1,1343,568,0,0
126,456,0,0,0,0,0,0,0,0,0,-1,1350,568,0,0
133,456,0,0,0,0,0,0,0,0,0,-1,1357,568,0,0
140,456,0,0,0,0,0,0,0,0,0,-1,1364,568,0,0
147,456,0,0,0,0,0,0,0,0,0,-1,1371,568,0,0
154,456,0,0,0,0,0,0,0,0,0,-1,1378,568,0,0
161,456,0,0,0,0,0,0,0,0,0,-1,1385,568,0,0
168,456,0,0,0,0,0,0,0,0,0,-1,1392,568,0,0
175,456,0,0,0,0,0,0,0,0,0,-1,1399,568,0,0
182,456,0,0,0,0,0,0,0,0,0,-1,1406,568,0,0
189,456,0,0,0,0,0,0,0,0,0,-1,1413,568,0,0
196,456,0,0,0,0,0,0,0,0,0,-1,1420,568,0,0
203,456,0,0,0,0,0,0,0,0,0,-1,1427,568,0,0
210,456,0,0,0,0,0,0,0,0,0,-1,1434,568,0,0
217,456,0,0,0,0,0,0,0,0,0,-1,1441,568,0,0
224,456,0,0,0,0,0,0,0,0,0,-1,1448,568,0,0
231,456,0,0,0,0,0,0,0,0,0,-1,1455,568,0,0
238,456,0,0,0,0,0,0,0,0,0,-1,1462,568,0,0
245,456,0,0,0,0,0,0,0,0,0,-1,1469,568,0,0
252,456,0,0,0,0,0,0,0,0,0,-1,1476,568,0,0
259,456,0,0,0,0,0,0,0,0,0,-1,1483,568,0,0
266,456,0,0,0,0,0,0,0,0,0,-1,1490,568,0,0
273,456,0,0,0,0,0,0,0,0,0,-1,1497,568,0,0
280,456,0,0,0,0,0,0,0,0,0,-1,1504,568,0,0
287,456,0,0,0,0,0,0,0,0,0,-1,1511,568,0,0
294,456,0,0,0,0,0,0,0,0,0,-1,1518,568,0,0
301,456,0,0,0,0,0,0,0,0,0,-1,1525,568,0,0
308,456,0,0,0,0,0,0,0,0,0,-1,1532,568,0,0
315,456,0,0,0,0,0,0,0,0,0,-1,1539,568,0,0
322,456,0,0,0,0,0,0,0,0,0,-1,1546,568,0,0
329,456,0,0,0,0,0,0,0,0,0,-1,1553,568,0,0
336,456,0,0,0,0,0,0,0,0,0,-1,1560,568,0,0
343,456,0,0,0,0,0,0,0,0,0,-1,1567,568,0,0
350,456,0,0,0,0,0,0,0,0,0,-1,1574,568,0,0
357,456,0,0,0,0,0,0,0,0,0,-1,1581,568,0,0
364,456,0,0,0,0,0,0,0,0,0,-1,1588,568,0,0
371,456,0,0,0,0,0,0,0,0,0,-1,1595,568,0,0
378,456,0,0,0,0,0,0,0,0,0,-1,1602,568,0,0
385,456,5.66284,0.660645,0,0,0,0,0,0,0,-1,1609,568,5.66285,-0.660615
392,456,17.5027,4.32971,0,0,0,0,0,0,0,-1,1616,568,17.5026,-4.32971
399,456,24.1917,5.99652,0,0,0,0,0,0,0,-1,1623,568,24.1916,-5.99651
406,456,24.446,4.53003,0,0,0,0,0,0,0,-1,1630,568,24.446,-4.53005
413,456,24.9418,2.90521,0,0,0,0,0,0,0,-1,1637,568,24.9418,-2.90524
420,456,25.3048,1.04712,0,0,0,0,0,0,0,-1,1644,568,25.3048,-1.04713
427,456,6.21375,2.02905,0,0,0,0,0,0,0,-1,1651,568,6.21372,-2.02904
434,456,3.0719,-4.86285,0,0,0,0,0,0,0,-1,1658,568,3.07184,4.86287
441,456,2.90344,-4.70459,0,0,0,0,0,0,0,-1,1665,568,2.90346,4.7046
448,456,3.06995,-4.93689,0,0,0,0,0,0,0,-1,1672,568,3.06991,4.93687
455,456,3.46582,-3.43701,0,0,0,0,0,0,0,-1,1679,568,3.46585,3.43698
462,456,4.68445,-4.45831,0,0,0,0,0,0,0,-1,1686,568,4.68439,4.45833
469,456,4.93201,-2.289,0,0,0,0,0,0,0,-1,1693,568,4.93197,2.28903
476,456,4.8363,-2.79364,0,0,0,0,0,0,0,-1,1700,568,4.83636,2.79363
483,456,12.8522,-13.692,0,0,0,0,0,0,0,-1,1707,568,12.8522,13.6919
490,456,24.1012,-27.2172,0,0,0,0,0,0,0,-1,1714,568,24.1012,27.2172
497,456,24.1136,-25.9308,0,0,0,0,0,0,0,-1,1721,568,24.1137,25.9308
504,456,24.0685,-25.0808,0.00232473,0.00181701,0.0011804,0.00327826,0.000863481,0.679481,0.00196207,0.0161999,1728,568,24.0685,25.0808
511,456,24.1027,-24.2465,0.00203497,0.00151755,0.00123918,0.00304216,0.000510358,0.682488,0.00188121,0.0157505,1735,568,24.1027,24.2464
518,456,24.0575,-23.4001,0.00168471,0.00125904,0.00128861,0.00277794,0.000165803,0.703554,0.00179924,0.0185408,1742,568,24.0576,23.4002
525,456,23.9716,-22.556,0.00126455,0.00112163,0.00125575,0.00245087,-6.46911e-05,0.756976,0.0016559,0.0179254,1749,568,23.9716,22.556
532,456,23.9735,-21.6329,0.000843406,0.00113014,0.00121592,0.00221112,-0.000237568,0.844082,0.00155931,0.0184816,1756,568,23.9735,21.6328
539,456,23.8976,-20.6844,0.00047861,0.00121573,0.00119913,0.00210166,-0.000407317,0.934495,0.00155476,0.0251414,1763,568,23.8976,20.6844
546,456,23.7595,-19.8571,0.000195566,0.00152413,0.00119559,0.00222758,-0.000507885,1.03897,0.00168014,0.0275818,1770,568,23.7596,19.8571
553,456,23.7069,-18.9859,-3.06914e-05,0.00199137,0.00126168,0.00259713,-0.000636453,1.12318,0.00197801,0.0149968,1777,568,23.7069,18.9859
560,456,23.7131,-18.1495,-8.64285e-05,0.00262642,0.00146187,0.00326422,-0.000724232,1.1594,0.00245345,0.0109182,1784,568,23.7132,18.1495
567,456,23.6802,-17.2586,2.60247e-05,0.00347147,0.00185301,0.00427885,-0.000781353,1.15989,0.00314553,0.0220637,1791,568,23.6802,17.2586
574,456,23.6375,-16.4044,0,0,0,0,0,0,0,-1,1798,568,23.6375,16.4043
581,456,16.2228,-9.08563,0,0,0,0,0,0,0,-1,1805,568,16.2228,9.08562
588,456,5.23901,-0.0901489,0,0,0,0,0,0,0,-1,1812,568,5.23906,0.0901656
595,456,6.90063,3.14886,0,0,0,0,0,0,0,-1,1819,568,6.90066,-3.14887
602,456,16.894,4.10938,0,0,0,0,0,0,0,-1,1826,568,16.8941,-4.1094
609,456,14.9966,3.5708,0,0,0,0,0,0,0,-1,1833,568,14.9966,-3.57083
616,456,17.7407,2.6579,0,0,0,0,0,0,0,-1,1840,568,17.7408,-2.6579
623,456,20.6838,1.7121,0,0,0,0,0,0,0,-1,1847,568,20.6838,-1.71208
630,456,0,0,0,0,0,0,0,0,0,-1,1854,568,0,0
637,456,0,0,0,0,0,0,0,0,0,-1,1861,568,0,0
644,456,0,0,0,0,0,0,0,0,0,-1,1868,568,0,0
651,456,0,0,0,0,0,0,0,0,0,-1,1875,568,0,0
658,456,0,0,0,0,0,0,0,0,0,-1,1882,568,0,0
665,456,0,0,0,0,0,0,0,0,0,-1,1889,568,0,0
672,456,0,0,0,0,0,0,0,0,0,-1,1896,568,0,0
679,456,0,0,0,0,0,0,0,0,0,-1,1903,568,0,0
686,456,0,0,0,0,0,0,0,0,0,-1,1910,568,0,0
693,456,0,0,0,0,0,0,0,0,0,-1,1917,568,0,0
700,456,0,0,0,0,0,0,0,0,0,-1,1924,568,0,0
707,456,0,0,0,0,0,0,0,0,0,-1,1931,568,0,0
714,456,0,0,0,0,0,0,0,0,0,-1,1938,568,0,0
721,456,0,0,0,0,0,0,0,0,0,-1,1945,568,0,0
728,456,0,0,0,0,0,0,0,0,0,-1,1952,568,0,0
735,456,0,0,0,0,0,0,0,0,0,-1,1959,568,0,0
742,456,0,0,0,0,0,0,0,0,0,-1,1966,568,0,0
749,456,0,0,0,0,0,0,0,0,0,-1,1973,568,0,0
756,456,0,0,0,0,0,0,0,0,0,-1,1980,568,0,0
763,456,0,0,0,0,0,0,0,0,0,-1,1987,568,0,0
770,456,0,0,0,0,0,0,0,0,0,-1,1994,568,0,0
777,456,0,0,0,0,0,0,0,0,0,-1,2001,568,0,0
784,456,0,0,0,0,0,0,0,0,0,-1,2008,568,0,0
791,456,0,0,0,0,0,0,0,0,0,-1,2015,568,0,0
798,456,0,0,0,0,0,0,0,0,0,-1,2022,568,0,0
805,456,0,0,0,0,0,0,0,0,0,-1,2029,568,0,0
812,456,0,0,0,0,0,0,0,0,0,-1,2036,568,0,0
-700,449,0,0,0,0,0,0,0,0,0,-1,524,575,0,0
-693,449,0,0,0,0,0,0,0,0,0,-1,531,575,0,0
-686,449,0,0,0,0,0,0,0,0,0,-1,538,575,0,0
-679,449,0,0,0,0,0,0,0,0,0,-1,545,575,0,0
-672,449,0,0,0,0,0,0,0,0,0,-1,552,575,0,0
-665,449,0,0,0,0,0,0,0,0,0,-1,559,575,0,0
-658,449,0,0,0,0,0,0,0,0,0,-1,566,575,0,0
-651,449,0,0,0,0,0,0,0,0,0,-1,573,575,0,0
-644,449,0,0,0,0,0,0,0,0,0,-1,580,575,0,0
-637,449,0,0,0,0,0,0,0,0,0,-1,587,575,0,0
-630,449,0,0,0,0,0,0,0,0,0,-1,594,575,0,0
-623,449,0,0,0,0,0,0,0,0,0,-1,601,575,0,0
-616,449,0,0,0,0,0,0,0,0,0,-1,608,575,0,0
-609,449,0,0,0,0,0,0,0,0,0,-1,615,575,0,0
-602,449,0,0,0,0,0,0,0,0,0,-1,622,575,0,0
-595,449,0,0,0,0,0,0,0,0,0,-1,629,575,0,0
-588,449,0,0,0,0,0,0,0,0,0,-1,636,575,0,0
-581,449,0,0,0,0,0,0,0,0,0,-1,643,575,0,0
-574,449,0,0,0,0,0,0,0,0,0,-1,650,575,0,0
-567,449,0,0,0,0,0,0,0,0,0,-1,657,575,0,0
-560,449,0,0,0,0,0,0,0,0,0,-1,664,575,0,0
-553,449,0,0,0,0,0,0,0,0,0,-1,671,575,0,0
-546,449,0,0,0,0,0,0,0,0,0,-1,678,575,0,0
-539,449,0,0,0,0,0,0,0,0,0,-1,685,575,0,0
-532,449,0,0,0,0,0,0,0,0,0,-1,692,575,0,0
-525,449,0,0,0,0,0,0,0,0,0,-1,699,575,0,0
-518,449,0,0,0,0,0,0,0,0,0,-1,706,575,0,0
-511,449,-0.941345,-4.4519,0,0,0,0,0,0,0,-1,713,575,-0.941356,4.45191
-504,449,-14.1078,0.318237,0,0,0,0,0,0,0,-1,720,575,-14.1078,-0.318231
-497,449,-8.61292,-3.09009,0,0,0,0,0,0,0,-1,727,575,-8.61291,3.09011
-490,449,-7.50995,-2.96252,0,0,0,0,0,0,0,-1,734,575,-7.50995,2.96251
-483,449,-5.77789,-2.50061,0,0,0,0,0,0,0,-1,741,575,-5.77792,2.50059
-476,449,-4.1723,-2.07739,0,0,0,0,0,0,0,-1,748,575,-4.17228,2.0774
-469,449,-5.0976,-5.78448,0,0,0,0,0,0,0,-1,755,575,-5.09758,5.78451
-462,449,-6.54181,-9.54535,0,0,0,0,0,0,0,-1,762,575,-6.54178,9.54536
-455,449,-8.67291,-13.2226,0,0,0,0,0,0,0,-1,769,575,-8.67289,13.2226
-448,449,-9.9032,-17.0327,0,0,0,0,0,0,0,-1,776,575,-9.90321,17.0327
-441,449,-9.93207,-18.123,-0.000985549,0.0034035,-0.000141678,0.00340807,-0.000990118,-1.53856,0.00266413,0.0248802,783,575,-9.93206,18.123
-434,449,-10.0516,-18.9111,-0.000352176,0.00315393,-0.000553066,0.0032391,-0.00043735,-1.41799,0.00231897,0.0148107,790,575,-10.0516,18.911
-427,449,-10.0805,-19.7304,0.000123024,0.00290301,-0.000816345,0.003125,-9.89696e-05,-1.30528,0.00211709,0.0139855,797,575,-10.0805,19.7304
-420,449,-10.1017,-20.6055,0.000571717,0.00262814,-0.0010501,0.0030696,0.000130257,-1.17283,0.00200439,0.0139686,804,575,-10.1017,20.6055
-413,449,-10.1428,-21.4602,0.000912166,0.00225515,-0.00111913,0.00288878,0.000278532,-1.05561,0.00184005,0.011361,811,575,-10.1428,21.4602
-406,449,-10.233,-22.3084,0.00115213,0.00176669,-0.00102359,0.00252813,0.000390691,-0.931216,0.00157146,0.0104927,818,575,-10.233,22.3084
-399,449,-10.2951,-23.1385,0.00147512,0.00133545,-0.000947038,0.00235489,0.000455674,-0.748593,0.00144223,0.00962369,825,575,-10.2951,23.1385
-392,449,-10.3105,-23.9805,0.00190812,0.000882211,-0.000853898,0.00239129,0.000399042,-0.514922,0.00147923,0.0105467,832,575,-10.3105,23.9805
-385,449,-10.3435,-24.8137,0.00247745,0.000439497,-0.000796275,0.00275167,0.000165273,-0.331662,0.00178191,0.0114654,839,575,-10.3435,24.8137
-378,449,-10.4085,-25.6501,0.00309275,1.15153e-05,-0.00068245,0.00323713,-0.000132872,-0.208497,0.00220371,0.0105268,846,575,-10.4085,25.6501
-371,449,-10.4321,-26.5018,0.00389668,-0.000224369,-0.00057002,0.00397407,-0.00030176,-0.134944,0.00275548,0.0194657,853,575,-10.4321,26.5018
-364,449,-10.4247,-27.3893,0,0,0,0,0,0,0,-1,860,575,-10.4247,27.3893
-357,449,-5.88049,-15.8704,0,0,0,0,0,0,0,-1,867,575,-5.88051,15.8704
-350,449,-2.8764,-9.90204,0,0,0,0,0,0,0,-1,874,575,-2.87638,9.90203
-343,449,-2.98492,-9.2254,0,0,0,0,0,0,0,-1,881,575,-2.98491,9.22541
-336,449,-1.29523,-9.54626,0,0,0,0,0,0,0,-1,888,575,-1.29525,9.54626
-329,449,-0.733398,-7.78937,0,0,0,0,0,0,0,-1,895,575,-0.733398,7.78937
-322,449,-0.628845,-3.16669,0,0,0,0,0,0,0,-1,902,575,-0.628861,3.16667
-315,449,-0.540344,-3.21918,0,0,0,0,0,0,0,-1,909,575,-0.540336,3.21917
-308,449,-1.04413,-2.99341,0,0,0,0,0,0,0,-1,916,575,-1.04415,2.99338
-301,449,-1.58691,-2.80725,0,0,0,0,0,0,0,-1,923,575,-1.58692,2.80728
-294,449,-3.71118,-2.76086,0,0,0,0,0,0,0,-1,930,575,-3.71119,2.76087
-287,449,-4.4082,-2.69525,0,0,0,0,0,0,0,-1,937,575,-4.40822,2.69526
-280,449,0.723999,-14.2697,0,0,0,0,0,0,0,-1,944,575,0.723977,14.2696
-273,449,0,0,0,0,0,0,0,0,0,-1,951,575,0,0
-266,449,0,0,0,0,0,0,0,0,0,-1,958,575,0,0
-259,449,0,0,0,0,0,0,0,0,0,-1,965,575,0,0
-252,449,0,0,0,0,0,0,0,0,0,-1,972,575,0,0
-245,449,0,0,0,0,0,0,0,0,0,-1,979,575,0,0
-238,449,0,0,0,0,0,0,0,0,0,-1,986,575,0,0
-231,449,0,0,0,0,0,0,0,0,0,-1,993,575,0,0
-224,449,0,0,0,0,0,0,0,0,0,-1,1000,575,0,0
-217,449,0,0,0,0,0,0,0,0,0,-1,1007,575,0,0
-210,449,0,0,0,0,0,0,0,0,0,-1,1014,575,0,0
-203,449,0,0,0,0,0,0,0,0,0,-1,1021,575,0,0
-196,449,0,0,0,0,0,0,0,0,0,-1,1028,575,0,0
-189,449,0,0,0,0,0,0,0,0,0,-1,1035,575,0,0
-182,449,0,0,0,0,0,0,0,0,0,-1,1042,575,0,0
-175,449,0,0,0,0,0,0,0,0,0,-1,1049,575,0,0
-168,449,0,0,0,0,0,0,0,0,0,-1,1056,575,0,0
-161,449,0,0,0,0,0,0,0,0,0,-1,1063,575,0,0
-154,449,0,0,0,0,0,0,0,0,0,-1,1070,575,0,0
-147,449,0,0,0,0,0,0,0,0,0,-1,1077,575,0,0
-140,449,0,0,0,0,0,0,0,0,0,-1,1084,575,0,0
-133,449,0,0,0,0,0,0,0,0,0,-1,1091,575,0,0
-126,449,0,0,0,0,0,0,0,0,0,-1,1098,575,0,0
-119,449,0,0,0,0,0,0,0,0,0,-1,1105,575,0,0
-112,449,0,0,0,0,0,0,0,0,0,-1,1112,575,0,0
-105,449,0,0,0,0,0,0,0,0,0,-1,1119,575,0,0
-98,449,0,0,0,0,0,0,0,0,0,-1,1126,575,0,0
-91,449,0,0,0,0,0,0,0,0,0,-1,1133,575,0,0
-84,449,0,0,0,0,0,0,0,0,0,-1,1140,575,0,0
-77,449,0,0,0,0,0,0,0,0,0,-1,1147,575,0,0
-70,449,0,0,0,0,0,0,0,0,0,-1,1154,575,0,0
-63,449,0,0,0,0,0,0,0,0,0,-1,1161,575,0,0
-56,449,0,0,0,0,0,0,0,0,0,-1,1168,575,0,0
-49,449,0,0,0,0,0,0,0,0,0,-1,1175,575,0,0
-42,449,0,0,0,0,0,0,0,0,0,-1,1182,575,0,0
-35,449,0,0,0,0,0,0,0,0,0,-1,1189,575,0,0
-28,449,0,0,0,0,0,0,0,0,0,-1,1196,575,0,0
-21,449,0,0,0,0,0,0,0,0,0,-1,1203,575,0,0
-14,449,0,0,0,0,0,0,0,0,0,-1,1210,575,0,0
-7,449,0,0,0,0,0,0,0,0,0,-1,1217,575,0,0
0,449,0,0,0,0,0,0,0,0,0,-1,1224,575,0,0
7,449,0,0,0,0,0,0,0,0,0,-1,1231,575,0,0
14,449,0,0,0,0,0,0,0,0,0,-1,1238,575,0,0
21,449,0,0,0,0,0,0,0,0,0,-1,1245,575,0,0
28,449,0,0,0,0,0,0,0,0,0,-1,1252,575,0,0
35,449,0,0,0,0,0,0,0,0,0,-1,1259,575,0,0
42,449,0,0,0,0,0,0,0,0,0,-1,1266,575,0,0
49,449,0,0,0,0,0,0,0,0,0,-1,1273,575,0,0
56,449,0,0,0,0,0,0,0,0,0,-1,1280,575,0,0
63,449,0,0,0,0,0,0,0,0,0,-1,1287,575,0,0
70,449,0,0,0,0,0,0,0,0,0,-1,1294,575,0,0
77,449,0,0,0,0,0,0,0,0,0,-1,1301,575,0,0
84,449,0,0,0,0,0,0,0,0,0,-1,1308,575,0,0
91,449,0,0,0,0,0,0,0,0,0,-1,1315,575,0,0
98,449,0,0,0,0,0,0,0,0,0,-1,1322,575,0,0
105,449,0,0,0,0,0,0,0,0,0,-1,1329,575,0,0
112,449,0,0,0,0,0,0,0,0,0,-1,1336,575,0,0
119,449,0,0,0,0,0,0,0,0,0,-1,1343,575,0,0
126,449,0,0,0,0,0,0,0,0,0,-1,1350,575,0,0
133,449,0,0,0,0,0,0,0,0,0,-1,1357,575,0,0
140,449,0,0,0,0,0,0,0,0,0,-1,1364,575,0,0
147,449,0,0,0,0,0,0,0,0,0,-1,1371,575,0,0
154,449,0,0,0,0,0,0,0,0,0,-1,1378,575,0,0
161,449,0,0,0,0,0,0,0,0,0,-1,1385,575,0,0
168,449,0,0,0,0,0,0,0,0,0,-1,1392,575,0,0
175,449,0,0,0,0,0,0,0,0,0,-1,1399,575,0,0
182,449,0,0,0,0,0,0,0,0,0,-1,1406,575,0,0
189,449,0,0,0,0,0,0,0,0,0,-1,1413,575,0,0
196,449,0,0,0,0,0,0,0,0,0,-1,1420,575,0,0
203,449,0,0,0,0,0,0,0,0,0,-1,1427,575,0,0
210,449,0,0,0,0,0,0,0,0,0,-1,1434,575,0,0
217,449,0,0,0,0,0,0,0,0,0,-1,1441,575,0,0
224,449,0,0,0,0,0,0,0,0,0,-1,1448,575,0,0
231,449,0,0,0,0,0,0,0,0,0,-1,1455,575,0,0
238,449,0,0,0,0,0,0,0,0,0,-1,1462,575,0,0
245,449,0,0,0,0,0,0,0,0,0,-1,1469,575,0,0
252,449,0,0,0,0,0,0,0,0,0,-1,1476,575,0,0
259,449,0,0,0,0,0,0,0,0,0,-1,1483,575,0,0
266,449,0,0,0,0,0,0,0,0,0,-1,1490,575,0,0
273,449,0,0,0,0,0,0,0,0,0,-1,1497,575,0,0
280,449,0,0,0,0,0,0,0,0,0,-1,1504,575,0,0
287,449,0,0,0,0,0,0,0,0,0,-1,1511,575,0,0
294,449,0,0,0,0,0,0,0,0,0,-1,1518,575,0,0
301,449,0,0,0,0,0,0,0,0,0,-1,1525,575,0,0
308,449,0,0,0,0,0,0,0,0,0,-1,1532,575,0,0
315,449,0,0,0,0,0,0,0,0,0,-1,1539,575,0,0
322,449,0,0,0,0,0,0,0,0,0,-1,1546,575,0,0
329,449,0,0,0,0,0,0,0,0,0,-1,1553,575,0,0
336,449,0,0,0,0,0,0,0,0,0,-1,1560,575,0,0
343,449,0,0,0,0,0,0,0,0,0,-1,1567,575,0,0
350,449,0,0,0,0,0,0,0,0,0,-1,1574,575,0,0
357,449,0,0,0,0,0,0,0,0,0,-1,1581,575,0,0
364,449,0,0,0,0,0,0,0,0,0,-1,1588,575,0,0
371,449,0,0,0,0,0,0,0,0,0,-1,1595,575,0,0
378,449,0,0,0,0,0,0,0,0,0,-1,1602,575,0,0
385,449,0,0,0,0,0,0,0,0,0,-1,1609,575,0,0
392,449,7.95471,3.66217,0,0,0,0,0,0,0,-1,1616,575,7.95471,-3.66218
399,449,19.9791,5.565,0,0,0,0,0,0,0,-1,1623,575,19.9791,-5.56499
406,449,24.9847,4.55969,0,0,0,0,0,0,0,-1,1630,575,24.9848,-4.55968
413,449,30.4159,3.15027,0,0,0,0,0,0,0,-1,1637,575,30.4159,-3.15028
420,449,23.9675,1.29718,0,0,0,0,0,0,0,-1,1644,575,23.9675,-1.29721
427,449,24.4276,-0.596558,0,0,0,0,0,0,0,-1,1651,575,24.4277,0.596569
434,449,25.61,-2.96594,0,0,0,0,0,0,0,-1,1658,575,25.61,2.96595
441,449,3.89856,-6.06458,0,0,0,0,0,0,0,-1,1665,575,3.89855,6.06459
448,449,4.03198,-5.18207,0,0,0,0,0,0,0,-1,1672,575,4.03197,5.18207
455,449,4.21948,-4.09467,0,0,0,0,0,0,0,-1,1679,575,4.21952,4.09465
462,449,4.23181,-2.96924,0,0,0,0,0,0,0,-1,1686,575,4.23185,2.96926
469,449,4.51672,-2.95135,0,0,0,0,0,0,0,-1,1693,575,4.51672,2.95135
476,449,4.71838,-1.86688,0,0,0,0,0,0,0,-1,1700,575,4.71842,1.86689
483,449,4.87878,-1.73126,0,0,0,0,0,0,0,-1,1707,575,4.87875,1.73128
490,449,5.73279,-2.74573,0,0,0,0,0,0,0,-1,1714,575,5.73282,2.74575
497,449,17.2095,-16.4381,0,0,0,0,0,0,0,-1,1721,575,17.2094,16.4381
504,449,24.9249,-25.0301,0,0,0,0,0,0,0,-1,1728,575,24.9249,25.0301
511,449,24.921,-24.1781,0.00291399,0.00183372,0.00159352,0.00405642,0.000691281,0.621997,0.00250584,0.0168657,1735,575,24.921,24.1781
518,449,24.9022,-23.3576,0.00250157,0.00145578,0.0015841,0.00364684,0.000310504,0.625984,0.00233462,0.01476,1742,575,24.9023,23.3576
525,449,24.8208,-22.4991,0.00199316,0.00126869,0.00147869,0.00315334,0.00010851,0.665279,0.002067,0.0145765,1749,575,24.8208,22.4991
532,449,24.7517,-21.62,0.00150178,0.0012198,0.00137003,0.00273806,-1.64795e-05,0.734122,0.00183089,0.0126614,1756,575,24.7517,21.62
539,449,24.6871,-20.7204,0.00110838,0.00127091,0.00130673,0.0024989,-0.00011961,0.816453,0.0017072,0.0177896,1763,575,24.6872,20.7204
546,449,24.6174,-19.797,0.000807329,0.00150212,0.00125172,0.00245376,-0.000144311,0.920758,0.001686,0.0308083,1770,575,24.6175,19.797
553,449,24.5714,-18.972,0.000534318,0.00189163,0.0012632,0.00264694,-0.000220989,1.0319,0.00184271,0.0202642,1777,575,24.5714,18.972
560,449,24.5759,-18.1256,0.000385519,0.00241602,0.00140653,0.00313543,-0.000333891,1.09801,0.00221001,0.0141827,1784,575,24.5759,18.1256
567,449,24.519,-17.2653,0.000434089,0.00315934,0.00173809,0.00400527,-0.00041184,1.11785,0.00281751,0.0106053,1791,575,24.519,17.2653
574,449,24.4863,-16.3474,0.000509326,0.00407145,0.00219775,0.00511922,-0.00053844,1.12592,0.00360572,0.027427,1798,575,24.4863,16.3474
581,449,24.4714,-15.3202,0,0,0,0,0,0,0,-1,1805,575,24.4714,15.3202
588,449,12.3274,-4.5672,0,0,0,0,0,0,0,-1,1812,575,12.3274,4.5672
595,449,15.9352,-5.65479,0,0,0,0,0,0,0,-1,1819,575,15.9352,5.65478
602,449,9.46167,4.17444,0,0,0,0,0,0,0,-1,1826,575,9.46164,-4.17442
609,449,12.2028,3.18652,0,0,0,0,0,0,0,-1,1833,575,12.2027,-3.18655
616,449,14.9438,2.19867,0,0,0,0,0,0,0,-1,1840,575,14.9438,-2.19867
623,449,9.83789,-0.0820313,0,0,0,0,0,0,0,-1,1847,575,9.83794,0.0820443
630,449,8.90686,4.99329,0,0,0,0,0,0,0,-1,1854,575,8.90685,-4.99327
637,449,0,0,0,0,0,0,0,0,0,-1,1861,575,0,0
644,449,0,0,0,0,0,0,0,0,0,-1,1868,575,0,0
651,449,0,0,0,0,0,0,0,0,0,-1,1875,575,0,0
658,449,0,0,0,0,0,0,0,0,0,-1,1882,575,0,0
665,449,0,0,0,0,0,0,0,0,0,-1,1889,575,0,0
672,449,0,0,0,0,0,0,0,0,0,-1,1896,575,0,0
679,449,0,0,0,0,0,0,0,0,0,-1,1903,575,0,0
686,449,0,0,0,0,0,0,0,0,0,-1,1910,575,0,0
693,449,0,0,0,0,0,0,0,0,0,-1,1917,575,0,0
700,449,0,0,0,0,0,0,0,0,0,-1,1924,575,0,0
707,449,0,0,0,0,0,0,0,0,0,-1,1931,575,0,0
714,449,0,0,0,0,0,0,0,0,0,-1,1938,575,0,0
721,449,0,0,0,0,0,0,0,0,0,-1,1945,575,0,0
728,449,0,0,0,0,0,0,0,0,0,-1,1952,575,0,0
735,449,0,0,0,0,0,0,0,0,0,-1,1959,575,0,0
742,449,0,0,0,0,0,0,0,0,0,-1,1966,575,0,0
749,449,0,0,0,0,0,0,0,0,0,-1,1973,575,0,0
756,449,0,0,0,0,0,0,0,0,0,-1,1980,575,0,0
763,449,0,0,0,0,0,0,0,0,0,-1,1987,575,0,0
770,449,0,0,0,0,0,0,0,0,0,-1,1994,575,0,0
777,449,0,0,0,0,0,0,0,0,0,-1,2001,575,0,0
784,449,0,0,0,0,0,0,0,0,0,-1,2008,575,0,0
791,449,0,0,0,0,0,0,0,0,0,-1,2015,575,0,0
798,449,0,0,0,0,0,0,0,0,0,-1,2022,575,0,0
805,449,0,0,0,0,0,0,0,0,0,-1,2029,575,0,0
812,449,0,0,0,0,0,0,0,0,0,-1,2036,575,0,0
-700,442,0,0,0,0,0,0,0,0,0,-1,524,582,0,0
-693,442,0,0,0,0,0,0,0,0,0,-1,531,582,0,0
-686,442,0,0,0,0,0,0,0,0,0,-1,538,582,0,0
-679,442,0,0,0,0,0,0,0,0,0,-1,545,582,0,0
-672,442,0,0,0,0,0,0,0,0,0,-1,552,582,0,0
-665,442,0,0,0,0,0,0,0,0,0,-1,559,582,0,0
-658,442,0,0,0,0,0,0,0,0,0,-1,566,582,0,0
-651,442,0,0,0,0,0,0,0,0,0,-1,573,582,0,0
-644,442,0,0,0,0,0,0,0,0,0,-1,580,582,0,0
-637,442,0,0,0,0,0,0,0,0,0,-1,587,582,0,0
-630,442,0,0,0,0,0,0,0,0,0,-1,594,582,0,0
-623,442,0,0,0,0,0,0,0,0,0,-1,601,582,0,0
-616,442,0,0,0,0,0,0,0,0,0,-1,608,582,0,0
-609,442,0,0,0,0,0,0,0,0,0,-1,615,582,0,0
-602,442,0,0,0,0,0,0,0,0,0,-1,622,582,0,0
-595,442,0,0,0,0,0,0,0,0,0,-1,629,582,0,0
-588,442,0,0,0,0,0,0,0,0,0,-1,636,582,0,0
-581,442,0,0,0,0,0,0,0,0,0,-1,643,582,0,0
-574,442,0,0,0,0,0,0,0,0,0,-1,650,582,0,0
-567,442,0,0,0,0,0,0,0,0,0,-1,657,582,0,0
-560,442,0,0,0,0,0,0,0,0,0,-1,664,582,0,0
-553,442,0,0,0,0,0,0,0,0,0,-1,671,582,0,0
-546,442,0,0,0,0,0,0,0,0,0,-1,678,582,0,0
-539,442,0,0,0,0,0,0,0,0,0,-1,685,582,0,0
-532,442,0,0,0,0,0,0,0,0,0,-1,692,582,0,0
-525,442,0,0,0,0,0,0,0,0,0,-1,699,582,0,0
-518,442,-0.493774,-5.72943,0,0,0,0,0,0,0,-1,706,582,-0.493791,5.72946
-511,442,-1.33008,-6.18512,0,0,0,0,0,0,0,-1,713,582,-1.33006,6.18511
-504,442,-3.20807,-6.34082,0,0,0,0,0,0,0,-1,720,582,-3.2081,6.34083
-497,442,-13.6886,-0.250122,0,0,0,0,0,0,0,-1,727,582,-13.6886,0.250143
-490,442,-9.09039,-3.64862,0,0,0,0,0,0,0,-1,734,582,-9.09037,3.64861
-483,442,-7.36499,-1.01892,0,0,0,0,0,0,0,-1,741,582,-7.365,1.01895
-476,442,-4.84784,-4.44141,0,0,0,0,0,0,0,-1,748,582,-4.84787,4.44138
-469,442,-10.926,-13.5696,0,0,0,0,0,0,0,-1,755,582,-10.926,13.5696
-462,442,-10.2018,-14.6873,0,0,0,0,0,0,0,-1,762,582,-10.2019,14.6873
-455,442,-10.7452,-16.1006,0,0,0,0,0,0,0,-1,769,582,-10.7452,16.1007
-448,442,-10.7536,-17.0895,-0.00163216,0.00246152,0.00044097,0.00250848,-0.00167912,1.4647,0.00243347,0.0221976,776,582,-10.7536,17.0896
-441,442,-10.8315,-17.9998,-0.000797172,0.00229193,-4.6563e-05,0.00229263,-0.000797874,-1.55573,0.00185256,0.0147491,783,582,-10.8316,17.9998
-434,442,-10.8878,-18.8552,-0.000160779,0.00214165,-0.000395737,0.00220777,-0.000226899,-1.40525,0.00155302,0.0142304,790,582,-10.8878,18.8552
-427,442,-10.9432,-19.6864,0.000363341,0.00204572,-0.000665842,0.00227735,0.000131709,-1.23601,0.00147629,0.0140556,797,582,-10.9432,19.6864
-420,442,-10.9685,-20.5509,0.00087967,0.00195466,-0.000932688,0.00249364,0.000340685,-1.0468,0.00156131,0.0147241,804,582,-10.9685,20.5509
-413,442,-10.9975,-21.4197,0.00128272,0.00178425,-0.00104822,0.00261128,0.000455685,-0.902806,0.00161059,0.0124451,811,582,-10.9975,21.4197
-406,442,-11.078,-22.2756,0.00159653,0.00153332,-0.00103851,0.00260391,0.000525938,-0.770187,0.0015899,0.0104754,818,582,-11.078,22.2756
-399,442,-11.1409,-23.101,0.00200954,0.0013351,-0.00107751,0.00280136,0.000543281,-0.633746,0.0017154,0.00898774,825,582,-11.1409,23.101
-392,442,-11.1738,-23.9269,0.00251652,0.00111057,-0.0011056,0.00312371,0.000503384,-0.502222,0.00193661,0.0109117,832,582,-11.1738,23.9269
-385,442,-11.2092,-24.7454,0.00314714,0.000850244,-0.00115913,0.00363041,0.000366972,-0.395013,0.0023077,0.0132635,839,582,-11.2092,24.7454
-378,442,-11.2327,-25.6093,0.00387932,0.000640344,-0.00118585,0.00426706,0.000252602,-0.316017,0.00276436,0.0190606,846,582,-11.2327,25.6093
-371,442,-11.3054,-26.5772,0,0,0,0,0,0,0,-1,853,582,-11.3054,26.5772
-364,442,-6.89764,-17.5333,0,0,0,0,0,0,0,-1,860,582,-6.89765,17.5333
-357,442,-4.9115,-11.2649,0,0,0,0,0,0,0,-1,867,582,-4.91147,11.2649
-350,442,-1.75372,-6.27618,0,0,0,0,0,0,0,-1,874,582,-1.75371,6.27618
-343,442,-1.4599,-4.63605,0,0,0,0,0,0,0,-1,881,582,-1.4599,4.63607
-336,442,-1.4054,-2.64313,0,0,0,0,0,0,0,-1,888,582,-1.40539,2.64315
-329,442,-0.952576,-2.76923,0,0,0,0,0,0,0,-1,895,582,-0.952571,2.7692
-322,442,-0.972534,-2.63208,0,0,0,0,0,0,0,-1,902,582,-0.972512,2.6321
-315,442,-0.445557,-2.89764,0,0,0,0,0,0,0,-1,909,582,-0.445582,2.89765
-308,442,-0.654175,-3.07831,0,0,0,0,0,0,0,-1,916,582,-0.654145,3.07832
-301,442,-1.37427,-2.41455,0,0,0,0,0,0,0,-1,923,582,-1.37425,2.41453
-294,442,-2.99963,-2.07855,0,0,0,0,0,0,0,-1,930,582,-2.99964,2.07857
-287,442,3.91034,-10.1913,0,0,0,0,0,0,0,-1,937,582,3.91034,10.1913
-280,442,0,0,0,0,0,0,0,0,0,-1,944,582,0,0
-273,442,0,0,0,0,0,0,0,0,0,-1,951,582,0,0
-266,442,0,0,0,0,0,0,0,0,0,-1,958,582,0,0
-259,442,0,0,0,0,0,0,0,0,0,-1,965,582,0,0
-252,442,0,0,0,0,0,0,0,0,0,-1,972,582,0,0
-245,442,0,0,0,0,0,0,0,0,0,-1,979,582,0,0
-238,442,0,0,0,0,0,0,0,0,0,-1,986,582,0,0
-231,442,0,0,0,0,0,0,0,0,0,-1,993,582,0,0
-224,442,0,0,0,0,0,0,0,0,0,-1,1000,582,0,0
-217,442,0,0,0,0,0,0,0,0,0,-1,1007,582,0,0
-210,442,0,0,0,0,0,0,0,0,0,-1,1014,582,0,0
-203,442,0,0,0,0,0,0,0,0,0,-1,1021,582,0,0
-196,442,0,0,0,0,0,0,0,0,0,-1,1028,582,0,0
-189,442,0,0,0,0,0,0,0,0,0,-1,1035,582,0,0
-182,442,0,0,0,0,0,0,0,0,0,-1,1042,582,0,0
-175,442,0,0,0,0,0,0,0,0,0,-1,1049,582,0,0
-168,442,0,0,0,0,0,0,0,0,0,-1,1056,582,0,0
-161,442,0,0,0,0,0,0,0,0,0,-1,1063,582,0,0
-154,442,0,0,0,0,0,0,0,0,0,-1,1070,582,0,0
-147,442,0,0,0,0,0,0,0,0,0,-1,1077,582,0,0
-140,442,0,0,0,0,0,0,0,0,0,-1,1084,582,0,0
-133,442,0,0,0,0,0,0,0,0,0,-1,1091,582,0,0
-126,442,0,0,0,0,0,0,0,0,0,-1,1098,582,0,0
-119,442,0,0,0,0,0,0,0,0,0,-1,1105,582,0,0
-112,442,0,0,0,0,0,0,0,0,0,-1,1112,582,0,0
-105,442,0,0,0,0,0,0,0,0,0,-1,1119,582,0,0
-98,442,0,0,0,0,0,0,0,0,0,-1,1126,582,0,0
-91,442,0,0,0,0,0,0,0,0,0,-1,1133,582,0,0
-84,442,0,0,0,0,0,0,0,0,0,-1,1140,582,0,0
-77,442,0,0,0,0,0,0,0,0,0,-1,1147,582,0,0
-70,442,0,0,0,0,0,0,0,0,0,-1,1154,582,0,0
-63,442,0,0,0,0,0,0,0,0,0,-1,1161,582,0,0
-56,442,0,0,0,0,0,0,0,0,0,-1,1168,582,0,0
-49,442,0,0,0,0,0,0,0,0,0,-1,1175,582,0,0
-42,442,0,0,0,0,0,0,0,0,0,-1,1182,582,0,0
-35,442,0,0,0,0,0,0,0,0,0,-1,1189,582,0,0
-28,442,0,0,0,0,0,0,0,0,0,-1,1196,582,0,0
-21,442,0,0,0,0,0,0,0,0,0,-1,1203,582,0,0
-14,442,0,0,0,0,0,0,0,0,0,-1,1210,582,0,0
-7,442,0,0,0,0,0,0,0,0,0,-1,1217,582,0,0
0,442,0,0,0,0,0,0,0,0,0,-1,1224,582,0,0
7,442,0,0,0,0,0,0,0,0,0,-1,1231,582,0,0
14,442,0,0,0,0,0,0,0,0,0,-1,1238,582,0,0
21,442,0,0,0,0,0,0,0,0,0,-1,1245,582,0,0
28,442,0,0,0,0,0,0,0,0,0,-1,1252,582,0,0
35,442,0,0,0,0,0,0,0,0,0,-1,1259,582,0,0
42,442,0,0,0,0,0,0,0,0,0,-1,1266,582,0,0
49,442,0,0,0,0,0,0,0,0,0,-1,1273,582,0,0
56,442,0,0,0,0,0,0,0,0,0,-1,1280,582,0,0
63,442,0,0,0,0,0,0,0,0,0,-1,1287,582,0,0
70,442,0,0,0,0,0,0,0,0,0,-1,1294,582,0,0
77,442,0,0,0,0,0,0,0,0,0,-1,1301,582,0,0
84,442,0,0,0,0,0,0,0,0,0,-1,1308,582,0,0
91,442,0,0,0,0,0,0,0,0,0,-1,1315,582,0,0
98,442,0,0,0,0,0,0,0,0,0,-1,1322,582,0,0
105,442,0,0,0,0,0,0,0,0,0,-1,1329,582,0,0
112,442,0,0,0,0,0,0,0,0,0,-1,1336,582,0,0
119,442,0,0,0,0,0,0,0,0,0,-1,1343,582,0,0
126,442,0,0,0,0,0,0,0,0,0,-1,1350,582,0,0
133,442,0,0,0,0,0,0,0,0,0,-1,1357,582,0,0
140,442,0,0,0,0,0,0,0,0,0,-1,1364,582,0,0
147,442,0,0,0,0,0,0,0,0,0,-1,1371,582,0,0
154,442,0,0,0,0,0,0,0,0,0,-1,1378,582,0,0
161,442,0,0,0,0,0,0,0,0,0,-1,1385,582,0,0
168,442,0,0,0,0,0,0,0,0,0,-1,1392,582,0,0
175,442,0,0,0,0,0,0,0,0,0,-1,1399,582,0,0
182,442,0,0,0,0,0,0,0,0,0,-1,1406,582,0,0
189,442,0,0,0,0,0,0,0,0,0,-1,1413,582,0,0
196,442,0,0,0,0,0,0,0,0,0,-1,1420,582,0,0
203,442,0,0,0,0,0,0,0,0,0,-1,1427,582,0,0
210,442,0,0,0,0,0,0,0,0,0,-1,1434,582,0,0
217,442,0,0,0,0,0,0,0,0,0,-1,1441,582,0,0
224,442,0,0,0,0,0,0,0,0,0,-1,1448,582,0,0
231,442,0,0,0,0,0,0,0,0,0,-1,1455,582,0,0
238,442,0,0,0,0,0,0,0,0,0,-1,1462,582,0,0
245,442,0,0,0,0,0,0,0,0,0,-1,1469,582,0,0
252,442,0,0,0,0,0,0,0,0,0,-1,1476,582,0,0
259,442,0,0,0,0,0,0,0,0,0,-1,1483,582,0,0
266,442,0,0,0,0,0,0,0,0,0,-1,1490,582,0,0
273,442,0,0,0,0,0,0,0,0,0,-1,1497,582,0,0
280,442,0,0,0,0,0,0,0,0,0,-1,1504,582,0,0
287,442,0,0,0,0,0,0,0,0,0,-1,1511,582,0,0
294,442,0,0,0,0,0,0,0,0,0,-1,1518,582,0,0
301,442,0,0,0,0,0,0,0,0,0,-1,1525,582,0,0
308,442,0,0,0,0,0,0,0,0,0,-1,1532,582,0,0
315,442,0,0,0,0,0,0,0,0,0,-1,1539,582,0,0
322,442,0,0,0,0,0,0,0,0,0,-1,1546,582,0,0
329,442,0,0,0,0,0,0,0,0,0,-1,1553,582,0,0
336,442,0,0,0,0,0,0,0,0,0,-1,1560,582,0,0
343,442,0,0,0,0,0,0,0,0,0,-1,1567,582,0,0
350,442,0,0,0,0,0,0,0,0,0,-1,1574,582,0,0
357,442,0,0,0,0,0,0,0,0,0,-1,1581,582,0,0
364,442,0,0,0,0,0,0,0,0,0,-1,1588,582,0,0
371,442,0,0,0,0,0,0,0,0,0,-1,1595,582,0,0
378,442,0,0,0,0,0,0,0,0,0,-1,1602,582,0,0
385,442,0,0,0,0,0,0,0,0,0,-1,1609,582,0,0
392,442,0,0,0,0,0,0,0,0,0,-1,1616,582,0,0
399,442,0,0,0,0,0,0,0,0,0,-1,1623,582,0,0
406,442,17.6321,4.08295,0,0,0,0,0,0,0,-1,1630,582,17.6321,-4.08293
413,442,25.4768,2.74445,0,0,0,0,0,0,0,-1,1637,582,25.4768,-2.74444
420,442,22.7478,1.55011,0,0,0,0,0,0,0,-1,1644,582,22.7478,-1.55009
427,442,23.2969,-0.456787,0,0,0,0,0,0,0,-1,1651,582,23.2968,0.456769
434,442,23.9512,-2.49365,0,0,0,0,0,0,0,-1,1658,582,23.9512,2.49366
441,442,24.8251,-4.43958,0,0,0,0,0,0,0,-1,1665,582,24.8251,4.43956
448,442,4.7749,-5.88562,0,0,0,0,0,0,0,-1,1672,582,4.7749,5.8856
455,442,4.87024,-4.60687,0,0,0,0,0,0,0,-1,1679,582,4.87019,4.60686
462,442,5.02307,-3.72821,0,0,0,0,0,0,0,-1,1686,582,5.02311,3.7282
469,442,5.12976,-2.98834,0,0,0,0,0,0,0,-1,1693,582,5.12971,2.98834
476,442,5.4624,1.76947,0,0,0,0,0,0,0,-1,1700,582,5.46234,-1.76944
483,442,5.98486,1.87042,0,0,0,0,0,0,0,-1,1707,582,5.98492,-1.87045
490,442,5.04407,-2.35834,0,0,0,0,0,0,0,-1,1714,582,5.04411,2.35837
497,442,6.20984,-3.07831,0,0,0,0,0,0,0,-1,1721,582,6.2098,3.07833
504,442,20.9276,-19.7709,0,0,0,0,0,0,0,-1,1728,582,20.9276,19.771
511,442,25.7367,-24.1191,0,0,0,0,0,0,0,-1,1735,582,25.7367,24.1191
518,442,25.7499,-23.2781,0.00330862,0.00176519,0.00197612,0.00465836,0.000415449,0.599245,0.00297677,0.0158437,1742,582,25.7498,23.2781
525,442,25.673,-22.4167,0.0027466,0.00149795,0.0017699,0.00399906,0.000245488,0.615838,0.0025881,0.0114714,1749,582,25.673,22.4167
532,442,25.6123,-21.5641,0.00220298,0.00135751,0.00156541,0.00340172,0.000158762,0.65352,0.00221679,0.012343,1756,582,25.6123,21.5641
539,442,25.575,-20.6715,0.00178939,0.00135874,0.00143436,0.0030245,0.000123632,0.710897,0.00197641,0.0152461,1763,582,25.5749,20.6715
546,442,25.5571,-19.798,0.00146793,0.00149183,0.00131825,0.00279818,0.000161572,0.789932,0.001814,0.0202528,1770,582,25.5571,19.798
553,442,25.4707,-18.9538,0.00115623,0.00177946,0.00127284,0.00277827,0.00015741,0.905447,0.00180201,0.0204551,1777,582,25.4707,18.9538
560,442,25.4459,-18.0785,0.000936081,0.0021753,0.00135036,0.00304142,6.99664e-05,1.00049,0.0020047,0.0156242,1784,582,25.4459,18.0785
567,442,25.3865,-17.2294,0.00093035,0.00277799,0.00161333,0.00371328,-4.93869e-06,1.04542,0.00247717,0.0109776,1791,582,25.3865,17.2294
574,442,25.3409,-16.3439,0.000992521,0.00351128,0.00199679,0.00461266,-0.00010886,1.06674,0.00311203,0.0127536,1798,582,25.341,16.344
581,442,25.3754,-15.3442,0.00123104,0.00450767,0.00265915,0.00599268,-0.000253964,1.06149,0.00408241,0.0285537,1805,582,25.3754,15.3442
588,442,25.4861,-14.3185,0,0,0,0,0,0,0,-1,1812,582,25.486,14.3185
595,442,16.27,-6.47083,0,0,0,0,0,0,0,-1,1819,582,16.27,6.47082
602,442,16.2213,-4.49225,0,0,0,0,0,0,0,-1,1826,582,16.2213,4.49223
609,442,12.761,2.97223,0,0,0,0,0,0,0,-1,1833,582,12.761,-2.97221
616,442,9.78345,-0.103394,0,0,0,0,0,0,0,-1,1840,582,9.78341,0.103424
623,442,9.23828,0.326721,0,0,0,0,0,0,0,-1,1847,582,9.23829,-0.326727
630,442,7.74304,2.3924,0,0,0,0,0,0,0,-1,1854,582,7.7431,-2.39238
637,442,5.87805,1.84027,0,0,0,0,0,0,0,-1,1861,582,5.87807,-1.84025
644,442,0,0,0,0,0,0,0,0,0,-1,1868,582,0,0
651,442,0,0,0,0,0,0,0,0,0,-1,1875,582,0,0
658,442,0,0,0,0,0,0,0,0,0,-1,1882,582,0,0
665,442,0,0,0,0,0,0,0,0,0,-1,1889,582,0,0
672,442,0,0,0,0,0,0,0,0,0,-1,1896,582,0,0
679,442,0,0,0,0,0,0,0,0,0,-1,1903,582,0,0
686,442,0,0,0,0,0,0,0,0,0,-1,1910,582,0,0
693,442,0,0,0,0,0,0,0,0,0,-1,1917,582,0,0
700,442,0,0,0,0,0,0,0,0,0,-1,1924,582,0,0
707,442,0,0,0,0,0,0,0,0,0,-1,1931,582,0,0
714,442,0,0,0,0,0,0,0,0,0,-1,1938,582,0,0
721,442,0,0,0,0,0,0,0,0,0,-1,1945,582,0,0
728,442,0,0,0,0,0,0,0,0,0,-1,1952,582,0,0
735,442,0,0,0,0,0,0,0,0,0,-1,1959,582,0,0
742,442,0,0,0,0,0,0,0,0,0,-1,1966,582,0,0
749,442,0,0,0,0,0,0,0,0,0,-1,1973,582,0,0
756,442,0,0,0,0,0,0,0,0,0,-1,1980,582,0,0
763,442,0,0,0,0,0,0,0,0,0,-1,1987,582,0,0
770,442,0,0,0,0,0,0,0,0,0,-1,1994,582,0,0
777,442,0,0,0,0,0,0,0,0,0,-1,2001,582,0,0
784,442,0,0,0,0,0,0,0,0,0,-1,2008,582,0,0
791,442,0,0,0,0,0,0,0,0,0,-1,2015,582,0,0
798,442,0,0,0,0,0,0,0,0,0,-1,2022,582,0,0
805,442,0,0,0,0,0,0,0,0,0,-1,2029,582,0,0
812,442,0,0,0,0,0,0,0,0,0,-1,2036,582,0,0
-700,435,0,0,0,0,0,0,0,0,0,-1,524,589,0,0
-693,435,0,0,0,0,0,0,0,0,0,-1,531,589,0,0
-686,435,0,0,0,0,0,0,0,0,0,-1,538,589,0,0
-679,435,0,0,0,0,0,0,0,0,0,-1,545,589,0,0
-672,435,0,0,0,0,0,0,0,0,0,-1,552,589,0,0
-665,435,0,0,0,0,0,0,0,0,0,-1,559,589,0,0
-658,435,0,0,0,0,0,0,0,0,0,-1,566,589,0,0
-651,435,0,0,0,0,0,0,0,0,0,-1,573,589,0,0
-644,435,0,0,0,0,0,0,0,0,0,-1,580,589,0,0
-637,435,0,0,0,0,0,0,0,0,0,-1,587,589,0,0
-630,435,0,0,0,0,0,0,0,0,0,-1,594,589,0,0
-623,435,0,0,0,0,0,0,0,0,0,-1,601,589,0,0
-616,435,0,0,0,0,0,0,0,0,0,-1,608,589,0,0
-609,435,0,0,0,0,0,0,0,0,0,-1,615,589,0,0
-602,435,0,0,0,0,0,0,0,0,0,-1,622,589,0,0
-595,435,0,0,0,0,0,0,0,0,0,-1,629,589,0,0
-588,435,0,0,0,0,0,0,0,0,0,-1,636,589,0,0
-581,435,0,0,0,0,0,0,0,0,0,-1,643,589,0,0
-574,435,0,0,0,0,0,0,0,0,0,-1,650,589,0,0
-567,435,0,0,0,0,0,0,0,0,0,-1,657,589,0,0
-560,435,0,0,0,0,0,0,0,0,0,-1,664,589,0,0
-553,435,0,0,0,0,0,0,0,0,0,-1,671,589,0,0
-546,435,0,0,0,0,0,0,0,0,0,-1,678,589,0,0
-539,435,0,0,0,0,0,0,0,0,0,-1,685,589,0,0
-532,435,0,0,0,0,0,0,0,0,0,-1,692,589,0,0
-525,435,-10.0776,10.0547,0,0,0,0,0,0,0,-1,699,589,-10.0776,-10.0547
-518,435,-1.83093,-5.82367,0,0,0,0,0,0,0,-1,706,589,-1.83093,5.8237
-511,435,-2.45154,-5.33118,0,0,0,0,0,0,0,-1,713,589,-2.45151,5.33115
-504,435,-3.07208,-4.83862,0,0,0,0,0,0,0,-1,720,589,-3.0721,4.8386
-497,435,-6.31012,-5.84698,0,0,0,0,0,0,0,-1,727,589,-6.31012,5.84697
-490,435,-5.81903,-0.458679,0,0,0,0,0,0,0,-1,734,589,-5.81902,0.458684
-483,435,-6.96503,-3.01624,0,0,0,0,0,0,0,-1,741,589,-6.96505,3.01623
-476,435,-11.9684,-12.8977,0,0,0,0,0,0,0,-1,748,589,-11.9684,12.8977
-469,435,-11.5845,-14.0115,0,0,0,0,0,0,0,-1,755,589,-11.5845,14.0115
-462,435,-11.5411,-15.004,0,0,0,0,0,0,0,-1,762,589,-11.5411,15.004
-455,435,-11.6089,-16.1176,-0.00221703,0.00198211,0.000904263,0.00216856,-0.00240348,1.36746,0.00264083,0.0288321,769,589,-11.609,16.1176
-448,435,-11.6161,-17.0431,-0.00132538,0.00170366,0.000397117,0.00175486,-0.00137658,1.44258,0.00181233,0.0137965,776,589,-11.6161,17.0431
-441,435,-11.6721,-17.9133,-0.0005179,0.0016238,-5.49564e-05,0.00162521,-0.000519309,-1.54516,0.00129185,0.0114998,783,589,-11.6721,17.9133
-434,435,-11.7318,-18.7686,0.000123364,0.00155866,-0.000384764,0.0016553,2.6726e-05,-1.32472,0.00109473,0.0122127,790,589,-11.7317,18.7686
-427,435,-11.7929,-19.6535,0.00069093,0.00159294,-0.000688046,0.00196462,0.000319249,-1.07551,0.00121737,0.0105203,797,589,-11.7929,19.6535
-420,435,-11.8243,-20.4995,0.00126399,0.00166066,-0.00100132,0.00248311,0.000441551,-0.883169,0.00152961,0.0114876,804,589,-11.8244,20.4994
-413,435,-11.8637,-21.3669,0.00173062,0.00167744,-0.00118023,0.00288456,0.000523496,-0.774137,0.00177447,0.0118427,811,589,-11.8637,21.3669
-406,435,-11.9221,-22.2137,0.00213465,0.00166523,-0.00128444,0.00320564,0.000594231,-0.695029,0.00196914,0.0114145,818,589,-11.922,22.2137
-399,435,-11.9871,-23.0588,0.00266075,0.00169954,-0.00147004,0.00372675,0.000633537,-0.627409,0.00230256,0.00997309,825,589,-11.9871,23.0588
-392,435,-12.0442,-23.9048,0.00327312,0.00171659,-0.00165498,0.00432369,0.000666018,-0.565612,0.0026881,0.0108217,832,589,-12.0442,23.9048
-385,435,-12.0562,-24.7314,0.00399425,0.00164443,-0.00184642,0.00500787,0.000630812,-0.50205,0.00314944,0.0233548,839,589,-12.0562,24.7314
-378,435,-12.0206,-25.6531,0,0,0,0,0,0,0,-1,846,589,-12.0206,25.6531
-371,435,-10.247,-21.7153,0,0,0,0,0,0,0,-1,853,589,-10.247,21.7153
-364,435,-5.62848,-11.5937,0,0,0,0,0,0,0,-1,860,589,-5.62847,11.5937
-357,435,-5.57343,-10.9666,0,0,0,0,0,0,0,-1,867,589,-5.57342,10.9666
-350,435,-0.86676,-3.69836,0,0,0,0,0,0,0,-1,874,589,-0.866784,3.69834
-343,435,-1.60706,-2.36835,0,0,0,0,0,0,0,-1,881,589,-1.60706,2.36838
-336,435,-2.07263,-1.94012,0,0,0,0,0,0,0,-1,888,589,-2.07265,1.94014
-329,435,-2.55963,-1.5517,0,0,0,0,0,0,0,-1,895,589,-2.5596,1.55168
-322,435,-3.08545,-1.55255,0,0,0,0,0,0,0,-1,902,589,-3.08544,1.55254
-315,435,-0.404297,-2.63763,0,0,0,0,0,0,0,-1,909,589,-0.404276,2.63761
-308,435,-1.70056,-1.90369,0,0,0,0,0,0,0,-1,916,589,-1.70056,1.90367
-301,435,-1.19391,-2.41632,0,0,0,0,0,0,0,-1,923,589,-1.1939,2.41635
-294,435,3.78278,-10.3275,0,0,0,0,0,0,0,-1,930,589,3.78281,10.3275
-287,435,0,0,0,0,0,0,0,0,0,-1,937,589,0,0
-280,435,0,0,0,0,0,0,0,0,0,-1,944,589,0,0
-273,435,0,0,0,0,0,0,0,0,0,-1,951,589,0,0
-266,435,0,0,0,0,0,0,0,0,0,-1,958,589,0,0
-259,435,0,0,0,0,0,0,0,0,0,-1,965,589,0,0
-252,435,0,0,0,0,0,0,0,0,0,-1,972,589,0,0
-245,435,0,0,0,0,0,0,0,0,0,-1,979,589,0,0
-238,435,0,0,0,0,0,0,0,0,0,-1,986,589,0,0
-231,435,0,0,0,0,0,0,0,0,0,-1,993,589,0,0
-224,435,0,0,0,0,0,0,0,0,0,-1,1000,589,0,0
-217,435,0,0,0,0,0,0,0,0,0,-1,1007,589,0,0
-210,435,0,0,0,0,0,0,0,0,0,-1,1014,589,0,0
-203,435,0,0,0,0,0,0,0,0,0,-1,1021,589,0,0
-196,435,0,0,0,0,0,0,0,0,0,-1,1028,589,0,0
-189,435,0,0,0,0,0,0,0,0,0,-1,1035,589,0,0
-182,435,0,0,0,0,0,0,0,0,0,-1,1042,589,0,0
-175,435,0,0,0,0,0,0,0,0,0,-1,1049,589,0,0
-168,435,0,0,0,0,0,0,0,0,0,-1,1056,589,0,0
-161,435,0,0,0,0,0,0,0,0,0,-1,1063,589,0,0
-154,435,0,0,0,0,0,0,0,0,0,-1,1070,589,0,0
-147,435,0,0,0,0,0,0,0,0,0,-1,1077,589,0,0
-140,435,0,0,0,0,0,0,0,0,0,-1,1084,589,0,0
-133,435,0,0,0,0,0,0,0,0,0,-1,1091,589,0,0
-126,435,0,0,0,0,0,0,0,0,0,-1,1098,589,0,0
-119,435,0,0,0,0,0,0,0,0,0,-1,1105,589,0,0
-112,435,0,0,0,0,0,0,0,0,0,-1,1112,589,0,0
-105,435,0,0,0,0,0,0,0,0,0,-1,1119,589,0,0
-98,435,0,0,0,0,0,0,0,0,0,-1,1126,589,0,0
-91,435,0,0,0,0,0,0,0,0,0,-1,1133,589,0,0
-84,435,0,0,0,0,0,0,0,0,0,-1,1140,589,0,0
-77,435,0,0,0,0,0,0,0,0,0,-1,1147,589,0,0
-70,435,0,0,0,0,0,0,0,0,0,-1,1154,589,0,0
-63,435,0,0,0,0,0,0,0,0,0,-1,1161,589,0,0
-56,435,0,0,0,0,0,0,0,0,0,-1,1168,589,0,0
-49,435,0,0,0,0,0,0,0,0,0,-1,1175,589,0,0
-42,435,0,0,0,0,0,0,0,0,0,-1,1182,589,0,0
-35,435,0,0,0,0,0,0,0,0,0,-1,1189,589,0,0
-28,435,0,0,0,0,0,0,0,0,0,-1,1196,589,0,0
-21,435,0,0,0,0,0,0,0,0,0,-1,1203,589,0,0
-14,435,0,0,0,0,0,0,0,0,0,-1,1210,589,0,0
-7,435,0,0,0,0,0,0,0,0,0,-1,1217,589,0,0
0,435,0,0,0,0,0,0,0,0,0,-1,1224,589,0,0
7,435,0,0,0,0,0,0,0,0,0,-1,1231,589,0,0
14,435,0,0,0,0,0,0,0,0,0,-1,1238,589,0,0
21,435,0,0,0,0,0,0,0,0,0,-1,1245,589,0,0
28,435,0,0,0,0,0,0,0,0,0,-1,1252,589,0,0
35,435,0,0,0,0,0,0,0,0,0,-1,1259,589,0,0
42,435,0,0,0,0,0,0,0,0,0,-1,1266,589,0,0
49,435,0,0,0,0,0,0,0,0,0,-1,1273,589,0,0
56,435,0,0,0,0,0,0,0,0,0,-1,1280,589,0,0
63,435,0,0,0,0,0,0,0,0,0,-1,1287,589,0,0
70,435,0,0,0,0,0,0,0,0,0,-1,1294,589,0,0
77,435,0,0,0,0,0,0,0,0,0,-1,1301,589,0,0
84,435,0,0,0,0,0,0,0,0,0,-1,1308,589,0,0
91,435,0,0,0,0,0,0,0,0,0,-1,1315,589,0,0
98,435,0,0,0,0,0,0,0,0,0,-1,1322,589,0,0
105,435,0,0,0,0,0,0,0,0,0,-1,1329,589,0,0
112,435,0,0,0,0,0,0,0,0,0,-1,1336,589,0,0
119,435,0,0,0,0,0,0,0,0,0,-1,1343,589,0,0
126,435,0,0,0,0,0,0,0,0,0,-1,1350,589,0,0
133,435,0,0,0,0,0,0,0,0,0,-1,1357,589,0,0
140,435,0,0,0,0,0,0,0,0,0,-1,1364,589,0,0
147,435,0,0,0,0,0,0,0,0,0,-1,1371,589,0,0
154,435,0,0,0,0,0,0,0,0,0,-1,1378,589,0,0
161,435,0,0,0,0,0,0,0,0,0,-1,1385,589,0,0
168,435,0,0,0,0,0,0,0,0,0,-1,1392,589,0,0
175,435,0,0,0,0,0,0,0,0,0,-1,1399,589,0,0
182,435,0,0,0,0,0,0,0,0,0,-1,1406,589,0,0
189,435,0,0,0,0,0,0,0,0,0,-1,1413,589,0,0
196,435,0,0,0,0,0,0,0,0,0,-1,1420,589,0,0
203,435,0,0,0,0,0,0,0,0,0,-1,1427,589,0,0
210,435,0,0,0,0,0,0,0,0,0,-1,1434,589,0,0
217,435,0,0,0,0,0,0,0,0,0,-1,1441,589,0,0
224,435,0,0,0,0,0,0,0,0,0,-1,1448,589,0,0
231,435,0,0,0,0,0,0,0,0,0,-1,1455,589,0,0
238,435,0,0,0,0,0,0,0,0,0,-1,1462,589,0,0
245,435,0,0,0,0,0,0,0,0,0,-1,1469,589,0,0
252,435,0,0,0,0,0,0,0,0,0,-1,1476,589,0,0
259,435,0,0,0,0,0,0,0,0,0,-1,1483,589,0,0
266,435,0,0,0,0,0,0,0,0,0,-1,1490,589,0,0
273,435,0,0,0,0,0,0,0,0,0,-1,1497,589,0,0
280,435,0,0,0,0,0,0,0,0,0,-1,1504,589,0,0
287,435,0,0,0,0,0,0,0,0,0,-1,1511,589,0,0
294,435,0,0,0,0,0,0,0,0,0,-1,1518,589,0,0
301,435,0,0,0,0,0,0,0,0,0,-1,1525,589,0,0
308,435,0,0,0,0,0,0,0,0,0,-1,1532,589,0,0
315,435,0,0,0,0,0,0,0,0,0,-1,1539,589,0,0
322,435,0,0,0,0,0,0,0,0,0,-1,1546,589,0,0
329,435,0,0,0,0,0,0,0,0,0,-1,1553,589,0,0
336,435,0,0,0,0,0,0,0,0,0,-1,1560,589,0,0
343,435,0,0,0,0,0,0,0,0,0,-1,1567,589,0,0
350,435,0,0,0,0,0,0,0,0,0,-1,1574,589,0,0
357,435,0,0,0,0,0,0,0,0,0,-1,1581,589,0,0
364,435,0,0,0,0,0,0,0,0,0,-1,1588,589,0,0
371,435,0,0,0,0,0,0,0,0,0,-1,1595,589,0,0
378,435,0,0,0,0,0,0,0,0,0,-1,1602,589,0,0
385,435,0,0,0,0,0,0,0,0,0,-1,1609,589,0,0
392,435,0,0,0,0,0,0,0,0,0,-1,1616,589,0,0
399,435,0,0,0,0,0,0,0,0,0,-1,1623,589,0,0
406,435,0,0,0,0,0,0,0,0,0,-1,1630,589,0,0
413,435,20.4565,3.49835,0,0,0,0,0,0,0,-1,1637,589,20.4565,-3.49836
420,435,21.4015,1.49609,0,0,0,0,0,0,0,-1,1644,589,21.4015,-1.49609
427,435,22.0464,-0.373962,0,0,0,0,0,0,0,-1,1651,589,22.0464,0.373972
434,435,22.1863,-1.54407,0,0,0,0,0,0,0,-1,1658,589,22.1862,1.54405
441,435,22.3992,-2.38287,0,0,0,0,0,0,0,-1,1665,589,22.3992,2.38289
448,435,7.4585,-0.00292969,0,0,0,0,0,0,0,-1,1672,589,7.45848,0.00294131
455,435,5.49915,-5.047,0,0,0,0,0,0,0,-1,1679,589,5.49914,5.04703
462,435,5.60669,-4.71466,0,0,0,0,0,0,0,-1,1686,589,5.60675,4.71469
469,435,5.87708,1.22351,0,0,0,0,0,0,0,-1,1693,589,5.87703,-1.22351
476,435,6.14136,1.37714,0,0,0,0,0,0,0,-1,1700,589,6.14138,-1.37712
483,435,6.49243,1.36169,0,0,0,0,0,0,0,-1,1707,589,6.49242,-1.36171
490,435,4.38391,-1.36218,0,0,0,0,0,0,0,-1,1714,589,4.38389,1.3622
497,435,7.23499,-3.64551,0,0,0,0,0,0,0,-1,1721,589,7.23495,3.64551
504,435,7.31189,-3.75909,0,0,0,0,0,0,0,-1,1728,589,7.31184,3.75911
511,435,26.3673,-24.2686,0,0,0,0,0,0,0,-1,1735,589,26.3673,24.2686
518,435,26.5945,-23.2509,0.00411166,0.00199028,0.00239808,0.00567315,0.000428786,0.577179,0.00364758,0.0417685,1742,589,26.5945,23.2509
525,435,26.5243,-22.3623,0.00346473,0.00165919,0.00207865,0.00482819,0.000295738,0.580535,0.00312488,0.0144356,1749,589,26.5243,22.3623
532,435,26.4901,-21.4816,0.00285494,0.00144598,0.00176602,0.00405181,0.000249118,0.595615,0.00262211,0.0165024,1756,589,26.4902,21.4816
539,435,26.467,-20.5891,0.0024113,0.00144072,0.00156546,0.00356497,0.000287059,0.635097,0.00228697,0.0174316,1763,589,26.467,20.589
546,435,26.4237,-19.7566,0.00205365,0.00150446,0.00139402,0.00319986,0.000358243,0.688153,0.00202442,0.0168975,1770,589,26.4238,19.7566
553,435,26.3635,-18.9262,0.00170538,0.00172078,0.00130059,0.00301369,0.00041247,0.788358,0.00188673,0.0120948,1777,589,26.3635,18.9262
560,435,26.3115,-18.0612,0.00142976,0.00202343,0.00132621,0.00308562,0.000367571,0.895494,0.00194616,0.010004,1784,589,26.3116,18.0612
567,435,26.2761,-17.1667,0.00136209,0.00252293,0.00153623,0.00358473,0.000300288,0.966018,0.00229628,0.00896632,1791,589,26.2761,17.1667
574,435,26.2166,-16.2928,0.00140903,0.00312397,0.00185966,0.00431433,0.000218678,1.00142,0.00280617,0.00978772,1798,589,26.2165,16.2929
581,435,26.1765,-15.4141,0.0016499,0.00392434,0.00242185,0.00546268,0.000111561,1.0049,0.00360517,0.0167266,1805,589,26.1765,15.4141
588,435,26.1338,-14.5649,0.00223738,0.00497843,0.00323051,0.00711712,9.86955e-05,0.986013,0.00471219,0.0481001,1812,589,26.1338,14.5649
595,435,26.1644,-13.3992,0,0,0,0,0,0,0,-1,1819,589,26.1644,13.3992
602,435,16.8671,-6.39026,0,0,0,0,0,0,0,-1,1826,589,16.867,6.39024
609,435,15.2611,-3.42242,0,0,0,0,0,0,0,-1,1833,589,15.2611,3.42242
616,435,5.05151,-2.75269,0,0,0,0,0,0,0,-1,1840,589,5.05157,2.7527
623,435,11.7588,3.9704,0,0,0,0,0,0,0,-1,1847,589,11.7587,-3.97043
630,435,4.72742,-0.87561,0,0,0,0,0,0,0,-1,1854,589,4.7274,0.875636
637,435,5.05286,1.48792,0,0,0,0,0,0,0,-1,1861,589,5.05291,-1.48792
644,435,0,0,0,0,0,0,0,0,0,-1,1868,589,0,0
651,435,0,0,0,0,0,0,0,0,0,-1,1875,589,0,0
658,435,0,0,0,0,0,0,0,0,0,-1,1882,589,0,0
665,435,0,0,0,0,0,0,0,0,0,-1,1889,589,0,0
672,435,0,0,0,0,0,0,0,0,0,-1,1896,589,0,0
679,435,0,0,0,0,0,0,0,0,0,-1,1903,589,0,0
686,435,0,0,0,0,0,0,0,0,0,-1,1910,589,0,0
693,435,0,0,0,0,0,0,0,0,0,-1,1917,589,0,0
700,435,0,0,0,0,0,0,0,0,0,-1,1924,589,0,0
707,435,0,0,0,0,0,0,0,0,0,-1,1931,589,0,0
714,435,0,0,0,0,0,0,0,0,0,-1,1938,589,0,0
721,435,0,0,0,0,0,0,0,0,0,-1,1945,589,0,0
728,435,0,0,0,0,0,0,0,0,0,-1,1952,589,0,0
735,435,0,0,0,0,0,0,0,0,0,-1,1959,589,0,0
742,435,0,0,0,0,0,0,0,0,0,-1,1966,589,0,0
749,435,0,0,0,0,0,0,0,0,0,-1,1973,589,0,0
756,435,0,0,0,0,0,0,0,0,0,-1,1980,589,0,0
763,435,0,0,0,0,0,0,0,0,0,-1,1987,589,0,0
770,435,0,0,0,0,0,0,0,0,0,-1,1994,589,0,0
777,435,0,0,0,0,0,0,0,0,0,-1,2001,589,0,0
784,435,0,0,0,0,0,0,0,0,0,-1,2008,589,0,0
791,435,0,0,0,0,0,0,0,0,0,-1,2015,589,0,0
798,435,0,0,0,0,0,0,0,0,0,-1,2022,589,0,0
805,435,0,0,0,0,0,0,0,0,0,-1,2029,589,0,0
812,435,0,0,0,0,0,0,0,0,0,-1,2036,589,0,0
-700,428,0,0,0,0,0,0,0,0,0,-1,524,596,0,0
-693,428,0,0,0,0,0,0,0,0,0,-1,531,596,0,0
-686,428,0,0,0,0,0,0,0,0,0,-1,538,596,0,0
-679,428,0,0,0,0,0,0,0,0,0,-1,545,596,0,0
-672,428,0,0,0,0,0,0,0,0,0,-1,552,596,0,0
-665,428,0,0,0,0,0,0,0,0,0,-1,559,596,0,0
-658,428,0,0,0,0,0,0,0,0,0,-1,566,596,0,0
-651,428,0,0,0,0,0,0,0,0,0,-1,573,596,0,0
-644,428,0,0,0,0,0,0,0,0,0,-1,580,596,0,0
-637,428,0,0,0,0,0,0,0,0,0,-1,587,596,0,0
-630,428,0,0,0,0,0,0,0,0,0,-1,594,596,0,0
-623,428,0,0,0,0,0,0,0,0,0,-1,601,596,0,0
-616,428,0,0,0,0,0,0,0,0,0,-1,608,596,0,0
-609,428,0,0,0,0,0,0,0,0,0,-1,615,596,0,0
-602,428,0,0,0,0,0,0,0,0,0,-1,622,596,0,0
-595,428,0,0,0,0,0,0,0,0,0,-1,629,596,0,0
-588,428,0,0,0,0,0,0,0,0,0,-1,636,596,0,0
-581,428,0,0,0,0,0,0,0,0,0,-1,643,596,0,0
-574,428,0,0,0,0,0,0,0,0,0,-1,650,596,0,0
-567,428,0,0,0,0,0,0,0,0,0,-1,657,596,0,0
-560,428,0,0,0,0,0,0,0,0,0,-1,664,596,0,0
-553,428,0,0,0,0,0,0,0,0,0,-1,671,596,0,0
-546,428,0,0,0,0,0,0,0,0,0,-1,678,596,0,0
-539,428,0,0,0,0,0,0,0,0,0,-1,685,596,0,0
-532,428,0,0,0,0,0,0,0,0,0,-1,692,596,0,0
-525,428,-9.59918,7.58618,0,0,0,0,0,0,0,-1,699,596,-9.59918,-7.5862
-518,428,-2.92285,-4.81854,0,0,0,0,0,0,0,-1,706,596,-2.92285,4.81856
-511,428,-3.68811,-4.79474,0,0,0,0,0,0,0,-1,713,596,-3.68811,4.79474
-504,428,-4.45337,-4.77094,0,0,0,0,0,0,0,-1,720,596,-4.45337,4.77092
-497,428,-2.98108,-3.77502,0,0,0,0,0,0,0,-1,727,596,-2.98106,3.77505
-490,428,-6.39044,-2.80481,0,0,0,0,0,0,0,-1,734,596,-6.39047,2.80483
-483,428,-10.8474,-9.11322,0,0,0,0,0,0,0,-1,741,596,-10.8473,9.11321
-476,428,-12.2271,-13.4666,0,0,0,0,0,0,0,-1,748,596,-12.227,13.4665
-469,428,-12.1844,-14.3386,-0.00390383,0.00195191,0.00204243,0.00259391,-0.00454583,1.26625,0.00417316,0.0361282,755,596,-12.1844,14.3386
-462,428,-12.3622,-15.1182,-0.00265988,0.00177297,0.00125112,0.00210171,-0.00298861,1.31385,0.00295373,0.0379279,762,596,-12.3622,15.1182
-455,428,-12.4434,-16.0518,-0.00169569,0.00141964,0.00072684,0.00158088,-0.00185692,1.3525,0.00198695,0.0174342,769,596,-12.4434,16.0517
-448,428,-12.4887,-16.9564,-0.000855835,0.00123863,0.000259346,0.00127027,-0.000887471,1.44941,0.00125229,0.0115869,776,596,-12.4887,16.9563
-441,428,-12.5421,-17.8476,-8.36534e-05,0.00122354,-0.000166134,0.00124433,-0.000104437,-1.44634,0.000866465,0.0135904,783,596,-12.542,17.8476
-434,428,-12.5799,-18.7471,0.000560039,0.00123979,-0.000494897,0.00150028,0.000299549,-1.08629,0.000916795,0.0100796,790,596,-12.5799,18.7471
-427,428,-12.6236,-19.616,0.00116507,0.00139418,-0.000846901,0.00213424,0.00042501,-0.852621,0.00130444,0.0106174,797,596,-12.6236,19.616
-420,428,-12.6644,-20.4388,0.00177543,0.00160922,-0.00121642,0.00291158,0.000473071,-0.751292,0.00180416,0.0120019,804,596,-12.6644,20.4388
-413,428,-12.7106,-21.2695,0.00228874,0.00181313,-0.00147702,0.00354698,0.000554895,-0.705582,0.0022031,0.0144661,811,596,-12.7106,21.2696
-406,428,-12.76,-22.1335,0.00277565,0.00205864,-0.0017339,0.00418772,0.000646575,-0.683452,0.00260319,0.0165692,818,596,-12.76,22.1335
-399,428,-12.7937,-23.0114,0.00340939,0.0023427,-0.00212072,0.00506281,0.000689289,-0.662207,0.00317052,0.0163706,825,596,-12.7937,23.0114
-392,428,-12.8212,-23.9266,0.00411453,0.00261725,-0.00252575,0.00600025,0.000731528,-0.641322,0.00378,0.0356337,832,596,-12.8211,23.9266
-385,428,-12.8748,-24.7522,0,0,0,0,0,0,0,-1,839,596,-12.8748,24.7522
-378,428,-10.8172,-20.952,0,0,0,0,0,0,0,-1,846,596,-10.8172,20.952
-371,428,-5.96155,-11.0703,0,0,0,0,0,0,0,-1,853,596,-5.96154,11.0702
-364,428,-6.33643,-10.7223,0,0,0,0,0,0,0,-1,860,596,-6.33645,10.7223
-357,428,-3.20996,-4.70966,0,0,0,0,0,0,0,-1,867,596,-3.20997,4.70965
-350,428,-1.62793,-3.94055,0,0,0,0,0,0,0,-1,874,596,-1.62794,3.94055
-343,428,-0.0567017,-4.80994,0,0,0,0,0,0,0,-1,881,596,-0.0567096,4.80996
-336,428,-3.29175,-1.39569,0,0,0,0,0,0,0,-1,888,596,-3.29172,1.39568
-329,428,-3.71564,-0.791321,0,0,0,0,0,0,0,-1,895,596,-3.71564,0.791299
-322,428,-5.52863,-3.59827,0,0,0,0,0,0,0,-1,902,596,-5.52865,3.59829
-315,428,-4.57172,-1.22052,0,0,0,0,0,0,0,-1,909,596,-4.57171,1.22052
-308,428,-5.60742,-3.40961,0,0,0,0,0,0,0,-1,916,596,-5.60744,3.40959
-301,428,0,0,0,0,0,0,0,0,0,-1,923,596,0,0
-294,428,0,0,0,0,0,0,0,0,0,-1,930,596,0,0
-287,428,0,0,0,0,0,0,0,0,0,-1,937,596,0,0
-280,428,0,0,0,0,0,0,0,0,0,-1,944,596,0,0
-273,428,0,0,0,0,0,0,0,0,0,-1,951,596,0,0
-266,428,0,0,0,0,0,0,0,0,0,-1,958,596,0,0
-259,428,0,0,0,0,0,0,0,0,0,-1,965,596,0,0
-252,428,0,0,0,0,0,0,0,0,0,-1,972,596,0,0
-245,428,0,0,0,0,0,0,0,0,0,-1,979,596,0,0
-238,428,0,0,0,0,0,0,0,0,0,-1,986,596,0,0
-231,428,0,0,0,0,0,0,0,0,0,-1,993,596,0,0
-224,428,0,0,0,0,0,0,0,0,0,-1,1000,596,0,0
-217,428,0,0,0,0,0,0,0,0,0,-1,1007,596,0,0
-210,428,0,0,0,0,0,0,0,0,0,-1,1014,596,0,0
-203,428,0,0,0,0,0,0,0,0,0,-1,1021,596,0,0
-196,428,0,0,0,0,0,0,0,0,0,-1,1028,596,0,0
-189,428,0,0,0,0,0,0,0,0,0,-1,1035,596,0,0
-182,428,0,0,0,0,0,0,0,0,0,-1,1042,596,0,0
-175,428,0,0,0,0,0,0,0,0,0,-1,1049,596,0,0
-168,428,0,0,0,0,0,0,0,0,0,-1,1056,596,0,0
-161,428,0,0,0,0,0,0,0,0,0,-1,1063,596,0,0
-154,428,0,0,0,0,0,0,0,0,0,-1,1070,596,0,0
-147,428,0,0,0,0,0,0,0,0,0,-1,1077,596,0,0
-140,428,0,0,0,0,0,0,0,0,0,-1,1084,596,0,0
-133,428,0,0,0,0,0,0,0,0,0,-1,1091,596,0,0
-126,428,0,0,0,0,0,0,0,0,0,-1,1098,596,0,0
-119,428,0,0,0,0,0,0,0,0,0,-1,1105,596,0,0
-112,428,0,0,0,0,0,0,0,0,0,-1,1112,596,0,0
-105,428,0,0,0,0,0,0,0,0,0,-1,1119,596,0,0
-98,428,0,0,0,0,0,0,0,0,0,-1,1126,596,0,0
-91,428,0,0,0,0,0,0,0,0,0,-1,1133,596,0,0
-84,428,0,0,0,0,0,0,0,0,0,-1,1140,596,0,0
-77,428,0,0,0,0,0,0,0,0,0,-1,1147,596,0,0
-70,428,0,0,0,0,0,0,0,0,0,-1,1154,596,0,0
-63,428,0,0,0,0,0,0,0,0,0,-1,1161,596,0,0
-56,428,0,0,0,0,0,0,0,0,0,-1,1168,596,0,0
-49,428,0,0,0,0,0,0,0,0,0,-1,1175,596,0,0
-42,428,0,0,0,0,0,0,0,0,0,-1,1182,596,0,0
-35,428,0,0,0,0,0,0,0,0,0,-1,1189,596,0,0
-28,428,0,0,0,0,0,0,0,0,0,-1,1196,596,0,0
-21,428,0,0,0,0,0,0,0,0,0,-1,1203,596,0,0
-14,428,0,0,0,0,0,0,0,0,0,-1,1210,596,0,0
-7,428,0,0,0,0,0,0,0,0,0,-1,1217,596,0,0
0,428,0,0,0,0,0,0,0,0,0,-1,1224,596,0,0
7,428,0,0,0,0,0,0,0,0,0,-1,1231,596,0,0
14,428,0,0,0,0,0,0,0,0,0,-1,1238,596,0,0
21,428,0,0,0,0,0,0,0,0,0,-1,1245,596,0,0
28,428,0,0,0,0,0,0,0,0,0,-1,1252,596,0,0
35,428,0,0,0,0,0,0,0,0,0,-1,1259,596,0,0
42,428,0,0,0,0,0,0,0,0,0,-1,1266,596,0,0
49,428,0,0,0,0,0,0,0,0,0,-1,1273,596,0,0
56,428,0,0,0,0,0,0,0,0,0,-1,1280,596,0,0
63,428,0,0,0,0,0,0,0,0,0,-1,1287,596,0,0
70,428,0,0,0,0,0,0,0,0,0,-1,1294,596,0,0
77,428,0,0,0,0,0,0,0,0,0,-1,1301,596,0,0
84,428,0,0,0,0,0,0,0,0,0,-1,1308,596,0,0
91,428,0,0,0,0,0,0,0,0,0,-1,1315,596,0,0
98,428,0,0,0,0,0,0,0,0,0,-1,1322,596,0,0
105,428,0,0,0,0,0,0,0,0,0,-1,1329,596,0,0
112,428,0,0,0,0,0,0,0,0,0,-1,1336,596,0,0
119,428,0,0,0,0,0,0,0,0,0,-1,1343,596,0,0
126,428,0,0,0,0,0,0,0,0,0,-1,1350,596,0,0
133,428,0,0,0,0,0,0,0,0,0,-1,1357,596,0,0
140,428,0,0,0,0,0,0,0,0,0,-1,1364,596,0,0
147,428,0,0,0,0,0,0,0,0,0,-1,1371,596,0,0
154,428,0,0,0,0,0,0,0,0,0,-1,1378,596,0,0
161,428,0,0,0,0,0,0,0,0,0,-1,1385,596,0,0
168,428,0,0,0,0,0,0,0,0,0,-1,1392,596,0,0
175,428,0,0,0,0,0,0,0,0,0,-1,1399,596,0,0
182,428,0,0,0,0,0,0,0,0,0,-1,1406,596,0,0
189,428,0,0,0,0,0,0,0,0,0,-1,1413,596,0,0
196,428,0,0,0,0,0,0,0,0,0,-1,1420,596,0,0
203,428,0,0,0,0,0,0,0,0,0,-1,1427,596,0,0
210,428,0,0,0,0,0,0,0,0,0,-1,1434,596,0,0
217,428,0,0,0,0,0,0,0,0,0,-1,1441,596,0,0
224,428,0,0,0,0,0,0,0,0,0,-1,1448,596,0,0
231,428,0,0,0,0,0,0,0,0,0,-1,1455,596,0,0
238,428,0,0,0,0,0,0,0,0,0,-1,1462,596,0,0
245,428,0,0,0,0,0,0,0,0,0,-1,1469,596,0,0
252,428,0,0,0,0,0,0,0,0,0,-1,1476,596,0,0
259,428,0,0,0,0,0,0,0,0,0,-1,1483,596,0,0
266,428,0,0,0,0,0,0,0,0,0,-1,1490,596,0,0
273,428,0,0,0,0,0,0,0,0,0,-1,1497,596,0,0
280,428,0,0,0,0,0,0,0,0,0,-1,1504,596,0,0
287,428,0,0,0,0,0,0,0,0,0,-1,1511,596,0,0
294,428,0,0,0,0,0,0,0,0,0,-1,1518,596,0,0
301,428,0,0,0,0,0,0,0,0,0,-1,1525,596,0,0
308,428,0,0,0,0,0,0,0,0,0,-1,1532,596,0,0
315,428,0,0,0,0,0,0,0,0,0,-1,1539,596,0,0
322,428,0,0,0,0,0,0,0,0,0,-1,1546,596,0,0
329,428,0,0,0,0,0,0,0,0,0,-1,1553,596,0,0
336,428,0,0,0,0,0,0,0,0,0,-1,1560,596,0,0
343,428,0,0,0,0,0,0,0,0,0,-1,1567,596,0,0
350,428,0,0,0,0,0,0,0,0,0,-1,1574,596,0,0
357,428,0,0,0,0,0,0,0,0,0,-1,1581,596,0,0
364,428,0,0,0,0,0,0,0,0,0,-1,1588,596,0,0
371,428,0,0,0,0,0,0,0,0,0,-1,1595,596,0,0
378,428,0,0,0,0,0,0,0,0,0,-1,1602,596,0,0
385,428,0,0,0,0,0,0,0,0,0,-1,1609,596,0,0
392,428,0,0,0,0,0,0,0,0,0,-1,1616,596,0,0
399,428,0,0,0,0,0,0,0,0,0,-1,1623,596,0,0
406,428,0,0,0,0,0,0,0,0,0,-1,1630,596,0,0
413,428,0,0,0,0,0,0,0,0,0,-1,1637,596,0,0
420,428,19.8469,1.3399,0,0,0,0,0,0,0,-1,1644,596,19.8469,-1.33992
427,428,20.7299,-0.225281,0,0,0,0,0,0,0,-1,1651,596,20.7299,0.225262
434,428,19.8915,-0.583069,0,0,0,0,0,0,0,-1,1658,596,19.8915,0.583075
441,428,8.17993,0.607483,0,0,0,0,0,0,0,-1,1665,596,8.17997,-0.607513
448,428,7.84338,-0.385986,0,0,0,0,0,0,0,-1,1672,596,7.84336,0.385978
455,428,6.64038,2.1123,0,0,0,0,0,0,0,-1,1679,596,6.64037,-2.11229
462,428,4.84106,4.12341,0,0,0,0,0,0,0,-1,1686,596,4.84107,-4.12339
469,428,7.83789,3.10083,0,0,0,0,0,0,0,-1,1693,596,7.83785,-3.10086
476,428,7.61255,1.73956,0,0,0,0,0,0,0,-1,1700,596,7.61252,-1.73958
483,428,7.22766,1.05121,0,0,0,0,0,0,0,-1,1707,596,7.2277,-1.05121
490,428,5.4071,-3.2793,0,0,0,0,0,0,0,-1,1714,596,5.40707,3.27929
497,428,7.84106,-3.65491,0,0,0,0,0,0,0,-1,1721,596,7.84107,3.65491
504,428,6.92139,-2.83356,0,0,0,0,0,0,0,-1,1728,596,6.92137,2.83353
511,428,7.88501,-3.78723,0,0,0,0,0,0,0,-1,1735,596,7.88502,3.78722
518,428,27.4021,-23.2979,0,0,0,0,0,0,0,-1,1742,596,27.4021,23.2979
525,428,27.3066,-22.3989,0.00436906,0.00192049,0.00260474,0.00602288,0.000266664,0.565709,0.00392939,0.0407528,1749,596,27.3066,22.3989
532,428,27.3195,-21.4146,0.00358196,0.001561,0.00206736,0.00487257,0.000270387,0.558083,0.00316211,0.0221474,1756,596,27.3195,21.4146
539,428,27.3413,-20.528,0.00302152,0.00150393,0.00171088,0.00413432,0.000391122,0.576676,0.00263553,0.0226748,1763,596,27.3414,20.528
546,428,27.2838,-19.6981,0.00255657,0.00144696,0.00142658,0.00353243,0.0004711,0.599946,0.00221469,0.0174168,1770,596,27.2838,19.6981
553,428,27.2208,-18.8619,0.00212509,0.00156125,0.00124581,0.00312048,0.000565864,0.674124,0.0019197,0.0121954,1777,596,27.2208,18.8619
560,428,27.2086,-17.9959,0.00176364,0.00175536,0.00119701,0.00295652,0.000562484,0.783668,0.00181284,0.0127414,1784,596,27.2086,17.9959
567,428,27.1674,-17.1122,0.00161135,0.00214413,0.00134668,0.00325051,0.000504967,0.883045,0.00201984,0.0121471,1791,596,27.1674,17.1122
574,428,27.108,-16.2667,0.00160487,0.00262554,0.00161942,0.00381313,0.000417277,0.93804,0.00241504,0.0143279,1798,596,27.1081,16.2667
581,428,27.0288,-15.3864,0.00178311,0.00326672,0.00211862,0.00476965,0.00028018,0.953796,0.00309061,0.0123155,1805,596,27.0288,15.3863
588,428,26.9611,-14.4588,0.00224829,0.00420381,0.00287741,0.00626504,0.000187052,0.94918,0.00411576,0.0180636,1812,596,26.9611,14.4588
595,428,26.8934,-13.5056,0.00293485,0.00534399,0.00379351,0.00811958,0.000159257,0.939131,0.00536076,0.0315892,1819,596,26.8934,13.5056
602,428,27.0292,-12.51,0,0,0,0,0,0,0,-1,1826,596,27.0292,12.51
609,428,17.2073,-4.82446,0,0,0,0,0,0,0,-1,1833,596,17.2073,4.82447
616,428,15.7817,-3.09558,0,0,0,0,0,0,0,-1,1840,596,15.7817,3.09556
623,428,9.53577,1.12518,0,0,0,0,0,0,0,-1,1847,596,9.5358,-1.1252
630,428,7.07996,6.88562,0,0,0,0,0,0,0,-1,1854,596,7.0799,-6.88565
637,428,3.95435,1.90857,0,0,0,0,0,0,0,-1,1861,596,3.95439,-1.90858
644,428,5.75476,0.888977,0,0,0,0,0,0,0,-1,1868,596,5.75472,-0.888955
651,428,0,0,0,0,0,0,0,0,0,-1,1875,596,0,0
658,428,0,0,0,0,0,0,0,0,0,-1,1882,596,0,0
665,428,0,0,0,0,0,0,0,0,0,-1,1889,596,0,0
672,428,0,0,0,0,0,0,0,0,0,-1,1896,596,0,0
679,428,0,0,0,0,0,0,0,0,0,-1,1903,596,0,0
686,428,0,0,0,0,0,0,0,0,0,-1,1910,596,0,0
693,428,0,0,0,0,0,0,0,0,0,-1,1917,596,0,0
700,428,0,0,0,0,0,0,0,0,0,-1,1924,596,0,0
707,428,0,0,0,0,0,0,0,0,0,-1,1931,596,0,0
714,428,0,0,0,0,0,0,0,0,0,-1,1938,596,0,0
721,428,0,0,0,0,0,0,0,0,0,-1,1945,596,0,0
728,428,0,0,0,0,0,0,0,0,0,-1,1952,596,0,0
735,428,0,0,0,0,0,0,0,0,0,-1,1959,596,0,0
742,428,0,0,0,0,0,0,0,0,0,-1,1966,596,0,0
749,428,0,0,0,0,0,0,0,0,0,-1,1973,596,0,0
756,428,0,0,0,0,0,0,0,0,0,-1,1980,596,0,0
763,428,0,0,0,0,0,0,0,0,0,-1,1987,596,0,0
770,428,0,0,0,0,0,0,0,0,0,-1,1994,596,0,0
777,428,0,0,0,0,0,0,0,0,0,-1,2001,596,0,0
784,428,0,0,0,0,0,0,0,0,0,-1,2008,596,0,0
791,428,0,0,0,0,0,0,0,0,0,-1,2015,596,0,0
798,428,0,0,0,0,0,0,0,0,0,-1,2022,596,0,0
805,428,0,0,0,0,0,0,0,0,0,-1,2029,596,0,0
812,428,0,0,0,0,0,0,0,0,0,-1,2036,596,0,0
-700,421,0,0,0,0,0,0,0,0,0,-1,524,603,0,0
-693,421,0,0,0,0,0,0,0,0,0,-1,531,603,0,0
-686,421,0,0,0,0,0,0,0,0,0,-1,538,603,0,0
-679,421,0,0,0,0,0,0,0,0,0,-1,545,603,0,0
-672,421,0,0,0,0,0,0,0,0,0,-1,552,603,0,0
-665,421,0,0,0,0,0,0,0,0,0,-1,559,603,0,0
-658,421,0,0,0,0,0,0,0,0,0,-1,566,603,0,0
-651,421,0,0,0,0,0,0,0,0,0,-1,573,603,0,0
-644,421,0,0,0,0,0,0,0,0,0,-1,580,603,0,0
-637,421,0,0,0,0,0,0,0,0,0,-1,587,603,0,0
-630,421,0,0,0,0,0,0,0,0,0,-1,594,603,0,0
-623,421,0,0,0,0,0,0,0,0,0,-1,601,603,0,0
-616,421,0,0,0,0,0,0,0,0,0,-1,608,603,0,0
-609,421,0,0,0,0,0,0,0,0,0,-1,615,603,0,0
-602,421,0,0,0,0,0,0,0,0,0,-1,622,603,0,0
-595,421,0,0,0,0,0,0,0,0,0,-1,629,603,0,0
-588,421,0,0,0,0,0,0,0,0,0,-1,636,603,0,0
-581,421,0,0,0,0,0,0,0,0,0,-1,643,603,0,0
-574,421,0,0,0,0,0,0,0,0,0,-1,650,603,0,0
-567,421,0,0,0,0,0,0,0,0,0,-1,657,603,0,0
-560,421,0,0,0,0,0,0,0,0,0,-1,664,603,0,0
-553,421,0,0,0,0,0,0,0,0,0,-1,671,603,0,0
-546,421,0,0,0,0,0,0,0,0,0,-1,678,603,0,0
-539,421,0,0,0,0,0,0,0,0,0,-1,685,603,0,0
-532,421,-8.97382,6.95636,0,0,0,0,0,0,0,-1,692,603,-8.97384,-6.95634
-525,421,-2.11481,-8.04272,0,0,0,0,0,0,0,-1,699,603,-2.11483,8.0427
-518,421,-3.05908,-5.07233,0,0,0,0,0,0,0,-1,706,603,-3.0591,5.07235
-511,421,-4.63525,-4.08447,0,0,0,0,0,0,0,-1,713,603,-4.63524,4.08449
-504,421,-5.17029,-4.94458,0,0,0,0,0,0,0,-1,720,603,-5.17029,4.9446
-497,421,-6.63141,-2.32501,0,0,0,0,0,0,0,-1,727,603,-6.6314,2.32498
-490,421,-6.7616,-4.14783,0,0,0,0,0,0,0,-1,734,603,-6.76159,4.1478
-483,421,-12.8452,-12.7469,0,0,0,0,0,0,0,-1,741,603,-12.8451,12.747
-476,421,-13,-13.5237,-0.00383618,0.00175132,0.0021319,0.00247183,-0.00455669,1.24488,0.00411699,0.0413512,748,603,-13,13.5237
-469,421,-13.2102,-14.2153,-0.00290041,0.0014273,0.00141263,0.00184759,-0.0033207,1.28161,0.00302405,0.0342481,755,603,-13.2102,14.2153
-462,421,-13.2476,-15.1617,-0.00194748,0.00114882,0.000855,0.00136922,-0.00216789,1.3185,0.00205943,0.0220589,762,603,-13.2475,15.1617
-455,421,-13.284,-16.0439,-0.00113158,0.000853285,0.000422913,0.000939637,-0.00121794,1.36938,0.00124913,0.0204629,769,603,-13.284,16.0439
-448,421,-13.345,-16.9139,-0.000355346,0.000752149,4.21018e-06,0.000752166,-0.000355362,1.56699,0.000652968,0.0201458,776,603,-13.345,16.9139
-441,421,-13.406,-17.8083,0.000379593,0.000812293,-0.000388409,0.00104054,0.000151343,-1.03951,0.000649155,0.0146229,783,603,-13.406,17.8083
-434,421,-13.4545,-18.7064,0.00103503,0.000952454,-0.000717152,0.00171208,0.000275403,-0.756644,0.00106156,0.0103206,790,603,-13.4544,18.7064
-427,421,-13.4806,-19.5548,0.00169088,0.00129321,-0.00111176,0.00262144,0.000362644,-0.696909,0.00164017,0.0100445,797,603,-13.4806,19.5548
-420,421,-13.5226,-20.3726,0.00234952,0.00174816,-0.00152459,0.0036028,0.000494885,-0.688037,0.00225508,0.0117948,804,603,-13.5226,20.3725
-413,421,-13.5823,-21.2197,0.0029359,0.00227977,-0.00187008,0.00450647,0.000709191,-0.698568,0.00279804,0.014319,811,603,-13.5823,21.2197
-406,421,-13.6656,-22.1272,0.00356373,0.00298502,-0.00231625,0.00560863,0.000940124,-0.723258,0.00346844,0.0212779,818,603,-13.6656,22.1272
-399,421,-13.5987,-23.1425,0.00438056,0.00375428,-0.00296876,0.00705265,0.00108219,-0.732854,0.00438577,0.0480749,825,603,-13.5987,23.1425
-392,421,-13.4802,-24.0039,0,0,0,0,0,0,0,-1,832,603,-13.4802,24.0039
-385,421,-11.5825,-18.8583,0,0,0,0,0,0,0,-1,839,603,-11.5825,18.8583
-378,421,-4.94733,-8.87909,0,0,0,0,0,0,0,-1,846,603,-4.94731,8.87906
-371,421,-5.65082,-7.01849,0,0,0,0,0,0,0,-1,853,603,-5.65082,7.0185
-364,421,-5.94189,-7.09875,0,0,0,0,0,0,0,-1,860,603,-5.94192,7.09878
-357,421,-7.62531,-8.26337,0,0,0,0,0,0,0,-1,867,603,-7.62532,8.26337
-350,421,-5.38019,-3.75024,0,0,0,0,0,0,0,-1,874,603,-5.38017,3.75026
-343,421,-6.22797,-2.57123,0,0,0,0,0,0,0,-1,881,603,-6.22798,2.57121
-336,421,-6.22882,-2.59369,0,0,0,0,0,0,0,-1,888,603,-6.22883,2.5937
-329,421,-4.50134,-1.49469,0,0,0,0,0,0,0,-1,895,603,-4.50137,1.49468
-322,421,-7.55817,1.13263,0,0,0,0,0,0,0,-1,902,603,-7.55818,-1.13263
-315,421,-4.16144,-1.96649,0,0,0,0,0,0,0,-1,909,603,-4.16146,1.9665
-308,421,0,0,0,0,0,0,0,0,0,-1,916,603,0,0
-301,421,0,0,0,0,0,0,0,0,0,-1,923,603,0,0
-294,421,0,0,0,0,0,0,0,0,0,-1,930,603,0,0
-287,421,0,0,0,0,0,0,0,0,0,-1,937,603,0,0
-280,421,0,0,0,0,0,0,0,0,0,-1,944,603,0,0
-273,421,0,0,0,0,0,0,0,0,0,-1,951,603,0,0
-266,421,0,0,0,0,0,0,0,0,0,-1,958,603,0,0
-259,421,0,0,0,0,0,0,0,0,0,-1,965,603,0,0
-252,421,0,0,0,0,0,0,0,0,0,-1,972,603,0,0
-245,421,0,0,0,0,0,0,0,0,0,-1,979,603,0,0
-238,421,0,0,0,0,0,0,0,0,0,-1,986,603,0,0
-231,421,0,0,0,0,0,0,0,0,0,-1,993,603,0,0
-224,421,0,0,0,0,0,0,0,0,0,-1,1000,603,0,0
-217,421,0,0,0,0,0,0,0,0,0,-1,1007,603,0,0
-210,421,0,0,0,0,0,0,0,0,0,-1,1014,603,0,0
-203,421,0,0,0,0,0,0,0,0,0,-1,1021,603,0,0
-196,421,0,0,0,0,0,0,0,0,0,-1,1028,603,0,0
-189,421,0,0,0,0,0,0,0,0,0,-1,1035,603,0,0
-182,421,0,0,0,0,0,0,0,0,0,-1,1042,603,0,0
-175,421,0,0,0,0,0,0,0,0,0,-1,1049,603,0,0
-168,421,0,0,0,0,0,0,0,0,0,-1,1056,603,0,0
-161,421,0,0,0,0,0,0,0,0,0,-1,1063,603,0,0
-154,421,0,0,0,0,0,0,0,0,0,-1,1070,603,0,0
-147,421,0,0,0,0,0,0,0,0,0,-1,1077,603,0,0
-140,421,0,0,0,0,0,0,0,0,0,-1,1084,603,0,0
-133,421,0,0,0,0,0,0,0,0,0,-1,1091,603,0,0
-126,421,0,0,0,0,0,0,0,0,0,-1,1098,603,0,0
-119,421,0,0,0,0,0,0,0,0,0,-1,1105,603,0,0
-112,421,0,0,0,0,0,0,0,0,0,-1,1112,603,0,0
-105,421,0,0,0,0,0,0,0,0,0,-1,1119,603,0,0
-98,421,0,0,0,0,0,0,0,0,0,-1,1126,603,0,0
-91,421,0,0,0,0,0,0,0,0,0,-1,1133,603,0,0
-84,421,0,0,0,0,0,0,0,0,0,-1,1140,603,0,0
-77,421,0,0,0,0,0,0,0,0,0,-1,1147,603,0,0
-70,421,0,0,0,0,0,0,0,0,0,-1,1154,603,0,0
-63,421,0,0,0,0,0,0,0,0,0,-1,1161,603,0,0
-56,421,0,0,0,0,0,0,0,0,0,-1,1168,603,0,0
-49,421,0,0,0,0,0,0,0,0,0,-1,1175,603,0,0
-42,421,0,0,0,0,0,0,0,0,0,-1,1182,603,0,0
-35,421,0,0,0,0,0,0,0,0,0,-1,1189,603,0,0
-28,421,0,0,0,0,0,0,0,0,0,-1,1196,603,0,0
-21,421,0,0,0,0,0,0,0,0,0,-1,1203,603,0,0
-14,421,0,0,0,0,0,0,0,0,0,-1,1210,603,0,0
-7,421,0,0,0,0,0,0,0,0,0,-1,1217,603,0,0
0,421,0,0,0,0,0,0,0,0,0,-1,1224,603,0,0
7,421,0,0,0,0,0,0,0,0,0,-1,1231,603,0,0
14,421,0,0,0,0,0,0,0,0,0,-1,1238,603,0,0
21,421,0,0,0,0,0,0,0,0,0,-1,1245,603,0,0
28,421,0,0,0,0,0,0,0,0,0,-1,1252,603,0,0
35,421,0,0,0,0,0,0,0,0,0,-1,1259,603,0,0
42,421,0,0,0,0,0,0,0,0,0,-1,1266,603,0,0
49,421,0,0,0,0,0,0,0,0,0,-1,1273,603,0,0
56,421,0,0,0,0,0,0,0,0,0,-1,1280,603,0,0
63,421,0,0,0,0,0,0,0,0,0,-1,1287,603,0,0
70,421,0,0,0,0,0,0,0,0,0,-1,1294,603,0,0
77,421,0,0,0,0,0,0,0,0,0,-1,1301,603,0,0
84,421,0,0,0,0,0,0,0,0,0,-1,1308,603,0,0
91,421,0,0,0,0,0,0,0,0,0,-1,1315,603,0,0
98,421,0,0,0,0,0,0,0,0,0,-1,1322,603,0,0
105,421,0,0,0,0,0,0,0,0,0,-1,1329,603,0,0
112,421,0,0,0,0,0,0,0,0,0,-1,1336,603,0,0
119,421,0,0,0,0,0,0,0,0,0,-1,1343,603,0,0
126,421,0,0,0,0,0,0,0,0,0,-1,1350,603,0,0
133,421,0,0,0,0,0,0,0,0,0,-1,1357,603,0,0
140,421,0,0,0,0,0,0,0,0,0,-1,1364,603,0,0
147,421,0,0,0,0,0,0,0,0,0,-1,1371,603,0,0
154,421,0,0,0,0,0,0,0,0,0,-1,1378,603,0,0
161,421,0,0,0,0,0,0,0,0,0,-1,1385,603,0,0
168,421,0,0,0,0,0,0,0,0,0,-1,1392,603,0,0
175,421,0,0,0,0,0,0,0,0,0,-1,1399,603,0,0
182,421,0,0,0,0,0,0,0,0,0,-1,1406,603,0,0
189,421,0,0,0,0,0,0,0,0,0,-1,1413,603,0,0
196,421,0,0,0,0,0,0,0,0,0,-1,1420,603,0,0
203,421,0,0,0,0,0,0,0,0,0,-1,1427,603,0,0
210,421,0,0,0,0,0,0,0,0,0,-1,1434,603,0,0
217,421,0,0,0,0,0,0,0,0,0,-1,1441,603,0,0
224,421,0,0,0,0,0,0,0,0,0,-1,1448,603,0,0
231,421,0,0,0,0,0,0,0,0,0,-1,1455,603,0,0
238,421,0,0,0,0,0,0,0,0,0,-1,1462,603,0,0
245,421,0,0,0,0,0,0,0,0,0,-1,1469,603,0,0
252,421,0,0,0,0,0,0,0,0,0,-1,1476,603,0,0
259,421,0,0,0,0,0,0,0,0,0,-1,1483,603,0,0
266,421,0,0,0,0,0,0,0,0,0,-1,1490,603,0,0
273,421,0,0,0,0,0,0,0,0,0,-1,1497,603,0,0
280,421,0,0,0,0,0,0,0,0,0,-1,1504,603,0,0
287,421,0,0,0,0,0,0,0,0,0,-1,1511,603,0,0
294,421,0,0,0,0,0,0,0,0,0,-1,1518,603,0,0
301,421,0,0,0,0,0,0,0,0,0,-1,1525,603,0,0
308,421,0,0,0,0,0,0,0,0,0,-1,1532,603,0,0
315,421,0,0,0,0,0,0,0,0,0,-1,1539,603,0,0
322,421,0,0,0,0,0,0,0,0,0,-1,1546,603,0,0
329,421,0,0,0,0,0,0,0,0,0,-1,1553,603,0,0
336,421,0,0,0,0,0,0,0,0,0,-1,1560,603,0,0
343,421,0,0,0,0,0,0,0,0,0,-1,1567,603,0,0
350,421,0,0,0,0,0,0,0,0,0,-1,1574,603,0,0
357,421,0,0,0,0,0,0,0,0,0,-1,1581,603,0,0
364,421,0,0,0,0,0,0,0,0,0,-1,1588,603,0,0
371,421,0,0,0,0,0,0,0,0,0,-1,1595,603,0,0
378,421,0,0,0,0,0,0,0,0,0,-1,1602,603,0,0
385,421,0,0,0,0,0,0,0,0,0,-1,1609,603,0,0
392,421,0,0,0,0,0,0,0,0,0,-1,1616,603,0,0
399,421,0,0,0,0,0,0,0,0,0,-1,1623,603,0,0
406,421,0,0,0,0,0,0,0,0,0,-1,1630,603,0,0
413,421,0,0,0,0,0,0,0,0,0,-1,1637,603,0,0
420,421,0,0,0,0,0,0,0,0,0,-1,1644,603,0,0
427,421,0,0,0,0,0,0,0,0,0,-1,1651,603,0,0
434,421,3.68176,-0.0327759,0,0,0,0,0,0,0,-1,1658,603,3.6818,0.0328037
441,421,8.06689,0.527832,0,0,0,0,0,0,0,-1,1665,603,8.06693,-0.527851
448,421,6.93921,0.802246,0,0,0,0,0,0,0,-1,1672,603,6.93923,-0.802251
455,421,7.29456,2.14825,0,0,0,0,0,0,0,-1,1679,603,7.29461,-2.14827
462,421,7.86902,3.53174,0,0,0,0,0,0,0,-1,1686,603,7.869,-3.53173
469,421,8.06604,2.81213,0,0,0,0,0,0,0,-1,1693,603,8.06606,-2.81212
476,421,8.26306,2.09253,0,0,0,0,0,0,0,-1,1700,603,8.26312,-2.09251
483,421,8.05322,0.798096,0,0,0,0,0,0,0,-1,1707,603,8.05323,-0.7981
490,421,7.51233,0.213074,0,0,0,0,0,0,0,-1,1714,603,7.51235,-0.213043
497,421,7.49634,-2.86688,0,0,0,0,0,0,0,-1,1721,603,7.4963,2.86688
504,421,6.90491,-2.18671,0,0,0,0,0,0,0,-1,1728,603,6.90491,2.18669
511,421,6.31348,-1.50653,0,0,0,0,0,0,0,-1,1735,603,6.31353,1.5065
518,421,6.27588,-2.49878,0,0,0,0,0,0,0,-1,1742,603,6.2759,2.4988
525,421,28.0375,-22.4609,0,0,0,0,0,0,0,-1,1749,603,28.0374,22.4609
532,421,28.1288,-21.4431,0.00429689,0.00168868,0.00233033,0.0056632,0.000322362,0.530298,0.00367273,0.0446127,1756,603,28.1288,21.4431
539,421,28.2046,-20.5145,0.00359271,0.0015755,0.00180786,0.00465428,0.000513928,0.530954,0.00294652,0.0254398,1763,603,28.2046,20.5144
546,421,28.155,-19.6567,0.003001,0.00137248,0.00141632,0.00382044,0.000553039,0.524515,0.00238409,0.0141538,1770,603,28.1551,19.6567
553,421,28.1002,-18.7717,0.00248877,0.00138292,0.00116077,0.00322158,0.000650102,0.563127,0.00196716,0.0135921,1777,603,28.1002,18.7717
560,421,28.0607,-17.9088,0.00204391,0.00146949,0.00104772,0.00284307,0.000670331,0.651618,0.00171614,0.0155649,1784,603,28.0606,17.9088
567,421,28.0231,-17.0742,0.0018057,0.00173624,0.00114341,0.0029149,0.000627032,0.770216,0.00177164,0.0180973,1791,603,28.023,17.0742
574,421,27.9716,-16.2258,0.00174518,0.00211203,0.00138413,0.00332484,0.000532378,0.851275,0.00206213,0.022056,1798,603,27.9715,16.2258
581,421,27.9144,-15.3115,0.00186068,0.00262251,0.00182952,0.00411035,0.000372835,0.888034,0.0026248,0.0233315,1805,603,27.9144,15.3115
588,421,27.849,-14.4684,0.00221452,0.00345122,0.0025239,0.00543142,0.00023432,0.905531,0.00354542,0.0152294,1812,603,27.849,14.4684
595,421,27.8646,-13.5493,0.00280772,0.00447308,0.00340318,0.00714397,0.000136827,0.90538,0.0047177,0.0210539,1819,603,27.8646,13.5493
602,421,27.8835,-12.5934,0,0,0,0,0,0,0,-1,1826,603,27.8835,12.5935
609,421,22.8762,-8.37524,0,0,0,0,0,0,0,-1,1833,603,22.8762,8.37525
616,421,17.7633,-4.72491,0,0,0,0,0,0,0,-1,1840,603,17.7633,4.7249
623,421,6.19885,0.376648,0,0,0,0,0,0,0,-1,1847,603,6.19881,-0.376624
630,421,6.54993,0.778748,0,0,0,0,0,0,0,-1,1854,603,6.54991,-0.778744
637,421,3.74512,1.65405,0,0,0,0,0,0,0,-1,1861,603,3.74517,-1.65407
644,421,3.58081,0.354675,0,0,0,0,0,0,0,-1,1868,603,3.58082,-0.354704
651,421,3.28687,3.66351,0,0,0,0,0,0,0,-1,1875,603,3.28688,-3.66353
658,421,0,0,0,0,0,0,0,0,0,-1,1882,603,0,0
665,421,0,0,0,0,0,0,0,0,0,-1,1889,603,0,0
672,421,0,0,0,0,0,0,0,0,0,-1,1896,603,0,0
679,421,0,0,0,0,0,0,0,0,0,-1,1903,603,0,0
686,421,0,0,0,0,0,0,0,0,0,-1,1910,603,0,0
693,421,0,0,0,0,0,0,0,0,0,-1,1917,603,0,0
700,421,0,0,0,0,0,0,0,0,0,-1,1924,603,0,0
707,421,0,0,0,0,0,0,0,0,0,-1,1931,603,0,0
714,421,0,0,0,0,0,0,0,0,0,-1,1938,603,0,0
721,421,0,0,0,0,0,0,0,0,0,-1,1945,603,0,0
728,421,0,0,0,0,0,0,0,0,0,-1,1952,603,0,0
735,421,0,0,0,0,0,0,0,0,0,-1,1959,603,0,0
742,421,0,0,0,0,0,0,0,0,0,-1,1966,603,0,0
749,421,0,0,0,0,0,0,0,0,0,-1,1973,603,0,0
756,421,0,0,0,0,0,0,0,0,0,-1,1980,603,0,0
763,421,0,0,0,0,0,0,0,0,0,-1,1987,603,0,0
770,421,0,0,0,0,0,0,0,0,0,-1,1994,603,0,0
777,421,0,0,0,0,0,0,0,0,0,-1,2001,603,0,0
784,421,0,0,0,0,0,0,0,0,0,-1,2008,603,0,0
791,421,0,0,0,0,0,0,0,0,0,-1,2015,603,0,0
798,421,0,0,0,0,0,0,0,0,0,-1,2022,603,0,0
805,421,0,0,0,0,0,0,0,0,0,-1,2029,603,0,0
812,421,0,0,0,0,0,0,0,0,0,-1,2036,603,0,0
-700,414,0,0,0,0,0,0,0,0,0,-1,524,610,0,0
-693,414,0,0,0,0,0,0,0,0,0,-1,531,610,0,0
-686,414,0,0,0,0,0,0,0,0,0,-1,538,610,0,0
-679,414,0,0,0,0,0,0,0,0,0,-1,545,610,0,0
-672,414,0,0,0,0,0,0,0,0,0,-1,552,610,0,0
-665,414,0,0,0,0,0,0,0,0,0,-1,559,610,0,0
-658,414,0,0,0,0,0,0,0,0,0,-1,566,610,0,0
-651,414,0,0,0,0,0,0,0,0,0,-1,573,610,0,0
-644,414,0,0,0,0,0,0,0,0,0,-1,580,610,0,0
-637,414,0,0,0,0,0,0,0,0,0,-1,587,610,0,0
-630,414,0,0,0,0,0,0,0,0,0,-1,594,610,0,0
-623,414,0,0,0,0,0,0,0,0,0,-1,601,610,0,0
-616,414,0,0,0,0,0,0,0,0,0,-1,608,610,0,0
-609,414,0,0,0,0,0,0,0,0,0,-1,615,610,0,0
-602,414,0,0,0,0,0,0,0,0,0,-1,622,610,0,0
-595,414,0,0,0,0,0,0,0,0,0,-1,629,610,0,0
-588,414,0,0,0,0,0,0,0,0,0,-1,636,610,0,0
-581,414,0,0,0,0,0,0,0,0,0,-1,643,610,0,0
-574,414,0,0,0,0,0,0,0,0,0,-1,650,610,0,0
-567,414,0,0,0,0,0,0,0,0,0,-1,657,610,0,0
-560,414,0,0,0,0,0,0,0,0,0,-1,664,610,0,0
-553,414,0,0,0,0,0,0,0,0,0,-1,671,610,0,0
-546,414,0,0,0,0,0,0,0,0,0,-1,678,610,0,0
-539,414,-7.50146,5.65619,0,0,0,0,0,0,0,-1,685,610,-7.50149,-5.65617
-532,414,-8.15204,4.01605,0,0,0,0,0,0,0,-1,692,610,-8.15206,-4.01606
-525,414,-3.47137,-3.27924,0,0,0,0,0,0,0,-1,699,610,-3.47136,3.27922
-518,414,-4.12909,-4.36908,0,0,0,0,0,0,0,-1,706,610,-4.12909,4.36909
-511,414,-3.92542,-4.97021,0,0,0,0,0,0,0,-1,713,610,-3.92542,4.97023
-504,414,-9.35394,-5.49896,0,0,0,0,0,0,0,-1,720,610,-9.35394,5.49898
-497,414,-9.67627,-6.54761,0,0,0,0,0,0,0,-1,727,610,-9.6763,6.5476
-490,414,-10.9006,-8.3277,0,0,0,0,0,0,0,-1,734,610,-10.9006,8.3277
-483,414,-13.8652,-12.598,0,0,0,0,0,0,0,-1,741,610,-13.8652,12.598
-476,414,-14.0305,-13.431,-0.00255784,0.00151361,0.00134759,0.00191923,-0.00296346,1.27842,0.00284043,0.0241574,748,610,-14.0305,13.431
-469,414,-14.1037,-14.2402,-0.00193715,0.00113829,0.000908358,0.00138654,-0.0021854,1.30401,0.00207938,0.0150213,755,610,-14.1037,14.2402
-462,414,-14.0997,-15.1213,-0.0012355,0.000836782,0.000523572,0.000961553,-0.00136027,1.33685,0.00134708,0.0229469,762,610,-14.0996,15.1213
-455,414,-14.1345,-16.0272,-0.000568915,0.000616831,0.000168016,0.000640178,-0.000592263,1.43272,0.000711729,0.0255309,769,610,-14.1345,16.0271
-448,414,-14.1994,-16.8799,0.000144036,0.000593566,-0.000217213,0.000681372,5.62302e-05,-1.18664,0.000436713,0.0257328,776,610,-14.1994,16.8799
-441,414,-14.2505,-17.7698,0.000855537,0.000723435,-0.000605208,0.00139829,0.000180685,-0.731044,0.000878182,0.0181675,783,610,-14.2506,17.7698
-434,414,-14.3261,-18.6496,0.00154745,0.000976137,-0.000974991,0.00227777,0.00024582,-0.642893,0.00144357,0.00987967,790,610,-14.3261,18.6496
-427,414,-14.3601,-19.5016,0.00228025,0.00147107,-0.00144909,0.00338017,0.00037115,-0.649262,0.00214048,0.0107297,797,610,-14.3601,19.5016
-420,414,-14.3922,-20.3335,0.00301555,0.00212822,-0.0019304,0.00455261,0.000591158,-0.672444,0.00285847,0.0107929,804,610,-14.3921,20.3335
-413,414,-14.4567,-21.2001,0.00373257,0.00296543,-0.00240444,0.00578384,0.000914155,-0.706302,0.00359018,0.0111305,811,610,-14.4567,21.2001
-406,414,-14.4736,-22.2194,0.00459206,0.00414804,-0.00311007,0.00748804,0.00125207,-0.749766,0.00463143,0.0389531,818,610,-14.4736,22.2194
-399,414,-14.3578,-23.2271,0,0,0,0,0,0,0,-1,825,610,-14.3578,23.2271
-392,414,-9.43781,-14.5624,0,0,0,0,0,0,0,-1,832,610,-9.43779,14.5624
-385,414,-8.14691,-13.0653,0,0,0,0,0,0,0,-1,839,610,-8.14692,13.0653
-378,414,-8.04907,-11.3331,0,0,0,0,0,0,0,-1,846,610,-8.04905,11.3331
-371,414,-5.20886,-8.05151,0,0,0,0,0,0,0,-1,853,610,-5.20887,8.05153
-364,414,-6.76282,-6.58759,0,0,0,0,0,0,0,-1,860,610,-6.7628,6.58756
-357,414,-9.08685,-8.86188,0,0,0,0,0,0,0,-1,867,610,-9.08688,8.86187
-350,414,-6.4502,-2.41821,0,0,0,0,0,0,0,-1,874,610,-6.45021,2.41822
-343,414,-6.80249,-2.32117,0,0,0,0,0,0,0,-1,881,610,-6.80252,2.32116
-336,414,-7.11017,-2.52026,0,0,0,0,0,0,0,-1,888,610,-7.11016,2.52026
-329,414,-7.59747,-2.70313,0,0,0,0,0,0,0,-1,895,610,-7.59747,2.70315
-322,414,-4.42236,-1.29163,0,0,0,0,0,0,0,-1,902,610,-4.42238,1.2916
-315,414,0,0,0,0,0,0,0,0,0,-1,909,610,0,0
-308,414,0,0,0,0,0,0,0,0,0,-1,916,610,0,0
-301,414,0,0,0,0,0,0,0,0,0,-1,923,610,0,0
-294,414,0,0,0,0,0,0,0,0,0,-1,930,610,0,0
-287,414,0,0,0,0,0,0,0,0,0,-1,937,610,0,0
-280,414,0,0,0,0,0,0,0,0,0,-1,944,610,0,0
-273,414,0,0,0,0,0,0,0,0,0,-1,951,610,0,0
-266,414,0,0,0,0,0,0,0,0,0,-1,958,610,0,0
-259,414,0,0,0,0,0,0,0,0,0,-1,965,610,0,0
-252,414,0,0,0,0,0,0,0,0,0,-1,972,610,0,0
-245,414,0,0,0,0,0,0,0,0,0,-1,979,610,0,0
-238,414,0,0,0,0,0,0,0,0,0,-1,986,610,0,0
-231,414,0,0,0,0,0,0,0,0,0,-1,993,610,0,0
-224,414,0,0,0,0,0,0,0,0,0,-1,1000,610,0,0
-217,414,0,0,0,0,0,0,0,0,0,-1,1007,610,0,0
-210,414,0,0,0,0,0,0,0,0,0,-1,1014,610,0,0
-203,414,0,0,0,0,0,0,0,0,0,-1,1021,610,0,0
-196,414,0,0,0,0,0,0,0,0,0,-1,1028,610,0,0
-189,414,0,0,0,0,0,0,0,0,0,-1,1035,610,0,0
-182,414,0,0,0,0,0,0,0,0,0,-1,1042,610,0,0
-175,414,0,0,0,0,0,0,0,0,0,-1,1049,610,0,0
-168,414,0,0,0,0,0,0,0,0,0,-1,1056,610,0,0
-161,414,0,0,0,0,0,0,0,0,0,-1,1063,610,0,0
-154,414,0,0,0,0,0,0,0,0,0,-1,1070,610,0,0
-147,414,0,0,0,0,0,0,0,0,0,-1,1077,610,0,0
-140,414,0,0,0,0,0,0,0,0,0,-1,1084,610,0,0
-133,414,0,0,0,0,0,0,0,0,0,-1,1091,610,0,0
-126,414,0,0,0,0,0,0,0,0,0,-1,1098,610,0,0
-119,414,0,0,0,0,0,0,0,0,0,-1,1105,610,0,0
-112,414,0,0,0,0,0,0,0,0,0,-1,1112,610,0,0
-105,414,0,0,0,0,0,0,0,0,0,-1,1119,610,0,0
-98,414,0,0,0,0,0,0,0,0,0,-1,1126,610,0,0
-91,414,0,0,0,0,0,0,0,0,0,-1,1133,610,0,0
-84,414,0,0,0,0,0,0,0,0,0,-1,1140,610,0,0
-77,414,0,0,0,0,0,0,0,0,0,-1,1147,610,0,0
-70,414,0,0,0,0,0,0,0,0,0,-1,1154,610,0,0
-63,414,0,0,0,0,0,0,0,0,0,-1,1161,610,0,0
-56,414,0,0,0,0,0,0,0,0,0,-1,1168,610,0,0
-49,414,0,0,0,0,0,0,0,0,0,-1,1175,610,0,0
-42,414,0,0,0,0,0,0,0,0,0,-1,1182,610,0,0
-35,414,0,0,0,0,0,0,0,0,0,-1,1189,610,0,0
-28,414,0,0,0,0,0,0,0,0,0,-1,1196,610,0,0
-21,414,0,0,0,0,0,0,0,0,0,-1,1203,610,0,0
-14,414,0,0,0,0,0,0,0,0,0,-1,1210,610,0,0
-7,414,0,0,0,0,0,0,0,0,0,-1,1217,610,0,0
0,414,0,0,0,0,0,0,0,0,0,-1,1224,610,0,0
7,414,0,0,0,0,0,0,0,0,0,-1,1231,610,0,0
14,414,0,0,0,0,0,0,0,0,0,-1,1238,610,0,0
21,414,0,0,0,0,0,0,0,0,0,-1,1245,610,0,0
28,414,0,0,0,0,0,0,0,0,0,-1,1252,610,0,0
35,414,0,0,0,0,0,0,0,0,0,-1,1259,610,0,0
42,414,0,0,0,0,0,0,0,0,0,-1,1266,610,0,0
49,414,0,0,0,0,0,0,0,0,0,-1,1273,610,0,0
56,414,0,0,0,0,0,0,0,0,0,-1,1280,610,0,0
63,414,0,0,0,0,0,0,0,0,0,-1,1287,610,0,0
70,414,0,0,0,0,0,0,0,0,0,-1,1294,610,0,0
77,414,0,0,0,0,0,0,0,0,0,-1,1301,610,0,0
84,414,0,0,0,0,0,0,0,0,0,-1,1308,610,0,0
91,414,0,0,0,0,0,0,0,0,0,-1,1315,610,0,0
98,414,0,0,0,0,0,0,0,0,0,-1,1322,610,0,0
105,414,0,0,0,0,0,0,0,0,0,-1,1329,610,0,0
112,414,0,0,0,0,0,0,0,0,0,-1,1336,610,0,0
119,414,0,0,0,0,0,0,0,0,0,-1,1343,610,0,0
126,414,0,0,0,0,0,0,0,0,0,-1,1350,610,0,0
133,414,0,0,0,0,0,0,0,0,0,-1,1357,610,0,0
140,414,0,0,0,0,0,0,0,0,0,-1,1364,610,0,0
147,414,0,0,0,0,0,0,0,0,0,-1,1371,610,0,0
154,414,0,0,0,0,0,0,0,0,0,-1,1378,610,0,0
161,414,0,0,0,0,0,0,0,0,0,-1,1385,610,0,0
168,414,0,0,0,0,0,0,0,0,0,-1,1392,610,0,0
175,414,0,0,0,0,0,0,0,0,0,-1,1399,610,0,0
182,414,0,0,0,0,0,0,0,0,0,-1,1406,610,0,0
189,414,0,0,0,0,0,0,0,0,0,-1,1413,610,0,0
196,414,0,0,0,0,0,0,0,0,0,-1,1420,610,0,0
203,414,0,0,0,0,0,0,0,0,0,-1,1427,610,0,0
210,414,0,0,0,0,0,0,0,0,0,-1,1434,610,0,0
217,414,0,0,0,0,0,0,0,0,0,-1,1441,610,0,0
224,414,0,0,0,0,0,0,0,0,0,-1,1448,610,0,0
231,414,0,0,0,0,0,0,0,0,0,-1,1455,610,0,0
238,414,0,0,0,0,0,0,0,0,0,-1,1462,610,0,0
245,414,0,0,0,0,0,0,0,0,0,-1,1469,610,0,0
252,414,0,0,0,0,0,0,0,0,0,-1,1476,610,0,0
259,414,0,0,0,0,0,0,0,0,0,-1,1483,610,0,0
266,414,0,0,0,0,0,0,0,0,0,-1,1490,610,0,0
273,414,0,0,0,0,0,0,0,0,0,-1,1497,610,0,0
280,414,0,0,0,0,0,0,0,0,0,-1,1504,610,0,0
287,414,0,0,0,0,0,0,0,0,0,-1,1511,610,0,0
294,414,0,0,0,0,0,0,0,0,0,-1,1518,610,0,0
301,414,0,0,0,0,0,0,0,0,0,-1,1525,610,0,0
308,414,0,0,0,0,0,0,0,0,0,-1,1532,610,0,0
315,414,0,0,0,0,0,0,0,0,0,-1,1539,610,0,0
322,414,0,0,0,0,0,0,0,0,0,-1,1546,610,0,0
329,414,0,0,0,0,0,0,0,0,0,-1,1553,610,0,0
336,414,0,0,0,0,0,0,0,0,0,-1,1560,610,0,0
343,414,0,0,0,0,0,0,0,0,0,-1,1567,610,0,0
350,414,0,0,0,0,0,0,0,0,0,-1,1574,610,0,0
357,414,0,0,0,0,0,0,0,0,0,-1,1581,610,0,0
364,414,0,0,0,0,0,0,0,0,0,-1,1588,610,0,0
371,414,0,0,0,0,0,0,0,0,0,-1,1595,610,0,0
378,414,0,0,0,0,0,0,0,0,0,-1,1602,610,0,0
385,414,0,0,0,0,0,0,0,0,0,-1,1609,610,0,0
392,414,0,0,0,0,0,0,0,0,0,-1,1616,610,0,0
399,414,0,0,0,0,0,0,0,0,0,-1,1623,610,0,0
406,414,0,0,0,0,0,0,0,0,0,-1,1630,610,0,0
413,414,0,0,0,0,0,0,0,0,0,-1,1637,610,0,0
420,414,0,0,0,0,0,0,0,0,0,-1,1644,610,0,0
427,414,0,0,0,0,0,0,0,0,0,-1,1651,610,0,0
434,414,0,0,0,0,0,0,0,0,0,-1,1658,610,0,0
441,414,7.84375,0.584412,0,0,0,0,0,0,0,-1,1665,610,7.84379,-0.584394
448,414,7.40808,1.25446,0,0,0,0,0,0,0,-1,1672,610,7.40807,-1.25446
455,414,6.3512,1.73846,0,0,0,0,0,0,0,-1,1679,610,6.3512,-1.73847
462,414,8.18103,3.22113,0,0,0,0,0,0,0,-1,1686,610,8.18108,-3.22112
469,414,8.38513,2.49579,0,0,0,0,0,0,0,-1,1693,610,8.38516,-2.49576
476,414,8.64099,1.71161,0,0,0,0,0,0,0,-1,1700,610,8.64097,-1.71164
483,414,8.62744,0.687622,0,0,0,0,0,0,0,-1,1707,610,8.62749,-0.687615
490,414,8.38831,-0.0302734,0,0,0,0,0,0,0,-1,1714,610,8.38835,0.0302913
497,414,4.71094,-0.110046,0,0,0,0,0,0,0,-1,1721,610,4.71089,0.110024
504,414,7.19568,-1.43835,0,0,0,0,0,0,0,-1,1728,610,7.19563,1.43836
511,414,5.94153,-1.28772,0,0,0,0,0,0,0,-1,1735,610,5.94151,1.28769
518,414,4.53381,-0.0996704,0,0,0,0,0,0,0,-1,1742,610,4.53378,0.0996819
525,414,6.18811,-1.64056,0,0,0,0,0,0,0,-1,1749,610,6.18814,1.64055
532,414,28.9637,-21.5351,0,0,0,0,0,0,0,-1,1756,610,28.9637,21.5351
539,414,29.0691,-20.5175,0,0,0,0,0,0,0,-1,1763,610,29.0691,20.5175
546,414,29.0071,-19.6141,0.00351353,0.00141251,0.00151632,0.00430769,0.000618353,0.482459,0.00268948,0.0184109,1770,610,29.0071,19.6141
553,414,28.9724,-18.7456,0.00286646,0.00129758,0.00116373,0.00348544,0.000678591,0.488841,0.00213371,0.01423,1777,610,28.9724,18.7456
560,414,28.9341,-17.8767,0.00230032,0.00125399,0.000963488,0.00287352,0.000680795,0.536676,0.00173389,0.01681,1784,610,28.9341,17.8767
567,414,28.8751,-17.0007,0.00194004,0.00136654,0.000971296,0.00266603,0.000640549,0.641863,0.00160697,0.0260365,1791,610,28.8752,17.0007
574,414,28.8177,-16.15,0.00179904,0.00162917,0.00114796,0.0028652,0.000563008,0.748472,0.00175287,0.0242916,1798,610,28.8178,16.15
581,414,28.7933,-15.2897,0.0018308,0.002023,0.00150717,0.00343713,0.000416674,0.817237,0.00216593,0.0221567,1805,610,28.7933,15.2898
588,414,28.7423,-14.415,0.0020743,0.00274074,0.0020951,0.00452896,0.000286083,0.86426,0.00292861,0.0203937,1812,610,28.7423,14.415
595,414,28.6887,-13.4756,0.00259073,0.00364526,0.00287156,0.00603756,0.00019843,0.876195,0.00396055,0.0209228,1819,610,28.6887,13.4756
602,414,28.6338,-12.6202,0.00330591,0.00488817,0.00383833,0.00801605,0.000178024,0.887032,0.00528569,0.0290034,1826,610,28.6338,12.6202
609,414,28.5863,-11.6809,0,0,0,0,0,0,0,-1,1833,610,28.5863,11.6809
616,414,28.8777,-10.4647,0,0,0,0,0,0,0,-1,1840,610,28.8777,10.4647
623,414,9.6969,0.0378418,0,0,0,0,0,0,0,-1,1847,610,9.69685,-0.0378644
630,414,5.47144,0.499329,0,0,0,0,0,0,0,-1,1854,610,5.47142,-0.499303
637,414,8.36707,4.16278,0,0,0,0,0,0,0,-1,1861,610,8.36709,-4.16278
644,414,5.87073,1.51422,0,0,0,0,0,0,0,-1,1868,610,5.87076,-1.51424
651,414,3.6377,0.820557,0,0,0,0,0,0,0,-1,1875,610,3.6377,-0.820543
658,414,2.29761,3.87323,0,0,0,0,0,0,0,-1,1882,610,2.29758,-3.87325
665,414,0,0,0,0,0,0,0,0,0,-1,1889,610,0,0
672,414,0,0,0,0,0,0,0,0,0,-1,1896,610,0,0
679,414,0,0,0,0,0,0,0,0,0,-1,1903,610,0,0
686,414,0,0,0,0,0,0,0,0,0,-1,1910,610,0,0
693,414,0,0,0,0,0,0,0,0,0,-1,1917,610,0,0
700,414,0,0,0,0,0,0,0,0,0,-1,1924,610,0,0
707,414,0,0,0,0,0,0,0,0,0,-1,1931,610,0,0
714,414,0,0,0,0,0,0,0,0,0,-1,1938,610,0,0
721,414,0,0,0,0,0,0,0,0,0,-1,1945,610,0,0
728,414,0,0,0,0,0,0,0,0,0,-1,1952,610,0,0
735,414,0,0,0,0,0,0,0,0,0,-1,1959,610,0,0
742,414,0,0,0,0,0,0,0,0,0,-1,1966,610,0,0
749,414,0,0,0,0,0,0,0,0,0,-1,1973,610,0,0
756,414,0,0,0,0,0,0,0,0,0,-1,1980,610,0,0
763,414,0,0,0,0,0,0,0,0,0,-1,1987,610,0,0
770,414,0,0,0,0,0,0,0,0,0,-1,1994,610,0,0
777,414,0,0,0,0,0,0,0,0,0,-1,2001,610,0,0
784,414,0,0,0,0,0,0,0,0,0,-1,2008,610,0,0
791,414,0,0,0,0,0,0,0,0,0,-1,2015,610,0,0
798,414,0,0,0,0,0,0,0,0,0,-1,2022,610,0,0
805,414,0,0,0,0,0,0,0,0,0,-1,2029,610,0,0
812,414,0,0,0,0,0,0,0,0,0,-1,2036,610,0,0
-700,407,0,0,0,0,0,0,0,0,0,-1,524,617,0,0
-693,407,0,0,0,0,0,0,0,0,0,-1,531,617,0,0
-686,407,0,0,0,0,0,0,0,0,0,-1,538,617,0,0
-679,407,0,0,0,0,0,0,0,0,0,-1,545,617,0,0
-672,407,0,0,0,0,0,0,0,0,0,-1,552,617,0,0
-665,407,0,0,0,0,0,0,0,0,0,-1,559,617,0,0
-658,407,0,0,0,0,0,0,0,0,0,-1,566,617,0,0
-651,407,0,0,0,0,0,0,0,0,0,-1,573,617,0,0
-644,407,0,0,0,0,0,0,0,0,0,-1,580,617,0,0
-637,407,0,0,0,0,0,0,0,0,0,-1,587,617,0,0
-630,407,0,0,0,0,0,0,0,0,0,-1,594,617,0,0
-623,407,0,0,0,0,0,0,0,0,0,-1,601,617,0,0
-616,407,0,0,0,0,0,0,0,0,0,-1,608,617,0,0
-609,407,0,0,0,0,0,0,0,0,0,-1,615,617,0,0
-602,407,0,0,0,0,0,0,0,0,0,-1,622,617,0,0
-595,407,0,0,0,0,0,0,0,0,0,-1,629,617,0,0
-588,407,0,0,0,0,0,0,0,0,0,-1,636,617,0,0
-581,407,0,0,0,0,0,0,0,0,0,-1,643,617,0,0
-574,407,0,0,0,0,0,0,0,0,0,-1,650,617,0,0
-567,407,0,0,0,0,0,0,0,0,0,-1,657,617,0,0
-560,407,0,0,0,0,0,0,0,0,0,-1,664,617,0,0
-553,407,0,0,0,0,0,0,0,0,0,-1,671,617,0,0
-546,407,-8.54517,-0.658142,0,0,0,0,0,0,0,-1,678,617,-8.54515,0.658112
-539,407,-6.09442,-1.01154,0,0,0,0,0,0,0,-1,685,617,-6.09441,1.01155
-532,407,-7.75665,1.62152,0,0,0,0,0,0,0,-1,692,617,-7.75667,-1.62154
-525,407,-3.78247,-2.67639,0,0,0,0,0,0,0,-1,699,617,-3.78246,2.67638
-518,407,-5.013,-5.87323,0,0,0,0,0,0,0,-1,706,617,-5.013,5.87324
-511,407,-9.42743,-4.94189,0,0,0,0,0,0,0,-1,713,617,-9.42745,4.94191
-504,407,-10.8291,-8.05927,0,0,0,0,0,0,0,-1,720,617,-10.8291,8.05927
-497,407,-9.84467,-6.81641,0,0,0,0,0,0,0,-1,727,617,-9.84468,6.8164
-490,407,-15.1049,-11.5947,0,0,0,0,0,0,0,-1,734,617,-15.1048,11.5947
-483,407,-14.7908,-12.445,0,0,0,0,0,0,0,-1,741,617,-14.7907,12.445
-476,407,-14.8609,-13.3232,-0.00149774,0.00121312,0.000776617,0.00141984,-0.00170446,1.31064,0.00180631,0.0164529,748,617,-14.8609,13.3233
-469,407,-14.9396,-14.1638,-0.0010978,0.000881808,0.000512523,0.00100663,-0.00122263,1.3319,0.00128907,0.0141042,755,617,-14.9396,14.1637
-462,407,-14.9963,-15.0725,-0.000583779,0.000613896,0.000240905,0.000660536,-0.000630419,1.37956,0.000745401,0.021578,762,617,-14.9963,15.0725
-455,407,-15.0162,-16.0095,-2.71138e-05,0.000487075,-7.17988e-05,0.000496913,-3.69512e-05,-1.43463,0.000344254,0.0230968,769,617,-15.0162,16.0095
-448,407,-15.0203,-16.8706,0.000639169,0.000553406,-0.000447461,0.0010458,0.000146777,-0.737628,0.000653788,0.0202108,776,617,-15.0203,16.8706
-441,407,-15.1017,-17.675,0.00134229,0.000760688,-0.00085296,0.00195266,0.000150319,-0.621112,0.00125467,0.0161166,783,617,-15.1017,17.675
-434,407,-15.2045,-18.5458,0.00209131,0.00113168,-0.00129362,0.00299123,0.000231759,-0.607808,0.00192156,0.0115683,790,617,-15.2045,18.5458
-427,407,-15.2474,-19.4191,0.00291594,0.00175471,-0.00186958,0.00429299,0.000377668,-0.634839,0.00274478,0.0117041,797,617,-15.2474,19.419
-420,407,-15.2531,-20.2721,0.00373509,0.00257034,-0.00243594,0.00565731,0.000648119,-0.668062,0.00357513,0.0115835,804,617,-15.253,20.2721
-413,407,-15.2885,-21.1249,0.00461187,0.00367565,-0.00307551,0.00725469,0.00103282,-0.709875,0.00453159,0.0180921,811,617,-15.2885,21.125
-406,407,-15.2827,-21.993,0,0,0,0,0,0,0,-1,818,617,-15.2827,21.993
-399,407,-15.509,-21.8364,0,0,0,0,0,0,0,-1,825,617,-15.509,21.8364
-392,407,-8.33612,-12.195,0,0,0,0,0,0,0,-1,832,617,-8.33611,12.195
-385,407,-7.65765,-10.7744,0,0,0,0,0,0,0,-1,839,617,-7.65767,10.7744
-378,407,-6.08655,-7.42291,0,0,0,0,0,0,0,-1,846,617,-6.08652,7.42292
-371,407,-7.4007,-5.79449,0,0,0,0,0,0,0,-1,853,617,-7.40072,5.79447
-364,407,-10.0638,-6.6228,0,0,0,0,0,0,0,-1,860,617,-10.0639,6.62279
-357,407,-6.64447,-1.83337,0,0,0,0,0,0,0,-1,867,617,-6.64446,1.8334
-350,407,-7.03351,-1.77551,0,0,0,0,0,0,0,-1,874,617,-7.03349,1.77551
-343,407,-7.40967,-1.95026,0,0,0,0,0,0,0,-1,881,617,-7.40969,1.95026
-336,407,-8.10229,-2.40662,0,0,0,0,0,0,0,-1,888,617,-8.10229,2.40664
-329,407,-8.81232,-2.76331,0,0,0,0,0,0,0,-1,895,617,-8.81235,2.76331
-322,407,0,0,0,0,0,0,0,0,0,-1,902,617,0,0
-315,407,0,0,0,0,0,0,0,0,0,-1,909,617,0,0
-308,407,0,0,0,0,0,0,0,0,0,-1,916,617,0,0
-301,407,0,0,0,0,0,0,0,0,0,-1,923,617,0,0
-294,407,0,0,0,0,0,0,0,0,0,-1,930,617,0,0
-287,407,0,0,0,0,0,0,0,0,0,-1,937,617,0,0
-280,407,0,0,0,0,0,0,0,0,0,-1,944,617,0,0
-273,407,0,0,0,0,0,0,0,0,0,-1,951,617,0,0
-266,407,0,0,0,0,0,0,0,0,0,-1,958,617,0,0
-259,407,0,0,0,0,0,0,0,0,0,-1,965,617,0,0
-252,407,0,0,0,0,0,0,0,0,0,-1,972,617,0,0
-245,407,0,0,0,0,0,0,0,0,0,-1,979,617,0,0
-238,407,0,0,0,0,0,0,0,0,0,-1,986,617,0,0
-231,407,0,0,0,0,0,0,0,0,0,-1,993,617,0,0
-224,407,0,0,0,0,0,0,0,0,0,-1,1000,617,0,0
-217,407,0,0,0,0,0,0,0,0,0,-1,1007,617,0,0
-210,407,0,0,0,0,0,0,0,0,0,-1,1014,617,0,0
-203,407,0,0,0,0,0,0,0,0,0,-1,1021,617,0,0
-196,407,0,0,0,0,0,0,0,0,0,-1,1028,617,0,0
-189,407,0,0,0,0,0,0,0,0,0,-1,1035,617,0,0
-182,407,0,0,0,0,0,0,0,0,0,-1,1042,617,0,0
-175,407,0,0,0,0,0,0,0,0,0,-1,1049,617,0,0
-168,407,0,0,0,0,0,0,0,0,0,-1,1056,617,0,0
-161,407,0,0,0,0,0,0,0,0,0,-1,1063,617,0,0
-154,407,0,0,0,0,0,0,0,0,0,-1,1070,617,0,0
-147,407,0,0,0,0,0,0,0,0,0,-1,1077,617,0,0
-140,407,0,0,0,0,0,0,0,0,0,-1,1084,617,0,0
-133,407,0,0,0,0,0,0,0,0,0,-1,1091,617,0,0
-126,407,0,0,0,0,0,0,0,0,0,-1,1098,617,0,0
-119,407,0,0,0,0,0,0,0,0,0,-1,1105,617,0,0
-112,407,0,0,0,0,0,0,0,0,0,-1,1112,617,0,0
-105,407,0,0,0,0,0,0,0,0,0,-1,1119,617,0,0
-98,407,0,0,0,0,0,0,0,0,0,-1,1126,617,0,0
-91,407,0,0,0,0,0,0,0,0,0,-1,1133,617,0,0
-84,407,0,0,0,0,0,0,0,0,0,-1,1140,617,0,0
-77,407,0,0,0,0,0,0,0,0,0,-1,1147,617,0,0
-70,407,0,0,0,0,0,0,0,0,0,-1,1154,617,0,0
-63,407,0,0,0,0,0,0,0,0,0,-1,1161,617,0,0
-56,407,0,0,0,0,0,0,0,0,0,-1,1168,617,0,0
-49,407,0,0,0,0,0,0,0,0,0,-1,1175,617,0,0
-42,407,0,0,0,0,0,0,0,0,0,-1,1182,617,0,0
-35,407,0,0,0,0,0,0,0,0,0,-1,1189,617,0,0
-28,407,0,0,0,0,0,0,0,0,0,-1,1196,617,0,0
-21,407,0,0,0,0,0,0,0,0,0,-1,1203,617,0,0
-14,407,0,0,0,0,0,0,0,0,0,-1,1210,617,0,0
-7,407,0,0,0,0,0,0,0,0,0,-1,1217,617,0,0
0,407,0,0,0,0,0,0,0,0,0,-1,1224,617,0,0
7,407,0,0,0,0,0,0,0,0,0,-1,1231,617,0,0
14,407,0,0,0,0,0,0,0,0,0,-1,1238,617,0,0
21,407,0,0,0,0,0,0,0,0,0,-1,1245,617,0,0
28,407,0,0,0,0,0,0,0,0,0,-1,1252,617,0,0
35,407,0,0,0,0,0,0,0,0,0,-1,1259,617,0,0
42,407,0,0,0,0,0,0,0,0,0,-1,1266,617,0,0
49,407,0,0,0,0,0,0,0,0,0,-1,1273,617,0,0
56,407,0,0,0,0,0,0,0,0,0,-1,1280,617,0,0
63,407,0,0,0,0,0,0,0,0,0,-1,1287,617,0,0
70,407,0,0,0,0,0,0,0,0,0,-1,1294,617,0,0
77,407,0,0,0,0,0,0,0,0,0,-1,1301,617,0,0
84,407,0,0,0,0,0,0,0,0,0,-1,1308,617,0,0
91,407,0,0,0,0,0,0,0,0,0,-1,1315,617,0,0
98,407,0,0,0,0,0,0,0,0,0,-1,1322,617,0,0
105,407,0,0,0,0,0,0,0,0,0,-1,1329,617,0,0
112,407,0,0,0,0,0,0,0,0,0,-1,1336,617,0,0
119,407,0,0,0,0,0,0,0,0,0,-1,1343,617,0,0
126,407,0,0,0,0,0,0,0,0,0,-1,1350,617,0,0
133,407,0,0,0,0,0,0,0,0,0,-1,1357,617,0,0
140,407,0,0,0,0,0,0,0,0,0,-1,1364,617,0,0
147,407,0,0,0,0,0,0,0,0,0,-1,1371,617,0,0
154,407,0,0,0,0,0,0,0,0,0,-1,1378,617,0,0
161,407,0,0,0,0,0,0,0,0,0,-1,1385,617,0,0
168,407,0,0,0,0,0,0,0,0,0,-1,1392,617,0,0
175,407,0,0,0,0,0,0,0,0,0,-1,1399,617,0,0
182,407,0,0,0,0,0,0,0,0,0,-1,1406,617,0,0
189,407,0,0,0,0,0,0,0,0,0,-1,1413,617,0,0
196,407,0,0,0,0,0,0,0,0,0,-1,1420,617,0,0
203,407,0,0,0,0,0,0,0,0,0,-1,1427,617,0,0
210,407,0,0,0,0,0,0,0,0,0,-1,1434,617,0,0
217,407,0,0,0,0,0,0,0,0,0,-1,1441,617,0,0
224,407,0,0,0,0,0,0,0,0,0,-1,1448,617,0,0
231,407,0,0,0,0,0,0,0,0,0,-1,1455,617,0,0
238,407,0,0,0,0,0,0,0,0,0,-1,1462,617,0,0
245,407,0,0,0,0,0,0,0,0,0,-1,1469,617,0,0
252,407,0,0,0,0,0,0,0,0,0,-1,1476,617,0,0
259,407,0,0,0,0,0,0,0,0,0,-1,1483,617,0,0
266,407,0,0,0,0,0,0,0,0,0,-1,1490,617,0,0
273,407,0,0,0,0,0,0,0,0,0,-1,1497,617,0,0
280,407,0,0,0,0,0,0,0,0,0,-1,1504,617,0,0
287,407,0,0,0,0,0,0,0,0,0,-1,1511,617,0,0
294,407,0,0,0,0,0,0,0,0,0,-1,1518,617,0,0
301,407,0,0,0,0,0,0,0,0,0,-1,1525,617,0,0
308,407,0,0,0,0,0,0,0,0,0,-1,1532,617,0,0
315,407,0,0,0,0,0,0,0,0,0,-1,1539,617,0,0
322,407,0,0,0,0,0,0,0,0,0,-1,1546,617,0,0
329,407,0,0,0,0,0,0,0,0,0,-1,1553,617,0,0
336,407,0,0,0,0,0,0,0,0,0,-1,1560,617,0,0
343,407,0,0,0,0,0,0,0,0,0,-1,1567,617,0,0
350,407,0,0,0,0,0,0,0,0,0,-1,1574,617,0,0
357,407,0,0,0,0,0,0,0,0,0,-1,1581,617,0,0
364,407,0,0,0,0,0,0,0,0,0,-1,1588,617,0,0
371,407,0,0,0,0,0,0,0,0,0,-1,1595,617,0,0
378,407,0,0,0,0,0,0,0,0,0,-1,1602,617,0,0
385,407,0,0,0,0,0,0,0,0,0,-1,1609,617,0,0
392,407,0,0,0,0,0,0,0,0,0,-1,1616,617,0,0
399,407,0,0,0,0,0,0,0,0,0,-1,1623,617,0,0
406,407,0,0,0,0,0,0,0,0,0,-1,1630,617,0,0
413,407,0,0,0,0,0,0,0,0,0,-1,1637,617,0,0
420,407,0,0,0,0,0,0,0,0,0,-1,1644,617,0,0
427,407,0,0,0,0,0,0,0,0,0,-1,1651,617,0,0
434,407,0,0,0,0,0,0,0,0,0,-1,1658,617,0,0
441,407,0,0,0,0,0,0,0,0,0,-1,1665,617,0,0
448,407,7.02893,2.13843,0,0,0,0,0,0,0,-1,1672,617,7.02899,-2.13844
455,407,7.55237,2.29242,0,0,0,0,0,0,0,-1,1679,617,7.55236,-2.29244
462,407,8.2926,2.46173,0,0,0,0,0,0,0,-1,1686,617,8.29261,-2.46174
469,407,8.71509,2.22681,0,0,0,0,0,0,0,-1,1693,617,8.71511,-2.22681
476,407,8.89917,1.47766,0,0,0,0,0,0,0,-1,1700,617,8.89914,-1.47768
483,407,9.02612,0.682983,0,0,0,0,0,0,0,-1,1707,617,9.02608,-0.683004
490,407,9.12659,0.000671387,0,0,0,0,0,0,0,-1,1714,617,9.12653,-0.000675931
497,407,7.76819,0.855835,0,0,0,0,0,0,0,-1,1721,617,7.7682,-0.855865
504,407,4.69336,0.160706,0,0,0,0,0,0,0,-1,1728,617,4.69337,-0.1607
511,407,4.07104,-0.00140381,0,0,0,0,0,0,0,-1,1735,617,4.07109,0.00141425
518,407,6.09534,1.9411,0,0,0,0,0,0,0,-1,1742,617,6.09532,-1.94113
525,407,5.72534,-1.35986,0,0,0,0,0,0,0,-1,1749,617,5.72529,1.35988
532,407,18.5767,-10.6388,0,0,0,0,0,0,0,-1,1756,617,18.5766,10.6388
539,407,29.8132,-20.5428,0,0,0,0,0,0,0,-1,1763,617,29.8132,20.5429
546,407,29.8965,-19.588,0.0038287,0.00167098,0.00165675,0.00472689,0.000772784,0.496793,0.00292786,0.030909,1770,617,29.8965,19.588
553,407,29.8141,-18.7363,0.00308614,0.00138792,0.00117805,0.0036892,0.000784861,0.473131,0.00224407,0.0176055,1777,617,29.814,18.7363
560,407,29.7996,-17.8337,0.0024519,0.00117777,0.000861337,0.00288617,0.0007435,0.466984,0.00173037,0.0194715,1784,617,29.7996,17.8337
567,407,29.7605,-16.952,0.00201065,0.00109496,0.000755976,0.00243661,0.000668994,0.513124,0.00145366,0.0336822,1791,617,29.7605,16.952
574,407,29.7225,-16.1266,0.00182624,0.00123496,0.000865575,0.00244527,0.000615929,0.620833,0.00146858,0.0267011,1798,617,29.7225,16.1266
581,407,29.6587,-15.2381,0.00181001,0.00151991,0.00115282,0.00282687,0.000503056,0.722815,0.00174129,0.0188154,1805,617,29.6587,15.2381
588,407,29.5785,-14.3301,0.00199279,0.00212179,0.00166062,0.00371916,0.000395416,0.804808,0.00235871,0.0139769,1812,617,29.5785,14.3301
595,407,29.5734,-13.4738,0.00246965,0.00289849,0.00236272,0.0050565,0.000311642,0.830649,0.00327207,0.0267985,1819,617,29.5734,13.4737
602,407,29.5321,-12.5358,0.00316532,0.00396448,0.0032379,0.00682736,0.000302439,0.846791,0.00445419,0.0247184,1826,617,29.5321,12.5358
609,407,29.4087,-11.6133,0.0042143,0.00535519,0.00438652,0.0092082,0.000361294,0.850058,0.00602198,0.0214665,1833,617,29.4087,11.6133
616,407,29.453,-10.5638,0.00566412,0.00714114,0.00575045,0.0122003,0.000604952,0.849262,0.00793957,0.0380679,1840,617,29.453,10.5638
623,407,29.7477,-9.36542,0,0,0,0,0,0,0,-1,1847,617,29.7476,9.36543
630,407,7.06177,0.814575,0,0,0,0,0,0,0,-1,1854,617,7.06178,-0.814579
637,407,11.1063,0.391846,0,0,0,0,0,0,0,-1,1861,617,11.1063,-0.391862
644,407,5.09766,2.27747,0,0,0,0,0,0,0,-1,1868,617,5.09764,-2.27746
651,407,7.37524,0.0513916,0,0,0,0,0,0,0,-1,1875,617,7.3752,-0.0513923
658,407,3.76685,0.594177,0,0,0,0,0,0,0,-1,1882,617,3.76683,-0.594184
665,407,5.76123,0.375061,0,0,0,0,0,0,0,-1,1889,617,5.76118,-0.37509
672,407,0,0,0,0,0,0,0,0,0,-1,1896,617,0,0
679,407,0,0,0,0,0,0,0,0,0,-1,1903,617,0,0
686,407,0,0,0,0,0,0,0,0,0,-1,1910,617,0,0
693,407,0,0,0,0,0,0,0,0,0,-1,1917,617,0,0
700,407,0,0,0,0,0,0,0,0,0,-1,1924,617,0,0
707,407,0,0,0,0,0,0,0,0,0,-1,1931,617,0,0
714,407,0,0,0,0,0,0,0,0,0,-1,1938,617,0,0
721,407,0,0,0,0,0,0,0,0,0,-1,1945,617,0,0
728,407,0,0,0,0,0,0,0,0,0,-1,1952,617,0,0
735,407,0,0,0,0,0,0,0,0,0,-1,1959,617,0,0
742,407,0,0,0,0,0,0,0,0,0,-1,1966,617,0,0
749,407,0,0,0,0,0,0,0,0,0,-1,1973,617,0,0
756,407,0,0,0,0,0,0,0,0,0,-1,1980,617,0,0
763,407,0,0,0,0,0,0,0,0,0,-1,1987,617,0,0
770,407,0,0,0,0,0,0,0,0,0,-1,1994,617,0,0
777,407,0,0,0,0,0,0,0,0,0,-1,2001,617,0,0
784,407,0,0,0,0,0,0,0,0,0,-1,2008,617,0,0
791,407,0,0,0,0,0,0,0,0,0,-1,2015,617,0,0
798,407,0,0,0,0,0,0,0,0,0,-1,2022,617,0,0
805,407,0,0,0,0,0,0,0,0,0,-1,2029,617,0,0
812,407,0,0,0,0,0,0,0,0,0,-1,2036,617,0,0
-700,400,0,0,0,0,0,0,0,0,0,-1,524,624,0,0
-693,400,0,0,0,0,0,0,0,0,0,-1,531,624,0,0
-686,400,0,0,0,0,0,0,0,0,0,-1,538,624,0,0
-679,400,0,0,0,0,0,0,0,0,0,-1,545,624,0,0
-672,400,0,0,0,0,0,0,0,0,0,-1,552,624,0,0
-665,400,0,0,0,0,0,0,0,0,0,-1,559,624,0,0
-658,400,0,0,0,0,0,0,0,0,0,-1,566,624,0,0
-651,400,0,0,0,0,0,0,0,0,0,-1,573,624,0,0
-644,400,0,0,0,0,0,0,0,0,0,-1,580,624,0,0
-637,400,0,0,0,0,0,0,0,0,0,-1,587,624,0,0
-630,400,0,0,0,0,0,0,0,0,0,-1,594,624,0,0
-623,400,0,0,0,0,0,0,0,0,0,-1,601,624,0,0
-616,400,0,0,0,0,0,0,0,0,0,-1,608,624,0,0
-609,400,0,0,0,0,0,0,0,0,0,-1,615,624,0,0
-602,400,0,0,0,0,0,0,0,0,0,-1,622,624,0,0
-595,400,0,0,0,0,0,0,0,0,0,-1,629,624,0,0
-588,400,0,0,0,0,0,0,0,0,0,-1,636,624,0,0
-581,400,0,0,0,0,0,0,0,0,0,-1,643,624,0,0
-574,400,0,0,0,0,0,0,0,0,0,-1,650,624,0,0
-567,400,0,0,0,0,0,0,0,0,0,-1,657,624,0,0
-560,400,0,0,0,0,0,0,0,0,0,-1,664,624,0,0
-553,400,0,0,0,0,0,0,0,0,0,-1,671,624,0,0
-546,400,-8.41174,-1.4599,0,0,0,0,0,0,0,-1,678,624,-8.41173,1.45989
-539,400,-5.69104,-1.7337,0,0,0,0,0,0,0,-1,685,624,-5.69103,1.7337
-532,400,-3.03632,-2.03912,0,0,0,0,0,0,0,-1,692,624,-3.03632,2.03909
-525,400,-6.20813,-7.04071,0,0,0,0,0,0,0,-1,699,624,-6.20814,7.04071
-518,400,-5.26544,-1.58661,0,0,0,0,0,0,0,-1,706,624,-5.26544,1.58658
-511,400,-10.6307,-6.7121,0,0,0,0,0,0,0,-1,713,624,-10.6307,6.71209
-504,400,-10.2663,-6.55109,0,0,0,0,0,0,0,-1,720,624,-10.2663,6.55106
-497,400,-15.9007,-10.3057,0,0,0,0,0,0,0,-1,727,624,-15.9007,10.3057
-490,400,-15.6575,-11.3623,-0.000782188,0.00161052,0.000532073,0.00172351,-0.000895171,1.36156,0.0015369,0.0448154,734,624,-15.6575,11.3623
-483,400,-15.6975,-12.388,-0.000799559,0.00117847,0.000492183,0.00129417,-0.000915259,1.33991,0.00128185,0.0183163,741,624,-15.6975,12.388
-476,400,-15.728,-13.239,-0.000705163,0.000894625,0.000366136,0.000974439,-0.000784977,1.35616,0.00101776,0.01537,748,624,-15.728,13.239
-469,400,-15.7891,-14.1066,-0.000428211,0.000637152,0.000181745,0.000667304,-0.000458362,1.40639,0.000653625,0.0162782,755,624,-15.7891,14.1066
-462,400,-15.8441,-15.0348,-3.21234e-05,0.000423876,-3.76124e-05,0.000426957,-3.5205e-05,-1.48905,0.000297069,0.0220119,762,624,-15.8441,15.0348
-455,400,-15.8845,-15.9246,0.000466512,0.000387112,-0.000343347,0.000772446,8.1178e-05,-0.727841,0.000490151,0.0226508,769,624,-15.8844,15.9246
-448,400,-15.9117,-16.8013,0.00111517,0.000530218,-0.000728016,0.00160726,3.8124e-05,-0.594395,0.00105903,0.0168819,776,624,-15.9117,16.8014
-441,400,-15.9769,-17.6042,0.00183003,0.000807463,-0.00115989,0.00258633,5.11652e-05,-0.577809,0.00170742,0.0160625,783,624,-15.9769,17.6042
-434,400,-16.0654,-18.4534,0.00266064,0.00130314,-0.00168281,0.00379642,0.000167353,-0.593705,0.00247705,0.0122836,790,624,-16.0654,18.4534
-427,400,-16.1298,-19.3152,0.00359856,0.00203985,-0.00235088,0.0052959,0.00034251,-0.625341,0.00342215,0.0107811,797,624,-16.1298,19.3153
-420,400,-16.0897,-20.2354,0.00451262,0.0029915,-0.0029805,0.00682807,0.000676051,-0.660475,0.00434426,0.0230346,804,624,-16.0897,20.2354
-413,400,-16.0408,-21.2264,0,0,0,0,0,0,0,-1,811,624,-16.0408,21.2264
-406,400,-14.392,-18.9125,0,0,0,0,0,0,0,-1,818,624,-14.392,18.9125
-399,400,-11.0176,-13.2944,0,0,0,0,0,0,0,-1,825,624,-11.0176,13.2944
-392,400,-4.92285,-6.63354,0,0,0,0,0,0,0,-1,832,624,-4.92285,6.63354
-385,400,-3.68738,-5.04205,0,0,0,0,0,0,0,-1,839,624,-3.68736,5.04207
-378,400,-6.84064,-1.28662,0,0,0,0,0,0,0,-1,846,624,-6.84062,1.28662
-371,400,-6.98865,-1.2572,0,0,0,0,0,0,0,-1,853,624,-6.98865,1.25721
-364,400,-6.97247,-1.24133,0,0,0,0,0,0,0,-1,860,624,-6.97249,1.24135
-357,400,-7.18329,-1.23218,0,0,0,0,0,0,0,-1,867,624,-7.18327,1.2322
-350,400,-7.40186,-1.19409,0,0,0,0,0,0,0,-1,874,624,-7.40187,1.19407
-343,400,-8.09357,-1.51147,0,0,0,0,0,0,0,-1,881,624,-8.09355,1.51148
-336,400,0,0,0,0,0,0,0,0,0,-1,888,624,0,0
-329,400,0,0,0,0,0,0,0,0,0,-1,895,624,0,0
-322,400,0,0,0,0,0,0,0,0,0,-1,902,624,0,0
-315,400,0,0,0,0,0,0,0,0,0,-1,909,624,0,0
-308,400,0,0,0,0,0,0,0,0,0,-1,916,624,0,0
-301,400,0,0,0,0,0,0,0,0,0,-1,923,624,0,0
-294,400,0,0,0,0,0,0,0,0,0,-1,930,624,0,0
-287,400,0,0,0,0,0,0,0,0,0,-1,937,624,0,0
-280,400,0,0,0,0,0,0,0,0,0,-1,944,624,0,0
-273,400,0,0,0,0,0,0,0,0,0,-1,951,624,0,0
-266,400,0,0,0,0,0,0,0,0,0,-1,958,624,0,0
-259,400,0,0,0,0,0,0,0,0,0,-1,965,624,0,0
-252,400,0,0,0,0,0,0,0,0,0,-1,972,624,0,0
-245,400,0,0,0,0,0,0,0,0,0,-1,979,624,0,0
-238,400,0,0,0,0,0,0,0,0,0,-1,986,624,0,0
-231,400,0,0,0,0,0,0,0,0,0,-1,993,624,0,0
-224,400,0,0,0,0,0,0,0,0,0,-1,1000,624,0,0
-217,400,0,0,0,0,0,0,0,0,0,-1,1007,624,0,0
-210,400,0,0,0,0,0,0,0,0,0,-1,1014,624,0,0
-203,400,0,0,0,0,0,0,0,0,0,-1,1021,624,0,0
-196,400,0,0,0,0,0,0,0,0,0,-1,1028,624,0,0
-189,400,0,0,0,0,0,0,0,0,0,-1,1035,624,0,0
-182,400,0,0,0,0,0,0,0,0,0,-1,1042,624,0,0
-175,400,0,0,0,0,0,0,0,0,0,-1,1049,624,0,0
-168,400,0,0,0,0,0,0,0,0,0,-1,1056,624,0,0
-161,400,0,0,0,0,0,0,0,0,0,-1,1063,624,0,0
-154,400,0,0,0,0,0,0,0,0,0,-1,1070,624,0,0
-147,400,0,0,0,0,0,0,0,0,0,-1,1077,624,0,0
-140,400,0,0,0,0,0,0,0,0,0,-1,1084,624,0,0
-133,400,0,0,0,0,0,0,0,0,0,-1,1091,624,0,0
-126,400,0,0,0,0,0,0,0,0,0,-1,1098,624,0,0
-119,400,0,0,0,0,0,0,0,0,0,-1,1105,624,0,0
-112,400,0,0,0,0,0,0,0,0,0,-1,1112,624,0,0
-105,400,0,0,0,0,0,0,0,0,0,-1,1119,624,0,0
-98,400,0,0,0,0,0,0,0,0,0,-1,1126,624,0,0
-91,400,0,0,0,0,0,0,0,0,0,-1,1133,624,0,0
-84,400,0,0,0,0,0,0,0,0,0,-1,1140,624,0,0
-77,400,0,0,0,0,0,0,0,0,0,-1,1147,624,0,0
-70,400,0,0,0,0,0,0,0,0,0,-1,1154,624,0,0
-63,400,0,0,0,0,0,0,0,0,0,-1,1161,624,0,0
-56,400,0,0,0,0,0,0,0,0,0,-1,1168,624,0,0
-49,400,0,0,0,0,0,0,0,0,0,-1,1175,624,0,0
-42,400,0,0,0,0,0,0,0,0,0,-1,1182,624,0,0
-35,400,0,0,0,0,0,0,0,0,0,-1,1189,624,0,0
-28,400,0,0,0,0,0,0,0,0,0,-1,1196,624,0,0
-21,400,0,0,0,0,0,0,0,0,0,-1,1203,624,0,0
-14,400,0,0,0,0,0,0,0,0,0,-1,1210,624,0,0
-7,400,0,0,0,0,0,0,0,0,0,-1,1217,624,0,0
0,400,0,0,0,0,0,0,0,0,0,-1,1224,624,0,0
7,400,0,0,0,0,0,0,0,0,0,-1,1231,624,0,0
14,400,0,0,0,0,0,0,0,0,0,-1,1238,624,0,0
21,400,0,0,0,0,0,0,0,0,0,-1,1245,624,0,0
28,400,0,0,0,0,0,0,0,0,0,-1,1252,624,0,0
35,400,0,0,0,0,0,0,0,0,0,-1,1259,624,0,0
42,400,0,0,0,0,0,0,0,0,0,-1,1266,624,0,0
49,400,0,0,0,0,0,0,0,0,0,-1,1273,624,0,0
56,400,0,0,0,0,0,0,0,0,0,-1,1280,624,0,0
63,400,0,0,0,0,0,0,0,0,0,-1,1287,624,0,0
70,400,0,0,0,0,0,0,0,0,0,-1,1294,624,0,0
77,400,0,0,0,0,0,0,0,0,0,-1,1301,624,0,0
84,400,0,0,0,0,0,0,0,0,0,-1,1308,624,0,0
91,400,0,0,0,0,0,0,0,0,0,-1,1315,624,0,0
98,400,0,0,0,0,0,0,0,0,0,-1,1322,624,0,0
105,400,0,0,0,0,0,0,0,0,0,-1,1329,624,0,0
112,400,0,0,0,0,0,0,0,0,0,-1,1336,624,0,0
119,400,0,0,0,0,0,0,0,0,0,-1,1343,624,0,0
126,400,0,0,0,0,0,0,0,0,0,-1,1350,624,0,0
133,400,0,0,0,0,0,0,0,0,0,-1,1357,624,0,0
140,400,0,0,0,0,0,0,0,0,0,-1,1364,624,0,0
147,400,0,0,0,0,0,0,0,0,0,-1,1371,624,0,0
154,400,0,0,0,0,0,0,0,0,0,-1,1378,624,0,0
161,400,0,0,0,0,0,0,0,0,0,-1,1385,624,0,0
168,400,0,0,0,0,0,0,0,0,0,-1,1392,624,0,0
175,400,0,0,0,0,0,0,0,0,0,-1,1399,624,0,0
182,400,0,0,0,0,0,0,0,0,0,-1,1406,624,0,0
189,400,0,0,0,0,0,0,0,0,0,-1,1413,624,0,0
196,400,0,0,0,0,0,0,0,0,0,-1,1420,624,0,0
203,400,0,0,0,0,0,0,0,0,0,-1,1427,624,0,0
210,400,0,0,0,0,0,0,0,0,0,-1,1434,624,0,0
217,400,0,0,0,0,0,0,0,0,0,-1,1441,624,0,0
224,400,0,0,0,0,0,0,0,0,0,-1,1448,624,0,0
231,400,0,0,0,0,0,0,0,0,0,-1,1455,624,0,0
238,400,0,0,0,0,0,0,0,0,0,-1,1462,624,0,0
245,400,0,0,0,0,0,0,0,0,0,-1,1469,624,0,0
252,400,0,0,0,0,0,0,0,0,0,-1,1476,624,0,0
259,400,0,0,0,0,0,0,0,0,0,-1,1483,624,0,0
266,400,0,0,0,0,0,0,0,0,0,-1,1490,624,0,0
273,400,0,0,0,0,0,0,0,0,0,-1,1497,624,0,0
280,400,0,0,0,0,0,0,0,0,0,-1,1504,624,0,0
287,400,0,0,0,0,0,0,0,0,0,-1,1511,624,0,0
294,400,0,0,0,0,0,0,0,0,0,-1,1518,624,0,0
301,400,0,0,0,0,0,0,0,0,0,-1,1525,624,0,0
308,400,0,0,0,0,0,0,0,0,0,-1,1532,624,0,0
315,400,0,0,0,0,0,0,0,0,0,-1,1539,624,0,0
322,400,0,0,0,0,0,0,0,0,0,-1,1546,624,0,0
329,400,0,0,0,0,0,0,0,0,0,-1,1553,624,0,0
336,400,0,0,0,0,0,0,0,0,0,-1,1560,624,0,0
343,400,0,0,0,0,0,0,0,0,0,-1,1567,624,0,0
350,400,0,0,0,0,0,0,0,0,0,-1,1574,624,0,0
357,400,0,0,0,0,0,0,0,0,0,-1,1581,624,0,0
364,400,0,0,0,0,0,0,0,0,0,-1,1588,624,0,0
371,400,0,0,0,0,0,0,0,0,0,-1,1595,624,0,0
378,400,0,0,0,0,0,0,0,0,0,-1,1602,624,0,0
385,400,0,0,0,0,0,0,0,0,0,-1,1609,624,0,0
392,400,0,0,0,0,0,0,0,0,0,-1,1616,624,0,0
399,400,0,0,0,0,0,0,0,0,0,-1,1623,624,0,0
406,400,0,0,0,0,0,0,0,0,0,-1,1630,624,0,0
413,400,0,0,0,0,0,0,0,0,0,-1,1637,624,0,0
420,400,0,0,0,0,0,0,0,0,0,-1,1644,624,0,0
427,400,0,0,0,0,0,0,0,0,0,-1,1651,624,0,0
434,400,0,0,0,0,0,0,0,0,0,-1,1658,624,0,0
441,400,0,0,0,0,0,0,0,0,0,-1,1665,624,0,0
448,400,0,0,0,0,0,0,0,0,0,-1,1672,624,0,0
455,400,8.91309,2.75885,0,0,0,0,0,0,0,-1,1679,624,8.91312,-2.75885
462,400,8.90356,2.37878,0,0,0,0,0,0,0,-1,1686,624,8.90353,-2.37878
469,400,9.14429,1.76849,0,0,0,0,0,0,0,-1,1693,624,9.14432,-1.76847
476,400,9.23254,1.25995,0,0,0,0,0,0,0,-1,1700,624,9.23252,-1.25994
483,400,9.59766,0.562439,0,0,0,0,0,0,0,-1,1707,624,9.59771,-0.56242
490,400,9.92578,-0.213745,0,0,0,0,0,0,0,-1,1714,624,9.92579,0.21376
497,400,9.19141,0.175232,0,0,0,0,0,0,0,-1,1721,624,9.19138,-0.175209
504,400,9.23438,0.00823975,0,0,0,0,0,0,0,-1,1728,624,9.23436,-0.00823766
511,400,6.16687,3.3501,0,0,0,0,0,0,0,-1,1735,624,6.16682,-3.35007
518,400,6.55237,1.74994,0,0,0,0,0,0,0,-1,1742,624,6.55236,-1.74993
525,400,6.99731,1.08783,0,0,0,0,0,0,0,-1,1749,624,6.99736,-1.08785
532,400,6.96582,-1.74982,0,0,0,0,0,0,0,-1,1756,624,6.96585,1.74983
539,400,21.2305,-10.5841,0,0,0,0,0,0,0,-1,1763,624,21.2304,10.5841
546,400,30.8091,-19.5723,0,0,0,0,0,0,0,-1,1770,624,30.8091,19.5723
553,400,30.6021,-18.7081,0.00340563,0.00159426,0.00111567,0.00393695,0.00106294,0.444455,0.0023518,0.0443924,1777,624,30.6021,18.7081
560,400,30.6569,-17.7658,0.0026643,0.00122933,0.000701792,0.00295046,0.000943172,0.38717,0.00173999,0.0168965,1784,624,30.6569,17.7658
567,400,30.6531,-16.8907,0.00207658,0.000945854,0.000488709,0.00225853,0.000763908,0.356402,0.00132651,0.0191148,1791,624,30.653,16.8907
574,400,30.6096,-16.0491,0.00179025,0.000971672,0.000543395,0.00206125,0.00070067,0.462622,0.00121022,0.0216946,1798,624,30.6096,16.049
581,400,30.4983,-15.1579,0.00167696,0.0011642,0.00077484,0.00223673,0.000604422,0.625627,0.00133606,0.0220167,1805,624,30.4982,15.1579
588,400,30.4119,-14.2172,0.00177102,0.00164885,0.00122209,0.00293356,0.000486315,0.760429,0.00181544,0.018904,1812,624,30.4119,14.2172
595,400,30.4191,-13.3542,0.00216813,0.00230198,0.00186229,0.00409855,0.000371567,0.803359,0.00261732,0.0180473,1819,624,30.4191,13.3543
602,400,30.4,-12.4811,0.0027789,0.00319459,0.00265945,0.0056543,0.000319183,0.824395,0.00366777,0.0186043,1826,624,30.4,12.4811
609,400,30.2544,-11.5815,0.0036349,0.0043393,0.00364579,0.00764987,0.000324336,0.833551,0.00499531,0.0172619,1833,624,30.2544,11.5816
616,400,30.2228,-10.693,0.00481431,0.00579269,0.00482089,0.0101491,0.000457855,0.835961,0.00661876,0.0193474,1840,624,30.2227,10.693
623,400,30.3573,-9.42554,0,0,0,0,0,0,0,-1,1847,624,30.3573,9.42552
630,400,11.9432,0.09021,0,0,0,0,0,0,0,-1,1854,624,11.9432,-0.0902007
637,400,6.92896,1.01917,0,0,0,0,0,0,0,-1,1861,624,6.92899,-1.01918
644,400,8.65381,1.4599,0,0,0,0,0,0,0,-1,1868,624,8.65379,-1.45991
651,400,7.90601,0.424072,0,0,0,0,0,0,0,-1,1875,624,7.90598,-0.424097
658,400,8.69031,1.0484,0,0,0,0,0,0,0,-1,1882,624,8.6903,-1.0484
665,400,5.98438,0.522522,0,0,0,0,0,0,0,-1,1889,624,5.98442,-0.522552
672,400,0,0,0,0,0,0,0,0,0,-1,1896,624,0,0
679,400,0,0,0,0,0,0,0,0,0,-1,1903,624,0,0
686,400,0,0,0,0,0,0,0,0,0,-1,1910,624,0,0
693,400,0,0,0,0,0,0,0,0,0,-1,1917,624,0,0
700,400,0,0,0,0,0,0,0,0,0,-1,1924,624,0,0
707,400,0,0,0,0,0,0,0,0,0,-1,1931,624,0,0
714,400,0,0,0,0,0,0,0,0,0,-1,1938,624,0,0
721,400,0,0,0,0,0,0,0,0,0,-1,1945,624,0,0
728,400,0,0,0,0,0,0,0,0,0,-1,1952,624,0,0
735,400,0,0,0,0,0,0,0,0,0,-1,1959,624,0,0
742,400,0,0,0,0,0,0,0,0,0,-1,1966,624,0,0
749,400,0,0,0,0,0,0,0,0,0,-1,1973,624,0,0
756,400,0,0,0,0,0,0,0,0,0,-1,1980,624,0,0
763,400,0,0,0,0,0,0,0,0,0,-1,1987,624,0,0
770,400,0,0,0,0,0,0,0,0,0,-1,1994,624,0,0
777,400,0,0,0,0,0,0,0,0,0,-1,2001,624,0,0
784,400,0,0,0,0,0,0,0,0,0,-1,2008,624,0,0
791,400,0,0,0,0,0,0,0,0,0,-1,2015,624,0,0
798,400,0,0,0,0,0,0,0,0,0,-1,2022,624,0,0
805,400,0,0,0,0,0,0,0,0,0,-1,2029,624,0,0
812,400,0,0,0,0,0,0,0,0,0,-1,2036,624,0,0
-700,393,0,0,0,0,0,0,0,0,0,-1,524,631,0,0
-693,393,0,0,0,0,0,0,0,0,0,-1,531,631,0,0
-686,393,0,0,0,0,0,0,0,0,0,-1,538,631,0,0
-679,393,0,0,0,0,0,0,0,0,0,-1,545,631,0,0
-672,393,0,0,0,0,0,0,0,0,0,-1,552,631,0,0
-665,393,0,0,0,0,0,0,0,0,0,-1,559,631,0,0
-658,393,0,0,0,0,0,0,0,0,0,-1,566,631,0,0
-651,393,0,0,0,0,0,0,0,0,0,-1,573,631,0,0
-644,393,0,0,0,0,0,0,0,0,0,-1,580,631,0,0
-637,393,0,0,0,0,0,0,0,0,0,-1,587,631,0,0
-630,393,0,0,0,0,0,0,0,0,0,-1,594,631,0,0
-623,393,0,0,0,0,0,0,0,0,0,-1,601,631,0,0
-616,393,0,0,0,0,0,0,0,0,0,-1,608,631,0,0
-609,393,0,0,0,0,0,0,0,0,0,-1,615,631,0,0
-602,393,0,0,0,0,0,0,0,0,0,-1,622,631,0,0
-595,393,0,0,0,0,0,0,0,0,0,-1,629,631,0,0
-588,393,0,0,0,0,0,0,0,0,0,-1,636,631,0,0
-581,393,0,0,0,0,0,0,0,0,0,-1,643,631,0,0
-574,393,0,0,0,0,0,0,0,0,0,-1,650,631,0,0
-567,393,0,0,0,0,0,0,0,0,0,-1,657,631,0,0
-560,393,0,0,0,0,0,0,0,0,0,-1,664,631,0,0
-553,393,-2.35107,3.92633,0,0,0,0,0,0,0,-1,671,631,-2.35108,-3.92634
-546,393,-1.78778,2.4856,0,0,0,0,0,0,0,-1,678,631,-1.78778,-2.48557
-539,393,-5.2113,-2.20245,0,0,0,0,0,0,0,-1,685,631,-5.21128,2.20247
-532,393,-2.83643,-2.01624,0,0,0,0,0,0,0,-1,692,631,-2.83642,2.01626
-525,393,-5.9505,-0.952698,0,0,0,0,0,0,0,-1,699,631,-5.95053,0.95268
-518,393,-5.80219,-1.57739,0,0,0,0,0,0,0,-1,706,631,-5.80219,1.57738
-511,393,-6.15527,-2.09906,0,0,0,0,0,0,0,-1,713,631,-6.15526,2.09903
-504,393,-13.6063,-6.95947,0,0,0,0,0,0,0,-1,720,631,-13.6063,6.95946
-497,393,-16.6335,-10.4063,0,0,0,0,0,0,0,-1,727,631,-16.6336,10.4063
-490,393,-16.5454,-11.3928,-4.96686e-05,0.00112082,0.000141789,0.00113775,-6.65996e-05,1.45195,0.000781644,0.0269127,734,631,-16.5454,11.3928
-483,393,-16.5634,-12.3348,-0.000132388,0.000838547,0.000132426,0.000856285,-0.000150125,1.43765,0.000626919,0.0205682,741,631,-16.5634,12.3349
-476,393,-16.5965,-13.1918,-9.06599e-05,0.000643923,4.20385e-05,0.000646321,-9.30579e-05,1.51382,0.000465014,0.0177132,748,631,-16.5965,13.1918
-469,393,-16.6376,-14.0638,0.000123595,0.000465853,-0.000109089,0.000497666,9.17815e-05,-1.28704,0.00030581,0.0133274,755,631,-16.6376,14.0638
-462,393,-16.7095,-14.9914,0.000449451,0.000307318,-0.000304878,0.000691435,6.53339e-05,-0.670894,0.000440796,0.0157285,762,631,-16.7095,14.9914
-455,393,-16.776,-15.8844,0.000910176,0.000335012,-0.000610519,0.00129745,-5.22663e-05,-0.56529,0.000882908,0.0153865,769,631,-16.776,15.8844
-448,393,-16.8336,-16.7543,0.0015393,0.000519982,-0.00100072,0.00215266,-9.33841e-05,-0.549871,0.00146723,0.0144401,776,631,-16.8336,16.7543
-441,393,-16.8779,-17.5823,0.00225771,0.000837191,-0.00145445,0.00316606,-7.11571e-05,-0.558261,0.00213482,0.0134057,783,631,-16.8779,17.5823
-434,393,-16.9294,-18.41,0.00316666,0.00144497,-0.00206376,0.00454192,6.97132e-05,-0.587808,0.00300498,0.0123205,790,631,-16.9295,18.41
-427,393,-16.9213,-19.3022,0.00421263,0.00225995,-0.0028135,0.00621439,0.000258199,-0.61839,0.0040596,0.024049,797,631,-16.9213,19.3023
-420,393,-16.8255,-20.2808,0,0,0,0,0,0,0,-1,804,631,-16.8255,20.2808
-413,393,-15.0913,-18.3777,0,0,0,0,0,0,0,-1,811,631,-15.0913,18.3777
-406,393,-11.826,-12.7987,0,0,0,0,0,0,0,-1,818,631,-11.8261,12.7987
-399,393,-5.07343,-5.92365,0,0,0,0,0,0,0,-1,825,631,-5.07344,5.92364
-392,393,-2.08063,-3.02386,0,0,0,0,0,0,0,-1,832,631,-2.08063,3.02384
-385,393,-3.16931,-0.624756,0,0,0,0,0,0,0,-1,839,631,-3.16928,0.624764
-378,393,-7.33081,-0.872314,0,0,0,0,0,0,0,-1,846,631,-7.33081,0.872325
-371,393,-7.47858,-0.811096,0,0,0,0,0,0,0,-1,853,631,-7.47859,0.811075
-364,393,-7.64917,-0.662415,0,0,0,0,0,0,0,-1,860,631,-7.64917,0.662406
-357,393,-8.09686,-0.726013,0,0,0,0,0,0,0,-1,867,631,-8.09689,0.726029
-350,393,-8.38788,-0.511841,0,0,0,0,0,0,0,-1,874,631,-8.38785,0.511811
-343,393,0,0,0,0,0,0,0,0,0,-1,881,631,0,0
-336,393,0,0,0,0,0,0,0,0,0,-1,888,631,0,0
-329,393,0,0,0,0,0,0,0,0,0,-1,895,631,0,0
-322,393,0,0,0,0,0,0,0,0,0,-1,902,631,0,0
-315,393,0,0,0,0,0,0,0,0,0,-1,909,631,0,0
-308,393,0,0,0,0,0,0,0,0,0,-1,916,631,0,0
-301,393,0,0,0,0,0,0,0,0,0,-1,923,631,0,0
-294,393,0,0,0,0,0,0,0,0,0,-1,930,631,0,0
-287,393,0,0,0,0,0,0,0,0,0,-1,937,631,0,0
-280,393,0,0,0,0,0,0,0,0,0,-1,944,631,0,0
-273,393,0,0,0,0,0,0,0,0,0,-1,951,631,0,0
-266,393,0,0,0,0,0,0,0,0,0,-1,958,631,0,0
-259,393,0,0,0,0,0,0,0,0,0,-1,965,631,0,0
-252,393,0,0,0,0,0,0,0,0,0,-1,972,631,0,0
-245,393,0,0,0,0,0,0,0,0,0,-1,979,631,0,0
-238,393,0,0,0,0,0,0,0,0,0,-1,986,631,0,0
-231,393,0,0,0,0,0,0,0,0,0,-1,993,631,0,0
-224,393,0,0,0,0,0,0,0,0,0,-1,1000,631,0,0
-217,393,0,0,0,0,0,0,0,0,0,-1,1007,631,0,0
-210,393,0,0,0,0,0,0,0,0,0,-1,1014,631,0,0
-203,393,0,0,0,0,0,0,0,0,0,-1,1021,631,0,0
-196,393,0,0,0,0,0,0,0,0,0,-1,1028,631,0,0
-189,393,0,0,0,0,0,0,0,0,0,-1,1035,631,0,0
-182,393,0,0,0,0,0,0,0,0,0,-1,1042,631,0,0
-175,393,0,0,0,0,0,0,0,0,0,-1,1049,631,0,0
-168,393,0,0,0,0,0,0,0,0,0,-1,1056,631,0,0
-161,393,0,0,0,0,0,0,0,0,0,-1,1063,631,0,0
-154,393,0,0,0,0,0,0,0,0,0,-1,1070,631,0,0
-147,393,0,0,0,0,0,0,0,0,0,-1,1077,631,0,0
-140,393,0,0,0,0,0,0,0,0,0,-1,1084,631,0,0
-133,393,0,0,0,0,0,0,0,0,0,-1,1091,631,0,0
-126,393,0,0,0,0,0,0,0,0,0,-1,1098,631,0,0
-119,393,0,0,0,0,0,0,0,0,0,-1,1105,631,0,0
-112,393,0,0,0,0,0,0,0,0,0,-1,1112,631,0,0
-105,393,0,0,0,0,0,0,0,0,0,-1,1119,631,0,0
-98,393,0,0,0,0,0,0,0,0,0,-1,1126,631,0,0
-91,393,0,0,0,0,0,0,0,0,0,-1,1133,631,0,0
-84,393,0,0,0,0,0,0,0,0,0,-1,1140,631,0,0
-77,393,0,0,0,0,0,0,0,0,0,-1,1147,631,0,0
-70,393,0,0,0,0,0,0,0,0,0,-1,1154,631,0,0
-63,393,0,0,0,0,0,0,0,0,0,-1,1161,631,0,0
-56,393,0,0,0,0,0,0,0,0,0,-1,1168,631,0,0
-49,393,0,0,0,0,0,0,0,0,0,-1,1175,631,0,0
-42,393,0,0,0,0,0,0,0,0,0,-1,1182,631,0,0
-35,393,0,0,0,0,0,0,0,0,0,-1,1189,631,0,0
-28,393,0,0,0,0,0,0,0,0,0,-1,1196,631,0,0
-21,393,0,0,0,0,0,0,0,0,0,-1,1203,631,0,0
-14,393,0,0,0,0,0,0,0,0,0,-1,1210,631,0,0
-7,393,0,0,0,0,0,0,0,0,0,-1,1217,631,0,0
0,393,0,0,0,0,0,0,0,0,0,-1,1224,631,0,0
7,393,0,0,0,0,0,0,0,0,0,-1,1231,631,0,0
14,393,0,0,0,0,0,0,0,0,0,-1,1238,631,0,0
21,393,0,0,0,0,0,0,0,0,0,-1,1245,631,0,0
28,393,0,0,0,0,0,0,0,0,0,-1,1252,631,0,0
35,393,0,0,0,0,0,0,0,0,0,-1,1259,631,0,0
42,393,0,0,0,0,0,0,0,0,0,-1,1266,631,0,0
49,393,0,0,0,0,0,0,0,0,0,-1,1273,631,0,0
56,393,0,0,0,0,0,0,0,0,0,-1,1280,631,0,0
63,393,0,0,0,0,0,0,0,0,0,-1,1287,631,0,0
70,393,0,0,0,0,0,0,0,0,0,-1,1294,631,0,0
77,393,0,0,0,0,0,0,0,0,0,-1,1301,631,0,0
84,393,0,0,0,0,0,0,0,0,0,-1,1308,631,0,0
91,393,0,0,0,0,0,0,0,0,0,-1,1315,631,0,0
98,393,0,0,0,0,0,0,0,0,0,-1,1322,631,0,0
105,393,0,0,0,0,0,0,0,0,0,-1,1329,631,0,0
112,393,0,0,0,0,0,0,0,0,0,-1,1336,631,0,0
119,393,0,0,0,0,0,0,0,0,0,-1,1343,631,0,0
126,393,0,0,0,0,0,0,0,0,0,-1,1350,631,0,0
133,393,0,0,0,0,0,0,0,0,0,-1,1357,631,0,0
140,393,0,0,0,0,0,0,0,0,0,-1,1364,631,0,0
147,393,0,0,0,0,0,0,0,0,0,-1,1371,631,0,0
154,393,0,0,0,0,0,0,0,0,0,-1,1378,631,0,0
161,393,0,0,0,0,0,0,0,0,0,-1,1385,631,0,0
168,393,0,0,0,0,0,0,0,0,0,-1,1392,631,0,0
175,393,0,0,0,0,0,0,0,0,0,-1,1399,631,0,0
182,393,0,0,0,0,0,0,0,0,0,-1,1406,631,0,0
189,393,0,0,0,0,0,0,0,0,0,-1,1413,631,0,0
196,393,0,0,0,0,0,0,0,0,0,-1,1420,631,0,0
203,393,0,0,0,0,0,0,0,0,0,-1,1427,631,0,0
210,393,0,0,0,0,0,0,0,0,0,-1,1434,631,0,0
217,393,0,0,0,0,0,0,0,0,0,-1,1441,631,0,0
224,393,0,0,0,0,0,0,0,0,0,-1,1448,631,0,0
231,393,0,0,0,0,0,0,0,0,0,-1,1455,631,0,0
238,393,0,0,0,0,0,0,0,0,0,-1,1462,631,0,0
245,393,0,0,0,0,0,0,0,0,0,-1,1469,631,0,0
252,393,0,0,0,0,0,0,0,0,0,-1,1476,631,0,0
259,393,0,0,0,0,0,0,0,0,0,-1,1483,631,0,0
266,393,0,0,0,0,0,0,0,0,0,-1,1490,631,0,0
273,393,0,0,0,0,0,0,0,0,0,-1,1497,631,0,0
280,393,0,0,0,0,0,0,0,0,0,-1,1504,631,0,0
287,393,0,0,0,0,0,0,0,0,0,-1,1511,631,0,0
294,393,0,0,0,0,0,0,0,0,0,-1,1518,631,0,0
301,393,0,0,0,0,0,0,0,0,0,-1,1525,631,0,0
308,393,0,0,0,0,0,0,0,0,0,-1,1532,631,0,0
315,393,0,0,0,0,0,0,0,0,0,-1,1539,631,0,0
322,393,0,0,0,0,0,0,0,0,0,-1,1546,631,0,0
329,393,0,0,0,0,0,0,0,0,0,-1,1553,631,0,0
336,393,0,0,0,0,0,0,0,0,0,-1,1560,631,0,0
343,393,0,0,0,0,0,0,0,0,0,-1,1567,631,0,0
350,393,0,0,0,0,0,0,0,0,0,-1,1574,631,0,0
357,393,0,0,0,0,0,0,0,0,0,-1,1581,631,0,0
364,393,0,0,0,0,0,0,0,0,0,-1,1588,631,0,0
371,393,0,0,0,0,0,0,0,0,0,-1,1595,631,0,0
378,393,0,0,0,0,0,0,0,0,0,-1,1602,631,0,0
385,393,0,0,0,0,0,0,0,0,0,-1,1609,631,0,0
392,393,0,0,0,0,0,0,0,0,0,-1,1616,631,0,0
399,393,0,0,0,0,0,0,0,0,0,-1,1623,631,0,0
406,393,0,0,0,0,0,0,0,0,0,-1,1630,631,0,0
413,393,0,0,0,0,0,0,0,0,0,-1,1637,631,0,0
420,393,0,0,0,0,0,0,0,0,0,-1,1644,631,0,0
427,393,0,0,0,0,0,0,0,0,0,-1,1651,631,0,0
434,393,0,0,0,0,0,0,0,0,0,-1,1658,631,0,0
441,393,0,0,0,0,0,0,0,0,0,-1,1665,631,0,0
448,393,0,0,0,0,0,0,0,0,0,-1,1672,631,0,0
455,393,0,0,0,0,0,0,0,0,0,-1,1679,631,0,0
462,393,8.51099,1.89502,0,0,0,0,0,0,0,-1,1686,631,8.51103,-1.89504
469,393,9.39465,1.51703,0,0,0,0,0,0,0,-1,1693,631,9.39465,-1.51703
476,393,9.95569,1.185,0,0,0,0,0,0,0,-1,1700,631,9.95575,-1.18497
483,393,10.5267,0.887329,0,0,0,0,0,0,0,-1,1707,631,10.5267,-0.887321
490,393,10.9303,0.761414,0,0,0,0,0,0,0,-1,1714,631,10.9303,-0.761386
497,393,8.32153,1.88104,0,0,0,0,0,0,0,-1,1721,631,8.32148,-1.88103
504,393,9.46985,1.78711,0,0,0,0,0,0,0,-1,1728,631,9.46986,-1.78713
511,393,9.66565,-0.375977,0,0,0,0,0,0,0,-1,1735,631,9.66571,0.375949
518,393,7.01599,1.62482,0,0,0,0,0,0,0,-1,1742,631,7.01597,-1.62483
525,393,7.88245,-1.13422,0,0,0,0,0,0,0,-1,1749,631,7.88246,1.13423
532,393,7.06335,-1.18103,0,0,0,0,0,0,0,-1,1756,631,7.06332,1.18101
539,393,9.91626,-2.46301,0,0,0,0,0,0,0,-1,1763,631,9.91625,2.46302
546,393,16.4094,-8.04651,0,0,0,0,0,0,0,-1,1770,631,16.4094,8.04649
553,393,31.2382,-18.8499,0,0,0,0,0,0,0,-1,1777,631,31.2382,18.8499
560,393,31.5183,-17.768,0.0027914,0.00128015,0.000489353,0.00293602,0.00113553,0.287348,0.00170954,0.044525,1784,631,31.5183,17.768
567,393,31.4933,-16.8605,0.00201686,0.000757952,0.000165807,0.00203833,0.00073648,0.128781,0.00119183,0.0169565,1791,631,31.4932,16.8605
574,393,31.4626,-15.9812,0.00161594,0.000661745,0.000172854,0.00164629,0.000631397,0.173797,0.000959043,0.01674,1798,631,31.4627,15.9812
581,393,31.3491,-15.0682,0.0014066,0.000782941,0.000356263,0.00156823,0.000621314,0.425905,0.000911897,0.0186656,1805,631,31.3492,15.0682
588,393,31.2893,-14.1251,0.00144206,0.0011709,0.000753124,0.00207171,0.00054125,0.696338,0.00124072,0.0208346,1812,631,31.2893,14.1251
595,393,31.2943,-13.2972,0.00180071,0.00174423,0.00133869,0.00311146,0.000433479,0.774851,0.00194598,0.0182174,1819,631,31.2943,13.2972
602,393,31.2634,-12.4078,0.00237985,0.00252694,0.00206375,0.00451846,0.000388337,0.803209,0.00289157,0.0203266,1826,631,31.2634,12.4078
609,393,31.1729,-11.5226,0.00312951,0.00352836,0.00291149,0.00624724,0.000410625,0.819593,0.00403492,0.0178192,1833,631,31.1729,11.5226
616,393,31.1227,-10.655,0.00409458,0.00478914,0.0038767,0.00833409,0.000549639,0.83007,0.00538221,0.0160452,1840,631,31.1226,10.655
623,393,31.1113,-9.66949,0.00523937,0.00622025,0.00495668,0.0107107,0.000748928,0.83471,0.00690438,0.0347429,1847,631,31.1113,9.66951
630,393,31.3553,-8.70251,0,0,0,0,0,0,0,-1,1854,631,31.3554,8.70252
637,393,11.4626,0.608887,0,0,0,0,0,0,0,-1,1861,631,11.4627,-0.608904
644,393,8.97583,1.30585,0,0,0,0,0,0,0,-1,1868,631,8.97586,-1.30584
651,393,11.348,0.53302,0,0,0,0,0,0,0,-1,1875,631,11.348,-0.53305
658,393,9.21338,1.50836,0,0,0,0,0,0,0,-1,1882,631,9.21338,-1.50834
665,393,6.1001,2.32129,0,0,0,0,0,0,0,-1,1889,631,6.10012,-2.3213
672,393,7.14575,2.43225,0,0,0,0,0,0,0,-1,1896,631,7.14572,-2.43222
679,393,0,0,0,0,0,0,0,0,0,-1,1903,631,0,0
686,393,0,0,0,0,0,0,0,0,0,-1,1910,631,0,0
693,393,0,0,0,0,0,0,0,0,0,-1,1917,631,0,0
700,393,0,0,0,0,0,0,0,0,0,-1,1924,631,0,0
707,393,0,0,0,0,0,0,0,0,0,-1,1931,631,0,0
714,393,0,0,0,0,0,0,0,0,0,-1,1938,631,0,0
721,393,0,0,0,0,0,0,0,0,0,-1,1945,631,0,0
728,393,0,0,0,0,0,0,0,0,0,-1,1952,631,0,0
735,393,0,0,0,0,0,0,0,0,0,-1,1959,631,0,0
742,393,0,0,0,0,0,0,0,0,0,-1,1966,631,0,0
749,393,0,0,0,0,0,0,0,0,0,-1,1973,631,0,0
756,393,0,0,0,0,0,0,0,0,0,-1,1980,631,0,0
763,393,0,0,0,0,0,0,0,0,0,-1,1987,631,0,0
770,393,0,0,0,0,0,0,0,0,0,-1,1994,631,0,0
777,393,0,0,0,0,0,0,0,0,0,-1,2001,631,0,0
784,393,0,0,0,0,0,0,0,0,0,-1,2008,631,0,0
791,393,0,0,0,0,0,0,0,0,0,-1,2015,631,0,0
798,393,0,0,0,0,0,0,0,0,0,-1,2022,631,0,0
805,393,0,0,0,0,0,0,0,0,0,-1,2029,631,0,0
812,393,0,0,0,0,0,0,0,0,0,-1,2036,631,0,0
-700,386,0,0,0,0,0,0,0,0,0,-1,524,638,0,0
-693,386,0,0,0,0,0,0,0,0,0,-1,531,638,0,0
-686,386,0,0,0,0,0,0,0,0,0,-1,538,638,0,0
-679,386,0,0,0,0,0,0,0,0,0,-1,545,638,0,0
-672,386,0,0,0,0,0,0,0,0,0,-1,552,638,0,0
-665,386,0,0,0,0,0,0,0,0,0,-1,559,638,0,0
-658,386,0,0,0,0,0,0,0,0,0,-1,566,638,0,0
-651,386,0,0,0,0,0,0,0,0,0,-1,573,638,0,0
-644,386,0,0,0,0,0,0,0,0,0,-1,580,638,0,0
-637,386,0,0,0,0,0,0,0,0,0,-1,587,638,0,0
-630,386,0,0,0,0,0,0,0,0,0,-1,594,638,0,0
-623,386,0,0,0,0,0,0,0,0,0,-1,601,638,0,0
-616,386,0,0,0,0,0,0,0,0,0,-1,608,638,0,0
-609,386,0,0,0,0,0,0,0,0,0,-1,615,638,0,0
-602,386,0,0,0,0,0,0,0,0,0,-1,622,638,0,0
-595,386,0,0,0,0,0,0,0,0,0,-1,629,638,0,0
-588,386,0,0,0,0,0,0,0,0,0,-1,636,638,0,0
-581,386,0,0,0,0,0,0,0,0,0,-1,643,638,0,0
-574,386,0,0,0,0,0,0,0,0,0,-1,650,638,0,0
-567,386,0,0,0,0,0,0,0,0,0,-1,657,638,0,0
-560,386,-3.97229,-5.13898,0,0,0,0,0,0,0,-1,664,638,-3.97232,5.13897
-553,386,-4.94244,-5.54309,0,0,0,0,0,0,0,-1,671,638,-4.94242,5.5431
-546,386,-1.78668,1.72827,0,0,0,0,0,0,0,-1,678,638,-1.78668,-1.72829
-539,386,-0.879456,-2.90009,0,0,0,0,0,0,0,-1,685,638,-0.879442,2.90008
-532,386,-5.4884,1.73328,0,0,0,0,0,0,0,-1,692,638,-5.4884,-1.73325
-525,386,-6.64148,-1.50604,0,0,0,0,0,0,0,-1,699,638,-6.64149,1.50603
-518,386,-11.1217,-4.10382,0,0,0,0,0,0,0,-1,706,638,-11.1217,4.1038
-511,386,-13.0612,-5.05151,0,0,0,0,0,0,0,-1,713,638,-13.0612,5.05149
-504,386,-17.4241,-9.453,0,0,0,0,0,0,0,-1,720,638,-17.4241,9.45302
-497,386,-17.3319,-10.5637,0,0,0,0,0,0,0,-1,727,638,-17.3319,10.5636
-490,386,-17.376,-11.4611,0.000484367,0.000707761,-0.000109393,0.000752407,0.000439721,-1.18331,0.000436461,0.0139001,734,638,-17.376,11.4611
-483,386,-17.4183,-12.3413,0.000353065,0.000541474,-9.2872e-05,0.000579556,0.000314983,-1.18166,0.000335028,0.0170443,741,638,-17.4183,12.3413
-476,386,-17.4548,-13.2095,0.000357529,0.000420048,-0.000159477,0.0005513,0.000226277,-0.882178,0.000319991,0.0166101,748,638,-17.4548,13.2095
-469,386,-17.527,-14.05,0.000520057,0.00030858,-0.000290413,0.000723382,0.000105254,-0.610809,0.00045128,0.0122314,755,638,-17.527,14.05
-462,386,-17.587,-14.9495,0.000796376,0.000208598,-0.000482925,0.00106781,-6.28335e-05,-0.512053,0.000733714,0.0115954,762,638,-17.587,14.9496
-455,386,-17.6356,-15.824,0.00123769,0.000290085,-0.000804072,0.00169717,-0.000169396,-0.519157,0.00119193,0.0133321,769,638,-17.6356,15.824
-448,386,-17.6931,-16.6731,0.00186452,0.000508687,-0.00122515,0.00258681,-0.0002136,-0.532699,0.00179997,0.013034,776,638,-17.6931,16.6731
-441,386,-17.7482,-17.5313,0.00261648,0.000866528,-0.00174909,0.00369724,-0.000214231,-0.553476,0.00253925,0.0136222,783,638,-17.7482,17.5313
-434,386,-17.7539,-18.4529,0.00365072,0.00160548,-0.00251897,0.00534673,-9.05315e-05,-0.592579,0.00359505,0.0320418,790,638,-17.7539,18.4529
-427,386,-17.6879,-19.457,0,0,0,0,0,0,0,-1,797,638,-17.6879,19.457
-420,386,-14.5338,-16.0451,0,0,0,0,0,0,0,-1,804,638,-14.5338,16.0451
-413,386,-5.45691,-5.35785,0,0,0,0,0,0,0,-1,811,638,-5.45691,5.35783
-406,386,-4.51135,-4.10999,0,0,0,0,0,0,0,-1,818,638,-4.51135,4.10996
-399,386,-3.57117,-3.42126,0,0,0,0,0,0,0,-1,825,638,-3.57116,3.42129
-392,386,-4.00977,0.403625,0,0,0,0,0,0,0,-1,832,638,-4.0098,-0.403616
-385,386,-3.2406,-0.118469,0,0,0,0,0,0,0,-1,839,638,-3.24058,0.118485
-378,386,-2.55243,-1.22748,0,0,0,0,0,0,0,-1,846,638,-2.55243,1.22748
-371,386,-7.95807,-0.330261,0,0,0,0,0,0,0,-1,853,638,-7.95806,0.330284
-364,386,-8.90637,-0.665955,0,0,0,0,0,0,0,-1,860,638,-8.90635,0.665951
-357,386,-9.10364,-0.388733,0,0,0,0,0,0,0,-1,867,638,-9.10364,0.388744
-350,386,0,0,0,0,0,0,0,0,0,-1,874,638,0,0
-343,386,0,0,0,0,0,0,0,0,0,-1,881,638,0,0
-336,386,0,0,0,0,0,0,0,0,0,-1,888,638,0,0
-329,386,0,0,0,0,0,0,0,0,0,-1,895,638,0,0
-322,386,0,0,0,0,0,0,0,0,0,-1,902,638,0,0
-315,386,0,0,0,0,0,0,0,0,0,-1,909,638,0,0
-308,386,0,0,0,0,0,0,0,0,0,-1,916,638,0,0
-301,386,0,0,0,0,0,0,0,0,0,-1,923,638,0,0
-294,386,0,0,0,0,0,0,0,0,0,-1,930,638,0,0
-287,386,0,0,0,0,0,0,0,0,0,-1,937,638,0,0
-280,386,0,0,0,0,0,0,0,0,0,-1,944,638,0,0
-273,386,0,0,0,0,0,0,0,0,0,-1,951,638,0,0
-266,386,0,0,0,0,0,0,0,0,0,-1,958,638,0,0
-259,386,0,0,0,0,0,0,0,0,0,-1,965,638,0,0
-252,386,0,0,0,0,0,0,0,0,0,-1,972,638,0,0
-245,386,0,0,0,0,0,0,0,0,0,-1,979,638,0,0
-238,386,0,0,0,0,0,0,0,0,0,-1,986,638,0,0
-231,386,0,0,0,0,0,0,0,0,0,-1,993,638,0,0
-224,386,0,0,0,0,0,0,0,0,0,-1,1000,638,0,0
-217,386,0,0,0,0,0,0,0,0,0,-1,1007,638,0,0
-210,386,0,0,0,0,0,0,0,0,0,-1,1014,638,0,0
-203,386,0,0,0,0,0,0,0,0,0,-1,1021,638,0,0
-196,386,0,0,0,0,0,0,0,0,0,-1,1028,638,0,0
-189,386,0,0,0,0,0,0,0,0,0,-1,1035,638,0,0
-182,386,0,0,0,0,0,0,0,0,0,-1,1042,638,0,0
-175,386,0,0,0,0,0,0,0,0,0,-1,1049,638,0,0
-168,386,0,0,0,0,0,0,0,0,0,-1,1056,638,0,0
-161,386,0,0,0,0,0,0,0,0,0,-1,1063,638,0,0
-154,386,0,0,0,0,0,0,0,0,0,-1,1070,638,0,0
-147,386,0,0,0,0,0,0,0,0,0,-1,1077,638,0,0
-140,386,0,0,0,0,0,0,0,0,0,-1,1084,638,0,0
-133,386,0,0,0,0,0,0,0,0,0,-1,1091,638,0,0
-126,386,0,0,0,0,0,0,0,0,0,-1,1098,638,0,0
-119,386,0,0,0,0,0,0,0,0,0,-1,1105,638,0,0
-112,386,0,0,0,0,0,0,0,0,0,-1,1112,638,0,0
-105,386,0,0,0,0,0,0,0,0,0,-1,1119,638,0,0
-98,386,0,0,0,0,0,0,0,0,0,-1,1126,638,0,0
-91,386,0,0,0,0,0,0,0,0,0,-1,1133,638,0,0
-84,386,0,0,0,0,0,0,0,0,0,-1,1140,638,0,0
-77,386,0,0,0,0,0,0,0,0,0,-1,1147,638,0,0
-70,386,0,0,0,0,0,0,0,0,0,-1,1154,638,0,0
-63,386,0,0,0,0,0,0,0,0,0,-1,1161,638,0,0
-56,386,0,0,0,0,0,0,0,0,0,-1,1168,638,0,0
-49,386,0,0,0,0,0,0,0,0,0,-1,1175,638,0,0
-42,386,0,0,0,0,0,0,0,0,0,-1,1182,638,0,0
-35,386,0,0,0,0,0,0,0,0,0,-1,1189,638,0,0
-28,386,0,0,0,0,0,0,0,0,0,-1,1196,638,0,0
-21,386,0,0,0,0,0,0,0,0,0,-1,1203,638,0,0
-14,386,0,0,0,0,0,0,0,0,0,-1,1210,638,0,0
-7,386,0,0,0,0,0,0,0,0,0,-1,1217,638,0,0
0,386,0,0,0,0,0,0,0,0,0,-1,1224,638,0,0
7,386,0,0,0,0,0,0,0,0,0,-1,1231,638,0,0
14,386,0,0,0,0,0,0,0,0,0,-1,1238,638,0,0
21,386,0,0,0,0,0,0,0,0,0,-1,1245,638,0,0
28,386,0,0,0,0,0,0,0,0,0,-1,1252,638,0,0
35,386,0,0,0,0,0,0,0,0,0,-1,1259,638,0,0
42,386,0,0,0,0,0,0,0,0,0,-1,1266,638,0,0
49,386,0,0,0,0,0,0,0,0,0,-1,1273,638,0,0
56,386,0,0,0,0,0,0,0,0,0,-1,1280,638,0,0
63,386,0,0,0,0,0,0,0,0,0,-1,1287,638,0,0
70,386,0,0,0,0,0,0,0,0,0,-1,1294,638,0,0
77,386,0,0,0,0,0,0,0,0,0,-1,1301,638,0,0
84,386,0,0,0,0,0,0,0,0,0,-1,1308,638,0,0
91,386,0,0,0,0,0,0,0,0,0,-1,1315,638,0,0
98,386,0,0,0,0,0,0,0,0,0,-1,1322,638,0,0
105,386,0,0,0,0,0,0,0,0,0,-1,1329,638,0,0
112,386,0,0,0,0,0,0,0,0,0,-1,1336,638,0,0
119,386,0,0,0,0,0,0,0,0,0,-1,1343,638,0,0
126,386,0,0,0,0,0,0,0,0,0,-1,1350,638,0,0
133,386,0,0,0,0,0,0,0,0,0,-1,1357,638,0,0
140,386,0,0,0,0,0,0,0,0,0,-1,1364,638,0,0
147,386,0,0,0,0,0,0,0,0,0,-1,1371,638,0,0
154,386,0,0,0,0,0,0,0,0,0,-1,1378,638,0,0
161,386,0,0,0,0,0,0,0,0,0,-1,1385,638,0,0
168,386,0,0,0,0,0,0,0,0,0,-1,1392,638,0,0
175,386,0,0,0,0,0,0,0,0,0,-1,1399,638,0,0
182,386,0,0,0,0,0,0,0,0,0,-1,1406,638,0,0
189,386,0,0,0,0,0,0,0,0,0,-1,1413,638,0,0
196,386,0,0,0,0,0,0,0,0,0,-1,1420,638,0,0
203,386,0,0,0,0,0,0,0,0,0,-1,1427,638,0,0
210,386,0,0,0,0,0,0,0,0,0,-1,1434,638,0,0
217,386,0,0,0,0,0,0,0,0,0,-1,1441,638,0,0
224,386,0,0,0,0,0,0,0,0,0,-1,1448,638,0,0
231,386,0,0,0,0,0,0,0,0,0,-1,1455,638,0,0
238,386,0,0,0,0,0,0,0,0,0,-1,1462,638,0,0
245,386,0,0,0,0,0,0,0,0,0,-1,1469,638,0,0
252,386,0,0,0,0,0,0,0,0,0,-1,1476,638,0,0
259,386,0,0,0,0,0,0,0,0,0,-1,1483,638,0,0
266,386,0,0,0,0,0,0,0,0,0,-1,1490,638,0,0
273,386,0,0,0,0,0,0,0,0,0,-1,1497,638,0,0
280,386,0,0,0,0,0,0,0,0,0,-1,1504,638,0,0
287,386,0,0,0,0,0,0,0,0,0,-1,1511,638,0,0
294,386,0,0,0,0,0,0,0,0,0,-1,1518,638,0,0
301,386,0,0,0,0,0,0,0,0,0,-1,1525,638,0,0
308,386,0,0,0,0,0,0,0,0,0,-1,1532,638,0,0
315,386,0,0,0,0,0,0,0,0,0,-1,1539,638,0,0
322,386,0,0,0,0,0,0,0,0,0,-1,1546,638,0,0
329,386,0,0,0,0,0,0,0,0,0,-1,1553,638,0,0
336,386,0,0,0,0,0,0,0,0,0,-1,1560,638,0,0
343,386,0,0,0,0,0,0,0,0,0,-1,1567,638,0,0
350,386,0,0,0,0,0,0,0,0,0,-1,1574,638,0,0
357,386,0,0,0,0,0,0,0,0,0,-1,1581,638,0,0
364,386,0,0,0,0,0,0,0,0,0,-1,1588,638,0,0
371,386,0,0,0,0,0,0,0,0,0,-1,1595,638,0,0
378,386,0,0,0,0,0,0,0,0,0,-1,1602,638,0,0
385,386,0,0,0,0,0,0,0,0,0,-1,1609,638,0,0
392,386,0,0,0,0,0,0,0,0,0,-1,1616,638,0,0
399,386,0,0,0,0,0,0,0,0,0,-1,1623,638,0,0
406,386,0,0,0,0,0,0,0,0,0,-1,1630,638,0,0
413,386,0,0,0,0,0,0,0,0,0,-1,1637,638,0,0
420,386,0,0,0,0,0,0,0,0,0,-1,1644,638,0,0
427,386,0,0,0,0,0,0,0,0,0,-1,1651,638,0,0
434,386,0,0,0,0,0,0,0,0,0,-1,1658,638,0,0
441,386,0,0,0,0,0,0,0,0,0,-1,1665,638,0,0
448,386,0,0,0,0,0,0,0,0,0,-1,1672,638,0,0
455,386,0,0,0,0,0,0,0,0,0,-1,1679,638,0,0
462,386,0,0,0,0,0,0,0,0,0,-1,1686,638,0,0
469,386,9.84692,1.55804,0,0,0,0,0,0,0,-1,1693,638,9.84691,-1.55807
476,386,10.6145,0.986511,0,0,0,0,0,0,0,-1,1700,638,10.6145,-0.986529
483,386,11.4113,0.732971,0,0,0,0,0,0,0,-1,1707,638,11.4112,-0.732958
490,386,7.79785,1.79572,0,0,0,0,0,0,0,-1,1714,638,7.79788,-1.7957
497,386,8.96362,1.77081,0,0,0,0,0,0,0,-1,1721,638,8.96357,-1.77081
504,386,10.0555,1.69427,0,0,0,0,0,0,0,-1,1728,638,10.0555,-1.69426
511,386,11.2172,1.534,0,0,0,0,0,0,0,-1,1735,638,11.2172,-1.53398
518,386,7.41553,1.75238,0,0,0,0,0,0,0,-1,1742,638,7.41547,-1.75238
525,386,8.82422,-1.1449,0,0,0,0,0,0,0,-1,1749,638,8.82426,1.14492
532,386,10.6432,0.617371,0,0,0,0,0,0,0,-1,1756,638,10.6432,-0.617359
539,386,9.62061,-0.393616,0,0,0,0,0,0,0,-1,1763,638,9.62059,0.393634
546,386,10.7963,-2.854,0,0,0,0,0,0,0,-1,1770,638,10.7962,2.854
553,386,16.9939,-7.27942,0,0,0,0,0,0,0,-1,1777,638,16.9939,7.27944
560,386,32.3213,-17.8871,0,0,0,0,0,0,0,-1,1784,638,32.3213,17.8871
567,386,32.317,-16.845,0,0,0,0,0,0,0,-1,1791,638,32.3171,16.845
574,386,32.3273,-15.8909,0.00146056,0.000430228,-0.000116508,0.00147357,0.000417217,-0.111207,0.000877037,0.0155025,1798,638,32.3273,15.8909
581,386,32.2393,-15.0461,0.00112559,0.000467131,-2.90074e-06,0.0011256,0.000467118,-0.00440524,0.00065299,0.0160985,1805,638,32.2392,15.0461
588,386,32.2157,-14.1541,0.00108714,0.000729468,0.000324461,0.00127879,0.000537822,0.533524,0.000741406,0.0140491,1812,638,32.2157,14.1541
595,386,32.1689,-13.2778,0.00138581,0.00121351,0.000833968,0.00213807,0.000461254,0.73393,0.00129921,0.015769,1819,638,32.169,13.2778
602,386,32.1101,-12.3839,0.00190556,0.00188159,0.00146187,0.00335549,0.000431656,0.7813,0.00210789,0.0175554,1826,638,32.1101,12.3839
609,386,32.0984,-11.4958,0.00254821,0.00273893,0.00216208,0.00480776,0.000479386,0.807437,0.00305793,0.0155282,1833,638,32.0984,11.4959
616,386,32.0453,-10.6059,0.00335876,0.00380506,0.00293144,0.00652184,0.000641988,0.823386,0.00415048,0.0125711,1840,638,32.0453,10.6059
623,386,31.9519,-9.72638,0.00432268,0.00501558,0.00379599,0.00848089,0.000857369,0.830905,0.00539091,0.0111774,1847,638,31.952,9.72637
630,386,32.045,-8.79938,0.00532981,0.00626898,0.00460114,0.0104244,0.00117435,0.836251,0.00659313,0.0381933,1854,638,32.045,8.79936
637,386,32.2423,-7.76398,0,0,0,0,0,0,0,-1,1861,638,32.2423,7.76396
644,386,11.6521,0.723328,0,0,0,0,0,0,0,-1,1868,638,11.6521,-0.723355
651,386,9.3866,1.31097,0,0,0,0,0,0,0,-1,1875,638,9.3866,-1.31095
658,386,12.0731,-0.00415039,0,0,0,0,0,0,0,-1,1882,638,12.0731,0.00412803
665,386,6.33167,1.78601,0,0,0,0,0,0,0,-1,1889,638,6.33171,-1.78601
672,386,7.23352,2.14435,0,0,0,0,0,0,0,-1,1896,638,7.23353,-2.14433
679,386,8.07764,2.57104,0,0,0,0,0,0,0,-1,1903,638,8.07758,-2.57103
686,386,0,0,0,0,0,0,0,0,0,-1,1910,638,0,0
693,386,0,0,0,0,0,0,0,0,0,-1,1917,638,0,0
700,386,0,0,0,0,0,0,0,0,0,-1,1924,638,0,0
707,386,0,0,0,0,0,0,0,0,0,-1,1931,638,0,0
714,386,0,0,0,0,0,0,0,0,0,-1,1938,638,0,0
721,386,0,0,0,0,0,0,0,0,0,-1,1945,638,0,0
728,386,0,0,0,0,0,0,0,0,0,-1,1952,638,0,0
735,386,0,0,0,0,0,0,0,0,0,-1,1959,638,0,0
742,386,0,0,0,0,0,0,0,0,0,-1,1966,638,0,0
749,386,0,0,0,0,0,0,0,0,0,-1,1973,638,0,0
756,386,0,0,0,0,0,0,0,0,0,-1,1980,638,0,0
763,386,0,0,0,0,0,0,0,0,0,-1,1987,638,0,0
770,386,0,0,0,0,0,0,0,0,0,-1,1994,638,0,0
777,386,0,0,0,0,0,0,0,0,0,-1,2001,638,0,0
784,386,0,0,0,0,0,0,0,0,0,-1,2008,638,0,0
791,386,0,0,0,0,0,0,0,0,0,-1,2015,638,0,0
798,386,0,0,0,0,0,0,0,0,0,-1,2022,638,0,0
805,386,0,0,0,0,0,0,0,0,0,-1,2029,638,0,0
812,386,0,0,0,0,0,0,0,0,0,-1,2036,638,0,0
-700,379,0,0,0,0,0,0,0,0,0,-1,524,645,0,0
-693,379,0,0,0,0,0,0,0,0,0,-1,531,645,0,0
-686,379,0,0,0,0,0,0,0,0,0,-1,538,645,0,0
-679,379,0,0,0,0,0,0,0,0,0,-1,545,645,0,0
-672,379,0,0,0,0,0,0,0,0,0,-1,552,645,0,0
-665,379,0,0,0,0,0,0,0,0,0,-1,559,645,0,0
-658,379,0,0,0,0,0,0,0,0,0,-1,566,645,0,0
-651,379,0,0,0,0,0,0,0,0,0,-1,573,645,0,0
-644,379,0,0,0,0,0,0,0,0,0,-1,580,645,0,0
-637,379,0,0,0,0,0,0,0,0,0,-1,587,645,0,0
-630,379,0,0,0,0,0,0,0,0,0,-1,594,645,0,0
-623,379,0,0,0,0,0,0,0,0,0,-1,601,645,0,0
-616,379,0,0,0,0,0,0,0,0,0,-1,608,645,0,0
-609,379,0,0,0,0,0,0,0,0,0,-1,615,645,0,0
-602,379,0,0,0,0,0,0,0,0,0,-1,622,645,0,0
-595,379,0,0,0,0,0,0,0,0,0,-1,629,645,0,0
-588,379,0,0,0,0,0,0,0,0,0,-1,636,645,0,0
-581,379,0,0,0,0,0,0,0,0,0,-1,643,645,0,0
-574,379,0,0,0,0,0,0,0,0,0,-1,650,645,0,0
-567,379,-8.78058,0.59668,0,0,0,0,0,0,0,-1,657,645,-8.7806,-0.596692
-560,379,-9.53485,-0.211304,0,0,0,0,0,0,0,-1,664,645,-9.53487,0.211282
-553,379,-5.17108,-4.53119,0,0,0,0,0,0,0,-1,671,645,-5.17106,4.53117
-546,379,-6.23053,-4.92102,0,0,0,0,0,0,0,-1,678,645,-6.23054,4.92105
-539,379,-0.71698,-2.19427,0,0,0,0,0,0,0,-1,685,645,-0.716959,2.19427
-532,379,-7.69611,0.217224,0,0,0,0,0,0,0,-1,692,645,-7.69614,-0.217204
-525,379,-7.09833,-1.13043,0,0,0,0,0,0,0,-1,699,645,-7.0983,1.13041
-518,379,-13.126,-5.33893,0,0,0,0,0,0,0,-1,706,645,-13.126,5.33895
-511,379,-18.1337,-8.6571,0,0,0,0,0,0,0,-1,713,645,-18.1337,8.65708
-504,379,-18.1182,-9.64288,0.00152138,0.000422798,-0.000547677,0.00174777,0.000196414,-0.391963,0.00110554,0.0356051,720,645,-18.1182,9.64286
-497,379,-18.2155,-10.5034,0.00112204,0.000460927,-0.000379325,0.00129463,0.000288339,-0.426995,0.000784832,0.0161177,727,645,-18.2155,10.5034
-490,379,-18.2374,-11.4014,0.000849168,0.00037202,-0.000247372,0.000954265,0.000266922,-0.401751,0.000568489,0.011273,734,645,-18.2374,11.4014
-483,379,-18.2811,-12.2823,0.000678804,0.000278629,-0.000216384,0.000773432,0.000184001,-0.412254,0.000466543,0.0127296,741,645,-18.2811,12.2823
-476,379,-18.3218,-13.1153,0.000646763,0.000209395,-0.000269836,0.000775403,8.07546e-05,-0.444864,0.00049223,0.0133165,748,645,-18.3218,13.1153
-469,379,-18.3936,-13.9682,0.000780413,0.000154371,-0.000409657,0.000982951,-4.81668e-05,-0.459165,0.000671932,0.0124111,755,645,-18.3936,13.9682
-462,379,-18.4573,-14.8646,0.00103867,0.000113154,-0.000628112,0.00135608,-0.000204261,-0.467918,0.000979268,0.0100318,762,645,-18.4573,14.8646
-455,379,-18.5162,-15.7242,0.00149035,0.000240172,-0.000986498,0.00203313,-0.000302606,-0.503002,0.00146673,0.0104002,769,645,-18.5162,15.7242
-448,379,-18.5436,-16.5757,0.00215219,0.000497287,-0.00146405,0.00300643,-0.00035696,-0.528187,0.00213326,0.0123688,776,645,-18.5436,16.5757
-441,379,-18.5688,-17.509,0.00298904,0.000906217,-0.00209282,0.00428524,-0.000389983,-0.554531,0.00299529,0.0232133,783,645,-18.5688,17.509
-434,379,-18.4966,-18.5151,0,0,0,0,0,0,0,-1,790,645,-18.4966,18.5151
-427,379,-4.16113,-4.13452,0,0,0,0,0,0,0,-1,797,645,-4.16116,4.1345
-420,379,-4.63953,-3.46869,0,0,0,0,0,0,0,-1,804,645,-4.63953,3.46872
-413,379,-4.62543,-3.7912,0,0,0,0,0,0,0,-1,811,645,-4.62541,3.79123
-406,379,-4.64063,-4.38489,0,0,0,0,0,0,0,-1,818,645,-4.64065,4.3849
-399,379,-2.93536,-1.40118,0,0,0,0,0,0,0,-1,825,645,-2.93534,1.40119
-392,379,-4.16711,-0.466003,0,0,0,0,0,0,0,-1,832,645,-4.16714,0.465992
-385,379,-3.51862,0.441101,0,0,0,0,0,0,0,-1,839,645,-3.51859,-0.441072
-378,379,-5.3504,0.212219,0,0,0,0,0,0,0,-1,846,645,-5.35038,-0.212241
-371,379,-4.32092,-0.186707,0,0,0,0,0,0,0,-1,853,645,-4.3209,0.186707
-364,379,-3.40887,-0.549805,0,0,0,0,0,0,0,-1,860,645,-3.4089,0.549802
-357,379,0,0,0,0,0,0,0,0,0,-1,867,645,0,0
-350,379,0,0,0,0,0,0,0,0,0,-1,874,645,0,0
-343,379,0,0,0,0,0,0,0,0,0,-1,881,645,0,0
-336,379,0,0,0,0,0,0,0,0,0,-1,888,645,0,0
-329,379,0,0,0,0,0,0,0,0,0,-1,895,645,0,0
-322,379,0,0,0,0,0,0,0,0,0,-1,902,645,0,0
-315,379,0,0,0,0,0,0,0,0,0,-1,909,645,0,0
-308,379,0,0,0,0,0,0,0,0,0,-1,916,645,0,0
-301,379,0,0,0,0,0,0,0,0,0,-1,923,645,0,0
-294,379,0,0,0,0,0,0,0,0,0,-1,930,645,0,0
-287,379,0,0,0,0,0,0,0,0,0,-1,937,645,0,0
-280,379,0,0,0,0,0,0,0,0,0,-1,944,645,0,0
-273,379,0,0,0,0,0,0,0,0,0,-1,951,645,0,0
-266,379,0,0,0,0,0,0,0,0,0,-1,958,645,0,0
-259,379,0,0,0,0,0,0,0,0,0,-1,965,645,0,0
-252,379,0,0,0,0,0,0,0,0,0,-1,972,645,0,0
-245,379,0,0,0,0,0,0,0,0,0,-1,979,645,0,0
-238,379,0,0,0,0,0,0,0,0,0,-1,986,645,0,0
-231,379,0,0,0,0,0,0,0,0,0,-1,993,645,0,0
-224,379,0,0,0,0,0,0,0,0,0,-1,1000,645,0,0
-217,379,0,0,0,0,0,0,0,0,0,-1,1007,645,0,0
-210,379,0,0,0,0,0,0,0,0,0,-1,1014,645,0,0
-203,379,0,0,0,0,0,0,0,0,0,-1,1021,645,0,0
-196,379,0,0,0,0,0,0,0,0,0,-1,1028,645,0,0
-189,379,0,0,0,0,0,0,0,0,0,-1,1035,645,0,0
-182,379,0,0,0,0,0,0,0,0,0,-1,1042,645,0,0
-175,379,0,0,0,0,0,0,0,0,0,-1,1049,645,0,0
-168,379,0,0,0,0,0,0,0,0,0,-1,1056,645,0,0
-161,379,0,0,0,0,0,0,0,0,0,-1,1063,645,0,0
-154,379,0,0,0,0,0,0,0,0,0,-1,1070,645,0,0
-147,379,0,0,0,0,0,0,0,0,0,-1,1077,645,0,0
-140,379,0,0,0,0,0,0,0,0,0,-1,1084,645,0,0
-133,379,0,0,0,0,0,0,0,0,0,-1,1091,645,0,0
-126,379,0,0,0,0,0,0,0,0,0,-1,1098,645,0,0
-119,379,0,0,0,0,0,0,0,0,0,-1,1105,645,0,0
-112,379,0,0,0,0,0,0,0,0,0,-1,1112,645,0,0
-105,379,0,0,0,0,0,0,0,0,0,-1,1119,645,0,0
-98,379,0,0,0,0,0,0,0,0,0,-1,1126,645,0,0
-91,379,0,0,0,0,0,0,0,0,0,-1,1133,645,0,0
-84,379,0,0,0,0,0,0,0,0,0,-1,1140,645,0,0
-77,379,0,0,0,0,0,0,0,0,0,-1,1147,645,0,0
-70,379,0,0,0,0,0,0,0,0,0,-1,1154,645,0,0
-63,379,0,0,0,0,0,0,0,0,0,-1,1161,645,0,0
-56,379,0,0,0,0,0,0,0,0,0,-1,1168,645,0,0
-49,379,0,0,0,0,0,0,0,0,0,-1,1175,645,0,0
-42,379,0,0,0,0,0,0,0,0,0,-1,1182,645,0,0
-35,379,0,0,0,0,0,0,0,0,0,-1,1189,645,0,0
-28,379,0,0,0,0,0,0,0,0,0,-1,1196,645,0,0
-21,379,0,0,0,0,0,0,0,0,0,-1,1203,645,0,0
-14,379,0,0,0,0,0,0,0,0,0,-1,1210,645,0,0
-7,379,0,0,0,0,0,0,0,0,0,-1,1217,645,0,0
0,379,0,0,0,0,0,0,0,0,0,-1,1224,645,0,0
7,379,0,0,0,0,0,0,0,0,0,-1,1231,645,0,0
14,379,0,0,0,0,0,0,0,0,0,-1,1238,645,0,0
21,379,0,0,0,0,0,0,0,0,0,-1,1245,645,0,0
28,379,0,0,0,0,0,0,0,0,0,-1,1252,645,0,0
35,379,0,0,0,0,0,0,0,0,0,-1,1259,645,0,0
42,379,0,0,0,0,0,0,0,0,0,-1,1266,645,0,0
49,379,0,0,0,0,0,0,0,0,0,-1,1273,645,0,0
56,379,0,0,0,0,0,0,0,0,0,-1,1280,645,0,0
63,379,0,0,0,0,0,0,0,0,0,-1,1287,645,0,0
70,379,0,0,0,0,0,0,0,0,0,-1,1294,645,0,0
77,379,0,0,0,0,0,0,0,0,0,-1,1301,645,0,0
84,379,0,0,0,0,0,0,0,0,0,-1,1308,645,0,0
91,379,0,0,0,0,0,0,0,0,0,-1,1315,645,0,0
98,379,0,0,0,0,0,0,0,0,0,-1,1322,645,0,0
105,379,0,0,0,0,0,0,0,0,0,-1,1329,645,0,0
112,379,0,0,0,0,0,0,0,0,0,-1,1336,645,0,0
119,379,0,0,0,0,0,0,0,0,0,-1,1343,645,0,0
126,379,0,0,0,0,0,0,0,0,0,-1,1350,645,0,0
133,379,0,0,0,0,0,0,0,0,0,-1,1357,645,0,0
140,379,0,0,0,0,0,0,0,0,0,-1,1364,645,0,0
147,379,0,0,0,0,0,0,0,0,0,-1,1371,645,0,0
154,379,0,0,0,0,0,0,0,0,0,-1,1378,645,0,0
161,379,0,0,0,0,0,0,0,0,0,-1,1385,645,0,0
168,379,0,0,0,0,0,0,0,0,0,-1,1392,645,0,0
175,379,0,0,0,0,0,0,0,0,0,-1,1399,645,0,0
182,379,0,0,0,0,0,0,0,0,0,-1,1406,645,0,0
189,379,0,0,0,0,0,0,0,0,0,-1,1413,645,0,0
196,379,0,0,0,0,0,0,0,0,0,-1,1420,645,0,0
203,379,0,0,0,0,0,0,0,0,0,-1,1427,645,0,0
210,379,0,0,0,0,0,0,0,0,0,-1,1434,645,0,0
217,379,0,0,0,0,0,0,0,0,0,-1,1441,645,0,0
224,379,0,0,0,0,0,0,0,0,0,-1,1448,645,0,0
231,379,0,0,0,0,0,0,0,0,0,-1,1455,645,0,0
238,379,0,0,0,0,0,0,0,0,0,-1,1462,645,0,0
245,379,0,0,0,0,0,0,0,0,0,-1,1469,645,0,0
252,379,0,0,0,0,0,0,0,0,0,-1,1476,645,0,0
259,379,0,0,0,0,0,0,0,0,0,-1,1483,645,0,0
266,379,0,0,0,0,0,0,0,0,0,-1,1490,645,0,0
273,379,0,0,0,0,0,0,0,0,0,-1,1497,645,0,0
280,379,0,0,0,0,0,0,0,0,0,-1,1504,645,0,0
287,379,0,0,0,0,0,0,0,0,0,-1,1511,645,0,0
294,379,0,0,0,0,0,0,0,0,0,-1,1518,645,0,0
301,379,0,0,0,0,0,0,0,0,0,-1,1525,645,0,0
308,379,0,0,0,0,0,0,0,0,0,-1,1532,645,0,0
315,379,0,0,0,0,0,0,0,0,0,-1,1539,645,0,0
322,379,0,0,0,0,0,0,0,0,0,-1,1546,645,0,0
329,379,0,0,0,0,0,0,0,0,0,-1,1553,645,0,0
336,379,0,0,0,0,0,0,0,0,0,-1,1560,645,0,0
343,379,0,0,0,0,0,0,0,0,0,-1,1567,645,0,0
350,379,0,0,0,0,0,0,0,0,0,-1,1574,645,0,0
357,379,0,0,0,0,0,0,0,0,0,-1,1581,645,0,0
364,379,0,0,0,0,0,0,0,0,0,-1,1588,645,0,0
371,379,0,0,0,0,0,0,0,0,0,-1,1595,645,0,0
378,379,0,0,0,0,0,0,0,0,0,-1,1602,645,0,0
385,379,0,0,0,0,0,0,0,0,0,-1,1609,645,0,0
392,379,0,0,0,0,0,0,0,0,0,-1,1616,645,0,0
399,379,0,0,0,0,0,0,0,0,0,-1,1623,645,0,0
406,379,0,0,0,0,0,0,0,0,0,-1,1630,645,0,0
413,379,0,0,0,0,0,0,0,0,0,-1,1637,645,0,0
420,379,0,0,0,0,0,0,0,0,0,-1,1644,645,0,0
427,379,0,0,0,0,0,0,0,0,0,-1,1651,645,0,0
434,379,0,0,0,0,0,0,0,0,0,-1,1658,645,0,0
441,379,0,0,0,0,0,0,0,0,0,-1,1665,645,0,0
448,379,0,0,0,0,0,0,0,0,0,-1,1672,645,0,0
455,379,0,0,0,0,0,0,0,0,0,-1,1679,645,0,0
462,379,0,0,0,0,0,0,0,0,0,-1,1686,645,0,0
469,379,0,0,0,0,0,0,0,0,0,-1,1693,645,0,0
476,379,11.1787,0.830383,0,0,0,0,0,0,0,-1,1700,645,11.1787,-0.830365
483,379,7.4231,1.54321,0,0,0,0,0,0,0,-1,1707,645,7.42314,-1.54324
490,379,8.52881,1.56677,0,0,0,0,0,0,0,-1,1714,645,8.52878,-1.56677
497,379,9.63599,1.49573,0,0,0,0,0,0,0,-1,1721,645,9.63604,-1.4957
504,379,10.0833,1.35229,0,0,0,0,0,0,0,-1,1728,645,10.0832,-1.35227
511,379,8.14343,1.59912,0,0,0,0,0,0,0,-1,1735,645,8.14347,-1.59912
518,379,12.7955,-0.324097,0,0,0,0,0,0,0,-1,1742,645,12.7955,0.324101
525,379,6.03711,1.10352,0,0,0,0,0,0,0,-1,1749,645,6.03711,-1.10351
532,379,8.70947,0.887817,0,0,0,0,0,0,0,-1,1756,645,8.70953,-0.887808
539,379,9.87097,0.111389,0,0,0,0,0,0,0,-1,1763,645,9.87095,-0.111395
546,379,8.42383,-0.730652,0,0,0,0,0,0,0,-1,1770,645,8.42378,0.730638
553,379,19.2905,-7.67834,0,0,0,0,0,0,0,-1,1777,645,19.2905,7.67837
560,379,22.5734,-10.4749,0,0,0,0,0,0,0,-1,1784,645,22.5734,10.4749
567,379,33.226,-16.7593,0,0,0,0,0,0,0,-1,1791,645,33.2259,16.7593
574,379,33.2074,-15.8179,0.00128492,0.000159706,-0.000479911,0.0014618,-1.71744e-05,-0.35312,0.000980309,0.0183464,1798,645,33.2074,15.8179
581,379,33.1754,-14.9846,0.000881295,0.000178833,-0.000367024,0.00103807,2.20584e-05,-0.403691,0.000684812,0.0170074,1805,645,33.1754,14.9846
588,379,33.1002,-14.1072,0.000811986,0.000339002,-6.05781e-05,0.000819622,0.000331366,-0.125381,0.00047609,0.0184698,1812,645,33.1002,14.1072
595,379,33.0612,-13.2347,0.00106716,0.000772269,0.000407068,0.00135266,0.000486766,0.611641,0.000791121,0.0152421,1819,645,33.0612,13.2347
602,379,33.0245,-12.3777,0.00153051,0.0013503,0.000963551,0.00240816,0.000472651,0.738776,0.00147338,0.0171248,1826,645,33.0246,12.3777
609,379,32.9668,-11.5128,0.00206157,0.00208132,0.00155321,0.00362468,0.000518207,0.788576,0.00226358,0.0192583,1833,645,32.9668,11.5128
616,379,32.897,-10.6113,0.00271131,0.00297051,0.0021812,0.00502596,0.000655862,0.815071,0.00315482,0.0147538,1840,645,32.897,10.6113
623,379,32.8553,-9.66132,0.0035028,0.00394995,0.00288987,0.00662488,0.000827865,0.824004,0.00416813,0.0120503,1847,645,32.8553,9.66133
630,379,32.8013,-8.77979,0.00428405,0.0049765,0.00353597,0.00818316,0.0010774,0.8342,0.00513413,0.0140535,1854,645,32.8013,8.77977
637,379,32.7981,-7.74451,0.00496275,0.0061846,0.0041523,0.00977068,0.00137667,0.858439,0.00610684,0.0467476,1861,645,32.7982,7.74448
644,379,33.1058,-6.54651,0,0,0,0,0,0,0,-1,1868,645,33.1059,6.5465
651,379,12.9515,0.220825,0,0,0,0,0,0,0,-1,1875,645,12.9515,-0.220814
658,379,13.7498,0.37439,0,0,0,0,0,0,0,-1,1882,645,13.7498,-0.374371
665,379,11.9719,0.353333,0,0,0,0,0,0,0,-1,1889,645,11.9719,-0.353321
672,379,7.57605,2.15326,0,0,0,0,0,0,0,-1,1896,645,7.57599,-2.15326
679,379,8.55078,2.50409,0,0,0,0,0,0,0,-1,1903,645,8.55073,-2.50406
686,379,0,0,0,0,0,0,0,0,0,-1,1910,645,0,0
693,379,0,0,0,0,0,0,0,0,0,-1,1917,645,0,0
700,379,0,0,0,0,0,0,0,0,0,-1,1924,645,0,0
707,379,0,0,0,0,0,0,0,0,0,-1,1931,645,0,0
714,379,0,0,0,0,0,0,0,0,0,-1,1938,645,0,0
721,379,0,0,0,0,0,0,0,0,0,-1,1945,645,0,0
728,379,0,0,0,0,0,0,0,0,0,-1,1952,645,0,0
735,379,0,0,0,0,0,0,0,0,0,-1,1959,645,0,0
742,379,0,0,0,0,0,0,0,0,0,-1,1966,645,0,0
749,379,0,0,0,0,0,0,0,0,0,-1,1973,645,0,0
756,379,0,0,0,0,0,0,0,0,0,-1,1980,645,0,0
763,379,0,0,0,0,0,0,0,0,0,-1,1987,645,0,0
770,379,0,0,0,0,0,0,0,0,0,-1,1994,645,0,0
777,379,0,0,0,0,0,0,0,0,0,-1,2001,645,0,0
784,379,0,0,0,0,0,0,0,0,0,-1,2008,645,0,0
791,379,0,0,0,0,0,0,0,0,0,-1,2015,645,0,0
798,379,0,0,0,0,0,0,0,0,0,-1,2022,645,0,0
805,379,0,0,0,0,0,0,0,0,0,-1,2029,645,0,0
812,379,0,0,0,0,0,0,0,0,0,-1,2036,645,0,0
-700,372,0,0,0,0,0,0,0,0,0,-1,524,652,0,0
-693,372,0,0,0,0,0,0,0,0,0,-1,531,652,0,0
-686,372,0,0,0,0,0,0,0,0,0,-1,538,652,0,0
-679,372,0,0,0,0,0,0,0,0,0,-1,545,652,0,0
-672,372,0,0,0,0,0,0,0,0,0,-1,552,652,0,0
-665,372,0,0,0,0,0,0,0,0,0,-1,559,652,0,0
-658,372,0,0,0,0,0,0,0,0,0,-1,566,652,0,0
-651,372,0,0,0,0,0,0,0,0,0,-1,573,652,0,0
-644,372,0,0,0,0,0,0,0,0,0,-1,580,652,0,0
-637,372,0,0,0,0,0,0,0,0,0,-1,587,652,0,0
-630,372,0,0,0,0,0,0,0,0,0,-1,594,652,0,0
-623,372,0,0,0,0,0,0,0,0,0,-1,601,652,0,0
-616,372,0,0,0,0,0,0,0,0,0,-1,608,652,0,0
-609,372,0,0,0,0,0,0,0,0,0,-1,615,652,0,0
-602,372,0,0,0,0,0,0,0,0,0,-1,622,652,0,0
-595,372,0,0,0,0,0,0,0,0,0,-1,629,652,0,0
-588,372,0,0,0,0,0,0,0,0,0,-1,636,652,0,0
-581,372,0,0,0,0,0,0,0,0,0,-1,643,652,0,0
-574,372,0,0,0,0,0,0,0,0,0,-1,650,652,0,0
-567,372,-7.93744,0.73407,0,0,0,0,0,0,0,-1,657,652,-7.93741,-0.734076
-560,372,-8.78552,-0.158203,0,0,0,0,0,0,0,-1,664,652,-8.78552,0.158216
-553,372,-7.95551,1.61694,0,0,0,0,0,0,0,-1,671,652,-7.95552,-1.61697
-546,372,-4.2403,-3.75372,0,0,0,0,0,0,0,-1,678,652,-4.24028,3.75369
-539,372,-7.92285,-0.0650024,0,0,0,0,0,0,0,-1,685,652,-7.92287,0.0649772
-532,372,-8.59589,-0.419556,0,0,0,0,0,0,0,-1,692,652,-8.59591,0.419539
-525,372,-8.03674,-1.36804,0,0,0,0,0,0,0,-1,699,652,-8.03676,1.36806
-518,372,-19.0005,-7.68896,0,0,0,0,0,0,0,-1,706,652,-19.0005,7.68899
-511,372,-18.9736,-8.71283,0.00207454,0.000257723,-0.00111986,0.0026081,-0.000275841,-0.444637,0.0018376,0.0416274,713,652,-18.9736,8.71286
-504,372,-19.042,-9.54089,0.00172787,0.000269467,-0.000786197,0.00207097,-7.36382e-05,-0.411497,0.00140584,0.0190688,720,652,-19.042,9.54087
-497,372,-19.0645,-10.4666,0.0014055,0.000209581,-0.000544835,0.00161649,-1.40915e-06,-0.369472,0.00107813,0.012838,727,652,-19.0645,10.4665
-490,372,-19.1133,-11.3179,0.00115962,0.000110203,-0.000381771,0.00128381,-1.39863e-05,-0.314501,0.00086057,0.0133101,734,652,-19.1133,11.3179
-483,372,-19.1694,-12.1713,0.000998831,3.50594e-05,-0.000327268,0.00109946,-6.55653e-05,-0.298294,0.000755774,0.0128223,741,652,-19.1694,12.1713
-476,372,-19.2192,-13.0197,0.000942249,7.08786e-06,-0.00036478,0.00106771,-0.000118371,-0.331258,0.000754365,0.0140481,748,652,-19.2192,13.0197
-469,372,-19.2827,-13.8737,0.00102554,1.29165e-05,-0.000504571,0.00123403,-0.000195575,-0.391838,0.00089503,0.0119945,755,652,-19.2827,13.8736
-462,372,-19.3304,-14.7679,0.00122424,4.89081e-05,-0.000737794,0.00157981,-0.00030666,-0.449091,0.00116891,0.010514,762,652,-19.3304,14.7679
-455,372,-19.3991,-15.639,0.00162416,0.000233863,-0.00111952,0.0022468,-0.000388774,-0.507563,0.00164286,0.011154,769,652,-19.3991,15.639
-448,372,-19.4182,-16.5244,0.0022385,0.000543236,-0.0016357,0.00323315,-0.000451416,-0.546345,0.00232059,0.015893,776,652,-19.4182,16.5244
-441,372,-19.2606,-17.6032,0,0,0,0,0,0,0,-1,783,652,-19.2605,17.6032
-434,372,-9.86865,-9.68494,0,0,0,0,0,0,0,-1,790,652,-9.86863,9.68492
-427,372,-4.54248,-3.56268,0,0,0,0,0,0,0,-1,797,652,-4.54247,3.56266
-420,372,-4.66168,-2.93597,0,0,0,0,0,0,0,-1,804,652,-4.66166,2.93599
-413,372,-4.74762,-3.29541,0,0,0,0,0,0,0,-1,811,652,-4.74763,3.29542
-406,372,-0.885437,-0.583923,0,0,0,0,0,0,0,-1,818,652,-0.885437,0.5839
-399,372,-3.97357,-0.825012,0,0,0,0,0,0,0,-1,825,652,-3.97359,0.825037
-392,372,-7.64337,0.173035,0,0,0,0,0,0,0,-1,832,652,-7.64337,-0.173019
-385,372,-6.48871,-0.0271606,0,0,0,0,0,0,0,-1,839,652,-6.48874,0.0271353
-378,372,-5.33044,-0.242432,0,0,0,0,0,0,0,-1,846,652,-5.33042,0.242457
-371,372,-4.40802,-0.495667,0,0,0,0,0,0,0,-1,853,652,-4.40802,0.495661
-364,372,0,0,0,0,0,0,0,0,0,-1,860,652,0,0
-357,372,0,0,0,0,0,0,0,0,0,-1,867,652,0,0
-350,372,0,0,0,0,0,0,0,0,0,-1,874,652,0,0
-343,372,0,0,0,0,0,0,0,0,0,-1,881,652,0,0
-336,372,0,0,0,0,0,0,0,0,0,-1,888,652,0,0
-329,372,0,0,0,0,0,0,0,0,0,-1,895,652,0,0
-322,372,0,0,0,0,0,0,0,0,0,-1,902,652,0,0
-315,372,0,0,0,0,0,0,0,0,0,-1,909,652,0,0
-308,372,0,0,0,0,0,0,0,0,0,-1,916,652,0,0
-301,372,0,0,0,0,0,0,0,0,0,-1,923,652,0,0
-294,372,0,0,0,0,0,0,0,0,0,-1,930,652,0,0
-287,372,0,0,0,0,0,0,0,0,0,-1,937,652,0,0
-280,372,0,0,0,0,0,0,0,0,0,-1,944,652,0,0
-273,372,0,0,0,0,0,0,0,0,0,-1,951,652,0,0
-266,372,0,0,0,0,0,0,0,0,0,-1,958,652,0,0
-259,372,0,0,0,0,0,0,0,0,0,-1,965,652,0,0
-252,372,0,0,0,0,0,0,0,0,0,-1,972,652,0,0
-245,372,0,0,0,0,0,0,0,0,0,-1,979,652,0,0
-238,372,0,0,0,0,0,0,0,0,0,-1,986,652,0,0
-231,372,0,0,0,0,0,0,0,0,0,-1,993,652,0,0
-224,372,0,0,0,0,0,0,0,0,0,-1,1000,652,0,0
-217,372,0,0,0,0,0,0,0,0,0,-1,1007,652,0,0
-210,372,0,0,0,0,0,0,0,0,0,-1,1014,652,0,0
-203,372,0,0,0,0,0,0,0,0,0,-1,1021,652,0,0
-196,372,0,0,0,0,0,0,0,0,0,-1,1028,652,0,0
-189,372,0,0,0,0,0,0,0,0,0,-1,1035,652,0,0
-182,372,0,0,0,0,0,0,0,0,0,-1,1042,652,0,0
-175,372,0,0,0,0,0,0,0,0,0,-1,1049,652,0,0
-168,372,0,0,0,0,0,0,0,0,0,-1,1056,652,0,0
-161,372,0,0,0,0,0,0,0,0,0,-1,1063,652,0,0
-154,372,0,0,0,0,0,0,0,0,0,-1,1070,652,0,0
-147,372,0,0,0,0,0,0,0,0,0,-1,1077,652,0,0
-140,372,0,0,0,0,0,0,0,0,0,-1,1084,652,0,0
-133,372,0,0,0,0,0,0,0,0,0,-1,1091,652,0,0
-126,372,0,0,0,0,0,0,0,0,0,-1,1098,652,0,0
-119,372,0,0,0,0,0,0,0,0,0,-1,1105,652,0,0
-112,372,0,0,0,0,0,0,0,0,0,-1,1112,652,0,0
-105,372,0,0,0,0,0,0,0,0,0,-1,1119,652,0,0
-98,372,0,0,0,0,0,0,0,0,0,-1,1126,652,0,0
-91,372,0,0,0,0,0,0,0,0,0,-1,1133,652,0,0
-84,372,0,0,0,0,0,0,0,0,0,-1,1140,652,0,0
-77,372,0,0,0,0,0,0,0,0,0,-1,1147,652,0,0
-70,372,0,0,0,0,0,0,0,0,0,-1,1154,652,0,0
-63,372,0,0,0,0,0,0,0,0,0,-1,1161,652,0,0
-56,372,0,0,0,0,0,0,0,0,0,-1,1168,652,0,0
-49,372,0,0,0,0,0,0,0,0,0,-1,1175,652,0,0
-42,372,0,0,0,0,0,0,0,0,0,-1,1182,652,0,0
-35,372,0,0,0,0,0,0,0,0,0,-1,1189,652,0,0
-28,372,0,0,0,0,0,0,0,0,0,-1,1196,652,0,0
-21,372,0,0,0,0,0,0,0,0,0,-1,1203,652,0,0
-14,372,0,0,0,0,0,0,0,0,0,-1,1210,652,0,0
-7,372,0,0,0,0,0,0,0,0,0,-1,1217,652,0,0
0,372,0,0,0,0,0,0,0,0,0,-1,1224,652,0,0
7,372,0,0,0,0,0,0,0,0,0,-1,1231,652,0,0
14,372,0,0,0,0,0,0,0,0,0,-1,1238,652,0,0
21,372,0,0,0,0,0,0,0,0,0,-1,1245,652,0,0
28,372,0,0,0,0,0,0,0,0,0,-1,1252,652,0,0
35,372,0,0,0,0,0,0,0,0,0,-1,1259,652,0,0
42,372,0,0,0,0,0,0,0,0,0,-1,1266,652,0,0
49,372,0,0,0,0,0,0,0,0,0,-1,1273,652,0,0
56,372,0,0,0,0,0,0,0,0,0,-1,1280,652,0,0
63,372,0,0,0,0,0,0,0,0,0,-1,1287,652,0,0
70,372,0,0,0,0,0,0,0,0,0,-1,1294,652,0,0
77,372,0,0,0,0,0,0,0,0,0,-1,1301,652,0,0
84,372,0,0,0,0,0,0,0,0,0,-1,1308,652,0,0
91,372,0,0,0,0,0,0,0,0,0,-1,1315,652,0,0
98,372,0,0,0,0,0,0,0,0,0,-1,1322,652,0,0
105,372,0,0,0,0,0,0,0,0,0,-1,1329,652,0,0
112,372,0,0,0,0,0,0,0,0,0,-1,1336,652,0,0
119,372,0,0,0,0,0,0,0,0,0,-1,1343,652,0,0
126,372,0,0,0,0,0,0,0,0,0,-1,1350,652,0,0
133,372,0,0,0,0,0,0,0,0,0,-1,1357,652,0,0
140,372,0,0,0,0,0,0,0,0,0,-1,1364,652,0,0
147,372,0,0,0,0,0,0,0,0,0,-1,1371,652,0,0
154,372,0,0,0,0,0,0,0,0,0,-1,1378,652,0,0
161,372,0,0,0,0,0,0,0,0,0,-1,1385,652,0,0
168,372,0,0,0,0,0,0,0,0,0,-1,1392,652,0,0
175,372,0,0,0,0,0,0,0,0,0,-1,1399,652,0,0
182,372,0,0,0,0,0,0,0,0,0,-1,1406,652,0,0
189,372,0,0,0,0,0,0,0,0,0,-1,1413,652,0,0
196,372,0,0,0,0,0,0,0,0,0,-1,1420,652,0,0
203,372,0,0,0,0,0,0,0,0,0,-1,1427,652,0,0
210,372,0,0,0,0,0,0,0,0,0,-1,1434,652,0,0
217,372,0,0,0,0,0,0,0,0,0,-1,1441,652,0,0
224,372,0,0,0,0,0,0,0,0,0,-1,1448,652,0,0
231,372,0,0,0,0,0,0,0,0,0,-1,1455,652,0,0
238,372,0,0,0,0,0,0,0,0,0,-1,1462,652,0,0
245,372,0,0,0,0,0,0,0,0,0,-1,1469,652,0,0
252,372,0,0,0,0,0,0,0,0,0,-1,1476,652,0,0
259,372,0,0,0,0,0,0,0,0,0,-1,1483,652,0,0
266,372,0,0,0,0,0,0,0,0,0,-1,1490,652,0,0
273,372,0,0,0,0,0,0,0,0,0,-1,1497,652,0,0
280,372,0,0,0,0,0,0,0,0,0,-1,1504,652,0,0
287,372,0,0,0,0,0,0,0,0,0,-1,1511,652,0,0
294,372,0,0,0,0,0,0,0,0,0,-1,1518,652,0,0
301,372,0,0,0,0,0,0,0,0,0,-1,1525,652,0,0
308,372,0,0,0,0,0,0,0,0,0,-1,1532,652,0,0
315,372,0,0,0,0,0,0,0,0,0,-1,1539,652,0,0
322,372,0,0,0,0,0,0,0,0,0,-1,1546,652,0,0
329,372,0,0,0,0,0,0,0,0,0,-1,1553,652,0,0
336,372,0,0,0,0,0,0,0,0,0,-1,1560,652,0,0
343,372,0,0,0,0,0,0,0,0,0,-1,1567,652,0,0
350,372,0,0,0,0,0,0,0,0,0,-1,1574,652,0,0
357,372,0,0,0,0,0,0,0,0,0,-1,1581,652,0,0
364,372,0,0,0,0,0,0,0,0,0,-1,1588,652,0,0
371,372,0,0,0,0,0,0,0,0,0,-1,1595,652,0,0
378,372,0,0,0,0,0,0,0,0,0,-1,1602,652,0,0
385,372,0,0,0,0,0,0,0,0,0,-1,1609,652,0,0
392,372,0,0,0,0,0,0,0,0,0,-1,1616,652,0,0
399,372,0,0,0,0,0,0,0,0,0,-1,1623,652,0,0
406,372,0,0,0,0,0,0,0,0,0,-1,1630,652,0,0
413,372,0,0,0,0,0,0,0,0,0,-1,1637,652,0,0
420,372,0,0,0,0,0,0,0,0,0,-1,1644,652,0,0
427,372,0,0,0,0,0,0,0,0,0,-1,1651,652,0,0
434,372,0,0,0,0,0,0,0,0,0,-1,1658,652,0,0
441,372,0,0,0,0,0,0,0,0,0,-1,1665,652,0,0
448,372,0,0,0,0,0,0,0,0,0,-1,1672,652,0,0
455,372,0,0,0,0,0,0,0,0,0,-1,1679,652,0,0
462,372,0,0,0,0,0,0,0,0,0,-1,1686,652,0,0
469,372,0,0,0,0,0,0,0,0,0,-1,1693,652,0,0
476,372,0,0,0,0,0,0,0,0,0,-1,1700,652,0,0
483,372,8.74182,1.53125,0,0,0,0,0,0,0,-1,1707,652,8.74186,-1.53126
490,372,9.78455,1.67096,0,0,0,0,0,0,0,-1,1714,652,9.7846,-1.67093
497,372,9.97644,1.46069,0,0,0,0,0,0,0,-1,1721,652,9.97647,-1.46071
504,372,10.1216,1.28375,0,0,0,0,0,0,0,-1,1728,652,10.1216,-1.28376
511,372,11.7367,-0.0272217,0,0,0,0,0,0,0,-1,1735,652,11.7367,0.0272326
518,372,12.0657,-0.0995483,0,0,0,0,0,0,0,-1,1742,652,12.0657,0.0995285
525,372,12.3947,-0.171814,0,0,0,0,0,0,0,-1,1749,652,12.3946,0.171824
532,372,9.36597,1.72034,0,0,0,0,0,0,0,-1,1756,652,9.36597,-1.72036
539,372,7.82886,-0.0865479,0,0,0,0,0,0,0,-1,1763,652,7.82882,0.0865771
546,372,10.953,-0.187195,0,0,0,0,0,0,0,-1,1770,652,10.953,0.187181
553,372,14.1201,-4.83234,0,0,0,0,0,0,0,-1,1777,652,14.1201,4.83235
560,372,20.1057,-8.06934,0,0,0,0,0,0,0,-1,1784,652,20.1058,8.06936
567,372,34.1466,-16.8575,0,0,0,0,0,0,0,-1,1791,652,34.1466,16.8575
574,372,34.1157,-15.6989,0.00104885,-0.000116779,-0.000881354,0.00152266,-0.000590591,-0.493269,0.00125902,0.0448384,1798,652,34.1157,15.6989
581,372,34.08,-14.932,0.000666455,-9.98545e-05,-0.000713607,0.00109326,-0.000526664,-0.539023,0.000954146,0.0224988,1805,652,34.0799,14.932
588,372,33.9976,-14.0717,0.000609203,-5.73541e-05,-0.0004099,0.000804217,-0.000252368,-0.444067,0.000637151,0.0176134,1812,652,33.9976,14.0717
595,372,33.9419,-13.1884,0.000833021,0.000325998,2.16981e-05,0.000833948,0.000325071,0.042691,0.000485362,0.0149679,1819,652,33.9419,13.1884
602,372,33.9457,-12.3273,0.00124502,0.00081006,0.000515198,0.00158676,0.000468319,0.585681,0.000941397,0.0185039,1826,652,33.9456,12.3273
609,372,33.8256,-11.4724,0.00167772,0.00142079,0.00101994,0.00257725,0.00052126,0.722752,0.00157346,0.020665,1833,652,33.8255,11.4724
616,372,33.7677,-10.5474,0.00217724,0.00215831,0.00154089,0.0037087,0.000626853,0.782326,0.00229226,0.0190271,1840,652,33.7678,10.5474
623,372,33.7549,-9.60034,0.0027905,0.00296476,0.00213186,0.00501127,0.000743988,0.805822,0.00312253,0.0135401,1847,652,33.7548,9.60037
630,372,33.7019,-8.72015,0.00335193,0.00382918,0.00267069,0.00627188,0.000909226,0.829955,0.00391354,0.0165033,1854,652,33.7019,8.72016
637,372,33.6755,-7.86694,0.00381059,0.00478902,0.0031639,0.0075013,0.0010983,0.862103,0.00467794,0.0278124,1861,652,33.6756,7.86695
644,372,33.8258,-6.9621,0,0,0,0,0,0,0,-1,1868,652,33.8258,6.96207
651,372,21.3998,-0.888,0,0,0,0,0,0,0,-1,1875,652,21.3998,0.887992
658,372,14.157,0.280273,0,0,0,0,0,0,0,-1,1882,652,14.157,-0.280264
665,372,15.2286,0.463867,0,0,0,0,0,0,0,-1,1889,652,15.2287,-0.463854
672,372,9.34106,1.48444,0,0,0,0,0,0,0,-1,1896,652,9.34109,-1.48444
679,372,10.7308,2.32391,0,0,0,0,0,0,0,-1,1903,652,10.7309,-2.3239
686,372,11.6295,2.52997,0,0,0,0,0,0,0,-1,1910,652,11.6296,-2.52996
693,372,0,0,0,0,0,0,0,0,0,-1,1917,652,0,0
700,372,0,0,0,0,0,0,0,0,0,-1,1924,652,0,0
707,372,0,0,0,0,0,0,0,0,0,-1,1931,652,0,0
714,372,0,0,0,0,0,0,0,0,0,-1,1938,652,0,0
721,372,0,0,0,0,0,0,0,0,0,-1,1945,652,0,0
728,372,0,0,0,0,0,0,0,0,0,-1,1952,652,0,0
735,372,0,0,0,0,0,0,0,0,0,-1,1959,652,0,0
742,372,0,0,0,0,0,0,0,0,0,-1,1966,652,0,0
749,372,0,0,0,0,0,0,0,0,0,-1,1973,652,0,0
756,372,0,0,0,0,0,0,0,0,0,-1,1980,652,0,0
763,372,0,0,0,0,0,0,0,0,0,-1,1987,652,0,0
770,372,0,0,0,0,0,0,0,0,0,-1,1994,652,0,0
777,372,0,0,0,0,0,0,0,0,0,-1,2001,652,0,0
784,372,0,0,0,0,0,0,0,0,0,-1,2008,652,0,0
791,372,0,0,0,0,0,0,0,0,0,-1,2015,652,0,0
798,372,0,0,0,0,0,0,0,0,0,-1,2022,652,0,0
805,372,0,0,0,0,0,0,0,0,0,-1,2029,652,0,0
812,372,0,0,0,0,0,0,0,0,0,-1,2036,652,0,0
-700,365,0,0,0,0,0,0,0,0,0,-1,524,659,0,0
-693,365,0,0,0,0,0,0,0,0,0,-1,531,659,0,0
-686,365,0,0,0,0,0,0,0,0,0,-1,538,659,0,0
-679,365,0,0,0,0,0,0,0,0,0,-1,545,659,0,0
-672,365,0,0,0,0,0,0,0,0,0,-1,552,659,0,0
-665,365,0,0,0,0,0,0,0,0,0,-1,559,659,0,0
-658,365,0,0,0,0,0,0,0,0,0,-1,566,659,0,0
-651,365,0,0,0,0,0,0,0,0,0,-1,573,659,0,0
-644,365,0,0,0,0,0,0,0,0,0,-1,580,659,0,0
-637,365,0,0,0,0,0,0,0,0,0,-1,587,659,0,0
-630,365,0,0,0,0,0,0,0,0,0,-1,594,659,0,0
-623,365,0,0,0,0,0,0,0,0,0,-1,601,659,0,0
-616,365,0,0,0,0,0,0,0,0,0,-1,608,659,0,0
-609,365,0,0,0,0,0,0,0,0,0,-1,615,659,0,0
-602,365,0,0,0,0,0,0,0,0,0,-1,622,659,0,0
-595,365,0,0,0,0,0,0,0,0,0,-1,629,659,0,0
-588,365,0,0,0,0,0,0,0,0,0,-1,636,659,0,0
-581,365,0,0,0,0,0,0,0,0,0,-1,643,659,0,0
-574,365,-7.69281,1.59015,0,0,0,0,0,0,0,-1,650,659,-7.69282,-1.59018
-567,365,-8.2583,1.72638,0,0,0,0,0,0,0,-1,657,659,-8.25827,-1.72637
-560,365,-7.17767,0.275757,0,0,0,0,0,0,0,-1,664,659,-7.17768,-0.27577
-553,365,-10.0349,-0.169617,0,0,0,0,0,0,0,-1,671,659,-10.0349,0.169593
-546,365,-10.6303,-1.51642,0,0,0,0,0,0,0,-1,678,659,-10.6303,1.5164
-539,365,-8.38599,1.52936,0,0,0,0,0,0,0,-1,685,659,-8.38598,-1.52935
-532,365,-8.52863,0.166504,0,0,0,0,0,0,0,-1,692,659,-8.52863,-0.166501
-525,365,-9.28229,-2.62726,0,0,0,0,0,0,0,-1,699,659,-9.28227,2.62724
-518,365,-19.8213,-7.61786,0,0,0,0,0,0,0,-1,706,659,-19.8213,7.61785
-511,365,-19.8681,-8.59399,0.00218372,0.000279641,-0.00124913,0.00280225,-0.000338896,-0.459779,0.00199077,0.0394336,713,659,-19.8681,8.59398
-504,365,-19.877,-9.48987,0.0018953,0.000151231,-0.000901949,0.00227784,-0.000231308,-0.401129,0.00160124,0.0130586,720,659,-19.8769,9.48989
-497,365,-19.9208,-10.4053,0.00161837,2.61248e-05,-0.000646981,0.00184811,-0.000203616,-0.341208,0.00130525,0.0133249,727,659,-19.9208,10.4053
-490,365,-19.9833,-11.2761,0.00138565,-7.51361e-05,-0.000482898,0.00153085,-0.000220337,-0.292087,0.00110138,0.0146209,734,659,-19.9833,11.2761
-483,365,-20.05,-12.1165,0.00122072,-0.000122604,-0.000424155,0.00134343,-0.000245321,-0.28163,0.000987606,0.0131545,741,659,-20.05,12.1165
-476,365,-20.0492,-12.9849,0.00112969,-0.000101915,-0.000455513,0.00127985,-0.000252078,-0.31844,0.000948495,0.019089,748,659,-20.0492,12.9849
-469,365,-20.1218,-13.8478,0.00115854,-2.52921e-05,-0.00059372,0.001405,-0.000271748,-0.39346,0.00103916,0.0197665,755,659,-20.1218,13.8478
-462,365,-20.2178,-14.6959,0.00130271,0.000107208,-0.000835893,0.00173259,-0.00032267,-0.475002,0.00127629,0.0153466,762,659,-20.2178,14.6959
-455,365,-20.2692,-15.572,0.00164185,0.000346142,-0.00121425,0.00237027,-0.000382275,-0.540338,0.00172181,0.0189708,769,659,-20.2691,15.5719
-448,365,-20.2896,-16.5527,0,0,0,0,0,0,0,-1,776,659,-20.2895,16.5528
-441,365,-16.9571,-15.1896,0,0,0,0,0,0,0,-1,783,659,-16.9571,15.1896
-434,365,-5.45056,-3.98041,0,0,0,0,0,0,0,-1,790,659,-5.45055,3.98042
-427,365,-5.05377,-4.74689,0,0,0,0,0,0,0,-1,797,659,-5.05376,4.7469
-420,365,-4.58813,-3.16376,0,0,0,0,0,0,0,-1,804,659,-4.58816,3.16374
-413,365,0.141357,0.672729,0,0,0,0,0,0,0,-1,811,659,0.141365,-0.672714
-406,365,-1.75067,-0.934448,0,0,0,0,0,0,0,-1,818,659,-1.7507,0.934424
-399,365,-4.10242,-1.25439,0,0,0,0,0,0,0,-1,825,659,-4.10244,1.25438
-392,365,-7.46545,-0.779724,0,0,0,0,0,0,0,-1,832,659,-7.46543,0.779744
-385,365,-6.27875,-0.887573,0,0,0,0,0,0,0,-1,839,659,-6.27874,0.887545
-378,365,-5.34503,-0.263306,0,0,0,0,0,0,0,-1,846,659,-5.34504,0.263275
-371,365,0,0,0,0,0,0,0,0,0,-1,853,659,0,0
-364,365,0,0,0,0,0,0,0,0,0,-1,860,659,0,0
-357,365,0,0,0,0,0,0,0,0,0,-1,867,659,0,0
-350,365,0,0,0,0,0,0,0,0,0,-1,874,659,0,0
-343,365,0,0,0,0,0,0,0,0,0,-1,881,659,0,0
-336,365,0,0,0,0,0,0,0,0,0,-1,888,659,0,0
-329,365,0,0,0,0,0,0,0,0,0,-1,895,659,0,0
-322,365,0,0,0,0,0,0,0,0,0,-1,902,659,0,0
-315,365,0,0,0,0,0,0,0,0,0,-1,909,659,0,0
-308,365,0,0,0,0,0,0,0,0,0,-1,916,659,0,0
-301,365,0,0,0,0,0,0,0,0,0,-1,923,659,0,0
-294,365,0,0,0,0,0,0,0,0,0,-1,930,659,0,0
-287,365,0,0,0,0,0,0,0,0,0,-1,937,659,0,0
-280,365,0,0,0,0,0,0,0,0,0,-1,944,659,0,0
-273,365,0,0,0,0,0,0,0,0,0,-1,951,659,0,0
-266,365,0,0,0,0,0,0,0,0,0,-1,958,659,0,0
-259,365,0,0,0,0,0,0,0,0,0,-1,965,659,0,0
-252,365,0,0,0,0,0,0,0,0,0,-1,972,659,0,0
-245,365,0,0,0,0,0,0,0,0,0,-1,979,659,0,0
-238,365,0,0,0,0,0,0,0,0,0,-1,986,659,0,0
-231,365,0,0,0,0,0,0,0,0,0,-1,993,659,0,0
-224,365,0,0,0,0,0,0,0,0,0,-1,1000,659,0,0
-217,365,0,0,0,0,0,0,0,0,0,-1,1007,659,0,0
-210,365,0,0,0,0,0,0,0,0,0,-1,1014,659,0,0
-203,365,0,0,0,0,0,0,0,0,0,-1,1021,659,0,0
-196,365,0,0,0,0,0,0,0,0,0,-1,1028,659,0,0
-189,365,0,0,0,0,0,0,0,0,0,-1,1035,659,0,0
-182,365,0,0,0,0,0,0,0,0,0,-1,1042,659,0,0
-175,365,0,0,0,0,0,0,0,0,0,-1,1049,659,0,0
-168,365,0,0,0,0,0,0,0,0,0,-1,1056,659,0,0
-161,365,0,0,0,0,0,0,0,0,0,-1,1063,659,0,0
-154,365,0,0,0,0,0,0,0,0,0,-1,1070,659,0,0
-147,365,0,0,0,0,0,0,0,0,0,-1,1077,659,0,0
-140,365,0,0,0,0,0,0,0,0,0,-1,1084,659,0,0
-133,365,0,0,0,0,0,0,0,0,0,-1,1091,659,0,0
-126,365,0,0,0,0,0,0,0,0,0,-1,1098,659,0,0
-119,365,0,0,0,0,0,0,0,0,0,-1,1105,659,0,0
-112,365,0,0,0,0,0,0,0,0,0,-1,1112,659,0,0
-105,365,0,0,0,0,0,0,0,0,0,-1,1119,659,0,0
-98,365,0,0,0,0,0,0,0,0,0,-1,1126,659,0,0
-91,365,0,0,0,0,0,0,0,0,0,-1,1133,659,0,0
-84,365,0,0,0,0,0,0,0,0,0,-1,1140,659,0,0
-77,365,0,0,0,0,0,0,0,0,0,-1,1147,659,0,0
-70,365,0,0,0,0,0,0,0,0,0,-1,1154,659,0,0
-63,365,0,0,0,0,0,0,0,0,0,-1,1161,659,0,0
-56,365,0,0,0,0,0,0,0,0,0,-1,1168,659,0,0
-49,365,0,0,0,0,0,0,0,0,0,-1,1175,659,0,0
-42,365,0,0,0,0,0,0,0,0,0,-1,1182,659,0,0
-35,365,0,0,0,0,0,0,0,0,0,-1,1189,659,0,0
-28,365,0,0,0,0,0,0,0,0,0,-1,1196,659,0,0
-21,365,0,0,0,0,0,0,0,0,0,-1,1203,659,0,0
-14,365,0,0,0,0,0,0,0,0,0,-1,1210,659,0,0
-7,365,0,0,0,0,0,0,0,0,0,-1,1217,659,0,0
0,365,0,0,0,0,0,0,0,0,0,-1,1224,659,0,0
7,365,0,0,0,0,0,0,0,0,0,-1,1231,659,0,0
14,365,0,0,0,0,0,0,0,0,0,-1,1238,659,0,0
21,365,0,0,0,0,0,0,0,0,0,-1,1245,659,0,0
28,365,0,0,0,0,0,0,0,0,0,-1,1252,659,0,0
35,365,0,0,0,0,0,0,0,0,0,-1,1259,659,0,0
42,365,0,0,0,0,0,0,0,0,0,-1,1266,659,0,0
49,365,0,0,0,0,0,0,0,0,0,-1,1273,659,0,0
56,365,0,0,0,0,0,0,0,0,0,-1,1280,659,0,0
63,365,0,0,0,0,0,0,0,0,0,-1,1287,659,0,0
70,365,0,0,0,0,0,0,0,0,0,-1,1294,659,0,0
77,365,0,0,0,0,0,0,0,0,0,-1,1301,659,0,0
84,365,0,0,0,0,0,0,0,0,0,-1,1308,659,0,0
91,365,0,0,0,0,0,0,0,0,0,-1,1315,659,0,0
98,365,0,0,0,0,0,0,0,0,0,-1,1322,659,0,0
105,365,0,0,0,0,0,0,0,0,0,-1,1329,659,0,0
112,365,0,0,0,0,0,0,0,0,0,-1,1336,659,0,0
119,365,0,0,0,0,0,0,0,0,0,-1,1343,659,0,0
126,365,0,0,0,0,0,0,0,0,0,-1,1350,659,0,0
133,365,0,0,0,0,0,0,0,0,0,-1,1357,659,0,0
140,365,0,0,0,0,0,0,0,0,0,-1,1364,659,0,0
147,365,0,0,0,0,0,0,0,0,0,-1,1371,659,0,0
154,365,0,0,0,0,0,0,0,0,0,-1,1378,659,0,0
161,365,0,0,0,0,0,0,0,0,0,-1,1385,659,0,0
168,365,0,0,0,0,0,0,0,0,0,-1,1392,659,0,0
175,365,0,0,0,0,0,0,0,0,0,-1,1399,659,0,0
182,365,0,0,0,0,0,0,0,0,0,-1,1406,659,0,0
189,365,0,0,0,0,0,0,0,0,0,-1,1413,659,0,0
196,365,0,0,0,0,0,0,0,0,0,-1,1420,659,0,0
203,365,0,0,0,0,0,0,0,0,0,-1,1427,659,0,0
210,365,0,0,0,0,0,0,0,0,0,-1,1434,659,0,0
217,365,0,0,0,0,0,0,0,0,0,-1,1441,659,0,0
224,365,0,0,0,0,0,0,0,0,0,-1,1448,659,0,0
231,365,0,0,0,0,0,0,0,0,0,-1,1455,659,0,0
238,365,0,0,0,0,0,0,0,0,0,-1,1462,659,0,0
245,365,0,0,0,0,0,0,0,0,0,-1,1469,659,0,0
252,365,0,0,0,0,0,0,0,0,0,-1,1476,659,0,0
259,365,0,0,0,0,0,0,0,0,0,-1,1483,659,0,0
266,365,0,0,0,0,0,0,0,0,0,-1,1490,659,0,0
273,365,0,0,0,0,0,0,0,0,0,-1,1497,659,0,0
280,365,0,0,0,0,0,0,0,0,0,-1,1504,659,0,0
287,365,0,0,0,0,0,0,0,0,0,-1,1511,659,0,0
294,365,0,0,0,0,0,0,0,0,0,-1,1518,659,0,0
301,365,0,0,0,0,0,0,0,0,0,-1,1525,659,0,0
308,365,0,0,0,0,0,0,0,0,0,-1,1532,659,0,0
315,365,0,0,0,0,0,0,0,0,0,-1,1539,659,0,0
322,365,0,0,0,0,0,0,0,0,0,-1,1546,659,0,0
329,365,0,0,0,0,0,0,0,0,0,-1,1553,659,0,0
336,365,0,0,0,0,0,0,0,0,0,-1,1560,659,0,0
343,365,0,0,0,0,0,0,0,0,0,-1,1567,659,0,0
350,365,0,0,0,0,0,0,0,0,0,-1,1574,659,0,0
357,365,0,0,0,0,0,0,0,0,0,-1,1581,659,0,0
364,365,0,0,0,0,0,0,0,0,0,-1,1588,659,0,0
371,365,0,0,0,0,0,0,0,0,0,-1,1595,659,0,0
378,365,0,0,0,0,0,0,0,0,0,-1,1602,659,0,0
385,365,0,0,0,0,0,0,0,0,0,-1,1609,659,0,0
392,365,0,0,0,0,0,0,0,0,0,-1,1616,659,0,0
399,365,0,0,0,0,0,0,0,0,0,-1,1623,659,0,0
406,365,0,0,0,0,0,0,0,0,0,-1,1630,659,0,0
413,365,0,0,0,0,0,0,0,0,0,-1,1637,659,0,0
420,365,0,0,0,0,0,0,0,0,0,-1,1644,659,0,0
427,365,0,0,0,0,0,0,0,0,0,-1,1651,659,0,0
434,365,0,0,0,0,0,0,0,0,0,-1,1658,659,0,0
441,365,0,0,0,0,0,0,0,0,0,-1,1665,659,0,0
448,365,0,0,0,0,0,0,0,0,0,-1,1672,659,0,0
455,365,0,0,0,0,0,0,0,0,0,-1,1679,659,0,0
462,365,0,0,0,0,0,0,0,0,0,-1,1686,659,0,0
469,365,0,0,0,0,0,0,0,0,0,-1,1693,659,0,0
476,365,0,0,0,0,0,0,0,0,0,-1,1700,659,0,0
483,365,0,0,0,0,0,0,0,0,0,-1,1707,659,0,0
490,365,8.39551,0.471252,0,0,0,0,0,0,0,-1,1714,659,8.39551,-0.471241
497,365,9.89233,1.35394,0,0,0,0,0,0,0,-1,1721,659,9.89237,-1.35396
504,365,10.1414,1.18005,0,0,0,0,0,0,0,-1,1728,659,10.1413,-1.18004
511,365,10.5151,0.993896,0,0,0,0,0,0,0,-1,1735,659,10.5152,-0.993894
518,365,11.2029,0.398132,0,0,0,0,0,0,0,-1,1742,659,11.2029,-0.398136
525,365,15.5748,3.85303,0,0,0,0,0,0,0,-1,1749,659,15.5748,-3.85303
532,365,11.2446,1.00629,0,0,0,0,0,0,0,-1,1756,659,11.2446,-1.00631
539,365,12.6301,1.03204,0,0,0,0,0,0,0,-1,1763,659,12.6302,-1.03204
546,365,11.647,0.84198,0,0,0,0,0,0,0,-1,1770,659,11.6469,-0.841955
553,365,12.028,-0.558899,0,0,0,0,0,0,0,-1,1777,659,12.028,0.558873
560,365,14.5372,-4.55548,0,0,0,0,0,0,0,-1,1784,659,14.5373,4.55547
567,365,20.5676,-7.53888,0,0,0,0,0,0,0,-1,1791,659,20.5676,7.53887
574,365,35.259,-15.6115,0,0,0,0,0,0,0,-1,1798,659,35.2591,15.6115
581,365,34.9561,-14.8095,0,0,0,0,0,0,0,-1,1805,659,34.9561,14.8095
588,365,34.8536,-14.0774,0.000358914,-0.00044756,-0.000714073,0.000775738,-0.000864383,-0.528368,0.000947386,0.024357,1812,659,34.8537,14.0774
595,365,34.8262,-13.1205,0.000540251,-7.17826e-05,-0.000295226,0.000659446,-0.000190977,-0.383726,0.000515226,0.014542,1819,659,34.8262,13.1205
602,365,34.7662,-12.2042,0.000906634,0.000338999,0.000149675,0.000943682,0.00030195,0.24265,0.000556483,0.0186424,1826,659,34.7663,12.2041
609,365,34.6431,-11.3324,0.00127795,0.000851404,0.000592554,0.00169444,0.00043491,0.612655,0.00101617,0.0207869,1833,659,34.643,11.3324
616,365,34.6173,-10.4276,0.00168243,0.00146702,0.00103236,0.00261269,0.000536756,0.733422,0.0015933,0.0216094,1840,659,34.6173,10.4276
623,365,34.6403,-9.54596,0.00218254,0.00214142,0.00152268,0.0036848,0.000639156,0.778648,0.00227363,0.0128502,1847,659,34.6403,9.54596
630,365,34.5748,-8.68402,0.00261656,0.00288112,0.00197626,0.00472952,0.000768159,0.818815,0.00293071,0.0154255,1854,659,34.5749,8.684
637,365,34.5045,-7.84167,0.00295832,0.00366717,0.00236803,0.00570715,0.000918335,0.859682,0.0035386,0.0218262,1861,659,34.5045,7.84165
644,365,34.5154,-6.95459,0.00321233,0.00460245,0.0027767,0.00676976,0.00104502,0.908037,0.00420831,0.0268888,1868,659,34.5153,6.95461
651,365,34.5825,-6.0191,0,0,0,0,0,0,0,-1,1875,659,34.5825,6.0191
658,365,24.745,-2.13275,0,0,0,0,0,0,0,-1,1882,659,24.745,2.13277
665,365,14.0961,0.769043,0,0,0,0,0,0,0,-1,1889,659,14.0961,-0.769063
672,365,10.0579,2.15088,0,0,0,0,0,0,0,-1,1896,659,10.0579,-2.15088
679,365,10.9718,2.19208,0,0,0,0,0,0,0,-1,1903,659,10.9718,-2.19211
686,365,12.2134,2.17108,0,0,0,0,0,0,0,-1,1910,659,12.2134,-2.17109
693,365,13.7141,1.98279,0,0,0,0,0,0,0,-1,1917,659,13.7141,-1.98278
700,365,0,0,0,0,0,0,0,0,0,-1,1924,659,0,0
707,365,0,0,0,0,0,0,0,0,0,-1,1931,659,0,0
714,365,0,0,0,0,0,0,0,0,0,-1,1938,659,0,0
721,365,0,0,0,0,0,0,0,0,0,-1,1945,659,0,0
728,365,0,0,0,0,0,0,0,0,0,-1,1952,659,0,0
735,365,0,0,0,0,0,0,0,0,0,-1,1959,659,0,0
742,365,0,0,0,0,0,0,0,0,0,-1,1966,659,0,0
749,365,0,0,0,0,0,0,0,0,0,-1,1973,659,0,0
756,365,0,0,0,0,0,0,0,0,0,-1,1980,659,0,0
763,365,0,0,0,0,0,0,0,0,0,-1,1987,659,0,0
770,365,0,0,0,0,0,0,0,0,0,-1,1994,659,0,0
777,365,0,0,0,0,0,0,0,0,0,-1,2001,659,0,0
784,365,0,0,0,0,0,0,0,0,0,-1,2008,659,0,0
791,365,0,0,0,0,0,0,0,0,0,-1,2015,659,0,0
798,365,0,0,0,0,0,0,0,0,0,-1,2022,659,0,0
805,365,0,0,0,0,0,0,0,0,0,-1,2029,659,0,0
812,365,0,0,0,0,0,0,0,0,0,-1,2036,659,0,0
-700,358,0,0,0,0,0,0,0,0,0,-1,524,666,0,0
-693,358,0,0,0,0,0,0,0,0,0,-1,531,666,0,0
-686,358,0,0,0,0,0,0,0,0,0,-1,538,666,0,0
-679,358,0,0,0,0,0,0,0,0,0,-1,545,666,0,0
-672,358,0,0,0,0,0,0,0,0,0,-1,552,666,0,0
-665,358,0,0,0,0,0,0,0,0,0,-1,559,666,0,0
-658,358,0,0,0,0,0,0,0,0,0,-1,566,666,0,0
-651,358,0,0,0,0,0,0,0,0,0,-1,573,666,0,0
-644,358,0,0,0,0,0,0,0,0,0,-1,580,666,0,0
-637,358,0,0,0,0,0,0,0,0,0,-1,587,666,0,0
-630,358,0,0,0,0,0,0,0,0,0,-1,594,666,0,0
-623,358,0,0,0,0,0,0,0,0,0,-1,601,666,0,0
-616,358,0,0,0,0,0,0,0,0,0,-1,608,666,0,0
-609,358,0,0,0,0,0,0,0,0,0,-1,615,666,0,0
-602,358,0,0,0,0,0,0,0,0,0,-1,622,666,0,0
-595,358,0,0,0,0,0,0,0,0,0,-1,629,666,0,0
-588,358,0,0,0,0,0,0,0,0,0,-1,636,666,0,0
-581,358,-8.31616,1.61993,0,0,0,0,0,0,0,-1,643,666,-8.31614,-1.61993
-574,358,-8.22406,1.75385,0,0,0,0,0,0,0,-1,650,666,-8.22408,-1.75383
-567,358,-8.14215,1.91577,0,0,0,0,0,0,0,-1,657,666,-8.14214,-1.91579
-560,358,-10.6086,2.18872,0,0,0,0,0,0,0,-1,664,666,-10.6086,-2.18873
-553,358,-13.4767,1.09552,0,0,0,0,0,0,0,-1,671,666,-13.4767,-1.09551
-546,358,-13.3743,-0.185059,0,0,0,0,0,0,0,-1,678,666,-13.3743,0.185037
-539,358,-9.43884,-2.04785,0,0,0,0,0,0,0,-1,685,666,-9.43884,2.04785
-532,358,-12.4141,-2.36572,0,0,0,0,0,0,0,-1,692,666,-12.4141,2.3657
-525,358,-12.731,-3.88031,0,0,0,0,0,0,0,-1,699,666,-12.731,3.88029
-518,358,-20.6907,-7.66241,0,0,0,0,0,0,0,-1,706,666,-20.6907,7.66243
-511,358,-20.7218,-8.53662,0.00230361,0.000306453,-0.00129124,0.00293735,-0.000327282,-0.456259,0.00207594,0.0170539,713,666,-20.7218,8.5366
-504,358,-20.7638,-9.42096,0.00195998,9.33525e-05,-0.000887366,0.00231449,-0.000261158,-0.380083,0.00163701,0.0122883,720,666,-20.7638,9.42094
-497,358,-20.7943,-10.3418,0.00167399,-6.99127e-05,-0.000600988,0.00186104,-0.000256963,-0.301735,0.00133462,0.0117894,727,666,-20.7943,10.3418
-490,358,-20.8475,-11.2146,0.00143431,-0.000167399,-0.000428198,0.0015416,-0.000274686,-0.245501,0.00113047,0.0114083,734,666,-20.8476,11.2146
-483,358,-20.9177,-12.0524,0.0012937,-0.000174178,-0.00038919,0.00139051,-0.000270983,-0.243787,0.00102929,0.0107875,741,666,-20.9177,12.0524
-476,358,-20.9088,-12.9027,0.0012319,-0.000100266,-0.000457806,0.00137406,-0.000242423,-0.301078,0.00100663,0.0152065,748,666,-20.9087,12.9027
-469,358,-21.009,-13.7727,0.00129013,4.72792e-05,-0.000647992,0.00156651,-0.000229106,-0.403162,0.00112849,0.0193587,755,666,-21.009,13.7727
-462,358,-21.1216,-14.6563,0.00146786,0.000288727,-0.00095806,0.00200322,-0.000246637,-0.509574,0.00142483,0.018627,762,666,-21.1216,14.6563
-455,358,-21.1177,-15.5594,0,0,0,0,0,0,0,-1,769,666,-21.1177,15.5594
-448,358,-17.7847,-14.434,0,0,0,0,0,0,0,-1,776,666,-17.7847,14.434
-441,358,-5.56293,-3.98041,0,0,0,0,0,0,0,-1,783,666,-5.56291,3.98043
-434,358,-5.21558,-4.43127,0,0,0,0,0,0,0,-1,790,666,-5.21559,4.43125
-427,358,-3.56189,-3.15729,0,0,0,0,0,0,0,-1,797,666,-3.56192,3.15729
-420,358,0.200195,1.08234,0,0,0,0,0,0,0,-1,804,666,0.200174,-1.08231
-413,358,0.0325317,0.161072,0,0,0,0,0,0,0,-1,811,666,0.0325501,-0.161098
-406,358,-3.85846,0.753113,0,0,0,0,0,0,0,-1,818,666,-3.85846,-0.753129
-399,358,-1.31213,0.190735,0,0,0,0,0,0,0,-1,825,666,-1.31215,-0.190763
-392,358,-3.73914,-0.832214,0,0,0,0,0,0,0,-1,832,666,-3.73915,0.832202
-385,358,-5.95178,-1.69141,0,0,0,0,0,0,0,-1,839,666,-5.9518,1.69143
-378,358,0,0,0,0,0,0,0,0,0,-1,846,666,0,0
-371,358,0,0,0,0,0,0,0,0,0,-1,853,666,0,0
-364,358,0,0,0,0,0,0,0,0,0,-1,860,666,0,0
-357,358,0,0,0,0,0,0,0,0,0,-1,867,666,0,0
-350,358,0,0,0,0,0,0,0,0,0,-1,874,666,0,0
-343,358,0,0,0,0,0,0,0,0,0,-1,881,666,0,0
-336,358,0,0,0,0,0,0,0,0,0,-1,888,666,0,0
-329,358,0,0,0,0,0,0,0,0,0,-1,895,666,0,0
-322,358,0,0,0,0,0,0,0,0,0,-1,902,666,0,0
-315,358,0,0,0,0,0,0,0,0,0,-1,909,666,0,0
-308,358,0,0,0,0,0,0,0,0,0,-1,916,666,0,0
-301,358,0,0,0,0,0,0,0,0,0,-1,923,666,0,0
-294,358,0,0,0,0,0,0,0,0,0,-1,930,666,0,0
-287,358,0,0,0,0,0,0,0,0,0,-1,937,666,0,0
-280,358,0,0,0,0,0,0,0,0,0,-1,944,666,0,0
-273,358,0,0,0,0,0,0,0,0,0,-1,951,666,0,0
-266,358,0,0,0,0,0,0,0,0,0,-1,958,666,0,0
-259,358,0,0,0,0,0,0,0,0,0,-1,965,666,0,0
-252,358,0,0,0,0,0,0,0,0,0,-1,972,666,0,0
-245,358,0,0,0,0,0,0,0,0,0,-1,979,666,0,0
-238,358,0,0,0,0,0,0,0,0,0,-1,986,666,0,0
-231,358,0,0,0,0,0,0,0,0,0,-1,993,666,0,0
-224,358,0,0,0,0,0,0,0,0,0,-1,1000,666,0,0
-217,358,0,0,0,0,0,0,0,0,0,-1,1007,666,0,0
-210,358,0,0,0,0,0,0,0,0,0,-1,1014,666,0,0
-203,358,0,0,0,0,0,0,0,0,0,-1,1021,666,0,0
-196,358,0,0,0,0,0,0,0,0,0,-1,1028,666,0,0
-189,358,0,0,0,0,0,0,0,0,0,-1,1035,666,0,0
-182,358,0,0,0,0,0,0,0,0,0,-1,1042,666,0,0
-175,358,0,0,0,0,0,0,0,0,0,-1,1049,666,0,0
-168,358,0,0,0,0,0,0,0,0,0,-1,1056,666,0,0
-161,358,0,0,0,0,0,0,0,0,0,-1,1063,666,0,0
-154,358,0,0,0,0,0,0,0,0,0,-1,1070,666,0,0
-147,358,0,0,0,0,0,0,0,0,0,-1,1077,666,0,0
-140,358,0,0,0,0,0,0,0,0,0,-1,1084,666,0,0
-133,358,0,0,0,0,0,0,0,0,0,-1,1091,666,0,0
-126,358,0,0,0,0,0,0,0,0,0,-1,1098,666,0,0
-119,358,0,0,0,0,0,0,0,0,0,-1,1105,666,0,0
-112,358,0,0,0,0,0,0,0,0,0,-1,1112,666,0,0
-105,358,0,0,0,0,0,0,0,0,0,-1,1119,666,0,0
-98,358,0,0,0,0,0,0,0,0,0,-1,1126,666,0,0
-91,358,0,0,0,0,0,0,0,0,0,-1,1133,666,0,0
-84,358,0,0,0,0,0,0,0,0,0,-1,1140,666,0,0
-77,358,0,0,0,0,0,0,0,0,0,-1,1147,666,0,0
-70,358,0,0,0,0,0,0,0,0,0,-1,1154,666,0,0
-63,358,0,0,0,0,0,0,0,0,0,-1,1161,666,0,0
-56,358,0,0,0,0,0,0,0,0,0,-1,1168,666,0,0
-49,358,0,0,0,0,0,0,0,0,0,-1,1175,666,0,0
-42,358,0,0,0,0,0,0,0,0,0,-1,1182,666,0,0
-35,358,0,0,0,0,0,0,0,0,0,-1,1189,666,0,0
-28,358,0,0,0,0,0,0,0,0,0,-1,1196,666,0,0
-21,358,0,0,0,0,0,0,0,0,0,-1,1203,666,0,0
-14,358,0,0,0,0,0,0,0,0,0,-1,1210,666,0,0
-7,358,0,0,0,0,0,0,0,0,0,-1,1217,666,0,0
0,358,0,0,0,0,0,0,0,0,0,-1,1224,666,0,0
7,358,0,0,0,0,0,0,0,0,0,-1,1231,666,0,0
14,358,0,0,0,0,0,0,0,0,0,-1,1238,666,0,0
21,358,0,0,0,0,0,0,0,0,0,-1,1245,666,0,0
28,358,0,0,0,0,0,0,0,0,0,-1,1252,666,0,0
35,358,0,0,0,0,0,0,0,0,0,-1,1259,666,0,0
42,358,0,0,0,0,0,0,0,0,0,-1,1266,666,0,0
49,358,0,0,0,0,0,0,0,0,0,-1,1273,666,0,0
56,358,0,0,0,0,0,0,0,0,0,-1,1280,666,0,0
63,358,0,0,0,0,0,0,0,0,0,-1,1287,666,0,0
70,358,0,0,0,0,0,0,0,0,0,-1,1294,666,0,0
77,358,0,0,0,0,0,0,0,0,0,-1,1301,666,0,0
84,358,0,0,0,0,0,0,0,0,0,-1,1308,666,0,0
91,358,0,0,0,0,0,0,0,0,0,-1,1315,666,0,0
98,358,0,0,0,0,0,0,0,0,0,-1,1322,666,0,0
105,358,0,0,0,0,0,0,0,0,0,-1,1329,666,0,0
112,358,0,0,0,0,0,0,0,0,0,-1,1336,666,0,0
119,358,0,0,0,0,0,0,0,0,0,-1,1343,666,0,0
126,358,0,0,0,0,0,0,0,0,0,-1,1350,666,0,0
133,358,0,0,0,0,0,0,0,0,0,-1,1357,666,0,0
140,358,0,0,0,0,0,0,0,0,0,-1,1364,666,0,0
147,358,0,0,0,0,0,0,0,0,0,-1,1371,666,0,0
154,358,0,0,0,0,0,0,0,0,0,-1,1378,666,0,0
161,358,0,0,0,0,0,0,0,0,0,-1,1385,666,0,0
168,358,0,0,0,0,0,0,0,0,0,-1,1392,666,0,0
175,358,0,0,0,0,0,0,0,0,0,-1,1399,666,0,0
182,358,0,0,0,0,0,0,0,0,0,-1,1406,666,0,0
189,358,0,0,0,0,0,0,0,0,0,-1,1413,666,0,0
196,358,0,0,0,0,0,0,0,0,0,-1,1420,666,0,0
203,358,0,0,0,0,0,0,0,0,0,-1,1427,666,0,0
210,358,0,0,0,0,0,0,0,0,0,-1,1434,666,0,0
217,358,0,0,0,0,0,0,0,0,0,-1,1441,666,0,0
224,358,0,0,0,0,0,0,0,0,0,-1,1448,666,0,0
231,358,0,0,0,0,0,0,0,0,0,-1,1455,666,0,0
238,358,0,0,0,0,0,0,0,0,0,-1,1462,666,0,0
245,358,0,0,0,0,0,0,0,0,0,-1,1469,666,0,0
252,358,0,0,0,0,0,0,0,0,0,-1,1476,666,0,0
259,358,0,0,0,0,0,0,0,0,0,-1,1483,666,0,0
266,358,0,0,0,0,0,0,0,0,0,-1,1490,666,0,0
273,358,0,0,0,0,0,0,0,0,0,-1,1497,666,0,0
280,358,0,0,0,0,0,0,0,0,0,-1,1504,666,0,0
287,358,0,0,0,0,0,0,0,0,0,-1,1511,666,0,0
294,358,0,0,0,0,0,0,0,0,0,-1,1518,666,0,0
301,358,0,0,0,0,0,0,0,0,0,-1,1525,666,0,0
308,358,0,0,0,0,0,0,0,0,0,-1,1532,666,0,0
315,358,0,0,0,0,0,0,0,0,0,-1,1539,666,0,0
322,358,0,0,0,0,0,0,0,0,0,-1,1546,666,0,0
329,358,0,0,0,0,0,0,0,0,0,-1,1553,666,0,0
336,358,0,0,0,0,0,0,0,0,0,-1,1560,666,0,0
343,358,0,0,0,0,0,0,0,0,0,-1,1567,666,0,0
350,358,0,0,0,0,0,0,0,0,0,-1,1574,666,0,0
357,358,0,0,0,0,0,0,0,0,0,-1,1581,666,0,0
364,358,0,0,0,0,0,0,0,0,0,-1,1588,666,0,0
371,358,0,0,0,0,0,0,0,0,0,-1,1595,666,0,0
378,358,0,0,0,0,0,0,0,0,0,-1,1602,666,0,0
385,358,0,0,0,0,0,0,0,0,0,-1,1609,666,0,0
392,358,0,0,0,0,0,0,0,0,0,-1,1616,666,0,0
399,358,0,0,0,0,0,0,0,0,0,-1,1623,666,0,0
406,358,0,0,0,0,0,0,0,0,0,-1,1630,666,0,0
413,358,0,0,0,0,0,0,0,0,0,-1,1637,666,0,0
420,358,0,0,0,0,0,0,0,0,0,-1,1644,666,0,0
427,358,0,0,0,0,0,0,0,0,0,-1,1651,666,0,0
434,358,0,0,0,0,0,0,0,0,0,-1,1658,666,0,0
441,358,0,0,0,0,0,0,0,0,0,-1,1665,666,0,0
448,358,0,0,0,0,0,0,0,0,0,-1,1672,666,0,0
455,358,0,0,0,0,0,0,0,0,0,-1,1679,666,0,0
462,358,0,0,0,0,0,0,0,0,0,-1,1686,666,0,0
469,358,0,0,0,0,0,0,0,0,0,-1,1693,666,0,0
476,358,0,0,0,0,0,0,0,0,0,-1,1700,666,0,0
483,358,0,0,0,0,0,0,0,0,0,-1,1707,666,0,0
490,358,0,0,0,0,0,0,0,0,0,-1,1714,666,0,0
497,358,8.57239,1.1322,0,0,0,0,0,0,0,-1,1721,666,8.57234,-1.13219
504,358,10.5972,0.832947,0,0,0,0,0,0,0,-1,1728,666,10.5972,-0.832968
511,358,10.6873,0.868469,0,0,0,0,0,0,0,-1,1735,666,10.6872,-0.868484
518,358,16.5884,2.34894,0,0,0,0,0,0,0,-1,1742,666,16.5884,-2.34894
525,358,15.7626,3.65344,0,0,0,0,0,0,0,-1,1749,666,15.7626,-3.65342
532,358,14.9368,4.95789,0,0,0,0,0,0,0,-1,1756,666,14.9367,-4.9579
539,358,15.1597,3.42694,0,0,0,0,0,0,0,-1,1763,666,15.1597,-3.42692
546,358,12.3792,1.53558,0,0,0,0,0,0,0,-1,1770,666,12.3792,-1.5356
553,358,11.6584,1.26172,0,0,0,0,0,0,0,-1,1777,666,11.6585,-1.26175
560,358,10.8234,1.43042,0,0,0,0,0,0,0,-1,1784,666,10.8233,-1.43041
567,358,10.1333,-0.955139,0,0,0,0,0,0,0,-1,1791,666,10.1333,0.955132
574,358,14.7886,-2.69293,0,0,0,0,0,0,0,-1,1798,666,14.7885,2.6929
581,358,20.1738,-6.76135,0,0,0,0,0,0,0,-1,1805,666,20.1738,6.76137
588,358,35.6776,-14.0877,0,0,0,0,0,0,0,-1,1812,666,35.6776,14.0877
595,358,35.7053,-13.0448,0.000256747,-0.000523352,-0.000545175,0.000537037,-0.000803641,-0.474885,0.000779126,0.0179263,1819,666,35.7053,13.0448
602,358,35.6063,-12.1059,0.000619064,-0.000134775,-0.000145642,0.000646224,-0.000161934,-0.184364,0.000493727,0.0151497,1826,666,35.6063,12.1059
609,358,35.4987,-11.2397,0.000976076,0.000326824,0.000252841,0.00106292,0.000239977,0.330861,0.000643711,0.0195958,1833,666,35.4987,11.2398
616,358,35.4764,-10.3798,0.00132372,0.000866355,0.000640035,0.0017747,0.000415375,0.613818,0.00107185,0.0180701,1840,666,35.4765,10.3798
623,358,35.5142,-9.52258,0.00173783,0.00145567,0.00105652,0.00266265,0.000530851,0.719026,0.00162727,0.0150255,1847,666,35.5141,9.52257
630,358,35.4545,-8.65887,0.00209831,0.00212352,0.00146304,0.00357401,0.000647826,0.789706,0.00219878,0.017459,1854,666,35.4545,8.65885
637,358,35.3466,-7.79053,0.00238286,0.00280369,0.00180369,0.0044092,0.000777347,0.843465,0.00271766,0.0258239,1861,666,35.3465,7.79054
644,358,35.3602,-6.89819,0.00259451,0.00357734,0.00213804,0.00527971,0.000892138,0.898358,0.00326333,0.0222429,1868,666,35.3602,6.89819
651,358,35.3422,-5.8692,0,0,0,0,0,0,0,-1,1875,666,35.3422,5.86918
658,358,35.1357,-4.72009,0,0,0,0,0,0,0,-1,1882,666,35.1358,4.7201
665,358,28.0272,-2.07764,0,0,0,0,0,0,0,-1,1889,666,28.0272,2.07764
672,358,12.4299,1.47272,0,0,0,0,0,0,0,-1,1896,666,12.4299,-1.4727
679,358,12.1294,2.19702,0,0,0,0,0,0,0,-1,1903,666,12.1294,-2.19703
686,358,11.9557,2.2002,0,0,0,0,0,0,0,-1,1910,666,11.9557,-2.20021
693,358,13.188,2.52203,0,0,0,0,0,0,0,-1,1917,666,13.188,-2.52202
700,358,0,0,0,0,0,0,0,0,0,-1,1924,666,0,0
707,358,0,0,0,0,0,0,0,0,0,-1,1931,666,0,0
714,358,0,0,0,0,0,0,0,0,0,-1,1938,666,0,0
721,358,0,0,0,0,0,0,0,0,0,-1,1945,666,0,0
728,358,0,0,0,0,0,0,0,0,0,-1,1952,666,0,0
735,358,0,0,0,0,0,0,0,0,0,-1,1959,666,0,0
742,358,0,0,0,0,0,0,0,0,0,-1,1966,666,0,0
749,358,0,0,0,0,0,0,0,0,0,-1,1973,666,0,0
756,358,0,0,0,0,0,0,0,0,0,-1,1980,666,0,0
763,358,0,0,0,0,0,0,0,0,0,-1,1987,666,0,0
770,358,0,0,0,0,0,0,0,0,0,-1,1994,666,0,0
777,358,0,0,0,0,0,0,0,0,0,-1,2001,666,0,0
784,358,0,0,0,0,0,0,0,0,0,-1,2008,666,0,0
791,358,0,0,0,0,0,0,0,0,0,-1,2015,666,0,0
798,358,0,0,0,0,0,0,0,0,0,-1,2022,666,0,0
805,358,0,0,0,0,0,0,0,0,0,-1,2029,666,0,0
812,358,0,0,0,0,0,0,0,0,0,-1,2036,666,0,0
-700,351,0,0,0,0,0,0,0,0,0,-1,524,673,0,0
-693,351,0,0,0,0,0,0,0,0,0,-1,531,673,0,0
-686,351,0,0,0,0,0,0,0,0,0,-1,538,673,0,0
-679,351,0,0,0,0,0,0,0,0,0,-1,545,673,0,0
-672,351,0,0,0,0,0,0,0,0,0,-1,552,673,0,0
-665,351,0,0,0,0,0,0,0,0,0,-1,559,673,0,0
-658,351,0,0,0,0,0,0,0,0,0,-1,566,673,0,0
-651,351,0,0,0,0,0,0,0,0,0,-1,573,673,0,0
-644,351,0,0,0,0,0,0,0,0,0,-1,580,673,0,0
-637,351,0,0,0,0,0,0,0,0,0,-1,587,673,0,0
-630,351,0,0,0,0,0,0,0,0,0,-1,594,673,0,0
-623,351,0,0,0,0,0,0,0,0,0,-1,601,673,0,0
-616,351,0,0,0,0,0,0,0,0,0,-1,608,673,0,0
-609,351,0,0,0,0,0,0,0,0,0,-1,615,673,0,0
-602,351,0,0,0,0,0,0,0,0,0,-1,622,673,0,0
-595,351,0,0,0,0,0,0,0,0,0,-1,629,673,0,0
-588,351,0,0,0,0,0,0,0,0,0,-1,636,673,0,0
-581,351,-9.0647,1.71906,0,0,0,0,0,0,0,-1,643,673,-9.06472,-1.71908
-574,351,-8.23584,2.64764,0,0,0,0,0,0,0,-1,650,673,-8.23584,-2.64764
-567,351,-10.8027,4.56836,0,0,0,0,0,0,0,-1,657,673,-10.8027,-4.56839
-560,351,-14.2001,2.17084,0,0,0,0,0,0,0,-1,664,673,-14.2002,-2.17086
-553,351,-13.4979,0.779541,0,0,0,0,0,0,0,-1,671,673,-13.4978,-0.779519
-546,351,-14.0065,0.73645,0,0,0,0,0,0,0,-1,678,673,-14.0065,-0.736473
-539,351,-12.8123,-1.46393,0,0,0,0,0,0,0,-1,685,673,-12.8123,1.46395
-532,351,-16.0198,-4.03937,0,0,0,0,0,0,0,-1,692,673,-16.0198,4.03936
-525,351,-21.6032,-6.67358,0,0,0,0,0,0,0,-1,699,673,-21.6032,6.67357
-518,351,-21.5676,-7.55914,0.00280041,0.00101457,-0.00199943,0.00409724,-0.000282261,-0.575391,0.00283028,0.0227612,706,673,-21.5676,7.55915
-511,351,-21.5821,-8.48517,0.00236538,0.000442784,-0.00127336,0.00299955,-0.00019139,-0.462073,0.00206645,0.0122917,713,673,-21.5821,8.48516
-504,351,-21.643,-9.35803,0.00199031,0.000104193,-0.000810019,0.00229043,-0.000195926,-0.354827,0.00159627,0.0115077,720,673,-21.643,9.35804
-497,351,-21.6885,-10.2504,0.00169792,-0.000144629,-0.00048277,0.00181675,-0.000263458,-0.241341,0.00130786,0.0113776,727,673,-21.6886,10.2504
-490,351,-21.7371,-11.1238,0.00147607,-0.000258355,-0.000315557,0.0015317,-0.000313983,-0.174491,0.0011403,0.0113283,734,673,-21.7371,11.1238
-483,351,-21.7814,-11.9656,0.00136278,-0.000239688,-0.000308937,0.00142027,-0.000297185,-0.184006,0.00105989,0.0136777,741,673,-21.7813,11.9656
-476,351,-21.8412,-12.8418,0.0013279,-0.000119637,-0.000442597,0.0014525,-0.00024424,-0.274423,0.00105917,0.012318,748,673,-21.8412,12.8418
-469,351,-21.8925,-13.7104,0.0014153,9.74387e-05,-0.000721843,0.00173374,-0.000220997,-0.415464,0.0012361,0.0137768,755,673,-21.8925,13.7104
-462,351,-21.9345,-14.6503,0.00163175,0.000471898,-0.00116993,0.0023576,-0.000253948,-0.555299,0.00166286,0.0386116,762,673,-21.9345,14.6503
-455,351,-21.8886,-15.6166,0,0,0,0,0,0,0,-1,769,673,-21.8886,15.6166
-448,351,-6.61456,-4.38654,0,0,0,0,0,0,0,-1,776,673,-6.61456,4.38654
-441,351,-4.31567,-2.3009,0,0,0,0,0,0,0,-1,783,673,-4.31565,2.30089
-434,351,-3.81708,-2.28003,0,0,0,0,0,0,0,-1,790,673,-3.81706,2.28006
-427,351,-2.05157,-2.7785,0,0,0,0,0,0,0,-1,797,673,-2.05157,2.77848
-420,351,-1.06989,-2.43665,0,0,0,0,0,0,0,-1,804,673,-1.06991,2.43663
-413,351,-0.392334,-2.06671,0,0,0,0,0,0,0,-1,811,673,-0.392363,2.06672
-406,351,-1.86316,-2.58105,0,0,0,0,0,0,0,-1,818,673,-1.86313,2.58106
-399,351,1.00952,-1.53455,0,0,0,0,0,0,0,-1,825,673,1.00954,1.53457
-392,351,-1.02197,0.877136,0,0,0,0,0,0,0,-1,832,673,-1.02195,-0.877143
-385,351,-1.47205,1.04437,0,0,0,0,0,0,0,-1,839,673,-1.47207,-1.04435
-378,351,0,0,0,0,0,0,0,0,0,-1,846,673,0,0
-371,351,0,0,0,0,0,0,0,0,0,-1,853,673,0,0
-364,351,0,0,0,0,0,0,0,0,0,-1,860,673,0,0
-357,351,0,0,0,0,0,0,0,0,0,-1,867,673,0,0
-350,351,0,0,0,0,0,0,0,0,0,-1,874,673,0,0
-343,351,0,0,0,0,0,0,0,0,0,-1,881,673,0,0
-336,351,0,0,0,0,0,0,0,0,0,-1,888,673,0,0
-329,351,0,0,0,0,0,0,0,0,0,-1,895,673,0,0
-322,351,0,0,0,0,0,0,0,0,0,-1,902,673,0,0
-315,351,0,0,0,0,0,0,0,0,0,-1,909,673,0,0
-308,351,0,0,0,0,0,0,0,0,0,-1,916,673,0,0
-301,351,0,0,0,0,0,0,0,0,0,-1,923,673,0,0
-294,351,0,0,0,0,0,0,0,0,0,-1,930,673,0,0
-287,351,0,0,0,0,0,0,0,0,0,-1,937,673,0,0
-280,351,0,0,0,0,0,0,0,0,0,-1,944,673,0,0
-273,351,0,0,0,0,0,0,0,0,0,-1,951,673,0,0
-266,351,0,0,0,0,0,0,0,0,0,-1,958,673,0,0
-259,351,0,0,0,0,0,0,0,0,0,-1,965,673,0,0
-252,351,0,0,0,0,0,0,0,0,0,-1,972,673,0,0
-245,351,0,0,0,0,0,0,0,0,0,-1,979,673,0,0
-238,351,0,0,0,0,0,0,0,0,0,-1,986,673,0,0
-231,351,0,0,0,0,0,0,0,0,0,-1,993,673,0,0
-224,351,0,0,0,0,0,0,0,0,0,-1,1000,673,0,0
-217,351,0,0,0,0,0,0,0,0,0,-1,1007,673,0,0
-210,351,0,0,0,0,0,0,0,0,0,-1,1014,673,0,0
-203,351,0,0,0,0,0,0,0,0,0,-1,1021,673,0,0
-196,351,0,0,0,0,0,0,0,0,0,-1,1028,673,0,0
-189,351,0,0,0,0,0,0,0,0,0,-1,1035,673,0,0
-182,351,0,0,0,0,0,0,0,0,0,-1,1042,673,0,0
-175,351,0,0,0,0,0,0,0,0,0,-1,1049,673,0,0
-168,351,0,0,0,0,0,0,0,0,0,-1,1056,673,0,0
-161,351,0,0,0,0,0,0,0,0,0,-1,1063,673,0,0
-154,351,0,0,0,0,0,0,0,0,0,-1,1070,673,0,0
-147,351,0,0,0,0,0,0,0,0,0,-1,1077,673,0,0
-140,351,0,0,0,0,0,0,0,0,0,-1,1084,673,0,0
-133,351,0,0,0,0,0,0,0,0,0,-1,1091,673,0,0
-126,351,0,0,0,0,0,0,0,0,0,-1,1098,673,0,0
-119,351,0,0,0,0,0,0,0,0,0,-1,1105,673,0,0
-112,351,0,0,0,0,0,0,0,0,0,-1,1112,673,0,0
-105,351,0,0,0,0,0,0,0,0,0,-1,1119,673,0,0
-98,351,0,0,0,0,0,0,0,0,0,-1,1126,673,0,0
-91,351,0,0,0,0,0,0,0,0,0,-1,1133,673,0,0
-84,351,0,0,0,0,0,0,0,0,0,-1,1140,673,0,0
-77,351,0,0,0,0,0,0,0,0,0,-1,1147,673,0,0
-70,351,0,0,0,0,0,0,0,0,0,-1,1154,673,0,0
-63,351,0,0,0,0,0,0,0,0,0,-1,1161,673,0,0
-56,351,0,0,0,0,0,0,0,0,0,-1,1168,673,0,0
-49,351,0,0,0,0,0,0,0,0,0,-1,1175,673,0,0
-42,351,0,0,0,0,0,0,0,0,0,-1,1182,673,0,0
-35,351,0,0,0,0,0,0,0,0,0,-1,1189,673,0,0
-28,351,0,0,0,0,0,0,0,0,0,-1,1196,673,0,0
-21,351,0,0,0,0,0,0,0,0,0,-1,1203,673,0,0
-14,351,0,0,0,0,0,0,0,0,0,-1,1210,673,0,0
-7,351,0,0,0,0,0,0,0,0,0,-1,1217,673,0,0
0,351,0,0,0,0,0,0,0,0,0,-1,1224,673,0,0
7,351,0,0,0,0,0,0,0,0,0,-1,1231,673,0,0
14,351,0,0,0,0,0,0,0,0,0,-1,1238,673,0,0
21,351,0,0,0,0,0,0,0,0,0,-1,1245,673,0,0
28,351,0,0,0,0,0,0,0,0,0,-1,1252,673,0,0
35,351,0,0,0,0,0,0,0,0,0,-1,1259,673,0,0
42,351,0,0,0,0,0,0,0,0,0,-1,1266,673,0,0
49,351,0,0,0,0,0,0,0,0,0,-1,1273,673,0,0
56,351,0,0,0,0,0,0,0,0,0,-1,1280,673,0,0
63,351,0,0,0,0,0,0,0,0,0,-1,1287,673,0,0
70,351,0,0,0,0,0,0,0,0,0,-1,1294,673,0,0
77,351,0,0,0,0,0,0,0,0,0,-1,1301,673,0,0
84,351,0,0,0,0,0,0,0,0,0,-1,1308,673,0,0
91,351,0,0,0,0,0,0,0,0,0,-1,1315,673,0,0
98,351,0,0,0,0,0,0,0,0,0,-1,1322,673,0,0
105,351,0,0,0,0,0,0,0,0,0,-1,1329,673,0,0
112,351,0,0,0,0,0,0,0,0,0,-1,1336,673,0,0
119,351,0,0,0,0,0,0,0,0,0,-1,1343,673,0,0
126,351,0,0,0,0,0,0,0,0,0,-1,1350,673,0,0
133,351,0,0,0,0,0,0,0,0,0,-1,1357,673,0,0
140,351,0,0,0,0,0,0,0,0,0,-1,1364,673,0,0
147,351,0,0,0,0,0,0,0,0,0,-1,1371,673,0,0
154,351,0,0,0,0,0,0,0,0,0,-1,1378,673,0,0
161,351,0,0,0,0,0,0,0,0,0,-1,1385,673,0,0
168,351,0,0,0,0,0,0,0,0,0,-1,1392,673,0,0
175,351,0,0,0,0,0,0,0,0,0,-1,1399,673,0,0
182,351,0,0,0,0,0,0,0,0,0,-1,1406,673,0,0
189,351,0,0,0,0,0,0,0,0,0,-1,1413,673,0,0
196,351,0,0,0,0,0,0,0,0,0,-1,1420,673,0,0
203,351,0,0,0,0,0,0,0,0,0,-1,1427,673,0,0
210,351,0,0,0,0,0,0,0,0,0,-1,1434,673,0,0
217,351,0,0,0,0,0,0,0,0,0,-1,1441,673,0,0
224,351,0,0,0,0,0,0,0,0,0,-1,1448,673,0,0
231,351,0,0,0,0,0,0,0,0,0,-1,1455,673,0,0
238,351,0,0,0,0,0,0,0,0,0,-1,1462,673,0,0
245,351,0,0,0,0,0,0,0,0,0,-1,1469,673,0,0
252,351,0,0,0,0,0,0,0,0,0,-1,1476,673,0,0
259,351,0,0,0,0,0,0,0,0,0,-1,1483,673,0,0
266,351,0,0,0,0,0,0,0,0,0,-1,1490,673,0,0
273,351,0,0,0,0,0,0,0,0,0,-1,1497,673,0,0
280,351,0,0,0,0,0,0,0,0,0,-1,1504,673,0,0
287,351,0,0,0,0,0,0,0,0,0,-1,1511,673,0,0
294,351,0,0,0,0,0,0,0,0,0,-1,1518,673,0,0
301,351,0,0,0,0,0,0,0,0,0,-1,1525,673,0,0
308,351,0,0,0,0,0,0,0,0,0,-1,1532,673,0,0
315,351,0,0,0,0,0,0,0,0,0,-1,1539,673,0,0
322,351,0,0,0,0,0,0,0,0,0,-1,1546,673,0,0
329,351,0,0,0,0,0,0,0,0,0,-1,1553,673,0,0
336,351,0,0,0,0,0,0,0,0,0,-1,1560,673,0,0
343,351,0,0,0,0,0,0,0,0,0,-1,1567,673,0,0
350,351,0,0,0,0,0,0,0,0,0,-1,1574,673,0,0
357,351,0,0,0,0,0,0,0,0,0,-1,1581,673,0,0
364,351,0,0,0,0,0,0,0,0,0,-1,1588,673,0,0
371,351,0,0,0,0,0,0,0,0,0,-1,1595,673,0,0
378,351,0,0,0,0,0,0,0,0,0,-1,1602,673,0,0
385,351,0,0,0,0,0,0,0,0,0,-1,1609,673,0,0
392,351,0,0,0,0,0,0,0,0,0,-1,1616,673,0,0
399,351,0,0,0,0,0,0,0,0,0,-1,1623,673,0,0
406,351,0,0,0,0,0,0,0,0,0,-1,1630,673,0,0
413,351,0,0,0,0,0,0,0,0,0,-1,1637,673,0,0
420,351,0,0,0,0,0,0,0,0,0,-1,1644,673,0,0
427,351,0,0,0,0,0,0,0,0,0,-1,1651,673,0,0
434,351,0,0,0,0,0,0,0,0,0,-1,1658,673,0,0
441,351,0,0,0,0,0,0,0,0,0,-1,1665,673,0,0
448,351,0,0,0,0,0,0,0,0,0,-1,1672,673,0,0
455,351,0,0,0,0,0,0,0,0,0,-1,1679,673,0,0
462,351,0,0,0,0,0,0,0,0,0,-1,1686,673,0,0
469,351,0,0,0,0,0,0,0,0,0,-1,1693,673,0,0
476,351,0,0,0,0,0,0,0,0,0,-1,1700,673,0,0
483,351,0,0,0,0,0,0,0,0,0,-1,1707,673,0,0
490,351,0,0,0,0,0,0,0,0,0,-1,1714,673,0,0
497,351,0,0,0,0,0,0,0,0,0,-1,1721,673,0,0
504,351,10.8842,1.61615,0,0,0,0,0,0,0,-1,1728,673,10.8842,-1.61618
511,351,15.4548,0.0236816,0,0,0,0,0,0,0,-1,1735,673,15.4549,-0.0236664
518,351,16.7448,2.49268,0,0,0,0,0,0,0,-1,1742,673,16.7448,-2.49269
525,351,16.0701,3.43225,0,0,0,0,0,0,0,-1,1749,673,16.07,-3.43227
532,351,32.3822,3.03021,0,0,0,0,0,0,0,-1,1756,673,32.3822,-3.03019
539,351,15.3387,3.54486,0,0,0,0,0,0,0,-1,1763,673,15.3387,-3.54485
546,351,13.9387,4.59357,0,0,0,0,0,0,0,-1,1770,673,13.9388,-4.59359
553,351,12.0682,2.02832,0,0,0,0,0,0,0,-1,1777,673,12.0683,-2.02831
560,351,12.0173,0.55304,0,0,0,0,0,0,0,-1,1784,673,12.0174,-0.553028
567,351,10.7827,0.130188,0,0,0,0,0,0,0,-1,1791,673,10.7827,-0.130183
574,351,13.405,-1.09204,0,0,0,0,0,0,0,-1,1798,673,13.405,1.09207
581,351,15.2351,-3.06049,0,0,0,0,0,0,0,-1,1805,673,15.2351,3.06046
588,351,36.4767,-14.0328,0,0,0,0,0,0,0,-1,1812,673,36.4767,14.0328
595,351,36.5582,-13.0401,0.000103812,-0.000847202,-0.000568272,0.000369277,-0.00111267,-0.43702,0.000890762,0.046571,1819,673,36.5583,13.0401
602,351,36.5343,-12.1142,0.000420776,-0.000522429,-0.000301408,0.000508867,-0.000610519,-0.284343,0.000647165,0.0205286,1826,673,36.5343,12.1142
609,351,36.5085,-11.2673,0.000752154,-0.000151714,-1.13193e-06,0.000752155,-0.000151715,-0.00125231,0.000558915,0.0193096,1833,673,36.5085,11.2673
616,351,36.4032,-10.3678,0.00103578,0.000287323,0.000305371,0.00114456,0.000178542,0.342211,0.000711038,0.0158797,1840,673,36.4033,10.3678
623,351,36.4066,-9.48492,0.00135314,0.000791459,0.000625872,0.00175829,0.000386305,0.574505,0.001067,0.0162881,1847,673,36.4066,9.48491
630,351,36.3433,-8.60571,0.00164054,0.00138574,0.000973063,0.00249451,0.000531773,0.720305,0.00151714,0.025881,1854,673,36.3433,8.60569
637,351,36.2766,-7.69342,0.00188334,0.0019963,0.0012803,0.00322137,0.000658275,0.80744,0.00196525,0.0305529,1861,673,36.2766,7.69343
644,351,36.2388,-6.79913,0.00207843,0.00267065,0.00157841,0.00398048,0.0007686,0.878121,0.00243818,0.0231638,1868,673,36.2387,6.79912
651,351,36.2041,-5.86786,0.0022674,0.00345109,0.0019116,0.00486037,0.00085812,0.935522,0.00299546,0.0193056,1875,673,36.2041,5.86786
658,351,36.0812,-4.90875,0.00236124,0.00426284,0.00218588,0.00569575,0.000928324,0.990542,0.00352867,0.0461848,1882,673,36.0811,4.90873
665,351,35.6639,-3.89398,0,0,0,0,0,0,0,-1,1889,673,35.664,3.89401
672,351,34.9646,-3.1748,0,0,0,0,0,0,0,-1,1896,673,34.9646,3.17482
679,351,14.1252,1.85681,0,0,0,0,0,0,0,-1,1903,673,14.1253,-1.85682
686,351,13.0294,2.1189,0,0,0,0,0,0,0,-1,1910,673,13.0294,-2.11892
693,351,13.5187,2.34595,0,0,0,0,0,0,0,-1,1917,673,13.5187,-2.34596
700,351,14.5629,-2.40173,0,0,0,0,0,0,0,-1,1924,673,14.5629,2.40172
707,351,0,0,0,0,0,0,0,0,0,-1,1931,673,0,0
714,351,0,0,0,0,0,0,0,0,0,-1,1938,673,0,0
721,351,0,0,0,0,0,0,0,0,0,-1,1945,673,0,0
728,351,0,0,0,0,0,0,0,0,0,-1,1952,673,0,0
735,351,0,0,0,0,0,0,0,0,0,-1,1959,673,0,0
742,351,0,0,0,0,0,0,0,0,0,-1,1966,673,0,0
749,351,0,0,0,0,0,0,0,0,0,-1,1973,673,0,0
756,351,0,0,0,0,0,0,0,0,0,-1,1980,673,0,0
763,351,0,0,0,0,0,0,0,0,0,-1,1987,673,0,0
770,351,0,0,0,0,0,0,0,0,0,-1,1994,673,0,0
777,351,0,0,0,0,0,0,0,0,0,-1,2001,673,0,0
784,351,0,0,0,0,0,0,0,0,0,-1,2008,673,0,0
791,351,0,0,0,0,0,0,0,0,0,-1,2015,673,0,0
798,351,0,0,0,0,0,0,0,0,0,-1,2022,673,0,0
805,351,0,0,0,0,0,0,0,0,0,-1,2029,673,0,0
812,351,0,0,0,0,0,0,0,0,0,-1,2036,673,0,0
-700,344,0,0,0,0,0,0,0,0,0,-1,524,680,0,0
-693,344,0,0,0,0,0,0,0,0,0,-1,531,680,0,0
-686,344,0,0,0,0,0,0,0,0,0,-1,538,680,0,0
-679,344,0,0,0,0,0,0,0,0,0,-1,545,680,0,0
-672,344,0,0,0,0,0,0,0,0,0,-1,552,680,0,0
-665,344,0,0,0,0,0,0,0,0,0,-1,559,680,0,0
-658,344,0,0,0,0,0,0,0,0,0,-1,566,680,0,0
-651,344,0,0,0,0,0,0,0,0,0,-1,573,680,0,0
-644,344,0,0,0,0,0,0,0,0,0,-1,580,680,0,0
-637,344,0,0,0,0,0,0,0,0,0,-1,587,680,0,0
-630,344,0,0,0,0,0,0,0,0,0,-1,594,680,0,0
-623,344,0,0,0,0,0,0,0,0,0,-1,601,680,0,0
-616,344,0,0,0,0,0,0,0,0,0,-1,608,680,0,0
-609,344,0,0,0,0,0,0,0,0,0,-1,615,680,0,0
-602,344,0,0,0,0,0,0,0,0,0,-1,622,680,0,0
-595,344,0,0,0,0,0,0,0,0,0,-1,629,680,0,0
-588,344,-9.27826,1.47302,0,0,0,0,0,0,0,-1,636,680,-9.27829,-1.473
-581,344,-10.0098,1.71753,0,0,0,0,0,0,0,-1,643,680,-10.0098,-1.7175
-574,344,-10.2208,3.04871,0,0,0,0,0,0,0,-1,650,680,-10.2208,-3.04869
-567,344,-14.3779,2.29016,0,0,0,0,0,0,0,-1,657,680,-14.3779,-2.29014
-560,344,-14.1238,1.8374,0,0,0,0,0,0,0,-1,664,680,-14.1238,-1.83743
-553,344,-14.7884,2.00116,0,0,0,0,0,0,0,-1,671,680,-14.7884,-2.00115
-546,344,-17.4192,0.157654,0,0,0,0,0,0,0,-1,678,680,-17.4192,-0.157635
-539,344,-17.2671,-2.75714,0,0,0,0,0,0,0,-1,685,680,-17.2671,2.75712
-532,344,-18.4417,-4.38605,0,0,0,0,0,0,0,-1,692,680,-18.4417,4.38603
-525,344,-22.3896,-6.63818,0,0,0,0,0,0,0,-1,699,680,-22.3896,6.63821
-518,344,-22.4431,-7.52838,0.00276013,0.00116128,-0.00183965,0.00396654,-4.51314e-05,-0.58043,0.00265953,0.0211336,706,680,-22.4431,7.52836
-511,344,-22.502,-8.44928,0.00228435,0.000451391,-0.00111554,0.0028116,-7.58606e-05,-0.441524,0.00190019,0.0175745,713,680,-22.502,8.44929
-504,344,-22.5555,-9.3468,0.00190409,-3.36746e-05,-0.000619187,0.00208504,-0.00021463,-0.284328,0.00146681,0.0175807,720,680,-22.5555,9.34682
-497,344,-22.5726,-10.215,0.00162282,-0.000367755,-0.000272463,0.00165944,-0.000404375,-0.133603,0.00126286,0.0156692,727,680,-22.5726,10.215
-490,344,-22.6257,-11.0818,0.0014294,-0.000516574,-0.000123906,0.00143726,-0.000524432,-0.0633322,0.00117275,0.0149497,734,680,-22.6257,11.0818
-483,344,-22.6311,-11.915,0.00135083,-0.00047929,-0.000164918,0.00136557,-0.000494033,-0.0891565,0.00111225,0.0151513,741,680,-22.6311,11.915
-476,344,-22.6935,-12.7836,0.00136451,-0.000311087,-0.000395721,0.00145327,-0.000399842,-0.220635,0.00112604,0.0147638,748,680,-22.6935,12.7836
-469,344,-22.7233,-13.7148,0.00149102,5.1859e-06,-0.000801786,0.00184117,-0.000344959,-0.411744,0.00135713,0.0226637,755,680,-22.7233,13.7149
-462,344,-22.7516,-14.6266,0,0,0,0,0,0,0,-1,762,680,-22.7516,14.6267
-455,344,-12.1653,-7.99176,0,0,0,0,0,0,0,-1,769,680,-12.1653,7.99174
-448,344,-5.67657,-2.72864,0,0,0,0,0,0,0,-1,776,680,-5.6766,2.72863
-441,344,-5.09229,-2.34167,0,0,0,0,0,0,0,-1,783,680,-5.09229,2.34168
-434,344,-4.28778,-2.08807,0,0,0,0,0,0,0,-1,790,680,-4.28778,2.08809
-427,344,-3.06506,-1.45404,0,0,0,0,0,0,0,-1,797,680,-3.06505,1.45402
-420,344,-1.96582,-1.57574,0,0,0,0,0,0,0,-1,804,680,-1.96579,1.57574
-413,344,-0.817993,-1.4751,0,0,0,0,0,0,0,-1,811,680,-0.818017,1.47511
-406,344,-0.00714111,-1.25189,0,0,0,0,0,0,0,-1,818,680,-0.00714956,1.25191
-399,344,0.240051,-1.75769,0,0,0,0,0,0,0,-1,825,680,0.240079,1.75767
-392,344,1.11353,-2.05615,0,0,0,0,0,0,0,-1,832,680,1.11351,2.05616
-385,344,0,0,0,0,0,0,0,0,0,-1,839,680,0,0
-378,344,0,0,0,0,0,0,0,0,0,-1,846,680,0,0
-371,344,0,0,0,0,0,0,0,0,0,-1,853,680,0,0
-364,344,0,0,0,0,0,0,0,0,0,-1,860,680,0,0
-357,344,0,0,0,0,0,0,0,0,0,-1,867,680,0,0
-350,344,0,0,0,0,0,0,0,0,0,-1,874,680,0,0
-343,344,0,0,0,0,0,0,0,0,0,-1,881,680,0,0
-336,344,0,0,0,0,0,0,0,0,0,-1,888,680,0,0
-329,344,0,0,0,0,0,0,0,0,0,-1,895,680,0,0
-322,344,0,0,0,0,0,0,0,0,0,-1,902,680,0,0
-315,344,0,0,0,0,0,0,0,0,0,-1,909,680,0,0
-308,344,0,0,0,0,0,0,0,0,0,-1,916,680,0,0
-301,344,0,0,0,0,0,0,0,0,0,-1,923,680,0,0
-294,344,0,0,0,0,0,0,0,0,0,-1,930,680,0,0
-287,344,0,0,0,0,0,0,0,0,0,-1,937,680,0,0
-280,344,0,0,0,0,0,0,0,0,0,-1,944,680,0,0
-273,344,0,0,0,0,0,0,0,0,0,-1,951,680,0,0
-266,344,0,0,0,0,0,0,0,0,0,-1,958,680,0,0
-259,344,0,0,0,0,0,0,0,0,0,-1,965,680,0,0
-252,344,0,0,0,0,0,0,0,0,0,-1,972,680,0,0
-245,344,0,0,0,0,0,0,0,0,0,-1,979,680,0,0
-238,344,0,0,0,0,0,0,0,0,0,-1,986,680,0,0
-231,344,0,0,0,0,0,0,0,0,0,-1,993,680,0,0
-224,344,0,0,0,0,0,0,0,0,0,-1,1000,680,0,0
-217,344,0,0,0,0,0,0,0,0,0,-1,1007,680,0,0
-210,344,0,0,0,0,0,0,0,0,0,-1,1014,680,0,0
-203,344,0,0,0,0,0,0,0,0,0,-1,1021,680,0,0
-196,344,0,0,0,0,0,0,0,0,0,-1,1028,680,0,0
-189,344,0,0,0,0,0,0,0,0,0,-1,1035,680,0,0
-182,344,0,0,0,0,0,0,0,0,0,-1,1042,680,0,0
-175,344,0,0,0,0,0,0,0,0,0,-1,1049,680,0,0
-168,344,0,0,0,0,0,0,0,0,0,-1,1056,680,0,0
-161,344,0,0,0,0,0,0,0,0,0,-1,1063,680,0,0
-154,344,0,0,0,0,0,0,0,0,0,-1,1070,680,0,0
-147,344,0,0,0,0,0,0,0,0,0,-1,1077,680,0,0
-140,344,0,0,0,0,0,0,0,0,0,-1,1084,680,0,0
-133,344,0,0,0,0,0,0,0,0,0,-1,1091,680,0,0
-126,344,0,0,0,0,0,0,0,0,0,-1,1098,680,0,0
-119,344,0,0,0,0,0,0,0,0,0,-1,1105,680,0,0
-112,344,0,0,0,0,0,0,0,0,0,-1,1112,680,0,0
-105,344,0,0,0,0,0,0,0,0,0,-1,1119,680,0,0
-98,344,0,0,0,0,0,0,0,0,0,-1,1126,680,0,0
-91,344,0,0,0,0,0,0,0,0,0,-1,1133,680,0,0
-84,344,0,0,0,0,0,0,0,0,0,-1,1140,680,0,0
-77,344,0,0,0,0,0,0,0,0,0,-1,1147,680,0,0
-70,344,0,0,0,0,0,0,0,0,0,-1,1154,680,0,0
-63,344,0,0,0,0,0,0,0,0,0,-1,1161,680,0,0
-56,344,0,0,0,0,0,0,0,0,0,-1,1168,680,0,0
-49,344,0,0,0,0,0,0,0,0,0,-1,1175,680,0,0
-42,344,0,0,0,0,0,0,0,0,0,-1,1182,680,0,0
-35,344,0,0,0,0,0,0,0,0,0,-1,1189,680,0,0
-28,344,0,0,0,0,0,0,0,0,0,-1,1196,680,0,0
-21,344,0,0,0,0,0,0,0,0,0,-1,1203,680,0,0
-14,344,0,0,0,0,0,0,0,0,0,-1,1210,680,0,0
-7,344,0,0,0,0,0,0,0,0,0,-1,1217,680,0,0
0,344,0,0,0,0,0,0,0,0,0,-1,1224,680,0,0
7,344,0,0,0,0,0,0,0,0,0,-1,1231,680,0,0
14,344,0,0,0,0,0,0,0,0,0,-1,1238,680,0,0
21,344,0,0,0,0,0,0,0,0,0,-1,1245,680,0,0
28,344,0,0,0,0,0,0,0,0,0,-1,1252,680,0,0
35,344,0,0,0,0,0,0,0,0,0,-1,1259,680,0,0
42,344,0,0,0,0,0,0,0,0,0,-1,1266,680,0,0
49,344,0,0,0,0,0,0,0,0,0,-1,1273,680,0,0
56,344,0,0,0,0,0,0,0,0,0,-1,1280,680,0,0
63,344,0,0,0,0,0,0,0,0,0,-1,1287,680,0,0
70,344,0,0,0,0,0,0,0,0,0,-1,1294,680,0,0
77,344,0,0,0,0,0,0,0,0,0,-1,1301,680,0,0
84,344,0,0,0,0,0,0,0,0,0,-1,1308,680,0,0
91,344,0,0,0,0,0,0,0,0,0,-1,1315,680,0,0
98,344,0,0,0,0,0,0,0,0,0,-1,1322,680,0,0
105,344,0,0,0,0,0,0,0,0,0,-1,1329,680,0,0
112,344,0,0,0,0,0,0,0,0,0,-1,1336,680,0,0
119,344,0,0,0,0,0,0,0,0,0,-1,1343,680,0,0
126,344,0,0,0,0,0,0,0,0,0,-1,1350,680,0,0
133,344,0,0,0,0,0,0,0,0,0,-1,1357,680,0,0
140,344,0,0,0,0,0,0,0,0,0,-1,1364,680,0,0
147,344,0,0,0,0,0,0,0,0,0,-1,1371,680,0,0
154,344,0,0,0,0,0,0,0,0,0,-1,1378,680,0,0
161,344,0,0,0,0,0,0,0,0,0,-1,1385,680,0,0
168,344,0,0,0,0,0,0,0,0,0,-1,1392,680,0,0
175,344,0,0,0,0,0,0,0,0,0,-1,1399,680,0,0
182,344,0,0,0,0,0,0,0,0,0,-1,1406,680,0,0
189,344,0,0,0,0,0,0,0,0,0,-1,1413,680,0,0
196,344,0,0,0,0,0,0,0,0,0,-1,1420,680,0,0
203,344,0,0,0,0,0,0,0,0,0,-1,1427,680,0,0
210,344,0,0,0,0,0,0,0,0,0,-1,1434,680,0,0
217,344,0,0,0,0,0,0,0,0,0,-1,1441,680,0,0
224,344,0,0,0,0,0,0,0,0,0,-1,1448,680,0,0
231,344,0,0,0,0,0,0,0,0,0,-1,1455,680,0,0
238,344,0,0,0,0,0,0,0,0,0,-1,1462,680,0,0
245,344,0,0,0,0,0,0,0,0,0,-1,1469,680,0,0
252,344,0,0,0,0,0,0,0,0,0,-1,1476,680,0,0
259,344,0,0,0,0,0,0,0,0,0,-1,1483,680,0,0
266,344,0,0,0,0,0,0,0,0,0,-1,1490,680,0,0
273,344,0,0,0,0,0,0,0,0,0,-1,1497,680,0,0
280,344,0,0,0,0,0,0,0,0,0,-1,1504,680,0,0
287,344,0,0,0,0,0,0,0,0,0,-1,1511,680,0,0
294,344,0,0,0,0,0,0,0,0,0,-1,1518,680,0,0
301,344,0,0,0,0,0,0,0,0,0,-1,1525,680,0,0
308,344,0,0,0,0,0,0,0,0,0,-1,1532,680,0,0
315,344,0,0,0,0,0,0,0,0,0,-1,1539,680,0,0
322,344,0,0,0,0,0,0,0,0,0,-1,1546,680,0,0
329,344,0,0,0,0,0,0,0,0,0,-1,1553,680,0,0
336,344,0,0,0,0,0,0,0,0,0,-1,1560,680,0,0
343,344,0,0,0,0,0,0,0,0,0,-1,1567,680,0,0
350,344,0,0,0,0,0,0,0,0,0,-1,1574,680,0,0
357,344,0,0,0,0,0,0,0,0,0,-1,1581,680,0,0
364,344,0,0,0,0,0,0,0,0,0,-1,1588,680,0,0
371,344,0,0,0,0,0,0,0,0,0,-1,1595,680,0,0
378,344,0,0,0,0,0,0,0,0,0,-1,1602,680,0,0
385,344,0,0,0,0,0,0,0,0,0,-1,1609,680,0,0
392,344,0,0,0,0,0,0,0,0,0,-1,1616,680,0,0
399,344,0,0,0,0,0,0,0,0,0,-1,1623,680,0,0
406,344,0,0,0,0,0,0,0,0,0,-1,1630,680,0,0
413,344,0,0,0,0,0,0,0,0,0,-1,1637,680,0,0
420,344,0,0,0,0,0,0,0,0,0,-1,1644,680,0,0
427,344,0,0,0,0,0,0,0,0,0,-1,1651,680,0,0
434,344,0,0,0,0,0,0,0,0,0,-1,1658,680,0,0
441,344,0,0,0,0,0,0,0,0,0,-1,1665,680,0,0
448,344,0,0,0,0,0,0,0,0,0,-1,1672,680,0,0
455,344,0,0,0,0,0,0,0,0,0,-1,1679,680,0,0
462,344,0,0,0,0,0,0,0,0,0,-1,1686,680,0,0
469,344,0,0,0,0,0,0,0,0,0,-1,1693,680,0,0
476,344,0,0,0,0,0,0,0,0,0,-1,1700,680,0,0
483,344,0,0,0,0,0,0,0,0,0,-1,1707,680,0,0
490,344,0,0,0,0,0,0,0,0,0,-1,1714,680,0,0
497,344,0,0,0,0,0,0,0,0,0,-1,1721,680,0,0
504,344,0,0,0,0,0,0,0,0,0,-1,1728,680,0,0
511,344,15.4819,0.452637,0,0,0,0,0,0,0,-1,1735,680,15.4819,-0.452656
518,344,17.1357,2.31207,0,0,0,0,0,0,0,-1,1742,680,17.1358,-2.31207
525,344,31.5201,2.6217,0,0,0,0,0,0,0,-1,1749,680,31.5201,-2.62168
532,344,31.9766,2.61047,0,0,0,0,0,0,0,-1,1756,680,31.9765,-2.6105
539,344,32.4379,2.65314,0,0,0,0,0,0,0,-1,1763,680,32.4378,-2.65316
546,344,14.6722,4.30243,0,0,0,0,0,0,0,-1,1770,680,14.6722,-4.30241
553,344,14.8136,4.35681,0,0,0,0,0,0,0,-1,1777,680,14.8136,-4.35679
560,344,11.9363,2.14185,0,0,0,0,0,0,0,-1,1784,680,11.9362,-2.14182
567,344,11.397,0.925842,0,0,0,0,0,0,0,-1,1791,680,11.397,-0.92583
574,344,10.0004,0.504639,0,0,0,0,0,0,0,-1,1798,680,10.0004,-0.504645
581,344,13.6709,-0.969604,0,0,0,0,0,0,0,-1,1805,680,13.6709,0.969629
588,344,16.1447,-3.15948,0,0,0,0,0,0,0,-1,1812,680,16.1447,3.15946
595,344,37.3567,-12.9994,0,0,0,0,0,0,0,-1,1819,680,37.3567,12.9994
602,344,37.5347,-12.0334,0.000328783,-0.000880458,-0.000441987,0.000473107,-0.00102478,-0.31562,0.000884142,0.0352894,1826,680,37.5347,12.0335
609,344,37.4125,-11.1954,0.000731892,-0.000581559,-0.000156305,0.000750237,-0.000599903,-0.11683,0.000781113,0.0167128,1833,680,37.4125,11.1953
616,344,37.3236,-10.2922,0.000980025,-0.00021297,0.000130111,0.00099405,-0.000226995,0.107381,0.000749906,0.0229686,1840,680,37.3236,10.2922
623,344,37.2985,-9.40668,0.0011979,0.000240734,0.000393894,0.00133916,9.94834e-05,0.344315,0.000861526,0.0201344,1847,680,37.2985,9.40669
630,344,37.2487,-8.56146,0.00140772,0.000781634,0.000703296,0.0018645,0.000324859,0.576008,0.00115011,0.0259446,1854,680,37.2487,8.56146
637,344,37.1987,-7.65698,0.00159647,0.00134986,0.000987735,0.00246856,0.000477761,0.723302,0.00151183,0.0257625,1861,680,37.1987,7.65697
644,344,37.1378,-6.75604,0.0017607,0.00196683,0.00126104,0.00312901,0.000598526,0.826172,0.00191789,0.0174915,1868,680,37.1378,6.75602
651,344,37.0608,-5.85974,0.00194985,0.00268799,0.00156807,0.00392984,0.000708002,0.900977,0.00241869,0.0121838,1875,680,37.0608,5.85972
658,344,37.0255,-4.87115,0.00212729,0.0034674,0.00187079,0.00478451,0.00081018,0.957365,0.00295684,0.0290251,1882,680,37.0255,4.87113
665,344,36.8506,-4.01019,0.00255281,0.00431073,0.00221416,0.00581401,0.00104953,0.974345,0.00357785,0.0459876,1889,680,36.8506,4.01019
672,344,36.8597,-3.20496,0,0,0,0,0,0,0,-1,1896,680,36.8597,3.20493
679,344,36.7468,-2.59857,0,0,0,0,0,0,0,-1,1903,680,36.7468,2.59857
686,344,15.024,1.82709,0,0,0,0,0,0,0,-1,1910,680,15.024,-1.82706
693,344,12.4362,-1.42346,0,0,0,0,0,0,0,-1,1917,680,12.4361,1.42348
700,344,17.5396,2.61206,0,0,0,0,0,0,0,-1,1924,680,17.5396,-2.61204
707,344,18.5829,3.29352,0,0,0,0,0,0,0,-1,1931,680,18.5828,-3.2935
714,344,0,0,0,0,0,0,0,0,0,-1,1938,680,0,0
721,344,0,0,0,0,0,0,0,0,0,-1,1945,680,0,0
728,344,0,0,0,0,0,0,0,0,0,-1,1952,680,0,0
735,344,0,0,0,0,0,0,0,0,0,-1,1959,680,0,0
742,344,0,0,0,0,0,0,0,0,0,-1,1966,680,0,0
749,344,0,0,0,0,0,0,0,0,0,-1,1973,680,0,0
756,344,0,0,0,0,0,0,0,0,0,-1,1980,680,0,0
763,344,0,0,0,0,0,0,0,0,0,-1,1987,680,0,0
770,344,0,0,0,0,0,0,0,0,0,-1,1994,680,0,0
777,344,0,0,0,0,0,0,0,0,0,-1,2001,680,0,0
784,344,0,0,0,0,0,0,0,0,0,-1,2008,680,0,0
791,344,0,0,0,0,0,0,0,0,0,-1,2015,680,0,0
798,344,0,0,0,0,0,0,0,0,0,-1,2022,680,0,0
805,344,0,0,0,0,0,0,0,0,0,-1,2029,680,0,0
812,344,0,0,0,0,0,0,0,0,0,-1,2036,680,0,0
-700,337,0,0,0,0,0,0,0,0,0,-1,524,687,0,0
-693,337,0,0,0,0,0,0,0,0,0,-1,531,687,0,0
-686,337,0,0,0,0,0,0,0,0,0,-1,538,687,0,0
-679,337,0,0,0,0,0,0,0,0,0,-1,545,687,0,0
-672,337,0,0,0,0,0,0,0,0,0,-1,552,687,0,0
-665,337,0,0,0,0,0,0,0,0,0,-1,559,687,0,0
-658,337,0,0,0,0,0,0,0,0,0,-1,566,687,0,0
-651,337,0,0,0,0,0,0,0,0,0,-1,573,687,0,0
-644,337,0,0,0,0,0,0,0,0,0,-1,580,687,0,0
-637,337,0,0,0,0,0,0,0,0,0,-1,587,687,0,0
-630,337,0,0,0,0,0,0,0,0,0,-1,594,687,0,0
-623,337,0,0,0,0,0,0,0,0,0,-1,601,687,0,0
-616,337,0,0,0,0,0,0,0,0,0,-1,608,687,0,0
-609,337,0,0,0,0,0,0,0,0,0,-1,615,687,0,0
-602,337,0,0,0,0,0,0,0,0,0,-1,622,687,0,0
-595,337,0,0,0,0,0,0,0,0,0,-1,629,687,0,0
-588,337,-10.8413,1.27863,0,0,0,0,0,0,0,-1,636,687,-10.8413,-1.27861
-581,337,-11.2157,1.31567,0,0,0,0,0,0,0,-1,643,687,-11.2157,-1.3157
-574,337,-6.03339,2.0321,0,0,0,0,0,0,0,-1,650,687,-6.03337,-2.03213
-567,337,-13.8102,1.56787,0,0,0,0,0,0,0,-1,657,687,-13.8102,-1.56789
-560,337,-15.5435,2.34247,0,0,0,0,0,0,0,-1,664,687,-15.5435,-2.34247
-553,337,-18.0128,1.12927,0,0,0,0,0,0,0,-1,671,687,-18.0128,-1.12926
-546,337,-18.0244,-2.03845,0,0,0,0,0,0,0,-1,678,687,-18.0244,2.03846
-539,337,-19.2426,-3.53815,0,0,0,0,0,0,0,-1,685,687,-19.2426,3.53813
-532,337,-23.327,-5.74969,0,0,0,0,0,0,0,-1,692,687,-23.327,5.74969
-525,337,-23.3251,-6.62262,0.00294718,0.0021325,-0.00257246,0.00514435,-6.46696e-05,-0.706876,0.00345133,0.0206526,699,687,-23.3251,6.6226
-518,337,-23.324,-7.50598,0.00246507,0.00106074,-0.00163932,0.00354627,-2.04662e-05,-0.583055,0.00237103,0.0239399,706,687,-23.324,7.50596
-511,337,-23.3788,-8.41064,0.00210535,0.000253363,-0.000911844,0.00247894,-0.000120229,-0.388849,0.00169413,0.0245108,713,687,-23.3788,8.41067
-504,337,-23.415,-9.3175,0.00176988,-0.0003463,-0.000342483,0.00182392,-0.000400347,-0.156519,0.00136905,0.0237955,720,687,-23.415,9.31748
-497,337,-23.4388,-10.1773,0.00152041,-0.00076392,7.1109e-05,0.00152262,-0.000766131,0.0310889,0.00134526,0.0170624,727,687,-23.4388,10.1773
-490,337,-23.4941,-11.0344,0.00138188,-0.000965793,0.000262177,0.0014108,-0.000994715,0.109872,0.00139573,0.0151433,734,687,-23.4942,11.0344
-483,337,-23.5182,-11.9034,0.00134243,-0.000936765,0.000239215,0.00136727,-0.000961601,0.103454,0.00135136,0.0153628,741,687,-23.5182,11.9034
-476,337,-23.5402,-12.7816,0.00140787,-0.000758424,-3.88547e-05,0.00140857,-0.00075912,-0.0179283,0.0012701,0.018133,748,687,-23.5402,12.7816
-469,337,-23.6273,-13.7047,0,0,0,0,0,0,0,-1,755,687,-23.6272,13.7047
-462,337,-14.186,-8.89264,0,0,0,0,0,0,0,-1,762,687,-14.186,8.89266
-455,337,-6.00574,-3.12933,0,0,0,0,0,0,0,-1,769,687,-6.00576,3.12934
-448,337,-5.30627,-2.07202,0,0,0,0,0,0,0,-1,776,687,-5.30628,2.07205
-441,337,-4.24762,-1.49597,0,0,0,0,0,0,0,-1,783,687,-4.24762,1.49598
-434,337,-6.86908,1.37531,0,0,0,0,0,0,0,-1,790,687,-6.86908,-1.3753
-427,337,-9.92004,2.487,0,0,0,0,0,0,0,-1,797,687,-9.92002,-2.48701
-420,337,-2.95996,-1.76697,0,0,0,0,0,0,0,-1,804,687,-2.95998,1.76696
-413,337,-1.29169,-1.99487,0,0,0,0,0,0,0,-1,811,687,-1.29171,1.9949
-406,337,-1.02356,-1.89563,0,0,0,0,0,0,0,-1,818,687,-1.02357,1.89564
-399,337,-0.472839,-2.21338,0,0,0,0,0,0,0,-1,825,687,-0.472837,2.2134
-392,337,0,0,0,0,0,0,0,0,0,-1,832,687,0,0
-385,337,0,0,0,0,0,0,0,0,0,-1,839,687,0,0
-378,337,0,0,0,0,0,0,0,0,0,-1,846,687,0,0
-371,337,0,0,0,0,0,0,0,0,0,-1,853,687,0,0
-364,337,0,0,0,0,0,0,0,0,0,-1,860,687,0,0
-357,337,0,0,0,0,0,0,0,0,0,-1,867,687,0,0
-350,337,0,0,0,0,0,0,0,0,0,-1,874,687,0,0
-343,337,0,0,0,0,0,0,0,0,0,-1,881,687,0,0
-336,337,0,0,0,0,0,0,0,0,0,-1,888,687,0,0
-329,337,0,0,0,0,0,0,0,0,0,-1,895,687,0,0
-322,337,0,0,0,0,0,0,0,0,0,-1,902,687,0,0
-315,337,0,0,0,0,0,0,0,0,0,-1,909,687,0,0
-308,337,0,0,0,0,0,0,0,0,0,-1,916,687,0,0
-301,337,0,0,0,0,0,0,0,0,0,-1,923,687,0,0
-294,337,0,0,0,0,0,0,0,0,0,-1,930,687,0,0
-287,337,0,0,0,0,0,0,0,0,0,-1,937,687,0,0
-280,337,0,0,0,0,0,0,0,0,0,-1,944,687,0,0
-273,337,0,0,0,0,0,0,0,0,0,-1,951,687,0,0
-266,337,0,0,0,0,0,0,0,0,0,-1,958,687,0,0
-259,337,0,0,0,0,0,0,0,0,0,-1,965,687,0,0
-252,337,0,0,0,0,0,0,0,0,0,-1,972,687,0,0
-245,337,0,0,0,0,0,0,0,0,0,-1,979,687,0,0
-238,337,0,0,0,0,0,0,0,0,0,-1,986,687,0,0
-231,337,0,0,0,0,0,0,0,0,0,-1,993,687,0,0
-224,337,0,0,0,0,0,0,0,0,0,-1,1000,687,0,0
-217,337,0,0,0,0,0,0,0,0,0,-1,1007,687,0,0
-210,337,0,0,0,0,0,0,0,0,0,-1,1014,687,0,0
-203,337,0,0,0,0,0,0,0,0,0,-1,1021,687,0,0
-196,337,0,0,0,0,0,0,0,0,0,-1,1028,687,0,0
-189,337,0,0,0,0,0,0,0,0,0,-1,1035,687,0,0
-182,337,0,0,0,0,0,0,0,0,0,-1,1042,687,0,0
-175,337,0,0,0,0,0,0,0,0,0,-1,1049,687,0,0
-168,337,0,0,0,0,0,0,0,0,0,-1,1056,687,0,0
-161,337,0,0,0,0,0,0,0,0,0,-1,1063,687,0,0
-154,337,0,0,0,0,0,0,0,0,0,-1,1070,687,0,0
-147,337,0,0,0,0,0,0,0,0,0,-1,1077,687,0,0
-140,337,0,0,0,0,0,0,0,0,0,-1,1084,687,0,0
-133,337,0,0,0,0,0,0,0,0,0,-1,1091,687,0,0
-126,337,0,0,0,0,0,0,0,0,0,-1,1098,687,0,0
-119,337,0,0,0,0,0,0,0,0,0,-1,1105,687,0,0
-112,337,0,0,0,0,0,0,0,0,0,-1,1112,687,0,0
-105,337,0,0,0,0,0,0,0,0,0,-1,1119,687,0,0
-98,337,0,0,0,0,0,0,0,0,0,-1,1126,687,0,0
-91,337,0,0,0,0,0,0,0,0,0,-1,1133,687,0,0
-84,337,0,0,0,0,0,0,0,0,0,-1,1140,687,0,0
-77,337,0,0,0,0,0,0,0,0,0,-1,1147,687,0,0
-70,337,0,0,0,0,0,0,0,0,0,-1,1154,687,0,0
-63,337,0,0,0,0,0,0,0,0,0,-1,1161,687,0,0
-56,337,0,0,0,0,0,0,0,0,0,-1,1168,687,0,0
-49,337,0,0,0,0,0,0,0,0,0,-1,1175,687,0,0
-42,337,0,0,0,0,0,0,0,0,0,-1,1182,687,0,0
-35,337,0,0,0,0,0,0,0,0,0,-1,1189,687,0,0
-28,337,0,0,0,0,0,0,0,0,0,-1,1196,687,0,0
-21,337,0,0,0,0,0,0,0,0,0,-1,1203,687,0,0
-14,337,0,0,0,0,0,0,0,0,0,-1,1210,687,0,0
-7,337,0,0,0,0,0,0,0,0,0,-1,1217,687,0,0
0,337,0,0,0,0,0,0,0,0,0,-1,1224,687,0,0
7,337,0,0,0,0,0,0,0,0,0,-1,1231,687,0,0
14,337,0,0,0,0,0,0,0,0,0,-1,1238,687,0,0
21,337,0,0,0,0,0,0,0,0,0,-1,1245,687,0,0
28,337,0,0,0,0,0,0,0,0,0,-1,1252,687,0,0
35,337,0,0,0,0,0,0,0,0,0,-1,1259,687,0,0
42,337,0,0,0,0,0,0,0,0,0,-1,1266,687,0,0
49,337,0,0,0,0,0,0,0,0,0,-1,1273,687,0,0
56,337,0,0,0,0,0,0,0,0,0,-1,1280,687,0,0
63,337,0,0,0,0,0,0,0,0,0,-1,1287,687,0,0
70,337,0,0,0,0,0,0,0,0,0,-1,1294,687,0,0
77,337,0,0,0,0,0,0,0,0,0,-1,1301,687,0,0
84,337,0,0,0,0,0,0,0,0,0,-1,1308,687,0,0
91,337,0,0,0,0,0,0,0,0,0,-1,1315,687,0,0
98,337,0,0,0,0,0,0,0,0,0,-1,1322,687,0,0
105,337,0,0,0,0,0,0,0,0,0,-1,1329,687,0,0
112,337,0,0,0,0,0,0,0,0,0,-1,1336,687,0,0
119,337,0,0,0,0,0,0,0,0,0,-1,1343,687,0,0
126,337,0,0,0,0,0,0,0,0,0,-1,1350,687,0,0
133,337,0,0,0,0,0,0,0,0,0,-1,1357,687,0,0
140,337,0,0,0,0,0,0,0,0,0,-1,1364,687,0,0
147,337,0,0,0,0,0,0,0,0,0,-1,1371,687,0,0
154,337,0,0,0,0,0,0,0,0,0,-1,1378,687,0,0
161,337,0,0,0,0,0,0,0,0,0,-1,1385,687,0,0
168,337,0,0,0,0,0,0,0,0,0,-1,1392,687,0,0
175,337,0,0,0,0,0,0,0,0,0,-1,1399,687,0,0
182,337,0,0,0,0,0,0,0,0,0,-1,1406,687,0,0
189,337,0,0,0,0,0,0,0,0,0,-1,1413,687,0,0
196,337,0,0,0,0,0,0,0,0,0,-1,1420,687,0,0
203,337,0,0,0,0,0,0,0,0,0,-1,1427,687,0,0
210,337,0,0,0,0,0,0,0,0,0,-1,1434,687,0,0
217,337,0,0,0,0,0,0,0,0,0,-1,1441,687,0,0
224,337,0,0,0,0,0,0,0,0,0,-1,1448,687,0,0
231,337,0,0,0,0,0,0,0,0,0,-1,1455,687,0,0
238,337,0,0,0,0,0,0,0,0,0,-1,1462,687,0,0
245,337,0,0,0,0,0,0,0,0,0,-1,1469,687,0,0
252,337,0,0,0,0,0,0,0,0,0,-1,1476,687,0,0
259,337,0,0,0,0,0,0,0,0,0,-1,1483,687,0,0
266,337,0,0,0,0,0,0,0,0,0,-1,1490,687,0,0
273,337,0,0,0,0,0,0,0,0,0,-1,1497,687,0,0
280,337,0,0,0,0,0,0,0,0,0,-1,1504,687,0,0
287,337,0,0,0,0,0,0,0,0,0,-1,1511,687,0,0
294,337,0,0,0,0,0,0,0,0,0,-1,1518,687,0,0
301,337,0,0,0,0,0,0,0,0,0,-1,1525,687,0,0
308,337,0,0,0,0,0,0,0,0,0,-1,1532,687,0,0
315,337,0,0,0,0,0,0,0,0,0,-1,1539,687,0,0
322,337,0,0,0,0,0,0,0,0,0,-1,1546,687,0,0
329,337,0,0,0,0,0,0,0,0,0,-1,1553,687,0,0
336,337,0,0,0,0,0,0,0,0,0,-1,1560,687,0,0
343,337,0,0,0,0,0,0,0,0,0,-1,1567,687,0,0
350,337,0,0,0,0,0,0,0,0,0,-1,1574,687,0,0
357,337,0,0,0,0,0,0,0,0,0,-1,1581,687,0,0
364,337,0,0,0,0,0,0,0,0,0,-1,1588,687,0,0
371,337,0,0,0,0,0,0,0,0,0,-1,1595,687,0,0
378,337,0,0,0,0,0,0,0,0,0,-1,1602,687,0,0
385,337,0,0,0,0,0,0,0,0,0,-1,1609,687,0,0
392,337,0,0,0,0,0,0,0,0,0,-1,1616,687,0,0
399,337,0,0,0,0,0,0,0,0,0,-1,1623,687,0,0
406,337,0,0,0,0,0,0,0,0,0,-1,1630,687,0,0
413,337,0,0,0,0,0,0,0,0,0,-1,1637,687,0,0
420,337,0,0,0,0,0,0,0,0,0,-1,1644,687,0,0
427,337,0,0,0,0,0,0,0,0,0,-1,1651,687,0,0
434,337,0,0,0,0,0,0,0,0,0,-1,1658,687,0,0
441,337,0,0,0,0,0,0,0,0,0,-1,1665,687,0,0
448,337,0,0,0,0,0,0,0,0,0,-1,1672,687,0,0
455,337,0,0,0,0,0,0,0,0,0,-1,1679,687,0,0
462,337,0,0,0,0,0,0,0,0,0,-1,1686,687,0,0
469,337,0,0,0,0,0,0,0,0,0,-1,1693,687,0,0
476,337,0,0,0,0,0,0,0,0,0,-1,1700,687,0,0
483,337,0,0,0,0,0,0,0,0,0,-1,1707,687,0,0
490,337,0,0,0,0,0,0,0,0,0,-1,1714,687,0,0
497,337,0,0,0,0,0,0,0,0,0,-1,1721,687,0,0
504,337,0,0,0,0,0,0,0,0,0,-1,1728,687,0,0
511,337,0,0,0,0,0,0,0,0,0,-1,1735,687,0,0
518,337,18.0369,1.64581,0,0,0,0,0,0,0,-1,1742,687,18.0368,-1.64581
525,337,31.0717,2.13745,0,0,0,0,0,0,0,-1,1749,687,31.0717,-2.13747
532,337,31.5126,2.13904,0,0,0,0,0,0,0,-1,1756,687,31.5125,-2.13905
539,337,31.9684,2.15594,0,0,0,0,0,0,0,-1,1763,687,31.9684,-2.15596
546,337,32.3584,1.43719,0,0,0,0,0,0,0,-1,1770,687,32.3585,-1.43722
553,337,32.1809,1.36395,0,0,0,0,0,0,0,-1,1777,687,32.181,-1.36396
560,337,18.4053,3.62793,0,0,0,0,0,0,0,-1,1784,687,18.4052,-3.6279
567,337,11.9288,1.38776,0,0,0,0,0,0,0,-1,1791,687,11.9288,-1.38777
574,337,10.704,1.19476,0,0,0,0,0,0,0,-1,1798,687,10.704,-1.19478
581,337,8.50427,0.561768,0,0,0,0,0,0,0,-1,1805,687,8.5043,-0.561754
588,337,8.5885,-0.0536499,0,0,0,0,0,0,0,-1,1812,687,8.58844,0.0536788
595,337,38.1554,-13.1078,0,0,0,0,0,0,0,-1,1819,687,38.1554,13.1078
602,337,38.3325,-11.9659,0.000430771,-0.00131132,-0.000519644,0.000573999,-0.00145454,-0.268949,0.0012074,0.0469194,1826,687,38.3326,11.9659
609,337,38.2758,-11.1008,0.000828133,-0.00106877,-0.00026715,0.000865039,-0.00110567,-0.137279,0.00114061,0.0228759,1833,687,38.2758,11.1008
616,337,38.1992,-10.2076,0.00100889,-0.0007358,1.4639e-05,0.00100902,-0.000735923,0.00838978,0.00101154,0.0180139,1840,687,38.1992,10.2076
623,337,38.1654,-9.34619,0.00111254,-0.000299979,0.000228018,0.00114844,-0.000335875,0.156144,0.000898752,0.0153889,1847,687,38.1654,9.34618
630,337,38.1296,-8.4975,0.0012475,0.00021051,0.000499519,0.00144897,9.03505e-06,0.383381,0.000962983,0.0195433,1854,687,38.1296,8.49749
637,337,38.0895,-7.58618,0.00138935,0.000765607,0.000765627,0.00190419,0.00025077,0.591987,0.00119468,0.0188847,1861,687,38.0895,7.58618
644,337,38.0164,-6.66559,0.00154336,0.00138518,0.00103953,0.0025068,0.000421736,0.747432,0.00154987,0.0123735,1868,687,38.0163,6.66556
651,337,37.9402,-5.79224,0.0017446,0.00209577,0.00134931,0.00328087,0.000559496,0.850099,0.00202666,0.0110655,1875,687,37.9402,5.79225
658,337,37.9154,-4.90204,0.00199941,0.00288982,0.00170364,0.00420547,0.000683761,0.913202,0.0026058,0.0138831,1882,687,37.9154,4.90201
665,337,37.9081,-4.02203,0.0025005,0.00377151,0.00213369,0.00536233,0.000909678,0.930137,0.00331355,0.0178247,1889,687,37.9081,4.02202
672,337,37.9248,-3.11993,0,0,0,0,0,0,0,-1,1896,687,37.9248,3.11993
679,337,37.5571,-2.21075,0,0,0,0,0,0,0,-1,1903,687,37.5571,2.21078
686,337,18.5614,1.68597,0,0,0,0,0,0,0,-1,1910,687,18.5614,-1.68598
693,337,16.5415,2.21411,0,0,0,0,0,0,0,-1,1917,687,16.5415,-2.2141
700,337,17.2661,2.44379,0,0,0,0,0,0,0,-1,1924,687,17.2661,-2.44378
707,337,17.3544,5.61853,0,0,0,0,0,0,0,-1,1931,687,17.3543,-5.61851
714,337,0,0,0,0,0,0,0,0,0,-1,1938,687,0,0
721,337,0,0,0,0,0,0,0,0,0,-1,1945,687,0,0
728,337,0,0,0,0,0,0,0,0,0,-1,1952,687,0,0
735,337,0,0,0,0,0,0,0,0,0,-1,1959,687,0,0
742,337,0,0,0,0,0,0,0,0,0,-1,1966,687,0,0
749,337,0,0,0,0,0,0,0,0,0,-1,1973,687,0,0
756,337,0,0,0,0,0,0,0,0,0,-1,1980,687,0,0
763,337,0,0,0,0,0,0,0,0,0,-1,1987,687,0,0
770,337,0,0,0,0,0,0,0,0,0,-1,1994,687,0,0
777,337,0,0,0,0,0,0,0,0,0,-1,2001,687,0,0
784,337,0,0,0,0,0,0,0,0,0,-1,2008,687,0,0
791,337,0,0,0,0,0,0,0,0,0,-1,2015,687,0,0
798,337,0,0,0,0,0,0,0,0,0,-1,2022,687,0,0
805,337,0,0,0,0,0,0,0,0,0,-1,2029,687,0,0
812,337,0,0,0,0,0,0,0,0,0,-1,2036,687,0,0
-700,330,0,0,0,0,0,0,0,0,0,-1,524,694,0,0
-693,330,0,0,0,0,0,0,0,0,0,-1,531,694,0,0
-686,330,0,0,0,0,0,0,0,0,0,-1,538,694,0,0
-679,330,0,0,0,0,0,0,0,0,0,-1,545,694,0,0
-672,330,0,0,0,0,0,0,0,0,0,-1,552,694,0,0
-665,330,0,0,0,0,0,0,0,0,0,-1,559,694,0,0
-658,330,0,0,0,0,0,0,0,0,0,-1,566,694,0,0
-651,330,0,0,0,0,0,0,0,0,0,-1,573,694,0,0
-644,330,0,0,0,0,0,0,0,0,0,-1,580,694,0,0
-637,330,0,0,0,0,0,0,0,0,0,-1,587,694,0,0
-630,330,0,0,0,0,0,0,0,0,0,-1,594,694,0,0
-623,330,0,0,0,0,0,0,0,0,0,-1,601,694,0,0
-616,330,0,0,0,0,0,0,0,0,0,-1,608,694,0,0
-609,330,0,0,0,0,0,0,0,0,0,-1,615,694,0,0
-602,330,0,0,0,0,0,0,0,0,0,-1,622,694,0,0
-595,330,-4.67883,1.65515,0,0,0,0,0,0,0,-1,629,694,-4.67881,-1.65515
-588,330,-8.5047,2.67346,0,0,0,0,0,0,0,-1,636,694,-8.50469,-2.67348
-581,330,-12.4227,0.947083,0,0,0,0,0,0,0,-1,643,694,-12.4227,-0.947109
-574,330,-9.02118,1.87952,0,0,0,0,0,0,0,-1,650,694,-9.02115,-1.87953
-567,330,-8.35577,0.909973,0,0,0,0,0,0,0,-1,657,694,-8.35575,-0.909945
-560,330,-13.1036,-0.584656,0,0,0,0,0,0,0,-1,664,694,-13.1035,0.584658
-553,330,-17.5484,-1.21545,0,0,0,0,0,0,0,-1,671,694,-17.5484,1.21547
-546,330,-23.8228,-3.6449,0,0,0,0,0,0,0,-1,678,694,-23.8228,3.64487
-539,330,-24.2157,-4.69385,0,0,0,0,0,0,0,-1,685,694,-24.2157,4.69386
-532,330,-24.1818,-5.66486,0.00292939,0.00310731,-0.00297921,0.00599888,3.78105e-05,-0.800324,0.00398671,0.0259375,692,694,-24.1818,5.66483
-525,330,-24.1532,-6.61584,0.00255588,0.0018359,-0.00208291,0.00430968,8.20979e-05,-0.699829,0.00284615,0.0113182,699,694,-24.1532,6.61582
-518,330,-24.1746,-7.46045,0.00221581,0.000796334,-0.00126713,0.00295843,5.37115e-05,-0.530111,0.00195463,0.0150105,706,694,-24.1746,7.46043
-511,330,-24.233,-8.34558,0.00189676,-1.64383e-05,-0.000598659,0.00206864,-0.000188323,-0.279595,0.00144596,0.0204807,713,694,-24.2331,8.34559
-504,330,-24.2687,-9.23462,0.00156245,-0.000644967,-2.03393e-05,0.00156264,-0.000645155,-0.00921301,0.00131085,0.019126,720,694,-24.2687,9.23459
-497,330,-24.3315,-10.081,0.00132087,-0.0010888,0.000413626,0.00138989,-0.00115782,0.165349,0.00147296,0.0144124,727,694,-24.3315,10.081
-490,330,-24.3773,-10.9659,0.00121741,-0.00131171,0.000630163,0.00136572,-0.00146003,0.231154,0.00163175,0.0149445,734,694,-24.3773,10.9659
-483,330,-24.392,-11.8642,0.00118021,-0.00128807,0.000650596,0.0013412,-0.00144905,0.242572,0.00161135,0.0157303,741,694,-24.392,11.8642
-476,330,-24.3855,-12.7743,0,0,0,0,0,0,0,-1,748,694,-24.3855,12.7743
-469,330,-16.1478,-9.23303,0,0,0,0,0,0,0,-1,755,694,-16.1478,9.23301
-462,330,-7.26733,-3.84833,0,0,0,0,0,0,0,-1,762,694,-7.26731,3.84832
-455,330,-5.04254,-1.79303,0,0,0,0,0,0,0,-1,769,694,-5.04252,1.79305
-448,330,-4.89886,-1.66156,0,0,0,0,0,0,0,-1,776,694,-4.89886,1.66157
-441,330,-5.30676,-2.34045,0,0,0,0,0,0,0,-1,783,694,-5.30679,2.34048
-434,330,-7.20428,1.00024,0,0,0,0,0,0,0,-1,790,694,-7.20431,-1.00027
-427,330,-16.0428,2.89258,0,0,0,0,0,0,0,-1,797,694,-16.0428,-2.89259
-420,330,-29.0331,0.271606,0,0,0,0,0,0,0,-1,804,694,-29.0331,-0.27158
-413,330,-29.0896,0.56366,0,0,0,0,0,0,0,-1,811,694,-29.0896,-0.563671
-406,330,-1.65375,-1.74371,0,0,0,0,0,0,0,-1,818,694,-1.65375,1.74371
-399,330,0,0,0,0,0,0,0,0,0,-1,825,694,0,0
-392,330,0,0,0,0,0,0,0,0,0,-1,832,694,0,0
-385,330,0,0,0,0,0,0,0,0,0,-1,839,694,0,0
-378,330,0,0,0,0,0,0,0,0,0,-1,846,694,0,0
-371,330,0,0,0,0,0,0,0,0,0,-1,853,694,0,0
-364,330,0,0,0,0,0,0,0,0,0,-1,860,694,0,0
-357,330,0,0,0,0,0,0,0,0,0,-1,867,694,0,0
-350,330,0,0,0,0,0,0,0,0,0,-1,874,694,0,0
-343,330,0,0,0,0,0,0,0,0,0,-1,881,694,0,0
-336,330,0,0,0,0,0,0,0,0,0,-1,888,694,0,0
-329,330,0,0,0,0,0,0,0,0,0,-1,895,694,0,0
-322,330,0,0,0,0,0,0,0,0,0,-1,902,694,0,0
-315,330,0,0,0,0,0,0,0,0,0,-1,909,694,0,0
-308,330,0,0,0,0,0,0,0,0,0,-1,916,694,0,0
-301,330,0,0,0,0,0,0,0,0,0,-1,923,694,0,0
-294,330,0,0,0,0,0,0,0,0,0,-1,930,694,0,0
-287,330,0,0,0,0,0,0,0,0,0,-1,937,694,0,0
-280,330,0,0,0,0,0,0,0,0,0,-1,944,694,0,0
-273,330,0,0,0,0,0,0,0,0,0,-1,951,694,0,0
-266,330,0,0,0,0,0,0,0,0,0,-1,958,694,0,0
-259,330,0,0,0,0,0,0,0,0,0,-1,965,694,0,0
-252,330,0,0,0,0,0,0,0,0,0,-1,972,694,0,0
-245,330,0,0,0,0,0,0,0,0,0,-1,979,694,0,0
-238,330,0,0,0,0,0,0,0,0,0,-1,986,694,0,0
-231,330,0,0,0,0,0,0,0,0,0,-1,993,694,0,0
-224,330,0,0,0,0,0,0,0,0,0,-1,1000,694,0,0
-217,330,0,0,0,0,0,0,0,0,0,-1,1007,694,0,0
-210,330,0,0,0,0,0,0,0,0,0,-1,1014,694,0,0
-203,330,0,0,0,0,0,0,0,0,0,-1,1021,694,0,0
-196,330,0,0,0,0,0,0,0,0,0,-1,1028,694,0,0
-189,330,0,0,0,0,0,0,0,0,0,-1,1035,694,0,0
-182,330,0,0,0,0,0,0,0,0,0,-1,1042,694,0,0
-175,330,0,0,0,0,0,0,0,0,0,-1,1049,694,0,0
-168,330,0,0,0,0,0,0,0,0,0,-1,1056,694,0,0
-161,330,0,0,0,0,0,0,0,0,0,-1,1063,694,0,0
-154,330,0,0,0,0,0,0,0,0,0,-1,1070,694,0,0
-147,330,0,0,0,0,0,0,0,0,0,-1,1077,694,0,0
-140,330,0,0,0,0,0,0,0,0,0,-1,1084,694,0,0
-133,330,0,0,0,0,0,0,0,0,0,-1,1091,694,0,0
-126,330,0,0,0,0,0,0,0,0,0,-1,1098,694,0,0
-119,330,0,0,0,0,0,0,0,0,0,-1,1105,694,0,0
-112,330,0,0,0,0,0,0,0,0,0,-1,1112,694,0,0
-105,330,0,0,0,0,0,0,0,0,0,-1,1119,694,0,0
-98,330,0,0,0,0,0,0,0,0,0,-1,1126,694,0,0
-91,330,0,0,0,0,0,0,0,0,0,-1,1133,694,0,0
-84,330,0,0,0,0,0,0,0,0,0,-1,1140,694,0,0
-77,330,0,0,0,0,0,0,0,0,0,-1,1147,694,0,0
-70,330,0,0,0,0,0,0,0,0,0,-1,1154,694,0,0
-63,330,0,0,0,0,0,0,0,0,0,-1,1161,694,0,0
-56,330,0,0,0,0,0,0,0,0,0,-1,1168,694,0,0
-49,330,0,0,0,0,0,0,0,0,0,-1,1175,694,0,0
-42,330,0,0,0,0,0,0,0,0,0,-1,1182,694,0,0
-35,330,0,0,0,0,0,0,0,0,0,-1,1189,694,0,0
-28,330,0,0,0,0,0,0,0,0,0,-1,1196,694,0,0
-21,330,0,0,0,0,0,0,0,0,0,-1,1203,694,0,0
-14,330,0,0,0,0,0,0,0,0,0,-1,1210,694,0,0
-7,330,0,0,0,0,0,0,0,0,0,-1,1217,694,0,0
0,330,0,0,0,0,0,0,0,0,0,-1,1224,694,0,0
7,330,0,0,0,0,0,0,0,0,0,-1,1231,694,0,0
14,330,0,0,0,0,0,0,0,0,0,-1,1238,694,0,0
21,330,0,0,0,0,0,0,0,0,0,-1,1245,694,0,0
28,330,0,0,0,0,0,0,0,0,0,-1,1252,694,0,0
35,330,0,0,0,0,0,0,0,0,0,-1,1259,694,0,0
42,330,0,0,0,0,0,0,0,0,0,-1,1266,694,0,0
49,330,0,0,0,0,0,0,0,0,0,-1,1273,694,0,0
56,330,0,0,0,0,0,0,0,0,0,-1,1280,694,0,0
63,330,0,0,0,0,0,0,0,0,0,-1,1287,694,0,0
70,330,0,0,0,0,0,0,0,0,0,-1,1294,694,0,0
77,330,0,0,0,0,0,0,0,0,0,-1,1301,694,0,0
84,330,0,0,0,0,0,0,0,0,0,-1,1308,694,0,0
91,330,0,0,0,0,0,0,0,0,0,-1,1315,694,0,0
98,330,0,0,0,0,0,0,0,0,0,-1,1322,694,0,0
105,330,0,0,0,0,0,0,0,0,0,-1,1329,694,0,0
112,330,0,0,0,0,0,0,0,0,0,-1,1336,694,0,0
119,330,0,0,0,0,0,0,0,0,0,-1,1343,694,0,0
126,330,0,0,0,0,0,0,0,0,0,-1,1350,694,0,0
133,330,0,0,0,0,0,0,0,0,0,-1,1357,694,0,0
140,330,0,0,0,0,0,0,0,0,0,-1,1364,694,0,0
147,330,0,0,0,0,0,0,0,0,0,-1,1371,694,0,0
154,330,0,0,0,0,0,0,0,0,0,-1,1378,694,0,0
161,330,0,0,0,0,0,0,0,0,0,-1,1385,694,0,0
168,330,0,0,0,0,0,0,0,0,0,-1,1392,694,0,0
175,330,0,0,0,0,0,0,0,0,0,-1,1399,694,0,0
182,330,0,0,0,0,0,0,0,0,0,-1,1406,694,0,0
189,330,0,0,0,0,0,0,0,0,0,-1,1413,694,0,0
196,330,0,0,0,0,0,0,0,0,0,-1,1420,694,0,0
203,330,0,0,0,0,0,0,0,0,0,-1,1427,694,0,0
210,330,0,0,0,0,0,0,0,0,0,-1,1434,694,0,0
217,330,0,0,0,0,0,0,0,0,0,-1,1441,694,0,0
224,330,0,0,0,0,0,0,0,0,0,-1,1448,694,0,0
231,330,0,0,0,0,0,0,0,0,0,-1,1455,694,0,0
238,330,0,0,0,0,0,0,0,0,0,-1,1462,694,0,0
245,330,0,0,0,0,0,0,0,0,0,-1,1469,694,0,0
252,330,0,0,0,0,0,0,0,0,0,-1,1476,694,0,0
259,330,0,0,0,0,0,0,0,0,0,-1,1483,694,0,0
266,330,0,0,0,0,0,0,0,0,0,-1,1490,694,0,0
273,330,0,0,0,0,0,0,0,0,0,-1,1497,694,0,0
280,330,0,0,0,0,0,0,0,0,0,-1,1504,694,0,0
287,330,0,0,0,0,0,0,0,0,0,-1,1511,694,0,0
294,330,0,0,0,0,0,0,0,0,0,-1,1518,694,0,0
301,330,0,0,0,0,0,0,0,0,0,-1,1525,694,0,0
308,330,0,0,0,0,0,0,0,0,0,-1,1532,694,0,0
315,330,0,0,0,0,0,0,0,0,0,-1,1539,694,0,0
322,330,0,0,0,0,0,0,0,0,0,-1,1546,694,0,0
329,330,0,0,0,0,0,0,0,0,0,-1,1553,694,0,0
336,330,0,0,0,0,0,0,0,0,0,-1,1560,694,0,0
343,330,0,0,0,0,0,0,0,0,0,-1,1567,694,0,0
350,330,0,0,0,0,0,0,0,0,0,-1,1574,694,0,0
357,330,0,0,0,0,0,0,0,0,0,-1,1581,694,0,0
364,330,0,0,0,0,0,0,0,0,0,-1,1588,694,0,0
371,330,0,0,0,0,0,0,0,0,0,-1,1595,694,0,0
378,330,0,0,0,0,0,0,0,0,0,-1,1602,694,0,0
385,330,0,0,0,0,0,0,0,0,0,-1,1609,694,0,0
392,330,0,0,0,0,0,0,0,0,0,-1,1616,694,0,0
399,330,0,0,0,0,0,0,0,0,0,-1,1623,694,0,0
406,330,0,0,0,0,0,0,0,0,0,-1,1630,694,0,0
413,330,0,0,0,0,0,0,0,0,0,-1,1637,694,0,0
420,330,0,0,0,0,0,0,0,0,0,-1,1644,694,0,0
427,330,0,0,0,0,0,0,0,0,0,-1,1651,694,0,0
434,330,0,0,0,0,0,0,0,0,0,-1,1658,694,0,0
441,330,0,0,0,0,0,0,0,0,0,-1,1665,694,0,0
448,330,0,0,0,0,0,0,0,0,0,-1,1672,694,0,0
455,330,0,0,0,0,0,0,0,0,0,-1,1679,694,0,0
462,330,0,0,0,0,0,0,0,0,0,-1,1686,694,0,0
469,330,0,0,0,0,0,0,0,0,0,-1,1693,694,0,0
476,330,0,0,0,0,0,0,0,0,0,-1,1700,694,0,0
483,330,0,0,0,0,0,0,0,0,0,-1,1707,694,0,0
490,330,0,0,0,0,0,0,0,0,0,-1,1714,694,0,0
497,330,0,0,0,0,0,0,0,0,0,-1,1721,694,0,0
504,330,0,0,0,0,0,0,0,0,0,-1,1728,694,0,0
511,330,0,0,0,0,0,0,0,0,0,-1,1735,694,0,0
518,330,0,0,0,0,0,0,0,0,0,-1,1742,694,0,0
525,330,30.6694,0.69519,0,0,0,0,0,0,0,-1,1749,694,30.6694,-0.695206
532,330,30.9469,1.32501,0,0,0,0,0,0,0,-1,1756,694,30.9469,-1.32501
539,330,31.5155,1.62506,0,0,0,0,0,0,0,-1,1763,694,31.5155,-1.62507
546,330,31.4187,1.85651,0,0,0,0,0,0,0,-1,1770,694,31.4187,-1.85651
553,330,31.8452,1.81476,0,0,0,0,0,0,0,-1,1777,694,31.8452,-1.81475
560,330,32.2401,2.43225,0,0,0,0,0,0,0,-1,1784,694,32.2401,-2.43227
567,330,18.0321,3.98578,0,0,0,0,0,0,0,-1,1791,694,18.0321,-3.98576
574,330,12.0454,2.1662,0,0,0,0,0,0,0,-1,1798,694,12.0455,-2.16618
581,330,11.4215,4.50836,0,0,0,0,0,0,0,-1,1805,694,11.4215,-4.50837
588,330,6.45667,-0.0630493,0,0,0,0,0,0,0,-1,1812,694,6.45661,0.0630695
595,330,8.23193,-0.258484,0,0,0,0,0,0,0,-1,1819,694,8.23188,0.258459
602,330,39.0046,-12.0238,0,0,0,0,0,0,0,-1,1826,694,39.0046,12.0238
609,330,39.0844,-11.0811,0.00119138,-0.00150824,-0.000231257,0.00121104,-0.00152791,-0.084839,0.00158486,0.0285215,1833,694,39.0844,11.0811
616,330,39.0992,-10.1829,0.00123374,-0.00120094,1.52493e-05,0.00123383,-0.00120104,0.00626304,0.00140582,0.0120088,1840,694,39.0992,10.1829
623,330,39.0482,-9.30762,0.00117327,-0.000758843,0.000159531,0.00118636,-0.000771926,0.0818296,0.00113902,0.0138402,1847,694,39.0482,9.30761
630,330,39.0134,-8.42468,0.00120269,-0.000265268,0.000379385,0.00129495,-0.00035752,0.238533,0.00100392,0.0140903,1854,694,39.0134,8.42471
637,330,38.9691,-7.51263,0.00127053,0.000284649,0.00061179,0.00156326,-8.08079e-06,0.446285,0.00104488,0.0149721,1861,694,38.9692,7.51262
644,330,38.8971,-6.617,0.00137608,0.000903046,0.000871869,0.00204294,0.000236184,0.652948,0.00129046,0.0100543,1868,694,38.8971,6.61703
651,330,38.861,-5.7359,0.00153955,0.00160027,0.00117071,0.00274101,0.000398804,0.798362,0.00170998,0.0128747,1875,694,38.861,5.73593
658,330,38.7947,-4.85553,0.00179515,0.00238573,0.00153482,0.00365341,0.000527472,0.880435,0.00228021,0.0141512,1882,694,38.7947,4.85552
665,330,38.7062,-3.97595,0.00226115,0.00326391,0.00198642,0.00481125,0.000713812,0.909018,0.00299803,0.0129854,1889,694,38.7062,3.97596
672,330,38.7703,-3.05225,0.00292792,0.00430518,0.002471,0.00618171,0.00105139,0.921292,0.00381922,0.0378375,1896,694,38.7703,3.05226
679,330,38.9563,-2.047,0,0,0,0,0,0,0,-1,1903,694,38.9563,2.047
686,330,30.6691,0.582825,0,0,0,0,0,0,0,-1,1910,694,30.6691,-0.582798
693,330,17.3999,2.5976,0,0,0,0,0,0,0,-1,1917,694,17.4,-2.59759
700,330,17.1072,4.13,0,0,0,0,0,0,0,-1,1924,694,17.1071,-4.13002
707,330,16.663,4.88672,0,0,0,0,0,0,0,-1,1931,694,16.6629,-4.88673
714,330,16.5454,5.80896,0,0,0,0,0,0,0,-1,1938,694,16.5454,-5.80899
721,330,0,0,0,0,0,0,0,0,0,-1,1945,694,0,0
728,330,0,0,0,0,0,0,0,0,0,-1,1952,694,0,0
735,330,0,0,0,0,0,0,0,0,0,-1,1959,694,0,0
742,330,0,0,0,0,0,0,0,0,0,-1,1966,694,0,0
749,330,0,0,0,0,0,0,0,0,0,-1,1973,694,0,0
756,330,0,0,0,0,0,0,0,0,0,-1,1980,694,0,0
763,330,0,0,0,0,0,0,0,0,0,-1,1987,694,0,0
770,330,0,0,0,0,0,0,0,0,0,-1,1994,694,0,0
777,330,0,0,0,0,0,0,0,0,0,-1,2001,694,0,0
784,330,0,0,0,0,0,0,0,0,0,-1,2008,694,0,0
791,330,0,0,0,0,0,0,0,0,0,-1,2015,694,0,0
798,330,0,0,0,0,0,0,0,0,0,-1,2022,694,0,0
805,330,0,0,0,0,0,0,0,0,0,-1,2029,694,0,0
812,330,0,0,0,0,0,0,0,0,0,-1,2036,694,0,0
-700,323,0,0,0,0,0,0,0,0,0,-1,524,701,0,0
-693,323,0,0,0,0,0,0,0,0,0,-1,531,701,0,0
-686,323,0,0,0,0,0,0,0,0,0,-1,538,701,0,0
-679,323,0,0,0,0,0,0,0,0,0,-1,545,701,0,0
-672,323,0,0,0,0,0,0,0,0,0,-1,552,701,0,0
-665,323,0,0,0,0,0,0,0,0,0,-1,559,701,0,0
-658,323,0,0,0,0,0,0,0,0,0,-1,566,701,0,0
-651,323,0,0,0,0,0,0,0,0,0,-1,573,701,0,0
-644,323,0,0,0,0,0,0,0,0,0,-1,580,701,0,0
-637,323,0,0,0,0,0,0,0,0,0,-1,587,701,0,0
-630,323,0,0,0,0,0,0,0,0,0,-1,594,701,0,0
-623,323,0,0,0,0,0,0,0,0,0,-1,601,701,0,0
-616,323,0,0,0,0,0,0,0,0,0,-1,608,701,0,0
-609,323,0,0,0,0,0,0,0,0,0,-1,615,701,0,0
-602,323,-4.15833,2.12256,0,0,0,0,0,0,0,-1,622,701,-4.1583,-2.12257
-595,323,-4.052,1.79156,0,0,0,0,0,0,0,-1,629,701,-4.05198,-1.79158
-588,323,-4.07019,1.94543,0,0,0,0,0,0,0,-1,636,701,-4.07019,-1.94542
-581,323,-6.63727,0.562805,0,0,0,0,0,0,0,-1,643,701,-6.63728,-0.56279
-574,323,-6.15887,0.426697,0,0,0,0,0,0,0,-1,650,701,-6.15887,-0.426727
-567,323,-10.0015,0.0371094,0,0,0,0,0,0,0,-1,657,701,-10.0015,-0.037126
-560,323,-16.3503,-1.16956,0,0,0,0,0,0,0,-1,664,701,-16.3503,1.16957
-553,323,-24.9304,-3.19781,0,0,0,0,0,0,0,-1,671,701,-24.9303,3.19781
-546,323,-24.8827,-3.92084,0,0,0,0,0,0,0,-1,678,701,-24.8827,3.92081
-539,323,-24.8766,-4.67786,0.00250142,0.00377564,-0.00297651,0.00618246,9.46021e-05,-0.89083,0.00409047,0.0303493,685,701,-24.8766,4.67784
-532,323,-24.9734,-5.61603,0.00238964,0.00254906,-0.00228686,0.0047576,0.000181105,-0.802819,0.00311312,0.0130343,692,701,-24.9734,5.61603
-525,323,-25.0281,-6.52405,0.00215883,0.00145459,-0.00156992,0.00341563,0.000197789,-0.675079,0.00221411,0.00859827,699,701,-25.0281,6.52406
-518,323,-25.0682,-7.40045,0.00192,0.000526552,-0.000892956,0.00235589,9.06719e-05,-0.454108,0.00154126,0.010237,706,701,-25.0682,7.40045
-511,323,-25.1172,-8.27606,0.00159686,-0.000244703,-0.000296006,0.00164327,-0.000291112,-0.155519,0.00120434,0.0138382,713,701,-25.1173,8.27603
-504,323,-25.185,-9.11444,0.0012143,-0.000874291,0.000269102,0.00124841,-0.000908406,0.126101,0.00125039,0.0154073,720,701,-25.185,9.11443
-497,323,-25.2401,-9.9826,0.000927888,-0.00133708,0.000715476,0.00113497,-0.00154416,0.281729,0.00155279,0.0125395,727,701,-25.2401,9.98264
-490,323,-25.2911,-10.8953,0.000814091,-0.00160664,0.000974674,0.00115774,-0.00195029,0.338974,0.00181377,0.0143608,734,701,-25.2911,10.8953
-483,323,-25.2915,-11.7519,0.000744317,-0.00159155,0.00106594,0.00115761,-0.00200484,0.369886,0.00184756,0.0331709,741,701,-25.2915,11.7519
-476,323,-25.2678,-12.6328,0,0,0,0,0,0,0,-1,748,701,-25.2678,12.6327
-469,323,-8.33301,-3.64001,0,0,0,0,0,0,0,-1,755,701,-8.33298,3.64
-462,323,-5.29431,-1.45697,0,0,0,0,0,0,0,-1,762,701,-5.29431,1.45699
-455,323,-5.0658,-1.36639,0,0,0,0,0,0,0,-1,769,701,-5.06578,1.3664
-448,323,-4.91608,-1.59601,0,0,0,0,0,0,0,-1,776,701,-4.91606,1.59604
-441,323,-14.4006,0.535217,0,0,0,0,0,0,0,-1,783,701,-14.4006,-0.535203
-434,323,-15.3158,2.479,0,0,0,0,0,0,0,-1,790,701,-15.3158,-2.47898
-427,323,-28.3923,1.16797,0,0,0,0,0,0,0,-1,797,701,-28.3923,-1.16796
-420,323,-28.7292,1.09302,0,0,0,0,0,0,0,-1,804,701,-28.7292,-1.09304
-413,323,-28.7955,1.22418,0,0,0,0,0,0,0,-1,811,701,-28.7956,-1.22419
-406,323,0,0,0,0,0,0,0,0,0,-1,818,701,0,0
-399,323,0,0,0,0,0,0,0,0,0,-1,825,701,0,0
-392,323,0,0,0,0,0,0,0,0,0,-1,832,701,0,0
-385,323,0,0,0,0,0,0,0,0,0,-1,839,701,0,0
-378,323,0,0,0,0,0,0,0,0,0,-1,846,701,0,0
-371,323,0,0,0,0,0,0,0,0,0,-1,853,701,0,0
-364,323,0,0,0,0,0,0,0,0,0,-1,860,701,0,0
-357,323,0,0,0,0,0,0,0,0,0,-1,867,701,0,0
-350,323,0,0,0,0,0,0,0,0,0,-1,874,701,0,0
-343,323,0,0,0,0,0,0,0,0,0,-1,881,701,0,0
-336,323,0,0,0,0,0,0,0,0,0,-1,888,701,0,0
-329,323,0,0,0,0,0,0,0,0,0,-1,895,701,0,0
-322,323,0,0,0,0,0,0,0,0,0,-1,902,701,0,0
-315,323,0,0,0,0,0,0,0,0,0,-1,909,701,0,0
-308,323,0,0,0,0,0,0,0,0,0,-1,916,701,0,0
-301,323,0,0,0,0,0,0,0,0,0,-1,923,701,0,0
-294,323,0,0,0,0,0,0,0,0,0,-1,930,701,0,0
-287,323,0,0,0,0,0,0,0,0,0,-1,937,701,0,0
-280,323,0,0,0,0,0,0,0,0,0,-1,944,701,0,0
-273,323,0,0,0,0,0,0,0,0,0,-1,951,701,0,0
-266,323,0,0,0,0,0,0,0,0,0,-1,958,701,0,0
-259,323,0,0,0,0,0,0,0,0,0,-1,965,701,0,0
-252,323,0,0,0,0,0,0,0,0,0,-1,972,701,0,0
-245,323,0,0,0,0,0,0,0,0,0,-1,979,701,0,0
-238,323,0,0,0,0,0,0,0,0,0,-1,986,701,0,0
-231,323,0,0,0,0,0,0,0,0,0,-1,993,701,0,0
-224,323,0,0,0,0,0,0,0,0,0,-1,1000,701,0,0
-217,323,0,0,0,0,0,0,0,0,0,-1,1007,701,0,0
-210,323,0,0,0,0,0,0,0,0,0,-1,1014,701,0,0
-203,323,0,0,0,0,0,0,0,0,0,-1,1021,701,0,0
-196,323,0,0,0,0,0,0,0,0,0,-1,1028,701,0,0
-189,323,0,0,0,0,0,0,0,0,0,-1,1035,701,0,0
-182,323,0,0,0,0,0,0,0,0,0,-1,1042,701,0,0
-175,323,0,0,0,0,0,0,0,0,0,-1,1049,701,0,0
-168,323,0,0,0,0,0,0,0,0,0,-1,1056,701,0,0
-161,323,0,0,0,0,0,0,0,0,0,-1,1063,701,0,0
-154,323,0,0,0,0,0,0,0,0,0,-1,1070,701,0,0
-147,323,0,0,0,0,0,0,0,0,0,-1,1077,701,0,0
-140,323,0,0,0,0,0,0,0,0,0,-1,1084,701,0,0
-133,323,0,0,0,0,0,0,0,0,0,-1,1091,701,0,0
-126,323,0,0,0,0,0,0,0,0,0,-1,1098,701,0,0
-119,323,0,0,0,0,0,0,0,0,0,-1,1105,701,0,0
-112,323,0,0,0,0,0,0,0,0,0,-1,1112,701,0,0
-105,323,0,0,0,0,0,0,0,0,0,-1,1119,701,0,0
-98,323,0,0,0,0,0,0,0,0,0,-1,1126,701,0,0
-91,323,0,0,0,0,0,0,0,0,0,-1,1133,701,0,0
-84,323,0,0,0,0,0,0,0,0,0,-1,1140,701,0,0
-77,323,0,0,0,0,0,0,0,0,0,-1,1147,701,0,0
-70,323,0,0,0,0,0,0,0,0,0,-1,1154,701,0,0
-63,323,0,0,0,0,0,0,0,0,0,-1,1161,701,0,0
-56,323,0,0,0,0,0,0,0,0,0,-1,1168,701,0,0
-49,323,0,0,0,0,0,0,0,0,0,-1,1175,701,0,0
-42,323,0,0,0,0,0,0,0,0,0,-1,1182,701,0,0
-35,323,0,0,0,0,0,0,0,0,0,-1,1189,701,0,0
-28,323,0,0,0,0,0,0,0,0,0,-1,1196,701,0,0
-21,323,0,0,0,0,0,0,0,0,0,-1,1203,701,0,0
-14,323,0,0,0,0,0,0,0,0,0,-1,1210,701,0,0
-7,323,0,0,0,0,0,0,0,0,0,-1,1217,701,0,0
0,323,0,0,0,0,0,0,0,0,0,-1,1224,701,0,0
7,323,0,0,0,0,0,0,0,0,0,-1,1231,701,0,0
14,323,0,0,0,0,0,0,0,0,0,-1,1238,701,0,0
21,323,0,0,0,0,0,0,0,0,0,-1,1245,701,0,0
28,323,0,0,0,0,0,0,0,0,0,-1,1252,701,0,0
35,323,0,0,0,0,0,0,0,0,0,-1,1259,701,0,0
42,323,0,0,0,0,0,0,0,0,0,-1,1266,701,0,0
49,323,0,0,0,0,0,0,0,0,0,-1,1273,701,0,0
56,323,0,0,0,0,0,0,0,0,0,-1,1280,701,0,0
63,323,0,0,0,0,0,0,0,0,0,-1,1287,701,0,0
70,323,0,0,0,0,0,0,0,0,0,-1,1294,701,0,0
77,323,0,0,0,0,0,0,0,0,0,-1,1301,701,0,0
84,323,0,0,0,0,0,0,0,0,0,-1,1308,701,0,0
91,323,0,0,0,0,0,0,0,0,0,-1,1315,701,0,0
98,323,0,0,0,0,0,0,0,0,0,-1,1322,701,0,0
105,323,0,0,0,0,0,0,0,0,0,-1,1329,701,0,0
112,323,0,0,0,0,0,0,0,0,0,-1,1336,701,0,0
119,323,0,0,0,0,0,0,0,0,0,-1,1343,701,0,0
126,323,0,0,0,0,0,0,0,0,0,-1,1350,701,0,0
133,323,0,0,0,0,0,0,0,0,0,-1,1357,701,0,0
140,323,0,0,0,0,0,0,0,0,0,-1,1364,701,0,0
147,323,0,0,0,0,0,0,0,0,0,-1,1371,701,0,0
154,323,0,0,0,0,0,0,0,0,0,-1,1378,701,0,0
161,323,0,0,0,0,0,0,0,0,0,-1,1385,701,0,0
168,323,0,0,0,0,0,0,0,0,0,-1,1392,701,0,0
175,323,0,0,0,0,0,0,0,0,0,-1,1399,701,0,0
182,323,0,0,0,0,0,0,0,0,0,-1,1406,701,0,0
189,323,0,0,0,0,0,0,0,0,0,-1,1413,701,0,0
196,323,0,0,0,0,0,0,0,0,0,-1,1420,701,0,0
203,323,0,0,0,0,0,0,0,0,0,-1,1427,701,0,0
210,323,0,0,0,0,0,0,0,0,0,-1,1434,701,0,0
217,323,0,0,0,0,0,0,0,0,0,-1,1441,701,0,0
224,323,0,0,0,0,0,0,0,0,0,-1,1448,701,0,0
231,323,0,0,0,0,0,0,0,0,0,-1,1455,701,0,0
238,323,0,0,0,0,0,0,0,0,0,-1,1462,701,0,0
245,323,0,0,0,0,0,0,0,0,0,-1,1469,701,0,0
252,323,0,0,0,0,0,0,0,0,0,-1,1476,701,0,0
259,323,0,0,0,0,0,0,0,0,0,-1,1483,701,0,0
266,323,0,0,0,0,0,0,0,0,0,-1,1490,701,0,0
273,323,0,0,0,0,0,0,0,0,0,-1,1497,701,0,0
280,323,0,0,0,0,0,0,0,0,0,-1,1504,701,0,0
287,323,0,0,0,0,0,0,0,0,0,-1,1511,701,0,0
294,323,0,0,0,0,0,0,0,0,0,-1,1518,701,0,0
301,323,0,0,0,0,0,0,0,0,0,-1,1525,701,0,0
308,323,0,0,0,0,0,0,0,0,0,-1,1532,701,0,0
315,323,0,0,0,0,0,0,0,0,0,-1,1539,701,0,0
322,323,0,0,0,0,0,0,0,0,0,-1,1546,701,0,0
329,323,0,0,0,0,0,0,0,0,0,-1,1553,701,0,0
336,323,0,0,0,0,0,0,0,0,0,-1,1560,701,0,0
343,323,0,0,0,0,0,0,0,0,0,-1,1567,701,0,0
350,323,0,0,0,0,0,0,0,0,0,-1,1574,701,0,0
357,323,0,0,0,0,0,0,0,0,0,-1,1581,701,0,0
364,323,0,0,0,0,0,0,0,0,0,-1,1588,701,0,0
371,323,0,0,0,0,0,0,0,0,0,-1,1595,701,0,0
378,323,0,0,0,0,0,0,0,0,0,-1,1602,701,0,0
385,323,0,0,0,0,0,0,0,0,0,-1,1609,701,0,0
392,323,0,0,0,0,0,0,0,0,0,-1,1616,701,0,0
399,323,0,0,0,0,0,0,0,0,0,-1,1623,701,0,0
406,323,0,0,0,0,0,0,0,0,0,-1,1630,701,0,0
413,323,0,0,0,0,0,0,0,0,0,-1,1637,701,0,0
420,323,0,0,0,0,0,0,0,0,0,-1,1644,701,0,0
427,323,0,0,0,0,0,0,0,0,0,-1,1651,701,0,0
434,323,0,0,0,0,0,0,0,0,0,-1,1658,701,0,0
441,323,0,0,0,0,0,0,0,0,0,-1,1665,701,0,0
448,323,0,0,0,0,0,0,0,0,0,-1,1672,701,0,0
455,323,0,0,0,0,0,0,0,0,0,-1,1679,701,0,0
462,323,0,0,0,0,0,0,0,0,0,-1,1686,701,0,0
469,323,0,0,0,0,0,0,0,0,0,-1,1693,701,0,0
476,323,0,0,0,0,0,0,0,0,0,-1,1700,701,0,0
483,323,0,0,0,0,0,0,0,0,0,-1,1707,701,0,0
490,323,0,0,0,0,0,0,0,0,0,-1,1714,701,0,0
497,323,0,0,0,0,0,0,0,0,0,-1,1721,701,0,0
504,323,0,0,0,0,0,0,0,0,0,-1,1728,701,0,0
511,323,0,0,0,0,0,0,0,0,0,-1,1735,701,0,0
518,323,0,0,0,0,0,0,0,0,0,-1,1742,701,0,0
525,323,0,0,0,0,0,0,0,0,0,-1,1749,701,0,0
532,323,33.6193,1.69446,0,0,0,0,0,0,0,-1,1756,701,33.6193,-1.69444
539,323,32.2698,2.44037,0,0,0,0,0,0,0,-1,1763,701,32.2697,-2.44036
546,323,31.1644,3.9444,0,0,0,0,0,0,0,-1,1770,701,31.1644,-3.94438
553,323,30.2488,5.8775,0,0,0,0,0,0,0,-1,1777,701,30.2487,-5.87752
560,323,40.6711,1.25153,0,0,0,0,0,0,0,-1,1784,701,40.6711,-1.25154
567,323,42.1637,2.01208,0,0,0,0,0,0,0,-1,1791,701,42.1637,-2.01207
574,323,12.514,5.89685,0,0,0,0,0,0,0,-1,1798,701,12.5141,-5.89683
581,323,11.821,5.3476,0,0,0,0,0,0,0,-1,1805,701,11.821,-5.34762
588,323,11.7933,7.00818,0,0,0,0,0,0,0,-1,1812,701,11.7933,-7.00819
595,323,6.67847,0.06604,0,0,0,0,0,0,0,-1,1819,701,6.67841,-0.0660418
602,323,39.7664,-11.8718,0,0,0,0,0,0,0,-1,1826,701,39.7664,11.8718
609,323,39.9395,-10.9852,0.00171791,-0.00166082,2.56264e-05,0.0017181,-0.00166102,0.00758404,0.00195103,0.0414814,1833,701,39.9394,10.9852
616,323,39.9823,-10.111,0.00165224,-0.00140893,0.00019948,0.00166518,-0.00142188,0.0647992,0.00178416,0.0140313,1840,701,39.9822,10.111
623,323,39.9283,-9.23413,0.0014415,-0.000990528,0.000241591,0.00146527,-0.00101429,0.0980602,0.00143945,0.0136705,1847,701,39.9284,9.23411
630,323,39.8882,-8.34955,0.00138405,-0.000553084,0.000376702,0.00145473,-0.00062376,0.185462,0.00123157,0.0137718,1854,701,39.8882,8.34953
637,323,39.8445,-7.45471,0.00137312,-5.29979e-05,0.000544598,0.0015573,-0.000237179,0.326121,0.00112562,0.0118148,1861,701,39.8445,7.45468
644,323,39.7795,-6.59406,0.00141192,0.000517276,0.000756465,0.00184342,8.57708e-05,0.518388,0.00120138,0.00957849,1868,701,39.7795,6.59407
651,323,39.7616,-5.69342,0.001503,0.00116016,0.00100996,0.00235598,0.000307174,0.701335,0.00147893,0.0130841,1875,701,39.7616,5.69345
658,323,39.6564,-4.78363,0.00166621,0.00192042,0.00132788,0.00312726,0.000459371,0.833113,0.00194984,0.0212065,1882,701,39.6564,4.78364
665,323,39.5527,-3.89655,0.00198766,0.00277141,0.00173559,0.00415881,0.000600258,0.896431,0.0025957,0.0171925,1889,701,39.5527,3.89654
672,323,39.5743,-2.94757,0.00242837,0.00378649,0.00219782,0.00540776,0.000807096,0.935231,0.00336853,0.0217669,1896,701,39.5743,2.94757
679,323,39.6322,-1.87244,0,0,0,0,0,0,0,-1,1903,701,39.6322,1.87242
686,323,30.4916,0.378235,0,0,0,0,0,0,0,-1,1910,701,30.4916,-0.37825
693,323,23.8806,1.08844,0,0,0,0,0,0,0,-1,1917,701,23.8806,-1.08845
700,323,10.7705,0.828613,0,0,0,0,0,0,0,-1,1924,701,10.7705,-0.828591
707,323,16.9005,4.79193,0,0,0,0,0,0,0,-1,1931,701,16.9005,-4.7919
714,323,16.2346,6.25958,0,0,0,0,0,0,0,-1,1938,701,16.2346,-6.25956
721,323,0,0,0,0,0,0,0,0,0,-1,1945,701,0,0
728,323,0,0,0,0,0,0,0,0,0,-1,1952,701,0,0
735,323,0,0,0,0,0,0,0,0,0,-1,1959,701,0,0
742,323,0,0,0,0,0,0,0,0,0,-1,1966,701,0,0
749,323,0,0,0,0,0,0,0,0,0,-1,1973,701,0,0
756,323,0,0,0,0,0,0,0,0,0,-1,1980,701,0,0
763,323,0,0,0,0,0,0,0,0,0,-1,1987,701,0,0
770,323,0,0,0,0,0,0,0,0,0,-1,1994,701,0,0
777,323,0,0,0,0,0,0,0,0,0,-1,2001,701,0,0
784,323,0,0,0,0,0,0,0,0,0,-1,2008,701,0,0
791,323,0,0,0,0,0,0,0,0,0,-1,2015,701,0,0
798,323,0,0,0,0,0,0,0,0,0,-1,2022,701,0,0
805,323,0,0,0,0,0,0,0,0,0,-1,2029,701,0,0
812,323,0,0,0,0,0,0,0,0,0,-1,2036,701,0,0
-700,316,0,0,0,0,0,0,0,0,0,-1,524,708,0,0
-693,316,0,0,0,0,0,0,0,0,0,-1,531,708,0,0
-686,316,0,0,0,0,0,0,0,0,0,-1,538,708,0,0
-679,316,0,0,0,0,0,0,0,0,0,-1,545,708,0,0
-672,316,0,0,0,0,0,0,0,0,0,-1,552,708,0,0
-665,316,0,0,0,0,0,0,0,0,0,-1,559,708,0,0
-658,316,0,0,0,0,0,0,0,0,0,-1,566,708,0,0
-651,316,0,0,0,0,0,0,0,0,0,-1,573,708,0,0
-644,316,0,0,0,0,0,0,0,0,0,-1,580,708,0,0
-637,316,0,0,0,0,0,0,0,0,0,-1,587,708,0,0
-630,316,0,0,0,0,0,0,0,0,0,-1,594,708,0,0
-623,316,0,0,0,0,0,0,0,0,0,-1,601,708,0,0
-616,316,0,0,0,0,0,0,0,0,0,-1,608,708,0,0
-609,316,0,0,0,0,0,0,0,0,0,-1,615,708,0,0
-602,316,-0.451782,-0.0494995,0,0,0,0,0,0,0,-1,622,708,-0.451768,0.0495022
-595,316,-3.3761,2.17188,0,0,0,0,0,0,0,-1,629,708,-3.37609,-2.17189
-588,316,-5.00177,2.60675,0,0,0,0,0,0,0,-1,636,708,-5.00175,-2.60676
-581,316,-3.94653,0.393433,0,0,0,0,0,0,0,-1,643,708,-3.94655,-0.39342
-574,316,-9.67395,1.06067,0,0,0,0,0,0,0,-1,650,708,-9.67396,-1.06065
-567,316,-10.1962,0.448425,0,0,0,0,0,0,0,-1,657,708,-10.1962,-0.448411
-560,316,-18.9941,-1.75067,0,0,0,0,0,0,0,-1,664,708,-18.9941,1.75068
-553,316,-25.6896,-2.78827,0,0,0,0,0,0,0,-1,671,708,-25.6896,2.78827
-546,316,-25.9426,-4.19672,0,0,0,0,0,0,0,-1,678,708,-25.9426,4.19674
-539,316,-25.7626,-4.71466,0.00169195,0.00330774,-0.00227945,0.00491823,8.14607e-05,-0.955703,0.00325201,0.015571,685,708,-25.7626,4.71463
-532,316,-25.8322,-5.57843,0.00178328,0.00213672,-0.00172201,0.00369105,0.000228942,-0.836531,0.00238805,0.0116681,692,708,-25.8322,5.57843
-525,316,-25.8802,-6.44098,0.00168104,0.00105238,-0.00111814,0.00252819,0.000205229,-0.648376,0.00162139,0.0103351,699,708,-25.8803,6.44099
-518,316,-25.913,-7.32562,0.0015319,0.000161748,-0.000508746,0.00170014,-6.49423e-06,-0.319379,0.0011356,0.0105094,706,708,-25.9129,7.32561
-511,316,-25.9767,-8.21375,0.0012339,-0.000622904,7.44518e-05,0.00123688,-0.000625884,0.0400112,0.00109458,0.0121706,713,708,-25.9767,8.21377
-504,316,-26.0644,-9.06976,0.00084415,-0.00131172,0.000671922,0.00103642,-0.00150399,0.278703,0.00147497,0.0156949,720,708,-26.0644,9.06977
-497,316,-26.1069,-9.91565,0.000553985,-0.00185212,0.00116919,0.00102853,-0.00232667,0.385563,0.00198487,0.0136602,727,708,-26.1069,9.91565
-490,316,-26.1193,-10.8063,0.00048681,-0.00221925,0.00148894,0.00114565,-0.0028781,0.416592,0.00239381,0.0189804,734,708,-26.1192,10.8063
-483,316,-26.1158,-11.7645,0,0,0,0,0,0,0,-1,741,708,-26.1159,11.7645
-476,316,-8.90894,-3.31207,0,0,0,0,0,0,0,-1,748,708,-8.90896,3.31206
-469,316,-6.24194,-1.42725,0,0,0,0,0,0,0,-1,755,708,-6.24192,1.42725
-462,316,-5.74237,-1.40039,0,0,0,0,0,0,0,-1,762,708,-5.74238,1.40039
-455,316,-5.44745,-1.21899,0,0,0,0,0,0,0,-1,769,708,-5.44746,1.21898
-448,316,-14.8945,0.655396,0,0,0,0,0,0,0,-1,776,708,-14.8946,-0.655396
-441,316,-14.9626,0.576111,0,0,0,0,0,0,0,-1,783,708,-14.9626,-0.576115
-434,316,-27.7723,1.15576,0,0,0,0,0,0,0,-1,790,708,-27.7723,-1.15579
-427,316,-28.0504,1.31427,0,0,0,0,0,0,0,-1,797,708,-28.0504,-1.31427
-420,316,-28.198,1.62891,0,0,0,0,0,0,0,-1,804,708,-28.198,-1.62889
-413,316,0,0,0,0,0,0,0,0,0,-1,811,708,0,0
-406,316,0,0,0,0,0,0,0,0,0,-1,818,708,0,0
-399,316,0,0,0,0,0,0,0,0,0,-1,825,708,0,0
-392,316,0,0,0,0,0,0,0,0,0,-1,832,708,0,0
-385,316,0,0,0,0,0,0,0,0,0,-1,839,708,0,0
-378,316,0,0,0,0,0,0,0,0,0,-1,846,708,0,0
-371,316,0,0,0,0,0,0,0,0,0,-1,853,708,0,0
-364,316,0,0,0,0,0,0,0,0,0,-1,860,708,0,0
-357,316,0,0,0,0,0,0,0,0,0,-1,867,708,0,0
-350,316,0,0,0,0,0,0,0,0,0,-1,874,708,0,0
-343,316,0,0,0,0,0,0,0,0,0,-1,881,708,0,0
-336,316,0,0,0,0,0,0,0,0,0,-1,888,708,0,0
-329,316,0,0,0,0,0,0,0,0,0,-1,895,708,0,0
-322,316,0,0,0,0,0,0,0,0,0,-1,902,708,0,0
-315,316,0,0,0,0,0,0,0,0,0,-1,909,708,0,0
-308,316,0,0,0,0,0,0,0,0,0,-1,916,708,0,0
-301,316,0,0,0,0,0,0,0,0,0,-1,923,708,0,0
-294,316,0,0,0,0,0,0,0,0,0,-1,930,708,0,0
-287,316,0,0,0,0,0,0,0,0,0,-1,937,708,0,0
-280,316,0,0,0,0,0,0,0,0,0,-1,944,708,0,0
-273,316,0,0,0,0,0,0,0,0,0,-1,951,708,0,0
-266,316,0,0,0,0,0,0,0,0,0,-1,958,708,0,0
-259,316,0,0,0,0,0,0,0,0,0,-1,965,708,0,0
-252,316,0,0,0,0,0,0,0,0,0,-1,972,708,0,0
-245,316,0,0,0,0,0,0,0,0,0,-1,979,708,0,0
-238,316,0,0,0,0,0,0,0,0,0,-1,986,708,0,0
-231,316,0,0,0,0,0,0,0,0,0,-1,993,708,0,0
-224,316,0,0,0,0,0,0,0,0,0,-1,1000,708,0,0
-217,316,0,0,0,0,0,0,0,0,0,-1,1007,708,0,0
-210,316,0,0,0,0,0,0,0,0,0,-1,1014,708,0,0
-203,316,0,0,0,0,0,0,0,0,0,-1,1021,708,0,0
-196,316,0,0,0,0,0,0,0,0,0,-1,1028,708,0,0
-189,316,0,0,0,0,0,0,0,0,0,-1,1035,708,0,0
-182,316,0,0,0,0,0,0,0,0,0,-1,1042,708,0,0
-175,316,0,0,0,0,0,0,0,0,0,-1,1049,708,0,0
-168,316,0,0,0,0,0,0,0,0,0,-1,1056,708,0,0
-161,316,0,0,0,0,0,0,0,0,0,-1,1063,708,0,0
-154,316,0,0,0,0,0,0,0,0,0,-1,1070,708,0,0
-147,316,0,0,0,0,0,0,0,0,0,-1,1077,708,0,0
-140,316,0,0,0,0,0,0,0,0,0,-1,1084,708,0,0
-133,316,0,0,0,0,0,0,0,0,0,-1,1091,708,0,0
-126,316,0,0,0,0,0,0,0,0,0,-1,1098,708,0,0
-119,316,0,0,0,0,0,0,0,0,0,-1,1105,708,0,0
-112,316,0,0,0,0,0,0,0,0,0,-1,1112,708,0,0
-105,316,0,0,0,0,0,0,0,0,0,-1,1119,708,0,0
-98,316,0,0,0,0,0,0,0,0,0,-1,1126,708,0,0
-91,316,0,0,0,0,0,0,0,0,0,-1,1133,708,0,0
-84,316,0,0,0,0,0,0,0,0,0,-1,1140,708,0,0
-77,316,0,0,0,0,0,0,0,0,0,-1,1147,708,0,0
-70,316,0,0,0,0,0,0,0,0,0,-1,1154,708,0,0
-63,316,0,0,0,0,0,0,0,0,0,-1,1161,708,0,0
-56,316,0,0,0,0,0,0,0,0,0,-1,1168,708,0,0
-49,316,0,0,0,0,0,0,0,0,0,-1,1175,708,0,0
-42,316,0,0,0,0,0,0,0,0,0,-1,1182,708,0,0
-35,316,0,0,0,0,0,0,0,0,0,-1,1189,708,0,0
-28,316,0,0,0,0,0,0,0,0,0,-1,1196,708,0,0
-21,316,0,0,0,0,0,0,0,0,0,-1,1203,708,0,0
-14,316,0,0,0,0,0,0,0,0,0,-1,1210,708,0,0
-7,316,0,0,0,0,0,0,0,0,0,-1,1217,708,0,0
0,316,0,0,0,0,0,0,0,0,0,-1,1224,708,0,0
7,316,0,0,0,0,0,0,0,0,0,-1,1231,708,0,0
14,316,0,0,0,0,0,0,0,0,0,-1,1238,708,0,0
21,316,0,0,0,0,0,0,0,0,0,-1,1245,708,0,0
28,316,0,0,0,0,0,0,0,0,0,-1,1252,708,0,0
35,316,0,0,0,0,0,0,0,0,0,-1,1259,708,0,0
42,316,0,0,0,0,0,0,0,0,0,-1,1266,708,0,0
49,316,0,0,0,0,0,0,0,0,0,-1,1273,708,0,0
56,316,0,0,0,0,0,0,0,0,0,-1,1280,708,0,0
63,316,0,0,0,0,0,0,0,0,0,-1,1287,708,0,0
70,316,0,0,0,0,0,0,0,0,0,-1,1294,708,0,0
77,316,0,0,0,0,0,0,0,0,0,-1,1301,708,0,0
84,316,0,0,0,0,0,0,0,0,0,-1,1308,708,0,0
91,316,0,0,0,0,0,0,0,0,0,-1,1315,708,0,0
98,316,0,0,0,0,0,0,0,0,0,-1,1322,708,0,0
105,316,0,0,0,0,0,0,0,0,0,-1,1329,708,0,0
112,316,0,0,0,0,0,0,0,0,0,-1,1336,708,0,0
119,316,0,0,0,0,0,0,0,0,0,-1,1343,708,0,0
126,316,0,0,0,0,0,0,0,0,0,-1,1350,708,0,0
133,316,0,0,0,0,0,0,0,0,0,-1,1357,708,0,0
140,316,0,0,0,0,0,0,0,0,0,-1,1364,708,0,0
147,316,0,0,0,0,0,0,0,0,0,-1,1371,708,0,0
154,316,0,0,0,0,0,0,0,0,0,-1,1378,708,0,0
161,316,0,0,0,0,0,0,0,0,0,-1,1385,708,0,0
168,316,0,0,0,0,0,0,0,0,0,-1,1392,708,0,0
175,316,0,0,0,0,0,0,0,0,0,-1,1399,708,0,0
182,316,0,0,0,0,0,0,0,0,0,-1,1406,708,0,0
189,316,0,0,0,0,0,0,0,0,0,-1,1413,708,0,0
196,316,0,0,0,0,0,0,0,0,0,-1,1420,708,0,0
203,316,0,0,0,0,0,0,0,0,0,-1,1427,708,0,0
210,316,0,0,0,0,0,0,0,0,0,-1,1434,708,0,0
217,316,0,0,0,0,0,0,0,0,0,-1,1441,708,0,0
224,316,0,0,0,0,0,0,0,0,0,-1,1448,708,0,0
231,316,0,0,0,0,0,0,0,0,0,-1,1455,708,0,0
238,316,0,0,0,0,0,0,0,0,0,-1,1462,708,0,0
245,316,0,0,0,0,0,0,0,0,0,-1,1469,708,0,0
252,316,0,0,0,0,0,0,0,0,0,-1,1476,708,0,0
259,316,0,0,0,0,0,0,0,0,0,-1,1483,708,0,0
266,316,0,0,0,0,0,0,0,0,0,-1,1490,708,0,0
273,316,0,0,0,0,0,0,0,0,0,-1,1497,708,0,0
280,316,0,0,0,0,0,0,0,0,0,-1,1504,708,0,0
287,316,0,0,0,0,0,0,0,0,0,-1,1511,708,0,0
294,316,0,0,0,0,0,0,0,0,0,-1,1518,708,0,0
301,316,0,0,0,0,0,0,0,0,0,-1,1525,708,0,0
308,316,0,0,0,0,0,0,0,0,0,-1,1532,708,0,0
315,316,0,0,0,0,0,0,0,0,0,-1,1539,708,0,0
322,316,0,0,0,0,0,0,0,0,0,-1,1546,708,0,0
329,316,0,0,0,0,0,0,0,0,0,-1,1553,708,0,0
336,316,0,0,0,0,0,0,0,0,0,-1,1560,708,0,0
343,316,0,0,0,0,0,0,0,0,0,-1,1567,708,0,0
350,316,0,0,0,0,0,0,0,0,0,-1,1574,708,0,0
357,316,0,0,0,0,0,0,0,0,0,-1,1581,708,0,0
364,316,0,0,0,0,0,0,0,0,0,-1,1588,708,0,0
371,316,0,0,0,0,0,0,0,0,0,-1,1595,708,0,0
378,316,0,0,0,0,0,0,0,0,0,-1,1602,708,0,0
385,316,0,0,0,0,0,0,0,0,0,-1,1609,708,0,0
392,316,0,0,0,0,0,0,0,0,0,-1,1616,708,0,0
399,316,0,0,0,0,0,0,0,0,0,-1,1623,708,0,0
406,316,0,0,0,0,0,0,0,0,0,-1,1630,708,0,0
413,316,0,0,0,0,0,0,0,0,0,-1,1637,708,0,0
420,316,0,0,0,0,0,0,0,0,0,-1,1644,708,0,0
427,316,0,0,0,0,0,0,0,0,0,-1,1651,708,0,0
434,316,0,0,0,0,0,0,0,0,0,-1,1658,708,0,0
441,316,0,0,0,0,0,0,0,0,0,-1,1665,708,0,0
448,316,0,0,0,0,0,0,0,0,0,-1,1672,708,0,0
455,316,0,0,0,0,0,0,0,0,0,-1,1679,708,0,0
462,316,0,0,0,0,0,0,0,0,0,-1,1686,708,0,0
469,316,0,0,0,0,0,0,0,0,0,-1,1693,708,0,0
476,316,0,0,0,0,0,0,0,0,0,-1,1700,708,0,0
483,316,0,0,0,0,0,0,0,0,0,-1,1707,708,0,0
490,316,0,0,0,0,0,0,0,0,0,-1,1714,708,0,0
497,316,0,0,0,0,0,0,0,0,0,-1,1721,708,0,0
504,316,0,0,0,0,0,0,0,0,0,-1,1728,708,0,0
511,316,0,0,0,0,0,0,0,0,0,-1,1735,708,0,0
518,316,0,0,0,0,0,0,0,0,0,-1,1742,708,0,0
525,316,0,0,0,0,0,0,0,0,0,-1,1749,708,0,0
532,316,33.8604,0.531128,0,0,0,0,0,0,0,-1,1756,708,33.8604,-0.531151
539,316,44.4543,2.73468,0,0,0,0,0,0,0,-1,1763,708,44.4543,-2.7347
546,316,44.713,3.35498,0,0,0,0,0,0,0,-1,1770,708,44.7131,-3.35501
553,316,39.9031,6.57275,0,0,0,0,0,0,0,-1,1777,708,39.9031,-6.57274
560,316,39.1196,1.10046,0,0,0,0,0,0,0,-1,1784,708,39.1197,-1.10048
567,316,47.3683,6.04919,0,0,0,0,0,0,0,-1,1791,708,47.3683,-6.04918
574,316,45.9872,6.7655,0,0,0,0,0,0,0,-1,1798,708,45.9871,-6.76552
581,316,24.6815,7.77496,0,0,0,0,0,0,0,-1,1805,708,24.6815,-7.77499
588,316,19.7659,2.90198,0,0,0,0,0,0,0,-1,1812,708,19.7659,-2.902
595,316,12.5363,1.50702,0,0,0,0,0,0,0,-1,1819,708,12.5363,-1.50701
602,316,7.79919,0.0422363,0,0,0,0,0,0,0,-1,1826,708,7.79923,-0.0422066
609,316,40.9578,-10.95,0,0,0,0,0,0,0,-1,1833,708,40.9578,10.95
616,316,40.869,-10.0511,0.00209939,-0.0015472,0.000363816,0.00213533,-0.00158314,0.0984755,0.00215474,0.0152622,1840,708,40.869,10.0511
623,316,40.8071,-9.17877,0.00174336,-0.00110945,0.000339666,0.00178324,-0.00114933,0.116887,0.00170626,0.0117355,1847,708,40.8071,9.17879
630,316,40.7495,-8.33069,0.00161481,-0.000700983,0.000417954,0.00168793,-0.000774106,0.173202,0.00145373,0.0127011,1854,708,40.7495,8.33071
637,316,40.7052,-7.42236,0.00154089,-0.000229227,0.000553502,0.00169971,-0.000388052,0.279438,0.00128222,0.0116201,1861,708,40.7052,7.42237
644,316,40.6667,-6.5235,0.00152513,0.000313217,0.00074313,0.00187804,-3.9694e-05,0.443365,0.00126546,0.0121914,1868,708,40.6668,6.52349
651,316,40.6135,-5.63007,0.00156352,0.000917982,0.000974621,0.00226743,0.000214073,0.625496,0.00144555,0.0177616,1875,708,40.6136,5.63004
658,316,40.5333,-4.70264,0.00166919,0.00165313,0.00125906,0.00292025,0.000402072,0.78221,0.00182761,0.0357084,1882,708,40.5334,4.70262
665,316,40.4246,-3.82953,0.00188965,0.002477,0.00163082,0.00384038,0.000526271,0.874482,0.00240411,0.0241798,1889,708,40.4245,3.82952
672,316,40.434,-2.94971,0.00220722,0.00346248,0.00207023,0.00499813,0.000671573,0.93258,0.00313232,0.0138386,1896,708,40.434,2.94972
679,316,40.4415,-2.01361,0,0,0,0,0,0,0,-1,1903,708,40.4415,2.01363
686,316,34.0828,0.223206,0,0,0,0,0,0,0,-1,1910,708,34.0828,-0.223183
693,316,26.4315,1.80652,0,0,0,0,0,0,0,-1,1917,708,26.4315,-1.80651
700,316,12.8749,2.89136,0,0,0,0,0,0,0,-1,1924,708,12.8748,-2.89137
707,316,15.7089,5.41486,0,0,0,0,0,0,0,-1,1931,708,15.7088,-5.41487
714,316,16.1727,5.52045,0,0,0,0,0,0,0,-1,1938,708,16.1728,-5.52042
721,316,16.7094,6.53351,0,0,0,0,0,0,0,-1,1945,708,16.7094,-6.5335
728,316,0,0,0,0,0,0,0,0,0,-1,1952,708,0,0
735,316,0,0,0,0,0,0,0,0,0,-1,1959,708,0,0
742,316,0,0,0,0,0,0,0,0,0,-1,1966,708,0,0
749,316,0,0,0,0,0,0,0,0,0,-1,1973,708,0,0
756,316,0,0,0,0,0,0,0,0,0,-1,1980,708,0,0
763,316,0,0,0,0,0,0,0,0,0,-1,1987,708,0,0
770,316,0,0,0,0,0,0,0,0,0,-1,1994,708,0,0
777,316,0,0,0,0,0,0,0,0,0,-1,2001,708,0,0
784,316,0,0,0,0,0,0,0,0,0,-1,2008,708,0,0
791,316,0,0,0,0,0,0,0,0,0,-1,2015,708,0,0
798,316,0,0,0,0,0,0,0,0,0,-1,2022,708,0,0
805,316,0,0,0,0,0,0,0,0,0,-1,2029,708,0,0
812,316,0,0,0,0,0,0,0,0,0,-1,2036,708,0,0
-700,309,0,0,0,0,0,0,0,0,0,-1,524,715,0,0
-693,309,0,0,0,0,0,0,0,0,0,-1,531,715,0,0
-686,309,0,0,0,0,0,0,0,0,0,-1,538,715,0,0
-679,309,0,0,0,0,0,0,0,0,0,-1,545,715,0,0
-672,309,0,0,0,0,0,0,0,0,0,-1,552,715,0,0
-665,309,0,0,0,0,0,0,0,0,0,-1,559,715,0,0
-658,309,0,0,0,0,0,0,0,0,0,-1,566,715,0,0
-651,309,0,0,0,0,0,0,0,0,0,-1,573,715,0,0
-644,309,0,0,0,0,0,0,0,0,0,-1,580,715,0,0
-637,309,0,0,0,0,0,0,0,0,0,-1,587,715,0,0
-630,309,0,0,0,0,0,0,0,0,0,-1,594,715,0,0
-623,309,0,0,0,0,0,0,0,0,0,-1,601,715,0,0
-616,309,0,0,0,0,0,0,0,0,0,-1,608,715,0,0
-609,309,-5.95392,-3.93689,0,0,0,0,0,0,0,-1,615,715,-5.95392,3.93686
-602,309,-4.99786,-3.31287,0,0,0,0,0,0,0,-1,622,715,-4.99786,3.31284
-595,309,-6.80847,2.4046,0,0,0,0,0,0,0,-1,629,715,-6.80845,-2.40458
-588,309,-6.08795,2.19324,0,0,0,0,0,0,0,-1,636,715,-6.08793,-2.19325
-581,309,-5.97552,1.3277,0,0,0,0,0,0,0,-1,643,715,-5.97552,-1.32769
-574,309,-8.73602,0.208435,0,0,0,0,0,0,0,-1,650,715,-8.73604,-0.208437
-567,309,-10.3909,0.85968,0,0,0,0,0,0,0,-1,657,715,-10.3909,-0.859696
-560,309,-18.6088,-1.73389,0,0,0,0,0,0,0,-1,664,715,-18.6088,1.73389
-553,309,-26.7664,-2.71899,0,0,0,0,0,0,0,-1,671,715,-26.7664,2.71901
-546,309,-26.7379,-3.72974,0.00106486,0.00395313,-0.0020658,0.00502952,-1.1533e-05,-1.09045,0.00335687,0.0383413,678,715,-26.7379,3.72975
-539,309,-26.6429,-4.6524,0.00131407,0.00273258,-0.00162492,0.00379629,0.000250365,-0.991178,0.00245167,0.0154662,685,715,-26.6429,4.65239
-532,309,-26.6857,-5.52496,0.00125585,0.0016452,-0.00109838,0.00256602,0.000335024,-0.873105,0.00161066,0.0124986,692,715,-26.6857,5.52499
-525,309,-26.7386,-6.42365,0.0011377,0.000598077,-0.000577778,0.00150556,0.000230217,-0.566954,0.000936451,0.0161589,699,715,-26.7387,6.42363
-518,309,-26.7868,-7.2901,0.00101537,-0.000260865,-1.38339e-05,0.00101552,-0.000261015,-0.0108379,0.000778741,0.016345,706,715,-26.7868,7.29011
-511,309,-26.8591,-8.15009,0.000701791,-0.00105188,0.000574815,0.000873408,-0.0012235,0.290136,0.00121626,0.0133636,713,715,-26.8591,8.1501
-504,309,-26.9187,-9.02655,0.000297402,-0.00178664,0.00121254,0.000854151,-0.00234339,0.430444,0.00191168,0.0110296,720,715,-26.9187,9.02657
-497,309,-26.9495,-9.86115,3.11285e-05,-0.00238705,0.00175176,0.000950552,-0.00330647,0.483335,0.0025802,0.0155354,727,715,-26.9495,9.86117
-490,309,-26.8723,-10.7611,0,0,0,0,0,0,0,-1,734,715,-26.8723,10.7611
-483,309,-17.7261,-7.75836,0,0,0,0,0,0,0,-1,741,715,-17.7261,7.75839
-476,309,-5.29486,-1.2262,0,0,0,0,0,0,0,-1,748,715,-5.29484,1.22622
-469,309,-4.22717,-0.592896,0,0,0,0,0,0,0,-1,755,715,-4.2272,0.592905
-462,309,-10.428,2.46948,0,0,0,0,0,0,0,-1,762,715,-10.428,-2.46947
-455,309,-15.8216,0.00915527,0,0,0,0,0,0,0,-1,769,715,-15.8216,-0.00913359
-448,309,-37.3543,-1.02441,0,0,0,0,0,0,0,-1,776,715,-37.3543,1.02444
-441,309,-19.8181,1.4425,0,0,0,0,0,0,0,-1,783,715,-19.8181,-1.44249
-434,309,-46.7953,1.72064,0,0,0,0,0,0,0,-1,790,715,-46.7953,-1.72067
-427,309,-27.8553,1.40332,0,0,0,0,0,0,0,-1,797,715,-27.8553,-1.40334
-420,309,-27.3148,1.90747,0,0,0,0,0,0,0,-1,804,715,-27.3148,-1.90745
-413,309,0,0,0,0,0,0,0,0,0,-1,811,715,0,0
-406,309,0,0,0,0,0,0,0,0,0,-1,818,715,0,0
-399,309,0,0,0,0,0,0,0,0,0,-1,825,715,0,0
-392,309,0,0,0,0,0,0,0,0,0,-1,832,715,0,0
-385,309,0,0,0,0,0,0,0,0,0,-1,839,715,0,0
-378,309,0,0,0,0,0,0,0,0,0,-1,846,715,0,0
-371,309,0,0,0,0,0,0,0,0,0,-1,853,715,0,0
-364,309,0,0,0,0,0,0,0,0,0,-1,860,715,0,0
-357,309,0,0,0,0,0,0,0,0,0,-1,867,715,0,0
-350,309,0,0,0,0,0,0,0,0,0,-1,874,715,0,0
-343,309,0,0,0,0,0,0,0,0,0,-1,881,715,0,0
-336,309,0,0,0,0,0,0,0,0,0,-1,888,715,0,0
-329,309,0,0,0,0,0,0,0,0,0,-1,895,715,0,0
-322,309,0,0,0,0,0,0,0,0,0,-1,902,715,0,0
-315,309,0,0,0,0,0,0,0,0,0,-1,909,715,0,0
-308,309,0,0,0,0,0,0,0,0,0,-1,916,715,0,0
-301,309,0,0,0,0,0,0,0,0,0,-1,923,715,0,0
-294,309,0,0,0,0,0,0,0,0,0,-1,930,715,0,0
-287,309,0,0,0,0,0,0,0,0,0,-1,937,715,0,0
-280,309,0,0,0,0,0,0,0,0,0,-1,944,715,0,0
-273,309,0,0,0,0,0,0,0,0,0,-1,951,715,0,0
-266,309,0,0,0,0,0,0,0,0,0,-1,958,715,0,0
-259,309,0,0,0,0,0,0,0,0,0,-1,965,715,0,0
-252,309,0,0,0,0,0,0,0,0,0,-1,972,715,0,0
-245,309,0,0,0,0,0,0,0,0,0,-1,979,715,0,0
-238,309,0,0,0,0,0,0,0,0,0,-1,986,715,0,0
-231,309,0,0,0,0,0,0,0,0,0,-1,993,715,0,0
-224,309,0,0,0,0,0,0,0,0,0,-1,1000,715,0,0
-217,309,0,0,0,0,0,0,0,0,0,-1,1007,715,0,0
-210,309,0,0,0,0,0,0,0,0,0,-1,1014,715,0,0
-203,309,0,0,0,0,0,0,0,0,0,-1,1021,715,0,0
-196,309,0,0,0,0,0,0,0,0,0,-1,1028,715,0,0
-189,309,0,0,0,0,0,0,0,0,0,-1,1035,715,0,0
-182,309,0,0,0,0,0,0,0,0,0,-1,1042,715,0,0
-175,309,0,0,0,0,0,0,0,0,0,-1,1049,715,0,0
-168,309,0,0,0,0,0,0,0,0,0,-1,1056,715,0,0
-161,309,0,0,0,0,0,0,0,0,0,-1,1063,715,0,0
-154,309,0,0,0,0,0,0,0,0,0,-1,1070,715,0,0
-147,309,0,0,0,0,0,0,0,0,0,-1,1077,715,0,0
-140,309,0,0,0,0,0,0,0,0,0,-1,1084,715,0,0
-133,309,0,0,0,0,0,0,0,0,0,-1,1091,715,0,0
-126,309,0,0,0,0,0,0,0,0,0,-1,1098,715,0,0
-119,309,0,0,0,0,0,0,0,0,0,-1,1105,715,0,0
-112,309,0,0,0,0,0,0,0,0,0,-1,1112,715,0,0
-105,309,0,0,0,0,0,0,0,0,0,-1,1119,715,0,0
-98,309,0,0,0,0,0,0,0,0,0,-1,1126,715,0,0
-91,309,0,0,0,0,0,0,0,0,0,-1,1133,715,0,0
-84,309,0,0,0,0,0,0,0,0,0,-1,1140,715,0,0
-77,309,0,0,0,0,0,0,0,0,0,-1,1147,715,0,0
-70,309,0,0,0,0,0,0,0,0,0,-1,1154,715,0,0
-63,309,0,0,0,0,0,0,0,0,0,-1,1161,715,0,0
-56,309,0,0,0,0,0,0,0,0,0,-1,1168,715,0,0
-49,309,0,0,0,0,0,0,0,0,0,-1,1175,715,0,0
-42,309,0,0,0,0,0,0,0,0,0,-1,1182,715,0,0
-35,309,0,0,0,0,0,0,0,0,0,-1,1189,715,0,0
-28,309,0,0,0,0,0,0,0,0,0,-1,1196,715,0,0
-21,309,0,0,0,0,0,0,0,0,0,-1,1203,715,0,0
-14,309,0,0,0,0,0,0,0,0,0,-1,1210,715,0,0
-7,309,0,0,0,0,0,0,0,0,0,-1,1217,715,0,0
0,309,0,0,0,0,0,0,0,0,0,-1,1224,715,0,0
7,309,0,0,0,0,0,0,0,0,0,-1,1231,715,0,0
14,309,0,0,0,0,0,0,0,0,0,-1,1238,715,0,0
21,309,0,0,0,0,0,0,0,0,0,-1,1245,715,0,0
28,309,0,0,0,0,0,0,0,0,0,-1,1252,715,0,0
35,309,0,0,0,0,0,0,0,0,0,-1,1259,715,0,0
42,309,0,0,0,0,0,0,0,0,0,-1,1266,715,0,0
49,309,0,0,0,0,0,0,0,0,0,-1,1273,715,0,0
56,309,0,0,0,0,0,0,0,0,0,-1,1280,715,0,0
63,309,0,0,0,0,0,0,0,0,0,-1,1287,715,0,0
70,309,0,0,0,0,0,0,0,0,0,-1,1294,715,0,0
77,309,0,0,0,0,0,0,0,0,0,-1,1301,715,0,0
84,309,0,0,0,0,0,0,0,0,0,-1,1308,715,0,0
91,309,0,0,0,0,0,0,0,0,0,-1,1315,715,0,0
98,309,0,0,0,0,0,0,0,0,0,-1,1322,715,0,0
105,309,0,0,0,0,0,0,0,0,0,-1,1329,715,0,0
112,309,0,0,0,0,0,0,0,0,0,-1,1336,715,0,0
119,309,0,0,0,0,0,0,0,0,0,-1,1343,715,0,0
126,309,0,0,0,0,0,0,0,0,0,-1,1350,715,0,0
133,309,0,0,0,0,0,0,0,0,0,-1,1357,715,0,0
140,309,0,0,0,0,0,0,0,0,0,-1,1364,715,0,0
147,309,0,0,0,0,0,0,0,0,0,-1,1371,715,0,0
154,309,0,0,0,0,0,0,0,0,0,-1,1378,715,0,0
161,309,0,0,0,0,0,0,0,0,0,-1,1385,715,0,0
168,309,0,0,0,0,0,0,0,0,0,-1,1392,715,0,0
175,309,0,0,0,0,0,0,0,0,0,-1,1399,715,0,0
182,309,0,0,0,0,0,0,0,0,0,-1,1406,715,0,0
189,309,0,0,0,0,0,0,0,0,0,-1,1413,715,0,0
196,309,0,0,0,0,0,0,0,0,0,-1,1420,715,0,0
203,309,0,0,0,0,0,0,0,0,0,-1,1427,715,0,0
210,309,0,0,0,0,0,0,0,0,0,-1,1434,715,0,0
217,309,0,0,0,0,0,0,0,0,0,-1,1441,715,0,0
224,309,0,0,0,0,0,0,0,0,0,-1,1448,715,0,0
231,309,0,0,0,0,0,0,0,0,0,-1,1455,715,0,0
238,309,0,0,0,0,0,0,0,0,0,-1,1462,715,0,0
245,309,0,0,0,0,0,0,0,0,0,-1,1469,715,0,0
252,309,0,0,0,0,0,0,0,0,0,-1,1476,715,0,0
259,309,0,0,0,0,0,0,0,0,0,-1,1483,715,0,0
266,309,0,0,0,0,0,0,0,0,0,-1,1490,715,0,0
273,309,0,0,0,0,0,0,0,0,0,-1,1497,715,0,0
280,309,0,0,0,0,0,0,0,0,0,-1,1504,715,0,0
287,309,0,0,0,0,0,0,0,0,0,-1,1511,715,0,0
294,309,0,0,0,0,0,0,0,0,0,-1,1518,715,0,0
301,309,0,0,0,0,0,0,0,0,0,-1,1525,715,0,0
308,309,0,0,0,0,0,0,0,0,0,-1,1532,715,0,0
315,309,0,0,0,0,0,0,0,0,0,-1,1539,715,0,0
322,309,0,0,0,0,0,0,0,0,0,-1,1546,715,0,0
329,309,0,0,0,0,0,0,0,0,0,-1,1553,715,0,0
336,309,0,0,0,0,0,0,0,0,0,-1,1560,715,0,0
343,309,0,0,0,0,0,0,0,0,0,-1,1567,715,0,0
350,309,0,0,0,0,0,0,0,0,0,-1,1574,715,0,0
357,309,0,0,0,0,0,0,0,0,0,-1,1581,715,0,0
364,309,0,0,0,0,0,0,0,0,0,-1,1588,715,0,0
371,309,0,0,0,0,0,0,0,0,0,-1,1595,715,0,0
378,309,0,0,0,0,0,0,0,0,0,-1,1602,715,0,0
385,309,0,0,0,0,0,0,0,0,0,-1,1609,715,0,0
392,309,0,0,0,0,0,0,0,0,0,-1,1616,715,0,0
399,309,0,0,0,0,0,0,0,0,0,-1,1623,715,0,0
406,309,0,0,0,0,0,0,0,0,0,-1,1630,715,0,0
413,309,0,0,0,0,0,0,0,0,0,-1,1637,715,0,0
420,309,0,0,0,0,0,0,0,0,0,-1,1644,715,0,0
427,309,0,0,0,0,0,0,0,0,0,-1,1651,715,0,0
434,309,0,0,0,0,0,0,0,0,0,-1,1658,715,0,0
441,309,0,0,0,0,0,0,0,0,0,-1,1665,715,0,0
448,309,0,0,0,0,0,0,0,0,0,-1,1672,715,0,0
455,309,0,0,0,0,0,0,0,0,0,-1,1679,715,0,0
462,309,0,0,0,0,0,0,0,0,0,-1,1686,715,0,0
469,309,0,0,0,0,0,0,0,0,0,-1,1693,715,0,0
476,309,0,0,0,0,0,0,0,0,0,-1,1700,715,0,0
483,309,0,0,0,0,0,0,0,0,0,-1,1707,715,0,0
490,309,0,0,0,0,0,0,0,0,0,-1,1714,715,0,0
497,309,0,0,0,0,0,0,0,0,0,-1,1721,715,0,0
504,309,0,0,0,0,0,0,0,0,0,-1,1728,715,0,0
511,309,0,0,0,0,0,0,0,0,0,-1,1735,715,0,0
518,309,0,0,0,0,0,0,0,0,0,-1,1742,715,0,0
525,309,0,0,0,0,0,0,0,0,0,-1,1749,715,0,0
532,309,0,0,0,0,0,0,0,0,0,-1,1756,715,0,0
539,309,44.2073,2.66235,0,0,0,0,0,0,0,-1,1763,715,44.2073,-2.66238
546,309,44.4976,3.25531,0,0,0,0,0,0,0,-1,1770,715,44.4976,-3.25533
553,309,47.9611,4.06433,0,0,0,0,0,0,0,-1,1777,715,47.9611,-4.06434
560,309,47.9784,4.64801,0,0,0,0,0,0,0,-1,1784,715,47.9784,-4.64799
567,309,47.0073,5.43121,0,0,0,0,0,0,0,-1,1791,715,47.0073,-5.43121
574,309,45.8746,6.53271,0,0,0,0,0,0,0,-1,1798,715,45.8747,-6.53269
581,309,45.0629,7.73468,0,0,0,0,0,0,0,-1,1805,715,45.0629,-7.73471
588,309,26.2064,7.76422,0,0,0,0,0,0,0,-1,1812,715,26.2064,-7.7642
595,309,19.585,3.71558,0,0,0,0,0,0,0,-1,1819,715,19.5849,-3.71555
602,309,11.0811,3.47772,0,0,0,0,0,0,0,-1,1826,715,11.0811,-3.47772
609,309,41.8339,-10.803,0,0,0,0,0,0,0,-1,1833,715,41.8338,10.803
616,309,41.7709,-9.95575,0.00247787,-0.00168538,0.000347886,0.00250674,-0.00171425,0.0827959,0.00245127,0.0289094,1840,715,41.7708,9.95576
623,309,41.7054,-9.10669,0.00195059,-0.00119844,0.000331206,0.00198505,-0.0012329,0.103666,0.00187472,0.0117827,1847,715,41.7054,9.10671
630,309,41.6267,-8.25586,0.00173022,-0.00079799,0.000399991,0.00179199,-0.000859764,0.153227,0.00156221,0.0110575,1854,715,41.6267,8.25587
637,309,41.5585,-7.36963,0.00158047,-0.000353201,0.000521928,0.00171235,-0.000485084,0.247502,0.00133301,0.0137048,1861,715,41.5584,7.36963
644,309,41.4912,-6.46454,0.0015089,0.000166717,0.000697884,0.001806,-0.000130389,0.402484,0.00124974,0.0152124,1868,715,41.4912,6.46451
651,309,41.4452,-5.5752,0.00150616,0.000739771,0.000914999,0.00211496,0.000130966,0.587098,0.00136841,0.0145903,1875,715,41.4452,5.57519
658,309,41.3771,-4.67065,0.00158346,0.00144585,0.00117709,0.00269375,0.000335559,0.756205,0.00169509,0.0211227,1882,715,41.3771,4.67068
665,309,41.3732,-3.80524,0.00176698,0.00223292,0.00151872,0.00353644,0.00046346,0.861505,0.00221933,0.0181845,1889,715,41.3732,3.80525
672,309,41.3197,-2.92462,0.0020606,0.00317551,0.00193711,0.00463378,0.00060233,0.9255,0.00290927,0.0157892,1896,715,41.3197,2.92461
679,309,41.322,-1.96448,0.00245067,0.0043264,0.00248079,0.00604069,0.000736383,0.966119,0.00380549,0.0292792,1903,715,41.322,1.96448
686,309,41.3547,-0.921143,0,0,0,0,0,0,0,-1,1910,715,41.3547,0.921169
693,309,32.7026,1.51727,0,0,0,0,0,0,0,-1,1917,715,32.7026,-1.51727
700,309,23.0179,3.08337,0,0,0,0,0,0,0,-1,1924,715,23.018,-3.08336
707,309,15.6318,4.58655,0,0,0,0,0,0,0,-1,1931,715,15.6318,-4.58657
714,309,16.7573,6.68286,0,0,0,0,0,0,0,-1,1938,715,16.7574,-6.68284
721,309,16.8337,5.4458,0,0,0,0,0,0,0,-1,1945,715,16.8338,-5.44582
728,309,0,0,0,0,0,0,0,0,0,-1,1952,715,0,0
735,309,0,0,0,0,0,0,0,0,0,-1,1959,715,0,0
742,309,0,0,0,0,0,0,0,0,0,-1,1966,715,0,0
749,309,0,0,0,0,0,0,0,0,0,-1,1973,715,0,0
756,309,0,0,0,0,0,0,0,0,0,-1,1980,715,0,0
763,309,0,0,0,0,0,0,0,0,0,-1,1987,715,0,0
770,309,0,0,0,0,0,0,0,0,0,-1,1994,715,0,0
777,309,0,0,0,0,0,0,0,0,0,-1,2001,715,0,0
784,309,0,0,0,0,0,0,0,0,0,-1,2008,715,0,0
791,309,0,0,0,0,0,0,0,0,0,-1,2015,715,0,0
798,309,0,0,0,0,0,0,0,0,0,-1,2022,715,0,0
805,309,0,0,0,0,0,0,0,0,0,-1,2029,715,0,0
812,309,0,0,0,0,0,0,0,0,0,-1,2036,715,0,0
-700,302,0,0,0,0,0,0,0,0,0,-1,524,722,0,0
-693,302,0,0,0,0,0,0,0,0,0,-1,531,722,0,0
-686,302,0,0,0,0,0,0,0,0,0,-1,538,722,0,0
-679,302,0,0,0,0,0,0,0,0,0,-1,545,722,0,0
-672,302,0,0,0,0,0,0,0,0,0,-1,552,722,0,0
-665,302,0,0,0,0,0,0,0,0,0,-1,559,722,0,0
-658,302,0,0,0,0,0,0,0,0,0,-1,566,722,0,0
-651,302,0,0,0,0,0,0,0,0,0,-1,573,722,0,0
-644,302,0,0,0,0,0,0,0,0,0,-1,580,722,0,0
-637,302,0,0,0,0,0,0,0,0,0,-1,587,722,0,0
-630,302,0,0,0,0,0,0,0,0,0,-1,594,722,0,0
-623,302,0,0,0,0,0,0,0,0,0,-1,601,722,0,0
-616,302,0,0,0,0,0,0,0,0,0,-1,608,722,0,0
-609,302,-7.79266,-3.71649,0,0,0,0,0,0,0,-1,615,722,-7.79267,3.7165
-602,302,0.92865,-1.99158,0,0,0,0,0,0,0,-1,622,722,0.928637,1.99157
-595,302,-7.89941,2.13641,0,0,0,0,0,0,0,-1,629,722,-7.89939,-2.13639
-588,302,-7.10895,1.79163,0,0,0,0,0,0,0,-1,636,722,-7.10896,-1.79163
-581,302,-9.17566,1.09448,0,0,0,0,0,0,0,-1,643,722,-9.17569,-1.09445
-574,302,-11.5183,-0.344543,0,0,0,0,0,0,0,-1,650,722,-11.5183,0.344557
-567,302,-12.1534,-0.672241,0,0,0,0,0,0,0,-1,657,722,-12.1535,0.672246
-560,302,-27.6641,-1.91852,0,0,0,0,0,0,0,-1,664,722,-27.6641,1.91854
-553,302,-27.5215,-2.78711,0.000217802,0.00409055,-0.00155799,0.00463951,-0.000331159,-1.23203,0.0032091,0.0388587,671,722,-27.5216,2.78711
-546,302,-27.5071,-3.72455,0.000680542,0.00309475,-0.00136891,0.00371275,6.25383e-05,-1.14673,0.00245459,0.0184892,678,722,-27.5072,3.72457
-539,302,-27.5447,-4.55927,0.00085824,0.00205152,-0.00100807,0.00262628,0.000283473,-1.0526,0.00166443,0.0141939,685,722,-27.5448,4.55929
-532,302,-27.5708,-5.44366,0.000717786,0.00112989,-0.00053231,0.00149464,0.00035304,-0.970063,0.000902075,0.0139483,692,722,-27.5708,5.44364
-525,302,-27.595,-6.38745,0.000561147,0.000208739,-0.000106214,0.000590684,0.000179202,-0.271235,0.00034971,0.020847,699,722,-27.595,6.38742
-518,302,-27.6617,-7.23883,0.000397604,-0.00055505,0.000392989,0.000538795,-0.00069624,0.344912,0.000714977,0.0229409,706,722,-27.6617,7.23882
-511,302,-27.7402,-8.09406,3.43851e-06,-0.00129533,0.000967954,0.00051966,-0.00181155,0.48994,0.00141314,0.0114833,713,722,-27.7402,8.09404
-504,302,-27.7899,-8.96338,-0.000461574,-0.00202127,0.00161946,0.00055603,-0.00303887,0.56101,0.00223444,0.0100236,720,722,-27.7898,8.96335
-497,302,-27.8513,-9.79901,-0.000730014,-0.00264365,0.00218916,0.000702294,-0.00407595,0.579373,0.00297912,0.0158328,727,722,-27.8512,9.79904
-490,302,-27.915,-10.6362,0,0,0,0,0,0,0,-1,734,722,-27.915,10.6362
-483,302,-9.53412,-3.1673,0,0,0,0,0,0,0,-1,741,722,-9.53411,3.1673
-476,302,-4.29749,-0.203491,0,0,0,0,0,0,0,-1,748,722,-4.29751,0.203464
-469,302,-12.369,1.42859,0,0,0,0,0,0,0,-1,755,722,-12.3689,-1.42857
-462,302,-17.4766,0.310791,0,0,0,0,0,0,0,-1,762,722,-17.4766,-0.310788
-455,302,-36.7368,-2.97418,0,0,0,0,0,0,0,-1,769,722,-36.7368,2.97416
-448,302,-42.1174,-1.44232,0,0,0,0,0,0,0,-1,776,722,-42.1174,1.44229
-441,302,-46.7637,0.580078,0,0,0,0,0,0,0,-1,783,722,-46.7636,-0.58007
-434,302,-46.574,1.30511,0,0,0,0,0,0,0,-1,790,722,-46.574,-1.30509
-427,302,-46.7514,1.51532,0,0,0,0,0,0,0,-1,797,722,-46.7514,-1.51532
-420,302,0,0,0,0,0,0,0,0,0,-1,804,722,0,0
-413,302,0,0,0,0,0,0,0,0,0,-1,811,722,0,0
-406,302,0,0,0,0,0,0,0,0,0,-1,818,722,0,0
-399,302,0,0,0,0,0,0,0,0,0,-1,825,722,0,0
-392,302,0,0,0,0,0,0,0,0,0,-1,832,722,0,0
-385,302,0,0,0,0,0,0,0,0,0,-1,839,722,0,0
-378,302,0,0,0,0,0,0,0,0,0,-1,846,722,0,0
-371,302,0,0,0,0,0,0,0,0,0,-1,853,722,0,0
-364,302,0,0,0,0,0,0,0,0,0,-1,860,722,0,0
-357,302,0,0,0,0,0,0,0,0,0,-1,867,722,0,0
-350,302,0,0,0,0,0,0,0,0,0,-1,874,722,0,0
-343,302,0,0,0,0,0,0,0,0,0,-1,881,722,0,0
-336,302,0,0,0,0,0,0,0,0,0,-1,888,722,0,0
-329,302,0,0,0,0,0,0,0,0,0,-1,895,722,0,0
-322,302,0,0,0,0,0,0,0,0,0,-1,902,722,0,0
-315,302,0,0,0,0,0,0,0,0,0,-1,909,722,0,0
-308,302,0,0,0,0,0,0,0,0,0,-1,916,722,0,0
-301,302,0,0,0,0,0,0,0,0,0,-1,923,722,0,0
-294,302,0,0,0,0,0,0,0,0,0,-1,930,722,0,0
-287,302,0,0,0,0,0,0,0,0,0,-1,937,722,0,0
-280,302,0,0,0,0,0,0,0,0,0,-1,944,722,0,0
-273,302,0,0,0,0,0,0,0,0,0,-1,951,722,0,0
-266,302,0,0,0,0,0,0,0,0,0,-1,958,722,0,0
-259,302,0,0,0,0,0,0,0,0,0,-1,965,722,0,0
-252,302,0,0,0,0,0,0,0,0,0,-1,972,722,0,0
-245,302,0,0,0,0,0,0,0,0,0,-1,979,722,0,0
-238,302,0,0,0,0,0,0,0,0,0,-1,986,722,0,0
-231,302,0,0,0,0,0,0,0,0,0,-1,993,722,0,0
-224,302,0,0,0,0,0,0,0,0,0,-1,1000,722,0,0
-217,302,0,0,0,0,0,0,0,0,0,-1,1007,722,0,0
-210,302,0,0,0,0,0,0,0,0,0,-1,1014,722,0,0
-203,302,0,0,0,0,0,0,0,0,0,-1,1021,722,0,0
-196,302,0,0,0,0,0,0,0,0,0,-1,1028,722,0,0
-189,302,0,0,0,0,0,0,0,0,0,-1,1035,722,0,0
-182,302,0,0,0,0,0,0,0,0,0,-1,1042,722,0,0
-175,302,0,0,0,0,0,0,0,0,0,-1,1049,722,0,0
-168,302,0,0,0,0,0,0,0,0,0,-1,1056,722,0,0
-161,302,0,0,0,0,0,0,0,0,0,-1,1063,722,0,0
-154,302,0,0,0,0,0,0,0,0,0,-1,1070,722,0,0
-147,302,0,0,0,0,0,0,0,0,0,-1,1077,722,0,0
-140,302,0,0,0,0,0,0,0,0,0,-1,1084,722,0,0
-133,302,0,0,0,0,0,0,0,0,0,-1,1091,722,0,0
-126,302,0,0,0,0,0,0,0,0,0,-1,1098,722,0,0
-119,302,0,0,0,0,0,0,0,0,0,-1,1105,722,0,0
-112,302,0,0,0,0,0,0,0,0,0,-1,1112,722,0,0
-105,302,0,0,0,0,0,0,0,0,0,-1,1119,722,0,0
-98,302,0,0,0,0,0,0,0,0,0,-1,1126,722,0,0
-91,302,0,0,0,0,0,0,0,0,0,-1,1133,722,0,0
-84,302,0,0,0,0,0,0,0,0,0,-1,1140,722,0,0
-77,302,0,0,0,0,0,0,0,0,0,-1,1147,722,0,0
-70,302,0,0,0,0,0,0,0,0,0,-1,1154,722,0,0
-63,302,0,0,0,0,0,0,0,0,0,-1,1161,722,0,0
-56,302,0,0,0,0,0,0,0,0,0,-1,1168,722,0,0
-49,302,0,0,0,0,0,0,0,0,0,-1,1175,722,0,0
-42,302,0,0,0,0,0,0,0,0,0,-1,1182,722,0,0
-35,302,0,0,0,0,0,0,0,0,0,-1,1189,722,0,0
-28,302,0,0,0,0,0,0,0,0,0,-1,1196,722,0,0
-21,302,0,0,0,0,0,0,0,0,0,-1,1203,722,0,0
-14,302,0,0,0,0,0,0,0,0,0,-1,1210,722,0,0
-7,302,0,0,0,0,0,0,0,0,0,-1,1217,722,0,0
0,302,0,0,0,0,0,0,0,0,0,-1,1224,722,0,0
7,302,0,0,0,0,0,0,0,0,0,-1,1231,722,0,0
14,302,0,0,0,0,0,0,0,0,0,-1,1238,722,0,0
21,302,0,0,0,0,0,0,0,0,0,-1,1245,722,0,0
28,302,0,0,0,0,0,0,0,0,0,-1,1252,722,0,0
35,302,0,0,0,0,0,0,0,0,0,-1,1259,722,0,0
42,302,0,0,0,0,0,0,0,0,0,-1,1266,722,0,0
49,302,0,0,0,0,0,0,0,0,0,-1,1273,722,0,0
56,302,0,0,0,0,0,0,0,0,0,-1,1280,722,0,0
63,302,0,0,0,0,0,0,0,0,0,-1,1287,722,0,0
70,302,0,0,0,0,0,0,0,0,0,-1,1294,722,0,0
77,302,0,0,0,0,0,0,0,0,0,-1,1301,722,0,0
84,302,0,0,0,0,0,0,0,0,0,-1,1308,722,0,0
91,302,0,0,0,0,0,0,0,0,0,-1,1315,722,0,0
98,302,0,0,0,0,0,0,0,0,0,-1,1322,722,0,0
105,302,0,0,0,0,0,0,0,0,0,-1,1329,722,0,0
112,302,0,0,0,0,0,0,0,0,0,-1,1336,722,0,0
119,302,0,0,0,0,0,0,0,0,0,-1,1343,722,0,0
126,302,0,0,0,0,0,0,0,0,0,-1,1350,722,0,0
133,302,0,0,0,0,0,0,0,0,0,-1,1357,722,0,0
140,302,0,0,0,0,0,0,0,0,0,-1,1364,722,0,0
147,302,0,0,0,0,0,0,0,0,0,-1,1371,722,0,0
154,302,0,0,0,0,0,0,0,0,0,-1,1378,722,0,0
161,302,0,0,0,0,0,0,0,0,0,-1,1385,722,0,0
168,302,0,0,0,0,0,0,0,0,0,-1,1392,722,0,0
175,302,0,0,0,0,0,0,0,0,0,-1,1399,722,0,0
182,302,0,0,0,0,0,0,0,0,0,-1,1406,722,0,0
189,302,0,0,0,0,0,0,0,0,0,-1,1413,722,0,0
196,302,0,0,0,0,0,0,0,0,0,-1,1420,722,0,0
203,302,0,0,0,0,0,0,0,0,0,-1,1427,722,0,0
210,302,0,0,0,0,0,0,0,0,0,-1,1434,722,0,0
217,302,0,0,0,0,0,0,0,0,0,-1,1441,722,0,0
224,302,0,0,0,0,0,0,0,0,0,-1,1448,722,0,0
231,302,0,0,0,0,0,0,0,0,0,-1,1455,722,0,0
238,302,0,0,0,0,0,0,0,0,0,-1,1462,722,0,0
245,302,0,0,0,0,0,0,0,0,0,-1,1469,722,0,0
252,302,0,0,0,0,0,0,0,0,0,-1,1476,722,0,0
259,302,0,0,0,0,0,0,0,0,0,-1,1483,722,0,0
266,302,0,0,0,0,0,0,0,0,0,-1,1490,722,0,0
273,302,0,0,0,0,0,0,0,0,0,-1,1497,722,0,0
280,302,0,0,0,0,0,0,0,0,0,-1,1504,722,0,0
287,302,0,0,0,0,0,0,0,0,0,-1,1511,722,0,0
294,302,0,0,0,0,0,0,0,0,0,-1,1518,722,0,0
301,302,0,0,0,0,0,0,0,0,0,-1,1525,722,0,0
308,302,0,0,0,0,0,0,0,0,0,-1,1532,722,0,0
315,302,0,0,0,0,0,0,0,0,0,-1,1539,722,0,0
322,302,0,0,0,0,0,0,0,0,0,-1,1546,722,0,0
329,302,0,0,0,0,0,0,0,0,0,-1,1553,722,0,0
336,302,0,0,0,0,0,0,0,0,0,-1,1560,722,0,0
343,302,0,0,0,0,0,0,0,0,0,-1,1567,722,0,0
350,302,0,0,0,0,0,0,0,0,0,-1,1574,722,0,0
357,302,0,0,0,0,0,0,0,0,0,-1,1581,722,0,0
364,302,0,0,0,0,0,0,0,0,0,-1,1588,722,0,0
371,302,0,0,0,0,0,0,0,0,0,-1,1595,722,0,0
378,302,0,0,0,0,0,0,0,0,0,-1,1602,722,0,0
385,302,0,0,0,0,0,0,0,0,0,-1,1609,722,0,0
392,302,0,0,0,0,0,0,0,0,0,-1,1616,722,0,0
399,302,0,0,0,0,0,0,0,0,0,-1,1623,722,0,0
406,302,0,0,0,0,0,0,0,0,0,-1,1630,722,0,0
413,302,0,0,0,0,0,0,0,0,0,-1,1637,722,0,0
420,302,0,0,0,0,0,0,0,0,0,-1,1644,722,0,0
427,302,0,0,0,0,0,0,0,0,0,-1,1651,722,0,0
434,302,0,0,0,0,0,0,0,0,0,-1,1658,722,0,0
441,302,0,0,0,0,0,0,0,0,0,-1,1665,722,0,0
448,302,0,0,0,0,0,0,0,0,0,-1,1672,722,0,0
455,302,0,0,0,0,0,0,0,0,0,-1,1679,722,0,0
462,302,0,0,0,0,0,0,0,0,0,-1,1686,722,0,0
469,302,0,0,0,0,0,0,0,0,0,-1,1693,722,0,0
476,302,0,0,0,0,0,0,0,0,0,-1,1700,722,0,0
483,302,0,0,0,0,0,0,0,0,0,-1,1707,722,0,0
490,302,0,0,0,0,0,0,0,0,0,-1,1714,722,0,0
497,302,0,0,0,0,0,0,0,0,0,-1,1721,722,0,0
504,302,0,0,0,0,0,0,0,0,0,-1,1728,722,0,0
511,302,0,0,0,0,0,0,0,0,0,-1,1735,722,0,0
518,302,0,0,0,0,0,0,0,0,0,-1,1742,722,0,0
525,302,0,0,0,0,0,0,0,0,0,-1,1749,722,0,0
532,302,0,0,0,0,0,0,0,0,0,-1,1756,722,0,0
539,302,0,0,0,0,0,0,0,0,0,-1,1763,722,0,0
546,302,48.9873,1.50562,0,0,0,0,0,0,0,-1,1770,722,48.9873,-1.50562
553,302,56.7844,3.46533,0,0,0,0,0,0,0,-1,1777,722,56.7844,-3.4653
560,302,56.7115,3.84808,0,0,0,0,0,0,0,-1,1784,722,56.7116,-3.84806
567,302,55.9475,4.24542,0,0,0,0,0,0,0,-1,1791,722,55.9475,-4.24542
574,302,45.9537,6.00867,0,0,0,0,0,0,0,-1,1798,722,45.9537,-6.00864
581,302,45.137,7.38043,0,0,0,0,0,0,0,-1,1805,722,45.1369,-7.38044
588,302,26.9731,7.19983,0,0,0,0,0,0,0,-1,1812,722,26.9732,-7.19981
595,302,27.3826,8.13104,0,0,0,0,0,0,0,-1,1819,722,27.3825,-8.13102
602,302,14.7349,5.21246,0,0,0,0,0,0,0,-1,1826,722,14.7349,-5.21247
609,302,31.1039,-6.34253,0,0,0,0,0,0,0,-1,1833,722,31.1039,6.34254
616,302,42.668,-9.86206,0,0,0,0,0,0,0,-1,1840,722,42.6679,9.86208
623,302,42.5658,-9.01764,0.00233346,-0.00127862,0.000479619,0.00239606,-0.00134122,0.129786,0.00218618,0.0159733,1847,722,42.5658,9.01765
630,302,42.4847,-8.17413,0.001988,-0.000877744,0.000502021,0.0020734,-0.000963143,0.168498,0.00179178,0.0116858,1854,722,42.4848,8.17411
637,302,42.4054,-7.30737,0.00173062,-0.000455983,0.000573516,0.00187192,-0.000597278,0.241555,0.00148756,0.0157711,1861,722,42.4054,7.30735
644,302,42.3632,-6.41425,0.00156959,3.28347e-05,0.000689338,0.00183349,-0.000231062,0.365614,0.00130618,0.0166289,1868,722,42.3631,6.41425
651,302,42.3384,-5.51929,0.0014948,0.000579883,0.000858079,0.00200974,6.49374e-05,0.540503,0.00131872,0.0145948,1875,722,42.3383,5.51931
658,302,42.2872,-4.64795,0.00150985,0.00125378,0.00106496,0.00245444,0.00030919,0.725571,0.00154359,0.0150685,1882,722,42.2872,4.64794
665,302,42.2515,-3.77484,0.00162082,0.00199455,0.00134659,0.00316718,0.000448191,0.854341,0.00197904,0.0153123,1889,722,42.2515,3.77486
672,302,42.1923,-2.88348,0.00185062,0.00287134,0.00172584,0.0041607,0.000561256,0.929159,0.00260693,0.0126034,1896,722,42.1922,2.8835
679,302,42.1426,-1.97754,0.00217145,0.00393224,0.00220788,0.00542879,0.000674906,0.975113,0.00341652,0.0102388,1903,722,42.1426,1.97757
686,302,42.125,-1.03113,0.00260706,0.00519715,0.00281244,0.00699839,0.000805822,1.00116,0.00442153,0.0256294,1910,722,42.125,1.03115
693,302,42.0443,-0.0882568,0,0,0,0,0,0,0,-1,1917,722,42.0443,0.0882431
700,302,25.4069,1.97308,0,0,0,0,0,0,0,-1,1924,722,25.4068,-1.97311
707,302,16.7321,4.76685,0,0,0,0,0,0,0,-1,1931,722,16.7321,-4.76687
714,302,17.2,5.77594,0,0,0,0,0,0,0,-1,1938,722,17.2,-5.77595
721,302,17.7914,6.60394,0,0,0,0,0,0,0,-1,1945,722,17.7914,-6.60395
728,302,17.2798,4.81702,0,0,0,0,0,0,0,-1,1952,722,17.2798,-4.81703
735,302,0,0,0,0,0,0,0,0,0,-1,1959,722,0,0
742,302,0,0,0,0,0,0,0,0,0,-1,1966,722,0,0
749,302,0,0,0,0,0,0,0,0,0,-1,1973,722,0,0
756,302,0,0,0,0,0,0,0,0,0,-1,1980,722,0,0
763,302,0,0,0,0,0,0,0,0,0,-1,1987,722,0,0
770,302,0,0,0,0,0,0,0,0,0,-1,1994,722,0,0
777,302,0,0,0,0,0,0,0,0,0,-1,2001,722,0,0
784,302,0,0,0,0,0,0,0,0,0,-1,2008,722,0,0
791,302,0,0,0,0,0,0,0,0,0,-1,2015,722,0,0
798,302,0,0,0,0,0,0,0,0,0,-1,2022,722,0,0
805,302,0,0,0,0,0,0,0,0,0,-1,2029,722,0,0
812,302,0,0,0,0,0,0,0,0,0,-1,2036,722,0,0
-700,295,0,0,0,0,0,0,0,0,0,-1,524,729,0,0
-693,295,0,0,0,0,0,0,0,0,0,-1,531,729,0,0
-686,295,0,0,0,0,0,0,0,0,0,-1,538,729,0,0
-679,295,0,0,0,0,0,0,0,0,0,-1,545,729,0,0
-672,295,0,0,0,0,0,0,0,0,0,-1,552,729,0,0
-665,295,0,0,0,0,0,0,0,0,0,-1,559,729,0,0
-658,295,0,0,0,0,0,0,0,0,0,-1,566,729,0,0
-651,295,0,0,0,0,0,0,0,0,0,-1,573,729,0,0
-644,295,0,0,0,0,0,0,0,0,0,-1,580,729,0,0
-637,295,0,0,0,0,0,0,0,0,0,-1,587,729,0,0
-630,295,0,0,0,0,0,0,0,0,0,-1,594,729,0,0
-623,295,0,0,0,0,0,0,0,0,0,-1,601,729,0,0
-616,295,-13.4911,1.31738,0,0,0,0,0,0,0,-1,608,729,-13.4911,-1.3174
-609,295,-10.2864,0.832031,0,0,0,0,0,0,0,-1,615,729,-10.2863,-0.832034
-602,295,-8.19006,3.01587,0,0,0,0,0,0,0,-1,622,729,-8.19005,-3.01588
-595,295,-0.615479,-1.95447,0,0,0,0,0,0,0,-1,629,729,-0.615481,1.95445
-588,295,-7.98999,1.56903,0,0,0,0,0,0,0,-1,636,729,-7.98997,-1.56905
-581,295,-12.0404,0.150574,0,0,0,0,0,0,0,-1,643,729,-12.0404,-0.150604
-574,295,-12.1605,-0.0739746,0,0,0,0,0,0,0,-1,650,729,-12.1605,0.0739856
-567,295,-27.9681,-0.954285,0,0,0,0,0,0,0,-1,657,729,-27.9681,0.954263
-560,295,-28.2487,-1.97137,-0.0010673,0.00417379,-0.00133067,0.00449228,-0.00138579,-1.33587,0.00354817,0.0388449,664,729,-28.2487,1.97137
-553,295,-28.2941,-2.85797,-0.000266089,0.00299713,-0.00107917,0.00332173,-0.000590688,-1.27862,0.00243538,0.0210106,671,729,-28.2941,2.85798
-546,295,-28.3875,-3.71326,0.000138961,0.00220321,-0.000838834,0.00250109,-0.000158924,-1.22957,0.00172281,0.0208128,678,729,-28.3875,3.71324
-539,295,-28.4265,-4.54388,0.000321909,0.00144248,-0.000504505,0.00163614,0.000128241,-1.20427,0.00105063,0.0177645,685,729,-28.4265,4.54386
-532,295,-28.4755,-5.39056,0.000181093,0.000643619,-4.8128e-05,0.000648574,0.000176139,-1.46821,0.000387261,0.015079,692,729,-28.4754,5.39059
-525,295,-28.5042,-6.31848,2.65792e-05,-0.000184226,0.000326741,0.000264497,-0.000422144,0.629374,0.0003999,0.0156093,699,729,-28.5042,6.31847
-518,295,-28.5284,-7.18073,-0.000179072,-0.000880186,0.000795128,0.000339346,-0.00139861,0.577776,0.00106372,0.0121533,706,729,-28.5284,7.18075
-511,295,-28.5944,-8.02344,-0.000673011,-0.00158667,0.00139489,0.00033795,-0.00259763,0.627151,0.0018547,0.0100303,713,729,-28.5944,8.02341
-504,295,-28.6605,-8.86731,-0.00122153,-0.00232361,0.00209661,0.000395249,-0.00394039,0.656892,0.0027681,0.0113785,720,729,-28.6605,8.86734
-497,295,-28.7516,-9.64648,-0.00154259,-0.00299456,0.00275251,0.000578061,-0.00511521,0.656457,0.00361826,0.0241974,727,729,-28.7516,9.64648
-490,295,-28.8394,-10.3971,0,0,0,0,0,0,0,-1,734,729,-28.8393,10.3971
-483,295,-6.84503,-0.454651,0,0,0,0,0,0,0,-1,741,729,-6.84505,0.454639
-476,295,-13.1738,-0.836243,0,0,0,0,0,0,0,-1,748,729,-13.1738,0.836223
-469,295,-26.5608,-0.466187,0,0,0,0,0,0,0,-1,755,729,-26.5608,0.466162
-462,295,-29.7701,-0.792664,0,0,0,0,0,0,0,-1,762,729,-29.7701,0.792642
-455,295,-45.11,-2.79272,0,0,0,0,0,0,0,-1,769,729,-45.11,2.79272
-448,295,-48.0288,1.41229,0,0,0,0,0,0,0,-1,776,729,-48.0288,-1.41227
-441,295,-47.1089,1.03058,0,0,0,0,0,0,0,-1,783,729,-47.109,-1.0306
-434,295,-46.2319,1.10614,0,0,0,0,0,0,0,-1,790,729,-46.2319,-1.10612
-427,295,0,0,0,0,0,0,0,0,0,-1,797,729,0,0
-420,295,0,0,0,0,0,0,0,0,0,-1,804,729,0,0
-413,295,0,0,0,0,0,0,0,0,0,-1,811,729,0,0
-406,295,0,0,0,0,0,0,0,0,0,-1,818,729,0,0
-399,295,0,0,0,0,0,0,0,0,0,-1,825,729,0,0
-392,295,0,0,0,0,0,0,0,0,0,-1,832,729,0,0
-385,295,0,0,0,0,0,0,0,0,0,-1,839,729,0,0
-378,295,0,0,0,0,0,0,0,0,0,-1,846,729,0,0
-371,295,0,0,0,0,0,0,0,0,0,-1,853,729,0,0
-364,295,0,0,0,0,0,0,0,0,0,-1,860,729,0,0
-357,295,0,0,0,0,0,0,0,0,0,-1,867,729,0,0
-350,295,0,0,0,0,0,0,0,0,0,-1,874,729,0,0
-343,295,0,0,0,0,0,0,0,0,0,-1,881,729,0,0
-336,295,0,0,0,0,0,0,0,0,0,-1,888,729,0,0
-329,295,0,0,0,0,0,0,0,0,0,-1,895,729,0,0
-322,295,0,0,0,0,0,0,0,0,0,-1,902,729,0,0
-315,295,0,0,0,0,0,0,0,0,0,-1,909,729,0,0
-308,295,0,0,0,0,0,0,0,0,0,-1,916,729,0,0
-301,295,0,0,0,0,0,0,0,0,0,-1,923,729,0,0
-294,295,0,0,0,0,0,0,0,0,0,-1,930,729,0,0
-287,295,0,0,0,0,0,0,0,0,0,-1,937,729,0,0
-280,295,0,0,0,0,0,0,0,0,0,-1,944,729,0,0
-273,295,0,0,0,0,0,0,0,0,0,-1,951,729,0,0
-266,295,0,0,0,0,0,0,0,0,0,-1,958,729,0,0
-259,295,0,0,0,0,0,0,0,0,0,-1,965,729,0,0
-252,295,0,0,0,0,0,0,0,0,0,-1,972,729,0,0
-245,295,0,0,0,0,0,0,0,0,0,-1,979,729,0,0
-238,295,0,0,0,0,0,0,0,0,0,-1,986,729,0,0
-231,295,0,0,0,0,0,0,0,0,0,-1,993,729,0,0
-224,295,0,0,0,0,0,0,0,0,0,-1,1000,729,0,0
-217,295,0,0,0,0,0,0,0,0,0,-1,1007,729,0,0
-210,295,0,0,0,0,0,0,0,0,0,-1,1014,729,0,0
-203,295,0,0,0,0,0,0,0,0,0,-1,1021,729,0,0
-196,295,0,0,0,0,0,0,0,0,0,-1,1028,729,0,0
-189,295,0,0,0,0,0,0,0,0,0,-1,1035,729,0,0
-182,295,0,0,0,0,0,0,0,0,0,-1,1042,729,0,0
-175,295,0,0,0,0,0,0,0,0,0,-1,1049,729,0,0
-168,295,0,0,0,0,0,0,0,0,0,-1,1056,729,0,0
-161,295,0,0,0,0,0,0,0,0,0,-1,1063,729,0,0
-154,295,0,0,0,0,0,0,0,0,0,-1,1070,729,0,0
-147,295,0,0,0,0,0,0,0,0,0,-1,1077,729,0,0
-140,295,0,0,0,0,0,0,0,0,0,-1,1084,729,0,0
-133,295,0,0,0,0,0,0,0,0,0,-1,1091,729,0,0
-126,295,0,0,0,0,0,0,0,0,0,-1,1098,729,0,0
-119,295,0,0,0,0,0,0,0,0,0,-1,1105,729,0,0
-112,295,0,0,0,0,0,0,0,0,0,-1,1112,729,0,0
-105,295,0,0,0,0,0,0,0,0,0,-1,1119,729,0,0
-98,295,0,0,0,0,0,0,0,0,0,-1,1126,729,0,0
-91,295,0,0,0,0,0,0,0,0,0,-1,1133,729,0,0
-84,295,0,0,0,0,0,0,0,0,0,-1,1140,729,0,0
-77,295,0,0,0,0,0,0,0,0,0,-1,1147,729,0,0
-70,295,0,0,0,0,0,0,0,0,0,-1,1154,729,0,0
-63,295,0,0,0,0,0,0,0,0,0,-1,1161,729,0,0
-56,295,0,0,0,0,0,0,0,0,0,-1,1168,729,0,0
-49,295,0,0,0,0,0,0,0,0,0,-1,1175,729,0,0
-42,295,0,0,0,0,0,0,0,0,0,-1,1182,729,0,0
-35,295,0,0,0,0,0,0,0,0,0,-1,1189,729,0,0
-28,295,0,0,0,0,0,0,0,0,0,-1,1196,729,0,0
-21,295,0,0,0,0,0,0,0,0,0,-1,1203,729,0,0
-14,295,0,0,0,0,0,0,0,0,0,-1,1210,729,0,0
-7,295,0,0,0,0,0,0,0,0,0,-1,1217,729,0,0
0,295,0,0,0,0,0,0,0,0,0,-1,1224,729,0,0
7,295,0,0,0,0,0,0,0,0,0,-1,1231,729,0,0
14,295,0,0,0,0,0,0,0,0,0,-1,1238,729,0,0
21,295,0,0,0,0,0,0,0,0,0,-1,1245,729,0,0
28,295,0,0,0,0,0,0,0,0,0,-1,1252,729,0,0
35,295,0,0,0,0,0,0,0,0,0,-1,1259,729,0,0
42,295,0,0,0,0,0,0,0,0,0,-1,1266,729,0,0
49,295,0,0,0,0,0,0,0,0,0,-1,1273,729,0,0
56,295,0,0,0,0,0,0,0,0,0,-1,1280,729,0,0
63,295,0,0,0,0,0,0,0,0,0,-1,1287,729,0,0
70,295,0,0,0,0,0,0,0,0,0,-1,1294,729,0,0
77,295,0,0,0,0,0,0,0,0,0,-1,1301,729,0,0
84,295,0,0,0,0,0,0,0,0,0,-1,1308,729,0,0
91,295,0,0,0,0,0,0,0,0,0,-1,1315,729,0,0
98,295,0,0,0,0,0,0,0,0,0,-1,1322,729,0,0
105,295,0,0,0,0,0,0,0,0,0,-1,1329,729,0,0
112,295,0,0,0,0,0,0,0,0,0,-1,1336,729,0,0
119,295,0,0,0,0,0,0,0,0,0,-1,1343,729,0,0
126,295,0,0,0,0,0,0,0,0,0,-1,1350,729,0,0
133,295,0,0,0,0,0,0,0,0,0,-1,1357,729,0,0
140,295,0,0,0,0,0,0,0,0,0,-1,1364,729,0,0
147,295,0,0,0,0,0,0,0,0,0,-1,1371,729,0,0
154,295,0,0,0,0,0,0,0,0,0,-1,1378,729,0,0
161,295,0,0,0,0,0,0,0,0,0,-1,1385,729,0,0
168,295,0,0,0,0,0,0,0,0,0,-1,1392,729,0,0
175,295,0,0,0,0,0,0,0,0,0,-1,1399,729,0,0
182,295,0,0,0,0,0,0,0,0,0,-1,1406,729,0,0
189,295,0,0,0,0,0,0,0,0,0,-1,1413,729,0,0
196,295,0,0,0,0,0,0,0,0,0,-1,1420,729,0,0
203,295,0,0,0,0,0,0,0,0,0,-1,1427,729,0,0
210,295,0,0,0,0,0,0,0,0,0,-1,1434,729,0,0
217,295,0,0,0,0,0,0,0,0,0,-1,1441,729,0,0
224,295,0,0,0,0,0,0,0,0,0,-1,1448,729,0,0
231,295,0,0,0,0,0,0,0,0,0,-1,1455,729,0,0
238,295,0,0,0,0,0,0,0,0,0,-1,1462,729,0,0
245,295,0,0,0,0,0,0,0,0,0,-1,1469,729,0,0
252,295,0,0,0,0,0,0,0,0,0,-1,1476,729,0,0
259,295,0,0,0,0,0,0,0,0,0,-1,1483,729,0,0
266,295,0,0,0,0,0,0,0,0,0,-1,1490,729,0,0
273,295,0,0,0,0,0,0,0,0,0,-1,1497,729,0,0
280,295,0,0,0,0,0,0,0,0,0,-1,1504,729,0,0
287,295,0,0,0,0,0,0,0,0,0,-1,1511,729,0,0
294,295,0,0,0,0,0,0,0,0,0,-1,1518,729,0,0
301,295,0,0,0,0,0,0,0,0,0,-1,1525,729,0,0
308,295,0,0,0,0,0,0,0,0,0,-1,1532,729,0,0
315,295,0,0,0,0,0,0,0,0,0,-1,1539,729,0,0
322,295,0,0,0,0,0,0,0,0,0,-1,1546,729,0,0
329,295,0,0,0,0,0,0,0,0,0,-1,1553,729,0,0
336,295,0,0,0,0,0,0,0,0,0,-1,1560,729,0,0
343,295,0,0,0,0,0,0,0,0,0,-1,1567,729,0,0
350,295,0,0,0,0,0,0,0,0,0,-1,1574,729,0,0
357,295,0,0,0,0,0,0,0,0,0,-1,1581,729,0,0
364,295,0,0,0,0,0,0,0,0,0,-1,1588,729,0,0
371,295,0,0,0,0,0,0,0,0,0,-1,1595,729,0,0
378,295,0,0,0,0,0,0,0,0,0,-1,1602,729,0,0
385,295,0,0,0,0,0,0,0,0,0,-1,1609,729,0,0
392,295,0,0,0,0,0,0,0,0,0,-1,1616,729,0,0
399,295,0,0,0,0,0,0,0,0,0,-1,1623,729,0,0
406,295,0,0,0,0,0,0,0,0,0,-1,1630,729,0,0
413,295,0,0,0,0,0,0,0,0,0,-1,1637,729,0,0
420,295,0,0,0,0,0,0,0,0,0,-1,1644,729,0,0
427,295,0,0,0,0,0,0,0,0,0,-1,1651,729,0,0
434,295,0,0,0,0,0,0,0,0,0,-1,1658,729,0,0
441,295,0,0,0,0,0,0,0,0,0,-1,1665,729,0,0
448,295,0,0,0,0,0,0,0,0,0,-1,1672,729,0,0
455,295,0,0,0,0,0,0,0,0,0,-1,1679,729,0,0
462,295,0,0,0,0,0,0,0,0,0,-1,1686,729,0,0
469,295,0,0,0,0,0,0,0,0,0,-1,1693,729,0,0
476,295,0,0,0,0,0,0,0,0,0,-1,1700,729,0,0
483,295,0,0,0,0,0,0,0,0,0,-1,1707,729,0,0
490,295,0,0,0,0,0,0,0,0,0,-1,1714,729,0,0
497,295,0,0,0,0,0,0,0,0,0,-1,1721,729,0,0
504,295,0,0,0,0,0,0,0,0,0,-1,1728,729,0,0
511,295,0,0,0,0,0,0,0,0,0,-1,1735,729,0,0
518,295,0,0,0,0,0,0,0,0,0,-1,1742,729,0,0
525,295,0,0,0,0,0,0,0,0,0,-1,1749,729,0,0
532,295,0,0,0,0,0,0,0,0,0,-1,1756,729,0,0
539,295,0,0,0,0,0,0,0,0,0,-1,1763,729,0,0
546,295,57.4674,2.36884,0,0,0,0,0,0,0,-1,1770,729,57.4674,-2.36883
553,295,57.1969,2.73846,0,0,0,0,0,0,0,-1,1777,729,57.197,-2.73843
560,295,57.0291,3.27454,0,0,0,0,0,0,0,-1,1784,729,57.029,-3.27454
567,295,56.6243,3.88239,0,0,0,0,0,0,0,-1,1791,729,56.6242,-3.8824
574,295,56.5275,4.755,0,0,0,0,0,0,0,-1,1798,729,56.5274,-4.75501
581,295,37.8191,2.19592,0,0,0,0,0,0,0,-1,1805,729,37.8191,-2.19594
588,295,39.0542,2.45679,0,0,0,0,0,0,0,-1,1812,729,39.0542,-2.45676
595,295,27.2102,6.99121,0,0,0,0,0,0,0,-1,1819,729,27.2103,-6.99121
602,295,26.9065,7.82141,0,0,0,0,0,0,0,-1,1826,729,26.9064,-7.8214
609,295,11.7737,2.19989,0,0,0,0,0,0,0,-1,1833,729,11.7736,-2.19988
616,295,43.3733,-9.76355,0,0,0,0,0,0,0,-1,1840,729,43.3732,9.76356
623,295,43.3678,-8.95184,0.00331449,-0.00159933,0.000876535,0.00346617,-0.001751,0.171344,0.00306592,0.0449461,1847,729,43.3678,8.95182
630,295,43.3523,-8.10168,0.00268582,-0.00103009,0.000773733,0.00284048,-0.00118476,0.1973,0.00238861,0.013765,1854,729,43.3523,8.10171
637,295,43.296,-7.22205,0.0022521,-0.000562531,0.000713514,0.00242264,-0.000733075,0.234617,0.00190701,0.0153809,1861,729,43.296,7.22204
644,295,43.2675,-6.33673,0.00185979,-6.6134e-05,0.000716653,0.0020972,-0.000303542,0.319895,0.00150952,0.0144841,1868,729,43.2674,6.33676
651,295,43.2415,-5.45398,0.00160849,0.000421544,0.000796585,0.00200837,2.16593e-05,0.465246,0.00133175,0.0147212,1875,729,43.2415,5.45396
658,295,43.2003,-4.58185,0.00155086,0.00102305,0.000931571,0.00225519,0.000318726,0.647371,0.00140928,0.0135726,1882,729,43.2004,4.58182
665,295,43.1289,-3.71631,0.00156143,0.00169431,0.00114388,0.00277368,0.000482057,0.814407,0.00171122,0.0123929,1889,729,43.1288,3.7163
672,295,43.0682,-2.84656,0.00168565,0.00249957,0.00148619,0.00363351,0.000551715,0.919036,0.00226099,0.0148706,1896,729,43.0683,2.84653
679,295,43.0052,-1.9469,0.00188113,0.0034804,0.00191242,0.00475364,0.000607902,0.983415,0.00298715,0.0118507,1903,729,43.0052,1.94691
686,295,42.9943,-1.06049,0.00215459,0.00465318,0.00245906,0.00616209,0.000645676,1.02043,0.00391064,0.0128361,1910,729,42.9943,1.06048
693,295,42.9923,-0.165466,0,0,0,0,0,0,0,-1,1917,729,42.9923,0.165461
700,295,31.3757,2.06982,0,0,0,0,0,0,0,-1,1924,729,31.3758,-2.0698
707,295,22.2661,3.05206,0,0,0,0,0,0,0,-1,1931,729,22.2662,-3.05207
714,295,17.4906,4.63068,0,0,0,0,0,0,0,-1,1938,729,17.4906,-4.63066
721,295,18.3792,5.32281,0,0,0,0,0,0,0,-1,1945,729,18.3791,-5.32283
728,295,17.379,3.74866,0,0,0,0,0,0,0,-1,1952,729,17.379,-3.74863
735,295,0,0,0,0,0,0,0,0,0,-1,1959,729,0,0
742,295,0,0,0,0,0,0,0,0,0,-1,1966,729,0,0
749,295,0,0,0,0,0,0,0,0,0,-1,1973,729,0,0
756,295,0,0,0,0,0,0,0,0,0,-1,1980,729,0,0
763,295,0,0,0,0,0,0,0,0,0,-1,1987,729,0,0
770,295,0,0,0,0,0,0,0,0,0,-1,1994,729,0,0
777,295,0,0,0,0,0,0,0,0,0,-1,2001,729,0,0
784,295,0,0,0,0,0,0,0,0,0,-1,2008,729,0,0
791,295,0,0,0,0,0,0,0,0,0,-1,2015,729,0,0
798,295,0,0,0,0,0,0,0,0,0,-1,2022,729,0,0
805,295,0,0,0,0,0,0,0,0,0,-1,2029,729,0,0
812,295,0,0,0,0,0,0,0,0,0,-1,2036,729,0,0
-700,288,0,0,0,0,0,0,0,0,0,-1,524,736,0,0
-693,288,0,0,0,0,0,0,0,0,0,-1,531,736,0,0
-686,288,0,0,0,0,0,0,0,0,0,-1,538,736,0,0
-679,288,0,0,0,0,0,0,0,0,0,-1,545,736,0,0
-672,288,0,0,0,0,0,0,0,0,0,-1,552,736,0,0
-665,288,0,0,0,0,0,0,0,0,0,-1,559,736,0,0
-658,288,0,0,0,0,0,0,0,0,0,-1,566,736,0,0
-651,288,0,0,0,0,0,0,0,0,0,-1,573,736,0,0
-644,288,0,0,0,0,0,0,0,0,0,-1,580,736,0,0
-637,288,0,0,0,0,0,0,0,0,0,-1,587,736,0,0
-630,288,0,0,0,0,0,0,0,0,0,-1,594,736,0,0
-623,288,0,0,0,0,0,0,0,0,0,-1,601,736,0,0
-616,288,-11.7584,2.4425,0,0,0,0,0,0,0,-1,608,736,-11.7584,-2.44251
-609,288,-10.3007,2.32178,0,0,0,0,0,0,0,-1,615,736,-10.3007,-2.32178
-602,288,-10.1458,-1.85559,0,0,0,0,0,0,0,-1,622,736,-10.1458,1.85556
-595,288,-7.63208,1.81769,0,0,0,0,0,0,0,-1,629,736,-7.63205,-1.81766
-588,288,-8.19269,1.50598,0,0,0,0,0,0,0,-1,636,736,-8.19268,-1.50601
-581,288,-13.1915,0.659241,0,0,0,0,0,0,0,-1,643,736,-13.1915,-0.659228
-574,288,-28.7734,-0.212219,0,0,0,0,0,0,0,-1,650,736,-28.7734,0.212202
-567,288,-28.8571,-1.06177,-0.00136205,0.00377077,-0.00204611,0.00448659,-0.00207787,-1.23426,0.0038741,0.0374726,657,736,-28.8571,1.06176
-560,288,-29.1422,-1.98914,-0.00086611,0.00304639,-0.00138419,0.00348657,-0.00130629,-1.2629,0.00286101,0.0180133,664,736,-29.1422,1.98914
-553,288,-29.1548,-2.78088,-0.000412996,0.00219187,-0.000898003,0.00247144,-0.000692568,-1.26898,0.00192057,0.0183363,671,736,-29.1548,2.78089
-546,288,-29.2261,-3.67889,-0.00019907,0.00150361,-0.000480242,0.00162972,-0.000325182,-1.31399,0.00120953,0.0209368,678,736,-29.2261,3.67892
-539,288,-29.2701,-4.50928,-0.000138147,0.000908618,-3.09565e-05,0.000909533,-0.000139062,-1.54126,0.000657629,0.0174469,685,736,-29.2702,4.5093
-532,288,-29.2863,-5.3432,-0.000358787,0.000195659,0.000473138,0.000466808,-0.000629936,1.0504,0.000635536,0.014311,692,736,-29.2862,5.3432
-525,288,-29.3527,-6.23041,-0.000564233,-0.00055275,0.000850313,0.000291841,-0.00140882,0.788774,0.0010501,0.0134753,699,736,-29.3527,6.23042
-518,288,-29.4298,-7.10535,-0.000873484,-0.0011935,0.00132165,0.000297808,-0.00236479,0.725158,0.00168459,0.012346,706,736,-29.4298,7.10537
-511,288,-29.4913,-7.95673,-0.0015173,-0.00185582,0.00194591,0.000266696,-0.00363982,0.742016,0.00252015,0.00938242,713,736,-29.4913,7.95675
-504,288,-29.5551,-8.81201,-0.0021832,-0.00260166,0.00268505,0.00030076,-0.00508562,0.746514,0.00349498,0.0115511,720,736,-29.5551,8.81201
-497,288,-29.5658,-9.42975,-0.00259736,-0.00332215,0.00339839,0.000457903,-0.00637741,0.73228,0.00441217,0.0361303,727,736,-29.5658,9.42974
-490,288,-29.4379,-9.94507,0,0,0,0,0,0,0,-1,734,736,-29.438,9.94508
-483,288,-17.3287,0.564758,0,0,0,0,0,0,0,-1,741,736,-17.3287,-0.56477
-476,288,-26.136,0.452148,0,0,0,0,0,0,0,-1,748,736,-26.136,-0.452177
-469,288,-27.7904,0.649841,0,0,0,0,0,0,0,-1,755,736,-27.7904,-0.649854
-462,288,-44.999,-2.65112,0,0,0,0,0,0,0,-1,762,736,-44.999,2.65111
-455,288,-49.1631,1.86432,0,0,0,0,0,0,0,-1,769,736,-49.1632,-1.8643
-448,288,-51.4573,1.70825,0,0,0,0,0,0,0,-1,776,736,-51.4573,-1.70824
-441,288,-47.7353,1.50165,0,0,0,0,0,0,0,-1,783,736,-47.7353,-1.50164
-434,288,-46.7119,1.66388,0,0,0,0,0,0,0,-1,790,736,-46.7119,-1.66385
-427,288,0,0,0,0,0,0,0,0,0,-1,797,736,0,0
-420,288,0,0,0,0,0,0,0,0,0,-1,804,736,0,0
-413,288,0,0,0,0,0,0,0,0,0,-1,811,736,0,0
-406,288,0,0,0,0,0,0,0,0,0,-1,818,736,0,0
-399,288,0,0,0,0,0,0,0,0,0,-1,825,736,0,0
-392,288,0,0,0,0,0,0,0,0,0,-1,832,736,0,0
-385,288,0,0,0,0,0,0,0,0,0,-1,839,736,0,0
-378,288,0,0,0,0,0,0,0,0,0,-1,846,736,0,0
-371,288,0,0,0,0,0,0,0,0,0,-1,853,736,0,0
-364,288,0,0,0,0,0,0,0,0,0,-1,860,736,0,0
-357,288,0,0,0,0,0,0,0,0,0,-1,867,736,0,0
-350,288,0,0,0,0,0,0,0,0,0,-1,874,736,0,0
-343,288,0,0,0,0,0,0,0,0,0,-1,881,736,0,0
-336,288,0,0,0,0,0,0,0,0,0,-1,888,736,0,0
-329,288,0,0,0,0,0,0,0,0,0,-1,895,736,0,0
-322,288,0,0,0,0,0,0,0,0,0,-1,902,736,0,0
-315,288,0,0,0,0,0,0,0,0,0,-1,909,736,0,0
-308,288,0,0,0,0,0,0,0,0,0,-1,916,736,0,0
-301,288,0,0,0,0,0,0,0,0,0,-1,923,736,0,0
-294,288,0,0,0,0,0,0,0,0,0,-1,930,736,0,0
-287,288,0,0,0,0,0,0,0,0,0,-1,937,736,0,0
-280,288,0,0,0,0,0,0,0,0,0,-1,944,736,0,0
-273,288,0,0,0,0,0,0,0,0,0,-1,951,736,0,0
-266,288,0,0,0,0,0,0,0,0,0,-1,958,736,0,0
-259,288,0,0,0,0,0,0,0,0,0,-1,965,736,0,0
-252,288,0,0,0,0,0,0,0,0,0,-1,972,736,0,0
-245,288,0,0,0,0,0,0,0,0,0,-1,979,736,0,0
-238,288,0,0,0,0,0,0,0,0,0,-1,986,736,0,0
-231,288,0,0,0,0,0,0,0,0,0,-1,993,736,0,0
-224,288,0,0,0,0,0,0,0,0,0,-1,1000,736,0,0
-217,288,0,0,0,0,0,0,0,0,0,-1,1007,736,0,0
-210,288,0,0,0,0,0,0,0,0,0,-1,1014,736,0,0
-203,288,0,0,0,0,0,0,0,0,0,-1,1021,736,0,0
-196,288,0,0,0,0,0,0,0,0,0,-1,1028,736,0,0
-189,288,0,0,0,0,0,0,0,0,0,-1,1035,736,0,0
-182,288,0,0,0,0,0,0,0,0,0,-1,1042,736,0,0
-175,288,0,0,0,0,0,0,0,0,0,-1,1049,736,0,0
-168,288,0,0,0,0,0,0,0,0,0,-1,1056,736,0,0
-161,288,0,0,0,0,0,0,0,0,0,-1,1063,736,0,0
-154,288,0,0,0,0,0,0,0,0,0,-1,1070,736,0,0
-147,288,0,0,0,0,0,0,0,0,0,-1,1077,736,0,0
-140,288,0,0,0,0,0,0,0,0,0,-1,1084,736,0,0
-133,288,0,0,0,0,0,0,0,0,0,-1,1091,736,0,0
-126,288,0,0,0,0,0,0,0,0,0,-1,1098,736,0,0
-119,288,0,0,0,0,0,0,0,0,0,-1,1105,736,0,0
-112,288,0,0,0,0,0,0,0,0,0,-1,1112,736,0,0
-105,288,0,0,0,0,0,0,0,0,0,-1,1119,736,0,0
-98,288,0,0,0,0,0,0,0,0,0,-1,1126,736,0,0
-91,288,0,0,0,0,0,0,0,0,0,-1,1133,736,0,0
-84,288,0,0,0,0,0,0,0,0,0,-1,1140,736,0,0
-77,288,0,0,0,0,0,0,0,0,0,-1,1147,736,0,0
-70,288,0,0,0,0,0,0,0,0,0,-1,1154,736,0,0
-63,288,0,0,0,0,0,0,0,0,0,-1,1161,736,0,0
-56,288,0,0,0,0,0,0,0,0,0,-1,1168,736,0,0
-49,288,0,0,0,0,0,0,0,0,0,-1,1175,736,0,0
-42,288,0,0,0,0,0,0,0,0,0,-1,1182,736,0,0
-35,288,0,0,0,0,0,0,0,0,0,-1,1189,736,0,0
-28,288,0,0,0,0,0,0,0,0,0,-1,1196,736,0,0
-21,288,0,0,0,0,0,0,0,0,0,-1,1203,736,0,0
-14,288,0,0,0,0,0,0,0,0,0,-1,1210,736,0,0
-7,288,0,0,0,0,0,0,0,0,0,-1,1217,736,0,0
0,288,0,0,0,0,0,0,0,0,0,-1,1224,736,0,0
7,288,0,0,0,0,0,0,0,0,0,-1,1231,736,0,0
14,288,0,0,0,0,0,0,0,0,0,-1,1238,736,0,0
21,288,0,0,0,0,0,0,0,0,0,-1,1245,736,0,0
28,288,0,0,0,0,0,0,0,0,0,-1,1252,736,0,0
35,288,0,0,0,0,0,0,0,0,0,-1,1259,736,0,0
42,288,0,0,0,0,0,0,0,0,0,-1,1266,736,0,0
49,288,0,0,0,0,0,0,0,0,0,-1,1273,736,0,0
56,288,0,0,0,0,0,0,0,0,0,-1,1280,736,0,0
63,288,0,0,0,0,0,0,0,0,0,-1,1287,736,0,0
70,288,0,0,0,0,0,0,0,0,0,-1,1294,736,0,0
77,288,0,0,0,0,0,0,0,0,0,-1,1301,736,0,0
84,288,0,0,0,0,0,0,0,0,0,-1,1308,736,0,0
91,288,0,0,0,0,0,0,0,0,0,-1,1315,736,0,0
98,288,0,0,0,0,0,0,0,0,0,-1,1322,736,0,0
105,288,0,0,0,0,0,0,0,0,0,-1,1329,736,0,0
112,288,0,0,0,0,0,0,0,0,0,-1,1336,736,0,0
119,288,0,0,0,0,0,0,0,0,0,-1,1343,736,0,0
126,288,0,0,0,0,0,0,0,0,0,-1,1350,736,0,0
133,288,0,0,0,0,0,0,0,0,0,-1,1357,736,0,0
140,288,0,0,0,0,0,0,0,0,0,-1,1364,736,0,0
147,288,0,0,0,0,0,0,0,0,0,-1,1371,736,0,0
154,288,0,0,0,0,0,0,0,0,0,-1,1378,736,0,0
161,288,0,0,0,0,0,0,0,0,0,-1,1385,736,0,0
168,288,0,0,0,0,0,0,0,0,0,-1,1392,736,0,0
175,288,0,0,0,0,0,0,0,0,0,-1,1399,736,0,0
182,288,0,0,0,0,0,0,0,0,0,-1,1406,736,0,0
189,288,0,0,0,0,0,0,0,0,0,-1,1413,736,0,0
196,288,0,0,0,0,0,0,0,0,0,-1,1420,736,0,0
203,288,0,0,0,0,0,0,0,0,0,-1,1427,736,0,0
210,288,0,0,0,0,0,0,0,0,0,-1,1434,736,0,0
217,288,0,0,0,0,0,0,0,0,0,-1,1441,736,0,0
224,288,0,0,0,0,0,0,0,0,0,-1,1448,736,0,0
231,288,0,0,0,0,0,0,0,0,0,-1,1455,736,0,0
238,288,0,0,0,0,0,0,0,0,0,-1,1462,736,0,0
245,288,0,0,0,0,0,0,0,0,0,-1,1469,736,0,0
252,288,0,0,0,0,0,0,0,0,0,-1,1476,736,0,0
259,288,0,0,0,0,0,0,0,0,0,-1,1483,736,0,0
266,288,0,0,0,0,0,0,0,0,0,-1,1490,736,0,0
273,288,0,0,0,0,0,0,0,0,0,-1,1497,736,0,0
280,288,0,0,0,0,0,0,0,0,0,-1,1504,736,0,0
287,288,0,0,0,0,0,0,0,0,0,-1,1511,736,0,0
294,288,0,0,0,0,0,0,0,0,0,-1,1518,736,0,0
301,288,0,0,0,0,0,0,0,0,0,-1,1525,736,0,0
308,288,0,0,0,0,0,0,0,0,0,-1,1532,736,0,0
315,288,0,0,0,0,0,0,0,0,0,-1,1539,736,0,0
322,288,0,0,0,0,0,0,0,0,0,-1,1546,736,0,0
329,288,0,0,0,0,0,0,0,0,0,-1,1553,736,0,0
336,288,0,0,0,0,0,0,0,0,0,-1,1560,736,0,0
343,288,0,0,0,0,0,0,0,0,0,-1,1567,736,0,0
350,288,0,0,0,0,0,0,0,0,0,-1,1574,736,0,0
357,288,0,0,0,0,0,0,0,0,0,-1,1581,736,0,0
364,288,0,0,0,0,0,0,0,0,0,-1,1588,736,0,0
371,288,0,0,0,0,0,0,0,0,0,-1,1595,736,0,0
378,288,0,0,0,0,0,0,0,0,0,-1,1602,736,0,0
385,288,0,0,0,0,0,0,0,0,0,-1,1609,736,0,0
392,288,0,0,0,0,0,0,0,0,0,-1,1616,736,0,0
399,288,0,0,0,0,0,0,0,0,0,-1,1623,736,0,0
406,288,0,0,0,0,0,0,0,0,0,-1,1630,736,0,0
413,288,0,0,0,0,0,0,0,0,0,-1,1637,736,0,0
420,288,0,0,0,0,0,0,0,0,0,-1,1644,736,0,0
427,288,0,0,0,0,0,0,0,0,0,-1,1651,736,0,0
434,288,0,0,0,0,0,0,0,0,0,-1,1658,736,0,0
441,288,0,0,0,0,0,0,0,0,0,-1,1665,736,0,0
448,288,0,0,0,0,0,0,0,0,0,-1,1672,736,0,0
455,288,0,0,0,0,0,0,0,0,0,-1,1679,736,0,0
462,288,0,0,0,0,0,0,0,0,0,-1,1686,736,0,0
469,288,0,0,0,0,0,0,0,0,0,-1,1693,736,0,0
476,288,0,0,0,0,0,0,0,0,0,-1,1700,736,0,0
483,288,0,0,0,0,0,0,0,0,0,-1,1707,736,0,0
490,288,0,0,0,0,0,0,0,0,0,-1,1714,736,0,0
497,288,0,0,0,0,0,0,0,0,0,-1,1721,736,0,0
504,288,0,0,0,0,0,0,0,0,0,-1,1728,736,0,0
511,288,0,0,0,0,0,0,0,0,0,-1,1735,736,0,0
518,288,0,0,0,0,0,0,0,0,0,-1,1742,736,0,0
525,288,0,0,0,0,0,0,0,0,0,-1,1749,736,0,0
532,288,0,0,0,0,0,0,0,0,0,-1,1756,736,0,0
539,288,0,0,0,0,0,0,0,0,0,-1,1763,736,0,0
546,288,0,0,0,0,0,0,0,0,0,-1,1770,736,0,0
553,288,57.4934,2.28064,0,0,0,0,0,0,0,-1,1777,736,57.4934,-2.28064
560,288,57.3807,3.02881,0,0,0,0,0,0,0,-1,1784,736,57.3808,-3.0288
567,288,57.2081,3.74274,0,0,0,0,0,0,0,-1,1791,736,57.2081,-3.74273
574,288,56.9817,4.36981,0,0,0,0,0,0,0,-1,1798,736,56.9816,-4.36984
581,288,53.4904,5.33215,0,0,0,0,0,0,0,-1,1805,736,53.4904,-5.33218
588,288,54.9313,3.29852,0,0,0,0,0,0,0,-1,1812,736,54.9313,-3.29849
595,288,47.035,3.35156,0,0,0,0,0,0,0,-1,1819,736,47.035,-3.35157
602,288,26.7634,7.61279,0,0,0,0,0,0,0,-1,1826,736,26.7635,-7.61279
609,288,17.5223,4.86414,0,0,0,0,0,0,0,-1,1833,736,17.5223,-4.86412
616,288,13.4886,0.801331,0,0,0,0,0,0,0,-1,1840,736,13.4886,-0.80132
623,288,44.2119,-8.92065,0,0,0,0,0,0,0,-1,1847,736,44.2119,8.92064
630,288,44.2156,-8.01691,0.0033966,-0.000734252,0.000957533,0.00360777,-0.000945414,0.217053,0.00277454,0.0328187,1854,736,44.2156,8.01689
637,288,44.192,-7.14862,0.00292335,-0.000376486,0.000808574,0.00311083,-0.000563963,0.227836,0.00228519,0.0122591,1861,736,44.192,7.14863
644,288,44.1632,-6.26923,0.00228102,-4.26615e-05,0.000770475,0.00251327,-0.000274918,0.292782,0.00177427,0.0113618,1868,736,44.1633,6.2692
651,288,44.1343,-5.39941,0.00178771,0.000292699,0.000790705,0.00212831,-4.79043e-05,0.406738,0.00143511,0.0135519,1875,736,44.1343,5.39942
658,288,44.0846,-4.51758,0.0016306,0.000761114,0.00086831,0.00216692,0.000224795,0.553302,0.00137582,0.0185026,1882,736,44.0846,4.51757
665,288,44.0304,-3.65631,0.0015601,0.00133546,0.00102054,0.00247447,0.000421078,0.730589,0.00152874,0.0180184,1889,736,44.0304,3.65634
672,288,43.9677,-2.80933,0.00159326,0.00205918,0.00130235,0.00314924,0.000503199,0.873901,0.00195348,0.0174414,1896,736,43.9676,2.80933
679,288,43.9093,-1.91357,0.00168531,0.00296283,0.00164695,0.00409055,0.000557583,0.97039,0.00256148,0.0146215,1903,736,43.9093,1.91357
686,288,43.8448,-1.04669,0.00182614,0.00405928,0.00209088,0.00531305,0.00057237,1.03064,0.0033675,0.0118033,1910,736,43.8448,1.04669
693,288,43.84,-0.0662842,0.00219683,0.00558285,0.00277725,0.00714244,0.000637239,1.05912,0.00456407,0.0273745,1917,736,43.84,0.0662641
700,288,43.8346,0.982788,0,0,0,0,0,0,0,-1,1924,736,43.8346,-0.982816
707,288,30.9496,3.07977,0,0,0,0,0,0,0,-1,1931,736,30.9496,-3.07975
714,288,23.0149,3.82544,0,0,0,0,0,0,0,-1,1938,736,23.0149,-3.82541
721,288,18.0732,3.69385,0,0,0,0,0,0,0,-1,1945,736,18.0732,-3.69387
728,288,19.3208,3.91455,0,0,0,0,0,0,0,-1,1952,736,19.3209,-3.91455
735,288,18.7712,3.51312,0,0,0,0,0,0,0,-1,1959,736,18.7713,-3.51309
742,288,0,0,0,0,0,0,0,0,0,-1,1966,736,0,0
749,288,0,0,0,0,0,0,0,0,0,-1,1973,736,0,0
756,288,0,0,0,0,0,0,0,0,0,-1,1980,736,0,0
763,288,0,0,0,0,0,0,0,0,0,-1,1987,736,0,0
770,288,0,0,0,0,0,0,0,0,0,-1,1994,736,0,0
777,288,0,0,0,0,0,0,0,0,0,-1,2001,736,0,0
784,288,0,0,0,0,0,0,0,0,0,-1,2008,736,0,0
791,288,0,0,0,0,0,0,0,0,0,-1,2015,736,0,0
798,288,0,0,0,0,0,0,0,0,0,-1,2022,736,0,0
805,288,0,0,0,0,0,0,0,0,0,-1,2029,736,0,0
812,288,0,0,0,0,0,0,0,0,0,-1,2036,736,0,0
-700,281,0,0,0,0,0,0,0,0,0,-1,524,743,0,0
-693,281,0,0,0,0,0,0,0,0,0,-1,531,743,0,0
-686,281,0,0,0,0,0,0,0,0,0,-1,538,743,0,0
-679,281,0,0,0,0,0,0,0,0,0,-1,545,743,0,0
-672,281,0,0,0,0,0,0,0,0,0,-1,552,743,0,0
-665,281,0,0,0,0,0,0,0,0,0,-1,559,743,0,0
-658,281,0,0,0,0,0,0,0,0,0,-1,566,743,0,0
-651,281,0,0,0,0,0,0,0,0,0,-1,573,743,0,0
-644,281,0,0,0,0,0,0,0,0,0,-1,580,743,0,0
-637,281,0,0,0,0,0,0,0,0,0,-1,587,743,0,0
-630,281,0,0,0,0,0,0,0,0,0,-1,594,743,0,0
-623,281,-19.1697,5.67017,0,0,0,0,0,0,0,-1,601,743,-19.1697,-5.67019
-616,281,-11.5906,2.6853,0,0,0,0,0,0,0,-1,608,743,-11.5906,-2.68529
-609,281,-16.1972,4.14838,0,0,0,0,0,0,0,-1,615,743,-16.1972,-4.14837
-602,281,-21.9772,6.77417,0,0,0,0,0,0,0,-1,622,743,-21.9771,-6.77415
-595,281,-10.4797,-1.07404,0,0,0,0,0,0,0,-1,629,743,-10.4798,1.07402
-588,281,-13.277,1.49817,0,0,0,0,0,0,0,-1,636,743,-13.2771,-1.49817
-581,281,-29.7014,0.752319,0,0,0,0,0,0,0,-1,643,743,-29.7014,-0.752294
-574,281,-29.6832,-0.177917,-0.00128174,0.00351824,-0.0034308,0.00530518,-0.00306867,-1.09061,0.00489178,0.0463778,650,743,-29.6832,0.177925
-567,281,-29.9313,-1.03265,-0.00095475,0.00285397,-0.00216492,0.00383292,-0.0019337,-1.14613,0.00338901,0.0227402,657,743,-29.9313,1.03264
-560,281,-30.0299,-1.90521,-0.00076707,0.00228896,-0.00130315,0.00276919,-0.0012473,-1.21773,0.00237376,0.00933354,664,743,-30.0299,1.90522
-553,281,-30.0434,-2.74487,-0.000558045,0.00161896,-0.000666532,0.00180682,-0.000745906,-1.29608,0.00151565,0.0143502,671,743,-30.0434,2.74489
-546,281,-30.0895,-3.57611,-0.000486406,0.000989325,-0.000134909,0.00100156,-0.000498638,-1.48038,0.000882212,0.0166081,678,743,-30.0895,3.57611
-539,281,-30.1365,-4.43555,-0.000524605,0.000478049,0.00039398,0.000614334,-0.000660889,1.23776,0.000736414,0.0141557,685,743,-30.1366,4.43555
-532,281,-30.1771,-5.25574,-0.000812005,-0.000146086,0.000909955,0.000489912,-0.001448,0.960786,0.00116354,0.0147198,692,743,-30.1771,5.25575
-525,281,-30.2631,-6.13892,-0.00107613,-0.000782741,0.00126973,0.00034874,-0.00220761,0.842909,0.0016007,0.018002,699,743,-30.2631,6.13892
-518,281,-30.3096,-7.03131,-0.00151854,-0.00132285,0.00171763,0.000299724,-0.00314111,0.813849,0.0022008,0.0135181,706,743,-30.3095,7.03128
-511,281,-30.3572,-7.9129,-0.00234688,-0.0018922,0.00234458,0.000236032,-0.00447512,0.833729,0.00306512,0.0123699,713,743,-30.3573,7.91291
-504,281,-30.4572,-8.79169,-0.00315691,-0.00258979,0.00308505,0.000224712,-0.00597141,0.831227,0.00405792,0.0175617,720,743,-30.4572,8.7917
-497,281,-30.3279,-9.44592,0,0,0,0,0,0,0,-1,727,743,-30.3279,9.44592
-490,281,-27.6985,-9.63165,0,0,0,0,0,0,0,-1,734,743,-27.6986,9.63165
-483,281,-22.1078,-2.34973,0,0,0,0,0,0,0,-1,741,743,-22.1078,2.3497
-476,281,-28.0016,2.17786,0,0,0,0,0,0,0,-1,748,743,-28.0016,-2.17786
-469,281,-34.6448,0.171692,0,0,0,0,0,0,0,-1,755,743,-34.6448,-0.171685
-462,281,-46.6214,0.0193481,0,0,0,0,0,0,0,-1,762,743,-46.6214,-0.0193665
-455,281,-52.2403,1.03314,0,0,0,0,0,0,0,-1,769,743,-52.2403,-1.03317
-448,281,-51.8248,1.71381,0,0,0,0,0,0,0,-1,776,743,-51.8247,-1.71382
-441,281,-51.6853,2.25977,0,0,0,0,0,0,0,-1,783,743,-51.6853,-2.25976
-434,281,0,0,0,0,0,0,0,0,0,-1,790,743,0,0
-427,281,0,0,0,0,0,0,0,0,0,-1,797,743,0,0
-420,281,0,0,0,0,0,0,0,0,0,-1,804,743,0,0
-413,281,0,0,0,0,0,0,0,0,0,-1,811,743,0,0
-406,281,0,0,0,0,0,0,0,0,0,-1,818,743,0,0
-399,281,0,0,0,0,0,0,0,0,0,-1,825,743,0,0
-392,281,0,0,0,0,0,0,0,0,0,-1,832,743,0,0
-385,281,0,0,0,0,0,0,0,0,0,-1,839,743,0,0
-378,281,0,0,0,0,0,0,0,0,0,-1,846,743,0,0
-371,281,0,0,0,0,0,0,0,0,0,-1,853,743,0,0
-364,281,0,0,0,0,0,0,0,0,0,-1,860,743,0,0
-357,281,0,0,0,0,0,0,0,0,0,-1,867,743,0,0
-350,281,0,0,0,0,0,0,0,0,0,-1,874,743,0,0
-343,281,0,0,0,0,0,0,0,0,0,-1,881,743,0,0
-336,281,0,0,0,0,0,0,0,0,0,-1,888,743,0,0
-329,281,0,0,0,0,0,0,0,0,0,-1,895,743,0,0
-322,281,0,0,0,0,0,0,0,0,0,-1,902,743,0,0
-315,281,0,0,0,0,0,0,0,0,0,-1,909,743,0,0
-308,281,0,0,0,0,0,0,0,0,0,-1,916,743,0,0
-301,281,0,0,0,0,0,0,0,0,0,-1,923,743,0,0
-294,281,0,0,0,0,0,0,0,0,0,-1,930,743,0,0
-287,281,0,0,0,0,0,0,0,0,0,-1,937,743,0,0
-280,281,0,0,0,0,0,0,0,0,0,-1,944,743,0,0
-273,281,0,0,0,0,0,0,0,0,0,-1,951,743,0,0
-266,281,0,0,0,0,0,0,0,0,0,-1,958,743,0,0
-259,281,0,0,0,0,0,0,0,0,0,-1,965,743,0,0
-252,281,0,0,0,0,0,0,0,0,0,-1,972,743,0,0
-245,281,0,0,0,0,0,0,0,0,0,-1,979,743,0,0
-238,281,0,0,0,0,0,0,0,0,0,-1,986,743,0,0
-231,281,0,0,0,0,0,0,0,0,0,-1,993,743,0,0
-224,281,0,0,0,0,0,0,0,0,0,-1,1000,743,0,0
-217,281,0,0,0,0,0,0,0,0,0,-1,1007,743,0,0
-210,281,0,0,0,0,0,0,0,0,0,-1,1014,743,0,0
-203,281,0,0,0,0,0,0,0,0,0,-1,1021,743,0,0
-196,281,0,0,0,0,0,0,0,0,0,-1,1028,743,0,0
-189,281,0,0,0,0,0,0,0,0,0,-1,1035,743,0,0
-182,281,0,0,0,0,0,0,0,0,0,-1,1042,743,0,0
-175,281,0,0,0,0,0,0,0,0,0,-1,1049,743,0,0
-168,281,0,0,0,0,0,0,0,0,0,-1,1056,743,0,0
-161,281,0,0,0,0,0,0,0,0,0,-1,1063,743,0,0
-154,281,0,0,0,0,0,0,0,0,0,-1,1070,743,0,0
-147,281,0,0,0,0,0,0,0,0,0,-1,1077,743,0,0
-140,281,0,0,0,0,0,0,0,0,0,-1,1084,743,0,0
-133,281,0,0,0,0,0,0,0,0,0,-1,1091,743,0,0
-126,281,0,0,0,0,0,0,0,0,0,-1,1098,743,0,0
-119,281,0,0,0,0,0,0,0,0,0,-1,1105,743,0,0
-112,281,0,0,0,0,0,0,0,0,0,-1,1112,743,0,0
-105,281,0,0,0,0,0,0,0,0,0,-1,1119,743,0,0
-98,281,0,0,0,0,0,0,0,0,0,-1,1126,743,0,0
-91,281,0,0,0,0,0,0,0,0,0,-1,1133,743,0,0
-84,281,0,0,0,0,0,0,0,0,0,-1,1140,743,0,0
-77,281,0,0,0,0,0,0,0,0,0,-1,1147,743,0,0
-70,281,0,0,0,0,0,0,0,0,0,-1,1154,743,0,0
-63,281,0,0,0,0,0,0,0,0,0,-1,1161,743,0,0
-56,281,0,0,0,0,0,0,0,0,0,-1,1168,743,0,0
-49,281,0,0,0,0,0,0,0,0,0,-1,1175,743,0,0
-42,281,0,0,0,0,0,0,0,0,0,-1,1182,743,0,0
-35,281,0,0,0,0,0,0,0,0,0,-1,1189,743,0,0
-28,281,0,0,0,0,0,0,0,0,0,-1,1196,743,0,0
-21,281,0,0,0,0,0,0,0,0,0,-1,1203,743,0,0
-14,281,0,0,0,0,0,0,0,0,0,-1,1210,743,0,0
-7,281,0,0,0,0,0,0,0,0,0,-1,1217,743,0,0
0,281,0,0,0,0,0,0,0,0,0,-1,1224,743,0,0
7,281,0,0,0,0,0,0,0,0,0,-1,1231,743,0,0
14,281,0,0,0,0,0,0,0,0,0,-1,1238,743,0,0
21,281,0,0,0,0,0,0,0,0,0,-1,1245,743,0,0
28,281,0,0,0,0,0,0,0,0,0,-1,1252,743,0,0
35,281,0,0,0,0,0,0,0,0,0,-1,1259,743,0,0
42,281,0,0,0,0,0,0,0,0,0,-1,1266,743,0,0
49,281,0,0,0,0,0,0,0,0,0,-1,1273,743,0,0
56,281,0,0,0,0,0,0,0,0,0,-1,1280,743,0,0
63,281,0,0,0,0,0,0,0,0,0,-1,1287,743,0,0
70,281,0,0,0,0,0,0,0,0,0,-1,1294,743,0,0
77,281,0,0,0,0,0,0,0,0,0,-1,1301,743,0,0
84,281,0,0,0,0,0,0,0,0,0,-1,1308,743,0,0
91,281,0,0,0,0,0,0,0,0,0,-1,1315,743,0,0
98,281,0,0,0,0,0,0,0,0,0,-1,1322,743,0,0
105,281,0,0,0,0,0,0,0,0,0,-1,1329,743,0,0
112,281,0,0,0,0,0,0,0,0,0,-1,1336,743,0,0
119,281,0,0,0,0,0,0,0,0,0,-1,1343,743,0,0
126,281,0,0,0,0,0,0,0,0,0,-1,1350,743,0,0
133,281,0,0,0,0,0,0,0,0,0,-1,1357,743,0,0
140,281,0,0,0,0,0,0,0,0,0,-1,1364,743,0,0
147,281,0,0,0,0,0,0,0,0,0,-1,1371,743,0,0
154,281,0,0,0,0,0,0,0,0,0,-1,1378,743,0,0
161,281,0,0,0,0,0,0,0,0,0,-1,1385,743,0,0
168,281,0,0,0,0,0,0,0,0,0,-1,1392,743,0,0
175,281,0,0,0,0,0,0,0,0,0,-1,1399,743,0,0
182,281,0,0,0,0,0,0,0,0,0,-1,1406,743,0,0
189,281,0,0,0,0,0,0,0,0,0,-1,1413,743,0,0
196,281,0,0,0,0,0,0,0,0,0,-1,1420,743,0,0
203,281,0,0,0,0,0,0,0,0,0,-1,1427,743,0,0
210,281,0,0,0,0,0,0,0,0,0,-1,1434,743,0,0
217,281,0,0,0,0,0,0,0,0,0,-1,1441,743,0,0
224,281,0,0,0,0,0,0,0,0,0,-1,1448,743,0,0
231,281,0,0,0,0,0,0,0,0,0,-1,1455,743,0,0
238,281,0,0,0,0,0,0,0,0,0,-1,1462,743,0,0
245,281,0,0,0,0,0,0,0,0,0,-1,1469,743,0,0
252,281,0,0,0,0,0,0,0,0,0,-1,1476,743,0,0
259,281,0,0,0,0,0,0,0,0,0,-1,1483,743,0,0
266,281,0,0,0,0,0,0,0,0,0,-1,1490,743,0,0
273,281,0,0,0,0,0,0,0,0,0,-1,1497,743,0,0
280,281,0,0,0,0,0,0,0,0,0,-1,1504,743,0,0
287,281,0,0,0,0,0,0,0,0,0,-1,1511,743,0,0
294,281,0,0,0,0,0,0,0,0,0,-1,1518,743,0,0
301,281,0,0,0,0,0,0,0,0,0,-1,1525,743,0,0
308,281,0,0,0,0,0,0,0,0,0,-1,1532,743,0,0
315,281,0,0,0,0,0,0,0,0,0,-1,1539,743,0,0
322,281,0,0,0,0,0,0,0,0,0,-1,1546,743,0,0
329,281,0,0,0,0,0,0,0,0,0,-1,1553,743,0,0
336,281,0,0,0,0,0,0,0,0,0,-1,1560,743,0,0
343,281,0,0,0,0,0,0,0,0,0,-1,1567,743,0,0
350,281,0,0,0,0,0,0,0,0,0,-1,1574,743,0,0
357,281,0,0,0,0,0,0,0,0,0,-1,1581,743,0,0
364,281,0,0,0,0,0,0,0,0,0,-1,1588,743,0,0
371,281,0,0,0,0,0,0,0,0,0,-1,1595,743,0,0
378,281,0,0,0,0,0,0,0,0,0,-1,1602,743,0,0
385,281,0,0,0,0,0,0,0,0,0,-1,1609,743,0,0
392,281,0,0,0,0,0,0,0,0,0,-1,1616,743,0,0
399,281,0,0,0,0,0,0,0,0,0,-1,1623,743,0,0
406,281,0,0,0,0,0,0,0,0,0,-1,1630,743,0,0
413,281,0,0,0,0,0,0,0,0,0,-1,1637,743,0,0
420,281,0,0,0,0,0,0,0,0,0,-1,1644,743,0,0
427,281,0,0,0,0,0,0,0,0,0,-1,1651,743,0,0
434,281,0,0,0,0,0,0,0,0,0,-1,1658,743,0,0
441,281,0,0,0,0,0,0,0,0,0,-1,1665,743,0,0
448,281,0,0,0,0,0,0,0,0,0,-1,1672,743,0,0
455,281,0,0,0,0,0,0,0,0,0,-1,1679,743,0,0
462,281,0,0,0,0,0,0,0,0,0,-1,1686,743,0,0
469,281,0,0,0,0,0,0,0,0,0,-1,1693,743,0,0
476,281,0,0,0,0,0,0,0,0,0,-1,1700,743,0,0
483,281,0,0,0,0,0,0,0,0,0,-1,1707,743,0,0
490,281,0,0,0,0,0,0,0,0,0,-1,1714,743,0,0
497,281,0,0,0,0,0,0,0,0,0,-1,1721,743,0,0
504,281,0,0,0,0,0,0,0,0,0,-1,1728,743,0,0
511,281,0,0,0,0,0,0,0,0,0,-1,1735,743,0,0
518,281,0,0,0,0,0,0,0,0,0,-1,1742,743,0,0
525,281,0,0,0,0,0,0,0,0,0,-1,1749,743,0,0
532,281,0,0,0,0,0,0,0,0,0,-1,1756,743,0,0
539,281,0,0,0,0,0,0,0,0,0,-1,1763,743,0,0
546,281,0,0,0,0,0,0,0,0,0,-1,1770,743,0,0
553,281,0,0,0,0,0,0,0,0,0,-1,1777,743,0,0
560,281,57.8354,3.06482,0,0,0,0,0,0,0,-1,1784,743,57.8354,-3.06479
567,281,57.6156,3.64508,0,0,0,0,0,0,0,-1,1791,743,57.6156,-3.64511
574,281,57.3431,4.17767,0,0,0,0,0,0,0,-1,1798,743,57.3431,-4.17769
581,281,57.0648,4.53906,0,0,0,0,0,0,0,-1,1805,743,57.0648,-4.53908
588,281,53.5422,6.00092,0,0,0,0,0,0,0,-1,1812,743,53.5422,-6.00092
595,281,54.8569,3.32269,0,0,0,0,0,0,0,-1,1819,743,54.857,-3.32269
602,281,45.9985,3.98254,0,0,0,0,0,0,0,-1,1826,743,45.9985,-3.98254
609,281,32.7925,1.28723,0,0,0,0,0,0,0,-1,1833,743,32.7925,-1.28722
616,281,21.3191,-0.253906,0,0,0,0,0,0,0,-1,1840,743,21.3191,0.253931
623,281,31.8741,-4.74182,0,0,0,0,0,0,0,-1,1847,743,31.8741,4.74184
630,281,45.0499,-7.90924,0,0,0,0,0,0,0,-1,1854,743,45.05,7.90924
637,281,44.9967,-7.10376,0.00347783,-4.26892e-05,0.000763476,0.00363627,-0.00020113,0.204621,0.00249393,0.0227727,1861,743,44.9966,7.10379
644,281,45.0281,-6.2171,0.00269316,5.31956e-05,0.000760979,0.0028968,-0.00015045,0.261483,0.00198326,0.011395,1868,743,45.028,6.21708
651,281,45.0116,-5.33203,0.00193832,0.000222629,0.000728946,0.0022062,-4.52533e-05,0.352172,0.00148611,0.0129151,1875,743,45.0115,5.33205
658,281,44.9629,-4.47229,0.0016414,0.00055116,0.000761987,0.00203318,0.000159381,0.474907,0.00130557,0.0220749,1882,743,44.9629,4.47227
665,281,44.9132,-3.61475,0.00145435,0.00103157,0.000858156,0.00212677,0.00035915,0.664638,0.00131458,0.0217688,1889,743,44.9132,3.61472
672,281,44.8312,-2.73944,0.00137646,0.00166027,0.00106315,0.00259094,0.000445787,0.851744,0.00159954,0.0138109,1896,743,44.8312,2.73943
679,281,44.7782,-1.88153,0.00134148,0.00247159,0.0013062,0.00332971,0.000483354,0.989541,0.00207752,0.0218272,1903,743,44.7782,1.88152
686,281,44.6777,-1.03723,0.00135213,0.00345981,0.00164285,0.00435777,0.000454166,1.07058,0.00276625,0.0177524,1910,743,44.6777,1.03724
693,281,44.6519,-0.139221,0.00150496,0.0047717,0.00214824,0.005837,0.000439656,1.11044,0.00375338,0.013816,1917,743,44.6518,0.139218
700,281,44.5844,0.82251,0.00178836,0.00641361,0.00284615,0.00776824,0.00043372,1.12657,0.00504048,0.0455157,1924,743,44.5844,-0.822484
707,281,44.3488,1.91095,0,0,0,0,0,0,0,-1,1931,743,44.3488,-1.91096
714,281,25.0125,2.5105,0,0,0,0,0,0,0,-1,1938,743,25.0124,-2.51053
721,281,16.9656,3.22174,0,0,0,0,0,0,0,-1,1945,743,16.9656,-3.22172
728,281,19.0251,3.63934,0,0,0,0,0,0,0,-1,1952,743,19.0252,-3.63932
735,281,19.0869,2.50311,0,0,0,0,0,0,0,-1,1959,743,19.0869,-2.5031
742,281,0,0,0,0,0,0,0,0,0,-1,1966,743,0,0
749,281,0,0,0,0,0,0,0,0,0,-1,1973,743,0,0
756,281,0,0,0,0,0,0,0,0,0,-1,1980,743,0,0
763,281,0,0,0,0,0,0,0,0,0,-1,1987,743,0,0
770,281,0,0,0,0,0,0,0,0,0,-1,1994,743,0,0
777,281,0,0,0,0,0,0,0,0,0,-1,2001,743,0,0
784,281,0,0,0,0,0,0,0,0,0,-1,2008,743,0,0
791,281,0,0,0,0,0,0,0,0,0,-1,2015,743,0,0
798,281,0,0,0,0,0,0,0,0,0,-1,2022,743,0,0
805,281,0,0,0,0,0,0,0,0,0,-1,2029,743,0,0
812,281,0,0,0,0,0,0,0,0,0,-1,2036,743,0,0
-700,274,0,0,0,0,0,0,0,0,0,-1,524,750,0,0
-693,274,0,0,0,0,0,0,0,0,0,-1,531,750,0,0
-686,274,0,0,0,0,0,0,0,0,0,-1,538,750,0,0
-679,274,0,0,0,0,0,0,0,0,0,-1,545,750,0,0
-672,274,0,0,0,0,0,0,0,0,0,-1,552,750,0,0
-665,274,0,0,0,0,0,0,0,0,0,-1,559,750,0,0
-658,274,0,0,0,0,0,0,0,0,0,-1,566,750,0,0
-651,274,0,0,0,0,0,0,0,0,0,-1,573,750,0,0
-644,274,0,0,0,0,0,0,0,0,0,-1,580,750,0,0
-637,274,0,0,0,0,0,0,0,0,0,-1,587,750,0,0
-630,274,0,0,0,0,0,0,0,0,0,-1,594,750,0,0
-623,274,-19.6909,5.12701,0,0,0,0,0,0,0,-1,601,750,-19.6908,-5.12703
-616,274,-17.9133,3.9024,0,0,0,0,0,0,0,-1,608,750,-17.9133,-3.90239
-609,274,-26.0861,5.57306,0,0,0,0,0,0,0,-1,615,750,-26.0861,-5.57307
-602,274,-25.7372,3.73846,0,0,0,0,0,0,0,-1,622,750,-25.7372,-3.73849
-595,274,-25.258,2.53473,0,0,0,0,0,0,0,-1,629,750,-25.258,-2.53474
-588,274,-24.9805,2.2334,0,0,0,0,0,0,0,-1,636,750,-24.9805,-2.23341
-581,274,-30.559,1.13385,0,0,0,0,0,0,0,-1,643,750,-30.559,-1.13383
-574,274,-30.5466,-0.198242,-0.000477977,0.00242293,-0.00372973,0.00497431,-0.00302936,-0.970844,0.00466618,0.030766,650,750,-30.5466,0.198225
-567,274,-30.8274,-1.02875,-0.000522769,0.00203948,-0.00223537,0.00333482,-0.00181811,-1.04561,0.0030177,0.0301995,657,750,-30.8274,1.02873
-560,274,-30.8729,-1.83392,-0.000581059,0.00166189,-0.00120006,0.00218293,-0.0011021,-1.16118,0.00193053,0.0143871,664,750,-30.8729,1.8339
-553,274,-30.9048,-2.7063,-0.000579426,0.00119945,-0.000431716,0.00129869,-0.000678663,-1.34485,0.00116018,0.00955813,671,750,-30.9049,2.70628
-546,274,-30.9577,-3.55554,-0.000637724,0.00067808,0.00020376,0.000708911,-0.000668555,1.42062,0.000795394,0.011649,678,750,-30.9577,3.55553
-539,274,-31.0122,-4.40637,-0.000780862,0.000259469,0.000806103,0.000698665,-0.00122006,1.07192,0.00112133,0.0119797,685,750,-31.0122,4.40638
-532,274,-31.0631,-5.23053,-0.00112209,-0.000257315,0.00132624,0.00070524,-0.00208464,0.942977,0.00167508,0.0136193,692,750,-31.0631,5.2305
-525,274,-31.1193,-6.06677,-0.00144305,-0.000745638,0.00167702,0.00061854,-0.00280723,0.887904,0.00210813,0.0147333,699,750,-31.1193,6.06678
-518,274,-31.1572,-6.96356,-0.00205171,-0.00116937,0.00210587,0.00054105,-0.00376213,0.888653,0.00270652,0.0134062,706,750,-31.1572,6.96357
-511,274,-31.208,-7.87988,-0.00310028,-0.00161948,0.0027285,0.000467295,-0.00518705,0.917887,0.00362386,0.018733,713,750,-31.208,7.87986
-504,274,-31.3676,-8.84125,-0.00407805,-0.00222242,0.00343946,0.000412171,-0.00671264,0.917141,0.00461862,0.0357829,720,750,-31.3676,8.84123
-497,274,-31.5927,-9.83228,0,0,0,0,0,0,0,-1,727,750,-31.5927,9.83226
-490,274,-13.6545,-3.58826,0,0,0,0,0,0,0,-1,734,750,-13.6546,3.58825
-483,274,-27.8608,1.30981,0,0,0,0,0,0,0,-1,741,750,-27.8608,-1.30979
-476,274,-33.7561,-0.508606,0,0,0,0,0,0,0,-1,748,750,-33.7561,0.508636
-469,274,-41.1387,0.907715,0,0,0,0,0,0,0,-1,755,750,-41.1387,-0.907744
-462,274,-52.6144,0.482544,0,0,0,0,0,0,0,-1,762,750,-52.6144,-0.482558
-455,274,-54.602,0.496216,0,0,0,0,0,0,0,-1,769,750,-54.602,-0.496205
-448,274,-52.0339,1.55475,0,0,0,0,0,0,0,-1,776,750,-52.0339,-1.55472
-441,274,0,0,0,0,0,0,0,0,0,-1,783,750,0,0
-434,274,0,0,0,0,0,0,0,0,0,-1,790,750,0,0
-427,274,0,0,0,0,0,0,0,0,0,-1,797,750,0,0
-420,274,0,0,0,0,0,0,0,0,0,-1,804,750,0,0
-413,274,0,0,0,0,0,0,0,0,0,-1,811,750,0,0
-406,274,0,0,0,0,0,0,0,0,0,-1,818,750,0,0
-399,274,0,0,0,0,0,0,0,0,0,-1,825,750,0,0
-392,274,0,0,0,0,0,0,0,0,0,-1,832,750,0,0
-385,274,0,0,0,0,0,0,0,0,0,-1,839,750,0,0
-378,274,0,0,0,0,0,0,0,0,0,-1,846,750,0,0
-371,274,0,0,0,0,0,0,0,0,0,-1,853,750,0,0
-364,274,0,0,0,0,0,0,0,0,0,-1,860,750,0,0
-357,274,0,0,0,0,0,0,0,0,0,-1,867,750,0,0
-350,274,0,0,0,0,0,0,0,0,0,-1,874,750,0,0
-343,274,0,0,0,0,0,0,0,0,0,-1,881,750,0,0
-336,274,0,0,0,0,0,0,0,0,0,-1,888,750,0,0
-329,274,0,0,0,0,0,0,0,0,0,-1,895,750,0,0
-322,274,0,0,0,0,0,0,0,0,0,-1,902,750,0,0
-315,274,0,0,0,0,0,0,0,0,0,-1,909,750,0,0
-308,274,0,0,0,0,0,0,0,0,0,-1,916,750,0,0
-301,274,0,0,0,0,0,0,0,0,0,-1,923,750,0,0
-294,274,0,0,0,0,0,0,0,0,0,-1,930,750,0,0
-287,274,0,0,0,0,0,0,0,0,0,-1,937,750,0,0
-280,274,0,0,0,0,0,0,0,0,0,-1,944,750,0,0
-273,274,0,0,0,0,0,0,0,0,0,-1,951,750,0,0
-266,274,0,0,0,0,0,0,0,0,0,-1,958,750,0,0
-259,274,0,0,0,0,0,0,0,0,0,-1,965,750,0,0
-252,274,0,0,0,0,0,0,0,0,0,-1,972,750,0,0
-245,274,0,0,0,0,0,0,0,0,0,-1,979,750,0,0
-238,274,0,0,0,0,0,0,0,0,0,-1,986,750,0,0
-231,274,0,0,0,0,0,0,0,0,0,-1,993,750,0,0
-224,274,0,0,0,0,0,0,0,0,0,-1,1000,750,0,0
-217,274,0,0,0,0,0,0,0,0,0,-1,1007,750,0,0
-210,274,0,0,0,0,0,0,0,0,0,-1,1014,750,0,0
-203,274,0,0,0,0,0,0,0,0,0,-1,1021,750,0,0
-196,274,0,0,0,0,0,0,0,0,0,-1,1028,750,0,0
-189,274,0,0,0,0,0,0,0,0,0,-1,1035,750,0,0
-182,274,0,0,0,0,0,0,0,0,0,-1,1042,750,0,0
-175,274,0,0,0,0,0,0,0,0,0,-1,1049,750,0,0
-168,274,0,0,0,0,0,0,0,0,0,-1,1056,750,0,0
-161,274,0,0,0,0,0,0,0,0,0,-1,1063,750,0,0
-154,274,0,0,0,0,0,0,0,0,0,-1,1070,750,0,0
-147,274,0,0,0,0,0,0,0,0,0,-1,1077,750,0,0
-140,274,0,0,0,0,0,0,0,0,0,-1,1084,750,0,0
-133,274,0,0,0,0,0,0,0,0,0,-1,1091,750,0,0
-126,274,0,0,0,0,0,0,0,0,0,-1,1098,750,0,0
-119,274,0,0,0,0,0,0,0,0,0,-1,1105,750,0,0
-112,274,0,0,0,0,0,0,0,0,0,-1,1112,750,0,0
-105,274,0,0,0,0,0,0,0,0,0,-1,1119,750,0,0
-98,274,0,0,0,0,0,0,0,0,0,-1,1126,750,0,0
-91,274,0,0,0,0,0,0,0,0,0,-1,1133,750,0,0
-84,274,0,0,0,0,0,0,0,0,0,-1,1140,750,0,0
-77,274,0,0,0,0,0,0,0,0,0,-1,1147,750,0,0
-70,274,0,0,0,0,0,0,0,0,0,-1,1154,750,0,0
-63,274,0,0,0,0,0,0,0,0,0,-1,1161,750,0,0
-56,274,0,0,0,0,0,0,0,0,0,-1,1168,750,0,0
-49,274,0,0,0,0,0,0,0,0,0,-1,1175,750,0,0
-42,274,0,0,0,0,0,0,0,0,0,-1,1182,750,0,0
-35,274,0,0,0,0,0,0,0,0,0,-1,1189,750,0,0
-28,274,0,0,0,0,0,0,0,0,0,-1,1196,750,0,0
-21,274,0,0,0,0,0,0,0,0,0,-1,1203,750,0,0
-14,274,0,0,0,0,0,0,0,0,0,-1,1210,750,0,0
-7,274,0,0,0,0,0,0,0,0,0,-1,1217,750,0,0
0,274,0,0,0,0,0,0,0,0,0,-1,1224,750,0,0
7,274,0,0,0,0,0,0,0,0,0,-1,1231,750,0,0
14,274,0,0,0,0,0,0,0,0,0,-1,1238,750,0,0
21,274,0,0,0,0,0,0,0,0,0,-1,1245,750,0,0
28,274,0,0,0,0,0,0,0,0,0,-1,1252,750,0,0
35,274,0,0,0,0,0,0,0,0,0,-1,1259,750,0,0
42,274,0,0,0,0,0,0,0,0,0,-1,1266,750,0,0
49,274,0,0,0,0,0,0,0,0,0,-1,1273,750,0,0
56,274,0,0,0,0,0,0,0,0,0,-1,1280,750,0,0
63,274,0,0,0,0,0,0,0,0,0,-1,1287,750,0,0
70,274,0,0,0,0,0,0,0,0,0,-1,1294,750,0,0
77,274,0,0,0,0,0,0,0,0,0,-1,1301,750,0,0
84,274,0,0,0,0,0,0,0,0,0,-1,1308,750,0,0
91,274,0,0,0,0,0,0,0,0,0,-1,1315,750,0,0
98,274,0,0,0,0,0,0,0,0,0,-1,1322,750,0,0
105,274,0,0,0,0,0,0,0,0,0,-1,1329,750,0,0
112,274,0,0,0,0,0,0,0,0,0,-1,1336,750,0,0
119,274,0,0,0,0,0,0,0,0,0,-1,1343,750,0,0
126,274,0,0,0,0,0,0,0,0,0,-1,1350,750,0,0
133,274,0,0,0,0,0,0,0,0,0,-1,1357,750,0,0
140,274,0,0,0,0,0,0,0,0,0,-1,1364,750,0,0
147,274,0,0,0,0,0,0,0,0,0,-1,1371,750,0,0
154,274,0,0,0,0,0,0,0,0,0,-1,1378,750,0,0
161,274,0,0,0,0,0,0,0,0,0,-1,1385,750,0,0
168,274,0,0,0,0,0,0,0,0,0,-1,1392,750,0,0
175,274,0,0,0,0,0,0,0,0,0,-1,1399,750,0,0
182,274,0,0,0,0,0,0,0,0,0,-1,1406,750,0,0
189,274,0,0,0,0,0,0,0,0,0,-1,1413,750,0,0
196,274,0,0,0,0,0,0,0,0,0,-1,1420,750,0,0
203,274,0,0,0,0,0,0,0,0,0,-1,1427,750,0,0
210,274,0,0,0,0,0,0,0,0,0,-1,1434,750,0,0
217,274,0,0,0,0,0,0,0,0,0,-1,1441,750,0,0
224,274,0,0,0,0,0,0,0,0,0,-1,1448,750,0,0
231,274,0,0,0,0,0,0,0,0,0,-1,1455,750,0,0
238,274,0,0,0,0,0,0,0,0,0,-1,1462,750,0,0
245,274,0,0,0,0,0,0,0,0,0,-1,1469,750,0,0
252,274,0,0,0,0,0,0,0,0,0,-1,1476,750,0,0
259,274,0,0,0,0,0,0,0,0,0,-1,1483,750,0,0
266,274,0,0,0,0,0,0,0,0,0,-1,1490,750,0,0
273,274,0,0,0,0,0,0,0,0,0,-1,1497,750,0,0
280,274,0,0,0,0,0,0,0,0,0,-1,1504,750,0,0
287,274,0,0,0,0,0,0,0,0,0,-1,1511,750,0,0
294,274,0,0,0,0,0,0,0,0,0,-1,1518,750,0,0
301,274,0,0,0,0,0,0,0,0,0,-1,1525,750,0,0
308,274,0,0,0,0,0,0,0,0,0,-1,1532,750,0,0
315,274,0,0,0,0,0,0,0,0,0,-1,1539,750,0,0
322,274,0,0,0,0,0,0,0,0,0,-1,1546,750,0,0
329,274,0,0,0,0,0,0,0,0,0,-1,1553,750,0,0
336,274,0,0,0,0,0,0,0,0,0,-1,1560,750,0,0
343,274,0,0,0,0,0,0,0,0,0,-1,1567,750,0,0
350,274,0,0,0,0,0,0,0,0,0,-1,1574,750,0,0
357,274,0,0,0,0,0,0,0,0,0,-1,1581,750,0,0
364,274,0,0,0,0,0,0,0,0,0,-1,1588,750,0,0
371,274,0,0,0,0,0,0,0,0,0,-1,1595,750,0,0
378,274,0,0,0,0,0,0,0,0,0,-1,1602,750,0,0
385,274,0,0,0,0,0,0,0,0,0,-1,1609,750,0,0
392,274,0,0,0,0,0,0,0,0,0,-1,1616,750,0,0
399,274,0,0,0,0,0,0,0,0,0,-1,1623,750,0,0
406,274,0,0,0,0,0,0,0,0,0,-1,1630,750,0,0
413,274,0,0,0,0,0,0,0,0,0,-1,1637,750,0,0
420,274,0,0,0,0,0,0,0,0,0,-1,1644,750,0,0
427,274,0,0,0,0,0,0,0,0,0,-1,1651,750,0,0
434,274,0,0,0,0,0,0,0,0,0,-1,1658,750,0,0
441,274,0,0,0,0,0,0,0,0,0,-1,1665,750,0,0
448,274,0,0,0,0,0,0,0,0,0,-1,1672,750,0,0
455,274,0,0,0,0,0,0,0,0,0,-1,1679,750,0,0
462,274,0,0,0,0,0,0,0,0,0,-1,1686,750,0,0
469,274,0,0,0,0,0,0,0,0,0,-1,1693,750,0,0
476,274,0,0,0,0,0,0,0,0,0,-1,1700,750,0,0
483,274,0,0,0,0,0,0,0,0,0,-1,1707,750,0,0
490,274,0,0,0,0,0,0,0,0,0,-1,1714,750,0,0
497,274,0,0,0,0,0,0,0,0,0,-1,1721,750,0,0
504,274,0,0,0,0,0,0,0,0,0,-1,1728,750,0,0
511,274,0,0,0,0,0,0,0,0,0,-1,1735,750,0,0
518,274,0,0,0,0,0,0,0,0,0,-1,1742,750,0,0
525,274,0,0,0,0,0,0,0,0,0,-1,1749,750,0,0
532,274,0,0,0,0,0,0,0,0,0,-1,1756,750,0,0
539,274,0,0,0,0,0,0,0,0,0,-1,1763,750,0,0
546,274,0,0,0,0,0,0,0,0,0,-1,1770,750,0,0
553,274,0,0,0,0,0,0,0,0,0,-1,1777,750,0,0
560,274,57.9182,3.24518,0,0,0,0,0,0,0,-1,1784,750,57.9182,-3.24516
567,274,57.8315,3.4137,0,0,0,0,0,0,0,-1,1791,750,57.8315,-3.41368
574,274,58.2571,3.11115,0,0,0,0,0,0,0,-1,1798,750,58.2571,-3.11114
581,274,54.4941,4.68127,0,0,0,0,0,0,0,-1,1805,750,54.4941,-4.68125
588,274,53.9908,5.6676,0,0,0,0,0,0,0,-1,1812,750,53.9908,-5.66763
595,274,66.2316,2.66986,0,0,0,0,0,0,0,-1,1819,750,66.2315,-2.66988
602,274,55.6321,2.56519,0,0,0,0,0,0,0,-1,1826,750,55.6321,-2.56521
609,274,44.6676,3.10461,0,0,0,0,0,0,0,-1,1833,750,44.6676,-3.1046
616,274,32.7869,1.78436,0,0,0,0,0,0,0,-1,1840,750,32.7868,-1.78437
623,274,24.8231,-1.80353,0,0,0,0,0,0,0,-1,1847,750,24.8232,1.80351
630,274,45.9626,-8.06683,0,0,0,0,0,0,0,-1,1854,750,45.9627,8.0668
637,274,45.822,-7.17059,0.00327194,0.000424148,0.00083294,0.00349767,0.000198417,0.264648,0.00226853,0.0309111,1861,750,45.822,7.17061
644,274,45.8674,-6.18903,0.00270913,0.0003328,0.000854714,0.00298461,5.73144e-05,0.3118,0.00197091,0.0152075,1868,750,45.8674,6.18901
651,274,45.8634,-5.27423,0.00194103,0.000319425,0.000751277,0.00223559,2.48692e-05,0.373655,0.00148217,0.0142229,1875,750,45.8634,5.27424
658,274,45.7968,-4.41559,0.00162196,0.00043785,0.000699866,0.00194661,0.000113204,0.434327,0.0012617,0.0170354,1882,750,45.7968,4.41556
665,274,45.7498,-3.55414,0.00140338,0.000784691,0.000702383,0.00186152,0.00032655,0.577967,0.00114776,0.0157844,1889,750,45.7498,3.55416
672,274,45.7069,-2.67194,0.00126221,0.00129461,0.000789118,0.0020677,0.000489127,0.79566,0.0012478,0.0128914,1896,750,45.707,2.67196
679,274,45.6639,-1.8042,0.00111193,0.00198933,0.000913663,0.00256416,0.000537102,1.00922,0.0015615,0.0149488,1903,750,45.664,1.80422
686,274,45.6049,-0.955505,0.000994029,0.00286942,0.00114391,0.00341085,0.0004526,1.12872,0.00213905,0.018644,1910,750,45.6049,0.955533
693,274,45.5256,-0.072937,0.000950945,0.00396955,0.00148527,0.0045778,0.0003427,1.18211,0.00294429,0.0145158,1917,750,45.5256,0.0729391
700,274,45.4888,0.825745,0.000993075,0.00532473,0.00197444,0.00608964,0.000228166,1.20119,0.00398588,0.0201794,1924,750,45.4887,-0.82572
707,274,45.3282,1.78741,0.000804865,0.00675058,0.00237261,0.00758129,-2.58512e-05,1.23401,0.00506283,0.0450319,1931,750,45.3282,-1.7874
714,274,45.1184,2.81708,0,0,0,0,0,0,0,-1,1938,750,45.1184,-2.8171
721,274,25.6215,3.91144,0,0,0,0,0,0,0,-1,1945,750,25.6214,-3.91141
728,274,19.2209,3.95154,0,0,0,0,0,0,0,-1,1952,750,19.221,-3.95151
735,274,20.6608,4.10931,0,0,0,0,0,0,0,-1,1959,750,20.6607,-4.10932
742,274,11.7815,-0.740234,0,0,0,0,0,0,0,-1,1966,750,11.7815,0.740253
749,274,0,0,0,0,0,0,0,0,0,-1,1973,750,0,0
756,274,0,0,0,0,0,0,0,0,0,-1,1980,750,0,0
763,274,0,0,0,0,0,0,0,0,0,-1,1987,750,0,0
770,274,0,0,0,0,0,0,0,0,0,-1,1994,750,0,0
777,274,0,0,0,0,0,0,0,0,0,-1,2001,750,0,0
784,274,0,0,0,0,0,0,0,0,0,-1,2008,750,0,0
791,274,0,0,0,0,0,0,0,0,0,-1,2015,750,0,0
798,274,0,0,0,0,0,0,0,0,0,-1,2022,750,0,0
805,274,0,0,0,0,0,0,0,0,0,-1,2029,750,0,0
812,274,0,0,0,0,0,0,0,0,0,-1,2036,750,0,0
-700,267,0,0,0,0,0,0,0,0,0,-1,524,757,0,0
-693,267,0,0,0,0,0,0,0,0,0,-1,531,757,0,0
-686,267,0,0,0,0,0,0,0,0,0,-1,538,757,0,0
-679,267,0,0,0,0,0,0,0,0,0,-1,545,757,0,0
-672,267,0,0,0,0,0,0,0,0,0,-1,552,757,0,0
-665,267,0,0,0,0,0,0,0,0,0,-1,559,757,0,0
-658,267,0,0,0,0,0,0,0,0,0,-1,566,757,0,0
-651,267,0,0,0,0,0,0,0,0,0,-1,573,757,0,0
-644,267,0,0,0,0,0,0,0,0,0,-1,580,757,0,0
-637,267,0,0,0,0,0,0,0,0,0,-1,587,757,0,0
-630,267,-21.3979,5.17529,0,0,0,0,0,0,0,-1,594,757,-21.3979,-5.17529
-623,267,-20.043,4.43115,0,0,0,0,0,0,0,-1,601,757,-20.043,-4.43116
-616,267,-27.1628,5.9325,0,0,0,0,0,0,0,-1,608,757,-27.1629,-5.93249
-609,267,-26.9868,4.99658,0,0,0,0,0,0,0,-1,615,757,-26.9868,-4.99656
-602,267,-26.6637,3.74072,0,0,0,0,0,0,0,-1,622,757,-26.6637,-3.74075
-595,267,-29.6408,3.87256,0,0,0,0,0,0,0,-1,629,757,-29.6408,-3.87258
-588,267,-31.3549,1.97119,0,0,0,0,0,0,0,-1,636,757,-31.3549,-1.97119
-581,267,-31.4258,0.970825,0.000761021,0.0010054,-0.00596898,0.00685344,-0.00508702,-0.795632,0.00691892,0.0447399,643,757,-31.4258,-0.97083
-574,267,-31.5059,-0.0134888,0.000277618,0.00133777,-0.00381312,0.00465748,-0.00304209,-0.854463,0.00447784,0.0258986,650,757,-31.5059,0.013465
-567,267,-31.6759,-0.910156,-3.13578e-05,0.00129576,-0.00222236,0.00295151,-0.0016871,-0.930477,0.00271107,0.0300139,657,757,-31.6759,0.910186
-560,267,-31.7247,-1.70959,-0.000295225,0.00116838,-0.00108651,0.00174656,-0.0008734,-1.08177,0.00154038,0.022104,664,757,-31.7247,1.70958
-553,267,-31.7715,-2.60352,-0.000503401,0.00096382,-0.000228062,0.000998452,-0.000538033,-1.42009,0.000900268,0.0178891,671,757,-31.7715,2.60353
-546,267,-31.8146,-3.49487,-0.000720345,0.000631678,0.000485827,0.000788144,-0.000876811,1.25922,0.000961717,0.012043,678,757,-31.8146,3.49488
-539,267,-31.8549,-4.37042,-0.00102448,0.000347977,0.00115056,0.00100141,-0.00167792,1.05429,0.00156326,0.0118559,685,757,-31.8549,4.37043
-532,267,-31.8665,-5.21069,-0.0014659,-3.1321e-05,0.00166218,0.00106173,-0.00255895,0.989095,0.00214915,0.0125275,692,757,-31.8665,5.21068
-525,267,-31.9544,-6.01331,-0.00190063,-0.000338768,0.00203351,0.0010586,-0.003298,0.968731,0.00262371,0.0119848,699,757,-31.9544,6.0133
-518,267,-32.0329,-6.88708,-0.00277429,-0.000637638,0.00248247,0.000996627,-0.00440855,0.988593,0.00332146,0.0148147,706,757,-32.0329,6.88709
-511,267,-32.0411,-7.82227,-0.00416375,-0.000961409,0.00314272,0.000964523,-0.00608968,1.021,0.00441654,0.0311649,713,757,-32.0411,7.82228
-504,267,-32.0474,-8.72345,0,0,0,0,0,0,0,-1,720,757,-32.0473,8.72345
-497,267,-31.5913,-8.72119,0,0,0,0,0,0,0,-1,727,757,-31.5913,8.72117
-490,267,-23.4949,-0.494995,0,0,0,0,0,0,0,-1,734,757,-23.4949,0.494981
-483,267,-33.2785,-0.448425,0,0,0,0,0,0,0,-1,741,757,-33.2785,0.448407
-476,267,-40.2954,0.52002,0,0,0,0,0,0,0,-1,748,757,-40.2954,-0.520037
-469,267,-52.9857,0.187744,0,0,0,0,0,0,0,-1,755,757,-52.9857,-0.187726
-462,267,-54.3212,0.768005,0,0,0,0,0,0,0,-1,762,757,-54.3211,-0.768018
-455,267,-54.66,0.603699,0,0,0,0,0,0,0,-1,769,757,-54.66,-0.603723
-448,267,-54.7286,0.468689,0,0,0,0,0,0,0,-1,776,757,-54.7286,-0.468668
-441,267,0,0,0,0,0,0,0,0,0,-1,783,757,0,0
-434,267,0,0,0,0,0,0,0,0,0,-1,790,757,0,0
-427,267,0,0,0,0,0,0,0,0,0,-1,797,757,0,0
-420,267,0,0,0,0,0,0,0,0,0,-1,804,757,0,0
-413,267,0,0,0,0,0,0,0,0,0,-1,811,757,0,0
-406,267,0,0,0,0,0,0,0,0,0,-1,818,757,0,0
-399,267,0,0,0,0,0,0,0,0,0,-1,825,757,0,0
-392,267,0,0,0,0,0,0,0,0,0,-1,832,757,0,0
-385,267,0,0,0,0,0,0,0,0,0,-1,839,757,0,0
-378,267,0,0,0,0,0,0,0,0,0,-1,846,757,0,0
-371,267,0,0,0,0,0,0,0,0,0,-1,853,757,0,0
-364,267,0,0,0,0,0,0,0,0,0,-1,860,757,0,0
-357,267,0,0,0,0,0,0,0,0,0,-1,867,757,0,0
-350,267,0,0,0,0,0,0,0,0,0,-1,874,757,0,0
-343,267,0,0,0,0,0,0,0,0,0,-1,881,757,0,0
-336,267,0,0,0,0,0,0,0,0,0,-1,888,757,0,0
-329,267,0,0,0,0,0,0,0,0,0,-1,895,757,0,0
-322,267,0,0,0,0,0,0,0,0,0,-1,902,757,0,0
-315,267,0,0,0,0,0,0,0,0,0,-1,909,757,0,0
-308,267,0,0,0,0,0,0,0,0,0,-1,916,757,0,0
-301,267,0,0,0,0,0,0,0,0,0,-1,923,757,0,0
-294,267,0,0,0,0,0,0,0,0,0,-1,930,757,0,0
-287,267,0,0,0,0,0,0,0,0,0,-1,937,757,0,0
-280,267,0,0,0,0,0,0,0,0,0,-1,944,757,0,0
-273,267,0,0,0,0,0,0,0,0,0,-1,951,757,0,0
-266,267,0,0,0,0,0,0,0,0,0,-1,958,757,0,0
-259,267,0,0,0,0,0,0,0,0,0,-1,965,757,0,0
-252,267,0,0,0,0,0,0,0,0,0,-1,972,757,0,0
-245,267,0,0,0,0,0,0,0,0,0,-1,979,757,0,0
-238,267,0,0,0,0,0,0,0,0,0,-1,986,757,0,0
-231,267,0,0,0,0,0,0,0,0,0,-1,993,757,0,0
-224,267,0,0,0,0,0,0,0,0,0,-1,1000,757,0,0
-217,267,0,0,0,0,0,0,0,0,0,-1,1007,757,0,0
-210,267,0,0,0,0,0,0,0,0,0,-1,1014,757,0,0
-203,267,0,0,0,0,0,0,0,0,0,-1,1021,757,0,0
-196,267,0,0,0,0,0,0,0,0,0,-1,1028,757,0,0
-189,267,0,0,0,0,0,0,0,0,0,-1,1035,757,0,0
-182,267,0,0,0,0,0,0,0,0,0,-1,1042,757,0,0
-175,267,0,0,0,0,0,0,0,0,0,-1,1049,757,0,0
-168,267,0,0,0,0,0,0,0,0,0,-1,1056,757,0,0
-161,267,0,0,0,0,0,0,0,0,0,-1,1063,757,0,0
-154,267,0,0,0,0,0,0,0,0,0,-1,1070,757,0,0
-147,267,0,0,0,0,0,0,0,0,0,-1,1077,757,0,0
-140,267,0,0,0,0,0,0,0,0,0,-1,1084,757,0,0
-133,267,0,0,0,0,0,0,0,0,0,-1,1091,757,0,0
-126,267,0,0,0,0,0,0,0,0,0,-1,1098,757,0,0
-119,267,0,0,0,0,0,0,0,0,0,-1,1105,757,0,0
-112,267,0,0,0,0,0,0,0,0,0,-1,1112,757,0,0
-105,267,0,0,0,0,0,0,0,0,0,-1,1119,757,0,0
-98,267,0,0,0,0,0,0,0,0,0,-1,1126,757,0,0
-91,267,0,0,0,0,0,0,0,0,0,-1,1133,757,0,0
-84,267,0,0,0,0,0,0,0,0,0,-1,1140,757,0,0
-77,267,0,0,0,0,0,0,0,0,0,-1,1147,757,0,0
-70,267,0,0,0,0,0,0,0,0,0,-1,1154,757,0,0
-63,267,0,0,0,0,0,0,0,0,0,-1,1161,757,0,0
-56,267,0,0,0,0,0,0,0,0,0,-1,1168,757,0,0
-49,267,0,0,0,0,0,0,0,0,0,-1,1175,757,0,0
-42,267,0,0,0,0,0,0,0,0,0,-1,1182,757,0,0
-35,267,0,0,0,0,0,0,0,0,0,-1,1189,757,0,0
-28,267,0,0,0,0,0,0,0,0,0,-1,1196,757,0,0
-21,267,0,0,0,0,0,0,0,0,0,-1,1203,757,0,0
-14,267,0,0,0,0,0,0,0,0,0,-1,1210,757,0,0
-7,267,0,0,0,0,0,0,0,0,0,-1,1217,757,0,0
0,267,0,0,0,0,0,0,0,0,0,-1,1224,757,0,0
7,267,0,0,0,0,0,0,0,0,0,-1,1231,757,0,0
14,267,0,0,0,0,0,0,0,0,0,-1,1238,757,0,0
21,267,0,0,0,0,0,0,0,0,0,-1,1245,757,0,0
28,267,0,0,0,0,0,0,0,0,0,-1,1252,757,0,0
35,267,0,0,0,0,0,0,0,0,0,-1,1259,757,0,0
42,267,0,0,0,0,0,0,0,0,0,-1,1266,757,0,0
49,267,0,0,0,0,0,0,0,0,0,-1,1273,757,0,0
56,267,0,0,0,0,0,0,0,0,0,-1,1280,757,0,0
63,267,0,0,0,0,0,0,0,0,0,-1,1287,757,0,0
70,267,0,0,0,0,0,0,0,0,0,-1,1294,757,0,0
77,267,0,0,0,0,0,0,0,0,0,-1,1301,757,0,0
84,267,0,0,0,0,0,0,0,0,0,-1,1308,757,0,0
91,267,0,0,0,0,0,0,0,0,0,-1,1315,757,0,0
98,267,0,0,0,0,0,0,0,0,0,-1,1322,757,0,0
105,267,0,0,0,0,0,0,0,0,0,-1,1329,757,0,0
112,267,0,0,0,0,0,0,0,0,0,-1,1336,757,0,0
119,267,0,0,0,0,0,0,0,0,0,-1,1343,757,0,0
126,267,0,0,0,0,0,0,0,0,0,-1,1350,757,0,0
133,267,0,0,0,0,0,0,0,0,0,-1,1357,757,0,0
140,267,0,0,0,0,0,0,0,0,0,-1,1364,757,0,0
147,267,0,0,0,0,0,0,0,0,0,-1,1371,757,0,0
154,267,0,0,0,0,0,0,0,0,0,-1,1378,757,0,0
161,267,0,0,0,0,0,0,0,0,0,-1,1385,757,0,0
168,267,0,0,0,0,0,0,0,0,0,-1,1392,757,0,0
175,267,0,0,0,0,0,0,0,0,0,-1,1399,757,0,0
182,267,0,0,0,0,0,0,0,0,0,-1,1406,757,0,0
189,267,0,0,0,0,0,0,0,0,0,-1,1413,757,0,0
196,267,0,0,0,0,0,0,0,0,0,-1,1420,757,0,0
203,267,0,0,0,0,0,0,0,0,0,-1,1427,757,0,0
210,267,0,0,0,0,0,0,0,0,0,-1,1434,757,0,0
217,267,0,0,0,0,0,0,0,0,0,-1,1441,757,0,0
224,267,0,0,0,0,0,0,0,0,0,-1,1448,757,0,0
231,267,0,0,0,0,0,0,0,0,0,-1,1455,757,0,0
238,267,0,0,0,0,0,0,0,0,0,-1,1462,757,0,0
245,267,0,0,0,0,0,0,0,0,0,-1,1469,757,0,0
252,267,0,0,0,0,0,0,0,0,0,-1,1476,757,0,0
259,267,0,0,0,0,0,0,0,0,0,-1,1483,757,0,0
266,267,0,0,0,0,0,0,0,0,0,-1,1490,757,0,0
273,267,0,0,0,0,0,0,0,0,0,-1,1497,757,0,0
280,267,0,0,0,0,0,0,0,0,0,-1,1504,757,0,0
287,267,0,0,0,0,0,0,0,0,0,-1,1511,757,0,0
294,267,0,0,0,0,0,0,0,0,0,-1,1518,757,0,0
301,267,0,0,0,0,0,0,0,0,0,-1,1525,757,0,0
308,267,0,0,0,0,0,0,0,0,0,-1,1532,757,0,0
315,267,0,0,0,0,0,0,0,0,0,-1,1539,757,0,0
322,267,0,0,0,0,0,0,0,0,0,-1,1546,757,0,0
329,267,0,0,0,0,0,0,0,0,0,-1,1553,757,0,0
336,267,0,0,0,0,0,0,0,0,0,-1,1560,757,0,0
343,267,0,0,0,0,0,0,0,0,0,-1,1567,757,0,0
350,267,0,0,0,0,0,0,0,0,0,-1,1574,757,0,0
357,267,0,0,0,0,0,0,0,0,0,-1,1581,757,0,0
364,267,0,0,0,0,0,0,0,0,0,-1,1588,757,0,0
371,267,0,0,0,0,0,0,0,0,0,-1,1595,757,0,0
378,267,0,0,0,0,0,0,0,0,0,-1,1602,757,0,0
385,267,0,0,0,0,0,0,0,0,0,-1,1609,757,0,0
392,267,0,0,0,0,0,0,0,0,0,-1,1616,757,0,0
399,267,0,0,0,0,0,0,0,0,0,-1,1623,757,0,0
406,267,0,0,0,0,0,0,0,0,0,-1,1630,757,0,0
413,267,0,0,0,0,0,0,0,0,0,-1,1637,757,0,0
420,267,0,0,0,0,0,0,0,0,0,-1,1644,757,0,0
427,267,0,0,0,0,0,0,0,0,0,-1,1651,757,0,0
434,267,0,0,0,0,0,0,0,0,0,-1,1658,757,0,0
441,267,0,0,0,0,0,0,0,0,0,-1,1665,757,0,0
448,267,0,0,0,0,0,0,0,0,0,-1,1672,757,0,0
455,267,0,0,0,0,0,0,0,0,0,-1,1679,757,0,0
462,267,0,0,0,0,0,0,0,0,0,-1,1686,757,0,0
469,267,0,0,0,0,0,0,0,0,0,-1,1693,757,0,0
476,267,0,0,0,0,0,0,0,0,0,-1,1700,757,0,0
483,267,0,0,0,0,0,0,0,0,0,-1,1707,757,0,0
490,267,0,0,0,0,0,0,0,0,0,-1,1714,757,0,0
497,267,0,0,0,0,0,0,0,0,0,-1,1721,757,0,0
504,267,0,0,0,0,0,0,0,0,0,-1,1728,757,0,0
511,267,0,0,0,0,0,0,0,0,0,-1,1735,757,0,0
518,267,0,0,0,0,0,0,0,0,0,-1,1742,757,0,0
525,267,0,0,0,0,0,0,0,0,0,-1,1749,757,0,0
532,267,0,0,0,0,0,0,0,0,0,-1,1756,757,0,0
539,267,0,0,0,0,0,0,0,0,0,-1,1763,757,0,0
546,267,0,0,0,0,0,0,0,0,0,-1,1770,757,0,0
553,267,0,0,0,0,0,0,0,0,0,-1,1777,757,0,0
560,267,0,0,0,0,0,0,0,0,0,-1,1784,757,0,0
567,267,58.0104,3.24304,0,0,0,0,0,0,0,-1,1791,757,58.0104,-3.24306
574,267,64.5414,2.91858,0,0,0,0,0,0,0,-1,1798,757,64.5414,-2.91855
581,267,58.374,2.95636,0,0,0,0,0,0,0,-1,1805,757,58.3741,-2.95639
588,267,65.9681,2.6438,0,0,0,0,0,0,0,-1,1812,757,65.9682,-2.64382
595,267,66.191,2.60791,0,0,0,0,0,0,0,-1,1819,757,66.191,-2.60792
602,267,66.4139,2.57202,0,0,0,0,0,0,0,-1,1826,757,66.4139,-2.57203
609,267,54.5498,3.24054,0,0,0,0,0,0,0,-1,1833,757,54.5498,-3.24052
616,267,44.2543,3.28918,0,0,0,0,0,0,0,-1,1840,757,44.2542,-3.28918
623,267,24.1475,-1.1391,0,0,0,0,0,0,0,-1,1847,757,24.1475,1.13913
630,267,40.7198,-5.42108,0,0,0,0,0,0,0,-1,1854,757,40.7198,5.4211
637,267,46.6309,-7.00763,0,0,0,0,0,0,0,-1,1861,757,46.6308,7.00765
644,267,46.7456,-6.21399,0.00237015,0.000508602,0.000827432,0.00268476,0.000193991,0.363345,0.00172881,0.0218658,1868,757,46.7455,6.21396
651,267,46.7122,-5.21387,0.00162185,0.000434314,0.000733959,0.00197215,8.40189e-05,0.445297,0.00128767,0.0159899,1875,757,46.7122,5.21389
658,267,46.6803,-4.37274,0.00137009,0.000372057,0.000639557,0.00168228,5.98705e-05,0.454106,0.0011021,0.0150641,1882,757,46.6803,4.37272
665,267,46.6218,-3.50775,0.0012398,0.000569898,0.000554167,0.00155238,0.000257321,0.513565,0.000960702,0.0146172,1889,757,46.6219,3.50775
672,267,46.5854,-2.63306,0.00114861,0.00094253,0.000522887,0.00157851,0.000512627,0.688115,0.000929827,0.0129077,1896,757,46.5855,2.63309
679,267,46.5592,-1.7583,0.00100218,0.00145792,0.000546426,0.00182208,0.000638013,0.982943,0.00106761,0.0128093,1903,757,46.5593,1.75829
686,267,46.4999,-0.882751,0.000848751,0.00220844,0.000700723,0.00250491,0.000552275,1.17054,0.00151968,0.0181299,1910,757,46.4999,0.882771
693,267,46.3986,-0.0551758,0.000724953,0.00310293,0.000938404,0.00342863,0.000399249,1.23672,0.00216498,0.018152,1917,757,46.3986,0.0551977
700,267,46.3469,0.824768,0.000672422,0.00418529,0.00129723,0.0046124,0.000245313,1.25273,0.00299651,0.0167286,1924,757,46.3469,-0.824754
707,267,46.3356,1.71942,0.000455762,0.00530495,0.00160091,0.00578579,-2.50794e-05,1.27901,0.00386558,0.0222089,1931,757,46.3356,-1.71945
714,267,46.3458,2.66608,0,0,0,0,0,0,0,-1,1938,757,46.3458,-2.66606
721,267,45.84,3.83148,0,0,0,0,0,0,0,-1,1945,757,45.84,-3.8315
728,267,26.7886,3.90027,0,0,0,0,0,0,0,-1,1952,757,26.7886,-3.90028
735,267,24.6713,2.82483,0,0,0,0,0,0,0,-1,1959,757,24.6713,-2.82483
742,267,18.1177,3.56561,0,0,0,0,0,0,0,-1,1966,757,18.1176,-3.56564
749,267,0,0,0,0,0,0,0,0,0,-1,1973,757,0,0
756,267,0,0,0,0,0,0,0,0,0,-1,1980,757,0,0
763,267,0,0,0,0,0,0,0,0,0,-1,1987,757,0,0
770,267,0,0,0,0,0,0,0,0,0,-1,1994,757,0,0
777,267,0,0,0,0,0,0,0,0,0,-1,2001,757,0,0
784,267,0,0,0,0,0,0,0,0,0,-1,2008,757,0,0
791,267,0,0,0,0,0,0,0,0,0,-1,2015,757,0,0
798,267,0,0,0,0,0,0,0,0,0,-1,2022,757,0,0
805,267,0,0,0,0,0,0,0,0,0,-1,2029,757,0,0
812,267,0,0,0,0,0,0,0,0,0,-1,2036,757,0,0
-700,260,0,0,0,0,0,0,0,0,0,-1,524,764,0,0
-693,260,0,0,0,0,0,0,0,0,0,-1,531,764,0,0
-686,260,0,0,0,0,0,0,0,0,0,-1,538,764,0,0
-679,260,0,0,0,0,0,0,0,0,0,-1,545,764,0,0
-672,260,0,0,0,0,0,0,0,0,0,-1,552,764,0,0
-665,260,0,0,0,0,0,0,0,0,0,-1,559,764,0,0
-658,260,0,0,0,0,0,0,0,0,0,-1,566,764,0,0
-651,260,0,0,0,0,0,0,0,0,0,-1,573,764,0,0
-644,260,0,0,0,0,0,0,0,0,0,-1,580,764,0,0
-637,260,0,0,0,0,0,0,0,0,0,-1,587,764,0,0
-630,260,-21.8905,4.49341,0,0,0,0,0,0,0,-1,594,764,-21.8905,-4.49342
-623,260,-20.3127,3.53546,0,0,0,0,0,0,0,-1,601,764,-20.3127,-3.53544
-616,260,-23.4346,3.65009,0,0,0,0,0,0,0,-1,608,764,-23.4345,-3.65008
-609,260,-27.8874,4.42004,0,0,0,0,0,0,0,-1,615,764,-27.8874,-4.42005
-602,260,-31.7818,4.59277,0,0,0,0,0,0,0,-1,622,764,-31.7818,-4.59277
-595,260,-33.3328,2.66272,0,0,0,0,0,0,0,-1,629,764,-33.3328,-2.6627
-588,260,-32.9089,1.70074,0.00224561,-0.000822403,-0.00797828,0.00883601,-0.00741281,-0.690421,0.00939325,0.0468142,636,764,-32.9089,-1.70077
-581,260,-32.4881,0.790649,0.00119642,0.000342875,-0.00573808,0.00652358,-0.00498428,-0.748279,0.00666385,0.0304576,643,764,-32.4881,-0.790673
-574,260,-32.5032,-0.0088501,0.000654948,0.00082522,-0.00369453,0.00443559,-0.00295542,-0.796918,0.00429563,0.0198151,650,764,-32.5032,0.0088712
-567,260,-32.5536,-0.792908,0.000226589,0.000969049,-0.00211091,0.00274113,-0.00154549,-0.872439,0.00250676,0.0184957,657,764,-32.5536,0.792906
-560,260,-32.579,-1.66583,-0.000139938,0.000967189,-0.000922002,0.00148904,-0.000661791,-1.05575,0.00127203,0.022009,664,764,-32.579,1.66585
-553,260,-32.6198,-2.55933,-0.000478704,0.000922978,-1.45255e-05,0.000923128,-0.000478854,-1.56043,0.000822871,0.0186271,671,764,-32.6197,2.55934
-546,260,-32.6639,-3.43506,-0.000813785,0.000699578,0.000785582,0.00103363,-0.00114784,1.16873,0.00126005,0.0124166,678,764,-32.6639,3.43509
-539,260,-32.6981,-4.29053,-0.00125203,0.000469815,0.00153211,0.00136632,-0.00214853,1.04137,0.00204598,0.0139133,685,764,-32.6981,4.29054
-532,260,-32.7174,-5.10333,-0.00174773,0.000176519,0.00204572,0.00147507,-0.00304628,1.00521,0.00266243,0.0178783,692,764,-32.7174,5.10333
-525,260,-32.8177,-5.94501,-0.00227973,4.42442e-05,0.00248315,0.00162384,-0.00385932,1.00424,0.00325222,0.0172277,699,764,-32.8177,5.94498
-518,260,-33.0215,-6.78699,-0.00343452,-0.0001253,0.00300741,0.00165262,-0.00521244,1.03689,0.00413736,0.0281941,706,764,-33.0215,6.787
-511,260,-33.0536,-7.66742,-0.00518947,-0.000292166,0.00376921,0.00175394,-0.00723558,1.07346,0.00550235,0.0480937,713,764,-33.0536,7.66744
-504,260,-33.2265,-8.50806,0,0,0,0,0,0,0,-1,720,764,-33.2265,8.50806
-497,260,-16.6542,-3.67334,0,0,0,0,0,0,0,-1,727,764,-16.6542,3.67331
-490,260,-29.4557,0.921387,0,0,0,0,0,0,0,-1,734,764,-29.4557,-0.921369
-483,260,-40.8972,1.04193,0,0,0,0,0,0,0,-1,741,764,-40.8972,-1.04193
-476,260,-53.8282,0.00378418,0,0,0,0,0,0,0,-1,748,764,-53.8283,-0.00378825
-469,260,-54.91,0.536499,0,0,0,0,0,0,0,-1,755,764,-54.91,-0.536528
-462,260,-54.4383,0.764282,0,0,0,0,0,0,0,-1,762,764,-54.4383,-0.764252
-455,260,-54.639,0.692444,0,0,0,0,0,0,0,-1,769,764,-54.639,-0.692433
-448,260,0,0,0,0,0,0,0,0,0,-1,776,764,0,0
-441,260,0,0,0,0,0,0,0,0,0,-1,783,764,0,0
-434,260,0,0,0,0,0,0,0,0,0,-1,790,764,0,0
-427,260,0,0,0,0,0,0,0,0,0,-1,797,764,0,0
-420,260,0,0,0,0,0,0,0,0,0,-1,804,764,0,0
-413,260,0,0,0,0,0,0,0,0,0,-1,811,764,0,0
-406,260,0,0,0,0,0,0,0,0,0,-1,818,764,0,0
-399,260,0,0,0,0,0,0,0,0,0,-1,825,764,0,0
-392,260,0,0,0,0,0,0,0,0,0,-1,832,764,0,0
-385,260,0,0,0,0,0,0,0,0,0,-1,839,764,0,0
-378,260,0,0,0,0,0,0,0,0,0,-1,846,764,0,0
-371,260,0,0,0,0,0,0,0,0,0,-1,853,764,0,0
-364,260,0,0,0,0,0,0,0,0,0,-1,860,764,0,0
-357,260,0,0,0,0,0,0,0,0,0,-1,867,764,0,0
-350,260,0,0,0,0,0,0,0,0,0,-1,874,764,0,0
-343,260,0,0,0,0,0,0,0,0,0,-1,881,764,0,0
-336,260,0,0,0,0,0,0,0,0,0,-1,888,764,0,0
-329,260,0,0,0,0,0,0,0,0,0,-1,895,764,0,0
-322,260,0,0,0,0,0,0,0,0,0,-1,902,764,0,0
-315,260,0,0,0,0,0,0,0,0,0,-1,909,764,0,0
-308,260,0,0,0,0,0,0,0,0,0,-1,916,764,0,0
-301,260,0,0,0,0,0,0,0,0,0,-1,923,764,0,0
-294,260,0,0,0,0,0,0,0,0,0,-1,930,764,0,0
-287,260,0,0,0,0,0,0,0,0,0,-1,937,764,0,0
-280,260,0,0,0,0,0,0,0,0,0,-1,944,764,0,0
-273,260,0,0,0,0,0,0,0,0,0,-1,951,764,0,0
-266,260,0,0,0,0,0,0,0,0,0,-1,958,764,0,0
-259,260,0,0,0,0,0,0,0,0,0,-1,965,764,0,0
-252,260,0,0,0,0,0,0,0,0,0,-1,972,764,0,0
-245,260,0,0,0,0,0,0,0,0,0,-1,979,764,0,0
-238,260,0,0,0,0,0,0,0,0,0,-1,986,764,0,0
-231,260,0,0,0,0,0,0,0,0,0,-1,993,764,0,0
-224,260,0,0,0,0,0,0,0,0,0,-1,1000,764,0,0
-217,260,0,0,0,0,0,0,0,0,0,-1,1007,764,0,0
-210,260,0,0,0,0,0,0,0,0,0,-1,1014,764,0,0
-203,260,0,0,0,0,0,0,0,0,0,-1,1021,764,0,0
-196,260,0,0,0,0,0,0,0,0,0,-1,1028,764,0,0
-189,260,0,0,0,0,0,0,0,0,0,-1,1035,764,0,0
-182,260,0,0,0,0,0,0,0,0,0,-1,1042,764,0,0
-175,260,0,0,0,0,0,0,0,0,0,-1,1049,764,0,0
-168,260,0,0,0,0,0,0,0,0,0,-1,1056,764,0,0
-161,260,0,0,0,0,0,0,0,0,0,-1,1063,764,0,0
-154,260,0,0,0,0,0,0,0,0,0,-1,1070,764,0,0
-147,260,0,0,0,0,0,0,0,0,0,-1,1077,764,0,0
-140,260,0,0,0,0,0,0,0,0,0,-1,1084,764,0,0
-133,260,0,0,0,0,0,0,0,0,0,-1,1091,764,0,0
-126,260,0,0,0,0,0,0,0,0,0,-1,1098,764,0,0
-119,260,0,0,0,0,0,0,0,0,0,-1,1105,764,0,0
-112,260,0,0,0,0,0,0,0,0,0,-1,1112,764,0,0
-105,260,0,0,0,0,0,0,0,0,0,-1,1119,764,0,0
-98,260,0,0,0,0,0,0,0,0,0,-1,1126,764,0,0
-91,260,0,0,0,0,0,0,0,0,0,-1,1133,764,0,0
-84,260,0,0,0,0,0,0,0,0,0,-1,1140,764,0,0
-77,260,0,0,0,0,0,0,0,0,0,-1,1147,764,0,0
-70,260,0,0,0,0,0,0,0,0,0,-1,1154,764,0,0
-63,260,0,0,0,0,0,0,0,0,0,-1,1161,764,0,0
-56,260,0,0,0,0,0,0,0,0,0,-1,1168,764,0,0
-49,260,0,0,0,0,0,0,0,0,0,-1,1175,764,0,0
-42,260,0,0,0,0,0,0,0,0,0,-1,1182,764,0,0
-35,260,0,0,0,0,0,0,0,0,0,-1,1189,764,0,0
-28,260,0,0,0,0,0,0,0,0,0,-1,1196,764,0,0
-21,260,0,0,0,0,0,0,0,0,0,-1,1203,764,0,0
-14,260,0,0,0,0,0,0,0,0,0,-1,1210,764,0,0
-7,260,0,0,0,0,0,0,0,0,0,-1,1217,764,0,0
0,260,0,0,0,0,0,0,0,0,0,-1,1224,764,0,0
7,260,0,0,0,0,0,0,0,0,0,-1,1231,764,0,0
14,260,0,0,0,0,0,0,0,0,0,-1,1238,764,0,0
21,260,0,0,0,0,0,0,0,0,0,-1,1245,764,0,0
28,260,0,0,0,0,0,0,0,0,0,-1,1252,764,0,0
35,260,0,0,0,0,0,0,0,0,0,-1,1259,764,0,0
42,260,0,0,0,0,0,0,0,0,0,-1,1266,764,0,0
49,260,0,0,0,0,0,0,0,0,0,-1,1273,764,0,0
56,260,0,0,0,0,0,0,0,0,0,-1,1280,764,0,0
63,260,0,0,0,0,0,0,0,0,0,-1,1287,764,0,0
70,260,0,0,0,0,0,0,0,0,0,-1,1294,764,0,0
77,260,0,0,0,0,0,0,0,0,0,-1,1301,764,0,0
84,260,0,0,0,0,0,0,0,0,0,-1,1308,764,0,0
91,260,0,0,0,0,0,0,0,0,0,-1,1315,764,0,0
98,260,0,0,0,0,0,0,0,0,0,-1,1322,764,0,0
105,260,0,0,0,0,0,0,0,0,0,-1,1329,764,0,0
112,260,0,0,0,0,0,0,0,0,0,-1,1336,764,0,0
119,260,0,0,0,0,0,0,0,0,0,-1,1343,764,0,0
126,260,0,0,0,0,0,0,0,0,0,-1,1350,764,0,0
133,260,0,0,0,0,0,0,0,0,0,-1,1357,764,0,0
140,260,0,0,0,0,0,0,0,0,0,-1,1364,764,0,0
147,260,0,0,0,0,0,0,0,0,0,-1,1371,764,0,0
154,260,0,0,0,0,0,0,0,0,0,-1,1378,764,0,0
161,260,0,0,0,0,0,0,0,0,0,-1,1385,764,0,0
168,260,0,0,0,0,0,0,0,0,0,-1,1392,764,0,0
175,260,0,0,0,0,0,0,0,0,0,-1,1399,764,0,0
182,260,0,0,0,0,0,0,0,0,0,-1,1406,764,0,0
189,260,0,0,0,0,0,0,0,0,0,-1,1413,764,0,0
196,260,0,0,0,0,0,0,0,0,0,-1,1420,764,0,0
203,260,0,0,0,0,0,0,0,0,0,-1,1427,764,0,0
210,260,0,0,0,0,0,0,0,0,0,-1,1434,764,0,0
217,260,0,0,0,0,0,0,0,0,0,-1,1441,764,0,0
224,260,0,0,0,0,0,0,0,0,0,-1,1448,764,0,0
231,260,0,0,0,0,0,0,0,0,0,-1,1455,764,0,0
238,260,0,0,0,0,0,0,0,0,0,-1,1462,764,0,0
245,260,0,0,0,0,0,0,0,0,0,-1,1469,764,0,0
252,260,0,0,0,0,0,0,0,0,0,-1,1476,764,0,0
259,260,0,0,0,0,0,0,0,0,0,-1,1483,764,0,0
266,260,0,0,0,0,0,0,0,0,0,-1,1490,764,0,0
273,260,0,0,0,0,0,0,0,0,0,-1,1497,764,0,0
280,260,0,0,0,0,0,0,0,0,0,-1,1504,764,0,0
287,260,0,0,0,0,0,0,0,0,0,-1,1511,764,0,0
294,260,0,0,0,0,0,0,0,0,0,-1,1518,764,0,0
301,260,0,0,0,0,0,0,0,0,0,-1,1525,764,0,0
308,260,0,0,0,0,0,0,0,0,0,-1,1532,764,0,0
315,260,0,0,0,0,0,0,0,0,0,-1,1539,764,0,0
322,260,0,0,0,0,0,0,0,0,0,-1,1546,764,0,0
329,260,0,0,0,0,0,0,0,0,0,-1,1553,764,0,0
336,260,0,0,0,0,0,0,0,0,0,-1,1560,764,0,0
343,260,0,0,0,0,0,0,0,0,0,-1,1567,764,0,0
350,260,0,0,0,0,0,0,0,0,0,-1,1574,764,0,0
357,260,0,0,0,0,0,0,0,0,0,-1,1581,764,0,0
364,260,0,0,0,0,0,0,0,0,0,-1,1588,764,0,0
371,260,0,0,0,0,0,0,0,0,0,-1,1595,764,0,0
378,260,0,0,0,0,0,0,0,0,0,-1,1602,764,0,0
385,260,0,0,0,0,0,0,0,0,0,-1,1609,764,0,0
392,260,0,0,0,0,0,0,0,0,0,-1,1616,764,0,0
399,260,0,0,0,0,0,0,0,0,0,-1,1623,764,0,0
406,260,0,0,0,0,0,0,0,0,0,-1,1630,764,0,0
413,260,0,0,0,0,0,0,0,0,0,-1,1637,764,0,0
420,260,0,0,0,0,0,0,0,0,0,-1,1644,764,0,0
427,260,0,0,0,0,0,0,0,0,0,-1,1651,764,0,0
434,260,0,0,0,0,0,0,0,0,0,-1,1658,764,0,0
441,260,0,0,0,0,0,0,0,0,0,-1,1665,764,0,0
448,260,0,0,0,0,0,0,0,0,0,-1,1672,764,0,0
455,260,0,0,0,0,0,0,0,0,0,-1,1679,764,0,0
462,260,0,0,0,0,0,0,0,0,0,-1,1686,764,0,0
469,260,0,0,0,0,0,0,0,0,0,-1,1693,764,0,0
476,260,0,0,0,0,0,0,0,0,0,-1,1700,764,0,0
483,260,0,0,0,0,0,0,0,0,0,-1,1707,764,0,0
490,260,0,0,0,0,0,0,0,0,0,-1,1714,764,0,0
497,260,0,0,0,0,0,0,0,0,0,-1,1721,764,0,0
504,260,0,0,0,0,0,0,0,0,0,-1,1728,764,0,0
511,260,0,0,0,0,0,0,0,0,0,-1,1735,764,0,0
518,260,0,0,0,0,0,0,0,0,0,-1,1742,764,0,0
525,260,0,0,0,0,0,0,0,0,0,-1,1749,764,0,0
532,260,0,0,0,0,0,0,0,0,0,-1,1756,764,0,0
539,260,0,0,0,0,0,0,0,0,0,-1,1763,764,0,0
546,260,0,0,0,0,0,0,0,0,0,-1,1770,764,0,0
553,260,0,0,0,0,0,0,0,0,0,-1,1777,764,0,0
560,260,0,0,0,0,0,0,0,0,0,-1,1784,764,0,0
567,260,0,0,0,0,0,0,0,0,0,-1,1791,764,0,0
574,260,71.2883,2.20605,0,0,0,0,0,0,0,-1,1798,764,71.2883,-2.20608
581,260,71.3955,2.25049,0,0,0,0,0,0,0,-1,1805,764,71.3955,-2.2505
588,260,70.8303,2.6853,0,0,0,0,0,0,0,-1,1812,764,70.8304,-2.6853
595,260,66.1678,2.56989,0,0,0,0,0,0,0,-1,1819,764,66.1678,-2.56989
602,260,65.9274,2.69824,0,0,0,0,0,0,0,-1,1826,764,65.9274,-2.69825
609,260,65.4674,3.08105,0,0,0,0,0,0,0,-1,1833,764,65.4673,-3.08107
616,260,46.0709,2.74542,0,0,0,0,0,0,0,-1,1840,764,46.0709,-2.74545
623,260,32.2268,3.25836,0,0,0,0,0,0,0,-1,1847,764,32.2268,-3.25833
630,260,24.3739,-0.536316,0,0,0,0,0,0,0,-1,1854,764,24.3739,0.536343
637,260,42.7155,-5.35486,0,0,0,0,0,0,0,-1,1861,764,42.7154,5.35488
644,260,47.7444,-6.2934,0,0,0,0,0,0,0,-1,1868,764,47.7444,6.29341
651,260,47.7371,-5.14343,0.00122698,0.000560483,0.000653467,0.00162727,0.000160196,0.549602,0.00103558,0.0252552,1875,764,47.7371,5.14342
658,260,47.5538,-4.28503,0.00104286,0.000378063,0.000574521,0.00137421,4.67106e-05,0.523145,0.000900972,0.0170068,1882,764,47.5538,4.28506
665,260,47.4347,-3.45898,0.00104209,0.000444535,0.000436373,0.00127217,0.000214456,0.485212,0.000786435,0.0159167,1889,764,47.4347,3.459
672,260,47.4275,-2.58087,0.00105413,0.000660879,0.000314156,0.00122812,0.000486889,0.505782,0.000714105,0.0139764,1896,764,47.4275,2.58087
679,260,47.3868,-1.69757,0.000970858,0.000968595,0.000262367,0.0012321,0.000707356,0.783242,0.000713951,0.0132605,1903,764,47.3868,1.69756
686,260,47.311,-0.814819,0.000824828,0.00157248,0.000360722,0.00171814,0.000679167,1.18702,0.000999191,0.0227774,1910,764,47.3111,0.814833
693,260,47.2056,-0.00787354,0.00064356,0.00230396,0.000524644,0.00245584,0.000491679,1.28901,0.00150043,0.02278,1917,764,47.2056,0.00784974
700,260,47.1519,0.846863,0.000525666,0.00318649,0.000790787,0.00340376,0.000308389,1.30265,0.00217368,0.0163463,1924,764,47.1518,-0.846887
707,260,47.1901,1.72552,0.000304446,0.00410954,0.00104202,0.00437621,3.7777e-05,1.32026,0.00290496,0.0168426,1931,764,47.1901,-1.72555
714,260,47.1814,2.57452,-0.000203723,0.00497901,0.00134013,0.00530503,-0.000529742,1.33216,0.00372584,0.0355186,1938,764,47.1814,-2.57451
721,260,47.1682,3.42743,0,0,0,0,0,0,0,-1,1945,764,47.1682,-3.42742
728,260,33.4344,5.75409,0,0,0,0,0,0,0,-1,1952,764,33.4345,-5.75408
735,260,26.9788,4.85681,0,0,0,0,0,0,0,-1,1959,764,26.9787,-4.85678
742,260,32.1443,1.73688,0,0,0,0,0,0,0,-1,1966,764,32.1442,-1.73688
749,260,33.6013,2.94733,0,0,0,0,0,0,0,-1,1973,764,33.6013,-2.9473
756,260,0,0,0,0,0,0,0,0,0,-1,1980,764,0,0
763,260,0,0,0,0,0,0,0,0,0,-1,1987,764,0,0
770,260,0,0,0,0,0,0,0,0,0,-1,1994,764,0,0
777,260,0,0,0,0,0,0,0,0,0,-1,2001,764,0,0
784,260,0,0,0,0,0,0,0,0,0,-1,2008,764,0,0
791,260,0,0,0,0,0,0,0,0,0,-1,2015,764,0,0
798,260,0,0,0,0,0,0,0,0,0,-1,2022,764,0,0
805,260,0,0,0,0,0,0,0,0,0,-1,2029,764,0,0
812,260,0,0,0,0,0,0,0,0,0,-1,2036,764,0,0
-700,253,0,0,0,0,0,0,0,0,0,-1,524,771,0,0
-693,253,0,0,0,0,0,0,0,0,0,-1,531,771,0,0
-686,253,0,0,0,0,0,0,0,0,0,-1,538,771,0,0
-679,253,0,0,0,0,0,0,0,0,0,-1,545,771,0,0
-672,253,0,0,0,0,0,0,0,0,0,-1,552,771,0,0
-665,253,0,0,0,0,0,0,0,0,0,-1,559,771,0,0
-658,253,0,0,0,0,0,0,0,0,0,-1,566,771,0,0
-651,253,0,0,0,0,0,0,0,0,0,-1,573,771,0,0
-644,253,0,0,0,0,0,0,0,0,0,-1,580,771,0,0
-637,253,-24.7979,-0.491394,0,0,0,0,0,0,0,-1,587,771,-24.7978,0.491371
-630,253,-25.156,0.540405,0,0,0,0,0,0,0,-1,594,771,-25.156,-0.540421
-623,253,-20.808,2.84314,0,0,0,0,0,0,0,-1,601,771,-20.8081,-2.84312
-616,253,-25.0877,2.96875,0,0,0,0,0,0,0,-1,608,771,-25.0877,-2.96876
-609,253,-24.28,2.08228,0,0,0,0,0,0,0,-1,615,771,-24.2801,-2.08227
-602,253,-33.0258,3.6579,0,0,0,0,0,0,0,-1,622,771,-33.0258,-3.65788
-595,253,-33.4677,2.66754,0,0,0,0,0,0,0,-1,629,771,-33.4677,-2.66756
-588,253,-33.4025,1.72858,0.00220221,-0.000987452,-0.00742387,0.00820062,-0.00698587,-0.679594,0.00877727,0.0395625,636,771,-33.4025,-1.72856
-581,253,-33.3236,0.830444,0.00133384,0.000152025,-0.00537922,0.00615451,-0.00466865,-0.730692,0.00626835,0.0262421,643,771,-33.3236,-0.83047
-574,253,-33.3751,-0.00463867,0.000788238,0.000687977,-0.00344908,0.00418755,-0.00271133,-0.778131,0.00401335,0.0220696,650,771,-33.3751,0.00463786
-567,253,-33.4315,-0.863403,0.000299003,0.000945857,-0.00189193,0.00254181,-0.00129695,-0.870055,0.00225482,0.0179261,657,771,-33.4315,0.863403
-560,253,-33.4246,-1.64532,-0.000120303,0.00102905,-0.000667112,0.00133488,-0.000426134,-1.14095,0.00106088,0.0147367,664,771,-33.4246,1.64531
-553,253,-33.4662,-2.5097,-0.000542865,0.0011092,0.000282677,0.00115623,-0.000589894,1.40594,0.00102565,0.0128055,671,771,-33.4662,2.50971
-546,253,-33.541,-3.349,-0.000951504,0.000986057,0.00115329,0.00152347,-0.00148892,1.13473,0.00173924,0.0113509,678,771,-33.5409,3.34901
-539,253,-33.6179,-4.22711,-0.00147232,0.000786197,0.00194567,0.00190658,-0.0025927,1.04834,0.00260771,0.0139384,685,771,-33.6179,4.22712
-532,253,-33.6299,-5.08691,-0.001948,0.000575625,0.00242142,0.00204428,-0.00341665,1.02559,0.00318589,0.0195766,692,771,-33.6299,5.0869
-525,253,-33.7004,-5.91309,-0.00250398,0.000637691,0.00292689,0.00238863,-0.00425492,1.03168,0.00388578,0.0265974,699,771,-33.7004,5.91309
-518,253,-33.9295,-6.8512,-0.0038852,0.000608708,0.00353765,0.00255267,-0.00582916,1.06833,0.00496097,0.0458818,706,771,-33.9295,6.85121
-511,253,-34.1406,-7.59705,0,0,0,0,0,0,0,-1,713,771,-34.1406,7.59704
-504,253,-19.317,-4.1723,0,0,0,0,0,0,0,-1,720,771,-19.317,4.1723
-497,253,-21.7737,-1.76837,0,0,0,0,0,0,0,-1,727,771,-21.7738,1.7684
-490,253,-29.7674,0.438354,0,0,0,0,0,0,0,-1,734,771,-29.7674,-0.438339
-483,253,-45.4489,1.59302,0,0,0,0,0,0,0,-1,741,771,-45.4489,-1.59303
-476,253,-55.539,0.193665,0,0,0,0,0,0,0,-1,748,771,-55.539,-0.193654
-469,253,-54.9974,0.690979,0,0,0,0,0,0,0,-1,755,771,-54.9973,-0.690951
-462,253,-54.4557,1.18823,0,0,0,0,0,0,0,-1,762,771,-54.4557,-1.18825
-455,253,-54.6697,0.788147,0,0,0,0,0,0,0,-1,769,771,-54.6697,-0.788145
-448,253,0,0,0,0,0,0,0,0,0,-1,776,771,0,0
-441,253,0,0,0,0,0,0,0,0,0,-1,783,771,0,0
-434,253,0,0,0,0,0,0,0,0,0,-1,790,771,0,0
-427,253,0,0,0,0,0,0,0,0,0,-1,797,771,0,0
-420,253,0,0,0,0,0,0,0,0,0,-1,804,771,0,0
-413,253,0,0,0,0,0,0,0,0,0,-1,811,771,0,0
-406,253,0,0,0,0,0,0,0,0,0,-1,818,771,0,0
-399,253,0,0,0,0,0,0,0,0,0,-1,825,771,0,0
-392,253,0,0,0,0,0,0,0,0,0,-1,832,771,0,0
-385,253,0,0,0,0,0,0,0,0,0,-1,839,771,0,0
-378,253,0,0,0,0,0,0,0,0,0,-1,846,771,0,0
-371,253,0,0,0,0,0,0,0,0,0,-1,853,771,0,0
-364,253,0,0,0,0,0,0,0,0,0,-1,860,771,0,0
-357,253,0,0,0,0,0,0,0,0,0,-1,867,771,0,0
-350,253,0,0,0,0,0,0,0,0,0,-1,874,771,0,0
-343,253,0,0,0,0,0,0,0,0,0,-1,881,771,0,0
-336,253,0,0,0,0,0,0,0,0,0,-1,888,771,0,0
-329,253,0,0,0,0,0,0,0,0,0,-1,895,771,0,0
-322,253,0,0,0,0,0,0,0,0,0,-1,902,771,0,0
-315,253,0,0,0,0,0,0,0,0,0,-1,909,771,0,0
-308,253,0,0,0,0,0,0,0,0,0,-1,916,771,0,0
-301,253,0,0,0,0,0,0,0,0,0,-1,923,771,0,0
-294,253,0,0,0,0,0,0,0,0,0,-1,930,771,0,0
-287,253,0,0,0,0,0,0,0,0,0,-1,937,771,0,0
-280,253,0,0,0,0,0,0,0,0,0,-1,944,771,0,0
-273,253,0,0,0,0,0,0,0,0,0,-1,951,771,0,0
-266,253,0,0,0,0,0,0,0,0,0,-1,958,771,0,0
-259,253,0,0,0,0,0,0,0,0,0,-1,965,771,0,0
-252,253,0,0,0,0,0,0,0,0,0,-1,972,771,0,0
-245,253,0,0,0,0,0,0,0,0,0,-1,979,771,0,0
-238,253,0,0,0,0,0,0,0,0,0,-1,986,771,0,0
-231,253,0,0,0,0,0,0,0,0,0,-1,993,771,0,0
-224,253,0,0,0,0,0,0,0,0,0,-1,1000,771,0,0
-217,253,0,0,0,0,0,0,0,0,0,-1,1007,771,0,0
-210,253,0,0,0,0,0,0,0,0,0,-1,1014,771,0,0
-203,253,0,0,0,0,0,0,0,0,0,-1,1021,771,0,0
-196,253,0,0,0,0,0,0,0,0,0,-1,1028,771,0,0
-189,253,0,0,0,0,0,0,0,0,0,-1,1035,771,0,0
-182,253,0,0,0,0,0,0,0,0,0,-1,1042,771,0,0
-175,253,0,0,0,0,0,0,0,0,0,-1,1049,771,0,0
-168,253,0,0,0,0,0,0,0,0,0,-1,1056,771,0,0
-161,253,0,0,0,0,0,0,0,0,0,-1,1063,771,0,0
-154,253,0,0,0,0,0,0,0,0,0,-1,1070,771,0,0
-147,253,0,0,0,0,0,0,0,0,0,-1,1077,771,0,0
-140,253,0,0,0,0,0,0,0,0,0,-1,1084,771,0,0
-133,253,0,0,0,0,0,0,0,0,0,-1,1091,771,0,0
-126,253,0,0,0,0,0,0,0,0,0,-1,1098,771,0,0
-119,253,0,0,0,0,0,0,0,0,0,-1,1105,771,0,0
-112,253,0,0,0,0,0,0,0,0,0,-1,1112,771,0,0
-105,253,0,0,0,0,0,0,0,0,0,-1,1119,771,0,0
-98,253,0,0,0,0,0,0,0,0,0,-1,1126,771,0,0
-91,253,0,0,0,0,0,0,0,0,0,-1,1133,771,0,0
-84,253,0,0,0,0,0,0,0,0,0,-1,1140,771,0,0
-77,253,0,0,0,0,0,0,0,0,0,-1,1147,771,0,0
-70,253,0,0,0,0,0,0,0,0,0,-1,1154,771,0,0
-63,253,0,0,0,0,0,0,0,0,0,-1,1161,771,0,0
-56,253,0,0,0,0,0,0,0,0,0,-1,1168,771,0,0
-49,253,0,0,0,0,0,0,0,0,0,-1,1175,771,0,0
-42,253,0,0,0,0,0,0,0,0,0,-1,1182,771,0,0
-35,253,0,0,0,0,0,0,0,0,0,-1,1189,771,0,0
-28,253,0,0,0,0,0,0,0,0,0,-1,1196,771,0,0
-21,253,0,0,0,0,0,0,0,0,0,-1,1203,771,0,0
-14,253,0,0,0,0,0,0,0,0,0,-1,1210,771,0,0
-7,253,0,0,0,0,0,0,0,0,0,-1,1217,771,0,0
0,253,0,0,0,0,0,0,0,0,0,-1,1224,771,0,0
7,253,0,0,0,0,0,0,0,0,0,-1,1231,771,0,0
14,253,0,0,0,0,0,0,0,0,0,-1,1238,771,0,0
21,253,0,0,0,0,0,0,0,0,0,-1,1245,771,0,0
28,253,0,0,0,0,0,0,0,0,0,-1,1252,771,0,0
35,253,0,0,0,0,0,0,0,0,0,-1,1259,771,0,0
42,253,0,0,0,0,0,0,0,0,0,-1,1266,771,0,0
49,253,0,0,0,0,0,0,0,0,0,-1,1273,771,0,0
56,253,0,0,0,0,0,0,0,0,0,-1,1280,771,0,0
63,253,0,0,0,0,0,0,0,0,0,-1,1287,771,0,0
70,253,0,0,0,0,0,0,0,0,0,-1,1294,771,0,0
77,253,0,0,0,0,0,0,0,0,0,-1,1301,771,0,0
84,253,0,0,0,0,0,0,0,0,0,-1,1308,771,0,0
91,253,0,0,0,0,0,0,0,0,0,-1,1315,771,0,0
98,253,0,0,0,0,0,0,0,0,0,-1,1322,771,0,0
105,253,0,0,0,0,0,0,0,0,0,-1,1329,771,0,0
112,253,0,0,0,0,0,0,0,0,0,-1,1336,771,0,0
119,253,0,0,0,0,0,0,0,0,0,-1,1343,771,0,0
126,253,0,0,0,0,0,0,0,0,0,-1,1350,771,0,0
133,253,0,0,0,0,0,0,0,0,0,-1,1357,771,0,0
140,253,0,0,0,0,0,0,0,0,0,-1,1364,771,0,0
147,253,0,0,0,0,0,0,0,0,0,-1,1371,771,0,0
154,253,0,0,0,0,0,0,0,0,0,-1,1378,771,0,0
161,253,0,0,0,0,0,0,0,0,0,-1,1385,771,0,0
168,253,0,0,0,0,0,0,0,0,0,-1,1392,771,0,0
175,253,0,0,0,0,0,0,0,0,0,-1,1399,771,0,0
182,253,0,0,0,0,0,0,0,0,0,-1,1406,771,0,0
189,253,0,0,0,0,0,0,0,0,0,-1,1413,771,0,0
196,253,0,0,0,0,0,0,0,0,0,-1,1420,771,0,0
203,253,0,0,0,0,0,0,0,0,0,-1,1427,771,0,0
210,253,0,0,0,0,0,0,0,0,0,-1,1434,771,0,0
217,253,0,0,0,0,0,0,0,0,0,-1,1441,771,0,0
224,253,0,0,0,0,0,0,0,0,0,-1,1448,771,0,0
231,253,0,0,0,0,0,0,0,0,0,-1,1455,771,0,0
238,253,0,0,0,0,0,0,0,0,0,-1,1462,771,0,0
245,253,0,0,0,0,0,0,0,0,0,-1,1469,771,0,0
252,253,0,0,0,0,0,0,0,0,0,-1,1476,771,0,0
259,253,0,0,0,0,0,0,0,0,0,-1,1483,771,0,0
266,253,0,0,0,0,0,0,0,0,0,-1,1490,771,0,0
273,253,0,0,0,0,0,0,0,0,0,-1,1497,771,0,0
280,253,0,0,0,0,0,0,0,0,0,-1,1504,771,0,0
287,253,0,0,0,0,0,0,0,0,0,-1,1511,771,0,0
294,253,0,0,0,0,0,0,0,0,0,-1,1518,771,0,0
301,253,0,0,0,0,0,0,0,0,0,-1,1525,771,0,0
308,253,0,0,0,0,0,0,0,0,0,-1,1532,771,0,0
315,253,0,0,0,0,0,0,0,0,0,-1,1539,771,0,0
322,253,0,0,0,0,0,0,0,0,0,-1,1546,771,0,0
329,253,0,0,0,0,0,0,0,0,0,-1,1553,771,0,0
336,253,0,0,0,0,0,0,0,0,0,-1,1560,771,0,0
343,253,0,0,0,0,0,0,0,0,0,-1,1567,771,0,0
350,253,0,0,0,0,0,0,0,0,0,-1,1574,771,0,0
357,253,0,0,0,0,0,0,0,0,0,-1,1581,771,0,0
364,253,0,0,0,0,0,0,0,0,0,-1,1588,771,0,0
371,253,0,0,0,0,0,0,0,0,0,-1,1595,771,0,0
378,253,0,0,0,0,0,0,0,0,0,-1,1602,771,0,0
385,253,0,0,0,0,0,0,0,0,0,-1,1609,771,0,0
392,253,0,0,0,0,0,0,0,0,0,-1,1616,771,0,0
399,253,0,0,0,0,0,0,0,0,0,-1,1623,771,0,0
406,253,0,0,0,0,0,0,0,0,0,-1,1630,771,0,0
413,253,0,0,0,0,0,0,0,0,0,-1,1637,771,0,0
420,253,0,0,0,0,0,0,0,0,0,-1,1644,771,0,0
427,253,0,0,0,0,0,0,0,0,0,-1,1651,771,0,0
434,253,0,0,0,0,0,0,0,0,0,-1,1658,771,0,0
441,253,0,0,0,0,0,0,0,0,0,-1,1665,771,0,0
448,253,0,0,0,0,0,0,0,0,0,-1,1672,771,0,0
455,253,0,0,0,0,0,0,0,0,0,-1,1679,771,0,0
462,253,0,0,0,0,0,0,0,0,0,-1,1686,771,0,0
469,253,0,0,0,0,0,0,0,0,0,-1,1693,771,0,0
476,253,0,0,0,0,0,0,0,0,0,-1,1700,771,0,0
483,253,0,0,0,0,0,0,0,0,0,-1,1707,771,0,0
490,253,0,0,0,0,0,0,0,0,0,-1,1714,771,0,0
497,253,0,0,0,0,0,0,0,0,0,-1,1721,771,0,0
504,253,0,0,0,0,0,0,0,0,0,-1,1728,771,0,0
511,253,0,0,0,0,0,0,0,0,0,-1,1735,771,0,0
518,253,0,0,0,0,0,0,0,0,0,-1,1742,771,0,0
525,253,0,0,0,0,0,0,0,0,0,-1,1749,771,0,0
532,253,0,0,0,0,0,0,0,0,0,-1,1756,771,0,0
539,253,0,0,0,0,0,0,0,0,0,-1,1763,771,0,0
546,253,0,0,0,0,0,0,0,0,0,-1,1770,771,0,0
553,253,0,0,0,0,0,0,0,0,0,-1,1777,771,0,0
560,253,0,0,0,0,0,0,0,0,0,-1,1784,771,0,0
567,253,0,0,0,0,0,0,0,0,0,-1,1791,771,0,0
574,253,71.2515,2.09436,0,0,0,0,0,0,0,-1,1798,771,71.2514,-2.09437
581,253,71.3429,2.14532,0,0,0,0,0,0,0,-1,1805,771,71.3429,-2.14531
588,253,71.1368,2.39044,0,0,0,0,0,0,0,-1,1812,771,71.1368,-2.39041
595,253,71.4926,2.33936,0,0,0,0,0,0,0,-1,1819,771,71.4926,-2.33937
602,253,66.4502,2.6098,0,0,0,0,0,0,0,-1,1826,771,66.4502,-2.60979
609,253,65.2542,3.18195,0,0,0,0,0,0,0,-1,1833,771,65.2541,-3.18193
616,253,58.416,2.69031,0,0,0,0,0,0,0,-1,1840,771,58.4161,-2.69031
623,253,48.8328,3.01001,0,0,0,0,0,0,0,-1,1847,771,48.8328,-3.01002
630,253,33.561,2.96838,0,0,0,0,0,0,0,-1,1854,771,33.561,-2.96836
637,253,22.3192,-0.604004,0,0,0,0,0,0,0,-1,1861,771,22.3192,0.603986
644,253,48.2843,-5.22784,0,0,0,0,0,0,0,-1,1868,771,48.2843,5.22783
651,253,48.7861,-5.06171,0,0,0,0,0,0,0,-1,1875,771,48.7861,5.0617
658,253,48.3503,-4.21686,0.000569565,0.000613081,0.000528192,0.00111996,6.26825e-05,0.805983,0.00072665,0.0239471,1882,771,48.3503,4.21684
665,253,48.2128,-3.43817,0.0006313,0.000502998,0.000339543,0.000912699,0.000221599,0.692031,0.000549696,0.0224931,1889,771,48.2128,3.43815
672,253,48.2288,-2.55518,0.000728927,0.000478965,0.000144289,0.000794837,0.000413055,0.42849,0.000459018,0.0176179,1896,771,48.2288,2.5552
679,253,48.2683,-1.62158,0.000740312,0.000519305,2.71929e-05,0.000743609,0.000516009,0.120644,0.000439955,0.0143583,1903,771,48.2683,1.6216
686,253,48.1788,-0.750183,0.000649466,0.000939884,4.28075e-05,0.000946062,0.000643288,1.42746,0.000557878,0.0259626,1910,771,48.1789,0.750157
693,253,48.0724,0.0540161,0.00047542,0.00153866,0.000120587,0.00155216,0.000461916,1.45927,0.000920292,0.0250046,1917,771,48.0724,-0.0539953
700,253,48.0251,0.887512,0.000285728,0.00223354,0.000294989,0.00227723,0.000242033,1.42374,0.00144425,0.0167962,1924,771,48.0252,-0.887484
707,253,48.0446,1.75476,3.70099e-05,0.00297361,0.000476039,0.00304885,-3.8231e-05,1.41404,0.00204543,0.0153815,1931,771,48.0446,-1.75475
714,253,48.0045,2.60693,-0.000504465,0.00360794,0.000671758,0.00371489,-0.000611415,1.41291,0.00270354,0.0247502,1938,771,48.0045,-2.60695
721,253,47.9766,3.51855,-0.000922661,0.00421863,0.000998428,0.00440571,-0.00110975,1.38556,0.00336855,0.0451475,1945,771,47.9765,-3.51855
728,253,47.9924,4.44739,0,0,0,0,0,0,0,-1,1952,771,47.9924,-4.44736
735,253,34.5735,6.15118,0,0,0,0,0,0,0,-1,1959,771,34.5734,-6.1512
742,253,31.0571,5.7337,0,0,0,0,0,0,0,-1,1966,771,31.0571,-5.73373
749,253,33.7754,3.21533,0,0,0,0,0,0,0,-1,1973,771,33.7754,-3.21533
756,253,0,0,0,0,0,0,0,0,0,-1,1980,771,0,0
763,253,0,0,0,0,0,0,0,0,0,-1,1987,771,0,0
770,253,0,0,0,0,0,0,0,0,0,-1,1994,771,0,0
777,253,0,0,0,0,0,0,0,0,0,-1,2001,771,0,0
784,253,0,0,0,0,0,0,0,0,0,-1,2008,771,0,0
791,253,0,0,0,0,0,0,0,0,0,-1,2015,771,0,0
798,253,0,0,0,0,0,0,0,0,0,-1,2022,771,0,0
805,253,0,0,0,0,0,0,0,0,0,-1,2029,771,0,0
812,253,0,0,0,0,0,0,0,0,0,-1,2036,771,0,0
-700,246,0,0,0,0,0,0,0,0,0,-1,524,778,0,0
-693,246,0,0,0,0,0,0,0,0,0,-1,531,778,0,0
-686,246,0,0,0,0,0,0,0,0,0,-1,538,778,0,0
-679,246,0,0,0,0,0,0,0,0,0,-1,545,778,0,0
-672,246,0,0,0,0,0,0,0,0,0,-1,552,778,0,0
-665,246,0,0,0,0,0,0,0,0,0,-1,559,778,0,0
-658,246,0,0,0,0,0,0,0,0,0,-1,566,778,0,0
-651,246,0,0,0,0,0,0,0,0,0,-1,573,778,0,0
-644,246,0,0,0,0,0,0,0,0,0,-1,580,778,0,0
-637,246,-24.1234,0.130432,0,0,0,0,0,0,0,-1,587,778,-24.1234,-0.130438
-630,246,-24.0781,1.38916,0,0,0,0,0,0,0,-1,594,778,-24.0781,-1.38913
-623,246,-23.9183,2.49573,0,0,0,0,0,0,0,-1,601,778,-23.9183,-2.49575
-616,246,-26.8182,2.0705,0,0,0,0,0,0,0,-1,608,778,-26.8182,-2.07052
-609,246,-26.0615,1.16388,0,0,0,0,0,0,0,-1,615,778,-26.0615,-1.16388
-602,246,-33.7271,3.74811,0,0,0,0,0,0,0,-1,622,778,-33.727,-3.74811
-595,246,-33.8517,2.8681,0.00217999,-0.00261232,-0.00868784,0.00879606,-0.00922838,-0.650841,0.0104074,0.0493007,629,778,-33.8517,-2.86808
-588,246,-34.0104,1.85559,0.00178013,-0.000861679,-0.00660118,0.00719126,-0.00627281,-0.686652,0.00777951,0.0315835,636,778,-34.0105,-1.85559
-581,246,-34.1885,0.954956,0.00121916,0.000196347,-0.00479625,0.00553119,-0.00411568,-0.732285,0.00558958,0.0174251,643,778,-34.1885,-0.954968
-574,246,-34.1509,0.0129395,0.00079522,0.000762228,-0.00302763,0.0038064,-0.00224895,-0.782674,0.00353439,0.0182309,650,778,-34.151,-0.012912
-567,246,-34.2043,-0.812622,0.000348742,0.00112181,-0.00154221,0.00232519,-0.000854633,-0.908188,0.00190018,0.0246313,657,778,-34.2043,0.812615
-560,246,-34.3076,-1.60223,-5.31252e-05,0.00130284,-0.000316313,0.001373,-0.000123283,-1.35253,0.000959074,0.0190573,664,778,-34.3075,1.60224
-553,246,-34.3344,-2.4035,-0.000503006,0.00152085,0.000656209,0.001715,-0.000697149,1.28315,0.00143339,0.0132314,671,778,-34.3344,2.40353
-546,246,-34.3953,-3.24768,-0.000960756,0.0015428,0.00157956,0.00230646,-0.00172441,1.12047,0.0023353,0.0114067,678,778,-34.3953,3.24771
-539,246,-34.46,-4.16174,-0.00156802,0.00141453,0.00237863,0.00273071,-0.0028842,1.0654,0.00324217,0.0127657,685,778,-34.46,4.16173
-532,246,-34.4902,-5.05701,-0.0020206,0.00134845,0.00277454,0.0029098,-0.00358196,1.05822,0.00375471,0.0273415,692,778,-34.4902,5.05703
-525,246,-34.484,-5.85681,0,0,0,0,0,0,0,-1,699,778,-34.484,5.85684
-518,246,-34.8635,-7.15625,0,0,0,0,0,0,0,-1,706,778,-34.8635,7.15622
-511,246,-28.5886,-5.38635,0,0,0,0,0,0,0,-1,713,778,-28.5886,5.38633
-504,246,-20.0047,-2.88214,0,0,0,0,0,0,0,-1,720,778,-20.0047,2.88216
-497,246,-29.4669,1.82684,0,0,0,0,0,0,0,-1,727,778,-29.4669,-1.82687
-490,246,-40.4299,1.04309,0,0,0,0,0,0,0,-1,734,778,-40.4299,-1.04308
-483,246,-55.5514,-0.0795898,0,0,0,0,0,0,0,-1,741,778,-55.5514,0.0795595
-476,246,-55.3043,0.53241,0,0,0,0,0,0,0,-1,748,778,-55.3043,-0.532424
-469,246,-55.09,0.724243,0,0,0,0,0,0,0,-1,755,778,-55.09,-0.724221
-462,246,-54.903,0.888855,0,0,0,0,0,0,0,-1,762,778,-54.903,-0.888858
-455,246,0,0,0,0,0,0,0,0,0,-1,769,778,0,0
-448,246,0,0,0,0,0,0,0,0,0,-1,776,778,0,0
-441,246,0,0,0,0,0,0,0,0,0,-1,783,778,0,0
-434,246,0,0,0,0,0,0,0,0,0,-1,790,778,0,0
-427,246,0,0,0,0,0,0,0,0,0,-1,797,778,0,0
-420,246,0,0,0,0,0,0,0,0,0,-1,804,778,0,0
-413,246,0,0,0,0,0,0,0,0,0,-1,811,778,0,0
-406,246,0,0,0,0,0,0,0,0,0,-1,818,778,0,0
-399,246,0,0,0,0,0,0,0,0,0,-1,825,778,0,0
-392,246,0,0,0,0,0,0,0,0,0,-1,832,778,0,0
-385,246,0,0,0,0,0,0,0,0,0,-1,839,778,0,0
-378,246,0,0,0,0,0,0,0,0,0,-1,846,778,0,0
-371,246,0,0,0,0,0,0,0,0,0,-1,853,778,0,0
-364,246,0,0,0,0,0,0,0,0,0,-1,860,778,0,0
-357,246,0,0,0,0,0,0,0,0,0,-1,867,778,0,0
-350,246,0,0,0,0,0,0,0,0,0,-1,874,778,0,0
-343,246,0,0,0,0,0,0,0,0,0,-1,881,778,0,0
-336,246,0,0,0,0,0,0,0,0,0,-1,888,778,0,0
-329,246,0,0,0,0,0,0,0,0,0,-1,895,778,0,0
-322,246,0,0,0,0,0,0,0,0,0,-1,902,778,0,0
-315,246,0,0,0,0,0,0,0,0,0,-1,909,778,0,0
-308,246,0,0,0,0,0,0,0,0,0,-1,916,778,0,0
-301,246,0,0,0,0,0,0,0,0,0,-1,923,778,0,0
-294,246,0,0,0,0,0,0,0,0,0,-1,930,778,0,0
-287,246,0,0,0,0,0,0,0,0,0,-1,937,778,0,0
-280,246,0,0,0,0,0,0,0,0,0,-1,944,778,0,0
-273,246,0,0,0,0,0,0,0,0,0,-1,951,778,0,0
-266,246,0,0,0,0,0,0,0,0,0,-1,958,778,0,0
-259,246,0,0,0,0,0,0,0,0,0,-1,965,778,0,0
-252,246,0,0,0,0,0,0,0,0,0,-1,972,778,0,0
-245,246,0,0,0,0,0,0,0,0,0,-1,979,778,0,0
-238,246,0,0,0,0,0,0,0,0,0,-1,986,778,0,0
-231,246,0,0,0,0,0,0,0,0,0,-1,993,778,0,0
-224,246,0,0,0,0,0,0,0,0,0,-1,1000,778,0,0
-217,246,0,0,0,0,0,0,0,0,0,-1,1007,778,0,0
-210,246,0,0,0,0,0,0,0,0,0,-1,1014,778,0,0
-203,246,0,0,0,0,0,0,0,0,0,-1,1021,778,0,0
-196,246,0,0,0,0,0,0,0,0,0,-1,1028,778,0,0
-189,246,0,0,0,0,0,0,0,0,0,-1,1035,778,0,0
-182,246,0,0,0,0,0,0,0,0,0,-1,1042,778,0,0
-175,246,0,0,0,0,0,0,0,0,0,-1,1049,778,0,0
-168,246,0,0,0,0,0,0,0,0,0,-1,1056,778,0,0
-161,246,0,0,0,0,0,0,0,0,0,-1,1063,778,0,0
-154,246,0,0,0,0,0,0,0,0,0,-1,1070,778,0,0
-147,246,0,0,0,0,0,0,0,0,0,-1,1077,778,0,0
-140,246,0,0,0,0,0,0,0,0,0,-1,1084,778,0,0
-133,246,0,0,0,0,0,0,0,0,0,-1,1091,778,0,0
-126,246,0,0,0,0,0,0,0,0,0,-1,1098,778,0,0
-119,246,0,0,0,0,0,0,0,0,0,-1,1105,778,0,0
-112,246,0,0,0,0,0,0,0,0,0,-1,1112,778,0,0
-105,246,0,0,0,0,0,0,0,0,0,-1,1119,778,0,0
-98,246,0,0,0,0,0,0,0,0,0,-1,1126,778,0,0
-91,246,0,0,0,0,0,0,0,0,0,-1,1133,778,0,0
-84,246,0,0,0,0,0,0,0,0,0,-1,1140,778,0,0
-77,246,0,0,0,0,0,0,0,0,0,-1,1147,778,0,0
-70,246,0,0,0,0,0,0,0,0,0,-1,1154,778,0,0
-63,246,0,0,0,0,0,0,0,0,0,-1,1161,778,0,0
-56,246,0,0,0,0,0,0,0,0,0,-1,1168,778,0,0
-49,246,0,0,0,0,0,0,0,0,0,-1,1175,778,0,0
-42,246,0,0,0,0,0,0,0,0,0,-1,1182,778,0,0
-35,246,0,0,0,0,0,0,0,0,0,-1,1189,778,0,0
-28,246,0,0,0,0,0,0,0,0,0,-1,1196,778,0,0
-21,246,0,0,0,0,0,0,0,0,0,-1,1203,778,0,0
-14,246,0,0,0,0,0,0,0,0,0,-1,1210,778,0,0
-7,246,0,0,0,0,0,0,0,0,0,-1,1217,778,0,0
0,246,0,0,0,0,0,0,0,0,0,-1,1224,778,0,0
7,246,0,0,0,0,0,0,0,0,0,-1,1231,778,0,0
14,246,0,0,0,0,0,0,0,0,0,-1,1238,778,0,0
21,246,0,0,0,0,0,0,0,0,0,-1,1245,778,0,0
28,246,0,0,0,0,0,0,0,0,0,-1,1252,778,0,0
35,246,0,0,0,0,0,0,0,0,0,-1,1259,778,0,0
42,246,0,0,0,0,0,0,0,0,0,-1,1266,778,0,0
49,246,0,0,0,0,0,0,0,0,0,-1,1273,778,0,0
56,246,0,0,0,0,0,0,0,0,0,-1,1280,778,0,0
63,246,0,0,0,0,0,0,0,0,0,-1,1287,778,0,0
70,246,0,0,0,0,0,0,0,0,0,-1,1294,778,0,0
77,246,0,0,0,0,0,0,0,0,0,-1,1301,778,0,0
84,246,0,0,0,0,0,0,0,0,0,-1,1308,778,0,0
91,246,0,0,0,0,0,0,0,0,0,-1,1315,778,0,0
98,246,0,0,0,0,0,0,0,0,0,-1,1322,778,0,0
105,246,0,0,0,0,0,0,0,0,0,-1,1329,778,0,0
112,246,0,0,0,0,0,0,0,0,0,-1,1336,778,0,0
119,246,0,0,0,0,0,0,0,0,0,-1,1343,778,0,0
126,246,0,0,0,0,0,0,0,0,0,-1,1350,778,0,0
133,246,0,0,0,0,0,0,0,0,0,-1,1357,778,0,0
140,246,0,0,0,0,0,0,0,0,0,-1,1364,778,0,0
147,246,0,0,0,0,0,0,0,0,0,-1,1371,778,0,0
154,246,0,0,0,0,0,0,0,0,0,-1,1378,778,0,0
161,246,0,0,0,0,0,0,0,0,0,-1,1385,778,0,0
168,246,0,0,0,0,0,0,0,0,0,-1,1392,778,0,0
175,246,0,0,0,0,0,0,0,0,0,-1,1399,778,0,0
182,246,0,0,0,0,0,0,0,0,0,-1,1406,778,0,0
189,246,0,0,0,0,0,0,0,0,0,-1,1413,778,0,0
196,246,0,0,0,0,0,0,0,0,0,-1,1420,778,0,0
203,246,0,0,0,0,0,0,0,0,0,-1,1427,778,0,0
210,246,0,0,0,0,0,0,0,0,0,-1,1434,778,0,0
217,246,0,0,0,0,0,0,0,0,0,-1,1441,778,0,0
224,246,0,0,0,0,0,0,0,0,0,-1,1448,778,0,0
231,246,0,0,0,0,0,0,0,0,0,-1,1455,778,0,0
238,246,0,0,0,0,0,0,0,0,0,-1,1462,778,0,0
245,246,0,0,0,0,0,0,0,0,0,-1,1469,778,0,0
252,246,0,0,0,0,0,0,0,0,0,-1,1476,778,0,0
259,246,0,0,0,0,0,0,0,0,0,-1,1483,778,0,0
266,246,0,0,0,0,0,0,0,0,0,-1,1490,778,0,0
273,246,0,0,0,0,0,0,0,0,0,-1,1497,778,0,0
280,246,0,0,0,0,0,0,0,0,0,-1,1504,778,0,0
287,246,0,0,0,0,0,0,0,0,0,-1,1511,778,0,0
294,246,0,0,0,0,0,0,0,0,0,-1,1518,778,0,0
301,246,0,0,0,0,0,0,0,0,0,-1,1525,778,0,0
308,246,0,0,0,0,0,0,0,0,0,-1,1532,778,0,0
315,246,0,0,0,0,0,0,0,0,0,-1,1539,778,0,0
322,246,0,0,0,0,0,0,0,0,0,-1,1546,778,0,0
329,246,0,0,0,0,0,0,0,0,0,-1,1553,778,0,0
336,246,0,0,0,0,0,0,0,0,0,-1,1560,778,0,0
343,246,0,0,0,0,0,0,0,0,0,-1,1567,778,0,0
350,246,0,0,0,0,0,0,0,0,0,-1,1574,778,0,0
357,246,0,0,0,0,0,0,0,0,0,-1,1581,778,0,0
364,246,0,0,0,0,0,0,0,0,0,-1,1588,778,0,0
371,246,0,0,0,0,0,0,0,0,0,-1,1595,778,0,0
378,246,0,0,0,0,0,0,0,0,0,-1,1602,778,0,0
385,246,0,0,0,0,0,0,0,0,0,-1,1609,778,0,0
392,246,0,0,0,0,0,0,0,0,0,-1,1616,778,0,0
399,246,0,0,0,0,0,0,0,0,0,-1,1623,778,0,0
406,246,0,0,0,0,0,0,0,0,0,-1,1630,778,0,0
413,246,0,0,0,0,0,0,0,0,0,-1,1637,778,0,0
420,246,0,0,0,0,0,0,0,0,0,-1,1644,778,0,0
427,246,0,0,0,0,0,0,0,0,0,-1,1651,778,0,0
434,246,0,0,0,0,0,0,0,0,0,-1,1658,778,0,0
441,246,0,0,0,0,0,0,0,0,0,-1,1665,778,0,0
448,246,0,0,0,0,0,0,0,0,0,-1,1672,778,0,0
455,246,0,0,0,0,0,0,0,0,0,-1,1679,778,0,0
462,246,0,0,0,0,0,0,0,0,0,-1,1686,778,0,0
469,246,0,0,0,0,0,0,0,0,0,-1,1693,778,0,0
476,246,0,0,0,0,0,0,0,0,0,-1,1700,778,0,0
483,246,0,0,0,0,0,0,0,0,0,-1,1707,778,0,0
490,246,0,0,0,0,0,0,0,0,0,-1,1714,778,0,0
497,246,0,0,0,0,0,0,0,0,0,-1,1721,778,0,0
504,246,0,0,0,0,0,0,0,0,0,-1,1728,778,0,0
511,246,0,0,0,0,0,0,0,0,0,-1,1735,778,0,0
518,246,0,0,0,0,0,0,0,0,0,-1,1742,778,0,0
525,246,0,0,0,0,0,0,0,0,0,-1,1749,778,0,0
532,246,0,0,0,0,0,0,0,0,0,-1,1756,778,0,0
539,246,0,0,0,0,0,0,0,0,0,-1,1763,778,0,0
546,246,0,0,0,0,0,0,0,0,0,-1,1770,778,0,0
553,246,0,0,0,0,0,0,0,0,0,-1,1777,778,0,0
560,246,0,0,0,0,0,0,0,0,0,-1,1784,778,0,0
567,246,0,0,0,0,0,0,0,0,0,-1,1791,778,0,0
574,246,0,0,0,0,0,0,0,0,0,-1,1798,778,0,0
581,246,71.1082,2.3208,0.00607401,-0.00103897,0.00126088,0.0062909,-0.00125586,0.170352,0.0046692,0.0407021,1805,778,71.1081,-2.32083
588,246,71.0387,2.38458,0.00675889,-0.00100611,0.000907515,0.00686354,-0.00111077,0.114811,0.00498735,0.0448224,1812,778,71.0387,-2.38459
595,246,71.2928,2.32574,0.00659906,-0.000400803,0.000805265,0.00669051,-0.000492247,0.113072,0.00463314,0.0464756,1819,778,71.2928,-2.32577
602,246,71.3206,2.3407,0,0,0,0,0,0,0,-1,1826,778,71.3205,-2.34071
609,246,65.04,3.03278,0,0,0,0,0,0,0,-1,1833,778,65.04,-3.03277
616,246,60.4568,3.98492,0,0,0,0,0,0,0,-1,1840,778,60.4568,-3.98491
623,246,55.8947,3.95953,0,0,0,0,0,0,0,-1,1847,778,55.8947,-3.95952
630,246,49.5938,1.99902,0,0,0,0,0,0,0,-1,1854,778,49.5937,-1.999
637,246,29.5785,0.837585,0,0,0,0,0,0,0,-1,1861,778,29.5785,-0.837606
644,246,28.1232,-1.43188,0,0,0,0,0,0,0,-1,1868,778,28.1232,1.43188
651,246,48.5865,-4.32922,0,0,0,0,0,0,0,-1,1875,778,48.5865,4.32921
658,246,49.123,-4.13898,0,0,0,0,0,0,0,-1,1882,778,49.123,4.13896
665,246,49.1255,-3.40015,5.95145e-05,0.000631647,0.000231482,0.000713572,-2.24106e-05,1.23064,0.000483358,0.0301346,1889,778,49.1255,3.40014
672,246,49.1731,-2.48102,0.000183682,0.000422611,-3.72411e-06,0.000422669,0.000183624,-1.55521,0.000244726,0.0224556,1896,778,49.1731,2.48101
679,246,49.1484,-1.56677,0.000327323,0.000212014,-0.0001543,0.000434388,0.000104949,-0.606603,0.000261719,0.0224162,1903,778,49.1484,1.56678
686,246,49.0768,-0.691406,0.000357234,0.00042741,-0.000226669,0.000621691,0.000162953,-0.862188,0.000372229,0.0237398,1910,778,49.0767,0.691418
693,246,49.0178,0.106506,0.000250932,0.000891799,-0.00023772,0.000970349,0.000172381,-1.25166,0.000597782,0.0187772,1917,778,49.0178,-0.106515
700,246,48.9583,0.927002,8.89956e-05,0.00144301,-0.000123311,0.00145415,7.78573e-05,-1.48071,0.000944552,0.0148703,1924,778,48.9583,-0.927018
707,246,48.915,1.80823,-0.000114305,0.00204954,3.22931e-05,0.00205002,-0.000114787,1.55588,0.00140651,0.0134808,1931,778,48.9151,-1.8082
714,246,48.854,2.70776,-0.000531155,0.00265324,5.76901e-05,0.00265429,-0.0005322,1.55269,0.00197102,0.0143631,1938,778,48.854,-2.70778
721,246,48.7561,3.54901,-0.000946189,0.00313962,0.000160581,0.00314593,-0.000952491,1.53157,0.00247661,0.0193864,1945,778,48.7561,-3.549
728,246,48.7344,4.76874,0,0,0,0,0,0,0,-1,1952,778,48.7344,-4.76873
735,246,48.7983,6.0929,0,0,0,0,0,0,0,-1,1959,778,48.7984,-6.09288
742,246,31.7356,6.70013,0,0,0,0,0,0,0,-1,1966,778,31.7356,-6.70011
749,246,32.3883,7.69324,0,0,0,0,0,0,0,-1,1973,778,32.3883,-7.69322
756,246,33.6919,3.45264,0,0,0,0,0,0,0,-1,1980,778,33.6919,-3.45262
763,246,0,0,0,0,0,0,0,0,0,-1,1987,778,0,0
770,246,0,0,0,0,0,0,0,0,0,-1,1994,778,0,0
777,246,0,0,0,0,0,0,0,0,0,-1,2001,778,0,0
784,246,0,0,0,0,0,0,0,0,0,-1,2008,778,0,0
791,246,0,0,0,0,0,0,0,0,0,-1,2015,778,0,0
798,246,0,0,0,0,0,0,0,0,0,-1,2022,778,0,0
805,246,0,0,0,0,0,0,0,0,0,-1,2029,778,0,0
812,246,0,0,0,0,0,0,0,0,0,-1,2036,778,0,0
-700,239,0,0,0,0,0,0,0,0,0,-1,524,785,0,0
-693,239,0,0,0,0,0,0,0,0,0,-1,531,785,0,0
-686,239,0,0,0,0,0,0,0,0,0,-1,538,785,0,0
-679,239,0,0,0,0,0,0,0,0,0,-1,545,785,0,0
-672,239,0,0,0,0,0,0,0,0,0,-1,552,785,0,0
-665,239,0,0,0,0,0,0,0,0,0,-1,559,785,0,0
-658,239,0,0,0,0,0,0,0,0,0,-1,566,785,0,0
-651,239,0,0,0,0,0,0,0,0,0,-1,573,785,0,0
-644,239,0,0,0,0,0,0,0,0,0,-1,580,785,0,0
-637,239,-23.2709,0.465088,0,0,0,0,0,0,0,-1,587,785,-23.271,-0.465116
-630,239,-23.4006,0.956299,0,0,0,0,0,0,0,-1,594,785,-23.4005,-0.956285
-623,239,-30.6328,2.52185,0,0,0,0,0,0,0,-1,601,785,-30.6328,-2.52183
-616,239,-29.1425,1.42139,0,0,0,0,0,0,0,-1,608,785,-29.1425,-1.42139
-609,239,-27.8569,0.322937,0,0,0,0,0,0,0,-1,615,785,-27.857,-0.322963
-602,239,-34.6602,5.03241,0,0,0,0,0,0,0,-1,622,785,-34.6602,-5.0324
-595,239,-34.7529,3.52283,0.00305276,-0.00176271,-0.00823408,0.00922391,-0.00793386,-0.643158,0.00991537,0.0422587,629,785,-34.753,-3.52286
-588,239,-34.8813,2.01312,0.00238459,-0.000347963,-0.00623094,0.00739729,-0.00536067,-0.67747,0.00739703,0.020359,636,785,-34.8814,-2.01315
-581,239,-35.0219,1.00549,0.00172564,0.000557077,-0.00445877,0.00563825,-0.00335553,-0.720249,0.00524802,0.0111867,643,785,-35.0219,-1.00548
-574,239,-35.0208,0.108337,0.00121997,0.00112049,-0.00275341,0.00392409,-0.00158363,-0.776367,0.00327418,0.0122831,650,785,-35.0208,-0.108347
-567,239,-35.0751,-0.738159,0.000713078,0.0015656,-0.00129568,0.00250333,-0.000224657,-0.944315,0.00174859,0.0181333,657,785,-35.0751,0.738138
-560,239,-35.1686,-1.53082,0.000207728,0.00183822,-1.86033e-06,0.00183822,0.000207726,-1.56966,0.00116244,0.0184041,664,785,-35.1686,1.53084
-553,239,-35.2051,-2.35138,-0.000293789,0.00221006,0.00100204,0.0025617,-0.000645426,1.2333,0.00195871,0.0144977,671,785,-35.2051,2.35138
-546,239,-35.2452,-3.20599,-0.000802096,0.00241714,0.00197987,0.00335914,-0.0017441,1.1267,0.00299513,0.0158256,678,785,-35.2452,3.20599
-539,239,-35.436,-4.07214,-0.00152674,0.00241661,0.00275717,0.00383455,-0.00294468,1.0958,0.00392521,0.0275904,685,785,-35.436,4.07213
-532,239,-35.6375,-4.90601,-0.00198795,0.00256607,0.00304808,0.00409374,-0.00351562,1.1062,0.00439749,0.0330033,692,785,-35.6374,4.90601
-525,239,-35.5296,-5.45557,0,0,0,0,0,0,0,-1,699,785,-35.5296,5.45558
-518,239,-35.6631,-5.91278,0,0,0,0,0,0,0,-1,706,785,-35.6631,5.9128
-511,239,-20.9849,-2.09235,0,0,0,0,0,0,0,-1,713,785,-20.9848,2.09234
-504,239,-25.5015,2.00421,0,0,0,0,0,0,0,-1,720,785,-25.5015,-2.00422
-497,239,-40.2453,1.4447,0,0,0,0,0,0,0,-1,727,785,-40.2453,-1.4447
-490,239,-55.7633,-0.30426,0,0,0,0,0,0,0,-1,734,785,-55.7633,0.304271
-483,239,-55.4545,0.0797119,0,0,0,0,0,0,0,-1,741,785,-55.4545,-0.0797077
-476,239,-55.1996,0.572449,0,0,0,0,0,0,0,-1,748,785,-55.1997,-0.572452
-469,239,-54.937,0.818115,0,0,0,0,0,0,0,-1,755,785,-54.937,-0.818144
-462,239,-54.9033,0.894226,0,0,0,0,0,0,0,-1,762,785,-54.9033,-0.894225
-455,239,0,0,0,0,0,0,0,0,0,-1,769,785,0,0
-448,239,0,0,0,0,0,0,0,0,0,-1,776,785,0,0
-441,239,0,0,0,0,0,0,0,0,0,-1,783,785,0,0
-434,239,0,0,0,0,0,0,0,0,0,-1,790,785,0,0
-427,239,0,0,0,0,0,0,0,0,0,-1,797,785,0,0
-420,239,0,0,0,0,0,0,0,0,0,-1,804,785,0,0
-413,239,0,0,0,0,0,0,0,0,0,-1,811,785,0,0
-406,239,0,0,0,0,0,0,0,0,0,-1,818,785,0,0
-399,239,0,0,0,0,0,0,0,0,0,-1,825,785,0,0
-392,239,0,0,0,0,0,0,0,0,0,-1,832,785,0,0
-385,239,0,0,0,0,0,0,0,0,0,-1,839,785,0,0
-378,239,0,0,0,0,0,0,0,0,0,-1,846,785,0,0
-371,239,0,0,0,0,0,0,0,0,0,-1,853,785,0,0
-364,239,0,0,0,0,0,0,0,0,0,-1,860,785,0,0
-357,239,0,0,0,0,0,0,0,0,0,-1,867,785,0,0
-350,239,0,0,0,0,0,0,0,0,0,-1,874,785,0,0
-343,239,0,0,0,0,0,0,0,0,0,-1,881,785,0,0
-336,239,0,0,0,0,0,0,0,0,0,-1,888,785,0,0
-329,239,0,0,0,0,0,0,0,0,0,-1,895,785,0,0
-322,239,0,0,0,0,0,0,0,0,0,-1,902,785,0,0
-315,239,0,0,0,0,0,0,0,0,0,-1,909,785,0,0
-308,239,0,0,0,0,0,0,0,0,0,-1,916,785,0,0
-301,239,0,0,0,0,0,0,0,0,0,-1,923,785,0,0
-294,239,0,0,0,0,0,0,0,0,0,-1,930,785,0,0
-287,239,0,0,0,0,0,0,0,0,0,-1,937,785,0,0
-280,239,0,0,0,0,0,0,0,0,0,-1,944,785,0,0
-273,239,0,0,0,0,0,0,0,0,0,-1,951,785,0,0
-266,239,0,0,0,0,0,0,0,0,0,-1,958,785,0,0
-259,239,0,0,0,0,0,0,0,0,0,-1,965,785,0,0
-252,239,0,0,0,0,0,0,0,0,0,-1,972,785,0,0
-245,239,0,0,0,0,0,0,0,0,0,-1,979,785,0,0
-238,239,0,0,0,0,0,0,0,0,0,-1,986,785,0,0
-231,239,0,0,0,0,0,0,0,0,0,-1,993,785,0,0
-224,239,0,0,0,0,0,0,0,0,0,-1,1000,785,0,0
-217,239,0,0,0,0,0,0,0,0,0,-1,1007,785,0,0
-210,239,0,0,0,0,0,0,0,0,0,-1,1014,785,0,0
-203,239,0,0,0,0,0,0,0,0,0,-1,1021,785,0,0
-196,239,0,0,0,0,0,0,0,0,0,-1,1028,785,0,0
-189,239,0,0,0,0,0,0,0,0,0,-1,1035,785,0,0
-182,239,0,0,0,0,0,0,0,0,0,-1,1042,785,0,0
-175,239,0,0,0,0,0,0,0,0,0,-1,1049,785,0,0
-168,239,0,0,0,0,0,0,0,0,0,-1,1056,785,0,0
-161,239,0,0,0,0,0,0,0,0,0,-1,1063,785,0,0
-154,239,0,0,0,0,0,0,0,0,0,-1,1070,785,0,0
-147,239,0,0,0,0,0,0,0,0,0,-1,1077,785,0,0
-140,239,0,0,0,0,0,0,0,0,0,-1,1084,785,0,0
-133,239,0,0,0,0,0,0,0,0,0,-1,1091,785,0,0
-126,239,0,0,0,0,0,0,0,0,0,-1,1098,785,0,0
-119,239,0,0,0,0,0,0,0,0,0,-1,1105,785,0,0
-112,239,0,0,0,0,0,0,0,0,0,-1,1112,785,0,0
-105,239,0,0,0,0,0,0,0,0,0,-1,1119,785,0,0
-98,239,0,0,0,0,0,0,0,0,0,-1,1126,785,0,0
-91,239,0,0,0,0,0,0,0,0,0,-1,1133,785,0,0
-84,239,0,0,0,0,0,0,0,0,0,-1,1140,785,0,0
-77,239,0,0,0,0,0,0,0,0,0,-1,1147,785,0,0
-70,239,0,0,0,0,0,0,0,0,0,-1,1154,785,0,0
-63,239,0,0,0,0,0,0,0,0,0,-1,1161,785,0,0
-56,239,0,0,0,0,0,0,0,0,0,-1,1168,785,0,0
-49,239,0,0,0,0,0,0,0,0,0,-1,1175,785,0,0
-42,239,0,0,0,0,0,0,0,0,0,-1,1182,785,0,0
-35,239,0,0,0,0,0,0,0,0,0,-1,1189,785,0,0
-28,239,0,0,0,0,0,0,0,0,0,-1,1196,785,0,0
-21,239,0,0,0,0,0,0,0,0,0,-1,1203,785,0,0
-14,239,0,0,0,0,0,0,0,0,0,-1,1210,785,0,0
-7,239,0,0,0,0,0,0,0,0,0,-1,1217,785,0,0
0,239,0,0,0,0,0,0,0,0,0,-1,1224,785,0,0
7,239,0,0,0,0,0,0,0,0,0,-1,1231,785,0,0
14,239,0,0,0,0,0,0,0,0,0,-1,1238,785,0,0
21,239,0,0,0,0,0,0,0,0,0,-1,1245,785,0,0
28,239,0,0,0,0,0,0,0,0,0,-1,1252,785,0,0
35,239,0,0,0,0,0,0,0,0,0,-1,1259,785,0,0
42,239,0,0,0,0,0,0,0,0,0,-1,1266,785,0,0
49,239,0,0,0,0,0,0,0,0,0,-1,1273,785,0,0
56,239,0,0,0,0,0,0,0,0,0,-1,1280,785,0,0
63,239,0,0,0,0,0,0,0,0,0,-1,1287,785,0,0
70,239,0,0,0,0,0,0,0,0,0,-1,1294,785,0,0
77,239,0,0,0,0,0,0,0,0,0,-1,1301,785,0,0
84,239,0,0,0,0,0,0,0,0,0,-1,1308,785,0,0
91,239,0,0,0,0,0,0,0,0,0,-1,1315,785,0,0
98,239,0,0,0,0,0,0,0,0,0,-1,1322,785,0,0
105,239,0,0,0,0,0,0,0,0,0,-1,1329,785,0,0
112,239,0,0,0,0,0,0,0,0,0,-1,1336,785,0,0
119,239,0,0,0,0,0,0,0,0,0,-1,1343,785,0,0
126,239,0,0,0,0,0,0,0,0,0,-1,1350,785,0,0
133,239,0,0,0,0,0,0,0,0,0,-1,1357,785,0,0
140,239,0,0,0,0,0,0,0,0,0,-1,1364,785,0,0
147,239,0,0,0,0,0,0,0,0,0,-1,1371,785,0,0
154,239,0,0,0,0,0,0,0,0,0,-1,1378,785,0,0
161,239,0,0,0,0,0,0,0,0,0,-1,1385,785,0,0
168,239,0,0,0,0,0,0,0,0,0,-1,1392,785,0,0
175,239,0,0,0,0,0,0,0,0,0,-1,1399,785,0,0
182,239,0,0,0,0,0,0,0,0,0,-1,1406,785,0,0
189,239,0,0,0,0,0,0,0,0,0,-1,1413,785,0,0
196,239,0,0,0,0,0,0,0,0,0,-1,1420,785,0,0
203,239,0,0,0,0,0,0,0,0,0,-1,1427,785,0,0
210,239,0,0,0,0,0,0,0,0,0,-1,1434,785,0,0
217,239,0,0,0,0,0,0,0,0,0,-1,1441,785,0,0
224,239,0,0,0,0,0,0,0,0,0,-1,1448,785,0,0
231,239,0,0,0,0,0,0,0,0,0,-1,1455,785,0,0
238,239,0,0,0,0,0,0,0,0,0,-1,1462,785,0,0
245,239,0,0,0,0,0,0,0,0,0,-1,1469,785,0,0
252,239,0,0,0,0,0,0,0,0,0,-1,1476,785,0,0
259,239,0,0,0,0,0,0,0,0,0,-1,1483,785,0,0
266,239,0,0,0,0,0,0,0,0,0,-1,1490,785,0,0
273,239,0,0,0,0,0,0,0,0,0,-1,1497,785,0,0
280,239,0,0,0,0,0,0,0,0,0,-1,1504,785,0,0
287,239,0,0,0,0,0,0,0,0,0,-1,1511,785,0,0
294,239,0,0,0,0,0,0,0,0,0,-1,1518,785,0,0
301,239,0,0,0,0,0,0,0,0,0,-1,1525,785,0,0
308,239,0,0,0,0,0,0,0,0,0,-1,1532,785,0,0
315,239,0,0,0,0,0,0,0,0,0,-1,1539,785,0,0
322,239,0,0,0,0,0,0,0,0,0,-1,1546,785,0,0
329,239,0,0,0,0,0,0,0,0,0,-1,1553,785,0,0
336,239,0,0,0,0,0,0,0,0,0,-1,1560,785,0,0
343,239,0,0,0,0,0,0,0,0,0,-1,1567,785,0,0
350,239,0,0,0,0,0,0,0,0,0,-1,1574,785,0,0
357,239,0,0,0,0,0,0,0,0,0,-1,1581,785,0,0
364,239,0,0,0,0,0,0,0,0,0,-1,1588,785,0,0
371,239,0,0,0,0,0,0,0,0,0,-1,1595,785,0,0
378,239,0,0,0,0,0,0,0,0,0,-1,1602,785,0,0
385,239,0,0,0,0,0,0,0,0,0,-1,1609,785,0,0
392,239,0,0,0,0,0,0,0,0,0,-1,1616,785,0,0
399,239,0,0,0,0,0,0,0,0,0,-1,1623,785,0,0
406,239,0,0,0,0,0,0,0,0,0,-1,1630,785,0,0
413,239,0,0,0,0,0,0,0,0,0,-1,1637,785,0,0
420,239,0,0,0,0,0,0,0,0,0,-1,1644,785,0,0
427,239,0,0,0,0,0,0,0,0,0,-1,1651,785,0,0
434,239,0,0,0,0,0,0,0,0,0,-1,1658,785,0,0
441,239,0,0,0,0,0,0,0,0,0,-1,1665,785,0,0
448,239,0,0,0,0,0,0,0,0,0,-1,1672,785,0,0
455,239,0,0,0,0,0,0,0,0,0,-1,1679,785,0,0
462,239,0,0,0,0,0,0,0,0,0,-1,1686,785,0,0
469,239,0,0,0,0,0,0,0,0,0,-1,1693,785,0,0
476,239,0,0,0,0,0,0,0,0,0,-1,1700,785,0,0
483,239,0,0,0,0,0,0,0,0,0,-1,1707,785,0,0
490,239,0,0,0,0,0,0,0,0,0,-1,1714,785,0,0
497,239,0,0,0,0,0,0,0,0,0,-1,1721,785,0,0
504,239,0,0,0,0,0,0,0,0,0,-1,1728,785,0,0
511,239,0,0,0,0,0,0,0,0,0,-1,1735,785,0,0
518,239,0,0,0,0,0,0,0,0,0,-1,1742,785,0,0
525,239,0,0,0,0,0,0,0,0,0,-1,1749,785,0,0
532,239,0,0,0,0,0,0,0,0,0,-1,1756,785,0,0
539,239,0,0,0,0,0,0,0,0,0,-1,1763,785,0,0
546,239,0,0,0,0,0,0,0,0,0,-1,1770,785,0,0
553,239,0,0,0,0,0,0,0,0,0,-1,1777,785,0,0
560,239,0,0,0,0,0,0,0,0,0,-1,1784,785,0,0
567,239,0,0,0,0,0,0,0,0,0,-1,1791,785,0,0
574,239,0,0,0,0,0,0,0,0,0,-1,1798,785,0,0
581,239,71.111,2.35571,0.00302608,0.000419987,0.000702707,0.00320348,0.000242586,0.247288,0.00205956,0.0370571,1805,785,71.111,-2.35573
588,239,71.0229,2.51611,0.00490119,-0.000181723,0.000439657,0.00493894,-0.000219472,0.0856493,0.00336817,0.0402665,1812,785,71.0229,-2.51611
595,239,71.188,2.36859,0.00531525,0.000246652,0.000479386,0.00536019,0.00020171,0.0934753,0.00350815,0.0352147,1819,785,71.188,-2.3686
602,239,71.2671,2.28772,0.00469366,0.000693235,0.000490496,0.00475292,0.000633973,0.120238,0.00297986,0.0455262,1826,785,71.2671,-2.28769
609,239,71.2957,2.3244,0,0,0,0,0,0,0,-1,1833,785,71.2956,-2.32442
616,239,55.8469,3.72443,0,0,0,0,0,0,0,-1,1840,785,55.8469,-3.72445
623,239,65.0618,2.66516,0,0,0,0,0,0,0,-1,1847,785,65.0617,-2.66519
630,239,54.5767,3.64667,0,0,0,0,0,0,0,-1,1854,785,54.5766,-3.64667
637,239,39.5542,2.54114,0,0,0,0,0,0,0,-1,1861,785,39.5543,-2.54114
644,239,18.3466,0.735413,0,0,0,0,0,0,0,-1,1868,785,18.3465,-0.735414
651,239,34.2471,-2.15778,0,0,0,0,0,0,0,-1,1875,785,34.2471,2.1578
658,239,49.8588,-4.38983,0,0,0,0,0,0,0,-1,1882,785,49.8588,4.38983
665,239,50.0115,-3.33917,-0.000569559,0.000904393,0.000233713,0.000940563,-0.000605729,1.41725,0.000899702,0.04124,1889,785,50.0115,3.33917
672,239,50.0521,-2.375,-0.000503214,0.000585064,-6.61492e-05,0.00058907,-0.00050722,-1.51031,0.000633531,0.0227602,1896,785,50.0522,2.37501
679,239,49.9818,-1.47583,-0.000258809,0.000160466,-0.000254492,0.000280547,-0.00037889,-1.12993,0.000382135,0.0235188,1903,785,49.9818,1.47583
686,239,49.8942,-0.590149,-6.41946e-05,0.000146651,-0.000410511,0.000465059,-0.000382603,-0.911086,0.00049017,0.0246838,1910,785,49.8942,0.590162
693,239,49.8771,0.154114,-4.97056e-05,0.000452854,-0.000512537,0.000772395,-0.000369246,-1.01331,0.000672686,0.0164272,1917,785,49.8771,-0.154105
700,239,49.8309,1.00562,-0.000163242,0.0008682,-0.000440856,0.00103095,-0.000325991,-1.21715,0.000817913,0.0118993,1924,785,49.831,-1.00564
707,239,49.7815,1.88446,-0.000376966,0.00133058,-0.000282545,0.00137612,-0.000422503,-1.411,0.001086,0.0110072,1931,785,49.7815,-1.88447
714,239,49.7369,2.72711,-0.000826767,0.00190053,-0.000354291,0.0019458,-0.00087204,-1.4437,0.00166579,0.010405,1938,785,49.7369,-2.72712
721,239,49.6409,3.56616,-0.0014145,0.0022788,-0.000371767,0.00231585,-0.00145155,-1.47146,0.00219411,0.0216407,1945,785,49.6409,-3.56614
728,239,49.4973,4.40961,0,0,0,0,0,0,0,-1,1952,785,49.4973,-4.40958
735,239,49.4266,5.599,0,0,0,0,0,0,0,-1,1959,785,49.4266,-5.59902
742,239,32.4141,7.6665,0,0,0,0,0,0,0,-1,1966,785,32.4141,-7.6665
749,239,32.1489,3.4411,0,0,0,0,0,0,0,-1,1973,785,32.149,-3.44109
756,239,32.9064,3.6687,0,0,0,0,0,0,0,-1,1980,785,32.9063,-3.66873
763,239,0,0,0,0,0,0,0,0,0,-1,1987,785,0,0
770,239,0,0,0,0,0,0,0,0,0,-1,1994,785,0,0
777,239,0,0,0,0,0,0,0,0,0,-1,2001,785,0,0
784,239,0,0,0,0,0,0,0,0,0,-1,2008,785,0,0
791,239,0,0,0,0,0,0,0,0,0,-1,2015,785,0,0
798,239,0,0,0,0,0,0,0,0,0,-1,2022,785,0,0
805,239,0,0,0,0,0,0,0,0,0,-1,2029,785,0,0
812,239,0,0,0,0,0,0,0,0,0,-1,2036,785,0,0
-700,232,0,0,0,0,0,0,0,0,0,-1,524,792,0,0
-693,232,0,0,0,0,0,0,0,0,0,-1,531,792,0,0
-686,232,0,0,0,0,0,0,0,0,0,-1,538,792,0,0
-679,232,0,0,0,0,0,0,0,0,0,-1,545,792,0,0
-672,232,0,0,0,0,0,0,0,0,0,-1,552,792,0,0
-665,232,0,0,0,0,0,0,0,0,0,-1,559,792,0,0
-658,232,0,0,0,0,0,0,0,0,0,-1,566,792,0,0
-651,232,0,0,0,0,0,0,0,0,0,-1,573,792,0,0
-644,232,-41.2348,4.28168,0,0,0,0,0,0,0,-1,580,792,-41.2348,-4.28166
-637,232,-42.1427,3.51453,0,0,0,0,0,0,0,-1,587,792,-42.1427,-3.51452
-630,232,-32.2345,1.80212,0,0,0,0,0,0,0,-1,594,792,-32.2345,-1.80211
-623,232,-31.5665,1.05115,0,0,0,0,0,0,0,-1,601,792,-31.5664,-1.05112
-616,232,-30.6812,0.432861,0,0,0,0,0,0,0,-1,608,792,-30.6812,-0.432881
-609,232,-29.7142,-0.478943,0,0,0,0,0,0,0,-1,615,792,-29.7142,0.478965
-602,232,-35.5685,4.76221,0,0,0,0,0,0,0,-1,622,792,-35.5685,-4.76221
-595,232,-35.6545,3.36951,0.00331123,-0.000547439,-0.00761581,0.00923829,-0.0064745,-0.661342,0.00911844,0.0356077,629,792,-35.6545,-3.36949
-588,232,-35.8045,1.99182,0.00264386,0.000455187,-0.0056987,0.00735234,-0.0042533,-0.690537,0.00677968,0.0128453,636,792,-35.8045,-1.99183
-581,232,-35.8553,1.01685,0.00202936,0.00114185,-0.00396294,0.00557331,-0.0024021,-0.729642,0.00472438,0.00851099,643,792,-35.8554,-1.01686
-574,232,-35.8875,0.183777,0.00152286,0.00164896,-0.00231666,0.00390343,-0.000731603,-0.799002,0.00287732,0.00888068,650,792,-35.8875,-0.183749
-567,232,-35.9686,-0.659302,0.000990733,0.00213565,-0.000880192,0.00261317,0.000513218,-1.07372,0.00159874,0.0115042,657,792,-35.9686,0.659324
-560,232,-36.0425,-1.49207,0.000423986,0.00247159,0.000474671,0.00257628,0.000319301,1.35373,0.0016216,0.0156773,664,792,-36.0425,1.49205
-553,232,-36.1014,-2.34021,-0.000158312,0.00296514,0.00154098,0.0035974,-0.000790577,1.18144,0.00270065,0.0151623,671,792,-36.1015,2.34021
-546,232,-36.0859,-3.16962,-0.000812156,0.00335569,0.00259494,0.00459989,-0.00205636,1.1237,0.0039354,0.0305331,678,792,-36.0859,3.16961
-539,232,-36.4191,-3.96088,0,0,0,0,0,0,0,-1,685,792,-36.4191,3.9609
-532,232,-36.8022,-4.61523,0,0,0,0,0,0,0,-1,692,792,-36.8022,4.61522
-525,232,-36.5027,-5.65973,0,0,0,0,0,0,0,-1,699,792,-36.5027,5.6597
-518,232,-20.8098,-3.08154,0,0,0,0,0,0,0,-1,706,792,-20.8098,3.08155
-511,232,-21.6708,-0.962708,0,0,0,0,0,0,0,-1,713,792,-21.6708,0.962731
-504,232,-34.2155,0.346985,0,0,0,0,0,0,0,-1,720,792,-34.2155,-0.346955
-497,232,-52.7195,0.518677,0,0,0,0,0,0,0,-1,727,792,-52.7195,-0.518678
-490,232,-55.1912,0.532227,0,0,0,0,0,0,0,-1,734,792,-55.1912,-0.53224
-483,232,-55.3615,0.335571,0,0,0,0,0,0,0,-1,741,792,-55.3615,-0.335576
-476,232,-55.046,0.621338,0,0,0,0,0,0,0,-1,748,792,-55.046,-0.62136
-469,232,-54.957,0.767822,0,0,0,0,0,0,0,-1,755,792,-54.9571,-0.767826
-462,232,0,0,0,0,0,0,0,0,0,-1,762,792,0,0
-455,232,0,0,0,0,0,0,0,0,0,-1,769,792,0,0
-448,232,0,0,0,0,0,0,0,0,0,-1,776,792,0,0
-441,232,0,0,0,0,0,0,0,0,0,-1,783,792,0,0
-434,232,0,0,0,0,0,0,0,0,0,-1,790,792,0,0
-427,232,0,0,0,0,0,0,0,0,0,-1,797,792,0,0
-420,232,0,0,0,0,0,0,0,0,0,-1,804,792,0,0
-413,232,0,0,0,0,0,0,0,0,0,-1,811,792,0,0
-406,232,0,0,0,0,0,0,0,0,0,-1,818,792,0,0
-399,232,0,0,0,0,0,0,0,0,0,-1,825,792,0,0
-392,232,0,0,0,0,0,0,0,0,0,-1,832,792,0,0
-385,232,0,0,0,0,0,0,0,0,0,-1,839,792,0,0
-378,232,0,0,0,0,0,0,0,0,0,-1,846,792,0,0
-371,232,0,0,0,0,0,0,0,0,0,-1,853,792,0,0
-364,232,0,0,0,0,0,0,0,0,0,-1,860,792,0,0
-357,232,0,0,0,0,0,0,0,0,0,-1,867,792,0,0
-350,232,0,0,0,0,0,0,0,0,0,-1,874,792,0,0
-343,232,0,0,0,0,0,0,0,0,0,-1,881,792,0,0
-336,232,0,0,0,0,0,0,0,0,0,-1,888,792,0,0
-329,232,0,0,0,0,0,0,0,0,0,-1,895,792,0,0
-322,232,0,0,0,0,0,0,0,0,0,-1,902,792,0,0
-315,232,0,0,0,0,0,0,0,0,0,-1,909,792,0,0
-308,232,0,0,0,0,0,0,0,0,0,-1,916,792,0,0
-301,232,0,0,0,0,0,0,0,0,0,-1,923,792,0,0
-294,232,0,0,0,0,0,0,0,0,0,-1,930,792,0,0
-287,232,0,0,0,0,0,0,0,0,0,-1,937,792,0,0
-280,232,0,0,0,0,0,0,0,0,0,-1,944,792,0,0
-273,232,0,0,0,0,0,0,0,0,0,-1,951,792,0,0
-266,232,0,0,0,0,0,0,0,0,0,-1,958,792,0,0
-259,232,0,0,0,0,0,0,0,0,0,-1,965,792,0,0
-252,232,0,0,0,0,0,0,0,0,0,-1,972,792,0,0
-245,232,0,0,0,0,0,0,0,0,0,-1,979,792,0,0
-238,232,0,0,0,0,0,0,0,0,0,-1,986,792,0,0
-231,232,0,0,0,0,0,0,0,0,0,-1,993,792,0,0
-224,232,0,0,0,0,0,0,0,0,0,-1,1000,792,0,0
-217,232,0,0,0,0,0,0,0,0,0,-1,1007,792,0,0
-210,232,0,0,0,0,0,0,0,0,0,-1,1014,792,0,0
-203,232,0,0,0,0,0,0,0,0,0,-1,1021,792,0,0
-196,232,0,0,0,0,0,0,0,0,0,-1,1028,792,0,0
-189,232,0,0,0,0,0,0,0,0,0,-1,1035,792,0,0
-182,232,0,0,0,0,0,0,0,0,0,-1,1042,792,0,0
-175,232,0,0,0,0,0,0,0,0,0,-1,1049,792,0,0
-168,232,0,0,0,0,0,0,0,0,0,-1,1056,792,0,0
-161,232,0,0,0,0,0,0,0,0,0,-1,1063,792,0,0
-154,232,0,0,0,0,0,0,0,0,0,-1,1070,792,0,0
-147,232,0,0,0,0,0,0,0,0,0,-1,1077,792,0,0
-140,232,0,0,0,0,0,0,0,0,0,-1,1084,792,0,0
-133,232,0,0,0,0,0,0,0,0,0,-1,1091,792,0,0
-126,232,0,0,0,0,0,0,0,0,0,-1,1098,792,0,0
-119,232,0,0,0,0,0,0,0,0,0,-1,1105,792,0,0
-112,232,0,0,0,0,0,0,0,0,0,-1,1112,792,0,0
-105,232,0,0,0,0,0,0,0,0,0,-1,1119,792,0,0
-98,232,0,0,0,0,0,0,0,0,0,-1,1126,792,0,0
-91,232,0,0,0,0,0,0,0,0,0,-1,1133,792,0,0
-84,232,0,0,0,0,0,0,0,0,0,-1,1140,792,0,0
-77,232,0,0,0,0,0,0,0,0,0,-1,1147,792,0,0
-70,232,0,0,0,0,0,0,0,0,0,-1,1154,792,0,0
-63,232,0,0,0,0,0,0,0,0,0,-1,1161,792,0,0
-56,232,0,0,0,0,0,0,0,0,0,-1,1168,792,0,0
-49,232,0,0,0,0,0,0,0,0,0,-1,1175,792,0,0
-42,232,0,0,0,0,0,0,0,0,0,-1,1182,792,0,0
-35,232,0,0,0,0,0,0,0,0,0,-1,1189,792,0,0
-28,232,0,0,0,0,0,0,0,0,0,-1,1196,792,0,0
-21,232,0,0,0,0,0,0,0,0,0,-1,1203,792,0,0
-14,232,0,0,0,0,0,0,0,0,0,-1,1210,792,0,0
-7,232,0,0,0,0,0,0,0,0,0,-1,1217,792,0,0
0,232,0,0,0,0,0,0,0,0,0,-1,1224,792,0,0
7,232,0,0,0,0,0,0,0,0,0,-1,1231,792,0,0
14,232,0,0,0,0,0,0,0,0,0,-1,1238,792,0,0
21,232,0,0,0,0,0,0,0,0,0,-1,1245,792,0,0
28,232,0,0,0,0,0,0,0,0,0,-1,1252,792,0,0
35,232,0,0,0,0,0,0,0,0,0,-1,1259,792,0,0
42,232,0,0,0,0,0,0,0,0,0,-1,1266,792,0,0
49,232,0,0,0,0,0,0,0,0,0,-1,1273,792,0,0
56,232,0,0,0,0,0,0,0,0,0,-1,1280,792,0,0
63,232,0,0,0,0,0,0,0,0,0,-1,1287,792,0,0
70,232,0,0,0,0,0,0,0,0,0,-1,1294,792,0,0
77,232,0,0,0,0,0,0,0,0,0,-1,1301,792,0,0
84,232,0,0,0,0,0,0,0,0,0,-1,1308,792,0,0
91,232,0,0,0,0,0,0,0,0,0,-1,1315,792,0,0
98,232,0,0,0,0,0,0,0,0,0,-1,1322,792,0,0
105,232,0,0,0,0,0,0,0,0,0,-1,1329,792,0,0
112,232,0,0,0,0,0,0,0,0,0,-1,1336,792,0,0
119,232,0,0,0,0,0,0,0,0,0,-1,1343,792,0,0
126,232,0,0,0,0,0,0,0,0,0,-1,1350,792,0,0
133,232,0,0,0,0,0,0,0,0,0,-1,1357,792,0,0
140,232,0,0,0,0,0,0,0,0,0,-1,1364,792,0,0
147,232,0,0,0,0,0,0,0,0,0,-1,1371,792,0,0
154,232,0,0,0,0,0,0,0,0,0,-1,1378,792,0,0
161,232,0,0,0,0,0,0,0,0,0,-1,1385,792,0,0
168,232,0,0,0,0,0,0,0,0,0,-1,1392,792,0,0
175,232,0,0,0,0,0,0,0,0,0,-1,1399,792,0,0
182,232,0,0,0,0,0,0,0,0,0,-1,1406,792,0,0
189,232,0,0,0,0,0,0,0,0,0,-1,1413,792,0,0
196,232,0,0,0,0,0,0,0,0,0,-1,1420,792,0,0
203,232,0,0,0,0,0,0,0,0,0,-1,1427,792,0,0
210,232,0,0,0,0,0,0,0,0,0,-1,1434,792,0,0
217,232,0,0,0,0,0,0,0,0,0,-1,1441,792,0,0
224,232,0,0,0,0,0,0,0,0,0,-1,1448,792,0,0
231,232,0,0,0,0,0,0,0,0,0,-1,1455,792,0,0
238,232,0,0,0,0,0,0,0,0,0,-1,1462,792,0,0
245,232,0,0,0,0,0,0,0,0,0,-1,1469,792,0,0
252,232,0,0,0,0,0,0,0,0,0,-1,1476,792,0,0
259,232,0,0,0,0,0,0,0,0,0,-1,1483,792,0,0
266,232,0,0,0,0,0,0,0,0,0,-1,1490,792,0,0
273,232,0,0,0,0,0,0,0,0,0,-1,1497,792,0,0
280,232,0,0,0,0,0,0,0,0,0,-1,1504,792,0,0
287,232,0,0,0,0,0,0,0,0,0,-1,1511,792,0,0
294,232,0,0,0,0,0,0,0,0,0,-1,1518,792,0,0
301,232,0,0,0,0,0,0,0,0,0,-1,1525,792,0,0
308,232,0,0,0,0,0,0,0,0,0,-1,1532,792,0,0
315,232,0,0,0,0,0,0,0,0,0,-1,1539,792,0,0
322,232,0,0,0,0,0,0,0,0,0,-1,1546,792,0,0
329,232,0,0,0,0,0,0,0,0,0,-1,1553,792,0,0
336,232,0,0,0,0,0,0,0,0,0,-1,1560,792,0,0
343,232,0,0,0,0,0,0,0,0,0,-1,1567,792,0,0
350,232,0,0,0,0,0,0,0,0,0,-1,1574,792,0,0
357,232,0,0,0,0,0,0,0,0,0,-1,1581,792,0,0
364,232,0,0,0,0,0,0,0,0,0,-1,1588,792,0,0
371,232,0,0,0,0,0,0,0,0,0,-1,1595,792,0,0
378,232,0,0,0,0,0,0,0,0,0,-1,1602,792,0,0
385,232,0,0,0,0,0,0,0,0,0,-1,1609,792,0,0
392,232,0,0,0,0,0,0,0,0,0,-1,1616,792,0,0
399,232,0,0,0,0,0,0,0,0,0,-1,1623,792,0,0
406,232,0,0,0,0,0,0,0,0,0,-1,1630,792,0,0
413,232,0,0,0,0,0,0,0,0,0,-1,1637,792,0,0
420,232,0,0,0,0,0,0,0,0,0,-1,1644,792,0,0
427,232,0,0,0,0,0,0,0,0,0,-1,1651,792,0,0
434,232,0,0,0,0,0,0,0,0,0,-1,1658,792,0,0
441,232,0,0,0,0,0,0,0,0,0,-1,1665,792,0,0
448,232,0,0,0,0,0,0,0,0,0,-1,1672,792,0,0
455,232,0,0,0,0,0,0,0,0,0,-1,1679,792,0,0
462,232,0,0,0,0,0,0,0,0,0,-1,1686,792,0,0
469,232,0,0,0,0,0,0,0,0,0,-1,1693,792,0,0
476,232,0,0,0,0,0,0,0,0,0,-1,1700,792,0,0
483,232,0,0,0,0,0,0,0,0,0,-1,1707,792,0,0
490,232,0,0,0,0,0,0,0,0,0,-1,1714,792,0,0
497,232,0,0,0,0,0,0,0,0,0,-1,1721,792,0,0
504,232,0,0,0,0,0,0,0,0,0,-1,1728,792,0,0
511,232,0,0,0,0,0,0,0,0,0,-1,1735,792,0,0
518,232,0,0,0,0,0,0,0,0,0,-1,1742,792,0,0
525,232,0,0,0,0,0,0,0,0,0,-1,1749,792,0,0
532,232,0,0,0,0,0,0,0,0,0,-1,1756,792,0,0
539,232,0,0,0,0,0,0,0,0,0,-1,1763,792,0,0
546,232,0,0,0,0,0,0,0,0,0,-1,1770,792,0,0
553,232,0,0,0,0,0,0,0,0,0,-1,1777,792,0,0
560,232,0,0,0,0,0,0,0,0,0,-1,1784,792,0,0
567,232,0,0,0,0,0,0,0,0,0,-1,1791,792,0,0
574,232,0,0,0,0,0,0,0,0,0,-1,1798,792,0,0
581,232,0,0,0,0,0,0,0,0,0,-1,1805,792,0,0
588,232,71.1387,2.28619,0.00252822,0.000489815,-0.000167542,0.00254189,0.000476136,-0.0814642,0.00156029,0.038373,1812,792,71.1387,-2.28617
595,232,71.1583,2.30707,0.00351035,0.000708871,-3.32581e-05,0.00351074,0.000708477,-0.0118694,0.00214372,0.0363133,1819,792,71.1584,-2.30705
602,232,71.1893,2.30725,0.00326434,0.00112015,0.000213961,0.00328548,0.001099,0.0984921,0.0019312,0.0366911,1826,792,71.1893,-2.30724
609,232,71.2377,2.20734,0.00228432,0.00146634,0.000386299,0.00243791,0.00131275,0.378439,0.00140892,0.0479078,1833,792,71.2377,-2.20735
616,232,71.2875,2.24579,0,0,0,0,0,0,0,-1,1840,792,71.2875,-2.24581
623,232,71.0601,2.45087,0,0,0,0,0,0,0,-1,1847,792,71.0601,-2.45088
630,232,64.9034,2.97992,0,0,0,0,0,0,0,-1,1854,792,64.9035,-2.9799
637,232,47.0471,4.04309,0,0,0,0,0,0,0,-1,1861,792,47.0471,-4.04309
644,232,30.7756,4.24139,0,0,0,0,0,0,0,-1,1868,792,30.7757,-4.24141
651,232,31.6797,-0.564087,0,0,0,0,0,0,0,-1,1875,792,31.6797,0.564059
658,232,46.7423,-3.10736,0,0,0,0,0,0,0,-1,1882,792,46.7423,3.10735
665,232,50.6951,-3.26361,0,0,0,0,0,0,0,-1,1889,792,50.6951,3.26361
672,232,50.8342,-2.26392,0,0,0,0,0,0,0,-1,1896,792,50.8342,2.26392
679,232,50.7982,-1.41211,-0.000897039,0.000207864,-0.000275917,0.000272934,-0.000962109,-1.3392,0.000749144,0.022041,1903,792,50.7982,1.4121
686,232,50.7543,-0.556824,-0.000567217,-3.18003e-05,-0.000555027,0.000316708,-0.000915726,-1.01011,0.000739031,0.020424,1910,792,50.7542,0.55682
693,232,50.726,0.218628,-0.000383956,9.53688e-05,-0.000786085,0.000677514,-0.000966102,-0.933363,0.000953806,0.0121031,1917,792,50.7259,-0.218639
700,232,50.6985,1.05963,-0.000387511,0.000395845,-0.000778419,0.000875572,-0.000867239,-1.01849,0.00100622,0.0138294,1924,792,50.6985,-1.05962
707,232,50.6481,1.92236,-0.000558922,0.000771161,-0.000584281,0.000991368,-0.000779129,-1.21037,0.00102464,0.0129121,1931,792,50.6481,-1.92237
714,232,50.6138,2.73566,-0.000950675,0.00132053,-0.000641131,0.00148901,-0.00111916,-1.31381,0.00151087,0.0136232,1938,792,50.6137,-2.73563
721,232,50.5334,3.59332,-0.00156432,0.0016528,-0.000656361,0.00178156,-0.00169308,-1.37709,0.0020063,0.0216641,1945,792,50.5334,-3.59333
728,232,50.3857,4.32544,-0.0024613,0.00184368,-0.000843497,0.00200305,-0.00262067,-1.38406,0.00267744,0.0494644,1952,792,50.3858,-4.32541
735,232,50.4587,5.30719,0,0,0,0,0,0,0,-1,1959,792,50.4587,-5.3072
742,232,25.6461,6.00684,0,0,0,0,0,0,0,-1,1966,792,25.6461,-6.00684
749,232,31.2874,3.74713,0,0,0,0,0,0,0,-1,1973,792,31.2874,-3.74713
756,232,34.9586,15.3984,0,0,0,0,0,0,0,-1,1980,792,34.9586,-15.3984
763,232,33.09,17.3107,0,0,0,0,0,0,0,-1,1987,792,33.0899,-17.3106
770,232,0,0,0,0,0,0,0,0,0,-1,1994,792,0,0
777,232,0,0,0,0,0,0,0,0,0,-1,2001,792,0,0
784,232,0,0,0,0,0,0,0,0,0,-1,2008,792,0,0
791,232,0,0,0,0,0,0,0,0,0,-1,2015,792,0,0
798,232,0,0,0,0,0,0,0,0,0,-1,2022,792,0,0
805,232,0,0,0,0,0,0,0,0,0,-1,2029,792,0,0
812,232,0,0,0,0,0,0,0,0,0,-1,2036,792,0,0
-700,225,0,0,0,0,0,0,0,0,0,-1,524,799,0,0
-693,225,0,0,0,0,0,0,0,0,0,-1,531,799,0,0
-686,225,0,0,0,0,0,0,0,0,0,-1,538,799,0,0
-679,225,0,0,0,0,0,0,0,0,0,-1,545,799,0,0
-672,225,0,0,0,0,0,0,0,0,0,-1,552,799,0,0
-665,225,0,0,0,0,0,0,0,0,0,-1,559,799,0,0
-658,225,0,0,0,0,0,0,0,0,0,-1,566,799,0,0
-651,225,0,0,0,0,0,0,0,0,0,-1,573,799,0,0
-644,225,-40.8898,4.14661,0,0,0,0,0,0,0,-1,580,799,-40.8898,-4.14661
-637,225,-41.61,3.36749,0,0,0,0,0,0,0,-1,587,799,-41.61,-3.36751
-630,225,-30.244,4.82196,0,0,0,0,0,0,0,-1,594,799,-30.244,-4.82193
-623,225,-32.8276,-0.00836182,0,0,0,0,0,0,0,-1,601,799,-32.8276,0.00837668
-616,225,-32.0569,-0.549255,0,0,0,0,0,0,0,-1,608,799,-32.0569,0.549265
-609,225,-36.189,5.68158,0,0,0,0,0,0,0,-1,615,799,-36.189,-5.68158
-602,225,-36.5333,3.44037,0,0,0,0,0,0,0,-1,622,799,-36.5333,-3.44039
-595,225,-36.6335,2.97754,0.00353228,0.000883488,-0.00679435,0.00913011,-0.00471435,-0.689142,0.0081275,0.031337,629,799,-36.6335,-2.97752
-588,225,-36.6628,1.90338,0.00279263,0.00138559,-0.0049492,0.00708806,-0.00290984,-0.714797,0.00593793,0.0124551,636,799,-36.6628,-1.90338
-581,225,-36.6998,1.05627,0.00216951,0.00179898,-0.00325174,0.00524125,-0.00127277,-0.756942,0.00398673,0.0106816,643,799,-36.6998,-1.05625
-574,225,-36.7419,0.228882,0.00163898,0.00221337,-0.00166753,0.00361826,0.00023409,-0.870675,0.00233805,0.00958166,650,799,-36.742,-0.228912
-567,225,-36.8174,-0.631348,0.00107889,0.00270159,-0.000253436,0.00274025,0.00104023,-1.41942,0.0015973,0.012894,657,799,-36.8174,0.63136
-560,225,-36.8808,-1.45526,0.000485534,0.0031288,0.00112255,0.00354119,7.31436e-05,1.21873,0.00233679,0.0141574,664,799,-36.8808,1.45526
-553,225,-36.9136,-2.29761,-0.000142384,0.00373499,0.00230086,0.00480503,-0.00121242,1.13549,0.00367478,0.0127608,671,799,-36.9136,2.29761
-546,225,-36.8517,-3.03564,-0.000938132,0.00429245,0.00349994,0.0060463,-0.00269197,1.10626,0.00516746,0.0343097,678,799,-36.8517,3.03564
-539,225,-36.7473,-3.60431,0,0,0,0,0,0,0,-1,685,799,-36.7473,3.60432
-532,225,-38.1715,-4.4198,0,0,0,0,0,0,0,-1,692,799,-38.1715,4.41981
-525,225,-29.1705,-3.88239,0,0,0,0,0,0,0,-1,699,799,-29.1705,3.88237
-518,225,-21.963,0.171326,0,0,0,0,0,0,0,-1,706,799,-21.9629,-0.171319
-511,225,-33.0002,0.660217,0,0,0,0,0,0,0,-1,713,799,-33.0002,-0.660239
-504,225,-50.4542,0.524109,0,0,0,0,0,0,0,-1,720,799,-50.4542,-0.524105
-497,225,-55.3993,0.579224,0,0,0,0,0,0,0,-1,727,799,-55.3993,-0.579234
-490,225,-55.1926,0.530945,0,0,0,0,0,0,0,-1,734,799,-55.1926,-0.530941
-483,225,-55.1264,0.558655,0,0,0,0,0,0,0,-1,741,799,-55.1264,-0.558654
-476,225,-54.9659,0.707458,0,0,0,0,0,0,0,-1,748,799,-54.966,-0.707474
-469,225,-54.8503,0.936829,0,0,0,0,0,0,0,-1,755,799,-54.8503,-0.936811
-462,225,0,0,0,0,0,0,0,0,0,-1,762,799,0,0
-455,225,0,0,0,0,0,0,0,0,0,-1,769,799,0,0
-448,225,0,0,0,0,0,0,0,0,0,-1,776,799,0,0
-441,225,0,0,0,0,0,0,0,0,0,-1,783,799,0,0
-434,225,0,0,0,0,0,0,0,0,0,-1,790,799,0,0
-427,225,0,0,0,0,0,0,0,0,0,-1,797,799,0,0
-420,225,0,0,0,0,0,0,0,0,0,-1,804,799,0,0
-413,225,0,0,0,0,0,0,0,0,0,-1,811,799,0,0
-406,225,0,0,0,0,0,0,0,0,0,-1,818,799,0,0
-399,225,0,0,0,0,0,0,0,0,0,-1,825,799,0,0
-392,225,0,0,0,0,0,0,0,0,0,-1,832,799,0,0
-385,225,0,0,0,0,0,0,0,0,0,-1,839,799,0,0
-378,225,0,0,0,0,0,0,0,0,0,-1,846,799,0,0
-371,225,0,0,0,0,0,0,0,0,0,-1,853,799,0,0
-364,225,0,0,0,0,0,0,0,0,0,-1,860,799,0,0
-357,225,0,0,0,0,0,0,0,0,0,-1,867,799,0,0
-350,225,0,0,0,0,0,0,0,0,0,-1,874,799,0,0
-343,225,0,0,0,0,0,0,0,0,0,-1,881,799,0,0
-336,225,0,0,0,0,0,0,0,0,0,-1,888,799,0,0
-329,225,0,0,0,0,0,0,0,0,0,-1,895,799,0,0
-322,225,0,0,0,0,0,0,0,0,0,-1,902,799,0,0
-315,225,0,0,0,0,0,0,0,0,0,-1,909,799,0,0
-308,225,0,0,0,0,0,0,0,0,0,-1,916,799,0,0
-301,225,0,0,0,0,0,0,0,0,0,-1,923,799,0,0
-294,225,0,0,0,0,0,0,0,0,0,-1,930,799,0,0
-287,225,0,0,0,0,0,0,0,0,0,-1,937,799,0,0
-280,225,0,0,0,0,0,0,0,0,0,-1,944,799,0,0
-273,225,0,0,0,0,0,0,0,0,0,-1,951,799,0,0
-266,225,0,0,0,0,0,0,0,0,0,-1,958,799,0,0
-259,225,0,0,0,0,0,0,0,0,0,-1,965,799,0,0
-252,225,0,0,0,0,0,0,0,0,0,-1,972,799,0,0
-245,225,0,0,0,0,0,0,0,0,0,-1,979,799,0,0
-238,225,0,0,0,0,0,0,0,0,0,-1,986,799,0,0
-231,225,0,0,0,0,0,0,0,0,0,-1,993,799,0,0
-224,225,0,0,0,0,0,0,0,0,0,-1,1000,799,0,0
-217,225,0,0,0,0,0,0,0,0,0,-1,1007,799,0,0
-210,225,0,0,0,0,0,0,0,0,0,-1,1014,799,0,0
-203,225,0,0,0,0,0,0,0,0,0,-1,1021,799,0,0
-196,225,0,0,0,0,0,0,0,0,0,-1,1028,799,0,0
-189,225,0,0,0,0,0,0,0,0,0,-1,1035,799,0,0
-182,225,0,0,0,0,0,0,0,0,0,-1,1042,799,0,0
-175,225,0,0,0,0,0,0,0,0,0,-1,1049,799,0,0
-168,225,0,0,0,0,0,0,0,0,0,-1,1056,799,0,0
-161,225,0,0,0,0,0,0,0,0,0,-1,1063,799,0,0
-154,225,0,0,0,0,0,0,0,0,0,-1,1070,799,0,0
-147,225,0,0,0,0,0,0,0,0,0,-1,1077,799,0,0
-140,225,0,0,0,0,0,0,0,0,0,-1,1084,799,0,0
-133,225,0,0,0,0,0,0,0,0,0,-1,1091,799,0,0
-126,225,0,0,0,0,0,0,0,0,0,-1,1098,799,0,0
-119,225,0,0,0,0,0,0,0,0,0,-1,1105,799,0,0
-112,225,0,0,0,0,0,0,0,0,0,-1,1112,799,0,0
-105,225,0,0,0,0,0,0,0,0,0,-1,1119,799,0,0
-98,225,0,0,0,0,0,0,0,0,0,-1,1126,799,0,0
-91,225,0,0,0,0,0,0,0,0,0,-1,1133,799,0,0
-84,225,0,0,0,0,0,0,0,0,0,-1,1140,799,0,0
-77,225,0,0,0,0,0,0,0,0,0,-1,1147,799,0,0
-70,225,0,0,0,0,0,0,0,0,0,-1,1154,799,0,0
-63,225,0,0,0,0,0,0,0,0,0,-1,1161,799,0,0
-56,225,0,0,0,0,0,0,0,0,0,-1,1168,799,0,0
-49,225,0,0,0,0,0,0,0,0,0,-1,1175,799,0,0
-42,225,0,0,0,0,0,0,0,0,0,-1,1182,799,0,0
-35,225,0,0,0,0,0,0,0,0,0,-1,1189,799,0,0
-28,225,0,0,0,0,0,0,0,0,0,-1,1196,799,0,0
-21,225,0,0,0,0,0,0,0,0,0,-1,1203,799,0,0
-14,225,0,0,0,0,0,0,0,0,0,-1,1210,799,0,0
-7,225,0,0,0,0,0,0,0,0,0,-1,1217,799,0,0
0,225,0,0,0,0,0,0,0,0,0,-1,1224,799,0,0
7,225,0,0,0,0,0,0,0,0,0,-1,1231,799,0,0
14,225,0,0,0,0,0,0,0,0,0,-1,1238,799,0,0
21,225,0,0,0,0,0,0,0,0,0,-1,1245,799,0,0
28,225,0,0,0,0,0,0,0,0,0,-1,1252,799,0,0
35,225,0,0,0,0,0,0,0,0,0,-1,1259,799,0,0
42,225,0,0,0,0,0,0,0,0,0,-1,1266,799,0,0
49,225,0,0,0,0,0,0,0,0,0,-1,1273,799,0,0
56,225,0,0,0,0,0,0,0,0,0,-1,1280,799,0,0
63,225,0,0,0,0,0,0,0,0,0,-1,1287,799,0,0
70,225,0,0,0,0,0,0,0,0,0,-1,1294,799,0,0
77,225,0,0,0,0,0,0,0,0,0,-1,1301,799,0,0
84,225,0,0,0,0,0,0,0,0,0,-1,1308,799,0,0
91,225,0,0,0,0,0,0,0,0,0,-1,1315,799,0,0
98,225,0,0,0,0,0,0,0,0,0,-1,1322,799,0,0
105,225,0,0,0,0,0,0,0,0,0,-1,1329,799,0,0
112,225,0,0,0,0,0,0,0,0,0,-1,1336,799,0,0
119,225,0,0,0,0,0,0,0,0,0,-1,1343,799,0,0
126,225,0,0,0,0,0,0,0,0,0,-1,1350,799,0,0
133,225,0,0,0,0,0,0,0,0,0,-1,1357,799,0,0
140,225,0,0,0,0,0,0,0,0,0,-1,1364,799,0,0
147,225,0,0,0,0,0,0,0,0,0,-1,1371,799,0,0
154,225,0,0,0,0,0,0,0,0,0,-1,1378,799,0,0
161,225,0,0,0,0,0,0,0,0,0,-1,1385,799,0,0
168,225,0,0,0,0,0,0,0,0,0,-1,1392,799,0,0
175,225,0,0,0,0,0,0,0,0,0,-1,1399,799,0,0
182,225,0,0,0,0,0,0,0,0,0,-1,1406,799,0,0
189,225,0,0,0,0,0,0,0,0,0,-1,1413,799,0,0
196,225,0,0,0,0,0,0,0,0,0,-1,1420,799,0,0
203,225,0,0,0,0,0,0,0,0,0,-1,1427,799,0,0
210,225,0,0,0,0,0,0,0,0,0,-1,1434,799,0,0
217,225,0,0,0,0,0,0,0,0,0,-1,1441,799,0,0
224,225,0,0,0,0,0,0,0,0,0,-1,1448,799,0,0
231,225,0,0,0,0,0,0,0,0,0,-1,1455,799,0,0
238,225,0,0,0,0,0,0,0,0,0,-1,1462,799,0,0
245,225,0,0,0,0,0,0,0,0,0,-1,1469,799,0,0
252,225,0,0,0,0,0,0,0,0,0,-1,1476,799,0,0
259,225,0,0,0,0,0,0,0,0,0,-1,1483,799,0,0
266,225,0,0,0,0,0,0,0,0,0,-1,1490,799,0,0
273,225,0,0,0,0,0,0,0,0,0,-1,1497,799,0,0
280,225,0,0,0,0,0,0,0,0,0,-1,1504,799,0,0
287,225,0,0,0,0,0,0,0,0,0,-1,1511,799,0,0
294,225,0,0,0,0,0,0,0,0,0,-1,1518,799,0,0
301,225,0,0,0,0,0,0,0,0,0,-1,1525,799,0,0
308,225,0,0,0,0,0,0,0,0,0,-1,1532,799,0,0
315,225,0,0,0,0,0,0,0,0,0,-1,1539,799,0,0
322,225,0,0,0,0,0,0,0,0,0,-1,1546,799,0,0
329,225,0,0,0,0,0,0,0,0,0,-1,1553,799,0,0
336,225,0,0,0,0,0,0,0,0,0,-1,1560,799,0,0
343,225,0,0,0,0,0,0,0,0,0,-1,1567,799,0,0
350,225,0,0,0,0,0,0,0,0,0,-1,1574,799,0,0
357,225,0,0,0,0,0,0,0,0,0,-1,1581,799,0,0
364,225,0,0,0,0,0,0,0,0,0,-1,1588,799,0,0
371,225,0,0,0,0,0,0,0,0,0,-1,1595,799,0,0
378,225,0,0,0,0,0,0,0,0,0,-1,1602,799,0,0
385,225,0,0,0,0,0,0,0,0,0,-1,1609,799,0,0
392,225,0,0,0,0,0,0,0,0,0,-1,1616,799,0,0
399,225,0,0,0,0,0,0,0,0,0,-1,1623,799,0,0
406,225,0,0,0,0,0,0,0,0,0,-1,1630,799,0,0
413,225,0,0,0,0,0,0,0,0,0,-1,1637,799,0,0
420,225,0,0,0,0,0,0,0,0,0,-1,1644,799,0,0
427,225,0,0,0,0,0,0,0,0,0,-1,1651,799,0,0
434,225,0,0,0,0,0,0,0,0,0,-1,1658,799,0,0
441,225,0,0,0,0,0,0,0,0,0,-1,1665,799,0,0
448,225,0,0,0,0,0,0,0,0,0,-1,1672,799,0,0
455,225,0,0,0,0,0,0,0,0,0,-1,1679,799,0,0
462,225,0,0,0,0,0,0,0,0,0,-1,1686,799,0,0
469,225,0,0,0,0,0,0,0,0,0,-1,1693,799,0,0
476,225,0,0,0,0,0,0,0,0,0,-1,1700,799,0,0
483,225,0,0,0,0,0,0,0,0,0,-1,1707,799,0,0
490,225,0,0,0,0,0,0,0,0,0,-1,1714,799,0,0
497,225,0,0,0,0,0,0,0,0,0,-1,1721,799,0,0
504,225,0,0,0,0,0,0,0,0,0,-1,1728,799,0,0
511,225,0,0,0,0,0,0,0,0,0,-1,1735,799,0,0
518,225,0,0,0,0,0,0,0,0,0,-1,1742,799,0,0
525,225,0,0,0,0,0,0,0,0,0,-1,1749,799,0,0
532,225,0,0,0,0,0,0,0,0,0,-1,1756,799,0,0
539,225,0,0,0,0,0,0,0,0,0,-1,1763,799,0,0
546,225,0,0,0,0,0,0,0,0,0,-1,1770,799,0,0
553,225,0,0,0,0,0,0,0,0,0,-1,1777,799,0,0
560,225,0,0,0,0,0,0,0,0,0,-1,1784,799,0,0
567,225,0,0,0,0,0,0,0,0,0,-1,1791,799,0,0
574,225,0,0,0,0,0,0,0,0,0,-1,1798,799,0,0
581,225,0,0,0,0,0,0,0,0,0,-1,1805,799,0,0
588,225,71.236,2.19348,0.000566002,0.000713782,-0.000807066,0.00145033,-0.00017055,-0.831048,0.00102846,0.0355224,1812,799,71.2359,-2.19346
595,225,71.136,2.24933,0.00169439,0.000927812,-0.000587897,0.0020129,0.000609293,-0.496522,0.00119193,0.0340972,1819,799,71.136,-2.2493
602,225,71.161,2.28198,0.00173539,0.00135719,-6.99344e-05,0.0017479,0.00134467,-0.177116,0.00105682,0.0332229,1826,799,71.161,-2.282
609,225,71.233,2.26001,0.000993759,0.00172806,0.000277067,0.00182087,0.000900947,1.24756,0.0010513,0.0328675,1833,799,71.233,-2.26
616,225,71.2314,2.23218,0.000436248,0.00197768,0.000578913,0.00217089,0.000243043,1.24868,0.00137343,0.040514,1840,799,71.2315,-2.23217
623,225,71.1475,2.34674,6.55537e-05,0.0020142,0.000853706,0.0023353,-0.000255546,1.21104,0.00164866,0.0484777,1847,799,71.1475,-2.34672
630,225,71.116,2.33325,0,0,0,0,0,0,0,-1,1854,799,71.116,-2.33324
637,225,55.6359,2.8064,0,0,0,0,0,0,0,-1,1861,799,55.6359,-2.80637
644,225,42.0298,2.46411,0,0,0,0,0,0,0,-1,1868,799,42.0298,-2.4641
651,225,27.9657,0.579529,0,0,0,0,0,0,0,-1,1875,799,27.9657,-0.579541
658,225,47.9047,-1.92926,0,0,0,0,0,0,0,-1,1882,799,47.9047,1.92927
665,225,47.541,-2.27985,0,0,0,0,0,0,0,-1,1889,799,47.5411,2.27983
672,225,51.7136,-2.48993,0,0,0,0,0,0,0,-1,1896,799,51.7137,2.48994
679,225,51.6117,-1.37646,-0.00157936,5.99754e-05,-0.000349444,0.000131356,-0.00165074,-1.3693,0.00114679,0.0432621,1903,799,51.6116,1.37648
686,225,51.598,-0.562561,-0.00123186,-0.000272554,-0.0007284,0.000119936,-0.00162435,-1.07656,0.00112501,0.0128329,1910,799,51.598,0.562553
693,225,51.573,0.277649,-0.000870888,-0.000232151,-0.00105839,0.000554005,-0.00165704,-0.931929,0.00132845,0.0110249,1917,799,51.573,-0.277669
700,225,51.5413,1.12097,-0.000664343,3.3031e-05,-0.00109057,0.000829301,-0.00146061,-0.940127,0.00133872,0.0123384,1924,799,51.5413,-1.12097
707,225,51.4745,1.97137,-0.000679029,0.000376129,-0.000843862,0.00084376,-0.00114666,-1.06477,0.0011536,0.0119009,1931,799,51.4745,-1.97136
714,225,51.446,2.81836,-0.000866289,0.000971733,-0.000853142,0.00130669,-0.00120125,-1.19667,0.00144838,0.0133617,1938,799,51.446,-2.81834
721,225,51.418,3.67834,-0.00129827,0.00135239,-0.000829216,0.00159043,-0.0015363,-1.29126,0.0018053,0.0177232,1945,799,51.418,-3.67833
728,225,51.2885,4.31989,-0.00200971,0.00163764,-0.000979875,0.00188422,-0.00225629,-1.32427,0.00239374,0.0370886,1952,799,51.2884,-4.31989
735,225,51.4402,5.18811,0,0,0,0,0,0,0,-1,1959,799,51.4402,-5.18811
742,225,29.0922,3.2132,0,0,0,0,0,0,0,-1,1966,799,29.0921,-3.21322
749,225,29.9529,4.45538,0,0,0,0,0,0,0,-1,1973,799,29.9529,-4.45537
756,225,39.1752,11.743,0,0,0,0,0,0,0,-1,1980,799,39.1751,-11.743
763,225,37.9585,12.9702,0,0,0,0,0,0,0,-1,1987,799,37.9585,-12.9701
770,225,0,0,0,0,0,0,0,0,0,-1,1994,799,0,0
777,225,0,0,0,0,0,0,0,0,0,-1,2001,799,0,0
784,225,0,0,0,0,0,0,0,0,0,-1,2008,799,0,0
791,225,0,0,0,0,0,0,0,0,0,-1,2015,799,0,0
798,225,0,0,0,0,0,0,0,0,0,-1,2022,799,0,0
805,225,0,0,0,0,0,0,0,0,0,-1,2029,799,0,0
812,225,0,0,0,0,0,0,0,0,0,-1,2036,799,0,0
-700,218,0,0,0,0,0,0,0,0,0,-1,524,806,0,0
-693,218,0,0,0,0,0,0,0,0,0,-1,531,806,0,0
-686,218,0,0,0,0,0,0,0,0,0,-1,538,806,0,0
-679,218,0,0,0,0,0,0,0,0,0,-1,545,806,0,0
-672,218,0,0,0,0,0,0,0,0,0,-1,552,806,0,0
-665,218,0,0,0,0,0,0,0,0,0,-1,559,806,0,0
-658,218,0,0,0,0,0,0,0,0,0,-1,566,806,0,0
-651,218,-40.3778,5.1792,0,0,0,0,0,0,0,-1,573,806,-40.3778,-5.1792
-644,218,-40.7704,4.19714,0,0,0,0,0,0,0,-1,580,806,-40.7704,-4.19714
-637,218,-41.541,3.36328,0,0,0,0,0,0,0,-1,587,806,-41.541,-3.36326
-630,218,-42.1423,2.85565,0,0,0,0,0,0,0,-1,594,806,-42.1423,-2.85567
-623,218,-42.7292,2.59015,0,0,0,0,0,0,0,-1,601,806,-42.7292,-2.59015
-616,218,-20.0258,1.87585,0,0,0,0,0,0,0,-1,608,806,-20.0258,-1.87585
-609,218,-37.1421,4.35663,0,0,0,0,0,0,0,-1,615,806,-37.1421,-4.35665
-602,218,-37.3323,3.55389,0.00541481,0.00279259,-0.00805767,0.0122673,-0.00405995,-0.704747,0.00981554,0.043111,622,806,-37.3324,-3.55388
-595,218,-37.4983,2.80463,0.00393477,0.00212399,-0.00591863,0.00901686,-0.00295811,-0.7095,0.00720268,0.0185712,629,806,-37.4983,-2.80464
-588,218,-37.5202,1.92804,0.00298398,0.00224676,-0.00409582,0.00672775,-0.00149701,-0.740521,0.00505855,0.0119356,636,806,-37.5202,-1.92806
-581,218,-37.5554,1.11023,0.00225655,0.00244067,-0.00241232,0.00476269,-6.54645e-05,-0.80447,0.00319717,0.0119435,643,806,-37.5554,-1.1102
-574,218,-37.6093,0.290222,0.00165052,0.00276755,-0.000869096,0.00324212,0.00117595,-1.07099,0.00189521,0.0115397,650,806,-37.6093,-0.290208
-567,218,-37.6328,-0.565918,0.00103075,0.00324682,0.000534143,0.00336884,0.000908728,1.3462,0.00201257,0.0192767,657,806,-37.6328,0.565945
-560,218,-37.6766,-1.38837,0.000450472,0.00377521,0.00188915,0.00462926,-0.000403573,1.14621,0.00322911,0.0193007,664,806,-37.6766,1.38837
-553,218,-37.6135,-2.41797,-0.000182515,0.00441429,0.00325019,0.00609664,-0.00186486,1.09316,0.00480814,0.0214066,671,806,-37.6135,2.41798
-546,218,-37.8201,-3.36047,-0.00116577,0.00509041,0.00469167,0.00760118,-0.00367654,1.07942,0.00664132,0.0310672,678,806,-37.8201,3.36046
-539,218,-37.9404,-4.03448,-0.00264848,0.00592948,0.00537986,0.00852078,-0.00523978,1.12192,0.00801958,0.0347406,685,806,-37.9405,4.03451
-532,218,-37.8777,-4.51868,0,0,0,0,0,0,0,-1,692,806,-37.8778,4.51869
-525,218,-29.3521,-3.64417,0,0,0,0,0,0,0,-1,699,806,-29.3521,3.64414
-518,218,-23.61,2.54181,0,0,0,0,0,0,0,-1,706,806,-23.61,-2.54183
-511,218,-41.0953,1.06879,0,0,0,0,0,0,0,-1,713,806,-41.0953,-1.06876
-504,218,-55.3393,0.606934,0,0,0,0,0,0,0,-1,720,806,-55.3393,-0.606939
-497,218,-55.1547,0.625061,0,0,0,0,0,0,0,-1,727,806,-55.1547,-0.625031
-490,218,-55.0244,0.617249,0,0,0,0,0,0,0,-1,734,806,-55.0244,-0.617264
-483,218,-55.0099,0.585083,0,0,0,0,0,0,0,-1,741,806,-55.0099,-0.585084
-476,218,-54.9001,0.777832,0,0,0,0,0,0,0,-1,748,806,-54.9002,-0.777812
-469,218,0,0,0,0,0,0,0,0,0,-1,755,806,0,0
-462,218,0,0,0,0,0,0,0,0,0,-1,762,806,0,0
-455,218,0,0,0,0,0,0,0,0,0,-1,769,806,0,0
-448,218,0,0,0,0,0,0,0,0,0,-1,776,806,0,0
-441,218,0,0,0,0,0,0,0,0,0,-1,783,806,0,0
-434,218,0,0,0,0,0,0,0,0,0,-1,790,806,0,0
-427,218,0,0,0,0,0,0,0,0,0,-1,797,806,0,0
-420,218,0,0,0,0,0,0,0,0,0,-1,804,806,0,0
-413,218,0,0,0,0,0,0,0,0,0,-1,811,806,0,0
-406,218,0,0,0,0,0,0,0,0,0,-1,818,806,0,0
-399,218,0,0,0,0,0,0,0,0,0,-1,825,806,0,0
-392,218,0,0,0,0,0,0,0,0,0,-1,832,806,0,0
-385,218,0,0,0,0,0,0,0,0,0,-1,839,806,0,0
-378,218,0,0,0,0,0,0,0,0,0,-1,846,806,0,0
-371,218,0,0,0,0,0,0,0,0,0,-1,853,806,0,0
-364,218,0,0,0,0,0,0,0,0,0,-1,860,806,0,0
-357,218,0,0,0,0,0,0,0,0,0,-1,867,806,0,0
-350,218,0,0,0,0,0,0,0,0,0,-1,874,806,0,0
-343,218,0,0,0,0,0,0,0,0,0,-1,881,806,0,0
-336,218,0,0,0,0,0,0,0,0,0,-1,888,806,0,0
-329,218,0,0,0,0,0,0,0,0,0,-1,895,806,0,0
-322,218,0,0,0,0,0,0,0,0,0,-1,902,806,0,0
-315,218,0,0,0,0,0,0,0,0,0,-1,909,806,0,0
-308,218,0,0,0,0,0,0,0,0,0,-1,916,806,0,0
-301,218,0,0,0,0,0,0,0,0,0,-1,923,806,0,0
-294,218,0,0,0,0,0,0,0,0,0,-1,930,806,0,0
-287,218,0,0,0,0,0,0,0,0,0,-1,937,806,0,0
-280,218,0,0,0,0,0,0,0,0,0,-1,944,806,0,0
-273,218,0,0,0,0,0,0,0,0,0,-1,951,806,0,0
-266,218,0,0,0,0,0,0,0,0,0,-1,958,806,0,0
-259,218,0,0,0,0,0,0,0,0,0,-1,965,806,0,0
-252,218,0,0,0,0,0,0,0,0,0,-1,972,806,0,0
-245,218,0,0,0,0,0,0,0,0,0,-1,979,806,0,0
-238,218,0,0,0,0,0,0,0,0,0,-1,986,806,0,0
-231,218,0,0,0,0,0,0,0,0,0,-1,993,806,0,0
-224,218,0,0,0,0,0,0,0,0,0,-1,1000,806,0,0
-217,218,0,0,0,0,0,0,0,0,0,-1,1007,806,0,0
-210,218,0,0,0,0,0,0,0,0,0,-1,1014,806,0,0
-203,218,0,0,0,0,0,0,0,0,0,-1,1021,806,0,0
-196,218,0,0,0,0,0,0,0,0,0,-1,1028,806,0,0
-189,218,0,0,0,0,0,0,0,0,0,-1,1035,806,0,0
-182,218,0,0,0,0,0,0,0,0,0,-1,1042,806,0,0
-175,218,0,0,0,0,0,0,0,0,0,-1,1049,806,0,0
-168,218,0,0,0,0,0,0,0,0,0,-1,1056,806,0,0
-161,218,0,0,0,0,0,0,0,0,0,-1,1063,806,0,0
-154,218,0,0,0,0,0,0,0,0,0,-1,1070,806,0,0
-147,218,0,0,0,0,0,0,0,0,0,-1,1077,806,0,0
-140,218,0,0,0,0,0,0,0,0,0,-1,1084,806,0,0
-133,218,0,0,0,0,0,0,0,0,0,-1,1091,806,0,0
-126,218,0,0,0,0,0,0,0,0,0,-1,1098,806,0,0
-119,218,0,0,0,0,0,0,0,0,0,-1,1105,806,0,0
-112,218,0,0,0,0,0,0,0,0,0,-1,1112,806,0,0
-105,218,0,0,0,0,0,0,0,0,0,-1,1119,806,0,0
-98,218,0,0,0,0,0,0,0,0,0,-1,1126,806,0,0
-91,218,0,0,0,0,0,0,0,0,0,-1,1133,806,0,0
-84,218,0,0,0,0,0,0,0,0,0,-1,1140,806,0,0
-77,218,0,0,0,0,0,0,0,0,0,-1,1147,806,0,0
-70,218,0,0,0,0,0,0,0,0,0,-1,1154,806,0,0
-63,218,0,0,0,0,0,0,0,0,0,-1,1161,806,0,0
-56,218,0,0,0,0,0,0,0,0,0,-1,1168,806,0,0
-49,218,0,0,0,0,0,0,0,0,0,-1,1175,806,0,0
-42,218,0,0,0,0,0,0,0,0,0,-1,1182,806,0,0
-35,218,0,0,0,0,0,0,0,0,0,-1,1189,806,0,0
-28,218,0,0,0,0,0,0,0,0,0,-1,1196,806,0,0
-21,218,0,0,0,0,0,0,0,0,0,-1,1203,806,0,0
-14,218,0,0,0,0,0,0,0,0,0,-1,1210,806,0,0
-7,218,0,0,0,0,0,0,0,0,0,-1,1217,806,0,0
0,218,0,0,0,0,0,0,0,0,0,-1,1224,806,0,0
7,218,0,0,0,0,0,0,0,0,0,-1,1231,806,0,0
14,218,0,0,0,0,0,0,0,0,0,-1,1238,806,0,0
21,218,0,0,0,0,0,0,0,0,0,-1,1245,806,0,0
28,218,0,0,0,0,0,0,0,0,0,-1,1252,806,0,0
35,218,0,0,0,0,0,0,0,0,0,-1,1259,806,0,0
42,218,0,0,0,0,0,0,0,0,0,-1,1266,806,0,0
49,218,0,0,0,0,0,0,0,0,0,-1,1273,806,0,0
56,218,0,0,0,0,0,0,0,0,0,-1,1280,806,0,0
63,218,0,0,0,0,0,0,0,0,0,-1,1287,806,0,0
70,218,0,0,0,0,0,0,0,0,0,-1,1294,806,0,0
77,218,0,0,0,0,0,0,0,0,0,-1,1301,806,0,0
84,218,0,0,0,0,0,0,0,0,0,-1,1308,806,0,0
91,218,0,0,0,0,0,0,0,0,0,-1,1315,806,0,0
98,218,0,0,0,0,0,0,0,0,0,-1,1322,806,0,0
105,218,0,0,0,0,0,0,0,0,0,-1,1329,806,0,0
112,218,0,0,0,0,0,0,0,0,0,-1,1336,806,0,0
119,218,0,0,0,0,0,0,0,0,0,-1,1343,806,0,0
126,218,0,0,0,0,0,0,0,0,0,-1,1350,806,0,0
133,218,0,0,0,0,0,0,0,0,0,-1,1357,806,0,0
140,218,0,0,0,0,0,0,0,0,0,-1,1364,806,0,0
147,218,0,0,0,0,0,0,0,0,0,-1,1371,806,0,0
154,218,0,0,0,0,0,0,0,0,0,-1,1378,806,0,0
161,218,0,0,0,0,0,0,0,0,0,-1,1385,806,0,0
168,218,0,0,0,0,0,0,0,0,0,-1,1392,806,0,0
175,218,0,0,0,0,0,0,0,0,0,-1,1399,806,0,0
182,218,0,0,0,0,0,0,0,0,0,-1,1406,806,0,0
189,218,0,0,0,0,0,0,0,0,0,-1,1413,806,0,0
196,218,0,0,0,0,0,0,0,0,0,-1,1420,806,0,0
203,218,0,0,0,0,0,0,0,0,0,-1,1427,806,0,0
210,218,0,0,0,0,0,0,0,0,0,-1,1434,806,0,0
217,218,0,0,0,0,0,0,0,0,0,-1,1441,806,0,0
224,218,0,0,0,0,0,0,0,0,0,-1,1448,806,0,0
231,218,0,0,0,0,0,0,0,0,0,-1,1455,806,0,0
238,218,0,0,0,0,0,0,0,0,0,-1,1462,806,0,0
245,218,0,0,0,0,0,0,0,0,0,-1,1469,806,0,0
252,218,0,0,0,0,0,0,0,0,0,-1,1476,806,0,0
259,218,0,0,0,0,0,0,0,0,0,-1,1483,806,0,0
266,218,0,0,0,0,0,0,0,0,0,-1,1490,806,0,0
273,218,0,0,0,0,0,0,0,0,0,-1,1497,806,0,0
280,218,0,0,0,0,0,0,0,0,0,-1,1504,806,0,0
287,218,0,0,0,0,0,0,0,0,0,-1,1511,806,0,0
294,218,0,0,0,0,0,0,0,0,0,-1,1518,806,0,0
301,218,0,0,0,0,0,0,0,0,0,-1,1525,806,0,0
308,218,0,0,0,0,0,0,0,0,0,-1,1532,806,0,0
315,218,0,0,0,0,0,0,0,0,0,-1,1539,806,0,0
322,218,0,0,0,0,0,0,0,0,0,-1,1546,806,0,0
329,218,0,0,0,0,0,0,0,0,0,-1,1553,806,0,0
336,218,0,0,0,0,0,0,0,0,0,-1,1560,806,0,0
343,218,0,0,0,0,0,0,0,0,0,-1,1567,806,0,0
350,218,0,0,0,0,0,0,0,0,0,-1,1574,806,0,0
357,218,0,0,0,0,0,0,0,0,0,-1,1581,806,0,0
364,218,0,0,0,0,0,0,0,0,0,-1,1588,806,0,0
371,218,0,0,0,0,0,0,0,0,0,-1,1595,806,0,0
378,218,0,0,0,0,0,0,0,0,0,-1,1602,806,0,0
385,218,0,0,0,0,0,0,0,0,0,-1,1609,806,0,0
392,218,0,0,0,0,0,0,0,0,0,-1,1616,806,0,0
399,218,0,0,0,0,0,0,0,0,0,-1,1623,806,0,0
406,218,0,0,0,0,0,0,0,0,0,-1,1630,806,0,0
413,218,0,0,0,0,0,0,0,0,0,-1,1637,806,0,0
420,218,0,0,0,0,0,0,0,0,0,-1,1644,806,0,0
427,218,0,0,0,0,0,0,0,0,0,-1,1651,806,0,0
434,218,0,0,0,0,0,0,0,0,0,-1,1658,806,0,0
441,218,0,0,0,0,0,0,0,0,0,-1,1665,806,0,0
448,218,0,0,0,0,0,0,0,0,0,-1,1672,806,0,0
455,218,0,0,0,0,0,0,0,0,0,-1,1679,806,0,0
462,218,0,0,0,0,0,0,0,0,0,-1,1686,806,0,0
469,218,0,0,0,0,0,0,0,0,0,-1,1693,806,0,0
476,218,0,0,0,0,0,0,0,0,0,-1,1700,806,0,0
483,218,0,0,0,0,0,0,0,0,0,-1,1707,806,0,0
490,218,0,0,0,0,0,0,0,0,0,-1,1714,806,0,0
497,218,0,0,0,0,0,0,0,0,0,-1,1721,806,0,0
504,218,0,0,0,0,0,0,0,0,0,-1,1728,806,0,0
511,218,0,0,0,0,0,0,0,0,0,-1,1735,806,0,0
518,218,0,0,0,0,0,0,0,0,0,-1,1742,806,0,0
525,218,0,0,0,0,0,0,0,0,0,-1,1749,806,0,0
532,218,0,0,0,0,0,0,0,0,0,-1,1756,806,0,0
539,218,0,0,0,0,0,0,0,0,0,-1,1763,806,0,0
546,218,0,0,0,0,0,0,0,0,0,-1,1770,806,0,0
553,218,0,0,0,0,0,0,0,0,0,-1,1777,806,0,0
560,218,0,0,0,0,0,0,0,0,0,-1,1784,806,0,0
567,218,0,0,0,0,0,0,0,0,0,-1,1791,806,0,0
574,218,0,0,0,0,0,0,0,0,0,-1,1798,806,0,0
581,218,0,0,0,0,0,0,0,0,0,-1,1805,806,0,0
588,218,0,0,0,0,0,0,0,0,0,-1,1812,806,0,0
595,218,71.2026,2.26996,0.000402987,0.000442273,-0.00100057,0.0014234,-0.000578138,-0.795213,0.00118944,0.0359652,1819,806,71.2026,-2.26997
602,218,71.2439,2.23926,0.000532373,0.00105225,-0.000325552,0.00120891,0.000375715,-1.1223,0.000714427,0.033537,1826,806,71.2439,-2.23928
609,218,71.2316,2.28088,-3.35979e-05,0.00165713,0.000153135,0.00167089,-4.73558e-05,1.48119,0.00113004,0.030792,1833,806,71.2316,-2.2809
616,218,71.2029,2.26147,-0.000566983,0.00198998,0.00053929,0.00209906,-0.000676071,1.37121,0.00167096,0.0314837,1840,806,71.2028,-2.26147
623,218,71.1945,2.21869,-0.000844161,0.00200489,0.000873834,0.00225155,-0.00109082,1.29568,0.00196812,0.0361444,1847,806,71.1944,-2.21868
630,218,71.1348,2.32764,-0.00113881,0.00174737,0.00094019,0.00202662,-0.00141806,1.28208,0.00199911,0.0442972,1854,806,71.1348,-2.32765
637,218,71.1089,2.39252,0,0,0,0,0,0,0,-1,1861,806,71.1089,-2.39253
644,218,52.4042,2.47949,0,0,0,0,0,0,0,-1,1868,806,52.4041,-2.47949
651,218,41.7338,1.99164,0,0,0,0,0,0,0,-1,1875,806,41.7338,-1.99162
658,218,28.41,0.514954,0,0,0,0,0,0,0,-1,1882,806,28.41,-0.514983
665,218,52.1176,-2.84406,0,0,0,0,0,0,0,-1,1889,806,52.1176,2.84404
672,218,52.8506,-2.1853,0,0,0,0,0,0,0,-1,1896,806,52.8506,2.18533
679,218,52.5778,-1.2926,-0.00216754,-5.01146e-05,-0.000464393,4.72578e-05,-0.00226492,-1.36411,0.00152594,0.0497206,1903,806,52.5778,1.29263
686,218,52.4276,-0.511597,-0.00194423,-0.000430417,-0.000912869,-1.47545e-06,-0.00237317,-1.13153,0.00158162,0.0221998,1910,806,52.4276,0.511595
693,218,52.4463,0.330078,-0.00153894,-0.00048043,-0.00134555,0.000436213,-0.00245558,-0.972772,0.00180016,0.0125278,1917,806,52.4463,-0.330068
700,218,52.377,1.17035,-0.00119405,-0.000264971,-0.00142245,0.000766869,-0.00222589,-0.943227,0.00179501,0.0104202,1924,806,52.377,-1.17037
707,218,52.3173,2.01306,-0.0010726,8.88408e-06,-0.00110479,0.000698169,-0.00176188,-1.01298,0.0014639,0.00836958,1931,806,52.3173,-2.01309
714,218,52.2883,2.86926,-0.00104832,0.000604954,-0.00101863,0.00109016,-0.00153353,-1.12626,0.00152198,0.0109585,1938,806,52.2883,-2.86929
721,218,52.2733,3.70093,-0.00128474,0.0010035,-0.000916862,0.00132554,-0.00160679,-1.23301,0.00169558,0.0143358,1945,806,52.2734,-3.70096
728,218,52.2217,4.56799,-0.00180411,0.00134012,-0.00099811,0.0016302,-0.00209419,-1.28796,0.00215583,0.0292204,1952,806,52.2216,-4.56798
735,218,52.3156,5.53168,0,0,0,0,0,0,0,-1,1959,806,52.3156,-5.53166
742,218,47.8733,6.84155,0,0,0,0,0,0,0,-1,1966,806,47.8733,-6.84158
749,218,42.0249,6.64703,0,0,0,0,0,0,0,-1,1973,806,42.0249,-6.64703
756,218,50.887,6.69489,0,0,0,0,0,0,0,-1,1980,806,50.8869,-6.69488
763,218,42.8705,8.65375,0,0,0,0,0,0,0,-1,1987,806,42.8705,-8.65375
770,218,0,0,0,0,0,0,0,0,0,-1,1994,806,0,0
777,218,0,0,0,0,0,0,0,0,0,-1,2001,806,0,0
784,218,0,0,0,0,0,0,0,0,0,-1,2008,806,0,0
791,218,0,0,0,0,0,0,0,0,0,-1,2015,806,0,0
798,218,0,0,0,0,0,0,0,0,0,-1,2022,806,0,0
805,218,0,0,0,0,0,0,0,0,0,-1,2029,806,0,0
812,218,0,0,0,0,0,0,0,0,0,-1,2036,806,0,0
-700,211,0,0,0,0,0,0,0,0,0,-1,524,813,0,0
-693,211,0,0,0,0,0,0,0,0,0,-1,531,813,0,0
-686,211,0,0,0,0,0,0,0,0,0,-1,538,813,0,0
-679,211,0,0,0,0,0,0,0,0,0,-1,545,813,0,0
-672,211,0,0,0,0,0,0,0,0,0,-1,552,813,0,0
-665,211,0,0,0,0,0,0,0,0,0,-1,559,813,0,0
-658,211,0,0,0,0,0,0,0,0,0,-1,566,813,0,0
-651,211,-40.2495,5.20386,0,0,0,0,0,0,0,-1,573,813,-40.2494,-5.20384
-644,211,-40.6288,4.32092,0,0,0,0,0,0,0,-1,580,813,-40.6288,-4.3209
-637,211,-41.3664,3.51849,0,0,0,0,0,0,0,-1,587,813,-41.3664,-3.51847
-630,211,-41.9262,2.94977,0,0,0,0,0,0,0,-1,594,813,-41.9262,-2.94975
-623,211,-42.5012,2.62903,0,0,0,0,0,0,0,-1,601,813,-42.5011,-2.629
-616,211,-38.2628,4.64386,0,0,0,0,0,0,0,-1,608,813,-38.2628,-4.64385
-609,211,-38.1241,4.14758,0.00851256,0.0053424,-0.0103401,0.0173884,-0.00353344,-0.709343,0.012932,0.0413563,615,813,-38.1242,-4.14758
-602,211,-38.1582,3.66742,0.0058739,0.0038749,-0.00738472,0.0123265,-0.00257765,-0.718134,0.00919804,0.0230943,622,813,-38.1582,-3.66744
-595,211,-38.3138,2.82733,0.00410879,0.00291036,-0.00516247,0.0087067,-0.00168755,-0.727621,0.0064411,0.0114654,629,813,-38.3138,-2.82735
-588,211,-38.3721,1.9751,0.00290842,0.00271324,-0.00328764,0.00609992,-0.000478258,-0.770561,0.00423504,0.01191,636,813,-38.3721,-1.97507
-581,211,-38.4052,1.14478,0.0020411,0.00273382,-0.00157508,0.00400017,0.000774745,-0.893626,0.00244971,0.0125848,643,813,-38.4052,-1.14478
-574,211,-38.4559,0.317322,0.00135789,0.00301067,-4.0911e-05,0.00301168,0.00135688,-1.54606,0.00174163,0.0144029,650,813,-38.4558,-0.317323
-567,211,-38.5199,-0.493164,0.000707011,0.003546,0.00135882,0.00409154,0.000161469,1.18901,0.0026755,0.0220393,657,813,-38.5199,0.493142
-560,211,-38.5532,-1.37378,0.000238383,0.00430374,0.00258889,0.00556258,-0.00102046,1.11821,0.00409119,0.037163,664,813,-38.5532,1.37379
-553,211,-38.2681,-2.63074,0,0,0,0,0,0,0,-1,671,813,-38.2681,2.63076
-546,211,-38.5842,-3.64984,0,0,0,0,0,0,0,-1,678,813,-38.5842,3.64985
-539,211,-38.7688,-3.90778,0,0,0,0,0,0,0,-1,685,813,-38.7688,3.90779
-532,211,-38.6984,-4.57477,0,0,0,0,0,0,0,-1,692,813,-38.6984,4.57478
-525,211,-14.3009,2.3233,0,0,0,0,0,0,0,-1,699,813,-14.3009,-2.3233
-518,211,-34.952,1.93011,0,0,0,0,0,0,0,-1,706,813,-34.952,-1.9301
-511,211,-53.0876,0.677734,0,0,0,0,0,0,0,-1,713,813,-53.0876,-0.677737
-504,211,-55.1741,0.461304,0,0,0,0,0,0,0,-1,720,813,-55.1742,-0.461276
-497,211,-55.0452,0.572449,0,0,0,0,0,0,0,-1,727,813,-55.0451,-0.572421
-490,211,-54.9219,0.705994,0,0,0,0,0,0,0,-1,734,813,-54.9219,-0.705984
-483,211,-54.9451,0.633423,0,0,0,0,0,0,0,-1,741,813,-54.9451,-0.633434
-476,211,-54.8369,0.801025,0,0,0,0,0,0,0,-1,748,813,-54.8369,-0.801019
-469,211,0,0,0,0,0,0,0,0,0,-1,755,813,0,0
-462,211,0,0,0,0,0,0,0,0,0,-1,762,813,0,0
-455,211,0,0,0,0,0,0,0,0,0,-1,769,813,0,0
-448,211,0,0,0,0,0,0,0,0,0,-1,776,813,0,0
-441,211,0,0,0,0,0,0,0,0,0,-1,783,813,0,0
-434,211,0,0,0,0,0,0,0,0,0,-1,790,813,0,0
-427,211,0,0,0,0,0,0,0,0,0,-1,797,813,0,0
-420,211,0,0,0,0,0,0,0,0,0,-1,804,813,0,0
-413,211,0,0,0,0,0,0,0,0,0,-1,811,813,0,0
-406,211,0,0,0,0,0,0,0,0,0,-1,818,813,0,0
-399,211,0,0,0,0,0,0,0,0,0,-1,825,813,0,0
-392,211,0,0,0,0,0,0,0,0,0,-1,832,813,0,0
-385,211,0,0,0,0,0,0,0,0,0,-1,839,813,0,0
-378,211,0,0,0,0,0,0,0,0,0,-1,846,813,0,0
-371,211,0,0,0,0,0,0,0,0,0,-1,853,813,0,0
-364,211,0,0,0,0,0,0,0,0,0,-1,860,813,0,0
-357,211,0,0,0,0,0,0,0,0,0,-1,867,813,0,0
-350,211,0,0,0,0,0,0,0,0,0,-1,874,813,0,0
-343,211,0,0,0,0,0,0,0,0,0,-1,881,813,0,0
-336,211,0,0,0,0,0,0,0,0,0,-1,888,813,0,0
-329,211,0,0,0,0,0,0,0,0,0,-1,895,813,0,0
-322,211,0,0,0,0,0,0,0,0,0,-1,902,813,0,0
-315,211,0,0,0,0,0,0,0,0,0,-1,909,813,0,0
-308,211,0,0,0,0,0,0,0,0,0,-1,916,813,0,0
-301,211,0,0,0,0,0,0,0,0,0,-1,923,813,0,0
-294,211,0,0,0,0,0,0,0,0,0,-1,930,813,0,0
-287,211,0,0,0,0,0,0,0,0,0,-1,937,813,0,0
-280,211,0,0,0,0,0,0,0,0,0,-1,944,813,0,0
-273,211,0,0,0,0,0,0,0,0,0,-1,951,813,0,0
-266,211,0,0,0,0,0,0,0,0,0,-1,958,813,0,0
-259,211,0,0,0,0,0,0,0,0,0,-1,965,813,0,0
-252,211,0,0,0,0,0,0,0,0,0,-1,972,813,0,0
-245,211,0,0,0,0,0,0,0,0,0,-1,979,813,0,0
-238,211,0,0,0,0,0,0,0,0,0,-1,986,813,0,0
-231,211,0,0,0,0,0,0,0,0,0,-1,993,813,0,0
-224,211,0,0,0,0,0,0,0,0,0,-1,1000,813,0,0
-217,211,0,0,0,0,0,0,0,0,0,-1,1007,813,0,0
-210,211,0,0,0,0,0,0,0,0,0,-1,1014,813,0,0
-203,211,0,0,0,0,0,0,0,0,0,-1,1021,813,0,0
-196,211,0,0,0,0,0,0,0,0,0,-1,1028,813,0,0
-189,211,0,0,0,0,0,0,0,0,0,-1,1035,813,0,0
-182,211,0,0,0,0,0,0,0,0,0,-1,1042,813,0,0
-175,211,0,0,0,0,0,0,0,0,0,-1,1049,813,0,0
-168,211,0,0,0,0,0,0,0,0,0,-1,1056,813,0,0
-161,211,0,0,0,0,0,0,0,0,0,-1,1063,813,0,0
-154,211,0,0,0,0,0,0,0,0,0,-1,1070,813,0,0
-147,211,0,0,0,0,0,0,0,0,0,-1,1077,813,0,0
-140,211,0,0,0,0,0,0,0,0,0,-1,1084,813,0,0
-133,211,0,0,0,0,0,0,0,0,0,-1,1091,813,0,0
-126,211,0,0,0,0,0,0,0,0,0,-1,1098,813,0,0
-119,211,0,0,0,0,0,0,0,0,0,-1,1105,813,0,0
-112,211,0,0,0,0,0,0,0,0,0,-1,1112,813,0,0
-105,211,0,0,0,0,0,0,0,0,0,-1,1119,813,0,0
-98,211,0,0,0,0,0,0,0,0,0,-1,1126,813,0,0
-91,211,0,0,0,0,0,0,0,0,0,-1,1133,813,0,0
-84,211,0,0,0,0,0,0,0,0,0,-1,1140,813,0,0
-77,211,0,0,0,0,0,0,0,0,0,-1,1147,813,0,0
-70,211,0,0,0,0,0,0,0,0,0,-1,1154,813,0,0
-63,211,0,0,0,0,0,0,0,0,0,-1,1161,813,0,0
-56,211,0,0,0,0,0,0,0,0,0,-1,1168,813,0,0
-49,211,0,0,0,0,0,0,0,0,0,-1,1175,813,0,0
-42,211,0,0,0,0,0,0,0,0,0,-1,1182,813,0,0
-35,211,0,0,0,0,0,0,0,0,0,-1,1189,813,0,0
-28,211,0,0,0,0,0,0,0,0,0,-1,1196,813,0,0
-21,211,0,0,0,0,0,0,0,0,0,-1,1203,813,0,0
-14,211,0,0,0,0,0,0,0,0,0,-1,1210,813,0,0
-7,211,0,0,0,0,0,0,0,0,0,-1,1217,813,0,0
0,211,0,0,0,0,0,0,0,0,0,-1,1224,813,0,0
7,211,0,0,0,0,0,0,0,0,0,-1,1231,813,0,0
14,211,0,0,0,0,0,0,0,0,0,-1,1238,813,0,0
21,211,0,0,0,0,0,0,0,0,0,-1,1245,813,0,0
28,211,0,0,0,0,0,0,0,0,0,-1,1252,813,0,0
35,211,0,0,0,0,0,0,0,0,0,-1,1259,813,0,0
42,211,0,0,0,0,0,0,0,0,0,-1,1266,813,0,0
49,211,0,0,0,0,0,0,0,0,0,-1,1273,813,0,0
56,211,0,0,0,0,0,0,0,0,0,-1,1280,813,0,0
63,211,0,0,0,0,0,0,0,0,0,-1,1287,813,0,0
70,211,0,0,0,0,0,0,0,0,0,-1,1294,813,0,0
77,211,0,0,0,0,0,0,0,0,0,-1,1301,813,0,0
84,211,0,0,0,0,0,0,0,0,0,-1,1308,813,0,0
91,211,0,0,0,0,0,0,0,0,0,-1,1315,813,0,0
98,211,0,0,0,0,0,0,0,0,0,-1,1322,813,0,0
105,211,0,0,0,0,0,0,0,0,0,-1,1329,813,0,0
112,211,0,0,0,0,0,0,0,0,0,-1,1336,813,0,0
119,211,0,0,0,0,0,0,0,0,0,-1,1343,813,0,0
126,211,0,0,0,0,0,0,0,0,0,-1,1350,813,0,0
133,211,0,0,0,0,0,0,0,0,0,-1,1357,813,0,0
140,211,0,0,0,0,0,0,0,0,0,-1,1364,813,0,0
147,211,0,0,0,0,0,0,0,0,0,-1,1371,813,0,0
154,211,0,0,0,0,0,0,0,0,0,-1,1378,813,0,0
161,211,0,0,0,0,0,0,0,0,0,-1,1385,813,0,0
168,211,0,0,0,0,0,0,0,0,0,-1,1392,813,0,0
175,211,0,0,0,0,0,0,0,0,0,-1,1399,813,0,0
182,211,0,0,0,0,0,0,0,0,0,-1,1406,813,0,0
189,211,0,0,0,0,0,0,0,0,0,-1,1413,813,0,0
196,211,0,0,0,0,0,0,0,0,0,-1,1420,813,0,0
203,211,0,0,0,0,0,0,0,0,0,-1,1427,813,0,0
210,211,0,0,0,0,0,0,0,0,0,-1,1434,813,0,0
217,211,0,0,0,0,0,0,0,0,0,-1,1441,813,0,0
224,211,0,0,0,0,0,0,0,0,0,-1,1448,813,0,0
231,211,0,0,0,0,0,0,0,0,0,-1,1455,813,0,0
238,211,0,0,0,0,0,0,0,0,0,-1,1462,813,0,0
245,211,0,0,0,0,0,0,0,0,0,-1,1469,813,0,0
252,211,0,0,0,0,0,0,0,0,0,-1,1476,813,0,0
259,211,0,0,0,0,0,0,0,0,0,-1,1483,813,0,0
266,211,0,0,0,0,0,0,0,0,0,-1,1490,813,0,0
273,211,0,0,0,0,0,0,0,0,0,-1,1497,813,0,0
280,211,0,0,0,0,0,0,0,0,0,-1,1504,813,0,0
287,211,0,0,0,0,0,0,0,0,0,-1,1511,813,0,0
294,211,0,0,0,0,0,0,0,0,0,-1,1518,813,0,0
301,211,0,0,0,0,0,0,0,0,0,-1,1525,813,0,0
308,211,0,0,0,0,0,0,0,0,0,-1,1532,813,0,0
315,211,0,0,0,0,0,0,0,0,0,-1,1539,813,0,0
322,211,0,0,0,0,0,0,0,0,0,-1,1546,813,0,0
329,211,0,0,0,0,0,0,0,0,0,-1,1553,813,0,0
336,211,0,0,0,0,0,0,0,0,0,-1,1560,813,0,0
343,211,0,0,0,0,0,0,0,0,0,-1,1567,813,0,0
350,211,0,0,0,0,0,0,0,0,0,-1,1574,813,0,0
357,211,0,0,0,0,0,0,0,0,0,-1,1581,813,0,0
364,211,0,0,0,0,0,0,0,0,0,-1,1588,813,0,0
371,211,0,0,0,0,0,0,0,0,0,-1,1595,813,0,0
378,211,0,0,0,0,0,0,0,0,0,-1,1602,813,0,0
385,211,0,0,0,0,0,0,0,0,0,-1,1609,813,0,0
392,211,0,0,0,0,0,0,0,0,0,-1,1616,813,0,0
399,211,0,0,0,0,0,0,0,0,0,-1,1623,813,0,0
406,211,0,0,0,0,0,0,0,0,0,-1,1630,813,0,0
413,211,0,0,0,0,0,0,0,0,0,-1,1637,813,0,0
420,211,0,0,0,0,0,0,0,0,0,-1,1644,813,0,0
427,211,0,0,0,0,0,0,0,0,0,-1,1651,813,0,0
434,211,0,0,0,0,0,0,0,0,0,-1,1658,813,0,0
441,211,0,0,0,0,0,0,0,0,0,-1,1665,813,0,0
448,211,0,0,0,0,0,0,0,0,0,-1,1672,813,0,0
455,211,0,0,0,0,0,0,0,0,0,-1,1679,813,0,0
462,211,0,0,0,0,0,0,0,0,0,-1,1686,813,0,0
469,211,0,0,0,0,0,0,0,0,0,-1,1693,813,0,0
476,211,0,0,0,0,0,0,0,0,0,-1,1700,813,0,0
483,211,0,0,0,0,0,0,0,0,0,-1,1707,813,0,0
490,211,0,0,0,0,0,0,0,0,0,-1,1714,813,0,0
497,211,0,0,0,0,0,0,0,0,0,-1,1721,813,0,0
504,211,0,0,0,0,0,0,0,0,0,-1,1728,813,0,0
511,211,0,0,0,0,0,0,0,0,0,-1,1735,813,0,0
518,211,0,0,0,0,0,0,0,0,0,-1,1742,813,0,0
525,211,0,0,0,0,0,0,0,0,0,-1,1749,813,0,0
532,211,0,0,0,0,0,0,0,0,0,-1,1756,813,0,0
539,211,0,0,0,0,0,0,0,0,0,-1,1763,813,0,0
546,211,0,0,0,0,0,0,0,0,0,-1,1770,813,0,0
553,211,0,0,0,0,0,0,0,0,0,-1,1777,813,0,0
560,211,0,0,0,0,0,0,0,0,0,-1,1784,813,0,0
567,211,0,0,0,0,0,0,0,0,0,-1,1791,813,0,0
574,211,0,0,0,0,0,0,0,0,0,-1,1798,813,0,0
581,211,0,0,0,0,0,0,0,0,0,-1,1805,813,0,0
588,211,0,0,0,0,0,0,0,0,0,-1,1812,813,0,0
595,211,71.2329,2.31042,-0.00029793,-0.000517535,-0.00170355,0.00129936,-0.00211482,-0.753215,0.00198983,0.0365545,1819,813,71.2329,-2.3104
602,211,71.2952,2.1875,-0.000166238,0.00025427,-0.000786516,0.00085815,-0.000770118,-0.916006,0.000940539,0.0361319,1826,813,71.2952,-2.18751
609,211,71.2487,2.26904,-0.000563375,0.00123763,-2.95853e-05,0.00123811,-0.000563861,-1.55438,0.00106437,0.0383035,1833,813,71.2486,-2.26903
616,211,71.1989,2.39404,-0.00114528,0.00193782,0.000574858,0.00204151,-0.00124898,1.39233,0.00191805,0.0319577,1840,813,71.1989,-2.39403
623,211,71.2097,2.28247,-0.00145952,0.0022066,0.00103381,0.00247802,-0.00173095,1.31404,0.00244278,0.030127,1847,813,71.2097,-2.28249
630,211,71.1395,2.29315,-0.00169527,0.00199557,0.00108828,0.00229256,-0.00199226,1.30438,0.00247587,0.0355302,1854,813,71.1396,-2.29317
637,211,71.0939,2.33612,0,0,0,0,0,0,0,-1,1861,813,71.0939,-2.33611
644,211,66.401,2.3595,0,0,0,0,0,0,0,-1,1868,813,66.401,-2.35952
651,211,48.5043,2.95557,0,0,0,0,0,0,0,-1,1875,813,48.5043,-2.95558
658,211,27.7909,1.52234,0,0,0,0,0,0,0,-1,1882,813,27.7909,-1.52234
665,211,42.2053,-0.745605,0,0,0,0,0,0,0,-1,1889,813,42.2054,0.745605
672,211,53.189,-1.99603,0,0,0,0,0,0,0,-1,1896,813,53.189,1.99603
679,211,53.8574,-1.23157,0,0,0,0,0,0,0,-1,1903,813,53.8575,1.23159
686,211,53.34,-0.50116,-0.00261641,-0.00035938,-0.00105718,5.84468e-05,-0.00303424,-1.19441,0.00204259,0.0261452,1910,813,53.34,0.501178
693,211,53.2926,0.332947,-0.00228923,-0.00056425,-0.00162924,0.000416714,-0.0032702,-1.02884,0.00233148,0.0140678,1917,813,53.2926,-0.332925
700,211,53.166,1.16125,-0.00192427,-0.000460063,-0.00180342,0.000754187,-0.00313852,-0.978212,0.00238385,0.0145054,1924,813,53.166,-1.16128
707,211,53.1604,2.04462,-0.00176569,-0.000279766,-0.00144667,0.000603574,-0.00264903,-1.02262,0.00199783,0.021803,1931,813,53.1604,-2.04461
714,211,53.1886,2.92151,-0.0015784,0.000315802,-0.00125509,0.000941042,-0.00220364,-1.10862,0.00186373,0.0232383,1938,813,53.1886,-2.92153
721,211,53.1423,3.71442,-0.00163644,0.000753992,-0.00107201,0.00116431,-0.00204676,-1.20524,0.0018771,0.0177392,1945,813,53.1423,-3.71442
728,211,53.0922,4.55243,-0.00198333,0.00114627,-0.00108118,0.00148346,-0.00232051,-1.26849,0.00221388,0.0192343,1952,813,53.0921,-4.55241
735,211,53.1147,5.46887,-0.00273018,0.00151859,-0.00143378,0.00195716,-0.00316875,-1.27395,0.00298688,0.0373022,1959,813,53.1148,-5.46888
742,211,53.2743,6.3501,0,0,0,0,0,0,0,-1,1966,813,53.2743,-6.35011
749,211,52.8187,6.65796,0,0,0,0,0,0,0,-1,1973,813,52.8188,-6.65796
756,211,51.9761,7.22534,0,0,0,0,0,0,0,-1,1980,813,51.9761,-7.22535
763,211,51.5265,8.39032,0,0,0,0,0,0,0,-1,1987,813,51.5265,-8.39032
770,211,46.2148,12.9099,0,0,0,0,0,0,0,-1,1994,813,46.2148,-12.9099
777,211,0,0,0,0,0,0,0,0,0,-1,2001,813,0,0
784,211,0,0,0,0,0,0,0,0,0,-1,2008,813,0,0
791,211,0,0,0,0,0,0,0,0,0,-1,2015,813,0,0
798,211,0,0,0,0,0,0,0,0,0,-1,2022,813,0,0
805,211,0,0,0,0,0,0,0,0,0,-1,2029,813,0,0
812,211,0,0,0,0,0,0,0,0,0,-1,2036,813,0,0
-700,204,0,0,0,0,0,0,0,0,0,-1,524,820,0,0
-693,204,0,0,0,0,0,0,0,0,0,-1,531,820,0,0
-686,204,0,0,0,0,0,0,0,0,0,-1,538,820,0,0
-679,204,0,0,0,0,0,0,0,0,0,-1,545,820,0,0
-672,204,0,0,0,0,0,0,0,0,0,-1,552,820,0,0
-665,204,0,0,0,0,0,0,0,0,0,-1,559,820,0,0
-658,204,0,0,0,0,0,0,0,0,0,-1,566,820,0,0
-651,204,-40.064,5.25806,0,0,0,0,0,0,0,-1,573,820,-40.064,-5.25806
-644,204,-40.4117,4.54321,0,0,0,0,0,0,0,-1,580,820,-40.4117,-4.54323
-637,204,-40.8671,3.93817,0,0,0,0,0,0,0,-1,587,820,-40.8671,-3.93819
-630,204,-41.7101,3.04382,0,0,0,0,0,0,0,-1,594,820,-41.7101,-3.04383
-623,204,-41.8597,2.11951,0,0,0,0,0,0,0,-1,601,820,-41.8597,-2.11951
-616,204,-39.2325,5.02313,0,0,0,0,0,0,0,-1,608,820,-39.2325,-5.02312
-609,204,-39.0646,4.37317,0.00828914,0.00668537,-0.00981498,0.0173349,-0.00236043,-0.744639,0.0124184,0.0363758,615,820,-39.0646,-4.37316
-602,204,-39.0507,3.69617,0.0054589,0.00478876,-0.0067393,0.0118715,-0.00162379,-0.760559,0.00850738,0.0180509,622,820,-39.0507,-3.69618
-595,204,-39.1651,2.83875,0.00349418,0.00349792,-0.00436261,0.00785866,-0.000866562,-0.785612,0.00555056,0.0161953,629,820,-39.1651,-2.83875
-588,204,-39.2159,2.00238,0.00214028,0.00292364,-0.00237735,0.00494136,0.000122562,-0.867042,0.00325416,0.0143217,636,820,-39.2159,-2.0024
-581,204,-39.255,1.1626,0.00123735,0.0026919,-0.000601349,0.00290831,0.00102093,-1.22535,0.00170377,0.0134869,643,820,-39.255,-1.16257
-574,204,-39.275,0.358459,0.000625934,0.00283071,0.000953337,0.00318575,0.000270889,1.21429,0.00203954,0.0146698,650,820,-39.275,-0.358456
-567,204,-39.2974,-0.440674,0.000153156,0.00337004,0.0023502,0.00460949,-0.0010863,1.08548,0.00349188,0.0155325,657,820,-39.2974,0.440672
-560,204,-39.3253,-1.25049,0,0,0,0,0,0,0,-1,664,820,-39.3252,1.2505
-553,204,-38.7455,-1.98621,0,0,0,0,0,0,0,-1,671,820,-38.7455,1.98622
-546,204,-32.433,-2.2323,0,0,0,0,0,0,0,-1,678,820,-32.433,2.23228
-539,204,-39.5474,-3.68121,0,0,0,0,0,0,0,-1,685,820,-39.5474,3.6812
-532,204,-30.0565,-3.29065,0,0,0,0,0,0,0,-1,692,820,-30.0565,3.29063
-525,204,-25.7137,1.52496,0,0,0,0,0,0,0,-1,699,820,-25.7137,-1.52496
-518,204,-43.4591,0.383972,0,0,0,0,0,0,0,-1,706,820,-43.4591,-0.383942
-511,204,-54.9847,0.562622,0,0,0,0,0,0,0,-1,713,820,-54.9847,-0.562624
-504,204,-55.328,0.208984,0,0,0,0,0,0,0,-1,720,820,-55.328,-0.208974
-497,204,-55.1567,0.483704,0,0,0,0,0,0,0,-1,727,820,-55.1567,-0.483701
-490,204,-55.0247,0.761169,0,0,0,0,0,0,0,-1,734,820,-55.0247,-0.761157
-483,204,-54.9518,0.645081,0,0,0,0,0,0,0,-1,741,820,-54.9518,-0.645065
-476,204,0,0,0,0,0,0,0,0,0,-1,748,820,0,0
-469,204,0,0,0,0,0,0,0,0,0,-1,755,820,0,0
-462,204,0,0,0,0,0,0,0,0,0,-1,762,820,0,0
-455,204,0,0,0,0,0,0,0,0,0,-1,769,820,0,0
-448,204,0,0,0,0,0,0,0,0,0,-1,776,820,0,0
-441,204,0,0,0,0,0,0,0,0,0,-1,783,820,0,0
-434,204,0,0,0,0,0,0,0,0,0,-1,790,820,0,0
-427,204,0,0,0,0,0,0,0,0,0,-1,797,820,0,0
-420,204,0,0,0,0,0,0,0,0,0,-1,804,820,0,0
-413,204,0,0,0,0,0,0,0,0,0,-1,811,820,0,0
-406,204,0,0,0,0,0,0,0,0,0,-1,818,820,0,0
-399,204,0,0,0,0,0,0,0,0,0,-1,825,820,0,0
-392,204,0,0,0,0,0,0,0,0,0,-1,832,820,0,0
-385,204,0,0,0,0,0,0,0,0,0,-1,839,820,0,0
-378,204,0,0,0,0,0,0,0,0,0,-1,846,820,0,0
-371,204,0,0,0,0,0,0,0,0,0,-1,853,820,0,0
-364,204,0,0,0,0,0,0,0,0,0,-1,860,820,0,0
-357,204,0,0,0,0,0,0,0,0,0,-1,867,820,0,0
-350,204,0,0,0,0,0,0,0,0,0,-1,874,820,0,0
-343,204,0,0,0,0,0,0,0,0,0,-1,881,820,0,0
-336,204,0,0,0,0,0,0,0,0,0,-1,888,820,0,0
-329,204,0,0,0,0,0,0,0,0,0,-1,895,820,0,0
-322,204,0,0,0,0,0,0,0,0,0,-1,902,820,0,0
-315,204,0,0,0,0,0,0,0,0,0,-1,909,820,0,0
-308,204,0,0,0,0,0,0,0,0,0,-1,916,820,0,0
-301,204,0,0,0,0,0,0,0,0,0,-1,923,820,0,0
-294,204,0,0,0,0,0,0,0,0,0,-1,930,820,0,0
-287,204,0,0,0,0,0,0,0,0,0,-1,937,820,0,0
-280,204,0,0,0,0,0,0,0,0,0,-1,944,820,0,0
-273,204,0,0,0,0,0,0,0,0,0,-1,951,820,0,0
-266,204,0,0,0,0,0,0,0,0,0,-1,958,820,0,0
-259,204,0,0,0,0,0,0,0,0,0,-1,965,820,0,0
-252,204,0,0,0,0,0,0,0,0,0,-1,972,820,0,0
-245,204,0,0,0,0,0,0,0,0,0,-1,979,820,0,0
-238,204,0,0,0,0,0,0,0,0,0,-1,986,820,0,0
-231,204,0,0,0,0,0,0,0,0,0,-1,993,820,0,0
-224,204,0,0,0,0,0,0,0,0,0,-1,1000,820,0,0
-217,204,0,0,0,0,0,0,0,0,0,-1,1007,820,0,0
-210,204,0,0,0,0,0,0,0,0,0,-1,1014,820,0,0
-203,204,0,0,0,0,0,0,0,0,0,-1,1021,820,0,0
-196,204,0,0,0,0,0,0,0,0,0,-1,1028,820,0,0
-189,204,0,0,0,0,0,0,0,0,0,-1,1035,820,0,0
-182,204,0,0,0,0,0,0,0,0,0,-1,1042,820,0,0
-175,204,0,0,0,0,0,0,0,0,0,-1,1049,820,0,0
-168,204,0,0,0,0,0,0,0,0,0,-1,1056,820,0,0
-161,204,0,0,0,0,0,0,0,0,0,-1,1063,820,0,0
-154,204,0,0,0,0,0,0,0,0,0,-1,1070,820,0,0
-147,204,0,0,0,0,0,0,0,0,0,-1,1077,820,0,0
-140,204,0,0,0,0,0,0,0,0,0,-1,1084,820,0,0
-133,204,0,0,0,0,0,0,0,0,0,-1,1091,820,0,0
-126,204,0,0,0,0,0,0,0,0,0,-1,1098,820,0,0
-119,204,0,0,0,0,0,0,0,0,0,-1,1105,820,0,0
-112,204,0,0,0,0,0,0,0,0,0,-1,1112,820,0,0
-105,204,0,0,0,0,0,0,0,0,0,-1,1119,820,0,0
-98,204,0,0,0,0,0,0,0,0,0,-1,1126,820,0,0
-91,204,0,0,0,0,0,0,0,0,0,-1,1133,820,0,0
-84,204,0,0,0,0,0,0,0,0,0,-1,1140,820,0,0
-77,204,0,0,0,0,0,0,0,0,0,-1,1147,820,0,0
-70,204,0,0,0,0,0,0,0,0,0,-1,1154,820,0,0
-63,204,0,0,0,0,0,0,0,0,0,-1,1161,820,0,0
-56,204,0,0,0,0,0,0,0,0,0,-1,1168,820,0,0
-49,204,0,0,0,0,0,0,0,0,0,-1,1175,820,0,0
-42,204,0,0,0,0,0,0,0,0,0,-1,1182,820,0,0
-35,204,0,0,0,0,0,0,0,0,0,-1,1189,820,0,0
-28,204,0,0,0,0,0,0,0,0,0,-1,1196,820,0,0
-21,204,0,0,0,0,0,0,0,0,0,-1,1203,820,0,0
-14,204,0,0,0,0,0,0,0,0,0,-1,1210,820,0,0
-7,204,0,0,0,0,0,0,0,0,0,-1,1217,820,0,0
0,204,0,0,0,0,0,0,0,0,0,-1,1224,820,0,0
7,204,0,0,0,0,0,0,0,0,0,-1,1231,820,0,0
14,204,0,0,0,0,0,0,0,0,0,-1,1238,820,0,0
21,204,0,0,0,0,0,0,0,0,0,-1,1245,820,0,0
28,204,0,0,0,0,0,0,0,0,0,-1,1252,820,0,0
35,204,0,0,0,0,0,0,0,0,0,-1,1259,820,0,0
42,204,0,0,0,0,0,0,0,0,0,-1,1266,820,0,0
49,204,0,0,0,0,0,0,0,0,0,-1,1273,820,0,0
56,204,0,0,0,0,0,0,0,0,0,-1,1280,820,0,0
63,204,0,0,0,0,0,0,0,0,0,-1,1287,820,0,0
70,204,0,0,0,0,0,0,0,0,0,-1,1294,820,0,0
77,204,0,0,0,0,0,0,0,0,0,-1,1301,820,0,0
84,204,0,0,0,0,0,0,0,0,0,-1,1308,820,0,0
91,204,0,0,0,0,0,0,0,0,0,-1,1315,820,0,0
98,204,0,0,0,0,0,0,0,0,0,-1,1322,820,0,0
105,204,0,0,0,0,0,0,0,0,0,-1,1329,820,0,0
112,204,0,0,0,0,0,0,0,0,0,-1,1336,820,0,0
119,204,0,0,0,0,0,0,0,0,0,-1,1343,820,0,0
126,204,0,0,0,0,0,0,0,0,0,-1,1350,820,0,0
133,204,0,0,0,0,0,0,0,0,0,-1,1357,820,0,0
140,204,0,0,0,0,0,0,0,0,0,-1,1364,820,0,0
147,204,0,0,0,0,0,0,0,0,0,-1,1371,820,0,0
154,204,0,0,0,0,0,0,0,0,0,-1,1378,820,0,0
161,204,0,0,0,0,0,0,0,0,0,-1,1385,820,0,0
168,204,0,0,0,0,0,0,0,0,0,-1,1392,820,0,0
175,204,0,0,0,0,0,0,0,0,0,-1,1399,820,0,0
182,204,0,0,0,0,0,0,0,0,0,-1,1406,820,0,0
189,204,0,0,0,0,0,0,0,0,0,-1,1413,820,0,0
196,204,0,0,0,0,0,0,0,0,0,-1,1420,820,0,0
203,204,0,0,0,0,0,0,0,0,0,-1,1427,820,0,0
210,204,0,0,0,0,0,0,0,0,0,-1,1434,820,0,0
217,204,0,0,0,0,0,0,0,0,0,-1,1441,820,0,0
224,204,0,0,0,0,0,0,0,0,0,-1,1448,820,0,0
231,204,0,0,0,0,0,0,0,0,0,-1,1455,820,0,0
238,204,0,0,0,0,0,0,0,0,0,-1,1462,820,0,0
245,204,0,0,0,0,0,0,0,0,0,-1,1469,820,0,0
252,204,0,0,0,0,0,0,0,0,0,-1,1476,820,0,0
259,204,0,0,0,0,0,0,0,0,0,-1,1483,820,0,0
266,204,0,0,0,0,0,0,0,0,0,-1,1490,820,0,0
273,204,0,0,0,0,0,0,0,0,0,-1,1497,820,0,0
280,204,0,0,0,0,0,0,0,0,0,-1,1504,820,0,0
287,204,0,0,0,0,0,0,0,0,0,-1,1511,820,0,0
294,204,0,0,0,0,0,0,0,0,0,-1,1518,820,0,0
301,204,0,0,0,0,0,0,0,0,0,-1,1525,820,0,0
308,204,0,0,0,0,0,0,0,0,0,-1,1532,820,0,0
315,204,0,0,0,0,0,0,0,0,0,-1,1539,820,0,0
322,204,0,0,0,0,0,0,0,0,0,-1,1546,820,0,0
329,204,0,0,0,0,0,0,0,0,0,-1,1553,820,0,0
336,204,0,0,0,0,0,0,0,0,0,-1,1560,820,0,0
343,204,0,0,0,0,0,0,0,0,0,-1,1567,820,0,0
350,204,0,0,0,0,0,0,0,0,0,-1,1574,820,0,0
357,204,0,0,0,0,0,0,0,0,0,-1,1581,820,0,0
364,204,0,0,0,0,0,0,0,0,0,-1,1588,820,0,0
371,204,0,0,0,0,0,0,0,0,0,-1,1595,820,0,0
378,204,0,0,0,0,0,0,0,0,0,-1,1602,820,0,0
385,204,0,0,0,0,0,0,0,0,0,-1,1609,820,0,0
392,204,0,0,0,0,0,0,0,0,0,-1,1616,820,0,0
399,204,0,0,0,0,0,0,0,0,0,-1,1623,820,0,0
406,204,0,0,0,0,0,0,0,0,0,-1,1630,820,0,0
413,204,0,0,0,0,0,0,0,0,0,-1,1637,820,0,0
420,204,0,0,0,0,0,0,0,0,0,-1,1644,820,0,0
427,204,0,0,0,0,0,0,0,0,0,-1,1651,820,0,0
434,204,0,0,0,0,0,0,0,0,0,-1,1658,820,0,0
441,204,0,0,0,0,0,0,0,0,0,-1,1665,820,0,0
448,204,0,0,0,0,0,0,0,0,0,-1,1672,820,0,0
455,204,0,0,0,0,0,0,0,0,0,-1,1679,820,0,0
462,204,0,0,0,0,0,0,0,0,0,-1,1686,820,0,0
469,204,0,0,0,0,0,0,0,0,0,-1,1693,820,0,0
476,204,0,0,0,0,0,0,0,0,0,-1,1700,820,0,0
483,204,0,0,0,0,0,0,0,0,0,-1,1707,820,0,0
490,204,0,0,0,0,0,0,0,0,0,-1,1714,820,0,0
497,204,0,0,0,0,0,0,0,0,0,-1,1721,820,0,0
504,204,0,0,0,0,0,0,0,0,0,-1,1728,820,0,0
511,204,0,0,0,0,0,0,0,0,0,-1,1735,820,0,0
518,204,0,0,0,0,0,0,0,0,0,-1,1742,820,0,0
525,204,0,0,0,0,0,0,0,0,0,-1,1749,820,0,0
532,204,0,0,0,0,0,0,0,0,0,-1,1756,820,0,0
539,204,0,0,0,0,0,0,0,0,0,-1,1763,820,0,0
546,204,0,0,0,0,0,0,0,0,0,-1,1770,820,0,0
553,204,0,0,0,0,0,0,0,0,0,-1,1777,820,0,0
560,204,0,0,0,0,0,0,0,0,0,-1,1784,820,0,0
567,204,0,0,0,0,0,0,0,0,0,-1,1791,820,0,0
574,204,0,0,0,0,0,0,0,0,0,-1,1798,820,0,0
581,204,0,0,0,0,0,0,0,0,0,-1,1805,820,0,0
588,204,0,0,0,0,0,0,0,0,0,-1,1812,820,0,0
595,204,0,0,0,0,0,0,0,0,0,-1,1819,820,0,0
602,204,71.3309,2.14081,-0.000903691,-0.000802789,-0.00155992,0.0007075,-0.00241398,-0.801563,0.00188983,0.036416,1826,820,71.3309,-2.14078
609,204,71.2397,2.26373,-0.001027,0.000411729,-0.000513654,0.000576291,-0.00119156,-1.26075,0.00104107,0.0410848,1833,820,71.2398,-2.26373
616,204,71.2122,2.32458,-0.00142945,0.00151463,0.000432181,0.00157676,-0.00149158,1.42801,0.00177174,0.0391911,1840,820,71.2121,-2.32461
623,204,71.1871,2.29932,-0.00168377,0.00221201,0.00117331,0.00253809,-0.00200985,1.29972,0.00263165,0.0295757,1847,820,71.1871,-2.29931
630,204,71.1694,2.21893,-0.00187822,0.00223326,0.00134542,0.00263439,-0.00227935,1.28104,0.00283942,0.0284318,1854,820,71.1695,-2.21894
637,204,71.1844,2.3017,-0.00224619,0.00177022,0.00095942,0.00198764,-0.0024636,1.34795,0.00257481,0.0365054,1861,820,71.1844,-2.30167
644,204,71.0903,2.36829,0,0,0,0,0,0,0,-1,1868,820,71.0904,-2.36829
651,204,53.7611,2.32251,0,0,0,0,0,0,0,-1,1875,820,53.7611,-2.32249
658,204,34.9631,1.64844,0,0,0,0,0,0,0,-1,1882,820,34.9631,-1.64842
665,204,21.8292,1.51099,0,0,0,0,0,0,0,-1,1889,820,21.8292,-1.51099
672,204,54.3982,-1.91162,0,0,0,0,0,0,0,-1,1896,820,54.3981,1.91164
679,204,54.359,-1.18976,0,0,0,0,0,0,0,-1,1903,820,54.359,1.18978
686,204,54.2948,-0.434875,-0.0030075,-0.000319853,-0.00112953,9.17986e-05,-0.00341915,-1.22131,0.00231064,0.0253623,1910,820,54.2948,0.434872
693,204,54.0016,0.384155,-0.00276753,-0.000600318,-0.00179791,0.000415282,-0.00378313,-1.0566,0.0026713,0.02568,1917,820,54.0015,-0.384128
700,204,54.0402,1.24438,-0.00247713,-0.000635622,-0.00211489,0.000750254,-0.003863,-0.990707,0.00285843,0.0177816,1924,820,54.0402,-1.24439
707,204,53.9977,2.07977,-0.002391,-0.000556398,-0.00179838,0.000545111,-0.00349251,-1.02123,0.0025297,0.0163018,1931,820,53.9976,-2.07975
714,204,54.0052,2.98328,-0.00211338,7.82302e-05,-0.00150794,0.000846472,-0.00288162,-1.09961,0.00225679,0.025756,1938,820,54.0053,-2.98329
721,204,53.9574,3.78284,-0.0020376,0.000610531,-0.0012202,0.00108703,-0.0025141,-1.1985,0.00213284,0.0229956,1945,820,53.9574,-3.78282
728,204,53.8833,4.5799,-0.00227918,0.00108883,-0.00111112,0.00142236,-0.00261271,-1.27918,0.0023632,0.0138271,1952,820,53.8833,-4.57992
735,204,53.7815,5.43237,-0.00291776,0.00155328,-0.00131416,0.00191094,-0.00327542,-1.30508,0.00302869,0.0173425,1959,820,53.7815,-5.43234
742,204,53.7312,6.15857,-0.00427462,0.00201233,-0.00202612,0.00260873,-0.00487102,-1.28453,0.00438378,0.0335604,1966,820,53.7312,-6.15858
749,204,53.6564,6.87134,-0.00644828,0.00262843,-0.00355721,0.00385639,-0.00767624,-1.2384,0.00677902,0.0492586,1973,820,53.6564,-6.87134
756,204,53.0291,7.77106,0,0,0,0,0,0,0,-1,1980,820,53.0291,-7.77107
763,204,52.4994,9.12,0,0,0,0,0,0,0,-1,1987,820,52.4994,-9.11997
770,204,52.1014,10.515,0,0,0,0,0,0,0,-1,1994,820,52.1014,-10.515
777,204,0,0,0,0,0,0,0,0,0,-1,2001,820,0,0
784,204,0,0,0,0,0,0,0,0,0,-1,2008,820,0,0
791,204,0,0,0,0,0,0,0,0,0,-1,2015,820,0,0
798,204,0,0,0,0,0,0,0,0,0,-1,2022,820,0,0
805,204,0,0,0,0,0,0,0,0,0,-1,2029,820,0,0
812,204,0,0,0,0,0,0,0,0,0,-1,2036,820,0,0
-700,197,0,0,0,0,0,0,0,0,0,-1,524,827,0,0
-693,197,0,0,0,0,0,0,0,0,0,-1,531,827,0,0
-686,197,0,0,0,0,0,0,0,0,0,-1,538,827,0,0
-679,197,0,0,0,0,0,0,0,0,0,-1,545,827,0,0
-672,197,0,0,0,0,0,0,0,0,0,-1,552,827,0,0
-665,197,0,0,0,0,0,0,0,0,0,-1,559,827,0,0
-658,197,-39.9774,5.66638,0,0,0,0,0,0,0,-1,566,827,-39.9774,-5.66637
-651,197,-39.9665,5.23578,0,0,0,0,0,0,0,-1,573,827,-39.9665,-5.23575
-644,197,-38.9225,4.75665,0,0,0,0,0,0,0,-1,580,827,-38.9225,-4.75665
-637,197,-35.9322,6.14551,0,0,0,0,0,0,0,-1,587,827,-35.9322,-6.14552
-630,197,-40.4908,2.45648,0,0,0,0,0,0,0,-1,594,827,-40.4908,-2.45649
-623,197,-38.6499,4.81158,0,0,0,0,0,0,0,-1,601,827,-38.6499,-4.81161
-616,197,-39.8951,5.07434,0,0,0,0,0,0,0,-1,608,827,-39.8951,-5.07436
-609,197,-39.8459,4.41174,0.00819227,0.00765025,-0.00930491,0.0172301,-0.0013876,-0.77084,0.0119761,0.0346327,615,827,-39.8459,-4.41175
-602,197,-39.8939,3.68976,0.00529135,0.00546729,-0.00608914,0.0114691,-0.000710456,-0.792621,0.00789355,0.0199299,622,827,-39.8939,-3.68978
-595,197,-40.009,2.9054,0.0031689,0.00394235,-0.00354114,0.00711782,-6.57211e-06,-0.839787,0.00474741,0.0188621,629,827,-40.0091,-2.90543
-588,197,-40.04,2.04675,0.00162807,0.00305942,-0.00142589,0.00393916,0.000748331,-1.01799,0.00241561,0.0219048,636,827,-40.04,-2.04677
-581,197,-40.0952,1.20764,0.000577549,0.00258969,0.000422754,0.00267491,0.000492336,1.3719,0.00164392,0.0131595,643,827,-40.0952,-1.20764
-574,197,-40.1111,0.401001,-0.000112412,0.00256133,0.00200751,0.00363637,-0.00118746,1.07915,0.0029022,0.0135597,650,827,-40.1111,-0.401
-567,197,-40.0507,-0.383789,-0.000531394,0.00306849,0.00340394,0.00511908,-0.00258198,1.0286,0.00452592,0.0193419,657,827,-40.0507,0.383787
-560,197,-39.953,-1.16827,0,0,0,0,0,0,0,-1,664,827,-39.953,1.16828
-553,197,-33.1771,-1.4881,0,0,0,0,0,0,0,-1,671,827,-33.1771,1.4881
-546,197,-33.0991,-2.06989,0,0,0,0,0,0,0,-1,678,827,-33.0991,2.06991
-539,197,-32.8993,-2.61737,0,0,0,0,0,0,0,-1,685,827,-32.8993,2.61737
-532,197,-16.0519,0.0410156,0,0,0,0,0,0,0,-1,692,827,-16.0519,-0.0410415
-525,197,-35.3785,2.11829,0,0,0,0,0,0,0,-1,699,827,-35.3785,-2.11826
-518,197,-54.8683,0.698608,0,0,0,0,0,0,0,-1,706,827,-54.8684,-0.698612
-511,197,-54.9486,0.596375,0,0,0,0,0,0,0,-1,713,827,-54.9486,-0.596351
-504,197,-55.1942,0.37561,0,0,0,0,0,0,0,-1,720,827,-55.1942,-0.375615
-497,197,-55.203,0.557312,0,0,0,0,0,0,0,-1,727,827,-55.203,-0.557285
-490,197,-55.0773,0.824341,0,0,0,0,0,0,0,-1,734,827,-55.0773,-0.82434
-483,197,-54.9227,1.06775,0,0,0,0,0,0,0,-1,741,827,-54.9227,-1.06778
-476,197,0,0,0,0,0,0,0,0,0,-1,748,827,0,0
-469,197,0,0,0,0,0,0,0,0,0,-1,755,827,0,0
-462,197,0,0,0,0,0,0,0,0,0,-1,762,827,0,0
-455,197,0,0,0,0,0,0,0,0,0,-1,769,827,0,0
-448,197,0,0,0,0,0,0,0,0,0,-1,776,827,0,0
-441,197,0,0,0,0,0,0,0,0,0,-1,783,827,0,0
-434,197,0,0,0,0,0,0,0,0,0,-1,790,827,0,0
-427,197,0,0,0,0,0,0,0,0,0,-1,797,827,0,0
-420,197,0,0,0,0,0,0,0,0,0,-1,804,827,0,0
-413,197,0,0,0,0,0,0,0,0,0,-1,811,827,0,0
-406,197,0,0,0,0,0,0,0,0,0,-1,818,827,0,0
-399,197,0,0,0,0,0,0,0,0,0,-1,825,827,0,0
-392,197,0,0,0,0,0,0,0,0,0,-1,832,827,0,0
-385,197,0,0,0,0,0,0,0,0,0,-1,839,827,0,0
-378,197,0,0,0,0,0,0,0,0,0,-1,846,827,0,0
-371,197,0,0,0,0,0,0,0,0,0,-1,853,827,0,0
-364,197,0,0,0,0,0,0,0,0,0,-1,860,827,0,0
-357,197,0,0,0,0,0,0,0,0,0,-1,867,827,0,0
-350,197,0,0,0,0,0,0,0,0,0,-1,874,827,0,0
-343,197,0,0,0,0,0,0,0,0,0,-1,881,827,0,0
-336,197,0,0,0,0,0,0,0,0,0,-1,888,827,0,0
-329,197,0,0,0,0,0,0,0,0,0,-1,895,827,0,0
-322,197,0,0,0,0,0,0,0,0,0,-1,902,827,0,0
-315,197,0,0,0,0,0,0,0,0,0,-1,909,827,0,0
-308,197,0,0,0,0,0,0,0,0,0,-1,916,827,0,0
-301,197,0,0,0,0,0,0,0,0,0,-1,923,827,0,0
-294,197,0,0,0,0,0,0,0,0,0,-1,930,827,0,0
-287,197,0,0,0,0,0,0,0,0,0,-1,937,827,0,0
-280,197,0,0,0,0,0,0,0,0,0,-1,944,827,0,0
-273,197,0,0,0,0,0,0,0,0,0,-1,951,827,0,0
-266,197,0,0,0,0,0,0,0,0,0,-1,958,827,0,0
-259,197,0,0,0,0,0,0,0,0,0,-1,965,827,0,0
-252,197,0,0,0,0,0,0,0,0,0,-1,972,827,0,0
-245,197,0,0,0,0,0,0,0,0,0,-1,979,827,0,0
-238,197,0,0,0,0,0,0,0,0,0,-1,986,827,0,0
-231,197,0,0,0,0,0,0,0,0,0,-1,993,827,0,0
-224,197,0,0,0,0,0,0,0,0,0,-1,1000,827,0,0
-217,197,0,0,0,0,0,0,0,0,0,-1,1007,827,0,0
-210,197,0,0,0,0,0,0,0,0,0,-1,1014,827,0,0
-203,197,0,0,0,0,0,0,0,0,0,-1,1021,827,0,0
-196,197,0,0,0,0,0,0,0,0,0,-1,1028,827,0,0
-189,197,0,0,0,0,0,0,0,0,0,-1,1035,827,0,0
-182,197,0,0,0,0,0,0,0,0,0,-1,1042,827,0,0
-175,197,0,0,0,0,0,0,0,0,0,-1,1049,827,0,0
-168,197,0,0,0,0,0,0,0,0,0,-1,1056,827,0,0
-161,197,0,0,0,0,0,0,0,0,0,-1,1063,827,0,0
-154,197,0,0,0,0,0,0,0,0,0,-1,1070,827,0,0
-147,197,0,0,0,0,0,0,0,0,0,-1,1077,827,0,0
-140,197,0,0,0,0,0,0,0,0,0,-1,1084,827,0,0
-133,197,0,0,0,0,0,0,0,0,0,-1,1091,827,0,0
-126,197,0,0,0,0,0,0,0,0,0,-1,1098,827,0,0
-119,197,0,0,0,0,0,0,0,0,0,-1,1105,827,0,0
-112,197,0,0,0,0,0,0,0,0,0,-1,1112,827,0,0
-105,197,0,0,0,0,0,0,0,0,0,-1,1119,827,0,0
-98,197,0,0,0,0,0,0,0,0,0,-1,1126,827,0,0
-91,197,0,0,0,0,0,0,0,0,0,-1,1133,827,0,0
-84,197,0,0,0,0,0,0,0,0,0,-1,1140,827,0,0
-77,197,0,0,0,0,0,0,0,0,0,-1,1147,827,0,0
-70,197,0,0,0,0,0,0,0,0,0,-1,1154,827,0,0
-63,197,0,0,0,0,0,0,0,0,0,-1,1161,827,0,0
-56,197,0,0,0,0,0,0,0,0,0,-1,1168,827,0,0
-49,197,0,0,0,0,0,0,0,0,0,-1,1175,827,0,0
-42,197,0,0,0,0,0,0,0,0,0,-1,1182,827,0,0
-35,197,0,0,0,0,0,0,0,0,0,-1,1189,827,0,0
-28,197,0,0,0,0,0,0,0,0,0,-1,1196,827,0,0
-21,197,0,0,0,0,0,0,0,0,0,-1,1203,827,0,0
-14,197,0,0,0,0,0,0,0,0,0,-1,1210,827,0,0
-7,197,0,0,0,0,0,0,0,0,0,-1,1217,827,0,0
0,197,0,0,0,0,0,0,0,0,0,-1,1224,827,0,0
7,197,0,0,0,0,0,0,0,0,0,-1,1231,827,0,0
14,197,0,0,0,0,0,0,0,0,0,-1,1238,827,0,0
21,197,0,0,0,0,0,0,0,0,0,-1,1245,827,0,0
28,197,0,0,0,0,0,0,0,0,0,-1,1252,827,0,0
35,197,0,0,0,0,0,0,0,0,0,-1,1259,827,0,0
42,197,0,0,0,0,0,0,0,0,0,-1,1266,827,0,0
49,197,0,0,0,0,0,0,0,0,0,-1,1273,827,0,0
56,197,0,0,0,0,0,0,0,0,0,-1,1280,827,0,0
63,197,0,0,0,0,0,0,0,0,0,-1,1287,827,0,0
70,197,0,0,0,0,0,0,0,0,0,-1,1294,827,0,0
77,197,0,0,0,0,0,0,0,0,0,-1,1301,827,0,0
84,197,0,0,0,0,0,0,0,0,0,-1,1308,827,0,0
91,197,0,0,0,0,0,0,0,0,0,-1,1315,827,0,0
98,197,0,0,0,0,0,0,0,0,0,-1,1322,827,0,0
105,197,0,0,0,0,0,0,0,0,0,-1,1329,827,0,0
112,197,0,0,0,0,0,0,0,0,0,-1,1336,827,0,0
119,197,0,0,0,0,0,0,0,0,0,-1,1343,827,0,0
126,197,0,0,0,0,0,0,0,0,0,-1,1350,827,0,0
133,197,0,0,0,0,0,0,0,0,0,-1,1357,827,0,0
140,197,0,0,0,0,0,0,0,0,0,-1,1364,827,0,0
147,197,0,0,0,0,0,0,0,0,0,-1,1371,827,0,0
154,197,0,0,0,0,0,0,0,0,0,-1,1378,827,0,0
161,197,0,0,0,0,0,0,0,0,0,-1,1385,827,0,0
168,197,0,0,0,0,0,0,0,0,0,-1,1392,827,0,0
175,197,0,0,0,0,0,0,0,0,0,-1,1399,827,0,0
182,197,0,0,0,0,0,0,0,0,0,-1,1406,827,0,0
189,197,0,0,0,0,0,0,0,0,0,-1,1413,827,0,0
196,197,0,0,0,0,0,0,0,0,0,-1,1420,827,0,0
203,197,0,0,0,0,0,0,0,0,0,-1,1427,827,0,0
210,197,0,0,0,0,0,0,0,0,0,-1,1434,827,0,0
217,197,0,0,0,0,0,0,0,0,0,-1,1441,827,0,0
224,197,0,0,0,0,0,0,0,0,0,-1,1448,827,0,0
231,197,0,0,0,0,0,0,0,0,0,-1,1455,827,0,0
238,197,0,0,0,0,0,0,0,0,0,-1,1462,827,0,0
245,197,0,0,0,0,0,0,0,0,0,-1,1469,827,0,0
252,197,0,0,0,0,0,0,0,0,0,-1,1476,827,0,0
259,197,0,0,0,0,0,0,0,0,0,-1,1483,827,0,0
266,197,0,0,0,0,0,0,0,0,0,-1,1490,827,0,0
273,197,0,0,0,0,0,0,0,0,0,-1,1497,827,0,0
280,197,0,0,0,0,0,0,0,0,0,-1,1504,827,0,0
287,197,0,0,0,0,0,0,0,0,0,-1,1511,827,0,0
294,197,0,0,0,0,0,0,0,0,0,-1,1518,827,0,0
301,197,0,0,0,0,0,0,0,0,0,-1,1525,827,0,0
308,197,0,0,0,0,0,0,0,0,0,-1,1532,827,0,0
315,197,0,0,0,0,0,0,0,0,0,-1,1539,827,0,0
322,197,0,0,0,0,0,0,0,0,0,-1,1546,827,0,0
329,197,0,0,0,0,0,0,0,0,0,-1,1553,827,0,0
336,197,0,0,0,0,0,0,0,0,0,-1,1560,827,0,0
343,197,0,0,0,0,0,0,0,0,0,-1,1567,827,0,0
350,197,0,0,0,0,0,0,0,0,0,-1,1574,827,0,0
357,197,0,0,0,0,0,0,0,0,0,-1,1581,827,0,0
364,197,0,0,0,0,0,0,0,0,0,-1,1588,827,0,0
371,197,0,0,0,0,0,0,0,0,0,-1,1595,827,0,0
378,197,0,0,0,0,0,0,0,0,0,-1,1602,827,0,0
385,197,0,0,0,0,0,0,0,0,0,-1,1609,827,0,0
392,197,0,0,0,0,0,0,0,0,0,-1,1616,827,0,0
399,197,0,0,0,0,0,0,0,0,0,-1,1623,827,0,0
406,197,0,0,0,0,0,0,0,0,0,-1,1630,827,0,0
413,197,0,0,0,0,0,0,0,0,0,-1,1637,827,0,0
420,197,0,0,0,0,0,0,0,0,0,-1,1644,827,0,0
427,197,0,0,0,0,0,0,0,0,0,-1,1651,827,0,0
434,197,0,0,0,0,0,0,0,0,0,-1,1658,827,0,0
441,197,0,0,0,0,0,0,0,0,0,-1,1665,827,0,0
448,197,0,0,0,0,0,0,0,0,0,-1,1672,827,0,0
455,197,0,0,0,0,0,0,0,0,0,-1,1679,827,0,0
462,197,0,0,0,0,0,0,0,0,0,-1,1686,827,0,0
469,197,0,0,0,0,0,0,0,0,0,-1,1693,827,0,0
476,197,0,0,0,0,0,0,0,0,0,-1,1700,827,0,0
483,197,0,0,0,0,0,0,0,0,0,-1,1707,827,0,0
490,197,0,0,0,0,0,0,0,0,0,-1,1714,827,0,0
497,197,0,0,0,0,0,0,0,0,0,-1,1721,827,0,0
504,197,0,0,0,0,0,0,0,0,0,-1,1728,827,0,0
511,197,0,0,0,0,0,0,0,0,0,-1,1735,827,0,0
518,197,0,0,0,0,0,0,0,0,0,-1,1742,827,0,0
525,197,0,0,0,0,0,0,0,0,0,-1,1749,827,0,0
532,197,0,0,0,0,0,0,0,0,0,-1,1756,827,0,0
539,197,0,0,0,0,0,0,0,0,0,-1,1763,827,0,0
546,197,0,0,0,0,0,0,0,0,0,-1,1770,827,0,0
553,197,0,0,0,0,0,0,0,0,0,-1,1777,827,0,0
560,197,0,0,0,0,0,0,0,0,0,-1,1784,827,0,0
567,197,0,0,0,0,0,0,0,0,0,-1,1791,827,0,0
574,197,0,0,0,0,0,0,0,0,0,-1,1798,827,0,0
581,197,0,0,0,0,0,0,0,0,0,-1,1805,827,0,0
588,197,0,0,0,0,0,0,0,0,0,-1,1812,827,0,0
595,197,0,0,0,0,0,0,0,0,0,-1,1819,827,0,0
602,197,71.2834,2.18353,-0.00151048,-0.00229644,-0.00228313,0.00041324,-0.00422016,-0.700172,0.00296082,0.0388539,1826,827,71.2834,-2.18354
609,197,71.1221,2.19385,-0.00148394,-0.000944718,-0.00112453,-5.79307e-05,-0.00237072,-0.903054,0.00156153,0.0401313,1833,827,71.1221,-2.19387
616,197,71.2717,2.25128,-0.00172344,0.000471267,1.55347e-05,0.000471377,-0.00172355,1.56372,0.00133421,0.0388774,1840,827,71.2717,-2.25126
623,197,71.2715,2.26331,-0.00192192,0.00159579,0.00100222,0.00186129,-0.00218742,1.31183,0.00234005,0.0375456,1847,827,71.2715,-2.2633
630,197,71.2113,2.17426,-0.00210168,0.00202217,0.00143599,0.00247294,-0.00255245,1.26663,0.00290153,0.0322223,1854,827,71.2113,-2.17428
637,197,71.1959,2.22076,-0.00248392,0.00159833,0.00111132,0.00188126,-0.00276685,1.3215,0.00269977,0.0294449,1861,827,71.196,-2.22078
644,197,71.1472,2.37268,-0.00275697,0.00102601,0.000684885,0.00114618,-0.00287714,1.39709,0.00239346,0.0445776,1868,827,71.1472,-2.37267
651,197,71.0839,2.38116,0,0,0,0,0,0,0,-1,1875,827,71.0838,-2.38119
658,197,40.4694,3.05927,0,0,0,0,0,0,0,-1,1882,827,40.4694,-3.05926
665,197,14.0618,1.80304,0,0,0,0,0,0,0,-1,1889,827,14.0617,-1.80303
672,197,54.272,-2.20929,0,0,0,0,0,0,0,-1,1896,827,54.272,2.20931
679,197,55.0483,-1.32227,0,0,0,0,0,0,0,-1,1903,827,55.0484,1.32228
686,197,55.1317,-0.277527,-0.00323714,-0.000553324,-0.00122645,-7.7297e-05,-0.00371317,-1.20056,0.00245009,0.0303572,1910,827,55.1317,0.277544
693,197,54.9116,0.61322,-0.00305363,-0.000798947,-0.0019226,0.000302451,-0.00415502,-1.05056,0.00287614,0.0361177,1917,827,54.9117,-0.613199
700,197,54.8632,1.30902,-0.00289626,-0.000881494,-0.00232974,0.000649332,-0.00442709,-0.98946,0.00318994,0.0313966,1924,827,54.8631,-1.30904
707,197,54.8542,2.16907,-0.00297096,-0.000844544,-0.00212816,0.000471211,-0.00428672,-1.01706,0.00302713,0.0105753,1931,827,54.8542,-2.16906
714,197,54.814,2.97998,-0.00268902,-0.000158068,-0.00181957,0.000792818,-0.00363991,-1.08924,0.00272953,0.0133389,1938,827,54.8139,-2.97997
721,197,54.7584,3.8045,-0.00251746,0.000517097,-0.00144893,0.0010978,-0.00309816,-1.18962,0.00251263,0.0133795,1945,827,54.7585,-3.80449
728,197,54.7062,4.61206,-0.00266187,0.00110943,-0.00122174,0.00147062,-0.00302307,-1.28334,0.00264554,0.0113366,1952,827,54.7062,-4.61204
735,197,54.6321,5.44098,-0.00321182,0.00168724,-0.00127972,0.00200138,-0.00352596,-1.33008,0.00323143,0.0119903,1959,827,54.6321,-5.44096
742,197,54.5505,6.29572,-0.00441232,0.00228786,-0.00177908,0.00273095,-0.00485541,-1.32671,0.00443686,0.0224981,1966,827,54.5506,-6.29573
749,197,54.4637,7.13513,-0.006408,0.00305758,-0.00296649,0.00391043,-0.00726085,-1.29085,0.00654572,0.0453503,1973,827,54.4637,-7.13512
756,197,54.0321,8.32898,0,0,0,0,0,0,0,-1,1980,827,54.0321,-8.32901
763,197,53.4546,9.42511,-0.0125795,0.00595567,-0.00872875,0.00941911,-0.016043,-1.19306,0.0148654,0.0459605,1987,827,53.4546,-9.42514
770,197,53.4642,10.2698,0,0,0,0,0,0,0,-1,1994,827,53.4643,-10.2698
777,197,0,0,0,0,0,0,0,0,0,-1,2001,827,0,0
784,197,0,0,0,0,0,0,0,0,0,-1,2008,827,0,0
791,197,0,0,0,0,0,0,0,0,0,-1,2015,827,0,0
798,197,0,0,0,0,0,0,0,0,0,-1,2022,827,0,0
805,197,0,0,0,0,0,0,0,0,0,-1,2029,827,0,0
812,197,0,0,0,0,0,0,0,0,0,-1,2036,827,0,0
-700,190,0,0,0,0,0,0,0,0,0,-1,524,834,0,0
-693,190,0,0,0,0,0,0,0,0,0,-1,531,834,0,0
-686,190,0,0,0,0,0,0,0,0,0,-1,538,834,0,0
-679,190,0,0,0,0,0,0,0,0,0,-1,545,834,0,0
-672,190,0,0,0,0,0,0,0,0,0,-1,552,834,0,0
-665,190,0,0,0,0,0,0,0,0,0,-1,559,834,0,0
-658,190,-41.9736,5.50092,0,0,0,0,0,0,0,-1,566,834,-41.9736,-5.50089
-651,190,-40.1895,4.99677,0,0,0,0,0,0,0,-1,573,834,-40.1894,-4.99677
-644,190,-35.4149,8.88776,0,0,0,0,0,0,0,-1,580,834,-35.4149,-8.88774
-637,190,-40.3998,10.5266,0,0,0,0,0,0,0,-1,587,834,-40.3998,-10.5266
-630,190,-39.7164,6.77704,0,0,0,0,0,0,0,-1,594,834,-39.7164,-6.77701
-623,190,-41.7944,7.48834,0,0,0,0,0,0,0,-1,601,834,-41.7944,-7.48834
-616,190,-41.2784,6.05548,0.0115283,0.0120936,-0.0128085,0.0246226,-0.00100065,-0.79643,0.0167585,0.0472597,608,834,-41.2784,-6.05551
-609,190,-40.6742,4.48749,0.00783407,0.00895269,-0.00879738,0.0172085,-0.000421764,-0.817144,0.0116155,0.0266909,615,834,-40.6742,-4.48752
-602,190,-40.7624,3.74817,0.0048714,0.0063652,-0.00543126,0.0111007,0.000135927,-0.853729,0.00735556,0.0181571,622,834,-40.7624,-3.74815
-595,190,-40.8353,2.9491,0.00256118,0.00443044,-0.00268555,0.00633935,0.000652269,-0.952854,0.00402646,0.0189191,629,834,-40.8353,-2.94912
-588,190,-40.874,2.104,0.000761605,0.00305692,-0.000389219,0.00312112,0.0006974,-1.40731,0.00189163,0.019841,636,834,-40.8739,-2.10399
-581,190,-40.8964,1.27557,-0.000568279,0.00213724,0.00158869,0.00287108,-0.00130212,1.13808,0.0024655,0.0154555,643,834,-40.8964,-1.27556
-574,190,-40.9142,0.453674,-0.00152547,0.00170709,0.00325439,0.00372446,-0.00354285,1.01588,0.00419622,0.0145451,650,834,-40.9142,-0.453656
-567,190,-40.8156,-0.486816,-0.00217607,0.00202529,0.00464054,0.00501847,-0.00516925,0.997939,0.0058821,0.0325624,657,834,-40.8155,0.486811
-560,190,-40.6292,-1.46539,0,0,0,0,0,0,0,-1,664,834,-40.6291,1.4654
-553,190,-33.9625,-1.6355,0,0,0,0,0,0,0,-1,671,834,-33.9625,1.63552
-546,190,-33.7621,-2.04889,0,0,0,0,0,0,0,-1,678,834,-33.7621,2.04886
-539,190,-16.4624,-0.542542,0,0,0,0,0,0,0,-1,685,834,-16.4624,0.542527
-532,190,-21.6292,2.06122,0,0,0,0,0,0,0,-1,692,834,-21.6292,-2.06123
-525,190,-38.9377,1.03369,0,0,0,0,0,0,0,-1,699,834,-38.9377,-1.0337
-518,190,-54.8831,0.661987,0,0,0,0,0,0,0,-1,706,834,-54.883,-0.662001
-511,190,-54.9238,0.601196,0,0,0,0,0,0,0,-1,713,834,-54.9238,-0.601196
-504,190,-55.0667,0.627747,0,0,0,0,0,0,0,-1,720,834,-55.0666,-0.627725
-497,190,-55.202,0.727783,0,0,0,0,0,0,0,-1,727,834,-55.202,-0.72776
-490,190,-55.0943,0.931335,0,0,0,0,0,0,0,-1,734,834,-55.0943,-0.931364
-483,190,0,0,0,0,0,0,0,0,0,-1,741,834,0,0
-476,190,0,0,0,0,0,0,0,0,0,-1,748,834,0,0
-469,190,0,0,0,0,0,0,0,0,0,-1,755,834,0,0
-462,190,0,0,0,0,0,0,0,0,0,-1,762,834,0,0
-455,190,0,0,0,0,0,0,0,0,0,-1,769,834,0,0
-448,190,0,0,0,0,0,0,0,0,0,-1,776,834,0,0
-441,190,0,0,0,0,0,0,0,0,0,-1,783,834,0,0
-434,190,0,0,0,0,0,0,0,0,0,-1,790,834,0,0
-427,190,0,0,0,0,0,0,0,0,0,-1,797,834,0,0
-420,190,0,0,0,0,0,0,0,0,0,-1,804,834,0,0
-413,190,0,0,0,0,0,0,0,0,0,-1,811,834,0,0
-406,190,0,0,0,0,0,0,0,0,0,-1,818,834,0,0
-399,190,0,0,0,0,0,0,0,0,0,-1,825,834,0,0
-392,190,0,0,0,0,0,0,0,0,0,-1,832,834,0,0
-385,190,0,0,0,0,0,0,0,0,0,-1,839,834,0,0
-378,190,0,0,0,0,0,0,0,0,0,-1,846,834,0,0
-371,190,0,0,0,0,0,0,0,0,0,-1,853,834,0,0
-364,190,0,0,0,0,0,0,0,0,0,-1,860,834,0,0
-357,190,0,0,0,0,0,0,0,0,0,-1,867,834,0,0
-350,190,0,0,0,0,0,0,0,0,0,-1,874,834,0,0
-343,190,0,0,0,0,0,0,0,0,0,-1,881,834,0,0
-336,190,0,0,0,0,0,0,0,0,0,-1,888,834,0,0
-329,190,0,0,0,0,0,0,0,0,0,-1,895,834,0,0
-322,190,0,0,0,0,0,0,0,0,0,-1,902,834,0,0
-315,190,0,0,0,0,0,0,0,0,0,-1,909,834,0,0
-308,190,0,0,0,0,0,0,0,0,0,-1,916,834,0,0
-301,190,0,0,0,0,0,0,0,0,0,-1,923,834,0,0
-294,190,0,0,0,0,0,0,0,0,0,-1,930,834,0,0
-287,190,0,0,0,0,0,0,0,0,0,-1,937,834,0,0
-280,190,0,0,0,0,0,0,0,0,0,-1,944,834,0,0
-273,190,0,0,0,0,0,0,0,0,0,-1,951,834,0,0
-266,190,0,0,0,0,0,0,0,0,0,-1,958,834,0,0
-259,190,0,0,0,0,0,0,0,0,0,-1,965,834,0,0
-252,190,0,0,0,0,0,0,0,0,0,-1,972,834,0,0
-245,190,0,0,0,0,0,0,0,0,0,-1,979,834,0,0
-238,190,0,0,0,0,0,0,0,0,0,-1,986,834,0,0
-231,190,0,0,0,0,0,0,0,0,0,-1,993,834,0,0
-224,190,0,0,0,0,0,0,0,0,0,-1,1000,834,0,0
-217,190,0,0,0,0,0,0,0,0,0,-1,1007,834,0,0
-210,190,0,0,0,0,0,0,0,0,0,-1,1014,834,0,0
-203,190,0,0,0,0,0,0,0,0,0,-1,1021,834,0,0
-196,190,0,0,0,0,0,0,0,0,0,-1,1028,834,0,0
-189,190,0,0,0,0,0,0,0,0,0,-1,1035,834,0,0
-182,190,0,0,0,0,0,0,0,0,0,-1,1042,834,0,0
-175,190,0,0,0,0,0,0,0,0,0,-1,1049,834,0,0
-168,190,0,0,0,0,0,0,0,0,0,-1,1056,834,0,0
-161,190,0,0,0,0,0,0,0,0,0,-1,1063,834,0,0
-154,190,0,0,0,0,0,0,0,0,0,-1,1070,834,0,0
-147,190,0,0,0,0,0,0,0,0,0,-1,1077,834,0,0
-140,190,0,0,0,0,0,0,0,0,0,-1,1084,834,0,0
-133,190,0,0,0,0,0,0,0,0,0,-1,1091,834,0,0
-126,190,0,0,0,0,0,0,0,0,0,-1,1098,834,0,0
-119,190,0,0,0,0,0,0,0,0,0,-1,1105,834,0,0
-112,190,0,0,0,0,0,0,0,0,0,-1,1112,834,0,0
-105,190,0,0,0,0,0,0,0,0,0,-1,1119,834,0,0
-98,190,0,0,0,0,0,0,0,0,0,-1,1126,834,0,0
-91,190,0,0,0,0,0,0,0,0,0,-1,1133,834,0,0
-84,190,0,0,0,0,0,0,0,0,0,-1,1140,834,0,0
-77,190,0,0,0,0,0,0,0,0,0,-1,1147,834,0,0
-70,190,0,0,0,0,0,0,0,0,0,-1,1154,834,0,0
-63,190,0,0,0,0,0,0,0,0,0,-1,1161,834,0,0
-56,190,0,0,0,0,0,0,0,0,0,-1,1168,834,0,0
-49,190,0,0,0,0,0,0,0,0,0,-1,1175,834,0,0
-42,190,0,0,0,0,0,0,0,0,0,-1,1182,834,0,0
-35,190,0,0,0,0,0,0,0,0,0,-1,1189,834,0,0
-28,190,0,0,0,0,0,0,0,0,0,-1,1196,834,0,0
-21,190,0,0,0,0,0,0,0,0,0,-1,1203,834,0,0
-14,190,0,0,0,0,0,0,0,0,0,-1,1210,834,0,0
-7,190,0,0,0,0,0,0,0,0,0,-1,1217,834,0,0
0,190,0,0,0,0,0,0,0,0,0,-1,1224,834,0,0
7,190,0,0,0,0,0,0,0,0,0,-1,1231,834,0,0
14,190,0,0,0,0,0,0,0,0,0,-1,1238,834,0,0
21,190,0,0,0,0,0,0,0,0,0,-1,1245,834,0,0
28,190,0,0,0,0,0,0,0,0,0,-1,1252,834,0,0
35,190,0,0,0,0,0,0,0,0,0,-1,1259,834,0,0
42,190,0,0,0,0,0,0,0,0,0,-1,1266,834,0,0
49,190,0,0,0,0,0,0,0,0,0,-1,1273,834,0,0
56,190,0,0,0,0,0,0,0,0,0,-1,1280,834,0,0
63,190,0,0,0,0,0,0,0,0,0,-1,1287,834,0,0
70,190,0,0,0,0,0,0,0,0,0,-1,1294,834,0,0
77,190,0,0,0,0,0,0,0,0,0,-1,1301,834,0,0
84,190,0,0,0,0,0,0,0,0,0,-1,1308,834,0,0
91,190,0,0,0,0,0,0,0,0,0,-1,1315,834,0,0
98,190,0,0,0,0,0,0,0,0,0,-1,1322,834,0,0
105,190,0,0,0,0,0,0,0,0,0,-1,1329,834,0,0
112,190,0,0,0,0,0,0,0,0,0,-1,1336,834,0,0
119,190,0,0,0,0,0,0,0,0,0,-1,1343,834,0,0
126,190,0,0,0,0,0,0,0,0,0,-1,1350,834,0,0
133,190,0,0,0,0,0,0,0,0,0,-1,1357,834,0,0
140,190,0,0,0,0,0,0,0,0,0,-1,1364,834,0,0
147,190,0,0,0,0,0,0,0,0,0,-1,1371,834,0,0
154,190,0,0,0,0,0,0,0,0,0,-1,1378,834,0,0
161,190,0,0,0,0,0,0,0,0,0,-1,1385,834,0,0
168,190,0,0,0,0,0,0,0,0,0,-1,1392,834,0,0
175,190,0,0,0,0,0,0,0,0,0,-1,1399,834,0,0
182,190,0,0,0,0,0,0,0,0,0,-1,1406,834,0,0
189,190,0,0,0,0,0,0,0,0,0,-1,1413,834,0,0
196,190,0,0,0,0,0,0,0,0,0,-1,1420,834,0,0
203,190,0,0,0,0,0,0,0,0,0,-1,1427,834,0,0
210,190,0,0,0,0,0,0,0,0,0,-1,1434,834,0,0
217,190,0,0,0,0,0,0,0,0,0,-1,1441,834,0,0
224,190,0,0,0,0,0,0,0,0,0,-1,1448,834,0,0
231,190,0,0,0,0,0,0,0,0,0,-1,1455,834,0,0
238,190,0,0,0,0,0,0,0,0,0,-1,1462,834,0,0
245,190,0,0,0,0,0,0,0,0,0,-1,1469,834,0,0
252,190,0,0,0,0,0,0,0,0,0,-1,1476,834,0,0
259,190,0,0,0,0,0,0,0,0,0,-1,1483,834,0,0
266,190,0,0,0,0,0,0,0,0,0,-1,1490,834,0,0
273,190,0,0,0,0,0,0,0,0,0,-1,1497,834,0,0
280,190,0,0,0,0,0,0,0,0,0,-1,1504,834,0,0
287,190,0,0,0,0,0,0,0,0,0,-1,1511,834,0,0
294,190,0,0,0,0,0,0,0,0,0,-1,1518,834,0,0
301,190,0,0,0,0,0,0,0,0,0,-1,1525,834,0,0
308,190,0,0,0,0,0,0,0,0,0,-1,1532,834,0,0
315,190,0,0,0,0,0,0,0,0,0,-1,1539,834,0,0
322,190,0,0,0,0,0,0,0,0,0,-1,1546,834,0,0
329,190,0,0,0,0,0,0,0,0,0,-1,1553,834,0,0
336,190,0,0,0,0,0,0,0,0,0,-1,1560,834,0,0
343,190,0,0,0,0,0,0,0,0,0,-1,1567,834,0,0
350,190,0,0,0,0,0,0,0,0,0,-1,1574,834,0,0
357,190,0,0,0,0,0,0,0,0,0,-1,1581,834,0,0
364,190,0,0,0,0,0,0,0,0,0,-1,1588,834,0,0
371,190,0,0,0,0,0,0,0,0,0,-1,1595,834,0,0
378,190,0,0,0,0,0,0,0,0,0,-1,1602,834,0,0
385,190,0,0,0,0,0,0,0,0,0,-1,1609,834,0,0
392,190,0,0,0,0,0,0,0,0,0,-1,1616,834,0,0
399,190,0,0,0,0,0,0,0,0,0,-1,1623,834,0,0
406,190,0,0,0,0,0,0,0,0,0,-1,1630,834,0,0
413,190,0,0,0,0,0,0,0,0,0,-1,1637,834,0,0
420,190,0,0,0,0,0,0,0,0,0,-1,1644,834,0,0
427,190,0,0,0,0,0,0,0,0,0,-1,1651,834,0,0
434,190,0,0,0,0,0,0,0,0,0,-1,1658,834,0,0
441,190,0,0,0,0,0,0,0,0,0,-1,1665,834,0,0
448,190,0,0,0,0,0,0,0,0,0,-1,1672,834,0,0
455,190,0,0,0,0,0,0,0,0,0,-1,1679,834,0,0
462,190,0,0,0,0,0,0,0,0,0,-1,1686,834,0,0
469,190,0,0,0,0,0,0,0,0,0,-1,1693,834,0,0
476,190,0,0,0,0,0,0,0,0,0,-1,1700,834,0,0
483,190,0,0,0,0,0,0,0,0,0,-1,1707,834,0,0
490,190,0,0,0,0,0,0,0,0,0,-1,1714,834,0,0
497,190,0,0,0,0,0,0,0,0,0,-1,1721,834,0,0
504,190,0,0,0,0,0,0,0,0,0,-1,1728,834,0,0
511,190,0,0,0,0,0,0,0,0,0,-1,1735,834,0,0
518,190,0,0,0,0,0,0,0,0,0,-1,1742,834,0,0
525,190,0,0,0,0,0,0,0,0,0,-1,1749,834,0,0
532,190,0,0,0,0,0,0,0,0,0,-1,1756,834,0,0
539,190,0,0,0,0,0,0,0,0,0,-1,1763,834,0,0
546,190,0,0,0,0,0,0,0,0,0,-1,1770,834,0,0
553,190,0,0,0,0,0,0,0,0,0,-1,1777,834,0,0
560,190,0,0,0,0,0,0,0,0,0,-1,1784,834,0,0
567,190,0,0,0,0,0,0,0,0,0,-1,1791,834,0,0
574,190,0,0,0,0,0,0,0,0,0,-1,1798,834,0,0
581,190,0,0,0,0,0,0,0,0,0,-1,1805,834,0,0
588,190,0,0,0,0,0,0,0,0,0,-1,1812,834,0,0
595,190,0,0,0,0,0,0,0,0,0,-1,1819,834,0,0
602,190,71.2075,2.26569,-0.00226673,-0.00370529,-0.00315611,0.000251019,-0.00622304,-0.673361,0.00423485,0.0417982,1826,834,71.2076,-2.2657
609,190,71.1003,2.13605,-0.00205015,-0.00228029,-0.00183872,-0.000322902,-0.00400753,-0.754148,0.00257082,0.0402662,1833,834,71.1003,-2.13605
616,190,71.2644,2.1377,-0.00206647,-0.000772261,-0.000589848,-0.000543771,-0.00229496,-1.20122,0.00138477,0.0378973,1840,834,71.2644,-2.13769
623,190,71.3922,2.22961,-0.00219393,0.000601198,0.000557949,0.000708457,-0.00230119,1.38088,0.00181692,0.0395556,1847,834,71.3922,-2.22962
630,190,71.3882,2.19031,-0.002373,0.00153035,0.00127791,0.0019115,-0.00275415,1.28093,0.00270832,0.0424003,1854,834,71.3881,-2.19032
637,190,71.2875,2.19879,-0.00276075,0.00137348,0.00113835,0.0016662,-0.00305346,1.31911,0.00276386,0.0353605,1861,834,71.2875,-2.19882
644,190,71.153,2.36621,-0.00307733,0.000850863,0.000731591,0.000982691,-0.00320916,1.39252,0.0025314,0.0283364,1868,834,71.1529,-2.36618
651,190,71.079,2.57532,0,0,0,0,0,0,0,-1,1875,834,71.079,-2.57529
658,190,54.0599,3.0943,0,0,0,0,0,0,0,-1,1882,834,54.0599,-3.09428
665,190,25.9916,3.05157,0,0,0,0,0,0,0,-1,1889,834,25.9916,-3.05156
672,190,27.2662,1.70862,0,0,0,0,0,0,0,-1,1896,834,27.2662,-1.70861
679,190,55.9453,-0.995239,0,0,0,0,0,0,0,-1,1903,834,55.9454,0.99524
686,190,55.9751,-0.186462,-0.00350987,-0.000457197,-0.00139667,8.53729e-05,-0.00405244,-1.20026,0.00273053,0.0299336,1910,834,55.975,0.186479
693,190,55.9811,0.641663,-0.00334147,-0.00060566,-0.00205805,0.000497619,-0.00444475,-1.0787,0.0031422,0.0363253,1917,834,55.9811,-0.641658
700,190,55.7294,1.37659,-0.00327506,-0.000696642,-0.00248683,0.000815285,-0.00478699,-1.02453,0.00349493,0.0239269,1924,834,55.7294,-1.37662
707,190,55.6836,2.22412,-0.00347117,-0.000728925,-0.00241643,0.00067828,-0.00487837,-1.04346,0.00350032,0.014937,1931,834,55.6836,-2.22409
714,190,55.6533,3.02625,-0.00315379,-0.000113376,-0.00217272,0.00101816,-0.00428533,-1.09065,0.00324988,0.0132836,1938,834,55.6533,-3.02627
721,190,55.6033,3.83313,-0.00286583,0.000588071,-0.00176864,0.00133305,-0.00361082,-1.17213,0.0029536,0.0119195,1945,834,55.6033,-3.8331
728,190,55.5565,4.64197,-0.00292742,0.00123807,-0.00143362,0.00168378,-0.00337313,-1.26937,0.00297342,0.0136894,1952,834,55.5565,-4.642
735,190,55.5245,5.42731,-0.0033955,0.00189969,-0.00135654,0.00222699,-0.00372279,-1.33405,0.0034711,0.0130472,1959,834,55.5245,-5.42731
742,190,55.3939,6.31445,-0.00448097,0.00260882,-0.0016686,0.0029819,-0.00485405,-1.35083,0.00456692,0.0187279,1966,834,55.3939,-6.31445
749,190,55.272,7.34918,-0.00637132,0.00349115,-0.00256337,0.00411761,-0.00699778,-1.33111,0.00648889,0.04222,1973,834,55.272,-7.34918
756,190,55.0533,8.38782,-0.00867306,0.00479843,-0.0040491,0.00592179,-0.00979642,-1.30017,0.00916636,0.0479146,1980,834,55.0533,-8.38782
763,190,54.8282,9.30542,-0.0126689,0.00652259,-0.00732483,0.00899877,-0.0151451,-1.2448,0.0140892,0.0499099,1987,834,54.8282,-9.3054
770,190,54.7947,10.1494,0,0,0,0,0,0,0,-1,1994,834,54.7947,-10.1494
777,190,51.4365,10.3331,0,0,0,0,0,0,0,-1,2001,834,51.4366,-10.3331
784,190,0,0,0,0,0,0,0,0,0,-1,2008,834,0,0
791,190,0,0,0,0,0,0,0,0,0,-1,2015,834,0,0
798,190,0,0,0,0,0,0,0,0,0,-1,2022,834,0,0
805,190,0,0,0,0,0,0,0,0,0,-1,2029,834,0,0
812,190,0,0,0,0,0,0,0,0,0,-1,2036,834,0,0
-700,183,0,0,0,0,0,0,0,0,0,-1,524,841,0,0
-693,183,0,0,0,0,0,0,0,0,0,-1,531,841,0,0
-686,183,0,0,0,0,0,0,0,0,0,-1,538,841,0,0
-679,183,0,0,0,0,0,0,0,0,0,-1,545,841,0,0
-672,183,0,0,0,0,0,0,0,0,0,-1,552,841,0,0
-665,183,0,0,0,0,0,0,0,0,0,-1,559,841,0,0
-658,183,-56.7401,1.32843,0,0,0,0,0,0,0,-1,566,841,-56.7401,-1.32844
-651,183,-36.1273,9.60504,0,0,0,0,0,0,0,-1,573,841,-36.1273,-9.60503
-644,183,-38.5381,8.53137,0,0,0,0,0,0,0,-1,580,841,-38.5382,-8.53136
-637,183,-41.2306,7.42352,0,0,0,0,0,0,0,-1,587,841,-41.2306,-7.42353
-630,183,-41.4553,8.15369,0,0,0,0,0,0,0,-1,594,841,-41.4553,-8.15366
-623,183,-41.6628,7.10455,0,0,0,0,0,0,0,-1,601,841,-41.6628,-7.10455
-616,183,-41.6024,5.84509,0.0101586,0.0116286,-0.0125848,0.0234998,-0.00171265,-0.814567,0.0162675,0.0398384,608,841,-41.6024,-5.84507
-609,183,-41.5724,4.59119,0.00639033,0.00907483,-0.00770796,0.0155565,-9.13818e-05,-0.871603,0.0104016,0.0185136,615,841,-41.5724,-4.59117
-602,183,-41.6005,3.78253,0.0035307,0.00627684,-0.00430277,0.00942031,0.000387226,-0.939847,0.00615519,0.012119,622,841,-41.6005,-3.78252
-595,183,-41.644,2.96191,0.00118994,0.00411443,-0.00147171,0.00472682,0.000577558,-1.17648,0.00297743,0.0115219,629,841,-41.644,-2.96189
-588,183,-41.6696,2.1358,-0.00070455,0.00245762,0.000899838,0.00269575,-0.000942678,1.31209,0.00218041,0.0139459,636,841,-41.6696,-2.13583
-581,183,-41.744,1.34406,-0.0021701,0.00130229,0.00286749,0.00291824,-0.00378606,1.05762,0.00388152,0.0163596,643,841,-41.7439,-1.34404
-574,183,-41.7493,0.538879,-0.00326202,0.000666606,0.00447728,0.00359152,-0.00618693,0.992119,0.0057115,0.0218813,650,841,-41.7493,-0.53889
-567,183,-41.6662,-0.264587,0,0,0,0,0,0,0,-1,657,841,-41.6662,0.264585
-560,183,-34.0303,-1.05511,0,0,0,0,0,0,0,-1,664,841,-34.0303,1.05511
-553,183,-32.2224,-1.71942,0,0,0,0,0,0,0,-1,671,841,-32.2224,1.71944
-546,183,-27.8053,-1.91199,0,0,0,0,0,0,0,-1,678,841,-27.8053,1.91201
-539,183,-16.8032,-0.417297,0,0,0,0,0,0,0,-1,685,841,-16.8032,0.41732
-532,183,-29.9686,0.953613,0,0,0,0,0,0,0,-1,692,841,-29.9686,-0.953627
-525,183,-53.0594,0.986877,0,0,0,0,0,0,0,-1,699,841,-53.0594,-0.986848
-518,183,-54.9406,0.664856,0,0,0,0,0,0,0,-1,706,841,-54.9405,-0.664882
-511,183,-54.8665,0.664001,0,0,0,0,0,0,0,-1,713,841,-54.8665,-0.663973
-504,183,-55.1251,0.514832,0,0,0,0,0,0,0,-1,720,841,-55.1251,-0.514832
-497,183,-55.1148,0.68042,0,0,0,0,0,0,0,-1,727,841,-55.1148,-0.680422
-490,183,-54.9222,0.876404,0,0,0,0,0,0,0,-1,734,841,-54.9222,-0.876414
-483,183,0,0,0,0,0,0,0,0,0,-1,741,841,0,0
-476,183,0,0,0,0,0,0,0,0,0,-1,748,841,0,0
-469,183,0,0,0,0,0,0,0,0,0,-1,755,841,0,0
-462,183,0,0,0,0,0,0,0,0,0,-1,762,841,0,0
-455,183,0,0,0,0,0,0,0,0,0,-1,769,841,0,0
-448,183,0,0,0,0,0,0,0,0,0,-1,776,841,0,0
-441,183,0,0,0,0,0,0,0,0,0,-1,783,841,0,0
-434,183,0,0,0,0,0,0,0,0,0,-1,790,841,0,0
-427,183,0,0,0,0,0,0,0,0,0,-1,797,841,0,0
-420,183,0,0,0,0,0,0,0,0,0,-1,804,841,0,0
-413,183,0,0,0,0,0,0,0,0,0,-1,811,841,0,0
-406,183,0,0,0,0,0,0,0,0,0,-1,818,841,0,0
-399,183,0,0,0,0,0,0,0,0,0,-1,825,841,0,0
-392,183,0,0,0,0,0,0,0,0,0,-1,832,841,0,0
-385,183,0,0,0,0,0,0,0,0,0,-1,839,841,0,0
-378,183,0,0,0,0,0,0,0,0,0,-1,846,841,0,0
-371,183,0,0,0,0,0,0,0,0,0,-1,853,841,0,0
-364,183,0,0,0,0,0,0,0,0,0,-1,860,841,0,0
-357,183,0,0,0,0,0,0,0,0,0,-1,867,841,0,0
-350,183,0,0,0,0,0,0,0,0,0,-1,874,841,0,0
-343,183,0,0,0,0,0,0,0,0,0,-1,881,841,0,0
-336,183,0,0,0,0,0,0,0,0,0,-1,888,841,0,0
-329,183,0,0,0,0,0,0,0,0,0,-1,895,841,0,0
-322,183,0,0,0,0,0,0,0,0,0,-1,902,841,0,0
-315,183,0,0,0,0,0,0,0,0,0,-1,909,841,0,0
-308,183,0,0,0,0,0,0,0,0,0,-1,916,841,0,0
-301,183,0,0,0,0,0,0,0,0,0,-1,923,841,0,0
-294,183,0,0,0,0,0,0,0,0,0,-1,930,841,0,0
-287,183,0,0,0,0,0,0,0,0,0,-1,937,841,0,0
-280,183,0,0,0,0,0,0,0,0,0,-1,944,841,0,0
-273,183,0,0,0,0,0,0,0,0,0,-1,951,841,0,0
-266,183,0,0,0,0,0,0,0,0,0,-1,958,841,0,0
-259,183,0,0,0,0,0,0,0,0,0,-1,965,841,0,0
-252,183,0,0,0,0,0,0,0,0,0,-1,972,841,0,0
-245,183,0,0,0,0,0,0,0,0,0,-1,979,841,0,0
-238,183,0,0,0,0,0,0,0,0,0,-1,986,841,0,0
-231,183,0,0,0,0,0,0,0,0,0,-1,993,841,0,0
-224,183,0,0,0,0,0,0,0,0,0,-1,1000,841,0,0
-217,183,0,0,0,0,0,0,0,0,0,-1,1007,841,0,0
-210,183,0,0,0,0,0,0,0,0,0,-1,1014,841,0,0
-203,183,0,0,0,0,0,0,0,0,0,-1,1021,841,0,0
-196,183,0,0,0,0,0,0,0,0,0,-1,1028,841,0,0
-189,183,0,0,0,0,0,0,0,0,0,-1,1035,841,0,0
-182,183,0,0,0,0,0,0,0,0,0,-1,1042,841,0,0
-175,183,0,0,0,0,0,0,0,0,0,-1,1049,841,0,0
-168,183,0,0,0,0,0,0,0,0,0,-1,1056,841,0,0
-161,183,0,0,0,0,0,0,0,0,0,-1,1063,841,0,0
-154,183,0,0,0,0,0,0,0,0,0,-1,1070,841,0,0
-147,183,0,0,0,0,0,0,0,0,0,-1,1077,841,0,0
-140,183,0,0,0,0,0,0,0,0,0,-1,1084,841,0,0
-133,183,0,0,0,0,0,0,0,0,0,-1,1091,841,0,0
-126,183,0,0,0,0,0,0,0,0,0,-1,1098,841,0,0
-119,183,0,0,0,0,0,0,0,0,0,-1,1105,841,0,0
-112,183,0,0,0,0,0,0,0,0,0,-1,1112,841,0,0
-105,183,0,0,0,0,0,0,0,0,0,-1,1119,841,0,0
-98,183,0,0,0,0,0,0,0,0,0,-1,1126,841,0,0
-91,183,0,0,0,0,0,0,0,0,0,-1,1133,841,0,0
-84,183,0,0,0,0,0,0,0,0,0,-1,1140,841,0,0
-77,183,0,0,0,0,0,0,0,0,0,-1,1147,841,0,0
-70,183,0,0,0,0,0,0,0,0,0,-1,1154,841,0,0
-63,183,0,0,0,0,0,0,0,0,0,-1,1161,841,0,0
-56,183,0,0,0,0,0,0,0,0,0,-1,1168,841,0,0
-49,183,0,0,0,0,0,0,0,0,0,-1,1175,841,0,0
-42,183,0,0,0,0,0,0,0,0,0,-1,1182,841,0,0
-35,183,0,0,0,0,0,0,0,0,0,-1,1189,841,0,0
-28,183,0,0,0,0,0,0,0,0,0,-1,1196,841,0,0
-21,183,0,0,0,0,0,0,0,0,0,-1,1203,841,0,0
-14,183,0,0,0,0,0,0,0,0,0,-1,1210,841,0,0
-7,183,0,0,0,0,0,0,0,0,0,-1,1217,841,0,0
0,183,0,0,0,0,0,0,0,0,0,-1,1224,841,0,0
7,183,0,0,0,0,0,0,0,0,0,-1,1231,841,0,0
14,183,0,0,0,0,0,0,0,0,0,-1,1238,841,0,0
21,183,0,0,0,0,0,0,0,0,0,-1,1245,841,0,0
28,183,0,0,0,0,0,0,0,0,0,-1,1252,841,0,0
35,183,0,0,0,0,0,0,0,0,0,-1,1259,841,0,0
42,183,0,0,0,0,0,0,0,0,0,-1,1266,841,0,0
49,183,0,0,0,0,0,0,0,0,0,-1,1273,841,0,0
56,183,0,0,0,0,0,0,0,0,0,-1,1280,841,0,0
63,183,0,0,0,0,0,0,0,0,0,-1,1287,841,0,0
70,183,0,0,0,0,0,0,0,0,0,-1,1294,841,0,0
77,183,0,0,0,0,0,0,0,0,0,-1,1301,841,0,0
84,183,0,0,0,0,0,0,0,0,0,-1,1308,841,0,0
91,183,0,0,0,0,0,0,0,0,0,-1,1315,841,0,0
98,183,0,0,0,0,0,0,0,0,0,-1,1322,841,0,0
105,183,0,0,0,0,0,0,0,0,0,-1,1329,841,0,0
112,183,0,0,0,0,0,0,0,0,0,-1,1336,841,0,0
119,183,0,0,0,0,0,0,0,0,0,-1,1343,841,0,0
126,183,0,0,0,0,0,0,0,0,0,-1,1350,841,0,0
133,183,0,0,0,0,0,0,0,0,0,-1,1357,841,0,0
140,183,0,0,0,0,0,0,0,0,0,-1,1364,841,0,0
147,183,0,0,0,0,0,0,0,0,0,-1,1371,841,0,0
154,183,0,0,0,0,0,0,0,0,0,-1,1378,841,0,0
161,183,0,0,0,0,0,0,0,0,0,-1,1385,841,0,0
168,183,0,0,0,0,0,0,0,0,0,-1,1392,841,0,0
175,183,0,0,0,0,0,0,0,0,0,-1,1399,841,0,0
182,183,0,0,0,0,0,0,0,0,0,-1,1406,841,0,0
189,183,0,0,0,0,0,0,0,0,0,-1,1413,841,0,0
196,183,0,0,0,0,0,0,0,0,0,-1,1420,841,0,0
203,183,0,0,0,0,0,0,0,0,0,-1,1427,841,0,0
210,183,0,0,0,0,0,0,0,0,0,-1,1434,841,0,0
217,183,0,0,0,0,0,0,0,0,0,-1,1441,841,0,0
224,183,0,0,0,0,0,0,0,0,0,-1,1448,841,0,0
231,183,0,0,0,0,0,0,0,0,0,-1,1455,841,0,0
238,183,0,0,0,0,0,0,0,0,0,-1,1462,841,0,0
245,183,0,0,0,0,0,0,0,0,0,-1,1469,841,0,0
252,183,0,0,0,0,0,0,0,0,0,-1,1476,841,0,0
259,183,0,0,0,0,0,0,0,0,0,-1,1483,841,0,0
266,183,0,0,0,0,0,0,0,0,0,-1,1490,841,0,0
273,183,0,0,0,0,0,0,0,0,0,-1,1497,841,0,0
280,183,0,0,0,0,0,0,0,0,0,-1,1504,841,0,0
287,183,0,0,0,0,0,0,0,0,0,-1,1511,841,0,0
294,183,0,0,0,0,0,0,0,0,0,-1,1518,841,0,0
301,183,0,0,0,0,0,0,0,0,0,-1,1525,841,0,0
308,183,0,0,0,0,0,0,0,0,0,-1,1532,841,0,0
315,183,0,0,0,0,0,0,0,0,0,-1,1539,841,0,0
322,183,0,0,0,0,0,0,0,0,0,-1,1546,841,0,0
329,183,0,0,0,0,0,0,0,0,0,-1,1553,841,0,0
336,183,0,0,0,0,0,0,0,0,0,-1,1560,841,0,0
343,183,0,0,0,0,0,0,0,0,0,-1,1567,841,0,0
350,183,0,0,0,0,0,0,0,0,0,-1,1574,841,0,0
357,183,0,0,0,0,0,0,0,0,0,-1,1581,841,0,0
364,183,0,0,0,0,0,0,0,0,0,-1,1588,841,0,0
371,183,0,0,0,0,0,0,0,0,0,-1,1595,841,0,0
378,183,0,0,0,0,0,0,0,0,0,-1,1602,841,0,0
385,183,0,0,0,0,0,0,0,0,0,-1,1609,841,0,0
392,183,0,0,0,0,0,0,0,0,0,-1,1616,841,0,0
399,183,0,0,0,0,0,0,0,0,0,-1,1623,841,0,0
406,183,0,0,0,0,0,0,0,0,0,-1,1630,841,0,0
413,183,0,0,0,0,0,0,0,0,0,-1,1637,841,0,0
420,183,0,0,0,0,0,0,0,0,0,-1,1644,841,0,0
427,183,0,0,0,0,0,0,0,0,0,-1,1651,841,0,0
434,183,0,0,0,0,0,0,0,0,0,-1,1658,841,0,0
441,183,0,0,0,0,0,0,0,0,0,-1,1665,841,0,0
448,183,0,0,0,0,0,0,0,0,0,-1,1672,841,0,0
455,183,0,0,0,0,0,0,0,0,0,-1,1679,841,0,0
462,183,0,0,0,0,0,0,0,0,0,-1,1686,841,0,0
469,183,0,0,0,0,0,0,0,0,0,-1,1693,841,0,0
476,183,0,0,0,0,0,0,0,0,0,-1,1700,841,0,0
483,183,0,0,0,0,0,0,0,0,0,-1,1707,841,0,0
490,183,0,0,0,0,0,0,0,0,0,-1,1714,841,0,0
497,183,0,0,0,0,0,0,0,0,0,-1,1721,841,0,0
504,183,0,0,0,0,0,0,0,0,0,-1,1728,841,0,0
511,183,0,0,0,0,0,0,0,0,0,-1,1735,841,0,0
518,183,0,0,0,0,0,0,0,0,0,-1,1742,841,0,0
525,183,0,0,0,0,0,0,0,0,0,-1,1749,841,0,0
532,183,0,0,0,0,0,0,0,0,0,-1,1756,841,0,0
539,183,0,0,0,0,0,0,0,0,0,-1,1763,841,0,0
546,183,0,0,0,0,0,0,0,0,0,-1,1770,841,0,0
553,183,0,0,0,0,0,0,0,0,0,-1,1777,841,0,0
560,183,0,0,0,0,0,0,0,0,0,-1,1784,841,0,0
567,183,0,0,0,0,0,0,0,0,0,-1,1791,841,0,0
574,183,0,0,0,0,0,0,0,0,0,-1,1798,841,0,0
581,183,0,0,0,0,0,0,0,0,0,-1,1805,841,0,0
588,183,0,0,0,0,0,0,0,0,0,-1,1812,841,0,0
595,183,0,0,0,0,0,0,0,0,0,-1,1819,841,0,0
602,183,0,0,0,0,0,0,0,0,0,-1,1826,841,0,0
609,183,71.2178,2.14441,-0.00283669,-0.00352223,-0.00271776,-0.000440171,-0.00591875,-0.722668,0.0038076,0.0395456,1833,841,71.2178,-2.14439
616,183,71.1368,2.12708,-0.00249173,-0.00194594,-0.00135282,-0.000838766,-0.0035989,-0.884923,0.00217429,0.0382128,1840,841,71.1369,-2.12706
623,183,71.3486,2.13098,-0.00238971,-0.000434733,-8.64856e-05,-0.000430914,-0.00239353,-1.52667,0.00147321,0.041216,1847,841,71.3487,-2.13095
630,183,71.3713,2.11481,-0.00240996,0.000912452,0.000871476,0.00112717,-0.00262467,1.32923,0.0022229,0.0417276,1854,841,71.3714,-2.11482
637,183,71.2587,2.13544,-0.002731,0.00121259,0.000988454,0.00144647,-0.00296488,1.33845,0.0025967,0.035086,1861,841,71.2587,-2.13543
644,183,71.0601,2.31183,-0.00309877,0.000910354,0.000648834,0.00101275,-0.00320116,1.41428,0.00253991,0.0288751,1868,841,71.0601,-2.31183
651,183,71.0884,2.42548,-0.0032501,0.000615634,0.000299472,0.000638696,-0.00327316,1.49394,0.00242323,0.0326588,1875,841,71.0884,-2.42545
658,183,71.162,2.50311,0,0,0,0,0,0,0,-1,1882,841,71.1619,-2.5031
665,183,38.4337,2.66992,0,0,0,0,0,0,0,-1,1889,841,38.4337,-2.6699
672,183,29.168,1.54572,0,0,0,0,0,0,0,-1,1896,841,29.168,-1.54574
679,183,56.8372,-0.820557,0,0,0,0,0,0,0,-1,1903,841,56.8372,0.820566
686,183,56.8257,-0.0875854,-0.00344959,-3.39984e-05,-0.00167048,0.000647157,-0.00413074,-1.18362,0.00299296,0.0386758,1910,841,56.8257,0.0875608
693,183,56.7594,0.613831,-0.00327639,-0.000113549,-0.0022717,0.00107297,-0.00446291,-1.08946,0.00339001,0.0361849,1917,841,56.7594,-0.613815
700,183,56.4778,1.44012,0,0,0,0,0,0,0,-1,1924,841,56.4778,-1.44012
707,183,56.4999,2.25977,-0.00352941,-0.000419411,-0.00273568,0.00117233,-0.00512115,-1.04383,0.00386461,0.0145051,1931,841,56.4999,-2.25975
714,183,56.5061,3.06543,-0.00322433,5.72071e-05,-0.00259866,0.00148974,-0.00465686,-1.06699,0.00370244,0.0173861,1938,841,56.5062,-3.06541
721,183,56.4406,3.88049,-0.00293684,0.000717484,-0.00215609,0.00171649,-0.00393585,-1.1369,0.00334618,0.0163989,1945,841,56.4405,-3.8805
728,183,56.3699,4.67926,-0.00304565,0.0014006,-0.00168604,0.00196764,-0.00361269,-1.24637,0.00326814,0.0147052,1952,841,56.3699,-4.67929
735,183,56.3441,5.46814,-0.00353968,0.00214827,-0.00143202,0.00248846,-0.00387987,-1.33756,0.00370589,0.0136316,1959,841,56.3441,-5.46813
742,183,56.3077,6.30988,-0.00463865,0.00299818,-0.00153106,0.0032937,-0.00493417,-1.38013,0.00478173,0.013856,1966,841,56.3077,-6.30988
749,183,56.3037,7.49933,-0.00655713,0.0040358,-0.00213071,0.00444832,-0.00696964,-1.37956,0.00664552,0.0362867,1973,841,56.3037,-7.49935
756,183,56.1475,8.54199,-0.00897503,0.00546641,-0.00326793,0.00617148,-0.0096801,-1.3583,0.00922634,0.0492469,1980,841,56.1475,-8.54198
763,183,55.9149,9.33643,0,0,0,0,0,0,0,-1,1987,841,55.915,-9.33642
770,183,51.5659,9.50665,0,0,0,0,0,0,0,-1,1994,841,51.5659,-9.50663
777,183,42.1948,7.22906,0,0,0,0,0,0,0,-1,2001,841,42.1948,-7.22905
784,183,0,0,0,0,0,0,0,0,0,-1,2008,841,0,0
791,183,0,0,0,0,0,0,0,0,0,-1,2015,841,0,0
798,183,0,0,0,0,0,0,0,0,0,-1,2022,841,0,0
805,183,0,0,0,0,0,0,0,0,0,-1,2029,841,0,0
812,183,0,0,0,0,0,0,0,0,0,-1,2036,841,0,0
-700,176,0,0,0,0,0,0,0,0,0,-1,524,848,0,0
-693,176,0,0,0,0,0,0,0,0,0,-1,531,848,0,0
-686,176,0,0,0,0,0,0,0,0,0,-1,538,848,0,0
-679,176,0,0,0,0,0,0,0,0,0,-1,545,848,0,0
-672,176,0,0,0,0,0,0,0,0,0,-1,552,848,0,0
-665,176,-59.6962,8.75854,0,0,0,0,0,0,0,-1,559,848,-59.6962,-8.75853
-658,176,-59.6349,7.95142,0,0,0,0,0,0,0,-1,566,848,-59.6349,-7.95144
-651,176,-40.3313,9.35437,0,0,0,0,0,0,0,-1,573,848,-40.3313,-9.35437
-644,176,-43.1446,7.86438,0,0,0,0,0,0,0,-1,580,848,-43.1446,-7.86439
-637,176,-41.3419,8.49255,0,0,0,0,0,0,0,-1,587,848,-41.3419,-8.49257
-630,176,-42.1388,7.55127,0,0,0,0,0,0,0,-1,594,848,-42.1388,-7.55129
-623,176,-42.246,6.62457,0.0152532,0.0128186,-0.0199302,0.0340032,-0.00593139,-0.754897,0.0248827,0.0428597,601,848,-42.246,-6.62459
-616,176,-42.3253,5.5274,0.00858162,0.0101863,-0.0119528,0.0213636,-0.00259569,-0.818911,0.0151818,0.0285556,608,848,-42.3253,-5.52739
-609,176,-42.3951,4.60968,0.0044993,0.00848158,-0.0064802,0.0132696,-0.000288763,-0.934452,0.00894423,0.0128781,615,848,-42.3951,-4.6097
-602,176,-42.4307,3.78668,0.00180696,0.00560778,-0.00305657,0.00730656,0.000108181,-1.06353,0.00483539,0.013256,622,848,-42.4307,-3.78666
-595,176,-42.4792,2.97638,-0.000528155,0.00336355,-0.000136739,0.00336835,-0.000532954,-1.53572,0.00244267,0.0123584,629,848,-42.4792,-2.9764
-588,176,-42.4968,2.1875,-0.00253574,0.00161152,0.0023432,0.00266687,-0.00359109,1.14762,0.00362614,0.0140296,636,848,-42.4968,-2.18752
-581,176,-42.5894,1.4469,-0.00420657,0.000376148,0.00442684,0.00306949,-0.00689991,1.02421,0.00589575,0.0140536,643,848,-42.5894,-1.44687
-574,176,-42.7031,0.666138,-0.00557626,-0.000318707,0.00614718,0.00373819,-0.00963316,0.98745,0.00796611,0.0307508,650,848,-42.7031,-0.666124
-567,176,-42.6873,-0.267944,0,0,0,0,0,0,0,-1,657,848,-42.6873,0.26795
-560,176,-31.6935,-0.0994873,0,0,0,0,0,0,0,-1,664,848,-31.6936,0.0994584
-553,176,-29.4605,-1.50214,0,0,0,0,0,0,0,-1,671,848,-29.4605,1.50211
-546,176,-16.657,-0.403198,0,0,0,0,0,0,0,-1,678,848,-16.657,0.403182
-539,176,-22.7061,1.48657,0,0,0,0,0,0,0,-1,685,848,-22.7061,-1.48657
-532,176,-38.8326,1.29749,0,0,0,0,0,0,0,-1,692,848,-38.8326,-1.29747
-525,176,-55.0286,0.488464,0,0,0,0,0,0,0,-1,699,848,-55.0286,-0.488482
-518,176,-54.9363,0.728088,0,0,0,0,0,0,0,-1,706,848,-54.9363,-0.728111
-511,176,-54.8726,0.825928,0,0,0,0,0,0,0,-1,713,848,-54.8726,-0.825909
-504,176,-55.1446,0.279541,0,0,0,0,0,0,0,-1,720,848,-55.1446,-0.279559
-497,176,-55.0899,0.430969,0,0,0,0,0,0,0,-1,727,848,-55.0899,-0.430994
-490,176,-54.8107,0.75354,0,0,0,0,0,0,0,-1,734,848,-54.8107,-0.753527
-483,176,0,0,0,0,0,0,0,0,0,-1,741,848,0,0
-476,176,0,0,0,0,0,0,0,0,0,-1,748,848,0,0
-469,176,0,0,0,0,0,0,0,0,0,-1,755,848,0,0
-462,176,0,0,0,0,0,0,0,0,0,-1,762,848,0,0
-455,176,0,0,0,0,0,0,0,0,0,-1,769,848,0,0
-448,176,0,0,0,0,0,0,0,0,0,-1,776,848,0,0
-441,176,0,0,0,0,0,0,0,0,0,-1,783,848,0,0
-434,176,0,0,0,0,0,0,0,0,0,-1,790,848,0,0
-427,176,0,0,0,0,0,0,0,0,0,-1,797,848,0,0
-420,176,0,0,0,0,0,0,0,0,0,-1,804,848,0,0
-413,176,0,0,0,0,0,0,0,0,0,-1,811,848,0,0
-406,176,0,0,0,0,0,0,0,0,0,-1,818,848,0,0
-399,176,0,0,0,0,0,0,0,0,0,-1,825,848,0,0
-392,176,0,0,0,0,0,0,0,0,0,-1,832,848,0,0
-385,176,0,0,0,0,0,0,0,0,0,-1,839,848,0,0
-378,176,0,0,0,0,0,0,0,0,0,-1,846,848,0,0
-371,176,0,0,0,0,0,0,0,0,0,-1,853,848,0,0
-364,176,0,0,0,0,0,0,0,0,0,-1,860,848,0,0
-357,176,0,0,0,0,0,0,0,0,0,-1,867,848,0,0
-350,176,0,0,0,0,0,0,0,0,0,-1,874,848,0,0
-343,176,0,0,0,0,0,0,0,0,0,-1,881,848,0,0
-336,176,0,0,0,0,0,0,0,0,0,-1,888,848,0,0
-329,176,0,0,0,0,0,0,0,0,0,-1,895,848,0,0
-322,176,0,0,0,0,0,0,0,0,0,-1,902,848,0,0
-315,176,0,0,0,0,0,0,0,0,0,-1,909,848,0,0
-308,176,0,0,0,0,0,0,0,0,0,-1,916,848,0,0
-301,176,0,0,0,0,0,0,0,0,0,-1,923,848,0,0
-294,176,0,0,0,0,0,0,0,0,0,-1,930,848,0,0
-287,176,0,0,0,0,0,0,0,0,0,-1,937,848,0,0
-280,176,0,0,0,0,0,0,0,0,0,-1,944,848,0,0
-273,176,0,0,0,0,0,0,0,0,0,-1,951,848,0,0
-266,176,0,0,0,0,0,0,0,0,0,-1,958,848,0,0
-259,176,0,0,0,0,0,0,0,0,0,-1,965,848,0,0
-252,176,0,0,0,0,0,0,0,0,0,-1,972,848,0,0
-245,176,0,0,0,0,0,0,0,0,0,-1,979,848,0,0
-238,176,0,0,0,0,0,0,0,0,0,-1,986,848,0,0
-231,176,0,0,0,0,0,0,0,0,0,-1,993,848,0,0
-224,176,0,0,0,0,0,0,0,0,0,-1,1000,848,0,0
-217,176,0,0,0,0,0,0,0,0,0,-1,1007,848,0,0
-210,176,0,0,0,0,0,0,0,0,0,-1,1014,848,0,0
-203,176,0,0,0,0,0,0,0,0,0,-1,1021,848,0,0
-196,176,0,0,0,0,0,0,0,0,0,-1,1028,848,0,0
-189,176,0,0,0,0,0,0,0,0,0,-1,1035,848,0,0
-182,176,0,0,0,0,0,0,0,0,0,-1,1042,848,0,0
-175,176,0,0,0,0,0,0,0,0,0,-1,1049,848,0,0
-168,176,0,0,0,0,0,0,0,0,0,-1,1056,848,0,0
-161,176,0,0,0,0,0,0,0,0,0,-1,1063,848,0,0
-154,176,0,0,0,0,0,0,0,0,0,-1,1070,848,0,0
-147,176,0,0,0,0,0,0,0,0,0,-1,1077,848,0,0
-140,176,0,0,0,0,0,0,0,0,0,-1,1084,848,0,0
-133,176,0,0,0,0,0,0,0,0,0,-1,1091,848,0,0
-126,176,0,0,0,0,0,0,0,0,0,-1,1098,848,0,0
-119,176,0,0,0,0,0,0,0,0,0,-1,1105,848,0,0
-112,176,0,0,0,0,0,0,0,0,0,-1,1112,848,0,0
-105,176,0,0,0,0,0,0,0,0,0,-1,1119,848,0,0
-98,176,0,0,0,0,0,0,0,0,0,-1,1126,848,0,0
-91,176,0,0,0,0,0,0,0,0,0,-1,1133,848,0,0
-84,176,0,0,0,0,0,0,0,0,0,-1,1140,848,0,0
-77,176,0,0,0,0,0,0,0,0,0,-1,1147,848,0,0
-70,176,0,0,0,0,0,0,0,0,0,-1,1154,848,0,0
-63,176,0,0,0,0,0,0,0,0,0,-1,1161,848,0,0
-56,176,0,0,0,0,0,0,0,0,0,-1,1168,848,0,0
-49,176,0,0,0,0,0,0,0,0,0,-1,1175,848,0,0
-42,176,0,0,0,0,0,0,0,0,0,-1,1182,848,0,0
-35,176,0,0,0,0,0,0,0,0,0,-1,1189,848,0,0
-28,176,0,0,0,0,0,0,0,0,0,-1,1196,848,0,0
-21,176,0,0,0,0,0,0,0,0,0,-1,1203,848,0,0
-14,176,0,0,0,0,0,0,0,0,0,-1,1210,848,0,0
-7,176,0,0,0,0,0,0,0,0,0,-1,1217,848,0,0
0,176,0,0,0,0,0,0,0,0,0,-1,1224,848,0,0
7,176,0,0,0,0,0,0,0,0,0,-1,1231,848,0,0
14,176,0,0,0,0,0,0,0,0,0,-1,1238,848,0,0
21,176,0,0,0,0,0,0,0,0,0,-1,1245,848,0,0
28,176,0,0,0,0,0,0,0,0,0,-1,1252,848,0,0
35,176,0,0,0,0,0,0,0,0,0,-1,1259,848,0,0
42,176,0,0,0,0,0,0,0,0,0,-1,1266,848,0,0
49,176,0,0,0,0,0,0,0,0,0,-1,1273,848,0,0
56,176,0,0,0,0,0,0,0,0,0,-1,1280,848,0,0
63,176,0,0,0,0,0,0,0,0,0,-1,1287,848,0,0
70,176,0,0,0,0,0,0,0,0,0,-1,1294,848,0,0
77,176,0,0,0,0,0,0,0,0,0,-1,1301,848,0,0
84,176,0,0,0,0,0,0,0,0,0,-1,1308,848,0,0
91,176,0,0,0,0,0,0,0,0,0,-1,1315,848,0,0
98,176,0,0,0,0,0,0,0,0,0,-1,1322,848,0,0
105,176,0,0,0,0,0,0,0,0,0,-1,1329,848,0,0
112,176,0,0,0,0,0,0,0,0,0,-1,1336,848,0,0
119,176,0,0,0,0,0,0,0,0,0,-1,1343,848,0,0
126,176,0,0,0,0,0,0,0,0,0,-1,1350,848,0,0
133,176,0,0,0,0,0,0,0,0,0,-1,1357,848,0,0
140,176,0,0,0,0,0,0,0,0,0,-1,1364,848,0,0
147,176,0,0,0,0,0,0,0,0,0,-1,1371,848,0,0
154,176,0,0,0,0,0,0,0,0,0,-1,1378,848,0,0
161,176,0,0,0,0,0,0,0,0,0,-1,1385,848,0,0
168,176,0,0,0,0,0,0,0,0,0,-1,1392,848,0,0
175,176,0,0,0,0,0,0,0,0,0,-1,1399,848,0,0
182,176,0,0,0,0,0,0,0,0,0,-1,1406,848,0,0
189,176,0,0,0,0,0,0,0,0,0,-1,1413,848,0,0
196,176,0,0,0,0,0,0,0,0,0,-1,1420,848,0,0
203,176,0,0,0,0,0,0,0,0,0,-1,1427,848,0,0
210,176,0,0,0,0,0,0,0,0,0,-1,1434,848,0,0
217,176,0,0,0,0,0,0,0,0,0,-1,1441,848,0,0
224,176,0,0,0,0,0,0,0,0,0,-1,1448,848,0,0
231,176,0,0,0,0,0,0,0,0,0,-1,1455,848,0,0
238,176,0,0,0,0,0,0,0,0,0,-1,1462,848,0,0
245,176,0,0,0,0,0,0,0,0,0,-1,1469,848,0,0
252,176,0,0,0,0,0,0,0,0,0,-1,1476,848,0,0
259,176,0,0,0,0,0,0,0,0,0,-1,1483,848,0,0
266,176,0,0,0,0,0,0,0,0,0,-1,1490,848,0,0
273,176,0,0,0,0,0,0,0,0,0,-1,1497,848,0,0
280,176,0,0,0,0,0,0,0,0,0,-1,1504,848,0,0
287,176,0,0,0,0,0,0,0,0,0,-1,1511,848,0,0
294,176,0,0,0,0,0,0,0,0,0,-1,1518,848,0,0
301,176,0,0,0,0,0,0,0,0,0,-1,1525,848,0,0
308,176,0,0,0,0,0,0,0,0,0,-1,1532,848,0,0
315,176,0,0,0,0,0,0,0,0,0,-1,1539,848,0,0
322,176,0,0,0,0,0,0,0,0,0,-1,1546,848,0,0
329,176,0,0,0,0,0,0,0,0,0,-1,1553,848,0,0
336,176,0,0,0,0,0,0,0,0,0,-1,1560,848,0,0
343,176,0,0,0,0,0,0,0,0,0,-1,1567,848,0,0
350,176,0,0,0,0,0,0,0,0,0,-1,1574,848,0,0
357,176,0,0,0,0,0,0,0,0,0,-1,1581,848,0,0
364,176,0,0,0,0,0,0,0,0,0,-1,1588,848,0,0
371,176,0,0,0,0,0,0,0,0,0,-1,1595,848,0,0
378,176,0,0,0,0,0,0,0,0,0,-1,1602,848,0,0
385,176,0,0,0,0,0,0,0,0,0,-1,1609,848,0,0
392,176,0,0,0,0,0,0,0,0,0,-1,1616,848,0,0
399,176,0,0,0,0,0,0,0,0,0,-1,1623,848,0,0
406,176,0,0,0,0,0,0,0,0,0,-1,1630,848,0,0
413,176,0,0,0,0,0,0,0,0,0,-1,1637,848,0,0
420,176,0,0,0,0,0,0,0,0,0,-1,1644,848,0,0
427,176,0,0,0,0,0,0,0,0,0,-1,1651,848,0,0
434,176,0,0,0,0,0,0,0,0,0,-1,1658,848,0,0
441,176,0,0,0,0,0,0,0,0,0,-1,1665,848,0,0
448,176,0,0,0,0,0,0,0,0,0,-1,1672,848,0,0
455,176,0,0,0,0,0,0,0,0,0,-1,1679,848,0,0
462,176,0,0,0,0,0,0,0,0,0,-1,1686,848,0,0
469,176,0,0,0,0,0,0,0,0,0,-1,1693,848,0,0
476,176,0,0,0,0,0,0,0,0,0,-1,1700,848,0,0
483,176,0,0,0,0,0,0,0,0,0,-1,1707,848,0,0
490,176,0,0,0,0,0,0,0,0,0,-1,1714,848,0,0
497,176,0,0,0,0,0,0,0,0,0,-1,1721,848,0,0
504,176,0,0,0,0,0,0,0,0,0,-1,1728,848,0,0
511,176,0,0,0,0,0,0,0,0,0,-1,1735,848,0,0
518,176,0,0,0,0,0,0,0,0,0,-1,1742,848,0,0
525,176,0,0,0,0,0,0,0,0,0,-1,1749,848,0,0
532,176,0,0,0,0,0,0,0,0,0,-1,1756,848,0,0
539,176,0,0,0,0,0,0,0,0,0,-1,1763,848,0,0
546,176,0,0,0,0,0,0,0,0,0,-1,1770,848,0,0
553,176,0,0,0,0,0,0,0,0,0,-1,1777,848,0,0
560,176,0,0,0,0,0,0,0,0,0,-1,1784,848,0,0
567,176,0,0,0,0,0,0,0,0,0,-1,1791,848,0,0
574,176,0,0,0,0,0,0,0,0,0,-1,1798,848,0,0
581,176,0,0,0,0,0,0,0,0,0,-1,1805,848,0,0
588,176,0,0,0,0,0,0,0,0,0,-1,1812,848,0,0
595,176,0,0,0,0,0,0,0,0,0,-1,1819,848,0,0
602,176,0,0,0,0,0,0,0,0,0,-1,1826,848,0,0
609,176,71.2384,2.23041,-0.00375749,-0.00450718,-0.00357619,-0.000536558,-0.00772812,-0.733181,0.00498287,0.038916,1833,848,71.2384,-2.23043
616,176,71.1453,2.01532,-0.00311205,-0.00275786,-0.00208976,-0.000837703,-0.00503221,-0.82767,0.00311337,0.0401131,1840,848,71.1452,-2.01529
623,176,71.1958,1.97382,-0.00276491,-0.0012139,-0.000728113,-0.00092566,-0.00305315,-1.19385,0.00180769,0.0418693,1847,848,71.1958,-1.97381
630,176,71.2858,2.1778,-0.00249678,0.000192596,0.000388047,0.000247467,-0.00255166,1.43032,0.00178931,0.0384734,1854,848,71.2857,-2.17778
637,176,71.2206,2.30023,-0.00256681,0.000860323,0.000817106,0.00104517,-0.00275166,1.34832,0.0022647,0.0315925,1861,848,71.2206,-2.30023
644,176,71.0325,2.32184,-0.00286994,0.000848124,0.00065848,0.000961298,-0.00298312,1.40059,0.00237494,0.0319957,1868,848,71.0325,-2.32187
651,176,71.1169,2.26453,-0.00305684,0.000706705,0.00036051,0.000740927,-0.00309106,1.47615,0.00234699,0.033231,1875,848,71.1169,-2.26452
658,176,71.2218,2.25537,0,0,0,0,0,0,0,-1,1882,848,71.2217,-2.25536
665,176,54.3333,2.34277,0,0,0,0,0,0,0,-1,1889,848,54.3333,-2.34279
672,176,16.9304,2.80719,0,0,0,0,0,0,0,-1,1896,848,16.9305,-2.80719
679,176,50.9341,0.315979,0,0,0,0,0,0,0,-1,1903,848,50.9341,-0.315984
686,176,57.6364,0.00146484,0,0,0,0,0,0,0,-1,1910,848,57.6363,-0.00144667
693,176,57.5808,0.782715,-0.00308092,3.98501e-05,-0.00221221,0.00118662,-0.0042277,-1.09255,0.00328621,0.0351957,1917,848,57.5808,-0.782738
700,176,57.4427,1.70514,0,0,0,0,0,0,0,-1,1924,848,57.4427,-1.70516
707,176,57.4379,2.4259,-0.00341007,-0.00047335,-0.00278839,0.00120968,-0.00509309,-1.02775,0.00386229,0.0286039,1931,848,57.4378,-2.4259
714,176,57.2941,3.1095,-0.00317591,-0.000114688,-0.00286445,0.00160244,-0.00489304,-1.03077,0.00390729,0.0140157,1938,848,57.2941,-3.10952
721,176,57.2645,3.88989,-0.00296902,0.000546672,-0.00249479,0.00184071,-0.00426306,-1.0923,0.00361534,0.0139217,1945,848,57.2645,-3.88988
728,176,57.1808,4.70673,-0.0031635,0.00131864,-0.00198262,0.00206975,-0.00391461,-1.20865,0.00350937,0.0178126,1952,848,57.1808,-4.7067
735,176,57.1459,5.52325,-0.0036957,0.00223364,-0.00161187,0.00264349,-0.00410555,-1.3218,0.00392692,0.0158413,1959,848,57.1459,-5.52325
742,176,57.1213,6.34222,-0.00483166,0.00332036,-0.00154971,0.00360502,-0.00511632,-1.38913,0.00506041,0.0235538,1966,848,57.1213,-6.3422
749,176,57.4065,7.30658,-0.00679606,0.0046019,-0.00192513,0.00491827,-0.00711243,-1.40791,0.00698433,0.0367681,1973,848,57.4065,-7.30658
756,176,57.3252,8.60626,0,0,0,0,0,0,0,-1,1980,848,57.3252,-8.60626
763,176,44.4343,7.70581,0,0,0,0,0,0,0,-1,1987,848,44.4343,-7.70578
770,176,36.4186,4.25641,0,0,0,0,0,0,0,-1,1994,848,36.4186,-4.25639
777,176,43.8328,7.50177,0,0,0,0,0,0,0,-1,2001,848,43.8328,-7.50178
784,176,0,0,0,0,0,0,0,0,0,-1,2008,848,0,0
791,176,0,0,0,0,0,0,0,0,0,-1,2015,848,0,0
798,176,0,0,0,0,0,0,0,0,0,-1,2022,848,0,0
805,176,0,0,0,0,0,0,0,0,0,-1,2029,848,0,0
812,176,0,0,0,0,0,0,0,0,0,-1,2036,848,0,0
-700,169,0,0,0,0,0,0,0,0,0,-1,524,855,0,0
-693,169,0,0,0,0,0,0,0,0,0,-1,531,855,0,0
-686,169,0,0,0,0,0,0,0,0,0,-1,538,855,0,0
-679,169,0,0,0,0,0,0,0,0,0,-1,545,855,0,0
-672,169,0,0,0,0,0,0,0,0,0,-1,552,855,0,0
-665,169,-50.4697,8.3269,0,0,0,0,0,0,0,-1,559,855,-50.4697,-8.32688
-658,169,-58.8608,8.22839,0,0,0,0,0,0,0,-1,566,855,-58.8608,-8.2284
-651,169,-43.5024,9.3349,0,0,0,0,0,0,0,-1,573,855,-43.5025,-9.33492
-644,169,-43.193,8.37292,0,0,0,0,0,0,0,-1,580,855,-43.193,-8.3729
-637,169,-42.8521,7.51019,0,0,0,0,0,0,0,-1,587,855,-42.8521,-7.51017
-630,169,-43.2701,7.35974,0,0,0,0,0,0,0,-1,594,855,-43.2701,-7.35973
-623,169,-43.2114,6.40338,0.0140842,0.0112309,-0.0189661,0.0316773,-0.00636214,-0.747858,0.0235274,0.042842,601,855,-43.2114,-6.40338
-616,169,-43.1584,5.46033,0.00603362,0.00910466,-0.0107903,0.0184681,-0.00332983,-0.856077,0.013559,0.0229503,608,855,-43.1584,-5.46032
-609,169,-43.2064,4.6521,0.00209288,0.00786034,-0.00506367,0.0108038,-0.000850623,-1.04424,0.00750219,0.0146746,615,855,-43.2064,-4.6521
-602,169,-43.261,3.83472,-0.000301499,0.00494147,-0.00167916,0.00543315,-0.000793175,-1.28595,0.00391338,0.0148189,622,855,-43.261,-3.83472
-595,169,-43.3041,3.01477,-0.00252219,0.00257474,0.00131281,0.00289301,-0.00284045,1.33295,0.00331026,0.0133765,629,855,-43.3041,-3.01476
-588,169,-43.3133,2.25226,-0.0045601,0.000661053,0.00393387,0.00277175,-0.0066708,1.07834,0.00560444,0.0112134,636,855,-43.3133,-2.25226
-581,169,-43.4044,1.51642,-0.00639172,-0.000773515,0.00620973,0.00323294,-0.0103982,0.99781,0.00822437,0.0252881,643,855,-43.4044,-1.5164
-574,169,-43.7709,0.677307,-0.0080385,-0.00170519,0.00815568,0.00387703,-0.0136207,0.970578,0.0106116,0.0428789,650,855,-43.7709,-0.677319
-567,169,-43.5607,-0.142395,0,0,0,0,0,0,0,-1,657,855,-43.5607,0.142405
-560,169,-43.597,-0.853027,0,0,0,0,0,0,0,-1,664,855,-43.597,0.85303
-553,169,-32.1944,-0.787964,0,0,0,0,0,0,0,-1,671,855,-32.1944,0.787959
-546,169,-19.0852,-1.05609,0,0,0,0,0,0,0,-1,678,855,-19.0852,1.05612
-539,169,-33.2307,1.10706,0,0,0,0,0,0,0,-1,685,855,-33.2307,-1.10708
-532,169,-55.0493,0.422119,0,0,0,0,0,0,0,-1,692,855,-55.0493,-0.422148
-525,169,-54.9822,0.483765,0,0,0,0,0,0,0,-1,699,855,-54.9823,-0.483775
-518,169,-54.8981,0.612732,0,0,0,0,0,0,0,-1,706,855,-54.8981,-0.612707
-511,169,-54.8093,0.724609,0,0,0,0,0,0,0,-1,713,855,-54.8093,-0.724602
-504,169,-54.9652,0.312622,0,0,0,0,0,0,0,-1,720,855,-54.9652,-0.312602
-497,169,-55.0151,0.19873,0,0,0,0,0,0,0,-1,727,855,-55.0151,-0.19872
-490,169,0,0,0,0,0,0,0,0,0,-1,734,855,0,0
-483,169,0,0,0,0,0,0,0,0,0,-1,741,855,0,0
-476,169,0,0,0,0,0,0,0,0,0,-1,748,855,0,0
-469,169,0,0,0,0,0,0,0,0,0,-1,755,855,0,0
-462,169,0,0,0,0,0,0,0,0,0,-1,762,855,0,0
-455,169,0,0,0,0,0,0,0,0,0,-1,769,855,0,0
-448,169,0,0,0,0,0,0,0,0,0,-1,776,855,0,0
-441,169,0,0,0,0,0,0,0,0,0,-1,783,855,0,0
-434,169,0,0,0,0,0,0,0,0,0,-1,790,855,0,0
-427,169,0,0,0,0,0,0,0,0,0,-1,797,855,0,0
-420,169,0,0,0,0,0,0,0,0,0,-1,804,855,0,0
-413,169,0,0,0,0,0,0,0,0,0,-1,811,855,0,0
-406,169,0,0,0,0,0,0,0,0,0,-1,818,855,0,0
-399,169,0,0,0,0,0,0,0,0,0,-1,825,855,0,0
-392,169,0,0,0,0,0,0,0,0,0,-1,832,855,0,0
-385,169,0,0,0,0,0,0,0,0,0,-1,839,855,0,0
-378,169,0,0,0,0,0,0,0,0,0,-1,846,855,0,0
-371,169,0,0,0,0,0,0,0,0,0,-1,853,855,0,0
-364,169,0,0,0,0,0,0,0,0,0,-1,860,855,0,0
-357,169,0,0,0,0,0,0,0,0,0,-1,867,855,0,0
-350,169,0,0,0,0,0,0,0,0,0,-1,874,855,0,0
-343,169,0,0,0,0,0,0,0,0,0,-1,881,855,0,0
-336,169,0,0,0,0,0,0,0,0,0,-1,888,855,0,0
-329,169,0,0,0,0,0,0,0,0,0,-1,895,855,0,0
-322,169,0,0,0,0,0,0,0,0,0,-1,902,855,0,0
-315,169,0,0,0,0,0,0,0,0,0,-1,909,855,0,0
-308,169,0,0,0,0,0,0,0,0,0,-1,916,855,0,0
-301,169,0,0,0,0,0,0,0,0,0,-1,923,855,0,0
-294,169,0,0,0,0,0,0,0,0,0,-1,930,855,0,0
-287,169,0,0,0,0,0,0,0,0,0,-1,937,855,0,0
-280,169,0,0,0,0,0,0,0,0,0,-1,944,855,0,0
-273,169,0,0,0,0,0,0,0,0,0,-1,951,855,0,0
-266,169,0,0,0,0,0,0,0,0,0,-1,958,855,0,0
-259,169,0,0,0,0,0,0,0,0,0,-1,965,855,0,0
-252,169,0,0,0,0,0,0,0,0,0,-1,972,855,0,0
-245,169,0,0,0,0,0,0,0,0,0,-1,979,855,0,0
-238,169,0,0,0,0,0,0,0,0,0,-1,986,855,0,0
-231,169,0,0,0,0,0,0,0,0,0,-1,993,855,0,0
-224,169,0,0,0,0,0,0,0,0,0,-1,1000,855,0,0
-217,169,0,0,0,0,0,0,0,0,0,-1,1007,855,0,0
-210,169,0,0,0,0,0,0,0,0,0,-1,1014,855,0,0
-203,169,0,0,0,0,0,0,0,0,0,-1,1021,855,0,0
-196,169,0,0,0,0,0,0,0,0,0,-1,1028,855,0,0
-189,169,0,0,0,0,0,0,0,0,0,-1,1035,855,0,0
-182,169,0,0,0,0,0,0,0,0,0,-1,1042,855,0,0
-175,169,0,0,0,0,0,0,0,0,0,-1,1049,855,0,0
-168,169,0,0,0,0,0,0,0,0,0,-1,1056,855,0,0
-161,169,0,0,0,0,0,0,0,0,0,-1,1063,855,0,0
-154,169,0,0,0,0,0,0,0,0,0,-1,1070,855,0,0
-147,169,0,0,0,0,0,0,0,0,0,-1,1077,855,0,0
-140,169,0,0,0,0,0,0,0,0,0,-1,1084,855,0,0
-133,169,0,0,0,0,0,0,0,0,0,-1,1091,855,0,0
-126,169,0,0,0,0,0,0,0,0,0,-1,1098,855,0,0
-119,169,0,0,0,0,0,0,0,0,0,-1,1105,855,0,0
-112,169,0,0,0,0,0,0,0,0,0,-1,1112,855,0,0
-105,169,0,0,0,0,0,0,0,0,0,-1,1119,855,0,0
-98,169,0,0,0,0,0,0,0,0,0,-1,1126,855,0,0
-91,169,0,0,0,0,0,0,0,0,0,-1,1133,855,0,0
-84,169,0,0,0,0,0,0,0,0,0,-1,1140,855,0,0
-77,169,0,0,0,0,0,0,0,0,0,-1,1147,855,0,0
-70,169,0,0,0,0,0,0,0,0,0,-1,1154,855,0,0
-63,169,0,0,0,0,0,0,0,0,0,-1,1161,855,0,0
-56,169,0,0,0,0,0,0,0,0,0,-1,1168,855,0,0
-49,169,0,0,0,0,0,0,0,0,0,-1,1175,855,0,0
-42,169,0,0,0,0,0,0,0,0,0,-1,1182,855,0,0
-35,169,0,0,0,0,0,0,0,0,0,-1,1189,855,0,0
-28,169,0,0,0,0,0,0,0,0,0,-1,1196,855,0,0
-21,169,0,0,0,0,0,0,0,0,0,-1,1203,855,0,0
-14,169,0,0,0,0,0,0,0,0,0,-1,1210,855,0,0
-7,169,0,0,0,0,0,0,0,0,0,-1,1217,855,0,0
0,169,0,0,0,0,0,0,0,0,0,-1,1224,855,0,0
7,169,0,0,0,0,0,0,0,0,0,-1,1231,855,0,0
14,169,0,0,0,0,0,0,0,0,0,-1,1238,855,0,0
21,169,0,0,0,0,0,0,0,0,0,-1,1245,855,0,0
28,169,0,0,0,0,0,0,0,0,0,-1,1252,855,0,0
35,169,0,0,0,0,0,0,0,0,0,-1,1259,855,0,0
42,169,0,0,0,0,0,0,0,0,0,-1,1266,855,0,0
49,169,0,0,0,0,0,0,0,0,0,-1,1273,855,0,0
56,169,0,0,0,0,0,0,0,0,0,-1,1280,855,0,0
63,169,0,0,0,0,0,0,0,0,0,-1,1287,855,0,0
70,169,0,0,0,0,0,0,0,0,0,-1,1294,855,0,0
77,169,0,0,0,0,0,0,0,0,0,-1,1301,855,0,0
84,169,0,0,0,0,0,0,0,0,0,-1,1308,855,0,0
91,169,0,0,0,0,0,0,0,0,0,-1,1315,855,0,0
98,169,0,0,0,0,0,0,0,0,0,-1,1322,855,0,0
105,169,0,0,0,0,0,0,0,0,0,-1,1329,855,0,0
112,169,0,0,0,0,0,0,0,0,0,-1,1336,855,0,0
119,169,0,0,0,0,0,0,0,0,0,-1,1343,855,0,0
126,169,0,0,0,0,0,0,0,0,0,-1,1350,855,0,0
133,169,0,0,0,0,0,0,0,0,0,-1,1357,855,0,0
140,169,0,0,0,0,0,0,0,0,0,-1,1364,855,0,0
147,169,0,0,0,0,0,0,0,0,0,-1,1371,855,0,0
154,169,0,0,0,0,0,0,0,0,0,-1,1378,855,0,0
161,169,0,0,0,0,0,0,0,0,0,-1,1385,855,0,0
168,169,0,0,0,0,0,0,0,0,0,-1,1392,855,0,0
175,169,0,0,0,0,0,0,0,0,0,-1,1399,855,0,0
182,169,0,0,0,0,0,0,0,0,0,-1,1406,855,0,0
189,169,0,0,0,0,0,0,0,0,0,-1,1413,855,0,0
196,169,0,0,0,0,0,0,0,0,0,-1,1420,855,0,0
203,169,0,0,0,0,0,0,0,0,0,-1,1427,855,0,0
210,169,0,0,0,0,0,0,0,0,0,-1,1434,855,0,0
217,169,0,0,0,0,0,0,0,0,0,-1,1441,855,0,0
224,169,0,0,0,0,0,0,0,0,0,-1,1448,855,0,0
231,169,0,0,0,0,0,0,0,0,0,-1,1455,855,0,0
238,169,0,0,0,0,0,0,0,0,0,-1,1462,855,0,0
245,169,0,0,0,0,0,0,0,0,0,-1,1469,855,0,0
252,169,0,0,0,0,0,0,0,0,0,-1,1476,855,0,0
259,169,0,0,0,0,0,0,0,0,0,-1,1483,855,0,0
266,169,0,0,0,0,0,0,0,0,0,-1,1490,855,0,0
273,169,0,0,0,0,0,0,0,0,0,-1,1497,855,0,0
280,169,0,0,0,0,0,0,0,0,0,-1,1504,855,0,0
287,169,0,0,0,0,0,0,0,0,0,-1,1511,855,0,0
294,169,0,0,0,0,0,0,0,0,0,-1,1518,855,0,0
301,169,0,0,0,0,0,0,0,0,0,-1,1525,855,0,0
308,169,0,0,0,0,0,0,0,0,0,-1,1532,855,0,0
315,169,0,0,0,0,0,0,0,0,0,-1,1539,855,0,0
322,169,0,0,0,0,0,0,0,0,0,-1,1546,855,0,0
329,169,0,0,0,0,0,0,0,0,0,-1,1553,855,0,0
336,169,0,0,0,0,0,0,0,0,0,-1,1560,855,0,0
343,169,0,0,0,0,0,0,0,0,0,-1,1567,855,0,0
350,169,0,0,0,0,0,0,0,0,0,-1,1574,855,0,0
357,169,0,0,0,0,0,0,0,0,0,-1,1581,855,0,0
364,169,0,0,0,0,0,0,0,0,0,-1,1588,855,0,0
371,169,0,0,0,0,0,0,0,0,0,-1,1595,855,0,0
378,169,0,0,0,0,0,0,0,0,0,-1,1602,855,0,0
385,169,0,0,0,0,0,0,0,0,0,-1,1609,855,0,0
392,169,0,0,0,0,0,0,0,0,0,-1,1616,855,0,0
399,169,0,0,0,0,0,0,0,0,0,-1,1623,855,0,0
406,169,0,0,0,0,0,0,0,0,0,-1,1630,855,0,0
413,169,0,0,0,0,0,0,0,0,0,-1,1637,855,0,0
420,169,0,0,0,0,0,0,0,0,0,-1,1644,855,0,0
427,169,0,0,0,0,0,0,0,0,0,-1,1651,855,0,0
434,169,0,0,0,0,0,0,0,0,0,-1,1658,855,0,0
441,169,0,0,0,0,0,0,0,0,0,-1,1665,855,0,0
448,169,0,0,0,0,0,0,0,0,0,-1,1672,855,0,0
455,169,0,0,0,0,0,0,0,0,0,-1,1679,855,0,0
462,169,0,0,0,0,0,0,0,0,0,-1,1686,855,0,0
469,169,0,0,0,0,0,0,0,0,0,-1,1693,855,0,0
476,169,0,0,0,0,0,0,0,0,0,-1,1700,855,0,0
483,169,0,0,0,0,0,0,0,0,0,-1,1707,855,0,0
490,169,0,0,0,0,0,0,0,0,0,-1,1714,855,0,0
497,169,0,0,0,0,0,0,0,0,0,-1,1721,855,0,0
504,169,0,0,0,0,0,0,0,0,0,-1,1728,855,0,0
511,169,0,0,0,0,0,0,0,0,0,-1,1735,855,0,0
518,169,0,0,0,0,0,0,0,0,0,-1,1742,855,0,0
525,169,0,0,0,0,0,0,0,0,0,-1,1749,855,0,0
532,169,0,0,0,0,0,0,0,0,0,-1,1756,855,0,0
539,169,0,0,0,0,0,0,0,0,0,-1,1763,855,0,0
546,169,0,0,0,0,0,0,0,0,0,-1,1770,855,0,0
553,169,0,0,0,0,0,0,0,0,0,-1,1777,855,0,0
560,169,0,0,0,0,0,0,0,0,0,-1,1784,855,0,0
567,169,0,0,0,0,0,0,0,0,0,-1,1791,855,0,0
574,169,0,0,0,0,0,0,0,0,0,-1,1798,855,0,0
581,169,0,0,0,0,0,0,0,0,0,-1,1805,855,0,0
588,169,0,0,0,0,0,0,0,0,0,-1,1812,855,0,0
595,169,0,0,0,0,0,0,0,0,0,-1,1819,855,0,0
602,169,0,0,0,0,0,0,0,0,0,-1,1826,855,0,0
609,169,0,0,0,0,0,0,0,0,0,-1,1833,855,0,0
616,169,71.0925,2.28992,-0.00389775,-0.00411967,-0.00268144,-0.00132497,-0.00669244,-0.764719,0.00409211,0.0444998,1840,855,71.0926,-2.28991
623,169,71.0537,2.24219,-0.00333805,-0.002581,-0.00121007,-0.00169164,-0.00422741,-0.936983,0.00245686,0.0431071,1847,855,71.0537,-2.24218
630,169,71.1626,2.26093,-0.00277957,-0.00117938,-2.62391e-05,-0.00117895,-0.00278,-1.5544,0.00161119,0.0392572,1854,855,71.1626,-2.26093
637,169,71.1893,2.35797,-0.00253294,-0.000193231,0.00064895,-2.52899e-05,-0.00270088,1.31756,0.00179222,0.0360091,1861,855,71.1893,-2.358
644,169,71.1453,2.40253,-0.00267993,9.72824e-05,0.000707338,0.000267058,-0.00284971,1.33523,0.00199479,0.0362707,1868,855,71.1452,-2.40255
651,169,71.1598,2.30493,-0.00285297,0.000115123,0.000520329,0.000203697,-0.00294154,1.40218,0.00203233,0.0357465,1875,855,71.1598,-2.30492
658,169,71.1965,2.2605,-0.00338386,-0.000238124,-0.00024216,-0.000219591,-0.00340239,-1.49442,0.00219872,0.0444311,1882,855,71.1965,-2.26053
665,169,71.2314,2.26245,0,0,0,0,0,0,0,-1,1889,855,71.2315,-2.26243
672,169,31.2465,2.96387,0,0,0,0,0,0,0,-1,1896,855,31.2464,-2.9639
679,169,38.4297,1.08197,0,0,0,0,0,0,0,-1,1903,855,38.4296,-1.08194
686,169,58.4283,0.0301514,0,0,0,0,0,0,0,-1,1910,855,58.4283,-0.030126
693,169,58.5154,0.902832,0,0,0,0,0,0,0,-1,1917,855,58.5154,-0.90285
700,169,58.7693,2.21625,0,0,0,0,0,0,0,-1,1924,855,58.7692,-2.21626
707,169,58.3975,2.55804,-0.00333754,-0.000740194,-0.00270262,0.000959583,-0.00503732,-1.00937,0.00371956,0.03569,1931,855,58.3975,-2.55802
714,169,58.0785,3.11249,-0.00317468,-0.000393663,-0.00298519,0.00150898,-0.00507732,-1.00336,0.00398429,0.0201748,1938,855,58.0784,-3.11251
721,169,58.0902,3.93121,-0.00306533,0.0003077,-0.00274389,0.00184194,-0.00459957,-1.06096,0.00383092,0.0191913,1945,855,58.0902,-3.93121
728,169,58.026,4.76917,-0.00335193,0.00116834,-0.00228342,0.00212103,-0.00430462,-1.17553,0.00378058,0.0161637,1952,855,58.026,-4.76914
735,169,57.951,5.56451,-0.00392846,0.00220296,-0.00189239,0.00273999,-0.00446549,-1.29428,0.00419966,0.0210931,1959,855,57.951,-5.56452
742,169,57.9489,6.38678,-0.00512779,0.00348417,-0.0017247,0.00381673,-0.00546035,-1.38031,0.00538407,0.0176334,1966,855,57.9489,-6.38678
749,169,57.8497,7.12,-0.00715128,0.00493147,-0.00193583,0.00523404,-0.00745385,-1.41575,0.00736263,0.0290375,1973,855,57.8497,-7.12001
756,169,57.9347,7.81433,0,0,0,0,0,0,0,-1,1980,855,57.9347,-7.81433
763,169,45.1978,7.5675,0,0,0,0,0,0,0,-1,1987,855,45.1977,-7.56751
770,169,37.2059,3.97021,0,0,0,0,0,0,0,-1,1994,855,37.2059,-3.97022
777,169,41.7505,8.7085,0,0,0,0,0,0,0,-1,2001,855,41.7505,-8.70852
784,169,40.7385,9.24359,0,0,0,0,0,0,0,-1,2008,855,40.7384,-9.24361
791,169,0,0,0,0,0,0,0,0,0,-1,2015,855,0,0
798,169,0,0,0,0,0,0,0,0,0,-1,2022,855,0,0
805,169,0,0,0,0,0,0,0,0,0,-1,2029,855,0,0
812,169,0,0,0,0,0,0,0,0,0,-1,2036,855,0,0
-700,162,0,0,0,0,0,0,0,0,0,-1,524,862,0,0
-693,162,0,0,0,0,0,0,0,0,0,-1,531,862,0,0
-686,162,0,0,0,0,0,0,0,0,0,-1,538,862,0,0
-679,162,0,0,0,0,0,0,0,0,0,-1,545,862,0,0
-672,162,0,0,0,0,0,0,0,0,0,-1,552,862,0,0
-665,162,-50.6751,7.18884,0,0,0,0,0,0,0,-1,559,862,-50.6751,-7.18885
-658,162,-50.7888,6.02673,0,0,0,0,0,0,0,-1,566,862,-50.7888,-6.02673
-651,162,-43.5444,9.86621,0,0,0,0,0,0,0,-1,573,862,-43.5444,-9.86623
-644,162,-43.2151,8.88611,0,0,0,0,0,0,0,-1,580,862,-43.2151,-8.88608
-637,162,-43.332,8.02917,0,0,0,0,0,0,0,-1,587,862,-43.332,-8.02917
-630,162,-43.9752,7.26544,0,0,0,0,0,0,0,-1,594,862,-43.9752,-7.26543
-623,162,-43.9282,6.34625,0.011838,0.00971697,-0.0178072,0.0286162,-0.00706123,-0.755655,0.0218155,0.0352334,601,862,-43.9282,-6.34624
-616,162,-43.9269,5.46429,0.00354224,0.00811914,-0.00943219,0.0155365,-0.00387514,-0.904409,0.0118623,0.0202393,608,862,-43.9269,-5.46429
-609,162,-44.0108,4.66797,-3.76663e-05,0.00744259,-0.00350264,0.00882662,-0.0014217,-1.19449,0.00641108,0.0140912,615,862,-44.0108,-4.66794
-602,162,-44.0923,3.86731,-0.00190449,0.00457085,-0.000149973,0.00457433,-0.00190796,-1.54765,0.00384664,0.0127474,622,862,-44.0923,-3.86731
-595,162,-44.1247,3.08179,-0.00375348,0.00206019,0.00296871,0.00330822,-0.00500151,1.17283,0.00483072,0.0124002,629,862,-44.1247,-3.08179
-588,162,-44.1241,2.29529,-0.0055497,-9.83302e-05,0.00585151,0.00363118,-0.00927921,1.00336,0.0076879,0.0164614,636,862,-44.1241,-2.29528
-581,162,-44.3928,1.52039,-0.00725906,-0.00191152,0.00850138,0.00432665,-0.0134972,0.937756,0.010735,0.0443212,643,862,-44.3927,-1.52036
-574,162,-44.9785,0.374329,0,0,0,0,0,0,0,-1,650,862,-44.9784,-0.374354
-567,162,-44.8707,-0.226074,0,0,0,0,0,0,0,-1,657,862,-44.8707,0.226074
-560,162,-36.5075,-0.831665,0,0,0,0,0,0,0,-1,664,862,-36.5075,0.831657
-553,162,-35.9823,-1.60956,0,0,0,0,0,0,0,-1,671,862,-35.9823,1.60954
-546,162,-22.8181,-1.51154,0,0,0,0,0,0,0,-1,678,862,-22.8181,1.51155
-539,162,-53.0229,0.9328,0,0,0,0,0,0,0,-1,685,862,-53.0229,-0.932798
-532,162,-54.9792,0.37561,0,0,0,0,0,0,0,-1,692,862,-54.9792,-0.375614
-525,162,-54.93,0.487732,0,0,0,0,0,0,0,-1,699,862,-54.93,-0.487761
-518,162,-54.8576,0.472839,0,0,0,0,0,0,0,-1,706,862,-54.8576,-0.472809
-511,162,-54.7748,0.397705,0,0,0,0,0,0,0,-1,713,862,-54.7749,-0.397728
-504,162,-54.9438,0.325256,0,0,0,0,0,0,0,-1,720,862,-54.9438,-0.32528
-497,162,-54.8637,0.122375,0,0,0,0,0,0,0,-1,727,862,-54.8637,-0.122355
-490,162,0,0,0,0,0,0,0,0,0,-1,734,862,0,0
-483,162,0,0,0,0,0,0,0,0,0,-1,741,862,0,0
-476,162,0,0,0,0,0,0,0,0,0,-1,748,862,0,0
-469,162,0,0,0,0,0,0,0,0,0,-1,755,862,0,0
-462,162,0,0,0,0,0,0,0,0,0,-1,762,862,0,0
-455,162,0,0,0,0,0,0,0,0,0,-1,769,862,0,0
-448,162,0,0,0,0,0,0,0,0,0,-1,776,862,0,0
-441,162,0,0,0,0,0,0,0,0,0,-1,783,862,0,0
-434,162,0,0,0,0,0,0,0,0,0,-1,790,862,0,0
-427,162,0,0,0,0,0,0,0,0,0,-1,797,862,0,0
-420,162,0,0,0,0,0,0,0,0,0,-1,804,862,0,0
-413,162,0,0,0,0,0,0,0,0,0,-1,811,862,0,0
-406,162,0,0,0,0,0,0,0,0,0,-1,818,862,0,0
-399,162,0,0,0,0,0,0,0,0,0,-1,825,862,0,0
-392,162,0,0,0,0,0,0,0,0,0,-1,832,862,0,0
-385,162,0,0,0,0,0,0,0,0,0,-1,839,862,0,0
-378,162,0,0,0,0,0,0,0,0,0,-1,846,862,0,0
-371,162,0,0,0,0,0,0,0,0,0,-1,853,862,0,0
-364,162,0,0,0,0,0,0,0,0,0,-1,860,862,0,0
-357,162,0,0,0,0,0,0,0,0,0,-1,867,862,0,0
-350,162,0,0,0,0,0,0,0,0,0,-1,874,862,0,0
-343,162,0,0,0,0,0,0,0,0,0,-1,881,862,0,0
-336,162,0,0,0,0,0,0,0,0,0,-1,888,862,0,0
-329,162,0,0,0,0,0,0,0,0,0,-1,895,862,0,0
-322,162,0,0,0,0,0,0,0,0,0,-1,902,862,0,0
-315,162,0,0,0,0,0,0,0,0,0,-1,909,862,0,0
-308,162,0,0,0,0,0,0,0,0,0,-1,916,862,0,0
-301,162,0,0,0,0,0,0,0,0,0,-1,923,862,0,0
-294,162,0,0,0,0,0,0,0,0,0,-1,930,862,0,0
-287,162,0,0,0,0,0,0,0,0,0,-1,937,862,0,0
-280,162,0,0,0,0,0,0,0,0,0,-1,944,862,0,0
-273,162,0,0,0,0,0,0,0,0,0,-1,951,862,0,0
-266,162,0,0,0,0,0,0,0,0,0,-1,958,862,0,0
-259,162,0,0,0,0,0,0,0,0,0,-1,965,862,0,0
-252,162,0,0,0,0,0,0,0,0,0,-1,972,862,0,0
-245,162,0,0,0,0,0,0,0,0,0,-1,979,862,0,0
-238,162,0,0,0,0,0,0,0,0,0,-1,986,862,0,0
-231,162,0,0,0,0,0,0,0,0,0,-1,993,862,0,0
-224,162,0,0,0,0,0,0,0,0,0,-1,1000,862,0,0
-217,162,0,0,0,0,0,0,0,0,0,-1,1007,862,0,0
-210,162,0,0,0,0,0,0,0,0,0,-1,1014,862,0,0
-203,162,0,0,0,0,0,0,0,0,0,-1,1021,862,0,0
-196,162,0,0,0,0,0,0,0,0,0,-1,1028,862,0,0
-189,162,0,0,0,0,0,0,0,0,0,-1,1035,862,0,0
-182,162,0,0,0,0,0,0,0,0,0,-1,1042,862,0,0
-175,162,0,0,0,0,0,0,0,0,0,-1,1049,862,0,0
-168,162,0,0,0,0,0,0,0,0,0,-1,1056,862,0,0
-161,162,0,0,0,0,0,0,0,0,0,-1,1063,862,0,0
-154,162,0,0,0,0,0,0,0,0,0,-1,1070,862,0,0
-147,162,0,0,0,0,0,0,0,0,0,-1,1077,862,0,0
-140,162,0,0,0,0,0,0,0,0,0,-1,1084,862,0,0
-133,162,0,0,0,0,0,0,0,0,0,-1,1091,862,0,0
-126,162,0,0,0,0,0,0,0,0,0,-1,1098,862,0,0
-119,162,0,0,0,0,0,0,0,0,0,-1,1105,862,0,0
-112,162,0,0,0,0,0,0,0,0,0,-1,1112,862,0,0
-105,162,0,0,0,0,0,0,0,0,0,-1,1119,862,0,0
-98,162,0,0,0,0,0,0,0,0,0,-1,1126,862,0,0
-91,162,0,0,0,0,0,0,0,0,0,-1,1133,862,0,0
-84,162,0,0,0,0,0,0,0,0,0,-1,1140,862,0,0
-77,162,0,0,0,0,0,0,0,0,0,-1,1147,862,0,0
-70,162,0,0,0,0,0,0,0,0,0,-1,1154,862,0,0
-63,162,0,0,0,0,0,0,0,0,0,-1,1161,862,0,0
-56,162,0,0,0,0,0,0,0,0,0,-1,1168,862,0,0
-49,162,0,0,0,0,0,0,0,0,0,-1,1175,862,0,0
-42,162,0,0,0,0,0,0,0,0,0,-1,1182,862,0,0
-35,162,0,0,0,0,0,0,0,0,0,-1,1189,862,0,0
-28,162,0,0,0,0,0,0,0,0,0,-1,1196,862,0,0
-21,162,0,0,0,0,0,0,0,0,0,-1,1203,862,0,0
-14,162,0,0,0,0,0,0,0,0,0,-1,1210,862,0,0
-7,162,0,0,0,0,0,0,0,0,0,-1,1217,862,0,0
0,162,0,0,0,0,0,0,0,0,0,-1,1224,862,0,0
7,162,0,0,0,0,0,0,0,0,0,-1,1231,862,0,0
14,162,0,0,0,0,0,0,0,0,0,-1,1238,862,0,0
21,162,0,0,0,0,0,0,0,0,0,-1,1245,862,0,0
28,162,0,0,0,0,0,0,0,0,0,-1,1252,862,0,0
35,162,0,0,0,0,0,0,0,0,0,-1,1259,862,0,0
42,162,0,0,0,0,0,0,0,0,0,-1,1266,862,0,0
49,162,0,0,0,0,0,0,0,0,0,-1,1273,862,0,0
56,162,0,0,0,0,0,0,0,0,0,-1,1280,862,0,0
63,162,0,0,0,0,0,0,0,0,0,-1,1287,862,0,0
70,162,0,0,0,0,0,0,0,0,0,-1,1294,862,0,0
77,162,0,0,0,0,0,0,0,0,0,-1,1301,862,0,0
84,162,0,0,0,0,0,0,0,0,0,-1,1308,862,0,0
91,162,0,0,0,0,0,0,0,0,0,-1,1315,862,0,0
98,162,0,0,0,0,0,0,0,0,0,-1,1322,862,0,0
105,162,0,0,0,0,0,0,0,0,0,-1,1329,862,0,0
112,162,0,0,0,0,0,0,0,0,0,-1,1336,862,0,0
119,162,0,0,0,0,0,0,0,0,0,-1,1343,862,0,0
126,162,0,0,0,0,0,0,0,0,0,-1,1350,862,0,0
133,162,0,0,0,0,0,0,0,0,0,-1,1357,862,0,0
140,162,0,0,0,0,0,0,0,0,0,-1,1364,862,0,0
147,162,0,0,0,0,0,0,0,0,0,-1,1371,862,0,0
154,162,0,0,0,0,0,0,0,0,0,-1,1378,862,0,0
161,162,0,0,0,0,0,0,0,0,0,-1,1385,862,0,0
168,162,0,0,0,0,0,0,0,0,0,-1,1392,862,0,0
175,162,0,0,0,0,0,0,0,0,0,-1,1399,862,0,0
182,162,0,0,0,0,0,0,0,0,0,-1,1406,862,0,0
189,162,0,0,0,0,0,0,0,0,0,-1,1413,862,0,0
196,162,0,0,0,0,0,0,0,0,0,-1,1420,862,0,0
203,162,0,0,0,0,0,0,0,0,0,-1,1427,862,0,0
210,162,0,0,0,0,0,0,0,0,0,-1,1434,862,0,0
217,162,0,0,0,0,0,0,0,0,0,-1,1441,862,0,0
224,162,0,0,0,0,0,0,0,0,0,-1,1448,862,0,0
231,162,0,0,0,0,0,0,0,0,0,-1,1455,862,0,0
238,162,0,0,0,0,0,0,0,0,0,-1,1462,862,0,0
245,162,0,0,0,0,0,0,0,0,0,-1,1469,862,0,0
252,162,0,0,0,0,0,0,0,0,0,-1,1476,862,0,0
259,162,0,0,0,0,0,0,0,0,0,-1,1483,862,0,0
266,162,0,0,0,0,0,0,0,0,0,-1,1490,862,0,0
273,162,0,0,0,0,0,0,0,0,0,-1,1497,862,0,0
280,162,0,0,0,0,0,0,0,0,0,-1,1504,862,0,0
287,162,0,0,0,0,0,0,0,0,0,-1,1511,862,0,0
294,162,0,0,0,0,0,0,0,0,0,-1,1518,862,0,0
301,162,0,0,0,0,0,0,0,0,0,-1,1525,862,0,0
308,162,0,0,0,0,0,0,0,0,0,-1,1532,862,0,0
315,162,0,0,0,0,0,0,0,0,0,-1,1539,862,0,0
322,162,0,0,0,0,0,0,0,0,0,-1,1546,862,0,0
329,162,0,0,0,0,0,0,0,0,0,-1,1553,862,0,0
336,162,0,0,0,0,0,0,0,0,0,-1,1560,862,0,0
343,162,0,0,0,0,0,0,0,0,0,-1,1567,862,0,0
350,162,0,0,0,0,0,0,0,0,0,-1,1574,862,0,0
357,162,0,0,0,0,0,0,0,0,0,-1,1581,862,0,0
364,162,0,0,0,0,0,0,0,0,0,-1,1588,862,0,0
371,162,0,0,0,0,0,0,0,0,0,-1,1595,862,0,0
378,162,0,0,0,0,0,0,0,0,0,-1,1602,862,0,0
385,162,0,0,0,0,0,0,0,0,0,-1,1609,862,0,0
392,162,0,0,0,0,0,0,0,0,0,-1,1616,862,0,0
399,162,0,0,0,0,0,0,0,0,0,-1,1623,862,0,0
406,162,0,0,0,0,0,0,0,0,0,-1,1630,862,0,0
413,162,0,0,0,0,0,0,0,0,0,-1,1637,862,0,0
420,162,0,0,0,0,0,0,0,0,0,-1,1644,862,0,0
427,162,0,0,0,0,0,0,0,0,0,-1,1651,862,0,0
434,162,0,0,0,0,0,0,0,0,0,-1,1658,862,0,0
441,162,0,0,0,0,0,0,0,0,0,-1,1665,862,0,0
448,162,0,0,0,0,0,0,0,0,0,-1,1672,862,0,0
455,162,0,0,0,0,0,0,0,0,0,-1,1679,862,0,0
462,162,0,0,0,0,0,0,0,0,0,-1,1686,862,0,0
469,162,0,0,0,0,0,0,0,0,0,-1,1693,862,0,0
476,162,0,0,0,0,0,0,0,0,0,-1,1700,862,0,0
483,162,0,0,0,0,0,0,0,0,0,-1,1707,862,0,0
490,162,0,0,0,0,0,0,0,0,0,-1,1714,862,0,0
497,162,0,0,0,0,0,0,0,0,0,-1,1721,862,0,0
504,162,0,0,0,0,0,0,0,0,0,-1,1728,862,0,0
511,162,0,0,0,0,0,0,0,0,0,-1,1735,862,0,0
518,162,0,0,0,0,0,0,0,0,0,-1,1742,862,0,0
525,162,0,0,0,0,0,0,0,0,0,-1,1749,862,0,0
532,162,0,0,0,0,0,0,0,0,0,-1,1756,862,0,0
539,162,0,0,0,0,0,0,0,0,0,-1,1763,862,0,0
546,162,0,0,0,0,0,0,0,0,0,-1,1770,862,0,0
553,162,0,0,0,0,0,0,0,0,0,-1,1777,862,0,0
560,162,0,0,0,0,0,0,0,0,0,-1,1784,862,0,0
567,162,0,0,0,0,0,0,0,0,0,-1,1791,862,0,0
574,162,0,0,0,0,0,0,0,0,0,-1,1798,862,0,0
581,162,0,0,0,0,0,0,0,0,0,-1,1805,862,0,0
588,162,0,0,0,0,0,0,0,0,0,-1,1812,862,0,0
595,162,0,0,0,0,0,0,0,0,0,-1,1819,862,0,0
602,162,0,0,0,0,0,0,0,0,0,-1,1826,862,0,0
609,162,0,0,0,0,0,0,0,0,0,-1,1833,862,0,0
616,162,71.14,2.42426,-0.00490658,-0.00537014,-0.00294169,-0.00218755,-0.00808916,-0.746084,0.00483159,0.0464483,1840,862,71.14,-2.42425
623,162,71.1799,2.35022,-0.00408739,-0.00389328,-0.00142427,-0.00256276,-0.00541791,-0.819416,0.00312955,0.0437852,1847,862,71.18,-2.35023
630,162,71.1385,2.20721,-0.00324827,-0.00257907,-0.000292986,-0.00246893,-0.00335841,-1.2112,0.00200919,0.0411668,1854,862,71.1385,-2.20722
637,162,71.134,2.26306,-0.00261827,-0.00136722,0.00046872,-0.00121109,-0.0027744,1.24926,0.0016061,0.0402728,1861,862,71.134,-2.26306
644,162,71.1254,2.37549,-0.00245626,-0.000770463,0.000687533,-0.000525621,-0.0027011,1.22868,0.00165361,0.0365348,1868,862,71.1254,-2.3755
651,162,71.106,2.31213,-0.00246308,-0.000526229,0.000597911,-0.000356522,-0.00263279,1.29424,0.00164925,0.034119,1875,862,71.1059,-2.31213
658,162,71.137,2.27319,-0.00305016,-0.000786867,-0.000141189,-0.000778094,-0.00305893,-1.50873,0.00183574,0.0361014,1882,862,71.137,-2.27319
665,162,71.153,2.26416,0,0,0,0,0,0,0,-1,1889,862,71.153,-2.26419
672,162,56.9712,3.04034,0,0,0,0,0,0,0,-1,1896,862,56.9711,-3.04034
679,162,26.5077,2.54785,0,0,0,0,0,0,0,-1,1903,862,26.5077,-2.54787
686,162,58.4304,0.0736084,0,0,0,0,0,0,0,-1,1910,862,58.4304,-0.0736353
693,162,59.4485,0.973938,0,0,0,0,0,0,0,-1,1917,862,59.4485,-0.973914
700,162,59.3184,1.81213,0,0,0,0,0,0,0,-1,1924,862,59.3184,-1.81211
707,162,59.1563,2.54156,-0.0029379,-0.000865841,-0.00261054,0.000906734,-0.00471048,-0.974299,0.00348214,0.0293753,1931,862,59.1563,-2.54159
714,162,58.9033,3.12177,-0.00284414,-0.000521967,-0.00302508,0.00155719,-0.0049233,-0.968639,0.00390614,0.033659,1938,862,58.9033,-3.12176
721,162,58.7181,4.06299,-0.00284177,0.000178004,-0.00291177,0.00194808,-0.00461184,-1.02459,0.00389006,0.0338385,1945,862,58.7182,-4.06302
728,162,58.7731,4.8595,-0.00329435,0.00106287,-0.0025394,0.00223014,-0.00446161,-1.13994,0.00393444,0.0273958,1952,862,58.773,-4.85948
735,162,58.7682,5.62946,-0.00405737,0.00214534,-0.00218885,0.00283997,-0.00475199,-1.2635,0.00442932,0.0121593,1959,862,58.7682,-5.62943
742,162,58.7273,6.38861,-0.00545422,0.00356031,-0.00196716,0.00397088,-0.0058648,-1.36504,0.00571362,0.014122,1966,862,58.7273,-6.3886
749,162,58.5985,7.14398,-0.0076401,0.00512445,-0.00203834,0.00544205,-0.00795769,-1.41623,0.00778166,0.0210067,1973,862,58.5986,-7.14401
756,162,58.3278,7.84332,-0.0104128,0.00688379,-0.00243869,0.00722104,-0.0107501,-1.43337,0.0104421,0.0460484,1980,862,58.3277,-7.84329
763,162,58.1327,8.59039,0,0,0,0,0,0,0,-1,1987,862,58.1327,-8.59042
770,162,54.8257,9.36987,0,0,0,0,0,0,0,-1,1994,862,54.8256,-9.36988
777,162,54.9807,10.2266,0,0,0,0,0,0,0,-1,2001,862,54.9806,-10.2265
784,162,55.02,11.0949,0,0,0,0,0,0,0,-1,2008,862,55.0201,-11.0949
791,162,0,0,0,0,0,0,0,0,0,-1,2015,862,0,0
798,162,0,0,0,0,0,0,0,0,0,-1,2022,862,0,0
805,162,0,0,0,0,0,0,0,0,0,-1,2029,862,0,0
812,162,0,0,0,0,0,0,0,0,0,-1,2036,862,0,0
-700,155,0,0,0,0,0,0,0,0,0,-1,524,869,0,0
-693,155,0,0,0,0,0,0,0,0,0,-1,531,869,0,0
-686,155,0,0,0,0,0,0,0,0,0,-1,538,869,0,0
-679,155,0,0,0,0,0,0,0,0,0,-1,545,869,0,0
-672,155,0,0,0,0,0,0,0,0,0,-1,552,869,0,0
-665,155,-50.9639,6.01917,0,0,0,0,0,0,0,-1,559,869,-50.9639,-6.01917
-658,155,-51.2028,4.90723,0,0,0,0,0,0,0,-1,566,869,-51.2028,-4.90722
-651,155,-51.22,3.81226,0,0,0,0,0,0,0,-1,573,869,-51.2201,-3.81228
-644,155,-43.2642,9.34686,0,0,0,0,0,0,0,-1,580,869,-43.2642,-9.34684
-637,155,-43.2825,8.02545,0,0,0,0,0,0,0,-1,587,869,-43.2825,-8.02545
-630,155,-44.5466,7.15546,0,0,0,0,0,0,0,-1,594,869,-44.5466,-7.15545
-623,155,-44.6135,6.328,0.011347,0.00818759,-0.0163926,0.0262358,-0.00670121,-0.737363,0.0201001,0.0287166,601,869,-44.6134,-6.328
-616,155,-44.7068,5.50281,0.00224544,0.00709977,-0.00808709,0.0131161,-0.00377086,-0.931185,0.0102352,0.0155592,608,869,-44.7068,-5.50283
-609,155,-44.799,4.67975,-0.00187369,0.00698648,-0.0020252,0.00742744,-0.00231465,-1.35641,0.00587713,0.0141358,615,869,-44.799,-4.67973
-602,155,-44.8931,3.89618,-0.0034046,0.00417351,0.00125083,0.00437463,-0.00360572,1.41137,0.00461458,0.0131786,622,869,-44.8931,-3.89617
-595,155,-44.9545,3.12512,-0.00466884,0.00154547,0.00435986,0.00379208,-0.00691545,1.09499,0.00626905,0.0128076,629,869,-44.9545,-3.12514
-588,155,-44.9338,2.39935,-0.00606502,-0.000781468,0.0073483,0.0043855,-0.011232,0.957959,0.00930109,0.0233441,636,869,-44.9338,-2.39934
-581,155,-45.2507,1.80273,-0.00758504,-0.00279229,0.0102191,0.0053077,-0.015685,0.900567,0.0126041,0.0462853,643,869,-45.2508,-1.80271
-574,155,-45.5278,1.34827,0,0,0,0,0,0,0,-1,650,869,-45.5277,-1.34825
-567,155,-38.0134,0.582214,0,0,0,0,0,0,0,-1,657,869,-38.0134,-0.582192
-560,155,-37.1416,-0.708008,0,0,0,0,0,0,0,-1,664,869,-37.1416,0.70801
-553,155,-36.7729,-1.71521,0,0,0,0,0,0,0,-1,671,869,-36.7729,1.71523
-546,155,-22.7988,0.873657,0,0,0,0,0,0,0,-1,678,869,-22.7988,-0.873645
-539,155,-55.0695,0.239685,0,0,0,0,0,0,0,-1,685,869,-55.0694,-0.239705
-532,155,-54.9528,0.407898,0,0,0,0,0,0,0,-1,692,869,-54.9528,-0.407928
-525,155,-54.871,0.602051,0,0,0,0,0,0,0,-1,699,869,-54.8709,-0.602078
-518,155,-54.8375,0.624207,0,0,0,0,0,0,0,-1,706,869,-54.8375,-0.624209
-511,155,-54.714,0.365906,0,0,0,0,0,0,0,-1,713,869,-54.714,-0.365886
-504,155,-54.7371,0.353333,0,0,0,0,0,0,0,-1,720,869,-54.7371,-0.353344
-497,155,0,0,0,0,0,0,0,0,0,-1,727,869,0,0
-490,155,0,0,0,0,0,0,0,0,0,-1,734,869,0,0
-483,155,0,0,0,0,0,0,0,0,0,-1,741,869,0,0
-476,155,0,0,0,0,0,0,0,0,0,-1,748,869,0,0
-469,155,0,0,0,0,0,0,0,0,0,-1,755,869,0,0
-462,155,0,0,0,0,0,0,0,0,0,-1,762,869,0,0
-455,155,0,0,0,0,0,0,0,0,0,-1,769,869,0,0
-448,155,0,0,0,0,0,0,0,0,0,-1,776,869,0,0
-441,155,0,0,0,0,0,0,0,0,0,-1,783,869,0,0
-434,155,0,0,0,0,0,0,0,0,0,-1,790,869,0,0
-427,155,0,0,0,0,0,0,0,0,0,-1,797,869,0,0
-420,155,0,0,0,0,0,0,0,0,0,-1,804,869,0,0
-413,155,0,0,0,0,0,0,0,0,0,-1,811,869,0,0
-406,155,0,0,0,0,0,0,0,0,0,-1,818,869,0,0
-399,155,0,0,0,0,0,0,0,0,0,-1,825,869,0,0
-392,155,0,0,0,0,0,0,0,0,0,-1,832,869,0,0
-385,155,0,0,0,0,0,0,0,0,0,-1,839,869,0,0
-378,155,0,0,0,0,0,0,0,0,0,-1,846,869,0,0
-371,155,0,0,0,0,0,0,0,0,0,-1,853,869,0,0
-364,155,0,0,0,0,0,0,0,0,0,-1,860,869,0,0
-357,155,0,0,0,0,0,0,0,0,0,-1,867,869,0,0
-350,155,0,0,0,0,0,0,0,0,0,-1,874,869,0,0
-343,155,0,0,0,0,0,0,0,0,0,-1,881,869,0,0
-336,155,0,0,0,0,0,0,0,0,0,-1,888,869,0,0
-329,155,0,0,0,0,0,0,0,0,0,-1,895,869,0,0
-322,155,0,0,0,0,0,0,0,0,0,-1,902,869,0,0
-315,155,0,0,0,0,0,0,0,0,0,-1,909,869,0,0
-308,155,0,0,0,0,0,0,0,0,0,-1,916,869,0,0
-301,155,0,0,0,0,0,0,0,0,0,-1,923,869,0,0
-294,155,0,0,0,0,0,0,0,0,0,-1,930,869,0,0
-287,155,0,0,0,0,0,0,0,0,0,-1,937,869,0,0
-280,155,0,0,0,0,0,0,0,0,0,-1,944,869,0,0
-273,155,0,0,0,0,0,0,0,0,0,-1,951,869,0,0
-266,155,0,0,0,0,0,0,0,0,0,-1,958,869,0,0
-259,155,0,0,0,0,0,0,0,0,0,-1,965,869,0,0
-252,155,0,0,0,0,0,0,0,0,0,-1,972,869,0,0
-245,155,0,0,0,0,0,0,0,0,0,-1,979,869,0,0
-238,155,0,0,0,0,0,0,0,0,0,-1,986,869,0,0
-231,155,0,0,0,0,0,0,0,0,0,-1,993,869,0,0
-224,155,0,0,0,0,0,0,0,0,0,-1,1000,869,0,0
-217,155,0,0,0,0,0,0,0,0,0,-1,1007,869,0,0
-210,155,0,0,0,0,0,0,0,0,0,-1,1014,869,0,0
-203,155,0,0,0,0,0,0,0,0,0,-1,1021,869,0,0
-196,155,0,0,0,0,0,0,0,0,0,-1,1028,869,0,0
-189,155,0,0,0,0,0,0,0,0,0,-1,1035,869,0,0
-182,155,0,0,0,0,0,0,0,0,0,-1,1042,869,0,0
-175,155,0,0,0,0,0,0,0,0,0,-1,1049,869,0,0
-168,155,0,0,0,0,0,0,0,0,0,-1,1056,869,0,0
-161,155,0,0,0,0,0,0,0,0,0,-1,1063,869,0,0
-154,155,0,0,0,0,0,0,0,0,0,-1,1070,869,0,0
-147,155,0,0,0,0,0,0,0,0,0,-1,1077,869,0,0
-140,155,0,0,0,0,0,0,0,0,0,-1,1084,869,0,0
-133,155,0,0,0,0,0,0,0,0,0,-1,1091,869,0,0
-126,155,0,0,0,0,0,0,0,0,0,-1,1098,869,0,0
-119,155,0,0,0,0,0,0,0,0,0,-1,1105,869,0,0
-112,155,0,0,0,0,0,0,0,0,0,-1,1112,869,0,0
-105,155,0,0,0,0,0,0,0,0,0,-1,1119,869,0,0
-98,155,0,0,0,0,0,0,0,0,0,-1,1126,869,0,0
-91,155,0,0,0,0,0,0,0,0,0,-1,1133,869,0,0
-84,155,0,0,0,0,0,0,0,0,0,-1,1140,869,0,0
-77,155,0,0,0,0,0,0,0,0,0,-1,1147,869,0,0
-70,155,0,0,0,0,0,0,0,0,0,-1,1154,869,0,0
-63,155,0,0,0,0,0,0,0,0,0,-1,1161,869,0,0
-56,155,0,0,0,0,0,0,0,0,0,-1,1168,869,0,0
-49,155,0,0,0,0,0,0,0,0,0,-1,1175,869,0,0
-42,155,0,0,0,0,0,0,0,0,0,-1,1182,869,0,0
-35,155,0,0,0,0,0,0,0,0,0,-1,1189,869,0,0
-28,155,0,0,0,0,0,0,0,0,0,-1,1196,869,0,0
-21,155,0,0,0,0,0,0,0,0,0,-1,1203,869,0,0
-14,155,0,0,0,0,0,0,0,0,0,-1,1210,869,0,0
-7,155,0,0,0,0,0,0,0,0,0,-1,1217,869,0,0
0,155,0,0,0,0,0,0,0,0,0,-1,1224,869,0,0
7,155,0,0,0,0,0,0,0,0,0,-1,1231,869,0,0
14,155,0,0,0,0,0,0,0,0,0,-1,1238,869,0,0
21,155,0,0,0,0,0,0,0,0,0,-1,1245,869,0,0
28,155,0,0,0,0,0,0,0,0,0,-1,1252,869,0,0
35,155,0,0,0,0,0,0,0,0,0,-1,1259,869,0,0
42,155,0,0,0,0,0,0,0,0,0,-1,1266,869,0,0
49,155,0,0,0,0,0,0,0,0,0,-1,1273,869,0,0
56,155,0,0,0,0,0,0,0,0,0,-1,1280,869,0,0
63,155,0,0,0,0,0,0,0,0,0,-1,1287,869,0,0
70,155,0,0,0,0,0,0,0,0,0,-1,1294,869,0,0
77,155,0,0,0,0,0,0,0,0,0,-1,1301,869,0,0
84,155,0,0,0,0,0,0,0,0,0,-1,1308,869,0,0
91,155,0,0,0,0,0,0,0,0,0,-1,1315,869,0,0
98,155,0,0,0,0,0,0,0,0,0,-1,1322,869,0,0
105,155,0,0,0,0,0,0,0,0,0,-1,1329,869,0,0
112,155,0,0,0,0,0,0,0,0,0,-1,1336,869,0,0
119,155,0,0,0,0,0,0,0,0,0,-1,1343,869,0,0
126,155,0,0,0,0,0,0,0,0,0,-1,1350,869,0,0
133,155,0,0,0,0,0,0,0,0,0,-1,1357,869,0,0
140,155,0,0,0,0,0,0,0,0,0,-1,1364,869,0,0
147,155,0,0,0,0,0,0,0,0,0,-1,1371,869,0,0
154,155,0,0,0,0,0,0,0,0,0,-1,1378,869,0,0
161,155,0,0,0,0,0,0,0,0,0,-1,1385,869,0,0
168,155,0,0,0,0,0,0,0,0,0,-1,1392,869,0,0
175,155,0,0,0,0,0,0,0,0,0,-1,1399,869,0,0
182,155,0,0,0,0,0,0,0,0,0,-1,1406,869,0,0
189,155,0,0,0,0,0,0,0,0,0,-1,1413,869,0,0
196,155,0,0,0,0,0,0,0,0,0,-1,1420,869,0,0
203,155,0,0,0,0,0,0,0,0,0,-1,1427,869,0,0
210,155,0,0,0,0,0,0,0,0,0,-1,1434,869,0,0
217,155,0,0,0,0,0,0,0,0,0,-1,1441,869,0,0
224,155,0,0,0,0,0,0,0,0,0,-1,1448,869,0,0
231,155,0,0,0,0,0,0,0,0,0,-1,1455,869,0,0
238,155,0,0,0,0,0,0,0,0,0,-1,1462,869,0,0
245,155,0,0,0,0,0,0,0,0,0,-1,1469,869,0,0
252,155,0,0,0,0,0,0,0,0,0,-1,1476,869,0,0
259,155,0,0,0,0,0,0,0,0,0,-1,1483,869,0,0
266,155,0,0,0,0,0,0,0,0,0,-1,1490,869,0,0
273,155,0,0,0,0,0,0,0,0,0,-1,1497,869,0,0
280,155,0,0,0,0,0,0,0,0,0,-1,1504,869,0,0
287,155,0,0,0,0,0,0,0,0,0,-1,1511,869,0,0
294,155,0,0,0,0,0,0,0,0,0,-1,1518,869,0,0
301,155,0,0,0,0,0,0,0,0,0,-1,1525,869,0,0
308,155,0,0,0,0,0,0,0,0,0,-1,1532,869,0,0
315,155,0,0,0,0,0,0,0,0,0,-1,1539,869,0,0
322,155,0,0,0,0,0,0,0,0,0,-1,1546,869,0,0
329,155,0,0,0,0,0,0,0,0,0,-1,1553,869,0,0
336,155,0,0,0,0,0,0,0,0,0,-1,1560,869,0,0
343,155,0,0,0,0,0,0,0,0,0,-1,1567,869,0,0
350,155,0,0,0,0,0,0,0,0,0,-1,1574,869,0,0
357,155,0,0,0,0,0,0,0,0,0,-1,1581,869,0,0
364,155,0,0,0,0,0,0,0,0,0,-1,1588,869,0,0
371,155,0,0,0,0,0,0,0,0,0,-1,1595,869,0,0
378,155,0,0,0,0,0,0,0,0,0,-1,1602,869,0,0
385,155,0,0,0,0,0,0,0,0,0,-1,1609,869,0,0
392,155,0,0,0,0,0,0,0,0,0,-1,1616,869,0,0
399,155,0,0,0,0,0,0,0,0,0,-1,1623,869,0,0
406,155,0,0,0,0,0,0,0,0,0,-1,1630,869,0,0
413,155,0,0,0,0,0,0,0,0,0,-1,1637,869,0,0
420,155,0,0,0,0,0,0,0,0,0,-1,1644,869,0,0
427,155,0,0,0,0,0,0,0,0,0,-1,1651,869,0,0
434,155,0,0,0,0,0,0,0,0,0,-1,1658,869,0,0
441,155,0,0,0,0,0,0,0,0,0,-1,1665,869,0,0
448,155,0,0,0,0,0,0,0,0,0,-1,1672,869,0,0
455,155,0,0,0,0,0,0,0,0,0,-1,1679,869,0,0
462,155,0,0,0,0,0,0,0,0,0,-1,1686,869,0,0
469,155,0,0,0,0,0,0,0,0,0,-1,1693,869,0,0
476,155,0,0,0,0,0,0,0,0,0,-1,1700,869,0,0
483,155,0,0,0,0,0,0,0,0,0,-1,1707,869,0,0
490,155,0,0,0,0,0,0,0,0,0,-1,1714,869,0,0
497,155,0,0,0,0,0,0,0,0,0,-1,1721,869,0,0
504,155,0,0,0,0,0,0,0,0,0,-1,1728,869,0,0
511,155,0,0,0,0,0,0,0,0,0,-1,1735,869,0,0
518,155,0,0,0,0,0,0,0,0,0,-1,1742,869,0,0
525,155,0,0,0,0,0,0,0,0,0,-1,1749,869,0,0
532,155,0,0,0,0,0,0,0,0,0,-1,1756,869,0,0
539,155,0,0,0,0,0,0,0,0,0,-1,1763,869,0,0
546,155,0,0,0,0,0,0,0,0,0,-1,1770,869,0,0
553,155,0,0,0,0,0,0,0,0,0,-1,1777,869,0,0
560,155,0,0,0,0,0,0,0,0,0,-1,1784,869,0,0
567,155,0,0,0,0,0,0,0,0,0,-1,1791,869,0,0
574,155,0,0,0,0,0,0,0,0,0,-1,1798,869,0,0
581,155,0,0,0,0,0,0,0,0,0,-1,1805,869,0,0
588,155,0,0,0,0,0,0,0,0,0,-1,1812,869,0,0
595,155,0,0,0,0,0,0,0,0,0,-1,1819,869,0,0
602,155,0,0,0,0,0,0,0,0,0,-1,1826,869,0,0
609,155,0,0,0,0,0,0,0,0,0,-1,1833,869,0,0
616,155,71.3094,2.34229,-0.00605158,-0.00628805,-0.00292717,-0.00324026,-0.00909938,-0.765213,0.00532556,0.04494,1840,869,71.3094,-2.34227
623,155,71.2371,2.34064,-0.00499146,-0.00486947,-0.00136816,-0.00356094,-0.00629999,-0.807673,0.0036476,0.0419777,1847,869,71.2371,-2.34062
630,155,71.1349,2.24933,-0.00389582,-0.00365326,-0.00030024,-0.00345073,-0.00409835,-0.977344,0.00254399,0.0441778,1854,869,71.1349,-2.2493
637,155,71.1212,2.22632,-0.00297426,-0.0023518,0.000413834,-0.00214523,-0.00318083,1.10781,0.00187333,0.042855,1861,869,71.1213,-2.22631
644,155,71.0948,2.18829,-0.0024888,-0.00149585,0.000693642,-0.00113932,-0.00284534,1.09601,0.00165358,0.0357243,1868,869,71.0948,-2.18832
651,155,71.1526,2.1557,-0.00226045,-0.000967467,0.000655467,-0.000693313,-0.0025346,1.17465,0.00151256,0.032093,1875,869,71.1526,-2.15573
658,155,71.1702,2.24042,-0.00278339,-0.00100235,-1.91367e-05,-0.00100215,-0.00278359,-1.56005,0.00162797,0.0290048,1882,869,71.1701,-2.24042
665,155,71.0925,2.26965,-0.00308106,-0.0011191,-0.000635046,-0.000931486,-0.00326867,-1.28354,0.00194447,0.0389529,1889,869,71.0925,-2.26965
672,155,71.0111,2.37891,0,0,0,0,0,0,0,-1,1896,869,71.0111,-2.37892
679,155,35.1565,2.78528,0,0,0,0,0,0,0,-1,1903,869,35.1565,-2.7853
686,155,43.6101,1.63361,0,0,0,0,0,0,0,-1,1910,869,43.6101,-1.63362
693,155,59.9003,1.4303,0,0,0,0,0,0,0,-1,1917,869,59.9003,-1.43028
700,155,59.7281,1.95825,0,0,0,0,0,0,0,-1,1924,869,59.7281,-1.95826
707,155,60.0667,2.68982,0,0,0,0,0,0,0,-1,1931,869,60.0666,-2.6898
714,155,59.7679,3.14911,0,0,0,0,0,0,0,-1,1938,869,59.768,-3.14912
721,155,59.572,4.07147,-0.00264232,0.000150235,-0.00308201,0.00213751,-0.00462959,-0.998088,0.00399432,0.0463276,1945,869,59.572,-4.07149
728,155,59.6041,4.90393,-0.00320328,0.00100738,-0.0028057,0.0024098,-0.00460571,-1.10727,0.00411601,0.0210939,1952,869,59.6041,-4.90394
735,155,59.5824,5.65631,-0.00412575,0.00212872,-0.00253216,0.00302534,-0.00502237,-1.23048,0.00469379,0.016591,1959,869,59.5824,-5.65634
742,155,59.5504,6.42377,-0.00572162,0.00370557,-0.00229749,0.00423568,-0.00625173,-1.34403,0.00609209,0.0191613,1966,869,59.5504,-6.42376
749,155,59.4269,7.17603,-0.00805673,0.00544789,-0.00224794,0.00581224,-0.00842109,-1.41011,0.0082635,0.0180875,1973,869,59.4269,-7.17602
756,155,59.2124,7.96246,-0.0109213,0.00735486,-0.00244484,0.00767626,-0.0112427,-1.44009,0.0109874,0.0305162,1980,869,59.2124,-7.96249
763,155,59.0344,8.82501,-0.0152046,0.00949701,-0.00332152,0.00993585,-0.0156434,-1.43944,0.0148903,0.0489255,1987,869,59.0344,-8.82499
770,155,58.8452,9.68677,0,0,0,0,0,0,0,-1,1994,869,58.8452,-9.68676
777,155,54.6055,10.1432,0,0,0,0,0,0,0,-1,2001,869,54.6055,-10.1433
784,155,54.8704,11.0088,0,0,0,0,0,0,0,-1,2008,869,54.8704,-11.0088
791,155,0,0,0,0,0,0,0,0,0,-1,2015,869,0,0
798,155,0,0,0,0,0,0,0,0,0,-1,2022,869,0,0
805,155,0,0,0,0,0,0,0,0,0,-1,2029,869,0,0
812,155,0,0,0,0,0,0,0,0,0,-1,2036,869,0,0
-700,148,0,0,0,0,0,0,0,0,0,-1,524,876,0,0
-693,148,0,0,0,0,0,0,0,0,0,-1,531,876,0,0
-686,148,0,0,0,0,0,0,0,0,0,-1,538,876,0,0
-679,148,0,0,0,0,0,0,0,0,0,-1,545,876,0,0
-672,148,-48.1407,-0.726746,0,0,0,0,0,0,0,-1,552,876,-48.1407,0.726755
-665,148,-48.2041,-3.97095,0,0,0,0,0,0,0,-1,559,876,-48.2041,3.97096
-658,148,-51.7661,3.82794,0,0,0,0,0,0,0,-1,566,876,-51.7661,-3.82797
-651,148,-52.0392,2.79663,0,0,0,0,0,0,0,-1,573,876,-52.0392,-2.79661
-644,148,-52.2687,1.81482,0,0,0,0,0,0,0,-1,580,876,-52.2687,-1.81482
-637,148,-52.5708,0.881165,0,0,0,0,0,0,0,-1,587,876,-52.5708,-0.88117
-630,148,-45.1288,7.28601,0,0,0,0,0,0,0,-1,594,876,-45.1288,-7.28599
-623,148,-45.3286,6.38922,0.0102405,0.0066222,-0.0136767,0.0222272,-0.00536444,-0.719639,0.0168926,0.0295066,601,876,-45.3286,-6.38925
-616,148,-45.4893,5.52655,0.000909304,0.00610486,-0.00606805,0.0101078,-0.00309365,-0.987648,0.00797242,0.0140929,608,876,-45.4893,-5.52652
-609,148,-45.6024,4.71124,-0.00330486,0.00633236,-0.000440019,0.00635241,-0.00332491,-1.52526,0.00567761,0.0132769,615,876,-45.6024,-4.71126
-602,148,-45.7028,3.91748,-0.00425865,0.00364514,0.00230844,0.00426996,-0.00488348,1.30646,0.0052887,0.0148018,622,876,-45.7028,-3.9175
-595,148,-45.7433,3.15381,-0.00469457,0.00095956,0.00493128,0.00381667,-0.00755167,1.04567,0.00668055,0.0130504,629,876,-45.7433,-3.15379
-588,148,-45.757,2.323,-0.00540958,-0.00149665,0.00753917,0.00433578,-0.011242,0.912351,0.00928379,0.0316716,636,876,-45.757,-2.32297
-581,148,-45.7563,2.10016,0,0,0,0,0,0,0,-1,643,876,-45.7564,-2.10013
-574,148,-42.5058,1.22711,0,0,0,0,0,0,0,-1,650,876,-42.5058,-1.22714
-567,148,-35.6293,0.615784,0,0,0,0,0,0,0,-1,657,876,-35.6293,-0.615792
-560,148,-37.7973,-0.588135,0,0,0,0,0,0,0,-1,664,876,-37.7973,0.588143
-553,148,-18.3896,-0.00280762,0,0,0,0,0,0,0,-1,671,876,-18.3897,0.00278524
-546,148,-54.9584,0.511963,0,0,0,0,0,0,0,-1,678,876,-54.9584,-0.511944
-539,148,-54.9075,0.414185,0,0,0,0,0,0,0,-1,685,876,-54.9075,-0.414195
-532,148,-54.9204,0.44104,0,0,0,0,0,0,0,-1,692,876,-54.9204,-0.441069
-525,148,-54.8459,0.580139,0,0,0,0,0,0,0,-1,699,876,-54.8459,-0.580163
-518,148,-54.8542,0.53772,0,0,0,0,0,0,0,-1,706,876,-54.8542,-0.537744
-511,148,-54.7822,0.316467,0,0,0,0,0,0,0,-1,713,876,-54.7821,-0.316497
-504,148,-54.6331,0.380859,0,0,0,0,0,0,0,-1,720,876,-54.6331,-0.380871
-497,148,0,0,0,0,0,0,0,0,0,-1,727,876,0,0
-490,148,0,0,0,0,0,0,0,0,0,-1,734,876,0,0
-483,148,0,0,0,0,0,0,0,0,0,-1,741,876,0,0
-476,148,0,0,0,0,0,0,0,0,0,-1,748,876,0,0
-469,148,0,0,0,0,0,0,0,0,0,-1,755,876,0,0
-462,148,0,0,0,0,0,0,0,0,0,-1,762,876,0,0
-455,148,0,0,0,0,0,0,0,0,0,-1,769,876,0,0
-448,148,0,0,0,0,0,0,0,0,0,-1,776,876,0,0
-441,148,0,0,0,0,0,0,0,0,0,-1,783,876,0,0
-434,148,0,0,0,0,0,0,0,0,0,-1,790,876,0,0
-427,148,0,0,0,0,0,0,0,0,0,-1,797,876,0,0
-420,148,0,0,0,0,0,0,0,0,0,-1,804,876,0,0
-413,148,0,0,0,0,0,0,0,0,0,-1,811,876,0,0
-406,148,0,0,0,0,0,0,0,0,0,-1,818,876,0,0
-399,148,0,0,0,0,0,0,0,0,0,-1,825,876,0,0
-392,148,0,0,0,0,0,0,0,0,0,-1,832,876,0,0
-385,148,0,0,0,0,0,0,0,0,0,-1,839,876,0,0
-378,148,0,0,0,0,0,0,0,0,0,-1,846,876,0,0
-371,148,0,0,0,0,0,0,0,0,0,-1,853,876,0,0
-364,148,0,0,0,0,0,0,0,0,0,-1,860,876,0,0
-357,148,0,0,0,0,0,0,0,0,0,-1,867,876,0,0
-350,148,0,0,0,0,0,0,0,0,0,-1,874,876,0,0
-343,148,0,0,0,0,0,0,0,0,0,-1,881,876,0,0
-336,148,0,0,0,0,0,0,0,0,0,-1,888,876,0,0
-329,148,0,0,0,0,0,0,0,0,0,-1,895,876,0,0
-322,148,0,0,0,0,0,0,0,0,0,-1,902,876,0,0
-315,148,0,0,0,0,0,0,0,0,0,-1,909,876,0,0
-308,148,0,0,0,0,0,0,0,0,0,-1,916,876,0,0
-301,148,0,0,0,0,0,0,0,0,0,-1,923,876,0,0
-294,148,0,0,0,0,0,0,0,0,0,-1,930,876,0,0
-287,148,0,0,0,0,0,0,0,0,0,-1,937,876,0,0
-280,148,0,0,0,0,0,0,0,0,0,-1,944,876,0,0
-273,148,0,0,0,0,0,0,0,0,0,-1,951,876,0,0
-266,148,0,0,0,0,0,0,0,0,0,-1,958,876,0,0
-259,148,0,0,0,0,0,0,0,0,0,-1,965,876,0,0
-252,148,0,0,0,0,0,0,0,0,0,-1,972,876,0,0
-245,148,0,0,0,0,0,0,0,0,0,-1,979,876,0,0
-238,148,0,0,0,0,0,0,0,0,0,-1,986,876,0,0
-231,148,0,0,0,0,0,0,0,0,0,-1,993,876,0,0
-224,148,0,0,0,0,0,0,0,0,0,-1,1000,876,0,0
-217,148,0,0,0,0,0,0,0,0,0,-1,1007,876,0,0
-210,148,0,0,0,0,0,0,0,0,0,-1,1014,876,0,0
-203,148,0,0,0,0,0,0,0,0,0,-1,1021,876,0,0
-196,148,0,0,0,0,0,0,0,0,0,-1,1028,876,0,0
-189,148,0,0,0,0,0,0,0,0,0,-1,1035,876,0,0
-182,148,0,0,0,0,0,0,0,0,0,-1,1042,876,0,0
-175,148,0,0,0,0,0,0,0,0,0,-1,1049,876,0,0
-168,148,0,0,0,0,0,0,0,0,0,-1,1056,876,0,0
-161,148,0,0,0,0,0,0,0,0,0,-1,1063,876,0,0
-154,148,0,0,0,0,0,0,0,0,0,-1,1070,876,0,0
-147,148,0,0,0,0,0,0,0,0,0,-1,1077,876,0,0
-140,148,0,0,0,0,0,0,0,0,0,-1,1084,876,0,0
-133,148,0,0,0,0,0,0,0,0,0,-1,1091,876,0,0
-126,148,0,0,0,0,0,0,0,0,0,-1,1098,876,0,0
-119,148,0,0,0,0,0,0,0,0,0,-1,1105,876,0,0
-112,148,0,0,0,0,0,0,0,0,0,-1,1112,876,0,0
-105,148,0,0,0,0,0,0,0,0,0,-1,1119,876,0,0
-98,148,0,0,0,0,0,0,0,0,0,-1,1126,876,0,0
-91,148,0,0,0,0,0,0,0,0,0,-1,1133,876,0,0
-84,148,0,0,0,0,0,0,0,0,0,-1,1140,876,0,0
-77,148,0,0,0,0,0,0,0,0,0,-1,1147,876,0,0
-70,148,0,0,0,0,0,0,0,0,0,-1,1154,876,0,0
-63,148,0,0,0,0,0,0,0,0,0,-1,1161,876,0,0
-56,148,0,0,0,0,0,0,0,0,0,-1,1168,876,0,0
-49,148,0,0,0,0,0,0,0,0,0,-1,1175,876,0,0
-42,148,0,0,0,0,0,0,0,0,0,-1,1182,876,0,0
-35,148,0,0,0,0,0,0,0,0,0,-1,1189,876,0,0
-28,148,0,0,0,0,0,0,0,0,0,-1,1196,876,0,0
-21,148,0,0,0,0,0,0,0,0,0,-1,1203,876,0,0
-14,148,0,0,0,0,0,0,0,0,0,-1,1210,876,0,0
-7,148,0,0,0,0,0,0,0,0,0,-1,1217,876,0,0
0,148,0,0,0,0,0,0,0,0,0,-1,1224,876,0,0
7,148,0,0,0,0,0,0,0,0,0,-1,1231,876,0,0
14,148,0,0,0,0,0,0,0,0,0,-1,1238,876,0,0
21,148,0,0,0,0,0,0,0,0,0,-1,1245,876,0,0
28,148,0,0,0,0,0,0,0,0,0,-1,1252,876,0,0
35,148,0,0,0,0,0,0,0,0,0,-1,1259,876,0,0
42,148,0,0,0,0,0,0,0,0,0,-1,1266,876,0,0
49,148,0,0,0,0,0,0,0,0,0,-1,1273,876,0,0
56,148,0,0,0,0,0,0,0,0,0,-1,1280,876,0,0
63,148,0,0,0,0,0,0,0,0,0,-1,1287,876,0,0
70,148,0,0,0,0,0,0,0,0,0,-1,1294,876,0,0
77,148,0,0,0,0,0,0,0,0,0,-1,1301,876,0,0
84,148,0,0,0,0,0,0,0,0,0,-1,1308,876,0,0
91,148,0,0,0,0,0,0,0,0,0,-1,1315,876,0,0
98,148,0,0,0,0,0,0,0,0,0,-1,1322,876,0,0
105,148,0,0,0,0,0,0,0,0,0,-1,1329,876,0,0
112,148,0,0,0,0,0,0,0,0,0,-1,1336,876,0,0
119,148,0,0,0,0,0,0,0,0,0,-1,1343,876,0,0
126,148,0,0,0,0,0,0,0,0,0,-1,1350,876,0,0
133,148,0,0,0,0,0,0,0,0,0,-1,1357,876,0,0
140,148,0,0,0,0,0,0,0,0,0,-1,1364,876,0,0
147,148,0,0,0,0,0,0,0,0,0,-1,1371,876,0,0
154,148,0,0,0,0,0,0,0,0,0,-1,1378,876,0,0
161,148,0,0,0,0,0,0,0,0,0,-1,1385,876,0,0
168,148,0,0,0,0,0,0,0,0,0,-1,1392,876,0,0
175,148,0,0,0,0,0,0,0,0,0,-1,1399,876,0,0
182,148,0,0,0,0,0,0,0,0,0,-1,1406,876,0,0
189,148,0,0,0,0,0,0,0,0,0,-1,1413,876,0,0
196,148,0,0,0,0,0,0,0,0,0,-1,1420,876,0,0
203,148,0,0,0,0,0,0,0,0,0,-1,1427,876,0,0
210,148,0,0,0,0,0,0,0,0,0,-1,1434,876,0,0
217,148,0,0,0,0,0,0,0,0,0,-1,1441,876,0,0
224,148,0,0,0,0,0,0,0,0,0,-1,1448,876,0,0
231,148,0,0,0,0,0,0,0,0,0,-1,1455,876,0,0
238,148,0,0,0,0,0,0,0,0,0,-1,1462,876,0,0
245,148,0,0,0,0,0,0,0,0,0,-1,1469,876,0,0
252,148,0,0,0,0,0,0,0,0,0,-1,1476,876,0,0
259,148,0,0,0,0,0,0,0,0,0,-1,1483,876,0,0
266,148,0,0,0,0,0,0,0,0,0,-1,1490,876,0,0
273,148,0,0,0,0,0,0,0,0,0,-1,1497,876,0,0
280,148,0,0,0,0,0,0,0,0,0,-1,1504,876,0,0
287,148,0,0,0,0,0,0,0,0,0,-1,1511,876,0,0
294,148,0,0,0,0,0,0,0,0,0,-1,1518,876,0,0
301,148,0,0,0,0,0,0,0,0,0,-1,1525,876,0,0
308,148,0,0,0,0,0,0,0,0,0,-1,1532,876,0,0
315,148,0,0,0,0,0,0,0,0,0,-1,1539,876,0,0
322,148,0,0,0,0,0,0,0,0,0,-1,1546,876,0,0
329,148,0,0,0,0,0,0,0,0,0,-1,1553,876,0,0
336,148,0,0,0,0,0,0,0,0,0,-1,1560,876,0,0
343,148,0,0,0,0,0,0,0,0,0,-1,1567,876,0,0
350,148,0,0,0,0,0,0,0,0,0,-1,1574,876,0,0
357,148,0,0,0,0,0,0,0,0,0,-1,1581,876,0,0
364,148,0,0,0,0,0,0,0,0,0,-1,1588,876,0,0
371,148,0,0,0,0,0,0,0,0,0,-1,1595,876,0,0
378,148,0,0,0,0,0,0,0,0,0,-1,1602,876,0,0
385,148,0,0,0,0,0,0,0,0,0,-1,1609,876,0,0
392,148,0,0,0,0,0,0,0,0,0,-1,1616,876,0,0
399,148,0,0,0,0,0,0,0,0,0,-1,1623,876,0,0
406,148,0,0,0,0,0,0,0,0,0,-1,1630,876,0,0
413,148,0,0,0,0,0,0,0,0,0,-1,1637,876,0,0
420,148,0,0,0,0,0,0,0,0,0,-1,1644,876,0,0
427,148,0,0,0,0,0,0,0,0,0,-1,1651,876,0,0
434,148,0,0,0,0,0,0,0,0,0,-1,1658,876,0,0
441,148,0,0,0,0,0,0,0,0,0,-1,1665,876,0,0
448,148,0,0,0,0,0,0,0,0,0,-1,1672,876,0,0
455,148,0,0,0,0,0,0,0,0,0,-1,1679,876,0,0
462,148,0,0,0,0,0,0,0,0,0,-1,1686,876,0,0
469,148,0,0,0,0,0,0,0,0,0,-1,1693,876,0,0
476,148,0,0,0,0,0,0,0,0,0,-1,1700,876,0,0
483,148,0,0,0,0,0,0,0,0,0,-1,1707,876,0,0
490,148,0,0,0,0,0,0,0,0,0,-1,1714,876,0,0
497,148,0,0,0,0,0,0,0,0,0,-1,1721,876,0,0
504,148,0,0,0,0,0,0,0,0,0,-1,1728,876,0,0
511,148,0,0,0,0,0,0,0,0,0,-1,1735,876,0,0
518,148,0,0,0,0,0,0,0,0,0,-1,1742,876,0,0
525,148,0,0,0,0,0,0,0,0,0,-1,1749,876,0,0
532,148,0,0,0,0,0,0,0,0,0,-1,1756,876,0,0
539,148,0,0,0,0,0,0,0,0,0,-1,1763,876,0,0
546,148,0,0,0,0,0,0,0,0,0,-1,1770,876,0,0
553,148,0,0,0,0,0,0,0,0,0,-1,1777,876,0,0
560,148,0,0,0,0,0,0,0,0,0,-1,1784,876,0,0
567,148,0,0,0,0,0,0,0,0,0,-1,1791,876,0,0
574,148,0,0,0,0,0,0,0,0,0,-1,1798,876,0,0
581,148,0,0,0,0,0,0,0,0,0,-1,1805,876,0,0
588,148,0,0,0,0,0,0,0,0,0,-1,1812,876,0,0
595,148,0,0,0,0,0,0,0,0,0,-1,1819,876,0,0
602,148,0,0,0,0,0,0,0,0,0,-1,1826,876,0,0
609,148,0,0,0,0,0,0,0,0,0,-1,1833,876,0,0
616,148,0,0,0,0,0,0,0,0,0,-1,1840,876,0,0
623,148,71.2067,2.37354,-0.00616372,-0.00539724,-0.00155825,-0.00417579,-0.00738517,-0.905976,0.00427598,0.0398447,1847,876,71.2067,-2.37356
630,148,71.0814,2.34448,-0.00483296,-0.0043628,-0.00042619,-0.00411116,-0.00508461,-1.03743,0.00311635,0.0417828,1854,876,71.0814,-2.34449
637,148,71.1034,2.35638,-0.00366668,-0.0031521,0.000300183,-0.00301403,-0.00380474,1.1397,0.00231832,0.0388258,1861,876,71.1034,-2.3564
644,148,71.0958,2.17065,-0.00279669,-0.00218817,0.000656913,-0.00176848,-0.00321638,1.00227,0.00186005,0.0359244,1868,876,71.0958,-2.17065
651,148,71.1824,1.99786,-0.00220399,-0.00144463,0.000698529,-0.00102926,-0.00261936,1.03433,0.0015238,0.0371772,1875,876,71.1824,-1.99787
658,148,71.1982,2.27435,-0.0024322,-0.00118799,0.000142122,-0.00117196,-0.00244822,1.4585,0.00141391,0.0324764,1882,876,71.1983,-2.27436
665,148,71.0227,2.41901,-0.00261609,-0.00121313,-0.000491762,-0.00105792,-0.0027713,-1.26509,0.00161486,0.0245301,1889,876,71.0228,-2.41903
672,148,71.1366,2.21783,-0.00231794,-0.00131223,-0.000873716,-0.000806998,-0.00282317,-1.04652,0.00167905,0.047014,1896,876,71.1366,-2.21784
679,148,70.8232,2.52679,0,0,0,0,0,0,0,-1,1903,876,70.8232,-2.5268
686,148,21.6195,2.40845,0,0,0,0,0,0,0,-1,1910,876,21.6196,-2.40846
693,148,48.1387,1.97351,0,0,0,0,0,0,0,-1,1917,876,48.1387,-1.97351
700,148,60.9447,2.34747,0,0,0,0,0,0,0,-1,1924,876,60.9448,-2.34747
707,148,60.9272,2.90863,0,0,0,0,0,0,0,-1,1931,876,60.9272,-2.90865
714,148,60.7947,3.50696,0,0,0,0,0,0,0,-1,1938,876,60.7947,-3.50697
721,148,60.4302,4.22296,-0.00221321,0.000224569,-0.00310018,0.00233687,-0.00432551,-0.972699,0.00390323,0.0326062,1945,876,60.4302,-4.22296
728,148,60.4348,4.94635,-0.00275759,0.00109508,-0.00290222,0.00265209,-0.00431459,-1.07839,0.00406021,0.022249,1952,876,60.4348,-4.94636
735,148,60.4073,5.69965,-0.00361693,0.00231058,-0.0027023,0.0033576,-0.00466395,-1.20115,0.00465167,0.0221654,1959,876,60.4073,-5.69963
742,148,60.3196,6.45837,-0.0050596,0.00415795,-0.00246614,0.00477628,-0.00567793,-1.32513,0.00604322,0.023121,1966,876,60.3196,-6.4584
749,148,60.2028,7.1944,-0.00696793,0.00625039,-0.00228471,0.00663415,-0.00735169,-1.40438,0.00807827,0.0213836,1973,876,60.2028,-7.1944
756,148,60.0365,7.96472,-0.0091209,0.00851592,-0.00223845,0.00879559,-0.00940057,-1.4465,0.0105075,0.0263405,1980,876,60.0365,-7.96474
763,148,59.7458,8.8194,-0.0120003,0.0110481,-0.00259985,0.0113377,-0.0122899,-1.45985,0.0136451,0.0450227,1987,876,59.7458,-8.81943
770,148,59.4246,9.66107,0,0,0,0,0,0,0,-1,1994,876,59.4245,-9.66105
777,148,59.1804,10.5937,0,0,0,0,0,0,0,-1,2001,876,59.1804,-10.5937
784,148,54.7207,10.9227,0,0,0,0,0,0,0,-1,2008,876,54.7207,-10.9227
791,148,57.4717,12.5975,0,0,0,0,0,0,0,-1,2015,876,57.4717,-12.5974
798,148,0,0,0,0,0,0,0,0,0,-1,2022,876,0,0
805,148,0,0,0,0,0,0,0,0,0,-1,2029,876,0,0
812,148,0,0,0,0,0,0,0,0,0,-1,2036,876,0,0
-700,141,0,0,0,0,0,0,0,0,0,-1,524,883,0,0
-693,141,0,0,0,0,0,0,0,0,0,-1,531,883,0,0
-686,141,0,0,0,0,0,0,0,0,0,-1,538,883,0,0
-679,141,0,0,0,0,0,0,0,0,0,-1,545,883,0,0
-672,141,-48.7804,-0.600891,0,0,0,0,0,0,0,-1,552,883,-48.7804,0.600898
-665,141,-48.764,-3.67065,0,0,0,0,0,0,0,-1,559,883,-48.764,3.67066
-658,141,-52.3438,3.12531,0,0,0,0,0,0,0,-1,566,883,-52.3438,-3.1253
-651,141,-53.1779,1.50293,0,0,0,0,0,0,0,-1,573,883,-53.1778,-1.50292
-644,141,-52.4205,-0.191956,0,0,0,0,0,0,0,-1,580,883,-52.4205,0.191941
-637,141,-52.859,0.400024,0,0,0,0,0,0,0,-1,587,883,-52.859,-0.400006
-630,141,-45.8345,7.20288,0,0,0,0,0,0,0,-1,594,883,-45.8344,-7.2029
-623,141,-46.0609,6.30084,0.00986264,0.00553306,-0.0108619,0.0187734,-0.00337765,-0.687036,0.0137801,0.035118,601,883,-46.0609,-6.30086
-616,141,-46.2966,5.50262,0.000606614,0.00555714,-0.00402794,0.00780958,-0.00164583,-1.06091,0.00583292,0.0143446,608,883,-46.2965,-5.50264
-609,141,-46.4005,4.72961,-0.0039626,0.00584248,0.000864112,0.00591805,-0.00403817,1.48356,0.00578228,0.0142618,615,883,-46.4005,-4.72959
-602,141,-46.4735,3.95837,-0.00507805,0.00320041,0.00293461,0.00413515,-0.00601279,1.26243,0.00589225,0.015164,622,883,-46.4735,-3.95836
-595,141,-46.5192,3.21283,0,0,0,0,0,0,0,-1,629,883,-46.5192,-3.21286
-588,141,-46.8781,2.37042,0,0,0,0,0,0,0,-1,636,883,-46.8781,-2.37044
-581,141,-47.2371,1.52802,0,0,0,0,0,0,0,-1,643,883,-47.2371,-1.52803
-574,141,-42.7302,0.864685,0,0,0,0,0,0,0,-1,650,883,-42.7301,-0.864692
-567,141,-30.5335,0.480103,0,0,0,0,0,0,0,-1,657,883,-30.5335,-0.480081
-560,141,-30.5542,0.23175,0,0,0,0,0,0,0,-1,664,883,-30.5542,-0.231742
-553,141,-32.0876,1.39459,0,0,0,0,0,0,0,-1,671,883,-32.0876,-1.3946
-546,141,-54.7391,0.585571,0,0,0,0,0,0,0,-1,678,883,-54.7391,-0.585545
-539,141,-54.8068,0.558777,0,0,0,0,0,0,0,-1,685,883,-54.8068,-0.558794
-532,141,-54.8986,0.467041,0,0,0,0,0,0,0,-1,692,883,-54.8986,-0.467014
-525,141,-54.8812,0.535706,0,0,0,0,0,0,0,-1,699,883,-54.8812,-0.535683
-518,141,-54.9235,0.598206,0,0,0,0,0,0,0,-1,706,883,-54.9234,-0.598225
-511,141,-54.9792,0.545654,0,0,0,0,0,0,0,-1,713,883,-54.9792,-0.545632
-504,141,-54.89,0.447815,0,0,0,0,0,0,0,-1,720,883,-54.8899,-0.447834
-497,141,0,0,0,0,0,0,0,0,0,-1,727,883,0,0
-490,141,0,0,0,0,0,0,0,0,0,-1,734,883,0,0
-483,141,0,0,0,0,0,0,0,0,0,-1,741,883,0,0
-476,141,0,0,0,0,0,0,0,0,0,-1,748,883,0,0
-469,141,0,0,0,0,0,0,0,0,0,-1,755,883,0,0
-462,141,0,0,0,0,0,0,0,0,0,-1,762,883,0,0
-455,141,0,0,0,0,0,0,0,0,0,-1,769,883,0,0
-448,141,0,0,0,0,0,0,0,0,0,-1,776,883,0,0
-441,141,0,0,0,0,0,0,0,0,0,-1,783,883,0,0
-434,141,0,0,0,0,0,0,0,0,0,-1,790,883,0,0
-427,141,0,0,0,0,0,0,0,0,0,-1,797,883,0,0
-420,141,0,0,0,0,0,0,0,0,0,-1,804,883,0,0
-413,141,0,0,0,0,0,0,0,0,0,-1,811,883,0,0
-406,141,0,0,0,0,0,0,0,0,0,-1,818,883,0,0
-399,141,0,0,0,0,0,0,0,0,0,-1,825,883,0,0
-392,141,0,0,0,0,0,0,0,0,0,-1,832,883,0,0
-385,141,0,0,0,0,0,0,0,0,0,-1,839,883,0,0
-378,141,0,0,0,0,0,0,0,0,0,-1,846,883,0,0
-371,141,0,0,0,0,0,0,0,0,0,-1,853,883,0,0
-364,141,0,0,0,0,0,0,0,0,0,-1,860,883,0,0
-357,141,0,0,0,0,0,0,0,0,0,-1,867,883,0,0
-350,141,0,0,0,0,0,0,0,0,0,-1,874,883,0,0
-343,141,0,0,0,0,0,0,0,0,0,-1,881,883,0,0
-336,141,0,0,0,0,0,0,0,0,0,-1,888,883,0,0
-329,141,0,0,0,0,0,0,0,0,0,-1,895,883,0,0
-322,141,0,0,0,0,0,0,0,0,0,-1,902,883,0,0
-315,141,0,0,0,0,0,0,0,0,0,-1,909,883,0,0
-308,141,0,0,0,0,0,0,0,0,0,-1,916,883,0,0
-301,141,0,0,0,0,0,0,0,0,0,-1,923,883,0,0
-294,141,0,0,0,0,0,0,0,0,0,-1,930,883,0,0
-287,141,0,0,0,0,0,0,0,0,0,-1,937,883,0,0
-280,141,0,0,0,0,0,0,0,0,0,-1,944,883,0,0
-273,141,0,0,0,0,0,0,0,0,0,-1,951,883,0,0
-266,141,0,0,0,0,0,0,0,0,0,-1,958,883,0,0
-259,141,0,0,0,0,0,0,0,0,0,-1,965,883,0,0
-252,141,0,0,0,0,0,0,0,0,0,-1,972,883,0,0
-245,141,0,0,0,0,0,0,0,0,0,-1,979,883,0,0
-238,141,0,0,0,0,0,0,0,0,0,-1,986,883,0,0
-231,141,0,0,0,0,0,0,0,0,0,-1,993,883,0,0
-224,141,0,0,0,0,0,0,0,0,0,-1,1000,883,0,0
-217,141,0,0,0,0,0,0,0,0,0,-1,1007,883,0,0
-210,141,0,0,0,0,0,0,0,0,0,-1,1014,883,0,0
-203,141,0,0,0,0,0,0,0,0,0,-1,1021,883,0,0
-196,141,0,0,0,0,0,0,0,0,0,-1,1028,883,0,0
-189,141,0,0,0,0,0,0,0,0,0,-1,1035,883,0,0
-182,141,0,0,0,0,0,0,0,0,0,-1,1042,883,0,0
-175,141,0,0,0,0,0,0,0,0,0,-1,1049,883,0,0
-168,141,0,0,0,0,0,0,0,0,0,-1,1056,883,0,0
-161,141,0,0,0,0,0,0,0,0,0,-1,1063,883,0,0
-154,141,0,0,0,0,0,0,0,0,0,-1,1070,883,0,0
-147,141,0,0,0,0,0,0,0,0,0,-1,1077,883,0,0
-140,141,0,0,0,0,0,0,0,0,0,-1,1084,883,0,0
-133,141,0,0,0,0,0,0,0,0,0,-1,1091,883,0,0
-126,141,0,0,0,0,0,0,0,0,0,-1,1098,883,0,0
-119,141,0,0,0,0,0,0,0,0,0,-1,1105,883,0,0
-112,141,0,0,0,0,0,0,0,0,0,-1,1112,883,0,0
-105,141,0,0,0,0,0,0,0,0,0,-1,1119,883,0,0
-98,141,0,0,0,0,0,0,0,0,0,-1,1126,883,0,0
-91,141,0,0,0,0,0,0,0,0,0,-1,1133,883,0,0
-84,141,0,0,0,0,0,0,0,0,0,-1,1140,883,0,0
-77,141,0,0,0,0,0,0,0,0,0,-1,1147,883,0,0
-70,141,0,0,0,0,0,0,0,0,0,-1,1154,883,0,0
-63,141,0,0,0,0,0,0,0,0,0,-1,1161,883,0,0
-56,141,0,0,0,0,0,0,0,0,0,-1,1168,883,0,0
-49,141,0,0,0,0,0,0,0,0,0,-1,1175,883,0,0
-42,141,0,0,0,0,0,0,0,0,0,-1,1182,883,0,0
-35,141,0,0,0,0,0,0,0,0,0,-1,1189,883,0,0
-28,141,0,0,0,0,0,0,0,0,0,-1,1196,883,0,0
-21,141,0,0,0,0,0,0,0,0,0,-1,1203,883,0,0
-14,141,0,0,0,0,0,0,0,0,0,-1,1210,883,0,0
-7,141,0,0,0,0,0,0,0,0,0,-1,1217,883,0,0
0,141,0,0,0,0,0,0,0,0,0,-1,1224,883,0,0
7,141,0,0,0,0,0,0,0,0,0,-1,1231,883,0,0
14,141,0,0,0,0,0,0,0,0,0,-1,1238,883,0,0
21,141,0,0,0,0,0,0,0,0,0,-1,1245,883,0,0
28,141,0,0,0,0,0,0,0,0,0,-1,1252,883,0,0
35,141,0,0,0,0,0,0,0,0,0,-1,1259,883,0,0
42,141,0,0,0,0,0,0,0,0,0,-1,1266,883,0,0
49,141,0,0,0,0,0,0,0,0,0,-1,1273,883,0,0
56,141,0,0,0,0,0,0,0,0,0,-1,1280,883,0,0
63,141,0,0,0,0,0,0,0,0,0,-1,1287,883,0,0
70,141,0,0,0,0,0,0,0,0,0,-1,1294,883,0,0
77,141,0,0,0,0,0,0,0,0,0,-1,1301,883,0,0
84,141,0,0,0,0,0,0,0,0,0,-1,1308,883,0,0
91,141,0,0,0,0,0,0,0,0,0,-1,1315,883,0,0
98,141,0,0,0,0,0,0,0,0,0,-1,1322,883,0,0
105,141,0,0,0,0,0,0,0,0,0,-1,1329,883,0,0
112,141,0,0,0,0,0,0,0,0,0,-1,1336,883,0,0
119,141,0,0,0,0,0,0,0,0,0,-1,1343,883,0,0
126,141,0,0,0,0,0,0,0,0,0,-1,1350,883,0,0
133,141,0,0,0,0,0,0,0,0,0,-1,1357,883,0,0
140,141,0,0,0,0,0,0,0,0,0,-1,1364,883,0,0
147,141,0,0,0,0,0,0,0,0,0,-1,1371,883,0,0
154,141,0,0,0,0,0,0,0,0,0,-1,1378,883,0,0
161,141,0,0,0,0,0,0,0,0,0,-1,1385,883,0,0
168,141,0,0,0,0,0,0,0,0,0,-1,1392,883,0,0
175,141,0,0,0,0,0,0,0,0,0,-1,1399,883,0,0
182,141,0,0,0,0,0,0,0,0,0,-1,1406,883,0,0
189,141,0,0,0,0,0,0,0,0,0,-1,1413,883,0,0
196,141,0,0,0,0,0,0,0,0,0,-1,1420,883,0,0
203,141,0,0,0,0,0,0,0,0,0,-1,1427,883,0,0
210,141,0,0,0,0,0,0,0,0,0,-1,1434,883,0,0
217,141,0,0,0,0,0,0,0,0,0,-1,1441,883,0,0
224,141,0,0,0,0,0,0,0,0,0,-1,1448,883,0,0
231,141,0,0,0,0,0,0,0,0,0,-1,1455,883,0,0
238,141,0,0,0,0,0,0,0,0,0,-1,1462,883,0,0
245,141,0,0,0,0,0,0,0,0,0,-1,1469,883,0,0
252,141,0,0,0,0,0,0,0,0,0,-1,1476,883,0,0
259,141,0,0,0,0,0,0,0,0,0,-1,1483,883,0,0
266,141,0,0,0,0,0,0,0,0,0,-1,1490,883,0,0
273,141,0,0,0,0,0,0,0,0,0,-1,1497,883,0,0
280,141,0,0,0,0,0,0,0,0,0,-1,1504,883,0,0
287,141,0,0,0,0,0,0,0,0,0,-1,1511,883,0,0
294,141,0,0,0,0,0,0,0,0,0,-1,1518,883,0,0
301,141,0,0,0,0,0,0,0,0,0,-1,1525,883,0,0
308,141,0,0,0,0,0,0,0,0,0,-1,1532,883,0,0
315,141,0,0,0,0,0,0,0,0,0,-1,1539,883,0,0
322,141,0,0,0,0,0,0,0,0,0,-1,1546,883,0,0
329,141,0,0,0,0,0,0,0,0,0,-1,1553,883,0,0
336,141,0,0,0,0,0,0,0,0,0,-1,1560,883,0,0
343,141,0,0,0,0,0,0,0,0,0,-1,1567,883,0,0
350,141,0,0,0,0,0,0,0,0,0,-1,1574,883,0,0
357,141,0,0,0,0,0,0,0,0,0,-1,1581,883,0,0
364,141,0,0,0,0,0,0,0,0,0,-1,1588,883,0,0
371,141,0,0,0,0,0,0,0,0,0,-1,1595,883,0,0
378,141,0,0,0,0,0,0,0,0,0,-1,1602,883,0,0
385,141,0,0,0,0,0,0,0,0,0,-1,1609,883,0,0
392,141,0,0,0,0,0,0,0,0,0,-1,1616,883,0,0
399,141,0,0,0,0,0,0,0,0,0,-1,1623,883,0,0
406,141,0,0,0,0,0,0,0,0,0,-1,1630,883,0,0
413,141,0,0,0,0,0,0,0,0,0,-1,1637,883,0,0
420,141,0,0,0,0,0,0,0,0,0,-1,1644,883,0,0
427,141,0,0,0,0,0,0,0,0,0,-1,1651,883,0,0
434,141,0,0,0,0,0,0,0,0,0,-1,1658,883,0,0
441,141,0,0,0,0,0,0,0,0,0,-1,1665,883,0,0
448,141,0,0,0,0,0,0,0,0,0,-1,1672,883,0,0
455,141,0,0,0,0,0,0,0,0,0,-1,1679,883,0,0
462,141,0,0,0,0,0,0,0,0,0,-1,1686,883,0,0
469,141,0,0,0,0,0,0,0,0,0,-1,1693,883,0,0
476,141,0,0,0,0,0,0,0,0,0,-1,1700,883,0,0
483,141,0,0,0,0,0,0,0,0,0,-1,1707,883,0,0
490,141,0,0,0,0,0,0,0,0,0,-1,1714,883,0,0
497,141,0,0,0,0,0,0,0,0,0,-1,1721,883,0,0
504,141,0,0,0,0,0,0,0,0,0,-1,1728,883,0,0
511,141,0,0,0,0,0,0,0,0,0,-1,1735,883,0,0
518,141,0,0,0,0,0,0,0,0,0,-1,1742,883,0,0
525,141,0,0,0,0,0,0,0,0,0,-1,1749,883,0,0
532,141,0,0,0,0,0,0,0,0,0,-1,1756,883,0,0
539,141,0,0,0,0,0,0,0,0,0,-1,1763,883,0,0
546,141,0,0,0,0,0,0,0,0,0,-1,1770,883,0,0
553,141,0,0,0,0,0,0,0,0,0,-1,1777,883,0,0
560,141,0,0,0,0,0,0,0,0,0,-1,1784,883,0,0
567,141,0,0,0,0,0,0,0,0,0,-1,1791,883,0,0
574,141,0,0,0,0,0,0,0,0,0,-1,1798,883,0,0
581,141,0,0,0,0,0,0,0,0,0,-1,1805,883,0,0
588,141,0,0,0,0,0,0,0,0,0,-1,1812,883,0,0
595,141,0,0,0,0,0,0,0,0,0,-1,1819,883,0,0
602,141,0,0,0,0,0,0,0,0,0,-1,1826,883,0,0
609,141,0,0,0,0,0,0,0,0,0,-1,1833,883,0,0
616,141,0,0,0,0,0,0,0,0,0,-1,1840,883,0,0
623,141,71.1298,2.44531,-0.00752967,-0.00584721,-0.00105687,-0.00533765,-0.00803923,-1.12154,0.00472389,0.0438456,1847,883,71.1298,-2.44532
630,141,71.0234,2.43835,-0.0059383,-0.00502766,8.40164e-05,-0.00501997,-0.00594599,1.47956,0.00369421,0.0452164,1854,883,71.0234,-2.43833
637,141,71.0654,2.42255,-0.00455194,-0.00394697,0.000703136,-0.00348402,-0.00501489,0.988528,0.00296764,0.043413,1861,883,71.0654,-2.42256
644,141,71.1243,2.28748,-0.00334367,-0.00294798,0.000969037,-0.0021568,-0.00413485,0.886099,0.002388,0.0395106,1868,883,71.1243,-2.28745
651,141,71.1829,2.29834,-0.00237892,-0.0020603,0.000950054,-0.00125629,-0.00318293,0.868468,0.0018512,0.0397813,1875,883,71.1829,-2.29834
658,141,71.209,2.26062,-0.0021765,-0.0015135,0.000446733,-0.0012887,-0.00240129,1.1046,0.00138763,0.0362397,1882,883,71.2089,-2.26061
665,141,70.983,2.38269,-0.00212159,-0.00139978,-0.00020292,-0.00134664,-0.00217473,-1.3147,0.00126742,0.0285385,1889,883,70.9831,-2.38268
672,141,71.0472,2.31934,-0.00180785,-0.00146603,-0.000643593,-0.000971039,-0.00230284,-0.915183,0.00133497,0.021296,1896,883,71.0473,-2.31932
679,141,71.0031,2.32379,-0.0015933,-0.00143938,-0.000985272,-0.000528068,-0.00250461,-0.824375,0.00152452,0.0372261,1903,883,71.003,-2.32379
686,141,70.9072,2.35028,0,0,0,0,0,0,0,-1,1910,883,70.9072,-2.35028
693,141,51.7202,1.76593,0,0,0,0,0,0,0,-1,1917,883,51.7202,-1.76595
700,141,60.3544,2.08118,0,0,0,0,0,0,0,-1,1924,883,60.3544,-2.08121
707,141,61.5425,2.88354,0,0,0,0,0,0,0,-1,1931,883,61.5424,-2.88355
714,141,61.0927,3.51208,0,0,0,0,0,0,0,-1,1938,883,61.0926,-3.51211
721,141,61.2039,4.21375,-0.00205094,0.000166876,-0.00306574,0.0023181,-0.00420216,-0.958932,0.0038165,0.0218032,1945,883,61.2038,-4.21375
728,141,61.2628,4.92145,-0.00263514,0.000980674,-0.00292194,0.00260879,-0.00426326,-1.06244,0.00400573,0.0180989,1952,883,61.2629,-4.92146
735,141,61.186,5.76233,-0.00340757,0.002225,-0.00276133,0.00335287,-0.00453545,-1.18302,0.00457135,0.0220567,1959,883,61.186,-5.76235
742,141,61.0946,6.48291,-0.00461853,0.00431931,-0.00248927,0.00496583,-0.00526505,-1.31669,0.00590764,0.0223337,1966,883,61.0946,-6.48294
749,141,61.0548,7.17981,-0.00603113,0.00681219,-0.0020914,0.00714417,-0.00636312,-1.41337,0.00780278,0.0156146,1973,883,61.0548,-7.17982
756,141,60.9767,7.97717,-0.00741297,0.00952331,-0.00166146,0.00968476,-0.00757442,-1.47393,0.00998939,0.0215557,1980,883,60.9767,-7.97718
763,141,60.8253,8.76666,-0.00891923,0.0125714,-0.00133489,0.012654,-0.00900183,-1.509,0.0125621,0.0449929,1987,883,60.8253,-8.76664
770,141,60.6399,9.5567,0,0,0,0,0,0,0,-1,1994,883,60.6399,-9.55672
777,141,60.5322,10.0602,0,0,0,0,0,0,0,-1,2001,883,60.5323,-10.0602
784,141,57.8308,11.1509,0,0,0,0,0,0,0,-1,2008,883,57.8308,-11.151
791,141,59.0291,12.3168,0,0,0,0,0,0,0,-1,2015,883,59.029,-12.3168
798,141,0,0,0,0,0,0,0,0,0,-1,2022,883,0,0
805,141,0,0,0,0,0,0,0,0,0,-1,2029,883,0,0
812,141,0,0,0,0,0,0,0,0,0,-1,2036,883,0,0
-700,134,0,0,0,0,0,0,0,0,0,-1,524,890,0,0
-693,134,0,0,0,0,0,0,0,0,0,-1,531,890,0,0
-686,134,0,0,0,0,0,0,0,0,0,-1,538,890,0,0
-679,134,0,0,0,0,0,0,0,0,0,-1,545,890,0,0
-672,134,-49.3306,-0.500671,0.125473,-0.00558037,-0.0721914,0.157441,-0.0375491,-0.416878,0.119461,0.0462458,552,890,-49.3306,0.500651
-665,134,-49.3356,-3.00098,0.103807,-0.00417391,-0.0613475,0.131538,-0.0319054,-0.424549,0.100038,0.0472098,559,890,-49.3356,3.00096
-658,134,-49.3368,-5.46246,0,0,0,0,0,0,0,-1,566,890,-49.3368,5.46248
-651,134,-53.0905,0.530762,0,0,0,0,0,0,0,-1,573,890,-53.0905,-0.530792
-644,134,-51.8253,-1.26782,0,0,0,0,0,0,0,-1,580,890,-51.8253,1.26783
-637,134,-50.5067,-2.83545,0,0,0,0,0,0,0,-1,587,890,-50.5066,2.83545
-630,134,-46.6316,6.78418,0,0,0,0,0,0,0,-1,594,890,-46.6316,-6.78417
-623,134,-46.8278,6.18622,0.00736015,0.00500919,-0.00808929,0.0143589,-0.00198958,-0.713247,0.0103001,0.0342117,601,890,-46.8278,-6.18624
-616,134,-47.1022,5.48547,-0.00113837,0.00520884,-0.00199445,0.00578351,-0.00171304,-1.29026,0.00453583,0.0143545,608,890,-47.1022,-5.48546
-609,134,-47.2272,4.75653,-0.00538538,0.00536474,0.00216498,0.00578437,-0.005805,1.37935,0.00669113,0.0124522,615,890,-47.2273,-4.75656
-602,134,-47.2502,3.98846,-0.00628641,0.00255582,0.0035432,0.00380044,-0.00753103,1.23299,0.00665936,0.0141346,622,890,-47.2502,-3.98846
-595,134,-47.6386,3.48822,0,0,0,0,0,0,0,-1,629,890,-47.6386,-3.48824
-588,134,-47.6792,2.57941,0,0,0,0,0,0,0,-1,636,890,-47.6792,-2.5794
-581,134,-47.7198,1.67053,0,0,0,0,0,0,0,-1,643,890,-47.7198,-1.67056
-574,134,-31.1517,0.757751,0,0,0,0,0,0,0,-1,650,890,-31.1517,-0.757758
-567,134,-30.9003,0.296326,0,0,0,0,0,0,0,-1,657,890,-30.9002,-0.296302
-560,134,-22.9123,0.106567,0,0,0,0,0,0,0,-1,664,890,-22.9123,-0.106594
-553,134,-54.7383,0.58197,0,0,0,0,0,0,0,-1,671,890,-54.7383,-0.581982
-546,134,-54.7668,0.556519,0,0,0,0,0,0,0,-1,678,890,-54.7669,-0.556538
-539,134,-54.7913,0.537109,0,0,0,0,0,0,0,-1,685,890,-54.7913,-0.537132
-532,134,-54.8678,0.520203,0,0,0,0,0,0,0,-1,692,890,-54.8678,-0.52021
-525,134,-54.9517,0.578552,0,0,0,0,0,0,0,-1,699,890,-54.9517,-0.578565
-518,134,-54.9423,0.877319,0,0,0,0,0,0,0,-1,706,890,-54.9423,-0.877329
-511,134,-54.918,1.08203,0,0,0,0,0,0,0,-1,713,890,-54.918,-1.08203
-504,134,0,0,0,0,0,0,0,0,0,-1,720,890,0,0
-497,134,0,0,0,0,0,0,0,0,0,-1,727,890,0,0
-490,134,0,0,0,0,0,0,0,0,0,-1,734,890,0,0
-483,134,0,0,0,0,0,0,0,0,0,-1,741,890,0,0
-476,134,0,0,0,0,0,0,0,0,0,-1,748,890,0,0
-469,134,0,0,0,0,0,0,0,0,0,-1,755,890,0,0
-462,134,0,0,0,0,0,0,0,0,0,-1,762,890,0,0
-455,134,0,0,0,0,0,0,0,0,0,-1,769,890,0,0
-448,134,0,0,0,0,0,0,0,0,0,-1,776,890,0,0
-441,134,0,0,0,0,0,0,0,0,0,-1,783,890,0,0
-434,134,0,0,0,0,0,0,0,0,0,-1,790,890,0,0
-427,134,0,0,0,0,0,0,0,0,0,-1,797,890,0,0
-420,134,0,0,0,0,0,0,0,0,0,-1,804,890,0,0
-413,134,0,0,0,0,0,0,0,0,0,-1,811,890,0,0
-406,134,0,0,0,0,0,0,0,0,0,-1,818,890,0,0
-399,134,0,0,0,0,0,0,0,0,0,-1,825,890,0,0
-392,134,0,0,0,0,0,0,0,0,0,-1,832,890,0,0
-385,134,0,0,0,0,0,0,0,0,0,-1,839,890,0,0
-378,134,0,0,0,0,0,0,0,0,0,-1,846,890,0,0
-371,134,0,0,0,0,0,0,0,0,0,-1,853,890,0,0
-364,134,0,0,0,0,0,0,0,0,0,-1,860,890,0,0
-357,134,0,0,0,0,0,0,0,0,0,-1,867,890,0,0
-350,134,0,0,0,0,0,0,0,0,0,-1,874,890,0,0
-343,134,0,0,0,0,0,0,0,0,0,-1,881,890,0,0
-336,134,0,0,0,0,0,0,0,0,0,-1,888,890,0,0
-329,134,0,0,0,0,0,0,0,0,0,-1,895,890,0,0
-322,134,0,0,0,0,0,0,0,0,0,-1,902,890,0,0
-315,134,0,0,0,0,0,0,0,0,0,-1,909,890,0,0
-308,134,0,0,0,0,0,0,0,0,0,-1,916,890,0,0
-301,134,0,0,0,0,0,0,0,0,0,-1,923,890,0,0
-294,134,0,0,0,0,0,0,0,0,0,-1,930,890,0,0
-287,134,0,0,0,0,0,0,0,0,0,-1,937,890,0,0
-280,134,0,0,0,0,0,0,0,0,0,-1,944,890,0,0
-273,134,0,0,0,0,0,0,0,0,0,-1,951,890,0,0
-266,134,0,0,0,0,0,0,0,0,0,-1,958,890,0,0
-259,134,0,0,0,0,0,0,0,0,0,-1,965,890,0,0
-252,134,0,0,0,0,0,0,0,0,0,-1,972,890,0,0
-245,134,0,0,0,0,0,0,0,0,0,-1,979,890,0,0
-238,134,0,0,0,0,0,0,0,0,0,-1,986,890,0,0
-231,134,0,0,0,0,0,0,0,0,0,-1,993,890,0,0
-224,134,0,0,0,0,0,0,0,0,0,-1,1000,890,0,0
-217,134,0,0,0,0,0,0,0,0,0,-1,1007,890,0,0
-210,134,0,0,0,0,0,0,0,0,0,-1,1014,890,0,0
-203,134,0,0,0,0,0,0,0,0,0,-1,1021,890,0,0
-196,134,0,0,0,0,0,0,0,0,0,-1,1028,890,0,0
-189,134,0,0,0,0,0,0,0,0,0,-1,1035,890,0,0
-182,134,0,0,0,0,0,0,0,0,0,-1,1042,890,0,0
-175,134,0,0,0,0,0,0,0,0,0,-1,1049,890,0,0
-168,134,0,0,0,0,0,0,0,0,0,-1,1056,890,0,0
-161,134,0,0,0,0,0,0,0,0,0,-1,1063,890,0,0
-154,134,0,0,0,0,0,0,0,0,0,-1,1070,890,0,0
-147,134,0,0,0,0,0,0,0,0,0,-1,1077,890,0,0
-140,134,0,0,0,0,0,0,0,0,0,-1,1084,890,0,0
-133,134,0,0,0,0,0,0,0,0,0,-1,1091,890,0,0
-126,134,0,0,0,0,0,0,0,0,0,-1,1098,890,0,0
-119,134,0,0,0,0,0,0,0,0,0,-1,1105,890,0,0
-112,134,0,0,0,0,0,0,0,0,0,-1,1112,890,0,0
-105,134,0,0,0,0,0,0,0,0,0,-1,1119,890,0,0
-98,134,0,0,0,0,0,0,0,0,0,-1,1126,890,0,0
-91,134,0,0,0,0,0,0,0,0,0,-1,1133,890,0,0
-84,134,0,0,0,0,0,0,0,0,0,-1,1140,890,0,0
-77,134,0,0,0,0,0,0,0,0,0,-1,1147,890,0,0
-70,134,0,0,0,0,0,0,0,0,0,-1,1154,890,0,0
-63,134,0,0,0,0,0,0,0,0,0,-1,1161,890,0,0
-56,134,0,0,0,0,0,0,0,0,0,-1,1168,890,0,0
-49,134,0,0,0,0,0,0,0,0,0,-1,1175,890,0,0
-42,134,0,0,0,0,0,0,0,0,0,-1,1182,890,0,0
-35,134,0,0,0,0,0,0,0,0,0,-1,1189,890,0,0
-28,134,0,0,0,0,0,0,0,0,0,-1,1196,890,0,0
-21,134,0,0,0,0,0,0,0,0,0,-1,1203,890,0,0
-14,134,0,0,0,0,0,0,0,0,0,-1,1210,890,0,0
-7,134,0,0,0,0,0,0,0,0,0,-1,1217,890,0,0
0,134,0,0,0,0,0,0,0,0,0,-1,1224,890,0,0
7,134,0,0,0,0,0,0,0,0,0,-1,1231,890,0,0
14,134,0,0,0,0,0,0,0,0,0,-1,1238,890,0,0
21,134,0,0,0,0,0,0,0,0,0,-1,1245,890,0,0
28,134,0,0,0,0,0,0,0,0,0,-1,1252,890,0,0
35,134,0,0,0,0,0,0,0,0,0,-1,1259,890,0,0
42,134,0,0,0,0,0,0,0,0,0,-1,1266,890,0,0
49,134,0,0,0,0,0,0,0,0,0,-1,1273,890,0,0
56,134,0,0,0,0,0,0,0,0,0,-1,1280,890,0,0
63,134,0,0,0,0,0,0,0,0,0,-1,1287,890,0,0
70,134,0,0,0,0,0,0,0,0,0,-1,1294,890,0,0
77,134,0,0,0,0,0,0,0,0,0,-1,1301,890,0,0
84,134,0,0,0,0,0,0,0,0,0,-1,1308,890,0,0
91,134,0,0,0,0,0,0,0,0,0,-1,1315,890,0,0
98,134,0,0,0,0,0,0,0,0,0,-1,1322,890,0,0
105,134,0,0,0,0,0,0,0,0,0,-1,1329,890,0,0
112,134,0,0,0,0,0,0,0,0,0,-1,1336,890,0,0
119,134,0,0,0,0,0,0,0,0,0,-1,1343,890,0,0
126,134,0,0,0,0,0,0,0,0,0,-1,1350,890,0,0
133,134,0,0,0,0,0,0,0,0,0,-1,1357,890,0,0
140,134,0,0,0,0,0,0,0,0,0,-1,1364,890,0,0
147,134,0,0,0,0,0,0,0,0,0,-1,1371,890,0,0
154,134,0,0,0,0,0,0,0,0,0,-1,1378,890,0,0
161,134,0,0,0,0,0,0,0,0,0,-1,1385,890,0,0
168,134,0,0,0,0,0,0,0,0,0,-1,1392,890,0,0
175,134,0,0,0,0,0,0,0,0,0,-1,1399,890,0,0
182,134,0,0,0,0,0,0,0,0,0,-1,1406,890,0,0
189,134,0,0,0,0,0,0,0,0,0,-1,1413,890,0,0
196,134,0,0,0,0,0,0,0,0,0,-1,1420,890,0,0
203,134,0,0,0,0,0,0,0,0,0,-1,1427,890,0,0
210,134,0,0,0,0,0,0,0,0,0,-1,1434,890,0,0
217,134,0,0,0,0,0,0,0,0,0,-1,1441,890,0,0
224,134,0,0,0,0,0,0,0,0,0,-1,1448,890,0,0
231,134,0,0,0,0,0,0,0,0,0,-1,1455,890,0,0
238,134,0,0,0,0,0,0,0,0,0,-1,1462,890,0,0
245,134,0,0,0,0,0,0,0,0,0,-1,1469,890,0,0
252,134,0,0,0,0,0,0,0,0,0,-1,1476,890,0,0
259,134,0,0,0,0,0,0,0,0,0,-1,1483,890,0,0
266,134,0,0,0,0,0,0,0,0,0,-1,1490,890,0,0
273,134,0,0,0,0,0,0,0,0,0,-1,1497,890,0,0
280,134,0,0,0,0,0,0,0,0,0,-1,1504,890,0,0
287,134,0,0,0,0,0,0,0,0,0,-1,1511,890,0,0
294,134,0,0,0,0,0,0,0,0,0,-1,1518,890,0,0
301,134,0,0,0,0,0,0,0,0,0,-1,1525,890,0,0
308,134,0,0,0,0,0,0,0,0,0,-1,1532,890,0,0
315,134,0,0,0,0,0,0,0,0,0,-1,1539,890,0,0
322,134,0,0,0,0,0,0,0,0,0,-1,1546,890,0,0
329,134,0,0,0,0,0,0,0,0,0,-1,1553,890,0,0
336,134,0,0,0,0,0,0,0,0,0,-1,1560,890,0,0
343,134,0,0,0,0,0,0,0,0,0,-1,1567,890,0,0
350,134,0,0,0,0,0,0,0,0,0,-1,1574,890,0,0
357,134,0,0,0,0,0,0,0,0,0,-1,1581,890,0,0
364,134,0,0,0,0,0,0,0,0,0,-1,1588,890,0,0
371,134,0,0,0,0,0,0,0,0,0,-1,1595,890,0,0
378,134,0,0,0,0,0,0,0,0,0,-1,1602,890,0,0
385,134,0,0,0,0,0,0,0,0,0,-1,1609,890,0,0
392,134,0,0,0,0,0,0,0,0,0,-1,1616,890,0,0
399,134,0,0,0,0,0,0,0,0,0,-1,1623,890,0,0
406,134,0,0,0,0,0,0,0,0,0,-1,1630,890,0,0
413,134,0,0,0,0,0,0,0,0,0,-1,1637,890,0,0
420,134,0,0,0,0,0,0,0,0,0,-1,1644,890,0,0
427,134,0,0,0,0,0,0,0,0,0,-1,1651,890,0,0
434,134,0,0,0,0,0,0,0,0,0,-1,1658,890,0,0
441,134,0,0,0,0,0,0,0,0,0,-1,1665,890,0,0
448,134,0,0,0,0,0,0,0,0,0,-1,1672,890,0,0
455,134,0,0,0,0,0,0,0,0,0,-1,1679,890,0,0
462,134,0,0,0,0,0,0,0,0,0,-1,1686,890,0,0
469,134,0,0,0,0,0,0,0,0,0,-1,1693,890,0,0
476,134,0,0,0,0,0,0,0,0,0,-1,1700,890,0,0
483,134,0,0,0,0,0,0,0,0,0,-1,1707,890,0,0
490,134,0,0,0,0,0,0,0,0,0,-1,1714,890,0,0
497,134,0,0,0,0,0,0,0,0,0,-1,1721,890,0,0
504,134,0,0,0,0,0,0,0,0,0,-1,1728,890,0,0
511,134,0,0,0,0,0,0,0,0,0,-1,1735,890,0,0
518,134,0,0,0,0,0,0,0,0,0,-1,1742,890,0,0
525,134,0,0,0,0,0,0,0,0,0,-1,1749,890,0,0
532,134,0,0,0,0,0,0,0,0,0,-1,1756,890,0,0
539,134,0,0,0,0,0,0,0,0,0,-1,1763,890,0,0
546,134,0,0,0,0,0,0,0,0,0,-1,1770,890,0,0
553,134,0,0,0,0,0,0,0,0,0,-1,1777,890,0,0
560,134,0,0,0,0,0,0,0,0,0,-1,1784,890,0,0
567,134,0,0,0,0,0,0,0,0,0,-1,1791,890,0,0
574,134,0,0,0,0,0,0,0,0,0,-1,1798,890,0,0
581,134,0,0,0,0,0,0,0,0,0,-1,1805,890,0,0
588,134,0,0,0,0,0,0,0,0,0,-1,1812,890,0,0
595,134,0,0,0,0,0,0,0,0,0,-1,1819,890,0,0
602,134,0,0,0,0,0,0,0,0,0,-1,1826,890,0,0
609,134,0,0,0,0,0,0,0,0,0,-1,1833,890,0,0
616,134,0,0,0,0,0,0,0,0,0,-1,1840,890,0,0
623,134,71.1678,2.48651,-0.00919461,-0.00616755,-0.000736714,-0.00599777,-0.00936439,-1.3443,0.00547721,0.0458736,1847,890,71.1678,-2.4865
630,134,70.9423,2.48102,-0.00721685,-0.00560827,0.000401424,-0.00551366,-0.00731146,1.33933,0.00439924,0.0454386,1854,890,70.9423,-2.48104
637,134,71.0448,2.43805,-0.00553749,-0.00469589,0.000926328,-0.00409926,-0.00613411,0.998596,0.00360777,0.0442472,1861,890,71.0448,-2.43803
644,134,71.1962,2.30603,-0.00403921,-0.00372926,0.00112436,-0.00274925,-0.00501922,0.853884,0.00290225,0.0413697,1868,890,71.1962,-2.30604
651,134,71.2236,2.26154,-0.00275053,-0.00278024,0.00108276,-0.00168252,-0.00384824,0.77854,0.00222761,0.0433555,1875,890,71.2236,-2.26155
658,134,71.1709,2.28076,-0.00207363,-0.00200515,0.000655818,-0.00138268,-0.0026961,0.811481,0.00155677,0.0394348,1882,890,71.1709,-2.28076
665,134,71.0111,2.19556,-0.00170814,-0.00171886,4.31727e-05,-0.00167,-0.00175701,0.723653,0.00114344,0.034818,1889,890,71.0111,-2.19555
672,134,71.1268,2.21271,-0.00139364,-0.00171728,-0.000395691,-0.00112796,-0.00198296,-0.591298,0.00114847,0.0229519,1896,890,71.1269,-2.21269
679,134,71.1029,2.20978,-0.00122853,-0.00170847,-0.000744041,-0.000686719,-0.00225028,-0.629403,0.00133167,0.0216821,1903,890,71.1029,-2.20979
686,134,71.0554,2.20422,0,0,0,0,0,0,0,-1,1910,890,71.0554,-2.20424
693,134,34.5778,2.48096,0,0,0,0,0,0,0,-1,1917,890,34.5777,-2.48099
700,134,61.7775,1.65063,0,0,0,0,0,0,0,-1,1924,890,61.7774,-1.65065
707,134,61.795,2.41992,0,0,0,0,0,0,0,-1,1931,890,61.7951,-2.4199
714,134,61.9003,3.31512,-0.00169577,-0.00036929,-0.00277307,0.00181875,-0.00388381,-0.902779,0.00336357,0.0280399,1938,890,61.9002,-3.31515
721,134,62.0237,4.09332,-0.00202057,0.000107756,-0.00290852,0.00214068,-0.0040535,-0.960773,0.0036326,0.0266961,1945,890,62.0237,-4.09334
728,134,62.0721,4.85046,-0.00266682,0.000877643,-0.00280921,0.00242693,-0.00421611,-1.0668,0.00388145,0.0235843,1952,890,62.0721,-4.85048
735,134,61.9932,5.76605,-0.00331346,0.00213331,-0.00275763,0.00328566,-0.00446581,-1.17497,0.00449257,0.0301671,1959,890,61.9932,-5.76604
742,134,61.8956,6.53625,-0.00417383,0.00441651,-0.00260099,0.00514265,-0.00489998,-1.29855,0.00579868,0.019743,1966,890,61.8956,-6.53625
749,134,61.8911,7.21442,-0.00502299,0.00727895,-0.00216688,0.00764946,-0.00539351,-1.40144,0.00756782,0.014305,1973,890,61.8911,-7.21444
756,134,61.8245,7.92725,-0.00563963,0.0104549,-0.00153895,0.0106008,-0.00578546,-1.47632,0.00959578,0.0183684,1980,890,61.8245,-7.92722
763,134,61.7185,8.62946,-0.00604588,0.0139394,-0.000831768,0.013974,-0.00608044,-1.52927,0.0118736,0.0386633,1987,890,61.7184,-8.62943
770,134,61.5999,9.32269,0,0,0,0,0,0,0,-1,1994,890,61.5998,-9.32269
777,134,56.5676,10.374,0,0,0,0,0,0,0,-1,2001,890,56.5676,-10.374
784,134,59.4336,10.8775,0,0,0,0,0,0,0,-1,2008,890,59.4337,-10.8775
791,134,61.1787,12.2078,0,0,0,0,0,0,0,-1,2015,890,61.1787,-12.2078
798,134,0,0,0,0,0,0,0,0,0,-1,2022,890,0,0
805,134,0,0,0,0,0,0,0,0,0,-1,2029,890,0,0
812,134,0,0,0,0,0,0,0,0,0,-1,2036,890,0,0
-700,127,0,0,0,0,0,0,0,0,0,-1,524,897,0,0
-693,127,0,0,0,0,0,0,0,0,0,-1,531,897,0,0
-686,127,0,0,0,0,0,0,0,0,0,-1,538,897,0,0
-679,127,-50.9477,0.858459,0.14217,-0.00315979,-0.0710107,0.171106,-0.0320956,-0.386942,0.126138,0.0441953,545,897,-50.9477,-0.858453
-672,127,-50.0609,-0.766663,0.120031,-0.00405991,-0.0631072,0.146485,-0.0305139,-0.39694,0.109258,0.0473044,552,897,-50.0609,0.766681
-665,127,-49.6271,-2.44153,0.098081,-0.00265269,-0.0536614,0.12131,-0.0258818,-0.408529,0.0907395,0.0474416,559,897,-49.6271,2.44154
-658,127,-48.965,-4.18744,0,0,0,0,0,0,0,-1,566,897,-48.965,4.18745
-651,127,-52.9149,-0.455505,0,0,0,0,0,0,0,-1,573,897,-52.9149,0.455524
-644,127,-51.6913,-2.33765,0,0,0,0,0,0,0,-1,580,897,-51.6914,2.33763
-637,127,-50.3104,-4.18658,0,0,0,0,0,0,0,-1,587,897,-50.3104,4.18656
-630,127,-47.7512,6.68408,0,0,0,0,0,0,0,-1,594,897,-47.7512,-6.68407
-623,127,-47.83,6.12091,0.00544593,0.0052227,-0.00583493,0.0111703,-0.000501685,-0.775835,0.00761961,0.0218864,601,897,-47.83,-6.1209
-616,127,-47.9238,5.47919,-0.00221241,0.00513764,-0.000504167,0.00517207,-0.00224683,-1.50263,0.00439289,0.0118276,608,897,-47.9237,-5.47917
-609,127,-48.0236,4.75958,-0.0059833,0.00487402,0.00299571,0.00564574,-0.00675502,1.31867,0.00716912,0.0147439,615,897,-48.0236,-4.75958
-602,127,-48.0253,4.03949,-0.0065323,0.00187063,0.00390245,0.0034034,-0.00806507,1.19654,0.00680121,0.0176563,622,897,-48.0253,-4.03952
-595,127,-48.4454,3.49268,0,0,0,0,0,0,0,-1,629,897,-48.4453,-3.49265
-588,127,-47.9528,2.46112,0,0,0,0,0,0,0,-1,636,897,-47.9528,-2.46113
-581,127,-47.4603,1.42963,0,0,0,0,0,0,0,-1,643,897,-47.4602,-1.4296
-574,127,-25.2603,0.511169,0,0,0,0,0,0,0,-1,650,897,-25.2603,-0.51117
-567,127,-24.5417,-0.0447388,0,0,0,0,0,0,0,-1,657,897,-24.5417,0.0447226
-560,127,-18.9678,1.21667,0,0,0,0,0,0,0,-1,664,897,-18.9677,-1.2167
-553,127,-54.8495,0.539124,0,0,0,0,0,0,0,-1,671,897,-54.8495,-0.539101
-546,127,-54.8166,0.524902,0,0,0,0,0,0,0,-1,678,897,-54.8166,-0.524875
-539,127,-54.78,0.53418,0,0,0,0,0,0,0,-1,685,897,-54.78,-0.53415
-532,127,-54.7924,0.554565,0,0,0,0,0,0,0,-1,692,897,-54.7923,-0.55457
-525,127,-54.8755,0.638306,0,0,0,0,0,0,0,-1,699,897,-54.8756,-0.638315
-518,127,-54.9333,0.977783,0,0,0,0,0,0,0,-1,706,897,-54.9333,-0.977759
-511,127,-54.9357,1.13495,0,0,0,0,0,0,0,-1,713,897,-54.9357,-1.13495
-504,127,0,0,0,0,0,0,0,0,0,-1,720,897,0,0
-497,127,0,0,0,0,0,0,0,0,0,-1,727,897,0,0
-490,127,0,0,0,0,0,0,0,0,0,-1,734,897,0,0
-483,127,0,0,0,0,0,0,0,0,0,-1,741,897,0,0
-476,127,0,0,0,0,0,0,0,0,0,-1,748,897,0,0
-469,127,0,0,0,0,0,0,0,0,0,-1,755,897,0,0
-462,127,0,0,0,0,0,0,0,0,0,-1,762,897,0,0
-455,127,0,0,0,0,0,0,0,0,0,-1,769,897,0,0
-448,127,0,0,0,0,0,0,0,0,0,-1,776,897,0,0
-441,127,0,0,0,0,0,0,0,0,0,-1,783,897,0,0
-434,127,0,0,0,0,0,0,0,0,0,-1,790,897,0,0
-427,127,0,0,0,0,0,0,0,0,0,-1,797,897,0,0
-420,127,0,0,0,0,0,0,0,0,0,-1,804,897,0,0
-413,127,0,0,0,0,0,0,0,0,0,-1,811,897,0,0
-406,127,0,0,0,0,0,0,0,0,0,-1,818,897,0,0
-399,127,0,0,0,0,0,0,0,0,0,-1,825,897,0,0
-392,127,0,0,0,0,0,0,0,0,0,-1,832,897,0,0
-385,127,0,0,0,0,0,0,0,0,0,-1,839,897,0,0
-378,127,0,0,0,0,0,0,0,0,0,-1,846,897,0,0
-371,127,0,0,0,0,0,0,0,0,0,-1,853,897,0,0
-364,127,0,0,0,0,0,0,0,0,0,-1,860,897,0,0
-357,127,0,0,0,0,0,0,0,0,0,-1,867,897,0,0
-350,127,0,0,0,0,0,0,0,0,0,-1,874,897,0,0
-343,127,0,0,0,0,0,0,0,0,0,-1,881,897,0,0
-336,127,0,0,0,0,0,0,0,0,0,-1,888,897,0,0
-329,127,0,0,0,0,0,0,0,0,0,-1,895,897,0,0
-322,127,0,0,0,0,0,0,0,0,0,-1,902,897,0,0
-315,127,0,0,0,0,0,0,0,0,0,-1,909,897,0,0
-308,127,0,0,0,0,0,0,0,0,0,-1,916,897,0,0
-301,127,0,0,0,0,0,0,0,0,0,-1,923,897,0,0
-294,127,0,0,0,0,0,0,0,0,0,-1,930,897,0,0
-287,127,0,0,0,0,0,0,0,0,0,-1,937,897,0,0
-280,127,0,0,0,0,0,0,0,0,0,-1,944,897,0,0
-273,127,0,0,0,0,0,0,0,0,0,-1,951,897,0,0
-266,127,0,0,0,0,0,0,0,0,0,-1,958,897,0,0
-259,127,0,0,0,0,0,0,0,0,0,-1,965,897,0,0
-252,127,0,0,0,0,0,0,0,0,0,-1,972,897,0,0
-245,127,0,0,0,0,0,0,0,0,0,-1,979,897,0,0
-238,127,0,0,0,0,0,0,0,0,0,-1,986,897,0,0
-231,127,0,0,0,0,0,0,0,0,0,-1,993,897,0,0
-224,127,0,0,0,0,0,0,0,0,0,-1,1000,897,0,0
-217,127,0,0,0,0,0,0,0,0,0,-1,1007,897,0,0
-210,127,0,0,0,0,0,0,0,0,0,-1,1014,897,0,0
-203,127,0,0,0,0,0,0,0,0,0,-1,1021,897,0,0
-196,127,0,0,0,0,0,0,0,0,0,-1,1028,897,0,0
-189,127,0,0,0,0,0,0,0,0,0,-1,1035,897,0,0
-182,127,0,0,0,0,0,0,0,0,0,-1,1042,897,0,0
-175,127,0,0,0,0,0,0,0,0,0,-1,1049,897,0,0
-168,127,0,0,0,0,0,0,0,0,0,-1,1056,897,0,0
-161,127,0,0,0,0,0,0,0,0,0,-1,1063,897,0,0
-154,127,0,0,0,0,0,0,0,0,0,-1,1070,897,0,0
-147,127,0,0,0,0,0,0,0,0,0,-1,1077,897,0,0
-140,127,0,0,0,0,0,0,0,0,0,-1,1084,897,0,0
-133,127,0,0,0,0,0,0,0,0,0,-1,1091,897,0,0
-126,127,0,0,0,0,0,0,0,0,0,-1,1098,897,0,0
-119,127,0,0,0,0,0,0,0,0,0,-1,1105,897,0,0
-112,127,0,0,0,0,0,0,0,0,0,-1,1112,897,0,0
-105,127,0,0,0,0,0,0,0,0,0,-1,1119,897,0,0
-98,127,0,0,0,0,0,0,0,0,0,-1,1126,897,0,0
-91,127,0,0,0,0,0,0,0,0,0,-1,1133,897,0,0
-84,127,0,0,0,0,0,0,0,0,0,-1,1140,897,0,0
-77,127,0,0,0,0,0,0,0,0,0,-1,1147,897,0,0
-70,127,0,0,0,0,0,0,0,0,0,-1,1154,897,0,0
-63,127,0,0,0,0,0,0,0,0,0,-1,1161,897,0,0
-56,127,0,0,0,0,0,0,0,0,0,-1,1168,897,0,0
-49,127,0,0,0,0,0,0,0,0,0,-1,1175,897,0,0
-42,127,0,0,0,0,0,0,0,0,0,-1,1182,897,0,0
-35,127,0,0,0,0,0,0,0,0,0,-1,1189,897,0,0
-28,127,0,0,0,0,0,0,0,0,0,-1,1196,897,0,0
-21,127,0,0,0,0,0,0,0,0,0,-1,1203,897,0,0
-14,127,0,0,0,0,0,0,0,0,0,-1,1210,897,0,0
-7,127,0,0,0,0,0,0,0,0,0,-1,1217,897,0,0
0,127,0,0,0,0,0,0,0,0,0,-1,1224,897,0,0
7,127,0,0,0,0,0,0,0,0,0,-1,1231,897,0,0
14,127,0,0,0,0,0,0,0,0,0,-1,1238,897,0,0
21,127,0,0,0,0,0,0,0,0,0,-1,1245,897,0,0
28,127,0,0,0,0,0,0,0,0,0,-1,1252,897,0,0
35,127,0,0,0,0,0,0,0,0,0,-1,1259,897,0,0
42,127,0,0,0,0,0,0,0,0,0,-1,1266,897,0,0
49,127,0,0,0,0,0,0,0,0,0,-1,1273,897,0,0
56,127,0,0,0,0,0,0,0,0,0,-1,1280,897,0,0
63,127,0,0,0,0,0,0,0,0,0,-1,1287,897,0,0
70,127,0,0,0,0,0,0,0,0,0,-1,1294,897,0,0
77,127,0,0,0,0,0,0,0,0,0,-1,1301,897,0,0
84,127,0,0,0,0,0,0,0,0,0,-1,1308,897,0,0
91,127,0,0,0,0,0,0,0,0,0,-1,1315,897,0,0
98,127,0,0,0,0,0,0,0,0,0,-1,1322,897,0,0
105,127,0,0,0,0,0,0,0,0,0,-1,1329,897,0,0
112,127,0,0,0,0,0,0,0,0,0,-1,1336,897,0,0
119,127,0,0,0,0,0,0,0,0,0,-1,1343,897,0,0
126,127,0,0,0,0,0,0,0,0,0,-1,1350,897,0,0
133,127,0,0,0,0,0,0,0,0,0,-1,1357,897,0,0
140,127,0,0,0,0,0,0,0,0,0,-1,1364,897,0,0
147,127,0,0,0,0,0,0,0,0,0,-1,1371,897,0,0
154,127,0,0,0,0,0,0,0,0,0,-1,1378,897,0,0
161,127,0,0,0,0,0,0,0,0,0,-1,1385,897,0,0
168,127,0,0,0,0,0,0,0,0,0,-1,1392,897,0,0
175,127,0,0,0,0,0,0,0,0,0,-1,1399,897,0,0
182,127,0,0,0,0,0,0,0,0,0,-1,1406,897,0,0
189,127,0,0,0,0,0,0,0,0,0,-1,1413,897,0,0
196,127,0,0,0,0,0,0,0,0,0,-1,1420,897,0,0
203,127,0,0,0,0,0,0,0,0,0,-1,1427,897,0,0
210,127,0,0,0,0,0,0,0,0,0,-1,1434,897,0,0
217,127,0,0,0,0,0,0,0,0,0,-1,1441,897,0,0
224,127,0,0,0,0,0,0,0,0,0,-1,1448,897,0,0
231,127,0,0,0,0,0,0,0,0,0,-1,1455,897,0,0
238,127,0,0,0,0,0,0,0,0,0,-1,1462,897,0,0
245,127,0,0,0,0,0,0,0,0,0,-1,1469,897,0,0
252,127,0,0,0,0,0,0,0,0,0,-1,1476,897,0,0
259,127,0,0,0,0,0,0,0,0,0,-1,1483,897,0,0
266,127,0,0,0,0,0,0,0,0,0,-1,1490,897,0,0
273,127,0,0,0,0,0,0,0,0,0,-1,1497,897,0,0
280,127,0,0,0,0,0,0,0,0,0,-1,1504,897,0,0
287,127,0,0,0,0,0,0,0,0,0,-1,1511,897,0,0
294,127,0,0,0,0,0,0,0,0,0,-1,1518,897,0,0
301,127,0,0,0,0,0,0,0,0,0,-1,1525,897,0,0
308,127,0,0,0,0,0,0,0,0,0,-1,1532,897,0,0
315,127,0,0,0,0,0,0,0,0,0,-1,1539,897,0,0
322,127,0,0,0,0,0,0,0,0,0,-1,1546,897,0,0
329,127,0,0,0,0,0,0,0,0,0,-1,1553,897,0,0
336,127,0,0,0,0,0,0,0,0,0,-1,1560,897,0,0
343,127,0,0,0,0,0,0,0,0,0,-1,1567,897,0,0
350,127,0,0,0,0,0,0,0,0,0,-1,1574,897,0,0
357,127,0,0,0,0,0,0,0,0,0,-1,1581,897,0,0
364,127,0,0,0,0,0,0,0,0,0,-1,1588,897,0,0
371,127,0,0,0,0,0,0,0,0,0,-1,1595,897,0,0
378,127,0,0,0,0,0,0,0,0,0,-1,1602,897,0,0
385,127,0,0,0,0,0,0,0,0,0,-1,1609,897,0,0
392,127,0,0,0,0,0,0,0,0,0,-1,1616,897,0,0
399,127,0,0,0,0,0,0,0,0,0,-1,1623,897,0,0
406,127,0,0,0,0,0,0,0,0,0,-1,1630,897,0,0
413,127,0,0,0,0,0,0,0,0,0,-1,1637,897,0,0
420,127,0,0,0,0,0,0,0,0,0,-1,1644,897,0,0
427,127,0,0,0,0,0,0,0,0,0,-1,1651,897,0,0
434,127,0,0,0,0,0,0,0,0,0,-1,1658,897,0,0
441,127,0,0,0,0,0,0,0,0,0,-1,1665,897,0,0
448,127,0,0,0,0,0,0,0,0,0,-1,1672,897,0,0
455,127,0,0,0,0,0,0,0,0,0,-1,1679,897,0,0
462,127,0,0,0,0,0,0,0,0,0,-1,1686,897,0,0
469,127,0,0,0,0,0,0,0,0,0,-1,1693,897,0,0
476,127,0,0,0,0,0,0,0,0,0,-1,1700,897,0,0
483,127,0,0,0,0,0,0,0,0,0,-1,1707,897,0,0
490,127,0,0,0,0,0,0,0,0,0,-1,1714,897,0,0
497,127,0,0,0,0,0,0,0,0,0,-1,1721,897,0,0
504,127,0,0,0,0,0,0,0,0,0,-1,1728,897,0,0
511,127,0,0,0,0,0,0,0,0,0,-1,1735,897,0,0
518,127,0,0,0,0,0,0,0,0,0,-1,1742,897,0,0
525,127,0,0,0,0,0,0,0,0,0,-1,1749,897,0,0
532,127,0,0,0,0,0,0,0,0,0,-1,1756,897,0,0
539,127,0,0,0,0,0,0,0,0,0,-1,1763,897,0,0
546,127,0,0,0,0,0,0,0,0,0,-1,1770,897,0,0
553,127,0,0,0,0,0,0,0,0,0,-1,1777,897,0,0
560,127,0,0,0,0,0,0,0,0,0,-1,1784,897,0,0
567,127,0,0,0,0,0,0,0,0,0,-1,1791,897,0,0
574,127,0,0,0,0,0,0,0,0,0,-1,1798,897,0,0
581,127,0,0,0,0,0,0,0,0,0,-1,1805,897,0,0
588,127,0,0,0,0,0,0,0,0,0,-1,1812,897,0,0
595,127,0,0,0,0,0,0,0,0,0,-1,1819,897,0,0
602,127,0,0,0,0,0,0,0,0,0,-1,1826,897,0,0
609,127,0,0,0,0,0,0,0,0,0,-1,1833,897,0,0
616,127,0,0,0,0,0,0,0,0,0,-1,1840,897,0,0
623,127,0,0,0,0,0,0,0,0,0,-1,1847,897,0,0
630,127,71.1157,2.29828,-0.00842902,-0.00509078,0.000663517,-0.00496373,-0.00855607,1.38161,0.00496095,0.0404518,1854,897,71.1157,-2.29829
637,127,71.051,2.29639,-0.00650275,-0.00448977,0.00108762,-0.00401439,-0.00697813,1.15874,0.00404402,0.0394851,1861,897,71.051,-2.29638
644,127,71.3606,1.7121,0,0,0,0,0,0,0,-1,1868,897,71.3606,-1.7121
651,127,71.1545,1.94763,-0.00325857,-0.00302475,0.00115864,-0.00197714,-0.00430618,0.835679,0.00248894,0.0462756,1875,897,71.1546,-1.94761
658,127,70.9646,2.10364,-0.00219989,-0.00228365,0.000818133,-0.00142257,-0.00306098,0.759826,0.00176872,0.0444288,1882,897,70.9646,-2.10364
665,127,71.0735,2.15833,-0.00153149,-0.00193434,0.000286652,-0.00138257,-0.00208326,0.479134,0.00122406,0.0386259,1889,897,71.0735,-2.15835
672,127,71.088,2.08893,-0.00117959,-0.00187355,-0.000115274,-0.00116094,-0.0018922,-0.160375,0.00110181,0.0328825,1896,897,71.088,-2.08894
679,127,71.1185,2.18439,-0.00102344,-0.00185317,-0.000450855,-0.000825619,-0.00205099,-0.413473,0.00119161,0.0241441,1903,897,71.1186,-2.18437
686,127,71.1366,2.20557,0,0,0,0,0,0,0,-1,1910,897,71.1367,-2.20559
693,127,59.2523,2.33673,0,0,0,0,0,0,0,-1,1917,897,59.2524,-2.33674
700,127,58.717,1.80957,0,0,0,0,0,0,0,-1,1924,897,58.717,-1.80956
707,127,62.684,2.42072,0,0,0,0,0,0,0,-1,1931,897,62.684,-2.42071
714,127,62.957,3.37366,-0.00176938,-0.000317773,-0.00260214,0.00165789,-0.00374505,-0.921404,0.00319603,0.0268784,1938,897,62.957,-3.37363
721,127,62.9816,4.27789,-0.00220673,0.000125021,-0.00274403,0.00194058,-0.00402229,-0.986282,0.0035119,0.0266113,1945,897,62.9816,-4.27791
728,127,62.8495,4.98828,-0.00289303,0.000886675,-0.00270628,0.00229766,-0.00430401,-1.0902,0.00386971,0.0239763,1952,897,62.8495,-4.98831
735,127,62.7716,5.7981,-0.00349361,0.00214754,-0.00277918,0.0032867,-0.00463277,-1.18179,0.00459427,0.0208337,1959,897,62.7717,-5.79809
742,127,62.7078,6.5318,-0.00416876,0.00450411,-0.0028038,0.00533159,-0.00499624,-1.28382,0.00596382,0.0197614,1966,897,62.7077,-6.53183
749,127,62.6499,7.23621,-0.00472101,0.00762376,-0.00249434,0.0081087,-0.00520596,-1.37877,0.00774788,0.0143457,1973,897,62.6498,-7.23621
756,127,62.5553,7.89526,-0.00497469,0.0111995,-0.00188693,0.0114167,-0.00519191,-1.45618,0.00981092,0.0167431,1980,897,62.5553,-7.89528
763,127,62.4375,8.52838,-0.00491596,0.0150405,-0.00109564,0.0151004,-0.00497593,-1.51611,0.0120724,0.0258059,1987,897,62.4376,-8.5284
770,127,62.3743,9.14703,0,0,0,0,0,0,0,-1,1994,897,62.3742,-9.14701
777,127,42.703,5.33789,0,0,0,0,0,0,0,-1,2001,897,42.7031,-5.33791
784,127,64.0547,11.0536,0,0,0,0,0,0,0,-1,2008,897,64.0547,-11.0536
791,127,63.4036,12.2262,0,0,0,0,0,0,0,-1,2015,897,63.4036,-12.2262
798,127,0,0,0,0,0,0,0,0,0,-1,2022,897,0,0
805,127,0,0,0,0,0,0,0,0,0,-1,2029,897,0,0
812,127,0,0,0,0,0,0,0,0,0,-1,2036,897,0,0
-700,120,0,0,0,0,0,0,0,0,0,-1,524,904,0,0
-693,120,0,0,0,0,0,0,0,0,0,-1,531,904,0,0
-686,120,0,0,0,0,0,0,0,0,0,-1,538,904,0,0
-679,120,-52.1831,0.91095,0.133039,0.00478933,-0.0595075,0.156397,-0.018568,-0.374033,0.110973,0.0442325,545,904,-52.1832,-0.910935
-672,120,-51.1978,-0.831848,0.112947,0.000374103,-0.0542336,0.134823,-0.0215024,-0.383414,0.0978404,0.0468202,552,904,-51.1978,0.831856
-665,120,-50.2376,-2.67987,0,0,0,0,0,0,0,-1,559,904,-50.2376,2.67988
-658,120,-54.6443,7.5307,0,0,0,0,0,0,0,-1,566,904,-54.6443,-7.53071
-651,120,-52.9452,-1.22644,0,0,0,0,0,0,0,-1,573,904,-52.9452,1.22647
-644,120,-51.6526,-3.15863,0,0,0,0,0,0,0,-1,580,904,-51.6526,3.15864
-637,120,-48.4004,7.26935,0,0,0,0,0,0,0,-1,587,904,-48.4004,-7.26934
-630,120,-48.4707,6.75903,0.0137627,0.00522597,-0.00880431,0.0192787,-0.000290091,-0.559691,0.0129503,0.0382362,594,904,-48.4707,-6.75901
-623,120,-48.6311,6.13208,0.00367753,0.00520725,-0.00397376,0.00848909,0.000395688,-0.880474,0.00553222,0.0134805,601,904,-48.6311,-6.13211
-616,120,-48.7198,5.45349,-0.0030863,0.00492055,0.000642821,0.00497183,-0.00313758,1.49119,0.00472173,0.0111285,608,904,-48.7198,-5.45349
-609,120,-48.7641,4.76349,-0.00627131,0.00416846,0.00353642,0.00525361,-0.00735646,1.27307,0.00731409,0.0144805,615,904,-48.7641,-4.76347
-602,120,-48.7844,4.07629,-0.00650362,0.000894141,0.0040284,0.00266424,-0.00827372,1.15679,0.00658604,0.0175781,622,904,-48.7843,-4.07632
-595,120,-49.0739,3.72864,0,0,0,0,0,0,0,-1,629,904,-49.0739,-3.72862
-588,120,-48.5437,2.5033,0,0,0,0,0,0,0,-1,636,904,-48.5437,-2.5033
-581,120,-48.0135,1.27802,0,0,0,0,0,0,0,-1,643,904,-48.0135,-1.27799
-574,120,-27.5438,0.505066,0,0,0,0,0,0,0,-1,650,904,-27.5438,-0.505085
-567,120,-25.2822,-0.410645,0,0,0,0,0,0,0,-1,657,904,-25.2821,0.410629
-560,120,-27.3358,1.10327,0,0,0,0,0,0,0,-1,664,904,-27.3358,-1.10324
-553,120,-54.8385,0.584656,0,0,0,0,0,0,0,-1,671,904,-54.8385,-0.584663
-546,120,-54.796,0.564697,0,0,0,0,0,0,0,-1,678,904,-54.796,-0.564708
-539,120,-54.7693,0.583191,0,0,0,0,0,0,0,-1,685,904,-54.7693,-0.583177
-532,120,-54.7853,0.604126,0,0,0,0,0,0,0,-1,692,904,-54.7853,-0.604106
-525,120,-54.9459,0.724121,0,0,0,0,0,0,0,-1,699,904,-54.9459,-0.724114
-518,120,-54.9965,0.927551,0,0,0,0,0,0,0,-1,706,904,-54.9965,-0.927569
-511,120,-55.0876,0.942749,0,0,0,0,0,0,0,-1,713,904,-55.0876,-0.942768
-504,120,0,0,0,0,0,0,0,0,0,-1,720,904,0,0
-497,120,0,0,0,0,0,0,0,0,0,-1,727,904,0,0
-490,120,0,0,0,0,0,0,0,0,0,-1,734,904,0,0
-483,120,0,0,0,0,0,0,0,0,0,-1,741,904,0,0
-476,120,0,0,0,0,0,0,0,0,0,-1,748,904,0,0
-469,120,0,0,0,0,0,0,0,0,0,-1,755,904,0,0
-462,120,0,0,0,0,0,0,0,0,0,-1,762,904,0,0
-455,120,0,0,0,0,0,0,0,0,0,-1,769,904,0,0
-448,120,0,0,0,0,0,0,0,0,0,-1,776,904,0,0
-441,120,0,0,0,0,0,0,0,0,0,-1,783,904,0,0
-434,120,0,0,0,0,0,0,0,0,0,-1,790,904,0,0
-427,120,0,0,0,0,0,0,0,0,0,-1,797,904,0,0
-420,120,0,0,0,0,0,0,0,0,0,-1,804,904,0,0
-413,120,0,0,0,0,0,0,0,0,0,-1,811,904,0,0
-406,120,0,0,0,0,0,0,0,0,0,-1,818,904,0,0
-399,120,0,0,0,0,0,0,0,0,0,-1,825,904,0,0
-392,120,0,0,0,0,0,0,0,0,0,-1,832,904,0,0
-385,120,0,0,0,0,0,0,0,0,0,-1,839,904,0,0
-378,120,0,0,0,0,0,0,0,0,0,-1,846,904,0,0
-371,120,0,0,0,0,0,0,0,0,0,-1,853,904,0,0
-364,120,0,0,0,0,0,0,0,0,0,-1,860,904,0,0
-357,120,0,0,0,0,0,0,0,0,0,-1,867,904,0,0
-350,120,0,0,0,0,0,0,0,0,0,-1,874,904,0,0
-343,120,0,0,0,0,0,0,0,0,0,-1,881,904,0,0
-336,120,0,0,0,0,0,0,0,0,0,-1,888,904,0,0
-329,120,0,0,0,0,0,0,0,0,0,-1,895,904,0,0
-322,120,0,0,0,0,0,0,0,0,0,-1,902,904,0,0
-315,120,0,0,0,0,0,0,0,0,0,-1,909,904,0,0
-308,120,0,0,0,0,0,0,0,0,0,-1,916,904,0,0
-301,120,0,0,0,0,0,0,0,0,0,-1,923,904,0,0
-294,120,0,0,0,0,0,0,0,0,0,-1,930,904,0,0
-287,120,0,0,0,0,0,0,0,0,0,-1,937,904,0,0
-280,120,0,0,0,0,0,0,0,0,0,-1,944,904,0,0
-273,120,0,0,0,0,0,0,0,0,0,-1,951,904,0,0
-266,120,0,0,0,0,0,0,0,0,0,-1,958,904,0,0
-259,120,0,0,0,0,0,0,0,0,0,-1,965,904,0,0
-252,120,0,0,0,0,0,0,0,0,0,-1,972,904,0,0
-245,120,0,0,0,0,0,0,0,0,0,-1,979,904,0,0
-238,120,0,0,0,0,0,0,0,0,0,-1,986,904,0,0
-231,120,0,0,0,0,0,0,0,0,0,-1,993,904,0,0
-224,120,0,0,0,0,0,0,0,0,0,-1,1000,904,0,0
-217,120,0,0,0,0,0,0,0,0,0,-1,1007,904,0,0
-210,120,0,0,0,0,0,0,0,0,0,-1,1014,904,0,0
-203,120,0,0,0,0,0,0,0,0,0,-1,1021,904,0,0
-196,120,0,0,0,0,0,0,0,0,0,-1,1028,904,0,0
-189,120,0,0,0,0,0,0,0,0,0,-1,1035,904,0,0
-182,120,0,0,0,0,0,0,0,0,0,-1,1042,904,0,0
-175,120,0,0,0,0,0,0,0,0,0,-1,1049,904,0,0
-168,120,0,0,0,0,0,0,0,0,0,-1,1056,904,0,0
-161,120,0,0,0,0,0,0,0,0,0,-1,1063,904,0,0
-154,120,0,0,0,0,0,0,0,0,0,-1,1070,904,0,0
-147,120,0,0,0,0,0,0,0,0,0,-1,1077,904,0,0
-140,120,0,0,0,0,0,0,0,0,0,-1,1084,904,0,0
-133,120,0,0,0,0,0,0,0,0,0,-1,1091,904,0,0
-126,120,0,0,0,0,0,0,0,0,0,-1,1098,904,0,0
-119,120,0,0,0,0,0,0,0,0,0,-1,1105,904,0,0
-112,120,0,0,0,0,0,0,0,0,0,-1,1112,904,0,0
-105,120,0,0,0,0,0,0,0,0,0,-1,1119,904,0,0
-98,120,0,0,0,0,0,0,0,0,0,-1,1126,904,0,0
-91,120,0,0,0,0,0,0,0,0,0,-1,1133,904,0,0
-84,120,0,0,0,0,0,0,0,0,0,-1,1140,904,0,0
-77,120,0,0,0,0,0,0,0,0,0,-1,1147,904,0,0
-70,120,0,0,0,0,0,0,0,0,0,-1,1154,904,0,0
-63,120,0,0,0,0,0,0,0,0,0,-1,1161,904,0,0
-56,120,0,0,0,0,0,0,0,0,0,-1,1168,904,0,0
-49,120,0,0,0,0,0,0,0,0,0,-1,1175,904,0,0
-42,120,0,0,0,0,0,0,0,0,0,-1,1182,904,0,0
-35,120,0,0,0,0,0,0,0,0,0,-1,1189,904,0,0
-28,120,0,0,0,0,0,0,0,0,0,-1,1196,904,0,0
-21,120,0,0,0,0,0,0,0,0,0,-1,1203,904,0,0
-14,120,0,0,0,0,0,0,0,0,0,-1,1210,904,0,0
-7,120,0,0,0,0,0,0,0,0,0,-1,1217,904,0,0
0,120,0,0,0,0,0,0,0,0,0,-1,1224,904,0,0
7,120,0,0,0,0,0,0,0,0,0,-1,1231,904,0,0
14,120,0,0,0,0,0,0,0,0,0,-1,1238,904,0,0
21,120,0,0,0,0,0,0,0,0,0,-1,1245,904,0,0
28,120,0,0,0,0,0,0,0,0,0,-1,1252,904,0,0
35,120,0,0,0,0,0,0,0,0,0,-1,1259,904,0,0
42,120,0,0,0,0,0,0,0,0,0,-1,1266,904,0,0
49,120,0,0,0,0,0,0,0,0,0,-1,1273,904,0,0
56,120,0,0,0,0,0,0,0,0,0,-1,1280,904,0,0
63,120,0,0,0,0,0,0,0,0,0,-1,1287,904,0,0
70,120,0,0,0,0,0,0,0,0,0,-1,1294,904,0,0
77,120,0,0,0,0,0,0,0,0,0,-1,1301,904,0,0
84,120,0,0,0,0,0,0,0,0,0,-1,1308,904,0,0
91,120,0,0,0,0,0,0,0,0,0,-1,1315,904,0,0
98,120,0,0,0,0,0,0,0,0,0,-1,1322,904,0,0
105,120,0,0,0,0,0,0,0,0,0,-1,1329,904,0,0
112,120,0,0,0,0,0,0,0,0,0,-1,1336,904,0,0
119,120,0,0,0,0,0,0,0,0,0,-1,1343,904,0,0
126,120,0,0,0,0,0,0,0,0,0,-1,1350,904,0,0
133,120,0,0,0,0,0,0,0,0,0,-1,1357,904,0,0
140,120,0,0,0,0,0,0,0,0,0,-1,1364,904,0,0
147,120,0,0,0,0,0,0,0,0,0,-1,1371,904,0,0
154,120,0,0,0,0,0,0,0,0,0,-1,1378,904,0,0
161,120,0,0,0,0,0,0,0,0,0,-1,1385,904,0,0
168,120,0,0,0,0,0,0,0,0,0,-1,1392,904,0,0
175,120,0,0,0,0,0,0,0,0,0,-1,1399,904,0,0
182,120,0,0,0,0,0,0,0,0,0,-1,1406,904,0,0
189,120,0,0,0,0,0,0,0,0,0,-1,1413,904,0,0
196,120,0,0,0,0,0,0,0,0,0,-1,1420,904,0,0
203,120,0,0,0,0,0,0,0,0,0,-1,1427,904,0,0
210,120,0,0,0,0,0,0,0,0,0,-1,1434,904,0,0
217,120,0,0,0,0,0,0,0,0,0,-1,1441,904,0,0
224,120,0,0,0,0,0,0,0,0,0,-1,1448,904,0,0
231,120,0,0,0,0,0,0,0,0,0,-1,1455,904,0,0
238,120,0,0,0,0,0,0,0,0,0,-1,1462,904,0,0
245,120,0,0,0,0,0,0,0,0,0,-1,1469,904,0,0
252,120,0,0,0,0,0,0,0,0,0,-1,1476,904,0,0
259,120,0,0,0,0,0,0,0,0,0,-1,1483,904,0,0
266,120,0,0,0,0,0,0,0,0,0,-1,1490,904,0,0
273,120,0,0,0,0,0,0,0,0,0,-1,1497,904,0,0
280,120,0,0,0,0,0,0,0,0,0,-1,1504,904,0,0
287,120,0,0,0,0,0,0,0,0,0,-1,1511,904,0,0
294,120,0,0,0,0,0,0,0,0,0,-1,1518,904,0,0
301,120,0,0,0,0,0,0,0,0,0,-1,1525,904,0,0
308,120,0,0,0,0,0,0,0,0,0,-1,1532,904,0,0
315,120,0,0,0,0,0,0,0,0,0,-1,1539,904,0,0
322,120,0,0,0,0,0,0,0,0,0,-1,1546,904,0,0
329,120,0,0,0,0,0,0,0,0,0,-1,1553,904,0,0
336,120,0,0,0,0,0,0,0,0,0,-1,1560,904,0,0
343,120,0,0,0,0,0,0,0,0,0,-1,1567,904,0,0
350,120,0,0,0,0,0,0,0,0,0,-1,1574,904,0,0
357,120,0,0,0,0,0,0,0,0,0,-1,1581,904,0,0
364,120,0,0,0,0,0,0,0,0,0,-1,1588,904,0,0
371,120,0,0,0,0,0,0,0,0,0,-1,1595,904,0,0
378,120,0,0,0,0,0,0,0,0,0,-1,1602,904,0,0
385,120,0,0,0,0,0,0,0,0,0,-1,1609,904,0,0
392,120,0,0,0,0,0,0,0,0,0,-1,1616,904,0,0
399,120,0,0,0,0,0,0,0,0,0,-1,1623,904,0,0
406,120,0,0,0,0,0,0,0,0,0,-1,1630,904,0,0
413,120,0,0,0,0,0,0,0,0,0,-1,1637,904,0,0
420,120,0,0,0,0,0,0,0,0,0,-1,1644,904,0,0
427,120,0,0,0,0,0,0,0,0,0,-1,1651,904,0,0
434,120,0,0,0,0,0,0,0,0,0,-1,1658,904,0,0
441,120,0,0,0,0,0,0,0,0,0,-1,1665,904,0,0
448,120,0,0,0,0,0,0,0,0,0,-1,1672,904,0,0
455,120,0,0,0,0,0,0,0,0,0,-1,1679,904,0,0
462,120,0,0,0,0,0,0,0,0,0,-1,1686,904,0,0
469,120,0,0,0,0,0,0,0,0,0,-1,1693,904,0,0
476,120,0,0,0,0,0,0,0,0,0,-1,1700,904,0,0
483,120,0,0,0,0,0,0,0,0,0,-1,1707,904,0,0
490,120,0,0,0,0,0,0,0,0,0,-1,1714,904,0,0
497,120,0,0,0,0,0,0,0,0,0,-1,1721,904,0,0
504,120,0,0,0,0,0,0,0,0,0,-1,1728,904,0,0
511,120,0,0,0,0,0,0,0,0,0,-1,1735,904,0,0
518,120,0,0,0,0,0,0,0,0,0,-1,1742,904,0,0
525,120,0,0,0,0,0,0,0,0,0,-1,1749,904,0,0
532,120,0,0,0,0,0,0,0,0,0,-1,1756,904,0,0
539,120,0,0,0,0,0,0,0,0,0,-1,1763,904,0,0
546,120,0,0,0,0,0,0,0,0,0,-1,1770,904,0,0
553,120,0,0,0,0,0,0,0,0,0,-1,1777,904,0,0
560,120,0,0,0,0,0,0,0,0,0,-1,1784,904,0,0
567,120,0,0,0,0,0,0,0,0,0,-1,1791,904,0,0
574,120,0,0,0,0,0,0,0,0,0,-1,1798,904,0,0
581,120,0,0,0,0,0,0,0,0,0,-1,1805,904,0,0
588,120,0,0,0,0,0,0,0,0,0,-1,1812,904,0,0
595,120,0,0,0,0,0,0,0,0,0,-1,1819,904,0,0
602,120,0,0,0,0,0,0,0,0,0,-1,1826,904,0,0
609,120,0,0,0,0,0,0,0,0,0,-1,1833,904,0,0
616,120,0,0,0,0,0,0,0,0,0,-1,1840,904,0,0
623,120,0,0,0,0,0,0,0,0,0,-1,1847,904,0,0
630,120,71.2335,2.07196,0,0,0,0,0,0,0,-1,1854,904,71.2336,-2.07195
637,120,71.5811,1.77325,0,0,0,0,0,0,0,-1,1861,904,71.581,-1.77328
644,120,71.3021,1.61798,-0.00554514,-0.00285824,0.00137904,-0.00227643,-0.00612694,1.17156,0.00357609,0.0415484,1868,904,71.3021,-1.618
651,120,71.0924,1.83307,-0.0038665,-0.00240309,0.00130777,-0.00163624,-0.00463335,1.04045,0.00271326,0.0443721,1875,904,71.0924,-1.83307
658,120,70.9696,2.21613,-0.00249697,-0.00185695,0.00102267,-0.00110539,-0.00324853,0.937029,0.00190717,0.0427288,1882,904,70.9696,-2.21615
665,120,71.1132,2.30225,-0.00149721,-0.0015621,0.000555884,-0.000972823,-0.00208648,0.756251,0.00120555,0.0372756,1889,904,71.1131,-2.30225
672,120,71.1436,2.15558,-0.0010883,-0.0015422,0.000178952,-0.00102623,-0.00160427,0.333844,0.000938197,0.0355171,1896,904,71.1435,-2.15557
679,120,71.1284,2.08368,-0.000923027,-0.00158627,-0.000131063,-0.000898067,-0.00161123,-0.188188,0.000932284,0.0310701,1903,904,71.1284,-2.0837
686,120,71.0856,2.1983,-0.000968771,-0.00156514,-0.00051361,-0.000673062,-0.00186085,-0.522395,0.00108797,0.031805,1910,904,71.0855,-2.19831
693,120,71.2158,2.20929,0,0,0,0,0,0,0,-1,1917,904,71.2158,-2.2093
700,120,42.2007,3.00946,0,0,0,0,0,0,0,-1,1924,904,42.2007,-3.00944
707,120,63.6337,2.98279,0,0,0,0,0,0,0,-1,1931,904,63.6337,-2.98279
714,120,63.8235,3.78375,-0.00200978,-6.9391e-05,-0.00241125,0.00155953,-0.0036387,-0.976669,0.00308018,0.0292851,1938,904,63.8235,-3.78374
721,120,63.7332,4.49286,-0.00256254,0.000334761,-0.00257291,0.00183882,-0.00406659,-1.0418,0.00348942,0.0244859,1945,904,63.7332,-4.49283
728,120,63.5876,5.18878,-0.00328733,0.00104436,-0.00256676,0.00223696,-0.00447993,-1.13584,0.00394941,0.016302,1952,904,63.5877,-5.18878
735,120,63.5319,5.8291,-0.0038769,0.00222069,-0.00269496,0.00324104,-0.00489725,-1.20886,0.00473097,0.0146743,1959,904,63.5318,-5.82909
742,120,63.4724,6.56488,-0.00439121,0.00451874,-0.00283369,0.00534359,-0.00521606,-1.28754,0.00609677,0.0152675,1966,904,63.4724,-6.56489
749,120,63.4297,7.23877,-0.00462949,0.00777393,-0.0026237,0.00830609,-0.00516166,-1.37068,0.00784593,0.0115298,1973,904,63.4297,-7.23876
756,120,63.3184,7.91132,-0.00446645,0.0116488,-0.0020251,0.0118994,-0.00471704,-1.44768,0.00988773,0.0155198,1980,904,63.3183,-7.91129
763,120,63.1877,8.5592,-0.00387549,0.0157845,-0.00114153,0.0158505,-0.00394155,-1.51299,0.0120968,0.0344565,1987,904,63.1877,-8.55921
770,120,63.1104,9.22076,0,0,0,0,0,0,0,-1,1994,904,63.1104,-9.22075
777,120,59.313,9.57587,0,0,0,0,0,0,0,-1,2001,904,59.3129,-9.57587
784,120,60.7788,13.7254,0,0,0,0,0,0,0,-1,2008,904,60.7789,-13.7254
791,120,62.675,12.8759,0,0,0,0,0,0,0,-1,2015,904,62.6751,-12.8759
798,120,62.2224,11.3201,0,0,0,0,0,0,0,-1,2022,904,62.2225,-11.3201
805,120,0,0,0,0,0,0,0,0,0,-1,2029,904,0,0
812,120,0,0,0,0,0,0,0,0,0,-1,2036,904,0,0
-700,113,0,0,0,0,0,0,0,0,0,-1,524,911,0,0
-693,113,0,0,0,0,0,0,0,0,0,-1,531,911,0,0
-686,113,0,0,0,0,0,0,0,0,0,-1,538,911,0,0
-679,113,-55.5555,5.93994,0,0,0,0,0,0,0,-1,545,911,-55.5555,-5.93996
-672,113,-52.4814,-0.797363,0,0,0,0,0,0,0,-1,552,911,-52.4813,0.797354
-665,113,-54.9309,7.34125,0,0,0,0,0,0,0,-1,559,911,-54.9309,-7.34123
-658,113,-54.1535,7.58624,0,0,0,0,0,0,0,-1,566,911,-54.1535,-7.58627
-651,113,-53.3762,7.8313,0,0,0,0,0,0,0,-1,573,911,-53.3762,-7.8313
-644,113,-48.5211,7.83691,0,0,0,0,0,0,0,-1,580,911,-48.5211,-7.83694
-637,113,-49.1777,7.43616,0,0,0,0,0,0,0,-1,587,911,-49.1777,-7.43613
-630,113,-49.2695,6.77655,0.0103811,0.00624936,-0.00663855,0.0152678,0.00136267,-0.63455,0.00975609,0.0230102,594,911,-49.2695,-6.77652
-623,113,-49.4086,6.11469,0.0017063,0.00572936,-0.00237962,0.00683373,0.000601925,-1.13628,0.00436902,0.0128004,601,911,-49.4086,-6.11467
-616,113,-49.4564,5.43298,-0.00395629,0.00503903,0.0015436,0.00529654,-0.0042138,1.40549,0.00550265,0.0119776,608,911,-49.4564,-5.433
-609,113,-49.4752,4.8103,-0.0063914,0.00361295,0.00389869,0.00495282,-0.00773127,1.23977,0.0073815,0.0124219,615,911,-49.4752,-4.81029
-602,113,-49.5121,4.09131,-0.0062731,-0.000167913,0.00406866,0.00186598,-0.00830699,1.10724,0.00625348,0.0211942,622,911,-49.5121,-4.0913
-595,113,-49.5556,3.55841,-0.00623731,-0.00401992,0.0039077,-0.00106667,-0.00919055,0.923626,0.00580424,0.0290395,629,911,-49.5556,-3.55842
-588,113,-49.4737,2.79779,-0.00740547,-0.00781911,0.00380431,-0.00380236,-0.0114222,0.758243,0.00671627,0.0364925,636,911,-49.4737,-2.7978
-581,113,-49.4688,2.08136,0,0,0,0,0,0,0,-1,643,911,-49.4688,-2.08134
-574,113,-49.4425,1.16284,0,0,0,0,0,0,0,-1,650,911,-49.4425,-1.16282
-567,113,-21.8396,0.437378,0,0,0,0,0,0,0,-1,657,911,-21.8396,-0.437351
-560,113,-54.8961,0.444702,0,0,0,0,0,0,0,-1,664,911,-54.8961,-0.444714
-553,113,-54.8165,0.615356,0,0,0,0,0,0,0,-1,671,911,-54.8165,-0.615339
-546,113,-54.7574,0.688965,0,0,0,0,0,0,0,-1,678,911,-54.7574,-0.688938
-539,113,-54.7391,0.710571,0,0,0,0,0,0,0,-1,685,911,-54.7391,-0.710547
-532,113,-54.7267,0.733459,0,0,0,0,0,0,0,-1,692,911,-54.7267,-0.733436
-525,113,-54.7966,0.688599,0,0,0,0,0,0,0,-1,699,911,-54.7966,-0.68858
-518,113,-54.9109,0.525085,0,0,0,0,0,0,0,-1,706,911,-54.9109,-0.525063
-511,113,-55.1166,0.64325,0,0,0,0,0,0,0,-1,713,911,-55.1166,-0.643262
-504,113,0,0,0,0,0,0,0,0,0,-1,720,911,0,0
-497,113,0,0,0,0,0,0,0,0,0,-1,727,911,0,0
-490,113,0,0,0,0,0,0,0,0,0,-1,734,911,0,0
-483,113,0,0,0,0,0,0,0,0,0,-1,741,911,0,0
-476,113,0,0,0,0,0,0,0,0,0,-1,748,911,0,0
-469,113,0,0,0,0,0,0,0,0,0,-1,755,911,0,0
-462,113,0,0,0,0,0,0,0,0,0,-1,762,911,0,0
-455,113,0,0,0,0,0,0,0,0,0,-1,769,911,0,0
-448,113,0,0,0,0,0,0,0,0,0,-1,776,911,0,0
-441,113,0,0,0,0,0,0,0,0,0,-1,783,911,0,0
-434,113,0,0,0,0,0,0,0,0,0,-1,790,911,0,0
-427,113,0,0,0,0,0,0,0,0,0,-1,797,911,0,0
-420,113,0,0,0,0,0,0,0,0,0,-1,804,911,0,0
-413,113,0,0,0,0,0,0,0,0,0,-1,811,911,0,0
-406,113,0,0,0,0,0,0,0,0,0,-1,818,911,0,0
-399,113,0,0,0,0,0,0,0,0,0,-1,825,911,0,0
-392,113,0,0,0,0,0,0,0,0,0,-1,832,911,0,0
-385,113,0,0,0,0,0,0,0,0,0,-1,839,911,0,0
-378,113,0,0,0,0,0,0,0,0,0,-1,846,911,0,0
-371,113,0,0,0,0,0,0,0,0,0,-1,853,911,0,0
-364,113,0,0,0,0,0,0,0,0,0,-1,860,911,0,0
-357,113,0,0,0,0,0,0,0,0,0,-1,867,911,0,0
-350,113,0,0,0,0,0,0,0,0,0,-1,874,911,0,0
-343,113,0,0,0,0,0,0,0,0,0,-1,881,911,0,0
-336,113,0,0,0,0,0,0,0,0,0,-1,888,911,0,0
-329,113,0,0,0,0,0,0,0,0,0,-1,895,911,0,0
-322,113,0,0,0,0,0,0,0,0,0,-1,902,911,0,0
-315,113,0,0,0,0,0,0,0,0,0,-1,909,911,0,0
-308,113,0,0,0,0,0,0,0,0,0,-1,916,911,0,0
-301,113,0,0,0,0,0,0,0,0,0,-1,923,911,0,0
-294,113,0,0,0,0,0,0,0,0,0,-1,930,911,0,0
-287,113,0,0,0,0,0,0,0,0,0,-1,937,911,0,0
-280,113,0,0,0,0,0,0,0,0,0,-1,944,911,0,0
-273,113,0,0,0,0,0,0,0,0,0,-1,951,911,0,0
-266,113,0,0,0,0,0,0,0,0,0,-1,958,911,0,0
-259,113,0,0,0,0,0,0,0,0,0,-1,965,911,0,0
-252,113,0,0,0,0,0,0,0,0,0,-1,972,911,0,0
-245,113,0,0,0,0,0,0,0,0,0,-1,979,911,0,0
-238,113,0,0,0,0,0,0,0,0,0,-1,986,911,0,0
-231,113,0,0,0,0,0,0,0,0,0,-1,993,911,0,0
-224,113,0,0,0,0,0,0,0,0,0,-1,1000,911,0,0
-217,113,0,0,0,0,0,0,0,0,0,-1,1007,911,0,0
-210,113,0,0,0,0,0,0,0,0,0,-1,1014,911,0,0
-203,113,0,0,0,0,0,0,0,0,0,-1,1021,911,0,0
-196,113,0,0,0,0,0,0,0,0,0,-1,1028,911,0,0
-189,113,0,0,0,0,0,0,0,0,0,-1,1035,911,0,0
-182,113,0,0,0,0,0,0,0,0,0,-1,1042,911,0,0
-175,113,0,0,0,0,0,0,0,0,0,-1,1049,911,0,0
-168,113,0,0,0,0,0,0,0,0,0,-1,1056,911,0,0
-161,113,0,0,0,0,0,0,0,0,0,-1,1063,911,0,0
-154,113,0,0,0,0,0,0,0,0,0,-1,1070,911,0,0
-147,113,0,0,0,0,0,0,0,0,0,-1,1077,911,0,0
-140,113,0,0,0,0,0,0,0,0,0,-1,1084,911,0,0
-133,113,0,0,0,0,0,0,0,0,0,-1,1091,911,0,0
-126,113,0,0,0,0,0,0,0,0,0,-1,1098,911,0,0
-119,113,0,0,0,0,0,0,0,0,0,-1,1105,911,0,0
-112,113,0,0,0,0,0,0,0,0,0,-1,1112,911,0,0
-105,113,0,0,0,0,0,0,0,0,0,-1,1119,911,0,0
-98,113,0,0,0,0,0,0,0,0,0,-1,1126,911,0,0
-91,113,0,0,0,0,0,0,0,0,0,-1,1133,911,0,0
-84,113,0,0,0,0,0,0,0,0,0,-1,1140,911,0,0
-77,113,0,0,0,0,0,0,0,0,0,-1,1147,911,0,0
-70,113,0,0,0,0,0,0,0,0,0,-1,1154,911,0,0
-63,113,0,0,0,0,0,0,0,0,0,-1,1161,911,0,0
-56,113,0,0,0,0,0,0,0,0,0,-1,1168,911,0,0
-49,113,0,0,0,0,0,0,0,0,0,-1,1175,911,0,0
-42,113,0,0,0,0,0,0,0,0,0,-1,1182,911,0,0
-35,113,0,0,0,0,0,0,0,0,0,-1,1189,911,0,0
-28,113,0,0,0,0,0,0,0,0,0,-1,1196,911,0,0
-21,113,0,0,0,0,0,0,0,0,0,-1,1203,911,0,0
-14,113,0,0,0,0,0,0,0,0,0,-1,1210,911,0,0
-7,113,0,0,0,0,0,0,0,0,0,-1,1217,911,0,0
0,113,0,0,0,0,0,0,0,0,0,-1,1224,911,0,0
7,113,0,0,0,0,0,0,0,0,0,-1,1231,911,0,0
14,113,0,0,0,0,0,0,0,0,0,-1,1238,911,0,0
21,113,0,0,0,0,0,0,0,0,0,-1,1245,911,0,0
28,113,0,0,0,0,0,0,0,0,0,-1,1252,911,0,0
35,113,0,0,0,0,0,0,0,0,0,-1,1259,911,0,0
42,113,0,0,0,0,0,0,0,0,0,-1,1266,911,0,0
49,113,0,0,0,0,0,0,0,0,0,-1,1273,911,0,0
56,113,0,0,0,0,0,0,0,0,0,-1,1280,911,0,0
63,113,0,0,0,0,0,0,0,0,0,-1,1287,911,0,0
70,113,0,0,0,0,0,0,0,0,0,-1,1294,911,0,0
77,113,0,0,0,0,0,0,0,0,0,-1,1301,911,0,0
84,113,0,0,0,0,0,0,0,0,0,-1,1308,911,0,0
91,113,0,0,0,0,0,0,0,0,0,-1,1315,911,0,0
98,113,0,0,0,0,0,0,0,0,0,-1,1322,911,0,0
105,113,0,0,0,0,0,0,0,0,0,-1,1329,911,0,0
112,113,0,0,0,0,0,0,0,0,0,-1,1336,911,0,0
119,113,0,0,0,0,0,0,0,0,0,-1,1343,911,0,0
126,113,0,0,0,0,0,0,0,0,0,-1,1350,911,0,0
133,113,0,0,0,0,0,0,0,0,0,-1,1357,911,0,0
140,113,0,0,0,0,0,0,0,0,0,-1,1364,911,0,0
147,113,0,0,0,0,0,0,0,0,0,-1,1371,911,0,0
154,113,0,0,0,0,0,0,0,0,0,-1,1378,911,0,0
161,113,0,0,0,0,0,0,0,0,0,-1,1385,911,0,0
168,113,0,0,0,0,0,0,0,0,0,-1,1392,911,0,0
175,113,0,0,0,0,0,0,0,0,0,-1,1399,911,0,0
182,113,0,0,0,0,0,0,0,0,0,-1,1406,911,0,0
189,113,0,0,0,0,0,0,0,0,0,-1,1413,911,0,0
196,113,0,0,0,0,0,0,0,0,0,-1,1420,911,0,0
203,113,0,0,0,0,0,0,0,0,0,-1,1427,911,0,0
210,113,0,0,0,0,0,0,0,0,0,-1,1434,911,0,0
217,113,0,0,0,0,0,0,0,0,0,-1,1441,911,0,0
224,113,0,0,0,0,0,0,0,0,0,-1,1448,911,0,0
231,113,0,0,0,0,0,0,0,0,0,-1,1455,911,0,0
238,113,0,0,0,0,0,0,0,0,0,-1,1462,911,0,0
245,113,0,0,0,0,0,0,0,0,0,-1,1469,911,0,0
252,113,0,0,0,0,0,0,0,0,0,-1,1476,911,0,0
259,113,0,0,0,0,0,0,0,0,0,-1,1483,911,0,0
266,113,0,0,0,0,0,0,0,0,0,-1,1490,911,0,0
273,113,0,0,0,0,0,0,0,0,0,-1,1497,911,0,0
280,113,0,0,0,0,0,0,0,0,0,-1,1504,911,0,0
287,113,0,0,0,0,0,0,0,0,0,-1,1511,911,0,0
294,113,0,0,0,0,0,0,0,0,0,-1,1518,911,0,0
301,113,0,0,0,0,0,0,0,0,0,-1,1525,911,0,0
308,113,0,0,0,0,0,0,0,0,0,-1,1532,911,0,0
315,113,0,0,0,0,0,0,0,0,0,-1,1539,911,0,0
322,113,0,0,0,0,0,0,0,0,0,-1,1546,911,0,0
329,113,0,0,0,0,0,0,0,0,0,-1,1553,911,0,0
336,113,0,0,0,0,0,0,0,0,0,-1,1560,911,0,0
343,113,0,0,0,0,0,0,0,0,0,-1,1567,911,0,0
350,113,0,0,0,0,0,0,0,0,0,-1,1574,911,0,0
357,113,0,0,0,0,0,0,0,0,0,-1,1581,911,0,0
364,113,0,0,0,0,0,0,0,0,0,-1,1588,911,0,0
371,113,0,0,0,0,0,0,0,0,0,-1,1595,911,0,0
378,113,0,0,0,0,0,0,0,0,0,-1,1602,911,0,0
385,113,0,0,0,0,0,0,0,0,0,-1,1609,911,0,0
392,113,0,0,0,0,0,0,0,0,0,-1,1616,911,0,0
399,113,0,0,0,0,0,0,0,0,0,-1,1623,911,0,0
406,113,0,0,0,0,0,0,0,0,0,-1,1630,911,0,0
413,113,0,0,0,0,0,0,0,0,0,-1,1637,911,0,0
420,113,0,0,0,0,0,0,0,0,0,-1,1644,911,0,0
427,113,0,0,0,0,0,0,0,0,0,-1,1651,911,0,0
434,113,0,0,0,0,0,0,0,0,0,-1,1658,911,0,0
441,113,0,0,0,0,0,0,0,0,0,-1,1665,911,0,0
448,113,0,0,0,0,0,0,0,0,0,-1,1672,911,0,0
455,113,0,0,0,0,0,0,0,0,0,-1,1679,911,0,0
462,113,0,0,0,0,0,0,0,0,0,-1,1686,911,0,0
469,113,0,0,0,0,0,0,0,0,0,-1,1693,911,0,0
476,113,0,0,0,0,0,0,0,0,0,-1,1700,911,0,0
483,113,0,0,0,0,0,0,0,0,0,-1,1707,911,0,0
490,113,0,0,0,0,0,0,0,0,0,-1,1714,911,0,0
497,113,0,0,0,0,0,0,0,0,0,-1,1721,911,0,0
504,113,0,0,0,0,0,0,0,0,0,-1,1728,911,0,0
511,113,0,0,0,0,0,0,0,0,0,-1,1735,911,0,0
518,113,0,0,0,0,0,0,0,0,0,-1,1742,911,0,0
525,113,0,0,0,0,0,0,0,0,0,-1,1749,911,0,0
532,113,0,0,0,0,0,0,0,0,0,-1,1756,911,0,0
539,113,0,0,0,0,0,0,0,0,0,-1,1763,911,0,0
546,113,0,0,0,0,0,0,0,0,0,-1,1770,911,0,0
553,113,0,0,0,0,0,0,0,0,0,-1,1777,911,0,0
560,113,0,0,0,0,0,0,0,0,0,-1,1784,911,0,0
567,113,0,0,0,0,0,0,0,0,0,-1,1791,911,0,0
574,113,0,0,0,0,0,0,0,0,0,-1,1798,911,0,0
581,113,0,0,0,0,0,0,0,0,0,-1,1805,911,0,0
588,113,0,0,0,0,0,0,0,0,0,-1,1812,911,0,0
595,113,0,0,0,0,0,0,0,0,0,-1,1819,911,0,0
602,113,0,0,0,0,0,0,0,0,0,-1,1826,911,0,0
609,113,0,0,0,0,0,0,0,0,0,-1,1833,911,0,0
616,113,0,0,0,0,0,0,0,0,0,-1,1840,911,0,0
623,113,0,0,0,0,0,0,0,0,0,-1,1847,911,0,0
630,113,71.1764,2.07404,-0.0103674,-0.00225498,0.00103949,-0.0021239,-0.0104984,1.44536,0.00640939,0.0383903,1854,911,71.1764,-2.07402
637,113,71.1609,2.27051,-0.00803297,-0.00229119,0.00143722,-0.00195153,-0.00837263,1.33872,0.00505832,0.0385998,1861,911,71.1609,-2.27053
644,113,71.1038,2.25714,-0.00603664,-0.00207304,0.00150575,-0.0015659,-0.00654377,1.24593,0.00394552,0.0384078,1868,911,71.1037,-2.25715
651,113,70.9696,2.28387,-0.0043027,-0.00174836,0.00142897,-0.00110899,-0.00494207,1.15008,0.00299431,0.0425375,1875,911,70.9696,-2.28386
658,113,71.0881,2.40198,-0.00281423,-0.00128706,0.00121822,-0.000612894,-0.00348839,1.06535,0.00215061,0.0412276,1882,911,71.0882,-2.40197
665,113,71.2156,2.54059,-0.00161121,-0.000991399,0.000875308,-0.000372754,-0.00222985,0.955538,0.00137921,0.0371052,1889,911,71.2156,-2.54057
672,113,71.0951,2.4613,-0.00113455,-0.000993673,0.000568592,-0.000491172,-0.00163705,0.847025,0.000970019,0.0357819,1896,911,71.0951,-2.46128
679,113,71.0734,2.2453,-0.000947288,-0.00113046,0.00030923,-0.000716365,-0.00136138,0.641429,0.000786353,0.031788,1903,911,71.0733,-2.24532
686,113,71.1093,2.18152,-0.000952984,-0.00118885,-7.32372e-05,-0.000932094,-0.00120974,-0.277858,0.000731721,0.024418,1910,911,71.1093,-2.18153
693,113,71.0802,2.27563,0,0,0,0,0,0,0,-1,1917,911,71.0802,-2.27565
700,113,43.897,2.79669,0,0,0,0,0,0,0,-1,1924,911,43.897,-2.79671
707,113,64.2817,3.10425,0,0,0,0,0,0,0,-1,1931,911,64.2817,-3.10428
714,113,64.3218,3.78467,-0.00210688,0.00029798,-0.00200464,0.00143316,-0.00324206,-1.05554,0.00276577,0.0315652,1938,911,64.3218,-3.78467
721,113,64.3195,4.45929,-0.0026993,0.000694319,-0.00218561,0.00176447,-0.00376945,-1.11548,0.00326416,0.0260821,1945,911,64.3195,-4.45929
728,113,64.399,5.21399,-0.00337581,0.00137724,-0.00220632,0.00224351,-0.00424208,-1.19666,0.00380325,0.0272987,1952,911,64.399,-5.214
735,113,64.3022,5.89539,-0.00386147,0.00252512,-0.00240026,0.00332663,-0.00466298,-1.24852,0.00463426,0.0236099,1959,911,64.3022,-5.89539
742,113,64.1886,6.52643,-0.00417684,0.00479674,-0.00270165,0.00554733,-0.00492744,-1.2998,0.00605114,0.0141424,1966,911,64.1885,-6.52643
749,113,64.1858,7.22119,-0.00407774,0.00820486,-0.00265699,0.00875499,-0.00462787,-1.36663,0.00784811,0.0102029,1973,911,64.1858,-7.22118
756,113,64.0859,7.94586,-0.0034466,0.0124319,-0.00210489,0.0127062,-0.00372089,-1.44122,0.00994589,0.0159561,1980,911,64.086,-7.94586
763,113,63.9119,8.78387,-0.00232101,0.0170373,-0.00111402,0.0171012,-0.00238491,-1.5135,0.0122733,0.0390939,1987,911,63.912,-8.78385
770,113,63.8142,9.6319,0,0,0,0,0,0,0,-1,1994,911,63.8142,-9.63189
777,113,58.1719,9.65338,0,0,0,0,0,0,0,-1,2001,911,58.172,-9.6534
784,113,59.4839,11.6239,0,0,0,0,0,0,0,-1,2008,911,59.4839,-11.6239
791,113,63.7207,8.32813,0,0,0,0,0,0,0,-1,2015,911,63.7207,-8.32813
798,113,63.0522,12.1951,0,0,0,0,0,0,0,-1,2022,911,63.0522,-12.1951
805,113,0,0,0,0,0,0,0,0,0,-1,2029,911,0,0
812,113,0,0,0,0,0,0,0,0,0,-1,2036,911,0,0
-700,106,0,0,0,0,0,0,0,0,0,-1,524,918,0,0
-693,106,0,0,0,0,0,0,0,0,0,-1,531,918,0,0
-686,106,0,0,0,0,0,0,0,0,0,-1,538,918,0,0
-679,106,-55.1822,6.13147,0,0,0,0,0,0,0,-1,545,918,-55.1822,-6.13147
-672,106,-55.5291,7.13861,0,0,0,0,0,0,0,-1,552,918,-55.5291,-7.13863
-665,106,-54.6245,7.52954,0.0704844,0.00994007,-0.032637,0.0847272,-0.00430271,-0.411486,0.0579723,0.047512,559,918,-54.6245,-7.52954
-658,106,-53.5793,7.8468,0.0545179,0.00898982,-0.0264493,0.0666504,-0.00314266,-0.430071,0.0455173,0.0452344,566,918,-53.5793,-7.84678
-651,106,-52.8008,8.01733,0,0,0,0,0,0,0,-1,573,918,-52.8008,-8.01734
-644,106,-49.1098,8.12152,0,0,0,0,0,0,0,-1,580,918,-49.1098,-8.12155
-637,106,-49.5236,7.43774,0.0163924,0.00905983,-0.00886074,0.0223154,0.00313683,-0.589239,0.0139494,0.0377099,587,918,-49.5236,-7.43773
-630,106,-49.9542,6.8429,0.00786205,0.00760157,-0.00461162,0.0123453,0.00311835,-0.771281,0.00741269,0.0183806,594,918,-49.9541,-6.84289
-623,106,-50.1617,6.05402,0.000578571,0.00656545,-0.000978929,0.00672145,0.000422569,-1.41277,0.00434696,0.0191773,601,918,-50.1617,-6.05399
-616,106,-50.2293,5.38171,-0.00409901,0.00547657,0.00218599,0.005952,-0.00457444,1.35664,0.00609476,0.019237,608,918,-50.2293,-5.38171
-609,106,-50.2134,4.8045,-0.00607854,0.00361722,0.00389192,0.00498617,-0.00744748,1.23257,0.00722531,0.0136404,615,918,-50.2134,-4.80452
-602,106,-50.2563,4.12415,-0.00595046,-0.000251256,0.00354301,0.00144591,-0.00764763,1.12407,0.00564248,0.02283,622,918,-50.2563,-4.12417
-595,106,-50.4226,3.48511,-0.00594722,-0.00389503,0.00279977,-0.00193926,-0.007903,0.961044,0.00475592,0.0269487,629,918,-50.4226,-3.4851
-588,106,-50.4401,2.80023,-0.00721445,-0.0073025,0.00201227,-0.00524572,-0.00927122,0.774461,0.00536817,0.0322686,636,918,-50.4401,-2.80021
-581,106,-50.0054,2.20996,0,0,0,0,0,0,0,-1,643,918,-50.0054,-2.20995
-574,106,-49.9651,1.38684,0,0,0,0,0,0,0,-1,650,918,-49.9652,-1.38685
-567,106,-41.3706,0.420776,0,0,0,0,0,0,0,-1,657,918,-41.3706,-0.420794
-560,106,-54.77,0.552063,0,0,0,0,0,0,0,-1,664,918,-54.77,-0.552063
-553,106,-54.7905,0.656982,0,0,0,0,0,0,0,-1,671,918,-54.7905,-0.656986
-546,106,-54.711,0.698364,0,0,0,0,0,0,0,-1,678,918,-54.711,-0.698376
-539,106,-54.6011,0.810852,0,0,0,0,0,0,0,-1,685,918,-54.6011,-0.810865
-532,106,-54.4762,0.937744,0,0,0,0,0,0,0,-1,692,918,-54.4762,-0.937735
-525,106,-54.4271,0.866577,0,0,0,0,0,0,0,-1,699,918,-54.4271,-0.866574
-518,106,-54.829,0.740295,0,0,0,0,0,0,0,-1,706,918,-54.829,-0.74031
-511,106,0,0,0,0,0,0,0,0,0,-1,713,918,0,0
-504,106,0,0,0,0,0,0,0,0,0,-1,720,918,0,0
-497,106,0,0,0,0,0,0,0,0,0,-1,727,918,0,0
-490,106,0,0,0,0,0,0,0,0,0,-1,734,918,0,0
-483,106,0,0,0,0,0,0,0,0,0,-1,741,918,0,0
-476,106,0,0,0,0,0,0,0,0,0,-1,748,918,0,0
-469,106,0,0,0,0,0,0,0,0,0,-1,755,918,0,0
-462,106,0,0,0,0,0,0,0,0,0,-1,762,918,0,0
-455,106,0,0,0,0,0,0,0,0,0,-1,769,918,0,0
-448,106,0,0,0,0,0,0,0,0,0,-1,776,918,0,0
-441,106,0,0,0,0,0,0,0,0,0,-1,783,918,0,0
-434,106,0,0,0,0,0,0,0,0,0,-1,790,918,0,0
-427,106,0,0,0,0,0,0,0,0,0,-1,797,918,0,0
-420,106,0,0,0,0,0,0,0,0,0,-1,804,918,0,0
-413,106,0,0,0,0,0,0,0,0,0,-1,811,918,0,0
-406,106,0,0,0,0,0,0,0,0,0,-1,818,918,0,0
-399,106,0,0,0,0,0,0,0,0,0,-1,825,918,0,0
-392,106,0,0,0,0,0,0,0,0,0,-1,832,918,0,0
-385,106,0,0,0,0,0,0,0,0,0,-1,839,918,0,0
-378,106,0,0,0,0,0,0,0,0,0,-1,846,918,0,0
-371,106,0,0,0,0,0,0,0,0,0,-1,853,918,0,0
-364,106,0,0,0,0,0,0,0,0,0,-1,860,918,0,0
-357,106,0,0,0,0,0,0,0,0,0,-1,867,918,0,0
-350,106,0,0,0,0,0,0,0,0,0,-1,874,918,0,0
-343,106,0,0,0,0,0,0,0,0,0,-1,881,918,0,0
-336,106,0,0,0,0,0,0,0,0,0,-1,888,918,0,0
-329,106,0,0,0,0,0,0,0,0,0,-1,895,918,0,0
-322,106,0,0,0,0,0,0,0,0,0,-1,902,918,0,0
-315,106,0,0,0,0,0,0,0,0,0,-1,909,918,0,0
-308,106,0,0,0,0,0,0,0,0,0,-1,916,918,0,0
-301,106,0,0,0,0,0,0,0,0,0,-1,923,918,0,0
-294,106,0,0,0,0,0,0,0,0,0,-1,930,918,0,0
-287,106,0,0,0,0,0,0,0,0,0,-1,937,918,0,0
-280,106,0,0,0,0,0,0,0,0,0,-1,944,918,0,0
-273,106,0,0,0,0,0,0,0,0,0,-1,951,918,0,0
-266,106,0,0,0,0,0,0,0,0,0,-1,958,918,0,0
-259,106,0,0,0,0,0,0,0,0,0,-1,965,918,0,0
-252,106,0,0,0,0,0,0,0,0,0,-1,972,918,0,0
-245,106,0,0,0,0,0,0,0,0,0,-1,979,918,0,0
-238,106,0,0,0,0,0,0,0,0,0,-1,986,918,0,0
-231,106,0,0,0,0,0,0,0,0,0,-1,993,918,0,0
-224,106,0,0,0,0,0,0,0,0,0,-1,1000,918,0,0
-217,106,0,0,0,0,0,0,0,0,0,-1,1007,918,0,0
-210,106,0,0,0,0,0,0,0,0,0,-1,1014,918,0,0
-203,106,0,0,0,0,0,0,0,0,0,-1,1021,918,0,0
-196,106,0,0,0,0,0,0,0,0,0,-1,1028,918,0,0
-189,106,0,0,0,0,0,0,0,0,0,-1,1035,918,0,0
-182,106,0,0,0,0,0,0,0,0,0,-1,1042,918,0,0
-175,106,0,0,0,0,0,0,0,0,0,-1,1049,918,0,0
-168,106,0,0,0,0,0,0,0,0,0,-1,1056,918,0,0
-161,106,0,0,0,0,0,0,0,0,0,-1,1063,918,0,0
-154,106,0,0,0,0,0,0,0,0,0,-1,1070,918,0,0
-147,106,0,0,0,0,0,0,0,0,0,-1,1077,918,0,0
-140,106,0,0,0,0,0,0,0,0,0,-1,1084,918,0,0
-133,106,0,0,0,0,0,0,0,0,0,-1,1091,918,0,0
-126,106,0,0,0,0,0,0,0,0,0,-1,1098,918,0,0
-119,106,0,0,0,0,0,0,0,0,0,-1,1105,918,0,0
-112,106,0,0,0,0,0,0,0,0,0,-1,1112,918,0,0
-105,106,0,0,0,0,0,0,0,0,0,-1,1119,918,0,0
-98,106,0,0,0,0,0,0,0,0,0,-1,1126,918,0,0
-91,106,0,0,0,0,0,0,0,0,0,-1,1133,918,0,0
-84,106,0,0,0,0,0,0,0,0,0,-1,1140,918,0,0
-77,106,0,0,0,0,0,0,0,0,0,-1,1147,918,0,0
-70,106,0,0,0,0,0,0,0,0,0,-1,1154,918,0,0
-63,106,0,0,0,0,0,0,0,0,0,-1,1161,918,0,0
-56,106,0,0,0,0,0,0,0,0,0,-1,1168,918,0,0
-49,106,0,0,0,0,0,0,0,0,0,-1,1175,918,0,0
-42,106,0,0,0,0,0,0,0,0,0,-1,1182,918,0,0
-35,106,0,0,0,0,0,0,0,0,0,-1,1189,918,0,0
-28,106,0,0,0,0,0,0,0,0,0,-1,1196,918,0,0
-21,106,0,0,0,0,0,0,0,0,0,-1,1203,918,0,0
-14,106,0,0,0,0,0,0,0,0,0,-1,1210,918,0,0
-7,106,0,0,0,0,0,0,0,0,0,-1,1217,918,0,0
0,106,0,0,0,0,0,0,0,0,0,-1,1224,918,0,0
7,106,0,0,0,0,0,0,0,0,0,-1,1231,918,0,0
14,106,0,0,0,0,0,0,0,0,0,-1,1238,918,0,0
21,106,0,0,0,0,0,0,0,0,0,-1,1245,918,0,0
28,106,0,0,0,0,0,0,0,0,0,-1,1252,918,0,0
35,106,0,0,0,0,0,0,0,0,0,-1,1259,918,0,0
42,106,0,0,0,0,0,0,0,0,0,-1,1266,918,0,0
49,106,0,0,0,0,0,0,0,0,0,-1,1273,918,0,0
56,106,0,0,0,0,0,0,0,0,0,-1,1280,918,0,0
63,106,0,0,0,0,0,0,0,0,0,-1,1287,918,0,0
70,106,0,0,0,0,0,0,0,0,0,-1,1294,918,0,0
77,106,0,0,0,0,0,0,0,0,0,-1,1301,918,0,0
84,106,0,0,0,0,0,0,0,0,0,-1,1308,918,0,0
91,106,0,0,0,0,0,0,0,0,0,-1,1315,918,0,0
98,106,0,0,0,0,0,0,0,0,0,-1,1322,918,0,0
105,106,0,0,0,0,0,0,0,0,0,-1,1329,918,0,0
112,106,0,0,0,0,0,0,0,0,0,-1,1336,918,0,0
119,106,0,0,0,0,0,0,0,0,0,-1,1343,918,0,0
126,106,0,0,0,0,0,0,0,0,0,-1,1350,918,0,0
133,106,0,0,0,0,0,0,0,0,0,-1,1357,918,0,0
140,106,0,0,0,0,0,0,0,0,0,-1,1364,918,0,0
147,106,0,0,0,0,0,0,0,0,0,-1,1371,918,0,0
154,106,0,0,0,0,0,0,0,0,0,-1,1378,918,0,0
161,106,0,0,0,0,0,0,0,0,0,-1,1385,918,0,0
168,106,0,0,0,0,0,0,0,0,0,-1,1392,918,0,0
175,106,0,0,0,0,0,0,0,0,0,-1,1399,918,0,0
182,106,0,0,0,0,0,0,0,0,0,-1,1406,918,0,0
189,106,0,0,0,0,0,0,0,0,0,-1,1413,918,0,0
196,106,0,0,0,0,0,0,0,0,0,-1,1420,918,0,0
203,106,0,0,0,0,0,0,0,0,0,-1,1427,918,0,0
210,106,0,0,0,0,0,0,0,0,0,-1,1434,918,0,0
217,106,0,0,0,0,0,0,0,0,0,-1,1441,918,0,0
224,106,0,0,0,0,0,0,0,0,0,-1,1448,918,0,0
231,106,0,0,0,0,0,0,0,0,0,-1,1455,918,0,0
238,106,0,0,0,0,0,0,0,0,0,-1,1462,918,0,0
245,106,0,0,0,0,0,0,0,0,0,-1,1469,918,0,0
252,106,0,0,0,0,0,0,0,0,0,-1,1476,918,0,0
259,106,0,0,0,0,0,0,0,0,0,-1,1483,918,0,0
266,106,0,0,0,0,0,0,0,0,0,-1,1490,918,0,0
273,106,0,0,0,0,0,0,0,0,0,-1,1497,918,0,0
280,106,0,0,0,0,0,0,0,0,0,-1,1504,918,0,0
287,106,0,0,0,0,0,0,0,0,0,-1,1511,918,0,0
294,106,0,0,0,0,0,0,0,0,0,-1,1518,918,0,0
301,106,0,0,0,0,0,0,0,0,0,-1,1525,918,0,0
308,106,0,0,0,0,0,0,0,0,0,-1,1532,918,0,0
315,106,0,0,0,0,0,0,0,0,0,-1,1539,918,0,0
322,106,0,0,0,0,0,0,0,0,0,-1,1546,918,0,0
329,106,0,0,0,0,0,0,0,0,0,-1,1553,918,0,0
336,106,0,0,0,0,0,0,0,0,0,-1,1560,918,0,0
343,106,0,0,0,0,0,0,0,0,0,-1,1567,918,0,0
350,106,0,0,0,0,0,0,0,0,0,-1,1574,918,0,0
357,106,0,0,0,0,0,0,0,0,0,-1,1581,918,0,0
364,106,0,0,0,0,0,0,0,0,0,-1,1588,918,0,0
371,106,0,0,0,0,0,0,0,0,0,-1,1595,918,0,0
378,106,0,0,0,0,0,0,0,0,0,-1,1602,918,0,0
385,106,0,0,0,0,0,0,0,0,0,-1,1609,918,0,0
392,106,0,0,0,0,0,0,0,0,0,-1,1616,918,0,0
399,106,0,0,0,0,0,0,0,0,0,-1,1623,918,0,0
406,106,0,0,0,0,0,0,0,0,0,-1,1630,918,0,0
413,106,0,0,0,0,0,0,0,0,0,-1,1637,918,0,0
420,106,0,0,0,0,0,0,0,0,0,-1,1644,918,0,0
427,106,0,0,0,0,0,0,0,0,0,-1,1651,918,0,0
434,106,0,0,0,0,0,0,0,0,0,-1,1658,918,0,0
441,106,0,0,0,0,0,0,0,0,0,-1,1665,918,0,0
448,106,0,0,0,0,0,0,0,0,0,-1,1672,918,0,0
455,106,0,0,0,0,0,0,0,0,0,-1,1679,918,0,0
462,106,0,0,0,0,0,0,0,0,0,-1,1686,918,0,0
469,106,0,0,0,0,0,0,0,0,0,-1,1693,918,0,0
476,106,0,0,0,0,0,0,0,0,0,-1,1700,918,0,0
483,106,0,0,0,0,0,0,0,0,0,-1,1707,918,0,0
490,106,0,0,0,0,0,0,0,0,0,-1,1714,918,0,0
497,106,0,0,0,0,0,0,0,0,0,-1,1721,918,0,0
504,106,0,0,0,0,0,0,0,0,0,-1,1728,918,0,0
511,106,0,0,0,0,0,0,0,0,0,-1,1735,918,0,0
518,106,0,0,0,0,0,0,0,0,0,-1,1742,918,0,0
525,106,0,0,0,0,0,0,0,0,0,-1,1749,918,0,0
532,106,0,0,0,0,0,0,0,0,0,-1,1756,918,0,0
539,106,0,0,0,0,0,0,0,0,0,-1,1763,918,0,0
546,106,0,0,0,0,0,0,0,0,0,-1,1770,918,0,0
553,106,0,0,0,0,0,0,0,0,0,-1,1777,918,0,0
560,106,0,0,0,0,0,0,0,0,0,-1,1784,918,0,0
567,106,0,0,0,0,0,0,0,0,0,-1,1791,918,0,0
574,106,0,0,0,0,0,0,0,0,0,-1,1798,918,0,0
581,106,0,0,0,0,0,0,0,0,0,-1,1805,918,0,0
588,106,0,0,0,0,0,0,0,0,0,-1,1812,918,0,0
595,106,0,0,0,0,0,0,0,0,0,-1,1819,918,0,0
602,106,0,0,0,0,0,0,0,0,0,-1,1826,918,0,0
609,106,0,0,0,0,0,0,0,0,0,-1,1833,918,0,0
616,106,0,0,0,0,0,0,0,0,0,-1,1840,918,0,0
623,106,0,0,0,0,0,0,0,0,0,-1,1847,918,0,0
630,106,71.2281,2.15137,-0.0112506,-0.00149546,0.00142614,-0.00129124,-0.0114548,1.42857,0.00724458,0.039384,1854,918,71.2282,-2.15135
637,106,71.2152,2.36151,-0.00861314,-0.0016278,0.00169561,-0.00123797,-0.00900298,1.34482,0.00563484,0.0374929,1861,918,71.2152,-2.36152
644,106,71.072,2.43726,-0.00645019,-0.00144585,0.00164766,-0.000952082,-0.00694396,1.27964,0.00434684,0.0369798,1868,918,71.0721,-2.43726
651,106,71.0776,2.31018,-0.00462153,-0.00117061,0.00152214,-0.000595174,-0.00519697,1.20936,0.00328428,0.0398679,1875,918,71.0776,-2.31018
658,106,71.1571,2.38458,-0.00305588,-0.000745105,0.00134544,-0.000127042,-0.00367394,1.14017,0.00240806,0.0405115,1882,918,71.1571,-2.38459
665,106,71.1354,2.52777,-0.00173206,-0.000414262,0.00110732,0.000215362,-0.00236169,1.05378,0.00165094,0.0385351,1889,918,71.1354,-2.52774
672,106,71.0374,2.36951,-0.00121417,-0.000395969,0.000892568,0.000176786,-0.00178693,1.00028,0.00125437,0.0378811,1896,918,71.0373,-2.36953
679,106,70.9713,2.26685,-0.00105625,-0.000595248,0.000708538,-8.06609e-05,-0.00157084,0.942659,0.0010214,0.0342563,1903,918,70.9713,-2.26687
686,106,71.1003,2.1936,-0.00105542,-0.000732766,0.000343363,-0.000514719,-0.00127347,1.00501,0.000739722,0.0271264,1910,918,71.1003,-2.1936
693,106,71.0648,2.25183,-0.00111371,-0.000668653,-4.10589e-05,-0.000664897,-0.00111747,-1.47957,0.000649039,0.0362166,1917,918,71.0648,-2.25186
700,106,71.0841,2.36218,0,0,0,0,0,0,0,-1,1924,918,71.0841,-2.36218
707,106,59.4137,3.22595,0,0,0,0,0,0,0,-1,1931,918,59.4136,-3.22598
714,106,65.1302,3.91956,0,0,0,0,0,0,0,-1,1938,918,65.1302,-3.91955
721,106,65.1379,4.54468,-0.00290262,0.0010461,-0.00176887,0.00172259,-0.00357911,-1.20552,0.00312287,0.0336705,1945,918,65.138,-4.54465
728,106,65.1846,5.29199,-0.0035108,0.00174113,-0.00183217,0.00231713,-0.0040868,-1.2662,0.00374407,0.0332856,1952,918,65.1846,-5.29201
735,106,65.0858,5.94604,-0.00390056,0.00294072,-0.00208761,0.00352743,-0.00448728,-1.29682,0.00463835,0.028628,1959,918,65.0859,-5.94603
742,106,64.962,6.5307,-0.00410363,0.00518026,-0.00253279,0.00582629,-0.00474966,-1.32106,0.00611657,0.0142937,1966,918,64.9621,-6.53073
749,106,64.9041,7.20264,-0.00381514,0.00868922,-0.00266277,0.00923263,-0.00435856,-1.36948,0.00801331,0.0113154,1973,918,64.904,-7.20266
756,106,64.8217,7.86707,-0.00285532,0.0131643,-0.00225561,0.0134758,-0.00316686,-1.43355,0.0102046,0.0141175,1980,918,64.8216,-7.86707
763,106,64.7021,8.69928,-0.00136441,0.0181686,-0.00131426,0.0182566,-0.00145244,-1.50391,0.012683,0.0313231,1987,918,64.7022,-8.69925
770,106,64.6301,9.56714,0,0,0,0,0,0,0,-1,1994,918,64.6302,-9.56715
777,106,65.7896,10.1193,0,0,0,0,0,0,0,-1,2001,918,65.7895,-10.1193
784,106,66.5906,10.7704,0,0,0,0,0,0,0,-1,2008,918,66.5905,-10.7705
791,106,63.3948,10.3615,0,0,0,0,0,0,0,-1,2015,918,63.3947,-10.3615
798,106,63.9021,11.3224,0,0,0,0,0,0,0,-1,2022,918,63.9021,-11.3225
805,106,0,0,0,0,0,0,0,0,0,-1,2029,918,0,0
812,106,0,0,0,0,0,0,0,0,0,-1,2036,918,0,0
-700,99,0,0,0,0,0,0,0,0,0,-1,524,925,0,0
-693,99,0,0,0,0,0,0,0,0,0,-1,531,925,0,0
-686,99,0,0,0,0,0,0,0,0,0,-1,538,925,0,0
-679,99,-54.6463,6.34375,0,0,0,0,0,0,0,-1,545,925,-54.6463,-6.34377
-672,99,-54.0028,6.90076,0.0717842,0.0219147,-0.0300993,0.0859354,0.00776354,-0.439484,0.0548857,0.0464365,552,925,-54.0028,-6.90074
-665,99,-53.7264,7.75494,0.0573277,0.0170278,-0.0259538,0.0700353,0.00432011,-0.455313,0.0453189,0.0474936,559,925,-53.7264,-7.75492
-658,99,-52.8754,8.01794,0.0436649,0.0145872,-0.0208933,0.0545801,0.00367199,-0.481427,0.0352266,0.0460914,566,925,-52.8754,-8.01795
-651,99,-51.6957,8.44763,0,0,0,0,0,0,0,-1,573,925,-51.6957,-8.44764
-644,99,-50.2009,7.79382,0,0,0,0,0,0,0,-1,580,925,-50.2009,-7.79383
-637,99,-50.4044,7.31213,0.0120072,0.0113565,-0.00628918,0.0179794,0.00538424,-0.759557,0.0106551,0.034167,587,925,-50.4044,-7.31216
-630,99,-50.6671,6.78741,0.00499111,0.00909625,-0.0028973,0.0105944,0.00349299,-1.09358,0.0062338,0.019194,594,925,-50.6671,-6.78743
-623,99,-50.9189,6.05432,-0.000742242,0.00748925,3.22339e-05,0.00748937,-0.000742368,1.56688,0.00525787,0.013898,601,925,-50.9189,-6.0543
-616,99,-50.9446,5.41095,-0.0042601,0.00600673,0.00236969,0.00652728,-0.00478066,1.35456,0.00655455,0.0159953,608,925,-50.9447,-5.41097
-609,99,-50.9477,4.84723,-0.00558309,0.0038509,0.00331725,0.00490055,-0.00663274,1.26434,0.00668374,0.0129401,615,925,-50.9477,-4.84721
-602,99,-50.9471,4.22906,-0.0052489,9.24708e-05,0.00229262,0.000941542,-0.00609798,1.21611,0.00441277,0.0185446,622,925,-50.9471,-4.22908
-595,99,-51.0798,3.60541,-0.00518771,-0.00325198,0.000710859,-0.00301898,-0.00542071,1.25406,0.00313641,0.0250851,629,925,-51.0798,-3.60539
-588,99,-51.1009,2.93359,-0.00653108,-0.00618053,-0.0010723,-0.00526927,-0.00744234,-0.866409,0.00441904,0.0284219,636,925,-51.1009,-2.93362
-581,99,-51.1785,2.09167,-0.0109005,-0.00827187,-0.00250952,-0.00675332,-0.012419,-1.02662,0.0071793,0.0272545,643,925,-51.1785,-2.09169
-574,99,-51.5727,1.28754,0,0,0,0,0,0,0,-1,650,925,-51.5727,-1.28751
-567,99,-50.5977,0.659485,0,0,0,0,0,0,0,-1,657,925,-50.5977,-0.659461
-560,99,-54.6841,0.704163,0,0,0,0,0,0,0,-1,664,925,-54.6841,-0.704139
-553,99,-54.8334,0.598877,0,0,0,0,0,0,0,-1,671,925,-54.8334,-0.598858
-546,99,-54.7867,0.549622,0,0,0,0,0,0,0,-1,678,925,-54.7867,-0.549634
-539,99,-54.644,0.818604,0,0,0,0,0,0,0,-1,685,925,-54.644,-0.818588
-532,99,-54.6091,1.01495,0,0,0,0,0,0,0,-1,692,925,-54.6091,-1.01495
-525,99,-54.6112,0.961243,0,0,0,0,0,0,0,-1,699,925,-54.6112,-0.961239
-518,99,-54.8236,0.851746,0,0,0,0,0,0,0,-1,706,925,-54.8236,-0.851722
-511,99,0,0,0,0,0,0,0,0,0,-1,713,925,0,0
-504,99,0,0,0,0,0,0,0,0,0,-1,720,925,0,0
-497,99,0,0,0,0,0,0,0,0,0,-1,727,925,0,0
-490,99,0,0,0,0,0,0,0,0,0,-1,734,925,0,0
-483,99,0,0,0,0,0,0,0,0,0,-1,741,925,0,0
-476,99,0,0,0,0,0,0,0,0,0,-1,748,925,0,0
-469,99,0,0,0,0,0,0,0,0,0,-1,755,925,0,0
-462,99,0,0,0,0,0,0,0,0,0,-1,762,925,0,0
-455,99,0,0,0,0,0,0,0,0,0,-1,769,925,0,0
-448,99,0,0,0,0,0,0,0,0,0,-1,776,925,0,0
-441,99,0,0,0,0,0,0,0,0,0,-1,783,925,0,0
-434,99,0,0,0,0,0,0,0,0,0,-1,790,925,0,0
-427,99,0,0,0,0,0,0,0,0,0,-1,797,925,0,0
-420,99,0,0,0,0,0,0,0,0,0,-1,804,925,0,0
-413,99,0,0,0,0,0,0,0,0,0,-1,811,925,0,0
-406,99,0,0,0,0,0,0,0,0,0,-1,818,925,0,0
-399,99,0,0,0,0,0,0,0,0,0,-1,825,925,0,0
-392,99,0,0,0,0,0,0,0,0,0,-1,832,925,0,0
-385,99,0,0,0,0,0,0,0,0,0,-1,839,925,0,0
-378,99,0,0,0,0,0,0,0,0,0,-1,846,925,0,0
-371,99,0,0,0,0,0,0,0,0,0,-1,853,925,0,0
-364,99,0,0,0,0,0,0,0,0,0,-1,860,925,0,0
-357,99,0,0,0,0,0,0,0,0,0,-1,867,925,0,0
-350,99,0,0,0,0,0,0,0,0,0,-1,874,925,0,0
-343,99,0,0,0,0,0,0,0,0,0,-1,881,925,0,0
-336,99,0,0,0,0,0,0,0,0,0,-1,888,925,0,0
-329,99,0,0,0,0,0,0,0,0,0,-1,895,925,0,0
-322,99,0,0,0,0,0,0,0,0,0,-1,902,925,0,0
-315,99,0,0,0,0,0,0,0,0,0,-1,909,925,0,0
-308,99,0,0,0,0,0,0,0,0,0,-1,916,925,0,0
-301,99,0,0,0,0,0,0,0,0,0,-1,923,925,0,0
-294,99,0,0,0,0,0,0,0,0,0,-1,930,925,0,0
-287,99,0,0,0,0,0,0,0,0,0,-1,937,925,0,0
-280,99,0,0,0,0,0,0,0,0,0,-1,944,925,0,0
-273,99,0,0,0,0,0,0,0,0,0,-1,951,925,0,0
-266,99,0,0,0,0,0,0,0,0,0,-1,958,925,0,0
-259,99,0,0,0,0,0,0,0,0,0,-1,965,925,0,0
-252,99,0,0,0,0,0,0,0,0,0,-1,972,925,0,0
-245,99,0,0,0,0,0,0,0,0,0,-1,979,925,0,0
-238,99,0,0,0,0,0,0,0,0,0,-1,986,925,0,0
-231,99,0,0,0,0,0,0,0,0,0,-1,993,925,0,0
-224,99,0,0,0,0,0,0,0,0,0,-1,1000,925,0,0
-217,99,0,0,0,0,0,0,0,0,0,-1,1007,925,0,0
-210,99,0,0,0,0,0,0,0,0,0,-1,1014,925,0,0
-203,99,0,0,0,0,0,0,0,0,0,-1,1021,925,0,0
-196,99,0,0,0,0,0,0,0,0,0,-1,1028,925,0,0
-189,99,0,0,0,0,0,0,0,0,0,-1,1035,925,0,0
-182,99,0,0,0,0,0,0,0,0,0,-1,1042,925,0,0
-175,99,0,0,0,0,0,0,0,0,0,-1,1049,925,0,0
-168,99,0,0,0,0,0,0,0,0,0,-1,1056,925,0,0
-161,99,0,0,0,0,0,0,0,0,0,-1,1063,925,0,0
-154,99,0,0,0,0,0,0,0,0,0,-1,1070,925,0,0
-147,99,0,0,0,0,0,0,0,0,0,-1,1077,925,0,0
-140,99,0,0,0,0,0,0,0,0,0,-1,1084,925,0,0
-133,99,0,0,0,0,0,0,0,0,0,-1,1091,925,0,0
-126,99,0,0,0,0,0,0,0,0,0,-1,1098,925,0,0
-119,99,0,0,0,0,0,0,0,0,0,-1,1105,925,0,0
-112,99,0,0,0,0,0,0,0,0,0,-1,1112,925,0,0
-105,99,0,0,0,0,0,0,0,0,0,-1,1119,925,0,0
-98,99,0,0,0,0,0,0,0,0,0,-1,1126,925,0,0
-91,99,0,0,0,0,0,0,0,0,0,-1,1133,925,0,0
-84,99,0,0,0,0,0,0,0,0,0,-1,1140,925,0,0
-77,99,0,0,0,0,0,0,0,0,0,-1,1147,925,0,0
-70,99,0,0,0,0,0,0,0,0,0,-1,1154,925,0,0
-63,99,0,0,0,0,0,0,0,0,0,-1,1161,925,0,0
-56,99,0,0,0,0,0,0,0,0,0,-1,1168,925,0,0
-49,99,0,0,0,0,0,0,0,0,0,-1,1175,925,0,0
-42,99,0,0,0,0,0,0,0,0,0,-1,1182,925,0,0
-35,99,0,0,0,0,0,0,0,0,0,-1,1189,925,0,0
-28,99,0,0,0,0,0,0,0,0,0,-1,1196,925,0,0
-21,99,0,0,0,0,0,0,0,0,0,-1,1203,925,0,0
-14,99,0,0,0,0,0,0,0,0,0,-1,1210,925,0,0
-7,99,0,0,0,0,0,0,0,0,0,-1,1217,925,0,0
0,99,0,0,0,0,0,0,0,0,0,-1,1224,925,0,0
7,99,0,0,0,0,0,0,0,0,0,-1,1231,925,0,0
14,99,0,0,0,0,0,0,0,0,0,-1,1238,925,0,0
21,99,0,0,0,0,0,0,0,0,0,-1,1245,925,0,0
28,99,0,0,0,0,0,0,0,0,0,-1,1252,925,0,0
35,99,0,0,0,0,0,0,0,0,0,-1,1259,925,0,0
42,99,0,0,0,0,0,0,0,0,0,-1,1266,925,0,0
49,99,0,0,0,0,0,0,0,0,0,-1,1273,925,0,0
56,99,0,0,0,0,0,0,0,0,0,-1,1280,925,0,0
63,99,0,0,0,0,0,0,0,0,0,-1,1287,925,0,0
70,99,0,0,0,0,0,0,0,0,0,-1,1294,925,0,0
77,99,0,0,0,0,0,0,0,0,0,-1,1301,925,0,0
84,99,0,0,0,0,0,0,0,0,0,-1,1308,925,0,0
91,99,0,0,0,0,0,0,0,0,0,-1,1315,925,0,0
98,99,0,0,0,0,0,0,0,0,0,-1,1322,925,0,0
105,99,0,0,0,0,0,0,0,0,0,-1,1329,925,0,0
112,99,0,0,0,0,0,0,0,0,0,-1,1336,925,0,0
119,99,0,0,0,0,0,0,0,0,0,-1,1343,925,0,0
126,99,0,0,0,0,0,0,0,0,0,-1,1350,925,0,0
133,99,0,0,0,0,0,0,0,0,0,-1,1357,925,0,0
140,99,0,0,0,0,0,0,0,0,0,-1,1364,925,0,0
147,99,0,0,0,0,0,0,0,0,0,-1,1371,925,0,0
154,99,0,0,0,0,0,0,0,0,0,-1,1378,925,0,0
161,99,0,0,0,0,0,0,0,0,0,-1,1385,925,0,0
168,99,0,0,0,0,0,0,0,0,0,-1,1392,925,0,0
175,99,0,0,0,0,0,0,0,0,0,-1,1399,925,0,0
182,99,0,0,0,0,0,0,0,0,0,-1,1406,925,0,0
189,99,0,0,0,0,0,0,0,0,0,-1,1413,925,0,0
196,99,0,0,0,0,0,0,0,0,0,-1,1420,925,0,0
203,99,0,0,0,0,0,0,0,0,0,-1,1427,925,0,0
210,99,0,0,0,0,0,0,0,0,0,-1,1434,925,0,0
217,99,0,0,0,0,0,0,0,0,0,-1,1441,925,0,0
224,99,0,0,0,0,0,0,0,0,0,-1,1448,925,0,0
231,99,0,0,0,0,0,0,0,0,0,-1,1455,925,0,0
238,99,0,0,0,0,0,0,0,0,0,-1,1462,925,0,0
245,99,0,0,0,0,0,0,0,0,0,-1,1469,925,0,0
252,99,0,0,0,0,0,0,0,0,0,-1,1476,925,0,0
259,99,0,0,0,0,0,0,0,0,0,-1,1483,925,0,0
266,99,0,0,0,0,0,0,0,0,0,-1,1490,925,0,0
273,99,0,0,0,0,0,0,0,0,0,-1,1497,925,0,0
280,99,0,0,0,0,0,0,0,0,0,-1,1504,925,0,0
287,99,0,0,0,0,0,0,0,0,0,-1,1511,925,0,0
294,99,0,0,0,0,0,0,0,0,0,-1,1518,925,0,0
301,99,0,0,0,0,0,0,0,0,0,-1,1525,925,0,0
308,99,0,0,0,0,0,0,0,0,0,-1,1532,925,0,0
315,99,0,0,0,0,0,0,0,0,0,-1,1539,925,0,0
322,99,0,0,0,0,0,0,0,0,0,-1,1546,925,0,0
329,99,0,0,0,0,0,0,0,0,0,-1,1553,925,0,0
336,99,0,0,0,0,0,0,0,0,0,-1,1560,925,0,0
343,99,0,0,0,0,0,0,0,0,0,-1,1567,925,0,0
350,99,0,0,0,0,0,0,0,0,0,-1,1574,925,0,0
357,99,0,0,0,0,0,0,0,0,0,-1,1581,925,0,0
364,99,0,0,0,0,0,0,0,0,0,-1,1588,925,0,0
371,99,0,0,0,0,0,0,0,0,0,-1,1595,925,0,0
378,99,0,0,0,0,0,0,0,0,0,-1,1602,925,0,0
385,99,0,0,0,0,0,0,0,0,0,-1,1609,925,0,0
392,99,0,0,0,0,0,0,0,0,0,-1,1616,925,0,0
399,99,0,0,0,0,0,0,0,0,0,-1,1623,925,0,0
406,99,0,0,0,0,0,0,0,0,0,-1,1630,925,0,0
413,99,0,0,0,0,0,0,0,0,0,-1,1637,925,0,0
420,99,0,0,0,0,0,0,0,0,0,-1,1644,925,0,0
427,99,0,0,0,0,0,0,0,0,0,-1,1651,925,0,0
434,99,0,0,0,0,0,0,0,0,0,-1,1658,925,0,0
441,99,0,0,0,0,0,0,0,0,0,-1,1665,925,0,0
448,99,0,0,0,0,0,0,0,0,0,-1,1672,925,0,0
455,99,0,0,0,0,0,0,0,0,0,-1,1679,925,0,0
462,99,0,0,0,0,0,0,0,0,0,-1,1686,925,0,0
469,99,0,0,0,0,0,0,0,0,0,-1,1693,925,0,0
476,99,0,0,0,0,0,0,0,0,0,-1,1700,925,0,0
483,99,0,0,0,0,0,0,0,0,0,-1,1707,925,0,0
490,99,0,0,0,0,0,0,0,0,0,-1,1714,925,0,0
497,99,0,0,0,0,0,0,0,0,0,-1,1721,925,0,0
504,99,0,0,0,0,0,0,0,0,0,-1,1728,925,0,0
511,99,0,0,0,0,0,0,0,0,0,-1,1735,925,0,0
518,99,0,0,0,0,0,0,0,0,0,-1,1742,925,0,0
525,99,0,0,0,0,0,0,0,0,0,-1,1749,925,0,0
532,99,0,0,0,0,0,0,0,0,0,-1,1756,925,0,0
539,99,0,0,0,0,0,0,0,0,0,-1,1763,925,0,0
546,99,0,0,0,0,0,0,0,0,0,-1,1770,925,0,0
553,99,0,0,0,0,0,0,0,0,0,-1,1777,925,0,0
560,99,0,0,0,0,0,0,0,0,0,-1,1784,925,0,0
567,99,0,0,0,0,0,0,0,0,0,-1,1791,925,0,0
574,99,0,0,0,0,0,0,0,0,0,-1,1798,925,0,0
581,99,0,0,0,0,0,0,0,0,0,-1,1805,925,0,0
588,99,0,0,0,0,0,0,0,0,0,-1,1812,925,0,0
595,99,0,0,0,0,0,0,0,0,0,-1,1819,925,0,0
602,99,0,0,0,0,0,0,0,0,0,-1,1826,925,0,0
609,99,0,0,0,0,0,0,0,0,0,-1,1833,925,0,0
616,99,0,0,0,0,0,0,0,0,0,-1,1840,925,0,0
623,99,0,0,0,0,0,0,0,0,0,-1,1847,925,0,0
630,99,0,0,0,0,0,0,0,0,0,-1,1854,925,0,0
637,99,71.2454,2.48352,-0.0091294,-0.000715445,0.00168974,-0.000388785,-0.00945606,1.37983,0.00617852,0.0412002,1861,925,71.2453,-2.48352
644,99,71.0261,2.43469,-0.00679265,-0.00054415,0.00152981,-0.000189713,-0.00714708,1.34313,0.00470276,0.0382471,1868,925,71.0261,-2.43467
651,99,71.0388,2.25299,-0.00485629,-0.000311106,0.00137375,7.18359e-05,-0.00523923,1.29894,0.00351701,0.038461,1875,925,71.0388,-2.25296
658,99,71.0698,2.3623,-0.00323157,6.38473e-05,0.00124254,0.000479835,-0.00364755,1.24774,0.00260641,0.0384431,1882,925,71.0698,-2.3623
665,99,71.0371,2.32227,-0.00188287,0.000413412,0.00111428,0.000865224,-0.00233468,1.18558,0.0019113,0.0382534,1889,925,71.0371,-2.32227
672,99,71.0862,2.28644,-0.00139007,0.000464521,0.00103128,0.000924101,-0.00184965,1.15157,0.00163087,0.0406922,1896,925,71.0862,-2.28646
679,99,70.9904,2.2569,-0.00130054,0.000219509,0.000968107,0.000690284,-0.00177132,1.11818,0.00146618,0.0373248,1903,925,70.9903,-2.25688
686,99,71.0535,2.21814,-0.00133003,-7.67651e-06,0.000669953,0.000272418,-0.00161012,1.1748,0.0011748,0.0281974,1910,925,71.0535,-2.21813
693,99,71.0764,2.31451,-0.00141491,-7.53192e-05,0.000328304,8.14092e-07,-0.00149104,1.34293,0.0009943,0.031709,1917,925,71.0764,-2.31453
700,99,71.0763,2.41223,0,0,0,0,0,0,0,-1,1924,925,71.0763,-2.41226
707,99,47.9915,3.27429,0,0,0,0,0,0,0,-1,1931,925,47.9914,-3.27427
714,99,65.6296,3.60437,0,0,0,0,0,0,0,-1,1938,925,65.6297,-3.60439
721,99,65.8696,4.49658,-0.00337169,0.00144675,-0.00140351,0.00182575,-0.00375069,-1.30705,0.00328288,0.0378159,1945,925,65.8696,-4.4966
728,99,65.8456,5.22229,-0.00390919,0.00217838,-0.0015469,0.00254891,-0.00427971,-1.3357,0.0039845,0.0308355,1952,925,65.8456,-5.22231
735,99,65.774,5.92151,-0.00421564,0.00343438,-0.00187598,0.00386965,-0.00465091,-1.34281,0.00492623,0.0244764,1959,925,65.774,-5.92151
742,99,65.6877,6.55823,-0.00435003,0.00558445,-0.00246597,0.00616288,-0.00492847,-1.3404,0.0064168,0.0160235,1966,925,65.6878,-6.55824
749,99,65.5939,7.19116,-0.00394968,0.00904236,-0.00280878,0.00962359,-0.00453092,-1.36674,0.00834656,0.0147246,1973,925,65.5938,-7.19114
756,99,65.5242,7.7843,-0.00273319,0.0135775,-0.00260359,0.013983,-0.00313871,-1.41629,0.0105254,0.0150073,1980,925,65.5242,-7.78428
763,99,65.511,8.4173,-0.000911259,0.0188164,-0.00180572,0.0189803,-0.00107518,-1.48027,0.0130267,0.0189832,1987,925,65.5109,-8.4173
770,99,65.7468,9.09338,0.00173184,0.0243028,-0.000652543,0.0243216,0.00171299,-1.54192,0.0156746,0.0333812,1994,925,65.7469,-9.09337
777,99,66.1775,9.72131,0.00528794,0.030378,0.0013419,0.0304495,0.00521638,1.51752,0.0188036,0.0417629,2001,925,66.1775,-9.72131
784,99,66.71,10.0571,0,0,0,0,0,0,0,-1,2008,925,66.7098,-10.0571
791,99,67.0547,9.68982,0,0,0,0,0,0,0,-1,2015,925,67.0547,-9.6898
798,99,66.8894,9.65735,0,0,0,0,0,0,0,-1,2022,925,66.8894,-9.65736
805,99,0,0,0,0,0,0,0,0,0,-1,2029,925,0,0
812,99,0,0,0,0,0,0,0,0,0,-1,2036,925,0,0
-700,92,0,0,0,0,0,0,0,0,0,-1,524,932,0,0
-693,92,0,0,0,0,0,0,0,0,0,-1,531,932,0,0
-686,92,-52.465,9.03204,0,0,0,0,0,0,0,-1,538,932,-52.465,-9.03204
-679,92,-53.6727,6.75079,0,0,0,0,0,0,0,-1,545,932,-53.6727,-6.75081
-672,92,-53.263,7.25494,0.0555083,0.03164,-0.0224794,0.0690251,0.0181232,-0.541371,0.0413223,0.0439724,552,932,-53.263,-7.25492
-665,92,-52.8437,7.7771,0.0433051,0.0248345,-0.0194712,0.0556202,0.0125194,-0.563958,0.0336914,0.0446587,559,932,-52.8437,-7.77708
-658,92,-52.3555,8.15955,0.0320377,0.0207393,-0.015508,0.0428934,0.00988363,-0.610729,0.0259366,0.0455526,566,932,-52.3555,-8.15957
-651,92,-51.9203,8.18665,0.0220849,0.0180341,-0.0113049,0.0315444,0.0085746,-0.696758,0.0188337,0.0470412,573,932,-51.9203,-8.18665
-644,92,-51.6089,7.6911,0.0137878,0.0158847,-0.00730675,0.0222178,0.00745467,-0.856654,0.0130568,0.0450442,580,932,-51.6089,-7.69112
-637,92,-51.3684,7.28259,0.00721429,0.0138244,-0.00382012,0.0155707,0.00546794,-1.14202,0.00912157,0.0292375,587,932,-51.3684,-7.28257
-630,92,-51.4185,6.67413,0.00180426,0.0107577,-0.00136014,0.0109598,0.00160219,-1.42331,0.00683533,0.0153903,594,932,-51.4185,-6.67411
-623,92,-51.569,6.05414,-0.0022828,0.00854258,0.000785639,0.0085993,-0.00233952,1.49873,0.0066513,0.0107213,601,932,-51.569,-6.05411
-616,92,-51.6019,5.46045,-0.00452069,0.00663332,0.00221247,0.00705615,-0.00494352,1.38196,0.00696371,0.00992741,608,932,-51.6019,-5.46047
-609,92,-51.6535,4.88287,-0.00503586,0.00421821,0.00228492,0.00475163,-0.00556929,1.34145,0.00596501,0.00992947,615,932,-51.6535,-4.88287
-602,92,-51.639,4.23889,-0.00433663,0.000619808,0.0004514,0.000660583,-0.00437741,1.48071,0.00316155,0.0125275,622,932,-51.639,-4.23891
-595,92,-51.5332,3.51709,-0.0040812,-0.00243922,-0.00210398,-0.00100173,-0.0055187,-0.971417,0.00339485,0.0266053,629,932,-51.5332,-3.51706
-588,92,-51.5522,2.94885,-0.00535225,-0.00487836,-0.00506438,-4.53908e-05,-0.0101852,-0.808775,0.00677507,0.0340056,636,932,-51.5522,-2.94885
-581,92,-52.2485,2.28998,-0.00948268,-0.00622871,-0.00818321,0.000487686,-0.0161991,-0.883528,0.0109656,0.0435474,643,932,-52.2485,-2.29
-574,92,-53.0382,1.48956,0,0,0,0,0,0,0,-1,650,932,-53.0382,-1.48953
-567,92,-54.6144,0.706421,0,0,0,0,0,0,0,-1,657,932,-54.6144,-0.70644
-560,92,-54.6485,0.575989,0,0,0,0,0,0,0,-1,664,932,-54.6485,-0.575968
-553,92,-54.923,0.496399,0,0,0,0,0,0,0,-1,671,932,-54.923,-0.496372
-546,92,-54.9075,0.485596,0,0,0,0,0,0,0,-1,678,932,-54.9075,-0.485578
-539,92,-54.7663,0.695007,0,0,0,0,0,0,0,-1,685,932,-54.7663,-0.694983
-532,92,-54.8475,0.747681,0,0,0,0,0,0,0,-1,692,932,-54.8475,-0.747706
-525,92,-54.8672,0.646667,0,0,0,0,0,0,0,-1,699,932,-54.8672,-0.646672
-518,92,-54.742,0.812073,0,0,0,0,0,0,0,-1,706,932,-54.742,-0.812078
-511,92,0,0,0,0,0,0,0,0,0,-1,713,932,0,0
-504,92,0,0,0,0,0,0,0,0,0,-1,720,932,0,0
-497,92,0,0,0,0,0,0,0,0,0,-1,727,932,0,0
-490,92,0,0,0,0,0,0,0,0,0,-1,734,932,0,0
-483,92,0,0,0,0,0,0,0,0,0,-1,741,932,0,0
-476,92,0,0,0,0,0,0,0,0,0,-1,748,932,0,0
-469,92,0,0,0,0,0,0,0,0,0,-1,755,932,0,0
-462,92,0,0,0,0,0,0,0,0,0,-1,762,932,0,0
-455,92,0,0,0,0,0,0,0,0,0,-1,769,932,0,0
-448,92,0,0,0,0,0,0,0,0,0,-1,776,932,0,0
-441,92,0,0,0,0,0,0,0,0,0,-1,783,932,0,0
-434,92,0,0,0,0,0,0,0,0,0,-1,790,932,0,0
-427,92,0,0,0,0,0,0,0,0,0,-1,797,932,0,0
-420,92,0,0,0,0,0,0,0,0,0,-1,804,932,0,0
-413,92,0,0,0,0,0,0,0,0,0,-1,811,932,0,0
-406,92,0,0,0,0,0,0,0,0,0,-1,818,932,0,0
-399,92,0,0,0,0,0,0,0,0,0,-1,825,932,0,0
-392,92,0,0,0,0,0,0,0,0,0,-1,832,932,0,0
-385,92,0,0,0,0,0,0,0,0,0,-1,839,932,0,0
-378,92,0,0,0,0,0,0,0,0,0,-1,846,932,0,0
-371,92,0,0,0,0,0,0,0,0,0,-1,853,932,0,0
-364,92,0,0,0,0,0,0,0,0,0,-1,860,932,0,0
-357,92,0,0,0,0,0,0,0,0,0,-1,867,932,0,0
-350,92,0,0,0,0,0,0,0,0,0,-1,874,932,0,0
-343,92,0,0,0,0,0,0,0,0,0,-1,881,932,0,0
-336,92,0,0,0,0,0,0,0,0,0,-1,888,932,0,0
-329,92,0,0,0,0,0,0,0,0,0,-1,895,932,0,0
-322,92,0,0,0,0,0,0,0,0,0,-1,902,932,0,0
-315,92,0,0,0,0,0,0,0,0,0,-1,909,932,0,0
-308,92,0,0,0,0,0,0,0,0,0,-1,916,932,0,0
-301,92,0,0,0,0,0,0,0,0,0,-1,923,932,0,0
-294,92,0,0,0,0,0,0,0,0,0,-1,930,932,0,0
-287,92,0,0,0,0,0,0,0,0,0,-1,937,932,0,0
-280,92,0,0,0,0,0,0,0,0,0,-1,944,932,0,0
-273,92,0,0,0,0,0,0,0,0,0,-1,951,932,0,0
-266,92,0,0,0,0,0,0,0,0,0,-1,958,932,0,0
-259,92,0,0,0,0,0,0,0,0,0,-1,965,932,0,0
-252,92,0,0,0,0,0,0,0,0,0,-1,972,932,0,0
-245,92,0,0,0,0,0,0,0,0,0,-1,979,932,0,0
-238,92,0,0,0,0,0,0,0,0,0,-1,986,932,0,0
-231,92,0,0,0,0,0,0,0,0,0,-1,993,932,0,0
-224,92,0,0,0,0,0,0,0,0,0,-1,1000,932,0,0
-217,92,0,0,0,0,0,0,0,0,0,-1,1007,932,0,0
-210,92,0,0,0,0,0,0,0,0,0,-1,1014,932,0,0
-203,92,0,0,0,0,0,0,0,0,0,-1,1021,932,0,0
-196,92,0,0,0,0,0,0,0,0,0,-1,1028,932,0,0
-189,92,0,0,0,0,0,0,0,0,0,-1,1035,932,0,0
-182,92,0,0,0,0,0,0,0,0,0,-1,1042,932,0,0
-175,92,0,0,0,0,0,0,0,0,0,-1,1049,932,0,0
-168,92,0,0,0,0,0,0,0,0,0,-1,1056,932,0,0
-161,92,0,0,0,0,0,0,0,0,0,-1,1063,932,0,0
-154,92,0,0,0,0,0,0,0,0,0,-1,1070,932,0,0
-147,92,0,0,0,0,0,0,0,0,0,-1,1077,932,0,0
-140,92,0,0,0,0,0,0,0,0,0,-1,1084,932,0,0
-133,92,0,0,0,0,0,0,0,0,0,-1,1091,932,0,0
-126,92,0,0,0,0,0,0,0,0,0,-1,1098,932,0,0
-119,92,0,0,0,0,0,0,0,0,0,-1,1105,932,0,0
-112,92,0,0,0,0,0,0,0,0,0,-1,1112,932,0,0
-105,92,0,0,0,0,0,0,0,0,0,-1,1119,932,0,0
-98,92,0,0,0,0,0,0,0,0,0,-1,1126,932,0,0
-91,92,0,0,0,0,0,0,0,0,0,-1,1133,932,0,0
-84,92,0,0,0,0,0,0,0,0,0,-1,1140,932,0,0
-77,92,0,0,0,0,0,0,0,0,0,-1,1147,932,0,0
-70,92,0,0,0,0,0,0,0,0,0,-1,1154,932,0,0
-63,92,0,0,0,0,0,0,0,0,0,-1,1161,932,0,0
-56,92,0,0,0,0,0,0,0,0,0,-1,1168,932,0,0
-49,92,0,0,0,0,0,0,0,0,0,-1,1175,932,0,0
-42,92,0,0,0,0,0,0,0,0,0,-1,1182,932,0,0
-35,92,0,0,0,0,0,0,0,0,0,-1,1189,932,0,0
-28,92,0,0,0,0,0,0,0,0,0,-1,1196,932,0,0
-21,92,0,0,0,0,0,0,0,0,0,-1,1203,932,0,0
-14,92,0,0,0,0,0,0,0,0,0,-1,1210,932,0,0
-7,92,0,0,0,0,0,0,0,0,0,-1,1217,932,0,0
0,92,0,0,0,0,0,0,0,0,0,-1,1224,932,0,0
7,92,0,0,0,0,0,0,0,0,0,-1,1231,932,0,0
14,92,0,0,0,0,0,0,0,0,0,-1,1238,932,0,0
21,92,0,0,0,0,0,0,0,0,0,-1,1245,932,0,0
28,92,0,0,0,0,0,0,0,0,0,-1,1252,932,0,0
35,92,0,0,0,0,0,0,0,0,0,-1,1259,932,0,0
42,92,0,0,0,0,0,0,0,0,0,-1,1266,932,0,0
49,92,0,0,0,0,0,0,0,0,0,-1,1273,932,0,0
56,92,0,0,0,0,0,0,0,0,0,-1,1280,932,0,0
63,92,0,0,0,0,0,0,0,0,0,-1,1287,932,0,0
70,92,0,0,0,0,0,0,0,0,0,-1,1294,932,0,0
77,92,0,0,0,0,0,0,0,0,0,-1,1301,932,0,0
84,92,0,0,0,0,0,0,0,0,0,-1,1308,932,0,0
91,92,0,0,0,0,0,0,0,0,0,-1,1315,932,0,0
98,92,0,0,0,0,0,0,0,0,0,-1,1322,932,0,0
105,92,0,0,0,0,0,0,0,0,0,-1,1329,932,0,0
112,92,0,0,0,0,0,0,0,0,0,-1,1336,932,0,0
119,92,0,0,0,0,0,0,0,0,0,-1,1343,932,0,0
126,92,0,0,0,0,0,0,0,0,0,-1,1350,932,0,0
133,92,0,0,0,0,0,0,0,0,0,-1,1357,932,0,0
140,92,0,0,0,0,0,0,0,0,0,-1,1364,932,0,0
147,92,0,0,0,0,0,0,0,0,0,-1,1371,932,0,0
154,92,0,0,0,0,0,0,0,0,0,-1,1378,932,0,0
161,92,0,0,0,0,0,0,0,0,0,-1,1385,932,0,0
168,92,0,0,0,0,0,0,0,0,0,-1,1392,932,0,0
175,92,0,0,0,0,0,0,0,0,0,-1,1399,932,0,0
182,92,0,0,0,0,0,0,0,0,0,-1,1406,932,0,0
189,92,0,0,0,0,0,0,0,0,0,-1,1413,932,0,0
196,92,0,0,0,0,0,0,0,0,0,-1,1420,932,0,0
203,92,0,0,0,0,0,0,0,0,0,-1,1427,932,0,0
210,92,0,0,0,0,0,0,0,0,0,-1,1434,932,0,0
217,92,0,0,0,0,0,0,0,0,0,-1,1441,932,0,0
224,92,0,0,0,0,0,0,0,0,0,-1,1448,932,0,0
231,92,0,0,0,0,0,0,0,0,0,-1,1455,932,0,0
238,92,0,0,0,0,0,0,0,0,0,-1,1462,932,0,0
245,92,0,0,0,0,0,0,0,0,0,-1,1469,932,0,0
252,92,0,0,0,0,0,0,0,0,0,-1,1476,932,0,0
259,92,0,0,0,0,0,0,0,0,0,-1,1483,932,0,0
266,92,0,0,0,0,0,0,0,0,0,-1,1490,932,0,0
273,92,0,0,0,0,0,0,0,0,0,-1,1497,932,0,0
280,92,0,0,0,0,0,0,0,0,0,-1,1504,932,0,0
287,92,0,0,0,0,0,0,0,0,0,-1,1511,932,0,0
294,92,0,0,0,0,0,0,0,0,0,-1,1518,932,0,0
301,92,0,0,0,0,0,0,0,0,0,-1,1525,932,0,0
308,92,0,0,0,0,0,0,0,0,0,-1,1532,932,0,0
315,92,0,0,0,0,0,0,0,0,0,-1,1539,932,0,0
322,92,0,0,0,0,0,0,0,0,0,-1,1546,932,0,0
329,92,0,0,0,0,0,0,0,0,0,-1,1553,932,0,0
336,92,0,0,0,0,0,0,0,0,0,-1,1560,932,0,0
343,92,0,0,0,0,0,0,0,0,0,-1,1567,932,0,0
350,92,0,0,0,0,0,0,0,0,0,-1,1574,932,0,0
357,92,0,0,0,0,0,0,0,0,0,-1,1581,932,0,0
364,92,0,0,0,0,0,0,0,0,0,-1,1588,932,0,0
371,92,0,0,0,0,0,0,0,0,0,-1,1595,932,0,0
378,92,0,0,0,0,0,0,0,0,0,-1,1602,932,0,0
385,92,0,0,0,0,0,0,0,0,0,-1,1609,932,0,0
392,92,0,0,0,0,0,0,0,0,0,-1,1616,932,0,0
399,92,0,0,0,0,0,0,0,0,0,-1,1623,932,0,0
406,92,0,0,0,0,0,0,0,0,0,-1,1630,932,0,0
413,92,0,0,0,0,0,0,0,0,0,-1,1637,932,0,0
420,92,0,0,0,0,0,0,0,0,0,-1,1644,932,0,0
427,92,0,0,0,0,0,0,0,0,0,-1,1651,932,0,0
434,92,0,0,0,0,0,0,0,0,0,-1,1658,932,0,0
441,92,0,0,0,0,0,0,0,0,0,-1,1665,932,0,0
448,92,0,0,0,0,0,0,0,0,0,-1,1672,932,0,0
455,92,0,0,0,0,0,0,0,0,0,-1,1679,932,0,0
462,92,0,0,0,0,0,0,0,0,0,-1,1686,932,0,0
469,92,0,0,0,0,0,0,0,0,0,-1,1693,932,0,0
476,92,0,0,0,0,0,0,0,0,0,-1,1700,932,0,0
483,92,0,0,0,0,0,0,0,0,0,-1,1707,932,0,0
490,92,0,0,0,0,0,0,0,0,0,-1,1714,932,0,0
497,92,0,0,0,0,0,0,0,0,0,-1,1721,932,0,0
504,92,0,0,0,0,0,0,0,0,0,-1,1728,932,0,0
511,92,0,0,0,0,0,0,0,0,0,-1,1735,932,0,0
518,92,0,0,0,0,0,0,0,0,0,-1,1742,932,0,0
525,92,0,0,0,0,0,0,0,0,0,-1,1749,932,0,0
532,92,0,0,0,0,0,0,0,0,0,-1,1756,932,0,0
539,92,0,0,0,0,0,0,0,0,0,-1,1763,932,0,0
546,92,0,0,0,0,0,0,0,0,0,-1,1770,932,0,0
553,92,0,0,0,0,0,0,0,0,0,-1,1777,932,0,0
560,92,0,0,0,0,0,0,0,0,0,-1,1784,932,0,0
567,92,0,0,0,0,0,0,0,0,0,-1,1791,932,0,0
574,92,0,0,0,0,0,0,0,0,0,-1,1798,932,0,0
581,92,0,0,0,0,0,0,0,0,0,-1,1805,932,0,0
588,92,0,0,0,0,0,0,0,0,0,-1,1812,932,0,0
595,92,0,0,0,0,0,0,0,0,0,-1,1819,932,0,0
602,92,0,0,0,0,0,0,0,0,0,-1,1826,932,0,0
609,92,0,0,0,0,0,0,0,0,0,-1,1833,932,0,0
616,92,0,0,0,0,0,0,0,0,0,-1,1840,932,0,0
623,92,0,0,0,0,0,0,0,0,0,-1,1847,932,0,0
630,92,0,0,0,0,0,0,0,0,0,-1,1854,932,0,0
637,92,71.338,1.60413,0,0,0,0,0,0,0,-1,1861,932,71.338,-1.60412
644,92,71.2001,1.83362,-0.00690544,0.000695015,0.00121504,0.000884532,-0.00709496,1.41607,0.0050507,0.0414931,1868,932,71.2001,-1.8336
651,92,71.0881,2.09375,-0.00494196,0.000838908,0.0010604,0.00102728,-0.00513033,1.39499,0.00380911,0.0390376,1875,932,71.0881,-2.09374
658,92,70.9585,2.42316,-0.00333768,0.00111788,0.000995341,0.00133012,-0.00354993,1.36071,0.00291304,0.0412011,1882,932,70.9585,-2.42317
665,92,70.866,2.47522,-0.00202945,0.00142085,0.000990477,0.00168496,-0.00229356,1.3102,0.00230595,0.0409771,1889,932,70.866,-2.47524
672,92,71.0068,2.39117,-0.00156118,0.00144531,0.00106072,0.00178186,-0.00189774,1.26355,0.00212477,0.0434686,1896,932,71.0068,-2.39119
679,92,71.1006,2.3335,-0.00151693,0.00112064,0.00114784,0.00155021,-0.0019465,1.21269,0.00202314,0.039006,1903,932,71.1006,-2.33347
686,92,71.0996,2.24084,-0.00154794,0.000778123,0.000953988,0.00111933,-0.00188915,1.22731,0.0017558,0.0288697,1910,932,71.0996,-2.24087
693,92,71.105,2.35248,-0.00163694,0.000557116,0.000678786,0.000750135,-0.00182996,1.29375,0.00153249,0.0241116,1917,932,71.1049,-2.35246
700,92,71.1669,2.45679,0,0,0,0,0,0,0,-1,1924,932,71.1669,-2.45676
707,92,32.9893,3.26874,0,0,0,0,0,0,0,-1,1931,932,32.9893,-3.26874
714,92,66.9924,3.91254,0,0,0,0,0,0,0,-1,1938,932,66.9924,-3.91257
721,92,66.7343,4.67981,-0.00366964,0.0017926,-0.00101391,0.00197473,-0.00385177,-1.39306,0.00342163,0.037014,1945,932,66.7343,-4.67983
728,92,66.4495,5.33185,-0.00415087,0.00254295,-0.00122219,0.00275912,-0.00436704,-1.39573,0.00414905,0.0294757,1952,932,66.4495,-5.33183
735,92,66.3989,5.96594,-0.00439163,0.00382737,-0.00159398,0.00412568,-0.00468994,-1.38579,0.00509317,0.0229793,1959,932,66.3989,-5.96592
742,92,66.4352,6.54358,-0.0045049,0.00589937,-0.00227941,0.00637684,-0.00498237,-1.36431,0.0065747,0.0225186,1966,932,66.4352,-6.54355
749,92,66.3345,7.16705,-0.00410001,0.00927771,-0.00278425,0.00983404,-0.00465635,-1.37358,0.0085422,0.0207997,1973,932,66.3345,-7.16706
756,92,66.2125,7.73987,-0.00282648,0.0137952,-0.00274893,0.014238,-0.00326931,-1.41108,0.0107488,0.0174984,1980,932,66.2125,-7.73985
763,92,66.2222,8.32611,-0.000881673,0.0191719,-0.00210316,0.0193901,-0.00109987,-1.46742,0.0133085,0.0195177,1987,932,66.2222,-8.32608
770,92,66.2551,8.94537,0.00182187,0.0247856,-0.00109171,0.0248374,0.00177009,-1.5234,0.0160009,0.0275487,1994,932,66.2551,-8.94536
777,92,66.5603,9.47546,0.00537359,0.0308438,0.000621026,0.0308589,0.00535846,1.54643,0.0190395,0.0423244,2001,932,66.5603,-9.47548
784,92,66.7908,9.82574,0.0112415,0.0371894,0.00326759,0.0375945,0.0108363,1.44743,0.0223447,0.0459906,2008,932,66.7907,-9.82576
791,92,66.9404,9.83905,0,0,0,0,0,0,0,-1,2015,932,66.9405,-9.83904
798,92,66.6687,9.83569,0,0,0,0,0,0,0,-1,2022,932,66.6687,-9.83568
805,92,0,0,0,0,0,0,0,0,0,-1,2029,932,0,0
812,92,0,0,0,0,0,0,0,0,0,-1,2036,932,0,0
-700,85,0,0,0,0,0,0,0,0,0,-1,524,939,0,0
-693,85,0,0,0,0,0,0,0,0,0,-1,531,939,0,0
-686,85,-52.2357,8.24982,0.0607804,0.0765679,-0.0117379,0.0828194,0.0545288,-1.08141,0.0486091,0.0469125,538,939,-52.2357,-8.24985
-679,85,-52.1269,8.27924,0.0501734,0.0551914,-0.0150834,0.0679731,0.0373918,-0.867815,0.0393099,0.0472886,545,939,-52.1269,-8.27924
-672,85,-52.0481,8.32904,0.0395517,0.041457,-0.0151397,0.055674,0.0253348,-0.816819,0.0321866,0.0447254,552,939,-52.0481,-8.32906
-665,85,-52.0053,8.401,0.0294562,0.0327927,-0.0132339,0.0444631,0.0177858,-0.848097,0.0258413,0.04362,559,939,-52.0053,-8.40098
-658,85,-52.1964,8.36951,0.0205158,0.0270334,-0.0103486,0.0346241,0.012925,-0.937935,0.0202031,0.0478018,566,939,-52.1964,-8.36951
-651,85,-52.1162,7.92834,0.0129263,0.0228922,-0.00714898,0.0266235,0.00919504,-1.08976,0.0156141,0.0424183,573,939,-52.1162,-7.92833
-644,85,-51.8548,7.49725,0.00688561,0.0195253,-0.00407372,0.0207245,0.00568644,-1.28451,0.0123647,0.037396,580,939,-51.8548,-7.49726
-637,85,-52.0112,7.13763,0.00234525,0.0164654,-0.00149882,0.0166228,0.00218791,-1.4662,0.0104293,0.024168,587,939,-52.0112,-7.13765
-630,85,-52.1279,6.5752,-0.00146262,0.0126549,3.22188e-05,0.012655,-0.0014627,1.56851,0.00896407,0.0149686,594,939,-52.1279,-6.57519
-623,85,-52.2359,5.99963,-0.00396886,0.00981578,0.00143775,0.00996414,-0.00411722,1.46797,0.00836023,0.0105209,601,939,-52.2359,-5.99961
-616,85,-52.2681,5.43597,-0.00494883,0.00741341,0.00203868,0.00774094,-0.00527636,1.4115,0.0075603,0.0101644,608,939,-52.2681,-5.436
-609,85,-52.317,4.86713,-0.00463748,0.00466282,0.00135402,0.00485594,-0.0048306,1.42912,0.00559253,0.013443,615,939,-52.317,-4.86713
-602,85,-52.3181,4.26166,-0.0035269,0.00111826,-0.00111123,0.00137041,-0.00377904,-1.34767,0.00307954,0.0186799,622,939,-52.318,-4.26163
-595,85,-52.2153,3.64807,-0.0030001,-0.00170279,-0.00444326,0.00213891,-0.0068418,-0.857879,0.00541682,0.022488,629,939,-52.2153,-3.64805
-588,85,-52.1832,3.0567,-0.00400155,-0.00354351,-0.00846359,0.00469416,-0.0122392,-0.798925,0.0100948,0.0263718,636,939,-52.1832,-3.05672
-581,85,-52.7598,2.49146,-0.00755646,-0.00389286,-0.0132274,0.00762899,-0.0190783,-0.854203,0.0158847,0.0418736,643,939,-52.7598,-2.49147
-574,85,-53.3043,1.55475,0,0,0,0,0,0,0,-1,650,939,-53.3043,-1.55477
-567,85,-54.6783,0.607056,0,0,0,0,0,0,0,-1,657,939,-54.6783,-0.60704
-560,85,-54.6566,0.451172,0,0,0,0,0,0,0,-1,664,939,-54.6566,-0.451183
-553,85,-54.9238,0.404419,0,0,0,0,0,0,0,-1,671,939,-54.9238,-0.404422
-546,85,-54.962,0.432434,0,0,0,0,0,0,0,-1,678,939,-54.962,-0.432464
-539,85,-54.8264,0.541077,0,0,0,0,0,0,0,-1,685,939,-54.8263,-0.541086
-532,85,-54.7979,0.608704,0,0,0,0,0,0,0,-1,692,939,-54.7979,-0.608711
-525,85,-54.8648,0.441467,0,0,0,0,0,0,0,-1,699,939,-54.8648,-0.441442
-518,85,-54.7509,0.647217,0,0,0,0,0,0,0,-1,706,939,-54.7509,-0.647201
-511,85,0,0,0,0,0,0,0,0,0,-1,713,939,0,0
-504,85,0,0,0,0,0,0,0,0,0,-1,720,939,0,0
-497,85,0,0,0,0,0,0,0,0,0,-1,727,939,0,0
-490,85,0,0,0,0,0,0,0,0,0,-1,734,939,0,0
-483,85,0,0,0,0,0,0,0,0,0,-1,741,939,0,0
-476,85,0,0,0,0,0,0,0,0,0,-1,748,939,0,0
-469,85,0,0,0,0,0,0,0,0,0,-1,755,939,0,0
-462,85,0,0,0,0,0,0,0,0,0,-1,762,939,0,0
-455,85,0,0,0,0,0,0,0,0,0,-1,769,939,0,0
-448,85,0,0,0,0,0,0,0,0,0,-1,776,939,0,0
-441,85,0,0,0,0,0,0,0,0,0,-1,783,939,0,0
-434,85,0,0,0,0,0,0,0,0,0,-1,790,939,0,0
-427,85,0,0,0,0,0,0,0,0,0,-1,797,939,0,0
-420,85,0,0,0,0,0,0,0,0,0,-1,804,939,0,0
-413,85,0,0,0,0,0,0,0,0,0,-1,811,939,0,0
-406,85,0,0,0,0,0,0,0,0,0,-1,818,939,0,0
-399,85,0,0,0,0,0,0,0,0,0,-1,825,939,0,0
-392,85,0,0,0,0,0,0,0,0,0,-1,832,939,0,0
-385,85,0,0,0,0,0,0,0,0,0,-1,839,939,0,0
-378,85,0,0,0,0,0,0,0,0,0,-1,846,939,0,0
-371,85,0,0,0,0,0,0,0,0,0,-1,853,939,0,0
-364,85,0,0,0,0,0,0,0,0,0,-1,860,939,0,0
-357,85,0,0,0,0,0,0,0,0,0,-1,867,939,0,0
-350,85,0,0,0,0,0,0,0,0,0,-1,874,939,0,0
-343,85,0,0,0,0,0,0,0,0,0,-1,881,939,0,0
-336,85,0,0,0,0,0,0,0,0,0,-1,888,939,0,0
-329,85,0,0,0,0,0,0,0,0,0,-1,895,939,0,0
-322,85,0,0,0,0,0,0,0,0,0,-1,902,939,0,0
-315,85,0,0,0,0,0,0,0,0,0,-1,909,939,0,0
-308,85,0,0,0,0,0,0,0,0,0,-1,916,939,0,0
-301,85,0,0,0,0,0,0,0,0,0,-1,923,939,0,0
-294,85,0,0,0,0,0,0,0,0,0,-1,930,939,0,0
-287,85,0,0,0,0,0,0,0,0,0,-1,937,939,0,0
-280,85,0,0,0,0,0,0,0,0,0,-1,944,939,0,0
-273,85,0,0,0,0,0,0,0,0,0,-1,951,939,0,0
-266,85,0,0,0,0,0,0,0,0,0,-1,958,939,0,0
-259,85,0,0,0,0,0,0,0,0,0,-1,965,939,0,0
-252,85,0,0,0,0,0,0,0,0,0,-1,972,939,0,0
-245,85,0,0,0,0,0,0,0,0,0,-1,979,939,0,0
-238,85,0,0,0,0,0,0,0,0,0,-1,986,939,0,0
-231,85,0,0,0,0,0,0,0,0,0,-1,993,939,0,0
-224,85,0,0,0,0,0,0,0,0,0,-1,1000,939,0,0
-217,85,0,0,0,0,0,0,0,0,0,-1,1007,939,0,0
-210,85,0,0,0,0,0,0,0,0,0,-1,1014,939,0,0
-203,85,0,0,0,0,0,0,0,0,0,-1,1021,939,0,0
-196,85,0,0,0,0,0,0,0,0,0,-1,1028,939,0,0
-189,85,0,0,0,0,0,0,0,0,0,-1,1035,939,0,0
-182,85,0,0,0,0,0,0,0,0,0,-1,1042,939,0,0
-175,85,0,0,0,0,0,0,0,0,0,-1,1049,939,0,0
-168,85,0,0,0,0,0,0,0,0,0,-1,1056,939,0,0
-161,85,0,0,0,0,0,0,0,0,0,-1,1063,939,0,0
-154,85,0,0,0,0,0,0,0,0,0,-1,1070,939,0,0
-147,85,0,0,0,0,0,0,0,0,0,-1,1077,939,0,0
-140,85,0,0,0,0,0,0,0,0,0,-1,1084,939,0,0
-133,85,0,0,0,0,0,0,0,0,0,-1,1091,939,0,0
-126,85,0,0,0,0,0,0,0,0,0,-1,1098,939,0,0
-119,85,0,0,0,0,0,0,0,0,0,-1,1105,939,0,0
-112,85,0,0,0,0,0,0,0,0,0,-1,1112,939,0,0
-105,85,0,0,0,0,0,0,0,0,0,-1,1119,939,0,0
-98,85,0,0,0,0,0,0,0,0,0,-1,1126,939,0,0
-91,85,0,0,0,0,0,0,0,0,0,-1,1133,939,0,0
-84,85,0,0,0,0,0,0,0,0,0,-1,1140,939,0,0
-77,85,0,0,0,0,0,0,0,0,0,-1,1147,939,0,0
-70,85,0,0,0,0,0,0,0,0,0,-1,1154,939,0,0
-63,85,0,0,0,0,0,0,0,0,0,-1,1161,939,0,0
-56,85,0,0,0,0,0,0,0,0,0,-1,1168,939,0,0
-49,85,0,0,0,0,0,0,0,0,0,-1,1175,939,0,0
-42,85,0,0,0,0,0,0,0,0,0,-1,1182,939,0,0
-35,85,0,0,0,0,0,0,0,0,0,-1,1189,939,0,0
-28,85,0,0,0,0,0,0,0,0,0,-1,1196,939,0,0
-21,85,0,0,0,0,0,0,0,0,0,-1,1203,939,0,0
-14,85,0,0,0,0,0,0,0,0,0,-1,1210,939,0,0
-7,85,0,0,0,0,0,0,0,0,0,-1,1217,939,0,0
0,85,0,0,0,0,0,0,0,0,0,-1,1224,939,0,0
7,85,0,0,0,0,0,0,0,0,0,-1,1231,939,0,0
14,85,0,0,0,0,0,0,0,0,0,-1,1238,939,0,0
21,85,0,0,0,0,0,0,0,0,0,-1,1245,939,0,0
28,85,0,0,0,0,0,0,0,0,0,-1,1252,939,0,0
35,85,0,0,0,0,0,0,0,0,0,-1,1259,939,0,0
42,85,0,0,0,0,0,0,0,0,0,-1,1266,939,0,0
49,85,0,0,0,0,0,0,0,0,0,-1,1273,939,0,0
56,85,0,0,0,0,0,0,0,0,0,-1,1280,939,0,0
63,85,0,0,0,0,0,0,0,0,0,-1,1287,939,0,0
70,85,0,0,0,0,0,0,0,0,0,-1,1294,939,0,0
77,85,0,0,0,0,0,0,0,0,0,-1,1301,939,0,0
84,85,0,0,0,0,0,0,0,0,0,-1,1308,939,0,0
91,85,0,0,0,0,0,0,0,0,0,-1,1315,939,0,0
98,85,0,0,0,0,0,0,0,0,0,-1,1322,939,0,0
105,85,0,0,0,0,0,0,0,0,0,-1,1329,939,0,0
112,85,0,0,0,0,0,0,0,0,0,-1,1336,939,0,0
119,85,0,0,0,0,0,0,0,0,0,-1,1343,939,0,0
126,85,0,0,0,0,0,0,0,0,0,-1,1350,939,0,0
133,85,0,0,0,0,0,0,0,0,0,-1,1357,939,0,0
140,85,0,0,0,0,0,0,0,0,0,-1,1364,939,0,0
147,85,0,0,0,0,0,0,0,0,0,-1,1371,939,0,0
154,85,0,0,0,0,0,0,0,0,0,-1,1378,939,0,0
161,85,0,0,0,0,0,0,0,0,0,-1,1385,939,0,0
168,85,0,0,0,0,0,0,0,0,0,-1,1392,939,0,0
175,85,0,0,0,0,0,0,0,0,0,-1,1399,939,0,0
182,85,0,0,0,0,0,0,0,0,0,-1,1406,939,0,0
189,85,0,0,0,0,0,0,0,0,0,-1,1413,939,0,0
196,85,0,0,0,0,0,0,0,0,0,-1,1420,939,0,0
203,85,0,0,0,0,0,0,0,0,0,-1,1427,939,0,0
210,85,0,0,0,0,0,0,0,0,0,-1,1434,939,0,0
217,85,0,0,0,0,0,0,0,0,0,-1,1441,939,0,0
224,85,0,0,0,0,0,0,0,0,0,-1,1448,939,0,0
231,85,0,0,0,0,0,0,0,0,0,-1,1455,939,0,0
238,85,0,0,0,0,0,0,0,0,0,-1,1462,939,0,0
245,85,0,0,0,0,0,0,0,0,0,-1,1469,939,0,0
252,85,0,0,0,0,0,0,0,0,0,-1,1476,939,0,0
259,85,0,0,0,0,0,0,0,0,0,-1,1483,939,0,0
266,85,0,0,0,0,0,0,0,0,0,-1,1490,939,0,0
273,85,0,0,0,0,0,0,0,0,0,-1,1497,939,0,0
280,85,0,0,0,0,0,0,0,0,0,-1,1504,939,0,0
287,85,0,0,0,0,0,0,0,0,0,-1,1511,939,0,0
294,85,0,0,0,0,0,0,0,0,0,-1,1518,939,0,0
301,85,0,0,0,0,0,0,0,0,0,-1,1525,939,0,0
308,85,0,0,0,0,0,0,0,0,0,-1,1532,939,0,0
315,85,0,0,0,0,0,0,0,0,0,-1,1539,939,0,0
322,85,0,0,0,0,0,0,0,0,0,-1,1546,939,0,0
329,85,0,0,0,0,0,0,0,0,0,-1,1553,939,0,0
336,85,0,0,0,0,0,0,0,0,0,-1,1560,939,0,0
343,85,0,0,0,0,0,0,0,0,0,-1,1567,939,0,0
350,85,0,0,0,0,0,0,0,0,0,-1,1574,939,0,0
357,85,0,0,0,0,0,0,0,0,0,-1,1581,939,0,0
364,85,0,0,0,0,0,0,0,0,0,-1,1588,939,0,0
371,85,0,0,0,0,0,0,0,0,0,-1,1595,939,0,0
378,85,0,0,0,0,0,0,0,0,0,-1,1602,939,0,0
385,85,0,0,0,0,0,0,0,0,0,-1,1609,939,0,0
392,85,0,0,0,0,0,0,0,0,0,-1,1616,939,0,0
399,85,0,0,0,0,0,0,0,0,0,-1,1623,939,0,0
406,85,0,0,0,0,0,0,0,0,0,-1,1630,939,0,0
413,85,0,0,0,0,0,0,0,0,0,-1,1637,939,0,0
420,85,0,0,0,0,0,0,0,0,0,-1,1644,939,0,0
427,85,0,0,0,0,0,0,0,0,0,-1,1651,939,0,0
434,85,0,0,0,0,0,0,0,0,0,-1,1658,939,0,0
441,85,0,0,0,0,0,0,0,0,0,-1,1665,939,0,0
448,85,0,0,0,0,0,0,0,0,0,-1,1672,939,0,0
455,85,0,0,0,0,0,0,0,0,0,-1,1679,939,0,0
462,85,0,0,0,0,0,0,0,0,0,-1,1686,939,0,0
469,85,0,0,0,0,0,0,0,0,0,-1,1693,939,0,0
476,85,0,0,0,0,0,0,0,0,0,-1,1700,939,0,0
483,85,0,0,0,0,0,0,0,0,0,-1,1707,939,0,0
490,85,0,0,0,0,0,0,0,0,0,-1,1714,939,0,0
497,85,0,0,0,0,0,0,0,0,0,-1,1721,939,0,0
504,85,0,0,0,0,0,0,0,0,0,-1,1728,939,0,0
511,85,0,0,0,0,0,0,0,0,0,-1,1735,939,0,0
518,85,0,0,0,0,0,0,0,0,0,-1,1742,939,0,0
525,85,0,0,0,0,0,0,0,0,0,-1,1749,939,0,0
532,85,0,0,0,0,0,0,0,0,0,-1,1756,939,0,0
539,85,0,0,0,0,0,0,0,0,0,-1,1763,939,0,0
546,85,0,0,0,0,0,0,0,0,0,-1,1770,939,0,0
553,85,0,0,0,0,0,0,0,0,0,-1,1777,939,0,0
560,85,0,0,0,0,0,0,0,0,0,-1,1784,939,0,0
567,85,0,0,0,0,0,0,0,0,0,-1,1791,939,0,0
574,85,0,0,0,0,0,0,0,0,0,-1,1798,939,0,0
581,85,0,0,0,0,0,0,0,0,0,-1,1805,939,0,0
588,85,0,0,0,0,0,0,0,0,0,-1,1812,939,0,0
595,85,0,0,0,0,0,0,0,0,0,-1,1819,939,0,0
602,85,0,0,0,0,0,0,0,0,0,-1,1826,939,0,0
609,85,0,0,0,0,0,0,0,0,0,-1,1833,939,0,0
616,85,0,0,0,0,0,0,0,0,0,-1,1840,939,0,0
623,85,0,0,0,0,0,0,0,0,0,-1,1847,939,0,0
630,85,0,0,0,0,0,0,0,0,0,-1,1854,939,0,0
637,85,71.1881,2.49609,-0.00927533,0.00137362,0.00112624,0.00149143,-0.00939314,1.46657,0.00681387,0.0499882,1861,939,71.1881,-2.49609
644,85,71.0958,2.17133,-0.00674964,0.0014017,0.000877725,0.00149514,-0.00684308,1.46474,0.00513353,0.0438278,1868,939,71.0958,-2.17135
651,85,71.0435,2.28009,-0.00476497,0.00147375,0.000751427,0.00156298,-0.0048542,1.4526,0.00386398,0.0424988,1875,939,71.0434,-2.28011
658,85,70.9222,2.51166,-0.00320434,0.00167634,0.000769444,0.00179477,-0.00332277,1.41808,0.00299819,0.0426472,1882,939,70.9223,-2.51168
665,85,70.8219,2.55981,-0.00196778,0.0019431,0.000898149,0.0021395,-0.00216418,1.35551,0.00248475,0.0428447,1889,939,70.8219,-2.5598
672,85,71.1376,2.31934,-0.00153911,0.00194774,0.00111982,0.0022764,-0.00186776,1.28532,0.00239651,0.0427542,1896,939,71.1376,-2.31934
679,85,71.3099,2.12927,-0.00153792,0.00156735,0.00135112,0.00207292,-0.00204349,1.21274,0.00237663,0.0392285,1903,939,71.3099,-2.12924
686,85,71.1249,2.09137,-0.00157285,0.0011382,0.00126428,0.00163628,-0.00207093,1.19551,0.00214526,0.0341488,1910,939,71.1249,-2.09135
693,85,71.0559,2.32776,-0.00167844,0.000800312,0.0010601,0.00119185,-0.00206997,1.217,0.00190582,0.0293613,1917,939,71.0559,-2.32776
700,85,71.1047,2.36273,-0.00209053,0.000908724,0.000699306,0.00106376,-0.00224556,1.35262,0.00195083,0.0420446,1924,939,71.1047,-2.36275
707,85,71.2529,2.32343,0,0,0,0,0,0,0,-1,1931,939,71.253,-2.32341
714,85,67.7889,4.00574,0,0,0,0,0,0,0,-1,1938,939,67.7889,-4.00573
721,85,67.4229,4.76172,-0.00388756,0.00189049,-0.000587437,0.00194961,-0.00394668,-1.4705,0.0034687,0.035834,1945,939,67.4229,-4.76175
728,85,67.0723,5.56421,-0.00437446,0.00269326,-0.000852313,0.00279459,-0.00447579,-1.45246,0.0042348,0.0368987,1952,939,67.0723,-5.5642
735,85,67.049,6.04779,-0.00461618,0.00406937,-0.00126444,0.00424971,-0.00479652,-1.42913,0.00522602,0.0341162,1959,939,67.049,-6.04782
742,85,67.1444,6.59656,-0.004801,0.00612833,-0.00200591,0.00648485,-0.00515753,-1.3949,0.00673628,0.0219435,1966,939,67.1444,-6.59658
749,85,67.0349,7.18243,-0.00454109,0.00946467,-0.00261034,0.00993536,-0.00501178,-1.3924,0.00878441,0.0153152,1973,939,67.0349,-7.18245
756,85,66.8759,7.71423,-0.00344535,0.0139565,-0.00272981,0.0143747,-0.00386352,-1.41879,0.0110975,0.0149029,1980,939,66.8758,-7.71425
763,85,66.8291,8.23889,-0.0016582,0.0194278,-0.00225976,0.0196673,-0.00189766,-1.46523,0.0137877,0.0153734,1987,939,66.8292,-8.23892
770,85,66.7698,8.78101,0.000877175,0.0251681,-0.00142026,0.0252509,0.000794417,-1.51259,0.0165754,0.0206578,1994,939,66.7698,-8.78101
777,85,66.6497,9.28857,0.00422459,0.0312256,-4.35816e-05,0.0312257,0.00422452,-1.56918,0.0195616,0.0416538,2001,939,66.6497,-9.28859
784,85,66.759,9.42999,0.00978659,0.0374904,0.00211977,0.0376517,0.00962533,1.49487,0.022587,0.0462286,2008,939,66.7591,-9.43
791,85,66.7012,10.0032,0,0,0,0,0,0,0,-1,2015,939,66.7011,-10.0033
798,85,66.448,10.014,0,0,0,0,0,0,0,-1,2022,939,66.448,-10.014
805,85,67.4045,8.44751,0,0,0,0,0,0,0,-1,2029,939,67.4046,-8.4475
812,85,0,0,0,0,0,0,0,0,0,-1,2036,939,0,0
-700,78,0,0,0,0,0,0,0,0,0,-1,524,946,0,0
-693,78,0,0,0,0,0,0,0,0,0,-1,531,946,0,0
-686,78,-52.0173,7.4317,0.0424225,0.0838218,-0.00293649,0.084029,0.0422152,-1.50034,0.0485144,0.0466277,538,946,-52.0173,-7.43173
-679,78,-52.0122,7.44049,0.0331444,0.0639769,-0.00625336,0.0651969,0.0319244,-1.37812,0.0376442,0.0476598,545,946,-52.0122,-7.44046
-672,78,-52.0261,7.44757,0.024282,0.0500906,-0.00696514,0.0518503,0.0225223,-1.32332,0.0300216,0.043366,552,946,-52.0261,-7.44755
-665,78,-51.4701,7.95026,0,0,0,0,0,0,0,-1,559,946,-51.4701,-7.95027
-658,78,-51.6838,8.15063,0.00955826,0.03328,-0.00443658,0.0340826,0.00875566,-1.39183,0.0204382,0.0460387,566,946,-51.6838,-8.15061
-651,78,-51.9408,7.76727,0.00413713,0.0278654,-0.00238268,0.0281023,0.00390024,-1.4717,0.0175796,0.0441619,573,946,-51.9408,-7.76729
-644,78,-52.2556,7.34692,0.000129775,0.0233412,-0.00037178,0.0233472,0.000123823,-1.55478,0.0155237,0.032495,580,946,-52.2555,-7.34693
-637,78,-52.5998,6.91736,-0.00248871,0.0193136,0.00113888,0.0193729,-0.00254804,1.51875,0.013843,0.0223575,587,946,-52.5998,-6.91735
-630,78,-52.8098,6.44232,-0.00479769,0.0148018,0.00165843,0.0149412,-0.00493703,1.48697,0.0119514,0.0193407,594,946,-52.8097,-6.44229
-623,78,-52.8602,5.90894,-0.00583689,0.0113569,0.00220019,0.0116339,-0.00611397,1.44552,0.0104106,0.0146922,601,946,-52.8602,-5.90893
-616,78,-52.8842,5.36816,-0.00557302,0.00845738,0.00181342,0.00868797,-0.00580361,1.44432,0.00842178,0.0128168,608,946,-52.8842,-5.36816
-609,78,-52.9034,4.88324,-0.00440885,0.00536817,0.000248029,0.00537446,-0.00441514,1.54545,0.00566106,0.0126962,615,946,-52.9035,-4.88323
-602,78,-52.9194,4.33844,-0.00282806,0.00190583,-0.00294774,0.00331931,-0.00424153,-1.12367,0.00437606,0.0175246,622,946,-52.9193,-4.33844
-595,78,-52.8222,3.72693,-0.00193471,-0.000584089,-0.00718748,0.00595974,-0.00847854,-0.832239,0.00837812,0.0174667,629,946,-52.8222,-3.72691
-588,78,-52.804,3.20636,-0.0025356,-0.00169734,-0.0124339,0.0103245,-0.0145575,-0.802246,0.0144348,0.0155504,636,946,-52.8039,-3.20638
-581,78,-52.7546,2.59351,0,0,0,0,0,0,0,-1,643,946,-52.7546,-2.5935
-574,78,-54.7367,0.52124,0,0,0,0,0,0,0,-1,650,946,-54.7367,-0.521241
-567,78,-54.6783,0.544006,0,0,0,0,0,0,0,-1,657,946,-54.6783,-0.544019
-560,78,-54.7682,0.45459,0,0,0,0,0,0,0,-1,664,946,-54.7683,-0.45456
-553,78,-54.8261,0.532898,0,0,0,0,0,0,0,-1,671,946,-54.8261,-0.532881
-546,78,-54.8633,0.616333,0,0,0,0,0,0,0,-1,678,946,-54.8633,-0.616315
-539,78,-54.737,0.576782,0,0,0,0,0,0,0,-1,685,946,-54.737,-0.576797
-532,78,-54.6677,0.461792,0,0,0,0,0,0,0,-1,692,946,-54.6677,-0.461809
-525,78,-54.7238,0.119873,0,0,0,0,0,0,0,-1,699,946,-54.7238,-0.11988
-518,78,-54.7942,0.325867,0,0,0,0,0,0,0,-1,706,946,-54.7942,-0.32589
-511,78,0,0,0,0,0,0,0,0,0,-1,713,946,0,0
-504,78,0,0,0,0,0,0,0,0,0,-1,720,946,0,0
-497,78,0,0,0,0,0,0,0,0,0,-1,727,946,0,0
-490,78,0,0,0,0,0,0,0,0,0,-1,734,946,0,0
-483,78,0,0,0,0,0,0,0,0,0,-1,741,946,0,0
-476,78,0,0,0,0,0,0,0,0,0,-1,748,946,0,0
-469,78,0,0,0,0,0,0,0,0,0,-1,755,946,0,0
-462,78,0,0,0,0,0,0,0,0,0,-1,762,946,0,0
-455,78,0,0,0,0,0,0,0,0,0,-1,769,946,0,0
-448,78,0,0,0,0,0,0,0,0,0,-1,776,946,0,0
-441,78,0,0,0,0,0,0,0,0,0,-1,783,946,0,0
-434,78,0,0,0,0,0,0,0,0,0,-1,790,946,0,0
-427,78,0,0,0,0,0,0,0,0,0,-1,797,946,0,0
-420,78,0,0,0,0,0,0,0,0,0,-1,804,946,0,0
-413,78,0,0,0,0,0,0,0,0,0,-1,811,946,0,0
-406,78,0,0,0,0,0,0,0,0,0,-1,818,946,0,0
-399,78,0,0,0,0,0,0,0,0,0,-1,825,946,0,0
-392,78,0,0,0,0,0,0,0,0,0,-1,832,946,0,0
-385,78,0,0,0,0,0,0,0,0,0,-1,839,946,0,0
-378,78,0,0,0,0,0,0,0,0,0,-1,846,946,0,0
-371,78,0,0,0,0,0,0,0,0,0,-1,853,946,0,0
-364,78,0,0,0,0,0,0,0,0,0,-1,860,946,0,0
-357,78,0,0,0,0,0,0,0,0,0,-1,867,946,0,0
-350,78,0,0,0,0,0,0,0,0,0,-1,874,946,0,0
-343,78,0,0,0,0,0,0,0,0,0,-1,881,946,0,0
-336,78,0,0,0,0,0,0,0,0,0,-1,888,946,0,0
-329,78,0,0,0,0,0,0,0,0,0,-1,895,946,0,0
-322,78,0,0,0,0,0,0,0,0,0,-1,902,946,0,0
-315,78,0,0,0,0,0,0,0,0,0,-1,909,946,0,0
-308,78,0,0,0,0,0,0,0,0,0,-1,916,946,0,0
-301,78,0,0,0,0,0,0,0,0,0,-1,923,946,0,0
-294,78,0,0,0,0,0,0,0,0,0,-1,930,946,0,0
-287,78,0,0,0,0,0,0,0,0,0,-1,937,946,0,0
-280,78,0,0,0,0,0,0,0,0,0,-1,944,946,0,0
-273,78,0,0,0,0,0,0,0,0,0,-1,951,946,0,0
-266,78,0,0,0,0,0,0,0,0,0,-1,958,946,0,0
-259,78,0,0,0,0,0,0,0,0,0,-1,965,946,0,0
-252,78,0,0,0,0,0,0,0,0,0,-1,972,946,0,0
-245,78,0,0,0,0,0,0,0,0,0,-1,979,946,0,0
-238,78,0,0,0,0,0,0,0,0,0,-1,986,946,0,0
-231,78,0,0,0,0,0,0,0,0,0,-1,993,946,0,0
-224,78,0,0,0,0,0,0,0,0,0,-1,1000,946,0,0
-217,78,0,0,0,0,0,0,0,0,0,-1,1007,946,0,0
-210,78,0,0,0,0,0,0,0,0,0,-1,1014,946,0,0
-203,78,0,0,0,0,0,0,0,0,0,-1,1021,946,0,0
-196,78,0,0,0,0,0,0,0,0,0,-1,1028,946,0,0
-189,78,0,0,0,0,0,0,0,0,0,-1,1035,946,0,0
-182,78,0,0,0,0,0,0,0,0,0,-1,1042,946,0,0
-175,78,0,0,0,0,0,0,0,0,0,-1,1049,946,0,0
-168,78,0,0,0,0,0,0,0,0,0,-1,1056,946,0,0
-161,78,0,0,0,0,0,0,0,0,0,-1,1063,946,0,0
-154,78,0,0,0,0,0,0,0,0,0,-1,1070,946,0,0
-147,78,0,0,0,0,0,0,0,0,0,-1,1077,946,0,0
-140,78,0,0,0,0,0,0,0,0,0,-1,1084,946,0,0
-133,78,0,0,0,0,0,0,0,0,0,-1,1091,946,0,0
-126,78,0,0,0,0,0,0,0,0,0,-1,1098,946,0,0
-119,78,0,0,0,0,0,0,0,0,0,-1,1105,946,0,0
-112,78,0,0,0,0,0,0,0,0,0,-1,1112,946,0,0
-105,78,0,0,0,0,0,0,0,0,0,-1,1119,946,0,0
-98,78,0,0,0,0,0,0,0,0,0,-1,1126,946,0,0
-91,78,0,0,0,0,0,0,0,0,0,-1,1133,946,0,0
-84,78,0,0,0,0,0,0,0,0,0,-1,1140,946,0,0
-77,78,0,0,0,0,0,0,0,0,0,-1,1147,946,0,0
-70,78,0,0,0,0,0,0,0,0,0,-1,1154,946,0,0
-63,78,0,0,0,0,0,0,0,0,0,-1,1161,946,0,0
-56,78,0,0,0,0,0,0,0,0,0,-1,1168,946,0,0
-49,78,0,0,0,0,0,0,0,0,0,-1,1175,946,0,0
-42,78,0,0,0,0,0,0,0,0,0,-1,1182,946,0,0
-35,78,0,0,0,0,0,0,0,0,0,-1,1189,946,0,0
-28,78,0,0,0,0,0,0,0,0,0,-1,1196,946,0,0
-21,78,0,0,0,0,0,0,0,0,0,-1,1203,946,0,0
-14,78,0,0,0,0,0,0,0,0,0,-1,1210,946,0,0
-7,78,0,0,0,0,0,0,0,0,0,-1,1217,946,0,0
0,78,0,0,0,0,0,0,0,0,0,-1,1224,946,0,0
7,78,0,0,0,0,0,0,0,0,0,-1,1231,946,0,0
14,78,0,0,0,0,0,0,0,0,0,-1,1238,946,0,0
21,78,0,0,0,0,0,0,0,0,0,-1,1245,946,0,0
28,78,0,0,0,0,0,0,0,0,0,-1,1252,946,0,0
35,78,0,0,0,0,0,0,0,0,0,-1,1259,946,0,0
42,78,0,0,0,0,0,0,0,0,0,-1,1266,946,0,0
49,78,0,0,0,0,0,0,0,0,0,-1,1273,946,0,0
56,78,0,0,0,0,0,0,0,0,0,-1,1280,946,0,0
63,78,0,0,0,0,0,0,0,0,0,-1,1287,946,0,0
70,78,0,0,0,0,0,0,0,0,0,-1,1294,946,0,0
77,78,0,0,0,0,0,0,0,0,0,-1,1301,946,0,0
84,78,0,0,0,0,0,0,0,0,0,-1,1308,946,0,0
91,78,0,0,0,0,0,0,0,0,0,-1,1315,946,0,0
98,78,0,0,0,0,0,0,0,0,0,-1,1322,946,0,0
105,78,0,0,0,0,0,0,0,0,0,-1,1329,946,0,0
112,78,0,0,0,0,0,0,0,0,0,-1,1336,946,0,0
119,78,0,0,0,0,0,0,0,0,0,-1,1343,946,0,0
126,78,0,0,0,0,0,0,0,0,0,-1,1350,946,0,0
133,78,0,0,0,0,0,0,0,0,0,-1,1357,946,0,0
140,78,0,0,0,0,0,0,0,0,0,-1,1364,946,0,0
147,78,0,0,0,0,0,0,0,0,0,-1,1371,946,0,0
154,78,0,0,0,0,0,0,0,0,0,-1,1378,946,0,0
161,78,0,0,0,0,0,0,0,0,0,-1,1385,946,0,0
168,78,0,0,0,0,0,0,0,0,0,-1,1392,946,0,0
175,78,0,0,0,0,0,0,0,0,0,-1,1399,946,0,0
182,78,0,0,0,0,0,0,0,0,0,-1,1406,946,0,0
189,78,0,0,0,0,0,0,0,0,0,-1,1413,946,0,0
196,78,0,0,0,0,0,0,0,0,0,-1,1420,946,0,0
203,78,0,0,0,0,0,0,0,0,0,-1,1427,946,0,0
210,78,0,0,0,0,0,0,0,0,0,-1,1434,946,0,0
217,78,0,0,0,0,0,0,0,0,0,-1,1441,946,0,0
224,78,0,0,0,0,0,0,0,0,0,-1,1448,946,0,0
231,78,0,0,0,0,0,0,0,0,0,-1,1455,946,0,0
238,78,0,0,0,0,0,0,0,0,0,-1,1462,946,0,0
245,78,0,0,0,0,0,0,0,0,0,-1,1469,946,0,0
252,78,0,0,0,0,0,0,0,0,0,-1,1476,946,0,0
259,78,0,0,0,0,0,0,0,0,0,-1,1483,946,0,0
266,78,0,0,0,0,0,0,0,0,0,-1,1490,946,0,0
273,78,0,0,0,0,0,0,0,0,0,-1,1497,946,0,0
280,78,0,0,0,0,0,0,0,0,0,-1,1504,946,0,0
287,78,0,0,0,0,0,0,0,0,0,-1,1511,946,0,0
294,78,0,0,0,0,0,0,0,0,0,-1,1518,946,0,0
301,78,0,0,0,0,0,0,0,0,0,-1,1525,946,0,0
308,78,0,0,0,0,0,0,0,0,0,-1,1532,946,0,0
315,78,0,0,0,0,0,0,0,0,0,-1,1539,946,0,0
322,78,0,0,0,0,0,0,0,0,0,-1,1546,946,0,0
329,78,0,0,0,0,0,0,0,0,0,-1,1553,946,0,0
336,78,0,0,0,0,0,0,0,0,0,-1,1560,946,0,0
343,78,0,0,0,0,0,0,0,0,0,-1,1567,946,0,0
350,78,0,0,0,0,0,0,0,0,0,-1,1574,946,0,0
357,78,0,0,0,0,0,0,0,0,0,-1,1581,946,0,0
364,78,0,0,0,0,0,0,0,0,0,-1,1588,946,0,0
371,78,0,0,0,0,0,0,0,0,0,-1,1595,946,0,0
378,78,0,0,0,0,0,0,0,0,0,-1,1602,946,0,0
385,78,0,0,0,0,0,0,0,0,0,-1,1609,946,0,0
392,78,0,0,0,0,0,0,0,0,0,-1,1616,946,0,0
399,78,0,0,0,0,0,0,0,0,0,-1,1623,946,0,0
406,78,0,0,0,0,0,0,0,0,0,-1,1630,946,0,0
413,78,0,0,0,0,0,0,0,0,0,-1,1637,946,0,0
420,78,0,0,0,0,0,0,0,0,0,-1,1644,946,0,0
427,78,0,0,0,0,0,0,0,0,0,-1,1651,946,0,0
434,78,0,0,0,0,0,0,0,0,0,-1,1658,946,0,0
441,78,0,0,0,0,0,0,0,0,0,-1,1665,946,0,0
448,78,0,0,0,0,0,0,0,0,0,-1,1672,946,0,0
455,78,0,0,0,0,0,0,0,0,0,-1,1679,946,0,0
462,78,0,0,0,0,0,0,0,0,0,-1,1686,946,0,0
469,78,0,0,0,0,0,0,0,0,0,-1,1693,946,0,0
476,78,0,0,0,0,0,0,0,0,0,-1,1700,946,0,0
483,78,0,0,0,0,0,0,0,0,0,-1,1707,946,0,0
490,78,0,0,0,0,0,0,0,0,0,-1,1714,946,0,0
497,78,0,0,0,0,0,0,0,0,0,-1,1721,946,0,0
504,78,0,0,0,0,0,0,0,0,0,-1,1728,946,0,0
511,78,0,0,0,0,0,0,0,0,0,-1,1735,946,0,0
518,78,0,0,0,0,0,0,0,0,0,-1,1742,946,0,0
525,78,0,0,0,0,0,0,0,0,0,-1,1749,946,0,0
532,78,0,0,0,0,0,0,0,0,0,-1,1756,946,0,0
539,78,0,0,0,0,0,0,0,0,0,-1,1763,946,0,0
546,78,0,0,0,0,0,0,0,0,0,-1,1770,946,0,0
553,78,0,0,0,0,0,0,0,0,0,-1,1777,946,0,0
560,78,0,0,0,0,0,0,0,0,0,-1,1784,946,0,0
567,78,0,0,0,0,0,0,0,0,0,-1,1791,946,0,0
574,78,0,0,0,0,0,0,0,0,0,-1,1798,946,0,0
581,78,0,0,0,0,0,0,0,0,0,-1,1805,946,0,0
588,78,0,0,0,0,0,0,0,0,0,-1,1812,946,0,0
595,78,0,0,0,0,0,0,0,0,0,-1,1819,946,0,0
602,78,0,0,0,0,0,0,0,0,0,-1,1826,946,0,0
609,78,0,0,0,0,0,0,0,0,0,-1,1833,946,0,0
616,78,0,0,0,0,0,0,0,0,0,-1,1840,946,0,0
623,78,0,0,0,0,0,0,0,0,0,-1,1847,946,0,0
630,78,0,0,0,0,0,0,0,0,0,-1,1854,946,0,0
637,78,71.1473,2.38037,-0.00888637,0.00178064,0.000697327,0.00182603,-0.00893176,1.50579,0.00664732,0.0481875,1861,946,71.1474,-2.38036
644,78,70.9921,2.26984,-0.0064,0.00165172,0.000446541,0.0016764,-0.00642469,1.51556,0.00493771,0.0453088,1868,946,70.9921,-2.26985
651,78,70.9832,2.37579,-0.00447073,0.0016134,0.000374422,0.00163636,-0.00449368,1.50956,0.0036651,0.0438658,1875,946,70.9831,-2.37577
658,78,71.026,2.40948,-0.00300475,0.00173813,0.000492702,0.00178877,-0.0030554,1.46837,0.00282847,0.040653,1882,946,71.026,-2.40947
665,78,71.0618,2.39789,-0.00188377,0.00200004,0.000774598,0.00214883,-0.00203256,1.38102,0.00241443,0.0407248,1889,946,71.0617,-2.39791
672,78,71.1819,2.35675,-0.00150226,0.0020554,0.00116826,0.00240472,-0.00185159,1.28024,0.00246429,0.0417946,1896,946,71.1819,-2.35675
679,78,71.2538,2.32941,-0.00154834,0.0017253,0.00154997,0.00234272,-0.00216575,1.19172,0.00260364,0.0393689,1903,946,71.2538,-2.32941
686,78,71.0621,2.25983,-0.00159716,0.00129233,0.00157409,0.00198418,-0.00228902,1.15669,0.00246922,0.037568,1910,946,71.0621,-2.25982
693,78,71.0271,2.2489,-0.00172432,0.000907716,0.00144009,0.00154253,-0.00235913,1.1556,0.00226901,0.0316889,1917,946,71.0271,-2.24888
700,78,71.036,2.24164,-0.00218487,0.000952667,0.00111841,0.00131052,-0.00254272,1.26112,0.00226227,0.0252122,1924,946,71.036,-2.24165
707,78,71.1331,2.33246,0,0,0,0,0,0,0,-1,1931,946,71.133,-2.33243
714,78,68.1517,4.14777,0,0,0,0,0,0,0,-1,1938,946,68.1517,-4.14776
721,78,67.9264,4.82953,-0.00409622,0.0020616,-0.000197672,0.00206794,-0.00410256,-1.53874,0.00362652,0.0347766,1945,946,67.9264,-4.82956
728,78,67.7729,5.65753,-0.00461914,0.00295794,-0.000526884,0.0029944,-0.0046556,-1.5017,0.00445131,0.0452128,1952,946,67.7729,-5.65753
735,78,67.8035,6.14124,-0.00491782,0.00442968,-0.000982975,0.00453193,-0.00502007,-1.46715,0.00551725,0.0307605,1959,946,67.8035,-6.14126
742,78,67.8008,6.6283,-0.00524626,0.00646943,-0.00177215,0.00673162,-0.00550846,-1.42391,0.00707856,0.0220696,1966,946,67.8008,-6.62828
749,78,67.6499,7.17188,-0.00520039,0.00973967,-0.002451,0.0101315,-0.00559221,-1.41227,0.00920332,0.0169178,1973,946,67.6499,-7.17185
756,78,67.5708,7.65063,-0.00437084,0.0141705,-0.00270511,0.0145571,-0.00475744,-1.42884,0.0116199,0.0166378,1980,946,67.5708,-7.65066
763,78,67.45,8.11194,-0.00287107,0.0196938,-0.00240467,0.0199473,-0.00312448,-1.4658,0.0144527,0.0176829,1987,946,67.45,-8.11196
770,78,67.3682,8.59863,-0.000581482,0.0255737,-0.00172576,0.0256871,-0.000694859,-1.50519,0.017361,0.0236265,1994,946,67.368,-8.59861
777,78,67.1943,9.18799,0.00253175,0.0316609,-0.000636615,0.0316748,0.00251784,-1.54896,0.0203293,0.0433261,2001,946,67.1944,-9.188
784,78,66.8391,9.25018,0.00769756,0.0378817,0.00104038,0.0379175,0.00766174,1.53638,0.023151,0.0486864,2008,946,66.8392,-9.2502
791,78,66.479,9.45355,0,0,0,0,0,0,0,-1,2015,946,66.4791,-9.45353
798,78,67.9287,7.90448,0,0,0,0,0,0,0,-1,2022,946,67.9287,-7.90446
805,78,68.5852,7.34106,0,0,0,0,0,0,0,-1,2029,946,68.5853,-7.34105
812,78,0,0,0,0,0,0,0,0,0,-1,2036,946,0,0
-700,71,0,0,0,0,0,0,0,0,0,-1,524,953,0,0
-693,71,0,0,0,0,0,0,0,0,0,-1,531,953,0,0
-686,71,-52.1279,6.28247,0.0254947,0.0921612,0.00468162,0.0924884,0.0251675,1.50103,0.055216,0.0414008,538,953,-52.1279,-6.28248
-679,71,-51.1285,7.32928,0.0175414,0.0724408,0.000787034,0.0724521,0.0175302,1.55646,0.0436477,0.0475868,545,953,-51.1285,-7.3293
-672,71,-51.2683,7.86975,0,0,0,0,0,0,0,-1,552,953,-51.2683,-7.86978
-665,71,-51.6295,7.78284,0.00385669,0.0471571,-0.000701746,0.0471685,0.00384532,-1.5546,0.0302455,0.0453105,559,953,-51.6295,-7.78283
-658,71,-51.9836,7.67957,-0.000996058,0.0389232,0.000113519,0.0389235,-0.000996379,1.56795,0.0262874,0.0476133,566,953,-51.9836,-7.67958
-651,71,-52.3165,7.50739,-0.00447401,0.0323723,0.00131851,0.0324194,-0.00452113,1.53507,0.0232669,0.0449746,573,953,-52.3165,-7.50737
-644,71,-52.7741,7.3689,-0.00661538,0.0268067,0.00253099,0.0269972,-0.00680596,1.49564,0.0206442,0.0376275,580,953,-52.7741,-7.36888
-637,71,-53.1966,6.86865,-0.00745324,0.0219183,0.00325333,0.0222743,-0.00780927,1.46179,0.0180256,0.020221,587,953,-53.1966,-6.86866
-630,71,-53.3826,6.34784,-0.00829063,0.0168121,0.00296438,0.0171574,-0.00863594,1.45483,0.0151603,0.0179998,594,953,-53.3826,-6.34786
-623,71,-53.4372,5.8371,-0.00786584,0.0128444,0.00274051,0.0132009,-0.00822235,1.44144,0.0124795,0.0163334,601,953,-53.4372,-5.83709
-616,71,-53.4678,5.2912,-0.00643044,0.00950906,0.00150261,0.00964948,-0.00657086,1.47762,0.00942087,0.0159794,608,953,-53.4678,-5.29119
-609,71,-53.4621,4.83966,-0.00445859,0.00619178,-0.000901117,0.00626749,-0.0045343,-1.48698,0.00626311,0.0160482,615,953,-53.4621,-4.83967
-602,71,-53.4515,4.40198,-0.00236471,0.00287161,-0.00489455,0.00580425,-0.00529735,-1.03099,0.00641174,0.0180949,622,953,-53.4516,-4.40199
-595,71,-53.4218,3.95453,-0.00103743,0.00080732,-0.0100886,0.0100156,-0.0102457,-0.830985,0.0116982,0.0221671,629,953,-53.4218,-3.9545
-588,71,-53.3809,3.43176,-0.00113702,0.000530444,-0.0166375,0.0163551,-0.0169617,-0.810433,0.0192365,0.0290826,636,953,-53.3809,-3.43178
-581,71,-53.1606,2.80841,0,0,0,0,0,0,0,-1,643,953,-53.1606,-2.80838
-574,71,-54.729,0.439087,0,0,0,0,0,0,0,-1,650,953,-54.729,-0.439068
-567,71,-54.6842,0.462769,0,0,0,0,0,0,0,-1,657,953,-54.6842,-0.462798
-560,71,-54.7182,0.491821,0,0,0,0,0,0,0,-1,664,953,-54.7182,-0.491819
-553,71,-54.6812,0.521545,0,0,0,0,0,0,0,-1,671,953,-54.6812,-0.52152
-546,71,-54.7053,0.617126,0,0,0,0,0,0,0,-1,678,953,-54.7052,-0.617113
-539,71,-54.7281,0.655701,0,0,0,0,0,0,0,-1,685,953,-54.7281,-0.655678
-532,71,-54.7986,0.536072,0,0,0,0,0,0,0,-1,692,953,-54.7986,-0.536094
-525,71,-54.8996,0.147827,0,0,0,0,0,0,0,-1,699,953,-54.8996,-0.147831
-518,71,0,0,0,0,0,0,0,0,0,-1,706,953,0,0
-511,71,0,0,0,0,0,0,0,0,0,-1,713,953,0,0
-504,71,0,0,0,0,0,0,0,0,0,-1,720,953,0,0
-497,71,0,0,0,0,0,0,0,0,0,-1,727,953,0,0
-490,71,0,0,0,0,0,0,0,0,0,-1,734,953,0,0
-483,71,0,0,0,0,0,0,0,0,0,-1,741,953,0,0
-476,71,0,0,0,0,0,0,0,0,0,-1,748,953,0,0
-469,71,0,0,0,0,0,0,0,0,0,-1,755,953,0,0
-462,71,0,0,0,0,0,0,0,0,0,-1,762,953,0,0
-455,71,0,0,0,0,0,0,0,0,0,-1,769,953,0,0
-448,71,0,0,0,0,0,0,0,0,0,-1,776,953,0,0
-441,71,0,0,0,0,0,0,0,0,0,-1,783,953,0,0
-434,71,0,0,0,0,0,0,0,0,0,-1,790,953,0,0
-427,71,0,0,0,0,0,0,0,0,0,-1,797,953,0,0
-420,71,0,0,0,0,0,0,0,0,0,-1,804,953,0,0
-413,71,0,0,0,0,0,0,0,0,0,-1,811,953,0,0
-406,71,0,0,0,0,0,0,0,0,0,-1,818,953,0,0
-399,71,0,0,0,0,0,0,0,0,0,-1,825,953,0,0
-392,71,0,0,0,0,0,0,0,0,0,-1,832,953,0,0
-385,71,0,0,0,0,0,0,0,0,0,-1,839,953,0,0
-378,71,0,0,0,0,0,0,0,0,0,-1,846,953,0,0
-371,71,0,0,0,0,0,0,0,0,0,-1,853,953,0,0
-364,71,0,0,0,0,0,0,0,0,0,-1,860,953,0,0
-357,71,0,0,0,0,0,0,0,0,0,-1,867,953,0,0
-350,71,0,0,0,0,0,0,0,0,0,-1,874,953,0,0
-343,71,0,0,0,0,0,0,0,0,0,-1,881,953,0,0
-336,71,0,0,0,0,0,0,0,0,0,-1,888,953,0,0
-329,71,0,0,0,0,0,0,0,0,0,-1,895,953,0,0
-322,71,0,0,0,0,0,0,0,0,0,-1,902,953,0,0
-315,71,0,0,0,0,0,0,0,0,0,-1,909,953,0,0
-308,71,0,0,0,0,0,0,0,0,0,-1,916,953,0,0
-301,71,0,0,0,0,0,0,0,0,0,-1,923,953,0,0
-294,71,0,0,0,0,0,0,0,0,0,-1,930,953,0,0
-287,71,0,0,0,0,0,0,0,0,0,-1,937,953,0,0
-280,71,0,0,0,0,0,0,0,0,0,-1,944,953,0,0
-273,71,0,0,0,0,0,0,0,0,0,-1,951,953,0,0
-266,71,0,0,0,0,0,0,0,0,0,-1,958,953,0,0
-259,71,0,0,0,0,0,0,0,0,0,-1,965,953,0,0
-252,71,0,0,0,0,0,0,0,0,0,-1,972,953,0,0
-245,71,0,0,0,0,0,0,0,0,0,-1,979,953,0,0
-238,71,0,0,0,0,0,0,0,0,0,-1,986,953,0,0
-231,71,0,0,0,0,0,0,0,0,0,-1,993,953,0,0
-224,71,0,0,0,0,0,0,0,0,0,-1,1000,953,0,0
-217,71,0,0,0,0,0,0,0,0,0,-1,1007,953,0,0
-210,71,0,0,0,0,0,0,0,0,0,-1,1014,953,0,0
-203,71,0,0,0,0,0,0,0,0,0,-1,1021,953,0,0
-196,71,0,0,0,0,0,0,0,0,0,-1,1028,953,0,0
-189,71,0,0,0,0,0,0,0,0,0,-1,1035,953,0,0
-182,71,0,0,0,0,0,0,0,0,0,-1,1042,953,0,0
-175,71,0,0,0,0,0,0,0,0,0,-1,1049,953,0,0
-168,71,0,0,0,0,0,0,0,0,0,-1,1056,953,0,0
-161,71,0,0,0,0,0,0,0,0,0,-1,1063,953,0,0
-154,71,0,0,0,0,0,0,0,0,0,-1,1070,953,0,0
-147,71,0,0,0,0,0,0,0,0,0,-1,1077,953,0,0
-140,71,0,0,0,0,0,0,0,0,0,-1,1084,953,0,0
-133,71,0,0,0,0,0,0,0,0,0,-1,1091,953,0,0
-126,71,0,0,0,0,0,0,0,0,0,-1,1098,953,0,0
-119,71,0,0,0,0,0,0,0,0,0,-1,1105,953,0,0
-112,71,0,0,0,0,0,0,0,0,0,-1,1112,953,0,0
-105,71,0,0,0,0,0,0,0,0,0,-1,1119,953,0,0
-98,71,0,0,0,0,0,0,0,0,0,-1,1126,953,0,0
-91,71,0,0,0,0,0,0,0,0,0,-1,1133,953,0,0
-84,71,0,0,0,0,0,0,0,0,0,-1,1140,953,0,0
-77,71,0,0,0,0,0,0,0,0,0,-1,1147,953,0,0
-70,71,0,0,0,0,0,0,0,0,0,-1,1154,953,0,0
-63,71,0,0,0,0,0,0,0,0,0,-1,1161,953,0,0
-56,71,0,0,0,0,0,0,0,0,0,-1,1168,953,0,0
-49,71,0,0,0,0,0,0,0,0,0,-1,1175,953,0,0
-42,71,0,0,0,0,0,0,0,0,0,-1,1182,953,0,0
-35,71,0,0,0,0,0,0,0,0,0,-1,1189,953,0,0
-28,71,0,0,0,0,0,0,0,0,0,-1,1196,953,0,0
-21,71,0,0,0,0,0,0,0,0,0,-1,1203,953,0,0
-14,71,0,0,0,0,0,0,0,0,0,-1,1210,953,0,0
-7,71,0,0,0,0,0,0,0,0,0,-1,1217,953,0,0
0,71,0,0,0,0,0,0,0,0,0,-1,1224,953,0,0
7,71,0,0,0,0,0,0,0,0,0,-1,1231,953,0,0
14,71,0,0,0,0,0,0,0,0,0,-1,1238,953,0,0
21,71,0,0,0,0,0,0,0,0,0,-1,1245,953,0,0
28,71,0,0,0,0,0,0,0,0,0,-1,1252,953,0,0
35,71,0,0,0,0,0,0,0,0,0,-1,1259,953,0,0
42,71,0,0,0,0,0,0,0,0,0,-1,1266,953,0,0
49,71,0,0,0,0,0,0,0,0,0,-1,1273,953,0,0
56,71,0,0,0,0,0,0,0,0,0,-1,1280,953,0,0
63,71,0,0,0,0,0,0,0,0,0,-1,1287,953,0,0
70,71,0,0,0,0,0,0,0,0,0,-1,1294,953,0,0
77,71,0,0,0,0,0,0,0,0,0,-1,1301,953,0,0
84,71,0,0,0,0,0,0,0,0,0,-1,1308,953,0,0
91,71,0,0,0,0,0,0,0,0,0,-1,1315,953,0,0
98,71,0,0,0,0,0,0,0,0,0,-1,1322,953,0,0
105,71,0,0,0,0,0,0,0,0,0,-1,1329,953,0,0
112,71,0,0,0,0,0,0,0,0,0,-1,1336,953,0,0
119,71,0,0,0,0,0,0,0,0,0,-1,1343,953,0,0
126,71,0,0,0,0,0,0,0,0,0,-1,1350,953,0,0
133,71,0,0,0,0,0,0,0,0,0,-1,1357,953,0,0
140,71,0,0,0,0,0,0,0,0,0,-1,1364,953,0,0
147,71,0,0,0,0,0,0,0,0,0,-1,1371,953,0,0
154,71,0,0,0,0,0,0,0,0,0,-1,1378,953,0,0
161,71,0,0,0,0,0,0,0,0,0,-1,1385,953,0,0
168,71,0,0,0,0,0,0,0,0,0,-1,1392,953,0,0
175,71,0,0,0,0,0,0,0,0,0,-1,1399,953,0,0
182,71,0,0,0,0,0,0,0,0,0,-1,1406,953,0,0
189,71,0,0,0,0,0,0,0,0,0,-1,1413,953,0,0
196,71,0,0,0,0,0,0,0,0,0,-1,1420,953,0,0
203,71,0,0,0,0,0,0,0,0,0,-1,1427,953,0,0
210,71,0,0,0,0,0,0,0,0,0,-1,1434,953,0,0
217,71,0,0,0,0,0,0,0,0,0,-1,1441,953,0,0
224,71,0,0,0,0,0,0,0,0,0,-1,1448,953,0,0
231,71,0,0,0,0,0,0,0,0,0,-1,1455,953,0,0
238,71,0,0,0,0,0,0,0,0,0,-1,1462,953,0,0
245,71,0,0,0,0,0,0,0,0,0,-1,1469,953,0,0
252,71,0,0,0,0,0,0,0,0,0,-1,1476,953,0,0
259,71,0,0,0,0,0,0,0,0,0,-1,1483,953,0,0
266,71,0,0,0,0,0,0,0,0,0,-1,1490,953,0,0
273,71,0,0,0,0,0,0,0,0,0,-1,1497,953,0,0
280,71,0,0,0,0,0,0,0,0,0,-1,1504,953,0,0
287,71,0,0,0,0,0,0,0,0,0,-1,1511,953,0,0
294,71,0,0,0,0,0,0,0,0,0,-1,1518,953,0,0
301,71,0,0,0,0,0,0,0,0,0,-1,1525,953,0,0
308,71,0,0,0,0,0,0,0,0,0,-1,1532,953,0,0
315,71,0,0,0,0,0,0,0,0,0,-1,1539,953,0,0
322,71,0,0,0,0,0,0,0,0,0,-1,1546,953,0,0
329,71,0,0,0,0,0,0,0,0,0,-1,1553,953,0,0
336,71,0,0,0,0,0,0,0,0,0,-1,1560,953,0,0
343,71,0,0,0,0,0,0,0,0,0,-1,1567,953,0,0
350,71,0,0,0,0,0,0,0,0,0,-1,1574,953,0,0
357,71,0,0,0,0,0,0,0,0,0,-1,1581,953,0,0
364,71,0,0,0,0,0,0,0,0,0,-1,1588,953,0,0
371,71,0,0,0,0,0,0,0,0,0,-1,1595,953,0,0
378,71,0,0,0,0,0,0,0,0,0,-1,1602,953,0,0
385,71,0,0,0,0,0,0,0,0,0,-1,1609,953,0,0
392,71,0,0,0,0,0,0,0,0,0,-1,1616,953,0,0
399,71,0,0,0,0,0,0,0,0,0,-1,1623,953,0,0
406,71,0,0,0,0,0,0,0,0,0,-1,1630,953,0,0
413,71,0,0,0,0,0,0,0,0,0,-1,1637,953,0,0
420,71,0,0,0,0,0,0,0,0,0,-1,1644,953,0,0
427,71,0,0,0,0,0,0,0,0,0,-1,1651,953,0,0
434,71,0,0,0,0,0,0,0,0,0,-1,1658,953,0,0
441,71,0,0,0,0,0,0,0,0,0,-1,1665,953,0,0
448,71,0,0,0,0,0,0,0,0,0,-1,1672,953,0,0
455,71,0,0,0,0,0,0,0,0,0,-1,1679,953,0,0
462,71,0,0,0,0,0,0,0,0,0,-1,1686,953,0,0
469,71,0,0,0,0,0,0,0,0,0,-1,1693,953,0,0
476,71,0,0,0,0,0,0,0,0,0,-1,1700,953,0,0
483,71,0,0,0,0,0,0,0,0,0,-1,1707,953,0,0
490,71,0,0,0,0,0,0,0,0,0,-1,1714,953,0,0
497,71,0,0,0,0,0,0,0,0,0,-1,1721,953,0,0
504,71,0,0,0,0,0,0,0,0,0,-1,1728,953,0,0
511,71,0,0,0,0,0,0,0,0,0,-1,1735,953,0,0
518,71,0,0,0,0,0,0,0,0,0,-1,1742,953,0,0
525,71,0,0,0,0,0,0,0,0,0,-1,1749,953,0,0
532,71,0,0,0,0,0,0,0,0,0,-1,1756,953,0,0
539,71,0,0,0,0,0,0,0,0,0,-1,1763,953,0,0
546,71,0,0,0,0,0,0,0,0,0,-1,1770,953,0,0
553,71,0,0,0,0,0,0,0,0,0,-1,1777,953,0,0
560,71,0,0,0,0,0,0,0,0,0,-1,1784,953,0,0
567,71,0,0,0,0,0,0,0,0,0,-1,1791,953,0,0
574,71,0,0,0,0,0,0,0,0,0,-1,1798,953,0,0
581,71,0,0,0,0,0,0,0,0,0,-1,1805,953,0,0
588,71,0,0,0,0,0,0,0,0,0,-1,1812,953,0,0
595,71,0,0,0,0,0,0,0,0,0,-1,1819,953,0,0
602,71,0,0,0,0,0,0,0,0,0,-1,1826,953,0,0
609,71,0,0,0,0,0,0,0,0,0,-1,1833,953,0,0
616,71,0,0,0,0,0,0,0,0,0,-1,1840,953,0,0
623,71,0,0,0,0,0,0,0,0,0,-1,1847,953,0,0
630,71,0,0,0,0,0,0,0,0,0,-1,1854,953,0,0
637,71,71.2124,2.0993,-0.00812666,0.00170288,-6.85316e-06,0.00170288,-0.00812666,-1.5701,0.00606561,0.0406874,1861,953,71.2124,-2.09929
644,71,71.0205,2.11414,-0.0058058,0.00162482,-0.000257835,0.00163376,-0.00581473,-1.53615,0.00452058,0.0427922,1868,953,71.0205,-2.11413
651,71,71.1013,2.07678,-0.00401835,0.00160728,-0.000266602,0.00161988,-0.00403096,-1.52355,0.00336005,0.041752,1875,953,71.1013,-2.07676
658,71,71.1735,2.07129,-0.00270442,0.00172979,-4.23479e-05,0.0017302,-0.00270482,-1.56125,0.00258109,0.0397645,1882,953,71.1735,-2.07131
665,71,71.1844,2.21326,-0.00173424,0.00203692,0.000387946,0.00207642,-0.00177373,1.46934,0.00222518,0.0398077,1889,953,71.1845,-2.21325
672,71,71.0894,2.43658,-0.00138682,0.00219506,0.000949572,0.00243123,-0.00162299,1.32704,0.00235616,0.0389719,1896,953,71.0894,-2.43657
679,71,71.0464,2.40302,-0.00142156,0.0019703,0.00149337,0.00253408,-0.00198535,1.20981,0.0026157,0.0396883,1903,953,71.0463,-2.40302
686,71,71.0383,2.21136,-0.00145339,0.00157343,0.0016547,0.00230244,-0.0021824,1.15581,0.00258963,0.0369634,1910,953,71.0383,-2.21138
693,71,71.1215,2.09418,-0.00158349,0.00117025,0.00161318,0.00191426,-0.0023275,1.13866,0.00245285,0.0327104,1917,953,71.1214,-2.09418
700,71,71.0554,2.09113,-0.00205128,0.00117075,0.00135265,0.00166331,-0.00254385,1.22158,0.00244667,0.0280052,1924,953,71.0554,-2.09112
707,71,71.0575,2.33508,0,0,0,0,0,0,0,-1,1931,953,71.0574,-2.33507
714,71,68.9609,4.33624,0,0,0,0,0,0,0,-1,1938,953,68.961,-4.33622
721,71,68.5918,4.96204,-0.00402525,0.00238417,8.43208e-05,0.00238528,-0.00402636,1.55764,0.00374196,0.0397245,1945,953,68.5917,-4.96201
728,71,68.3223,5.67059,-0.00461683,0.00336424,-0.000290213,0.00337478,-0.00462737,-1.5345,0.00463887,0.0355622,1952,953,68.3223,-5.6706
735,71,68.3386,6.21167,-0.00499714,0.00491273,-0.000771724,0.00497247,-0.00505688,-1.49354,0.00579052,0.0249623,1959,953,68.3386,-6.21169
742,71,68.3668,6.67834,-0.00552574,0.0069268,-0.00158502,0.00712539,-0.00572432,-1.44616,0.00743347,0.0240832,1966,953,68.3668,-6.67835
749,71,68.299,7.1391,-0.00574093,0.0101068,-0.00231904,0.0104392,-0.00607331,-1.42844,0.00964395,0.0214272,1973,953,68.2989,-7.13909
756,71,68.2151,7.57355,-0.00524045,0.0144206,-0.00269682,0.0147838,-0.00560365,-1.43692,0.012162,0.0192834,1980,953,68.2152,-7.57353
763,71,68.0957,8.04828,-0.00412717,0.0199079,-0.00257634,0.020181,-0.00440023,-1.4652,0.0151355,0.0209708,1987,953,68.0958,-8.04829
770,71,67.8499,8.46771,-0.00213067,0.0259118,-0.00205799,0.0260621,-0.0022809,-1.49793,0.0181827,0.0252097,1994,953,67.8499,-8.46771
777,71,67.7063,9.11023,0.000744021,0.032049,-0.00121995,0.0320965,0.000696553,-1.53191,0.0211693,0.0447775,2001,953,67.7062,-9.11026
784,71,67.6162,9.80328,0,0,0,0,0,0,0,-1,2008,953,67.6161,-9.8033
791,71,66.5613,9.12219,0,0,0,0,0,0,0,-1,2015,953,66.5614,-9.12219
798,71,65.5405,11.3743,0,0,0,0,0,0,0,-1,2022,953,65.5404,-11.3743
805,71,59.978,6.41992,0,0,0,0,0,0,0,-1,2029,953,59.9781,-6.41992
812,71,0,0,0,0,0,0,0,0,0,-1,2036,953,0,0
-700,64,0,0,0,0,0,0,0,0,0,-1,524,960,0,0
-693,64,0,0,0,0,0,0,0,0,0,-1,531,960,0,0
-686,64,-49.7844,6.21936,0,0,0,0,0,0,0,-1,538,960,-49.7844,-6.21935
-679,64,-50.3767,6.91211,0.00369663,0.0757662,0.00593767,0.0762521,0.00321071,1.48914,0.049799,0.0465528,545,960,-50.3767,-6.91213
-672,64,-50.8206,7.41595,0,0,0,0,0,0,0,-1,552,960,-50.8206,-7.41597
-665,64,-51.4531,7.59442,-0.00709726,0.0518375,0.00390458,0.0520951,-0.00735483,1.50493,0.0374233,0.0463348,559,960,-51.4531,-7.5944
-658,64,-52.0826,7.59198,-0.0101781,0.0430771,0.00398881,0.0433742,-0.0104752,1.49645,0.0329674,0.0463818,566,960,-52.0826,-7.59199
-651,64,-52.8721,7.53571,-0.0118604,0.0357887,0.00442727,0.0361966,-0.0122683,1.47893,0.0290958,0.0459286,573,960,-52.8721,-7.53573
-644,64,-53.7149,7.18774,-0.0123302,0.0294569,0.00491612,0.0300275,-0.0129008,1.45525,0.0254336,0.0377274,580,960,-53.7149,-7.18777
-637,64,-53.8204,6.65778,-0.011574,0.0239152,0.00497246,0.0245987,-0.0122576,1.43419,0.021673,0.0196437,587,960,-53.8204,-6.6578
-630,64,-53.913,6.22656,-0.0111235,0.0183595,0.00400592,0.0188941,-0.0116581,1.43813,0.0178035,0.015365,594,960,-53.9129,-6.22653
-623,64,-53.9755,5.79004,-0.00949145,0.0140084,0.00308614,0.0144069,-0.00988998,1.44237,0.0141084,0.0155108,601,960,-53.9754,-5.79006
-616,64,-54.0223,5.34424,-0.00710221,0.0103499,0.00108604,0.0104172,-0.00716954,1.50888,0.0102113,0.0189041,608,960,-54.0223,-5.34423
-609,64,-53.9891,4.93384,-0.00449948,0.00692417,-0.00208803,0.00729385,-0.00486917,-1.39556,0.00706868,0.0187005,615,960,-53.9891,-4.93384
-602,64,-53.9647,4.49341,-0.00194962,0.00379384,-0.00690307,0.00839869,-0.00655447,-0.982513,0.00865507,0.0188991,622,960,-53.9647,-4.49342
-595,64,-53.9737,4.11346,-0.000237199,0.00224047,-0.0130708,0.014131,-0.0121277,-0.832646,0.0151752,0.0278496,629,960,-53.9737,-4.11348
-588,64,-53.8229,3.68958,0.000170607,0.00290771,-0.0210002,0.0225839,-0.0195056,-0.817936,0.0243221,0.0424586,636,960,-53.8229,-3.68959
-581,64,-54.0263,3.08478,0,0,0,0,0,0,0,-1,643,960,-54.0263,-3.08477
-574,64,-54.7028,0.379822,0,0,0,0,0,0,0,-1,650,960,-54.7028,-0.379799
-567,64,-54.6644,0.436035,0,0,0,0,0,0,0,-1,657,960,-54.6644,-0.436065
-560,64,-54.7473,0.541748,0,0,0,0,0,0,0,-1,664,960,-54.7473,-0.541756
-553,64,-54.559,0.366089,0,0,0,0,0,0,0,-1,671,960,-54.5589,-0.366103
-546,64,-54.4802,0.291443,0,0,0,0,0,0,0,-1,678,960,-54.4802,-0.291471
-539,64,-54.6782,0.50531,0,0,0,0,0,0,0,-1,685,960,-54.6782,-0.505297
-532,64,-54.8241,0.573914,0,0,0,0,0,0,0,-1,692,960,-54.8241,-0.573895
-525,64,-54.8818,0.454834,0,0,0,0,0,0,0,-1,699,960,-54.8818,-0.454818
-518,64,0,0,0,0,0,0,0,0,0,-1,706,960,0,0
-511,64,0,0,0,0,0,0,0,0,0,-1,713,960,0,0
-504,64,0,0,0,0,0,0,0,0,0,-1,720,960,0,0
-497,64,0,0,0,0,0,0,0,0,0,-1,727,960,0,0
-490,64,0,0,0,0,0,0,0,0,0,-1,734,960,0,0
-483,64,0,0,0,0,0,0,0,0,0,-1,741,960,0,0
-476,64,0,0,0,0,0,0,0,0,0,-1,748,960,0,0
-469,64,0,0,0,0,0,0,0,0,0,-1,755,960,0,0
-462,64,0,0,0,0,0,0,0,0,0,-1,762,960,0,0
-455,64,0,0,0,0,0,0,0,0,0,-1,769,960,0,0
-448,64,0,0,0,0,0,0,0,0,0,-1,776,960,0,0
-441,64,0,0,0,0,0,0,0,0,0,-1,783,960,0,0
-434,64,0,0,0,0,0,0,0,0,0,-1,790,960,0,0
-427,64,0,0,0,0,0,0,0,0,0,-1,797,960,0,0
-420,64,0,0,0,0,0,0,0,0,0,-1,804,960,0,0
-413,64,0,0,0,0,0,0,0,0,0,-1,811,960,0,0
-406,64,0,0,0,0,0,0,0,0,0,-1,818,960,0,0
-399,64,0,0,0,0,0,0,0,0,0,-1,825,960,0,0
-392,64,0,0,0,0,0,0,0,0,0,-1,832,960,0,0
-385,64,0,0,0,0,0,0,0,0,0,-1,839,960,0,0
-378,64,0,0,0,0,0,0,0,0,0,-1,846,960,0,0
-371,64,0,0,0,0,0,0,0,0,0,-1,853,960,0,0
-364,64,0,0,0,0,0,0,0,0,0,-1,860,960,0,0
-357,64,0,0,0,0,0,0,0,0,0,-1,867,960,0,0
-350,64,0,0,0,0,0,0,0,0,0,-1,874,960,0,0
-343,64,0,0,0,0,0,0,0,0,0,-1,881,960,0,0
-336,64,0,0,0,0,0,0,0,0,0,-1,888,960,0,0
-329,64,0,0,0,0,0,0,0,0,0,-1,895,960,0,0
-322,64,0,0,0,0,0,0,0,0,0,-1,902,960,0,0
-315,64,0,0,0,0,0,0,0,0,0,-1,909,960,0,0
-308,64,0,0,0,0,0,0,0,0,0,-1,916,960,0,0
-301,64,0,0,0,0,0,0,0,0,0,-1,923,960,0,0
-294,64,0,0,0,0,0,0,0,0,0,-1,930,960,0,0
-287,64,0,0,0,0,0,0,0,0,0,-1,937,960,0,0
-280,64,0,0,0,0,0,0,0,0,0,-1,944,960,0,0
-273,64,0,0,0,0,0,0,0,0,0,-1,951,960,0,0
-266,64,0,0,0,0,0,0,0,0,0,-1,958,960,0,0
-259,64,0,0,0,0,0,0,0,0,0,-1,965,960,0,0
-252,64,0,0,0,0,0,0,0,0,0,-1,972,960,0,0
-245,64,0,0,0,0,0,0,0,0,0,-1,979,960,0,0
-238,64,0,0,0,0,0,0,0,0,0,-1,986,960,0,0
-231,64,0,0,0,0,0,0,0,0,0,-1,993,960,0,0
-224,64,0,0,0,0,0,0,0,0,0,-1,1000,960,0,0
-217,64,0,0,0,0,0,0,0,0,0,-1,1007,960,0,0
-210,64,0,0,0,0,0,0,0,0,0,-1,1014,960,0,0
-203,64,0,0,0,0,0,0,0,0,0,-1,1021,960,0,0
-196,64,0,0,0,0,0,0,0,0,0,-1,1028,960,0,0
-189,64,0,0,0,0,0,0,0,0,0,-1,1035,960,0,0
-182,64,0,0,0,0,0,0,0,0,0,-1,1042,960,0,0
-175,64,0,0,0,0,0,0,0,0,0,-1,1049,960,0,0
-168,64,0,0,0,0,0,0,0,0,0,-1,1056,960,0,0
-161,64,0,0,0,0,0,0,0,0,0,-1,1063,960,0,0
-154,64,0,0,0,0,0,0,0,0,0,-1,1070,960,0,0
-147,64,0,0,0,0,0,0,0,0,0,-1,1077,960,0,0
-140,64,0,0,0,0,0,0,0,0,0,-1,1084,960,0,0
-133,64,0,0,0,0,0,0,0,0,0,-1,1091,960,0,0
-126,64,0,0,0,0,0,0,0,0,0,-1,1098,960,0,0
-119,64,0,0,0,0,0,0,0,0,0,-1,1105,960,0,0
-112,64,0,0,0,0,0,0,0,0,0,-1,1112,960,0,0
-105,64,0,0,0,0,0,0,0,0,0,-1,1119,960,0,0
-98,64,0,0,0,0,0,0,0,0,0,-1,1126,960,0,0
-91,64,0,0,0,0,0,0,0,0,0,-1,1133,960,0,0
-84,64,0,0,0,0,0,0,0,0,0,-1,1140,960,0,0
-77,64,0,0,0,0,0,0,0,0,0,-1,1147,960,0,0
-70,64,0,0,0,0,0,0,0,0,0,-1,1154,960,0,0
-63,64,0,0,0,0,0,0,0,0,0,-1,1161,960,0,0
-56,64,0,0,0,0,0,0,0,0,0,-1,1168,960,0,0
-49,64,0,0,0,0,0,0,0,0,0,-1,1175,960,0,0
-42,64,0,0,0,0,0,0,0,0,0,-1,1182,960,0,0
-35,64,0,0,0,0,0,0,0,0,0,-1,1189,960,0,0
-28,64,0,0,0,0,0,0,0,0,0,-1,1196,960,0,0
-21,64,0,0,0,0,0,0,0,0,0,-1,1203,960,0,0
-14,64,0,0,0,0,0,0,0,0,0,-1,1210,960,0,0
-7,64,0,0,0,0,0,0,0,0,0,-1,1217,960,0,0
0,64,0,0,0,0,0,0,0,0,0,-1,1224,960,0,0
7,64,0,0,0,0,0,0,0,0,0,-1,1231,960,0,0
14,64,0,0,0,0,0,0,0,0,0,-1,1238,960,0,0
21,64,0,0,0,0,0,0,0,0,0,-1,1245,960,0,0
28,64,0,0,0,0,0,0,0,0,0,-1,1252,960,0,0
35,64,0,0,0,0,0,0,0,0,0,-1,1259,960,0,0
42,64,0,0,0,0,0,0,0,0,0,-1,1266,960,0,0
49,64,0,0,0,0,0,0,0,0,0,-1,1273,960,0,0
56,64,0,0,0,0,0,0,0,0,0,-1,1280,960,0,0
63,64,0,0,0,0,0,0,0,0,0,-1,1287,960,0,0
70,64,0,0,0,0,0,0,0,0,0,-1,1294,960,0,0
77,64,0,0,0,0,0,0,0,0,0,-1,1301,960,0,0
84,64,0,0,0,0,0,0,0,0,0,-1,1308,960,0,0
91,64,0,0,0,0,0,0,0,0,0,-1,1315,960,0,0
98,64,0,0,0,0,0,0,0,0,0,-1,1322,960,0,0
105,64,0,0,0,0,0,0,0,0,0,-1,1329,960,0,0
112,64,0,0,0,0,0,0,0,0,0,-1,1336,960,0,0
119,64,0,0,0,0,0,0,0,0,0,-1,1343,960,0,0
126,64,0,0,0,0,0,0,0,0,0,-1,1350,960,0,0
133,64,0,0,0,0,0,0,0,0,0,-1,1357,960,0,0
140,64,0,0,0,0,0,0,0,0,0,-1,1364,960,0,0
147,64,0,0,0,0,0,0,0,0,0,-1,1371,960,0,0
154,64,0,0,0,0,0,0,0,0,0,-1,1378,960,0,0
161,64,0,0,0,0,0,0,0,0,0,-1,1385,960,0,0
168,64,0,0,0,0,0,0,0,0,0,-1,1392,960,0,0
175,64,0,0,0,0,0,0,0,0,0,-1,1399,960,0,0
182,64,0,0,0,0,0,0,0,0,0,-1,1406,960,0,0
189,64,0,0,0,0,0,0,0,0,0,-1,1413,960,0,0
196,64,0,0,0,0,0,0,0,0,0,-1,1420,960,0,0
203,64,0,0,0,0,0,0,0,0,0,-1,1427,960,0,0
210,64,0,0,0,0,0,0,0,0,0,-1,1434,960,0,0
217,64,0,0,0,0,0,0,0,0,0,-1,1441,960,0,0
224,64,0,0,0,0,0,0,0,0,0,-1,1448,960,0,0
231,64,0,0,0,0,0,0,0,0,0,-1,1455,960,0,0
238,64,0,0,0,0,0,0,0,0,0,-1,1462,960,0,0
245,64,0,0,0,0,0,0,0,0,0,-1,1469,960,0,0
252,64,0,0,0,0,0,0,0,0,0,-1,1476,960,0,0
259,64,0,0,0,0,0,0,0,0,0,-1,1483,960,0,0
266,64,0,0,0,0,0,0,0,0,0,-1,1490,960,0,0
273,64,0,0,0,0,0,0,0,0,0,-1,1497,960,0,0
280,64,0,0,0,0,0,0,0,0,0,-1,1504,960,0,0
287,64,0,0,0,0,0,0,0,0,0,-1,1511,960,0,0
294,64,0,0,0,0,0,0,0,0,0,-1,1518,960,0,0
301,64,0,0,0,0,0,0,0,0,0,-1,1525,960,0,0
308,64,0,0,0,0,0,0,0,0,0,-1,1532,960,0,0
315,64,0,0,0,0,0,0,0,0,0,-1,1539,960,0,0
322,64,0,0,0,0,0,0,0,0,0,-1,1546,960,0,0
329,64,0,0,0,0,0,0,0,0,0,-1,1553,960,0,0
336,64,0,0,0,0,0,0,0,0,0,-1,1560,960,0,0
343,64,0,0,0,0,0,0,0,0,0,-1,1567,960,0,0
350,64,0,0,0,0,0,0,0,0,0,-1,1574,960,0,0
357,64,0,0,0,0,0,0,0,0,0,-1,1581,960,0,0
364,64,0,0,0,0,0,0,0,0,0,-1,1588,960,0,0
371,64,0,0,0,0,0,0,0,0,0,-1,1595,960,0,0
378,64,0,0,0,0,0,0,0,0,0,-1,1602,960,0,0
385,64,0,0,0,0,0,0,0,0,0,-1,1609,960,0,0
392,64,0,0,0,0,0,0,0,0,0,-1,1616,960,0,0
399,64,0,0,0,0,0,0,0,0,0,-1,1623,960,0,0
406,64,0,0,0,0,0,0,0,0,0,-1,1630,960,0,0
413,64,0,0,0,0,0,0,0,0,0,-1,1637,960,0,0
420,64,0,0,0,0,0,0,0,0,0,-1,1644,960,0,0
427,64,0,0,0,0,0,0,0,0,0,-1,1651,960,0,0
434,64,0,0,0,0,0,0,0,0,0,-1,1658,960,0,0
441,64,0,0,0,0,0,0,0,0,0,-1,1665,960,0,0
448,64,0,0,0,0,0,0,0,0,0,-1,1672,960,0,0
455,64,0,0,0,0,0,0,0,0,0,-1,1679,960,0,0
462,64,0,0,0,0,0,0,0,0,0,-1,1686,960,0,0
469,64,0,0,0,0,0,0,0,0,0,-1,1693,960,0,0
476,64,0,0,0,0,0,0,0,0,0,-1,1700,960,0,0
483,64,0,0,0,0,0,0,0,0,0,-1,1707,960,0,0
490,64,0,0,0,0,0,0,0,0,0,-1,1714,960,0,0
497,64,0,0,0,0,0,0,0,0,0,-1,1721,960,0,0
504,64,0,0,0,0,0,0,0,0,0,-1,1728,960,0,0
511,64,0,0,0,0,0,0,0,0,0,-1,1735,960,0,0
518,64,0,0,0,0,0,0,0,0,0,-1,1742,960,0,0
525,64,0,0,0,0,0,0,0,0,0,-1,1749,960,0,0
532,64,0,0,0,0,0,0,0,0,0,-1,1756,960,0,0
539,64,0,0,0,0,0,0,0,0,0,-1,1763,960,0,0
546,64,0,0,0,0,0,0,0,0,0,-1,1770,960,0,0
553,64,0,0,0,0,0,0,0,0,0,-1,1777,960,0,0
560,64,0,0,0,0,0,0,0,0,0,-1,1784,960,0,0
567,64,0,0,0,0,0,0,0,0,0,-1,1791,960,0,0
574,64,0,0,0,0,0,0,0,0,0,-1,1798,960,0,0
581,64,0,0,0,0,0,0,0,0,0,-1,1805,960,0,0
588,64,0,0,0,0,0,0,0,0,0,-1,1812,960,0,0
595,64,0,0,0,0,0,0,0,0,0,-1,1819,960,0,0
602,64,0,0,0,0,0,0,0,0,0,-1,1826,960,0,0
609,64,0,0,0,0,0,0,0,0,0,-1,1833,960,0,0
616,64,0,0,0,0,0,0,0,0,0,-1,1840,960,0,0
623,64,0,0,0,0,0,0,0,0,0,-1,1847,960,0,0
630,64,0,0,0,0,0,0,0,0,0,-1,1854,960,0,0
637,64,0,0,0,0,0,0,0,0,0,-1,1861,960,0,0
644,64,71.0577,2.13361,-0.00505624,0.00167963,-0.000831453,0.00178075,-0.00515736,-1.44978,0.00416084,0.0409627,1868,960,71.0578,-2.13358
651,64,71.248,2.03729,-0.00346046,0.00174575,-0.000792601,0.00186375,-0.00357845,-1.42301,0.00319362,0.0397657,1875,960,71.248,-2.03731
658,64,71.1171,2.10071,-0.00232234,0.00186061,-0.00048443,0.00191598,-0.0023777,-1.45699,0.00248373,0.0403,1882,960,71.1171,-2.10071
665,64,71.079,2.15906,-0.00150395,0.00217429,5.27476e-05,0.00217504,-0.00150471,1.55646,0.00213623,0.0414728,1889,960,71.079,-2.15903
672,64,71.153,2.21564,-0.00117917,0.00235227,0.000732835,0.00249831,-0.00132521,1.3741,0.00224187,0.0412399,1896,960,71.1529,-2.21562
679,64,71.0427,1.92999,-0.0011747,0.00214486,0.00140124,0.00265726,-0.00168709,1.22023,0.00252897,0.0404546,1903,960,71.0427,-1.93002
686,64,70.938,1.9527,-0.00115658,0.00171599,0.00168709,0.00249538,-0.00193597,1.13803,0.00256522,0.0366008,1910,960,70.938,-1.95267
693,64,71.0284,1.98883,-0.00125855,0.00125074,0.00172522,0.00212929,-0.0021371,1.09978,0.0024632,0.0333351,1917,960,71.0285,-1.9888
700,64,71.0896,2.07837,-0.00170238,0.00116385,0.00151351,0.00181509,-0.00235362,1.16446,0.00241349,0.0293335,1924,960,71.0896,-2.07837
707,64,70.9371,2.62073,-0.00225492,0.00137391,0.00110147,0.00168207,-0.00256309,1.298,0.00246847,0.0456869,1931,960,70.9372,-2.6207
714,64,70.712,3.50482,0,0,0,0,0,0,0,-1,1938,960,70.7121,-3.50483
721,64,69.0271,5.091,0,0,0,0,0,0,0,-1,1945,960,69.0271,-5.091
728,64,68.7965,5.70251,-0.0044257,0.00350998,-0.000124399,0.00351193,-0.00442765,-1.55513,0.00459408,0.0246973,1952,960,68.7965,-5.70252
735,64,68.7522,6.28461,-0.00491568,0.00513997,-0.000628339,0.00517908,-0.00495479,-1.50863,0.00585127,0.0334441,1959,960,68.7522,-6.28458
742,64,68.8999,6.65399,-0.00567775,0.00720656,-0.00144059,0.00736567,-0.00583685,-1.4608,0.0076395,0.0290029,1966,960,68.8999,-6.65402
749,64,68.8309,7.0968,-0.0061911,0.0103765,-0.00219722,0.0106629,-0.00647755,-1.44116,0.00999391,0.01756,1973,960,68.8309,-7.09682
756,64,68.7578,7.52338,-0.00607855,0.0146344,-0.00265672,0.0149698,-0.00641388,-1.44524,0.012671,0.0174546,1980,960,68.7577,-7.52337
763,64,68.7063,7.97418,-0.00544663,0.0201178,-0.0026738,0.0203945,-0.00572329,-1.46769,0.0158523,0.0191312,1987,960,68.7063,-7.97419
770,64,68.4146,8.34906,-0.00383943,0.0262823,-0.00228079,0.026454,-0.00401115,-1.49565,0.0191138,0.0189212,1994,960,68.4146,-8.34908
777,64,68.1814,8.85437,-0.00127306,0.0325264,-0.00161306,0.0326032,-0.00134986,-1.52322,0.0221991,0.0357233,2001,960,68.1814,-8.85439
784,64,68.4954,9.3194,0.00314668,0.0387954,-0.000560305,0.0388042,0.00313788,-1.55508,0.0248895,0.0450823,2008,960,68.4954,-9.31938
791,64,68.3757,9.43298,0,0,0,0,0,0,0,-1,2015,960,68.3757,-9.43299
798,64,68.3506,9.73883,0,0,0,0,0,0,0,-1,2022,960,68.3505,-9.73882
805,64,68.4978,9.61475,0,0,0,0,0,0,0,-1,2029,960,68.4979,-9.61473
812,64,0,0,0,0,0,0,0,0,0,-1,2036,960,0,0
-700,57,0,0,0,0,0,0,0,0,0,-1,524,967,0,0
-693,57,0,0,0,0,0,0,0,0,0,-1,531,967,0,0
-686,57,-48.4231,10.3683,0,0,0,0,0,0,0,-1,538,967,-48.4231,-10.3683
-679,57,-49.7681,6.3515,0,0,0,0,0,0,0,-1,545,967,-49.7681,-6.35149
-672,57,-50.4168,6.82922,0,0,0,0,0,0,0,-1,552,967,-50.4168,-6.8292
-665,57,-51.0229,7.16791,0,0,0,0,0,0,0,-1,559,967,-51.0229,-7.16789
-658,57,-54.6593,6.3222,0,0,0,0,0,0,0,-1,566,967,-54.6593,-6.32222
-651,57,-54.6352,6.48407,-0.0147092,0.0388118,0.00781314,0.0399291,-0.0158264,1.42876,0.0331779,0.0482656,573,967,-54.6352,-6.48405
-644,57,-54.4496,6.63507,-0.0150288,0.0318545,0.00746513,0.0330145,-0.0161887,1.41665,0.0289558,0.038001,580,967,-54.4496,-6.63506
-637,57,-54.325,6.42145,-0.0137834,0.025682,0.00679069,0.0268177,-0.0149192,1.40508,0.024421,0.0223088,587,967,-54.325,-6.42145
-630,57,-54.4344,6.07477,-0.0127713,0.0196715,0.00514774,0.0204687,-0.0135685,1.41715,0.0197855,0.0151521,594,967,-54.4344,-6.07479
-623,57,-54.4902,5.72211,-0.0106936,0.0149282,0.00347676,0.0153916,-0.011157,1.43829,0.0153927,0.0139426,601,967,-54.4902,-5.7221
-616,57,-54.4915,5.36365,-0.00777019,0.0108781,0.00066922,0.010902,-0.00779417,1.53497,0.0108439,0.0161155,608,967,-54.4915,-5.36364
-609,57,-54.4819,4.98248,-0.00463845,0.0073391,-0.0033029,0.00818952,-0.00548887,-1.31879,0.00794836,0.0166521,615,967,-54.482,-4.98251
-602,57,-54.4617,4.54254,-0.00171582,0.00437579,-0.0089485,0.0107826,-0.00812267,-0.949433,0.0109509,0.0120251,622,967,-54.4617,-4.54256
-595,57,-54.4526,4.1366,0.000293769,0.0033025,-0.0160613,0.0179298,-0.0143335,-0.832094,0.0186657,0.0190667,629,967,-54.4526,-4.13659
-588,57,-54.2565,3.88098,0.0010983,0.00488869,-0.0253415,0.0284058,-0.0224188,-0.822722,0.0294114,0.0324637,636,967,-54.2565,-3.88099
-581,57,-54.5182,2.22357,0.000955751,0.0102981,-0.0382937,0.0442045,-0.0329507,-0.84609,0.0447032,0.0499336,643,967,-54.5182,-2.22355
-574,57,-55.0563,0.441711,0,0,0,0,0,0,0,-1,650,967,-55.0563,-0.441711
-567,57,-54.6625,0.341858,0,0,0,0,0,0,0,-1,657,967,-54.6625,-0.341876
-560,57,-54.6625,0.293457,0,0,0,0,0,0,0,-1,664,967,-54.6625,-0.293442
-553,57,-54.4733,0.333801,0,0,0,0,0,0,0,-1,671,967,-54.4733,-0.333807
-546,57,-54.4003,0.400452,0,0,0,0,0,0,0,-1,678,967,-54.4003,-0.400439
-539,57,-54.4926,0.622253,0,0,0,0,0,0,0,-1,685,967,-54.4926,-0.622245
-532,57,-54.65,0.54364,0,0,0,0,0,0,0,-1,692,967,-54.65,-0.543621
-525,57,-54.7159,0.484497,0,0,0,0,0,0,0,-1,699,967,-54.7159,-0.484497
-518,57,0,0,0,0,0,0,0,0,0,-1,706,967,0,0
-511,57,0,0,0,0,0,0,0,0,0,-1,713,967,0,0
-504,57,0,0,0,0,0,0,0,0,0,-1,720,967,0,0
-497,57,0,0,0,0,0,0,0,0,0,-1,727,967,0,0
-490,57,0,0,0,0,0,0,0,0,0,-1,734,967,0,0
-483,57,0,0,0,0,0,0,0,0,0,-1,741,967,0,0
-476,57,0,0,0,0,0,0,0,0,0,-1,748,967,0,0
-469,57,0,0,0,0,0,0,0,0,0,-1,755,967,0,0
-462,57,0,0,0,0,0,0,0,0,0,-1,762,967,0,0
-455,57,0,0,0,0,0,0,0,0,0,-1,769,967,0,0
-448,57,0,0,0,0,0,0,0,0,0,-1,776,967,0,0
-441,57,0,0,0,0,0,0,0,0,0,-1,783,967,0,0
-434,57,0,0,0,0,0,0,0,0,0,-1,790,967,0,0
-427,57,0,0,0,0,0,0,0,0,0,-1,797,967,0,0
-420,57,0,0,0,0,0,0,0,0,0,-1,804,967,0,0
-413,57,0,0,0,0,0,0,0,0,0,-1,811,967,0,0
-406,57,0,0,0,0,0,0,0,0,0,-1,818,967,0,0
-399,57,0,0,0,0,0,0,0,0,0,-1,825,967,0,0
-392,57,0,0,0,0,0,0,0,0,0,-1,832,967,0,0
-385,57,0,0,0,0,0,0,0,0,0,-1,839,967,0,0
-378,57,0,0,0,0,0,0,0,0,0,-1,846,967,0,0
-371,57,0,0,0,0,0,0,0,0,0,-1,853,967,0,0
-364,57,0,0,0,0,0,0,0,0,0,-1,860,967,0,0
-357,57,0,0,0,0,0,0,0,0,0,-1,867,967,0,0
-350,57,0,0,0,0,0,0,0,0,0,-1,874,967,0,0
-343,57,0,0,0,0,0,0,0,0,0,-1,881,967,0,0
-336,57,0,0,0,0,0,0,0,0,0,-1,888,967,0,0
-329,57,0,0,0,0,0,0,0,0,0,-1,895,967,0,0
-322,57,0,0,0,0,0,0,0,0,0,-1,902,967,0,0
-315,57,0,0,0,0,0,0,0,0,0,-1,909,967,0,0
-308,57,0,0,0,0,0,0,0,0,0,-1,916,967,0,0
-301,57,0,0,0,0,0,0,0,0,0,-1,923,967,0,0
-294,57,0,0,0,0,0,0,0,0,0,-1,930,967,0,0
-287,57,0,0,0,0,0,0,0,0,0,-1,937,967,0,0
-280,57,0,0,0,0,0,0,0,0,0,-1,944,967,0,0
-273,57,0,0,0,0,0,0,0,0,0,-1,951,967,0,0
-266,57,0,0,0,0,0,0,0,0,0,-1,958,967,0,0
-259,57,0,0,0,0,0,0,0,0,0,-1,965,967,0,0
-252,57,0,0,0,0,0,0,0,0,0,-1,972,967,0,0
-245,57,0,0,0,0,0,0,0,0,0,-1,979,967,0,0
-238,57,0,0,0,0,0,0,0,0,0,-1,986,967,0,0
-231,57,0,0,0,0,0,0,0,0,0,-1,993,967,0,0
-224,57,0,0,0,0,0,0,0,0,0,-1,1000,967,0,0
-217,57,0,0,0,0,0,0,0,0,0,-1,1007,967,0,0
-210,57,0,0,0,0,0,0,0,0,0,-1,1014,967,0,0
-203,57,0,0,0,0,0,0,0,0,0,-1,1021,967,0,0
-196,57,0,0,0,0,0,0,0,0,0,-1,1028,967,0,0
-189,57,0,0,0,0,0,0,0,0,0,-1,1035,967,0,0
-182,57,0,0,0,0,0,0,0,0,0,-1,1042,967,0,0
-175,57,0,0,0,0,0,0,0,0,0,-1,1049,967,0,0
-168,57,0,0,0,0,0,0,0,0,0,-1,1056,967,0,0
-161,57,0,0,0,0,0,0,0,0,0,-1,1063,967,0,0
-154,57,0,0,0,0,0,0,0,0,0,-1,1070,967,0,0
-147,57,0,0,0,0,0,0,0,0,0,-1,1077,967,0,0
-140,57,0,0,0,0,0,0,0,0,0,-1,1084,967,0,0
-133,57,0,0,0,0,0,0,0,0,0,-1,1091,967,0,0
-126,57,0,0,0,0,0,0,0,0,0,-1,1098,967,0,0
-119,57,0,0,0,0,0,0,0,0,0,-1,1105,967,0,0
-112,57,0,0,0,0,0,0,0,0,0,-1,1112,967,0,0
-105,57,0,0,0,0,0,0,0,0,0,-1,1119,967,0,0
-98,57,0,0,0,0,0,0,0,0,0,-1,1126,967,0,0
-91,57,0,0,0,0,0,0,0,0,0,-1,1133,967,0,0
-84,57,0,0,0,0,0,0,0,0,0,-1,1140,967,0,0
-77,57,0,0,0,0,0,0,0,0,0,-1,1147,967,0,0
-70,57,0,0,0,0,0,0,0,0,0,-1,1154,967,0,0
-63,57,0,0,0,0,0,0,0,0,0,-1,1161,967,0,0
-56,57,0,0,0,0,0,0,0,0,0,-1,1168,967,0,0
-49,57,0,0,0,0,0,0,0,0,0,-1,1175,967,0,0
-42,57,0,0,0,0,0,0,0,0,0,-1,1182,967,0,0
-35,57,0,0,0,0,0,0,0,0,0,-1,1189,967,0,0
-28,57,0,0,0,0,0,0,0,0,0,-1,1196,967,0,0
-21,57,0,0,0,0,0,0,0,0,0,-1,1203,967,0,0
-14,57,0,0,0,0,0,0,0,0,0,-1,1210,967,0,0
-7,57,0,0,0,0,0,0,0,0,0,-1,1217,967,0,0
0,57,0,0,0,0,0,0,0,0,0,-1,1224,967,0,0
7,57,0,0,0,0,0,0,0,0,0,-1,1231,967,0,0
14,57,0,0,0,0,0,0,0,0,0,-1,1238,967,0,0
21,57,0,0,0,0,0,0,0,0,0,-1,1245,967,0,0
28,57,0,0,0,0,0,0,0,0,0,-1,1252,967,0,0
35,57,0,0,0,0,0,0,0,0,0,-1,1259,967,0,0
42,57,0,0,0,0,0,0,0,0,0,-1,1266,967,0,0
49,57,0,0,0,0,0,0,0,0,0,-1,1273,967,0,0
56,57,0,0,0,0,0,0,0,0,0,-1,1280,967,0,0
63,57,0,0,0,0,0,0,0,0,0,-1,1287,967,0,0
70,57,0,0,0,0,0,0,0,0,0,-1,1294,967,0,0
77,57,0,0,0,0,0,0,0,0,0,-1,1301,967,0,0
84,57,0,0,0,0,0,0,0,0,0,-1,1308,967,0,0
91,57,0,0,0,0,0,0,0,0,0,-1,1315,967,0,0
98,57,0,0,0,0,0,0,0,0,0,-1,1322,967,0,0
105,57,0,0,0,0,0,0,0,0,0,-1,1329,967,0,0
112,57,0,0,0,0,0,0,0,0,0,-1,1336,967,0,0
119,57,0,0,0,0,0,0,0,0,0,-1,1343,967,0,0
126,57,0,0,0,0,0,0,0,0,0,-1,1350,967,0,0
133,57,0,0,0,0,0,0,0,0,0,-1,1357,967,0,0
140,57,0,0,0,0,0,0,0,0,0,-1,1364,967,0,0
147,57,0,0,0,0,0,0,0,0,0,-1,1371,967,0,0
154,57,0,0,0,0,0,0,0,0,0,-1,1378,967,0,0
161,57,0,0,0,0,0,0,0,0,0,-1,1385,967,0,0
168,57,0,0,0,0,0,0,0,0,0,-1,1392,967,0,0
175,57,0,0,0,0,0,0,0,0,0,-1,1399,967,0,0
182,57,0,0,0,0,0,0,0,0,0,-1,1406,967,0,0
189,57,0,0,0,0,0,0,0,0,0,-1,1413,967,0,0
196,57,0,0,0,0,0,0,0,0,0,-1,1420,967,0,0
203,57,0,0,0,0,0,0,0,0,0,-1,1427,967,0,0
210,57,0,0,0,0,0,0,0,0,0,-1,1434,967,0,0
217,57,0,0,0,0,0,0,0,0,0,-1,1441,967,0,0
224,57,0,0,0,0,0,0,0,0,0,-1,1448,967,0,0
231,57,0,0,0,0,0,0,0,0,0,-1,1455,967,0,0
238,57,0,0,0,0,0,0,0,0,0,-1,1462,967,0,0
245,57,0,0,0,0,0,0,0,0,0,-1,1469,967,0,0
252,57,0,0,0,0,0,0,0,0,0,-1,1476,967,0,0
259,57,0,0,0,0,0,0,0,0,0,-1,1483,967,0,0
266,57,0,0,0,0,0,0,0,0,0,-1,1490,967,0,0
273,57,0,0,0,0,0,0,0,0,0,-1,1497,967,0,0
280,57,0,0,0,0,0,0,0,0,0,-1,1504,967,0,0
287,57,0,0,0,0,0,0,0,0,0,-1,1511,967,0,0
294,57,0,0,0,0,0,0,0,0,0,-1,1518,967,0,0
301,57,0,0,0,0,0,0,0,0,0,-1,1525,967,0,0
308,57,0,0,0,0,0,0,0,0,0,-1,1532,967,0,0
315,57,0,0,0,0,0,0,0,0,0,-1,1539,967,0,0
322,57,0,0,0,0,0,0,0,0,0,-1,1546,967,0,0
329,57,0,0,0,0,0,0,0,0,0,-1,1553,967,0,0
336,57,0,0,0,0,0,0,0,0,0,-1,1560,967,0,0
343,57,0,0,0,0,0,0,0,0,0,-1,1567,967,0,0
350,57,0,0,0,0,0,0,0,0,0,-1,1574,967,0,0
357,57,0,0,0,0,0,0,0,0,0,-1,1581,967,0,0
364,57,0,0,0,0,0,0,0,0,0,-1,1588,967,0,0
371,57,0,0,0,0,0,0,0,0,0,-1,1595,967,0,0
378,57,0,0,0,0,0,0,0,0,0,-1,1602,967,0,0
385,57,0,0,0,0,0,0,0,0,0,-1,1609,967,0,0
392,57,0,0,0,0,0,0,0,0,0,-1,1616,967,0,0
399,57,0,0,0,0,0,0,0,0,0,-1,1623,967,0,0
406,57,0,0,0,0,0,0,0,0,0,-1,1630,967,0,0
413,57,0,0,0,0,0,0,0,0,0,-1,1637,967,0,0
420,57,0,0,0,0,0,0,0,0,0,-1,1644,967,0,0
427,57,0,0,0,0,0,0,0,0,0,-1,1651,967,0,0
434,57,0,0,0,0,0,0,0,0,0,-1,1658,967,0,0
441,57,0,0,0,0,0,0,0,0,0,-1,1665,967,0,0
448,57,0,0,0,0,0,0,0,0,0,-1,1672,967,0,0
455,57,0,0,0,0,0,0,0,0,0,-1,1679,967,0,0
462,57,0,0,0,0,0,0,0,0,0,-1,1686,967,0,0
469,57,0,0,0,0,0,0,0,0,0,-1,1693,967,0,0
476,57,0,0,0,0,0,0,0,0,0,-1,1700,967,0,0
483,57,0,0,0,0,0,0,0,0,0,-1,1707,967,0,0
490,57,0,0,0,0,0,0,0,0,0,-1,1714,967,0,0
497,57,0,0,0,0,0,0,0,0,0,-1,1721,967,0,0
504,57,0,0,0,0,0,0,0,0,0,-1,1728,967,0,0
511,57,0,0,0,0,0,0,0,0,0,-1,1735,967,0,0
518,57,0,0,0,0,0,0,0,0,0,-1,1742,967,0,0
525,57,0,0,0,0,0,0,0,0,0,-1,1749,967,0,0
532,57,0,0,0,0,0,0,0,0,0,-1,1756,967,0,0
539,57,0,0,0,0,0,0,0,0,0,-1,1763,967,0,0
546,57,0,0,0,0,0,0,0,0,0,-1,1770,967,0,0
553,57,0,0,0,0,0,0,0,0,0,-1,1777,967,0,0
560,57,0,0,0,0,0,0,0,0,0,-1,1784,967,0,0
567,57,0,0,0,0,0,0,0,0,0,-1,1791,967,0,0
574,57,0,0,0,0,0,0,0,0,0,-1,1798,967,0,0
581,57,0,0,0,0,0,0,0,0,0,-1,1805,967,0,0
588,57,0,0,0,0,0,0,0,0,0,-1,1812,967,0,0
595,57,0,0,0,0,0,0,0,0,0,-1,1819,967,0,0
602,57,0,0,0,0,0,0,0,0,0,-1,1826,967,0,0
609,57,0,0,0,0,0,0,0,0,0,-1,1833,967,0,0
616,57,0,0,0,0,0,0,0,0,0,-1,1840,967,0,0
623,57,0,0,0,0,0,0,0,0,0,-1,1847,967,0,0
630,57,0,0,0,0,0,0,0,0,0,-1,1854,967,0,0
637,57,0,0,0,0,0,0,0,0,0,-1,1861,967,0,0
644,57,71.0874,2.20245,-0.00398532,0.00114438,-0.00135373,0.00147971,-0.00432065,-1.32798,0.00348016,0.0384142,1868,967,71.0874,-2.20244
651,57,71.1412,2.17444,-0.00270489,0.00127799,-0.00123861,0.00163176,-0.00305866,-1.29259,0.00274947,0.0355784,1875,967,71.1413,-2.17443
658,57,70.9904,2.13116,-0.00182321,0.00137101,-0.00084739,0.00158189,-0.0020341,-1.32689,0.00209312,0.0377019,1882,967,70.9903,-2.13119
665,57,70.9589,2.04095,-0.00121517,0.00169586,-0.000229401,0.00171383,-0.00123314,-1.49264,0.00170896,0.0436596,1889,967,70.9589,-2.04097
672,57,71.1537,1.9812,-0.000975225,0.00191838,0.000519747,0.0020089,-0.00106575,1.39836,0.00180278,0.0429726,1896,967,71.1537,-1.9812
679,57,71.0502,1.78619,-0.000975881,0.00176443,0.00125986,0.00225561,-0.00146706,1.19905,0.0021653,0.0420289,1903,967,71.0501,-1.78622
686,57,70.9968,1.9176,-0.000935021,0.00135271,0.00163759,0.00220638,-0.00178868,1.09026,0.00231075,0.0393183,1910,967,70.9968,-1.9176
693,57,71.0026,2.06555,-0.00102295,0.000884106,0.00173642,0.00191158,-0.00205042,1.03649,0.00228793,0.0323741,1917,967,71.0026,-2.06558
700,57,71.0453,2.15662,-0.00143662,0.000789516,0.0015526,0.00158681,-0.00223391,1.09639,0.00221642,0.0246368,1924,967,71.0452,-2.15661
707,57,70.9991,2.50555,-0.00196003,0.00102308,0.00116786,0.00142589,-0.00236285,1.23866,0.00220961,0.0493164,1931,967,70.9992,-2.50558
714,57,70.9128,2.94287,0,0,0,0,0,0,0,-1,1938,967,70.9128,-2.94286
721,57,69.5619,5.31989,0,0,0,0,0,0,0,-1,1945,967,69.5619,-5.31991
728,57,69.3264,5.82892,-0.00437054,0.00352954,-7.22861e-05,0.0035302,-0.0043712,-1.56165,0.00457048,0.0252443,1952,967,69.3264,-5.8289
735,57,69.3424,6.323,-0.00498251,0.00526574,-0.000587584,0.00529931,-0.00501609,-1.51371,0.00595635,0.0327937,1959,967,69.3424,-6.32302
742,57,69.4041,6.61743,-0.0059733,0.00740444,-0.00137159,0.00754361,-0.00611248,-1.46967,0.00789877,0.0242128,1966,967,69.404,-6.61744
749,57,69.297,7.06952,-0.00677842,0.0105795,-0.00210056,0.01083,-0.007029,-1.45206,0.0103885,0.0157219,1973,967,69.297,-7.0695
756,57,69.2329,7.47198,-0.00704797,0.0147689,-0.00259177,0.0150725,-0.00735164,-1.45416,0.0131999,0.013258,1980,967,69.233,-7.47198
763,57,69.1335,7.8457,-0.00689424,0.020209,-0.00270716,0.0204768,-0.007162,-1.47221,0.016563,0.0150131,1987,967,69.1335,-7.8457
770,57,68.9641,8.18005,-0.00568645,0.0265047,-0.00241308,0.0266846,-0.00586633,-1.49639,0.0200336,0.0136537,1994,967,68.9642,-8.18008
777,57,68.8625,8.5343,-0.00344238,0.0328684,-0.00185235,0.0329626,-0.00353663,-1.51996,0.0232438,0.0286447,2001,967,68.8626,-8.53428
784,57,68.7778,8.81696,0.000630517,0.0392122,-0.000925242,0.0392344,0.000608342,-1.54683,0.0259559,0.0485815,2008,967,68.7779,-8.81694
791,57,68.4807,9.03418,0,0,0,0,0,0,0,-1,2015,967,68.4806,-9.03417
798,57,68.405,9.32465,0.0175338,0.0504164,0.000910352,0.0504416,0.0175086,1.54314,0.0295728,0.0488846,2022,967,68.4051,-9.32468
805,57,68.6016,9.34918,0.0303086,0.054735,0.00155018,0.0548329,0.0302106,1.50767,0.0317126,0.049947,2029,967,68.6016,-9.34921
812,57,0,0,0,0,0,0,0,0,0,-1,2036,967,0,0
-700,50,0,0,0,0,0,0,0,0,0,-1,524,974,0,0
-693,50,-54.7593,10.9908,0,0,0,0,0,0,0,-1,531,974,-54.7593,-10.9908
-686,50,-54.1526,9.6377,0,0,0,0,0,0,0,-1,538,974,-54.1526,-9.63769
-679,50,-53.517,8.66888,0,0,0,0,0,0,0,-1,545,974,-53.517,-8.6689
-672,50,-52.4983,7.513,0,0,0,0,0,0,0,-1,552,974,-52.4983,-7.51302
-665,50,-51.3172,6.15887,0,0,0,0,0,0,0,-1,559,974,-51.3172,-6.15885
-658,50,-53.3563,5.58148,0,0,0,0,0,0,0,-1,566,974,-53.3563,-5.5815
-651,50,-54.0015,5.94049,-0.014883,0.0410076,0.00910597,0.0424538,-0.0163292,1.4133,0.0350378,0.0467954,573,974,-54.0015,-5.94048
-644,50,-54.5491,6.38446,-0.0158113,0.0336683,0.0086385,0.0351331,-0.0172761,1.40283,0.0308383,0.0345191,580,974,-54.549,-6.38447
-637,50,-54.7477,6.1925,-0.0147604,0.0269313,0.00771237,0.0283122,-0.0161413,1.39362,0.0259839,0.0196918,587,974,-54.7477,-6.19248
-630,50,-54.8822,5.93518,-0.0136735,0.0204793,0.0058223,0.0214446,-0.0146387,1.4065,0.0209559,0.0119809,594,974,-54.8822,-5.9352
-623,50,-54.9203,5.66113,-0.0113995,0.0154032,0.0036979,0.0159041,-0.0119003,1.43618,0.0161082,0.0134622,601,974,-54.9203,-5.6611
-616,50,-54.9142,5.34338,-0.00815026,0.0109937,0.000300946,0.0109984,-0.00815499,1.55508,0.0110988,0.0142372,608,974,-54.9142,-5.3434
-609,50,-54.9072,4.94183,-0.00463975,0.00741077,-0.00431109,0.00879424,-0.00602321,-1.26027,0.00860458,0.0122728,615,974,-54.9072,-4.94181
-602,50,-54.9268,4.56433,-0.00146952,0.00464041,-0.0106444,0.0126595,-0.00948864,-0.925143,0.0128309,0.0118068,622,974,-54.9267,-4.56436
-595,50,-54.94,4.21606,0.000708285,0.00403106,-0.018534,0.020978,-0.0162386,-0.830099,0.021545,0.0153333,629,974,-54.94,-4.21609
-588,50,-54.9254,3.66608,0.00172758,0.00651524,-0.0289794,0.0331995,-0.0249567,-0.826607,0.0336887,0.031351,636,974,-54.9254,-3.66605
-581,50,-55.1449,1.57727,0.00224646,0.0132973,-0.0437835,0.0519026,-0.0363589,-0.848166,0.0512205,0.0386209,643,974,-55.1449,-1.57726
-574,50,-55.2345,-0.292786,0,0,0,0,0,0,0,-1,650,974,-55.2345,0.292777
-567,50,-54.6357,0.274719,0,0,0,0,0,0,0,-1,657,974,-54.6357,-0.274709
-560,50,-54.5555,0.256958,0,0,0,0,0,0,0,-1,664,974,-54.5555,-0.256937
-553,50,-54.5042,0.352905,0,0,0,0,0,0,0,-1,671,974,-54.5042,-0.352887
-546,50,-54.4772,0.541809,0,0,0,0,0,0,0,-1,678,974,-54.4772,-0.54178
-539,50,-54.4298,0.866028,0,0,0,0,0,0,0,-1,685,974,-54.4298,-0.866029
-532,50,-54.4193,0.600159,0,0,0,0,0,0,0,-1,692,974,-54.4193,-0.60016
-525,50,-54.5854,0.344971,0,0,0,0,0,0,0,-1,699,974,-54.5855,-0.344952
-518,50,0,0,0,0,0,0,0,0,0,-1,706,974,0,0
-511,50,0,0,0,0,0,0,0,0,0,-1,713,974,0,0
-504,50,0,0,0,0,0,0,0,0,0,-1,720,974,0,0
-497,50,0,0,0,0,0,0,0,0,0,-1,727,974,0,0
-490,50,0,0,0,0,0,0,0,0,0,-1,734,974,0,0
-483,50,0,0,0,0,0,0,0,0,0,-1,741,974,0,0
-476,50,0,0,0,0,0,0,0,0,0,-1,748,974,0,0
-469,50,0,0,0,0,0,0,0,0,0,-1,755,974,0,0
-462,50,0,0,0,0,0,0,0,0,0,-1,762,974,0,0
-455,50,0,0,0,0,0,0,0,0,0,-1,769,974,0,0
-448,50,0,0,0,0,0,0,0,0,0,-1,776,974,0,0
-441,50,0,0,0,0,0,0,0,0,0,-1,783,974,0,0
-434,50,0,0,0,0,0,0,0,0,0,-1,790,974,0,0
-427,50,0,0,0,0,0,0,0,0,0,-1,797,974,0,0
-420,50,0,0,0,0,0,0,0,0,0,-1,804,974,0,0
-413,50,0,0,0,0,0,0,0,0,0,-1,811,974,0,0
-406,50,0,0,0,0,0,0,0,0,0,-1,818,974,0,0
-399,50,0,0,0,0,0,0,0,0,0,-1,825,974,0,0
-392,50,0,0,0,0,0,0,0,0,0,-1,832,974,0,0
-385,50,0,0,0,0,0,0,0,0,0,-1,839,974,0,0
-378,50,0,0,0,0,0,0,0,0,0,-1,846,974,0,0
-371,50,0,0,0,0,0,0,0,0,0,-1,853,974,0,0
-364,50,0,0,0,0,0,0,0,0,0,-1,860,974,0,0
-357,50,0,0,0,0,0,0,0,0,0,-1,867,974,0,0
-350,50,0,0,0,0,0,0,0,0,0,-1,874,974,0,0
-343,50,0,0,0,0,0,0,0,0,0,-1,881,974,0,0
-336,50,0,0,0,0,0,0,0,0,0,-1,888,974,0,0
-329,50,0,0,0,0,0,0,0,0,0,-1,895,974,0,0
-322,50,0,0,0,0,0,0,0,0,0,-1,902,974,0,0
-315,50,0,0,0,0,0,0,0,0,0,-1,909,974,0,0
-308,50,0,0,0,0,0,0,0,0,0,-1,916,974,0,0
-301,50,0,0,0,0,0,0,0,0,0,-1,923,974,0,0
-294,50,0,0,0,0,0,0,0,0,0,-1,930,974,0,0
-287,50,0,0,0,0,0,0,0,0,0,-1,937,974,0,0
-280,50,0,0,0,0,0,0,0,0,0,-1,944,974,0,0
-273,50,0,0,0,0,0,0,0,0,0,-1,951,974,0,0
-266,50,0,0,0,0,0,0,0,0,0,-1,958,974,0,0
-259,50,0,0,0,0,0,0,0,0,0,-1,965,974,0,0
-252,50,0,0,0,0,0,0,0,0,0,-1,972,974,0,0
-245,50,0,0,0,0,0,0,0,0,0,-1,979,974,0,0
-238,50,0,0,0,0,0,0,0,0,0,-1,986,974,0,0
-231,50,0,0,0,0,0,0,0,0,0,-1,993,974,0,0
-224,50,0,0,0,0,0,0,0,0,0,-1,1000,974,0,0
-217,50,0,0,0,0,0,0,0,0,0,-1,1007,974,0,0
-210,50,0,0,0,0,0,0,0,0,0,-1,1014,974,0,0
-203,50,0,0,0,0,0,0,0,0,0,-1,1021,974,0,0
-196,50,0,0,0,0,0,0,0,0,0,-1,1028,974,0,0
-189,50,0,0,0,0,0,0,0,0,0,-1,1035,974,0,0
-182,50,0,0,0,0,0,0,0,0,0,-1,1042,974,0,0
-175,50,0,0,0,0,0,0,0,0,0,-1,1049,974,0,0
-168,50,0,0,0,0,0,0,0,0,0,-1,1056,974,0,0
-161,50,0,0,0,0,0,0,0,0,0,-1,1063,974,0,0
-154,50,0,0,0,0,0,0,0,0,0,-1,1070,974,0,0
-147,50,0,0,0,0,0,0,0,0,0,-1,1077,974,0,0
-140,50,0,0,0,0,0,0,0,0,0,-1,1084,974,0,0
-133,50,0,0,0,0,0,0,0,0,0,-1,1091,974,0,0
-126,50,0,0,0,0,0,0,0,0,0,-1,1098,974,0,0
-119,50,0,0,0,0,0,0,0,0,0,-1,1105,974,0,0
-112,50,0,0,0,0,0,0,0,0,0,-1,1112,974,0,0
-105,50,0,0,0,0,0,0,0,0,0,-1,1119,974,0,0
-98,50,0,0,0,0,0,0,0,0,0,-1,1126,974,0,0
-91,50,0,0,0,0,0,0,0,0,0,-1,1133,974,0,0
-84,50,0,0,0,0,0,0,0,0,0,-1,1140,974,0,0
-77,50,0,0,0,0,0,0,0,0,0,-1,1147,974,0,0
-70,50,0,0,0,0,0,0,0,0,0,-1,1154,974,0,0
-63,50,0,0,0,0,0,0,0,0,0,-1,1161,974,0,0
-56,50,0,0,0,0,0,0,0,0,0,-1,1168,974,0,0
-49,50,0,0,0,0,0,0,0,0,0,-1,1175,974,0,0
-42,50,0,0,0,0,0,0,0,0,0,-1,1182,974,0,0
-35,50,0,0,0,0,0,0,0,0,0,-1,1189,974,0,0
-28,50,0,0,0,0,0,0,0,0,0,-1,1196,974,0,0
-21,50,0,0,0,0,0,0,0,0,0,-1,1203,974,0,0
-14,50,0,0,0,0,0,0,0,0,0,-1,1210,974,0,0
-7,50,0,0,0,0,0,0,0,0,0,-1,1217,974,0,0
0,50,0,0,0,0,0,0,0,0,0,-1,1224,974,0,0
7,50,0,0,0,0,0,0,0,0,0,-1,1231,974,0,0
14,50,0,0,0,0,0,0,0,0,0,-1,1238,974,0,0
21,50,0,0,0,0,0,0,0,0,0,-1,1245,974,0,0
28,50,0,0,0,0,0,0,0,0,0,-1,1252,974,0,0
35,50,0,0,0,0,0,0,0,0,0,-1,1259,974,0,0
42,50,0,0,0,0,0,0,0,0,0,-1,1266,974,0,0
49,50,0,0,0,0,0,0,0,0,0,-1,1273,974,0,0
56,50,0,0,0,0,0,0,0,0,0,-1,1280,974,0,0
63,50,0,0,0,0,0,0,0,0,0,-1,1287,974,0,0
70,50,0,0,0,0,0,0,0,0,0,-1,1294,974,0,0
77,50,0,0,0,0,0,0,0,0,0,-1,1301,974,0,0
84,50,0,0,0,0,0,0,0,0,0,-1,1308,974,0,0
91,50,0,0,0,0,0,0,0,0,0,-1,1315,974,0,0
98,50,0,0,0,0,0,0,0,0,0,-1,1322,974,0,0
105,50,0,0,0,0,0,0,0,0,0,-1,1329,974,0,0
112,50,0,0,0,0,0,0,0,0,0,-1,1336,974,0,0
119,50,0,0,0,0,0,0,0,0,0,-1,1343,974,0,0
126,50,0,0,0,0,0,0,0,0,0,-1,1350,974,0,0
133,50,0,0,0,0,0,0,0,0,0,-1,1357,974,0,0
140,50,0,0,0,0,0,0,0,0,0,-1,1364,974,0,0
147,50,0,0,0,0,0,0,0,0,0,-1,1371,974,0,0
154,50,0,0,0,0,0,0,0,0,0,-1,1378,974,0,0
161,50,0,0,0,0,0,0,0,0,0,-1,1385,974,0,0
168,50,0,0,0,0,0,0,0,0,0,-1,1392,974,0,0
175,50,0,0,0,0,0,0,0,0,0,-1,1399,974,0,0
182,50,0,0,0,0,0,0,0,0,0,-1,1406,974,0,0
189,50,0,0,0,0,0,0,0,0,0,-1,1413,974,0,0
196,50,0,0,0,0,0,0,0,0,0,-1,1420,974,0,0
203,50,0,0,0,0,0,0,0,0,0,-1,1427,974,0,0
210,50,0,0,0,0,0,0,0,0,0,-1,1434,974,0,0
217,50,0,0,0,0,0,0,0,0,0,-1,1441,974,0,0
224,50,0,0,0,0,0,0,0,0,0,-1,1448,974,0,0
231,50,0,0,0,0,0,0,0,0,0,-1,1455,974,0,0
238,50,0,0,0,0,0,0,0,0,0,-1,1462,974,0,0
245,50,0,0,0,0,0,0,0,0,0,-1,1469,974,0,0
252,50,0,0,0,0,0,0,0,0,0,-1,1476,974,0,0
259,50,0,0,0,0,0,0,0,0,0,-1,1483,974,0,0
266,50,0,0,0,0,0,0,0,0,0,-1,1490,974,0,0
273,50,0,0,0,0,0,0,0,0,0,-1,1497,974,0,0
280,50,0,0,0,0,0,0,0,0,0,-1,1504,974,0,0
287,50,0,0,0,0,0,0,0,0,0,-1,1511,974,0,0
294,50,0,0,0,0,0,0,0,0,0,-1,1518,974,0,0
301,50,0,0,0,0,0,0,0,0,0,-1,1525,974,0,0
308,50,0,0,0,0,0,0,0,0,0,-1,1532,974,0,0
315,50,0,0,0,0,0,0,0,0,0,-1,1539,974,0,0
322,50,0,0,0,0,0,0,0,0,0,-1,1546,974,0,0
329,50,0,0,0,0,0,0,0,0,0,-1,1553,974,0,0
336,50,0,0,0,0,0,0,0,0,0,-1,1560,974,0,0
343,50,0,0,0,0,0,0,0,0,0,-1,1567,974,0,0
350,50,0,0,0,0,0,0,0,0,0,-1,1574,974,0,0
357,50,0,0,0,0,0,0,0,0,0,-1,1581,974,0,0
364,50,0,0,0,0,0,0,0,0,0,-1,1588,974,0,0
371,50,0,0,0,0,0,0,0,0,0,-1,1595,974,0,0
378,50,0,0,0,0,0,0,0,0,0,-1,1602,974,0,0
385,50,0,0,0,0,0,0,0,0,0,-1,1609,974,0,0
392,50,0,0,0,0,0,0,0,0,0,-1,1616,974,0,0
399,50,0,0,0,0,0,0,0,0,0,-1,1623,974,0,0
406,50,0,0,0,0,0,0,0,0,0,-1,1630,974,0,0
413,50,0,0,0,0,0,0,0,0,0,-1,1637,974,0,0
420,50,0,0,0,0,0,0,0,0,0,-1,1644,974,0,0
427,50,0,0,0,0,0,0,0,0,0,-1,1651,974,0,0
434,50,0,0,0,0,0,0,0,0,0,-1,1658,974,0,0
441,50,0,0,0,0,0,0,0,0,0,-1,1665,974,0,0
448,50,0,0,0,0,0,0,0,0,0,-1,1672,974,0,0
455,50,0,0,0,0,0,0,0,0,0,-1,1679,974,0,0
462,50,0,0,0,0,0,0,0,0,0,-1,1686,974,0,0
469,50,0,0,0,0,0,0,0,0,0,-1,1693,974,0,0
476,50,0,0,0,0,0,0,0,0,0,-1,1700,974,0,0
483,50,0,0,0,0,0,0,0,0,0,-1,1707,974,0,0
490,50,0,0,0,0,0,0,0,0,0,-1,1714,974,0,0
497,50,0,0,0,0,0,0,0,0,0,-1,1721,974,0,0
504,50,0,0,0,0,0,0,0,0,0,-1,1728,974,0,0
511,50,0,0,0,0,0,0,0,0,0,-1,1735,974,0,0
518,50,0,0,0,0,0,0,0,0,0,-1,1742,974,0,0
525,50,0,0,0,0,0,0,0,0,0,-1,1749,974,0,0
532,50,0,0,0,0,0,0,0,0,0,-1,1756,974,0,0
539,50,0,0,0,0,0,0,0,0,0,-1,1763,974,0,0
546,50,0,0,0,0,0,0,0,0,0,-1,1770,974,0,0
553,50,0,0,0,0,0,0,0,0,0,-1,1777,974,0,0
560,50,0,0,0,0,0,0,0,0,0,-1,1784,974,0,0
567,50,0,0,0,0,0,0,0,0,0,-1,1791,974,0,0
574,50,0,0,0,0,0,0,0,0,0,-1,1798,974,0,0
581,50,0,0,0,0,0,0,0,0,0,-1,1805,974,0,0
588,50,0,0,0,0,0,0,0,0,0,-1,1812,974,0,0
595,50,0,0,0,0,0,0,0,0,0,-1,1819,974,0,0
602,50,0,0,0,0,0,0,0,0,0,-1,1826,974,0,0
609,50,0,0,0,0,0,0,0,0,0,-1,1833,974,0,0
616,50,0,0,0,0,0,0,0,0,0,-1,1840,974,0,0
623,50,0,0,0,0,0,0,0,0,0,-1,1847,974,0,0
630,50,0,0,0,0,0,0,0,0,0,-1,1854,974,0,0
637,50,0,0,0,0,0,0,0,0,0,-1,1861,974,0,0
644,50,71.1346,2.22821,-0.0028564,0.000466299,-0.00184665,0.00128893,-0.00367904,-1.15171,0.00297685,0.0361159,1868,974,71.1347,-2.22823
651,50,71.0208,2.20477,-0.00190119,0.000583731,-0.00166204,0.00141638,-0.00273384,-1.10636,0.00243605,0.032014,1875,974,71.0207,-2.20478
658,50,70.9604,2.14624,-0.00127959,0.00061643,-0.00121161,0.00120683,-0.00186999,-1.11737,0.00179011,0.0382014,1882,974,70.9605,-2.14625
665,50,70.9133,1.89349,-0.000874753,0.000918992,-0.000553411,0.00107599,-0.00103175,-1.29437,0.00121699,0.0419084,1889,974,70.9133,-1.89349
672,50,70.9603,1.87146,-0.000728127,0.0011864,0.000220324,0.00121143,-0.000753155,1.45769,0.00114449,0.0406466,1896,974,70.9603,-1.87149
679,50,70.9667,2.09833,-0.000741196,0.00112608,0.000990479,0.00155359,-0.00116871,1.16333,0.00157695,0.0426953,1903,974,70.9667,-2.09833
686,50,71.0291,1.95013,-0.000685337,0.000777915,0.00143277,0.00165505,-0.00156247,1.02146,0.00185789,0.0435739,1910,974,71.0291,-1.95014
693,50,71.0028,2.04437,-0.000753355,0.000355973,0.00158576,0.00148128,-0.00187866,0.953637,0.00194438,0.0376957,1917,974,71.0028,-2.04436
700,50,70.981,2.24963,-0.00111394,0.000297508,0.00142925,0.00118578,-0.00200221,1.01472,0.0018606,0.0204637,1924,974,70.981,-2.24965
707,50,71.0138,2.30682,-0.00162829,0.00059104,0.00107399,0.00102566,-0.00206291,1.18626,0.0018164,0.0312265,1931,974,71.0138,-2.30683
714,50,70.9849,2.37866,0,0,0,0,0,0,0,-1,1938,974,70.9849,-2.37864
721,50,69.7643,5.37573,0,0,0,0,0,0,0,-1,1945,974,69.7642,-5.37574
728,50,69.8306,5.84869,-0.00435907,0.00352432,-0.00012501,0.00352631,-0.00436106,-1.55494,0.00456226,0.0221912,1952,974,69.8305,-5.84871
735,50,69.8662,6.30316,-0.0051481,0.00536841,-0.000647597,0.00540813,-0.00518783,-1.50953,0.00611802,0.0230008,1959,974,69.8662,-6.30315
742,50,69.8511,6.711,-0.00639575,0.00755369,-0.00137883,0.00768867,-0.00653074,-1.47321,0.00821865,0.0178605,1966,974,69.8511,-6.71099
749,50,69.7799,7.03485,-0.00753037,0.0107044,-0.00205763,0.0109337,-0.00775967,-1.45981,0.0108443,0.017601,1973,974,69.7799,-7.03484
756,50,69.6929,7.37842,-0.00822961,0.0147956,-0.00255942,0.0150767,-0.00851067,-1.46142,0.0137929,0.0153206,1980,974,69.6929,-7.37844
763,50,69.5818,7.7312,-0.00862438,0.0201444,-0.0027662,0.020408,-0.00888794,-1.4758,0.0173444,0.0157362,1987,974,69.5817,-7.73119
770,50,69.4558,8.04492,-0.00792548,0.0265131,-0.00258124,0.0267055,-0.00811787,-1.4964,0.0210383,0.0142044,1994,974,69.4558,-8.04491
777,50,69.3975,8.3656,-0.00611631,0.0329877,-0.00212247,0.0331026,-0.00623118,-1.51673,0.024412,0.02543,2001,974,69.3974,-8.36562
784,50,69.1394,8.58624,-0.00248005,0.0394211,-0.00129644,0.0394612,-0.00252013,-1.5399,0.0271864,0.0427935,2008,974,69.1394,-8.58625
791,50,68.9343,8.87775,0,0,0,0,0,0,0,-1,2015,974,68.9343,-8.87777
798,50,68.5132,8.94135,0.0136232,0.0507943,0.000547853,0.0508024,0.0136152,1.55606,0.030365,0.0452729,2022,974,68.5132,-8.94137
805,50,68.9126,9.14581,0.0260359,0.0552563,0.00133985,0.0553176,0.0259746,1.52507,0.0319574,0.0472048,2029,974,68.9126,-9.14581
812,50,0,0,0,0,0,0,0,0,0,-1,2036,974,0,0
-700,43,0,0,0,0,0,0,0,0,0,-1,524,981,0,0
-693,43,-62.6139,3.83081,0,0,0,0,0,0,0,-1,531,981,-62.6139,-3.83081
-686,43,-55.5221,9.17328,0,0,0,0,0,0,0,-1,538,981,-55.5221,-9.1733
-679,43,-54.1999,8.13141,0,0,0,0,0,0,0,-1,545,981,-54.1999,-8.1314
-672,43,-53.1416,6.98151,0,0,0,0,0,0,0,-1,552,981,-53.1416,-6.98153
-665,43,-58.3989,4.90314,0,0,0,0,0,0,0,-1,559,981,-58.3989,-4.90313
-658,43,-53.5087,5.76825,0,0,0,0,0,0,0,-1,566,981,-53.5087,-5.76823
-651,43,-54.222,5.99994,-0.0148639,0.0448697,0.00828691,0.045998,-0.0159922,1.43547,0.0371614,0.0443747,573,981,-54.222,-5.99994
-644,43,-54.9111,6.25488,-0.0159222,0.0365623,0.00792832,0.0377338,-0.0170937,1.4241,0.0323937,0.0263064,580,981,-54.9111,-6.25491
-637,43,-55.1547,6.0155,-0.0149843,0.0287991,0.00702437,0.0298985,-0.0160837,1.41555,0.0269442,0.0189932,587,981,-55.1548,-6.01553
-630,43,-55.2244,5.80481,-0.0139519,0.0214972,0.00532505,0.0222798,-0.0147346,1.42487,0.0215177,0.0146166,594,981,-55.2244,-5.80481
-623,43,-55.25,5.56256,-0.0116432,0.015839,0.00314395,0.0161941,-0.0119983,1.45833,0.0163369,0.0137433,601,981,-55.25,-5.56259
-616,43,-55.2592,5.25305,-0.00822894,0.0108963,-0.000454539,0.0109071,-0.00823974,-1.54705,0.0110901,0.0137267,608,981,-55.2591,-5.25306
-609,43,-55.2702,4.92175,-0.00454185,0.00708932,-0.00532024,0.00915574,-0.00660827,-1.20032,0.00914089,0.0151878,615,981,-55.2702,-4.92173
-602,43,-55.2631,4.61493,-0.0012438,0.00442172,-0.012065,0.0139821,-0.0108042,-0.900705,0.0143495,0.017082,622,981,-55.2631,-4.61494
-595,43,-55.4048,4.31982,0.00102329,0.00410893,-0.020468,0.0230922,-0.0179599,-0.823016,0.0237631,0.0190823,629,981,-55.4048,-4.31984
-588,43,-55.3986,3.20642,0.00212841,0.00728706,-0.0317591,0.0365714,-0.0271559,-0.825917,0.0369266,0.0450308,636,981,-55.3985,-3.2064
-581,43,-55.2762,1.11774,0.00309184,0.0152301,-0.0481537,0.0576956,-0.0393737,-0.848086,0.0563748,0.0495267,643,981,-55.2762,-1.11774
-574,43,-55.0753,-0.768738,0,0,0,0,0,0,0,-1,650,981,-55.0753,0.768731
-567,43,-54.6081,0.327576,0,0,0,0,0,0,0,-1,657,981,-54.6081,-0.327575
-560,43,-54.4857,0.28717,0,0,0,0,0,0,0,-1,664,981,-54.4857,-0.28718
-553,43,-54.5258,0.35614,0,0,0,0,0,0,0,-1,671,981,-54.5258,-0.35616
-546,43,-54.5502,0.335449,0,0,0,0,0,0,0,-1,678,981,-54.5502,-0.335457
-539,43,-54.4832,0.433594,0,0,0,0,0,0,0,-1,685,981,-54.4832,-0.433576
-532,43,-54.4058,0.379211,0,0,0,0,0,0,0,-1,692,981,-54.4058,-0.37919
-525,43,-54.5769,0.286865,0,0,0,0,0,0,0,-1,699,981,-54.5769,-0.286884
-518,43,0,0,0,0,0,0,0,0,0,-1,706,981,0,0
-511,43,0,0,0,0,0,0,0,0,0,-1,713,981,0,0
-504,43,0,0,0,0,0,0,0,0,0,-1,720,981,0,0
-497,43,0,0,0,0,0,0,0,0,0,-1,727,981,0,0
-490,43,0,0,0,0,0,0,0,0,0,-1,734,981,0,0
-483,43,0,0,0,0,0,0,0,0,0,-1,741,981,0,0
-476,43,0,0,0,0,0,0,0,0,0,-1,748,981,0,0
-469,43,0,0,0,0,0,0,0,0,0,-1,755,981,0,0
-462,43,0,0,0,0,0,0,0,0,0,-1,762,981,0,0
-455,43,0,0,0,0,0,0,0,0,0,-1,769,981,0,0
-448,43,0,0,0,0,0,0,0,0,0,-1,776,981,0,0
-441,43,0,0,0,0,0,0,0,0,0,-1,783,981,0,0
-434,43,0,0,0,0,0,0,0,0,0,-1,790,981,0,0
-427,43,0,0,0,0,0,0,0,0,0,-1,797,981,0,0
-420,43,0,0,0,0,0,0,0,0,0,-1,804,981,0,0
-413,43,0,0,0,0,0,0,0,0,0,-1,811,981,0,0
-406,43,0,0,0,0,0,0,0,0,0,-1,818,981,0,0
-399,43,0,0,0,0,0,0,0,0,0,-1,825,981,0,0
-392,43,0,0,0,0,0,0,0,0,0,-1,832,981,0,0
-385,43,0,0,0,0,0,0,0,0,0,-1,839,981,0,0
-378,43,0,0,0,0,0,0,0,0,0,-1,846,981,0,0
-371,43,0,0,0,0,0,0,0,0,0,-1,853,981,0,0
-364,43,0,0,0,0,0,0,0,0,0,-1,860,981,0,0
-357,43,0,0,0,0,0,0,0,0,0,-1,867,981,0,0
-350,43,0,0,0,0,0,0,0,0,0,-1,874,981,0,0
-343,43,0,0,0,0,0,0,0,0,0,-1,881,981,0,0
-336,43,0,0,0,0,0,0,0,0,0,-1,888,981,0,0
-329,43,0,0,0,0,0,0,0,0,0,-1,895,981,0,0
-322,43,0,0,0,0,0,0,0,0,0,-1,902,981,0,0
-315,43,0,0,0,0,0,0,0,0,0,-1,909,981,0,0
-308,43,0,0,0,0,0,0,0,0,0,-1,916,981,0,0
-301,43,0,0,0,0,0,0,0,0,0,-1,923,981,0,0
-294,43,0,0,0,0,0,0,0,0,0,-1,930,981,0,0
-287,43,0,0,0,0,0,0,0,0,0,-1,937,981,0,0
-280,43,0,0,0,0,0,0,0,0,0,-1,944,981,0,0
-273,43,0,0,0,0,0,0,0,0,0,-1,951,981,0,0
-266,43,0,0,0,0,0,0,0,0,0,-1,958,981,0,0
-259,43,0,0,0,0,0,0,0,0,0,-1,965,981,0,0
-252,43,0,0,0,0,0,0,0,0,0,-1,972,981,0,0
-245,43,0,0,0,0,0,0,0,0,0,-1,979,981,0,0
-238,43,0,0,0,0,0,0,0,0,0,-1,986,981,0,0
-231,43,0,0,0,0,0,0,0,0,0,-1,993,981,0,0
-224,43,0,0,0,0,0,0,0,0,0,-1,1000,981,0,0
-217,43,0,0,0,0,0,0,0,0,0,-1,1007,981,0,0
-210,43,0,0,0,0,0,0,0,0,0,-1,1014,981,0,0
-203,43,0,0,0,0,0,0,0,0,0,-1,1021,981,0,0
-196,43,0,0,0,0,0,0,0,0,0,-1,1028,981,0,0
-189,43,0,0,0,0,0,0,0,0,0,-1,1035,981,0,0
-182,43,0,0,0,0,0,0,0,0,0,-1,1042,981,0,0
-175,43,0,0,0,0,0,0,0,0,0,-1,1049,981,0,0
-168,43,0,0,0,0,0,0,0,0,0,-1,1056,981,0,0
-161,43,0,0,0,0,0,0,0,0,0,-1,1063,981,0,0
-154,43,0,0,0,0,0,0,0,0,0,-1,1070,981,0,0
-147,43,0,0,0,0,0,0,0,0,0,-1,1077,981,0,0
-140,43,0,0,0,0,0,0,0,0,0,-1,1084,981,0,0
-133,43,0,0,0,0,0,0,0,0,0,-1,1091,981,0,0
-126,43,0,0,0,0,0,0,0,0,0,-1,1098,981,0,0
-119,43,0,0,0,0,0,0,0,0,0,-1,1105,981,0,0
-112,43,0,0,0,0,0,0,0,0,0,-1,1112,981,0,0
-105,43,0,0,0,0,0,0,0,0,0,-1,1119,981,0,0
-98,43,0,0,0,0,0,0,0,0,0,-1,1126,981,0,0
-91,43,0,0,0,0,0,0,0,0,0,-1,1133,981,0,0
-84,43,0,0,0,0,0,0,0,0,0,-1,1140,981,0,0
-77,43,0,0,0,0,0,0,0,0,0,-1,1147,981,0,0
-70,43,0,0,0,0,0,0,0,0,0,-1,1154,981,0,0
-63,43,0,0,0,0,0,0,0,0,0,-1,1161,981,0,0
-56,43,0,0,0,0,0,0,0,0,0,-1,1168,981,0,0
-49,43,0,0,0,0,0,0,0,0,0,-1,1175,981,0,0
-42,43,0,0,0,0,0,0,0,0,0,-1,1182,981,0,0
-35,43,0,0,0,0,0,0,0,0,0,-1,1189,981,0,0
-28,43,0,0,0,0,0,0,0,0,0,-1,1196,981,0,0
-21,43,0,0,0,0,0,0,0,0,0,-1,1203,981,0,0
-14,43,0,0,0,0,0,0,0,0,0,-1,1210,981,0,0
-7,43,0,0,0,0,0,0,0,0,0,-1,1217,981,0,0
0,43,0,0,0,0,0,0,0,0,0,-1,1224,981,0,0
7,43,0,0,0,0,0,0,0,0,0,-1,1231,981,0,0
14,43,0,0,0,0,0,0,0,0,0,-1,1238,981,0,0
21,43,0,0,0,0,0,0,0,0,0,-1,1245,981,0,0
28,43,0,0,0,0,0,0,0,0,0,-1,1252,981,0,0
35,43,0,0,0,0,0,0,0,0,0,-1,1259,981,0,0
42,43,0,0,0,0,0,0,0,0,0,-1,1266,981,0,0
49,43,0,0,0,0,0,0,0,0,0,-1,1273,981,0,0
56,43,0,0,0,0,0,0,0,0,0,-1,1280,981,0,0
63,43,0,0,0,0,0,0,0,0,0,-1,1287,981,0,0
70,43,0,0,0,0,0,0,0,0,0,-1,1294,981,0,0
77,43,0,0,0,0,0,0,0,0,0,-1,1301,981,0,0
84,43,0,0,0,0,0,0,0,0,0,-1,1308,981,0,0
91,43,0,0,0,0,0,0,0,0,0,-1,1315,981,0,0
98,43,0,0,0,0,0,0,0,0,0,-1,1322,981,0,0
105,43,0,0,0,0,0,0,0,0,0,-1,1329,981,0,0
112,43,0,0,0,0,0,0,0,0,0,-1,1336,981,0,0
119,43,0,0,0,0,0,0,0,0,0,-1,1343,981,0,0
126,43,0,0,0,0,0,0,0,0,0,-1,1350,981,0,0
133,43,0,0,0,0,0,0,0,0,0,-1,1357,981,0,0
140,43,0,0,0,0,0,0,0,0,0,-1,1364,981,0,0
147,43,0,0,0,0,0,0,0,0,0,-1,1371,981,0,0
154,43,0,0,0,0,0,0,0,0,0,-1,1378,981,0,0
161,43,0,0,0,0,0,0,0,0,0,-1,1385,981,0,0
168,43,0,0,0,0,0,0,0,0,0,-1,1392,981,0,0
175,43,0,0,0,0,0,0,0,0,0,-1,1399,981,0,0
182,43,0,0,0,0,0,0,0,0,0,-1,1406,981,0,0
189,43,0,0,0,0,0,0,0,0,0,-1,1413,981,0,0
196,43,0,0,0,0,0,0,0,0,0,-1,1420,981,0,0
203,43,0,0,0,0,0,0,0,0,0,-1,1427,981,0,0
210,43,0,0,0,0,0,0,0,0,0,-1,1434,981,0,0
217,43,0,0,0,0,0,0,0,0,0,-1,1441,981,0,0
224,43,0,0,0,0,0,0,0,0,0,-1,1448,981,0,0
231,43,0,0,0,0,0,0,0,0,0,-1,1455,981,0,0
238,43,0,0,0,0,0,0,0,0,0,-1,1462,981,0,0
245,43,0,0,0,0,0,0,0,0,0,-1,1469,981,0,0
252,43,0,0,0,0,0,0,0,0,0,-1,1476,981,0,0
259,43,0,0,0,0,0,0,0,0,0,-1,1483,981,0,0
266,43,0,0,0,0,0,0,0,0,0,-1,1490,981,0,0
273,43,0,0,0,0,0,0,0,0,0,-1,1497,981,0,0
280,43,0,0,0,0,0,0,0,0,0,-1,1504,981,0,0
287,43,0,0,0,0,0,0,0,0,0,-1,1511,981,0,0
294,43,0,0,0,0,0,0,0,0,0,-1,1518,981,0,0
301,43,0,0,0,0,0,0,0,0,0,-1,1525,981,0,0
308,43,0,0,0,0,0,0,0,0,0,-1,1532,981,0,0
315,43,0,0,0,0,0,0,0,0,0,-1,1539,981,0,0
322,43,0,0,0,0,0,0,0,0,0,-1,1546,981,0,0
329,43,0,0,0,0,0,0,0,0,0,-1,1553,981,0,0
336,43,0,0,0,0,0,0,0,0,0,-1,1560,981,0,0
343,43,0,0,0,0,0,0,0,0,0,-1,1567,981,0,0
350,43,0,0,0,0,0,0,0,0,0,-1,1574,981,0,0
357,43,0,0,0,0,0,0,0,0,0,-1,1581,981,0,0
364,43,0,0,0,0,0,0,0,0,0,-1,1588,981,0,0
371,43,0,0,0,0,0,0,0,0,0,-1,1595,981,0,0
378,43,0,0,0,0,0,0,0,0,0,-1,1602,981,0,0
385,43,0,0,0,0,0,0,0,0,0,-1,1609,981,0,0
392,43,0,0,0,0,0,0,0,0,0,-1,1616,981,0,0
399,43,0,0,0,0,0,0,0,0,0,-1,1623,981,0,0
406,43,0,0,0,0,0,0,0,0,0,-1,1630,981,0,0
413,43,0,0,0,0,0,0,0,0,0,-1,1637,981,0,0
420,43,0,0,0,0,0,0,0,0,0,-1,1644,981,0,0
427,43,0,0,0,0,0,0,0,0,0,-1,1651,981,0,0
434,43,0,0,0,0,0,0,0,0,0,-1,1658,981,0,0
441,43,0,0,0,0,0,0,0,0,0,-1,1665,981,0,0
448,43,0,0,0,0,0,0,0,0,0,-1,1672,981,0,0
455,43,0,0,0,0,0,0,0,0,0,-1,1679,981,0,0
462,43,0,0,0,0,0,0,0,0,0,-1,1686,981,0,0
469,43,0,0,0,0,0,0,0,0,0,-1,1693,981,0,0
476,43,0,0,0,0,0,0,0,0,0,-1,1700,981,0,0
483,43,0,0,0,0,0,0,0,0,0,-1,1707,981,0,0
490,43,0,0,0,0,0,0,0,0,0,-1,1714,981,0,0
497,43,0,0,0,0,0,0,0,0,0,-1,1721,981,0,0
504,43,0,0,0,0,0,0,0,0,0,-1,1728,981,0,0
511,43,0,0,0,0,0,0,0,0,0,-1,1735,981,0,0
518,43,0,0,0,0,0,0,0,0,0,-1,1742,981,0,0
525,43,0,0,0,0,0,0,0,0,0,-1,1749,981,0,0
532,43,0,0,0,0,0,0,0,0,0,-1,1756,981,0,0
539,43,0,0,0,0,0,0,0,0,0,-1,1763,981,0,0
546,43,0,0,0,0,0,0,0,0,0,-1,1770,981,0,0
553,43,0,0,0,0,0,0,0,0,0,-1,1777,981,0,0
560,43,0,0,0,0,0,0,0,0,0,-1,1784,981,0,0
567,43,0,0,0,0,0,0,0,0,0,-1,1791,981,0,0
574,43,0,0,0,0,0,0,0,0,0,-1,1798,981,0,0
581,43,0,0,0,0,0,0,0,0,0,-1,1805,981,0,0
588,43,0,0,0,0,0,0,0,0,0,-1,1812,981,0,0
595,43,0,0,0,0,0,0,0,0,0,-1,1819,981,0,0
602,43,0,0,0,0,0,0,0,0,0,-1,1826,981,0,0
609,43,0,0,0,0,0,0,0,0,0,-1,1833,981,0,0
616,43,0,0,0,0,0,0,0,0,0,-1,1840,981,0,0
623,43,0,0,0,0,0,0,0,0,0,-1,1847,981,0,0
630,43,0,0,0,0,0,0,0,0,0,-1,1854,981,0,0
637,43,0,0,0,0,0,0,0,0,0,-1,1861,981,0,0
644,43,71.0974,2.12158,-0.00142522,-0.00100196,-0.0020581,0.000855366,-0.00328255,-0.836632,0.0025223,0.0372461,1868,981,71.0975,-2.12158
651,43,71.0399,2.14008,-0.000950231,-0.000638538,-0.00185483,0.00106698,-0.00265575,-0.827311,0.0022136,0.0361863,1875,981,71.04,-2.14008
658,43,71.073,2.10938,-0.000674703,-0.000465459,-0.00138898,0.00082283,-0.00196299,-0.822989,0.00165269,0.0382658,1882,981,71.073,-2.10938
665,43,71.0194,1.99884,-0.000515984,-6.52332e-05,-0.000743226,0.000486038,-0.00106726,-0.932611,0.000917483,0.0383734,1889,981,71.0194,-1.99886
672,43,71.0593,2.01758,-0.000502226,0.000318887,-2.94325e-06,0.000318897,-0.000502237,-1.56721,0.000478005,0.039182,1896,981,71.0593,-2.01757
679,43,71.0728,2.07269,-0.000551977,0.000409138,0.000738357,0.00080955,-0.000952389,1.07388,0.00101837,0.0424843,1903,981,71.0728,-2.07267
686,43,71.0078,2.0304,-0.000496554,0.000171476,0.00118684,0.00107041,-0.00139549,0.922566,0.0014278,0.0425862,1910,981,71.0078,-2.03042
693,43,71.0359,2.07953,-0.000547602,-0.000183025,0.0013535,0.00100041,-0.00173104,0.852335,0.0015957,0.0371331,1917,981,71.0359,-2.0795
700,43,70.9619,2.25061,-0.000844588,-0.000194627,0.00120379,0.000727282,-0.0017665,0.917237,0.00148087,0.0303405,1924,981,70.9619,-2.25059
707,43,71.0518,2.159,-0.0013731,0.00017281,0.000888366,0.000577418,-0.0017777,1.14342,0.00141737,0.0249963,1931,981,71.0518,-2.15902
714,43,71.0435,2.15308,0,0,0,0,0,0,0,-1,1938,981,71.0434,-2.15308
721,43,70.2045,5.43231,0,0,0,0,0,0,0,-1,1945,981,70.2045,-5.43233
728,43,70.2539,5.89001,-0.00457316,0.0035604,-0.000254748,0.00356837,-0.00458113,-1.53952,0.00471721,0.0198032,1952,981,70.2539,-5.89
735,43,70.2954,6.32489,-0.00556112,0.00552457,-0.000769515,0.00557773,-0.00561429,-1.50182,0.00646173,0.0153175,1959,981,70.2954,-6.32489
742,43,70.2413,6.69495,-0.00707306,0.00776483,-0.00141736,0.00789901,-0.00720723,-1.47641,0.00872464,0.0167937,1966,981,70.2414,-6.69497
749,43,70.178,7.01593,-0.00855734,0.0108956,-0.00201084,0.0111013,-0.00876302,-1.46886,0.0114951,0.0194206,1973,981,70.1779,-7.01594
756,43,70.1448,7.29468,-0.00971783,0.0148893,-0.00248139,0.015137,-0.00996556,-1.47129,0.0145951,0.0234003,1980,981,70.1448,-7.29465
763,43,70.0674,7.5708,-0.0106868,0.0201505,-0.00274202,0.0203925,-0.0109288,-1.4828,0.0183564,0.0264722,1987,981,70.0675,-7.57083
770,43,69.9368,7.93671,-0.0105591,0.0265812,-0.00266063,0.0267708,-0.0107487,-1.49964,0.0223106,0.0214634,1994,981,69.9368,-7.93668
777,43,69.9451,8.26343,-0.00921209,0.0331677,-0.00230774,0.033293,-0.00933738,-1.51656,0.0258756,0.0259203,2001,981,69.9451,-8.26342
784,43,69.981,8.67841,-0.00597884,0.0396964,-0.00158823,0.0397516,-0.00603399,-1.53608,0.0287244,0.0445622,2008,981,69.9811,-8.6784
791,43,70.0288,9.07941,0,0,0,0,0,0,0,-1,2015,981,70.0287,-9.07939
798,43,68.7964,8.53253,0.00960342,0.0511958,0.000223572,0.051197,0.00960222,1.56542,0.0314235,0.0434974,2022,981,68.7965,-8.53254
805,43,68.9263,8.78088,0.0220058,0.055729,0.00114575,0.0557679,0.0219669,1.53687,0.0324383,0.0467846,2029,981,68.9262,-8.78089
812,43,68.9919,9.05725,0,0,0,0,0,0,0,-1,2036,981,68.9919,-9.05723
-700,36,0,0,0,0,0,0,0,0,0,-1,524,988,0,0
-693,36,-61.8349,3.3476,0,0,0,0,0,0,0,-1,531,988,-61.8349,-3.34758
-686,36,-62.4888,4.48224,0,0,0,0,0,0,0,-1,538,988,-62.4888,-4.48222
-679,36,-63.6509,6.09271,0,0,0,0,0,0,0,-1,545,988,-63.6509,-6.09274
-672,36,-53.6129,6.52045,0,0,0,0,0,0,0,-1,552,988,-53.6128,-6.52046
-665,36,-57.6921,3.67902,0,0,0,0,0,0,0,-1,559,988,-57.6921,-3.67901
-658,36,-54.4755,5.92377,0,0,0,0,0,0,0,-1,566,988,-54.4755,-5.92379
-651,36,-54.8787,5.9342,-0.0147591,0.0489167,0.00985711,0.0504077,-0.0162501,1.42067,0.0401338,0.0441281,573,988,-54.8786,-5.93421
-644,36,-55.2654,5.98755,-0.0155737,0.0397017,0.00893633,0.0411106,-0.0169825,1.41443,0.0344909,0.0284051,580,988,-55.2654,-5.98757
-637,36,-55.5076,5.78412,-0.0146582,0.0309959,0.00748796,0.0321927,-0.0158549,1.41231,0.0282698,0.0227013,587,988,-55.5076,-5.7841
-630,36,-55.5266,5.68915,-0.013725,0.0227426,0.00551323,0.0235578,-0.0145403,1.42398,0.0222004,0.0165676,594,988,-55.5265,-5.68916
-623,36,-55.5803,5.48553,-0.0115026,0.0163144,0.00305765,0.0166466,-0.0118347,1.4626,0.0165217,0.0143911,601,988,-55.5803,-5.48554
-616,36,-55.591,5.24377,-0.00803503,0.0106509,-0.000876249,0.0106919,-0.00807603,-1.52404,0.0108707,0.0131466,608,988,-55.591,-5.24377
-609,36,-55.5079,5.03967,-0.00416814,0.00644162,-0.00604228,0.00917732,-0.00690383,-1.14565,0.00931533,0.0186983,615,988,-55.5079,-5.03969
-602,36,-55.573,4.7135,-0.000583171,0.00372564,-0.0130832,0.0148307,-0.0116882,-0.867,0.0153465,0.0224792,622,988,-55.573,-4.71349
-595,36,-55.8394,4.41742,0.00192184,0.00341312,-0.021695,0.0243753,-0.0190403,-0.802576,0.025129,0.0270273,629,988,-55.8394,-4.41741
-588,36,-55.8009,2.89215,0,0,0,0,0,0,0,-1,636,988,-55.8009,-2.89216
-581,36,-55.2757,0.531616,0,0,0,0,0,0,0,-1,643,988,-55.2757,-0.531587
-574,36,-54.6107,0.422424,0,0,0,0,0,0,0,-1,650,988,-54.6107,-0.422415
-567,36,-54.6589,0.308167,0,0,0,0,0,0,0,-1,657,988,-54.6589,-0.30816
-560,36,-54.5887,0.197388,0,0,0,0,0,0,0,-1,664,988,-54.5888,-0.197383
-553,36,-54.5172,0.133606,0,0,0,0,0,0,0,-1,671,988,-54.5171,-0.133604
-546,36,-54.5675,0.274048,0,0,0,0,0,0,0,-1,678,988,-54.5675,-0.274029
-539,36,-54.4395,0.21936,0,0,0,0,0,0,0,-1,685,988,-54.4395,-0.219362
-532,36,-54.3813,0.371399,0,0,0,0,0,0,0,-1,692,988,-54.3814,-0.371372
-525,36,-54.6766,0.495117,0,0,0,0,0,0,0,-1,699,988,-54.6767,-0.495129
-518,36,0,0,0,0,0,0,0,0,0,-1,706,988,0,0
-511,36,0,0,0,0,0,0,0,0,0,-1,713,988,0,0
-504,36,0,0,0,0,0,0,0,0,0,-1,720,988,0,0
-497,36,0,0,0,0,0,0,0,0,0,-1,727,988,0,0
-490,36,0,0,0,0,0,0,0,0,0,-1,734,988,0,0
-483,36,0,0,0,0,0,0,0,0,0,-1,741,988,0,0
-476,36,0,0,0,0,0,0,0,0,0,-1,748,988,0,0
-469,36,0,0,0,0,0,0,0,0,0,-1,755,988,0,0
-462,36,0,0,0,0,0,0,0,0,0,-1,762,988,0,0
-455,36,0,0,0,0,0,0,0,0,0,-1,769,988,0,0
-448,36,0,0,0,0,0,0,0,0,0,-1,776,988,0,0
-441,36,0,0,0,0,0,0,0,0,0,-1,783,988,0,0
-434,36,0,0,0,0,0,0,0,0,0,-1,790,988,0,0
-427,36,0,0,0,0,0,0,0,0,0,-1,797,988,0,0
-420,36,0,0,0,0,0,0,0,0,0,-1,804,988,0,0
-413,36,0,0,0,0,0,0,0,0,0,-1,811,988,0,0
-406,36,0,0,0,0,0,0,0,0,0,-1,818,988,0,0
-399,36,0,0,0,0,0,0,0,0,0,-1,825,988,0,0
-392,36,0,0,0,0,0,0,0,0,0,-1,832,988,0,0
-385,36,0,0,0,0,0,0,0,0,0,-1,839,988,0,0
-378,36,0,0,0,0,0,0,0,0,0,-1,846,988,0,0
-371,36,0,0,0,0,0,0,0,0,0,-1,853,988,0,0
-364,36,0,0,0,0,0,0,0,0,0,-1,860,988,0,0
-357,36,0,0,0,0,0,0,0,0,0,-1,867,988,0,0
-350,36,0,0,0,0,0,0,0,0,0,-1,874,988,0,0
-343,36,0,0,0,0,0,0,0,0,0,-1,881,988,0,0
-336,36,0,0,0,0,0,0,0,0,0,-1,888,988,0,0
-329,36,0,0,0,0,0,0,0,0,0,-1,895,988,0,0
-322,36,0,0,0,0,0,0,0,0,0,-1,902,988,0,0
-315,36,0,0,0,0,0,0,0,0,0,-1,909,988,0,0
-308,36,0,0,0,0,0,0,0,0,0,-1,916,988,0,0
-301,36,0,0,0,0,0,0,0,0,0,-1,923,988,0,0
-294,36,0,0,0,0,0,0,0,0,0,-1,930,988,0,0
-287,36,0,0,0,0,0,0,0,0,0,-1,937,988,0,0
-280,36,0,0,0,0,0,0,0,0,0,-1,944,988,0,0
-273,36,0,0,0,0,0,0,0,0,0,-1,951,988,0,0
-266,36,0,0,0,0,0,0,0,0,0,-1,958,988,0,0
-259,36,0,0,0,0,0,0,0,0,0,-1,965,988,0,0
-252,36,0,0,0,0,0,0,0,0,0,-1,972,988,0,0
-245,36,0,0,0,0,0,0,0,0,0,-1,979,988,0,0
-238,36,0,0,0,0,0,0,0,0,0,-1,986,988,0,0
-231,36,0,0,0,0,0,0,0,0,0,-1,993,988,0,0
-224,36,0,0,0,0,0,0,0,0,0,-1,1000,988,0,0
-217,36,0,0,0,0,0,0,0,0,0,-1,1007,988,0,0
-210,36,0,0,0,0,0,0,0,0,0,-1,1014,988,0,0
-203,36,0,0,0,0,0,0,0,0,0,-1,1021,988,0,0
-196,36,0,0,0,0,0,0,0,0,0,-1,1028,988,0,0
-189,36,0,0,0,0,0,0,0,0,0,-1,1035,988,0,0
-182,36,0,0,0,0,0,0,0,0,0,-1,1042,988,0,0
-175,36,0,0,0,0,0,0,0,0,0,-1,1049,988,0,0
-168,36,0,0,0,0,0,0,0,0,0,-1,1056,988,0,0
-161,36,0,0,0,0,0,0,0,0,0,-1,1063,988,0,0
-154,36,0,0,0,0,0,0,0,0,0,-1,1070,988,0,0
-147,36,0,0,0,0,0,0,0,0,0,-1,1077,988,0,0
-140,36,0,0,0,0,0,0,0,0,0,-1,1084,988,0,0
-133,36,0,0,0,0,0,0,0,0,0,-1,1091,988,0,0
-126,36,0,0,0,0,0,0,0,0,0,-1,1098,988,0,0
-119,36,0,0,0,0,0,0,0,0,0,-1,1105,988,0,0
-112,36,0,0,0,0,0,0,0,0,0,-1,1112,988,0,0
-105,36,0,0,0,0,0,0,0,0,0,-1,1119,988,0,0
-98,36,0,0,0,0,0,0,0,0,0,-1,1126,988,0,0
-91,36,0,0,0,0,0,0,0,0,0,-1,1133,988,0,0
-84,36,0,0,0,0,0,0,0,0,0,-1,1140,988,0,0
-77,36,0,0,0,0,0,0,0,0,0,-1,1147,988,0,0
-70,36,0,0,0,0,0,0,0,0,0,-1,1154,988,0,0
-63,36,0,0,0,0,0,0,0,0,0,-1,1161,988,0,0
-56,36,0,0,0,0,0,0,0,0,0,-1,1168,988,0,0
-49,36,0,0,0,0,0,0,0,0,0,-1,1175,988,0,0
-42,36,0,0,0,0,0,0,0,0,0,-1,1182,988,0,0
-35,36,0,0,0,0,0,0,0,0,0,-1,1189,988,0,0
-28,36,0,0,0,0,0,0,0,0,0,-1,1196,988,0,0
-21,36,0,0,0,0,0,0,0,0,0,-1,1203,988,0,0
-14,36,0,0,0,0,0,0,0,0,0,-1,1210,988,0,0
-7,36,0,0,0,0,0,0,0,0,0,-1,1217,988,0,0
0,36,0,0,0,0,0,0,0,0,0,-1,1224,988,0,0
7,36,0,0,0,0,0,0,0,0,0,-1,1231,988,0,0
14,36,0,0,0,0,0,0,0,0,0,-1,1238,988,0,0
21,36,0,0,0,0,0,0,0,0,0,-1,1245,988,0,0
28,36,0,0,0,0,0,0,0,0,0,-1,1252,988,0,0
35,36,0,0,0,0,0,0,0,0,0,-1,1259,988,0,0
42,36,0,0,0,0,0,0,0,0,0,-1,1266,988,0,0
49,36,0,0,0,0,0,0,0,0,0,-1,1273,988,0,0
56,36,0,0,0,0,0,0,0,0,0,-1,1280,988,0,0
63,36,0,0,0,0,0,0,0,0,0,-1,1287,988,0,0
70,36,0,0,0,0,0,0,0,0,0,-1,1294,988,0,0
77,36,0,0,0,0,0,0,0,0,0,-1,1301,988,0,0
84,36,0,0,0,0,0,0,0,0,0,-1,1308,988,0,0
91,36,0,0,0,0,0,0,0,0,0,-1,1315,988,0,0
98,36,0,0,0,0,0,0,0,0,0,-1,1322,988,0,0
105,36,0,0,0,0,0,0,0,0,0,-1,1329,988,0,0
112,36,0,0,0,0,0,0,0,0,0,-1,1336,988,0,0
119,36,0,0,0,0,0,0,0,0,0,-1,1343,988,0,0
126,36,0,0,0,0,0,0,0,0,0,-1,1350,988,0,0
133,36,0,0,0,0,0,0,0,0,0,-1,1357,988,0,0
140,36,0,0,0,0,0,0,0,0,0,-1,1364,988,0,0
147,36,0,0,0,0,0,0,0,0,0,-1,1371,988,0,0
154,36,0,0,0,0,0,0,0,0,0,-1,1378,988,0,0
161,36,0,0,0,0,0,0,0,0,0,-1,1385,988,0,0
168,36,0,0,0,0,0,0,0,0,0,-1,1392,988,0,0
175,36,0,0,0,0,0,0,0,0,0,-1,1399,988,0,0
182,36,0,0,0,0,0,0,0,0,0,-1,1406,988,0,0
189,36,0,0,0,0,0,0,0,0,0,-1,1413,988,0,0
196,36,0,0,0,0,0,0,0,0,0,-1,1420,988,0,0
203,36,0,0,0,0,0,0,0,0,0,-1,1427,988,0,0
210,36,0,0,0,0,0,0,0,0,0,-1,1434,988,0,0
217,36,0,0,0,0,0,0,0,0,0,-1,1441,988,0,0
224,36,0,0,0,0,0,0,0,0,0,-1,1448,988,0,0
231,36,0,0,0,0,0,0,0,0,0,-1,1455,988,0,0
238,36,0,0,0,0,0,0,0,0,0,-1,1462,988,0,0
245,36,0,0,0,0,0,0,0,0,0,-1,1469,988,0,0
252,36,0,0,0,0,0,0,0,0,0,-1,1476,988,0,0
259,36,0,0,0,0,0,0,0,0,0,-1,1483,988,0,0
266,36,0,0,0,0,0,0,0,0,0,-1,1490,988,0,0
273,36,0,0,0,0,0,0,0,0,0,-1,1497,988,0,0
280,36,0,0,0,0,0,0,0,0,0,-1,1504,988,0,0
287,36,0,0,0,0,0,0,0,0,0,-1,1511,988,0,0
294,36,0,0,0,0,0,0,0,0,0,-1,1518,988,0,0
301,36,0,0,0,0,0,0,0,0,0,-1,1525,988,0,0
308,36,0,0,0,0,0,0,0,0,0,-1,1532,988,0,0
315,36,0,0,0,0,0,0,0,0,0,-1,1539,988,0,0
322,36,0,0,0,0,0,0,0,0,0,-1,1546,988,0,0
329,36,0,0,0,0,0,0,0,0,0,-1,1553,988,0,0
336,36,0,0,0,0,0,0,0,0,0,-1,1560,988,0,0
343,36,0,0,0,0,0,0,0,0,0,-1,1567,988,0,0
350,36,0,0,0,0,0,0,0,0,0,-1,1574,988,0,0
357,36,0,0,0,0,0,0,0,0,0,-1,1581,988,0,0
364,36,0,0,0,0,0,0,0,0,0,-1,1588,988,0,0
371,36,0,0,0,0,0,0,0,0,0,-1,1595,988,0,0
378,36,0,0,0,0,0,0,0,0,0,-1,1602,988,0,0
385,36,0,0,0,0,0,0,0,0,0,-1,1609,988,0,0
392,36,0,0,0,0,0,0,0,0,0,-1,1616,988,0,0
399,36,0,0,0,0,0,0,0,0,0,-1,1623,988,0,0
406,36,0,0,0,0,0,0,0,0,0,-1,1630,988,0,0
413,36,0,0,0,0,0,0,0,0,0,-1,1637,988,0,0
420,36,0,0,0,0,0,0,0,0,0,-1,1644,988,0,0
427,36,0,0,0,0,0,0,0,0,0,-1,1651,988,0,0
434,36,0,0,0,0,0,0,0,0,0,-1,1658,988,0,0
441,36,0,0,0,0,0,0,0,0,0,-1,1665,988,0,0
448,36,0,0,0,0,0,0,0,0,0,-1,1672,988,0,0
455,36,0,0,0,0,0,0,0,0,0,-1,1679,988,0,0
462,36,0,0,0,0,0,0,0,0,0,-1,1686,988,0,0
469,36,0,0,0,0,0,0,0,0,0,-1,1693,988,0,0
476,36,0,0,0,0,0,0,0,0,0,-1,1700,988,0,0
483,36,0,0,0,0,0,0,0,0,0,-1,1707,988,0,0
490,36,0,0,0,0,0,0,0,0,0,-1,1714,988,0,0
497,36,0,0,0,0,0,0,0,0,0,-1,1721,988,0,0
504,36,0,0,0,0,0,0,0,0,0,-1,1728,988,0,0
511,36,0,0,0,0,0,0,0,0,0,-1,1735,988,0,0
518,36,0,0,0,0,0,0,0,0,0,-1,1742,988,0,0
525,36,0,0,0,0,0,0,0,0,0,-1,1749,988,0,0
532,36,0,0,0,0,0,0,0,0,0,-1,1756,988,0,0
539,36,0,0,0,0,0,0,0,0,0,-1,1763,988,0,0
546,36,0,0,0,0,0,0,0,0,0,-1,1770,988,0,0
553,36,0,0,0,0,0,0,0,0,0,-1,1777,988,0,0
560,36,0,0,0,0,0,0,0,0,0,-1,1784,988,0,0
567,36,0,0,0,0,0,0,0,0,0,-1,1791,988,0,0
574,36,0,0,0,0,0,0,0,0,0,-1,1798,988,0,0
581,36,0,0,0,0,0,0,0,0,0,-1,1805,988,0,0
588,36,0,0,0,0,0,0,0,0,0,-1,1812,988,0,0
595,36,0,0,0,0,0,0,0,0,0,-1,1819,988,0,0
602,36,0,0,0,0,0,0,0,0,0,-1,1826,988,0,0
609,36,0,0,0,0,0,0,0,0,0,-1,1833,988,0,0
616,36,0,0,0,0,0,0,0,0,0,-1,1840,988,0,0
623,36,0,0,0,0,0,0,0,0,0,-1,1847,988,0,0
630,36,0,0,0,0,0,0,0,0,0,-1,1854,988,0,0
637,36,0,0,0,0,0,0,0,0,0,-1,1861,988,0,0
644,36,70.9644,2.20923,-0.000175721,-0.00246242,-0.00250337,0.00143304,-0.00407118,-0.571183,0.00329729,0.0415429,1868,988,70.9643,-2.20925
651,36,70.9292,2.32611,-0.000162145,-0.00181886,-0.00217378,0.00133576,-0.00331677,-0.603358,0.00276611,0.0414753,1875,988,70.9292,-2.32611
658,36,71.0698,2.09857,-0.000198074,-0.00145743,-0.00162889,0.000918604,-0.00257411,-0.60096,0.00209066,0.041392,1882,988,71.0698,-2.09855
665,36,71.1549,2.03156,-0.0002489,-0.000941439,-0.000955131,0.000420792,-0.00161113,-0.611499,0.00123841,0.039972,1889,988,71.1549,-2.03157
672,36,71.1729,1.94482,-0.000343166,-0.000446118,-0.00022035,-0.000168359,-0.000620925,-0.670651,0.000370797,0.0401101,1896,988,71.1728,-1.94484
679,36,71.1031,1.95245,-0.000400151,-0.000193247,0.000510785,0.000224457,-0.000817855,0.885314,0.000633453,0.0417092,1903,988,71.1031,-1.95246
686,36,71.0054,2.12653,-0.000324187,-0.000295532,0.000959802,0.00065005,-0.00126977,0.792861,0.00112749,0.0376461,1910,988,71.0054,-2.1265
693,36,71.0237,2.26758,-0.000319957,-0.000526012,0.00114989,0.000731507,-0.00157748,0.740718,0.00136259,0.0373785,1917,988,71.0237,-2.26756
700,36,70.9917,2.30261,-0.000524013,-0.000467115,0.001028,0.000532826,-0.00152395,0.799232,0.00123258,0.0342783,1924,988,70.9916,-2.30259
707,36,71.0786,2.16162,-0.00104782,-2.5442e-05,0.000759802,0.000379126,-0.00145239,1.08151,0.00111631,0.0240994,1931,988,71.0786,-2.1616
714,36,71.0747,2.15515,0,0,0,0,0,0,0,-1,1938,988,71.0748,-2.15518
721,36,70.4866,5.53687,0,0,0,0,0,0,0,-1,1945,988,70.4866,-5.53685
728,36,70.5199,5.98914,-0.00454575,0.00374006,-0.00031452,0.00375198,-0.00455767,-1.53291,0.00480509,0.0231779,1952,988,70.5199,-5.98915
735,36,70.5735,6.40759,-0.00566969,0.00575017,-0.000834952,0.00581089,-0.00573041,-1.4982,0.00666343,0.0208237,1959,988,70.5735,-6.4076
742,36,70.5216,6.65063,-0.00734549,0.00798707,-0.00140818,0.00811533,-0.00747375,-1.47997,0.0090029,0.0170337,1966,988,70.5216,-6.65065
749,36,70.4778,6.97131,-0.00910577,0.0110359,-0.00191703,0.0112167,-0.0092866,-1.47674,0.0118551,0.0183647,1973,988,70.4778,-6.97134
756,36,70.4375,7.24969,-0.0106758,0.0149036,-0.00235755,0.0151191,-0.0108913,-1.47965,0.0150831,0.018055,1980,988,70.4374,-7.24968
763,36,70.3269,7.44702,-0.0121851,0.0200504,-0.00267993,0.0202717,-0.0124064,-1.48841,0.019048,0.0211335,1987,988,70.327,-7.44702
770,36,70.2432,7.72382,-0.0127003,0.0264743,-0.00272111,0.0266624,-0.0128884,-1.50178,0.0232917,0.0168006,1994,988,70.2432,-7.72382
777,36,70.2676,8.10455,-0.011931,0.0331021,-0.00249466,0.0332398,-0.0120687,-1.51563,0.0270941,0.0257313,2001,988,70.2676,-8.10458
784,36,70.2148,8.39874,-0.0092493,0.0396715,-0.00190273,0.0397454,-0.00932319,-1.53198,0.03009,0.0471733,2008,988,70.2149,-8.39873
791,36,70.1128,8.73676,0,0,0,0,0,0,0,-1,2015,988,70.1129,-8.73673
798,36,70.1179,9.19403,0,0,0,0,0,0,0,-1,2022,988,70.118,-9.19403
805,36,69.0703,8.34436,0,0,0,0,0,0,0,-1,2029,988,69.0704,-8.34439
812,36,66.1145,5.13074,0,0,0,0,0,0,0,-1,2036,988,66.1145,-5.13077
-700,29,0,0,0,0,0,0,0,0,0,-1,524,995,0,0
-693,29,-61.061,2.86884,-0.00552787,0.102192,0.0304131,0.110186,-0.0135214,1.31378,0.0783543,0.0440396,531,995,-61.061,-2.86885
-686,29,-61.9388,4.20416,0,0,0,0,0,0,0,-1,538,995,-61.9388,-4.20415
-679,29,-63.3719,5.64526,0,0,0,0,0,0,0,-1,545,995,-63.3719,-5.64529
-672,29,-64.7232,7.0658,0,0,0,0,0,0,0,-1,552,995,-64.7232,-7.06582
-665,29,-56.7872,2.3208,0,0,0,0,0,0,0,-1,559,995,-56.7872,-2.3208
-658,29,-56.4618,2.64648,0,0,0,0,0,0,0,-1,566,995,-56.4618,-2.6465
-651,29,-54.9119,5.20502,0,0,0,0,0,0,0,-1,573,995,-54.9119,-5.20505
-644,29,-55.4534,5.44415,-0.014118,0.0411564,0.00968802,0.0428052,-0.0157668,1.40222,0.034997,0.0460951,580,995,-55.4533,-5.44412
-637,29,-55.7802,5.57111,-0.0132542,0.0320113,0.00761139,0.0332569,-0.0144998,1.40859,0.0282723,0.0283605,587,995,-55.7802,-5.57108
-630,29,-55.7819,5.54596,-0.0125481,0.0231974,0.00530112,0.023967,-0.0133177,1.42663,0.0218171,0.0156166,594,995,-55.7819,-5.54597
-623,29,-55.787,5.43768,-0.0107113,0.0161935,0.00265199,0.0164524,-0.0109702,1.47347,0.0159376,0.0140314,601,995,-55.787,-5.43771
-616,29,-55.8307,5.22479,-0.00756042,0.00993501,-0.00140268,0.0100468,-0.00767217,-1.4913,0.0102606,0.0165339,608,995,-55.8308,-5.22481
-609,29,-55.765,5.12097,-0.00375196,0.00541004,-0.00665854,0.00891123,-0.00725315,-1.08671,0.00934886,0.0266909,615,995,-55.765,-5.121
-602,29,-55.9372,4.9079,-6.89787e-05,0.00254775,-0.0137344,0.015036,-0.0125572,-0.832886,0.0159523,0.0280142,622,995,-55.9372,-4.90793
-595,29,-56.2142,4.578,0.00251945,0.00199915,-0.0221881,0.0244489,-0.0199303,-0.779536,0.0256666,0.0281316,629,995,-56.2142,-4.57801
-588,29,-56.4551,4.2439,0,0,0,0,0,0,0,-1,636,995,-56.4552,-4.24389
-581,29,-54.533,0.534851,0,0,0,0,0,0,0,-1,643,995,-54.533,-0.534858
-574,29,-54.5901,0.421143,0,0,0,0,0,0,0,-1,650,995,-54.5901,-0.421156
-567,29,-54.6944,0.324097,0,0,0,0,0,0,0,-1,657,995,-54.6944,-0.324106
-560,29,-54.6413,0.183594,0,0,0,0,0,0,0,-1,664,995,-54.6413,-0.183619
-553,29,-54.5597,0.013855,0,0,0,0,0,0,0,-1,671,995,-54.5597,-0.0138325
-546,29,-54.6663,0.260986,0,0,0,0,0,0,0,-1,678,995,-54.6663,-0.261015
-539,29,-54.667,0.652283,0,0,0,0,0,0,0,-1,685,995,-54.667,-0.652277
-532,29,-54.4798,0.623779,0,0,0,0,0,0,0,-1,692,995,-54.4798,-0.623798
-525,29,-54.6379,0.622498,0,0,0,0,0,0,0,-1,699,995,-54.638,-0.622476
-518,29,0,0,0,0,0,0,0,0,0,-1,706,995,0,0
-511,29,0,0,0,0,0,0,0,0,0,-1,713,995,0,0
-504,29,0,0,0,0,0,0,0,0,0,-1,720,995,0,0
-497,29,0,0,0,0,0,0,0,0,0,-1,727,995,0,0
-490,29,0,0,0,0,0,0,0,0,0,-1,734,995,0,0
-483,29,0,0,0,0,0,0,0,0,0,-1,741,995,0,0
-476,29,0,0,0,0,0,0,0,0,0,-1,748,995,0,0
-469,29,0,0,0,0,0,0,0,0,0,-1,755,995,0,0
-462,29,0,0,0,0,0,0,0,0,0,-1,762,995,0,0
-455,29,0,0,0,0,0,0,0,0,0,-1,769,995,0,0
-448,29,0,0,0,0,0,0,0,0,0,-1,776,995,0,0
-441,29,0,0,0,0,0,0,0,0,0,-1,783,995,0,0
-434,29,0,0,0,0,0,0,0,0,0,-1,790,995,0,0
-427,29,0,0,0,0,0,0,0,0,0,-1,797,995,0,0
-420,29,0,0,0,0,0,0,0,0,0,-1,804,995,0,0
-413,29,0,0,0,0,0,0,0,0,0,-1,811,995,0,0
-406,29,0,0,0,0,0,0,0,0,0,-1,818,995,0,0
-399,29,0,0,0,0,0,0,0,0,0,-1,825,995,0,0
-392,29,0,0,0,0,0,0,0,0,0,-1,832,995,0,0
-385,29,0,0,0,0,0,0,0,0,0,-1,839,995,0,0
-378,29,0,0,0,0,0,0,0,0,0,-1,846,995,0,0
-371,29,0,0,0,0,0,0,0,0,0,-1,853,995,0,0
-364,29,0,0,0,0,0,0,0,0,0,-1,860,995,0,0
-357,29,0,0,0,0,0,0,0,0,0,-1,867,995,0,0
-350,29,0,0,0,0,0,0,0,0,0,-1,874,995,0,0
-343,29,0,0,0,0,0,0,0,0,0,-1,881,995,0,0
-336,29,0,0,0,0,0,0,0,0,0,-1,888,995,0,0
-329,29,0,0,0,0,0,0,0,0,0,-1,895,995,0,0
-322,29,0,0,0,0,0,0,0,0,0,-1,902,995,0,0
-315,29,0,0,0,0,0,0,0,0,0,-1,909,995,0,0
-308,29,0,0,0,0,0,0,0,0,0,-1,916,995,0,0
-301,29,0,0,0,0,0,0,0,0,0,-1,923,995,0,0
-294,29,0,0,0,0,0,0,0,0,0,-1,930,995,0,0
-287,29,0,0,0,0,0,0,0,0,0,-1,937,995,0,0
-280,29,0,0,0,0,0,0,0,0,0,-1,944,995,0,0
-273,29,0,0,0,0,0,0,0,0,0,-1,951,995,0,0
-266,29,0,0,0,0,0,0,0,0,0,-1,958,995,0,0
-259,29,0,0,0,0,0,0,0,0,0,-1,965,995,0,0
-252,29,0,0,0,0,0,0,0,0,0,-1,972,995,0,0
-245,29,0,0,0,0,0,0,0,0,0,-1,979,995,0,0
-238,29,0,0,0,0,0,0,0,0,0,-1,986,995,0,0
-231,29,0,0,0,0,0,0,0,0,0,-1,993,995,0,0
-224,29,0,0,0,0,0,0,0,0,0,-1,1000,995,0,0
-217,29,0,0,0,0,0,0,0,0,0,-1,1007,995,0,0
-210,29,0,0,0,0,0,0,0,0,0,-1,1014,995,0,0
-203,29,0,0,0,0,0,0,0,0,0,-1,1021,995,0,0
-196,29,0,0,0,0,0,0,0,0,0,-1,1028,995,0,0
-189,29,0,0,0,0,0,0,0,0,0,-1,1035,995,0,0
-182,29,0,0,0,0,0,0,0,0,0,-1,1042,995,0,0
-175,29,0,0,0,0,0,0,0,0,0,-1,1049,995,0,0
-168,29,0,0,0,0,0,0,0,0,0,-1,1056,995,0,0
-161,29,0,0,0,0,0,0,0,0,0,-1,1063,995,0,0
-154,29,0,0,0,0,0,0,0,0,0,-1,1070,995,0,0
-147,29,0,0,0,0,0,0,0,0,0,-1,1077,995,0,0
-140,29,0,0,0,0,0,0,0,0,0,-1,1084,995,0,0
-133,29,0,0,0,0,0,0,0,0,0,-1,1091,995,0,0
-126,29,0,0,0,0,0,0,0,0,0,-1,1098,995,0,0
-119,29,0,0,0,0,0,0,0,0,0,-1,1105,995,0,0
-112,29,0,0,0,0,0,0,0,0,0,-1,1112,995,0,0
-105,29,0,0,0,0,0,0,0,0,0,-1,1119,995,0,0
-98,29,0,0,0,0,0,0,0,0,0,-1,1126,995,0,0
-91,29,0,0,0,0,0,0,0,0,0,-1,1133,995,0,0
-84,29,0,0,0,0,0,0,0,0,0,-1,1140,995,0,0
-77,29,0,0,0,0,0,0,0,0,0,-1,1147,995,0,0
-70,29,0,0,0,0,0,0,0,0,0,-1,1154,995,0,0
-63,29,0,0,0,0,0,0,0,0,0,-1,1161,995,0,0
-56,29,0,0,0,0,0,0,0,0,0,-1,1168,995,0,0
-49,29,0,0,0,0,0,0,0,0,0,-1,1175,995,0,0
-42,29,0,0,0,0,0,0,0,0,0,-1,1182,995,0,0
-35,29,0,0,0,0,0,0,0,0,0,-1,1189,995,0,0
-28,29,0,0,0,0,0,0,0,0,0,-1,1196,995,0,0
-21,29,0,0,0,0,0,0,0,0,0,-1,1203,995,0,0
-14,29,0,0,0,0,0,0,0,0,0,-1,1210,995,0,0
-7,29,0,0,0,0,0,0,0,0,0,-1,1217,995,0,0
0,29,0,0,0,0,0,0,0,0,0,-1,1224,995,0,0
7,29,0,0,0,0,0,0,0,0,0,-1,1231,995,0,0
14,29,0,0,0,0,0,0,0,0,0,-1,1238,995,0,0
21,29,0,0,0,0,0,0,0,0,0,-1,1245,995,0,0
28,29,0,0,0,0,0,0,0,0,0,-1,1252,995,0,0
35,29,0,0,0,0,0,0,0,0,0,-1,1259,995,0,0
42,29,0,0,0,0,0,0,0,0,0,-1,1266,995,0,0
49,29,0,0,0,0,0,0,0,0,0,-1,1273,995,0,0
56,29,0,0,0,0,0,0,0,0,0,-1,1280,995,0,0
63,29,0,0,0,0,0,0,0,0,0,-1,1287,995,0,0
70,29,0,0,0,0,0,0,0,0,0,-1,1294,995,0,0
77,29,0,0,0,0,0,0,0,0,0,-1,1301,995,0,0
84,29,0,0,0,0,0,0,0,0,0,-1,1308,995,0,0
91,29,0,0,0,0,0,0,0,0,0,-1,1315,995,0,0
98,29,0,0,0,0,0,0,0,0,0,-1,1322,995,0,0
105,29,0,0,0,0,0,0,0,0,0,-1,1329,995,0,0
112,29,0,0,0,0,0,0,0,0,0,-1,1336,995,0,0
119,29,0,0,0,0,0,0,0,0,0,-1,1343,995,0,0
126,29,0,0,0,0,0,0,0,0,0,-1,1350,995,0,0
133,29,0,0,0,0,0,0,0,0,0,-1,1357,995,0,0
140,29,0,0,0,0,0,0,0,0,0,-1,1364,995,0,0
147,29,0,0,0,0,0,0,0,0,0,-1,1371,995,0,0
154,29,0,0,0,0,0,0,0,0,0,-1,1378,995,0,0
161,29,0,0,0,0,0,0,0,0,0,-1,1385,995,0,0
168,29,0,0,0,0,0,0,0,0,0,-1,1392,995,0,0
175,29,0,0,0,0,0,0,0,0,0,-1,1399,995,0,0
182,29,0,0,0,0,0,0,0,0,0,-1,1406,995,0,0
189,29,0,0,0,0,0,0,0,0,0,-1,1413,995,0,0
196,29,0,0,0,0,0,0,0,0,0,-1,1420,995,0,0
203,29,0,0,0,0,0,0,0,0,0,-1,1427,995,0,0
210,29,0,0,0,0,0,0,0,0,0,-1,1434,995,0,0
217,29,0,0,0,0,0,0,0,0,0,-1,1441,995,0,0
224,29,0,0,0,0,0,0,0,0,0,-1,1448,995,0,0
231,29,0,0,0,0,0,0,0,0,0,-1,1455,995,0,0
238,29,0,0,0,0,0,0,0,0,0,-1,1462,995,0,0
245,29,0,0,0,0,0,0,0,0,0,-1,1469,995,0,0
252,29,0,0,0,0,0,0,0,0,0,-1,1476,995,0,0
259,29,0,0,0,0,0,0,0,0,0,-1,1483,995,0,0
266,29,0,0,0,0,0,0,0,0,0,-1,1490,995,0,0
273,29,0,0,0,0,0,0,0,0,0,-1,1497,995,0,0
280,29,0,0,0,0,0,0,0,0,0,-1,1504,995,0,0
287,29,0,0,0,0,0,0,0,0,0,-1,1511,995,0,0
294,29,0,0,0,0,0,0,0,0,0,-1,1518,995,0,0
301,29,0,0,0,0,0,0,0,0,0,-1,1525,995,0,0
308,29,0,0,0,0,0,0,0,0,0,-1,1532,995,0,0
315,29,0,0,0,0,0,0,0,0,0,-1,1539,995,0,0
322,29,0,0,0,0,0,0,0,0,0,-1,1546,995,0,0
329,29,0,0,0,0,0,0,0,0,0,-1,1553,995,0,0
336,29,0,0,0,0,0,0,0,0,0,-1,1560,995,0,0
343,29,0,0,0,0,0,0,0,0,0,-1,1567,995,0,0
350,29,0,0,0,0,0,0,0,0,0,-1,1574,995,0,0
357,29,0,0,0,0,0,0,0,0,0,-1,1581,995,0,0
364,29,0,0,0,0,0,0,0,0,0,-1,1588,995,0,0
371,29,0,0,0,0,0,0,0,0,0,-1,1595,995,0,0
378,29,0,0,0,0,0,0,0,0,0,-1,1602,995,0,0
385,29,0,0,0,0,0,0,0,0,0,-1,1609,995,0,0
392,29,0,0,0,0,0,0,0,0,0,-1,1616,995,0,0
399,29,0,0,0,0,0,0,0,0,0,-1,1623,995,0,0
406,29,0,0,0,0,0,0,0,0,0,-1,1630,995,0,0
413,29,0,0,0,0,0,0,0,0,0,-1,1637,995,0,0
420,29,0,0,0,0,0,0,0,0,0,-1,1644,995,0,0
427,29,0,0,0,0,0,0,0,0,0,-1,1651,995,0,0
434,29,0,0,0,0,0,0,0,0,0,-1,1658,995,0,0
441,29,0,0,0,0,0,0,0,0,0,-1,1665,995,0,0
448,29,0,0,0,0,0,0,0,0,0,-1,1672,995,0,0
455,29,0,0,0,0,0,0,0,0,0,-1,1679,995,0,0
462,29,0,0,0,0,0,0,0,0,0,-1,1686,995,0,0
469,29,0,0,0,0,0,0,0,0,0,-1,1693,995,0,0
476,29,0,0,0,0,0,0,0,0,0,-1,1700,995,0,0
483,29,0,0,0,0,0,0,0,0,0,-1,1707,995,0,0
490,29,0,0,0,0,0,0,0,0,0,-1,1714,995,0,0
497,29,0,0,0,0,0,0,0,0,0,-1,1721,995,0,0
504,29,0,0,0,0,0,0,0,0,0,-1,1728,995,0,0
511,29,0,0,0,0,0,0,0,0,0,-1,1735,995,0,0
518,29,0,0,0,0,0,0,0,0,0,-1,1742,995,0,0
525,29,0,0,0,0,0,0,0,0,0,-1,1749,995,0,0
532,29,0,0,0,0,0,0,0,0,0,-1,1756,995,0,0
539,29,0,0,0,0,0,0,0,0,0,-1,1763,995,0,0
546,29,0,0,0,0,0,0,0,0,0,-1,1770,995,0,0
553,29,0,0,0,0,0,0,0,0,0,-1,1777,995,0,0
560,29,0,0,0,0,0,0,0,0,0,-1,1784,995,0,0
567,29,0,0,0,0,0,0,0,0,0,-1,1791,995,0,0
574,29,0,0,0,0,0,0,0,0,0,-1,1798,995,0,0
581,29,0,0,0,0,0,0,0,0,0,-1,1805,995,0,0
588,29,0,0,0,0,0,0,0,0,0,-1,1812,995,0,0
595,29,0,0,0,0,0,0,0,0,0,-1,1819,995,0,0
602,29,0,0,0,0,0,0,0,0,0,-1,1826,995,0,0
609,29,0,0,0,0,0,0,0,0,0,-1,1833,995,0,0
616,29,0,0,0,0,0,0,0,0,0,-1,1840,995,0,0
623,29,0,0,0,0,0,0,0,0,0,-1,1847,995,0,0
630,29,0,0,0,0,0,0,0,0,0,-1,1854,995,0,0
637,29,0,0,0,0,0,0,0,0,0,-1,1861,995,0,0
644,29,71.0392,2.34656,0,0,0,0,0,0,0,-1,1868,995,71.0392,-2.34653
651,29,70.8274,2.54858,0,0,0,0,0,0,0,-1,1875,995,70.8274,-2.54856
658,29,70.983,2.31494,0.000182498,-0.00210497,-0.00154276,0.000959244,-0.00288172,-0.466425,0.00230832,0.0458374,1882,995,70.9831,-2.31492
665,29,71.097,2.15027,-6.72646e-05,-0.00149081,-0.000943094,0.000402507,-0.00196058,-0.46214,0.00145984,0.0425249,1889,995,71.0971,-2.15029
672,29,71.0293,2.04553,-0.000265668,-0.000906193,-0.000306395,-0.000142708,-0.00102915,-0.381637,0.000643826,0.0396892,1896,995,71.0294,-2.04555
679,29,70.9237,2.10785,-0.000335429,-0.00051218,0.000326738,-8.53257e-05,-0.000762283,0.653319,0.000482269,0.0386044,1903,995,70.9237,-2.10782
686,29,70.8892,2.34052,-0.000284539,-0.000494954,0.000713586,0.000331554,-0.00111105,0.712208,0.000872474,0.0356441,1910,995,70.8892,-2.3405
693,29,71.0358,2.35449,-0.000272087,-0.000627117,0.000880629,0.000448741,-0.00134794,0.685942,0.00107975,0.0362957,1917,995,71.0357,-2.35447
700,29,71.0614,2.28015,-0.000405797,-0.000533281,0.000777629,0.000310698,-0.00124978,0.744505,0.000953771,0.0345045,1924,995,71.0614,-2.28015
707,29,71.0465,2.20349,-0.000951011,-4.62422e-05,0.000564485,0.000224765,-0.00122202,1.1232,0.000899015,0.021679,1931,995,71.0465,-2.20352
714,29,70.9838,2.58435,0,0,0,0,0,0,0,-1,1938,995,70.9837,-2.58436
721,29,69.4491,5.99884,0,0,0,0,0,0,0,-1,1945,995,69.4491,-5.99887
728,29,70.7063,6.0863,0,0,0,0,0,0,0,-1,1952,995,70.7063,-6.08632
735,29,70.821,6.48004,-0.00592223,0.00595333,-0.000897273,0.00602075,-0.00598964,-1.49581,0.00693421,0.0186467,1959,995,70.8211,-6.48006
742,29,70.7888,6.67017,-0.00766108,0.00805564,-0.00138241,0.0081763,-0.00778175,-1.48373,0.00921432,0.0157812,1966,995,70.7888,-6.67016
749,29,70.7405,6.92828,-0.00956937,0.0109267,-0.00180506,0.0110844,-0.00972712,-1.48362,0.0120241,0.0162733,1973,995,70.7405,-6.92831
756,29,70.7,7.1803,-0.0113915,0.0146011,-0.00223033,0.0147911,-0.0115815,-1.48582,0.0152637,0.0147476,1980,995,70.6999,-7.18028
763,29,70.6318,7.31812,-0.0132242,0.0195034,-0.00263284,0.0197139,-0.0134346,-1.49103,0.0192524,0.0125281,1987,995,70.6318,-7.3181
770,29,70.5242,7.44702,-0.0141719,0.0257239,-0.00282815,0.0259234,-0.0143714,-1.50038,0.0235808,0.0177197,1994,995,70.5242,-7.44703
777,29,70.3306,7.73572,-0.013813,0.0321325,-0.0028079,0.0323034,-0.013984,-1.50998,0.0274129,0.031182,2001,995,70.3306,-7.73572
784,29,70.0239,7.93842,-0.0115796,0.0383406,-0.00247571,0.0384631,-0.0117021,-1.52136,0.0303054,0.0476522,2008,995,70.024,-7.93841
791,29,69.7478,8.1037,0,0,0,0,0,0,0,-1,2015,995,69.7478,-8.10371
798,29,69.6287,8.31696,0,0,0,0,0,0,0,-1,2022,995,69.6287,-8.31694
805,29,66.3442,5.29028,0,0,0,0,0,0,0,-1,2029,995,66.3442,-5.29026
812,29,66.1416,4.3512,0,0,0,0,0,0,0,-1,2036,995,66.1415,-4.35118
-700,22,0,0,0,0,0,0,0,0,0,-1,524,1002,0,0
-693,22,-60.3009,2.38892,0,0,0,0,0,0,0,-1,531,1002,-60.3009,-2.38892
-686,22,-60.9944,3.37305,0,0,0,0,0,0,0,-1,538,1002,-60.9944,-3.37303
-679,22,-63.0928,5.19788,0,0,0,0,0,0,0,-1,545,1002,-63.0928,-5.19785
-672,22,-53.9034,6.42346,0,0,0,0,0,0,0,-1,552,1002,-53.9034,-6.42344
-665,22,-52.1933,5.88751,0,0,0,0,0,0,0,-1,559,1002,-52.1933,-5.88753
-658,22,-55.4,1.48871,0,0,0,0,0,0,0,-1,566,1002,-55.4,-1.48869
-651,22,-54.9283,4.82391,0,0,0,0,0,0,0,-1,573,1002,-54.9283,-4.82393
-644,22,-55.5817,5.11615,-0.0120558,0.0412212,0.00954017,0.042878,-0.0137126,1.39884,0.0340883,0.0442063,580,1002,-55.5817,-5.11616
-637,22,-55.9758,5.3609,-0.0112548,0.0319765,0.0070749,0.0331049,-0.0123832,1.41264,0.0271557,0.0292943,587,1002,-55.9758,-5.36093
-630,22,-55.9665,5.37823,-0.0107745,0.0230251,0.00459719,0.0236392,-0.0113886,1.438,0.0206315,0.0163642,594,1002,-55.9665,-5.37824
-623,22,-56.0002,5.29315,-0.00954184,0.0156074,0.00200721,0.0157666,-0.00970103,1.49165,0.0148421,0.0133851,601,1002,-56.0002,-5.29314
-616,22,-56.0098,5.11475,-0.00708091,0.00889683,-0.00181865,0.00910123,-0.0072853,-1.45888,0.00948011,0.0202261,608,1002,-56.0097,-5.11474
-609,22,-56.0439,5.01483,-0.0036707,0.00400126,-0.00686529,0.00802956,-0.007699,-1.04017,0.00908156,0.0350495,615,1002,-56.0439,-5.01485
-602,22,-56.2567,4.94678,-0.00023357,0.000757367,-0.0135974,0.0138683,-0.0133445,-0.803609,0.0157123,0.0344395,622,1002,-56.2567,-4.94678
-595,22,-56.4575,4.63422,0.00221952,-0.000464291,-0.0213979,0.0223175,-0.0205623,-0.754083,0.0247636,0.0365418,629,1002,-56.4575,-4.63421
-588,22,-56.3533,4.18933,0,0,0,0,0,0,0,-1,636,1002,-56.3533,-4.18936
-581,22,-54.5638,0.591614,0,0,0,0,0,0,0,-1,643,1002,-54.5638,-0.591635
-574,22,-54.6237,0.54071,0,0,0,0,0,0,0,-1,650,1002,-54.6237,-0.540686
-567,22,-54.6914,0.454773,0,0,0,0,0,0,0,-1,657,1002,-54.6914,-0.454785
-560,22,-54.6064,0.23407,0,0,0,0,0,0,0,-1,664,1002,-54.6064,-0.234042
-553,22,-54.8266,0.598755,0,0,0,0,0,0,0,-1,671,1002,-54.8266,-0.598746
-546,22,-54.7478,0.593445,0,0,0,0,0,0,0,-1,678,1002,-54.7478,-0.593458
-539,22,-54.6364,0.424683,0,0,0,0,0,0,0,-1,685,1002,-54.6364,-0.424689
-532,22,-54.5656,0.570618,0,0,0,0,0,0,0,-1,692,1002,-54.5656,-0.570603
-525,22,0,0,0,0,0,0,0,0,0,-1,699,1002,0,0
-518,22,0,0,0,0,0,0,0,0,0,-1,706,1002,0,0
-511,22,0,0,0,0,0,0,0,0,0,-1,713,1002,0,0
-504,22,0,0,0,0,0,0,0,0,0,-1,720,1002,0,0
-497,22,0,0,0,0,0,0,0,0,0,-1,727,1002,0,0
-490,22,0,0,0,0,0,0,0,0,0,-1,734,1002,0,0
-483,22,0,0,0,0,0,0,0,0,0,-1,741,1002,0,0
-476,22,0,0,0,0,0,0,0,0,0,-1,748,1002,0,0
-469,22,0,0,0,0,0,0,0,0,0,-1,755,1002,0,0
-462,22,0,0,0,0,0,0,0,0,0,-1,762,1002,0,0
-455,22,0,0,0,0,0,0,0,0,0,-1,769,1002,0,0
-448,22,0,0,0,0,0,0,0,0,0,-1,776,1002,0,0
-441,22,0,0,0,0,0,0,0,0,0,-1,783,1002,0,0
-434,22,0,0,0,0,0,0,0,0,0,-1,790,1002,0,0
-427,22,0,0,0,0,0,0,0,0,0,-1,797,1002,0,0
-420,22,0,0,0,0,0,0,0,0,0,-1,804,1002,0,0
-413,22,0,0,0,0,0,0,0,0,0,-1,811,1002,0,0
-406,22,0,0,0,0,0,0,0,0,0,-1,818,1002,0,0
-399,22,0,0,0,0,0,0,0,0,0,-1,825,1002,0,0
-392,22,0,0,0,0,0,0,0,0,0,-1,832,1002,0,0
-385,22,0,0,0,0,0,0,0,0,0,-1,839,1002,0,0
-378,22,0,0,0,0,0,0,0,0,0,-1,846,1002,0,0
-371,22,0,0,0,0,0,0,0,0,0,-1,853,1002,0,0
-364,22,0,0,0,0,0,0,0,0,0,-1,860,1002,0,0
-357,22,0,0,0,0,0,0,0,0,0,-1,867,1002,0,0
-350,22,0,0,0,0,0,0,0,0,0,-1,874,1002,0,0
-343,22,0,0,0,0,0,0,0,0,0,-1,881,1002,0,0
-336,22,0,0,0,0,0,0,0,0,0,-1,888,1002,0,0
-329,22,0,0,0,0,0,0,0,0,0,-1,895,1002,0,0
-322,22,0,0,0,0,0,0,0,0,0,-1,902,1002,0,0
-315,22,0,0,0,0,0,0,0,0,0,-1,909,1002,0,0
-308,22,0,0,0,0,0,0,0,0,0,-1,916,1002,0,0
-301,22,0,0,0,0,0,0,0,0,0,-1,923,1002,0,0
-294,22,0,0,0,0,0,0,0,0,0,-1,930,1002,0,0
-287,22,0,0,0,0,0,0,0,0,0,-1,937,1002,0,0
-280,22,0,0,0,0,0,0,0,0,0,-1,944,1002,0,0
-273,22,0,0,0,0,0,0,0,0,0,-1,951,1002,0,0
-266,22,0,0,0,0,0,0,0,0,0,-1,958,1002,0,0
-259,22,0,0,0,0,0,0,0,0,0,-1,965,1002,0,0
-252,22,0,0,0,0,0,0,0,0,0,-1,972,1002,0,0
-245,22,0,0,0,0,0,0,0,0,0,-1,979,1002,0,0
-238,22,0,0,0,0,0,0,0,0,0,-1,986,1002,0,0
-231,22,0,0,0,0,0,0,0,0,0,-1,993,1002,0,0
-224,22,0,0,0,0,0,0,0,0,0,-1,1000,1002,0,0
-217,22,0,0,0,0,0,0,0,0,0,-1,1007,1002,0,0
-210,22,0,0,0,0,0,0,0,0,0,-1,1014,1002,0,0
-203,22,0,0,0,0,0,0,0,0,0,-1,1021,1002,0,0
-196,22,0,0,0,0,0,0,0,0,0,-1,1028,1002,0,0
-189,22,0,0,0,0,0,0,0,0,0,-1,1035,1002,0,0
-182,22,0,0,0,0,0,0,0,0,0,-1,1042,1002,0,0
-175,22,0,0,0,0,0,0,0,0,0,-1,1049,1002,0,0
-168,22,0,0,0,0,0,0,0,0,0,-1,1056,1002,0,0
-161,22,0,0,0,0,0,0,0,0,0,-1,1063,1002,0,0
-154,22,0,0,0,0,0,0,0,0,0,-1,1070,1002,0,0
-147,22,0,0,0,0,0,0,0,0,0,-1,1077,1002,0,0
-140,22,0,0,0,0,0,0,0,0,0,-1,1084,1002,0,0
-133,22,0,0,0,0,0,0,0,0,0,-1,1091,1002,0,0
-126,22,0,0,0,0,0,0,0,0,0,-1,1098,1002,0,0
-119,22,0,0,0,0,0,0,0,0,0,-1,1105,1002,0,0
-112,22,0,0,0,0,0,0,0,0,0,-1,1112,1002,0,0
-105,22,0,0,0,0,0,0,0,0,0,-1,1119,1002,0,0
-98,22,0,0,0,0,0,0,0,0,0,-1,1126,1002,0,0
-91,22,0,0,0,0,0,0,0,0,0,-1,1133,1002,0,0
-84,22,0,0,0,0,0,0,0,0,0,-1,1140,1002,0,0
-77,22,0,0,0,0,0,0,0,0,0,-1,1147,1002,0,0
-70,22,0,0,0,0,0,0,0,0,0,-1,1154,1002,0,0
-63,22,0,0,0,0,0,0,0,0,0,-1,1161,1002,0,0
-56,22,0,0,0,0,0,0,0,0,0,-1,1168,1002,0,0
-49,22,0,0,0,0,0,0,0,0,0,-1,1175,1002,0,0
-42,22,0,0,0,0,0,0,0,0,0,-1,1182,1002,0,0
-35,22,0,0,0,0,0,0,0,0,0,-1,1189,1002,0,0
-28,22,0,0,0,0,0,0,0,0,0,-1,1196,1002,0,0
-21,22,0,0,0,0,0,0,0,0,0,-1,1203,1002,0,0
-14,22,0,0,0,0,0,0,0,0,0,-1,1210,1002,0,0
-7,22,0,0,0,0,0,0,0,0,0,-1,1217,1002,0,0
0,22,0,0,0,0,0,0,0,0,0,-1,1224,1002,0,0
7,22,0,0,0,0,0,0,0,0,0,-1,1231,1002,0,0
14,22,0,0,0,0,0,0,0,0,0,-1,1238,1002,0,0
21,22,0,0,0,0,0,0,0,0,0,-1,1245,1002,0,0
28,22,0,0,0,0,0,0,0,0,0,-1,1252,1002,0,0
35,22,0,0,0,0,0,0,0,0,0,-1,1259,1002,0,0
42,22,0,0,0,0,0,0,0,0,0,-1,1266,1002,0,0
49,22,0,0,0,0,0,0,0,0,0,-1,1273,1002,0,0
56,22,0,0,0,0,0,0,0,0,0,-1,1280,1002,0,0
63,22,0,0,0,0,0,0,0,0,0,-1,1287,1002,0,0
70,22,0,0,0,0,0,0,0,0,0,-1,1294,1002,0,0
77,22,0,0,0,0,0,0,0,0,0,-1,1301,1002,0,0
84,22,0,0,0,0,0,0,0,0,0,-1,1308,1002,0,0
91,22,0,0,0,0,0,0,0,0,0,-1,1315,1002,0,0
98,22,0,0,0,0,0,0,0,0,0,-1,1322,1002,0,0
105,22,0,0,0,0,0,0,0,0,0,-1,1329,1002,0,0
112,22,0,0,0,0,0,0,0,0,0,-1,1336,1002,0,0
119,22,0,0,0,0,0,0,0,0,0,-1,1343,1002,0,0
126,22,0,0,0,0,0,0,0,0,0,-1,1350,1002,0,0
133,22,0,0,0,0,0,0,0,0,0,-1,1357,1002,0,0
140,22,0,0,0,0,0,0,0,0,0,-1,1364,1002,0,0
147,22,0,0,0,0,0,0,0,0,0,-1,1371,1002,0,0
154,22,0,0,0,0,0,0,0,0,0,-1,1378,1002,0,0
161,22,0,0,0,0,0,0,0,0,0,-1,1385,1002,0,0
168,22,0,0,0,0,0,0,0,0,0,-1,1392,1002,0,0
175,22,0,0,0,0,0,0,0,0,0,-1,1399,1002,0,0
182,22,0,0,0,0,0,0,0,0,0,-1,1406,1002,0,0
189,22,0,0,0,0,0,0,0,0,0,-1,1413,1002,0,0
196,22,0,0,0,0,0,0,0,0,0,-1,1420,1002,0,0
203,22,0,0,0,0,0,0,0,0,0,-1,1427,1002,0,0
210,22,0,0,0,0,0,0,0,0,0,-1,1434,1002,0,0
217,22,0,0,0,0,0,0,0,0,0,-1,1441,1002,0,0
224,22,0,0,0,0,0,0,0,0,0,-1,1448,1002,0,0
231,22,0,0,0,0,0,0,0,0,0,-1,1455,1002,0,0
238,22,0,0,0,0,0,0,0,0,0,-1,1462,1002,0,0
245,22,0,0,0,0,0,0,0,0,0,-1,1469,1002,0,0
252,22,0,0,0,0,0,0,0,0,0,-1,1476,1002,0,0
259,22,0,0,0,0,0,0,0,0,0,-1,1483,1002,0,0
266,22,0,0,0,0,0,0,0,0,0,-1,1490,1002,0,0
273,22,0,0,0,0,0,0,0,0,0,-1,1497,1002,0,0
280,22,0,0,0,0,0,0,0,0,0,-1,1504,1002,0,0
287,22,0,0,0,0,0,0,0,0,0,-1,1511,1002,0,0
294,22,0,0,0,0,0,0,0,0,0,-1,1518,1002,0,0
301,22,0,0,0,0,0,0,0,0,0,-1,1525,1002,0,0
308,22,0,0,0,0,0,0,0,0,0,-1,1532,1002,0,0
315,22,0,0,0,0,0,0,0,0,0,-1,1539,1002,0,0
322,22,0,0,0,0,0,0,0,0,0,-1,1546,1002,0,0
329,22,0,0,0,0,0,0,0,0,0,-1,1553,1002,0,0
336,22,0,0,0,0,0,0,0,0,0,-1,1560,1002,0,0
343,22,0,0,0,0,0,0,0,0,0,-1,1567,1002,0,0
350,22,0,0,0,0,0,0,0,0,0,-1,1574,1002,0,0
357,22,0,0,0,0,0,0,0,0,0,-1,1581,1002,0,0
364,22,0,0,0,0,0,0,0,0,0,-1,1588,1002,0,0
371,22,0,0,0,0,0,0,0,0,0,-1,1595,1002,0,0
378,22,0,0,0,0,0,0,0,0,0,-1,1602,1002,0,0
385,22,0,0,0,0,0,0,0,0,0,-1,1609,1002,0,0
392,22,0,0,0,0,0,0,0,0,0,-1,1616,1002,0,0
399,22,0,0,0,0,0,0,0,0,0,-1,1623,1002,0,0
406,22,0,0,0,0,0,0,0,0,0,-1,1630,1002,0,0
413,22,0,0,0,0,0,0,0,0,0,-1,1637,1002,0,0
420,22,0,0,0,0,0,0,0,0,0,-1,1644,1002,0,0
427,22,0,0,0,0,0,0,0,0,0,-1,1651,1002,0,0
434,22,0,0,0,0,0,0,0,0,0,-1,1658,1002,0,0
441,22,0,0,0,0,0,0,0,0,0,-1,1665,1002,0,0
448,22,0,0,0,0,0,0,0,0,0,-1,1672,1002,0,0
455,22,0,0,0,0,0,0,0,0,0,-1,1679,1002,0,0
462,22,0,0,0,0,0,0,0,0,0,-1,1686,1002,0,0
469,22,0,0,0,0,0,0,0,0,0,-1,1693,1002,0,0
476,22,0,0,0,0,0,0,0,0,0,-1,1700,1002,0,0
483,22,0,0,0,0,0,0,0,0,0,-1,1707,1002,0,0
490,22,0,0,0,0,0,0,0,0,0,-1,1714,1002,0,0
497,22,0,0,0,0,0,0,0,0,0,-1,1721,1002,0,0
504,22,0,0,0,0,0,0,0,0,0,-1,1728,1002,0,0
511,22,0,0,0,0,0,0,0,0,0,-1,1735,1002,0,0
518,22,0,0,0,0,0,0,0,0,0,-1,1742,1002,0,0
525,22,0,0,0,0,0,0,0,0,0,-1,1749,1002,0,0
532,22,0,0,0,0,0,0,0,0,0,-1,1756,1002,0,0
539,22,0,0,0,0,0,0,0,0,0,-1,1763,1002,0,0
546,22,0,0,0,0,0,0,0,0,0,-1,1770,1002,0,0
553,22,0,0,0,0,0,0,0,0,0,-1,1777,1002,0,0
560,22,0,0,0,0,0,0,0,0,0,-1,1784,1002,0,0
567,22,0,0,0,0,0,0,0,0,0,-1,1791,1002,0,0
574,22,0,0,0,0,0,0,0,0,0,-1,1798,1002,0,0
581,22,0,0,0,0,0,0,0,0,0,-1,1805,1002,0,0
588,22,0,0,0,0,0,0,0,0,0,-1,1812,1002,0,0
595,22,0,0,0,0,0,0,0,0,0,-1,1819,1002,0,0
602,22,0,0,0,0,0,0,0,0,0,-1,1826,1002,0,0
609,22,0,0,0,0,0,0,0,0,0,-1,1833,1002,0,0
616,22,0,0,0,0,0,0,0,0,0,-1,1840,1002,0,0
623,22,0,0,0,0,0,0,0,0,0,-1,1847,1002,0,0
630,22,0,0,0,0,0,0,0,0,0,-1,1854,1002,0,0
637,22,0,0,0,0,0,0,0,0,0,-1,1861,1002,0,0
644,22,71.0393,2.24878,0,0,0,0,0,0,0,-1,1868,1002,71.0393,-2.24879
651,22,70.9187,2.18011,0,0,0,0,0,0,0,-1,1875,1002,70.9187,-2.18009
658,22,71.0508,2.43439,0.000413515,-0.00282724,-0.00147883,0.000986892,-0.00340062,-0.369879,0.00265784,0.0427785,1882,1002,71.0508,-2.4344
665,22,71.0392,2.29346,2.61631e-05,-0.00200846,-0.000966625,0.000412165,-0.00239446,-0.379928,0.00174995,0.0395669,1889,1002,71.0392,-2.29347
672,22,70.9987,2.21149,-0.000235722,-0.00128534,-0.000425094,-8.51571e-05,-0.0014359,-0.340405,0.000930183,0.0388581,1896,1002,70.9987,-2.21149
679,22,70.87,2.29266,-0.000326725,-0.000741428,0.000114829,-0.000297053,-0.0007711,0.252874,0.000449087,0.0377917,1903,1002,70.87,-2.29267
686,22,70.8928,2.32159,-0.000324028,-0.000617195,0.000460373,1.25346e-05,-0.000953758,0.631272,0.000640058,0.0362406,1910,1002,70.8928,-2.3216
693,22,71.0287,2.24854,-0.000331048,-0.000681579,0.000625861,0.000143625,-0.00115625,0.648876,0.000822898,0.0351945,1917,1002,71.0286,-2.24851
700,22,71.0615,2.16113,-0.000429127,-0.000588892,0.000564091,6.07097e-05,-0.00107873,0.715059,0.000740219,0.0326704,1924,1002,71.0615,-2.16113
707,22,70.9948,2.15912,-0.00101031,-9.36517e-05,0.000420513,7.00299e-05,-0.00117399,1.1996,0.000807014,0.0280274,1931,1002,70.9948,-2.15913
714,22,70.9756,2.27783,-0.00204268,0.000845753,0.000283053,0.00087323,-0.00207015,1.47403,0.00174557,0.0479651,1938,1002,70.9755,-2.27784
721,22,70.9277,2.60425,0,0,0,0,0,0,0,-1,1945,1002,70.9277,-2.60424
728,22,71.0013,6.46875,0,0,0,0,0,0,0,-1,1952,1002,71.0013,-6.46876
735,22,71.01,6.58746,-0.00621764,0.0059968,-0.000793144,0.00604808,-0.00626893,-1.50622,0.00711161,0.0190382,1959,1002,71.01,-6.58748
742,22,71.0052,6.70624,-0.00793938,0.00795258,-0.00117258,0.00803864,-0.00802543,-1.49754,0.00927459,0.0192692,1966,1002,71.0052,-6.70621
749,22,70.9381,6.88745,-0.00989556,0.0106775,-0.00149946,0.0107862,-0.0100043,-1.49842,0.0120062,0.0143799,1973,1002,70.9381,-6.88744
756,22,70.9143,7.06793,-0.0118299,0.0141703,-0.00187781,0.0143052,-0.0119648,-1.49907,0.0151871,0.019278,1980,1002,70.9143,-7.06792
763,22,70.8345,7.22394,-0.0138149,0.0188195,-0.00229695,0.0189803,-0.0139758,-1.50087,0.0191002,0.0197836,1987,1002,70.8345,-7.22394
770,22,70.6292,7.34991,-0.0150259,0.0247803,-0.00256408,0.0249448,-0.0151904,-1.50674,0.023399,0.0207002,1994,1002,70.6292,-7.34989
777,22,70.2261,7.39203,-0.0149591,0.0308806,-0.00265927,0.0310344,-0.0151128,-1.51304,0.0271665,0.0435586,2001,1002,70.2261,-7.39203
784,22,69.728,7.41992,0,0,0,0,0,0,0,-1,2008,1002,69.728,-7.41992
791,22,69.4163,7.4978,0,0,0,0,0,0,0,-1,2015,1002,69.4163,-7.4978
798,22,67.1895,5.14026,0,0,0,0,0,0,0,-1,2022,1002,67.1894,-5.14028
805,22,66.6375,4.45691,0,0,0,0,0,0,0,-1,2029,1002,66.6374,-4.45689
812,22,66.3667,3.86255,0,0,0,0,0,0,0,-1,2036,1002,66.3666,-3.86252
-700,15,0,0,0,0,0,0,0,0,0,-1,524,1009,0,0
-693,15,-59.474,2.21332,-0.0266639,0.0976563,0.0387978,0.108771,-0.0377783,1.2918,0.087857,0.0463008,531,1009,-59.474,-2.21332
-686,15,-59.9305,3.0647,0,0,0,0,0,0,0,-1,538,1009,-59.9305,-3.06472
-679,15,-60.0136,3.85004,0,0,0,0,0,0,0,-1,545,1009,-60.0136,-3.85006
-672,15,-59.0274,6.58759,0,0,0,0,0,0,0,-1,552,1009,-59.0274,-6.58758
-665,15,-55.8499,5.09497,0,0,0,0,0,0,0,-1,559,1009,-55.8499,-5.09497
-658,15,-54.8215,3.72443,0,0,0,0,0,0,0,-1,566,1009,-54.8215,-3.72442
-651,15,-51.4943,3.62128,0,0,0,0,0,0,0,-1,573,1009,-51.4943,-3.62128
-644,15,-56.0849,5.27777,0,0,0,0,0,0,0,-1,580,1009,-56.0849,-5.27774
-637,15,-56.0006,5.28235,-0.00954189,0.0322075,0.00569312,0.0329699,-0.0103043,1.43767,0.0261017,0.0330131,587,1009,-56.0006,-5.28234
-630,15,-56.0359,5.26129,-0.00903105,0.0230055,0.00341686,0.0233658,-0.00939143,1.46572,0.0194776,0.0177272,594,1009,-56.0359,-5.26128
-623,15,-56.1114,5.19366,-0.0083177,0.0150542,0.00117187,0.0151128,-0.00837631,1.52082,0.0137461,0.0108782,601,1009,-56.1114,-5.19366
-616,15,-56.1261,5.11945,-0.00661187,0.00780513,-0.00215666,0.00812083,-0.00692758,-1.42544,0.0086973,0.0178194,608,1009,-56.1261,-5.11943
-609,15,-56.2289,5.08679,-0.00363924,0.00253478,-0.00672106,0.00684386,-0.00794833,-1.00068,0.0085482,0.0257562,615,1009,-56.229,-5.08678
-602,15,-56.3438,5.03778,-0.000505492,-0.00113811,-0.0128504,0.0120325,-0.0136761,-0.773093,0.014853,0.0259662,622,1009,-56.3438,-5.03777
-595,15,-56.4206,4.92419,0,0,0,0,0,0,0,-1,629,1009,-56.4206,-4.9242
-588,15,-54.502,0.584473,0,0,0,0,0,0,0,-1,636,1009,-54.5019,-0.584475
-581,15,-54.5865,0.613098,0,0,0,0,0,0,0,-1,643,1009,-54.5865,-0.613072
-574,15,-54.669,0.659241,0,0,0,0,0,0,0,-1,650,1009,-54.669,-0.659253
-567,15,-54.7127,0.337402,0,0,0,0,0,0,0,-1,657,1009,-54.7127,-0.33738
-560,15,-54.5941,0.215027,0,0,0,0,0,0,0,-1,664,1009,-54.594,-0.215049
-553,15,-54.6951,0.472534,0,0,0,0,0,0,0,-1,671,1009,-54.695,-0.472512
-546,15,-54.6694,0.409302,0,0,0,0,0,0,0,-1,678,1009,-54.6694,-0.409298
-539,15,-54.6599,0.243713,0,0,0,0,0,0,0,-1,685,1009,-54.6599,-0.24372
-532,15,-54.606,0.580811,0,0,0,0,0,0,0,-1,692,1009,-54.606,-0.580813
-525,15,0,0,0,0,0,0,0,0,0,-1,699,1009,0,0
-518,15,0,0,0,0,0,0,0,0,0,-1,706,1009,0,0
-511,15,0,0,0,0,0,0,0,0,0,-1,713,1009,0,0
-504,15,0,0,0,0,0,0,0,0,0,-1,720,1009,0,0
-497,15,0,0,0,0,0,0,0,0,0,-1,727,1009,0,0
-490,15,0,0,0,0,0,0,0,0,0,-1,734,1009,0,0
-483,15,0,0,0,0,0,0,0,0,0,-1,741,1009,0,0
-476,15,0,0,0,0,0,0,0,0,0,-1,748,1009,0,0
-469,15,0,0,0,0,0,0,0,0,0,-1,755,1009,0,0
-462,15,0,0,0,0,0,0,0,0,0,-1,762,1009,0,0
-455,15,0,0,0,0,0,0,0,0,0,-1,769,1009,0,0
-448,15,0,0,0,0,0,0,0,0,0,-1,776,1009,0,0
-441,15,0,0,0,0,0,0,0,0,0,-1,783,1009,0,0
-434,15,0,0,0,0,0,0,0,0,0,-1,790,1009,0,0
-427,15,0,0,0,0,0,0,0,0,0,-1,797,1009,0,0
-420,15,0,0,0,0,0,0,0,0,0,-1,804,1009,0,0
-413,15,0,0,0,0,0,0,0,0,0,-1,811,1009,0,0
-406,15,0,0,0,0,0,0,0,0,0,-1,818,1009,0,0
-399,15,0,0,0,0,0,0,0,0,0,-1,825,1009,0,0
-392,15,0,0,0,0,0,0,0,0,0,-1,832,1009,0,0
-385,15,0,0,0,0,0,0,0,0,0,-1,839,1009,0,0
-378,15,0,0,0,0,0,0,0,0,0,-1,846,1009,0,0
-371,15,0,0,0,0,0,0,0,0,0,-1,853,1009,0,0
-364,15,0,0,0,0,0,0,0,0,0,-1,860,1009,0,0
-357,15,0,0,0,0,0,0,0,0,0,-1,867,1009,0,0
-350,15,0,0,0,0,0,0,0,0,0,-1,874,1009,0,0
-343,15,0,0,0,0,0,0,0,0,0,-1,881,1009,0,0
-336,15,0,0,0,0,0,0,0,0,0,-1,888,1009,0,0
-329,15,0,0,0,0,0,0,0,0,0,-1,895,1009,0,0
-322,15,0,0,0,0,0,0,0,0,0,-1,902,1009,0,0
-315,15,0,0,0,0,0,0,0,0,0,-1,909,1009,0,0
-308,15,0,0,0,0,0,0,0,0,0,-1,916,1009,0,0
-301,15,0,0,0,0,0,0,0,0,0,-1,923,1009,0,0
-294,15,0,0,0,0,0,0,0,0,0,-1,930,1009,0,0
-287,15,0,0,0,0,0,0,0,0,0,-1,937,1009,0,0
-280,15,0,0,0,0,0,0,0,0,0,-1,944,1009,0,0
-273,15,0,0,0,0,0,0,0,0,0,-1,951,1009,0,0
-266,15,0,0,0,0,0,0,0,0,0,-1,958,1009,0,0
-259,15,0,0,0,0,0,0,0,0,0,-1,965,1009,0,0
-252,15,0,0,0,0,0,0,0,0,0,-1,972,1009,0,0
-245,15,0,0,0,0,0,0,0,0,0,-1,979,1009,0,0
-238,15,0,0,0,0,0,0,0,0,0,-1,986,1009,0,0
-231,15,0,0,0,0,0,0,0,0,0,-1,993,1009,0,0
-224,15,0,0,0,0,0,0,0,0,0,-1,1000,1009,0,0
-217,15,0,0,0,0,0,0,0,0,0,-1,1007,1009,0,0
-210,15,0,0,0,0,0,0,0,0,0,-1,1014,1009,0,0
-203,15,0,0,0,0,0,0,0,0,0,-1,1021,1009,0,0
-196,15,0,0,0,0,0,0,0,0,0,-1,1028,1009,0,0
-189,15,0,0,0,0,0,0,0,0,0,-1,1035,1009,0,0
-182,15,0,0,0,0,0,0,0,0,0,-1,1042,1009,0,0
-175,15,0,0,0,0,0,0,0,0,0,-1,1049,1009,0,0
-168,15,0,0,0,0,0,0,0,0,0,-1,1056,1009,0,0
-161,15,0,0,0,0,0,0,0,0,0,-1,1063,1009,0,0
-154,15,0,0,0,0,0,0,0,0,0,-1,1070,1009,0,0
-147,15,0,0,0,0,0,0,0,0,0,-1,1077,1009,0,0
-140,15,0,0,0,0,0,0,0,0,0,-1,1084,1009,0,0
-133,15,0,0,0,0,0,0,0,0,0,-1,1091,1009,0,0
-126,15,0,0,0,0,0,0,0,0,0,-1,1098,1009,0,0
-119,15,0,0,0,0,0,0,0,0,0,-1,1105,1009,0,0
-112,15,0,0,0,0,0,0,0,0,0,-1,1112,1009,0,0
-105,15,0,0,0,0,0,0,0,0,0,-1,1119,1009,0,0
-98,15,0,0,0,0,0,0,0,0,0,-1,1126,1009,0,0
-91,15,0,0,0,0,0,0,0,0,0,-1,1133,1009,0,0
-84,15,0,0,0,0,0,0,0,0,0,-1,1140,1009,0,0
-77,15,0,0,0,0,0,0,0,0,0,-1,1147,1009,0,0
-70,15,0,0,0,0,0,0,0,0,0,-1,1154,1009,0,0
-63,15,0,0,0,0,0,0,0,0,0,-1,1161,1009,0,0
-56,15,0,0,0,0,0,0,0,0,0,-1,1168,1009,0,0
-49,15,0,0,0,0,0,0,0,0,0,-1,1175,1009,0,0
-42,15,0,0,0,0,0,0,0,0,0,-1,1182,1009,0,0
-35,15,0,0,0,0,0,0,0,0,0,-1,1189,1009,0,0
-28,15,0,0,0,0,0,0,0,0,0,-1,1196,1009,0,0
-21,15,0,0,0,0,0,0,0,0,0,-1,1203,1009,0,0
-14,15,0,0,0,0,0,0,0,0,0,-1,1210,1009,0,0
-7,15,0,0,0,0,0,0,0,0,0,-1,1217,1009,0,0
0,15,0,0,0,0,0,0,0,0,0,-1,1224,1009,0,0
7,15,0,0,0,0,0,0,0,0,0,-1,1231,1009,0,0
14,15,0,0,0,0,0,0,0,0,0,-1,1238,1009,0,0
21,15,0,0,0,0,0,0,0,0,0,-1,1245,1009,0,0
28,15,0,0,0,0,0,0,0,0,0,-1,1252,1009,0,0
35,15,0,0,0,0,0,0,0,0,0,-1,1259,1009,0,0
42,15,0,0,0,0,0,0,0,0,0,-1,1266,1009,0,0
49,15,0,0,0,0,0,0,0,0,0,-1,1273,1009,0,0
56,15,0,0,0,0,0,0,0,0,0,-1,1280,1009,0,0
63,15,0,0,0,0,0,0,0,0,0,-1,1287,1009,0,0
70,15,0,0,0,0,0,0,0,0,0,-1,1294,1009,0,0
77,15,0,0,0,0,0,0,0,0,0,-1,1301,1009,0,0
84,15,0,0,0,0,0,0,0,0,0,-1,1308,1009,0,0
91,15,0,0,0,0,0,0,0,0,0,-1,1315,1009,0,0
98,15,0,0,0,0,0,0,0,0,0,-1,1322,1009,0,0
105,15,0,0,0,0,0,0,0,0,0,-1,1329,1009,0,0
112,15,0,0,0,0,0,0,0,0,0,-1,1336,1009,0,0
119,15,0,0,0,0,0,0,0,0,0,-1,1343,1009,0,0
126,15,0,0,0,0,0,0,0,0,0,-1,1350,1009,0,0
133,15,0,0,0,0,0,0,0,0,0,-1,1357,1009,0,0
140,15,0,0,0,0,0,0,0,0,0,-1,1364,1009,0,0
147,15,0,0,0,0,0,0,0,0,0,-1,1371,1009,0,0
154,15,0,0,0,0,0,0,0,0,0,-1,1378,1009,0,0
161,15,0,0,0,0,0,0,0,0,0,-1,1385,1009,0,0
168,15,0,0,0,0,0,0,0,0,0,-1,1392,1009,0,0
175,15,0,0,0,0,0,0,0,0,0,-1,1399,1009,0,0
182,15,0,0,0,0,0,0,0,0,0,-1,1406,1009,0,0
189,15,0,0,0,0,0,0,0,0,0,-1,1413,1009,0,0
196,15,0,0,0,0,0,0,0,0,0,-1,1420,1009,0,0
203,15,0,0,0,0,0,0,0,0,0,-1,1427,1009,0,0
210,15,0,0,0,0,0,0,0,0,0,-1,1434,1009,0,0
217,15,0,0,0,0,0,0,0,0,0,-1,1441,1009,0,0
224,15,0,0,0,0,0,0,0,0,0,-1,1448,1009,0,0
231,15,0,0,0,0,0,0,0,0,0,-1,1455,1009,0,0
238,15,0,0,0,0,0,0,0,0,0,-1,1462,1009,0,0
245,15,0,0,0,0,0,0,0,0,0,-1,1469,1009,0,0
252,15,0,0,0,0,0,0,0,0,0,-1,1476,1009,0,0
259,15,0,0,0,0,0,0,0,0,0,-1,1483,1009,0,0
266,15,0,0,0,0,0,0,0,0,0,-1,1490,1009,0,0
273,15,0,0,0,0,0,0,0,0,0,-1,1497,1009,0,0
280,15,0,0,0,0,0,0,0,0,0,-1,1504,1009,0,0
287,15,0,0,0,0,0,0,0,0,0,-1,1511,1009,0,0
294,15,0,0,0,0,0,0,0,0,0,-1,1518,1009,0,0
301,15,0,0,0,0,0,0,0,0,0,-1,1525,1009,0,0
308,15,0,0,0,0,0,0,0,0,0,-1,1532,1009,0,0
315,15,0,0,0,0,0,0,0,0,0,-1,1539,1009,0,0
322,15,0,0,0,0,0,0,0,0,0,-1,1546,1009,0,0
329,15,0,0,0,0,0,0,0,0,0,-1,1553,1009,0,0
336,15,0,0,0,0,0,0,0,0,0,-1,1560,1009,0,0
343,15,0,0,0,0,0,0,0,0,0,-1,1567,1009,0,0
350,15,0,0,0,0,0,0,0,0,0,-1,1574,1009,0,0
357,15,0,0,0,0,0,0,0,0,0,-1,1581,1009,0,0
364,15,0,0,0,0,0,0,0,0,0,-1,1588,1009,0,0
371,15,0,0,0,0,0,0,0,0,0,-1,1595,1009,0,0
378,15,0,0,0,0,0,0,0,0,0,-1,1602,1009,0,0
385,15,0,0,0,0,0,0,0,0,0,-1,1609,1009,0,0
392,15,0,0,0,0,0,0,0,0,0,-1,1616,1009,0,0
399,15,0,0,0,0,0,0,0,0,0,-1,1623,1009,0,0
406,15,0,0,0,0,0,0,0,0,0,-1,1630,1009,0,0
413,15,0,0,0,0,0,0,0,0,0,-1,1637,1009,0,0
420,15,0,0,0,0,0,0,0,0,0,-1,1644,1009,0,0
427,15,0,0,0,0,0,0,0,0,0,-1,1651,1009,0,0
434,15,0,0,0,0,0,0,0,0,0,-1,1658,1009,0,0
441,15,0,0,0,0,0,0,0,0,0,-1,1665,1009,0,0
448,15,0,0,0,0,0,0,0,0,0,-1,1672,1009,0,0
455,15,0,0,0,0,0,0,0,0,0,-1,1679,1009,0,0
462,15,0,0,0,0,0,0,0,0,0,-1,1686,1009,0,0
469,15,0,0,0,0,0,0,0,0,0,-1,1693,1009,0,0
476,15,0,0,0,0,0,0,0,0,0,-1,1700,1009,0,0
483,15,0,0,0,0,0,0,0,0,0,-1,1707,1009,0,0
490,15,0,0,0,0,0,0,0,0,0,-1,1714,1009,0,0
497,15,0,0,0,0,0,0,0,0,0,-1,1721,1009,0,0
504,15,0,0,0,0,0,0,0,0,0,-1,1728,1009,0,0
511,15,0,0,0,0,0,0,0,0,0,-1,1735,1009,0,0
518,15,0,0,0,0,0,0,0,0,0,-1,1742,1009,0,0
525,15,0,0,0,0,0,0,0,0,0,-1,1749,1009,0,0
532,15,0,0,0,0,0,0,0,0,0,-1,1756,1009,0,0
539,15,0,0,0,0,0,0,0,0,0,-1,1763,1009,0,0
546,15,0,0,0,0,0,0,0,0,0,-1,1770,1009,0,0
553,15,0,0,0,0,0,0,0,0,0,-1,1777,1009,0,0
560,15,0,0,0,0,0,0,0,0,0,-1,1784,1009,0,0
567,15,0,0,0,0,0,0,0,0,0,-1,1791,1009,0,0
574,15,0,0,0,0,0,0,0,0,0,-1,1798,1009,0,0
581,15,0,0,0,0,0,0,0,0,0,-1,1805,1009,0,0
588,15,0,0,0,0,0,0,0,0,0,-1,1812,1009,0,0
595,15,0,0,0,0,0,0,0,0,0,-1,1819,1009,0,0
602,15,0,0,0,0,0,0,0,0,0,-1,1826,1009,0,0
609,15,0,0,0,0,0,0,0,0,0,-1,1833,1009,0,0
616,15,0,0,0,0,0,0,0,0,0,-1,1840,1009,0,0
623,15,0,0,0,0,0,0,0,0,0,-1,1847,1009,0,0
630,15,0,0,0,0,0,0,0,0,0,-1,1854,1009,0,0
637,15,0,0,0,0,0,0,0,0,0,-1,1861,1009,0,0
644,15,71.0089,2.22247,0.00271089,-0.00582928,-0.00196919,0.00314307,-0.00626147,-0.216048,0.00552832,0.0411562,1868,1009,71.009,-2.22247
651,15,70.9144,2.3501,0.00150612,-0.00423661,-0.00175074,0.00199776,-0.00472826,-0.27377,0.00398851,0.0394296,1875,1009,70.9145,-2.35008
658,15,70.9807,2.15393,0.000681176,-0.00316913,-0.00143056,0.0011545,-0.00364246,-0.319532,0.00289103,0.0382261,1882,1009,70.9808,-2.15393
665,15,71.1287,2.02386,0.000148538,-0.00225966,-0.00100658,0.000513849,-0.00262497,-0.348143,0.00194403,0.0381937,1889,1009,71.1287,-2.02387
672,15,71.1155,2.14355,-0.000193161,-0.00151601,-0.000542341,7.59843e-07,-0.00170993,-0.343397,0.00114021,0.0376576,1896,1009,71.1155,-2.14355
679,15,70.9956,2.33527,-0.000326285,-0.000930684,-7.05134e-05,-0.000318167,-0.000938801,-0.114616,0.000551314,0.0377658,1903,1009,70.9956,-2.33525
686,15,70.9066,2.38147,-0.00038397,-0.000762793,0.000243053,-0.000265239,-0.000881523,0.454402,0.000522226,0.040446,1910,1009,70.9066,-2.38147
693,15,70.9424,2.18256,-0.000419911,-0.000778398,0.00042435,-0.000138502,-0.00105981,0.585566,0.000665195,0.0388671,1917,1009,70.9423,-2.18256
700,15,70.9952,2.11505,-0.000484919,-0.000691143,0.000420498,-0.000155075,-0.00102099,0.665163,0.000635307,0.0312093,1924,1009,70.9952,-2.11506
707,15,70.9875,2.18506,-0.00109042,-0.000189649,0.000340622,-7.53488e-05,-0.00120472,1.24704,0.000779247,0.025529,1931,1009,70.9875,-2.18506
714,15,71.0104,2.22089,-0.00214581,0.000785071,0.000272409,0.000810175,-0.00217091,1.4789,0.0017799,0.0288487,1938,1009,71.0104,-2.22089
721,15,70.9452,2.17175,0,0,0,0,0,0,0,-1,1945,1009,70.9452,-2.17178
728,15,71.1688,6.55347,0,0,0,0,0,0,0,-1,1952,1009,71.1689,-6.5535
735,15,71.0863,6.70428,-0.00649427,0.00601118,-0.000631486,0.00604299,-0.00652608,-1.52047,0.00725854,0.0230213,1959,1009,71.0863,-6.70426
742,15,71.1257,6.86761,-0.00820132,0.00789226,-0.000929227,0.00794574,-0.00825479,-1.51331,0.00935395,0.0465798,1966,1009,71.1257,-6.86761
749,15,71.1025,6.96582,-0.0102102,0.0105053,-0.001175,0.0105718,-0.0102766,-1.51432,0.0120372,0.0288354,1973,1009,71.1026,-6.96585
756,15,71.0879,6.88507,-0.012288,0.0138517,-0.00152298,0.0139401,-0.0123764,-1.51279,0.0152028,0.0201177,1980,1009,71.0879,-6.88507
763,15,70.9995,7.05237,-0.0145135,0.018281,-0.00196563,0.0183984,-0.0146309,-1.51114,0.0191108,0.0153389,1987,1009,70.9995,-7.05237
770,15,70.8069,7.09778,-0.016172,0.0239947,-0.00232165,0.0241284,-0.0163058,-1.51325,0.0234899,0.0209409,1994,1009,70.8068,-7.09776
777,15,70.3567,7.14325,-0.0166441,0.0298324,-0.0025485,0.0299717,-0.0167834,-1.51618,0.0273497,0.0468345,2001,1009,70.3566,-7.14322
784,15,69.9692,7.21136,0,0,0,0,0,0,0,-1,2008,1009,69.9693,-7.21139
791,15,67.3594,5.49945,0,0,0,0,0,0,0,-1,2015,1009,67.3594,-5.49946
798,15,67.7197,6.69128,0,0,0,0,0,0,0,-1,2022,1009,67.7197,-6.69127
805,15,66.8518,4.17676,0,0,0,0,0,0,0,-1,2029,1009,66.8517,-4.17677
812,15,66.7568,6.7915,0,0,0,0,0,0,0,-1,2036,1009,66.7569,-6.79153
-700,8,0,0,0,0,0,0,0,0,0,-1,524,1016,0,0
-693,8,-58.4706,1.85406,0,0,0,0,0,0,0,-1,531,1016,-58.4706,-1.85407
-686,8,-58.4904,3.05115,0,0,0,0,0,0,0,-1,538,1016,-58.4904,-3.05115
-679,8,-58.9575,3.48096,-0.00541511,0.0891743,0.0252965,0.0955144,-0.0117553,1.32522,0.0679346,0.046124,545,1016,-58.9574,-3.48097
-672,8,-58.413,5.01794,-0.00506782,0.0805519,0.0203015,0.0851217,-0.00963766,1.34939,0.060218,0.0474576,552,1016,-58.413,-5.01793
-665,8,-57.6636,6.33942,0,0,0,0,0,0,0,-1,559,1016,-57.6636,-6.33945
-658,8,-55.1605,4.35193,0,0,0,0,0,0,0,-1,566,1016,-55.1605,-4.35194
-651,8,-53.9449,4.52704,0,0,0,0,0,0,0,-1,573,1016,-53.9449,-4.52702
-644,8,-55.778,4.70874,0,0,0,0,0,0,0,-1,580,1016,-55.778,-4.70872
-637,8,-55.8262,4.94769,-0.0073124,0.0322992,0.00430815,0.0327624,-0.00777554,1.4637,0.0248424,0.0459514,587,1016,-55.8262,-4.94767
-630,8,-56.0842,5.15649,-0.00728692,0.0228541,0.00214879,0.0230065,-0.00743933,1.49998,0.0183278,0.0279975,594,1016,-56.0841,-5.15647
-623,8,-56.075,5.18292,-0.00725757,0.0144788,0.00027406,0.0144823,-0.00726102,1.55819,0.0127822,0.0177594,601,1016,-56.0749,-5.1829
-616,8,-56.1031,5.13269,-0.00630639,0.00674389,-0.00246735,0.00719479,-0.0067573,-1.39004,0.00805657,0.0200051,608,1016,-56.1031,-5.13268
-609,8,-56.2189,5.05017,-0.00382931,0.00112471,-0.00643331,0.00554139,-0.00824599,-0.969165,0.00801104,0.0232718,615,1016,-56.2189,-5.05014
-602,8,-56.1877,5.10046,-0.00107227,-0.00287198,-0.0118283,0.00989032,-0.0138346,-0.747433,0.0137605,0.0253887,622,1016,-56.1877,-5.10044
-595,8,-56.2869,5.02045,0,0,0,0,0,0,0,-1,629,1016,-56.2869,-5.02046
-588,8,-54.4337,0.382202,0,0,0,0,0,0,0,-1,636,1016,-54.4337,-0.382177
-581,8,-54.5635,0.555176,0,0,0,0,0,0,0,-1,643,1016,-54.5636,-0.55515
-574,8,-54.6751,0.613892,0,0,0,0,0,0,0,-1,650,1016,-54.6751,-0.613888
-567,8,-54.5521,0.263306,0,0,0,0,0,0,0,-1,657,1016,-54.5521,-0.263329
-560,8,-54.4337,0.175476,0,0,0,0,0,0,0,-1,664,1016,-54.4337,-0.175469
-553,8,-54.4931,0.3927,0,0,0,0,0,0,0,-1,671,1016,-54.4931,-0.39272
-546,8,-54.5546,0.453735,0,0,0,0,0,0,0,-1,678,1016,-54.5546,-0.453744
-539,8,-54.5762,0.382935,0,0,0,0,0,0,0,-1,685,1016,-54.5762,-0.382953
-532,8,-54.574,0.575012,0,0,0,0,0,0,0,-1,692,1016,-54.574,-0.575025
-525,8,0,0,0,0,0,0,0,0,0,-1,699,1016,0,0
-518,8,0,0,0,0,0,0,0,0,0,-1,706,1016,0,0
-511,8,0,0,0,0,0,0,0,0,0,-1,713,1016,0,0
-504,8,0,0,0,0,0,0,0,0,0,-1,720,1016,0,0
-497,8,0,0,0,0,0,0,0,0,0,-1,727,1016,0,0
-490,8,0,0,0,0,0,0,0,0,0,-1,734,1016,0,0
-483,8,0,0,0,0,0,0,0,0,0,-1,741,1016,0,0
-476,8,0,0,0,0,0,0,0,0,0,-1,748,1016,0,0
-469,8,0,0,0,0,0,0,0,0,0,-1,755,1016,0,0
-462,8,0,0,0,0,0,0,0,0,0,-1,762,1016,0,0
-455,8,0,0,0,0,0,0,0,0,0,-1,769,1016,0,0
-448,8,0,0,0,0,0,0,0,0,0,-1,776,1016,0,0
-441,8,0,0,0,0,0,0,0,0,0,-1,783,1016,0,0
-434,8,0,0,0,0,0,0,0,0,0,-1,790,1016,0,0
-427,8,0,0,0,0,0,0,0,0,0,-1,797,1016,0,0
-420,8,0,0,0,0,0,0,0,0,0,-1,804,1016,0,0
-413,8,0,0,0,0,0,0,0,0,0,-1,811,1016,0,0
-406,8,0,0,0,0,0,0,0,0,0,-1,818,1016,0,0
-399,8,0,0,0,0,0,0,0,0,0,-1,825,1016,0,0
-392,8,0,0,0,0,0,0,0,0,0,-1,832,1016,0,0
-385,8,0,0,0,0,0,0,0,0,0,-1,839,1016,0,0
-378,8,0,0,0,0,0,0,0,0,0,-1,846,1016,0,0
-371,8,0,0,0,0,0,0,0,0,0,-1,853,1016,0,0
-364,8,0,0,0,0,0,0,0,0,0,-1,860,1016,0,0
-357,8,0,0,0,0,0,0,0,0,0,-1,867,1016,0,0
-350,8,0,0,0,0,0,0,0,0,0,-1,874,1016,0,0
-343,8,0,0,0,0,0,0,0,0,0,-1,881,1016,0,0
-336,8,0,0,0,0,0,0,0,0,0,-1,888,1016,0,0
-329,8,0,0,0,0,0,0,0,0,0,-1,895,1016,0,0
-322,8,0,0,0,0,0,0,0,0,0,-1,902,1016,0,0
-315,8,0,0,0,0,0,0,0,0,0,-1,909,1016,0,0
-308,8,0,0,0,0,0,0,0,0,0,-1,916,1016,0,0
-301,8,0,0,0,0,0,0,0,0,0,-1,923,1016,0,0
-294,8,0,0,0,0,0,0,0,0,0,-1,930,1016,0,0
-287,8,0,0,0,0,0,0,0,0,0,-1,937,1016,0,0
-280,8,0,0,0,0,0,0,0,0,0,-1,944,1016,0,0
-273,8,0,0,0,0,0,0,0,0,0,-1,951,1016,0,0
-266,8,0,0,0,0,0,0,0,0,0,-1,958,1016,0,0
-259,8,0,0,0,0,0,0,0,0,0,-1,965,1016,0,0
-252,8,0,0,0,0,0,0,0,0,0,-1,972,1016,0,0
-245,8,0,0,0,0,0,0,0,0,0,-1,979,1016,0,0
-238,8,0,0,0,0,0,0,0,0,0,-1,986,1016,0,0
-231,8,0,0,0,0,0,0,0,0,0,-1,993,1016,0,0
-224,8,0,0,0,0,0,0,0,0,0,-1,1000,1016,0,0
-217,8,0,0,0,0,0,0,0,0,0,-1,1007,1016,0,0
-210,8,0,0,0,0,0,0,0,0,0,-1,1014,1016,0,0
-203,8,0,0,0,0,0,0,0,0,0,-1,1021,1016,0,0
-196,8,0,0,0,0,0,0,0,0,0,-1,1028,1016,0,0
-189,8,0,0,0,0,0,0,0,0,0,-1,1035,1016,0,0
-182,8,0,0,0,0,0,0,0,0,0,-1,1042,1016,0,0
-175,8,0,0,0,0,0,0,0,0,0,-1,1049,1016,0,0
-168,8,0,0,0,0,0,0,0,0,0,-1,1056,1016,0,0
-161,8,0,0,0,0,0,0,0,0,0,-1,1063,1016,0,0
-154,8,0,0,0,0,0,0,0,0,0,-1,1070,1016,0,0
-147,8,0,0,0,0,0,0,0,0,0,-1,1077,1016,0,0
-140,8,0,0,0,0,0,0,0,0,0,-1,1084,1016,0,0
-133,8,0,0,0,0,0,0,0,0,0,-1,1091,1016,0,0
-126,8,0,0,0,0,0,0,0,0,0,-1,1098,1016,0,0
-119,8,0,0,0,0,0,0,0,0,0,-1,1105,1016,0,0
-112,8,0,0,0,0,0,0,0,0,0,-1,1112,1016,0,0
-105,8,0,0,0,0,0,0,0,0,0,-1,1119,1016,0,0
-98,8,0,0,0,0,0,0,0,0,0,-1,1126,1016,0,0
-91,8,0,0,0,0,0,0,0,0,0,-1,1133,1016,0,0
-84,8,0,0,0,0,0,0,0,0,0,-1,1140,1016,0,0
-77,8,0,0,0,0,0,0,0,0,0,-1,1147,1016,0,0
-70,8,0,0,0,0,0,0,0,0,0,-1,1154,1016,0,0
-63,8,0,0,0,0,0,0,0,0,0,-1,1161,1016,0,0
-56,8,0,0,0,0,0,0,0,0,0,-1,1168,1016,0,0
-49,8,0,0,0,0,0,0,0,0,0,-1,1175,1016,0,0
-42,8,0,0,0,0,0,0,0,0,0,-1,1182,1016,0,0
-35,8,0,0,0,0,0,0,0,0,0,-1,1189,1016,0,0
-28,8,0,0,0,0,0,0,0,0,0,-1,1196,1016,0,0
-21,8,0,0,0,0,0,0,0,0,0,-1,1203,1016,0,0
-14,8,0,0,0,0,0,0,0,0,0,-1,1210,1016,0,0
-7,8,0,0,0,0,0,0,0,0,0,-1,1217,1016,0,0
0,8,0,0,0,0,0,0,0,0,0,-1,1224,1016,0,0
7,8,0,0,0,0,0,0,0,0,0,-1,1231,1016,0,0
14,8,0,0,0,0,0,0,0,0,0,-1,1238,1016,0,0
21,8,0,0,0,0,0,0,0,0,0,-1,1245,1016,0,0
28,8,0,0,0,0,0,0,0,0,0,-1,1252,1016,0,0
35,8,0,0,0,0,0,0,0,0,0,-1,1259,1016,0,0
42,8,0,0,0,0,0,0,0,0,0,-1,1266,1016,0,0
49,8,0,0,0,0,0,0,0,0,0,-1,1273,1016,0,0
56,8,0,0,0,0,0,0,0,0,0,-1,1280,1016,0,0
63,8,0,0,0,0,0,0,0,0,0,-1,1287,1016,0,0
70,8,0,0,0,0,0,0,0,0,0,-1,1294,1016,0,0
77,8,0,0,0,0,0,0,0,0,0,-1,1301,1016,0,0
84,8,0,0,0,0,0,0,0,0,0,-1,1308,1016,0,0
91,8,0,0,0,0,0,0,0,0,0,-1,1315,1016,0,0
98,8,0,0,0,0,0,0,0,0,0,-1,1322,1016,0,0
105,8,0,0,0,0,0,0,0,0,0,-1,1329,1016,0,0
112,8,0,0,0,0,0,0,0,0,0,-1,1336,1016,0,0
119,8,0,0,0,0,0,0,0,0,0,-1,1343,1016,0,0
126,8,0,0,0,0,0,0,0,0,0,-1,1350,1016,0,0
133,8,0,0,0,0,0,0,0,0,0,-1,1357,1016,0,0
140,8,0,0,0,0,0,0,0,0,0,-1,1364,1016,0,0
147,8,0,0,0,0,0,0,0,0,0,-1,1371,1016,0,0
154,8,0,0,0,0,0,0,0,0,0,-1,1378,1016,0,0
161,8,0,0,0,0,0,0,0,0,0,-1,1385,1016,0,0
168,8,0,0,0,0,0,0,0,0,0,-1,1392,1016,0,0
175,8,0,0,0,0,0,0,0,0,0,-1,1399,1016,0,0
182,8,0,0,0,0,0,0,0,0,0,-1,1406,1016,0,0
189,8,0,0,0,0,0,0,0,0,0,-1,1413,1016,0,0
196,8,0,0,0,0,0,0,0,0,0,-1,1420,1016,0,0
203,8,0,0,0,0,0,0,0,0,0,-1,1427,1016,0,0
210,8,0,0,0,0,0,0,0,0,0,-1,1434,1016,0,0
217,8,0,0,0,0,0,0,0,0,0,-1,1441,1016,0,0
224,8,0,0,0,0,0,0,0,0,0,-1,1448,1016,0,0
231,8,0,0,0,0,0,0,0,0,0,-1,1455,1016,0,0
238,8,0,0,0,0,0,0,0,0,0,-1,1462,1016,0,0
245,8,0,0,0,0,0,0,0,0,0,-1,1469,1016,0,0
252,8,0,0,0,0,0,0,0,0,0,-1,1476,1016,0,0
259,8,0,0,0,0,0,0,0,0,0,-1,1483,1016,0,0
266,8,0,0,0,0,0,0,0,0,0,-1,1490,1016,0,0
273,8,0,0,0,0,0,0,0,0,0,-1,1497,1016,0,0
280,8,0,0,0,0,0,0,0,0,0,-1,1504,1016,0,0
287,8,0,0,0,0,0,0,0,0,0,-1,1511,1016,0,0
294,8,0,0,0,0,0,0,0,0,0,-1,1518,1016,0,0
301,8,0,0,0,0,0,0,0,0,0,-1,1525,1016,0,0
308,8,0,0,0,0,0,0,0,0,0,-1,1532,1016,0,0
315,8,0,0,0,0,0,0,0,0,0,-1,1539,1016,0,0
322,8,0,0,0,0,0,0,0,0,0,-1,1546,1016,0,0
329,8,0,0,0,0,0,0,0,0,0,-1,1553,1016,0,0
336,8,0,0,0,0,0,0,0,0,0,-1,1560,1016,0,0
343,8,0,0,0,0,0,0,0,0,0,-1,1567,1016,0,0
350,8,0,0,0,0,0,0,0,0,0,-1,1574,1016,0,0
357,8,0,0,0,0,0,0,0,0,0,-1,1581,1016,0,0
364,8,0,0,0,0,0,0,0,0,0,-1,1588,1016,0,0
371,8,0,0,0,0,0,0,0,0,0,-1,1595,1016,0,0
378,8,0,0,0,0,0,0,0,0,0,-1,1602,1016,0,0
385,8,0,0,0,0,0,0,0,0,0,-1,1609,1016,0,0
392,8,0,0,0,0,0,0,0,0,0,-1,1616,1016,0,0
399,8,0,0,0,0,0,0,0,0,0,-1,1623,1016,0,0
406,8,0,0,0,0,0,0,0,0,0,-1,1630,1016,0,0
413,8,0,0,0,0,0,0,0,0,0,-1,1637,1016,0,0
420,8,0,0,0,0,0,0,0,0,0,-1,1644,1016,0,0
427,8,0,0,0,0,0,0,0,0,0,-1,1651,1016,0,0
434,8,0,0,0,0,0,0,0,0,0,-1,1658,1016,0,0
441,8,0,0,0,0,0,0,0,0,0,-1,1665,1016,0,0
448,8,0,0,0,0,0,0,0,0,0,-1,1672,1016,0,0
455,8,0,0,0,0,0,0,0,0,0,-1,1679,1016,0,0
462,8,0,0,0,0,0,0,0,0,0,-1,1686,1016,0,0
469,8,0,0,0,0,0,0,0,0,0,-1,1693,1016,0,0
476,8,0,0,0,0,0,0,0,0,0,-1,1700,1016,0,0
483,8,0,0,0,0,0,0,0,0,0,-1,1707,1016,0,0
490,8,0,0,0,0,0,0,0,0,0,-1,1714,1016,0,0
497,8,0,0,0,0,0,0,0,0,0,-1,1721,1016,0,0
504,8,0,0,0,0,0,0,0,0,0,-1,1728,1016,0,0
511,8,0,0,0,0,0,0,0,0,0,-1,1735,1016,0,0
518,8,0,0,0,0,0,0,0,0,0,-1,1742,1016,0,0
525,8,0,0,0,0,0,0,0,0,0,-1,1749,1016,0,0
532,8,0,0,0,0,0,0,0,0,0,-1,1756,1016,0,0
539,8,0,0,0,0,0,0,0,0,0,-1,1763,1016,0,0
546,8,0,0,0,0,0,0,0,0,0,-1,1770,1016,0,0
553,8,0,0,0,0,0,0,0,0,0,-1,1777,1016,0,0
560,8,0,0,0,0,0,0,0,0,0,-1,1784,1016,0,0
567,8,0,0,0,0,0,0,0,0,0,-1,1791,1016,0,0
574,8,0,0,0,0,0,0,0,0,0,-1,1798,1016,0,0
581,8,0,0,0,0,0,0,0,0,0,-1,1805,1016,0,0
588,8,0,0,0,0,0,0,0,0,0,-1,1812,1016,0,0
595,8,0,0,0,0,0,0,0,0,0,-1,1819,1016,0,0
602,8,0,0,0,0,0,0,0,0,0,-1,1826,1016,0,0
609,8,0,0,0,0,0,0,0,0,0,-1,1833,1016,0,0
616,8,0,0,0,0,0,0,0,0,0,-1,1840,1016,0,0
623,8,0,0,0,0,0,0,0,0,0,-1,1847,1016,0,0
630,8,0,0,0,0,0,0,0,0,0,-1,1854,1016,0,0
637,8,0,0,0,0,0,0,0,0,0,-1,1861,1016,0,0
644,8,70.8325,2.45538,0.00268824,-0.00517714,-0.00158397,0.00299525,-0.00548414,-0.191446,0.00496538,0.045031,1868,1016,70.8325,-2.4554
651,8,70.9343,2.37421,0.00155054,-0.0038063,-0.00137996,0.00188513,-0.00414089,-0.237872,0.00355945,0.0394034,1875,1016,70.9343,-2.3742
658,8,71.0083,2.23602,0.00070032,-0.00283549,-0.00114108,0.00103659,-0.00317176,-0.286582,0.00253179,0.0377724,1882,1016,71.0083,-2.23604
665,8,71.141,2.14825,0.000148911,-0.00203251,-0.00083692,0.000433005,-0.0023166,-0.327246,0.00170714,0.0400083,1889,1016,71.141,-2.14827
672,8,71.114,2.16071,-0.00020579,-0.00138559,-0.000497605,-2.39435e-05,-0.00156744,-0.350365,0.00103707,0.038668,1896,1016,71.114,-2.1607
679,8,71.0272,2.28485,-0.000371005,-0.000852873,-0.000154218,-0.000325875,-0.000898003,-0.284687,0.00052492,0.0377411,1903,1016,71.0272,-2.28488
686,8,70.9204,2.42792,-0.000517565,-0.000714133,6.79947e-05,-0.000496337,-0.00073536,0.302607,0.000433138,0.0414193,1910,1016,70.9204,-2.42794
693,8,70.8615,2.34485,-0.000622152,-0.000754127,0.000226898,-0.00045184,-0.000924438,0.643889,0.00053377,0.0386537,1917,1016,70.8614,-2.34486
700,8,70.9603,2.18073,-0.000687269,-0.000706639,0.000261825,-0.00043495,-0.000958958,0.766911,0.00055445,0.0309525,1924,1016,70.9603,-2.18075
707,8,70.9866,2.18182,-0.00133491,-0.000235933,0.000247691,-0.000182687,-0.00138815,1.35905,0.00087095,0.0231681,1931,1016,70.9866,-2.1818
714,8,70.9957,2.13794,-0.00241975,0.000730336,0.000253085,0.00075054,-0.00243995,1.49114,0.00192619,0.0234697,1938,1016,70.9957,-2.13796
721,8,71.0096,2.06934,0,0,0,0,0,0,0,-1,1945,1016,71.0096,-2.06933
728,8,52.1681,5.36774,0,0,0,0,0,0,0,-1,1952,1016,52.168,-5.36773
735,8,71.1326,6.85126,0,0,0,0,0,0,0,-1,1959,1016,71.1326,-6.85127
742,8,71.0479,7.03424,0,0,0,0,0,0,0,-1,1966,1016,71.0479,-7.03421
749,8,71.3163,7.047,0,0,0,0,0,0,0,-1,1973,1016,71.3162,-7.04699
756,8,71.165,6.76276,-0.0126346,0.0132857,-0.00131652,0.0133524,-0.0127013,-1.52018,0.0150437,0.0399991,1980,1016,71.1649,-6.76275
763,8,71.1182,6.90234,-0.014969,0.017435,-0.00186949,0.0175425,-0.0150765,-1.51336,0.0188505,0.0166642,1987,1016,71.1182,-6.90234
770,8,70.9648,6.85944,-0.0168707,0.0227486,-0.00251012,0.022907,-0.0170291,-1.50778,0.0231402,0.0220114,1994,1016,70.9648,-6.85943
777,8,70.5679,6.80414,-0.0177124,0.0281441,-0.00314021,0.0283581,-0.0179264,-1.50274,0.0269477,0.0360538,2001,1016,70.5679,-6.80413
784,8,70.2058,6.71399,0,0,0,0,0,0,0,-1,2008,1016,70.2058,-6.71397
791,8,68.6685,6.11176,0,0,0,0,0,0,0,-1,2015,1016,68.6683,-6.11175
798,8,67.9675,6.01642,0,0,0,0,0,0,0,-1,2022,1016,67.9676,-6.0164
805,8,69.4014,2.42334,0,0,0,0,0,0,0,-1,2029,1016,69.4014,-2.42332
812,8,66.925,5.26801,0,0,0,0,0,0,0,-1,2036,1016,66.9251,-5.26801
-700,1,0,0,0,0,0,0,0,0,0,-1,524,1023,0,0
-693,1,-57.6598,1.27271,-0.00952557,0.103027,0.0377933,0.11454,-0.0210383,1.2751,0.0842528,0.0423276,531,1023,-57.6598,-1.27268
-686,1,-57.8026,2.40009,-0.00553295,0.097001,0.0289585,0.104614,-0.0131464,1.31371,0.0745127,0.0454484,538,1023,-57.8026,-2.40009
-679,1,-57.8878,3.16638,-0.00458567,0.0889387,0.0228452,0.0942208,-0.00986774,1.34358,0.0663481,0.0479213,545,1023,-57.8879,-3.16641
-672,1,-57.6651,4.14838,-0.00467482,0.080032,0.0180371,0.0837128,-0.00835562,1.36949,0.058792,0.0469471,552,1023,-57.6651,-4.14835
-665,1,-56.7679,4.31482,-0.00517005,0.0706707,0.0141366,0.07322,-0.0077194,1.39238,0.0515794,0.0466258,559,1023,-56.7679,-4.3148
-658,1,-55.8358,4.10645,0,0,0,0,0,0,0,-1,566,1023,-55.8357,-4.10643
-651,1,-54.2266,4.49854,0,0,0,0,0,0,0,-1,573,1023,-54.2266,-4.49852
-644,1,-55.5848,4.95313,0,0,0,0,0,0,0,-1,580,1023,-55.5848,-4.95313
-637,1,-55.8162,4.89648,-0.00712701,0.0315425,0.00312231,0.0317929,-0.00737749,1.49074,0.0240349,0.0436556,587,1023,-55.8162,-4.89648
-630,1,-56.1769,4.95129,-0.00685958,0.0220612,0.00121506,0.0221122,-0.00691054,1.52888,0.0175057,0.0387712,594,1023,-56.1769,-4.95128
-623,1,-56.0293,5.13678,-0.00678434,0.0134157,-0.000256338,0.013419,-0.00678759,-1.55811,0.0118738,0.018718,601,1023,-56.0293,-5.1368
-616,1,-56.178,5.02783,-0.00602731,0.00520048,-0.00236382,0.00567785,-0.00650468,-1.37153,0.00703898,0.02444,608,1023,-56.1781,-5.02781
-609,1,-56.1913,5.08618,-0.003681,-0.00100126,-0.00558727,0.00340455,-0.0080868,-0.90308,0.00681565,0.025829,615,1023,-56.1913,-5.0862
-602,1,-56.0027,5.22955,-0.00109481,-0.00575281,-0.00996271,0.0068075,-0.0136551,-0.670574,0.0120326,0.0169856,622,1023,-56.0027,-5.22953
-595,1,-56.0185,5.2713,0,0,0,0,0,0,0,-1,629,1023,-56.0185,-5.2713
-588,1,-56.0276,5.42572,0,0,0,0,0,0,0,-1,636,1023,-56.0276,-5.42575
-581,1,-54.5472,0.566467,0,0,0,0,0,0,0,-1,643,1023,-54.5472,-0.566457
-574,1,-54.5927,0.551575,0,0,0,0,0,0,0,-1,650,1023,-54.5927,-0.55156
-567,1,-54.5067,0.267273,0,0,0,0,0,0,0,-1,657,1023,-54.5067,-0.267273
-560,1,-54.3728,0.273376,0,0,0,0,0,0,0,-1,664,1023,-54.3728,-0.273365
-553,1,-54.3404,0.423584,0,0,0,0,0,0,0,-1,671,1023,-54.3404,-0.423604
-546,1,-54.303,0.568665,0,0,0,0,0,0,0,-1,678,1023,-54.303,-0.568658
-539,1,-54.4202,0.57959,0,0,0,0,0,0,0,-1,685,1023,-54.4203,-0.579593
-532,1,-54.5204,0.745056,0,0,0,0,0,0,0,-1,692,1023,-54.5204,-0.745047
-525,1,0,0,0,0,0,0,0,0,0,-1,699,1023,0,0
-518,1,0,0,0,0,0,0,0,0,0,-1,706,1023,0,0
-511,1,0,0,0,0,0,0,0,0,0,-1,713,1023,0,0
-504,1,0,0,0,0,0,0,0,0,0,-1,720,1023,0,0
-497,1,0,0,0,0,0,0,0,0,0,-1,727,1023,0,0
-490,1,0,0,0,0,0,0,0,0,0,-1,734,1023,0,0
-483,1,0,0,0,0,0,0,0,0,0,-1,741,1023,0,0
-476,1,0,0,0,0,0,0,0,0,0,-1,748,1023,0,0
-469,1,0,0,0,0,0,0,0,0,0,-1,755,1023,0,0
-462,1,0,0,0,0,0,0,0,0,0,-1,762,1023,0,0
-455,1,0,0,0,0,0,0,0,0,0,-1,769,1023,0,0
-448,1,0,0,0,0,0,0,0,0,0,-1,776,1023,0,0
-441,1,0,0,0,0,0,0,0,0,0,-1,783,1023,0,0
-434,1,0,0,0,0,0,0,0,0,0,-1,790,1023,0,0
-427,1,0,0,0,0,0,0,0,0,0,-1,797,1023,0,0
-420,1,0,0,0,0,0,0,0,0,0,-1,804,1023,0,0
-413,1,0,0,0,0,0,0,0,0,0,-1,811,1023,0,0
-406,1,0,0,0,0,0,0,0,0,0,-1,818,1023,0,0
-399,1,0,0,0,0,0,0,0,0,0,-1,825,1023,0,0
-392,1,0,0,0,0,0,0,0,0,0,-1,832,1023,0,0
-385,1,0,0,0,0,0,0,0,0,0,-1,839,1023,0,0
-378,1,0,0,0,0,0,0,0,0,0,-1,846,1023,0,0
-371,1,0,0,0,0,0,0,0,0,0,-1,853,1023,0,0
-364,1,0,0,0,0,0,0,0,0,0,-1,860,1023,0,0
-357,1,0,0,0,0,0,0,0,0,0,-1,867,1023,0,0
-350,1,0,0,0,0,0,0,0,0,0,-1,874,1023,0,0
-343,1,0,0,0,0,0,0,0,0,0,-1,881,1023,0,0
-336,1,0,0,0,0,0,0,0,0,0,-1,888,1023,0,0
-329,1,0,0,0,0,0,0,0,0,0,-1,895,1023,0,0
-322,1,0,0,0,0,0,0,0,0,0,-1,902,1023,0,0
-315,1,0,0,0,0,0,0,0,0,0,-1,909,1023,0,0
-308,1,0,0,0,0,0,0,0,0,0,-1,916,1023,0,0
-301,1,0,0,0,0,0,0,0,0,0,-1,923,1023,0,0
-294,1,0,0,0,0,0,0,0,0,0,-1,930,1023,0,0
-287,1,0,0,0,0,0,0,0,0,0,-1,937,1023,0,0
-280,1,0,0,0,0,0,0,0,0,0,-1,944,1023,0,0
-273,1,0,0,0,0,0,0,0,0,0,-1,951,1023,0,0
-266,1,0,0,0,0,0,0,0,0,0,-1,958,1023,0,0
-259,1,0,0,0,0,0,0,0,0,0,-1,965,1023,0,0
-252,1,0,0,0,0,0,0,0,0,0,-1,972,1023,0,0
-245,1,0,0,0,0,0,0,0,0,0,-1,979,1023,0,0
-238,1,0,0,0,0,0,0,0,0,0,-1,986,1023,0,0
-231,1,0,0,0,0,0,0,0,0,0,-1,993,1023,0,0
-224,1,0,0,0,0,0,0,0,0,0,-1,1000,1023,0,0
-217,1,0,0,0,0,0,0,0,0,0,-1,1007,1023,0,0
-210,1,0,0,0,0,0,0,0,0,0,-1,1014,1023,0,0
-203,1,0,0,0,0,0,0,0,0,0,-1,1021,1023,0,0
-196,1,0,0,0,0,0,0,0,0,0,-1,1028,1023,0,0
-189,1,0,0,0,0,0,0,0,0,0,-1,1035,1023,0,0
-182,1,0,0,0,0,0,0,0,0,0,-1,1042,1023,0,0
-175,1,0,0,0,0,0,0,0,0,0,-1,1049,1023,0,0
-168,1,0,0,0,0,0,0,0,0,0,-1,1056,1023,0,0
-161,1,0,0,0,0,0,0,0,0,0,-1,1063,1023,0,0
-154,1,0,0,0,0,0,0,0,0,0,-1,1070,1023,0,0
-147,1,0,0,0,0,0,0,0,0,0,-1,1077,1023,0,0
-140,1,0,0,0,0,0,0,0,0,0,-1,1084,1023,0,0
-133,1,0,0,0,0,0,0,0,0,0,-1,1091,1023,0,0
-126,1,0,0,0,0,0,0,0,0,0,-1,1098,1023,0,0
-119,1,0,0,0,0,0,0,0,0,0,-1,1105,1023,0,0
-112,1,0,0,0,0,0,0,0,0,0,-1,1112,1023,0,0
-105,1,0,0,0,0,0,0,0,0,0,-1,1119,1023,0,0
-98,1,0,0,0,0,0,0,0,0,0,-1,1126,1023,0,0
-91,1,0,0,0,0,0,0,0,0,0,-1,1133,1023,0,0
-84,1,0,0,0,0,0,0,0,0,0,-1,1140,1023,0,0
-77,1,0,0,0,0,0,0,0,0,0,-1,1147,1023,0,0
-70,1,0,0,0,0,0,0,0,0,0,-1,1154,1023,0,0
-63,1,0,0,0,0,0,0,0,0,0,-1,1161,1023,0,0
-56,1,0,0,0,0,0,0,0,0,0,-1,1168,1023,0,0
-49,1,0,0,0,0,0,0,0,0,0,-1,1175,1023,0,0
-42,1,0,0,0,0,0,0,0,0,0,-1,1182,1023,0,0
-35,1,0,0,0,0,0,0,0,0,0,-1,1189,1023,0,0
-28,1,0,0,0,0,0,0,0,0,0,-1,1196,1023,0,0
-21,1,0,0,0,0,0,0,0,0,0,-1,1203,1023,0,0
-14,1,0,0,0,0,0,0,0,0,0,-1,1210,1023,0,0
-7,1,0,0,0,0,0,0,0,0,0,-1,1217,1023,0,0
0,1,0,0,0,0,0,0,0,0,0,-1,1224,1023,0,0
7,1,0,0,0,0,0,0,0,0,0,-1,1231,1023,0,0
14,1,0,0,0,0,0,0,0,0,0,-1,1238,1023,0,0
21,1,0,0,0,0,0,0,0,0,0,-1,1245,1023,0,0
28,1,0,0,0,0,0,0,0,0,0,-1,1252,1023,0,0
35,1,0,0,0,0,0,0,0,0,0,-1,1259,1023,0,0
42,1,0,0,0,0,0,0,0,0,0,-1,1266,1023,0,0
49,1,0,0,0,0,0,0,0,0,0,-1,1273,1023,0,0
56,1,0,0,0,0,0,0,0,0,0,-1,1280,1023,0,0
63,1,0,0,0,0,0,0,0,0,0,-1,1287,1023,0,0
70,1,0,0,0,0,0,0,0,0,0,-1,1294,1023,0,0
77,1,0,0,0,0,0,0,0,0,0,-1,1301,1023,0,0
84,1,0,0,0,0,0,0,0,0,0,-1,1308,1023,0,0
91,1,0,0,0,0,0,0,0,0,0,-1,1315,1023,0,0
98,1,0,0,0,0,0,0,0,0,0,-1,1322,1023,0,0
105,1,0,0,0,0,0,0,0,0,0,-1,1329,1023,0,0
112,1,0,0,0,0,0,0,0,0,0,-1,1336,1023,0,0
119,1,0,0,0,0,0,0,0,0,0,-1,1343,1023,0,0
126,1,0,0,0,0,0,0,0,0,0,-1,1350,1023,0,0
133,1,0,0,0,0,0,0,0,0,0,-1,1357,1023,0,0
140,1,0,0,0,0,0,0,0,0,0,-1,1364,1023,0,0
147,1,0,0,0,0,0,0,0,0,0,-1,1371,1023,0,0
154,1,0,0,0,0,0,0,0,0,0,-1,1378,1023,0,0
161,1,0,0,0,0,0,0,0,0,0,-1,1385,1023,0,0
168,1,0,0,0,0,0,0,0,0,0,-1,1392,1023,0,0
175,1,0,0,0,0,0,0,0,0,0,-1,1399,1023,0,0
182,1,0,0,0,0,0,0,0,0,0,-1,1406,1023,0,0
189,1,0,0,0,0,0,0,0,0,0,-1,1413,1023,0,0
196,1,0,0,0,0,0,0,0,0,0,-1,1420,1023,0,0
203,1,0,0,0,0,0,0,0,0,0,-1,1427,1023,0,0
210,1,0,0,0,0,0,0,0,0,0,-1,1434,1023,0,0
217,1,0,0,0,0,0,0,0,0,0,-1,1441,1023,0,0
224,1,0,0,0,0,0,0,0,0,0,-1,1448,1023,0,0
231,1,0,0,0,0,0,0,0,0,0,-1,1455,1023,0,0
238,1,0,0,0,0,0,0,0,0,0,-1,1462,1023,0,0
245,1,0,0,0,0,0,0,0,0,0,-1,1469,1023,0,0
252,1,0,0,0,0,0,0,0,0,0,-1,1476,1023,0,0
259,1,0,0,0,0,0,0,0,0,0,-1,1483,1023,0,0
266,1,0,0,0,0,0,0,0,0,0,-1,1490,1023,0,0
273,1,0,0,0,0,0,0,0,0,0,-1,1497,1023,0,0
280,1,0,0,0,0,0,0,0,0,0,-1,1504,1023,0,0
287,1,0,0,0,0,0,0,0,0,0,-1,1511,1023,0,0
294,1,0,0,0,0,0,0,0,0,0,-1,1518,1023,0,0
301,1,0,0,0,0,0,0,0,0,0,-1,1525,1023,0,0
308,1,0,0,0,0,0,0,0,0,0,-1,1532,1023,0,0
315,1,0,0,0,0,0,0,0,0,0,-1,1539,1023,0,0
322,1,0,0,0,0,0,0,0,0,0,-1,1546,1023,0,0
329,1,0,0,0,0,0,0,0,0,0,-1,1553,1023,0,0
336,1,0,0,0,0,0,0,0,0,0,-1,1560,1023,0,0
343,1,0,0,0,0,0,0,0,0,0,-1,1567,1023,0,0
350,1,0,0,0,0,0,0,0,0,0,-1,1574,1023,0,0
357,1,0,0,0,0,0,0,0,0,0,-1,1581,1023,0,0
364,1,0,0,0,0,0,0,0,0,0,-1,1588,1023,0,0
371,1,0,0,0,0,0,0,0,0,0,-1,1595,1023,0,0
378,1,0,0,0,0,0,0,0,0,0,-1,1602,1023,0,0
385,1,0,0,0,0,0,0,0,0,0,-1,1609,1023,0,0
392,1,0,0,0,0,0,0,0,0,0,-1,1616,1023,0,0
399,1,0,0,0,0,0,0,0,0,0,-1,1623,1023,0,0
406,1,0,0,0,0,0,0,0,0,0,-1,1630,1023,0,0
413,1,0,0,0,0,0,0,0,0,0,-1,1637,1023,0,0
420,1,0,0,0,0,0,0,0,0,0,-1,1644,1023,0,0
427,1,0,0,0,0,0,0,0,0,0,-1,1651,1023,0,0
434,1,0,0,0,0,0,0,0,0,0,-1,1658,1023,0,0
441,1,0,0,0,0,0,0,0,0,0,-1,1665,1023,0,0
448,1,0,0,0,0,0,0,0,0,0,-1,1672,1023,0,0
455,1,0,0,0,0,0,0,0,0,0,-1,1679,1023,0,0
462,1,0,0,0,0,0,0,0,0,0,-1,1686,1023,0,0
469,1,0,0,0,0,0,0,0,0,0,-1,1693,1023,0,0
476,1,0,0,0,0,0,0,0,0,0,-1,1700,1023,0,0
483,1,0,0,0,0,0,0,0,0,0,-1,1707,1023,0,0
490,1,0,0,0,0,0,0,0,0,0,-1,1714,1023,0,0
497,1,0,0,0,0,0,0,0,0,0,-1,1721,1023,0,0
504,1,0,0,0,0,0,0,0,0,0,-1,1728,1023,0,0
511,1,0,0,0,0,0,0,0,0,0,-1,1735,1023,0,0
518,1,0,0,0,0,0,0,0,0,0,-1,1742,1023,0,0
525,1,0,0,0,0,0,0,0,0,0,-1,1749,1023,0,0
532,1,0,0,0,0,0,0,0,0,0,-1,1756,1023,0,0
539,1,0,0,0,0,0,0,0,0,0,-1,1763,1023,0,0
546,1,0,0,0,0,0,0,0,0,0,-1,1770,1023,0,0
553,1,0,0,0,0,0,0,0,0,0,-1,1777,1023,0,0
560,1,0,0,0,0,0,0,0,0,0,-1,1784,1023,0,0
567,1,0,0,0,0,0,0,0,0,0,-1,1791,1023,0,0
574,1,0,0,0,0,0,0,0,0,0,-1,1798,1023,0,0
581,1,0,0,0,0,0,0,0,0,0,-1,1805,1023,0,0
588,1,0,0,0,0,0,0,0,0,0,-1,1812,1023,0,0
595,1,0,0,0,0,0,0,0,0,0,-1,1819,1023,0,0
602,1,0,0,0,0,0,0,0,0,0,-1,1826,1023,0,0
609,1,0,0,0,0,0,0,0,0,0,-1,1833,1023,0,0
616,1,0,0,0,0,0,0,0,0,0,-1,1840,1023,0,0
623,1,0,0,0,0,0,0,0,0,0,-1,1847,1023,0,0
630,1,0,0,0,0,0,0,0,0,0,-1,1854,1023,0,0
637,1,0,0,0,0,0,0,0,0,0,-1,1861,1023,0,0
644,1,0,0,0,0,0,0,0,0,0,-1,1868,1023,0,0
651,1,70.9999,2.25281,0.00164055,-0.00374498,-0.000912869,0.00179107,-0.00389551,-0.163425,0.00335725,0.0401918,1875,1023,70.9998,-2.25282
658,1,71.0696,2.16095,0.000749802,-0.00266561,-0.000784567,0.000921406,-0.00283721,-0.215333,0.00226205,0.040441,1882,1023,71.0696,-2.16093
665,1,71.1653,2.1709,0.000163876,-0.00182316,-0.000593606,0.000327702,-0.00198699,-0.269281,0.00144632,0.042097,1889,1023,71.1652,-2.17089
672,1,71.1056,2.1438,-0.000211885,-0.00115644,-0.000354684,-9.35297e-05,-0.00127479,-0.322073,0.000820464,0.0410242,1896,1023,71.1056,-2.1438
679,1,71.0951,2.25055,-0.000417608,-0.000603259,-0.000104275,-0.000370827,-0.00065004,-0.42171,0.000376541,0.0390648,1903,1023,71.0951,-2.25054
686,1,71.0313,2.36084,-0.000672659,-0.000479872,6.3009e-05,-0.000461106,-0.000691425,1.28132,0.000406539,0.0402929,1910,1023,71.0312,-2.36084
693,1,70.9894,2.32617,-0.000863698,-0.000559928,0.000213594,-0.000449723,-0.000973904,1.09446,0.000562831,0.0368139,1917,1023,70.9894,-2.32618
700,1,70.9849,2.2265,-0.000952532,-0.000585522,0.000289109,-0.000426597,-0.00111146,1.06818,0.000647449,0.0308591,1924,1023,70.9848,-2.22648
707,1,70.9661,2.20728,-0.00163461,-0.000186762,0.000338788,-0.000111409,-0.00170996,1.35194,0.00110471,0.0248627,1931,1023,70.9661,-2.20727
714,1,70.9708,2.11383,-0.00272631,0.000723546,0.000403508,0.000770113,-0.00277288,1.4559,0.00215173,0.0229943,1938,1023,70.9708,-2.1138
721,1,71.0553,2.0564,0,0,0,0,0,0,0,-1,1945,1023,71.0553,-2.05637
728,1,52.4639,5.59277,0,0,0,0,0,0,0,-1,1952,1023,52.4639,-5.59276
735,1,53.3617,6.10699,0,0,0,0,0,0,0,-1,1959,1023,53.3617,-6.10698
742,1,52.4393,5.81525,0,0,0,0,0,0,0,-1,1966,1023,52.4393,-5.81527
749,1,71.3738,6.69855,0,0,0,0,0,0,0,-1,1973,1023,71.3738,-6.69857
756,1,71.2588,6.85956,-0.0125722,0.0125888,-0.00098582,0.0126274,-0.0126108,-1.5317,0.0145713,0.043383,1980,1023,71.2588,-6.85953
763,1,71.0784,6.7652,-0.0147934,0.0164857,-0.00164417,0.0165719,-0.0148796,-1.51842,0.0181673,0.0174719,1987,1023,71.0784,-6.76518
770,1,71.0129,6.68481,-0.0166335,0.0214224,-0.00255734,0.0215935,-0.0168046,-1.504,0.0222265,0.019669,1994,1023,71.013,-6.68482
777,1,70.6843,6.58807,-0.0175562,0.0263896,-0.00359167,0.0266812,-0.0178478,-1.48978,0.0258769,0.0270033,2001,1023,70.6842,-6.5881
784,1,70.356,6.3736,-0.0171037,0.0307012,-0.00465841,0.0311509,-0.0175534,-1.47456,0.0284824,0.0482016,2008,1023,70.3559,-6.37359
791,1,70.0586,6.16125,0,0,0,0,0,0,0,-1,2015,1023,70.0585,-6.16128
798,1,69.5527,3.05798,0,0,0,0,0,0,0,-1,2022,1023,69.5527,-3.05799
805,1,69.593,2.88153,0,0,0,0,0,0,0,-1,2029,1023,69.593,-2.88153
812,1,69.8936,2.68451,0,0,0,0,0,0,0,-1,2036,1023,69.8936,-2.68451
-700,-6,0,0,0,0,0,0,0,0,0,-1,524,1030,0,0
-693,-6,-56.9104,0.515137,-0.0100262,0.103002,0.0373996,0.114257,-0.0212806,1.27849,0.0841663,0.0419433,531,1030,-56.9104,-0.515104
-686,-6,-57.1336,1.70972,-0.00585126,0.0970077,0.0280601,0.104165,-0.0130081,1.32107,0.0741604,0.0436509,538,1030,-57.1336,-1.7097
-679,-6,-57.7673,1.61755,0,0,0,0,0,0,0,-1,545,1030,-57.7673,-1.61757
-672,-6,-58.2361,1.7157,0,0,0,0,0,0,0,-1,552,1030,-58.2361,-1.71567
-665,-6,-55.6988,4.39868,-0.00485906,0.0702399,0.0132079,0.0724951,-0.00711427,1.40168,0.0508676,0.0483042,559,1030,-55.6988,-4.39865
-658,-6,-55.657,3.42065,-0.00535302,0.0604482,0.0101722,0.0619848,-0.00688966,1.42087,0.0438008,0.0419747,566,1030,-55.6569,-3.42068
-651,-6,-55.5413,3.92871,0,0,0,0,0,0,0,-1,573,1030,-55.5413,-3.9287
-644,-6,-55.4535,5.16284,0,0,0,0,0,0,0,-1,580,1030,-55.4535,-5.1629
-637,-6,-55.8009,5.02661,-0.0064143,0.0308408,0.00271613,0.0310378,-0.00661128,1.4984,0.0232116,0.0490216,587,1030,-55.8009,-5.02662
-630,-6,-55.978,4.9635,-0.00597727,0.0212475,0.000993783,0.0212837,-0.0060135,1.53436,0.0165617,0.0279406,594,1030,-55.978,-4.96345
-623,-6,-55.9503,5.04785,-0.0058507,0.0123475,-0.000252933,0.012351,-0.00585421,-1.5569,0.0107315,0.0203526,601,1030,-55.9503,-5.04785
-616,-6,-56.0247,5.03662,-0.00530814,0.00362507,-0.00191413,0.00401793,-0.005701,-1.36836,0.0056392,0.0236805,608,1030,-56.0247,-5.03663
-609,-6,-55.9993,5.17834,-0.00326455,-0.0033193,-0.00442721,0.00113537,-0.00771922,-0.782307,0.00556336,0.022494,615,1030,-55.9992,-5.17838
-602,-6,-55.8852,5.33276,-0.00108049,-0.00896625,-0.00759839,0.00353711,-0.0135839,-0.546068,0.0104367,0.0152885,622,1030,-55.8852,-5.33273
-595,-6,-55.9227,5.4436,0,0,0,0,0,0,0,-1,629,1030,-55.9226,-5.44364
-588,-6,-54.551,0.63916,0,0,0,0,0,0,0,-1,636,1030,-54.551,-0.63915
-581,-6,-54.5737,0.539795,0,0,0,0,0,0,0,-1,643,1030,-54.5737,-0.539789
-574,-6,-54.5911,0.481934,0,0,0,0,0,0,0,-1,650,1030,-54.5911,-0.481989
-567,-6,-54.6224,0.465698,0,0,0,0,0,0,0,-1,657,1030,-54.6224,-0.465751
-560,-6,-54.6353,0.595093,0,0,0,0,0,0,0,-1,664,1030,-54.6353,-0.595115
-553,-6,-54.2983,0.381836,0,0,0,0,0,0,0,-1,671,1030,-54.2983,-0.381828
-546,-6,-54.359,0.557007,0,0,0,0,0,0,0,-1,678,1030,-54.359,-0.557025
-539,-6,-54.4684,0.680542,0,0,0,0,0,0,0,-1,685,1030,-54.4684,-0.68052
-532,-6,-54.641,0.681885,0,0,0,0,0,0,0,-1,692,1030,-54.641,-0.681855
-525,-6,0,0,0,0,0,0,0,0,0,-1,699,1030,0,0
-518,-6,0,0,0,0,0,0,0,0,0,-1,706,1030,0,0
-511,-6,0,0,0,0,0,0,0,0,0,-1,713,1030,0,0
-504,-6,0,0,0,0,0,0,0,0,0,-1,720,1030,0,0
-497,-6,0,0,0,0,0,0,0,0,0,-1,727,1030,0,0
-490,-6,0,0,0,0,0,0,0,0,0,-1,734,1030,0,0
-483,-6,0,0,0,0,0,0,0,0,0,-1,741,1030,0,0
-476,-6,0,0,0,0,0,0,0,0,0,-1,748,1030,0,0
-469,-6,0,0,0,0,0,0,0,0,0,-1,755,1030,0,0
-462,-6,0,0,0,0,0,0,0,0,0,-1,762,1030,0,0
-455,-6,0,0,0,0,0,0,0,0,0,-1,769,1030,0,0
-448,-6,0,0,0,0,0,0,0,0,0,-1,776,1030,0,0
-441,-6,0,0,0,0,0,0,0,0,0,-1,783,1030,0,0
-434,-6,0,0,0,0,0,0,0,0,0,-1,790,1030,0,0
-427,-6,0,0,0,0,0,0,0,0,0,-1,797,1030,0,0
-420,-6,0,0,0,0,0,0,0,0,0,-1,804,1030,0,0
-413,-6,0,0,0,0,0,0,0,0,0,-1,811,1030,0,0
-406,-6,0,0,0,0,0,0,0,0,0,-1,818,1030,0,0
-399,-6,0,0,0,0,0,0,0,0,0,-1,825,1030,0,0
-392,-6,0,0,0,0,0,0,0,0,0,-1,832,1030,0,0
-385,-6,0,0,0,0,0,0,0,0,0,-1,839,1030,0,0
-378,-6,0,0,0,0,0,0,0,0,0,-1,846,1030,0,0
-371,-6,0,0,0,0,0,0,0,0,0,-1,853,1030,0,0
-364,-6,0,0,0,0,0,0,0,0,0,-1,860,1030,0,0
-357,-6,0,0,0,0,0,0,0,0,0,-1,867,1030,0,0
-350,-6,0,0,0,0,0,0,0,0,0,-1,874,1030,0,0
-343,-6,0,0,0,0,0,0,0,0,0,-1,881,1030,0,0
-336,-6,0,0,0,0,0,0,0,0,0,-1,888,1030,0,0
-329,-6,0,0,0,0,0,0,0,0,0,-1,895,1030,0,0
-322,-6,0,0,0,0,0,0,0,0,0,-1,902,1030,0,0
-315,-6,0,0,0,0,0,0,0,0,0,-1,909,1030,0,0
-308,-6,0,0,0,0,0,0,0,0,0,-1,916,1030,0,0
-301,-6,0,0,0,0,0,0,0,0,0,-1,923,1030,0,0
-294,-6,0,0,0,0,0,0,0,0,0,-1,930,1030,0,0
-287,-6,0,0,0,0,0,0,0,0,0,-1,937,1030,0,0
-280,-6,0,0,0,0,0,0,0,0,0,-1,944,1030,0,0
-273,-6,0,0,0,0,0,0,0,0,0,-1,951,1030,0,0
-266,-6,0,0,0,0,0,0,0,0,0,-1,958,1030,0,0
-259,-6,0,0,0,0,0,0,0,0,0,-1,965,1030,0,0
-252,-6,0,0,0,0,0,0,0,0,0,-1,972,1030,0,0
-245,-6,0,0,0,0,0,0,0,0,0,-1,979,1030,0,0
-238,-6,0,0,0,0,0,0,0,0,0,-1,986,1030,0,0
-231,-6,0,0,0,0,0,0,0,0,0,-1,993,1030,0,0
-224,-6,0,0,0,0,0,0,0,0,0,-1,1000,1030,0,0
-217,-6,0,0,0,0,0,0,0,0,0,-1,1007,1030,0,0
-210,-6,0,0,0,0,0,0,0,0,0,-1,1014,1030,0,0
-203,-6,0,0,0,0,0,0,0,0,0,-1,1021,1030,0,0
-196,-6,0,0,0,0,0,0,0,0,0,-1,1028,1030,0,0
-189,-6,0,0,0,0,0,0,0,0,0,-1,1035,1030,0,0
-182,-6,0,0,0,0,0,0,0,0,0,-1,1042,1030,0,0
-175,-6,0,0,0,0,0,0,0,0,0,-1,1049,1030,0,0
-168,-6,0,0,0,0,0,0,0,0,0,-1,1056,1030,0,0
-161,-6,0,0,0,0,0,0,0,0,0,-1,1063,1030,0,0
-154,-6,0,0,0,0,0,0,0,0,0,-1,1070,1030,0,0
-147,-6,0,0,0,0,0,0,0,0,0,-1,1077,1030,0,0
-140,-6,0,0,0,0,0,0,0,0,0,-1,1084,1030,0,0
-133,-6,0,0,0,0,0,0,0,0,0,-1,1091,1030,0,0
-126,-6,0,0,0,0,0,0,0,0,0,-1,1098,1030,0,0
-119,-6,0,0,0,0,0,0,0,0,0,-1,1105,1030,0,0
-112,-6,0,0,0,0,0,0,0,0,0,-1,1112,1030,0,0
-105,-6,0,0,0,0,0,0,0,0,0,-1,1119,1030,0,0
-98,-6,0,0,0,0,0,0,0,0,0,-1,1126,1030,0,0
-91,-6,0,0,0,0,0,0,0,0,0,-1,1133,1030,0,0
-84,-6,0,0,0,0,0,0,0,0,0,-1,1140,1030,0,0
-77,-6,0,0,0,0,0,0,0,0,0,-1,1147,1030,0,0
-70,-6,0,0,0,0,0,0,0,0,0,-1,1154,1030,0,0
-63,-6,0,0,0,0,0,0,0,0,0,-1,1161,1030,0,0
-56,-6,0,0,0,0,0,0,0,0,0,-1,1168,1030,0,0
-49,-6,0,0,0,0,0,0,0,0,0,-1,1175,1030,0,0
-42,-6,0,0,0,0,0,0,0,0,0,-1,1182,1030,0,0
-35,-6,0,0,0,0,0,0,0,0,0,-1,1189,1030,0,0
-28,-6,0,0,0,0,0,0,0,0,0,-1,1196,1030,0,0
-21,-6,0,0,0,0,0,0,0,0,0,-1,1203,1030,0,0
-14,-6,0,0,0,0,0,0,0,0,0,-1,1210,1030,0,0
-7,-6,0,0,0,0,0,0,0,0,0,-1,1217,1030,0,0
0,-6,0,0,0,0,0,0,0,0,0,-1,1224,1030,0,0
7,-6,0,0,0,0,0,0,0,0,0,-1,1231,1030,0,0
14,-6,0,0,0,0,0,0,0,0,0,-1,1238,1030,0,0
21,-6,0,0,0,0,0,0,0,0,0,-1,1245,1030,0,0
28,-6,0,0,0,0,0,0,0,0,0,-1,1252,1030,0,0
35,-6,0,0,0,0,0,0,0,0,0,-1,1259,1030,0,0
42,-6,0,0,0,0,0,0,0,0,0,-1,1266,1030,0,0
49,-6,0,0,0,0,0,0,0,0,0,-1,1273,1030,0,0
56,-6,0,0,0,0,0,0,0,0,0,-1,1280,1030,0,0
63,-6,0,0,0,0,0,0,0,0,0,-1,1287,1030,0,0
70,-6,0,0,0,0,0,0,0,0,0,-1,1294,1030,0,0
77,-6,0,0,0,0,0,0,0,0,0,-1,1301,1030,0,0
84,-6,0,0,0,0,0,0,0,0,0,-1,1308,1030,0,0
91,-6,0,0,0,0,0,0,0,0,0,-1,1315,1030,0,0
98,-6,0,0,0,0,0,0,0,0,0,-1,1322,1030,0,0
105,-6,0,0,0,0,0,0,0,0,0,-1,1329,1030,0,0
112,-6,0,0,0,0,0,0,0,0,0,-1,1336,1030,0,0
119,-6,0,0,0,0,0,0,0,0,0,-1,1343,1030,0,0
126,-6,0,0,0,0,0,0,0,0,0,-1,1350,1030,0,0
133,-6,0,0,0,0,0,0,0,0,0,-1,1357,1030,0,0
140,-6,0,0,0,0,0,0,0,0,0,-1,1364,1030,0,0
147,-6,0,0,0,0,0,0,0,0,0,-1,1371,1030,0,0
154,-6,0,0,0,0,0,0,0,0,0,-1,1378,1030,0,0
161,-6,0,0,0,0,0,0,0,0,0,-1,1385,1030,0,0
168,-6,0,0,0,0,0,0,0,0,0,-1,1392,1030,0,0
175,-6,0,0,0,0,0,0,0,0,0,-1,1399,1030,0,0
182,-6,0,0,0,0,0,0,0,0,0,-1,1406,1030,0,0
189,-6,0,0,0,0,0,0,0,0,0,-1,1413,1030,0,0
196,-6,0,0,0,0,0,0,0,0,0,-1,1420,1030,0,0
203,-6,0,0,0,0,0,0,0,0,0,-1,1427,1030,0,0
210,-6,0,0,0,0,0,0,0,0,0,-1,1434,1030,0,0
217,-6,0,0,0,0,0,0,0,0,0,-1,1441,1030,0,0
224,-6,0,0,0,0,0,0,0,0,0,-1,1448,1030,0,0
231,-6,0,0,0,0,0,0,0,0,0,-1,1455,1030,0,0
238,-6,0,0,0,0,0,0,0,0,0,-1,1462,1030,0,0
245,-6,0,0,0,0,0,0,0,0,0,-1,1469,1030,0,0
252,-6,0,0,0,0,0,0,0,0,0,-1,1476,1030,0,0
259,-6,0,0,0,0,0,0,0,0,0,-1,1483,1030,0,0
266,-6,0,0,0,0,0,0,0,0,0,-1,1490,1030,0,0
273,-6,0,0,0,0,0,0,0,0,0,-1,1497,1030,0,0
280,-6,0,0,0,0,0,0,0,0,0,-1,1504,1030,0,0
287,-6,0,0,0,0,0,0,0,0,0,-1,1511,1030,0,0
294,-6,0,0,0,0,0,0,0,0,0,-1,1518,1030,0,0
301,-6,0,0,0,0,0,0,0,0,0,-1,1525,1030,0,0
308,-6,0,0,0,0,0,0,0,0,0,-1,1532,1030,0,0
315,-6,0,0,0,0,0,0,0,0,0,-1,1539,1030,0,0
322,-6,0,0,0,0,0,0,0,0,0,-1,1546,1030,0,0
329,-6,0,0,0,0,0,0,0,0,0,-1,1553,1030,0,0
336,-6,0,0,0,0,0,0,0,0,0,-1,1560,1030,0,0
343,-6,0,0,0,0,0,0,0,0,0,-1,1567,1030,0,0
350,-6,0,0,0,0,0,0,0,0,0,-1,1574,1030,0,0
357,-6,0,0,0,0,0,0,0,0,0,-1,1581,1030,0,0
364,-6,0,0,0,0,0,0,0,0,0,-1,1588,1030,0,0
371,-6,0,0,0,0,0,0,0,0,0,-1,1595,1030,0,0
378,-6,0,0,0,0,0,0,0,0,0,-1,1602,1030,0,0
385,-6,0,0,0,0,0,0,0,0,0,-1,1609,1030,0,0
392,-6,0,0,0,0,0,0,0,0,0,-1,1616,1030,0,0
399,-6,0,0,0,0,0,0,0,0,0,-1,1623,1030,0,0
406,-6,0,0,0,0,0,0,0,0,0,-1,1630,1030,0,0
413,-6,0,0,0,0,0,0,0,0,0,-1,1637,1030,0,0
420,-6,0,0,0,0,0,0,0,0,0,-1,1644,1030,0,0
427,-6,0,0,0,0,0,0,0,0,0,-1,1651,1030,0,0
434,-6,0,0,0,0,0,0,0,0,0,-1,1658,1030,0,0
441,-6,0,0,0,0,0,0,0,0,0,-1,1665,1030,0,0
448,-6,0,0,0,0,0,0,0,0,0,-1,1672,1030,0,0
455,-6,0,0,0,0,0,0,0,0,0,-1,1679,1030,0,0
462,-6,0,0,0,0,0,0,0,0,0,-1,1686,1030,0,0
469,-6,0,0,0,0,0,0,0,0,0,-1,1693,1030,0,0
476,-6,0,0,0,0,0,0,0,0,0,-1,1700,1030,0,0
483,-6,0,0,0,0,0,0,0,0,0,-1,1707,1030,0,0
490,-6,0,0,0,0,0,0,0,0,0,-1,1714,1030,0,0
497,-6,0,0,0,0,0,0,0,0,0,-1,1721,1030,0,0
504,-6,0,0,0,0,0,0,0,0,0,-1,1728,1030,0,0
511,-6,0,0,0,0,0,0,0,0,0,-1,1735,1030,0,0
518,-6,0,0,0,0,0,0,0,0,0,-1,1742,1030,0,0
525,-6,0,0,0,0,0,0,0,0,0,-1,1749,1030,0,0
532,-6,0,0,0,0,0,0,0,0,0,-1,1756,1030,0,0
539,-6,0,0,0,0,0,0,0,0,0,-1,1763,1030,0,0
546,-6,0,0,0,0,0,0,0,0,0,-1,1770,1030,0,0
553,-6,0,0,0,0,0,0,0,0,0,-1,1777,1030,0,0
560,-6,0,0,0,0,0,0,0,0,0,-1,1784,1030,0,0
567,-6,0,0,0,0,0,0,0,0,0,-1,1791,1030,0,0
574,-6,0,0,0,0,0,0,0,0,0,-1,1798,1030,0,0
581,-6,0,0,0,0,0,0,0,0,0,-1,1805,1030,0,0
588,-6,0,0,0,0,0,0,0,0,0,-1,1812,1030,0,0
595,-6,0,0,0,0,0,0,0,0,0,-1,1819,1030,0,0
602,-6,0,0,0,0,0,0,0,0,0,-1,1826,1030,0,0
609,-6,0,0,0,0,0,0,0,0,0,-1,1833,1030,0,0
616,-6,0,0,0,0,0,0,0,0,0,-1,1840,1030,0,0
623,-6,0,0,0,0,0,0,0,0,0,-1,1847,1030,0,0
630,-6,0,0,0,0,0,0,0,0,0,-1,1854,1030,0,0
637,-6,0,0,0,0,0,0,0,0,0,-1,1861,1030,0,0
644,-6,0,0,0,0,0,0,0,0,0,-1,1868,1030,0,0
651,-6,71.0978,2.21631,0.00207529,-0.00369369,-0.000464347,0.00211243,-0.00373083,-0.0798056,0.00341646,0.0394555,1875,1030,71.0978,-2.21634
658,-6,71.0552,2.01025,0.00103595,-0.00248955,-0.000476737,0.00109928,-0.00255288,-0.132066,0.00216353,0.0415995,1882,1030,71.0552,-2.01023
665,-6,71.2074,1.96802,0.000336266,-0.00160757,-0.000385573,0.000409953,-0.00168126,-0.188835,0.00127957,0.0433791,1889,1030,71.2074,-1.96805
672,-6,71.1548,2.11804,-0.000117824,-0.000930238,-0.000211926,-6.58638e-05,-0.000982198,-0.240436,0.000633985,0.0423467,1896,1030,71.1548,-2.11803
679,-6,71.1522,2.26318,-0.000405615,-0.00037861,-1.02035e-05,-0.000375188,-0.000409037,-1.24724,0.000262138,0.0422886,1903,1030,71.1522,-2.26324
686,-6,71.0485,2.31702,-0.000778255,-0.000281294,0.000138349,-0.000245375,-0.000814174,1.31678,0.000482268,0.0401261,1910,1030,71.0485,-2.31702
693,-6,70.9849,2.26367,-0.00105549,-0.00040119,0.000299472,-0.00028482,-0.00117186,1.20017,0.000705728,0.0381999,1917,1030,70.9848,-2.26372
700,-6,71.0306,2.23389,-0.00118422,-0.000485162,0.000424408,-0.000284878,-0.0013845,1.12987,0.000844216,0.030966,1924,1030,71.0306,-2.23394
707,-6,70.9797,2.20227,-0.00188676,-0.000165624,0.000532932,-1.39697e-05,-0.00203842,1.29356,0.00135431,0.0251416,1931,1030,70.9798,-2.20229
714,-6,70.9795,2.08118,-0.00296521,0.000670682,0.00064684,0.000782329,-0.00307686,1.39988,0.00235572,0.0300142,1938,1030,70.9795,-2.08113
721,-6,71.0442,2.03296,0,0,0,0,0,0,0,-1,1945,1030,71.0442,-2.03299
728,-6,53.1713,6.25494,0,0,0,0,0,0,0,-1,1952,1030,53.1713,-6.25495
735,-6,70.911,6.96857,0,0,0,0,0,0,0,-1,1959,1030,70.911,-6.96854
742,-6,71.1434,7.17004,0,0,0,0,0,0,0,-1,1966,1030,71.1435,-7.17007
749,-6,71.239,6.61963,0,0,0,0,0,0,0,-1,1973,1030,71.239,-6.61964
756,-6,71.2346,6.66614,-0.0124407,0.0120953,-0.00048442,0.0121048,-0.0124503,-1.55106,0.0141773,0.0369048,1980,1030,71.2347,-6.66616
763,-6,70.9868,6.5578,-0.0145756,0.0159172,-0.00118613,0.0159632,-0.0146216,-1.53198,0.0176638,0.0230767,1987,1030,70.9868,-6.55782
770,-6,70.8777,6.44684,-0.0164211,0.0207854,-0.00224251,0.02092,-0.0165557,-1.51081,0.0216855,0.0203615,1994,1030,70.8778,-6.44684
777,-6,70.7256,6.41949,-0.0175937,0.0258117,-0.00353889,0.0260983,-0.0178803,-1.48998,0.0255384,0.0213214,2001,1030,70.7257,-6.41949
784,-6,70.606,6.24268,-0.017812,0.0303606,-0.00496425,0.0308668,-0.0183183,-1.46917,0.0287034,0.047057,2008,1030,70.6059,-6.2427
791,-6,70.5378,6.04602,0,0,0,0,0,0,0,-1,2015,1030,70.5379,-6.046
798,-6,70.3652,5.12317,0,0,0,0,0,0,0,-1,2022,1030,70.3652,-5.1232
805,-6,69.8875,3.526,0,0,0,0,0,0,0,-1,2029,1030,69.8875,-3.52604
812,-6,69.8679,2.30786,0,0,0,0,0,0,0,-1,2036,1030,69.868,-2.30781
-700,-13,0,0,0,0,0,0,0,0,0,-1,524,1037,0,0
-693,-13,-56.2162,-0.589233,-0.0138016,0.0998073,0.0382042,0.111459,-0.0254537,1.27476,0.0840851,0.0446743,531,1037,-56.2163,0.589231
-686,-13,-56.4065,0.792358,-0.00902513,0.0945064,0.0282267,0.101702,-0.0162207,1.32119,0.0738048,0.0431332,538,1037,-56.4065,-0.792307
-679,-13,-56.8884,1.46118,-0.0071258,0.0867378,0.0215259,0.0914389,-0.0118269,1.35578,0.0652598,0.0468763,545,1037,-56.8884,-1.46118
-672,-13,-57.2958,1.91528,0,0,0,0,0,0,0,-1,552,1037,-57.2958,-1.9153
-665,-13,-55.4597,2.10156,-0.00604959,0.0685787,0.0126907,0.0706777,-0.00814863,1.40688,0.0500562,0.0468201,559,1037,-55.4597,-2.10153
-658,-13,-55.3604,3.00525,-0.00601466,0.0589421,0.00961512,0.0603355,-0.00740802,1.42688,0.0429067,0.0472485,566,1037,-55.3604,-3.00522
-651,-13,-55.4377,3.8678,-0.00608735,0.049187,0.00708702,0.0500812,-0.00698155,1.44529,0.0359414,0.0407565,573,1037,-55.4377,-3.86776
-644,-13,-55.4531,4.48059,-0.00650973,0.0396327,0.00439945,0.0400484,-0.00692545,1.47658,0.0292817,0.0347834,580,1037,-55.4531,-4.48063
-637,-13,-55.5746,4.68335,-0.00604598,0.0297712,0.00225581,0.0299127,-0.0061875,1.50814,0.0222924,0.0294437,587,1037,-55.5746,-4.68338
-630,-13,-55.7551,4.70862,-0.00532061,0.0202687,0.000719284,0.0202889,-0.00534081,1.54272,0.0156137,0.0186109,594,1037,-55.7551,-4.70858
-623,-13,-55.8035,4.90735,-0.00495191,0.0114278,-0.00032049,0.011434,-0.00495818,-1.55124,0.0097071,0.016024,601,1037,-55.8035,-4.90732
-616,-13,-55.7908,5.09668,-0.00451585,0.00248962,-0.00154821,0.00281652,-0.00484275,-1.36271,0.00447336,0.0144712,608,1037,-55.7909,-5.09672
-609,-13,-55.7658,5.26819,-0.00284793,-0.00495655,-0.00328479,-0.000452392,-0.00735208,-0.630109,0.00475777,0.0180201,615,1037,-55.7658,-5.26818
-602,-13,-55.7497,5.41235,-0.00122985,-0.0112161,-0.00510884,0.00092066,-0.0133666,-0.398426,0.00923328,0.0137299,622,1037,-55.7497,-5.41232
-595,-13,-55.7606,5.53027,0,0,0,0,0,0,0,-1,629,1037,-55.7606,-5.53032
-588,-13,-54.4635,0.790527,0,0,0,0,0,0,0,-1,636,1037,-54.4635,-0.790473
-581,-13,-54.5606,0.408936,0,0,0,0,0,0,0,-1,643,1037,-54.5606,-0.408892
-574,-13,-54.5612,0.499878,0,0,0,0,0,0,0,-1,650,1037,-54.5612,-0.499881
-567,-13,-54.6329,0.665283,0,0,0,0,0,0,0,-1,657,1037,-54.6329,-0.665248
-560,-13,-54.1746,-0.381592,0,0,0,0,0,0,0,-1,664,1037,-54.1745,0.381572
-553,-13,-54.3681,0.0605469,0,0,0,0,0,0,0,-1,671,1037,-54.3681,-0.0606035
-546,-13,-54.5861,0.553345,0,0,0,0,0,0,0,-1,678,1037,-54.5861,-0.55335
-539,-13,-54.6744,0.865479,0,0,0,0,0,0,0,-1,685,1037,-54.6744,-0.865447
-532,-13,-54.8026,0.603882,0,0,0,0,0,0,0,-1,692,1037,-54.8025,-0.603878
-525,-13,0,0,0,0,0,0,0,0,0,-1,699,1037,0,0
-518,-13,0,0,0,0,0,0,0,0,0,-1,706,1037,0,0
-511,-13,0,0,0,0,0,0,0,0,0,-1,713,1037,0,0
-504,-13,0,0,0,0,0,0,0,0,0,-1,720,1037,0,0
-497,-13,0,0,0,0,0,0,0,0,0,-1,727,1037,0,0
-490,-13,0,0,0,0,0,0,0,0,0,-1,734,1037,0,0
-483,-13,0,0,0,0,0,0,0,0,0,-1,741,1037,0,0
-476,-13,0,0,0,0,0,0,0,0,0,-1,748,1037,0,0
-469,-13,0,0,0,0,0,0,0,0,0,-1,755,1037,0,0
-462,-13,0,0,0,0,0,0,0,0,0,-1,762,1037,0,0
-455,-13,0,0,0,0,0,0,0,0,0,-1,769,1037,0,0
-448,-13,0,0,0,0,0,0,0,0,0,-1,776,1037,0,0
-441,-13,0,0,0,0,0,0,0,0,0,-1,783,1037,0,0
-434,-13,0,0,0,0,0,0,0,0,0,-1,790,1037,0,0
-427,-13,0,0,0,0,0,0,0,0,0,-1,797,1037,0,0
-420,-13,0,0,0,0,0,0,0,0,0,-1,804,1037,0,0
-413,-13,0,0,0,0,0,0,0,0,0,-1,811,1037,0,0
-406,-13,0,0,0,0,0,0,0,0,0,-1,818,1037,0,0
-399,-13,0,0,0,0,0,0,0,0,0,-1,825,1037,0,0
-392,-13,0,0,0,0,0,0,0,0,0,-1,832,1037,0,0
-385,-13,0,0,0,0,0,0,0,0,0,-1,839,1037,0,0
-378,-13,0,0,0,0,0,0,0,0,0,-1,846,1037,0,0
-371,-13,0,0,0,0,0,0,0,0,0,-1,853,1037,0,0
-364,-13,0,0,0,0,0,0,0,0,0,-1,860,1037,0,0
-357,-13,0,0,0,0,0,0,0,0,0,-1,867,1037,0,0
-350,-13,0,0,0,0,0,0,0,0,0,-1,874,1037,0,0
-343,-13,0,0,0,0,0,0,0,0,0,-1,881,1037,0,0
-336,-13,0,0,0,0,0,0,0,0,0,-1,888,1037,0,0
-329,-13,0,0,0,0,0,0,0,0,0,-1,895,1037,0,0
-322,-13,0,0,0,0,0,0,0,0,0,-1,902,1037,0,0
-315,-13,0,0,0,0,0,0,0,0,0,-1,909,1037,0,0
-308,-13,0,0,0,0,0,0,0,0,0,-1,916,1037,0,0
-301,-13,0,0,0,0,0,0,0,0,0,-1,923,1037,0,0
-294,-13,0,0,0,0,0,0,0,0,0,-1,930,1037,0,0
-287,-13,0,0,0,0,0,0,0,0,0,-1,937,1037,0,0
-280,-13,0,0,0,0,0,0,0,0,0,-1,944,1037,0,0
-273,-13,0,0,0,0,0,0,0,0,0,-1,951,1037,0,0
-266,-13,0,0,0,0,0,0,0,0,0,-1,958,1037,0,0
-259,-13,0,0,0,0,0,0,0,0,0,-1,965,1037,0,0
-252,-13,0,0,0,0,0,0,0,0,0,-1,972,1037,0,0
-245,-13,0,0,0,0,0,0,0,0,0,-1,979,1037,0,0
-238,-13,0,0,0,0,0,0,0,0,0,-1,986,1037,0,0
-231,-13,0,0,0,0,0,0,0,0,0,-1,993,1037,0,0
-224,-13,0,0,0,0,0,0,0,0,0,-1,1000,1037,0,0
-217,-13,0,0,0,0,0,0,0,0,0,-1,1007,1037,0,0
-210,-13,0,0,0,0,0,0,0,0,0,-1,1014,1037,0,0
-203,-13,0,0,0,0,0,0,0,0,0,-1,1021,1037,0,0
-196,-13,0,0,0,0,0,0,0,0,0,-1,1028,1037,0,0
-189,-13,0,0,0,0,0,0,0,0,0,-1,1035,1037,0,0
-182,-13,0,0,0,0,0,0,0,0,0,-1,1042,1037,0,0
-175,-13,0,0,0,0,0,0,0,0,0,-1,1049,1037,0,0
-168,-13,0,0,0,0,0,0,0,0,0,-1,1056,1037,0,0
-161,-13,0,0,0,0,0,0,0,0,0,-1,1063,1037,0,0
-154,-13,0,0,0,0,0,0,0,0,0,-1,1070,1037,0,0
-147,-13,0,0,0,0,0,0,0,0,0,-1,1077,1037,0,0
-140,-13,0,0,0,0,0,0,0,0,0,-1,1084,1037,0,0
-133,-13,0,0,0,0,0,0,0,0,0,-1,1091,1037,0,0
-126,-13,0,0,0,0,0,0,0,0,0,-1,1098,1037,0,0
-119,-13,0,0,0,0,0,0,0,0,0,-1,1105,1037,0,0
-112,-13,0,0,0,0,0,0,0,0,0,-1,1112,1037,0,0
-105,-13,0,0,0,0,0,0,0,0,0,-1,1119,1037,0,0
-98,-13,0,0,0,0,0,0,0,0,0,-1,1126,1037,0,0
-91,-13,0,0,0,0,0,0,0,0,0,-1,1133,1037,0,0
-84,-13,0,0,0,0,0,0,0,0,0,-1,1140,1037,0,0
-77,-13,0,0,0,0,0,0,0,0,0,-1,1147,1037,0,0
-70,-13,0,0,0,0,0,0,0,0,0,-1,1154,1037,0,0
-63,-13,0,0,0,0,0,0,0,0,0,-1,1161,1037,0,0
-56,-13,0,0,0,0,0,0,0,0,0,-1,1168,1037,0,0
-49,-13,0,0,0,0,0,0,0,0,0,-1,1175,1037,0,0
-42,-13,0,0,0,0,0,0,0,0,0,-1,1182,1037,0,0
-35,-13,0,0,0,0,0,0,0,0,0,-1,1189,1037,0,0
-28,-13,0,0,0,0,0,0,0,0,0,-1,1196,1037,0,0
-21,-13,0,0,0,0,0,0,0,0,0,-1,1203,1037,0,0
-14,-13,0,0,0,0,0,0,0,0,0,-1,1210,1037,0,0
-7,-13,0,0,0,0,0,0,0,0,0,-1,1217,1037,0,0
0,-13,0,0,0,0,0,0,0,0,0,-1,1224,1037,0,0
7,-13,0,0,0,0,0,0,0,0,0,-1,1231,1037,0,0
14,-13,0,0,0,0,0,0,0,0,0,-1,1238,1037,0,0
21,-13,0,0,0,0,0,0,0,0,0,-1,1245,1037,0,0
28,-13,0,0,0,0,0,0,0,0,0,-1,1252,1037,0,0
35,-13,0,0,0,0,0,0,0,0,0,-1,1259,1037,0,0
42,-13,0,0,0,0,0,0,0,0,0,-1,1266,1037,0,0
49,-13,0,0,0,0,0,0,0,0,0,-1,1273,1037,0,0
56,-13,0,0,0,0,0,0,0,0,0,-1,1280,1037,0,0
63,-13,0,0,0,0,0,0,0,0,0,-1,1287,1037,0,0
70,-13,0,0,0,0,0,0,0,0,0,-1,1294,1037,0,0
77,-13,0,0,0,0,0,0,0,0,0,-1,1301,1037,0,0
84,-13,0,0,0,0,0,0,0,0,0,-1,1308,1037,0,0
91,-13,0,0,0,0,0,0,0,0,0,-1,1315,1037,0,0
98,-13,0,0,0,0,0,0,0,0,0,-1,1322,1037,0,0
105,-13,0,0,0,0,0,0,0,0,0,-1,1329,1037,0,0
112,-13,0,0,0,0,0,0,0,0,0,-1,1336,1037,0,0
119,-13,0,0,0,0,0,0,0,0,0,-1,1343,1037,0,0
126,-13,0,0,0,0,0,0,0,0,0,-1,1350,1037,0,0
133,-13,0,0,0,0,0,0,0,0,0,-1,1357,1037,0,0
140,-13,0,0,0,0,0,0,0,0,0,-1,1364,1037,0,0
147,-13,0,0,0,0,0,0,0,0,0,-1,1371,1037,0,0
154,-13,0,0,0,0,0,0,0,0,0,-1,1378,1037,0,0
161,-13,0,0,0,0,0,0,0,0,0,-1,1385,1037,0,0
168,-13,0,0,0,0,0,0,0,0,0,-1,1392,1037,0,0
175,-13,0,0,0,0,0,0,0,0,0,-1,1399,1037,0,0
182,-13,0,0,0,0,0,0,0,0,0,-1,1406,1037,0,0
189,-13,0,0,0,0,0,0,0,0,0,-1,1413,1037,0,0
196,-13,0,0,0,0,0,0,0,0,0,-1,1420,1037,0,0
203,-13,0,0,0,0,0,0,0,0,0,-1,1427,1037,0,0
210,-13,0,0,0,0,0,0,0,0,0,-1,1434,1037,0,0
217,-13,0,0,0,0,0,0,0,0,0,-1,1441,1037,0,0
224,-13,0,0,0,0,0,0,0,0,0,-1,1448,1037,0,0
231,-13,0,0,0,0,0,0,0,0,0,-1,1455,1037,0,0
238,-13,0,0,0,0,0,0,0,0,0,-1,1462,1037,0,0
245,-13,0,0,0,0,0,0,0,0,0,-1,1469,1037,0,0
252,-13,0,0,0,0,0,0,0,0,0,-1,1476,1037,0,0
259,-13,0,0,0,0,0,0,0,0,0,-1,1483,1037,0,0
266,-13,0,0,0,0,0,0,0,0,0,-1,1490,1037,0,0
273,-13,0,0,0,0,0,0,0,0,0,-1,1497,1037,0,0
280,-13,0,0,0,0,0,0,0,0,0,-1,1504,1037,0,0
287,-13,0,0,0,0,0,0,0,0,0,-1,1511,1037,0,0
294,-13,0,0,0,0,0,0,0,0,0,-1,1518,1037,0,0
301,-13,0,0,0,0,0,0,0,0,0,-1,1525,1037,0,0
308,-13,0,0,0,0,0,0,0,0,0,-1,1532,1037,0,0
315,-13,0,0,0,0,0,0,0,0,0,-1,1539,1037,0,0
322,-13,0,0,0,0,0,0,0,0,0,-1,1546,1037,0,0
329,-13,0,0,0,0,0,0,0,0,0,-1,1553,1037,0,0
336,-13,0,0,0,0,0,0,0,0,0,-1,1560,1037,0,0
343,-13,0,0,0,0,0,0,0,0,0,-1,1567,1037,0,0
350,-13,0,0,0,0,0,0,0,0,0,-1,1574,1037,0,0
357,-13,0,0,0,0,0,0,0,0,0,-1,1581,1037,0,0
364,-13,0,0,0,0,0,0,0,0,0,-1,1588,1037,0,0
371,-13,0,0,0,0,0,0,0,0,0,-1,1595,1037,0,0
378,-13,0,0,0,0,0,0,0,0,0,-1,1602,1037,0,0
385,-13,0,0,0,0,0,0,0,0,0,-1,1609,1037,0,0
392,-13,0,0,0,0,0,0,0,0,0,-1,1616,1037,0,0
399,-13,0,0,0,0,0,0,0,0,0,-1,1623,1037,0,0
406,-13,0,0,0,0,0,0,0,0,0,-1,1630,1037,0,0
413,-13,0,0,0,0,0,0,0,0,0,-1,1637,1037,0,0
420,-13,0,0,0,0,0,0,0,0,0,-1,1644,1037,0,0
427,-13,0,0,0,0,0,0,0,0,0,-1,1651,1037,0,0
434,-13,0,0,0,0,0,0,0,0,0,-1,1658,1037,0,0
441,-13,0,0,0,0,0,0,0,0,0,-1,1665,1037,0,0
448,-13,0,0,0,0,0,0,0,0,0,-1,1672,1037,0,0
455,-13,0,0,0,0,0,0,0,0,0,-1,1679,1037,0,0
462,-13,0,0,0,0,0,0,0,0,0,-1,1686,1037,0,0
469,-13,0,0,0,0,0,0,0,0,0,-1,1693,1037,0,0
476,-13,0,0,0,0,0,0,0,0,0,-1,1700,1037,0,0
483,-13,0,0,0,0,0,0,0,0,0,-1,1707,1037,0,0
490,-13,0,0,0,0,0,0,0,0,0,-1,1714,1037,0,0
497,-13,0,0,0,0,0,0,0,0,0,-1,1721,1037,0,0
504,-13,0,0,0,0,0,0,0,0,0,-1,1728,1037,0,0
511,-13,0,0,0,0,0,0,0,0,0,-1,1735,1037,0,0
518,-13,0,0,0,0,0,0,0,0,0,-1,1742,1037,0,0
525,-13,0,0,0,0,0,0,0,0,0,-1,1749,1037,0,0
532,-13,0,0,0,0,0,0,0,0,0,-1,1756,1037,0,0
539,-13,0,0,0,0,0,0,0,0,0,-1,1763,1037,0,0
546,-13,0,0,0,0,0,0,0,0,0,-1,1770,1037,0,0
553,-13,0,0,0,0,0,0,0,0,0,-1,1777,1037,0,0
560,-13,0,0,0,0,0,0,0,0,0,-1,1784,1037,0,0
567,-13,0,0,0,0,0,0,0,0,0,-1,1791,1037,0,0
574,-13,0,0,0,0,0,0,0,0,0,-1,1798,1037,0,0
581,-13,0,0,0,0,0,0,0,0,0,-1,1805,1037,0,0
588,-13,0,0,0,0,0,0,0,0,0,-1,1812,1037,0,0
595,-13,0,0,0,0,0,0,0,0,0,-1,1819,1037,0,0
602,-13,0,0,0,0,0,0,0,0,0,-1,1826,1037,0,0
609,-13,0,0,0,0,0,0,0,0,0,-1,1833,1037,0,0
616,-13,0,0,0,0,0,0,0,0,0,-1,1840,1037,0,0
623,-13,0,0,0,0,0,0,0,0,0,-1,1847,1037,0,0
630,-13,0,0,0,0,0,0,0,0,0,-1,1854,1037,0,0
637,-13,0,0,0,0,0,0,0,0,0,-1,1861,1037,0,0
644,-13,0,0,0,0,0,0,0,0,0,-1,1868,1037,0,0
651,-13,71.1217,2.17749,0.00208983,-0.00290823,0.000115122,0.00209248,-0.00291088,0.023017,0.00290154,0.0395223,1875,1037,71.1217,-2.17752
658,-13,71.1372,2.24158,0.00108078,-0.00186136,-4.08311e-05,0.00108135,-0.00186192,-0.0138745,0.0017191,0.0427963,1882,1037,71.1372,-2.2416
665,-13,71.0424,2.02161,0.000382117,-0.00111321,-4.60403e-05,0.000383533,-0.00111463,-0.0307506,0.000898638,0.0429625,1889,1037,71.0423,-2.02163
672,-13,71.0425,2.11597,-7.10126e-05,-0.000538039,5.94275e-05,-6.35693e-05,-0.000545482,0.124602,0.000344426,0.0361127,1896,1037,71.0425,-2.11596
679,-13,71.0543,2.27893,-0.000383269,-5.97174e-05,0.000205494,4.00392e-05,-0.000483026,1.11886,0.00033616,0.0377394,1903,1037,71.0543,-2.27889
686,-13,70.9445,2.30945,-0.000840974,-5.74551e-06,0.000326994,0.000107043,-0.000953762,1.23865,0.00067436,0.0400514,1910,1037,70.9445,-2.30946
693,-13,70.8901,2.38843,-0.00119786,-0.000169512,0.000488643,2.56416e-05,-0.00139302,1.19083,0.000937342,0.0394837,1917,1037,70.8901,-2.38849
700,-13,70.995,2.18286,-0.0013852,-0.000293209,0.000659417,1.69161e-05,-0.00169532,1.13119,0.00113589,0.034787,1924,1037,70.995,-2.18285
707,-13,71.0358,2.12854,-0.00210685,-5.50573e-05,0.000812435,0.000227677,-0.00238959,1.2359,0.00167412,0.0283546,1931,1037,71.0358,-2.1285
714,-13,70.9819,2.29688,-0.00316444,0.000691355,0.000957181,0.000915895,-0.00338898,1.34038,0.00261857,0.0303784,1938,1037,70.9819,-2.29686
721,-13,70.8241,2.46838,0,0,0,0,0,0,0,-1,1945,1037,70.8241,-2.46836
728,-13,70.9891,7.08826,0,0,0,0,0,0,0,-1,1952,1037,70.9891,-7.08823
735,-13,70.8864,7.03186,-0.00740286,0.00519637,0.000656785,0.00523052,-0.007437,1.51885,0.00735049,0.0438148,1959,1037,70.8864,-7.03188
742,-13,70.8953,6.9209,-0.00869191,0.0065644,0.000456045,0.00657802,-0.00870553,1.54094,0.00885241,0.029344,1966,1037,70.8953,-6.92086
749,-13,71.0308,6.76697,-0.0103787,0.00879409,0.000336396,0.00879999,-0.0103846,1.55326,0.0110888,0.0386684,1973,1037,71.0308,-6.76697
756,-13,71.0007,6.62378,-0.0122417,0.0116246,-8.44047e-05,0.0116249,-0.012242,-1.56726,0.0137811,0.0223096,1980,1037,71.0007,-6.62379
763,-13,70.9199,6.46521,-0.0142029,0.0154289,-0.000870524,0.0154544,-0.0142284,-1.54145,0.0171423,0.0318491,1987,1037,70.92,-6.46521
770,-13,70.7893,6.34631,-0.015858,0.0204151,-0.002108,0.0205372,-0.0159801,-1.51294,0.0211379,0.026475,1994,1037,70.7892,-6.34629
777,-13,70.5938,6.16602,-0.0169487,0.0258595,-0.00372692,0.0261815,-0.0172707,-1.4846,0.0252624,0.0186355,2001,1037,70.5937,-6.16597
784,-13,70.5435,5.98328,-0.0174147,0.0311489,-0.00560546,0.0317875,-0.0180533,-1.45736,0.0291375,0.0389579,2008,1037,70.5434,-5.98326
791,-13,70.512,5.79541,0,0,0,0,0,0,0,-1,2015,1037,70.512,-5.79538
798,-13,70.7556,4.92419,0,0,0,0,0,0,0,-1,2022,1037,70.7557,-4.92414
805,-13,69.9949,5.11133,0,0,0,0,0,0,0,-1,2029,1037,69.9949,-5.11133
812,-13,70.5376,3.04578,0,0,0,0,0,0,0,-1,2036,1037,70.5376,-3.04581
-700,-20,-55.4594,-2.42444,-0.0248199,0.0950764,0.0543559,0.11605,-0.0457936,1.20254,0.0963305,0.046966,524,1044,-55.4594,2.42441
-693,-20,-55.5413,-1.17871,-0.0194232,0.0932784,0.0381768,0.104993,-0.0311377,1.27307,0.0823604,0.0412186,531,1044,-55.5413,1.17876
-686,-20,-55.7284,0.149658,-0.0143673,0.0890308,0.0281175,0.0961822,-0.0215188,1.32173,0.0723688,0.0412648,538,1044,-55.7284,-0.149655
-679,-20,-56.0634,1.17468,-0.0117388,0.0821225,0.0212942,0.0867276,-0.0163439,1.35782,0.0639662,0.0462206,545,1044,-56.0634,-1.1747
-672,-20,-56.6614,2.02759,0,0,0,0,0,0,0,-1,552,1044,-56.6614,-2.02755
-665,-20,-55.0579,1.5957,0,0,0,0,0,0,0,-1,559,1044,-55.0579,-1.59566
-658,-20,-55.1565,2.90125,0,0,0,0,0,0,0,-1,566,1044,-55.1565,-2.9012
-651,-20,-55.3522,3.88611,-0.0075468,0.0468132,0.00669681,0.0476261,-0.00835965,1.45001,0.0348729,0.042044,573,1044,-55.3521,-3.88606
-644,-20,-55.2795,4.11633,-0.00732745,0.037722,0.0039579,0.0380671,-0.00767254,1.48383,0.0282846,0.0289974,580,1044,-55.2795,-4.11637
-637,-20,-55.3572,4.30664,-0.00635889,0.0282723,0.0018465,0.0283704,-0.00645706,1.51768,0.0213933,0.0216924,587,1044,-55.3572,-4.30664
-630,-20,-55.482,4.57275,-0.00505526,0.0192159,0.000274317,0.019219,-0.00505836,1.5595,0.01479,0.0173263,594,1044,-55.482,-4.57279
-623,-20,-55.5632,4.87317,-0.00407066,0.0108938,-0.000835454,0.0109403,-0.00411716,-1.5152,0.00898603,0.0155986,601,1044,-55.5632,-4.87316
-616,-20,-55.5656,5.09937,-0.00326874,0.00233606,-0.00217984,0.00308403,-0.00401671,-1.24025,0.00411139,0.0147501,608,1044,-55.5656,-5.09936
-609,-20,-55.5966,5.28662,-0.00148252,-0.0049192,-0.00394167,0.00109907,-0.00750079,-0.579848,0.00540427,0.0158228,615,1044,-55.5966,-5.28664
-602,-20,-55.5539,5.474,0.000316929,-0.0107755,-0.00568791,0.00271508,-0.0131736,-0.399006,0.00981345,0.0146602,622,1044,-55.5539,-5.47398
-595,-20,-55.5748,5.65381,0,0,0,0,0,0,0,-1,629,1044,-55.5748,-5.65378
-588,-20,-54.4982,0.655151,0,0,0,0,0,0,0,-1,636,1044,-54.4982,-0.655156
-581,-20,-54.5427,0.286987,0,0,0,0,0,0,0,-1,643,1044,-54.5427,-0.287047
-574,-20,-54.5634,0.596558,0,0,0,0,0,0,0,-1,650,1044,-54.5634,-0.596595
-567,-20,-54.4995,0.706299,0,0,0,0,0,0,0,-1,657,1044,-54.4995,-0.706336
-560,-20,-54.5458,0.402588,0,0,0,0,0,0,0,-1,664,1044,-54.5458,-0.402589
-553,-20,-54.5391,0.533569,0,0,0,0,0,0,0,-1,671,1044,-54.5391,-0.533616
-546,-20,-54.6098,0.671387,0,0,0,0,0,0,0,-1,678,1044,-54.6098,-0.671421
-539,-20,-54.6274,0.984497,0,0,0,0,0,0,0,-1,685,1044,-54.6274,-0.984553
-532,-20,-54.7219,0.834961,0,0,0,0,0,0,0,-1,692,1044,-54.7219,-0.834907
-525,-20,0,0,0,0,0,0,0,0,0,-1,699,1044,0,0
-518,-20,0,0,0,0,0,0,0,0,0,-1,706,1044,0,0
-511,-20,0,0,0,0,0,0,0,0,0,-1,713,1044,0,0
-504,-20,0,0,0,0,0,0,0,0,0,-1,720,1044,0,0
-497,-20,0,0,0,0,0,0,0,0,0,-1,727,1044,0,0
-490,-20,0,0,0,0,0,0,0,0,0,-1,734,1044,0,0
-483,-20,0,0,0,0,0,0,0,0,0,-1,741,1044,0,0
-476,-20,0,0,0,0,0,0,0,0,0,-1,748,1044,0,0
-469,-20,0,0,0,0,0,0,0,0,0,-1,755,1044,0,0
-462,-20,0,0,0,0,0,0,0,0,0,-1,762,1044,0,0
-455,-20,0,0,0,0,0,0,0,0,0,-1,769,1044,0,0
-448,-20,0,0,0,0,0,0,0,0,0,-1,776,1044,0,0
-441,-20,0,0,0,0,0,0,0,0,0,-1,783,1044,0,0
-434,-20,0,0,0,0,0,0,0,0,0,-1,790,1044,0,0
-427,-20,0,0,0,0,0,0,0,0,0,-1,797,1044,0,0
-420,-20,0,0,0,0,0,0,0,0,0,-1,804,1044,0,0
-413,-20,0,0,0,0,0,0,0,0,0,-1,811,1044,0,0
-406,-20,0,0,0,0,0,0,0,0,0,-1,818,1044,0,0
-399,-20,0,0,0,0,0,0,0,0,0,-1,825,1044,0,0
-392,-20,0,0,0,0,0,0,0,0,0,-1,832,1044,0,0
-385,-20,0,0,0,0,0,0,0,0,0,-1,839,1044,0,0
-378,-20,0,0,0,0,0,0,0,0,0,-1,846,1044,0,0
-371,-20,0,0,0,0,0,0,0,0,0,-1,853,1044,0,0
-364,-20,0,0,0,0,0,0,0,0,0,-1,860,1044,0,0
-357,-20,0,0,0,0,0,0,0,0,0,-1,867,1044,0,0
-350,-20,0,0,0,0,0,0,0,0,0,-1,874,1044,0,0
-343,-20,0,0,0,0,0,0,0,0,0,-1,881,1044,0,0
-336,-20,0,0,0,0,0,0,0,0,0,-1,888,1044,0,0
-329,-20,0,0,0,0,0,0,0,0,0,-1,895,1044,0,0
-322,-20,0,0,0,0,0,0,0,0,0,-1,902,1044,0,0
-315,-20,0,0,0,0,0,0,0,0,0,-1,909,1044,0,0
-308,-20,0,0,0,0,0,0,0,0,0,-1,916,1044,0,0
-301,-20,0,0,0,0,0,0,0,0,0,-1,923,1044,0,0
-294,-20,0,0,0,0,0,0,0,0,0,-1,930,1044,0,0
-287,-20,0,0,0,0,0,0,0,0,0,-1,937,1044,0,0
-280,-20,0,0,0,0,0,0,0,0,0,-1,944,1044,0,0
-273,-20,0,0,0,0,0,0,0,0,0,-1,951,1044,0,0
-266,-20,0,0,0,0,0,0,0,0,0,-1,958,1044,0,0
-259,-20,0,0,0,0,0,0,0,0,0,-1,965,1044,0,0
-252,-20,0,0,0,0,0,0,0,0,0,-1,972,1044,0,0
-245,-20,0,0,0,0,0,0,0,0,0,-1,979,1044,0,0
-238,-20,0,0,0,0,0,0,0,0,0,-1,986,1044,0,0
-231,-20,0,0,0,0,0,0,0,0,0,-1,993,1044,0,0
-224,-20,0,0,0,0,0,0,0,0,0,-1,1000,1044,0,0
-217,-20,0,0,0,0,0,0,0,0,0,-1,1007,1044,0,0
-210,-20,0,0,0,0,0,0,0,0,0,-1,1014,1044,0,0
-203,-20,0,0,0,0,0,0,0,0,0,-1,1021,1044,0,0
-196,-20,0,0,0,0,0,0,0,0,0,-1,1028,1044,0,0
-189,-20,0,0,0,0,0,0,0,0,0,-1,1035,1044,0,0
-182,-20,0,0,0,0,0,0,0,0,0,-1,1042,1044,0,0
-175,-20,0,0,0,0,0,0,0,0,0,-1,1049,1044,0,0
-168,-20,0,0,0,0,0,0,0,0,0,-1,1056,1044,0,0
-161,-20,0,0,0,0,0,0,0,0,0,-1,1063,1044,0,0
-154,-20,0,0,0,0,0,0,0,0,0,-1,1070,1044,0,0
-147,-20,0,0,0,0,0,0,0,0,0,-1,1077,1044,0,0
-140,-20,0,0,0,0,0,0,0,0,0,-1,1084,1044,0,0
-133,-20,0,0,0,0,0,0,0,0,0,-1,1091,1044,0,0
-126,-20,0,0,0,0,0,0,0,0,0,-1,1098,1044,0,0
-119,-20,0,0,0,0,0,0,0,0,0,-1,1105,1044,0,0
-112,-20,0,0,0,0,0,0,0,0,0,-1,1112,1044,0,0
-105,-20,0,0,0,0,0,0,0,0,0,-1,1119,1044,0,0
-98,-20,0,0,0,0,0,0,0,0,0,-1,1126,1044,0,0
-91,-20,0,0,0,0,0,0,0,0,0,-1,1133,1044,0,0
-84,-20,0,0,0,0,0,0,0,0,0,-1,1140,1044,0,0
-77,-20,0,0,0,0,0,0,0,0,0,-1,1147,1044,0,0
-70,-20,0,0,0,0,0,0,0,0,0,-1,1154,1044,0,0
-63,-20,0,0,0,0,0,0,0,0,0,-1,1161,1044,0,0
-56,-20,0,0,0,0,0,0,0,0,0,-1,1168,1044,0,0
-49,-20,0,0,0,0,0,0,0,0,0,-1,1175,1044,0,0
-42,-20,0,0,0,0,0,0,0,0,0,-1,1182,1044,0,0
-35,-20,0,0,0,0,0,0,0,0,0,-1,1189,1044,0,0
-28,-20,0,0,0,0,0,0,0,0,0,-1,1196,1044,0,0
-21,-20,0,0,0,0,0,0,0,0,0,-1,1203,1044,0,0
-14,-20,0,0,0,0,0,0,0,0,0,-1,1210,1044,0,0
-7,-20,0,0,0,0,0,0,0,0,0,-1,1217,1044,0,0
0,-20,0,0,0,0,0,0,0,0,0,-1,1224,1044,0,0
7,-20,0,0,0,0,0,0,0,0,0,-1,1231,1044,0,0
14,-20,0,0,0,0,0,0,0,0,0,-1,1238,1044,0,0
21,-20,0,0,0,0,0,0,0,0,0,-1,1245,1044,0,0
28,-20,0,0,0,0,0,0,0,0,0,-1,1252,1044,0,0
35,-20,0,0,0,0,0,0,0,0,0,-1,1259,1044,0,0
42,-20,0,0,0,0,0,0,0,0,0,-1,1266,1044,0,0
49,-20,0,0,0,0,0,0,0,0,0,-1,1273,1044,0,0
56,-20,0,0,0,0,0,0,0,0,0,-1,1280,1044,0,0
63,-20,0,0,0,0,0,0,0,0,0,-1,1287,1044,0,0
70,-20,0,0,0,0,0,0,0,0,0,-1,1294,1044,0,0
77,-20,0,0,0,0,0,0,0,0,0,-1,1301,1044,0,0
84,-20,0,0,0,0,0,0,0,0,0,-1,1308,1044,0,0
91,-20,0,0,0,0,0,0,0,0,0,-1,1315,1044,0,0
98,-20,0,0,0,0,0,0,0,0,0,-1,1322,1044,0,0
105,-20,0,0,0,0,0,0,0,0,0,-1,1329,1044,0,0
112,-20,0,0,0,0,0,0,0,0,0,-1,1336,1044,0,0
119,-20,0,0,0,0,0,0,0,0,0,-1,1343,1044,0,0
126,-20,0,0,0,0,0,0,0,0,0,-1,1350,1044,0,0
133,-20,0,0,0,0,0,0,0,0,0,-1,1357,1044,0,0
140,-20,0,0,0,0,0,0,0,0,0,-1,1364,1044,0,0
147,-20,0,0,0,0,0,0,0,0,0,-1,1371,1044,0,0
154,-20,0,0,0,0,0,0,0,0,0,-1,1378,1044,0,0
161,-20,0,0,0,0,0,0,0,0,0,-1,1385,1044,0,0
168,-20,0,0,0,0,0,0,0,0,0,-1,1392,1044,0,0
175,-20,0,0,0,0,0,0,0,0,0,-1,1399,1044,0,0
182,-20,0,0,0,0,0,0,0,0,0,-1,1406,1044,0,0
189,-20,0,0,0,0,0,0,0,0,0,-1,1413,1044,0,0
196,-20,0,0,0,0,0,0,0,0,0,-1,1420,1044,0,0
203,-20,0,0,0,0,0,0,0,0,0,-1,1427,1044,0,0
210,-20,0,0,0,0,0,0,0,0,0,-1,1434,1044,0,0
217,-20,0,0,0,0,0,0,0,0,0,-1,1441,1044,0,0
224,-20,0,0,0,0,0,0,0,0,0,-1,1448,1044,0,0
231,-20,0,0,0,0,0,0,0,0,0,-1,1455,1044,0,0
238,-20,0,0,0,0,0,0,0,0,0,-1,1462,1044,0,0
245,-20,0,0,0,0,0,0,0,0,0,-1,1469,1044,0,0
252,-20,0,0,0,0,0,0,0,0,0,-1,1476,1044,0,0
259,-20,0,0,0,0,0,0,0,0,0,-1,1483,1044,0,0
266,-20,0,0,0,0,0,0,0,0,0,-1,1490,1044,0,0
273,-20,0,0,0,0,0,0,0,0,0,-1,1497,1044,0,0
280,-20,0,0,0,0,0,0,0,0,0,-1,1504,1044,0,0
287,-20,0,0,0,0,0,0,0,0,0,-1,1511,1044,0,0
294,-20,0,0,0,0,0,0,0,0,0,-1,1518,1044,0,0
301,-20,0,0,0,0,0,0,0,0,0,-1,1525,1044,0,0
308,-20,0,0,0,0,0,0,0,0,0,-1,1532,1044,0,0
315,-20,0,0,0,0,0,0,0,0,0,-1,1539,1044,0,0
322,-20,0,0,0,0,0,0,0,0,0,-1,1546,1044,0,0
329,-20,0,0,0,0,0,0,0,0,0,-1,1553,1044,0,0
336,-20,0,0,0,0,0,0,0,0,0,-1,1560,1044,0,0
343,-20,0,0,0,0,0,0,0,0,0,-1,1567,1044,0,0
350,-20,0,0,0,0,0,0,0,0,0,-1,1574,1044,0,0
357,-20,0,0,0,0,0,0,0,0,0,-1,1581,1044,0,0
364,-20,0,0,0,0,0,0,0,0,0,-1,1588,1044,0,0
371,-20,0,0,0,0,0,0,0,0,0,-1,1595,1044,0,0
378,-20,0,0,0,0,0,0,0,0,0,-1,1602,1044,0,0
385,-20,0,0,0,0,0,0,0,0,0,-1,1609,1044,0,0
392,-20,0,0,0,0,0,0,0,0,0,-1,1616,1044,0,0
399,-20,0,0,0,0,0,0,0,0,0,-1,1623,1044,0,0
406,-20,0,0,0,0,0,0,0,0,0,-1,1630,1044,0,0
413,-20,0,0,0,0,0,0,0,0,0,-1,1637,1044,0,0
420,-20,0,0,0,0,0,0,0,0,0,-1,1644,1044,0,0
427,-20,0,0,0,0,0,0,0,0,0,-1,1651,1044,0,0
434,-20,0,0,0,0,0,0,0,0,0,-1,1658,1044,0,0
441,-20,0,0,0,0,0,0,0,0,0,-1,1665,1044,0,0
448,-20,0,0,0,0,0,0,0,0,0,-1,1672,1044,0,0
455,-20,0,0,0,0,0,0,0,0,0,-1,1679,1044,0,0
462,-20,0,0,0,0,0,0,0,0,0,-1,1686,1044,0,0
469,-20,0,0,0,0,0,0,0,0,0,-1,1693,1044,0,0
476,-20,0,0,0,0,0,0,0,0,0,-1,1700,1044,0,0
483,-20,0,0,0,0,0,0,0,0,0,-1,1707,1044,0,0
490,-20,0,0,0,0,0,0,0,0,0,-1,1714,1044,0,0
497,-20,0,0,0,0,0,0,0,0,0,-1,1721,1044,0,0
504,-20,0,0,0,0,0,0,0,0,0,-1,1728,1044,0,0
511,-20,0,0,0,0,0,0,0,0,0,-1,1735,1044,0,0
518,-20,0,0,0,0,0,0,0,0,0,-1,1742,1044,0,0
525,-20,0,0,0,0,0,0,0,0,0,-1,1749,1044,0,0
532,-20,0,0,0,0,0,0,0,0,0,-1,1756,1044,0,0
539,-20,0,0,0,0,0,0,0,0,0,-1,1763,1044,0,0
546,-20,0,0,0,0,0,0,0,0,0,-1,1770,1044,0,0
553,-20,0,0,0,0,0,0,0,0,0,-1,1777,1044,0,0
560,-20,0,0,0,0,0,0,0,0,0,-1,1784,1044,0,0
567,-20,0,0,0,0,0,0,0,0,0,-1,1791,1044,0,0
574,-20,0,0,0,0,0,0,0,0,0,-1,1798,1044,0,0
581,-20,0,0,0,0,0,0,0,0,0,-1,1805,1044,0,0
588,-20,0,0,0,0,0,0,0,0,0,-1,1812,1044,0,0
595,-20,0,0,0,0,0,0,0,0,0,-1,1819,1044,0,0
602,-20,0,0,0,0,0,0,0,0,0,-1,1826,1044,0,0
609,-20,0,0,0,0,0,0,0,0,0,-1,1833,1044,0,0
616,-20,0,0,0,0,0,0,0,0,0,-1,1840,1044,0,0
623,-20,0,0,0,0,0,0,0,0,0,-1,1847,1044,0,0
630,-20,0,0,0,0,0,0,0,0,0,-1,1854,1044,0,0
637,-20,0,0,0,0,0,0,0,0,0,-1,1861,1044,0,0
644,-20,0,0,0,0,0,0,0,0,0,-1,1868,1044,0,0
651,-20,71.1025,2.22266,0.00180377,-0.00142834,0.000890589,0.00203292,-0.00165749,0.251839,0.00213433,0.0408631,1875,1044,71.1025,-2.22265
658,-20,71.1113,2.24915,0.000951781,-0.000706939,0.000509919,0.001096,-0.000851158,0.275628,0.00112715,0.043388,1882,1044,71.1113,-2.24918
665,-20,71.0956,2.28967,0.000348137,-0.000211953,0.000345353,0.00051272,-0.000376535,0.444723,0.000515415,0.0401233,1889,1044,71.0956,-2.28968
672,-20,71.0135,2.20422,-3.91842e-05,0.000175195,0.000334469,0.000419231,-0.00028322,0.940466,0.000408087,0.0250549,1896,1044,71.0136,-2.20421
679,-20,70.9823,2.18677,-0.000325405,0.000507148,0.000386737,0.000659072,-0.000477328,1.19648,0.000658892,0.027785,1903,1044,70.9822,-2.18673
686,-20,70.9902,2.15027,-0.000826763,0.000467663,0.000460802,0.000614946,-0.000974046,1.26144,0.000925181,0.0373294,1910,1044,70.9902,-2.15031
693,-20,70.9585,2.03967,-0.00127114,0.000221733,0.000609768,0.000439135,-0.00148854,1.22831,0.00116662,0.0424838,1917,1044,70.9585,-2.03963
700,-20,70.9122,2.07458,-0.00153427,2.91342e-05,0.000818616,0.00037933,-0.00188446,1.16657,0.00139999,0.0376207,1924,1044,70.9122,-2.07455
707,-20,71.0024,2.12256,-0.00225969,0.000172199,0.00100791,0.000535622,-0.00262311,1.22474,0.00195193,0.031185,1931,1044,71.0024,-2.12256
714,-20,70.9966,2.32739,-0.00329166,0.00080443,0.00118899,0.00112455,-0.00361177,1.3078,0.00285744,0.0291928,1938,1044,70.9966,-2.32741
721,-20,70.8384,2.33411,0,0,0,0,0,0,0,-1,1945,1044,70.8384,-2.33411
728,-20,71.3622,7.18909,0,0,0,0,0,0,0,-1,1952,1044,71.3621,-7.18914
735,-20,70.9858,7.07312,-0.0073998,0.00485774,0.00103002,0.00494369,-0.00748575,1.48754,0.00722599,0.0347216,1959,1044,70.9858,-7.07309
742,-20,70.6786,6.80579,-0.00856117,0.00606321,0.000812284,0.00610819,-0.00860615,1.51548,0.00853603,0.0347992,1966,1044,70.6786,-6.80573
749,-20,70.8245,6.70911,-0.0100508,0.00824801,0.000641007,0.00827044,-0.0100732,1.53582,0.0106077,0.0339125,1973,1044,70.8245,-6.70906
756,-20,70.8481,6.56873,-0.0116371,0.0109165,0.000138223,0.0109174,-0.0116379,1.56467,0.0130245,0.0210201,1980,1044,70.8481,-6.56869
763,-20,70.7354,6.4115,-0.013229,0.0145608,-0.000787532,0.0145831,-0.0132512,-1.54249,0.0160763,0.0328703,1987,1044,70.7354,-6.41155
770,-20,70.5972,6.32495,-0.014342,0.0194043,-0.00228788,0.0195587,-0.0144964,-1.50341,0.019734,0.0274769,1994,1044,70.5972,-6.32494
777,-20,70.428,6.03333,-0.0147434,0.0249095,-0.00433146,0.0253771,-0.015211,-1.46325,0.0236773,0.0186011,2001,1044,70.4279,-6.03338
784,-20,70.4038,5.82751,-0.0145697,0.0303945,-0.00673502,0.0313816,-0.0155569,-1.42526,0.0276086,0.0234132,2008,1044,70.4039,-5.82754
791,-20,70.4326,5.27661,-0.0138549,0.0358581,-0.0102214,0.0378777,-0.0158745,-1.37573,0.0318887,0.039324,2015,1044,70.4326,-5.27666
798,-20,70.4504,4.69653,0,0,0,0,0,0,0,-1,2022,1044,70.4505,-4.69659
805,-20,71.3484,4.84448,0,0,0,0,0,0,0,-1,2029,1044,71.3484,-4.84445
812,-20,71.677,4.57385,0,0,0,0,0,0,0,-1,2036,1044,71.677,-4.57386
-700,-27,-55.2786,-3.07349,0,0,0,0,0,0,0,-1,524,1051,-55.2786,3.07348
-693,-27,-54.1631,-0.863159,0,0,0,0,0,0,0,-1,531,1051,-54.1631,0.863205
-686,-27,-54.7852,-0.109985,-0.0195351,0.0828978,0.0277906,0.0899517,-0.026589,1.32222,0.0705219,0.0444707,538,1051,-54.7852,0.109925
-679,-27,-55.4238,0.71106,-0.0165334,0.0768038,0.0211647,0.0813788,-0.0211083,1.35791,0.0624885,0.0479493,545,1051,-55.4238,-0.711027
-672,-27,-56.114,1.49402,0,0,0,0,0,0,0,-1,552,1051,-56.1141,-1.49403
-665,-27,-55.0769,2.85779,0,0,0,0,0,0,0,-1,559,1051,-55.0769,-2.85785
-658,-27,-55.0941,3.19995,0,0,0,0,0,0,0,-1,566,1051,-55.0941,-3.19993
-651,-27,-55.0889,3.57922,-0.00939497,0.0441753,0.00673159,0.0450082,-0.0102279,1.44769,0.0339326,0.0367653,573,1051,-55.0888,-3.57927
-644,-27,-55.0875,3.90051,-0.0084753,0.0356132,0.00392019,0.035959,-0.00882116,1.4828,0.0273907,0.0186266,580,1051,-55.0875,-3.90052
-637,-27,-55.119,4.13208,-0.00697417,0.0266086,0.00182002,0.026707,-0.00707252,1.51681,0.0205715,0.0157863,587,1051,-55.119,-4.13202
-630,-27,-55.2318,4.53625,-0.00505249,0.0180007,0.000132498,0.0180014,-0.00505325,1.56505,0.0139929,0.019621,594,1051,-55.2317,-4.5363
-623,-27,-55.3112,4.88892,-0.00344029,0.0101362,-0.00114193,0.0102315,-0.00353567,-1.48747,0.00825593,0.0177319,601,1051,-55.3112,-4.88893
-616,-27,-55.284,5.15698,-0.00220039,0.00197566,-0.00265551,0.00326573,-0.00349047,-1.11856,0.00390142,0.0149884,608,1051,-55.284,-5.157
-609,-27,-55.2542,5.34155,-0.000224658,-0.00511033,-0.00446632,0.00242323,-0.00775821,-0.535151,0.00614137,0.0149165,615,1051,-55.2542,-5.34154
-602,-27,-55.2145,5.57825,0.00177704,-0.0106622,-0.00613812,0.00429586,-0.013181,-0.389402,0.0105159,0.0146413,622,1051,-55.2145,-5.57825
-595,-27,-55.2515,5.83276,0.00365603,-0.0163283,-0.00678705,0.00574307,-0.0184154,-0.298327,0.0145735,0.0237776,629,1051,-55.2515,-5.8327
-588,-27,-55.5129,6.04492,0,0,0,0,0,0,0,-1,636,1051,-55.5129,-6.04487
-581,-27,-54.4581,0.433838,0,0,0,0,0,0,0,-1,643,1051,-54.4581,-0.433814
-574,-27,-54.5309,0.598022,0,0,0,0,0,0,0,-1,650,1051,-54.531,-0.597977
-567,-27,-54.4523,0.667358,0,0,0,0,0,0,0,-1,657,1051,-54.4523,-0.667378
-560,-27,-54.3966,0.584717,0,0,0,0,0,0,0,-1,664,1051,-54.3966,-0.584759
-553,-27,-54.2836,0.394775,0,0,0,0,0,0,0,-1,671,1051,-54.2836,-0.394792
-546,-27,-54.3978,0.52417,0,0,0,0,0,0,0,-1,678,1051,-54.3978,-0.524199
-539,-27,-54.4533,0.720947,0,0,0,0,0,0,0,-1,685,1051,-54.4533,-0.720924
-532,-27,-54.5273,0.739136,0,0,0,0,0,0,0,-1,692,1051,-54.5274,-0.739184
-525,-27,0,0,0,0,0,0,0,0,0,-1,699,1051,0,0
-518,-27,0,0,0,0,0,0,0,0,0,-1,706,1051,0,0
-511,-27,0,0,0,0,0,0,0,0,0,-1,713,1051,0,0
-504,-27,0,0,0,0,0,0,0,0,0,-1,720,1051,0,0
-497,-27,0,0,0,0,0,0,0,0,0,-1,727,1051,0,0
-490,-27,0,0,0,0,0,0,0,0,0,-1,734,1051,0,0
-483,-27,0,0,0,0,0,0,0,0,0,-1,741,1051,0,0
-476,-27,0,0,0,0,0,0,0,0,0,-1,748,1051,0,0
-469,-27,0,0,0,0,0,0,0,0,0,-1,755,1051,0,0
-462,-27,0,0,0,0,0,0,0,0,0,-1,762,1051,0,0
-455,-27,0,0,0,0,0,0,0,0,0,-1,769,1051,0,0
-448,-27,0,0,0,0,0,0,0,0,0,-1,776,1051,0,0
-441,-27,0,0,0,0,0,0,0,0,0,-1,783,1051,0,0
-434,-27,0,0,0,0,0,0,0,0,0,-1,790,1051,0,0
-427,-27,0,0,0,0,0,0,0,0,0,-1,797,1051,0,0
-420,-27,0,0,0,0,0,0,0,0,0,-1,804,1051,0,0
-413,-27,0,0,0,0,0,0,0,0,0,-1,811,1051,0,0
-406,-27,0,0,0,0,0,0,0,0,0,-1,818,1051,0,0
-399,-27,0,0,0,0,0,0,0,0,0,-1,825,1051,0,0
-392,-27,0,0,0,0,0,0,0,0,0,-1,832,1051,0,0
-385,-27,0,0,0,0,0,0,0,0,0,-1,839,1051,0,0
-378,-27,0,0,0,0,0,0,0,0,0,-1,846,1051,0,0
-371,-27,0,0,0,0,0,0,0,0,0,-1,853,1051,0,0
-364,-27,0,0,0,0,0,0,0,0,0,-1,860,1051,0,0
-357,-27,0,0,0,0,0,0,0,0,0,-1,867,1051,0,0
-350,-27,0,0,0,0,0,0,0,0,0,-1,874,1051,0,0
-343,-27,0,0,0,0,0,0,0,0,0,-1,881,1051,0,0
-336,-27,0,0,0,0,0,0,0,0,0,-1,888,1051,0,0
-329,-27,0,0,0,0,0,0,0,0,0,-1,895,1051,0,0
-322,-27,0,0,0,0,0,0,0,0,0,-1,902,1051,0,0
-315,-27,0,0,0,0,0,0,0,0,0,-1,909,1051,0,0
-308,-27,0,0,0,0,0,0,0,0,0,-1,916,1051,0,0
-301,-27,0,0,0,0,0,0,0,0,0,-1,923,1051,0,0
-294,-27,0,0,0,0,0,0,0,0,0,-1,930,1051,0,0
-287,-27,0,0,0,0,0,0,0,0,0,-1,937,1051,0,0
-280,-27,0,0,0,0,0,0,0,0,0,-1,944,1051,0,0
-273,-27,0,0,0,0,0,0,0,0,0,-1,951,1051,0,0
-266,-27,0,0,0,0,0,0,0,0,0,-1,958,1051,0,0
-259,-27,0,0,0,0,0,0,0,0,0,-1,965,1051,0,0
-252,-27,0,0,0,0,0,0,0,0,0,-1,972,1051,0,0
-245,-27,0,0,0,0,0,0,0,0,0,-1,979,1051,0,0
-238,-27,0,0,0,0,0,0,0,0,0,-1,986,1051,0,0
-231,-27,0,0,0,0,0,0,0,0,0,-1,993,1051,0,0
-224,-27,0,0,0,0,0,0,0,0,0,-1,1000,1051,0,0
-217,-27,0,0,0,0,0,0,0,0,0,-1,1007,1051,0,0
-210,-27,0,0,0,0,0,0,0,0,0,-1,1014,1051,0,0
-203,-27,0,0,0,0,0,0,0,0,0,-1,1021,1051,0,0
-196,-27,0,0,0,0,0,0,0,0,0,-1,1028,1051,0,0
-189,-27,0,0,0,0,0,0,0,0,0,-1,1035,1051,0,0
-182,-27,0,0,0,0,0,0,0,0,0,-1,1042,1051,0,0
-175,-27,0,0,0,0,0,0,0,0,0,-1,1049,1051,0,0
-168,-27,0,0,0,0,0,0,0,0,0,-1,1056,1051,0,0
-161,-27,0,0,0,0,0,0,0,0,0,-1,1063,1051,0,0
-154,-27,0,0,0,0,0,0,0,0,0,-1,1070,1051,0,0
-147,-27,0,0,0,0,0,0,0,0,0,-1,1077,1051,0,0
-140,-27,0,0,0,0,0,0,0,0,0,-1,1084,1051,0,0
-133,-27,0,0,0,0,0,0,0,0,0,-1,1091,1051,0,0
-126,-27,0,0,0,0,0,0,0,0,0,-1,1098,1051,0,0
-119,-27,0,0,0,0,0,0,0,0,0,-1,1105,1051,0,0
-112,-27,0,0,0,0,0,0,0,0,0,-1,1112,1051,0,0
-105,-27,0,0,0,0,0,0,0,0,0,-1,1119,1051,0,0
-98,-27,0,0,0,0,0,0,0,0,0,-1,1126,1051,0,0
-91,-27,0,0,0,0,0,0,0,0,0,-1,1133,1051,0,0
-84,-27,0,0,0,0,0,0,0,0,0,-1,1140,1051,0,0
-77,-27,0,0,0,0,0,0,0,0,0,-1,1147,1051,0,0
-70,-27,0,0,0,0,0,0,0,0,0,-1,1154,1051,0,0
-63,-27,0,0,0,0,0,0,0,0,0,-1,1161,1051,0,0
-56,-27,0,0,0,0,0,0,0,0,0,-1,1168,1051,0,0
-49,-27,0,0,0,0,0,0,0,0,0,-1,1175,1051,0,0
-42,-27,0,0,0,0,0,0,0,0,0,-1,1182,1051,0,0
-35,-27,0,0,0,0,0,0,0,0,0,-1,1189,1051,0,0
-28,-27,0,0,0,0,0,0,0,0,0,-1,1196,1051,0,0
-21,-27,0,0,0,0,0,0,0,0,0,-1,1203,1051,0,0
-14,-27,0,0,0,0,0,0,0,0,0,-1,1210,1051,0,0
-7,-27,0,0,0,0,0,0,0,0,0,-1,1217,1051,0,0
0,-27,0,0,0,0,0,0,0,0,0,-1,1224,1051,0,0
7,-27,0,0,0,0,0,0,0,0,0,-1,1231,1051,0,0
14,-27,0,0,0,0,0,0,0,0,0,-1,1238,1051,0,0
21,-27,0,0,0,0,0,0,0,0,0,-1,1245,1051,0,0
28,-27,0,0,0,0,0,0,0,0,0,-1,1252,1051,0,0
35,-27,0,0,0,0,0,0,0,0,0,-1,1259,1051,0,0
42,-27,0,0,0,0,0,0,0,0,0,-1,1266,1051,0,0
49,-27,0,0,0,0,0,0,0,0,0,-1,1273,1051,0,0
56,-27,0,0,0,0,0,0,0,0,0,-1,1280,1051,0,0
63,-27,0,0,0,0,0,0,0,0,0,-1,1287,1051,0,0
70,-27,0,0,0,0,0,0,0,0,0,-1,1294,1051,0,0
77,-27,0,0,0,0,0,0,0,0,0,-1,1301,1051,0,0
84,-27,0,0,0,0,0,0,0,0,0,-1,1308,1051,0,0
91,-27,0,0,0,0,0,0,0,0,0,-1,1315,1051,0,0
98,-27,0,0,0,0,0,0,0,0,0,-1,1322,1051,0,0
105,-27,0,0,0,0,0,0,0,0,0,-1,1329,1051,0,0
112,-27,0,0,0,0,0,0,0,0,0,-1,1336,1051,0,0
119,-27,0,0,0,0,0,0,0,0,0,-1,1343,1051,0,0
126,-27,0,0,0,0,0,0,0,0,0,-1,1350,1051,0,0
133,-27,0,0,0,0,0,0,0,0,0,-1,1357,1051,0,0
140,-27,0,0,0,0,0,0,0,0,0,-1,1364,1051,0,0
147,-27,0,0,0,0,0,0,0,0,0,-1,1371,1051,0,0
154,-27,0,0,0,0,0,0,0,0,0,-1,1378,1051,0,0
161,-27,0,0,0,0,0,0,0,0,0,-1,1385,1051,0,0
168,-27,0,0,0,0,0,0,0,0,0,-1,1392,1051,0,0
175,-27,0,0,0,0,0,0,0,0,0,-1,1399,1051,0,0
182,-27,0,0,0,0,0,0,0,0,0,-1,1406,1051,0,0
189,-27,0,0,0,0,0,0,0,0,0,-1,1413,1051,0,0
196,-27,0,0,0,0,0,0,0,0,0,-1,1420,1051,0,0
203,-27,0,0,0,0,0,0,0,0,0,-1,1427,1051,0,0
210,-27,0,0,0,0,0,0,0,0,0,-1,1434,1051,0,0
217,-27,0,0,0,0,0,0,0,0,0,-1,1441,1051,0,0
224,-27,0,0,0,0,0,0,0,0,0,-1,1448,1051,0,0
231,-27,0,0,0,0,0,0,0,0,0,-1,1455,1051,0,0
238,-27,0,0,0,0,0,0,0,0,0,-1,1462,1051,0,0
245,-27,0,0,0,0,0,0,0,0,0,-1,1469,1051,0,0
252,-27,0,0,0,0,0,0,0,0,0,-1,1476,1051,0,0
259,-27,0,0,0,0,0,0,0,0,0,-1,1483,1051,0,0
266,-27,0,0,0,0,0,0,0,0,0,-1,1490,1051,0,0
273,-27,0,0,0,0,0,0,0,0,0,-1,1497,1051,0,0
280,-27,0,0,0,0,0,0,0,0,0,-1,1504,1051,0,0
287,-27,0,0,0,0,0,0,0,0,0,-1,1511,1051,0,0
294,-27,0,0,0,0,0,0,0,0,0,-1,1518,1051,0,0
301,-27,0,0,0,0,0,0,0,0,0,-1,1525,1051,0,0
308,-27,0,0,0,0,0,0,0,0,0,-1,1532,1051,0,0
315,-27,0,0,0,0,0,0,0,0,0,-1,1539,1051,0,0
322,-27,0,0,0,0,0,0,0,0,0,-1,1546,1051,0,0
329,-27,0,0,0,0,0,0,0,0,0,-1,1553,1051,0,0
336,-27,0,0,0,0,0,0,0,0,0,-1,1560,1051,0,0
343,-27,0,0,0,0,0,0,0,0,0,-1,1567,1051,0,0
350,-27,0,0,0,0,0,0,0,0,0,-1,1574,1051,0,0
357,-27,0,0,0,0,0,0,0,0,0,-1,1581,1051,0,0
364,-27,0,0,0,0,0,0,0,0,0,-1,1588,1051,0,0
371,-27,0,0,0,0,0,0,0,0,0,-1,1595,1051,0,0
378,-27,0,0,0,0,0,0,0,0,0,-1,1602,1051,0,0
385,-27,0,0,0,0,0,0,0,0,0,-1,1609,1051,0,0
392,-27,0,0,0,0,0,0,0,0,0,-1,1616,1051,0,0
399,-27,0,0,0,0,0,0,0,0,0,-1,1623,1051,0,0
406,-27,0,0,0,0,0,0,0,0,0,-1,1630,1051,0,0
413,-27,0,0,0,0,0,0,0,0,0,-1,1637,1051,0,0
420,-27,0,0,0,0,0,0,0,0,0,-1,1644,1051,0,0
427,-27,0,0,0,0,0,0,0,0,0,-1,1651,1051,0,0
434,-27,0,0,0,0,0,0,0,0,0,-1,1658,1051,0,0
441,-27,0,0,0,0,0,0,0,0,0,-1,1665,1051,0,0
448,-27,0,0,0,0,0,0,0,0,0,-1,1672,1051,0,0
455,-27,0,0,0,0,0,0,0,0,0,-1,1679,1051,0,0
462,-27,0,0,0,0,0,0,0,0,0,-1,1686,1051,0,0
469,-27,0,0,0,0,0,0,0,0,0,-1,1693,1051,0,0
476,-27,0,0,0,0,0,0,0,0,0,-1,1700,1051,0,0
483,-27,0,0,0,0,0,0,0,0,0,-1,1707,1051,0,0
490,-27,0,0,0,0,0,0,0,0,0,-1,1714,1051,0,0
497,-27,0,0,0,0,0,0,0,0,0,-1,1721,1051,0,0
504,-27,0,0,0,0,0,0,0,0,0,-1,1728,1051,0,0
511,-27,0,0,0,0,0,0,0,0,0,-1,1735,1051,0,0
518,-27,0,0,0,0,0,0,0,0,0,-1,1742,1051,0,0
525,-27,0,0,0,0,0,0,0,0,0,-1,1749,1051,0,0
532,-27,0,0,0,0,0,0,0,0,0,-1,1756,1051,0,0
539,-27,0,0,0,0,0,0,0,0,0,-1,1763,1051,0,0
546,-27,0,0,0,0,0,0,0,0,0,-1,1770,1051,0,0
553,-27,0,0,0,0,0,0,0,0,0,-1,1777,1051,0,0
560,-27,0,0,0,0,0,0,0,0,0,-1,1784,1051,0,0
567,-27,0,0,0,0,0,0,0,0,0,-1,1791,1051,0,0
574,-27,0,0,0,0,0,0,0,0,0,-1,1798,1051,0,0
581,-27,0,0,0,0,0,0,0,0,0,-1,1805,1051,0,0
588,-27,0,0,0,0,0,0,0,0,0,-1,1812,1051,0,0
595,-27,0,0,0,0,0,0,0,0,0,-1,1819,1051,0,0
602,-27,0,0,0,0,0,0,0,0,0,-1,1826,1051,0,0
609,-27,0,0,0,0,0,0,0,0,0,-1,1833,1051,0,0
616,-27,0,0,0,0,0,0,0,0,0,-1,1840,1051,0,0
623,-27,0,0,0,0,0,0,0,0,0,-1,1847,1051,0,0
630,-27,0,0,0,0,0,0,0,0,0,-1,1854,1051,0,0
637,-27,0,0,0,0,0,0,0,0,0,-1,1861,1051,0,0
644,-27,0,0,0,0,0,0,0,0,0,-1,1868,1051,0,0
651,-27,71.1201,2.28918,0.00165723,-0.000566224,0.00178189,0.00264576,-0.00155475,0.506492,0.00245228,0.0413595,1875,1051,71.1201,-2.28921
658,-27,71.072,2.33838,0.000966092,-1.35954e-05,0.00114368,0.00172042,-0.000767921,0.583065,0.00147131,0.0416747,1882,1051,71.072,-2.33836
665,-27,71.0424,2.29309,0.000453562,0.000325091,0.0007892,0.00118114,-0.000402483,0.744791,0.00095043,0.0386332,1889,1051,71.0424,-2.29315
672,-27,70.9878,2.22461,0.000110334,0.00058444,0.000644636,0.00103423,-0.000339453,0.96159,0.000826216,0.0299532,1896,1051,70.9878,-2.22463
679,-27,70.9502,2.13123,-0.000168971,0.000793295,0.000598255,0.00107988,-0.000455561,1.12405,0.00091059,0.0292681,1903,1051,70.9502,-2.13122
686,-27,71.0219,2.01819,-0.000713701,0.000662863,0.000635223,0.000911192,-0.00096203,1.19813,0.00108164,0.0390211,1910,1051,71.0219,-2.01815
693,-27,71.0992,1.92236,-0.00124373,0.000344209,0.000784966,0.000666734,-0.00156625,1.18095,0.00132362,0.041852,1917,1051,71.0992,-1.92242
700,-27,70.9761,2.03442,-0.00157811,9.55984e-05,0.00102848,0.000584678,-0.00206719,1.12691,0.00160883,0.0379531,1924,1051,70.9761,-2.03444
707,-27,70.9342,2.11536,-0.00229507,0.000167155,0.00125054,0.000690888,-0.00281881,1.17418,0.00214688,0.0246609,1931,1051,70.9342,-2.11532
714,-27,71.0017,2.23315,-0.00329383,0.000690627,0.00147451,0.00117694,-0.00378014,1.25222,0.00299062,0.0225996,1938,1051,71.0017,-2.23315
721,-27,70.9481,2.36646,0,0,0,0,0,0,0,-1,1945,1051,70.9481,-2.36641
728,-27,71.2366,7.25317,0,0,0,0,0,0,0,-1,1952,1051,71.2366,-7.2532
735,-27,70.7644,7.17517,-0.00715231,0.00428509,0.00152878,0.00448591,-0.00735313,1.44019,0.00690176,0.0327931,1959,1051,70.7644,-7.17517
742,-27,70.5583,7.00342,-0.00815864,0.00539368,0.00129227,0.0055158,-0.00828077,1.47657,0.00801859,0.0220518,1966,1051,70.5584,-7.00342
749,-27,70.5887,6.72058,-0.00940401,0.00756635,0.00106516,0.00763295,-0.00947061,1.50836,0.00989372,0.0165989,1973,1051,70.5887,-6.72058
756,-27,70.564,6.50159,-0.0107106,0.0100896,0.000501721,0.0101017,-0.0107227,1.54669,0.0120247,0.0161598,1980,1051,70.564,-6.5016
763,-27,70.4763,6.26221,-0.0119884,0.0135632,-0.00052251,0.0135739,-0.011999,-1.55036,0.0147739,0.0174616,1987,1051,70.4763,-6.26221
770,-27,70.3843,6.00964,-0.0127063,0.0181497,-0.00219562,0.0183051,-0.0128617,-1.50011,0.0180854,0.0181747,1994,1051,70.3843,-6.00959
777,-27,70.2705,5.90283,-0.0126253,0.023438,-0.0044964,0.0239901,-0.0131775,-1.44861,0.0217593,0.0222058,2001,1051,70.2704,-5.90283
784,-27,70.1733,5.83167,-0.0119856,0.028694,-0.00717889,0.0299237,-0.0132153,-1.40115,0.0255214,0.0318349,2008,1051,70.1733,-5.8317
791,-27,70.0972,5.5238,-0.0107236,0.0339095,-0.0108692,0.0364157,-0.0132298,-1.34418,0.0296865,0.045586,2015,1051,70.0972,-5.52385
798,-27,70.2937,5.20508,0,0,0,0,0,0,0,-1,2022,1051,70.2936,-5.20507
805,-27,70.4573,5.05139,0,0,0,0,0,0,0,-1,2029,1051,70.4573,-5.05136
812,-27,70.5403,4.85535,0,0,0,0,0,0,0,-1,2036,1051,70.5403,-4.85531
-700,-34,-55.1419,-3.87573,-0.0323119,0.0730657,0.0551732,0.0966671,-0.0559133,1.16658,0.0891336,0.0440306,524,1058,-55.1419,3.87571
-693,-34,-54.8495,-2.2699,0,0,0,0,0,0,0,-1,531,1058,-54.8495,2.26985
-686,-34,-54.5724,-0.416992,-0.0267371,0.0715816,0.0300851,0.0800569,-0.0352124,1.2962,0.0682089,0.0445409,538,1058,-54.5724,0.416969
-679,-34,-54.768,0.299316,-0.0230714,0.0673642,0.0231295,0.0729364,-0.0286436,1.33439,0.0604771,0.0453685,545,1058,-54.768,-0.299351
-672,-34,-55.4435,1.06775,0,0,0,0,0,0,0,-1,552,1058,-55.4435,-1.0678
-665,-34,-54.188,1.06421,0,0,0,0,0,0,0,-1,559,1058,-54.188,-1.06421
-658,-34,-54.4353,3.48975,0,0,0,0,0,0,0,-1,566,1058,-54.4353,-3.48972
-651,-34,-54.7164,3.41431,-0.01195,0.0403135,0.00757823,0.0413902,-0.0130267,1.42967,0.0328093,0.0311604,573,1058,-54.7164,-3.41437
-644,-34,-54.8566,3.7395,-0.0101444,0.032684,0.00453442,0.0331588,-0.0106192,1.46646,0.0263683,0.0152784,580,1058,-54.8566,-3.73945
-637,-34,-54.8665,4.04529,-0.00785175,0.0245257,0.00223008,0.0246786,-0.00800462,1.50235,0.0196712,0.0161572,587,1058,-54.8665,-4.04524
-630,-34,-54.9296,4.4574,-0.00524008,0.0166717,0.000244305,0.0166745,-0.00524281,1.55965,0.0132152,0.0177929,594,1058,-54.9296,-4.45743
-623,-34,-54.9532,4.80444,-0.00295762,0.00939314,-0.00127213,0.00952281,-0.00308728,-1.46922,0.0075899,0.0151799,601,1058,-54.9533,-4.80444
-616,-34,-54.9116,5.16907,-0.00124979,0.0016187,-0.0029395,0.00345519,-0.00308629,-1.01237,0.00377872,0.0225328,608,1058,-54.9116,-5.16911
-609,-34,-54.8824,5.44055,0.000947681,-0.0053395,-0.00479751,0.00353979,-0.00793161,-0.495368,0.00678288,0.0215822,615,1058,-54.8824,-5.44056
-602,-34,-54.9002,5.65356,0.00315605,-0.0107082,-0.00640263,0.00566045,-0.0132126,-0.372855,0.0111834,0.017112,622,1058,-54.9002,-5.65352
-595,-34,-55.0137,5.9436,0.00531495,-0.0160004,-0.00699922,0.00740777,-0.0180932,-0.290546,0.0151477,0.0206768,629,1058,-55.0137,-5.94365
-588,-34,-55.3813,6.20935,0,0,0,0,0,0,0,-1,636,1058,-55.3814,-6.2093
-581,-34,-54.4048,0.515503,0,0,0,0,0,0,0,-1,643,1058,-54.4048,-0.515466
-574,-34,-54.466,0.615967,0,0,0,0,0,0,0,-1,650,1058,-54.466,-0.615931
-567,-34,-54.4874,0.671875,0,0,0,0,0,0,0,-1,657,1058,-54.4874,-0.671836
-560,-34,-54.5185,0.577515,0,0,0,0,0,0,0,-1,664,1058,-54.5185,-0.577538
-553,-34,-54.3439,0.309204,0,0,0,0,0,0,0,-1,671,1058,-54.3439,-0.30921
-546,-34,-54.4028,0.478271,0,0,0,0,0,0,0,-1,678,1058,-54.4029,-0.478264
-539,-34,-54.4029,0.547241,0,0,0,0,0,0,0,-1,685,1058,-54.4029,-0.547264
-532,-34,-54.3386,0.473022,0,0,0,0,0,0,0,-1,692,1058,-54.3386,-0.473057
-525,-34,0,0,0,0,0,0,0,0,0,-1,699,1058,0,0
-518,-34,0,0,0,0,0,0,0,0,0,-1,706,1058,0,0
-511,-34,0,0,0,0,0,0,0,0,0,-1,713,1058,0,0
-504,-34,0,0,0,0,0,0,0,0,0,-1,720,1058,0,0
-497,-34,0,0,0,0,0,0,0,0,0,-1,727,1058,0,0
-490,-34,0,0,0,0,0,0,0,0,0,-1,734,1058,0,0
-483,-34,0,0,0,0,0,0,0,0,0,-1,741,1058,0,0
-476,-34,0,0,0,0,0,0,0,0,0,-1,748,1058,0,0
-469,-34,0,0,0,0,0,0,0,0,0,-1,755,1058,0,0
-462,-34,0,0,0,0,0,0,0,0,0,-1,762,1058,0,0
-455,-34,0,0,0,0,0,0,0,0,0,-1,769,1058,0,0
-448,-34,0,0,0,0,0,0,0,0,0,-1,776,1058,0,0
-441,-34,0,0,0,0,0,0,0,0,0,-1,783,1058,0,0
-434,-34,0,0,0,0,0,0,0,0,0,-1,790,1058,0,0
-427,-34,0,0,0,0,0,0,0,0,0,-1,797,1058,0,0
-420,-34,0,0,0,0,0,0,0,0,0,-1,804,1058,0,0
-413,-34,0,0,0,0,0,0,0,0,0,-1,811,1058,0,0
-406,-34,0,0,0,0,0,0,0,0,0,-1,818,1058,0,0
-399,-34,0,0,0,0,0,0,0,0,0,-1,825,1058,0,0
-392,-34,0,0,0,0,0,0,0,0,0,-1,832,1058,0,0
-385,-34,0,0,0,0,0,0,0,0,0,-1,839,1058,0,0
-378,-34,0,0,0,0,0,0,0,0,0,-1,846,1058,0,0
-371,-34,0,0,0,0,0,0,0,0,0,-1,853,1058,0,0
-364,-34,0,0,0,0,0,0,0,0,0,-1,860,1058,0,0
-357,-34,0,0,0,0,0,0,0,0,0,-1,867,1058,0,0
-350,-34,0,0,0,0,0,0,0,0,0,-1,874,1058,0,0
-343,-34,0,0,0,0,0,0,0,0,0,-1,881,1058,0,0
-336,-34,0,0,0,0,0,0,0,0,0,-1,888,1058,0,0
-329,-34,0,0,0,0,0,0,0,0,0,-1,895,1058,0,0
-322,-34,0,0,0,0,0,0,0,0,0,-1,902,1058,0,0
-315,-34,0,0,0,0,0,0,0,0,0,-1,909,1058,0,0
-308,-34,0,0,0,0,0,0,0,0,0,-1,916,1058,0,0
-301,-34,0,0,0,0,0,0,0,0,0,-1,923,1058,0,0
-294,-34,0,0,0,0,0,0,0,0,0,-1,930,1058,0,0
-287,-34,0,0,0,0,0,0,0,0,0,-1,937,1058,0,0
-280,-34,0,0,0,0,0,0,0,0,0,-1,944,1058,0,0
-273,-34,0,0,0,0,0,0,0,0,0,-1,951,1058,0,0
-266,-34,0,0,0,0,0,0,0,0,0,-1,958,1058,0,0
-259,-34,0,0,0,0,0,0,0,0,0,-1,965,1058,0,0
-252,-34,0,0,0,0,0,0,0,0,0,-1,972,1058,0,0
-245,-34,0,0,0,0,0,0,0,0,0,-1,979,1058,0,0
-238,-34,0,0,0,0,0,0,0,0,0,-1,986,1058,0,0
-231,-34,0,0,0,0,0,0,0,0,0,-1,993,1058,0,0
-224,-34,0,0,0,0,0,0,0,0,0,-1,1000,1058,0,0
-217,-34,0,0,0,0,0,0,0,0,0,-1,1007,1058,0,0
-210,-34,0,0,0,0,0,0,0,0,0,-1,1014,1058,0,0
-203,-34,0,0,0,0,0,0,0,0,0,-1,1021,1058,0,0
-196,-34,0,0,0,0,0,0,0,0,0,-1,1028,1058,0,0
-189,-34,0,0,0,0,0,0,0,0,0,-1,1035,1058,0,0
-182,-34,0,0,0,0,0,0,0,0,0,-1,1042,1058,0,0
-175,-34,0,0,0,0,0,0,0,0,0,-1,1049,1058,0,0
-168,-34,0,0,0,0,0,0,0,0,0,-1,1056,1058,0,0
-161,-34,0,0,0,0,0,0,0,0,0,-1,1063,1058,0,0
-154,-34,0,0,0,0,0,0,0,0,0,-1,1070,1058,0,0
-147,-34,0,0,0,0,0,0,0,0,0,-1,1077,1058,0,0
-140,-34,0,0,0,0,0,0,0,0,0,-1,1084,1058,0,0
-133,-34,0,0,0,0,0,0,0,0,0,-1,1091,1058,0,0
-126,-34,0,0,0,0,0,0,0,0,0,-1,1098,1058,0,0
-119,-34,0,0,0,0,0,0,0,0,0,-1,1105,1058,0,0
-112,-34,0,0,0,0,0,0,0,0,0,-1,1112,1058,0,0
-105,-34,0,0,0,0,0,0,0,0,0,-1,1119,1058,0,0
-98,-34,0,0,0,0,0,0,0,0,0,-1,1126,1058,0,0
-91,-34,0,0,0,0,0,0,0,0,0,-1,1133,1058,0,0
-84,-34,0,0,0,0,0,0,0,0,0,-1,1140,1058,0,0
-77,-34,0,0,0,0,0,0,0,0,0,-1,1147,1058,0,0
-70,-34,0,0,0,0,0,0,0,0,0,-1,1154,1058,0,0
-63,-34,0,0,0,0,0,0,0,0,0,-1,1161,1058,0,0
-56,-34,0,0,0,0,0,0,0,0,0,-1,1168,1058,0,0
-49,-34,0,0,0,0,0,0,0,0,0,-1,1175,1058,0,0
-42,-34,0,0,0,0,0,0,0,0,0,-1,1182,1058,0,0
-35,-34,0,0,0,0,0,0,0,0,0,-1,1189,1058,0,0
-28,-34,0,0,0,0,0,0,0,0,0,-1,1196,1058,0,0
-21,-34,0,0,0,0,0,0,0,0,0,-1,1203,1058,0,0
-14,-34,0,0,0,0,0,0,0,0,0,-1,1210,1058,0,0
-7,-34,0,0,0,0,0,0,0,0,0,-1,1217,1058,0,0
0,-34,0,0,0,0,0,0,0,0,0,-1,1224,1058,0,0
7,-34,0,0,0,0,0,0,0,0,0,-1,1231,1058,0,0
14,-34,0,0,0,0,0,0,0,0,0,-1,1238,1058,0,0
21,-34,0,0,0,0,0,0,0,0,0,-1,1245,1058,0,0
28,-34,0,0,0,0,0,0,0,0,0,-1,1252,1058,0,0
35,-34,0,0,0,0,0,0,0,0,0,-1,1259,1058,0,0
42,-34,0,0,0,0,0,0,0,0,0,-1,1266,1058,0,0
49,-34,0,0,0,0,0,0,0,0,0,-1,1273,1058,0,0
56,-34,0,0,0,0,0,0,0,0,0,-1,1280,1058,0,0
63,-34,0,0,0,0,0,0,0,0,0,-1,1287,1058,0,0
70,-34,0,0,0,0,0,0,0,0,0,-1,1294,1058,0,0
77,-34,0,0,0,0,0,0,0,0,0,-1,1301,1058,0,0
84,-34,0,0,0,0,0,0,0,0,0,-1,1308,1058,0,0
91,-34,0,0,0,0,0,0,0,0,0,-1,1315,1058,0,0
98,-34,0,0,0,0,0,0,0,0,0,-1,1322,1058,0,0
105,-34,0,0,0,0,0,0,0,0,0,-1,1329,1058,0,0
112,-34,0,0,0,0,0,0,0,0,0,-1,1336,1058,0,0
119,-34,0,0,0,0,0,0,0,0,0,-1,1343,1058,0,0
126,-34,0,0,0,0,0,0,0,0,0,-1,1350,1058,0,0
133,-34,0,0,0,0,0,0,0,0,0,-1,1357,1058,0,0
140,-34,0,0,0,0,0,0,0,0,0,-1,1364,1058,0,0
147,-34,0,0,0,0,0,0,0,0,0,-1,1371,1058,0,0
154,-34,0,0,0,0,0,0,0,0,0,-1,1378,1058,0,0
161,-34,0,0,0,0,0,0,0,0,0,-1,1385,1058,0,0
168,-34,0,0,0,0,0,0,0,0,0,-1,1392,1058,0,0
175,-34,0,0,0,0,0,0,0,0,0,-1,1399,1058,0,0
182,-34,0,0,0,0,0,0,0,0,0,-1,1406,1058,0,0
189,-34,0,0,0,0,0,0,0,0,0,-1,1413,1058,0,0
196,-34,0,0,0,0,0,0,0,0,0,-1,1420,1058,0,0
203,-34,0,0,0,0,0,0,0,0,0,-1,1427,1058,0,0
210,-34,0,0,0,0,0,0,0,0,0,-1,1434,1058,0,0
217,-34,0,0,0,0,0,0,0,0,0,-1,1441,1058,0,0
224,-34,0,0,0,0,0,0,0,0,0,-1,1448,1058,0,0
231,-34,0,0,0,0,0,0,0,0,0,-1,1455,1058,0,0
238,-34,0,0,0,0,0,0,0,0,0,-1,1462,1058,0,0
245,-34,0,0,0,0,0,0,0,0,0,-1,1469,1058,0,0
252,-34,0,0,0,0,0,0,0,0,0,-1,1476,1058,0,0
259,-34,0,0,0,0,0,0,0,0,0,-1,1483,1058,0,0
266,-34,0,0,0,0,0,0,0,0,0,-1,1490,1058,0,0
273,-34,0,0,0,0,0,0,0,0,0,-1,1497,1058,0,0
280,-34,0,0,0,0,0,0,0,0,0,-1,1504,1058,0,0
287,-34,0,0,0,0,0,0,0,0,0,-1,1511,1058,0,0
294,-34,0,0,0,0,0,0,0,0,0,-1,1518,1058,0,0
301,-34,0,0,0,0,0,0,0,0,0,-1,1525,1058,0,0
308,-34,0,0,0,0,0,0,0,0,0,-1,1532,1058,0,0
315,-34,0,0,0,0,0,0,0,0,0,-1,1539,1058,0,0
322,-34,0,0,0,0,0,0,0,0,0,-1,1546,1058,0,0
329,-34,0,0,0,0,0,0,0,0,0,-1,1553,1058,0,0
336,-34,0,0,0,0,0,0,0,0,0,-1,1560,1058,0,0
343,-34,0,0,0,0,0,0,0,0,0,-1,1567,1058,0,0
350,-34,0,0,0,0,0,0,0,0,0,-1,1574,1058,0,0
357,-34,0,0,0,0,0,0,0,0,0,-1,1581,1058,0,0
364,-34,0,0,0,0,0,0,0,0,0,-1,1588,1058,0,0
371,-34,0,0,0,0,0,0,0,0,0,-1,1595,1058,0,0
378,-34,0,0,0,0,0,0,0,0,0,-1,1602,1058,0,0
385,-34,0,0,0,0,0,0,0,0,0,-1,1609,1058,0,0
392,-34,0,0,0,0,0,0,0,0,0,-1,1616,1058,0,0
399,-34,0,0,0,0,0,0,0,0,0,-1,1623,1058,0,0
406,-34,0,0,0,0,0,0,0,0,0,-1,1630,1058,0,0
413,-34,0,0,0,0,0,0,0,0,0,-1,1637,1058,0,0
420,-34,0,0,0,0,0,0,0,0,0,-1,1644,1058,0,0
427,-34,0,0,0,0,0,0,0,0,0,-1,1651,1058,0,0
434,-34,0,0,0,0,0,0,0,0,0,-1,1658,1058,0,0
441,-34,0,0,0,0,0,0,0,0,0,-1,1665,1058,0,0
448,-34,0,0,0,0,0,0,0,0,0,-1,1672,1058,0,0
455,-34,0,0,0,0,0,0,0,0,0,-1,1679,1058,0,0
462,-34,0,0,0,0,0,0,0,0,0,-1,1686,1058,0,0
469,-34,0,0,0,0,0,0,0,0,0,-1,1693,1058,0,0
476,-34,0,0,0,0,0,0,0,0,0,-1,1700,1058,0,0
483,-34,0,0,0,0,0,0,0,0,0,-1,1707,1058,0,0
490,-34,0,0,0,0,0,0,0,0,0,-1,1714,1058,0,0
497,-34,0,0,0,0,0,0,0,0,0,-1,1721,1058,0,0
504,-34,0,0,0,0,0,0,0,0,0,-1,1728,1058,0,0
511,-34,0,0,0,0,0,0,0,0,0,-1,1735,1058,0,0
518,-34,0,0,0,0,0,0,0,0,0,-1,1742,1058,0,0
525,-34,0,0,0,0,0,0,0,0,0,-1,1749,1058,0,0
532,-34,0,0,0,0,0,0,0,0,0,-1,1756,1058,0,0
539,-34,0,0,0,0,0,0,0,0,0,-1,1763,1058,0,0
546,-34,0,0,0,0,0,0,0,0,0,-1,1770,1058,0,0
553,-34,0,0,0,0,0,0,0,0,0,-1,1777,1058,0,0
560,-34,0,0,0,0,0,0,0,0,0,-1,1784,1058,0,0
567,-34,0,0,0,0,0,0,0,0,0,-1,1791,1058,0,0
574,-34,0,0,0,0,0,0,0,0,0,-1,1798,1058,0,0
581,-34,0,0,0,0,0,0,0,0,0,-1,1805,1058,0,0
588,-34,0,0,0,0,0,0,0,0,0,-1,1812,1058,0,0
595,-34,0,0,0,0,0,0,0,0,0,-1,1819,1058,0,0
602,-34,0,0,0,0,0,0,0,0,0,-1,1826,1058,0,0
609,-34,0,0,0,0,0,0,0,0,0,-1,1833,1058,0,0
616,-34,0,0,0,0,0,0,0,0,0,-1,1840,1058,0,0
623,-34,0,0,0,0,0,0,0,0,0,-1,1847,1058,0,0
630,-34,0,0,0,0,0,0,0,0,0,-1,1854,1058,0,0
637,-34,0,0,0,0,0,0,0,0,0,-1,1861,1058,0,0
644,-34,0,0,0,0,0,0,0,0,0,-1,1868,1058,0,0
651,-34,71.0464,2.22754,0.00136768,-0.00100619,0.00249006,0.00293923,-0.00257774,0.562994,0.0031875,0.040456,1875,1058,71.0464,-2.22752
658,-34,70.9996,2.25244,0.000941927,-0.000516985,0.00171665,0.00207768,-0.00165274,0.584493,0.00215841,0.0406664,1882,1058,70.9996,-2.25248
665,-34,71.0631,2.12109,0.000583307,-0.000192621,0.00123749,0.00149223,-0.00110154,0.633497,0.00150316,0.0406601,1889,1058,71.0631,-2.12109
672,-34,71.0385,2.0542,0.000315711,9.33744e-05,0.000983807,0.00119461,-0.000785525,0.729138,0.00115134,0.0384619,1896,1058,71.0385,-2.05421
679,-34,71.0031,2.06323,6.18539e-05,0.000346338,0.000843817,0.00105982,-0.000651625,0.868898,0.000997426,0.0385738,1903,1058,71.003,-2.06327
686,-34,71.0927,2.03857,-0.000483446,0.000270065,0.000844353,0.000817905,-0.00103129,0.995245,0.00107,0.0419399,1910,1058,71.0927,-2.03857
693,-34,71.1368,2.04553,-0.00103775,1.94308e-05,0.000994047,0.000616691,-0.00163501,1.02976,0.0013436,0.0410832,1917,1058,71.1369,-2.04554
700,-34,70.9896,2.11475,-0.00139411,-0.000152667,0.00125152,0.000623606,-0.00217038,1.01561,0.0016935,0.0371943,1924,1058,70.9896,-2.1148
707,-34,70.8845,2.19995,-0.00207433,-6.67979e-05,0.00148688,0.000723413,-0.00286454,1.0823,0.00219101,0.0231755,1931,1058,70.8845,-2.2
714,-34,70.9414,2.28491,-0.00302286,0.000427475,0.00173415,0.00114842,-0.0037438,1.1768,0.00295405,0.0189397,1938,1058,70.9414,-2.28486
721,-34,70.9485,2.3822,0,0,0,0,0,0,0,-1,1945,1058,70.9485,-2.38216
728,-34,70.4938,7.47839,0,0,0,0,0,0,0,-1,1952,1058,70.4938,-7.47845
735,-34,70.3619,7.26672,-0.00663847,0.00377928,0.00200063,0.00415027,-0.00700946,1.38744,0.00651318,0.0233747,1959,1058,70.362,-7.26675
742,-34,70.2965,6.98718,-0.00753161,0.00485397,0.00175018,0.00509654,-0.00777417,1.43308,0.00748432,0.0191996,1966,1058,70.2965,-6.9872
749,-34,70.2988,6.72839,-0.00859439,0.00705239,0.00149553,0.00719405,-0.00873606,1.47636,0.0092116,0.0163625,1973,1058,70.2988,-6.72838
756,-34,70.2698,6.44202,-0.00973184,0.00946371,0.00092264,0.00950795,-0.00977609,1.52288,0.011134,0.0124285,1980,1058,70.2697,-6.44198
763,-34,70.1833,6.15649,-0.0108838,0.0128314,-0.00012922,0.0128321,-0.0108845,-1.56535,0.0137082,0.0134206,1987,1058,70.1833,-6.15655
770,-34,70.0574,5.89575,-0.0115426,0.0172667,-0.00187571,0.0173883,-0.0116642,-1.50605,0.0168816,0.0193355,1994,1058,70.0573,-5.89572
777,-34,69.8713,5.73511,-0.0114769,0.0224438,-0.00428455,0.0229766,-0.0120097,-1.44707,0.0205275,0.0237956,2001,1058,69.8713,-5.7351
784,-34,69.6404,5.56348,-0.0109139,0.0276138,-0.00704267,0.0288608,-0.0121609,-1.39555,0.0243293,0.0434218,2008,1058,69.6403,-5.56344
791,-34,69.428,5.37988,0,0,0,0,0,0,0,-1,2015,1058,69.4279,-5.37991
798,-34,69.6804,5.3186,0,0,0,0,0,0,0,-1,2022,1058,69.6804,-5.3186
805,-34,69.5662,5.2583,0,0,0,0,0,0,0,-1,2029,1058,69.5662,-5.25827
812,-34,69.0938,5.1626,0,0,0,0,0,0,0,-1,2036,1058,69.0937,-5.16266
-700,-41,-54.9903,-4.38062,0,0,0,0,0,0,0,-1,524,1065,-54.9903,4.38062
-693,-41,-53.1557,-1.75989,0,0,0,0,0,0,0,-1,531,1065,-53.1557,1.75993
-686,-41,-53.6898,-0.932007,-0.0326398,0.0574943,0.031926,0.0676568,-0.0428023,1.26262,0.0643095,0.0433295,538,1065,-53.6898,0.931959
-679,-41,-54.0548,-0.147095,-0.0287356,0.0551674,0.0247156,0.0619067,-0.0354749,1.3046,0.0569094,0.0449544,545,1065,-54.0549,0.147144
-672,-41,-54.6725,0.333862,0,0,0,0,0,0,0,-1,552,1065,-54.6725,-0.333846
-665,-41,-53.7484,2.17712,0,0,0,0,0,0,0,-1,559,1065,-53.7484,-2.17711
-658,-41,-53.9424,2.68701,-0.0179414,0.0408672,0.0114057,0.0430018,-0.020076,1.38578,0.0372112,0.0426335,566,1065,-53.9424,-2.68706
-651,-41,-54.2158,3.18982,-0.0146891,0.0347332,0.00837758,0.0361147,-0.0160706,1.40737,0.0308611,0.0333927,573,1065,-54.2158,-3.18979
-644,-41,-54.4594,3.64148,-0.0120803,0.0283779,0.00523733,0.0290449,-0.0127473,1.44413,0.0247328,0.0168472,580,1065,-54.4593,-3.64145
-637,-41,-54.5154,3.9812,-0.00905143,0.0214635,0.00280685,0.0217196,-0.00930746,1.47983,0.018385,0.0178321,587,1065,-54.5154,-3.98126
-630,-41,-54.5418,4.35828,-0.00580478,0.0147525,0.000587859,0.0147693,-0.00582158,1.54223,0.0122566,0.0160897,594,1065,-54.5418,-4.35828
-623,-41,-54.5589,4.7467,-0.00283948,0.0084161,-0.00108852,0.0085204,-0.00294378,-1.47527,0.00687492,0.0135334,601,1065,-54.5589,-4.74676
-616,-41,-54.5397,5.17957,-0.000621322,0.00138388,-0.00284315,0.00339603,-0.00263347,-0.954909,0.0034904,0.0169109,608,1065,-54.5397,-5.17953
-609,-41,-54.5159,5.54065,0.00180319,-0.00521452,-0.00474505,0.00419582,-0.00760715,-0.467032,0.00690867,0.0232709,615,1065,-54.516,-5.54063
-602,-41,-54.5613,5.76428,0.00419367,-0.0103984,-0.00629939,0.00653685,-0.0127416,-0.356111,0.0113209,0.0147911,622,1065,-54.5613,-5.76423
-595,-41,-54.6968,6.00378,0.00654726,-0.0153993,-0.0068554,0.00851266,-0.0173647,-0.279204,0.0152289,0.0256037,629,1065,-54.6968,-6.00375
-588,-41,-55.1169,6.12354,0,0,0,0,0,0,0,-1,636,1065,-55.1169,-6.12358
-581,-41,-54.4001,0.459839,0,0,0,0,0,0,0,-1,643,1065,-54.4001,-0.459834
-574,-41,-54.5302,0.620972,0,0,0,0,0,0,0,-1,650,1065,-54.5302,-0.62096
-567,-41,-54.523,0.583252,0,0,0,0,0,0,0,-1,657,1065,-54.523,-0.583245
-560,-41,-54.5052,0.573364,0,0,0,0,0,0,0,-1,664,1065,-54.5052,-0.57334
-553,-41,-54.5127,0.475464,0,0,0,0,0,0,0,-1,671,1065,-54.5127,-0.475504
-546,-41,-54.5254,0.566895,0,0,0,0,0,0,0,-1,678,1065,-54.5254,-0.566886
-539,-41,-54.5332,0.653198,0,0,0,0,0,0,0,-1,685,1065,-54.5332,-0.653139
-532,-41,-54.4589,0.619263,0,0,0,0,0,0,0,-1,692,1065,-54.4589,-0.619301
-525,-41,0,0,0,0,0,0,0,0,0,-1,699,1065,0,0
-518,-41,0,0,0,0,0,0,0,0,0,-1,706,1065,0,0
-511,-41,0,0,0,0,0,0,0,0,0,-1,713,1065,0,0
-504,-41,0,0,0,0,0,0,0,0,0,-1,720,1065,0,0
-497,-41,0,0,0,0,0,0,0,0,0,-1,727,1065,0,0
-490,-41,0,0,0,0,0,0,0,0,0,-1,734,1065,0,0
-483,-41,0,0,0,0,0,0,0,0,0,-1,741,1065,0,0
-476,-41,0,0,0,0,0,0,0,0,0,-1,748,1065,0,0
-469,-41,0,0,0,0,0,0,0,0,0,-1,755,1065,0,0
-462,-41,0,0,0,0,0,0,0,0,0,-1,762,1065,0,0
-455,-41,0,0,0,0,0,0,0,0,0,-1,769,1065,0,0
-448,-41,0,0,0,0,0,0,0,0,0,-1,776,1065,0,0
-441,-41,0,0,0,0,0,0,0,0,0,-1,783,1065,0,0
-434,-41,0,0,0,0,0,0,0,0,0,-1,790,1065,0,0
-427,-41,0,0,0,0,0,0,0,0,0,-1,797,1065,0,0
-420,-41,0,0,0,0,0,0,0,0,0,-1,804,1065,0,0
-413,-41,0,0,0,0,0,0,0,0,0,-1,811,1065,0,0
-406,-41,0,0,0,0,0,0,0,0,0,-1,818,1065,0,0
-399,-41,0,0,0,0,0,0,0,0,0,-1,825,1065,0,0
-392,-41,0,0,0,0,0,0,0,0,0,-1,832,1065,0,0
-385,-41,0,0,0,0,0,0,0,0,0,-1,839,1065,0,0
-378,-41,0,0,0,0,0,0,0,0,0,-1,846,1065,0,0
-371,-41,0,0,0,0,0,0,0,0,0,-1,853,1065,0,0
-364,-41,0,0,0,0,0,0,0,0,0,-1,860,1065,0,0
-357,-41,0,0,0,0,0,0,0,0,0,-1,867,1065,0,0
-350,-41,0,0,0,0,0,0,0,0,0,-1,874,1065,0,0
-343,-41,0,0,0,0,0,0,0,0,0,-1,881,1065,0,0
-336,-41,0,0,0,0,0,0,0,0,0,-1,888,1065,0,0
-329,-41,0,0,0,0,0,0,0,0,0,-1,895,1065,0,0
-322,-41,0,0,0,0,0,0,0,0,0,-1,902,1065,0,0
-315,-41,0,0,0,0,0,0,0,0,0,-1,909,1065,0,0
-308,-41,0,0,0,0,0,0,0,0,0,-1,916,1065,0,0
-301,-41,0,0,0,0,0,0,0,0,0,-1,923,1065,0,0
-294,-41,0,0,0,0,0,0,0,0,0,-1,930,1065,0,0
-287,-41,0,0,0,0,0,0,0,0,0,-1,937,1065,0,0
-280,-41,0,0,0,0,0,0,0,0,0,-1,944,1065,0,0
-273,-41,0,0,0,0,0,0,0,0,0,-1,951,1065,0,0
-266,-41,0,0,0,0,0,0,0,0,0,-1,958,1065,0,0
-259,-41,0,0,0,0,0,0,0,0,0,-1,965,1065,0,0
-252,-41,0,0,0,0,0,0,0,0,0,-1,972,1065,0,0
-245,-41,0,0,0,0,0,0,0,0,0,-1,979,1065,0,0
-238,-41,0,0,0,0,0,0,0,0,0,-1,986,1065,0,0
-231,-41,0,0,0,0,0,0,0,0,0,-1,993,1065,0,0
-224,-41,0,0,0,0,0,0,0,0,0,-1,1000,1065,0,0
-217,-41,0,0,0,0,0,0,0,0,0,-1,1007,1065,0,0
-210,-41,0,0,0,0,0,0,0,0,0,-1,1014,1065,0,0
-203,-41,0,0,0,0,0,0,0,0,0,-1,1021,1065,0,0
-196,-41,0,0,0,0,0,0,0,0,0,-1,1028,1065,0,0
-189,-41,0,0,0,0,0,0,0,0,0,-1,1035,1065,0,0
-182,-41,0,0,0,0,0,0,0,0,0,-1,1042,1065,0,0
-175,-41,0,0,0,0,0,0,0,0,0,-1,1049,1065,0,0
-168,-41,0,0,0,0,0,0,0,0,0,-1,1056,1065,0,0
-161,-41,0,0,0,0,0,0,0,0,0,-1,1063,1065,0,0
-154,-41,0,0,0,0,0,0,0,0,0,-1,1070,1065,0,0
-147,-41,0,0,0,0,0,0,0,0,0,-1,1077,1065,0,0
-140,-41,0,0,0,0,0,0,0,0,0,-1,1084,1065,0,0
-133,-41,0,0,0,0,0,0,0,0,0,-1,1091,1065,0,0
-126,-41,0,0,0,0,0,0,0,0,0,-1,1098,1065,0,0
-119,-41,0,0,0,0,0,0,0,0,0,-1,1105,1065,0,0
-112,-41,0,0,0,0,0,0,0,0,0,-1,1112,1065,0,0
-105,-41,0,0,0,0,0,0,0,0,0,-1,1119,1065,0,0
-98,-41,0,0,0,0,0,0,0,0,0,-1,1126,1065,0,0
-91,-41,0,0,0,0,0,0,0,0,0,-1,1133,1065,0,0
-84,-41,0,0,0,0,0,0,0,0,0,-1,1140,1065,0,0
-77,-41,0,0,0,0,0,0,0,0,0,-1,1147,1065,0,0
-70,-41,0,0,0,0,0,0,0,0,0,-1,1154,1065,0,0
-63,-41,0,0,0,0,0,0,0,0,0,-1,1161,1065,0,0
-56,-41,0,0,0,0,0,0,0,0,0,-1,1168,1065,0,0
-49,-41,0,0,0,0,0,0,0,0,0,-1,1175,1065,0,0
-42,-41,0,0,0,0,0,0,0,0,0,-1,1182,1065,0,0
-35,-41,0,0,0,0,0,0,0,0,0,-1,1189,1065,0,0
-28,-41,0,0,0,0,0,0,0,0,0,-1,1196,1065,0,0
-21,-41,0,0,0,0,0,0,0,0,0,-1,1203,1065,0,0
-14,-41,0,0,0,0,0,0,0,0,0,-1,1210,1065,0,0
-7,-41,0,0,0,0,0,0,0,0,0,-1,1217,1065,0,0
0,-41,0,0,0,0,0,0,0,0,0,-1,1224,1065,0,0
7,-41,0,0,0,0,0,0,0,0,0,-1,1231,1065,0,0
14,-41,0,0,0,0,0,0,0,0,0,-1,1238,1065,0,0
21,-41,0,0,0,0,0,0,0,0,0,-1,1245,1065,0,0
28,-41,0,0,0,0,0,0,0,0,0,-1,1252,1065,0,0
35,-41,0,0,0,0,0,0,0,0,0,-1,1259,1065,0,0
42,-41,0,0,0,0,0,0,0,0,0,-1,1266,1065,0,0
49,-41,0,0,0,0,0,0,0,0,0,-1,1273,1065,0,0
56,-41,0,0,0,0,0,0,0,0,0,-1,1280,1065,0,0
63,-41,0,0,0,0,0,0,0,0,0,-1,1287,1065,0,0
70,-41,0,0,0,0,0,0,0,0,0,-1,1294,1065,0,0
77,-41,0,0,0,0,0,0,0,0,0,-1,1301,1065,0,0
84,-41,0,0,0,0,0,0,0,0,0,-1,1308,1065,0,0
91,-41,0,0,0,0,0,0,0,0,0,-1,1315,1065,0,0
98,-41,0,0,0,0,0,0,0,0,0,-1,1322,1065,0,0
105,-41,0,0,0,0,0,0,0,0,0,-1,1329,1065,0,0
112,-41,0,0,0,0,0,0,0,0,0,-1,1336,1065,0,0
119,-41,0,0,0,0,0,0,0,0,0,-1,1343,1065,0,0
126,-41,0,0,0,0,0,0,0,0,0,-1,1350,1065,0,0
133,-41,0,0,0,0,0,0,0,0,0,-1,1357,1065,0,0
140,-41,0,0,0,0,0,0,0,0,0,-1,1364,1065,0,0
147,-41,0,0,0,0,0,0,0,0,0,-1,1371,1065,0,0
154,-41,0,0,0,0,0,0,0,0,0,-1,1378,1065,0,0
161,-41,0,0,0,0,0,0,0,0,0,-1,1385,1065,0,0
168,-41,0,0,0,0,0,0,0,0,0,-1,1392,1065,0,0
175,-41,0,0,0,0,0,0,0,0,0,-1,1399,1065,0,0
182,-41,0,0,0,0,0,0,0,0,0,-1,1406,1065,0,0
189,-41,0,0,0,0,0,0,0,0,0,-1,1413,1065,0,0
196,-41,0,0,0,0,0,0,0,0,0,-1,1420,1065,0,0
203,-41,0,0,0,0,0,0,0,0,0,-1,1427,1065,0,0
210,-41,0,0,0,0,0,0,0,0,0,-1,1434,1065,0,0
217,-41,0,0,0,0,0,0,0,0,0,-1,1441,1065,0,0
224,-41,0,0,0,0,0,0,0,0,0,-1,1448,1065,0,0
231,-41,0,0,0,0,0,0,0,0,0,-1,1455,1065,0,0
238,-41,0,0,0,0,0,0,0,0,0,-1,1462,1065,0,0
245,-41,0,0,0,0,0,0,0,0,0,-1,1469,1065,0,0
252,-41,0,0,0,0,0,0,0,0,0,-1,1476,1065,0,0
259,-41,0,0,0,0,0,0,0,0,0,-1,1483,1065,0,0
266,-41,0,0,0,0,0,0,0,0,0,-1,1490,1065,0,0
273,-41,0,0,0,0,0,0,0,0,0,-1,1497,1065,0,0
280,-41,0,0,0,0,0,0,0,0,0,-1,1504,1065,0,0
287,-41,0,0,0,0,0,0,0,0,0,-1,1511,1065,0,0
294,-41,0,0,0,0,0,0,0,0,0,-1,1518,1065,0,0
301,-41,0,0,0,0,0,0,0,0,0,-1,1525,1065,0,0
308,-41,0,0,0,0,0,0,0,0,0,-1,1532,1065,0,0
315,-41,0,0,0,0,0,0,0,0,0,-1,1539,1065,0,0
322,-41,0,0,0,0,0,0,0,0,0,-1,1546,1065,0,0
329,-41,0,0,0,0,0,0,0,0,0,-1,1553,1065,0,0
336,-41,0,0,0,0,0,0,0,0,0,-1,1560,1065,0,0
343,-41,0,0,0,0,0,0,0,0,0,-1,1567,1065,0,0
350,-41,0,0,0,0,0,0,0,0,0,-1,1574,1065,0,0
357,-41,0,0,0,0,0,0,0,0,0,-1,1581,1065,0,0
364,-41,0,0,0,0,0,0,0,0,0,-1,1588,1065,0,0
371,-41,0,0,0,0,0,0,0,0,0,-1,1595,1065,0,0
378,-41,0,0,0,0,0,0,0,0,0,-1,1602,1065,0,0
385,-41,0,0,0,0,0,0,0,0,0,-1,1609,1065,0,0
392,-41,0,0,0,0,0,0,0,0,0,-1,1616,1065,0,0
399,-41,0,0,0,0,0,0,0,0,0,-1,1623,1065,0,0
406,-41,0,0,0,0,0,0,0,0,0,-1,1630,1065,0,0
413,-41,0,0,0,0,0,0,0,0,0,-1,1637,1065,0,0
420,-41,0,0,0,0,0,0,0,0,0,-1,1644,1065,0,0
427,-41,0,0,0,0,0,0,0,0,0,-1,1651,1065,0,0
434,-41,0,0,0,0,0,0,0,0,0,-1,1658,1065,0,0
441,-41,0,0,0,0,0,0,0,0,0,-1,1665,1065,0,0
448,-41,0,0,0,0,0,0,0,0,0,-1,1672,1065,0,0
455,-41,0,0,0,0,0,0,0,0,0,-1,1679,1065,0,0
462,-41,0,0,0,0,0,0,0,0,0,-1,1686,1065,0,0
469,-41,0,0,0,0,0,0,0,0,0,-1,1693,1065,0,0
476,-41,0,0,0,0,0,0,0,0,0,-1,1700,1065,0,0
483,-41,0,0,0,0,0,0,0,0,0,-1,1707,1065,0,0
490,-41,0,0,0,0,0,0,0,0,0,-1,1714,1065,0,0
497,-41,0,0,0,0,0,0,0,0,0,-1,1721,1065,0,0
504,-41,0,0,0,0,0,0,0,0,0,-1,1728,1065,0,0
511,-41,0,0,0,0,0,0,0,0,0,-1,1735,1065,0,0
518,-41,0,0,0,0,0,0,0,0,0,-1,1742,1065,0,0
525,-41,0,0,0,0,0,0,0,0,0,-1,1749,1065,0,0
532,-41,0,0,0,0,0,0,0,0,0,-1,1756,1065,0,0
539,-41,0,0,0,0,0,0,0,0,0,-1,1763,1065,0,0
546,-41,0,0,0,0,0,0,0,0,0,-1,1770,1065,0,0
553,-41,0,0,0,0,0,0,0,0,0,-1,1777,1065,0,0
560,-41,0,0,0,0,0,0,0,0,0,-1,1784,1065,0,0
567,-41,0,0,0,0,0,0,0,0,0,-1,1791,1065,0,0
574,-41,0,0,0,0,0,0,0,0,0,-1,1798,1065,0,0
581,-41,0,0,0,0,0,0,0,0,0,-1,1805,1065,0,0
588,-41,0,0,0,0,0,0,0,0,0,-1,1812,1065,0,0
595,-41,0,0,0,0,0,0,0,0,0,-1,1819,1065,0,0
602,-41,0,0,0,0,0,0,0,0,0,-1,1826,1065,0,0
609,-41,0,0,0,0,0,0,0,0,0,-1,1833,1065,0,0
616,-41,0,0,0,0,0,0,0,0,0,-1,1840,1065,0,0
623,-41,0,0,0,0,0,0,0,0,0,-1,1847,1065,0,0
630,-41,0,0,0,0,0,0,0,0,0,-1,1854,1065,0,0
637,-41,0,0,0,0,0,0,0,0,0,-1,1861,1065,0,0
644,-41,0,0,0,0,0,0,0,0,0,-1,1868,1065,0,0
651,-41,70.9287,2.08484,0.00139143,-0.00115458,0.00304502,0.00341883,-0.00318198,0.587408,0.0038118,0.0375279,1875,1065,70.9288,-2.08486
658,-41,70.9028,2.15027,0.00110693,-0.000862161,0.00213685,0.00247514,-0.00223037,0.569521,0.00271795,0.0391863,1882,1065,70.9028,-2.15022
665,-41,71.0134,2.02539,0.000832601,-0.000625075,0.00153705,0.00180486,-0.00159733,0.564009,0.00196547,0.0415503,1889,1065,71.0134,-2.02539
672,-41,71.0192,2.05847,0.000599044,-0.000347868,0.00117778,0.00139497,-0.00114379,0.594287,0.00146814,0.0426077,1896,1065,71.0192,-2.05844
679,-41,71.0397,2.14343,0.000345705,-6.08693e-05,0.000948348,0.00111231,-0.000827474,0.679816,0.00112395,0.0414204,1903,1065,71.0397,-2.14346
686,-41,71.1896,2.15588,-0.0001883,-6.42015e-05,0.000896102,0.000771997,-0.0010245,0.819965,0.00104062,0.0432929,1910,1065,71.1896,-2.15585
693,-41,71.2678,2.08484,-0.000728749,-0.000223514,0.0010228,0.000577405,-0.00152967,0.906468,0.00125725,0.0453567,1917,1065,71.2678,-2.08484
700,-41,70.9253,2.17944,-0.00107354,-0.000299192,0.00128892,0.000659446,-0.00203218,0.931305,0.00161998,0.0391051,1924,1065,70.9253,-2.17947
707,-41,70.9236,2.21204,-0.00170099,-0.000171362,0.0015357,0.000779431,-0.00265178,1.01643,0.002077,0.0258991,1931,1065,70.9236,-2.212
714,-41,70.9651,2.22791,-0.00257904,0.000305239,0.00180567,0.00117399,-0.00344779,1.12236,0.00277394,0.0266948,1938,1065,70.9651,-2.2279
721,-41,71.0015,2.32446,0,0,0,0,0,0,0,-1,1945,1065,71.0015,-2.32448
728,-41,70.1844,7.54944,0,0,0,0,0,0,0,-1,1952,1065,70.1845,-7.54945
735,-41,70.0298,7.25598,-0.0059865,0.00342813,0.00231803,0.00396792,-0.00652629,1.34201,0.00611855,0.0225812,1959,1065,70.0298,-7.25602
742,-41,69.9459,6.95203,-0.00683143,0.00445173,0.00205557,0.00481455,-0.00719424,1.39609,0.00697851,0.0186313,1966,1065,69.946,-6.95205
749,-41,69.9453,6.71729,-0.00779471,0.00662162,0.00177718,0.00683747,-0.00801056,1.44993,0.00858143,0.0169919,1973,1065,69.9454,-6.71729
756,-41,69.9539,6.43835,-0.00886562,0.00885272,0.00120275,0.00893399,-0.00894689,1.50333,0.0103235,0.0147102,1980,1065,69.9539,-6.4383
763,-41,69.8223,6.08667,-0.0100397,0.0120533,0.000127918,0.012054,-0.0100405,1.56501,0.0127739,0.012247,1987,1065,69.8223,-6.08671
770,-41,69.6873,5.80347,-0.0108522,0.0162651,-0.00170605,0.016372,-0.0109591,-1.50821,0.0158824,0.0138615,1994,1065,69.6873,-5.80343
777,-41,69.4763,5.51794,-0.0110796,0.021216,-0.00426768,0.0217704,-0.011634,-1.44161,0.0195798,0.017903,2001,1065,69.4762,-5.51791
784,-41,69.3779,5.08472,-0.010861,0.0261806,-0.0071824,0.0275245,-0.0122049,-1.38582,0.0234994,0.0290973,2008,1065,69.3779,-5.08476
791,-41,69.4524,4.4624,-0.0100329,0.0311779,-0.0108478,0.033859,-0.012714,-1.3285,0.0277973,0.0454306,2015,1065,69.4525,-4.46242
798,-41,69.6343,3.85962,0,0,0,0,0,0,0,-1,2022,1065,69.6343,-3.85962
805,-41,68.8171,5.85791,0,0,0,0,0,0,0,-1,2029,1065,68.817,-5.85789
812,-41,67.6016,5.1084,0,0,0,0,0,0,0,-1,2036,1065,67.6016,-5.10844
-700,-48,-52.2353,-3.26294,0,0,0,0,0,0,0,-1,524,1072,-52.2353,3.26288
-693,-48,-52.5292,-2.44287,0,0,0,0,0,0,0,-1,531,1072,-52.5292,2.44285
-686,-48,-52.9243,-1.42615,-0.0391299,0.0421079,0.0325939,0.0535683,-0.0505903,1.23269,0.0601442,0.0468141,538,1072,-52.9243,1.42615
-679,-48,-53.4017,-0.693359,-0.034889,0.0418163,0.0251919,0.04935,-0.0424227,1.28021,0.0530353,0.0448768,545,1072,-53.4017,0.693312
-672,-48,-53.5329,0.611328,0,0,0,0,0,0,0,-1,552,1072,-53.5329,-0.611273
-665,-48,-53.7006,1.07031,-0.0260923,0.0368657,0.0152015,0.0403439,-0.0295706,1.34586,0.0405246,0.046825,559,1072,-53.7006,-1.0703
-658,-48,-53.566,1.7533,-0.0217606,0.0329723,0.0115756,0.0353197,-0.0241081,1.37071,0.0345136,0.0482451,566,1072,-53.566,-1.75331
-651,-48,-53.8607,2.69067,-0.0176277,0.0284316,0.0085041,0.0299516,-0.0191476,1.39393,0.0285753,0.0395657,573,1072,-53.8607,-2.69067
-644,-48,-53.9607,3.60083,-0.0141788,0.0234697,0.00540687,0.0242308,-0.0149399,1.43095,0.0228263,0.0235166,580,1072,-53.9607,-3.60079
-637,-48,-53.9777,3.86426,-0.0103691,0.0179691,0.00299397,0.018282,-0.0106819,1.46668,0.0169131,0.0247563,587,1072,-53.9777,-3.86421
-630,-48,-54.0095,4.27161,-0.00651729,0.012465,0.000696439,0.0124905,-0.0065428,1.53417,0.0111663,0.0289939,594,1072,-54.0095,-4.27158
-623,-48,-54.175,4.68372,-0.00290258,0.00723162,-0.00098897,0.00732723,-0.00299819,-1.47442,0.00613354,0.0141498,601,1072,-54.175,-4.68371
-616,-48,-54.1581,5.0824,-0.00022014,0.00107113,-0.00265164,0.00315461,-0.00230362,-0.904817,0.00316405,0.0122284,608,1072,-54.1581,-5.08243
-609,-48,-54.091,5.48071,0.00235752,-0.00506583,-0.00446243,0.00445014,-0.00715845,-0.438494,0.00676275,0.0140546,615,1072,-54.091,-5.4807
-602,-48,-54.1119,5.83936,0.00485017,-0.0100493,-0.00587074,0.00688538,-0.0120845,-0.333705,0.0110885,0.0147845,622,1072,-54.1119,-5.83938
-595,-48,-54.1525,6.13904,0.00735579,-0.0147721,-0.00632077,0.00903402,-0.0164504,-0.259522,0.0149197,0.0361735,629,1072,-54.1525,-6.13901
-588,-48,-54.3814,6.39539,0,0,0,0,0,0,0,-1,636,1072,-54.3814,-6.39533
-581,-48,-54.4332,0.397095,0,0,0,0,0,0,0,-1,643,1072,-54.4332,-0.397151
-574,-48,-54.5583,0.515625,0,0,0,0,0,0,0,-1,650,1072,-54.5584,-0.515619
-567,-48,-54.3682,0.554443,0,0,0,0,0,0,0,-1,657,1072,-54.3682,-0.554427
-560,-48,-54.3915,0.705566,0,0,0,0,0,0,0,-1,664,1072,-54.3915,-0.70557
-553,-48,-54.5681,0.50415,0,0,0,0,0,0,0,-1,671,1072,-54.5681,-0.50421
-546,-48,-54.5873,0.527466,0,0,0,0,0,0,0,-1,678,1072,-54.5873,-0.527474
-539,-48,-54.602,0.611938,0,0,0,0,0,0,0,-1,685,1072,-54.602,-0.611975
-532,-48,-54.6794,0.662354,0,0,0,0,0,0,0,-1,692,1072,-54.6794,-0.662383
-525,-48,0,0,0,0,0,0,0,0,0,-1,699,1072,0,0
-518,-48,0,0,0,0,0,0,0,0,0,-1,706,1072,0,0
-511,-48,0,0,0,0,0,0,0,0,0,-1,713,1072,0,0
-504,-48,0,0,0,0,0,0,0,0,0,-1,720,1072,0,0
-497,-48,0,0,0,0,0,0,0,0,0,-1,727,1072,0,0
-490,-48,0,0,0,0,0,0,0,0,0,-1,734,1072,0,0
-483,-48,0,0,0,0,0,0,0,0,0,-1,741,1072,0,0
-476,-48,0,0,0,0,0,0,0,0,0,-1,748,1072,0,0
-469,-48,0,0,0,0,0,0,0,0,0,-1,755,1072,0,0
-462,-48,0,0,0,0,0,0,0,0,0,-1,762,1072,0,0
-455,-48,0,0,0,0,0,0,0,0,0,-1,769,1072,0,0
-448,-48,0,0,0,0,0,0,0,0,0,-1,776,1072,0,0
-441,-48,0,0,0,0,0,0,0,0,0,-1,783,1072,0,0
-434,-48,0,0,0,0,0,0,0,0,0,-1,790,1072,0,0
-427,-48,0,0,0,0,0,0,0,0,0,-1,797,1072,0,0
-420,-48,0,0,0,0,0,0,0,0,0,-1,804,1072,0,0
-413,-48,0,0,0,0,0,0,0,0,0,-1,811,1072,0,0
-406,-48,0,0,0,0,0,0,0,0,0,-1,818,1072,0,0
-399,-48,0,0,0,0,0,0,0,0,0,-1,825,1072,0,0
-392,-48,0,0,0,0,0,0,0,0,0,-1,832,1072,0,0
-385,-48,0,0,0,0,0,0,0,0,0,-1,839,1072,0,0
-378,-48,0,0,0,0,0,0,0,0,0,-1,846,1072,0,0
-371,-48,0,0,0,0,0,0,0,0,0,-1,853,1072,0,0
-364,-48,0,0,0,0,0,0,0,0,0,-1,860,1072,0,0
-357,-48,0,0,0,0,0,0,0,0,0,-1,867,1072,0,0
-350,-48,0,0,0,0,0,0,0,0,0,-1,874,1072,0,0
-343,-48,0,0,0,0,0,0,0,0,0,-1,881,1072,0,0
-336,-48,0,0,0,0,0,0,0,0,0,-1,888,1072,0,0
-329,-48,0,0,0,0,0,0,0,0,0,-1,895,1072,0,0
-322,-48,0,0,0,0,0,0,0,0,0,-1,902,1072,0,0
-315,-48,0,0,0,0,0,0,0,0,0,-1,909,1072,0,0
-308,-48,0,0,0,0,0,0,0,0,0,-1,916,1072,0,0
-301,-48,0,0,0,0,0,0,0,0,0,-1,923,1072,0,0
-294,-48,0,0,0,0,0,0,0,0,0,-1,930,1072,0,0
-287,-48,0,0,0,0,0,0,0,0,0,-1,937,1072,0,0
-280,-48,0,0,0,0,0,0,0,0,0,-1,944,1072,0,0
-273,-48,0,0,0,0,0,0,0,0,0,-1,951,1072,0,0
-266,-48,0,0,0,0,0,0,0,0,0,-1,958,1072,0,0
-259,-48,0,0,0,0,0,0,0,0,0,-1,965,1072,0,0
-252,-48,0,0,0,0,0,0,0,0,0,-1,972,1072,0,0
-245,-48,0,0,0,0,0,0,0,0,0,-1,979,1072,0,0
-238,-48,0,0,0,0,0,0,0,0,0,-1,986,1072,0,0
-231,-48,0,0,0,0,0,0,0,0,0,-1,993,1072,0,0
-224,-48,0,0,0,0,0,0,0,0,0,-1,1000,1072,0,0
-217,-48,0,0,0,0,0,0,0,0,0,-1,1007,1072,0,0
-210,-48,0,0,0,0,0,0,0,0,0,-1,1014,1072,0,0
-203,-48,0,0,0,0,0,0,0,0,0,-1,1021,1072,0,0
-196,-48,0,0,0,0,0,0,0,0,0,-1,1028,1072,0,0
-189,-48,0,0,0,0,0,0,0,0,0,-1,1035,1072,0,0
-182,-48,0,0,0,0,0,0,0,0,0,-1,1042,1072,0,0
-175,-48,0,0,0,0,0,0,0,0,0,-1,1049,1072,0,0
-168,-48,0,0,0,0,0,0,0,0,0,-1,1056,1072,0,0
-161,-48,0,0,0,0,0,0,0,0,0,-1,1063,1072,0,0
-154,-48,0,0,0,0,0,0,0,0,0,-1,1070,1072,0,0
-147,-48,0,0,0,0,0,0,0,0,0,-1,1077,1072,0,0
-140,-48,0,0,0,0,0,0,0,0,0,-1,1084,1072,0,0
-133,-48,0,0,0,0,0,0,0,0,0,-1,1091,1072,0,0
-126,-48,0,0,0,0,0,0,0,0,0,-1,1098,1072,0,0
-119,-48,0,0,0,0,0,0,0,0,0,-1,1105,1072,0,0
-112,-48,0,0,0,0,0,0,0,0,0,-1,1112,1072,0,0
-105,-48,0,0,0,0,0,0,0,0,0,-1,1119,1072,0,0
-98,-48,0,0,0,0,0,0,0,0,0,-1,1126,1072,0,0
-91,-48,0,0,0,0,0,0,0,0,0,-1,1133,1072,0,0
-84,-48,0,0,0,0,0,0,0,0,0,-1,1140,1072,0,0
-77,-48,0,0,0,0,0,0,0,0,0,-1,1147,1072,0,0
-70,-48,0,0,0,0,0,0,0,0,0,-1,1154,1072,0,0
-63,-48,0,0,0,0,0,0,0,0,0,-1,1161,1072,0,0
-56,-48,0,0,0,0,0,0,0,0,0,-1,1168,1072,0,0
-49,-48,0,0,0,0,0,0,0,0,0,-1,1175,1072,0,0
-42,-48,0,0,0,0,0,0,0,0,0,-1,1182,1072,0,0
-35,-48,0,0,0,0,0,0,0,0,0,-1,1189,1072,0,0
-28,-48,0,0,0,0,0,0,0,0,0,-1,1196,1072,0,0
-21,-48,0,0,0,0,0,0,0,0,0,-1,1203,1072,0,0
-14,-48,0,0,0,0,0,0,0,0,0,-1,1210,1072,0,0
-7,-48,0,0,0,0,0,0,0,0,0,-1,1217,1072,0,0
0,-48,0,0,0,0,0,0,0,0,0,-1,1224,1072,0,0
7,-48,0,0,0,0,0,0,0,0,0,-1,1231,1072,0,0
14,-48,0,0,0,0,0,0,0,0,0,-1,1238,1072,0,0
21,-48,0,0,0,0,0,0,0,0,0,-1,1245,1072,0,0
28,-48,0,0,0,0,0,0,0,0,0,-1,1252,1072,0,0
35,-48,0,0,0,0,0,0,0,0,0,-1,1259,1072,0,0
42,-48,0,0,0,0,0,0,0,0,0,-1,1266,1072,0,0
49,-48,0,0,0,0,0,0,0,0,0,-1,1273,1072,0,0
56,-48,0,0,0,0,0,0,0,0,0,-1,1280,1072,0,0
63,-48,0,0,0,0,0,0,0,0,0,-1,1287,1072,0,0
70,-48,0,0,0,0,0,0,0,0,0,-1,1294,1072,0,0
77,-48,0,0,0,0,0,0,0,0,0,-1,1301,1072,0,0
84,-48,0,0,0,0,0,0,0,0,0,-1,1308,1072,0,0
91,-48,0,0,0,0,0,0,0,0,0,-1,1315,1072,0,0
98,-48,0,0,0,0,0,0,0,0,0,-1,1322,1072,0,0
105,-48,0,0,0,0,0,0,0,0,0,-1,1329,1072,0,0
112,-48,0,0,0,0,0,0,0,0,0,-1,1336,1072,0,0
119,-48,0,0,0,0,0,0,0,0,0,-1,1343,1072,0,0
126,-48,0,0,0,0,0,0,0,0,0,-1,1350,1072,0,0
133,-48,0,0,0,0,0,0,0,0,0,-1,1357,1072,0,0
140,-48,0,0,0,0,0,0,0,0,0,-1,1364,1072,0,0
147,-48,0,0,0,0,0,0,0,0,0,-1,1371,1072,0,0
154,-48,0,0,0,0,0,0,0,0,0,-1,1378,1072,0,0
161,-48,0,0,0,0,0,0,0,0,0,-1,1385,1072,0,0
168,-48,0,0,0,0,0,0,0,0,0,-1,1392,1072,0,0
175,-48,0,0,0,0,0,0,0,0,0,-1,1399,1072,0,0
182,-48,0,0,0,0,0,0,0,0,0,-1,1406,1072,0,0
189,-48,0,0,0,0,0,0,0,0,0,-1,1413,1072,0,0
196,-48,0,0,0,0,0,0,0,0,0,-1,1420,1072,0,0
203,-48,0,0,0,0,0,0,0,0,0,-1,1427,1072,0,0
210,-48,0,0,0,0,0,0,0,0,0,-1,1434,1072,0,0
217,-48,0,0,0,0,0,0,0,0,0,-1,1441,1072,0,0
224,-48,0,0,0,0,0,0,0,0,0,-1,1448,1072,0,0
231,-48,0,0,0,0,0,0,0,0,0,-1,1455,1072,0,0
238,-48,0,0,0,0,0,0,0,0,0,-1,1462,1072,0,0
245,-48,0,0,0,0,0,0,0,0,0,-1,1469,1072,0,0
252,-48,0,0,0,0,0,0,0,0,0,-1,1476,1072,0,0
259,-48,0,0,0,0,0,0,0,0,0,-1,1483,1072,0,0
266,-48,0,0,0,0,0,0,0,0,0,-1,1490,1072,0,0
273,-48,0,0,0,0,0,0,0,0,0,-1,1497,1072,0,0
280,-48,0,0,0,0,0,0,0,0,0,-1,1504,1072,0,0
287,-48,0,0,0,0,0,0,0,0,0,-1,1511,1072,0,0
294,-48,0,0,0,0,0,0,0,0,0,-1,1518,1072,0,0
301,-48,0,0,0,0,0,0,0,0,0,-1,1525,1072,0,0
308,-48,0,0,0,0,0,0,0,0,0,-1,1532,1072,0,0
315,-48,0,0,0,0,0,0,0,0,0,-1,1539,1072,0,0
322,-48,0,0,0,0,0,0,0,0,0,-1,1546,1072,0,0
329,-48,0,0,0,0,0,0,0,0,0,-1,1553,1072,0,0
336,-48,0,0,0,0,0,0,0,0,0,-1,1560,1072,0,0
343,-48,0,0,0,0,0,0,0,0,0,-1,1567,1072,0,0
350,-48,0,0,0,0,0,0,0,0,0,-1,1574,1072,0,0
357,-48,0,0,0,0,0,0,0,0,0,-1,1581,1072,0,0
364,-48,0,0,0,0,0,0,0,0,0,-1,1588,1072,0,0
371,-48,0,0,0,0,0,0,0,0,0,-1,1595,1072,0,0
378,-48,0,0,0,0,0,0,0,0,0,-1,1602,1072,0,0
385,-48,0,0,0,0,0,0,0,0,0,-1,1609,1072,0,0
392,-48,0,0,0,0,0,0,0,0,0,-1,1616,1072,0,0
399,-48,0,0,0,0,0,0,0,0,0,-1,1623,1072,0,0
406,-48,0,0,0,0,0,0,0,0,0,-1,1630,1072,0,0
413,-48,0,0,0,0,0,0,0,0,0,-1,1637,1072,0,0
420,-48,0,0,0,0,0,0,0,0,0,-1,1644,1072,0,0
427,-48,0,0,0,0,0,0,0,0,0,-1,1651,1072,0,0
434,-48,0,0,0,0,0,0,0,0,0,-1,1658,1072,0,0
441,-48,0,0,0,0,0,0,0,0,0,-1,1665,1072,0,0
448,-48,0,0,0,0,0,0,0,0,0,-1,1672,1072,0,0
455,-48,0,0,0,0,0,0,0,0,0,-1,1679,1072,0,0
462,-48,0,0,0,0,0,0,0,0,0,-1,1686,1072,0,0
469,-48,0,0,0,0,0,0,0,0,0,-1,1693,1072,0,0
476,-48,0,0,0,0,0,0,0,0,0,-1,1700,1072,0,0
483,-48,0,0,0,0,0,0,0,0,0,-1,1707,1072,0,0
490,-48,0,0,0,0,0,0,0,0,0,-1,1714,1072,0,0
497,-48,0,0,0,0,0,0,0,0,0,-1,1721,1072,0,0
504,-48,0,0,0,0,0,0,0,0,0,-1,1728,1072,0,0
511,-48,0,0,0,0,0,0,0,0,0,-1,1735,1072,0,0
518,-48,0,0,0,0,0,0,0,0,0,-1,1742,1072,0,0
525,-48,0,0,0,0,0,0,0,0,0,-1,1749,1072,0,0
532,-48,0,0,0,0,0,0,0,0,0,-1,1756,1072,0,0
539,-48,0,0,0,0,0,0,0,0,0,-1,1763,1072,0,0
546,-48,0,0,0,0,0,0,0,0,0,-1,1770,1072,0,0
553,-48,0,0,0,0,0,0,0,0,0,-1,1777,1072,0,0
560,-48,0,0,0,0,0,0,0,0,0,-1,1784,1072,0,0
567,-48,0,0,0,0,0,0,0,0,0,-1,1791,1072,0,0
574,-48,0,0,0,0,0,0,0,0,0,-1,1798,1072,0,0
581,-48,0,0,0,0,0,0,0,0,0,-1,1805,1072,0,0
588,-48,0,0,0,0,0,0,0,0,0,-1,1812,1072,0,0
595,-48,0,0,0,0,0,0,0,0,0,-1,1819,1072,0,0
602,-48,0,0,0,0,0,0,0,0,0,-1,1826,1072,0,0
609,-48,0,0,0,0,0,0,0,0,0,-1,1833,1072,0,0
616,-48,0,0,0,0,0,0,0,0,0,-1,1840,1072,0,0
623,-48,0,0,0,0,0,0,0,0,0,-1,1847,1072,0,0
630,-48,0,0,0,0,0,0,0,0,0,-1,1854,1072,0,0
637,-48,0,0,0,0,0,0,0,0,0,-1,1861,1072,0,0
644,-48,0,0,0,0,0,0,0,0,0,-1,1868,1072,0,0
651,-48,70.895,2.06897,0.0011263,-0.000746722,0.00359497,0.00390474,-0.00352516,0.657977,0.00429152,0.0354491,1875,1072,70.895,-2.06897
658,-48,70.9216,2.23108,0.00109382,-0.000617581,0.00252993,0.00290884,-0.0024326,0.622322,0.00308797,0.0371956,1882,1072,70.9216,-2.23112
665,-48,70.807,2.23352,0.000972407,-0.000499282,0.00180723,0.00218786,-0.00171473,0.592063,0.00225867,0.0421649,1889,1072,70.8071,-2.2335
672,-48,70.7864,2.2135,0.000819158,-0.000292913,0.00133633,0.00171052,-0.00118427,0.588248,0.00168049,0.0438687,1896,1072,70.7864,-2.2135
679,-48,70.887,2.16077,0.000600354,-5.00771e-05,0.00100546,0.00133189,-0.000781614,0.628984,0.00123394,0.0419727,1903,1072,70.887,-2.16081
686,-48,71.0781,2.11414,0.000110914,-5.37139e-05,0.000871083,0.000903564,-0.000846364,0.73829,0.0010105,0.0425412,1910,1072,71.0782,-2.11418
693,-48,71.0604,2.09045,-0.00039476,-0.000208457,0.000945195,0.000648165,-0.00125138,0.834516,0.00111498,0.0432763,1917,1072,71.0604,-2.09048
700,-48,70.9279,2.20056,-0.000706115,-0.000269178,0.00117448,0.000706976,-0.00168227,0.877354,0.00141722,0.0354274,1924,1072,70.9279,-2.20058
707,-48,70.9702,2.1886,-0.00126226,-0.000128453,0.00140402,0.000818789,-0.00220951,0.977276,0.0018088,0.0251608,1931,1072,70.9702,-2.18865
714,-48,70.9631,2.20117,-0.00206053,0.000280062,0.00168175,0.00115863,-0.00293911,1.08938,0.00243914,0.0423165,1938,1072,70.9632,-2.20112
721,-48,71.016,2.24536,0,0,0,0,0,0,0,-1,1945,1072,71.016,-2.24541
728,-48,69.814,7.69531,0,0,0,0,0,0,0,-1,1952,1072,69.8139,-7.69528
735,-48,69.6731,7.40234,-0.00526496,0.00305348,0.00239118,0.00369185,-0.00590333,1.30991,0.00558861,0.0242116,1959,1072,69.6731,-7.40236
742,-48,69.5135,7.06152,-0.00608307,0.00401708,0.00214515,0.0044538,-0.00651979,1.36996,0.00637292,0.0187602,1966,1072,69.5136,-7.06155
749,-48,69.5239,6.7135,-0.00698985,0.00613153,0.00185501,0.00638874,-0.00724705,1.43302,0.00787782,0.0167389,1973,1072,69.5239,-6.7135
756,-48,69.5024,6.3877,-0.00803291,0.00817829,0.00130936,0.00828337,-0.00813798,1.49072,0.00948099,0.0141422,1980,1072,69.5024,-6.38773
763,-48,69.3979,6.04639,-0.00924962,0.0112238,0.000273099,0.0112274,-0.00925326,1.55746,0.0118428,0.0130769,1987,1072,69.3979,-6.04638
770,-48,69.3345,5.70972,-0.0101957,0.0152528,-0.00154307,0.015346,-0.0102889,-1.51046,0.014896,0.0138515,1994,1072,69.3346,-5.70977
777,-48,69.1792,5.33899,-0.0106674,0.0200049,-0.00409795,0.020543,-0.0112055,-1.44024,0.0185924,0.0138399,2001,1072,69.1792,-5.33894
784,-48,69.0496,4.95374,-0.0107241,0.0248364,-0.00705086,0.0261834,-0.0120712,-1.38203,0.0225817,0.0264685,2008,1072,69.0497,-4.95377
791,-48,69.4941,4.30579,-0.0102026,0.0297766,-0.010737,0.0324777,-0.0129037,-1.32434,0.0270011,0.040896,2015,1072,69.4943,-4.30577
798,-48,69.7778,3.64404,0,0,0,0,0,0,0,-1,2022,1072,69.7777,-3.64409
805,-48,68.6667,5.22131,0,0,0,0,0,0,0,-1,2029,1072,68.6666,-5.22129
812,-48,68.6765,5.03137,0,0,0,0,0,0,0,-1,2036,1072,68.6764,-5.03142
-700,-55,-54.5855,-2.09985,0,0,0,0,0,0,0,-1,524,1079,-54.5855,2.09982
-693,-55,-51.8071,-3.1554,0,0,0,0,0,0,0,-1,531,1079,-51.8071,3.15534
-686,-55,-52.2771,-2.13171,-0.0453883,0.0255404,0.0345538,0.0395905,-0.0594385,1.1846,0.0575559,0.0484122,538,1079,-52.2771,2.13169
-679,-55,-52.5587,-1.26477,-0.0406961,0.0278668,0.0269112,0.0371678,-0.0499971,1.23803,0.0505061,0.0480165,545,1079,-52.5587,1.26474
-672,-55,-52.7784,-0.224609,-0.0355917,0.0282996,0.0210373,0.0346044,-0.0418965,1.27962,0.0442346,0.0469622,552,1079,-52.7783,0.224646
-665,-55,-52.9375,0.738892,-0.0304096,0.0273875,0.0163568,0.0316954,-0.0347175,1.31327,0.0383568,0.0463237,559,1079,-52.9375,-0.738931
-658,-55,-53.3075,1.26501,-0.0252633,0.0254138,0.0124778,0.0283195,-0.028169,1.342,0.0326137,0.0489297,566,1079,-53.3075,-1.26503
-651,-55,-53.6399,2.2948,-0.0203178,0.0225816,0.00918436,0.0244652,-0.0222014,1.36852,0.0269535,0.0462307,573,1079,-53.6399,-2.29481
-644,-55,-53.5486,3.46729,-0.0160972,0.0190393,0.00598462,0.0200307,-0.0170885,1.40664,0.0214532,0.0296161,580,1079,-53.5486,-3.46732
-637,-55,-53.5737,3.77319,-0.0115858,0.0149214,0.00346295,0.0153663,-0.0120308,1.44301,0.0158568,0.0234191,587,1079,-53.5737,-3.77323
-630,-55,-53.6315,4.22217,-0.00720314,0.0105918,0.000985431,0.0106462,-0.00725755,1.51564,0.0103983,0.025616,594,1079,-53.6315,-4.22211
-623,-55,-53.8327,4.71179,-0.00306319,0.00630518,-0.000777957,0.00636935,-0.00312735,-1.48851,0.0055884,0.0203154,601,1079,-53.8327,-4.71173
-616,-55,-53.8392,5.0907,9.65645e-05,0.00086244,-0.00236614,0.00287643,-0.00191743,-0.865623,0.00278613,0.0192287,608,1079,-53.8392,-5.09071
-609,-55,-53.7505,5.55823,0.00293511,-0.00482272,-0.00403109,0.00465045,-0.00653806,-0.402317,0.00649026,0.0202426,615,1079,-53.7505,-5.55828
-602,-55,-53.676,5.95703,0.0056879,-0.00958123,-0.00525211,0.00732001,-0.0112133,-0.301293,0.0107786,0.0163849,622,1079,-53.6761,-5.95706
-595,-55,-53.552,6.32983,0.00857662,-0.0140716,-0.00556937,0.00987207,-0.0153671,-0.228539,0.0146865,0.0349983,629,1079,-53.552,-6.32983
-588,-55,-53.6111,6.74219,0,0,0,0,0,0,0,-1,636,1079,-53.6111,-6.74222
-581,-55,-54.408,0.363403,0,0,0,0,0,0,0,-1,643,1079,-54.408,-0.363459
-574,-55,-54.4149,0.392578,0,0,0,0,0,0,0,-1,650,1079,-54.4149,-0.392614
-567,-55,-54.3424,0.429688,0,0,0,0,0,0,0,-1,657,1079,-54.3424,-0.429734
-560,-55,-54.3624,0.484741,0,0,0,0,0,0,0,-1,664,1079,-54.3624,-0.484708
-553,-55,-54.4163,0.452026,0,0,0,0,0,0,0,-1,671,1079,-54.4163,-0.452028
-546,-55,-54.4675,0.505493,0,0,0,0,0,0,0,-1,678,1079,-54.4675,-0.505494
-539,-55,-54.4965,0.488281,0,0,0,0,0,0,0,-1,685,1079,-54.4965,-0.488251
-532,-55,-54.6282,0.480957,0,0,0,0,0,0,0,-1,692,1079,-54.6282,-0.48092
-525,-55,0,0,0,0,0,0,0,0,0,-1,699,1079,0,0
-518,-55,0,0,0,0,0,0,0,0,0,-1,706,1079,0,0
-511,-55,0,0,0,0,0,0,0,0,0,-1,713,1079,0,0
-504,-55,0,0,0,0,0,0,0,0,0,-1,720,1079,0,0
-497,-55,0,0,0,0,0,0,0,0,0,-1,727,1079,0,0
-490,-55,0,0,0,0,0,0,0,0,0,-1,734,1079,0,0
-483,-55,0,0,0,0,0,0,0,0,0,-1,741,1079,0,0
-476,-55,0,0,0,0,0,0,0,0,0,-1,748,1079,0,0
-469,-55,0,0,0,0,0,0,0,0,0,-1,755,1079,0,0
-462,-55,0,0,0,0,0,0,0,0,0,-1,762,1079,0,0
-455,-55,0,0,0,0,0,0,0,0,0,-1,769,1079,0,0
-448,-55,0,0,0,0,0,0,0,0,0,-1,776,1079,0,0
-441,-55,0,0,0,0,0,0,0,0,0,-1,783,1079,0,0
-434,-55,0,0,0,0,0,0,0,0,0,-1,790,1079,0,0
-427,-55,0,0,0,0,0,0,0,0,0,-1,797,1079,0,0
-420,-55,0,0,0,0,0,0,0,0,0,-1,804,1079,0,0
-413,-55,0,0,0,0,0,0,0,0,0,-1,811,1079,0,0
-406,-55,0,0,0,0,0,0,0,0,0,-1,818,1079,0,0
-399,-55,0,0,0,0,0,0,0,0,0,-1,825,1079,0,0
-392,-55,0,0,0,0,0,0,0,0,0,-1,832,1079,0,0
-385,-55,0,0,0,0,0,0,0,0,0,-1,839,1079,0,0
-378,-55,0,0,0,0,0,0,0,0,0,-1,846,1079,0,0
-371,-55,0,0,0,0,0,0,0,0,0,-1,853,1079,0,0
-364,-55,0,0,0,0,0,0,0,0,0,-1,860,1079,0,0
-357,-55,0,0,0,0,0,0,0,0,0,-1,867,1079,0,0
-350,-55,0,0,0,0,0,0,0,0,0,-1,874,1079,0,0
-343,-55,0,0,0,0,0,0,0,0,0,-1,881,1079,0,0
-336,-55,0,0,0,0,0,0,0,0,0,-1,888,1079,0,0
-329,-55,0,0,0,0,0,0,0,0,0,-1,895,1079,0,0
-322,-55,0,0,0,0,0,0,0,0,0,-1,902,1079,0,0
-315,-55,0,0,0,0,0,0,0,0,0,-1,909,1079,0,0
-308,-55,0,0,0,0,0,0,0,0,0,-1,916,1079,0,0
-301,-55,0,0,0,0,0,0,0,0,0,-1,923,1079,0,0
-294,-55,0,0,0,0,0,0,0,0,0,-1,930,1079,0,0
-287,-55,0,0,0,0,0,0,0,0,0,-1,937,1079,0,0
-280,-55,0,0,0,0,0,0,0,0,0,-1,944,1079,0,0
-273,-55,0,0,0,0,0,0,0,0,0,-1,951,1079,0,0
-266,-55,0,0,0,0,0,0,0,0,0,-1,958,1079,0,0
-259,-55,0,0,0,0,0,0,0,0,0,-1,965,1079,0,0
-252,-55,0,0,0,0,0,0,0,0,0,-1,972,1079,0,0
-245,-55,0,0,0,0,0,0,0,0,0,-1,979,1079,0,0
-238,-55,0,0,0,0,0,0,0,0,0,-1,986,1079,0,0
-231,-55,0,0,0,0,0,0,0,0,0,-1,993,1079,0,0
-224,-55,0,0,0,0,0,0,0,0,0,-1,1000,1079,0,0
-217,-55,0,0,0,0,0,0,0,0,0,-1,1007,1079,0,0
-210,-55,0,0,0,0,0,0,0,0,0,-1,1014,1079,0,0
-203,-55,0,0,0,0,0,0,0,0,0,-1,1021,1079,0,0
-196,-55,0,0,0,0,0,0,0,0,0,-1,1028,1079,0,0
-189,-55,0,0,0,0,0,0,0,0,0,-1,1035,1079,0,0
-182,-55,0,0,0,0,0,0,0,0,0,-1,1042,1079,0,0
-175,-55,0,0,0,0,0,0,0,0,0,-1,1049,1079,0,0
-168,-55,0,0,0,0,0,0,0,0,0,-1,1056,1079,0,0
-161,-55,0,0,0,0,0,0,0,0,0,-1,1063,1079,0,0
-154,-55,0,0,0,0,0,0,0,0,0,-1,1070,1079,0,0
-147,-55,0,0,0,0,0,0,0,0,0,-1,1077,1079,0,0
-140,-55,0,0,0,0,0,0,0,0,0,-1,1084,1079,0,0
-133,-55,0,0,0,0,0,0,0,0,0,-1,1091,1079,0,0
-126,-55,0,0,0,0,0,0,0,0,0,-1,1098,1079,0,0
-119,-55,0,0,0,0,0,0,0,0,0,-1,1105,1079,0,0
-112,-55,0,0,0,0,0,0,0,0,0,-1,1112,1079,0,0
-105,-55,0,0,0,0,0,0,0,0,0,-1,1119,1079,0,0
-98,-55,0,0,0,0,0,0,0,0,0,-1,1126,1079,0,0
-91,-55,0,0,0,0,0,0,0,0,0,-1,1133,1079,0,0
-84,-55,0,0,0,0,0,0,0,0,0,-1,1140,1079,0,0
-77,-55,0,0,0,0,0,0,0,0,0,-1,1147,1079,0,0
-70,-55,0,0,0,0,0,0,0,0,0,-1,1154,1079,0,0
-63,-55,0,0,0,0,0,0,0,0,0,-1,1161,1079,0,0
-56,-55,0,0,0,0,0,0,0,0,0,-1,1168,1079,0,0
-49,-55,0,0,0,0,0,0,0,0,0,-1,1175,1079,0,0
-42,-55,0,0,0,0,0,0,0,0,0,-1,1182,1079,0,0
-35,-55,0,0,0,0,0,0,0,0,0,-1,1189,1079,0,0
-28,-55,0,0,0,0,0,0,0,0,0,-1,1196,1079,0,0
-21,-55,0,0,0,0,0,0,0,0,0,-1,1203,1079,0,0
-14,-55,0,0,0,0,0,0,0,0,0,-1,1210,1079,0,0
-7,-55,0,0,0,0,0,0,0,0,0,-1,1217,1079,0,0
0,-55,0,0,0,0,0,0,0,0,0,-1,1224,1079,0,0
7,-55,0,0,0,0,0,0,0,0,0,-1,1231,1079,0,0
14,-55,0,0,0,0,0,0,0,0,0,-1,1238,1079,0,0
21,-55,0,0,0,0,0,0,0,0,0,-1,1245,1079,0,0
28,-55,0,0,0,0,0,0,0,0,0,-1,1252,1079,0,0
35,-55,0,0,0,0,0,0,0,0,0,-1,1259,1079,0,0
42,-55,0,0,0,0,0,0,0,0,0,-1,1266,1079,0,0
49,-55,0,0,0,0,0,0,0,0,0,-1,1273,1079,0,0
56,-55,0,0,0,0,0,0,0,0,0,-1,1280,1079,0,0
63,-55,0,0,0,0,0,0,0,0,0,-1,1287,1079,0,0
70,-55,0,0,0,0,0,0,0,0,0,-1,1294,1079,0,0
77,-55,0,0,0,0,0,0,0,0,0,-1,1301,1079,0,0
84,-55,0,0,0,0,0,0,0,0,0,-1,1308,1079,0,0
91,-55,0,0,0,0,0,0,0,0,0,-1,1315,1079,0,0
98,-55,0,0,0,0,0,0,0,0,0,-1,1322,1079,0,0
105,-55,0,0,0,0,0,0,0,0,0,-1,1329,1079,0,0
112,-55,0,0,0,0,0,0,0,0,0,-1,1336,1079,0,0
119,-55,0,0,0,0,0,0,0,0,0,-1,1343,1079,0,0
126,-55,0,0,0,0,0,0,0,0,0,-1,1350,1079,0,0
133,-55,0,0,0,0,0,0,0,0,0,-1,1357,1079,0,0
140,-55,0,0,0,0,0,0,0,0,0,-1,1364,1079,0,0
147,-55,0,0,0,0,0,0,0,0,0,-1,1371,1079,0,0
154,-55,0,0,0,0,0,0,0,0,0,-1,1378,1079,0,0
161,-55,0,0,0,0,0,0,0,0,0,-1,1385,1079,0,0
168,-55,0,0,0,0,0,0,0,0,0,-1,1392,1079,0,0
175,-55,0,0,0,0,0,0,0,0,0,-1,1399,1079,0,0
182,-55,0,0,0,0,0,0,0,0,0,-1,1406,1079,0,0
189,-55,0,0,0,0,0,0,0,0,0,-1,1413,1079,0,0
196,-55,0,0,0,0,0,0,0,0,0,-1,1420,1079,0,0
203,-55,0,0,0,0,0,0,0,0,0,-1,1427,1079,0,0
210,-55,0,0,0,0,0,0,0,0,0,-1,1434,1079,0,0
217,-55,0,0,0,0,0,0,0,0,0,-1,1441,1079,0,0
224,-55,0,0,0,0,0,0,0,0,0,-1,1448,1079,0,0
231,-55,0,0,0,0,0,0,0,0,0,-1,1455,1079,0,0
238,-55,0,0,0,0,0,0,0,0,0,-1,1462,1079,0,0
245,-55,0,0,0,0,0,0,0,0,0,-1,1469,1079,0,0
252,-55,0,0,0,0,0,0,0,0,0,-1,1476,1079,0,0
259,-55,0,0,0,0,0,0,0,0,0,-1,1483,1079,0,0
266,-55,0,0,0,0,0,0,0,0,0,-1,1490,1079,0,0
273,-55,0,0,0,0,0,0,0,0,0,-1,1497,1079,0,0
280,-55,0,0,0,0,0,0,0,0,0,-1,1504,1079,0,0
287,-55,0,0,0,0,0,0,0,0,0,-1,1511,1079,0,0
294,-55,0,0,0,0,0,0,0,0,0,-1,1518,1079,0,0
301,-55,0,0,0,0,0,0,0,0,0,-1,1525,1079,0,0
308,-55,0,0,0,0,0,0,0,0,0,-1,1532,1079,0,0
315,-55,0,0,0,0,0,0,0,0,0,-1,1539,1079,0,0
322,-55,0,0,0,0,0,0,0,0,0,-1,1546,1079,0,0
329,-55,0,0,0,0,0,0,0,0,0,-1,1553,1079,0,0
336,-55,0,0,0,0,0,0,0,0,0,-1,1560,1079,0,0
343,-55,0,0,0,0,0,0,0,0,0,-1,1567,1079,0,0
350,-55,0,0,0,0,0,0,0,0,0,-1,1574,1079,0,0
357,-55,0,0,0,0,0,0,0,0,0,-1,1581,1079,0,0
364,-55,0,0,0,0,0,0,0,0,0,-1,1588,1079,0,0
371,-55,0,0,0,0,0,0,0,0,0,-1,1595,1079,0,0
378,-55,0,0,0,0,0,0,0,0,0,-1,1602,1079,0,0
385,-55,0,0,0,0,0,0,0,0,0,-1,1609,1079,0,0
392,-55,0,0,0,0,0,0,0,0,0,-1,1616,1079,0,0
399,-55,0,0,0,0,0,0,0,0,0,-1,1623,1079,0,0
406,-55,0,0,0,0,0,0,0,0,0,-1,1630,1079,0,0
413,-55,0,0,0,0,0,0,0,0,0,-1,1637,1079,0,0
420,-55,0,0,0,0,0,0,0,0,0,-1,1644,1079,0,0
427,-55,0,0,0,0,0,0,0,0,0,-1,1651,1079,0,0
434,-55,0,0,0,0,0,0,0,0,0,-1,1658,1079,0,0
441,-55,0,0,0,0,0,0,0,0,0,-1,1665,1079,0,0
448,-55,0,0,0,0,0,0,0,0,0,-1,1672,1079,0,0
455,-55,0,0,0,0,0,0,0,0,0,-1,1679,1079,0,0
462,-55,0,0,0,0,0,0,0,0,0,-1,1686,1079,0,0
469,-55,0,0,0,0,0,0,0,0,0,-1,1693,1079,0,0
476,-55,0,0,0,0,0,0,0,0,0,-1,1700,1079,0,0
483,-55,0,0,0,0,0,0,0,0,0,-1,1707,1079,0,0
490,-55,0,0,0,0,0,0,0,0,0,-1,1714,1079,0,0
497,-55,0,0,0,0,0,0,0,0,0,-1,1721,1079,0,0
504,-55,0,0,0,0,0,0,0,0,0,-1,1728,1079,0,0
511,-55,0,0,0,0,0,0,0,0,0,-1,1735,1079,0,0
518,-55,0,0,0,0,0,0,0,0,0,-1,1742,1079,0,0
525,-55,0,0,0,0,0,0,0,0,0,-1,1749,1079,0,0
532,-55,0,0,0,0,0,0,0,0,0,-1,1756,1079,0,0
539,-55,0,0,0,0,0,0,0,0,0,-1,1763,1079,0,0
546,-55,0,0,0,0,0,0,0,0,0,-1,1770,1079,0,0
553,-55,0,0,0,0,0,0,0,0,0,-1,1777,1079,0,0
560,-55,0,0,0,0,0,0,0,0,0,-1,1784,1079,0,0
567,-55,0,0,0,0,0,0,0,0,0,-1,1791,1079,0,0
574,-55,0,0,0,0,0,0,0,0,0,-1,1798,1079,0,0
581,-55,0,0,0,0,0,0,0,0,0,-1,1805,1079,0,0
588,-55,0,0,0,0,0,0,0,0,0,-1,1812,1079,0,0
595,-55,0,0,0,0,0,0,0,0,0,-1,1819,1079,0,0
602,-55,0,0,0,0,0,0,0,0,0,-1,1826,1079,0,0
609,-55,0,0,0,0,0,0,0,0,0,-1,1833,1079,0,0
616,-55,0,0,0,0,0,0,0,0,0,-1,1840,1079,0,0
623,-55,0,0,0,0,0,0,0,0,0,-1,1847,1079,0,0
630,-55,0,0,0,0,0,0,0,0,0,-1,1854,1079,0,0
637,-55,0,0,0,0,0,0,0,0,0,-1,1861,1079,0,0
644,-55,0,0,0,0,0,0,0,0,0,-1,1868,1079,0,0
651,-55,70.8462,2.30151,0.0014077,-0.00125984,0.00373693,0.00404175,-0.00389389,0.613987,0.00458191,0.0367665,1875,1079,70.8461,-2.30148
658,-55,70.9615,2.32898,0.00140803,-0.000994053,0.00261028,0.00308032,-0.00266634,0.569779,0.00332071,0.0341803,1882,1079,70.9615,-2.32895
665,-55,70.9314,2.27148,0.00130577,-0.000790688,0.00183945,0.0023747,-0.00185962,0.526416,0.00245071,0.0402771,1889,1079,70.9314,-2.27144
672,-55,70.9231,2.31738,0.00114758,-0.00051354,0.00131051,0.00186856,-0.00123452,0.502959,0.00180399,0.0417073,1896,1079,70.9231,-2.31738
679,-55,70.9757,2.23853,0.00091125,-0.000213448,0.000926028,0.0014323,-0.000734503,0.512524,0.00127245,0.0384047,1903,1079,70.9757,-2.23852
686,-55,70.9369,2.07983,0.000457362,-0.000161429,0.0007516,0.000960756,-0.000664824,0.590144,0.000943699,0.0397653,1910,1079,70.9368,-2.07979
693,-55,70.8652,2.13757,-2.14618e-05,-0.000283623,0.000803437,0.000661517,-0.000966602,0.704536,0.00094548,0.039736,1917,1079,70.8652,-2.13759
700,-55,70.9309,2.21936,-0.000308184,-0.000296245,0.001008,0.000705799,-0.00131023,0.788359,0.00118126,0.0325788,1924,1079,70.9309,-2.2194
707,-55,71.0078,2.18921,-0.000784587,-0.000131259,0.00125235,0.000836326,-0.00175217,0.912976,0.00152533,0.0228425,1931,1079,71.0078,-2.18925
714,-55,70.9845,2.2207,-0.00149731,0.000236461,0.00156096,0.0011551,-0.00241595,1.03887,0.00210415,0.0463225,1938,1079,70.9845,-2.22069
721,-55,71.0253,2.22681,0,0,0,0,0,0,0,-1,1945,1079,71.0252,-2.22676
728,-55,69.2974,7.8811,0,0,0,0,0,0,0,-1,1952,1079,69.2973,-7.88114
735,-55,69.186,7.50989,-0.00454149,0.00270392,0.0024551,0.00345746,-0.00529503,1.273,0.00509024,0.0238718,1959,1079,69.1861,-7.50992
742,-55,69.1682,7.14526,-0.00537512,0.00359595,0.00227798,0.00414124,-0.00592041,1.33584,0.00583929,0.0228763,1966,1079,69.1683,-7.14524
749,-55,69.1567,6.74268,-0.00629114,0.00560234,0.00201482,0.00593439,-0.00662319,1.40746,0.00725376,0.015953,1973,1079,69.1568,-6.74268
756,-55,69.0457,6.36011,-0.00738395,0.00743975,0.00153938,0.00759793,-0.00754212,1.46841,0.00874113,0.0131528,1980,1079,69.0456,-6.36009
763,-55,68.9612,6.01001,-0.00871637,0.0102977,0.000576568,0.0103151,-0.00873383,1.54051,0.0110105,0.0153617,1987,1079,68.9611,-6.01007
770,-55,68.8865,5.6189,-0.00986827,0.0141026,-0.00118848,0.0141614,-0.00992705,-1.52138,0.0139789,0.0156536,1994,1079,68.8866,-5.61888
777,-55,68.79,5.24768,-0.0106594,0.0185749,-0.00369564,0.0190348,-0.0111194,-1.44698,0.0176083,0.0136036,2001,1079,68.7899,-5.24767
784,-55,68.7158,4.86218,-0.0110785,0.0231272,-0.00662878,0.0243669,-0.0123182,-1.38592,0.0215576,0.0299876,2008,1079,68.7157,-4.86219
791,-55,69.4661,4.19836,0,0,0,0,0,0,0,-1,2015,1079,69.466,-4.1984
798,-55,68.4609,4.76025,-0.00984749,0.0323848,-0.0147328,0.0370164,-0.0144791,-1.26621,0.0306654,0.0463928,2022,1079,68.4608,-4.76024
805,-55,68.4863,4.60522,0,0,0,0,0,0,0,-1,2029,1079,68.4862,-4.60523
812,-55,68.4624,4.42688,0,0,0,0,0,0,0,-1,2036,1079,68.4625,-4.42688
-700,-62,-53.2267,-1.8374,0,0,0,0,0,0,0,-1,524,1086,-53.2266,1.83736
-693,-62,-53.4167,-1.32874,0,0,0,0,0,0,0,-1,531,1086,-53.4167,1.32871
-686,-62,-51.5914,-2.78772,0,0,0,0,0,0,0,-1,538,1086,-51.5914,2.78773
-679,-62,-51.4852,-1.09558,-0.0455251,0.0113054,0.0286938,0.0232728,-0.0574925,1.17566,0.0480048,0.0451453,545,1086,-51.4852,1.09561
-672,-62,-51.9472,-0.123779,-0.0394996,0.0145021,0.0225165,0.0226586,-0.0476561,1.22325,0.0414426,0.0473623,552,1086,-51.9472,0.123781
-665,-62,-52.265,0.557129,-0.0335541,0.0161366,0.0175511,0.0217106,-0.039128,1.26329,0.0356017,0.0458566,559,1086,-52.265,-0.557151
-658,-62,-52.9978,1.06531,0,0,0,0,0,0,0,-1,566,1086,-52.9978,-1.06537
-651,-62,-52.9792,2.57178,0,0,0,0,0,0,0,-1,573,1086,-52.9793,-2.57175
-644,-62,-53.1255,3.30054,-0.0174056,0.0138447,0.00665965,0.0152047,-0.0187656,1.36935,0.0196487,0.0396723,580,1086,-53.1256,-3.30058
-637,-62,-53.191,3.79407,-0.0124467,0.011343,0.0040293,0.0120069,-0.0131107,1.40749,0.0145063,0.0172805,587,1086,-53.1911,-3.79405
-630,-62,-53.2867,4.21973,-0.00772786,0.00838431,0.00137783,0.00850128,-0.00784484,1.4861,0.00943997,0.0168499,594,1086,-53.2867,-4.2197
-623,-62,-53.3796,4.73584,-0.00323193,0.00519001,-0.000445074,0.00521346,-0.00325539,-1.51814,0.00493287,0.0187555,601,1086,-53.3796,-4.73588
-616,-62,-53.3727,5.21777,0.000334134,0.000618175,-0.00194694,0.00242827,-0.00147596,-0.821806,0.00227635,0.0199246,608,1086,-53.3727,-5.21773
-609,-62,-53.3198,5.64111,0.00356381,-0.00445571,-0.00345971,0.00485007,-0.00574196,-0.355945,0.00612253,0.0199856,615,1086,-53.3198,-5.64108
-602,-62,-53.1924,6.0271,0.00677226,-0.00888571,-0.00442241,0.00793498,-0.0100484,-0.257096,0.0104066,0.0174691,622,1086,-53.1924,-6.02715
-595,-62,-53.0159,6.49109,0.0103063,-0.0130514,-0.00454791,0.0111606,-0.0139057,-0.185673,0.0145009,0.0405443,629,1086,-53.0159,-6.49113
-588,-62,-53.0066,6.91455,0,0,0,0,0,0,0,-1,636,1086,-53.0066,-6.9145
-581,-62,-54.4169,0.562378,0,0,0,0,0,0,0,-1,643,1086,-54.4169,-0.562414
-574,-62,-54.458,0.425293,0,0,0,0,0,0,0,-1,650,1086,-54.458,-0.425298
-567,-62,-54.4274,0.337891,0,0,0,0,0,0,0,-1,657,1086,-54.4274,-0.337866
-560,-62,-54.3668,0.328857,0,0,0,0,0,0,0,-1,664,1086,-54.3667,-0.328838
-553,-62,-54.3264,0.306641,0,0,0,0,0,0,0,-1,671,1086,-54.3263,-0.306668
-546,-62,-54.374,0.387329,0,0,0,0,0,0,0,-1,678,1086,-54.374,-0.38736
-539,-62,-54.3741,0.350098,0,0,0,0,0,0,0,-1,685,1086,-54.3741,-0.35009
-532,-62,-54.389,0.313599,0,0,0,0,0,0,0,-1,692,1086,-54.389,-0.313568
-525,-62,0,0,0,0,0,0,0,0,0,-1,699,1086,0,0
-518,-62,0,0,0,0,0,0,0,0,0,-1,706,1086,0,0
-511,-62,0,0,0,0,0,0,0,0,0,-1,713,1086,0,0
-504,-62,0,0,0,0,0,0,0,0,0,-1,720,1086,0,0
-497,-62,0,0,0,0,0,0,0,0,0,-1,727,1086,0,0
-490,-62,0,0,0,0,0,0,0,0,0,-1,734,1086,0,0
-483,-62,0,0,0,0,0,0,0,0,0,-1,741,1086,0,0
-476,-62,0,0,0,0,0,0,0,0,0,-1,748,1086,0,0
-469,-62,0,0,0,0,0,0,0,0,0,-1,755,1086,0,0
-462,-62,0,0,0,0,0,0,0,0,0,-1,762,1086,0,0
-455,-62,0,0,0,0,0,0,0,0,0,-1,769,1086,0,0
-448,-62,0,0,0,0,0,0,0,0,0,-1,776,1086,0,0
-441,-62,0,0,0,0,0,0,0,0,0,-1,783,1086,0,0
-434,-62,0,0,0,0,0,0,0,0,0,-1,790,1086,0,0
-427,-62,0,0,0,0,0,0,0,0,0,-1,797,1086,0,0
-420,-62,0,0,0,0,0,0,0,0,0,-1,804,1086,0,0
-413,-62,0,0,0,0,0,0,0,0,0,-1,811,1086,0,0
-406,-62,0,0,0,0,0,0,0,0,0,-1,818,1086,0,0
-399,-62,0,0,0,0,0,0,0,0,0,-1,825,1086,0,0
-392,-62,0,0,0,0,0,0,0,0,0,-1,832,1086,0,0
-385,-62,0,0,0,0,0,0,0,0,0,-1,839,1086,0,0
-378,-62,0,0,0,0,0,0,0,0,0,-1,846,1086,0,0
-371,-62,0,0,0,0,0,0,0,0,0,-1,853,1086,0,0
-364,-62,0,0,0,0,0,0,0,0,0,-1,860,1086,0,0
-357,-62,0,0,0,0,0,0,0,0,0,-1,867,1086,0,0
-350,-62,0,0,0,0,0,0,0,0,0,-1,874,1086,0,0
-343,-62,0,0,0,0,0,0,0,0,0,-1,881,1086,0,0
-336,-62,0,0,0,0,0,0,0,0,0,-1,888,1086,0,0
-329,-62,0,0,0,0,0,0,0,0,0,-1,895,1086,0,0
-322,-62,0,0,0,0,0,0,0,0,0,-1,902,1086,0,0
-315,-62,0,0,0,0,0,0,0,0,0,-1,909,1086,0,0
-308,-62,0,0,0,0,0,0,0,0,0,-1,916,1086,0,0
-301,-62,0,0,0,0,0,0,0,0,0,-1,923,1086,0,0
-294,-62,0,0,0,0,0,0,0,0,0,-1,930,1086,0,0
-287,-62,0,0,0,0,0,0,0,0,0,-1,937,1086,0,0
-280,-62,0,0,0,0,0,0,0,0,0,-1,944,1086,0,0
-273,-62,0,0,0,0,0,0,0,0,0,-1,951,1086,0,0
-266,-62,0,0,0,0,0,0,0,0,0,-1,958,1086,0,0
-259,-62,0,0,0,0,0,0,0,0,0,-1,965,1086,0,0
-252,-62,0,0,0,0,0,0,0,0,0,-1,972,1086,0,0
-245,-62,0,0,0,0,0,0,0,0,0,-1,979,1086,0,0
-238,-62,0,0,0,0,0,0,0,0,0,-1,986,1086,0,0
-231,-62,0,0,0,0,0,0,0,0,0,-1,993,1086,0,0
-224,-62,0,0,0,0,0,0,0,0,0,-1,1000,1086,0,0
-217,-62,0,0,0,0,0,0,0,0,0,-1,1007,1086,0,0
-210,-62,0,0,0,0,0,0,0,0,0,-1,1014,1086,0,0
-203,-62,0,0,0,0,0,0,0,0,0,-1,1021,1086,0,0
-196,-62,0,0,0,0,0,0,0,0,0,-1,1028,1086,0,0
-189,-62,0,0,0,0,0,0,0,0,0,-1,1035,1086,0,0
-182,-62,0,0,0,0,0,0,0,0,0,-1,1042,1086,0,0
-175,-62,0,0,0,0,0,0,0,0,0,-1,1049,1086,0,0
-168,-62,0,0,0,0,0,0,0,0,0,-1,1056,1086,0,0
-161,-62,0,0,0,0,0,0,0,0,0,-1,1063,1086,0,0
-154,-62,0,0,0,0,0,0,0,0,0,-1,1070,1086,0,0
-147,-62,0,0,0,0,0,0,0,0,0,-1,1077,1086,0,0
-140,-62,0,0,0,0,0,0,0,0,0,-1,1084,1086,0,0
-133,-62,0,0,0,0,0,0,0,0,0,-1,1091,1086,0,0
-126,-62,0,0,0,0,0,0,0,0,0,-1,1098,1086,0,0
-119,-62,0,0,0,0,0,0,0,0,0,-1,1105,1086,0,0
-112,-62,0,0,0,0,0,0,0,0,0,-1,1112,1086,0,0
-105,-62,0,0,0,0,0,0,0,0,0,-1,1119,1086,0,0
-98,-62,0,0,0,0,0,0,0,0,0,-1,1126,1086,0,0
-91,-62,0,0,0,0,0,0,0,0,0,-1,1133,1086,0,0
-84,-62,0,0,0,0,0,0,0,0,0,-1,1140,1086,0,0
-77,-62,0,0,0,0,0,0,0,0,0,-1,1147,1086,0,0
-70,-62,0,0,0,0,0,0,0,0,0,-1,1154,1086,0,0
-63,-62,0,0,0,0,0,0,0,0,0,-1,1161,1086,0,0
-56,-62,0,0,0,0,0,0,0,0,0,-1,1168,1086,0,0
-49,-62,0,0,0,0,0,0,0,0,0,-1,1175,1086,0,0
-42,-62,0,0,0,0,0,0,0,0,0,-1,1182,1086,0,0
-35,-62,0,0,0,0,0,0,0,0,0,-1,1189,1086,0,0
-28,-62,0,0,0,0,0,0,0,0,0,-1,1196,1086,0,0
-21,-62,0,0,0,0,0,0,0,0,0,-1,1203,1086,0,0
-14,-62,0,0,0,0,0,0,0,0,0,-1,1210,1086,0,0
-7,-62,0,0,0,0,0,0,0,0,0,-1,1217,1086,0,0
0,-62,0,0,0,0,0,0,0,0,0,-1,1224,1086,0,0
7,-62,0,0,0,0,0,0,0,0,0,-1,1231,1086,0,0
14,-62,0,0,0,0,0,0,0,0,0,-1,1238,1086,0,0
21,-62,0,0,0,0,0,0,0,0,0,-1,1245,1086,0,0
28,-62,0,0,0,0,0,0,0,0,0,-1,1252,1086,0,0
35,-62,0,0,0,0,0,0,0,0,0,-1,1259,1086,0,0
42,-62,0,0,0,0,0,0,0,0,0,-1,1266,1086,0,0
49,-62,0,0,0,0,0,0,0,0,0,-1,1273,1086,0,0
56,-62,0,0,0,0,0,0,0,0,0,-1,1280,1086,0,0
63,-62,0,0,0,0,0,0,0,0,0,-1,1287,1086,0,0
70,-62,0,0,0,0,0,0,0,0,0,-1,1294,1086,0,0
77,-62,0,0,0,0,0,0,0,0,0,-1,1301,1086,0,0
84,-62,0,0,0,0,0,0,0,0,0,-1,1308,1086,0,0
91,-62,0,0,0,0,0,0,0,0,0,-1,1315,1086,0,0
98,-62,0,0,0,0,0,0,0,0,0,-1,1322,1086,0,0
105,-62,0,0,0,0,0,0,0,0,0,-1,1329,1086,0,0
112,-62,0,0,0,0,0,0,0,0,0,-1,1336,1086,0,0
119,-62,0,0,0,0,0,0,0,0,0,-1,1343,1086,0,0
126,-62,0,0,0,0,0,0,0,0,0,-1,1350,1086,0,0
133,-62,0,0,0,0,0,0,0,0,0,-1,1357,1086,0,0
140,-62,0,0,0,0,0,0,0,0,0,-1,1364,1086,0,0
147,-62,0,0,0,0,0,0,0,0,0,-1,1371,1086,0,0
154,-62,0,0,0,0,0,0,0,0,0,-1,1378,1086,0,0
161,-62,0,0,0,0,0,0,0,0,0,-1,1385,1086,0,0
168,-62,0,0,0,0,0,0,0,0,0,-1,1392,1086,0,0
175,-62,0,0,0,0,0,0,0,0,0,-1,1399,1086,0,0
182,-62,0,0,0,0,0,0,0,0,0,-1,1406,1086,0,0
189,-62,0,0,0,0,0,0,0,0,0,-1,1413,1086,0,0
196,-62,0,0,0,0,0,0,0,0,0,-1,1420,1086,0,0
203,-62,0,0,0,0,0,0,0,0,0,-1,1427,1086,0,0
210,-62,0,0,0,0,0,0,0,0,0,-1,1434,1086,0,0
217,-62,0,0,0,0,0,0,0,0,0,-1,1441,1086,0,0
224,-62,0,0,0,0,0,0,0,0,0,-1,1448,1086,0,0
231,-62,0,0,0,0,0,0,0,0,0,-1,1455,1086,0,0
238,-62,0,0,0,0,0,0,0,0,0,-1,1462,1086,0,0
245,-62,0,0,0,0,0,0,0,0,0,-1,1469,1086,0,0
252,-62,0,0,0,0,0,0,0,0,0,-1,1476,1086,0,0
259,-62,0,0,0,0,0,0,0,0,0,-1,1483,1086,0,0
266,-62,0,0,0,0,0,0,0,0,0,-1,1490,1086,0,0
273,-62,0,0,0,0,0,0,0,0,0,-1,1497,1086,0,0
280,-62,0,0,0,0,0,0,0,0,0,-1,1504,1086,0,0
287,-62,0,0,0,0,0,0,0,0,0,-1,1511,1086,0,0
294,-62,0,0,0,0,0,0,0,0,0,-1,1518,1086,0,0
301,-62,0,0,0,0,0,0,0,0,0,-1,1525,1086,0,0
308,-62,0,0,0,0,0,0,0,0,0,-1,1532,1086,0,0
315,-62,0,0,0,0,0,0,0,0,0,-1,1539,1086,0,0
322,-62,0,0,0,0,0,0,0,0,0,-1,1546,1086,0,0
329,-62,0,0,0,0,0,0,0,0,0,-1,1553,1086,0,0
336,-62,0,0,0,0,0,0,0,0,0,-1,1560,1086,0,0
343,-62,0,0,0,0,0,0,0,0,0,-1,1567,1086,0,0
350,-62,0,0,0,0,0,0,0,0,0,-1,1574,1086,0,0
357,-62,0,0,0,0,0,0,0,0,0,-1,1581,1086,0,0
364,-62,0,0,0,0,0,0,0,0,0,-1,1588,1086,0,0
371,-62,0,0,0,0,0,0,0,0,0,-1,1595,1086,0,0
378,-62,0,0,0,0,0,0,0,0,0,-1,1602,1086,0,0
385,-62,0,0,0,0,0,0,0,0,0,-1,1609,1086,0,0
392,-62,0,0,0,0,0,0,0,0,0,-1,1616,1086,0,0
399,-62,0,0,0,0,0,0,0,0,0,-1,1623,1086,0,0
406,-62,0,0,0,0,0,0,0,0,0,-1,1630,1086,0,0
413,-62,0,0,0,0,0,0,0,0,0,-1,1637,1086,0,0
420,-62,0,0,0,0,0,0,0,0,0,-1,1644,1086,0,0
427,-62,0,0,0,0,0,0,0,0,0,-1,1651,1086,0,0
434,-62,0,0,0,0,0,0,0,0,0,-1,1658,1086,0,0
441,-62,0,0,0,0,0,0,0,0,0,-1,1665,1086,0,0
448,-62,0,0,0,0,0,0,0,0,0,-1,1672,1086,0,0
455,-62,0,0,0,0,0,0,0,0,0,-1,1679,1086,0,0
462,-62,0,0,0,0,0,0,0,0,0,-1,1686,1086,0,0
469,-62,0,0,0,0,0,0,0,0,0,-1,1693,1086,0,0
476,-62,0,0,0,0,0,0,0,0,0,-1,1700,1086,0,0
483,-62,0,0,0,0,0,0,0,0,0,-1,1707,1086,0,0
490,-62,0,0,0,0,0,0,0,0,0,-1,1714,1086,0,0
497,-62,0,0,0,0,0,0,0,0,0,-1,1721,1086,0,0
504,-62,0,0,0,0,0,0,0,0,0,-1,1728,1086,0,0
511,-62,0,0,0,0,0,0,0,0,0,-1,1735,1086,0,0
518,-62,0,0,0,0,0,0,0,0,0,-1,1742,1086,0,0
525,-62,0,0,0,0,0,0,0,0,0,-1,1749,1086,0,0
532,-62,0,0,0,0,0,0,0,0,0,-1,1756,1086,0,0
539,-62,0,0,0,0,0,0,0,0,0,-1,1763,1086,0,0
546,-62,0,0,0,0,0,0,0,0,0,-1,1770,1086,0,0
553,-62,0,0,0,0,0,0,0,0,0,-1,1777,1086,0,0
560,-62,0,0,0,0,0,0,0,0,0,-1,1784,1086,0,0
567,-62,0,0,0,0,0,0,0,0,0,-1,1791,1086,0,0
574,-62,0,0,0,0,0,0,0,0,0,-1,1798,1086,0,0
581,-62,0,0,0,0,0,0,0,0,0,-1,1805,1086,0,0
588,-62,0,0,0,0,0,0,0,0,0,-1,1812,1086,0,0
595,-62,0,0,0,0,0,0,0,0,0,-1,1819,1086,0,0
602,-62,0,0,0,0,0,0,0,0,0,-1,1826,1086,0,0
609,-62,0,0,0,0,0,0,0,0,0,-1,1833,1086,0,0
616,-62,0,0,0,0,0,0,0,0,0,-1,1840,1086,0,0
623,-62,0,0,0,0,0,0,0,0,0,-1,1847,1086,0,0
630,-62,0,0,0,0,0,0,0,0,0,-1,1854,1086,0,0
637,-62,0,0,0,0,0,0,0,0,0,-1,1861,1086,0,0
644,-62,0,0,0,0,0,0,0,0,0,-1,1868,1086,0,0
651,-62,70.8959,2.2312,0.00243984,-0.00185874,0.00355667,0.00444619,-0.00386509,0.513611,0.00480243,0.0393319,1875,1086,70.8958,-2.23117
658,-62,70.8861,2.32092,0.00218668,-0.00147904,0.00240552,0.00337804,-0.0026704,0.459849,0.00350003,0.0378828,1882,1086,70.8861,-2.32089
665,-62,70.9119,2.3175,0.00191439,-0.00119031,0.00162017,0.00260586,-0.00188179,0.403386,0.00260216,0.0388363,1889,1086,70.9119,-2.31751
672,-62,71.0513,2.29797,0.00162156,-0.000839113,0.00106648,0.00201945,-0.001237,0.357089,0.00189812,0.0392689,1896,1086,71.0512,-2.29801
679,-62,71.0801,2.36938,0.00128648,-0.00048156,0.000669167,0.00151119,-0.000706267,0.32397,0.00130806,0.0361426,1903,1086,71.0801,-2.36935
686,-62,70.9213,2.23523,0.000839238,-0.000373932,0.000494704,0.00101539,-0.000550084,0.342077,0.000917039,0.037398,1910,1086,70.9213,-2.23525
693,-62,70.8507,2.20093,0.000383896,-0.000455154,0.000553221,0.000658672,-0.00072993,0.460992,0.000802062,0.0368264,1917,1086,70.8507,-2.20092
700,-62,70.965,2.15466,0.000114841,-0.00041915,0.000750278,0.000644214,-0.000948524,0.614454,0.000925146,0.0299677,1924,1086,70.965,-2.15465
707,-62,70.9707,2.21326,-0.000297348,-0.00023311,0.00101281,0.000748094,-0.00127855,0.801249,0.00118337,0.0200354,1931,1086,70.9707,-2.21322
714,-62,70.9852,2.16467,-0.000922687,0.000113258,0.00135229,0.00104338,-0.00185281,0.968296,0.00169375,0.0369667,1938,1086,70.9852,-2.16471
721,-62,71.0125,2.0835,0,0,0,0,0,0,0,-1,1945,1086,71.0124,-2.08345
728,-62,68.8369,8.05725,0,0,0,0,0,0,0,-1,1952,1086,68.8369,-8.05724
735,-62,68.7435,7.53357,-0.00385654,0.00234477,0.00236944,0.00314646,-0.00465823,1.24454,0.00453413,0.0324855,1959,1086,68.7436,-7.53359
742,-62,68.6801,7.20789,-0.00474457,0.00317273,0.00227526,0.00378001,-0.00535185,1.30997,0.00529825,0.0320031,1966,1086,68.6801,-7.20794
749,-62,68.6702,6.77466,-0.00571887,0.00500616,0.00204456,0.0053827,-0.00609541,1.38867,0.00663115,0.0237459,1973,1086,68.6702,-6.77462
756,-62,68.5549,6.4115,-0.00694259,0.00664417,0.00163371,0.00683786,-0.00713627,1.45279,0.00806858,0.0153156,1980,1086,68.5549,-6.41154
763,-62,68.5063,5.97668,-0.0084911,0.0092698,0.000735558,0.00930022,-0.00852151,1.52948,0.0102927,0.0183906,1987,1086,68.5064,-5.9767
770,-62,68.4524,5.53223,-0.00998563,0.0127363,-0.000965692,0.0127772,-0.0100266,-1.5284,0.0131977,0.0158346,1994,1086,68.4525,-5.53225
777,-62,68.3027,5.09717,-0.0112469,0.016752,-0.00338238,0.0171548,-0.0116497,-1.45226,0.0167312,0.0161901,2001,1086,68.3027,-5.09712
784,-62,68.2197,4.68665,-0.0121787,0.0208071,-0.00625404,0.0219531,-0.0133246,-1.38957,0.0205697,0.0284711,2008,1086,68.2198,-4.68668
791,-62,68.1279,4.23389,-0.01267,0.0248552,-0.00982519,0.027272,-0.0150869,-1.3296,0.0247909,0.0454906,2015,1086,68.1279,-4.23391
798,-62,68.0527,3.79553,-0.0123817,0.0287395,-0.0142583,0.0331996,-0.0168418,-1.26763,0.0294015,0.0463115,2022,1086,68.0528,-3.79554
805,-62,68.1697,3.55908,0,0,0,0,0,0,0,-1,2029,1086,68.1697,-3.55912
812,-62,68.4487,-0.375122,0,0,0,0,0,0,0,-1,2036,1086,68.4486,0.375102
-700,-69,-51.8175,-0.765747,0,0,0,0,0,0,0,-1,524,1093,-51.8175,0.765697
-693,-69,-43.6682,-3.46033,0,0,0,0,0,0,0,-1,531,1093,-43.6682,3.46031
-686,-69,-50.317,-0.454834,0,0,0,0,0,0,0,-1,538,1093,-50.317,0.454863
-679,-69,-50.7506,-0.261475,-0.0501919,-0.006012,0.0309355,0.00991086,-0.0661147,1.09545,0.0477244,0.0449885,545,1093,-50.7507,0.261509
-672,-69,-51.2745,-0.14917,-0.043153,0.000350295,0.0236724,0.010747,-0.0535497,1.15697,0.0397692,0.0466555,552,1093,-51.2745,0.149198
-665,-69,-51.6999,0.380249,-0.0364307,0.00474186,0.0179588,0.0114743,-0.0431632,1.21213,0.0332665,0.0463988,559,1093,-51.6999,-0.380297
-658,-69,-52.1047,1.58105,0,0,0,0,0,0,0,-1,566,1093,-52.1047,-1.58107
-651,-69,-51.7712,2.88599,0,0,0,0,0,0,0,-1,573,1093,-51.7712,-2.88598
-644,-69,-52.5242,3.31555,-0.0186257,0.00853556,0.00626808,0.00991229,-0.0200024,1.35459,0.0175957,0.0478853,580,1093,-52.5242,-3.31559
-637,-69,-52.6735,3.77112,-0.0132872,0.00756962,0.00366722,0.00819563,-0.0139132,1.40172,0.012906,0.0200547,587,1093,-52.6735,-3.77108
-630,-69,-52.6985,4.20691,-0.00829451,0.00594474,0.000989742,0.00601321,-0.00836298,1.50173,0.00833697,0.0163032,594,1093,-52.6985,-4.20685
-623,-69,-52.6985,4.70093,-0.00350655,0.00378252,-0.000679544,0.00384533,-0.00356937,-1.47863,0.00428187,0.0193491,601,1093,-52.6985,-4.70091
-616,-69,-52.7289,5.17981,0.000413286,4.69923e-05,-0.00181368,0.00205305,-0.00159277,-0.735078,0.0021105,0.0242092,608,1093,-52.7289,-5.17981
-609,-69,-52.7441,5.59387,0.00399613,-0.00438856,-0.00297198,0.0049427,-0.00533513,-0.30834,0.00593535,0.0210012,615,1093,-52.7441,-5.59382
-602,-69,-52.7042,6.07788,0.00763095,-0.00841342,-0.00361639,0.00840841,-0.00919087,-0.211759,0.0101643,0.0211562,622,1093,-52.7042,-6.07789
-595,-69,-52.5923,6.46753,0.0117419,-0.0121817,-0.00348752,0.01224,-0.0126797,-0.141845,0.0143881,0.0464148,629,1093,-52.5923,-6.46754
-588,-69,-52.6234,6.82642,0,0,0,0,0,0,0,-1,636,1093,-52.6234,-6.82638
-581,-69,-54.4481,0.646606,0,0,0,0,0,0,0,-1,643,1093,-54.4481,-0.646586
-574,-69,-54.4118,0.478394,0,0,0,0,0,0,0,-1,650,1093,-54.4118,-0.478386
-567,-69,-54.3615,0.412598,0,0,0,0,0,0,0,-1,657,1093,-54.3615,-0.412617
-560,-69,-54.3497,0.407715,0,0,0,0,0,0,0,-1,664,1093,-54.3497,-0.407735
-553,-69,-54.271,0.403931,0,0,0,0,0,0,0,-1,671,1093,-54.271,-0.403966
-546,-69,-54.3348,0.265015,0,0,0,0,0,0,0,-1,678,1093,-54.3348,-0.265034
-539,-69,-54.3012,0.162354,0,0,0,0,0,0,0,-1,685,1093,-54.3012,-0.162397
-532,-69,-54.0958,0.0463867,0,0,0,0,0,0,0,-1,692,1093,-54.0958,-0.0464062
-525,-69,0,0,0,0,0,0,0,0,0,-1,699,1093,0,0
-518,-69,0,0,0,0,0,0,0,0,0,-1,706,1093,0,0
-511,-69,0,0,0,0,0,0,0,0,0,-1,713,1093,0,0
-504,-69,0,0,0,0,0,0,0,0,0,-1,720,1093,0,0
-497,-69,0,0,0,0,0,0,0,0,0,-1,727,1093,0,0
-490,-69,0,0,0,0,0,0,0,0,0,-1,734,1093,0,0
-483,-69,0,0,0,0,0,0,0,0,0,-1,741,1093,0,0
-476,-69,0,0,0,0,0,0,0,0,0,-1,748,1093,0,0
-469,-69,0,0,0,0,0,0,0,0,0,-1,755,1093,0,0
-462,-69,0,0,0,0,0,0,0,0,0,-1,762,1093,0,0
-455,-69,0,0,0,0,0,0,0,0,0,-1,769,1093,0,0
-448,-69,0,0,0,0,0,0,0,0,0,-1,776,1093,0,0
-441,-69,0,0,0,0,0,0,0,0,0,-1,783,1093,0,0
-434,-69,0,0,0,0,0,0,0,0,0,-1,790,1093,0,0
-427,-69,0,0,0,0,0,0,0,0,0,-1,797,1093,0,0
-420,-69,0,0,0,0,0,0,0,0,0,-1,804,1093,0,0
-413,-69,0,0,0,0,0,0,0,0,0,-1,811,1093,0,0
-406,-69,0,0,0,0,0,0,0,0,0,-1,818,1093,0,0
-399,-69,0,0,0,0,0,0,0,0,0,-1,825,1093,0,0
-392,-69,0,0,0,0,0,0,0,0,0,-1,832,1093,0,0
-385,-69,0,0,0,0,0,0,0,0,0,-1,839,1093,0,0
-378,-69,0,0,0,0,0,0,0,0,0,-1,846,1093,0,0
-371,-69,0,0,0,0,0,0,0,0,0,-1,853,1093,0,0
-364,-69,0,0,0,0,0,0,0,0,0,-1,860,1093,0,0
-357,-69,0,0,0,0,0,0,0,0,0,-1,867,1093,0,0
-350,-69,0,0,0,0,0,0,0,0,0,-1,874,1093,0,0
-343,-69,0,0,0,0,0,0,0,0,0,-1,881,1093,0,0
-336,-69,0,0,0,0,0,0,0,0,0,-1,888,1093,0,0
-329,-69,0,0,0,0,0,0,0,0,0,-1,895,1093,0,0
-322,-69,0,0,0,0,0,0,0,0,0,-1,902,1093,0,0
-315,-69,0,0,0,0,0,0,0,0,0,-1,909,1093,0,0
-308,-69,0,0,0,0,0,0,0,0,0,-1,916,1093,0,0
-301,-69,0,0,0,0,0,0,0,0,0,-1,923,1093,0,0
-294,-69,0,0,0,0,0,0,0,0,0,-1,930,1093,0,0
-287,-69,0,0,0,0,0,0,0,0,0,-1,937,1093,0,0
-280,-69,0,0,0,0,0,0,0,0,0,-1,944,1093,0,0
-273,-69,0,0,0,0,0,0,0,0,0,-1,951,1093,0,0
-266,-69,0,0,0,0,0,0,0,0,0,-1,958,1093,0,0
-259,-69,0,0,0,0,0,0,0,0,0,-1,965,1093,0,0
-252,-69,0,0,0,0,0,0,0,0,0,-1,972,1093,0,0
-245,-69,0,0,0,0,0,0,0,0,0,-1,979,1093,0,0
-238,-69,0,0,0,0,0,0,0,0,0,-1,986,1093,0,0
-231,-69,0,0,0,0,0,0,0,0,0,-1,993,1093,0,0
-224,-69,0,0,0,0,0,0,0,0,0,-1,1000,1093,0,0
-217,-69,0,0,0,0,0,0,0,0,0,-1,1007,1093,0,0
-210,-69,0,0,0,0,0,0,0,0,0,-1,1014,1093,0,0
-203,-69,0,0,0,0,0,0,0,0,0,-1,1021,1093,0,0
-196,-69,0,0,0,0,0,0,0,0,0,-1,1028,1093,0,0
-189,-69,0,0,0,0,0,0,0,0,0,-1,1035,1093,0,0
-182,-69,0,0,0,0,0,0,0,0,0,-1,1042,1093,0,0
-175,-69,0,0,0,0,0,0,0,0,0,-1,1049,1093,0,0
-168,-69,0,0,0,0,0,0,0,0,0,-1,1056,1093,0,0
-161,-69,0,0,0,0,0,0,0,0,0,-1,1063,1093,0,0
-154,-69,0,0,0,0,0,0,0,0,0,-1,1070,1093,0,0
-147,-69,0,0,0,0,0,0,0,0,0,-1,1077,1093,0,0
-140,-69,0,0,0,0,0,0,0,0,0,-1,1084,1093,0,0
-133,-69,0,0,0,0,0,0,0,0,0,-1,1091,1093,0,0
-126,-69,0,0,0,0,0,0,0,0,0,-1,1098,1093,0,0
-119,-69,0,0,0,0,0,0,0,0,0,-1,1105,1093,0,0
-112,-69,0,0,0,0,0,0,0,0,0,-1,1112,1093,0,0
-105,-69,0,0,0,0,0,0,0,0,0,-1,1119,1093,0,0
-98,-69,0,0,0,0,0,0,0,0,0,-1,1126,1093,0,0
-91,-69,0,0,0,0,0,0,0,0,0,-1,1133,1093,0,0
-84,-69,0,0,0,0,0,0,0,0,0,-1,1140,1093,0,0
-77,-69,0,0,0,0,0,0,0,0,0,-1,1147,1093,0,0
-70,-69,0,0,0,0,0,0,0,0,0,-1,1154,1093,0,0
-63,-69,0,0,0,0,0,0,0,0,0,-1,1161,1093,0,0
-56,-69,0,0,0,0,0,0,0,0,0,-1,1168,1093,0,0
-49,-69,0,0,0,0,0,0,0,0,0,-1,1175,1093,0,0
-42,-69,0,0,0,0,0,0,0,0,0,-1,1182,1093,0,0
-35,-69,0,0,0,0,0,0,0,0,0,-1,1189,1093,0,0
-28,-69,0,0,0,0,0,0,0,0,0,-1,1196,1093,0,0
-21,-69,0,0,0,0,0,0,0,0,0,-1,1203,1093,0,0
-14,-69,0,0,0,0,0,0,0,0,0,-1,1210,1093,0,0
-7,-69,0,0,0,0,0,0,0,0,0,-1,1217,1093,0,0
0,-69,0,0,0,0,0,0,0,0,0,-1,1224,1093,0,0
7,-69,0,0,0,0,0,0,0,0,0,-1,1231,1093,0,0
14,-69,0,0,0,0,0,0,0,0,0,-1,1238,1093,0,0
21,-69,0,0,0,0,0,0,0,0,0,-1,1245,1093,0,0
28,-69,0,0,0,0,0,0,0,0,0,-1,1252,1093,0,0
35,-69,0,0,0,0,0,0,0,0,0,-1,1259,1093,0,0
42,-69,0,0,0,0,0,0,0,0,0,-1,1266,1093,0,0
49,-69,0,0,0,0,0,0,0,0,0,-1,1273,1093,0,0
56,-69,0,0,0,0,0,0,0,0,0,-1,1280,1093,0,0
63,-69,0,0,0,0,0,0,0,0,0,-1,1287,1093,0,0
70,-69,0,0,0,0,0,0,0,0,0,-1,1294,1093,0,0
77,-69,0,0,0,0,0,0,0,0,0,-1,1301,1093,0,0
84,-69,0,0,0,0,0,0,0,0,0,-1,1308,1093,0,0
91,-69,0,0,0,0,0,0,0,0,0,-1,1315,1093,0,0
98,-69,0,0,0,0,0,0,0,0,0,-1,1322,1093,0,0
105,-69,0,0,0,0,0,0,0,0,0,-1,1329,1093,0,0
112,-69,0,0,0,0,0,0,0,0,0,-1,1336,1093,0,0
119,-69,0,0,0,0,0,0,0,0,0,-1,1343,1093,0,0
126,-69,0,0,0,0,0,0,0,0,0,-1,1350,1093,0,0
133,-69,0,0,0,0,0,0,0,0,0,-1,1357,1093,0,0
140,-69,0,0,0,0,0,0,0,0,0,-1,1364,1093,0,0
147,-69,0,0,0,0,0,0,0,0,0,-1,1371,1093,0,0
154,-69,0,0,0,0,0,0,0,0,0,-1,1378,1093,0,0
161,-69,0,0,0,0,0,0,0,0,0,-1,1385,1093,0,0
168,-69,0,0,0,0,0,0,0,0,0,-1,1392,1093,0,0
175,-69,0,0,0,0,0,0,0,0,0,-1,1399,1093,0,0
182,-69,0,0,0,0,0,0,0,0,0,-1,1406,1093,0,0
189,-69,0,0,0,0,0,0,0,0,0,-1,1413,1093,0,0
196,-69,0,0,0,0,0,0,0,0,0,-1,1420,1093,0,0
203,-69,0,0,0,0,0,0,0,0,0,-1,1427,1093,0,0
210,-69,0,0,0,0,0,0,0,0,0,-1,1434,1093,0,0
217,-69,0,0,0,0,0,0,0,0,0,-1,1441,1093,0,0
224,-69,0,0,0,0,0,0,0,0,0,-1,1448,1093,0,0
231,-69,0,0,0,0,0,0,0,0,0,-1,1455,1093,0,0
238,-69,0,0,0,0,0,0,0,0,0,-1,1462,1093,0,0
245,-69,0,0,0,0,0,0,0,0,0,-1,1469,1093,0,0
252,-69,0,0,0,0,0,0,0,0,0,-1,1476,1093,0,0
259,-69,0,0,0,0,0,0,0,0,0,-1,1483,1093,0,0
266,-69,0,0,0,0,0,0,0,0,0,-1,1490,1093,0,0
273,-69,0,0,0,0,0,0,0,0,0,-1,1497,1093,0,0
280,-69,0,0,0,0,0,0,0,0,0,-1,1504,1093,0,0
287,-69,0,0,0,0,0,0,0,0,0,-1,1511,1093,0,0
294,-69,0,0,0,0,0,0,0,0,0,-1,1518,1093,0,0
301,-69,0,0,0,0,0,0,0,0,0,-1,1525,1093,0,0
308,-69,0,0,0,0,0,0,0,0,0,-1,1532,1093,0,0
315,-69,0,0,0,0,0,0,0,0,0,-1,1539,1093,0,0
322,-69,0,0,0,0,0,0,0,0,0,-1,1546,1093,0,0
329,-69,0,0,0,0,0,0,0,0,0,-1,1553,1093,0,0
336,-69,0,0,0,0,0,0,0,0,0,-1,1560,1093,0,0
343,-69,0,0,0,0,0,0,0,0,0,-1,1567,1093,0,0
350,-69,0,0,0,0,0,0,0,0,0,-1,1574,1093,0,0
357,-69,0,0,0,0,0,0,0,0,0,-1,1581,1093,0,0
364,-69,0,0,0,0,0,0,0,0,0,-1,1588,1093,0,0
371,-69,0,0,0,0,0,0,0,0,0,-1,1595,1093,0,0
378,-69,0,0,0,0,0,0,0,0,0,-1,1602,1093,0,0
385,-69,0,0,0,0,0,0,0,0,0,-1,1609,1093,0,0
392,-69,0,0,0,0,0,0,0,0,0,-1,1616,1093,0,0
399,-69,0,0,0,0,0,0,0,0,0,-1,1623,1093,0,0
406,-69,0,0,0,0,0,0,0,0,0,-1,1630,1093,0,0
413,-69,0,0,0,0,0,0,0,0,0,-1,1637,1093,0,0
420,-69,0,0,0,0,0,0,0,0,0,-1,1644,1093,0,0
427,-69,0,0,0,0,0,0,0,0,0,-1,1651,1093,0,0
434,-69,0,0,0,0,0,0,0,0,0,-1,1658,1093,0,0
441,-69,0,0,0,0,0,0,0,0,0,-1,1665,1093,0,0
448,-69,0,0,0,0,0,0,0,0,0,-1,1672,1093,0,0
455,-69,0,0,0,0,0,0,0,0,0,-1,1679,1093,0,0
462,-69,0,0,0,0,0,0,0,0,0,-1,1686,1093,0,0
469,-69,0,0,0,0,0,0,0,0,0,-1,1693,1093,0,0
476,-69,0,0,0,0,0,0,0,0,0,-1,1700,1093,0,0
483,-69,0,0,0,0,0,0,0,0,0,-1,1707,1093,0,0
490,-69,0,0,0,0,0,0,0,0,0,-1,1714,1093,0,0
497,-69,0,0,0,0,0,0,0,0,0,-1,1721,1093,0,0
504,-69,0,0,0,0,0,0,0,0,0,-1,1728,1093,0,0
511,-69,0,0,0,0,0,0,0,0,0,-1,1735,1093,0,0
518,-69,0,0,0,0,0,0,0,0,0,-1,1742,1093,0,0
525,-69,0,0,0,0,0,0,0,0,0,-1,1749,1093,0,0
532,-69,0,0,0,0,0,0,0,0,0,-1,1756,1093,0,0
539,-69,0,0,0,0,0,0,0,0,0,-1,1763,1093,0,0
546,-69,0,0,0,0,0,0,0,0,0,-1,1770,1093,0,0
553,-69,0,0,0,0,0,0,0,0,0,-1,1777,1093,0,0
560,-69,0,0,0,0,0,0,0,0,0,-1,1784,1093,0,0
567,-69,0,0,0,0,0,0,0,0,0,-1,1791,1093,0,0
574,-69,0,0,0,0,0,0,0,0,0,-1,1798,1093,0,0
581,-69,0,0,0,0,0,0,0,0,0,-1,1805,1093,0,0
588,-69,0,0,0,0,0,0,0,0,0,-1,1812,1093,0,0
595,-69,0,0,0,0,0,0,0,0,0,-1,1819,1093,0,0
602,-69,0,0,0,0,0,0,0,0,0,-1,1826,1093,0,0
609,-69,0,0,0,0,0,0,0,0,0,-1,1833,1093,0,0
616,-69,0,0,0,0,0,0,0,0,0,-1,1840,1093,0,0
623,-69,0,0,0,0,0,0,0,0,0,-1,1847,1093,0,0
630,-69,0,0,0,0,0,0,0,0,0,-1,1854,1093,0,0
637,-69,0,0,0,0,0,0,0,0,0,-1,1861,1093,0,0
644,-69,0,0,0,0,0,0,0,0,0,-1,1868,1093,0,0
651,-69,70.8518,2.0387,0.00372402,-0.00179198,0.00303038,0.00506355,-0.00313151,0.41621,0.00477505,0.0412685,1875,1093,70.8518,-2.03874
658,-69,70.8126,2.13843,0.00315142,-0.00143035,0.0020073,0.00390642,-0.00218535,0.359759,0.00356357,0.0419192,1882,1093,70.8126,-2.13846
665,-69,70.8414,2.19714,0.00264395,-0.00116858,0.00128974,0.00303926,-0.0015639,0.297418,0.00270276,0.039158,1889,1093,70.8414,-2.19713
672,-69,70.9574,2.35388,0.00215995,-0.000855607,0.000758245,0.00233987,-0.00103553,0.232978,0.0019967,0.0360552,1896,1093,70.9574,-2.35386
679,-69,71.0067,2.31934,0.00168096,-0.000552117,0.000372504,0.00174145,-0.000612617,0.161006,0.00141025,0.0352845,1903,1093,71.0067,-2.31936
686,-69,70.9327,2.24097,0.00121893,-0.000469928,0.000209668,0.00124457,-0.000495568,0.121687,0.00103523,0.0369097,1910,1093,70.9327,-2.24094
693,-69,70.8848,2.12439,0.000769391,-0.000573462,0.000271495,0.000822204,-0.000626275,0.192128,0.000838826,0.0349155,1917,1093,70.8847,-2.12436
700,-69,70.9288,2.11951,0.000496962,-0.000543844,0.000467386,0.000676037,-0.000722918,0.365889,0.000807838,0.0281016,1924,1093,70.9288,-2.11949
707,-69,70.939,2.13708,0.000115323,-0.000354093,0.000747739,0.000664325,-0.000903095,0.633323,0.000908443,0.020872,1931,1093,70.9389,-2.13704
714,-69,70.9663,2.04492,-0.000465457,-3.67429e-05,0.00110748,0.000876931,-0.00137913,0.880993,0.00131325,0.0326346,1938,1093,70.9663,-2.04489
721,-69,70.958,1.87463,0,0,0,0,0,0,0,-1,1945,1093,70.958,-1.87458
728,-69,67.4717,8.37866,0,0,0,0,0,0,0,-1,1952,1093,67.4717,-8.37871
735,-69,68.1947,7.86633,0,0,0,0,0,0,0,-1,1959,1093,68.1946,-7.86629
742,-69,68.1661,7.36523,-0.00427311,0.00278161,0.00218624,0.00340417,-0.00489568,1.29337,0.00481764,0.0340181,1966,1093,68.1661,-7.36522
749,-69,67.9707,6.85144,-0.00531658,0.00445646,0.00199779,0.00484907,-0.0057092,1.37675,0.00610256,0.0357593,1973,1093,67.9707,-6.85138
756,-69,68.0525,6.40735,-0.00668308,0.00592718,0.00165236,0.0061401,-0.006896,1.44265,0.00753061,0.0179256,1980,1093,68.0525,-6.40737
763,-69,68.0129,5.94055,-0.00847076,0.00831824,0.000818655,0.00835806,-0.00851059,1.52219,0.00973925,0.019794,1987,1093,68.0128,-5.94054
770,-69,67.9241,5.52563,-0.0103446,0.0114054,-0.000825723,0.0114367,-0.0103759,-1.5329,0.0125985,0.0218142,1994,1093,67.9242,-5.5257
777,-69,67.7708,5.15991,-0.0121042,0.0148696,-0.003168,0.0152367,-0.0124713,-1.45544,0.0160238,0.0259369,2001,1093,67.7708,-5.1599
784,-69,67.7366,4.68091,-0.0136121,0.0182781,-0.00598432,0.0193641,-0.0146981,-1.39128,0.0197272,0.0327466,2008,1093,67.7365,-4.68095
791,-69,67.6843,4.01465,-0.0147909,0.0215202,-0.00949209,0.0238518,-0.0171225,-1.32993,0.0237627,0.0430796,2015,1093,67.6843,-4.0146
798,-69,67.2361,2.03186,-0.015441,0.0243315,-0.0138783,0.0286954,-0.0198049,-1.26614,0.0281581,0.0439526,2022,1093,67.2362,-2.03185
805,-69,67.2795,1.02063,-0.0146943,0.0265321,-0.0190038,0.0339555,-0.0221176,-1.1984,0.0326134,0.0476677,2029,1093,67.2795,-1.02062
812,-69,67.4917,0.118652,0,0,0,0,0,0,0,-1,2036,1093,67.4917,-0.118635
-700,-76,0,0,0,0,0,0,0,0,0,-1,524,1100,0,0
-693,-76,-44.0942,-2.31824,0,0,0,0,0,0,0,-1,531,1100,-44.0942,2.31821
-686,-76,-46.9983,-2.60461,0,0,0,0,0,0,0,-1,538,1100,-46.9983,2.6046
-679,-76,-49.7622,-0.114868,0,0,0,0,0,0,0,-1,545,1100,-49.7622,0.114902
-672,-76,-50.6188,-0.18457,0,0,0,0,0,0,0,-1,552,1100,-50.6188,0.184523
-665,-76,-51.3574,0.274902,0,0,0,0,0,0,0,-1,559,1100,-51.3573,-0.274934
-658,-76,-51.7432,1.48462,0,0,0,0,0,0,0,-1,566,1100,-51.7432,-1.48463
-651,-76,-50.9943,3.14343,0,0,0,0,0,0,0,-1,573,1100,-50.9943,-3.14341
-644,-76,-51.8075,3.32629,-0.0179081,0.00560933,0.00554818,0.00685253,-0.0191513,1.35036,0.015563,0.0468858,580,1100,-51.8075,-3.32632
-637,-76,-52.1186,3.6875,-0.0127641,0.00537483,0.00314654,0.00590516,-0.0132944,1.40382,0.0113552,0.0234968,587,1100,-52.1186,-3.68745
-630,-76,-52.097,4.18225,-0.00795616,0.00451428,0.00058768,0.00454191,-0.00798379,1.52381,0.00732216,0.0165242,594,1100,-52.097,-4.18228
-623,-76,-52.1283,4.67407,-0.00337482,0.00284841,-0.000821554,0.00295504,-0.00348145,-1.44173,0.00372025,0.0217806,601,1100,-52.1283,-4.67409
-616,-76,-52.2087,5.20081,0.00050164,-0.00034086,-0.00166328,0.00179618,-0.0016354,-0.661374,0.00198195,0.022137,608,1100,-52.2087,-5.20086
-609,-76,-52.2155,5.66162,0.00415974,-0.00415661,-0.00254804,0.00487834,-0.00487521,-0.274881,0.00563121,0.0210118,615,1100,-52.2155,-5.66163
-602,-76,-52.1548,6.16162,0.00799225,-0.00774874,-0.00289358,0.00850731,-0.0082638,-0.176155,0.00968314,0.0211828,622,1100,-52.1549,-6.16167
-595,-76,-52.1633,6.60754,0.0125861,-0.0112765,-0.00247189,0.0128394,-0.0115298,-0.102143,0.0140764,0.0414341,629,1100,-52.1633,-6.60749
-588,-76,-52.2745,7.04224,0,0,0,0,0,0,0,-1,636,1100,-52.2745,-7.04228
-581,-76,-54.4269,0.37915,0,0,0,0,0,0,0,-1,643,1100,-54.4269,-0.379124
-574,-76,-54.3665,0.472168,0,0,0,0,0,0,0,-1,650,1100,-54.3665,-0.472195
-567,-76,-54.241,0.525635,0,0,0,0,0,0,0,-1,657,1100,-54.241,-0.525643
-560,-76,-54.2101,0.500854,0,0,0,0,0,0,0,-1,664,1100,-54.2101,-0.500821
-553,-76,-54.1869,0.538818,0,0,0,0,0,0,0,-1,671,1100,-54.1869,-0.538806
-546,-76,-54.2538,0.391602,0,0,0,0,0,0,0,-1,678,1100,-54.2538,-0.391644
-539,-76,-54.2635,0.239258,0,0,0,0,0,0,0,-1,685,1100,-54.2635,-0.239206
-532,-76,-54.1331,0.216553,0,0,0,0,0,0,0,-1,692,1100,-54.1331,-0.216508
-525,-76,0,0,0,0,0,0,0,0,0,-1,699,1100,0,0
-518,-76,0,0,0,0,0,0,0,0,0,-1,706,1100,0,0
-511,-76,0,0,0,0,0,0,0,0,0,-1,713,1100,0,0
-504,-76,0,0,0,0,0,0,0,0,0,-1,720,1100,0,0
-497,-76,0,0,0,0,0,0,0,0,0,-1,727,1100,0,0
-490,-76,0,0,0,0,0,0,0,0,0,-1,734,1100,0,0
-483,-76,0,0,0,0,0,0,0,0,0,-1,741,1100,0,0
-476,-76,0,0,0,0,0,0,0,0,0,-1,748,1100,0,0
-469,-76,0,0,0,0,0,0,0,0,0,-1,755,1100,0,0
-462,-76,0,0,0,0,0,0,0,0,0,-1,762,1100,0,0
-455,-76,0,0,0,0,0,0,0,0,0,-1,769,1100,0,0
-448,-76,0,0,0,0,0,0,0,0,0,-1,776,1100,0,0
-441,-76,0,0,0,0,0,0,0,0,0,-1,783,1100,0,0
-434,-76,0,0,0,0,0,0,0,0,0,-1,790,1100,0,0
-427,-76,0,0,0,0,0,0,0,0,0,-1,797,1100,0,0
-420,-76,0,0,0,0,0,0,0,0,0,-1,804,1100,0,0
-413,-76,0,0,0,0,0,0,0,0,0,-1,811,1100,0,0
-406,-76,0,0,0,0,0,0,0,0,0,-1,818,1100,0,0
-399,-76,0,0,0,0,0,0,0,0,0,-1,825,1100,0,0
-392,-76,0,0,0,0,0,0,0,0,0,-1,832,1100,0,0
-385,-76,0,0,0,0,0,0,0,0,0,-1,839,1100,0,0
-378,-76,0,0,0,0,0,0,0,0,0,-1,846,1100,0,0
-371,-76,0,0,0,0,0,0,0,0,0,-1,853,1100,0,0
-364,-76,0,0,0,0,0,0,0,0,0,-1,860,1100,0,0
-357,-76,0,0,0,0,0,0,0,0,0,-1,867,1100,0,0
-350,-76,0,0,0,0,0,0,0,0,0,-1,874,1100,0,0
-343,-76,0,0,0,0,0,0,0,0,0,-1,881,1100,0,0
-336,-76,0,0,0,0,0,0,0,0,0,-1,888,1100,0,0
-329,-76,0,0,0,0,0,0,0,0,0,-1,895,1100,0,0
-322,-76,0,0,0,0,0,0,0,0,0,-1,902,1100,0,0
-315,-76,0,0,0,0,0,0,0,0,0,-1,909,1100,0,0
-308,-76,0,0,0,0,0,0,0,0,0,-1,916,1100,0,0
-301,-76,0,0,0,0,0,0,0,0,0,-1,923,1100,0,0
-294,-76,0,0,0,0,0,0,0,0,0,-1,930,1100,0,0
-287,-76,0,0,0,0,0,0,0,0,0,-1,937,1100,0,0
-280,-76,0,0,0,0,0,0,0,0,0,-1,944,1100,0,0
-273,-76,0,0,0,0,0,0,0,0,0,-1,951,1100,0,0
-266,-76,0,0,0,0,0,0,0,0,0,-1,958,1100,0,0
-259,-76,0,0,0,0,0,0,0,0,0,-1,965,1100,0,0
-252,-76,0,0,0,0,0,0,0,0,0,-1,972,1100,0,0
-245,-76,0,0,0,0,0,0,0,0,0,-1,979,1100,0,0
-238,-76,0,0,0,0,0,0,0,0,0,-1,986,1100,0,0
-231,-76,0,0,0,0,0,0,0,0,0,-1,993,1100,0,0
-224,-76,0,0,0,0,0,0,0,0,0,-1,1000,1100,0,0
-217,-76,0,0,0,0,0,0,0,0,0,-1,1007,1100,0,0
-210,-76,0,0,0,0,0,0,0,0,0,-1,1014,1100,0,0
-203,-76,0,0,0,0,0,0,0,0,0,-1,1021,1100,0,0
-196,-76,0,0,0,0,0,0,0,0,0,-1,1028,1100,0,0
-189,-76,0,0,0,0,0,0,0,0,0,-1,1035,1100,0,0
-182,-76,0,0,0,0,0,0,0,0,0,-1,1042,1100,0,0
-175,-76,0,0,0,0,0,0,0,0,0,-1,1049,1100,0,0
-168,-76,0,0,0,0,0,0,0,0,0,-1,1056,1100,0,0
-161,-76,0,0,0,0,0,0,0,0,0,-1,1063,1100,0,0
-154,-76,0,0,0,0,0,0,0,0,0,-1,1070,1100,0,0
-147,-76,0,0,0,0,0,0,0,0,0,-1,1077,1100,0,0
-140,-76,0,0,0,0,0,0,0,0,0,-1,1084,1100,0,0
-133,-76,0,0,0,0,0,0,0,0,0,-1,1091,1100,0,0
-126,-76,0,0,0,0,0,0,0,0,0,-1,1098,1100,0,0
-119,-76,0,0,0,0,0,0,0,0,0,-1,1105,1100,0,0
-112,-76,0,0,0,0,0,0,0,0,0,-1,1112,1100,0,0
-105,-76,0,0,0,0,0,0,0,0,0,-1,1119,1100,0,0
-98,-76,0,0,0,0,0,0,0,0,0,-1,1126,1100,0,0
-91,-76,0,0,0,0,0,0,0,0,0,-1,1133,1100,0,0
-84,-76,0,0,0,0,0,0,0,0,0,-1,1140,1100,0,0
-77,-76,0,0,0,0,0,0,0,0,0,-1,1147,1100,0,0
-70,-76,0,0,0,0,0,0,0,0,0,-1,1154,1100,0,0
-63,-76,0,0,0,0,0,0,0,0,0,-1,1161,1100,0,0
-56,-76,0,0,0,0,0,0,0,0,0,-1,1168,1100,0,0
-49,-76,0,0,0,0,0,0,0,0,0,-1,1175,1100,0,0
-42,-76,0,0,0,0,0,0,0,0,0,-1,1182,1100,0,0
-35,-76,0,0,0,0,0,0,0,0,0,-1,1189,1100,0,0
-28,-76,0,0,0,0,0,0,0,0,0,-1,1196,1100,0,0
-21,-76,0,0,0,0,0,0,0,0,0,-1,1203,1100,0,0
-14,-76,0,0,0,0,0,0,0,0,0,-1,1210,1100,0,0
-7,-76,0,0,0,0,0,0,0,0,0,-1,1217,1100,0,0
0,-76,0,0,0,0,0,0,0,0,0,-1,1224,1100,0,0
7,-76,0,0,0,0,0,0,0,0,0,-1,1231,1100,0,0
14,-76,0,0,0,0,0,0,0,0,0,-1,1238,1100,0,0
21,-76,0,0,0,0,0,0,0,0,0,-1,1245,1100,0,0
28,-76,0,0,0,0,0,0,0,0,0,-1,1252,1100,0,0
35,-76,0,0,0,0,0,0,0,0,0,-1,1259,1100,0,0
42,-76,0,0,0,0,0,0,0,0,0,-1,1266,1100,0,0
49,-76,0,0,0,0,0,0,0,0,0,-1,1273,1100,0,0
56,-76,0,0,0,0,0,0,0,0,0,-1,1280,1100,0,0
63,-76,0,0,0,0,0,0,0,0,0,-1,1287,1100,0,0
70,-76,0,0,0,0,0,0,0,0,0,-1,1294,1100,0,0
77,-76,0,0,0,0,0,0,0,0,0,-1,1301,1100,0,0
84,-76,0,0,0,0,0,0,0,0,0,-1,1308,1100,0,0
91,-76,0,0,0,0,0,0,0,0,0,-1,1315,1100,0,0
98,-76,0,0,0,0,0,0,0,0,0,-1,1322,1100,0,0
105,-76,0,0,0,0,0,0,0,0,0,-1,1329,1100,0,0
112,-76,0,0,0,0,0,0,0,0,0,-1,1336,1100,0,0
119,-76,0,0,0,0,0,0,0,0,0,-1,1343,1100,0,0
126,-76,0,0,0,0,0,0,0,0,0,-1,1350,1100,0,0
133,-76,0,0,0,0,0,0,0,0,0,-1,1357,1100,0,0
140,-76,0,0,0,0,0,0,0,0,0,-1,1364,1100,0,0
147,-76,0,0,0,0,0,0,0,0,0,-1,1371,1100,0,0
154,-76,0,0,0,0,0,0,0,0,0,-1,1378,1100,0,0
161,-76,0,0,0,0,0,0,0,0,0,-1,1385,1100,0,0
168,-76,0,0,0,0,0,0,0,0,0,-1,1392,1100,0,0
175,-76,0,0,0,0,0,0,0,0,0,-1,1399,1100,0,0
182,-76,0,0,0,0,0,0,0,0,0,-1,1406,1100,0,0
189,-76,0,0,0,0,0,0,0,0,0,-1,1413,1100,0,0
196,-76,0,0,0,0,0,0,0,0,0,-1,1420,1100,0,0
203,-76,0,0,0,0,0,0,0,0,0,-1,1427,1100,0,0
210,-76,0,0,0,0,0,0,0,0,0,-1,1434,1100,0,0
217,-76,0,0,0,0,0,0,0,0,0,-1,1441,1100,0,0
224,-76,0,0,0,0,0,0,0,0,0,-1,1448,1100,0,0
231,-76,0,0,0,0,0,0,0,0,0,-1,1455,1100,0,0
238,-76,0,0,0,0,0,0,0,0,0,-1,1462,1100,0,0
245,-76,0,0,0,0,0,0,0,0,0,-1,1469,1100,0,0
252,-76,0,0,0,0,0,0,0,0,0,-1,1476,1100,0,0
259,-76,0,0,0,0,0,0,0,0,0,-1,1483,1100,0,0
266,-76,0,0,0,0,0,0,0,0,0,-1,1490,1100,0,0
273,-76,0,0,0,0,0,0,0,0,0,-1,1497,1100,0,0
280,-76,0,0,0,0,0,0,0,0,0,-1,1504,1100,0,0
287,-76,0,0,0,0,0,0,0,0,0,-1,1511,1100,0,0
294,-76,0,0,0,0,0,0,0,0,0,-1,1518,1100,0,0
301,-76,0,0,0,0,0,0,0,0,0,-1,1525,1100,0,0
308,-76,0,0,0,0,0,0,0,0,0,-1,1532,1100,0,0
315,-76,0,0,0,0,0,0,0,0,0,-1,1539,1100,0,0
322,-76,0,0,0,0,0,0,0,0,0,-1,1546,1100,0,0
329,-76,0,0,0,0,0,0,0,0,0,-1,1553,1100,0,0
336,-76,0,0,0,0,0,0,0,0,0,-1,1560,1100,0,0
343,-76,0,0,0,0,0,0,0,0,0,-1,1567,1100,0,0
350,-76,0,0,0,0,0,0,0,0,0,-1,1574,1100,0,0
357,-76,0,0,0,0,0,0,0,0,0,-1,1581,1100,0,0
364,-76,0,0,0,0,0,0,0,0,0,-1,1588,1100,0,0
371,-76,0,0,0,0,0,0,0,0,0,-1,1595,1100,0,0
378,-76,0,0,0,0,0,0,0,0,0,-1,1602,1100,0,0
385,-76,0,0,0,0,0,0,0,0,0,-1,1609,1100,0,0
392,-76,0,0,0,0,0,0,0,0,0,-1,1616,1100,0,0
399,-76,0,0,0,0,0,0,0,0,0,-1,1623,1100,0,0
406,-76,0,0,0,0,0,0,0,0,0,-1,1630,1100,0,0
413,-76,0,0,0,0,0,0,0,0,0,-1,1637,1100,0,0
420,-76,0,0,0,0,0,0,0,0,0,-1,1644,1100,0,0
427,-76,0,0,0,0,0,0,0,0,0,-1,1651,1100,0,0
434,-76,0,0,0,0,0,0,0,0,0,-1,1658,1100,0,0
441,-76,0,0,0,0,0,0,0,0,0,-1,1665,1100,0,0
448,-76,0,0,0,0,0,0,0,0,0,-1,1672,1100,0,0
455,-76,0,0,0,0,0,0,0,0,0,-1,1679,1100,0,0
462,-76,0,0,0,0,0,0,0,0,0,-1,1686,1100,0,0
469,-76,0,0,0,0,0,0,0,0,0,-1,1693,1100,0,0
476,-76,0,0,0,0,0,0,0,0,0,-1,1700,1100,0,0
483,-76,0,0,0,0,0,0,0,0,0,-1,1707,1100,0,0
490,-76,0,0,0,0,0,0,0,0,0,-1,1714,1100,0,0
497,-76,0,0,0,0,0,0,0,0,0,-1,1721,1100,0,0
504,-76,0,0,0,0,0,0,0,0,0,-1,1728,1100,0,0
511,-76,0,0,0,0,0,0,0,0,0,-1,1735,1100,0,0
518,-76,0,0,0,0,0,0,0,0,0,-1,1742,1100,0,0
525,-76,0,0,0,0,0,0,0,0,0,-1,1749,1100,0,0
532,-76,0,0,0,0,0,0,0,0,0,-1,1756,1100,0,0
539,-76,0,0,0,0,0,0,0,0,0,-1,1763,1100,0,0
546,-76,0,0,0,0,0,0,0,0,0,-1,1770,1100,0,0
553,-76,0,0,0,0,0,0,0,0,0,-1,1777,1100,0,0
560,-76,0,0,0,0,0,0,0,0,0,-1,1784,1100,0,0
567,-76,0,0,0,0,0,0,0,0,0,-1,1791,1100,0,0
574,-76,0,0,0,0,0,0,0,0,0,-1,1798,1100,0,0
581,-76,0,0,0,0,0,0,0,0,0,-1,1805,1100,0,0
588,-76,0,0,0,0,0,0,0,0,0,-1,1812,1100,0,0
595,-76,0,0,0,0,0,0,0,0,0,-1,1819,1100,0,0
602,-76,0,0,0,0,0,0,0,0,0,-1,1826,1100,0,0
609,-76,0,0,0,0,0,0,0,0,0,-1,1833,1100,0,0
616,-76,0,0,0,0,0,0,0,0,0,-1,1840,1100,0,0
623,-76,0,0,0,0,0,0,0,0,0,-1,1847,1100,0,0
630,-76,0,0,0,0,0,0,0,0,0,-1,1854,1100,0,0
637,-76,0,0,0,0,0,0,0,0,0,-1,1861,1100,0,0
644,-76,0,0,0,0,0,0,0,0,0,-1,1868,1100,0,0
651,-76,70.8097,1.99756,0.00440883,-0.00137407,0.00234956,0.00524309,-0.00220833,0.341185,0.00441941,0.0403359,1875,1100,70.8097,-1.99759
658,-76,70.7286,2.03748,0.00367452,-0.00105891,0.00156576,0.00414557,-0.00152996,0.292234,0.00339078,0.0410602,1882,1100,70.7286,-2.03744
665,-76,70.8862,2.03845,0.00304873,-0.000848341,0.000986838,0.00328438,-0.00108398,0.234397,0.00262656,0.0375372,1889,1100,70.8863,-2.0385
672,-76,70.9475,2.20837,0.00246612,-0.000613394,0.000532332,0.00255554,-0.000702817,0.166431,0.00197999,0.0349705,1896,1100,70.9476,-2.20837
679,-76,70.9341,2.13684,0.00193646,-0.000422339,0.000200549,0.00195339,-0.000439269,0.0842161,0.00147071,0.0349575,1903,1100,70.9341,-2.13682
686,-76,71.0026,2.08105,0.00155952,-0.000422742,6.12968e-05,0.00156141,-0.000424635,0.0308834,0.00120763,0.0365179,1910,1100,71.0026,-2.081
693,-76,71.0204,2.14856,0.00118737,-0.000567525,0.000123434,0.00119601,-0.000576165,0.069878,0.00104382,0.037078,1917,1100,71.0204,-2.14853
700,-76,70.9359,2.17297,0.000961618,-0.000561017,0.000305665,0.00102069,-0.000620086,0.190897,0.000956667,0.0320423,1924,1100,70.9359,-2.17295
707,-76,70.9247,2.16125,0.000638417,-0.000390584,0.000590358,0.000907009,-0.000659176,0.426974,0.000908003,0.0226713,1931,1100,70.9247,-2.16123
714,-76,70.9976,2.18787,0,0,0,0,0,0,0,-1,1938,1100,70.9976,-2.18784
721,-76,45.1713,3.04919,0,0,0,0,0,0,0,-1,1945,1100,45.1713,-3.04915
728,-76,60.937,8.08447,0,0,0,0,0,0,0,-1,1952,1100,60.937,-8.08446
735,-76,67.7234,7.98718,0,0,0,0,0,0,0,-1,1959,1100,67.7233,-7.98713
742,-76,67.5909,7.43323,-0.00361349,0.00247575,0.00210156,0.00313063,-0.00426836,1.26872,0.00428861,0.0352009,1966,1100,67.591,-7.43324
749,-76,67.4512,6.87732,-0.00474389,0.00401547,0.00196568,0.00443636,-0.00516479,1.35986,0.00554854,0.0341774,1973,1100,67.4512,-6.87731
756,-76,67.5237,6.40564,-0.00629079,0.00536063,0.00170329,0.00560453,-0.00653469,1.42857,0.00701543,0.0184008,1980,1100,67.5237,-6.40564
763,-76,67.4673,5.9093,-0.00836976,0.00754548,0.000955242,0.00760261,-0.00842689,1.51106,0.00925871,0.0185687,1987,1100,67.4674,-5.90931
770,-76,67.3477,5.47693,-0.0106933,0.0102673,-0.000582515,0.0102835,-0.0107095,-1.54303,0.0121211,0.0204811,1994,1100,67.3476,-5.47697
777,-76,67.2124,5.18591,-0.0130033,0.0131651,-0.0027687,0.0134548,-0.013293,-1.46653,0.015443,0.0232738,2001,1100,67.2125,-5.18592
784,-76,67.1565,4.63135,-0.0151292,0.0159007,-0.00543664,0.0168257,-0.0160542,-1.40228,0.0189849,0.0338538,2008,1100,67.1566,-4.6314
791,-76,66.6931,3.92883,-0.0170081,0.0182932,-0.0087917,0.0203616,-0.0190765,-1.33974,0.0227736,0.0398216,2015,1100,66.6932,-3.92878
798,-76,66.4016,2.31567,-0.0185684,0.0199744,-0.0130358,0.0239693,-0.0225632,-1.27343,0.0268697,0.0419987,2022,1100,66.4016,-2.31563
805,-76,66.3398,1.3407,-0.019061,0.0206352,-0.0180763,0.027633,-0.0260587,-1.20144,0.0310034,0.0476543,2029,1100,66.3399,-1.34069
812,-76,66.5347,0.612427,0,0,0,0,0,0,0,-1,2036,1100,66.5348,-0.612373
-700,-83,0,0,0,0,0,0,0,0,0,-1,524,1107,0,0
-693,-83,-47.1136,-3.38416,0,0,0,0,0,0,0,-1,531,1107,-47.1136,3.3841
-686,-83,-47.686,-1.89917,-0.0515867,-0.0175913,0.032826,0.00237673,-0.0715548,1.0243,0.0485149,0.0457768,538,1107,-47.686,1.89917
-679,-83,-48.5069,-0.248047,-0.0450347,-0.00980992,0.0241417,0.00246106,-0.0573057,1.10054,0.03905,0.0476124,545,1107,-48.5069,0.247988
-672,-83,-50.8801,0.924072,0,0,0,0,0,0,0,-1,552,1107,-50.8801,-0.924046
-665,-83,-51.0008,0.180542,0,0,0,0,0,0,0,-1,559,1107,-51.0008,-0.180521
-658,-83,-51.0806,1.63428,0,0,0,0,0,0,0,-1,566,1107,-51.0806,-1.63425
-651,-83,-50.8672,2.81812,0,0,0,0,0,0,0,-1,573,1107,-50.8673,-2.81815
-644,-83,-51.2532,3.18579,-0.0163379,0.00499729,0.00375272,0.00563812,-0.0169787,1.40166,0.013594,0.0336646,580,1107,-51.2532,-3.1858
-637,-83,-51.4789,3.64026,-0.011647,0.00469656,0.00187484,0.00490887,-0.0118593,1.45803,0.00995447,0.0148901,587,1107,-51.4789,-3.6403
-630,-83,-51.5283,4.19739,-0.00720747,0.0040225,-0.000235709,0.00402744,-0.00721242,-1.54982,0.00657561,0.0163494,594,1107,-51.5283,-4.19734
-623,-83,-51.5792,4.67908,-0.0029725,0.00235878,-0.0011088,0.00258019,-0.00319391,-1.3737,0.00333995,0.0215527,601,1107,-51.5792,-4.67903
-616,-83,-51.699,5.19861,0.000768299,-0.000587474,-0.00148677,0.00172443,-0.0015436,-0.571504,0.00188776,0.0184272,608,1107,-51.6989,-5.19864
-609,-83,-51.6571,5.68103,0.00445578,-0.0038823,-0.00200239,0.00491172,-0.00433824,-0.223882,0.00534389,0.0220113,615,1107,-51.6571,-5.68106
-602,-83,-51.648,6.2467,0.00847852,-0.00704343,-0.00198267,0.00872777,-0.00729269,-0.125059,0.00926178,0.0203968,622,1107,-51.648,-6.24668
-595,-83,-51.5832,6.76904,0.0136043,-0.0103809,-0.00124358,0.0136686,-0.0104452,-0.0516632,0.0139635,0.0309967,629,1107,-51.5832,-6.7691
-588,-83,-51.6508,7.1853,0,0,0,0,0,0,0,-1,636,1107,-51.6507,-7.18529
-581,-83,-54.3865,0.366211,0,0,0,0,0,0,0,-1,643,1107,-54.3865,-0.366229
-574,-83,-54.3713,0.529053,0,0,0,0,0,0,0,-1,650,1107,-54.3713,-0.528994
-567,-83,-54.269,0.639038,0,0,0,0,0,0,0,-1,657,1107,-54.269,-0.639072
-560,-83,-54.2351,0.472778,0,0,0,0,0,0,0,-1,664,1107,-54.2351,-0.472742
-553,-83,-54.2579,0.518188,0,0,0,0,0,0,0,-1,671,1107,-54.2579,-0.518188
-546,-83,-54.2403,0.61145,0,0,0,0,0,0,0,-1,678,1107,-54.2403,-0.611478
-539,-83,-54.1813,-0.0568848,0,0,0,0,0,0,0,-1,685,1107,-54.1813,0.0568441
-532,-83,-54.2052,0.203979,0,0,0,0,0,0,0,-1,692,1107,-54.2052,-0.20395
-525,-83,0,0,0,0,0,0,0,0,0,-1,699,1107,0,0
-518,-83,0,0,0,0,0,0,0,0,0,-1,706,1107,0,0
-511,-83,0,0,0,0,0,0,0,0,0,-1,713,1107,0,0
-504,-83,0,0,0,0,0,0,0,0,0,-1,720,1107,0,0
-497,-83,0,0,0,0,0,0,0,0,0,-1,727,1107,0,0
-490,-83,0,0,0,0,0,0,0,0,0,-1,734,1107,0,0
-483,-83,0,0,0,0,0,0,0,0,0,-1,741,1107,0,0
-476,-83,0,0,0,0,0,0,0,0,0,-1,748,1107,0,0
-469,-83,0,0,0,0,0,0,0,0,0,-1,755,1107,0,0
-462,-83,0,0,0,0,0,0,0,0,0,-1,762,1107,0,0
-455,-83,0,0,0,0,0,0,0,0,0,-1,769,1107,0,0
-448,-83,0,0,0,0,0,0,0,0,0,-1,776,1107,0,0
-441,-83,0,0,0,0,0,0,0,0,0,-1,783,1107,0,0
-434,-83,0,0,0,0,0,0,0,0,0,-1,790,1107,0,0
-427,-83,0,0,0,0,0,0,0,0,0,-1,797,1107,0,0
-420,-83,0,0,0,0,0,0,0,0,0,-1,804,1107,0,0
-413,-83,0,0,0,0,0,0,0,0,0,-1,811,1107,0,0
-406,-83,0,0,0,0,0,0,0,0,0,-1,818,1107,0,0
-399,-83,0,0,0,0,0,0,0,0,0,-1,825,1107,0,0
-392,-83,0,0,0,0,0,0,0,0,0,-1,832,1107,0,0
-385,-83,0,0,0,0,0,0,0,0,0,-1,839,1107,0,0
-378,-83,0,0,0,0,0,0,0,0,0,-1,846,1107,0,0
-371,-83,0,0,0,0,0,0,0,0,0,-1,853,1107,0,0
-364,-83,0,0,0,0,0,0,0,0,0,-1,860,1107,0,0
-357,-83,0,0,0,0,0,0,0,0,0,-1,867,1107,0,0
-350,-83,0,0,0,0,0,0,0,0,0,-1,874,1107,0,0
-343,-83,0,0,0,0,0,0,0,0,0,-1,881,1107,0,0
-336,-83,0,0,0,0,0,0,0,0,0,-1,888,1107,0,0
-329,-83,0,0,0,0,0,0,0,0,0,-1,895,1107,0,0
-322,-83,0,0,0,0,0,0,0,0,0,-1,902,1107,0,0
-315,-83,0,0,0,0,0,0,0,0,0,-1,909,1107,0,0
-308,-83,0,0,0,0,0,0,0,0,0,-1,916,1107,0,0
-301,-83,0,0,0,0,0,0,0,0,0,-1,923,1107,0,0
-294,-83,0,0,0,0,0,0,0,0,0,-1,930,1107,0,0
-287,-83,0,0,0,0,0,0,0,0,0,-1,937,1107,0,0
-280,-83,0,0,0,0,0,0,0,0,0,-1,944,1107,0,0
-273,-83,0,0,0,0,0,0,0,0,0,-1,951,1107,0,0
-266,-83,0,0,0,0,0,0,0,0,0,-1,958,1107,0,0
-259,-83,0,0,0,0,0,0,0,0,0,-1,965,1107,0,0
-252,-83,0,0,0,0,0,0,0,0,0,-1,972,1107,0,0
-245,-83,0,0,0,0,0,0,0,0,0,-1,979,1107,0,0
-238,-83,0,0,0,0,0,0,0,0,0,-1,986,1107,0,0
-231,-83,0,0,0,0,0,0,0,0,0,-1,993,1107,0,0
-224,-83,0,0,0,0,0,0,0,0,0,-1,1000,1107,0,0
-217,-83,0,0,0,0,0,0,0,0,0,-1,1007,1107,0,0
-210,-83,0,0,0,0,0,0,0,0,0,-1,1014,1107,0,0
-203,-83,0,0,0,0,0,0,0,0,0,-1,1021,1107,0,0
-196,-83,0,0,0,0,0,0,0,0,0,-1,1028,1107,0,0
-189,-83,0,0,0,0,0,0,0,0,0,-1,1035,1107,0,0
-182,-83,0,0,0,0,0,0,0,0,0,-1,1042,1107,0,0
-175,-83,0,0,0,0,0,0,0,0,0,-1,1049,1107,0,0
-168,-83,0,0,0,0,0,0,0,0,0,-1,1056,1107,0,0
-161,-83,0,0,0,0,0,0,0,0,0,-1,1063,1107,0,0
-154,-83,0,0,0,0,0,0,0,0,0,-1,1070,1107,0,0
-147,-83,0,0,0,0,0,0,0,0,0,-1,1077,1107,0,0
-140,-83,0,0,0,0,0,0,0,0,0,-1,1084,1107,0,0
-133,-83,0,0,0,0,0,0,0,0,0,-1,1091,1107,0,0
-126,-83,0,0,0,0,0,0,0,0,0,-1,1098,1107,0,0
-119,-83,0,0,0,0,0,0,0,0,0,-1,1105,1107,0,0
-112,-83,0,0,0,0,0,0,0,0,0,-1,1112,1107,0,0
-105,-83,0,0,0,0,0,0,0,0,0,-1,1119,1107,0,0
-98,-83,0,0,0,0,0,0,0,0,0,-1,1126,1107,0,0
-91,-83,0,0,0,0,0,0,0,0,0,-1,1133,1107,0,0
-84,-83,0,0,0,0,0,0,0,0,0,-1,1140,1107,0,0
-77,-83,0,0,0,0,0,0,0,0,0,-1,1147,1107,0,0
-70,-83,0,0,0,0,0,0,0,0,0,-1,1154,1107,0,0
-63,-83,0,0,0,0,0,0,0,0,0,-1,1161,1107,0,0
-56,-83,0,0,0,0,0,0,0,0,0,-1,1168,1107,0,0
-49,-83,0,0,0,0,0,0,0,0,0,-1,1175,1107,0,0
-42,-83,0,0,0,0,0,0,0,0,0,-1,1182,1107,0,0
-35,-83,0,0,0,0,0,0,0,0,0,-1,1189,1107,0,0
-28,-83,0,0,0,0,0,0,0,0,0,-1,1196,1107,0,0
-21,-83,0,0,0,0,0,0,0,0,0,-1,1203,1107,0,0
-14,-83,0,0,0,0,0,0,0,0,0,-1,1210,1107,0,0
-7,-83,0,0,0,0,0,0,0,0,0,-1,1217,1107,0,0
0,-83,0,0,0,0,0,0,0,0,0,-1,1224,1107,0,0
7,-83,0,0,0,0,0,0,0,0,0,-1,1231,1107,0,0
14,-83,0,0,0,0,0,0,0,0,0,-1,1238,1107,0,0
21,-83,0,0,0,0,0,0,0,0,0,-1,1245,1107,0,0
28,-83,0,0,0,0,0,0,0,0,0,-1,1252,1107,0,0
35,-83,0,0,0,0,0,0,0,0,0,-1,1259,1107,0,0
42,-83,0,0,0,0,0,0,0,0,0,-1,1266,1107,0,0
49,-83,0,0,0,0,0,0,0,0,0,-1,1273,1107,0,0
56,-83,0,0,0,0,0,0,0,0,0,-1,1280,1107,0,0
63,-83,0,0,0,0,0,0,0,0,0,-1,1287,1107,0,0
70,-83,0,0,0,0,0,0,0,0,0,-1,1294,1107,0,0
77,-83,0,0,0,0,0,0,0,0,0,-1,1301,1107,0,0
84,-83,0,0,0,0,0,0,0,0,0,-1,1308,1107,0,0
91,-83,0,0,0,0,0,0,0,0,0,-1,1315,1107,0,0
98,-83,0,0,0,0,0,0,0,0,0,-1,1322,1107,0,0
105,-83,0,0,0,0,0,0,0,0,0,-1,1329,1107,0,0
112,-83,0,0,0,0,0,0,0,0,0,-1,1336,1107,0,0
119,-83,0,0,0,0,0,0,0,0,0,-1,1343,1107,0,0
126,-83,0,0,0,0,0,0,0,0,0,-1,1350,1107,0,0
133,-83,0,0,0,0,0,0,0,0,0,-1,1357,1107,0,0
140,-83,0,0,0,0,0,0,0,0,0,-1,1364,1107,0,0
147,-83,0,0,0,0,0,0,0,0,0,-1,1371,1107,0,0
154,-83,0,0,0,0,0,0,0,0,0,-1,1378,1107,0,0
161,-83,0,0,0,0,0,0,0,0,0,-1,1385,1107,0,0
168,-83,0,0,0,0,0,0,0,0,0,-1,1392,1107,0,0
175,-83,0,0,0,0,0,0,0,0,0,-1,1399,1107,0,0
182,-83,0,0,0,0,0,0,0,0,0,-1,1406,1107,0,0
189,-83,0,0,0,0,0,0,0,0,0,-1,1413,1107,0,0
196,-83,0,0,0,0,0,0,0,0,0,-1,1420,1107,0,0
203,-83,0,0,0,0,0,0,0,0,0,-1,1427,1107,0,0
210,-83,0,0,0,0,0,0,0,0,0,-1,1434,1107,0,0
217,-83,0,0,0,0,0,0,0,0,0,-1,1441,1107,0,0
224,-83,0,0,0,0,0,0,0,0,0,-1,1448,1107,0,0
231,-83,0,0,0,0,0,0,0,0,0,-1,1455,1107,0,0
238,-83,0,0,0,0,0,0,0,0,0,-1,1462,1107,0,0
245,-83,0,0,0,0,0,0,0,0,0,-1,1469,1107,0,0
252,-83,0,0,0,0,0,0,0,0,0,-1,1476,1107,0,0
259,-83,0,0,0,0,0,0,0,0,0,-1,1483,1107,0,0
266,-83,0,0,0,0,0,0,0,0,0,-1,1490,1107,0,0
273,-83,0,0,0,0,0,0,0,0,0,-1,1497,1107,0,0
280,-83,0,0,0,0,0,0,0,0,0,-1,1504,1107,0,0
287,-83,0,0,0,0,0,0,0,0,0,-1,1511,1107,0,0
294,-83,0,0,0,0,0,0,0,0,0,-1,1518,1107,0,0
301,-83,0,0,0,0,0,0,0,0,0,-1,1525,1107,0,0
308,-83,0,0,0,0,0,0,0,0,0,-1,1532,1107,0,0
315,-83,0,0,0,0,0,0,0,0,0,-1,1539,1107,0,0
322,-83,0,0,0,0,0,0,0,0,0,-1,1546,1107,0,0
329,-83,0,0,0,0,0,0,0,0,0,-1,1553,1107,0,0
336,-83,0,0,0,0,0,0,0,0,0,-1,1560,1107,0,0
343,-83,0,0,0,0,0,0,0,0,0,-1,1567,1107,0,0
350,-83,0,0,0,0,0,0,0,0,0,-1,1574,1107,0,0
357,-83,0,0,0,0,0,0,0,0,0,-1,1581,1107,0,0
364,-83,0,0,0,0,0,0,0,0,0,-1,1588,1107,0,0
371,-83,0,0,0,0,0,0,0,0,0,-1,1595,1107,0,0
378,-83,0,0,0,0,0,0,0,0,0,-1,1602,1107,0,0
385,-83,0,0,0,0,0,0,0,0,0,-1,1609,1107,0,0
392,-83,0,0,0,0,0,0,0,0,0,-1,1616,1107,0,0
399,-83,0,0,0,0,0,0,0,0,0,-1,1623,1107,0,0
406,-83,0,0,0,0,0,0,0,0,0,-1,1630,1107,0,0
413,-83,0,0,0,0,0,0,0,0,0,-1,1637,1107,0,0
420,-83,0,0,0,0,0,0,0,0,0,-1,1644,1107,0,0
427,-83,0,0,0,0,0,0,0,0,0,-1,1651,1107,0,0
434,-83,0,0,0,0,0,0,0,0,0,-1,1658,1107,0,0
441,-83,0,0,0,0,0,0,0,0,0,-1,1665,1107,0,0
448,-83,0,0,0,0,0,0,0,0,0,-1,1672,1107,0,0
455,-83,0,0,0,0,0,0,0,0,0,-1,1679,1107,0,0
462,-83,0,0,0,0,0,0,0,0,0,-1,1686,1107,0,0
469,-83,0,0,0,0,0,0,0,0,0,-1,1693,1107,0,0
476,-83,0,0,0,0,0,0,0,0,0,-1,1700,1107,0,0
483,-83,0,0,0,0,0,0,0,0,0,-1,1707,1107,0,0
490,-83,0,0,0,0,0,0,0,0,0,-1,1714,1107,0,0
497,-83,0,0,0,0,0,0,0,0,0,-1,1721,1107,0,0
504,-83,0,0,0,0,0,0,0,0,0,-1,1728,1107,0,0
511,-83,0,0,0,0,0,0,0,0,0,-1,1735,1107,0,0
518,-83,0,0,0,0,0,0,0,0,0,-1,1742,1107,0,0
525,-83,0,0,0,0,0,0,0,0,0,-1,1749,1107,0,0
532,-83,0,0,0,0,0,0,0,0,0,-1,1756,1107,0,0
539,-83,0,0,0,0,0,0,0,0,0,-1,1763,1107,0,0
546,-83,0,0,0,0,0,0,0,0,0,-1,1770,1107,0,0
553,-83,0,0,0,0,0,0,0,0,0,-1,1777,1107,0,0
560,-83,0,0,0,0,0,0,0,0,0,-1,1784,1107,0,0
567,-83,0,0,0,0,0,0,0,0,0,-1,1791,1107,0,0
574,-83,0,0,0,0,0,0,0,0,0,-1,1798,1107,0,0
581,-83,0,0,0,0,0,0,0,0,0,-1,1805,1107,0,0
588,-83,0,0,0,0,0,0,0,0,0,-1,1812,1107,0,0
595,-83,0,0,0,0,0,0,0,0,0,-1,1819,1107,0,0
602,-83,0,0,0,0,0,0,0,0,0,-1,1826,1107,0,0
609,-83,0,0,0,0,0,0,0,0,0,-1,1833,1107,0,0
616,-83,0,0,0,0,0,0,0,0,0,-1,1840,1107,0,0
623,-83,0,0,0,0,0,0,0,0,0,-1,1847,1107,0,0
630,-83,0,0,0,0,0,0,0,0,0,-1,1854,1107,0,0
637,-83,0,0,0,0,0,0,0,0,0,-1,1861,1107,0,0
644,-83,70.9407,2.1759,0.0058224,-0.0019599,0.00245293,0.00653102,-0.00266852,0.281232,0.00546518,0.0344554,1868,1107,70.9406,-2.17593
651,-83,70.8472,2.15698,0.00485048,-0.0013069,0.00153363,0.00521132,-0.00166774,0.23108,0.00414355,0.0393227,1875,1107,70.8472,-2.15702
658,-83,70.7473,2.14197,0.00397894,-0.000993623,0.000991397,0.00416931,-0.00118399,0.189713,0.00324697,0.0430501,1882,1107,70.7474,-2.14193
665,-83,70.8407,2.13342,0.0032566,-0.000763864,0.000571694,0.00333631,-0.000843576,0.138539,0.0025523,0.0407255,1889,1107,70.8408,-2.13346
672,-83,70.8739,2.13391,0.00259655,-0.000526769,0.000229361,0.0026133,-0.000543522,0.0729137,0.0019488,0.0372745,1896,1107,70.8739,-2.13395
679,-83,70.9382,2.09875,0.002046,-0.000374894,-4.06475e-06,0.002046,-0.0003749,-0.00167902,0.00150462,0.035939,1903,1107,70.9382,-2.09881
686,-83,71.0292,2.08105,0.00175533,-0.000410093,-0.00010122,0.00176005,-0.000414814,-0.0466084,0.00133333,0.0341444,1910,1107,71.0292,-2.08111
693,-83,71.019,2.16724,0.00145905,-0.000557291,-3.31666e-05,0.0014596,-0.000557836,-0.016443,0.00120293,0.0348176,1917,1107,71.0191,-2.16726
700,-83,70.9321,2.2113,0.00128565,-0.000556091,0.00013836,0.00129599,-0.000566427,0.074567,0.00110242,0.030735,1924,1107,70.9321,-2.21133
707,-83,70.9387,2.17847,0.00101835,-0.000398907,0.00043339,0.00114038,-0.000520929,0.274448,0.000981129,0.0220449,1931,1107,70.9387,-2.17848
714,-83,70.9769,2.16394,0,0,0,0,0,0,0,-1,1938,1107,70.977,-2.16389
721,-83,49.1162,7.36719,0,0,0,0,0,0,0,-1,1945,1107,49.1162,-7.36721
728,-83,66.6315,8.32141,0,0,0,0,0,0,0,-1,1952,1107,66.6314,-8.32147
735,-83,66.7828,7.88354,-0.00207446,0.00150109,0.00182251,0.00226629,-0.00283966,1.17329,0.00295411,0.0498335,1959,1107,66.7828,-7.88356
742,-83,66.9382,7.42017,-0.00302203,0.00219864,0.00194435,0.00284321,-0.00366659,1.25069,0.00376844,0.030602,1966,1107,66.9383,-7.42019
749,-83,67.026,6.90955,-0.00420598,0.00354827,0.00185701,0.00397005,-0.00462776,1.34746,0.00496878,0.0205676,1973,1107,67.026,-6.90951
756,-83,67.0215,6.39612,-0.00592595,0.00477243,0.00165341,0.00502213,-0.00617565,1.42091,0.00647647,0.0179457,1980,1107,67.0215,-6.39612
763,-83,66.97,5.875,-0.00827319,0.0067092,0.000970368,0.00677179,-0.00833577,1.50639,0.00873792,0.0134154,1987,1107,66.97,-5.87504
770,-83,66.8555,5.448,-0.0109839,0.00899331,-0.000448413,0.00900337,-0.010994,-1.54837,0.0115645,0.0172132,1994,1107,66.8555,-5.44795
777,-83,66.6992,4.99536,-0.0137524,0.0112609,-0.00244255,0.0114972,-0.0139886,-1.47436,0.0147377,0.0186068,2001,1107,66.6992,-4.99537
784,-83,66.4878,4.49475,-0.0164082,0.0132455,-0.00491263,0.0140382,-0.0172008,-1.41082,0.0180666,0.0279388,2008,1107,66.4878,-4.49477
791,-83,66.0442,3.58008,-0.0189,0.0146907,-0.00806219,0.0165255,-0.0207348,-1.34703,0.021558,0.0400169,2015,1107,66.0441,-3.58008
798,-83,65.606,2.69214,-0.0212526,0.0151247,-0.0120763,0.0187686,-0.0248965,-1.27774,0.0252927,0.0444108,2022,1107,65.6059,-2.69212
805,-83,65.2075,1.7478,-0.0227823,0.0141085,-0.016877,0.0206644,-0.0293382,-1.20028,0.0290135,0.0498208,2029,1107,65.2074,-1.74786
812,-83,64.751,0.881592,0,0,0,0,0,0,0,-1,2036,1107,64.7509,-0.881559
-700,-90,0,0,0,0,0,0,0,0,0,-1,524,1114,0,0
-693,-90,-48.0653,-1.99597,0,0,0,0,0,0,0,-1,531,1114,-48.0653,1.99593
-686,-90,-48.4423,-0.923218,-0.0491731,-0.00775282,0.0244193,0.00355595,-0.0604819,1.13709,0.0415573,0.0434937,538,1114,-48.4423,0.923206
-679,-90,-48.7848,0.168579,-0.0418223,-0.0010037,0.0165843,0.00488486,-0.0477108,1.22961,0.0335542,0.0420467,545,1114,-48.7847,-0.168573
-672,-90,-50.234,0.738647,-0.0349241,0.00315945,0.0112405,0.00622961,-0.0379942,1.30417,0.027641,0.0474702,552,1114,-50.234,-0.738689
-665,-90,-50.4768,1.09595,-0.0289683,0.00566903,0.0074678,0.00721049,-0.0305098,1.36724,0.0231212,0.0497559,559,1114,-50.4768,-1.09596
-658,-90,-50.5955,1.60425,-0.0237334,0.0070159,0.00469342,0.00771633,-0.0244338,1.42265,0.0193803,0.0498355,566,1114,-50.5955,-1.60425
-651,-90,-50.6954,2.25049,-0.0189442,0.00742928,0.00264687,0.0076923,-0.0192073,1.47175,0.0159977,0.0397319,573,1114,-50.6954,-2.25047
-644,-90,-50.837,2.93799,-0.0144507,0.00699629,0.00114575,0.00705733,-0.0145118,1.51758,0.0126984,0.0200444,580,1114,-50.837,-2.93797
-637,-90,-50.91,3.60352,-0.0102908,0.00594061,4.15808e-06,0.00594061,-0.0102908,1.57054,0.00948275,0.0151078,587,1114,-50.9101,-3.60355
-630,-90,-50.9636,4.16394,-0.00628197,0.00482306,-0.00142425,0.00500282,-0.00646172,-1.44525,0.0066369,0.0128511,594,1114,-50.9636,-4.16394
-623,-90,-50.9949,4.71228,-0.00247742,0.00266334,-0.00162572,0.00313431,-0.00294839,-1.28882,0.0035124,0.0133114,601,1114,-50.9949,-4.71233
-616,-90,-51.0521,5.26782,0.000998498,-0.000517006,-0.00141477,0.00184566,-0.00136417,-0.539537,0.00186013,0.0155233,608,1114,-51.0521,-5.26783
-609,-90,-51.0245,5.82898,0.00465501,-0.00355315,-0.00147951,0.00491354,-0.00381169,-0.172998,0.00505089,0.0236279,615,1114,-51.0245,-5.82895
-602,-90,-51.1396,6.31384,0.0088597,-0.00633885,-0.00114656,0.00894571,-0.00642486,-0.0748741,0.0089139,0.0240758,622,1114,-51.1397,-6.31387
-595,-90,-50.9933,6.95642,0.0144991,-0.00946115,-9.41793e-05,0.0144995,-0.00946152,-0.00393057,0.0139354,0.0249803,629,1114,-50.9933,-6.95645
-588,-90,-51.0769,7.44373,0,0,0,0,0,0,0,-1,636,1114,-51.0769,-7.44375
-581,-90,-54.4238,0.557373,0,0,0,0,0,0,0,-1,643,1114,-54.4238,-0.557326
-574,-90,-54.4004,0.533325,0,0,0,0,0,0,0,-1,650,1114,-54.4004,-0.533292
-567,-90,-54.3864,0.4646,0,0,0,0,0,0,0,-1,657,1114,-54.3864,-0.464562
-560,-90,-54.3537,0.467896,0,0,0,0,0,0,0,-1,664,1114,-54.3537,-0.467859
-553,-90,-54.2885,0.611694,0,0,0,0,0,0,0,-1,671,1114,-54.2885,-0.611729
-546,-90,-54.3331,0.20166,0,0,0,0,0,0,0,-1,678,1114,-54.3331,-0.201614
-539,-90,-54.422,-0.128784,0,0,0,0,0,0,0,-1,685,1114,-54.422,0.128742
-532,-90,-54.4024,0.129761,0,0,0,0,0,0,0,-1,692,1114,-54.4024,-0.129762
-525,-90,0,0,0,0,0,0,0,0,0,-1,699,1114,0,0
-518,-90,0,0,0,0,0,0,0,0,0,-1,706,1114,0,0
-511,-90,0,0,0,0,0,0,0,0,0,-1,713,1114,0,0
-504,-90,0,0,0,0,0,0,0,0,0,-1,720,1114,0,0
-497,-90,0,0,0,0,0,0,0,0,0,-1,727,1114,0,0
-490,-90,0,0,0,0,0,0,0,0,0,-1,734,1114,0,0
-483,-90,0,0,0,0,0,0,0,0,0,-1,741,1114,0,0
-476,-90,0,0,0,0,0,0,0,0,0,-1,748,1114,0,0
-469,-90,0,0,0,0,0,0,0,0,0,-1,755,1114,0,0
-462,-90,0,0,0,0,0,0,0,0,0,-1,762,1114,0,0
-455,-90,0,0,0,0,0,0,0,0,0,-1,769,1114,0,0
-448,-90,0,0,0,0,0,0,0,0,0,-1,776,1114,0,0
-441,-90,0,0,0,0,0,0,0,0,0,-1,783,1114,0,0
-434,-90,0,0,0,0,0,0,0,0,0,-1,790,1114,0,0
-427,-90,0,0,0,0,0,0,0,0,0,-1,797,1114,0,0
-420,-90,0,0,0,0,0,0,0,0,0,-1,804,1114,0,0
-413,-90,0,0,0,0,0,0,0,0,0,-1,811,1114,0,0
-406,-90,0,0,0,0,0,0,0,0,0,-1,818,1114,0,0
-399,-90,0,0,0,0,0,0,0,0,0,-1,825,1114,0,0
-392,-90,0,0,0,0,0,0,0,0,0,-1,832,1114,0,0
-385,-90,0,0,0,0,0,0,0,0,0,-1,839,1114,0,0
-378,-90,0,0,0,0,0,0,0,0,0,-1,846,1114,0,0
-371,-90,0,0,0,0,0,0,0,0,0,-1,853,1114,0,0
-364,-90,0,0,0,0,0,0,0,0,0,-1,860,1114,0,0
-357,-90,0,0,0,0,0,0,0,0,0,-1,867,1114,0,0
-350,-90,0,0,0,0,0,0,0,0,0,-1,874,1114,0,0
-343,-90,0,0,0,0,0,0,0,0,0,-1,881,1114,0,0
-336,-90,0,0,0,0,0,0,0,0,0,-1,888,1114,0,0
-329,-90,0,0,0,0,0,0,0,0,0,-1,895,1114,0,0
-322,-90,0,0,0,0,0,0,0,0,0,-1,902,1114,0,0
-315,-90,0,0,0,0,0,0,0,0,0,-1,909,1114,0,0
-308,-90,0,0,0,0,0,0,0,0,0,-1,916,1114,0,0
-301,-90,0,0,0,0,0,0,0,0,0,-1,923,1114,0,0
-294,-90,0,0,0,0,0,0,0,0,0,-1,930,1114,0,0
-287,-90,0,0,0,0,0,0,0,0,0,-1,937,1114,0,0
-280,-90,0,0,0,0,0,0,0,0,0,-1,944,1114,0,0
-273,-90,0,0,0,0,0,0,0,0,0,-1,951,1114,0,0
-266,-90,0,0,0,0,0,0,0,0,0,-1,958,1114,0,0
-259,-90,0,0,0,0,0,0,0,0,0,-1,965,1114,0,0
-252,-90,0,0,0,0,0,0,0,0,0,-1,972,1114,0,0
-245,-90,0,0,0,0,0,0,0,0,0,-1,979,1114,0,0
-238,-90,0,0,0,0,0,0,0,0,0,-1,986,1114,0,0
-231,-90,0,0,0,0,0,0,0,0,0,-1,993,1114,0,0
-224,-90,0,0,0,0,0,0,0,0,0,-1,1000,1114,0,0
-217,-90,0,0,0,0,0,0,0,0,0,-1,1007,1114,0,0
-210,-90,0,0,0,0,0,0,0,0,0,-1,1014,1114,0,0
-203,-90,0,0,0,0,0,0,0,0,0,-1,1021,1114,0,0
-196,-90,0,0,0,0,0,0,0,0,0,-1,1028,1114,0,0
-189,-90,0,0,0,0,0,0,0,0,0,-1,1035,1114,0,0
-182,-90,0,0,0,0,0,0,0,0,0,-1,1042,1114,0,0
-175,-90,0,0,0,0,0,0,0,0,0,-1,1049,1114,0,0
-168,-90,0,0,0,0,0,0,0,0,0,-1,1056,1114,0,0
-161,-90,0,0,0,0,0,0,0,0,0,-1,1063,1114,0,0
-154,-90,0,0,0,0,0,0,0,0,0,-1,1070,1114,0,0
-147,-90,0,0,0,0,0,0,0,0,0,-1,1077,1114,0,0
-140,-90,0,0,0,0,0,0,0,0,0,-1,1084,1114,0,0
-133,-90,0,0,0,0,0,0,0,0,0,-1,1091,1114,0,0
-126,-90,0,0,0,0,0,0,0,0,0,-1,1098,1114,0,0
-119,-90,0,0,0,0,0,0,0,0,0,-1,1105,1114,0,0
-112,-90,0,0,0,0,0,0,0,0,0,-1,1112,1114,0,0
-105,-90,0,0,0,0,0,0,0,0,0,-1,1119,1114,0,0
-98,-90,0,0,0,0,0,0,0,0,0,-1,1126,1114,0,0
-91,-90,0,0,0,0,0,0,0,0,0,-1,1133,1114,0,0
-84,-90,0,0,0,0,0,0,0,0,0,-1,1140,1114,0,0
-77,-90,0,0,0,0,0,0,0,0,0,-1,1147,1114,0,0
-70,-90,0,0,0,0,0,0,0,0,0,-1,1154,1114,0,0
-63,-90,0,0,0,0,0,0,0,0,0,-1,1161,1114,0,0
-56,-90,0,0,0,0,0,0,0,0,0,-1,1168,1114,0,0
-49,-90,0,0,0,0,0,0,0,0,0,-1,1175,1114,0,0
-42,-90,0,0,0,0,0,0,0,0,0,-1,1182,1114,0,0
-35,-90,0,0,0,0,0,0,0,0,0,-1,1189,1114,0,0
-28,-90,0,0,0,0,0,0,0,0,0,-1,1196,1114,0,0
-21,-90,0,0,0,0,0,0,0,0,0,-1,1203,1114,0,0
-14,-90,0,0,0,0,0,0,0,0,0,-1,1210,1114,0,0
-7,-90,0,0,0,0,0,0,0,0,0,-1,1217,1114,0,0
0,-90,0,0,0,0,0,0,0,0,0,-1,1224,1114,0,0
7,-90,0,0,0,0,0,0,0,0,0,-1,1231,1114,0,0
14,-90,0,0,0,0,0,0,0,0,0,-1,1238,1114,0,0
21,-90,0,0,0,0,0,0,0,0,0,-1,1245,1114,0,0
28,-90,0,0,0,0,0,0,0,0,0,-1,1252,1114,0,0
35,-90,0,0,0,0,0,0,0,0,0,-1,1259,1114,0,0
42,-90,0,0,0,0,0,0,0,0,0,-1,1266,1114,0,0
49,-90,0,0,0,0,0,0,0,0,0,-1,1273,1114,0,0
56,-90,0,0,0,0,0,0,0,0,0,-1,1280,1114,0,0
63,-90,0,0,0,0,0,0,0,0,0,-1,1287,1114,0,0
70,-90,0,0,0,0,0,0,0,0,0,-1,1294,1114,0,0
77,-90,0,0,0,0,0,0,0,0,0,-1,1301,1114,0,0
84,-90,0,0,0,0,0,0,0,0,0,-1,1308,1114,0,0
91,-90,0,0,0,0,0,0,0,0,0,-1,1315,1114,0,0
98,-90,0,0,0,0,0,0,0,0,0,-1,1322,1114,0,0
105,-90,0,0,0,0,0,0,0,0,0,-1,1329,1114,0,0
112,-90,0,0,0,0,0,0,0,0,0,-1,1336,1114,0,0
119,-90,0,0,0,0,0,0,0,0,0,-1,1343,1114,0,0
126,-90,0,0,0,0,0,0,0,0,0,-1,1350,1114,0,0
133,-90,0,0,0,0,0,0,0,0,0,-1,1357,1114,0,0
140,-90,0,0,0,0,0,0,0,0,0,-1,1364,1114,0,0
147,-90,0,0,0,0,0,0,0,0,0,-1,1371,1114,0,0
154,-90,0,0,0,0,0,0,0,0,0,-1,1378,1114,0,0
161,-90,0,0,0,0,0,0,0,0,0,-1,1385,1114,0,0
168,-90,0,0,0,0,0,0,0,0,0,-1,1392,1114,0,0
175,-90,0,0,0,0,0,0,0,0,0,-1,1399,1114,0,0
182,-90,0,0,0,0,0,0,0,0,0,-1,1406,1114,0,0
189,-90,0,0,0,0,0,0,0,0,0,-1,1413,1114,0,0
196,-90,0,0,0,0,0,0,0,0,0,-1,1420,1114,0,0
203,-90,0,0,0,0,0,0,0,0,0,-1,1427,1114,0,0
210,-90,0,0,0,0,0,0,0,0,0,-1,1434,1114,0,0
217,-90,0,0,0,0,0,0,0,0,0,-1,1441,1114,0,0
224,-90,0,0,0,0,0,0,0,0,0,-1,1448,1114,0,0
231,-90,0,0,0,0,0,0,0,0,0,-1,1455,1114,0,0
238,-90,0,0,0,0,0,0,0,0,0,-1,1462,1114,0,0
245,-90,0,0,0,0,0,0,0,0,0,-1,1469,1114,0,0
252,-90,0,0,0,0,0,0,0,0,0,-1,1476,1114,0,0
259,-90,0,0,0,0,0,0,0,0,0,-1,1483,1114,0,0
266,-90,0,0,0,0,0,0,0,0,0,-1,1490,1114,0,0
273,-90,0,0,0,0,0,0,0,0,0,-1,1497,1114,0,0
280,-90,0,0,0,0,0,0,0,0,0,-1,1504,1114,0,0
287,-90,0,0,0,0,0,0,0,0,0,-1,1511,1114,0,0
294,-90,0,0,0,0,0,0,0,0,0,-1,1518,1114,0,0
301,-90,0,0,0,0,0,0,0,0,0,-1,1525,1114,0,0
308,-90,0,0,0,0,0,0,0,0,0,-1,1532,1114,0,0
315,-90,0,0,0,0,0,0,0,0,0,-1,1539,1114,0,0
322,-90,0,0,0,0,0,0,0,0,0,-1,1546,1114,0,0
329,-90,0,0,0,0,0,0,0,0,0,-1,1553,1114,0,0
336,-90,0,0,0,0,0,0,0,0,0,-1,1560,1114,0,0
343,-90,0,0,0,0,0,0,0,0,0,-1,1567,1114,0,0
350,-90,0,0,0,0,0,0,0,0,0,-1,1574,1114,0,0
357,-90,0,0,0,0,0,0,0,0,0,-1,1581,1114,0,0
364,-90,0,0,0,0,0,0,0,0,0,-1,1588,1114,0,0
371,-90,0,0,0,0,0,0,0,0,0,-1,1595,1114,0,0
378,-90,0,0,0,0,0,0,0,0,0,-1,1602,1114,0,0
385,-90,0,0,0,0,0,0,0,0,0,-1,1609,1114,0,0
392,-90,0,0,0,0,0,0,0,0,0,-1,1616,1114,0,0
399,-90,0,0,0,0,0,0,0,0,0,-1,1623,1114,0,0
406,-90,0,0,0,0,0,0,0,0,0,-1,1630,1114,0,0
413,-90,0,0,0,0,0,0,0,0,0,-1,1637,1114,0,0
420,-90,0,0,0,0,0,0,0,0,0,-1,1644,1114,0,0
427,-90,0,0,0,0,0,0,0,0,0,-1,1651,1114,0,0
434,-90,0,0,0,0,0,0,0,0,0,-1,1658,1114,0,0
441,-90,0,0,0,0,0,0,0,0,0,-1,1665,1114,0,0
448,-90,0,0,0,0,0,0,0,0,0,-1,1672,1114,0,0
455,-90,0,0,0,0,0,0,0,0,0,-1,1679,1114,0,0
462,-90,0,0,0,0,0,0,0,0,0,-1,1686,1114,0,0
469,-90,0,0,0,0,0,0,0,0,0,-1,1693,1114,0,0
476,-90,0,0,0,0,0,0,0,0,0,-1,1700,1114,0,0
483,-90,0,0,0,0,0,0,0,0,0,-1,1707,1114,0,0
490,-90,0,0,0,0,0,0,0,0,0,-1,1714,1114,0,0
497,-90,0,0,0,0,0,0,0,0,0,-1,1721,1114,0,0
504,-90,0,0,0,0,0,0,0,0,0,-1,1728,1114,0,0
511,-90,0,0,0,0,0,0,0,0,0,-1,1735,1114,0,0
518,-90,0,0,0,0,0,0,0,0,0,-1,1742,1114,0,0
525,-90,0,0,0,0,0,0,0,0,0,-1,1749,1114,0,0
532,-90,0,0,0,0,0,0,0,0,0,-1,1756,1114,0,0
539,-90,0,0,0,0,0,0,0,0,0,-1,1763,1114,0,0
546,-90,0,0,0,0,0,0,0,0,0,-1,1770,1114,0,0
553,-90,0,0,0,0,0,0,0,0,0,-1,1777,1114,0,0
560,-90,0,0,0,0,0,0,0,0,0,-1,1784,1114,0,0
567,-90,0,0,0,0,0,0,0,0,0,-1,1791,1114,0,0
574,-90,0,0,0,0,0,0,0,0,0,-1,1798,1114,0,0
581,-90,0,0,0,0,0,0,0,0,0,-1,1805,1114,0,0
588,-90,0,0,0,0,0,0,0,0,0,-1,1812,1114,0,0
595,-90,0,0,0,0,0,0,0,0,0,-1,1819,1114,0,0
602,-90,0,0,0,0,0,0,0,0,0,-1,1826,1114,0,0
609,-90,0,0,0,0,0,0,0,0,0,-1,1833,1114,0,0
616,-90,0,0,0,0,0,0,0,0,0,-1,1840,1114,0,0
623,-90,0,0,0,0,0,0,0,0,0,-1,1847,1114,0,0
630,-90,0,0,0,0,0,0,0,0,0,-1,1854,1114,0,0
637,-90,0,0,0,0,0,0,0,0,0,-1,1861,1114,0,0
644,-90,70.7935,2.25256,0.00676544,-0.00209119,0.00143256,0.00699139,-0.00231714,0.156437,0.00559558,0.03399,1868,1114,70.7935,-2.25255
651,-90,70.8489,2.37097,0.00538904,-0.00141507,0.000773808,0.00547593,-0.00150196,0.111824,0.00424088,0.0375867,1875,1114,70.8488,-2.37092
658,-90,70.8622,2.42432,0.00432263,-0.0010522,0.000400806,0.00435235,-0.00108192,0.0740253,0.00332147,0.0425459,1882,1114,70.8622,-2.42429
665,-90,70.8097,2.4519,0.00346584,-0.000755092,0.000105472,0.00346847,-0.000757726,0.024967,0.00260193,0.0443434,1889,1114,70.8097,-2.45186
672,-90,70.8475,2.41406,0.00271521,-0.000468232,-0.000136223,0.00272103,-0.00047405,-0.042687,0.00199094,0.0447383,1896,1114,70.8476,-2.41408
679,-90,70.9694,2.30371,0.00215275,-0.000312772,-0.000271595,0.00218232,-0.000342336,-0.108425,0.00158139,0.039023,1903,1114,70.9694,-2.30375
686,-90,71.0315,2.22668,0.00196365,-0.000354211,-0.000320994,0.00200728,-0.000397844,-0.1351,0.00148863,0.0339365,1910,1114,71.0315,-2.22672
693,-90,70.9342,2.14111,0.00175022,-0.000502853,-0.000252402,0.00177815,-0.000530782,-0.110206,0.0013964,0.0348856,1917,1114,70.9342,-2.14114
700,-90,70.8906,2.16223,0.00161372,-0.000520519,-8.98199e-05,0.00161749,-0.000524292,-0.0419862,0.00128914,0.0303989,1924,1114,70.8907,-2.16226
707,-90,70.9346,2.11792,0.00138,-0.000377183,0.000220699,0.0014073,-0.000404479,0.123052,0.00109814,0.0208328,1931,1114,70.9345,-2.11788
714,-90,70.9724,2.00012,0,0,0,0,0,0,0,-1,1938,1114,70.9724,-2.00018
721,-90,63.521,8.76965,0,0,0,0,0,0,0,-1,1945,1114,63.521,-8.7697
728,-90,66.4711,8.54456,0,0,0,0,0,0,0,-1,1952,1114,66.471,-8.54452
735,-90,66.1628,8.01843,-0.00141531,0.0012741,0.00157866,0.00200314,-0.00214434,1.13817,0.00239501,0.0396744,1959,1114,66.1629,-8.01843
742,-90,66.3054,7.40002,-0.00232053,0.00185724,0.00177425,0.00250905,-0.00297234,1.21873,0.00316845,0.0363895,1966,1114,66.3054,-7.40005
749,-90,66.6223,6.74475,-0.00354416,0.00297257,0.00176501,0.0034199,-0.00399149,1.32258,0.00428321,0.0223212,1973,1114,66.6223,-6.74473
756,-90,66.5591,6.30042,-0.00540264,0.00405551,0.00164677,0.00433403,-0.00568116,1.40325,0.00579968,0.0186886,1980,1114,66.5591,-6.30037
763,-90,66.469,5.82068,-0.00794786,0.00568609,0.00108065,0.00577121,-0.00803299,1.49219,0.00800544,0.0138347,1987,1114,66.469,-5.82065
770,-90,66.374,5.33606,-0.0109124,0.00746844,-0.000123276,0.00746926,-0.0109133,-1.56409,0.0106751,0.017813,1994,1114,66.3741,-5.33601
777,-90,66.2302,4.88806,-0.0139683,0.00907581,-0.00182015,0.00921868,-0.0141111,-1.49246,0.0135678,0.0162867,2001,1114,66.2301,-4.88802
784,-90,66.0481,4.44836,-0.0169843,0.010287,-0.00397513,0.0108546,-0.0175519,-1.42896,0.0165518,0.0299204,2008,1114,66.0481,-4.44833
791,-90,65.7666,3.80396,-0.019917,0.0107824,-0.00679493,0.0122191,-0.0213538,-1.36242,0.019621,0.0440393,2015,1114,65.7666,-3.80397
798,-90,64.9739,2.75244,-0.022887,0.00999064,-0.0104587,0.0130356,-0.025932,-1.28748,0.022905,0.0487312,2022,1114,64.9739,-2.75247
805,-90,64.5869,1.73047,-0.0252567,0.00740953,-0.0148952,0.0131816,-0.0310288,-1.2011,0.026209,0.049643,2029,1114,64.5869,-1.73046
812,-90,64.1826,0.828369,0,0,0,0,0,0,0,-1,2036,1114,64.1827,-0.828362
-700,-97,0,0,0,0,0,0,0,0,0,-1,524,1121,0,0
-693,-97,-50.6471,0.308228,0,0,0,0,0,0,0,-1,531,1121,-50.6471,-0.308209
-686,-97,-48.4508,0.300293,0,0,0,0,0,0,0,-1,538,1121,-48.4508,-0.30029
-679,-97,-48.9571,0.764038,-0.0267688,0.0167304,0.0127198,0.0201768,-0.0302152,1.3062,0.0292856,0.0471101,545,1121,-48.9571,-0.764034
-672,-97,-49.3096,1.17114,-0.0224304,0.0169423,0.00730507,0.0182539,-0.0237421,1.39313,0.0243153,0.0442587,552,1121,-49.3096,-1.17109
-665,-97,-49.8718,1.44788,-0.0187591,0.0160324,0.00380698,0.0164441,-0.0191708,1.46307,0.0205823,0.0463669,559,1121,-49.8718,-1.4479
-658,-97,-50.252,1.87952,-0.0156392,0.01454,0.00146259,0.0146107,-0.0157099,1.52248,0.0175094,0.0470992,566,1121,-50.252,-1.87947
-651,-97,-50.2505,2.40979,-0.0126834,0.0127381,-8.75876e-05,0.0127384,-0.0126837,-1.56735,0.0146774,0.0389876,573,1121,-50.2505,-2.40979
-644,-97,-50.2833,2.95154,-0.0097346,0.0106389,-0.00105073,0.010693,-0.00978865,-1.5194,0.0118289,0.0152517,580,1121,-50.2833,-2.9515
-637,-97,-50.3218,3.5769,-0.00692268,0.00829882,-0.0016128,0.00846783,-0.00709169,-1.46639,0.00899499,0.0154421,587,1121,-50.3218,-3.57694
-630,-97,-50.3612,4.12964,-0.00416834,0.00619355,-0.00248651,0.00675933,-0.00473413,-1.34706,0.00667,0.0120748,594,1121,-50.3612,-4.12963
-623,-97,-50.4138,4.64197,-0.00131385,0.00327197,-0.00201127,0.00402909,-0.00207096,-1.21077,0.00358184,0.0147917,601,1121,-50.4138,-4.64201
-616,-97,-50.5006,5.26917,0.00141397,-0.000244704,-0.00130141,0.00212784,-0.00095857,-0.501715,0.00182407,0.0224581,608,1121,-50.5006,-5.26915
-609,-97,-50.5921,5.89929,0.00468173,-0.00300982,-0.00095343,0.00479815,-0.00312625,-0.121508,0.00460897,0.0306806,615,1121,-50.5921,-5.89933
-602,-97,-50.6453,6.37317,0.00889137,-0.00552996,-0.000362015,0.00890045,-0.00553905,-0.0250817,0.00841161,0.0310931,622,1121,-50.6453,-6.37316
-595,-97,-50.5892,6.97668,0.0150182,-0.0084952,0.000936854,0.0150555,-0.00853247,0.0397593,0.013791,0.0276135,629,1121,-50.5892,-6.97673
-588,-97,-50.8776,7.5293,0,0,0,0,0,0,0,-1,636,1121,-50.8776,-7.52931
-581,-97,-51.2355,3.23926,0,0,0,0,0,0,0,-1,643,1121,-51.2355,-3.23926
-574,-97,-54.384,0.456055,0,0,0,0,0,0,0,-1,650,1121,-54.3839,-0.456069
-567,-97,-54.4979,0.654053,0,0,0,0,0,0,0,-1,657,1121,-54.4979,-0.654097
-560,-97,-54.4243,0.714966,0,0,0,0,0,0,0,-1,664,1121,-54.4243,-0.715023
-553,-97,-54.2325,0.647461,0,0,0,0,0,0,0,-1,671,1121,-54.2326,-0.647519
-546,-97,-54.1152,0.432007,0,0,0,0,0,0,0,-1,678,1121,-54.1152,-0.431992
-539,-97,-54.3509,0.261597,0,0,0,0,0,0,0,-1,685,1121,-54.3509,-0.261541
-532,-97,-54.4788,0.3302,0,0,0,0,0,0,0,-1,692,1121,-54.4788,-0.330188
-525,-97,0,0,0,0,0,0,0,0,0,-1,699,1121,0,0
-518,-97,0,0,0,0,0,0,0,0,0,-1,706,1121,0,0
-511,-97,0,0,0,0,0,0,0,0,0,-1,713,1121,0,0
-504,-97,0,0,0,0,0,0,0,0,0,-1,720,1121,0,0
-497,-97,0,0,0,0,0,0,0,0,0,-1,727,1121,0,0
-490,-97,0,0,0,0,0,0,0,0,0,-1,734,1121,0,0
-483,-97,0,0,0,0,0,0,0,0,0,-1,741,1121,0,0
-476,-97,0,0,0,0,0,0,0,0,0,-1,748,1121,0,0
-469,-97,0,0,0,0,0,0,0,0,0,-1,755,1121,0,0
-462,-97,0,0,0,0,0,0,0,0,0,-1,762,1121,0,0
-455,-97,0,0,0,0,0,0,0,0,0,-1,769,1121,0,0
-448,-97,0,0,0,0,0,0,0,0,0,-1,776,1121,0,0
-441,-97,0,0,0,0,0,0,0,0,0,-1,783,1121,0,0
-434,-97,0,0,0,0,0,0,0,0,0,-1,790,1121,0,0
-427,-97,0,0,0,0,0,0,0,0,0,-1,797,1121,0,0
-420,-97,0,0,0,0,0,0,0,0,0,-1,804,1121,0,0
-413,-97,0,0,0,0,0,0,0,0,0,-1,811,1121,0,0
-406,-97,0,0,0,0,0,0,0,0,0,-1,818,1121,0,0
-399,-97,0,0,0,0,0,0,0,0,0,-1,825,1121,0,0
-392,-97,0,0,0,0,0,0,0,0,0,-1,832,1121,0,0
-385,-97,0,0,0,0,0,0,0,0,0,-1,839,1121,0,0
-378,-97,0,0,0,0,0,0,0,0,0,-1,846,1121,0,0
-371,-97,0,0,0,0,0,0,0,0,0,-1,853,1121,0,0
-364,-97,0,0,0,0,0,0,0,0,0,-1,860,1121,0,0
-357,-97,0,0,0,0,0,0,0,0,0,-1,867,1121,0,0
-350,-97,0,0,0,0,0,0,0,0,0,-1,874,1121,0,0
-343,-97,0,0,0,0,0,0,0,0,0,-1,881,1121,0,0
-336,-97,0,0,0,0,0,0,0,0,0,-1,888,1121,0,0
-329,-97,0,0,0,0,0,0,0,0,0,-1,895,1121,0,0
-322,-97,0,0,0,0,0,0,0,0,0,-1,902,1121,0,0
-315,-97,0,0,0,0,0,0,0,0,0,-1,909,1121,0,0
-308,-97,0,0,0,0,0,0,0,0,0,-1,916,1121,0,0
-301,-97,0,0,0,0,0,0,0,0,0,-1,923,1121,0,0
-294,-97,0,0,0,0,0,0,0,0,0,-1,930,1121,0,0
-287,-97,0,0,0,0,0,0,0,0,0,-1,937,1121,0,0
-280,-97,0,0,0,0,0,0,0,0,0,-1,944,1121,0,0
-273,-97,0,0,0,0,0,0,0,0,0,-1,951,1121,0,0
-266,-97,0,0,0,0,0,0,0,0,0,-1,958,1121,0,0
-259,-97,0,0,0,0,0,0,0,0,0,-1,965,1121,0,0
-252,-97,0,0,0,0,0,0,0,0,0,-1,972,1121,0,0
-245,-97,0,0,0,0,0,0,0,0,0,-1,979,1121,0,0
-238,-97,0,0,0,0,0,0,0,0,0,-1,986,1121,0,0
-231,-97,0,0,0,0,0,0,0,0,0,-1,993,1121,0,0
-224,-97,0,0,0,0,0,0,0,0,0,-1,1000,1121,0,0
-217,-97,0,0,0,0,0,0,0,0,0,-1,1007,1121,0,0
-210,-97,0,0,0,0,0,0,0,0,0,-1,1014,1121,0,0
-203,-97,0,0,0,0,0,0,0,0,0,-1,1021,1121,0,0
-196,-97,0,0,0,0,0,0,0,0,0,-1,1028,1121,0,0
-189,-97,0,0,0,0,0,0,0,0,0,-1,1035,1121,0,0
-182,-97,0,0,0,0,0,0,0,0,0,-1,1042,1121,0,0
-175,-97,0,0,0,0,0,0,0,0,0,-1,1049,1121,0,0
-168,-97,0,0,0,0,0,0,0,0,0,-1,1056,1121,0,0
-161,-97,0,0,0,0,0,0,0,0,0,-1,1063,1121,0,0
-154,-97,0,0,0,0,0,0,0,0,0,-1,1070,1121,0,0
-147,-97,0,0,0,0,0,0,0,0,0,-1,1077,1121,0,0
-140,-97,0,0,0,0,0,0,0,0,0,-1,1084,1121,0,0
-133,-97,0,0,0,0,0,0,0,0,0,-1,1091,1121,0,0
-126,-97,0,0,0,0,0,0,0,0,0,-1,1098,1121,0,0
-119,-97,0,0,0,0,0,0,0,0,0,-1,1105,1121,0,0
-112,-97,0,0,0,0,0,0,0,0,0,-1,1112,1121,0,0
-105,-97,0,0,0,0,0,0,0,0,0,-1,1119,1121,0,0
-98,-97,0,0,0,0,0,0,0,0,0,-1,1126,1121,0,0
-91,-97,0,0,0,0,0,0,0,0,0,-1,1133,1121,0,0
-84,-97,0,0,0,0,0,0,0,0,0,-1,1140,1121,0,0
-77,-97,0,0,0,0,0,0,0,0,0,-1,1147,1121,0,0
-70,-97,0,0,0,0,0,0,0,0,0,-1,1154,1121,0,0
-63,-97,0,0,0,0,0,0,0,0,0,-1,1161,1121,0,0
-56,-97,0,0,0,0,0,0,0,0,0,-1,1168,1121,0,0
-49,-97,0,0,0,0,0,0,0,0,0,-1,1175,1121,0,0
-42,-97,0,0,0,0,0,0,0,0,0,-1,1182,1121,0,0
-35,-97,0,0,0,0,0,0,0,0,0,-1,1189,1121,0,0
-28,-97,0,0,0,0,0,0,0,0,0,-1,1196,1121,0,0
-21,-97,0,0,0,0,0,0,0,0,0,-1,1203,1121,0,0
-14,-97,0,0,0,0,0,0,0,0,0,-1,1210,1121,0,0
-7,-97,0,0,0,0,0,0,0,0,0,-1,1217,1121,0,0
0,-97,0,0,0,0,0,0,0,0,0,-1,1224,1121,0,0
7,-97,0,0,0,0,0,0,0,0,0,-1,1231,1121,0,0
14,-97,0,0,0,0,0,0,0,0,0,-1,1238,1121,0,0
21,-97,0,0,0,0,0,0,0,0,0,-1,1245,1121,0,0
28,-97,0,0,0,0,0,0,0,0,0,-1,1252,1121,0,0
35,-97,0,0,0,0,0,0,0,0,0,-1,1259,1121,0,0
42,-97,0,0,0,0,0,0,0,0,0,-1,1266,1121,0,0
49,-97,0,0,0,0,0,0,0,0,0,-1,1273,1121,0,0
56,-97,0,0,0,0,0,0,0,0,0,-1,1280,1121,0,0
63,-97,0,0,0,0,0,0,0,0,0,-1,1287,1121,0,0
70,-97,0,0,0,0,0,0,0,0,0,-1,1294,1121,0,0
77,-97,0,0,0,0,0,0,0,0,0,-1,1301,1121,0,0
84,-97,0,0,0,0,0,0,0,0,0,-1,1308,1121,0,0
91,-97,0,0,0,0,0,0,0,0,0,-1,1315,1121,0,0
98,-97,0,0,0,0,0,0,0,0,0,-1,1322,1121,0,0
105,-97,0,0,0,0,0,0,0,0,0,-1,1329,1121,0,0
112,-97,0,0,0,0,0,0,0,0,0,-1,1336,1121,0,0
119,-97,0,0,0,0,0,0,0,0,0,-1,1343,1121,0,0
126,-97,0,0,0,0,0,0,0,0,0,-1,1350,1121,0,0
133,-97,0,0,0,0,0,0,0,0,0,-1,1357,1121,0,0
140,-97,0,0,0,0,0,0,0,0,0,-1,1364,1121,0,0
147,-97,0,0,0,0,0,0,0,0,0,-1,1371,1121,0,0
154,-97,0,0,0,0,0,0,0,0,0,-1,1378,1121,0,0
161,-97,0,0,0,0,0,0,0,0,0,-1,1385,1121,0,0
168,-97,0,0,0,0,0,0,0,0,0,-1,1392,1121,0,0
175,-97,0,0,0,0,0,0,0,0,0,-1,1399,1121,0,0
182,-97,0,0,0,0,0,0,0,0,0,-1,1406,1121,0,0
189,-97,0,0,0,0,0,0,0,0,0,-1,1413,1121,0,0
196,-97,0,0,0,0,0,0,0,0,0,-1,1420,1121,0,0
203,-97,0,0,0,0,0,0,0,0,0,-1,1427,1121,0,0
210,-97,0,0,0,0,0,0,0,0,0,-1,1434,1121,0,0
217,-97,0,0,0,0,0,0,0,0,0,-1,1441,1121,0,0
224,-97,0,0,0,0,0,0,0,0,0,-1,1448,1121,0,0
231,-97,0,0,0,0,0,0,0,0,0,-1,1455,1121,0,0
238,-97,0,0,0,0,0,0,0,0,0,-1,1462,1121,0,0
245,-97,0,0,0,0,0,0,0,0,0,-1,1469,1121,0,0
252,-97,0,0,0,0,0,0,0,0,0,-1,1476,1121,0,0
259,-97,0,0,0,0,0,0,0,0,0,-1,1483,1121,0,0
266,-97,0,0,0,0,0,0,0,0,0,-1,1490,1121,0,0
273,-97,0,0,0,0,0,0,0,0,0,-1,1497,1121,0,0
280,-97,0,0,0,0,0,0,0,0,0,-1,1504,1121,0,0
287,-97,0,0,0,0,0,0,0,0,0,-1,1511,1121,0,0
294,-97,0,0,0,0,0,0,0,0,0,-1,1518,1121,0,0
301,-97,0,0,0,0,0,0,0,0,0,-1,1525,1121,0,0
308,-97,0,0,0,0,0,0,0,0,0,-1,1532,1121,0,0
315,-97,0,0,0,0,0,0,0,0,0,-1,1539,1121,0,0
322,-97,0,0,0,0,0,0,0,0,0,-1,1546,1121,0,0
329,-97,0,0,0,0,0,0,0,0,0,-1,1553,1121,0,0
336,-97,0,0,0,0,0,0,0,0,0,-1,1560,1121,0,0
343,-97,0,0,0,0,0,0,0,0,0,-1,1567,1121,0,0
350,-97,0,0,0,0,0,0,0,0,0,-1,1574,1121,0,0
357,-97,0,0,0,0,0,0,0,0,0,-1,1581,1121,0,0
364,-97,0,0,0,0,0,0,0,0,0,-1,1588,1121,0,0
371,-97,0,0,0,0,0,0,0,0,0,-1,1595,1121,0,0
378,-97,0,0,0,0,0,0,0,0,0,-1,1602,1121,0,0
385,-97,0,0,0,0,0,0,0,0,0,-1,1609,1121,0,0
392,-97,0,0,0,0,0,0,0,0,0,-1,1616,1121,0,0
399,-97,0,0,0,0,0,0,0,0,0,-1,1623,1121,0,0
406,-97,0,0,0,0,0,0,0,0,0,-1,1630,1121,0,0
413,-97,0,0,0,0,0,0,0,0,0,-1,1637,1121,0,0
420,-97,0,0,0,0,0,0,0,0,0,-1,1644,1121,0,0
427,-97,0,0,0,0,0,0,0,0,0,-1,1651,1121,0,0
434,-97,0,0,0,0,0,0,0,0,0,-1,1658,1121,0,0
441,-97,0,0,0,0,0,0,0,0,0,-1,1665,1121,0,0
448,-97,0,0,0,0,0,0,0,0,0,-1,1672,1121,0,0
455,-97,0,0,0,0,0,0,0,0,0,-1,1679,1121,0,0
462,-97,0,0,0,0,0,0,0,0,0,-1,1686,1121,0,0
469,-97,0,0,0,0,0,0,0,0,0,-1,1693,1121,0,0
476,-97,0,0,0,0,0,0,0,0,0,-1,1700,1121,0,0
483,-97,0,0,0,0,0,0,0,0,0,-1,1707,1121,0,0
490,-97,0,0,0,0,0,0,0,0,0,-1,1714,1121,0,0
497,-97,0,0,0,0,0,0,0,0,0,-1,1721,1121,0,0
504,-97,0,0,0,0,0,0,0,0,0,-1,1728,1121,0,0
511,-97,0,0,0,0,0,0,0,0,0,-1,1735,1121,0,0
518,-97,0,0,0,0,0,0,0,0,0,-1,1742,1121,0,0
525,-97,0,0,0,0,0,0,0,0,0,-1,1749,1121,0,0
532,-97,0,0,0,0,0,0,0,0,0,-1,1756,1121,0,0
539,-97,0,0,0,0,0,0,0,0,0,-1,1763,1121,0,0
546,-97,0,0,0,0,0,0,0,0,0,-1,1770,1121,0,0
553,-97,0,0,0,0,0,0,0,0,0,-1,1777,1121,0,0
560,-97,0,0,0,0,0,0,0,0,0,-1,1784,1121,0,0
567,-97,0,0,0,0,0,0,0,0,0,-1,1791,1121,0,0
574,-97,0,0,0,0,0,0,0,0,0,-1,1798,1121,0,0
581,-97,0,0,0,0,0,0,0,0,0,-1,1805,1121,0,0
588,-97,0,0,0,0,0,0,0,0,0,-1,1812,1121,0,0
595,-97,0,0,0,0,0,0,0,0,0,-1,1819,1121,0,0
602,-97,0,0,0,0,0,0,0,0,0,-1,1826,1121,0,0
609,-97,0,0,0,0,0,0,0,0,0,-1,1833,1121,0,0
616,-97,0,0,0,0,0,0,0,0,0,-1,1840,1121,0,0
623,-97,0,0,0,0,0,0,0,0,0,-1,1847,1121,0,0
630,-97,0,0,0,0,0,0,0,0,0,-1,1854,1121,0,0
637,-97,0,0,0,0,0,0,0,0,0,-1,1861,1121,0,0
644,-97,70.7855,2.32092,0.0071902,-0.00168447,0.000450374,0.00721299,-0.00170726,0.0505751,0.00546734,0.0368225,1868,1121,70.7855,-2.32095
651,-97,70.8701,2.41333,0.00558609,-0.00103573,-1.22419e-05,0.00558611,-0.00103575,-0.00184872,0.00411303,0.0371828,1875,1121,70.8701,-2.41329
658,-97,70.8693,2.33032,0.00441998,-0.000686212,-0.000252227,0.00443241,-0.000698641,-0.0492366,0.00321324,0.0380391,1882,1121,70.8692,-2.33033
665,-97,70.7938,2.24658,0.00348354,-0.000407371,-0.000425236,0.00352947,-0.000453302,-0.107597,0.00251772,0.0431136,1889,1121,70.7938,-2.24662
672,-97,70.9003,2.3938,0.00268795,-0.00016692,-0.000547925,0.0027895,-0.000268469,-0.183255,0.00195531,0.0472527,1896,1121,70.9002,-2.39376
679,-97,70.9729,2.44189,0.00215594,-0.000105873,-0.000558008,0.00228611,-0.000236047,-0.229184,0.00160854,0.0445231,1903,1121,70.9729,-2.44185
686,-97,70.917,2.24817,0.0021135,-0.000193742,-0.000522825,0.00222645,-0.000306686,-0.212757,0.00159638,0.0376953,1910,1121,70.9169,-2.24814
693,-97,70.9276,2.08325,0.00200224,-0.000363792,-0.000424296,0.00207603,-0.000437579,-0.172182,0.0015506,0.036473,1917,1121,70.9276,-2.08325
700,-97,70.8872,2.12952,0.00189127,-0.000420962,-0.000245685,0.00191708,-0.000446779,-0.104697,0.00145011,0.0285481,1924,1121,70.8872,-2.12956
707,-97,70.9202,2.11914,0.00167993,-0.000303397,8.47972e-05,0.00168355,-0.000307015,0.0426513,0.00123746,0.0244024,1931,1121,70.9202,-2.11915
714,-97,70.9752,2.03113,0,0,0,0,0,0,0,-1,1938,1121,70.9752,-2.03109
721,-97,65.993,8.94751,0,0,0,0,0,0,0,-1,1945,1121,65.9931,-8.94746
728,-97,65.9642,8.58105,-1.87421e-05,0.000612291,0.00106022,0.00140295,-0.000809397,0.930023,0.00129253,0.0370703,1952,1121,65.9642,-8.58106
735,-97,65.9332,7.89612,-0.000769643,0.00109225,0.00147207,0.00190304,-0.00158044,1.06735,0.00201406,0.0303416,1959,1121,65.9332,-7.89612
742,-97,65.8809,7.36621,-0.00162446,0.00158411,0.00176204,0.00236279,-0.00240313,1.15468,0.00275164,0.0261659,1966,1121,65.8808,-7.36625
749,-97,65.9623,6.80127,-0.00291112,0.00251874,0.00185245,0.00309051,-0.00348289,1.27142,0.00379741,0.0255775,1973,1121,65.9623,-6.80129
756,-97,65.9504,6.28748,-0.00494066,0.00351246,0.00184656,0.00389823,-0.00532643,1.36485,0.00534709,0.0180264,1980,1121,65.9504,-6.28753
763,-97,65.856,5.81531,-0.0077036,0.0048913,0.00146105,0.00505857,-0.00787086,1.45681,0.00752344,0.0146616,1987,1121,65.8559,-5.8153
770,-97,65.7942,5.32983,-0.0108965,0.00626527,0.000560743,0.00628357,-0.0109148,1.53817,0.0100488,0.0139555,1994,1121,65.7942,-5.32979
777,-97,65.7051,4.81567,-0.0141748,0.00735709,-0.000761203,0.00738396,-0.0142017,-1.5355,0.012668,0.0178362,2001,1121,65.705,-4.81563
784,-97,65.6077,4.32446,-0.017459,0.00796635,-0.00253172,0.00821599,-0.0177087,-1.47251,0.0152984,0.0373605,2008,1121,65.6076,-4.32444
791,-97,65.5986,3.81958,-0.0206714,0.00773676,-0.00496728,0.00858027,-0.0215149,-1.40259,0.0179024,0.0461734,2015,1121,65.5986,-3.81955
798,-97,64.3059,2.90918,0,0,0,0,0,0,0,-1,2022,1121,64.306,-2.90916
805,-97,64.1418,2.07935,0,0,0,0,0,0,0,-1,2029,1121,64.1417,-2.07936
812,-97,64.2729,1.12366,0,0,0,0,0,0,0,-1,2036,1121,64.273,-1.12362
-700,-104,0,0,0,0,0,0,0,0,0,-1,524,1128,0,0
-693,-104,-50.1292,0.196411,0,0,0,0,0,0,0,-1,531,1128,-50.1291,-0.196396
-686,-104,-50.334,1.66675,0,0,0,0,0,0,0,-1,538,1128,-50.334,-1.6667
-679,-104,-49.1062,1.46729,0,0,0,0,0,0,0,-1,545,1128,-49.1062,-1.46724
-672,-104,-49.6209,1.80627,0,0,0,0,0,0,0,-1,552,1128,-49.6209,-1.80629
-665,-104,-50.2694,2.36426,0,0,0,0,0,0,0,-1,559,1128,-50.2694,-2.3642
-658,-104,-49.6331,1.80261,0,0,0,0,0,0,0,-1,566,1128,-49.6331,-1.80261
-651,-104,-49.6229,2.32263,-0.00694429,0.018483,-0.00376068,0.0190276,-0.00748883,-1.427,0.015785,0.0490107,573,1128,-49.6229,-2.32267
-644,-104,-49.6473,2.91919,-0.00548336,0.0146283,-0.00386121,0.0153441,-0.00619919,-1.38749,0.0128061,0.0179622,580,1128,-49.6473,-2.91917
-637,-104,-49.6947,3.53943,-0.00398379,0.0108796,-0.00359186,0.0117021,-0.00480628,-1.34569,0.00980436,0.0136379,587,1128,-49.6947,-3.53947
-630,-104,-49.7094,4.04187,-0.00240187,0.00766367,-0.00364764,0.00884653,-0.00358473,-1.25721,0.00738839,0.0192173,594,1128,-49.7094,-4.04184
-623,-104,-49.8105,4.65564,-0.000536544,0.0038529,-0.00241626,0.00492239,-0.00160604,-1.15409,0.00392795,0.0209136,601,1128,-49.8105,-4.65563
-616,-104,-50.1755,5.35925,0.00144393,5.13946e-05,-0.00121491,0.00214795,-0.000652623,-0.525195,0.00169199,0.0313513,608,1128,-50.1755,-5.35922
-609,-104,-50.32,5.83704,0.0043055,-0.00240168,-0.000553624,0.00435089,-0.00244707,-0.0818042,0.00397578,0.0408698,615,1128,-50.32,-5.83704
-602,-104,-50.119,6.44788,0.0083899,-0.00464036,0.000133115,0.00839126,-0.00464172,0.0102144,0.00762769,0.0352639,622,1128,-50.119,-6.44783
-595,-104,-49.9269,7.12891,0.0148594,-0.00757893,0.00146349,0.0149545,-0.00767398,0.0648563,0.013288,0.028266,629,1128,-49.9269,-7.12893
-588,-104,-50.0337,7.89746,0,0,0,0,0,0,0,-1,636,1128,-50.0337,-7.8975
-581,-104,-23.9373,2.85864,0,0,0,0,0,0,0,-1,643,1128,-23.9373,-2.85861
-574,-104,-54.3458,0.449219,0,0,0,0,0,0,0,-1,650,1128,-54.3458,-0.449235
-567,-104,-54.4541,0.750366,0,0,0,0,0,0,0,-1,657,1128,-54.4541,-0.750356
-560,-104,-54.4319,0.917725,0,0,0,0,0,0,0,-1,664,1128,-54.4319,-0.917682
-553,-104,-54.3857,0.486206,0,0,0,0,0,0,0,-1,671,1128,-54.3857,-0.486266
-546,-104,-54.6811,0.833008,0,0,0,0,0,0,0,-1,678,1128,-54.6811,-0.833011
-539,-104,-54.5337,0.671509,0,0,0,0,0,0,0,-1,685,1128,-54.5337,-0.671484
-532,-104,-54.4039,0.452637,0,0,0,0,0,0,0,-1,692,1128,-54.4039,-0.452673
-525,-104,-54.3692,0.375732,0,0,0,0,0,0,0,-1,699,1128,-54.3692,-0.375702
-518,-104,0,0,0,0,0,0,0,0,0,-1,706,1128,0,0
-511,-104,0,0,0,0,0,0,0,0,0,-1,713,1128,0,0
-504,-104,0,0,0,0,0,0,0,0,0,-1,720,1128,0,0
-497,-104,0,0,0,0,0,0,0,0,0,-1,727,1128,0,0
-490,-104,0,0,0,0,0,0,0,0,0,-1,734,1128,0,0
-483,-104,0,0,0,0,0,0,0,0,0,-1,741,1128,0,0
-476,-104,0,0,0,0,0,0,0,0,0,-1,748,1128,0,0
-469,-104,0,0,0,0,0,0,0,0,0,-1,755,1128,0,0
-462,-104,0,0,0,0,0,0,0,0,0,-1,762,1128,0,0
-455,-104,0,0,0,0,0,0,0,0,0,-1,769,1128,0,0
-448,-104,0,0,0,0,0,0,0,0,0,-1,776,1128,0,0
-441,-104,0,0,0,0,0,0,0,0,0,-1,783,1128,0,0
-434,-104,0,0,0,0,0,0,0,0,0,-1,790,1128,0,0
-427,-104,0,0,0,0,0,0,0,0,0,-1,797,1128,0,0
-420,-104,0,0,0,0,0,0,0,0,0,-1,804,1128,0,0
-413,-104,0,0,0,0,0,0,0,0,0,-1,811,1128,0,0
-406,-104,0,0,0,0,0,0,0,0,0,-1,818,1128,0,0
-399,-104,0,0,0,0,0,0,0,0,0,-1,825,1128,0,0
-392,-104,0,0,0,0,0,0,0,0,0,-1,832,1128,0,0
-385,-104,0,0,0,0,0,0,0,0,0,-1,839,1128,0,0
-378,-104,0,0,0,0,0,0,0,0,0,-1,846,1128,0,0
-371,-104,0,0,0,0,0,0,0,0,0,-1,853,1128,0,0
-364,-104,0,0,0,0,0,0,0,0,0,-1,860,1128,0,0
-357,-104,0,0,0,0,0,0,0,0,0,-1,867,1128,0,0
-350,-104,0,0,0,0,0,0,0,0,0,-1,874,1128,0,0
-343,-104,0,0,0,0,0,0,0,0,0,-1,881,1128,0,0
-336,-104,0,0,0,0,0,0,0,0,0,-1,888,1128,0,0
-329,-104,0,0,0,0,0,0,0,0,0,-1,895,1128,0,0
-322,-104,0,0,0,0,0,0,0,0,0,-1,902,1128,0,0
-315,-104,0,0,0,0,0,0,0,0,0,-1,909,1128,0,0
-308,-104,0,0,0,0,0,0,0,0,0,-1,916,1128,0,0
-301,-104,0,0,0,0,0,0,0,0,0,-1,923,1128,0,0
-294,-104,0,0,0,0,0,0,0,0,0,-1,930,1128,0,0
-287,-104,0,0,0,0,0,0,0,0,0,-1,937,1128,0,0
-280,-104,0,0,0,0,0,0,0,0,0,-1,944,1128,0,0
-273,-104,0,0,0,0,0,0,0,0,0,-1,951,1128,0,0
-266,-104,0,0,0,0,0,0,0,0,0,-1,958,1128,0,0
-259,-104,0,0,0,0,0,0,0,0,0,-1,965,1128,0,0
-252,-104,0,0,0,0,0,0,0,0,0,-1,972,1128,0,0
-245,-104,0,0,0,0,0,0,0,0,0,-1,979,1128,0,0
-238,-104,0,0,0,0,0,0,0,0,0,-1,986,1128,0,0
-231,-104,0,0,0,0,0,0,0,0,0,-1,993,1128,0,0
-224,-104,0,0,0,0,0,0,0,0,0,-1,1000,1128,0,0
-217,-104,0,0,0,0,0,0,0,0,0,-1,1007,1128,0,0
-210,-104,0,0,0,0,0,0,0,0,0,-1,1014,1128,0,0
-203,-104,0,0,0,0,0,0,0,0,0,-1,1021,1128,0,0
-196,-104,0,0,0,0,0,0,0,0,0,-1,1028,1128,0,0
-189,-104,0,0,0,0,0,0,0,0,0,-1,1035,1128,0,0
-182,-104,0,0,0,0,0,0,0,0,0,-1,1042,1128,0,0
-175,-104,0,0,0,0,0,0,0,0,0,-1,1049,1128,0,0
-168,-104,0,0,0,0,0,0,0,0,0,-1,1056,1128,0,0
-161,-104,0,0,0,0,0,0,0,0,0,-1,1063,1128,0,0
-154,-104,0,0,0,0,0,0,0,0,0,-1,1070,1128,0,0
-147,-104,0,0,0,0,0,0,0,0,0,-1,1077,1128,0,0
-140,-104,0,0,0,0,0,0,0,0,0,-1,1084,1128,0,0
-133,-104,0,0,0,0,0,0,0,0,0,-1,1091,1128,0,0
-126,-104,0,0,0,0,0,0,0,0,0,-1,1098,1128,0,0
-119,-104,0,0,0,0,0,0,0,0,0,-1,1105,1128,0,0
-112,-104,0,0,0,0,0,0,0,0,0,-1,1112,1128,0,0
-105,-104,0,0,0,0,0,0,0,0,0,-1,1119,1128,0,0
-98,-104,0,0,0,0,0,0,0,0,0,-1,1126,1128,0,0
-91,-104,0,0,0,0,0,0,0,0,0,-1,1133,1128,0,0
-84,-104,0,0,0,0,0,0,0,0,0,-1,1140,1128,0,0
-77,-104,0,0,0,0,0,0,0,0,0,-1,1147,1128,0,0
-70,-104,0,0,0,0,0,0,0,0,0,-1,1154,1128,0,0
-63,-104,0,0,0,0,0,0,0,0,0,-1,1161,1128,0,0
-56,-104,0,0,0,0,0,0,0,0,0,-1,1168,1128,0,0
-49,-104,0,0,0,0,0,0,0,0,0,-1,1175,1128,0,0
-42,-104,0,0,0,0,0,0,0,0,0,-1,1182,1128,0,0
-35,-104,0,0,0,0,0,0,0,0,0,-1,1189,1128,0,0
-28,-104,0,0,0,0,0,0,0,0,0,-1,1196,1128,0,0
-21,-104,0,0,0,0,0,0,0,0,0,-1,1203,1128,0,0
-14,-104,0,0,0,0,0,0,0,0,0,-1,1210,1128,0,0
-7,-104,0,0,0,0,0,0,0,0,0,-1,1217,1128,0,0
0,-104,0,0,0,0,0,0,0,0,0,-1,1224,1128,0,0
7,-104,0,0,0,0,0,0,0,0,0,-1,1231,1128,0,0
14,-104,0,0,0,0,0,0,0,0,0,-1,1238,1128,0,0
21,-104,0,0,0,0,0,0,0,0,0,-1,1245,1128,0,0
28,-104,0,0,0,0,0,0,0,0,0,-1,1252,1128,0,0
35,-104,0,0,0,0,0,0,0,0,0,-1,1259,1128,0,0
42,-104,0,0,0,0,0,0,0,0,0,-1,1266,1128,0,0
49,-104,0,0,0,0,0,0,0,0,0,-1,1273,1128,0,0
56,-104,0,0,0,0,0,0,0,0,0,-1,1280,1128,0,0
63,-104,0,0,0,0,0,0,0,0,0,-1,1287,1128,0,0
70,-104,0,0,0,0,0,0,0,0,0,-1,1294,1128,0,0
77,-104,0,0,0,0,0,0,0,0,0,-1,1301,1128,0,0
84,-104,0,0,0,0,0,0,0,0,0,-1,1308,1128,0,0
91,-104,0,0,0,0,0,0,0,0,0,-1,1315,1128,0,0
98,-104,0,0,0,0,0,0,0,0,0,-1,1322,1128,0,0
105,-104,0,0,0,0,0,0,0,0,0,-1,1329,1128,0,0
112,-104,0,0,0,0,0,0,0,0,0,-1,1336,1128,0,0
119,-104,0,0,0,0,0,0,0,0,0,-1,1343,1128,0,0
126,-104,0,0,0,0,0,0,0,0,0,-1,1350,1128,0,0
133,-104,0,0,0,0,0,0,0,0,0,-1,1357,1128,0,0
140,-104,0,0,0,0,0,0,0,0,0,-1,1364,1128,0,0
147,-104,0,0,0,0,0,0,0,0,0,-1,1371,1128,0,0
154,-104,0,0,0,0,0,0,0,0,0,-1,1378,1128,0,0
161,-104,0,0,0,0,0,0,0,0,0,-1,1385,1128,0,0
168,-104,0,0,0,0,0,0,0,0,0,-1,1392,1128,0,0
175,-104,0,0,0,0,0,0,0,0,0,-1,1399,1128,0,0
182,-104,0,0,0,0,0,0,0,0,0,-1,1406,1128,0,0
189,-104,0,0,0,0,0,0,0,0,0,-1,1413,1128,0,0
196,-104,0,0,0,0,0,0,0,0,0,-1,1420,1128,0,0
203,-104,0,0,0,0,0,0,0,0,0,-1,1427,1128,0,0
210,-104,0,0,0,0,0,0,0,0,0,-1,1434,1128,0,0
217,-104,0,0,0,0,0,0,0,0,0,-1,1441,1128,0,0
224,-104,0,0,0,0,0,0,0,0,0,-1,1448,1128,0,0
231,-104,0,0,0,0,0,0,0,0,0,-1,1455,1128,0,0
238,-104,0,0,0,0,0,0,0,0,0,-1,1462,1128,0,0
245,-104,0,0,0,0,0,0,0,0,0,-1,1469,1128,0,0
252,-104,0,0,0,0,0,0,0,0,0,-1,1476,1128,0,0
259,-104,0,0,0,0,0,0,0,0,0,-1,1483,1128,0,0
266,-104,0,0,0,0,0,0,0,0,0,-1,1490,1128,0,0
273,-104,0,0,0,0,0,0,0,0,0,-1,1497,1128,0,0
280,-104,0,0,0,0,0,0,0,0,0,-1,1504,1128,0,0
287,-104,0,0,0,0,0,0,0,0,0,-1,1511,1128,0,0
294,-104,0,0,0,0,0,0,0,0,0,-1,1518,1128,0,0
301,-104,0,0,0,0,0,0,0,0,0,-1,1525,1128,0,0
308,-104,0,0,0,0,0,0,0,0,0,-1,1532,1128,0,0
315,-104,0,0,0,0,0,0,0,0,0,-1,1539,1128,0,0
322,-104,0,0,0,0,0,0,0,0,0,-1,1546,1128,0,0
329,-104,0,0,0,0,0,0,0,0,0,-1,1553,1128,0,0
336,-104,0,0,0,0,0,0,0,0,0,-1,1560,1128,0,0
343,-104,0,0,0,0,0,0,0,0,0,-1,1567,1128,0,0
350,-104,0,0,0,0,0,0,0,0,0,-1,1574,1128,0,0
357,-104,0,0,0,0,0,0,0,0,0,-1,1581,1128,0,0
364,-104,0,0,0,0,0,0,0,0,0,-1,1588,1128,0,0
371,-104,0,0,0,0,0,0,0,0,0,-1,1595,1128,0,0
378,-104,0,0,0,0,0,0,0,0,0,-1,1602,1128,0,0
385,-104,0,0,0,0,0,0,0,0,0,-1,1609,1128,0,0
392,-104,0,0,0,0,0,0,0,0,0,-1,1616,1128,0,0
399,-104,0,0,0,0,0,0,0,0,0,-1,1623,1128,0,0
406,-104,0,0,0,0,0,0,0,0,0,-1,1630,1128,0,0
413,-104,0,0,0,0,0,0,0,0,0,-1,1637,1128,0,0
420,-104,0,0,0,0,0,0,0,0,0,-1,1644,1128,0,0
427,-104,0,0,0,0,0,0,0,0,0,-1,1651,1128,0,0
434,-104,0,0,0,0,0,0,0,0,0,-1,1658,1128,0,0
441,-104,0,0,0,0,0,0,0,0,0,-1,1665,1128,0,0
448,-104,0,0,0,0,0,0,0,0,0,-1,1672,1128,0,0
455,-104,0,0,0,0,0,0,0,0,0,-1,1679,1128,0,0
462,-104,0,0,0,0,0,0,0,0,0,-1,1686,1128,0,0
469,-104,0,0,0,0,0,0,0,0,0,-1,1693,1128,0,0
476,-104,0,0,0,0,0,0,0,0,0,-1,1700,1128,0,0
483,-104,0,0,0,0,0,0,0,0,0,-1,1707,1128,0,0
490,-104,0,0,0,0,0,0,0,0,0,-1,1714,1128,0,0
497,-104,0,0,0,0,0,0,0,0,0,-1,1721,1128,0,0
504,-104,0,0,0,0,0,0,0,0,0,-1,1728,1128,0,0
511,-104,0,0,0,0,0,0,0,0,0,-1,1735,1128,0,0
518,-104,0,0,0,0,0,0,0,0,0,-1,1742,1128,0,0
525,-104,0,0,0,0,0,0,0,0,0,-1,1749,1128,0,0
532,-104,0,0,0,0,0,0,0,0,0,-1,1756,1128,0,0
539,-104,0,0,0,0,0,0,0,0,0,-1,1763,1128,0,0
546,-104,0,0,0,0,0,0,0,0,0,-1,1770,1128,0,0
553,-104,0,0,0,0,0,0,0,0,0,-1,1777,1128,0,0
560,-104,0,0,0,0,0,0,0,0,0,-1,1784,1128,0,0
567,-104,0,0,0,0,0,0,0,0,0,-1,1791,1128,0,0
574,-104,0,0,0,0,0,0,0,0,0,-1,1798,1128,0,0
581,-104,0,0,0,0,0,0,0,0,0,-1,1805,1128,0,0
588,-104,0,0,0,0,0,0,0,0,0,-1,1812,1128,0,0
595,-104,0,0,0,0,0,0,0,0,0,-1,1819,1128,0,0
602,-104,0,0,0,0,0,0,0,0,0,-1,1826,1128,0,0
609,-104,0,0,0,0,0,0,0,0,0,-1,1833,1128,0,0
616,-104,0,0,0,0,0,0,0,0,0,-1,1840,1128,0,0
623,-104,0,0,0,0,0,0,0,0,0,-1,1847,1128,0,0
630,-104,0,0,0,0,0,0,0,0,0,-1,1854,1128,0,0
637,-104,0,0,0,0,0,0,0,0,0,-1,1861,1128,0,0
644,-104,70.7804,2.36011,0.00753154,-0.000568005,-0.000376295,0.00754899,-0.000585449,-0.0463257,0.00523872,0.037787,1868,1128,70.7804,-2.36007
651,-104,70.9127,2.35815,0.00574085,-0.000142089,-0.000622093,0.00580591,-0.000207153,-0.10421,0.00394147,0.0382553,1875,1128,70.9127,-2.35819
658,-104,70.9701,2.13196,0.0044632,3.38541e-05,-0.00072076,0.00457754,-8.04795e-05,-0.157318,0.00307887,0.0404014,1882,1128,70.97,-2.13193
665,-104,70.8336,1.97656,0.00343496,0.00015037,-0.000774065,0.00360824,-2.29091e-05,-0.220226,0.00241316,0.0456064,1889,1128,70.8336,-1.97658
672,-104,70.9725,2.26514,0.00258928,0.000222107,-0.000793138,0.00283046,-1.90682e-05,-0.295193,0.00189336,0.0458344,1896,1128,70.9725,-2.26511
679,-104,70.9237,2.31702,0.00209054,0.000101761,-0.000702005,0.00231337,-0.000121068,-0.307359,0.00158415,0.0426941,1903,1128,70.9237,-2.31697
686,-104,70.8737,2.18945,0.00218063,-8.59131e-05,-0.000606822,0.00233287,-0.000238152,-0.245806,0.0016404,0.0409313,1910,1128,70.8736,-2.18942
693,-104,70.9231,2.12427,0.00215403,-0.000290797,-0.00047831,0.00224428,-0.000381043,-0.186485,0.00163804,0.0364218,1917,1128,70.9231,-2.12427
700,-104,70.9277,2.12927,0.00206407,-0.000392425,-0.000280384,0.00209567,-0.000424022,-0.112217,0.00155781,0.0264829,1924,1128,70.9278,-2.12923
707,-104,70.9382,2.15735,0,0,0,0,0,0,0,-1,1931,1128,70.9382,-2.15733
714,-104,45.5221,2.32166,0,0,0,0,0,0,0,-1,1938,1128,45.5221,-2.3216
721,-104,65.3671,9.14282,0,0,0,0,0,0,0,-1,1945,1128,65.3671,-9.14285
728,-104,65.4629,8.55505,0,0,0,0,0,0,0,-1,1952,1128,65.4629,-8.55504
735,-104,65.6842,7.71069,0,0,0,0,0,0,0,-1,1959,1128,65.6842,-7.71073
742,-104,65.4216,7.3717,-0.000990595,0.00130196,0.00179141,0.00228245,-0.00197108,1.07001,0.00245797,0.0260241,1966,1128,65.4217,-7.37169
749,-104,65.2946,6.83008,-0.0023111,0.00209168,0.00198783,0.00285636,-0.00307579,1.20356,0.00342571,0.0247401,1973,1128,65.2945,-6.83002
756,-104,65.2867,6.29871,-0.00449692,0.00305262,0.00207574,0.00358571,-0.00503,1.31941,0.00499752,0.0189237,1980,1128,65.2868,-6.29873
763,-104,65.219,5.81995,-0.00744885,0.00425426,0.00185307,0.00454067,-0.00773526,1.41745,0.00716706,0.018314,1987,1128,65.2191,-5.81996
770,-104,65.1882,5.32568,-0.0107774,0.0053424,0.00122302,0.00543467,-0.0108697,1.4955,0.00958606,0.0168632,1994,1128,65.1883,-5.32568
777,-104,65.0708,4.76965,-0.0141547,0.00608465,0.00023112,0.00608729,-0.0141573,1.55938,0.0119938,0.0255548,2001,1128,65.0709,-4.76968
784,-104,64.9148,4.39526,-0.0175533,0.00627169,-0.00118859,0.00633084,-0.0176125,-1.52107,0.0143261,0.0417426,2008,1128,64.9148,-4.39531
791,-104,64.8618,4.11475,-0.0208005,0.00554174,-0.00327117,0.00594187,-0.0212007,-1.44908,0.0164755,0.0458803,2015,1128,64.8618,-4.1147
798,-104,64.8035,3.72205,0,0,0,0,0,0,0,-1,2022,1128,64.8035,-3.722
805,-104,63.4602,2.33923,0,0,0,0,0,0,0,-1,2029,1128,63.4601,-2.33924
812,-104,64.8694,3.05481,0,0,0,0,0,0,0,-1,2036,1128,64.8693,-3.05481
-700,-111,0,0,0,0,0,0,0,0,0,-1,524,1135,0,0
-693,-111,-50.2821,0.339355,0,0,0,0,0,0,0,-1,531,1135,-50.2821,-0.339404
-686,-111,-50.0092,1.44128,0,0,0,0,0,0,0,-1,538,1135,-50.0092,-1.4413
-679,-111,-49.833,2.52856,0,0,0,0,0,0,0,-1,545,1135,-49.833,-2.52851
-672,-111,-49.8885,2.43909,0,0,0,0,0,0,0,-1,552,1135,-49.8885,-2.43906
-665,-111,-49.7288,4.65051,0,0,0,0,0,0,0,-1,559,1135,-49.7288,-4.65055
-658,-111,-48.2744,1.67444,0,0,0,0,0,0,0,-1,566,1135,-48.2744,-1.67447
-651,-111,-48.9013,2.1239,0,0,0,0,0,0,0,-1,573,1135,-48.9013,-2.12393
-644,-111,-48.9072,2.86707,-0.00125979,0.0198342,-0.00694805,0.0219171,-0.0033427,-1.27954,0.0158436,0.0299878,580,1135,-48.9072,-2.86701
-637,-111,-49.0673,3.52527,-0.00124011,0.0141474,-0.00566976,0.0160109,-0.00310355,-1.25326,0.0118447,0.0134949,587,1135,-49.0673,-3.52524
-630,-111,-49.1141,4.02356,-0.00100305,0.00936627,-0.00476682,0.0112246,-0.00286135,-1.19908,0.00859705,0.0276778,594,1135,-49.1141,-4.02362
-623,-111,-49.1586,4.70532,-0.000277795,0.00438867,-0.00271778,0.00563738,-0.0015265,-1.1401,0.00435715,0.0232593,601,1135,-49.1587,-4.70533
-616,-111,-49.5229,5.30505,0.000875863,0.000300867,-0.00104809,0.00167517,-0.000498438,-0.651537,0.0013148,0.0288262,608,1135,-49.5229,-5.30509
-609,-111,-49.746,5.80762,0.00328058,-0.00178059,-0.000182726,0.00328717,-0.00178717,-0.036041,0.00297203,0.0383616,615,1135,-49.746,-5.80761
-602,-111,-49.691,6.45569,0.00719466,-0.00367635,0.000433225,0.0072119,-0.00369358,0.0397673,0.00640457,0.0461015,622,1135,-49.691,-6.45563
-595,-111,-49.3145,7.151,0.0139118,-0.00674196,0.0016678,0.0140456,-0.00687577,0.080059,0.0123132,0.0250403,629,1135,-49.3145,-7.15101
-588,-111,-48.9214,8.0022,0,0,0,0,0,0,0,-1,636,1135,-48.9214,-8.00222
-581,-111,-21.0555,3.14551,0,0,0,0,0,0,0,-1,643,1135,-21.0555,-3.14548
-574,-111,-54.3043,0.363159,0,0,0,0,0,0,0,-1,650,1135,-54.3044,-0.363215
-567,-111,-54.3822,0.615112,0,0,0,0,0,0,0,-1,657,1135,-54.3822,-0.615116
-560,-111,-54.251,0.885864,0,0,0,0,0,0,0,-1,664,1135,-54.251,-0.885896
-553,-111,-54.2769,0.321289,0,0,0,0,0,0,0,-1,671,1135,-54.2769,-0.321237
-546,-111,-54.6722,0.884033,0,0,0,0,0,0,0,-1,678,1135,-54.6722,-0.884037
-539,-111,-54.4612,0.69165,0,0,0,0,0,0,0,-1,685,1135,-54.4612,-0.691704
-532,-111,-54.2935,0.473999,0,0,0,0,0,0,0,-1,692,1135,-54.2935,-0.473944
-525,-111,-54.3471,0.341675,0,0,0,0,0,0,0,-1,699,1135,-54.3471,-0.34169
-518,-111,0,0,0,0,0,0,0,0,0,-1,706,1135,0,0
-511,-111,0,0,0,0,0,0,0,0,0,-1,713,1135,0,0
-504,-111,0,0,0,0,0,0,0,0,0,-1,720,1135,0,0
-497,-111,0,0,0,0,0,0,0,0,0,-1,727,1135,0,0
-490,-111,0,0,0,0,0,0,0,0,0,-1,734,1135,0,0
-483,-111,0,0,0,0,0,0,0,0,0,-1,741,1135,0,0
-476,-111,0,0,0,0,0,0,0,0,0,-1,748,1135,0,0
-469,-111,0,0,0,0,0,0,0,0,0,-1,755,1135,0,0
-462,-111,0,0,0,0,0,0,0,0,0,-1,762,1135,0,0
-455,-111,0,0,0,0,0,0,0,0,0,-1,769,1135,0,0
-448,-111,0,0,0,0,0,0,0,0,0,-1,776,1135,0,0
-441,-111,0,0,0,0,0,0,0,0,0,-1,783,1135,0,0
-434,-111,0,0,0,0,0,0,0,0,0,-1,790,1135,0,0
-427,-111,0,0,0,0,0,0,0,0,0,-1,797,1135,0,0
-420,-111,0,0,0,0,0,0,0,0,0,-1,804,1135,0,0
-413,-111,0,0,0,0,0,0,0,0,0,-1,811,1135,0,0
-406,-111,0,0,0,0,0,0,0,0,0,-1,818,1135,0,0
-399,-111,0,0,0,0,0,0,0,0,0,-1,825,1135,0,0
-392,-111,0,0,0,0,0,0,0,0,0,-1,832,1135,0,0
-385,-111,0,0,0,0,0,0,0,0,0,-1,839,1135,0,0
-378,-111,0,0,0,0,0,0,0,0,0,-1,846,1135,0,0
-371,-111,0,0,0,0,0,0,0,0,0,-1,853,1135,0,0
-364,-111,0,0,0,0,0,0,0,0,0,-1,860,1135,0,0
-357,-111,0,0,0,0,0,0,0,0,0,-1,867,1135,0,0
-350,-111,0,0,0,0,0,0,0,0,0,-1,874,1135,0,0
-343,-111,0,0,0,0,0,0,0,0,0,-1,881,1135,0,0
-336,-111,0,0,0,0,0,0,0,0,0,-1,888,1135,0,0
-329,-111,0,0,0,0,0,0,0,0,0,-1,895,1135,0,0
-322,-111,0,0,0,0,0,0,0,0,0,-1,902,1135,0,0
-315,-111,0,0,0,0,0,0,0,0,0,-1,909,1135,0,0
-308,-111,0,0,0,0,0,0,0,0,0,-1,916,1135,0,0
-301,-111,0,0,0,0,0,0,0,0,0,-1,923,1135,0,0
-294,-111,0,0,0,0,0,0,0,0,0,-1,930,1135,0,0
-287,-111,0,0,0,0,0,0,0,0,0,-1,937,1135,0,0
-280,-111,0,0,0,0,0,0,0,0,0,-1,944,1135,0,0
-273,-111,0,0,0,0,0,0,0,0,0,-1,951,1135,0,0
-266,-111,0,0,0,0,0,0,0,0,0,-1,958,1135,0,0
-259,-111,0,0,0,0,0,0,0,0,0,-1,965,1135,0,0
-252,-111,0,0,0,0,0,0,0,0,0,-1,972,1135,0,0
-245,-111,0,0,0,0,0,0,0,0,0,-1,979,1135,0,0
-238,-111,0,0,0,0,0,0,0,0,0,-1,986,1135,0,0
-231,-111,0,0,0,0,0,0,0,0,0,-1,993,1135,0,0
-224,-111,0,0,0,0,0,0,0,0,0,-1,1000,1135,0,0
-217,-111,0,0,0,0,0,0,0,0,0,-1,1007,1135,0,0
-210,-111,0,0,0,0,0,0,0,0,0,-1,1014,1135,0,0
-203,-111,0,0,0,0,0,0,0,0,0,-1,1021,1135,0,0
-196,-111,0,0,0,0,0,0,0,0,0,-1,1028,1135,0,0
-189,-111,0,0,0,0,0,0,0,0,0,-1,1035,1135,0,0
-182,-111,0,0,0,0,0,0,0,0,0,-1,1042,1135,0,0
-175,-111,0,0,0,0,0,0,0,0,0,-1,1049,1135,0,0
-168,-111,0,0,0,0,0,0,0,0,0,-1,1056,1135,0,0
-161,-111,0,0,0,0,0,0,0,0,0,-1,1063,1135,0,0
-154,-111,0,0,0,0,0,0,0,0,0,-1,1070,1135,0,0
-147,-111,0,0,0,0,0,0,0,0,0,-1,1077,1135,0,0
-140,-111,0,0,0,0,0,0,0,0,0,-1,1084,1135,0,0
-133,-111,0,0,0,0,0,0,0,0,0,-1,1091,1135,0,0
-126,-111,0,0,0,0,0,0,0,0,0,-1,1098,1135,0,0
-119,-111,0,0,0,0,0,0,0,0,0,-1,1105,1135,0,0
-112,-111,0,0,0,0,0,0,0,0,0,-1,1112,1135,0,0
-105,-111,0,0,0,0,0,0,0,0,0,-1,1119,1135,0,0
-98,-111,0,0,0,0,0,0,0,0,0,-1,1126,1135,0,0
-91,-111,0,0,0,0,0,0,0,0,0,-1,1133,1135,0,0
-84,-111,0,0,0,0,0,0,0,0,0,-1,1140,1135,0,0
-77,-111,0,0,0,0,0,0,0,0,0,-1,1147,1135,0,0
-70,-111,0,0,0,0,0,0,0,0,0,-1,1154,1135,0,0
-63,-111,0,0,0,0,0,0,0,0,0,-1,1161,1135,0,0
-56,-111,0,0,0,0,0,0,0,0,0,-1,1168,1135,0,0
-49,-111,0,0,0,0,0,0,0,0,0,-1,1175,1135,0,0
-42,-111,0,0,0,0,0,0,0,0,0,-1,1182,1135,0,0
-35,-111,0,0,0,0,0,0,0,0,0,-1,1189,1135,0,0
-28,-111,0,0,0,0,0,0,0,0,0,-1,1196,1135,0,0
-21,-111,0,0,0,0,0,0,0,0,0,-1,1203,1135,0,0
-14,-111,0,0,0,0,0,0,0,0,0,-1,1210,1135,0,0
-7,-111,0,0,0,0,0,0,0,0,0,-1,1217,1135,0,0
0,-111,0,0,0,0,0,0,0,0,0,-1,1224,1135,0,0
7,-111,0,0,0,0,0,0,0,0,0,-1,1231,1135,0,0
14,-111,0,0,0,0,0,0,0,0,0,-1,1238,1135,0,0
21,-111,0,0,0,0,0,0,0,0,0,-1,1245,1135,0,0
28,-111,0,0,0,0,0,0,0,0,0,-1,1252,1135,0,0
35,-111,0,0,0,0,0,0,0,0,0,-1,1259,1135,0,0
42,-111,0,0,0,0,0,0,0,0,0,-1,1266,1135,0,0
49,-111,0,0,0,0,0,0,0,0,0,-1,1273,1135,0,0
56,-111,0,0,0,0,0,0,0,0,0,-1,1280,1135,0,0
63,-111,0,0,0,0,0,0,0,0,0,-1,1287,1135,0,0
70,-111,0,0,0,0,0,0,0,0,0,-1,1294,1135,0,0
77,-111,0,0,0,0,0,0,0,0,0,-1,1301,1135,0,0
84,-111,0,0,0,0,0,0,0,0,0,-1,1308,1135,0,0
91,-111,0,0,0,0,0,0,0,0,0,-1,1315,1135,0,0
98,-111,0,0,0,0,0,0,0,0,0,-1,1322,1135,0,0
105,-111,0,0,0,0,0,0,0,0,0,-1,1329,1135,0,0
112,-111,0,0,0,0,0,0,0,0,0,-1,1336,1135,0,0
119,-111,0,0,0,0,0,0,0,0,0,-1,1343,1135,0,0
126,-111,0,0,0,0,0,0,0,0,0,-1,1350,1135,0,0
133,-111,0,0,0,0,0,0,0,0,0,-1,1357,1135,0,0
140,-111,0,0,0,0,0,0,0,0,0,-1,1364,1135,0,0
147,-111,0,0,0,0,0,0,0,0,0,-1,1371,1135,0,0
154,-111,0,0,0,0,0,0,0,0,0,-1,1378,1135,0,0
161,-111,0,0,0,0,0,0,0,0,0,-1,1385,1135,0,0
168,-111,0,0,0,0,0,0,0,0,0,-1,1392,1135,0,0
175,-111,0,0,0,0,0,0,0,0,0,-1,1399,1135,0,0
182,-111,0,0,0,0,0,0,0,0,0,-1,1406,1135,0,0
189,-111,0,0,0,0,0,0,0,0,0,-1,1413,1135,0,0
196,-111,0,0,0,0,0,0,0,0,0,-1,1420,1135,0,0
203,-111,0,0,0,0,0,0,0,0,0,-1,1427,1135,0,0
210,-111,0,0,0,0,0,0,0,0,0,-1,1434,1135,0,0
217,-111,0,0,0,0,0,0,0,0,0,-1,1441,1135,0,0
224,-111,0,0,0,0,0,0,0,0,0,-1,1448,1135,0,0
231,-111,0,0,0,0,0,0,0,0,0,-1,1455,1135,0,0
238,-111,0,0,0,0,0,0,0,0,0,-1,1462,1135,0,0
245,-111,0,0,0,0,0,0,0,0,0,-1,1469,1135,0,0
252,-111,0,0,0,0,0,0,0,0,0,-1,1476,1135,0,0
259,-111,0,0,0,0,0,0,0,0,0,-1,1483,1135,0,0
266,-111,0,0,0,0,0,0,0,0,0,-1,1490,1135,0,0
273,-111,0,0,0,0,0,0,0,0,0,-1,1497,1135,0,0
280,-111,0,0,0,0,0,0,0,0,0,-1,1504,1135,0,0
287,-111,0,0,0,0,0,0,0,0,0,-1,1511,1135,0,0
294,-111,0,0,0,0,0,0,0,0,0,-1,1518,1135,0,0
301,-111,0,0,0,0,0,0,0,0,0,-1,1525,1135,0,0
308,-111,0,0,0,0,0,0,0,0,0,-1,1532,1135,0,0
315,-111,0,0,0,0,0,0,0,0,0,-1,1539,1135,0,0
322,-111,0,0,0,0,0,0,0,0,0,-1,1546,1135,0,0
329,-111,0,0,0,0,0,0,0,0,0,-1,1553,1135,0,0
336,-111,0,0,0,0,0,0,0,0,0,-1,1560,1135,0,0
343,-111,0,0,0,0,0,0,0,0,0,-1,1567,1135,0,0
350,-111,0,0,0,0,0,0,0,0,0,-1,1574,1135,0,0
357,-111,0,0,0,0,0,0,0,0,0,-1,1581,1135,0,0
364,-111,0,0,0,0,0,0,0,0,0,-1,1588,1135,0,0
371,-111,0,0,0,0,0,0,0,0,0,-1,1595,1135,0,0
378,-111,0,0,0,0,0,0,0,0,0,-1,1602,1135,0,0
385,-111,0,0,0,0,0,0,0,0,0,-1,1609,1135,0,0
392,-111,0,0,0,0,0,0,0,0,0,-1,1616,1135,0,0
399,-111,0,0,0,0,0,0,0,0,0,-1,1623,1135,0,0
406,-111,0,0,0,0,0,0,0,0,0,-1,1630,1135,0,0
413,-111,0,0,0,0,0,0,0,0,0,-1,1637,1135,0,0
420,-111,0,0,0,0,0,0,0,0,0,-1,1644,1135,0,0
427,-111,0,0,0,0,0,0,0,0,0,-1,1651,1135,0,0
434,-111,0,0,0,0,0,0,0,0,0,-1,1658,1135,0,0
441,-111,0,0,0,0,0,0,0,0,0,-1,1665,1135,0,0
448,-111,0,0,0,0,0,0,0,0,0,-1,1672,1135,0,0
455,-111,0,0,0,0,0,0,0,0,0,-1,1679,1135,0,0
462,-111,0,0,0,0,0,0,0,0,0,-1,1686,1135,0,0
469,-111,0,0,0,0,0,0,0,0,0,-1,1693,1135,0,0
476,-111,0,0,0,0,0,0,0,0,0,-1,1700,1135,0,0
483,-111,0,0,0,0,0,0,0,0,0,-1,1707,1135,0,0
490,-111,0,0,0,0,0,0,0,0,0,-1,1714,1135,0,0
497,-111,0,0,0,0,0,0,0,0,0,-1,1721,1135,0,0
504,-111,0,0,0,0,0,0,0,0,0,-1,1728,1135,0,0
511,-111,0,0,0,0,0,0,0,0,0,-1,1735,1135,0,0
518,-111,0,0,0,0,0,0,0,0,0,-1,1742,1135,0,0
525,-111,0,0,0,0,0,0,0,0,0,-1,1749,1135,0,0
532,-111,0,0,0,0,0,0,0,0,0,-1,1756,1135,0,0
539,-111,0,0,0,0,0,0,0,0,0,-1,1763,1135,0,0
546,-111,0,0,0,0,0,0,0,0,0,-1,1770,1135,0,0
553,-111,0,0,0,0,0,0,0,0,0,-1,1777,1135,0,0
560,-111,0,0,0,0,0,0,0,0,0,-1,1784,1135,0,0
567,-111,0,0,0,0,0,0,0,0,0,-1,1791,1135,0,0
574,-111,0,0,0,0,0,0,0,0,0,-1,1798,1135,0,0
581,-111,0,0,0,0,0,0,0,0,0,-1,1805,1135,0,0
588,-111,0,0,0,0,0,0,0,0,0,-1,1812,1135,0,0
595,-111,0,0,0,0,0,0,0,0,0,-1,1819,1135,0,0
602,-111,0,0,0,0,0,0,0,0,0,-1,1826,1135,0,0
609,-111,0,0,0,0,0,0,0,0,0,-1,1833,1135,0,0
616,-111,0,0,0,0,0,0,0,0,0,-1,1840,1135,0,0
623,-111,0,0,0,0,0,0,0,0,0,-1,1847,1135,0,0
630,-111,0,0,0,0,0,0,0,0,0,-1,1854,1135,0,0
637,-111,0,0,0,0,0,0,0,0,0,-1,1861,1135,0,0
644,-111,70.6624,2.46643,0.00718331,0.000194133,-0.000539511,0.00722471,0.000152732,-0.0765876,0.00476638,0.0375407,1868,1135,70.6624,-2.46638
651,-111,70.9198,2.4137,0.00543954,0.00046307,-0.00067279,0.00552889,0.000373717,-0.132037,0.00356788,0.0393222,1875,1135,70.9198,-2.41372
658,-111,71.2059,2.21765,0.00419118,0.000521742,-0.000715131,0.00432562,0.000387297,-0.185831,0.00276371,0.0443147,1882,1135,71.206,-2.21765
665,-111,71.0774,2.01013,0.00317846,0.000533072,-0.000733835,0.00336839,0.000343141,-0.253262,0.0021404,0.047243,1889,1135,71.0773,-2.01016
672,-111,71.0198,2.23364,0.00236497,0.000500073,-0.000737402,0.00262131,0.000243731,-0.334561,0.00167223,0.0443216,1896,1135,71.0197,-2.23359
679,-111,70.8981,2.23669,0.00194956,0.000256717,-0.000620569,0.00215268,5.35984e-05,-0.316321,0.00141759,0.0401783,1903,1135,70.898,-2.23673
686,-111,70.8789,2.16174,0.00217464,7.03389e-06,-0.00051812,0.00229212,-0.000110444,-0.22297,0.0015662,0.0393999,1910,1135,70.8789,-2.1618
693,-111,70.9021,2.20801,0.00221546,-0.000221148,-0.000391871,0.00227693,-0.000282621,-0.155601,0.0016204,0.0351551,1917,1135,70.9021,-2.20795
700,-111,70.9692,2.19739,0.00214319,-0.000357606,-0.000194105,0.00215817,-0.000372582,-0.0770028,0.0015777,0.0241423,1924,1135,70.9693,-2.19733
707,-111,70.9785,2.20264,0,0,0,0,0,0,0,-1,1931,1135,70.9785,-2.20269
714,-111,45.1654,7.39746,0,0,0,0,0,0,0,-1,1938,1135,45.1654,-7.39745
721,-111,64.7922,9.31506,0,0,0,0,0,0,0,-1,1945,1135,64.7923,-9.31509
728,-111,64.9232,8.58374,0.000817572,0.000357798,0.00102686,0.00163996,-0.000464593,0.675277,0.00127667,0.0296849,1952,1135,64.9232,-8.58371
735,-111,64.9702,8.02319,0.000313441,0.000646788,0.00141567,0.00190556,-0.000945328,0.843996,0.00167679,0.0310959,1959,1135,64.9702,-8.02317
742,-111,64.8311,7.46484,-0.000370707,0.00099559,0.00183492,0.00227041,-0.00164553,0.9636,0.00227044,0.0200624,1966,1135,64.8311,-7.46486
749,-111,64.7181,6.875,-0.00167517,0.00166201,0.00210185,0.00267707,-0.00269023,1.12089,0.00309881,0.0206523,1973,1135,64.7182,-6.87495
756,-111,64.6847,6.32483,-0.00391811,0.00258795,0.00224744,0.0032888,-0.00461897,1.26851,0.00458703,0.0174192,1980,1135,64.6847,-6.32486
763,-111,64.6592,5.82056,-0.00687952,0.00359356,0.00213783,0.00401314,-0.0072991,1.377,0.00662233,0.0156617,1987,1135,64.6592,-5.82056
770,-111,64.6343,5.26611,-0.0101229,0.00439823,0.00170429,0.00459557,-0.0103203,1.45552,0.00882056,0.0137737,1994,1135,64.6344,-5.26607
777,-111,64.4521,4.70007,-0.0133923,0.00480737,0.000961206,0.00485799,-0.0134429,1.51818,0.0109467,0.0290771,2001,1135,64.4522,-4.70005
784,-111,64.2422,4.35291,-0.016705,0.00458069,-0.000171553,0.00458207,-0.0167064,-1.56274,0.0129383,0.0435126,2008,1135,64.2422,-4.35289
791,-111,64.0667,4.15161,-0.019811,0.0033921,-0.00195845,0.00355624,-0.0199751,-1.48718,0.0146468,0.0451611,2015,1135,64.0667,-4.15159
798,-111,63.9875,3.85522,-0.0231064,0.000473474,-0.00463033,0.00135013,-0.023983,-1.38368,0.0164572,0.0469835,2022,1135,63.9875,-3.8552
805,-111,64.1055,3.64001,0,0,0,0,0,0,0,-1,2029,1135,64.1056,-3.64006
812,-111,64.1104,3.2959,0,0,0,0,0,0,0,-1,2036,1135,64.1103,-3.2959
-700,-118,0,0,0,0,0,0,0,0,0,-1,524,1142,0,0
-693,-118,-49.9525,-0.231689,0,0,0,0,0,0,0,-1,531,1142,-49.9525,0.23168
-686,-118,-49.6512,0.743774,0,0,0,0,0,0,0,-1,538,1142,-49.6511,-0.743835
-679,-118,-55.3464,3.01538,0,0,0,0,0,0,0,-1,545,1142,-55.3464,-3.01534
-672,-118,-55.0115,3.99609,0,0,0,0,0,0,0,-1,552,1142,-55.0115,-3.99603
-665,-118,-54.6767,4.97668,0,0,0,0,0,0,0,-1,559,1142,-54.6767,-4.97673
-658,-118,-44.7487,0.726318,0,0,0,0,0,0,0,-1,566,1142,-44.7487,-0.726346
-651,-118,-47.8529,2.08704,0,0,0,0,0,0,0,-1,573,1142,-47.8529,-2.08709
-644,-118,-48.1913,2.85583,0.00425867,0.027234,-0.00955486,0.0306883,0.000804387,-1.22389,0.0201961,0.0374042,580,1142,-48.1914,-2.85584
-637,-118,-48.4306,3.57764,0.00211244,0.0185302,-0.00723802,0.0212655,-0.000622841,-1.20948,0.0143891,0.0196185,587,1142,-48.4306,-3.57768
-630,-118,-48.4957,4.12817,0.000476759,0.011287,-0.00541853,0.0135354,-0.0017716,-1.17748,0.00966837,0.0281458,594,1142,-48.4957,-4.12813
-623,-118,-48.495,4.75696,-0.00032094,0.00461928,-0.00273941,0.00583777,-0.00153944,-1.15227,0.00449377,0.0222798,601,1142,-48.495,-4.75694
-616,-118,-48.6539,5.32678,-0.00015852,3.30202e-05,-0.000857065,0.00079965,-0.00092515,-0.841038,0.000996692,0.0350726,608,1142,-48.6539,-5.32677
-609,-118,-49.1912,5.79993,0,0,0,0,0,0,0,-1,615,1142,-49.1912,-5.79996
-602,-118,-49.1351,6.42834,0,0,0,0,0,0,0,-1,622,1142,-49.1351,-6.42837
-595,-118,-48.8104,7.07983,0,0,0,0,0,0,0,-1,629,1142,-48.8104,-7.07982
-588,-118,-48.1277,8.10364,0,0,0,0,0,0,0,-1,636,1142,-48.1277,-8.10363
-581,-118,-24.6116,3.89648,0,0,0,0,0,0,0,-1,643,1142,-24.6116,-3.89645
-574,-118,-54.2739,0.4375,0,0,0,0,0,0,0,-1,650,1142,-54.2739,-0.4375
-567,-118,-54.3385,0.52356,0,0,0,0,0,0,0,-1,657,1142,-54.3385,-0.523569
-560,-118,-54.2839,0.57251,0,0,0,0,0,0,0,-1,664,1142,-54.2839,-0.572508
-553,-118,-54.0789,0.409668,0,0,0,0,0,0,0,-1,671,1142,-54.0789,-0.409649
-546,-118,-54.0728,0.431763,0,0,0,0,0,0,0,-1,678,1142,-54.0728,-0.431813
-539,-118,-54.2279,0.627563,0,0,0,0,0,0,0,-1,685,1142,-54.2279,-0.62751
-532,-118,-54.3289,0.556641,0,0,0,0,0,0,0,-1,692,1142,-54.3289,-0.556656
-525,-118,-54.4304,0.443359,0,0,0,0,0,0,0,-1,699,1142,-54.4304,-0.443391
-518,-118,0,0,0,0,0,0,0,0,0,-1,706,1142,0,0
-511,-118,0,0,0,0,0,0,0,0,0,-1,713,1142,0,0
-504,-118,0,0,0,0,0,0,0,0,0,-1,720,1142,0,0
-497,-118,0,0,0,0,0,0,0,0,0,-1,727,1142,0,0
-490,-118,0,0,0,0,0,0,0,0,0,-1,734,1142,0,0
-483,-118,0,0,0,0,0,0,0,0,0,-1,741,1142,0,0
-476,-118,0,0,0,0,0,0,0,0,0,-1,748,1142,0,0
-469,-118,0,0,0,0,0,0,0,0,0,-1,755,1142,0,0
-462,-118,0,0,0,0,0,0,0,0,0,-1,762,1142,0,0
-455,-118,0,0,0,0,0,0,0,0,0,-1,769,1142,0,0
-448,-118,0,0,0,0,0,0,0,0,0,-1,776,1142,0,0
-441,-118,0,0,0,0,0,0,0,0,0,-1,783,1142,0,0
-434,-118,0,0,0,0,0,0,0,0,0,-1,790,1142,0,0
-427,-118,0,0,0,0,0,0,0,0,0,-1,797,1142,0,0
-420,-118,0,0,0,0,0,0,0,0,0,-1,804,1142,0,0
-413,-118,0,0,0,0,0,0,0,0,0,-1,811,1142,0,0
-406,-118,0,0,0,0,0,0,0,0,0,-1,818,1142,0,0
-399,-118,0,0,0,0,0,0,0,0,0,-1,825,1142,0,0
-392,-118,0,0,0,0,0,0,0,0,0,-1,832,1142,0,0
-385,-118,0,0,0,0,0,0,0,0,0,-1,839,1142,0,0
-378,-118,0,0,0,0,0,0,0,0,0,-1,846,1142,0,0
-371,-118,0,0,0,0,0,0,0,0,0,-1,853,1142,0,0
-364,-118,0,0,0,0,0,0,0,0,0,-1,860,1142,0,0
-357,-118,0,0,0,0,0,0,0,0,0,-1,867,1142,0,0
-350,-118,0,0,0,0,0,0,0,0,0,-1,874,1142,0,0
-343,-118,0,0,0,0,0,0,0,0,0,-1,881,1142,0,0
-336,-118,0,0,0,0,0,0,0,0,0,-1,888,1142,0,0
-329,-118,0,0,0,0,0,0,0,0,0,-1,895,1142,0,0
-322,-118,0,0,0,0,0,0,0,0,0,-1,902,1142,0,0
-315,-118,0,0,0,0,0,0,0,0,0,-1,909,1142,0,0
-308,-118,0,0,0,0,0,0,0,0,0,-1,916,1142,0,0
-301,-118,0,0,0,0,0,0,0,0,0,-1,923,1142,0,0
-294,-118,0,0,0,0,0,0,0,0,0,-1,930,1142,0,0
-287,-118,0,0,0,0,0,0,0,0,0,-1,937,1142,0,0
-280,-118,0,0,0,0,0,0,0,0,0,-1,944,1142,0,0
-273,-118,0,0,0,0,0,0,0,0,0,-1,951,1142,0,0
-266,-118,0,0,0,0,0,0,0,0,0,-1,958,1142,0,0
-259,-118,0,0,0,0,0,0,0,0,0,-1,965,1142,0,0
-252,-118,0,0,0,0,0,0,0,0,0,-1,972,1142,0,0
-245,-118,0,0,0,0,0,0,0,0,0,-1,979,1142,0,0
-238,-118,0,0,0,0,0,0,0,0,0,-1,986,1142,0,0
-231,-118,0,0,0,0,0,0,0,0,0,-1,993,1142,0,0
-224,-118,0,0,0,0,0,0,0,0,0,-1,1000,1142,0,0
-217,-118,0,0,0,0,0,0,0,0,0,-1,1007,1142,0,0
-210,-118,0,0,0,0,0,0,0,0,0,-1,1014,1142,0,0
-203,-118,0,0,0,0,0,0,0,0,0,-1,1021,1142,0,0
-196,-118,0,0,0,0,0,0,0,0,0,-1,1028,1142,0,0
-189,-118,0,0,0,0,0,0,0,0,0,-1,1035,1142,0,0
-182,-118,0,0,0,0,0,0,0,0,0,-1,1042,1142,0,0
-175,-118,0,0,0,0,0,0,0,0,0,-1,1049,1142,0,0
-168,-118,0,0,0,0,0,0,0,0,0,-1,1056,1142,0,0
-161,-118,0,0,0,0,0,0,0,0,0,-1,1063,1142,0,0
-154,-118,0,0,0,0,0,0,0,0,0,-1,1070,1142,0,0
-147,-118,0,0,0,0,0,0,0,0,0,-1,1077,1142,0,0
-140,-118,0,0,0,0,0,0,0,0,0,-1,1084,1142,0,0
-133,-118,0,0,0,0,0,0,0,0,0,-1,1091,1142,0,0
-126,-118,0,0,0,0,0,0,0,0,0,-1,1098,1142,0,0
-119,-118,0,0,0,0,0,0,0,0,0,-1,1105,1142,0,0
-112,-118,0,0,0,0,0,0,0,0,0,-1,1112,1142,0,0
-105,-118,0,0,0,0,0,0,0,0,0,-1,1119,1142,0,0
-98,-118,0,0,0,0,0,0,0,0,0,-1,1126,1142,0,0
-91,-118,0,0,0,0,0,0,0,0,0,-1,1133,1142,0,0
-84,-118,0,0,0,0,0,0,0,0,0,-1,1140,1142,0,0
-77,-118,0,0,0,0,0,0,0,0,0,-1,1147,1142,0,0
-70,-118,0,0,0,0,0,0,0,0,0,-1,1154,1142,0,0
-63,-118,0,0,0,0,0,0,0,0,0,-1,1161,1142,0,0
-56,-118,0,0,0,0,0,0,0,0,0,-1,1168,1142,0,0
-49,-118,0,0,0,0,0,0,0,0,0,-1,1175,1142,0,0
-42,-118,0,0,0,0,0,0,0,0,0,-1,1182,1142,0,0
-35,-118,0,0,0,0,0,0,0,0,0,-1,1189,1142,0,0
-28,-118,0,0,0,0,0,0,0,0,0,-1,1196,1142,0,0
-21,-118,0,0,0,0,0,0,0,0,0,-1,1203,1142,0,0
-14,-118,0,0,0,0,0,0,0,0,0,-1,1210,1142,0,0
-7,-118,0,0,0,0,0,0,0,0,0,-1,1217,1142,0,0
0,-118,0,0,0,0,0,0,0,0,0,-1,1224,1142,0,0
7,-118,0,0,0,0,0,0,0,0,0,-1,1231,1142,0,0
14,-118,0,0,0,0,0,0,0,0,0,-1,1238,1142,0,0
21,-118,0,0,0,0,0,0,0,0,0,-1,1245,1142,0,0
28,-118,0,0,0,0,0,0,0,0,0,-1,1252,1142,0,0
35,-118,0,0,0,0,0,0,0,0,0,-1,1259,1142,0,0
42,-118,0,0,0,0,0,0,0,0,0,-1,1266,1142,0,0
49,-118,0,0,0,0,0,0,0,0,0,-1,1273,1142,0,0
56,-118,0,0,0,0,0,0,0,0,0,-1,1280,1142,0,0
63,-118,0,0,0,0,0,0,0,0,0,-1,1287,1142,0,0
70,-118,0,0,0,0,0,0,0,0,0,-1,1294,1142,0,0
77,-118,0,0,0,0,0,0,0,0,0,-1,1301,1142,0,0
84,-118,0,0,0,0,0,0,0,0,0,-1,1308,1142,0,0
91,-118,0,0,0,0,0,0,0,0,0,-1,1315,1142,0,0
98,-118,0,0,0,0,0,0,0,0,0,-1,1322,1142,0,0
105,-118,0,0,0,0,0,0,0,0,0,-1,1329,1142,0,0
112,-118,0,0,0,0,0,0,0,0,0,-1,1336,1142,0,0
119,-118,0,0,0,0,0,0,0,0,0,-1,1343,1142,0,0
126,-118,0,0,0,0,0,0,0,0,0,-1,1350,1142,0,0
133,-118,0,0,0,0,0,0,0,0,0,-1,1357,1142,0,0
140,-118,0,0,0,0,0,0,0,0,0,-1,1364,1142,0,0
147,-118,0,0,0,0,0,0,0,0,0,-1,1371,1142,0,0
154,-118,0,0,0,0,0,0,0,0,0,-1,1378,1142,0,0
161,-118,0,0,0,0,0,0,0,0,0,-1,1385,1142,0,0
168,-118,0,0,0,0,0,0,0,0,0,-1,1392,1142,0,0
175,-118,0,0,0,0,0,0,0,0,0,-1,1399,1142,0,0
182,-118,0,0,0,0,0,0,0,0,0,-1,1406,1142,0,0
189,-118,0,0,0,0,0,0,0,0,0,-1,1413,1142,0,0
196,-118,0,0,0,0,0,0,0,0,0,-1,1420,1142,0,0
203,-118,0,0,0,0,0,0,0,0,0,-1,1427,1142,0,0
210,-118,0,0,0,0,0,0,0,0,0,-1,1434,1142,0,0
217,-118,0,0,0,0,0,0,0,0,0,-1,1441,1142,0,0
224,-118,0,0,0,0,0,0,0,0,0,-1,1448,1142,0,0
231,-118,0,0,0,0,0,0,0,0,0,-1,1455,1142,0,0
238,-118,0,0,0,0,0,0,0,0,0,-1,1462,1142,0,0
245,-118,0,0,0,0,0,0,0,0,0,-1,1469,1142,0,0
252,-118,0,0,0,0,0,0,0,0,0,-1,1476,1142,0,0
259,-118,0,0,0,0,0,0,0,0,0,-1,1483,1142,0,0
266,-118,0,0,0,0,0,0,0,0,0,-1,1490,1142,0,0
273,-118,0,0,0,0,0,0,0,0,0,-1,1497,1142,0,0
280,-118,0,0,0,0,0,0,0,0,0,-1,1504,1142,0,0
287,-118,0,0,0,0,0,0,0,0,0,-1,1511,1142,0,0
294,-118,0,0,0,0,0,0,0,0,0,-1,1518,1142,0,0
301,-118,0,0,0,0,0,0,0,0,0,-1,1525,1142,0,0
308,-118,0,0,0,0,0,0,0,0,0,-1,1532,1142,0,0
315,-118,0,0,0,0,0,0,0,0,0,-1,1539,1142,0,0
322,-118,0,0,0,0,0,0,0,0,0,-1,1546,1142,0,0
329,-118,0,0,0,0,0,0,0,0,0,-1,1553,1142,0,0
336,-118,0,0,0,0,0,0,0,0,0,-1,1560,1142,0,0
343,-118,0,0,0,0,0,0,0,0,0,-1,1567,1142,0,0
350,-118,0,0,0,0,0,0,0,0,0,-1,1574,1142,0,0
357,-118,0,0,0,0,0,0,0,0,0,-1,1581,1142,0,0
364,-118,0,0,0,0,0,0,0,0,0,-1,1588,1142,0,0
371,-118,0,0,0,0,0,0,0,0,0,-1,1595,1142,0,0
378,-118,0,0,0,0,0,0,0,0,0,-1,1602,1142,0,0
385,-118,0,0,0,0,0,0,0,0,0,-1,1609,1142,0,0
392,-118,0,0,0,0,0,0,0,0,0,-1,1616,1142,0,0
399,-118,0,0,0,0,0,0,0,0,0,-1,1623,1142,0,0
406,-118,0,0,0,0,0,0,0,0,0,-1,1630,1142,0,0
413,-118,0,0,0,0,0,0,0,0,0,-1,1637,1142,0,0
420,-118,0,0,0,0,0,0,0,0,0,-1,1644,1142,0,0
427,-118,0,0,0,0,0,0,0,0,0,-1,1651,1142,0,0
434,-118,0,0,0,0,0,0,0,0,0,-1,1658,1142,0,0
441,-118,0,0,0,0,0,0,0,0,0,-1,1665,1142,0,0
448,-118,0,0,0,0,0,0,0,0,0,-1,1672,1142,0,0
455,-118,0,0,0,0,0,0,0,0,0,-1,1679,1142,0,0
462,-118,0,0,0,0,0,0,0,0,0,-1,1686,1142,0,0
469,-118,0,0,0,0,0,0,0,0,0,-1,1693,1142,0,0
476,-118,0,0,0,0,0,0,0,0,0,-1,1700,1142,0,0
483,-118,0,0,0,0,0,0,0,0,0,-1,1707,1142,0,0
490,-118,0,0,0,0,0,0,0,0,0,-1,1714,1142,0,0
497,-118,0,0,0,0,0,0,0,0,0,-1,1721,1142,0,0
504,-118,0,0,0,0,0,0,0,0,0,-1,1728,1142,0,0
511,-118,0,0,0,0,0,0,0,0,0,-1,1735,1142,0,0
518,-118,0,0,0,0,0,0,0,0,0,-1,1742,1142,0,0
525,-118,0,0,0,0,0,0,0,0,0,-1,1749,1142,0,0
532,-118,0,0,0,0,0,0,0,0,0,-1,1756,1142,0,0
539,-118,0,0,0,0,0,0,0,0,0,-1,1763,1142,0,0
546,-118,0,0,0,0,0,0,0,0,0,-1,1770,1142,0,0
553,-118,0,0,0,0,0,0,0,0,0,-1,1777,1142,0,0
560,-118,0,0,0,0,0,0,0,0,0,-1,1784,1142,0,0
567,-118,0,0,0,0,0,0,0,0,0,-1,1791,1142,0,0
574,-118,0,0,0,0,0,0,0,0,0,-1,1798,1142,0,0
581,-118,0,0,0,0,0,0,0,0,0,-1,1805,1142,0,0
588,-118,0,0,0,0,0,0,0,0,0,-1,1812,1142,0,0
595,-118,0,0,0,0,0,0,0,0,0,-1,1819,1142,0,0
602,-118,0,0,0,0,0,0,0,0,0,-1,1826,1142,0,0
609,-118,0,0,0,0,0,0,0,0,0,-1,1833,1142,0,0
616,-118,0,0,0,0,0,0,0,0,0,-1,1840,1142,0,0
623,-118,0,0,0,0,0,0,0,0,0,-1,1847,1142,0,0
630,-118,0,0,0,0,0,0,0,0,0,-1,1854,1142,0,0
637,-118,0,0,0,0,0,0,0,0,0,-1,1861,1142,0,0
644,-118,70.6981,2.53113,0.00667088,5.56268e-05,-0.00055422,0.00671699,9.51649e-06,-0.083008,0.00447482,0.0375362,1868,1142,70.6981,-2.53118
651,-118,70.9188,2.46899,0.00505464,0.000336593,-0.000662398,0.00514588,0.000245359,-0.136872,0.00335179,0.0382533,1875,1142,70.9189,-2.46904
658,-118,71.0674,2.38,0.00387253,0.000435278,-0.000696625,0.00400835,0.00029946,-0.19255,0.00257822,0.0390162,1882,1142,71.0674,-2.37996
665,-118,71.1442,2.276,0,0,0,0,0,0,0,-1,1889,1142,71.1442,-2.27596
672,-118,70.9716,2.35693,0.00212353,0.00050049,-0.000720034,0.00239692,0.000227108,-0.362867,0.00152788,0.0436479,1896,1142,70.9716,-2.35695
679,-118,70.8887,2.39478,0.0017785,0.000257197,-0.000580677,0.00197481,6.08864e-05,-0.326009,0.00129672,0.0420585,1903,1142,70.8887,-2.3948
686,-118,70.8671,2.28455,0.00213762,2.82073e-05,-0.00046308,0.0022348,-6.89754e-05,-0.20686,0.00151339,0.0378637,1910,1142,70.867,-2.28451
693,-118,70.8601,2.24219,0.00224933,-0.000177909,-0.000343908,0.00229712,-0.000225695,-0.138067,0.00161192,0.0319727,1917,1142,70.8601,-2.24221
700,-118,70.9462,2.21936,0.00219394,-0.000314413,-0.000160719,0.0022042,-0.000324669,-0.0637261,0.00158878,0.0190948,1924,1142,70.9462,-2.21935
707,-118,71.0018,2.31897,0,0,0,0,0,0,0,-1,1931,1142,71.0018,-2.319
714,-118,50.4819,8.53809,0,0,0,0,0,0,0,-1,1938,1142,50.4819,-8.53809
721,-118,64.2238,9.34009,0,0,0,0,0,0,0,-1,1945,1142,64.2237,-9.34011
728,-118,64.2739,8.7063,0.00115328,0.000288381,0.00102147,0.00183007,-0.000388407,0.585157,0.00136802,0.0239948,1952,1142,64.2739,-8.70632
735,-118,64.2761,8.12317,0.000814616,0.000451882,0.00140487,0.00204978,-0.000783283,0.721204,0.00168927,0.0240558,1959,1142,64.2762,-8.12311
742,-118,64.2443,7.55151,0.00027351,0.000695547,0.00184196,0.00233854,-0.00136948,0.84243,0.00216506,0.0335024,1966,1142,64.2443,-7.55146
749,-118,64.1195,6.97522,-0.00101745,0.00129984,0.00215011,0.00258361,-0.00230122,1.03253,0.00282183,0.0250165,1973,1142,64.1195,-6.97521
756,-118,64.1162,6.35693,-0.00331946,0.00219467,0.00235819,0.00306562,-0.00419041,1.21701,0.00420601,0.0189106,1980,1142,64.1163,-6.35692
763,-118,64.1309,5.79041,-0.0062496,0.00301624,0.00237989,0.00359176,-0.00682512,1.33353,0.00611,0.0112536,1987,1142,64.1307,-5.79042
770,-118,64.0325,5.25916,-0.00936207,0.00355116,0.00215348,0.00390082,-0.00971173,1.40983,0.00809438,0.014809,1994,1142,64.0326,-5.25916
777,-118,63.8477,4.74768,-0.0124771,0.00364468,0.00166958,0.00381577,-0.0126482,1.46868,0.009951,0.0316694,2001,1142,63.8476,-4.74763
784,-118,63.7107,4.27661,-0.0156328,0.00300716,0.000858891,0.00304665,-0.0156723,1.52485,0.0115979,0.0477501,2008,1142,63.7107,-4.27657
791,-118,63.6252,3.82837,0,0,0,0,0,0,0,-1,2015,1142,63.6253,-3.82841
798,-118,63.7803,3.88281,0,0,0,0,0,0,0,-1,2022,1142,63.7804,-3.88278
805,-118,63.8909,3.87524,0,0,0,0,0,0,0,-1,2029,1142,63.8908,-3.87521
812,-118,63.5508,3.48438,0,0,0,0,0,0,0,-1,2036,1142,63.5508,-3.48443
-700,-125,0,0,0,0,0,0,0,0,0,-1,524,1149,0,0
-693,-125,-49.2415,-0.790039,0,0,0,0,0,0,0,-1,531,1149,-49.2416,0.789984
-686,-125,-53.7309,0.27356,0,0,0,0,0,0,0,-1,538,1149,-53.7309,-0.273618
-679,-125,-53.3555,1.73438,0.0462156,0.11758,-0.021618,0.123618,0.0401778,-1.29844,0.0728132,0.0457703,545,1149,-53.3555,-1.73438
-672,-125,-52.874,2.96667,0.0382118,0.0989733,-0.0222173,0.10623,0.0309548,-1.25509,0.0630863,0.0473802,552,1149,-52.874,-2.96668
-665,-125,-52.9861,3.67407,0,0,0,0,0,0,0,-1,559,1149,-52.9861,-3.67407
-658,-125,-48.651,1.02966,0,0,0,0,0,0,0,-1,566,1149,-48.651,-1.02965
-651,-125,-48.0779,2.05798,0.016478,0.0481806,-0.0148022,0.0540173,0.0106413,-1.1952,0.0330406,0.0477646,573,1149,-48.078,-2.05793
-644,-125,-47.6265,3.00208,0.0108089,0.0345128,-0.0114846,0.0391643,0.00615741,-1.18597,0.0243183,0.0357061,580,1149,-47.6265,-3.00212
-637,-125,-47.7904,3.58411,0.00602342,0.0225962,-0.00821812,0.0259803,0.00263925,-1.18016,0.0165109,0.0155693,587,1149,-47.7904,-3.58417
-630,-125,-47.8106,4.16309,0.00215418,0.012723,-0.00557037,0.0151168,-0.000239555,-1.16493,0.0101586,0.0158824,594,1149,-47.8106,-4.16314
-623,-125,-47.8268,4.7843,-0.000469574,0.00427975,-0.00239247,0.00527598,-0.00146581,-1.17623,0.00409434,0.01409,601,1149,-47.8268,-4.78429
-616,-125,-47.9014,5.35144,-0.00126126,-0.000687733,-0.000375384,-0.000502112,-0.00144688,-1.11157,0.000848287,0.0351991,608,1149,-47.9014,-5.35148
-609,-125,-48.0772,6.17688,0,0,0,0,0,0,0,-1,615,1149,-48.0772,-6.17688
-602,-125,-48.0045,6.70398,0.00355678,-0.00236227,-0.000336453,0.00357584,-0.00238134,-0.0565994,0.00346235,0.04884,622,1149,-48.0045,-6.70398
-595,-125,-48.2003,7.22717,0,0,0,0,0,0,0,-1,629,1149,-48.2003,-7.22713
-588,-125,-47.2589,8.04492,0,0,0,0,0,0,0,-1,636,1149,-47.2589,-8.04496
-581,-125,-26.4055,4.83203,0,0,0,0,0,0,0,-1,643,1149,-26.4055,-4.83204
-574,-125,-37.674,0.655151,0,0,0,0,0,0,0,-1,650,1149,-37.674,-0.655195
-567,-125,-54.267,0.447876,0,0,0,0,0,0,0,-1,657,1149,-54.267,-0.447875
-560,-125,-54.2772,0.457275,0,0,0,0,0,0,0,-1,664,1149,-54.2771,-0.457258
-553,-125,-54.2335,0.480225,0,0,0,0,0,0,0,-1,671,1149,-54.2335,-0.480197
-546,-125,-54.2875,0.414307,0,0,0,0,0,0,0,-1,678,1149,-54.2875,-0.414339
-539,-125,-54.2786,0.528687,0,0,0,0,0,0,0,-1,685,1149,-54.2786,-0.528626
-532,-125,-54.41,0.734375,0,0,0,0,0,0,0,-1,692,1149,-54.41,-0.734435
-525,-125,-54.3458,0.425903,0,0,0,0,0,0,0,-1,699,1149,-54.3458,-0.42591
-518,-125,0,0,0,0,0,0,0,0,0,-1,706,1149,0,0
-511,-125,0,0,0,0,0,0,0,0,0,-1,713,1149,0,0
-504,-125,0,0,0,0,0,0,0,0,0,-1,720,1149,0,0
-497,-125,0,0,0,0,0,0,0,0,0,-1,727,1149,0,0
-490,-125,0,0,0,0,0,0,0,0,0,-1,734,1149,0,0
-483,-125,0,0,0,0,0,0,0,0,0,-1,741,1149,0,0
-476,-125,0,0,0,0,0,0,0,0,0,-1,748,1149,0,0
-469,-125,0,0,0,0,0,0,0,0,0,-1,755,1149,0,0
-462,-125,0,0,0,0,0,0,0,0,0,-1,762,1149,0,0
-455,-125,0,0,0,0,0,0,0,0,0,-1,769,1149,0,0
-448,-125,0,0,0,0,0,0,0,0,0,-1,776,1149,0,0
-441,-125,0,0,0,0,0,0,0,0,0,-1,783,1149,0,0
-434,-125,0,0,0,0,0,0,0,0,0,-1,790,1149,0,0
-427,-125,0,0,0,0,0,0,0,0,0,-1,797,1149,0,0
-420,-125,0,0,0,0,0,0,0,0,0,-1,804,1149,0,0
-413,-125,0,0,0,0,0,0,0,0,0,-1,811,1149,0,0
-406,-125,0,0,0,0,0,0,0,0,0,-1,818,1149,0,0
-399,-125,0,0,0,0,0,0,0,0,0,-1,825,1149,0,0
-392,-125,0,0,0,0,0,0,0,0,0,-1,832,1149,0,0
-385,-125,0,0,0,0,0,0,0,0,0,-1,839,1149,0,0
-378,-125,0,0,0,0,0,0,0,0,0,-1,846,1149,0,0
-371,-125,0,0,0,0,0,0,0,0,0,-1,853,1149,0,0
-364,-125,0,0,0,0,0,0,0,0,0,-1,860,1149,0,0
-357,-125,0,0,0,0,0,0,0,0,0,-1,867,1149,0,0
-350,-125,0,0,0,0,0,0,0,0,0,-1,874,1149,0,0
-343,-125,0,0,0,0,0,0,0,0,0,-1,881,1149,0,0
-336,-125,0,0,0,0,0,0,0,0,0,-1,888,1149,0,0
-329,-125,0,0,0,0,0,0,0,0,0,-1,895,1149,0,0
-322,-125,0,0,0,0,0,0,0,0,0,-1,902,1149,0,0
-315,-125,0,0,0,0,0,0,0,0,0,-1,909,1149,0,0
-308,-125,0,0,0,0,0,0,0,0,0,-1,916,1149,0,0
-301,-125,0,0,0,0,0,0,0,0,0,-1,923,1149,0,0
-294,-125,0,0,0,0,0,0,0,0,0,-1,930,1149,0,0
-287,-125,0,0,0,0,0,0,0,0,0,-1,937,1149,0,0
-280,-125,0,0,0,0,0,0,0,0,0,-1,944,1149,0,0
-273,-125,0,0,0,0,0,0,0,0,0,-1,951,1149,0,0
-266,-125,0,0,0,0,0,0,0,0,0,-1,958,1149,0,0
-259,-125,0,0,0,0,0,0,0,0,0,-1,965,1149,0,0
-252,-125,0,0,0,0,0,0,0,0,0,-1,972,1149,0,0
-245,-125,0,0,0,0,0,0,0,0,0,-1,979,1149,0,0
-238,-125,0,0,0,0,0,0,0,0,0,-1,986,1149,0,0
-231,-125,0,0,0,0,0,0,0,0,0,-1,993,1149,0,0
-224,-125,0,0,0,0,0,0,0,0,0,-1,1000,1149,0,0
-217,-125,0,0,0,0,0,0,0,0,0,-1,1007,1149,0,0
-210,-125,0,0,0,0,0,0,0,0,0,-1,1014,1149,0,0
-203,-125,0,0,0,0,0,0,0,0,0,-1,1021,1149,0,0
-196,-125,0,0,0,0,0,0,0,0,0,-1,1028,1149,0,0
-189,-125,0,0,0,0,0,0,0,0,0,-1,1035,1149,0,0
-182,-125,0,0,0,0,0,0,0,0,0,-1,1042,1149,0,0
-175,-125,0,0,0,0,0,0,0,0,0,-1,1049,1149,0,0
-168,-125,0,0,0,0,0,0,0,0,0,-1,1056,1149,0,0
-161,-125,0,0,0,0,0,0,0,0,0,-1,1063,1149,0,0
-154,-125,0,0,0,0,0,0,0,0,0,-1,1070,1149,0,0
-147,-125,0,0,0,0,0,0,0,0,0,-1,1077,1149,0,0
-140,-125,0,0,0,0,0,0,0,0,0,-1,1084,1149,0,0
-133,-125,0,0,0,0,0,0,0,0,0,-1,1091,1149,0,0
-126,-125,0,0,0,0,0,0,0,0,0,-1,1098,1149,0,0
-119,-125,0,0,0,0,0,0,0,0,0,-1,1105,1149,0,0
-112,-125,0,0,0,0,0,0,0,0,0,-1,1112,1149,0,0
-105,-125,0,0,0,0,0,0,0,0,0,-1,1119,1149,0,0
-98,-125,0,0,0,0,0,0,0,0,0,-1,1126,1149,0,0
-91,-125,0,0,0,0,0,0,0,0,0,-1,1133,1149,0,0
-84,-125,0,0,0,0,0,0,0,0,0,-1,1140,1149,0,0
-77,-125,0,0,0,0,0,0,0,0,0,-1,1147,1149,0,0
-70,-125,0,0,0,0,0,0,0,0,0,-1,1154,1149,0,0
-63,-125,0,0,0,0,0,0,0,0,0,-1,1161,1149,0,0
-56,-125,0,0,0,0,0,0,0,0,0,-1,1168,1149,0,0
-49,-125,0,0,0,0,0,0,0,0,0,-1,1175,1149,0,0
-42,-125,0,0,0,0,0,0,0,0,0,-1,1182,1149,0,0
-35,-125,0,0,0,0,0,0,0,0,0,-1,1189,1149,0,0
-28,-125,0,0,0,0,0,0,0,0,0,-1,1196,1149,0,0
-21,-125,0,0,0,0,0,0,0,0,0,-1,1203,1149,0,0
-14,-125,0,0,0,0,0,0,0,0,0,-1,1210,1149,0,0
-7,-125,0,0,0,0,0,0,0,0,0,-1,1217,1149,0,0
0,-125,0,0,0,0,0,0,0,0,0,-1,1224,1149,0,0
7,-125,0,0,0,0,0,0,0,0,0,-1,1231,1149,0,0
14,-125,0,0,0,0,0,0,0,0,0,-1,1238,1149,0,0
21,-125,0,0,0,0,0,0,0,0,0,-1,1245,1149,0,0
28,-125,0,0,0,0,0,0,0,0,0,-1,1252,1149,0,0
35,-125,0,0,0,0,0,0,0,0,0,-1,1259,1149,0,0
42,-125,0,0,0,0,0,0,0,0,0,-1,1266,1149,0,0
49,-125,0,0,0,0,0,0,0,0,0,-1,1273,1149,0,0
56,-125,0,0,0,0,0,0,0,0,0,-1,1280,1149,0,0
63,-125,0,0,0,0,0,0,0,0,0,-1,1287,1149,0,0
70,-125,0,0,0,0,0,0,0,0,0,-1,1294,1149,0,0
77,-125,0,0,0,0,0,0,0,0,0,-1,1301,1149,0,0
84,-125,0,0,0,0,0,0,0,0,0,-1,1308,1149,0,0
91,-125,0,0,0,0,0,0,0,0,0,-1,1315,1149,0,0
98,-125,0,0,0,0,0,0,0,0,0,-1,1322,1149,0,0
105,-125,0,0,0,0,0,0,0,0,0,-1,1329,1149,0,0
112,-125,0,0,0,0,0,0,0,0,0,-1,1336,1149,0,0
119,-125,0,0,0,0,0,0,0,0,0,-1,1343,1149,0,0
126,-125,0,0,0,0,0,0,0,0,0,-1,1350,1149,0,0
133,-125,0,0,0,0,0,0,0,0,0,-1,1357,1149,0,0
140,-125,0,0,0,0,0,0,0,0,0,-1,1364,1149,0,0
147,-125,0,0,0,0,0,0,0,0,0,-1,1371,1149,0,0
154,-125,0,0,0,0,0,0,0,0,0,-1,1378,1149,0,0
161,-125,0,0,0,0,0,0,0,0,0,-1,1385,1149,0,0
168,-125,0,0,0,0,0,0,0,0,0,-1,1392,1149,0,0
175,-125,0,0,0,0,0,0,0,0,0,-1,1399,1149,0,0
182,-125,0,0,0,0,0,0,0,0,0,-1,1406,1149,0,0
189,-125,0,0,0,0,0,0,0,0,0,-1,1413,1149,0,0
196,-125,0,0,0,0,0,0,0,0,0,-1,1420,1149,0,0
203,-125,0,0,0,0,0,0,0,0,0,-1,1427,1149,0,0
210,-125,0,0,0,0,0,0,0,0,0,-1,1434,1149,0,0
217,-125,0,0,0,0,0,0,0,0,0,-1,1441,1149,0,0
224,-125,0,0,0,0,0,0,0,0,0,-1,1448,1149,0,0
231,-125,0,0,0,0,0,0,0,0,0,-1,1455,1149,0,0
238,-125,0,0,0,0,0,0,0,0,0,-1,1462,1149,0,0
245,-125,0,0,0,0,0,0,0,0,0,-1,1469,1149,0,0
252,-125,0,0,0,0,0,0,0,0,0,-1,1476,1149,0,0
259,-125,0,0,0,0,0,0,0,0,0,-1,1483,1149,0,0
266,-125,0,0,0,0,0,0,0,0,0,-1,1490,1149,0,0
273,-125,0,0,0,0,0,0,0,0,0,-1,1497,1149,0,0
280,-125,0,0,0,0,0,0,0,0,0,-1,1504,1149,0,0
287,-125,0,0,0,0,0,0,0,0,0,-1,1511,1149,0,0
294,-125,0,0,0,0,0,0,0,0,0,-1,1518,1149,0,0
301,-125,0,0,0,0,0,0,0,0,0,-1,1525,1149,0,0
308,-125,0,0,0,0,0,0,0,0,0,-1,1532,1149,0,0
315,-125,0,0,0,0,0,0,0,0,0,-1,1539,1149,0,0
322,-125,0,0,0,0,0,0,0,0,0,-1,1546,1149,0,0
329,-125,0,0,0,0,0,0,0,0,0,-1,1553,1149,0,0
336,-125,0,0,0,0,0,0,0,0,0,-1,1560,1149,0,0
343,-125,0,0,0,0,0,0,0,0,0,-1,1567,1149,0,0
350,-125,0,0,0,0,0,0,0,0,0,-1,1574,1149,0,0
357,-125,0,0,0,0,0,0,0,0,0,-1,1581,1149,0,0
364,-125,0,0,0,0,0,0,0,0,0,-1,1588,1149,0,0
371,-125,0,0,0,0,0,0,0,0,0,-1,1595,1149,0,0
378,-125,0,0,0,0,0,0,0,0,0,-1,1602,1149,0,0
385,-125,0,0,0,0,0,0,0,0,0,-1,1609,1149,0,0
392,-125,0,0,0,0,0,0,0,0,0,-1,1616,1149,0,0
399,-125,0,0,0,0,0,0,0,0,0,-1,1623,1149,0,0
406,-125,0,0,0,0,0,0,0,0,0,-1,1630,1149,0,0
413,-125,0,0,0,0,0,0,0,0,0,-1,1637,1149,0,0
420,-125,0,0,0,0,0,0,0,0,0,-1,1644,1149,0,0
427,-125,0,0,0,0,0,0,0,0,0,-1,1651,1149,0,0
434,-125,0,0,0,0,0,0,0,0,0,-1,1658,1149,0,0
441,-125,0,0,0,0,0,0,0,0,0,-1,1665,1149,0,0
448,-125,0,0,0,0,0,0,0,0,0,-1,1672,1149,0,0
455,-125,0,0,0,0,0,0,0,0,0,-1,1679,1149,0,0
462,-125,0,0,0,0,0,0,0,0,0,-1,1686,1149,0,0
469,-125,0,0,0,0,0,0,0,0,0,-1,1693,1149,0,0
476,-125,0,0,0,0,0,0,0,0,0,-1,1700,1149,0,0
483,-125,0,0,0,0,0,0,0,0,0,-1,1707,1149,0,0
490,-125,0,0,0,0,0,0,0,0,0,-1,1714,1149,0,0
497,-125,0,0,0,0,0,0,0,0,0,-1,1721,1149,0,0
504,-125,0,0,0,0,0,0,0,0,0,-1,1728,1149,0,0
511,-125,0,0,0,0,0,0,0,0,0,-1,1735,1149,0,0
518,-125,0,0,0,0,0,0,0,0,0,-1,1742,1149,0,0
525,-125,0,0,0,0,0,0,0,0,0,-1,1749,1149,0,0
532,-125,0,0,0,0,0,0,0,0,0,-1,1756,1149,0,0
539,-125,0,0,0,0,0,0,0,0,0,-1,1763,1149,0,0
546,-125,0,0,0,0,0,0,0,0,0,-1,1770,1149,0,0
553,-125,0,0,0,0,0,0,0,0,0,-1,1777,1149,0,0
560,-125,0,0,0,0,0,0,0,0,0,-1,1784,1149,0,0
567,-125,0,0,0,0,0,0,0,0,0,-1,1791,1149,0,0
574,-125,0,0,0,0,0,0,0,0,0,-1,1798,1149,0,0
581,-125,0,0,0,0,0,0,0,0,0,-1,1805,1149,0,0
588,-125,0,0,0,0,0,0,0,0,0,-1,1812,1149,0,0
595,-125,0,0,0,0,0,0,0,0,0,-1,1819,1149,0,0
602,-125,0,0,0,0,0,0,0,0,0,-1,1826,1149,0,0
609,-125,0,0,0,0,0,0,0,0,0,-1,1833,1149,0,0
616,-125,0,0,0,0,0,0,0,0,0,-1,1840,1149,0,0
623,-125,0,0,0,0,0,0,0,0,0,-1,1847,1149,0,0
630,-125,0,0,0,0,0,0,0,0,0,-1,1854,1149,0,0
637,-125,0,0,0,0,0,0,0,0,0,-1,1861,1149,0,0
644,-125,70.8671,2.35681,0.00635556,-0.000114709,-0.000468295,0.00638928,-0.000148427,-0.0718772,0.00430985,0.039126,1868,1149,70.867,-2.35677
651,-125,70.7915,2.37012,0.00479758,0.000103145,-0.000615356,0.0048769,2.3823e-05,-0.128197,0.00324335,0.0357351,1875,1149,70.7915,-2.37008
658,-125,70.8413,2.12476,0.00363638,0.000202029,-0.000679975,0.00376611,7.22996e-05,-0.18852,0.00248699,0.0367457,1882,1149,70.8413,-2.1247
665,-125,70.8549,2.16406,0.00267331,0.000281571,-0.000717186,0.00287188,8.30016e-05,-0.270107,0.00188753,0.0415795,1889,1149,70.8549,-2.1641
672,-125,70.8436,2.16492,0.00192091,0.000338686,-0.000738804,0.00221225,4.73523e-05,-0.37561,0.0014593,0.0449374,1896,1149,70.8436,-2.16494
679,-125,70.8706,2.26526,0.00162978,0.00012635,-0.000572479,0.00182295,-6.68201e-05,-0.325431,0.00123817,0.0414835,1903,1149,70.8706,-2.26521
686,-125,70.7888,2.25708,0.00213934,-7.12085e-06,-0.000451866,0.00223059,-9.83673e-05,-0.199253,0.00152091,0.0376947,1910,1149,70.7889,-2.25706
693,-125,70.7939,2.26086,0.00235233,-0.000142461,-0.000338528,0.00239745,-0.000187582,-0.132503,0.00166435,0.0288989,1917,1149,70.794,-2.26089
700,-125,70.9097,2.23877,0.00230581,-0.000238085,-0.000173031,0.00231752,-0.0002498,-0.0676034,0.00163466,0.0173469,1924,1149,70.9096,-2.23871
707,-125,71.0172,2.30872,0,0,0,0,0,0,0,-1,1931,1149,71.0172,-2.30869
714,-125,54.8745,9.21375,0,0,0,0,0,0,0,-1,1938,1149,54.8746,-9.21371
721,-125,63.5699,9.33704,0,0,0,0,0,0,0,-1,1945,1149,63.5699,-9.33707
728,-125,63.5955,8.77454,0.00163525,0.000341568,0.000963531,0.00214893,-0.000172106,0.489788,0.0014933,0.0214707,1952,1149,63.5955,-8.7746
735,-125,63.6337,8.25317,0.00150564,0.000404448,0.00134359,0.00240707,-0.000496988,0.590938,0.00179348,0.0232934,1959,1149,63.6337,-8.25317
742,-125,63.604,7.63037,0.00110367,0.000587728,0.00176855,0.00263296,-0.000941566,0.712976,0.00213938,0.0325685,1966,1149,63.604,-7.63035
749,-125,63.4664,7.02991,-0.000189956,0.00117537,0.00210973,0.00271014,-0.00172472,0.941872,0.00258145,0.0276532,1973,1149,63.4665,-7.02987
756,-125,63.5266,6.38782,-0.00255354,0.00208114,0.00242267,0.00311632,-0.00358871,1.16699,0.00387435,0.0239036,1980,1149,63.5266,-6.38776
763,-125,63.5056,5.8053,-0.00543099,0.00286714,0.00263225,0.00363168,-0.00619553,1.28812,0.00573774,0.0128099,1987,1149,63.5056,-5.80524
770,-125,63.4219,5.22766,-0.00841983,0.00334268,0.00267768,0.00392356,-0.0090007,1.35717,0.00765134,0.0157503,1994,1149,63.4219,-5.22763
777,-125,63.2747,4.77393,-0.0114132,0.00339067,0.00252818,0.00381052,-0.0118331,1.40623,0.00941942,0.0321997,2001,1149,63.2747,-4.77392
784,-125,63.1211,4.21558,-0.0144641,0.00266784,0.00215178,0.00293397,-0.0147302,1.44774,0.0109302,0.0493597,2008,1149,63.1211,-4.21553
791,-125,63.0654,3.63391,0,0,0,0,0,0,0,-1,2015,1149,63.0655,-3.63397
798,-125,63.5381,3.79089,0,0,0,0,0,0,0,-1,2022,1149,63.538,-3.79088
805,-125,60.8354,5.36206,0,0,0,0,0,0,0,-1,2029,1149,60.8355,-5.36204
812,-125,62.6721,-1.46448,0,0,0,0,0,0,0,-1,2036,1149,62.672,1.46452
-700,-132,0,0,0,0,0,0,0,0,0,-1,524,1156,0,0
-693,-132,-50.3766,-4.56165,0,0,0,0,0,0,0,-1,531,1156,-50.3766,4.56164
-686,-132,-51.0058,-0.0117188,0,0,0,0,0,0,0,-1,538,1156,-51.0058,0.011731
-679,-132,-50.8572,0.972168,0.0683765,0.142824,-0.0310855,0.154097,0.0571037,-1.22291,0.089956,0.0485527,545,1156,-50.8572,-0.972224
-672,-132,-50.74,1.86804,0.056328,0.119049,-0.0299558,0.131057,0.0443199,-1.18955,0.0769754,0.0432056,552,1156,-50.74,-1.86799
-665,-132,-50.7094,2.58215,0.0450693,0.0962813,-0.0267044,0.107673,0.0336781,-1.1676,0.0636008,0.0445671,559,1156,-50.7094,-2.58217
-658,-132,-47.7426,1.70996,0,0,0,0,0,0,0,-1,566,1156,-47.7425,-1.70994
-651,-132,-47.3643,2.33557,0.0247939,0.0563987,-0.0181237,0.0646417,0.0165509,-1.14394,0.0387735,0.0442911,573,1156,-47.3643,-2.33555
-644,-132,-47.0521,2.94751,0.0164894,0.0397347,-0.0136628,0.0460496,0.0101744,-1.13784,0.0279329,0.0270045,580,1156,-47.0521,-2.9475
-637,-132,-47.1401,3.5553,0.00940602,0.0253607,-0.0094487,0.0297493,0.00501745,-1.13598,0.01839,0.0136526,587,1156,-47.1401,-3.5553
-630,-132,-47.1275,4.17273,0.00358472,0.0135779,-0.00604735,0.0164258,0.000736798,-1.13067,0.0107134,0.0103842,594,1156,-47.1275,-4.17278
-623,-132,-47.1713,4.82581,-0.000597667,0.00392922,-0.00245488,0.00500488,-0.00167333,-1.15782,0.0040124,0.0155966,601,1156,-47.1714,-4.82586
-616,-132,-47.2126,5.4751,0,0,0,0,0,0,0,-1,608,1156,-47.2126,-5.47509
-609,-132,-47.1428,5.96997,0,0,0,0,0,0,0,-1,615,1156,-47.1428,-5.96993
-602,-132,-47.2066,6.7655,0,0,0,0,0,0,0,-1,622,1156,-47.2066,-6.76548
-595,-132,-47.5637,7.47949,0,0,0,0,0,0,0,-1,629,1156,-47.5637,-7.47951
-588,-132,-42.6534,6.92969,0,0,0,0,0,0,0,-1,636,1156,-42.6535,-6.92967
-581,-132,-35.9343,6.42957,0,0,0,0,0,0,0,-1,643,1156,-35.9342,-6.42957
-574,-132,-33.2071,2.86963,0,0,0,0,0,0,0,-1,650,1156,-33.2071,-2.86963
-567,-132,-54.2489,0.461914,0,0,0,0,0,0,0,-1,657,1156,-54.2489,-0.461946
-560,-132,-54.3563,0.566406,0,0,0,0,0,0,0,-1,664,1156,-54.3563,-0.566394
-553,-132,-54.4561,0.652832,0,0,0,0,0,0,0,-1,671,1156,-54.456,-0.652842
-546,-132,-54.4265,0.558105,0,0,0,0,0,0,0,-1,678,1156,-54.4265,-0.558077
-539,-132,-54.2865,0.437744,0,0,0,0,0,0,0,-1,685,1156,-54.2865,-0.437792
-532,-132,-54.1114,0.418701,0,0,0,0,0,0,0,-1,692,1156,-54.1114,-0.418697
-525,-132,-54.0399,0.368286,0,0,0,0,0,0,0,-1,699,1156,-54.0399,-0.368239
-518,-132,0,0,0,0,0,0,0,0,0,-1,706,1156,0,0
-511,-132,0,0,0,0,0,0,0,0,0,-1,713,1156,0,0
-504,-132,0,0,0,0,0,0,0,0,0,-1,720,1156,0,0
-497,-132,0,0,0,0,0,0,0,0,0,-1,727,1156,0,0
-490,-132,0,0,0,0,0,0,0,0,0,-1,734,1156,0,0
-483,-132,0,0,0,0,0,0,0,0,0,-1,741,1156,0,0
-476,-132,0,0,0,0,0,0,0,0,0,-1,748,1156,0,0
-469,-132,0,0,0,0,0,0,0,0,0,-1,755,1156,0,0
-462,-132,0,0,0,0,0,0,0,0,0,-1,762,1156,0,0
-455,-132,0,0,0,0,0,0,0,0,0,-1,769,1156,0,0
-448,-132,0,0,0,0,0,0,0,0,0,-1,776,1156,0,0
-441,-132,0,0,0,0,0,0,0,0,0,-1,783,1156,0,0
-434,-132,0,0,0,0,0,0,0,0,0,-1,790,1156,0,0
-427,-132,0,0,0,0,0,0,0,0,0,-1,797,1156,0,0
-420,-132,0,0,0,0,0,0,0,0,0,-1,804,1156,0,0
-413,-132,0,0,0,0,0,0,0,0,0,-1,811,1156,0,0
-406,-132,0,0,0,0,0,0,0,0,0,-1,818,1156,0,0
-399,-132,0,0,0,0,0,0,0,0,0,-1,825,1156,0,0
-392,-132,0,0,0,0,0,0,0,0,0,-1,832,1156,0,0
-385,-132,0,0,0,0,0,0,0,0,0,-1,839,1156,0,0
-378,-132,0,0,0,0,0,0,0,0,0,-1,846,1156,0,0
-371,-132,0,0,0,0,0,0,0,0,0,-1,853,1156,0,0
-364,-132,0,0,0,0,0,0,0,0,0,-1,860,1156,0,0
-357,-132,0,0,0,0,0,0,0,0,0,-1,867,1156,0,0
-350,-132,0,0,0,0,0,0,0,0,0,-1,874,1156,0,0
-343,-132,0,0,0,0,0,0,0,0,0,-1,881,1156,0,0
-336,-132,0,0,0,0,0,0,0,0,0,-1,888,1156,0,0
-329,-132,0,0,0,0,0,0,0,0,0,-1,895,1156,0,0
-322,-132,0,0,0,0,0,0,0,0,0,-1,902,1156,0,0
-315,-132,0,0,0,0,0,0,0,0,0,-1,909,1156,0,0
-308,-132,0,0,0,0,0,0,0,0,0,-1,916,1156,0,0
-301,-132,0,0,0,0,0,0,0,0,0,-1,923,1156,0,0
-294,-132,0,0,0,0,0,0,0,0,0,-1,930,1156,0,0
-287,-132,0,0,0,0,0,0,0,0,0,-1,937,1156,0,0
-280,-132,0,0,0,0,0,0,0,0,0,-1,944,1156,0,0
-273,-132,0,0,0,0,0,0,0,0,0,-1,951,1156,0,0
-266,-132,0,0,0,0,0,0,0,0,0,-1,958,1156,0,0
-259,-132,0,0,0,0,0,0,0,0,0,-1,965,1156,0,0
-252,-132,0,0,0,0,0,0,0,0,0,-1,972,1156,0,0
-245,-132,0,0,0,0,0,0,0,0,0,-1,979,1156,0,0
-238,-132,0,0,0,0,0,0,0,0,0,-1,986,1156,0,0
-231,-132,0,0,0,0,0,0,0,0,0,-1,993,1156,0,0
-224,-132,0,0,0,0,0,0,0,0,0,-1,1000,1156,0,0
-217,-132,0,0,0,0,0,0,0,0,0,-1,1007,1156,0,0
-210,-132,0,0,0,0,0,0,0,0,0,-1,1014,1156,0,0
-203,-132,0,0,0,0,0,0,0,0,0,-1,1021,1156,0,0
-196,-132,0,0,0,0,0,0,0,0,0,-1,1028,1156,0,0
-189,-132,0,0,0,0,0,0,0,0,0,-1,1035,1156,0,0
-182,-132,0,0,0,0,0,0,0,0,0,-1,1042,1156,0,0
-175,-132,0,0,0,0,0,0,0,0,0,-1,1049,1156,0,0
-168,-132,0,0,0,0,0,0,0,0,0,-1,1056,1156,0,0
-161,-132,0,0,0,0,0,0,0,0,0,-1,1063,1156,0,0
-154,-132,0,0,0,0,0,0,0,0,0,-1,1070,1156,0,0
-147,-132,0,0,0,0,0,0,0,0,0,-1,1077,1156,0,0
-140,-132,0,0,0,0,0,0,0,0,0,-1,1084,1156,0,0
-133,-132,0,0,0,0,0,0,0,0,0,-1,1091,1156,0,0
-126,-132,0,0,0,0,0,0,0,0,0,-1,1098,1156,0,0
-119,-132,0,0,0,0,0,0,0,0,0,-1,1105,1156,0,0
-112,-132,0,0,0,0,0,0,0,0,0,-1,1112,1156,0,0
-105,-132,0,0,0,0,0,0,0,0,0,-1,1119,1156,0,0
-98,-132,0,0,0,0,0,0,0,0,0,-1,1126,1156,0,0
-91,-132,0,0,0,0,0,0,0,0,0,-1,1133,1156,0,0
-84,-132,0,0,0,0,0,0,0,0,0,-1,1140,1156,0,0
-77,-132,0,0,0,0,0,0,0,0,0,-1,1147,1156,0,0
-70,-132,0,0,0,0,0,0,0,0,0,-1,1154,1156,0,0
-63,-132,0,0,0,0,0,0,0,0,0,-1,1161,1156,0,0
-56,-132,0,0,0,0,0,0,0,0,0,-1,1168,1156,0,0
-49,-132,0,0,0,0,0,0,0,0,0,-1,1175,1156,0,0
-42,-132,0,0,0,0,0,0,0,0,0,-1,1182,1156,0,0
-35,-132,0,0,0,0,0,0,0,0,0,-1,1189,1156,0,0
-28,-132,0,0,0,0,0,0,0,0,0,-1,1196,1156,0,0
-21,-132,0,0,0,0,0,0,0,0,0,-1,1203,1156,0,0
-14,-132,0,0,0,0,0,0,0,0,0,-1,1210,1156,0,0
-7,-132,0,0,0,0,0,0,0,0,0,-1,1217,1156,0,0
0,-132,0,0,0,0,0,0,0,0,0,-1,1224,1156,0,0
7,-132,0,0,0,0,0,0,0,0,0,-1,1231,1156,0,0
14,-132,0,0,0,0,0,0,0,0,0,-1,1238,1156,0,0
21,-132,0,0,0,0,0,0,0,0,0,-1,1245,1156,0,0
28,-132,0,0,0,0,0,0,0,0,0,-1,1252,1156,0,0
35,-132,0,0,0,0,0,0,0,0,0,-1,1259,1156,0,0
42,-132,0,0,0,0,0,0,0,0,0,-1,1266,1156,0,0
49,-132,0,0,0,0,0,0,0,0,0,-1,1273,1156,0,0
56,-132,0,0,0,0,0,0,0,0,0,-1,1280,1156,0,0
63,-132,0,0,0,0,0,0,0,0,0,-1,1287,1156,0,0
70,-132,0,0,0,0,0,0,0,0,0,-1,1294,1156,0,0
77,-132,0,0,0,0,0,0,0,0,0,-1,1301,1156,0,0
84,-132,0,0,0,0,0,0,0,0,0,-1,1308,1156,0,0
91,-132,0,0,0,0,0,0,0,0,0,-1,1315,1156,0,0
98,-132,0,0,0,0,0,0,0,0,0,-1,1322,1156,0,0
105,-132,0,0,0,0,0,0,0,0,0,-1,1329,1156,0,0
112,-132,0,0,0,0,0,0,0,0,0,-1,1336,1156,0,0
119,-132,0,0,0,0,0,0,0,0,0,-1,1343,1156,0,0
126,-132,0,0,0,0,0,0,0,0,0,-1,1350,1156,0,0
133,-132,0,0,0,0,0,0,0,0,0,-1,1357,1156,0,0
140,-132,0,0,0,0,0,0,0,0,0,-1,1364,1156,0,0
147,-132,0,0,0,0,0,0,0,0,0,-1,1371,1156,0,0
154,-132,0,0,0,0,0,0,0,0,0,-1,1378,1156,0,0
161,-132,0,0,0,0,0,0,0,0,0,-1,1385,1156,0,0
168,-132,0,0,0,0,0,0,0,0,0,-1,1392,1156,0,0
175,-132,0,0,0,0,0,0,0,0,0,-1,1399,1156,0,0
182,-132,0,0,0,0,0,0,0,0,0,-1,1406,1156,0,0
189,-132,0,0,0,0,0,0,0,0,0,-1,1413,1156,0,0
196,-132,0,0,0,0,0,0,0,0,0,-1,1420,1156,0,0
203,-132,0,0,0,0,0,0,0,0,0,-1,1427,1156,0,0
210,-132,0,0,0,0,0,0,0,0,0,-1,1434,1156,0,0
217,-132,0,0,0,0,0,0,0,0,0,-1,1441,1156,0,0
224,-132,0,0,0,0,0,0,0,0,0,-1,1448,1156,0,0
231,-132,0,0,0,0,0,0,0,0,0,-1,1455,1156,0,0
238,-132,0,0,0,0,0,0,0,0,0,-1,1462,1156,0,0
245,-132,0,0,0,0,0,0,0,0,0,-1,1469,1156,0,0
252,-132,0,0,0,0,0,0,0,0,0,-1,1476,1156,0,0
259,-132,0,0,0,0,0,0,0,0,0,-1,1483,1156,0,0
266,-132,0,0,0,0,0,0,0,0,0,-1,1490,1156,0,0
273,-132,0,0,0,0,0,0,0,0,0,-1,1497,1156,0,0
280,-132,0,0,0,0,0,0,0,0,0,-1,1504,1156,0,0
287,-132,0,0,0,0,0,0,0,0,0,-1,1511,1156,0,0
294,-132,0,0,0,0,0,0,0,0,0,-1,1518,1156,0,0
301,-132,0,0,0,0,0,0,0,0,0,-1,1525,1156,0,0
308,-132,0,0,0,0,0,0,0,0,0,-1,1532,1156,0,0
315,-132,0,0,0,0,0,0,0,0,0,-1,1539,1156,0,0
322,-132,0,0,0,0,0,0,0,0,0,-1,1546,1156,0,0
329,-132,0,0,0,0,0,0,0,0,0,-1,1553,1156,0,0
336,-132,0,0,0,0,0,0,0,0,0,-1,1560,1156,0,0
343,-132,0,0,0,0,0,0,0,0,0,-1,1567,1156,0,0
350,-132,0,0,0,0,0,0,0,0,0,-1,1574,1156,0,0
357,-132,0,0,0,0,0,0,0,0,0,-1,1581,1156,0,0
364,-132,0,0,0,0,0,0,0,0,0,-1,1588,1156,0,0
371,-132,0,0,0,0,0,0,0,0,0,-1,1595,1156,0,0
378,-132,0,0,0,0,0,0,0,0,0,-1,1602,1156,0,0
385,-132,0,0,0,0,0,0,0,0,0,-1,1609,1156,0,0
392,-132,0,0,0,0,0,0,0,0,0,-1,1616,1156,0,0
399,-132,0,0,0,0,0,0,0,0,0,-1,1623,1156,0,0
406,-132,0,0,0,0,0,0,0,0,0,-1,1630,1156,0,0
413,-132,0,0,0,0,0,0,0,0,0,-1,1637,1156,0,0
420,-132,0,0,0,0,0,0,0,0,0,-1,1644,1156,0,0
427,-132,0,0,0,0,0,0,0,0,0,-1,1651,1156,0,0
434,-132,0,0,0,0,0,0,0,0,0,-1,1658,1156,0,0
441,-132,0,0,0,0,0,0,0,0,0,-1,1665,1156,0,0
448,-132,0,0,0,0,0,0,0,0,0,-1,1672,1156,0,0
455,-132,0,0,0,0,0,0,0,0,0,-1,1679,1156,0,0
462,-132,0,0,0,0,0,0,0,0,0,-1,1686,1156,0,0
469,-132,0,0,0,0,0,0,0,0,0,-1,1693,1156,0,0
476,-132,0,0,0,0,0,0,0,0,0,-1,1700,1156,0,0
483,-132,0,0,0,0,0,0,0,0,0,-1,1707,1156,0,0
490,-132,0,0,0,0,0,0,0,0,0,-1,1714,1156,0,0
497,-132,0,0,0,0,0,0,0,0,0,-1,1721,1156,0,0
504,-132,0,0,0,0,0,0,0,0,0,-1,1728,1156,0,0
511,-132,0,0,0,0,0,0,0,0,0,-1,1735,1156,0,0
518,-132,0,0,0,0,0,0,0,0,0,-1,1742,1156,0,0
525,-132,0,0,0,0,0,0,0,0,0,-1,1749,1156,0,0
532,-132,0,0,0,0,0,0,0,0,0,-1,1756,1156,0,0
539,-132,0,0,0,0,0,0,0,0,0,-1,1763,1156,0,0
546,-132,0,0,0,0,0,0,0,0,0,-1,1770,1156,0,0
553,-132,0,0,0,0,0,0,0,0,0,-1,1777,1156,0,0
560,-132,0,0,0,0,0,0,0,0,0,-1,1784,1156,0,0
567,-132,0,0,0,0,0,0,0,0,0,-1,1791,1156,0,0
574,-132,0,0,0,0,0,0,0,0,0,-1,1798,1156,0,0
581,-132,0,0,0,0,0,0,0,0,0,-1,1805,1156,0,0
588,-132,0,0,0,0,0,0,0,0,0,-1,1812,1156,0,0
595,-132,0,0,0,0,0,0,0,0,0,-1,1819,1156,0,0
602,-132,0,0,0,0,0,0,0,0,0,-1,1826,1156,0,0
609,-132,0,0,0,0,0,0,0,0,0,-1,1833,1156,0,0
616,-132,0,0,0,0,0,0,0,0,0,-1,1840,1156,0,0
623,-132,0,0,0,0,0,0,0,0,0,-1,1847,1156,0,0
630,-132,0,0,0,0,0,0,0,0,0,-1,1854,1156,0,0
637,-132,0,0,0,0,0,0,0,0,0,-1,1861,1156,0,0
644,-132,70.9839,2.2196,0.00538169,0.000171394,-0.000407302,0.00541334,0.000139746,-0.0775448,0.00356323,0.040043,1868,1156,70.9838,-2.21959
651,-132,70.828,2.16431,0.00410126,0.000316026,-0.000528279,0.00417361,0.000243681,-0.136099,0.00270484,0.0357638,1875,1156,70.828,-2.16432
658,-132,70.7936,2.10059,0.00311339,0.000374772,-0.000614214,0.00324483,0.000243326,-0.210827,0.00208685,0.0362806,1882,1156,70.7935,-2.10064
665,-132,70.7461,2.11426,0.00228423,0.000431047,-0.000700442,0.00251919,0.000196091,-0.323644,0.00161806,0.039857,1889,1156,70.746,-2.11425
672,-132,70.7169,2.15698,0.0016516,0.000489057,-0.000788357,0.00204981,9.08464e-05,-0.467731,0.00133728,0.0415848,1896,1156,70.7169,-2.15697
679,-132,70.7927,2.18176,0.00146457,0.00027974,-0.000651588,0.0017528,-8.48219e-06,-0.416464,0.00117137,0.0407216,1903,1156,70.7928,-2.18175
686,-132,70.8535,2.17603,0.00213692,0.000230399,-0.000553159,0.00228579,8.15295e-05,-0.262897,0.00149742,0.0363166,1910,1156,70.8535,-2.17599
693,-132,70.8221,2.26526,0.00242332,0.000129562,-0.00043043,0.00250143,5.14509e-05,-0.179519,0.00165074,0.0260006,1917,1156,70.8222,-2.26526
700,-132,70.9307,2.23169,0,0,0,0,0,0,0,-1,1924,1156,70.9306,-2.23172
707,-132,57.9275,3.01367,0,0,0,0,0,0,0,-1,1931,1156,57.9275,-3.01369
714,-132,57.8083,9.22156,0,0,0,0,0,0,0,-1,1938,1156,57.8084,-9.22151
721,-132,63.041,9.28003,0,0,0,0,0,0,0,-1,1945,1156,63.041,-9.28001
728,-132,62.9551,8.87427,0.00202325,0.000566751,0.000823791,0.00239454,0.000195465,0.423439,0.00153536,0.0324499,1952,1156,62.9551,-8.87421
735,-132,62.9438,8.31946,0.00209421,0.000542664,0.00121859,0.00276301,-0.000126136,0.501945,0.00188546,0.033095,1959,1156,62.9438,-8.31941
742,-132,62.9624,7.63696,0.00182414,0.00064413,0.00163526,0.00297257,-0.000504306,0.612266,0.00216945,0.0257925,1966,1156,62.9624,-7.63696
749,-132,62.8485,6.97339,0.000528332,0.00117253,0.00201016,0.00288624,-0.00118537,0.864841,0.00241815,0.0271999,1973,1156,62.8486,-6.97341
756,-132,62.8806,6.37183,-0.00178803,0.00210533,0.00239236,0.00324296,-0.00292565,1.12692,0.00356302,0.0268238,1980,1156,62.8806,-6.37177
763,-132,62.8552,5.82397,-0.00444394,0.00297456,0.00270933,0.00385868,-0.00532806,1.25537,0.00532653,0.0148311,1987,1156,62.8552,-5.82401
770,-132,62.8215,5.24817,-0.00714692,0.00360313,0.00291104,0.0043408,-0.00788459,1.32262,0.0071565,0.0137441,1994,1156,62.8215,-5.24813
777,-132,62.7009,4.66418,-0.00984586,0.00390048,0.00296093,0.00451113,-0.0104565,1.36741,0.00886591,0.0260729,2001,1156,62.7008,-4.66414
784,-132,62.5159,4.0155,-0.0125767,0.00351081,0.00287505,0.00400918,-0.0130751,1.39916,0.0103161,0.0492686,2008,1156,62.516,-4.01555
791,-132,62.4177,3.34937,0,0,0,0,0,0,0,-1,2015,1156,62.4177,-3.34942
798,-132,60.063,5.51709,0,0,0,0,0,0,0,-1,2022,1156,60.063,-5.51706
805,-132,61.1895,4.5979,0,0,0,0,0,0,0,-1,2029,1156,61.1895,-4.59794
812,-132,62.0815,3.98352,0,0,0,0,0,0,0,-1,2036,1156,62.0816,-3.98355
-700,-139,0,0,0,0,0,0,0,0,0,-1,524,1163,0,0
-693,-139,-50.2278,-5.62158,0,0,0,0,0,0,0,-1,531,1163,-50.2278,5.62163
-686,-139,-49.6787,-3.76782,0,0,0,0,0,0,0,-1,538,1163,-49.6787,3.76783
-679,-139,-49.0158,0.40918,0,0,0,0,0,0,0,-1,545,1163,-49.0158,-0.409183
-672,-139,-48.7458,1.03589,0.0756243,0.136914,-0.0388714,0.155767,0.0567707,-1.1192,0.0910271,0.0447004,552,1163,-48.7459,-1.03593
-665,-139,-48.5115,1.47266,0.0603158,0.109379,-0.0334244,0.126308,0.0433867,-1.10197,0.0741052,0.0443176,559,1163,-48.5115,-1.47271
-658,-139,-48.4353,1.84863,0.0463166,0.0848325,-0.0275508,0.0991887,0.0319603,-1.09042,0.0584609,0.0488482,566,1163,-48.4353,-1.84862
-651,-139,-46.5048,1.97168,0,0,0,0,0,0,0,-1,573,1163,-46.5047,-1.97166
-644,-139,-46.3568,2.92407,0.0224449,0.0434806,-0.0158195,0.0519596,0.0139659,-1.07878,0.0310497,0.0279061,580,1163,-46.3567,-2.92405
-637,-139,-46.4473,3.5448,0.0130011,0.027121,-0.0106076,0.0328032,0.00731882,-1.07901,0.0198834,0.0156253,587,1163,-46.4473,-3.54476
-630,-139,-46.4685,4.18665,0.0052425,0.0139365,-0.00646986,0.0173841,0.00179492,-1.0812,0.0110398,0.0110175,594,1163,-46.4685,-4.18665
-623,-139,-46.4951,4.81482,-0.000405015,0.0035837,-0.0025541,0.00482985,-0.00165117,-1.11687,0.00388894,0.016875,601,1163,-46.4951,-4.81477
-616,-139,-46.5631,5.46692,-0.00310167,-0.00161779,-0.000250486,-0.00157665,-0.00314281,-1.408,0.00181451,0.021937,608,1163,-46.5631,-5.46696
-609,-139,-46.6969,6.19543,0,0,0,0,0,0,0,-1,615,1163,-46.6969,-6.19543
-602,-139,-46.4509,6.81519,0,0,0,0,0,0,0,-1,622,1163,-46.4509,-6.81523
-595,-139,-46.6916,7.44275,0,0,0,0,0,0,0,-1,629,1163,-46.6916,-7.44274
-588,-139,-47.0562,7.95654,0,0,0,0,0,0,0,-1,636,1163,-47.0562,-7.95653
-581,-139,-34.4892,6.72473,0,0,0,0,0,0,0,-1,643,1163,-34.4892,-6.72476
-574,-139,-23.0725,2.4043,0,0,0,0,0,0,0,-1,650,1163,-23.0725,-2.40433
-567,-139,-54.2872,0.628906,0,0,0,0,0,0,0,-1,657,1163,-54.2872,-0.628862
-560,-139,-54.3798,0.663818,0,0,0,0,0,0,0,-1,664,1163,-54.3798,-0.663806
-553,-139,-54.4304,0.711182,0,0,0,0,0,0,0,-1,671,1163,-54.4304,-0.71121
-546,-139,-54.3376,0.680542,0,0,0,0,0,0,0,-1,678,1163,-54.3377,-0.680518
-539,-139,-54.249,0.543701,0,0,0,0,0,0,0,-1,685,1163,-54.249,-0.543757
-532,-139,-54.05,0.302734,0,0,0,0,0,0,0,-1,692,1163,-54.05,-0.302686
-525,-139,-53.933,0.350342,0,0,0,0,0,0,0,-1,699,1163,-53.9331,-0.350378
-518,-139,0,0,0,0,0,0,0,0,0,-1,706,1163,0,0
-511,-139,0,0,0,0,0,0,0,0,0,-1,713,1163,0,0
-504,-139,0,0,0,0,0,0,0,0,0,-1,720,1163,0,0
-497,-139,0,0,0,0,0,0,0,0,0,-1,727,1163,0,0
-490,-139,0,0,0,0,0,0,0,0,0,-1,734,1163,0,0
-483,-139,0,0,0,0,0,0,0,0,0,-1,741,1163,0,0
-476,-139,0,0,0,0,0,0,0,0,0,-1,748,1163,0,0
-469,-139,0,0,0,0,0,0,0,0,0,-1,755,1163,0,0
-462,-139,0,0,0,0,0,0,0,0,0,-1,762,1163,0,0
-455,-139,0,0,0,0,0,0,0,0,0,-1,769,1163,0,0
-448,-139,0,0,0,0,0,0,0,0,0,-1,776,1163,0,0
-441,-139,0,0,0,0,0,0,0,0,0,-1,783,1163,0,0
-434,-139,0,0,0,0,0,0,0,0,0,-1,790,1163,0,0
-427,-139,0,0,0,0,0,0,0,0,0,-1,797,1163,0,0
-420,-139,0,0,0,0,0,0,0,0,0,-1,804,1163,0,0
-413,-139,0,0,0,0,0,0,0,0,0,-1,811,1163,0,0
-406,-139,0,0,0,0,0,0,0,0,0,-1,818,1163,0,0
-399,-139,0,0,0,0,0,0,0,0,0,-1,825,1163,0,0
-392,-139,0,0,0,0,0,0,0,0,0,-1,832,1163,0,0
-385,-139,0,0,0,0,0,0,0,0,0,-1,839,1163,0,0
-378,-139,0,0,0,0,0,0,0,0,0,-1,846,1163,0,0
-371,-139,0,0,0,0,0,0,0,0,0,-1,853,1163,0,0
-364,-139,0,0,0,0,0,0,0,0,0,-1,860,1163,0,0
-357,-139,0,0,0,0,0,0,0,0,0,-1,867,1163,0,0
-350,-139,0,0,0,0,0,0,0,0,0,-1,874,1163,0,0
-343,-139,0,0,0,0,0,0,0,0,0,-1,881,1163,0,0
-336,-139,0,0,0,0,0,0,0,0,0,-1,888,1163,0,0
-329,-139,0,0,0,0,0,0,0,0,0,-1,895,1163,0,0
-322,-139,0,0,0,0,0,0,0,0,0,-1,902,1163,0,0
-315,-139,0,0,0,0,0,0,0,0,0,-1,909,1163,0,0
-308,-139,0,0,0,0,0,0,0,0,0,-1,916,1163,0,0
-301,-139,0,0,0,0,0,0,0,0,0,-1,923,1163,0,0
-294,-139,0,0,0,0,0,0,0,0,0,-1,930,1163,0,0
-287,-139,0,0,0,0,0,0,0,0,0,-1,937,1163,0,0
-280,-139,0,0,0,0,0,0,0,0,0,-1,944,1163,0,0
-273,-139,0,0,0,0,0,0,0,0,0,-1,951,1163,0,0
-266,-139,0,0,0,0,0,0,0,0,0,-1,958,1163,0,0
-259,-139,0,0,0,0,0,0,0,0,0,-1,965,1163,0,0
-252,-139,0,0,0,0,0,0,0,0,0,-1,972,1163,0,0
-245,-139,0,0,0,0,0,0,0,0,0,-1,979,1163,0,0
-238,-139,0,0,0,0,0,0,0,0,0,-1,986,1163,0,0
-231,-139,0,0,0,0,0,0,0,0,0,-1,993,1163,0,0
-224,-139,0,0,0,0,0,0,0,0,0,-1,1000,1163,0,0
-217,-139,0,0,0,0,0,0,0,0,0,-1,1007,1163,0,0
-210,-139,0,0,0,0,0,0,0,0,0,-1,1014,1163,0,0
-203,-139,0,0,0,0,0,0,0,0,0,-1,1021,1163,0,0
-196,-139,0,0,0,0,0,0,0,0,0,-1,1028,1163,0,0
-189,-139,0,0,0,0,0,0,0,0,0,-1,1035,1163,0,0
-182,-139,0,0,0,0,0,0,0,0,0,-1,1042,1163,0,0
-175,-139,0,0,0,0,0,0,0,0,0,-1,1049,1163,0,0
-168,-139,0,0,0,0,0,0,0,0,0,-1,1056,1163,0,0
-161,-139,0,0,0,0,0,0,0,0,0,-1,1063,1163,0,0
-154,-139,0,0,0,0,0,0,0,0,0,-1,1070,1163,0,0
-147,-139,0,0,0,0,0,0,0,0,0,-1,1077,1163,0,0
-140,-139,0,0,0,0,0,0,0,0,0,-1,1084,1163,0,0
-133,-139,0,0,0,0,0,0,0,0,0,-1,1091,1163,0,0
-126,-139,0,0,0,0,0,0,0,0,0,-1,1098,1163,0,0
-119,-139,0,0,0,0,0,0,0,0,0,-1,1105,1163,0,0
-112,-139,0,0,0,0,0,0,0,0,0,-1,1112,1163,0,0
-105,-139,0,0,0,0,0,0,0,0,0,-1,1119,1163,0,0
-98,-139,0,0,0,0,0,0,0,0,0,-1,1126,1163,0,0
-91,-139,0,0,0,0,0,0,0,0,0,-1,1133,1163,0,0
-84,-139,0,0,0,0,0,0,0,0,0,-1,1140,1163,0,0
-77,-139,0,0,0,0,0,0,0,0,0,-1,1147,1163,0,0
-70,-139,0,0,0,0,0,0,0,0,0,-1,1154,1163,0,0
-63,-139,0,0,0,0,0,0,0,0,0,-1,1161,1163,0,0
-56,-139,0,0,0,0,0,0,0,0,0,-1,1168,1163,0,0
-49,-139,0,0,0,0,0,0,0,0,0,-1,1175,1163,0,0
-42,-139,0,0,0,0,0,0,0,0,0,-1,1182,1163,0,0
-35,-139,0,0,0,0,0,0,0,0,0,-1,1189,1163,0,0
-28,-139,0,0,0,0,0,0,0,0,0,-1,1196,1163,0,0
-21,-139,0,0,0,0,0,0,0,0,0,-1,1203,1163,0,0
-14,-139,0,0,0,0,0,0,0,0,0,-1,1210,1163,0,0
-7,-139,0,0,0,0,0,0,0,0,0,-1,1217,1163,0,0
0,-139,0,0,0,0,0,0,0,0,0,-1,1224,1163,0,0
7,-139,0,0,0,0,0,0,0,0,0,-1,1231,1163,0,0
14,-139,0,0,0,0,0,0,0,0,0,-1,1238,1163,0,0
21,-139,0,0,0,0,0,0,0,0,0,-1,1245,1163,0,0
28,-139,0,0,0,0,0,0,0,0,0,-1,1252,1163,0,0
35,-139,0,0,0,0,0,0,0,0,0,-1,1259,1163,0,0
42,-139,0,0,0,0,0,0,0,0,0,-1,1266,1163,0,0
49,-139,0,0,0,0,0,0,0,0,0,-1,1273,1163,0,0
56,-139,0,0,0,0,0,0,0,0,0,-1,1280,1163,0,0
63,-139,0,0,0,0,0,0,0,0,0,-1,1287,1163,0,0
70,-139,0,0,0,0,0,0,0,0,0,-1,1294,1163,0,0
77,-139,0,0,0,0,0,0,0,0,0,-1,1301,1163,0,0
84,-139,0,0,0,0,0,0,0,0,0,-1,1308,1163,0,0
91,-139,0,0,0,0,0,0,0,0,0,-1,1315,1163,0,0
98,-139,0,0,0,0,0,0,0,0,0,-1,1322,1163,0,0
105,-139,0,0,0,0,0,0,0,0,0,-1,1329,1163,0,0
112,-139,0,0,0,0,0,0,0,0,0,-1,1336,1163,0,0
119,-139,0,0,0,0,0,0,0,0,0,-1,1343,1163,0,0
126,-139,0,0,0,0,0,0,0,0,0,-1,1350,1163,0,0
133,-139,0,0,0,0,0,0,0,0,0,-1,1357,1163,0,0
140,-139,0,0,0,0,0,0,0,0,0,-1,1364,1163,0,0
147,-139,0,0,0,0,0,0,0,0,0,-1,1371,1163,0,0
154,-139,0,0,0,0,0,0,0,0,0,-1,1378,1163,0,0
161,-139,0,0,0,0,0,0,0,0,0,-1,1385,1163,0,0
168,-139,0,0,0,0,0,0,0,0,0,-1,1392,1163,0,0
175,-139,0,0,0,0,0,0,0,0,0,-1,1399,1163,0,0
182,-139,0,0,0,0,0,0,0,0,0,-1,1406,1163,0,0
189,-139,0,0,0,0,0,0,0,0,0,-1,1413,1163,0,0
196,-139,0,0,0,0,0,0,0,0,0,-1,1420,1163,0,0
203,-139,0,0,0,0,0,0,0,0,0,-1,1427,1163,0,0
210,-139,0,0,0,0,0,0,0,0,0,-1,1434,1163,0,0
217,-139,0,0,0,0,0,0,0,0,0,-1,1441,1163,0,0
224,-139,0,0,0,0,0,0,0,0,0,-1,1448,1163,0,0
231,-139,0,0,0,0,0,0,0,0,0,-1,1455,1163,0,0
238,-139,0,0,0,0,0,0,0,0,0,-1,1462,1163,0,0
245,-139,0,0,0,0,0,0,0,0,0,-1,1469,1163,0,0
252,-139,0,0,0,0,0,0,0,0,0,-1,1476,1163,0,0
259,-139,0,0,0,0,0,0,0,0,0,-1,1483,1163,0,0
266,-139,0,0,0,0,0,0,0,0,0,-1,1490,1163,0,0
273,-139,0,0,0,0,0,0,0,0,0,-1,1497,1163,0,0
280,-139,0,0,0,0,0,0,0,0,0,-1,1504,1163,0,0
287,-139,0,0,0,0,0,0,0,0,0,-1,1511,1163,0,0
294,-139,0,0,0,0,0,0,0,0,0,-1,1518,1163,0,0
301,-139,0,0,0,0,0,0,0,0,0,-1,1525,1163,0,0
308,-139,0,0,0,0,0,0,0,0,0,-1,1532,1163,0,0
315,-139,0,0,0,0,0,0,0,0,0,-1,1539,1163,0,0
322,-139,0,0,0,0,0,0,0,0,0,-1,1546,1163,0,0
329,-139,0,0,0,0,0,0,0,0,0,-1,1553,1163,0,0
336,-139,0,0,0,0,0,0,0,0,0,-1,1560,1163,0,0
343,-139,0,0,0,0,0,0,0,0,0,-1,1567,1163,0,0
350,-139,0,0,0,0,0,0,0,0,0,-1,1574,1163,0,0
357,-139,0,0,0,0,0,0,0,0,0,-1,1581,1163,0,0
364,-139,0,0,0,0,0,0,0,0,0,-1,1588,1163,0,0
371,-139,0,0,0,0,0,0,0,0,0,-1,1595,1163,0,0
378,-139,0,0,0,0,0,0,0,0,0,-1,1602,1163,0,0
385,-139,0,0,0,0,0,0,0,0,0,-1,1609,1163,0,0
392,-139,0,0,0,0,0,0,0,0,0,-1,1616,1163,0,0
399,-139,0,0,0,0,0,0,0,0,0,-1,1623,1163,0,0
406,-139,0,0,0,0,0,0,0,0,0,-1,1630,1163,0,0
413,-139,0,0,0,0,0,0,0,0,0,-1,1637,1163,0,0
420,-139,0,0,0,0,0,0,0,0,0,-1,1644,1163,0,0
427,-139,0,0,0,0,0,0,0,0,0,-1,1651,1163,0,0
434,-139,0,0,0,0,0,0,0,0,0,-1,1658,1163,0,0
441,-139,0,0,0,0,0,0,0,0,0,-1,1665,1163,0,0
448,-139,0,0,0,0,0,0,0,0,0,-1,1672,1163,0,0
455,-139,0,0,0,0,0,0,0,0,0,-1,1679,1163,0,0
462,-139,0,0,0,0,0,0,0,0,0,-1,1686,1163,0,0
469,-139,0,0,0,0,0,0,0,0,0,-1,1693,1163,0,0
476,-139,0,0,0,0,0,0,0,0,0,-1,1700,1163,0,0
483,-139,0,0,0,0,0,0,0,0,0,-1,1707,1163,0,0
490,-139,0,0,0,0,0,0,0,0,0,-1,1714,1163,0,0
497,-139,0,0,0,0,0,0,0,0,0,-1,1721,1163,0,0
504,-139,0,0,0,0,0,0,0,0,0,-1,1728,1163,0,0
511,-139,0,0,0,0,0,0,0,0,0,-1,1735,1163,0,0
518,-139,0,0,0,0,0,0,0,0,0,-1,1742,1163,0,0
525,-139,0,0,0,0,0,0,0,0,0,-1,1749,1163,0,0
532,-139,0,0,0,0,0,0,0,0,0,-1,1756,1163,0,0
539,-139,0,0,0,0,0,0,0,0,0,-1,1763,1163,0,0
546,-139,0,0,0,0,0,0,0,0,0,-1,1770,1163,0,0
553,-139,0,0,0,0,0,0,0,0,0,-1,1777,1163,0,0
560,-139,0,0,0,0,0,0,0,0,0,-1,1784,1163,0,0
567,-139,0,0,0,0,0,0,0,0,0,-1,1791,1163,0,0
574,-139,0,0,0,0,0,0,0,0,0,-1,1798,1163,0,0
581,-139,0,0,0,0,0,0,0,0,0,-1,1805,1163,0,0
588,-139,0,0,0,0,0,0,0,0,0,-1,1812,1163,0,0
595,-139,0,0,0,0,0,0,0,0,0,-1,1819,1163,0,0
602,-139,0,0,0,0,0,0,0,0,0,-1,1826,1163,0,0
609,-139,0,0,0,0,0,0,0,0,0,-1,1833,1163,0,0
616,-139,0,0,0,0,0,0,0,0,0,-1,1840,1163,0,0
623,-139,0,0,0,0,0,0,0,0,0,-1,1847,1163,0,0
630,-139,0,0,0,0,0,0,0,0,0,-1,1854,1163,0,0
637,-139,0,0,0,0,0,0,0,0,0,-1,1861,1163,0,0
644,-139,70.8274,2.13806,0.00461968,0.000686935,-0.000232017,0.00463332,0.000673294,-0.0587246,0.00289071,0.0393257,1868,1163,70.8274,-2.13806
651,-139,70.8606,2.15173,0.00353852,0.000834943,-0.00033111,0.00357849,0.000794982,-0.120106,0.00216976,0.038495,1875,1163,70.8606,-2.15178
658,-139,70.944,2.17126,0.00266746,0.000886534,-0.000454215,0.00277662,0.000777379,-0.235842,0.00165401,0.0397094,1882,1163,70.944,-2.17129
665,-139,70.9098,2.25891,0.00192764,0.000924178,-0.000616603,0.00222085,0.000630966,-0.443879,0.00132145,0.0383747,1889,1163,70.9098,-2.2589
672,-139,70.8802,2.2854,0.0013729,0.00095661,-0.000809904,0.00200098,0.000328531,-0.659621,0.00123908,0.0385685,1896,1163,70.8802,-2.28542
679,-139,70.9028,2.20093,0.00129295,0.000693162,-0.00076124,0.00181124,0.000174872,-0.597757,0.00115363,0.0374136,1903,1163,70.9028,-2.20098
686,-139,70.8292,2.26245,0.00210907,0.000690253,-0.00074198,0.00242621,0.000373117,-0.403917,0.00150856,0.0337651,1910,1163,70.8292,-2.26244
693,-139,70.889,2.25537,0.00242679,0.000585888,-0.000611002,0.00261113,0.000401553,-0.29301,0.00162354,0.0211397,1917,1163,70.8891,-2.25531
700,-139,70.9729,2.1521,0,0,0,0,0,0,0,-1,1924,1163,70.9729,-2.15211
707,-139,32.116,6.54346,0,0,0,0,0,0,0,-1,1931,1163,32.116,-6.54343
714,-139,62.1425,10.1428,0,0,0,0,0,0,0,-1,1938,1163,62.1424,-10.1428
721,-139,62.1398,9.50867,0,0,0,0,0,0,0,-1,1945,1163,62.1397,-9.50873
728,-139,62.2887,9.13623,0,0,0,0,0,0,0,-1,1952,1163,62.2887,-9.13617
735,-139,62.2251,8.43555,0.00257487,0.000729335,0.000963285,0.00298605,0.000318154,0.403439,0.00189358,0.0377193,1959,1163,62.225,-8.4355
742,-139,62.3466,7.63879,0.00235209,0.000712734,0.00138012,0.00313759,-7.27732e-05,0.517432,0.0021164,0.0246824,1966,1163,62.3466,-7.63877
749,-139,62.2937,6.97278,0.00104018,0.00116813,0.00181755,0.00292283,-0.000714529,0.80299,0.0022253,0.0201231,1973,1163,62.2937,-6.97274
756,-139,62.2246,6.40735,-0.00104645,0.00209509,0.0023095,0.00331737,-0.00226873,1.08403,0.00324402,0.0124445,1980,1163,62.2247,-6.40738
763,-139,62.1858,5.81384,-0.00321899,0.00300324,0.00277385,0.00406025,-0.004276,1.20672,0.00481347,0.0123398,1987,1163,62.1857,-5.81384
770,-139,62.1577,5.23389,-0.00534687,0.00374181,0.00315662,0.00473057,-0.00633564,1.26724,0.00641144,0.0133527,1994,1163,62.1578,-5.23383
777,-139,62.1226,4.69189,-0.00741064,0.00424585,0.0034182,0.00517428,-0.00833906,1.30558,0.00787293,0.0282058,2001,1163,62.1225,-4.69193
784,-139,62.1025,4.177,-0.00935354,0.00415859,0.00362485,0.00506959,-0.0102645,1.32457,0.00902093,0.0482078,2008,1163,62.1026,-4.17699
791,-139,62.147,3.6416,0,0,0,0,0,0,0,-1,2015,1163,62.147,-3.64163
798,-139,60.5557,4.75281,0,0,0,0,0,0,0,-1,2022,1163,60.5557,-4.75282
805,-139,61.5491,3.87268,0,0,0,0,0,0,0,-1,2029,1163,61.549,-3.87269
812,-139,0,0,0,0,0,0,0,0,0,-1,2036,1163,0,0
-700,-146,0,0,0,0,0,0,0,0,0,-1,524,1170,0,0
-693,-146,-50.0411,-6.56238,0,0,0,0,0,0,0,-1,531,1170,-50.0411,6.56242
-686,-146,-49.3753,-4.60486,0.140293,0.226389,-0.0517586,0.250662,0.11602,-1.13229,0.144853,0.0451255,538,1170,-49.3753,4.60491
-679,-146,-48.5531,-2.79688,0,0,0,0,0,0,0,-1,545,1170,-48.5531,2.79684
-672,-146,-47.7697,-1.1427,0.0952553,0.153643,-0.0445857,0.177742,0.0711559,-1.07526,0.103297,0.0432751,552,1170,-47.7696,1.14271
-665,-146,-47.103,0.174438,0.0756627,0.121739,-0.0378155,0.142981,0.0544202,-1.05898,0.0833309,0.0416852,559,1170,-47.103,-0.174493
-658,-146,-46.3177,1.11218,0.0581298,0.093829,-0.0308611,0.111631,0.0403281,-1.04759,0.0652718,0.0471207,566,1170,-46.3177,-1.11216
-651,-146,-45.678,1.96362,0.0422658,0.069083,-0.0239856,0.0831535,0.0281953,-1.04027,0.0488305,0.0457305,573,1170,-45.678,-1.96367
-644,-146,-45.6349,2.85437,0.0284145,0.0475533,-0.0174773,0.0579095,0.0180584,-1.03587,0.0342141,0.0260437,580,1170,-45.6349,-2.85434
-637,-146,-45.7522,3.53577,0.0166301,0.0294185,-0.0116338,0.0362995,0.00974917,-1.03668,0.0216929,0.0132221,587,1170,-45.7522,-3.53575
-630,-146,-45.798,4.19324,0.00696008,0.0149367,-0.00702653,0.0190279,0.00286887,-1.04353,0.0118454,0.0112993,594,1170,-45.798,-4.19326
-623,-146,-45.8309,4.80737,-0.00018894,0.00381595,-0.00282109,0.00527303,-0.00164602,-1.09404,0.00417366,0.0133947,601,1170,-45.8309,-4.80734
-616,-146,-45.9382,5.49939,-0.00382146,-0.00162953,-0.000352328,-0.00157429,-0.0038767,-1.41528,0.00225133,0.0217609,608,1170,-45.9382,-5.49944
-609,-146,-46.0302,6.17627,0,0,0,0,0,0,0,-1,615,1170,-46.0302,-6.17628
-602,-146,-45.773,6.88892,0,0,0,0,0,0,0,-1,622,1170,-45.773,-6.88889
-595,-146,-45.9898,7.55396,0,0,0,0,0,0,0,-1,629,1170,-45.9898,-7.554
-588,-146,-45.0034,7.81934,0,0,0,0,0,0,0,-1,636,1170,-45.0034,-7.81931
-581,-146,-31.7815,6.30347,0,0,0,0,0,0,0,-1,643,1170,-31.7815,-6.3035
-574,-146,-17.9915,3.79114,0,0,0,0,0,0,0,-1,650,1170,-17.9915,-3.79118
-567,-146,-44.4572,0.6604,0,0,0,0,0,0,0,-1,657,1170,-44.4572,-0.660404
-560,-146,-54.3016,0.593384,0,0,0,0,0,0,0,-1,664,1170,-54.3016,-0.593424
-553,-146,-54.3058,0.661011,0,0,0,0,0,0,0,-1,671,1170,-54.3059,-0.661034
-546,-146,-54.375,0.995728,0,0,0,0,0,0,0,-1,678,1170,-54.375,-0.995776
-539,-146,-54.0122,0.334229,0,0,0,0,0,0,0,-1,685,1170,-54.0122,-0.33423
-532,-146,-53.7941,0.0839844,0,0,0,0,0,0,0,-1,692,1170,-53.7941,-0.0839695
-525,-146,-53.8832,0.234131,0,0,0,0,0,0,0,-1,699,1170,-53.8833,-0.234129
-518,-146,0,0,0,0,0,0,0,0,0,-1,706,1170,0,0
-511,-146,0,0,0,0,0,0,0,0,0,-1,713,1170,0,0
-504,-146,0,0,0,0,0,0,0,0,0,-1,720,1170,0,0
-497,-146,0,0,0,0,0,0,0,0,0,-1,727,1170,0,0
-490,-146,0,0,0,0,0,0,0,0,0,-1,734,1170,0,0
-483,-146,0,0,0,0,0,0,0,0,0,-1,741,1170,0,0
-476,-146,0,0,0,0,0,0,0,0,0,-1,748,1170,0,0
-469,-146,0,0,0,0,0,0,0,0,0,-1,755,1170,0,0
-462,-146,0,0,0,0,0,0,0,0,0,-1,762,1170,0,0
-455,-146,0,0,0,0,0,0,0,0,0,-1,769,1170,0,0
-448,-146,0,0,0,0,0,0,0,0,0,-1,776,1170,0,0
-441,-146,0,0,0,0,0,0,0,0,0,-1,783,1170,0,0
-434,-146,0,0,0,0,0,0,0,0,0,-1,790,1170,0,0
-427,-146,0,0,0,0,0,0,0,0,0,-1,797,1170,0,0
-420,-146,0,0,0,0,0,0,0,0,0,-1,804,1170,0,0
-413,-146,0,0,0,0,0,0,0,0,0,-1,811,1170,0,0
-406,-146,0,0,0,0,0,0,0,0,0,-1,818,1170,0,0
-399,-146,0,0,0,0,0,0,0,0,0,-1,825,1170,0,0
-392,-146,0,0,0,0,0,0,0,0,0,-1,832,1170,0,0
-385,-146,0,0,0,0,0,0,0,0,0,-1,839,1170,0,0
-378,-146,0,0,0,0,0,0,0,0,0,-1,846,1170,0,0
-371,-146,0,0,0,0,0,0,0,0,0,-1,853,1170,0,0
-364,-146,0,0,0,0,0,0,0,0,0,-1,860,1170,0,0
-357,-146,0,0,0,0,0,0,0,0,0,-1,867,1170,0,0
-350,-146,0,0,0,0,0,0,0,0,0,-1,874,1170,0,0
-343,-146,0,0,0,0,0,0,0,0,0,-1,881,1170,0,0
-336,-146,0,0,0,0,0,0,0,0,0,-1,888,1170,0,0
-329,-146,0,0,0,0,0,0,0,0,0,-1,895,1170,0,0
-322,-146,0,0,0,0,0,0,0,0,0,-1,902,1170,0,0
-315,-146,0,0,0,0,0,0,0,0,0,-1,909,1170,0,0
-308,-146,0,0,0,0,0,0,0,0,0,-1,916,1170,0,0
-301,-146,0,0,0,0,0,0,0,0,0,-1,923,1170,0,0
-294,-146,0,0,0,0,0,0,0,0,0,-1,930,1170,0,0
-287,-146,0,0,0,0,0,0,0,0,0,-1,937,1170,0,0
-280,-146,0,0,0,0,0,0,0,0,0,-1,944,1170,0,0
-273,-146,0,0,0,0,0,0,0,0,0,-1,951,1170,0,0
-266,-146,0,0,0,0,0,0,0,0,0,-1,958,1170,0,0
-259,-146,0,0,0,0,0,0,0,0,0,-1,965,1170,0,0
-252,-146,0,0,0,0,0,0,0,0,0,-1,972,1170,0,0
-245,-146,0,0,0,0,0,0,0,0,0,-1,979,1170,0,0
-238,-146,0,0,0,0,0,0,0,0,0,-1,986,1170,0,0
-231,-146,0,0,0,0,0,0,0,0,0,-1,993,1170,0,0
-224,-146,0,0,0,0,0,0,0,0,0,-1,1000,1170,0,0
-217,-146,0,0,0,0,0,0,0,0,0,-1,1007,1170,0,0
-210,-146,0,0,0,0,0,0,0,0,0,-1,1014,1170,0,0
-203,-146,0,0,0,0,0,0,0,0,0,-1,1021,1170,0,0
-196,-146,0,0,0,0,0,0,0,0,0,-1,1028,1170,0,0
-189,-146,0,0,0,0,0,0,0,0,0,-1,1035,1170,0,0
-182,-146,0,0,0,0,0,0,0,0,0,-1,1042,1170,0,0
-175,-146,0,0,0,0,0,0,0,0,0,-1,1049,1170,0,0
-168,-146,0,0,0,0,0,0,0,0,0,-1,1056,1170,0,0
-161,-146,0,0,0,0,0,0,0,0,0,-1,1063,1170,0,0
-154,-146,0,0,0,0,0,0,0,0,0,-1,1070,1170,0,0
-147,-146,0,0,0,0,0,0,0,0,0,-1,1077,1170,0,0
-140,-146,0,0,0,0,0,0,0,0,0,-1,1084,1170,0,0
-133,-146,0,0,0,0,0,0,0,0,0,-1,1091,1170,0,0
-126,-146,0,0,0,0,0,0,0,0,0,-1,1098,1170,0,0
-119,-146,0,0,0,0,0,0,0,0,0,-1,1105,1170,0,0
-112,-146,0,0,0,0,0,0,0,0,0,-1,1112,1170,0,0
-105,-146,0,0,0,0,0,0,0,0,0,-1,1119,1170,0,0
-98,-146,0,0,0,0,0,0,0,0,0,-1,1126,1170,0,0
-91,-146,0,0,0,0,0,0,0,0,0,-1,1133,1170,0,0
-84,-146,0,0,0,0,0,0,0,0,0,-1,1140,1170,0,0
-77,-146,0,0,0,0,0,0,0,0,0,-1,1147,1170,0,0
-70,-146,0,0,0,0,0,0,0,0,0,-1,1154,1170,0,0
-63,-146,0,0,0,0,0,0,0,0,0,-1,1161,1170,0,0
-56,-146,0,0,0,0,0,0,0,0,0,-1,1168,1170,0,0
-49,-146,0,0,0,0,0,0,0,0,0,-1,1175,1170,0,0
-42,-146,0,0,0,0,0,0,0,0,0,-1,1182,1170,0,0
-35,-146,0,0,0,0,0,0,0,0,0,-1,1189,1170,0,0
-28,-146,0,0,0,0,0,0,0,0,0,-1,1196,1170,0,0
-21,-146,0,0,0,0,0,0,0,0,0,-1,1203,1170,0,0
-14,-146,0,0,0,0,0,0,0,0,0,-1,1210,1170,0,0
-7,-146,0,0,0,0,0,0,0,0,0,-1,1217,1170,0,0
0,-146,0,0,0,0,0,0,0,0,0,-1,1224,1170,0,0
7,-146,0,0,0,0,0,0,0,0,0,-1,1231,1170,0,0
14,-146,0,0,0,0,0,0,0,0,0,-1,1238,1170,0,0
21,-146,0,0,0,0,0,0,0,0,0,-1,1245,1170,0,0
28,-146,0,0,0,0,0,0,0,0,0,-1,1252,1170,0,0
35,-146,0,0,0,0,0,0,0,0,0,-1,1259,1170,0,0
42,-146,0,0,0,0,0,0,0,0,0,-1,1266,1170,0,0
49,-146,0,0,0,0,0,0,0,0,0,-1,1273,1170,0,0
56,-146,0,0,0,0,0,0,0,0,0,-1,1280,1170,0,0
63,-146,0,0,0,0,0,0,0,0,0,-1,1287,1170,0,0
70,-146,0,0,0,0,0,0,0,0,0,-1,1294,1170,0,0
77,-146,0,0,0,0,0,0,0,0,0,-1,1301,1170,0,0
84,-146,0,0,0,0,0,0,0,0,0,-1,1308,1170,0,0
91,-146,0,0,0,0,0,0,0,0,0,-1,1315,1170,0,0
98,-146,0,0,0,0,0,0,0,0,0,-1,1322,1170,0,0
105,-146,0,0,0,0,0,0,0,0,0,-1,1329,1170,0,0
112,-146,0,0,0,0,0,0,0,0,0,-1,1336,1170,0,0
119,-146,0,0,0,0,0,0,0,0,0,-1,1343,1170,0,0
126,-146,0,0,0,0,0,0,0,0,0,-1,1350,1170,0,0
133,-146,0,0,0,0,0,0,0,0,0,-1,1357,1170,0,0
140,-146,0,0,0,0,0,0,0,0,0,-1,1364,1170,0,0
147,-146,0,0,0,0,0,0,0,0,0,-1,1371,1170,0,0
154,-146,0,0,0,0,0,0,0,0,0,-1,1378,1170,0,0
161,-146,0,0,0,0,0,0,0,0,0,-1,1385,1170,0,0
168,-146,0,0,0,0,0,0,0,0,0,-1,1392,1170,0,0
175,-146,0,0,0,0,0,0,0,0,0,-1,1399,1170,0,0
182,-146,0,0,0,0,0,0,0,0,0,-1,1406,1170,0,0
189,-146,0,0,0,0,0,0,0,0,0,-1,1413,1170,0,0
196,-146,0,0,0,0,0,0,0,0,0,-1,1420,1170,0,0
203,-146,0,0,0,0,0,0,0,0,0,-1,1427,1170,0,0
210,-146,0,0,0,0,0,0,0,0,0,-1,1434,1170,0,0
217,-146,0,0,0,0,0,0,0,0,0,-1,1441,1170,0,0
224,-146,0,0,0,0,0,0,0,0,0,-1,1448,1170,0,0
231,-146,0,0,0,0,0,0,0,0,0,-1,1455,1170,0,0
238,-146,0,0,0,0,0,0,0,0,0,-1,1462,1170,0,0
245,-146,0,0,0,0,0,0,0,0,0,-1,1469,1170,0,0
252,-146,0,0,0,0,0,0,0,0,0,-1,1476,1170,0,0
259,-146,0,0,0,0,0,0,0,0,0,-1,1483,1170,0,0
266,-146,0,0,0,0,0,0,0,0,0,-1,1490,1170,0,0
273,-146,0,0,0,0,0,0,0,0,0,-1,1497,1170,0,0
280,-146,0,0,0,0,0,0,0,0,0,-1,1504,1170,0,0
287,-146,0,0,0,0,0,0,0,0,0,-1,1511,1170,0,0
294,-146,0,0,0,0,0,0,0,0,0,-1,1518,1170,0,0
301,-146,0,0,0,0,0,0,0,0,0,-1,1525,1170,0,0
308,-146,0,0,0,0,0,0,0,0,0,-1,1532,1170,0,0
315,-146,0,0,0,0,0,0,0,0,0,-1,1539,1170,0,0
322,-146,0,0,0,0,0,0,0,0,0,-1,1546,1170,0,0
329,-146,0,0,0,0,0,0,0,0,0,-1,1553,1170,0,0
336,-146,0,0,0,0,0,0,0,0,0,-1,1560,1170,0,0
343,-146,0,0,0,0,0,0,0,0,0,-1,1567,1170,0,0
350,-146,0,0,0,0,0,0,0,0,0,-1,1574,1170,0,0
357,-146,0,0,0,0,0,0,0,0,0,-1,1581,1170,0,0
364,-146,0,0,0,0,0,0,0,0,0,-1,1588,1170,0,0
371,-146,0,0,0,0,0,0,0,0,0,-1,1595,1170,0,0
378,-146,0,0,0,0,0,0,0,0,0,-1,1602,1170,0,0
385,-146,0,0,0,0,0,0,0,0,0,-1,1609,1170,0,0
392,-146,0,0,0,0,0,0,0,0,0,-1,1616,1170,0,0
399,-146,0,0,0,0,0,0,0,0,0,-1,1623,1170,0,0
406,-146,0,0,0,0,0,0,0,0,0,-1,1630,1170,0,0
413,-146,0,0,0,0,0,0,0,0,0,-1,1637,1170,0,0
420,-146,0,0,0,0,0,0,0,0,0,-1,1644,1170,0,0
427,-146,0,0,0,0,0,0,0,0,0,-1,1651,1170,0,0
434,-146,0,0,0,0,0,0,0,0,0,-1,1658,1170,0,0
441,-146,0,0,0,0,0,0,0,0,0,-1,1665,1170,0,0
448,-146,0,0,0,0,0,0,0,0,0,-1,1672,1170,0,0
455,-146,0,0,0,0,0,0,0,0,0,-1,1679,1170,0,0
462,-146,0,0,0,0,0,0,0,0,0,-1,1686,1170,0,0
469,-146,0,0,0,0,0,0,0,0,0,-1,1693,1170,0,0
476,-146,0,0,0,0,0,0,0,0,0,-1,1700,1170,0,0
483,-146,0,0,0,0,0,0,0,0,0,-1,1707,1170,0,0
490,-146,0,0,0,0,0,0,0,0,0,-1,1714,1170,0,0
497,-146,0,0,0,0,0,0,0,0,0,-1,1721,1170,0,0
504,-146,0,0,0,0,0,0,0,0,0,-1,1728,1170,0,0
511,-146,0,0,0,0,0,0,0,0,0,-1,1735,1170,0,0
518,-146,0,0,0,0,0,0,0,0,0,-1,1742,1170,0,0
525,-146,0,0,0,0,0,0,0,0,0,-1,1749,1170,0,0
532,-146,0,0,0,0,0,0,0,0,0,-1,1756,1170,0,0
539,-146,0,0,0,0,0,0,0,0,0,-1,1763,1170,0,0
546,-146,0,0,0,0,0,0,0,0,0,-1,1770,1170,0,0
553,-146,0,0,0,0,0,0,0,0,0,-1,1777,1170,0,0
560,-146,0,0,0,0,0,0,0,0,0,-1,1784,1170,0,0
567,-146,0,0,0,0,0,0,0,0,0,-1,1791,1170,0,0
574,-146,0,0,0,0,0,0,0,0,0,-1,1798,1170,0,0
581,-146,0,0,0,0,0,0,0,0,0,-1,1805,1170,0,0
588,-146,0,0,0,0,0,0,0,0,0,-1,1812,1170,0,0
595,-146,0,0,0,0,0,0,0,0,0,-1,1819,1170,0,0
602,-146,0,0,0,0,0,0,0,0,0,-1,1826,1170,0,0
609,-146,0,0,0,0,0,0,0,0,0,-1,1833,1170,0,0
616,-146,0,0,0,0,0,0,0,0,0,-1,1840,1170,0,0
623,-146,0,0,0,0,0,0,0,0,0,-1,1847,1170,0,0
630,-146,0,0,0,0,0,0,0,0,0,-1,1854,1170,0,0
637,-146,70.8325,2.04919,0.00471374,0.000265183,6.59605e-05,0.00471471,0.000264205,0.0148231,0.00305888,0.0409714,1861,1170,70.8326,-2.04922
644,-146,70.7499,2.13806,0.0036572,0.00057291,4.94284e-06,0.00365721,0.000572902,0.00160258,0.00227138,0.0400687,1868,1170,70.7499,-2.13811
651,-146,70.8999,2.23169,0.00284365,0.000831486,-0.000150331,0.00285481,0.000820317,-0.0741626,0.00169719,0.0361845,1875,1170,70.8999,-2.23174
658,-146,70.9877,2.27295,0.0021556,0.00100521,-0.000365153,0.00226172,0.000899093,-0.28282,0.00131491,0.0386384,1882,1170,70.9877,-2.27294
665,-146,70.9648,2.31543,0.00156081,0.00116533,-0.000644904,0.00203761,0.00068853,-0.636639,0.00119684,0.0393951,1889,1170,70.9648,-2.3154
672,-146,70.9719,2.31812,0.00116662,0.00128873,-0.000988184,0.00221774,0.000237604,-0.816252,0.001406,0.0371372,1896,1170,70.9719,-2.31813
679,-146,70.9751,2.16003,0.00126108,0.00108135,-0.00108145,0.00225639,8.60366e-05,-0.743945,0.00147641,0.0307061,1903,1170,70.9751,-2.16006
686,-146,70.8391,2.16528,0.00220311,0.0011228,-0.00111211,0.00289931,0.000426604,-0.559325,0.00180753,0.0227548,1910,1170,70.8391,-2.16533
693,-146,70.9098,2.15625,0.0025027,0.000982798,-0.000908398,0.00292711,0.000558388,-0.437071,0.00179448,0.0176452,1917,1170,70.9098,-2.15627
700,-146,70.9867,2.06274,0,0,0,0,0,0,0,-1,1924,1170,70.9867,-2.06272
707,-146,29.9441,6.94653,0,0,0,0,0,0,0,-1,1931,1170,29.9441,-6.94652
714,-146,31.325,6.13245,0,0,0,0,0,0,0,-1,1938,1170,31.325,-6.1325
721,-146,61.3608,9.47766,0,0,0,0,0,0,0,-1,1945,1170,61.3608,-9.47767
728,-146,61.5856,8.51538,0,0,0,0,0,0,0,-1,1952,1170,61.5855,-8.51539
735,-146,61.5809,8.28357,0.00290038,0.000799512,0.000735804,0.00313245,0.000567441,0.305523,0.0019272,0.0401757,1959,1170,61.5809,-8.28358
742,-146,61.7435,7.6001,0.00263252,0.000681304,0.00118057,0.00318843,0.000125389,0.440086,0.00208508,0.018876,1966,1170,61.7435,-7.60016
749,-146,61.6364,7.02527,0.00129214,0.00111881,0.00167271,0.00288043,-0.000469477,0.759516,0.00209439,0.0168892,1973,1170,61.6363,-7.02529
756,-146,61.5873,6.43787,-0.000492722,0.00207536,0.00226816,0.00339772,-0.00181508,1.04296,0.0030555,0.0130992,1980,1170,61.5873,-6.43792
763,-146,61.5215,5.81775,-0.0021583,0.00303616,0.00289987,0.00433186,-0.003454,1.1506,0.00450468,0.0121423,1987,1170,61.5214,-5.8178
770,-146,61.4871,5.2074,-0.00368537,0.00389015,0.00353487,0.00528336,-0.00507858,1.19536,0.00598285,0.0133993,1994,1170,61.4871,-5.20739
777,-146,61.4944,4.72546,-0.00505497,0.00458979,0.00415551,0.00613322,-0.00659841,1.21517,0.00735225,0.0258459,2001,1170,61.4945,-4.72544
784,-146,61.4517,4.27588,0,0,0,0,0,0,0,-1,2008,1170,61.4516,-4.27591
791,-146,61.4355,4.00916,0,0,0,0,0,0,0,-1,2015,1170,61.4355,-4.00911
798,-146,61.1067,4.0542,0,0,0,0,0,0,0,-1,2022,1170,61.1066,-4.05419
805,-146,61.6804,3.26233,0,0,0,0,0,0,0,-1,2029,1170,61.6804,-3.26232
812,-146,0,0,0,0,0,0,0,0,0,-1,2036,1170,0,0
-700,-153,0,0,0,0,0,0,0,0,0,-1,524,1177,0,0
-693,-153,0,0,0,0,0,0,0,0,0,-1,531,1177,0,0
-686,-153,-48.9528,-5.50293,0,0,0,0,0,0,0,-1,538,1177,-48.9528,5.50288
-679,-153,-47.1443,-3.58569,0,0,0,0,0,0,0,-1,545,1177,-47.1444,3.58564
-672,-153,-46.0755,-1.88635,0.111835,0.15925,-0.0461594,0.187434,0.0836512,-1.02263,0.108423,0.0473182,552,1177,-46.0755,1.88638
-665,-153,-45.3149,-0.694092,0.0888132,0.126237,-0.0392243,0.150984,0.064066,-1.00796,0.0875026,0.0456252,559,1177,-45.3149,0.69407
-658,-153,-44.7252,1.3811,0,0,0,0,0,0,0,-1,566,1177,-44.7252,-1.38108
-651,-153,-44.8579,2.11316,0.0501475,0.072052,-0.0250184,0.0884104,0.0337891,-0.991716,0.051514,0.0468991,573,1177,-44.8579,-2.11318
-644,-153,-44.9342,2.84741,0.0340522,0.0498688,-0.0183109,0.0619062,0.0220149,-0.989244,0.0362349,0.0287086,580,1177,-44.9342,-2.84745
-637,-153,-45.0571,3.53015,0.0203808,0.0312307,-0.0123169,0.0392644,0.0123471,-0.99284,0.0231837,0.0124699,587,1177,-45.0571,-3.53015
-630,-153,-45.1191,4.19519,0.00916406,0.0163923,-0.00767552,0.021262,0.00429436,-1.00543,0.0129822,0.0105518,594,1177,-45.1191,-4.19522
-623,-153,-45.1537,4.86731,0.000697492,0.00493628,-0.00339137,0.00681604,-0.00118227,-1.06468,0.00498507,0.0117061,601,1177,-45.1537,-4.86735
-616,-153,-45.211,5.50977,-0.00392537,-0.000902526,-0.000943095,-0.000632425,-0.00419547,-1.29186,0.00261182,0.0154058,608,1177,-45.211,-5.50972
-609,-153,-45.3013,6.05188,-0.00486111,-0.00134102,-0.000945743,-0.00110302,-0.00509911,-1.32426,0.0030979,0.0421477,615,1177,-45.3013,-6.05187
-602,-153,-45.3401,6.31958,0,0,0,0,0,0,0,-1,622,1177,-45.3401,-6.31961
-595,-153,-43.9551,7.35718,0,0,0,0,0,0,0,-1,629,1177,-43.9551,-7.35722
-588,-153,-32.348,5.51038,0,0,0,0,0,0,0,-1,636,1177,-32.348,-5.51034
-581,-153,-33.4568,6.41492,0,0,0,0,0,0,0,-1,643,1177,-33.4568,-6.41497
-574,-153,-25.4814,5.16956,0,0,0,0,0,0,0,-1,650,1177,-25.4814,-5.16961
-567,-153,-35.3121,1.09485,0,0,0,0,0,0,0,-1,657,1177,-35.3121,-1.09482
-560,-153,-54.2702,0.476196,0,0,0,0,0,0,0,-1,664,1177,-54.2702,-0.476242
-553,-153,-54.1556,0.395752,0,0,0,0,0,0,0,-1,671,1177,-54.1556,-0.395707
-546,-153,-54.0493,0.394653,0,0,0,0,0,0,0,-1,678,1177,-54.0493,-0.394649
-539,-153,-53.9684,0.0817871,0,0,0,0,0,0,0,-1,685,1177,-53.9684,-0.081838
-532,-153,-53.3932,-0.339722,0,0,0,0,0,0,0,-1,692,1177,-53.3932,0.339715
-525,-153,-53.849,0.108887,0,0,0,0,0,0,0,-1,699,1177,-53.849,-0.108848
-518,-153,0,0,0,0,0,0,0,0,0,-1,706,1177,0,0
-511,-153,0,0,0,0,0,0,0,0,0,-1,713,1177,0,0
-504,-153,0,0,0,0,0,0,0,0,0,-1,720,1177,0,0
-497,-153,0,0,0,0,0,0,0,0,0,-1,727,1177,0,0
-490,-153,0,0,0,0,0,0,0,0,0,-1,734,1177,0,0
-483,-153,0,0,0,0,0,0,0,0,0,-1,741,1177,0,0
-476,-153,0,0,0,0,0,0,0,0,0,-1,748,1177,0,0
-469,-153,0,0,0,0,0,0,0,0,0,-1,755,1177,0,0
-462,-153,0,0,0,0,0,0,0,0,0,-1,762,1177,0,0
-455,-153,0,0,0,0,0,0,0,0,0,-1,769,1177,0,0
-448,-153,0,0,0,0,0,0,0,0,0,-1,776,1177,0,0
-441,-153,0,0,0,0,0,0,0,0,0,-1,783,1177,0,0
-434,-153,0,0,0,0,0,0,0,0,0,-1,790,1177,0,0
-427,-153,0,0,0,0,0,0,0,0,0,-1,797,1177,0,0
-420,-153,0,0,0,0,0,0,0,0,0,-1,804,1177,0,0
-413,-153,0,0,0,0,0,0,0,0,0,-1,811,1177,0,0
-406,-153,0,0,0,0,0,0,0,0,0,-1,818,1177,0,0
-399,-153,0,0,0,0,0,0,0,0,0,-1,825,1177,0,0
-392,-153,0,0,0,0,0,0,0,0,0,-1,832,1177,0,0
-385,-153,0,0,0,0,0,0,0,0,0,-1,839,1177,0,0
-378,-153,0,0,0,0,0,0,0,0,0,-1,846,1177,0,0
-371,-153,0,0,0,0,0,0,0,0,0,-1,853,1177,0,0
-364,-153,0,0,0,0,0,0,0,0,0,-1,860,1177,0,0
-357,-153,0,0,0,0,0,0,0,0,0,-1,867,1177,0,0
-350,-153,0,0,0,0,0,0,0,0,0,-1,874,1177,0,0
-343,-153,0,0,0,0,0,0,0,0,0,-1,881,1177,0,0
-336,-153,0,0,0,0,0,0,0,0,0,-1,888,1177,0,0
-329,-153,0,0,0,0,0,0,0,0,0,-1,895,1177,0,0
-322,-153,0,0,0,0,0,0,0,0,0,-1,902,1177,0,0
-315,-153,0,0,0,0,0,0,0,0,0,-1,909,1177,0,0
-308,-153,0,0,0,0,0,0,0,0,0,-1,916,1177,0,0
-301,-153,0,0,0,0,0,0,0,0,0,-1,923,1177,0,0
-294,-153,0,0,0,0,0,0,0,0,0,-1,930,1177,0,0
-287,-153,0,0,0,0,0,0,0,0,0,-1,937,1177,0,0
-280,-153,0,0,0,0,0,0,0,0,0,-1,944,1177,0,0
-273,-153,0,0,0,0,0,0,0,0,0,-1,951,1177,0,0
-266,-153,0,0,0,0,0,0,0,0,0,-1,958,1177,0,0
-259,-153,0,0,0,0,0,0,0,0,0,-1,965,1177,0,0
-252,-153,0,0,0,0,0,0,0,0,0,-1,972,1177,0,0
-245,-153,0,0,0,0,0,0,0,0,0,-1,979,1177,0,0
-238,-153,0,0,0,0,0,0,0,0,0,-1,986,1177,0,0
-231,-153,0,0,0,0,0,0,0,0,0,-1,993,1177,0,0
-224,-153,0,0,0,0,0,0,0,0,0,-1,1000,1177,0,0
-217,-153,0,0,0,0,0,0,0,0,0,-1,1007,1177,0,0
-210,-153,0,0,0,0,0,0,0,0,0,-1,1014,1177,0,0
-203,-153,0,0,0,0,0,0,0,0,0,-1,1021,1177,0,0
-196,-153,0,0,0,0,0,0,0,0,0,-1,1028,1177,0,0
-189,-153,0,0,0,0,0,0,0,0,0,-1,1035,1177,0,0
-182,-153,0,0,0,0,0,0,0,0,0,-1,1042,1177,0,0
-175,-153,0,0,0,0,0,0,0,0,0,-1,1049,1177,0,0
-168,-153,0,0,0,0,0,0,0,0,0,-1,1056,1177,0,0
-161,-153,0,0,0,0,0,0,0,0,0,-1,1063,1177,0,0
-154,-153,0,0,0,0,0,0,0,0,0,-1,1070,1177,0,0
-147,-153,0,0,0,0,0,0,0,0,0,-1,1077,1177,0,0
-140,-153,0,0,0,0,0,0,0,0,0,-1,1084,1177,0,0
-133,-153,0,0,0,0,0,0,0,0,0,-1,1091,1177,0,0
-126,-153,0,0,0,0,0,0,0,0,0,-1,1098,1177,0,0
-119,-153,0,0,0,0,0,0,0,0,0,-1,1105,1177,0,0
-112,-153,0,0,0,0,0,0,0,0,0,-1,1112,1177,0,0
-105,-153,0,0,0,0,0,0,0,0,0,-1,1119,1177,0,0
-98,-153,0,0,0,0,0,0,0,0,0,-1,1126,1177,0,0
-91,-153,0,0,0,0,0,0,0,0,0,-1,1133,1177,0,0
-84,-153,0,0,0,0,0,0,0,0,0,-1,1140,1177,0,0
-77,-153,0,0,0,0,0,0,0,0,0,-1,1147,1177,0,0
-70,-153,0,0,0,0,0,0,0,0,0,-1,1154,1177,0,0
-63,-153,0,0,0,0,0,0,0,0,0,-1,1161,1177,0,0
-56,-153,0,0,0,0,0,0,0,0,0,-1,1168,1177,0,0
-49,-153,0,0,0,0,0,0,0,0,0,-1,1175,1177,0,0
-42,-153,0,0,0,0,0,0,0,0,0,-1,1182,1177,0,0
-35,-153,0,0,0,0,0,0,0,0,0,-1,1189,1177,0,0
-28,-153,0,0,0,0,0,0,0,0,0,-1,1196,1177,0,0
-21,-153,0,0,0,0,0,0,0,0,0,-1,1203,1177,0,0
-14,-153,0,0,0,0,0,0,0,0,0,-1,1210,1177,0,0
-7,-153,0,0,0,0,0,0,0,0,0,-1,1217,1177,0,0
0,-153,0,0,0,0,0,0,0,0,0,-1,1224,1177,0,0
7,-153,0,0,0,0,0,0,0,0,0,-1,1231,1177,0,0
14,-153,0,0,0,0,0,0,0,0,0,-1,1238,1177,0,0
21,-153,0,0,0,0,0,0,0,0,0,-1,1245,1177,0,0
28,-153,0,0,0,0,0,0,0,0,0,-1,1252,1177,0,0
35,-153,0,0,0,0,0,0,0,0,0,-1,1259,1177,0,0
42,-153,0,0,0,0,0,0,0,0,0,-1,1266,1177,0,0
49,-153,0,0,0,0,0,0,0,0,0,-1,1273,1177,0,0
56,-153,0,0,0,0,0,0,0,0,0,-1,1280,1177,0,0
63,-153,0,0,0,0,0,0,0,0,0,-1,1287,1177,0,0
70,-153,0,0,0,0,0,0,0,0,0,-1,1294,1177,0,0
77,-153,0,0,0,0,0,0,0,0,0,-1,1301,1177,0,0
84,-153,0,0,0,0,0,0,0,0,0,-1,1308,1177,0,0
91,-153,0,0,0,0,0,0,0,0,0,-1,1315,1177,0,0
98,-153,0,0,0,0,0,0,0,0,0,-1,1322,1177,0,0
105,-153,0,0,0,0,0,0,0,0,0,-1,1329,1177,0,0
112,-153,0,0,0,0,0,0,0,0,0,-1,1336,1177,0,0
119,-153,0,0,0,0,0,0,0,0,0,-1,1343,1177,0,0
126,-153,0,0,0,0,0,0,0,0,0,-1,1350,1177,0,0
133,-153,0,0,0,0,0,0,0,0,0,-1,1357,1177,0,0
140,-153,0,0,0,0,0,0,0,0,0,-1,1364,1177,0,0
147,-153,0,0,0,0,0,0,0,0,0,-1,1371,1177,0,0
154,-153,0,0,0,0,0,0,0,0,0,-1,1378,1177,0,0
161,-153,0,0,0,0,0,0,0,0,0,-1,1385,1177,0,0
168,-153,0,0,0,0,0,0,0,0,0,-1,1392,1177,0,0
175,-153,0,0,0,0,0,0,0,0,0,-1,1399,1177,0,0
182,-153,0,0,0,0,0,0,0,0,0,-1,1406,1177,0,0
189,-153,0,0,0,0,0,0,0,0,0,-1,1413,1177,0,0
196,-153,0,0,0,0,0,0,0,0,0,-1,1420,1177,0,0
203,-153,0,0,0,0,0,0,0,0,0,-1,1427,1177,0,0
210,-153,0,0,0,0,0,0,0,0,0,-1,1434,1177,0,0
217,-153,0,0,0,0,0,0,0,0,0,-1,1441,1177,0,0
224,-153,0,0,0,0,0,0,0,0,0,-1,1448,1177,0,0
231,-153,0,0,0,0,0,0,0,0,0,-1,1455,1177,0,0
238,-153,0,0,0,0,0,0,0,0,0,-1,1462,1177,0,0
245,-153,0,0,0,0,0,0,0,0,0,-1,1469,1177,0,0
252,-153,0,0,0,0,0,0,0,0,0,-1,1476,1177,0,0
259,-153,0,0,0,0,0,0,0,0,0,-1,1483,1177,0,0
266,-153,0,0,0,0,0,0,0,0,0,-1,1490,1177,0,0
273,-153,0,0,0,0,0,0,0,0,0,-1,1497,1177,0,0
280,-153,0,0,0,0,0,0,0,0,0,-1,1504,1177,0,0
287,-153,0,0,0,0,0,0,0,0,0,-1,1511,1177,0,0
294,-153,0,0,0,0,0,0,0,0,0,-1,1518,1177,0,0
301,-153,0,0,0,0,0,0,0,0,0,-1,1525,1177,0,0
308,-153,0,0,0,0,0,0,0,0,0,-1,1532,1177,0,0
315,-153,0,0,0,0,0,0,0,0,0,-1,1539,1177,0,0
322,-153,0,0,0,0,0,0,0,0,0,-1,1546,1177,0,0
329,-153,0,0,0,0,0,0,0,0,0,-1,1553,1177,0,0
336,-153,0,0,0,0,0,0,0,0,0,-1,1560,1177,0,0
343,-153,0,0,0,0,0,0,0,0,0,-1,1567,1177,0,0
350,-153,0,0,0,0,0,0,0,0,0,-1,1574,1177,0,0
357,-153,0,0,0,0,0,0,0,0,0,-1,1581,1177,0,0
364,-153,0,0,0,0,0,0,0,0,0,-1,1588,1177,0,0
371,-153,0,0,0,0,0,0,0,0,0,-1,1595,1177,0,0
378,-153,0,0,0,0,0,0,0,0,0,-1,1602,1177,0,0
385,-153,0,0,0,0,0,0,0,0,0,-1,1609,1177,0,0
392,-153,0,0,0,0,0,0,0,0,0,-1,1616,1177,0,0
399,-153,0,0,0,0,0,0,0,0,0,-1,1623,1177,0,0
406,-153,0,0,0,0,0,0,0,0,0,-1,1630,1177,0,0
413,-153,0,0,0,0,0,0,0,0,0,-1,1637,1177,0,0
420,-153,0,0,0,0,0,0,0,0,0,-1,1644,1177,0,0
427,-153,0,0,0,0,0,0,0,0,0,-1,1651,1177,0,0
434,-153,0,0,0,0,0,0,0,0,0,-1,1658,1177,0,0
441,-153,0,0,0,0,0,0,0,0,0,-1,1665,1177,0,0
448,-153,0,0,0,0,0,0,0,0,0,-1,1672,1177,0,0
455,-153,0,0,0,0,0,0,0,0,0,-1,1679,1177,0,0
462,-153,0,0,0,0,0,0,0,0,0,-1,1686,1177,0,0
469,-153,0,0,0,0,0,0,0,0,0,-1,1693,1177,0,0
476,-153,0,0,0,0,0,0,0,0,0,-1,1700,1177,0,0
483,-153,0,0,0,0,0,0,0,0,0,-1,1707,1177,0,0
490,-153,0,0,0,0,0,0,0,0,0,-1,1714,1177,0,0
497,-153,0,0,0,0,0,0,0,0,0,-1,1721,1177,0,0
504,-153,0,0,0,0,0,0,0,0,0,-1,1728,1177,0,0
511,-153,0,0,0,0,0,0,0,0,0,-1,1735,1177,0,0
518,-153,0,0,0,0,0,0,0,0,0,-1,1742,1177,0,0
525,-153,0,0,0,0,0,0,0,0,0,-1,1749,1177,0,0
532,-153,0,0,0,0,0,0,0,0,0,-1,1756,1177,0,0
539,-153,0,0,0,0,0,0,0,0,0,-1,1763,1177,0,0
546,-153,0,0,0,0,0,0,0,0,0,-1,1770,1177,0,0
553,-153,0,0,0,0,0,0,0,0,0,-1,1777,1177,0,0
560,-153,0,0,0,0,0,0,0,0,0,-1,1784,1177,0,0
567,-153,0,0,0,0,0,0,0,0,0,-1,1791,1177,0,0
574,-153,0,0,0,0,0,0,0,0,0,-1,1798,1177,0,0
581,-153,0,0,0,0,0,0,0,0,0,-1,1805,1177,0,0
588,-153,0,0,0,0,0,0,0,0,0,-1,1812,1177,0,0
595,-153,0,0,0,0,0,0,0,0,0,-1,1819,1177,0,0
602,-153,0,0,0,0,0,0,0,0,0,-1,1826,1177,0,0
609,-153,0,0,0,0,0,0,0,0,0,-1,1833,1177,0,0
616,-153,0,0,0,0,0,0,0,0,0,-1,1840,1177,0,0
623,-153,0,0,0,0,0,0,0,0,0,-1,1847,1177,0,0
630,-153,0,0,0,0,0,0,0,0,0,-1,1854,1177,0,0
637,-153,70.8943,2.09351,0.00376097,-0.000516244,0.000403612,0.00379872,-0.000553997,0.0932664,0.00273591,0.0419222,1861,1177,70.8943,-2.0935
644,-153,70.9567,2.06335,0.00297188,-8.91293e-05,0.000281896,0.00299762,-0.000114873,0.0910718,0.00203779,0.040673,1868,1177,70.9567,-2.06335
651,-153,70.9818,2.25464,0.00235056,0.000325065,3.85238e-05,0.00235129,0.000324332,0.0190103,0.00147138,0.0314948,1875,1177,70.9819,-2.25467
658,-153,71.0337,2.29224,0.0017951,0.000703525,-0.000292916,0.00186874,0.000629891,-0.246281,0.00109784,0.0357414,1882,1177,71.0337,-2.29223
665,-153,71.0016,2.27759,0.00128939,0.00106985,-0.000661647,0.00185031,0.000508928,-0.703194,0.00110373,0.038483,1889,1177,71.0015,-2.27763
672,-153,70.9263,2.3009,0.00098916,0.00137839,-0.00107821,0.00227941,8.81433e-05,-0.874685,0.00149109,0.0365662,1896,1177,70.9263,-2.30092
679,-153,70.8695,2.20313,0.00116262,0.00132509,-0.00121613,0.00246269,2.502e-05,-0.818748,0.00163352,0.0279485,1903,1177,70.8695,-2.20318
686,-153,70.8761,2.17004,0.00211322,0.00137349,-0.00119547,0.00299473,0.000491969,-0.635375,0.00185438,0.0173097,1910,1177,70.876,-2.17
693,-153,70.9445,2.14099,0.00239383,0.0011713,-0.000908184,0.0028773,0.000687835,-0.489189,0.00173498,0.046518,1917,1177,70.9445,-2.14096
700,-153,70.9875,2.08618,0,0,0,0,0,0,0,-1,1924,1177,70.9875,-2.08616
707,-153,29.6483,6.6842,0,0,0,0,0,0,0,-1,1931,1177,29.6483,-6.68415
714,-153,36.0046,6.78418,0,0,0,0,0,0,0,-1,1938,1177,36.0046,-6.78418
721,-153,36.4866,6.47595,0,0,0,0,0,0,0,-1,1945,1177,36.4866,-6.47593
728,-153,47.7305,7.37024,0,0,0,0,0,0,0,-1,1952,1177,47.7304,-7.37022
735,-153,60.8009,7.92871,0,0,0,0,0,0,0,-1,1959,1177,60.8009,-7.92866
742,-153,60.9967,7.67029,0.00275815,0.000673167,0.00122858,0.00332693,0.000104388,0.433577,0.00218399,0.018111,1966,1177,60.9967,-7.67034
749,-153,60.9967,7.08276,0.00152092,0.00113277,0.00166199,0.00300013,-0.000346435,0.727274,0.002125,0.018419,1973,1177,60.9967,-7.08278
756,-153,60.9454,6.47021,-6.34923e-06,0.00208717,0.00213764,0.00342058,-0.00133976,1.01308,0.00283456,0.0124528,1980,1177,60.9454,-6.47016
763,-153,60.8949,5.83179,-0.00140529,0.00302356,0.00265923,0.00426965,-0.00265138,1.13259,0.00403211,0.0115719,1987,1177,60.8949,-5.83174
770,-153,60.8879,5.21277,-0.00271682,0.0038734,0.00322888,0.00519169,-0.00403511,1.18317,0.00534102,0.0124564,1994,1177,60.888,-5.21271
777,-153,60.8738,4.58728,-0.00388041,0.00460264,0.00378686,0.00604714,-0.00532491,1.20638,0.00657007,0.0253898,2001,1177,60.8737,-4.58729
784,-153,60.9856,3.90198,0,0,0,0,0,0,0,-1,2008,1177,60.9856,-3.90202
791,-153,61.1223,3.20996,0,0,0,0,0,0,0,-1,2015,1177,61.1222,-3.20998
798,-153,61.2825,3.38538,0,0,0,0,0,0,0,-1,2022,1177,61.2824,-3.38539
805,-153,61.7749,2.56921,0,0,0,0,0,0,0,-1,2029,1177,61.7748,-2.56923
812,-153,0,0,0,0,0,0,0,0,0,-1,2036,1177,0,0
-700,-160,0,0,0,0,0,0,0,0,0,-1,524,1184,0,0
-693,-160,0,0,0,0,0,0,0,0,0,-1,531,1184,0,0
-686,-160,-48.218,-6.49243,0,0,0,0,0,0,0,-1,538,1184,-48.218,6.49249
-679,-160,-47.0131,-4.80859,0,0,0,0,0,0,0,-1,545,1184,-47.0131,4.80861
-672,-160,-44.4752,-2.66174,0,0,0,0,0,0,0,-1,552,1184,-44.4752,2.66173
-665,-160,-43.4843,-1.75916,0,0,0,0,0,0,0,-1,559,1184,-43.4843,1.75919
-658,-160,-45.6841,2.71985,0,0,0,0,0,0,0,-1,566,1184,-45.6841,-2.71991
-651,-160,-44.2213,2.21265,0,0,0,0,0,0,0,-1,573,1184,-44.2213,-2.21267
-644,-160,-44.2554,2.8811,0.0385359,0.0485934,-0.0183973,0.0626369,0.0244925,-0.91881,0.0364486,0.0386511,580,1184,-44.2553,-2.88113
-637,-160,-44.3598,3.54346,0.0236104,0.0310174,-0.0125587,0.0404073,0.0142205,-0.92878,0.0236677,0.015492,587,1184,-44.3598,-3.54345
-630,-160,-44.4409,4.17676,0.0113361,0.0169602,-0.00809501,0.0227177,0.00557863,-0.952566,0.0136704,0.00914808,594,1184,-44.4409,-4.17681
-623,-160,-44.494,4.86121,0.00188015,0.0060553,-0.00393641,0.00842343,-0.000487982,-1.0292,0.00578515,0.0147246,601,1184,-44.494,-4.86122
-616,-160,-44.5444,5.53894,-0.00374732,9.16672e-05,-0.00157347,0.000654164,-0.00430981,-1.22747,0.00311425,0.0129955,608,1184,-44.5443,-5.53896
-609,-160,-44.6598,6.16016,-0.00560592,-0.000837164,-0.00163106,-0.000332664,-0.00611042,-1.27082,0.00396738,0.023732,615,1184,-44.6598,-6.16012
-602,-160,-44.8204,6.80054,0,0,0,0,0,0,0,-1,622,1184,-44.8204,-6.80058
-595,-160,-33.0669,5.93445,0,0,0,0,0,0,0,-1,629,1184,-33.0669,-5.93446
-588,-160,-33.4845,5.66699,0,0,0,0,0,0,0,-1,636,1184,-33.4845,-5.66697
-581,-160,-33.1338,6.41174,0,0,0,0,0,0,0,-1,643,1184,-33.1338,-6.41176
-574,-160,-32.7831,7.15649,0,0,0,0,0,0,0,-1,650,1184,-32.7831,-7.15655
-567,-160,-29.5828,0.643921,0,0,0,0,0,0,0,-1,657,1184,-29.5828,-0.643968
-560,-160,-54.1033,0.15564,0,0,0,0,0,0,0,-1,664,1184,-54.1034,-0.155697
-553,-160,-54.1204,0.213745,0,0,0,0,0,0,0,-1,671,1184,-54.1204,-0.213748
-546,-160,-54.1539,0.278442,0,0,0,0,0,0,0,-1,678,1184,-54.1539,-0.278384
-539,-160,-53.7325,-0.311279,0,0,0,0,0,0,0,-1,685,1184,-53.7325,0.31132
-532,-160,-53.7955,0.0285645,0,0,0,0,0,0,0,-1,692,1184,-53.7955,-0.0285343
-525,-160,-53.8199,0.279663,0,0,0,0,0,0,0,-1,699,1184,-53.82,-0.279611
-518,-160,-53.9947,0.494263,0,0,0,0,0,0,0,-1,706,1184,-53.9947,-0.49431
-511,-160,0,0,0,0,0,0,0,0,0,-1,713,1184,0,0
-504,-160,0,0,0,0,0,0,0,0,0,-1,720,1184,0,0
-497,-160,0,0,0,0,0,0,0,0,0,-1,727,1184,0,0
-490,-160,0,0,0,0,0,0,0,0,0,-1,734,1184,0,0
-483,-160,0,0,0,0,0,0,0,0,0,-1,741,1184,0,0
-476,-160,0,0,0,0,0,0,0,0,0,-1,748,1184,0,0
-469,-160,0,0,0,0,0,0,0,0,0,-1,755,1184,0,0
-462,-160,0,0,0,0,0,0,0,0,0,-1,762,1184,0,0
-455,-160,0,0,0,0,0,0,0,0,0,-1,769,1184,0,0
-448,-160,0,0,0,0,0,0,0,0,0,-1,776,1184,0,0
-441,-160,0,0,0,0,0,0,0,0,0,-1,783,1184,0,0
-434,-160,0,0,0,0,0,0,0,0,0,-1,790,1184,0,0
-427,-160,0,0,0,0,0,0,0,0,0,-1,797,1184,0,0
-420,-160,0,0,0,0,0,0,0,0,0,-1,804,1184,0,0
-413,-160,0,0,0,0,0,0,0,0,0,-1,811,1184,0,0
-406,-160,0,0,0,0,0,0,0,0,0,-1,818,1184,0,0
-399,-160,0,0,0,0,0,0,0,0,0,-1,825,1184,0,0
-392,-160,0,0,0,0,0,0,0,0,0,-1,832,1184,0,0
-385,-160,0,0,0,0,0,0,0,0,0,-1,839,1184,0,0
-378,-160,0,0,0,0,0,0,0,0,0,-1,846,1184,0,0
-371,-160,0,0,0,0,0,0,0,0,0,-1,853,1184,0,0
-364,-160,0,0,0,0,0,0,0,0,0,-1,860,1184,0,0
-357,-160,0,0,0,0,0,0,0,0,0,-1,867,1184,0,0
-350,-160,0,0,0,0,0,0,0,0,0,-1,874,1184,0,0
-343,-160,0,0,0,0,0,0,0,0,0,-1,881,1184,0,0
-336,-160,0,0,0,0,0,0,0,0,0,-1,888,1184,0,0
-329,-160,0,0,0,0,0,0,0,0,0,-1,895,1184,0,0
-322,-160,0,0,0,0,0,0,0,0,0,-1,902,1184,0,0
-315,-160,0,0,0,0,0,0,0,0,0,-1,909,1184,0,0
-308,-160,0,0,0,0,0,0,0,0,0,-1,916,1184,0,0
-301,-160,0,0,0,0,0,0,0,0,0,-1,923,1184,0,0
-294,-160,0,0,0,0,0,0,0,0,0,-1,930,1184,0,0
-287,-160,0,0,0,0,0,0,0,0,0,-1,937,1184,0,0
-280,-160,0,0,0,0,0,0,0,0,0,-1,944,1184,0,0
-273,-160,0,0,0,0,0,0,0,0,0,-1,951,1184,0,0
-266,-160,0,0,0,0,0,0,0,0,0,-1,958,1184,0,0
-259,-160,0,0,0,0,0,0,0,0,0,-1,965,1184,0,0
-252,-160,0,0,0,0,0,0,0,0,0,-1,972,1184,0,0
-245,-160,0,0,0,0,0,0,0,0,0,-1,979,1184,0,0
-238,-160,0,0,0,0,0,0,0,0,0,-1,986,1184,0,0
-231,-160,0,0,0,0,0,0,0,0,0,-1,993,1184,0,0
-224,-160,0,0,0,0,0,0,0,0,0,-1,1000,1184,0,0
-217,-160,0,0,0,0,0,0,0,0,0,-1,1007,1184,0,0
-210,-160,0,0,0,0,0,0,0,0,0,-1,1014,1184,0,0
-203,-160,0,0,0,0,0,0,0,0,0,-1,1021,1184,0,0
-196,-160,0,0,0,0,0,0,0,0,0,-1,1028,1184,0,0
-189,-160,0,0,0,0,0,0,0,0,0,-1,1035,1184,0,0
-182,-160,0,0,0,0,0,0,0,0,0,-1,1042,1184,0,0
-175,-160,0,0,0,0,0,0,0,0,0,-1,1049,1184,0,0
-168,-160,0,0,0,0,0,0,0,0,0,-1,1056,1184,0,0
-161,-160,0,0,0,0,0,0,0,0,0,-1,1063,1184,0,0
-154,-160,0,0,0,0,0,0,0,0,0,-1,1070,1184,0,0
-147,-160,0,0,0,0,0,0,0,0,0,-1,1077,1184,0,0
-140,-160,0,0,0,0,0,0,0,0,0,-1,1084,1184,0,0
-133,-160,0,0,0,0,0,0,0,0,0,-1,1091,1184,0,0
-126,-160,0,0,0,0,0,0,0,0,0,-1,1098,1184,0,0
-119,-160,0,0,0,0,0,0,0,0,0,-1,1105,1184,0,0
-112,-160,0,0,0,0,0,0,0,0,0,-1,1112,1184,0,0
-105,-160,0,0,0,0,0,0,0,0,0,-1,1119,1184,0,0
-98,-160,0,0,0,0,0,0,0,0,0,-1,1126,1184,0,0
-91,-160,0,0,0,0,0,0,0,0,0,-1,1133,1184,0,0
-84,-160,0,0,0,0,0,0,0,0,0,-1,1140,1184,0,0
-77,-160,0,0,0,0,0,0,0,0,0,-1,1147,1184,0,0
-70,-160,0,0,0,0,0,0,0,0,0,-1,1154,1184,0,0
-63,-160,0,0,0,0,0,0,0,0,0,-1,1161,1184,0,0
-56,-160,0,0,0,0,0,0,0,0,0,-1,1168,1184,0,0
-49,-160,0,0,0,0,0,0,0,0,0,-1,1175,1184,0,0
-42,-160,0,0,0,0,0,0,0,0,0,-1,1182,1184,0,0
-35,-160,0,0,0,0,0,0,0,0,0,-1,1189,1184,0,0
-28,-160,0,0,0,0,0,0,0,0,0,-1,1196,1184,0,0
-21,-160,0,0,0,0,0,0,0,0,0,-1,1203,1184,0,0
-14,-160,0,0,0,0,0,0,0,0,0,-1,1210,1184,0,0
-7,-160,0,0,0,0,0,0,0,0,0,-1,1217,1184,0,0
0,-160,0,0,0,0,0,0,0,0,0,-1,1224,1184,0,0
7,-160,0,0,0,0,0,0,0,0,0,-1,1231,1184,0,0
14,-160,0,0,0,0,0,0,0,0,0,-1,1238,1184,0,0
21,-160,0,0,0,0,0,0,0,0,0,-1,1245,1184,0,0
28,-160,0,0,0,0,0,0,0,0,0,-1,1252,1184,0,0
35,-160,0,0,0,0,0,0,0,0,0,-1,1259,1184,0,0
42,-160,0,0,0,0,0,0,0,0,0,-1,1266,1184,0,0
49,-160,0,0,0,0,0,0,0,0,0,-1,1273,1184,0,0
56,-160,0,0,0,0,0,0,0,0,0,-1,1280,1184,0,0
63,-160,0,0,0,0,0,0,0,0,0,-1,1287,1184,0,0
70,-160,0,0,0,0,0,0,0,0,0,-1,1294,1184,0,0
77,-160,0,0,0,0,0,0,0,0,0,-1,1301,1184,0,0
84,-160,0,0,0,0,0,0,0,0,0,-1,1308,1184,0,0
91,-160,0,0,0,0,0,0,0,0,0,-1,1315,1184,0,0
98,-160,0,0,0,0,0,0,0,0,0,-1,1322,1184,0,0
105,-160,0,0,0,0,0,0,0,0,0,-1,1329,1184,0,0
112,-160,0,0,0,0,0,0,0,0,0,-1,1336,1184,0,0
119,-160,0,0,0,0,0,0,0,0,0,-1,1343,1184,0,0
126,-160,0,0,0,0,0,0,0,0,0,-1,1350,1184,0,0
133,-160,0,0,0,0,0,0,0,0,0,-1,1357,1184,0,0
140,-160,0,0,0,0,0,0,0,0,0,-1,1364,1184,0,0
147,-160,0,0,0,0,0,0,0,0,0,-1,1371,1184,0,0
154,-160,0,0,0,0,0,0,0,0,0,-1,1378,1184,0,0
161,-160,0,0,0,0,0,0,0,0,0,-1,1385,1184,0,0
168,-160,0,0,0,0,0,0,0,0,0,-1,1392,1184,0,0
175,-160,0,0,0,0,0,0,0,0,0,-1,1399,1184,0,0
182,-160,0,0,0,0,0,0,0,0,0,-1,1406,1184,0,0
189,-160,0,0,0,0,0,0,0,0,0,-1,1413,1184,0,0
196,-160,0,0,0,0,0,0,0,0,0,-1,1420,1184,0,0
203,-160,0,0,0,0,0,0,0,0,0,-1,1427,1184,0,0
210,-160,0,0,0,0,0,0,0,0,0,-1,1434,1184,0,0
217,-160,0,0,0,0,0,0,0,0,0,-1,1441,1184,0,0
224,-160,0,0,0,0,0,0,0,0,0,-1,1448,1184,0,0
231,-160,0,0,0,0,0,0,0,0,0,-1,1455,1184,0,0
238,-160,0,0,0,0,0,0,0,0,0,-1,1462,1184,0,0
245,-160,0,0,0,0,0,0,0,0,0,-1,1469,1184,0,0
252,-160,0,0,0,0,0,0,0,0,0,-1,1476,1184,0,0
259,-160,0,0,0,0,0,0,0,0,0,-1,1483,1184,0,0
266,-160,0,0,0,0,0,0,0,0,0,-1,1490,1184,0,0
273,-160,0,0,0,0,0,0,0,0,0,-1,1497,1184,0,0
280,-160,0,0,0,0,0,0,0,0,0,-1,1504,1184,0,0
287,-160,0,0,0,0,0,0,0,0,0,-1,1511,1184,0,0
294,-160,0,0,0,0,0,0,0,0,0,-1,1518,1184,0,0
301,-160,0,0,0,0,0,0,0,0,0,-1,1525,1184,0,0
308,-160,0,0,0,0,0,0,0,0,0,-1,1532,1184,0,0
315,-160,0,0,0,0,0,0,0,0,0,-1,1539,1184,0,0
322,-160,0,0,0,0,0,0,0,0,0,-1,1546,1184,0,0
329,-160,0,0,0,0,0,0,0,0,0,-1,1553,1184,0,0
336,-160,0,0,0,0,0,0,0,0,0,-1,1560,1184,0,0
343,-160,0,0,0,0,0,0,0,0,0,-1,1567,1184,0,0
350,-160,0,0,0,0,0,0,0,0,0,-1,1574,1184,0,0
357,-160,0,0,0,0,0,0,0,0,0,-1,1581,1184,0,0
364,-160,0,0,0,0,0,0,0,0,0,-1,1588,1184,0,0
371,-160,0,0,0,0,0,0,0,0,0,-1,1595,1184,0,0
378,-160,0,0,0,0,0,0,0,0,0,-1,1602,1184,0,0
385,-160,0,0,0,0,0,0,0,0,0,-1,1609,1184,0,0
392,-160,0,0,0,0,0,0,0,0,0,-1,1616,1184,0,0
399,-160,0,0,0,0,0,0,0,0,0,-1,1623,1184,0,0
406,-160,0,0,0,0,0,0,0,0,0,-1,1630,1184,0,0
413,-160,0,0,0,0,0,0,0,0,0,-1,1637,1184,0,0
420,-160,0,0,0,0,0,0,0,0,0,-1,1644,1184,0,0
427,-160,0,0,0,0,0,0,0,0,0,-1,1651,1184,0,0
434,-160,0,0,0,0,0,0,0,0,0,-1,1658,1184,0,0
441,-160,0,0,0,0,0,0,0,0,0,-1,1665,1184,0,0
448,-160,0,0,0,0,0,0,0,0,0,-1,1672,1184,0,0
455,-160,0,0,0,0,0,0,0,0,0,-1,1679,1184,0,0
462,-160,0,0,0,0,0,0,0,0,0,-1,1686,1184,0,0
469,-160,0,0,0,0,0,0,0,0,0,-1,1693,1184,0,0
476,-160,0,0,0,0,0,0,0,0,0,-1,1700,1184,0,0
483,-160,0,0,0,0,0,0,0,0,0,-1,1707,1184,0,0
490,-160,0,0,0,0,0,0,0,0,0,-1,1714,1184,0,0
497,-160,0,0,0,0,0,0,0,0,0,-1,1721,1184,0,0
504,-160,0,0,0,0,0,0,0,0,0,-1,1728,1184,0,0
511,-160,0,0,0,0,0,0,0,0,0,-1,1735,1184,0,0
518,-160,0,0,0,0,0,0,0,0,0,-1,1742,1184,0,0
525,-160,0,0,0,0,0,0,0,0,0,-1,1749,1184,0,0
532,-160,0,0,0,0,0,0,0,0,0,-1,1756,1184,0,0
539,-160,0,0,0,0,0,0,0,0,0,-1,1763,1184,0,0
546,-160,0,0,0,0,0,0,0,0,0,-1,1770,1184,0,0
553,-160,0,0,0,0,0,0,0,0,0,-1,1777,1184,0,0
560,-160,0,0,0,0,0,0,0,0,0,-1,1784,1184,0,0
567,-160,0,0,0,0,0,0,0,0,0,-1,1791,1184,0,0
574,-160,0,0,0,0,0,0,0,0,0,-1,1798,1184,0,0
581,-160,0,0,0,0,0,0,0,0,0,-1,1805,1184,0,0
588,-160,0,0,0,0,0,0,0,0,0,-1,1812,1184,0,0
595,-160,0,0,0,0,0,0,0,0,0,-1,1819,1184,0,0
602,-160,0,0,0,0,0,0,0,0,0,-1,1826,1184,0,0
609,-160,0,0,0,0,0,0,0,0,0,-1,1833,1184,0,0
616,-160,0,0,0,0,0,0,0,0,0,-1,1840,1184,0,0
623,-160,0,0,0,0,0,0,0,0,0,-1,1847,1184,0,0
630,-160,0,0,0,0,0,0,0,0,0,-1,1854,1184,0,0
637,-160,70.9196,2.11426,0.00290689,-0.00108816,0.000743387,0.00304073,-0.00122201,0.178137,0.00253466,0.0424418,1861,1184,70.9195,-2.11429
644,-160,70.9421,2.00208,0.00238931,-0.000511916,0.000536874,0.00248548,-0.000608077,0.177234,0.00189252,0.0424964,1868,1184,70.9422,-2.00213
651,-160,70.8776,2.17493,0.00196224,7.69528e-05,0.000171745,0.00197775,6.14349e-05,0.0901095,0.00129851,0.0386003,1875,1184,70.8775,-2.17493
658,-160,70.8898,2.26172,0.00154297,0.000653557,-0.000292644,0.00163062,0.000565906,-0.291012,0.000956008,0.0387979,1882,1184,70.8898,-2.26175
665,-160,70.9261,2.29749,0.00114945,0.00118617,-0.000746823,0.00191486,0.000420762,-0.797686,0.001162,0.0376803,1889,1184,70.9262,-2.29747
672,-160,70.8759,2.35474,0.000993293,0.00160241,-0.0012088,0.00254443,5.12697e-05,-0.908804,0.00167946,0.0334813,1896,1184,70.8759,-2.3547
679,-160,70.8461,2.25659,0.00125727,0.00161152,-0.00137271,0.00281849,5.03e-05,-0.849559,0.00186245,0.025483,1903,1184,70.8461,-2.25661
686,-160,70.8695,2.15979,0.00212057,0.00162719,-0.00135272,0.00324891,0.000498852,-0.695208,0.00202029,0.0156688,1910,1184,70.8695,-2.15985
693,-160,70.9055,2.09998,0,0,0,0,0,0,0,-1,1917,1184,70.9055,-2.10001
700,-160,42.8784,2.44617,0,0,0,0,0,0,0,-1,1924,1184,42.8785,-2.4462
707,-160,24.5115,6.27405,0,0,0,0,0,0,0,-1,1931,1184,24.5115,-6.27401
714,-160,35.6892,6.8905,0,0,0,0,0,0,0,-1,1938,1184,35.6892,-6.89048
721,-160,36.2388,6.37878,0,0,0,0,0,0,0,-1,1945,1184,36.2388,-6.37876
728,-160,52.2174,8.57385,0,0,0,0,0,0,0,-1,1952,1184,52.2174,-8.57381
735,-160,60.2888,8.33301,0,0,0,0,0,0,0,-1,1959,1184,60.2888,-8.333
742,-160,60.3384,7.68933,0.0028456,0.000844483,0.00106195,0.0033041,0.000385982,0.407578,0.00208601,0.0198348,1966,1184,60.3384,-7.68939
749,-160,60.3341,7.08887,0.00171619,0.0012762,0.0014699,0.00298246,9.9251e-06,0.711116,0.00198501,0.0202621,1973,1184,60.3341,-7.08889
756,-160,60.3074,6.46509,0.000421085,0.00208764,0.00192662,0.00335346,-0.000844738,0.989504,0.00256403,0.0126428,1980,1184,60.3073,-6.46514
763,-160,60.2445,5.85889,-0.000773116,0.00288379,0.00243262,0.0040985,-0.00198783,1.10767,0.00358369,0.0129553,1987,1184,60.2445,-5.85885
770,-160,60.1543,5.19873,-0.00190676,0.0036454,0.00296594,0.00493176,-0.00319312,1.16157,0.00472656,0.0295289,1994,1184,60.1543,-5.19878
777,-160,60.2322,4.58179,-0.00287985,0.00435127,0.00340926,0.00570516,-0.00423373,1.19278,0.00575914,0.040331,2001,1184,60.2321,-4.58183
784,-160,60.5129,3.77991,0,0,0,0,0,0,0,-1,2008,1184,60.5129,-3.77986
791,-160,60.6375,3.26282,0,0,0,0,0,0,0,-1,2015,1184,60.6374,-3.2628
798,-160,61.1433,2.73145,0,0,0,0,0,0,0,-1,2022,1184,61.1432,-2.73141
805,-160,61.7466,2.31738,0,0,0,0,0,0,0,-1,2029,1184,61.7467,-2.31734
812,-160,0,0,0,0,0,0,0,0,0,-1,2036,1184,0,0
-700,-167,0,0,0,0,0,0,0,0,0,-1,524,1191,0,0
-693,-167,0,0,0,0,0,0,0,0,0,-1,531,1191,0,0
-686,-167,-47.5646,-7.41541,0,0,0,0,0,0,0,-1,538,1191,-47.5646,7.41539
-679,-167,-46.4021,-5.75293,0,0,0,0,0,0,0,-1,545,1191,-46.4021,5.75288
-672,-167,-42.7675,-3.64612,0.136625,0.141068,-0.0451951,0.184096,0.0935969,-0.809959,0.106293,0.0466567,552,1191,-42.7675,3.64612
-665,-167,-41.4545,-2.05786,0,0,0,0,0,0,0,-1,559,1191,-41.4545,2.05781
-658,-167,-40.1167,-0.46936,0,0,0,0,0,0,0,-1,566,1191,-40.1167,0.469371
-651,-167,-43.5267,2.20227,0,0,0,0,0,0,0,-1,573,1191,-43.5267,-2.20222
-644,-167,-43.5378,2.89453,0.043121,0.0463697,-0.0184616,0.0632783,0.0262124,-0.829277,0.0367125,0.0447059,580,1191,-43.5378,-2.89452
-637,-167,-43.6417,3.57031,0.0270805,0.0301332,-0.0127019,0.0414001,0.0158136,-0.845195,0.0241233,0.0201886,587,1191,-43.6417,-3.57037
-630,-167,-43.759,4.17627,0.0139122,0.0170988,-0.00835157,0.0240077,0.00700328,-0.879654,0.0142561,0.00991216,594,1191,-43.759,-4.17625
-623,-167,-43.7889,4.8175,0.00365001,0.00700801,-0.00433506,0.00997786,0.000680165,-0.970156,0.00643718,0.0139991,601,1191,-43.7889,-4.81754
-616,-167,-43.8385,5.52124,-0.00288092,0.000973147,-0.00205464,0.00186303,-0.0037708,-1.16208,0.00331427,0.0177142,608,1191,-43.8385,-5.52125
-609,-167,-43.874,6.2572,-0.00557287,-0.000466247,-0.00210631,0.000290417,-0.00632953,-1.22592,0.00431975,0.0171971,615,1191,-43.874,-6.25723
-602,-167,-44.0327,6.85474,0,0,0,0,0,0,0,-1,622,1191,-44.0327,-6.85475
-595,-167,-43.8873,7.3197,0,0,0,0,0,0,0,-1,629,1191,-43.8874,-7.31969
-588,-167,-42.7112,7.92004,0,0,0,0,0,0,0,-1,636,1191,-42.7112,-7.92007
-581,-167,-32.8646,6.30542,0,0,0,0,0,0,0,-1,643,1191,-32.8646,-6.30537
-574,-167,-32.4808,7.37524,0,0,0,0,0,0,0,-1,650,1191,-32.4808,-7.37525
-567,-167,-27.3643,2.55859,0,0,0,0,0,0,0,-1,657,1191,-27.3643,-2.55864
-560,-167,-48.2598,0.834839,0,0,0,0,0,0,0,-1,664,1191,-48.2598,-0.834822
-553,-167,-54.1682,0.404175,0,0,0,0,0,0,0,-1,671,1191,-54.1682,-0.404154
-546,-167,-54.2041,0.451172,0,0,0,0,0,0,0,-1,678,1191,-54.2041,-0.451172
-539,-167,-54.1101,0.343384,0,0,0,0,0,0,0,-1,685,1191,-54.1101,-0.34343
-532,-167,-53.9147,0.235596,0,0,0,0,0,0,0,-1,692,1191,-53.9147,-0.235646
-525,-167,-53.8625,0.479248,0,0,0,0,0,0,0,-1,699,1191,-53.8625,-0.479251
-518,-167,-54.0122,0.696899,0,0,0,0,0,0,0,-1,706,1191,-54.0122,-0.696911
-511,-167,0,0,0,0,0,0,0,0,0,-1,713,1191,0,0
-504,-167,0,0,0,0,0,0,0,0,0,-1,720,1191,0,0
-497,-167,0,0,0,0,0,0,0,0,0,-1,727,1191,0,0
-490,-167,0,0,0,0,0,0,0,0,0,-1,734,1191,0,0
-483,-167,0,0,0,0,0,0,0,0,0,-1,741,1191,0,0
-476,-167,0,0,0,0,0,0,0,0,0,-1,748,1191,0,0
-469,-167,0,0,0,0,0,0,0,0,0,-1,755,1191,0,0
-462,-167,0,0,0,0,0,0,0,0,0,-1,762,1191,0,0
-455,-167,0,0,0,0,0,0,0,0,0,-1,769,1191,0,0
-448,-167,0,0,0,0,0,0,0,0,0,-1,776,1191,0,0
-441,-167,0,0,0,0,0,0,0,0,0,-1,783,1191,0,0
-434,-167,0,0,0,0,0,0,0,0,0,-1,790,1191,0,0
-427,-167,0,0,0,0,0,0,0,0,0,-1,797,1191,0,0
-420,-167,0,0,0,0,0,0,0,0,0,-1,804,1191,0,0
-413,-167,0,0,0,0,0,0,0,0,0,-1,811,1191,0,0
-406,-167,0,0,0,0,0,0,0,0,0,-1,818,1191,0,0
-399,-167,0,0,0,0,0,0,0,0,0,-1,825,1191,0,0
-392,-167,0,0,0,0,0,0,0,0,0,-1,832,1191,0,0
-385,-167,0,0,0,0,0,0,0,0,0,-1,839,1191,0,0
-378,-167,0,0,0,0,0,0,0,0,0,-1,846,1191,0,0
-371,-167,0,0,0,0,0,0,0,0,0,-1,853,1191,0,0
-364,-167,0,0,0,0,0,0,0,0,0,-1,860,1191,0,0
-357,-167,0,0,0,0,0,0,0,0,0,-1,867,1191,0,0
-350,-167,0,0,0,0,0,0,0,0,0,-1,874,1191,0,0
-343,-167,0,0,0,0,0,0,0,0,0,-1,881,1191,0,0
-336,-167,0,0,0,0,0,0,0,0,0,-1,888,1191,0,0
-329,-167,0,0,0,0,0,0,0,0,0,-1,895,1191,0,0
-322,-167,0,0,0,0,0,0,0,0,0,-1,902,1191,0,0
-315,-167,0,0,0,0,0,0,0,0,0,-1,909,1191,0,0
-308,-167,0,0,0,0,0,0,0,0,0,-1,916,1191,0,0
-301,-167,0,0,0,0,0,0,0,0,0,-1,923,1191,0,0
-294,-167,0,0,0,0,0,0,0,0,0,-1,930,1191,0,0
-287,-167,0,0,0,0,0,0,0,0,0,-1,937,1191,0,0
-280,-167,0,0,0,0,0,0,0,0,0,-1,944,1191,0,0
-273,-167,0,0,0,0,0,0,0,0,0,-1,951,1191,0,0
-266,-167,0,0,0,0,0,0,0,0,0,-1,958,1191,0,0
-259,-167,0,0,0,0,0,0,0,0,0,-1,965,1191,0,0
-252,-167,0,0,0,0,0,0,0,0,0,-1,972,1191,0,0
-245,-167,0,0,0,0,0,0,0,0,0,-1,979,1191,0,0
-238,-167,0,0,0,0,0,0,0,0,0,-1,986,1191,0,0
-231,-167,0,0,0,0,0,0,0,0,0,-1,993,1191,0,0
-224,-167,0,0,0,0,0,0,0,0,0,-1,1000,1191,0,0
-217,-167,0,0,0,0,0,0,0,0,0,-1,1007,1191,0,0
-210,-167,0,0,0,0,0,0,0,0,0,-1,1014,1191,0,0
-203,-167,0,0,0,0,0,0,0,0,0,-1,1021,1191,0,0
-196,-167,0,0,0,0,0,0,0,0,0,-1,1028,1191,0,0
-189,-167,0,0,0,0,0,0,0,0,0,-1,1035,1191,0,0
-182,-167,0,0,0,0,0,0,0,0,0,-1,1042,1191,0,0
-175,-167,0,0,0,0,0,0,0,0,0,-1,1049,1191,0,0
-168,-167,0,0,0,0,0,0,0,0,0,-1,1056,1191,0,0
-161,-167,0,0,0,0,0,0,0,0,0,-1,1063,1191,0,0
-154,-167,0,0,0,0,0,0,0,0,0,-1,1070,1191,0,0
-147,-167,0,0,0,0,0,0,0,0,0,-1,1077,1191,0,0
-140,-167,0,0,0,0,0,0,0,0,0,-1,1084,1191,0,0
-133,-167,0,0,0,0,0,0,0,0,0,-1,1091,1191,0,0
-126,-167,0,0,0,0,0,0,0,0,0,-1,1098,1191,0,0
-119,-167,0,0,0,0,0,0,0,0,0,-1,1105,1191,0,0
-112,-167,0,0,0,0,0,0,0,0,0,-1,1112,1191,0,0
-105,-167,0,0,0,0,0,0,0,0,0,-1,1119,1191,0,0
-98,-167,0,0,0,0,0,0,0,0,0,-1,1126,1191,0,0
-91,-167,0,0,0,0,0,0,0,0,0,-1,1133,1191,0,0
-84,-167,0,0,0,0,0,0,0,0,0,-1,1140,1191,0,0
-77,-167,0,0,0,0,0,0,0,0,0,-1,1147,1191,0,0
-70,-167,0,0,0,0,0,0,0,0,0,-1,1154,1191,0,0
-63,-167,0,0,0,0,0,0,0,0,0,-1,1161,1191,0,0
-56,-167,0,0,0,0,0,0,0,0,0,-1,1168,1191,0,0
-49,-167,0,0,0,0,0,0,0,0,0,-1,1175,1191,0,0
-42,-167,0,0,0,0,0,0,0,0,0,-1,1182,1191,0,0
-35,-167,0,0,0,0,0,0,0,0,0,-1,1189,1191,0,0
-28,-167,0,0,0,0,0,0,0,0,0,-1,1196,1191,0,0
-21,-167,0,0,0,0,0,0,0,0,0,-1,1203,1191,0,0
-14,-167,0,0,0,0,0,0,0,0,0,-1,1210,1191,0,0
-7,-167,0,0,0,0,0,0,0,0,0,-1,1217,1191,0,0
0,-167,0,0,0,0,0,0,0,0,0,-1,1224,1191,0,0
7,-167,0,0,0,0,0,0,0,0,0,-1,1231,1191,0,0
14,-167,0,0,0,0,0,0,0,0,0,-1,1238,1191,0,0
21,-167,0,0,0,0,0,0,0,0,0,-1,1245,1191,0,0
28,-167,0,0,0,0,0,0,0,0,0,-1,1252,1191,0,0
35,-167,0,0,0,0,0,0,0,0,0,-1,1259,1191,0,0
42,-167,0,0,0,0,0,0,0,0,0,-1,1266,1191,0,0
49,-167,0,0,0,0,0,0,0,0,0,-1,1273,1191,0,0
56,-167,0,0,0,0,0,0,0,0,0,-1,1280,1191,0,0
63,-167,0,0,0,0,0,0,0,0,0,-1,1287,1191,0,0
70,-167,0,0,0,0,0,0,0,0,0,-1,1294,1191,0,0
77,-167,0,0,0,0,0,0,0,0,0,-1,1301,1191,0,0
84,-167,0,0,0,0,0,0,0,0,0,-1,1308,1191,0,0
91,-167,0,0,0,0,0,0,0,0,0,-1,1315,1191,0,0
98,-167,0,0,0,0,0,0,0,0,0,-1,1322,1191,0,0
105,-167,0,0,0,0,0,0,0,0,0,-1,1329,1191,0,0
112,-167,0,0,0,0,0,0,0,0,0,-1,1336,1191,0,0
119,-167,0,0,0,0,0,0,0,0,0,-1,1343,1191,0,0
126,-167,0,0,0,0,0,0,0,0,0,-1,1350,1191,0,0
133,-167,0,0,0,0,0,0,0,0,0,-1,1357,1191,0,0
140,-167,0,0,0,0,0,0,0,0,0,-1,1364,1191,0,0
147,-167,0,0,0,0,0,0,0,0,0,-1,1371,1191,0,0
154,-167,0,0,0,0,0,0,0,0,0,-1,1378,1191,0,0
161,-167,0,0,0,0,0,0,0,0,0,-1,1385,1191,0,0
168,-167,0,0,0,0,0,0,0,0,0,-1,1392,1191,0,0
175,-167,0,0,0,0,0,0,0,0,0,-1,1399,1191,0,0
182,-167,0,0,0,0,0,0,0,0,0,-1,1406,1191,0,0
189,-167,0,0,0,0,0,0,0,0,0,-1,1413,1191,0,0
196,-167,0,0,0,0,0,0,0,0,0,-1,1420,1191,0,0
203,-167,0,0,0,0,0,0,0,0,0,-1,1427,1191,0,0
210,-167,0,0,0,0,0,0,0,0,0,-1,1434,1191,0,0
217,-167,0,0,0,0,0,0,0,0,0,-1,1441,1191,0,0
224,-167,0,0,0,0,0,0,0,0,0,-1,1448,1191,0,0
231,-167,0,0,0,0,0,0,0,0,0,-1,1455,1191,0,0
238,-167,0,0,0,0,0,0,0,0,0,-1,1462,1191,0,0
245,-167,0,0,0,0,0,0,0,0,0,-1,1469,1191,0,0
252,-167,0,0,0,0,0,0,0,0,0,-1,1476,1191,0,0
259,-167,0,0,0,0,0,0,0,0,0,-1,1483,1191,0,0
266,-167,0,0,0,0,0,0,0,0,0,-1,1490,1191,0,0
273,-167,0,0,0,0,0,0,0,0,0,-1,1497,1191,0,0
280,-167,0,0,0,0,0,0,0,0,0,-1,1504,1191,0,0
287,-167,0,0,0,0,0,0,0,0,0,-1,1511,1191,0,0
294,-167,0,0,0,0,0,0,0,0,0,-1,1518,1191,0,0
301,-167,0,0,0,0,0,0,0,0,0,-1,1525,1191,0,0
308,-167,0,0,0,0,0,0,0,0,0,-1,1532,1191,0,0
315,-167,0,0,0,0,0,0,0,0,0,-1,1539,1191,0,0
322,-167,0,0,0,0,0,0,0,0,0,-1,1546,1191,0,0
329,-167,0,0,0,0,0,0,0,0,0,-1,1553,1191,0,0
336,-167,0,0,0,0,0,0,0,0,0,-1,1560,1191,0,0
343,-167,0,0,0,0,0,0,0,0,0,-1,1567,1191,0,0
350,-167,0,0,0,0,0,0,0,0,0,-1,1574,1191,0,0
357,-167,0,0,0,0,0,0,0,0,0,-1,1581,1191,0,0
364,-167,0,0,0,0,0,0,0,0,0,-1,1588,1191,0,0
371,-167,0,0,0,0,0,0,0,0,0,-1,1595,1191,0,0
378,-167,0,0,0,0,0,0,0,0,0,-1,1602,1191,0,0
385,-167,0,0,0,0,0,0,0,0,0,-1,1609,1191,0,0
392,-167,0,0,0,0,0,0,0,0,0,-1,1616,1191,0,0
399,-167,0,0,0,0,0,0,0,0,0,-1,1623,1191,0,0
406,-167,0,0,0,0,0,0,0,0,0,-1,1630,1191,0,0
413,-167,0,0,0,0,0,0,0,0,0,-1,1637,1191,0,0
420,-167,0,0,0,0,0,0,0,0,0,-1,1644,1191,0,0
427,-167,0,0,0,0,0,0,0,0,0,-1,1651,1191,0,0
434,-167,0,0,0,0,0,0,0,0,0,-1,1658,1191,0,0
441,-167,0,0,0,0,0,0,0,0,0,-1,1665,1191,0,0
448,-167,0,0,0,0,0,0,0,0,0,-1,1672,1191,0,0
455,-167,0,0,0,0,0,0,0,0,0,-1,1679,1191,0,0
462,-167,0,0,0,0,0,0,0,0,0,-1,1686,1191,0,0
469,-167,0,0,0,0,0,0,0,0,0,-1,1693,1191,0,0
476,-167,0,0,0,0,0,0,0,0,0,-1,1700,1191,0,0
483,-167,0,0,0,0,0,0,0,0,0,-1,1707,1191,0,0
490,-167,0,0,0,0,0,0,0,0,0,-1,1714,1191,0,0
497,-167,0,0,0,0,0,0,0,0,0,-1,1721,1191,0,0
504,-167,0,0,0,0,0,0,0,0,0,-1,1728,1191,0,0
511,-167,0,0,0,0,0,0,0,0,0,-1,1735,1191,0,0
518,-167,0,0,0,0,0,0,0,0,0,-1,1742,1191,0,0
525,-167,0,0,0,0,0,0,0,0,0,-1,1749,1191,0,0
532,-167,0,0,0,0,0,0,0,0,0,-1,1756,1191,0,0
539,-167,0,0,0,0,0,0,0,0,0,-1,1763,1191,0,0
546,-167,0,0,0,0,0,0,0,0,0,-1,1770,1191,0,0
553,-167,0,0,0,0,0,0,0,0,0,-1,1777,1191,0,0
560,-167,0,0,0,0,0,0,0,0,0,-1,1784,1191,0,0
567,-167,0,0,0,0,0,0,0,0,0,-1,1791,1191,0,0
574,-167,0,0,0,0,0,0,0,0,0,-1,1798,1191,0,0
581,-167,0,0,0,0,0,0,0,0,0,-1,1805,1191,0,0
588,-167,0,0,0,0,0,0,0,0,0,-1,1812,1191,0,0
595,-167,0,0,0,0,0,0,0,0,0,-1,1819,1191,0,0
602,-167,0,0,0,0,0,0,0,0,0,-1,1826,1191,0,0
609,-167,0,0,0,0,0,0,0,0,0,-1,1833,1191,0,0
616,-167,0,0,0,0,0,0,0,0,0,-1,1840,1191,0,0
623,-167,0,0,0,0,0,0,0,0,0,-1,1847,1191,0,0
630,-167,0,0,0,0,0,0,0,0,0,-1,1854,1191,0,0
637,-167,70.766,2.16638,0.00209806,-0.00129462,0.000871369,0.00230877,-0.00150533,0.237264,0.0022183,0.0412958,1861,1191,70.766,-2.16635
644,-167,70.6882,2.03772,0.0018399,-0.000541071,0.000593749,0.00197975,-0.000680921,0.231322,0.00159598,0.0433775,1868,1191,70.6882,-2.03769
651,-167,70.7889,2.18713,0.00162394,0.000219867,0.000124504,0.0016349,0.000208912,0.0877608,0.0010274,0.0411638,1875,1191,70.789,-2.18708
658,-167,70.7522,2.29102,0.00136063,0.000952355,-0.000432047,0.00163434,0.000678646,-0.5647,0.000948094,0.0401287,1882,1191,70.7522,-2.29103
665,-167,70.8684,2.34766,0.001087,0.00158796,-0.000922543,0.00229342,0.000381536,-0.91796,0.00141897,0.0368444,1889,1191,70.8684,-2.34768
672,-167,70.9109,2.302,0.00106435,0.00199872,-0.00135945,0.00296902,9.40494e-05,-0.950904,0.00194875,0.0288548,1896,1191,70.9109,-2.30198
679,-167,70.8837,2.21838,0.00136852,0.00200398,-0.0015058,0.0032252,0.000147295,-0.889376,0.00210276,0.021159,1903,1191,70.8836,-2.21837
686,-167,70.8259,2.06238,0.0020877,0.00196348,-0.00148234,0.00350923,0.000541947,-0.764461,0.0021814,0.0288726,1910,1191,70.8259,-2.06238
693,-167,70.7635,1.88538,0,0,0,0,0,0,0,-1,1917,1191,70.7635,-1.8854
700,-167,28.0459,2.70508,0,0,0,0,0,0,0,-1,1924,1191,28.0459,-2.70513
707,-167,29.4708,7.10168,0,0,0,0,0,0,0,-1,1931,1191,29.4708,-7.10172
714,-167,35.9202,6.84668,0,0,0,0,0,0,0,-1,1938,1191,35.9202,-6.84664
721,-167,36.2072,6.38892,0,0,0,0,0,0,0,-1,1945,1191,36.2072,-6.38891
728,-167,57.6855,8.99255,0,0,0,0,0,0,0,-1,1952,1191,57.6855,-8.99257
735,-167,59.7849,8.45337,0,0,0,0,0,0,0,-1,1959,1191,59.7849,-8.45333
742,-167,59.6814,7.79175,0.00282362,0.00110117,0.000853781,0.0031751,0.000749689,0.390528,0.00191636,0.0176798,1966,1191,59.6815,-7.79179
749,-167,59.6635,7.11499,0.0018386,0.00144236,0.00131509,0.00297041,0.000310553,0.710635,0.0018853,0.016173,1973,1191,59.6635,-7.11494
756,-167,59.6619,6.49219,0.000793802,0.00203036,0.00185998,0.00337213,-0.000547967,0.945859,0.00245124,0.0117634,1980,1191,59.6619,-6.4922
763,-167,59.5854,5.86963,-0.000178097,0.00261158,0.00246315,0.00404741,-0.00161393,1.04303,0.00336773,0.014278,1987,1191,59.5855,-5.86957
770,-167,59.3357,5.18298,0,0,0,0,0,0,0,-1,1994,1191,59.3357,-5.18292
777,-167,59.6836,4.60669,0,0,0,0,0,0,0,-1,2001,1191,59.6836,-4.60672
784,-167,60.0374,3.40417,0,0,0,0,0,0,0,-1,2008,1191,60.0374,-3.4042
791,-167,60.2642,2.76367,0,0,0,0,0,0,0,-1,2015,1191,60.2643,-2.76362
798,-167,60.7864,2.25244,0,0,0,0,0,0,0,-1,2022,1191,60.7863,-2.25238
805,-167,61.6555,1.76758,0,0,0,0,0,0,0,-1,2029,1191,61.6554,-1.7676
812,-167,0,0,0,0,0,0,0,0,0,-1,2036,1191,0,0
-700,-174,0,0,0,0,0,0,0,0,0,-1,524,1198,0,0
-693,-174,0,0,0,0,0,0,0,0,0,-1,531,1198,0,0
-686,-174,-42.5267,-7.91089,0,0,0,0,0,0,0,-1,538,1198,-42.5267,7.91089
-679,-174,-41.8286,-6.36621,0.18454,0.15845,-0.0512457,0.224375,0.118615,-0.660764,0.129614,0.0472029,545,1198,-41.8286,6.36624
-672,-174,-40.5992,-4.75977,0.148444,0.129412,-0.0460014,0.185903,0.0919526,-0.683406,0.107333,0.0480866,552,1198,-40.5991,4.75975
-665,-174,-39.2583,-3.146,0,0,0,0,0,0,0,-1,559,1198,-39.2583,3.146
-658,-174,-44.439,1.02576,0,0,0,0,0,0,0,-1,566,1198,-44.439,-1.02582
-651,-174,-43.441,1.66125,0,0,0,0,0,0,0,-1,573,1198,-43.441,-1.66129
-644,-174,-43.1558,2.56873,0.0476941,0.0433157,-0.0187875,0.0644195,0.0265902,-0.727398,0.0373808,0.0466021,580,1198,-43.1557,-2.56868
-637,-174,-42.8702,3.54773,0.0308705,0.0286457,-0.0130126,0.0428181,0.0166981,-0.742759,0.0249198,0.0275609,587,1198,-42.8702,-3.5477
-630,-174,-43.0517,4.19775,0.0171851,0.01686,-0.00866051,0.0256846,0.00836054,-0.776016,0.015127,0.0140389,594,1198,-43.0517,-4.19774
-623,-174,-43.087,4.87427,0.00655771,0.0078392,-0.00469927,0.0119412,0.00245571,-0.853155,0.0072816,0.0153896,601,1198,-43.087,-4.87433
-616,-174,-43.1102,5.58228,-0.000501705,0.00179475,-0.00230022,0.0032174,-0.00192436,-1.01689,0.00299972,0.0214224,608,1198,-43.1103,-5.58229
-609,-174,-43.1647,6.28455,-0.00354151,6.12724e-05,-0.00193531,0.000903826,-0.00438407,-1.16019,0.00326594,0.0230922,615,1198,-43.1647,-6.28459
-602,-174,-43.1919,6.96887,0,0,0,0,0,0,0,-1,622,1198,-43.1919,-6.96888
-595,-174,-42.4191,7.34253,0,0,0,0,0,0,0,-1,629,1198,-42.419,-7.34254
-588,-174,-43.5992,8.38086,0,0,0,0,0,0,0,-1,636,1198,-43.5992,-8.38087
-581,-174,-43.7563,9.12244,0,0,0,0,0,0,0,-1,643,1198,-43.7564,-9.12239
-574,-174,-31.7448,7.09595,0,0,0,0,0,0,0,-1,650,1198,-31.7448,-7.09599
-567,-174,-26.6597,3.04041,0,0,0,0,0,0,0,-1,657,1198,-26.6597,-3.04039
-560,-174,-42.6953,1.07178,0,0,0,0,0,0,0,-1,664,1198,-42.6953,-1.07181
-553,-174,-54.1824,0.557739,0,0,0,0,0,0,0,-1,671,1198,-54.1823,-0.557778
-546,-174,-54.1998,0.5979,0,0,0,0,0,0,0,-1,678,1198,-54.1998,-0.597858
-539,-174,-54.1578,0.461304,0,0,0,0,0,0,0,-1,685,1198,-54.1578,-0.461327
-532,-174,-53.8508,0.440674,0,0,0,0,0,0,0,-1,692,1198,-53.8508,-0.440637
-525,-174,-53.9373,0.519531,0,0,0,0,0,0,0,-1,699,1198,-53.9372,-0.519507
-518,-174,-54.177,0.705322,0,0,0,0,0,0,0,-1,706,1198,-54.177,-0.705352
-511,-174,0,0,0,0,0,0,0,0,0,-1,713,1198,0,0
-504,-174,0,0,0,0,0,0,0,0,0,-1,720,1198,0,0
-497,-174,0,0,0,0,0,0,0,0,0,-1,727,1198,0,0
-490,-174,0,0,0,0,0,0,0,0,0,-1,734,1198,0,0
-483,-174,0,0,0,0,0,0,0,0,0,-1,741,1198,0,0
-476,-174,0,0,0,0,0,0,0,0,0,-1,748,1198,0,0
-469,-174,0,0,0,0,0,0,0,0,0,-1,755,1198,0,0
-462,-174,0,0,0,0,0,0,0,0,0,-1,762,1198,0,0
-455,-174,0,0,0,0,0,0,0,0,0,-1,769,1198,0,0
-448,-174,0,0,0,0,0,0,0,0,0,-1,776,1198,0,0
-441,-174,0,0,0,0,0,0,0,0,0,-1,783,1198,0,0
-434,-174,0,0,0,0,0,0,0,0,0,-1,790,1198,0,0
-427,-174,0,0,0,0,0,0,0,0,0,-1,797,1198,0,0
-420,-174,0,0,0,0,0,0,0,0,0,-1,804,1198,0,0
-413,-174,0,0,0,0,0,0,0,0,0,-1,811,1198,0,0
-406,-174,0,0,0,0,0,0,0,0,0,-1,818,1198,0,0
-399,-174,0,0,0,0,0,0,0,0,0,-1,825,1198,0,0
-392,-174,0,0,0,0,0,0,0,0,0,-1,832,1198,0,0
-385,-174,0,0,0,0,0,0,0,0,0,-1,839,1198,0,0
-378,-174,0,0,0,0,0,0,0,0,0,-1,846,1198,0,0
-371,-174,0,0,0,0,0,0,0,0,0,-1,853,1198,0,0
-364,-174,0,0,0,0,0,0,0,0,0,-1,860,1198,0,0
-357,-174,0,0,0,0,0,0,0,0,0,-1,867,1198,0,0
-350,-174,0,0,0,0,0,0,0,0,0,-1,874,1198,0,0
-343,-174,0,0,0,0,0,0,0,0,0,-1,881,1198,0,0
-336,-174,0,0,0,0,0,0,0,0,0,-1,888,1198,0,0
-329,-174,0,0,0,0,0,0,0,0,0,-1,895,1198,0,0
-322,-174,0,0,0,0,0,0,0,0,0,-1,902,1198,0,0
-315,-174,0,0,0,0,0,0,0,0,0,-1,909,1198,0,0
-308,-174,0,0,0,0,0,0,0,0,0,-1,916,1198,0,0
-301,-174,0,0,0,0,0,0,0,0,0,-1,923,1198,0,0
-294,-174,0,0,0,0,0,0,0,0,0,-1,930,1198,0,0
-287,-174,0,0,0,0,0,0,0,0,0,-1,937,1198,0,0
-280,-174,0,0,0,0,0,0,0,0,0,-1,944,1198,0,0
-273,-174,0,0,0,0,0,0,0,0,0,-1,951,1198,0,0
-266,-174,0,0,0,0,0,0,0,0,0,-1,958,1198,0,0
-259,-174,0,0,0,0,0,0,0,0,0,-1,965,1198,0,0
-252,-174,0,0,0,0,0,0,0,0,0,-1,972,1198,0,0
-245,-174,0,0,0,0,0,0,0,0,0,-1,979,1198,0,0
-238,-174,0,0,0,0,0,0,0,0,0,-1,986,1198,0,0
-231,-174,0,0,0,0,0,0,0,0,0,-1,993,1198,0,0
-224,-174,0,0,0,0,0,0,0,0,0,-1,1000,1198,0,0
-217,-174,0,0,0,0,0,0,0,0,0,-1,1007,1198,0,0
-210,-174,0,0,0,0,0,0,0,0,0,-1,1014,1198,0,0
-203,-174,0,0,0,0,0,0,0,0,0,-1,1021,1198,0,0
-196,-174,0,0,0,0,0,0,0,0,0,-1,1028,1198,0,0
-189,-174,0,0,0,0,0,0,0,0,0,-1,1035,1198,0,0
-182,-174,0,0,0,0,0,0,0,0,0,-1,1042,1198,0,0
-175,-174,0,0,0,0,0,0,0,0,0,-1,1049,1198,0,0
-168,-174,0,0,0,0,0,0,0,0,0,-1,1056,1198,0,0
-161,-174,0,0,0,0,0,0,0,0,0,-1,1063,1198,0,0
-154,-174,0,0,0,0,0,0,0,0,0,-1,1070,1198,0,0
-147,-174,0,0,0,0,0,0,0,0,0,-1,1077,1198,0,0
-140,-174,0,0,0,0,0,0,0,0,0,-1,1084,1198,0,0
-133,-174,0,0,0,0,0,0,0,0,0,-1,1091,1198,0,0
-126,-174,0,0,0,0,0,0,0,0,0,-1,1098,1198,0,0
-119,-174,0,0,0,0,0,0,0,0,0,-1,1105,1198,0,0
-112,-174,0,0,0,0,0,0,0,0,0,-1,1112,1198,0,0
-105,-174,0,0,0,0,0,0,0,0,0,-1,1119,1198,0,0
-98,-174,0,0,0,0,0,0,0,0,0,-1,1126,1198,0,0
-91,-174,0,0,0,0,0,0,0,0,0,-1,1133,1198,0,0
-84,-174,0,0,0,0,0,0,0,0,0,-1,1140,1198,0,0
-77,-174,0,0,0,0,0,0,0,0,0,-1,1147,1198,0,0
-70,-174,0,0,0,0,0,0,0,0,0,-1,1154,1198,0,0
-63,-174,0,0,0,0,0,0,0,0,0,-1,1161,1198,0,0
-56,-174,0,0,0,0,0,0,0,0,0,-1,1168,1198,0,0
-49,-174,0,0,0,0,0,0,0,0,0,-1,1175,1198,0,0
-42,-174,0,0,0,0,0,0,0,0,0,-1,1182,1198,0,0
-35,-174,0,0,0,0,0,0,0,0,0,-1,1189,1198,0,0
-28,-174,0,0,0,0,0,0,0,0,0,-1,1196,1198,0,0
-21,-174,0,0,0,0,0,0,0,0,0,-1,1203,1198,0,0
-14,-174,0,0,0,0,0,0,0,0,0,-1,1210,1198,0,0
-7,-174,0,0,0,0,0,0,0,0,0,-1,1217,1198,0,0
0,-174,0,0,0,0,0,0,0,0,0,-1,1224,1198,0,0
7,-174,0,0,0,0,0,0,0,0,0,-1,1231,1198,0,0
14,-174,0,0,0,0,0,0,0,0,0,-1,1238,1198,0,0
21,-174,0,0,0,0,0,0,0,0,0,-1,1245,1198,0,0
28,-174,0,0,0,0,0,0,0,0,0,-1,1252,1198,0,0
35,-174,0,0,0,0,0,0,0,0,0,-1,1259,1198,0,0
42,-174,0,0,0,0,0,0,0,0,0,-1,1266,1198,0,0
49,-174,0,0,0,0,0,0,0,0,0,-1,1273,1198,0,0
56,-174,0,0,0,0,0,0,0,0,0,-1,1280,1198,0,0
63,-174,0,0,0,0,0,0,0,0,0,-1,1287,1198,0,0
70,-174,0,0,0,0,0,0,0,0,0,-1,1294,1198,0,0
77,-174,0,0,0,0,0,0,0,0,0,-1,1301,1198,0,0
84,-174,0,0,0,0,0,0,0,0,0,-1,1308,1198,0,0
91,-174,0,0,0,0,0,0,0,0,0,-1,1315,1198,0,0
98,-174,0,0,0,0,0,0,0,0,0,-1,1322,1198,0,0
105,-174,0,0,0,0,0,0,0,0,0,-1,1329,1198,0,0
112,-174,0,0,0,0,0,0,0,0,0,-1,1336,1198,0,0
119,-174,0,0,0,0,0,0,0,0,0,-1,1343,1198,0,0
126,-174,0,0,0,0,0,0,0,0,0,-1,1350,1198,0,0
133,-174,0,0,0,0,0,0,0,0,0,-1,1357,1198,0,0
140,-174,0,0,0,0,0,0,0,0,0,-1,1364,1198,0,0
147,-174,0,0,0,0,0,0,0,0,0,-1,1371,1198,0,0
154,-174,0,0,0,0,0,0,0,0,0,-1,1378,1198,0,0
161,-174,0,0,0,0,0,0,0,0,0,-1,1385,1198,0,0
168,-174,0,0,0,0,0,0,0,0,0,-1,1392,1198,0,0
175,-174,0,0,0,0,0,0,0,0,0,-1,1399,1198,0,0
182,-174,0,0,0,0,0,0,0,0,0,-1,1406,1198,0,0
189,-174,0,0,0,0,0,0,0,0,0,-1,1413,1198,0,0
196,-174,0,0,0,0,0,0,0,0,0,-1,1420,1198,0,0
203,-174,0,0,0,0,0,0,0,0,0,-1,1427,1198,0,0
210,-174,0,0,0,0,0,0,0,0,0,-1,1434,1198,0,0
217,-174,0,0,0,0,0,0,0,0,0,-1,1441,1198,0,0
224,-174,0,0,0,0,0,0,0,0,0,-1,1448,1198,0,0
231,-174,0,0,0,0,0,0,0,0,0,-1,1455,1198,0,0
238,-174,0,0,0,0,0,0,0,0,0,-1,1462,1198,0,0
245,-174,0,0,0,0,0,0,0,0,0,-1,1469,1198,0,0
252,-174,0,0,0,0,0,0,0,0,0,-1,1476,1198,0,0
259,-174,0,0,0,0,0,0,0,0,0,-1,1483,1198,0,0
266,-174,0,0,0,0,0,0,0,0,0,-1,1490,1198,0,0
273,-174,0,0,0,0,0,0,0,0,0,-1,1497,1198,0,0
280,-174,0,0,0,0,0,0,0,0,0,-1,1504,1198,0,0
287,-174,0,0,0,0,0,0,0,0,0,-1,1511,1198,0,0
294,-174,0,0,0,0,0,0,0,0,0,-1,1518,1198,0,0
301,-174,0,0,0,0,0,0,0,0,0,-1,1525,1198,0,0
308,-174,0,0,0,0,0,0,0,0,0,-1,1532,1198,0,0
315,-174,0,0,0,0,0,0,0,0,0,-1,1539,1198,0,0
322,-174,0,0,0,0,0,0,0,0,0,-1,1546,1198,0,0
329,-174,0,0,0,0,0,0,0,0,0,-1,1553,1198,0,0
336,-174,0,0,0,0,0,0,0,0,0,-1,1560,1198,0,0
343,-174,0,0,0,0,0,0,0,0,0,-1,1567,1198,0,0
350,-174,0,0,0,0,0,0,0,0,0,-1,1574,1198,0,0
357,-174,0,0,0,0,0,0,0,0,0,-1,1581,1198,0,0
364,-174,0,0,0,0,0,0,0,0,0,-1,1588,1198,0,0
371,-174,0,0,0,0,0,0,0,0,0,-1,1595,1198,0,0
378,-174,0,0,0,0,0,0,0,0,0,-1,1602,1198,0,0
385,-174,0,0,0,0,0,0,0,0,0,-1,1609,1198,0,0
392,-174,0,0,0,0,0,0,0,0,0,-1,1616,1198,0,0
399,-174,0,0,0,0,0,0,0,0,0,-1,1623,1198,0,0
406,-174,0,0,0,0,0,0,0,0,0,-1,1630,1198,0,0
413,-174,0,0,0,0,0,0,0,0,0,-1,1637,1198,0,0
420,-174,0,0,0,0,0,0,0,0,0,-1,1644,1198,0,0
427,-174,0,0,0,0,0,0,0,0,0,-1,1651,1198,0,0
434,-174,0,0,0,0,0,0,0,0,0,-1,1658,1198,0,0
441,-174,0,0,0,0,0,0,0,0,0,-1,1665,1198,0,0
448,-174,0,0,0,0,0,0,0,0,0,-1,1672,1198,0,0
455,-174,0,0,0,0,0,0,0,0,0,-1,1679,1198,0,0
462,-174,0,0,0,0,0,0,0,0,0,-1,1686,1198,0,0
469,-174,0,0,0,0,0,0,0,0,0,-1,1693,1198,0,0
476,-174,0,0,0,0,0,0,0,0,0,-1,1700,1198,0,0
483,-174,0,0,0,0,0,0,0,0,0,-1,1707,1198,0,0
490,-174,0,0,0,0,0,0,0,0,0,-1,1714,1198,0,0
497,-174,0,0,0,0,0,0,0,0,0,-1,1721,1198,0,0
504,-174,0,0,0,0,0,0,0,0,0,-1,1728,1198,0,0
511,-174,0,0,0,0,0,0,0,0,0,-1,1735,1198,0,0
518,-174,0,0,0,0,0,0,0,0,0,-1,1742,1198,0,0
525,-174,0,0,0,0,0,0,0,0,0,-1,1749,1198,0,0
532,-174,0,0,0,0,0,0,0,0,0,-1,1756,1198,0,0
539,-174,0,0,0,0,0,0,0,0,0,-1,1763,1198,0,0
546,-174,0,0,0,0,0,0,0,0,0,-1,1770,1198,0,0
553,-174,0,0,0,0,0,0,0,0,0,-1,1777,1198,0,0
560,-174,0,0,0,0,0,0,0,0,0,-1,1784,1198,0,0
567,-174,0,0,0,0,0,0,0,0,0,-1,1791,1198,0,0
574,-174,0,0,0,0,0,0,0,0,0,-1,1798,1198,0,0
581,-174,0,0,0,0,0,0,0,0,0,-1,1805,1198,0,0
588,-174,0,0,0,0,0,0,0,0,0,-1,1812,1198,0,0
595,-174,0,0,0,0,0,0,0,0,0,-1,1819,1198,0,0
602,-174,0,0,0,0,0,0,0,0,0,-1,1826,1198,0,0
609,-174,0,0,0,0,0,0,0,0,0,-1,1833,1198,0,0
616,-174,0,0,0,0,0,0,0,0,0,-1,1840,1198,0,0
623,-174,0,0,0,0,0,0,0,0,0,-1,1847,1198,0,0
630,-174,0,0,0,0,0,0,0,0,0,-1,1854,1198,0,0
637,-174,70.5822,2.18103,0.00170172,-0.00171699,0.00063997,0.00181759,-0.00183286,0.179119,0.00210759,0.0404546,1861,1198,70.5821,-2.18107
644,-174,70.6604,2.31506,0.00158883,-0.000716742,0.000288912,0.00162449,-0.000752395,0.122781,0.00140274,0.0412556,1868,1198,70.6604,-2.31512
651,-174,70.9094,2.37549,0.00149097,0.000302098,-0.000254057,0.00154298,0.000250083,-0.201947,0.000956259,0.0408838,1875,1198,70.9094,-2.37544
658,-174,70.7635,2.39868,0.00129886,0.00124015,-0.000816811,0.00208684,0.000452164,-0.767438,0.00126768,0.0389627,1882,1198,70.7635,-2.3987
665,-174,70.8422,2.35706,0.0010448,0.00194966,-0.00120652,0.00278579,0.000208676,-0.964779,0.00179169,0.0355334,1889,1198,70.8422,-2.3571
672,-174,70.8545,2.18958,0.00105453,0.00227604,-0.00148523,0.00327119,5.93757e-05,-0.980469,0.00216127,0.028942,1896,1198,70.8545,-2.18953
679,-174,70.8616,2.16687,0.00132779,0.00220099,-0.00151711,0.00334307,0.000185701,-0.925503,0.00216947,0.0239599,1903,1198,70.8616,-2.16686
686,-174,70.8163,1.96997,0,0,0,0,0,0,0,-1,1910,1198,70.8162,-1.96999
693,-174,51.1324,2.57349,0,0,0,0,0,0,0,-1,1917,1198,51.1325,-2.57343
700,-174,25.4004,6.11792,0,0,0,0,0,0,0,-1,1924,1198,25.4004,-6.11797
707,-174,34.7908,7.34473,0,0,0,0,0,0,0,-1,1931,1198,34.7908,-7.34475
714,-174,40.1135,7.79871,0,0,0,0,0,0,0,-1,1938,1198,40.1135,-7.79875
721,-174,40.8693,7.59863,0,0,0,0,0,0,0,-1,1945,1198,40.8693,-7.59859
728,-174,58.858,9.08765,0,0,0,0,0,0,0,-1,1952,1198,58.8581,-9.08767
735,-174,58.9703,8.48572,0.00285911,0.00139149,0.000327141,0.00292873,0.00132187,0.209683,0.00169357,0.0225061,1959,1198,58.9703,-8.48568
742,-174,59.025,7.79492,0.0026476,0.00129035,0.000765159,0.00299171,0.000946233,0.422632,0.0017657,0.0222005,1966,1198,59.025,-7.79495
749,-174,59.0272,7.14526,0.00182052,0.00156141,0.00131784,0.00301516,0.000366768,0.7364,0.00189969,0.0193669,1973,1198,59.0273,-7.14521
756,-174,58.9991,6.50525,0.00100446,0.00197634,0.00200885,0.00355719,-0.000576388,0.904069,0.0025851,0.0114606,1980,1198,58.9991,-6.50523
763,-174,58.9551,5.88379,0.000232826,0.00237092,0.00281827,0.00431609,-0.00171234,0.966677,0.0035871,0.0171702,1987,1198,58.9551,-5.88385
770,-174,59.167,5.18579,0,0,0,0,0,0,0,-1,1994,1198,59.167,-5.1858
777,-174,59.6396,4.34302,0,0,0,0,0,0,0,-1,2001,1198,59.6395,-4.343
784,-174,67.8457,-0.896606,0,0,0,0,0,0,0,-1,2008,1198,67.8456,0.896657
791,-174,59.8242,2.32861,0,0,0,0,0,0,0,-1,2015,1198,59.8243,-2.32855
798,-174,61.8975,4.00464,0,0,0,0,0,0,0,-1,2022,1198,61.8976,-4.00459
805,-174,61.3882,1.10266,0,0,0,0,0,0,0,-1,2029,1198,61.3881,-1.10262
812,-174,0,0,0,0,0,0,0,0,0,-1,2036,1198,0,0
-700,-181,0,0,0,0,0,0,0,0,0,-1,524,1205,0,0
-693,-181,0,0,0,0,0,0,0,0,0,-1,531,1205,0,0
-686,-181,-40.1406,-8.64819,0,0,0,0,0,0,0,-1,538,1205,-40.1406,8.64822
-679,-181,-39.9404,-6.75781,0,0,0,0,0,0,0,-1,545,1205,-39.9404,6.75782
-672,-181,-38.7238,-5.61853,0,0,0,0,0,0,0,-1,552,1205,-38.7237,5.61851
-665,-181,-43.6268,0.0943604,0.126273,0.0926705,-0.0400289,0.152884,0.0660599,-0.586699,0.0885385,0.0468652,559,1205,-43.6268,-0.0943306
-658,-181,-42.9443,0.938354,0.0971376,0.072293,-0.0325843,0.119587,0.0498434,-0.603285,0.0693617,0.0463039,566,1205,-42.9443,-0.938353
-651,-181,-42.9662,1.34192,0,0,0,0,0,0,0,-1,573,1205,-42.9662,-1.34186
-644,-181,-42.6326,2.39832,0,0,0,0,0,0,0,-1,580,1205,-42.6327,-2.39829
-637,-181,-42.2991,3.45471,0,0,0,0,0,0,0,-1,587,1205,-42.2991,-3.45473
-630,-181,-42.3622,4.23083,0.0197392,0.0158648,-0.00888765,0.0268983,0.0087057,-0.678094,0.0158485,0.0139715,594,1205,-42.3622,-4.23086
-623,-181,-42.4219,4.89941,0.00877144,0.00806626,-0.00497122,0.0134026,0.00343514,-0.749994,0.00803849,0.0160969,601,1205,-42.4219,-4.89938
-616,-181,-42.4239,5.59412,0.00129382,0.00230828,-0.00241438,0.00426813,-0.000666034,-0.888937,0.00309144,0.0156803,608,1205,-42.4239,-5.59414
-609,-181,-42.433,6.31982,-0.0020113,0.000563045,-0.00161282,0.00133937,-0.00278762,-1.12218,0.00243113,0.0145291,615,1205,-42.4331,-6.31985
-602,-181,-42.4098,7.05334,-0.00262945,8.5209e-05,-0.00268319,0.00173485,-0.00427908,-1.01956,0.00357422,0.0262395,622,1205,-42.4098,-7.0534
-595,-181,-42.1904,7.7771,0,0,0,0,0,0,0,-1,629,1205,-42.1904,-7.77708
-588,-181,-42.87,8.3772,-0.00243142,-0.00131184,-0.00455417,0.00271682,-0.00646007,-0.846551,0.00544322,0.0394781,636,1205,-42.87,-8.37719
-581,-181,-42.9662,9.04932,-0.00191189,-0.00156345,-0.00640807,0.00467277,-0.0081481,-0.798989,0.00749223,0.0449043,643,1205,-42.9662,-9.04927
-574,-181,-42.3109,9.68738,0,0,0,0,0,0,0,-1,650,1205,-42.3109,-9.68733
-567,-181,-25.8839,3.34485,0,0,0,0,0,0,0,-1,657,1205,-25.8839,-3.3449
-560,-181,-31.7396,1.63306,0,0,0,0,0,0,0,-1,664,1205,-31.7396,-1.63303
-553,-181,-54.2004,0.67334,0,0,0,0,0,0,0,-1,671,1205,-54.2005,-0.673283
-546,-181,-54.2076,0.611084,0,0,0,0,0,0,0,-1,678,1205,-54.2076,-0.611091
-539,-181,-54.2061,0.595581,0,0,0,0,0,0,0,-1,685,1205,-54.2061,-0.595639
-532,-181,-53.9179,0.601074,0,0,0,0,0,0,0,-1,692,1205,-53.9179,-0.601096
-525,-181,-54.0107,0.417603,0,0,0,0,0,0,0,-1,699,1205,-54.0107,-0.41757
-518,-181,-54.168,0.518799,0,0,0,0,0,0,0,-1,706,1205,-54.168,-0.518805
-511,-181,0,0,0,0,0,0,0,0,0,-1,713,1205,0,0
-504,-181,0,0,0,0,0,0,0,0,0,-1,720,1205,0,0
-497,-181,0,0,0,0,0,0,0,0,0,-1,727,1205,0,0
-490,-181,0,0,0,0,0,0,0,0,0,-1,734,1205,0,0
-483,-181,0,0,0,0,0,0,0,0,0,-1,741,1205,0,0
-476,-181,0,0,0,0,0,0,0,0,0,-1,748,1205,0,0
-469,-181,0,0,0,0,0,0,0,0,0,-1,755,1205,0,0
-462,-181,0,0,0,0,0,0,0,0,0,-1,762,1205,0,0
-455,-181,0,0,0,0,0,0,0,0,0,-1,769,1205,0,0
-448,-181,0,0,0,0,0,0,0,0,0,-1,776,1205,0,0
-441,-181,0,0,0,0,0,0,0,0,0,-1,783,1205,0,0
-434,-181,0,0,0,0,0,0,0,0,0,-1,790,1205,0,0
-427,-181,0,0,0,0,0,0,0,0,0,-1,797,1205,0,0
-420,-181,0,0,0,0,0,0,0,0,0,-1,804,1205,0,0
-413,-181,0,0,0,0,0,0,0,0,0,-1,811,1205,0,0
-406,-181,0,0,0,0,0,0,0,0,0,-1,818,1205,0,0
-399,-181,0,0,0,0,0,0,0,0,0,-1,825,1205,0,0
-392,-181,0,0,0,0,0,0,0,0,0,-1,832,1205,0,0
-385,-181,0,0,0,0,0,0,0,0,0,-1,839,1205,0,0
-378,-181,0,0,0,0,0,0,0,0,0,-1,846,1205,0,0
-371,-181,0,0,0,0,0,0,0,0,0,-1,853,1205,0,0
-364,-181,0,0,0,0,0,0,0,0,0,-1,860,1205,0,0
-357,-181,0,0,0,0,0,0,0,0,0,-1,867,1205,0,0
-350,-181,0,0,0,0,0,0,0,0,0,-1,874,1205,0,0
-343,-181,0,0,0,0,0,0,0,0,0,-1,881,1205,0,0
-336,-181,0,0,0,0,0,0,0,0,0,-1,888,1205,0,0
-329,-181,0,0,0,0,0,0,0,0,0,-1,895,1205,0,0
-322,-181,0,0,0,0,0,0,0,0,0,-1,902,1205,0,0
-315,-181,0,0,0,0,0,0,0,0,0,-1,909,1205,0,0
-308,-181,0,0,0,0,0,0,0,0,0,-1,916,1205,0,0
-301,-181,0,0,0,0,0,0,0,0,0,-1,923,1205,0,0
-294,-181,0,0,0,0,0,0,0,0,0,-1,930,1205,0,0
-287,-181,0,0,0,0,0,0,0,0,0,-1,937,1205,0,0
-280,-181,0,0,0,0,0,0,0,0,0,-1,944,1205,0,0
-273,-181,0,0,0,0,0,0,0,0,0,-1,951,1205,0,0
-266,-181,0,0,0,0,0,0,0,0,0,-1,958,1205,0,0
-259,-181,0,0,0,0,0,0,0,0,0,-1,965,1205,0,0
-252,-181,0,0,0,0,0,0,0,0,0,-1,972,1205,0,0
-245,-181,0,0,0,0,0,0,0,0,0,-1,979,1205,0,0
-238,-181,0,0,0,0,0,0,0,0,0,-1,986,1205,0,0
-231,-181,0,0,0,0,0,0,0,0,0,-1,993,1205,0,0
-224,-181,0,0,0,0,0,0,0,0,0,-1,1000,1205,0,0
-217,-181,0,0,0,0,0,0,0,0,0,-1,1007,1205,0,0
-210,-181,0,0,0,0,0,0,0,0,0,-1,1014,1205,0,0
-203,-181,0,0,0,0,0,0,0,0,0,-1,1021,1205,0,0
-196,-181,0,0,0,0,0,0,0,0,0,-1,1028,1205,0,0
-189,-181,0,0,0,0,0,0,0,0,0,-1,1035,1205,0,0
-182,-181,0,0,0,0,0,0,0,0,0,-1,1042,1205,0,0
-175,-181,0,0,0,0,0,0,0,0,0,-1,1049,1205,0,0
-168,-181,0,0,0,0,0,0,0,0,0,-1,1056,1205,0,0
-161,-181,0,0,0,0,0,0,0,0,0,-1,1063,1205,0,0
-154,-181,0,0,0,0,0,0,0,0,0,-1,1070,1205,0,0
-147,-181,0,0,0,0,0,0,0,0,0,-1,1077,1205,0,0
-140,-181,0,0,0,0,0,0,0,0,0,-1,1084,1205,0,0
-133,-181,0,0,0,0,0,0,0,0,0,-1,1091,1205,0,0
-126,-181,0,0,0,0,0,0,0,0,0,-1,1098,1205,0,0
-119,-181,0,0,0,0,0,0,0,0,0,-1,1105,1205,0,0
-112,-181,0,0,0,0,0,0,0,0,0,-1,1112,1205,0,0
-105,-181,0,0,0,0,0,0,0,0,0,-1,1119,1205,0,0
-98,-181,0,0,0,0,0,0,0,0,0,-1,1126,1205,0,0
-91,-181,0,0,0,0,0,0,0,0,0,-1,1133,1205,0,0
-84,-181,0,0,0,0,0,0,0,0,0,-1,1140,1205,0,0
-77,-181,0,0,0,0,0,0,0,0,0,-1,1147,1205,0,0
-70,-181,0,0,0,0,0,0,0,0,0,-1,1154,1205,0,0
-63,-181,0,0,0,0,0,0,0,0,0,-1,1161,1205,0,0
-56,-181,0,0,0,0,0,0,0,0,0,-1,1168,1205,0,0
-49,-181,0,0,0,0,0,0,0,0,0,-1,1175,1205,0,0
-42,-181,0,0,0,0,0,0,0,0,0,-1,1182,1205,0,0
-35,-181,0,0,0,0,0,0,0,0,0,-1,1189,1205,0,0
-28,-181,0,0,0,0,0,0,0,0,0,-1,1196,1205,0,0
-21,-181,0,0,0,0,0,0,0,0,0,-1,1203,1205,0,0
-14,-181,0,0,0,0,0,0,0,0,0,-1,1210,1205,0,0
-7,-181,0,0,0,0,0,0,0,0,0,-1,1217,1205,0,0
0,-181,0,0,0,0,0,0,0,0,0,-1,1224,1205,0,0
7,-181,0,0,0,0,0,0,0,0,0,-1,1231,1205,0,0
14,-181,0,0,0,0,0,0,0,0,0,-1,1238,1205,0,0
21,-181,0,0,0,0,0,0,0,0,0,-1,1245,1205,0,0
28,-181,0,0,0,0,0,0,0,0,0,-1,1252,1205,0,0
35,-181,0,0,0,0,0,0,0,0,0,-1,1259,1205,0,0
42,-181,0,0,0,0,0,0,0,0,0,-1,1266,1205,0,0
49,-181,0,0,0,0,0,0,0,0,0,-1,1273,1205,0,0
56,-181,0,0,0,0,0,0,0,0,0,-1,1280,1205,0,0
63,-181,0,0,0,0,0,0,0,0,0,-1,1287,1205,0,0
70,-181,0,0,0,0,0,0,0,0,0,-1,1294,1205,0,0
77,-181,0,0,0,0,0,0,0,0,0,-1,1301,1205,0,0
84,-181,0,0,0,0,0,0,0,0,0,-1,1308,1205,0,0
91,-181,0,0,0,0,0,0,0,0,0,-1,1315,1205,0,0
98,-181,0,0,0,0,0,0,0,0,0,-1,1322,1205,0,0
105,-181,0,0,0,0,0,0,0,0,0,-1,1329,1205,0,0
112,-181,0,0,0,0,0,0,0,0,0,-1,1336,1205,0,0
119,-181,0,0,0,0,0,0,0,0,0,-1,1343,1205,0,0
126,-181,0,0,0,0,0,0,0,0,0,-1,1350,1205,0,0
133,-181,0,0,0,0,0,0,0,0,0,-1,1357,1205,0,0
140,-181,0,0,0,0,0,0,0,0,0,-1,1364,1205,0,0
147,-181,0,0,0,0,0,0,0,0,0,-1,1371,1205,0,0
154,-181,0,0,0,0,0,0,0,0,0,-1,1378,1205,0,0
161,-181,0,0,0,0,0,0,0,0,0,-1,1385,1205,0,0
168,-181,0,0,0,0,0,0,0,0,0,-1,1392,1205,0,0
175,-181,0,0,0,0,0,0,0,0,0,-1,1399,1205,0,0
182,-181,0,0,0,0,0,0,0,0,0,-1,1406,1205,0,0
189,-181,0,0,0,0,0,0,0,0,0,-1,1413,1205,0,0
196,-181,0,0,0,0,0,0,0,0,0,-1,1420,1205,0,0
203,-181,0,0,0,0,0,0,0,0,0,-1,1427,1205,0,0
210,-181,0,0,0,0,0,0,0,0,0,-1,1434,1205,0,0
217,-181,0,0,0,0,0,0,0,0,0,-1,1441,1205,0,0
224,-181,0,0,0,0,0,0,0,0,0,-1,1448,1205,0,0
231,-181,0,0,0,0,0,0,0,0,0,-1,1455,1205,0,0
238,-181,0,0,0,0,0,0,0,0,0,-1,1462,1205,0,0
245,-181,0,0,0,0,0,0,0,0,0,-1,1469,1205,0,0
252,-181,0,0,0,0,0,0,0,0,0,-1,1476,1205,0,0
259,-181,0,0,0,0,0,0,0,0,0,-1,1483,1205,0,0
266,-181,0,0,0,0,0,0,0,0,0,-1,1490,1205,0,0
273,-181,0,0,0,0,0,0,0,0,0,-1,1497,1205,0,0
280,-181,0,0,0,0,0,0,0,0,0,-1,1504,1205,0,0
287,-181,0,0,0,0,0,0,0,0,0,-1,1511,1205,0,0
294,-181,0,0,0,0,0,0,0,0,0,-1,1518,1205,0,0
301,-181,0,0,0,0,0,0,0,0,0,-1,1525,1205,0,0
308,-181,0,0,0,0,0,0,0,0,0,-1,1532,1205,0,0
315,-181,0,0,0,0,0,0,0,0,0,-1,1539,1205,0,0
322,-181,0,0,0,0,0,0,0,0,0,-1,1546,1205,0,0
329,-181,0,0,0,0,0,0,0,0,0,-1,1553,1205,0,0
336,-181,0,0,0,0,0,0,0,0,0,-1,1560,1205,0,0
343,-181,0,0,0,0,0,0,0,0,0,-1,1567,1205,0,0
350,-181,0,0,0,0,0,0,0,0,0,-1,1574,1205,0,0
357,-181,0,0,0,0,0,0,0,0,0,-1,1581,1205,0,0
364,-181,0,0,0,0,0,0,0,0,0,-1,1588,1205,0,0
371,-181,0,0,0,0,0,0,0,0,0,-1,1595,1205,0,0
378,-181,0,0,0,0,0,0,0,0,0,-1,1602,1205,0,0
385,-181,0,0,0,0,0,0,0,0,0,-1,1609,1205,0,0
392,-181,0,0,0,0,0,0,0,0,0,-1,1616,1205,0,0
399,-181,0,0,0,0,0,0,0,0,0,-1,1623,1205,0,0
406,-181,0,0,0,0,0,0,0,0,0,-1,1630,1205,0,0
413,-181,0,0,0,0,0,0,0,0,0,-1,1637,1205,0,0
420,-181,0,0,0,0,0,0,0,0,0,-1,1644,1205,0,0
427,-181,0,0,0,0,0,0,0,0,0,-1,1651,1205,0,0
434,-181,0,0,0,0,0,0,0,0,0,-1,1658,1205,0,0
441,-181,0,0,0,0,0,0,0,0,0,-1,1665,1205,0,0
448,-181,0,0,0,0,0,0,0,0,0,-1,1672,1205,0,0
455,-181,0,0,0,0,0,0,0,0,0,-1,1679,1205,0,0
462,-181,0,0,0,0,0,0,0,0,0,-1,1686,1205,0,0
469,-181,0,0,0,0,0,0,0,0,0,-1,1693,1205,0,0
476,-181,0,0,0,0,0,0,0,0,0,-1,1700,1205,0,0
483,-181,0,0,0,0,0,0,0,0,0,-1,1707,1205,0,0
490,-181,0,0,0,0,0,0,0,0,0,-1,1714,1205,0,0
497,-181,0,0,0,0,0,0,0,0,0,-1,1721,1205,0,0
504,-181,0,0,0,0,0,0,0,0,0,-1,1728,1205,0,0
511,-181,0,0,0,0,0,0,0,0,0,-1,1735,1205,0,0
518,-181,0,0,0,0,0,0,0,0,0,-1,1742,1205,0,0
525,-181,0,0,0,0,0,0,0,0,0,-1,1749,1205,0,0
532,-181,0,0,0,0,0,0,0,0,0,-1,1756,1205,0,0
539,-181,0,0,0,0,0,0,0,0,0,-1,1763,1205,0,0
546,-181,0,0,0,0,0,0,0,0,0,-1,1770,1205,0,0
553,-181,0,0,0,0,0,0,0,0,0,-1,1777,1205,0,0
560,-181,0,0,0,0,0,0,0,0,0,-1,1784,1205,0,0
567,-181,0,0,0,0,0,0,0,0,0,-1,1791,1205,0,0
574,-181,0,0,0,0,0,0,0,0,0,-1,1798,1205,0,0
581,-181,0,0,0,0,0,0,0,0,0,-1,1805,1205,0,0
588,-181,0,0,0,0,0,0,0,0,0,-1,1812,1205,0,0
595,-181,0,0,0,0,0,0,0,0,0,-1,1819,1205,0,0
602,-181,0,0,0,0,0,0,0,0,0,-1,1826,1205,0,0
609,-181,0,0,0,0,0,0,0,0,0,-1,1833,1205,0,0
616,-181,0,0,0,0,0,0,0,0,0,-1,1840,1205,0,0
623,-181,0,0,0,0,0,0,0,0,0,-1,1847,1205,0,0
630,-181,70.9133,2.32397,0.00196421,-0.00279784,7.36673e-05,0.00196535,-0.00279898,0.0154647,0.00276469,0.0362338,1854,1205,70.9134,-2.32403
637,-181,70.7593,2.18896,0.00203648,-0.00183785,3.06571e-05,0.00203672,-0.00183809,0.00791224,0.0022381,0.037402,1861,1205,70.7592,-2.18895
644,-181,70.7167,2.23132,0.00189774,-0.00070597,-0.000307627,0.00193359,-0.000741822,-0.116022,0.00159492,0.0420011,1868,1205,70.7166,-2.23136
651,-181,71.058,2.35779,0.00173242,0.00050902,-0.000849729,0.00216773,7.37174e-05,-0.473426,0.00142122,0.0402373,1875,1205,71.058,-2.35776
658,-181,70.8716,2.35193,0.00142811,0.00157417,-0.00131546,0.00281863,0.000183657,-0.813128,0.00182096,0.0358296,1882,1205,70.8716,-2.35189
665,-181,70.8521,2.3241,0.00106702,0.00221244,-0.00149256,0.0032384,4.10635e-05,-0.968591,0.00214538,0.0340297,1889,1205,70.8521,-2.32415
672,-181,70.8293,2.22278,0.0010577,0.00232342,-0.00155892,0.00337304,8.07713e-06,-0.978216,0.00224601,0.0258106,1896,1205,70.8294,-2.22278
679,-181,70.8971,2.18872,0.00127852,0.00210298,-0.00148226,0.00322927,0.000152228,-0.921025,0.00210394,0.0336465,1903,1205,70.8971,-2.1887
686,-181,70.9604,2.0946,0,0,0,0,0,0,0,-1,1910,1205,70.9604,-2.09465
693,-181,36.1301,2.91016,0,0,0,0,0,0,0,-1,1917,1205,36.1302,-2.9102
700,-181,29.5845,6.58398,0,0,0,0,0,0,0,-1,1924,1205,29.5844,-6.58395
707,-181,55.4949,10.6722,0,0,0,0,0,0,0,-1,1931,1205,55.4949,-10.6722
714,-181,55.6268,10.3521,0,0,0,0,0,0,0,-1,1938,1205,55.6268,-10.3521
721,-181,51.2217,9.59631,0,0,0,0,0,0,0,-1,1945,1205,51.2217,-9.59637
728,-181,58.4351,9.10657,0,0,0,0,0,0,0,-1,1952,1205,58.4351,-9.10658
735,-181,58.4414,8.45764,0.00262016,0.00133534,0.000226359,0.00265888,0.00129662,0.169386,0.00153526,0.0157901,1959,1205,58.4414,-8.45762
742,-181,58.4095,7.83472,0.00241976,0.00127158,0.000705495,0.00275523,0.000936112,0.443867,0.00161774,0.0182974,1966,1205,58.4095,-7.83477
749,-181,58.3619,7.15662,0.00177352,0.00150729,0.00136638,0.00301326,0.00026755,0.736841,0.00192586,0.0165574,1973,1205,58.3619,-7.15664
756,-181,58.3433,6.49414,0.00117466,0.00183709,0.00219292,0.00372367,-0.000711912,0.860351,0.00275063,0.0121581,1980,1205,58.3432,-6.4942
763,-181,58.3605,5.8623,0.000593548,0.00211759,0.00321893,0.00466347,-0.00195233,0.901624,0.00392508,0.0179087,1987,1205,58.3605,-5.86232
770,-181,58.8826,4.49792,0,0,0,0,0,0,0,-1,1994,1205,58.8827,-4.49787
777,-181,68.1692,-1.57874,0,0,0,0,0,0,0,-1,2001,1205,68.1692,1.57871
784,-181,67.5371,-0.476318,0,0,0,0,0,0,0,-1,2008,1205,67.537,0.476299
791,-181,66.29,1.57324,0,0,0,0,0,0,0,-1,2015,1205,66.29,-1.5732
798,-181,61.2429,4.45374,0,0,0,0,0,0,0,-1,2022,1205,61.243,-4.45375
805,-181,0,0,0,0,0,0,0,0,0,-1,2029,1205,0,0
812,-181,0,0,0,0,0,0,0,0,0,-1,2036,1205,0,0
-700,-188,0,0,0,0,0,0,0,0,0,-1,524,1212,0,0
-693,-188,0,0,0,0,0,0,0,0,0,-1,531,1212,0,0
-686,-188,0,0,0,0,0,0,0,0,0,-1,538,1212,0,0
-679,-188,-38.2949,-7.01208,0,0,0,0,0,0,0,-1,545,1212,-38.2949,7.01206
-672,-188,-42.6551,-0.922974,0,0,0,0,0,0,0,-1,552,1212,-42.6551,0.923003
-665,-188,-41.9689,0.0760498,0.134875,0.0818151,-0.0409524,0.15714,0.0595502,-0.497977,0.0916064,0.0484569,559,1212,-41.9689,-0.0760043
-658,-188,-41.267,1.08643,0.10343,0.063802,-0.0327761,0.121916,0.0453164,-0.513526,0.0711564,0.0493284,566,1212,-41.267,-1.08645
-651,-188,-42.1852,1.76379,0,0,0,0,0,0,0,-1,573,1212,-42.1852,-1.76379
-644,-188,-41.9425,2.66333,0.0553413,0.0343898,-0.0190285,0.0665871,0.023144,-0.533773,0.039035,0.0473294,580,1212,-41.9425,-2.66333
-637,-188,-41.6804,3.56531,0.0365894,0.0228716,-0.0130693,0.0444902,0.0149707,-0.543748,0.0261402,0.0242953,587,1212,-41.6803,-3.56527
-630,-188,-41.6735,4.27966,0.0218731,0.0138877,-0.00865931,0.0274159,0.00834492,-0.56938,0.0162273,0.0107488,594,1212,-41.6735,-4.27969
-623,-188,-41.7066,4.96448,0.0106534,0.00738987,-0.00502079,0.0143009,0.00374235,-0.628281,0.00856357,0.0115549,601,1212,-41.7066,-4.9645
-616,-188,-41.7036,5.63843,0.00287802,0.00219108,-0.00257379,0.00513116,-6.20633e-05,-0.719066,0.00344165,0.0114263,608,1212,-41.7035,-5.63839
-609,-188,-41.7147,6.35205,-0.000720268,0.000737576,-0.00160703,0.00177327,-0.00175597,-0.998313,0.00203762,0.0139489,615,1212,-41.7147,-6.35208
-602,-188,-41.6817,7.10974,-0.0017274,0.000345643,-0.00223892,0.00177634,-0.00315809,-1.00219,0.00288589,0.0246406,622,1212,-41.6817,-7.10977
-595,-188,-41.6356,8.04932,0,0,0,0,0,0,0,-1,629,1212,-41.6356,-8.04927
-588,-188,-42.1255,8.46338,-0.00187423,-0.000584406,-0.00387012,0.00269417,-0.00515281,-0.867959,0.00460399,0.0287951,636,1212,-42.1256,-8.46332
-581,-188,-42.1412,9.10547,-0.00157583,-0.000708631,-0.00531424,0.00418967,-0.00647413,-0.826104,0.00620366,0.0302686,643,1212,-42.1412,-9.10541
-574,-188,-42.2362,9.68298,0,0,0,0,0,0,0,-1,650,1212,-42.2362,-9.68299
-567,-188,-19.5786,4.10388,0,0,0,0,0,0,0,-1,657,1212,-19.5785,-4.10383
-560,-188,-23.9507,0.416626,0,0,0,0,0,0,0,-1,664,1212,-23.9508,-0.416602
-553,-188,-49.2368,1.03101,0,0,0,0,0,0,0,-1,671,1212,-49.2367,-1.03099
-546,-188,-54.1822,0.613037,0,0,0,0,0,0,0,-1,678,1212,-54.1822,-0.613032
-539,-188,-54.2117,0.644287,0,0,0,0,0,0,0,-1,685,1212,-54.2117,-0.644262
-532,-188,-54.022,0.705444,0,0,0,0,0,0,0,-1,692,1212,-54.022,-0.705489
-525,-188,-54.0754,0.487061,0,0,0,0,0,0,0,-1,699,1212,-54.0754,-0.487119
-518,-188,-54.0884,0.58313,0,0,0,0,0,0,0,-1,706,1212,-54.0884,-0.583122
-511,-188,-54.106,0.524414,0,0,0,0,0,0,0,-1,713,1212,-54.1059,-0.524382
-504,-188,0,0,0,0,0,0,0,0,0,-1,720,1212,0,0
-497,-188,0,0,0,0,0,0,0,0,0,-1,727,1212,0,0
-490,-188,0,0,0,0,0,0,0,0,0,-1,734,1212,0,0
-483,-188,0,0,0,0,0,0,0,0,0,-1,741,1212,0,0
-476,-188,0,0,0,0,0,0,0,0,0,-1,748,1212,0,0
-469,-188,0,0,0,0,0,0,0,0,0,-1,755,1212,0,0
-462,-188,0,0,0,0,0,0,0,0,0,-1,762,1212,0,0
-455,-188,0,0,0,0,0,0,0,0,0,-1,769,1212,0,0
-448,-188,0,0,0,0,0,0,0,0,0,-1,776,1212,0,0
-441,-188,0,0,0,0,0,0,0,0,0,-1,783,1212,0,0
-434,-188,0,0,0,0,0,0,0,0,0,-1,790,1212,0,0
-427,-188,0,0,0,0,0,0,0,0,0,-1,797,1212,0,0
-420,-188,0,0,0,0,0,0,0,0,0,-1,804,1212,0,0
-413,-188,0,0,0,0,0,0,0,0,0,-1,811,1212,0,0
-406,-188,0,0,0,0,0,0,0,0,0,-1,818,1212,0,0
-399,-188,0,0,0,0,0,0,0,0,0,-1,825,1212,0,0
-392,-188,0,0,0,0,0,0,0,0,0,-1,832,1212,0,0
-385,-188,0,0,0,0,0,0,0,0,0,-1,839,1212,0,0
-378,-188,0,0,0,0,0,0,0,0,0,-1,846,1212,0,0
-371,-188,0,0,0,0,0,0,0,0,0,-1,853,1212,0,0
-364,-188,0,0,0,0,0,0,0,0,0,-1,860,1212,0,0
-357,-188,0,0,0,0,0,0,0,0,0,-1,867,1212,0,0
-350,-188,0,0,0,0,0,0,0,0,0,-1,874,1212,0,0
-343,-188,0,0,0,0,0,0,0,0,0,-1,881,1212,0,0
-336,-188,0,0,0,0,0,0,0,0,0,-1,888,1212,0,0
-329,-188,0,0,0,0,0,0,0,0,0,-1,895,1212,0,0
-322,-188,0,0,0,0,0,0,0,0,0,-1,902,1212,0,0
-315,-188,0,0,0,0,0,0,0,0,0,-1,909,1212,0,0
-308,-188,0,0,0,0,0,0,0,0,0,-1,916,1212,0,0
-301,-188,0,0,0,0,0,0,0,0,0,-1,923,1212,0,0
-294,-188,0,0,0,0,0,0,0,0,0,-1,930,1212,0,0
-287,-188,0,0,0,0,0,0,0,0,0,-1,937,1212,0,0
-280,-188,0,0,0,0,0,0,0,0,0,-1,944,1212,0,0
-273,-188,0,0,0,0,0,0,0,0,0,-1,951,1212,0,0
-266,-188,0,0,0,0,0,0,0,0,0,-1,958,1212,0,0
-259,-188,0,0,0,0,0,0,0,0,0,-1,965,1212,0,0
-252,-188,0,0,0,0,0,0,0,0,0,-1,972,1212,0,0
-245,-188,0,0,0,0,0,0,0,0,0,-1,979,1212,0,0
-238,-188,0,0,0,0,0,0,0,0,0,-1,986,1212,0,0
-231,-188,0,0,0,0,0,0,0,0,0,-1,993,1212,0,0
-224,-188,0,0,0,0,0,0,0,0,0,-1,1000,1212,0,0
-217,-188,0,0,0,0,0,0,0,0,0,-1,1007,1212,0,0
-210,-188,0,0,0,0,0,0,0,0,0,-1,1014,1212,0,0
-203,-188,0,0,0,0,0,0,0,0,0,-1,1021,1212,0,0
-196,-188,0,0,0,0,0,0,0,0,0,-1,1028,1212,0,0
-189,-188,0,0,0,0,0,0,0,0,0,-1,1035,1212,0,0
-182,-188,0,0,0,0,0,0,0,0,0,-1,1042,1212,0,0
-175,-188,0,0,0,0,0,0,0,0,0,-1,1049,1212,0,0
-168,-188,0,0,0,0,0,0,0,0,0,-1,1056,1212,0,0
-161,-188,0,0,0,0,0,0,0,0,0,-1,1063,1212,0,0
-154,-188,0,0,0,0,0,0,0,0,0,-1,1070,1212,0,0
-147,-188,0,0,0,0,0,0,0,0,0,-1,1077,1212,0,0
-140,-188,0,0,0,0,0,0,0,0,0,-1,1084,1212,0,0
-133,-188,0,0,0,0,0,0,0,0,0,-1,1091,1212,0,0
-126,-188,0,0,0,0,0,0,0,0,0,-1,1098,1212,0,0
-119,-188,0,0,0,0,0,0,0,0,0,-1,1105,1212,0,0
-112,-188,0,0,0,0,0,0,0,0,0,-1,1112,1212,0,0
-105,-188,0,0,0,0,0,0,0,0,0,-1,1119,1212,0,0
-98,-188,0,0,0,0,0,0,0,0,0,-1,1126,1212,0,0
-91,-188,0,0,0,0,0,0,0,0,0,-1,1133,1212,0,0
-84,-188,0,0,0,0,0,0,0,0,0,-1,1140,1212,0,0
-77,-188,0,0,0,0,0,0,0,0,0,-1,1147,1212,0,0
-70,-188,0,0,0,0,0,0,0,0,0,-1,1154,1212,0,0
-63,-188,0,0,0,0,0,0,0,0,0,-1,1161,1212,0,0
-56,-188,0,0,0,0,0,0,0,0,0,-1,1168,1212,0,0
-49,-188,0,0,0,0,0,0,0,0,0,-1,1175,1212,0,0
-42,-188,0,0,0,0,0,0,0,0,0,-1,1182,1212,0,0
-35,-188,0,0,0,0,0,0,0,0,0,-1,1189,1212,0,0
-28,-188,0,0,0,0,0,0,0,0,0,-1,1196,1212,0,0
-21,-188,0,0,0,0,0,0,0,0,0,-1,1203,1212,0,0
-14,-188,0,0,0,0,0,0,0,0,0,-1,1210,1212,0,0
-7,-188,0,0,0,0,0,0,0,0,0,-1,1217,1212,0,0
0,-188,0,0,0,0,0,0,0,0,0,-1,1224,1212,0,0
7,-188,0,0,0,0,0,0,0,0,0,-1,1231,1212,0,0
14,-188,0,0,0,0,0,0,0,0,0,-1,1238,1212,0,0
21,-188,0,0,0,0,0,0,0,0,0,-1,1245,1212,0,0
28,-188,0,0,0,0,0,0,0,0,0,-1,1252,1212,0,0
35,-188,0,0,0,0,0,0,0,0,0,-1,1259,1212,0,0
42,-188,0,0,0,0,0,0,0,0,0,-1,1266,1212,0,0
49,-188,0,0,0,0,0,0,0,0,0,-1,1273,1212,0,0
56,-188,0,0,0,0,0,0,0,0,0,-1,1280,1212,0,0
63,-188,0,0,0,0,0,0,0,0,0,-1,1287,1212,0,0
70,-188,0,0,0,0,0,0,0,0,0,-1,1294,1212,0,0
77,-188,0,0,0,0,0,0,0,0,0,-1,1301,1212,0,0
84,-188,0,0,0,0,0,0,0,0,0,-1,1308,1212,0,0
91,-188,0,0,0,0,0,0,0,0,0,-1,1315,1212,0,0
98,-188,0,0,0,0,0,0,0,0,0,-1,1322,1212,0,0
105,-188,0,0,0,0,0,0,0,0,0,-1,1329,1212,0,0
112,-188,0,0,0,0,0,0,0,0,0,-1,1336,1212,0,0
119,-188,0,0,0,0,0,0,0,0,0,-1,1343,1212,0,0
126,-188,0,0,0,0,0,0,0,0,0,-1,1350,1212,0,0
133,-188,0,0,0,0,0,0,0,0,0,-1,1357,1212,0,0
140,-188,0,0,0,0,0,0,0,0,0,-1,1364,1212,0,0
147,-188,0,0,0,0,0,0,0,0,0,-1,1371,1212,0,0
154,-188,0,0,0,0,0,0,0,0,0,-1,1378,1212,0,0
161,-188,0,0,0,0,0,0,0,0,0,-1,1385,1212,0,0
168,-188,0,0,0,0,0,0,0,0,0,-1,1392,1212,0,0
175,-188,0,0,0,0,0,0,0,0,0,-1,1399,1212,0,0
182,-188,0,0,0,0,0,0,0,0,0,-1,1406,1212,0,0
189,-188,0,0,0,0,0,0,0,0,0,-1,1413,1212,0,0
196,-188,0,0,0,0,0,0,0,0,0,-1,1420,1212,0,0
203,-188,0,0,0,0,0,0,0,0,0,-1,1427,1212,0,0
210,-188,0,0,0,0,0,0,0,0,0,-1,1434,1212,0,0
217,-188,0,0,0,0,0,0,0,0,0,-1,1441,1212,0,0
224,-188,0,0,0,0,0,0,0,0,0,-1,1448,1212,0,0
231,-188,0,0,0,0,0,0,0,0,0,-1,1455,1212,0,0
238,-188,0,0,0,0,0,0,0,0,0,-1,1462,1212,0,0
245,-188,0,0,0,0,0,0,0,0,0,-1,1469,1212,0,0
252,-188,0,0,0,0,0,0,0,0,0,-1,1476,1212,0,0
259,-188,0,0,0,0,0,0,0,0,0,-1,1483,1212,0,0
266,-188,0,0,0,0,0,0,0,0,0,-1,1490,1212,0,0
273,-188,0,0,0,0,0,0,0,0,0,-1,1497,1212,0,0
280,-188,0,0,0,0,0,0,0,0,0,-1,1504,1212,0,0
287,-188,0,0,0,0,0,0,0,0,0,-1,1511,1212,0,0
294,-188,0,0,0,0,0,0,0,0,0,-1,1518,1212,0,0
301,-188,0,0,0,0,0,0,0,0,0,-1,1525,1212,0,0
308,-188,0,0,0,0,0,0,0,0,0,-1,1532,1212,0,0
315,-188,0,0,0,0,0,0,0,0,0,-1,1539,1212,0,0
322,-188,0,0,0,0,0,0,0,0,0,-1,1546,1212,0,0
329,-188,0,0,0,0,0,0,0,0,0,-1,1553,1212,0,0
336,-188,0,0,0,0,0,0,0,0,0,-1,1560,1212,0,0
343,-188,0,0,0,0,0,0,0,0,0,-1,1567,1212,0,0
350,-188,0,0,0,0,0,0,0,0,0,-1,1574,1212,0,0
357,-188,0,0,0,0,0,0,0,0,0,-1,1581,1212,0,0
364,-188,0,0,0,0,0,0,0,0,0,-1,1588,1212,0,0
371,-188,0,0,0,0,0,0,0,0,0,-1,1595,1212,0,0
378,-188,0,0,0,0,0,0,0,0,0,-1,1602,1212,0,0
385,-188,0,0,0,0,0,0,0,0,0,-1,1609,1212,0,0
392,-188,0,0,0,0,0,0,0,0,0,-1,1616,1212,0,0
399,-188,0,0,0,0,0,0,0,0,0,-1,1623,1212,0,0
406,-188,0,0,0,0,0,0,0,0,0,-1,1630,1212,0,0
413,-188,0,0,0,0,0,0,0,0,0,-1,1637,1212,0,0
420,-188,0,0,0,0,0,0,0,0,0,-1,1644,1212,0,0
427,-188,0,0,0,0,0,0,0,0,0,-1,1651,1212,0,0
434,-188,0,0,0,0,0,0,0,0,0,-1,1658,1212,0,0
441,-188,0,0,0,0,0,0,0,0,0,-1,1665,1212,0,0
448,-188,0,0,0,0,0,0,0,0,0,-1,1672,1212,0,0
455,-188,0,0,0,0,0,0,0,0,0,-1,1679,1212,0,0
462,-188,0,0,0,0,0,0,0,0,0,-1,1686,1212,0,0
469,-188,0,0,0,0,0,0,0,0,0,-1,1693,1212,0,0
476,-188,0,0,0,0,0,0,0,0,0,-1,1700,1212,0,0
483,-188,0,0,0,0,0,0,0,0,0,-1,1707,1212,0,0
490,-188,0,0,0,0,0,0,0,0,0,-1,1714,1212,0,0
497,-188,0,0,0,0,0,0,0,0,0,-1,1721,1212,0,0
504,-188,0,0,0,0,0,0,0,0,0,-1,1728,1212,0,0
511,-188,0,0,0,0,0,0,0,0,0,-1,1735,1212,0,0
518,-188,0,0,0,0,0,0,0,0,0,-1,1742,1212,0,0
525,-188,0,0,0,0,0,0,0,0,0,-1,1749,1212,0,0
532,-188,0,0,0,0,0,0,0,0,0,-1,1756,1212,0,0
539,-188,0,0,0,0,0,0,0,0,0,-1,1763,1212,0,0
546,-188,0,0,0,0,0,0,0,0,0,-1,1770,1212,0,0
553,-188,0,0,0,0,0,0,0,0,0,-1,1777,1212,0,0
560,-188,0,0,0,0,0,0,0,0,0,-1,1784,1212,0,0
567,-188,0,0,0,0,0,0,0,0,0,-1,1791,1212,0,0
574,-188,0,0,0,0,0,0,0,0,0,-1,1798,1212,0,0
581,-188,0,0,0,0,0,0,0,0,0,-1,1805,1212,0,0
588,-188,0,0,0,0,0,0,0,0,0,-1,1812,1212,0,0
595,-188,0,0,0,0,0,0,0,0,0,-1,1819,1212,0,0
602,-188,0,0,0,0,0,0,0,0,0,-1,1826,1212,0,0
609,-188,0,0,0,0,0,0,0,0,0,-1,1833,1212,0,0
616,-188,0,0,0,0,0,0,0,0,0,-1,1840,1212,0,0
623,-188,0,0,0,0,0,0,0,0,0,-1,1847,1212,0,0
630,-188,70.9438,2.3457,0.00263243,-0.00212948,-0.000618001,0.00271133,-0.00220838,-0.126978,0.00284534,0.0400822,1854,1212,70.9439,-2.34575
637,-188,70.9175,2.28674,0.0025033,-0.00126384,-0.000642743,0.00260994,-0.00137049,-0.164423,0.00233495,0.0406913,1861,1212,70.9175,-2.28671
644,-188,70.8302,2.17273,0.00222121,-0.00015949,-0.000948638,0.00255298,-0.00049126,-0.336437,0.00188717,0.037938,1868,1212,70.8301,-2.17267
651,-188,70.8372,2.14856,0.00189893,0.00106251,-0.0014426,0.00298272,-2.12756e-05,-0.644316,0.00199561,0.0331916,1875,1212,70.8371,-2.14857
658,-188,70.9348,2.1615,0.00140777,0.00196173,-0.00166857,0.00337615,-6.65407e-06,-0.867648,0.00225299,0.0321699,1882,1212,70.9348,-2.16146
665,-188,70.8322,2.22473,0.000938579,0.00230358,-0.00154774,0.00331262,-7.04562e-05,-0.993057,0.00223227,0.0314988,1889,1212,70.8322,-2.22471
672,-188,70.8551,2.22656,0.000934567,0.00217535,-0.00140409,0.00309,1.99106e-05,-0.993423,0.0020534,0.0251191,1896,1212,70.8551,-2.22661
679,-188,70.9149,2.12732,0,0,0,0,0,0,0,-1,1903,1212,70.9149,-2.12735
686,-188,60.1007,2.41321,0,0,0,0,0,0,0,-1,1910,1212,60.1007,-2.41325
693,-188,35.9054,2.18042,0,0,0,0,0,0,0,-1,1917,1212,35.9054,-2.18038
700,-188,54.452,11.2678,0,0,0,0,0,0,0,-1,1924,1212,54.452,-11.2678
707,-188,58.068,11.325,0,0,0,0,0,0,0,-1,1931,1212,58.0679,-11.325
714,-188,54.7506,10.1539,0,0,0,0,0,0,0,-1,1938,1212,54.7507,-10.1539
721,-188,57.3446,10.146,0,0,0,0,0,0,0,-1,1945,1212,57.3447,-10.146
728,-188,57.7273,9.23608,0.00217436,0.00103113,-0.000106894,0.00218427,0.00102122,-0.0924341,0.00126197,0.0312614,1952,1212,57.7273,-9.23609
735,-188,57.7758,8.51184,0.00234932,0.00112328,0.000324303,0.00242982,0.00104278,0.243298,0.00140754,0.0137309,1959,1212,57.7757,-8.51179
742,-188,57.7269,7.84607,0.00214057,0.00110688,0.000838899,0.00260906,0.000638394,0.509311,0.00157044,0.0145897,1966,1212,57.7269,-7.84602
749,-188,57.699,7.19666,0.00161766,0.00133575,0.00153441,0.00301758,-6.41651e-05,0.739594,0.00203344,0.0137049,1973,1212,57.699,-7.1967
756,-188,57.6699,6.51428,0.00117612,0.00162197,0.002397,0.00380639,-0.0010083,0.831765,0.00293206,0.0127428,1980,1212,57.6699,-6.5143
763,-188,57.6786,5.86499,0.000732258,0.00184204,0.0035634,0.0048935,-0.0023192,0.862638,0.00425175,0.0195019,1987,1212,57.6786,-5.86497
770,-188,57.6809,5.15833,0.000397479,0.00214462,0.00488126,0.00622987,-0.00368777,0.873943,0.00578831,0.0472671,1994,1212,57.6809,-5.15834
777,-188,57.8586,4.49146,0,0,0,0,0,0,0,-1,2001,1212,57.8587,-4.49151
784,-188,67.2061,-0.0683594,0,0,0,0,0,0,0,-1,2008,1212,67.2062,0.0683892
791,-188,66.3975,1.17078,0,0,0,0,0,0,0,-1,2015,1212,66.3974,-1.17072
798,-188,65.8904,2.49292,0,0,0,0,0,0,0,-1,2022,1212,65.8905,-2.49295
805,-188,0,0,0,0,0,0,0,0,0,-1,2029,1212,0,0
812,-188,0,0,0,0,0,0,0,0,0,-1,2036,1212,0,0
-700,-195,0,0,0,0,0,0,0,0,0,-1,524,1219,0,0
-693,-195,0,0,0,0,0,0,0,0,0,-1,531,1219,0,0
-686,-195,0,0,0,0,0,0,0,0,0,-1,538,1219,0,0
-679,-195,-41.5242,-0.627319,0,0,0,0,0,0,0,-1,545,1219,-41.5242,0.627289
-672,-195,-42.2682,0.151001,0,0,0,0,0,0,0,-1,552,1219,-42.2682,-0.151019
-665,-195,-40.5304,0.259155,0,0,0,0,0,0,0,-1,559,1219,-40.5304,-0.259131
-658,-195,-39.795,1.255,0,0,0,0,0,0,0,-1,566,1219,-39.795,-1.25499
-651,-195,-41.4258,2.22791,0,0,0,0,0,0,0,-1,573,1219,-41.4258,-2.22795
-644,-195,-41.1526,2.92761,0.0575051,0.0287758,-0.0186854,0.0667092,0.0195717,-0.457697,0.0395955,0.0441198,580,1219,-41.1527,-2.92767
-637,-195,-40.8581,3.59802,0.0380424,0.0186525,-0.0124767,0.0441481,0.0125468,-0.455106,0.0262683,0.0245996,587,1219,-40.8581,-3.59806
-630,-195,-40.9411,4.297,0.0231777,0.0110882,-0.00806401,0.027211,0.00705487,-0.463777,0.0163059,0.0086386,594,1219,-40.9411,-4.29702
-623,-195,-40.9752,4.99475,0.0119858,0.00582737,-0.00466935,0.0144999,0.00331334,-0.493901,0.00877322,0.00848851,601,1219,-40.9752,-4.99479
-616,-195,-40.991,5.70093,0.00417594,0.00155823,-0.00245233,0.00564684,8.73308e-05,-0.54027,0.00373579,0.0100626,608,1219,-40.991,-5.70097
-609,-195,-41.0339,6.42456,0.000404536,0.000516852,-0.00150429,0.00196603,-0.00104464,-0.804056,0.00176513,0.0189906,615,1219,-41.0339,-6.4245
-602,-195,-41.0611,7.09644,-0.00096073,0.000229512,-0.00188099,0.00160728,-0.0023385,-0.938609,0.0022911,0.0244102,622,1219,-41.0611,-7.09639
-595,-195,-41.0759,7.85559,-0.00172751,-8.12392e-05,-0.00259715,0.00182009,-0.00362885,-0.93886,0.0032032,0.0373255,629,1219,-41.0759,-7.85563
-588,-195,-41.2427,8.65955,0,0,0,0,0,0,0,-1,636,1219,-41.2427,-8.65952
-581,-195,-41.2391,9.12976,0,0,0,0,0,0,0,-1,643,1219,-41.2391,-9.12971
-574,-195,-41.5606,9.5448,0,0,0,0,0,0,0,-1,650,1219,-41.5606,-9.54479
-567,-195,-20.6388,3.78369,0,0,0,0,0,0,0,-1,657,1219,-20.6388,-3.78369
-560,-195,-20.878,2.10388,0,0,0,0,0,0,0,-1,664,1219,-20.878,-2.10385
-553,-195,-41.595,0.613281,0,0,0,0,0,0,0,-1,671,1219,-41.595,-0.61334
-546,-195,-54.0878,0.794922,0,0,0,0,0,0,0,-1,678,1219,-54.0878,-0.794981
-539,-195,-54.1254,0.645752,0,0,0,0,0,0,0,-1,685,1219,-54.1254,-0.645734
-532,-195,-54.1707,0.475342,0,0,0,0,0,0,0,-1,692,1219,-54.1707,-0.47533
-525,-195,-54.1795,0.70166,0,0,0,0,0,0,0,-1,699,1219,-54.1795,-0.701665
-518,-195,-54.2775,0.821899,0,0,0,0,0,0,0,-1,706,1219,-54.2775,-0.821842
-511,-195,-54.3044,0.850464,0,0,0,0,0,0,0,-1,713,1219,-54.3044,-0.850445
-504,-195,0,0,0,0,0,0,0,0,0,-1,720,1219,0,0
-497,-195,0,0,0,0,0,0,0,0,0,-1,727,1219,0,0
-490,-195,0,0,0,0,0,0,0,0,0,-1,734,1219,0,0
-483,-195,0,0,0,0,0,0,0,0,0,-1,741,1219,0,0
-476,-195,0,0,0,0,0,0,0,0,0,-1,748,1219,0,0
-469,-195,0,0,0,0,0,0,0,0,0,-1,755,1219,0,0
-462,-195,0,0,0,0,0,0,0,0,0,-1,762,1219,0,0
-455,-195,0,0,0,0,0,0,0,0,0,-1,769,1219,0,0
-448,-195,0,0,0,0,0,0,0,0,0,-1,776,1219,0,0
-441,-195,0,0,0,0,0,0,0,0,0,-1,783,1219,0,0
-434,-195,0,0,0,0,0,0,0,0,0,-1,790,1219,0,0
-427,-195,0,0,0,0,0,0,0,0,0,-1,797,1219,0,0
-420,-195,0,0,0,0,0,0,0,0,0,-1,804,1219,0,0
-413,-195,0,0,0,0,0,0,0,0,0,-1,811,1219,0,0
-406,-195,0,0,0,0,0,0,0,0,0,-1,818,1219,0,0
-399,-195,0,0,0,0,0,0,0,0,0,-1,825,1219,0,0
-392,-195,0,0,0,0,0,0,0,0,0,-1,832,1219,0,0
-385,-195,0,0,0,0,0,0,0,0,0,-1,839,1219,0,0
-378,-195,0,0,0,0,0,0,0,0,0,-1,846,1219,0,0
-371,-195,0,0,0,0,0,0,0,0,0,-1,853,1219,0,0
-364,-195,0,0,0,0,0,0,0,0,0,-1,860,1219,0,0
-357,-195,0,0,0,0,0,0,0,0,0,-1,867,1219,0,0
-350,-195,0,0,0,0,0,0,0,0,0,-1,874,1219,0,0
-343,-195,0,0,0,0,0,0,0,0,0,-1,881,1219,0,0
-336,-195,0,0,0,0,0,0,0,0,0,-1,888,1219,0,0
-329,-195,0,0,0,0,0,0,0,0,0,-1,895,1219,0,0
-322,-195,0,0,0,0,0,0,0,0,0,-1,902,1219,0,0
-315,-195,0,0,0,0,0,0,0,0,0,-1,909,1219,0,0
-308,-195,0,0,0,0,0,0,0,0,0,-1,916,1219,0,0
-301,-195,0,0,0,0,0,0,0,0,0,-1,923,1219,0,0
-294,-195,0,0,0,0,0,0,0,0,0,-1,930,1219,0,0
-287,-195,0,0,0,0,0,0,0,0,0,-1,937,1219,0,0
-280,-195,0,0,0,0,0,0,0,0,0,-1,944,1219,0,0
-273,-195,0,0,0,0,0,0,0,0,0,-1,951,1219,0,0
-266,-195,0,0,0,0,0,0,0,0,0,-1,958,1219,0,0
-259,-195,0,0,0,0,0,0,0,0,0,-1,965,1219,0,0
-252,-195,0,0,0,0,0,0,0,0,0,-1,972,1219,0,0
-245,-195,0,0,0,0,0,0,0,0,0,-1,979,1219,0,0
-238,-195,0,0,0,0,0,0,0,0,0,-1,986,1219,0,0
-231,-195,0,0,0,0,0,0,0,0,0,-1,993,1219,0,0
-224,-195,0,0,0,0,0,0,0,0,0,-1,1000,1219,0,0
-217,-195,0,0,0,0,0,0,0,0,0,-1,1007,1219,0,0
-210,-195,0,0,0,0,0,0,0,0,0,-1,1014,1219,0,0
-203,-195,0,0,0,0,0,0,0,0,0,-1,1021,1219,0,0
-196,-195,0,0,0,0,0,0,0,0,0,-1,1028,1219,0,0
-189,-195,0,0,0,0,0,0,0,0,0,-1,1035,1219,0,0
-182,-195,0,0,0,0,0,0,0,0,0,-1,1042,1219,0,0
-175,-195,0,0,0,0,0,0,0,0,0,-1,1049,1219,0,0
-168,-195,0,0,0,0,0,0,0,0,0,-1,1056,1219,0,0
-161,-195,0,0,0,0,0,0,0,0,0,-1,1063,1219,0,0
-154,-195,0,0,0,0,0,0,0,0,0,-1,1070,1219,0,0
-147,-195,0,0,0,0,0,0,0,0,0,-1,1077,1219,0,0
-140,-195,0,0,0,0,0,0,0,0,0,-1,1084,1219,0,0
-133,-195,0,0,0,0,0,0,0,0,0,-1,1091,1219,0,0
-126,-195,0,0,0,0,0,0,0,0,0,-1,1098,1219,0,0
-119,-195,0,0,0,0,0,0,0,0,0,-1,1105,1219,0,0
-112,-195,0,0,0,0,0,0,0,0,0,-1,1112,1219,0,0
-105,-195,0,0,0,0,0,0,0,0,0,-1,1119,1219,0,0
-98,-195,0,0,0,0,0,0,0,0,0,-1,1126,1219,0,0
-91,-195,0,0,0,0,0,0,0,0,0,-1,1133,1219,0,0
-84,-195,0,0,0,0,0,0,0,0,0,-1,1140,1219,0,0
-77,-195,0,0,0,0,0,0,0,0,0,-1,1147,1219,0,0
-70,-195,0,0,0,0,0,0,0,0,0,-1,1154,1219,0,0
-63,-195,0,0,0,0,0,0,0,0,0,-1,1161,1219,0,0
-56,-195,0,0,0,0,0,0,0,0,0,-1,1168,1219,0,0
-49,-195,0,0,0,0,0,0,0,0,0,-1,1175,1219,0,0
-42,-195,0,0,0,0,0,0,0,0,0,-1,1182,1219,0,0
-35,-195,0,0,0,0,0,0,0,0,0,-1,1189,1219,0,0
-28,-195,0,0,0,0,0,0,0,0,0,-1,1196,1219,0,0
-21,-195,0,0,0,0,0,0,0,0,0,-1,1203,1219,0,0
-14,-195,0,0,0,0,0,0,0,0,0,-1,1210,1219,0,0
-7,-195,0,0,0,0,0,0,0,0,0,-1,1217,1219,0,0
0,-195,0,0,0,0,0,0,0,0,0,-1,1224,1219,0,0
7,-195,0,0,0,0,0,0,0,0,0,-1,1231,1219,0,0
14,-195,0,0,0,0,0,0,0,0,0,-1,1238,1219,0,0
21,-195,0,0,0,0,0,0,0,0,0,-1,1245,1219,0,0
28,-195,0,0,0,0,0,0,0,0,0,-1,1252,1219,0,0
35,-195,0,0,0,0,0,0,0,0,0,-1,1259,1219,0,0
42,-195,0,0,0,0,0,0,0,0,0,-1,1266,1219,0,0
49,-195,0,0,0,0,0,0,0,0,0,-1,1273,1219,0,0
56,-195,0,0,0,0,0,0,0,0,0,-1,1280,1219,0,0
63,-195,0,0,0,0,0,0,0,0,0,-1,1287,1219,0,0
70,-195,0,0,0,0,0,0,0,0,0,-1,1294,1219,0,0
77,-195,0,0,0,0,0,0,0,0,0,-1,1301,1219,0,0
84,-195,0,0,0,0,0,0,0,0,0,-1,1308,1219,0,0
91,-195,0,0,0,0,0,0,0,0,0,-1,1315,1219,0,0
98,-195,0,0,0,0,0,0,0,0,0,-1,1322,1219,0,0
105,-195,0,0,0,0,0,0,0,0,0,-1,1329,1219,0,0
112,-195,0,0,0,0,0,0,0,0,0,-1,1336,1219,0,0
119,-195,0,0,0,0,0,0,0,0,0,-1,1343,1219,0,0
126,-195,0,0,0,0,0,0,0,0,0,-1,1350,1219,0,0
133,-195,0,0,0,0,0,0,0,0,0,-1,1357,1219,0,0
140,-195,0,0,0,0,0,0,0,0,0,-1,1364,1219,0,0
147,-195,0,0,0,0,0,0,0,0,0,-1,1371,1219,0,0
154,-195,0,0,0,0,0,0,0,0,0,-1,1378,1219,0,0
161,-195,0,0,0,0,0,0,0,0,0,-1,1385,1219,0,0
168,-195,0,0,0,0,0,0,0,0,0,-1,1392,1219,0,0
175,-195,0,0,0,0,0,0,0,0,0,-1,1399,1219,0,0
182,-195,0,0,0,0,0,0,0,0,0,-1,1406,1219,0,0
189,-195,0,0,0,0,0,0,0,0,0,-1,1413,1219,0,0
196,-195,0,0,0,0,0,0,0,0,0,-1,1420,1219,0,0
203,-195,0,0,0,0,0,0,0,0,0,-1,1427,1219,0,0
210,-195,0,0,0,0,0,0,0,0,0,-1,1434,1219,0,0
217,-195,0,0,0,0,0,0,0,0,0,-1,1441,1219,0,0
224,-195,0,0,0,0,0,0,0,0,0,-1,1448,1219,0,0
231,-195,0,0,0,0,0,0,0,0,0,-1,1455,1219,0,0
238,-195,0,0,0,0,0,0,0,0,0,-1,1462,1219,0,0
245,-195,0,0,0,0,0,0,0,0,0,-1,1469,1219,0,0
252,-195,0,0,0,0,0,0,0,0,0,-1,1476,1219,0,0
259,-195,0,0,0,0,0,0,0,0,0,-1,1483,1219,0,0
266,-195,0,0,0,0,0,0,0,0,0,-1,1490,1219,0,0
273,-195,0,0,0,0,0,0,0,0,0,-1,1497,1219,0,0
280,-195,0,0,0,0,0,0,0,0,0,-1,1504,1219,0,0
287,-195,0,0,0,0,0,0,0,0,0,-1,1511,1219,0,0
294,-195,0,0,0,0,0,0,0,0,0,-1,1518,1219,0,0
301,-195,0,0,0,0,0,0,0,0,0,-1,1525,1219,0,0
308,-195,0,0,0,0,0,0,0,0,0,-1,1532,1219,0,0
315,-195,0,0,0,0,0,0,0,0,0,-1,1539,1219,0,0
322,-195,0,0,0,0,0,0,0,0,0,-1,1546,1219,0,0
329,-195,0,0,0,0,0,0,0,0,0,-1,1553,1219,0,0
336,-195,0,0,0,0,0,0,0,0,0,-1,1560,1219,0,0
343,-195,0,0,0,0,0,0,0,0,0,-1,1567,1219,0,0
350,-195,0,0,0,0,0,0,0,0,0,-1,1574,1219,0,0
357,-195,0,0,0,0,0,0,0,0,0,-1,1581,1219,0,0
364,-195,0,0,0,0,0,0,0,0,0,-1,1588,1219,0,0
371,-195,0,0,0,0,0,0,0,0,0,-1,1595,1219,0,0
378,-195,0,0,0,0,0,0,0,0,0,-1,1602,1219,0,0
385,-195,0,0,0,0,0,0,0,0,0,-1,1609,1219,0,0
392,-195,0,0,0,0,0,0,0,0,0,-1,1616,1219,0,0
399,-195,0,0,0,0,0,0,0,0,0,-1,1623,1219,0,0
406,-195,0,0,0,0,0,0,0,0,0,-1,1630,1219,0,0
413,-195,0,0,0,0,0,0,0,0,0,-1,1637,1219,0,0
420,-195,0,0,0,0,0,0,0,0,0,-1,1644,1219,0,0
427,-195,0,0,0,0,0,0,0,0,0,-1,1651,1219,0,0
434,-195,0,0,0,0,0,0,0,0,0,-1,1658,1219,0,0
441,-195,0,0,0,0,0,0,0,0,0,-1,1665,1219,0,0
448,-195,0,0,0,0,0,0,0,0,0,-1,1672,1219,0,0
455,-195,0,0,0,0,0,0,0,0,0,-1,1679,1219,0,0
462,-195,0,0,0,0,0,0,0,0,0,-1,1686,1219,0,0
469,-195,0,0,0,0,0,0,0,0,0,-1,1693,1219,0,0
476,-195,0,0,0,0,0,0,0,0,0,-1,1700,1219,0,0
483,-195,0,0,0,0,0,0,0,0,0,-1,1707,1219,0,0
490,-195,0,0,0,0,0,0,0,0,0,-1,1714,1219,0,0
497,-195,0,0,0,0,0,0,0,0,0,-1,1721,1219,0,0
504,-195,0,0,0,0,0,0,0,0,0,-1,1728,1219,0,0
511,-195,0,0,0,0,0,0,0,0,0,-1,1735,1219,0,0
518,-195,0,0,0,0,0,0,0,0,0,-1,1742,1219,0,0
525,-195,0,0,0,0,0,0,0,0,0,-1,1749,1219,0,0
532,-195,0,0,0,0,0,0,0,0,0,-1,1756,1219,0,0
539,-195,0,0,0,0,0,0,0,0,0,-1,1763,1219,0,0
546,-195,0,0,0,0,0,0,0,0,0,-1,1770,1219,0,0
553,-195,0,0,0,0,0,0,0,0,0,-1,1777,1219,0,0
560,-195,0,0,0,0,0,0,0,0,0,-1,1784,1219,0,0
567,-195,0,0,0,0,0,0,0,0,0,-1,1791,1219,0,0
574,-195,0,0,0,0,0,0,0,0,0,-1,1798,1219,0,0
581,-195,0,0,0,0,0,0,0,0,0,-1,1805,1219,0,0
588,-195,0,0,0,0,0,0,0,0,0,-1,1812,1219,0,0
595,-195,0,0,0,0,0,0,0,0,0,-1,1819,1219,0,0
602,-195,0,0,0,0,0,0,0,0,0,-1,1826,1219,0,0
609,-195,0,0,0,0,0,0,0,0,0,-1,1833,1219,0,0
616,-195,0,0,0,0,0,0,0,0,0,-1,1840,1219,0,0
623,-195,0,0,0,0,0,0,0,0,0,-1,1847,1219,0,0
630,-195,70.8412,2.24695,0.00263303,-0.000871995,-0.00125803,0.00303781,-0.00127678,-0.3113,0.00255926,0.0427311,1854,1219,70.8412,-2.24699
637,-195,70.8558,2.27271,0.00243564,-0.000156926,-0.00127758,0.00295941,-0.00068069,-0.389066,0.00223466,0.0399234,1861,1219,70.8559,-2.27265
644,-195,70.8854,2.245,0.00215055,0.000818306,-0.00153482,0.00315757,-0.000188711,-0.580661,0.00217068,0.0367795,1868,1219,70.8854,-2.24494
651,-195,70.9011,2.20056,0.00187269,0.00183508,-0.00190176,0.00375574,-4.797e-05,-0.780454,0.00251997,0.0284701,1875,1219,70.9011,-2.20051
658,-195,70.8872,2.17004,0.00144616,0.00234454,-0.00182232,0.00377222,1.84858e-05,-0.906236,0.00250867,0.0238742,1882,1219,70.8872,-2.16998
665,-195,70.8617,2.22693,0.00104909,0.00233466,-0.00147247,0.00329853,8.52181e-05,-0.991197,0.00217117,0.0228829,1889,1219,70.8617,-2.22698
672,-195,70.8696,2.02673,0.00106864,0.00204331,-0.00123149,0.00288039,0.000231569,-0.973807,0.00184791,0.0351677,1896,1219,70.8697,-2.0267
679,-195,70.8552,1.78162,0,0,0,0,0,0,0,-1,1903,1219,70.8553,-1.78159
686,-195,51.2117,1.94312,0,0,0,0,0,0,0,-1,1910,1219,51.2117,-1.9431
693,-195,24.4368,5.68298,0,0,0,0,0,0,0,-1,1917,1219,24.4368,-5.68293
700,-195,57.3098,11.9315,0,0,0,0,0,0,0,-1,1924,1219,57.3098,-11.9315
707,-195,57.2788,11.2322,0,0,0,0,0,0,0,-1,1931,1219,57.2788,-11.2322
714,-195,57.3081,10.6852,0,0,0,0,0,0,0,-1,1938,1219,57.3081,-10.6852
721,-195,57.0105,9.96997,0.00153054,0.00110781,-0.000225357,0.00162814,0.0010102,-0.40871,0.00094906,0.0449065,1945,1219,57.0105,-9.96998
728,-195,57.0784,9.25208,0.00180541,0.000606427,0.000194234,0.0018361,0.000575747,0.156662,0.00108435,0.0122241,1952,1219,57.0784,-9.25203
735,-195,57.0863,8.51221,0.00182357,0.000721672,0.000631062,0.00211035,0.000434896,0.426535,0.00128667,0.0124143,1959,1219,57.0863,-8.51218
742,-195,57.0568,7.87585,0.00150743,0.000771536,0.00122103,0.00241474,-0.000135778,0.639054,0.00165694,0.0139847,1966,1219,57.0567,-7.87584
749,-195,57.012,7.24744,0.000991235,0.000999807,0.00199411,0.00298964,-0.000998597,0.786473,0.00239635,0.0132207,1973,1219,57.012,-7.24746
756,-195,56.994,6.58362,0.000555926,0.0012739,0.00293951,0.00387626,-0.00204644,0.846159,0.00347344,0.0133513,1980,1219,56.994,-6.58361
763,-195,56.9926,5.86987,9.75312e-05,0.00150938,0.00425961,0.00512116,-0.00351425,0.867515,0.00501435,0.0218593,1987,1219,56.9925,-5.86987
770,-195,56.865,5.22888,-0.000251622,0.00194362,0.00576655,0.00671608,-0.00502408,0.879444,0.00680161,0.0469587,1994,1219,56.865,-5.22892
777,-195,56.8147,4.75293,0,0,0,0,0,0,0,-1,2001,1219,56.8148,-4.75288
784,-195,66.8708,0.396484,0,0,0,0,0,0,0,-1,2008,1219,66.8709,-0.396515
791,-195,66.4263,1.44348,0,0,0,0,0,0,0,-1,2015,1219,66.4263,-1.44344
798,-195,66.05,2.49902,0,0,0,0,0,0,0,-1,2022,1219,66.0501,-2.499
805,-195,0,0,0,0,0,0,0,0,0,-1,2029,1219,0,0
812,-195,0,0,0,0,0,0,0,0,0,-1,2036,1219,0,0
-700,-202,0,0,0,0,0,0,0,0,0,-1,524,1226,0,0
-693,-202,0,0,0,0,0,0,0,0,0,-1,531,1226,0,0
-686,-202,0,0,0,0,0,0,0,0,0,-1,538,1226,0,0
-679,-202,-40.609,-0.679077,0,0,0,0,0,0,0,-1,545,1226,-40.609,0.67909
-672,-202,-41.1191,0.0892334,0,0,0,0,0,0,0,-1,552,1226,-41.1191,-0.0892198
-665,-202,-40.3919,0.584717,0,0,0,0,0,0,0,-1,559,1226,-40.3919,-0.584675
-658,-202,-38.7341,3.04883,0,0,0,0,0,0,0,-1,566,1226,-38.7341,-3.04878
-651,-202,-38.6968,2.58691,0,0,0,0,0,0,0,-1,573,1226,-38.6969,-2.58695
-644,-202,-40.3397,2.93994,0,0,0,0,0,0,0,-1,580,1226,-40.3397,-2.94
-637,-202,-40.1611,3.52026,0,0,0,0,0,0,0,-1,587,1226,-40.1611,-3.52031
-630,-202,-40.1979,4.25232,0.0227205,0.00839554,-0.00767707,0.0260575,0.00505857,-0.41003,0.0159551,0.0223441,594,1226,-40.1979,-4.25232
-623,-202,-40.2437,4.97974,0.0120808,0.00425559,-0.00440723,0.0140616,0.00227479,-0.422389,0.00871566,0.00963235,601,1226,-40.2436,-4.97968
-616,-202,-40.2761,5.70752,0.00478345,0.000967513,-0.00228806,0.00585467,-0.000103706,-0.437867,0.00393814,0.00924604,608,1226,-40.2761,-5.7075
-609,-202,-40.294,6.43311,0.00117302,0.000286967,-0.00131056,0.00211341,-0.000653424,-0.622407,0.00166992,0.0228386,615,1226,-40.294,-6.43309
-602,-202,-40.3751,7.11719,-0.000342251,7.81308e-05,-0.00147496,0.0013578,-0.00162192,-0.856175,0.0017226,0.0227761,622,1226,-40.3751,-7.11722
-595,-202,-40.5143,7.90332,-0.00110367,-0.000299335,-0.00203171,0.00136963,-0.00277264,-0.883107,0.00243684,0.023096,629,1226,-40.5143,-7.90331
-588,-202,-40.5509,8.52698,-0.00115506,-0.00115216,-0.00262402,0.00147041,-0.00377763,-0.785675,0.00312604,0.0235896,636,1226,-40.5509,-8.52699
-581,-202,-40.4223,9.12646,0,0,0,0,0,0,0,-1,643,1226,-40.4223,-9.12645
-574,-202,-40.5164,9.74902,0,0,0,0,0,0,0,-1,650,1226,-40.5164,-9.749
-567,-202,-22.1768,4.56995,0,0,0,0,0,0,0,-1,657,1226,-22.1768,-4.56991
-560,-202,-10.929,2.73096,0,0,0,0,0,0,0,-1,664,1226,-10.929,-2.73092
-553,-202,-30.2701,1.474,0,0,0,0,0,0,0,-1,671,1226,-30.2701,-1.47395
-546,-202,-53.2803,0.580933,0,0,0,0,0,0,0,-1,678,1226,-53.2803,-0.580945
-539,-202,-54.0632,0.664185,0,0,0,0,0,0,0,-1,685,1226,-54.0632,-0.664238
-532,-202,-54.1075,0.543823,0,0,0,0,0,0,0,-1,692,1226,-54.1076,-0.543792
-525,-202,-54.3267,0.796997,0,0,0,0,0,0,0,-1,699,1226,-54.3267,-0.797043
-518,-202,-54.5107,1.047,0,0,0,0,0,0,0,-1,706,1226,-54.5107,-1.04699
-511,-202,-54.441,0.943115,0,0,0,0,0,0,0,-1,713,1226,-54.441,-0.943079
-504,-202,0,0,0,0,0,0,0,0,0,-1,720,1226,0,0
-497,-202,0,0,0,0,0,0,0,0,0,-1,727,1226,0,0
-490,-202,0,0,0,0,0,0,0,0,0,-1,734,1226,0,0
-483,-202,0,0,0,0,0,0,0,0,0,-1,741,1226,0,0
-476,-202,0,0,0,0,0,0,0,0,0,-1,748,1226,0,0
-469,-202,0,0,0,0,0,0,0,0,0,-1,755,1226,0,0
-462,-202,0,0,0,0,0,0,0,0,0,-1,762,1226,0,0
-455,-202,0,0,0,0,0,0,0,0,0,-1,769,1226,0,0
-448,-202,0,0,0,0,0,0,0,0,0,-1,776,1226,0,0
-441,-202,0,0,0,0,0,0,0,0,0,-1,783,1226,0,0
-434,-202,0,0,0,0,0,0,0,0,0,-1,790,1226,0,0
-427,-202,0,0,0,0,0,0,0,0,0,-1,797,1226,0,0
-420,-202,0,0,0,0,0,0,0,0,0,-1,804,1226,0,0
-413,-202,0,0,0,0,0,0,0,0,0,-1,811,1226,0,0
-406,-202,0,0,0,0,0,0,0,0,0,-1,818,1226,0,0
-399,-202,0,0,0,0,0,0,0,0,0,-1,825,1226,0,0
-392,-202,0,0,0,0,0,0,0,0,0,-1,832,1226,0,0
-385,-202,0,0,0,0,0,0,0,0,0,-1,839,1226,0,0
-378,-202,0,0,0,0,0,0,0,0,0,-1,846,1226,0,0
-371,-202,0,0,0,0,0,0,0,0,0,-1,853,1226,0,0
-364,-202,0,0,0,0,0,0,0,0,0,-1,860,1226,0,0
-357,-202,0,0,0,0,0,0,0,0,0,-1,867,1226,0,0
-350,-202,0,0,0,0,0,0,0,0,0,-1,874,1226,0,0
-343,-202,0,0,0,0,0,0,0,0,0,-1,881,1226,0,0
-336,-202,0,0,0,0,0,0,0,0,0,-1,888,1226,0,0
-329,-202,0,0,0,0,0,0,0,0,0,-1,895,1226,0,0
-322,-202,0,0,0,0,0,0,0,0,0,-1,902,1226,0,0
-315,-202,0,0,0,0,0,0,0,0,0,-1,909,1226,0,0
-308,-202,0,0,0,0,0,0,0,0,0,-1,916,1226,0,0
-301,-202,0,0,0,0,0,0,0,0,0,-1,923,1226,0,0
-294,-202,0,0,0,0,0,0,0,0,0,-1,930,1226,0,0
-287,-202,0,0,0,0,0,0,0,0,0,-1,937,1226,0,0
-280,-202,0,0,0,0,0,0,0,0,0,-1,944,1226,0,0
-273,-202,0,0,0,0,0,0,0,0,0,-1,951,1226,0,0
-266,-202,0,0,0,0,0,0,0,0,0,-1,958,1226,0,0
-259,-202,0,0,0,0,0,0,0,0,0,-1,965,1226,0,0
-252,-202,0,0,0,0,0,0,0,0,0,-1,972,1226,0,0
-245,-202,0,0,0,0,0,0,0,0,0,-1,979,1226,0,0
-238,-202,0,0,0,0,0,0,0,0,0,-1,986,1226,0,0
-231,-202,0,0,0,0,0,0,0,0,0,-1,993,1226,0,0
-224,-202,0,0,0,0,0,0,0,0,0,-1,1000,1226,0,0
-217,-202,0,0,0,0,0,0,0,0,0,-1,1007,1226,0,0
-210,-202,0,0,0,0,0,0,0,0,0,-1,1014,1226,0,0
-203,-202,0,0,0,0,0,0,0,0,0,-1,1021,1226,0,0
-196,-202,0,0,0,0,0,0,0,0,0,-1,1028,1226,0,0
-189,-202,0,0,0,0,0,0,0,0,0,-1,1035,1226,0,0
-182,-202,0,0,0,0,0,0,0,0,0,-1,1042,1226,0,0
-175,-202,0,0,0,0,0,0,0,0,0,-1,1049,1226,0,0
-168,-202,0,0,0,0,0,0,0,0,0,-1,1056,1226,0,0
-161,-202,0,0,0,0,0,0,0,0,0,-1,1063,1226,0,0
-154,-202,0,0,0,0,0,0,0,0,0,-1,1070,1226,0,0
-147,-202,0,0,0,0,0,0,0,0,0,-1,1077,1226,0,0
-140,-202,0,0,0,0,0,0,0,0,0,-1,1084,1226,0,0
-133,-202,0,0,0,0,0,0,0,0,0,-1,1091,1226,0,0
-126,-202,0,0,0,0,0,0,0,0,0,-1,1098,1226,0,0
-119,-202,0,0,0,0,0,0,0,0,0,-1,1105,1226,0,0
-112,-202,0,0,0,0,0,0,0,0,0,-1,1112,1226,0,0
-105,-202,0,0,0,0,0,0,0,0,0,-1,1119,1226,0,0
-98,-202,0,0,0,0,0,0,0,0,0,-1,1126,1226,0,0
-91,-202,0,0,0,0,0,0,0,0,0,-1,1133,1226,0,0
-84,-202,0,0,0,0,0,0,0,0,0,-1,1140,1226,0,0
-77,-202,0,0,0,0,0,0,0,0,0,-1,1147,1226,0,0
-70,-202,0,0,0,0,0,0,0,0,0,-1,1154,1226,0,0
-63,-202,0,0,0,0,0,0,0,0,0,-1,1161,1226,0,0
-56,-202,0,0,0,0,0,0,0,0,0,-1,1168,1226,0,0
-49,-202,0,0,0,0,0,0,0,0,0,-1,1175,1226,0,0
-42,-202,0,0,0,0,0,0,0,0,0,-1,1182,1226,0,0
-35,-202,0,0,0,0,0,0,0,0,0,-1,1189,1226,0,0
-28,-202,0,0,0,0,0,0,0,0,0,-1,1196,1226,0,0
-21,-202,0,0,0,0,0,0,0,0,0,-1,1203,1226,0,0
-14,-202,0,0,0,0,0,0,0,0,0,-1,1210,1226,0,0
-7,-202,0,0,0,0,0,0,0,0,0,-1,1217,1226,0,0
0,-202,0,0,0,0,0,0,0,0,0,-1,1224,1226,0,0
7,-202,0,0,0,0,0,0,0,0,0,-1,1231,1226,0,0
14,-202,0,0,0,0,0,0,0,0,0,-1,1238,1226,0,0
21,-202,0,0,0,0,0,0,0,0,0,-1,1245,1226,0,0
28,-202,0,0,0,0,0,0,0,0,0,-1,1252,1226,0,0
35,-202,0,0,0,0,0,0,0,0,0,-1,1259,1226,0,0
42,-202,0,0,0,0,0,0,0,0,0,-1,1266,1226,0,0
49,-202,0,0,0,0,0,0,0,0,0,-1,1273,1226,0,0
56,-202,0,0,0,0,0,0,0,0,0,-1,1280,1226,0,0
63,-202,0,0,0,0,0,0,0,0,0,-1,1287,1226,0,0
70,-202,0,0,0,0,0,0,0,0,0,-1,1294,1226,0,0
77,-202,0,0,0,0,0,0,0,0,0,-1,1301,1226,0,0
84,-202,0,0,0,0,0,0,0,0,0,-1,1308,1226,0,0
91,-202,0,0,0,0,0,0,0,0,0,-1,1315,1226,0,0
98,-202,0,0,0,0,0,0,0,0,0,-1,1322,1226,0,0
105,-202,0,0,0,0,0,0,0,0,0,-1,1329,1226,0,0
112,-202,0,0,0,0,0,0,0,0,0,-1,1336,1226,0,0
119,-202,0,0,0,0,0,0,0,0,0,-1,1343,1226,0,0
126,-202,0,0,0,0,0,0,0,0,0,-1,1350,1226,0,0
133,-202,0,0,0,0,0,0,0,0,0,-1,1357,1226,0,0
140,-202,0,0,0,0,0,0,0,0,0,-1,1364,1226,0,0
147,-202,0,0,0,0,0,0,0,0,0,-1,1371,1226,0,0
154,-202,0,0,0,0,0,0,0,0,0,-1,1378,1226,0,0
161,-202,0,0,0,0,0,0,0,0,0,-1,1385,1226,0,0
168,-202,0,0,0,0,0,0,0,0,0,-1,1392,1226,0,0
175,-202,0,0,0,0,0,0,0,0,0,-1,1399,1226,0,0
182,-202,0,0,0,0,0,0,0,0,0,-1,1406,1226,0,0
189,-202,0,0,0,0,0,0,0,0,0,-1,1413,1226,0,0
196,-202,0,0,0,0,0,0,0,0,0,-1,1420,1226,0,0
203,-202,0,0,0,0,0,0,0,0,0,-1,1427,1226,0,0
210,-202,0,0,0,0,0,0,0,0,0,-1,1434,1226,0,0
217,-202,0,0,0,0,0,0,0,0,0,-1,1441,1226,0,0
224,-202,0,0,0,0,0,0,0,0,0,-1,1448,1226,0,0
231,-202,0,0,0,0,0,0,0,0,0,-1,1455,1226,0,0
238,-202,0,0,0,0,0,0,0,0,0,-1,1462,1226,0,0
245,-202,0,0,0,0,0,0,0,0,0,-1,1469,1226,0,0
252,-202,0,0,0,0,0,0,0,0,0,-1,1476,1226,0,0
259,-202,0,0,0,0,0,0,0,0,0,-1,1483,1226,0,0
266,-202,0,0,0,0,0,0,0,0,0,-1,1490,1226,0,0
273,-202,0,0,0,0,0,0,0,0,0,-1,1497,1226,0,0
280,-202,0,0,0,0,0,0,0,0,0,-1,1504,1226,0,0
287,-202,0,0,0,0,0,0,0,0,0,-1,1511,1226,0,0
294,-202,0,0,0,0,0,0,0,0,0,-1,1518,1226,0,0
301,-202,0,0,0,0,0,0,0,0,0,-1,1525,1226,0,0
308,-202,0,0,0,0,0,0,0,0,0,-1,1532,1226,0,0
315,-202,0,0,0,0,0,0,0,0,0,-1,1539,1226,0,0
322,-202,0,0,0,0,0,0,0,0,0,-1,1546,1226,0,0
329,-202,0,0,0,0,0,0,0,0,0,-1,1553,1226,0,0
336,-202,0,0,0,0,0,0,0,0,0,-1,1560,1226,0,0
343,-202,0,0,0,0,0,0,0,0,0,-1,1567,1226,0,0
350,-202,0,0,0,0,0,0,0,0,0,-1,1574,1226,0,0
357,-202,0,0,0,0,0,0,0,0,0,-1,1581,1226,0,0
364,-202,0,0,0,0,0,0,0,0,0,-1,1588,1226,0,0
371,-202,0,0,0,0,0,0,0,0,0,-1,1595,1226,0,0
378,-202,0,0,0,0,0,0,0,0,0,-1,1602,1226,0,0
385,-202,0,0,0,0,0,0,0,0,0,-1,1609,1226,0,0
392,-202,0,0,0,0,0,0,0,0,0,-1,1616,1226,0,0
399,-202,0,0,0,0,0,0,0,0,0,-1,1623,1226,0,0
406,-202,0,0,0,0,0,0,0,0,0,-1,1630,1226,0,0
413,-202,0,0,0,0,0,0,0,0,0,-1,1637,1226,0,0
420,-202,0,0,0,0,0,0,0,0,0,-1,1644,1226,0,0
427,-202,0,0,0,0,0,0,0,0,0,-1,1651,1226,0,0
434,-202,0,0,0,0,0,0,0,0,0,-1,1658,1226,0,0
441,-202,0,0,0,0,0,0,0,0,0,-1,1665,1226,0,0
448,-202,0,0,0,0,0,0,0,0,0,-1,1672,1226,0,0
455,-202,0,0,0,0,0,0,0,0,0,-1,1679,1226,0,0
462,-202,0,0,0,0,0,0,0,0,0,-1,1686,1226,0,0
469,-202,0,0,0,0,0,0,0,0,0,-1,1693,1226,0,0
476,-202,0,0,0,0,0,0,0,0,0,-1,1700,1226,0,0
483,-202,0,0,0,0,0,0,0,0,0,-1,1707,1226,0,0
490,-202,0,0,0,0,0,0,0,0,0,-1,1714,1226,0,0
497,-202,0,0,0,0,0,0,0,0,0,-1,1721,1226,0,0
504,-202,0,0,0,0,0,0,0,0,0,-1,1728,1226,0,0
511,-202,0,0,0,0,0,0,0,0,0,-1,1735,1226,0,0
518,-202,0,0,0,0,0,0,0,0,0,-1,1742,1226,0,0
525,-202,0,0,0,0,0,0,0,0,0,-1,1749,1226,0,0
532,-202,0,0,0,0,0,0,0,0,0,-1,1756,1226,0,0
539,-202,0,0,0,0,0,0,0,0,0,-1,1763,1226,0,0
546,-202,0,0,0,0,0,0,0,0,0,-1,1770,1226,0,0
553,-202,0,0,0,0,0,0,0,0,0,-1,1777,1226,0,0
560,-202,0,0,0,0,0,0,0,0,0,-1,1784,1226,0,0
567,-202,0,0,0,0,0,0,0,0,0,-1,1791,1226,0,0
574,-202,0,0,0,0,0,0,0,0,0,-1,1798,1226,0,0
581,-202,0,0,0,0,0,0,0,0,0,-1,1805,1226,0,0
588,-202,0,0,0,0,0,0,0,0,0,-1,1812,1226,0,0
595,-202,0,0,0,0,0,0,0,0,0,-1,1819,1226,0,0
602,-202,0,0,0,0,0,0,0,0,0,-1,1826,1226,0,0
609,-202,0,0,0,0,0,0,0,0,0,-1,1833,1226,0,0
616,-202,0,0,0,0,0,0,0,0,0,-1,1840,1226,0,0
623,-202,0,0,0,0,0,0,0,0,0,-1,1847,1226,0,0
630,-202,70.7682,2.31885,0.00257345,0.000243051,-0.00183577,0.00358259,-0.000766082,-0.502618,0.00268049,0.0378895,1854,1226,70.7682,-2.31887
637,-202,70.8667,2.32507,0.00226732,0.000819777,-0.00189135,0.00356866,-0.000481557,-0.602657,0.0025548,0.035296,1861,1226,70.8667,-2.32501
644,-202,70.9808,2.26135,0.00196243,0.00161144,-0.00212143,0.00391561,-0.000341739,-0.744129,0.00273146,0.0342965,1868,1226,70.9808,-2.26141
651,-202,70.9249,2.18079,0.00171872,0.00230427,-0.00232498,0.00435483,-0.000331847,-0.848031,0.00301992,0.0276628,1875,1226,70.9249,-2.18076
658,-202,70.881,2.18604,0.00137,0.00239891,-0.00195082,0.00390197,-0.000133059,-0.914319,0.00264678,0.0211569,1882,1226,70.881,-2.18599
665,-202,70.8986,2.1615,0.00103956,0.00215794,-0.00144849,0.00315143,4.60674e-05,-0.969608,0.00208577,0.0197282,1889,1226,70.8986,-2.16145
672,-202,70.9634,1.9895,0,0,0,0,0,0,0,-1,1896,1226,70.9633,-1.98946
679,-202,70.1797,2.4928,0,0,0,0,0,0,0,-1,1903,1226,70.1796,-2.49282
686,-202,49.1708,2.15198,0,0,0,0,0,0,0,-1,1910,1226,49.1708,-2.15195
693,-202,52.1176,12.0886,0,0,0,0,0,0,0,-1,1917,1226,52.1176,-12.0886
700,-202,56.6418,12.0232,0,0,0,0,0,0,0,-1,1924,1226,56.6418,-12.0232
707,-202,56.5454,11.1899,0.00060834,0.0012163,-0.000232941,0.00129529,0.000529351,-1.24387,0.000751981,0.0321133,1931,1226,56.5454,-11.1899
714,-202,56.4315,10.6277,0.000979408,0.00111219,-0.000226243,0.00128158,0.000810017,-0.928121,0.000748474,0.0377516,1938,1226,56.4316,-10.6277
721,-202,56.4238,10.0688,0.00121937,0.00068665,3.11089e-05,0.00122118,0.000684839,0.0581335,0.000706782,0.0261465,1945,1226,56.4238,-10.0688
728,-202,56.4332,9.23889,0.0013658,0.000175586,0.000441002,0.00151139,2.99942e-05,0.318873,0.000997748,0.0118598,1952,1226,56.4333,-9.23884
735,-202,56.4011,8.5603,0.00117001,0.000305115,0.000903591,0.0017393,-0.00026418,0.562212,0.00125689,0.0117525,1959,1226,56.4011,-8.56025
742,-202,56.3618,7.8938,0.000706193,0.000424843,0.00155065,0.00212253,-0.000991499,0.740162,0.00183699,0.0126393,1966,1226,56.3618,-7.89382
749,-202,56.3037,7.24146,0.000141415,0.000654924,0.00236968,0.00278172,-0.00198538,0.839363,0.00276505,0.0131191,1973,1226,56.3037,-7.2414
756,-202,56.3069,6.60083,-0.000337963,0.000914306,0.00334801,0.00369423,-0.00311789,0.877839,0.00393767,0.0127013,1980,1226,56.3069,-6.6008
763,-202,56.3713,5.94727,-0.000840194,0.00112054,0.00473268,0.00497332,-0.00469298,0.887528,0.00558162,0.0264481,1987,1226,56.3713,-5.94723
770,-202,56.4104,5.34485,0,0,0,0,0,0,0,-1,1994,1226,56.4104,-5.34485
777,-202,67.5615,-0.236572,0,0,0,0,0,0,0,-1,2001,1226,67.5615,0.236573
784,-202,66.7117,0.754517,0,0,0,0,0,0,0,-1,2008,1226,66.7118,-0.754543
791,-202,66.512,1.74207,0,0,0,0,0,0,0,-1,2015,1226,66.512,-1.74201
798,-202,51.8999,3.58789,0,0,0,0,0,0,0,-1,2022,1226,51.9,-3.58791
805,-202,0,0,0,0,0,0,0,0,0,-1,2029,1226,0,0
812,-202,0,0,0,0,0,0,0,0,0,-1,2036,1226,0,0
-700,-209,0,0,0,0,0,0,0,0,0,-1,524,1233,0,0
-693,-209,0,0,0,0,0,0,0,0,0,-1,531,1233,0,0
-686,-209,0,0,0,0,0,0,0,0,0,-1,538,1233,0,0
-679,-209,-36.337,1.48828,0,0,0,0,0,0,0,-1,545,1233,-36.337,-1.48828
-672,-209,-40.1313,-0.0955811,0,0,0,0,0,0,0,-1,552,1233,-40.1313,0.0955687
-665,-209,-38.1835,2.77393,0,0,0,0,0,0,0,-1,559,1233,-38.1835,-2.7739
-658,-209,-40.528,2.2196,0,0,0,0,0,0,0,-1,566,1233,-40.528,-2.21965
-651,-209,-37.7562,3.28711,0,0,0,0,0,0,0,-1,573,1233,-37.7562,-3.28708
-644,-209,-43.4648,-7.04663,0,0,0,0,0,0,0,-1,580,1233,-43.4648,7.04659
-637,-209,-39.2964,3.51709,0,0,0,0,0,0,0,-1,587,1233,-39.2964,-3.51704
-630,-209,-39.3481,4.24756,0.0219423,0.00665703,-0.00712619,0.0247492,0.00385015,-0.375221,0.0153776,0.0403657,594,1233,-39.3481,-4.24761
-623,-209,-39.4963,5.01526,0.0119311,0.00333138,-0.0040241,0.0135204,0.00174208,-0.376142,0.00849266,0.0177631,601,1233,-39.4963,-5.01526
-616,-209,-39.5368,5.73303,0.00524379,0.000779707,-0.00207869,0.00606182,-3.83265e-05,-0.37492,0.00405405,0.0133278,608,1233,-39.5368,-5.73308
-609,-209,-39.5796,6.44434,0.00178017,0.000338863,-0.00110292,0.00237701,-0.00025797,-0.496015,0.00167729,0.0148173,615,1233,-39.5796,-6.44439
-602,-209,-39.6462,7.15808,0.000105191,9.59922e-05,-0.00109643,0.00119703,-0.00099585,-0.783301,0.00126784,0.0168873,622,1233,-39.6462,-7.15812
-595,-209,-39.6716,7.87427,-0.000687045,-0.000338687,-0.00154172,0.00103866,-0.00206439,-0.841648,0.00182388,0.0163377,629,1233,-39.6716,-7.87422
-588,-209,-39.7753,8.59729,-0.000994716,-0.00122451,-0.00201647,0.000910123,-0.00312935,-0.756939,0.0024467,0.0354235,636,1233,-39.7754,-8.5973
-581,-209,-39.6658,9.05811,0,0,0,0,0,0,0,-1,643,1233,-39.6658,-9.05805
-574,-209,-33.4955,9.52966,0,0,0,0,0,0,0,-1,650,1233,-33.4955,-9.52972
-567,-209,-26.2951,6.92981,0,0,0,0,0,0,0,-1,657,1233,-26.2951,-6.92986
-560,-209,-13.9294,4.16626,0,0,0,0,0,0,0,-1,664,1233,-13.9294,-4.16621
-553,-209,-22.7542,0.748779,0,0,0,0,0,0,0,-1,671,1233,-22.7541,-0.748796
-546,-209,-44.691,0.142822,0,0,0,0,0,0,0,-1,678,1233,-44.6911,-0.142844
-539,-209,-53.787,0.277954,0,0,0,0,0,0,0,-1,685,1233,-53.787,-0.278003
-532,-209,-53.9354,0.477783,0,0,0,0,0,0,0,-1,692,1233,-53.9354,-0.477762
-525,-209,-54.112,0.60791,0,0,0,0,0,0,0,-1,699,1233,-54.112,-0.60785
-518,-209,-54.3101,0.75415,0,0,0,0,0,0,0,-1,706,1233,-54.3101,-0.754123
-511,-209,-54.4058,0.860229,0,0,0,0,0,0,0,-1,713,1233,-54.4058,-0.860177
-504,-209,0,0,0,0,0,0,0,0,0,-1,720,1233,0,0
-497,-209,0,0,0,0,0,0,0,0,0,-1,727,1233,0,0
-490,-209,0,0,0,0,0,0,0,0,0,-1,734,1233,0,0
-483,-209,0,0,0,0,0,0,0,0,0,-1,741,1233,0,0
-476,-209,0,0,0,0,0,0,0,0,0,-1,748,1233,0,0
-469,-209,0,0,0,0,0,0,0,0,0,-1,755,1233,0,0
-462,-209,0,0,0,0,0,0,0,0,0,-1,762,1233,0,0
-455,-209,0,0,0,0,0,0,0,0,0,-1,769,1233,0,0
-448,-209,0,0,0,0,0,0,0,0,0,-1,776,1233,0,0
-441,-209,0,0,0,0,0,0,0,0,0,-1,783,1233,0,0
-434,-209,0,0,0,0,0,0,0,0,0,-1,790,1233,0,0
-427,-209,0,0,0,0,0,0,0,0,0,-1,797,1233,0,0
-420,-209,0,0,0,0,0,0,0,0,0,-1,804,1233,0,0
-413,-209,0,0,0,0,0,0,0,0,0,-1,811,1233,0,0
-406,-209,0,0,0,0,0,0,0,0,0,-1,818,1233,0,0
-399,-209,0,0,0,0,0,0,0,0,0,-1,825,1233,0,0
-392,-209,0,0,0,0,0,0,0,0,0,-1,832,1233,0,0
-385,-209,0,0,0,0,0,0,0,0,0,-1,839,1233,0,0
-378,-209,0,0,0,0,0,0,0,0,0,-1,846,1233,0,0
-371,-209,0,0,0,0,0,0,0,0,0,-1,853,1233,0,0
-364,-209,0,0,0,0,0,0,0,0,0,-1,860,1233,0,0
-357,-209,0,0,0,0,0,0,0,0,0,-1,867,1233,0,0
-350,-209,0,0,0,0,0,0,0,0,0,-1,874,1233,0,0
-343,-209,0,0,0,0,0,0,0,0,0,-1,881,1233,0,0
-336,-209,0,0,0,0,0,0,0,0,0,-1,888,1233,0,0
-329,-209,0,0,0,0,0,0,0,0,0,-1,895,1233,0,0
-322,-209,0,0,0,0,0,0,0,0,0,-1,902,1233,0,0
-315,-209,0,0,0,0,0,0,0,0,0,-1,909,1233,0,0
-308,-209,0,0,0,0,0,0,0,0,0,-1,916,1233,0,0
-301,-209,0,0,0,0,0,0,0,0,0,-1,923,1233,0,0
-294,-209,0,0,0,0,0,0,0,0,0,-1,930,1233,0,0
-287,-209,0,0,0,0,0,0,0,0,0,-1,937,1233,0,0
-280,-209,0,0,0,0,0,0,0,0,0,-1,944,1233,0,0
-273,-209,0,0,0,0,0,0,0,0,0,-1,951,1233,0,0
-266,-209,0,0,0,0,0,0,0,0,0,-1,958,1233,0,0
-259,-209,0,0,0,0,0,0,0,0,0,-1,965,1233,0,0
-252,-209,0,0,0,0,0,0,0,0,0,-1,972,1233,0,0
-245,-209,0,0,0,0,0,0,0,0,0,-1,979,1233,0,0
-238,-209,0,0,0,0,0,0,0,0,0,-1,986,1233,0,0
-231,-209,0,0,0,0,0,0,0,0,0,-1,993,1233,0,0
-224,-209,0,0,0,0,0,0,0,0,0,-1,1000,1233,0,0
-217,-209,0,0,0,0,0,0,0,0,0,-1,1007,1233,0,0
-210,-209,0,0,0,0,0,0,0,0,0,-1,1014,1233,0,0
-203,-209,0,0,0,0,0,0,0,0,0,-1,1021,1233,0,0
-196,-209,0,0,0,0,0,0,0,0,0,-1,1028,1233,0,0
-189,-209,0,0,0,0,0,0,0,0,0,-1,1035,1233,0,0
-182,-209,0,0,0,0,0,0,0,0,0,-1,1042,1233,0,0
-175,-209,0,0,0,0,0,0,0,0,0,-1,1049,1233,0,0
-168,-209,0,0,0,0,0,0,0,0,0,-1,1056,1233,0,0
-161,-209,0,0,0,0,0,0,0,0,0,-1,1063,1233,0,0
-154,-209,0,0,0,0,0,0,0,0,0,-1,1070,1233,0,0
-147,-209,0,0,0,0,0,0,0,0,0,-1,1077,1233,0,0
-140,-209,0,0,0,0,0,0,0,0,0,-1,1084,1233,0,0
-133,-209,0,0,0,0,0,0,0,0,0,-1,1091,1233,0,0
-126,-209,0,0,0,0,0,0,0,0,0,-1,1098,1233,0,0
-119,-209,0,0,0,0,0,0,0,0,0,-1,1105,1233,0,0
-112,-209,0,0,0,0,0,0,0,0,0,-1,1112,1233,0,0
-105,-209,0,0,0,0,0,0,0,0,0,-1,1119,1233,0,0
-98,-209,0,0,0,0,0,0,0,0,0,-1,1126,1233,0,0
-91,-209,0,0,0,0,0,0,0,0,0,-1,1133,1233,0,0
-84,-209,0,0,0,0,0,0,0,0,0,-1,1140,1233,0,0
-77,-209,0,0,0,0,0,0,0,0,0,-1,1147,1233,0,0
-70,-209,0,0,0,0,0,0,0,0,0,-1,1154,1233,0,0
-63,-209,0,0,0,0,0,0,0,0,0,-1,1161,1233,0,0
-56,-209,0,0,0,0,0,0,0,0,0,-1,1168,1233,0,0
-49,-209,0,0,0,0,0,0,0,0,0,-1,1175,1233,0,0
-42,-209,0,0,0,0,0,0,0,0,0,-1,1182,1233,0,0
-35,-209,0,0,0,0,0,0,0,0,0,-1,1189,1233,0,0
-28,-209,0,0,0,0,0,0,0,0,0,-1,1196,1233,0,0
-21,-209,0,0,0,0,0,0,0,0,0,-1,1203,1233,0,0
-14,-209,0,0,0,0,0,0,0,0,0,-1,1210,1233,0,0
-7,-209,0,0,0,0,0,0,0,0,0,-1,1217,1233,0,0
0,-209,0,0,0,0,0,0,0,0,0,-1,1224,1233,0,0
7,-209,0,0,0,0,0,0,0,0,0,-1,1231,1233,0,0
14,-209,0,0,0,0,0,0,0,0,0,-1,1238,1233,0,0
21,-209,0,0,0,0,0,0,0,0,0,-1,1245,1233,0,0
28,-209,0,0,0,0,0,0,0,0,0,-1,1252,1233,0,0
35,-209,0,0,0,0,0,0,0,0,0,-1,1259,1233,0,0
42,-209,0,0,0,0,0,0,0,0,0,-1,1266,1233,0,0
49,-209,0,0,0,0,0,0,0,0,0,-1,1273,1233,0,0
56,-209,0,0,0,0,0,0,0,0,0,-1,1280,1233,0,0
63,-209,0,0,0,0,0,0,0,0,0,-1,1287,1233,0,0
70,-209,0,0,0,0,0,0,0,0,0,-1,1294,1233,0,0
77,-209,0,0,0,0,0,0,0,0,0,-1,1301,1233,0,0
84,-209,0,0,0,0,0,0,0,0,0,-1,1308,1233,0,0
91,-209,0,0,0,0,0,0,0,0,0,-1,1315,1233,0,0
98,-209,0,0,0,0,0,0,0,0,0,-1,1322,1233,0,0
105,-209,0,0,0,0,0,0,0,0,0,-1,1329,1233,0,0
112,-209,0,0,0,0,0,0,0,0,0,-1,1336,1233,0,0
119,-209,0,0,0,0,0,0,0,0,0,-1,1343,1233,0,0
126,-209,0,0,0,0,0,0,0,0,0,-1,1350,1233,0,0
133,-209,0,0,0,0,0,0,0,0,0,-1,1357,1233,0,0
140,-209,0,0,0,0,0,0,0,0,0,-1,1364,1233,0,0
147,-209,0,0,0,0,0,0,0,0,0,-1,1371,1233,0,0
154,-209,0,0,0,0,0,0,0,0,0,-1,1378,1233,0,0
161,-209,0,0,0,0,0,0,0,0,0,-1,1385,1233,0,0
168,-209,0,0,0,0,0,0,0,0,0,-1,1392,1233,0,0
175,-209,0,0,0,0,0,0,0,0,0,-1,1399,1233,0,0
182,-209,0,0,0,0,0,0,0,0,0,-1,1406,1233,0,0
189,-209,0,0,0,0,0,0,0,0,0,-1,1413,1233,0,0
196,-209,0,0,0,0,0,0,0,0,0,-1,1420,1233,0,0
203,-209,0,0,0,0,0,0,0,0,0,-1,1427,1233,0,0
210,-209,0,0,0,0,0,0,0,0,0,-1,1434,1233,0,0
217,-209,0,0,0,0,0,0,0,0,0,-1,1441,1233,0,0
224,-209,0,0,0,0,0,0,0,0,0,-1,1448,1233,0,0
231,-209,0,0,0,0,0,0,0,0,0,-1,1455,1233,0,0
238,-209,0,0,0,0,0,0,0,0,0,-1,1462,1233,0,0
245,-209,0,0,0,0,0,0,0,0,0,-1,1469,1233,0,0
252,-209,0,0,0,0,0,0,0,0,0,-1,1476,1233,0,0
259,-209,0,0,0,0,0,0,0,0,0,-1,1483,1233,0,0
266,-209,0,0,0,0,0,0,0,0,0,-1,1490,1233,0,0
273,-209,0,0,0,0,0,0,0,0,0,-1,1497,1233,0,0
280,-209,0,0,0,0,0,0,0,0,0,-1,1504,1233,0,0
287,-209,0,0,0,0,0,0,0,0,0,-1,1511,1233,0,0
294,-209,0,0,0,0,0,0,0,0,0,-1,1518,1233,0,0
301,-209,0,0,0,0,0,0,0,0,0,-1,1525,1233,0,0
308,-209,0,0,0,0,0,0,0,0,0,-1,1532,1233,0,0
315,-209,0,0,0,0,0,0,0,0,0,-1,1539,1233,0,0
322,-209,0,0,0,0,0,0,0,0,0,-1,1546,1233,0,0
329,-209,0,0,0,0,0,0,0,0,0,-1,1553,1233,0,0
336,-209,0,0,0,0,0,0,0,0,0,-1,1560,1233,0,0
343,-209,0,0,0,0,0,0,0,0,0,-1,1567,1233,0,0
350,-209,0,0,0,0,0,0,0,0,0,-1,1574,1233,0,0
357,-209,0,0,0,0,0,0,0,0,0,-1,1581,1233,0,0
364,-209,0,0,0,0,0,0,0,0,0,-1,1588,1233,0,0
371,-209,0,0,0,0,0,0,0,0,0,-1,1595,1233,0,0
378,-209,0,0,0,0,0,0,0,0,0,-1,1602,1233,0,0
385,-209,0,0,0,0,0,0,0,0,0,-1,1609,1233,0,0
392,-209,0,0,0,0,0,0,0,0,0,-1,1616,1233,0,0
399,-209,0,0,0,0,0,0,0,0,0,-1,1623,1233,0,0
406,-209,0,0,0,0,0,0,0,0,0,-1,1630,1233,0,0
413,-209,0,0,0,0,0,0,0,0,0,-1,1637,1233,0,0
420,-209,0,0,0,0,0,0,0,0,0,-1,1644,1233,0,0
427,-209,0,0,0,0,0,0,0,0,0,-1,1651,1233,0,0
434,-209,0,0,0,0,0,0,0,0,0,-1,1658,1233,0,0
441,-209,0,0,0,0,0,0,0,0,0,-1,1665,1233,0,0
448,-209,0,0,0,0,0,0,0,0,0,-1,1672,1233,0,0
455,-209,0,0,0,0,0,0,0,0,0,-1,1679,1233,0,0
462,-209,0,0,0,0,0,0,0,0,0,-1,1686,1233,0,0
469,-209,0,0,0,0,0,0,0,0,0,-1,1693,1233,0,0
476,-209,0,0,0,0,0,0,0,0,0,-1,1700,1233,0,0
483,-209,0,0,0,0,0,0,0,0,0,-1,1707,1233,0,0
490,-209,0,0,0,0,0,0,0,0,0,-1,1714,1233,0,0
497,-209,0,0,0,0,0,0,0,0,0,-1,1721,1233,0,0
504,-209,0,0,0,0,0,0,0,0,0,-1,1728,1233,0,0
511,-209,0,0,0,0,0,0,0,0,0,-1,1735,1233,0,0
518,-209,0,0,0,0,0,0,0,0,0,-1,1742,1233,0,0
525,-209,0,0,0,0,0,0,0,0,0,-1,1749,1233,0,0
532,-209,0,0,0,0,0,0,0,0,0,-1,1756,1233,0,0
539,-209,0,0,0,0,0,0,0,0,0,-1,1763,1233,0,0
546,-209,0,0,0,0,0,0,0,0,0,-1,1770,1233,0,0
553,-209,0,0,0,0,0,0,0,0,0,-1,1777,1233,0,0
560,-209,0,0,0,0,0,0,0,0,0,-1,1784,1233,0,0
567,-209,0,0,0,0,0,0,0,0,0,-1,1791,1233,0,0
574,-209,0,0,0,0,0,0,0,0,0,-1,1798,1233,0,0
581,-209,0,0,0,0,0,0,0,0,0,-1,1805,1233,0,0
588,-209,0,0,0,0,0,0,0,0,0,-1,1812,1233,0,0
595,-209,0,0,0,0,0,0,0,0,0,-1,1819,1233,0,0
602,-209,0,0,0,0,0,0,0,0,0,-1,1826,1233,0,0
609,-209,0,0,0,0,0,0,0,0,0,-1,1833,1233,0,0
616,-209,0,0,0,0,0,0,0,0,0,-1,1840,1233,0,0
623,-209,70.7366,2.32813,0.00259526,0.00101589,-0.00236314,0.00429717,-0.000686021,-0.624147,0.00311871,0.033033,1847,1233,70.7366,-2.32814
630,-209,70.7587,2.34155,0.00222541,0.00120075,-0.00237997,0.00414757,-0.000721416,-0.679382,0.00303424,0.0339457,1854,1233,70.7587,-2.34157
637,-209,70.8539,2.24487,0.00192891,0.0015866,-0.00250781,0.0042714,-0.000755881,-0.751327,0.00313013,0.0339533,1861,1233,70.8539,-2.24491
644,-209,70.916,2.15466,0.00169593,0.00213495,-0.00272169,0.00464596,-0.000815087,-0.825637,0.00340171,0.0305619,1868,1233,70.916,-2.15471
651,-209,70.8961,2.14771,0.00154346,0.00245343,-0.00271753,0.0047538,-0.000756915,-0.868342,0.0034493,0.0241615,1875,1233,70.8961,-2.14771
658,-209,70.8834,2.19006,0.00129887,0.00223978,-0.00210227,0.00392359,-0.000384944,-0.895476,0.00275303,0.0201657,1882,1233,70.8834,-2.19012
665,-209,70.9109,2.11279,0.0010313,0.00191631,-0.00152889,0.00306544,-0.000117833,-0.926262,0.00208402,0.0341774,1889,1233,70.9109,-2.11274
672,-209,70.9766,1.97327,0,0,0,0,0,0,0,-1,1896,1233,70.9765,-1.97326
679,-209,55.2465,2.78674,0,0,0,0,0,0,0,-1,1903,1233,55.2464,-2.78678
686,-209,33.3711,3.89856,0,0,0,0,0,0,0,-1,1910,1233,33.3711,-3.89855
693,-209,55.6996,12.7993,0,0,0,0,0,0,0,-1,1917,1233,55.6996,-12.7993
700,-209,55.7529,11.9985,0,0,0,0,0,0,0,-1,1924,1233,55.7529,-11.9986
707,-209,55.7537,11.2909,0.000428173,0.00115762,-5.847e-05,0.00116227,0.000423516,-1.49132,0.000679217,0.0363722,1931,1233,55.7537,-11.2909
714,-209,55.7228,10.681,0.000788452,0.00100867,-1.21168e-05,0.00100934,0.000787787,-1.516,0.000612547,0.0243704,1938,1233,55.7227,-10.681
721,-209,55.7848,9.9375,0.000955399,0.000532097,0.000296626,0.00110814,0.000379353,0.475524,0.000650303,0.0136398,1945,1233,55.7848,-9.93755
728,-209,55.7855,9.27246,0.000882925,6.15537e-05,0.000756834,0.00133332,-0.000388842,0.536812,0.00104294,0.0139509,1952,1233,55.7855,-9.27251
735,-209,55.7362,8.61646,0.000442131,0.000178343,0.00127771,0.00159474,-0.000974266,0.733967,0.00149757,0.016736,1959,1233,55.7362,-8.6165
742,-209,55.6798,7.9353,-0.000209094,0.00031194,0.00197032,0.00203889,-0.00193605,0.851127,0.00229519,0.0161832,1966,1233,55.6799,-7.93535
749,-209,55.6204,7.26489,-0.00090465,0.000507799,0.00281551,0.00270431,-0.00310116,0.90828,0.0033544,0.0145052,1973,1233,55.6204,-7.26491
756,-209,55.609,6.62158,-0.00151474,0.000719261,0.00382165,0.00358381,-0.00437929,0.927578,0.00460514,0.0130044,1980,1233,55.6091,-6.62157
763,-209,55.5747,6.07727,-0.00215273,0.000856736,0.0052674,0.00483012,-0.00612612,0.924527,0.00634032,0.0270969,1987,1233,55.5747,-6.07726
770,-209,55.646,5.69482,0,0,0,0,0,0,0,-1,1994,1233,55.646,-5.69481
777,-209,68.0347,-0.36377,0,0,0,0,0,0,0,-1,2001,1233,68.0346,0.363742
784,-209,67.6289,0.771729,0,0,0,0,0,0,0,-1,2008,1233,67.6289,-0.771742
791,-209,67.1841,1.90906,0,0,0,0,0,0,0,-1,2015,1233,67.1841,-1.90909
798,-209,53.6404,3.71179,0,0,0,0,0,0,0,-1,2022,1233,53.6404,-3.71185
805,-209,0,0,0,0,0,0,0,0,0,-1,2029,1233,0,0
812,-209,0,0,0,0,0,0,0,0,0,-1,2036,1233,0,0
-700,-216,0,0,0,0,0,0,0,0,0,-1,524,1240,0,0
-693,-216,0,0,0,0,0,0,0,0,0,-1,531,1240,0,0
-686,-216,0,0,0,0,0,0,0,0,0,-1,538,1240,0,0
-679,-216,-36.7546,1.03992,0,0,0,0,0,0,0,-1,545,1240,-36.7546,-1.03987
-672,-216,-38.5297,1.10828,0,0,0,0,0,0,0,-1,552,1240,-38.5297,-1.1083
-665,-216,-39.902,1.93457,0,0,0,0,0,0,0,-1,559,1240,-39.902,-1.93453
-658,-216,-41.7407,1.98083,0,0,0,0,0,0,0,-1,566,1240,-41.7407,-1.98077
-651,-216,-42.788,-8.0509,0,0,0,0,0,0,0,-1,573,1240,-42.788,8.05092
-644,-216,-45.6099,1.72839,0,0,0,0,0,0,0,-1,580,1240,-45.6099,-1.72843
-637,-216,-38.5392,3.38318,0,0,0,0,0,0,0,-1,587,1240,-38.5392,-3.3832
-630,-216,-38.5697,4.30615,0.0209215,0.00613801,-0.00605743,0.0230864,0.00397306,-0.343256,0.0142524,0.0496814,594,1240,-38.5697,-4.30618
-623,-216,-38.7361,5.15015,0.0116169,0.00317605,-0.00326135,0.0127302,0.00206277,-0.328953,0.0078896,0.0230746,601,1240,-38.7361,-5.1501
-616,-216,-38.822,5.78674,0.00549021,0.000931817,-0.00158773,0.00598872,0.000433311,-0.304227,0.00385617,0.0140244,608,1240,-38.8219,-5.78674
-609,-216,-38.859,6.51196,0.00217235,0.000455044,-0.000742481,0.00244885,0.000178549,-0.356484,0.00157642,0.0137187,615,1240,-38.859,-6.51192
-602,-216,-38.9023,7.17285,0.000444354,9.77994e-05,-0.000725215,0.00101671,-0.000474552,-0.668131,0.00087974,0.0134516,622,1240,-38.9023,-7.17285
-595,-216,-38.9058,7.86157,-0.000387114,-0.00046878,-0.00115342,0.000726192,-0.00158209,-0.767705,0.00136288,0.0188014,629,1240,-38.9058,-7.86151
-588,-216,-38.9292,8.53528,-0.000914764,-0.00143718,-0.00159414,0.000439422,-0.00279137,-0.704192,0.00202336,0.0304019,636,1240,-38.9292,-8.53527
-581,-216,-39.0093,9.01648,0,0,0,0,0,0,0,-1,643,1240,-39.0094,-9.01649
-574,-216,-39.26,9.85864,0,0,0,0,0,0,0,-1,650,1240,-39.26,-9.85869
-567,-216,-33.4159,9.56567,0,0,0,0,0,0,0,-1,657,1240,-33.4159,-9.56565
-560,-216,-16.5087,5.4574,0,0,0,0,0,0,0,-1,664,1240,-16.5087,-5.45746
-553,-216,-16.2355,1.22351,0,0,0,0,0,0,0,-1,671,1240,-16.2356,-1.22356
-546,-216,-37.1617,-0.25415,0,0,0,0,0,0,0,-1,678,1240,-37.1618,0.254161
-539,-216,-47.7817,1.47327,0,0,0,0,0,0,0,-1,685,1240,-47.7818,-1.4733
-532,-216,-53.785,0.386475,0,0,0,0,0,0,0,-1,692,1240,-53.785,-0.386431
-525,-216,-54.011,0.67981,0,0,0,0,0,0,0,-1,699,1240,-54.011,-0.679826
-518,-216,-54.2352,0.742798,0,0,0,0,0,0,0,-1,706,1240,-54.2352,-0.742805
-511,-216,-54.364,0.781372,0,0,0,0,0,0,0,-1,713,1240,-54.364,-0.781369
-504,-216,-54.0881,0.363281,0,0,0,0,0,0,0,-1,720,1240,-54.0882,-0.363318
-497,-216,0,0,0,0,0,0,0,0,0,-1,727,1240,0,0
-490,-216,0,0,0,0,0,0,0,0,0,-1,734,1240,0,0
-483,-216,0,0,0,0,0,0,0,0,0,-1,741,1240,0,0
-476,-216,0,0,0,0,0,0,0,0,0,-1,748,1240,0,0
-469,-216,0,0,0,0,0,0,0,0,0,-1,755,1240,0,0
-462,-216,0,0,0,0,0,0,0,0,0,-1,762,1240,0,0
-455,-216,0,0,0,0,0,0,0,0,0,-1,769,1240,0,0
-448,-216,0,0,0,0,0,0,0,0,0,-1,776,1240,0,0
-441,-216,0,0,0,0,0,0,0,0,0,-1,783,1240,0,0
-434,-216,0,0,0,0,0,0,0,0,0,-1,790,1240,0,0
-427,-216,0,0,0,0,0,0,0,0,0,-1,797,1240,0,0
-420,-216,0,0,0,0,0,0,0,0,0,-1,804,1240,0,0
-413,-216,0,0,0,0,0,0,0,0,0,-1,811,1240,0,0
-406,-216,0,0,0,0,0,0,0,0,0,-1,818,1240,0,0
-399,-216,0,0,0,0,0,0,0,0,0,-1,825,1240,0,0
-392,-216,0,0,0,0,0,0,0,0,0,-1,832,1240,0,0
-385,-216,0,0,0,0,0,0,0,0,0,-1,839,1240,0,0
-378,-216,0,0,0,0,0,0,0,0,0,-1,846,1240,0,0
-371,-216,0,0,0,0,0,0,0,0,0,-1,853,1240,0,0
-364,-216,0,0,0,0,0,0,0,0,0,-1,860,1240,0,0
-357,-216,0,0,0,0,0,0,0,0,0,-1,867,1240,0,0
-350,-216,0,0,0,0,0,0,0,0,0,-1,874,1240,0,0
-343,-216,0,0,0,0,0,0,0,0,0,-1,881,1240,0,0
-336,-216,0,0,0,0,0,0,0,0,0,-1,888,1240,0,0
-329,-216,0,0,0,0,0,0,0,0,0,-1,895,1240,0,0
-322,-216,0,0,0,0,0,0,0,0,0,-1,902,1240,0,0
-315,-216,0,0,0,0,0,0,0,0,0,-1,909,1240,0,0
-308,-216,0,0,0,0,0,0,0,0,0,-1,916,1240,0,0
-301,-216,0,0,0,0,0,0,0,0,0,-1,923,1240,0,0
-294,-216,0,0,0,0,0,0,0,0,0,-1,930,1240,0,0
-287,-216,0,0,0,0,0,0,0,0,0,-1,937,1240,0,0
-280,-216,0,0,0,0,0,0,0,0,0,-1,944,1240,0,0
-273,-216,0,0,0,0,0,0,0,0,0,-1,951,1240,0,0
-266,-216,0,0,0,0,0,0,0,0,0,-1,958,1240,0,0
-259,-216,0,0,0,0,0,0,0,0,0,-1,965,1240,0,0
-252,-216,0,0,0,0,0,0,0,0,0,-1,972,1240,0,0
-245,-216,0,0,0,0,0,0,0,0,0,-1,979,1240,0,0
-238,-216,0,0,0,0,0,0,0,0,0,-1,986,1240,0,0
-231,-216,0,0,0,0,0,0,0,0,0,-1,993,1240,0,0
-224,-216,0,0,0,0,0,0,0,0,0,-1,1000,1240,0,0
-217,-216,0,0,0,0,0,0,0,0,0,-1,1007,1240,0,0
-210,-216,0,0,0,0,0,0,0,0,0,-1,1014,1240,0,0
-203,-216,0,0,0,0,0,0,0,0,0,-1,1021,1240,0,0
-196,-216,0,0,0,0,0,0,0,0,0,-1,1028,1240,0,0
-189,-216,0,0,0,0,0,0,0,0,0,-1,1035,1240,0,0
-182,-216,0,0,0,0,0,0,0,0,0,-1,1042,1240,0,0
-175,-216,0,0,0,0,0,0,0,0,0,-1,1049,1240,0,0
-168,-216,0,0,0,0,0,0,0,0,0,-1,1056,1240,0,0
-161,-216,0,0,0,0,0,0,0,0,0,-1,1063,1240,0,0
-154,-216,0,0,0,0,0,0,0,0,0,-1,1070,1240,0,0
-147,-216,0,0,0,0,0,0,0,0,0,-1,1077,1240,0,0
-140,-216,0,0,0,0,0,0,0,0,0,-1,1084,1240,0,0
-133,-216,0,0,0,0,0,0,0,0,0,-1,1091,1240,0,0
-126,-216,0,0,0,0,0,0,0,0,0,-1,1098,1240,0,0
-119,-216,0,0,0,0,0,0,0,0,0,-1,1105,1240,0,0
-112,-216,0,0,0,0,0,0,0,0,0,-1,1112,1240,0,0
-105,-216,0,0,0,0,0,0,0,0,0,-1,1119,1240,0,0
-98,-216,0,0,0,0,0,0,0,0,0,-1,1126,1240,0,0
-91,-216,0,0,0,0,0,0,0,0,0,-1,1133,1240,0,0
-84,-216,0,0,0,0,0,0,0,0,0,-1,1140,1240,0,0
-77,-216,0,0,0,0,0,0,0,0,0,-1,1147,1240,0,0
-70,-216,0,0,0,0,0,0,0,0,0,-1,1154,1240,0,0
-63,-216,0,0,0,0,0,0,0,0,0,-1,1161,1240,0,0
-56,-216,0,0,0,0,0,0,0,0,0,-1,1168,1240,0,0
-49,-216,0,0,0,0,0,0,0,0,0,-1,1175,1240,0,0
-42,-216,0,0,0,0,0,0,0,0,0,-1,1182,1240,0,0
-35,-216,0,0,0,0,0,0,0,0,0,-1,1189,1240,0,0
-28,-216,0,0,0,0,0,0,0,0,0,-1,1196,1240,0,0
-21,-216,0,0,0,0,0,0,0,0,0,-1,1203,1240,0,0
-14,-216,0,0,0,0,0,0,0,0,0,-1,1210,1240,0,0
-7,-216,0,0,0,0,0,0,0,0,0,-1,1217,1240,0,0
0,-216,0,0,0,0,0,0,0,0,0,-1,1224,1240,0,0
7,-216,0,0,0,0,0,0,0,0,0,-1,1231,1240,0,0
14,-216,0,0,0,0,0,0,0,0,0,-1,1238,1240,0,0
21,-216,0,0,0,0,0,0,0,0,0,-1,1245,1240,0,0
28,-216,0,0,0,0,0,0,0,0,0,-1,1252,1240,0,0
35,-216,0,0,0,0,0,0,0,0,0,-1,1259,1240,0,0
42,-216,0,0,0,0,0,0,0,0,0,-1,1266,1240,0,0
49,-216,0,0,0,0,0,0,0,0,0,-1,1273,1240,0,0
56,-216,0,0,0,0,0,0,0,0,0,-1,1280,1240,0,0
63,-216,0,0,0,0,0,0,0,0,0,-1,1287,1240,0,0
70,-216,0,0,0,0,0,0,0,0,0,-1,1294,1240,0,0
77,-216,0,0,0,0,0,0,0,0,0,-1,1301,1240,0,0
84,-216,0,0,0,0,0,0,0,0,0,-1,1308,1240,0,0
91,-216,0,0,0,0,0,0,0,0,0,-1,1315,1240,0,0
98,-216,0,0,0,0,0,0,0,0,0,-1,1322,1240,0,0
105,-216,0,0,0,0,0,0,0,0,0,-1,1329,1240,0,0
112,-216,0,0,0,0,0,0,0,0,0,-1,1336,1240,0,0
119,-216,0,0,0,0,0,0,0,0,0,-1,1343,1240,0,0
126,-216,0,0,0,0,0,0,0,0,0,-1,1350,1240,0,0
133,-216,0,0,0,0,0,0,0,0,0,-1,1357,1240,0,0
140,-216,0,0,0,0,0,0,0,0,0,-1,1364,1240,0,0
147,-216,0,0,0,0,0,0,0,0,0,-1,1371,1240,0,0
154,-216,0,0,0,0,0,0,0,0,0,-1,1378,1240,0,0
161,-216,0,0,0,0,0,0,0,0,0,-1,1385,1240,0,0
168,-216,0,0,0,0,0,0,0,0,0,-1,1392,1240,0,0
175,-216,0,0,0,0,0,0,0,0,0,-1,1399,1240,0,0
182,-216,0,0,0,0,0,0,0,0,0,-1,1406,1240,0,0
189,-216,0,0,0,0,0,0,0,0,0,-1,1413,1240,0,0
196,-216,0,0,0,0,0,0,0,0,0,-1,1420,1240,0,0
203,-216,0,0,0,0,0,0,0,0,0,-1,1427,1240,0,0
210,-216,0,0,0,0,0,0,0,0,0,-1,1434,1240,0,0
217,-216,0,0,0,0,0,0,0,0,0,-1,1441,1240,0,0
224,-216,0,0,0,0,0,0,0,0,0,-1,1448,1240,0,0
231,-216,0,0,0,0,0,0,0,0,0,-1,1455,1240,0,0
238,-216,0,0,0,0,0,0,0,0,0,-1,1462,1240,0,0
245,-216,0,0,0,0,0,0,0,0,0,-1,1469,1240,0,0
252,-216,0,0,0,0,0,0,0,0,0,-1,1476,1240,0,0
259,-216,0,0,0,0,0,0,0,0,0,-1,1483,1240,0,0
266,-216,0,0,0,0,0,0,0,0,0,-1,1490,1240,0,0
273,-216,0,0,0,0,0,0,0,0,0,-1,1497,1240,0,0
280,-216,0,0,0,0,0,0,0,0,0,-1,1504,1240,0,0
287,-216,0,0,0,0,0,0,0,0,0,-1,1511,1240,0,0
294,-216,0,0,0,0,0,0,0,0,0,-1,1518,1240,0,0
301,-216,0,0,0,0,0,0,0,0,0,-1,1525,1240,0,0
308,-216,0,0,0,0,0,0,0,0,0,-1,1532,1240,0,0
315,-216,0,0,0,0,0,0,0,0,0,-1,1539,1240,0,0
322,-216,0,0,0,0,0,0,0,0,0,-1,1546,1240,0,0
329,-216,0,0,0,0,0,0,0,0,0,-1,1553,1240,0,0
336,-216,0,0,0,0,0,0,0,0,0,-1,1560,1240,0,0
343,-216,0,0,0,0,0,0,0,0,0,-1,1567,1240,0,0
350,-216,0,0,0,0,0,0,0,0,0,-1,1574,1240,0,0
357,-216,0,0,0,0,0,0,0,0,0,-1,1581,1240,0,0
364,-216,0,0,0,0,0,0,0,0,0,-1,1588,1240,0,0
371,-216,0,0,0,0,0,0,0,0,0,-1,1595,1240,0,0
378,-216,0,0,0,0,0,0,0,0,0,-1,1602,1240,0,0
385,-216,0,0,0,0,0,0,0,0,0,-1,1609,1240,0,0
392,-216,0,0,0,0,0,0,0,0,0,-1,1616,1240,0,0
399,-216,0,0,0,0,0,0,0,0,0,-1,1623,1240,0,0
406,-216,0,0,0,0,0,0,0,0,0,-1,1630,1240,0,0
413,-216,0,0,0,0,0,0,0,0,0,-1,1637,1240,0,0
420,-216,0,0,0,0,0,0,0,0,0,-1,1644,1240,0,0
427,-216,0,0,0,0,0,0,0,0,0,-1,1651,1240,0,0
434,-216,0,0,0,0,0,0,0,0,0,-1,1658,1240,0,0
441,-216,0,0,0,0,0,0,0,0,0,-1,1665,1240,0,0
448,-216,0,0,0,0,0,0,0,0,0,-1,1672,1240,0,0
455,-216,0,0,0,0,0,0,0,0,0,-1,1679,1240,0,0
462,-216,0,0,0,0,0,0,0,0,0,-1,1686,1240,0,0
469,-216,0,0,0,0,0,0,0,0,0,-1,1693,1240,0,0
476,-216,0,0,0,0,0,0,0,0,0,-1,1700,1240,0,0
483,-216,0,0,0,0,0,0,0,0,0,-1,1707,1240,0,0
490,-216,0,0,0,0,0,0,0,0,0,-1,1714,1240,0,0
497,-216,0,0,0,0,0,0,0,0,0,-1,1721,1240,0,0
504,-216,0,0,0,0,0,0,0,0,0,-1,1728,1240,0,0
511,-216,0,0,0,0,0,0,0,0,0,-1,1735,1240,0,0
518,-216,0,0,0,0,0,0,0,0,0,-1,1742,1240,0,0
525,-216,0,0,0,0,0,0,0,0,0,-1,1749,1240,0,0
532,-216,0,0,0,0,0,0,0,0,0,-1,1756,1240,0,0
539,-216,0,0,0,0,0,0,0,0,0,-1,1763,1240,0,0
546,-216,0,0,0,0,0,0,0,0,0,-1,1770,1240,0,0
553,-216,0,0,0,0,0,0,0,0,0,-1,1777,1240,0,0
560,-216,0,0,0,0,0,0,0,0,0,-1,1784,1240,0,0
567,-216,0,0,0,0,0,0,0,0,0,-1,1791,1240,0,0
574,-216,0,0,0,0,0,0,0,0,0,-1,1798,1240,0,0
581,-216,0,0,0,0,0,0,0,0,0,-1,1805,1240,0,0
588,-216,0,0,0,0,0,0,0,0,0,-1,1812,1240,0,0
595,-216,0,0,0,0,0,0,0,0,0,-1,1819,1240,0,0
602,-216,0,0,0,0,0,0,0,0,0,-1,1826,1240,0,0
609,-216,0,0,0,0,0,0,0,0,0,-1,1833,1240,0,0
616,-216,0,0,0,0,0,0,0,0,0,-1,1840,1240,0,0
623,-216,70.7178,2.36218,0.00267736,0.00226522,-0.00285351,0.00533223,-0.000389654,-0.749353,0.00369157,0.0365738,1847,1240,70.7178,-2.36216
630,-216,70.7931,2.35144,0.00221948,0.00211406,-0.0030372,0.00520443,-0.000870886,-0.776722,0.00379339,0.0338473,1854,1240,70.7931,-2.35147
637,-216,70.8514,2.27771,0.00184823,0.00219014,-0.00320515,0.00522889,-0.00119052,-0.812041,0.00394314,0.0300437,1861,1240,70.8514,-2.27777
644,-216,70.8749,2.22424,0.00164519,0.00236946,-0.00332274,0.00534974,-0.00133509,-0.839677,0.00408491,0.0258654,1868,1240,70.8749,-2.22422
651,-216,70.8655,2.21106,0.00154336,0.00229167,-0.00304477,0.00498519,-0.00115016,-0.846533,0.00376586,0.0217456,1875,1240,70.8655,-2.21112
658,-216,70.8976,2.24475,0.0013646,0.00190703,-0.00227475,0.00392668,-0.000655049,-0.844732,0.00286124,0.0299205,1882,1240,70.8976,-2.24472
665,-216,70.9552,2.26416,0,0,0,0,0,0,0,-1,1889,1240,70.9552,-2.26413
672,-216,68.6339,1.33826,0,0,0,0,0,0,0,-1,1896,1240,68.6339,-1.33828
679,-216,47.3159,3.82703,0,0,0,0,0,0,0,-1,1903,1240,47.316,-3.82708
686,-216,21.5172,6.19458,0,0,0,0,0,0,0,-1,1910,1240,21.5172,-6.19453
693,-216,54.9205,12.4714,0,0,0,0,0,0,0,-1,1917,1240,54.9206,-12.4714
700,-216,54.9862,11.9543,0,0,0,0,0,0,0,-1,1924,1240,54.9862,-11.9544
707,-216,54.9373,11.3689,0,0,0,0,0,0,0,-1,1931,1240,54.9373,-11.3688
714,-216,55.1357,10.6318,0.000609582,0.000760632,0.000265522,0.000961161,0.000409053,0.923959,0.000556972,0.023081,1938,1240,55.1358,-10.6318
721,-216,55.1345,9.99683,0.000614788,0.000277722,0.000656059,0.00112362,-0.000231105,0.659673,0.000836818,0.0142741,1945,1240,55.1346,-9.99685
728,-216,55.1453,9.33069,0.000276768,-6.28934e-05,0.00115424,0.0012736,-0.00105973,0.712354,0.00134904,0.0141443,1952,1240,55.1452,-9.33072
735,-216,55.1252,8.67212,-0.000364163,8.18416e-05,0.00170353,0.00157691,-0.00185923,0.850481,0.00198608,0.0160271,1959,1240,55.1253,-8.67208
742,-216,55.0118,8.01331,-0.00113404,0.000241316,0.00240636,0.00205634,-0.00294906,0.924576,0.00290515,0.0178417,1966,1240,55.0119,-8.01328
749,-216,54.9645,7.30298,-0.00190833,0.000431184,0.00323545,0.00270184,-0.00417899,0.958859,0.00400305,0.013171,1973,1240,54.9645,-7.30296
756,-216,54.9236,6.63123,-0.00261382,0.000631672,0.00422331,0.00353327,-0.00551542,0.96882,0.00526587,0.011629,1980,1240,54.9235,-6.63125
763,-216,54.8716,6.05981,-0.0033639,0.000760361,0.00565001,0.0047128,-0.00731634,0.960376,0.00699904,0.0226185,1987,1240,54.8715,-6.0598
770,-216,54.8584,5.57849,0,0,0,0,0,0,0,-1,1994,1240,54.8584,-5.57851
777,-216,54.9165,5.05859,0,0,0,0,0,0,0,-1,2001,1240,54.9164,-5.05861
784,-216,68.2205,0.660034,0,0,0,0,0,0,0,-1,2008,1240,68.2204,-0.660033
791,-216,67.71,1.8468,0,0,0,0,0,0,0,-1,2015,1240,67.7099,-1.84686
798,-216,0,0,0,0,0,0,0,0,0,-1,2022,1240,0,0
805,-216,0,0,0,0,0,0,0,0,0,-1,2029,1240,0,0
812,-216,0,0,0,0,0,0,0,0,0,-1,2036,1240,0,0
-700,-223,0,0,0,0,0,0,0,0,0,-1,524,1247,0,0
-693,-223,0,0,0,0,0,0,0,0,0,-1,531,1247,0,0
-686,-223,0,0,0,0,0,0,0,0,0,-1,538,1247,0,0
-679,-223,0,0,0,0,0,0,0,0,0,-1,545,1247,0,0
-672,-223,-38.277,2.04651,0,0,0,0,0,0,0,-1,552,1247,-38.2771,-2.04651
-665,-223,-40.2462,2.229,0,0,0,0,0,0,0,-1,559,1247,-40.2462,-2.22899
-658,-223,-39.6435,-8.36633,0,0,0,0,0,0,0,-1,566,1247,-39.6435,8.36633
-651,-223,-40.2339,-7.32275,0,0,0,0,0,0,0,-1,573,1247,-40.234,7.32277
-644,-223,-45.9081,3.8446,0,0,0,0,0,0,0,-1,580,1247,-45.9081,-3.84463
-637,-223,-49.2922,0.294189,0,0,0,0,0,0,0,-1,587,1247,-49.2922,-0.294245
-630,-223,-37.8882,4.39441,0,0,0,0,0,0,0,-1,594,1247,-37.8882,-4.39438
-623,-223,-38.1952,5.26367,0.0103764,0.00205221,-0.00244837,0.0110431,0.00138548,-0.265869,0.00694646,0.0401043,601,1247,-38.1952,-5.26372
-616,-223,-38.1116,5.83069,0.00542937,0.000861451,-0.00116564,0.00570963,0.000581197,-0.235951,0.00362823,0.0161537,608,1247,-38.1116,-5.83069
-609,-223,-38.1143,6.56177,0.00233659,0.000480947,-0.000454874,0.00244209,0.000375442,-0.227913,0.00151846,0.0122446,615,1247,-38.1143,-6.56178
-602,-223,-38.1785,7.20361,0.000670625,9.29922e-05,-0.000424412,0.00089517,-0.000131553,-0.486635,0.000645118,0.0150894,622,1247,-38.1785,-7.20364
-595,-223,-38.1895,7.93018,-0.00014045,-0.000520695,-0.000783256,0.000475428,-0.00113657,-0.666334,0.000956426,0.0210859,629,1247,-38.1895,-7.93019
-588,-223,-38.1667,8.66833,-0.000746841,-0.00148959,-0.00112898,7.02775e-05,-0.00230671,-0.6265,0.00156176,0.0297451,636,1247,-38.1667,-8.6683
-581,-223,-38.1803,9.33228,0,0,0,0,0,0,0,-1,643,1247,-38.1803,-9.33227
-574,-223,-38.1083,10.1418,0,0,0,0,0,0,0,-1,650,1247,-38.1084,-10.1418
-567,-223,-38.6479,10.4993,0,0,0,0,0,0,0,-1,657,1247,-38.6479,-10.4993
-560,-223,-31.8748,9.50732,0,0,0,0,0,0,0,-1,664,1247,-31.8748,-9.50735
-553,-223,-11.4025,4.14722,0,0,0,0,0,0,0,-1,671,1247,-11.4025,-4.14719
-546,-223,-26.9034,-0.148682,0,0,0,0,0,0,0,-1,678,1247,-26.9034,0.14867
-539,-223,-36.7405,0.35376,0,0,0,0,0,0,0,-1,685,1247,-36.7405,-0.353807
-532,-223,-47.6184,1.39844,0,0,0,0,0,0,0,-1,692,1247,-47.6184,-1.3984
-525,-223,-54.0619,0.796631,0,0,0,0,0,0,0,-1,699,1247,-54.0619,-0.79667
-518,-223,-54.2741,0.800049,0,0,0,0,0,0,0,-1,706,1247,-54.2741,-0.799996
-511,-223,-54.1426,0.632446,0,0,0,0,0,0,0,-1,713,1247,-54.1426,-0.63248
-504,-223,-54.0188,0.36377,0,0,0,0,0,0,0,-1,720,1247,-54.0188,-0.363792
-497,-223,0,0,0,0,0,0,0,0,0,-1,727,1247,0,0
-490,-223,0,0,0,0,0,0,0,0,0,-1,734,1247,0,0
-483,-223,0,0,0,0,0,0,0,0,0,-1,741,1247,0,0
-476,-223,0,0,0,0,0,0,0,0,0,-1,748,1247,0,0
-469,-223,0,0,0,0,0,0,0,0,0,-1,755,1247,0,0
-462,-223,0,0,0,0,0,0,0,0,0,-1,762,1247,0,0
-455,-223,0,0,0,0,0,0,0,0,0,-1,769,1247,0,0
-448,-223,0,0,0,0,0,0,0,0,0,-1,776,1247,0,0
-441,-223,0,0,0,0,0,0,0,0,0,-1,783,1247,0,0
-434,-223,0,0,0,0,0,0,0,0,0,-1,790,1247,0,0
-427,-223,0,0,0,0,0,0,0,0,0,-1,797,1247,0,0
-420,-223,0,0,0,0,0,0,0,0,0,-1,804,1247,0,0
-413,-223,0,0,0,0,0,0,0,0,0,-1,811,1247,0,0
-406,-223,0,0,0,0,0,0,0,0,0,-1,818,1247,0,0
-399,-223,0,0,0,0,0,0,0,0,0,-1,825,1247,0,0
-392,-223,0,0,0,0,0,0,0,0,0,-1,832,1247,0,0
-385,-223,0,0,0,0,0,0,0,0,0,-1,839,1247,0,0
-378,-223,0,0,0,0,0,0,0,0,0,-1,846,1247,0,0
-371,-223,0,0,0,0,0,0,0,0,0,-1,853,1247,0,0
-364,-223,0,0,0,0,0,0,0,0,0,-1,860,1247,0,0
-357,-223,0,0,0,0,0,0,0,0,0,-1,867,1247,0,0
-350,-223,0,0,0,0,0,0,0,0,0,-1,874,1247,0,0
-343,-223,0,0,0,0,0,0,0,0,0,-1,881,1247,0,0
-336,-223,0,0,0,0,0,0,0,0,0,-1,888,1247,0,0
-329,-223,0,0,0,0,0,0,0,0,0,-1,895,1247,0,0
-322,-223,0,0,0,0,0,0,0,0,0,-1,902,1247,0,0
-315,-223,0,0,0,0,0,0,0,0,0,-1,909,1247,0,0
-308,-223,0,0,0,0,0,0,0,0,0,-1,916,1247,0,0
-301,-223,0,0,0,0,0,0,0,0,0,-1,923,1247,0,0
-294,-223,0,0,0,0,0,0,0,0,0,-1,930,1247,0,0
-287,-223,0,0,0,0,0,0,0,0,0,-1,937,1247,0,0
-280,-223,0,0,0,0,0,0,0,0,0,-1,944,1247,0,0
-273,-223,0,0,0,0,0,0,0,0,0,-1,951,1247,0,0
-266,-223,0,0,0,0,0,0,0,0,0,-1,958,1247,0,0
-259,-223,0,0,0,0,0,0,0,0,0,-1,965,1247,0,0
-252,-223,0,0,0,0,0,0,0,0,0,-1,972,1247,0,0
-245,-223,0,0,0,0,0,0,0,0,0,-1,979,1247,0,0
-238,-223,0,0,0,0,0,0,0,0,0,-1,986,1247,0,0
-231,-223,0,0,0,0,0,0,0,0,0,-1,993,1247,0,0
-224,-223,0,0,0,0,0,0,0,0,0,-1,1000,1247,0,0
-217,-223,0,0,0,0,0,0,0,0,0,-1,1007,1247,0,0
-210,-223,0,0,0,0,0,0,0,0,0,-1,1014,1247,0,0
-203,-223,0,0,0,0,0,0,0,0,0,-1,1021,1247,0,0
-196,-223,0,0,0,0,0,0,0,0,0,-1,1028,1247,0,0
-189,-223,0,0,0,0,0,0,0,0,0,-1,1035,1247,0,0
-182,-223,0,0,0,0,0,0,0,0,0,-1,1042,1247,0,0
-175,-223,0,0,0,0,0,0,0,0,0,-1,1049,1247,0,0
-168,-223,0,0,0,0,0,0,0,0,0,-1,1056,1247,0,0
-161,-223,0,0,0,0,0,0,0,0,0,-1,1063,1247,0,0
-154,-223,0,0,0,0,0,0,0,0,0,-1,1070,1247,0,0
-147,-223,0,0,0,0,0,0,0,0,0,-1,1077,1247,0,0
-140,-223,0,0,0,0,0,0,0,0,0,-1,1084,1247,0,0
-133,-223,0,0,0,0,0,0,0,0,0,-1,1091,1247,0,0
-126,-223,0,0,0,0,0,0,0,0,0,-1,1098,1247,0,0
-119,-223,0,0,0,0,0,0,0,0,0,-1,1105,1247,0,0
-112,-223,0,0,0,0,0,0,0,0,0,-1,1112,1247,0,0
-105,-223,0,0,0,0,0,0,0,0,0,-1,1119,1247,0,0
-98,-223,0,0,0,0,0,0,0,0,0,-1,1126,1247,0,0
-91,-223,0,0,0,0,0,0,0,0,0,-1,1133,1247,0,0
-84,-223,0,0,0,0,0,0,0,0,0,-1,1140,1247,0,0
-77,-223,0,0,0,0,0,0,0,0,0,-1,1147,1247,0,0
-70,-223,0,0,0,0,0,0,0,0,0,-1,1154,1247,0,0
-63,-223,0,0,0,0,0,0,0,0,0,-1,1161,1247,0,0
-56,-223,0,0,0,0,0,0,0,0,0,-1,1168,1247,0,0
-49,-223,0,0,0,0,0,0,0,0,0,-1,1175,1247,0,0
-42,-223,0,0,0,0,0,0,0,0,0,-1,1182,1247,0,0
-35,-223,0,0,0,0,0,0,0,0,0,-1,1189,1247,0,0
-28,-223,0,0,0,0,0,0,0,0,0,-1,1196,1247,0,0
-21,-223,0,0,0,0,0,0,0,0,0,-1,1203,1247,0,0
-14,-223,0,0,0,0,0,0,0,0,0,-1,1210,1247,0,0
-7,-223,0,0,0,0,0,0,0,0,0,-1,1217,1247,0,0
0,-223,0,0,0,0,0,0,0,0,0,-1,1224,1247,0,0
7,-223,0,0,0,0,0,0,0,0,0,-1,1231,1247,0,0
14,-223,0,0,0,0,0,0,0,0,0,-1,1238,1247,0,0
21,-223,0,0,0,0,0,0,0,0,0,-1,1245,1247,0,0
28,-223,0,0,0,0,0,0,0,0,0,-1,1252,1247,0,0
35,-223,0,0,0,0,0,0,0,0,0,-1,1259,1247,0,0
42,-223,0,0,0,0,0,0,0,0,0,-1,1266,1247,0,0
49,-223,0,0,0,0,0,0,0,0,0,-1,1273,1247,0,0
56,-223,0,0,0,0,0,0,0,0,0,-1,1280,1247,0,0
63,-223,0,0,0,0,0,0,0,0,0,-1,1287,1247,0,0
70,-223,0,0,0,0,0,0,0,0,0,-1,1294,1247,0,0
77,-223,0,0,0,0,0,0,0,0,0,-1,1301,1247,0,0
84,-223,0,0,0,0,0,0,0,0,0,-1,1308,1247,0,0
91,-223,0,0,0,0,0,0,0,0,0,-1,1315,1247,0,0
98,-223,0,0,0,0,0,0,0,0,0,-1,1322,1247,0,0
105,-223,0,0,0,0,0,0,0,0,0,-1,1329,1247,0,0
112,-223,0,0,0,0,0,0,0,0,0,-1,1336,1247,0,0
119,-223,0,0,0,0,0,0,0,0,0,-1,1343,1247,0,0
126,-223,0,0,0,0,0,0,0,0,0,-1,1350,1247,0,0
133,-223,0,0,0,0,0,0,0,0,0,-1,1357,1247,0,0
140,-223,0,0,0,0,0,0,0,0,0,-1,1364,1247,0,0
147,-223,0,0,0,0,0,0,0,0,0,-1,1371,1247,0,0
154,-223,0,0,0,0,0,0,0,0,0,-1,1378,1247,0,0
161,-223,0,0,0,0,0,0,0,0,0,-1,1385,1247,0,0
168,-223,0,0,0,0,0,0,0,0,0,-1,1392,1247,0,0
175,-223,0,0,0,0,0,0,0,0,0,-1,1399,1247,0,0
182,-223,0,0,0,0,0,0,0,0,0,-1,1406,1247,0,0
189,-223,0,0,0,0,0,0,0,0,0,-1,1413,1247,0,0
196,-223,0,0,0,0,0,0,0,0,0,-1,1420,1247,0,0
203,-223,0,0,0,0,0,0,0,0,0,-1,1427,1247,0,0
210,-223,0,0,0,0,0,0,0,0,0,-1,1434,1247,0,0
217,-223,0,0,0,0,0,0,0,0,0,-1,1441,1247,0,0
224,-223,0,0,0,0,0,0,0,0,0,-1,1448,1247,0,0
231,-223,0,0,0,0,0,0,0,0,0,-1,1455,1247,0,0
238,-223,0,0,0,0,0,0,0,0,0,-1,1462,1247,0,0
245,-223,0,0,0,0,0,0,0,0,0,-1,1469,1247,0,0
252,-223,0,0,0,0,0,0,0,0,0,-1,1476,1247,0,0
259,-223,0,0,0,0,0,0,0,0,0,-1,1483,1247,0,0
266,-223,0,0,0,0,0,0,0,0,0,-1,1490,1247,0,0
273,-223,0,0,0,0,0,0,0,0,0,-1,1497,1247,0,0
280,-223,0,0,0,0,0,0,0,0,0,-1,1504,1247,0,0
287,-223,0,0,0,0,0,0,0,0,0,-1,1511,1247,0,0
294,-223,0,0,0,0,0,0,0,0,0,-1,1518,1247,0,0
301,-223,0,0,0,0,0,0,0,0,0,-1,1525,1247,0,0
308,-223,0,0,0,0,0,0,0,0,0,-1,1532,1247,0,0
315,-223,0,0,0,0,0,0,0,0,0,-1,1539,1247,0,0
322,-223,0,0,0,0,0,0,0,0,0,-1,1546,1247,0,0
329,-223,0,0,0,0,0,0,0,0,0,-1,1553,1247,0,0
336,-223,0,0,0,0,0,0,0,0,0,-1,1560,1247,0,0
343,-223,0,0,0,0,0,0,0,0,0,-1,1567,1247,0,0
350,-223,0,0,0,0,0,0,0,0,0,-1,1574,1247,0,0
357,-223,0,0,0,0,0,0,0,0,0,-1,1581,1247,0,0
364,-223,0,0,0,0,0,0,0,0,0,-1,1588,1247,0,0
371,-223,0,0,0,0,0,0,0,0,0,-1,1595,1247,0,0
378,-223,0,0,0,0,0,0,0,0,0,-1,1602,1247,0,0
385,-223,0,0,0,0,0,0,0,0,0,-1,1609,1247,0,0
392,-223,0,0,0,0,0,0,0,0,0,-1,1616,1247,0,0
399,-223,0,0,0,0,0,0,0,0,0,-1,1623,1247,0,0
406,-223,0,0,0,0,0,0,0,0,0,-1,1630,1247,0,0
413,-223,0,0,0,0,0,0,0,0,0,-1,1637,1247,0,0
420,-223,0,0,0,0,0,0,0,0,0,-1,1644,1247,0,0
427,-223,0,0,0,0,0,0,0,0,0,-1,1651,1247,0,0
434,-223,0,0,0,0,0,0,0,0,0,-1,1658,1247,0,0
441,-223,0,0,0,0,0,0,0,0,0,-1,1665,1247,0,0
448,-223,0,0,0,0,0,0,0,0,0,-1,1672,1247,0,0
455,-223,0,0,0,0,0,0,0,0,0,-1,1679,1247,0,0
462,-223,0,0,0,0,0,0,0,0,0,-1,1686,1247,0,0
469,-223,0,0,0,0,0,0,0,0,0,-1,1693,1247,0,0
476,-223,0,0,0,0,0,0,0,0,0,-1,1700,1247,0,0
483,-223,0,0,0,0,0,0,0,0,0,-1,1707,1247,0,0
490,-223,0,0,0,0,0,0,0,0,0,-1,1714,1247,0,0
497,-223,0,0,0,0,0,0,0,0,0,-1,1721,1247,0,0
504,-223,0,0,0,0,0,0,0,0,0,-1,1728,1247,0,0
511,-223,0,0,0,0,0,0,0,0,0,-1,1735,1247,0,0
518,-223,0,0,0,0,0,0,0,0,0,-1,1742,1247,0,0
525,-223,0,0,0,0,0,0,0,0,0,-1,1749,1247,0,0
532,-223,0,0,0,0,0,0,0,0,0,-1,1756,1247,0,0
539,-223,0,0,0,0,0,0,0,0,0,-1,1763,1247,0,0
546,-223,0,0,0,0,0,0,0,0,0,-1,1770,1247,0,0
553,-223,0,0,0,0,0,0,0,0,0,-1,1777,1247,0,0
560,-223,0,0,0,0,0,0,0,0,0,-1,1784,1247,0,0
567,-223,0,0,0,0,0,0,0,0,0,-1,1791,1247,0,0
574,-223,0,0,0,0,0,0,0,0,0,-1,1798,1247,0,0
581,-223,0,0,0,0,0,0,0,0,0,-1,1805,1247,0,0
588,-223,0,0,0,0,0,0,0,0,0,-1,1812,1247,0,0
595,-223,0,0,0,0,0,0,0,0,0,-1,1819,1247,0,0
602,-223,0,0,0,0,0,0,0,0,0,-1,1826,1247,0,0
609,-223,0,0,0,0,0,0,0,0,0,-1,1833,1247,0,0
616,-223,0,0,0,0,0,0,0,0,0,-1,1840,1247,0,0
623,-223,70.7625,2.526,0,0,0,0,0,0,0,-1,1847,1247,70.7624,-2.52594
630,-223,70.7963,2.31458,0.00244551,0.00287314,-0.00351573,0.00618155,-0.000862904,-0.815769,0.00443673,0.034099,1854,1247,70.7963,-2.31463
637,-223,70.8124,2.2478,0.00215044,0.00243977,-0.00366403,0.00596199,-0.00137178,-0.805129,0.00450213,0.0271747,1861,1247,70.8124,-2.24781
644,-223,70.8071,2.19653,0.00206311,0.00221594,-0.00366256,0.00580288,-0.00152383,-0.795828,0.00446408,0.0223754,1868,1247,70.8071,-2.19657
651,-223,70.8385,2.17651,0.00194999,0.00189665,-0.00318964,0.00511307,-0.00126643,-0.781217,0.00390001,0.0290454,1875,1247,70.8385,-2.17645
658,-223,70.8969,2.22583,0,0,0,0,0,0,0,-1,1882,1247,70.8969,-2.22585
665,-223,68.7177,1.6427,0,0,0,0,0,0,0,-1,1889,1247,68.7176,-1.64275
672,-223,56.4625,2.72424,0,0,0,0,0,0,0,-1,1896,1247,56.4626,-2.72418
679,-223,43.2783,2.46973,0,0,0,0,0,0,0,-1,1903,1247,43.2784,-2.46978
686,-223,40.7926,10.0316,0,0,0,0,0,0,0,-1,1910,1247,40.7926,-10.0316
693,-223,54.2776,12.5676,0,0,0,0,0,0,0,-1,1917,1247,54.2776,-12.5676
700,-223,53.8348,12.0425,0,0,0,0,0,0,0,-1,1924,1247,53.8348,-12.0425
707,-223,54.6245,11.2722,0,0,0,0,0,0,0,-1,1931,1247,54.6245,-11.2722
714,-223,54.526,10.67,0.000538082,0.000352724,0.000520348,0.000973941,-8.31343e-05,0.697268,0.000678705,0.0186804,1938,1247,54.526,-10.6701
721,-223,54.4326,10.0316,0.000306581,-3.14264e-05,0.000989125,0.00114104,-0.000865882,0.700784,0.00116232,0.0156467,1945,1247,54.4326,-10.0316
728,-223,54.4042,9.36719,-0.000312787,-0.000166808,0.00151992,0.00128187,-0.00176146,0.809391,0.00176433,0.0204357,1952,1247,54.4042,-9.36718
735,-223,54.3865,8.72546,-0.00114358,3.29014e-05,0.00209338,0.00161912,-0.0027298,0.922366,0.002538,0.0205185,1959,1247,54.3865,-8.72542
742,-223,54.3022,8.0802,-0.00202,0.000226216,0.00279662,0.00211682,-0.00391061,0.976338,0.00353093,0.0179725,1966,1247,54.3022,-8.08014
749,-223,54.2723,7.32458,-0.00286082,0.000439659,0.00359641,0.00274637,-0.00516754,1.0005,0.00463983,0.0133913,1973,1247,54.2724,-7.32456
756,-223,54.2072,6.6239,-0.00364365,0.000660884,0.00455502,0.00354652,-0.00652929,1.0061,0.00590163,0.0147189,1980,1247,54.2071,-6.62394
763,-223,54.1632,6.04834,-0.0044665,0.000827737,0.00592874,0.00467348,-0.00831224,0.995363,0.00759479,0.0217823,1987,1247,54.1632,-6.04832
770,-223,54.3799,5.43555,0,0,0,0,0,0,0,-1,1994,1247,54.3798,-5.43556
777,-223,53.7227,4.88562,0,0,0,0,0,0,0,-1,2001,1247,53.7227,-4.8856
784,-223,68.8677,0.507813,0,0,0,0,0,0,0,-1,2008,1247,68.8676,-0.507816
791,-223,34.7136,2.92554,0,0,0,0,0,0,0,-1,2015,1247,34.7137,-2.92555
798,-223,0,0,0,0,0,0,0,0,0,-1,2022,1247,0,0
805,-223,0,0,0,0,0,0,0,0,0,-1,2029,1247,0,0
812,-223,0,0,0,0,0,0,0,0,0,-1,2036,1247,0,0
-700,-230,0,0,0,0,0,0,0,0,0,-1,524,1254,0,0
-693,-230,0,0,0,0,0,0,0,0,0,-1,531,1254,0,0
-686,-230,0,0,0,0,0,0,0,0,0,-1,538,1254,0,0
-679,-230,0,0,0,0,0,0,0,0,0,-1,545,1254,0,0
-672,-230,-38.5905,2.07617,0,0,0,0,0,0,0,-1,552,1254,-38.5905,-2.07614
-665,-230,-38.168,-9.9397,0,0,0,0,0,0,0,-1,559,1254,-38.168,9.93971
-658,-230,-38.8468,-8.48303,0,0,0,0,0,0,0,-1,566,1254,-38.8468,8.48304
-651,-230,-39.3627,-7.38525,0,0,0,0,0,0,0,-1,573,1254,-39.3627,7.38529
-644,-230,-48.2715,0.872925,0,0,0,0,0,0,0,-1,580,1254,-48.2715,-0.87288
-637,-230,-49.1636,-0.158325,0,0,0,0,0,0,0,-1,587,1254,-49.1636,0.158288
-630,-230,-36.8388,4.02295,0,0,0,0,0,0,0,-1,594,1254,-36.8388,-4.02292
-623,-230,-37.7297,5.4082,0,0,0,0,0,0,0,-1,601,1254,-37.7297,-5.40825
-616,-230,-37.3756,5.85596,0.00495269,0.00105483,-0.000692026,0.00507191,0.000935615,-0.170597,0.00311657,0.0175332,608,1254,-37.3756,-5.85599
-609,-230,-37.3801,6.57422,0.00221908,0.000749961,-0.000152256,0.00223469,0.000734348,-0.10219,0.00131522,0.0122635,615,1254,-37.3801,-6.5742
-602,-230,-37.4387,7.25769,0.00072548,0.000267067,-0.000159577,0.000775559,0.000216988,-0.304091,0.000462019,0.0122893,622,1254,-37.4387,-7.25771
-595,-230,-37.4962,7.99182,-1.301e-05,-0.000458565,-0.000487963,0.000300624,-0.000772199,-0.571256,0.00063903,0.0198421,629,1254,-37.4962,-7.99177
-588,-230,-37.543,8.77222,-0.000611166,-0.00148933,-0.000780204,-0.000154976,-0.00194552,-0.529098,0.00124856,0.0290575,636,1254,-37.543,-8.77226
-581,-230,-37.6528,9.68787,-0.00102328,-0.00292682,-0.00105564,-0.000553692,-0.00339641,-0.418548,0.00210413,0.0360814,643,1254,-37.6528,-9.68791
-574,-230,-37.7756,10.6235,0,0,0,0,0,0,0,-1,650,1254,-37.7756,-10.6235
-567,-230,-37.6903,10.7856,0,0,0,0,0,0,0,-1,657,1254,-37.6903,-10.7856
-560,-230,-38.0956,11.1184,0,0,0,0,0,0,0,-1,664,1254,-38.0956,-11.1184
-553,-230,-13.1939,4.9718,0,0,0,0,0,0,0,-1,671,1254,-13.1939,-4.97175
-546,-230,-15.23,0.453979,0,0,0,0,0,0,0,-1,678,1254,-15.23,-0.453996
-539,-230,-25.8232,0.512817,0,0,0,0,0,0,0,-1,685,1254,-25.8232,-0.512878
-532,-230,-21.1644,1.52966,0,0,0,0,0,0,0,-1,692,1254,-21.1644,-1.52969
-525,-230,-29.4775,0.731445,0,0,0,0,0,0,0,-1,699,1254,-29.4775,-0.731432
-518,-230,-54.023,0.637085,0,0,0,0,0,0,0,-1,706,1254,-54.023,-0.637032
-511,-230,-54.0421,0.474121,0,0,0,0,0,0,0,-1,713,1254,-54.0421,-0.474102
-504,-230,-53.9506,0.344604,0,0,0,0,0,0,0,-1,720,1254,-53.9506,-0.344631
-497,-230,0,0,0,0,0,0,0,0,0,-1,727,1254,0,0
-490,-230,0,0,0,0,0,0,0,0,0,-1,734,1254,0,0
-483,-230,0,0,0,0,0,0,0,0,0,-1,741,1254,0,0
-476,-230,0,0,0,0,0,0,0,0,0,-1,748,1254,0,0
-469,-230,0,0,0,0,0,0,0,0,0,-1,755,1254,0,0
-462,-230,0,0,0,0,0,0,0,0,0,-1,762,1254,0,0
-455,-230,0,0,0,0,0,0,0,0,0,-1,769,1254,0,0
-448,-230,0,0,0,0,0,0,0,0,0,-1,776,1254,0,0
-441,-230,0,0,0,0,0,0,0,0,0,-1,783,1254,0,0
-434,-230,0,0,0,0,0,0,0,0,0,-1,790,1254,0,0
-427,-230,0,0,0,0,0,0,0,0,0,-1,797,1254,0,0
-420,-230,0,0,0,0,0,0,0,0,0,-1,804,1254,0,0
-413,-230,0,0,0,0,0,0,0,0,0,-1,811,1254,0,0
-406,-230,0,0,0,0,0,0,0,0,0,-1,818,1254,0,0
-399,-230,0,0,0,0,0,0,0,0,0,-1,825,1254,0,0
-392,-230,0,0,0,0,0,0,0,0,0,-1,832,1254,0,0
-385,-230,0,0,0,0,0,0,0,0,0,-1,839,1254,0,0
-378,-230,0,0,0,0,0,0,0,0,0,-1,846,1254,0,0
-371,-230,0,0,0,0,0,0,0,0,0,-1,853,1254,0,0
-364,-230,0,0,0,0,0,0,0,0,0,-1,860,1254,0,0
-357,-230,0,0,0,0,0,0,0,0,0,-1,867,1254,0,0
-350,-230,0,0,0,0,0,0,0,0,0,-1,874,1254,0,0
-343,-230,0,0,0,0,0,0,0,0,0,-1,881,1254,0,0
-336,-230,0,0,0,0,0,0,0,0,0,-1,888,1254,0,0
-329,-230,0,0,0,0,0,0,0,0,0,-1,895,1254,0,0
-322,-230,0,0,0,0,0,0,0,0,0,-1,902,1254,0,0
-315,-230,0,0,0,0,0,0,0,0,0,-1,909,1254,0,0
-308,-230,0,0,0,0,0,0,0,0,0,-1,916,1254,0,0
-301,-230,0,0,0,0,0,0,0,0,0,-1,923,1254,0,0
-294,-230,0,0,0,0,0,0,0,0,0,-1,930,1254,0,0
-287,-230,0,0,0,0,0,0,0,0,0,-1,937,1254,0,0
-280,-230,0,0,0,0,0,0,0,0,0,-1,944,1254,0,0
-273,-230,0,0,0,0,0,0,0,0,0,-1,951,1254,0,0
-266,-230,0,0,0,0,0,0,0,0,0,-1,958,1254,0,0
-259,-230,0,0,0,0,0,0,0,0,0,-1,965,1254,0,0
-252,-230,0,0,0,0,0,0,0,0,0,-1,972,1254,0,0
-245,-230,0,0,0,0,0,0,0,0,0,-1,979,1254,0,0
-238,-230,0,0,0,0,0,0,0,0,0,-1,986,1254,0,0
-231,-230,0,0,0,0,0,0,0,0,0,-1,993,1254,0,0
-224,-230,0,0,0,0,0,0,0,0,0,-1,1000,1254,0,0
-217,-230,0,0,0,0,0,0,0,0,0,-1,1007,1254,0,0
-210,-230,0,0,0,0,0,0,0,0,0,-1,1014,1254,0,0
-203,-230,0,0,0,0,0,0,0,0,0,-1,1021,1254,0,0
-196,-230,0,0,0,0,0,0,0,0,0,-1,1028,1254,0,0
-189,-230,0,0,0,0,0,0,0,0,0,-1,1035,1254,0,0
-182,-230,0,0,0,0,0,0,0,0,0,-1,1042,1254,0,0
-175,-230,0,0,0,0,0,0,0,0,0,-1,1049,1254,0,0
-168,-230,0,0,0,0,0,0,0,0,0,-1,1056,1254,0,0
-161,-230,0,0,0,0,0,0,0,0,0,-1,1063,1254,0,0
-154,-230,0,0,0,0,0,0,0,0,0,-1,1070,1254,0,0
-147,-230,0,0,0,0,0,0,0,0,0,-1,1077,1254,0,0
-140,-230,0,0,0,0,0,0,0,0,0,-1,1084,1254,0,0
-133,-230,0,0,0,0,0,0,0,0,0,-1,1091,1254,0,0
-126,-230,0,0,0,0,0,0,0,0,0,-1,1098,1254,0,0
-119,-230,0,0,0,0,0,0,0,0,0,-1,1105,1254,0,0
-112,-230,0,0,0,0,0,0,0,0,0,-1,1112,1254,0,0
-105,-230,0,0,0,0,0,0,0,0,0,-1,1119,1254,0,0
-98,-230,0,0,0,0,0,0,0,0,0,-1,1126,1254,0,0
-91,-230,0,0,0,0,0,0,0,0,0,-1,1133,1254,0,0
-84,-230,0,0,0,0,0,0,0,0,0,-1,1140,1254,0,0
-77,-230,0,0,0,0,0,0,0,0,0,-1,1147,1254,0,0
-70,-230,0,0,0,0,0,0,0,0,0,-1,1154,1254,0,0
-63,-230,0,0,0,0,0,0,0,0,0,-1,1161,1254,0,0
-56,-230,0,0,0,0,0,0,0,0,0,-1,1168,1254,0,0
-49,-230,0,0,0,0,0,0,0,0,0,-1,1175,1254,0,0
-42,-230,0,0,0,0,0,0,0,0,0,-1,1182,1254,0,0
-35,-230,0,0,0,0,0,0,0,0,0,-1,1189,1254,0,0
-28,-230,0,0,0,0,0,0,0,0,0,-1,1196,1254,0,0
-21,-230,0,0,0,0,0,0,0,0,0,-1,1203,1254,0,0
-14,-230,0,0,0,0,0,0,0,0,0,-1,1210,1254,0,0
-7,-230,0,0,0,0,0,0,0,0,0,-1,1217,1254,0,0
0,-230,0,0,0,0,0,0,0,0,0,-1,1224,1254,0,0
7,-230,0,0,0,0,0,0,0,0,0,-1,1231,1254,0,0
14,-230,0,0,0,0,0,0,0,0,0,-1,1238,1254,0,0
21,-230,0,0,0,0,0,0,0,0,0,-1,1245,1254,0,0
28,-230,0,0,0,0,0,0,0,0,0,-1,1252,1254,0,0
35,-230,0,0,0,0,0,0,0,0,0,-1,1259,1254,0,0
42,-230,0,0,0,0,0,0,0,0,0,-1,1266,1254,0,0
49,-230,0,0,0,0,0,0,0,0,0,-1,1273,1254,0,0
56,-230,0,0,0,0,0,0,0,0,0,-1,1280,1254,0,0
63,-230,0,0,0,0,0,0,0,0,0,-1,1287,1254,0,0
70,-230,0,0,0,0,0,0,0,0,0,-1,1294,1254,0,0
77,-230,0,0,0,0,0,0,0,0,0,-1,1301,1254,0,0
84,-230,0,0,0,0,0,0,0,0,0,-1,1308,1254,0,0
91,-230,0,0,0,0,0,0,0,0,0,-1,1315,1254,0,0
98,-230,0,0,0,0,0,0,0,0,0,-1,1322,1254,0,0
105,-230,0,0,0,0,0,0,0,0,0,-1,1329,1254,0,0
112,-230,0,0,0,0,0,0,0,0,0,-1,1336,1254,0,0
119,-230,0,0,0,0,0,0,0,0,0,-1,1343,1254,0,0
126,-230,0,0,0,0,0,0,0,0,0,-1,1350,1254,0,0
133,-230,0,0,0,0,0,0,0,0,0,-1,1357,1254,0,0
140,-230,0,0,0,0,0,0,0,0,0,-1,1364,1254,0,0
147,-230,0,0,0,0,0,0,0,0,0,-1,1371,1254,0,0
154,-230,0,0,0,0,0,0,0,0,0,-1,1378,1254,0,0
161,-230,0,0,0,0,0,0,0,0,0,-1,1385,1254,0,0
168,-230,0,0,0,0,0,0,0,0,0,-1,1392,1254,0,0
175,-230,0,0,0,0,0,0,0,0,0,-1,1399,1254,0,0
182,-230,0,0,0,0,0,0,0,0,0,-1,1406,1254,0,0
189,-230,0,0,0,0,0,0,0,0,0,-1,1413,1254,0,0
196,-230,0,0,0,0,0,0,0,0,0,-1,1420,1254,0,0
203,-230,0,0,0,0,0,0,0,0,0,-1,1427,1254,0,0
210,-230,0,0,0,0,0,0,0,0,0,-1,1434,1254,0,0
217,-230,0,0,0,0,0,0,0,0,0,-1,1441,1254,0,0
224,-230,0,0,0,0,0,0,0,0,0,-1,1448,1254,0,0
231,-230,0,0,0,0,0,0,0,0,0,-1,1455,1254,0,0
238,-230,0,0,0,0,0,0,0,0,0,-1,1462,1254,0,0
245,-230,0,0,0,0,0,0,0,0,0,-1,1469,1254,0,0
252,-230,0,0,0,0,0,0,0,0,0,-1,1476,1254,0,0
259,-230,0,0,0,0,0,0,0,0,0,-1,1483,1254,0,0
266,-230,0,0,0,0,0,0,0,0,0,-1,1490,1254,0,0
273,-230,0,0,0,0,0,0,0,0,0,-1,1497,1254,0,0
280,-230,0,0,0,0,0,0,0,0,0,-1,1504,1254,0,0
287,-230,0,0,0,0,0,0,0,0,0,-1,1511,1254,0,0
294,-230,0,0,0,0,0,0,0,0,0,-1,1518,1254,0,0
301,-230,0,0,0,0,0,0,0,0,0,-1,1525,1254,0,0
308,-230,0,0,0,0,0,0,0,0,0,-1,1532,1254,0,0
315,-230,0,0,0,0,0,0,0,0,0,-1,1539,1254,0,0
322,-230,0,0,0,0,0,0,0,0,0,-1,1546,1254,0,0
329,-230,0,0,0,0,0,0,0,0,0,-1,1553,1254,0,0
336,-230,0,0,0,0,0,0,0,0,0,-1,1560,1254,0,0
343,-230,0,0,0,0,0,0,0,0,0,-1,1567,1254,0,0
350,-230,0,0,0,0,0,0,0,0,0,-1,1574,1254,0,0
357,-230,0,0,0,0,0,0,0,0,0,-1,1581,1254,0,0
364,-230,0,0,0,0,0,0,0,0,0,-1,1588,1254,0,0
371,-230,0,0,0,0,0,0,0,0,0,-1,1595,1254,0,0
378,-230,0,0,0,0,0,0,0,0,0,-1,1602,1254,0,0
385,-230,0,0,0,0,0,0,0,0,0,-1,1609,1254,0,0
392,-230,0,0,0,0,0,0,0,0,0,-1,1616,1254,0,0
399,-230,0,0,0,0,0,0,0,0,0,-1,1623,1254,0,0
406,-230,0,0,0,0,0,0,0,0,0,-1,1630,1254,0,0
413,-230,0,0,0,0,0,0,0,0,0,-1,1637,1254,0,0
420,-230,0,0,0,0,0,0,0,0,0,-1,1644,1254,0,0
427,-230,0,0,0,0,0,0,0,0,0,-1,1651,1254,0,0
434,-230,0,0,0,0,0,0,0,0,0,-1,1658,1254,0,0
441,-230,0,0,0,0,0,0,0,0,0,-1,1665,1254,0,0
448,-230,0,0,0,0,0,0,0,0,0,-1,1672,1254,0,0
455,-230,0,0,0,0,0,0,0,0,0,-1,1679,1254,0,0
462,-230,0,0,0,0,0,0,0,0,0,-1,1686,1254,0,0
469,-230,0,0,0,0,0,0,0,0,0,-1,1693,1254,0,0
476,-230,0,0,0,0,0,0,0,0,0,-1,1700,1254,0,0
483,-230,0,0,0,0,0,0,0,0,0,-1,1707,1254,0,0
490,-230,0,0,0,0,0,0,0,0,0,-1,1714,1254,0,0
497,-230,0,0,0,0,0,0,0,0,0,-1,1721,1254,0,0
504,-230,0,0,0,0,0,0,0,0,0,-1,1728,1254,0,0
511,-230,0,0,0,0,0,0,0,0,0,-1,1735,1254,0,0
518,-230,0,0,0,0,0,0,0,0,0,-1,1742,1254,0,0
525,-230,0,0,0,0,0,0,0,0,0,-1,1749,1254,0,0
532,-230,0,0,0,0,0,0,0,0,0,-1,1756,1254,0,0
539,-230,0,0,0,0,0,0,0,0,0,-1,1763,1254,0,0
546,-230,0,0,0,0,0,0,0,0,0,-1,1770,1254,0,0
553,-230,0,0,0,0,0,0,0,0,0,-1,1777,1254,0,0
560,-230,0,0,0,0,0,0,0,0,0,-1,1784,1254,0,0
567,-230,0,0,0,0,0,0,0,0,0,-1,1791,1254,0,0
574,-230,0,0,0,0,0,0,0,0,0,-1,1798,1254,0,0
581,-230,0,0,0,0,0,0,0,0,0,-1,1805,1254,0,0
588,-230,0,0,0,0,0,0,0,0,0,-1,1812,1254,0,0
595,-230,0,0,0,0,0,0,0,0,0,-1,1819,1254,0,0
602,-230,0,0,0,0,0,0,0,0,0,-1,1826,1254,0,0
609,-230,0,0,0,0,0,0,0,0,0,-1,1833,1254,0,0
616,-230,70.8326,2.5304,0.00222108,0.00596902,-0.00315133,0.00776148,0.000428629,-1.05364,0.00503752,0.0395545,1840,1254,70.8326,-2.5304
623,-230,70.8495,2.4939,0.00274914,0.00421839,-0.00350461,0.00706454,-9.70208e-05,-0.88871,0.00474237,0.0387856,1847,1254,70.8494,-2.49387
630,-230,70.8419,2.37085,0.0030961,0.00295336,-0.00377995,0.00680535,-0.000755894,-0.775959,0.00480871,0.0316202,1854,1254,70.8419,-2.37087
637,-230,70.8098,2.24548,0.00329994,0.00204636,-0.00392938,0.00665221,-0.0013059,-0.706308,0.00492812,0.0247653,1861,1254,70.8098,-2.24544
644,-230,70.7776,2.11096,0.00315096,0.00178002,-0.00384572,0.00637183,-0.00144084,-0.697203,0.00480078,0.0205172,1868,1254,70.7776,-2.11097
651,-230,70.8601,2.16479,0.00274108,0.00151567,-0.00326865,0.00545395,-0.0011972,-0.692749,0.00409381,0.0469958,1875,1254,70.8601,-2.16481
658,-230,71.015,2.2677,0,0,0,0,0,0,0,-1,1882,1254,71.0151,-2.26774
665,-230,56.2585,2.51587,0,0,0,0,0,0,0,-1,1889,1254,56.2586,-2.51586
672,-230,43.0962,2.78699,0,0,0,0,0,0,0,-1,1896,1254,43.0962,-2.78698
679,-230,27.9967,2.37708,0,0,0,0,0,0,0,-1,1903,1254,27.9967,-2.3771
686,-230,40.8854,10.1788,0,0,0,0,0,0,0,-1,1910,1254,40.8853,-10.1788
693,-230,50.7637,12.0411,0,0,0,0,0,0,0,-1,1917,1254,50.7636,-12.0412
700,-230,54.1027,11.9471,0,0,0,0,0,0,0,-1,1924,1254,54.1026,-11.9472
707,-230,53.8705,11.3981,0,0,0,0,0,0,0,-1,1931,1254,53.8705,-11.3981
714,-230,53.7682,10.748,0.000319455,9.39944e-05,0.000705456,0.000921131,-0.000507682,0.706169,0.000836359,0.0155921,1938,1254,53.7682,-10.748
721,-230,53.7113,10.0652,-0.000185543,-0.000177115,0.00124165,0.00106033,-0.00142298,0.787095,0.00143883,0.0141729,1945,1254,53.7113,-10.0651
728,-230,53.6571,9.41553,-0.0010245,-0.000196717,0.00182514,0.00126088,-0.0024821,0.896899,0.00219901,0.0167153,1952,1254,53.6572,-9.41549
735,-230,53.641,8.76526,-0.0019983,3.58234e-06,0.00244431,0.00164395,-0.00363867,0.979732,0.00312156,0.0172779,1959,1254,53.641,-8.76527
742,-230,53.6151,8.04944,-0.00299838,0.000202186,0.00316005,0.00214405,-0.00494024,1.01978,0.00419497,0.0126182,1966,1254,53.6151,-8.04938
749,-230,53.5911,7.31604,-0.00396891,0.000435827,0.00394075,0.00274787,-0.00628095,1.04021,0.00534417,0.0118293,1973,1254,53.5911,-7.31601
756,-230,53.5315,6.64209,-0.00490684,0.000673356,0.00488527,0.00350913,-0.00774261,1.04486,0.00664771,0.0167824,1980,1254,53.5315,-6.64213
763,-230,53.5116,5.93616,-0.00587773,0.000879238,0.0062086,0.00456905,-0.00956755,1.03457,0.0083301,0.0372105,1987,1254,53.5117,-5.93614
770,-230,53.8203,5.19995,0,0,0,0,0,0,0,-1,1994,1254,53.8203,-5.19998
777,-230,41.8693,3.74707,0,0,0,0,0,0,0,-1,2001,1254,41.8692,-3.74713
784,-230,35.8896,1.80334,0,0,0,0,0,0,0,-1,2008,1254,35.8897,-1.80338
791,-230,35.6028,2.20642,0,0,0,0,0,0,0,-1,2015,1254,35.6027,-2.2064
798,-230,0,0,0,0,0,0,0,0,0,-1,2022,1254,0,0
805,-230,0,0,0,0,0,0,0,0,0,-1,2029,1254,0,0
812,-230,0,0,0,0,0,0,0,0,0,-1,2036,1254,0,0
-700,-237,0,0,0,0,0,0,0,0,0,-1,524,1261,0,0
-693,-237,0,0,0,0,0,0,0,0,0,-1,531,1261,0,0
-686,-237,0,0,0,0,0,0,0,0,0,-1,538,1261,0,0
-679,-237,0,0,0,0,0,0,0,0,0,-1,545,1261,0,0
-672,-237,-36.6405,-12.5112,0,0,0,0,0,0,0,-1,552,1261,-36.6405,12.5113
-665,-237,-37.1436,-10.5648,0,0,0,0,0,0,0,-1,559,1261,-37.1436,10.5649
-658,-237,-37.8344,-8.67175,0,0,0,0,0,0,0,-1,566,1261,-37.8344,8.67179
-651,-237,-46.9487,1.65137,0,0,0,0,0,0,0,-1,573,1261,-46.9487,-1.65142
-644,-237,-47.6604,0.785034,0,0,0,0,0,0,0,-1,580,1261,-47.6604,-0.785034
-637,-237,-33.4961,2.71313,0,0,0,0,0,0,0,-1,587,1261,-33.4961,-2.71312
-630,-237,-36.6653,4.3208,0,0,0,0,0,0,0,-1,594,1261,-36.6653,-4.32079
-623,-237,-36.5917,5.06567,0.0067465,0.00169892,0.000521642,0.00679985,0.00164558,0.10191,0.0040964,0.0401234,601,1261,-36.5917,-5.0657
-616,-237,-36.5919,5.85413,0.0041129,0.00156953,0.000542488,0.00422378,0.00145865,0.201608,0.00247718,0.0151999,608,1261,-36.5919,-5.85417
-609,-237,-36.6454,6.56519,0.00207022,0.00132559,0.00048048,0.00230576,0.00109006,0.455781,0.00133189,0.0160998,615,1261,-36.6454,-6.56525
-602,-237,-36.7095,7.28796,0.000864638,0.000661781,0.00021781,0.00100348,0.000522942,0.567492,0.000579531,0.0123261,622,1261,-36.7094,-7.28791
-595,-237,-36.7819,8.02295,0.000164359,-0.000226778,-0.000134667,0.00020624,-0.000268659,-0.301514,0.000274971,0.0158109,629,1261,-36.7818,-8.02293
-588,-237,-36.7927,8.76563,-0.000400873,-0.00136195,-0.000417389,-0.000244912,-0.00151791,-0.357593,0.000940988,0.0274063,636,1261,-36.7926,-8.7656
-581,-237,-36.8422,9.50732,-0.000754389,-0.00287136,-0.000653296,-0.000569015,-0.00305673,-0.276485,0.00187712,0.0262173,643,1261,-36.8422,-9.5073
-574,-237,-36.7679,10.1552,-0.0010264,-0.00476794,-0.000844573,-0.000844586,-0.00494975,-0.212032,0.00305744,0.0313051,650,1261,-36.7679,-10.1551
-567,-237,-36.9114,10.8834,-0.000804964,-0.00743154,-0.000792549,-0.000711492,-0.00752501,-0.117396,0.00479713,0.0438365,657,1261,-36.9114,-10.8834
-560,-237,-36.9231,11.2119,0,0,0,0,0,0,0,-1,664,1261,-36.9231,-11.2119
-553,-237,-20.6102,6.92139,0,0,0,0,0,0,0,-1,671,1261,-20.6102,-6.92138
-546,-237,-11.192,1.14014,0,0,0,0,0,0,0,-1,678,1261,-11.192,-1.14011
-539,-237,-16.512,1.53455,0,0,0,0,0,0,0,-1,685,1261,-16.512,-1.53457
-532,-237,-29.7025,1.23621,0,0,0,0,0,0,0,-1,692,1261,-29.7025,-1.23618
-525,-237,-47.2925,0.590942,0,0,0,0,0,0,0,-1,699,1261,-47.2925,-0.590989
-518,-237,-48.2897,0.765869,0,0,0,0,0,0,0,-1,706,1261,-48.2897,-0.765854
-511,-237,-53.9925,0.515015,0,0,0,0,0,0,0,-1,713,1261,-53.9925,-0.515058
-504,-237,-54.1804,0.615479,0,0,0,0,0,0,0,-1,720,1261,-54.1804,-0.615442
-497,-237,-54.277,0.843994,0,0,0,0,0,0,0,-1,727,1261,-54.277,-0.844012
-490,-237,0,0,0,0,0,0,0,0,0,-1,734,1261,0,0
-483,-237,0,0,0,0,0,0,0,0,0,-1,741,1261,0,0
-476,-237,0,0,0,0,0,0,0,0,0,-1,748,1261,0,0
-469,-237,0,0,0,0,0,0,0,0,0,-1,755,1261,0,0
-462,-237,0,0,0,0,0,0,0,0,0,-1,762,1261,0,0
-455,-237,0,0,0,0,0,0,0,0,0,-1,769,1261,0,0
-448,-237,0,0,0,0,0,0,0,0,0,-1,776,1261,0,0
-441,-237,0,0,0,0,0,0,0,0,0,-1,783,1261,0,0
-434,-237,0,0,0,0,0,0,0,0,0,-1,790,1261,0,0
-427,-237,0,0,0,0,0,0,0,0,0,-1,797,1261,0,0
-420,-237,0,0,0,0,0,0,0,0,0,-1,804,1261,0,0
-413,-237,0,0,0,0,0,0,0,0,0,-1,811,1261,0,0
-406,-237,0,0,0,0,0,0,0,0,0,-1,818,1261,0,0
-399,-237,0,0,0,0,0,0,0,0,0,-1,825,1261,0,0
-392,-237,0,0,0,0,0,0,0,0,0,-1,832,1261,0,0
-385,-237,0,0,0,0,0,0,0,0,0,-1,839,1261,0,0
-378,-237,0,0,0,0,0,0,0,0,0,-1,846,1261,0,0
-371,-237,0,0,0,0,0,0,0,0,0,-1,853,1261,0,0
-364,-237,0,0,0,0,0,0,0,0,0,-1,860,1261,0,0
-357,-237,0,0,0,0,0,0,0,0,0,-1,867,1261,0,0
-350,-237,0,0,0,0,0,0,0,0,0,-1,874,1261,0,0
-343,-237,0,0,0,0,0,0,0,0,0,-1,881,1261,0,0
-336,-237,0,0,0,0,0,0,0,0,0,-1,888,1261,0,0
-329,-237,0,0,0,0,0,0,0,0,0,-1,895,1261,0,0
-322,-237,0,0,0,0,0,0,0,0,0,-1,902,1261,0,0
-315,-237,0,0,0,0,0,0,0,0,0,-1,909,1261,0,0
-308,-237,0,0,0,0,0,0,0,0,0,-1,916,1261,0,0
-301,-237,0,0,0,0,0,0,0,0,0,-1,923,1261,0,0
-294,-237,0,0,0,0,0,0,0,0,0,-1,930,1261,0,0
-287,-237,0,0,0,0,0,0,0,0,0,-1,937,1261,0,0
-280,-237,0,0,0,0,0,0,0,0,0,-1,944,1261,0,0
-273,-237,0,0,0,0,0,0,0,0,0,-1,951,1261,0,0
-266,-237,0,0,0,0,0,0,0,0,0,-1,958,1261,0,0
-259,-237,0,0,0,0,0,0,0,0,0,-1,965,1261,0,0
-252,-237,0,0,0,0,0,0,0,0,0,-1,972,1261,0,0
-245,-237,0,0,0,0,0,0,0,0,0,-1,979,1261,0,0
-238,-237,0,0,0,0,0,0,0,0,0,-1,986,1261,0,0
-231,-237,0,0,0,0,0,0,0,0,0,-1,993,1261,0,0
-224,-237,0,0,0,0,0,0,0,0,0,-1,1000,1261,0,0
-217,-237,0,0,0,0,0,0,0,0,0,-1,1007,1261,0,0
-210,-237,0,0,0,0,0,0,0,0,0,-1,1014,1261,0,0
-203,-237,0,0,0,0,0,0,0,0,0,-1,1021,1261,0,0
-196,-237,0,0,0,0,0,0,0,0,0,-1,1028,1261,0,0
-189,-237,0,0,0,0,0,0,0,0,0,-1,1035,1261,0,0
-182,-237,0,0,0,0,0,0,0,0,0,-1,1042,1261,0,0
-175,-237,0,0,0,0,0,0,0,0,0,-1,1049,1261,0,0
-168,-237,0,0,0,0,0,0,0,0,0,-1,1056,1261,0,0
-161,-237,0,0,0,0,0,0,0,0,0,-1,1063,1261,0,0
-154,-237,0,0,0,0,0,0,0,0,0,-1,1070,1261,0,0
-147,-237,0,0,0,0,0,0,0,0,0,-1,1077,1261,0,0
-140,-237,0,0,0,0,0,0,0,0,0,-1,1084,1261,0,0
-133,-237,0,0,0,0,0,0,0,0,0,-1,1091,1261,0,0
-126,-237,0,0,0,0,0,0,0,0,0,-1,1098,1261,0,0
-119,-237,0,0,0,0,0,0,0,0,0,-1,1105,1261,0,0
-112,-237,0,0,0,0,0,0,0,0,0,-1,1112,1261,0,0
-105,-237,0,0,0,0,0,0,0,0,0,-1,1119,1261,0,0
-98,-237,0,0,0,0,0,0,0,0,0,-1,1126,1261,0,0
-91,-237,0,0,0,0,0,0,0,0,0,-1,1133,1261,0,0
-84,-237,0,0,0,0,0,0,0,0,0,-1,1140,1261,0,0
-77,-237,0,0,0,0,0,0,0,0,0,-1,1147,1261,0,0
-70,-237,0,0,0,0,0,0,0,0,0,-1,1154,1261,0,0
-63,-237,0,0,0,0,0,0,0,0,0,-1,1161,1261,0,0
-56,-237,0,0,0,0,0,0,0,0,0,-1,1168,1261,0,0
-49,-237,0,0,0,0,0,0,0,0,0,-1,1175,1261,0,0
-42,-237,0,0,0,0,0,0,0,0,0,-1,1182,1261,0,0
-35,-237,0,0,0,0,0,0,0,0,0,-1,1189,1261,0,0
-28,-237,0,0,0,0,0,0,0,0,0,-1,1196,1261,0,0
-21,-237,0,0,0,0,0,0,0,0,0,-1,1203,1261,0,0
-14,-237,0,0,0,0,0,0,0,0,0,-1,1210,1261,0,0
-7,-237,0,0,0,0,0,0,0,0,0,-1,1217,1261,0,0
0,-237,0,0,0,0,0,0,0,0,0,-1,1224,1261,0,0
7,-237,0,0,0,0,0,0,0,0,0,-1,1231,1261,0,0
14,-237,0,0,0,0,0,0,0,0,0,-1,1238,1261,0,0
21,-237,0,0,0,0,0,0,0,0,0,-1,1245,1261,0,0
28,-237,0,0,0,0,0,0,0,0,0,-1,1252,1261,0,0
35,-237,0,0,0,0,0,0,0,0,0,-1,1259,1261,0,0
42,-237,0,0,0,0,0,0,0,0,0,-1,1266,1261,0,0
49,-237,0,0,0,0,0,0,0,0,0,-1,1273,1261,0,0
56,-237,0,0,0,0,0,0,0,0,0,-1,1280,1261,0,0
63,-237,0,0,0,0,0,0,0,0,0,-1,1287,1261,0,0
70,-237,0,0,0,0,0,0,0,0,0,-1,1294,1261,0,0
77,-237,0,0,0,0,0,0,0,0,0,-1,1301,1261,0,0
84,-237,0,0,0,0,0,0,0,0,0,-1,1308,1261,0,0
91,-237,0,0,0,0,0,0,0,0,0,-1,1315,1261,0,0
98,-237,0,0,0,0,0,0,0,0,0,-1,1322,1261,0,0
105,-237,0,0,0,0,0,0,0,0,0,-1,1329,1261,0,0
112,-237,0,0,0,0,0,0,0,0,0,-1,1336,1261,0,0
119,-237,0,0,0,0,0,0,0,0,0,-1,1343,1261,0,0
126,-237,0,0,0,0,0,0,0,0,0,-1,1350,1261,0,0
133,-237,0,0,0,0,0,0,0,0,0,-1,1357,1261,0,0
140,-237,0,0,0,0,0,0,0,0,0,-1,1364,1261,0,0
147,-237,0,0,0,0,0,0,0,0,0,-1,1371,1261,0,0
154,-237,0,0,0,0,0,0,0,0,0,-1,1378,1261,0,0
161,-237,0,0,0,0,0,0,0,0,0,-1,1385,1261,0,0
168,-237,0,0,0,0,0,0,0,0,0,-1,1392,1261,0,0
175,-237,0,0,0,0,0,0,0,0,0,-1,1399,1261,0,0
182,-237,0,0,0,0,0,0,0,0,0,-1,1406,1261,0,0
189,-237,0,0,0,0,0,0,0,0,0,-1,1413,1261,0,0
196,-237,0,0,0,0,0,0,0,0,0,-1,1420,1261,0,0
203,-237,0,0,0,0,0,0,0,0,0,-1,1427,1261,0,0
210,-237,0,0,0,0,0,0,0,0,0,-1,1434,1261,0,0
217,-237,0,0,0,0,0,0,0,0,0,-1,1441,1261,0,0
224,-237,0,0,0,0,0,0,0,0,0,-1,1448,1261,0,0
231,-237,0,0,0,0,0,0,0,0,0,-1,1455,1261,0,0
238,-237,0,0,0,0,0,0,0,0,0,-1,1462,1261,0,0
245,-237,0,0,0,0,0,0,0,0,0,-1,1469,1261,0,0
252,-237,0,0,0,0,0,0,0,0,0,-1,1476,1261,0,0
259,-237,0,0,0,0,0,0,0,0,0,-1,1483,1261,0,0
266,-237,0,0,0,0,0,0,0,0,0,-1,1490,1261,0,0
273,-237,0,0,0,0,0,0,0,0,0,-1,1497,1261,0,0
280,-237,0,0,0,0,0,0,0,0,0,-1,1504,1261,0,0
287,-237,0,0,0,0,0,0,0,0,0,-1,1511,1261,0,0
294,-237,0,0,0,0,0,0,0,0,0,-1,1518,1261,0,0
301,-237,0,0,0,0,0,0,0,0,0,-1,1525,1261,0,0
308,-237,0,0,0,0,0,0,0,0,0,-1,1532,1261,0,0
315,-237,0,0,0,0,0,0,0,0,0,-1,1539,1261,0,0
322,-237,0,0,0,0,0,0,0,0,0,-1,1546,1261,0,0
329,-237,0,0,0,0,0,0,0,0,0,-1,1553,1261,0,0
336,-237,0,0,0,0,0,0,0,0,0,-1,1560,1261,0,0
343,-237,0,0,0,0,0,0,0,0,0,-1,1567,1261,0,0
350,-237,0,0,0,0,0,0,0,0,0,-1,1574,1261,0,0
357,-237,0,0,0,0,0,0,0,0,0,-1,1581,1261,0,0
364,-237,0,0,0,0,0,0,0,0,0,-1,1588,1261,0,0
371,-237,0,0,0,0,0,0,0,0,0,-1,1595,1261,0,0
378,-237,0,0,0,0,0,0,0,0,0,-1,1602,1261,0,0
385,-237,0,0,0,0,0,0,0,0,0,-1,1609,1261,0,0
392,-237,0,0,0,0,0,0,0,0,0,-1,1616,1261,0,0
399,-237,0,0,0,0,0,0,0,0,0,-1,1623,1261,0,0
406,-237,0,0,0,0,0,0,0,0,0,-1,1630,1261,0,0
413,-237,0,0,0,0,0,0,0,0,0,-1,1637,1261,0,0
420,-237,0,0,0,0,0,0,0,0,0,-1,1644,1261,0,0
427,-237,0,0,0,0,0,0,0,0,0,-1,1651,1261,0,0
434,-237,0,0,0,0,0,0,0,0,0,-1,1658,1261,0,0
441,-237,0,0,0,0,0,0,0,0,0,-1,1665,1261,0,0
448,-237,0,0,0,0,0,0,0,0,0,-1,1672,1261,0,0
455,-237,0,0,0,0,0,0,0,0,0,-1,1679,1261,0,0
462,-237,0,0,0,0,0,0,0,0,0,-1,1686,1261,0,0
469,-237,0,0,0,0,0,0,0,0,0,-1,1693,1261,0,0
476,-237,0,0,0,0,0,0,0,0,0,-1,1700,1261,0,0
483,-237,0,0,0,0,0,0,0,0,0,-1,1707,1261,0,0
490,-237,0,0,0,0,0,0,0,0,0,-1,1714,1261,0,0
497,-237,0,0,0,0,0,0,0,0,0,-1,1721,1261,0,0
504,-237,0,0,0,0,0,0,0,0,0,-1,1728,1261,0,0
511,-237,0,0,0,0,0,0,0,0,0,-1,1735,1261,0,0
518,-237,0,0,0,0,0,0,0,0,0,-1,1742,1261,0,0
525,-237,0,0,0,0,0,0,0,0,0,-1,1749,1261,0,0
532,-237,0,0,0,0,0,0,0,0,0,-1,1756,1261,0,0
539,-237,0,0,0,0,0,0,0,0,0,-1,1763,1261,0,0
546,-237,0,0,0,0,0,0,0,0,0,-1,1770,1261,0,0
553,-237,0,0,0,0,0,0,0,0,0,-1,1777,1261,0,0
560,-237,0,0,0,0,0,0,0,0,0,-1,1784,1261,0,0
567,-237,0,0,0,0,0,0,0,0,0,-1,1791,1261,0,0
574,-237,0,0,0,0,0,0,0,0,0,-1,1798,1261,0,0
581,-237,0,0,0,0,0,0,0,0,0,-1,1805,1261,0,0
588,-237,0,0,0,0,0,0,0,0,0,-1,1812,1261,0,0
595,-237,0,0,0,0,0,0,0,0,0,-1,1819,1261,0,0
602,-237,0,0,0,0,0,0,0,0,0,-1,1826,1261,0,0
609,-237,0,0,0,0,0,0,0,0,0,-1,1833,1261,0,0
616,-237,70.8772,2.47449,0.00241666,0.0064867,-0.00289025,0.00798649,0.000916873,-1.09213,0.00504654,0.0375671,1840,1261,70.8772,-2.47451
623,-237,70.9812,2.39075,0.00344638,0.0042049,-0.00353211,0.00737805,0.000273224,-0.838881,0.0048302,0.034593,1847,1261,70.9812,-2.39071
630,-237,70.8867,2.30273,0.00416873,0.00232557,-0.0040641,0.00741443,-0.000920129,-0.673903,0.00527648,0.0267151,1854,1261,70.8867,-2.30272
637,-237,70.806,2.20654,0.00436356,0.00126691,-0.0043365,0.00741985,-0.00178938,-0.61393,0.00563848,0.0204188,1861,1261,70.806,-2.20651
644,-237,70.8096,2.14417,0.00383537,0.001284,-0.00410765,0.00686087,-0.0017415,-0.634839,0.00525156,0.03963,1868,1261,70.8096,-2.14414
651,-237,70.9226,2.20813,0,0,0,0,0,0,0,-1,1875,1261,70.9226,-2.20813
658,-237,62.9901,2.01404,0,0,0,0,0,0,0,-1,1882,1261,62.9901,-2.01406
665,-237,57.9302,3.30676,0,0,0,0,0,0,0,-1,1889,1261,57.9302,-3.30671
672,-237,45.3922,1.95618,0,0,0,0,0,0,0,-1,1896,1261,45.3922,-1.95623
679,-237,23.1501,7.37488,0,0,0,0,0,0,0,-1,1903,1261,23.1502,-7.37493
686,-237,36.8348,9.99426,0,0,0,0,0,0,0,-1,1910,1261,36.8349,-9.99424
693,-237,53.3529,12.8162,0,0,0,0,0,0,0,-1,1917,1261,53.3529,-12.8162
700,-237,53.2257,12.1659,0.000788729,0.000301117,0.000221982,0.000874646,0.000215199,0.369289,0.000526242,0.0322055,1924,1261,53.2257,-12.1659
707,-237,53.14,11.4935,0.000562451,0.00010865,0.000383441,0.000781096,-0.000109995,0.518234,0.000561002,0.0183947,1931,1261,53.14,-11.4935
714,-237,53.0728,10.788,0.000116151,-2.60098e-05,0.000807826,0.000856018,-0.000765877,0.741516,0.000936884,0.0154788,1938,1261,53.0728,-10.7879
721,-237,52.9752,10.1316,-0.000587909,-0.000161573,0.00138824,0.00102977,-0.00177925,0.86158,0.00164091,0.019035,1945,1261,52.9752,-10.1316
728,-237,52.9712,9.43274,-0.0015284,-9.66633e-05,0.00199593,0.00130789,-0.00293295,0.957584,0.00250766,0.0174866,1952,1261,52.9712,-9.43277
735,-237,52.9515,8.74231,-0.00257021,0.000113595,0.00263796,0.00173134,-0.00418796,1.02069,0.00351425,0.0213342,1959,1261,52.9516,-8.74229
742,-237,52.9436,8.05994,-0.00365704,0.000330843,0.00335461,0.00223937,-0.00556556,1.05354,0.00464057,0.0156876,1966,1261,52.9436,-8.05992
749,-237,52.8799,7.38379,-0.00474756,0.000591608,0.00410821,0.00282142,-0.00697737,1.07352,0.00582447,0.0109213,1973,1261,52.8799,-7.38374
756,-237,52.8197,6.69934,-0.00585765,0.000844401,0.00503916,0.00354503,-0.00855828,1.07882,0.00718488,0.0197279,1980,1261,52.8197,-6.69932
763,-237,52.6091,5.91028,-0.00700745,0.00108726,0.00630692,0.00453379,-0.010454,1.07067,0.00887537,0.0400454,1987,1261,52.6091,-5.91024
770,-237,52.6962,4.40515,0,0,0,0,0,0,0,-1,1994,1261,52.6962,-4.40517
777,-237,53.1499,2.79492,0,0,0,0,0,0,0,-1,2001,1261,53.1499,-2.79494
784,-237,36.3441,1.68591,0,0,0,0,0,0,0,-1,2008,1261,36.3441,-1.68592
791,-237,32.3025,6.03235,0,0,0,0,0,0,0,-1,2015,1261,32.3025,-6.03229
798,-237,0,0,0,0,0,0,0,0,0,-1,2022,1261,0,0
805,-237,0,0,0,0,0,0,0,0,0,-1,2029,1261,0,0
812,-237,0,0,0,0,0,0,0,0,0,-1,2036,1261,0,0
-700,-244,0,0,0,0,0,0,0,0,0,-1,524,1268,0,0
-693,-244,0,0,0,0,0,0,0,0,0,-1,531,1268,0,0
-686,-244,0,0,0,0,0,0,0,0,0,-1,538,1268,0,0
-679,-244,0,0,0,0,0,0,0,0,0,-1,545,1268,0,0
-672,-244,-44.7993,4.39575,0,0,0,0,0,0,0,-1,552,1268,-44.7992,-4.39576
-665,-244,-46.0868,3.64392,0,0,0,0,0,0,0,-1,559,1268,-46.0868,-3.64391
-658,-244,-45.9758,2.05481,0,0,0,0,0,0,0,-1,566,1268,-45.9758,-2.05486
-651,-244,-46.4749,1.28564,0,0,0,0,0,0,0,-1,573,1268,-46.4749,-1.28561
-644,-244,-32.7362,1.51355,0,0,0,0,0,0,0,-1,580,1268,-32.7362,-1.51355
-637,-244,-34.8414,3.00073,0,0,0,0,0,0,0,-1,587,1268,-34.8414,-3.00078
-630,-244,-36.0217,4.33508,0,0,0,0,0,0,0,-1,594,1268,-36.0217,-4.33505
-623,-244,-35.9507,5.125,0.00440506,0.00269189,0.00244312,0.00613741,0.000959541,0.616789,0.00381223,0.0409425,601,1268,-35.9507,-5.12504
-616,-244,-35.8964,5.90662,0.00307313,0.00237169,0.00162737,0.00438715,0.00105768,0.679265,0.0026437,0.0176486,608,1268,-35.8963,-5.90662
-609,-244,-35.9355,6.6106,0.00180983,0.00209098,0.00103765,0.00299753,0.000903278,0.852725,0.00177557,0.0142961,615,1268,-35.9355,-6.61054
-602,-244,-35.9799,7.32349,0.000906425,0.00119079,0.000557246,0.00162371,0.00047351,0.910311,0.000964204,0.0150093,622,1268,-35.9799,-7.32348
-595,-244,-36.0217,8.06812,0.000229469,0.00012673,0.00018415,0.00036928,-1.30814e-05,0.64938,0.000250661,0.0157162,629,1268,-36.0217,-8.06809
-588,-244,-36.0336,8.83533,-0.000309692,-0.0011308,-9.09535e-05,-0.000299737,-0.00114075,-0.109009,0.000682879,0.0199302,636,1268,-36.0336,-8.83538
-581,-244,-36.0817,9.53345,-0.000663537,-0.0026758,-0.000297323,-0.000620525,-0.00271881,-0.143667,0.00164518,0.0182339,643,1268,-36.0817,-9.5335
-574,-244,-36.1464,10.2236,-0.000883724,-0.00453642,-0.000443627,-0.000830616,-0.00458953,-0.119145,0.00282383,0.0224491,650,1268,-36.1464,-10.2237
-567,-244,-36.2381,10.9448,-0.000693266,-0.0069471,-0.000397145,-0.000668146,-0.00697221,-0.0631661,0.00444221,0.03337,657,1268,-36.2381,-10.9448
-560,-244,-36.2352,11.6136,-0.000146003,-0.00931672,-0.000220492,-0.000140705,-0.00932201,-0.0240246,0.00616831,0.0428667,664,1268,-36.2353,-11.6137
-553,-244,-36.131,12.302,0,0,0,0,0,0,0,-1,671,1268,-36.131,-12.3019
-546,-244,-11.2686,4.41772,0,0,0,0,0,0,0,-1,678,1268,-11.2686,-4.41767
-539,-244,-12.8706,0.3302,0,0,0,0,0,0,0,-1,685,1268,-12.8706,-0.330156
-532,-244,-18.1502,0.816528,0,0,0,0,0,0,0,-1,692,1268,-18.1502,-0.816514
-525,-244,-33.0835,0.693604,0,0,0,0,0,0,0,-1,699,1268,-33.0835,-0.69365
-518,-244,-47.5015,0.609131,0,0,0,0,0,0,0,-1,706,1268,-47.5015,-0.60919
-511,-244,-48.6138,1.11877,0,0,0,0,0,0,0,-1,713,1268,-48.6138,-1.11872
-504,-244,-54.1479,0.664551,0,0,0,0,0,0,0,-1,720,1268,-54.1479,-0.664565
-497,-244,-54.1907,0.799194,0,0,0,0,0,0,0,-1,727,1268,-54.1907,-0.799181
-490,-244,0,0,0,0,0,0,0,0,0,-1,734,1268,0,0
-483,-244,0,0,0,0,0,0,0,0,0,-1,741,1268,0,0
-476,-244,0,0,0,0,0,0,0,0,0,-1,748,1268,0,0
-469,-244,0,0,0,0,0,0,0,0,0,-1,755,1268,0,0
-462,-244,0,0,0,0,0,0,0,0,0,-1,762,1268,0,0
-455,-244,0,0,0,0,0,0,0,0,0,-1,769,1268,0,0
-448,-244,0,0,0,0,0,0,0,0,0,-1,776,1268,0,0
-441,-244,0,0,0,0,0,0,0,0,0,-1,783,1268,0,0
-434,-244,0,0,0,0,0,0,0,0,0,-1,790,1268,0,0
-427,-244,0,0,0,0,0,0,0,0,0,-1,797,1268,0,0
-420,-244,0,0,0,0,0,0,0,0,0,-1,804,1268,0,0
-413,-244,0,0,0,0,0,0,0,0,0,-1,811,1268,0,0
-406,-244,0,0,0,0,0,0,0,0,0,-1,818,1268,0,0
-399,-244,0,0,0,0,0,0,0,0,0,-1,825,1268,0,0
-392,-244,0,0,0,0,0,0,0,0,0,-1,832,1268,0,0
-385,-244,0,0,0,0,0,0,0,0,0,-1,839,1268,0,0
-378,-244,0,0,0,0,0,0,0,0,0,-1,846,1268,0,0
-371,-244,0,0,0,0,0,0,0,0,0,-1,853,1268,0,0
-364,-244,0,0,0,0,0,0,0,0,0,-1,860,1268,0,0
-357,-244,0,0,0,0,0,0,0,0,0,-1,867,1268,0,0
-350,-244,0,0,0,0,0,0,0,0,0,-1,874,1268,0,0
-343,-244,0,0,0,0,0,0,0,0,0,-1,881,1268,0,0
-336,-244,0,0,0,0,0,0,0,0,0,-1,888,1268,0,0
-329,-244,0,0,0,0,0,0,0,0,0,-1,895,1268,0,0
-322,-244,0,0,0,0,0,0,0,0,0,-1,902,1268,0,0
-315,-244,0,0,0,0,0,0,0,0,0,-1,909,1268,0,0
-308,-244,0,0,0,0,0,0,0,0,0,-1,916,1268,0,0
-301,-244,0,0,0,0,0,0,0,0,0,-1,923,1268,0,0
-294,-244,0,0,0,0,0,0,0,0,0,-1,930,1268,0,0
-287,-244,0,0,0,0,0,0,0,0,0,-1,937,1268,0,0
-280,-244,0,0,0,0,0,0,0,0,0,-1,944,1268,0,0
-273,-244,0,0,0,0,0,0,0,0,0,-1,951,1268,0,0
-266,-244,0,0,0,0,0,0,0,0,0,-1,958,1268,0,0
-259,-244,0,0,0,0,0,0,0,0,0,-1,965,1268,0,0
-252,-244,0,0,0,0,0,0,0,0,0,-1,972,1268,0,0
-245,-244,0,0,0,0,0,0,0,0,0,-1,979,1268,0,0
-238,-244,0,0,0,0,0,0,0,0,0,-1,986,1268,0,0
-231,-244,0,0,0,0,0,0,0,0,0,-1,993,1268,0,0
-224,-244,0,0,0,0,0,0,0,0,0,-1,1000,1268,0,0
-217,-244,0,0,0,0,0,0,0,0,0,-1,1007,1268,0,0
-210,-244,0,0,0,0,0,0,0,0,0,-1,1014,1268,0,0
-203,-244,0,0,0,0,0,0,0,0,0,-1,1021,1268,0,0
-196,-244,0,0,0,0,0,0,0,0,0,-1,1028,1268,0,0
-189,-244,0,0,0,0,0,0,0,0,0,-1,1035,1268,0,0
-182,-244,0,0,0,0,0,0,0,0,0,-1,1042,1268,0,0
-175,-244,0,0,0,0,0,0,0,0,0,-1,1049,1268,0,0
-168,-244,0,0,0,0,0,0,0,0,0,-1,1056,1268,0,0
-161,-244,0,0,0,0,0,0,0,0,0,-1,1063,1268,0,0
-154,-244,0,0,0,0,0,0,0,0,0,-1,1070,1268,0,0
-147,-244,0,0,0,0,0,0,0,0,0,-1,1077,1268,0,0
-140,-244,0,0,0,0,0,0,0,0,0,-1,1084,1268,0,0
-133,-244,0,0,0,0,0,0,0,0,0,-1,1091,1268,0,0
-126,-244,0,0,0,0,0,0,0,0,0,-1,1098,1268,0,0
-119,-244,0,0,0,0,0,0,0,0,0,-1,1105,1268,0,0
-112,-244,0,0,0,0,0,0,0,0,0,-1,1112,1268,0,0
-105,-244,0,0,0,0,0,0,0,0,0,-1,1119,1268,0,0
-98,-244,0,0,0,0,0,0,0,0,0,-1,1126,1268,0,0
-91,-244,0,0,0,0,0,0,0,0,0,-1,1133,1268,0,0
-84,-244,0,0,0,0,0,0,0,0,0,-1,1140,1268,0,0
-77,-244,0,0,0,0,0,0,0,0,0,-1,1147,1268,0,0
-70,-244,0,0,0,0,0,0,0,0,0,-1,1154,1268,0,0
-63,-244,0,0,0,0,0,0,0,0,0,-1,1161,1268,0,0
-56,-244,0,0,0,0,0,0,0,0,0,-1,1168,1268,0,0
-49,-244,0,0,0,0,0,0,0,0,0,-1,1175,1268,0,0
-42,-244,0,0,0,0,0,0,0,0,0,-1,1182,1268,0,0
-35,-244,0,0,0,0,0,0,0,0,0,-1,1189,1268,0,0
-28,-244,0,0,0,0,0,0,0,0,0,-1,1196,1268,0,0
-21,-244,0,0,0,0,0,0,0,0,0,-1,1203,1268,0,0
-14,-244,0,0,0,0,0,0,0,0,0,-1,1210,1268,0,0
-7,-244,0,0,0,0,0,0,0,0,0,-1,1217,1268,0,0
0,-244,0,0,0,0,0,0,0,0,0,-1,1224,1268,0,0
7,-244,0,0,0,0,0,0,0,0,0,-1,1231,1268,0,0
14,-244,0,0,0,0,0,0,0,0,0,-1,1238,1268,0,0
21,-244,0,0,0,0,0,0,0,0,0,-1,1245,1268,0,0
28,-244,0,0,0,0,0,0,0,0,0,-1,1252,1268,0,0
35,-244,0,0,0,0,0,0,0,0,0,-1,1259,1268,0,0
42,-244,0,0,0,0,0,0,0,0,0,-1,1266,1268,0,0
49,-244,0,0,0,0,0,0,0,0,0,-1,1273,1268,0,0
56,-244,0,0,0,0,0,0,0,0,0,-1,1280,1268,0,0
63,-244,0,0,0,0,0,0,0,0,0,-1,1287,1268,0,0
70,-244,0,0,0,0,0,0,0,0,0,-1,1294,1268,0,0
77,-244,0,0,0,0,0,0,0,0,0,-1,1301,1268,0,0
84,-244,0,0,0,0,0,0,0,0,0,-1,1308,1268,0,0
91,-244,0,0,0,0,0,0,0,0,0,-1,1315,1268,0,0
98,-244,0,0,0,0,0,0,0,0,0,-1,1322,1268,0,0
105,-244,0,0,0,0,0,0,0,0,0,-1,1329,1268,0,0
112,-244,0,0,0,0,0,0,0,0,0,-1,1336,1268,0,0
119,-244,0,0,0,0,0,0,0,0,0,-1,1343,1268,0,0
126,-244,0,0,0,0,0,0,0,0,0,-1,1350,1268,0,0
133,-244,0,0,0,0,0,0,0,0,0,-1,1357,1268,0,0
140,-244,0,0,0,0,0,0,0,0,0,-1,1364,1268,0,0
147,-244,0,0,0,0,0,0,0,0,0,-1,1371,1268,0,0
154,-244,0,0,0,0,0,0,0,0,0,-1,1378,1268,0,0
161,-244,0,0,0,0,0,0,0,0,0,-1,1385,1268,0,0
168,-244,0,0,0,0,0,0,0,0,0,-1,1392,1268,0,0
175,-244,0,0,0,0,0,0,0,0,0,-1,1399,1268,0,0
182,-244,0,0,0,0,0,0,0,0,0,-1,1406,1268,0,0
189,-244,0,0,0,0,0,0,0,0,0,-1,1413,1268,0,0
196,-244,0,0,0,0,0,0,0,0,0,-1,1420,1268,0,0
203,-244,0,0,0,0,0,0,0,0,0,-1,1427,1268,0,0
210,-244,0,0,0,0,0,0,0,0,0,-1,1434,1268,0,0
217,-244,0,0,0,0,0,0,0,0,0,-1,1441,1268,0,0
224,-244,0,0,0,0,0,0,0,0,0,-1,1448,1268,0,0
231,-244,0,0,0,0,0,0,0,0,0,-1,1455,1268,0,0
238,-244,0,0,0,0,0,0,0,0,0,-1,1462,1268,0,0
245,-244,0,0,0,0,0,0,0,0,0,-1,1469,1268,0,0
252,-244,0,0,0,0,0,0,0,0,0,-1,1476,1268,0,0
259,-244,0,0,0,0,0,0,0,0,0,-1,1483,1268,0,0
266,-244,0,0,0,0,0,0,0,0,0,-1,1490,1268,0,0
273,-244,0,0,0,0,0,0,0,0,0,-1,1497,1268,0,0
280,-244,0,0,0,0,0,0,0,0,0,-1,1504,1268,0,0
287,-244,0,0,0,0,0,0,0,0,0,-1,1511,1268,0,0
294,-244,0,0,0,0,0,0,0,0,0,-1,1518,1268,0,0
301,-244,0,0,0,0,0,0,0,0,0,-1,1525,1268,0,0
308,-244,0,0,0,0,0,0,0,0,0,-1,1532,1268,0,0
315,-244,0,0,0,0,0,0,0,0,0,-1,1539,1268,0,0
322,-244,0,0,0,0,0,0,0,0,0,-1,1546,1268,0,0
329,-244,0,0,0,0,0,0,0,0,0,-1,1553,1268,0,0
336,-244,0,0,0,0,0,0,0,0,0,-1,1560,1268,0,0
343,-244,0,0,0,0,0,0,0,0,0,-1,1567,1268,0,0
350,-244,0,0,0,0,0,0,0,0,0,-1,1574,1268,0,0
357,-244,0,0,0,0,0,0,0,0,0,-1,1581,1268,0,0
364,-244,0,0,0,0,0,0,0,0,0,-1,1588,1268,0,0
371,-244,0,0,0,0,0,0,0,0,0,-1,1595,1268,0,0
378,-244,0,0,0,0,0,0,0,0,0,-1,1602,1268,0,0
385,-244,0,0,0,0,0,0,0,0,0,-1,1609,1268,0,0
392,-244,0,0,0,0,0,0,0,0,0,-1,1616,1268,0,0
399,-244,0,0,0,0,0,0,0,0,0,-1,1623,1268,0,0
406,-244,0,0,0,0,0,0,0,0,0,-1,1630,1268,0,0
413,-244,0,0,0,0,0,0,0,0,0,-1,1637,1268,0,0
420,-244,0,0,0,0,0,0,0,0,0,-1,1644,1268,0,0
427,-244,0,0,0,0,0,0,0,0,0,-1,1651,1268,0,0
434,-244,0,0,0,0,0,0,0,0,0,-1,1658,1268,0,0
441,-244,0,0,0,0,0,0,0,0,0,-1,1665,1268,0,0
448,-244,0,0,0,0,0,0,0,0,0,-1,1672,1268,0,0
455,-244,0,0,0,0,0,0,0,0,0,-1,1679,1268,0,0
462,-244,0,0,0,0,0,0,0,0,0,-1,1686,1268,0,0
469,-244,0,0,0,0,0,0,0,0,0,-1,1693,1268,0,0
476,-244,0,0,0,0,0,0,0,0,0,-1,1700,1268,0,0
483,-244,0,0,0,0,0,0,0,0,0,-1,1707,1268,0,0
490,-244,0,0,0,0,0,0,0,0,0,-1,1714,1268,0,0
497,-244,0,0,0,0,0,0,0,0,0,-1,1721,1268,0,0
504,-244,0,0,0,0,0,0,0,0,0,-1,1728,1268,0,0
511,-244,0,0,0,0,0,0,0,0,0,-1,1735,1268,0,0
518,-244,0,0,0,0,0,0,0,0,0,-1,1742,1268,0,0
525,-244,0,0,0,0,0,0,0,0,0,-1,1749,1268,0,0
532,-244,0,0,0,0,0,0,0,0,0,-1,1756,1268,0,0
539,-244,0,0,0,0,0,0,0,0,0,-1,1763,1268,0,0
546,-244,0,0,0,0,0,0,0,0,0,-1,1770,1268,0,0
553,-244,0,0,0,0,0,0,0,0,0,-1,1777,1268,0,0
560,-244,0,0,0,0,0,0,0,0,0,-1,1784,1268,0,0
567,-244,0,0,0,0,0,0,0,0,0,-1,1791,1268,0,0
574,-244,0,0,0,0,0,0,0,0,0,-1,1798,1268,0,0
581,-244,0,0,0,0,0,0,0,0,0,-1,1805,1268,0,0
588,-244,0,0,0,0,0,0,0,0,0,-1,1812,1268,0,0
595,-244,0,0,0,0,0,0,0,0,0,-1,1819,1268,0,0
602,-244,0,0,0,0,0,0,0,0,0,-1,1826,1268,0,0
609,-244,0,0,0,0,0,0,0,0,0,-1,1833,1268,0,0
616,-244,70.892,2.28564,0.00289917,0.00627783,-0.002962,0.00799838,0.00117862,-1.04456,0.00498603,0.0331575,1840,1268,70.8919,-2.2857
623,-244,70.9402,2.29871,0.00477495,0.00345953,-0.00382007,0.00799351,0.000240962,-0.700148,0.00525053,0.0266829,1847,1268,70.9402,-2.29873
630,-244,70.8383,2.22498,0.00602488,0.00109715,-0.00449575,0.00868765,-0.00156562,-0.534728,0.00637802,0.0244538,1854,1268,70.8383,-2.22498
637,-244,70.9609,2.24365,0,0,0,0,0,0,0,-1,1861,1268,70.9609,-2.24363
644,-244,70.9468,2.54797,0,0,0,0,0,0,0,-1,1868,1268,70.9468,-2.54802
651,-244,70.9476,2.7616,0,0,0,0,0,0,0,-1,1875,1268,70.9476,-2.76155
658,-244,69.1154,0.765625,0,0,0,0,0,0,0,-1,1882,1268,69.1154,-0.765637
665,-244,50.7988,1.09888,0,0,0,0,0,0,0,-1,1889,1268,50.7989,-1.09893
672,-244,32.224,3.6123,0,0,0,0,0,0,0,-1,1896,1268,32.224,-3.6123
679,-244,27.2593,7.90649,0,0,0,0,0,0,0,-1,1903,1268,27.2592,-7.9065
686,-244,52.431,13.6299,0,0,0,0,0,0,0,-1,1910,1268,52.4311,-13.6299
693,-244,52.3727,12.9913,0.00111379,-0.000195841,-0.000403916,0.00122835,-0.000310396,-0.276355,0.000939611,0.0385718,1917,1268,52.3726,-12.9913
700,-244,52.4196,12.2581,0.00092121,-6.59157e-05,3.95578e-05,0.000922793,-6.74985e-05,0.0399882,0.000638885,0.012803,1924,1268,52.4196,-12.258
707,-244,52.4098,11.5471,0.000533902,-0.000142226,0.000313426,0.000656841,-0.000265164,0.373799,0.000548097,0.0109726,1931,1268,52.4098,-11.5472
714,-244,52.4414,10.8406,-0.000111752,-0.000116695,0.000843306,0.000729086,-0.000957533,0.783933,0.000976743,0.0150494,1938,1268,52.4415,-10.8406
721,-244,52.3362,10.1858,-0.000957336,-7.69923e-05,0.0014543,0.00100229,-0.00203662,0.93235,0.00178807,0.0218075,1945,1268,52.3362,-10.1858
728,-244,52.2938,9.45166,-0.00195208,0.000108711,0.00206257,0.00138394,-0.00322731,1.01705,0.00273229,0.0281567,1952,1268,52.2938,-9.45163
735,-244,52.23,8.68396,-0.00303952,0.000362409,0.00269851,0.00185131,-0.00452842,1.06661,0.00378989,0.0284148,1959,1268,52.2299,-8.68401
742,-244,52.176,8.10193,-0.00419577,0.000632145,0.00338964,0.00237953,-0.00594316,1.09482,0.00494976,0.0173011,1966,1268,52.176,-8.10189
749,-244,52.0366,7.54626,-0.00540438,0.000953207,0.00409478,0.00295823,-0.0074094,1.11546,0.00616691,0.025511,1973,1268,52.0366,-7.54624
756,-244,51.8341,7.0116,-0.0067007,0.00125198,0.00499835,0.00366272,-0.00911144,1.1214,0.00759551,0.0372656,1980,1268,51.834,-7.01163
763,-244,51.9452,5.89551,0,0,0,0,0,0,0,-1,1987,1268,51.9451,-5.89547
770,-244,52.7217,3.9823,0,0,0,0,0,0,0,-1,1994,1268,52.7217,-3.98236
777,-244,48.7119,2.7002,0,0,0,0,0,0,0,-1,2001,1268,48.712,-2.70019
784,-244,31.7908,5.20081,0,0,0,0,0,0,0,-1,2008,1268,31.7907,-5.20083
791,-244,0,0,0,0,0,0,0,0,0,-1,2015,1268,0,0
798,-244,0,0,0,0,0,0,0,0,0,-1,2022,1268,0,0
805,-244,0,0,0,0,0,0,0,0,0,-1,2029,1268,0,0
812,-244,0,0,0,0,0,0,0,0,0,-1,2036,1268,0,0
-700,-251,0,0,0,0,0,0,0,0,0,-1,524,1275,0,0
-693,-251,0,0,0,0,0,0,0,0,0,-1,531,1275,0,0
-686,-251,0,0,0,0,0,0,0,0,0,-1,538,1275,0,0
-679,-251,0,0,0,0,0,0,0,0,0,-1,545,1275,0,0
-672,-251,0,0,0,0,0,0,0,0,0,-1,552,1275,0,0
-665,-251,-45.2521,2.44568,0,0,0,0,0,0,0,-1,559,1275,-45.2521,-2.44573
-658,-251,-45.5222,1.44397,0,0,0,0,0,0,0,-1,566,1275,-45.5221,-1.44401
-651,-251,-45.8498,0.382935,0,0,0,0,0,0,0,-1,573,1275,-45.8498,-0.382965
-644,-251,-46.2018,-0.658325,0,0,0,0,0,0,0,-1,580,1275,-46.2019,0.658365
-637,-251,-35.2292,3.33899,0,0,0,0,0,0,0,-1,587,1275,-35.2292,-3.33904
-630,-251,-35.2609,4.21094,0,0,0,0,0,0,0,-1,594,1275,-35.2609,-4.21097
-623,-251,-35.2545,5.10254,0.00443143,0.00413475,0.00365242,0.00793852,0.00062766,0.765102,0.00509603,0.0408434,601,1275,-35.2545,-5.10253
-616,-251,-35.1603,5.91882,0.00330377,0.00332953,0.00242931,0.00574599,0.000887302,0.788049,0.00357182,0.0210775,608,1275,-35.1603,-5.91879
-609,-251,-35.2242,6.65796,0.00206608,0.00285427,0.00159233,0.00410055,0.000819798,0.906708,0.00250554,0.0194609,615,1275,-35.2242,-6.65794
-602,-251,-35.2407,7.37854,0.0011744,0.00174142,0.000937735,0.00243757,0.000478256,0.932197,0.00149141,0.0147133,622,1275,-35.2407,-7.37854
-595,-251,-35.2825,8.10803,0.000506687,0.000549339,0.000439301,0.000967832,8.81948e-05,0.809652,0.000617925,0.013071,629,1275,-35.2826,-8.10802
-588,-251,-35.314,8.8269,1.45619e-05,-0.000768645,7.20527e-05,2.11353e-05,-0.000775218,0.0909795,0.000523999,0.0154609,636,1275,-35.314,-8.82686
-581,-251,-35.3568,9.57495,-0.000324104,-0.00226824,-0.000197813,-0.000304181,-0.00228816,-0.100378,0.00143484,0.015259,643,1275,-35.3568,-9.57492
-574,-251,-35.3983,10.3516,-0.000496946,-0.00399275,-0.000382904,-0.000455497,-0.0040342,-0.107829,0.00255122,0.0157737,650,1275,-35.3983,-10.3516
-567,-251,-35.4918,11.0847,-0.000319732,-0.00606869,-0.000408786,-0.000290811,-0.00609761,-0.0706325,0.00397169,0.0282629,657,1275,-35.4918,-11.0848
-560,-251,-35.4859,11.9812,0.000234462,-0.00804343,-0.000255323,0.000242329,-0.00805129,-0.0308049,0.0054501,0.0475672,664,1275,-35.4859,-11.9812
-553,-251,-35.3248,12.7837,0,0,0,0,0,0,0,-1,671,1275,-35.3248,-12.7837
-546,-251,-12.995,4.5675,0,0,0,0,0,0,0,-1,678,1275,-12.995,-4.56745
-539,-251,-10.7916,0.366333,0,0,0,0,0,0,0,-1,685,1275,-10.7916,-0.366282
-532,-251,-10.7391,-0.00769043,0,0,0,0,0,0,0,-1,692,1275,-10.7391,0.00773227
-525,-251,-29.4286,-0.250244,0,0,0,0,0,0,0,-1,699,1275,-29.4286,0.250266
-518,-251,-32.6981,0.678833,0,0,0,0,0,0,0,-1,706,1275,-32.6981,-0.678787
-511,-251,-29.4731,0.637085,0,0,0,0,0,0,0,-1,713,1275,-29.4731,-0.637025
-504,-251,-30.6428,0.792358,0,0,0,0,0,0,0,-1,720,1275,-30.6427,-0.792335
-497,-251,-54.1249,0.753784,0,0,0,0,0,0,0,-1,727,1275,-54.1249,-0.753774
-490,-251,0,0,0,0,0,0,0,0,0,-1,734,1275,0,0
-483,-251,0,0,0,0,0,0,0,0,0,-1,741,1275,0,0
-476,-251,0,0,0,0,0,0,0,0,0,-1,748,1275,0,0
-469,-251,0,0,0,0,0,0,0,0,0,-1,755,1275,0,0
-462,-251,0,0,0,0,0,0,0,0,0,-1,762,1275,0,0
-455,-251,0,0,0,0,0,0,0,0,0,-1,769,1275,0,0
-448,-251,0,0,0,0,0,0,0,0,0,-1,776,1275,0,0
-441,-251,0,0,0,0,0,0,0,0,0,-1,783,1275,0,0
-434,-251,0,0,0,0,0,0,0,0,0,-1,790,1275,0,0
-427,-251,0,0,0,0,0,0,0,0,0,-1,797,1275,0,0
-420,-251,0,0,0,0,0,0,0,0,0,-1,804,1275,0,0
-413,-251,0,0,0,0,0,0,0,0,0,-1,811,1275,0,0
-406,-251,0,0,0,0,0,0,0,0,0,-1,818,1275,0,0
-399,-251,0,0,0,0,0,0,0,0,0,-1,825,1275,0,0
-392,-251,0,0,0,0,0,0,0,0,0,-1,832,1275,0,0
-385,-251,0,0,0,0,0,0,0,0,0,-1,839,1275,0,0
-378,-251,0,0,0,0,0,0,0,0,0,-1,846,1275,0,0
-371,-251,0,0,0,0,0,0,0,0,0,-1,853,1275,0,0
-364,-251,0,0,0,0,0,0,0,0,0,-1,860,1275,0,0
-357,-251,0,0,0,0,0,0,0,0,0,-1,867,1275,0,0
-350,-251,0,0,0,0,0,0,0,0,0,-1,874,1275,0,0
-343,-251,0,0,0,0,0,0,0,0,0,-1,881,1275,0,0
-336,-251,0,0,0,0,0,0,0,0,0,-1,888,1275,0,0
-329,-251,0,0,0,0,0,0,0,0,0,-1,895,1275,0,0
-322,-251,0,0,0,0,0,0,0,0,0,-1,902,1275,0,0
-315,-251,0,0,0,0,0,0,0,0,0,-1,909,1275,0,0
-308,-251,0,0,0,0,0,0,0,0,0,-1,916,1275,0,0
-301,-251,0,0,0,0,0,0,0,0,0,-1,923,1275,0,0
-294,-251,0,0,0,0,0,0,0,0,0,-1,930,1275,0,0
-287,-251,0,0,0,0,0,0,0,0,0,-1,937,1275,0,0
-280,-251,0,0,0,0,0,0,0,0,0,-1,944,1275,0,0
-273,-251,0,0,0,0,0,0,0,0,0,-1,951,1275,0,0
-266,-251,0,0,0,0,0,0,0,0,0,-1,958,1275,0,0
-259,-251,0,0,0,0,0,0,0,0,0,-1,965,1275,0,0
-252,-251,0,0,0,0,0,0,0,0,0,-1,972,1275,0,0
-245,-251,0,0,0,0,0,0,0,0,0,-1,979,1275,0,0
-238,-251,0,0,0,0,0,0,0,0,0,-1,986,1275,0,0
-231,-251,0,0,0,0,0,0,0,0,0,-1,993,1275,0,0
-224,-251,0,0,0,0,0,0,0,0,0,-1,1000,1275,0,0
-217,-251,0,0,0,0,0,0,0,0,0,-1,1007,1275,0,0
-210,-251,0,0,0,0,0,0,0,0,0,-1,1014,1275,0,0
-203,-251,0,0,0,0,0,0,0,0,0,-1,1021,1275,0,0
-196,-251,0,0,0,0,0,0,0,0,0,-1,1028,1275,0,0
-189,-251,0,0,0,0,0,0,0,0,0,-1,1035,1275,0,0
-182,-251,0,0,0,0,0,0,0,0,0,-1,1042,1275,0,0
-175,-251,0,0,0,0,0,0,0,0,0,-1,1049,1275,0,0
-168,-251,0,0,0,0,0,0,0,0,0,-1,1056,1275,0,0
-161,-251,0,0,0,0,0,0,0,0,0,-1,1063,1275,0,0
-154,-251,0,0,0,0,0,0,0,0,0,-1,1070,1275,0,0
-147,-251,0,0,0,0,0,0,0,0,0,-1,1077,1275,0,0
-140,-251,0,0,0,0,0,0,0,0,0,-1,1084,1275,0,0
-133,-251,0,0,0,0,0,0,0,0,0,-1,1091,1275,0,0
-126,-251,0,0,0,0,0,0,0,0,0,-1,1098,1275,0,0
-119,-251,0,0,0,0,0,0,0,0,0,-1,1105,1275,0,0
-112,-251,0,0,0,0,0,0,0,0,0,-1,1112,1275,0,0
-105,-251,0,0,0,0,0,0,0,0,0,-1,1119,1275,0,0
-98,-251,0,0,0,0,0,0,0,0,0,-1,1126,1275,0,0
-91,-251,0,0,0,0,0,0,0,0,0,-1,1133,1275,0,0
-84,-251,0,0,0,0,0,0,0,0,0,-1,1140,1275,0,0
-77,-251,0,0,0,0,0,0,0,0,0,-1,1147,1275,0,0
-70,-251,0,0,0,0,0,0,0,0,0,-1,1154,1275,0,0
-63,-251,0,0,0,0,0,0,0,0,0,-1,1161,1275,0,0
-56,-251,0,0,0,0,0,0,0,0,0,-1,1168,1275,0,0
-49,-251,0,0,0,0,0,0,0,0,0,-1,1175,1275,0,0
-42,-251,0,0,0,0,0,0,0,0,0,-1,1182,1275,0,0
-35,-251,0,0,0,0,0,0,0,0,0,-1,1189,1275,0,0
-28,-251,0,0,0,0,0,0,0,0,0,-1,1196,1275,0,0
-21,-251,0,0,0,0,0,0,0,0,0,-1,1203,1275,0,0
-14,-251,0,0,0,0,0,0,0,0,0,-1,1210,1275,0,0
-7,-251,0,0,0,0,0,0,0,0,0,-1,1217,1275,0,0
0,-251,0,0,0,0,0,0,0,0,0,-1,1224,1275,0,0
7,-251,0,0,0,0,0,0,0,0,0,-1,1231,1275,0,0
14,-251,0,0,0,0,0,0,0,0,0,-1,1238,1275,0,0
21,-251,0,0,0,0,0,0,0,0,0,-1,1245,1275,0,0
28,-251,0,0,0,0,0,0,0,0,0,-1,1252,1275,0,0
35,-251,0,0,0,0,0,0,0,0,0,-1,1259,1275,0,0
42,-251,0,0,0,0,0,0,0,0,0,-1,1266,1275,0,0
49,-251,0,0,0,0,0,0,0,0,0,-1,1273,1275,0,0
56,-251,0,0,0,0,0,0,0,0,0,-1,1280,1275,0,0
63,-251,0,0,0,0,0,0,0,0,0,-1,1287,1275,0,0
70,-251,0,0,0,0,0,0,0,0,0,-1,1294,1275,0,0
77,-251,0,0,0,0,0,0,0,0,0,-1,1301,1275,0,0
84,-251,0,0,0,0,0,0,0,0,0,-1,1308,1275,0,0
91,-251,0,0,0,0,0,0,0,0,0,-1,1315,1275,0,0
98,-251,0,0,0,0,0,0,0,0,0,-1,1322,1275,0,0
105,-251,0,0,0,0,0,0,0,0,0,-1,1329,1275,0,0
112,-251,0,0,0,0,0,0,0,0,0,-1,1336,1275,0,0
119,-251,0,0,0,0,0,0,0,0,0,-1,1343,1275,0,0
126,-251,0,0,0,0,0,0,0,0,0,-1,1350,1275,0,0
133,-251,0,0,0,0,0,0,0,0,0,-1,1357,1275,0,0
140,-251,0,0,0,0,0,0,0,0,0,-1,1364,1275,0,0
147,-251,0,0,0,0,0,0,0,0,0,-1,1371,1275,0,0
154,-251,0,0,0,0,0,0,0,0,0,-1,1378,1275,0,0
161,-251,0,0,0,0,0,0,0,0,0,-1,1385,1275,0,0
168,-251,0,0,0,0,0,0,0,0,0,-1,1392,1275,0,0
175,-251,0,0,0,0,0,0,0,0,0,-1,1399,1275,0,0
182,-251,0,0,0,0,0,0,0,0,0,-1,1406,1275,0,0
189,-251,0,0,0,0,0,0,0,0,0,-1,1413,1275,0,0
196,-251,0,0,0,0,0,0,0,0,0,-1,1420,1275,0,0
203,-251,0,0,0,0,0,0,0,0,0,-1,1427,1275,0,0
210,-251,0,0,0,0,0,0,0,0,0,-1,1434,1275,0,0
217,-251,0,0,0,0,0,0,0,0,0,-1,1441,1275,0,0
224,-251,0,0,0,0,0,0,0,0,0,-1,1448,1275,0,0
231,-251,0,0,0,0,0,0,0,0,0,-1,1455,1275,0,0
238,-251,0,0,0,0,0,0,0,0,0,-1,1462,1275,0,0
245,-251,0,0,0,0,0,0,0,0,0,-1,1469,1275,0,0
252,-251,0,0,0,0,0,0,0,0,0,-1,1476,1275,0,0
259,-251,0,0,0,0,0,0,0,0,0,-1,1483,1275,0,0
266,-251,0,0,0,0,0,0,0,0,0,-1,1490,1275,0,0
273,-251,0,0,0,0,0,0,0,0,0,-1,1497,1275,0,0
280,-251,0,0,0,0,0,0,0,0,0,-1,1504,1275,0,0
287,-251,0,0,0,0,0,0,0,0,0,-1,1511,1275,0,0
294,-251,0,0,0,0,0,0,0,0,0,-1,1518,1275,0,0
301,-251,0,0,0,0,0,0,0,0,0,-1,1525,1275,0,0
308,-251,0,0,0,0,0,0,0,0,0,-1,1532,1275,0,0
315,-251,0,0,0,0,0,0,0,0,0,-1,1539,1275,0,0
322,-251,0,0,0,0,0,0,0,0,0,-1,1546,1275,0,0
329,-251,0,0,0,0,0,0,0,0,0,-1,1553,1275,0,0
336,-251,0,0,0,0,0,0,0,0,0,-1,1560,1275,0,0
343,-251,0,0,0,0,0,0,0,0,0,-1,1567,1275,0,0
350,-251,0,0,0,0,0,0,0,0,0,-1,1574,1275,0,0
357,-251,0,0,0,0,0,0,0,0,0,-1,1581,1275,0,0
364,-251,0,0,0,0,0,0,0,0,0,-1,1588,1275,0,0
371,-251,0,0,0,0,0,0,0,0,0,-1,1595,1275,0,0
378,-251,0,0,0,0,0,0,0,0,0,-1,1602,1275,0,0
385,-251,0,0,0,0,0,0,0,0,0,-1,1609,1275,0,0
392,-251,0,0,0,0,0,0,0,0,0,-1,1616,1275,0,0
399,-251,0,0,0,0,0,0,0,0,0,-1,1623,1275,0,0
406,-251,0,0,0,0,0,0,0,0,0,-1,1630,1275,0,0
413,-251,0,0,0,0,0,0,0,0,0,-1,1637,1275,0,0
420,-251,0,0,0,0,0,0,0,0,0,-1,1644,1275,0,0
427,-251,0,0,0,0,0,0,0,0,0,-1,1651,1275,0,0
434,-251,0,0,0,0,0,0,0,0,0,-1,1658,1275,0,0
441,-251,0,0,0,0,0,0,0,0,0,-1,1665,1275,0,0
448,-251,0,0,0,0,0,0,0,0,0,-1,1672,1275,0,0
455,-251,0,0,0,0,0,0,0,0,0,-1,1679,1275,0,0
462,-251,0,0,0,0,0,0,0,0,0,-1,1686,1275,0,0
469,-251,0,0,0,0,0,0,0,0,0,-1,1693,1275,0,0
476,-251,0,0,0,0,0,0,0,0,0,-1,1700,1275,0,0
483,-251,0,0,0,0,0,0,0,0,0,-1,1707,1275,0,0
490,-251,0,0,0,0,0,0,0,0,0,-1,1714,1275,0,0
497,-251,0,0,0,0,0,0,0,0,0,-1,1721,1275,0,0
504,-251,0,0,0,0,0,0,0,0,0,-1,1728,1275,0,0
511,-251,0,0,0,0,0,0,0,0,0,-1,1735,1275,0,0
518,-251,0,0,0,0,0,0,0,0,0,-1,1742,1275,0,0
525,-251,0,0,0,0,0,0,0,0,0,-1,1749,1275,0,0
532,-251,0,0,0,0,0,0,0,0,0,-1,1756,1275,0,0
539,-251,0,0,0,0,0,0,0,0,0,-1,1763,1275,0,0
546,-251,0,0,0,0,0,0,0,0,0,-1,1770,1275,0,0
553,-251,0,0,0,0,0,0,0,0,0,-1,1777,1275,0,0
560,-251,0,0,0,0,0,0,0,0,0,-1,1784,1275,0,0
567,-251,0,0,0,0,0,0,0,0,0,-1,1791,1275,0,0
574,-251,0,0,0,0,0,0,0,0,0,-1,1798,1275,0,0
581,-251,0,0,0,0,0,0,0,0,0,-1,1805,1275,0,0
588,-251,0,0,0,0,0,0,0,0,0,-1,1812,1275,0,0
595,-251,0,0,0,0,0,0,0,0,0,-1,1819,1275,0,0
602,-251,0,0,0,0,0,0,0,0,0,-1,1826,1275,0,0
609,-251,70.8495,2.21985,0.000833344,0.00891308,-0.00219035,0.00946866,0.000277762,-1.32239,0.00622192,0.0302759,1833,1275,70.8495,-2.21985
616,-251,70.8669,2.22656,0.00444753,0.00528371,-0.00325669,0.00814904,0.00158221,-0.849238,0.00498962,0.0260812,1840,1275,70.8669,-2.22658
623,-251,70.8298,2.20215,0.0072938,0.0020068,-0.00419381,0.00960774,-0.000307135,-0.504186,0.00650995,0.022523,1847,1275,70.8298,-2.2022
630,-251,70.7164,2.04907,0.00840135,-5.57594e-05,-0.00467499,0.0104765,-0.00213087,-0.417749,0.00779233,0.0340129,1854,1275,70.7164,-2.04907
637,-251,70.6139,1.7583,0,0,0,0,0,0,0,-1,1861,1275,70.6139,-1.75833
644,-251,70.6644,1.63074,0,0,0,0,0,0,0,-1,1868,1275,70.6644,-1.63074
651,-251,69.2196,0.908813,0,0,0,0,0,0,0,-1,1875,1275,69.2196,-0.908771
658,-251,64.3931,2.57288,0,0,0,0,0,0,0,-1,1882,1275,64.393,-2.57287
665,-251,32.9579,2.60229,0,0,0,0,0,0,0,-1,1889,1275,32.9579,-2.60231
672,-251,26.0721,4.53064,0,0,0,0,0,0,0,-1,1896,1275,26.0721,-4.53063
679,-251,29.1344,8.63782,0,0,0,0,0,0,0,-1,1903,1275,29.1344,-8.63778
686,-251,51.9006,13.6447,0,0,0,0,0,0,0,-1,1910,1275,51.9007,-13.6447
693,-251,51.7642,12.9928,0.00126955,-0.000383228,-0.000386788,0.00135559,-0.000469266,-0.218879,0.00109422,0.0305159,1917,1275,51.7642,-12.9928
700,-251,51.7196,12.2742,0.00100008,-0.000253479,6.64546e-05,0.00100359,-0.000256992,0.0528154,0.000769173,0.011156,1924,1275,51.7196,-12.2741
707,-251,51.7126,11.5742,0.000434886,-0.000241081,0.000381859,0.000606853,-0.000413047,0.423137,0.000592373,0.0118353,1931,1275,51.7127,-11.5743
714,-251,51.7285,10.8763,-0.000311274,-0.000102571,0.000919905,0.000718882,-0.00113273,0.841875,0.00107789,0.0155644,1938,1275,51.7286,-10.8763
721,-251,51.6344,10.2201,-0.00117981,5.89985e-05,0.00148308,0.00104682,-0.00216763,0.983211,0.0018931,0.0236943,1945,1275,51.6344,-10.2201
728,-251,51.6084,9.57947,-0.00215454,0.000311872,0.0020515,0.00147229,-0.00331495,1.05602,0.00283134,0.0283004,1952,1275,51.6084,-9.57945
735,-251,51.5588,8.77551,-0.0032225,0.000595769,0.00265476,0.00195658,-0.00458332,1.09713,0.003876,0.0228568,1959,1275,51.5588,-8.77549
742,-251,51.4617,8.1748,-0.00437879,0.000918004,0.00329388,0.00249615,-0.00595694,1.124,0.00501488,0.01873,1966,1275,51.4617,-8.17478
749,-251,51.1915,7.74854,-0.00563309,0.00131725,0.00392353,0.00308335,-0.00739919,1.14783,0.00622073,0.0373775,1973,1275,51.1915,-7.74858
756,-251,50.9021,7.25464,0,0,0,0,0,0,0,-1,1980,1275,50.9021,-7.25459
763,-251,43.3652,5.7583,0,0,0,0,0,0,0,-1,1987,1275,43.3653,-5.75827
770,-251,49.4386,3.45508,0,0,0,0,0,0,0,-1,1994,1275,49.4386,-3.4551
777,-251,31.5731,4.33252,0,0,0,0,0,0,0,-1,2001,1275,31.5731,-4.33251
784,-251,32.0776,5.78247,0,0,0,0,0,0,0,-1,2008,1275,32.0776,-5.78247
791,-251,0,0,0,0,0,0,0,0,0,-1,2015,1275,0,0
798,-251,0,0,0,0,0,0,0,0,0,-1,2022,1275,0,0
805,-251,0,0,0,0,0,0,0,0,0,-1,2029,1275,0,0
812,-251,0,0,0,0,0,0,0,0,0,-1,2036,1275,0,0
-700,-258,0,0,0,0,0,0,0,0,0,-1,524,1282,0,0
-693,-258,0,0,0,0,0,0,0,0,0,-1,531,1282,0,0
-686,-258,0,0,0,0,0,0,0,0,0,-1,538,1282,0,0
-679,-258,0,0,0,0,0,0,0,0,0,-1,545,1282,0,0
-672,-258,0,0,0,0,0,0,0,0,0,-1,552,1282,0,0
-665,-258,-44.8717,2.03601,0,0,0,0,0,0,0,-1,559,1282,-44.8717,-2.03603
-658,-258,-45.2628,1.20544,0,0,0,0,0,0,0,-1,566,1282,-45.2627,-1.20545
-651,-258,-45.5418,0.0863037,0,0,0,0,0,0,0,-1,573,1282,-45.5418,-0.0863288
-644,-258,-45.1855,0.336792,0,0,0,0,0,0,0,-1,580,1282,-45.1855,-0.336733
-637,-258,-45.329,0.234253,0,0,0,0,0,0,0,-1,587,1282,-45.329,-0.234296
-630,-258,-34.6896,4.45715,0,0,0,0,0,0,0,-1,594,1282,-34.6896,-4.45712
-623,-258,-34.3237,5.09167,0,0,0,0,0,0,0,-1,601,1282,-34.3237,-5.09172
-616,-258,-34.4215,5.89172,0.00396034,0.004083,0.00290811,0.00693042,0.00111291,0.795941,0.00429762,0.0351464,608,1282,-34.4215,-5.8917
-609,-258,-34.4255,6.67578,0.00256357,0.00351946,0.00197727,0.00507573,0.0010073,0.903984,0.00310304,0.0173959,615,1282,-34.4255,-6.67584
-602,-258,-34.4722,7.43115,0.00158712,0.00227605,0.00125439,0.00323241,0.000630764,0.9194,0.00197849,0.0142893,622,1282,-34.4722,-7.43114
-595,-258,-34.5472,8.15894,0.00087713,0.00101261,0.000712523,0.00166061,0.000229135,0.832792,0.00103915,0.0118681,629,1282,-34.5472,-8.15895
-588,-258,-34.5785,8.86621,0.000376664,-0.000308943,0.000318841,0.00050202,-0.000434299,0.374599,0.000541055,0.0129396,636,1282,-34.5785,-8.86621
-581,-258,-34.6162,9.61707,4.43018e-05,-0.00175005,3.05764e-05,4.48228e-05,-0.00175057,0.0170338,0.00118227,0.0156504,643,1282,-34.6162,-9.61708
-574,-258,-34.6138,10.391,-0.000100983,-0.00333959,-0.000165092,-9.25887e-05,-0.00334799,-0.0508006,0.00220178,0.0154314,650,1282,-34.6138,-10.391
-567,-258,-34.7389,11.0811,4.45633e-05,-0.00514002,-0.000228652,5.46279e-05,-0.00515009,-0.0439885,0.00345175,0.0179467,657,1282,-34.7389,-11.081
-560,-258,-34.9298,11.7036,0,0,0,0,0,0,0,-1,664,1282,-34.9298,-11.7036
-553,-258,-32.5081,11.6642,0,0,0,0,0,0,0,-1,671,1282,-32.5081,-11.6641
-546,-258,-14.2231,5.92029,0,0,0,0,0,0,0,-1,678,1282,-14.2231,-5.92028
-539,-258,-10.2228,4.05823,0,0,0,0,0,0,0,-1,685,1282,-10.2228,-4.05823
-532,-258,-10.2173,-0.353882,0,0,0,0,0,0,0,-1,692,1282,-10.2173,0.353836
-525,-258,-21.8661,-1.5929,0,0,0,0,0,0,0,-1,699,1282,-21.8661,1.59285
-518,-258,-29.2484,0.123169,0,0,0,0,0,0,0,-1,706,1282,-29.2484,-0.123186
-511,-258,-23.5061,1.16833,0,0,0,0,0,0,0,-1,713,1282,-23.5061,-1.16833
-504,-258,-22.9178,0.484131,0,0,0,0,0,0,0,-1,720,1282,-22.9178,-0.484106
-497,-258,-17.8047,0.730469,0,0,0,0,0,0,0,-1,727,1282,-17.8048,-0.730489
-490,-258,-15.4346,0.632935,0,0,0,0,0,0,0,-1,734,1282,-15.4346,-0.632917
-483,-258,0,0,0,0,0,0,0,0,0,-1,741,1282,0,0
-476,-258,0,0,0,0,0,0,0,0,0,-1,748,1282,0,0
-469,-258,0,0,0,0,0,0,0,0,0,-1,755,1282,0,0
-462,-258,0,0,0,0,0,0,0,0,0,-1,762,1282,0,0
-455,-258,0,0,0,0,0,0,0,0,0,-1,769,1282,0,0
-448,-258,0,0,0,0,0,0,0,0,0,-1,776,1282,0,0
-441,-258,0,0,0,0,0,0,0,0,0,-1,783,1282,0,0
-434,-258,0,0,0,0,0,0,0,0,0,-1,790,1282,0,0
-427,-258,0,0,0,0,0,0,0,0,0,-1,797,1282,0,0
-420,-258,0,0,0,0,0,0,0,0,0,-1,804,1282,0,0
-413,-258,0,0,0,0,0,0,0,0,0,-1,811,1282,0,0
-406,-258,0,0,0,0,0,0,0,0,0,-1,818,1282,0,0
-399,-258,0,0,0,0,0,0,0,0,0,-1,825,1282,0,0
-392,-258,0,0,0,0,0,0,0,0,0,-1,832,1282,0,0
-385,-258,0,0,0,0,0,0,0,0,0,-1,839,1282,0,0
-378,-258,0,0,0,0,0,0,0,0,0,-1,846,1282,0,0
-371,-258,0,0,0,0,0,0,0,0,0,-1,853,1282,0,0
-364,-258,0,0,0,0,0,0,0,0,0,-1,860,1282,0,0
-357,-258,0,0,0,0,0,0,0,0,0,-1,867,1282,0,0
-350,-258,0,0,0,0,0,0,0,0,0,-1,874,1282,0,0
-343,-258,0,0,0,0,0,0,0,0,0,-1,881,1282,0,0
-336,-258,0,0,0,0,0,0,0,0,0,-1,888,1282,0,0
-329,-258,0,0,0,0,0,0,0,0,0,-1,895,1282,0,0
-322,-258,0,0,0,0,0,0,0,0,0,-1,902,1282,0,0
-315,-258,0,0,0,0,0,0,0,0,0,-1,909,1282,0,0
-308,-258,0,0,0,0,0,0,0,0,0,-1,916,1282,0,0
-301,-258,0,0,0,0,0,0,0,0,0,-1,923,1282,0,0
-294,-258,0,0,0,0,0,0,0,0,0,-1,930,1282,0,0
-287,-258,0,0,0,0,0,0,0,0,0,-1,937,1282,0,0
-280,-258,0,0,0,0,0,0,0,0,0,-1,944,1282,0,0
-273,-258,0,0,0,0,0,0,0,0,0,-1,951,1282,0,0
-266,-258,0,0,0,0,0,0,0,0,0,-1,958,1282,0,0
-259,-258,0,0,0,0,0,0,0,0,0,-1,965,1282,0,0
-252,-258,0,0,0,0,0,0,0,0,0,-1,972,1282,0,0
-245,-258,0,0,0,0,0,0,0,0,0,-1,979,1282,0,0
-238,-258,0,0,0,0,0,0,0,0,0,-1,986,1282,0,0
-231,-258,0,0,0,0,0,0,0,0,0,-1,993,1282,0,0
-224,-258,0,0,0,0,0,0,0,0,0,-1,1000,1282,0,0
-217,-258,0,0,0,0,0,0,0,0,0,-1,1007,1282,0,0
-210,-258,0,0,0,0,0,0,0,0,0,-1,1014,1282,0,0
-203,-258,0,0,0,0,0,0,0,0,0,-1,1021,1282,0,0
-196,-258,0,0,0,0,0,0,0,0,0,-1,1028,1282,0,0
-189,-258,0,0,0,0,0,0,0,0,0,-1,1035,1282,0,0
-182,-258,0,0,0,0,0,0,0,0,0,-1,1042,1282,0,0
-175,-258,0,0,0,0,0,0,0,0,0,-1,1049,1282,0,0
-168,-258,0,0,0,0,0,0,0,0,0,-1,1056,1282,0,0
-161,-258,0,0,0,0,0,0,0,0,0,-1,1063,1282,0,0
-154,-258,0,0,0,0,0,0,0,0,0,-1,1070,1282,0,0
-147,-258,0,0,0,0,0,0,0,0,0,-1,1077,1282,0,0
-140,-258,0,0,0,0,0,0,0,0,0,-1,1084,1282,0,0
-133,-258,0,0,0,0,0,0,0,0,0,-1,1091,1282,0,0
-126,-258,0,0,0,0,0,0,0,0,0,-1,1098,1282,0,0
-119,-258,0,0,0,0,0,0,0,0,0,-1,1105,1282,0,0
-112,-258,0,0,0,0,0,0,0,0,0,-1,1112,1282,0,0
-105,-258,0,0,0,0,0,0,0,0,0,-1,1119,1282,0,0
-98,-258,0,0,0,0,0,0,0,0,0,-1,1126,1282,0,0
-91,-258,0,0,0,0,0,0,0,0,0,-1,1133,1282,0,0
-84,-258,0,0,0,0,0,0,0,0,0,-1,1140,1282,0,0
-77,-258,0,0,0,0,0,0,0,0,0,-1,1147,1282,0,0
-70,-258,0,0,0,0,0,0,0,0,0,-1,1154,1282,0,0
-63,-258,0,0,0,0,0,0,0,0,0,-1,1161,1282,0,0
-56,-258,0,0,0,0,0,0,0,0,0,-1,1168,1282,0,0
-49,-258,0,0,0,0,0,0,0,0,0,-1,1175,1282,0,0
-42,-258,0,0,0,0,0,0,0,0,0,-1,1182,1282,0,0
-35,-258,0,0,0,0,0,0,0,0,0,-1,1189,1282,0,0
-28,-258,0,0,0,0,0,0,0,0,0,-1,1196,1282,0,0
-21,-258,0,0,0,0,0,0,0,0,0,-1,1203,1282,0,0
-14,-258,0,0,0,0,0,0,0,0,0,-1,1210,1282,0,0
-7,-258,0,0,0,0,0,0,0,0,0,-1,1217,1282,0,0
0,-258,0,0,0,0,0,0,0,0,0,-1,1224,1282,0,0
7,-258,0,0,0,0,0,0,0,0,0,-1,1231,1282,0,0
14,-258,0,0,0,0,0,0,0,0,0,-1,1238,1282,0,0
21,-258,0,0,0,0,0,0,0,0,0,-1,1245,1282,0,0
28,-258,0,0,0,0,0,0,0,0,0,-1,1252,1282,0,0
35,-258,0,0,0,0,0,0,0,0,0,-1,1259,1282,0,0
42,-258,0,0,0,0,0,0,0,0,0,-1,1266,1282,0,0
49,-258,0,0,0,0,0,0,0,0,0,-1,1273,1282,0,0
56,-258,0,0,0,0,0,0,0,0,0,-1,1280,1282,0,0
63,-258,0,0,0,0,0,0,0,0,0,-1,1287,1282,0,0
70,-258,0,0,0,0,0,0,0,0,0,-1,1294,1282,0,0
77,-258,0,0,0,0,0,0,0,0,0,-1,1301,1282,0,0
84,-258,0,0,0,0,0,0,0,0,0,-1,1308,1282,0,0
91,-258,0,0,0,0,0,0,0,0,0,-1,1315,1282,0,0
98,-258,0,0,0,0,0,0,0,0,0,-1,1322,1282,0,0
105,-258,0,0,0,0,0,0,0,0,0,-1,1329,1282,0,0
112,-258,0,0,0,0,0,0,0,0,0,-1,1336,1282,0,0
119,-258,0,0,0,0,0,0,0,0,0,-1,1343,1282,0,0
126,-258,0,0,0,0,0,0,0,0,0,-1,1350,1282,0,0
133,-258,0,0,0,0,0,0,0,0,0,-1,1357,1282,0,0
140,-258,0,0,0,0,0,0,0,0,0,-1,1364,1282,0,0
147,-258,0,0,0,0,0,0,0,0,0,-1,1371,1282,0,0
154,-258,0,0,0,0,0,0,0,0,0,-1,1378,1282,0,0
161,-258,0,0,0,0,0,0,0,0,0,-1,1385,1282,0,0
168,-258,0,0,0,0,0,0,0,0,0,-1,1392,1282,0,0
175,-258,0,0,0,0,0,0,0,0,0,-1,1399,1282,0,0
182,-258,0,0,0,0,0,0,0,0,0,-1,1406,1282,0,0
189,-258,0,0,0,0,0,0,0,0,0,-1,1413,1282,0,0
196,-258,0,0,0,0,0,0,0,0,0,-1,1420,1282,0,0
203,-258,0,0,0,0,0,0,0,0,0,-1,1427,1282,0,0
210,-258,0,0,0,0,0,0,0,0,0,-1,1434,1282,0,0
217,-258,0,0,0,0,0,0,0,0,0,-1,1441,1282,0,0
224,-258,0,0,0,0,0,0,0,0,0,-1,1448,1282,0,0
231,-258,0,0,0,0,0,0,0,0,0,-1,1455,1282,0,0
238,-258,0,0,0,0,0,0,0,0,0,-1,1462,1282,0,0
245,-258,0,0,0,0,0,0,0,0,0,-1,1469,1282,0,0
252,-258,0,0,0,0,0,0,0,0,0,-1,1476,1282,0,0
259,-258,0,0,0,0,0,0,0,0,0,-1,1483,1282,0,0
266,-258,0,0,0,0,0,0,0,0,0,-1,1490,1282,0,0
273,-258,0,0,0,0,0,0,0,0,0,-1,1497,1282,0,0
280,-258,0,0,0,0,0,0,0,0,0,-1,1504,1282,0,0
287,-258,0,0,0,0,0,0,0,0,0,-1,1511,1282,0,0
294,-258,0,0,0,0,0,0,0,0,0,-1,1518,1282,0,0
301,-258,0,0,0,0,0,0,0,0,0,-1,1525,1282,0,0
308,-258,0,0,0,0,0,0,0,0,0,-1,1532,1282,0,0
315,-258,0,0,0,0,0,0,0,0,0,-1,1539,1282,0,0
322,-258,0,0,0,0,0,0,0,0,0,-1,1546,1282,0,0
329,-258,0,0,0,0,0,0,0,0,0,-1,1553,1282,0,0
336,-258,0,0,0,0,0,0,0,0,0,-1,1560,1282,0,0
343,-258,0,0,0,0,0,0,0,0,0,-1,1567,1282,0,0
350,-258,0,0,0,0,0,0,0,0,0,-1,1574,1282,0,0
357,-258,0,0,0,0,0,0,0,0,0,-1,1581,1282,0,0
364,-258,0,0,0,0,0,0,0,0,0,-1,1588,1282,0,0
371,-258,0,0,0,0,0,0,0,0,0,-1,1595,1282,0,0
378,-258,0,0,0,0,0,0,0,0,0,-1,1602,1282,0,0
385,-258,0,0,0,0,0,0,0,0,0,-1,1609,1282,0,0
392,-258,0,0,0,0,0,0,0,0,0,-1,1616,1282,0,0
399,-258,0,0,0,0,0,0,0,0,0,-1,1623,1282,0,0
406,-258,0,0,0,0,0,0,0,0,0,-1,1630,1282,0,0
413,-258,0,0,0,0,0,0,0,0,0,-1,1637,1282,0,0
420,-258,0,0,0,0,0,0,0,0,0,-1,1644,1282,0,0
427,-258,0,0,0,0,0,0,0,0,0,-1,1651,1282,0,0
434,-258,0,0,0,0,0,0,0,0,0,-1,1658,1282,0,0
441,-258,0,0,0,0,0,0,0,0,0,-1,1665,1282,0,0
448,-258,0,0,0,0,0,0,0,0,0,-1,1672,1282,0,0
455,-258,0,0,0,0,0,0,0,0,0,-1,1679,1282,0,0
462,-258,0,0,0,0,0,0,0,0,0,-1,1686,1282,0,0
469,-258,0,0,0,0,0,0,0,0,0,-1,1693,1282,0,0
476,-258,0,0,0,0,0,0,0,0,0,-1,1700,1282,0,0
483,-258,0,0,0,0,0,0,0,0,0,-1,1707,1282,0,0
490,-258,0,0,0,0,0,0,0,0,0,-1,1714,1282,0,0
497,-258,0,0,0,0,0,0,0,0,0,-1,1721,1282,0,0
504,-258,0,0,0,0,0,0,0,0,0,-1,1728,1282,0,0
511,-258,0,0,0,0,0,0,0,0,0,-1,1735,1282,0,0
518,-258,0,0,0,0,0,0,0,0,0,-1,1742,1282,0,0
525,-258,0,0,0,0,0,0,0,0,0,-1,1749,1282,0,0
532,-258,0,0,0,0,0,0,0,0,0,-1,1756,1282,0,0
539,-258,0,0,0,0,0,0,0,0,0,-1,1763,1282,0,0
546,-258,0,0,0,0,0,0,0,0,0,-1,1770,1282,0,0
553,-258,0,0,0,0,0,0,0,0,0,-1,1777,1282,0,0
560,-258,0,0,0,0,0,0,0,0,0,-1,1784,1282,0,0
567,-258,0,0,0,0,0,0,0,0,0,-1,1791,1282,0,0
574,-258,0,0,0,0,0,0,0,0,0,-1,1798,1282,0,0
581,-258,0,0,0,0,0,0,0,0,0,-1,1805,1282,0,0
588,-258,0,0,0,0,0,0,0,0,0,-1,1812,1282,0,0
595,-258,0,0,0,0,0,0,0,0,0,-1,1819,1282,0,0
602,-258,0,0,0,0,0,0,0,0,0,-1,1826,1282,0,0
609,-258,70.8835,2.24146,0.00284225,0.00754356,-0.00222205,0.00842758,0.00195824,-1.19216,0.00509272,0.0246426,1833,1282,70.8836,-2.24147
616,-258,70.8192,2.22229,0.00781581,0.00337558,-0.00342136,0.00967425,0.00151714,-0.497598,0.00600798,0.0232499,1840,1282,70.8192,-2.22232
623,-258,70.78,2.19629,0.0109181,0.000182868,-0.0043727,0.0124737,-0.0013728,-0.341804,0.00880916,0.0330656,1847,1282,70.78,-2.19625
630,-258,70.7987,2.09009,0.0106637,-0.000878773,-0.00459107,0.0122671,-0.00248217,-0.335999,0.00911874,0.0432463,1854,1282,70.7988,-2.09014
637,-258,70.2668,1.27307,0,0,0,0,0,0,0,-1,1861,1282,70.2669,-1.27303
644,-258,69.356,1.07739,0,0,0,0,0,0,0,-1,1868,1282,69.3559,-1.07735
651,-258,69.574,1.94336,0,0,0,0,0,0,0,-1,1875,1282,69.574,-1.94334
658,-258,45.4424,3.1405,0,0,0,0,0,0,0,-1,1882,1282,45.4423,-3.14046
665,-258,35.4747,1.1864,0,0,0,0,0,0,0,-1,1889,1282,35.4747,-1.18637
672,-258,22.703,2.80957,0,0,0,0,0,0,0,-1,1896,1282,22.703,-2.80962
679,-258,26.8693,8.19543,0,0,0,0,0,0,0,-1,1903,1282,26.8692,-8.19548
686,-258,51.1926,13.7943,0,0,0,0,0,0,0,-1,1910,1282,51.1926,-13.7943
693,-258,51.0931,13.0372,0.0014364,-0.000370156,-0.000602749,0.00161904,-0.000552796,-0.294217,0.00130331,0.0227154,1917,1282,51.0931,-13.0373
700,-258,51.0251,12.3053,0.00111779,-0.000191889,-0.00015011,0.00113477,-0.000208874,-0.11267,0.000834894,0.0102232,1924,1282,51.0251,-12.3054
707,-258,50.9985,11.6049,0.000449845,-0.00015016,0.000256917,0.000544821,-0.000245136,0.354094,0.000466894,0.011455,1931,1282,50.9985,-11.6048
714,-258,50.999,10.9155,-0.000317542,-9.23347e-06,0.000849147,0.000699639,-0.00102641,0.87519,0.00100247,0.0124486,1938,1282,50.999,-10.9155
721,-258,50.9633,10.2007,-0.00118695,0.000163516,0.00144798,0.00108597,-0.0021094,1.00357,0.00187612,0.0216415,1945,1282,50.9633,-10.2007
728,-258,50.8926,9.5509,-0.00216176,0.000408136,0.00204045,0.00153452,-0.00328814,1.0664,0.00284506,0.0213639,1952,1282,50.8926,-9.55089
735,-258,50.8994,8.84351,-0.00325501,0.000715983,0.00264436,0.00203727,-0.0045763,1.10742,0.00391102,0.0193052,1959,1282,50.8994,-8.8435
742,-258,50.833,8.19495,-0.00447045,0.00110325,0.00325018,0.00259778,-0.00596498,1.1398,0.00506952,0.018393,1966,1282,50.833,-8.19496
749,-258,50.6121,7.69397,-0.0058577,0.00161923,0.00380766,0.00321691,-0.00745538,1.17351,0.00632155,0.0398294,1973,1282,50.612,-7.69401
756,-258,50.3944,7.07593,0,0,0,0,0,0,0,-1,1980,1282,50.3944,-7.07596
763,-258,39.3638,5.09753,0,0,0,0,0,0,0,-1,1987,1282,39.3638,-5.09751
770,-258,40.3713,4.08325,0,0,0,0,0,0,0,-1,1994,1282,40.3713,-4.08323
777,-258,31.912,4.83093,0,0,0,0,0,0,0,-1,2001,1282,31.912,-4.8309
784,-258,32.6525,6.43091,0,0,0,0,0,0,0,-1,2008,1282,32.6525,-6.43091
791,-258,0,0,0,0,0,0,0,0,0,-1,2015,1282,0,0
798,-258,0,0,0,0,0,0,0,0,0,-1,2022,1282,0,0
805,-258,0,0,0,0,0,0,0,0,0,-1,2029,1282,0,0
812,-258,0,0,0,0,0,0,0,0,0,-1,2036,1282,0,0
-700,-265,0,0,0,0,0,0,0,0,0,-1,524,1289,0,0
-693,-265,0,0,0,0,0,0,0,0,0,-1,531,1289,0,0
-686,-265,0,0,0,0,0,0,0,0,0,-1,538,1289,0,0
-679,-265,0,0,0,0,0,0,0,0,0,-1,545,1289,0,0
-672,-265,0,0,0,0,0,0,0,0,0,-1,552,1289,0,0
-665,-265,-44.553,1.771,0,0,0,0,0,0,0,-1,559,1289,-44.553,-1.77096
-658,-265,-44.9351,1.32117,0,0,0,0,0,0,0,-1,566,1289,-44.9351,-1.32118
-651,-265,-44.821,1.0614,0,0,0,0,0,0,0,-1,573,1289,-44.821,-1.06141
-644,-265,-44.4684,0.304932,0,0,0,0,0,0,0,-1,580,1289,-44.4684,-0.304991
-637,-265,-44.6157,0.250122,0,0,0,0,0,0,0,-1,587,1289,-44.6157,-0.250067
-630,-265,-44.5689,0.900269,0,0,0,0,0,0,0,-1,594,1289,-44.5689,-0.900302
-623,-265,-33.6281,4.72729,0,0,0,0,0,0,0,-1,601,1289,-33.6281,-4.72726
-616,-265,-33.6381,5.66223,0.00475861,0.00514044,0.00340433,0.00835921,0.00153985,0.813409,0.00513704,0.0462838,608,1289,-33.6381,-5.66228
-609,-265,-33.6731,6.65613,0.00319869,0.00440751,0.00239112,0.00626943,0.00133677,0.909192,0.00381295,0.0196344,615,1289,-33.6731,-6.65613
-602,-265,-33.7292,7.46399,0.00212442,0.00298373,0.00159868,0.00420948,0.000898666,0.916674,0.0025599,0.0155224,622,1289,-33.7292,-7.46404
-595,-265,-33.7643,8.21277,0.00135861,0.00161051,0.00100574,0.00249815,0.000470963,0.84769,0.00153276,0.012961,629,1289,-33.7644,-8.21279
-588,-265,-33.8024,8.92676,0.000842533,0.000258601,0.000568112,0.00118931,-8.81783e-05,0.548036,0.000823842,0.011459,636,1289,-33.8024,-8.92676
-581,-265,-33.8588,9.67175,0.000508283,-0.00114279,0.000240984,0.000542737,-0.00117725,0.14201,0.00101531,0.0144265,643,1289,-33.8588,-9.67172
-574,-265,-33.9068,10.455,0.000370506,-0.00261402,9.67157e-06,0.000370538,-0.00261405,0.00324052,0.00187844,0.0152752,650,1289,-33.9068,-10.4549
-567,-265,-33.9749,11.1644,0.000487102,-0.00418094,-0.000109352,0.000489662,-0.0041835,-0.0234086,0.00296573,0.0208221,657,1289,-33.9749,-11.1644
-560,-265,-34.0626,11.8953,0.000960302,-0.00559594,-4.24237e-05,0.000960577,-0.00559622,-0.00647037,0.00408879,0.0294064,664,1289,-34.0626,-11.8953
-553,-265,-33.9562,12.5979,0,0,0,0,0,0,0,-1,671,1289,-33.9563,-12.5979
-546,-265,-24.2283,10.2581,0,0,0,0,0,0,0,-1,678,1289,-24.2283,-10.258
-539,-265,-13.7668,6.39917,0,0,0,0,0,0,0,-1,685,1289,-13.7668,-6.39915
-532,-265,-8.53998,3.41467,0,0,0,0,0,0,0,-1,692,1289,-8.53996,-3.41473
-525,-265,-12.1317,0.514648,0,0,0,0,0,0,0,-1,699,1289,-12.1317,-0.514634
-518,-265,-24.1604,0.712402,0,0,0,0,0,0,0,-1,706,1289,-24.1604,-0.712425
-511,-265,-23.233,0.791626,0,0,0,0,0,0,0,-1,713,1289,-23.233,-0.791617
-504,-265,-22.3056,0.87085,0,0,0,0,0,0,0,-1,720,1289,-22.3056,-0.87081
-497,-265,-18.689,-0.278442,0,0,0,0,0,0,0,-1,727,1289,-18.689,0.278423
-490,-265,-15.1696,0.492676,0,0,0,0,0,0,0,-1,734,1289,-15.1696,-0.492688
-483,-265,0,0,0,0,0,0,0,0,0,-1,741,1289,0,0
-476,-265,0,0,0,0,0,0,0,0,0,-1,748,1289,0,0
-469,-265,0,0,0,0,0,0,0,0,0,-1,755,1289,0,0
-462,-265,0,0,0,0,0,0,0,0,0,-1,762,1289,0,0
-455,-265,0,0,0,0,0,0,0,0,0,-1,769,1289,0,0
-448,-265,0,0,0,0,0,0,0,0,0,-1,776,1289,0,0
-441,-265,0,0,0,0,0,0,0,0,0,-1,783,1289,0,0
-434,-265,0,0,0,0,0,0,0,0,0,-1,790,1289,0,0
-427,-265,0,0,0,0,0,0,0,0,0,-1,797,1289,0,0
-420,-265,0,0,0,0,0,0,0,0,0,-1,804,1289,0,0
-413,-265,0,0,0,0,0,0,0,0,0,-1,811,1289,0,0
-406,-265,0,0,0,0,0,0,0,0,0,-1,818,1289,0,0
-399,-265,0,0,0,0,0,0,0,0,0,-1,825,1289,0,0
-392,-265,0,0,0,0,0,0,0,0,0,-1,832,1289,0,0
-385,-265,0,0,0,0,0,0,0,0,0,-1,839,1289,0,0
-378,-265,0,0,0,0,0,0,0,0,0,-1,846,1289,0,0
-371,-265,0,0,0,0,0,0,0,0,0,-1,853,1289,0,0
-364,-265,0,0,0,0,0,0,0,0,0,-1,860,1289,0,0
-357,-265,0,0,0,0,0,0,0,0,0,-1,867,1289,0,0
-350,-265,0,0,0,0,0,0,0,0,0,-1,874,1289,0,0
-343,-265,0,0,0,0,0,0,0,0,0,-1,881,1289,0,0
-336,-265,0,0,0,0,0,0,0,0,0,-1,888,1289,0,0
-329,-265,0,0,0,0,0,0,0,0,0,-1,895,1289,0,0
-322,-265,0,0,0,0,0,0,0,0,0,-1,902,1289,0,0
-315,-265,0,0,0,0,0,0,0,0,0,-1,909,1289,0,0
-308,-265,0,0,0,0,0,0,0,0,0,-1,916,1289,0,0
-301,-265,0,0,0,0,0,0,0,0,0,-1,923,1289,0,0
-294,-265,0,0,0,0,0,0,0,0,0,-1,930,1289,0,0
-287,-265,0,0,0,0,0,0,0,0,0,-1,937,1289,0,0
-280,-265,0,0,0,0,0,0,0,0,0,-1,944,1289,0,0
-273,-265,0,0,0,0,0,0,0,0,0,-1,951,1289,0,0
-266,-265,0,0,0,0,0,0,0,0,0,-1,958,1289,0,0
-259,-265,0,0,0,0,0,0,0,0,0,-1,965,1289,0,0
-252,-265,0,0,0,0,0,0,0,0,0,-1,972,1289,0,0
-245,-265,0,0,0,0,0,0,0,0,0,-1,979,1289,0,0
-238,-265,0,0,0,0,0,0,0,0,0,-1,986,1289,0,0
-231,-265,0,0,0,0,0,0,0,0,0,-1,993,1289,0,0
-224,-265,0,0,0,0,0,0,0,0,0,-1,1000,1289,0,0
-217,-265,0,0,0,0,0,0,0,0,0,-1,1007,1289,0,0
-210,-265,0,0,0,0,0,0,0,0,0,-1,1014,1289,0,0
-203,-265,0,0,0,0,0,0,0,0,0,-1,1021,1289,0,0
-196,-265,0,0,0,0,0,0,0,0,0,-1,1028,1289,0,0
-189,-265,0,0,0,0,0,0,0,0,0,-1,1035,1289,0,0
-182,-265,0,0,0,0,0,0,0,0,0,-1,1042,1289,0,0
-175,-265,0,0,0,0,0,0,0,0,0,-1,1049,1289,0,0
-168,-265,0,0,0,0,0,0,0,0,0,-1,1056,1289,0,0
-161,-265,0,0,0,0,0,0,0,0,0,-1,1063,1289,0,0
-154,-265,0,0,0,0,0,0,0,0,0,-1,1070,1289,0,0
-147,-265,0,0,0,0,0,0,0,0,0,-1,1077,1289,0,0
-140,-265,0,0,0,0,0,0,0,0,0,-1,1084,1289,0,0
-133,-265,0,0,0,0,0,0,0,0,0,-1,1091,1289,0,0
-126,-265,0,0,0,0,0,0,0,0,0,-1,1098,1289,0,0
-119,-265,0,0,0,0,0,0,0,0,0,-1,1105,1289,0,0
-112,-265,0,0,0,0,0,0,0,0,0,-1,1112,1289,0,0
-105,-265,0,0,0,0,0,0,0,0,0,-1,1119,1289,0,0
-98,-265,0,0,0,0,0,0,0,0,0,-1,1126,1289,0,0
-91,-265,0,0,0,0,0,0,0,0,0,-1,1133,1289,0,0
-84,-265,0,0,0,0,0,0,0,0,0,-1,1140,1289,0,0
-77,-265,0,0,0,0,0,0,0,0,0,-1,1147,1289,0,0
-70,-265,0,0,0,0,0,0,0,0,0,-1,1154,1289,0,0
-63,-265,0,0,0,0,0,0,0,0,0,-1,1161,1289,0,0
-56,-265,0,0,0,0,0,0,0,0,0,-1,1168,1289,0,0
-49,-265,0,0,0,0,0,0,0,0,0,-1,1175,1289,0,0
-42,-265,0,0,0,0,0,0,0,0,0,-1,1182,1289,0,0
-35,-265,0,0,0,0,0,0,0,0,0,-1,1189,1289,0,0
-28,-265,0,0,0,0,0,0,0,0,0,-1,1196,1289,0,0
-21,-265,0,0,0,0,0,0,0,0,0,-1,1203,1289,0,0
-14,-265,0,0,0,0,0,0,0,0,0,-1,1210,1289,0,0
-7,-265,0,0,0,0,0,0,0,0,0,-1,1217,1289,0,0
0,-265,0,0,0,0,0,0,0,0,0,-1,1224,1289,0,0
7,-265,0,0,0,0,0,0,0,0,0,-1,1231,1289,0,0
14,-265,0,0,0,0,0,0,0,0,0,-1,1238,1289,0,0
21,-265,0,0,0,0,0,0,0,0,0,-1,1245,1289,0,0
28,-265,0,0,0,0,0,0,0,0,0,-1,1252,1289,0,0
35,-265,0,0,0,0,0,0,0,0,0,-1,1259,1289,0,0
42,-265,0,0,0,0,0,0,0,0,0,-1,1266,1289,0,0
49,-265,0,0,0,0,0,0,0,0,0,-1,1273,1289,0,0
56,-265,0,0,0,0,0,0,0,0,0,-1,1280,1289,0,0
63,-265,0,0,0,0,0,0,0,0,0,-1,1287,1289,0,0
70,-265,0,0,0,0,0,0,0,0,0,-1,1294,1289,0,0
77,-265,0,0,0,0,0,0,0,0,0,-1,1301,1289,0,0
84,-265,0,0,0,0,0,0,0,0,0,-1,1308,1289,0,0
91,-265,0,0,0,0,0,0,0,0,0,-1,1315,1289,0,0
98,-265,0,0,0,0,0,0,0,0,0,-1,1322,1289,0,0
105,-265,0,0,0,0,0,0,0,0,0,-1,1329,1289,0,0
112,-265,0,0,0,0,0,0,0,0,0,-1,1336,1289,0,0
119,-265,0,0,0,0,0,0,0,0,0,-1,1343,1289,0,0
126,-265,0,0,0,0,0,0,0,0,0,-1,1350,1289,0,0
133,-265,0,0,0,0,0,0,0,0,0,-1,1357,1289,0,0
140,-265,0,0,0,0,0,0,0,0,0,-1,1364,1289,0,0
147,-265,0,0,0,0,0,0,0,0,0,-1,1371,1289,0,0
154,-265,0,0,0,0,0,0,0,0,0,-1,1378,1289,0,0
161,-265,0,0,0,0,0,0,0,0,0,-1,1385,1289,0,0
168,-265,0,0,0,0,0,0,0,0,0,-1,1392,1289,0,0
175,-265,0,0,0,0,0,0,0,0,0,-1,1399,1289,0,0
182,-265,0,0,0,0,0,0,0,0,0,-1,1406,1289,0,0
189,-265,0,0,0,0,0,0,0,0,0,-1,1413,1289,0,0
196,-265,0,0,0,0,0,0,0,0,0,-1,1420,1289,0,0
203,-265,0,0,0,0,0,0,0,0,0,-1,1427,1289,0,0
210,-265,0,0,0,0,0,0,0,0,0,-1,1434,1289,0,0
217,-265,0,0,0,0,0,0,0,0,0,-1,1441,1289,0,0
224,-265,0,0,0,0,0,0,0,0,0,-1,1448,1289,0,0
231,-265,0,0,0,0,0,0,0,0,0,-1,1455,1289,0,0
238,-265,0,0,0,0,0,0,0,0,0,-1,1462,1289,0,0
245,-265,0,0,0,0,0,0,0,0,0,-1,1469,1289,0,0
252,-265,0,0,0,0,0,0,0,0,0,-1,1476,1289,0,0
259,-265,0,0,0,0,0,0,0,0,0,-1,1483,1289,0,0
266,-265,0,0,0,0,0,0,0,0,0,-1,1490,1289,0,0
273,-265,0,0,0,0,0,0,0,0,0,-1,1497,1289,0,0
280,-265,0,0,0,0,0,0,0,0,0,-1,1504,1289,0,0
287,-265,0,0,0,0,0,0,0,0,0,-1,1511,1289,0,0
294,-265,0,0,0,0,0,0,0,0,0,-1,1518,1289,0,0
301,-265,0,0,0,0,0,0,0,0,0,-1,1525,1289,0,0
308,-265,0,0,0,0,0,0,0,0,0,-1,1532,1289,0,0
315,-265,0,0,0,0,0,0,0,0,0,-1,1539,1289,0,0
322,-265,0,0,0,0,0,0,0,0,0,-1,1546,1289,0,0
329,-265,0,0,0,0,0,0,0,0,0,-1,1553,1289,0,0
336,-265,0,0,0,0,0,0,0,0,0,-1,1560,1289,0,0
343,-265,0,0,0,0,0,0,0,0,0,-1,1567,1289,0,0
350,-265,0,0,0,0,0,0,0,0,0,-1,1574,1289,0,0
357,-265,0,0,0,0,0,0,0,0,0,-1,1581,1289,0,0
364,-265,0,0,0,0,0,0,0,0,0,-1,1588,1289,0,0
371,-265,0,0,0,0,0,0,0,0,0,-1,1595,1289,0,0
378,-265,0,0,0,0,0,0,0,0,0,-1,1602,1289,0,0
385,-265,0,0,0,0,0,0,0,0,0,-1,1609,1289,0,0
392,-265,0,0,0,0,0,0,0,0,0,-1,1616,1289,0,0
399,-265,0,0,0,0,0,0,0,0,0,-1,1623,1289,0,0
406,-265,0,0,0,0,0,0,0,0,0,-1,1630,1289,0,0
413,-265,0,0,0,0,0,0,0,0,0,-1,1637,1289,0,0
420,-265,0,0,0,0,0,0,0,0,0,-1,1644,1289,0,0
427,-265,0,0,0,0,0,0,0,0,0,-1,1651,1289,0,0
434,-265,0,0,0,0,0,0,0,0,0,-1,1658,1289,0,0
441,-265,0,0,0,0,0,0,0,0,0,-1,1665,1289,0,0
448,-265,0,0,0,0,0,0,0,0,0,-1,1672,1289,0,0
455,-265,0,0,0,0,0,0,0,0,0,-1,1679,1289,0,0
462,-265,0,0,0,0,0,0,0,0,0,-1,1686,1289,0,0
469,-265,0,0,0,0,0,0,0,0,0,-1,1693,1289,0,0
476,-265,0,0,0,0,0,0,0,0,0,-1,1700,1289,0,0
483,-265,0,0,0,0,0,0,0,0,0,-1,1707,1289,0,0
490,-265,0,0,0,0,0,0,0,0,0,-1,1714,1289,0,0
497,-265,0,0,0,0,0,0,0,0,0,-1,1721,1289,0,0
504,-265,0,0,0,0,0,0,0,0,0,-1,1728,1289,0,0
511,-265,0,0,0,0,0,0,0,0,0,-1,1735,1289,0,0
518,-265,0,0,0,0,0,0,0,0,0,-1,1742,1289,0,0
525,-265,0,0,0,0,0,0,0,0,0,-1,1749,1289,0,0
532,-265,0,0,0,0,0,0,0,0,0,-1,1756,1289,0,0
539,-265,0,0,0,0,0,0,0,0,0,-1,1763,1289,0,0
546,-265,0,0,0,0,0,0,0,0,0,-1,1770,1289,0,0
553,-265,0,0,0,0,0,0,0,0,0,-1,1777,1289,0,0
560,-265,0,0,0,0,0,0,0,0,0,-1,1784,1289,0,0
567,-265,0,0,0,0,0,0,0,0,0,-1,1791,1289,0,0
574,-265,0,0,0,0,0,0,0,0,0,-1,1798,1289,0,0
581,-265,0,0,0,0,0,0,0,0,0,-1,1805,1289,0,0
588,-265,0,0,0,0,0,0,0,0,0,-1,1812,1289,0,0
595,-265,0,0,0,0,0,0,0,0,0,-1,1819,1289,0,0
602,-265,70.7861,2.21021,-0.000195057,0.0101203,-0.000837006,0.0101878,-0.000262532,-1.49036,0.00688102,0.0253531,1826,1289,70.7861,-2.21023
609,-265,70.8179,2.17407,0.00705614,0.00536742,-0.00214373,0.00851581,0.00390776,-0.597791,0.00492214,0.0268188,1833,1289,70.8178,-2.17406
616,-265,70.8121,2.17163,0.0131348,0.000755487,-0.00339955,0.0140069,-0.000116641,-0.251126,0.00937709,0.0337848,1840,1289,70.8122,-2.17164
623,-265,70.9044,2.17261,0.0143518,-0.00120402,-0.00406461,0.0153499,-0.00220203,-0.240775,0.0110407,0.0463858,1847,1289,70.9045,-2.17264
630,-265,71.0144,2.16968,0.0121887,-0.00117396,-0.00411017,0.0133518,-0.00233697,-0.27575,0.00977374,0.0464212,1854,1289,71.0144,-2.16962
637,-265,71.0957,2.13232,0,0,0,0,0,0,0,-1,1861,1289,71.0957,-2.13237
644,-265,70.3324,1.28735,0,0,0,0,0,0,0,-1,1868,1289,70.3324,-1.28735
651,-265,53.6781,1.57166,0,0,0,0,0,0,0,-1,1875,1289,53.6781,-1.57167
658,-265,41.7163,3.71619,0,0,0,0,0,0,0,-1,1882,1289,41.7163,-3.71624
665,-265,34.7902,1.43164,0,0,0,0,0,0,0,-1,1889,1289,34.7901,-1.43162
672,-265,20.0045,6.62671,0,0,0,0,0,0,0,-1,1896,1289,20.0045,-6.62668
679,-265,48.9694,14.0298,0,0,0,0,0,0,0,-1,1903,1289,48.9694,-14.0297
686,-265,50.4088,13.7885,0,0,0,0,0,0,0,-1,1910,1289,50.4088,-13.7885
693,-265,50.3673,13.0563,0.00140075,-0.000332695,-0.00074183,0.00167487,-0.000606813,-0.353955,0.00136459,0.0125021,1917,1289,50.3673,-13.0563
700,-265,50.3361,12.3503,0.00101408,-0.000140915,-0.000231389,0.00105871,-0.000185546,-0.190545,0.000775093,0.0106814,1924,1289,50.336,-12.3504
707,-265,50.2966,11.6306,0.000354611,-7.76634e-05,0.000261091,0.000477419,-0.000200472,0.43966,0.000402121,0.0107884,1931,1289,50.2967,-11.6306
714,-265,50.2516,10.9227,-0.000319246,9.71969e-05,0.000843883,0.000758167,-0.000980216,0.906353,0.00100638,0.0139175,1938,1289,50.2515,-10.9228
721,-265,50.1622,10.2173,-0.00108165,0.000319818,0.00141459,0.00119772,-0.00195955,1.01536,0.00184045,0.0166225,1945,1289,50.1622,-10.2173
728,-265,50.116,9.56213,-0.00194729,0.000605188,0.0019736,0.00167924,-0.00302134,1.07241,0.00275051,0.016789,1952,1289,50.116,-9.56208
735,-265,50.2029,8.8822,-0.00294378,0.000977049,0.00252107,0.00221022,-0.00417696,1.11587,0.00374546,0.0171097,1959,1289,50.2029,-8.88219
742,-265,50.1429,8.21228,-0.00408844,0.00146746,0.00302575,0.00279708,-0.00541806,1.15676,0.00482281,0.0191583,1966,1289,50.1429,-8.2123
749,-265,50.1011,7.54187,-0.00545414,0.00213312,0.00342696,0.0034518,-0.00677282,1.20347,0.00600609,0.0463566,1973,1289,50.101,-7.54182
756,-265,50.198,6.84851,0,0,0,0,0,0,0,-1,1980,1289,50.198,-6.84854
763,-265,39.1299,4.9679,0,0,0,0,0,0,0,-1,1987,1289,39.1299,-4.96791
770,-265,35.1674,5.07715,0,0,0,0,0,0,0,-1,1994,1289,35.1673,-5.07718
777,-265,32.1664,5.3457,0,0,0,0,0,0,0,-1,2001,1289,32.1664,-5.34568
784,-265,0,0,0,0,0,0,0,0,0,-1,2008,1289,0,0
791,-265,0,0,0,0,0,0,0,0,0,-1,2015,1289,0,0
798,-265,0,0,0,0,0,0,0,0,0,-1,2022,1289,0,0
805,-265,0,0,0,0,0,0,0,0,0,-1,2029,1289,0,0
812,-265,0,0,0,0,0,0,0,0,0,-1,2036,1289,0,0
-700,-272,0,0,0,0,0,0,0,0,0,-1,524,1296,0,0
-693,-272,0,0,0,0,0,0,0,0,0,-1,531,1296,0,0
-686,-272,0,0,0,0,0,0,0,0,0,-1,538,1296,0,0
-679,-272,0,0,0,0,0,0,0,0,0,-1,545,1296,0,0
-672,-272,0,0,0,0,0,0,0,0,0,-1,552,1296,0,0
-665,-272,0,0,0,0,0,0,0,0,0,-1,559,1296,0,0
-658,-272,-44.6526,1.54443,0,0,0,0,0,0,0,-1,566,1296,-44.6526,-1.5444
-651,-272,-44.3723,1.53772,0,0,0,0,0,0,0,-1,573,1296,-44.3723,-1.53774
-644,-272,-44.1104,1.46021,0,0,0,0,0,0,0,-1,580,1296,-44.1104,-1.46022
-637,-272,-43.9348,1.25171,0,0,0,0,0,0,0,-1,587,1296,-43.9348,-1.25175
-630,-272,-43.5906,0.784912,0,0,0,0,0,0,0,-1,594,1296,-43.5906,-0.784935
-623,-272,-31.4228,4.74304,0,0,0,0,0,0,0,-1,601,1296,-31.4228,-4.74301
-616,-272,-32.7553,5.6958,0,0,0,0,0,0,0,-1,608,1296,-32.7553,-5.69575
-609,-272,-32.8882,6.86023,0.00385271,0.00527904,0.0027236,0.00738129,0.00175046,0.913446,0.00445356,0.0279216,615,1296,-32.8882,-6.86022
-602,-272,-32.9608,7.4928,0.00263084,0.00369122,0.00189179,0.00512571,0.00119635,0.922022,0.00309638,0.015199,622,1296,-32.9608,-7.49279
-595,-272,-33.0277,8.25989,0.00177284,0.00223044,0.00126528,0.00328744,0.000715841,0.874845,0.00199627,0.011864,629,1296,-33.0277,-8.25993
-588,-272,-33.0565,8.99854,0.00122489,0.000874604,0.00079278,0.00186165,0.000237853,0.676682,0.0011699,0.0113485,636,1296,-33.0565,-8.99849
-581,-272,-33.1263,9.71545,0.000895418,-0.000463931,0.000437376,0.00102399,-0.000592499,0.285899,0.000944295,0.0109869,643,1296,-33.1263,-9.7154
-574,-272,-33.1782,10.486,0.00077591,-0.00180509,0.000179012,0.000788266,-0.00181745,0.0689177,0.00154303,0.0158207,650,1296,-33.1782,-10.4859
-567,-272,-33.1921,11.2148,0.000899825,-0.00315874,1.847e-05,0.000899909,-0.00315882,0.00455074,0.00246131,0.0222356,657,1296,-33.1922,-11.2148
-560,-272,-33.2461,11.9534,0.0013781,-0.00435875,2.77241e-05,0.00137823,-0.00435888,0.00483248,0.00345812,0.0225096,664,1296,-33.2461,-11.9534
-553,-272,-33.2357,12.703,0.00210851,-0.00589794,3.52831e-05,0.00210866,-0.0058981,0.00440672,0.00479218,0.0326126,671,1296,-33.2357,-12.7031
-546,-272,-33.3112,13.556,0,0,0,0,0,0,0,-1,678,1296,-33.3112,-13.556
-539,-272,-24.1416,11.0325,0,0,0,0,0,0,0,-1,685,1296,-24.1416,-11.0324
-532,-272,-10.5572,4.53943,0,0,0,0,0,0,0,-1,692,1296,-10.5572,-4.53943
-525,-272,-11.9599,0.0393066,0,0,0,0,0,0,0,-1,699,1296,-11.9599,-0.0393577
-518,-272,-21.1357,-1.41382,0,0,0,0,0,0,0,-1,706,1296,-21.1357,1.41379
-511,-272,-23.2565,0.226318,0,0,0,0,0,0,0,-1,713,1296,-23.2565,-0.22626
-504,-272,-19.7397,0.114746,0,0,0,0,0,0,0,-1,720,1296,-19.7397,-0.114701
-497,-272,-19.2225,1.71301,0,0,0,0,0,0,0,-1,727,1296,-19.2225,-1.71302
-490,-272,-20.1948,2.4032,0,0,0,0,0,0,0,-1,734,1296,-20.1948,-2.40322
-483,-272,-15.3736,0.792603,0,0,0,0,0,0,0,-1,741,1296,-15.3736,-0.79263
-476,-272,0,0,0,0,0,0,0,0,0,-1,748,1296,0,0
-469,-272,0,0,0,0,0,0,0,0,0,-1,755,1296,0,0
-462,-272,0,0,0,0,0,0,0,0,0,-1,762,1296,0,0
-455,-272,0,0,0,0,0,0,0,0,0,-1,769,1296,0,0
-448,-272,0,0,0,0,0,0,0,0,0,-1,776,1296,0,0
-441,-272,0,0,0,0,0,0,0,0,0,-1,783,1296,0,0
-434,-272,0,0,0,0,0,0,0,0,0,-1,790,1296,0,0
-427,-272,0,0,0,0,0,0,0,0,0,-1,797,1296,0,0
-420,-272,0,0,0,0,0,0,0,0,0,-1,804,1296,0,0
-413,-272,0,0,0,0,0,0,0,0,0,-1,811,1296,0,0
-406,-272,0,0,0,0,0,0,0,0,0,-1,818,1296,0,0
-399,-272,0,0,0,0,0,0,0,0,0,-1,825,1296,0,0
-392,-272,0,0,0,0,0,0,0,0,0,-1,832,1296,0,0
-385,-272,0,0,0,0,0,0,0,0,0,-1,839,1296,0,0
-378,-272,0,0,0,0,0,0,0,0,0,-1,846,1296,0,0
-371,-272,0,0,0,0,0,0,0,0,0,-1,853,1296,0,0
-364,-272,0,0,0,0,0,0,0,0,0,-1,860,1296,0,0
-357,-272,0,0,0,0,0,0,0,0,0,-1,867,1296,0,0
-350,-272,0,0,0,0,0,0,0,0,0,-1,874,1296,0,0
-343,-272,0,0,0,0,0,0,0,0,0,-1,881,1296,0,0
-336,-272,0,0,0,0,0,0,0,0,0,-1,888,1296,0,0
-329,-272,0,0,0,0,0,0,0,0,0,-1,895,1296,0,0
-322,-272,0,0,0,0,0,0,0,0,0,-1,902,1296,0,0
-315,-272,0,0,0,0,0,0,0,0,0,-1,909,1296,0,0
-308,-272,0,0,0,0,0,0,0,0,0,-1,916,1296,0,0
-301,-272,0,0,0,0,0,0,0,0,0,-1,923,1296,0,0
-294,-272,0,0,0,0,0,0,0,0,0,-1,930,1296,0,0
-287,-272,0,0,0,0,0,0,0,0,0,-1,937,1296,0,0
-280,-272,0,0,0,0,0,0,0,0,0,-1,944,1296,0,0
-273,-272,0,0,0,0,0,0,0,0,0,-1,951,1296,0,0
-266,-272,0,0,0,0,0,0,0,0,0,-1,958,1296,0,0
-259,-272,0,0,0,0,0,0,0,0,0,-1,965,1296,0,0
-252,-272,0,0,0,0,0,0,0,0,0,-1,972,1296,0,0
-245,-272,0,0,0,0,0,0,0,0,0,-1,979,1296,0,0
-238,-272,0,0,0,0,0,0,0,0,0,-1,986,1296,0,0
-231,-272,0,0,0,0,0,0,0,0,0,-1,993,1296,0,0
-224,-272,0,0,0,0,0,0,0,0,0,-1,1000,1296,0,0
-217,-272,0,0,0,0,0,0,0,0,0,-1,1007,1296,0,0
-210,-272,0,0,0,0,0,0,0,0,0,-1,1014,1296,0,0
-203,-272,0,0,0,0,0,0,0,0,0,-1,1021,1296,0,0
-196,-272,0,0,0,0,0,0,0,0,0,-1,1028,1296,0,0
-189,-272,0,0,0,0,0,0,0,0,0,-1,1035,1296,0,0
-182,-272,0,0,0,0,0,0,0,0,0,-1,1042,1296,0,0
-175,-272,0,0,0,0,0,0,0,0,0,-1,1049,1296,0,0
-168,-272,0,0,0,0,0,0,0,0,0,-1,1056,1296,0,0
-161,-272,0,0,0,0,0,0,0,0,0,-1,1063,1296,0,0
-154,-272,0,0,0,0,0,0,0,0,0,-1,1070,1296,0,0
-147,-272,0,0,0,0,0,0,0,0,0,-1,1077,1296,0,0
-140,-272,0,0,0,0,0,0,0,0,0,-1,1084,1296,0,0
-133,-272,0,0,0,0,0,0,0,0,0,-1,1091,1296,0,0
-126,-272,0,0,0,0,0,0,0,0,0,-1,1098,1296,0,0
-119,-272,0,0,0,0,0,0,0,0,0,-1,1105,1296,0,0
-112,-272,0,0,0,0,0,0,0,0,0,-1,1112,1296,0,0
-105,-272,0,0,0,0,0,0,0,0,0,-1,1119,1296,0,0
-98,-272,0,0,0,0,0,0,0,0,0,-1,1126,1296,0,0
-91,-272,0,0,0,0,0,0,0,0,0,-1,1133,1296,0,0
-84,-272,0,0,0,0,0,0,0,0,0,-1,1140,1296,0,0
-77,-272,0,0,0,0,0,0,0,0,0,-1,1147,1296,0,0
-70,-272,0,0,0,0,0,0,0,0,0,-1,1154,1296,0,0
-63,-272,0,0,0,0,0,0,0,0,0,-1,1161,1296,0,0
-56,-272,0,0,0,0,0,0,0,0,0,-1,1168,1296,0,0
-49,-272,0,0,0,0,0,0,0,0,0,-1,1175,1296,0,0
-42,-272,0,0,0,0,0,0,0,0,0,-1,1182,1296,0,0
-35,-272,0,0,0,0,0,0,0,0,0,-1,1189,1296,0,0
-28,-272,0,0,0,0,0,0,0,0,0,-1,1196,1296,0,0
-21,-272,0,0,0,0,0,0,0,0,0,-1,1203,1296,0,0
-14,-272,0,0,0,0,0,0,0,0,0,-1,1210,1296,0,0
-7,-272,0,0,0,0,0,0,0,0,0,-1,1217,1296,0,0
0,-272,0,0,0,0,0,0,0,0,0,-1,1224,1296,0,0
7,-272,0,0,0,0,0,0,0,0,0,-1,1231,1296,0,0
14,-272,0,0,0,0,0,0,0,0,0,-1,1238,1296,0,0
21,-272,0,0,0,0,0,0,0,0,0,-1,1245,1296,0,0
28,-272,0,0,0,0,0,0,0,0,0,-1,1252,1296,0,0
35,-272,0,0,0,0,0,0,0,0,0,-1,1259,1296,0,0
42,-272,0,0,0,0,0,0,0,0,0,-1,1266,1296,0,0
49,-272,0,0,0,0,0,0,0,0,0,-1,1273,1296,0,0
56,-272,0,0,0,0,0,0,0,0,0,-1,1280,1296,0,0
63,-272,0,0,0,0,0,0,0,0,0,-1,1287,1296,0,0
70,-272,0,0,0,0,0,0,0,0,0,-1,1294,1296,0,0
77,-272,0,0,0,0,0,0,0,0,0,-1,1301,1296,0,0
84,-272,0,0,0,0,0,0,0,0,0,-1,1308,1296,0,0
91,-272,0,0,0,0,0,0,0,0,0,-1,1315,1296,0,0
98,-272,0,0,0,0,0,0,0,0,0,-1,1322,1296,0,0
105,-272,0,0,0,0,0,0,0,0,0,-1,1329,1296,0,0
112,-272,0,0,0,0,0,0,0,0,0,-1,1336,1296,0,0
119,-272,0,0,0,0,0,0,0,0,0,-1,1343,1296,0,0
126,-272,0,0,0,0,0,0,0,0,0,-1,1350,1296,0,0
133,-272,0,0,0,0,0,0,0,0,0,-1,1357,1296,0,0
140,-272,0,0,0,0,0,0,0,0,0,-1,1364,1296,0,0
147,-272,0,0,0,0,0,0,0,0,0,-1,1371,1296,0,0
154,-272,0,0,0,0,0,0,0,0,0,-1,1378,1296,0,0
161,-272,0,0,0,0,0,0,0,0,0,-1,1385,1296,0,0
168,-272,0,0,0,0,0,0,0,0,0,-1,1392,1296,0,0
175,-272,0,0,0,0,0,0,0,0,0,-1,1399,1296,0,0
182,-272,0,0,0,0,0,0,0,0,0,-1,1406,1296,0,0
189,-272,0,0,0,0,0,0,0,0,0,-1,1413,1296,0,0
196,-272,0,0,0,0,0,0,0,0,0,-1,1420,1296,0,0
203,-272,0,0,0,0,0,0,0,0,0,-1,1427,1296,0,0
210,-272,0,0,0,0,0,0,0,0,0,-1,1434,1296,0,0
217,-272,0,0,0,0,0,0,0,0,0,-1,1441,1296,0,0
224,-272,0,0,0,0,0,0,0,0,0,-1,1448,1296,0,0
231,-272,0,0,0,0,0,0,0,0,0,-1,1455,1296,0,0
238,-272,0,0,0,0,0,0,0,0,0,-1,1462,1296,0,0
245,-272,0,0,0,0,0,0,0,0,0,-1,1469,1296,0,0
252,-272,0,0,0,0,0,0,0,0,0,-1,1476,1296,0,0
259,-272,0,0,0,0,0,0,0,0,0,-1,1483,1296,0,0
266,-272,0,0,0,0,0,0,0,0,0,-1,1490,1296,0,0
273,-272,0,0,0,0,0,0,0,0,0,-1,1497,1296,0,0
280,-272,0,0,0,0,0,0,0,0,0,-1,1504,1296,0,0
287,-272,0,0,0,0,0,0,0,0,0,-1,1511,1296,0,0
294,-272,0,0,0,0,0,0,0,0,0,-1,1518,1296,0,0
301,-272,0,0,0,0,0,0,0,0,0,-1,1525,1296,0,0
308,-272,0,0,0,0,0,0,0,0,0,-1,1532,1296,0,0
315,-272,0,0,0,0,0,0,0,0,0,-1,1539,1296,0,0
322,-272,0,0,0,0,0,0,0,0,0,-1,1546,1296,0,0
329,-272,0,0,0,0,0,0,0,0,0,-1,1553,1296,0,0
336,-272,0,0,0,0,0,0,0,0,0,-1,1560,1296,0,0
343,-272,0,0,0,0,0,0,0,0,0,-1,1567,1296,0,0
350,-272,0,0,0,0,0,0,0,0,0,-1,1574,1296,0,0
357,-272,0,0,0,0,0,0,0,0,0,-1,1581,1296,0,0
364,-272,0,0,0,0,0,0,0,0,0,-1,1588,1296,0,0
371,-272,0,0,0,0,0,0,0,0,0,-1,1595,1296,0,0
378,-272,0,0,0,0,0,0,0,0,0,-1,1602,1296,0,0
385,-272,0,0,0,0,0,0,0,0,0,-1,1609,1296,0,0
392,-272,0,0,0,0,0,0,0,0,0,-1,1616,1296,0,0
399,-272,0,0,0,0,0,0,0,0,0,-1,1623,1296,0,0
406,-272,0,0,0,0,0,0,0,0,0,-1,1630,1296,0,0
413,-272,0,0,0,0,0,0,0,0,0,-1,1637,1296,0,0
420,-272,0,0,0,0,0,0,0,0,0,-1,1644,1296,0,0
427,-272,0,0,0,0,0,0,0,0,0,-1,1651,1296,0,0
434,-272,0,0,0,0,0,0,0,0,0,-1,1658,1296,0,0
441,-272,0,0,0,0,0,0,0,0,0,-1,1665,1296,0,0
448,-272,0,0,0,0,0,0,0,0,0,-1,1672,1296,0,0
455,-272,0,0,0,0,0,0,0,0,0,-1,1679,1296,0,0
462,-272,0,0,0,0,0,0,0,0,0,-1,1686,1296,0,0
469,-272,0,0,0,0,0,0,0,0,0,-1,1693,1296,0,0
476,-272,0,0,0,0,0,0,0,0,0,-1,1700,1296,0,0
483,-272,0,0,0,0,0,0,0,0,0,-1,1707,1296,0,0
490,-272,0,0,0,0,0,0,0,0,0,-1,1714,1296,0,0
497,-272,0,0,0,0,0,0,0,0,0,-1,1721,1296,0,0
504,-272,0,0,0,0,0,0,0,0,0,-1,1728,1296,0,0
511,-272,0,0,0,0,0,0,0,0,0,-1,1735,1296,0,0
518,-272,0,0,0,0,0,0,0,0,0,-1,1742,1296,0,0
525,-272,0,0,0,0,0,0,0,0,0,-1,1749,1296,0,0
532,-272,0,0,0,0,0,0,0,0,0,-1,1756,1296,0,0
539,-272,0,0,0,0,0,0,0,0,0,-1,1763,1296,0,0
546,-272,0,0,0,0,0,0,0,0,0,-1,1770,1296,0,0
553,-272,0,0,0,0,0,0,0,0,0,-1,1777,1296,0,0
560,-272,0,0,0,0,0,0,0,0,0,-1,1784,1296,0,0
567,-272,0,0,0,0,0,0,0,0,0,-1,1791,1296,0,0
574,-272,0,0,0,0,0,0,0,0,0,-1,1798,1296,0,0
581,-272,0,0,0,0,0,0,0,0,0,-1,1805,1296,0,0
588,-272,0,0,0,0,0,0,0,0,0,-1,1812,1296,0,0
595,-272,0,0,0,0,0,0,0,0,0,-1,1819,1296,0,0
602,-272,70.8035,2.20825,0.00535809,0.00742316,-0.000519352,0.00754642,0.00523483,-1.33778,0.00446456,0.0295765,1826,1296,70.8035,-2.2082
609,-272,70.7621,2.13745,0.0142387,0.00201097,-0.00182296,0.0145047,0.00174499,-0.144887,0.00914383,0.0360929,1833,1296,70.7621,-2.13739
616,-272,70.8268,2.08582,0.0192326,-0.00183118,-0.00296885,0.019643,-0.00224163,-0.137381,0.0139029,0.045387,1840,1296,70.8268,-2.08577
623,-272,71.2496,2.36084,0.0173424,-0.00192376,-0.00345861,0.0179445,-0.00252582,-0.17235,0.0128877,0.0463724,1847,1296,71.2497,-2.36079
630,-272,71.1027,2.09473,0,0,0,0,0,0,0,-1,1854,1296,71.1027,-2.09478
637,-272,70.145,1.52185,0,0,0,0,0,0,0,-1,1861,1296,70.145,-1.52182
644,-272,53.563,1.44336,0,0,0,0,0,0,0,-1,1868,1296,53.5629,-1.4433
651,-272,41.9225,4.27161,0,0,0,0,0,0,0,-1,1875,1296,41.9225,-4.27157
658,-272,35.1527,2.10571,0,0,0,0,0,0,0,-1,1882,1296,35.1527,-2.10573
665,-272,22.0238,4.14417,0,0,0,0,0,0,0,-1,1889,1296,22.0238,-4.14421
672,-272,22.661,7.21765,0,0,0,0,0,0,0,-1,1896,1296,22.661,-7.21761
679,-272,49.6836,14.7032,0,0,0,0,0,0,0,-1,1903,1296,49.6836,-14.7032
686,-272,49.6013,13.9209,0.00160723,-7.90542e-05,-0.00145596,0.00244656,-0.000918379,-0.522943,0.00200842,0.0445563,1910,1296,49.6013,-13.9209
693,-272,49.6171,13.1111,0.00140797,-0.000138937,-0.000884702,0.00180964,-0.000540613,-0.426195,0.00142133,0.0117641,1917,1296,49.6171,-13.1111
700,-272,49.6078,12.4158,0.000987206,-6.82999e-06,-0.000295812,0.00106858,-8.81992e-05,-0.268432,0.000743529,0.0118554,1924,1296,49.6078,-12.4158
707,-272,49.5751,11.6788,0.000397052,4.66252e-05,0.000258187,0.000533865,-9.01879e-05,0.487279,0.000389469,0.0114692,1931,1296,49.5751,-11.6788
714,-272,49.5262,10.9573,-0.000178874,0.000221649,0.000818025,0.000863569,-0.000820793,0.905443,0.000972571,0.014736,1938,1296,49.5262,-10.9573
721,-272,49.4464,10.2974,-0.000839887,0.000464899,0.00135203,0.0013137,-0.00168869,1.01018,0.00173794,0.0196991,1945,1296,49.4465,-10.2973
728,-272,49.4243,9.58337,-0.00159069,0.000783938,0.00186195,0.00180492,-0.00261167,1.06923,0.00256406,0.0207445,1952,1296,49.4244,-9.58338
735,-272,49.4393,8.91406,-0.00247425,0.00120802,0.00234562,0.00234878,-0.00361501,1.11814,0.00346897,0.0167963,1959,1296,49.4393,-8.91407
742,-272,49.3718,8.30615,-0.00352081,0.00179089,0.0027418,0.00295224,-0.00468216,1.17014,0.00444528,0.0244938,1966,1296,49.3718,-8.30613
749,-272,49.3601,7.46387,-0.00481843,0.00258532,0.00298379,0.00363811,-0.00587122,1.2316,0.00554045,0.0479738,1973,1296,49.3601,-7.46392
756,-272,49.4917,6.65808,0,0,0,0,0,0,0,-1,1980,1296,49.4917,-6.65814
763,-272,34.3995,5.88416,0,0,0,0,0,0,0,-1,1987,1296,34.3996,-5.88419
770,-272,25.9485,3.67749,0,0,0,0,0,0,0,-1,1994,1296,25.9485,-3.67744
777,-272,32.3619,6.13257,0,0,0,0,0,0,0,-1,2001,1296,32.362,-6.1326
784,-272,0,0,0,0,0,0,0,0,0,-1,2008,1296,0,0
791,-272,0,0,0,0,0,0,0,0,0,-1,2015,1296,0,0
798,-272,0,0,0,0,0,0,0,0,0,-1,2022,1296,0,0
805,-272,0,0,0,0,0,0,0,0,0,-1,2029,1296,0,0
812,-272,0,0,0,0,0,0,0,0,0,-1,2036,1296,0,0
-700,-279,0,0,0,0,0,0,0,0,0,-1,524,1303,0,0
-693,-279,0,0,0,0,0,0,0,0,0,-1,531,1303,0,0
-686,-279,0,0,0,0,0,0,0,0,0,-1,538,1303,0,0
-679,-279,0,0,0,0,0,0,0,0,0,-1,545,1303,0,0
-672,-279,0,0,0,0,0,0,0,0,0,-1,552,1303,0,0
-665,-279,0,0,0,0,0,0,0,0,0,-1,559,1303,0,0
-658,-279,-44.3733,1.65881,0,0,0,0,0,0,0,-1,566,1303,-44.3733,-1.65883
-651,-279,-44.1603,1.61462,0,0,0,0,0,0,0,-1,573,1303,-44.1604,-1.61462
-644,-279,-43.8069,1.50903,0,0,0,0,0,0,0,-1,580,1303,-43.8069,-1.50909
-637,-279,-43.2951,1.33704,0,0,0,0,0,0,0,-1,587,1303,-43.2951,-1.33703
-630,-279,-42.6152,1.22852,0,0,0,0,0,0,0,-1,594,1303,-42.6152,-1.22856
-623,-279,-41.8359,0.907715,0,0,0,0,0,0,0,-1,601,1303,-41.8358,-0.907688
-616,-279,-32.5623,5.70435,0,0,0,0,0,0,0,-1,608,1303,-32.5623,-5.70439
-609,-279,-32.3377,7.13403,0,0,0,0,0,0,0,-1,615,1303,-32.3377,-7.13401
-602,-279,-32.2136,7.51196,0.00302573,0.00433595,0.00232524,0.0060966,0.00126508,0.922708,0.00371521,0.0153624,622,1303,-32.2136,-7.51196
-595,-279,-32.2938,8.27466,0.00211783,0.0028444,0.0016031,0.00412487,0.000837372,0.896823,0.00251764,0.0103129,629,1303,-32.2938,-8.27465
-588,-279,-32.3315,9.02686,0.00155687,0.00152026,0.00104738,0.0025861,0.000491026,0.77666,0.00158594,0.0116755,636,1303,-32.3315,-9.02684
-581,-279,-32.3763,9.74207,0.00123401,0.000264835,0.000636417,0.00154933,-5.04855e-05,0.46001,0.00105012,0.0126775,643,1303,-32.3764,-9.74201
-574,-279,-32.4363,10.4905,0.00112306,-0.000944351,0.000338912,0.0011772,-0.000998491,0.158409,0.00125755,0.0132363,650,1303,-32.4364,-10.4905
-567,-279,-32.4597,11.2347,0.00123245,-0.00212463,0.000143277,0.00123855,-0.00213073,0.0425759,0.00196786,0.0189973,657,1303,-32.4597,-11.2348
-560,-279,-32.4857,12.021,0.00166041,-0.00317412,0.000115224,0.00166315,-0.00317687,0.0238156,0.00283958,0.0188345,664,1303,-32.4857,-12.021
-553,-279,-32.512,12.7932,0.00234339,-0.00436681,0.000156494,0.00234704,-0.00437046,0.0233049,0.00393656,0.0191375,671,1303,-32.512,-12.7933
-546,-279,-32.5301,13.5378,0.0032736,-0.00533975,0.000457039,0.00329778,-0.00536393,0.0528639,0.00504804,0.0331016,678,1303,-32.5301,-13.5378
-539,-279,-32.937,14.3685,0,0,0,0,0,0,0,-1,685,1303,-32.937,-14.3686
-532,-279,-14.9813,7.89917,0,0,0,0,0,0,0,-1,692,1303,-14.9813,-7.89918
-525,-279,-11.7063,-0.539185,0,0,0,0,0,0,0,-1,699,1303,-11.7063,0.539166
-518,-279,-16.8138,1.11963,0,0,0,0,0,0,0,-1,706,1303,-16.8138,-1.11968
-511,-279,-20.1063,-1.37915,0,0,0,0,0,0,0,-1,713,1303,-20.1062,1.37918
-504,-279,-18.3766,1.04578,0,0,0,0,0,0,0,-1,720,1303,-18.3767,-1.04577
-497,-279,-19.0046,2.08911,0,0,0,0,0,0,0,-1,727,1303,-19.0046,-2.08905
-490,-279,-20.0176,2.55188,0,0,0,0,0,0,0,-1,734,1303,-20.0176,-2.55183
-483,-279,-20.8064,2.99792,0,0,0,0,0,0,0,-1,741,1303,-20.8064,-2.99797
-476,-279,0,0,0,0,0,0,0,0,0,-1,748,1303,0,0
-469,-279,0,0,0,0,0,0,0,0,0,-1,755,1303,0,0
-462,-279,0,0,0,0,0,0,0,0,0,-1,762,1303,0,0
-455,-279,0,0,0,0,0,0,0,0,0,-1,769,1303,0,0
-448,-279,0,0,0,0,0,0,0,0,0,-1,776,1303,0,0
-441,-279,0,0,0,0,0,0,0,0,0,-1,783,1303,0,0
-434,-279,0,0,0,0,0,0,0,0,0,-1,790,1303,0,0
-427,-279,0,0,0,0,0,0,0,0,0,-1,797,1303,0,0
-420,-279,0,0,0,0,0,0,0,0,0,-1,804,1303,0,0
-413,-279,0,0,0,0,0,0,0,0,0,-1,811,1303,0,0
-406,-279,0,0,0,0,0,0,0,0,0,-1,818,1303,0,0
-399,-279,0,0,0,0,0,0,0,0,0,-1,825,1303,0,0
-392,-279,0,0,0,0,0,0,0,0,0,-1,832,1303,0,0
-385,-279,0,0,0,0,0,0,0,0,0,-1,839,1303,0,0
-378,-279,0,0,0,0,0,0,0,0,0,-1,846,1303,0,0
-371,-279,0,0,0,0,0,0,0,0,0,-1,853,1303,0,0
-364,-279,0,0,0,0,0,0,0,0,0,-1,860,1303,0,0
-357,-279,0,0,0,0,0,0,0,0,0,-1,867,1303,0,0
-350,-279,0,0,0,0,0,0,0,0,0,-1,874,1303,0,0
-343,-279,0,0,0,0,0,0,0,0,0,-1,881,1303,0,0
-336,-279,0,0,0,0,0,0,0,0,0,-1,888,1303,0,0
-329,-279,0,0,0,0,0,0,0,0,0,-1,895,1303,0,0
-322,-279,0,0,0,0,0,0,0,0,0,-1,902,1303,0,0
-315,-279,0,0,0,0,0,0,0,0,0,-1,909,1303,0,0
-308,-279,0,0,0,0,0,0,0,0,0,-1,916,1303,0,0
-301,-279,0,0,0,0,0,0,0,0,0,-1,923,1303,0,0
-294,-279,0,0,0,0,0,0,0,0,0,-1,930,1303,0,0
-287,-279,0,0,0,0,0,0,0,0,0,-1,937,1303,0,0
-280,-279,0,0,0,0,0,0,0,0,0,-1,944,1303,0,0
-273,-279,0,0,0,0,0,0,0,0,0,-1,951,1303,0,0
-266,-279,0,0,0,0,0,0,0,0,0,-1,958,1303,0,0
-259,-279,0,0,0,0,0,0,0,0,0,-1,965,1303,0,0
-252,-279,0,0,0,0,0,0,0,0,0,-1,972,1303,0,0
-245,-279,0,0,0,0,0,0,0,0,0,-1,979,1303,0,0
-238,-279,0,0,0,0,0,0,0,0,0,-1,986,1303,0,0
-231,-279,0,0,0,0,0,0,0,0,0,-1,993,1303,0,0
-224,-279,0,0,0,0,0,0,0,0,0,-1,1000,1303,0,0
-217,-279,0,0,0,0,0,0,0,0,0,-1,1007,1303,0,0
-210,-279,0,0,0,0,0,0,0,0,0,-1,1014,1303,0,0
-203,-279,0,0,0,0,0,0,0,0,0,-1,1021,1303,0,0
-196,-279,0,0,0,0,0,0,0,0,0,-1,1028,1303,0,0
-189,-279,0,0,0,0,0,0,0,0,0,-1,1035,1303,0,0
-182,-279,0,0,0,0,0,0,0,0,0,-1,1042,1303,0,0
-175,-279,0,0,0,0,0,0,0,0,0,-1,1049,1303,0,0
-168,-279,0,0,0,0,0,0,0,0,0,-1,1056,1303,0,0
-161,-279,0,0,0,0,0,0,0,0,0,-1,1063,1303,0,0
-154,-279,0,0,0,0,0,0,0,0,0,-1,1070,1303,0,0
-147,-279,0,0,0,0,0,0,0,0,0,-1,1077,1303,0,0
-140,-279,0,0,0,0,0,0,0,0,0,-1,1084,1303,0,0
-133,-279,0,0,0,0,0,0,0,0,0,-1,1091,1303,0,0
-126,-279,0,0,0,0,0,0,0,0,0,-1,1098,1303,0,0
-119,-279,0,0,0,0,0,0,0,0,0,-1,1105,1303,0,0
-112,-279,0,0,0,0,0,0,0,0,0,-1,1112,1303,0,0
-105,-279,0,0,0,0,0,0,0,0,0,-1,1119,1303,0,0
-98,-279,0,0,0,0,0,0,0,0,0,-1,1126,1303,0,0
-91,-279,0,0,0,0,0,0,0,0,0,-1,1133,1303,0,0
-84,-279,0,0,0,0,0,0,0,0,0,-1,1140,1303,0,0
-77,-279,0,0,0,0,0,0,0,0,0,-1,1147,1303,0,0
-70,-279,0,0,0,0,0,0,0,0,0,-1,1154,1303,0,0
-63,-279,0,0,0,0,0,0,0,0,0,-1,1161,1303,0,0
-56,-279,0,0,0,0,0,0,0,0,0,-1,1168,1303,0,0
-49,-279,0,0,0,0,0,0,0,0,0,-1,1175,1303,0,0
-42,-279,0,0,0,0,0,0,0,0,0,-1,1182,1303,0,0
-35,-279,0,0,0,0,0,0,0,0,0,-1,1189,1303,0,0
-28,-279,0,0,0,0,0,0,0,0,0,-1,1196,1303,0,0
-21,-279,0,0,0,0,0,0,0,0,0,-1,1203,1303,0,0
-14,-279,0,0,0,0,0,0,0,0,0,-1,1210,1303,0,0
-7,-279,0,0,0,0,0,0,0,0,0,-1,1217,1303,0,0
0,-279,0,0,0,0,0,0,0,0,0,-1,1224,1303,0,0
7,-279,0,0,0,0,0,0,0,0,0,-1,1231,1303,0,0
14,-279,0,0,0,0,0,0,0,0,0,-1,1238,1303,0,0
21,-279,0,0,0,0,0,0,0,0,0,-1,1245,1303,0,0
28,-279,0,0,0,0,0,0,0,0,0,-1,1252,1303,0,0
35,-279,0,0,0,0,0,0,0,0,0,-1,1259,1303,0,0
42,-279,0,0,0,0,0,0,0,0,0,-1,1266,1303,0,0
49,-279,0,0,0,0,0,0,0,0,0,-1,1273,1303,0,0
56,-279,0,0,0,0,0,0,0,0,0,-1,1280,1303,0,0
63,-279,0,0,0,0,0,0,0,0,0,-1,1287,1303,0,0
70,-279,0,0,0,0,0,0,0,0,0,-1,1294,1303,0,0
77,-279,0,0,0,0,0,0,0,0,0,-1,1301,1303,0,0
84,-279,0,0,0,0,0,0,0,0,0,-1,1308,1303,0,0
91,-279,0,0,0,0,0,0,0,0,0,-1,1315,1303,0,0
98,-279,0,0,0,0,0,0,0,0,0,-1,1322,1303,0,0
105,-279,0,0,0,0,0,0,0,0,0,-1,1329,1303,0,0
112,-279,0,0,0,0,0,0,0,0,0,-1,1336,1303,0,0
119,-279,0,0,0,0,0,0,0,0,0,-1,1343,1303,0,0
126,-279,0,0,0,0,0,0,0,0,0,-1,1350,1303,0,0
133,-279,0,0,0,0,0,0,0,0,0,-1,1357,1303,0,0
140,-279,0,0,0,0,0,0,0,0,0,-1,1364,1303,0,0
147,-279,0,0,0,0,0,0,0,0,0,-1,1371,1303,0,0
154,-279,0,0,0,0,0,0,0,0,0,-1,1378,1303,0,0
161,-279,0,0,0,0,0,0,0,0,0,-1,1385,1303,0,0
168,-279,0,0,0,0,0,0,0,0,0,-1,1392,1303,0,0
175,-279,0,0,0,0,0,0,0,0,0,-1,1399,1303,0,0
182,-279,0,0,0,0,0,0,0,0,0,-1,1406,1303,0,0
189,-279,0,0,0,0,0,0,0,0,0,-1,1413,1303,0,0
196,-279,0,0,0,0,0,0,0,0,0,-1,1420,1303,0,0
203,-279,0,0,0,0,0,0,0,0,0,-1,1427,1303,0,0
210,-279,0,0,0,0,0,0,0,0,0,-1,1434,1303,0,0
217,-279,0,0,0,0,0,0,0,0,0,-1,1441,1303,0,0
224,-279,0,0,0,0,0,0,0,0,0,-1,1448,1303,0,0
231,-279,0,0,0,0,0,0,0,0,0,-1,1455,1303,0,0
238,-279,0,0,0,0,0,0,0,0,0,-1,1462,1303,0,0
245,-279,0,0,0,0,0,0,0,0,0,-1,1469,1303,0,0
252,-279,0,0,0,0,0,0,0,0,0,-1,1476,1303,0,0
259,-279,0,0,0,0,0,0,0,0,0,-1,1483,1303,0,0
266,-279,0,0,0,0,0,0,0,0,0,-1,1490,1303,0,0
273,-279,0,0,0,0,0,0,0,0,0,-1,1497,1303,0,0
280,-279,0,0,0,0,0,0,0,0,0,-1,1504,1303,0,0
287,-279,0,0,0,0,0,0,0,0,0,-1,1511,1303,0,0
294,-279,0,0,0,0,0,0,0,0,0,-1,1518,1303,0,0
301,-279,0,0,0,0,0,0,0,0,0,-1,1525,1303,0,0
308,-279,0,0,0,0,0,0,0,0,0,-1,1532,1303,0,0
315,-279,0,0,0,0,0,0,0,0,0,-1,1539,1303,0,0
322,-279,0,0,0,0,0,0,0,0,0,-1,1546,1303,0,0
329,-279,0,0,0,0,0,0,0,0,0,-1,1553,1303,0,0
336,-279,0,0,0,0,0,0,0,0,0,-1,1560,1303,0,0
343,-279,0,0,0,0,0,0,0,0,0,-1,1567,1303,0,0
350,-279,0,0,0,0,0,0,0,0,0,-1,1574,1303,0,0
357,-279,0,0,0,0,0,0,0,0,0,-1,1581,1303,0,0
364,-279,0,0,0,0,0,0,0,0,0,-1,1588,1303,0,0
371,-279,0,0,0,0,0,0,0,0,0,-1,1595,1303,0,0
378,-279,0,0,0,0,0,0,0,0,0,-1,1602,1303,0,0
385,-279,0,0,0,0,0,0,0,0,0,-1,1609,1303,0,0
392,-279,0,0,0,0,0,0,0,0,0,-1,1616,1303,0,0
399,-279,0,0,0,0,0,0,0,0,0,-1,1623,1303,0,0
406,-279,0,0,0,0,0,0,0,0,0,-1,1630,1303,0,0
413,-279,0,0,0,0,0,0,0,0,0,-1,1637,1303,0,0
420,-279,0,0,0,0,0,0,0,0,0,-1,1644,1303,0,0
427,-279,0,0,0,0,0,0,0,0,0,-1,1651,1303,0,0
434,-279,0,0,0,0,0,0,0,0,0,-1,1658,1303,0,0
441,-279,0,0,0,0,0,0,0,0,0,-1,1665,1303,0,0
448,-279,0,0,0,0,0,0,0,0,0,-1,1672,1303,0,0
455,-279,0,0,0,0,0,0,0,0,0,-1,1679,1303,0,0
462,-279,0,0,0,0,0,0,0,0,0,-1,1686,1303,0,0
469,-279,0,0,0,0,0,0,0,0,0,-1,1693,1303,0,0
476,-279,0,0,0,0,0,0,0,0,0,-1,1700,1303,0,0
483,-279,0,0,0,0,0,0,0,0,0,-1,1707,1303,0,0
490,-279,0,0,0,0,0,0,0,0,0,-1,1714,1303,0,0
497,-279,0,0,0,0,0,0,0,0,0,-1,1721,1303,0,0
504,-279,0,0,0,0,0,0,0,0,0,-1,1728,1303,0,0
511,-279,0,0,0,0,0,0,0,0,0,-1,1735,1303,0,0
518,-279,0,0,0,0,0,0,0,0,0,-1,1742,1303,0,0
525,-279,0,0,0,0,0,0,0,0,0,-1,1749,1303,0,0
532,-279,0,0,0,0,0,0,0,0,0,-1,1756,1303,0,0
539,-279,0,0,0,0,0,0,0,0,0,-1,1763,1303,0,0
546,-279,0,0,0,0,0,0,0,0,0,-1,1770,1303,0,0
553,-279,0,0,0,0,0,0,0,0,0,-1,1777,1303,0,0
560,-279,0,0,0,0,0,0,0,0,0,-1,1784,1303,0,0
567,-279,0,0,0,0,0,0,0,0,0,-1,1791,1303,0,0
574,-279,0,0,0,0,0,0,0,0,0,-1,1798,1303,0,0
581,-279,0,0,0,0,0,0,0,0,0,-1,1805,1303,0,0
588,-279,0,0,0,0,0,0,0,0,0,-1,1812,1303,0,0
595,-279,0,0,0,0,0,0,0,0,0,-1,1819,1303,0,0
602,-279,70.7992,2.13721,0.0134518,0.0042438,1.90602e-05,0.0134518,0.00424376,0.00206994,0.00794076,0.0420456,1826,1303,70.7992,-2.13717
609,-279,70.759,1.95435,0.0237694,-0.00175611,-0.00134816,0.0238404,-0.00182712,-0.0526209,0.0165363,0.0498693,1833,1303,70.7591,-1.95437
616,-279,70.9415,2.34351,0.0238542,-0.00317694,-0.00211879,0.0240193,-0.00334201,-0.0777504,0.0172352,0.0460022,1840,1303,70.9416,-2.34351
623,-279,71.4998,2.48376,0.0195216,-0.00210223,-0.00248829,0.0198042,-0.00238487,-0.113102,0.0140653,0.0482166,1847,1303,71.4997,-2.48378
630,-279,71.7982,2.71228,0,0,0,0,0,0,0,-1,1854,1303,71.7982,-2.7123
637,-279,64.8074,1.49939,0,0,0,0,0,0,0,-1,1861,1303,64.8074,-1.49939
644,-279,33.5021,3.40234,0,0,0,0,0,0,0,-1,1868,1303,33.5021,-3.40237
651,-279,29.8456,2.3562,0,0,0,0,0,0,0,-1,1875,1303,29.8455,-2.35615
658,-279,21.5076,7.65649,0,0,0,0,0,0,0,-1,1882,1303,21.5076,-7.65648
665,-279,18.9794,6.09607,0,0,0,0,0,0,0,-1,1889,1303,18.9793,-6.09601
672,-279,23.5206,8.32507,0,0,0,0,0,0,0,-1,1896,1303,23.5206,-8.32512
679,-279,48.8002,14.649,0,0,0,0,0,0,0,-1,1903,1303,48.8002,-14.6491
686,-279,48.8878,13.9376,0.00166277,-6.55114e-05,-0.00149294,0.00252362,-0.000926365,-0.523049,0.00206178,0.032865,1910,1303,48.8878,-13.9376
693,-279,48.8893,13.1785,0.00143007,-6.48607e-05,-0.000896537,0.00184986,-0.000484651,-0.437914,0.00142258,0.0170212,1917,1303,48.8893,-13.1785
700,-279,48.8677,12.488,0.00104252,7.01605e-05,-0.000305389,0.00113048,-1.77965e-05,-0.280427,0.000759655,0.0121549,1924,1303,48.8677,-12.4881
707,-279,48.8428,11.744,0.000558643,0.000123142,0.000249379,0.000671959,9.8256e-06,0.426502,0.000444734,0.00950514,1931,1303,48.8427,-11.744
714,-279,48.8052,11.0236,8.20435e-05,0.000281762,0.000776783,0.000965078,-0.000601273,0.849325,0.000912428,0.011194,1938,1303,48.8051,-11.0235
721,-279,48.804,10.3191,-0.00047068,0.00051409,0.00128215,0.00139515,-0.00135174,0.968731,0.00158598,0.016692,1945,1303,48.8039,-10.3191
728,-279,48.7805,9.62317,-0.00110833,0.000839253,0.00175889,0.00187593,-0.002145,1.03821,0.00232322,0.019182,1952,1303,48.7805,-9.62315
735,-279,48.7211,8.95703,-0.00188434,0.00128789,0.00220412,0.00241727,-0.00301372,1.09728,0.00314188,0.0174579,1959,1303,48.7211,-8.95703
742,-279,48.6719,8.3053,-0.00283541,0.00194491,0.00251947,0.00302758,-0.00391809,1.16493,0.00402106,0.0282124,1966,1303,48.6719,-8.30535
749,-279,48.5631,7.52551,0,0,0,0,0,0,0,-1,1973,1303,48.5631,-7.52555
756,-279,23.2091,4.43433,0,0,0,0,0,0,0,-1,1980,1303,23.2092,-4.43432
763,-279,27.1613,3.46265,0,0,0,0,0,0,0,-1,1987,1303,27.1613,-3.4627
770,-279,21.5828,3.54199,0,0,0,0,0,0,0,-1,1994,1303,21.5827,-3.54198
777,-279,32.5369,6.99609,0,0,0,0,0,0,0,-1,2001,1303,32.5369,-6.99608
784,-279,0,0,0,0,0,0,0,0,0,-1,2008,1303,0,0
791,-279,0,0,0,0,0,0,0,0,0,-1,2015,1303,0,0
798,-279,0,0,0,0,0,0,0,0,0,-1,2022,1303,0,0
805,-279,0,0,0,0,0,0,0,0,0,-1,2029,1303,0,0
812,-279,0,0,0,0,0,0,0,0,0,-1,2036,1303,0,0
-700,-286,0,0,0,0,0,0,0,0,0,-1,524,1310,0,0
-693,-286,0,0,0,0,0,0,0,0,0,-1,531,1310,0,0
-686,-286,0,0,0,0,0,0,0,0,0,-1,538,1310,0,0
-679,-286,0,0,0,0,0,0,0,0,0,-1,545,1310,0,0
-672,-286,0,0,0,0,0,0,0,0,0,-1,552,1310,0,0
-665,-286,0,0,0,0,0,0,0,0,0,-1,559,1310,0,0
-658,-286,-44.103,1.76782,0,0,0,0,0,0,0,-1,566,1310,-44.103,-1.76778
-651,-286,-43.6417,1.98254,0,0,0,0,0,0,0,-1,573,1310,-43.6416,-1.98254
-644,-286,-43.3175,1.59558,0,0,0,0,0,0,0,-1,580,1310,-43.3175,-1.59556
-637,-286,-42.8448,1.15039,0,0,0,0,0,0,0,-1,587,1310,-42.8448,-1.15043
-630,-286,-42.1176,0.443848,0,0,0,0,0,0,0,-1,594,1310,-42.1176,-0.443802
-623,-286,-41.3121,-0.468384,0,0,0,0,0,0,0,-1,601,1310,-41.3121,0.468376
-616,-286,-22.0634,2.37744,0,0,0,0,0,0,0,-1,608,1310,-22.0633,-2.37746
-609,-286,-31.6796,6.55273,0,0,0,0,0,0,0,-1,615,1310,-31.6796,-6.5527
-602,-286,-31.5278,7.47192,0.00359234,0.00499699,0.00282933,0.00720986,0.00137947,0.907055,0.00441911,0.0237001,622,1310,-31.5278,-7.4719
-595,-286,-31.5658,8.30103,0.00260718,0.00341353,0.00196325,0.00501458,0.00100614,0.886671,0.00306326,0.01331,629,1310,-31.5658,-8.30097
-588,-286,-31.6,9.03015,0.0020034,0.00207242,0.00129558,0.00333395,0.000741876,0.798714,0.00202124,0.0144172,636,1310,-31.6,-9.03009
-581,-286,-31.6046,9.7804,0.00166042,0.000864303,0.000819767,0.00217366,0.000351062,0.559376,0.00134742,0.0156014,643,1310,-31.6046,-9.78038
-574,-286,-31.6574,10.5502,0.00153266,-0.000254451,0.000480739,0.00165378,-0.000375563,0.246794,0.00124671,0.0152613,650,1310,-31.6574,-10.5501
-567,-286,-31.7204,11.2944,0.00160755,-0.00130647,0.000258526,0.0016303,-0.00132923,0.0878041,0.00171163,0.015437,657,1310,-31.7204,-11.2945
-560,-286,-31.7375,12.0599,0.00197692,-0.00224812,0.000204124,0.00198676,-0.00225796,0.0481634,0.00245236,0.0147964,664,1310,-31.7375,-12.06
-553,-286,-31.7458,12.8267,0.00260348,-0.00319452,0.000270712,0.0026161,-0.00320714,0.0465555,0.00336781,0.0110953,671,1310,-31.7459,-12.8267
-546,-286,-31.711,13.6273,0.00347246,-0.00396367,0.000579837,0.0035174,-0.00400861,0.0773527,0.00434823,0.0264889,678,1310,-31.711,-13.6273
-539,-286,-31.8024,14.5028,0,0,0,0,0,0,0,-1,685,1310,-31.8024,-14.5028
-532,-286,-21.6771,10.4924,0,0,0,0,0,0,0,-1,692,1310,-21.6771,-10.4924
-525,-286,-11.4528,-1.11768,0,0,0,0,0,0,0,-1,699,1310,-11.4528,1.11769
-518,-286,-11.0701,1.37329,0,0,0,0,0,0,0,-1,706,1310,-11.0701,-1.37332
-511,-286,-17.7545,-0.0791016,0,0,0,0,0,0,0,-1,713,1310,-17.7544,0.0791606
-504,-286,-18.0455,1.29602,0,0,0,0,0,0,0,-1,720,1310,-18.0455,-1.29601
-497,-286,-18.3367,2.67114,0,0,0,0,0,0,0,-1,727,1310,-18.3366,-2.67118
-490,-286,-19.5795,2.47266,0,0,0,0,0,0,0,-1,734,1310,-19.5795,-2.4727
-483,-286,-19.7277,2.74744,0,0,0,0,0,0,0,-1,741,1310,-19.7277,-2.74747
-476,-286,-20.0391,3.06177,0,0,0,0,0,0,0,-1,748,1310,-20.0391,-3.06178
-469,-286,0,0,0,0,0,0,0,0,0,-1,755,1310,0,0
-462,-286,0,0,0,0,0,0,0,0,0,-1,762,1310,0,0
-455,-286,0,0,0,0,0,0,0,0,0,-1,769,1310,0,0
-448,-286,0,0,0,0,0,0,0,0,0,-1,776,1310,0,0
-441,-286,0,0,0,0,0,0,0,0,0,-1,783,1310,0,0
-434,-286,0,0,0,0,0,0,0,0,0,-1,790,1310,0,0
-427,-286,0,0,0,0,0,0,0,0,0,-1,797,1310,0,0
-420,-286,0,0,0,0,0,0,0,0,0,-1,804,1310,0,0
-413,-286,0,0,0,0,0,0,0,0,0,-1,811,1310,0,0
-406,-286,0,0,0,0,0,0,0,0,0,-1,818,1310,0,0
-399,-286,0,0,0,0,0,0,0,0,0,-1,825,1310,0,0
-392,-286,0,0,0,0,0,0,0,0,0,-1,832,1310,0,0
-385,-286,0,0,0,0,0,0,0,0,0,-1,839,1310,0,0
-378,-286,0,0,0,0,0,0,0,0,0,-1,846,1310,0,0
-371,-286,0,0,0,0,0,0,0,0,0,-1,853,1310,0,0
-364,-286,0,0,0,0,0,0,0,0,0,-1,860,1310,0,0
-357,-286,0,0,0,0,0,0,0,0,0,-1,867,1310,0,0
-350,-286,0,0,0,0,0,0,0,0,0,-1,874,1310,0,0
-343,-286,0,0,0,0,0,0,0,0,0,-1,881,1310,0,0
-336,-286,0,0,0,0,0,0,0,0,0,-1,888,1310,0,0
-329,-286,0,0,0,0,0,0,0,0,0,-1,895,1310,0,0
-322,-286,0,0,0,0,0,0,0,0,0,-1,902,1310,0,0
-315,-286,0,0,0,0,0,0,0,0,0,-1,909,1310,0,0
-308,-286,0,0,0,0,0,0,0,0,0,-1,916,1310,0,0
-301,-286,0,0,0,0,0,0,0,0,0,-1,923,1310,0,0
-294,-286,0,0,0,0,0,0,0,0,0,-1,930,1310,0,0
-287,-286,0,0,0,0,0,0,0,0,0,-1,937,1310,0,0
-280,-286,0,0,0,0,0,0,0,0,0,-1,944,1310,0,0
-273,-286,0,0,0,0,0,0,0,0,0,-1,951,1310,0,0
-266,-286,0,0,0,0,0,0,0,0,0,-1,958,1310,0,0
-259,-286,0,0,0,0,0,0,0,0,0,-1,965,1310,0,0
-252,-286,0,0,0,0,0,0,0,0,0,-1,972,1310,0,0
-245,-286,0,0,0,0,0,0,0,0,0,-1,979,1310,0,0
-238,-286,0,0,0,0,0,0,0,0,0,-1,986,1310,0,0
-231,-286,0,0,0,0,0,0,0,0,0,-1,993,1310,0,0
-224,-286,0,0,0,0,0,0,0,0,0,-1,1000,1310,0,0
-217,-286,0,0,0,0,0,0,0,0,0,-1,1007,1310,0,0
-210,-286,0,0,0,0,0,0,0,0,0,-1,1014,1310,0,0
-203,-286,0,0,0,0,0,0,0,0,0,-1,1021,1310,0,0
-196,-286,0,0,0,0,0,0,0,0,0,-1,1028,1310,0,0
-189,-286,0,0,0,0,0,0,0,0,0,-1,1035,1310,0,0
-182,-286,0,0,0,0,0,0,0,0,0,-1,1042,1310,0,0
-175,-286,0,0,0,0,0,0,0,0,0,-1,1049,1310,0,0
-168,-286,0,0,0,0,0,0,0,0,0,-1,1056,1310,0,0
-161,-286,0,0,0,0,0,0,0,0,0,-1,1063,1310,0,0
-154,-286,0,0,0,0,0,0,0,0,0,-1,1070,1310,0,0
-147,-286,0,0,0,0,0,0,0,0,0,-1,1077,1310,0,0
-140,-286,0,0,0,0,0,0,0,0,0,-1,1084,1310,0,0
-133,-286,0,0,0,0,0,0,0,0,0,-1,1091,1310,0,0
-126,-286,0,0,0,0,0,0,0,0,0,-1,1098,1310,0,0
-119,-286,0,0,0,0,0,0,0,0,0,-1,1105,1310,0,0
-112,-286,0,0,0,0,0,0,0,0,0,-1,1112,1310,0,0
-105,-286,0,0,0,0,0,0,0,0,0,-1,1119,1310,0,0
-98,-286,0,0,0,0,0,0,0,0,0,-1,1126,1310,0,0
-91,-286,0,0,0,0,0,0,0,0,0,-1,1133,1310,0,0
-84,-286,0,0,0,0,0,0,0,0,0,-1,1140,1310,0,0
-77,-286,0,0,0,0,0,0,0,0,0,-1,1147,1310,0,0
-70,-286,0,0,0,0,0,0,0,0,0,-1,1154,1310,0,0
-63,-286,0,0,0,0,0,0,0,0,0,-1,1161,1310,0,0
-56,-286,0,0,0,0,0,0,0,0,0,-1,1168,1310,0,0
-49,-286,0,0,0,0,0,0,0,0,0,-1,1175,1310,0,0
-42,-286,0,0,0,0,0,0,0,0,0,-1,1182,1310,0,0
-35,-286,0,0,0,0,0,0,0,0,0,-1,1189,1310,0,0
-28,-286,0,0,0,0,0,0,0,0,0,-1,1196,1310,0,0
-21,-286,0,0,0,0,0,0,0,0,0,-1,1203,1310,0,0
-14,-286,0,0,0,0,0,0,0,0,0,-1,1210,1310,0,0
-7,-286,0,0,0,0,0,0,0,0,0,-1,1217,1310,0,0
0,-286,0,0,0,0,0,0,0,0,0,-1,1224,1310,0,0
7,-286,0,0,0,0,0,0,0,0,0,-1,1231,1310,0,0
14,-286,0,0,0,0,0,0,0,0,0,-1,1238,1310,0,0
21,-286,0,0,0,0,0,0,0,0,0,-1,1245,1310,0,0
28,-286,0,0,0,0,0,0,0,0,0,-1,1252,1310,0,0
35,-286,0,0,0,0,0,0,0,0,0,-1,1259,1310,0,0
42,-286,0,0,0,0,0,0,0,0,0,-1,1266,1310,0,0
49,-286,0,0,0,0,0,0,0,0,0,-1,1273,1310,0,0
56,-286,0,0,0,0,0,0,0,0,0,-1,1280,1310,0,0
63,-286,0,0,0,0,0,0,0,0,0,-1,1287,1310,0,0
70,-286,0,0,0,0,0,0,0,0,0,-1,1294,1310,0,0
77,-286,0,0,0,0,0,0,0,0,0,-1,1301,1310,0,0
84,-286,0,0,0,0,0,0,0,0,0,-1,1308,1310,0,0
91,-286,0,0,0,0,0,0,0,0,0,-1,1315,1310,0,0
98,-286,0,0,0,0,0,0,0,0,0,-1,1322,1310,0,0
105,-286,0,0,0,0,0,0,0,0,0,-1,1329,1310,0,0
112,-286,0,0,0,0,0,0,0,0,0,-1,1336,1310,0,0
119,-286,0,0,0,0,0,0,0,0,0,-1,1343,1310,0,0
126,-286,0,0,0,0,0,0,0,0,0,-1,1350,1310,0,0
133,-286,0,0,0,0,0,0,0,0,0,-1,1357,1310,0,0
140,-286,0,0,0,0,0,0,0,0,0,-1,1364,1310,0,0
147,-286,0,0,0,0,0,0,0,0,0,-1,1371,1310,0,0
154,-286,0,0,0,0,0,0,0,0,0,-1,1378,1310,0,0
161,-286,0,0,0,0,0,0,0,0,0,-1,1385,1310,0,0
168,-286,0,0,0,0,0,0,0,0,0,-1,1392,1310,0,0
175,-286,0,0,0,0,0,0,0,0,0,-1,1399,1310,0,0
182,-286,0,0,0,0,0,0,0,0,0,-1,1406,1310,0,0
189,-286,0,0,0,0,0,0,0,0,0,-1,1413,1310,0,0
196,-286,0,0,0,0,0,0,0,0,0,-1,1420,1310,0,0
203,-286,0,0,0,0,0,0,0,0,0,-1,1427,1310,0,0
210,-286,0,0,0,0,0,0,0,0,0,-1,1434,1310,0,0
217,-286,0,0,0,0,0,0,0,0,0,-1,1441,1310,0,0
224,-286,0,0,0,0,0,0,0,0,0,-1,1448,1310,0,0
231,-286,0,0,0,0,0,0,0,0,0,-1,1455,1310,0,0
238,-286,0,0,0,0,0,0,0,0,0,-1,1462,1310,0,0
245,-286,0,0,0,0,0,0,0,0,0,-1,1469,1310,0,0
252,-286,0,0,0,0,0,0,0,0,0,-1,1476,1310,0,0
259,-286,0,0,0,0,0,0,0,0,0,-1,1483,1310,0,0
266,-286,0,0,0,0,0,0,0,0,0,-1,1490,1310,0,0
273,-286,0,0,0,0,0,0,0,0,0,-1,1497,1310,0,0
280,-286,0,0,0,0,0,0,0,0,0,-1,1504,1310,0,0
287,-286,0,0,0,0,0,0,0,0,0,-1,1511,1310,0,0
294,-286,0,0,0,0,0,0,0,0,0,-1,1518,1310,0,0
301,-286,0,0,0,0,0,0,0,0,0,-1,1525,1310,0,0
308,-286,0,0,0,0,0,0,0,0,0,-1,1532,1310,0,0
315,-286,0,0,0,0,0,0,0,0,0,-1,1539,1310,0,0
322,-286,0,0,0,0,0,0,0,0,0,-1,1546,1310,0,0
329,-286,0,0,0,0,0,0,0,0,0,-1,1553,1310,0,0
336,-286,0,0,0,0,0,0,0,0,0,-1,1560,1310,0,0
343,-286,0,0,0,0,0,0,0,0,0,-1,1567,1310,0,0
350,-286,0,0,0,0,0,0,0,0,0,-1,1574,1310,0,0
357,-286,0,0,0,0,0,0,0,0,0,-1,1581,1310,0,0
364,-286,0,0,0,0,0,0,0,0,0,-1,1588,1310,0,0
371,-286,0,0,0,0,0,0,0,0,0,-1,1595,1310,0,0
378,-286,0,0,0,0,0,0,0,0,0,-1,1602,1310,0,0
385,-286,0,0,0,0,0,0,0,0,0,-1,1609,1310,0,0
392,-286,0,0,0,0,0,0,0,0,0,-1,1616,1310,0,0
399,-286,0,0,0,0,0,0,0,0,0,-1,1623,1310,0,0
406,-286,0,0,0,0,0,0,0,0,0,-1,1630,1310,0,0
413,-286,0,0,0,0,0,0,0,0,0,-1,1637,1310,0,0
420,-286,0,0,0,0,0,0,0,0,0,-1,1644,1310,0,0
427,-286,0,0,0,0,0,0,0,0,0,-1,1651,1310,0,0
434,-286,0,0,0,0,0,0,0,0,0,-1,1658,1310,0,0
441,-286,0,0,0,0,0,0,0,0,0,-1,1665,1310,0,0
448,-286,0,0,0,0,0,0,0,0,0,-1,1672,1310,0,0
455,-286,0,0,0,0,0,0,0,0,0,-1,1679,1310,0,0
462,-286,0,0,0,0,0,0,0,0,0,-1,1686,1310,0,0
469,-286,0,0,0,0,0,0,0,0,0,-1,1693,1310,0,0
476,-286,0,0,0,0,0,0,0,0,0,-1,1700,1310,0,0
483,-286,0,0,0,0,0,0,0,0,0,-1,1707,1310,0,0
490,-286,0,0,0,0,0,0,0,0,0,-1,1714,1310,0,0
497,-286,0,0,0,0,0,0,0,0,0,-1,1721,1310,0,0
504,-286,0,0,0,0,0,0,0,0,0,-1,1728,1310,0,0
511,-286,0,0,0,0,0,0,0,0,0,-1,1735,1310,0,0
518,-286,0,0,0,0,0,0,0,0,0,-1,1742,1310,0,0
525,-286,0,0,0,0,0,0,0,0,0,-1,1749,1310,0,0
532,-286,0,0,0,0,0,0,0,0,0,-1,1756,1310,0,0
539,-286,0,0,0,0,0,0,0,0,0,-1,1763,1310,0,0
546,-286,0,0,0,0,0,0,0,0,0,-1,1770,1310,0,0
553,-286,0,0,0,0,0,0,0,0,0,-1,1777,1310,0,0
560,-286,0,0,0,0,0,0,0,0,0,-1,1784,1310,0,0
567,-286,0,0,0,0,0,0,0,0,0,-1,1791,1310,0,0
574,-286,0,0,0,0,0,0,0,0,0,-1,1798,1310,0,0
581,-286,0,0,0,0,0,0,0,0,0,-1,1805,1310,0,0
588,-286,0,0,0,0,0,0,0,0,0,-1,1812,1310,0,0
595,-286,69.8951,2.40527,0,0,0,0,0,0,0,-1,1819,1310,69.8951,-2.40522
602,-286,70.8331,1.96948,0,0,0,0,0,0,0,-1,1826,1310,70.8331,-1.96947
609,-286,70.8269,2.31189,0,0,0,0,0,0,0,-1,1833,1310,70.8269,-2.31185
616,-286,70.9734,2.4978,0,0,0,0,0,0,0,-1,1840,1310,70.9733,-2.4978
623,-286,71.709,2.5636,0,0,0,0,0,0,0,-1,1847,1310,71.7089,-2.56359
630,-286,65.3651,1.61572,0,0,0,0,0,0,0,-1,1854,1310,65.3651,-1.61568
637,-286,47.8409,3.69824,0,0,0,0,0,0,0,-1,1861,1310,47.841,-3.69823
644,-286,25.6433,1.33862,0,0,0,0,0,0,0,-1,1868,1310,25.6433,-1.33858
651,-286,25.2507,1.88245,0,0,0,0,0,0,0,-1,1875,1310,25.2508,-1.88245
658,-286,25.9475,9.43689,0,0,0,0,0,0,0,-1,1882,1310,25.9475,-9.43693
665,-286,24.9838,8.03101,0,0,0,0,0,0,0,-1,1889,1310,24.9837,-8.03104
672,-286,40.2175,12.9626,0,0,0,0,0,0,0,-1,1896,1310,40.2175,-12.9627
679,-286,48.2383,14.6654,0,0,0,0,0,0,0,-1,1903,1310,48.2383,-14.6654
686,-286,48.2472,13.9313,0.00165984,-1.65751e-05,-0.00142787,0.00247735,-0.000834084,-0.519982,0.00198878,0.0229391,1910,1310,48.2472,-13.9313
693,-286,48.1925,13.2064,0.00140191,-5.66847e-06,-0.000848614,0.00180061,-0.00040436,-0.439209,0.00135545,0.0172567,1917,1310,48.1926,-13.2064
700,-286,48.1521,12.4844,0.0010786,0.000106846,-0.000282042,0.00115452,3.09184e-05,-0.262973,0.000759587,0.0121851,1924,1310,48.1521,-12.4844
707,-286,48.1302,11.7887,0.000712921,0.000161875,0.00025988,0.000816146,5.86491e-05,0.378095,0.00052564,0.00910892,1931,1310,48.1303,-11.7886
714,-286,48.0903,11.0874,0.000339105,0.000307236,0.000755438,0.00107878,-0.000432435,0.774853,0.000898705,0.00976351,1938,1310,48.0903,-11.0874
721,-286,48.0808,10.374,-9.26993e-05,0.000534003,0.00123091,0.00149082,-0.00104952,0.910035,0.00147402,0.0132312,1945,1310,48.0808,-10.374
728,-286,48.0566,9.66699,-0.000600005,0.000868703,0.00167506,0.00196331,-0.00169462,0.991983,0.0021138,0.0169166,1952,1310,48.0566,-9.66704
735,-286,48.0441,8.94434,-0.00125495,0.00133884,0.00208659,0.00249872,-0.00241484,1.06345,0.00283699,0.0208143,1959,1310,48.0441,-8.94433
742,-286,48.0531,8.29077,-0.00209517,0.00206839,0.00232189,0.0031051,-0.00313188,1.15086,0.00360094,0.039657,1966,1310,48.0531,-8.2908
749,-286,48.2015,7.61304,0,0,0,0,0,0,0,-1,1973,1310,48.2016,-7.61301
756,-286,24.8226,4.43481,0,0,0,0,0,0,0,-1,1980,1310,24.8227,-4.43479
763,-286,20.6671,3.99683,0,0,0,0,0,0,0,-1,1987,1310,20.6671,-3.99683
770,-286,23.9147,4.45679,0,0,0,0,0,0,0,-1,1994,1310,23.9146,-4.45675
777,-286,0,0,0,0,0,0,0,0,0,-1,2001,1310,0,0
784,-286,0,0,0,0,0,0,0,0,0,-1,2008,1310,0,0
791,-286,0,0,0,0,0,0,0,0,0,-1,2015,1310,0,0
798,-286,0,0,0,0,0,0,0,0,0,-1,2022,1310,0,0
805,-286,0,0,0,0,0,0,0,0,0,-1,2029,1310,0,0
812,-286,0,0,0,0,0,0,0,0,0,-1,2036,1310,0,0
-700,-293,0,0,0,0,0,0,0,0,0,-1,524,1317,0,0
-693,-293,0,0,0,0,0,0,0,0,0,-1,531,1317,0,0
-686,-293,0,0,0,0,0,0,0,0,0,-1,538,1317,0,0
-679,-293,0,0,0,0,0,0,0,0,0,-1,545,1317,0,0
-672,-293,0,0,0,0,0,0,0,0,0,-1,552,1317,0,0
-665,-293,0,0,0,0,0,0,0,0,0,-1,559,1317,0,0
-658,-293,0,0,0,0,0,0,0,0,0,-1,566,1317,0,0
-651,-293,-42.6636,2.1897,0,0,0,0,0,0,0,-1,573,1317,-42.6636,-2.18965
-644,-293,-42.6672,1.56262,0,0,0,0,0,0,0,-1,580,1317,-42.6672,-1.5626
-637,-293,-42.7898,0.963745,0,0,0,0,0,0,0,-1,587,1317,-42.7898,-0.963689
-630,-293,-42.7558,0.296021,0,0,0,0,0,0,0,-1,594,1317,-42.7558,-0.295997
-623,-293,-15.6058,0.229614,0,0,0,0,0,0,0,-1,601,1317,-15.6058,-0.229666
-616,-293,-15.5056,2.17737,0,0,0,0,0,0,0,-1,608,1317,-15.5055,-2.17742
-609,-293,-25.3796,5.07373,0,0,0,0,0,0,0,-1,615,1317,-25.3796,-5.07369
-602,-293,-30.8879,7.5354,0,0,0,0,0,0,0,-1,622,1317,-30.8879,-7.53535
-595,-293,-30.8536,8.31177,0.00320268,0.00397957,0.00227767,0.00590167,0.00128057,0.869859,0.00358467,0.0222784,629,1317,-30.8537,-8.31175
-588,-293,-30.8395,9.06555,0.00248687,0.00260015,0.00153144,0.00407599,0.00101102,0.803883,0.00245085,0.0175748,636,1317,-30.8395,-9.06556
-581,-293,-30.8403,9.8075,0.00208235,0.00143528,0.00102444,0.00283313,0.0006845,0.632448,0.00170697,0.0185455,643,1317,-30.8402,-9.80749
-574,-293,-30.8805,10.6136,0.00190862,0.000389622,0.000667045,0.00215995,0.000138286,0.36034,0.00139616,0.0170799,650,1317,-30.8805,-10.6136
-567,-293,-30.9637,11.3698,0.00194117,-0.000569603,0.000441754,0.00201663,-0.000645059,0.169177,0.00160329,0.0167847,657,1317,-30.9637,-11.3698
-560,-293,-30.9937,12.1287,0.00224836,-0.00143584,0.000370989,0.00228535,-0.00147282,0.0993682,0.00218662,0.0170188,664,1317,-30.9937,-12.1287
-553,-293,-30.9977,12.8662,0.00281616,-0.00222382,0.000453811,0.0028567,-0.00226435,0.0890874,0.00296323,0.0118698,671,1317,-30.9977,-12.8663
-546,-293,-30.9811,13.6449,0.00362279,-0.00290031,0.000753892,0.00370878,-0.0029863,0.113578,0.0038729,0.0187878,678,1317,-30.9812,-13.6449
-539,-293,-30.9359,14.4242,0,0,0,0,0,0,0,-1,685,1317,-30.9359,-14.4242
-532,-293,-27.4858,13.6715,0,0,0,0,0,0,0,-1,692,1317,-27.4858,-13.6715
-525,-293,-8.20642,3.62256,0,0,0,0,0,0,0,-1,699,1317,-8.20639,-3.6226
-518,-293,-10.1053,0.314209,0,0,0,0,0,0,0,-1,706,1317,-10.1053,-0.314234
-511,-293,-11.6276,0.235352,0,0,0,0,0,0,0,-1,713,1317,-11.6276,-0.235372
-504,-293,-17.9086,1.25427,0,0,0,0,0,0,0,-1,720,1317,-17.9086,-1.25423
-497,-293,-18.8006,1.62122,0,0,0,0,0,0,0,-1,727,1317,-18.8006,-1.62119
-490,-293,-18.8961,1.99255,0,0,0,0,0,0,0,-1,734,1317,-18.8961,-1.99251
-483,-293,-19.0831,2.35498,0,0,0,0,0,0,0,-1,741,1317,-19.0831,-2.35497
-476,-293,-19.5228,2.61243,0,0,0,0,0,0,0,-1,748,1317,-19.5228,-2.61237
-469,-293,0,0,0,0,0,0,0,0,0,-1,755,1317,0,0
-462,-293,0,0,0,0,0,0,0,0,0,-1,762,1317,0,0
-455,-293,0,0,0,0,0,0,0,0,0,-1,769,1317,0,0
-448,-293,0,0,0,0,0,0,0,0,0,-1,776,1317,0,0
-441,-293,0,0,0,0,0,0,0,0,0,-1,783,1317,0,0
-434,-293,0,0,0,0,0,0,0,0,0,-1,790,1317,0,0
-427,-293,0,0,0,0,0,0,0,0,0,-1,797,1317,0,0
-420,-293,0,0,0,0,0,0,0,0,0,-1,804,1317,0,0
-413,-293,0,0,0,0,0,0,0,0,0,-1,811,1317,0,0
-406,-293,0,0,0,0,0,0,0,0,0,-1,818,1317,0,0
-399,-293,0,0,0,0,0,0,0,0,0,-1,825,1317,0,0
-392,-293,0,0,0,0,0,0,0,0,0,-1,832,1317,0,0
-385,-293,0,0,0,0,0,0,0,0,0,-1,839,1317,0,0
-378,-293,0,0,0,0,0,0,0,0,0,-1,846,1317,0,0
-371,-293,0,0,0,0,0,0,0,0,0,-1,853,1317,0,0
-364,-293,0,0,0,0,0,0,0,0,0,-1,860,1317,0,0
-357,-293,0,0,0,0,0,0,0,0,0,-1,867,1317,0,0
-350,-293,0,0,0,0,0,0,0,0,0,-1,874,1317,0,0
-343,-293,0,0,0,0,0,0,0,0,0,-1,881,1317,0,0
-336,-293,0,0,0,0,0,0,0,0,0,-1,888,1317,0,0
-329,-293,0,0,0,0,0,0,0,0,0,-1,895,1317,0,0
-322,-293,0,0,0,0,0,0,0,0,0,-1,902,1317,0,0
-315,-293,0,0,0,0,0,0,0,0,0,-1,909,1317,0,0
-308,-293,0,0,0,0,0,0,0,0,0,-1,916,1317,0,0
-301,-293,0,0,0,0,0,0,0,0,0,-1,923,1317,0,0
-294,-293,0,0,0,0,0,0,0,0,0,-1,930,1317,0,0
-287,-293,0,0,0,0,0,0,0,0,0,-1,937,1317,0,0
-280,-293,0,0,0,0,0,0,0,0,0,-1,944,1317,0,0
-273,-293,0,0,0,0,0,0,0,0,0,-1,951,1317,0,0
-266,-293,0,0,0,0,0,0,0,0,0,-1,958,1317,0,0
-259,-293,0,0,0,0,0,0,0,0,0,-1,965,1317,0,0
-252,-293,0,0,0,0,0,0,0,0,0,-1,972,1317,0,0
-245,-293,0,0,0,0,0,0,0,0,0,-1,979,1317,0,0
-238,-293,0,0,0,0,0,0,0,0,0,-1,986,1317,0,0
-231,-293,0,0,0,0,0,0,0,0,0,-1,993,1317,0,0
-224,-293,0,0,0,0,0,0,0,0,0,-1,1000,1317,0,0
-217,-293,0,0,0,0,0,0,0,0,0,-1,1007,1317,0,0
-210,-293,0,0,0,0,0,0,0,0,0,-1,1014,1317,0,0
-203,-293,0,0,0,0,0,0,0,0,0,-1,1021,1317,0,0
-196,-293,0,0,0,0,0,0,0,0,0,-1,1028,1317,0,0
-189,-293,0,0,0,0,0,0,0,0,0,-1,1035,1317,0,0
-182,-293,0,0,0,0,0,0,0,0,0,-1,1042,1317,0,0
-175,-293,0,0,0,0,0,0,0,0,0,-1,1049,1317,0,0
-168,-293,0,0,0,0,0,0,0,0,0,-1,1056,1317,0,0
-161,-293,0,0,0,0,0,0,0,0,0,-1,1063,1317,0,0
-154,-293,0,0,0,0,0,0,0,0,0,-1,1070,1317,0,0
-147,-293,0,0,0,0,0,0,0,0,0,-1,1077,1317,0,0
-140,-293,0,0,0,0,0,0,0,0,0,-1,1084,1317,0,0
-133,-293,0,0,0,0,0,0,0,0,0,-1,1091,1317,0,0
-126,-293,0,0,0,0,0,0,0,0,0,-1,1098,1317,0,0
-119,-293,0,0,0,0,0,0,0,0,0,-1,1105,1317,0,0
-112,-293,0,0,0,0,0,0,0,0,0,-1,1112,1317,0,0
-105,-293,0,0,0,0,0,0,0,0,0,-1,1119,1317,0,0
-98,-293,0,0,0,0,0,0,0,0,0,-1,1126,1317,0,0
-91,-293,0,0,0,0,0,0,0,0,0,-1,1133,1317,0,0
-84,-293,0,0,0,0,0,0,0,0,0,-1,1140,1317,0,0
-77,-293,0,0,0,0,0,0,0,0,0,-1,1147,1317,0,0
-70,-293,0,0,0,0,0,0,0,0,0,-1,1154,1317,0,0
-63,-293,0,0,0,0,0,0,0,0,0,-1,1161,1317,0,0
-56,-293,0,0,0,0,0,0,0,0,0,-1,1168,1317,0,0
-49,-293,0,0,0,0,0,0,0,0,0,-1,1175,1317,0,0
-42,-293,0,0,0,0,0,0,0,0,0,-1,1182,1317,0,0
-35,-293,0,0,0,0,0,0,0,0,0,-1,1189,1317,0,0
-28,-293,0,0,0,0,0,0,0,0,0,-1,1196,1317,0,0
-21,-293,0,0,0,0,0,0,0,0,0,-1,1203,1317,0,0
-14,-293,0,0,0,0,0,0,0,0,0,-1,1210,1317,0,0
-7,-293,0,0,0,0,0,0,0,0,0,-1,1217,1317,0,0
0,-293,0,0,0,0,0,0,0,0,0,-1,1224,1317,0,0
7,-293,0,0,0,0,0,0,0,0,0,-1,1231,1317,0,0
14,-293,0,0,0,0,0,0,0,0,0,-1,1238,1317,0,0
21,-293,0,0,0,0,0,0,0,0,0,-1,1245,1317,0,0
28,-293,0,0,0,0,0,0,0,0,0,-1,1252,1317,0,0
35,-293,0,0,0,0,0,0,0,0,0,-1,1259,1317,0,0
42,-293,0,0,0,0,0,0,0,0,0,-1,1266,1317,0,0
49,-293,0,0,0,0,0,0,0,0,0,-1,1273,1317,0,0
56,-293,0,0,0,0,0,0,0,0,0,-1,1280,1317,0,0
63,-293,0,0,0,0,0,0,0,0,0,-1,1287,1317,0,0
70,-293,0,0,0,0,0,0,0,0,0,-1,1294,1317,0,0
77,-293,0,0,0,0,0,0,0,0,0,-1,1301,1317,0,0
84,-293,0,0,0,0,0,0,0,0,0,-1,1308,1317,0,0
91,-293,0,0,0,0,0,0,0,0,0,-1,1315,1317,0,0
98,-293,0,0,0,0,0,0,0,0,0,-1,1322,1317,0,0
105,-293,0,0,0,0,0,0,0,0,0,-1,1329,1317,0,0
112,-293,0,0,0,0,0,0,0,0,0,-1,1336,1317,0,0
119,-293,0,0,0,0,0,0,0,0,0,-1,1343,1317,0,0
126,-293,0,0,0,0,0,0,0,0,0,-1,1350,1317,0,0
133,-293,0,0,0,0,0,0,0,0,0,-1,1357,1317,0,0
140,-293,0,0,0,0,0,0,0,0,0,-1,1364,1317,0,0
147,-293,0,0,0,0,0,0,0,0,0,-1,1371,1317,0,0
154,-293,0,0,0,0,0,0,0,0,0,-1,1378,1317,0,0
161,-293,0,0,0,0,0,0,0,0,0,-1,1385,1317,0,0
168,-293,0,0,0,0,0,0,0,0,0,-1,1392,1317,0,0
175,-293,0,0,0,0,0,0,0,0,0,-1,1399,1317,0,0
182,-293,0,0,0,0,0,0,0,0,0,-1,1406,1317,0,0
189,-293,0,0,0,0,0,0,0,0,0,-1,1413,1317,0,0
196,-293,0,0,0,0,0,0,0,0,0,-1,1420,1317,0,0
203,-293,0,0,0,0,0,0,0,0,0,-1,1427,1317,0,0
210,-293,0,0,0,0,0,0,0,0,0,-1,1434,1317,0,0
217,-293,0,0,0,0,0,0,0,0,0,-1,1441,1317,0,0
224,-293,0,0,0,0,0,0,0,0,0,-1,1448,1317,0,0
231,-293,0,0,0,0,0,0,0,0,0,-1,1455,1317,0,0
238,-293,0,0,0,0,0,0,0,0,0,-1,1462,1317,0,0
245,-293,0,0,0,0,0,0,0,0,0,-1,1469,1317,0,0
252,-293,0,0,0,0,0,0,0,0,0,-1,1476,1317,0,0
259,-293,0,0,0,0,0,0,0,0,0,-1,1483,1317,0,0
266,-293,0,0,0,0,0,0,0,0,0,-1,1490,1317,0,0
273,-293,0,0,0,0,0,0,0,0,0,-1,1497,1317,0,0
280,-293,0,0,0,0,0,0,0,0,0,-1,1504,1317,0,0
287,-293,0,0,0,0,0,0,0,0,0,-1,1511,1317,0,0
294,-293,0,0,0,0,0,0,0,0,0,-1,1518,1317,0,0
301,-293,0,0,0,0,0,0,0,0,0,-1,1525,1317,0,0
308,-293,0,0,0,0,0,0,0,0,0,-1,1532,1317,0,0
315,-293,0,0,0,0,0,0,0,0,0,-1,1539,1317,0,0
322,-293,0,0,0,0,0,0,0,0,0,-1,1546,1317,0,0
329,-293,0,0,0,0,0,0,0,0,0,-1,1553,1317,0,0
336,-293,0,0,0,0,0,0,0,0,0,-1,1560,1317,0,0
343,-293,0,0,0,0,0,0,0,0,0,-1,1567,1317,0,0
350,-293,0,0,0,0,0,0,0,0,0,-1,1574,1317,0,0
357,-293,0,0,0,0,0,0,0,0,0,-1,1581,1317,0,0
364,-293,0,0,0,0,0,0,0,0,0,-1,1588,1317,0,0
371,-293,0,0,0,0,0,0,0,0,0,-1,1595,1317,0,0
378,-293,0,0,0,0,0,0,0,0,0,-1,1602,1317,0,0
385,-293,0,0,0,0,0,0,0,0,0,-1,1609,1317,0,0
392,-293,0,0,0,0,0,0,0,0,0,-1,1616,1317,0,0
399,-293,0,0,0,0,0,0,0,0,0,-1,1623,1317,0,0
406,-293,0,0,0,0,0,0,0,0,0,-1,1630,1317,0,0
413,-293,0,0,0,0,0,0,0,0,0,-1,1637,1317,0,0
420,-293,0,0,0,0,0,0,0,0,0,-1,1644,1317,0,0
427,-293,0,0,0,0,0,0,0,0,0,-1,1651,1317,0,0
434,-293,0,0,0,0,0,0,0,0,0,-1,1658,1317,0,0
441,-293,0,0,0,0,0,0,0,0,0,-1,1665,1317,0,0
448,-293,0,0,0,0,0,0,0,0,0,-1,1672,1317,0,0
455,-293,0,0,0,0,0,0,0,0,0,-1,1679,1317,0,0
462,-293,0,0,0,0,0,0,0,0,0,-1,1686,1317,0,0
469,-293,0,0,0,0,0,0,0,0,0,-1,1693,1317,0,0
476,-293,0,0,0,0,0,0,0,0,0,-1,1700,1317,0,0
483,-293,0,0,0,0,0,0,0,0,0,-1,1707,1317,0,0
490,-293,0,0,0,0,0,0,0,0,0,-1,1714,1317,0,0
497,-293,0,0,0,0,0,0,0,0,0,-1,1721,1317,0,0
504,-293,0,0,0,0,0,0,0,0,0,-1,1728,1317,0,0
511,-293,0,0,0,0,0,0,0,0,0,-1,1735,1317,0,0
518,-293,0,0,0,0,0,0,0,0,0,-1,1742,1317,0,0
525,-293,0,0,0,0,0,0,0,0,0,-1,1749,1317,0,0
532,-293,0,0,0,0,0,0,0,0,0,-1,1756,1317,0,0
539,-293,0,0,0,0,0,0,0,0,0,-1,1763,1317,0,0
546,-293,0,0,0,0,0,0,0,0,0,-1,1770,1317,0,0
553,-293,0,0,0,0,0,0,0,0,0,-1,1777,1317,0,0
560,-293,0,0,0,0,0,0,0,0,0,-1,1784,1317,0,0
567,-293,0,0,0,0,0,0,0,0,0,-1,1791,1317,0,0
574,-293,0,0,0,0,0,0,0,0,0,-1,1798,1317,0,0
581,-293,0,0,0,0,0,0,0,0,0,-1,1805,1317,0,0
588,-293,0,0,0,0,0,0,0,0,0,-1,1812,1317,0,0
595,-293,70.0999,2.25085,0,0,0,0,0,0,0,-1,1819,1317,70.0998,-2.25088
602,-293,70.2273,2.05859,0,0,0,0,0,0,0,-1,1826,1317,70.2273,-2.05859
609,-293,68.6733,1.3855,0,0,0,0,0,0,0,-1,1833,1317,68.6734,-1.38547
616,-293,70.9803,2.56689,0,0,0,0,0,0,0,-1,1840,1317,70.9804,-2.56695
623,-293,64.6224,0.448364,0,0,0,0,0,0,0,-1,1847,1317,64.6224,-0.448318
630,-293,46.6716,3.21558,0,0,0,0,0,0,0,-1,1854,1317,46.6716,-3.2156
637,-293,42.7729,4.95544,0,0,0,0,0,0,0,-1,1861,1317,42.773,-4.95546
644,-293,24.4565,0.520752,0,0,0,0,0,0,0,-1,1868,1317,24.4566,-0.520709
651,-293,25.8926,9.51245,0,0,0,0,0,0,0,-1,1875,1317,25.8926,-9.51246
658,-293,25.4904,9.10205,0,0,0,0,0,0,0,-1,1882,1317,25.4904,-9.10209
665,-293,39.7999,13.4221,0,0,0,0,0,0,0,-1,1889,1317,39.8,-13.4221
672,-293,47.6014,15.4382,0,0,0,0,0,0,0,-1,1896,1317,47.6014,-15.4382
679,-293,47.5878,14.7057,0.00212528,0.000346634,-0.00217582,0.00358651,-0.00111459,-0.591393,0.0028365,0.0193699,1903,1317,47.5878,-14.7057
686,-293,47.567,13.9819,0.00183717,0.000273565,-0.00126932,0.00254613,-0.0004354,-0.509376,0.00185962,0.017205,1910,1317,47.5671,-13.982
693,-293,47.5045,13.2428,0.00150082,0.000155839,-0.000749986,0.00183566,-0.000179006,-0.419912,0.0012876,0.013064,1917,1317,47.5045,-13.2428
700,-293,47.4407,12.5044,0.00118464,0.000144601,-0.000244075,0.00123907,9.01698e-05,-0.219417,0.000797692,0.0107878,1924,1317,47.4407,-12.5044
707,-293,47.4178,11.8011,0.000885943,0.000185566,0.000267318,0.000976312,9.51974e-05,0.325997,0.000621577,0.0106351,1931,1317,47.4178,-11.8011
714,-293,47.3779,11.1174,0.000590517,0.000306917,0.000758712,0.00122057,-0.000323132,0.693016,0.000940118,0.0079191,1938,1317,47.3779,-11.1175
721,-293,47.364,10.412,0.000270318,0.000522181,0.00122599,0.00162869,-0.000836194,0.836578,0.00144741,0.010348,1945,1317,47.364,-10.412
728,-293,47.3522,9.66699,-0.000102877,0.00087807,0.0016658,0.0021241,-0.00134891,0.928571,0.00202173,0.0133308,1952,1317,47.3522,-9.66705
735,-293,47.3339,8.90295,-0.00062616,0.00139788,0.00208496,0.00270346,-0.00193174,1.01134,0.00268847,0.0251161,1959,1317,47.3339,-8.90293
742,-293,47.3984,8.12561,0,0,0,0,0,0,0,-1,1966,1317,47.3985,-8.12567
749,-293,29.439,5.35339,0,0,0,0,0,0,0,-1,1973,1317,29.4389,-5.35334
756,-293,24.978,3.9718,0,0,0,0,0,0,0,-1,1980,1317,24.978,-3.97186
763,-293,26.6713,4.74097,0,0,0,0,0,0,0,-1,1987,1317,26.6713,-4.74098
770,-293,24.1349,4.69153,0,0,0,0,0,0,0,-1,1994,1317,24.1348,-4.69159
777,-293,0,0,0,0,0,0,0,0,0,-1,2001,1317,0,0
784,-293,0,0,0,0,0,0,0,0,0,-1,2008,1317,0,0
791,-293,0,0,0,0,0,0,0,0,0,-1,2015,1317,0,0
798,-293,0,0,0,0,0,0,0,0,0,-1,2022,1317,0,0
805,-293,0,0,0,0,0,0,0,0,0,-1,2029,1317,0,0
812,-293,0,0,0,0,0,0,0,0,0,-1,2036,1317,0,0
-700,-300,0,0,0,0,0,0,0,0,0,-1,524,1324,0,0
-693,-300,0,0,0,0,0,0,0,0,0,-1,531,1324,0,0
-686,-300,0,0,0,0,0,0,0,0,0,-1,538,1324,0,0
-679,-300,0,0,0,0,0,0,0,0,0,-1,545,1324,0,0
-672,-300,0,0,0,0,0,0,0,0,0,-1,552,1324,0,0
-665,-300,0,0,0,0,0,0,0,0,0,-1,559,1324,0,0
-658,-300,0,0,0,0,0,0,0,0,0,-1,566,1324,0,0
-651,-300,-41.7632,2.33789,0,0,0,0,0,0,0,-1,573,1324,-41.7632,-2.33789
-644,-300,-42.3084,1.3728,0,0,0,0,0,0,0,-1,580,1324,-42.3084,-1.37282
-637,-300,-42.6259,0.807251,0,0,0,0,0,0,0,-1,587,1324,-42.6259,-0.807209
-630,-300,-21.1108,2.26306,0,0,0,0,0,0,0,-1,594,1324,-21.1109,-2.2631
-623,-300,-12.7067,1.48462,0,0,0,0,0,0,0,-1,601,1324,-12.7067,-1.48462
-616,-300,-14.9988,1.68628,0,0,0,0,0,0,0,-1,608,1324,-14.9988,-1.68627
-609,-300,-15.5027,3.29907,0,0,0,0,0,0,0,-1,615,1324,-15.5027,-3.29902
-602,-300,-30.1486,7.2926,0,0,0,0,0,0,0,-1,622,1324,-30.1485,-7.29264
-595,-300,-30.1394,8.30957,0.00368937,0.00430656,0.00260632,0.00662249,0.00137345,0.844325,0.00403584,0.0388025,629,1324,-30.1394,-8.30954
-588,-300,-30.0661,9.12598,0.00285266,0.0029718,0.00176948,0.00468272,0.00114174,0.802225,0.00281937,0.0202949,636,1324,-30.0661,-9.12595
-581,-300,-30.084,9.89087,0.00238566,0.00193474,0.00123693,0.00341751,0.000902895,0.69525,0.00204493,0.0192776,643,1324,-30.084,-9.89085
-574,-300,-30.1102,10.6637,0.00216202,0.00102221,0.000875025,0.00263636,0.000547862,0.496754,0.0016064,0.0159204,650,1324,-30.1102,-10.6636
-567,-300,-30.1876,11.4132,0.00215071,0.00021127,0.000668709,0.00235892,3.05579e-06,0.301853,0.0015716,0.0170233,657,1324,-30.1876,-11.4133
-560,-300,-30.2433,12.1919,0.0023883,-0.000527099,0.000611438,0.00251135,-0.000650141,0.198582,0.00192784,0.0156178,664,1324,-30.2433,-12.1918
-553,-300,-30.236,12.9302,0.0028786,-0.00114443,0.000731203,0.00300738,-0.0012732,0.174329,0.0025381,0.0112196,671,1324,-30.236,-12.9302
-546,-300,-30.2681,13.6753,0.00359927,-0.00169916,0.00105021,0.00379984,-0.00189973,0.188709,0.00335105,0.0118182,678,1324,-30.2681,-13.6752
-539,-300,-30.1975,14.4879,0.00478099,-0.00219134,0.00163962,0.00514732,-0.00255767,0.219812,0.00453145,0.0299193,685,1324,-30.1975,-14.4879
-532,-300,-30.0781,15.2728,0,0,0,0,0,0,0,-1,692,1324,-30.078,-15.2729
-525,-300,-13.5115,6.27783,0,0,0,0,0,0,0,-1,699,1324,-13.5115,-6.2778
-518,-300,-9.8349,-0.537109,0,0,0,0,0,0,0,-1,706,1324,-9.83487,0.537068
-511,-300,-12.8644,0.081665,0,0,0,0,0,0,0,-1,713,1324,-12.8644,-0.0817016
-504,-300,-13.4829,-0.165527,0,0,0,0,0,0,0,-1,720,1324,-13.4829,0.165544
-497,-300,-18.1063,0.956543,0,0,0,0,0,0,0,-1,727,1324,-18.1063,-0.9565
-490,-300,-18.2293,1.53625,0,0,0,0,0,0,0,-1,734,1324,-18.2293,-1.53626
-483,-300,-18.3522,1.61084,0,0,0,0,0,0,0,-1,741,1324,-18.3522,-1.6108
-476,-300,-18.7489,1.96387,0,0,0,0,0,0,0,-1,748,1324,-18.7489,-1.96387
-469,-300,0,0,0,0,0,0,0,0,0,-1,755,1324,0,0
-462,-300,0,0,0,0,0,0,0,0,0,-1,762,1324,0,0
-455,-300,0,0,0,0,0,0,0,0,0,-1,769,1324,0,0
-448,-300,0,0,0,0,0,0,0,0,0,-1,776,1324,0,0
-441,-300,0,0,0,0,0,0,0,0,0,-1,783,1324,0,0
-434,-300,0,0,0,0,0,0,0,0,0,-1,790,1324,0,0
-427,-300,0,0,0,0,0,0,0,0,0,-1,797,1324,0,0
-420,-300,0,0,0,0,0,0,0,0,0,-1,804,1324,0,0
-413,-300,0,0,0,0,0,0,0,0,0,-1,811,1324,0,0
-406,-300,0,0,0,0,0,0,0,0,0,-1,818,1324,0,0
-399,-300,0,0,0,0,0,0,0,0,0,-1,825,1324,0,0
-392,-300,0,0,0,0,0,0,0,0,0,-1,832,1324,0,0
-385,-300,0,0,0,0,0,0,0,0,0,-1,839,1324,0,0
-378,-300,0,0,0,0,0,0,0,0,0,-1,846,1324,0,0
-371,-300,0,0,0,0,0,0,0,0,0,-1,853,1324,0,0
-364,-300,0,0,0,0,0,0,0,0,0,-1,860,1324,0,0
-357,-300,0,0,0,0,0,0,0,0,0,-1,867,1324,0,0
-350,-300,0,0,0,0,0,0,0,0,0,-1,874,1324,0,0
-343,-300,0,0,0,0,0,0,0,0,0,-1,881,1324,0,0
-336,-300,0,0,0,0,0,0,0,0,0,-1,888,1324,0,0
-329,-300,0,0,0,0,0,0,0,0,0,-1,895,1324,0,0
-322,-300,0,0,0,0,0,0,0,0,0,-1,902,1324,0,0
-315,-300,0,0,0,0,0,0,0,0,0,-1,909,1324,0,0
-308,-300,0,0,0,0,0,0,0,0,0,-1,916,1324,0,0
-301,-300,0,0,0,0,0,0,0,0,0,-1,923,1324,0,0
-294,-300,0,0,0,0,0,0,0,0,0,-1,930,1324,0,0
-287,-300,0,0,0,0,0,0,0,0,0,-1,937,1324,0,0
-280,-300,0,0,0,0,0,0,0,0,0,-1,944,1324,0,0
-273,-300,0,0,0,0,0,0,0,0,0,-1,951,1324,0,0
-266,-300,0,0,0,0,0,0,0,0,0,-1,958,1324,0,0
-259,-300,0,0,0,0,0,0,0,0,0,-1,965,1324,0,0
-252,-300,0,0,0,0,0,0,0,0,0,-1,972,1324,0,0
-245,-300,0,0,0,0,0,0,0,0,0,-1,979,1324,0,0
-238,-300,0,0,0,0,0,0,0,0,0,-1,986,1324,0,0
-231,-300,0,0,0,0,0,0,0,0,0,-1,993,1324,0,0
-224,-300,0,0,0,0,0,0,0,0,0,-1,1000,1324,0,0
-217,-300,0,0,0,0,0,0,0,0,0,-1,1007,1324,0,0
-210,-300,0,0,0,0,0,0,0,0,0,-1,1014,1324,0,0
-203,-300,0,0,0,0,0,0,0,0,0,-1,1021,1324,0,0
-196,-300,0,0,0,0,0,0,0,0,0,-1,1028,1324,0,0
-189,-300,0,0,0,0,0,0,0,0,0,-1,1035,1324,0,0
-182,-300,0,0,0,0,0,0,0,0,0,-1,1042,1324,0,0
-175,-300,0,0,0,0,0,0,0,0,0,-1,1049,1324,0,0
-168,-300,0,0,0,0,0,0,0,0,0,-1,1056,1324,0,0
-161,-300,0,0,0,0,0,0,0,0,0,-1,1063,1324,0,0
-154,-300,0,0,0,0,0,0,0,0,0,-1,1070,1324,0,0
-147,-300,0,0,0,0,0,0,0,0,0,-1,1077,1324,0,0
-140,-300,0,0,0,0,0,0,0,0,0,-1,1084,1324,0,0
-133,-300,0,0,0,0,0,0,0,0,0,-1,1091,1324,0,0
-126,-300,0,0,0,0,0,0,0,0,0,-1,1098,1324,0,0
-119,-300,0,0,0,0,0,0,0,0,0,-1,1105,1324,0,0
-112,-300,0,0,0,0,0,0,0,0,0,-1,1112,1324,0,0
-105,-300,0,0,0,0,0,0,0,0,0,-1,1119,1324,0,0
-98,-300,0,0,0,0,0,0,0,0,0,-1,1126,1324,0,0
-91,-300,0,0,0,0,0,0,0,0,0,-1,1133,1324,0,0
-84,-300,0,0,0,0,0,0,0,0,0,-1,1140,1324,0,0
-77,-300,0,0,0,0,0,0,0,0,0,-1,1147,1324,0,0
-70,-300,0,0,0,0,0,0,0,0,0,-1,1154,1324,0,0
-63,-300,0,0,0,0,0,0,0,0,0,-1,1161,1324,0,0
-56,-300,0,0,0,0,0,0,0,0,0,-1,1168,1324,0,0
-49,-300,0,0,0,0,0,0,0,0,0,-1,1175,1324,0,0
-42,-300,0,0,0,0,0,0,0,0,0,-1,1182,1324,0,0
-35,-300,0,0,0,0,0,0,0,0,0,-1,1189,1324,0,0
-28,-300,0,0,0,0,0,0,0,0,0,-1,1196,1324,0,0
-21,-300,0,0,0,0,0,0,0,0,0,-1,1203,1324,0,0
-14,-300,0,0,0,0,0,0,0,0,0,-1,1210,1324,0,0
-7,-300,0,0,0,0,0,0,0,0,0,-1,1217,1324,0,0
0,-300,0,0,0,0,0,0,0,0,0,-1,1224,1324,0,0
7,-300,0,0,0,0,0,0,0,0,0,-1,1231,1324,0,0
14,-300,0,0,0,0,0,0,0,0,0,-1,1238,1324,0,0
21,-300,0,0,0,0,0,0,0,0,0,-1,1245,1324,0,0
28,-300,0,0,0,0,0,0,0,0,0,-1,1252,1324,0,0
35,-300,0,0,0,0,0,0,0,0,0,-1,1259,1324,0,0
42,-300,0,0,0,0,0,0,0,0,0,-1,1266,1324,0,0
49,-300,0,0,0,0,0,0,0,0,0,-1,1273,1324,0,0
56,-300,0,0,0,0,0,0,0,0,0,-1,1280,1324,0,0
63,-300,0,0,0,0,0,0,0,0,0,-1,1287,1324,0,0
70,-300,0,0,0,0,0,0,0,0,0,-1,1294,1324,0,0
77,-300,0,0,0,0,0,0,0,0,0,-1,1301,1324,0,0
84,-300,0,0,0,0,0,0,0,0,0,-1,1308,1324,0,0
91,-300,0,0,0,0,0,0,0,0,0,-1,1315,1324,0,0
98,-300,0,0,0,0,0,0,0,0,0,-1,1322,1324,0,0
105,-300,0,0,0,0,0,0,0,0,0,-1,1329,1324,0,0
112,-300,0,0,0,0,0,0,0,0,0,-1,1336,1324,0,0
119,-300,0,0,0,0,0,0,0,0,0,-1,1343,1324,0,0
126,-300,0,0,0,0,0,0,0,0,0,-1,1350,1324,0,0
133,-300,0,0,0,0,0,0,0,0,0,-1,1357,1324,0,0
140,-300,0,0,0,0,0,0,0,0,0,-1,1364,1324,0,0
147,-300,0,0,0,0,0,0,0,0,0,-1,1371,1324,0,0
154,-300,0,0,0,0,0,0,0,0,0,-1,1378,1324,0,0
161,-300,0,0,0,0,0,0,0,0,0,-1,1385,1324,0,0
168,-300,0,0,0,0,0,0,0,0,0,-1,1392,1324,0,0
175,-300,0,0,0,0,0,0,0,0,0,-1,1399,1324,0,0
182,-300,0,0,0,0,0,0,0,0,0,-1,1406,1324,0,0
189,-300,0,0,0,0,0,0,0,0,0,-1,1413,1324,0,0
196,-300,0,0,0,0,0,0,0,0,0,-1,1420,1324,0,0
203,-300,0,0,0,0,0,0,0,0,0,-1,1427,1324,0,0
210,-300,0,0,0,0,0,0,0,0,0,-1,1434,1324,0,0
217,-300,0,0,0,0,0,0,0,0,0,-1,1441,1324,0,0
224,-300,0,0,0,0,0,0,0,0,0,-1,1448,1324,0,0
231,-300,0,0,0,0,0,0,0,0,0,-1,1455,1324,0,0
238,-300,0,0,0,0,0,0,0,0,0,-1,1462,1324,0,0
245,-300,0,0,0,0,0,0,0,0,0,-1,1469,1324,0,0
252,-300,0,0,0,0,0,0,0,0,0,-1,1476,1324,0,0
259,-300,0,0,0,0,0,0,0,0,0,-1,1483,1324,0,0
266,-300,0,0,0,0,0,0,0,0,0,-1,1490,1324,0,0
273,-300,0,0,0,0,0,0,0,0,0,-1,1497,1324,0,0
280,-300,0,0,0,0,0,0,0,0,0,-1,1504,1324,0,0
287,-300,0,0,0,0,0,0,0,0,0,-1,1511,1324,0,0
294,-300,0,0,0,0,0,0,0,0,0,-1,1518,1324,0,0
301,-300,0,0,0,0,0,0,0,0,0,-1,1525,1324,0,0
308,-300,0,0,0,0,0,0,0,0,0,-1,1532,1324,0,0
315,-300,0,0,0,0,0,0,0,0,0,-1,1539,1324,0,0
322,-300,0,0,0,0,0,0,0,0,0,-1,1546,1324,0,0
329,-300,0,0,0,0,0,0,0,0,0,-1,1553,1324,0,0
336,-300,0,0,0,0,0,0,0,0,0,-1,1560,1324,0,0
343,-300,0,0,0,0,0,0,0,0,0,-1,1567,1324,0,0
350,-300,0,0,0,0,0,0,0,0,0,-1,1574,1324,0,0
357,-300,0,0,0,0,0,0,0,0,0,-1,1581,1324,0,0
364,-300,0,0,0,0,0,0,0,0,0,-1,1588,1324,0,0
371,-300,0,0,0,0,0,0,0,0,0,-1,1595,1324,0,0
378,-300,0,0,0,0,0,0,0,0,0,-1,1602,1324,0,0
385,-300,0,0,0,0,0,0,0,0,0,-1,1609,1324,0,0
392,-300,0,0,0,0,0,0,0,0,0,-1,1616,1324,0,0
399,-300,0,0,0,0,0,0,0,0,0,-1,1623,1324,0,0
406,-300,0,0,0,0,0,0,0,0,0,-1,1630,1324,0,0
413,-300,0,0,0,0,0,0,0,0,0,-1,1637,1324,0,0
420,-300,0,0,0,0,0,0,0,0,0,-1,1644,1324,0,0
427,-300,0,0,0,0,0,0,0,0,0,-1,1651,1324,0,0
434,-300,0,0,0,0,0,0,0,0,0,-1,1658,1324,0,0
441,-300,0,0,0,0,0,0,0,0,0,-1,1665,1324,0,0
448,-300,0,0,0,0,0,0,0,0,0,-1,1672,1324,0,0
455,-300,0,0,0,0,0,0,0,0,0,-1,1679,1324,0,0
462,-300,0,0,0,0,0,0,0,0,0,-1,1686,1324,0,0
469,-300,0,0,0,0,0,0,0,0,0,-1,1693,1324,0,0
476,-300,0,0,0,0,0,0,0,0,0,-1,1700,1324,0,0
483,-300,0,0,0,0,0,0,0,0,0,-1,1707,1324,0,0
490,-300,0,0,0,0,0,0,0,0,0,-1,1714,1324,0,0
497,-300,0,0,0,0,0,0,0,0,0,-1,1721,1324,0,0
504,-300,0,0,0,0,0,0,0,0,0,-1,1728,1324,0,0
511,-300,0,0,0,0,0,0,0,0,0,-1,1735,1324,0,0
518,-300,0,0,0,0,0,0,0,0,0,-1,1742,1324,0,0
525,-300,0,0,0,0,0,0,0,0,0,-1,1749,1324,0,0
532,-300,0,0,0,0,0,0,0,0,0,-1,1756,1324,0,0
539,-300,0,0,0,0,0,0,0,0,0,-1,1763,1324,0,0
546,-300,0,0,0,0,0,0,0,0,0,-1,1770,1324,0,0
553,-300,0,0,0,0,0,0,0,0,0,-1,1777,1324,0,0
560,-300,0,0,0,0,0,0,0,0,0,-1,1784,1324,0,0
567,-300,0,0,0,0,0,0,0,0,0,-1,1791,1324,0,0
574,-300,0,0,0,0,0,0,0,0,0,-1,1798,1324,0,0
581,-300,0,0,0,0,0,0,0,0,0,-1,1805,1324,0,0
588,-300,66.4561,1.99207,0,0,0,0,0,0,0,-1,1812,1324,66.456,-1.99202
595,-300,66.4685,1.95496,0,0,0,0,0,0,0,-1,1819,1324,66.4685,-1.95499
602,-300,66.5259,1.72363,0,0,0,0,0,0,0,-1,1826,1324,66.5259,-1.72367
609,-300,64.2576,2.90149,0,0,0,0,0,0,0,-1,1833,1324,64.2575,-2.90154
616,-300,65.1267,2.84033,0,0,0,0,0,0,0,-1,1840,1324,65.1267,-2.84037
623,-300,47.4474,2.43188,0,0,0,0,0,0,0,-1,1847,1324,47.4474,-2.43194
630,-300,42.4099,3.9165,0,0,0,0,0,0,0,-1,1854,1324,42.4099,-3.91649
637,-300,31.1719,4.6366,0,0,0,0,0,0,0,-1,1861,1324,31.1718,-4.63665
644,-300,22.9836,3.44934,0,0,0,0,0,0,0,-1,1868,1324,22.9836,-3.4493
651,-300,25.5004,9.11853,0,0,0,0,0,0,0,-1,1875,1324,25.5004,-9.11851
658,-300,25.4012,9.20032,0,0,0,0,0,0,0,-1,1882,1324,25.4012,-9.20036
665,-300,47.0446,16.1671,0,0,0,0,0,0,0,-1,1889,1324,47.0445,-16.1671
672,-300,46.8702,15.501,0.00482124,-0.000901753,-0.00236666,0.00567313,-0.00175364,-0.345515,0.00448248,0.0343836,1896,1324,46.8703,-15.501
679,-300,46.874,14.7294,0.00177652,0.000158895,-0.00165198,0.00280706,-0.000871645,-0.557751,0.00221972,0.0135652,1903,1324,46.8741,-14.7294
686,-300,46.8381,14.0126,0.00148361,0.000183311,-0.000934271,0.00197169,-0.000304765,-0.481417,0.00142694,0.0141735,1910,1324,46.8382,-14.0126
693,-300,46.7742,13.2856,0.00131927,9.74126e-05,-0.000534728,0.00152023,-0.000103551,-0.359492,0.00104971,0.011921,1917,1324,46.7742,-13.2857
700,-300,46.7181,12.5491,0.00117735,0.000120143,-0.000139149,0.00119536,0.000102135,-0.128699,0.000765137,0.0124129,1924,1324,46.7181,-12.5491
707,-300,46.6957,11.8168,0.00109585,0.000194194,0.000251296,0.00116115,0.000128887,0.254259,0.000734917,0.00850973,1931,1324,46.6956,-11.8168
714,-300,46.6893,11.1277,0.00100772,0.000335675,0.000641918,0.00139625,-5.28496e-05,0.544275,0.00094894,0.0107209,1938,1324,46.6893,-11.1277
721,-300,46.6761,10.4193,0.000930517,0.000581509,0.00100114,0.00177225,-0.000260223,0.699113,0.00127711,0.0136256,1945,1324,46.6761,-10.4194
728,-300,46.6763,9.67651,0.000845855,0.0010164,0.00130242,0.00223634,-0.000374086,0.818087,0.00162996,0.0181817,1952,1324,46.6763,-9.67656
735,-300,46.7418,8.9043,0,0,0,0,0,0,0,-1,1959,1324,46.7418,-8.90426
742,-300,45.1371,8.42065,0,0,0,0,0,0,0,-1,1966,1324,45.1371,-8.42062
749,-300,27.4065,5.9718,0,0,0,0,0,0,0,-1,1973,1324,27.4065,-5.97181
756,-300,22.1423,3.45642,0,0,0,0,0,0,0,-1,1980,1324,22.1423,-3.45638
763,-300,22.6136,5.1571,0,0,0,0,0,0,0,-1,1987,1324,22.6136,-5.15706
770,-300,24.859,4.77979,0,0,0,0,0,0,0,-1,1994,1324,24.859,-4.77972
777,-300,0,0,0,0,0,0,0,0,0,-1,2001,1324,0,0
784,-300,0,0,0,0,0,0,0,0,0,-1,2008,1324,0,0
791,-300,0,0,0,0,0,0,0,0,0,-1,2015,1324,0,0
798,-300,0,0,0,0,0,0,0,0,0,-1,2022,1324,0,0
805,-300,0,0,0,0,0,0,0,0,0,-1,2029,1324,0,0
812,-300,0,0,0,0,0,0,0,0,0,-1,2036,1324,0,0
-700,-307,0,0,0,0,0,0,0,0,0,-1,524,1331,0,0
-693,-307,0,0,0,0,0,0,0,0,0,-1,531,1331,0,0
-686,-307,0,0,0,0,0,0,0,0,0,-1,538,1331,0,0
-679,-307,0,0,0,0,0,0,0,0,0,-1,545,1331,0,0
-672,-307,0,0,0,0,0,0,0,0,0,-1,552,1331,0,0
-665,-307,0,0,0,0,0,0,0,0,0,-1,559,1331,0,0
-658,-307,0,0,0,0,0,0,0,0,0,-1,566,1331,0,0
-651,-307,-40.7436,1.98755,0,0,0,0,0,0,0,-1,573,1331,-40.7436,-1.98753
-644,-307,-41.7838,1.24817,0,0,0,0,0,0,0,-1,580,1331,-41.7838,-1.2482
-637,-307,-41.9006,0.477783,0,0,0,0,0,0,0,-1,587,1331,-41.9006,-0.477844
-630,-307,-12.0005,0.767212,0,0,0,0,0,0,0,-1,594,1331,-12.0005,-0.767266
-623,-307,-12.2128,2.93811,0,0,0,0,0,0,0,-1,601,1331,-12.2128,-2.93813
-616,-307,-12.6612,2.08289,0,0,0,0,0,0,0,-1,608,1331,-12.6612,-2.08293
-609,-307,-12.2767,1.83228,0,0,0,0,0,0,0,-1,615,1331,-12.2768,-1.83224
-602,-307,-27.5659,6.93335,0,0,0,0,0,0,0,-1,622,1331,-27.5658,-6.9333
-595,-307,-29.5284,8.30261,0,0,0,0,0,0,0,-1,629,1331,-29.5285,-8.30263
-588,-307,-29.3222,9.2041,0.0033666,0.00325927,0.00214795,0.00546155,0.00116432,0.772908,0.00332166,0.0214324,636,1331,-29.3222,-9.20409
-581,-307,-29.3151,9.95349,0.00278207,0.00234365,0.00152122,0.00409979,0.00102593,0.71384,0.00246349,0.0149249,643,1331,-29.3151,-9.9535
-574,-307,-29.3492,10.6962,0.00245106,0.00152449,0.00109133,0.00317336,0.00080218,0.584668,0.00190533,0.0123426,650,1331,-29.3492,-10.6961
-567,-307,-29.4119,11.451,0.00234718,0.000815109,0.000840796,0.00271857,0.000443714,0.415946,0.00168408,0.0130324,657,1331,-29.4119,-11.451
-560,-307,-29.4381,12.2217,0.00246369,0.000155438,0.00073843,0.0026797,-6.05766e-05,0.284592,0.001807,0.0140889,664,1331,-29.4381,-12.2217
-553,-307,-29.4641,12.9751,0.00282462,-0.000375312,0.000823462,0.00302409,-0.000574785,0.237659,0.00223246,0.0110585,671,1331,-29.4641,-12.9751
-546,-307,-29.5297,13.7245,0.00341411,-0.000876637,0.00109103,0.0036756,-0.00113812,0.235232,0.00290506,0.0107214,678,1331,-29.5296,-13.7245
-539,-307,-29.5571,14.5072,0.00437483,-0.00132009,0.00160156,0.00479433,-0.00173959,0.256176,0.00390737,0.0201335,685,1331,-29.5571,-14.5072
-532,-307,-29.5383,15.2877,0,0,0,0,0,0,0,-1,692,1331,-29.5384,-15.2877
-525,-307,-13.2009,6.91309,0,0,0,0,0,0,0,-1,699,1331,-13.2009,-6.9131
-518,-307,-9.77777,-1.56653,0,0,0,0,0,0,0,-1,706,1331,-9.77777,1.56651
-511,-307,-12.5226,0.26709,0,0,0,0,0,0,0,-1,713,1331,-12.5226,-0.267038
-504,-307,-12.5913,-0.308105,0,0,0,0,0,0,0,-1,720,1331,-12.5913,0.308124
-497,-307,-13.8586,-0.115845,0,0,0,0,0,0,0,-1,727,1331,-13.8587,0.115861
-490,-307,-17.9429,0.982178,0,0,0,0,0,0,0,-1,734,1331,-17.9429,-0.982198
-483,-307,-18.1066,0.927612,0,0,0,0,0,0,0,-1,741,1331,-18.1066,-0.927609
-476,-307,-18.1288,1.1228,0,0,0,0,0,0,0,-1,748,1331,-18.1289,-1.12286
-469,-307,-18.2028,0.798584,0,0,0,0,0,0,0,-1,755,1331,-18.2027,-0.798546
-462,-307,0,0,0,0,0,0,0,0,0,-1,762,1331,0,0
-455,-307,0,0,0,0,0,0,0,0,0,-1,769,1331,0,0
-448,-307,0,0,0,0,0,0,0,0,0,-1,776,1331,0,0
-441,-307,0,0,0,0,0,0,0,0,0,-1,783,1331,0,0
-434,-307,0,0,0,0,0,0,0,0,0,-1,790,1331,0,0
-427,-307,0,0,0,0,0,0,0,0,0,-1,797,1331,0,0
-420,-307,0,0,0,0,0,0,0,0,0,-1,804,1331,0,0
-413,-307,0,0,0,0,0,0,0,0,0,-1,811,1331,0,0
-406,-307,0,0,0,0,0,0,0,0,0,-1,818,1331,0,0
-399,-307,0,0,0,0,0,0,0,0,0,-1,825,1331,0,0
-392,-307,0,0,0,0,0,0,0,0,0,-1,832,1331,0,0
-385,-307,0,0,0,0,0,0,0,0,0,-1,839,1331,0,0
-378,-307,0,0,0,0,0,0,0,0,0,-1,846,1331,0,0
-371,-307,0,0,0,0,0,0,0,0,0,-1,853,1331,0,0
-364,-307,0,0,0,0,0,0,0,0,0,-1,860,1331,0,0
-357,-307,0,0,0,0,0,0,0,0,0,-1,867,1331,0,0
-350,-307,0,0,0,0,0,0,0,0,0,-1,874,1331,0,0
-343,-307,0,0,0,0,0,0,0,0,0,-1,881,1331,0,0
-336,-307,0,0,0,0,0,0,0,0,0,-1,888,1331,0,0
-329,-307,0,0,0,0,0,0,0,0,0,-1,895,1331,0,0
-322,-307,0,0,0,0,0,0,0,0,0,-1,902,1331,0,0
-315,-307,0,0,0,0,0,0,0,0,0,-1,909,1331,0,0
-308,-307,0,0,0,0,0,0,0,0,0,-1,916,1331,0,0
-301,-307,0,0,0,0,0,0,0,0,0,-1,923,1331,0,0
-294,-307,0,0,0,0,0,0,0,0,0,-1,930,1331,0,0
-287,-307,0,0,0,0,0,0,0,0,0,-1,937,1331,0,0
-280,-307,0,0,0,0,0,0,0,0,0,-1,944,1331,0,0
-273,-307,0,0,0,0,0,0,0,0,0,-1,951,1331,0,0
-266,-307,0,0,0,0,0,0,0,0,0,-1,958,1331,0,0
-259,-307,0,0,0,0,0,0,0,0,0,-1,965,1331,0,0
-252,-307,0,0,0,0,0,0,0,0,0,-1,972,1331,0,0
-245,-307,0,0,0,0,0,0,0,0,0,-1,979,1331,0,0
-238,-307,0,0,0,0,0,0,0,0,0,-1,986,1331,0,0
-231,-307,0,0,0,0,0,0,0,0,0,-1,993,1331,0,0
-224,-307,0,0,0,0,0,0,0,0,0,-1,1000,1331,0,0
-217,-307,0,0,0,0,0,0,0,0,0,-1,1007,1331,0,0
-210,-307,0,0,0,0,0,0,0,0,0,-1,1014,1331,0,0
-203,-307,0,0,0,0,0,0,0,0,0,-1,1021,1331,0,0
-196,-307,0,0,0,0,0,0,0,0,0,-1,1028,1331,0,0
-189,-307,0,0,0,0,0,0,0,0,0,-1,1035,1331,0,0
-182,-307,0,0,0,0,0,0,0,0,0,-1,1042,1331,0,0
-175,-307,0,0,0,0,0,0,0,0,0,-1,1049,1331,0,0
-168,-307,0,0,0,0,0,0,0,0,0,-1,1056,1331,0,0
-161,-307,0,0,0,0,0,0,0,0,0,-1,1063,1331,0,0
-154,-307,0,0,0,0,0,0,0,0,0,-1,1070,1331,0,0
-147,-307,0,0,0,0,0,0,0,0,0,-1,1077,1331,0,0
-140,-307,0,0,0,0,0,0,0,0,0,-1,1084,1331,0,0
-133,-307,0,0,0,0,0,0,0,0,0,-1,1091,1331,0,0
-126,-307,0,0,0,0,0,0,0,0,0,-1,1098,1331,0,0
-119,-307,0,0,0,0,0,0,0,0,0,-1,1105,1331,0,0
-112,-307,0,0,0,0,0,0,0,0,0,-1,1112,1331,0,0
-105,-307,0,0,0,0,0,0,0,0,0,-1,1119,1331,0,0
-98,-307,0,0,0,0,0,0,0,0,0,-1,1126,1331,0,0
-91,-307,0,0,0,0,0,0,0,0,0,-1,1133,1331,0,0
-84,-307,0,0,0,0,0,0,0,0,0,-1,1140,1331,0,0
-77,-307,0,0,0,0,0,0,0,0,0,-1,1147,1331,0,0
-70,-307,0,0,0,0,0,0,0,0,0,-1,1154,1331,0,0
-63,-307,0,0,0,0,0,0,0,0,0,-1,1161,1331,0,0
-56,-307,0,0,0,0,0,0,0,0,0,-1,1168,1331,0,0
-49,-307,0,0,0,0,0,0,0,0,0,-1,1175,1331,0,0
-42,-307,0,0,0,0,0,0,0,0,0,-1,1182,1331,0,0
-35,-307,0,0,0,0,0,0,0,0,0,-1,1189,1331,0,0
-28,-307,0,0,0,0,0,0,0,0,0,-1,1196,1331,0,0
-21,-307,0,0,0,0,0,0,0,0,0,-1,1203,1331,0,0
-14,-307,0,0,0,0,0,0,0,0,0,-1,1210,1331,0,0
-7,-307,0,0,0,0,0,0,0,0,0,-1,1217,1331,0,0
0,-307,0,0,0,0,0,0,0,0,0,-1,1224,1331,0,0
7,-307,0,0,0,0,0,0,0,0,0,-1,1231,1331,0,0
14,-307,0,0,0,0,0,0,0,0,0,-1,1238,1331,0,0
21,-307,0,0,0,0,0,0,0,0,0,-1,1245,1331,0,0
28,-307,0,0,0,0,0,0,0,0,0,-1,1252,1331,0,0
35,-307,0,0,0,0,0,0,0,0,0,-1,1259,1331,0,0
42,-307,0,0,0,0,0,0,0,0,0,-1,1266,1331,0,0
49,-307,0,0,0,0,0,0,0,0,0,-1,1273,1331,0,0
56,-307,0,0,0,0,0,0,0,0,0,-1,1280,1331,0,0
63,-307,0,0,0,0,0,0,0,0,0,-1,1287,1331,0,0
70,-307,0,0,0,0,0,0,0,0,0,-1,1294,1331,0,0
77,-307,0,0,0,0,0,0,0,0,0,-1,1301,1331,0,0
84,-307,0,0,0,0,0,0,0,0,0,-1,1308,1331,0,0
91,-307,0,0,0,0,0,0,0,0,0,-1,1315,1331,0,0
98,-307,0,0,0,0,0,0,0,0,0,-1,1322,1331,0,0
105,-307,0,0,0,0,0,0,0,0,0,-1,1329,1331,0,0
112,-307,0,0,0,0,0,0,0,0,0,-1,1336,1331,0,0
119,-307,0,0,0,0,0,0,0,0,0,-1,1343,1331,0,0
126,-307,0,0,0,0,0,0,0,0,0,-1,1350,1331,0,0
133,-307,0,0,0,0,0,0,0,0,0,-1,1357,1331,0,0
140,-307,0,0,0,0,0,0,0,0,0,-1,1364,1331,0,0
147,-307,0,0,0,0,0,0,0,0,0,-1,1371,1331,0,0
154,-307,0,0,0,0,0,0,0,0,0,-1,1378,1331,0,0
161,-307,0,0,0,0,0,0,0,0,0,-1,1385,1331,0,0
168,-307,0,0,0,0,0,0,0,0,0,-1,1392,1331,0,0
175,-307,0,0,0,0,0,0,0,0,0,-1,1399,1331,0,0
182,-307,0,0,0,0,0,0,0,0,0,-1,1406,1331,0,0
189,-307,0,0,0,0,0,0,0,0,0,-1,1413,1331,0,0
196,-307,0,0,0,0,0,0,0,0,0,-1,1420,1331,0,0
203,-307,0,0,0,0,0,0,0,0,0,-1,1427,1331,0,0
210,-307,0,0,0,0,0,0,0,0,0,-1,1434,1331,0,0
217,-307,0,0,0,0,0,0,0,0,0,-1,1441,1331,0,0
224,-307,0,0,0,0,0,0,0,0,0,-1,1448,1331,0,0
231,-307,0,0,0,0,0,0,0,0,0,-1,1455,1331,0,0
238,-307,0,0,0,0,0,0,0,0,0,-1,1462,1331,0,0
245,-307,0,0,0,0,0,0,0,0,0,-1,1469,1331,0,0
252,-307,0,0,0,0,0,0,0,0,0,-1,1476,1331,0,0
259,-307,0,0,0,0,0,0,0,0,0,-1,1483,1331,0,0
266,-307,0,0,0,0,0,0,0,0,0,-1,1490,1331,0,0
273,-307,0,0,0,0,0,0,0,0,0,-1,1497,1331,0,0
280,-307,0,0,0,0,0,0,0,0,0,-1,1504,1331,0,0
287,-307,0,0,0,0,0,0,0,0,0,-1,1511,1331,0,0
294,-307,0,0,0,0,0,0,0,0,0,-1,1518,1331,0,0
301,-307,0,0,0,0,0,0,0,0,0,-1,1525,1331,0,0
308,-307,0,0,0,0,0,0,0,0,0,-1,1532,1331,0,0
315,-307,0,0,0,0,0,0,0,0,0,-1,1539,1331,0,0
322,-307,0,0,0,0,0,0,0,0,0,-1,1546,1331,0,0
329,-307,0,0,0,0,0,0,0,0,0,-1,1553,1331,0,0
336,-307,0,0,0,0,0,0,0,0,0,-1,1560,1331,0,0
343,-307,0,0,0,0,0,0,0,0,0,-1,1567,1331,0,0
350,-307,0,0,0,0,0,0,0,0,0,-1,1574,1331,0,0
357,-307,0,0,0,0,0,0,0,0,0,-1,1581,1331,0,0
364,-307,0,0,0,0,0,0,0,0,0,-1,1588,1331,0,0
371,-307,0,0,0,0,0,0,0,0,0,-1,1595,1331,0,0
378,-307,0,0,0,0,0,0,0,0,0,-1,1602,1331,0,0
385,-307,0,0,0,0,0,0,0,0,0,-1,1609,1331,0,0
392,-307,0,0,0,0,0,0,0,0,0,-1,1616,1331,0,0
399,-307,0,0,0,0,0,0,0,0,0,-1,1623,1331,0,0
406,-307,0,0,0,0,0,0,0,0,0,-1,1630,1331,0,0
413,-307,0,0,0,0,0,0,0,0,0,-1,1637,1331,0,0
420,-307,0,0,0,0,0,0,0,0,0,-1,1644,1331,0,0
427,-307,0,0,0,0,0,0,0,0,0,-1,1651,1331,0,0
434,-307,0,0,0,0,0,0,0,0,0,-1,1658,1331,0,0
441,-307,0,0,0,0,0,0,0,0,0,-1,1665,1331,0,0
448,-307,0,0,0,0,0,0,0,0,0,-1,1672,1331,0,0
455,-307,0,0,0,0,0,0,0,0,0,-1,1679,1331,0,0
462,-307,0,0,0,0,0,0,0,0,0,-1,1686,1331,0,0
469,-307,0,0,0,0,0,0,0,0,0,-1,1693,1331,0,0
476,-307,0,0,0,0,0,0,0,0,0,-1,1700,1331,0,0
483,-307,0,0,0,0,0,0,0,0,0,-1,1707,1331,0,0
490,-307,0,0,0,0,0,0,0,0,0,-1,1714,1331,0,0
497,-307,0,0,0,0,0,0,0,0,0,-1,1721,1331,0,0
504,-307,0,0,0,0,0,0,0,0,0,-1,1728,1331,0,0
511,-307,0,0,0,0,0,0,0,0,0,-1,1735,1331,0,0
518,-307,0,0,0,0,0,0,0,0,0,-1,1742,1331,0,0
525,-307,0,0,0,0,0,0,0,0,0,-1,1749,1331,0,0
532,-307,0,0,0,0,0,0,0,0,0,-1,1756,1331,0,0
539,-307,0,0,0,0,0,0,0,0,0,-1,1763,1331,0,0
546,-307,0,0,0,0,0,0,0,0,0,-1,1770,1331,0,0
553,-307,0,0,0,0,0,0,0,0,0,-1,1777,1331,0,0
560,-307,0,0,0,0,0,0,0,0,0,-1,1784,1331,0,0
567,-307,0,0,0,0,0,0,0,0,0,-1,1791,1331,0,0
574,-307,0,0,0,0,0,0,0,0,0,-1,1798,1331,0,0
581,-307,0,0,0,0,0,0,0,0,0,-1,1805,1331,0,0
588,-307,66.5917,1.60864,0,0,0,0,0,0,0,-1,1812,1331,66.5917,-1.60867
595,-307,66.708,1.85352,0,0,0,0,0,0,0,-1,1819,1331,66.708,-1.85351
602,-307,66.111,1.49976,0,0,0,0,0,0,0,-1,1826,1331,66.1109,-1.49974
609,-307,63.8848,2.78992,0,0,0,0,0,0,0,-1,1833,1331,63.8848,-2.78989
616,-307,53.2878,0.135498,0,0,0,0,0,0,0,-1,1840,1331,53.2878,-0.135477
623,-307,44.3966,2.84888,0,0,0,0,0,0,0,-1,1847,1331,44.3966,-2.84884
630,-307,29.8116,1.51184,0,0,0,0,0,0,0,-1,1854,1331,29.8116,-1.51188
637,-307,24.6407,4.09106,0,0,0,0,0,0,0,-1,1861,1331,24.6407,-4.09103
644,-307,22.6885,5.80408,0,0,0,0,0,0,0,-1,1868,1331,22.6884,-5.80408
651,-307,17.5013,5.80078,0,0,0,0,0,0,0,-1,1875,1331,17.5014,-5.80072
658,-307,37.4427,13.9775,0,0,0,0,0,0,0,-1,1882,1331,37.4427,-13.9776
665,-307,46.144,16.1106,0,0,0,0,0,0,0,-1,1889,1331,46.144,-16.1106
672,-307,46.1676,15.4902,0.00423215,-0.00090702,-0.00175421,0.00477384,-0.0014487,-0.299503,0.00375968,0.0209138,1896,1331,46.1676,-15.4903
679,-307,46.126,14.7712,0.00167498,-3.27549e-06,-0.00116953,0.00227527,-0.000603567,-0.474213,0.00175302,0.0111114,1903,1331,46.126,-14.7713
686,-307,46.087,14.0481,0.00141906,3.7229e-05,-0.000704037,0.00171456,-0.00025828,-0.397403,0.00123815,0.0107374,1910,1331,46.087,-14.0481
693,-307,46.0529,13.3125,0.00134302,-1.0779e-05,-0.000398685,0.0014517,-0.000119464,-0.266141,0.00100998,0.0129831,1917,1331,46.0529,-13.3125
700,-307,46.0265,12.5812,0.00131159,4.17057e-05,-9.28292e-05,0.00131834,3.49557e-05,-0.0725863,0.000867476,0.0145728,1924,1331,46.0265,-12.5812
707,-307,45.9839,11.8387,0.00134729,0.000124416,0.000225949,0.0013877,8.40031e-05,0.176987,0.000898442,0.015506,1931,1331,45.9839,-11.8388
714,-307,45.9764,11.1533,0.00138888,0.000264426,0.000558996,0.00161948,3.38256e-05,0.391258,0.00106856,0.0140474,1938,1331,45.9765,-11.1534
721,-307,46.0022,10.4602,0.00149581,0.000488535,0.000876812,0.00200333,-1.89914e-05,0.524709,0.00134193,0.0185324,1945,1331,46.0022,-10.4601
728,-307,45.9413,9.93896,0.00164387,0.000912185,0.00114269,0.00247785,7.81982e-05,0.630476,0.00162646,0.0492586,1952,1331,45.9413,-9.93896
735,-307,45.9594,9.07092,0,0,0,0,0,0,0,-1,1959,1331,45.9593,-9.07093
742,-307,26.677,6.09192,0,0,0,0,0,0,0,-1,1966,1331,26.677,-6.0919
749,-307,26.7727,5.9032,0,0,0,0,0,0,0,-1,1973,1331,26.7727,-5.90323
756,-307,27.1556,5.74756,0,0,0,0,0,0,0,-1,1980,1331,27.1557,-5.7475
763,-307,18.7522,3.55298,0,0,0,0,0,0,0,-1,1987,1331,18.7522,-3.55301
770,-307,0,0,0,0,0,0,0,0,0,-1,1994,1331,0,0
777,-307,0,0,0,0,0,0,0,0,0,-1,2001,1331,0,0
784,-307,0,0,0,0,0,0,0,0,0,-1,2008,1331,0,0
791,-307,0,0,0,0,0,0,0,0,0,-1,2015,1331,0,0
798,-307,0,0,0,0,0,0,0,0,0,-1,2022,1331,0,0
805,-307,0,0,0,0,0,0,0,0,0,-1,2029,1331,0,0
812,-307,0,0,0,0,0,0,0,0,0,-1,2036,1331,0,0
-700,-314,0,0,0,0,0,0,0,0,0,-1,524,1338,0,0
-693,-314,0,0,0,0,0,0,0,0,0,-1,531,1338,0,0
-686,-314,0,0,0,0,0,0,0,0,0,-1,538,1338,0,0
-679,-314,0,0,0,0,0,0,0,0,0,-1,545,1338,0,0
-672,-314,0,0,0,0,0,0,0,0,0,-1,552,1338,0,0
-665,-314,0,0,0,0,0,0,0,0,0,-1,559,1338,0,0
-658,-314,0,0,0,0,0,0,0,0,0,-1,566,1338,0,0
-651,-314,0,0,0,0,0,0,0,0,0,-1,573,1338,0,0
-644,-314,-41.2806,1.17566,0,0,0,0,0,0,0,-1,580,1338,-41.2806,-1.17565
-637,-314,-58.369,7.97375,0,0,0,0,0,0,0,-1,587,1338,-58.369,-7.97376
-630,-314,-59.7463,6.72742,0,0,0,0,0,0,0,-1,594,1338,-59.7463,-6.72739
-623,-314,-13.3542,3.00903,0,0,0,0,0,0,0,-1,601,1338,-13.3542,-3.00907
-616,-314,-9.93311,1.15088,0,0,0,0,0,0,0,-1,608,1338,-9.93308,-1.15093
-609,-314,-9.4361,2.86292,0,0,0,0,0,0,0,-1,615,1338,-9.43612,-2.86286
-602,-314,-11.8027,2.42798,0,0,0,0,0,0,0,-1,622,1338,-11.8027,-2.42802
-595,-314,-28.7902,8.34875,0,0,0,0,0,0,0,-1,629,1338,-28.7902,-8.34871
-588,-314,-28.6014,9.16357,0.00387196,0.00364537,0.00253184,0.00629304,0.00122429,0.763039,0.00385266,0.0351991,636,1338,-28.6014,-9.16362
-581,-314,-28.5412,9.96448,0.00313683,0.00278857,0.00182531,0.0047963,0.0011291,0.737843,0.0028955,0.0124002,643,1338,-28.5412,-9.96445
-574,-314,-28.615,10.7006,0.00269435,0.0019648,0.0013451,0.00372326,0.000935886,0.652988,0.00223647,0.0120677,650,1338,-28.615,-10.7005
-567,-314,-28.6476,11.4812,0.00250721,0.0012457,0.00105977,0.00310973,0.000643187,0.516963,0.00189549,0.0150514,657,1338,-28.6476,-11.4812
-560,-314,-28.649,12.2638,0.00255463,0.000577624,0.00093075,0.00292386,0.000208397,0.377657,0.00188362,0.0169329,664,1338,-28.649,-12.2638
-553,-314,-28.7069,13.0028,0.00284182,1.95312e-05,0.000983774,0.00315089,-0.000289539,0.304404,0.00220346,0.0194184,671,1338,-28.7069,-13.0028
-546,-314,-28.796,13.7656,0.00336185,-0.000517374,0.00119936,0.00370271,-0.000858235,0.276901,0.00279877,0.0184499,678,1338,-28.796,-13.7657
-539,-314,-28.7939,14.5398,0.00419847,-0.000988037,0.0016245,0.00466527,-0.00145484,0.279814,0.00369194,0.0184929,685,1338,-28.7939,-14.5398
-532,-314,-28.7277,15.2603,0,0,0,0,0,0,0,-1,692,1338,-28.7277,-15.2602
-525,-314,-13.3017,7.50671,0,0,0,0,0,0,0,-1,699,1338,-13.3017,-7.50669
-518,-314,-8.52753,4.70032,0,0,0,0,0,0,0,-1,706,1338,-8.52755,-4.70034
-511,-314,-11.8597,0.384888,0,0,0,0,0,0,0,-1,713,1338,-11.8597,-0.384927
-504,-314,-11.4322,-0.187378,0,0,0,0,0,0,0,-1,720,1338,-11.4322,0.187381
-497,-314,-11.0047,-0.759644,0,0,0,0,0,0,0,-1,727,1338,-11.0047,0.759689
-490,-314,-18.5143,0.471069,0,0,0,0,0,0,0,-1,734,1338,-18.5143,-0.47103
-483,-314,-17.8528,0.577271,0,0,0,0,0,0,0,-1,741,1338,-17.8528,-0.577327
-476,-314,-17.714,0.665405,0,0,0,0,0,0,0,-1,748,1338,-17.714,-0.665388
-469,-314,-17.7246,0.794678,0,0,0,0,0,0,0,-1,755,1338,-17.7246,-0.794645
-462,-314,0,0,0,0,0,0,0,0,0,-1,762,1338,0,0
-455,-314,0,0,0,0,0,0,0,0,0,-1,769,1338,0,0
-448,-314,0,0,0,0,0,0,0,0,0,-1,776,1338,0,0
-441,-314,0,0,0,0,0,0,0,0,0,-1,783,1338,0,0
-434,-314,0,0,0,0,0,0,0,0,0,-1,790,1338,0,0
-427,-314,0,0,0,0,0,0,0,0,0,-1,797,1338,0,0
-420,-314,0,0,0,0,0,0,0,0,0,-1,804,1338,0,0
-413,-314,0,0,0,0,0,0,0,0,0,-1,811,1338,0,0
-406,-314,0,0,0,0,0,0,0,0,0,-1,818,1338,0,0
-399,-314,0,0,0,0,0,0,0,0,0,-1,825,1338,0,0
-392,-314,0,0,0,0,0,0,0,0,0,-1,832,1338,0,0
-385,-314,0,0,0,0,0,0,0,0,0,-1,839,1338,0,0
-378,-314,0,0,0,0,0,0,0,0,0,-1,846,1338,0,0
-371,-314,0,0,0,0,0,0,0,0,0,-1,853,1338,0,0
-364,-314,0,0,0,0,0,0,0,0,0,-1,860,1338,0,0
-357,-314,0,0,0,0,0,0,0,0,0,-1,867,1338,0,0
-350,-314,0,0,0,0,0,0,0,0,0,-1,874,1338,0,0
-343,-314,0,0,0,0,0,0,0,0,0,-1,881,1338,0,0
-336,-314,0,0,0,0,0,0,0,0,0,-1,888,1338,0,0
-329,-314,0,0,0,0,0,0,0,0,0,-1,895,1338,0,0
-322,-314,0,0,0,0,0,0,0,0,0,-1,902,1338,0,0
-315,-314,0,0,0,0,0,0,0,0,0,-1,909,1338,0,0
-308,-314,0,0,0,0,0,0,0,0,0,-1,916,1338,0,0
-301,-314,0,0,0,0,0,0,0,0,0,-1,923,1338,0,0
-294,-314,0,0,0,0,0,0,0,0,0,-1,930,1338,0,0
-287,-314,0,0,0,0,0,0,0,0,0,-1,937,1338,0,0
-280,-314,0,0,0,0,0,0,0,0,0,-1,944,1338,0,0
-273,-314,0,0,0,0,0,0,0,0,0,-1,951,1338,0,0
-266,-314,0,0,0,0,0,0,0,0,0,-1,958,1338,0,0
-259,-314,0,0,0,0,0,0,0,0,0,-1,965,1338,0,0
-252,-314,0,0,0,0,0,0,0,0,0,-1,972,1338,0,0
-245,-314,0,0,0,0,0,0,0,0,0,-1,979,1338,0,0
-238,-314,0,0,0,0,0,0,0,0,0,-1,986,1338,0,0
-231,-314,0,0,0,0,0,0,0,0,0,-1,993,1338,0,0
-224,-314,0,0,0,0,0,0,0,0,0,-1,1000,1338,0,0
-217,-314,0,0,0,0,0,0,0,0,0,-1,1007,1338,0,0
-210,-314,0,0,0,0,0,0,0,0,0,-1,1014,1338,0,0
-203,-314,0,0,0,0,0,0,0,0,0,-1,1021,1338,0,0
-196,-314,0,0,0,0,0,0,0,0,0,-1,1028,1338,0,0
-189,-314,0,0,0,0,0,0,0,0,0,-1,1035,1338,0,0
-182,-314,0,0,0,0,0,0,0,0,0,-1,1042,1338,0,0
-175,-314,0,0,0,0,0,0,0,0,0,-1,1049,1338,0,0
-168,-314,0,0,0,0,0,0,0,0,0,-1,1056,1338,0,0
-161,-314,0,0,0,0,0,0,0,0,0,-1,1063,1338,0,0
-154,-314,0,0,0,0,0,0,0,0,0,-1,1070,1338,0,0
-147,-314,0,0,0,0,0,0,0,0,0,-1,1077,1338,0,0
-140,-314,0,0,0,0,0,0,0,0,0,-1,1084,1338,0,0
-133,-314,0,0,0,0,0,0,0,0,0,-1,1091,1338,0,0
-126,-314,0,0,0,0,0,0,0,0,0,-1,1098,1338,0,0
-119,-314,0,0,0,0,0,0,0,0,0,-1,1105,1338,0,0
-112,-314,0,0,0,0,0,0,0,0,0,-1,1112,1338,0,0
-105,-314,0,0,0,0,0,0,0,0,0,-1,1119,1338,0,0
-98,-314,0,0,0,0,0,0,0,0,0,-1,1126,1338,0,0
-91,-314,0,0,0,0,0,0,0,0,0,-1,1133,1338,0,0
-84,-314,0,0,0,0,0,0,0,0,0,-1,1140,1338,0,0
-77,-314,0,0,0,0,0,0,0,0,0,-1,1147,1338,0,0
-70,-314,0,0,0,0,0,0,0,0,0,-1,1154,1338,0,0
-63,-314,0,0,0,0,0,0,0,0,0,-1,1161,1338,0,0
-56,-314,0,0,0,0,0,0,0,0,0,-1,1168,1338,0,0
-49,-314,0,0,0,0,0,0,0,0,0,-1,1175,1338,0,0
-42,-314,0,0,0,0,0,0,0,0,0,-1,1182,1338,0,0
-35,-314,0,0,0,0,0,0,0,0,0,-1,1189,1338,0,0
-28,-314,0,0,0,0,0,0,0,0,0,-1,1196,1338,0,0
-21,-314,0,0,0,0,0,0,0,0,0,-1,1203,1338,0,0
-14,-314,0,0,0,0,0,0,0,0,0,-1,1210,1338,0,0
-7,-314,0,0,0,0,0,0,0,0,0,-1,1217,1338,0,0
0,-314,0,0,0,0,0,0,0,0,0,-1,1224,1338,0,0
7,-314,0,0,0,0,0,0,0,0,0,-1,1231,1338,0,0
14,-314,0,0,0,0,0,0,0,0,0,-1,1238,1338,0,0
21,-314,0,0,0,0,0,0,0,0,0,-1,1245,1338,0,0
28,-314,0,0,0,0,0,0,0,0,0,-1,1252,1338,0,0
35,-314,0,0,0,0,0,0,0,0,0,-1,1259,1338,0,0
42,-314,0,0,0,0,0,0,0,0,0,-1,1266,1338,0,0
49,-314,0,0,0,0,0,0,0,0,0,-1,1273,1338,0,0
56,-314,0,0,0,0,0,0,0,0,0,-1,1280,1338,0,0
63,-314,0,0,0,0,0,0,0,0,0,-1,1287,1338,0,0
70,-314,0,0,0,0,0,0,0,0,0,-1,1294,1338,0,0
77,-314,0,0,0,0,0,0,0,0,0,-1,1301,1338,0,0
84,-314,0,0,0,0,0,0,0,0,0,-1,1308,1338,0,0
91,-314,0,0,0,0,0,0,0,0,0,-1,1315,1338,0,0
98,-314,0,0,0,0,0,0,0,0,0,-1,1322,1338,0,0
105,-314,0,0,0,0,0,0,0,0,0,-1,1329,1338,0,0
112,-314,0,0,0,0,0,0,0,0,0,-1,1336,1338,0,0
119,-314,0,0,0,0,0,0,0,0,0,-1,1343,1338,0,0
126,-314,0,0,0,0,0,0,0,0,0,-1,1350,1338,0,0
133,-314,0,0,0,0,0,0,0,0,0,-1,1357,1338,0,0
140,-314,0,0,0,0,0,0,0,0,0,-1,1364,1338,0,0
147,-314,0,0,0,0,0,0,0,0,0,-1,1371,1338,0,0
154,-314,0,0,0,0,0,0,0,0,0,-1,1378,1338,0,0
161,-314,0,0,0,0,0,0,0,0,0,-1,1385,1338,0,0
168,-314,0,0,0,0,0,0,0,0,0,-1,1392,1338,0,0
175,-314,0,0,0,0,0,0,0,0,0,-1,1399,1338,0,0
182,-314,0,0,0,0,0,0,0,0,0,-1,1406,1338,0,0
189,-314,0,0,0,0,0,0,0,0,0,-1,1413,1338,0,0
196,-314,0,0,0,0,0,0,0,0,0,-1,1420,1338,0,0
203,-314,0,0,0,0,0,0,0,0,0,-1,1427,1338,0,0
210,-314,0,0,0,0,0,0,0,0,0,-1,1434,1338,0,0
217,-314,0,0,0,0,0,0,0,0,0,-1,1441,1338,0,0
224,-314,0,0,0,0,0,0,0,0,0,-1,1448,1338,0,0
231,-314,0,0,0,0,0,0,0,0,0,-1,1455,1338,0,0
238,-314,0,0,0,0,0,0,0,0,0,-1,1462,1338,0,0
245,-314,0,0,0,0,0,0,0,0,0,-1,1469,1338,0,0
252,-314,0,0,0,0,0,0,0,0,0,-1,1476,1338,0,0
259,-314,0,0,0,0,0,0,0,0,0,-1,1483,1338,0,0
266,-314,0,0,0,0,0,0,0,0,0,-1,1490,1338,0,0
273,-314,0,0,0,0,0,0,0,0,0,-1,1497,1338,0,0
280,-314,0,0,0,0,0,0,0,0,0,-1,1504,1338,0,0
287,-314,0,0,0,0,0,0,0,0,0,-1,1511,1338,0,0
294,-314,0,0,0,0,0,0,0,0,0,-1,1518,1338,0,0
301,-314,0,0,0,0,0,0,0,0,0,-1,1525,1338,0,0
308,-314,0,0,0,0,0,0,0,0,0,-1,1532,1338,0,0
315,-314,0,0,0,0,0,0,0,0,0,-1,1539,1338,0,0
322,-314,0,0,0,0,0,0,0,0,0,-1,1546,1338,0,0
329,-314,0,0,0,0,0,0,0,0,0,-1,1553,1338,0,0
336,-314,0,0,0,0,0,0,0,0,0,-1,1560,1338,0,0
343,-314,0,0,0,0,0,0,0,0,0,-1,1567,1338,0,0
350,-314,0,0,0,0,0,0,0,0,0,-1,1574,1338,0,0
357,-314,0,0,0,0,0,0,0,0,0,-1,1581,1338,0,0
364,-314,0,0,0,0,0,0,0,0,0,-1,1588,1338,0,0
371,-314,0,0,0,0,0,0,0,0,0,-1,1595,1338,0,0
378,-314,0,0,0,0,0,0,0,0,0,-1,1602,1338,0,0
385,-314,0,0,0,0,0,0,0,0,0,-1,1609,1338,0,0
392,-314,0,0,0,0,0,0,0,0,0,-1,1616,1338,0,0
399,-314,0,0,0,0,0,0,0,0,0,-1,1623,1338,0,0
406,-314,0,0,0,0,0,0,0,0,0,-1,1630,1338,0,0
413,-314,0,0,0,0,0,0,0,0,0,-1,1637,1338,0,0
420,-314,0,0,0,0,0,0,0,0,0,-1,1644,1338,0,0
427,-314,0,0,0,0,0,0,0,0,0,-1,1651,1338,0,0
434,-314,0,0,0,0,0,0,0,0,0,-1,1658,1338,0,0
441,-314,0,0,0,0,0,0,0,0,0,-1,1665,1338,0,0
448,-314,0,0,0,0,0,0,0,0,0,-1,1672,1338,0,0
455,-314,0,0,0,0,0,0,0,0,0,-1,1679,1338,0,0
462,-314,0,0,0,0,0,0,0,0,0,-1,1686,1338,0,0
469,-314,0,0,0,0,0,0,0,0,0,-1,1693,1338,0,0
476,-314,0,0,0,0,0,0,0,0,0,-1,1700,1338,0,0
483,-314,0,0,0,0,0,0,0,0,0,-1,1707,1338,0,0
490,-314,0,0,0,0,0,0,0,0,0,-1,1714,1338,0,0
497,-314,0,0,0,0,0,0,0,0,0,-1,1721,1338,0,0
504,-314,0,0,0,0,0,0,0,0,0,-1,1728,1338,0,0
511,-314,0,0,0,0,0,0,0,0,0,-1,1735,1338,0,0
518,-314,0,0,0,0,0,0,0,0,0,-1,1742,1338,0,0
525,-314,0,0,0,0,0,0,0,0,0,-1,1749,1338,0,0
532,-314,0,0,0,0,0,0,0,0,0,-1,1756,1338,0,0
539,-314,0,0,0,0,0,0,0,0,0,-1,1763,1338,0,0
546,-314,0,0,0,0,0,0,0,0,0,-1,1770,1338,0,0
553,-314,0,0,0,0,0,0,0,0,0,-1,1777,1338,0,0
560,-314,0,0,0,0,0,0,0,0,0,-1,1784,1338,0,0
567,-314,0,0,0,0,0,0,0,0,0,-1,1791,1338,0,0
574,-314,0,0,0,0,0,0,0,0,0,-1,1798,1338,0,0
581,-314,66.1637,1.86658,0,0,0,0,0,0,0,-1,1805,1338,66.1637,-1.86663
588,-314,66.4303,1.43481,0,0,0,0,0,0,0,-1,1812,1338,66.4303,-1.43487
595,-314,66.7465,0.982788,0,0,0,0,0,0,0,-1,1819,1338,66.7464,-0.982795
602,-314,66.322,1.38416,0,0,0,0,0,0,0,-1,1826,1338,66.322,-1.3842
609,-314,60.2225,1.27014,0,0,0,0,0,0,0,-1,1833,1338,60.2225,-1.27017
616,-314,48.1149,3.005,0,0,0,0,0,0,0,-1,1840,1338,48.1149,-3.00505
623,-314,38.7728,2.71741,0,0,0,0,0,0,0,-1,1847,1338,38.7728,-2.71737
630,-314,29.4308,6.23206,0,0,0,0,0,0,0,-1,1854,1338,29.4308,-6.23202
637,-314,22.1349,5.16418,0,0,0,0,0,0,0,-1,1861,1338,22.1349,-5.16414
644,-314,18.7517,6.2605,0,0,0,0,0,0,0,-1,1868,1338,18.7517,-6.26053
651,-314,23.1317,8.005,0,0,0,0,0,0,0,-1,1875,1338,23.1317,-8.00506
658,-314,45.4768,16.9601,0,0,0,0,0,0,0,-1,1882,1338,45.4769,-16.96
665,-314,45.407,16.2734,0.00589077,-0.00147618,-0.00109087,0.00604891,-0.00163432,-0.143962,0.00467362,0.0417779,1889,1338,45.407,-16.2734
672,-314,45.4321,15.5757,0.00326512,-0.000639454,-0.00118222,0.00359517,-0.000969505,-0.272247,0.00277695,0.0141697,1896,1338,45.4322,-15.5757
679,-314,45.3967,14.8268,0.00147495,-3.84768e-05,-0.00082319,0.00183639,-0.000399911,-0.413724,0.00137706,0.0113156,1903,1338,45.3967,-14.8268
686,-314,45.3323,14.0852,0.00143514,-5.4898e-05,-0.000584359,0.00163697,-0.000256731,-0.332564,0.00118619,0.0137636,1910,1338,45.3322,-14.0852
693,-314,45.313,13.3364,0.00151637,-7.16353e-05,-0.000385623,0.00160506,-0.000160325,-0.226059,0.00112729,0.0138767,1917,1338,45.313,-13.3364
700,-314,45.296,12.6028,0.00164698,-1.81287e-05,-0.000171031,0.00166437,-3.55145e-05,-0.101305,0.00112161,0.0152055,1924,1338,45.2961,-12.6028
707,-314,45.271,11.8767,0.00182549,6.26792e-05,7.15611e-05,0.00182839,5.9779e-05,0.040506,0.0011995,0.0148849,1931,1338,45.271,-11.8767
714,-314,45.2272,11.1879,0.00201334,0.000192337,0.000344453,0.00207631,0.000129359,0.180836,0.00134317,0.0124131,1938,1338,45.2271,-11.1878
721,-314,45.2209,10.5408,0.00231965,0.000363746,0.000639823,0.00251036,0.000173039,0.289678,0.00161898,0.0260507,1945,1338,45.221,-10.5408
728,-314,45.467,10.1917,0,0,0,0,0,0,0,-1,1952,1338,45.467,-10.1917
735,-314,26.3665,6.21582,0,0,0,0,0,0,0,-1,1959,1338,26.3664,-6.21581
742,-314,26.2235,6.0166,0,0,0,0,0,0,0,-1,1966,1338,26.2235,-6.01662
749,-314,26.2223,5.47046,0,0,0,0,0,0,0,-1,1973,1338,26.2223,-5.47041
756,-314,24.2521,5.93408,0,0,0,0,0,0,0,-1,1980,1338,24.252,-5.93413
763,-314,19.2207,4.07239,0,0,0,0,0,0,0,-1,1987,1338,19.2206,-4.07239
770,-314,0,0,0,0,0,0,0,0,0,-1,1994,1338,0,0
777,-314,0,0,0,0,0,0,0,0,0,-1,2001,1338,0,0
784,-314,0,0,0,0,0,0,0,0,0,-1,2008,1338,0,0
791,-314,0,0,0,0,0,0,0,0,0,-1,2015,1338,0,0
798,-314,0,0,0,0,0,0,0,0,0,-1,2022,1338,0,0
805,-314,0,0,0,0,0,0,0,0,0,-1,2029,1338,0,0
812,-314,0,0,0,0,0,0,0,0,0,-1,2036,1338,0,0
-700,-321,0,0,0,0,0,0,0,0,0,-1,524,1345,0,0
-693,-321,0,0,0,0,0,0,0,0,0,-1,531,1345,0,0
-686,-321,0,0,0,0,0,0,0,0,0,-1,538,1345,0,0
-679,-321,0,0,0,0,0,0,0,0,0,-1,545,1345,0,0
-672,-321,0,0,0,0,0,0,0,0,0,-1,552,1345,0,0
-665,-321,0,0,0,0,0,0,0,0,0,-1,559,1345,0,0
-658,-321,0,0,0,0,0,0,0,0,0,-1,566,1345,0,0
-651,-321,0,0,0,0,0,0,0,0,0,-1,573,1345,0,0
-644,-321,-58.7329,10.2313,0,0,0,0,0,0,0,-1,580,1345,-58.7329,-10.2313
-637,-321,-59.9981,9.06421,0,0,0,0,0,0,0,-1,587,1345,-59.9981,-9.06417
-630,-321,-61.377,8.07166,0,0,0,0,0,0,0,-1,594,1345,-61.3769,-8.07168
-623,-321,-13.2242,3.14148,0,0,0,0,0,0,0,-1,601,1345,-13.2243,-3.14146
-616,-321,-11.6754,3.13794,0,0,0,0,0,0,0,-1,608,1345,-11.6754,-3.13789
-609,-321,-7.95209,1.14758,0,0,0,0,0,0,0,-1,615,1345,-7.95208,-1.14757
-602,-321,-8.85791,2.50049,0,0,0,0,0,0,0,-1,622,1345,-8.85791,-2.50048
-595,-321,-19.8463,5.36584,0,0,0,0,0,0,0,-1,629,1345,-19.8462,-5.36589
-588,-321,-27.8144,9.21863,0,0,0,0,0,0,0,-1,636,1345,-27.8144,-9.21866
-581,-321,-27.8179,9.9928,0.00365208,0.00326425,0.00209313,0.00556026,0.00135607,0.739208,0.00334766,0.0145481,643,1345,-27.8179,-9.99276
-574,-321,-27.8834,10.762,0.00306038,0.00242759,0.00159814,0.00437314,0.00111483,0.687674,0.00262398,0.0153176,650,1345,-27.8834,-10.762
-567,-321,-27.904,11.5306,0.00275745,0.00168841,0.00129008,0.00361936,0.000826495,0.588998,0.00219003,0.0223347,657,1345,-27.904,-11.5307
-560,-321,-27.8573,12.3462,0.00269594,0.0010139,0.00114217,0.00327333,0.000436518,0.46805,0.00205224,0.0268263,664,1345,-27.8573,-12.3462
-553,-321,-27.9492,13.0439,0.00286345,0.000407903,0.00114557,0.00331489,-4.35344e-05,0.375387,0.00222458,0.0296142,671,1345,-27.9492,-13.0439
-546,-321,-28.0383,13.7716,0.00325626,-0.000163432,0.0012873,0.00368668,-0.000593846,0.322669,0.00267777,0.0270154,678,1345,-28.0383,-13.7716
-539,-321,-28.0361,14.5323,0.00391367,-0.000662135,0.00160649,0.00442136,-0.00116982,0.306089,0.00340516,0.0237007,685,1345,-28.0361,-14.5324
-532,-321,-27.9916,15.272,0.00495403,-0.00108966,0.00210618,0.00561559,-0.00175123,0.304349,0.00444402,0.0368461,692,1345,-27.9916,-15.272
-525,-321,-27.9784,16.0118,0,0,0,0,0,0,0,-1,699,1345,-27.9784,-16.0118
-518,-321,-10.3564,6.75696,0,0,0,0,0,0,0,-1,706,1345,-10.3564,-6.75694
-511,-321,-9.3302,5.29297,0,0,0,0,0,0,0,-1,713,1345,-9.33023,-5.29294
-504,-321,-10.4713,0.0145264,0,0,0,0,0,0,0,-1,720,1345,-10.4713,-0.0145296
-497,-321,-9.96771,0.313599,0,0,0,0,0,0,0,-1,727,1345,-9.96769,-0.313618
-490,-321,-10.7631,0.973511,0,0,0,0,0,0,0,-1,734,1345,-10.7631,-0.97353
-483,-321,-17.5908,0.2323,0,0,0,0,0,0,0,-1,741,1345,-17.5908,-0.232355
-476,-321,-17.2915,0.297363,0,0,0,0,0,0,0,-1,748,1345,-17.2915,-0.297342
-469,-321,-17.2441,0.478027,0,0,0,0,0,0,0,-1,755,1345,-17.2441,-0.477994
-462,-321,-17.1672,0.526489,0,0,0,0,0,0,0,-1,762,1345,-17.1672,-0.526533
-455,-321,0,0,0,0,0,0,0,0,0,-1,769,1345,0,0
-448,-321,0,0,0,0,0,0,0,0,0,-1,776,1345,0,0
-441,-321,0,0,0,0,0,0,0,0,0,-1,783,1345,0,0
-434,-321,0,0,0,0,0,0,0,0,0,-1,790,1345,0,0
-427,-321,0,0,0,0,0,0,0,0,0,-1,797,1345,0,0
-420,-321,0,0,0,0,0,0,0,0,0,-1,804,1345,0,0
-413,-321,0,0,0,0,0,0,0,0,0,-1,811,1345,0,0
-406,-321,0,0,0,0,0,0,0,0,0,-1,818,1345,0,0
-399,-321,0,0,0,0,0,0,0,0,0,-1,825,1345,0,0
-392,-321,0,0,0,0,0,0,0,0,0,-1,832,1345,0,0
-385,-321,0,0,0,0,0,0,0,0,0,-1,839,1345,0,0
-378,-321,0,0,0,0,0,0,0,0,0,-1,846,1345,0,0
-371,-321,0,0,0,0,0,0,0,0,0,-1,853,1345,0,0
-364,-321,0,0,0,0,0,0,0,0,0,-1,860,1345,0,0
-357,-321,0,0,0,0,0,0,0,0,0,-1,867,1345,0,0
-350,-321,0,0,0,0,0,0,0,0,0,-1,874,1345,0,0
-343,-321,0,0,0,0,0,0,0,0,0,-1,881,1345,0,0
-336,-321,0,0,0,0,0,0,0,0,0,-1,888,1345,0,0
-329,-321,0,0,0,0,0,0,0,0,0,-1,895,1345,0,0
-322,-321,0,0,0,0,0,0,0,0,0,-1,902,1345,0,0
-315,-321,0,0,0,0,0,0,0,0,0,-1,909,1345,0,0
-308,-321,0,0,0,0,0,0,0,0,0,-1,916,1345,0,0
-301,-321,0,0,0,0,0,0,0,0,0,-1,923,1345,0,0
-294,-321,0,0,0,0,0,0,0,0,0,-1,930,1345,0,0
-287,-321,0,0,0,0,0,0,0,0,0,-1,937,1345,0,0
-280,-321,0,0,0,0,0,0,0,0,0,-1,944,1345,0,0
-273,-321,0,0,0,0,0,0,0,0,0,-1,951,1345,0,0
-266,-321,0,0,0,0,0,0,0,0,0,-1,958,1345,0,0
-259,-321,0,0,0,0,0,0,0,0,0,-1,965,1345,0,0
-252,-321,0,0,0,0,0,0,0,0,0,-1,972,1345,0,0
-245,-321,0,0,0,0,0,0,0,0,0,-1,979,1345,0,0
-238,-321,0,0,0,0,0,0,0,0,0,-1,986,1345,0,0
-231,-321,0,0,0,0,0,0,0,0,0,-1,993,1345,0,0
-224,-321,0,0,0,0,0,0,0,0,0,-1,1000,1345,0,0
-217,-321,0,0,0,0,0,0,0,0,0,-1,1007,1345,0,0
-210,-321,0,0,0,0,0,0,0,0,0,-1,1014,1345,0,0
-203,-321,0,0,0,0,0,0,0,0,0,-1,1021,1345,0,0
-196,-321,0,0,0,0,0,0,0,0,0,-1,1028,1345,0,0
-189,-321,0,0,0,0,0,0,0,0,0,-1,1035,1345,0,0
-182,-321,0,0,0,0,0,0,0,0,0,-1,1042,1345,0,0
-175,-321,0,0,0,0,0,0,0,0,0,-1,1049,1345,0,0
-168,-321,0,0,0,0,0,0,0,0,0,-1,1056,1345,0,0
-161,-321,0,0,0,0,0,0,0,0,0,-1,1063,1345,0,0
-154,-321,0,0,0,0,0,0,0,0,0,-1,1070,1345,0,0
-147,-321,0,0,0,0,0,0,0,0,0,-1,1077,1345,0,0
-140,-321,0,0,0,0,0,0,0,0,0,-1,1084,1345,0,0
-133,-321,0,0,0,0,0,0,0,0,0,-1,1091,1345,0,0
-126,-321,0,0,0,0,0,0,0,0,0,-1,1098,1345,0,0
-119,-321,0,0,0,0,0,0,0,0,0,-1,1105,1345,0,0
-112,-321,0,0,0,0,0,0,0,0,0,-1,1112,1345,0,0
-105,-321,0,0,0,0,0,0,0,0,0,-1,1119,1345,0,0
-98,-321,0,0,0,0,0,0,0,0,0,-1,1126,1345,0,0
-91,-321,0,0,0,0,0,0,0,0,0,-1,1133,1345,0,0
-84,-321,0,0,0,0,0,0,0,0,0,-1,1140,1345,0,0
-77,-321,0,0,0,0,0,0,0,0,0,-1,1147,1345,0,0
-70,-321,0,0,0,0,0,0,0,0,0,-1,1154,1345,0,0
-63,-321,0,0,0,0,0,0,0,0,0,-1,1161,1345,0,0
-56,-321,0,0,0,0,0,0,0,0,0,-1,1168,1345,0,0
-49,-321,0,0,0,0,0,0,0,0,0,-1,1175,1345,0,0
-42,-321,0,0,0,0,0,0,0,0,0,-1,1182,1345,0,0
-35,-321,0,0,0,0,0,0,0,0,0,-1,1189,1345,0,0
-28,-321,0,0,0,0,0,0,0,0,0,-1,1196,1345,0,0
-21,-321,0,0,0,0,0,0,0,0,0,-1,1203,1345,0,0
-14,-321,0,0,0,0,0,0,0,0,0,-1,1210,1345,0,0
-7,-321,0,0,0,0,0,0,0,0,0,-1,1217,1345,0,0
0,-321,0,0,0,0,0,0,0,0,0,-1,1224,1345,0,0
7,-321,0,0,0,0,0,0,0,0,0,-1,1231,1345,0,0
14,-321,0,0,0,0,0,0,0,0,0,-1,1238,1345,0,0
21,-321,0,0,0,0,0,0,0,0,0,-1,1245,1345,0,0
28,-321,0,0,0,0,0,0,0,0,0,-1,1252,1345,0,0
35,-321,0,0,0,0,0,0,0,0,0,-1,1259,1345,0,0
42,-321,0,0,0,0,0,0,0,0,0,-1,1266,1345,0,0
49,-321,0,0,0,0,0,0,0,0,0,-1,1273,1345,0,0
56,-321,0,0,0,0,0,0,0,0,0,-1,1280,1345,0,0
63,-321,0,0,0,0,0,0,0,0,0,-1,1287,1345,0,0
70,-321,0,0,0,0,0,0,0,0,0,-1,1294,1345,0,0
77,-321,0,0,0,0,0,0,0,0,0,-1,1301,1345,0,0
84,-321,0,0,0,0,0,0,0,0,0,-1,1308,1345,0,0
91,-321,0,0,0,0,0,0,0,0,0,-1,1315,1345,0,0
98,-321,0,0,0,0,0,0,0,0,0,-1,1322,1345,0,0
105,-321,0,0,0,0,0,0,0,0,0,-1,1329,1345,0,0
112,-321,0,0,0,0,0,0,0,0,0,-1,1336,1345,0,0
119,-321,0,0,0,0,0,0,0,0,0,-1,1343,1345,0,0
126,-321,0,0,0,0,0,0,0,0,0,-1,1350,1345,0,0
133,-321,0,0,0,0,0,0,0,0,0,-1,1357,1345,0,0
140,-321,0,0,0,0,0,0,0,0,0,-1,1364,1345,0,0
147,-321,0,0,0,0,0,0,0,0,0,-1,1371,1345,0,0
154,-321,0,0,0,0,0,0,0,0,0,-1,1378,1345,0,0
161,-321,0,0,0,0,0,0,0,0,0,-1,1385,1345,0,0
168,-321,0,0,0,0,0,0,0,0,0,-1,1392,1345,0,0
175,-321,0,0,0,0,0,0,0,0,0,-1,1399,1345,0,0
182,-321,0,0,0,0,0,0,0,0,0,-1,1406,1345,0,0
189,-321,0,0,0,0,0,0,0,0,0,-1,1413,1345,0,0
196,-321,0,0,0,0,0,0,0,0,0,-1,1420,1345,0,0
203,-321,0,0,0,0,0,0,0,0,0,-1,1427,1345,0,0
210,-321,0,0,0,0,0,0,0,0,0,-1,1434,1345,0,0
217,-321,0,0,0,0,0,0,0,0,0,-1,1441,1345,0,0
224,-321,0,0,0,0,0,0,0,0,0,-1,1448,1345,0,0
231,-321,0,0,0,0,0,0,0,0,0,-1,1455,1345,0,0
238,-321,0,0,0,0,0,0,0,0,0,-1,1462,1345,0,0
245,-321,0,0,0,0,0,0,0,0,0,-1,1469,1345,0,0
252,-321,0,0,0,0,0,0,0,0,0,-1,1476,1345,0,0
259,-321,0,0,0,0,0,0,0,0,0,-1,1483,1345,0,0
266,-321,0,0,0,0,0,0,0,0,0,-1,1490,1345,0,0
273,-321,0,0,0,0,0,0,0,0,0,-1,1497,1345,0,0
280,-321,0,0,0,0,0,0,0,0,0,-1,1504,1345,0,0
287,-321,0,0,0,0,0,0,0,0,0,-1,1511,1345,0,0
294,-321,0,0,0,0,0,0,0,0,0,-1,1518,1345,0,0
301,-321,0,0,0,0,0,0,0,0,0,-1,1525,1345,0,0
308,-321,0,0,0,0,0,0,0,0,0,-1,1532,1345,0,0
315,-321,0,0,0,0,0,0,0,0,0,-1,1539,1345,0,0
322,-321,0,0,0,0,0,0,0,0,0,-1,1546,1345,0,0
329,-321,0,0,0,0,0,0,0,0,0,-1,1553,1345,0,0
336,-321,0,0,0,0,0,0,0,0,0,-1,1560,1345,0,0
343,-321,0,0,0,0,0,0,0,0,0,-1,1567,1345,0,0
350,-321,0,0,0,0,0,0,0,0,0,-1,1574,1345,0,0
357,-321,0,0,0,0,0,0,0,0,0,-1,1581,1345,0,0
364,-321,0,0,0,0,0,0,0,0,0,-1,1588,1345,0,0
371,-321,0,0,0,0,0,0,0,0,0,-1,1595,1345,0,0
378,-321,0,0,0,0,0,0,0,0,0,-1,1602,1345,0,0
385,-321,0,0,0,0,0,0,0,0,0,-1,1609,1345,0,0
392,-321,0,0,0,0,0,0,0,0,0,-1,1616,1345,0,0
399,-321,0,0,0,0,0,0,0,0,0,-1,1623,1345,0,0
406,-321,0,0,0,0,0,0,0,0,0,-1,1630,1345,0,0
413,-321,0,0,0,0,0,0,0,0,0,-1,1637,1345,0,0
420,-321,0,0,0,0,0,0,0,0,0,-1,1644,1345,0,0
427,-321,0,0,0,0,0,0,0,0,0,-1,1651,1345,0,0
434,-321,0,0,0,0,0,0,0,0,0,-1,1658,1345,0,0
441,-321,0,0,0,0,0,0,0,0,0,-1,1665,1345,0,0
448,-321,0,0,0,0,0,0,0,0,0,-1,1672,1345,0,0
455,-321,0,0,0,0,0,0,0,0,0,-1,1679,1345,0,0
462,-321,0,0,0,0,0,0,0,0,0,-1,1686,1345,0,0
469,-321,0,0,0,0,0,0,0,0,0,-1,1693,1345,0,0
476,-321,0,0,0,0,0,0,0,0,0,-1,1700,1345,0,0
483,-321,0,0,0,0,0,0,0,0,0,-1,1707,1345,0,0
490,-321,0,0,0,0,0,0,0,0,0,-1,1714,1345,0,0
497,-321,0,0,0,0,0,0,0,0,0,-1,1721,1345,0,0
504,-321,0,0,0,0,0,0,0,0,0,-1,1728,1345,0,0
511,-321,0,0,0,0,0,0,0,0,0,-1,1735,1345,0,0
518,-321,0,0,0,0,0,0,0,0,0,-1,1742,1345,0,0
525,-321,0,0,0,0,0,0,0,0,0,-1,1749,1345,0,0
532,-321,0,0,0,0,0,0,0,0,0,-1,1756,1345,0,0
539,-321,0,0,0,0,0,0,0,0,0,-1,1763,1345,0,0
546,-321,0,0,0,0,0,0,0,0,0,-1,1770,1345,0,0
553,-321,0,0,0,0,0,0,0,0,0,-1,1777,1345,0,0
560,-321,0,0,0,0,0,0,0,0,0,-1,1784,1345,0,0
567,-321,0,0,0,0,0,0,0,0,0,-1,1791,1345,0,0
574,-321,0,0,0,0,0,0,0,0,0,-1,1798,1345,0,0
581,-321,66.1073,1.6543,0,0,0,0,0,0,0,-1,1805,1345,66.1073,-1.65427
588,-321,66.6576,0.7948,0,0,0,0,0,0,0,-1,1812,1345,66.6575,-0.794774
595,-321,67.2585,-0.216431,0,0,0,0,0,0,0,-1,1819,1345,67.2586,0.216484
602,-321,60.3523,1.24133,0,0,0,0,0,0,0,-1,1826,1345,60.3523,-1.2413
609,-321,48.311,3.39575,0,0,0,0,0,0,0,-1,1833,1345,48.311,-3.39571
616,-321,37.8107,2.58704,0,0,0,0,0,0,0,-1,1840,1345,37.8106,-2.58705
623,-321,37.6854,3.68933,0,0,0,0,0,0,0,-1,1847,1345,37.6854,-3.68931
630,-321,23.6674,4.34106,0,0,0,0,0,0,0,-1,1854,1345,23.6674,-4.34112
637,-321,21.7925,6.79224,0,0,0,0,0,0,0,-1,1861,1345,21.7925,-6.7922
644,-321,16.8844,6.71973,0,0,0,0,0,0,0,-1,1868,1345,16.8844,-6.71971
651,-321,27.4924,10.0319,0,0,0,0,0,0,0,-1,1875,1345,27.4924,-10.0319
658,-321,44.5847,17.0474,0,0,0,0,0,0,0,-1,1882,1345,44.5847,-17.0473
665,-321,44.6633,16.3654,0.00408312,-0.000913492,-0.000519578,0.00413658,-0.000966949,-0.102525,0.00313022,0.0281421,1889,1345,44.6633,-16.3654
672,-321,44.7109,15.595,0.00224386,-0.000319116,-0.000724919,0.00243469,-0.000509945,-0.257403,0.00181712,0.0142885,1896,1345,44.711,-15.595
679,-321,44.6913,14.8582,0.00128864,-2.55337e-05,-0.000627052,0.00153983,-0.000276718,-0.381006,0.00113014,0.0125132,1903,1345,44.6912,-14.8581
686,-321,44.6226,14.1213,0.00144079,-5.78978e-05,-0.000554718,0.00162377,-0.000240878,-0.318623,0.00117109,0.0142683,1910,1345,44.6225,-14.1213
693,-321,44.5941,13.3998,0.00162181,-4.20133e-05,-0.000456243,0.0017387,-0.000158909,-0.250818,0.00121557,0.0137534,1917,1345,44.5941,-13.3998
700,-321,44.5765,12.6597,0.00183898,1.16478e-05,-0.000327334,0.00189585,-4.52183e-05,-0.172008,0.00127924,0.0131674,1924,1345,44.5765,-12.6597
707,-321,44.5573,11.9253,0.00207552,9.01798e-05,-0.000153278,0.00208728,7.84157e-05,-0.0765998,0.00136613,0.0153757,1931,1345,44.5573,-11.9254
714,-321,44.5161,11.2153,0.0023176,0.000215022,5.91831e-05,0.00231926,0.000213357,0.0281182,0.00148019,0.0145471,1938,1345,44.5161,-11.2154
721,-321,44.4567,10.5181,0.00272583,0.000323237,0.000339106,0.00277278,0.000276293,0.137562,0.00176365,0.040563,1945,1345,44.4567,-10.5181
728,-321,44.4725,9.87354,0,0,0,0,0,0,0,-1,1952,1345,44.4726,-9.8735
735,-321,22.0081,5.65479,0,0,0,0,0,0,0,-1,1959,1345,22.008,-5.65481
742,-321,24.5398,5.05725,0,0,0,0,0,0,0,-1,1966,1345,24.5398,-5.05729
749,-321,24.0675,5.4458,0,0,0,0,0,0,0,-1,1973,1345,24.0675,-5.44581
756,-321,19.6251,4.98315,0,0,0,0,0,0,0,-1,1980,1345,19.6251,-4.98311
763,-321,19.6747,4.61438,0,0,0,0,0,0,0,-1,1987,1345,19.6747,-4.61436
770,-321,0,0,0,0,0,0,0,0,0,-1,1994,1345,0,0
777,-321,0,0,0,0,0,0,0,0,0,-1,2001,1345,0,0
784,-321,0,0,0,0,0,0,0,0,0,-1,2008,1345,0,0
791,-321,0,0,0,0,0,0,0,0,0,-1,2015,1345,0,0
798,-321,0,0,0,0,0,0,0,0,0,-1,2022,1345,0,0
805,-321,0,0,0,0,0,0,0,0,0,-1,2029,1345,0,0
812,-321,0,0,0,0,0,0,0,0,0,-1,2036,1345,0,0
-700,-328,0,0,0,0,0,0,0,0,0,-1,524,1352,0,0
-693,-328,0,0,0,0,0,0,0,0,0,-1,531,1352,0,0
-686,-328,0,0,0,0,0,0,0,0,0,-1,538,1352,0,0
-679,-328,0,0,0,0,0,0,0,0,0,-1,545,1352,0,0
-672,-328,0,0,0,0,0,0,0,0,0,-1,552,1352,0,0
-665,-328,0,0,0,0,0,0,0,0,0,-1,559,1352,0,0
-658,-328,0,0,0,0,0,0,0,0,0,-1,566,1352,0,0
-651,-328,0,0,0,0,0,0,0,0,0,-1,573,1352,0,0
-644,-328,0,0,0,0,0,0,0,0,0,-1,580,1352,0,0
-637,-328,-61.3883,10.1125,0,0,0,0,0,0,0,-1,587,1352,-61.3883,-10.1126
-630,-328,-62.8012,9.14563,0,0,0,0,0,0,0,-1,594,1352,-62.8012,-9.14564
-623,-328,-10.7739,4.55042,0,0,0,0,0,0,0,-1,601,1352,-10.7739,-4.55041
-616,-328,-8.22198,-0.25708,0,0,0,0,0,0,0,-1,608,1352,-8.22201,0.257067
-609,-328,-7.87439,0.192871,0,0,0,0,0,0,0,-1,615,1352,-7.87441,-0.192822
-602,-328,-7.63062,1.31665,0,0,0,0,0,0,0,-1,622,1352,-7.63064,-1.3166
-595,-328,-9.42639,2.93494,0,0,0,0,0,0,0,-1,629,1352,-9.42638,-2.93499
-588,-328,-27.2052,8.99023,0,0,0,0,0,0,0,-1,636,1352,-27.2052,-8.99026
-581,-328,-27.0946,9.98254,0.00432279,0.0040632,0.00264176,0.00683794,0.00154805,0.760852,0.00414023,0.0284561,643,1352,-27.0946,-9.98253
-574,-328,-27.112,10.8081,0.00346091,0.00303773,0.00199438,0.0052549,0.00124375,0.732549,0.00317106,0.0146201,650,1352,-27.112,-10.8082
-567,-328,-27.1404,11.587,0.00297316,0.00218433,0.00157978,0.00420702,0.00095047,0.663068,0.00254766,0.0190592,657,1352,-27.1405,-11.587
-560,-328,-27.0988,12.3937,0.0027608,0.0014326,0.00135317,0.00360404,0.00058935,0.557278,0.00223233,0.0268875,664,1352,-27.0988,-12.3937
-553,-328,-27.1817,13.093,0.00278624,0.000764756,0.00127881,0.00340552,0.000145482,0.450975,0.00222344,0.0307488,671,1352,-27.1817,-13.093
-546,-328,-27.2484,13.8092,0.00304751,0.000167532,0.00134773,0.00357982,-0.000364776,0.376159,0.00251696,0.0289808,678,1352,-27.2484,-13.8092
-539,-328,-27.2739,14.5818,0.00354501,-0.000353349,0.00157572,0.00410227,-0.000910603,0.339922,0.00308353,0.0241766,685,1352,-27.2739,-14.5818
-532,-328,-27.2847,15.3612,0.004355,-0.000799943,0.00196331,0.00501758,-0.00146252,0.325479,0.00392448,0.0193228,692,1352,-27.2847,-15.3612
-525,-328,-27.3051,16.1936,0.00537931,-0.00118448,0.00255447,0.00625628,-0.00206145,0.3307,0.00500167,0.0346651,699,1352,-27.3051,-16.1936
-518,-328,-27.4511,17.0564,0,0,0,0,0,0,0,-1,706,1352,-27.4511,-17.0565
-511,-328,-9.39868,7.16113,0,0,0,0,0,0,0,-1,713,1352,-9.39869,-7.16113
-504,-328,-8.60626,-0.905762,0,0,0,0,0,0,0,-1,720,1352,-8.60623,0.905787
-497,-328,-9.29102,-0.0517578,0,0,0,0,0,0,0,-1,727,1352,-9.29104,0.0518175
-490,-328,-10.0663,0.882813,0,0,0,0,0,0,0,-1,734,1352,-10.0663,-0.882795
-483,-328,-10.8181,1.72375,0,0,0,0,0,0,0,-1,741,1352,-10.8181,-1.72374
-476,-328,-16.8951,-0.150757,0,0,0,0,0,0,0,-1,748,1352,-16.8951,0.150795
-469,-328,-16.8412,0.00158691,0,0,0,0,0,0,0,-1,755,1352,-16.8412,-0.00161515
-462,-328,-16.3546,-0.203491,0,0,0,0,0,0,0,-1,762,1352,-16.3545,0.203532
-455,-328,0,0,0,0,0,0,0,0,0,-1,769,1352,0,0
-448,-328,0,0,0,0,0,0,0,0,0,-1,776,1352,0,0
-441,-328,0,0,0,0,0,0,0,0,0,-1,783,1352,0,0
-434,-328,0,0,0,0,0,0,0,0,0,-1,790,1352,0,0
-427,-328,0,0,0,0,0,0,0,0,0,-1,797,1352,0,0
-420,-328,0,0,0,0,0,0,0,0,0,-1,804,1352,0,0
-413,-328,0,0,0,0,0,0,0,0,0,-1,811,1352,0,0
-406,-328,0,0,0,0,0,0,0,0,0,-1,818,1352,0,0
-399,-328,0,0,0,0,0,0,0,0,0,-1,825,1352,0,0
-392,-328,0,0,0,0,0,0,0,0,0,-1,832,1352,0,0
-385,-328,0,0,0,0,0,0,0,0,0,-1,839,1352,0,0
-378,-328,0,0,0,0,0,0,0,0,0,-1,846,1352,0,0
-371,-328,0,0,0,0,0,0,0,0,0,-1,853,1352,0,0
-364,-328,0,0,0,0,0,0,0,0,0,-1,860,1352,0,0
-357,-328,0,0,0,0,0,0,0,0,0,-1,867,1352,0,0
-350,-328,0,0,0,0,0,0,0,0,0,-1,874,1352,0,0
-343,-328,0,0,0,0,0,0,0,0,0,-1,881,1352,0,0
-336,-328,0,0,0,0,0,0,0,0,0,-1,888,1352,0,0
-329,-328,0,0,0,0,0,0,0,0,0,-1,895,1352,0,0
-322,-328,0,0,0,0,0,0,0,0,0,-1,902,1352,0,0
-315,-328,0,0,0,0,0,0,0,0,0,-1,909,1352,0,0
-308,-328,0,0,0,0,0,0,0,0,0,-1,916,1352,0,0
-301,-328,0,0,0,0,0,0,0,0,0,-1,923,1352,0,0
-294,-328,0,0,0,0,0,0,0,0,0,-1,930,1352,0,0
-287,-328,0,0,0,0,0,0,0,0,0,-1,937,1352,0,0
-280,-328,0,0,0,0,0,0,0,0,0,-1,944,1352,0,0
-273,-328,0,0,0,0,0,0,0,0,0,-1,951,1352,0,0
-266,-328,0,0,0,0,0,0,0,0,0,-1,958,1352,0,0
-259,-328,0,0,0,0,0,0,0,0,0,-1,965,1352,0,0
-252,-328,0,0,0,0,0,0,0,0,0,-1,972,1352,0,0
-245,-328,0,0,0,0,0,0,0,0,0,-1,979,1352,0,0
-238,-328,0,0,0,0,0,0,0,0,0,-1,986,1352,0,0
-231,-328,0,0,0,0,0,0,0,0,0,-1,993,1352,0,0
-224,-328,0,0,0,0,0,0,0,0,0,-1,1000,1352,0,0
-217,-328,0,0,0,0,0,0,0,0,0,-1,1007,1352,0,0
-210,-328,0,0,0,0,0,0,0,0,0,-1,1014,1352,0,0
-203,-328,0,0,0,0,0,0,0,0,0,-1,1021,1352,0,0
-196,-328,0,0,0,0,0,0,0,0,0,-1,1028,1352,0,0
-189,-328,0,0,0,0,0,0,0,0,0,-1,1035,1352,0,0
-182,-328,0,0,0,0,0,0,0,0,0,-1,1042,1352,0,0
-175,-328,0,0,0,0,0,0,0,0,0,-1,1049,1352,0,0
-168,-328,0,0,0,0,0,0,0,0,0,-1,1056,1352,0,0
-161,-328,0,0,0,0,0,0,0,0,0,-1,1063,1352,0,0
-154,-328,0,0,0,0,0,0,0,0,0,-1,1070,1352,0,0
-147,-328,0,0,0,0,0,0,0,0,0,-1,1077,1352,0,0
-140,-328,0,0,0,0,0,0,0,0,0,-1,1084,1352,0,0
-133,-328,0,0,0,0,0,0,0,0,0,-1,1091,1352,0,0
-126,-328,0,0,0,0,0,0,0,0,0,-1,1098,1352,0,0
-119,-328,0,0,0,0,0,0,0,0,0,-1,1105,1352,0,0
-112,-328,0,0,0,0,0,0,0,0,0,-1,1112,1352,0,0
-105,-328,0,0,0,0,0,0,0,0,0,-1,1119,1352,0,0
-98,-328,0,0,0,0,0,0,0,0,0,-1,1126,1352,0,0
-91,-328,0,0,0,0,0,0,0,0,0,-1,1133,1352,0,0
-84,-328,0,0,0,0,0,0,0,0,0,-1,1140,1352,0,0
-77,-328,0,0,0,0,0,0,0,0,0,-1,1147,1352,0,0
-70,-328,0,0,0,0,0,0,0,0,0,-1,1154,1352,0,0
-63,-328,0,0,0,0,0,0,0,0,0,-1,1161,1352,0,0
-56,-328,0,0,0,0,0,0,0,0,0,-1,1168,1352,0,0
-49,-328,0,0,0,0,0,0,0,0,0,-1,1175,1352,0,0
-42,-328,0,0,0,0,0,0,0,0,0,-1,1182,1352,0,0
-35,-328,0,0,0,0,0,0,0,0,0,-1,1189,1352,0,0
-28,-328,0,0,0,0,0,0,0,0,0,-1,1196,1352,0,0
-21,-328,0,0,0,0,0,0,0,0,0,-1,1203,1352,0,0
-14,-328,0,0,0,0,0,0,0,0,0,-1,1210,1352,0,0
-7,-328,0,0,0,0,0,0,0,0,0,-1,1217,1352,0,0
0,-328,0,0,0,0,0,0,0,0,0,-1,1224,1352,0,0
7,-328,0,0,0,0,0,0,0,0,0,-1,1231,1352,0,0
14,-328,0,0,0,0,0,0,0,0,0,-1,1238,1352,0,0
21,-328,0,0,0,0,0,0,0,0,0,-1,1245,1352,0,0
28,-328,0,0,0,0,0,0,0,0,0,-1,1252,1352,0,0
35,-328,0,0,0,0,0,0,0,0,0,-1,1259,1352,0,0
42,-328,0,0,0,0,0,0,0,0,0,-1,1266,1352,0,0
49,-328,0,0,0,0,0,0,0,0,0,-1,1273,1352,0,0
56,-328,0,0,0,0,0,0,0,0,0,-1,1280,1352,0,0
63,-328,0,0,0,0,0,0,0,0,0,-1,1287,1352,0,0
70,-328,0,0,0,0,0,0,0,0,0,-1,1294,1352,0,0
77,-328,0,0,0,0,0,0,0,0,0,-1,1301,1352,0,0
84,-328,0,0,0,0,0,0,0,0,0,-1,1308,1352,0,0
91,-328,0,0,0,0,0,0,0,0,0,-1,1315,1352,0,0
98,-328,0,0,0,0,0,0,0,0,0,-1,1322,1352,0,0
105,-328,0,0,0,0,0,0,0,0,0,-1,1329,1352,0,0
112,-328,0,0,0,0,0,0,0,0,0,-1,1336,1352,0,0
119,-328,0,0,0,0,0,0,0,0,0,-1,1343,1352,0,0
126,-328,0,0,0,0,0,0,0,0,0,-1,1350,1352,0,0
133,-328,0,0,0,0,0,0,0,0,0,-1,1357,1352,0,0
140,-328,0,0,0,0,0,0,0,0,0,-1,1364,1352,0,0
147,-328,0,0,0,0,0,0,0,0,0,-1,1371,1352,0,0
154,-328,0,0,0,0,0,0,0,0,0,-1,1378,1352,0,0
161,-328,0,0,0,0,0,0,0,0,0,-1,1385,1352,0,0
168,-328,0,0,0,0,0,0,0,0,0,-1,1392,1352,0,0
175,-328,0,0,0,0,0,0,0,0,0,-1,1399,1352,0,0
182,-328,0,0,0,0,0,0,0,0,0,-1,1406,1352,0,0
189,-328,0,0,0,0,0,0,0,0,0,-1,1413,1352,0,0
196,-328,0,0,0,0,0,0,0,0,0,-1,1420,1352,0,0
203,-328,0,0,0,0,0,0,0,0,0,-1,1427,1352,0,0
210,-328,0,0,0,0,0,0,0,0,0,-1,1434,1352,0,0
217,-328,0,0,0,0,0,0,0,0,0,-1,1441,1352,0,0
224,-328,0,0,0,0,0,0,0,0,0,-1,1448,1352,0,0
231,-328,0,0,0,0,0,0,0,0,0,-1,1455,1352,0,0
238,-328,0,0,0,0,0,0,0,0,0,-1,1462,1352,0,0
245,-328,0,0,0,0,0,0,0,0,0,-1,1469,1352,0,0
252,-328,0,0,0,0,0,0,0,0,0,-1,1476,1352,0,0
259,-328,0,0,0,0,0,0,0,0,0,-1,1483,1352,0,0
266,-328,0,0,0,0,0,0,0,0,0,-1,1490,1352,0,0
273,-328,0,0,0,0,0,0,0,0,0,-1,1497,1352,0,0
280,-328,0,0,0,0,0,0,0,0,0,-1,1504,1352,0,0
287,-328,0,0,0,0,0,0,0,0,0,-1,1511,1352,0,0
294,-328,0,0,0,0,0,0,0,0,0,-1,1518,1352,0,0
301,-328,0,0,0,0,0,0,0,0,0,-1,1525,1352,0,0
308,-328,0,0,0,0,0,0,0,0,0,-1,1532,1352,0,0
315,-328,0,0,0,0,0,0,0,0,0,-1,1539,1352,0,0
322,-328,0,0,0,0,0,0,0,0,0,-1,1546,1352,0,0
329,-328,0,0,0,0,0,0,0,0,0,-1,1553,1352,0,0
336,-328,0,0,0,0,0,0,0,0,0,-1,1560,1352,0,0
343,-328,0,0,0,0,0,0,0,0,0,-1,1567,1352,0,0
350,-328,0,0,0,0,0,0,0,0,0,-1,1574,1352,0,0
357,-328,0,0,0,0,0,0,0,0,0,-1,1581,1352,0,0
364,-328,0,0,0,0,0,0,0,0,0,-1,1588,1352,0,0
371,-328,0,0,0,0,0,0,0,0,0,-1,1595,1352,0,0
378,-328,0,0,0,0,0,0,0,0,0,-1,1602,1352,0,0
385,-328,0,0,0,0,0,0,0,0,0,-1,1609,1352,0,0
392,-328,0,0,0,0,0,0,0,0,0,-1,1616,1352,0,0
399,-328,0,0,0,0,0,0,0,0,0,-1,1623,1352,0,0
406,-328,0,0,0,0,0,0,0,0,0,-1,1630,1352,0,0
413,-328,0,0,0,0,0,0,0,0,0,-1,1637,1352,0,0
420,-328,0,0,0,0,0,0,0,0,0,-1,1644,1352,0,0
427,-328,0,0,0,0,0,0,0,0,0,-1,1651,1352,0,0
434,-328,0,0,0,0,0,0,0,0,0,-1,1658,1352,0,0
441,-328,0,0,0,0,0,0,0,0,0,-1,1665,1352,0,0
448,-328,0,0,0,0,0,0,0,0,0,-1,1672,1352,0,0
455,-328,0,0,0,0,0,0,0,0,0,-1,1679,1352,0,0
462,-328,0,0,0,0,0,0,0,0,0,-1,1686,1352,0,0
469,-328,0,0,0,0,0,0,0,0,0,-1,1693,1352,0,0
476,-328,0,0,0,0,0,0,0,0,0,-1,1700,1352,0,0
483,-328,0,0,0,0,0,0,0,0,0,-1,1707,1352,0,0
490,-328,0,0,0,0,0,0,0,0,0,-1,1714,1352,0,0
497,-328,0,0,0,0,0,0,0,0,0,-1,1721,1352,0,0
504,-328,0,0,0,0,0,0,0,0,0,-1,1728,1352,0,0
511,-328,0,0,0,0,0,0,0,0,0,-1,1735,1352,0,0
518,-328,0,0,0,0,0,0,0,0,0,-1,1742,1352,0,0
525,-328,0,0,0,0,0,0,0,0,0,-1,1749,1352,0,0
532,-328,0,0,0,0,0,0,0,0,0,-1,1756,1352,0,0
539,-328,0,0,0,0,0,0,0,0,0,-1,1763,1352,0,0
546,-328,0,0,0,0,0,0,0,0,0,-1,1770,1352,0,0
553,-328,0,0,0,0,0,0,0,0,0,-1,1777,1352,0,0
560,-328,0,0,0,0,0,0,0,0,0,-1,1784,1352,0,0
567,-328,0,0,0,0,0,0,0,0,0,-1,1791,1352,0,0
574,-328,65.0565,3.09021,0,0,0,0,0,0,0,-1,1798,1352,65.0565,-3.09019
581,-328,66.3988,1.74048,0,0,0,0,0,0,0,-1,1805,1352,66.3989,-1.74051
588,-328,67.0304,0.506714,0,0,0,0,0,0,0,-1,1812,1352,67.0304,-0.506669
595,-328,60.5831,1.52856,0,0,0,0,0,0,0,-1,1819,1352,60.5832,-1.52861
602,-328,48.7734,3.66785,0,0,0,0,0,0,0,-1,1826,1352,48.7734,-3.66782
609,-328,37.0468,1.17407,0,0,0,0,0,0,0,-1,1833,1352,37.0468,-1.17407
616,-328,36.999,2.42859,0,0,0,0,0,0,0,-1,1840,1352,36.999,-2.42862
623,-328,34.345,5.14722,0,0,0,0,0,0,0,-1,1847,1352,34.3449,-5.14718
630,-328,22.0211,5.026,0,0,0,0,0,0,0,-1,1854,1352,22.0212,-5.02603
637,-328,21.15,5.53699,0,0,0,0,0,0,0,-1,1861,1352,21.15,-5.53704
644,-328,16.9579,6.3396,0,0,0,0,0,0,0,-1,1868,1352,16.9579,-6.33959
651,-328,36.2629,14.6906,0,0,0,0,0,0,0,-1,1875,1352,36.263,-14.6905
658,-328,44.0148,17.0568,0,0,0,0,0,0,0,-1,1882,1352,44.0147,-17.0567
665,-328,44.0095,16.3517,0.0018404,-0.000329742,-0.000294603,0.00187968,-0.000369024,-0.132557,0.00139253,0.0147692,1889,1352,44.0095,-16.3517
672,-328,43.9822,15.6366,0.00126541,-0.000101208,-0.000485913,0.00142057,-0.000256363,-0.309074,0.00104305,0.0127897,1896,1352,43.9821,-15.6366
679,-328,43.9668,14.8978,0.00115848,-1.60397e-05,-0.000506529,0.00134675,-0.000204309,-0.355861,0.000973112,0.0159766,1903,1352,43.9668,-14.8978
686,-328,43.9117,14.1638,0.00148981,-1.19884e-05,-0.000547002,0.00166792,-0.0001901,-0.314787,0.00118043,0.0165853,1910,1352,43.9117,-14.1638
693,-328,43.8781,13.4475,0.00183837,3.55359e-05,-0.000567925,0.00200236,-0.000128454,-0.281106,0.00137972,0.0106483,1917,1352,43.8781,-13.4475
700,-328,43.8582,12.712,0.00220834,0.000100207,-0.000551509,0.0023439,-3.53558e-05,-0.241026,0.00157452,0.0142479,1924,1352,43.8581,-12.712
707,-328,43.8484,11.9821,0.00255716,0.000182319,-0.00047133,0.00264729,9.21952e-05,-0.188931,0.00173494,0.0167555,1931,1352,43.8484,-11.9821
714,-328,43.8108,11.2533,0.00291191,0.000320434,-0.000358933,0.00296071,0.000271639,-0.135117,0.00188978,0.0171498,1938,1352,43.8107,-11.2533
721,-328,43.7805,10.4067,0,0,0,0,0,0,0,-1,1945,1352,43.7806,-10.4068
728,-328,29.2787,6.74695,0,0,0,0,0,0,0,-1,1952,1352,29.2787,-6.74693
735,-328,20.8927,5.23523,0,0,0,0,0,0,0,-1,1959,1352,20.8927,-5.23528
742,-328,20.3547,4.11316,0,0,0,0,0,0,0,-1,1966,1352,20.3547,-4.11321
749,-328,20.0669,5.66321,0,0,0,0,0,0,0,-1,1973,1352,20.0669,-5.66319
756,-328,19.9543,5.50464,0,0,0,0,0,0,0,-1,1980,1352,19.9543,-5.50463
763,-328,0,0,0,0,0,0,0,0,0,-1,1987,1352,0,0
770,-328,0,0,0,0,0,0,0,0,0,-1,1994,1352,0,0
777,-328,0,0,0,0,0,0,0,0,0,-1,2001,1352,0,0
784,-328,0,0,0,0,0,0,0,0,0,-1,2008,1352,0,0
791,-328,0,0,0,0,0,0,0,0,0,-1,2015,1352,0,0
798,-328,0,0,0,0,0,0,0,0,0,-1,2022,1352,0,0
805,-328,0,0,0,0,0,0,0,0,0,-1,2029,1352,0,0
812,-328,0,0,0,0,0,0,0,0,0,-1,2036,1352,0,0
-700,-335,0,0,0,0,0,0,0,0,0,-1,524,1359,0,0
-693,-335,0,0,0,0,0,0,0,0,0,-1,531,1359,0,0
-686,-335,0,0,0,0,0,0,0,0,0,-1,538,1359,0,0
-679,-335,0,0,0,0,0,0,0,0,0,-1,545,1359,0,0
-672,-335,0,0,0,0,0,0,0,0,0,-1,552,1359,0,0
-665,-335,0,0,0,0,0,0,0,0,0,-1,559,1359,0,0
-658,-335,0,0,0,0,0,0,0,0,0,-1,566,1359,0,0
-651,-335,0,0,0,0,0,0,0,0,0,-1,573,1359,0,0
-644,-335,0,0,0,0,0,0,0,0,0,-1,580,1359,0,0
-637,-335,-62.7114,11.0491,0,0,0,0,0,0,0,-1,587,1359,-62.7114,-11.0491
-630,-335,-64.2532,9.91284,0,0,0,0,0,0,0,-1,594,1359,-64.2532,-9.91285
-623,-335,-8.43304,1.09509,0,0,0,0,0,0,0,-1,601,1359,-8.43301,-1.09507
-616,-335,-7.80927,-0.485352,0,0,0,0,0,0,0,-1,608,1359,-7.80926,0.485291
-609,-335,-7.12256,-2.03601,0,0,0,0,0,0,0,-1,615,1359,-7.12253,2.03601
-602,-335,-9.39935,2.25146,0,0,0,0,0,0,0,-1,622,1359,-9.39935,-2.25145
-595,-335,-9.54767,3.01917,0,0,0,0,0,0,0,-1,629,1359,-9.54768,-3.01911
-588,-335,-26.1543,8.95166,0,0,0,0,0,0,0,-1,636,1359,-26.1543,-8.95161
-581,-335,-26.3248,10.0035,0,0,0,0,0,0,0,-1,643,1359,-26.3248,-10.0036
-574,-335,-26.3484,10.8057,0.00381366,0.00350451,0.00227659,0.00594092,0.00137725,0.751501,0.00359068,0.0134855,650,1359,-26.3484,-10.8057
-567,-335,-26.36,11.6105,0.00315565,0.00257133,0.0017788,0.00466612,0.00106086,0.704002,0.00282434,0.0170106,657,1359,-26.36,-11.6104
-560,-335,-26.3542,12.3202,0.00281179,0.00176081,0.00149353,0.00386958,0.000703022,0.616241,0.00238024,0.0257631,664,1359,-26.3542,-12.3202
-553,-335,-26.4288,13.0658,0.00272877,0.00105172,0.00136742,0.00349428,0.0002862,0.510357,0.00224022,0.0294851,671,1359,-26.4288,-13.0657
-546,-335,-26.4938,13.8612,0.00289294,0.000435541,0.00139273,0.00352149,-0.000193014,0.423944,0.00241457,0.027147,678,1359,-26.4938,-13.8612
-539,-335,-26.5186,14.6185,0.00328414,-9.44102e-05,0.0015701,0.00390113,-0.000711403,0.374426,0.00286746,0.0220242,685,1359,-26.5186,-14.6186
-532,-335,-26.566,15.4264,0.0039502,-0.000532818,0.00190373,0.00464953,-0.00123215,0.352046,0.00358176,0.0157978,692,1359,-26.566,-15.4264
-525,-335,-26.5436,16.2263,0.0048379,-0.00087883,0.00242138,0.00572564,-0.00176657,0.35141,0.00452246,0.01272,699,1359,-26.5437,-16.2263
-518,-335,-26.6617,16.9467,0,0,0,0,0,0,0,-1,706,1359,-26.6617,-16.9466
-511,-335,-17.3098,11.6718,0,0,0,0,0,0,0,-1,713,1359,-17.3097,-11.6717
-504,-335,-9.35767,5.99695,0,0,0,0,0,0,0,-1,720,1359,-9.35767,-5.99694
-497,-335,-8.75024,-0.650513,0,0,0,0,0,0,0,-1,727,1359,-8.75024,0.650521
-490,-335,-9.51971,0.417603,0,0,0,0,0,0,0,-1,734,1359,-9.51974,-0.41765
-483,-335,-10.2883,1.29224,0,0,0,0,0,0,0,-1,741,1359,-10.2883,-1.2922
-476,-335,-11.9938,-0.173462,0,0,0,0,0,0,0,-1,748,1359,-11.9938,0.173429
-469,-335,-12.8704,-0.204102,0,0,0,0,0,0,0,-1,755,1359,-12.8704,0.204117
-462,-335,-13.486,0.0218506,0,0,0,0,0,0,0,-1,762,1359,-13.4859,-0.0217908
-455,-335,-14.1504,0.549561,0,0,0,0,0,0,0,-1,769,1359,-14.1504,-0.549583
-448,-335,0,0,0,0,0,0,0,0,0,-1,776,1359,0,0
-441,-335,0,0,0,0,0,0,0,0,0,-1,783,1359,0,0
-434,-335,0,0,0,0,0,0,0,0,0,-1,790,1359,0,0
-427,-335,0,0,0,0,0,0,0,0,0,-1,797,1359,0,0
-420,-335,0,0,0,0,0,0,0,0,0,-1,804,1359,0,0
-413,-335,0,0,0,0,0,0,0,0,0,-1,811,1359,0,0
-406,-335,0,0,0,0,0,0,0,0,0,-1,818,1359,0,0
-399,-335,0,0,0,0,0,0,0,0,0,-1,825,1359,0,0
-392,-335,0,0,0,0,0,0,0,0,0,-1,832,1359,0,0
-385,-335,0,0,0,0,0,0,0,0,0,-1,839,1359,0,0
-378,-335,0,0,0,0,0,0,0,0,0,-1,846,1359,0,0
-371,-335,0,0,0,0,0,0,0,0,0,-1,853,1359,0,0
-364,-335,0,0,0,0,0,0,0,0,0,-1,860,1359,0,0
-357,-335,0,0,0,0,0,0,0,0,0,-1,867,1359,0,0
-350,-335,0,0,0,0,0,0,0,0,0,-1,874,1359,0,0
-343,-335,0,0,0,0,0,0,0,0,0,-1,881,1359,0,0
-336,-335,0,0,0,0,0,0,0,0,0,-1,888,1359,0,0
-329,-335,0,0,0,0,0,0,0,0,0,-1,895,1359,0,0
-322,-335,0,0,0,0,0,0,0,0,0,-1,902,1359,0,0
-315,-335,0,0,0,0,0,0,0,0,0,-1,909,1359,0,0
-308,-335,0,0,0,0,0,0,0,0,0,-1,916,1359,0,0
-301,-335,0,0,0,0,0,0,0,0,0,-1,923,1359,0,0
-294,-335,0,0,0,0,0,0,0,0,0,-1,930,1359,0,0
-287,-335,0,0,0,0,0,0,0,0,0,-1,937,1359,0,0
-280,-335,0,0,0,0,0,0,0,0,0,-1,944,1359,0,0
-273,-335,0,0,0,0,0,0,0,0,0,-1,951,1359,0,0
-266,-335,0,0,0,0,0,0,0,0,0,-1,958,1359,0,0
-259,-335,0,0,0,0,0,0,0,0,0,-1,965,1359,0,0
-252,-335,0,0,0,0,0,0,0,0,0,-1,972,1359,0,0
-245,-335,0,0,0,0,0,0,0,0,0,-1,979,1359,0,0
-238,-335,0,0,0,0,0,0,0,0,0,-1,986,1359,0,0
-231,-335,0,0,0,0,0,0,0,0,0,-1,993,1359,0,0
-224,-335,0,0,0,0,0,0,0,0,0,-1,1000,1359,0,0
-217,-335,0,0,0,0,0,0,0,0,0,-1,1007,1359,0,0
-210,-335,0,0,0,0,0,0,0,0,0,-1,1014,1359,0,0
-203,-335,0,0,0,0,0,0,0,0,0,-1,1021,1359,0,0
-196,-335,0,0,0,0,0,0,0,0,0,-1,1028,1359,0,0
-189,-335,0,0,0,0,0,0,0,0,0,-1,1035,1359,0,0
-182,-335,0,0,0,0,0,0,0,0,0,-1,1042,1359,0,0
-175,-335,0,0,0,0,0,0,0,0,0,-1,1049,1359,0,0
-168,-335,0,0,0,0,0,0,0,0,0,-1,1056,1359,0,0
-161,-335,0,0,0,0,0,0,0,0,0,-1,1063,1359,0,0
-154,-335,0,0,0,0,0,0,0,0,0,-1,1070,1359,0,0
-147,-335,0,0,0,0,0,0,0,0,0,-1,1077,1359,0,0
-140,-335,0,0,0,0,0,0,0,0,0,-1,1084,1359,0,0
-133,-335,0,0,0,0,0,0,0,0,0,-1,1091,1359,0,0
-126,-335,0,0,0,0,0,0,0,0,0,-1,1098,1359,0,0
-119,-335,0,0,0,0,0,0,0,0,0,-1,1105,1359,0,0
-112,-335,0,0,0,0,0,0,0,0,0,-1,1112,1359,0,0
-105,-335,0,0,0,0,0,0,0,0,0,-1,1119,1359,0,0
-98,-335,0,0,0,0,0,0,0,0,0,-1,1126,1359,0,0
-91,-335,0,0,0,0,0,0,0,0,0,-1,1133,1359,0,0
-84,-335,0,0,0,0,0,0,0,0,0,-1,1140,1359,0,0
-77,-335,0,0,0,0,0,0,0,0,0,-1,1147,1359,0,0
-70,-335,0,0,0,0,0,0,0,0,0,-1,1154,1359,0,0
-63,-335,0,0,0,0,0,0,0,0,0,-1,1161,1359,0,0
-56,-335,0,0,0,0,0,0,0,0,0,-1,1168,1359,0,0
-49,-335,0,0,0,0,0,0,0,0,0,-1,1175,1359,0,0
-42,-335,0,0,0,0,0,0,0,0,0,-1,1182,1359,0,0
-35,-335,0,0,0,0,0,0,0,0,0,-1,1189,1359,0,0
-28,-335,0,0,0,0,0,0,0,0,0,-1,1196,1359,0,0
-21,-335,0,0,0,0,0,0,0,0,0,-1,1203,1359,0,0
-14,-335,0,0,0,0,0,0,0,0,0,-1,1210,1359,0,0
-7,-335,0,0,0,0,0,0,0,0,0,-1,1217,1359,0,0
0,-335,0,0,0,0,0,0,0,0,0,-1,1224,1359,0,0
7,-335,0,0,0,0,0,0,0,0,0,-1,1231,1359,0,0
14,-335,0,0,0,0,0,0,0,0,0,-1,1238,1359,0,0
21,-335,0,0,0,0,0,0,0,0,0,-1,1245,1359,0,0
28,-335,0,0,0,0,0,0,0,0,0,-1,1252,1359,0,0
35,-335,0,0,0,0,0,0,0,0,0,-1,1259,1359,0,0
42,-335,0,0,0,0,0,0,0,0,0,-1,1266,1359,0,0
49,-335,0,0,0,0,0,0,0,0,0,-1,1273,1359,0,0
56,-335,0,0,0,0,0,0,0,0,0,-1,1280,1359,0,0
63,-335,0,0,0,0,0,0,0,0,0,-1,1287,1359,0,0
70,-335,0,0,0,0,0,0,0,0,0,-1,1294,1359,0,0
77,-335,0,0,0,0,0,0,0,0,0,-1,1301,1359,0,0
84,-335,0,0,0,0,0,0,0,0,0,-1,1308,1359,0,0
91,-335,0,0,0,0,0,0,0,0,0,-1,1315,1359,0,0
98,-335,0,0,0,0,0,0,0,0,0,-1,1322,1359,0,0
105,-335,0,0,0,0,0,0,0,0,0,-1,1329,1359,0,0
112,-335,0,0,0,0,0,0,0,0,0,-1,1336,1359,0,0
119,-335,0,0,0,0,0,0,0,0,0,-1,1343,1359,0,0
126,-335,0,0,0,0,0,0,0,0,0,-1,1350,1359,0,0
133,-335,0,0,0,0,0,0,0,0,0,-1,1357,1359,0,0
140,-335,0,0,0,0,0,0,0,0,0,-1,1364,1359,0,0
147,-335,0,0,0,0,0,0,0,0,0,-1,1371,1359,0,0
154,-335,0,0,0,0,0,0,0,0,0,-1,1378,1359,0,0
161,-335,0,0,0,0,0,0,0,0,0,-1,1385,1359,0,0
168,-335,0,0,0,0,0,0,0,0,0,-1,1392,1359,0,0
175,-335,0,0,0,0,0,0,0,0,0,-1,1399,1359,0,0
182,-335,0,0,0,0,0,0,0,0,0,-1,1406,1359,0,0
189,-335,0,0,0,0,0,0,0,0,0,-1,1413,1359,0,0
196,-335,0,0,0,0,0,0,0,0,0,-1,1420,1359,0,0
203,-335,0,0,0,0,0,0,0,0,0,-1,1427,1359,0,0
210,-335,0,0,0,0,0,0,0,0,0,-1,1434,1359,0,0
217,-335,0,0,0,0,0,0,0,0,0,-1,1441,1359,0,0
224,-335,0,0,0,0,0,0,0,0,0,-1,1448,1359,0,0
231,-335,0,0,0,0,0,0,0,0,0,-1,1455,1359,0,0
238,-335,0,0,0,0,0,0,0,0,0,-1,1462,1359,0,0
245,-335,0,0,0,0,0,0,0,0,0,-1,1469,1359,0,0
252,-335,0,0,0,0,0,0,0,0,0,-1,1476,1359,0,0
259,-335,0,0,0,0,0,0,0,0,0,-1,1483,1359,0,0
266,-335,0,0,0,0,0,0,0,0,0,-1,1490,1359,0,0
273,-335,0,0,0,0,0,0,0,0,0,-1,1497,1359,0,0
280,-335,0,0,0,0,0,0,0,0,0,-1,1504,1359,0,0
287,-335,0,0,0,0,0,0,0,0,0,-1,1511,1359,0,0
294,-335,0,0,0,0,0,0,0,0,0,-1,1518,1359,0,0
301,-335,0,0,0,0,0,0,0,0,0,-1,1525,1359,0,0
308,-335,0,0,0,0,0,0,0,0,0,-1,1532,1359,0,0
315,-335,0,0,0,0,0,0,0,0,0,-1,1539,1359,0,0
322,-335,0,0,0,0,0,0,0,0,0,-1,1546,1359,0,0
329,-335,0,0,0,0,0,0,0,0,0,-1,1553,1359,0,0
336,-335,0,0,0,0,0,0,0,0,0,-1,1560,1359,0,0
343,-335,0,0,0,0,0,0,0,0,0,-1,1567,1359,0,0
350,-335,0,0,0,0,0,0,0,0,0,-1,1574,1359,0,0
357,-335,0,0,0,0,0,0,0,0,0,-1,1581,1359,0,0
364,-335,0,0,0,0,0,0,0,0,0,-1,1588,1359,0,0
371,-335,0,0,0,0,0,0,0,0,0,-1,1595,1359,0,0
378,-335,0,0,0,0,0,0,0,0,0,-1,1602,1359,0,0
385,-335,0,0,0,0,0,0,0,0,0,-1,1609,1359,0,0
392,-335,0,0,0,0,0,0,0,0,0,-1,1616,1359,0,0
399,-335,0,0,0,0,0,0,0,0,0,-1,1623,1359,0,0
406,-335,0,0,0,0,0,0,0,0,0,-1,1630,1359,0,0
413,-335,0,0,0,0,0,0,0,0,0,-1,1637,1359,0,0
420,-335,0,0,0,0,0,0,0,0,0,-1,1644,1359,0,0
427,-335,0,0,0,0,0,0,0,0,0,-1,1651,1359,0,0
434,-335,0,0,0,0,0,0,0,0,0,-1,1658,1359,0,0
441,-335,0,0,0,0,0,0,0,0,0,-1,1665,1359,0,0
448,-335,0,0,0,0,0,0,0,0,0,-1,1672,1359,0,0
455,-335,0,0,0,0,0,0,0,0,0,-1,1679,1359,0,0
462,-335,0,0,0,0,0,0,0,0,0,-1,1686,1359,0,0
469,-335,0,0,0,0,0,0,0,0,0,-1,1693,1359,0,0
476,-335,0,0,0,0,0,0,0,0,0,-1,1700,1359,0,0
483,-335,0,0,0,0,0,0,0,0,0,-1,1707,1359,0,0
490,-335,0,0,0,0,0,0,0,0,0,-1,1714,1359,0,0
497,-335,0,0,0,0,0,0,0,0,0,-1,1721,1359,0,0
504,-335,0,0,0,0,0,0,0,0,0,-1,1728,1359,0,0
511,-335,0,0,0,0,0,0,0,0,0,-1,1735,1359,0,0
518,-335,0,0,0,0,0,0,0,0,0,-1,1742,1359,0,0
525,-335,0,0,0,0,0,0,0,0,0,-1,1749,1359,0,0
532,-335,0,0,0,0,0,0,0,0,0,-1,1756,1359,0,0
539,-335,0,0,0,0,0,0,0,0,0,-1,1763,1359,0,0
546,-335,0,0,0,0,0,0,0,0,0,-1,1770,1359,0,0
553,-335,0,0,0,0,0,0,0,0,0,-1,1777,1359,0,0
560,-335,0,0,0,0,0,0,0,0,0,-1,1784,1359,0,0
567,-335,0,0,0,0,0,0,0,0,0,-1,1791,1359,0,0
574,-335,65.0712,2.80188,0,0,0,0,0,0,0,-1,1798,1359,65.0712,-2.80193
581,-335,66.5206,1.60327,0,0,0,0,0,0,0,-1,1805,1359,66.5206,-1.60333
588,-335,67.826,0.334961,0,0,0,0,0,0,0,-1,1812,1359,67.8261,-0.335018
595,-335,49.984,3.76465,0,0,0,0,0,0,0,-1,1819,1359,49.984,-3.76467
602,-335,36.5643,0.0861816,0,0,0,0,0,0,0,-1,1826,1359,36.5643,-0.0862283
609,-335,36.2933,0.993896,0,0,0,0,0,0,0,-1,1833,1359,36.2934,-0.993911
616,-335,34.6969,4.82666,0,0,0,0,0,0,0,-1,1840,1359,34.6969,-4.82667
623,-335,26.6051,6.54333,0,0,0,0,0,0,0,-1,1847,1359,26.6051,-6.54339
630,-335,19.1707,1.00952,0,0,0,0,0,0,0,-1,1854,1359,19.1707,-1.00953
637,-335,18.2009,6.65454,0,0,0,0,0,0,0,-1,1861,1359,18.2009,-6.6546
644,-335,28.1042,12.067,0,0,0,0,0,0,0,-1,1868,1359,28.1042,-12.067
651,-335,43.1804,18.0543,0,0,0,0,0,0,0,-1,1875,1359,43.1804,-18.0543
658,-335,43.2949,17.1885,-0.000513281,0.000552017,-7.0681e-05,0.000556686,-0.00051795,-1.50483,0.000620576,0.0402933,1882,1359,43.295,-17.1885
665,-335,43.2952,16.405,0.000102245,0.000186285,-0.000159245,0.000308961,-2.04307e-05,-0.914393,0.000213111,0.0151357,1889,1359,43.2952,-16.4051
672,-335,43.2588,15.6726,0.000666003,3.97141e-05,-0.000322081,0.000802075,-9.63578e-05,-0.399732,0.000569559,0.0183855,1896,1359,43.2587,-15.6726
679,-335,43.2301,14.9517,0.00119156,-3.13523e-05,-0.000448072,0.00133816,-0.00017795,-0.316199,0.000956955,0.0168458,1903,1359,43.2301,-14.9516
686,-335,43.2079,14.2091,0.001719,-5.18948e-05,-0.000576262,0.00189001,-0.000222901,-0.288473,0.0013405,0.0141906,1910,1359,43.2079,-14.2091
693,-335,43.155,13.4753,0.0022642,-2.8245e-05,-0.000700026,0.00246106,-0.000225102,-0.274134,0.00172065,0.0111671,1917,1359,43.1551,-13.4753
700,-335,43.1136,12.776,0.00282906,3.76141e-05,-0.000804105,0.00304412,-0.000177448,-0.261338,0.00209107,0.0114651,1924,1359,43.1137,-12.776
707,-335,43.087,12.0515,0.00333144,0.000115521,-0.000826556,0.00353144,-8.44822e-05,-0.237409,0.00238295,0.0151658,1931,1359,43.0871,-12.0516
714,-335,43.0823,11.2158,0.00387045,0.000295233,-0.000858672,0.00406599,9.96967e-05,-0.223901,0.00267805,0.0356832,1938,1359,43.0822,-11.2158
721,-335,42.9855,10.2909,0,0,0,0,0,0,0,-1,1945,1359,42.9855,-10.2909
728,-335,20.8126,5.21167,0,0,0,0,0,0,0,-1,1952,1359,20.8127,-5.21172
735,-335,20.2725,5.34729,0,0,0,0,0,0,0,-1,1959,1359,20.2724,-5.34734
742,-335,19.8624,4.72229,0,0,0,0,0,0,0,-1,1966,1359,19.8624,-4.72225
749,-335,20.5887,6.05322,0,0,0,0,0,0,0,-1,1973,1359,20.5887,-6.05322
756,-335,20.7832,6.00452,0,0,0,0,0,0,0,-1,1980,1359,20.7832,-6.00447
763,-335,0,0,0,0,0,0,0,0,0,-1,1987,1359,0,0
770,-335,0,0,0,0,0,0,0,0,0,-1,1994,1359,0,0
777,-335,0,0,0,0,0,0,0,0,0,-1,2001,1359,0,0
784,-335,0,0,0,0,0,0,0,0,0,-1,2008,1359,0,0
791,-335,0,0,0,0,0,0,0,0,0,-1,2015,1359,0,0
798,-335,0,0,0,0,0,0,0,0,0,-1,2022,1359,0,0
805,-335,0,0,0,0,0,0,0,0,0,-1,2029,1359,0,0
812,-335,0,0,0,0,0,0,0,0,0,-1,2036,1359,0,0
-700,-342,0,0,0,0,0,0,0,0,0,-1,524,1366,0,0
-693,-342,0,0,0,0,0,0,0,0,0,-1,531,1366,0,0
-686,-342,0,0,0,0,0,0,0,0,0,-1,538,1366,0,0
-679,-342,0,0,0,0,0,0,0,0,0,-1,545,1366,0,0
-672,-342,0,0,0,0,0,0,0,0,0,-1,552,1366,0,0
-665,-342,0,0,0,0,0,0,0,0,0,-1,559,1366,0,0
-658,-342,0,0,0,0,0,0,0,0,0,-1,566,1366,0,0
-651,-342,0,0,0,0,0,0,0,0,0,-1,573,1366,0,0
-644,-342,0,0,0,0,0,0,0,0,0,-1,580,1366,0,0
-637,-342,-63.7546,12.2344,0,0,0,0,0,0,0,-1,587,1366,-63.7546,-12.2343
-630,-342,-8.60132,2.71777,0,0,0,0,0,0,0,-1,594,1366,-8.60135,-2.71779
-623,-342,-8.41168,0.662476,0,0,0,0,0,0,0,-1,601,1366,-8.41168,-0.662442
-616,-342,-6.625,-1.28015,0,0,0,0,0,0,0,-1,608,1366,-6.62499,1.28011
-609,-342,-7.83154,0.674561,0,0,0,0,0,0,0,-1,615,1366,-7.83155,-0.674598
-602,-342,-9.65765,2.25195,0,0,0,0,0,0,0,-1,622,1366,-9.65767,-2.25192
-595,-342,-9.47687,3.00671,0,0,0,0,0,0,0,-1,629,1366,-9.47686,-3.00668
-588,-342,-9.78467,3.57727,0,0,0,0,0,0,0,-1,636,1366,-9.78468,-3.57723
-581,-342,-25.7142,10.118,0,0,0,0,0,0,0,-1,643,1366,-25.7142,-10.1181
-574,-342,-25.632,10.8402,0.00432529,0.00398208,0.00265382,0.00681305,0.00149432,0.753112,0.00413493,0.0172424,650,1366,-25.632,-10.8402
-567,-342,-25.58,11.6241,0.00347128,0.00293342,0.00205439,0.00527427,0.00113043,0.720315,0.00320649,0.0177914,657,1366,-25.58,-11.6241
-560,-342,-25.6379,12.3407,0.00296412,0.00204193,0.00168492,0.00424989,0.00075615,0.651838,0.00261787,0.0270804,664,1366,-25.638,-12.3406
-553,-342,-25.7164,13.0626,0.002735,0.00127878,0.00147539,0.00365216,0.000361611,0.556181,0.00232364,0.0294899,671,1366,-25.7164,-13.0626
-546,-342,-25.745,13.8265,0.00274814,0.000636648,0.00141738,0.00345976,-7.4968e-05,0.465298,0.00233189,0.028508,678,1366,-25.745,-13.8265
-539,-342,-25.7598,14.6329,0.00297673,9.68449e-05,0.00149764,0.00361437,-0.000540795,0.402518,0.0026086,0.0237278,685,1366,-25.7597,-14.633
-532,-342,-25.7817,15.4821,0.00344737,-0.000327381,0.00172361,0.00411597,-0.00099598,0.370038,0.00312926,0.0177175,692,1366,-25.7817,-15.482
-525,-342,-25.7648,16.2871,0.00413347,-0.00062846,0.00210902,0.00493322,-0.00142821,0.362453,0.00385412,0.0134915,699,1366,-25.7647,-16.2871
-518,-342,-25.7675,17.0598,0.0051508,-0.000678456,0.00267806,0.00619433,-0.00172199,0.371562,0.00480747,0.0428655,706,1366,-25.7674,-17.0598
-511,-342,-25.7955,17.8142,0,0,0,0,0,0,0,-1,713,1366,-25.7955,-17.8143
-504,-342,-8.95709,6.5719,0,0,0,0,0,0,0,-1,720,1366,-8.95707,-6.57192
-497,-342,-8.26587,-0.943604,0,0,0,0,0,0,0,-1,727,1366,-8.26586,0.943543
-490,-342,-9.07153,-0.0227051,0,0,0,0,0,0,0,-1,734,1366,-9.07155,0.0227087
-483,-342,-9.87726,0.898071,0,0,0,0,0,0,0,-1,741,1366,-9.87724,-0.898125
-476,-342,-11.6371,-0.736328,0,0,0,0,0,0,0,-1,748,1366,-11.6371,0.736281
-469,-342,-12.6245,-0.987549,0,0,0,0,0,0,0,-1,755,1366,-12.6245,0.987553
-462,-342,-13.0912,-0.533203,0,0,0,0,0,0,0,-1,762,1366,-13.0912,0.533224
-455,-342,-13.7612,0.122925,0,0,0,0,0,0,0,-1,769,1366,-13.7612,-0.122896
-448,-342,-14.5278,0.826904,0,0,0,0,0,0,0,-1,776,1366,-14.5277,-0.826861
-441,-342,0,0,0,0,0,0,0,0,0,-1,783,1366,0,0
-434,-342,0,0,0,0,0,0,0,0,0,-1,790,1366,0,0
-427,-342,0,0,0,0,0,0,0,0,0,-1,797,1366,0,0
-420,-342,0,0,0,0,0,0,0,0,0,-1,804,1366,0,0
-413,-342,0,0,0,0,0,0,0,0,0,-1,811,1366,0,0
-406,-342,0,0,0,0,0,0,0,0,0,-1,818,1366,0,0
-399,-342,0,0,0,0,0,0,0,0,0,-1,825,1366,0,0
-392,-342,0,0,0,0,0,0,0,0,0,-1,832,1366,0,0
-385,-342,0,0,0,0,0,0,0,0,0,-1,839,1366,0,0
-378,-342,0,0,0,0,0,0,0,0,0,-1,846,1366,0,0
-371,-342,0,0,0,0,0,0,0,0,0,-1,853,1366,0,0
-364,-342,0,0,0,0,0,0,0,0,0,-1,860,1366,0,0
-357,-342,0,0,0,0,0,0,0,0,0,-1,867,1366,0,0
-350,-342,0,0,0,0,0,0,0,0,0,-1,874,1366,0,0
-343,-342,0,0,0,0,0,0,0,0,0,-1,881,1366,0,0
-336,-342,0,0,0,0,0,0,0,0,0,-1,888,1366,0,0
-329,-342,0,0,0,0,0,0,0,0,0,-1,895,1366,0,0
-322,-342,0,0,0,0,0,0,0,0,0,-1,902,1366,0,0
-315,-342,0,0,0,0,0,0,0,0,0,-1,909,1366,0,0
-308,-342,0,0,0,0,0,0,0,0,0,-1,916,1366,0,0
-301,-342,0,0,0,0,0,0,0,0,0,-1,923,1366,0,0
-294,-342,0,0,0,0,0,0,0,0,0,-1,930,1366,0,0
-287,-342,0,0,0,0,0,0,0,0,0,-1,937,1366,0,0
-280,-342,0,0,0,0,0,0,0,0,0,-1,944,1366,0,0
-273,-342,0,0,0,0,0,0,0,0,0,-1,951,1366,0,0
-266,-342,0,0,0,0,0,0,0,0,0,-1,958,1366,0,0
-259,-342,0,0,0,0,0,0,0,0,0,-1,965,1366,0,0
-252,-342,0,0,0,0,0,0,0,0,0,-1,972,1366,0,0
-245,-342,0,0,0,0,0,0,0,0,0,-1,979,1366,0,0
-238,-342,0,0,0,0,0,0,0,0,0,-1,986,1366,0,0
-231,-342,0,0,0,0,0,0,0,0,0,-1,993,1366,0,0
-224,-342,0,0,0,0,0,0,0,0,0,-1,1000,1366,0,0
-217,-342,0,0,0,0,0,0,0,0,0,-1,1007,1366,0,0
-210,-342,0,0,0,0,0,0,0,0,0,-1,1014,1366,0,0
-203,-342,0,0,0,0,0,0,0,0,0,-1,1021,1366,0,0
-196,-342,0,0,0,0,0,0,0,0,0,-1,1028,1366,0,0
-189,-342,0,0,0,0,0,0,0,0,0,-1,1035,1366,0,0
-182,-342,0,0,0,0,0,0,0,0,0,-1,1042,1366,0,0
-175,-342,0,0,0,0,0,0,0,0,0,-1,1049,1366,0,0
-168,-342,0,0,0,0,0,0,0,0,0,-1,1056,1366,0,0
-161,-342,0,0,0,0,0,0,0,0,0,-1,1063,1366,0,0
-154,-342,0,0,0,0,0,0,0,0,0,-1,1070,1366,0,0
-147,-342,0,0,0,0,0,0,0,0,0,-1,1077,1366,0,0
-140,-342,0,0,0,0,0,0,0,0,0,-1,1084,1366,0,0
-133,-342,0,0,0,0,0,0,0,0,0,-1,1091,1366,0,0
-126,-342,0,0,0,0,0,0,0,0,0,-1,1098,1366,0,0
-119,-342,0,0,0,0,0,0,0,0,0,-1,1105,1366,0,0
-112,-342,0,0,0,0,0,0,0,0,0,-1,1112,1366,0,0
-105,-342,0,0,0,0,0,0,0,0,0,-1,1119,1366,0,0
-98,-342,0,0,0,0,0,0,0,0,0,-1,1126,1366,0,0
-91,-342,0,0,0,0,0,0,0,0,0,-1,1133,1366,0,0
-84,-342,0,0,0,0,0,0,0,0,0,-1,1140,1366,0,0
-77,-342,0,0,0,0,0,0,0,0,0,-1,1147,1366,0,0
-70,-342,0,0,0,0,0,0,0,0,0,-1,1154,1366,0,0
-63,-342,0,0,0,0,0,0,0,0,0,-1,1161,1366,0,0
-56,-342,0,0,0,0,0,0,0,0,0,-1,1168,1366,0,0
-49,-342,0,0,0,0,0,0,0,0,0,-1,1175,1366,0,0
-42,-342,0,0,0,0,0,0,0,0,0,-1,1182,1366,0,0
-35,-342,0,0,0,0,0,0,0,0,0,-1,1189,1366,0,0
-28,-342,0,0,0,0,0,0,0,0,0,-1,1196,1366,0,0
-21,-342,0,0,0,0,0,0,0,0,0,-1,1203,1366,0,0
-14,-342,0,0,0,0,0,0,0,0,0,-1,1210,1366,0,0
-7,-342,0,0,0,0,0,0,0,0,0,-1,1217,1366,0,0
0,-342,0,0,0,0,0,0,0,0,0,-1,1224,1366,0,0
7,-342,0,0,0,0,0,0,0,0,0,-1,1231,1366,0,0
14,-342,0,0,0,0,0,0,0,0,0,-1,1238,1366,0,0
21,-342,0,0,0,0,0,0,0,0,0,-1,1245,1366,0,0
28,-342,0,0,0,0,0,0,0,0,0,-1,1252,1366,0,0
35,-342,0,0,0,0,0,0,0,0,0,-1,1259,1366,0,0
42,-342,0,0,0,0,0,0,0,0,0,-1,1266,1366,0,0
49,-342,0,0,0,0,0,0,0,0,0,-1,1273,1366,0,0
56,-342,0,0,0,0,0,0,0,0,0,-1,1280,1366,0,0
63,-342,0,0,0,0,0,0,0,0,0,-1,1287,1366,0,0
70,-342,0,0,0,0,0,0,0,0,0,-1,1294,1366,0,0
77,-342,0,0,0,0,0,0,0,0,0,-1,1301,1366,0,0
84,-342,0,0,0,0,0,0,0,0,0,-1,1308,1366,0,0
91,-342,0,0,0,0,0,0,0,0,0,-1,1315,1366,0,0
98,-342,0,0,0,0,0,0,0,0,0,-1,1322,1366,0,0
105,-342,0,0,0,0,0,0,0,0,0,-1,1329,1366,0,0
112,-342,0,0,0,0,0,0,0,0,0,-1,1336,1366,0,0
119,-342,0,0,0,0,0,0,0,0,0,-1,1343,1366,0,0
126,-342,0,0,0,0,0,0,0,0,0,-1,1350,1366,0,0
133,-342,0,0,0,0,0,0,0,0,0,-1,1357,1366,0,0
140,-342,0,0,0,0,0,0,0,0,0,-1,1364,1366,0,0
147,-342,0,0,0,0,0,0,0,0,0,-1,1371,1366,0,0
154,-342,0,0,0,0,0,0,0,0,0,-1,1378,1366,0,0
161,-342,0,0,0,0,0,0,0,0,0,-1,1385,1366,0,0
168,-342,0,0,0,0,0,0,0,0,0,-1,1392,1366,0,0
175,-342,0,0,0,0,0,0,0,0,0,-1,1399,1366,0,0
182,-342,0,0,0,0,0,0,0,0,0,-1,1406,1366,0,0
189,-342,0,0,0,0,0,0,0,0,0,-1,1413,1366,0,0
196,-342,0,0,0,0,0,0,0,0,0,-1,1420,1366,0,0
203,-342,0,0,0,0,0,0,0,0,0,-1,1427,1366,0,0
210,-342,0,0,0,0,0,0,0,0,0,-1,1434,1366,0,0
217,-342,0,0,0,0,0,0,0,0,0,-1,1441,1366,0,0
224,-342,0,0,0,0,0,0,0,0,0,-1,1448,1366,0,0
231,-342,0,0,0,0,0,0,0,0,0,-1,1455,1366,0,0
238,-342,0,0,0,0,0,0,0,0,0,-1,1462,1366,0,0
245,-342,0,0,0,0,0,0,0,0,0,-1,1469,1366,0,0
252,-342,0,0,0,0,0,0,0,0,0,-1,1476,1366,0,0
259,-342,0,0,0,0,0,0,0,0,0,-1,1483,1366,0,0
266,-342,0,0,0,0,0,0,0,0,0,-1,1490,1366,0,0
273,-342,0,0,0,0,0,0,0,0,0,-1,1497,1366,0,0
280,-342,0,0,0,0,0,0,0,0,0,-1,1504,1366,0,0
287,-342,0,0,0,0,0,0,0,0,0,-1,1511,1366,0,0
294,-342,0,0,0,0,0,0,0,0,0,-1,1518,1366,0,0
301,-342,0,0,0,0,0,0,0,0,0,-1,1525,1366,0,0
308,-342,0,0,0,0,0,0,0,0,0,-1,1532,1366,0,0
315,-342,0,0,0,0,0,0,0,0,0,-1,1539,1366,0,0
322,-342,0,0,0,0,0,0,0,0,0,-1,1546,1366,0,0
329,-342,0,0,0,0,0,0,0,0,0,-1,1553,1366,0,0
336,-342,0,0,0,0,0,0,0,0,0,-1,1560,1366,0,0
343,-342,0,0,0,0,0,0,0,0,0,-1,1567,1366,0,0
350,-342,0,0,0,0,0,0,0,0,0,-1,1574,1366,0,0
357,-342,0,0,0,0,0,0,0,0,0,-1,1581,1366,0,0
364,-342,0,0,0,0,0,0,0,0,0,-1,1588,1366,0,0
371,-342,0,0,0,0,0,0,0,0,0,-1,1595,1366,0,0
378,-342,0,0,0,0,0,0,0,0,0,-1,1602,1366,0,0
385,-342,0,0,0,0,0,0,0,0,0,-1,1609,1366,0,0
392,-342,0,0,0,0,0,0,0,0,0,-1,1616,1366,0,0
399,-342,0,0,0,0,0,0,0,0,0,-1,1623,1366,0,0
406,-342,0,0,0,0,0,0,0,0,0,-1,1630,1366,0,0
413,-342,0,0,0,0,0,0,0,0,0,-1,1637,1366,0,0
420,-342,0,0,0,0,0,0,0,0,0,-1,1644,1366,0,0
427,-342,0,0,0,0,0,0,0,0,0,-1,1651,1366,0,0
434,-342,0,0,0,0,0,0,0,0,0,-1,1658,1366,0,0
441,-342,0,0,0,0,0,0,0,0,0,-1,1665,1366,0,0
448,-342,0,0,0,0,0,0,0,0,0,-1,1672,1366,0,0
455,-342,0,0,0,0,0,0,0,0,0,-1,1679,1366,0,0
462,-342,0,0,0,0,0,0,0,0,0,-1,1686,1366,0,0
469,-342,0,0,0,0,0,0,0,0,0,-1,1693,1366,0,0
476,-342,0,0,0,0,0,0,0,0,0,-1,1700,1366,0,0
483,-342,0,0,0,0,0,0,0,0,0,-1,1707,1366,0,0
490,-342,0,0,0,0,0,0,0,0,0,-1,1714,1366,0,0
497,-342,0,0,0,0,0,0,0,0,0,-1,1721,1366,0,0
504,-342,0,0,0,0,0,0,0,0,0,-1,1728,1366,0,0
511,-342,0,0,0,0,0,0,0,0,0,-1,1735,1366,0,0
518,-342,0,0,0,0,0,0,0,0,0,-1,1742,1366,0,0
525,-342,0,0,0,0,0,0,0,0,0,-1,1749,1366,0,0
532,-342,0,0,0,0,0,0,0,0,0,-1,1756,1366,0,0
539,-342,0,0,0,0,0,0,0,0,0,-1,1763,1366,0,0
546,-342,0,0,0,0,0,0,0,0,0,-1,1770,1366,0,0
553,-342,0,0,0,0,0,0,0,0,0,-1,1777,1366,0,0
560,-342,0,0,0,0,0,0,0,0,0,-1,1784,1366,0,0
567,-342,64.6937,3.24878,0,0,0,0,0,0,0,-1,1791,1366,64.6938,-3.24881
574,-342,65.4669,2.18384,0,0,0,0,0,0,0,-1,1798,1366,65.4669,-2.18381
581,-342,66.542,1.36292,0,0,0,0,0,0,0,-1,1805,1366,66.542,-1.36295
588,-342,43.9108,7.22559,0,0,0,0,0,0,0,-1,1812,1366,43.9107,-7.22554
595,-342,35.7993,0.709961,0,0,0,0,0,0,0,-1,1819,1366,35.7993,-0.709913
602,-342,36.3618,3.28723,0,0,0,0,0,0,0,-1,1826,1366,36.3619,-3.28719
609,-342,35.3777,4.14978,0,0,0,0,0,0,0,-1,1833,1366,35.3777,-4.14976
616,-342,34.199,5.8158,0,0,0,0,0,0,0,-1,1840,1366,34.199,-5.81579
623,-342,26.0299,6.86865,0,0,0,0,0,0,0,-1,1847,1366,26.0299,-6.86863
630,-342,17.3431,0.773071,0,0,0,0,0,0,0,-1,1854,1366,17.3432,-0.773095
637,-342,16.196,6.76172,0,0,0,0,0,0,0,-1,1861,1366,16.1961,-6.76174
644,-342,31.8916,14.0614,0,0,0,0,0,0,0,-1,1868,1366,31.8916,-14.0613
651,-342,42.8911,17.8373,0,0,0,0,0,0,0,-1,1875,1366,42.8911,-17.8373
658,-342,42.5958,17.1938,-0.000726645,0.000670865,-0.000128373,0.000682559,-0.000738339,-1.47995,0.000820567,0.0236846,1882,1366,42.5958,-17.1938
665,-342,42.583,16.4177,1.13954e-05,0.000246416,-0.00015874,0.000326408,-6.85962e-05,-1.10402,0.00024371,0.0187766,1889,1366,42.583,-16.4177
672,-342,42.5435,15.7135,0.000707221,1.38181e-05,-0.000260706,0.000794305,-7.32656e-05,-0.322378,0.000555571,0.0144561,1896,1366,42.5434,-15.7136
679,-342,42.4911,15.0159,0.00137611,-0.000161697,-0.000361833,0.00145699,-0.00024258,-0.219919,0.00106147,0.0143051,1903,1366,42.4911,-15.0159
686,-342,42.5045,14.2889,0.00205099,-0.000264393,-0.000491645,0.00215106,-0.000364463,-0.200799,0.00156969,0.0129898,1910,1366,42.5045,-14.2889
693,-342,42.4272,13.5337,0.00273934,-0.000319208,-0.000633147,0.00286523,-0.000445094,-0.196266,0.0020745,0.0122683,1917,1366,42.4272,-13.5337
700,-342,42.3787,12.8208,0.00344809,-0.000302026,-0.000785542,0.00360599,-0.000459926,-0.198364,0.00257105,0.0136095,1924,1366,42.3787,-12.8209
707,-342,42.3514,12.0603,0.0040315,-0.000287482,-0.000837789,0.00418832,-0.000444301,-0.185041,0.00295148,0.0143834,1931,1366,42.3514,-12.0603
714,-342,42.3701,11.2927,0,0,0,0,0,0,0,-1,1938,1366,42.3701,-11.2927
721,-342,22.4666,6.08679,0,0,0,0,0,0,0,-1,1945,1366,22.4666,-6.08678
728,-342,19.8912,5.26636,0,0,0,0,0,0,0,-1,1952,1366,19.8913,-5.26636
735,-342,19.481,4.41968,0,0,0,0,0,0,0,-1,1959,1366,19.4809,-4.41962
742,-342,19.309,2.66943,0,0,0,0,0,0,0,-1,1966,1366,19.3089,-2.66948
749,-342,21.0934,6.47729,0,0,0,0,0,0,0,-1,1973,1366,21.0934,-6.4773
756,-342,0,0,0,0,0,0,0,0,0,-1,1980,1366,0,0
763,-342,0,0,0,0,0,0,0,0,0,-1,1987,1366,0,0
770,-342,0,0,0,0,0,0,0,0,0,-1,1994,1366,0,0
777,-342,0,0,0,0,0,0,0,0,0,-1,2001,1366,0,0
784,-342,0,0,0,0,0,0,0,0,0,-1,2008,1366,0,0
791,-342,0,0,0,0,0,0,0,0,0,-1,2015,1366,0,0
798,-342,0,0,0,0,0,0,0,0,0,-1,2022,1366,0,0
805,-342,0,0,0,0,0,0,0,0,0,-1,2029,1366,0,0
812,-342,0,0,0,0,0,0,0,0,0,-1,2036,1366,0,0
-700,-349,0,0,0,0,0,0,0,0,0,-1,524,1373,0,0
-693,-349,0,0,0,0,0,0,0,0,0,-1,531,1373,0,0
-686,-349,0,0,0,0,0,0,0,0,0,-1,538,1373,0,0
-679,-349,0,0,0,0,0,0,0,0,0,-1,545,1373,0,0
-672,-349,0,0,0,0,0,0,0,0,0,-1,552,1373,0,0
-665,-349,0,0,0,0,0,0,0,0,0,-1,559,1373,0,0
-658,-349,0,0,0,0,0,0,0,0,0,-1,566,1373,0,0
-651,-349,0,0,0,0,0,0,0,0,0,-1,573,1373,0,0
-644,-349,0,0,0,0,0,0,0,0,0,-1,580,1373,0,0
-637,-349,0,0,0,0,0,0,0,0,0,-1,587,1373,0,0
-630,-349,-7.64117,-5.06177,0,0,0,0,0,0,0,-1,594,1373,-7.64118,5.0618
-623,-349,-8.63507,0.51123,0,0,0,0,0,0,0,-1,601,1373,-8.63505,-0.511275
-616,-349,-5.2066,-0.188232,0,0,0,0,0,0,0,-1,608,1373,-5.20659,0.188211
-609,-349,-7.12073,1.37048,0,0,0,0,0,0,0,-1,615,1373,-7.12072,-1.37044
-602,-349,-9.00623,3.39587,0,0,0,0,0,0,0,-1,622,1373,-9.0062,-3.39591
-595,-349,-9.50568,2.96912,0,0,0,0,0,0,0,-1,629,1373,-9.50569,-2.96906
-588,-349,-8.60046,3.56042,0,0,0,0,0,0,0,-1,636,1373,-8.60046,-3.56047
-581,-349,-24.7093,10.1055,0,0,0,0,0,0,0,-1,643,1373,-24.7093,-10.1054
-574,-349,-24.8119,10.8011,0.00497794,0.00458854,0.00329824,0.00808723,0.00147926,0.755917,0.00497229,0.0425557,650,1373,-24.8119,-10.8011
-567,-349,-24.863,11.6458,0.00395703,0.0033805,0.00253275,0.00621787,0.00111966,0.728734,0.00382702,0.0182267,657,1373,-24.863,-11.6457
-560,-349,-24.8734,12.4498,0.00329434,0.00238799,0.00203099,0.0049221,0.000760232,0.675632,0.00305963,0.0220614,664,1373,-24.8734,-12.4498
-553,-349,-24.929,13.1833,0.00292063,0.00156202,0.00170013,0.00407215,0.000410508,0.595335,0.0025888,0.0274428,671,1373,-24.929,-13.1833
-546,-349,-24.9571,13.8918,0.0027732,0.00087704,0.00151594,0.00361312,3.71214e-05,0.505952,0.00239647,0.0285789,678,1373,-24.9571,-13.8918
-539,-349,-24.9836,14.6886,0.00282782,0.000314394,0.00146551,0.00350167,-0.000359447,0.430974,0.00246302,0.0225554,685,1373,-24.9836,-14.6886
-532,-349,-25.0273,15.5438,0.00309132,-0.000124138,0.0015483,0.00371564,-0.000748451,0.383284,0.0027606,0.0174955,692,1373,-25.0273,-15.5438
-525,-349,-25.0236,16.3306,0.00355653,-0.000431166,0.00176816,0.00422761,-0.00110225,0.36274,0.00324876,0.0146428,699,1373,-25.0236,-16.3305
-518,-349,-25.0563,17.1532,0.00427972,-0.000516202,0.00213043,0.0050894,-0.00132588,0.363194,0.00391055,0.0265693,706,1373,-25.0563,-17.1532
-511,-349,-25.0268,18.001,0,0,0,0,0,0,0,-1,713,1373,-25.0268,-18.001
-504,-349,-9.60516,7.88831,0,0,0,0,0,0,0,-1,720,1373,-9.60519,-7.88825
-497,-349,-7.9339,5.58789,0,0,0,0,0,0,0,-1,727,1373,-7.93388,-5.58785
-490,-349,-8.73969,-0.503784,0,0,0,0,0,0,0,-1,734,1373,-8.73966,0.503752
-483,-349,-5.66974,3.7395,0,0,0,0,0,0,0,-1,741,1373,-5.66975,-3.73949
-476,-349,-10.8496,1.15759,0,0,0,0,0,0,0,-1,748,1373,-10.8496,-1.15756
-469,-349,-12.3314,-1.74878,0,0,0,0,0,0,0,-1,755,1373,-12.3314,1.74882
-462,-349,-12.6559,-0.995361,0,0,0,0,0,0,0,-1,762,1373,-12.656,0.995351
-455,-349,-13.2897,-0.234253,0,0,0,0,0,0,0,-1,769,1373,-13.2897,0.234261
-448,-349,-14.045,0.712891,0,0,0,0,0,0,0,-1,776,1373,-14.045,-0.712838
-441,-349,0,0,0,0,0,0,0,0,0,-1,783,1373,0,0
-434,-349,0,0,0,0,0,0,0,0,0,-1,790,1373,0,0
-427,-349,0,0,0,0,0,0,0,0,0,-1,797,1373,0,0
-420,-349,0,0,0,0,0,0,0,0,0,-1,804,1373,0,0
-413,-349,0,0,0,0,0,0,0,0,0,-1,811,1373,0,0
-406,-349,0,0,0,0,0,0,0,0,0,-1,818,1373,0,0
-399,-349,0,0,0,0,0,0,0,0,0,-1,825,1373,0,0
-392,-349,0,0,0,0,0,0,0,0,0,-1,832,1373,0,0
-385,-349,0,0,0,0,0,0,0,0,0,-1,839,1373,0,0
-378,-349,0,0,0,0,0,0,0,0,0,-1,846,1373,0,0
-371,-349,0,0,0,0,0,0,0,0,0,-1,853,1373,0,0
-364,-349,0,0,0,0,0,0,0,0,0,-1,860,1373,0,0
-357,-349,0,0,0,0,0,0,0,0,0,-1,867,1373,0,0
-350,-349,0,0,0,0,0,0,0,0,0,-1,874,1373,0,0
-343,-349,0,0,0,0,0,0,0,0,0,-1,881,1373,0,0
-336,-349,0,0,0,0,0,0,0,0,0,-1,888,1373,0,0
-329,-349,0,0,0,0,0,0,0,0,0,-1,895,1373,0,0
-322,-349,0,0,0,0,0,0,0,0,0,-1,902,1373,0,0
-315,-349,0,0,0,0,0,0,0,0,0,-1,909,1373,0,0
-308,-349,0,0,0,0,0,0,0,0,0,-1,916,1373,0,0
-301,-349,0,0,0,0,0,0,0,0,0,-1,923,1373,0,0
-294,-349,0,0,0,0,0,0,0,0,0,-1,930,1373,0,0
-287,-349,0,0,0,0,0,0,0,0,0,-1,937,1373,0,0
-280,-349,0,0,0,0,0,0,0,0,0,-1,944,1373,0,0
-273,-349,0,0,0,0,0,0,0,0,0,-1,951,1373,0,0
-266,-349,0,0,0,0,0,0,0,0,0,-1,958,1373,0,0
-259,-349,0,0,0,0,0,0,0,0,0,-1,965,1373,0,0
-252,-349,0,0,0,0,0,0,0,0,0,-1,972,1373,0,0
-245,-349,0,0,0,0,0,0,0,0,0,-1,979,1373,0,0
-238,-349,0,0,0,0,0,0,0,0,0,-1,986,1373,0,0
-231,-349,0,0,0,0,0,0,0,0,0,-1,993,1373,0,0
-224,-349,0,0,0,0,0,0,0,0,0,-1,1000,1373,0,0
-217,-349,0,0,0,0,0,0,0,0,0,-1,1007,1373,0,0
-210,-349,0,0,0,0,0,0,0,0,0,-1,1014,1373,0,0
-203,-349,0,0,0,0,0,0,0,0,0,-1,1021,1373,0,0
-196,-349,0,0,0,0,0,0,0,0,0,-1,1028,1373,0,0
-189,-349,0,0,0,0,0,0,0,0,0,-1,1035,1373,0,0
-182,-349,0,0,0,0,0,0,0,0,0,-1,1042,1373,0,0
-175,-349,0,0,0,0,0,0,0,0,0,-1,1049,1373,0,0
-168,-349,0,0,0,0,0,0,0,0,0,-1,1056,1373,0,0
-161,-349,0,0,0,0,0,0,0,0,0,-1,1063,1373,0,0
-154,-349,0,0,0,0,0,0,0,0,0,-1,1070,1373,0,0
-147,-349,0,0,0,0,0,0,0,0,0,-1,1077,1373,0,0
-140,-349,0,0,0,0,0,0,0,0,0,-1,1084,1373,0,0
-133,-349,0,0,0,0,0,0,0,0,0,-1,1091,1373,0,0
-126,-349,0,0,0,0,0,0,0,0,0,-1,1098,1373,0,0
-119,-349,0,0,0,0,0,0,0,0,0,-1,1105,1373,0,0
-112,-349,0,0,0,0,0,0,0,0,0,-1,1112,1373,0,0
-105,-349,0,0,0,0,0,0,0,0,0,-1,1119,1373,0,0
-98,-349,0,0,0,0,0,0,0,0,0,-1,1126,1373,0,0
-91,-349,0,0,0,0,0,0,0,0,0,-1,1133,1373,0,0
-84,-349,0,0,0,0,0,0,0,0,0,-1,1140,1373,0,0
-77,-349,0,0,0,0,0,0,0,0,0,-1,1147,1373,0,0
-70,-349,0,0,0,0,0,0,0,0,0,-1,1154,1373,0,0
-63,-349,0,0,0,0,0,0,0,0,0,-1,1161,1373,0,0
-56,-349,0,0,0,0,0,0,0,0,0,-1,1168,1373,0,0
-49,-349,0,0,0,0,0,0,0,0,0,-1,1175,1373,0,0
-42,-349,0,0,0,0,0,0,0,0,0,-1,1182,1373,0,0
-35,-349,0,0,0,0,0,0,0,0,0,-1,1189,1373,0,0
-28,-349,0,0,0,0,0,0,0,0,0,-1,1196,1373,0,0
-21,-349,0,0,0,0,0,0,0,0,0,-1,1203,1373,0,0
-14,-349,0,0,0,0,0,0,0,0,0,-1,1210,1373,0,0
-7,-349,0,0,0,0,0,0,0,0,0,-1,1217,1373,0,0
0,-349,0,0,0,0,0,0,0,0,0,-1,1224,1373,0,0
7,-349,0,0,0,0,0,0,0,0,0,-1,1231,1373,0,0
14,-349,0,0,0,0,0,0,0,0,0,-1,1238,1373,0,0
21,-349,0,0,0,0,0,0,0,0,0,-1,1245,1373,0,0
28,-349,0,0,0,0,0,0,0,0,0,-1,1252,1373,0,0
35,-349,0,0,0,0,0,0,0,0,0,-1,1259,1373,0,0
42,-349,0,0,0,0,0,0,0,0,0,-1,1266,1373,0,0
49,-349,0,0,0,0,0,0,0,0,0,-1,1273,1373,0,0
56,-349,0,0,0,0,0,0,0,0,0,-1,1280,1373,0,0
63,-349,0,0,0,0,0,0,0,0,0,-1,1287,1373,0,0
70,-349,0,0,0,0,0,0,0,0,0,-1,1294,1373,0,0
77,-349,0,0,0,0,0,0,0,0,0,-1,1301,1373,0,0
84,-349,0,0,0,0,0,0,0,0,0,-1,1308,1373,0,0
91,-349,0,0,0,0,0,0,0,0,0,-1,1315,1373,0,0
98,-349,0,0,0,0,0,0,0,0,0,-1,1322,1373,0,0
105,-349,0,0,0,0,0,0,0,0,0,-1,1329,1373,0,0
112,-349,0,0,0,0,0,0,0,0,0,-1,1336,1373,0,0
119,-349,0,0,0,0,0,0,0,0,0,-1,1343,1373,0,0
126,-349,0,0,0,0,0,0,0,0,0,-1,1350,1373,0,0
133,-349,0,0,0,0,0,0,0,0,0,-1,1357,1373,0,0
140,-349,0,0,0,0,0,0,0,0,0,-1,1364,1373,0,0
147,-349,0,0,0,0,0,0,0,0,0,-1,1371,1373,0,0
154,-349,0,0,0,0,0,0,0,0,0,-1,1378,1373,0,0
161,-349,0,0,0,0,0,0,0,0,0,-1,1385,1373,0,0
168,-349,0,0,0,0,0,0,0,0,0,-1,1392,1373,0,0
175,-349,0,0,0,0,0,0,0,0,0,-1,1399,1373,0,0
182,-349,0,0,0,0,0,0,0,0,0,-1,1406,1373,0,0
189,-349,0,0,0,0,0,0,0,0,0,-1,1413,1373,0,0
196,-349,0,0,0,0,0,0,0,0,0,-1,1420,1373,0,0
203,-349,0,0,0,0,0,0,0,0,0,-1,1427,1373,0,0
210,-349,0,0,0,0,0,0,0,0,0,-1,1434,1373,0,0
217,-349,0,0,0,0,0,0,0,0,0,-1,1441,1373,0,0
224,-349,0,0,0,0,0,0,0,0,0,-1,1448,1373,0,0
231,-349,0,0,0,0,0,0,0,0,0,-1,1455,1373,0,0
238,-349,0,0,0,0,0,0,0,0,0,-1,1462,1373,0,0
245,-349,0,0,0,0,0,0,0,0,0,-1,1469,1373,0,0
252,-349,0,0,0,0,0,0,0,0,0,-1,1476,1373,0,0
259,-349,0,0,0,0,0,0,0,0,0,-1,1483,1373,0,0
266,-349,0,0,0,0,0,0,0,0,0,-1,1490,1373,0,0
273,-349,0,0,0,0,0,0,0,0,0,-1,1497,1373,0,0
280,-349,0,0,0,0,0,0,0,0,0,-1,1504,1373,0,0
287,-349,0,0,0,0,0,0,0,0,0,-1,1511,1373,0,0
294,-349,0,0,0,0,0,0,0,0,0,-1,1518,1373,0,0
301,-349,0,0,0,0,0,0,0,0,0,-1,1525,1373,0,0
308,-349,0,0,0,0,0,0,0,0,0,-1,1532,1373,0,0
315,-349,0,0,0,0,0,0,0,0,0,-1,1539,1373,0,0
322,-349,0,0,0,0,0,0,0,0,0,-1,1546,1373,0,0
329,-349,0,0,0,0,0,0,0,0,0,-1,1553,1373,0,0
336,-349,0,0,0,0,0,0,0,0,0,-1,1560,1373,0,0
343,-349,0,0,0,0,0,0,0,0,0,-1,1567,1373,0,0
350,-349,0,0,0,0,0,0,0,0,0,-1,1574,1373,0,0
357,-349,0,0,0,0,0,0,0,0,0,-1,1581,1373,0,0
364,-349,0,0,0,0,0,0,0,0,0,-1,1588,1373,0,0
371,-349,0,0,0,0,0,0,0,0,0,-1,1595,1373,0,0
378,-349,0,0,0,0,0,0,0,0,0,-1,1602,1373,0,0
385,-349,0,0,0,0,0,0,0,0,0,-1,1609,1373,0,0
392,-349,0,0,0,0,0,0,0,0,0,-1,1616,1373,0,0
399,-349,0,0,0,0,0,0,0,0,0,-1,1623,1373,0,0
406,-349,0,0,0,0,0,0,0,0,0,-1,1630,1373,0,0
413,-349,0,0,0,0,0,0,0,0,0,-1,1637,1373,0,0
420,-349,0,0,0,0,0,0,0,0,0,-1,1644,1373,0,0
427,-349,0,0,0,0,0,0,0,0,0,-1,1651,1373,0,0
434,-349,0,0,0,0,0,0,0,0,0,-1,1658,1373,0,0
441,-349,0,0,0,0,0,0,0,0,0,-1,1665,1373,0,0
448,-349,0,0,0,0,0,0,0,0,0,-1,1672,1373,0,0
455,-349,0,0,0,0,0,0,0,0,0,-1,1679,1373,0,0
462,-349,0,0,0,0,0,0,0,0,0,-1,1686,1373,0,0
469,-349,0,0,0,0,0,0,0,0,0,-1,1693,1373,0,0
476,-349,0,0,0,0,0,0,0,0,0,-1,1700,1373,0,0
483,-349,0,0,0,0,0,0,0,0,0,-1,1707,1373,0,0
490,-349,0,0,0,0,0,0,0,0,0,-1,1714,1373,0,0
497,-349,0,0,0,0,0,0,0,0,0,-1,1721,1373,0,0
504,-349,0,0,0,0,0,0,0,0,0,-1,1728,1373,0,0
511,-349,0,0,0,0,0,0,0,0,0,-1,1735,1373,0,0
518,-349,0,0,0,0,0,0,0,0,0,-1,1742,1373,0,0
525,-349,0,0,0,0,0,0,0,0,0,-1,1749,1373,0,0
532,-349,0,0,0,0,0,0,0,0,0,-1,1756,1373,0,0
539,-349,0,0,0,0,0,0,0,0,0,-1,1763,1373,0,0
546,-349,0,0,0,0,0,0,0,0,0,-1,1770,1373,0,0
553,-349,0,0,0,0,0,0,0,0,0,-1,1777,1373,0,0
560,-349,63.5519,3.94397,0,0,0,0,0,0,0,-1,1784,1373,63.5519,-3.94394
567,-349,64.7863,2.54688,0,0,0,0,0,0,0,-1,1791,1373,64.7863,-2.5469
574,-349,65.8214,1.63818,0,0,0,0,0,0,0,-1,1798,1373,65.8214,-1.63813
581,-349,42.8947,6.78381,0,0,0,0,0,0,0,-1,1805,1373,42.8946,-6.78376
588,-349,44.8121,5.06213,0,0,0,0,0,0,0,-1,1812,1373,44.8121,-5.06215
595,-349,44.4338,6.14099,0,0,0,0,0,0,0,-1,1819,1373,44.4338,-6.14095
602,-349,35.6641,3.26465,0,0,0,0,0,0,0,-1,1826,1373,35.6641,-3.26468
609,-349,34.7175,4.401,0,0,0,0,0,0,0,-1,1833,1373,34.7175,-4.40096
616,-349,27.1451,6.68274,0,0,0,0,0,0,0,-1,1840,1373,27.1451,-6.6828
623,-349,18.8478,2.75769,0,0,0,0,0,0,0,-1,1847,1373,18.8478,-2.75774
630,-349,15.4948,6.47644,0,0,0,0,0,0,0,-1,1854,1373,15.4947,-6.4765
637,-349,16.5161,6.92639,0,0,0,0,0,0,0,-1,1861,1373,16.5161,-6.92636
644,-349,42.0658,18.6453,0,0,0,0,0,0,0,-1,1868,1373,42.0658,-18.6452
651,-349,42.095,17.8768,-0.00147472,0.00122197,-0.000323435,0.00126022,-0.00151297,-1.45308,0.00160332,0.0483616,1875,1373,42.0949,-17.8769
658,-349,41.8955,17.2003,-0.000742392,0.000684654,-0.000141224,0.000698495,-0.000756233,-1.4731,0.000840108,0.0272307,1882,1373,41.8955,-17.2004
665,-349,41.8235,16.4609,4.70911e-05,0.000214199,-0.000109242,0.000268177,-6.88684e-06,-1.11187,0.000181124,0.0209665,1889,1373,41.8235,-16.4609
672,-349,41.8027,15.7274,0.000819277,-0.000115643,-0.000130068,0.000837035,-0.000133401,-0.13569,0.000607393,0.0157946,1896,1373,41.8027,-15.7274
679,-349,41.7642,15.0323,0.0015879,-0.000414026,-0.000163285,0.00160113,-0.000427256,-0.0808519,0.00123473,0.0167125,1903,1373,41.7642,-15.0323
686,-349,41.8096,14.3237,0.00237897,-0.000643675,-0.000231575,0.0023966,-0.000661313,-0.0760222,0.00185783,0.0181124,1910,1373,41.8096,-14.3238
693,-349,41.7119,13.5664,0.00319208,-0.000822924,-0.000318469,0.00321719,-0.000848028,-0.0786642,0.00247635,0.0191875,1917,1373,41.7119,-13.5664
700,-349,41.653,12.8638,0.00404482,-0.000907411,-0.000443991,0.00408431,-0.000946902,-0.0887121,0.00308729,0.0169716,1924,1373,41.6529,-12.8638
707,-349,41.7241,12.0981,0.00472529,-0.00102578,-0.000438062,0.00475846,-0.00105895,-0.0755894,0.00357792,0.0366179,1931,1373,41.7241,-12.0981
714,-349,41.8488,11.2166,0,0,0,0,0,0,0,-1,1938,1373,41.8488,-11.2165
721,-349,19.6688,5.93604,0,0,0,0,0,0,0,-1,1945,1373,19.6688,-5.93606
728,-349,18.6333,3.73218,0,0,0,0,0,0,0,-1,1952,1373,18.6333,-3.73214
735,-349,18.1918,3.39954,0,0,0,0,0,0,0,-1,1959,1373,18.1918,-3.3995
742,-349,20.7345,2.07483,0,0,0,0,0,0,0,-1,1966,1373,20.7345,-2.07485
749,-349,21.9037,1.45789,0,0,0,0,0,0,0,-1,1973,1373,21.9037,-1.45788
756,-349,0,0,0,0,0,0,0,0,0,-1,1980,1373,0,0
763,-349,0,0,0,0,0,0,0,0,0,-1,1987,1373,0,0
770,-349,0,0,0,0,0,0,0,0,0,-1,1994,1373,0,0
777,-349,0,0,0,0,0,0,0,0,0,-1,2001,1373,0,0
784,-349,0,0,0,0,0,0,0,0,0,-1,2008,1373,0,0
791,-349,0,0,0,0,0,0,0,0,0,-1,2015,1373,0,0
798,-349,0,0,0,0,0,0,0,0,0,-1,2022,1373,0,0
805,-349,0,0,0,0,0,0,0,0,0,-1,2029,1373,0,0
812,-349,0,0,0,0,0,0,0,0,0,-1,2036,1373,0,0
-700,-356,0,0,0,0,0,0,0,0,0,-1,524,1380,0,0
-693,-356,0,0,0,0,0,0,0,0,0,-1,531,1380,0,0
-686,-356,0,0,0,0,0,0,0,0,0,-1,538,1380,0,0
-679,-356,0,0,0,0,0,0,0,0,0,-1,545,1380,0,0
-672,-356,0,0,0,0,0,0,0,0,0,-1,552,1380,0,0
-665,-356,0,0,0,0,0,0,0,0,0,-1,559,1380,0,0
-658,-356,0,0,0,0,0,0,0,0,0,-1,566,1380,0,0
-651,-356,0,0,0,0,0,0,0,0,0,-1,573,1380,0,0
-644,-356,0,0,0,0,0,0,0,0,0,-1,580,1380,0,0
-637,-356,0,0,0,0,0,0,0,0,0,-1,587,1380,0,0
-630,-356,-8.23126,-5.01917,0,0,0,0,0,0,0,-1,594,1380,-8.23124,5.0192
-623,-356,-0.263855,-0.675781,0,0,0,0,0,0,0,-1,601,1380,-0.263835,0.675841
-616,-356,-8.26532,-3.43945,0,0,0,0,0,0,0,-1,608,1380,-8.2653,3.43948
-609,-356,-4.88483,0.734497,0,0,0,0,0,0,0,-1,615,1380,-4.88485,-0.734532
-602,-356,-9.06635,2.4021,0,0,0,0,0,0,0,-1,622,1380,-9.06634,-2.40206
-595,-356,-8.45703,3.61853,0,0,0,0,0,0,0,-1,629,1380,-8.45706,-3.61848
-588,-356,-9.31738,4.14258,0,0,0,0,0,0,0,-1,636,1380,-9.31736,-4.14255
-581,-356,-16.5185,7.32312,0,0,0,0,0,0,0,-1,643,1380,-16.5185,-7.32306
-574,-356,-23.9853,11.0203,0,0,0,0,0,0,0,-1,650,1380,-23.9853,-11.0203
-567,-356,-24.1276,11.6252,0.00446052,0.00393757,0.00306697,0.00727714,0.00112094,0.742874,0.00452431,0.0227314,657,1380,-24.1276,-11.6252
-560,-356,-24.0682,12.4865,0.00363114,0.00280823,0.00240962,0.00566418,0.000775193,0.700836,0.00354608,0.0179093,664,1380,-24.0682,-12.4865
-553,-356,-24.1216,13.2672,0.00311731,0.00189951,0.00194832,0.00454967,0.000467154,0.633944,0.00289001,0.0206738,671,1380,-24.1216,-13.2672
-546,-356,-24.2062,14.0029,0.00281751,0.00115194,0.00163473,0.00381936,0.000150095,0.549815,0.00249771,0.0221604,678,1380,-24.2062,-14.0029
-539,-356,-24.2399,14.7882,0.00272915,0.000549701,0.00146571,0.00346584,-0.000186994,0.465741,0.00237535,0.0155367,685,1380,-24.2399,-14.7883
-532,-356,-24.2995,15.5835,0.00285125,0.000115623,0.00145597,0.00348112,-0.00051425,0.408303,0.00250979,0.0157426,692,1380,-24.2995,-15.5835
-525,-356,-24.3204,16.3461,0.00317465,-0.000184617,0.00157955,0.00380069,-0.000810657,0.377349,0.00284281,0.0137608,699,1380,-24.3205,-16.346
-518,-356,-24.3325,17.1276,0.00374119,-0.000269304,0.00186051,0.00447136,-0.000999474,0.373987,0.00336392,0.0141172,706,1380,-24.3325,-17.1275
-511,-356,-24.3323,17.9335,0,0,0,0,0,0,0,-1,713,1380,-24.3323,-17.9335
-504,-356,-14.3925,12.3971,0,0,0,0,0,0,0,-1,720,1380,-14.3925,-12.3971
-497,-356,-5.68604,4.96387,0,0,0,0,0,0,0,-1,727,1380,-5.68605,-4.96385
-490,-356,-7.95288,5.5625,0,0,0,0,0,0,0,-1,734,1380,-7.95285,-5.56246
-483,-356,-7.2627,4.07446,0,0,0,0,0,0,0,-1,741,1380,-7.2627,-4.07441
-476,-356,-5.1936,4.16016,0,0,0,0,0,0,0,-1,748,1380,-5.1936,-4.16012
-469,-356,-10.0883,0.536011,0,0,0,0,0,0,0,-1,755,1380,-10.0883,-0.535989
-462,-356,-12.3481,-0.215698,0,0,0,0,0,0,0,-1,762,1380,-12.3481,0.215641
-455,-356,-13.1367,-0.264648,0,0,0,0,0,0,0,-1,769,1380,-13.1367,0.264647
-448,-356,-13.9116,-0.310181,0,0,0,0,0,0,0,-1,776,1380,-13.9115,0.310207
-441,-356,-13.1602,3.05603,0,0,0,0,0,0,0,-1,783,1380,-13.1602,-3.05609
-434,-356,0,0,0,0,0,0,0,0,0,-1,790,1380,0,0
-427,-356,0,0,0,0,0,0,0,0,0,-1,797,1380,0,0
-420,-356,0,0,0,0,0,0,0,0,0,-1,804,1380,0,0
-413,-356,0,0,0,0,0,0,0,0,0,-1,811,1380,0,0
-406,-356,0,0,0,0,0,0,0,0,0,-1,818,1380,0,0
-399,-356,0,0,0,0,0,0,0,0,0,-1,825,1380,0,0
-392,-356,0,0,0,0,0,0,0,0,0,-1,832,1380,0,0
-385,-356,0,0,0,0,0,0,0,0,0,-1,839,1380,0,0
-378,-356,0,0,0,0,0,0,0,0,0,-1,846,1380,0,0
-371,-356,0,0,0,0,0,0,0,0,0,-1,853,1380,0,0
-364,-356,0,0,0,0,0,0,0,0,0,-1,860,1380,0,0
-357,-356,0,0,0,0,0,0,0,0,0,-1,867,1380,0,0
-350,-356,0,0,0,0,0,0,0,0,0,-1,874,1380,0,0
-343,-356,0,0,0,0,0,0,0,0,0,-1,881,1380,0,0
-336,-356,0,0,0,0,0,0,0,0,0,-1,888,1380,0,0
-329,-356,0,0,0,0,0,0,0,0,0,-1,895,1380,0,0
-322,-356,0,0,0,0,0,0,0,0,0,-1,902,1380,0,0
-315,-356,0,0,0,0,0,0,0,0,0,-1,909,1380,0,0
-308,-356,0,0,0,0,0,0,0,0,0,-1,916,1380,0,0
-301,-356,0,0,0,0,0,0,0,0,0,-1,923,1380,0,0
-294,-356,0,0,0,0,0,0,0,0,0,-1,930,1380,0,0
-287,-356,0,0,0,0,0,0,0,0,0,-1,937,1380,0,0
-280,-356,0,0,0,0,0,0,0,0,0,-1,944,1380,0,0
-273,-356,0,0,0,0,0,0,0,0,0,-1,951,1380,0,0
-266,-356,0,0,0,0,0,0,0,0,0,-1,958,1380,0,0
-259,-356,0,0,0,0,0,0,0,0,0,-1,965,1380,0,0
-252,-356,0,0,0,0,0,0,0,0,0,-1,972,1380,0,0
-245,-356,0,0,0,0,0,0,0,0,0,-1,979,1380,0,0
-238,-356,0,0,0,0,0,0,0,0,0,-1,986,1380,0,0
-231,-356,0,0,0,0,0,0,0,0,0,-1,993,1380,0,0
-224,-356,0,0,0,0,0,0,0,0,0,-1,1000,1380,0,0
-217,-356,0,0,0,0,0,0,0,0,0,-1,1007,1380,0,0
-210,-356,0,0,0,0,0,0,0,0,0,-1,1014,1380,0,0
-203,-356,0,0,0,0,0,0,0,0,0,-1,1021,1380,0,0
-196,-356,0,0,0,0,0,0,0,0,0,-1,1028,1380,0,0
-189,-356,0,0,0,0,0,0,0,0,0,-1,1035,1380,0,0
-182,-356,0,0,0,0,0,0,0,0,0,-1,1042,1380,0,0
-175,-356,0,0,0,0,0,0,0,0,0,-1,1049,1380,0,0
-168,-356,0,0,0,0,0,0,0,0,0,-1,1056,1380,0,0
-161,-356,0,0,0,0,0,0,0,0,0,-1,1063,1380,0,0
-154,-356,0,0,0,0,0,0,0,0,0,-1,1070,1380,0,0
-147,-356,0,0,0,0,0,0,0,0,0,-1,1077,1380,0,0
-140,-356,0,0,0,0,0,0,0,0,0,-1,1084,1380,0,0
-133,-356,0,0,0,0,0,0,0,0,0,-1,1091,1380,0,0
-126,-356,0,0,0,0,0,0,0,0,0,-1,1098,1380,0,0
-119,-356,0,0,0,0,0,0,0,0,0,-1,1105,1380,0,0
-112,-356,0,0,0,0,0,0,0,0,0,-1,1112,1380,0,0
-105,-356,0,0,0,0,0,0,0,0,0,-1,1119,1380,0,0
-98,-356,0,0,0,0,0,0,0,0,0,-1,1126,1380,0,0
-91,-356,0,0,0,0,0,0,0,0,0,-1,1133,1380,0,0
-84,-356,0,0,0,0,0,0,0,0,0,-1,1140,1380,0,0
-77,-356,0,0,0,0,0,0,0,0,0,-1,1147,1380,0,0
-70,-356,0,0,0,0,0,0,0,0,0,-1,1154,1380,0,0
-63,-356,0,0,0,0,0,0,0,0,0,-1,1161,1380,0,0
-56,-356,0,0,0,0,0,0,0,0,0,-1,1168,1380,0,0
-49,-356,0,0,0,0,0,0,0,0,0,-1,1175,1380,0,0
-42,-356,0,0,0,0,0,0,0,0,0,-1,1182,1380,0,0
-35,-356,0,0,0,0,0,0,0,0,0,-1,1189,1380,0,0
-28,-356,0,0,0,0,0,0,0,0,0,-1,1196,1380,0,0
-21,-356,0,0,0,0,0,0,0,0,0,-1,1203,1380,0,0
-14,-356,0,0,0,0,0,0,0,0,0,-1,1210,1380,0,0
-7,-356,0,0,0,0,0,0,0,0,0,-1,1217,1380,0,0
0,-356,0,0,0,0,0,0,0,0,0,-1,1224,1380,0,0
7,-356,0,0,0,0,0,0,0,0,0,-1,1231,1380,0,0
14,-356,0,0,0,0,0,0,0,0,0,-1,1238,1380,0,0
21,-356,0,0,0,0,0,0,0,0,0,-1,1245,1380,0,0
28,-356,0,0,0,0,0,0,0,0,0,-1,1252,1380,0,0
35,-356,0,0,0,0,0,0,0,0,0,-1,1259,1380,0,0
42,-356,0,0,0,0,0,0,0,0,0,-1,1266,1380,0,0
49,-356,0,0,0,0,0,0,0,0,0,-1,1273,1380,0,0
56,-356,0,0,0,0,0,0,0,0,0,-1,1280,1380,0,0
63,-356,0,0,0,0,0,0,0,0,0,-1,1287,1380,0,0
70,-356,0,0,0,0,0,0,0,0,0,-1,1294,1380,0,0
77,-356,0,0,0,0,0,0,0,0,0,-1,1301,1380,0,0
84,-356,0,0,0,0,0,0,0,0,0,-1,1308,1380,0,0
91,-356,0,0,0,0,0,0,0,0,0,-1,1315,1380,0,0
98,-356,0,0,0,0,0,0,0,0,0,-1,1322,1380,0,0
105,-356,0,0,0,0,0,0,0,0,0,-1,1329,1380,0,0
112,-356,0,0,0,0,0,0,0,0,0,-1,1336,1380,0,0
119,-356,0,0,0,0,0,0,0,0,0,-1,1343,1380,0,0
126,-356,0,0,0,0,0,0,0,0,0,-1,1350,1380,0,0
133,-356,0,0,0,0,0,0,0,0,0,-1,1357,1380,0,0
140,-356,0,0,0,0,0,0,0,0,0,-1,1364,1380,0,0
147,-356,0,0,0,0,0,0,0,0,0,-1,1371,1380,0,0
154,-356,0,0,0,0,0,0,0,0,0,-1,1378,1380,0,0
161,-356,0,0,0,0,0,0,0,0,0,-1,1385,1380,0,0
168,-356,0,0,0,0,0,0,0,0,0,-1,1392,1380,0,0
175,-356,0,0,0,0,0,0,0,0,0,-1,1399,1380,0,0
182,-356,0,0,0,0,0,0,0,0,0,-1,1406,1380,0,0
189,-356,0,0,0,0,0,0,0,0,0,-1,1413,1380,0,0
196,-356,0,0,0,0,0,0,0,0,0,-1,1420,1380,0,0
203,-356,0,0,0,0,0,0,0,0,0,-1,1427,1380,0,0
210,-356,0,0,0,0,0,0,0,0,0,-1,1434,1380,0,0
217,-356,0,0,0,0,0,0,0,0,0,-1,1441,1380,0,0
224,-356,0,0,0,0,0,0,0,0,0,-1,1448,1380,0,0
231,-356,0,0,0,0,0,0,0,0,0,-1,1455,1380,0,0
238,-356,0,0,0,0,0,0,0,0,0,-1,1462,1380,0,0
245,-356,0,0,0,0,0,0,0,0,0,-1,1469,1380,0,0
252,-356,0,0,0,0,0,0,0,0,0,-1,1476,1380,0,0
259,-356,0,0,0,0,0,0,0,0,0,-1,1483,1380,0,0
266,-356,0,0,0,0,0,0,0,0,0,-1,1490,1380,0,0
273,-356,0,0,0,0,0,0,0,0,0,-1,1497,1380,0,0
280,-356,0,0,0,0,0,0,0,0,0,-1,1504,1380,0,0
287,-356,0,0,0,0,0,0,0,0,0,-1,1511,1380,0,0
294,-356,0,0,0,0,0,0,0,0,0,-1,1518,1380,0,0
301,-356,0,0,0,0,0,0,0,0,0,-1,1525,1380,0,0
308,-356,0,0,0,0,0,0,0,0,0,-1,1532,1380,0,0
315,-356,0,0,0,0,0,0,0,0,0,-1,1539,1380,0,0
322,-356,0,0,0,0,0,0,0,0,0,-1,1546,1380,0,0
329,-356,0,0,0,0,0,0,0,0,0,-1,1553,1380,0,0
336,-356,0,0,0,0,0,0,0,0,0,-1,1560,1380,0,0
343,-356,0,0,0,0,0,0,0,0,0,-1,1567,1380,0,0
350,-356,0,0,0,0,0,0,0,0,0,-1,1574,1380,0,0
357,-356,0,0,0,0,0,0,0,0,0,-1,1581,1380,0,0
364,-356,0,0,0,0,0,0,0,0,0,-1,1588,1380,0,0
371,-356,0,0,0,0,0,0,0,0,0,-1,1595,1380,0,0
378,-356,0,0,0,0,0,0,0,0,0,-1,1602,1380,0,0
385,-356,0,0,0,0,0,0,0,0,0,-1,1609,1380,0,0
392,-356,0,0,0,0,0,0,0,0,0,-1,1616,1380,0,0
399,-356,0,0,0,0,0,0,0,0,0,-1,1623,1380,0,0
406,-356,0,0,0,0,0,0,0,0,0,-1,1630,1380,0,0
413,-356,0,0,0,0,0,0,0,0,0,-1,1637,1380,0,0
420,-356,0,0,0,0,0,0,0,0,0,-1,1644,1380,0,0
427,-356,0,0,0,0,0,0,0,0,0,-1,1651,1380,0,0
434,-356,0,0,0,0,0,0,0,0,0,-1,1658,1380,0,0
441,-356,0,0,0,0,0,0,0,0,0,-1,1665,1380,0,0
448,-356,0,0,0,0,0,0,0,0,0,-1,1672,1380,0,0
455,-356,0,0,0,0,0,0,0,0,0,-1,1679,1380,0,0
462,-356,0,0,0,0,0,0,0,0,0,-1,1686,1380,0,0
469,-356,0,0,0,0,0,0,0,0,0,-1,1693,1380,0,0
476,-356,0,0,0,0,0,0,0,0,0,-1,1700,1380,0,0
483,-356,0,0,0,0,0,0,0,0,0,-1,1707,1380,0,0
490,-356,0,0,0,0,0,0,0,0,0,-1,1714,1380,0,0
497,-356,0,0,0,0,0,0,0,0,0,-1,1721,1380,0,0
504,-356,0,0,0,0,0,0,0,0,0,-1,1728,1380,0,0
511,-356,0,0,0,0,0,0,0,0,0,-1,1735,1380,0,0
518,-356,0,0,0,0,0,0,0,0,0,-1,1742,1380,0,0
525,-356,0,0,0,0,0,0,0,0,0,-1,1749,1380,0,0
532,-356,0,0,0,0,0,0,0,0,0,-1,1756,1380,0,0
539,-356,0,0,0,0,0,0,0,0,0,-1,1763,1380,0,0
546,-356,0,0,0,0,0,0,0,0,0,-1,1770,1380,0,0
553,-356,0,0,0,0,0,0,0,0,0,-1,1777,1380,0,0
560,-356,63.6171,3.12183,0,0,0,0,0,0,0,-1,1784,1380,63.617,-3.12183
567,-356,65.0425,1.89966,0,0,0,0,0,0,0,-1,1791,1380,65.0424,-1.8996
574,-356,45.5742,3.39575,0,0,0,0,0,0,0,-1,1798,1380,45.5742,-3.39574
581,-356,45.6708,3.64172,0,0,0,0,0,0,0,-1,1805,1380,45.6707,-3.64175
588,-356,44.4739,4.87085,0,0,0,0,0,0,0,-1,1812,1380,44.4739,-4.87086
595,-356,32.0834,5.86084,0,0,0,0,0,0,0,-1,1819,1380,32.0834,-5.86079
602,-356,30.1604,6.07104,0,0,0,0,0,0,0,-1,1826,1380,30.1604,-6.07104
609,-356,28.3435,6.48901,0,0,0,0,0,0,0,-1,1833,1380,28.3435,-6.48899
616,-356,26.9358,6.80872,0,0,0,0,0,0,0,-1,1840,1380,26.9358,-6.80877
623,-356,16.1803,1.07532,0,0,0,0,0,0,0,-1,1847,1380,16.1803,-1.07529
630,-356,16.4138,6.91553,0,0,0,0,0,0,0,-1,1854,1380,16.4138,-6.9155
637,-356,24.8021,12.0151,0,0,0,0,0,0,0,-1,1861,1380,24.8022,-12.0151
644,-356,41.2825,18.8046,0,0,0,0,0,0,0,-1,1868,1380,41.2825,-18.8045
651,-356,41.2292,17.9746,-0.0012411,0.00127157,-0.000358277,0.00132166,-0.00129119,-1.4319,0.00150856,0.0211571,1875,1380,41.2293,-17.9746
658,-356,41.1428,17.2013,-0.000554802,0.000670318,-0.000121165,0.000682187,-0.000566671,-1.47316,0.000722056,0.0140976,1882,1380,41.1428,-17.2013
665,-356,41.1031,16.5146,0.000202305,0.000125001,-7.55311e-06,0.000203036,0.00012427,-0.0964904,0.0001182,0.0142789,1889,1380,41.1031,-16.5146
672,-356,41.0645,15.809,0.000973746,-0.000331854,6.27042e-05,0.000976751,-0.000334859,0.0478802,0.000786906,0.0158886,1896,1380,41.0644,-15.809
679,-356,41.0538,15.082,0.00176642,-0.000770535,0.000108805,0.00177108,-0.000775193,0.0427832,0.00150711,0.018392,1903,1380,41.0538,-15.0821
686,-356,41.031,14.3287,0.00260935,-0.00114312,0.000106673,0.00261238,-0.00114615,0.0283969,0.00222434,0.0196601,1910,1380,41.031,-14.3288
693,-356,40.9897,13.6246,0.00349631,-0.00145687,7.31203e-05,0.00349739,-0.00145795,0.014758,0.00294062,0.0162013,1917,1380,40.9898,-13.6246
700,-356,40.9788,12.8939,0.00446393,-0.00163344,-3.9271e-05,0.00446418,-0.00163369,-0.0064403,0.00364484,0.0229274,1924,1380,40.9787,-12.894
707,-356,41.111,11.9945,0,0,0,0,0,0,0,-1,1931,1380,41.111,-11.9945
714,-356,19.6907,5.82129,0,0,0,0,0,0,0,-1,1938,1380,19.6907,-5.82132
721,-356,17.2948,4.1958,0,0,0,0,0,0,0,-1,1945,1380,17.2948,-4.19584
728,-356,19.1846,2.31519,0,0,0,0,0,0,0,-1,1952,1380,19.1846,-2.31514
735,-356,20.0731,2.50842,0,0,0,0,0,0,0,-1,1959,1380,20.0731,-2.50844
742,-356,21.0111,2.43762,0,0,0,0,0,0,0,-1,1966,1380,21.0112,-2.43762
749,-356,22.1411,1.83276,0,0,0,0,0,0,0,-1,1973,1380,22.1411,-1.83275
756,-356,0,0,0,0,0,0,0,0,0,-1,1980,1380,0,0
763,-356,0,0,0,0,0,0,0,0,0,-1,1987,1380,0,0
770,-356,0,0,0,0,0,0,0,0,0,-1,1994,1380,0,0
777,-356,0,0,0,0,0,0,0,0,0,-1,2001,1380,0,0
784,-356,0,0,0,0,0,0,0,0,0,-1,2008,1380,0,0
791,-356,0,0,0,0,0,0,0,0,0,-1,2015,1380,0,0
798,-356,0,0,0,0,0,0,0,0,0,-1,2022,1380,0,0
805,-356,0,0,0,0,0,0,0,0,0,-1,2029,1380,0,0
812,-356,0,0,0,0,0,0,0,0,0,-1,2036,1380,0,0
-700,-363,0,0,0,0,0,0,0,0,0,-1,524,1387,0,0
-693,-363,0,0,0,0,0,0,0,0,0,-1,531,1387,0,0
-686,-363,0,0,0,0,0,0,0,0,0,-1,538,1387,0,0
-679,-363,0,0,0,0,0,0,0,0,0,-1,545,1387,0,0
-672,-363,0,0,0,0,0,0,0,0,0,-1,552,1387,0,0
-665,-363,0,0,0,0,0,0,0,0,0,-1,559,1387,0,0
-658,-363,0,0,0,0,0,0,0,0,0,-1,566,1387,0,0
-651,-363,0,0,0,0,0,0,0,0,0,-1,573,1387,0,0
-644,-363,0,0,0,0,0,0,0,0,0,-1,580,1387,0,0
-637,-363,0,0,0,0,0,0,0,0,0,-1,587,1387,0,0
-630,-363,0,0,0,0,0,0,0,0,0,-1,594,1387,0,0
-623,-363,-9.67566,-5.91846,0,0,0,0,0,0,0,-1,601,1387,-9.67563,5.91847
-616,-363,-9.02985,-2.98083,0,0,0,0,0,0,0,-1,608,1387,-9.02987,2.98079
-609,-363,-4.90265,0.195679,0,0,0,0,0,0,0,-1,615,1387,-4.90263,-0.195721
-602,-363,-9.65009,3.5321,0,0,0,0,0,0,0,-1,622,1387,-9.65007,-3.53211
-595,-363,-8.00256,3.48853,0,0,0,0,0,0,0,-1,629,1387,-8.00256,-3.48855
-588,-363,-10.8846,4.49768,0,0,0,0,0,0,0,-1,636,1387,-10.8846,-4.49773
-581,-363,-11.7469,5.15161,0,0,0,0,0,0,0,-1,643,1387,-11.747,-5.15167
-574,-363,-17.8334,8.33801,0,0,0,0,0,0,0,-1,650,1387,-17.8334,-8.33804
-567,-363,-23.4067,11.665,0,0,0,0,0,0,0,-1,657,1387,-23.4067,-11.665
-560,-363,-23.3311,12.4755,0.00399404,0.00318886,0.00288425,0.00650366,0.000679241,0.716054,0.00412803,0.0144166,664,1387,-23.331,-12.4754
-553,-363,-23.3773,13.2893,0.00335986,0.0022018,0.00227921,0.00513244,0.000429227,0.661006,0.0032879,0.0140572,671,1387,-23.3773,-13.2893
-546,-363,-23.4349,14.0483,0.0029392,0.00139563,0.00182976,0.00415329,0.000181547,0.585822,0.00271037,0.0140871,678,1387,-23.4349,-14.0483
-539,-363,-23.436,14.8175,0.00273632,0.000762662,0.00153667,0.00357574,-7.67581e-05,0.499967,0.00240982,0.0155673,685,1387,-23.436,-14.8175
-532,-363,-23.5169,15.6219,0.00274256,0.0003292,0.00141459,0.00339522,-0.000323457,0.432274,0.00237864,0.0143091,692,1387,-23.5169,-15.622
-525,-363,-23.5579,16.3838,0.00294467,3.50013e-05,0.00142614,0.00352709,-0.000547425,0.38772,0.00255351,0.0134068,699,1387,-23.5579,-16.3838
-518,-363,-23.5644,17.1416,0.00335883,-5.58242e-05,0.0015944,0.00398754,-0.000684535,0.375604,0.00291347,0.0113746,706,1387,-23.5644,-17.1416
-511,-363,-23.5196,17.9359,0.00408498,7.72923e-05,0.00197944,0.00489779,-0.00073552,0.389635,0.00353596,0.0309189,713,1387,-23.5196,-17.9359
-504,-363,-23.451,18.7626,0,0,0,0,0,0,0,-1,720,1387,-23.451,-18.7626
-497,-363,-7.18842,7.29944,0,0,0,0,0,0,0,-1,727,1387,-7.18839,-7.29945
-490,-363,-5.42413,4.6958,0,0,0,0,0,0,0,-1,734,1387,-5.42412,-4.69583
-483,-363,-6.28375,4.1394,0,0,0,0,0,0,0,-1,741,1387,-6.28374,-4.13944
-476,-363,-5.83807,4.31018,0,0,0,0,0,0,0,-1,748,1387,-5.8381,-4.31013
-469,-363,-10.7125,0.697754,0,0,0,0,0,0,0,-1,755,1387,-10.7125,-0.697811
-462,-363,-9.55951,-0.0830078,0,0,0,0,0,0,0,-1,762,1387,-9.55949,0.0830163
-455,-363,-13.1008,-0.290894,0,0,0,0,0,0,0,-1,769,1387,-13.1008,0.290921
-448,-363,-11.7324,2.46606,0,0,0,0,0,0,0,-1,776,1387,-11.7324,-2.46605
-441,-363,-12.4464,2.5354,0,0,0,0,0,0,0,-1,783,1387,-12.4463,-2.53537
-434,-363,-13.6918,2.14661,0,0,0,0,0,0,0,-1,790,1387,-13.6918,-2.14662
-427,-363,0,0,0,0,0,0,0,0,0,-1,797,1387,0,0
-420,-363,0,0,0,0,0,0,0,0,0,-1,804,1387,0,0
-413,-363,0,0,0,0,0,0,0,0,0,-1,811,1387,0,0
-406,-363,0,0,0,0,0,0,0,0,0,-1,818,1387,0,0
-399,-363,0,0,0,0,0,0,0,0,0,-1,825,1387,0,0
-392,-363,0,0,0,0,0,0,0,0,0,-1,832,1387,0,0
-385,-363,0,0,0,0,0,0,0,0,0,-1,839,1387,0,0
-378,-363,0,0,0,0,0,0,0,0,0,-1,846,1387,0,0
-371,-363,0,0,0,0,0,0,0,0,0,-1,853,1387,0,0
-364,-363,0,0,0,0,0,0,0,0,0,-1,860,1387,0,0
-357,-363,0,0,0,0,0,0,0,0,0,-1,867,1387,0,0
-350,-363,0,0,0,0,0,0,0,0,0,-1,874,1387,0,0
-343,-363,0,0,0,0,0,0,0,0,0,-1,881,1387,0,0
-336,-363,0,0,0,0,0,0,0,0,0,-1,888,1387,0,0
-329,-363,0,0,0,0,0,0,0,0,0,-1,895,1387,0,0
-322,-363,0,0,0,0,0,0,0,0,0,-1,902,1387,0,0
-315,-363,0,0,0,0,0,0,0,0,0,-1,909,1387,0,0
-308,-363,0,0,0,0,0,0,0,0,0,-1,916,1387,0,0
-301,-363,0,0,0,0,0,0,0,0,0,-1,923,1387,0,0
-294,-363,0,0,0,0,0,0,0,0,0,-1,930,1387,0,0
-287,-363,0,0,0,0,0,0,0,0,0,-1,937,1387,0,0
-280,-363,0,0,0,0,0,0,0,0,0,-1,944,1387,0,0
-273,-363,0,0,0,0,0,0,0,0,0,-1,951,1387,0,0
-266,-363,0,0,0,0,0,0,0,0,0,-1,958,1387,0,0
-259,-363,0,0,0,0,0,0,0,0,0,-1,965,1387,0,0
-252,-363,0,0,0,0,0,0,0,0,0,-1,972,1387,0,0
-245,-363,0,0,0,0,0,0,0,0,0,-1,979,1387,0,0
-238,-363,0,0,0,0,0,0,0,0,0,-1,986,1387,0,0
-231,-363,0,0,0,0,0,0,0,0,0,-1,993,1387,0,0
-224,-363,0,0,0,0,0,0,0,0,0,-1,1000,1387,0,0
-217,-363,0,0,0,0,0,0,0,0,0,-1,1007,1387,0,0
-210,-363,0,0,0,0,0,0,0,0,0,-1,1014,1387,0,0
-203,-363,0,0,0,0,0,0,0,0,0,-1,1021,1387,0,0
-196,-363,0,0,0,0,0,0,0,0,0,-1,1028,1387,0,0
-189,-363,0,0,0,0,0,0,0,0,0,-1,1035,1387,0,0
-182,-363,0,0,0,0,0,0,0,0,0,-1,1042,1387,0,0
-175,-363,0,0,0,0,0,0,0,0,0,-1,1049,1387,0,0
-168,-363,0,0,0,0,0,0,0,0,0,-1,1056,1387,0,0
-161,-363,0,0,0,0,0,0,0,0,0,-1,1063,1387,0,0
-154,-363,0,0,0,0,0,0,0,0,0,-1,1070,1387,0,0
-147,-363,0,0,0,0,0,0,0,0,0,-1,1077,1387,0,0
-140,-363,0,0,0,0,0,0,0,0,0,-1,1084,1387,0,0
-133,-363,0,0,0,0,0,0,0,0,0,-1,1091,1387,0,0
-126,-363,0,0,0,0,0,0,0,0,0,-1,1098,1387,0,0
-119,-363,0,0,0,0,0,0,0,0,0,-1,1105,1387,0,0
-112,-363,0,0,0,0,0,0,0,0,0,-1,1112,1387,0,0
-105,-363,0,0,0,0,0,0,0,0,0,-1,1119,1387,0,0
-98,-363,0,0,0,0,0,0,0,0,0,-1,1126,1387,0,0
-91,-363,0,0,0,0,0,0,0,0,0,-1,1133,1387,0,0
-84,-363,0,0,0,0,0,0,0,0,0,-1,1140,1387,0,0
-77,-363,0,0,0,0,0,0,0,0,0,-1,1147,1387,0,0
-70,-363,0,0,0,0,0,0,0,0,0,-1,1154,1387,0,0
-63,-363,0,0,0,0,0,0,0,0,0,-1,1161,1387,0,0
-56,-363,0,0,0,0,0,0,0,0,0,-1,1168,1387,0,0
-49,-363,0,0,0,0,0,0,0,0,0,-1,1175,1387,0,0
-42,-363,0,0,0,0,0,0,0,0,0,-1,1182,1387,0,0
-35,-363,0,0,0,0,0,0,0,0,0,-1,1189,1387,0,0
-28,-363,0,0,0,0,0,0,0,0,0,-1,1196,1387,0,0
-21,-363,0,0,0,0,0,0,0,0,0,-1,1203,1387,0,0
-14,-363,0,0,0,0,0,0,0,0,0,-1,1210,1387,0,0
-7,-363,0,0,0,0,0,0,0,0,0,-1,1217,1387,0,0
0,-363,0,0,0,0,0,0,0,0,0,-1,1224,1387,0,0
7,-363,0,0,0,0,0,0,0,0,0,-1,1231,1387,0,0
14,-363,0,0,0,0,0,0,0,0,0,-1,1238,1387,0,0
21,-363,0,0,0,0,0,0,0,0,0,-1,1245,1387,0,0
28,-363,0,0,0,0,0,0,0,0,0,-1,1252,1387,0,0
35,-363,0,0,0,0,0,0,0,0,0,-1,1259,1387,0,0
42,-363,0,0,0,0,0,0,0,0,0,-1,1266,1387,0,0
49,-363,0,0,0,0,0,0,0,0,0,-1,1273,1387,0,0
56,-363,0,0,0,0,0,0,0,0,0,-1,1280,1387,0,0
63,-363,0,0,0,0,0,0,0,0,0,-1,1287,1387,0,0
70,-363,0,0,0,0,0,0,0,0,0,-1,1294,1387,0,0
77,-363,0,0,0,0,0,0,0,0,0,-1,1301,1387,0,0
84,-363,0,0,0,0,0,0,0,0,0,-1,1308,1387,0,0
91,-363,0,0,0,0,0,0,0,0,0,-1,1315,1387,0,0
98,-363,0,0,0,0,0,0,0,0,0,-1,1322,1387,0,0
105,-363,0,0,0,0,0,0,0,0,0,-1,1329,1387,0,0
112,-363,0,0,0,0,0,0,0,0,0,-1,1336,1387,0,0
119,-363,0,0,0,0,0,0,0,0,0,-1,1343,1387,0,0
126,-363,0,0,0,0,0,0,0,0,0,-1,1350,1387,0,0
133,-363,0,0,0,0,0,0,0,0,0,-1,1357,1387,0,0
140,-363,0,0,0,0,0,0,0,0,0,-1,1364,1387,0,0
147,-363,0,0,0,0,0,0,0,0,0,-1,1371,1387,0,0
154,-363,0,0,0,0,0,0,0,0,0,-1,1378,1387,0,0
161,-363,0,0,0,0,0,0,0,0,0,-1,1385,1387,0,0
168,-363,0,0,0,0,0,0,0,0,0,-1,1392,1387,0,0
175,-363,0,0,0,0,0,0,0,0,0,-1,1399,1387,0,0
182,-363,0,0,0,0,0,0,0,0,0,-1,1406,1387,0,0
189,-363,0,0,0,0,0,0,0,0,0,-1,1413,1387,0,0
196,-363,0,0,0,0,0,0,0,0,0,-1,1420,1387,0,0
203,-363,0,0,0,0,0,0,0,0,0,-1,1427,1387,0,0
210,-363,0,0,0,0,0,0,0,0,0,-1,1434,1387,0,0
217,-363,0,0,0,0,0,0,0,0,0,-1,1441,1387,0,0
224,-363,0,0,0,0,0,0,0,0,0,-1,1448,1387,0,0
231,-363,0,0,0,0,0,0,0,0,0,-1,1455,1387,0,0
238,-363,0,0,0,0,0,0,0,0,0,-1,1462,1387,0,0
245,-363,0,0,0,0,0,0,0,0,0,-1,1469,1387,0,0
252,-363,0,0,0,0,0,0,0,0,0,-1,1476,1387,0,0
259,-363,0,0,0,0,0,0,0,0,0,-1,1483,1387,0,0
266,-363,0,0,0,0,0,0,0,0,0,-1,1490,1387,0,0
273,-363,0,0,0,0,0,0,0,0,0,-1,1497,1387,0,0
280,-363,0,0,0,0,0,0,0,0,0,-1,1504,1387,0,0
287,-363,0,0,0,0,0,0,0,0,0,-1,1511,1387,0,0
294,-363,0,0,0,0,0,0,0,0,0,-1,1518,1387,0,0
301,-363,0,0,0,0,0,0,0,0,0,-1,1525,1387,0,0
308,-363,0,0,0,0,0,0,0,0,0,-1,1532,1387,0,0
315,-363,0,0,0,0,0,0,0,0,0,-1,1539,1387,0,0
322,-363,0,0,0,0,0,0,0,0,0,-1,1546,1387,0,0
329,-363,0,0,0,0,0,0,0,0,0,-1,1553,1387,0,0
336,-363,0,0,0,0,0,0,0,0,0,-1,1560,1387,0,0
343,-363,0,0,0,0,0,0,0,0,0,-1,1567,1387,0,0
350,-363,0,0,0,0,0,0,0,0,0,-1,1574,1387,0,0
357,-363,0,0,0,0,0,0,0,0,0,-1,1581,1387,0,0
364,-363,0,0,0,0,0,0,0,0,0,-1,1588,1387,0,0
371,-363,0,0,0,0,0,0,0,0,0,-1,1595,1387,0,0
378,-363,0,0,0,0,0,0,0,0,0,-1,1602,1387,0,0
385,-363,0,0,0,0,0,0,0,0,0,-1,1609,1387,0,0
392,-363,0,0,0,0,0,0,0,0,0,-1,1616,1387,0,0
399,-363,0,0,0,0,0,0,0,0,0,-1,1623,1387,0,0
406,-363,0,0,0,0,0,0,0,0,0,-1,1630,1387,0,0
413,-363,0,0,0,0,0,0,0,0,0,-1,1637,1387,0,0
420,-363,0,0,0,0,0,0,0,0,0,-1,1644,1387,0,0
427,-363,0,0,0,0,0,0,0,0,0,-1,1651,1387,0,0
434,-363,0,0,0,0,0,0,0,0,0,-1,1658,1387,0,0
441,-363,0,0,0,0,0,0,0,0,0,-1,1665,1387,0,0
448,-363,0,0,0,0,0,0,0,0,0,-1,1672,1387,0,0
455,-363,0,0,0,0,0,0,0,0,0,-1,1679,1387,0,0
462,-363,0,0,0,0,0,0,0,0,0,-1,1686,1387,0,0
469,-363,0,0,0,0,0,0,0,0,0,-1,1693,1387,0,0
476,-363,0,0,0,0,0,0,0,0,0,-1,1700,1387,0,0
483,-363,0,0,0,0,0,0,0,0,0,-1,1707,1387,0,0
490,-363,0,0,0,0,0,0,0,0,0,-1,1714,1387,0,0
497,-363,0,0,0,0,0,0,0,0,0,-1,1721,1387,0,0
504,-363,0,0,0,0,0,0,0,0,0,-1,1728,1387,0,0
511,-363,0,0,0,0,0,0,0,0,0,-1,1735,1387,0,0
518,-363,0,0,0,0,0,0,0,0,0,-1,1742,1387,0,0
525,-363,0,0,0,0,0,0,0,0,0,-1,1749,1387,0,0
532,-363,0,0,0,0,0,0,0,0,0,-1,1756,1387,0,0
539,-363,0,0,0,0,0,0,0,0,0,-1,1763,1387,0,0
546,-363,0,0,0,0,0,0,0,0,0,-1,1770,1387,0,0
553,-363,62.1395,3.42249,0,0,0,0,0,0,0,-1,1777,1387,62.1395,-3.42245
560,-363,63.2896,2.40808,0,0,0,0,0,0,0,-1,1784,1387,63.2896,-2.40811
567,-363,64.4463,1.38135,0,0,0,0,0,0,0,-1,1791,1387,64.4463,-1.38131
574,-363,45.7261,2.8075,0,0,0,0,0,0,0,-1,1798,1387,45.7261,-2.80754
581,-363,39.2413,1.97632,0,0,0,0,0,0,0,-1,1805,1387,39.2413,-1.97636
588,-363,32.5608,6.72131,0,0,0,0,0,0,0,-1,1812,1387,32.5608,-6.72131
595,-363,31.4688,6.95435,0,0,0,0,0,0,0,-1,1819,1387,31.4688,-6.95431
602,-363,25.7437,5.33667,0,0,0,0,0,0,0,-1,1826,1387,25.7437,-5.33667
609,-363,27.7048,7.06885,0,0,0,0,0,0,0,-1,1833,1387,27.7048,-7.06882
616,-363,16.229,1.08704,0,0,0,0,0,0,0,-1,1840,1387,16.229,-1.08706
623,-363,15.7283,7.16663,0,0,0,0,0,0,0,-1,1847,1387,15.7282,-7.16665
630,-363,18.3192,9.27844,0,0,0,0,0,0,0,-1,1854,1387,18.3192,-9.27843
637,-363,40.4481,19.6973,0,0,0,0,0,0,0,-1,1861,1387,40.4481,-19.6973
644,-363,40.4703,18.8229,-0.00125445,0.00195682,-0.000878595,0.00218149,-0.00147912,-1.32045,0.00212638,0.0197188,1868,1387,40.4704,-18.8228
651,-363,40.4545,18.0157,-0.000880858,0.00118881,-0.000387199,0.00125888,-0.000950924,-1.39178,0.00127995,0.011807,1875,1387,40.4544,-18.0158
658,-363,40.4188,17.2548,-0.000240631,0.00055523,-0.000107364,0.000569459,-0.000254861,-1.43903,0.000487338,0.0118351,1882,1387,40.4188,-17.2547
665,-363,40.3798,16.5654,0.000472069,-5.27985e-05,9.33358e-05,0.000488172,-6.89021e-05,0.170852,0.000350679,0.0127158,1889,1387,40.3798,-16.5655
672,-363,40.3409,15.876,0.00124925,-0.000609207,0.000252474,0.00128294,-0.000642895,0.132649,0.00113216,0.0144136,1896,1387,40.3409,-15.8759
679,-363,40.3152,15.1517,0.00208835,-0.00115177,0.000372119,0.00213054,-0.00119396,0.112889,0.00194462,0.0155821,1903,1387,40.3151,-15.1517
686,-363,40.2776,14.408,0.00300345,-0.00165352,0.000440793,0.00304481,-0.00169488,0.0935452,0.00277321,0.0150358,1910,1387,40.2776,-14.4079
693,-363,40.2354,13.6553,0.00399822,-0.00208651,0.000452444,0.00403168,-0.00211997,0.0738162,0.00360837,0.0135483,1917,1387,40.2354,-13.6553
700,-363,40.4191,12.8639,0.00514533,-0.00233489,0.000317607,0.00515879,-0.00234835,0.042358,0.00443434,0.0314852,1924,1387,40.4191,-12.8639
707,-363,40.7544,12.1024,0,0,0,0,0,0,0,-1,1931,1387,40.7544,-12.1025
714,-363,16.5782,5.3147,0,0,0,0,0,0,0,-1,1938,1387,16.5783,-5.31472
721,-363,14.4045,4.51685,0,0,0,0,0,0,0,-1,1945,1387,14.4045,-4.51685
728,-363,19.9756,0.853027,0,0,0,0,0,0,0,-1,1952,1387,19.9756,-0.853059
735,-363,21.4297,1.2981,0,0,0,0,0,0,0,-1,1959,1387,21.4297,-1.29811
742,-363,21.3621,2.79663,0,0,0,0,0,0,0,-1,1966,1387,21.362,-2.7966
749,-363,0,0,0,0,0,0,0,0,0,-1,1973,1387,0,0
756,-363,0,0,0,0,0,0,0,0,0,-1,1980,1387,0,0
763,-363,0,0,0,0,0,0,0,0,0,-1,1987,1387,0,0
770,-363,0,0,0,0,0,0,0,0,0,-1,1994,1387,0,0
777,-363,0,0,0,0,0,0,0,0,0,-1,2001,1387,0,0
784,-363,0,0,0,0,0,0,0,0,0,-1,2008,1387,0,0
791,-363,0,0,0,0,0,0,0,0,0,-1,2015,1387,0,0
798,-363,0,0,0,0,0,0,0,0,0,-1,2022,1387,0,0
805,-363,0,0,0,0,0,0,0,0,0,-1,2029,1387,0,0
812,-363,0,0,0,0,0,0,0,0,0,-1,2036,1387,0,0
-700,-370,0,0,0,0,0,0,0,0,0,-1,524,1394,0,0
-693,-370,0,0,0,0,0,0,0,0,0,-1,531,1394,0,0
-686,-370,0,0,0,0,0,0,0,0,0,-1,538,1394,0,0
-679,-370,0,0,0,0,0,0,0,0,0,-1,545,1394,0,0
-672,-370,0,0,0,0,0,0,0,0,0,-1,552,1394,0,0
-665,-370,0,0,0,0,0,0,0,0,0,-1,559,1394,0,0
-658,-370,0,0,0,0,0,0,0,0,0,-1,566,1394,0,0
-651,-370,0,0,0,0,0,0,0,0,0,-1,573,1394,0,0
-644,-370,0,0,0,0,0,0,0,0,0,-1,580,1394,0,0
-637,-370,0,0,0,0,0,0,0,0,0,-1,587,1394,0,0
-630,-370,0,0,0,0,0,0,0,0,0,-1,594,1394,0,0
-623,-370,-10.1758,-7.10486,0,0,0,0,0,0,0,-1,601,1394,-10.1758,7.10483
-616,-370,-8.85925,-1.61475,0,0,0,0,0,0,0,-1,608,1394,-8.85925,1.61476
-609,-370,-5.39325,0.0421143,0,0,0,0,0,0,0,-1,615,1394,-5.39328,-0.0421372
-602,-370,-12.3151,3.44592,0,0,0,0,0,0,0,-1,622,1394,-12.3151,-3.44595
-595,-370,-7.53284,5.44214,0,0,0,0,0,0,0,-1,629,1394,-7.53284,-5.44216
-588,-370,-11.2422,4.50598,0,0,0,0,0,0,0,-1,636,1394,-11.2422,-4.50596
-581,-370,-13.1575,5.84888,0,0,0,0,0,0,0,-1,643,1394,-13.1575,-5.84887
-574,-370,-13.0107,6.69861,0,0,0,0,0,0,0,-1,650,1394,-13.0108,-6.69866
-567,-370,-22.6518,11.5575,0,0,0,0,0,0,0,-1,657,1394,-22.6518,-11.5576
-560,-370,-22.6733,12.4556,0.00448482,0.00356595,0.00336315,0.00741977,0.000630995,0.717514,0.00475017,0.0353317,664,1394,-22.6733,-12.4556
-553,-370,-22.6229,13.3188,0.00371604,0.00250364,0.00262321,0.00580218,0.000417497,0.671846,0.00373674,0.0118909,671,1394,-22.6229,-13.3189
-546,-370,-22.639,14.0928,0.00314992,0.0016348,0.00204427,0.00457248,0.000212237,0.607955,0.0029801,0.0157124,678,1394,-22.639,-14.0927
-539,-370,-22.6205,14.8975,0.00280759,0.000967817,0.00163712,0.00376557,9.84117e-06,0.529434,0.0025071,0.0193685,685,1394,-22.6205,-14.8974
-532,-370,-22.7205,15.6688,0.00267995,0.000515492,0.0014107,0.00337572,-0.000180278,0.458201,0.00231292,0.0230163,692,1394,-22.7205,-15.6689
-525,-370,-22.7825,16.4333,0.00274686,0.000227811,0.00133381,0.00332185,-0.000347183,0.407018,0.0023389,0.0210217,699,1394,-22.7825,-16.4334
-518,-370,-22.7838,17.1559,0.0030101,0.000127051,0.00141531,0.00358874,-0.000451597,0.388112,0.00255636,0.0147696,706,1394,-22.7838,-17.1559
-511,-370,-22.7788,17.951,0.0035419,0.000255255,0.00169839,0.00426184,-0.000464693,0.400938,0.00300812,0.0161011,713,1394,-22.7788,-17.9511
-504,-370,-22.7783,18.7654,0,0,0,0,0,0,0,-1,720,1394,-22.7783,-18.7654
-497,-370,-12.3546,11.7982,0,0,0,0,0,0,0,-1,727,1394,-12.3546,-11.7983
-490,-370,-5.30695,4.5271,0,0,0,0,0,0,0,-1,734,1394,-5.30698,-4.52704
-483,-370,-6.02997,4.59253,0,0,0,0,0,0,0,-1,741,1394,-6.02994,-4.5925
-476,-370,-6.75293,4.65796,0,0,0,0,0,0,0,-1,748,1394,-6.7529,-4.65795
-469,-370,-10.584,1.14294,0,0,0,0,0,0,0,-1,755,1394,-10.584,-1.14293
-462,-370,-9.54462,0.387207,0,0,0,0,0,0,0,-1,762,1394,-9.5446,-0.387176
-455,-370,-8.50525,-0.36853,0,0,0,0,0,0,0,-1,769,1394,-8.50523,0.368582
-448,-370,-10.9543,2.28833,0,0,0,0,0,0,0,-1,776,1394,-10.9543,-2.28835
-441,-370,-11.8699,1.8313,0,0,0,0,0,0,0,-1,783,1394,-11.8699,-1.83127
-434,-370,-12.7855,1.37415,0,0,0,0,0,0,0,-1,790,1394,-12.7855,-1.37419
-427,-370,0,0,0,0,0,0,0,0,0,-1,797,1394,0,0
-420,-370,0,0,0,0,0,0,0,0,0,-1,804,1394,0,0
-413,-370,0,0,0,0,0,0,0,0,0,-1,811,1394,0,0
-406,-370,0,0,0,0,0,0,0,0,0,-1,818,1394,0,0
-399,-370,0,0,0,0,0,0,0,0,0,-1,825,1394,0,0
-392,-370,0,0,0,0,0,0,0,0,0,-1,832,1394,0,0
-385,-370,0,0,0,0,0,0,0,0,0,-1,839,1394,0,0
-378,-370,0,0,0,0,0,0,0,0,0,-1,846,1394,0,0
-371,-370,0,0,0,0,0,0,0,0,0,-1,853,1394,0,0
-364,-370,0,0,0,0,0,0,0,0,0,-1,860,1394,0,0
-357,-370,0,0,0,0,0,0,0,0,0,-1,867,1394,0,0
-350,-370,0,0,0,0,0,0,0,0,0,-1,874,1394,0,0
-343,-370,0,0,0,0,0,0,0,0,0,-1,881,1394,0,0
-336,-370,0,0,0,0,0,0,0,0,0,-1,888,1394,0,0
-329,-370,0,0,0,0,0,0,0,0,0,-1,895,1394,0,0
-322,-370,0,0,0,0,0,0,0,0,0,-1,902,1394,0,0
-315,-370,0,0,0,0,0,0,0,0,0,-1,909,1394,0,0
-308,-370,0,0,0,0,0,0,0,0,0,-1,916,1394,0,0
-301,-370,0,0,0,0,0,0,0,0,0,-1,923,1394,0,0
-294,-370,0,0,0,0,0,0,0,0,0,-1,930,1394,0,0
-287,-370,0,0,0,0,0,0,0,0,0,-1,937,1394,0,0
-280,-370,0,0,0,0,0,0,0,0,0,-1,944,1394,0,0
-273,-370,0,0,0,0,0,0,0,0,0,-1,951,1394,0,0
-266,-370,0,0,0,0,0,0,0,0,0,-1,958,1394,0,0
-259,-370,0,0,0,0,0,0,0,0,0,-1,965,1394,0,0
-252,-370,0,0,0,0,0,0,0,0,0,-1,972,1394,0,0
-245,-370,0,0,0,0,0,0,0,0,0,-1,979,1394,0,0
-238,-370,0,0,0,0,0,0,0,0,0,-1,986,1394,0,0
-231,-370,0,0,0,0,0,0,0,0,0,-1,993,1394,0,0
-224,-370,0,0,0,0,0,0,0,0,0,-1,1000,1394,0,0
-217,-370,0,0,0,0,0,0,0,0,0,-1,1007,1394,0,0
-210,-370,0,0,0,0,0,0,0,0,0,-1,1014,1394,0,0
-203,-370,0,0,0,0,0,0,0,0,0,-1,1021,1394,0,0
-196,-370,0,0,0,0,0,0,0,0,0,-1,1028,1394,0,0
-189,-370,0,0,0,0,0,0,0,0,0,-1,1035,1394,0,0
-182,-370,0,0,0,0,0,0,0,0,0,-1,1042,1394,0,0
-175,-370,0,0,0,0,0,0,0,0,0,-1,1049,1394,0,0
-168,-370,0,0,0,0,0,0,0,0,0,-1,1056,1394,0,0
-161,-370,0,0,0,0,0,0,0,0,0,-1,1063,1394,0,0
-154,-370,0,0,0,0,0,0,0,0,0,-1,1070,1394,0,0
-147,-370,0,0,0,0,0,0,0,0,0,-1,1077,1394,0,0
-140,-370,0,0,0,0,0,0,0,0,0,-1,1084,1394,0,0
-133,-370,0,0,0,0,0,0,0,0,0,-1,1091,1394,0,0
-126,-370,0,0,0,0,0,0,0,0,0,-1,1098,1394,0,0
-119,-370,0,0,0,0,0,0,0,0,0,-1,1105,1394,0,0
-112,-370,0,0,0,0,0,0,0,0,0,-1,1112,1394,0,0
-105,-370,0,0,0,0,0,0,0,0,0,-1,1119,1394,0,0
-98,-370,0,0,0,0,0,0,0,0,0,-1,1126,1394,0,0
-91,-370,0,0,0,0,0,0,0,0,0,-1,1133,1394,0,0
-84,-370,0,0,0,0,0,0,0,0,0,-1,1140,1394,0,0
-77,-370,0,0,0,0,0,0,0,0,0,-1,1147,1394,0,0
-70,-370,0,0,0,0,0,0,0,0,0,-1,1154,1394,0,0
-63,-370,0,0,0,0,0,0,0,0,0,-1,1161,1394,0,0
-56,-370,0,0,0,0,0,0,0,0,0,-1,1168,1394,0,0
-49,-370,0,0,0,0,0,0,0,0,0,-1,1175,1394,0,0
-42,-370,0,0,0,0,0,0,0,0,0,-1,1182,1394,0,0
-35,-370,0,0,0,0,0,0,0,0,0,-1,1189,1394,0,0
-28,-370,0,0,0,0,0,0,0,0,0,-1,1196,1394,0,0
-21,-370,0,0,0,0,0,0,0,0,0,-1,1203,1394,0,0
-14,-370,0,0,0,0,0,0,0,0,0,-1,1210,1394,0,0
-7,-370,0,0,0,0,0,0,0,0,0,-1,1217,1394,0,0
0,-370,0,0,0,0,0,0,0,0,0,-1,1224,1394,0,0
7,-370,0,0,0,0,0,0,0,0,0,-1,1231,1394,0,0
14,-370,0,0,0,0,0,0,0,0,0,-1,1238,1394,0,0
21,-370,0,0,0,0,0,0,0,0,0,-1,1245,1394,0,0
28,-370,0,0,0,0,0,0,0,0,0,-1,1252,1394,0,0
35,-370,0,0,0,0,0,0,0,0,0,-1,1259,1394,0,0
42,-370,0,0,0,0,0,0,0,0,0,-1,1266,1394,0,0
49,-370,0,0,0,0,0,0,0,0,0,-1,1273,1394,0,0
56,-370,0,0,0,0,0,0,0,0,0,-1,1280,1394,0,0
63,-370,0,0,0,0,0,0,0,0,0,-1,1287,1394,0,0
70,-370,0,0,0,0,0,0,0,0,0,-1,1294,1394,0,0
77,-370,0,0,0,0,0,0,0,0,0,-1,1301,1394,0,0
84,-370,0,0,0,0,0,0,0,0,0,-1,1308,1394,0,0
91,-370,0,0,0,0,0,0,0,0,0,-1,1315,1394,0,0
98,-370,0,0,0,0,0,0,0,0,0,-1,1322,1394,0,0
105,-370,0,0,0,0,0,0,0,0,0,-1,1329,1394,0,0
112,-370,0,0,0,0,0,0,0,0,0,-1,1336,1394,0,0
119,-370,0,0,0,0,0,0,0,0,0,-1,1343,1394,0,0
126,-370,0,0,0,0,0,0,0,0,0,-1,1350,1394,0,0
133,-370,0,0,0,0,0,0,0,0,0,-1,1357,1394,0,0
140,-370,0,0,0,0,0,0,0,0,0,-1,1364,1394,0,0
147,-370,0,0,0,0,0,0,0,0,0,-1,1371,1394,0,0
154,-370,0,0,0,0,0,0,0,0,0,-1,1378,1394,0,0
161,-370,0,0,0,0,0,0,0,0,0,-1,1385,1394,0,0
168,-370,0,0,0,0,0,0,0,0,0,-1,1392,1394,0,0
175,-370,0,0,0,0,0,0,0,0,0,-1,1399,1394,0,0
182,-370,0,0,0,0,0,0,0,0,0,-1,1406,1394,0,0
189,-370,0,0,0,0,0,0,0,0,0,-1,1413,1394,0,0
196,-370,0,0,0,0,0,0,0,0,0,-1,1420,1394,0,0
203,-370,0,0,0,0,0,0,0,0,0,-1,1427,1394,0,0
210,-370,0,0,0,0,0,0,0,0,0,-1,1434,1394,0,0
217,-370,0,0,0,0,0,0,0,0,0,-1,1441,1394,0,0
224,-370,0,0,0,0,0,0,0,0,0,-1,1448,1394,0,0
231,-370,0,0,0,0,0,0,0,0,0,-1,1455,1394,0,0
238,-370,0,0,0,0,0,0,0,0,0,-1,1462,1394,0,0
245,-370,0,0,0,0,0,0,0,0,0,-1,1469,1394,0,0
252,-370,0,0,0,0,0,0,0,0,0,-1,1476,1394,0,0
259,-370,0,0,0,0,0,0,0,0,0,-1,1483,1394,0,0
266,-370,0,0,0,0,0,0,0,0,0,-1,1490,1394,0,0
273,-370,0,0,0,0,0,0,0,0,0,-1,1497,1394,0,0
280,-370,0,0,0,0,0,0,0,0,0,-1,1504,1394,0,0
287,-370,0,0,0,0,0,0,0,0,0,-1,1511,1394,0,0
294,-370,0,0,0,0,0,0,0,0,0,-1,1518,1394,0,0
301,-370,0,0,0,0,0,0,0,0,0,-1,1525,1394,0,0
308,-370,0,0,0,0,0,0,0,0,0,-1,1532,1394,0,0
315,-370,0,0,0,0,0,0,0,0,0,-1,1539,1394,0,0
322,-370,0,0,0,0,0,0,0,0,0,-1,1546,1394,0,0
329,-370,0,0,0,0,0,0,0,0,0,-1,1553,1394,0,0
336,-370,0,0,0,0,0,0,0,0,0,-1,1560,1394,0,0
343,-370,0,0,0,0,0,0,0,0,0,-1,1567,1394,0,0
350,-370,0,0,0,0,0,0,0,0,0,-1,1574,1394,0,0
357,-370,0,0,0,0,0,0,0,0,0,-1,1581,1394,0,0
364,-370,0,0,0,0,0,0,0,0,0,-1,1588,1394,0,0
371,-370,0,0,0,0,0,0,0,0,0,-1,1595,1394,0,0
378,-370,0,0,0,0,0,0,0,0,0,-1,1602,1394,0,0
385,-370,0,0,0,0,0,0,0,0,0,-1,1609,1394,0,0
392,-370,0,0,0,0,0,0,0,0,0,-1,1616,1394,0,0
399,-370,0,0,0,0,0,0,0,0,0,-1,1623,1394,0,0
406,-370,0,0,0,0,0,0,0,0,0,-1,1630,1394,0,0
413,-370,0,0,0,0,0,0,0,0,0,-1,1637,1394,0,0
420,-370,0,0,0,0,0,0,0,0,0,-1,1644,1394,0,0
427,-370,0,0,0,0,0,0,0,0,0,-1,1651,1394,0,0
434,-370,0,0,0,0,0,0,0,0,0,-1,1658,1394,0,0
441,-370,0,0,0,0,0,0,0,0,0,-1,1665,1394,0,0
448,-370,0,0,0,0,0,0,0,0,0,-1,1672,1394,0,0
455,-370,0,0,0,0,0,0,0,0,0,-1,1679,1394,0,0
462,-370,0,0,0,0,0,0,0,0,0,-1,1686,1394,0,0
469,-370,0,0,0,0,0,0,0,0,0,-1,1693,1394,0,0
476,-370,0,0,0,0,0,0,0,0,0,-1,1700,1394,0,0
483,-370,0,0,0,0,0,0,0,0,0,-1,1707,1394,0,0
490,-370,0,0,0,0,0,0,0,0,0,-1,1714,1394,0,0
497,-370,0,0,0,0,0,0,0,0,0,-1,1721,1394,0,0
504,-370,0,0,0,0,0,0,0,0,0,-1,1728,1394,0,0
511,-370,0,0,0,0,0,0,0,0,0,-1,1735,1394,0,0
518,-370,0,0,0,0,0,0,0,0,0,-1,1742,1394,0,0
525,-370,0,0,0,0,0,0,0,0,0,-1,1749,1394,0,0
532,-370,0,0,0,0,0,0,0,0,0,-1,1756,1394,0,0
539,-370,0,0,0,0,0,0,0,0,0,-1,1763,1394,0,0
546,-370,60.9257,3.80493,0,0,0,0,0,0,0,-1,1770,1394,60.9256,-3.80494
553,-370,61.9966,2.87524,0,0,0,0,0,0,0,-1,1777,1394,61.9966,-2.8753
560,-370,63.1577,1.82617,0,0,0,0,0,0,0,-1,1784,1394,63.1578,-1.82617
567,-370,46.1089,3.11719,0,0,0,0,0,0,0,-1,1791,1394,46.1089,-3.1172
574,-370,38.8953,1.49353,0,0,0,0,0,0,0,-1,1798,1394,38.8952,-1.49348
581,-370,39.178,2.86145,0,0,0,0,0,0,0,-1,1805,1394,39.1779,-2.86145
588,-370,39.2102,4.27661,0,0,0,0,0,0,0,-1,1812,1394,39.2102,-4.27657
595,-370,25.793,4.5271,0,0,0,0,0,0,0,-1,1819,1394,25.793,-4.52711
602,-370,25.1077,5.34937,0,0,0,0,0,0,0,-1,1826,1394,25.1077,-5.34932
609,-370,16.712,0.993286,0,0,0,0,0,0,0,-1,1833,1394,16.7121,-0.99323
616,-370,16.7764,7.23315,0,0,0,0,0,0,0,-1,1840,1394,16.7764,-7.23313
623,-370,17.6625,8.94263,0,0,0,0,0,0,0,-1,1847,1394,17.6624,-8.94258
630,-370,20.9681,11.1785,0,0,0,0,0,0,0,-1,1854,1394,20.9681,-11.1784
637,-370,39.7699,19.5499,0,0,0,0,0,0,0,-1,1861,1394,39.7699,-19.5499
644,-370,39.7672,18.7943,-0.00105736,0.00167594,-0.000698598,0.00184414,-0.00122556,-1.33452,0.00178425,0.0154722,1868,1394,39.7672,-18.7943
651,-370,39.728,18.0421,-0.000610054,0.00100267,-0.000297689,0.00105586,-0.000663249,-1.39397,0.00100112,0.0131107,1875,1394,39.728,-18.0421
658,-370,39.6846,17.3232,4.58818e-05,0.000379419,-1.57909e-05,0.000380165,4.51359e-05,-1.52359,0.000239818,0.0123519,1882,1394,39.6845,-17.3233
665,-370,39.6504,16.6167,0.0007663,-0.000264068,0.000239823,0.000819385,-0.000317153,0.217838,0.000677199,0.0143284,1889,1394,39.6504,-16.6167
672,-370,39.5952,15.8867,0.00156885,-0.00092067,0.000485832,0.0016603,-0.00101212,0.186059,0.00155798,0.0155941,1896,1394,39.5953,-15.8867
679,-370,39.6189,15.142,0.00244768,-0.00161854,0.000722322,0.00257218,-0.00174305,0.170685,0.00250668,0.0150444,1903,1394,39.6189,-15.142
686,-370,39.5634,14.4363,0.00342352,-0.00233786,0.000927418,0.00356913,-0.00248347,0.155732,0.00351316,0.0151117,1910,1394,39.5634,-14.4362
693,-370,39.4972,13.6556,0.0045003,-0.00303916,0.001085,0.00465333,-0.0031922,0.140123,0.00455573,0.0151992,1917,1394,39.4972,-13.6557
700,-370,39.571,12.818,0,0,0,0,0,0,0,-1,1924,1394,39.571,-12.818
707,-370,39.2391,11.5549,0,0,0,0,0,0,0,-1,1931,1394,39.2392,-11.555
714,-370,16.9116,5.93018,0,0,0,0,0,0,0,-1,1938,1394,16.9116,-5.93014
721,-370,17.2007,4.69153,0,0,0,0,0,0,0,-1,1945,1394,17.2007,-4.69158
728,-370,20.5315,-0.313354,0,0,0,0,0,0,0,-1,1952,1394,20.5315,0.313332
735,-370,22.3652,0.233398,0,0,0,0,0,0,0,-1,1959,1394,22.3652,-0.233355
742,-370,24.1989,0.780029,0,0,0,0,0,0,0,-1,1966,1394,24.1989,-0.780041
749,-370,0,0,0,0,0,0,0,0,0,-1,1973,1394,0,0
756,-370,0,0,0,0,0,0,0,0,0,-1,1980,1394,0,0
763,-370,0,0,0,0,0,0,0,0,0,-1,1987,1394,0,0
770,-370,0,0,0,0,0,0,0,0,0,-1,1994,1394,0,0
777,-370,0,0,0,0,0,0,0,0,0,-1,2001,1394,0,0
784,-370,0,0,0,0,0,0,0,0,0,-1,2008,1394,0,0
791,-370,0,0,0,0,0,0,0,0,0,-1,2015,1394,0,0
798,-370,0,0,0,0,0,0,0,0,0,-1,2022,1394,0,0
805,-370,0,0,0,0,0,0,0,0,0,-1,2029,1394,0,0
812,-370,0,0,0,0,0,0,0,0,0,-1,2036,1394,0,0
-700,-377,0,0,0,0,0,0,0,0,0,-1,524,1401,0,0
-693,-377,0,0,0,0,0,0,0,0,0,-1,531,1401,0,0
-686,-377,0,0,0,0,0,0,0,0,0,-1,538,1401,0,0
-679,-377,0,0,0,0,0,0,0,0,0,-1,545,1401,0,0
-672,-377,0,0,0,0,0,0,0,0,0,-1,552,1401,0,0
-665,-377,0,0,0,0,0,0,0,0,0,-1,559,1401,0,0
-658,-377,0,0,0,0,0,0,0,0,0,-1,566,1401,0,0
-651,-377,0,0,0,0,0,0,0,0,0,-1,573,1401,0,0
-644,-377,0,0,0,0,0,0,0,0,0,-1,580,1401,0,0
-637,-377,0,0,0,0,0,0,0,0,0,-1,587,1401,0,0
-630,-377,0,0,0,0,0,0,0,0,0,-1,594,1401,0,0
-623,-377,0,0,0,0,0,0,0,0,0,-1,601,1401,0,0
-616,-377,-9.43915,-2.4906,0,0,0,0,0,0,0,-1,608,1401,-9.43915,2.49062
-609,-377,-7.2821,-1.35278,0,0,0,0,0,0,0,-1,615,1401,-7.28208,1.35279
-602,-377,-14.9736,3.98279,0,0,0,0,0,0,0,-1,622,1401,-14.9737,-3.98276
-595,-377,-6.9082,1.18201,0,0,0,0,0,0,0,-1,629,1401,-6.90822,-1.18204
-588,-377,-12.8003,3.44751,0,0,0,0,0,0,0,-1,636,1401,-12.8003,-3.44754
-581,-377,-11.8243,6.21521,0,0,0,0,0,0,0,-1,643,1401,-11.8244,-6.21519
-574,-377,-12.2761,6.60547,0,0,0,0,0,0,0,-1,650,1401,-12.2761,-6.60552
-567,-377,-13.4844,7.41931,0,0,0,0,0,0,0,-1,657,1401,-13.4845,-7.41926
-560,-377,-22.0389,12.3901,0,0,0,0,0,0,0,-1,664,1401,-22.0389,-12.3901
-553,-377,-21.8604,13.3281,0.00434637,0.00292115,0.00309589,0.00681061,0.000456912,0.672278,0.00439602,0.0182774,671,1401,-21.8604,-13.3282
-546,-377,-21.8879,14.1908,0.00354842,0.00197005,0.00237866,0.0052654,0.000253073,0.625223,0.00342902,0.0169677,678,1401,-21.888,-14.1908
-539,-377,-21.8991,14.9032,0.00300939,0.00125672,0.00185471,0.00418437,8.1738e-05,0.564699,0.00276274,0.0219974,685,1401,-21.8991,-14.9032
-532,-377,-21.9682,15.6407,0.00269764,0.000757037,0.00151213,0.00352401,-6.93302e-05,0.500146,0.00237279,0.0226308,692,1401,-21.9682,-15.6408
-525,-377,-21.9344,16.4572,0.00259142,0.000451926,0.00133388,0.00323152,-0.000188179,0.447424,0.00221973,0.0256159,699,1401,-21.9344,-16.4571
-518,-377,-22.0165,17.2181,0.00267469,0.000309895,0.00130972,0.00325679,-0.000272197,0.418221,0.00226738,0.0168363,706,1401,-22.0165,-17.2181
-511,-377,-22.0422,17.9983,0.0029906,0.000387389,0.00146435,0.00364821,-0.000270217,0.422085,0.00252703,0.013252,713,1401,-22.0422,-17.9982
-504,-377,-22.0892,18.7803,0.00357661,0.000720433,0.00188954,0.00451702,-0.000219976,0.4618,0.00308729,0.0168526,720,1401,-22.0892,-18.7803
-497,-377,-21.9348,19.6233,0,0,0,0,0,0,0,-1,727,1401,-21.9348,-19.6232
-490,-377,-8.88409,10.1245,0,0,0,0,0,0,0,-1,734,1401,-8.8841,-10.1245
-483,-377,-5.6524,5.07324,0,0,0,0,0,0,0,-1,741,1401,-5.6524,-5.07325
-476,-377,-6.11682,5.10535,0,0,0,0,0,0,0,-1,748,1401,-6.11681,-5.10537
-469,-377,-10.3211,1.9281,0,0,0,0,0,0,0,-1,755,1401,-10.3211,-1.92808
-462,-377,-9.2204,1.0022,0,0,0,0,0,0,0,-1,762,1401,-9.22039,-1.00218
-455,-377,-8.11969,0.0762939,0,0,0,0,0,0,0,-1,769,1401,-8.11968,-0.0762759
-448,-377,-9.05334,0.877319,0,0,0,0,0,0,0,-1,776,1401,-9.05332,-0.877324
-441,-377,-11.212,0.763428,0,0,0,0,0,0,0,-1,783,1401,-11.212,-0.763415
-434,-377,-11.0984,0.996216,0,0,0,0,0,0,0,-1,790,1401,-11.0984,-0.996265
-427,-377,-11.1733,1.25732,0,0,0,0,0,0,0,-1,797,1401,-11.1733,-1.25732
-420,-377,0,0,0,0,0,0,0,0,0,-1,804,1401,0,0
-413,-377,0,0,0,0,0,0,0,0,0,-1,811,1401,0,0
-406,-377,0,0,0,0,0,0,0,0,0,-1,818,1401,0,0
-399,-377,0,0,0,0,0,0,0,0,0,-1,825,1401,0,0
-392,-377,0,0,0,0,0,0,0,0,0,-1,832,1401,0,0
-385,-377,0,0,0,0,0,0,0,0,0,-1,839,1401,0,0
-378,-377,0,0,0,0,0,0,0,0,0,-1,846,1401,0,0
-371,-377,0,0,0,0,0,0,0,0,0,-1,853,1401,0,0
-364,-377,0,0,0,0,0,0,0,0,0,-1,860,1401,0,0
-357,-377,0,0,0,0,0,0,0,0,0,-1,867,1401,0,0
-350,-377,0,0,0,0,0,0,0,0,0,-1,874,1401,0,0
-343,-377,0,0,0,0,0,0,0,0,0,-1,881,1401,0,0
-336,-377,0,0,0,0,0,0,0,0,0,-1,888,1401,0,0
-329,-377,0,0,0,0,0,0,0,0,0,-1,895,1401,0,0
-322,-377,0,0,0,0,0,0,0,0,0,-1,902,1401,0,0
-315,-377,0,0,0,0,0,0,0,0,0,-1,909,1401,0,0
-308,-377,0,0,0,0,0,0,0,0,0,-1,916,1401,0,0
-301,-377,0,0,0,0,0,0,0,0,0,-1,923,1401,0,0
-294,-377,0,0,0,0,0,0,0,0,0,-1,930,1401,0,0
-287,-377,0,0,0,0,0,0,0,0,0,-1,937,1401,0,0
-280,-377,0,0,0,0,0,0,0,0,0,-1,944,1401,0,0
-273,-377,0,0,0,0,0,0,0,0,0,-1,951,1401,0,0
-266,-377,0,0,0,0,0,0,0,0,0,-1,958,1401,0,0
-259,-377,0,0,0,0,0,0,0,0,0,-1,965,1401,0,0
-252,-377,0,0,0,0,0,0,0,0,0,-1,972,1401,0,0
-245,-377,0,0,0,0,0,0,0,0,0,-1,979,1401,0,0
-238,-377,0,0,0,0,0,0,0,0,0,-1,986,1401,0,0
-231,-377,0,0,0,0,0,0,0,0,0,-1,993,1401,0,0
-224,-377,0,0,0,0,0,0,0,0,0,-1,1000,1401,0,0
-217,-377,0,0,0,0,0,0,0,0,0,-1,1007,1401,0,0
-210,-377,0,0,0,0,0,0,0,0,0,-1,1014,1401,0,0
-203,-377,0,0,0,0,0,0,0,0,0,-1,1021,1401,0,0
-196,-377,0,0,0,0,0,0,0,0,0,-1,1028,1401,0,0
-189,-377,0,0,0,0,0,0,0,0,0,-1,1035,1401,0,0
-182,-377,0,0,0,0,0,0,0,0,0,-1,1042,1401,0,0
-175,-377,0,0,0,0,0,0,0,0,0,-1,1049,1401,0,0
-168,-377,0,0,0,0,0,0,0,0,0,-1,1056,1401,0,0
-161,-377,0,0,0,0,0,0,0,0,0,-1,1063,1401,0,0
-154,-377,0,0,0,0,0,0,0,0,0,-1,1070,1401,0,0
-147,-377,0,0,0,0,0,0,0,0,0,-1,1077,1401,0,0
-140,-377,0,0,0,0,0,0,0,0,0,-1,1084,1401,0,0
-133,-377,0,0,0,0,0,0,0,0,0,-1,1091,1401,0,0
-126,-377,0,0,0,0,0,0,0,0,0,-1,1098,1401,0,0
-119,-377,0,0,0,0,0,0,0,0,0,-1,1105,1401,0,0
-112,-377,0,0,0,0,0,0,0,0,0,-1,1112,1401,0,0
-105,-377,0,0,0,0,0,0,0,0,0,-1,1119,1401,0,0
-98,-377,0,0,0,0,0,0,0,0,0,-1,1126,1401,0,0
-91,-377,0,0,0,0,0,0,0,0,0,-1,1133,1401,0,0
-84,-377,0,0,0,0,0,0,0,0,0,-1,1140,1401,0,0
-77,-377,0,0,0,0,0,0,0,0,0,-1,1147,1401,0,0
-70,-377,0,0,0,0,0,0,0,0,0,-1,1154,1401,0,0
-63,-377,0,0,0,0,0,0,0,0,0,-1,1161,1401,0,0
-56,-377,0,0,0,0,0,0,0,0,0,-1,1168,1401,0,0
-49,-377,0,0,0,0,0,0,0,0,0,-1,1175,1401,0,0
-42,-377,0,0,0,0,0,0,0,0,0,-1,1182,1401,0,0
-35,-377,0,0,0,0,0,0,0,0,0,-1,1189,1401,0,0
-28,-377,0,0,0,0,0,0,0,0,0,-1,1196,1401,0,0
-21,-377,0,0,0,0,0,0,0,0,0,-1,1203,1401,0,0
-14,-377,0,0,0,0,0,0,0,0,0,-1,1210,1401,0,0
-7,-377,0,0,0,0,0,0,0,0,0,-1,1217,1401,0,0
0,-377,0,0,0,0,0,0,0,0,0,-1,1224,1401,0,0
7,-377,0,0,0,0,0,0,0,0,0,-1,1231,1401,0,0
14,-377,0,0,0,0,0,0,0,0,0,-1,1238,1401,0,0
21,-377,0,0,0,0,0,0,0,0,0,-1,1245,1401,0,0
28,-377,0,0,0,0,0,0,0,0,0,-1,1252,1401,0,0
35,-377,0,0,0,0,0,0,0,0,0,-1,1259,1401,0,0
42,-377,0,0,0,0,0,0,0,0,0,-1,1266,1401,0,0
49,-377,0,0,0,0,0,0,0,0,0,-1,1273,1401,0,0
56,-377,0,0,0,0,0,0,0,0,0,-1,1280,1401,0,0
63,-377,0,0,0,0,0,0,0,0,0,-1,1287,1401,0,0
70,-377,0,0,0,0,0,0,0,0,0,-1,1294,1401,0,0
77,-377,0,0,0,0,0,0,0,0,0,-1,1301,1401,0,0
84,-377,0,0,0,0,0,0,0,0,0,-1,1308,1401,0,0
91,-377,0,0,0,0,0,0,0,0,0,-1,1315,1401,0,0
98,-377,0,0,0,0,0,0,0,0,0,-1,1322,1401,0,0
105,-377,0,0,0,0,0,0,0,0,0,-1,1329,1401,0,0
112,-377,0,0,0,0,0,0,0,0,0,-1,1336,1401,0,0
119,-377,0,0,0,0,0,0,0,0,0,-1,1343,1401,0,0
126,-377,0,0,0,0,0,0,0,0,0,-1,1350,1401,0,0
133,-377,0,0,0,0,0,0,0,0,0,-1,1357,1401,0,0
140,-377,0,0,0,0,0,0,0,0,0,-1,1364,1401,0,0
147,-377,0,0,0,0,0,0,0,0,0,-1,1371,1401,0,0
154,-377,0,0,0,0,0,0,0,0,0,-1,1378,1401,0,0
161,-377,0,0,0,0,0,0,0,0,0,-1,1385,1401,0,0
168,-377,0,0,0,0,0,0,0,0,0,-1,1392,1401,0,0
175,-377,0,0,0,0,0,0,0,0,0,-1,1399,1401,0,0
182,-377,0,0,0,0,0,0,0,0,0,-1,1406,1401,0,0
189,-377,0,0,0,0,0,0,0,0,0,-1,1413,1401,0,0
196,-377,0,0,0,0,0,0,0,0,0,-1,1420,1401,0,0
203,-377,0,0,0,0,0,0,0,0,0,-1,1427,1401,0,0
210,-377,0,0,0,0,0,0,0,0,0,-1,1434,1401,0,0
217,-377,0,0,0,0,0,0,0,0,0,-1,1441,1401,0,0
224,-377,0,0,0,0,0,0,0,0,0,-1,1448,1401,0,0
231,-377,0,0,0,0,0,0,0,0,0,-1,1455,1401,0,0
238,-377,0,0,0,0,0,0,0,0,0,-1,1462,1401,0,0
245,-377,0,0,0,0,0,0,0,0,0,-1,1469,1401,0,0
252,-377,0,0,0,0,0,0,0,0,0,-1,1476,1401,0,0
259,-377,0,0,0,0,0,0,0,0,0,-1,1483,1401,0,0
266,-377,0,0,0,0,0,0,0,0,0,-1,1490,1401,0,0
273,-377,0,0,0,0,0,0,0,0,0,-1,1497,1401,0,0
280,-377,0,0,0,0,0,0,0,0,0,-1,1504,1401,0,0
287,-377,0,0,0,0,0,0,0,0,0,-1,1511,1401,0,0
294,-377,0,0,0,0,0,0,0,0,0,-1,1518,1401,0,0
301,-377,0,0,0,0,0,0,0,0,0,-1,1525,1401,0,0
308,-377,0,0,0,0,0,0,0,0,0,-1,1532,1401,0,0
315,-377,0,0,0,0,0,0,0,0,0,-1,1539,1401,0,0
322,-377,0,0,0,0,0,0,0,0,0,-1,1546,1401,0,0
329,-377,0,0,0,0,0,0,0,0,0,-1,1553,1401,0,0
336,-377,0,0,0,0,0,0,0,0,0,-1,1560,1401,0,0
343,-377,0,0,0,0,0,0,0,0,0,-1,1567,1401,0,0
350,-377,0,0,0,0,0,0,0,0,0,-1,1574,1401,0,0
357,-377,0,0,0,0,0,0,0,0,0,-1,1581,1401,0,0
364,-377,0,0,0,0,0,0,0,0,0,-1,1588,1401,0,0
371,-377,0,0,0,0,0,0,0,0,0,-1,1595,1401,0,0
378,-377,0,0,0,0,0,0,0,0,0,-1,1602,1401,0,0
385,-377,0,0,0,0,0,0,0,0,0,-1,1609,1401,0,0
392,-377,0,0,0,0,0,0,0,0,0,-1,1616,1401,0,0
399,-377,0,0,0,0,0,0,0,0,0,-1,1623,1401,0,0
406,-377,0,0,0,0,0,0,0,0,0,-1,1630,1401,0,0
413,-377,0,0,0,0,0,0,0,0,0,-1,1637,1401,0,0
420,-377,0,0,0,0,0,0,0,0,0,-1,1644,1401,0,0
427,-377,0,0,0,0,0,0,0,0,0,-1,1651,1401,0,0
434,-377,0,0,0,0,0,0,0,0,0,-1,1658,1401,0,0
441,-377,0,0,0,0,0,0,0,0,0,-1,1665,1401,0,0
448,-377,0,0,0,0,0,0,0,0,0,-1,1672,1401,0,0
455,-377,0,0,0,0,0,0,0,0,0,-1,1679,1401,0,0
462,-377,0,0,0,0,0,0,0,0,0,-1,1686,1401,0,0
469,-377,0,0,0,0,0,0,0,0,0,-1,1693,1401,0,0
476,-377,0,0,0,0,0,0,0,0,0,-1,1700,1401,0,0
483,-377,0,0,0,0,0,0,0,0,0,-1,1707,1401,0,0
490,-377,0,0,0,0,0,0,0,0,0,-1,1714,1401,0,0
497,-377,0,0,0,0,0,0,0,0,0,-1,1721,1401,0,0
504,-377,0,0,0,0,0,0,0,0,0,-1,1728,1401,0,0
511,-377,0,0,0,0,0,0,0,0,0,-1,1735,1401,0,0
518,-377,0,0,0,0,0,0,0,0,0,-1,1742,1401,0,0
525,-377,0,0,0,0,0,0,0,0,0,-1,1749,1401,0,0
532,-377,0,0,0,0,0,0,0,0,0,-1,1756,1401,0,0
539,-377,0,0,0,0,0,0,0,0,0,-1,1763,1401,0,0
546,-377,27.8485,2.34094,0,0,0,0,0,0,0,-1,1770,1401,27.8486,-2.34091
553,-377,61.8907,2.39148,0,0,0,0,0,0,0,-1,1777,1401,61.8908,-2.39149
560,-377,38.3577,-2.15015,0,0,0,0,0,0,0,-1,1784,1401,38.3576,2.1501
567,-377,38.4889,-0.285645,0,0,0,0,0,0,0,-1,1791,1401,38.4889,0.2857
574,-377,38.6221,1.61694,0,0,0,0,0,0,0,-1,1798,1401,38.6221,-1.61689
581,-377,39.1818,3.76367,0,0,0,0,0,0,0,-1,1805,1401,39.1818,-3.76366
588,-377,25.882,4.35217,0,0,0,0,0,0,0,-1,1812,1401,25.8819,-4.3522
595,-377,25.5392,5.11804,0,0,0,0,0,0,0,-1,1819,1401,25.5392,-5.11808
602,-377,24.816,5.79126,0,0,0,0,0,0,0,-1,1826,1401,24.816,-5.79124
609,-377,15.0223,4.76135,0,0,0,0,0,0,0,-1,1833,1401,15.0224,-4.76129
616,-377,14.1842,5.78992,0,0,0,0,0,0,0,-1,1840,1401,14.1842,-5.78987
623,-377,15.8248,8.76721,0,0,0,0,0,0,0,-1,1847,1401,15.8248,-8.76725
630,-377,37.4343,20.0704,0,0,0,0,0,0,0,-1,1854,1401,37.4344,-20.0704
637,-377,39.0917,19.5936,0,0,0,0,0,0,0,-1,1861,1401,39.0916,-19.5936
644,-377,39.0406,18.8221,-0.000754925,0.00121213,-0.000426402,0.00130058,-0.000843379,-1.36625,0.00124716,0.0137919,1868,1401,39.0407,-18.8221
651,-377,38.9818,18.0651,-0.000255851,0.000670227,-0.00011805,0.000685039,-0.000270662,-1.44598,0.0005688,0.0142517,1875,1401,38.9818,-18.0651
658,-377,38.9547,17.3688,0.000402196,0.000100772,0.000153309,0.000466467,3.65003e-05,0.39697,0.000299553,0.0154576,1882,1401,38.9547,-17.3687
665,-377,38.9351,16.6309,0.00111647,-0.000541648,0.000455231,0.00123323,-0.000658408,0.251073,0.00110882,0.0194161,1889,1401,38.9351,-16.6308
672,-377,38.8718,15.8932,0.00192513,-0.00128306,0.000796901,0.00211217,-0.0014701,0.230539,0.00207927,0.019018,1896,1401,38.8718,-15.8931
679,-377,38.8516,15.1604,0.00281776,-0.0021362,0.00117953,0.00308427,-0.00240271,0.222212,0.00317604,0.0177092,1903,1401,38.8515,-15.1604
686,-377,38.8289,14.4738,0.00382742,-0.00310538,0.00158155,0.00417117,-0.00344913,0.21402,0.00440616,0.0155017,1910,1401,38.8289,-14.4738
693,-377,38.8567,13.6816,0.00495917,-0.00414705,0.00198364,0.00537251,-0.00456039,0.205436,0.00574115,0.0240158,1917,1401,38.8567,-13.6816
700,-377,39.0488,12.7511,0,0,0,0,0,0,0,-1,1924,1401,39.0489,-12.751
707,-377,28.6234,9.18152,0,0,0,0,0,0,0,-1,1931,1401,28.6234,-9.18151
714,-377,16.5369,5.45959,0,0,0,0,0,0,0,-1,1938,1401,16.5369,-5.4596
721,-377,17.0913,5.42529,0,0,0,0,0,0,0,-1,1945,1401,17.0914,-5.42529
728,-377,14.5396,2.79724,0,0,0,0,0,0,0,-1,1952,1401,14.5396,-2.7972
735,-377,23.2977,-0.991089,0,0,0,0,0,0,0,-1,1959,1401,23.2978,0.991076
742,-377,0,0,0,0,0,0,0,0,0,-1,1966,1401,0,0
749,-377,0,0,0,0,0,0,0,0,0,-1,1973,1401,0,0
756,-377,0,0,0,0,0,0,0,0,0,-1,1980,1401,0,0
763,-377,0,0,0,0,0,0,0,0,0,-1,1987,1401,0,0
770,-377,0,0,0,0,0,0,0,0,0,-1,1994,1401,0,0
777,-377,0,0,0,0,0,0,0,0,0,-1,2001,1401,0,0
784,-377,0,0,0,0,0,0,0,0,0,-1,2008,1401,0,0
791,-377,0,0,0,0,0,0,0,0,0,-1,2015,1401,0,0
798,-377,0,0,0,0,0,0,0,0,0,-1,2022,1401,0,0
805,-377,0,0,0,0,0,0,0,0,0,-1,2029,1401,0,0
812,-377,0,0,0,0,0,0,0,0,0,-1,2036,1401,0,0
-700,-384,0,0,0,0,0,0,0,0,0,-1,524,1408,0,0
-693,-384,0,0,0,0,0,0,0,0,0,-1,531,1408,0,0
-686,-384,0,0,0,0,0,0,0,0,0,-1,538,1408,0,0
-679,-384,0,0,0,0,0,0,0,0,0,-1,545,1408,0,0
-672,-384,0,0,0,0,0,0,0,0,0,-1,552,1408,0,0
-665,-384,0,0,0,0,0,0,0,0,0,-1,559,1408,0,0
-658,-384,0,0,0,0,0,0,0,0,0,-1,566,1408,0,0
-651,-384,0,0,0,0,0,0,0,0,0,-1,573,1408,0,0
-644,-384,0,0,0,0,0,0,0,0,0,-1,580,1408,0,0
-637,-384,0,0,0,0,0,0,0,0,0,-1,587,1408,0,0
-630,-384,0,0,0,0,0,0,0,0,0,-1,594,1408,0,0
-623,-384,0,0,0,0,0,0,0,0,0,-1,601,1408,0,0
-616,-384,-10.019,-3.36646,0,0,0,0,0,0,0,-1,608,1408,-10.019,3.36648
-609,-384,-7.72357,-2.3418,0,0,0,0,0,0,0,-1,615,1408,-7.72358,2.34182
-602,-384,-11.7632,-2.85156,0,0,0,0,0,0,0,-1,622,1408,-11.7632,2.85157
-595,-384,-10.2217,2.8855,0,0,0,0,0,0,0,-1,629,1408,-10.2218,-2.88548
-588,-384,-12.1653,2.29041,0,0,0,0,0,0,0,-1,636,1408,-12.1654,-2.29038
-581,-384,-11.9297,3.60376,0,0,0,0,0,0,0,-1,643,1408,-11.9298,-3.6038
-574,-384,-11.8677,6.02722,0,0,0,0,0,0,0,-1,650,1408,-11.8677,-6.02722
-567,-384,-12.0743,7.04639,0,0,0,0,0,0,0,-1,657,1408,-12.0743,-7.04641
-560,-384,-19.9478,11.6345,0,0,0,0,0,0,0,-1,664,1408,-19.9478,-11.6345
-553,-384,-21.0919,13.3557,0,0,0,0,0,0,0,-1,671,1408,-21.0919,-13.3557
-546,-384,-21.1011,14.2208,0.00393607,0.0023063,0.00276964,0.00600822,0.000234153,0.642325,0.00392975,0.0153375,678,1408,-21.1011,-14.2209
-539,-384,-21.19,14.9396,0.00322693,0.00155535,0.00210368,0.00465477,0.000127517,0.59631,0.00306156,0.017843,685,1408,-21.19,-14.9396
-532,-384,-21.1398,15.6459,0.00276249,0.00100138,0.0016252,0.00373035,3.35117e-05,0.537131,0.00247581,0.0249368,692,1408,-21.1398,-15.6459
-525,-384,-21.1265,16.5282,0.00252899,0.000676107,0.00134482,0.00323559,-3.04984e-05,0.483781,0.0021673,0.0240306,699,1408,-21.1265,-16.5282
-518,-384,-21.256,17.2772,0.0024858,0.000498673,0.00122432,0.00306898,-8.45066e-05,0.444534,0.00207473,0.0143217,706,1408,-21.256,-17.2772
-511,-384,-21.3087,18.0553,0.00265801,0.000526452,0.00127623,0.00325496,-7.04951e-05,0.437509,0.00219385,0.0120112,713,1408,-21.3087,-18.0553
-504,-384,-21.3229,18.8375,0.0030744,0.000777512,0.00156037,0.0038634,-1.1489e-05,0.468156,0.00257944,0.0133524,720,1408,-21.3229,-18.8376
-497,-384,-21.2984,19.6292,0.00368202,0.00124155,0.00204424,0.00484252,8.10528e-05,0.516325,0.00320167,0.0412499,727,1408,-21.2984,-19.6292
-490,-384,-21.1455,20.5215,0,0,0,0,0,0,0,-1,734,1408,-21.1455,-20.5215
-483,-384,-6.26471,7.61194,0,0,0,0,0,0,0,-1,741,1408,-6.26469,-7.61191
-476,-384,-6.02734,5.67761,0,0,0,0,0,0,0,-1,748,1408,-6.02736,-5.6776
-469,-384,-10.206,2.63721,0,0,0,0,0,0,0,-1,755,1408,-10.206,-2.6372
-462,-384,-9.04291,1.43542,0,0,0,0,0,0,0,-1,762,1408,-9.04293,-1.43545
-455,-384,-7.87988,0.233765,0,0,0,0,0,0,0,-1,769,1408,-7.87986,-0.233709
-448,-384,-9.35529,7.19226,0,0,0,0,0,0,0,-1,776,1408,-9.35531,-7.19226
-441,-384,-10.4697,1.79004,0,0,0,0,0,0,0,-1,783,1408,-10.4697,-1.79003
-434,-384,-10.6449,0.552246,0,0,0,0,0,0,0,-1,790,1408,-10.6449,-0.552216
-427,-384,-10.968,1.10583,0,0,0,0,0,0,0,-1,797,1408,-10.968,-1.10588
-420,-384,-12.5607,4.54858,0,0,0,0,0,0,0,-1,804,1408,-12.5607,-4.54859
-413,-384,0,0,0,0,0,0,0,0,0,-1,811,1408,0,0
-406,-384,0,0,0,0,0,0,0,0,0,-1,818,1408,0,0
-399,-384,0,0,0,0,0,0,0,0,0,-1,825,1408,0,0
-392,-384,0,0,0,0,0,0,0,0,0,-1,832,1408,0,0
-385,-384,0,0,0,0,0,0,0,0,0,-1,839,1408,0,0
-378,-384,0,0,0,0,0,0,0,0,0,-1,846,1408,0,0
-371,-384,0,0,0,0,0,0,0,0,0,-1,853,1408,0,0
-364,-384,0,0,0,0,0,0,0,0,0,-1,860,1408,0,0
-357,-384,0,0,0,0,0,0,0,0,0,-1,867,1408,0,0
-350,-384,0,0,0,0,0,0,0,0,0,-1,874,1408,0,0
-343,-384,0,0,0,0,0,0,0,0,0,-1,881,1408,0,0
-336,-384,0,0,0,0,0,0,0,0,0,-1,888,1408,0,0
-329,-384,0,0,0,0,0,0,0,0,0,-1,895,1408,0,0
-322,-384,0,0,0,0,0,0,0,0,0,-1,902,1408,0,0
-315,-384,0,0,0,0,0,0,0,0,0,-1,909,1408,0,0
-308,-384,0,0,0,0,0,0,0,0,0,-1,916,1408,0,0
-301,-384,0,0,0,0,0,0,0,0,0,-1,923,1408,0,0
-294,-384,0,0,0,0,0,0,0,0,0,-1,930,1408,0,0
-287,-384,0,0,0,0,0,0,0,0,0,-1,937,1408,0,0
-280,-384,0,0,0,0,0,0,0,0,0,-1,944,1408,0,0
-273,-384,0,0,0,0,0,0,0,0,0,-1,951,1408,0,0
-266,-384,0,0,0,0,0,0,0,0,0,-1,958,1408,0,0
-259,-384,0,0,0,0,0,0,0,0,0,-1,965,1408,0,0
-252,-384,0,0,0,0,0,0,0,0,0,-1,972,1408,0,0
-245,-384,0,0,0,0,0,0,0,0,0,-1,979,1408,0,0
-238,-384,0,0,0,0,0,0,0,0,0,-1,986,1408,0,0
-231,-384,0,0,0,0,0,0,0,0,0,-1,993,1408,0,0
-224,-384,0,0,0,0,0,0,0,0,0,-1,1000,1408,0,0
-217,-384,0,0,0,0,0,0,0,0,0,-1,1007,1408,0,0
-210,-384,0,0,0,0,0,0,0,0,0,-1,1014,1408,0,0
-203,-384,0,0,0,0,0,0,0,0,0,-1,1021,1408,0,0
-196,-384,0,0,0,0,0,0,0,0,0,-1,1028,1408,0,0
-189,-384,0,0,0,0,0,0,0,0,0,-1,1035,1408,0,0
-182,-384,0,0,0,0,0,0,0,0,0,-1,1042,1408,0,0
-175,-384,0,0,0,0,0,0,0,0,0,-1,1049,1408,0,0
-168,-384,0,0,0,0,0,0,0,0,0,-1,1056,1408,0,0
-161,-384,0,0,0,0,0,0,0,0,0,-1,1063,1408,0,0
-154,-384,0,0,0,0,0,0,0,0,0,-1,1070,1408,0,0
-147,-384,0,0,0,0,0,0,0,0,0,-1,1077,1408,0,0
-140,-384,0,0,0,0,0,0,0,0,0,-1,1084,1408,0,0
-133,-384,0,0,0,0,0,0,0,0,0,-1,1091,1408,0,0
-126,-384,0,0,0,0,0,0,0,0,0,-1,1098,1408,0,0
-119,-384,0,0,0,0,0,0,0,0,0,-1,1105,1408,0,0
-112,-384,0,0,0,0,0,0,0,0,0,-1,1112,1408,0,0
-105,-384,0,0,0,0,0,0,0,0,0,-1,1119,1408,0,0
-98,-384,0,0,0,0,0,0,0,0,0,-1,1126,1408,0,0
-91,-384,0,0,0,0,0,0,0,0,0,-1,1133,1408,0,0
-84,-384,0,0,0,0,0,0,0,0,0,-1,1140,1408,0,0
-77,-384,0,0,0,0,0,0,0,0,0,-1,1147,1408,0,0
-70,-384,0,0,0,0,0,0,0,0,0,-1,1154,1408,0,0
-63,-384,0,0,0,0,0,0,0,0,0,-1,1161,1408,0,0
-56,-384,0,0,0,0,0,0,0,0,0,-1,1168,1408,0,0
-49,-384,0,0,0,0,0,0,0,0,0,-1,1175,1408,0,0
-42,-384,0,0,0,0,0,0,0,0,0,-1,1182,1408,0,0
-35,-384,0,0,0,0,0,0,0,0,0,-1,1189,1408,0,0
-28,-384,0,0,0,0,0,0,0,0,0,-1,1196,1408,0,0
-21,-384,0,0,0,0,0,0,0,0,0,-1,1203,1408,0,0
-14,-384,0,0,0,0,0,0,0,0,0,-1,1210,1408,0,0
-7,-384,0,0,0,0,0,0,0,0,0,-1,1217,1408,0,0
0,-384,0,0,0,0,0,0,0,0,0,-1,1224,1408,0,0
7,-384,0,0,0,0,0,0,0,0,0,-1,1231,1408,0,0
14,-384,0,0,0,0,0,0,0,0,0,-1,1238,1408,0,0
21,-384,0,0,0,0,0,0,0,0,0,-1,1245,1408,0,0
28,-384,0,0,0,0,0,0,0,0,0,-1,1252,1408,0,0
35,-384,0,0,0,0,0,0,0,0,0,-1,1259,1408,0,0
42,-384,0,0,0,0,0,0,0,0,0,-1,1266,1408,0,0
49,-384,0,0,0,0,0,0,0,0,0,-1,1273,1408,0,0
56,-384,0,0,0,0,0,0,0,0,0,-1,1280,1408,0,0
63,-384,0,0,0,0,0,0,0,0,0,-1,1287,1408,0,0
70,-384,0,0,0,0,0,0,0,0,0,-1,1294,1408,0,0
77,-384,0,0,0,0,0,0,0,0,0,-1,1301,1408,0,0
84,-384,0,0,0,0,0,0,0,0,0,-1,1308,1408,0,0
91,-384,0,0,0,0,0,0,0,0,0,-1,1315,1408,0,0
98,-384,0,0,0,0,0,0,0,0,0,-1,1322,1408,0,0
105,-384,0,0,0,0,0,0,0,0,0,-1,1329,1408,0,0
112,-384,0,0,0,0,0,0,0,0,0,-1,1336,1408,0,0
119,-384,0,0,0,0,0,0,0,0,0,-1,1343,1408,0,0
126,-384,0,0,0,0,0,0,0,0,0,-1,1350,1408,0,0
133,-384,0,0,0,0,0,0,0,0,0,-1,1357,1408,0,0
140,-384,0,0,0,0,0,0,0,0,0,-1,1364,1408,0,0
147,-384,0,0,0,0,0,0,0,0,0,-1,1371,1408,0,0
154,-384,0,0,0,0,0,0,0,0,0,-1,1378,1408,0,0
161,-384,0,0,0,0,0,0,0,0,0,-1,1385,1408,0,0
168,-384,0,0,0,0,0,0,0,0,0,-1,1392,1408,0,0
175,-384,0,0,0,0,0,0,0,0,0,-1,1399,1408,0,0
182,-384,0,0,0,0,0,0,0,0,0,-1,1406,1408,0,0
189,-384,0,0,0,0,0,0,0,0,0,-1,1413,1408,0,0
196,-384,0,0,0,0,0,0,0,0,0,-1,1420,1408,0,0
203,-384,0,0,0,0,0,0,0,0,0,-1,1427,1408,0,0
210,-384,0,0,0,0,0,0,0,0,0,-1,1434,1408,0,0
217,-384,0,0,0,0,0,0,0,0,0,-1,1441,1408,0,0
224,-384,0,0,0,0,0,0,0,0,0,-1,1448,1408,0,0
231,-384,0,0,0,0,0,0,0,0,0,-1,1455,1408,0,0
238,-384,0,0,0,0,0,0,0,0,0,-1,1462,1408,0,0
245,-384,0,0,0,0,0,0,0,0,0,-1,1469,1408,0,0
252,-384,0,0,0,0,0,0,0,0,0,-1,1476,1408,0,0
259,-384,0,0,0,0,0,0,0,0,0,-1,1483,1408,0,0
266,-384,0,0,0,0,0,0,0,0,0,-1,1490,1408,0,0
273,-384,0,0,0,0,0,0,0,0,0,-1,1497,1408,0,0
280,-384,0,0,0,0,0,0,0,0,0,-1,1504,1408,0,0
287,-384,0,0,0,0,0,0,0,0,0,-1,1511,1408,0,0
294,-384,0,0,0,0,0,0,0,0,0,-1,1518,1408,0,0
301,-384,0,0,0,0,0,0,0,0,0,-1,1525,1408,0,0
308,-384,0,0,0,0,0,0,0,0,0,-1,1532,1408,0,0
315,-384,0,0,0,0,0,0,0,0,0,-1,1539,1408,0,0
322,-384,0,0,0,0,0,0,0,0,0,-1,1546,1408,0,0
329,-384,0,0,0,0,0,0,0,0,0,-1,1553,1408,0,0
336,-384,0,0,0,0,0,0,0,0,0,-1,1560,1408,0,0
343,-384,0,0,0,0,0,0,0,0,0,-1,1567,1408,0,0
350,-384,0,0,0,0,0,0,0,0,0,-1,1574,1408,0,0
357,-384,0,0,0,0,0,0,0,0,0,-1,1581,1408,0,0
364,-384,0,0,0,0,0,0,0,0,0,-1,1588,1408,0,0
371,-384,0,0,0,0,0,0,0,0,0,-1,1595,1408,0,0
378,-384,0,0,0,0,0,0,0,0,0,-1,1602,1408,0,0
385,-384,0,0,0,0,0,0,0,0,0,-1,1609,1408,0,0
392,-384,0,0,0,0,0,0,0,0,0,-1,1616,1408,0,0
399,-384,0,0,0,0,0,0,0,0,0,-1,1623,1408,0,0
406,-384,0,0,0,0,0,0,0,0,0,-1,1630,1408,0,0
413,-384,0,0,0,0,0,0,0,0,0,-1,1637,1408,0,0
420,-384,0,0,0,0,0,0,0,0,0,-1,1644,1408,0,0
427,-384,0,0,0,0,0,0,0,0,0,-1,1651,1408,0,0
434,-384,0,0,0,0,0,0,0,0,0,-1,1658,1408,0,0
441,-384,0,0,0,0,0,0,0,0,0,-1,1665,1408,0,0
448,-384,0,0,0,0,0,0,0,0,0,-1,1672,1408,0,0
455,-384,0,0,0,0,0,0,0,0,0,-1,1679,1408,0,0
462,-384,0,0,0,0,0,0,0,0,0,-1,1686,1408,0,0
469,-384,0,0,0,0,0,0,0,0,0,-1,1693,1408,0,0
476,-384,0,0,0,0,0,0,0,0,0,-1,1700,1408,0,0
483,-384,0,0,0,0,0,0,0,0,0,-1,1707,1408,0,0
490,-384,0,0,0,0,0,0,0,0,0,-1,1714,1408,0,0
497,-384,0,0,0,0,0,0,0,0,0,-1,1721,1408,0,0
504,-384,0,0,0,0,0,0,0,0,0,-1,1728,1408,0,0
511,-384,0,0,0,0,0,0,0,0,0,-1,1735,1408,0,0
518,-384,0,0,0,0,0,0,0,0,0,-1,1742,1408,0,0
525,-384,0,0,0,0,0,0,0,0,0,-1,1749,1408,0,0
532,-384,0,0,0,0,0,0,0,0,0,-1,1756,1408,0,0
539,-384,27.6886,2.85803,0,0,0,0,0,0,0,-1,1763,1408,27.6886,-2.85807
546,-384,27.5044,2.9425,0,0,0,0,0,0,0,-1,1770,1408,27.5044,-2.94255
553,-384,27.3052,2.78394,0,0,0,0,0,0,0,-1,1777,1408,27.3051,-2.78394
560,-384,26.833,3.19812,0,0,0,0,0,0,0,-1,1784,1408,26.833,-3.19816
567,-384,38.2566,0.109985,0,0,0,0,0,0,0,-1,1791,1408,38.2566,-0.110044
574,-384,38.4003,2.05945,0,0,0,0,0,0,0,-1,1798,1408,38.4003,-2.05949
581,-384,25.819,3.91846,0,0,0,0,0,0,0,-1,1805,1408,25.8189,-3.91848
588,-384,23.3721,4.25439,0,0,0,0,0,0,0,-1,1812,1408,23.3721,-4.25442
595,-384,24.981,5.59595,0,0,0,0,0,0,0,-1,1819,1408,24.981,-5.59598
602,-384,20.6605,4.17261,0,0,0,0,0,0,0,-1,1826,1408,20.6606,-4.17265
609,-384,14.158,5.49475,0,0,0,0,0,0,0,-1,1833,1408,14.158,-5.49474
616,-384,14.7997,7.6908,0,0,0,0,0,0,0,-1,1840,1408,14.7996,-7.69079
623,-384,16.4293,9.58899,0,0,0,0,0,0,0,-1,1847,1408,16.4294,-9.58901
630,-384,38.281,20.4243,0,0,0,0,0,0,0,-1,1854,1408,38.281,-20.4244
637,-384,38.316,19.6093,-0.000472298,0.000962629,-0.000206015,0.000991621,-0.00050129,-1.43099,0.000877292,0.0251693,1861,1408,38.3161,-19.6092
644,-384,38.2731,18.8805,-0.000223285,0.00084966,-0.000258605,0.000908737,-0.000282362,-1.34621,0.000718679,0.0166591,1868,1408,38.273,-18.8805
651,-384,38.23,18.1039,0.000233575,0.000365939,3.12025e-06,0.000366013,0.000233501,1.54724,0.000213982,0.0162135,1875,1408,38.2299,-18.1038
658,-384,38.1991,17.3712,0.000811688,-0.000200388,0.000296473,0.00089214,-0.00028084,0.264983,0.000707211,0.0168699,1882,1408,38.1992,-17.3712
665,-384,38.2012,16.6823,0.0014614,-0.000876069,0.000666015,0.00163784,-0.00105252,0.258982,0.00156549,0.0193287,1889,1408,38.2012,-16.6823
672,-384,38.1564,15.9384,0.00220793,-0.00171577,0.00113488,0.00251254,-0.00202038,0.262221,0.00262222,0.0168749,1896,1408,38.1563,-15.9384
679,-384,38.1008,15.1989,0.00303888,-0.0027434,0.0017112,0.00350734,-0.00321186,0.267213,0.00388058,0.0156349,1903,1408,38.1008,-15.1989
686,-384,38.0603,14.491,0.00398844,-0.00399437,0.00238855,0.00464854,-0.00465447,0.26963,0.00537109,0.0132483,1910,1408,38.0603,-14.491
693,-384,38.1571,13.7566,0.00504818,-0.00542729,0.00316415,0.00592973,-0.00630884,0.271717,0.00706708,0.0398921,1917,1408,38.1571,-13.7566
700,-384,38.316,13.0756,0,0,0,0,0,0,0,-1,1924,1408,38.3161,-13.0755
707,-384,17.0566,6.62842,0,0,0,0,0,0,0,-1,1931,1408,17.0567,-6.62848
714,-384,16.038,5.0282,0,0,0,0,0,0,0,-1,1938,1408,16.038,-5.02819
721,-384,13.8843,2.8717,0,0,0,0,0,0,0,-1,1945,1408,13.8843,-2.87171
728,-384,15.4409,6.25745,0,0,0,0,0,0,0,-1,1952,1408,15.4409,-6.2574
735,-384,16.7598,6.71289,0,0,0,0,0,0,0,-1,1959,1408,16.7598,-6.71287
742,-384,0,0,0,0,0,0,0,0,0,-1,1966,1408,0,0
749,-384,0,0,0,0,0,0,0,0,0,-1,1973,1408,0,0
756,-384,0,0,0,0,0,0,0,0,0,-1,1980,1408,0,0
763,-384,0,0,0,0,0,0,0,0,0,-1,1987,1408,0,0
770,-384,0,0,0,0,0,0,0,0,0,-1,1994,1408,0,0
777,-384,0,0,0,0,0,0,0,0,0,-1,2001,1408,0,0
784,-384,0,0,0,0,0,0,0,0,0,-1,2008,1408,0,0
791,-384,0,0,0,0,0,0,0,0,0,-1,2015,1408,0,0
798,-384,0,0,0,0,0,0,0,0,0,-1,2022,1408,0,0
805,-384,0,0,0,0,0,0,0,0,0,-1,2029,1408,0,0
812,-384,0,0,0,0,0,0,0,0,0,-1,2036,1408,0,0
-700,-391,0,0,0,0,0,0,0,0,0,-1,524,1415,0,0
-693,-391,0,0,0,0,0,0,0,0,0,-1,531,1415,0,0
-686,-391,0,0,0,0,0,0,0,0,0,-1,538,1415,0,0
-679,-391,0,0,0,0,0,0,0,0,0,-1,545,1415,0,0
-672,-391,0,0,0,0,0,0,0,0,0,-1,552,1415,0,0
-665,-391,0,0,0,0,0,0,0,0,0,-1,559,1415,0,0
-658,-391,0,0,0,0,0,0,0,0,0,-1,566,1415,0,0
-651,-391,0,0,0,0,0,0,0,0,0,-1,573,1415,0,0
-644,-391,0,0,0,0,0,0,0,0,0,-1,580,1415,0,0
-637,-391,0,0,0,0,0,0,0,0,0,-1,587,1415,0,0
-630,-391,0,0,0,0,0,0,0,0,0,-1,594,1415,0,0
-623,-391,0,0,0,0,0,0,0,0,0,-1,601,1415,0,0
-616,-391,0,0,0,0,0,0,0,0,0,-1,608,1415,0,0
-609,-391,-7.71753,-3.69763,0,0,0,0,0,0,0,-1,615,1415,-7.71751,3.69759
-602,-391,-13.9493,-4.12805,0,0,0,0,0,0,0,-1,622,1415,-13.9493,4.12803
-595,-391,-10.8315,1.76172,0,0,0,0,0,0,0,-1,629,1415,-10.8315,-1.76171
-588,-391,-10.265,2.16431,0,0,0,0,0,0,0,-1,636,1415,-10.265,-2.16431
-581,-391,-11.3325,2.44836,0,0,0,0,0,0,0,-1,643,1415,-11.3325,-2.44842
-574,-391,-11.1471,6.19983,0,0,0,0,0,0,0,-1,650,1415,-11.1471,-6.19981
-567,-391,-11.5172,6.82458,0,0,0,0,0,0,0,-1,657,1415,-11.5171,-6.82454
-560,-391,-11.2459,7.37195,0,0,0,0,0,0,0,-1,664,1415,-11.2459,-7.37191
-553,-391,-20.4259,13.3942,0,0,0,0,0,0,0,-1,671,1415,-20.4259,-13.3942
-546,-391,-20.3644,14.1993,0.00447772,0.00280131,0.00330073,0.00704501,0.000234012,0.661054,0.00462065,0.0193226,678,1415,-20.3644,-14.1993
-539,-391,-20.3262,15.0234,0.0035721,0.00197891,0.00247979,0.00538009,0.000170909,0.629987,0.00353114,0.0155285,685,1415,-20.3262,-15.0235
-532,-391,-20.3232,15.8179,0.00292917,0.00132447,0.00184921,0.0041426,0.00011104,0.58071,0.00272547,0.0270625,692,1415,-20.3232,-15.8179
-525,-391,-20.3871,16.6124,0.00254979,0.000942355,0.00145743,0.00341043,8.17215e-05,0.533415,0.00224687,0.0247607,699,1415,-20.3871,-16.6125
-518,-391,-20.5251,17.3234,0.00236338,0.000710044,0.00123608,0.00302375,4.9673e-05,0.490667,0.00199948,0.0154999,706,1415,-20.5251,-17.3234
-511,-391,-20.5492,18.0996,0.00236521,0.000662661,0.00117136,0.00296195,6.59236e-05,0.471173,0.00195303,0.0149036,713,1415,-20.5492,-18.0996
-504,-391,-20.5587,18.8789,0.00258228,0.00081256,0.00130633,0.00327523,0.000119613,0.487712,0.00214473,0.0134053,720,1415,-20.5587,-18.8789
-497,-391,-20.5883,19.6346,0.00297421,0.00115645,0.00163332,0.0039345,0.000196157,0.531504,0.00256012,0.0140786,727,1415,-20.5883,-19.6346
-490,-391,-20.5982,20.407,0,0,0,0,0,0,0,-1,734,1415,-20.5982,-20.407
-483,-391,-11.1018,12.9382,0,0,0,0,0,0,0,-1,741,1415,-11.1018,-12.9382
-476,-391,-6.05731,6.85303,0,0,0,0,0,0,0,-1,748,1415,-6.05728,-6.85304
-469,-391,-3.88953,5.0979,0,0,0,0,0,0,0,-1,755,1415,-3.88955,-5.09794
-462,-391,-8.67688,2.03125,0,0,0,0,0,0,0,-1,762,1415,-8.67685,-2.03121
-455,-391,-8.65576,6.46997,0,0,0,0,0,0,0,-1,769,1415,-8.65579,-6.46999
-448,-391,-8.39618,4.38403,0,0,0,0,0,0,0,-1,776,1415,-8.39617,-4.38405
-441,-391,-9.77704,2.5946,0,0,0,0,0,0,0,-1,783,1415,-9.77702,-2.5946
-434,-391,-11.5403,2.12878,0,0,0,0,0,0,0,-1,790,1415,-11.5403,-2.12881
-427,-391,-10.5311,2.50403,0,0,0,0,0,0,0,-1,797,1415,-10.5311,-2.504
-420,-391,-14.7087,1.24365,0,0,0,0,0,0,0,-1,804,1415,-14.7088,-1.24365
-413,-391,0,0,0,0,0,0,0,0,0,-1,811,1415,0,0
-406,-391,0,0,0,0,0,0,0,0,0,-1,818,1415,0,0
-399,-391,0,0,0,0,0,0,0,0,0,-1,825,1415,0,0
-392,-391,0,0,0,0,0,0,0,0,0,-1,832,1415,0,0
-385,-391,0,0,0,0,0,0,0,0,0,-1,839,1415,0,0
-378,-391,0,0,0,0,0,0,0,0,0,-1,846,1415,0,0
-371,-391,0,0,0,0,0,0,0,0,0,-1,853,1415,0,0
-364,-391,0,0,0,0,0,0,0,0,0,-1,860,1415,0,0
-357,-391,0,0,0,0,0,0,0,0,0,-1,867,1415,0,0
-350,-391,0,0,0,0,0,0,0,0,0,-1,874,1415,0,0
-343,-391,0,0,0,0,0,0,0,0,0,-1,881,1415,0,0
-336,-391,0,0,0,0,0,0,0,0,0,-1,888,1415,0,0
-329,-391,0,0,0,0,0,0,0,0,0,-1,895,1415,0,0
-322,-391,0,0,0,0,0,0,0,0,0,-1,902,1415,0,0
-315,-391,0,0,0,0,0,0,0,0,0,-1,909,1415,0,0
-308,-391,0,0,0,0,0,0,0,0,0,-1,916,1415,0,0
-301,-391,0,0,0,0,0,0,0,0,0,-1,923,1415,0,0
-294,-391,0,0,0,0,0,0,0,0,0,-1,930,1415,0,0
-287,-391,0,0,0,0,0,0,0,0,0,-1,937,1415,0,0
-280,-391,0,0,0,0,0,0,0,0,0,-1,944,1415,0,0
-273,-391,0,0,0,0,0,0,0,0,0,-1,951,1415,0,0
-266,-391,0,0,0,0,0,0,0,0,0,-1,958,1415,0,0
-259,-391,0,0,0,0,0,0,0,0,0,-1,965,1415,0,0
-252,-391,0,0,0,0,0,0,0,0,0,-1,972,1415,0,0
-245,-391,0,0,0,0,0,0,0,0,0,-1,979,1415,0,0
-238,-391,0,0,0,0,0,0,0,0,0,-1,986,1415,0,0
-231,-391,0,0,0,0,0,0,0,0,0,-1,993,1415,0,0
-224,-391,0,0,0,0,0,0,0,0,0,-1,1000,1415,0,0
-217,-391,0,0,0,0,0,0,0,0,0,-1,1007,1415,0,0
-210,-391,0,0,0,0,0,0,0,0,0,-1,1014,1415,0,0
-203,-391,0,0,0,0,0,0,0,0,0,-1,1021,1415,0,0
-196,-391,0,0,0,0,0,0,0,0,0,-1,1028,1415,0,0
-189,-391,0,0,0,0,0,0,0,0,0,-1,1035,1415,0,0
-182,-391,0,0,0,0,0,0,0,0,0,-1,1042,1415,0,0
-175,-391,0,0,0,0,0,0,0,0,0,-1,1049,1415,0,0
-168,-391,0,0,0,0,0,0,0,0,0,-1,1056,1415,0,0
-161,-391,0,0,0,0,0,0,0,0,0,-1,1063,1415,0,0
-154,-391,0,0,0,0,0,0,0,0,0,-1,1070,1415,0,0
-147,-391,0,0,0,0,0,0,0,0,0,-1,1077,1415,0,0
-140,-391,0,0,0,0,0,0,0,0,0,-1,1084,1415,0,0
-133,-391,0,0,0,0,0,0,0,0,0,-1,1091,1415,0,0
-126,-391,0,0,0,0,0,0,0,0,0,-1,1098,1415,0,0
-119,-391,0,0,0,0,0,0,0,0,0,-1,1105,1415,0,0
-112,-391,0,0,0,0,0,0,0,0,0,-1,1112,1415,0,0
-105,-391,0,0,0,0,0,0,0,0,0,-1,1119,1415,0,0
-98,-391,0,0,0,0,0,0,0,0,0,-1,1126,1415,0,0
-91,-391,0,0,0,0,0,0,0,0,0,-1,1133,1415,0,0
-84,-391,0,0,0,0,0,0,0,0,0,-1,1140,1415,0,0
-77,-391,0,0,0,0,0,0,0,0,0,-1,1147,1415,0,0
-70,-391,0,0,0,0,0,0,0,0,0,-1,1154,1415,0,0
-63,-391,0,0,0,0,0,0,0,0,0,-1,1161,1415,0,0
-56,-391,0,0,0,0,0,0,0,0,0,-1,1168,1415,0,0
-49,-391,0,0,0,0,0,0,0,0,0,-1,1175,1415,0,0
-42,-391,0,0,0,0,0,0,0,0,0,-1,1182,1415,0,0
-35,-391,0,0,0,0,0,0,0,0,0,-1,1189,1415,0,0
-28,-391,0,0,0,0,0,0,0,0,0,-1,1196,1415,0,0
-21,-391,0,0,0,0,0,0,0,0,0,-1,1203,1415,0,0
-14,-391,0,0,0,0,0,0,0,0,0,-1,1210,1415,0,0
-7,-391,0,0,0,0,0,0,0,0,0,-1,1217,1415,0,0
0,-391,0,0,0,0,0,0,0,0,0,-1,1224,1415,0,0
7,-391,0,0,0,0,0,0,0,0,0,-1,1231,1415,0,0
14,-391,0,0,0,0,0,0,0,0,0,-1,1238,1415,0,0
21,-391,0,0,0,0,0,0,0,0,0,-1,1245,1415,0,0
28,-391,0,0,0,0,0,0,0,0,0,-1,1252,1415,0,0
35,-391,0,0,0,0,0,0,0,0,0,-1,1259,1415,0,0
42,-391,0,0,0,0,0,0,0,0,0,-1,1266,1415,0,0
49,-391,0,0,0,0,0,0,0,0,0,-1,1273,1415,0,0
56,-391,0,0,0,0,0,0,0,0,0,-1,1280,1415,0,0
63,-391,0,0,0,0,0,0,0,0,0,-1,1287,1415,0,0
70,-391,0,0,0,0,0,0,0,0,0,-1,1294,1415,0,0
77,-391,0,0,0,0,0,0,0,0,0,-1,1301,1415,0,0
84,-391,0,0,0,0,0,0,0,0,0,-1,1308,1415,0,0
91,-391,0,0,0,0,0,0,0,0,0,-1,1315,1415,0,0
98,-391,0,0,0,0,0,0,0,0,0,-1,1322,1415,0,0
105,-391,0,0,0,0,0,0,0,0,0,-1,1329,1415,0,0
112,-391,0,0,0,0,0,0,0,0,0,-1,1336,1415,0,0
119,-391,0,0,0,0,0,0,0,0,0,-1,1343,1415,0,0
126,-391,0,0,0,0,0,0,0,0,0,-1,1350,1415,0,0
133,-391,0,0,0,0,0,0,0,0,0,-1,1357,1415,0,0
140,-391,0,0,0,0,0,0,0,0,0,-1,1364,1415,0,0
147,-391,0,0,0,0,0,0,0,0,0,-1,1371,1415,0,0
154,-391,0,0,0,0,0,0,0,0,0,-1,1378,1415,0,0
161,-391,0,0,0,0,0,0,0,0,0,-1,1385,1415,0,0
168,-391,0,0,0,0,0,0,0,0,0,-1,1392,1415,0,0
175,-391,0,0,0,0,0,0,0,0,0,-1,1399,1415,0,0
182,-391,0,0,0,0,0,0,0,0,0,-1,1406,1415,0,0
189,-391,0,0,0,0,0,0,0,0,0,-1,1413,1415,0,0
196,-391,0,0,0,0,0,0,0,0,0,-1,1420,1415,0,0
203,-391,0,0,0,0,0,0,0,0,0,-1,1427,1415,0,0
210,-391,0,0,0,0,0,0,0,0,0,-1,1434,1415,0,0
217,-391,0,0,0,0,0,0,0,0,0,-1,1441,1415,0,0
224,-391,0,0,0,0,0,0,0,0,0,-1,1448,1415,0,0
231,-391,0,0,0,0,0,0,0,0,0,-1,1455,1415,0,0
238,-391,0,0,0,0,0,0,0,0,0,-1,1462,1415,0,0
245,-391,0,0,0,0,0,0,0,0,0,-1,1469,1415,0,0
252,-391,0,0,0,0,0,0,0,0,0,-1,1476,1415,0,0
259,-391,0,0,0,0,0,0,0,0,0,-1,1483,1415,0,0
266,-391,0,0,0,0,0,0,0,0,0,-1,1490,1415,0,0
273,-391,0,0,0,0,0,0,0,0,0,-1,1497,1415,0,0
280,-391,0,0,0,0,0,0,0,0,0,-1,1504,1415,0,0
287,-391,0,0,0,0,0,0,0,0,0,-1,1511,1415,0,0
294,-391,0,0,0,0,0,0,0,0,0,-1,1518,1415,0,0
301,-391,0,0,0,0,0,0,0,0,0,-1,1525,1415,0,0
308,-391,0,0,0,0,0,0,0,0,0,-1,1532,1415,0,0
315,-391,0,0,0,0,0,0,0,0,0,-1,1539,1415,0,0
322,-391,0,0,0,0,0,0,0,0,0,-1,1546,1415,0,0
329,-391,0,0,0,0,0,0,0,0,0,-1,1553,1415,0,0
336,-391,0,0,0,0,0,0,0,0,0,-1,1560,1415,0,0
343,-391,0,0,0,0,0,0,0,0,0,-1,1567,1415,0,0
350,-391,0,0,0,0,0,0,0,0,0,-1,1574,1415,0,0
357,-391,0,0,0,0,0,0,0,0,0,-1,1581,1415,0,0
364,-391,0,0,0,0,0,0,0,0,0,-1,1588,1415,0,0
371,-391,0,0,0,0,0,0,0,0,0,-1,1595,1415,0,0
378,-391,0,0,0,0,0,0,0,0,0,-1,1602,1415,0,0
385,-391,0,0,0,0,0,0,0,0,0,-1,1609,1415,0,0
392,-391,0,0,0,0,0,0,0,0,0,-1,1616,1415,0,0
399,-391,0,0,0,0,0,0,0,0,0,-1,1623,1415,0,0
406,-391,0,0,0,0,0,0,0,0,0,-1,1630,1415,0,0
413,-391,0,0,0,0,0,0,0,0,0,-1,1637,1415,0,0
420,-391,0,0,0,0,0,0,0,0,0,-1,1644,1415,0,0
427,-391,0,0,0,0,0,0,0,0,0,-1,1651,1415,0,0
434,-391,0,0,0,0,0,0,0,0,0,-1,1658,1415,0,0
441,-391,0,0,0,0,0,0,0,0,0,-1,1665,1415,0,0
448,-391,0,0,0,0,0,0,0,0,0,-1,1672,1415,0,0
455,-391,0,0,0,0,0,0,0,0,0,-1,1679,1415,0,0
462,-391,0,0,0,0,0,0,0,0,0,-1,1686,1415,0,0
469,-391,0,0,0,0,0,0,0,0,0,-1,1693,1415,0,0
476,-391,0,0,0,0,0,0,0,0,0,-1,1700,1415,0,0
483,-391,0,0,0,0,0,0,0,0,0,-1,1707,1415,0,0
490,-391,0,0,0,0,0,0,0,0,0,-1,1714,1415,0,0
497,-391,0,0,0,0,0,0,0,0,0,-1,1721,1415,0,0
504,-391,0,0,0,0,0,0,0,0,0,-1,1728,1415,0,0
511,-391,0,0,0,0,0,0,0,0,0,-1,1735,1415,0,0
518,-391,0,0,0,0,0,0,0,0,0,-1,1742,1415,0,0
525,-391,0,0,0,0,0,0,0,0,0,-1,1749,1415,0,0
532,-391,28.5959,3.02356,0,0,0,0,0,0,0,-1,1756,1415,28.596,-3.02358
539,-391,27.5881,3.25012,0,0,0,0,0,0,0,-1,1763,1415,27.5882,-3.25016
546,-391,27.2837,3.28064,0,0,0,0,0,0,0,-1,1770,1415,27.2837,-3.28064
553,-391,32.5952,5.04553,0,0,0,0,0,0,0,-1,1777,1415,32.5952,-5.04551
560,-391,31.2947,5.67017,0,0,0,0,0,0,0,-1,1784,1415,31.2947,-5.67011
567,-391,30.1473,6.17603,0,0,0,0,0,0,0,-1,1791,1415,30.1473,-6.17602
574,-391,27.5656,5.6842,0,0,0,0,0,0,0,-1,1798,1415,27.5655,-5.68422
581,-391,25.8883,5.76123,0,0,0,0,0,0,0,-1,1805,1415,25.8883,-5.76124
588,-391,24.2717,5.47986,0,0,0,0,0,0,0,-1,1812,1415,24.2717,-5.47982
595,-391,22.8827,6.1991,0,0,0,0,0,0,0,-1,1819,1415,22.8827,-6.19909
602,-391,15.1635,5.69849,0,0,0,0,0,0,0,-1,1826,1415,15.1635,-5.69847
609,-391,14.8285,7.50476,0,0,0,0,0,0,0,-1,1833,1415,14.8285,-7.50479
616,-391,20.7952,12.0503,0,0,0,0,0,0,0,-1,1840,1415,20.7952,-12.0503
623,-391,36.6426,20.3677,0,0,0,0,0,0,0,-1,1847,1415,36.6426,-20.3676
630,-391,37.6483,20.3339,0,0,0,0,0,0,0,-1,1854,1415,37.6483,-20.3338
637,-391,37.5745,19.6042,5.22748e-05,0.000691069,-9.3498e-05,0.000704473,3.88711e-05,-1.42841,0.000457243,0.0166391,1861,1415,37.5745,-19.6043
644,-391,37.5313,18.8859,0.000270599,0.000522587,-0.000108177,0.000562656,0.00023053,-1.21607,0.00032661,0.0169987,1868,1415,37.5313,-18.8858
651,-391,37.5216,18.1827,0.000675901,9.34697e-05,0.000119855,0.000699601,6.97696e-05,0.19522,0.000444971,0.0177197,1875,1415,37.5216,-18.1827
658,-391,37.4661,17.4313,0.0012123,-0.000455645,0.00041199,0.00130851,-0.000551858,0.229422,0.0011033,0.0185241,1882,1415,37.4661,-17.4312
665,-391,37.4459,16.7167,0.00182829,-0.00116209,0.000836004,0.00204614,-0.00137994,0.254912,0.00199047,0.0152831,1889,1415,37.4459,-16.7167
672,-391,37.4158,15.996,0.00252225,-0.00210139,0.00143121,0.00292941,-0.00250855,0.277166,0.00314274,0.0130952,1896,1415,37.4158,-15.996
679,-391,37.3656,15.2455,0.00328164,-0.00332134,0.00222094,0.00395914,-0.00399885,0.296086,0.00459457,0.0128406,1903,1415,37.3656,-15.2455
686,-391,37.3387,14.5214,0.00413378,-0.00491477,0.00323228,0.00516978,-0.00595077,0.310173,0.00642573,0.0165671,1910,1415,37.3388,-14.5214
693,-391,37.3641,14.1128,0.00503875,-0.00686335,0.00450782,0.00655332,-0.00837791,0.324137,0.00864198,0.0434364,1917,1415,37.3641,-14.1128
700,-391,37.6376,13.5773,0,0,0,0,0,0,0,-1,1924,1415,37.6375,-13.5772
707,-391,12.9524,5.96851,0,0,0,0,0,0,0,-1,1931,1415,12.9524,-5.96849
714,-391,15.6875,7.67896,0,0,0,0,0,0,0,-1,1938,1415,15.6875,-7.67893
721,-391,14.1808,8.08435,0,0,0,0,0,0,0,-1,1945,1415,14.1808,-8.08439
728,-391,13.8102,7.28174,0,0,0,0,0,0,0,-1,1952,1415,13.8102,-7.28174
735,-391,0,0,0,0,0,0,0,0,0,-1,1959,1415,0,0
742,-391,0,0,0,0,0,0,0,0,0,-1,1966,1415,0,0
749,-391,0,0,0,0,0,0,0,0,0,-1,1973,1415,0,0
756,-391,0,0,0,0,0,0,0,0,0,-1,1980,1415,0,0
763,-391,0,0,0,0,0,0,0,0,0,-1,1987,1415,0,0
770,-391,0,0,0,0,0,0,0,0,0,-1,1994,1415,0,0
777,-391,0,0,0,0,0,0,0,0,0,-1,2001,1415,0,0
784,-391,0,0,0,0,0,0,0,0,0,-1,2008,1415,0,0
791,-391,0,0,0,0,0,0,0,0,0,-1,2015,1415,0,0
798,-391,0,0,0,0,0,0,0,0,0,-1,2022,1415,0,0
805,-391,0,0,0,0,0,0,0,0,0,-1,2029,1415,0,0
812,-391,0,0,0,0,0,0,0,0,0,-1,2036,1415,0,0
-700,-398,0,0,0,0,0,0,0,0,0,-1,524,1422,0,0
-693,-398,0,0,0,0,0,0,0,0,0,-1,531,1422,0,0
-686,-398,0,0,0,0,0,0,0,0,0,-1,538,1422,0,0
-679,-398,0,0,0,0,0,0,0,0,0,-1,545,1422,0,0
-672,-398,0,0,0,0,0,0,0,0,0,-1,552,1422,0,0
-665,-398,0,0,0,0,0,0,0,0,0,-1,559,1422,0,0
-658,-398,0,0,0,0,0,0,0,0,0,-1,566,1422,0,0
-651,-398,0,0,0,0,0,0,0,0,0,-1,573,1422,0,0
-644,-398,0,0,0,0,0,0,0,0,0,-1,580,1422,0,0
-637,-398,0,0,0,0,0,0,0,0,0,-1,587,1422,0,0
-630,-398,0,0,0,0,0,0,0,0,0,-1,594,1422,0,0
-623,-398,0,0,0,0,0,0,0,0,0,-1,601,1422,0,0
-616,-398,0,0,0,0,0,0,0,0,0,-1,608,1422,0,0
-609,-398,-7.47125,-4.05322,0,0,0,0,0,0,0,-1,615,1422,-7.47128,4.05317
-602,-398,-4.58868,-2.77026,0,0,0,0,0,0,0,-1,622,1422,-4.58869,2.77023
-595,-398,-12.2224,-1.82007,0,0,0,0,0,0,0,-1,629,1422,-12.2224,1.82006
-588,-398,-10.6939,1.32336,0,0,0,0,0,0,0,-1,636,1422,-10.6939,-1.32337
-581,-398,-10.433,3.1123,0,0,0,0,0,0,0,-1,643,1422,-10.433,-3.11233
-574,-398,-10.4475,5.89807,0,0,0,0,0,0,0,-1,650,1422,-10.4475,-5.89802
-567,-398,-10.4904,6.80115,0,0,0,0,0,0,0,-1,657,1422,-10.4904,-6.80115
-560,-398,-10.5333,7.70435,0,0,0,0,0,0,0,-1,664,1422,-10.5333,-7.70429
-553,-398,-19.7011,13.2622,0,0,0,0,0,0,0,-1,671,1422,-19.7011,-13.2622
-546,-398,-19.6495,14.2208,0.00511551,0.00343471,0.004025,0.00838691,0.000163304,0.682479,0.00553764,0.0358912,678,1422,-19.6495,-14.2208
-539,-398,-19.5594,15.09,0.00399391,0.00252687,0.00300887,0.00635738,0.000163397,0.665837,0.00418485,0.0135881,685,1422,-19.5595,-15.0899
-532,-398,-19.5587,15.9105,0.00316005,0.00174009,0.00218804,0.00475042,0.000149719,0.628517,0.00311824,0.0212711,692,1422,-19.5587,-15.9105
-525,-398,-19.6635,16.6455,0.00263735,0.0012843,0.00166571,0.00375868,0.000162969,0.592501,0.00245327,0.0195856,699,1422,-19.6635,-16.6455
-518,-398,-19.7075,17.3795,0.00232322,0.000998606,0.00133191,0.00314841,0.000173417,0.554672,0.00204359,0.0180916,706,1422,-19.7075,-17.3795
-511,-398,-19.7419,18.1339,0.00217568,0.00088328,0.00115375,0.00285187,0.000207091,0.530121,0.00183611,0.0151968,713,1422,-19.7419,-18.1339
-504,-398,-19.7791,18.9177,0.00221236,0.00094952,0.00115237,0.00289496,0.00026692,0.534771,0.00184744,0.0152569,720,1422,-19.7791,-18.9177
-497,-398,-19.8132,19.6741,0.00241434,0.00120141,0.00133611,0.00327518,0.000340561,0.57235,0.00207925,0.0110118,727,1422,-19.8132,-19.6741
-490,-398,-19.8319,20.4587,0.00287649,0.00166448,0.00173917,0.00411221,0.000428754,0.617753,0.00261032,0.0219429,734,1422,-19.8319,-20.4588
-483,-398,-19.663,21.5242,0,0,0,0,0,0,0,-1,741,1422,-19.663,-21.5241
-476,-398,-8.64392,11.9448,0,0,0,0,0,0,0,-1,748,1422,-8.6439,-11.9448
-469,-398,-8.91699,10.6276,0,0,0,0,0,0,0,-1,755,1422,-8.91697,-10.6275
-462,-398,-9.59753,9.32532,0,0,0,0,0,0,0,-1,762,1422,-9.59753,-9.32531
-455,-398,-8.08331,6.75024,0,0,0,0,0,0,0,-1,769,1422,-8.08333,-6.75022
-448,-398,-7.4505,5.25293,0,0,0,0,0,0,0,-1,776,1422,-7.4505,-5.25291
-441,-398,-7.61639,3.32141,0,0,0,0,0,0,0,-1,783,1422,-7.61637,-3.32145
-434,-398,-10.7618,3.297,0,0,0,0,0,0,0,-1,790,1422,-10.7618,-3.29704
-427,-398,-11.9061,2.24939,0,0,0,0,0,0,0,-1,797,1422,-11.9061,-2.24941
-420,-398,-13.467,2.32788,0,0,0,0,0,0,0,-1,804,1422,-13.467,-2.32787
-413,-398,-14.7983,2.15515,0,0,0,0,0,0,0,-1,811,1422,-14.7983,-2.15516
-406,-398,0,0,0,0,0,0,0,0,0,-1,818,1422,0,0
-399,-398,0,0,0,0,0,0,0,0,0,-1,825,1422,0,0
-392,-398,0,0,0,0,0,0,0,0,0,-1,832,1422,0,0
-385,-398,0,0,0,0,0,0,0,0,0,-1,839,1422,0,0
-378,-398,0,0,0,0,0,0,0,0,0,-1,846,1422,0,0
-371,-398,0,0,0,0,0,0,0,0,0,-1,853,1422,0,0
-364,-398,0,0,0,0,0,0,0,0,0,-1,860,1422,0,0
-357,-398,0,0,0,0,0,0,0,0,0,-1,867,1422,0,0
-350,-398,0,0,0,0,0,0,0,0,0,-1,874,1422,0,0
-343,-398,0,0,0,0,0,0,0,0,0,-1,881,1422,0,0
-336,-398,0,0,0,0,0,0,0,0,0,-1,888,1422,0,0
-329,-398,0,0,0,0,0,0,0,0,0,-1,895,1422,0,0
-322,-398,0,0,0,0,0,0,0,0,0,-1,902,1422,0,0
-315,-398,0,0,0,0,0,0,0,0,0,-1,909,1422,0,0
-308,-398,0,0,0,0,0,0,0,0,0,-1,916,1422,0,0
-301,-398,0,0,0,0,0,0,0,0,0,-1,923,1422,0,0
-294,-398,0,0,0,0,0,0,0,0,0,-1,930,1422,0,0
-287,-398,0,0,0,0,0,0,0,0,0,-1,937,1422,0,0
-280,-398,0,0,0,0,0,0,0,0,0,-1,944,1422,0,0
-273,-398,0,0,0,0,0,0,0,0,0,-1,951,1422,0,0
-266,-398,0,0,0,0,0,0,0,0,0,-1,958,1422,0,0
-259,-398,0,0,0,0,0,0,0,0,0,-1,965,1422,0,0
-252,-398,0,0,0,0,0,0,0,0,0,-1,972,1422,0,0
-245,-398,0,0,0,0,0,0,0,0,0,-1,979,1422,0,0
-238,-398,0,0,0,0,0,0,0,0,0,-1,986,1422,0,0
-231,-398,0,0,0,0,0,0,0,0,0,-1,993,1422,0,0
-224,-398,0,0,0,0,0,0,0,0,0,-1,1000,1422,0,0
-217,-398,0,0,0,0,0,0,0,0,0,-1,1007,1422,0,0
-210,-398,0,0,0,0,0,0,0,0,0,-1,1014,1422,0,0
-203,-398,0,0,0,0,0,0,0,0,0,-1,1021,1422,0,0
-196,-398,0,0,0,0,0,0,0,0,0,-1,1028,1422,0,0
-189,-398,0,0,0,0,0,0,0,0,0,-1,1035,1422,0,0
-182,-398,0,0,0,0,0,0,0,0,0,-1,1042,1422,0,0
-175,-398,0,0,0,0,0,0,0,0,0,-1,1049,1422,0,0
-168,-398,0,0,0,0,0,0,0,0,0,-1,1056,1422,0,0
-161,-398,0,0,0,0,0,0,0,0,0,-1,1063,1422,0,0
-154,-398,0,0,0,0,0,0,0,0,0,-1,1070,1422,0,0
-147,-398,0,0,0,0,0,0,0,0,0,-1,1077,1422,0,0
-140,-398,0,0,0,0,0,0,0,0,0,-1,1084,1422,0,0
-133,-398,0,0,0,0,0,0,0,0,0,-1,1091,1422,0,0
-126,-398,0,0,0,0,0,0,0,0,0,-1,1098,1422,0,0
-119,-398,0,0,0,0,0,0,0,0,0,-1,1105,1422,0,0
-112,-398,0,0,0,0,0,0,0,0,0,-1,1112,1422,0,0
-105,-398,0,0,0,0,0,0,0,0,0,-1,1119,1422,0,0
-98,-398,0,0,0,0,0,0,0,0,0,-1,1126,1422,0,0
-91,-398,0,0,0,0,0,0,0,0,0,-1,1133,1422,0,0
-84,-398,0,0,0,0,0,0,0,0,0,-1,1140,1422,0,0
-77,-398,0,0,0,0,0,0,0,0,0,-1,1147,1422,0,0
-70,-398,0,0,0,0,0,0,0,0,0,-1,1154,1422,0,0
-63,-398,0,0,0,0,0,0,0,0,0,-1,1161,1422,0,0
-56,-398,0,0,0,0,0,0,0,0,0,-1,1168,1422,0,0
-49,-398,0,0,0,0,0,0,0,0,0,-1,1175,1422,0,0
-42,-398,0,0,0,0,0,0,0,0,0,-1,1182,1422,0,0
-35,-398,0,0,0,0,0,0,0,0,0,-1,1189,1422,0,0
-28,-398,0,0,0,0,0,0,0,0,0,-1,1196,1422,0,0
-21,-398,0,0,0,0,0,0,0,0,0,-1,1203,1422,0,0
-14,-398,0,0,0,0,0,0,0,0,0,-1,1210,1422,0,0
-7,-398,0,0,0,0,0,0,0,0,0,-1,1217,1422,0,0
0,-398,0,0,0,0,0,0,0,0,0,-1,1224,1422,0,0
7,-398,0,0,0,0,0,0,0,0,0,-1,1231,1422,0,0
14,-398,0,0,0,0,0,0,0,0,0,-1,1238,1422,0,0
21,-398,0,0,0,0,0,0,0,0,0,-1,1245,1422,0,0
28,-398,0,0,0,0,0,0,0,0,0,-1,1252,1422,0,0
35,-398,0,0,0,0,0,0,0,0,0,-1,1259,1422,0,0
42,-398,0,0,0,0,0,0,0,0,0,-1,1266,1422,0,0
49,-398,0,0,0,0,0,0,0,0,0,-1,1273,1422,0,0
56,-398,0,0,0,0,0,0,0,0,0,-1,1280,1422,0,0
63,-398,0,0,0,0,0,0,0,0,0,-1,1287,1422,0,0
70,-398,0,0,0,0,0,0,0,0,0,-1,1294,1422,0,0
77,-398,0,0,0,0,0,0,0,0,0,-1,1301,1422,0,0
84,-398,0,0,0,0,0,0,0,0,0,-1,1308,1422,0,0
91,-398,0,0,0,0,0,0,0,0,0,-1,1315,1422,0,0
98,-398,0,0,0,0,0,0,0,0,0,-1,1322,1422,0,0
105,-398,0,0,0,0,0,0,0,0,0,-1,1329,1422,0,0
112,-398,0,0,0,0,0,0,0,0,0,-1,1336,1422,0,0
119,-398,0,0,0,0,0,0,0,0,0,-1,1343,1422,0,0
126,-398,0,0,0,0,0,0,0,0,0,-1,1350,1422,0,0
133,-398,0,0,0,0,0,0,0,0,0,-1,1357,1422,0,0
140,-398,0,0,0,0,0,0,0,0,0,-1,1364,1422,0,0
147,-398,0,0,0,0,0,0,0,0,0,-1,1371,1422,0,0
154,-398,0,0,0,0,0,0,0,0,0,-1,1378,1422,0,0
161,-398,0,0,0,0,0,0,0,0,0,-1,1385,1422,0,0
168,-398,0,0,0,0,0,0,0,0,0,-1,1392,1422,0,0
175,-398,0,0,0,0,0,0,0,0,0,-1,1399,1422,0,0
182,-398,0,0,0,0,0,0,0,0,0,-1,1406,1422,0,0
189,-398,0,0,0,0,0,0,0,0,0,-1,1413,1422,0,0
196,-398,0,0,0,0,0,0,0,0,0,-1,1420,1422,0,0
203,-398,0,0,0,0,0,0,0,0,0,-1,1427,1422,0,0
210,-398,0,0,0,0,0,0,0,0,0,-1,1434,1422,0,0
217,-398,0,0,0,0,0,0,0,0,0,-1,1441,1422,0,0
224,-398,0,0,0,0,0,0,0,0,0,-1,1448,1422,0,0
231,-398,0,0,0,0,0,0,0,0,0,-1,1455,1422,0,0
238,-398,0,0,0,0,0,0,0,0,0,-1,1462,1422,0,0
245,-398,0,0,0,0,0,0,0,0,0,-1,1469,1422,0,0
252,-398,0,0,0,0,0,0,0,0,0,-1,1476,1422,0,0
259,-398,0,0,0,0,0,0,0,0,0,-1,1483,1422,0,0
266,-398,0,0,0,0,0,0,0,0,0,-1,1490,1422,0,0
273,-398,0,0,0,0,0,0,0,0,0,-1,1497,1422,0,0
280,-398,0,0,0,0,0,0,0,0,0,-1,1504,1422,0,0
287,-398,0,0,0,0,0,0,0,0,0,-1,1511,1422,0,0
294,-398,0,0,0,0,0,0,0,0,0,-1,1518,1422,0,0
301,-398,0,0,0,0,0,0,0,0,0,-1,1525,1422,0,0
308,-398,0,0,0,0,0,0,0,0,0,-1,1532,1422,0,0
315,-398,0,0,0,0,0,0,0,0,0,-1,1539,1422,0,0
322,-398,0,0,0,0,0,0,0,0,0,-1,1546,1422,0,0
329,-398,0,0,0,0,0,0,0,0,0,-1,1553,1422,0,0
336,-398,0,0,0,0,0,0,0,0,0,-1,1560,1422,0,0
343,-398,0,0,0,0,0,0,0,0,0,-1,1567,1422,0,0
350,-398,0,0,0,0,0,0,0,0,0,-1,1574,1422,0,0
357,-398,0,0,0,0,0,0,0,0,0,-1,1581,1422,0,0
364,-398,0,0,0,0,0,0,0,0,0,-1,1588,1422,0,0
371,-398,0,0,0,0,0,0,0,0,0,-1,1595,1422,0,0
378,-398,0,0,0,0,0,0,0,0,0,-1,1602,1422,0,0
385,-398,0,0,0,0,0,0,0,0,0,-1,1609,1422,0,0
392,-398,0,0,0,0,0,0,0,0,0,-1,1616,1422,0,0
399,-398,0,0,0,0,0,0,0,0,0,-1,1623,1422,0,0
406,-398,0,0,0,0,0,0,0,0,0,-1,1630,1422,0,0
413,-398,0,0,0,0,0,0,0,0,0,-1,1637,1422,0,0
420,-398,0,0,0,0,0,0,0,0,0,-1,1644,1422,0,0
427,-398,0,0,0,0,0,0,0,0,0,-1,1651,1422,0,0
434,-398,0,0,0,0,0,0,0,0,0,-1,1658,1422,0,0
441,-398,0,0,0,0,0,0,0,0,0,-1,1665,1422,0,0
448,-398,0,0,0,0,0,0,0,0,0,-1,1672,1422,0,0
455,-398,0,0,0,0,0,0,0,0,0,-1,1679,1422,0,0
462,-398,0,0,0,0,0,0,0,0,0,-1,1686,1422,0,0
469,-398,0,0,0,0,0,0,0,0,0,-1,1693,1422,0,0
476,-398,0,0,0,0,0,0,0,0,0,-1,1700,1422,0,0
483,-398,0,0,0,0,0,0,0,0,0,-1,1707,1422,0,0
490,-398,0,0,0,0,0,0,0,0,0,-1,1714,1422,0,0
497,-398,0,0,0,0,0,0,0,0,0,-1,1721,1422,0,0
504,-398,0,0,0,0,0,0,0,0,0,-1,1728,1422,0,0
511,-398,0,0,0,0,0,0,0,0,0,-1,1735,1422,0,0
518,-398,0,0,0,0,0,0,0,0,0,-1,1742,1422,0,0
525,-398,0,0,0,0,0,0,0,0,0,-1,1749,1422,0,0
532,-398,28.4558,3.84094,0,0,0,0,0,0,0,-1,1756,1422,28.4558,-3.8409
539,-398,27.0594,3.33887,0,0,0,0,0,0,0,-1,1763,1422,27.0595,-3.3389
546,-398,31.6873,5.58582,0,0,0,0,0,0,0,-1,1770,1422,31.6872,-5.58585
553,-398,30.4392,5.92383,0,0,0,0,0,0,0,-1,1777,1422,30.4392,-5.92386
560,-398,29.1621,6.30469,0,0,0,0,0,0,0,-1,1784,1422,29.1621,-6.30469
567,-398,27.8411,6.55029,0,0,0,0,0,0,0,-1,1791,1422,27.8411,-6.55033
574,-398,26.411,6.8916,0,0,0,0,0,0,0,-1,1798,1422,26.411,-6.8916
581,-398,24.75,7.11145,0,0,0,0,0,0,0,-1,1805,1422,24.7499,-7.11142
588,-398,23.1649,7.67969,0,0,0,0,0,0,0,-1,1812,1422,23.1649,-7.67975
595,-398,21.4253,7.86023,0,0,0,0,0,0,0,-1,1819,1422,21.4253,-7.86029
602,-398,19.6857,8.04077,0,0,0,0,0,0,0,-1,1826,1422,19.6856,-8.04083
609,-398,21.1835,13.2628,0,0,0,0,0,0,0,-1,1833,1422,21.1835,-13.2628
616,-398,35.7712,21.4,0,0,0,0,0,0,0,-1,1840,1422,35.7713,-21.4
623,-398,36.9697,21.135,0,0,0,0,0,0,0,-1,1847,1422,36.9697,-21.135
630,-398,36.9167,20.3794,0.000351164,0.000516518,-3.09567e-05,0.000522123,0.000345559,-1.39166,0.000306666,0.0145933,1854,1422,36.9168,-20.3794
637,-398,36.8593,19.6306,0.000524275,0.000473052,-0.000130541,0.000631693,0.000365634,-0.688532,0.000366216,0.0148432,1861,1422,36.8592,-19.6306
644,-398,36.7744,18.9327,0.000735994,0.000238229,-6.65538e-05,0.000744739,0.000229484,-0.130648,0.0004404,0.0224764,1868,1422,36.7744,-18.9328
651,-398,36.828,18.2581,0.00111735,-0.00013479,0.000142315,0.00113332,-0.000150761,0.111758,0.00081049,0.0302683,1875,1422,36.828,-18.258
658,-398,36.8085,17.5546,0.00162204,-0.000647895,0.000441818,0.00170501,-0.000730858,0.185615,0.00144335,0.0248207,1882,1422,36.8085,-17.5546
665,-398,36.7222,16.7749,0.00220766,-0.00134829,0.000912038,0.00242794,-0.00156857,0.236982,0.0023251,0.016491,1889,1422,36.7222,-16.775
672,-398,36.688,16.0493,0.00284714,-0.00234527,0.00162464,0.00331357,-0.0028117,0.279578,0.00354038,0.0138389,1896,1422,36.6879,-16.0493
679,-398,36.6566,15.3149,0.00352932,-0.00370569,0.00262051,0.00437874,-0.00455511,0.313456,0.0051583,0.0145256,1903,1422,36.6566,-15.3149
686,-398,36.6184,14.6141,0.00426088,-0.00559725,0.00397628,0.00566479,-0.00700115,0.339407,0.00732624,0.0243834,1910,1422,36.6184,-14.6142
693,-398,36.593,14.2623,0.00494573,-0.00803129,0.00580195,0.00716144,-0.010247,0.364798,0.0101033,0.0450355,1917,1422,36.593,-14.2624
700,-398,36.8304,13.9191,0,0,0,0,0,0,0,-1,1924,1422,36.8305,-13.919
707,-398,10.9731,5.479,0,0,0,0,0,0,0,-1,1931,1422,10.9732,-5.47896
714,-398,11.7313,6.17346,0,0,0,0,0,0,0,-1,1938,1422,11.7313,-6.17348
721,-398,13.9371,8.05103,0,0,0,0,0,0,0,-1,1945,1422,13.9372,-8.05102
728,-398,14.786,7.0282,0,0,0,0,0,0,0,-1,1952,1422,14.786,-7.0282
735,-398,0,0,0,0,0,0,0,0,0,-1,1959,1422,0,0
742,-398,0,0,0,0,0,0,0,0,0,-1,1966,1422,0,0
749,-398,0,0,0,0,0,0,0,0,0,-1,1973,1422,0,0
756,-398,0,0,0,0,0,0,0,0,0,-1,1980,1422,0,0
763,-398,0,0,0,0,0,0,0,0,0,-1,1987,1422,0,0
770,-398,0,0,0,0,0,0,0,0,0,-1,1994,1422,0,0
777,-398,0,0,0,0,0,0,0,0,0,-1,2001,1422,0,0
784,-398,0,0,0,0,0,0,0,0,0,-1,2008,1422,0,0
791,-398,0,0,0,0,0,0,0,0,0,-1,2015,1422,0,0
798,-398,0,0,0,0,0,0,0,0,0,-1,2022,1422,0,0
805,-398,0,0,0,0,0,0,0,0,0,-1,2029,1422,0,0
812,-398,0,0,0,0,0,0,0,0,0,-1,2036,1422,0,0
-700,-405,0,0,0,0,0,0,0,0,0,-1,524,1429,0,0
-693,-405,0,0,0,0,0,0,0,0,0,-1,531,1429,0,0
-686,-405,0,0,0,0,0,0,0,0,0,-1,538,1429,0,0
-679,-405,0,0,0,0,0,0,0,0,0,-1,545,1429,0,0
-672,-405,0,0,0,0,0,0,0,0,0,-1,552,1429,0,0
-665,-405,0,0,0,0,0,0,0,0,0,-1,559,1429,0,0
-658,-405,0,0,0,0,0,0,0,0,0,-1,566,1429,0,0
-651,-405,0,0,0,0,0,0,0,0,0,-1,573,1429,0,0
-644,-405,0,0,0,0,0,0,0,0,0,-1,580,1429,0,0
-637,-405,0,0,0,0,0,0,0,0,0,-1,587,1429,0,0
-630,-405,0,0,0,0,0,0,0,0,0,-1,594,1429,0,0
-623,-405,0,0,0,0,0,0,0,0,0,-1,601,1429,0,0
-616,-405,0,0,0,0,0,0,0,0,0,-1,608,1429,0,0
-609,-405,0,0,0,0,0,0,0,0,0,-1,615,1429,0,0
-602,-405,-5.80988,-3.46594,0,0,0,0,0,0,0,-1,622,1429,-5.80987,3.46592
-595,-405,-9.35413,2.01477,0,0,0,0,0,0,0,-1,629,1429,-9.35411,-2.01476
-588,-405,-7.35693,0.507202,0,0,0,0,0,0,0,-1,636,1429,-7.35696,-0.507187
-581,-405,-10.1284,1.62927,0,0,0,0,0,0,0,-1,643,1429,-10.1284,-1.62922
-574,-405,-9.32074,3.05896,0,0,0,0,0,0,0,-1,650,1429,-9.32077,-3.0589
-567,-405,-9.68781,6.92163,0,0,0,0,0,0,0,-1,657,1429,-9.68782,-6.92166
-560,-405,-9.28674,7.20886,0,0,0,0,0,0,0,-1,664,1429,-9.28675,-7.20885
-553,-405,-17.8088,12.9275,0,0,0,0,0,0,0,-1,671,1429,-17.8088,-12.9275
-546,-405,-18.9223,14.0907,0,0,0,0,0,0,0,-1,678,1429,-18.9223,-14.0907
-539,-405,-18.8528,15.0552,0.00448936,0.00324979,0.00367896,0.00760037,0.000138778,0.701947,0.0050213,0.0146975,685,1429,-18.8529,-15.0551
-532,-405,-18.8798,15.8441,0.00345002,0.002285,0.00264205,0.00557302,0.000162008,0.676896,0.00366254,0.0165849,692,1429,-18.8798,-15.8441
-525,-405,-18.9034,16.6482,0.00279193,0.00171288,0.00197483,0.00429961,0.000205196,0.652052,0.00280052,0.0141747,699,1429,-18.9034,-16.6482
-518,-405,-18.9211,17.4281,0.00236111,0.00134251,0.00152075,0.00345558,0.00024805,0.623818,0.00222565,0.0155912,706,1429,-18.9212,-17.4281
-511,-405,-18.9684,18.1794,0.00209495,0.0011247,0.0012272,0.00292943,0.000290214,0.59717,0.00186376,0.0165328,713,1429,-18.9684,-18.1794
-504,-405,-19.0027,18.9484,0.00199885,0.00107684,0.00109275,0.00272386,0.000351836,0.585785,0.00171073,0.0176609,720,1429,-19.0027,-18.9484
-497,-405,-19.0367,19.7417,0.00206688,0.00121356,0.0011365,0.00285417,0.00042627,0.605831,0.00177781,0.0152005,727,1429,-19.0367,-19.7417
-490,-405,-19.0696,20.5118,0.00231597,0.00153737,0.00136181,0.00334303,0.000510305,0.646176,0.00207956,0.0142921,734,1429,-19.0696,-20.5118
-483,-405,-19.0068,21.4071,0.00267363,0.00216484,0.00174427,0.00418196,0.000656513,0.712986,0.00259694,0.0374762,741,1429,-19.0068,-21.4071
-476,-405,-18.792,22.5431,0,0,0,0,0,0,0,-1,748,1429,-18.792,-22.5431
-469,-405,-9.65692,12.8171,0,0,0,0,0,0,0,-1,755,1429,-9.65691,-12.8172
-462,-405,-9.14862,11.3597,0,0,0,0,0,0,0,-1,762,1429,-9.14865,-11.3597
-455,-405,-9.021,9.51111,0,0,0,0,0,0,0,-1,769,1429,-9.021,-9.51109
-448,-405,-8.4649,6.82813,0,0,0,0,0,0,0,-1,776,1429,-8.46492,-6.82817
-441,-405,-6.6712,4.23767,0,0,0,0,0,0,0,-1,783,1429,-6.67121,-4.23764
-434,-405,-9.62549,3.94189,0,0,0,0,0,0,0,-1,790,1429,-9.62546,-3.94191
-427,-405,-10.9764,3.73926,0,0,0,0,0,0,0,-1,797,1429,-10.9764,-3.73923
-420,-405,-12.1187,3.68506,0,0,0,0,0,0,0,-1,804,1429,-12.1187,-3.68512
-413,-405,-13.5353,3.75659,0,0,0,0,0,0,0,-1,811,1429,-13.5353,-3.75655
-406,-405,-14.7374,3.99817,0,0,0,0,0,0,0,-1,818,1429,-14.7374,-3.99814
-399,-405,0,0,0,0,0,0,0,0,0,-1,825,1429,0,0
-392,-405,0,0,0,0,0,0,0,0,0,-1,832,1429,0,0
-385,-405,0,0,0,0,0,0,0,0,0,-1,839,1429,0,0
-378,-405,0,0,0,0,0,0,0,0,0,-1,846,1429,0,0
-371,-405,0,0,0,0,0,0,0,0,0,-1,853,1429,0,0
-364,-405,0,0,0,0,0,0,0,0,0,-1,860,1429,0,0
-357,-405,0,0,0,0,0,0,0,0,0,-1,867,1429,0,0
-350,-405,0,0,0,0,0,0,0,0,0,-1,874,1429,0,0
-343,-405,0,0,0,0,0,0,0,0,0,-1,881,1429,0,0
-336,-405,0,0,0,0,0,0,0,0,0,-1,888,1429,0,0
-329,-405,0,0,0,0,0,0,0,0,0,-1,895,1429,0,0
-322,-405,0,0,0,0,0,0,0,0,0,-1,902,1429,0,0
-315,-405,0,0,0,0,0,0,0,0,0,-1,909,1429,0,0
-308,-405,0,0,0,0,0,0,0,0,0,-1,916,1429,0,0
-301,-405,0,0,0,0,0,0,0,0,0,-1,923,1429,0,0
-294,-405,0,0,0,0,0,0,0,0,0,-1,930,1429,0,0
-287,-405,0,0,0,0,0,0,0,0,0,-1,937,1429,0,0
-280,-405,0,0,0,0,0,0,0,0,0,-1,944,1429,0,0
-273,-405,0,0,0,0,0,0,0,0,0,-1,951,1429,0,0
-266,-405,0,0,0,0,0,0,0,0,0,-1,958,1429,0,0
-259,-405,0,0,0,0,0,0,0,0,0,-1,965,1429,0,0
-252,-405,0,0,0,0,0,0,0,0,0,-1,972,1429,0,0
-245,-405,0,0,0,0,0,0,0,0,0,-1,979,1429,0,0
-238,-405,0,0,0,0,0,0,0,0,0,-1,986,1429,0,0
-231,-405,0,0,0,0,0,0,0,0,0,-1,993,1429,0,0
-224,-405,0,0,0,0,0,0,0,0,0,-1,1000,1429,0,0
-217,-405,0,0,0,0,0,0,0,0,0,-1,1007,1429,0,0
-210,-405,0,0,0,0,0,0,0,0,0,-1,1014,1429,0,0
-203,-405,0,0,0,0,0,0,0,0,0,-1,1021,1429,0,0
-196,-405,0,0,0,0,0,0,0,0,0,-1,1028,1429,0,0
-189,-405,0,0,0,0,0,0,0,0,0,-1,1035,1429,0,0
-182,-405,0,0,0,0,0,0,0,0,0,-1,1042,1429,0,0
-175,-405,0,0,0,0,0,0,0,0,0,-1,1049,1429,0,0
-168,-405,0,0,0,0,0,0,0,0,0,-1,1056,1429,0,0
-161,-405,0,0,0,0,0,0,0,0,0,-1,1063,1429,0,0
-154,-405,0,0,0,0,0,0,0,0,0,-1,1070,1429,0,0
-147,-405,0,0,0,0,0,0,0,0,0,-1,1077,1429,0,0
-140,-405,0,0,0,0,0,0,0,0,0,-1,1084,1429,0,0
-133,-405,0,0,0,0,0,0,0,0,0,-1,1091,1429,0,0
-126,-405,0,0,0,0,0,0,0,0,0,-1,1098,1429,0,0
-119,-405,0,0,0,0,0,0,0,0,0,-1,1105,1429,0,0
-112,-405,0,0,0,0,0,0,0,0,0,-1,1112,1429,0,0
-105,-405,0,0,0,0,0,0,0,0,0,-1,1119,1429,0,0
-98,-405,0,0,0,0,0,0,0,0,0,-1,1126,1429,0,0
-91,-405,0,0,0,0,0,0,0,0,0,-1,1133,1429,0,0
-84,-405,0,0,0,0,0,0,0,0,0,-1,1140,1429,0,0
-77,-405,0,0,0,0,0,0,0,0,0,-1,1147,1429,0,0
-70,-405,0,0,0,0,0,0,0,0,0,-1,1154,1429,0,0
-63,-405,0,0,0,0,0,0,0,0,0,-1,1161,1429,0,0
-56,-405,0,0,0,0,0,0,0,0,0,-1,1168,1429,0,0
-49,-405,0,0,0,0,0,0,0,0,0,-1,1175,1429,0,0
-42,-405,0,0,0,0,0,0,0,0,0,-1,1182,1429,0,0
-35,-405,0,0,0,0,0,0,0,0,0,-1,1189,1429,0,0
-28,-405,0,0,0,0,0,0,0,0,0,-1,1196,1429,0,0
-21,-405,0,0,0,0,0,0,0,0,0,-1,1203,1429,0,0
-14,-405,0,0,0,0,0,0,0,0,0,-1,1210,1429,0,0
-7,-405,0,0,0,0,0,0,0,0,0,-1,1217,1429,0,0
0,-405,0,0,0,0,0,0,0,0,0,-1,1224,1429,0,0
7,-405,0,0,0,0,0,0,0,0,0,-1,1231,1429,0,0
14,-405,0,0,0,0,0,0,0,0,0,-1,1238,1429,0,0
21,-405,0,0,0,0,0,0,0,0,0,-1,1245,1429,0,0
28,-405,0,0,0,0,0,0,0,0,0,-1,1252,1429,0,0
35,-405,0,0,0,0,0,0,0,0,0,-1,1259,1429,0,0
42,-405,0,0,0,0,0,0,0,0,0,-1,1266,1429,0,0
49,-405,0,0,0,0,0,0,0,0,0,-1,1273,1429,0,0
56,-405,0,0,0,0,0,0,0,0,0,-1,1280,1429,0,0
63,-405,0,0,0,0,0,0,0,0,0,-1,1287,1429,0,0
70,-405,0,0,0,0,0,0,0,0,0,-1,1294,1429,0,0
77,-405,0,0,0,0,0,0,0,0,0,-1,1301,1429,0,0
84,-405,0,0,0,0,0,0,0,0,0,-1,1308,1429,0,0
91,-405,0,0,0,0,0,0,0,0,0,-1,1315,1429,0,0
98,-405,0,0,0,0,0,0,0,0,0,-1,1322,1429,0,0
105,-405,0,0,0,0,0,0,0,0,0,-1,1329,1429,0,0
112,-405,0,0,0,0,0,0,0,0,0,-1,1336,1429,0,0
119,-405,0,0,0,0,0,0,0,0,0,-1,1343,1429,0,0
126,-405,0,0,0,0,0,0,0,0,0,-1,1350,1429,0,0
133,-405,0,0,0,0,0,0,0,0,0,-1,1357,1429,0,0
140,-405,0,0,0,0,0,0,0,0,0,-1,1364,1429,0,0
147,-405,0,0,0,0,0,0,0,0,0,-1,1371,1429,0,0
154,-405,0,0,0,0,0,0,0,0,0,-1,1378,1429,0,0
161,-405,0,0,0,0,0,0,0,0,0,-1,1385,1429,0,0
168,-405,0,0,0,0,0,0,0,0,0,-1,1392,1429,0,0
175,-405,0,0,0,0,0,0,0,0,0,-1,1399,1429,0,0
182,-405,0,0,0,0,0,0,0,0,0,-1,1406,1429,0,0
189,-405,0,0,0,0,0,0,0,0,0,-1,1413,1429,0,0
196,-405,0,0,0,0,0,0,0,0,0,-1,1420,1429,0,0
203,-405,0,0,0,0,0,0,0,0,0,-1,1427,1429,0,0
210,-405,0,0,0,0,0,0,0,0,0,-1,1434,1429,0,0
217,-405,0,0,0,0,0,0,0,0,0,-1,1441,1429,0,0
224,-405,0,0,0,0,0,0,0,0,0,-1,1448,1429,0,0
231,-405,0,0,0,0,0,0,0,0,0,-1,1455,1429,0,0
238,-405,0,0,0,0,0,0,0,0,0,-1,1462,1429,0,0
245,-405,0,0,0,0,0,0,0,0,0,-1,1469,1429,0,0
252,-405,0,0,0,0,0,0,0,0,0,-1,1476,1429,0,0
259,-405,0,0,0,0,0,0,0,0,0,-1,1483,1429,0,0
266,-405,0,0,0,0,0,0,0,0,0,-1,1490,1429,0,0
273,-405,0,0,0,0,0,0,0,0,0,-1,1497,1429,0,0
280,-405,0,0,0,0,0,0,0,0,0,-1,1504,1429,0,0
287,-405,0,0,0,0,0,0,0,0,0,-1,1511,1429,0,0
294,-405,0,0,0,0,0,0,0,0,0,-1,1518,1429,0,0
301,-405,0,0,0,0,0,0,0,0,0,-1,1525,1429,0,0
308,-405,0,0,0,0,0,0,0,0,0,-1,1532,1429,0,0
315,-405,0,0,0,0,0,0,0,0,0,-1,1539,1429,0,0
322,-405,0,0,0,0,0,0,0,0,0,-1,1546,1429,0,0
329,-405,0,0,0,0,0,0,0,0,0,-1,1553,1429,0,0
336,-405,0,0,0,0,0,0,0,0,0,-1,1560,1429,0,0
343,-405,0,0,0,0,0,0,0,0,0,-1,1567,1429,0,0
350,-405,0,0,0,0,0,0,0,0,0,-1,1574,1429,0,0
357,-405,0,0,0,0,0,0,0,0,0,-1,1581,1429,0,0
364,-405,0,0,0,0,0,0,0,0,0,-1,1588,1429,0,0
371,-405,0,0,0,0,0,0,0,0,0,-1,1595,1429,0,0
378,-405,0,0,0,0,0,0,0,0,0,-1,1602,1429,0,0
385,-405,0,0,0,0,0,0,0,0,0,-1,1609,1429,0,0
392,-405,0,0,0,0,0,0,0,0,0,-1,1616,1429,0,0
399,-405,0,0,0,0,0,0,0,0,0,-1,1623,1429,0,0
406,-405,0,0,0,0,0,0,0,0,0,-1,1630,1429,0,0
413,-405,0,0,0,0,0,0,0,0,0,-1,1637,1429,0,0
420,-405,0,0,0,0,0,0,0,0,0,-1,1644,1429,0,0
427,-405,0,0,0,0,0,0,0,0,0,-1,1651,1429,0,0
434,-405,0,0,0,0,0,0,0,0,0,-1,1658,1429,0,0
441,-405,0,0,0,0,0,0,0,0,0,-1,1665,1429,0,0
448,-405,0,0,0,0,0,0,0,0,0,-1,1672,1429,0,0
455,-405,0,0,0,0,0,0,0,0,0,-1,1679,1429,0,0
462,-405,0,0,0,0,0,0,0,0,0,-1,1686,1429,0,0
469,-405,0,0,0,0,0,0,0,0,0,-1,1693,1429,0,0
476,-405,0,0,0,0,0,0,0,0,0,-1,1700,1429,0,0
483,-405,0,0,0,0,0,0,0,0,0,-1,1707,1429,0,0
490,-405,0,0,0,0,0,0,0,0,0,-1,1714,1429,0,0
497,-405,0,0,0,0,0,0,0,0,0,-1,1721,1429,0,0
504,-405,0,0,0,0,0,0,0,0,0,-1,1728,1429,0,0
511,-405,0,0,0,0,0,0,0,0,0,-1,1735,1429,0,0
518,-405,0,0,0,0,0,0,0,0,0,-1,1742,1429,0,0
525,-405,31.1563,-1.40942,0,0,0,0,0,0,0,-1,1749,1429,31.1563,1.40937
532,-405,28.156,4.8783,0,0,0,0,0,0,0,-1,1756,1429,28.1561,-4.87833
539,-405,26.5133,3.02454,0,0,0,0,0,0,0,-1,1763,1429,26.5133,-3.0246
546,-405,29.5735,6.53052,0,0,0,0,0,0,0,-1,1770,1429,29.5735,-6.53049
553,-405,28.2911,6.70654,0,0,0,0,0,0,0,-1,1777,1429,28.2912,-6.70656
560,-405,26.9299,7.08472,0,0,0,0,0,0,0,-1,1784,1429,26.9299,-7.08469
567,-405,25.804,7.14661,0,0,0,0,0,0,0,-1,1791,1429,25.8039,-7.14665
574,-405,25.1151,8.07971,0,0,0,0,0,0,0,-1,1798,1429,25.1151,-8.07965
581,-405,23.5055,8.505,0,0,0,0,0,0,0,-1,1805,1429,23.5054,-8.50501
588,-405,21.7491,8.98254,0,0,0,0,0,0,0,-1,1812,1429,21.7491,-8.98254
595,-405,21.6327,10.7795,0,0,0,0,0,0,0,-1,1819,1429,21.6327,-10.7796
602,-405,21.6461,13.9199,0,0,0,0,0,0,0,-1,1826,1429,21.6461,-13.92
609,-405,36.14,22.8491,0,0,0,0,0,0,0,-1,1833,1429,36.14,-22.8491
616,-405,36.166,22.0366,0,0,0,0,0,0,0,-1,1840,1429,36.166,-22.0366
623,-405,36.1456,21.2474,0.00120683,0.000993589,-0.00056873,0.00167885,0.000521571,-0.692738,0.000992176,0.0158469,1847,1429,36.1457,-21.2474
630,-405,36.1346,20.4626,0.00106287,0.000538001,-0.000326224,0.00121912,0.000381754,-0.44667,0.000720055,0.0114194,1854,1429,36.1346,-20.4626
637,-405,36.1075,19.7107,0.00112518,0.000375866,-0.000312027,0.0012381,0.000262949,-0.347221,0.000753209,0.0119301,1861,1429,36.1076,-19.7107
644,-405,36.0179,18.9734,0.00131254,7.72391e-05,-0.000183353,0.00133918,5.0599e-05,-0.144285,0.000876404,0.0320031,1868,1429,36.0179,-18.9733
651,-405,35.9594,18.2726,0.0016385,-0.000257135,1.23804e-05,0.00163858,-0.000257216,0.00653066,0.00118745,0.0367278,1875,1429,35.9593,-18.2726
658,-405,36.007,17.5707,0.00206256,-0.000732366,0.00032487,0.00209983,-0.000769631,0.114207,0.00171499,0.0263675,1882,1429,36.007,-17.5706
665,-405,35.976,16.8068,0.00256546,-0.00141368,0.000842868,0.00273663,-0.00158485,0.200361,0.00252438,0.0198252,1889,1429,35.9759,-16.8067
672,-405,35.9708,16.0844,0.00307854,-0.00244741,0.00167768,0.003548,-0.00291687,0.272849,0.00373842,0.0233591,1896,1429,35.9708,-16.0843
679,-405,36.0549,15.3624,0.00359713,-0.00391788,0.00289212,0.00458128,-0.00490202,0.327993,0.00547623,0.0331108,1903,1429,36.0549,-15.3624
686,-405,35.8514,14.8855,0.00409239,-0.00609853,0.00463655,0.00588615,-0.00789229,0.36914,0.00798304,0.0482923,1910,1429,35.8515,-14.8855
693,-405,35.2521,14.0442,0,0,0,0,0,0,0,-1,1917,1429,35.2521,-14.0442
700,-405,9.1958,4.02026,0,0,0,0,0,0,0,-1,1924,1429,9.19579,-4.02025
707,-405,7.40308,3.83191,0,0,0,0,0,0,0,-1,1931,1429,7.40311,-3.83194
714,-405,7.33252,3.47388,0,0,0,0,0,0,0,-1,1938,1429,7.33255,-3.47383
721,-405,9.23523,0.993896,0,0,0,0,0,0,0,-1,1945,1429,9.23523,-0.993884
728,-405,0,0,0,0,0,0,0,0,0,-1,1952,1429,0,0
735,-405,0,0,0,0,0,0,0,0,0,-1,1959,1429,0,0
742,-405,0,0,0,0,0,0,0,0,0,-1,1966,1429,0,0
749,-405,0,0,0,0,0,0,0,0,0,-1,1973,1429,0,0
756,-405,0,0,0,0,0,0,0,0,0,-1,1980,1429,0,0
763,-405,0,0,0,0,0,0,0,0,0,-1,1987,1429,0,0
770,-405,0,0,0,0,0,0,0,0,0,-1,1994,1429,0,0
777,-405,0,0,0,0,0,0,0,0,0,-1,2001,1429,0,0
784,-405,0,0,0,0,0,0,0,0,0,-1,2008,1429,0,0
791,-405,0,0,0,0,0,0,0,0,0,-1,2015,1429,0,0
798,-405,0,0,0,0,0,0,0,0,0,-1,2022,1429,0,0
805,-405,0,0,0,0,0,0,0,0,0,-1,2029,1429,0,0
812,-405,0,0,0,0,0,0,0,0,0,-1,2036,1429,0,0
-700,-412,0,0,0,0,0,0,0,0,0,-1,524,1436,0,0
-693,-412,0,0,0,0,0,0,0,0,0,-1,531,1436,0,0
-686,-412,0,0,0,0,0,0,0,0,0,-1,538,1436,0,0
-679,-412,0,0,0,0,0,0,0,0,0,-1,545,1436,0,0
-672,-412,0,0,0,0,0,0,0,0,0,-1,552,1436,0,0
-665,-412,0,0,0,0,0,0,0,0,0,-1,559,1436,0,0
-658,-412,0,0,0,0,0,0,0,0,0,-1,566,1436,0,0
-651,-412,0,0,0,0,0,0,0,0,0,-1,573,1436,0,0
-644,-412,0,0,0,0,0,0,0,0,0,-1,580,1436,0,0
-637,-412,0,0,0,0,0,0,0,0,0,-1,587,1436,0,0
-630,-412,0,0,0,0,0,0,0,0,0,-1,594,1436,0,0
-623,-412,0,0,0,0,0,0,0,0,0,-1,601,1436,0,0
-616,-412,0,0,0,0,0,0,0,0,0,-1,608,1436,0,0
-609,-412,0,0,0,0,0,0,0,0,0,-1,615,1436,0,0
-602,-412,-3.72766,-3.50012,0,0,0,0,0,0,0,-1,622,1436,-3.72764,3.50017
-595,-412,-10.3706,0.65564,0,0,0,0,0,0,0,-1,629,1436,-10.3706,-0.655672
-588,-412,-8.17957,1.94934,0,0,0,0,0,0,0,-1,636,1436,-8.17956,-1.94939
-581,-412,-6.60065,-0.0554199,0,0,0,0,0,0,0,-1,643,1436,-6.60063,0.0554733
-574,-412,-8.34131,5.25012,0,0,0,0,0,0,0,-1,650,1436,-8.34129,-5.25012
-567,-412,-7.50354,3.65454,0,0,0,0,0,0,0,-1,657,1436,-7.50356,-3.65452
-560,-412,-8.52448,7.39014,0,0,0,0,0,0,0,-1,664,1436,-8.52447,-7.39019
-553,-412,-7.36761,6.54651,0,0,0,0,0,0,0,-1,671,1436,-7.36763,-6.54654
-546,-412,-18.1226,14.1523,0,0,0,0,0,0,0,-1,678,1436,-18.1226,-14.1523
-539,-412,-18.0376,15.0287,0.00505485,0.00417624,0.0044625,0.00909961,0.000131475,0.736334,0.00602306,0.0303271,685,1436,-18.0376,-15.0286
-532,-412,-18.103,15.9037,0.00388221,0.00297632,0.00325386,0.0067145,0.000144036,0.716242,0.0044291,0.0160741,692,1436,-18.103,-15.9036
-525,-412,-18.1433,16.7034,0.00312094,0.00224822,0.00246939,0.00519222,0.000176933,0.697947,0.00340404,0.0155383,699,1436,-18.1433,-16.7033
-518,-412,-18.1659,17.4596,0.00258636,0.00175835,0.00190741,0.00412418,0.000220535,0.67853,0.00267897,0.0166301,706,1436,-18.1659,-17.4596
-511,-412,-18.2187,18.1814,0.00219704,0.00141616,0.00149541,0.00335214,0.000261058,0.657702,0.00215303,0.0201228,713,1436,-18.2187,-18.1814
-504,-412,-18.2629,18.9895,0.00193875,0.00123216,0.0012132,0.00284904,0.00032186,0.643711,0.00180169,0.0197379,720,1436,-18.2629,-18.9895
-497,-412,-18.292,19.7975,0.00182334,0.00122158,0.0010856,0.00264899,0.000395931,0.650213,0.00164993,0.0157287,727,1436,-18.292,-19.7975
-490,-412,-18.321,20.559,0.0018233,0.00137249,0.00109467,0.00271553,0.000480258,0.683863,0.0016734,0.0139779,734,1436,-18.321,-20.559
-483,-412,-18.3625,21.2893,0.0019082,0.00175879,0.0012266,0.00306236,0.000604625,0.754985,0.00187285,0.012161,741,1436,-18.3626,-21.2893
-476,-412,-18.3762,22.1238,0,0,0,0,0,0,0,-1,748,1436,-18.3761,-22.1237
-469,-412,-12.7646,18.4785,0,0,0,0,0,0,0,-1,755,1436,-12.7647,-18.4785
-462,-412,-8.94659,13.3385,0,0,0,0,0,0,0,-1,762,1436,-8.94657,-13.3385
-455,-412,-8.25006,11.2572,0,0,0,0,0,0,0,-1,769,1436,-8.25007,-11.2572
-448,-412,-7.38086,8.78186,0,0,0,0,0,0,0,-1,776,1436,-7.38088,-8.78183
-441,-412,-8.79523,9.05286,0,0,0,0,0,0,0,-1,783,1436,-8.79521,-9.0529
-434,-412,-10.6305,8.03577,0,0,0,0,0,0,0,-1,790,1436,-10.6305,-8.0358
-427,-412,-10.0004,5.15271,0,0,0,0,0,0,0,-1,797,1436,-10.0004,-5.15266
-420,-412,-10.4468,4.9043,0,0,0,0,0,0,0,-1,804,1436,-10.4468,-4.90429
-413,-412,-11.5704,4.97766,0,0,0,0,0,0,0,-1,811,1436,-11.5704,-4.97771
-406,-412,-13.1968,5.70093,0,0,0,0,0,0,0,-1,818,1436,-13.1968,-5.70096
-399,-412,-10.5506,0.771973,0,0,0,0,0,0,0,-1,825,1436,-10.5506,-0.771954
-392,-412,0,0,0,0,0,0,0,0,0,-1,832,1436,0,0
-385,-412,0,0,0,0,0,0,0,0,0,-1,839,1436,0,0
-378,-412,0,0,0,0,0,0,0,0,0,-1,846,1436,0,0
-371,-412,0,0,0,0,0,0,0,0,0,-1,853,1436,0,0
-364,-412,0,0,0,0,0,0,0,0,0,-1,860,1436,0,0
-357,-412,0,0,0,0,0,0,0,0,0,-1,867,1436,0,0
-350,-412,0,0,0,0,0,0,0,0,0,-1,874,1436,0,0
-343,-412,0,0,0,0,0,0,0,0,0,-1,881,1436,0,0
-336,-412,0,0,0,0,0,0,0,0,0,-1,888,1436,0,0
-329,-412,0,0,0,0,0,0,0,0,0,-1,895,1436,0,0
-322,-412,0,0,0,0,0,0,0,0,0,-1,902,1436,0,0
-315,-412,0,0,0,0,0,0,0,0,0,-1,909,1436,0,0
-308,-412,0,0,0,0,0,0,0,0,0,-1,916,1436,0,0
-301,-412,0,0,0,0,0,0,0,0,0,-1,923,1436,0,0
-294,-412,0,0,0,0,0,0,0,0,0,-1,930,1436,0,0
-287,-412,0,0,0,0,0,0,0,0,0,-1,937,1436,0,0
-280,-412,0,0,0,0,0,0,0,0,0,-1,944,1436,0,0
-273,-412,0,0,0,0,0,0,0,0,0,-1,951,1436,0,0
-266,-412,0,0,0,0,0,0,0,0,0,-1,958,1436,0,0
-259,-412,0,0,0,0,0,0,0,0,0,-1,965,1436,0,0
-252,-412,0,0,0,0,0,0,0,0,0,-1,972,1436,0,0
-245,-412,0,0,0,0,0,0,0,0,0,-1,979,1436,0,0
-238,-412,0,0,0,0,0,0,0,0,0,-1,986,1436,0,0
-231,-412,0,0,0,0,0,0,0,0,0,-1,993,1436,0,0
-224,-412,0,0,0,0,0,0,0,0,0,-1,1000,1436,0,0
-217,-412,0,0,0,0,0,0,0,0,0,-1,1007,1436,0,0
-210,-412,0,0,0,0,0,0,0,0,0,-1,1014,1436,0,0
-203,-412,0,0,0,0,0,0,0,0,0,-1,1021,1436,0,0
-196,-412,0,0,0,0,0,0,0,0,0,-1,1028,1436,0,0
-189,-412,0,0,0,0,0,0,0,0,0,-1,1035,1436,0,0
-182,-412,0,0,0,0,0,0,0,0,0,-1,1042,1436,0,0
-175,-412,0,0,0,0,0,0,0,0,0,-1,1049,1436,0,0
-168,-412,0,0,0,0,0,0,0,0,0,-1,1056,1436,0,0
-161,-412,0,0,0,0,0,0,0,0,0,-1,1063,1436,0,0
-154,-412,0,0,0,0,0,0,0,0,0,-1,1070,1436,0,0
-147,-412,0,0,0,0,0,0,0,0,0,-1,1077,1436,0,0
-140,-412,0,0,0,0,0,0,0,0,0,-1,1084,1436,0,0
-133,-412,0,0,0,0,0,0,0,0,0,-1,1091,1436,0,0
-126,-412,0,0,0,0,0,0,0,0,0,-1,1098,1436,0,0
-119,-412,0,0,0,0,0,0,0,0,0,-1,1105,1436,0,0
-112,-412,0,0,0,0,0,0,0,0,0,-1,1112,1436,0,0
-105,-412,0,0,0,0,0,0,0,0,0,-1,1119,1436,0,0
-98,-412,0,0,0,0,0,0,0,0,0,-1,1126,1436,0,0
-91,-412,0,0,0,0,0,0,0,0,0,-1,1133,1436,0,0
-84,-412,0,0,0,0,0,0,0,0,0,-1,1140,1436,0,0
-77,-412,0,0,0,0,0,0,0,0,0,-1,1147,1436,0,0
-70,-412,0,0,0,0,0,0,0,0,0,-1,1154,1436,0,0
-63,-412,0,0,0,0,0,0,0,0,0,-1,1161,1436,0,0
-56,-412,0,0,0,0,0,0,0,0,0,-1,1168,1436,0,0
-49,-412,0,0,0,0,0,0,0,0,0,-1,1175,1436,0,0
-42,-412,0,0,0,0,0,0,0,0,0,-1,1182,1436,0,0
-35,-412,0,0,0,0,0,0,0,0,0,-1,1189,1436,0,0
-28,-412,0,0,0,0,0,0,0,0,0,-1,1196,1436,0,0
-21,-412,0,0,0,0,0,0,0,0,0,-1,1203,1436,0,0
-14,-412,0,0,0,0,0,0,0,0,0,-1,1210,1436,0,0
-7,-412,0,0,0,0,0,0,0,0,0,-1,1217,1436,0,0
0,-412,0,0,0,0,0,0,0,0,0,-1,1224,1436,0,0
7,-412,0,0,0,0,0,0,0,0,0,-1,1231,1436,0,0
14,-412,0,0,0,0,0,0,0,0,0,-1,1238,1436,0,0
21,-412,0,0,0,0,0,0,0,0,0,-1,1245,1436,0,0
28,-412,0,0,0,0,0,0,0,0,0,-1,1252,1436,0,0
35,-412,0,0,0,0,0,0,0,0,0,-1,1259,1436,0,0
42,-412,0,0,0,0,0,0,0,0,0,-1,1266,1436,0,0
49,-412,0,0,0,0,0,0,0,0,0,-1,1273,1436,0,0
56,-412,0,0,0,0,0,0,0,0,0,-1,1280,1436,0,0
63,-412,0,0,0,0,0,0,0,0,0,-1,1287,1436,0,0
70,-412,0,0,0,0,0,0,0,0,0,-1,1294,1436,0,0
77,-412,0,0,0,0,0,0,0,0,0,-1,1301,1436,0,0
84,-412,0,0,0,0,0,0,0,0,0,-1,1308,1436,0,0
91,-412,0,0,0,0,0,0,0,0,0,-1,1315,1436,0,0
98,-412,0,0,0,0,0,0,0,0,0,-1,1322,1436,0,0
105,-412,0,0,0,0,0,0,0,0,0,-1,1329,1436,0,0
112,-412,0,0,0,0,0,0,0,0,0,-1,1336,1436,0,0
119,-412,0,0,0,0,0,0,0,0,0,-1,1343,1436,0,0
126,-412,0,0,0,0,0,0,0,0,0,-1,1350,1436,0,0
133,-412,0,0,0,0,0,0,0,0,0,-1,1357,1436,0,0
140,-412,0,0,0,0,0,0,0,0,0,-1,1364,1436,0,0
147,-412,0,0,0,0,0,0,0,0,0,-1,1371,1436,0,0
154,-412,0,0,0,0,0,0,0,0,0,-1,1378,1436,0,0
161,-412,0,0,0,0,0,0,0,0,0,-1,1385,1436,0,0
168,-412,0,0,0,0,0,0,0,0,0,-1,1392,1436,0,0
175,-412,0,0,0,0,0,0,0,0,0,-1,1399,1436,0,0
182,-412,0,0,0,0,0,0,0,0,0,-1,1406,1436,0,0
189,-412,0,0,0,0,0,0,0,0,0,-1,1413,1436,0,0
196,-412,0,0,0,0,0,0,0,0,0,-1,1420,1436,0,0
203,-412,0,0,0,0,0,0,0,0,0,-1,1427,1436,0,0
210,-412,0,0,0,0,0,0,0,0,0,-1,1434,1436,0,0
217,-412,0,0,0,0,0,0,0,0,0,-1,1441,1436,0,0
224,-412,0,0,0,0,0,0,0,0,0,-1,1448,1436,0,0
231,-412,0,0,0,0,0,0,0,0,0,-1,1455,1436,0,0
238,-412,0,0,0,0,0,0,0,0,0,-1,1462,1436,0,0
245,-412,0,0,0,0,0,0,0,0,0,-1,1469,1436,0,0
252,-412,0,0,0,0,0,0,0,0,0,-1,1476,1436,0,0
259,-412,0,0,0,0,0,0,0,0,0,-1,1483,1436,0,0
266,-412,0,0,0,0,0,0,0,0,0,-1,1490,1436,0,0
273,-412,0,0,0,0,0,0,0,0,0,-1,1497,1436,0,0
280,-412,0,0,0,0,0,0,0,0,0,-1,1504,1436,0,0
287,-412,0,0,0,0,0,0,0,0,0,-1,1511,1436,0,0
294,-412,0,0,0,0,0,0,0,0,0,-1,1518,1436,0,0
301,-412,0,0,0,0,0,0,0,0,0,-1,1525,1436,0,0
308,-412,0,0,0,0,0,0,0,0,0,-1,1532,1436,0,0
315,-412,0,0,0,0,0,0,0,0,0,-1,1539,1436,0,0
322,-412,0,0,0,0,0,0,0,0,0,-1,1546,1436,0,0
329,-412,0,0,0,0,0,0,0,0,0,-1,1553,1436,0,0
336,-412,0,0,0,0,0,0,0,0,0,-1,1560,1436,0,0
343,-412,0,0,0,0,0,0,0,0,0,-1,1567,1436,0,0
350,-412,0,0,0,0,0,0,0,0,0,-1,1574,1436,0,0
357,-412,0,0,0,0,0,0,0,0,0,-1,1581,1436,0,0
364,-412,0,0,0,0,0,0,0,0,0,-1,1588,1436,0,0
371,-412,0,0,0,0,0,0,0,0,0,-1,1595,1436,0,0
378,-412,0,0,0,0,0,0,0,0,0,-1,1602,1436,0,0
385,-412,0,0,0,0,0,0,0,0,0,-1,1609,1436,0,0
392,-412,0,0,0,0,0,0,0,0,0,-1,1616,1436,0,0
399,-412,0,0,0,0,0,0,0,0,0,-1,1623,1436,0,0
406,-412,0,0,0,0,0,0,0,0,0,-1,1630,1436,0,0
413,-412,0,0,0,0,0,0,0,0,0,-1,1637,1436,0,0
420,-412,0,0,0,0,0,0,0,0,0,-1,1644,1436,0,0
427,-412,0,0,0,0,0,0,0,0,0,-1,1651,1436,0,0
434,-412,0,0,0,0,0,0,0,0,0,-1,1658,1436,0,0
441,-412,0,0,0,0,0,0,0,0,0,-1,1665,1436,0,0
448,-412,0,0,0,0,0,0,0,0,0,-1,1672,1436,0,0
455,-412,0,0,0,0,0,0,0,0,0,-1,1679,1436,0,0
462,-412,0,0,0,0,0,0,0,0,0,-1,1686,1436,0,0
469,-412,0,0,0,0,0,0,0,0,0,-1,1693,1436,0,0
476,-412,0,0,0,0,0,0,0,0,0,-1,1700,1436,0,0
483,-412,0,0,0,0,0,0,0,0,0,-1,1707,1436,0,0
490,-412,0,0,0,0,0,0,0,0,0,-1,1714,1436,0,0
497,-412,0,0,0,0,0,0,0,0,0,-1,1721,1436,0,0
504,-412,0,0,0,0,0,0,0,0,0,-1,1728,1436,0,0
511,-412,0,0,0,0,0,0,0,0,0,-1,1735,1436,0,0
518,-412,30.1038,-2.43384,0,0,0,0,0,0,0,-1,1742,1436,30.1038,2.43383
525,-412,29.5283,-1.42493,0,0,0,0,0,0,0,-1,1749,1436,29.5283,1.42495
532,-412,28.8533,-0.386597,0,0,0,0,0,0,0,-1,1756,1436,28.8533,0.386632
539,-412,25.8654,2.74683,0,0,0,0,0,0,0,-1,1763,1436,25.8654,-2.74685
546,-412,25.4265,2.4342,0,0,0,0,0,0,0,-1,1770,1436,25.4265,-2.4342
553,-412,26.3595,7.49255,0,0,0,0,0,0,0,-1,1777,1436,26.3595,-7.4925
560,-412,24.9116,7.94324,0,0,0,0,0,0,0,-1,1784,1436,24.9116,-7.94327
567,-412,23.668,7.94531,0,0,0,0,0,0,0,-1,1791,1436,23.6679,-7.94534
574,-412,23.0142,9.17236,0,0,0,0,0,0,0,-1,1798,1436,23.0141,-9.17235
581,-412,22.2615,10.0349,0,0,0,0,0,0,0,-1,1805,1436,22.2615,-10.0349
588,-412,21.6893,10.8069,0,0,0,0,0,0,0,-1,1812,1436,21.6893,-10.8069
595,-412,21.5137,14.3157,0,0,0,0,0,0,0,-1,1819,1436,21.5137,-14.3157
602,-412,35.4309,23.6011,0,0,0,0,0,0,0,-1,1826,1436,35.4309,-23.6011
609,-412,35.4778,22.731,0.00308683,0.00307016,-0.00209414,0.00517266,0.000984334,-0.783409,0.00317166,0.0471252,1833,1436,35.4778,-22.731
616,-412,35.4777,21.9752,0.00210891,0.00173327,-0.00124425,0.00317944,0.000662738,-0.710488,0.00193688,0.0144334,1840,1436,35.4777,-21.9752
623,-412,35.4142,21.2539,0.00156235,0.00101552,-0.000767842,0.002104,0.000473869,-0.614359,0.00127443,0.0102455,1847,1436,35.4142,-21.2539
630,-412,35.4065,20.4963,0.00142615,0.000553251,-0.000532542,0.00167824,0.000301159,-0.442121,0.00103318,0.0122415,1854,1436,35.4064,-20.4963
637,-412,35.3998,19.7274,0.00145761,0.000330823,-0.000447189,0.00161351,0.000174918,-0.335457,0.00102237,0.0143707,1861,1436,35.3998,-19.7274
644,-412,35.3491,19.0092,0.00167323,1.6986e-05,-0.000287176,0.00172161,-3.1394e-05,-0.166901,0.00115835,0.015254,1868,1436,35.3491,-19.0091
651,-412,35.2921,18.27,0.00201445,-0.000266915,-0.000123306,0.00202109,-0.00027356,-0.0538403,0.00144723,0.0273476,1875,1436,35.2921,-18.27
658,-412,35.2517,17.5663,0.00245765,-0.000678703,0.00015037,0.00246484,-0.000685896,0.047798,0.00191329,0.01998,1882,1436,35.2517,-17.5663
665,-412,35.265,16.8352,0.00298026,-0.00130942,0.000650339,0.00307668,-0.00140584,0.1472,0.00264724,0.0236596,1889,1436,35.265,-16.8352
672,-412,35.2885,16.0968,0.00347439,-0.00234149,0.00152126,0.00384826,-0.00271537,0.240994,0.00380829,0.0348854,1896,1436,35.2885,-16.0969
679,-412,35.3456,15.3214,0,0,0,0,0,0,0,-1,1903,1436,35.3455,-15.3214
686,-412,35.3159,15.2073,0,0,0,0,0,0,0,-1,1910,1436,35.3159,-15.2072
693,-412,11.9346,6.02344,0,0,0,0,0,0,0,-1,1917,1436,11.9346,-6.02343
700,-412,8.82764,5.8844,0,0,0,0,0,0,0,-1,1924,1436,8.82761,-5.88444
707,-412,6.59998,1.68994,0,0,0,0,0,0,0,-1,1931,1436,6.60002,-1.68995
714,-412,4.77283,-2.39832,0,0,0,0,0,0,0,-1,1938,1436,4.77288,2.39835
721,-412,0,0,0,0,0,0,0,0,0,-1,1945,1436,0,0
728,-412,0,0,0,0,0,0,0,0,0,-1,1952,1436,0,0
735,-412,0,0,0,0,0,0,0,0,0,-1,1959,1436,0,0
742,-412,0,0,0,0,0,0,0,0,0,-1,1966,1436,0,0
749,-412,0,0,0,0,0,0,0,0,0,-1,1973,1436,0,0
756,-412,0,0,0,0,0,0,0,0,0,-1,1980,1436,0,0
763,-412,0,0,0,0,0,0,0,0,0,-1,1987,1436,0,0
770,-412,0,0,0,0,0,0,0,0,0,-1,1994,1436,0,0
777,-412,0,0,0,0,0,0,0,0,0,-1,2001,1436,0,0
784,-412,0,0,0,0,0,0,0,0,0,-1,2008,1436,0,0
791,-412,0,0,0,0,0,0,0,0,0,-1,2015,1436,0,0
798,-412,0,0,0,0,0,0,0,0,0,-1,2022,1436,0,0
805,-412,0,0,0,0,0,0,0,0,0,-1,2029,1436,0,0
812,-412,0,0,0,0,0,0,0,0,0,-1,2036,1436,0,0
-700,-419,0,0,0,0,0,0,0,0,0,-1,524,1443,0,0
-693,-419,0,0,0,0,0,0,0,0,0,-1,531,1443,0,0
-686,-419,0,0,0,0,0,0,0,0,0,-1,538,1443,0,0
-679,-419,0,0,0,0,0,0,0,0,0,-1,545,1443,0,0
-672,-419,0,0,0,0,0,0,0,0,0,-1,552,1443,0,0
-665,-419,0,0,0,0,0,0,0,0,0,-1,559,1443,0,0
-658,-419,0,0,0,0,0,0,0,0,0,-1,566,1443,0,0
-651,-419,0,0,0,0,0,0,0,0,0,-1,573,1443,0,0
-644,-419,0,0,0,0,0,0,0,0,0,-1,580,1443,0,0
-637,-419,0,0,0,0,0,0,0,0,0,-1,587,1443,0,0
-630,-419,0,0,0,0,0,0,0,0,0,-1,594,1443,0,0
-623,-419,0,0,0,0,0,0,0,0,0,-1,601,1443,0,0
-616,-419,0,0,0,0,0,0,0,0,0,-1,608,1443,0,0
-609,-419,0,0,0,0,0,0,0,0,0,-1,615,1443,0,0
-602,-419,0,0,0,0,0,0,0,0,0,-1,622,1443,0,0
-595,-419,-11.4904,-0.622681,0,0,0,0,0,0,0,-1,629,1443,-11.4903,0.622714
-588,-419,-9.09369,0.742432,0,0,0,0,0,0,0,-1,636,1443,-9.09366,-0.742482
-581,-419,-6.39172,2.14673,0,0,0,0,0,0,0,-1,643,1443,-6.39175,-2.14668
-574,-419,-4.09772,3.54773,0,0,0,0,0,0,0,-1,650,1443,-4.09772,-3.54767
-567,-419,-6.14038,3.22498,0,0,0,0,0,0,0,-1,657,1443,-6.14037,-3.22497
-560,-419,-4.52814,5.22253,0,0,0,0,0,0,0,-1,664,1443,-4.52816,-5.22251
-553,-419,-5.08331,6.11829,0,0,0,0,0,0,0,-1,671,1443,-5.08331,-6.1183
-546,-419,-10.3732,9.23279,0,0,0,0,0,0,0,-1,678,1443,-10.3732,-9.23275
-539,-419,-17.2869,15.0358,0,0,0,0,0,0,0,-1,685,1443,-17.2868,-15.0357
-532,-419,-17.3439,15.9312,0.00451496,0.00381256,0.00398732,0.00816652,0.000161006,0.741472,0.00539148,0.0305839,692,1443,-17.3439,-15.9312
-525,-419,-17.3564,16.7603,0.00357589,0.00289033,0.00307571,0.00632787,0.000138362,0.729903,0.00417322,0.0130212,699,1443,-17.3564,-16.7603
-518,-419,-17.3455,17.5162,0.00290242,0.0022651,0.00240393,0.00500872,0.000158806,0.719503,0.00328749,0.0170918,706,1443,-17.3455,-17.5162
-511,-419,-17.4096,18.2407,0.00237254,0.00178294,0.00187156,0.00397237,0.000183105,0.707282,0.00258937,0.0200756,713,1443,-17.4096,-18.2407
-504,-419,-17.4622,19.0403,0.00195888,0.00145547,0.00145388,0.00318268,0.000231672,0.699684,0.00204894,0.0201757,720,1443,-17.4622,-19.0403
-497,-419,-17.5182,19.8186,0.00168185,0.00129067,0.00117082,0.00267331,0.000299212,0.702635,0.00169131,0.0141074,727,1443,-17.5182,-19.8186
-490,-419,-17.5411,20.5743,0.00150196,0.00126755,0.00100222,0.00239381,0.000375709,0.72719,0.00148655,0.0118437,734,1443,-17.5411,-20.5743
-483,-419,-17.581,21.3265,0.00144696,0.00147372,0.000983243,0.00244367,0.000477007,0.792203,0.00149569,0.0108129,741,1443,-17.581,-21.3265
-476,-419,-17.5799,22.1652,0.00143967,0.00177493,0.0010787,0.00269895,0.000515651,0.862482,0.00165442,0.0222485,748,1443,-17.5799,-22.1651
-469,-419,-17.5945,23.0393,0,0,0,0,0,0,0,-1,755,1443,-17.5945,-23.0392
-462,-419,-11.5347,18.1563,0,0,0,0,0,0,0,-1,762,1443,-11.5347,-18.1562
-455,-419,-7.35645,11.9451,0,0,0,0,0,0,0,-1,769,1443,-7.35646,-11.9451
-448,-419,-7.49109,9.92444,0,0,0,0,0,0,0,-1,776,1443,-7.49109,-9.92442
-441,-419,-7.65527,8.75574,0,0,0,0,0,0,0,-1,783,1443,-7.65525,-8.75568
-434,-419,-11.3724,12.3643,0,0,0,0,0,0,0,-1,790,1443,-11.3724,-12.3643
-427,-419,-8.23193,7.89404,0,0,0,0,0,0,0,-1,797,1443,-8.23193,-7.89404
-420,-419,-8.74091,6.36597,0,0,0,0,0,0,0,-1,804,1443,-8.74089,-6.366
-413,-419,-9.88391,6.53955,0,0,0,0,0,0,0,-1,811,1443,-9.8839,-6.53955
-406,-419,-10.3372,2.75195,0,0,0,0,0,0,0,-1,818,1443,-10.3372,-2.75201
-399,-419,-11.5999,1.40002,0,0,0,0,0,0,0,-1,825,1443,-11.5999,-1.39998
-392,-419,0,0,0,0,0,0,0,0,0,-1,832,1443,0,0
-385,-419,0,0,0,0,0,0,0,0,0,-1,839,1443,0,0
-378,-419,0,0,0,0,0,0,0,0,0,-1,846,1443,0,0
-371,-419,0,0,0,0,0,0,0,0,0,-1,853,1443,0,0
-364,-419,0,0,0,0,0,0,0,0,0,-1,860,1443,0,0
-357,-419,0,0,0,0,0,0,0,0,0,-1,867,1443,0,0
-350,-419,0,0,0,0,0,0,0,0,0,-1,874,1443,0,0
-343,-419,0,0,0,0,0,0,0,0,0,-1,881,1443,0,0
-336,-419,0,0,0,0,0,0,0,0,0,-1,888,1443,0,0
-329,-419,0,0,0,0,0,0,0,0,0,-1,895,1443,0,0
-322,-419,0,0,0,0,0,0,0,0,0,-1,902,1443,0,0
-315,-419,0,0,0,0,0,0,0,0,0,-1,909,1443,0,0
-308,-419,0,0,0,0,0,0,0,0,0,-1,916,1443,0,0
-301,-419,0,0,0,0,0,0,0,0,0,-1,923,1443,0,0
-294,-419,0,0,0,0,0,0,0,0,0,-1,930,1443,0,0
-287,-419,0,0,0,0,0,0,0,0,0,-1,937,1443,0,0
-280,-419,0,0,0,0,0,0,0,0,0,-1,944,1443,0,0
-273,-419,0,0,0,0,0,0,0,0,0,-1,951,1443,0,0
-266,-419,0,0,0,0,0,0,0,0,0,-1,958,1443,0,0
-259,-419,0,0,0,0,0,0,0,0,0,-1,965,1443,0,0
-252,-419,0,0,0,0,0,0,0,0,0,-1,972,1443,0,0
-245,-419,0,0,0,0,0,0,0,0,0,-1,979,1443,0,0
-238,-419,0,0,0,0,0,0,0,0,0,-1,986,1443,0,0
-231,-419,0,0,0,0,0,0,0,0,0,-1,993,1443,0,0
-224,-419,0,0,0,0,0,0,0,0,0,-1,1000,1443,0,0
-217,-419,0,0,0,0,0,0,0,0,0,-1,1007,1443,0,0
-210,-419,0,0,0,0,0,0,0,0,0,-1,1014,1443,0,0
-203,-419,0,0,0,0,0,0,0,0,0,-1,1021,1443,0,0
-196,-419,0,0,0,0,0,0,0,0,0,-1,1028,1443,0,0
-189,-419,0,0,0,0,0,0,0,0,0,-1,1035,1443,0,0
-182,-419,0,0,0,0,0,0,0,0,0,-1,1042,1443,0,0
-175,-419,0,0,0,0,0,0,0,0,0,-1,1049,1443,0,0
-168,-419,0,0,0,0,0,0,0,0,0,-1,1056,1443,0,0
-161,-419,0,0,0,0,0,0,0,0,0,-1,1063,1443,0,0
-154,-419,0,0,0,0,0,0,0,0,0,-1,1070,1443,0,0
-147,-419,0,0,0,0,0,0,0,0,0,-1,1077,1443,0,0
-140,-419,0,0,0,0,0,0,0,0,0,-1,1084,1443,0,0
-133,-419,0,0,0,0,0,0,0,0,0,-1,1091,1443,0,0
-126,-419,0,0,0,0,0,0,0,0,0,-1,1098,1443,0,0
-119,-419,0,0,0,0,0,0,0,0,0,-1,1105,1443,0,0
-112,-419,0,0,0,0,0,0,0,0,0,-1,1112,1443,0,0
-105,-419,0,0,0,0,0,0,0,0,0,-1,1119,1443,0,0
-98,-419,0,0,0,0,0,0,0,0,0,-1,1126,1443,0,0
-91,-419,0,0,0,0,0,0,0,0,0,-1,1133,1443,0,0
-84,-419,0,0,0,0,0,0,0,0,0,-1,1140,1443,0,0
-77,-419,0,0,0,0,0,0,0,0,0,-1,1147,1443,0,0
-70,-419,0,0,0,0,0,0,0,0,0,-1,1154,1443,0,0
-63,-419,0,0,0,0,0,0,0,0,0,-1,1161,1443,0,0
-56,-419,0,0,0,0,0,0,0,0,0,-1,1168,1443,0,0
-49,-419,0,0,0,0,0,0,0,0,0,-1,1175,1443,0,0
-42,-419,0,0,0,0,0,0,0,0,0,-1,1182,1443,0,0
-35,-419,0,0,0,0,0,0,0,0,0,-1,1189,1443,0,0
-28,-419,0,0,0,0,0,0,0,0,0,-1,1196,1443,0,0
-21,-419,0,0,0,0,0,0,0,0,0,-1,1203,1443,0,0
-14,-419,0,0,0,0,0,0,0,0,0,-1,1210,1443,0,0
-7,-419,0,0,0,0,0,0,0,0,0,-1,1217,1443,0,0
0,-419,0,0,0,0,0,0,0,0,0,-1,1224,1443,0,0
7,-419,0,0,0,0,0,0,0,0,0,-1,1231,1443,0,0
14,-419,0,0,0,0,0,0,0,0,0,-1,1238,1443,0,0
21,-419,0,0,0,0,0,0,0,0,0,-1,1245,1443,0,0
28,-419,0,0,0,0,0,0,0,0,0,-1,1252,1443,0,0
35,-419,0,0,0,0,0,0,0,0,0,-1,1259,1443,0,0
42,-419,0,0,0,0,0,0,0,0,0,-1,1266,1443,0,0
49,-419,0,0,0,0,0,0,0,0,0,-1,1273,1443,0,0
56,-419,0,0,0,0,0,0,0,0,0,-1,1280,1443,0,0
63,-419,0,0,0,0,0,0,0,0,0,-1,1287,1443,0,0
70,-419,0,0,0,0,0,0,0,0,0,-1,1294,1443,0,0
77,-419,0,0,0,0,0,0,0,0,0,-1,1301,1443,0,0
84,-419,0,0,0,0,0,0,0,0,0,-1,1308,1443,0,0
91,-419,0,0,0,0,0,0,0,0,0,-1,1315,1443,0,0
98,-419,0,0,0,0,0,0,0,0,0,-1,1322,1443,0,0
105,-419,0,0,0,0,0,0,0,0,0,-1,1329,1443,0,0
112,-419,0,0,0,0,0,0,0,0,0,-1,1336,1443,0,0
119,-419,0,0,0,0,0,0,0,0,0,-1,1343,1443,0,0
126,-419,0,0,0,0,0,0,0,0,0,-1,1350,1443,0,0
133,-419,0,0,0,0,0,0,0,0,0,-1,1357,1443,0,0
140,-419,0,0,0,0,0,0,0,0,0,-1,1364,1443,0,0
147,-419,0,0,0,0,0,0,0,0,0,-1,1371,1443,0,0
154,-419,0,0,0,0,0,0,0,0,0,-1,1378,1443,0,0
161,-419,0,0,0,0,0,0,0,0,0,-1,1385,1443,0,0
168,-419,0,0,0,0,0,0,0,0,0,-1,1392,1443,0,0
175,-419,0,0,0,0,0,0,0,0,0,-1,1399,1443,0,0
182,-419,0,0,0,0,0,0,0,0,0,-1,1406,1443,0,0
189,-419,0,0,0,0,0,0,0,0,0,-1,1413,1443,0,0
196,-419,0,0,0,0,0,0,0,0,0,-1,1420,1443,0,0
203,-419,0,0,0,0,0,0,0,0,0,-1,1427,1443,0,0
210,-419,0,0,0,0,0,0,0,0,0,-1,1434,1443,0,0
217,-419,0,0,0,0,0,0,0,0,0,-1,1441,1443,0,0
224,-419,0,0,0,0,0,0,0,0,0,-1,1448,1443,0,0
231,-419,0,0,0,0,0,0,0,0,0,-1,1455,1443,0,0
238,-419,0,0,0,0,0,0,0,0,0,-1,1462,1443,0,0
245,-419,0,0,0,0,0,0,0,0,0,-1,1469,1443,0,0
252,-419,0,0,0,0,0,0,0,0,0,-1,1476,1443,0,0
259,-419,0,0,0,0,0,0,0,0,0,-1,1483,1443,0,0
266,-419,0,0,0,0,0,0,0,0,0,-1,1490,1443,0,0
273,-419,0,0,0,0,0,0,0,0,0,-1,1497,1443,0,0
280,-419,0,0,0,0,0,0,0,0,0,-1,1504,1443,0,0
287,-419,0,0,0,0,0,0,0,0,0,-1,1511,1443,0,0
294,-419,0,0,0,0,0,0,0,0,0,-1,1518,1443,0,0
301,-419,0,0,0,0,0,0,0,0,0,-1,1525,1443,0,0
308,-419,0,0,0,0,0,0,0,0,0,-1,1532,1443,0,0
315,-419,0,0,0,0,0,0,0,0,0,-1,1539,1443,0,0
322,-419,0,0,0,0,0,0,0,0,0,-1,1546,1443,0,0
329,-419,0,0,0,0,0,0,0,0,0,-1,1553,1443,0,0
336,-419,0,0,0,0,0,0,0,0,0,-1,1560,1443,0,0
343,-419,0,0,0,0,0,0,0,0,0,-1,1567,1443,0,0
350,-419,0,0,0,0,0,0,0,0,0,-1,1574,1443,0,0
357,-419,0,0,0,0,0,0,0,0,0,-1,1581,1443,0,0
364,-419,0,0,0,0,0,0,0,0,0,-1,1588,1443,0,0
371,-419,0,0,0,0,0,0,0,0,0,-1,1595,1443,0,0
378,-419,0,0,0,0,0,0,0,0,0,-1,1602,1443,0,0
385,-419,0,0,0,0,0,0,0,0,0,-1,1609,1443,0,0
392,-419,0,0,0,0,0,0,0,0,0,-1,1616,1443,0,0
399,-419,0,0,0,0,0,0,0,0,0,-1,1623,1443,0,0
406,-419,0,0,0,0,0,0,0,0,0,-1,1630,1443,0,0
413,-419,0,0,0,0,0,0,0,0,0,-1,1637,1443,0,0
420,-419,0,0,0,0,0,0,0,0,0,-1,1644,1443,0,0
427,-419,0,0,0,0,0,0,0,0,0,-1,1651,1443,0,0
434,-419,0,0,0,0,0,0,0,0,0,-1,1658,1443,0,0
441,-419,0,0,0,0,0,0,0,0,0,-1,1665,1443,0,0
448,-419,0,0,0,0,0,0,0,0,0,-1,1672,1443,0,0
455,-419,0,0,0,0,0,0,0,0,0,-1,1679,1443,0,0
462,-419,0,0,0,0,0,0,0,0,0,-1,1686,1443,0,0
469,-419,0,0,0,0,0,0,0,0,0,-1,1693,1443,0,0
476,-419,0,0,0,0,0,0,0,0,0,-1,1700,1443,0,0
483,-419,0,0,0,0,0,0,0,0,0,-1,1707,1443,0,0
490,-419,0,0,0,0,0,0,0,0,0,-1,1714,1443,0,0
497,-419,0,0,0,0,0,0,0,0,0,-1,1721,1443,0,0
504,-419,0,0,0,0,0,0,0,0,0,-1,1728,1443,0,0
511,-419,20.3005,3.7959,0,0,0,0,0,0,0,-1,1735,1443,20.3005,-3.79584
518,-419,21.3154,2.03027,0,0,0,0,0,0,0,-1,1742,1443,21.3155,-2.03029
525,-419,28.3439,-1.24475,0,0,0,0,0,0,0,-1,1749,1443,28.3438,1.24471
532,-419,27.5902,-0.272583,0,0,0,0,0,0,0,-1,1756,1443,27.5902,0.272526
539,-419,26.5278,1.60583,0,0,0,0,0,0,0,-1,1763,1443,26.5279,-1.60579
546,-419,24.9509,2.77539,0,0,0,0,0,0,0,-1,1770,1443,24.9509,-2.77537
553,-419,24.118,3.75525,0,0,0,0,0,0,0,-1,1777,1443,24.1181,-3.75526
560,-419,11.8199,8.26343,0,0,0,0,0,0,0,-1,1784,1443,11.82,-8.26341
567,-419,21.5143,8.74719,0,0,0,0,0,0,0,-1,1791,1443,21.5143,-8.74722
574,-419,19.5886,6.46155,0,0,0,0,0,0,0,-1,1798,1443,19.5886,-6.46157
581,-419,20.7926,11.4265,0,0,0,0,0,0,0,-1,1805,1443,20.7926,-11.4265
588,-419,19.4242,12.5363,0,0,0,0,0,0,0,-1,1812,1443,19.4242,-12.5362
595,-419,22.9375,16.0151,0,0,0,0,0,0,0,-1,1819,1443,22.9375,-16.0152
602,-419,34.8011,23.4838,0,0,0,0,0,0,0,-1,1826,1443,34.8012,-23.4838
609,-419,34.7765,22.7072,0.00290691,0.00245185,-0.00196038,0.00465292,0.000705841,-0.727624,0.00289549,0.0267566,1833,1443,34.7764,-22.7072
616,-419,34.7333,22.0149,0.00218581,0.00150757,-0.00130446,0.00319451,0.000498873,-0.658229,0.0019844,0.0136801,1840,1443,34.7332,-22.0149
623,-419,34.6986,21.2877,0.00178333,0.000931865,-0.000890757,0.00234486,0.00037033,-0.562474,0.00145559,0.0110885,1847,1443,34.6986,-21.2877
630,-419,34.7073,20.5251,0.00166869,0.000491632,-0.000651814,0.00195836,0.000201966,-0.418187,0.00124373,0.0132513,1854,1443,34.7073,-20.5251
637,-419,34.6855,19.7914,0.00170047,0.000246174,-0.0005156,0.00186472,8.19258e-05,-0.308393,0.00121676,0.0145567,1861,1443,34.6855,-19.7914
644,-419,34.642,19.066,0.00194791,-4.61175e-05,-0.000341856,0.00200488,-0.000103097,-0.165159,0.00137225,0.0127494,1868,1443,34.6419,-19.0661
651,-419,34.5653,18.3599,0.00230775,-0.000260053,-0.000215856,0.00232576,-0.000278072,-0.0832838,0.00165102,0.0123577,1875,1443,34.5653,-18.3599
658,-419,34.5089,17.616,0.00279564,-0.000569217,-2.75808e-06,0.00279564,-0.000569219,-0.00081967,0.00207963,0.0145126,1882,1443,34.5089,-17.6159
665,-419,34.5425,16.8988,0.00336146,-0.00109427,0.000441624,0.00340481,-0.00113762,0.0978453,0.00272929,0.0225977,1889,1443,34.5425,-16.8988
672,-419,34.6201,16.0562,0.00384871,-0.00205744,0.00130007,0.00412222,-0.00233095,0.207356,0.00377328,0.048379,1896,1443,34.6201,-16.0562
679,-419,34.931,15.2289,0,0,0,0,0,0,0,-1,1903,1443,34.931,-15.2289
686,-419,17.4127,8.03076,0,0,0,0,0,0,0,-1,1910,1443,17.4127,-8.03071
693,-419,8.76086,5.60535,0,0,0,0,0,0,0,-1,1917,1443,8.76091,-5.6054
700,-419,11.0498,4.85156,0,0,0,0,0,0,0,-1,1924,1443,11.0498,-4.85153
707,-419,9.5752,1.80042,0,0,0,0,0,0,0,-1,1931,1443,9.57523,-1.80037
714,-419,5.77576,-1.25061,0,0,0,0,0,0,0,-1,1938,1443,5.7757,1.25056
721,-419,0,0,0,0,0,0,0,0,0,-1,1945,1443,0,0
728,-419,0,0,0,0,0,0,0,0,0,-1,1952,1443,0,0
735,-419,0,0,0,0,0,0,0,0,0,-1,1959,1443,0,0
742,-419,0,0,0,0,0,0,0,0,0,-1,1966,1443,0,0
749,-419,0,0,0,0,0,0,0,0,0,-1,1973,1443,0,0
756,-419,0,0,0,0,0,0,0,0,0,-1,1980,1443,0,0
763,-419,0,0,0,0,0,0,0,0,0,-1,1987,1443,0,0
770,-419,0,0,0,0,0,0,0,0,0,-1,1994,1443,0,0
777,-419,0,0,0,0,0,0,0,0,0,-1,2001,1443,0,0
784,-419,0,0,0,0,0,0,0,0,0,-1,2008,1443,0,0
791,-419,0,0,0,0,0,0,0,0,0,-1,2015,1443,0,0
798,-419,0,0,0,0,0,0,0,0,0,-1,2022,1443,0,0
805,-419,0,0,0,0,0,0,0,0,0,-1,2029,1443,0,0
812,-419,0,0,0,0,0,0,0,0,0,-1,2036,1443,0,0
-700,-426,0,0,0,0,0,0,0,0,0,-1,524,1450,0,0
-693,-426,0,0,0,0,0,0,0,0,0,-1,531,1450,0,0
-686,-426,0,0,0,0,0,0,0,0,0,-1,538,1450,0,0
-679,-426,0,0,0,0,0,0,0,0,0,-1,545,1450,0,0
-672,-426,0,0,0,0,0,0,0,0,0,-1,552,1450,0,0
-665,-426,0,0,0,0,0,0,0,0,0,-1,559,1450,0,0
-658,-426,0,0,0,0,0,0,0,0,0,-1,566,1450,0,0
-651,-426,0,0,0,0,0,0,0,0,0,-1,573,1450,0,0
-644,-426,0,0,0,0,0,0,0,0,0,-1,580,1450,0,0
-637,-426,0,0,0,0,0,0,0,0,0,-1,587,1450,0,0
-630,-426,0,0,0,0,0,0,0,0,0,-1,594,1450,0,0
-623,-426,0,0,0,0,0,0,0,0,0,-1,601,1450,0,0
-616,-426,0,0,0,0,0,0,0,0,0,-1,608,1450,0,0
-609,-426,0,0,0,0,0,0,0,0,0,-1,615,1450,0,0
-602,-426,0,0,0,0,0,0,0,0,0,-1,622,1450,0,0
-595,-426,0,0,0,0,0,0,0,0,0,-1,629,1450,0,0
-588,-426,-10.184,-0.554321,0,0,0,0,0,0,0,-1,636,1450,-10.184,0.554321
-581,-426,-7.3349,1.48157,0,0,0,0,0,0,0,-1,643,1450,-7.33491,-1.48152
-574,-426,-5.02856,2.89319,0,0,0,0,0,0,0,-1,650,1450,-5.02858,-2.89319
-567,-426,-3.04797,1.72644,0,0,0,0,0,0,0,-1,657,1450,-3.04797,-1.72639
-560,-426,-5.55682,3.44397,0,0,0,0,0,0,0,-1,664,1450,-5.55684,-3.44399
-553,-426,-4.67017,6.66614,0,0,0,0,0,0,0,-1,671,1450,-4.67015,-6.66619
-546,-426,-7.58752,8.28882,0,0,0,0,0,0,0,-1,678,1450,-7.58752,-8.28878
-539,-426,-10.436,10.7441,0,0,0,0,0,0,0,-1,685,1450,-10.436,-10.7441
-532,-426,-16.6389,15.8851,0,0,0,0,0,0,0,-1,692,1450,-16.6389,-15.8851
-525,-426,-16.6379,16.7267,0.00402726,0.0036318,0.00376272,0.00759744,6.16182e-05,0.759147,0.00504455,0.0228323,699,1450,-16.6379,-16.7267
-518,-426,-16.6051,17.5613,0.00328928,0.00285745,0.00298886,0.00607002,7.67189e-05,0.749341,0.00402135,0.0166284,706,1450,-16.6051,-17.5612
-511,-426,-16.6339,18.3303,0.00267572,0.00223198,0.00235114,0.00481543,9.2258e-05,0.738354,0.00317998,0.0164405,713,1450,-16.6339,-18.3303
-504,-426,-16.6829,19.1072,0.0021527,0.00176319,0.00181699,0.00378534,0.000130544,0.73201,0.00248119,0.0163046,720,1450,-16.6829,-19.1072
-497,-426,-16.7283,19.8651,0.00173876,0.00145515,0.00139265,0.00299681,0.000197102,0.734662,0.00193552,0.0128027,727,1450,-16.7283,-19.8652
-490,-426,-16.7556,20.6282,0.00140353,0.00128192,0.00106755,0.002412,0.000273442,0.75695,0.00152505,0.0125272,734,1450,-16.7556,-20.6282
-483,-426,-16.8009,21.3733,0.00122076,0.00133666,0.000911793,0.00219234,0.000365079,0.817134,0.00135635,0.0126498,741,1450,-16.8009,-21.3733
-476,-426,-16.8458,22.125,0.0011424,0.00155992,0.000904769,0.0022797,0.000422618,0.898781,0.00140035,0.0100407,748,1450,-16.8458,-22.125
-469,-426,-16.8969,22.8827,0.00123903,0.00199526,0.00103896,0.00272276,0.000511519,0.959917,0.00167097,0.0140017,755,1450,-16.8969,-22.8827
-462,-426,-16.8533,23.7122,0,0,0,0,0,0,0,-1,762,1450,-16.8533,-23.7122
-455,-426,-10.215,17.7007,0,0,0,0,0,0,0,-1,769,1450,-10.215,-17.7007
-448,-426,-6.46545,10.1322,0,0,0,0,0,0,0,-1,776,1450,-6.46543,-10.1322
-441,-426,-10.9547,11.4747,0,0,0,0,0,0,0,-1,783,1450,-10.9546,-11.4748
-434,-426,-10.4998,13.6189,0,0,0,0,0,0,0,-1,790,1450,-10.4997,-13.6189
-427,-426,-9.36627,13.7396,0,0,0,0,0,0,0,-1,797,1450,-9.36628,-13.7396
-420,-426,-5.33765,7.95044,0,0,0,0,0,0,0,-1,804,1450,-5.33766,-7.95041
-413,-426,-10.1148,5.0415,0,0,0,0,0,0,0,-1,811,1450,-10.1148,-5.04152
-406,-426,-11.4199,3.6438,0,0,0,0,0,0,0,-1,818,1450,-11.4198,-3.64382
-399,-426,-12.7595,2.29004,0,0,0,0,0,0,0,-1,825,1450,-12.7595,-2.29003
-392,-426,-12.4147,0.537354,0,0,0,0,0,0,0,-1,832,1450,-12.4147,-0.53731
-385,-426,0,0,0,0,0,0,0,0,0,-1,839,1450,0,0
-378,-426,0,0,0,0,0,0,0,0,0,-1,846,1450,0,0
-371,-426,0,0,0,0,0,0,0,0,0,-1,853,1450,0,0
-364,-426,0,0,0,0,0,0,0,0,0,-1,860,1450,0,0
-357,-426,0,0,0,0,0,0,0,0,0,-1,867,1450,0,0
-350,-426,0,0,0,0,0,0,0,0,0,-1,874,1450,0,0
-343,-426,0,0,0,0,0,0,0,0,0,-1,881,1450,0,0
-336,-426,0,0,0,0,0,0,0,0,0,-1,888,1450,0,0
-329,-426,0,0,0,0,0,0,0,0,0,-1,895,1450,0,0
-322,-426,0,0,0,0,0,0,0,0,0,-1,902,1450,0,0
-315,-426,0,0,0,0,0,0,0,0,0,-1,909,1450,0,0
-308,-426,0,0,0,0,0,0,0,0,0,-1,916,1450,0,0
-301,-426,0,0,0,0,0,0,0,0,0,-1,923,1450,0,0
-294,-426,0,0,0,0,0,0,0,0,0,-1,930,1450,0,0
-287,-426,0,0,0,0,0,0,0,0,0,-1,937,1450,0,0
-280,-426,0,0,0,0,0,0,0,0,0,-1,944,1450,0,0
-273,-426,0,0,0,0,0,0,0,0,0,-1,951,1450,0,0
-266,-426,0,0,0,0,0,0,0,0,0,-1,958,1450,0,0
-259,-426,0,0,0,0,0,0,0,0,0,-1,965,1450,0,0
-252,-426,0,0,0,0,0,0,0,0,0,-1,972,1450,0,0
-245,-426,0,0,0,0,0,0,0,0,0,-1,979,1450,0,0
-238,-426,0,0,0,0,0,0,0,0,0,-1,986,1450,0,0
-231,-426,0,0,0,0,0,0,0,0,0,-1,993,1450,0,0
-224,-426,0,0,0,0,0,0,0,0,0,-1,1000,1450,0,0
-217,-426,0,0,0,0,0,0,0,0,0,-1,1007,1450,0,0
-210,-426,0,0,0,0,0,0,0,0,0,-1,1014,1450,0,0
-203,-426,0,0,0,0,0,0,0,0,0,-1,1021,1450,0,0
-196,-426,0,0,0,0,0,0,0,0,0,-1,1028,1450,0,0
-189,-426,0,0,0,0,0,0,0,0,0,-1,1035,1450,0,0
-182,-426,0,0,0,0,0,0,0,0,0,-1,1042,1450,0,0
-175,-426,0,0,0,0,0,0,0,0,0,-1,1049,1450,0,0
-168,-426,0,0,0,0,0,0,0,0,0,-1,1056,1450,0,0
-161,-426,0,0,0,0,0,0,0,0,0,-1,1063,1450,0,0
-154,-426,0,0,0,0,0,0,0,0,0,-1,1070,1450,0,0
-147,-426,0,0,0,0,0,0,0,0,0,-1,1077,1450,0,0
-140,-426,0,0,0,0,0,0,0,0,0,-1,1084,1450,0,0
-133,-426,0,0,0,0,0,0,0,0,0,-1,1091,1450,0,0
-126,-426,0,0,0,0,0,0,0,0,0,-1,1098,1450,0,0
-119,-426,0,0,0,0,0,0,0,0,0,-1,1105,1450,0,0
-112,-426,0,0,0,0,0,0,0,0,0,-1,1112,1450,0,0
-105,-426,0,0,0,0,0,0,0,0,0,-1,1119,1450,0,0
-98,-426,0,0,0,0,0,0,0,0,0,-1,1126,1450,0,0
-91,-426,0,0,0,0,0,0,0,0,0,-1,1133,1450,0,0
-84,-426,0,0,0,0,0,0,0,0,0,-1,1140,1450,0,0
-77,-426,0,0,0,0,0,0,0,0,0,-1,1147,1450,0,0
-70,-426,0,0,0,0,0,0,0,0,0,-1,1154,1450,0,0
-63,-426,0,0,0,0,0,0,0,0,0,-1,1161,1450,0,0
-56,-426,0,0,0,0,0,0,0,0,0,-1,1168,1450,0,0
-49,-426,0,0,0,0,0,0,0,0,0,-1,1175,1450,0,0
-42,-426,0,0,0,0,0,0,0,0,0,-1,1182,1450,0,0
-35,-426,0,0,0,0,0,0,0,0,0,-1,1189,1450,0,0
-28,-426,0,0,0,0,0,0,0,0,0,-1,1196,1450,0,0
-21,-426,0,0,0,0,0,0,0,0,0,-1,1203,1450,0,0
-14,-426,0,0,0,0,0,0,0,0,0,-1,1210,1450,0,0
-7,-426,0,0,0,0,0,0,0,0,0,-1,1217,1450,0,0
0,-426,0,0,0,0,0,0,0,0,0,-1,1224,1450,0,0
7,-426,0,0,0,0,0,0,0,0,0,-1,1231,1450,0,0
14,-426,0,0,0,0,0,0,0,0,0,-1,1238,1450,0,0
21,-426,0,0,0,0,0,0,0,0,0,-1,1245,1450,0,0
28,-426,0,0,0,0,0,0,0,0,0,-1,1252,1450,0,0
35,-426,0,0,0,0,0,0,0,0,0,-1,1259,1450,0,0
42,-426,0,0,0,0,0,0,0,0,0,-1,1266,1450,0,0
49,-426,0,0,0,0,0,0,0,0,0,-1,1273,1450,0,0
56,-426,0,0,0,0,0,0,0,0,0,-1,1280,1450,0,0
63,-426,0,0,0,0,0,0,0,0,0,-1,1287,1450,0,0
70,-426,0,0,0,0,0,0,0,0,0,-1,1294,1450,0,0
77,-426,0,0,0,0,0,0,0,0,0,-1,1301,1450,0,0
84,-426,0,0,0,0,0,0,0,0,0,-1,1308,1450,0,0
91,-426,0,0,0,0,0,0,0,0,0,-1,1315,1450,0,0
98,-426,0,0,0,0,0,0,0,0,0,-1,1322,1450,0,0
105,-426,0,0,0,0,0,0,0,0,0,-1,1329,1450,0,0
112,-426,0,0,0,0,0,0,0,0,0,-1,1336,1450,0,0
119,-426,0,0,0,0,0,0,0,0,0,-1,1343,1450,0,0
126,-426,0,0,0,0,0,0,0,0,0,-1,1350,1450,0,0
133,-426,0,0,0,0,0,0,0,0,0,-1,1357,1450,0,0
140,-426,0,0,0,0,0,0,0,0,0,-1,1364,1450,0,0
147,-426,0,0,0,0,0,0,0,0,0,-1,1371,1450,0,0
154,-426,0,0,0,0,0,0,0,0,0,-1,1378,1450,0,0
161,-426,0,0,0,0,0,0,0,0,0,-1,1385,1450,0,0
168,-426,0,0,0,0,0,0,0,0,0,-1,1392,1450,0,0
175,-426,0,0,0,0,0,0,0,0,0,-1,1399,1450,0,0
182,-426,0,0,0,0,0,0,0,0,0,-1,1406,1450,0,0
189,-426,0,0,0,0,0,0,0,0,0,-1,1413,1450,0,0
196,-426,0,0,0,0,0,0,0,0,0,-1,1420,1450,0,0
203,-426,0,0,0,0,0,0,0,0,0,-1,1427,1450,0,0
210,-426,0,0,0,0,0,0,0,0,0,-1,1434,1450,0,0
217,-426,0,0,0,0,0,0,0,0,0,-1,1441,1450,0,0
224,-426,0,0,0,0,0,0,0,0,0,-1,1448,1450,0,0
231,-426,0,0,0,0,0,0,0,0,0,-1,1455,1450,0,0
238,-426,0,0,0,0,0,0,0,0,0,-1,1462,1450,0,0
245,-426,0,0,0,0,0,0,0,0,0,-1,1469,1450,0,0
252,-426,0,0,0,0,0,0,0,0,0,-1,1476,1450,0,0
259,-426,0,0,0,0,0,0,0,0,0,-1,1483,1450,0,0
266,-426,0,0,0,0,0,0,0,0,0,-1,1490,1450,0,0
273,-426,0,0,0,0,0,0,0,0,0,-1,1497,1450,0,0
280,-426,0,0,0,0,0,0,0,0,0,-1,1504,1450,0,0
287,-426,0,0,0,0,0,0,0,0,0,-1,1511,1450,0,0
294,-426,0,0,0,0,0,0,0,0,0,-1,1518,1450,0,0
301,-426,0,0,0,0,0,0,0,0,0,-1,1525,1450,0,0
308,-426,0,0,0,0,0,0,0,0,0,-1,1532,1450,0,0
315,-426,0,0,0,0,0,0,0,0,0,-1,1539,1450,0,0
322,-426,0,0,0,0,0,0,0,0,0,-1,1546,1450,0,0
329,-426,0,0,0,0,0,0,0,0,0,-1,1553,1450,0,0
336,-426,0,0,0,0,0,0,0,0,0,-1,1560,1450,0,0
343,-426,0,0,0,0,0,0,0,0,0,-1,1567,1450,0,0
350,-426,0,0,0,0,0,0,0,0,0,-1,1574,1450,0,0
357,-426,0,0,0,0,0,0,0,0,0,-1,1581,1450,0,0
364,-426,0,0,0,0,0,0,0,0,0,-1,1588,1450,0,0
371,-426,0,0,0,0,0,0,0,0,0,-1,1595,1450,0,0
378,-426,0,0,0,0,0,0,0,0,0,-1,1602,1450,0,0
385,-426,0,0,0,0,0,0,0,0,0,-1,1609,1450,0,0
392,-426,0,0,0,0,0,0,0,0,0,-1,1616,1450,0,0
399,-426,0,0,0,0,0,0,0,0,0,-1,1623,1450,0,0
406,-426,0,0,0,0,0,0,0,0,0,-1,1630,1450,0,0
413,-426,0,0,0,0,0,0,0,0,0,-1,1637,1450,0,0
420,-426,0,0,0,0,0,0,0,0,0,-1,1644,1450,0,0
427,-426,0,0,0,0,0,0,0,0,0,-1,1651,1450,0,0
434,-426,0,0,0,0,0,0,0,0,0,-1,1658,1450,0,0
441,-426,0,0,0,0,0,0,0,0,0,-1,1665,1450,0,0
448,-426,0,0,0,0,0,0,0,0,0,-1,1672,1450,0,0
455,-426,0,0,0,0,0,0,0,0,0,-1,1679,1450,0,0
462,-426,0,0,0,0,0,0,0,0,0,-1,1686,1450,0,0
469,-426,0,0,0,0,0,0,0,0,0,-1,1693,1450,0,0
476,-426,0,0,0,0,0,0,0,0,0,-1,1700,1450,0,0
483,-426,0,0,0,0,0,0,0,0,0,-1,1707,1450,0,0
490,-426,0,0,0,0,0,0,0,0,0,-1,1714,1450,0,0
497,-426,0,0,0,0,0,0,0,0,0,-1,1721,1450,0,0
504,-426,20.6873,3.38367,0,0,0,0,0,0,0,-1,1728,1450,20.6873,-3.38361
511,-426,19.6676,3.53748,0,0,0,0,0,0,0,-1,1735,1450,19.6676,-3.53749
518,-426,18.6853,3.32288,0,0,0,0,0,0,0,-1,1742,1450,18.6853,-3.3229
525,-426,18.9552,2.71033,0,0,0,0,0,0,0,-1,1749,1450,18.9552,-2.71034
532,-426,19.4333,2.70764,0,0,0,0,0,0,0,-1,1756,1450,19.4334,-2.70764
539,-426,25.1482,2.56287,0,0,0,0,0,0,0,-1,1763,1450,25.1482,-2.56286
546,-426,24.1136,3.75659,0,0,0,0,0,0,0,-1,1770,1450,24.1136,-3.7566
553,-426,23.0791,4.95032,0,0,0,0,0,0,0,-1,1777,1450,23.0791,-4.95034
560,-426,12.9688,11.8289,0,0,0,0,0,0,0,-1,1784,1450,12.9688,-11.8288
567,-426,13.6388,11.5623,0,0,0,0,0,0,0,-1,1791,1450,13.6388,-11.5623
574,-426,14.3943,11.0286,0,0,0,0,0,0,0,-1,1798,1450,14.3942,-11.0285
581,-426,16.3879,11.4653,0,0,0,0,0,0,0,-1,1805,1450,16.3879,-11.4653
588,-426,18.1212,12.5547,0,0,0,0,0,0,0,-1,1812,1450,18.1212,-12.5547
595,-426,30.0474,21.0964,0,0,0,0,0,0,0,-1,1819,1450,30.0474,-21.0965
602,-426,34.0541,23.5343,0,0,0,0,0,0,0,-1,1826,1450,34.0541,-23.5343
609,-426,34.0399,22.7784,0.00290086,0.00214352,-0.00191026,0.00446962,0.000574755,-0.687551,0.00280784,0.0151943,1833,1450,34.0399,-22.7785
616,-426,34.0103,22.0317,0.00228108,0.00137247,-0.00134165,0.00324326,0.000410294,-0.62215,0.00203921,0.0154934,1840,1450,34.0103,-22.0317
623,-426,33.9825,21.3088,0.00197604,0.000838245,-0.000963838,0.00252635,0.000287933,-0.518792,0.00159693,0.0126987,1847,1450,33.9826,-21.3089
630,-426,34.0017,20.5824,0.00189546,0.000379565,-0.000725544,0.00218675,8.82754e-05,-0.381779,0.00142932,0.0133342,1854,1450,34.0017,-20.5825
637,-426,33.9579,19.8544,0.0019391,9.24091e-05,-0.000562561,0.00209698,-6.54677e-05,-0.273601,0.00142031,0.0140288,1861,1450,33.9579,-19.8544
644,-426,33.8888,19.1285,0.00222356,-0.000188284,-0.000388239,0.00228452,-0.000249239,-0.155732,0.00161252,0.0135942,1868,1450,33.8888,-19.1285
651,-426,33.8159,18.4154,0.00265128,-0.000340973,-0.000320511,0.00268522,-0.000374919,-0.105519,0.00192732,0.0129199,1875,1450,33.8159,-18.4154
658,-426,33.791,17.6188,0.00323668,-0.000534019,-0.000182798,0.00324552,-0.00054286,-0.0483274,0.00236549,0.0140968,1882,1450,33.7911,-17.6188
665,-426,33.8591,16.7507,0.00392125,-0.00090526,0.000171024,0.0039273,-0.000911313,0.0353751,0.00296896,0.0401822,1889,1450,33.8591,-16.7508
672,-426,34.0879,16.0024,0,0,0,0,0,0,0,-1,1896,1450,34.0879,-16.0025
679,-426,17.1522,8.15784,0,0,0,0,0,0,0,-1,1903,1450,17.1522,-8.15784
686,-426,13.5326,8.03711,0,0,0,0,0,0,0,-1,1910,1450,13.5326,-8.03717
693,-426,11.8607,6.45215,0,0,0,0,0,0,0,-1,1917,1450,11.8607,-6.45215
700,-426,9.24304,2.95447,0,0,0,0,0,0,0,-1,1924,1450,9.24305,-2.95442
707,-426,8.44519,-1.21448,0,0,0,0,0,0,0,-1,1931,1450,8.44514,1.21454
714,-426,0,0,0,0,0,0,0,0,0,-1,1938,1450,0,0
721,-426,0,0,0,0,0,0,0,0,0,-1,1945,1450,0,0
728,-426,0,0,0,0,0,0,0,0,0,-1,1952,1450,0,0
735,-426,0,0,0,0,0,0,0,0,0,-1,1959,1450,0,0
742,-426,0,0,0,0,0,0,0,0,0,-1,1966,1450,0,0
749,-426,0,0,0,0,0,0,0,0,0,-1,1973,1450,0,0
756,-426,0,0,0,0,0,0,0,0,0,-1,1980,1450,0,0
763,-426,0,0,0,0,0,0,0,0,0,-1,1987,1450,0,0
770,-426,0,0,0,0,0,0,0,0,0,-1,1994,1450,0,0
777,-426,0,0,0,0,0,0,0,0,0,-1,2001,1450,0,0
784,-426,0,0,0,0,0,0,0,0,0,-1,2008,1450,0,0
791,-426,0,0,0,0,0,0,0,0,0,-1,2015,1450,0,0
798,-426,0,0,0,0,0,0,0,0,0,-1,2022,1450,0,0
805,-426,0,0,0,0,0,0,0,0,0,-1,2029,1450,0,0
812,-426,0,0,0,0,0,0,0,0,0,-1,2036,1450,0,0
-700,-433,0,0,0,0,0,0,0,0,0,-1,524,1457,0,0
-693,-433,0,0,0,0,0,0,0,0,0,-1,531,1457,0,0
-686,-433,0,0,0,0,0,0,0,0,0,-1,538,1457,0,0
-679,-433,0,0,0,0,0,0,0,0,0,-1,545,1457,0,0
-672,-433,0,0,0,0,0,0,0,0,0,-1,552,1457,0,0
-665,-433,0,0,0,0,0,0,0,0,0,-1,559,1457,0,0
-658,-433,0,0,0,0,0,0,0,0,0,-1,566,1457,0,0
-651,-433,0,0,0,0,0,0,0,0,0,-1,573,1457,0,0
-644,-433,0,0,0,0,0,0,0,0,0,-1,580,1457,0,0
-637,-433,0,0,0,0,0,0,0,0,0,-1,587,1457,0,0
-630,-433,0,0,0,0,0,0,0,0,0,-1,594,1457,0,0
-623,-433,0,0,0,0,0,0,0,0,0,-1,601,1457,0,0
-616,-433,0,0,0,0,0,0,0,0,0,-1,608,1457,0,0
-609,-433,0,0,0,0,0,0,0,0,0,-1,615,1457,0,0
-602,-433,0,0,0,0,0,0,0,0,0,-1,622,1457,0,0
-595,-433,0,0,0,0,0,0,0,0,0,-1,629,1457,0,0
-588,-433,-10.3756,-0.467041,0,0,0,0,0,0,0,-1,636,1457,-10.3756,0.467081
-581,-433,-8.12201,0.884033,0,0,0,0,0,0,0,-1,643,1457,-8.12204,-0.884056
-574,-433,-5.86847,2.23523,0,0,0,0,0,0,0,-1,650,1457,-5.86844,-2.23519
-567,-433,-5.42255,1.16833,0,0,0,0,0,0,0,-1,657,1457,-5.42254,-1.1683
-560,-433,-6.84027,1.86414,0,0,0,0,0,0,0,-1,664,1457,-6.84026,-1.86412
-553,-433,-5.74017,1.79163,0,0,0,0,0,0,0,-1,671,1457,-5.74015,-1.79166
-546,-433,-8.12451,7.35095,0,0,0,0,0,0,0,-1,678,1457,-8.12451,-7.35097
-539,-433,-7.3136,8.75659,0,0,0,0,0,0,0,-1,685,1457,-7.31362,-8.75659
-532,-433,-14.5645,14.8475,0,0,0,0,0,0,0,-1,692,1457,-14.5645,-14.8475
-525,-433,-15.8953,16.8268,0,0,0,0,0,0,0,-1,699,1457,-15.8953,-16.8268
-518,-433,-15.8739,17.6074,0.00382279,0.00360708,0.00376426,0.00748074,-5.08723e-05,0.771075,0.0050042,0.0192416,706,1457,-15.8739,-17.6075
-511,-433,-15.9088,18.3645,0.00311603,0.0028325,0.0029856,0.00596322,-1.46928e-05,0.761675,0.00398039,0.0171376,713,1457,-15.9087,-18.3645
-504,-433,-15.9456,19.1362,0.00247879,0.00221455,0.00230395,0.0046544,3.89365e-05,0.756758,0.00309004,0.013658,720,1457,-15.9456,-19.1363
-497,-433,-15.9638,19.9114,0.00194157,0.00176417,0.00173628,0.00359142,0.000114329,0.759877,0.00235709,0.0145703,727,1457,-15.9638,-19.9114
-490,-433,-16.014,20.6458,0.00148396,0.00144451,0.00126442,0.00272881,0.000199665,0.777599,0.00175644,0.0166434,734,1457,-16.014,-20.6458
-483,-433,-16.0616,21.4348,0.00119816,0.00134226,0.000976158,0.00224902,0.000291396,0.822238,0.00141227,0.016855,741,1457,-16.0617,-21.4349
-476,-433,-16.0891,22.189,0.00104473,0.00145215,0.000855615,0.00212797,0.000368907,0.902265,0.00131307,0.0112883,748,1457,-16.0891,-22.189
-469,-433,-16.14,22.9498,0.00104454,0.00172775,0.000873974,0.00232451,0.000447785,0.9717,0.00142408,0.0112853,755,1457,-16.1399,-22.9498
-462,-433,-16.2096,23.7219,0,0,0,0,0,0,0,-1,762,1457,-16.2096,-23.722
-455,-433,-13.8576,22.7446,0,0,0,0,0,0,0,-1,769,1457,-13.8576,-22.7446
-448,-433,-6.94812,14.5563,0,0,0,0,0,0,0,-1,776,1457,-6.94809,-14.5562
-441,-433,-9.97485,14.0258,0,0,0,0,0,0,0,-1,783,1457,-9.97488,-14.0257
-434,-433,-9.41205,14.2297,0,0,0,0,0,0,0,-1,790,1457,-9.41205,-14.2297
-427,-433,-8.67419,13.6827,0,0,0,0,0,0,0,-1,797,1457,-8.67422,-13.6827
-420,-433,-5.74658,9.49121,0,0,0,0,0,0,0,-1,804,1457,-5.7466,-9.49119
-413,-433,-3.63074,5.5813,0,0,0,0,0,0,0,-1,811,1457,-3.63072,-5.58129
-406,-433,-12.3472,4.69373,0,0,0,0,0,0,0,-1,818,1457,-12.3472,-4.69374
-399,-433,-12.055,2.83594,0,0,0,0,0,0,0,-1,825,1457,-12.055,-2.83594
-392,-433,-12.9772,1.6228,0,0,0,0,0,0,0,-1,832,1457,-12.9772,-1.62282
-385,-433,-13.7999,0.514771,0,0,0,0,0,0,0,-1,839,1457,-13.7999,-0.514788
-378,-433,0,0,0,0,0,0,0,0,0,-1,846,1457,0,0
-371,-433,0,0,0,0,0,0,0,0,0,-1,853,1457,0,0
-364,-433,0,0,0,0,0,0,0,0,0,-1,860,1457,0,0
-357,-433,0,0,0,0,0,0,0,0,0,-1,867,1457,0,0
-350,-433,0,0,0,0,0,0,0,0,0,-1,874,1457,0,0
-343,-433,0,0,0,0,0,0,0,0,0,-1,881,1457,0,0
-336,-433,0,0,0,0,0,0,0,0,0,-1,888,1457,0,0
-329,-433,0,0,0,0,0,0,0,0,0,-1,895,1457,0,0
-322,-433,0,0,0,0,0,0,0,0,0,-1,902,1457,0,0
-315,-433,0,0,0,0,0,0,0,0,0,-1,909,1457,0,0
-308,-433,0,0,0,0,0,0,0,0,0,-1,916,1457,0,0
-301,-433,0,0,0,0,0,0,0,0,0,-1,923,1457,0,0
-294,-433,0,0,0,0,0,0,0,0,0,-1,930,1457,0,0
-287,-433,0,0,0,0,0,0,0,0,0,-1,937,1457,0,0
-280,-433,0,0,0,0,0,0,0,0,0,-1,944,1457,0,0
-273,-433,0,0,0,0,0,0,0,0,0,-1,951,1457,0,0
-266,-433,0,0,0,0,0,0,0,0,0,-1,958,1457,0,0
-259,-433,0,0,0,0,0,0,0,0,0,-1,965,1457,0,0
-252,-433,0,0,0,0,0,0,0,0,0,-1,972,1457,0,0
-245,-433,0,0,0,0,0,0,0,0,0,-1,979,1457,0,0
-238,-433,0,0,0,0,0,0,0,0,0,-1,986,1457,0,0
-231,-433,0,0,0,0,0,0,0,0,0,-1,993,1457,0,0
-224,-433,0,0,0,0,0,0,0,0,0,-1,1000,1457,0,0
-217,-433,0,0,0,0,0,0,0,0,0,-1,1007,1457,0,0
-210,-433,0,0,0,0,0,0,0,0,0,-1,1014,1457,0,0
-203,-433,0,0,0,0,0,0,0,0,0,-1,1021,1457,0,0
-196,-433,0,0,0,0,0,0,0,0,0,-1,1028,1457,0,0
-189,-433,0,0,0,0,0,0,0,0,0,-1,1035,1457,0,0
-182,-433,0,0,0,0,0,0,0,0,0,-1,1042,1457,0,0
-175,-433,0,0,0,0,0,0,0,0,0,-1,1049,1457,0,0
-168,-433,0,0,0,0,0,0,0,0,0,-1,1056,1457,0,0
-161,-433,0,0,0,0,0,0,0,0,0,-1,1063,1457,0,0
-154,-433,0,0,0,0,0,0,0,0,0,-1,1070,1457,0,0
-147,-433,0,0,0,0,0,0,0,0,0,-1,1077,1457,0,0
-140,-433,0,0,0,0,0,0,0,0,0,-1,1084,1457,0,0
-133,-433,0,0,0,0,0,0,0,0,0,-1,1091,1457,0,0
-126,-433,0,0,0,0,0,0,0,0,0,-1,1098,1457,0,0
-119,-433,0,0,0,0,0,0,0,0,0,-1,1105,1457,0,0
-112,-433,0,0,0,0,0,0,0,0,0,-1,1112,1457,0,0
-105,-433,0,0,0,0,0,0,0,0,0,-1,1119,1457,0,0
-98,-433,0,0,0,0,0,0,0,0,0,-1,1126,1457,0,0
-91,-433,0,0,0,0,0,0,0,0,0,-1,1133,1457,0,0
-84,-433,0,0,0,0,0,0,0,0,0,-1,1140,1457,0,0
-77,-433,0,0,0,0,0,0,0,0,0,-1,1147,1457,0,0
-70,-433,0,0,0,0,0,0,0,0,0,-1,1154,1457,0,0
-63,-433,0,0,0,0,0,0,0,0,0,-1,1161,1457,0,0
-56,-433,0,0,0,0,0,0,0,0,0,-1,1168,1457,0,0
-49,-433,0,0,0,0,0,0,0,0,0,-1,1175,1457,0,0
-42,-433,0,0,0,0,0,0,0,0,0,-1,1182,1457,0,0
-35,-433,0,0,0,0,0,0,0,0,0,-1,1189,1457,0,0
-28,-433,0,0,0,0,0,0,0,0,0,-1,1196,1457,0,0
-21,-433,0,0,0,0,0,0,0,0,0,-1,1203,1457,0,0
-14,-433,0,0,0,0,0,0,0,0,0,-1,1210,1457,0,0
-7,-433,0,0,0,0,0,0,0,0,0,-1,1217,1457,0,0
0,-433,0,0,0,0,0,0,0,0,0,-1,1224,1457,0,0
7,-433,0,0,0,0,0,0,0,0,0,-1,1231,1457,0,0
14,-433,0,0,0,0,0,0,0,0,0,-1,1238,1457,0,0
21,-433,0,0,0,0,0,0,0,0,0,-1,1245,1457,0,0
28,-433,0,0,0,0,0,0,0,0,0,-1,1252,1457,0,0
35,-433,0,0,0,0,0,0,0,0,0,-1,1259,1457,0,0
42,-433,0,0,0,0,0,0,0,0,0,-1,1266,1457,0,0
49,-433,0,0,0,0,0,0,0,0,0,-1,1273,1457,0,0
56,-433,0,0,0,0,0,0,0,0,0,-1,1280,1457,0,0
63,-433,0,0,0,0,0,0,0,0,0,-1,1287,1457,0,0
70,-433,0,0,0,0,0,0,0,0,0,-1,1294,1457,0,0
77,-433,0,0,0,0,0,0,0,0,0,-1,1301,1457,0,0
84,-433,0,0,0,0,0,0,0,0,0,-1,1308,1457,0,0
91,-433,0,0,0,0,0,0,0,0,0,-1,1315,1457,0,0
98,-433,0,0,0,0,0,0,0,0,0,-1,1322,1457,0,0
105,-433,0,0,0,0,0,0,0,0,0,-1,1329,1457,0,0
112,-433,0,0,0,0,0,0,0,0,0,-1,1336,1457,0,0
119,-433,0,0,0,0,0,0,0,0,0,-1,1343,1457,0,0
126,-433,0,0,0,0,0,0,0,0,0,-1,1350,1457,0,0
133,-433,0,0,0,0,0,0,0,0,0,-1,1357,1457,0,0
140,-433,0,0,0,0,0,0,0,0,0,-1,1364,1457,0,0
147,-433,0,0,0,0,0,0,0,0,0,-1,1371,1457,0,0
154,-433,0,0,0,0,0,0,0,0,0,-1,1378,1457,0,0
161,-433,0,0,0,0,0,0,0,0,0,-1,1385,1457,0,0
168,-433,0,0,0,0,0,0,0,0,0,-1,1392,1457,0,0
175,-433,0,0,0,0,0,0,0,0,0,-1,1399,1457,0,0
182,-433,0,0,0,0,0,0,0,0,0,-1,1406,1457,0,0
189,-433,0,0,0,0,0,0,0,0,0,-1,1413,1457,0,0
196,-433,0,0,0,0,0,0,0,0,0,-1,1420,1457,0,0
203,-433,0,0,0,0,0,0,0,0,0,-1,1427,1457,0,0
210,-433,0,0,0,0,0,0,0,0,0,-1,1434,1457,0,0
217,-433,0,0,0,0,0,0,0,0,0,-1,1441,1457,0,0
224,-433,0,0,0,0,0,0,0,0,0,-1,1448,1457,0,0
231,-433,0,0,0,0,0,0,0,0,0,-1,1455,1457,0,0
238,-433,0,0,0,0,0,0,0,0,0,-1,1462,1457,0,0
245,-433,0,0,0,0,0,0,0,0,0,-1,1469,1457,0,0
252,-433,0,0,0,0,0,0,0,0,0,-1,1476,1457,0,0
259,-433,0,0,0,0,0,0,0,0,0,-1,1483,1457,0,0
266,-433,0,0,0,0,0,0,0,0,0,-1,1490,1457,0,0
273,-433,0,0,0,0,0,0,0,0,0,-1,1497,1457,0,0
280,-433,0,0,0,0,0,0,0,0,0,-1,1504,1457,0,0
287,-433,0,0,0,0,0,0,0,0,0,-1,1511,1457,0,0
294,-433,0,0,0,0,0,0,0,0,0,-1,1518,1457,0,0
301,-433,0,0,0,0,0,0,0,0,0,-1,1525,1457,0,0
308,-433,0,0,0,0,0,0,0,0,0,-1,1532,1457,0,0
315,-433,0,0,0,0,0,0,0,0,0,-1,1539,1457,0,0
322,-433,0,0,0,0,0,0,0,0,0,-1,1546,1457,0,0
329,-433,0,0,0,0,0,0,0,0,0,-1,1553,1457,0,0
336,-433,0,0,0,0,0,0,0,0,0,-1,1560,1457,0,0
343,-433,0,0,0,0,0,0,0,0,0,-1,1567,1457,0,0
350,-433,0,0,0,0,0,0,0,0,0,-1,1574,1457,0,0
357,-433,0,0,0,0,0,0,0,0,0,-1,1581,1457,0,0
364,-433,0,0,0,0,0,0,0,0,0,-1,1588,1457,0,0
371,-433,0,0,0,0,0,0,0,0,0,-1,1595,1457,0,0
378,-433,0,0,0,0,0,0,0,0,0,-1,1602,1457,0,0
385,-433,0,0,0,0,0,0,0,0,0,-1,1609,1457,0,0
392,-433,0,0,0,0,0,0,0,0,0,-1,1616,1457,0,0
399,-433,0,0,0,0,0,0,0,0,0,-1,1623,1457,0,0
406,-433,0,0,0,0,0,0,0,0,0,-1,1630,1457,0,0
413,-433,0,0,0,0,0,0,0,0,0,-1,1637,1457,0,0
420,-433,0,0,0,0,0,0,0,0,0,-1,1644,1457,0,0
427,-433,0,0,0,0,0,0,0,0,0,-1,1651,1457,0,0
434,-433,0,0,0,0,0,0,0,0,0,-1,1658,1457,0,0
441,-433,0,0,0,0,0,0,0,0,0,-1,1665,1457,0,0
448,-433,0,0,0,0,0,0,0,0,0,-1,1672,1457,0,0
455,-433,0,0,0,0,0,0,0,0,0,-1,1679,1457,0,0
462,-433,0,0,0,0,0,0,0,0,0,-1,1686,1457,0,0
469,-433,0,0,0,0,0,0,0,0,0,-1,1693,1457,0,0
476,-433,0,0,0,0,0,0,0,0,0,-1,1700,1457,0,0
483,-433,0,0,0,0,0,0,0,0,0,-1,1707,1457,0,0
490,-433,0,0,0,0,0,0,0,0,0,-1,1714,1457,0,0
497,-433,0,0,0,0,0,0,0,0,0,-1,1721,1457,0,0
504,-433,19.9058,3.03662,0,0,0,0,0,0,0,-1,1728,1457,19.9058,-3.03656
511,-433,19.0145,3.07837,0,0,0,0,0,0,0,-1,1735,1457,19.0146,-3.07834
518,-433,18.071,3.06433,0,0,0,0,0,0,0,-1,1742,1457,18.071,-3.06432
525,-433,17.2048,3.37085,0,0,0,0,0,0,0,-1,1749,1457,17.2049,-3.37083
532,-433,16.5637,3.36646,0,0,0,0,0,0,0,-1,1756,1457,16.5637,-3.36643
539,-433,15.9193,3.30396,0,0,0,0,0,0,0,-1,1763,1457,15.9193,-3.30394
546,-433,23.1903,4.81775,0,0,0,0,0,0,0,-1,1770,1457,23.1903,-4.81775
553,-433,13.9674,11.5781,0,0,0,0,0,0,0,-1,1777,1457,13.9674,-11.5781
560,-433,13.9855,11.7341,0,0,0,0,0,0,0,-1,1784,1457,13.9855,-11.7341
567,-433,13.9264,11.3364,0,0,0,0,0,0,0,-1,1791,1457,13.9263,-11.3364
574,-433,15.5305,12.3673,0,0,0,0,0,0,0,-1,1798,1457,15.5305,-12.3673
581,-433,16.6405,12.1898,0,0,0,0,0,0,0,-1,1805,1457,16.6405,-12.1898
588,-433,26.4386,19.7478,0,0,0,0,0,0,0,-1,1812,1457,26.4386,-19.7478
595,-433,33.0907,24.3896,0,0,0,0,0,0,0,-1,1819,1457,33.0907,-24.3897
602,-433,33.3185,23.5992,0.00348961,0.00265268,-0.00244303,0.00554975,0.000592532,-0.700576,0.00351899,0.0292531,1826,1457,33.3184,-23.5992
609,-433,33.3385,22.8182,0.00284139,0.00180098,-0.00177948,0.00417514,0.000467227,-0.643194,0.00264149,0.0172088,1833,1457,33.3385,-22.8182
616,-433,33.2931,22.0789,0.0023037,0.00113272,-0.00126857,0.00311538,0.000321043,-0.569195,0.00197861,0.0141937,1840,1457,33.2931,-22.0789
623,-433,33.2574,21.3453,0.00207377,0.000627363,-0.000913428,0.00251563,0.000185502,-0.450555,0.0016188,0.0111061,1847,1457,33.2575,-21.3453
630,-433,33.2417,20.624,0.00203253,0.000163156,-0.000671019,0.00224845,-5.27685e-05,-0.311322,0.00151686,0.0142654,1854,1457,33.2416,-20.624
637,-433,33.2007,19.911,0.0020991,-0.000147775,-0.000494425,0.00220309,-0.000251761,-0.207295,0.00155944,0.0153152,1861,1457,33.2007,-19.911
644,-433,33.1509,19.2031,0.00240571,-0.000398969,-0.00033118,0.00244429,-0.000437545,-0.115957,0.00179325,0.0163165,1868,1457,33.1509,-19.2032
651,-433,33.1017,18.4436,0.00290042,-0.00049017,-0.000325616,0.00293141,-0.000521158,-0.0948796,0.00214916,0.012738,1875,1457,33.1016,-18.4436
658,-433,33.024,17.635,0.00358541,-0.000557912,-0.000262403,0.00360196,-0.000574464,-0.0629961,0.00261392,0.0432521,1882,1457,33.024,-17.635
665,-433,33.3538,16.6033,0,0,0,0,0,0,0,-1,1889,1457,33.3538,-16.6033
672,-433,18.115,8.7207,0,0,0,0,0,0,0,-1,1896,1457,18.115,-8.72074
679,-433,17.2969,9.6355,0,0,0,0,0,0,0,-1,1903,1457,17.2968,-9.63548
686,-433,13.6356,8.61694,0,0,0,0,0,0,0,-1,1910,1457,13.6356,-8.61694
693,-433,13.4081,8.39624,0,0,0,0,0,0,0,-1,1917,1457,13.4081,-8.39624
700,-433,7.16809,-1.5166,0,0,0,0,0,0,0,-1,1924,1457,7.16806,1.51656
707,-433,8.68359,-2.82202,0,0,0,0,0,0,0,-1,1931,1457,8.68359,2.82197
714,-433,0,0,0,0,0,0,0,0,0,-1,1938,1457,0,0
721,-433,0,0,0,0,0,0,0,0,0,-1,1945,1457,0,0
728,-433,0,0,0,0,0,0,0,0,0,-1,1952,1457,0,0
735,-433,0,0,0,0,0,0,0,0,0,-1,1959,1457,0,0
742,-433,0,0,0,0,0,0,0,0,0,-1,1966,1457,0,0
749,-433,0,0,0,0,0,0,0,0,0,-1,1973,1457,0,0
756,-433,0,0,0,0,0,0,0,0,0,-1,1980,1457,0,0
763,-433,0,0,0,0,0,0,0,0,0,-1,1987,1457,0,0
770,-433,0,0,0,0,0,0,0,0,0,-1,1994,1457,0,0
777,-433,0,0,0,0,0,0,0,0,0,-1,2001,1457,0,0
784,-433,0,0,0,0,0,0,0,0,0,-1,2008,1457,0,0
791,-433,0,0,0,0,0,0,0,0,0,-1,2015,1457,0,0
798,-433,0,0,0,0,0,0,0,0,0,-1,2022,1457,0,0
805,-433,0,0,0,0,0,0,0,0,0,-1,2029,1457,0,0
812,-433,0,0,0,0,0,0,0,0,0,-1,2036,1457,0,0
-700,-440,0,0,0,0,0,0,0,0,0,-1,524,1464,0,0
-693,-440,0,0,0,0,0,0,0,0,0,-1,531,1464,0,0
-686,-440,0,0,0,0,0,0,0,0,0,-1,538,1464,0,0
-679,-440,0,0,0,0,0,0,0,0,0,-1,545,1464,0,0
-672,-440,0,0,0,0,0,0,0,0,0,-1,552,1464,0,0
-665,-440,0,0,0,0,0,0,0,0,0,-1,559,1464,0,0
-658,-440,0,0,0,0,0,0,0,0,0,-1,566,1464,0,0
-651,-440,0,0,0,0,0,0,0,0,0,-1,573,1464,0,0
-644,-440,0,0,0,0,0,0,0,0,0,-1,580,1464,0,0
-637,-440,0,0,0,0,0,0,0,0,0,-1,587,1464,0,0
-630,-440,0,0,0,0,0,0,0,0,0,-1,594,1464,0,0
-623,-440,0,0,0,0,0,0,0,0,0,-1,601,1464,0,0
-616,-440,0,0,0,0,0,0,0,0,0,-1,608,1464,0,0
-609,-440,0,0,0,0,0,0,0,0,0,-1,615,1464,0,0
-602,-440,0,0,0,0,0,0,0,0,0,-1,622,1464,0,0
-595,-440,0,0,0,0,0,0,0,0,0,-1,629,1464,0,0
-588,-440,0,0,0,0,0,0,0,0,0,-1,636,1464,0,0
-581,-440,-8.97278,0.254517,0,0,0,0,0,0,0,-1,643,1464,-8.97276,-0.254526
-574,-440,-7.00818,-0.918579,0,0,0,0,0,0,0,-1,650,1464,-7.00817,0.918538
-567,-440,-6.12152,-0.0766602,0,0,0,0,0,0,0,-1,657,1464,-6.12151,0.0767097
-560,-440,-5.46747,0.82251,0,0,0,0,0,0,0,-1,664,1464,-5.46748,-0.822551
-553,-440,-6.84729,0.0831299,0,0,0,0,0,0,0,-1,671,1464,-6.84732,-0.083136
-546,-440,-5.63446,-0.153198,0,0,0,0,0,0,0,-1,678,1464,-5.63447,0.153147
-539,-440,-6.80017,8.58252,0,0,0,0,0,0,0,-1,685,1464,-6.80015,-8.58257
-532,-440,-9.69647,11.3262,0,0,0,0,0,0,0,-1,692,1464,-9.69649,-11.3262
-525,-440,-15.213,16.6753,0,0,0,0,0,0,0,-1,699,1464,-15.213,-16.6753
-518,-440,-15.1429,17.5426,0.00467897,0.00466593,0.00492106,0.00959351,-0.000248613,0.784736,0.00648013,0.0309184,706,1464,-15.143,-17.5426
-511,-440,-15.1407,18.4049,0.00381405,0.00369461,0.00393236,0.00768715,-0.000178484,0.777805,0.00518528,0.0167293,713,1464,-15.1408,-18.405
-504,-440,-15.1794,19.1713,0.00300892,0.00287256,0.00304639,0.00598789,-0.000106415,0.77421,0.00402787,0.0188146,720,1464,-15.1795,-19.1713
-497,-440,-15.2103,19.9071,0.00230366,0.00222803,0.00228545,0.00455161,-1.99203e-05,0.777126,0.00304107,0.0223895,727,1464,-15.2102,-19.9071
-490,-440,-15.2291,20.6466,0.00169216,0.0017279,0.00163297,0.0033431,7.6963e-05,0.790869,0.00220353,0.0239752,734,1464,-15.2291,-20.6467
-483,-440,-15.2977,21.4589,0.00127845,0.00143361,0.00117413,0.00253272,0.000179338,0.818387,0.00163199,0.0209291,741,1464,-15.2977,-21.4589
-476,-440,-15.3345,22.2111,0.00102419,0.00137549,0.000911417,0.00212803,0.00027165,0.88059,0.00133736,0.0139682,748,1464,-15.3344,-22.211
-469,-440,-15.3748,22.9856,0.000904911,0.00152592,0.000813988,0.00208661,0.000344215,0.967609,0.00129172,0.0130665,755,1464,-15.3748,-22.9856
-462,-440,-15.4534,23.7352,0.00100545,0.00196373,0.000960171,0.00255767,0.000411509,1.01683,0.00158584,0.0186251,762,1464,-15.4534,-23.7352
-455,-440,-15.46,24.5519,0,0,0,0,0,0,0,-1,769,1464,-15.46,-24.5519
-448,-440,-12.8837,23.5623,0,0,0,0,0,0,0,-1,776,1464,-12.8837,-23.5623
-441,-440,-7.28583,14.7465,0,0,0,0,0,0,0,-1,783,1464,-7.28584,-14.7464
-434,-440,-8.33636,14.5024,0,0,0,0,0,0,0,-1,790,1464,-8.33638,-14.5025
-427,-440,-8.28094,14.2512,0,0,0,0,0,0,0,-1,797,1464,-8.28094,-14.2512
-420,-440,-6.86603,8.09216,0,0,0,0,0,0,0,-1,804,1464,-6.86602,-8.09222
-413,-440,-3.46796,5.72278,0,0,0,0,0,0,0,-1,811,1464,-3.46797,-5.72276
-406,-440,-5.2887,5.20264,0,0,0,0,0,0,0,-1,818,1464,-5.2887,-5.20261
-399,-440,-12.7318,3.94421,0,0,0,0,0,0,0,-1,825,1464,-12.7318,-3.94419
-392,-440,-13.5565,2.51855,0,0,0,0,0,0,0,-1,832,1464,-13.5565,-2.51861
-385,-440,-14.6741,1.39795,0,0,0,0,0,0,0,-1,839,1464,-14.6741,-1.39801
-378,-440,-15.8063,0.293457,0,0,0,0,0,0,0,-1,846,1464,-15.8063,-0.293412
-371,-440,0,0,0,0,0,0,0,0,0,-1,853,1464,0,0
-364,-440,0,0,0,0,0,0,0,0,0,-1,860,1464,0,0
-357,-440,0,0,0,0,0,0,0,0,0,-1,867,1464,0,0
-350,-440,0,0,0,0,0,0,0,0,0,-1,874,1464,0,0
-343,-440,0,0,0,0,0,0,0,0,0,-1,881,1464,0,0
-336,-440,0,0,0,0,0,0,0,0,0,-1,888,1464,0,0
-329,-440,0,0,0,0,0,0,0,0,0,-1,895,1464,0,0
-322,-440,0,0,0,0,0,0,0,0,0,-1,902,1464,0,0
-315,-440,0,0,0,0,0,0,0,0,0,-1,909,1464,0,0
-308,-440,0,0,0,0,0,0,0,0,0,-1,916,1464,0,0
-301,-440,0,0,0,0,0,0,0,0,0,-1,923,1464,0,0
-294,-440,0,0,0,0,0,0,0,0,0,-1,930,1464,0,0
-287,-440,0,0,0,0,0,0,0,0,0,-1,937,1464,0,0
-280,-440,0,0,0,0,0,0,0,0,0,-1,944,1464,0,0
-273,-440,0,0,0,0,0,0,0,0,0,-1,951,1464,0,0
-266,-440,0,0,0,0,0,0,0,0,0,-1,958,1464,0,0
-259,-440,0,0,0,0,0,0,0,0,0,-1,965,1464,0,0
-252,-440,0,0,0,0,0,0,0,0,0,-1,972,1464,0,0
-245,-440,0,0,0,0,0,0,0,0,0,-1,979,1464,0,0
-238,-440,0,0,0,0,0,0,0,0,0,-1,986,1464,0,0
-231,-440,0,0,0,0,0,0,0,0,0,-1,993,1464,0,0
-224,-440,0,0,0,0,0,0,0,0,0,-1,1000,1464,0,0
-217,-440,0,0,0,0,0,0,0,0,0,-1,1007,1464,0,0
-210,-440,0,0,0,0,0,0,0,0,0,-1,1014,1464,0,0
-203,-440,0,0,0,0,0,0,0,0,0,-1,1021,1464,0,0
-196,-440,0,0,0,0,0,0,0,0,0,-1,1028,1464,0,0
-189,-440,0,0,0,0,0,0,0,0,0,-1,1035,1464,0,0
-182,-440,0,0,0,0,0,0,0,0,0,-1,1042,1464,0,0
-175,-440,0,0,0,0,0,0,0,0,0,-1,1049,1464,0,0
-168,-440,0,0,0,0,0,0,0,0,0,-1,1056,1464,0,0
-161,-440,0,0,0,0,0,0,0,0,0,-1,1063,1464,0,0
-154,-440,0,0,0,0,0,0,0,0,0,-1,1070,1464,0,0
-147,-440,0,0,0,0,0,0,0,0,0,-1,1077,1464,0,0
-140,-440,0,0,0,0,0,0,0,0,0,-1,1084,1464,0,0
-133,-440,0,0,0,0,0,0,0,0,0,-1,1091,1464,0,0
-126,-440,0,0,0,0,0,0,0,0,0,-1,1098,1464,0,0
-119,-440,0,0,0,0,0,0,0,0,0,-1,1105,1464,0,0
-112,-440,0,0,0,0,0,0,0,0,0,-1,1112,1464,0,0
-105,-440,0,0,0,0,0,0,0,0,0,-1,1119,1464,0,0
-98,-440,0,0,0,0,0,0,0,0,0,-1,1126,1464,0,0
-91,-440,0,0,0,0,0,0,0,0,0,-1,1133,1464,0,0
-84,-440,0,0,0,0,0,0,0,0,0,-1,1140,1464,0,0
-77,-440,0,0,0,0,0,0,0,0,0,-1,1147,1464,0,0
-70,-440,0,0,0,0,0,0,0,0,0,-1,1154,1464,0,0
-63,-440,0,0,0,0,0,0,0,0,0,-1,1161,1464,0,0
-56,-440,0,0,0,0,0,0,0,0,0,-1,1168,1464,0,0
-49,-440,0,0,0,0,0,0,0,0,0,-1,1175,1464,0,0
-42,-440,0,0,0,0,0,0,0,0,0,-1,1182,1464,0,0
-35,-440,0,0,0,0,0,0,0,0,0,-1,1189,1464,0,0
-28,-440,0,0,0,0,0,0,0,0,0,-1,1196,1464,0,0
-21,-440,0,0,0,0,0,0,0,0,0,-1,1203,1464,0,0
-14,-440,0,0,0,0,0,0,0,0,0,-1,1210,1464,0,0
-7,-440,0,0,0,0,0,0,0,0,0,-1,1217,1464,0,0
0,-440,0,0,0,0,0,0,0,0,0,-1,1224,1464,0,0
7,-440,0,0,0,0,0,0,0,0,0,-1,1231,1464,0,0
14,-440,0,0,0,0,0,0,0,0,0,-1,1238,1464,0,0
21,-440,0,0,0,0,0,0,0,0,0,-1,1245,1464,0,0
28,-440,0,0,0,0,0,0,0,0,0,-1,1252,1464,0,0
35,-440,0,0,0,0,0,0,0,0,0,-1,1259,1464,0,0
42,-440,0,0,0,0,0,0,0,0,0,-1,1266,1464,0,0
49,-440,0,0,0,0,0,0,0,0,0,-1,1273,1464,0,0
56,-440,0,0,0,0,0,0,0,0,0,-1,1280,1464,0,0
63,-440,0,0,0,0,0,0,0,0,0,-1,1287,1464,0,0
70,-440,0,0,0,0,0,0,0,0,0,-1,1294,1464,0,0
77,-440,0,0,0,0,0,0,0,0,0,-1,1301,1464,0,0
84,-440,0,0,0,0,0,0,0,0,0,-1,1308,1464,0,0
91,-440,0,0,0,0,0,0,0,0,0,-1,1315,1464,0,0
98,-440,0,0,0,0,0,0,0,0,0,-1,1322,1464,0,0
105,-440,0,0,0,0,0,0,0,0,0,-1,1329,1464,0,0
112,-440,0,0,0,0,0,0,0,0,0,-1,1336,1464,0,0
119,-440,0,0,0,0,0,0,0,0,0,-1,1343,1464,0,0
126,-440,0,0,0,0,0,0,0,0,0,-1,1350,1464,0,0
133,-440,0,0,0,0,0,0,0,0,0,-1,1357,1464,0,0
140,-440,0,0,0,0,0,0,0,0,0,-1,1364,1464,0,0
147,-440,0,0,0,0,0,0,0,0,0,-1,1371,1464,0,0
154,-440,0,0,0,0,0,0,0,0,0,-1,1378,1464,0,0
161,-440,0,0,0,0,0,0,0,0,0,-1,1385,1464,0,0
168,-440,0,0,0,0,0,0,0,0,0,-1,1392,1464,0,0
175,-440,0,0,0,0,0,0,0,0,0,-1,1399,1464,0,0
182,-440,0,0,0,0,0,0,0,0,0,-1,1406,1464,0,0
189,-440,0,0,0,0,0,0,0,0,0,-1,1413,1464,0,0
196,-440,0,0,0,0,0,0,0,0,0,-1,1420,1464,0,0
203,-440,0,0,0,0,0,0,0,0,0,-1,1427,1464,0,0
210,-440,0,0,0,0,0,0,0,0,0,-1,1434,1464,0,0
217,-440,0,0,0,0,0,0,0,0,0,-1,1441,1464,0,0
224,-440,0,0,0,0,0,0,0,0,0,-1,1448,1464,0,0
231,-440,0,0,0,0,0,0,0,0,0,-1,1455,1464,0,0
238,-440,0,0,0,0,0,0,0,0,0,-1,1462,1464,0,0
245,-440,0,0,0,0,0,0,0,0,0,-1,1469,1464,0,0
252,-440,0,0,0,0,0,0,0,0,0,-1,1476,1464,0,0
259,-440,0,0,0,0,0,0,0,0,0,-1,1483,1464,0,0
266,-440,0,0,0,0,0,0,0,0,0,-1,1490,1464,0,0
273,-440,0,0,0,0,0,0,0,0,0,-1,1497,1464,0,0
280,-440,0,0,0,0,0,0,0,0,0,-1,1504,1464,0,0
287,-440,0,0,0,0,0,0,0,0,0,-1,1511,1464,0,0
294,-440,0,0,0,0,0,0,0,0,0,-1,1518,1464,0,0
301,-440,0,0,0,0,0,0,0,0,0,-1,1525,1464,0,0
308,-440,0,0,0,0,0,0,0,0,0,-1,1532,1464,0,0
315,-440,0,0,0,0,0,0,0,0,0,-1,1539,1464,0,0
322,-440,0,0,0,0,0,0,0,0,0,-1,1546,1464,0,0
329,-440,0,0,0,0,0,0,0,0,0,-1,1553,1464,0,0
336,-440,0,0,0,0,0,0,0,0,0,-1,1560,1464,0,0
343,-440,0,0,0,0,0,0,0,0,0,-1,1567,1464,0,0
350,-440,0,0,0,0,0,0,0,0,0,-1,1574,1464,0,0
357,-440,0,0,0,0,0,0,0,0,0,-1,1581,1464,0,0
364,-440,0,0,0,0,0,0,0,0,0,-1,1588,1464,0,0
371,-440,0,0,0,0,0,0,0,0,0,-1,1595,1464,0,0
378,-440,0,0,0,0,0,0,0,0,0,-1,1602,1464,0,0
385,-440,0,0,0,0,0,0,0,0,0,-1,1609,1464,0,0
392,-440,0,0,0,0,0,0,0,0,0,-1,1616,1464,0,0
399,-440,0,0,0,0,0,0,0,0,0,-1,1623,1464,0,0
406,-440,0,0,0,0,0,0,0,0,0,-1,1630,1464,0,0
413,-440,0,0,0,0,0,0,0,0,0,-1,1637,1464,0,0
420,-440,0,0,0,0,0,0,0,0,0,-1,1644,1464,0,0
427,-440,0,0,0,0,0,0,0,0,0,-1,1651,1464,0,0
434,-440,0,0,0,0,0,0,0,0,0,-1,1658,1464,0,0
441,-440,0,0,0,0,0,0,0,0,0,-1,1665,1464,0,0
448,-440,0,0,0,0,0,0,0,0,0,-1,1672,1464,0,0
455,-440,0,0,0,0,0,0,0,0,0,-1,1679,1464,0,0
462,-440,0,0,0,0,0,0,0,0,0,-1,1686,1464,0,0
469,-440,0,0,0,0,0,0,0,0,0,-1,1693,1464,0,0
476,-440,0,0,0,0,0,0,0,0,0,-1,1700,1464,0,0
483,-440,0,0,0,0,0,0,0,0,0,-1,1707,1464,0,0
490,-440,0,0,0,0,0,0,0,0,0,-1,1714,1464,0,0
497,-440,16.965,-0.528442,0,0,0,0,0,0,0,-1,1721,1464,16.965,0.528492
504,-440,15.8052,0.670166,0,0,0,0,0,0,0,-1,1728,1464,15.8052,-0.670145
511,-440,17.5754,2.77832,0,0,0,0,0,0,0,-1,1735,1464,17.5754,-2.77826
518,-440,16.9017,3.07861,0,0,0,0,0,0,0,-1,1742,1464,16.9018,-3.07859
525,-440,18.4495,12.0867,0,0,0,0,0,0,0,-1,1749,1464,18.4495,-12.0867
532,-440,15.4319,3.64392,0,0,0,0,0,0,0,-1,1756,1464,15.4318,-3.64391
539,-440,14.8214,3.41321,0,0,0,0,0,0,0,-1,1763,1464,14.8214,-3.4132
546,-440,14.8651,10.7683,0,0,0,0,0,0,0,-1,1770,1464,14.8651,-10.7683
553,-440,15.1213,11.4121,0,0,0,0,0,0,0,-1,1777,1464,15.1213,-11.4121
560,-440,17.4325,12.5394,0,0,0,0,0,0,0,-1,1784,1464,17.4325,-12.5394
567,-440,16.9025,12.4249,0,0,0,0,0,0,0,-1,1791,1464,16.9025,-12.425
574,-440,19.2841,14.8679,0,0,0,0,0,0,0,-1,1798,1464,19.2841,-14.868
581,-440,26.4432,21.3477,0,0,0,0,0,0,0,-1,1805,1464,26.4432,-21.3476
588,-440,32.4553,25.2192,0,0,0,0,0,0,0,-1,1812,1464,32.4553,-25.2193
595,-440,32.5026,24.3572,0.00398553,0.00293864,-0.00278225,0.00629315,0.000631022,-0.692416,0.00400171,0.0349643,1819,1464,32.5025,-24.3572
602,-440,32.6196,23.5636,0.0032634,0.0021036,-0.00210863,0.00487041,0.000496584,-0.651209,0.00309472,0.0204722,1826,1464,32.6196,-23.5636
609,-440,32.6047,22.863,0.00269232,0.00135445,-0.00152602,0.00368958,0.000357182,-0.578835,0.00234973,0.0176196,1833,1464,32.6047,-22.863
616,-440,32.5596,22.1276,0.00224455,0.000795707,-0.00109218,0.00283072,0.000209538,-0.492571,0.00182133,0.0181152,1840,1464,32.5595,-22.1275
623,-440,32.5219,21.3862,0.00209126,0.000333566,-0.000777676,0.00238593,3.88911e-05,-0.362201,0.00157782,0.0143493,1847,1464,32.5219,-21.3862
630,-440,32.4846,20.6423,0.00210478,-0.000103574,-0.000550475,0.00223439,-0.000233183,-0.231239,0.0015731,0.0117916,1854,1464,32.4846,-20.6424
637,-440,32.4594,19.9637,0.00221607,-0.00040657,-0.000386258,0.00227178,-0.000462275,-0.143228,0.00168982,0.0163643,1861,1464,32.4594,-19.9637
644,-440,32.4425,19.251,0.00254752,-0.000575869,-0.000268839,0.00257049,-0.00059884,-0.0852375,0.00194426,0.0163425,1868,1464,32.4426,-19.251
651,-440,32.4371,18.4539,0.00312422,-0.000570715,-0.000349115,0.00315692,-0.000603412,-0.0933834,0.00233192,0.0238808,1875,1464,32.4372,-18.4539
658,-440,32.5771,17.4894,0,0,0,0,0,0,0,-1,1882,1464,32.5771,-17.4893
665,-440,24.2067,12.5813,0,0,0,0,0,0,0,-1,1889,1464,24.2067,-12.5813
672,-440,18.9385,9.6394,0,0,0,0,0,0,0,-1,1896,1464,18.9384,-9.63939
679,-440,16.9508,10.2336,0,0,0,0,0,0,0,-1,1903,1464,16.9508,-10.2337
686,-440,15.2556,8.44177,0,0,0,0,0,0,0,-1,1910,1464,15.2556,-8.44177
693,-440,9.88635,2.89795,0,0,0,0,0,0,0,-1,1917,1464,9.88638,-2.89798
700,-440,7.07825,-2.62061,0,0,0,0,0,0,0,-1,1924,1464,7.07829,2.62057
707,-440,0,0,0,0,0,0,0,0,0,-1,1931,1464,0,0
714,-440,0,0,0,0,0,0,0,0,0,-1,1938,1464,0,0
721,-440,0,0,0,0,0,0,0,0,0,-1,1945,1464,0,0
728,-440,0,0,0,0,0,0,0,0,0,-1,1952,1464,0,0
735,-440,0,0,0,0,0,0,0,0,0,-1,1959,1464,0,0
742,-440,0,0,0,0,0,0,0,0,0,-1,1966,1464,0,0
749,-440,0,0,0,0,0,0,0,0,0,-1,1973,1464,0,0
756,-440,0,0,0,0,0,0,0,0,0,-1,1980,1464,0,0
763,-440,0,0,0,0,0,0,0,0,0,-1,1987,1464,0,0
770,-440,0,0,0,0,0,0,0,0,0,-1,1994,1464,0,0
777,-440,0,0,0,0,0,0,0,0,0,-1,2001,1464,0,0
784,-440,0,0,0,0,0,0,0,0,0,-1,2008,1464,0,0
791,-440,0,0,0,0,0,0,0,0,0,-1,2015,1464,0,0
798,-440,0,0,0,0,0,0,0,0,0,-1,2022,1464,0,0
805,-440,0,0,0,0,0,0,0,0,0,-1,2029,1464,0,0
812,-440,0,0,0,0,0,0,0,0,0,-1,2036,1464,0,0
-700,-447,0,0,0,0,0,0,0,0,0,-1,524,1471,0,0
-693,-447,0,0,0,0,0,0,0,0,0,-1,531,1471,0,0
-686,-447,0,0,0,0,0,0,0,0,0,-1,538,1471,0,0
-679,-447,0,0,0,0,0,0,0,0,0,-1,545,1471,0,0
-672,-447,0,0,0,0,0,0,0,0,0,-1,552,1471,0,0
-665,-447,0,0,0,0,0,0,0,0,0,-1,559,1471,0,0
-658,-447,0,0,0,0,0,0,0,0,0,-1,566,1471,0,0
-651,-447,0,0,0,0,0,0,0,0,0,-1,573,1471,0,0
-644,-447,0,0,0,0,0,0,0,0,0,-1,580,1471,0,0
-637,-447,0,0,0,0,0,0,0,0,0,-1,587,1471,0,0
-630,-447,0,0,0,0,0,0,0,0,0,-1,594,1471,0,0
-623,-447,0,0,0,0,0,0,0,0,0,-1,601,1471,0,0
-616,-447,0,0,0,0,0,0,0,0,0,-1,608,1471,0,0
-609,-447,0,0,0,0,0,0,0,0,0,-1,615,1471,0,0
-602,-447,0,0,0,0,0,0,0,0,0,-1,622,1471,0,0
-595,-447,0,0,0,0,0,0,0,0,0,-1,629,1471,0,0
-588,-447,0,0,0,0,0,0,0,0,0,-1,636,1471,0,0
-581,-447,-7.06482,-1.50476,0,0,0,0,0,0,0,-1,643,1471,-7.0648,1.50474
-574,-447,-6.88092,-0.00585938,0,0,0,0,0,0,0,-1,650,1471,-6.88095,0.00589852
-567,-447,-6.8205,-1.32178,0,0,0,0,0,0,0,-1,657,1471,-6.82047,1.32172
-560,-447,-8.85748,2.80774,0,0,0,0,0,0,0,-1,664,1471,-8.85748,-2.80775
-553,-447,-7.60486,3.26794,0,0,0,0,0,0,0,-1,671,1471,-7.60487,-3.26799
-546,-447,-3.94501,1.8656,0,0,0,0,0,0,0,-1,678,1471,-3.945,-1.86554
-539,-447,-5.35492,4.50024,0,0,0,0,0,0,0,-1,685,1471,-5.35492,-4.50018
-532,-447,-6.12781,8.81091,0,0,0,0,0,0,0,-1,692,1471,-6.12781,-8.81094
-525,-447,-9.44501,12.098,0,0,0,0,0,0,0,-1,699,1471,-9.44502,-12.098
-518,-447,-14.4212,17.3486,0,0,0,0,0,0,0,-1,706,1471,-14.4212,-17.3487
-511,-447,-14.4069,18.3748,0.00455499,0.0045731,0.00491377,0.00947782,-0.000349739,0.78632,0.0064383,0.0278017,713,1471,-14.4069,-18.3748
-504,-447,-14.4052,19.2412,0.00363441,0.00350101,0.00384281,0.0074111,-0.000275685,0.776721,0.00503515,0.0207749,720,1471,-14.4052,-19.2412
-497,-447,-14.4684,19.9998,0.00279817,0.00264626,0.00290591,0.00562912,-0.000184685,0.772331,0.0038158,0.0252973,727,1471,-14.4684,-19.9997
-490,-447,-14.4233,20.7137,0.00208053,0.00198627,0.00210695,0.00414088,-7.40811e-05,0.774216,0.00278561,0.0252482,734,1471,-14.4234,-20.7137
-483,-447,-14.5273,21.4758,0.00155943,0.00154351,0.00150671,0.0030582,4.47404e-05,0.782757,0.00202405,0.0226017,741,1471,-14.5273,-21.4758
-476,-447,-14.5683,22.2357,0.00122026,0.00138446,0.00113686,0.00244218,0.000162534,0.821444,0.00157674,0.0149386,748,1471,-14.5683,-22.2357
-469,-447,-14.6005,23.0248,0.00102958,0.00149335,0.000952137,0.00224143,0.000281499,0.904845,0.00140986,0.0137015,755,1471,-14.6005,-23.0248
-462,-447,-14.6534,23.7968,0.00109973,0.00189595,0.00103533,0.00260707,0.000388606,0.968947,0.00162408,0.0136888,762,1471,-14.6534,-23.7967
-455,-447,-14.7114,24.5519,0.00144061,0.00263536,0.00141282,0.00357191,0.000504061,0.985411,0.0022323,0.0260197,769,1471,-14.7114,-24.5519
-448,-447,-14.7231,25.3809,0,0,0,0,0,0,0,-1,776,1471,-14.7232,-25.3809
-441,-447,-8.68506,19.0931,0,0,0,0,0,0,0,-1,783,1471,-8.68504,-19.0932
-434,-447,-7.43402,15.6273,0,0,0,0,0,0,0,-1,790,1471,-7.43404,-15.6274
-427,-447,-7.21832,14.691,0,0,0,0,0,0,0,-1,797,1471,-7.21834,-14.6911
-420,-447,-8.0545,12.8055,0,0,0,0,0,0,0,-1,804,1471,-8.05452,-12.8055
-413,-447,-4.27393,6.59705,0,0,0,0,0,0,0,-1,811,1471,-4.27392,-6.59707
-406,-447,-1.04279,6.18591,0,0,0,0,0,0,0,-1,818,1471,-1.04276,-6.18586
-399,-447,0.0134888,0.687622,0,0,0,0,0,0,0,-1,825,1471,0.0134841,-0.68767
-392,-447,-14.0646,3.76147,0,0,0,0,0,0,0,-1,832,1471,-14.0646,-3.7615
-385,-447,-15.1695,2.61865,0,0,0,0,0,0,0,-1,839,1471,-15.1695,-2.61871
-378,-447,-15.9424,1.49316,0,0,0,0,0,0,0,-1,846,1471,-15.9424,-1.49313
-371,-447,-17.3655,0.73291,0,0,0,0,0,0,0,-1,853,1471,-17.3655,-0.732946
-364,-447,0,0,0,0,0,0,0,0,0,-1,860,1471,0,0
-357,-447,0,0,0,0,0,0,0,0,0,-1,867,1471,0,0
-350,-447,0,0,0,0,0,0,0,0,0,-1,874,1471,0,0
-343,-447,0,0,0,0,0,0,0,0,0,-1,881,1471,0,0
-336,-447,0,0,0,0,0,0,0,0,0,-1,888,1471,0,0
-329,-447,0,0,0,0,0,0,0,0,0,-1,895,1471,0,0
-322,-447,0,0,0,0,0,0,0,0,0,-1,902,1471,0,0
-315,-447,0,0,0,0,0,0,0,0,0,-1,909,1471,0,0
-308,-447,0,0,0,0,0,0,0,0,0,-1,916,1471,0,0
-301,-447,0,0,0,0,0,0,0,0,0,-1,923,1471,0,0
-294,-447,0,0,0,0,0,0,0,0,0,-1,930,1471,0,0
-287,-447,0,0,0,0,0,0,0,0,0,-1,937,1471,0,0
-280,-447,0,0,0,0,0,0,0,0,0,-1,944,1471,0,0
-273,-447,0,0,0,0,0,0,0,0,0,-1,951,1471,0,0
-266,-447,0,0,0,0,0,0,0,0,0,-1,958,1471,0,0
-259,-447,0,0,0,0,0,0,0,0,0,-1,965,1471,0,0
-252,-447,0,0,0,0,0,0,0,0,0,-1,972,1471,0,0
-245,-447,0,0,0,0,0,0,0,0,0,-1,979,1471,0,0
-238,-447,0,0,0,0,0,0,0,0,0,-1,986,1471,0,0
-231,-447,0,0,0,0,0,0,0,0,0,-1,993,1471,0,0
-224,-447,0,0,0,0,0,0,0,0,0,-1,1000,1471,0,0
-217,-447,0,0,0,0,0,0,0,0,0,-1,1007,1471,0,0
-210,-447,0,0,0,0,0,0,0,0,0,-1,1014,1471,0,0
-203,-447,0,0,0,0,0,0,0,0,0,-1,1021,1471,0,0
-196,-447,0,0,0,0,0,0,0,0,0,-1,1028,1471,0,0
-189,-447,0,0,0,0,0,0,0,0,0,-1,1035,1471,0,0
-182,-447,0,0,0,0,0,0,0,0,0,-1,1042,1471,0,0
-175,-447,0,0,0,0,0,0,0,0,0,-1,1049,1471,0,0
-168,-447,0,0,0,0,0,0,0,0,0,-1,1056,1471,0,0
-161,-447,0,0,0,0,0,0,0,0,0,-1,1063,1471,0,0
-154,-447,0,0,0,0,0,0,0,0,0,-1,1070,1471,0,0
-147,-447,0,0,0,0,0,0,0,0,0,-1,1077,1471,0,0
-140,-447,0,0,0,0,0,0,0,0,0,-1,1084,1471,0,0
-133,-447,0,0,0,0,0,0,0,0,0,-1,1091,1471,0,0
-126,-447,0,0,0,0,0,0,0,0,0,-1,1098,1471,0,0
-119,-447,0,0,0,0,0,0,0,0,0,-1,1105,1471,0,0
-112,-447,0,0,0,0,0,0,0,0,0,-1,1112,1471,0,0
-105,-447,0,0,0,0,0,0,0,0,0,-1,1119,1471,0,0
-98,-447,0,0,0,0,0,0,0,0,0,-1,1126,1471,0,0
-91,-447,0,0,0,0,0,0,0,0,0,-1,1133,1471,0,0
-84,-447,0,0,0,0,0,0,0,0,0,-1,1140,1471,0,0
-77,-447,0,0,0,0,0,0,0,0,0,-1,1147,1471,0,0
-70,-447,0,0,0,0,0,0,0,0,0,-1,1154,1471,0,0
-63,-447,0,0,0,0,0,0,0,0,0,-1,1161,1471,0,0
-56,-447,0,0,0,0,0,0,0,0,0,-1,1168,1471,0,0
-49,-447,0,0,0,0,0,0,0,0,0,-1,1175,1471,0,0
-42,-447,0,0,0,0,0,0,0,0,0,-1,1182,1471,0,0
-35,-447,0,0,0,0,0,0,0,0,0,-1,1189,1471,0,0
-28,-447,0,0,0,0,0,0,0,0,0,-1,1196,1471,0,0
-21,-447,0,0,0,0,0,0,0,0,0,-1,1203,1471,0,0
-14,-447,0,0,0,0,0,0,0,0,0,-1,1210,1471,0,0
-7,-447,0,0,0,0,0,0,0,0,0,-1,1217,1471,0,0
0,-447,0,0,0,0,0,0,0,0,0,-1,1224,1471,0,0
7,-447,0,0,0,0,0,0,0,0,0,-1,1231,1471,0,0
14,-447,0,0,0,0,0,0,0,0,0,-1,1238,1471,0,0
21,-447,0,0,0,0,0,0,0,0,0,-1,1245,1471,0,0
28,-447,0,0,0,0,0,0,0,0,0,-1,1252,1471,0,0
35,-447,0,0,0,0,0,0,0,0,0,-1,1259,1471,0,0
42,-447,0,0,0,0,0,0,0,0,0,-1,1266,1471,0,0
49,-447,0,0,0,0,0,0,0,0,0,-1,1273,1471,0,0
56,-447,0,0,0,0,0,0,0,0,0,-1,1280,1471,0,0
63,-447,0,0,0,0,0,0,0,0,0,-1,1287,1471,0,0
70,-447,0,0,0,0,0,0,0,0,0,-1,1294,1471,0,0
77,-447,0,0,0,0,0,0,0,0,0,-1,1301,1471,0,0
84,-447,0,0,0,0,0,0,0,0,0,-1,1308,1471,0,0
91,-447,0,0,0,0,0,0,0,0,0,-1,1315,1471,0,0
98,-447,0,0,0,0,0,0,0,0,0,-1,1322,1471,0,0
105,-447,0,0,0,0,0,0,0,0,0,-1,1329,1471,0,0
112,-447,0,0,0,0,0,0,0,0,0,-1,1336,1471,0,0
119,-447,0,0,0,0,0,0,0,0,0,-1,1343,1471,0,0
126,-447,0,0,0,0,0,0,0,0,0,-1,1350,1471,0,0
133,-447,0,0,0,0,0,0,0,0,0,-1,1357,1471,0,0
140,-447,0,0,0,0,0,0,0,0,0,-1,1364,1471,0,0
147,-447,0,0,0,0,0,0,0,0,0,-1,1371,1471,0,0
154,-447,0,0,0,0,0,0,0,0,0,-1,1378,1471,0,0
161,-447,0,0,0,0,0,0,0,0,0,-1,1385,1471,0,0
168,-447,0,0,0,0,0,0,0,0,0,-1,1392,1471,0,0
175,-447,0,0,0,0,0,0,0,0,0,-1,1399,1471,0,0
182,-447,0,0,0,0,0,0,0,0,0,-1,1406,1471,0,0
189,-447,0,0,0,0,0,0,0,0,0,-1,1413,1471,0,0
196,-447,0,0,0,0,0,0,0,0,0,-1,1420,1471,0,0
203,-447,0,0,0,0,0,0,0,0,0,-1,1427,1471,0,0
210,-447,0,0,0,0,0,0,0,0,0,-1,1434,1471,0,0
217,-447,0,0,0,0,0,0,0,0,0,-1,1441,1471,0,0
224,-447,0,0,0,0,0,0,0,0,0,-1,1448,1471,0,0
231,-447,0,0,0,0,0,0,0,0,0,-1,1455,1471,0,0
238,-447,0,0,0,0,0,0,0,0,0,-1,1462,1471,0,0
245,-447,0,0,0,0,0,0,0,0,0,-1,1469,1471,0,0
252,-447,0,0,0,0,0,0,0,0,0,-1,1476,1471,0,0
259,-447,0,0,0,0,0,0,0,0,0,-1,1483,1471,0,0
266,-447,0,0,0,0,0,0,0,0,0,-1,1490,1471,0,0
273,-447,0,0,0,0,0,0,0,0,0,-1,1497,1471,0,0
280,-447,0,0,0,0,0,0,0,0,0,-1,1504,1471,0,0
287,-447,0,0,0,0,0,0,0,0,0,-1,1511,1471,0,0
294,-447,0,0,0,0,0,0,0,0,0,-1,1518,1471,0,0
301,-447,0,0,0,0,0,0,0,0,0,-1,1525,1471,0,0
308,-447,0,0,0,0,0,0,0,0,0,-1,1532,1471,0,0
315,-447,0,0,0,0,0,0,0,0,0,-1,1539,1471,0,0
322,-447,0,0,0,0,0,0,0,0,0,-1,1546,1471,0,0
329,-447,0,0,0,0,0,0,0,0,0,-1,1553,1471,0,0
336,-447,0,0,0,0,0,0,0,0,0,-1,1560,1471,0,0
343,-447,0,0,0,0,0,0,0,0,0,-1,1567,1471,0,0
350,-447,0,0,0,0,0,0,0,0,0,-1,1574,1471,0,0
357,-447,0,0,0,0,0,0,0,0,0,-1,1581,1471,0,0
364,-447,0,0,0,0,0,0,0,0,0,-1,1588,1471,0,0
371,-447,0,0,0,0,0,0,0,0,0,-1,1595,1471,0,0
378,-447,0,0,0,0,0,0,0,0,0,-1,1602,1471,0,0
385,-447,0,0,0,0,0,0,0,0,0,-1,1609,1471,0,0
392,-447,0,0,0,0,0,0,0,0,0,-1,1616,1471,0,0
399,-447,0,0,0,0,0,0,0,0,0,-1,1623,1471,0,0
406,-447,0,0,0,0,0,0,0,0,0,-1,1630,1471,0,0
413,-447,0,0,0,0,0,0,0,0,0,-1,1637,1471,0,0
420,-447,0,0,0,0,0,0,0,0,0,-1,1644,1471,0,0
427,-447,0,0,0,0,0,0,0,0,0,-1,1651,1471,0,0
434,-447,0,0,0,0,0,0,0,0,0,-1,1658,1471,0,0
441,-447,0,0,0,0,0,0,0,0,0,-1,1665,1471,0,0
448,-447,0,0,0,0,0,0,0,0,0,-1,1672,1471,0,0
455,-447,0,0,0,0,0,0,0,0,0,-1,1679,1471,0,0
462,-447,0,0,0,0,0,0,0,0,0,-1,1686,1471,0,0
469,-447,0,0,0,0,0,0,0,0,0,-1,1693,1471,0,0
476,-447,0,0,0,0,0,0,0,0,0,-1,1700,1471,0,0
483,-447,0,0,0,0,0,0,0,0,0,-1,1707,1471,0,0
490,-447,18.2214,-0.810303,0,0,0,0,0,0,0,-1,1714,1471,18.2215,0.810307
497,-447,17.0237,0.352417,0,0,0,0,0,0,0,-1,1721,1471,17.0237,-0.352442
504,-447,15.8998,1.53479,0,0,0,0,0,0,0,-1,1728,1471,15.8997,-1.53478
511,-447,14.7201,2.76111,0,0,0,0,0,0,0,-1,1735,1471,14.7201,-2.76107
518,-447,17.7618,13.2864,0,0,0,0,0,0,0,-1,1742,1471,17.7619,-13.2863
525,-447,17.1191,11.9014,0,0,0,0,0,0,0,-1,1749,1471,17.1191,-11.9013
532,-447,16.3959,10.0455,0,0,0,0,0,0,0,-1,1756,1471,16.3959,-10.0456
539,-447,14.1699,10.0204,0,0,0,0,0,0,0,-1,1763,1471,14.1699,-10.0204
546,-447,16.3715,11.8046,0,0,0,0,0,0,0,-1,1770,1471,16.3714,-11.8046
553,-447,17.5106,13.4012,0,0,0,0,0,0,0,-1,1777,1471,17.5107,-13.4012
560,-447,17.0187,13.168,0,0,0,0,0,0,0,-1,1784,1471,17.0187,-13.168
567,-447,18.9286,15.1703,0,0,0,0,0,0,0,-1,1791,1471,18.9286,-15.1703
574,-447,31.6604,27.1716,0,0,0,0,0,0,0,-1,1798,1471,31.6604,-27.1716
581,-447,31.7262,25.921,0,0,0,0,0,0,0,-1,1805,1471,31.7262,-25.921
588,-447,31.908,25.1163,0.0044901,0.00291274,-0.00269861,0.00651292,0.000889928,-0.64323,0.0040778,0.0368387,1812,1471,31.9079,-25.1163
595,-447,31.9061,24.3451,0.0035849,0.00229077,-0.00222621,0.00525617,0.000619493,-0.643966,0.00331696,0.0145857,1819,1471,31.9062,-24.3451
602,-447,31.8741,23.6021,0.00296446,0.00158023,-0.00171756,0.00412412,0.000420574,-0.593868,0.00262049,0.0125835,1826,1471,31.8741,-23.602
609,-447,31.8578,22.8842,0.00251944,0.000963607,-0.00125546,0.00321846,0.000264592,-0.508034,0.00206311,0.0139082,1833,1471,31.8577,-22.8842
616,-447,31.8383,22.1597,0.00220523,0.000506803,-0.000917327,0.00260608,0.000105957,-0.411968,0.00170317,0.0153569,1840,1471,31.8383,-22.1597
623,-447,31.7988,21.4487,0.00215841,8.14626e-05,-0.000652151,0.0023462,-0.00010633,-0.280374,0.00160075,0.0169662,1847,1471,31.7989,-21.4487
630,-447,31.7626,20.7078,0.00225528,-0.000320954,-0.000445945,0.00233029,-0.000395963,-0.166642,0.00170095,0.0105531,1854,1471,31.7626,-20.7078
637,-447,31.7439,19.9781,0.00244258,-0.00061533,-0.000308755,0.00247344,-0.000646193,-0.0996294,0.00190132,0.0115592,1861,1471,31.7439,-19.9781
644,-447,31.7207,19.2645,0.00283291,-0.000708514,-0.000284945,0.00285569,-0.000731295,-0.0797767,0.00218867,0.0130032,1868,1471,31.7206,-19.2645
651,-447,31.7161,18.4607,0,0,0,0,0,0,0,-1,1875,1471,31.7161,-18.4607
658,-447,30.2566,16.5862,0,0,0,0,0,0,0,-1,1882,1471,30.2566,-16.5862
665,-447,18.4946,9.79919,0,0,0,0,0,0,0,-1,1889,1471,18.4946,-9.79922
672,-447,18.9784,9.66077,0,0,0,0,0,0,0,-1,1896,1471,18.9784,-9.66081
679,-447,14.844,7.4248,0,0,0,0,0,0,0,-1,1903,1471,14.844,-7.42477
686,-447,9.81079,4.30859,0,0,0,0,0,0,0,-1,1910,1471,9.8108,-4.30864
693,-447,10.48,2.08643,0,0,0,0,0,0,0,-1,1917,1471,10.48,-2.08642
700,-447,0,0,0,0,0,0,0,0,0,-1,1924,1471,0,0
707,-447,0,0,0,0,0,0,0,0,0,-1,1931,1471,0,0
714,-447,0,0,0,0,0,0,0,0,0,-1,1938,1471,0,0
721,-447,0,0,0,0,0,0,0,0,0,-1,1945,1471,0,0
728,-447,0,0,0,0,0,0,0,0,0,-1,1952,1471,0,0
735,-447,0,0,0,0,0,0,0,0,0,-1,1959,1471,0,0
742,-447,0,0,0,0,0,0,0,0,0,-1,1966,1471,0,0
749,-447,0,0,0,0,0,0,0,0,0,-1,1973,1471,0,0
756,-447,0,0,0,0,0,0,0,0,0,-1,1980,1471,0,0
763,-447,0,0,0,0,0,0,0,0,0,-1,1987,1471,0,0
770,-447,0,0,0,0,0,0,0,0,0,-1,1994,1471,0,0
777,-447,0,0,0,0,0,0,0,0,0,-1,2001,1471,0,0
784,-447,0,0,0,0,0,0,0,0,0,-1,2008,1471,0,0
791,-447,0,0,0,0,0,0,0,0,0,-1,2015,1471,0,0
798,-447,0,0,0,0,0,0,0,0,0,-1,2022,1471,0,0
805,-447,0,0,0,0,0,0,0,0,0,-1,2029,1471,0,0
812,-447,0,0,0,0,0,0,0,0,0,-1,2036,1471,0,0
-700,-454,0,0,0,0,0,0,0,0,0,-1,524,1478,0,0
-693,-454,0,0,0,0,0,0,0,0,0,-1,531,1478,0,0
-686,-454,0,0,0,0,0,0,0,0,0,-1,538,1478,0,0
-679,-454,0,0,0,0,0,0,0,0,0,-1,545,1478,0,0
-672,-454,0,0,0,0,0,0,0,0,0,-1,552,1478,0,0
-665,-454,0,0,0,0,0,0,0,0,0,-1,559,1478,0,0
-658,-454,0,0,0,0,0,0,0,0,0,-1,566,1478,0,0
-651,-454,0,0,0,0,0,0,0,0,0,-1,573,1478,0,0
-644,-454,0,0,0,0,0,0,0,0,0,-1,580,1478,0,0
-637,-454,0,0,0,0,0,0,0,0,0,-1,587,1478,0,0
-630,-454,0,0,0,0,0,0,0,0,0,-1,594,1478,0,0
-623,-454,0,0,0,0,0,0,0,0,0,-1,601,1478,0,0
-616,-454,0,0,0,0,0,0,0,0,0,-1,608,1478,0,0
-609,-454,0,0,0,0,0,0,0,0,0,-1,615,1478,0,0
-602,-454,0,0,0,0,0,0,0,0,0,-1,622,1478,0,0
-595,-454,0,0,0,0,0,0,0,0,0,-1,629,1478,0,0
-588,-454,0,0,0,0,0,0,0,0,0,-1,636,1478,0,0
-581,-454,0,0,0,0,0,0,0,0,0,-1,643,1478,0,0
-574,-454,-8.4881,-0.465942,0,0,0,0,0,0,0,-1,650,1478,-8.4881,0.465885
-567,-454,-8.10046,0.922974,0,0,0,0,0,0,0,-1,657,1478,-8.10047,-0.923034
-560,-454,-10.656,3.51172,0,0,0,0,0,0,0,-1,664,1478,-10.656,-3.51176
-553,-454,-9.01129,3.95251,0,0,0,0,0,0,0,-1,671,1478,-9.0113,-3.95256
-546,-454,-9.61896,6.05237,0,0,0,0,0,0,0,-1,678,1478,-9.61897,-6.05239
-539,-454,-7.72589,4.96533,0,0,0,0,0,0,0,-1,685,1478,-7.72592,-4.96532
-532,-454,-7.03931,7.59985,0,0,0,0,0,0,0,-1,692,1478,-7.03929,-7.59981
-525,-454,-5.78723,9.677,0,0,0,0,0,0,0,-1,699,1478,-5.78722,-9.67703
-518,-454,-9.82098,13.8295,0,0,0,0,0,0,0,-1,706,1478,-9.82098,-13.8295
-511,-454,-13.7458,18.4003,0,0,0,0,0,0,0,-1,713,1478,-13.7458,-18.4003
-504,-454,-13.6549,19.2263,0.0041316,0.00397385,0.00451994,0.00857335,-0.000467906,0.776674,0.00587775,0.0211209,720,1478,-13.6549,-19.2263
-497,-454,-13.6918,20.0435,0.00317334,0.0029284,0.00340714,0.00646021,-0.000358473,0.767434,0.00443114,0.0206693,727,1478,-13.6918,-20.0434
-490,-454,-13.7083,20.7849,0.002381,0.00214621,0.00248909,0.00475547,-0.000228253,0.761833,0.00324907,0.0187706,734,1478,-13.7083,-20.7849
-483,-454,-13.7792,21.5325,0.00177895,0.00159934,0.00178096,0.00347237,-9.40828e-05,0.760208,0.0023469,0.0164136,741,1478,-13.7792,-21.5325
-476,-454,-13.8203,22.2742,0.00139801,0.00139039,0.0013509,0.0027451,4.32966e-05,0.783988,0.00181581,0.0142657,748,1478,-13.8203,-22.2742
-469,-454,-13.8451,23.0341,0.0012013,0.00148666,0.00114484,0.00249768,0.000190281,0.847392,0.00160546,0.010534,755,1478,-13.8451,-23.0341
-462,-454,-13.9041,23.8108,0.00127949,0.00187126,0.00122545,0.00283604,0.000314712,0.903854,0.00179501,0.0114525,762,1478,-13.9041,-23.8107
-455,-454,-13.9556,24.5692,0.00165698,0.00258911,0.00162091,0.00380963,0.00043646,0.925388,0.00240749,0.0127374,769,1478,-13.9556,-24.5692
-448,-454,-13.9565,25.3713,0.00253914,0.00393302,0.00260087,0.00592871,0.000543458,0.916305,0.00378435,0.0272381,776,1478,-13.9565,-25.3713
-441,-454,-13.7656,26.3108,0,0,0,0,0,0,0,-1,783,1478,-13.7656,-26.3107
-434,-454,-7.55743,19.4857,0,0,0,0,0,0,0,-1,790,1478,-7.55746,-19.4858
-427,-454,-6.00183,15.8636,0,0,0,0,0,0,0,-1,797,1478,-6.00184,-15.8637
-420,-454,-6.28088,15.2135,0,0,0,0,0,0,0,-1,804,1478,-6.28087,-15.2135
-413,-454,-5.4408,13.674,0,0,0,0,0,0,0,-1,811,1478,-5.44079,-13.6739
-406,-454,-2.38208,10.0308,0,0,0,0,0,0,0,-1,818,1478,-2.38209,-10.0308
-399,-454,-1.21033,6.95447,0,0,0,0,0,0,0,-1,825,1478,-1.21035,-6.95452
-392,-454,0.0967407,0.985474,0,0,0,0,0,0,0,-1,832,1478,0.0967364,-0.985529
-385,-454,2.38629,3.297,0,0,0,0,0,0,0,-1,839,1478,2.38629,-3.29702
-378,-454,-15.9756,2.83997,0,0,0,0,0,0,0,-1,846,1478,-15.9756,-2.83994
-371,-454,-17.2753,2.01453,0,0,0,0,0,0,0,-1,853,1478,-17.2753,-2.01455
-364,-454,1.08124,0.819458,0,0,0,0,0,0,0,-1,860,1478,1.08124,-0.819513
-357,-454,0,0,0,0,0,0,0,0,0,-1,867,1478,0,0
-350,-454,0,0,0,0,0,0,0,0,0,-1,874,1478,0,0
-343,-454,0,0,0,0,0,0,0,0,0,-1,881,1478,0,0
-336,-454,0,0,0,0,0,0,0,0,0,-1,888,1478,0,0
-329,-454,0,0,0,0,0,0,0,0,0,-1,895,1478,0,0
-322,-454,0,0,0,0,0,0,0,0,0,-1,902,1478,0,0
-315,-454,0,0,0,0,0,0,0,0,0,-1,909,1478,0,0
-308,-454,0,0,0,0,0,0,0,0,0,-1,916,1478,0,0
-301,-454,0,0,0,0,0,0,0,0,0,-1,923,1478,0,0
-294,-454,0,0,0,0,0,0,0,0,0,-1,930,1478,0,0
-287,-454,0,0,0,0,0,0,0,0,0,-1,937,1478,0,0
-280,-454,0,0,0,0,0,0,0,0,0,-1,944,1478,0,0
-273,-454,0,0,0,0,0,0,0,0,0,-1,951,1478,0,0
-266,-454,0,0,0,0,0,0,0,0,0,-1,958,1478,0,0
-259,-454,0,0,0,0,0,0,0,0,0,-1,965,1478,0,0
-252,-454,0,0,0,0,0,0,0,0,0,-1,972,1478,0,0
-245,-454,0,0,0,0,0,0,0,0,0,-1,979,1478,0,0
-238,-454,0,0,0,0,0,0,0,0,0,-1,986,1478,0,0
-231,-454,0,0,0,0,0,0,0,0,0,-1,993,1478,0,0
-224,-454,0,0,0,0,0,0,0,0,0,-1,1000,1478,0,0
-217,-454,0,0,0,0,0,0,0,0,0,-1,1007,1478,0,0
-210,-454,0,0,0,0,0,0,0,0,0,-1,1014,1478,0,0
-203,-454,0,0,0,0,0,0,0,0,0,-1,1021,1478,0,0
-196,-454,0,0,0,0,0,0,0,0,0,-1,1028,1478,0,0
-189,-454,0,0,0,0,0,0,0,0,0,-1,1035,1478,0,0
-182,-454,0,0,0,0,0,0,0,0,0,-1,1042,1478,0,0
-175,-454,0,0,0,0,0,0,0,0,0,-1,1049,1478,0,0
-168,-454,0,0,0,0,0,0,0,0,0,-1,1056,1478,0,0
-161,-454,0,0,0,0,0,0,0,0,0,-1,1063,1478,0,0
-154,-454,0,0,0,0,0,0,0,0,0,-1,1070,1478,0,0
-147,-454,0,0,0,0,0,0,0,0,0,-1,1077,1478,0,0
-140,-454,0,0,0,0,0,0,0,0,0,-1,1084,1478,0,0
-133,-454,0,0,0,0,0,0,0,0,0,-1,1091,1478,0,0
-126,-454,0,0,0,0,0,0,0,0,0,-1,1098,1478,0,0
-119,-454,0,0,0,0,0,0,0,0,0,-1,1105,1478,0,0
-112,-454,0,0,0,0,0,0,0,0,0,-1,1112,1478,0,0
-105,-454,0,0,0,0,0,0,0,0,0,-1,1119,1478,0,0
-98,-454,0,0,0,0,0,0,0,0,0,-1,1126,1478,0,0
-91,-454,0,0,0,0,0,0,0,0,0,-1,1133,1478,0,0
-84,-454,0,0,0,0,0,0,0,0,0,-1,1140,1478,0,0
-77,-454,0,0,0,0,0,0,0,0,0,-1,1147,1478,0,0
-70,-454,0,0,0,0,0,0,0,0,0,-1,1154,1478,0,0
-63,-454,0,0,0,0,0,0,0,0,0,-1,1161,1478,0,0
-56,-454,0,0,0,0,0,0,0,0,0,-1,1168,1478,0,0
-49,-454,0,0,0,0,0,0,0,0,0,-1,1175,1478,0,0
-42,-454,0,0,0,0,0,0,0,0,0,-1,1182,1478,0,0
-35,-454,0,0,0,0,0,0,0,0,0,-1,1189,1478,0,0
-28,-454,0,0,0,0,0,0,0,0,0,-1,1196,1478,0,0
-21,-454,0,0,0,0,0,0,0,0,0,-1,1203,1478,0,0
-14,-454,0,0,0,0,0,0,0,0,0,-1,1210,1478,0,0
-7,-454,0,0,0,0,0,0,0,0,0,-1,1217,1478,0,0
0,-454,0,0,0,0,0,0,0,0,0,-1,1224,1478,0,0
7,-454,0,0,0,0,0,0,0,0,0,-1,1231,1478,0,0
14,-454,0,0,0,0,0,0,0,0,0,-1,1238,1478,0,0
21,-454,0,0,0,0,0,0,0,0,0,-1,1245,1478,0,0
28,-454,0,0,0,0,0,0,0,0,0,-1,1252,1478,0,0
35,-454,0,0,0,0,0,0,0,0,0,-1,1259,1478,0,0
42,-454,0,0,0,0,0,0,0,0,0,-1,1266,1478,0,0
49,-454,0,0,0,0,0,0,0,0,0,-1,1273,1478,0,0
56,-454,0,0,0,0,0,0,0,0,0,-1,1280,1478,0,0
63,-454,0,0,0,0,0,0,0,0,0,-1,1287,1478,0,0
70,-454,0,0,0,0,0,0,0,0,0,-1,1294,1478,0,0
77,-454,0,0,0,0,0,0,0,0,0,-1,1301,1478,0,0
84,-454,0,0,0,0,0,0,0,0,0,-1,1308,1478,0,0
91,-454,0,0,0,0,0,0,0,0,0,-1,1315,1478,0,0
98,-454,0,0,0,0,0,0,0,0,0,-1,1322,1478,0,0
105,-454,0,0,0,0,0,0,0,0,0,-1,1329,1478,0,0
112,-454,0,0,0,0,0,0,0,0,0,-1,1336,1478,0,0
119,-454,0,0,0,0,0,0,0,0,0,-1,1343,1478,0,0
126,-454,0,0,0,0,0,0,0,0,0,-1,1350,1478,0,0
133,-454,0,0,0,0,0,0,0,0,0,-1,1357,1478,0,0
140,-454,0,0,0,0,0,0,0,0,0,-1,1364,1478,0,0
147,-454,0,0,0,0,0,0,0,0,0,-1,1371,1478,0,0
154,-454,0,0,0,0,0,0,0,0,0,-1,1378,1478,0,0
161,-454,0,0,0,0,0,0,0,0,0,-1,1385,1478,0,0
168,-454,0,0,0,0,0,0,0,0,0,-1,1392,1478,0,0
175,-454,0,0,0,0,0,0,0,0,0,-1,1399,1478,0,0
182,-454,0,0,0,0,0,0,0,0,0,-1,1406,1478,0,0
189,-454,0,0,0,0,0,0,0,0,0,-1,1413,1478,0,0
196,-454,0,0,0,0,0,0,0,0,0,-1,1420,1478,0,0
203,-454,0,0,0,0,0,0,0,0,0,-1,1427,1478,0,0
210,-454,0,0,0,0,0,0,0,0,0,-1,1434,1478,0,0
217,-454,0,0,0,0,0,0,0,0,0,-1,1441,1478,0,0
224,-454,0,0,0,0,0,0,0,0,0,-1,1448,1478,0,0
231,-454,0,0,0,0,0,0,0,0,0,-1,1455,1478,0,0
238,-454,0,0,0,0,0,0,0,0,0,-1,1462,1478,0,0
245,-454,0,0,0,0,0,0,0,0,0,-1,1469,1478,0,0
252,-454,0,0,0,0,0,0,0,0,0,-1,1476,1478,0,0
259,-454,0,0,0,0,0,0,0,0,0,-1,1483,1478,0,0
266,-454,0,0,0,0,0,0,0,0,0,-1,1490,1478,0,0
273,-454,0,0,0,0,0,0,0,0,0,-1,1497,1478,0,0
280,-454,0,0,0,0,0,0,0,0,0,-1,1504,1478,0,0
287,-454,0,0,0,0,0,0,0,0,0,-1,1511,1478,0,0
294,-454,0,0,0,0,0,0,0,0,0,-1,1518,1478,0,0
301,-454,0,0,0,0,0,0,0,0,0,-1,1525,1478,0,0
308,-454,0,0,0,0,0,0,0,0,0,-1,1532,1478,0,0
315,-454,0,0,0,0,0,0,0,0,0,-1,1539,1478,0,0
322,-454,0,0,0,0,0,0,0,0,0,-1,1546,1478,0,0
329,-454,0,0,0,0,0,0,0,0,0,-1,1553,1478,0,0
336,-454,0,0,0,0,0,0,0,0,0,-1,1560,1478,0,0
343,-454,0,0,0,0,0,0,0,0,0,-1,1567,1478,0,0
350,-454,0,0,0,0,0,0,0,0,0,-1,1574,1478,0,0
357,-454,0,0,0,0,0,0,0,0,0,-1,1581,1478,0,0
364,-454,0,0,0,0,0,0,0,0,0,-1,1588,1478,0,0
371,-454,0,0,0,0,0,0,0,0,0,-1,1595,1478,0,0
378,-454,0,0,0,0,0,0,0,0,0,-1,1602,1478,0,0
385,-454,0,0,0,0,0,0,0,0,0,-1,1609,1478,0,0
392,-454,0,0,0,0,0,0,0,0,0,-1,1616,1478,0,0
399,-454,0,0,0,0,0,0,0,0,0,-1,1623,1478,0,0
406,-454,0,0,0,0,0,0,0,0,0,-1,1630,1478,0,0
413,-454,0,0,0,0,0,0,0,0,0,-1,1637,1478,0,0
420,-454,0,0,0,0,0,0,0,0,0,-1,1644,1478,0,0
427,-454,0,0,0,0,0,0,0,0,0,-1,1651,1478,0,0
434,-454,0,0,0,0,0,0,0,0,0,-1,1658,1478,0,0
441,-454,0,0,0,0,0,0,0,0,0,-1,1665,1478,0,0
448,-454,0,0,0,0,0,0,0,0,0,-1,1672,1478,0,0
455,-454,0,0,0,0,0,0,0,0,0,-1,1679,1478,0,0
462,-454,0,0,0,0,0,0,0,0,0,-1,1686,1478,0,0
469,-454,0,0,0,0,0,0,0,0,0,-1,1693,1478,0,0
476,-454,0,0,0,0,0,0,0,0,0,-1,1700,1478,0,0
483,-454,14.2399,3.97498,0,0,0,0,0,0,0,-1,1707,1478,14.2399,-3.97502
490,-454,18.1821,-0.175781,0,0,0,0,0,0,0,-1,1714,1478,18.1821,0.175822
497,-454,16.8854,1.01208,0,0,0,0,0,0,0,-1,1721,1478,16.8854,-1.01209
504,-454,15.587,2.05994,0,0,0,0,0,0,0,-1,1728,1478,15.5871,-2.05998
511,-454,17.0273,14.5258,0,0,0,0,0,0,0,-1,1735,1478,17.0273,-14.5258
518,-454,16.4158,13.1039,0,0,0,0,0,0,0,-1,1742,1478,16.4157,-13.1038
525,-454,15.7842,11.6628,0,0,0,0,0,0,0,-1,1749,1478,15.7841,-11.6629
532,-454,15.1094,10.2476,0,0,0,0,0,0,0,-1,1756,1478,15.1094,-10.2475
539,-454,13.7905,10.9373,0,0,0,0,0,0,0,-1,1763,1478,13.7906,-10.9372
546,-454,16.2002,13.2458,0,0,0,0,0,0,0,-1,1770,1478,16.2002,-13.2459
553,-454,15.6747,12.1868,0,0,0,0,0,0,0,-1,1777,1478,15.6747,-12.1868
560,-454,16.3895,14.0527,0,0,0,0,0,0,0,-1,1784,1478,16.3895,-14.0528
567,-454,31.3473,27.2773,0,0,0,0,0,0,0,-1,1791,1478,31.3473,-27.2774
574,-454,31.2482,26.6947,0.00607454,0.00335191,-0.00296601,0.00797671,0.00144973,-0.570253,0.00490649,0.0478993,1798,1478,31.2482,-26.6947
581,-454,31.2156,25.8615,0.00497009,0.00288865,-0.00262565,0.00675375,0.00110499,-0.596714,0.0041831,0.0311206,1805,1478,31.2156,-25.8614
588,-454,31.2727,25.0836,0.00403903,0.00238066,-0.00223836,0.00559685,0.000822837,-0.608013,0.00348944,0.0157283,1812,1478,31.2727,-25.0836
595,-454,31.1766,24.3792,0.00328259,0.00181449,-0.00183527,0.00452516,0.000571916,-0.595159,0.00284536,0.0132382,1819,1478,31.1766,-24.3792
602,-454,31.1437,23.6451,0.00274781,0.00119228,-0.0014329,0.00360042,0.000339674,-0.536751,0.00229545,0.00953545,1826,1478,31.1437,-23.6452
609,-454,31.1403,22.924,0.00240307,0.000657369,-0.00104957,0.0028953,0.00016513,-0.438534,0.00187758,0.0112704,1833,1478,31.1403,-22.924
616,-454,31.1097,22.213,0.00219263,0.000236975,-0.000752436,0.00244862,-1.90159e-05,-0.327932,0.00163879,0.0141658,1840,1478,31.1097,-22.213
623,-454,31.1077,21.4926,0.00222385,-0.000209332,-0.000486767,0.00231762,-0.000303098,-0.190299,0.00165539,0.0149488,1847,1478,31.1076,-21.4926
630,-454,31.0842,20.7665,0.00238648,-0.000619776,-0.00025554,0.00240804,-0.000641343,-0.0841977,0.00185645,0.0154286,1854,1478,31.0842,-20.7664
637,-454,30.9875,20.0463,0.00264738,-0.000934288,-0.000105049,0.00265046,-0.000937366,-0.0292962,0.0021487,0.0140366,1861,1478,30.9875,-20.0463
644,-454,31.0264,19.2955,0.00310899,-0.00102108,-0.00013886,0.00311365,-0.00102575,-0.0335712,0.00248916,0.0259021,1868,1478,31.0264,-19.2955
651,-454,31.0917,18.505,0,0,0,0,0,0,0,-1,1875,1478,31.0917,-18.5051
658,-454,17.2583,10.0765,0,0,0,0,0,0,0,-1,1882,1478,17.2583,-10.0765
665,-454,17.683,9.67566,0,0,0,0,0,0,0,-1,1889,1478,17.683,-9.67572
672,-454,16.5476,6.41931,0,0,0,0,0,0,0,-1,1896,1478,16.5476,-6.41929
679,-454,14.2161,5.45007,0,0,0,0,0,0,0,-1,1903,1478,14.2161,-5.45013
686,-454,10.3767,2.12842,0,0,0,0,0,0,0,-1,1910,1478,10.3767,-2.12839
693,-454,11.1857,1.48486,0,0,0,0,0,0,0,-1,1917,1478,11.1857,-1.48487
700,-454,0,0,0,0,0,0,0,0,0,-1,1924,1478,0,0
707,-454,0,0,0,0,0,0,0,0,0,-1,1931,1478,0,0
714,-454,0,0,0,0,0,0,0,0,0,-1,1938,1478,0,0
721,-454,0,0,0,0,0,0,0,0,0,-1,1945,1478,0,0
728,-454,0,0,0,0,0,0,0,0,0,-1,1952,1478,0,0
735,-454,0,0,0,0,0,0,0,0,0,-1,1959,1478,0,0
742,-454,0,0,0,0,0,0,0,0,0,-1,1966,1478,0,0
749,-454,0,0,0,0,0,0,0,0,0,-1,1973,1478,0,0
756,-454,0,0,0,0,0,0,0,0,0,-1,1980,1478,0,0
763,-454,0,0,0,0,0,0,0,0,0,-1,1987,1478,0,0
770,-454,0,0,0,0,0,0,0,0,0,-1,1994,1478,0,0
777,-454,0,0,0,0,0,0,0,0,0,-1,2001,1478,0,0
784,-454,0,0,0,0,0,0,0,0,0,-1,2008,1478,0,0
791,-454,0,0,0,0,0,0,0,0,0,-1,2015,1478,0,0
798,-454,0,0,0,0,0,0,0,0,0,-1,2022,1478,0,0
805,-454,0,0,0,0,0,0,0,0,0,-1,2029,1478,0,0
812,-454,0,0,0,0,0,0,0,0,0,-1,2036,1478,0,0
-700,-461,0,0,0,0,0,0,0,0,0,-1,524,1485,0,0
-693,-461,0,0,0,0,0,0,0,0,0,-1,531,1485,0,0
-686,-461,0,0,0,0,0,0,0,0,0,-1,538,1485,0,0
-679,-461,0,0,0,0,0,0,0,0,0,-1,545,1485,0,0
-672,-461,0,0,0,0,0,0,0,0,0,-1,552,1485,0,0
-665,-461,0,0,0,0,0,0,0,0,0,-1,559,1485,0,0
-658,-461,0,0,0,0,0,0,0,0,0,-1,566,1485,0,0
-651,-461,0,0,0,0,0,0,0,0,0,-1,573,1485,0,0
-644,-461,0,0,0,0,0,0,0,0,0,-1,580,1485,0,0
-637,-461,0,0,0,0,0,0,0,0,0,-1,587,1485,0,0
-630,-461,0,0,0,0,0,0,0,0,0,-1,594,1485,0,0
-623,-461,0,0,0,0,0,0,0,0,0,-1,601,1485,0,0
-616,-461,0,0,0,0,0,0,0,0,0,-1,608,1485,0,0
-609,-461,0,0,0,0,0,0,0,0,0,-1,615,1485,0,0
-602,-461,0,0,0,0,0,0,0,0,0,-1,622,1485,0,0
-595,-461,0,0,0,0,0,0,0,0,0,-1,629,1485,0,0
-588,-461,0,0,0,0,0,0,0,0,0,-1,636,1485,0,0
-581,-461,0,0,0,0,0,0,0,0,0,-1,643,1485,0,0
-574,-461,0,0,0,0,0,0,0,0,0,-1,650,1485,0,0
-567,-461,-9.69031,0.513306,0,0,0,0,0,0,0,-1,657,1485,-9.69032,-0.513305
-560,-461,-7.28815,1.54004,0,0,0,0,0,0,0,-1,664,1485,-7.28817,-1.54005
-553,-461,-11.9607,5.27783,0,0,0,0,0,0,0,-1,671,1485,-11.9607,-5.27778
-546,-461,-11.4215,4.44666,0,0,0,0,0,0,0,-1,678,1485,-11.4215,-4.4467
-539,-461,-9.36493,5.23438,0,0,0,0,0,0,0,-1,685,1485,-9.3649,-5.23432
-532,-461,-7.82898,6.78357,0,0,0,0,0,0,0,-1,692,1485,-7.829,-6.78363
-525,-461,-6.37878,8.75659,0,0,0,0,0,0,0,-1,699,1485,-6.3788,-8.75659
-518,-461,-6.49695,10.886,0,0,0,0,0,0,0,-1,706,1485,-6.49696,-10.8859
-511,-461,-13.2626,18.3351,0,0,0,0,0,0,0,-1,713,1485,-13.2626,-18.3351
-504,-461,-13.01,19.1582,0.00498408,0.00471651,0.00548164,0.0103336,-0.000632982,0.773198,0.00710944,0.0436296,720,1485,-13.01,-19.1582
-497,-461,-12.931,20.0675,0.00377115,0.00339405,0.00405634,0.00764332,-0.000478123,0.762174,0.00526217,0.012051,727,1485,-12.931,-20.0675
-490,-461,-12.992,20.8234,0.0027898,0.00242516,0.00292695,0.00554011,-0.000325149,0.754294,0.00380642,0.0132177,734,1485,-12.992,-20.8234
-483,-461,-13.0378,21.5878,0.00201876,0.00169742,0.00202915,0.00389359,-0.000177408,0.74589,0.00265684,0.0126319,741,1485,-13.0378,-21.5878
-476,-461,-13.0858,22.3445,0.00153357,0.00135504,0.0014768,0.0029238,-3.51922e-05,0.755211,0.00196104,0.0117655,748,1485,-13.0858,-22.3444
-469,-461,-13.1158,23.0673,0.00127975,0.00135851,0.0012061,0.00252587,0.000112392,0.801718,0.00164773,0.0138678,755,1485,-13.1158,-23.0673
-462,-461,-13.1312,23.8196,0.00130575,0.00165496,0.00123916,0.00273176,0.000228955,0.85539,0.00174986,0.0200049,762,1485,-13.1312,-23.8196
-455,-461,-13.1759,24.5895,0.0016237,0.0022753,0.00158193,0.00356463,0.00033437,0.886954,0.00227317,0.0250807,769,1485,-13.1759,-24.5894
-448,-461,-13.1905,25.3749,0.00238432,0.00348494,0.00244939,0.00544508,0.000424182,0.8959,0.00349724,0.0226975,776,1485,-13.1905,-25.3749
-441,-461,-13.1992,26.1249,0,0,0,0,0,0,0,-1,783,1485,-13.1992,-26.1249
-434,-461,-12.9913,27.1261,0,0,0,0,0,0,0,-1,790,1485,-12.9913,-27.1261
-427,-461,-8.26154,21.546,0,0,0,0,0,0,0,-1,797,1485,-8.26153,-21.5461
-420,-461,-5.70355,16.6116,0,0,0,0,0,0,0,-1,804,1485,-5.70353,-16.6115
-413,-461,-5.98798,16.0605,0,0,0,0,0,0,0,-1,811,1485,-5.98796,-16.0605
-406,-461,-5.52667,14.839,0,0,0,0,0,0,0,-1,818,1485,-5.52666,-14.839
-399,-461,-1.93439,9.82849,0,0,0,0,0,0,0,-1,825,1485,-1.9344,-9.82846
-392,-461,-0.357544,5.55225,0,0,0,0,0,0,0,-1,832,1485,-0.357536,-5.55228
-385,-461,1.71509,3.35254,0,0,0,0,0,0,0,-1,839,1485,1.71511,-3.35255
-378,-461,1.95996,3.01111,0,0,0,0,0,0,0,-1,846,1485,1.95993,-3.01111
-371,-461,0.702881,2.33459,0,0,0,0,0,0,0,-1,853,1485,0.702859,-2.33459
-364,-461,-1.93097,2.56458,0,0,0,0,0,0,0,-1,860,1485,-1.93095,-2.56456
-357,-461,-2.41516,3.49487,0,0,0,0,0,0,0,-1,867,1485,-2.41517,-3.49487
-350,-461,0,0,0,0,0,0,0,0,0,-1,874,1485,0,0
-343,-461,0,0,0,0,0,0,0,0,0,-1,881,1485,0,0
-336,-461,0,0,0,0,0,0,0,0,0,-1,888,1485,0,0
-329,-461,0,0,0,0,0,0,0,0,0,-1,895,1485,0,0
-322,-461,0,0,0,0,0,0,0,0,0,-1,902,1485,0,0
-315,-461,0,0,0,0,0,0,0,0,0,-1,909,1485,0,0
-308,-461,0,0,0,0,0,0,0,0,0,-1,916,1485,0,0
-301,-461,0,0,0,0,0,0,0,0,0,-1,923,1485,0,0
-294,-461,0,0,0,0,0,0,0,0,0,-1,930,1485,0,0
-287,-461,0,0,0,0,0,0,0,0,0,-1,937,1485,0,0
-280,-461,0,0,0,0,0,0,0,0,0,-1,944,1485,0,0
-273,-461,0,0,0,0,0,0,0,0,0,-1,951,1485,0,0
-266,-461,0,0,0,0,0,0,0,0,0,-1,958,1485,0,0
-259,-461,0,0,0,0,0,0,0,0,0,-1,965,1485,0,0
-252,-461,0,0,0,0,0,0,0,0,0,-1,972,1485,0,0
-245,-461,0,0,0,0,0,0,0,0,0,-1,979,1485,0,0
-238,-461,0,0,0,0,0,0,0,0,0,-1,986,1485,0,0
-231,-461,0,0,0,0,0,0,0,0,0,-1,993,1485,0,0
-224,-461,0,0,0,0,0,0,0,0,0,-1,1000,1485,0,0
-217,-461,0,0,0,0,0,0,0,0,0,-1,1007,1485,0,0
-210,-461,0,0,0,0,0,0,0,0,0,-1,1014,1485,0,0
-203,-461,0,0,0,0,0,0,0,0,0,-1,1021,1485,0,0
-196,-461,0,0,0,0,0,0,0,0,0,-1,1028,1485,0,0
-189,-461,0,0,0,0,0,0,0,0,0,-1,1035,1485,0,0
-182,-461,0,0,0,0,0,0,0,0,0,-1,1042,1485,0,0
-175,-461,0,0,0,0,0,0,0,0,0,-1,1049,1485,0,0
-168,-461,0,0,0,0,0,0,0,0,0,-1,1056,1485,0,0
-161,-461,0,0,0,0,0,0,0,0,0,-1,1063,1485,0,0
-154,-461,0,0,0,0,0,0,0,0,0,-1,1070,1485,0,0
-147,-461,0,0,0,0,0,0,0,0,0,-1,1077,1485,0,0
-140,-461,0,0,0,0,0,0,0,0,0,-1,1084,1485,0,0
-133,-461,0,0,0,0,0,0,0,0,0,-1,1091,1485,0,0
-126,-461,0,0,0,0,0,0,0,0,0,-1,1098,1485,0,0
-119,-461,0,0,0,0,0,0,0,0,0,-1,1105,1485,0,0
-112,-461,0,0,0,0,0,0,0,0,0,-1,1112,1485,0,0
-105,-461,0,0,0,0,0,0,0,0,0,-1,1119,1485,0,0
-98,-461,0,0,0,0,0,0,0,0,0,-1,1126,1485,0,0
-91,-461,0,0,0,0,0,0,0,0,0,-1,1133,1485,0,0
-84,-461,0,0,0,0,0,0,0,0,0,-1,1140,1485,0,0
-77,-461,0,0,0,0,0,0,0,0,0,-1,1147,1485,0,0
-70,-461,0,0,0,0,0,0,0,0,0,-1,1154,1485,0,0
-63,-461,0,0,0,0,0,0,0,0,0,-1,1161,1485,0,0
-56,-461,0,0,0,0,0,0,0,0,0,-1,1168,1485,0,0
-49,-461,0,0,0,0,0,0,0,0,0,-1,1175,1485,0,0
-42,-461,0,0,0,0,0,0,0,0,0,-1,1182,1485,0,0
-35,-461,0,0,0,0,0,0,0,0,0,-1,1189,1485,0,0
-28,-461,0,0,0,0,0,0,0,0,0,-1,1196,1485,0,0
-21,-461,0,0,0,0,0,0,0,0,0,-1,1203,1485,0,0
-14,-461,0,0,0,0,0,0,0,0,0,-1,1210,1485,0,0
-7,-461,0,0,0,0,0,0,0,0,0,-1,1217,1485,0,0
0,-461,0,0,0,0,0,0,0,0,0,-1,1224,1485,0,0
7,-461,0,0,0,0,0,0,0,0,0,-1,1231,1485,0,0
14,-461,0,0,0,0,0,0,0,0,0,-1,1238,1485,0,0
21,-461,0,0,0,0,0,0,0,0,0,-1,1245,1485,0,0
28,-461,0,0,0,0,0,0,0,0,0,-1,1252,1485,0,0
35,-461,0,0,0,0,0,0,0,0,0,-1,1259,1485,0,0
42,-461,0,0,0,0,0,0,0,0,0,-1,1266,1485,0,0
49,-461,0,0,0,0,0,0,0,0,0,-1,1273,1485,0,0
56,-461,0,0,0,0,0,0,0,0,0,-1,1280,1485,0,0
63,-461,0,0,0,0,0,0,0,0,0,-1,1287,1485,0,0
70,-461,0,0,0,0,0,0,0,0,0,-1,1294,1485,0,0
77,-461,0,0,0,0,0,0,0,0,0,-1,1301,1485,0,0
84,-461,0,0,0,0,0,0,0,0,0,-1,1308,1485,0,0
91,-461,0,0,0,0,0,0,0,0,0,-1,1315,1485,0,0
98,-461,0,0,0,0,0,0,0,0,0,-1,1322,1485,0,0
105,-461,0,0,0,0,0,0,0,0,0,-1,1329,1485,0,0
112,-461,0,0,0,0,0,0,0,0,0,-1,1336,1485,0,0
119,-461,0,0,0,0,0,0,0,0,0,-1,1343,1485,0,0
126,-461,0,0,0,0,0,0,0,0,0,-1,1350,1485,0,0
133,-461,0,0,0,0,0,0,0,0,0,-1,1357,1485,0,0
140,-461,0,0,0,0,0,0,0,0,0,-1,1364,1485,0,0
147,-461,0,0,0,0,0,0,0,0,0,-1,1371,1485,0,0
154,-461,0,0,0,0,0,0,0,0,0,-1,1378,1485,0,0
161,-461,0,0,0,0,0,0,0,0,0,-1,1385,1485,0,0
168,-461,0,0,0,0,0,0,0,0,0,-1,1392,1485,0,0
175,-461,0,0,0,0,0,0,0,0,0,-1,1399,1485,0,0
182,-461,0,0,0,0,0,0,0,0,0,-1,1406,1485,0,0
189,-461,0,0,0,0,0,0,0,0,0,-1,1413,1485,0,0
196,-461,0,0,0,0,0,0,0,0,0,-1,1420,1485,0,0
203,-461,0,0,0,0,0,0,0,0,0,-1,1427,1485,0,0
210,-461,0,0,0,0,0,0,0,0,0,-1,1434,1485,0,0
217,-461,0,0,0,0,0,0,0,0,0,-1,1441,1485,0,0
224,-461,0,0,0,0,0,0,0,0,0,-1,1448,1485,0,0
231,-461,0,0,0,0,0,0,0,0,0,-1,1455,1485,0,0
238,-461,0,0,0,0,0,0,0,0,0,-1,1462,1485,0,0
245,-461,0,0,0,0,0,0,0,0,0,-1,1469,1485,0,0
252,-461,0,0,0,0,0,0,0,0,0,-1,1476,1485,0,0
259,-461,0,0,0,0,0,0,0,0,0,-1,1483,1485,0,0
266,-461,0,0,0,0,0,0,0,0,0,-1,1490,1485,0,0
273,-461,0,0,0,0,0,0,0,0,0,-1,1497,1485,0,0
280,-461,0,0,0,0,0,0,0,0,0,-1,1504,1485,0,0
287,-461,0,0,0,0,0,0,0,0,0,-1,1511,1485,0,0
294,-461,0,0,0,0,0,0,0,0,0,-1,1518,1485,0,0
301,-461,0,0,0,0,0,0,0,0,0,-1,1525,1485,0,0
308,-461,0,0,0,0,0,0,0,0,0,-1,1532,1485,0,0
315,-461,0,0,0,0,0,0,0,0,0,-1,1539,1485,0,0
322,-461,0,0,0,0,0,0,0,0,0,-1,1546,1485,0,0
329,-461,0,0,0,0,0,0,0,0,0,-1,1553,1485,0,0
336,-461,0,0,0,0,0,0,0,0,0,-1,1560,1485,0,0
343,-461,0,0,0,0,0,0,0,0,0,-1,1567,1485,0,0
350,-461,0,0,0,0,0,0,0,0,0,-1,1574,1485,0,0
357,-461,0,0,0,0,0,0,0,0,0,-1,1581,1485,0,0
364,-461,0,0,0,0,0,0,0,0,0,-1,1588,1485,0,0
371,-461,0,0,0,0,0,0,0,0,0,-1,1595,1485,0,0
378,-461,0,0,0,0,0,0,0,0,0,-1,1602,1485,0,0
385,-461,0,0,0,0,0,0,0,0,0,-1,1609,1485,0,0
392,-461,0,0,0,0,0,0,0,0,0,-1,1616,1485,0,0
399,-461,0,0,0,0,0,0,0,0,0,-1,1623,1485,0,0
406,-461,0,0,0,0,0,0,0,0,0,-1,1630,1485,0,0
413,-461,0,0,0,0,0,0,0,0,0,-1,1637,1485,0,0
420,-461,0,0,0,0,0,0,0,0,0,-1,1644,1485,0,0
427,-461,0,0,0,0,0,0,0,0,0,-1,1651,1485,0,0
434,-461,0,0,0,0,0,0,0,0,0,-1,1658,1485,0,0
441,-461,0,0,0,0,0,0,0,0,0,-1,1665,1485,0,0
448,-461,0,0,0,0,0,0,0,0,0,-1,1672,1485,0,0
455,-461,0,0,0,0,0,0,0,0,0,-1,1679,1485,0,0
462,-461,0,0,0,0,0,0,0,0,0,-1,1686,1485,0,0
469,-461,0,0,0,0,0,0,0,0,0,-1,1693,1485,0,0
476,-461,14.1906,0.690552,0,0,0,0,0,0,0,-1,1700,1485,14.1906,-0.690525
483,-461,10.6361,3.09106,0,0,0,0,0,0,0,-1,1707,1485,10.6361,-3.091
490,-461,17.9972,0.665894,0,0,0,0,0,0,0,-1,1714,1485,17.9972,-0.665876
497,-461,16.6829,1.87732,0,0,0,0,0,0,0,-1,1721,1485,16.6828,-1.87736
504,-461,15.3884,3.09216,0,0,0,0,0,0,0,-1,1728,1485,15.3885,-3.09212
511,-461,15.4292,14.3512,0,0,0,0,0,0,0,-1,1735,1485,15.4292,-14.3512
518,-461,14.8081,10.0085,0,0,0,0,0,0,0,-1,1742,1485,14.8081,-10.0086
525,-461,14.0022,10.8033,0,0,0,0,0,0,0,-1,1749,1485,14.0022,-10.8033
532,-461,17.1704,14.077,0,0,0,0,0,0,0,-1,1756,1485,17.1704,-14.077
539,-461,17.0229,14.7386,0,0,0,0,0,0,0,-1,1763,1485,17.0229,-14.7387
546,-461,16.2106,14.1372,0,0,0,0,0,0,0,-1,1770,1485,16.2106,-14.1372
553,-461,25.9354,24.2889,0,0,0,0,0,0,0,-1,1777,1485,25.9354,-24.2889
560,-461,30.5941,28.0179,0,0,0,0,0,0,0,-1,1784,1485,30.5941,-28.018
567,-461,30.6013,27.208,0.00668713,0.00366639,-0.0028757,0.00842497,0.00192855,-0.543589,0.00509691,0.0345971,1791,1485,30.6013,-27.208
574,-461,30.5861,26.5637,0.00536827,0.00299366,-0.00250518,0.00695326,0.00140867,-0.564106,0.0042446,0.0322717,1798,1485,30.586,-26.5638
581,-461,30.5715,25.8268,0.00438435,0.00247005,-0.00219212,0.00581918,0.00103523,-0.579558,0.00358456,0.0188743,1805,1485,30.5715,-25.8267
588,-461,30.5375,25.1296,0.00359323,0.00193784,-0.00185057,0.00479277,0.000738305,-0.575109,0.00297972,0.0120694,1812,1485,30.5375,-25.1297
595,-461,30.4633,24.4268,0.00301048,0.00138288,-0.00150965,0.0039117,0.000481655,-0.538193,0.002463,0.00969697,1819,1485,30.4632,-24.4267
602,-461,30.4453,23.6808,0.00259361,0.000808204,-0.00119672,0.0031939,0.000207904,-0.464944,0.00206346,0.0097948,1826,1485,30.4453,-23.6807
609,-461,30.4238,22.9341,0.00235351,0.000314159,-0.000882822,0.00268258,-1.49105e-05,-0.356794,0.00179338,0.0110747,1833,1485,30.4239,-22.9341
616,-461,30.3903,22.207,0.00224812,-0.000106948,-0.00061246,0.00239787,-0.000256703,-0.239807,0.00169066,0.0135471,1840,1485,30.3903,-22.2071
623,-461,30.3993,21.5216,0.00234879,-0.000599047,-0.000332632,0.00238585,-0.000636115,-0.11098,0.00183964,0.0172815,1847,1485,30.3993,-21.5216
630,-461,30.354,20.8451,0.00257138,-0.00103061,-7.10714e-05,0.00257278,-0.00103201,-0.019721,0.00214366,0.0179199,1854,1485,30.354,-20.8451
637,-461,30.2793,20.0944,0.00294628,-0.00136596,9.48687e-05,0.00294837,-0.00136804,0.0219857,0.00254715,0.0166877,1861,1485,30.2793,-20.0944
644,-461,30.3273,19.4135,0.00348669,-0.00150345,0.00011199,0.0034892,-0.00150596,0.0224271,0.00295876,0.0336897,1868,1485,30.3272,-19.4134
651,-461,30.4235,18.6703,0,0,0,0,0,0,0,-1,1875,1485,30.4235,-18.6703
658,-461,16.8987,10.1084,0,0,0,0,0,0,0,-1,1882,1485,16.8986,-10.1084
665,-461,17.2638,9.81384,0,0,0,0,0,0,0,-1,1889,1485,17.2638,-9.81385
672,-461,14.4877,6.89429,0,0,0,0,0,0,0,-1,1896,1485,14.4876,-6.89431
679,-461,10.0535,2.16321,0,0,0,0,0,0,0,-1,1903,1485,10.0535,-2.16317
686,-461,10.8195,1.84192,0,0,0,0,0,0,0,-1,1910,1485,10.8194,-1.84195
693,-461,0,0,0,0,0,0,0,0,0,-1,1917,1485,0,0
700,-461,0,0,0,0,0,0,0,0,0,-1,1924,1485,0,0
707,-461,0,0,0,0,0,0,0,0,0,-1,1931,1485,0,0
714,-461,0,0,0,0,0,0,0,0,0,-1,1938,1485,0,0
721,-461,0,0,0,0,0,0,0,0,0,-1,1945,1485,0,0
728,-461,0,0,0,0,0,0,0,0,0,-1,1952,1485,0,0
735,-461,0,0,0,0,0,0,0,0,0,-1,1959,1485,0,0
742,-461,0,0,0,0,0,0,0,0,0,-1,1966,1485,0,0
749,-461,0,0,0,0,0,0,0,0,0,-1,1973,1485,0,0
756,-461,0,0,0,0,0,0,0,0,0,-1,1980,1485,0,0
763,-461,0,0,0,0,0,0,0,0,0,-1,1987,1485,0,0
770,-461,0,0,0,0,0,0,0,0,0,-1,1994,1485,0,0
777,-461,0,0,0,0,0,0,0,0,0,-1,2001,1485,0,0
784,-461,0,0,0,0,0,0,0,0,0,-1,2008,1485,0,0
791,-461,0,0,0,0,0,0,0,0,0,-1,2015,1485,0,0
798,-461,0,0,0,0,0,0,0,0,0,-1,2022,1485,0,0
805,-461,0,0,0,0,0,0,0,0,0,-1,2029,1485,0,0
812,-461,0,0,0,0,0,0,0,0,0,-1,2036,1485,0,0
-700,-468,0,0,0,0,0,0,0,0,0,-1,524,1492,0,0
-693,-468,0,0,0,0,0,0,0,0,0,-1,531,1492,0,0
-686,-468,0,0,0,0,0,0,0,0,0,-1,538,1492,0,0
-679,-468,0,0,0,0,0,0,0,0,0,-1,545,1492,0,0
-672,-468,0,0,0,0,0,0,0,0,0,-1,552,1492,0,0
-665,-468,0,0,0,0,0,0,0,0,0,-1,559,1492,0,0
-658,-468,0,0,0,0,0,0,0,0,0,-1,566,1492,0,0
-651,-468,0,0,0,0,0,0,0,0,0,-1,573,1492,0,0
-644,-468,0,0,0,0,0,0,0,0,0,-1,580,1492,0,0
-637,-468,0,0,0,0,0,0,0,0,0,-1,587,1492,0,0
-630,-468,0,0,0,0,0,0,0,0,0,-1,594,1492,0,0
-623,-468,0,0,0,0,0,0,0,0,0,-1,601,1492,0,0
-616,-468,0,0,0,0,0,0,0,0,0,-1,608,1492,0,0
-609,-468,0,0,0,0,0,0,0,0,0,-1,615,1492,0,0
-602,-468,0,0,0,0,0,0,0,0,0,-1,622,1492,0,0
-595,-468,0,0,0,0,0,0,0,0,0,-1,629,1492,0,0
-588,-468,0,0,0,0,0,0,0,0,0,-1,636,1492,0,0
-581,-468,0,0,0,0,0,0,0,0,0,-1,643,1492,0,0
-574,-468,0,0,0,0,0,0,0,0,0,-1,650,1492,0,0
-567,-468,-11.2603,1.8042,0,0,0,0,0,0,0,-1,657,1492,-11.2603,-1.80424
-560,-468,-8.77441,2.23694,0,0,0,0,0,0,0,-1,664,1492,-8.77443,-2.23692
-553,-468,-5.94061,9.26318,0,0,0,0,0,0,0,-1,671,1492,-5.94062,-9.26322
-546,-468,-10.47,5.43237,0,0,0,0,0,0,0,-1,678,1492,-10.47,-5.4324
-539,-468,-10.2468,5.45203,0,0,0,0,0,0,0,-1,685,1492,-10.2468,-5.45197
-532,-468,-8.39795,6.02783,0,0,0,0,0,0,0,-1,692,1492,-8.39793,-6.02789
-525,-468,-6.59332,7.15405,0,0,0,0,0,0,0,-1,699,1492,-6.59331,-7.15411
-518,-468,-6.33588,8.65393,0,0,0,0,0,0,0,-1,706,1492,-6.33588,-8.65397
-511,-468,-8.05835,13.8282,0,0,0,0,0,0,0,-1,713,1492,-8.05835,-13.8283
-504,-468,-12.3014,19.1504,0,0,0,0,0,0,0,-1,720,1492,-12.3014,-19.1504
-497,-468,-12.2268,20.009,0.00396525,0.00343379,0.00464971,0.00835682,-0.000957774,0.756854,0.00591637,0.0309901,727,1492,-12.2268,-20.009
-490,-468,-12.2298,20.8846,0.00286725,0.00230671,0.00336486,0.0059635,-0.00078953,0.743848,0.00426328,0.00888648,734,1492,-12.2298,-20.8846
-483,-468,-12.2827,21.6373,0.00200793,0.00144688,0.00231033,0.0040547,-0.000599892,0.724984,0.00292369,0.00922375,741,1492,-12.2827,-21.6373
-476,-468,-12.324,22.3879,0.00150892,0.00104068,0.00164945,0.00294079,-0.000391186,0.714899,0.00210308,0.010363,748,1492,-12.324,-22.3879
-469,-468,-12.3465,23.1335,0.00129238,0.00104967,0.00131937,0.00249597,-0.000153919,0.739537,0.00171759,0.0148441,755,1492,-12.3465,-23.1335
-462,-468,-12.3286,23.9089,0.00135372,0.00138234,0.00129488,0.00266299,7.30639e-05,0.790924,0.00175148,0.0251243,762,1492,-12.3286,-23.9089
-455,-468,-12.379,24.6152,0.00169779,0.00203134,0.0015629,0.00343634,0.000292792,0.838552,0.0021998,0.0262975,769,1492,-12.379,-24.6152
-448,-468,-12.4452,25.4084,0.00242745,0.00320775,0.00228197,0.00513268,0.000502518,0.870065,0.00326719,0.0155846,776,1492,-12.4452,-25.4085
-441,-468,-12.4856,26.1456,0.00343095,0.00469117,0.00329776,0.00741848,0.000703641,0.879796,0.00472859,0.0174158,783,1492,-12.4856,-26.1456
-434,-468,-12.4378,27.0161,0.00477048,0.00652855,0.00469088,0.010422,0.00087698,0.878021,0.00667494,0.0422928,790,1492,-12.4378,-27.0162
-427,-468,-12.2344,27.702,0,0,0,0,0,0,0,-1,797,1492,-12.2344,-27.702
-420,-468,-7.57581,22.0538,0,0,0,0,0,0,0,-1,804,1492,-7.57582,-22.0538
-413,-468,-5.30328,17.3519,0,0,0,0,0,0,0,-1,811,1492,-5.30329,-17.352
-406,-468,-2.2356,9.396,0,0,0,0,0,0,0,-1,818,1492,-2.2356,-9.396
-399,-468,-0.940369,8.1936,0,0,0,0,0,0,0,-1,825,1492,-0.940365,-8.19357
-392,-468,-0.35144,8.14673,0,0,0,0,0,0,0,-1,832,1492,-0.351449,-8.14674
-385,-468,0.465759,5.35864,0,0,0,0,0,0,0,-1,839,1492,0.465732,-5.35864
-378,-468,1.99835,3.25391,0,0,0,0,0,0,0,-1,846,1492,1.99837,-3.2539
-371,-468,-0.31842,3.1532,0,0,0,0,0,0,0,-1,853,1492,-0.318441,-3.15324
-364,-468,-0.966736,2.14563,0,0,0,0,0,0,0,-1,860,1492,-0.966735,-2.14557
-357,-468,-3.06787,3.22742,0,0,0,0,0,0,0,-1,867,1492,-3.06784,-3.2274
-350,-468,-3.18658,4.12659,0,0,0,0,0,0,0,-1,874,1492,-3.18659,-4.12658
-343,-468,0,0,0,0,0,0,0,0,0,-1,881,1492,0,0
-336,-468,0,0,0,0,0,0,0,0,0,-1,888,1492,0,0
-329,-468,0,0,0,0,0,0,0,0,0,-1,895,1492,0,0
-322,-468,0,0,0,0,0,0,0,0,0,-1,902,1492,0,0
-315,-468,0,0,0,0,0,0,0,0,0,-1,909,1492,0,0
-308,-468,0,0,0,0,0,0,0,0,0,-1,916,1492,0,0
-301,-468,0,0,0,0,0,0,0,0,0,-1,923,1492,0,0
-294,-468,0,0,0,0,0,0,0,0,0,-1,930,1492,0,0
-287,-468,0,0,0,0,0,0,0,0,0,-1,937,1492,0,0
-280,-468,0,0,0,0,0,0,0,0,0,-1,944,1492,0,0
-273,-468,0,0,0,0,0,0,0,0,0,-1,951,1492,0,0
-266,-468,0,0,0,0,0,0,0,0,0,-1,958,1492,0,0
-259,-468,0,0,0,0,0,0,0,0,0,-1,965,1492,0,0
-252,-468,0,0,0,0,0,0,0,0,0,-1,972,1492,0,0
-245,-468,0,0,0,0,0,0,0,0,0,-1,979,1492,0,0
-238,-468,0,0,0,0,0,0,0,0,0,-1,986,1492,0,0
-231,-468,0,0,0,0,0,0,0,0,0,-1,993,1492,0,0
-224,-468,0,0,0,0,0,0,0,0,0,-1,1000,1492,0,0
-217,-468,0,0,0,0,0,0,0,0,0,-1,1007,1492,0,0
-210,-468,0,0,0,0,0,0,0,0,0,-1,1014,1492,0,0
-203,-468,0,0,0,0,0,0,0,0,0,-1,1021,1492,0,0
-196,-468,0,0,0,0,0,0,0,0,0,-1,1028,1492,0,0
-189,-468,0,0,0,0,0,0,0,0,0,-1,1035,1492,0,0
-182,-468,0,0,0,0,0,0,0,0,0,-1,1042,1492,0,0
-175,-468,0,0,0,0,0,0,0,0,0,-1,1049,1492,0,0
-168,-468,0,0,0,0,0,0,0,0,0,-1,1056,1492,0,0
-161,-468,0,0,0,0,0,0,0,0,0,-1,1063,1492,0,0
-154,-468,0,0,0,0,0,0,0,0,0,-1,1070,1492,0,0
-147,-468,0,0,0,0,0,0,0,0,0,-1,1077,1492,0,0
-140,-468,0,0,0,0,0,0,0,0,0,-1,1084,1492,0,0
-133,-468,0,0,0,0,0,0,0,0,0,-1,1091,1492,0,0
-126,-468,0,0,0,0,0,0,0,0,0,-1,1098,1492,0,0
-119,-468,0,0,0,0,0,0,0,0,0,-1,1105,1492,0,0
-112,-468,0,0,0,0,0,0,0,0,0,-1,1112,1492,0,0
-105,-468,0,0,0,0,0,0,0,0,0,-1,1119,1492,0,0
-98,-468,0,0,0,0,0,0,0,0,0,-1,1126,1492,0,0
-91,-468,0,0,0,0,0,0,0,0,0,-1,1133,1492,0,0
-84,-468,0,0,0,0,0,0,0,0,0,-1,1140,1492,0,0
-77,-468,0,0,0,0,0,0,0,0,0,-1,1147,1492,0,0
-70,-468,0,0,0,0,0,0,0,0,0,-1,1154,1492,0,0
-63,-468,0,0,0,0,0,0,0,0,0,-1,1161,1492,0,0
-56,-468,0,0,0,0,0,0,0,0,0,-1,1168,1492,0,0
-49,-468,0,0,0,0,0,0,0,0,0,-1,1175,1492,0,0
-42,-468,0,0,0,0,0,0,0,0,0,-1,1182,1492,0,0
-35,-468,0,0,0,0,0,0,0,0,0,-1,1189,1492,0,0
-28,-468,0,0,0,0,0,0,0,0,0,-1,1196,1492,0,0
-21,-468,0,0,0,0,0,0,0,0,0,-1,1203,1492,0,0
-14,-468,0,0,0,0,0,0,0,0,0,-1,1210,1492,0,0
-7,-468,0,0,0,0,0,0,0,0,0,-1,1217,1492,0,0
0,-468,0,0,0,0,0,0,0,0,0,-1,1224,1492,0,0
7,-468,0,0,0,0,0,0,0,0,0,-1,1231,1492,0,0
14,-468,0,0,0,0,0,0,0,0,0,-1,1238,1492,0,0
21,-468,0,0,0,0,0,0,0,0,0,-1,1245,1492,0,0
28,-468,0,0,0,0,0,0,0,0,0,-1,1252,1492,0,0
35,-468,0,0,0,0,0,0,0,0,0,-1,1259,1492,0,0
42,-468,0,0,0,0,0,0,0,0,0,-1,1266,1492,0,0
49,-468,0,0,0,0,0,0,0,0,0,-1,1273,1492,0,0
56,-468,0,0,0,0,0,0,0,0,0,-1,1280,1492,0,0
63,-468,0,0,0,0,0,0,0,0,0,-1,1287,1492,0,0
70,-468,0,0,0,0,0,0,0,0,0,-1,1294,1492,0,0
77,-468,0,0,0,0,0,0,0,0,0,-1,1301,1492,0,0
84,-468,0,0,0,0,0,0,0,0,0,-1,1308,1492,0,0
91,-468,0,0,0,0,0,0,0,0,0,-1,1315,1492,0,0
98,-468,0,0,0,0,0,0,0,0,0,-1,1322,1492,0,0
105,-468,0,0,0,0,0,0,0,0,0,-1,1329,1492,0,0
112,-468,0,0,0,0,0,0,0,0,0,-1,1336,1492,0,0
119,-468,0,0,0,0,0,0,0,0,0,-1,1343,1492,0,0
126,-468,0,0,0,0,0,0,0,0,0,-1,1350,1492,0,0
133,-468,0,0,0,0,0,0,0,0,0,-1,1357,1492,0,0
140,-468,0,0,0,0,0,0,0,0,0,-1,1364,1492,0,0
147,-468,0,0,0,0,0,0,0,0,0,-1,1371,1492,0,0
154,-468,0,0,0,0,0,0,0,0,0,-1,1378,1492,0,0
161,-468,0,0,0,0,0,0,0,0,0,-1,1385,1492,0,0
168,-468,0,0,0,0,0,0,0,0,0,-1,1392,1492,0,0
175,-468,0,0,0,0,0,0,0,0,0,-1,1399,1492,0,0
182,-468,0,0,0,0,0,0,0,0,0,-1,1406,1492,0,0
189,-468,0,0,0,0,0,0,0,0,0,-1,1413,1492,0,0
196,-468,0,0,0,0,0,0,0,0,0,-1,1420,1492,0,0
203,-468,0,0,0,0,0,0,0,0,0,-1,1427,1492,0,0
210,-468,0,0,0,0,0,0,0,0,0,-1,1434,1492,0,0
217,-468,0,0,0,0,0,0,0,0,0,-1,1441,1492,0,0
224,-468,0,0,0,0,0,0,0,0,0,-1,1448,1492,0,0
231,-468,0,0,0,0,0,0,0,0,0,-1,1455,1492,0,0
238,-468,0,0,0,0,0,0,0,0,0,-1,1462,1492,0,0
245,-468,0,0,0,0,0,0,0,0,0,-1,1469,1492,0,0
252,-468,0,0,0,0,0,0,0,0,0,-1,1476,1492,0,0
259,-468,0,0,0,0,0,0,0,0,0,-1,1483,1492,0,0
266,-468,0,0,0,0,0,0,0,0,0,-1,1490,1492,0,0
273,-468,0,0,0,0,0,0,0,0,0,-1,1497,1492,0,0
280,-468,0,0,0,0,0,0,0,0,0,-1,1504,1492,0,0
287,-468,0,0,0,0,0,0,0,0,0,-1,1511,1492,0,0
294,-468,0,0,0,0,0,0,0,0,0,-1,1518,1492,0,0
301,-468,0,0,0,0,0,0,0,0,0,-1,1525,1492,0,0
308,-468,0,0,0,0,0,0,0,0,0,-1,1532,1492,0,0
315,-468,0,0,0,0,0,0,0,0,0,-1,1539,1492,0,0
322,-468,0,0,0,0,0,0,0,0,0,-1,1546,1492,0,0
329,-468,0,0,0,0,0,0,0,0,0,-1,1553,1492,0,0
336,-468,0,0,0,0,0,0,0,0,0,-1,1560,1492,0,0
343,-468,0,0,0,0,0,0,0,0,0,-1,1567,1492,0,0
350,-468,0,0,0,0,0,0,0,0,0,-1,1574,1492,0,0
357,-468,0,0,0,0,0,0,0,0,0,-1,1581,1492,0,0
364,-468,0,0,0,0,0,0,0,0,0,-1,1588,1492,0,0
371,-468,0,0,0,0,0,0,0,0,0,-1,1595,1492,0,0
378,-468,0,0,0,0,0,0,0,0,0,-1,1602,1492,0,0
385,-468,0,0,0,0,0,0,0,0,0,-1,1609,1492,0,0
392,-468,0,0,0,0,0,0,0,0,0,-1,1616,1492,0,0
399,-468,0,0,0,0,0,0,0,0,0,-1,1623,1492,0,0
406,-468,0,0,0,0,0,0,0,0,0,-1,1630,1492,0,0
413,-468,0,0,0,0,0,0,0,0,0,-1,1637,1492,0,0
420,-468,0,0,0,0,0,0,0,0,0,-1,1644,1492,0,0
427,-468,0,0,0,0,0,0,0,0,0,-1,1651,1492,0,0
434,-468,0,0,0,0,0,0,0,0,0,-1,1658,1492,0,0
441,-468,0,0,0,0,0,0,0,0,0,-1,1665,1492,0,0
448,-468,0,0,0,0,0,0,0,0,0,-1,1672,1492,0,0
455,-468,0,0,0,0,0,0,0,0,0,-1,1679,1492,0,0
462,-468,0,0,0,0,0,0,0,0,0,-1,1686,1492,0,0
469,-468,15.6879,1.2677,0,0,0,0,0,0,0,-1,1693,1492,15.6879,-1.26772
476,-468,14.9318,1.61865,0,0,0,0,0,0,0,-1,1700,1492,14.9318,-1.61869
483,-468,11.265,4.64795,0,0,0,0,0,0,0,-1,1707,1492,11.265,-4.64798
490,-468,12.1316,3.51624,0,0,0,0,0,0,0,-1,1714,1492,12.1316,-3.51628
497,-468,16.5355,3.14587,0,0,0,0,0,0,0,-1,1721,1492,16.5356,-3.14583
504,-468,15.0642,4.10437,0,0,0,0,0,0,0,-1,1728,1492,15.0643,-4.10431
511,-468,15.6877,9.4801,0,0,0,0,0,0,0,-1,1735,1492,15.6878,-9.48007
518,-468,13.759,11.0887,0,0,0,0,0,0,0,-1,1742,1492,13.759,-11.0887
525,-468,16.6531,14.2238,0,0,0,0,0,0,0,-1,1749,1492,16.653,-14.2237
532,-468,16.9696,15.9641,0,0,0,0,0,0,0,-1,1756,1492,16.9696,-15.9641
539,-468,21.5308,20.7551,0,0,0,0,0,0,0,-1,1763,1492,21.5308,-20.7551
546,-468,25.5796,25.0283,0,0,0,0,0,0,0,-1,1770,1492,25.5796,-25.0284
553,-468,29.7145,28.7186,0,0,0,0,0,0,0,-1,1777,1492,29.7145,-28.7186
560,-468,29.8784,28.0143,0.00793542,0.00479703,-0.00362281,0.0103143,0.00241818,-0.581024,0.00622861,0.0424146,1784,1492,29.8785,-28.0143
567,-468,29.8597,27.3379,0.00611187,0.00346926,-0.00268274,0.00778104,0.00180009,-0.556575,0.00470358,0.0224011,1791,1492,29.8597,-27.3379
574,-468,29.8823,26.5867,0.0048857,0.00268715,-0.00225444,0.00629459,0.00127826,-0.558556,0.00384186,0.0166895,1798,1492,29.8823,-26.5867
581,-468,29.8671,25.8779,0.00394558,0.00208075,-0.00190427,0.00513346,0.000892867,-0.557734,0.00316692,0.0169365,1805,1492,29.8671,-25.8779
588,-468,29.7991,25.1781,0.00325949,0.00151776,-0.00159465,0.00420557,0.000571674,-0.535469,0.00263392,0.0134846,1812,1492,29.7991,-25.178
595,-468,29.7474,24.4529,0.0028214,0.000965826,-0.00129736,0.00348858,0.000298645,-0.474992,0.00223284,0.0111135,1819,1492,29.7474,-24.4529
602,-468,29.7283,23.7104,0.00252216,0.000431865,-0.00104491,0.00295491,-8.83942e-07,-0.392643,0.00197024,0.00984347,1826,1492,29.7282,-23.7104
609,-468,29.6796,22.9708,0.00239077,-2.26306e-05,-0.000784249,0.00262322,-0.000255087,-0.288157,0.00183975,0.0104175,1833,1492,29.6795,-22.9709
616,-468,29.6528,22.2456,0.00240108,-0.00044668,-0.000526719,0.00249538,-0.000540979,-0.177154,0.00187018,0.0106388,1840,1492,29.6528,-22.2456
623,-468,29.6488,21.5511,0.0025902,-0.000985733,-0.00021436,0.002603,-0.000998537,-0.0596605,0.00214703,0.0123406,1847,1492,29.6488,-21.5511
630,-468,29.6301,20.8281,0.00287451,-0.00143118,9.79117e-05,0.00287674,-0.0014334,0.0227244,0.00253454,0.0130705,1854,1492,29.6301,-20.8282
637,-468,29.5997,20.0808,0.00327563,-0.0018938,0.000372229,0.00330229,-0.00192047,0.0715142,0.00305034,0.0166124,1861,1492,29.5998,-20.0808
644,-468,29.5984,19.4996,0.00377246,-0.00223379,0.000575817,0.00382717,-0.0022885,0.09472,0.00356794,0.0359852,1868,1492,29.5984,-19.4996
651,-468,29.7279,18.8292,0,0,0,0,0,0,0,-1,1875,1492,29.7279,-18.8292
658,-468,16.4969,10.0774,0,0,0,0,0,0,0,-1,1882,1492,16.497,-10.0774
665,-468,15.4673,8.59546,0,0,0,0,0,0,0,-1,1889,1492,15.4672,-8.59548
672,-468,9.96814,3.61133,0,0,0,0,0,0,0,-1,1896,1492,9.96817,-3.61139
679,-468,11.2191,1.91968,0,0,0,0,0,0,0,-1,1903,1492,11.2191,-1.91965
686,-468,11.9252,1.42285,0,0,0,0,0,0,0,-1,1910,1492,11.9252,-1.42291
693,-468,0,0,0,0,0,0,0,0,0,-1,1917,1492,0,0
700,-468,0,0,0,0,0,0,0,0,0,-1,1924,1492,0,0
707,-468,0,0,0,0,0,0,0,0,0,-1,1931,1492,0,0
714,-468,0,0,0,0,0,0,0,0,0,-1,1938,1492,0,0
721,-468,0,0,0,0,0,0,0,0,0,-1,1945,1492,0,0
728,-468,0,0,0,0,0,0,0,0,0,-1,1952,1492,0,0
735,-468,0,0,0,0,0,0,0,0,0,-1,1959,1492,0,0
742,-468,0,0,0,0,0,0,0,0,0,-1,1966,1492,0,0
749,-468,0,0,0,0,0,0,0,0,0,-1,1973,1492,0,0
756,-468,0,0,0,0,0,0,0,0,0,-1,1980,1492,0,0
763,-468,0,0,0,0,0,0,0,0,0,-1,1987,1492,0,0
770,-468,0,0,0,0,0,0,0,0,0,-1,1994,1492,0,0
777,-468,0,0,0,0,0,0,0,0,0,-1,2001,1492,0,0
784,-468,0,0,0,0,0,0,0,0,0,-1,2008,1492,0,0
791,-468,0,0,0,0,0,0,0,0,0,-1,2015,1492,0,0
798,-468,0,0,0,0,0,0,0,0,0,-1,2022,1492,0,0
805,-468,0,0,0,0,0,0,0,0,0,-1,2029,1492,0,0
812,-468,0,0,0,0,0,0,0,0,0,-1,2036,1492,0,0
-700,-475,0,0,0,0,0,0,0,0,0,-1,524,1499,0,0
-693,-475,0,0,0,0,0,0,0,0,0,-1,531,1499,0,0
-686,-475,0,0,0,0,0,0,0,0,0,-1,538,1499,0,0
-679,-475,0,0,0,0,0,0,0,0,0,-1,545,1499,0,0
-672,-475,0,0,0,0,0,0,0,0,0,-1,552,1499,0,0
-665,-475,0,0,0,0,0,0,0,0,0,-1,559,1499,0,0
-658,-475,0,0,0,0,0,0,0,0,0,-1,566,1499,0,0
-651,-475,0,0,0,0,0,0,0,0,0,-1,573,1499,0,0
-644,-475,0,0,0,0,0,0,0,0,0,-1,580,1499,0,0
-637,-475,0,0,0,0,0,0,0,0,0,-1,587,1499,0,0
-630,-475,0,0,0,0,0,0,0,0,0,-1,594,1499,0,0
-623,-475,0,0,0,0,0,0,0,0,0,-1,601,1499,0,0
-616,-475,0,0,0,0,0,0,0,0,0,-1,608,1499,0,0
-609,-475,0,0,0,0,0,0,0,0,0,-1,615,1499,0,0
-602,-475,0,0,0,0,0,0,0,0,0,-1,622,1499,0,0
-595,-475,0,0,0,0,0,0,0,0,0,-1,629,1499,0,0
-588,-475,0,0,0,0,0,0,0,0,0,-1,636,1499,0,0
-581,-475,0,0,0,0,0,0,0,0,0,-1,643,1499,0,0
-574,-475,0,0,0,0,0,0,0,0,0,-1,650,1499,0,0
-567,-475,0,0,0,0,0,0,0,0,0,-1,657,1499,0,0
-560,-475,-9.42731,9.29517,0,0,0,0,0,0,0,-1,664,1499,-9.42731,-9.29519
-553,-475,-8.15131,8.78369,0,0,0,0,0,0,0,-1,671,1499,-8.15131,-8.78367
-546,-475,-8.41254,8.20654,0,0,0,0,0,0,0,-1,678,1499,-8.41251,-8.20655
-539,-475,-4.7345,4.17419,0,0,0,0,0,0,0,-1,685,1499,-4.73449,-4.17418
-532,-475,-7.07379,4.25024,0,0,0,0,0,0,0,-1,692,1499,-7.07378,-4.2503
-525,-475,-6.13147,5.82166,0,0,0,0,0,0,0,-1,699,1499,-6.1315,-5.8216
-518,-475,-7.28784,9.31506,0,0,0,0,0,0,0,-1,706,1499,-7.28782,-9.315
-511,-475,-6.84851,12.4244,0,0,0,0,0,0,0,-1,713,1499,-6.84851,-12.4244
-504,-475,-8.80957,16.0863,0,0,0,0,0,0,0,-1,720,1499,-8.80954,-16.0862
-497,-475,-11.6402,19.9032,0,0,0,0,0,0,0,-1,727,1499,-11.6402,-19.9032
-490,-475,-11.5049,20.8812,0.0039262,0.00148244,0.00376904,0.00666647,-0.00125784,0.628649,0.00491751,0.0189825,734,1499,-11.505,-20.8812
-483,-475,-11.5193,21.7025,0.00285153,0.000564349,0.00252447,0.00447935,-0.00106348,0.572725,0.00339668,0.00927019,741,1499,-11.5193,-21.7025
-476,-475,-11.5535,22.4409,0.002147,0.0001917,0.00172686,0.00315375,-0.000815052,0.527822,0.00242037,0.0113322,748,1499,-11.5535,-22.4409
-469,-475,-11.572,23.197,0.00173103,0.000305827,0.00133026,0.00252753,-0.000490674,0.539505,0.00187016,0.0136997,755,1499,-11.572,-23.197
-462,-475,-11.5496,23.9583,0.00155697,0.000773206,0.00124651,0.00247175,-0.00014157,0.633098,0.00169699,0.0185896,762,1499,-11.5496,-23.9583
-455,-475,-11.6172,24.7454,0.00163609,0.00154131,0.00144856,0.00303804,0.000139365,0.769046,0.00198054,0.0166872,769,1499,-11.6172,-24.7454
-448,-475,-11.7227,25.4755,0.00204314,0.00277338,0.00204735,0.00448791,0.000328607,0.87364,0.00288864,0.0142534,776,1499,-11.7226,-25.4755
-441,-475,-11.7601,26.1853,0.00267944,0.00424292,0.00290165,0.00646628,0.00045607,0.91698,0.00416716,0.0163212,783,1499,-11.7601,-26.1853
-434,-475,-11.7682,26.9272,0.00361726,0.00600618,0.00407462,0.00905781,0.000565636,0.927977,0.0058591,0.0113806,790,1499,-11.7682,-26.9272
-427,-475,-11.7035,27.8148,0.00497095,0.00833172,0.0056864,0.0125808,0.000721846,0.929064,0.00815725,0.0405931,797,1499,-11.7035,-27.8148
-420,-475,-11.5544,28.6671,0,0,0,0,0,0,0,-1,804,1499,-11.5544,-28.6672
-413,-475,-6.46777,20.8481,0,0,0,0,0,0,0,-1,811,1499,-6.46776,-20.8481
-406,-475,-2.56116,12.4956,0,0,0,0,0,0,0,-1,818,1499,-2.56116,-12.4956
-399,-475,-1.39667,6.1615,0,0,0,0,0,0,0,-1,825,1499,-1.39664,-6.16155
-392,-475,0.217163,8.61389,0,0,0,0,0,0,0,-1,832,1499,0.217167,-8.6139
-385,-475,1.18372,2.73999,0,0,0,0,0,0,0,-1,839,1499,1.18372,-2.73995
-378,-475,1.31409,2.90149,0,0,0,0,0,0,0,-1,846,1499,1.31411,-2.90151
-371,-475,2.3476,3.31116,0,0,0,0,0,0,0,-1,853,1499,2.34761,-3.31121
-364,-475,1.04462,9.05823,0,0,0,0,0,0,0,-1,860,1499,1.04461,-9.05825
-357,-475,-0.262756,7.97205,0,0,0,0,0,0,0,-1,867,1499,-0.262784,-7.97205
-350,-475,-5.16473,-1.27881,0,0,0,0,0,0,0,-1,874,1499,-5.16474,1.27884
-343,-475,-5.76923,-0.530518,0,0,0,0,0,0,0,-1,881,1499,-5.76923,0.530526
-336,-475,0,0,0,0,0,0,0,0,0,-1,888,1499,0,0
-329,-475,0,0,0,0,0,0,0,0,0,-1,895,1499,0,0
-322,-475,0,0,0,0,0,0,0,0,0,-1,902,1499,0,0
-315,-475,0,0,0,0,0,0,0,0,0,-1,909,1499,0,0
-308,-475,0,0,0,0,0,0,0,0,0,-1,916,1499,0,0
-301,-475,0,0,0,0,0,0,0,0,0,-1,923,1499,0,0
-294,-475,0,0,0,0,0,0,0,0,0,-1,930,1499,0,0
-287,-475,0,0,0,0,0,0,0,0,0,-1,937,1499,0,0
-280,-475,0,0,0,0,0,0,0,0,0,-1,944,1499,0,0
-273,-475,0,0,0,0,0,0,0,0,0,-1,951,1499,0,0
-266,-475,0,0,0,0,0,0,0,0,0,-1,958,1499,0,0
-259,-475,0,0,0,0,0,0,0,0,0,-1,965,1499,0,0
-252,-475,0,0,0,0,0,0,0,0,0,-1,972,1499,0,0
-245,-475,0,0,0,0,0,0,0,0,0,-1,979,1499,0,0
-238,-475,0,0,0,0,0,0,0,0,0,-1,986,1499,0,0
-231,-475,0,0,0,0,0,0,0,0,0,-1,993,1499,0,0
-224,-475,0,0,0,0,0,0,0,0,0,-1,1000,1499,0,0
-217,-475,0,0,0,0,0,0,0,0,0,-1,1007,1499,0,0
-210,-475,0,0,0,0,0,0,0,0,0,-1,1014,1499,0,0
-203,-475,0,0,0,0,0,0,0,0,0,-1,1021,1499,0,0
-196,-475,0,0,0,0,0,0,0,0,0,-1,1028,1499,0,0
-189,-475,0,0,0,0,0,0,0,0,0,-1,1035,1499,0,0
-182,-475,0,0,0,0,0,0,0,0,0,-1,1042,1499,0,0
-175,-475,0,0,0,0,0,0,0,0,0,-1,1049,1499,0,0
-168,-475,0,0,0,0,0,0,0,0,0,-1,1056,1499,0,0
-161,-475,0,0,0,0,0,0,0,0,0,-1,1063,1499,0,0
-154,-475,0,0,0,0,0,0,0,0,0,-1,1070,1499,0,0
-147,-475,0,0,0,0,0,0,0,0,0,-1,1077,1499,0,0
-140,-475,0,0,0,0,0,0,0,0,0,-1,1084,1499,0,0
-133,-475,0,0,0,0,0,0,0,0,0,-1,1091,1499,0,0
-126,-475,0,0,0,0,0,0,0,0,0,-1,1098,1499,0,0
-119,-475,0,0,0,0,0,0,0,0,0,-1,1105,1499,0,0
-112,-475,0,0,0,0,0,0,0,0,0,-1,1112,1499,0,0
-105,-475,0,0,0,0,0,0,0,0,0,-1,1119,1499,0,0
-98,-475,0,0,0,0,0,0,0,0,0,-1,1126,1499,0,0
-91,-475,0,0,0,0,0,0,0,0,0,-1,1133,1499,0,0
-84,-475,0,0,0,0,0,0,0,0,0,-1,1140,1499,0,0
-77,-475,0,0,0,0,0,0,0,0,0,-1,1147,1499,0,0
-70,-475,0,0,0,0,0,0,0,0,0,-1,1154,1499,0,0
-63,-475,0,0,0,0,0,0,0,0,0,-1,1161,1499,0,0
-56,-475,0,0,0,0,0,0,0,0,0,-1,1168,1499,0,0
-49,-475,0,0,0,0,0,0,0,0,0,-1,1175,1499,0,0
-42,-475,0,0,0,0,0,0,0,0,0,-1,1182,1499,0,0
-35,-475,0,0,0,0,0,0,0,0,0,-1,1189,1499,0,0
-28,-475,0,0,0,0,0,0,0,0,0,-1,1196,1499,0,0
-21,-475,0,0,0,0,0,0,0,0,0,-1,1203,1499,0,0
-14,-475,0,0,0,0,0,0,0,0,0,-1,1210,1499,0,0
-7,-475,0,0,0,0,0,0,0,0,0,-1,1217,1499,0,0
0,-475,0,0,0,0,0,0,0,0,0,-1,1224,1499,0,0
7,-475,0,0,0,0,0,0,0,0,0,-1,1231,1499,0,0
14,-475,0,0,0,0,0,0,0,0,0,-1,1238,1499,0,0
21,-475,0,0,0,0,0,0,0,0,0,-1,1245,1499,0,0
28,-475,0,0,0,0,0,0,0,0,0,-1,1252,1499,0,0
35,-475,0,0,0,0,0,0,0,0,0,-1,1259,1499,0,0
42,-475,0,0,0,0,0,0,0,0,0,-1,1266,1499,0,0
49,-475,0,0,0,0,0,0,0,0,0,-1,1273,1499,0,0
56,-475,0,0,0,0,0,0,0,0,0,-1,1280,1499,0,0
63,-475,0,0,0,0,0,0,0,0,0,-1,1287,1499,0,0
70,-475,0,0,0,0,0,0,0,0,0,-1,1294,1499,0,0
77,-475,0,0,0,0,0,0,0,0,0,-1,1301,1499,0,0
84,-475,0,0,0,0,0,0,0,0,0,-1,1308,1499,0,0
91,-475,0,0,0,0,0,0,0,0,0,-1,1315,1499,0,0
98,-475,0,0,0,0,0,0,0,0,0,-1,1322,1499,0,0
105,-475,0,0,0,0,0,0,0,0,0,-1,1329,1499,0,0
112,-475,0,0,0,0,0,0,0,0,0,-1,1336,1499,0,0
119,-475,0,0,0,0,0,0,0,0,0,-1,1343,1499,0,0
126,-475,0,0,0,0,0,0,0,0,0,-1,1350,1499,0,0
133,-475,0,0,0,0,0,0,0,0,0,-1,1357,1499,0,0
140,-475,0,0,0,0,0,0,0,0,0,-1,1364,1499,0,0
147,-475,0,0,0,0,0,0,0,0,0,-1,1371,1499,0,0
154,-475,0,0,0,0,0,0,0,0,0,-1,1378,1499,0,0
161,-475,0,0,0,0,0,0,0,0,0,-1,1385,1499,0,0
168,-475,0,0,0,0,0,0,0,0,0,-1,1392,1499,0,0
175,-475,0,0,0,0,0,0,0,0,0,-1,1399,1499,0,0
182,-475,0,0,0,0,0,0,0,0,0,-1,1406,1499,0,0
189,-475,0,0,0,0,0,0,0,0,0,-1,1413,1499,0,0
196,-475,0,0,0,0,0,0,0,0,0,-1,1420,1499,0,0
203,-475,0,0,0,0,0,0,0,0,0,-1,1427,1499,0,0
210,-475,0,0,0,0,0,0,0,0,0,-1,1434,1499,0,0
217,-475,0,0,0,0,0,0,0,0,0,-1,1441,1499,0,0
224,-475,0,0,0,0,0,0,0,0,0,-1,1448,1499,0,0
231,-475,0,0,0,0,0,0,0,0,0,-1,1455,1499,0,0
238,-475,0,0,0,0,0,0,0,0,0,-1,1462,1499,0,0
245,-475,0,0,0,0,0,0,0,0,0,-1,1469,1499,0,0
252,-475,0,0,0,0,0,0,0,0,0,-1,1476,1499,0,0
259,-475,0,0,0,0,0,0,0,0,0,-1,1483,1499,0,0
266,-475,0,0,0,0,0,0,0,0,0,-1,1490,1499,0,0
273,-475,0,0,0,0,0,0,0,0,0,-1,1497,1499,0,0
280,-475,0,0,0,0,0,0,0,0,0,-1,1504,1499,0,0
287,-475,0,0,0,0,0,0,0,0,0,-1,1511,1499,0,0
294,-475,0,0,0,0,0,0,0,0,0,-1,1518,1499,0,0
301,-475,0,0,0,0,0,0,0,0,0,-1,1525,1499,0,0
308,-475,0,0,0,0,0,0,0,0,0,-1,1532,1499,0,0
315,-475,0,0,0,0,0,0,0,0,0,-1,1539,1499,0,0
322,-475,0,0,0,0,0,0,0,0,0,-1,1546,1499,0,0
329,-475,0,0,0,0,0,0,0,0,0,-1,1553,1499,0,0
336,-475,0,0,0,0,0,0,0,0,0,-1,1560,1499,0,0
343,-475,0,0,0,0,0,0,0,0,0,-1,1567,1499,0,0
350,-475,0,0,0,0,0,0,0,0,0,-1,1574,1499,0,0
357,-475,0,0,0,0,0,0,0,0,0,-1,1581,1499,0,0
364,-475,0,0,0,0,0,0,0,0,0,-1,1588,1499,0,0
371,-475,0,0,0,0,0,0,0,0,0,-1,1595,1499,0,0
378,-475,0,0,0,0,0,0,0,0,0,-1,1602,1499,0,0
385,-475,0,0,0,0,0,0,0,0,0,-1,1609,1499,0,0
392,-475,0,0,0,0,0,0,0,0,0,-1,1616,1499,0,0
399,-475,0,0,0,0,0,0,0,0,0,-1,1623,1499,0,0
406,-475,0,0,0,0,0,0,0,0,0,-1,1630,1499,0,0
413,-475,0,0,0,0,0,0,0,0,0,-1,1637,1499,0,0
420,-475,0,0,0,0,0,0,0,0,0,-1,1644,1499,0,0
427,-475,0,0,0,0,0,0,0,0,0,-1,1651,1499,0,0
434,-475,0,0,0,0,0,0,0,0,0,-1,1658,1499,0,0
441,-475,0,0,0,0,0,0,0,0,0,-1,1665,1499,0,0
448,-475,0,0,0,0,0,0,0,0,0,-1,1672,1499,0,0
455,-475,0,0,0,0,0,0,0,0,0,-1,1679,1499,0,0
462,-475,12.6372,0.275391,0,0,0,0,0,0,0,-1,1686,1499,12.6372,-0.27536
469,-475,15.6437,2.28296,0,0,0,0,0,0,0,-1,1693,1499,15.6437,-2.28293
476,-475,15.3302,2.71436,0,0,0,0,0,0,0,-1,1700,1499,15.3303,-2.7143
483,-475,10.7461,5.91479,0,0,0,0,0,0,0,-1,1707,1499,10.7461,-5.91476
490,-475,11.9305,4.4364,0,0,0,0,0,0,0,-1,1714,1499,11.9305,-4.43644
497,-475,15.3451,4.3479,0,0,0,0,0,0,0,-1,1721,1499,15.3451,-4.34789
504,-475,16.9646,7.71265,0,0,0,0,0,0,0,-1,1728,1499,16.9646,-7.71265
511,-475,18.941,12.7572,0,0,0,0,0,0,0,-1,1735,1499,18.941,-12.7572
518,-475,17.0021,13.8564,0,0,0,0,0,0,0,-1,1742,1499,17.0021,-13.8564
525,-475,17.5637,15.2103,0,0,0,0,0,0,0,-1,1749,1499,17.5637,-15.2103
532,-475,20.8623,20.8413,0,0,0,0,0,0,0,-1,1756,1499,20.8623,-20.8413
539,-475,20.5494,20.8519,0,0,0,0,0,0,0,-1,1763,1499,20.5494,-20.852
546,-475,20.4524,19.8799,0,0,0,0,0,0,0,-1,1770,1499,20.4524,-19.8798
553,-475,28.9019,28.9929,0,0,0,0,0,0,0,-1,1777,1499,28.9019,-28.9929
560,-475,29.0466,28.1875,0.00703026,0.00426639,-0.00334458,0.00926716,0.00202949,-0.589487,0.005625,0.0310956,1784,1499,29.0466,-28.1875
567,-475,29.2045,27.337,0.00549145,0.0030467,-0.00248014,0.00703409,0.00150406,-0.556437,0.00427712,0.0154405,1791,1499,29.2044,-27.3371
574,-475,29.1582,26.6162,0.00444392,0.00230682,-0.00205875,0.00569491,0.00105583,-0.54602,0.00349818,0.015527,1798,1499,29.1582,-26.6162
581,-475,29.1215,25.9286,0.00362162,0.00171383,-0.00171434,0.00462958,0.00070587,-0.531518,0.00288008,0.0127751,1805,1499,29.1214,-25.9286
588,-475,29.074,25.2063,0.00305599,0.00118877,-0.00145286,0.00384935,0.000395402,-0.49982,0.00244512,0.0105251,1812,1499,29.074,-25.2063
595,-475,29.0453,24.4788,0.00275131,0.00068669,-0.00121307,0.00331186,0.000126139,-0.432864,0.00216709,0.0110285,1819,1499,29.0453,-24.4788
602,-475,29.0081,23.7405,0.00257248,0.00022881,-0.00103349,0.00296312,-0.000161822,-0.361374,0.0020315,0.0132832,1826,1499,29.0081,-23.7404
609,-475,28.9651,23.0209,0.00254888,-0.000167963,-0.000835695,0.00278535,-0.000404439,-0.275759,0.00200535,0.0131428,1833,1499,28.9651,-23.0209
616,-475,28.9388,22.3251,0.00268687,-0.000608019,-0.000593564,0.00279053,-0.000711686,-0.172908,0.00213745,0.0129409,1840,1499,28.9388,-22.3251
623,-475,28.9342,21.5741,0.00295957,-0.00122584,-0.000231669,0.00297235,-0.00123863,-0.0551272,0.00249895,0.0125384,1847,1499,28.9342,-21.5741
630,-475,28.9126,20.851,0.00328167,-0.00172813,0.000166187,0.00328718,-0.00173363,0.0331238,0.00294466,0.0147891,1854,1499,28.9127,-20.8509
637,-475,28.8917,20.2089,0.00364853,-0.0024128,0.000624114,0.00371213,-0.0024764,0.101547,0.00359661,0.0260582,1861,1499,28.8917,-20.2088
644,-475,28.8141,19.5638,0,0,0,0,0,0,0,-1,1868,1499,28.8141,-19.5638
651,-475,28.8864,18.8949,0,0,0,0,0,0,0,-1,1875,1499,28.8863,-18.8949
658,-475,14.6708,8.80322,0,0,0,0,0,0,0,-1,1882,1499,14.6708,-8.8032
665,-475,9.33435,5.43335,0,0,0,0,0,0,0,-1,1889,1499,9.33439,-5.43332
672,-475,9.38635,1.10474,0,0,0,0,0,0,0,-1,1896,1499,9.38629,-1.10475
679,-475,12.2594,1.31079,0,0,0,0,0,0,0,-1,1903,1499,12.2594,-1.31077
686,-475,0,0,0,0,0,0,0,0,0,-1,1910,1499,0,0
693,-475,0,0,0,0,0,0,0,0,0,-1,1917,1499,0,0
700,-475,0,0,0,0,0,0,0,0,0,-1,1924,1499,0,0
707,-475,0,0,0,0,0,0,0,0,0,-1,1931,1499,0,0
714,-475,0,0,0,0,0,0,0,0,0,-1,1938,1499,0,0
721,-475,0,0,0,0,0,0,0,0,0,-1,1945,1499,0,0
728,-475,0,0,0,0,0,0,0,0,0,-1,1952,1499,0,0
735,-475,0,0,0,0,0,0,0,0,0,-1,1959,1499,0,0
742,-475,0,0,0,0,0,0,0,0,0,-1,1966,1499,0,0
749,-475,0,0,0,0,0,0,0,0,0,-1,1973,1499,0,0
756,-475,0,0,0,0,0,0,0,0,0,-1,1980,1499,0,0
763,-475,0,0,0,0,0,0,0,0,0,-1,1987,1499,0,0
770,-475,0,0,0,0,0,0,0,0,0,-1,1994,1499,0,0
777,-475,0,0,0,0,0,0,0,0,0,-1,2001,1499,0,0
784,-475,0,0,0,0,0,0,0,0,0,-1,2008,1499,0,0
791,-475,0,0,0,0,0,0,0,0,0,-1,2015,1499,0,0
798,-475,0,0,0,0,0,0,0,0,0,-1,2022,1499,0,0
805,-475,0,0,0,0,0,0,0,0,0,-1,2029,1499,0,0
812,-475,0,0,0,0,0,0,0,0,0,-1,2036,1499,0,0
-700,-482,0,0,0,0,0,0,0,0,0,-1,524,1506,0,0
-693,-482,0,0,0,0,0,0,0,0,0,-1,531,1506,0,0
-686,-482,0,0,0,0,0,0,0,0,0,-1,538,1506,0,0
-679,-482,0,0,0,0,0,0,0,0,0,-1,545,1506,0,0
-672,-482,0,0,0,0,0,0,0,0,0,-1,552,1506,0,0
-665,-482,0,0,0,0,0,0,0,0,0,-1,559,1506,0,0
-658,-482,0,0,0,0,0,0,0,0,0,-1,566,1506,0,0
-651,-482,0,0,0,0,0,0,0,0,0,-1,573,1506,0,0
-644,-482,0,0,0,0,0,0,0,0,0,-1,580,1506,0,0
-637,-482,0,0,0,0,0,0,0,0,0,-1,587,1506,0,0
-630,-482,0,0,0,0,0,0,0,0,0,-1,594,1506,0,0
-623,-482,0,0,0,0,0,0,0,0,0,-1,601,1506,0,0
-616,-482,0,0,0,0,0,0,0,0,0,-1,608,1506,0,0
-609,-482,0,0,0,0,0,0,0,0,0,-1,615,1506,0,0
-602,-482,0,0,0,0,0,0,0,0,0,-1,622,1506,0,0
-595,-482,0,0,0,0,0,0,0,0,0,-1,629,1506,0,0
-588,-482,0,0,0,0,0,0,0,0,0,-1,636,1506,0,0
-581,-482,0,0,0,0,0,0,0,0,0,-1,643,1506,0,0
-574,-482,0,0,0,0,0,0,0,0,0,-1,650,1506,0,0
-567,-482,0,0,0,0,0,0,0,0,0,-1,657,1506,0,0
-560,-482,0,0,0,0,0,0,0,0,0,-1,664,1506,0,0
-553,-482,-9.06055,9.34314,0,0,0,0,0,0,0,-1,671,1506,-9.06056,-9.34312
-546,-482,-4.08624,8.34241,0,0,0,0,0,0,0,-1,678,1506,-4.08624,-8.3424
-539,-482,-4.29877,2.73499,0,0,0,0,0,0,0,-1,685,1506,-4.29879,-2.73494
-532,-482,-3.63611,4.23987,0,0,0,0,0,0,0,-1,692,1506,-3.63609,-4.23983
-525,-482,-6.19116,5.24927,0,0,0,0,0,0,0,-1,699,1506,-6.19117,-5.24927
-518,-482,-5.92957,6.39807,0,0,0,0,0,0,0,-1,706,1506,-5.92958,-6.39806
-511,-482,-7.74634,11.9137,0,0,0,0,0,0,0,-1,713,1506,-7.74633,-11.9137
-504,-482,-6.42358,13.4211,0,0,0,0,0,0,0,-1,720,1506,-6.42356,-13.4212
-497,-482,-8.86163,17.7108,0,0,0,0,0,0,0,-1,727,1506,-8.86163,-17.7109
-490,-482,-10.8004,20.8468,0,0,0,0,0,0,0,-1,734,1506,-10.8003,-20.8468
-483,-482,-10.782,21.7098,0.00657748,-0.000885519,0.00262311,0.00740721,-0.00171525,0.306356,0.00559817,0.0120104,741,1506,-10.782,-21.7099
-476,-482,-10.8074,22.4801,0.00516044,-0.00111425,0.00170753,0.00559501,-0.00154883,0.249213,0.00433942,0.0107107,748,1506,-10.8074,-22.4801
-469,-482,-10.8431,23.2463,0.00401799,-0.000829419,0.00126384,0.00432772,-0.00113914,0.24033,0.00333044,0.0123649,755,1506,-10.8431,-23.2464
-462,-482,-10.8651,23.9777,0.00306822,-0.000179166,0.00113554,0.0034259,-0.000536842,0.305146,0.0024823,0.0129396,762,1506,-10.8651,-23.9777
-455,-482,-10.9141,24.6991,0.00235698,0.00073856,0.00128283,0.0030645,3.10394e-05,0.504018,0.00203273,0.0132979,769,1506,-10.9141,-24.6991
-448,-482,-10.9652,25.4945,0.00198514,0.00203729,0.00177896,0.00379036,0.00023206,0.792726,0.00245322,0.0139044,776,1506,-10.9652,-25.4945
-441,-482,-11.0034,26.2294,0.00187367,0.00349816,0.00249352,0.00530839,6.34391e-05,0.942849,0.00351797,0.0130827,783,1506,-11.0034,-26.2294
-434,-482,-11.0372,26.9667,0.00210983,0.00518225,0.00346882,0.00743981,-0.000147724,0.99385,0.00500984,0.0153414,790,1506,-11.0372,-26.9666
-427,-482,-11.0566,27.7352,0.00274576,0.00717053,0.00473028,0.0101802,-0.000263941,1.00414,0.00687649,0.020465,797,1506,-11.0566,-27.7352
-420,-482,-11.1046,28.5382,0,0,0,0,0,0,0,-1,804,1506,-11.1046,-28.5382
-413,-482,-6.56415,22.3163,0,0,0,0,0,0,0,-1,811,1506,-6.56417,-22.3163
-406,-482,-2.51373,12.7556,0,0,0,0,0,0,0,-1,818,1506,-2.51376,-12.7556
-399,-482,-1.3822,9.22595,0,0,0,0,0,0,0,-1,825,1506,-1.38221,-9.22598
-392,-482,-1.06836,9.22729,0,0,0,0,0,0,0,-1,832,1506,-1.06835,-9.2273
-385,-482,0.0647583,8.90649,0,0,0,0,0,0,0,-1,839,1506,0.0647778,-8.90644
-378,-482,0.215698,5.96948,0,0,0,0,0,0,0,-1,846,1506,0.215681,-5.9695
-371,-482,-0.10907,8.10437,0,0,0,0,0,0,0,-1,853,1506,-0.109063,-8.10433
-364,-482,-0.154968,10.5032,0,0,0,0,0,0,0,-1,860,1506,-0.154976,-10.5032
-357,-482,2.14807,4.60144,0,0,0,0,0,0,0,-1,867,1506,2.14807,-4.60144
-350,-482,-7.5813,-1.45935,0,0,0,0,0,0,0,-1,874,1506,-7.58133,1.45937
-343,-482,-5.80902,1.81226,0,0,0,0,0,0,0,-1,881,1506,-5.80903,-1.81221
-336,-482,2.52826,-0.390503,0,0,0,0,0,0,0,-1,888,1506,2.52826,0.390456
-329,-482,0,0,0,0,0,0,0,0,0,-1,895,1506,0,0
-322,-482,0,0,0,0,0,0,0,0,0,-1,902,1506,0,0
-315,-482,0,0,0,0,0,0,0,0,0,-1,909,1506,0,0
-308,-482,0,0,0,0,0,0,0,0,0,-1,916,1506,0,0
-301,-482,0,0,0,0,0,0,0,0,0,-1,923,1506,0,0
-294,-482,0,0,0,0,0,0,0,0,0,-1,930,1506,0,0
-287,-482,0,0,0,0,0,0,0,0,0,-1,937,1506,0,0
-280,-482,0,0,0,0,0,0,0,0,0,-1,944,1506,0,0
-273,-482,0,0,0,0,0,0,0,0,0,-1,951,1506,0,0
-266,-482,0,0,0,0,0,0,0,0,0,-1,958,1506,0,0
-259,-482,0,0,0,0,0,0,0,0,0,-1,965,1506,0,0
-252,-482,0,0,0,0,0,0,0,0,0,-1,972,1506,0,0
-245,-482,0,0,0,0,0,0,0,0,0,-1,979,1506,0,0
-238,-482,0,0,0,0,0,0,0,0,0,-1,986,1506,0,0
-231,-482,0,0,0,0,0,0,0,0,0,-1,993,1506,0,0
-224,-482,0,0,0,0,0,0,0,0,0,-1,1000,1506,0,0
-217,-482,0,0,0,0,0,0,0,0,0,-1,1007,1506,0,0
-210,-482,0,0,0,0,0,0,0,0,0,-1,1014,1506,0,0
-203,-482,0,0,0,0,0,0,0,0,0,-1,1021,1506,0,0
-196,-482,0,0,0,0,0,0,0,0,0,-1,1028,1506,0,0
-189,-482,0,0,0,0,0,0,0,0,0,-1,1035,1506,0,0
-182,-482,0,0,0,0,0,0,0,0,0,-1,1042,1506,0,0
-175,-482,0,0,0,0,0,0,0,0,0,-1,1049,1506,0,0
-168,-482,0,0,0,0,0,0,0,0,0,-1,1056,1506,0,0
-161,-482,0,0,0,0,0,0,0,0,0,-1,1063,1506,0,0
-154,-482,0,0,0,0,0,0,0,0,0,-1,1070,1506,0,0
-147,-482,0,0,0,0,0,0,0,0,0,-1,1077,1506,0,0
-140,-482,0,0,0,0,0,0,0,0,0,-1,1084,1506,0,0
-133,-482,0,0,0,0,0,0,0,0,0,-1,1091,1506,0,0
-126,-482,0,0,0,0,0,0,0,0,0,-1,1098,1506,0,0
-119,-482,0,0,0,0,0,0,0,0,0,-1,1105,1506,0,0
-112,-482,0,0,0,0,0,0,0,0,0,-1,1112,1506,0,0
-105,-482,0,0,0,0,0,0,0,0,0,-1,1119,1506,0,0
-98,-482,0,0,0,0,0,0,0,0,0,-1,1126,1506,0,0
-91,-482,0,0,0,0,0,0,0,0,0,-1,1133,1506,0,0
-84,-482,0,0,0,0,0,0,0,0,0,-1,1140,1506,0,0
-77,-482,0,0,0,0,0,0,0,0,0,-1,1147,1506,0,0
-70,-482,0,0,0,0,0,0,0,0,0,-1,1154,1506,0,0
-63,-482,0,0,0,0,0,0,0,0,0,-1,1161,1506,0,0
-56,-482,0,0,0,0,0,0,0,0,0,-1,1168,1506,0,0
-49,-482,0,0,0,0,0,0,0,0,0,-1,1175,1506,0,0
-42,-482,0,0,0,0,0,0,0,0,0,-1,1182,1506,0,0
-35,-482,0,0,0,0,0,0,0,0,0,-1,1189,1506,0,0
-28,-482,0,0,0,0,0,0,0,0,0,-1,1196,1506,0,0
-21,-482,0,0,0,0,0,0,0,0,0,-1,1203,1506,0,0
-14,-482,0,0,0,0,0,0,0,0,0,-1,1210,1506,0,0
-7,-482,0,0,0,0,0,0,0,0,0,-1,1217,1506,0,0
0,-482,0,0,0,0,0,0,0,0,0,-1,1224,1506,0,0
7,-482,0,0,0,0,0,0,0,0,0,-1,1231,1506,0,0
14,-482,0,0,0,0,0,0,0,0,0,-1,1238,1506,0,0
21,-482,0,0,0,0,0,0,0,0,0,-1,1245,1506,0,0
28,-482,0,0,0,0,0,0,0,0,0,-1,1252,1506,0,0
35,-482,0,0,0,0,0,0,0,0,0,-1,1259,1506,0,0
42,-482,0,0,0,0,0,0,0,0,0,-1,1266,1506,0,0
49,-482,0,0,0,0,0,0,0,0,0,-1,1273,1506,0,0
56,-482,0,0,0,0,0,0,0,0,0,-1,1280,1506,0,0
63,-482,0,0,0,0,0,0,0,0,0,-1,1287,1506,0,0
70,-482,0,0,0,0,0,0,0,0,0,-1,1294,1506,0,0
77,-482,0,0,0,0,0,0,0,0,0,-1,1301,1506,0,0
84,-482,0,0,0,0,0,0,0,0,0,-1,1308,1506,0,0
91,-482,0,0,0,0,0,0,0,0,0,-1,1315,1506,0,0
98,-482,0,0,0,0,0,0,0,0,0,-1,1322,1506,0,0
105,-482,0,0,0,0,0,0,0,0,0,-1,1329,1506,0,0
112,-482,0,0,0,0,0,0,0,0,0,-1,1336,1506,0,0
119,-482,0,0,0,0,0,0,0,0,0,-1,1343,1506,0,0
126,-482,0,0,0,0,0,0,0,0,0,-1,1350,1506,0,0
133,-482,0,0,0,0,0,0,0,0,0,-1,1357,1506,0,0
140,-482,0,0,0,0,0,0,0,0,0,-1,1364,1506,0,0
147,-482,0,0,0,0,0,0,0,0,0,-1,1371,1506,0,0
154,-482,0,0,0,0,0,0,0,0,0,-1,1378,1506,0,0
161,-482,0,0,0,0,0,0,0,0,0,-1,1385,1506,0,0
168,-482,0,0,0,0,0,0,0,0,0,-1,1392,1506,0,0
175,-482,0,0,0,0,0,0,0,0,0,-1,1399,1506,0,0
182,-482,0,0,0,0,0,0,0,0,0,-1,1406,1506,0,0
189,-482,0,0,0,0,0,0,0,0,0,-1,1413,1506,0,0
196,-482,0,0,0,0,0,0,0,0,0,-1,1420,1506,0,0
203,-482,0,0,0,0,0,0,0,0,0,-1,1427,1506,0,0
210,-482,0,0,0,0,0,0,0,0,0,-1,1434,1506,0,0
217,-482,0,0,0,0,0,0,0,0,0,-1,1441,1506,0,0
224,-482,0,0,0,0,0,0,0,0,0,-1,1448,1506,0,0
231,-482,0,0,0,0,0,0,0,0,0,-1,1455,1506,0,0
238,-482,0,0,0,0,0,0,0,0,0,-1,1462,1506,0,0
245,-482,0,0,0,0,0,0,0,0,0,-1,1469,1506,0,0
252,-482,0,0,0,0,0,0,0,0,0,-1,1476,1506,0,0
259,-482,0,0,0,0,0,0,0,0,0,-1,1483,1506,0,0
266,-482,0,0,0,0,0,0,0,0,0,-1,1490,1506,0,0
273,-482,0,0,0,0,0,0,0,0,0,-1,1497,1506,0,0
280,-482,0,0,0,0,0,0,0,0,0,-1,1504,1506,0,0
287,-482,0,0,0,0,0,0,0,0,0,-1,1511,1506,0,0
294,-482,0,0,0,0,0,0,0,0,0,-1,1518,1506,0,0
301,-482,0,0,0,0,0,0,0,0,0,-1,1525,1506,0,0
308,-482,0,0,0,0,0,0,0,0,0,-1,1532,1506,0,0
315,-482,0,0,0,0,0,0,0,0,0,-1,1539,1506,0,0
322,-482,0,0,0,0,0,0,0,0,0,-1,1546,1506,0,0
329,-482,0,0,0,0,0,0,0,0,0,-1,1553,1506,0,0
336,-482,0,0,0,0,0,0,0,0,0,-1,1560,1506,0,0
343,-482,0,0,0,0,0,0,0,0,0,-1,1567,1506,0,0
350,-482,0,0,0,0,0,0,0,0,0,-1,1574,1506,0,0
357,-482,0,0,0,0,0,0,0,0,0,-1,1581,1506,0,0
364,-482,0,0,0,0,0,0,0,0,0,-1,1588,1506,0,0
371,-482,0,0,0,0,0,0,0,0,0,-1,1595,1506,0,0
378,-482,0,0,0,0,0,0,0,0,0,-1,1602,1506,0,0
385,-482,0,0,0,0,0,0,0,0,0,-1,1609,1506,0,0
392,-482,0,0,0,0,0,0,0,0,0,-1,1616,1506,0,0
399,-482,0,0,0,0,0,0,0,0,0,-1,1623,1506,0,0
406,-482,0,0,0,0,0,0,0,0,0,-1,1630,1506,0,0
413,-482,0,0,0,0,0,0,0,0,0,-1,1637,1506,0,0
420,-482,0,0,0,0,0,0,0,0,0,-1,1644,1506,0,0
427,-482,0,0,0,0,0,0,0,0,0,-1,1651,1506,0,0
434,-482,0,0,0,0,0,0,0,0,0,-1,1658,1506,0,0
441,-482,0,0,0,0,0,0,0,0,0,-1,1665,1506,0,0
448,-482,4.24146,1.55383,0,0,0,0,0,0,0,-1,1672,1506,4.24149,-1.55381
455,-482,12.4122,1.09729,0,0,0,0,0,0,0,-1,1679,1506,12.4122,-1.09734
462,-482,15.0673,3.13135,0,0,0,0,0,0,0,-1,1686,1506,15.0672,-3.13134
469,-482,15.3793,3.46301,0,0,0,0,0,0,0,-1,1693,1506,15.3793,-3.46307
476,-482,8.69751,9.18738,0,0,0,0,0,0,0,-1,1700,1506,8.69753,-9.18739
483,-482,10.0902,7.17432,0,0,0,0,0,0,0,-1,1707,1506,10.0902,-7.1743
490,-482,11.6289,5.4928,0,0,0,0,0,0,0,-1,1714,1506,11.6289,-5.49283
497,-482,15.9539,7.40222,0,0,0,0,0,0,0,-1,1721,1506,15.9538,-7.40219
504,-482,20.4233,12.006,0,0,0,0,0,0,0,-1,1728,1506,20.4233,-12.006
511,-482,18.4937,12.9175,0,0,0,0,0,0,0,-1,1735,1506,18.4936,-12.9174
518,-482,16.6002,13.9679,0,0,0,0,0,0,0,-1,1742,1506,16.6003,-13.9679
525,-482,18.495,15.9618,0,0,0,0,0,0,0,-1,1749,1506,18.495,-15.9618
532,-482,19.9375,21.0775,0,0,0,0,0,0,0,-1,1756,1506,19.9375,-21.0775
539,-482,20.2291,20.5577,0,0,0,0,0,0,0,-1,1763,1506,20.2291,-20.5578
546,-482,28.3518,29.8936,0,0,0,0,0,0,0,-1,1770,1506,28.3518,-29.8936
553,-482,28.2439,28.9338,0,0,0,0,0,0,0,-1,1777,1506,28.2439,-28.9338
560,-482,28.3892,28.1052,0.00619773,0.00373611,-0.00304043,0.00824702,0.00168682,-0.593073,0.00503091,0.0166604,1784,1506,28.3892,-28.1052
567,-482,28.4877,27.345,0.0049068,0.00266665,-0.0022735,0.00632116,0.00125229,-0.556516,0.00386491,0.0152627,1791,1506,28.4877,-27.345
574,-482,28.4624,26.6625,0.00403664,0.00200069,-0.00188157,0.00515795,0.000879374,-0.537436,0.00318622,0.0145252,1798,1506,28.4625,-26.6625
581,-482,28.4053,25.9622,0.00335608,0.00145354,-0.00157145,0.00424176,0.000567865,-0.513229,0.00265884,0.010164,1805,1506,28.4052,-25.9621
588,-482,28.3512,25.2324,0.00293175,0.000986182,-0.00137768,0.00364548,0.000272455,-0.477994,0.00234478,0.0106944,1812,1506,28.3512,-25.2324
595,-482,28.3243,24.5073,0.0027741,0.000557159,-0.00122003,0.00331402,1.72404e-05,-0.416637,0.00220362,0.0160586,1819,1506,28.3243,-24.5073
602,-482,28.3165,23.7758,0.00273772,0.000192777,-0.00113839,0.00317262,-0.000242123,-0.36492,0.00220023,0.0216682,1826,1506,28.3166,-23.7757
609,-482,28.2773,23.0696,0.00283736,-0.00014299,-0.00103097,0.00315924,-0.000464866,-0.302617,0.00227699,0.0175256,1833,1506,28.2774,-23.0696
616,-482,28.218,22.364,0.00314103,-0.000620042,-0.000826542,0.00331466,-0.000793669,-0.207054,0.0025164,0.0125158,1840,1506,28.218,-22.364
623,-482,28.1759,21.6339,0.00355602,-0.00131769,-0.000454061,0.00359796,-0.00135963,-0.0921091,0.00295791,0.0194166,1847,1506,28.1759,-21.634
630,-482,28.1543,20.9814,0.00394014,-0.0018946,5.77057e-06,0.00394015,-0.00189461,0.000988999,0.00343701,0.0405252,1854,1506,28.1543,-20.9815
637,-482,28.1934,20.3263,0,0,0,0,0,0,0,-1,1861,1506,28.1933,-20.3263
644,-482,27.8639,19.6259,0,0,0,0,0,0,0,-1,1868,1506,27.8639,-19.6259
651,-482,4.03845,7.05273,0,0,0,0,0,0,0,-1,1875,1506,4.03843,-7.05279
658,-482,10.0278,5.87903,0,0,0,0,0,0,0,-1,1882,1506,10.0279,-5.87902
665,-482,8.15198,3.22229,0,0,0,0,0,0,0,-1,1889,1506,8.15199,-3.22232
672,-482,9.87415,1.3147,0,0,0,0,0,0,0,-1,1896,1506,9.87416,-1.31473
679,-482,0,0,0,0,0,0,0,0,0,-1,1903,1506,0,0
686,-482,0,0,0,0,0,0,0,0,0,-1,1910,1506,0,0
693,-482,0,0,0,0,0,0,0,0,0,-1,1917,1506,0,0
700,-482,0,0,0,0,0,0,0,0,0,-1,1924,1506,0,0
707,-482,0,0,0,0,0,0,0,0,0,-1,1931,1506,0,0
714,-482,0,0,0,0,0,0,0,0,0,-1,1938,1506,0,0
721,-482,0,0,0,0,0,0,0,0,0,-1,1945,1506,0,0
728,-482,0,0,0,0,0,0,0,0,0,-1,1952,1506,0,0
735,-482,0,0,0,0,0,0,0,0,0,-1,1959,1506,0,0
742,-482,0,0,0,0,0,0,0,0,0,-1,1966,1506,0,0
749,-482,0,0,0,0,0,0,0,0,0,-1,1973,1506,0,0
756,-482,0,0,0,0,0,0,0,0,0,-1,1980,1506,0,0
763,-482,0,0,0,0,0,0,0,0,0,-1,1987,1506,0,0
770,-482,0,0,0,0,0,0,0,0,0,-1,1994,1506,0,0
777,-482,0,0,0,0,0,0,0,0,0,-1,2001,1506,0,0
784,-482,0,0,0,0,0,0,0,0,0,-1,2008,1506,0,0
791,-482,0,0,0,0,0,0,0,0,0,-1,2015,1506,0,0
798,-482,0,0,0,0,0,0,0,0,0,-1,2022,1506,0,0
805,-482,0,0,0,0,0,0,0,0,0,-1,2029,1506,0,0
812,-482,0,0,0,0,0,0,0,0,0,-1,2036,1506,0,0
-700,-489,0,0,0,0,0,0,0,0,0,-1,524,1513,0,0
-693,-489,0,0,0,0,0,0,0,0,0,-1,531,1513,0,0
-686,-489,0,0,0,0,0,0,0,0,0,-1,538,1513,0,0
-679,-489,0,0,0,0,0,0,0,0,0,-1,545,1513,0,0
-672,-489,0,0,0,0,0,0,0,0,0,-1,552,1513,0,0
-665,-489,0,0,0,0,0,0,0,0,0,-1,559,1513,0,0
-658,-489,0,0,0,0,0,0,0,0,0,-1,566,1513,0,0
-651,-489,0,0,0,0,0,0,0,0,0,-1,573,1513,0,0
-644,-489,0,0,0,0,0,0,0,0,0,-1,580,1513,0,0
-637,-489,0,0,0,0,0,0,0,0,0,-1,587,1513,0,0
-630,-489,0,0,0,0,0,0,0,0,0,-1,594,1513,0,0
-623,-489,0,0,0,0,0,0,0,0,0,-1,601,1513,0,0
-616,-489,0,0,0,0,0,0,0,0,0,-1,608,1513,0,0
-609,-489,0,0,0,0,0,0,0,0,0,-1,615,1513,0,0
-602,-489,0,0,0,0,0,0,0,0,0,-1,622,1513,0,0
-595,-489,0,0,0,0,0,0,0,0,0,-1,629,1513,0,0
-588,-489,0,0,0,0,0,0,0,0,0,-1,636,1513,0,0
-581,-489,0,0,0,0,0,0,0,0,0,-1,643,1513,0,0
-574,-489,0,0,0,0,0,0,0,0,0,-1,650,1513,0,0
-567,-489,0,0,0,0,0,0,0,0,0,-1,657,1513,0,0
-560,-489,0,0,0,0,0,0,0,0,0,-1,664,1513,0,0
-553,-489,-9.42206,8.5116,0,0,0,0,0,0,0,-1,671,1513,-9.42205,-8.51158
-546,-489,-7.80951,8.18506,0,0,0,0,0,0,0,-1,678,1513,-7.8095,-8.18503
-539,-489,-3.06879,2.82349,0,0,0,0,0,0,0,-1,685,1513,-3.06881,-2.82354
-532,-489,-3.14215,2.5835,0,0,0,0,0,0,0,-1,692,1513,-3.14213,-2.58353
-525,-489,-2.604,4.06274,0,0,0,0,0,0,0,-1,699,1513,-2.60399,-4.06274
-518,-489,-5.43774,7.48059,0,0,0,0,0,0,0,-1,706,1513,-5.43777,-7.48058
-511,-489,-7.52856,10.951,0,0,0,0,0,0,0,-1,713,1513,-7.52857,-10.951
-504,-489,-7.17352,12.8508,0,0,0,0,0,0,0,-1,720,1513,-7.17352,-12.8508
-497,-489,-5.51678,14.9254,0,0,0,0,0,0,0,-1,727,1513,-5.51681,-14.9254
-490,-489,-10.1581,20.7351,0,0,0,0,0,0,0,-1,734,1513,-10.1582,-20.7351
-483,-489,-10.0796,21.5994,0.00943476,-0.00274229,0.00261959,0.00997438,-0.00328192,0.203155,0.00797202,0.0327078,741,1513,-10.0796,-21.5993
-476,-489,-10.0729,22.4877,0.00747847,-0.00279146,0.00157872,0.00771567,-0.00302867,0.149136,0.00639697,0.0109854,748,1513,-10.0728,-22.4876
-469,-489,-10.0961,23.2524,0.0058605,-0.00234237,0.00107768,0.00599972,-0.00248159,0.128474,0.00503516,0.0103655,755,1513,-10.0961,-23.2525
-462,-489,-10.127,23.9891,0.00445751,-0.00149824,0.000902776,0.00459135,-0.00163208,0.147177,0.00372604,0.0154017,762,1513,-10.127,-23.9892
-455,-489,-10.189,24.7448,0.00332818,-0.000427087,0.00100289,0.00357923,-0.000678139,0.245287,0.00264138,0.0192503,769,1513,-10.189,-24.7448
-448,-489,-10.2433,25.5109,0.00257186,0.000941153,0.00141352,0.00338832,0.000124687,0.523796,0.00221849,0.0176946,776,1513,-10.2433,-25.5108
-441,-489,-10.2535,26.2671,0.00212376,0.00242534,0.00202455,0.00430471,0.000244391,0.82257,0.00279191,0.015661,783,1513,-10.2535,-26.267
-434,-489,-10.2912,26.9957,0.00205657,0.00407346,0.00285581,0.00609365,3.63837e-05,0.955124,0.00405036,0.0180903,790,1513,-10.2912,-26.9957
-427,-489,-10.334,27.733,0.00239778,0.00585412,0.00388076,0.00837411,-0.000122207,0.994875,0.00562392,0.0194565,797,1513,-10.3341,-27.733
-420,-489,-10.3916,28.6487,0.00310297,0.00765507,0.0050519,0.01092,-0.000161931,0.997047,0.00733455,0.0273489,804,1513,-10.3916,-28.6487
-413,-489,-9.95001,29.5142,0,0,0,0,0,0,0,-1,811,1513,-9.94998,-29.5142
-406,-489,-3.10559,15.8143,0,0,0,0,0,0,0,-1,818,1513,-3.10556,-15.8143
-399,-489,-1.41241,9.10718,0,0,0,0,0,0,0,-1,825,1513,-1.41244,-9.10722
-392,-489,-1.0368,9.30469,0,0,0,0,0,0,0,-1,832,1513,-1.03682,-9.30466
-385,-489,-1.75165,10.6559,0,0,0,0,0,0,0,-1,839,1513,-1.75165,-10.6559
-378,-489,-0.401428,9.87048,0,0,0,0,0,0,0,-1,846,1513,-0.401415,-9.87047
-371,-489,-1.11633,10.6606,0,0,0,0,0,0,0,-1,853,1513,-1.11633,-10.6606
-364,-489,-0.503113,8.98486,0,0,0,0,0,0,0,-1,860,1513,-0.503097,-8.98482
-357,-489,-0.609924,10.9606,0,0,0,0,0,0,0,-1,867,1513,-0.609947,-10.9605
-350,-489,-7.94659,-0.358887,0,0,0,0,0,0,0,-1,874,1513,-7.94657,0.358912
-343,-489,-7.49323,-0.437866,0,0,0,0,0,0,0,-1,881,1513,-7.49322,0.437823
-336,-489,-7.02332,-0.53125,0,0,0,0,0,0,0,-1,888,1513,-7.0233,0.531295
-329,-489,-13.2786,4.96082,0,0,0,0,0,0,0,-1,895,1513,-13.2785,-4.96077
-322,-489,0,0,0,0,0,0,0,0,0,-1,902,1513,0,0
-315,-489,0,0,0,0,0,0,0,0,0,-1,909,1513,0,0
-308,-489,0,0,0,0,0,0,0,0,0,-1,916,1513,0,0
-301,-489,0,0,0,0,0,0,0,0,0,-1,923,1513,0,0
-294,-489,0,0,0,0,0,0,0,0,0,-1,930,1513,0,0
-287,-489,0,0,0,0,0,0,0,0,0,-1,937,1513,0,0
-280,-489,0,0,0,0,0,0,0,0,0,-1,944,1513,0,0
-273,-489,0,0,0,0,0,0,0,0,0,-1,951,1513,0,0
-266,-489,0,0,0,0,0,0,0,0,0,-1,958,1513,0,0
-259,-489,0,0,0,0,0,0,0,0,0,-1,965,1513,0,0
-252,-489,0,0,0,0,0,0,0,0,0,-1,972,1513,0,0
-245,-489,0,0,0,0,0,0,0,0,0,-1,979,1513,0,0
-238,-489,0,0,0,0,0,0,0,0,0,-1,986,1513,0,0
-231,-489,0,0,0,0,0,0,0,0,0,-1,993,1513,0,0
-224,-489,0,0,0,0,0,0,0,0,0,-1,1000,1513,0,0
-217,-489,0,0,0,0,0,0,0,0,0,-1,1007,1513,0,0
-210,-489,0,0,0,0,0,0,0,0,0,-1,1014,1513,0,0
-203,-489,0,0,0,0,0,0,0,0,0,-1,1021,1513,0,0
-196,-489,0,0,0,0,0,0,0,0,0,-1,1028,1513,0,0
-189,-489,0,0,0,0,0,0,0,0,0,-1,1035,1513,0,0
-182,-489,0,0,0,0,0,0,0,0,0,-1,1042,1513,0,0
-175,-489,0,0,0,0,0,0,0,0,0,-1,1049,1513,0,0
-168,-489,0,0,0,0,0,0,0,0,0,-1,1056,1513,0,0
-161,-489,0,0,0,0,0,0,0,0,0,-1,1063,1513,0,0
-154,-489,0,0,0,0,0,0,0,0,0,-1,1070,1513,0,0
-147,-489,0,0,0,0,0,0,0,0,0,-1,1077,1513,0,0
-140,-489,0,0,0,0,0,0,0,0,0,-1,1084,1513,0,0
-133,-489,0,0,0,0,0,0,0,0,0,-1,1091,1513,0,0
-126,-489,0,0,0,0,0,0,0,0,0,-1,1098,1513,0,0
-119,-489,0,0,0,0,0,0,0,0,0,-1,1105,1513,0,0
-112,-489,0,0,0,0,0,0,0,0,0,-1,1112,1513,0,0
-105,-489,0,0,0,0,0,0,0,0,0,-1,1119,1513,0,0
-98,-489,0,0,0,0,0,0,0,0,0,-1,1126,1513,0,0
-91,-489,0,0,0,0,0,0,0,0,0,-1,1133,1513,0,0
-84,-489,0,0,0,0,0,0,0,0,0,-1,1140,1513,0,0
-77,-489,0,0,0,0,0,0,0,0,0,-1,1147,1513,0,0
-70,-489,0,0,0,0,0,0,0,0,0,-1,1154,1513,0,0
-63,-489,0,0,0,0,0,0,0,0,0,-1,1161,1513,0,0
-56,-489,0,0,0,0,0,0,0,0,0,-1,1168,1513,0,0
-49,-489,0,0,0,0,0,0,0,0,0,-1,1175,1513,0,0
-42,-489,0,0,0,0,0,0,0,0,0,-1,1182,1513,0,0
-35,-489,0,0,0,0,0,0,0,0,0,-1,1189,1513,0,0
-28,-489,0,0,0,0,0,0,0,0,0,-1,1196,1513,0,0
-21,-489,0,0,0,0,0,0,0,0,0,-1,1203,1513,0,0
-14,-489,0,0,0,0,0,0,0,0,0,-1,1210,1513,0,0
-7,-489,0,0,0,0,0,0,0,0,0,-1,1217,1513,0,0
0,-489,0,0,0,0,0,0,0,0,0,-1,1224,1513,0,0
7,-489,0,0,0,0,0,0,0,0,0,-1,1231,1513,0,0
14,-489,0,0,0,0,0,0,0,0,0,-1,1238,1513,0,0
21,-489,0,0,0,0,0,0,0,0,0,-1,1245,1513,0,0
28,-489,0,0,0,0,0,0,0,0,0,-1,1252,1513,0,0
35,-489,0,0,0,0,0,0,0,0,0,-1,1259,1513,0,0
42,-489,0,0,0,0,0,0,0,0,0,-1,1266,1513,0,0
49,-489,0,0,0,0,0,0,0,0,0,-1,1273,1513,0,0
56,-489,0,0,0,0,0,0,0,0,0,-1,1280,1513,0,0
63,-489,0,0,0,0,0,0,0,0,0,-1,1287,1513,0,0
70,-489,0,0,0,0,0,0,0,0,0,-1,1294,1513,0,0
77,-489,0,0,0,0,0,0,0,0,0,-1,1301,1513,0,0
84,-489,0,0,0,0,0,0,0,0,0,-1,1308,1513,0,0
91,-489,0,0,0,0,0,0,0,0,0,-1,1315,1513,0,0
98,-489,0,0,0,0,0,0,0,0,0,-1,1322,1513,0,0
105,-489,0,0,0,0,0,0,0,0,0,-1,1329,1513,0,0
112,-489,0,0,0,0,0,0,0,0,0,-1,1336,1513,0,0
119,-489,0,0,0,0,0,0,0,0,0,-1,1343,1513,0,0
126,-489,0,0,0,0,0,0,0,0,0,-1,1350,1513,0,0
133,-489,0,0,0,0,0,0,0,0,0,-1,1357,1513,0,0
140,-489,0,0,0,0,0,0,0,0,0,-1,1364,1513,0,0
147,-489,0,0,0,0,0,0,0,0,0,-1,1371,1513,0,0
154,-489,0,0,0,0,0,0,0,0,0,-1,1378,1513,0,0
161,-489,0,0,0,0,0,0,0,0,0,-1,1385,1513,0,0
168,-489,0,0,0,0,0,0,0,0,0,-1,1392,1513,0,0
175,-489,0,0,0,0,0,0,0,0,0,-1,1399,1513,0,0
182,-489,0,0,0,0,0,0,0,0,0,-1,1406,1513,0,0
189,-489,0,0,0,0,0,0,0,0,0,-1,1413,1513,0,0
196,-489,0,0,0,0,0,0,0,0,0,-1,1420,1513,0,0
203,-489,0,0,0,0,0,0,0,0,0,-1,1427,1513,0,0
210,-489,0,0,0,0,0,0,0,0,0,-1,1434,1513,0,0
217,-489,0,0,0,0,0,0,0,0,0,-1,1441,1513,0,0
224,-489,0,0,0,0,0,0,0,0,0,-1,1448,1513,0,0
231,-489,0,0,0,0,0,0,0,0,0,-1,1455,1513,0,0
238,-489,0,0,0,0,0,0,0,0,0,-1,1462,1513,0,0
245,-489,0,0,0,0,0,0,0,0,0,-1,1469,1513,0,0
252,-489,0,0,0,0,0,0,0,0,0,-1,1476,1513,0,0
259,-489,0,0,0,0,0,0,0,0,0,-1,1483,1513,0,0
266,-489,0,0,0,0,0,0,0,0,0,-1,1490,1513,0,0
273,-489,0,0,0,0,0,0,0,0,0,-1,1497,1513,0,0
280,-489,0,0,0,0,0,0,0,0,0,-1,1504,1513,0,0
287,-489,0,0,0,0,0,0,0,0,0,-1,1511,1513,0,0
294,-489,0,0,0,0,0,0,0,0,0,-1,1518,1513,0,0
301,-489,0,0,0,0,0,0,0,0,0,-1,1525,1513,0,0
308,-489,0,0,0,0,0,0,0,0,0,-1,1532,1513,0,0
315,-489,0,0,0,0,0,0,0,0,0,-1,1539,1513,0,0
322,-489,0,0,0,0,0,0,0,0,0,-1,1546,1513,0,0
329,-489,0,0,0,0,0,0,0,0,0,-1,1553,1513,0,0
336,-489,0,0,0,0,0,0,0,0,0,-1,1560,1513,0,0
343,-489,0,0,0,0,0,0,0,0,0,-1,1567,1513,0,0
350,-489,0,0,0,0,0,0,0,0,0,-1,1574,1513,0,0
357,-489,0,0,0,0,0,0,0,0,0,-1,1581,1513,0,0
364,-489,0,0,0,0,0,0,0,0,0,-1,1588,1513,0,0
371,-489,0,0,0,0,0,0,0,0,0,-1,1595,1513,0,0
378,-489,0,0,0,0,0,0,0,0,0,-1,1602,1513,0,0
385,-489,0,0,0,0,0,0,0,0,0,-1,1609,1513,0,0
392,-489,0,0,0,0,0,0,0,0,0,-1,1616,1513,0,0
399,-489,0,0,0,0,0,0,0,0,0,-1,1623,1513,0,0
406,-489,0,0,0,0,0,0,0,0,0,-1,1630,1513,0,0
413,-489,0,0,0,0,0,0,0,0,0,-1,1637,1513,0,0
420,-489,0,0,0,0,0,0,0,0,0,-1,1644,1513,0,0
427,-489,0,0,0,0,0,0,0,0,0,-1,1651,1513,0,0
434,-489,0,0,0,0,0,0,0,0,0,-1,1658,1513,0,0
441,-489,11.4602,2.56787,0,0,0,0,0,0,0,-1,1665,1513,11.4602,-2.56786
448,-489,12.4425,1.72351,0,0,0,0,0,0,0,-1,1672,1513,12.4425,-1.72349
455,-489,12.5575,1.37463,0,0,0,0,0,0,0,-1,1679,1513,12.5575,-1.37469
462,-489,14.9784,3.84888,0,0,0,0,0,0,0,-1,1686,1513,14.9784,-3.84892
469,-489,15.1367,4.53101,0,0,0,0,0,0,0,-1,1693,1513,15.1368,-4.531
476,-489,15.5536,5.09338,0,0,0,0,0,0,0,-1,1700,1513,15.5536,-5.09339
483,-489,8.96912,8.37805,0,0,0,0,0,0,0,-1,1707,1513,8.96909,-8.37809
490,-489,10.5366,7.49561,0,0,0,0,0,0,0,-1,1714,1513,10.5367,-7.49558
497,-489,14.6051,11.8397,0,0,0,0,0,0,0,-1,1721,1513,14.6051,-11.8397
504,-489,16.7527,14.1735,0,0,0,0,0,0,0,-1,1728,1513,16.7527,-14.1735
511,-489,17.83,17.7993,0,0,0,0,0,0,0,-1,1735,1513,17.83,-17.7993
518,-489,16.4751,14.3682,0,0,0,0,0,0,0,-1,1742,1513,16.4751,-14.3682
525,-489,17.2606,17.4949,0,0,0,0,0,0,0,-1,1749,1513,17.2606,-17.4949
532,-489,19.397,21.0182,0,0,0,0,0,0,0,-1,1756,1513,19.397,-21.0182
539,-489,27.6021,30.6888,0,0,0,0,0,0,0,-1,1763,1513,27.6021,-30.6889
546,-489,27.7813,29.7699,0.00845433,0.00609366,-0.00511021,0.0125187,0.00202924,-0.671901,0.00775839,0.0408561,1770,1513,27.7812,-29.7699
553,-489,27.7494,28.8998,0.0067498,0.00453758,-0.00378111,0.00958327,0.00170412,-0.643101,0.00590337,0.0227598,1777,1513,27.7493,-28.8998
560,-489,27.7439,28.1243,0.00537981,0.00330617,-0.0027443,0.00727662,0.00140936,-0.604783,0.00445621,0.0138498,1784,1513,27.7439,-28.1242
567,-489,27.7451,27.4081,0.00434227,0.00236046,-0.00206695,0.00564356,0.00105916,-0.561881,0.00346373,0.0151853,1791,1513,27.7451,-27.408
574,-489,27.6997,26.7245,0.0036554,0.00173929,-0.00169758,0.00464661,0.000748076,-0.528496,0.00288094,0.0151999,1798,1513,27.6998,-26.7245
581,-489,27.7112,25.9883,0.00313931,0.00121597,-0.00141929,0.00389205,0.000463234,-0.48764,0.0024549,0.0107425,1805,1513,27.7112,-25.9883
588,-489,27.6603,25.2703,0.00288147,0.000792728,-0.00129303,0.00349922,0.000174982,-0.44569,0.00227673,0.0132001,1812,1513,27.6603,-25.2702
595,-489,27.6201,24.5813,0.00289586,0.000435445,-0.00122557,0.00340215,-7.08466e-05,-0.391755,0.00229208,0.0193301,1819,1513,27.6201,-24.5813
602,-489,27.588,23.8755,0.00304627,0.000178039,-0.00125519,0.00351799,-0.000293676,-0.359482,0.00244909,0.026575,1826,1513,27.588,-23.8755
609,-489,27.5519,23.1382,0.00333111,-8.23721e-05,-0.00127043,0.00375203,-0.000503296,-0.319941,0.00268489,0.0191964,1833,1513,27.5519,-23.1382
616,-489,27.5227,22.3787,0.00390923,-0.000529844,-0.00117575,0.00420141,-0.000822025,-0.243572,0.00311136,0.0223867,1840,1513,27.5227,-22.3787
623,-489,27.5885,21.6272,0,0,0,0,0,0,0,-1,1847,1513,27.5885,-21.6272
630,-489,27.5991,20.9047,0,0,0,0,0,0,0,-1,1854,1513,27.5991,-20.9047
637,-489,17.2048,11.8091,0,0,0,0,0,0,0,-1,1861,1513,17.2048,-11.8091
644,-489,9.67578,8.45874,0,0,0,0,0,0,0,-1,1868,1513,9.67576,-8.45879
651,-489,6.13818,6.85095,0,0,0,0,0,0,0,-1,1875,1513,6.13823,-6.85097
658,-489,5.43848,7.75513,0,0,0,0,0,0,0,-1,1882,1513,5.43844,-7.75509
665,-489,5.48438,8.59912,0,0,0,0,0,0,0,-1,1889,1513,5.48434,-8.59907
672,-489,0,0,0,0,0,0,0,0,0,-1,1896,1513,0,0
679,-489,0,0,0,0,0,0,0,0,0,-1,1903,1513,0,0
686,-489,0,0,0,0,0,0,0,0,0,-1,1910,1513,0,0
693,-489,0,0,0,0,0,0,0,0,0,-1,1917,1513,0,0
700,-489,0,0,0,0,0,0,0,0,0,-1,1924,1513,0,0
707,-489,0,0,0,0,0,0,0,0,0,-1,1931,1513,0,0
714,-489,0,0,0,0,0,0,0,0,0,-1,1938,1513,0,0
721,-489,0,0,0,0,0,0,0,0,0,-1,1945,1513,0,0
728,-489,0,0,0,0,0,0,0,0,0,-1,1952,1513,0,0
735,-489,0,0,0,0,0,0,0,0,0,-1,1959,1513,0,0
742,-489,0,0,0,0,0,0,0,0,0,-1,1966,1513,0,0
749,-489,0,0,0,0,0,0,0,0,0,-1,1973,1513,0,0
756,-489,0,0,0,0,0,0,0,0,0,-1,1980,1513,0,0
763,-489,0,0,0,0,0,0,0,0,0,-1,1987,1513,0,0
770,-489,0,0,0,0,0,0,0,0,0,-1,1994,1513,0,0
777,-489,0,0,0,0,0,0,0,0,0,-1,2001,1513,0,0
784,-489,0,0,0,0,0,0,0,0,0,-1,2008,1513,0,0
791,-489,0,0,0,0,0,0,0,0,0,-1,2015,1513,0,0
798,-489,0,0,0,0,0,0,0,0,0,-1,2022,1513,0,0
805,-489,0,0,0,0,0,0,0,0,0,-1,2029,1513,0,0
812,-489,0,0,0,0,0,0,0,0,0,-1,2036,1513,0,0
-700,-496,0,0,0,0,0,0,0,0,0,-1,524,1520,0,0
-693,-496,0,0,0,0,0,0,0,0,0,-1,531,1520,0,0
-686,-496,0,0,0,0,0,0,0,0,0,-1,538,1520,0,0
-679,-496,0,0,0,0,0,0,0,0,0,-1,545,1520,0,0
-672,-496,0,0,0,0,0,0,0,0,0,-1,552,1520,0,0
-665,-496,0,0,0,0,0,0,0,0,0,-1,559,1520,0,0
-658,-496,0,0,0,0,0,0,0,0,0,-1,566,1520,0,0
-651,-496,0,0,0,0,0,0,0,0,0,-1,573,1520,0,0
-644,-496,0,0,0,0,0,0,0,0,0,-1,580,1520,0,0
-637,-496,0,0,0,0,0,0,0,0,0,-1,587,1520,0,0
-630,-496,0,0,0,0,0,0,0,0,0,-1,594,1520,0,0
-623,-496,0,0,0,0,0,0,0,0,0,-1,601,1520,0,0
-616,-496,0,0,0,0,0,0,0,0,0,-1,608,1520,0,0
-609,-496,0,0,0,0,0,0,0,0,0,-1,615,1520,0,0
-602,-496,0,0,0,0,0,0,0,0,0,-1,622,1520,0,0
-595,-496,0,0,0,0,0,0,0,0,0,-1,629,1520,0,0
-588,-496,0,0,0,0,0,0,0,0,0,-1,636,1520,0,0
-581,-496,0,0,0,0,0,0,0,0,0,-1,643,1520,0,0
-574,-496,0,0,0,0,0,0,0,0,0,-1,650,1520,0,0
-567,-496,0,0,0,0,0,0,0,0,0,-1,657,1520,0,0
-560,-496,0,0,0,0,0,0,0,0,0,-1,664,1520,0,0
-553,-496,0,0,0,0,0,0,0,0,0,-1,671,1520,0,0
-546,-496,-8.09711,7.94836,0,0,0,0,0,0,0,-1,678,1520,-8.09712,-7.94842
-539,-496,-3.20129,1.16052,0,0,0,0,0,0,0,-1,685,1520,-3.20131,-1.16054
-532,-496,-2.98279,2.62146,0,0,0,0,0,0,0,-1,692,1520,-2.98278,-2.62151
-525,-496,-2.75201,4.08032,0,0,0,0,0,0,0,-1,699,1520,-2.75201,-4.08031
-518,-496,-2.6333,5.36072,0,0,0,0,0,0,0,-1,706,1520,-2.63328,-5.36077
-511,-496,-7.92126,9.68604,0,0,0,0,0,0,0,-1,713,1520,-7.92127,-9.68598
-504,-496,-7.51044,11.6274,0,0,0,0,0,0,0,-1,720,1520,-7.51042,-11.6275
-497,-496,-5.30933,14.4291,0,0,0,0,0,0,0,-1,727,1520,-5.30932,-14.4291
-490,-496,-8.21246,19.5051,0,0,0,0,0,0,0,-1,734,1520,-8.21243,-19.5051
-483,-496,-9.44446,21.6453,0,0,0,0,0,0,0,-1,741,1520,-9.44444,-21.6452
-476,-496,-9.35699,22.5223,0.0109448,-0.00505979,0.0013705,0.0110614,-0.0051763,0.0848089,0.00957786,0.0235244,748,1520,-9.35702,-22.5223
-469,-496,-9.36456,23.3027,0.00866027,-0.00433308,0.000814975,0.00871119,-0.004384,0.0623965,0.00769687,0.0102605,755,1520,-9.36458,-23.3027
-462,-496,-9.39758,24.052,0.00663218,-0.00319604,0.000598266,0.00666847,-0.00323233,0.0605741,0.00582985,0.0149945,762,1520,-9.39761,-24.0519
-455,-496,-9.45007,24.817,0.00492552,-0.00189849,0.000652654,0.00498738,-0.00196035,0.0944993,0.00413623,0.0205851,769,1520,-9.45006,-24.817
-448,-496,-9.47034,25.5767,0.00363869,-0.000414659,0.000978267,0.00386244,-0.00063841,0.224854,0.00281202,0.0198075,776,1520,-9.47031,-25.5766
-441,-496,-9.47955,26.303,0.00273519,0.00114017,0.00150275,0.00363893,0.000236423,0.541445,0.00235111,0.0153157,783,1520,-9.47958,-26.303
-434,-496,-9.52856,27.0406,0.00225669,0.00279096,0.00221855,0.0047584,0.000289251,0.845315,0.00308038,0.0148443,790,1520,-9.52854,-27.0406
-427,-496,-9.57709,27.7917,0.00220785,0.00444442,0.00306998,0.00659345,5.882e-05,0.960061,0.00437616,0.0185483,797,1520,-9.5771,-27.7917
-420,-496,-9.59259,28.5267,0.00256228,0.00610834,0.00405573,0.00876166,-9.10419e-05,0.991463,0.00587169,0.0188438,804,1520,-9.59258,-28.5268
-413,-496,-9.53369,29.3274,0.00425789,0.00754918,0.00560045,0.0117408,6.63036e-05,0.928297,0.00780516,0.0326079,811,1520,-9.53368,-29.3274
-406,-496,-9.42975,30.3425,0,0,0,0,0,0,0,-1,818,1520,-9.42977,-30.3425
-399,-496,-9.09143,31.4082,0,0,0,0,0,0,0,-1,825,1520,-9.09141,-31.4083
-392,-496,-1.49786,12.387,0,0,0,0,0,0,0,-1,832,1520,-1.49788,-12.387
-385,-496,-1.72437,11.4985,0,0,0,0,0,0,0,-1,839,1520,-1.72436,-11.4985
-378,-496,-1.45532,14.0719,0,0,0,0,0,0,0,-1,846,1520,-1.45533,-14.0719
-371,-496,0.0877075,12.5299,0,0,0,0,0,0,0,-1,853,1520,0.0876896,-12.5299
-364,-496,0.0881348,10.6422,0,0,0,0,0,0,0,-1,860,1520,0.0881368,-10.6423
-357,-496,0.323792,7.56812,0,0,0,0,0,0,0,-1,867,1520,0.323782,-7.56806
-350,-496,2.1535,7.18945,0,0,0,0,0,0,0,-1,874,1520,2.15348,-7.1894
-343,-496,-7.56244,0.335327,0,0,0,0,0,0,0,-1,881,1520,-7.56242,-0.335322
-336,-496,-3.99249,6.02222,0,0,0,0,0,0,0,-1,888,1520,-3.99246,-6.0222
-329,-496,-6.93689,-0.100342,0,0,0,0,0,0,0,-1,895,1520,-6.93686,0.1003
-322,-496,-6.17505,0.494385,0,0,0,0,0,0,0,-1,902,1520,-6.17507,-0.49437
-315,-496,-7.539,5.78638,0,0,0,0,0,0,0,-1,909,1520,-7.53898,-5.78633
-308,-496,0,0,0,0,0,0,0,0,0,-1,916,1520,0,0
-301,-496,0,0,0,0,0,0,0,0,0,-1,923,1520,0,0
-294,-496,0,0,0,0,0,0,0,0,0,-1,930,1520,0,0
-287,-496,0,0,0,0,0,0,0,0,0,-1,937,1520,0,0
-280,-496,0,0,0,0,0,0,0,0,0,-1,944,1520,0,0
-273,-496,0,0,0,0,0,0,0,0,0,-1,951,1520,0,0
-266,-496,0,0,0,0,0,0,0,0,0,-1,958,1520,0,0
-259,-496,0,0,0,0,0,0,0,0,0,-1,965,1520,0,0
-252,-496,0,0,0,0,0,0,0,0,0,-1,972,1520,0,0
-245,-496,0,0,0,0,0,0,0,0,0,-1,979,1520,0,0
-238,-496,0,0,0,0,0,0,0,0,0,-1,986,1520,0,0
-231,-496,0,0,0,0,0,0,0,0,0,-1,993,1520,0,0
-224,-496,0,0,0,0,0,0,0,0,0,-1,1000,1520,0,0
-217,-496,0,0,0,0,0,0,0,0,0,-1,1007,1520,0,0
-210,-496,0,0,0,0,0,0,0,0,0,-1,1014,1520,0,0
-203,-496,0,0,0,0,0,0,0,0,0,-1,1021,1520,0,0
-196,-496,0,0,0,0,0,0,0,0,0,-1,1028,1520,0,0
-189,-496,0,0,0,0,0,0,0,0,0,-1,1035,1520,0,0
-182,-496,0,0,0,0,0,0,0,0,0,-1,1042,1520,0,0
-175,-496,0,0,0,0,0,0,0,0,0,-1,1049,1520,0,0
-168,-496,0,0,0,0,0,0,0,0,0,-1,1056,1520,0,0
-161,-496,0,0,0,0,0,0,0,0,0,-1,1063,1520,0,0
-154,-496,0,0,0,0,0,0,0,0,0,-1,1070,1520,0,0
-147,-496,0,0,0,0,0,0,0,0,0,-1,1077,1520,0,0
-140,-496,0,0,0,0,0,0,0,0,0,-1,1084,1520,0,0
-133,-496,0,0,0,0,0,0,0,0,0,-1,1091,1520,0,0
-126,-496,0,0,0,0,0,0,0,0,0,-1,1098,1520,0,0
-119,-496,0,0,0,0,0,0,0,0,0,-1,1105,1520,0,0
-112,-496,0,0,0,0,0,0,0,0,0,-1,1112,1520,0,0
-105,-496,0,0,0,0,0,0,0,0,0,-1,1119,1520,0,0
-98,-496,0,0,0,0,0,0,0,0,0,-1,1126,1520,0,0
-91,-496,0,0,0,0,0,0,0,0,0,-1,1133,1520,0,0
-84,-496,0,0,0,0,0,0,0,0,0,-1,1140,1520,0,0
-77,-496,0,0,0,0,0,0,0,0,0,-1,1147,1520,0,0
-70,-496,0,0,0,0,0,0,0,0,0,-1,1154,1520,0,0
-63,-496,0,0,0,0,0,0,0,0,0,-1,1161,1520,0,0
-56,-496,0,0,0,0,0,0,0,0,0,-1,1168,1520,0,0
-49,-496,0,0,0,0,0,0,0,0,0,-1,1175,1520,0,0
-42,-496,0,0,0,0,0,0,0,0,0,-1,1182,1520,0,0
-35,-496,0,0,0,0,0,0,0,0,0,-1,1189,1520,0,0
-28,-496,0,0,0,0,0,0,0,0,0,-1,1196,1520,0,0
-21,-496,0,0,0,0,0,0,0,0,0,-1,1203,1520,0,0
-14,-496,0,0,0,0,0,0,0,0,0,-1,1210,1520,0,0
-7,-496,0,0,0,0,0,0,0,0,0,-1,1217,1520,0,0
0,-496,0,0,0,0,0,0,0,0,0,-1,1224,1520,0,0
7,-496,0,0,0,0,0,0,0,0,0,-1,1231,1520,0,0
14,-496,0,0,0,0,0,0,0,0,0,-1,1238,1520,0,0
21,-496,0,0,0,0,0,0,0,0,0,-1,1245,1520,0,0
28,-496,0,0,0,0,0,0,0,0,0,-1,1252,1520,0,0
35,-496,0,0,0,0,0,0,0,0,0,-1,1259,1520,0,0
42,-496,0,0,0,0,0,0,0,0,0,-1,1266,1520,0,0
49,-496,0,0,0,0,0,0,0,0,0,-1,1273,1520,0,0
56,-496,0,0,0,0,0,0,0,0,0,-1,1280,1520,0,0
63,-496,0,0,0,0,0,0,0,0,0,-1,1287,1520,0,0
70,-496,0,0,0,0,0,0,0,0,0,-1,1294,1520,0,0
77,-496,0,0,0,0,0,0,0,0,0,-1,1301,1520,0,0
84,-496,0,0,0,0,0,0,0,0,0,-1,1308,1520,0,0
91,-496,0,0,0,0,0,0,0,0,0,-1,1315,1520,0,0
98,-496,0,0,0,0,0,0,0,0,0,-1,1322,1520,0,0
105,-496,0,0,0,0,0,0,0,0,0,-1,1329,1520,0,0
112,-496,0,0,0,0,0,0,0,0,0,-1,1336,1520,0,0
119,-496,0,0,0,0,0,0,0,0,0,-1,1343,1520,0,0
126,-496,0,0,0,0,0,0,0,0,0,-1,1350,1520,0,0
133,-496,0,0,0,0,0,0,0,0,0,-1,1357,1520,0,0
140,-496,0,0,0,0,0,0,0,0,0,-1,1364,1520,0,0
147,-496,0,0,0,0,0,0,0,0,0,-1,1371,1520,0,0
154,-496,0,0,0,0,0,0,0,0,0,-1,1378,1520,0,0
161,-496,0,0,0,0,0,0,0,0,0,-1,1385,1520,0,0
168,-496,0,0,0,0,0,0,0,0,0,-1,1392,1520,0,0
175,-496,0,0,0,0,0,0,0,0,0,-1,1399,1520,0,0
182,-496,0,0,0,0,0,0,0,0,0,-1,1406,1520,0,0
189,-496,0,0,0,0,0,0,0,0,0,-1,1413,1520,0,0
196,-496,0,0,0,0,0,0,0,0,0,-1,1420,1520,0,0
203,-496,0,0,0,0,0,0,0,0,0,-1,1427,1520,0,0
210,-496,0,0,0,0,0,0,0,0,0,-1,1434,1520,0,0
217,-496,0,0,0,0,0,0,0,0,0,-1,1441,1520,0,0
224,-496,0,0,0,0,0,0,0,0,0,-1,1448,1520,0,0
231,-496,0,0,0,0,0,0,0,0,0,-1,1455,1520,0,0
238,-496,0,0,0,0,0,0,0,0,0,-1,1462,1520,0,0
245,-496,0,0,0,0,0,0,0,0,0,-1,1469,1520,0,0
252,-496,0,0,0,0,0,0,0,0,0,-1,1476,1520,0,0
259,-496,0,0,0,0,0,0,0,0,0,-1,1483,1520,0,0
266,-496,0,0,0,0,0,0,0,0,0,-1,1490,1520,0,0
273,-496,0,0,0,0,0,0,0,0,0,-1,1497,1520,0,0
280,-496,0,0,0,0,0,0,0,0,0,-1,1504,1520,0,0
287,-496,0,0,0,0,0,0,0,0,0,-1,1511,1520,0,0
294,-496,0,0,0,0,0,0,0,0,0,-1,1518,1520,0,0
301,-496,0,0,0,0,0,0,0,0,0,-1,1525,1520,0,0
308,-496,0,0,0,0,0,0,0,0,0,-1,1532,1520,0,0
315,-496,0,0,0,0,0,0,0,0,0,-1,1539,1520,0,0
322,-496,0,0,0,0,0,0,0,0,0,-1,1546,1520,0,0
329,-496,0,0,0,0,0,0,0,0,0,-1,1553,1520,0,0
336,-496,0,0,0,0,0,0,0,0,0,-1,1560,1520,0,0
343,-496,0,0,0,0,0,0,0,0,0,-1,1567,1520,0,0
350,-496,0,0,0,0,0,0,0,0,0,-1,1574,1520,0,0
357,-496,0,0,0,0,0,0,0,0,0,-1,1581,1520,0,0
364,-496,0,0,0,0,0,0,0,0,0,-1,1588,1520,0,0
371,-496,0,0,0,0,0,0,0,0,0,-1,1595,1520,0,0
378,-496,0,0,0,0,0,0,0,0,0,-1,1602,1520,0,0
385,-496,0,0,0,0,0,0,0,0,0,-1,1609,1520,0,0
392,-496,0,0,0,0,0,0,0,0,0,-1,1616,1520,0,0
399,-496,0,0,0,0,0,0,0,0,0,-1,1623,1520,0,0
406,-496,0,0,0,0,0,0,0,0,0,-1,1630,1520,0,0
413,-496,0,0,0,0,0,0,0,0,0,-1,1637,1520,0,0
420,-496,0,0,0,0,0,0,0,0,0,-1,1644,1520,0,0
427,-496,0,0,0,0,0,0,0,0,0,-1,1651,1520,0,0
434,-496,11.0457,3.37732,0,0,0,0,0,0,0,-1,1658,1520,11.0456,-3.37736
441,-496,11.788,2.75488,0,0,0,0,0,0,0,-1,1665,1520,11.7879,-2.75485
448,-496,12.2146,2.18494,0,0,0,0,0,0,0,-1,1672,1520,12.2146,-2.18489
455,-496,12.3489,1.65173,0,0,0,0,0,0,0,-1,1679,1520,12.3489,-1.65178
462,-496,12.1912,1.32361,0,0,0,0,0,0,0,-1,1686,1520,12.1911,-1.32357
469,-496,14.8138,5.77954,0,0,0,0,0,0,0,-1,1693,1520,14.8138,-5.77958
476,-496,15.2449,6.27942,0,0,0,0,0,0,0,-1,1700,1520,15.2449,-6.27936
483,-496,9.19812,6.88367,0,0,0,0,0,0,0,-1,1707,1520,9.19812,-6.88361
490,-496,10.2123,7.97144,0,0,0,0,0,0,0,-1,1714,1520,10.2122,-7.97145
497,-496,13.9297,12.2981,0,0,0,0,0,0,0,-1,1721,1520,13.9297,-12.2982
504,-496,16.3271,16.6501,0,0,0,0,0,0,0,-1,1728,1520,16.3272,-16.6502
511,-496,17.6753,18.0685,0,0,0,0,0,0,0,-1,1735,1520,17.6753,-18.0685
518,-496,17.0537,17.3118,0,0,0,0,0,0,0,-1,1742,1520,17.0538,-17.3118
525,-496,18.2721,19.3259,0,0,0,0,0,0,0,-1,1749,1520,18.2721,-19.3259
532,-496,27.2046,30.521,0,0,0,0,0,0,0,-1,1756,1520,27.2046,-30.521
539,-496,26.9054,30.4551,0,0,0,0,0,0,0,-1,1763,1520,26.9054,-30.4551
546,-496,27.0011,29.6606,0.00716872,0.0052979,-0.00446766,0.0107978,0.00166878,-0.682202,0.00671182,0.0215705,1770,1520,27.0011,-29.6607
553,-496,27.1052,28.8579,0.00572303,0.00395341,-0.00329686,0.00825175,0.00142469,-0.654298,0.00509313,0.0165196,1777,1520,27.1052,-28.8579
560,-496,27.0736,28.1575,0.00458968,0.00285209,-0.00238245,0.00625681,0.00118497,-0.610559,0.00383769,0.0152824,1784,1520,27.0736,-28.1575
567,-496,27.0192,27.4459,0.00379397,0.00205626,-0.00183751,0.00495769,0.000892546,-0.564554,0.00305144,0.0122446,1791,1520,27.0191,-27.4459
574,-496,27.0012,26.7284,0.00329977,0.00151004,-0.00153621,0.00418275,0.000627065,-0.521666,0.00260476,0.0126394,1798,1520,27.0012,-26.7284
581,-496,26.9891,26.0144,0.00297521,0.00104444,-0.00133303,0.00365571,0.000363942,-0.472005,0.00232534,0.014105,1805,1520,26.9891,-26.0144
588,-496,26.9718,25.2826,0.00291642,0.000693444,-0.00130946,0.00352252,8.73491e-05,-0.433495,0.00231978,0.0163642,1812,1520,26.9718,-25.2825
595,-496,26.908,24.6116,0.00314164,0.000434975,-0.00136797,0.00371259,-0.00013597,-0.395388,0.0025216,0.017878,1819,1520,26.908,-24.6116
602,-496,26.8706,23.9331,0.00353417,0.000319715,-0.00154203,0.00415429,-0.000300397,-0.382349,0.00287489,0.0192477,1826,1520,26.8706,-23.9331
609,-496,26.8689,23.1614,0.004057,0.000165741,-0.00172104,0.00470895,-0.000486215,-0.362111,0.00331329,0.0185457,1833,1520,26.8689,-23.1614
616,-496,26.9478,22.2656,0.00501256,-0.000231524,-0.00178787,0.00556409,-0.000783055,-0.299224,0.00399607,0.0494252,1840,1520,26.9478,-22.2656
623,-496,26.9388,21.5045,0,0,0,0,0,0,0,-1,1847,1520,26.9389,-21.5046
630,-496,18.5656,13.8966,0,0,0,0,0,0,0,-1,1854,1520,18.5655,-13.8967
637,-496,14.6411,10.1016,0,0,0,0,0,0,0,-1,1861,1520,14.6411,-10.1016
644,-496,12.4537,10.087,0,0,0,0,0,0,0,-1,1868,1520,12.4537,-10.0871
651,-496,8.18506,5.47803,0,0,0,0,0,0,0,-1,1875,1520,8.18505,-5.47806
658,-496,7.79993,4.02563,0,0,0,0,0,0,0,-1,1882,1520,7.79997,-4.02568
665,-496,5.47583,7.90625,0,0,0,0,0,0,0,-1,1889,1520,5.47581,-7.90628
672,-496,0,0,0,0,0,0,0,0,0,-1,1896,1520,0,0
679,-496,0,0,0,0,0,0,0,0,0,-1,1903,1520,0,0
686,-496,0,0,0,0,0,0,0,0,0,-1,1910,1520,0,0
693,-496,0,0,0,0,0,0,0,0,0,-1,1917,1520,0,0
700,-496,0,0,0,0,0,0,0,0,0,-1,1924,1520,0,0
707,-496,0,0,0,0,0,0,0,0,0,-1,1931,1520,0,0
714,-496,0,0,0,0,0,0,0,0,0,-1,1938,1520,0,0
721,-496,0,0,0,0,0,0,0,0,0,-1,1945,1520,0,0
728,-496,0,0,0,0,0,0,0,0,0,-1,1952,1520,0,0
735,-496,0,0,0,0,0,0,0,0,0,-1,1959,1520,0,0
742,-496,0,0,0,0,0,0,0,0,0,-1,1966,1520,0,0
749,-496,0,0,0,0,0,0,0,0,0,-1,1973,1520,0,0
756,-496,0,0,0,0,0,0,0,0,0,-1,1980,1520,0,0
763,-496,0,0,0,0,0,0,0,0,0,-1,1987,1520,0,0
770,-496,0,0,0,0,0,0,0,0,0,-1,1994,1520,0,0
777,-496,0,0,0,0,0,0,0,0,0,-1,2001,1520,0,0
784,-496,0,0,0,0,0,0,0,0,0,-1,2008,1520,0,0
791,-496,0,0,0,0,0,0,0,0,0,-1,2015,1520,0,0
798,-496,0,0,0,0,0,0,0,0,0,-1,2022,1520,0,0
805,-496,0,0,0,0,0,0,0,0,0,-1,2029,1520,0,0
812,-496,0,0,0,0,0,0,0,0,0,-1,2036,1520,0,0
-700,-503,0,0,0,0,0,0,0,0,0,-1,524,1527,0,0
-693,-503,0,0,0,0,0,0,0,0,0,-1,531,1527,0,0
-686,-503,0,0,0,0,0,0,0,0,0,-1,538,1527,0,0
-679,-503,0,0,0,0,0,0,0,0,0,-1,545,1527,0,0
-672,-503,0,0,0,0,0,0,0,0,0,-1,552,1527,0,0
-665,-503,0,0,0,0,0,0,0,0,0,-1,559,1527,0,0
-658,-503,0,0,0,0,0,0,0,0,0,-1,566,1527,0,0
-651,-503,0,0,0,0,0,0,0,0,0,-1,573,1527,0,0
-644,-503,0,0,0,0,0,0,0,0,0,-1,580,1527,0,0
-637,-503,0,0,0,0,0,0,0,0,0,-1,587,1527,0,0
-630,-503,0,0,0,0,0,0,0,0,0,-1,594,1527,0,0
-623,-503,0,0,0,0,0,0,0,0,0,-1,601,1527,0,0
-616,-503,0,0,0,0,0,0,0,0,0,-1,608,1527,0,0
-609,-503,0,0,0,0,0,0,0,0,0,-1,615,1527,0,0
-602,-503,0,0,0,0,0,0,0,0,0,-1,622,1527,0,0
-595,-503,0,0,0,0,0,0,0,0,0,-1,629,1527,0,0
-588,-503,0,0,0,0,0,0,0,0,0,-1,636,1527,0,0
-581,-503,0,0,0,0,0,0,0,0,0,-1,643,1527,0,0
-574,-503,0,0,0,0,0,0,0,0,0,-1,650,1527,0,0
-567,-503,0,0,0,0,0,0,0,0,0,-1,657,1527,0,0
-560,-503,0,0,0,0,0,0,0,0,0,-1,664,1527,0,0
-553,-503,0,0,0,0,0,0,0,0,0,-1,671,1527,0,0
-546,-503,0,0,0,0,0,0,0,0,0,-1,678,1527,0,0
-539,-503,3.50177,4.26428,0,0,0,0,0,0,0,-1,685,1527,3.50177,-4.26424
-532,-503,-3.13196,1.05298,0,0,0,0,0,0,0,-1,692,1527,-3.13194,-1.05299
-525,-503,-2.94293,2.59314,0,0,0,0,0,0,0,-1,699,1527,-2.94296,-2.59314
-518,-503,-2.7395,4.05872,0,0,0,0,0,0,0,-1,706,1527,-2.73948,-4.05871
-511,-503,-1.60022,7.23877,0,0,0,0,0,0,0,-1,713,1527,-1.60023,-7.23872
-504,-503,-8.1402,10.1541,0,0,0,0,0,0,0,-1,720,1527,-8.14017,-10.1541
-497,-503,-4.51758,14.0781,0,0,0,0,0,0,0,-1,727,1527,-4.5176,-14.0782
-490,-503,-4.24194,16.1982,0,0,0,0,0,0,0,-1,734,1527,-4.24196,-16.1982
-483,-503,-8.64667,21.9664,0,0,0,0,0,0,0,-1,741,1527,-8.64668,-21.9664
-476,-503,-8.49872,22.7421,0.0159612,-0.00792688,0.00115239,0.0160166,-0.00798234,0.0480924,0.0141123,0.0425743,748,1527,-8.49872,-22.742
-469,-503,-8.63275,23.356,0.0126709,-0.00680591,0.000526208,0.0126851,-0.00682011,0.0269909,0.0114298,0.015389,755,1527,-8.63273,-23.356
-462,-503,-8.66327,24.1101,0.00972978,-0.00529594,0.000249597,0.00973393,-0.00530009,0.0166052,0.00880482,0.0114561,762,1527,-8.66327,-24.1102
-455,-503,-8.68274,24.8684,0.00721464,-0.00368466,0.000261169,0.00722089,-0.00369091,0.0239437,0.00640888,0.0175222,769,1527,-8.68276,-24.8685
-448,-503,-8.68158,25.6136,0.00521073,-0.00202874,0.000501676,0.00524533,-0.00206334,0.0688586,0.00435093,0.0169225,776,1527,-8.68158,-25.6136
-441,-503,-8.70026,26.3365,0.003725,-0.000356688,0.000943957,0.00393273,-0.000564421,0.216614,0.00282879,0.0143595,783,1527,-8.70027,-26.3365
-434,-503,-8.7746,27.0742,0.00275266,0.00133308,0.00155295,0.00375034,0.000335399,0.571045,0.00239626,0.0125745,790,1527,-8.77459,-27.0742
-427,-503,-8.86841,27.793,0.00227848,0.0029225,0.00225543,0.00487879,0.000322185,0.856305,0.00315063,0.0188656,797,1527,-8.86841,-27.7929
-420,-503,-8.84076,28.5408,0.00229608,0.00450874,0.00308835,0.00668294,0.000121878,0.957391,0.00441523,0.0182043,804,1527,-8.84075,-28.5408
-413,-503,-8.87256,29.2987,0.00344783,0.00585475,0.00430264,0.00911907,0.000183514,0.921764,0.00601914,0.0156125,811,1527,-8.87259,-29.2987
-406,-503,-8.89453,30.0343,0.00566633,0.0072591,0.0052243,0.0117474,0.00117807,0.861035,0.00746992,0.0263614,818,1527,-8.89452,-30.0343
-399,-503,-8.76367,30.9984,0.00713176,0.00914537,0.00653313,0.0147488,0.00152831,0.861851,0.00936477,0.0451588,825,1527,-8.76367,-30.9984
-392,-503,-8.41455,32.198,0,0,0,0,0,0,0,-1,832,1527,-8.41456,-32.198
-385,-503,-2.00403,14.1218,0,0,0,0,0,0,0,-1,839,1527,-2.00403,-14.1218
-378,-503,-2.07043,13.8632,0,0,0,0,0,0,0,-1,846,1527,-2.07043,-13.8631
-371,-503,-1.67285,13.8081,0,0,0,0,0,0,0,-1,853,1527,-1.67285,-13.8081
-364,-503,0.181396,12.3768,0,0,0,0,0,0,0,-1,860,1527,0.18138,-12.3768
-357,-503,0.558533,9.25452,0,0,0,0,0,0,0,-1,867,1527,0.558542,-9.25446
-350,-503,0.219971,6.84827,0,0,0,0,0,0,0,-1,874,1527,0.21996,-6.84831
-343,-503,-3.5802,4.43274,0,0,0,0,0,0,0,-1,881,1527,-3.58018,-4.43276
-336,-503,-3.2384,6.40637,0,0,0,0,0,0,0,-1,888,1527,-3.2384,-6.40643
-329,-503,-1.70691,11.886,0,0,0,0,0,0,0,-1,895,1527,-1.70689,-11.886
-322,-503,-3.31317,8.81519,0,0,0,0,0,0,0,-1,902,1527,-3.31315,-8.81524
-315,-503,-3.90265,7.73853,0,0,0,0,0,0,0,-1,909,1527,-3.90264,-7.73854
-308,-503,-1.70264,7.35413,0,0,0,0,0,0,0,-1,916,1527,-1.70262,-7.35416
-301,-503,0,0,0,0,0,0,0,0,0,-1,923,1527,0,0
-294,-503,0,0,0,0,0,0,0,0,0,-1,930,1527,0,0
-287,-503,0,0,0,0,0,0,0,0,0,-1,937,1527,0,0
-280,-503,0,0,0,0,0,0,0,0,0,-1,944,1527,0,0
-273,-503,0,0,0,0,0,0,0,0,0,-1,951,1527,0,0
-266,-503,0,0,0,0,0,0,0,0,0,-1,958,1527,0,0
-259,-503,0,0,0,0,0,0,0,0,0,-1,965,1527,0,0
-252,-503,0,0,0,0,0,0,0,0,0,-1,972,1527,0,0
-245,-503,0,0,0,0,0,0,0,0,0,-1,979,1527,0,0
-238,-503,0,0,0,0,0,0,0,0,0,-1,986,1527,0,0
-231,-503,0,0,0,0,0,0,0,0,0,-1,993,1527,0,0
-224,-503,0,0,0,0,0,0,0,0,0,-1,1000,1527,0,0
-217,-503,0,0,0,0,0,0,0,0,0,-1,1007,1527,0,0
-210,-503,0,0,0,0,0,0,0,0,0,-1,1014,1527,0,0
-203,-503,0,0,0,0,0,0,0,0,0,-1,1021,1527,0,0
-196,-503,0,0,0,0,0,0,0,0,0,-1,1028,1527,0,0
-189,-503,0,0,0,0,0,0,0,0,0,-1,1035,1527,0,0
-182,-503,0,0,0,0,0,0,0,0,0,-1,1042,1527,0,0
-175,-503,0,0,0,0,0,0,0,0,0,-1,1049,1527,0,0
-168,-503,0,0,0,0,0,0,0,0,0,-1,1056,1527,0,0
-161,-503,0,0,0,0,0,0,0,0,0,-1,1063,1527,0,0
-154,-503,0,0,0,0,0,0,0,0,0,-1,1070,1527,0,0
-147,-503,0,0,0,0,0,0,0,0,0,-1,1077,1527,0,0
-140,-503,0,0,0,0,0,0,0,0,0,-1,1084,1527,0,0
-133,-503,0,0,0,0,0,0,0,0,0,-1,1091,1527,0,0
-126,-503,0,0,0,0,0,0,0,0,0,-1,1098,1527,0,0
-119,-503,0,0,0,0,0,0,0,0,0,-1,1105,1527,0,0
-112,-503,0,0,0,0,0,0,0,0,0,-1,1112,1527,0,0
-105,-503,0,0,0,0,0,0,0,0,0,-1,1119,1527,0,0
-98,-503,0,0,0,0,0,0,0,0,0,-1,1126,1527,0,0
-91,-503,0,0,0,0,0,0,0,0,0,-1,1133,1527,0,0
-84,-503,0,0,0,0,0,0,0,0,0,-1,1140,1527,0,0
-77,-503,0,0,0,0,0,0,0,0,0,-1,1147,1527,0,0
-70,-503,0,0,0,0,0,0,0,0,0,-1,1154,1527,0,0
-63,-503,0,0,0,0,0,0,0,0,0,-1,1161,1527,0,0
-56,-503,0,0,0,0,0,0,0,0,0,-1,1168,1527,0,0
-49,-503,0,0,0,0,0,0,0,0,0,-1,1175,1527,0,0
-42,-503,0,0,0,0,0,0,0,0,0,-1,1182,1527,0,0
-35,-503,0,0,0,0,0,0,0,0,0,-1,1189,1527,0,0
-28,-503,0,0,0,0,0,0,0,0,0,-1,1196,1527,0,0
-21,-503,0,0,0,0,0,0,0,0,0,-1,1203,1527,0,0
-14,-503,0,0,0,0,0,0,0,0,0,-1,1210,1527,0,0
-7,-503,0,0,0,0,0,0,0,0,0,-1,1217,1527,0,0
0,-503,0,0,0,0,0,0,0,0,0,-1,1224,1527,0,0
7,-503,0,0,0,0,0,0,0,0,0,-1,1231,1527,0,0
14,-503,0,0,0,0,0,0,0,0,0,-1,1238,1527,0,0
21,-503,0,0,0,0,0,0,0,0,0,-1,1245,1527,0,0
28,-503,0,0,0,0,0,0,0,0,0,-1,1252,1527,0,0
35,-503,0,0,0,0,0,0,0,0,0,-1,1259,1527,0,0
42,-503,0,0,0,0,0,0,0,0,0,-1,1266,1527,0,0
49,-503,0,0,0,0,0,0,0,0,0,-1,1273,1527,0,0
56,-503,0,0,0,0,0,0,0,0,0,-1,1280,1527,0,0
63,-503,0,0,0,0,0,0,0,0,0,-1,1287,1527,0,0
70,-503,0,0,0,0,0,0,0,0,0,-1,1294,1527,0,0
77,-503,0,0,0,0,0,0,0,0,0,-1,1301,1527,0,0
84,-503,0,0,0,0,0,0,0,0,0,-1,1308,1527,0,0
91,-503,0,0,0,0,0,0,0,0,0,-1,1315,1527,0,0
98,-503,0,0,0,0,0,0,0,0,0,-1,1322,1527,0,0
105,-503,0,0,0,0,0,0,0,0,0,-1,1329,1527,0,0
112,-503,0,0,0,0,0,0,0,0,0,-1,1336,1527,0,0
119,-503,0,0,0,0,0,0,0,0,0,-1,1343,1527,0,0
126,-503,0,0,0,0,0,0,0,0,0,-1,1350,1527,0,0
133,-503,0,0,0,0,0,0,0,0,0,-1,1357,1527,0,0
140,-503,0,0,0,0,0,0,0,0,0,-1,1364,1527,0,0
147,-503,0,0,0,0,0,0,0,0,0,-1,1371,1527,0,0
154,-503,0,0,0,0,0,0,0,0,0,-1,1378,1527,0,0
161,-503,0,0,0,0,0,0,0,0,0,-1,1385,1527,0,0
168,-503,0,0,0,0,0,0,0,0,0,-1,1392,1527,0,0
175,-503,0,0,0,0,0,0,0,0,0,-1,1399,1527,0,0
182,-503,0,0,0,0,0,0,0,0,0,-1,1406,1527,0,0
189,-503,0,0,0,0,0,0,0,0,0,-1,1413,1527,0,0
196,-503,0,0,0,0,0,0,0,0,0,-1,1420,1527,0,0
203,-503,0,0,0,0,0,0,0,0,0,-1,1427,1527,0,0
210,-503,0,0,0,0,0,0,0,0,0,-1,1434,1527,0,0
217,-503,0,0,0,0,0,0,0,0,0,-1,1441,1527,0,0
224,-503,0,0,0,0,0,0,0,0,0,-1,1448,1527,0,0
231,-503,0,0,0,0,0,0,0,0,0,-1,1455,1527,0,0
238,-503,0,0,0,0,0,0,0,0,0,-1,1462,1527,0,0
245,-503,0,0,0,0,0,0,0,0,0,-1,1469,1527,0,0
252,-503,0,0,0,0,0,0,0,0,0,-1,1476,1527,0,0
259,-503,0,0,0,0,0,0,0,0,0,-1,1483,1527,0,0
266,-503,0,0,0,0,0,0,0,0,0,-1,1490,1527,0,0
273,-503,0,0,0,0,0,0,0,0,0,-1,1497,1527,0,0
280,-503,0,0,0,0,0,0,0,0,0,-1,1504,1527,0,0
287,-503,0,0,0,0,0,0,0,0,0,-1,1511,1527,0,0
294,-503,0,0,0,0,0,0,0,0,0,-1,1518,1527,0,0
301,-503,0,0,0,0,0,0,0,0,0,-1,1525,1527,0,0
308,-503,0,0,0,0,0,0,0,0,0,-1,1532,1527,0,0
315,-503,0,0,0,0,0,0,0,0,0,-1,1539,1527,0,0
322,-503,0,0,0,0,0,0,0,0,0,-1,1546,1527,0,0
329,-503,0,0,0,0,0,0,0,0,0,-1,1553,1527,0,0
336,-503,0,0,0,0,0,0,0,0,0,-1,1560,1527,0,0
343,-503,0,0,0,0,0,0,0,0,0,-1,1567,1527,0,0
350,-503,0,0,0,0,0,0,0,0,0,-1,1574,1527,0,0
357,-503,0,0,0,0,0,0,0,0,0,-1,1581,1527,0,0
364,-503,0,0,0,0,0,0,0,0,0,-1,1588,1527,0,0
371,-503,0,0,0,0,0,0,0,0,0,-1,1595,1527,0,0
378,-503,0,0,0,0,0,0,0,0,0,-1,1602,1527,0,0
385,-503,0,0,0,0,0,0,0,0,0,-1,1609,1527,0,0
392,-503,0,0,0,0,0,0,0,0,0,-1,1616,1527,0,0
399,-503,0,0,0,0,0,0,0,0,0,-1,1623,1527,0,0
406,-503,0,0,0,0,0,0,0,0,0,-1,1630,1527,0,0
413,-503,0,0,0,0,0,0,0,0,0,-1,1637,1527,0,0
420,-503,0,0,0,0,0,0,0,0,0,-1,1644,1527,0,0
427,-503,10.5968,4.9856,0,0,0,0,0,0,0,-1,1651,1527,10.5969,-4.98563
434,-503,11.4329,3.97217,0,0,0,0,0,0,0,-1,1658,1527,11.4328,-3.97222
441,-503,12.0957,2.96509,0,0,0,0,0,0,0,-1,1665,1527,12.0957,-2.96512
448,-503,12.3259,2.53894,0,0,0,0,0,0,0,-1,1672,1527,12.326,-2.53895
455,-503,12.1669,2.18762,0,0,0,0,0,0,0,-1,1679,1527,12.1668,-2.18767
462,-503,11.59,2.60791,0,0,0,0,0,0,0,-1,1686,1527,11.5899,-2.60794
469,-503,11.1625,1.61853,0,0,0,0,0,0,0,-1,1693,1527,11.1625,-1.61856
476,-503,9.07703,5.81042,0,0,0,0,0,0,0,-1,1700,1527,9.07699,-5.81047
483,-503,9.74414,6.92432,0,0,0,0,0,0,0,-1,1707,1527,9.74417,-6.9243
490,-503,10.5033,10.1071,0,0,0,0,0,0,0,-1,1714,1527,10.5032,-10.107
497,-503,15.0057,17.9476,0,0,0,0,0,0,0,-1,1721,1527,15.0058,-17.9476
504,-503,16.4764,18.4486,0,0,0,0,0,0,0,-1,1728,1527,16.4764,-18.4486
511,-503,16.8276,18.3271,0,0,0,0,0,0,0,-1,1735,1527,16.8276,-18.3272
518,-503,17.2533,18.2738,0,0,0,0,0,0,0,-1,1742,1527,17.2533,-18.2738
525,-503,21.2887,26.5785,0,0,0,0,0,0,0,-1,1749,1527,21.2887,-26.5785
532,-503,26.3033,31.2019,0,0,0,0,0,0,0,-1,1756,1527,26.3033,-31.2018
539,-503,26.3262,30.4017,0.00762136,0.00583026,-0.00503784,0.0118426,0.00160899,-0.697434,0.00741716,0.0315103,1763,1527,26.3262,-30.4017
546,-503,26.3849,29.5779,0.005984,0.0045192,-0.00377336,0.00909538,0.00140782,-0.689541,0.00565305,0.0143981,1770,1527,26.3848,-29.5778
553,-503,26.4095,28.8824,0.00480917,0.00336345,-0.00278942,0.00696787,0.00120475,-0.658615,0.00430029,0.0153105,1777,1527,26.4096,-28.8825
560,-503,26.3497,28.1827,0.00391934,0.00238409,-0.00201332,0.00530641,0.000997015,-0.603268,0.00325655,0.0146877,1784,1527,26.3498,-28.1827
567,-503,26.3109,27.4678,0.00335911,0.00173193,-0.00160254,0.00434276,0.00074829,-0.550508,0.00268078,0.013096,1791,1527,26.3109,-27.4678
574,-503,26.2964,26.7593,0.00306371,0.0012706,-0.00137867,0.00381171,0.0005226,-0.497103,0.00238609,0.0127683,1798,1527,26.2964,-26.7592
581,-503,26.2551,26.0592,0.00294538,0.000886854,-0.00126533,0.00354721,0.00028503,-0.443959,0.00227575,0.0144332,1805,1527,26.2551,-26.0592
588,-503,26.2278,25.3383,0.00309512,0.00063833,-0.0013578,0.00369773,3.57168e-05,-0.417698,0.00245333,0.0172768,1812,1527,26.2278,-25.3383
595,-503,26.1847,24.6322,0.00353584,0.000512912,-0.00156686,0.00420143,-0.000152681,-0.401696,0.00285321,0.0135166,1819,1527,26.1847,-24.6322
602,-503,26.2214,23.8691,0.0041866,0.000591738,-0.00192349,0.00502177,-0.000243427,-0.409632,0.00343187,0.0236356,1826,1527,26.2214,-23.8691
609,-503,26.2664,22.984,0,0,0,0,0,0,0,-1,1833,1527,26.2664,-22.9839
616,-503,26.3691,22.3373,0,0,0,0,0,0,0,-1,1840,1527,26.3692,-22.3373
623,-503,18.7351,15.5999,0,0,0,0,0,0,0,-1,1847,1527,18.7351,-15.5999
630,-503,20.6721,13.9077,0,0,0,0,0,0,0,-1,1854,1527,20.6721,-13.9077
637,-503,14.5564,9.20496,0,0,0,0,0,0,0,-1,1861,1527,14.5564,-9.2049
644,-503,11.4802,7.57214,0,0,0,0,0,0,0,-1,1868,1527,11.4802,-7.57215
651,-503,11.5718,6.5448,0,0,0,0,0,0,0,-1,1875,1527,11.5718,-6.54476
658,-503,8.25635,3.10498,0,0,0,0,0,0,0,-1,1882,1527,8.2563,-3.10493
665,-503,0,0,0,0,0,0,0,0,0,-1,1889,1527,0,0
672,-503,0,0,0,0,0,0,0,0,0,-1,1896,1527,0,0
679,-503,0,0,0,0,0,0,0,0,0,-1,1903,1527,0,0
686,-503,0,0,0,0,0,0,0,0,0,-1,1910,1527,0,0
693,-503,0,0,0,0,0,0,0,0,0,-1,1917,1527,0,0
700,-503,0,0,0,0,0,0,0,0,0,-1,1924,1527,0,0
707,-503,0,0,0,0,0,0,0,0,0,-1,1931,1527,0,0
714,-503,0,0,0,0,0,0,0,0,0,-1,1938,1527,0,0
721,-503,0,0,0,0,0,0,0,0,0,-1,1945,1527,0,0
728,-503,0,0,0,0,0,0,0,0,0,-1,1952,1527,0,0
735,-503,0,0,0,0,0,0,0,0,0,-1,1959,1527,0,0
742,-503,0,0,0,0,0,0,0,0,0,-1,1966,1527,0,0
749,-503,0,0,0,0,0,0,0,0,0,-1,1973,1527,0,0
756,-503,0,0,0,0,0,0,0,0,0,-1,1980,1527,0,0
763,-503,0,0,0,0,0,0,0,0,0,-1,1987,1527,0,0
770,-503,0,0,0,0,0,0,0,0,0,-1,1994,1527,0,0
777,-503,0,0,0,0,0,0,0,0,0,-1,2001,1527,0,0
784,-503,0,0,0,0,0,0,0,0,0,-1,2008,1527,0,0
791,-503,0,0,0,0,0,0,0,0,0,-1,2015,1527,0,0
798,-503,0,0,0,0,0,0,0,0,0,-1,2022,1527,0,0
805,-503,0,0,0,0,0,0,0,0,0,-1,2029,1527,0,0
812,-503,0,0,0,0,0,0,0,0,0,-1,2036,1527,0,0
-700,-510,0,0,0,0,0,0,0,0,0,-1,524,1534,0,0
-693,-510,0,0,0,0,0,0,0,0,0,-1,531,1534,0,0
-686,-510,0,0,0,0,0,0,0,0,0,-1,538,1534,0,0
-679,-510,0,0,0,0,0,0,0,0,0,-1,545,1534,0,0
-672,-510,0,0,0,0,0,0,0,0,0,-1,552,1534,0,0
-665,-510,0,0,0,0,0,0,0,0,0,-1,559,1534,0,0
-658,-510,0,0,0,0,0,0,0,0,0,-1,566,1534,0,0
-651,-510,0,0,0,0,0,0,0,0,0,-1,573,1534,0,0
-644,-510,0,0,0,0,0,0,0,0,0,-1,580,1534,0,0
-637,-510,0,0,0,0,0,0,0,0,0,-1,587,1534,0,0
-630,-510,0,0,0,0,0,0,0,0,0,-1,594,1534,0,0
-623,-510,0,0,0,0,0,0,0,0,0,-1,601,1534,0,0
-616,-510,0,0,0,0,0,0,0,0,0,-1,608,1534,0,0
-609,-510,0,0,0,0,0,0,0,0,0,-1,615,1534,0,0
-602,-510,0,0,0,0,0,0,0,0,0,-1,622,1534,0,0
-595,-510,0,0,0,0,0,0,0,0,0,-1,629,1534,0,0
-588,-510,0,0,0,0,0,0,0,0,0,-1,636,1534,0,0
-581,-510,0,0,0,0,0,0,0,0,0,-1,643,1534,0,0
-574,-510,0,0,0,0,0,0,0,0,0,-1,650,1534,0,0
-567,-510,0,0,0,0,0,0,0,0,0,-1,657,1534,0,0
-560,-510,0,0,0,0,0,0,0,0,0,-1,664,1534,0,0
-553,-510,0,0,0,0,0,0,0,0,0,-1,671,1534,0,0
-546,-510,0,0,0,0,0,0,0,0,0,-1,678,1534,0,0
-539,-510,0,0,0,0,0,0,0,0,0,-1,685,1534,0,0
-532,-510,-3.95129,4.52014,0,0,0,0,0,0,0,-1,692,1534,-3.95131,-4.5202
-525,-510,-2.77411,0.316772,0,0,0,0,0,0,0,-1,699,1534,-2.77409,-0.3168
-518,-510,-2.86847,2.71423,0,0,0,0,0,0,0,-1,706,1534,-2.86849,-2.71424
-511,-510,-2.28571,4.48083,0,0,0,0,0,0,0,-1,713,1534,-2.28571,-4.48086
-504,-510,-4.86731,10.8224,0,0,0,0,0,0,0,-1,720,1534,-4.8673,-10.8224
-497,-510,-3.42352,15.5178,0,0,0,0,0,0,0,-1,727,1534,-3.42352,-15.5178
-490,-510,-5.9472,18.5184,0,0,0,0,0,0,0,-1,734,1534,-5.94718,-18.5185
-483,-510,-6.79639,20.8453,0,0,0,0,0,0,0,-1,741,1534,-6.79638,-20.8454
-476,-510,-7.9256,22.6531,0,0,0,0,0,0,0,-1,748,1534,-7.92563,-22.6531
-469,-510,-7.87701,23.4141,0.0183083,-0.00984851,0.000227532,0.0183101,-0.00985035,0.0080802,0.0165012,0.0211506,755,1534,-7.877,-23.414
-462,-510,-7.9104,24.1296,0.0140254,-0.00782151,-0.000117983,0.014026,-0.00782215,-0.00540026,0.0127824,0.011434,762,1534,-7.91042,-24.1296
-455,-510,-7.94189,24.8843,0.0103685,-0.00579805,-0.000156376,0.01037,-0.00579956,-0.00967163,0.009459,0.0136775,769,1534,-7.94188,-24.8843
-448,-510,-7.93604,25.6411,0.00738855,-0.00388625,4.48231e-06,0.00738855,-0.00388625,0.000397551,0.00661337,0.0136943,776,1534,-7.93605,-25.6411
-441,-510,-7.97919,26.3871,0.00514532,-0.00202879,0.00037773,0.00516515,-0.00204862,0.0524586,0.00429248,0.0154495,783,1534,-7.97921,-26.387
-434,-510,-8.07861,27.095,0.00355977,-0.00024702,0.000895395,0.00375986,-0.000447109,0.219852,0.00266813,0.0167618,790,1534,-8.07861,-27.095
-427,-510,-8.15076,27.7842,0.00259313,0.0013412,0.00147532,0.00356979,0.000364541,0.584764,0.00226813,0.024832,797,1534,-8.15079,-27.7842
-420,-510,-8.14734,28.574,0.00223724,0.00289057,0.00217751,0.00476579,0.000362028,0.859851,0.00306365,0.0212403,804,1534,-8.14735,-28.574
-413,-510,-8.16919,29.342,0.00280959,0.00421908,0.00309407,0.00668766,0.00034102,0.897374,0.00434922,0.0111223,811,1534,-8.16921,-29.3421
-406,-510,-8.21075,30.057,0.00435778,0.00548418,0.00385203,0.00881397,0.001028,0.857988,0.00556505,0.0115601,818,1534,-8.21074,-30.057
-399,-510,-8.23541,30.7639,0.00552338,0.0070876,0.00485882,0.0112269,0.00138412,0.865197,0.00706851,0.0165574,825,1534,-8.23541,-30.764
-392,-510,-8.15729,31.4701,0,0,0,0,0,0,0,-1,832,1534,-8.15727,-31.4701
-385,-510,-7.23199,31.704,0,0,0,0,0,0,0,-1,839,1534,-7.23198,-31.704
-378,-510,-1.78308,13.8044,0,0,0,0,0,0,0,-1,846,1534,-1.78309,-13.8044
-371,-510,-1.74982,13.8027,0,0,0,0,0,0,0,-1,853,1534,-1.74981,-13.8028
-364,-510,-1.3479,13.7771,0,0,0,0,0,0,0,-1,860,1534,-1.34791,-13.7771
-357,-510,-0.254395,8.89575,0,0,0,0,0,0,0,-1,867,1534,-0.254397,-8.89569
-350,-510,0.471191,6.06458,0,0,0,0,0,0,0,-1,874,1534,0.47118,-6.06453
-343,-510,-6.96869,26.3074,0,0,0,0,0,0,0,-1,881,1534,-6.9687,-26.3074
-336,-510,-5.60437,29.5996,0,0,0,0,0,0,0,-1,888,1534,-5.60435,-29.5996
-329,-510,-4.87781,20.6893,0,0,0,0,0,0,0,-1,895,1534,-4.87782,-20.6894
-322,-510,-0.251526,11.973,0,0,0,0,0,0,0,-1,902,1534,-0.251497,-11.9731
-315,-510,-1.73047,10.9796,0,0,0,0,0,0,0,-1,909,1534,-1.73049,-10.9796
-308,-510,-2.05328,9.72034,0,0,0,0,0,0,0,-1,916,1534,-2.05327,-9.72036
-301,-510,-1.85437,11.5869,0,0,0,0,0,0,0,-1,923,1534,-1.85437,-11.5869
-294,-510,0,0,0,0,0,0,0,0,0,-1,930,1534,0,0
-287,-510,0,0,0,0,0,0,0,0,0,-1,937,1534,0,0
-280,-510,0,0,0,0,0,0,0,0,0,-1,944,1534,0,0
-273,-510,0,0,0,0,0,0,0,0,0,-1,951,1534,0,0
-266,-510,0,0,0,0,0,0,0,0,0,-1,958,1534,0,0
-259,-510,0,0,0,0,0,0,0,0,0,-1,965,1534,0,0
-252,-510,0,0,0,0,0,0,0,0,0,-1,972,1534,0,0
-245,-510,0,0,0,0,0,0,0,0,0,-1,979,1534,0,0
-238,-510,0,0,0,0,0,0,0,0,0,-1,986,1534,0,0
-231,-510,0,0,0,0,0,0,0,0,0,-1,993,1534,0,0
-224,-510,0,0,0,0,0,0,0,0,0,-1,1000,1534,0,0
-217,-510,0,0,0,0,0,0,0,0,0,-1,1007,1534,0,0
-210,-510,0,0,0,0,0,0,0,0,0,-1,1014,1534,0,0
-203,-510,0,0,0,0,0,0,0,0,0,-1,1021,1534,0,0
-196,-510,0,0,0,0,0,0,0,0,0,-1,1028,1534,0,0
-189,-510,0,0,0,0,0,0,0,0,0,-1,1035,1534,0,0
-182,-510,0,0,0,0,0,0,0,0,0,-1,1042,1534,0,0
-175,-510,0,0,0,0,0,0,0,0,0,-1,1049,1534,0,0
-168,-510,0,0,0,0,0,0,0,0,0,-1,1056,1534,0,0
-161,-510,0,0,0,0,0,0,0,0,0,-1,1063,1534,0,0
-154,-510,0,0,0,0,0,0,0,0,0,-1,1070,1534,0,0
-147,-510,0,0,0,0,0,0,0,0,0,-1,1077,1534,0,0
-140,-510,0,0,0,0,0,0,0,0,0,-1,1084,1534,0,0
-133,-510,0,0,0,0,0,0,0,0,0,-1,1091,1534,0,0
-126,-510,0,0,0,0,0,0,0,0,0,-1,1098,1534,0,0
-119,-510,0,0,0,0,0,0,0,0,0,-1,1105,1534,0,0
-112,-510,0,0,0,0,0,0,0,0,0,-1,1112,1534,0,0
-105,-510,0,0,0,0,0,0,0,0,0,-1,1119,1534,0,0
-98,-510,0,0,0,0,0,0,0,0,0,-1,1126,1534,0,0
-91,-510,0,0,0,0,0,0,0,0,0,-1,1133,1534,0,0
-84,-510,0,0,0,0,0,0,0,0,0,-1,1140,1534,0,0
-77,-510,0,0,0,0,0,0,0,0,0,-1,1147,1534,0,0
-70,-510,0,0,0,0,0,0,0,0,0,-1,1154,1534,0,0
-63,-510,0,0,0,0,0,0,0,0,0,-1,1161,1534,0,0
-56,-510,0,0,0,0,0,0,0,0,0,-1,1168,1534,0,0
-49,-510,0,0,0,0,0,0,0,0,0,-1,1175,1534,0,0
-42,-510,0,0,0,0,0,0,0,0,0,-1,1182,1534,0,0
-35,-510,0,0,0,0,0,0,0,0,0,-1,1189,1534,0,0
-28,-510,0,0,0,0,0,0,0,0,0,-1,1196,1534,0,0
-21,-510,0,0,0,0,0,0,0,0,0,-1,1203,1534,0,0
-14,-510,0,0,0,0,0,0,0,0,0,-1,1210,1534,0,0
-7,-510,0,0,0,0,0,0,0,0,0,-1,1217,1534,0,0
0,-510,0,0,0,0,0,0,0,0,0,-1,1224,1534,0,0
7,-510,0,0,0,0,0,0,0,0,0,-1,1231,1534,0,0
14,-510,0,0,0,0,0,0,0,0,0,-1,1238,1534,0,0
21,-510,0,0,0,0,0,0,0,0,0,-1,1245,1534,0,0
28,-510,0,0,0,0,0,0,0,0,0,-1,1252,1534,0,0
35,-510,0,0,0,0,0,0,0,0,0,-1,1259,1534,0,0
42,-510,0,0,0,0,0,0,0,0,0,-1,1266,1534,0,0
49,-510,0,0,0,0,0,0,0,0,0,-1,1273,1534,0,0
56,-510,0,0,0,0,0,0,0,0,0,-1,1280,1534,0,0
63,-510,0,0,0,0,0,0,0,0,0,-1,1287,1534,0,0
70,-510,0,0,0,0,0,0,0,0,0,-1,1294,1534,0,0
77,-510,0,0,0,0,0,0,0,0,0,-1,1301,1534,0,0
84,-510,0,0,0,0,0,0,0,0,0,-1,1308,1534,0,0
91,-510,0,0,0,0,0,0,0,0,0,-1,1315,1534,0,0
98,-510,0,0,0,0,0,0,0,0,0,-1,1322,1534,0,0
105,-510,0,0,0,0,0,0,0,0,0,-1,1329,1534,0,0
112,-510,0,0,0,0,0,0,0,0,0,-1,1336,1534,0,0
119,-510,0,0,0,0,0,0,0,0,0,-1,1343,1534,0,0
126,-510,0,0,0,0,0,0,0,0,0,-1,1350,1534,0,0
133,-510,0,0,0,0,0,0,0,0,0,-1,1357,1534,0,0
140,-510,0,0,0,0,0,0,0,0,0,-1,1364,1534,0,0
147,-510,0,0,0,0,0,0,0,0,0,-1,1371,1534,0,0
154,-510,0,0,0,0,0,0,0,0,0,-1,1378,1534,0,0
161,-510,0,0,0,0,0,0,0,0,0,-1,1385,1534,0,0
168,-510,0,0,0,0,0,0,0,0,0,-1,1392,1534,0,0
175,-510,0,0,0,0,0,0,0,0,0,-1,1399,1534,0,0
182,-510,0,0,0,0,0,0,0,0,0,-1,1406,1534,0,0
189,-510,0,0,0,0,0,0,0,0,0,-1,1413,1534,0,0
196,-510,0,0,0,0,0,0,0,0,0,-1,1420,1534,0,0
203,-510,0,0,0,0,0,0,0,0,0,-1,1427,1534,0,0
210,-510,0,0,0,0,0,0,0,0,0,-1,1434,1534,0,0
217,-510,0,0,0,0,0,0,0,0,0,-1,1441,1534,0,0
224,-510,0,0,0,0,0,0,0,0,0,-1,1448,1534,0,0
231,-510,0,0,0,0,0,0,0,0,0,-1,1455,1534,0,0
238,-510,0,0,0,0,0,0,0,0,0,-1,1462,1534,0,0
245,-510,0,0,0,0,0,0,0,0,0,-1,1469,1534,0,0
252,-510,0,0,0,0,0,0,0,0,0,-1,1476,1534,0,0
259,-510,0,0,0,0,0,0,0,0,0,-1,1483,1534,0,0
266,-510,0,0,0,0,0,0,0,0,0,-1,1490,1534,0,0
273,-510,0,0,0,0,0,0,0,0,0,-1,1497,1534,0,0
280,-510,0,0,0,0,0,0,0,0,0,-1,1504,1534,0,0
287,-510,0,0,0,0,0,0,0,0,0,-1,1511,1534,0,0
294,-510,0,0,0,0,0,0,0,0,0,-1,1518,1534,0,0
301,-510,0,0,0,0,0,0,0,0,0,-1,1525,1534,0,0
308,-510,0,0,0,0,0,0,0,0,0,-1,1532,1534,0,0
315,-510,0,0,0,0,0,0,0,0,0,-1,1539,1534,0,0
322,-510,0,0,0,0,0,0,0,0,0,-1,1546,1534,0,0
329,-510,0,0,0,0,0,0,0,0,0,-1,1553,1534,0,0
336,-510,0,0,0,0,0,0,0,0,0,-1,1560,1534,0,0
343,-510,0,0,0,0,0,0,0,0,0,-1,1567,1534,0,0
350,-510,0,0,0,0,0,0,0,0,0,-1,1574,1534,0,0
357,-510,0,0,0,0,0,0,0,0,0,-1,1581,1534,0,0
364,-510,0,0,0,0,0,0,0,0,0,-1,1588,1534,0,0
371,-510,0,0,0,0,0,0,0,0,0,-1,1595,1534,0,0
378,-510,0,0,0,0,0,0,0,0,0,-1,1602,1534,0,0
385,-510,0,0,0,0,0,0,0,0,0,-1,1609,1534,0,0
392,-510,0,0,0,0,0,0,0,0,0,-1,1616,1534,0,0
399,-510,0,0,0,0,0,0,0,0,0,-1,1623,1534,0,0
406,-510,0,0,0,0,0,0,0,0,0,-1,1630,1534,0,0
413,-510,0,0,0,0,0,0,0,0,0,-1,1637,1534,0,0
420,-510,14.1888,6.71936,0,0,0,0,0,0,0,-1,1644,1534,14.1889,-6.71939
427,-510,10.2134,5.59485,0,0,0,0,0,0,0,-1,1651,1534,10.2134,-5.59485
434,-510,11.8219,4.07898,0,0,0,0,0,0,0,-1,1658,1534,11.8219,-4.07895
441,-510,12.6812,3.02991,0,0,0,0,0,0,0,-1,1665,1534,12.6811,-3.0299
448,-510,13.2379,2.2804,0,0,0,0,0,0,0,-1,1672,1534,13.2379,-2.28037
455,-510,9.76892,2.20642,0,0,0,0,0,0,0,-1,1679,1534,9.76894,-2.20647
462,-510,9.84692,2.49182,0,0,0,0,0,0,0,-1,1686,1534,9.84695,-2.49185
469,-510,16.6072,7.26941,0,0,0,0,0,0,0,-1,1693,1534,16.6072,-7.26945
476,-510,15.9199,7.8645,0,0,0,0,0,0,0,-1,1700,1534,15.9199,-7.86455
483,-510,13.0833,8.10938,0,0,0,0,0,0,0,-1,1707,1534,13.0833,-8.10932
490,-510,13.0841,15.3286,0,0,0,0,0,0,0,-1,1714,1534,13.0841,-15.3286
497,-510,15.5652,18.823,0,0,0,0,0,0,0,-1,1721,1534,15.5652,-18.823
504,-510,15.998,18.7478,0,0,0,0,0,0,0,-1,1728,1534,15.998,-18.7478
511,-510,15.9443,18.0476,0,0,0,0,0,0,0,-1,1735,1534,15.9443,-18.0476
518,-510,21.5343,27.1368,0,0,0,0,0,0,0,-1,1742,1534,21.5342,-27.1368
525,-510,25.3004,32.0493,0,0,0,0,0,0,0,-1,1749,1534,25.3005,-32.0493
532,-510,25.6909,31.1001,0.00777746,0.00643008,-0.00552847,0.0126731,0.0015344,-0.724768,0.00798658,0.0293298,1756,1534,25.6909,-31.1001
539,-510,25.7488,30.2828,0.00615868,0.00487453,-0.00416017,0.00972603,0.00130718,-0.708833,0.0060952,0.0138866,1763,1534,25.7488,-30.2829
546,-510,25.7097,29.6315,0.00489941,0.00369787,-0.00308485,0.00744144,0.00115584,-0.689228,0.00462409,0.0143874,1770,1534,25.7097,-29.6314
553,-510,25.6725,28.923,0.00399278,0.00269292,-0.00222005,0.00565608,0.00102962,-0.643,0.00347868,0.0145937,1777,1534,25.6725,-28.9229
560,-510,25.6233,28.193,0.00333729,0.00181816,-0.00153066,0.00428648,0.000868967,-0.555082,0.00261655,0.0150984,1784,1534,25.6233,-28.193
567,-510,25.5922,27.4819,0.00299263,0.00128806,-0.00120885,0.00361943,0.00066126,-0.478348,0.00222553,0.0145259,1791,1534,25.5922,-27.482
574,-510,25.5559,26.7953,0.00288417,0.000915735,-0.00104592,0.00333614,0.000463763,-0.407892,0.00208675,0.0144226,1798,1534,25.5559,-26.7953
581,-510,25.5406,26.1295,0.00298741,0.000645698,-0.00103744,0.0033809,0.000252204,-0.362529,0.00217475,0.0132374,1805,1534,25.5407,-26.1295
588,-510,25.5135,25.4225,0.00337155,0.000553649,-0.0012724,0.00386106,6.41413e-05,-0.367258,0.00255293,0.0135249,1812,1534,25.5135,-25.4225
595,-510,25.5852,24.5729,0.00404732,0.000642585,-0.00167562,0.00473362,-4.37191e-05,-0.38874,0.00317042,0.0202499,1819,1534,25.5852,-24.5729
602,-510,25.6101,23.6927,0,0,0,0,0,0,0,-1,1826,1534,25.6101,-23.6927
609,-510,21.259,19.222,0,0,0,0,0,0,0,-1,1833,1534,21.259,-19.222
616,-510,18.7024,16.2474,0,0,0,0,0,0,0,-1,1840,1534,18.7024,-16.2474
623,-510,19.6013,14.6211,0,0,0,0,0,0,0,-1,1847,1534,19.6013,-14.6211
630,-510,13.7461,9.30334,0,0,0,0,0,0,0,-1,1854,1534,13.7461,-9.30335
637,-510,11.0155,7.38464,0,0,0,0,0,0,0,-1,1861,1534,11.0155,-7.38463
644,-510,11.5809,7.17126,0,0,0,0,0,0,0,-1,1868,1534,11.5809,-7.17123
651,-510,8.70471,3.5061,0,0,0,0,0,0,0,-1,1875,1534,8.70475,-3.50611
658,-510,0,0,0,0,0,0,0,0,0,-1,1882,1534,0,0
665,-510,0,0,0,0,0,0,0,0,0,-1,1889,1534,0,0
672,-510,0,0,0,0,0,0,0,0,0,-1,1896,1534,0,0
679,-510,0,0,0,0,0,0,0,0,0,-1,1903,1534,0,0
686,-510,0,0,0,0,0,0,0,0,0,-1,1910,1534,0,0
693,-510,0,0,0,0,0,0,0,0,0,-1,1917,1534,0,0
700,-510,0,0,0,0,0,0,0,0,0,-1,1924,1534,0,0
707,-510,0,0,0,0,0,0,0,0,0,-1,1931,1534,0,0
714,-510,0,0,0,0,0,0,0,0,0,-1,1938,1534,0,0
721,-510,0,0,0,0,0,0,0,0,0,-1,1945,1534,0,0
728,-510,0,0,0,0,0,0,0,0,0,-1,1952,1534,0,0
735,-510,0,0,0,0,0,0,0,0,0,-1,1959,1534,0,0
742,-510,0,0,0,0,0,0,0,0,0,-1,1966,1534,0,0
749,-510,0,0,0,0,0,0,0,0,0,-1,1973,1534,0,0
756,-510,0,0,0,0,0,0,0,0,0,-1,1980,1534,0,0
763,-510,0,0,0,0,0,0,0,0,0,-1,1987,1534,0,0
770,-510,0,0,0,0,0,0,0,0,0,-1,1994,1534,0,0
777,-510,0,0,0,0,0,0,0,0,0,-1,2001,1534,0,0
784,-510,0,0,0,0,0,0,0,0,0,-1,2008,1534,0,0
791,-510,0,0,0,0,0,0,0,0,0,-1,2015,1534,0,0
798,-510,0,0,0,0,0,0,0,0,0,-1,2022,1534,0,0
805,-510,0,0,0,0,0,0,0,0,0,-1,2029,1534,0,0
812,-510,0,0,0,0,0,0,0,0,0,-1,2036,1534,0,0
-700,-517,0,0,0,0,0,0,0,0,0,-1,524,1541,0,0
-693,-517,0,0,0,0,0,0,0,0,0,-1,531,1541,0,0
-686,-517,0,0,0,0,0,0,0,0,0,-1,538,1541,0,0
-679,-517,0,0,0,0,0,0,0,0,0,-1,545,1541,0,0
-672,-517,0,0,0,0,0,0,0,0,0,-1,552,1541,0,0
-665,-517,0,0,0,0,0,0,0,0,0,-1,559,1541,0,0
-658,-517,0,0,0,0,0,0,0,0,0,-1,566,1541,0,0
-651,-517,0,0,0,0,0,0,0,0,0,-1,573,1541,0,0
-644,-517,0,0,0,0,0,0,0,0,0,-1,580,1541,0,0
-637,-517,0,0,0,0,0,0,0,0,0,-1,587,1541,0,0
-630,-517,0,0,0,0,0,0,0,0,0,-1,594,1541,0,0
-623,-517,0,0,0,0,0,0,0,0,0,-1,601,1541,0,0
-616,-517,0,0,0,0,0,0,0,0,0,-1,608,1541,0,0
-609,-517,0,0,0,0,0,0,0,0,0,-1,615,1541,0,0
-602,-517,0,0,0,0,0,0,0,0,0,-1,622,1541,0,0
-595,-517,0,0,0,0,0,0,0,0,0,-1,629,1541,0,0
-588,-517,0,0,0,0,0,0,0,0,0,-1,636,1541,0,0
-581,-517,0,0,0,0,0,0,0,0,0,-1,643,1541,0,0
-574,-517,0,0,0,0,0,0,0,0,0,-1,650,1541,0,0
-567,-517,0,0,0,0,0,0,0,0,0,-1,657,1541,0,0
-560,-517,0,0,0,0,0,0,0,0,0,-1,664,1541,0,0
-553,-517,0,0,0,0,0,0,0,0,0,-1,671,1541,0,0
-546,-517,0,0,0,0,0,0,0,0,0,-1,678,1541,0,0
-539,-517,0,0,0,0,0,0,0,0,0,-1,685,1541,0,0
-532,-517,0,0,0,0,0,0,0,0,0,-1,692,1541,0,0
-525,-517,-3.62903,4.3606,0,0,0,0,0,0,0,-1,699,1541,-3.62904,-4.36056
-518,-517,-1.664,2.27209,0,0,0,0,0,0,0,-1,706,1541,-1.66399,-2.27207
-511,-517,-0.999146,5.52063,0,0,0,0,0,0,0,-1,713,1541,-0.999126,-5.52059
-504,-517,-1.06946,8.67432,0,0,0,0,0,0,0,-1,720,1541,-1.06947,-8.6743
-497,-517,-5.43036,17.4033,0,0,0,0,0,0,0,-1,727,1541,-5.43033,-17.4034
-490,-517,-6.20526,19.4496,0,0,0,0,0,0,0,-1,734,1541,-6.20526,-19.4495
-483,-517,-6.2254,20.368,0,0,0,0,0,0,0,-1,741,1541,-6.22542,-20.368
-476,-517,-6.78168,22.6115,0,0,0,0,0,0,0,-1,748,1541,-6.78167,-22.6115
-469,-517,-6.99536,23.4658,0.0256409,-0.0134987,-0.00012412,0.0256413,-0.0134991,-0.00317116,0.0229573,0.0259901,755,1541,-6.99534,-23.4658
-462,-517,-7.19678,24.1442,0.0195715,-0.0107558,-0.00051053,0.0195801,-0.0107644,-0.0168277,0.0177641,0.0261207,762,1541,-7.19679,-24.1441
-455,-517,-7.21234,24.908,0.0144274,-0.00816346,-0.000577882,0.0144421,-0.00817824,-0.0255581,0.0132257,0.0169007,769,1541,-7.21234,-24.9079
-448,-517,-7.2182,25.6881,0.010208,-0.00589206,-0.000478381,0.0102222,-0.00590626,-0.0296781,0.00942224,0.0150352,776,1541,-7.2182,-25.6882
-441,-517,-7.27612,26.4271,0.00702958,-0.0037662,-0.00015464,0.00703179,-0.00376842,-0.0143202,0.00632968,0.0132616,783,1541,-7.2761,-26.4271
-434,-517,-7.31964,27.146,0.00471223,-0.00183187,0.000290315,0.00472509,-0.00184473,0.044247,0.00391271,0.0158043,790,1541,-7.31962,-27.146
-427,-517,-7.36572,27.8712,0.00317974,-0.000180276,0.000779174,0.00335163,-0.00035217,0.217132,0.00236058,0.0154982,797,1541,-7.36574,-27.8712
-420,-517,-7.3811,28.6311,0.00239997,0.00136698,0.00137296,0.00335037,0.000416582,0.605492,0.00210848,0.0308109,804,1541,-7.38112,-28.6311
-413,-517,-7.4715,29.3444,0.00234822,0.00271662,0.00202332,0.0045641,0.000500736,0.830791,0.00289032,0.0167083,811,1541,-7.4715,-29.3444
-406,-517,-7.48761,30.0968,0.00324009,0.0038727,0.00267881,0.00625382,0.000858971,0.844164,0.00391443,0.0124454,818,1541,-7.48763,-30.0968
-399,-517,-7.49603,30.818,0.00416018,0.0052133,0.00344088,0.00816768,0.00120581,0.861325,0.00509101,0.0113367,825,1541,-7.49606,-30.818
-392,-517,-7.49902,31.5317,0.00498762,0.00655168,0.00415332,0.00999596,0.00154334,0.878454,0.00621374,0.0191481,832,1541,-7.49901,-31.5317
-385,-517,-7.44073,32.334,0,0,0,0,0,0,0,-1,839,1541,-7.44076,-32.334
-378,-517,-6.61444,32.6315,0,0,0,0,0,0,0,-1,846,1541,-6.61445,-32.6315
-371,-517,-1.37585,13.2646,0,0,0,0,0,0,0,-1,853,1541,-1.37586,-13.2647
-364,-517,-1.26245,12.6289,0,0,0,0,0,0,0,-1,860,1541,-1.26243,-12.6289
-357,-517,-1.23889,12.979,0,0,0,0,0,0,0,-1,867,1541,-1.23891,-12.979
-350,-517,-5.40198,23.8954,0,0,0,0,0,0,0,-1,874,1541,-5.40196,-23.8954
-343,-517,-5.45844,29.2598,0,0,0,0,0,0,0,-1,881,1541,-5.45842,-29.2598
-336,-517,-4.53223,29.6708,0,0,0,0,0,0,0,-1,888,1541,-4.53221,-29.6708
-329,-517,-3.60602,30.0817,0,0,0,0,0,0,0,-1,895,1541,-3.60601,-30.0817
-322,-517,-4.21246,19.5819,0,0,0,0,0,0,0,-1,902,1541,-4.21244,-19.5819
-315,-517,-0.987976,7.29749,0,0,0,0,0,0,0,-1,909,1541,-0.987993,-7.29743
-308,-517,3.27911,17.621,0,0,0,0,0,0,0,-1,916,1541,3.27913,-17.621
-301,-517,-1.69141,8.87488,0,0,0,0,0,0,0,-1,923,1541,-1.69141,-8.87485
-294,-517,-1.72583,9.92566,0,0,0,0,0,0,0,-1,930,1541,-1.72584,-9.92571
-287,-517,-3.09045,12.1472,0,0,0,0,0,0,0,-1,937,1541,-3.09043,-12.1472
-280,-517,0,0,0,0,0,0,0,0,0,-1,944,1541,0,0
-273,-517,0,0,0,0,0,0,0,0,0,-1,951,1541,0,0
-266,-517,0,0,0,0,0,0,0,0,0,-1,958,1541,0,0
-259,-517,0,0,0,0,0,0,0,0,0,-1,965,1541,0,0
-252,-517,0,0,0,0,0,0,0,0,0,-1,972,1541,0,0
-245,-517,0,0,0,0,0,0,0,0,0,-1,979,1541,0,0
-238,-517,0,0,0,0,0,0,0,0,0,-1,986,1541,0,0
-231,-517,0,0,0,0,0,0,0,0,0,-1,993,1541,0,0
-224,-517,0,0,0,0,0,0,0,0,0,-1,1000,1541,0,0
-217,-517,0,0,0,0,0,0,0,0,0,-1,1007,1541,0,0
-210,-517,0,0,0,0,0,0,0,0,0,-1,1014,1541,0,0
-203,-517,0,0,0,0,0,0,0,0,0,-1,1021,1541,0,0
-196,-517,0,0,0,0,0,0,0,0,0,-1,1028,1541,0,0
-189,-517,0,0,0,0,0,0,0,0,0,-1,1035,1541,0,0
-182,-517,0,0,0,0,0,0,0,0,0,-1,1042,1541,0,0
-175,-517,0,0,0,0,0,0,0,0,0,-1,1049,1541,0,0
-168,-517,0,0,0,0,0,0,0,0,0,-1,1056,1541,0,0
-161,-517,0,0,0,0,0,0,0,0,0,-1,1063,1541,0,0
-154,-517,0,0,0,0,0,0,0,0,0,-1,1070,1541,0,0
-147,-517,0,0,0,0,0,0,0,0,0,-1,1077,1541,0,0
-140,-517,0,0,0,0,0,0,0,0,0,-1,1084,1541,0,0
-133,-517,0,0,0,0,0,0,0,0,0,-1,1091,1541,0,0
-126,-517,0,0,0,0,0,0,0,0,0,-1,1098,1541,0,0
-119,-517,0,0,0,0,0,0,0,0,0,-1,1105,1541,0,0
-112,-517,0,0,0,0,0,0,0,0,0,-1,1112,1541,0,0
-105,-517,0,0,0,0,0,0,0,0,0,-1,1119,1541,0,0
-98,-517,0,0,0,0,0,0,0,0,0,-1,1126,1541,0,0
-91,-517,0,0,0,0,0,0,0,0,0,-1,1133,1541,0,0
-84,-517,0,0,0,0,0,0,0,0,0,-1,1140,1541,0,0
-77,-517,0,0,0,0,0,0,0,0,0,-1,1147,1541,0,0
-70,-517,0,0,0,0,0,0,0,0,0,-1,1154,1541,0,0
-63,-517,0,0,0,0,0,0,0,0,0,-1,1161,1541,0,0
-56,-517,0,0,0,0,0,0,0,0,0,-1,1168,1541,0,0
-49,-517,0,0,0,0,0,0,0,0,0,-1,1175,1541,0,0
-42,-517,0,0,0,0,0,0,0,0,0,-1,1182,1541,0,0
-35,-517,0,0,0,0,0,0,0,0,0,-1,1189,1541,0,0
-28,-517,0,0,0,0,0,0,0,0,0,-1,1196,1541,0,0
-21,-517,0,0,0,0,0,0,0,0,0,-1,1203,1541,0,0
-14,-517,0,0,0,0,0,0,0,0,0,-1,1210,1541,0,0
-7,-517,0,0,0,0,0,0,0,0,0,-1,1217,1541,0,0
0,-517,0,0,0,0,0,0,0,0,0,-1,1224,1541,0,0
7,-517,0,0,0,0,0,0,0,0,0,-1,1231,1541,0,0
14,-517,0,0,0,0,0,0,0,0,0,-1,1238,1541,0,0
21,-517,0,0,0,0,0,0,0,0,0,-1,1245,1541,0,0
28,-517,0,0,0,0,0,0,0,0,0,-1,1252,1541,0,0
35,-517,0,0,0,0,0,0,0,0,0,-1,1259,1541,0,0
42,-517,0,0,0,0,0,0,0,0,0,-1,1266,1541,0,0
49,-517,0,0,0,0,0,0,0,0,0,-1,1273,1541,0,0
56,-517,0,0,0,0,0,0,0,0,0,-1,1280,1541,0,0
63,-517,0,0,0,0,0,0,0,0,0,-1,1287,1541,0,0
70,-517,0,0,0,0,0,0,0,0,0,-1,1294,1541,0,0
77,-517,0,0,0,0,0,0,0,0,0,-1,1301,1541,0,0
84,-517,0,0,0,0,0,0,0,0,0,-1,1308,1541,0,0
91,-517,0,0,0,0,0,0,0,0,0,-1,1315,1541,0,0
98,-517,0,0,0,0,0,0,0,0,0,-1,1322,1541,0,0
105,-517,0,0,0,0,0,0,0,0,0,-1,1329,1541,0,0
112,-517,0,0,0,0,0,0,0,0,0,-1,1336,1541,0,0
119,-517,0,0,0,0,0,0,0,0,0,-1,1343,1541,0,0
126,-517,0,0,0,0,0,0,0,0,0,-1,1350,1541,0,0
133,-517,0,0,0,0,0,0,0,0,0,-1,1357,1541,0,0
140,-517,0,0,0,0,0,0,0,0,0,-1,1364,1541,0,0
147,-517,0,0,0,0,0,0,0,0,0,-1,1371,1541,0,0
154,-517,0,0,0,0,0,0,0,0,0,-1,1378,1541,0,0
161,-517,0,0,0,0,0,0,0,0,0,-1,1385,1541,0,0
168,-517,0,0,0,0,0,0,0,0,0,-1,1392,1541,0,0
175,-517,0,0,0,0,0,0,0,0,0,-1,1399,1541,0,0
182,-517,0,0,0,0,0,0,0,0,0,-1,1406,1541,0,0
189,-517,0,0,0,0,0,0,0,0,0,-1,1413,1541,0,0
196,-517,0,0,0,0,0,0,0,0,0,-1,1420,1541,0,0
203,-517,0,0,0,0,0,0,0,0,0,-1,1427,1541,0,0
210,-517,0,0,0,0,0,0,0,0,0,-1,1434,1541,0,0
217,-517,0,0,0,0,0,0,0,0,0,-1,1441,1541,0,0
224,-517,0,0,0,0,0,0,0,0,0,-1,1448,1541,0,0
231,-517,0,0,0,0,0,0,0,0,0,-1,1455,1541,0,0
238,-517,0,0,0,0,0,0,0,0,0,-1,1462,1541,0,0
245,-517,0,0,0,0,0,0,0,0,0,-1,1469,1541,0,0
252,-517,0,0,0,0,0,0,0,0,0,-1,1476,1541,0,0
259,-517,0,0,0,0,0,0,0,0,0,-1,1483,1541,0,0
266,-517,0,0,0,0,0,0,0,0,0,-1,1490,1541,0,0
273,-517,0,0,0,0,0,0,0,0,0,-1,1497,1541,0,0
280,-517,0,0,0,0,0,0,0,0,0,-1,1504,1541,0,0
287,-517,0,0,0,0,0,0,0,0,0,-1,1511,1541,0,0
294,-517,0,0,0,0,0,0,0,0,0,-1,1518,1541,0,0
301,-517,0,0,0,0,0,0,0,0,0,-1,1525,1541,0,0
308,-517,0,0,0,0,0,0,0,0,0,-1,1532,1541,0,0
315,-517,0,0,0,0,0,0,0,0,0,-1,1539,1541,0,0
322,-517,0,0,0,0,0,0,0,0,0,-1,1546,1541,0,0
329,-517,0,0,0,0,0,0,0,0,0,-1,1553,1541,0,0
336,-517,0,0,0,0,0,0,0,0,0,-1,1560,1541,0,0
343,-517,0,0,0,0,0,0,0,0,0,-1,1567,1541,0,0
350,-517,0,0,0,0,0,0,0,0,0,-1,1574,1541,0,0
357,-517,0,0,0,0,0,0,0,0,0,-1,1581,1541,0,0
364,-517,0,0,0,0,0,0,0,0,0,-1,1588,1541,0,0
371,-517,0,0,0,0,0,0,0,0,0,-1,1595,1541,0,0
378,-517,0,0,0,0,0,0,0,0,0,-1,1602,1541,0,0
385,-517,0,0,0,0,0,0,0,0,0,-1,1609,1541,0,0
392,-517,0,0,0,0,0,0,0,0,0,-1,1616,1541,0,0
399,-517,0,0,0,0,0,0,0,0,0,-1,1623,1541,0,0
406,-517,13.1395,7.01978,0,0,0,0,0,0,0,-1,1630,1541,13.1396,-7.01981
413,-517,12.8859,6.31592,0,0,0,0,0,0,0,-1,1637,1541,12.8858,-6.31588
420,-517,12.4789,6.20337,0,0,0,0,0,0,0,-1,1644,1541,12.4789,-6.20333
427,-517,11.647,4.66516,0,0,0,0,0,0,0,-1,1651,1541,11.647,-4.66519
434,-517,12.3719,3.92773,0,0,0,0,0,0,0,-1,1658,1541,12.3719,-3.92776
441,-517,13.146,3.14124,0,0,0,0,0,0,0,-1,1665,1541,13.146,-3.14121
448,-517,13.8861,2.36682,0,0,0,0,0,0,0,-1,1672,1541,13.8861,-2.36684
455,-517,13.6012,4.06335,0,0,0,0,0,0,0,-1,1679,1541,13.6012,-4.06335
462,-517,14.8956,7.0752,0,0,0,0,0,0,0,-1,1686,1541,14.8956,-7.07525
469,-517,13.6292,6.87744,0,0,0,0,0,0,0,-1,1693,1541,13.6292,-6.87739
476,-517,17.1632,14.1487,0,0,0,0,0,0,0,-1,1700,1541,17.1632,-14.1487
483,-517,16.5157,15.0776,0,0,0,0,0,0,0,-1,1707,1541,16.5157,-15.0777
490,-517,15.5439,18.0258,0,0,0,0,0,0,0,-1,1714,1541,15.5439,-18.0258
497,-517,16.0292,18.7786,0,0,0,0,0,0,0,-1,1721,1541,16.0291,-18.7786
504,-517,17.3815,22.3873,0,0,0,0,0,0,0,-1,1728,1541,17.3814,-22.3873
511,-517,16.9674,21.8491,0,0,0,0,0,0,0,-1,1735,1541,16.9674,-21.8491
518,-517,24.6841,32.5573,0,0,0,0,0,0,0,-1,1742,1541,24.6841,-32.5573
525,-517,24.9019,31.8115,0.00784699,0.00681369,-0.00580517,0.0131585,0.00150222,-0.741016,0.00831691,0.0280268,1749,1541,24.9019,-31.8115
532,-517,25.0704,30.9918,0.00621948,0.00538254,-0.0045296,0.0103499,0.00125212,-0.739336,0.00652274,0.0126519,1756,1541,25.0704,-30.9919
539,-517,25.0706,30.3047,0.00495504,0.0041129,-0.00340923,0.0079691,0.00109884,-0.723954,0.00498697,0.0131885,1763,1541,25.0706,-30.3047
546,-517,25.0349,29.6523,0.00395409,0.00303809,-0.00247829,0.00601635,0.000975837,-0.694027,0.00372843,0.0149808,1770,1541,25.0349,-29.6523
553,-517,24.9701,28.9456,0.00322638,0.00212899,-0.00168805,0.00445267,0.000902694,-0.628261,0.00271798,0.0188087,1777,1541,24.9701,-28.9456
560,-517,24.9539,28.2596,0.00273234,0.00131251,-0.00104104,0.00328248,0.000762372,-0.486151,0.00198364,0.0184861,1784,1541,24.9539,-28.2596
567,-517,24.9458,27.5662,0.00253279,0.000829647,-0.000740065,0.00280944,0.000553004,-0.357727,0.00171854,0.0147281,1791,1541,24.9458,-27.5662
574,-517,24.8771,26.8389,0.00255873,0.000473723,-0.00057437,0.00270649,0.000325969,-0.251787,0.00170608,0.0157689,1798,1541,24.877,-26.8389
581,-517,24.8278,26.1493,0.00286172,0.000250543,-0.00061542,0.0029995,0.000112766,-0.220243,0.00196316,0.0174731,1805,1541,24.8277,-26.1493
588,-517,24.8047,25.4651,0.00348108,0.000245409,-0.00092778,0.00372823,-1.73994e-06,-0.260342,0.00248606,0.0181627,1812,1541,24.8047,-25.465
595,-517,24.8572,24.7465,0.00439241,0.000500458,-0.00148362,0.00489347,-5.96978e-07,-0.325697,0.00326251,0.0451304,1819,1541,24.8571,-24.7465
602,-517,25.2631,23.7887,0,0,0,0,0,0,0,-1,1826,1541,25.2631,-23.7887
609,-517,12.6417,10.8751,0,0,0,0,0,0,0,-1,1833,1541,12.6417,-10.8751
616,-517,14.205,10.3193,0,0,0,0,0,0,0,-1,1840,1541,14.205,-10.3194
623,-517,12.578,10.0779,0,0,0,0,0,0,0,-1,1847,1541,12.578,-10.0779
630,-517,11.7035,7.47815,0,0,0,0,0,0,0,-1,1854,1541,11.7035,-7.47812
637,-517,11.5172,5.79822,0,0,0,0,0,0,0,-1,1861,1541,11.5173,-5.79825
644,-517,11.4232,3.30579,0,0,0,0,0,0,0,-1,1868,1541,11.4232,-3.30574
651,-517,0,0,0,0,0,0,0,0,0,-1,1875,1541,0,0
658,-517,0,0,0,0,0,0,0,0,0,-1,1882,1541,0,0
665,-517,0,0,0,0,0,0,0,0,0,-1,1889,1541,0,0
672,-517,0,0,0,0,0,0,0,0,0,-1,1896,1541,0,0
679,-517,0,0,0,0,0,0,0,0,0,-1,1903,1541,0,0
686,-517,0,0,0,0,0,0,0,0,0,-1,1910,1541,0,0
693,-517,0,0,0,0,0,0,0,0,0,-1,1917,1541,0,0
700,-517,0,0,0,0,0,0,0,0,0,-1,1924,1541,0,0
707,-517,0,0,0,0,0,0,0,0,0,-1,1931,1541,0,0
714,-517,0,0,0,0,0,0,0,0,0,-1,1938,1541,0,0
721,-517,0,0,0,0,0,0,0,0,0,-1,1945,1541,0,0
728,-517,0,0,0,0,0,0,0,0,0,-1,1952,1541,0,0
735,-517,0,0,0,0,0,0,0,0,0,-1,1959,1541,0,0
742,-517,0,0,0,0,0,0,0,0,0,-1,1966,1541,0,0
749,-517,0,0,0,0,0,0,0,0,0,-1,1973,1541,0,0
756,-517,0,0,0,0,0,0,0,0,0,-1,1980,1541,0,0
763,-517,0,0,0,0,0,0,0,0,0,-1,1987,1541,0,0
770,-517,0,0,0,0,0,0,0,0,0,-1,1994,1541,0,0
777,-517,0,0,0,0,0,0,0,0,0,-1,2001,1541,0,0
784,-517,0,0,0,0,0,0,0,0,0,-1,2008,1541,0,0
791,-517,0,0,0,0,0,0,0,0,0,-1,2015,1541,0,0
798,-517,0,0,0,0,0,0,0,0,0,-1,2022,1541,0,0
805,-517,0,0,0,0,0,0,0,0,0,-1,2029,1541,0,0
812,-517,0,0,0,0,0,0,0,0,0,-1,2036,1541,0,0
-700,-524,0,0,0,0,0,0,0,0,0,-1,524,1548,0,0
-693,-524,0,0,0,0,0,0,0,0,0,-1,531,1548,0,0
-686,-524,0,0,0,0,0,0,0,0,0,-1,538,1548,0,0
-679,-524,0,0,0,0,0,0,0,0,0,-1,545,1548,0,0
-672,-524,0,0,0,0,0,0,0,0,0,-1,552,1548,0,0
-665,-524,0,0,0,0,0,0,0,0,0,-1,559,1548,0,0
-658,-524,0,0,0,0,0,0,0,0,0,-1,566,1548,0,0
-651,-524,0,0,0,0,0,0,0,0,0,-1,573,1548,0,0
-644,-524,0,0,0,0,0,0,0,0,0,-1,580,1548,0,0
-637,-524,0,0,0,0,0,0,0,0,0,-1,587,1548,0,0
-630,-524,0,0,0,0,0,0,0,0,0,-1,594,1548,0,0
-623,-524,0,0,0,0,0,0,0,0,0,-1,601,1548,0,0
-616,-524,0,0,0,0,0,0,0,0,0,-1,608,1548,0,0
-609,-524,0,0,0,0,0,0,0,0,0,-1,615,1548,0,0
-602,-524,0,0,0,0,0,0,0,0,0,-1,622,1548,0,0
-595,-524,0,0,0,0,0,0,0,0,0,-1,629,1548,0,0
-588,-524,0,0,0,0,0,0,0,0,0,-1,636,1548,0,0
-581,-524,0,0,0,0,0,0,0,0,0,-1,643,1548,0,0
-574,-524,0,0,0,0,0,0,0,0,0,-1,650,1548,0,0
-567,-524,0,0,0,0,0,0,0,0,0,-1,657,1548,0,0
-560,-524,0,0,0,0,0,0,0,0,0,-1,664,1548,0,0
-553,-524,0,0,0,0,0,0,0,0,0,-1,671,1548,0,0
-546,-524,0,0,0,0,0,0,0,0,0,-1,678,1548,0,0
-539,-524,0,0,0,0,0,0,0,0,0,-1,685,1548,0,0
-532,-524,0,0,0,0,0,0,0,0,0,-1,692,1548,0,0
-525,-524,-0.215515,3.97131,0,0,0,0,0,0,0,-1,699,1548,-0.215501,-3.97136
-518,-524,-0.806274,4.35632,0,0,0,0,0,0,0,-1,706,1548,-0.806259,-4.35633
-511,-524,-1.08301,4.29004,0,0,0,0,0,0,0,-1,713,1548,-1.08301,-4.29006
-504,-524,-1.28821,3.98145,0,0,0,0,0,0,0,-1,720,1548,-1.28822,-3.98151
-497,-524,-0.328491,8.63416,0,0,0,0,0,0,0,-1,727,1548,-0.328487,-8.63411
-490,-524,-6.65582,19.3033,0,0,0,0,0,0,0,-1,734,1548,-6.65583,-19.3034
-483,-524,-7.23517,21.8695,0,0,0,0,0,0,0,-1,741,1548,-7.23515,-21.8695
-476,-524,-7.11206,22.8953,0,0,0,0,0,0,0,-1,748,1548,-7.11205,-22.8953
-469,-524,-6.71643,23.9188,0.0356477,-0.0178311,-0.000275949,0.0356491,-0.0178325,-0.00515979,0.0314435,0.040612,755,1548,-6.71641,-23.9189
-462,-524,-6.38831,24.4496,0.0269499,-0.0141477,-0.000788574,0.0269651,-0.0141628,-0.0191784,0.0241256,0.0392751,762,1548,-6.38828,-24.4496
-455,-524,-6.71893,25.1547,0,0,0,0,0,0,0,-1,769,1548,-6.71894,-25.1546
-448,-524,-6.51813,25.7206,0.0137577,-0.00801804,-0.000890574,0.013794,-0.0080544,-0.0408067,0.0127585,0.016765,776,1548,-6.51813,-25.7205
-441,-524,-6.54309,26.465,0.00937144,-0.00551759,-0.000604015,0.00939591,-0.00554205,-0.0404791,0.00871958,0.0122469,783,1548,-6.54311,-26.465
-434,-524,-6.54883,27.1921,0.0061593,-0.00335588,-0.000216886,0.00616424,-0.00336082,-0.022778,0.00557813,0.0134034,790,1548,-6.54885,-27.1921
-427,-524,-6.59564,27.9291,0.00397079,-0.00157171,0.000205779,0.00397842,-0.00157934,0.0370595,0.00330692,0.0156646,797,1548,-6.59564,-27.9291
-420,-524,-6.6496,28.6556,0.00271823,1.93362e-05,0.000711348,0.00289424,-0.000156675,0.242562,0.00198378,0.0411296,804,1548,-6.64958,-28.6557
-413,-524,-6.75433,29.3942,0.00202367,0.0014376,0.00113641,0.00290422,0.000557048,0.659218,0.00177977,0.0381941,811,1548,-6.75431,-29.3941
-406,-524,-6.74774,30.1432,0.0023185,0.00253345,0.00173586,0.00416516,0.000686789,0.816315,0.00257851,0.0142016,818,1548,-6.74774,-30.1432
-399,-524,-6.77136,30.8464,0.00306589,0.00366549,0.00230609,0.00569119,0.00104019,0.850038,0.00349931,0.00983916,825,1548,-6.77136,-30.8465
-392,-524,-6.80273,31.528,0.00371825,0.00474749,0.00280507,0.00708475,0.00138099,0.876119,0.00433676,0.0104522,832,1548,-6.80273,-31.528
-385,-524,-6.83392,32.2906,0.00436801,0.0057817,0.00332418,0.00847335,0.00167636,0.890157,0.00518131,0.0171827,839,1548,-6.83395,-32.2906
-378,-524,-6.83411,33.12,0,0,0,0,0,0,0,-1,846,1548,-6.83408,-33.1199
-371,-524,-4.20789,29.1592,0,0,0,0,0,0,0,-1,853,1548,-4.2079,-29.1592
-364,-524,-0.712097,14.9871,0,0,0,0,0,0,0,-1,860,1548,-0.712116,-14.9871
-357,-524,-1.34052,14.7448,0,0,0,0,0,0,0,-1,867,1548,-1.34054,-14.7447
-350,-524,-4.31909,25.032,0,0,0,0,0,0,0,-1,874,1548,-4.31906,-25.0319
-343,-524,-3.69696,28.6923,0,0,0,0,0,0,0,-1,881,1548,-3.69694,-28.6922
-336,-524,-3.4873,29.655,0,0,0,0,0,0,0,-1,888,1548,-3.48728,-29.6551
-329,-524,-3.21936,30.5509,0,0,0,0,0,0,0,-1,895,1548,-3.21933,-30.5509
-322,-524,-4.31378,25.6389,0,0,0,0,0,0,0,-1,902,1548,-4.31379,-25.639
-315,-524,-1.90839,19.4824,0,0,0,0,0,0,0,-1,909,1548,-1.90838,-19.4824
-308,-524,-2.36938,19.3059,0,0,0,0,0,0,0,-1,916,1548,-2.3694,-19.3058
-301,-524,2.72394,17.7618,0,0,0,0,0,0,0,-1,923,1548,2.72396,-17.7619
-294,-524,-1.52515,9.05408,0,0,0,0,0,0,0,-1,930,1548,-1.52512,-9.05411
-287,-524,-0.962219,10.3199,0,0,0,0,0,0,0,-1,937,1548,-0.962241,-10.32
-280,-524,-1.36255,10.3859,0,0,0,0,0,0,0,-1,944,1548,-1.36253,-10.3859
-273,-524,0,0,0,0,0,0,0,0,0,-1,951,1548,0,0
-266,-524,0,0,0,0,0,0,0,0,0,-1,958,1548,0,0
-259,-524,0,0,0,0,0,0,0,0,0,-1,965,1548,0,0
-252,-524,0,0,0,0,0,0,0,0,0,-1,972,1548,0,0
-245,-524,0,0,0,0,0,0,0,0,0,-1,979,1548,0,0
-238,-524,0,0,0,0,0,0,0,0,0,-1,986,1548,0,0
-231,-524,0,0,0,0,0,0,0,0,0,-1,993,1548,0,0
-224,-524,0,0,0,0,0,0,0,0,0,-1,1000,1548,0,0
-217,-524,0,0,0,0,0,0,0,0,0,-1,1007,1548,0,0
-210,-524,0,0,0,0,0,0,0,0,0,-1,1014,1548,0,0
-203,-524,0,0,0,0,0,0,0,0,0,-1,1021,1548,0,0
-196,-524,0,0,0,0,0,0,0,0,0,-1,1028,1548,0,0
-189,-524,0,0,0,0,0,0,0,0,0,-1,1035,1548,0,0
-182,-524,0,0,0,0,0,0,0,0,0,-1,1042,1548,0,0
-175,-524,0,0,0,0,0,0,0,0,0,-1,1049,1548,0,0
-168,-524,0,0,0,0,0,0,0,0,0,-1,1056,1548,0,0
-161,-524,0,0,0,0,0,0,0,0,0,-1,1063,1548,0,0
-154,-524,0,0,0,0,0,0,0,0,0,-1,1070,1548,0,0
-147,-524,0,0,0,0,0,0,0,0,0,-1,1077,1548,0,0
-140,-524,0,0,0,0,0,0,0,0,0,-1,1084,1548,0,0
-133,-524,0,0,0,0,0,0,0,0,0,-1,1091,1548,0,0
-126,-524,0,0,0,0,0,0,0,0,0,-1,1098,1548,0,0
-119,-524,0,0,0,0,0,0,0,0,0,-1,1105,1548,0,0
-112,-524,0,0,0,0,0,0,0,0,0,-1,1112,1548,0,0
-105,-524,0,0,0,0,0,0,0,0,0,-1,1119,1548,0,0
-98,-524,0,0,0,0,0,0,0,0,0,-1,1126,1548,0,0
-91,-524,0,0,0,0,0,0,0,0,0,-1,1133,1548,0,0
-84,-524,0,0,0,0,0,0,0,0,0,-1,1140,1548,0,0
-77,-524,0,0,0,0,0,0,0,0,0,-1,1147,1548,0,0
-70,-524,0,0,0,0,0,0,0,0,0,-1,1154,1548,0,0
-63,-524,0,0,0,0,0,0,0,0,0,-1,1161,1548,0,0
-56,-524,0,0,0,0,0,0,0,0,0,-1,1168,1548,0,0
-49,-524,0,0,0,0,0,0,0,0,0,-1,1175,1548,0,0
-42,-524,0,0,0,0,0,0,0,0,0,-1,1182,1548,0,0
-35,-524,0,0,0,0,0,0,0,0,0,-1,1189,1548,0,0
-28,-524,0,0,0,0,0,0,0,0,0,-1,1196,1548,0,0
-21,-524,0,0,0,0,0,0,0,0,0,-1,1203,1548,0,0
-14,-524,0,0,0,0,0,0,0,0,0,-1,1210,1548,0,0
-7,-524,0,0,0,0,0,0,0,0,0,-1,1217,1548,0,0
0,-524,0,0,0,0,0,0,0,0,0,-1,1224,1548,0,0
7,-524,0,0,0,0,0,0,0,0,0,-1,1231,1548,0,0
14,-524,0,0,0,0,0,0,0,0,0,-1,1238,1548,0,0
21,-524,0,0,0,0,0,0,0,0,0,-1,1245,1548,0,0
28,-524,0,0,0,0,0,0,0,0,0,-1,1252,1548,0,0
35,-524,0,0,0,0,0,0,0,0,0,-1,1259,1548,0,0
42,-524,0,0,0,0,0,0,0,0,0,-1,1266,1548,0,0
49,-524,0,0,0,0,0,0,0,0,0,-1,1273,1548,0,0
56,-524,0,0,0,0,0,0,0,0,0,-1,1280,1548,0,0
63,-524,0,0,0,0,0,0,0,0,0,-1,1287,1548,0,0
70,-524,0,0,0,0,0,0,0,0,0,-1,1294,1548,0,0
77,-524,0,0,0,0,0,0,0,0,0,-1,1301,1548,0,0
84,-524,0,0,0,0,0,0,0,0,0,-1,1308,1548,0,0
91,-524,0,0,0,0,0,0,0,0,0,-1,1315,1548,0,0
98,-524,0,0,0,0,0,0,0,0,0,-1,1322,1548,0,0
105,-524,0,0,0,0,0,0,0,0,0,-1,1329,1548,0,0
112,-524,0,0,0,0,0,0,0,0,0,-1,1336,1548,0,0
119,-524,0,0,0,0,0,0,0,0,0,-1,1343,1548,0,0
126,-524,0,0,0,0,0,0,0,0,0,-1,1350,1548,0,0
133,-524,0,0,0,0,0,0,0,0,0,-1,1357,1548,0,0
140,-524,0,0,0,0,0,0,0,0,0,-1,1364,1548,0,0
147,-524,0,0,0,0,0,0,0,0,0,-1,1371,1548,0,0
154,-524,0,0,0,0,0,0,0,0,0,-1,1378,1548,0,0
161,-524,0,0,0,0,0,0,0,0,0,-1,1385,1548,0,0
168,-524,0,0,0,0,0,0,0,0,0,-1,1392,1548,0,0
175,-524,0,0,0,0,0,0,0,0,0,-1,1399,1548,0,0
182,-524,0,0,0,0,0,0,0,0,0,-1,1406,1548,0,0
189,-524,0,0,0,0,0,0,0,0,0,-1,1413,1548,0,0
196,-524,0,0,0,0,0,0,0,0,0,-1,1420,1548,0,0
203,-524,0,0,0,0,0,0,0,0,0,-1,1427,1548,0,0
210,-524,0,0,0,0,0,0,0,0,0,-1,1434,1548,0,0
217,-524,0,0,0,0,0,0,0,0,0,-1,1441,1548,0,0
224,-524,0,0,0,0,0,0,0,0,0,-1,1448,1548,0,0
231,-524,0,0,0,0,0,0,0,0,0,-1,1455,1548,0,0
238,-524,0,0,0,0,0,0,0,0,0,-1,1462,1548,0,0
245,-524,0,0,0,0,0,0,0,0,0,-1,1469,1548,0,0
252,-524,0,0,0,0,0,0,0,0,0,-1,1476,1548,0,0
259,-524,0,0,0,0,0,0,0,0,0,-1,1483,1548,0,0
266,-524,0,0,0,0,0,0,0,0,0,-1,1490,1548,0,0
273,-524,0,0,0,0,0,0,0,0,0,-1,1497,1548,0,0
280,-524,0,0,0,0,0,0,0,0,0,-1,1504,1548,0,0
287,-524,0,0,0,0,0,0,0,0,0,-1,1511,1548,0,0
294,-524,0,0,0,0,0,0,0,0,0,-1,1518,1548,0,0
301,-524,0,0,0,0,0,0,0,0,0,-1,1525,1548,0,0
308,-524,0,0,0,0,0,0,0,0,0,-1,1532,1548,0,0
315,-524,0,0,0,0,0,0,0,0,0,-1,1539,1548,0,0
322,-524,0,0,0,0,0,0,0,0,0,-1,1546,1548,0,0
329,-524,0,0,0,0,0,0,0,0,0,-1,1553,1548,0,0
336,-524,0,0,0,0,0,0,0,0,0,-1,1560,1548,0,0
343,-524,0,0,0,0,0,0,0,0,0,-1,1567,1548,0,0
350,-524,0,0,0,0,0,0,0,0,0,-1,1574,1548,0,0
357,-524,0,0,0,0,0,0,0,0,0,-1,1581,1548,0,0
364,-524,0,0,0,0,0,0,0,0,0,-1,1588,1548,0,0
371,-524,0,0,0,0,0,0,0,0,0,-1,1595,1548,0,0
378,-524,0,0,0,0,0,0,0,0,0,-1,1602,1548,0,0
385,-524,0,0,0,0,0,0,0,0,0,-1,1609,1548,0,0
392,-524,0,0,0,0,0,0,0,0,0,-1,1616,1548,0,0
399,-524,8.81848,5.05774,0,0,0,0,0,0,0,-1,1623,1548,8.81843,-5.05769
406,-524,8.64294,6.06799,0,0,0,0,0,0,0,-1,1630,1548,8.6429,-6.06805
413,-524,11.677,6.41858,0,0,0,0,0,0,0,-1,1637,1548,11.677,-6.41864
420,-524,11.4913,6.36401,0,0,0,0,0,0,0,-1,1644,1548,11.4913,-6.36402
427,-524,7.68335,6.17249,0,0,0,0,0,0,0,-1,1651,1548,7.68341,-6.17245
434,-524,10.432,11.6801,0,0,0,0,0,0,0,-1,1658,1548,10.432,-11.68
441,-524,8.78552,4.12305,0,0,0,0,0,0,0,-1,1665,1548,8.78553,-4.12301
448,-524,14.1854,4.78674,0,0,0,0,0,0,0,-1,1672,1548,14.1854,-4.78674
455,-524,12.4784,3.65576,0,0,0,0,0,0,0,-1,1679,1548,12.4784,-3.65572
462,-524,14.7551,9.29395,0,0,0,0,0,0,0,-1,1686,1548,14.7552,-9.29397
469,-524,16.3314,14.3779,0,0,0,0,0,0,0,-1,1693,1548,16.3314,-14.3779
476,-524,15.9106,15.1875,0,0,0,0,0,0,0,-1,1700,1548,15.9107,-15.1876
483,-524,15.2776,16.2268,0,0,0,0,0,0,0,-1,1707,1548,15.2776,-16.2269
490,-524,15.2563,18.5848,0,0,0,0,0,0,0,-1,1714,1548,15.2564,-18.5848
497,-524,17.5173,22.6123,0,0,0,0,0,0,0,-1,1721,1548,17.5174,-22.6123
504,-524,24.0055,34.2661,0,0,0,0,0,0,0,-1,1728,1548,24.0054,-34.2661
511,-524,24.4634,33.136,0,0,0,0,0,0,0,-1,1735,1548,24.4634,-33.1359
518,-524,24.4467,32.4163,0.00762036,0.00693227,-0.0057283,0.0130149,0.00153769,-0.755404,0.00821219,0.0291607,1742,1548,24.4467,-32.4162
525,-524,24.4102,31.7599,0.00612077,0.00559318,-0.00457491,0.0104395,0.00127446,-0.756599,0.00657613,0.015889,1749,1548,24.4102,-31.7599
532,-524,24.3848,31.049,0.00480155,0.00439397,-0.00353206,0.00813569,0.00105982,-0.756582,0.00510731,0.0107381,1756,1548,24.3848,-31.0489
539,-524,24.3528,30.3368,0.00379578,0.00335875,-0.00261096,0.00619735,0.000957179,-0.74365,0.00385235,0.0112263,1763,1548,24.3527,-30.3369
546,-524,24.326,29.6866,0.00300146,0.00238409,-0.00180297,0.00452198,0.00086357,-0.700616,0.002772,0.0157047,1770,1548,24.3261,-29.6867
553,-524,24.2925,28.9954,0.00244065,0.00156359,-0.00108476,0.00317217,0.000832079,-0.593309,0.00189918,0.0266107,1777,1548,24.2925,-28.9953
560,-524,24.3159,28.3209,0.00211763,0.000813819,-0.000484433,0.00227792,0.000653533,-0.319536,0.00135439,0.0352809,1784,1548,24.3159,-28.321
567,-524,24.2573,27.6406,0.00207676,0.000364571,-0.000185595,0.00209664,0.000344684,-0.106745,0.00129821,0.0202126,1791,1548,24.2573,-27.6407
574,-524,24.1926,26.8806,0.00225634,1.67139e-06,5.82877e-06,0.00225636,1.65636e-06,0.00258518,0.00150369,0.015144,1798,1548,24.1927,-26.8806
581,-524,24.1516,26.1587,0.00279503,-0.000202108,-6.62719e-05,0.00279649,-0.000203573,-0.0220973,0.00193576,0.0168592,1805,1548,24.1516,-26.1586
588,-524,24.1886,25.4751,0.00371718,-0.000135758,-0.000442084,0.00376725,-0.000185832,-0.112787,0.00257568,0.0294153,1812,1548,24.1886,-25.4751
595,-524,24.4501,24.8694,0,0,0,0,0,0,0,-1,1819,1548,24.45,-24.8694
602,-524,13.837,12.0682,0,0,0,0,0,0,0,-1,1826,1548,13.837,-12.0683
609,-524,13.0056,10.5138,0,0,0,0,0,0,0,-1,1833,1548,13.0056,-10.5138
616,-524,11.6941,8.65515,0,0,0,0,0,0,0,-1,1840,1548,11.6941,-8.65514
623,-524,9.38452,5.15356,0,0,0,0,0,0,0,-1,1847,1548,9.38456,-5.15359
630,-524,11.0541,3.57434,0,0,0,0,0,0,0,-1,1854,1548,11.0541,-3.57438
637,-524,11.6067,3.20728,0,0,0,0,0,0,0,-1,1861,1548,11.6067,-3.20724
644,-524,12.2134,0.727173,0,0,0,0,0,0,0,-1,1868,1548,12.2134,-0.727222
651,-524,0,0,0,0,0,0,0,0,0,-1,1875,1548,0,0
658,-524,0,0,0,0,0,0,0,0,0,-1,1882,1548,0,0
665,-524,0,0,0,0,0,0,0,0,0,-1,1889,1548,0,0
672,-524,0,0,0,0,0,0,0,0,0,-1,1896,1548,0,0
679,-524,0,0,0,0,0,0,0,0,0,-1,1903,1548,0,0
686,-524,0,0,0,0,0,0,0,0,0,-1,1910,1548,0,0
693,-524,0,0,0,0,0,0,0,0,0,-1,1917,1548,0,0
700,-524,0,0,0,0,0,0,0,0,0,-1,1924,1548,0,0
707,-524,0,0,0,0,0,0,0,0,0,-1,1931,1548,0,0
714,-524,0,0,0,0,0,0,0,0,0,-1,1938,1548,0,0
721,-524,0,0,0,0,0,0,0,0,0,-1,1945,1548,0,0
728,-524,0,0,0,0,0,0,0,0,0,-1,1952,1548,0,0
735,-524,0,0,0,0,0,0,0,0,0,-1,1959,1548,0,0
742,-524,0,0,0,0,0,0,0,0,0,-1,1966,1548,0,0
749,-524,0,0,0,0,0,0,0,0,0,-1,1973,1548,0,0
756,-524,0,0,0,0,0,0,0,0,0,-1,1980,1548,0,0
763,-524,0,0,0,0,0,0,0,0,0,-1,1987,1548,0,0
770,-524,0,0,0,0,0,0,0,0,0,-1,1994,1548,0,0
777,-524,0,0,0,0,0,0,0,0,0,-1,2001,1548,0,0
784,-524,0,0,0,0,0,0,0,0,0,-1,2008,1548,0,0
791,-524,0,0,0,0,0,0,0,0,0,-1,2015,1548,0,0
798,-524,0,0,0,0,0,0,0,0,0,-1,2022,1548,0,0
805,-524,0,0,0,0,0,0,0,0,0,-1,2029,1548,0,0
812,-524,0,0,0,0,0,0,0,0,0,-1,2036,1548,0,0
-700,-531,0,0,0,0,0,0,0,0,0,-1,524,1555,0,0
-693,-531,0,0,0,0,0,0,0,0,0,-1,531,1555,0,0
-686,-531,0,0,0,0,0,0,0,0,0,-1,538,1555,0,0
-679,-531,0,0,0,0,0,0,0,0,0,-1,545,1555,0,0
-672,-531,0,0,0,0,0,0,0,0,0,-1,552,1555,0,0
-665,-531,0,0,0,0,0,0,0,0,0,-1,559,1555,0,0
-658,-531,0,0,0,0,0,0,0,0,0,-1,566,1555,0,0
-651,-531,0,0,0,0,0,0,0,0,0,-1,573,1555,0,0
-644,-531,0,0,0,0,0,0,0,0,0,-1,580,1555,0,0
-637,-531,0,0,0,0,0,0,0,0,0,-1,587,1555,0,0
-630,-531,0,0,0,0,0,0,0,0,0,-1,594,1555,0,0
-623,-531,0,0,0,0,0,0,0,0,0,-1,601,1555,0,0
-616,-531,0,0,0,0,0,0,0,0,0,-1,608,1555,0,0
-609,-531,0,0,0,0,0,0,0,0,0,-1,615,1555,0,0
-602,-531,0,0,0,0,0,0,0,0,0,-1,622,1555,0,0
-595,-531,0,0,0,0,0,0,0,0,0,-1,629,1555,0,0
-588,-531,0,0,0,0,0,0,0,0,0,-1,636,1555,0,0
-581,-531,0,0,0,0,0,0,0,0,0,-1,643,1555,0,0
-574,-531,0,0,0,0,0,0,0,0,0,-1,650,1555,0,0
-567,-531,0,0,0,0,0,0,0,0,0,-1,657,1555,0,0
-560,-531,0,0,0,0,0,0,0,0,0,-1,664,1555,0,0
-553,-531,0,0,0,0,0,0,0,0,0,-1,671,1555,0,0
-546,-531,0,0,0,0,0,0,0,0,0,-1,678,1555,0,0
-539,-531,0,0,0,0,0,0,0,0,0,-1,685,1555,0,0
-532,-531,0,0,0,0,0,0,0,0,0,-1,692,1555,0,0
-525,-531,0,0,0,0,0,0,0,0,0,-1,699,1555,0,0
-518,-531,-1.63983,4.03821,0,0,0,0,0,0,0,-1,706,1555,-1.63982,-4.03821
-511,-531,-2.9682,8.07483,0,0,0,0,0,0,0,-1,713,1555,-2.9682,-8.07479
-504,-531,-2.95978,0.557861,0,0,0,0,0,0,0,-1,720,1555,-2.95978,-0.557917
-497,-531,-2.46039,8.07422,0,0,0,0,0,0,0,-1,727,1555,-2.46039,-8.07423
-490,-531,-0.423462,7.92065,0,0,0,0,0,0,0,-1,734,1555,-0.42344,-7.92066
-483,-531,-7.50745,20.1915,0,0,0,0,0,0,0,-1,741,1555,-7.50744,-20.1915
-476,-531,-7.40863,23.1532,0,0,0,0,0,0,0,-1,748,1555,-7.40864,-23.1532
-469,-531,-6.65619,24.1443,0.0486244,-0.0226823,-0.000211684,0.0486251,-0.022683,-0.0029686,0.0420681,0.048723,755,1555,-6.65616,-24.1442
-462,-531,-5.62018,24.647,0.0362823,-0.0178472,-0.000926493,0.0362982,-0.017863,-0.0171096,0.0318681,0.0480876,762,1555,-5.6202,-24.647
-455,-531,-5.93634,25.6459,0,0,0,0,0,0,0,-1,769,1555,-5.93636,-25.6459
-448,-531,-5.71179,25.7537,0.01807,-0.0102154,-0.00122039,0.0181225,-0.0102679,-0.0430392,0.016599,0.0258442,776,1555,-5.71179,-25.7536
-441,-531,-5.83063,26.4736,0.0121943,-0.00728972,-0.000976812,0.0122432,-0.00733857,-0.049967,0.0114231,0.0141751,783,1555,-5.83063,-26.4737
-434,-531,-5.85791,27.2415,0.00791923,-0.0048349,-0.000624871,0.00794978,-0.00486544,-0.0488377,0.00746996,0.0121473,790,1555,-5.8579,-27.2415
-427,-531,-5.90698,27.9923,0.0049846,-0.00285796,-0.000233646,0.00499156,-0.00286492,-0.0297569,0.00459099,0.0154613,797,1555,-5.90701,-27.9923
-420,-531,-6.00293,28.6769,0.00320047,-0.00117535,0.000214532,0.00321096,-0.00118584,0.0488706,0.00262672,0.0364441,804,1555,-6.00296,-28.6769
-413,-531,-6.03436,29.4568,0.00183836,0.000355674,0.000466555,0.00197295,0.000221081,0.280857,0.00124815,0.0338462,811,1555,-6.03436,-29.4568
-406,-531,-6.04669,30.1665,0.0015876,0.00144487,0.00106191,0.00258054,0.000451935,0.751845,0.00159125,0.0136177,818,1555,-6.04668,-30.1665
-399,-531,-6.0639,30.8553,0.00219972,0.00244212,0.00150778,0.00383357,0.000808276,0.825503,0.00233342,0.0136778,825,1555,-6.0639,-30.8553
-392,-531,-6.07379,31.5724,0.00273768,0.0033751,0.00187957,0.00496279,0.00114999,0.869382,0.0029996,0.0179533,832,1555,-6.07378,-31.5724
-385,-531,-6.13086,32.2889,0.00328531,0.00430675,0.00225085,0.0061041,0.00148796,0.89696,0.00367523,0.0153548,839,1555,-6.13088,-32.289
-378,-531,-6.18396,32.9493,0.00402293,0.0052135,0.00263676,0.00732133,0.00191509,0.896419,0.00438424,0.0190524,846,1555,-6.18397,-32.9493
-371,-531,-6.17255,33.7584,0,0,0,0,0,0,0,-1,853,1555,-6.17256,-33.7584
-364,-531,-5.96356,34.7327,0,0,0,0,0,0,0,-1,860,1555,-5.96356,-34.7327
-357,-531,-4.29193,31.5354,0,0,0,0,0,0,0,-1,867,1555,-4.29191,-31.5354
-350,-531,-3.16101,27.5791,0,0,0,0,0,0,0,-1,874,1555,-3.16099,-27.5791
-343,-531,-2.90552,28.561,0,0,0,0,0,0,0,-1,881,1555,-2.90549,-28.5611
-336,-531,-2.6698,29.5398,0,0,0,0,0,0,0,-1,888,1555,-2.66983,-29.5398
-329,-531,-2.45148,30.4781,0,0,0,0,0,0,0,-1,895,1555,-2.45148,-30.4781
-322,-531,-3.25092,28.4921,0,0,0,0,0,0,0,-1,902,1555,-3.25092,-28.4921
-315,-531,-5.51929,31.7814,0,0,0,0,0,0,0,-1,909,1555,-5.51928,-31.7813
-308,-531,-1.66455,19.0624,0,0,0,0,0,0,0,-1,916,1555,-1.66455,-19.0623
-301,-531,-2.02405,18.8912,0,0,0,0,0,0,0,-1,923,1555,-2.02407,-18.8913
-294,-531,-1.3244,8.1825,0,0,0,0,0,0,0,-1,930,1555,-1.3244,-8.18251
-287,-531,-1.78192,10.1661,0,0,0,0,0,0,0,-1,937,1555,-1.78192,-10.1661
-280,-531,-2.14508,10.3945,0,0,0,0,0,0,0,-1,944,1555,-2.14506,-10.3945
-273,-531,-2.50818,10.6229,0,0,0,0,0,0,0,-1,951,1555,-2.5082,-10.6229
-266,-531,-4.97742,17.9215,0,0,0,0,0,0,0,-1,958,1555,-4.97744,-17.9215
-259,-531,0,0,0,0,0,0,0,0,0,-1,965,1555,0,0
-252,-531,0,0,0,0,0,0,0,0,0,-1,972,1555,0,0
-245,-531,0,0,0,0,0,0,0,0,0,-1,979,1555,0,0
-238,-531,0,0,0,0,0,0,0,0,0,-1,986,1555,0,0
-231,-531,0,0,0,0,0,0,0,0,0,-1,993,1555,0,0
-224,-531,0,0,0,0,0,0,0,0,0,-1,1000,1555,0,0
-217,-531,0,0,0,0,0,0,0,0,0,-1,1007,1555,0,0
-210,-531,0,0,0,0,0,0,0,0,0,-1,1014,1555,0,0
-203,-531,0,0,0,0,0,0,0,0,0,-1,1021,1555,0,0
-196,-531,0,0,0,0,0,0,0,0,0,-1,1028,1555,0,0
-189,-531,0,0,0,0,0,0,0,0,0,-1,1035,1555,0,0
-182,-531,0,0,0,0,0,0,0,0,0,-1,1042,1555,0,0
-175,-531,0,0,0,0,0,0,0,0,0,-1,1049,1555,0,0
-168,-531,0,0,0,0,0,0,0,0,0,-1,1056,1555,0,0
-161,-531,0,0,0,0,0,0,0,0,0,-1,1063,1555,0,0
-154,-531,0,0,0,0,0,0,0,0,0,-1,1070,1555,0,0
-147,-531,0,0,0,0,0,0,0,0,0,-1,1077,1555,0,0
-140,-531,0,0,0,0,0,0,0,0,0,-1,1084,1555,0,0
-133,-531,0,0,0,0,0,0,0,0,0,-1,1091,1555,0,0
-126,-531,0,0,0,0,0,0,0,0,0,-1,1098,1555,0,0
-119,-531,0,0,0,0,0,0,0,0,0,-1,1105,1555,0,0
-112,-531,0,0,0,0,0,0,0,0,0,-1,1112,1555,0,0
-105,-531,0,0,0,0,0,0,0,0,0,-1,1119,1555,0,0
-98,-531,0,0,0,0,0,0,0,0,0,-1,1126,1555,0,0
-91,-531,0,0,0,0,0,0,0,0,0,-1,1133,1555,0,0
-84,-531,0,0,0,0,0,0,0,0,0,-1,1140,1555,0,0
-77,-531,0,0,0,0,0,0,0,0,0,-1,1147,1555,0,0
-70,-531,0,0,0,0,0,0,0,0,0,-1,1154,1555,0,0
-63,-531,0,0,0,0,0,0,0,0,0,-1,1161,1555,0,0
-56,-531,0,0,0,0,0,0,0,0,0,-1,1168,1555,0,0
-49,-531,0,0,0,0,0,0,0,0,0,-1,1175,1555,0,0
-42,-531,0,0,0,0,0,0,0,0,0,-1,1182,1555,0,0
-35,-531,0,0,0,0,0,0,0,0,0,-1,1189,1555,0,0
-28,-531,0,0,0,0,0,0,0,0,0,-1,1196,1555,0,0
-21,-531,0,0,0,0,0,0,0,0,0,-1,1203,1555,0,0
-14,-531,0,0,0,0,0,0,0,0,0,-1,1210,1555,0,0
-7,-531,0,0,0,0,0,0,0,0,0,-1,1217,1555,0,0
0,-531,0,0,0,0,0,0,0,0,0,-1,1224,1555,0,0
7,-531,0,0,0,0,0,0,0,0,0,-1,1231,1555,0,0
14,-531,0,0,0,0,0,0,0,0,0,-1,1238,1555,0,0
21,-531,0,0,0,0,0,0,0,0,0,-1,1245,1555,0,0
28,-531,0,0,0,0,0,0,0,0,0,-1,1252,1555,0,0
35,-531,0,0,0,0,0,0,0,0,0,-1,1259,1555,0,0
42,-531,0,0,0,0,0,0,0,0,0,-1,1266,1555,0,0
49,-531,0,0,0,0,0,0,0,0,0,-1,1273,1555,0,0
56,-531,0,0,0,0,0,0,0,0,0,-1,1280,1555,0,0
63,-531,0,0,0,0,0,0,0,0,0,-1,1287,1555,0,0
70,-531,0,0,0,0,0,0,0,0,0,-1,1294,1555,0,0
77,-531,0,0,0,0,0,0,0,0,0,-1,1301,1555,0,0
84,-531,0,0,0,0,0,0,0,0,0,-1,1308,1555,0,0
91,-531,0,0,0,0,0,0,0,0,0,-1,1315,1555,0,0
98,-531,0,0,0,0,0,0,0,0,0,-1,1322,1555,0,0
105,-531,0,0,0,0,0,0,0,0,0,-1,1329,1555,0,0
112,-531,0,0,0,0,0,0,0,0,0,-1,1336,1555,0,0
119,-531,0,0,0,0,0,0,0,0,0,-1,1343,1555,0,0
126,-531,0,0,0,0,0,0,0,0,0,-1,1350,1555,0,0
133,-531,0,0,0,0,0,0,0,0,0,-1,1357,1555,0,0
140,-531,0,0,0,0,0,0,0,0,0,-1,1364,1555,0,0
147,-531,0,0,0,0,0,0,0,0,0,-1,1371,1555,0,0
154,-531,0,0,0,0,0,0,0,0,0,-1,1378,1555,0,0
161,-531,0,0,0,0,0,0,0,0,0,-1,1385,1555,0,0
168,-531,0,0,0,0,0,0,0,0,0,-1,1392,1555,0,0
175,-531,0,0,0,0,0,0,0,0,0,-1,1399,1555,0,0
182,-531,0,0,0,0,0,0,0,0,0,-1,1406,1555,0,0
189,-531,0,0,0,0,0,0,0,0,0,-1,1413,1555,0,0
196,-531,0,0,0,0,0,0,0,0,0,-1,1420,1555,0,0
203,-531,0,0,0,0,0,0,0,0,0,-1,1427,1555,0,0
210,-531,0,0,0,0,0,0,0,0,0,-1,1434,1555,0,0
217,-531,0,0,0,0,0,0,0,0,0,-1,1441,1555,0,0
224,-531,0,0,0,0,0,0,0,0,0,-1,1448,1555,0,0
231,-531,0,0,0,0,0,0,0,0,0,-1,1455,1555,0,0
238,-531,0,0,0,0,0,0,0,0,0,-1,1462,1555,0,0
245,-531,0,0,0,0,0,0,0,0,0,-1,1469,1555,0,0
252,-531,0,0,0,0,0,0,0,0,0,-1,1476,1555,0,0
259,-531,0,0,0,0,0,0,0,0,0,-1,1483,1555,0,0
266,-531,0,0,0,0,0,0,0,0,0,-1,1490,1555,0,0
273,-531,0,0,0,0,0,0,0,0,0,-1,1497,1555,0,0
280,-531,0,0,0,0,0,0,0,0,0,-1,1504,1555,0,0
287,-531,0,0,0,0,0,0,0,0,0,-1,1511,1555,0,0
294,-531,0,0,0,0,0,0,0,0,0,-1,1518,1555,0,0
301,-531,0,0,0,0,0,0,0,0,0,-1,1525,1555,0,0
308,-531,0,0,0,0,0,0,0,0,0,-1,1532,1555,0,0
315,-531,0,0,0,0,0,0,0,0,0,-1,1539,1555,0,0
322,-531,0,0,0,0,0,0,0,0,0,-1,1546,1555,0,0
329,-531,0,0,0,0,0,0,0,0,0,-1,1553,1555,0,0
336,-531,0,0,0,0,0,0,0,0,0,-1,1560,1555,0,0
343,-531,0,0,0,0,0,0,0,0,0,-1,1567,1555,0,0
350,-531,0,0,0,0,0,0,0,0,0,-1,1574,1555,0,0
357,-531,0,0,0,0,0,0,0,0,0,-1,1581,1555,0,0
364,-531,0,0,0,0,0,0,0,0,0,-1,1588,1555,0,0
371,-531,0,0,0,0,0,0,0,0,0,-1,1595,1555,0,0
378,-531,0,0,0,0,0,0,0,0,0,-1,1602,1555,0,0
385,-531,3.48169,1.78625,0,0,0,0,0,0,0,-1,1609,1555,3.48165,-1.78624
392,-531,10.8781,9.09204,0,0,0,0,0,0,0,-1,1616,1555,10.8781,-9.09205
399,-531,8.26306,5.29602,0,0,0,0,0,0,0,-1,1623,1555,8.26302,-5.29607
406,-531,8.26147,5.42712,0,0,0,0,0,0,0,-1,1630,1555,8.26145,-5.42716
413,-531,8.20618,5.75012,0,0,0,0,0,0,0,-1,1637,1555,8.20619,-5.75017
420,-531,7.64868,7.09558,0,0,0,0,0,0,0,-1,1644,1555,7.64867,-7.09564
427,-531,9.93054,11.8412,0,0,0,0,0,0,0,-1,1651,1555,9.93059,-11.8412
434,-531,10.244,11.7072,0,0,0,0,0,0,0,-1,1658,1555,10.244,-11.7071
441,-531,11.4528,12.9397,0,0,0,0,0,0,0,-1,1665,1555,11.4528,-12.9397
448,-531,11.928,18.8029,0,0,0,0,0,0,0,-1,1672,1555,11.928,-18.8028
455,-531,14.4877,9.67065,0,0,0,0,0,0,0,-1,1679,1555,14.4876,-9.67066
462,-531,13.5253,12.2002,0,0,0,0,0,0,0,-1,1686,1555,13.5252,-12.2002
469,-531,15.5087,15.7894,0,0,0,0,0,0,0,-1,1693,1555,15.5086,-15.7895
476,-531,14.6582,16.2264,0,0,0,0,0,0,0,-1,1700,1555,14.6582,-16.2264
483,-531,14.755,18.5994,0,0,0,0,0,0,0,-1,1707,1555,14.7551,-18.5994
490,-531,16.9362,25.4943,0,0,0,0,0,0,0,-1,1714,1555,16.9362,-25.4942
497,-531,23.4694,34.9972,0,0,0,0,0,0,0,-1,1721,1555,23.4694,-34.9972
504,-531,23.6206,33.9869,0.00889853,0.00933102,-0.00694753,0.0160657,0.00216388,-0.800956,0.010067,0.0421248,1728,1555,23.6206,-33.9869
511,-531,23.7346,33.1896,0.00722159,0.00734727,-0.00565433,0.0129391,0.00162975,-0.790955,0.0081374,0.0179205,1735,1555,23.7346,-33.1896
518,-531,23.7545,32.4905,0.00574479,0.00556235,-0.00432851,0.00998305,0.0013241,-0.774863,0.00626085,0.0165448,1742,1555,23.7545,-32.4905
525,-531,23.7334,31.8033,0.00448089,0.0043709,-0.00336562,0.00779197,0.00105983,-0.777229,0.00487989,0.0149454,1749,1555,23.7334,-31.8033
532,-531,23.7073,31.0966,0.00341072,0.00329403,-0.00248632,0.00583938,0.000865364,-0.773667,0.00363893,0.0114878,1756,1555,23.7073,-31.0966
539,-531,23.6609,30.4058,0.00262165,0.00241416,-0.00171177,0.00423282,0.000802994,-0.755132,0.00259595,0.013049,1763,1555,23.6609,-30.4057
546,-531,23.5969,29.7148,0.00201932,0.00151747,-0.000995383,0.00279492,0.000741873,-0.661928,0.00167179,0.0168799,1770,1555,23.597,-29.7148
553,-531,23.6034,29.0469,0.00163274,0.000778891,-0.00033523,0.00174863,0.000663004,-0.332832,0.00101935,0.0330676,1777,1555,23.6033,-29.0468
560,-531,23.5782,28.4011,0.00149858,0.000122071,0.000215893,0.00153164,8.90049e-05,0.151981,0.000992759,0.0348125,1784,1555,23.5783,-28.4011
567,-531,23.4877,27.6377,0.00164246,-0.000270399,0.000519295,0.00177435,-0.000402282,0.248707,0.00133731,0.0205421,1791,1555,23.4876,-27.6376
574,-531,23.4447,26.9086,0.00201723,-0.000606738,0.000741361,0.0022122,-0.000801711,0.25717,0.00180248,0.0156328,1798,1555,23.4447,-26.9085
581,-531,23.5034,26.1672,0.00287214,-0.000714128,0.000613562,0.0029742,-0.000816195,0.164843,0.00230358,0.0274793,1805,1555,23.5034,-26.1673
588,-531,23.4801,25.3804,0.00422569,-0.0004512,0.00012501,0.00422903,-0.000454539,0.0267038,0.00298243,0.0451446,1812,1555,23.4801,-25.3803
595,-531,23.3337,24.5447,0,0,0,0,0,0,0,-1,1819,1555,23.3337,-24.5447
602,-531,13.701,11.8346,0,0,0,0,0,0,0,-1,1826,1555,13.701,-11.8347
609,-531,10.9072,8.50903,0,0,0,0,0,0,0,-1,1833,1555,10.9073,-8.50902
616,-531,10.5723,7.17859,0,0,0,0,0,0,0,-1,1840,1555,10.5723,-7.17855
623,-531,10.0674,5.08984,0,0,0,0,0,0,0,-1,1847,1555,10.0674,-5.08981
630,-531,11.672,3.18909,0,0,0,0,0,0,0,-1,1854,1555,11.672,-3.18904
637,-531,13.2546,1.38965,0,0,0,0,0,0,0,-1,1861,1555,13.2547,-1.3896
644,-531,0,0,0,0,0,0,0,0,0,-1,1868,1555,0,0
651,-531,0,0,0,0,0,0,0,0,0,-1,1875,1555,0,0
658,-531,0,0,0,0,0,0,0,0,0,-1,1882,1555,0,0
665,-531,0,0,0,0,0,0,0,0,0,-1,1889,1555,0,0
672,-531,0,0,0,0,0,0,0,0,0,-1,1896,1555,0,0
679,-531,0,0,0,0,0,0,0,0,0,-1,1903,1555,0,0
686,-531,0,0,0,0,0,0,0,0,0,-1,1910,1555,0,0
693,-531,0,0,0,0,0,0,0,0,0,-1,1917,1555,0,0
700,-531,0,0,0,0,0,0,0,0,0,-1,1924,1555,0,0
707,-531,0,0,0,0,0,0,0,0,0,-1,1931,1555,0,0
714,-531,0,0,0,0,0,0,0,0,0,-1,1938,1555,0,0
721,-531,0,0,0,0,0,0,0,0,0,-1,1945,1555,0,0
728,-531,0,0,0,0,0,0,0,0,0,-1,1952,1555,0,0
735,-531,0,0,0,0,0,0,0,0,0,-1,1959,1555,0,0
742,-531,0,0,0,0,0,0,0,0,0,-1,1966,1555,0,0
749,-531,0,0,0,0,0,0,0,0,0,-1,1973,1555,0,0
756,-531,0,0,0,0,0,0,0,0,0,-1,1980,1555,0,0
763,-531,0,0,0,0,0,0,0,0,0,-1,1987,1555,0,0
770,-531,0,0,0,0,0,0,0,0,0,-1,1994,1555,0,0
777,-531,0,0,0,0,0,0,0,0,0,-1,2001,1555,0,0
784,-531,0,0,0,0,0,0,0,0,0,-1,2008,1555,0,0
791,-531,0,0,0,0,0,0,0,0,0,-1,2015,1555,0,0
798,-531,0,0,0,0,0,0,0,0,0,-1,2022,1555,0,0
805,-531,0,0,0,0,0,0,0,0,0,-1,2029,1555,0,0
812,-531,0,0,0,0,0,0,0,0,0,-1,2036,1555,0,0
-700,-538,0,0,0,0,0,0,0,0,0,-1,524,1562,0,0
-693,-538,0,0,0,0,0,0,0,0,0,-1,531,1562,0,0
-686,-538,0,0,0,0,0,0,0,0,0,-1,538,1562,0,0
-679,-538,0,0,0,0,0,0,0,0,0,-1,545,1562,0,0
-672,-538,0,0,0,0,0,0,0,0,0,-1,552,1562,0,0
-665,-538,0,0,0,0,0,0,0,0,0,-1,559,1562,0,0
-658,-538,0,0,0,0,0,0,0,0,0,-1,566,1562,0,0
-651,-538,0,0,0,0,0,0,0,0,0,-1,573,1562,0,0
-644,-538,0,0,0,0,0,0,0,0,0,-1,580,1562,0,0
-637,-538,0,0,0,0,0,0,0,0,0,-1,587,1562,0,0
-630,-538,0,0,0,0,0,0,0,0,0,-1,594,1562,0,0
-623,-538,0,0,0,0,0,0,0,0,0,-1,601,1562,0,0
-616,-538,0,0,0,0,0,0,0,0,0,-1,608,1562,0,0
-609,-538,0,0,0,0,0,0,0,0,0,-1,615,1562,0,0
-602,-538,0,0,0,0,0,0,0,0,0,-1,622,1562,0,0
-595,-538,0,0,0,0,0,0,0,0,0,-1,629,1562,0,0
-588,-538,0,0,0,0,0,0,0,0,0,-1,636,1562,0,0
-581,-538,0,0,0,0,0,0,0,0,0,-1,643,1562,0,0
-574,-538,0,0,0,0,0,0,0,0,0,-1,650,1562,0,0
-567,-538,0,0,0,0,0,0,0,0,0,-1,657,1562,0,0
-560,-538,0,0,0,0,0,0,0,0,0,-1,664,1562,0,0
-553,-538,0,0,0,0,0,0,0,0,0,-1,671,1562,0,0
-546,-538,0,0,0,0,0,0,0,0,0,-1,678,1562,0,0
-539,-538,0,0,0,0,0,0,0,0,0,-1,685,1562,0,0
-532,-538,0,0,0,0,0,0,0,0,0,-1,692,1562,0,0
-525,-538,0,0,0,0,0,0,0,0,0,-1,699,1562,0,0
-518,-538,0,0,0,0,0,0,0,0,0,-1,706,1562,0,0
-511,-538,-2.6582,-1.54321,0,0,0,0,0,0,0,-1,713,1562,-2.65821,1.54327
-504,-538,-2.66455,-0.71167,0,0,0,0,0,0,0,-1,720,1562,-2.66456,0.711667
-497,-538,-0.763855,6.77747,0,0,0,0,0,0,0,-1,727,1562,-0.76385,-6.77743
-490,-538,-2.70453,8.01465,0,0,0,0,0,0,0,-1,734,1562,-2.70451,-8.0147
-483,-538,-0.933533,7.84644,0,0,0,0,0,0,0,-1,741,1562,-0.933548,-7.84638
-476,-538,-3.29962,15.8307,0,0,0,0,0,0,0,-1,748,1562,-3.29962,-15.8306
-469,-538,-6.44983,24.5707,0,0,0,0,0,0,0,-1,755,1562,-6.4498,-24.5707
-462,-538,-4.73267,24.8331,0,0,0,0,0,0,0,-1,762,1562,-4.73266,-24.8332
-455,-538,-5.2746,25.5011,0,0,0,0,0,0,0,-1,769,1562,-5.27459,-25.501
-448,-538,-5.08801,25.8298,0,0,0,0,0,0,0,-1,776,1562,-5.08801,-25.8299
-441,-538,-5.06256,26.6593,0.0152533,-0.0089584,-0.00128717,0.0153216,-0.00902664,-0.0529642,0.0142132,0.0291476,783,1562,-5.06257,-26.6593
-434,-538,-5.17334,27.2716,0.00985655,-0.0062255,-0.000923207,0.00990937,-0.00627832,-0.0571558,0.00942401,0.01416,790,1562,-5.17336,-27.2715
-427,-538,-5.20978,28.0413,0.0061593,-0.00400391,-0.000496939,0.00618355,-0.00402815,-0.0487409,0.00593934,0.0138044,797,1562,-5.20979,-28.0413
-420,-538,-5.26361,28.7545,0.00384129,-0.00219526,-5.72167e-05,0.00384183,-0.00219581,-0.00947723,0.00352875,0.018971,804,1562,-5.26361,-28.7545
-413,-538,-5.31146,29.4749,0.00183259,-0.000536376,7.23979e-05,0.0018348,-0.000538587,0.030523,0.00143678,0.0196979,811,1562,-5.31144,-29.4749
-406,-538,-5.31915,30.1843,0.00111186,0.000559159,0.000683331,0.00157261,9.84143e-05,0.593244,0.00101719,0.0155283,818,1562,-5.31914,-30.1843
-399,-538,-5.34302,30.9067,0.00161705,0.00145249,0.0010323,0.00257034,0.000499197,0.745631,0.00157378,0.0135826,825,1562,-5.34301,-30.9067
-392,-538,-5.35059,31.6365,0.00206539,0.00229488,0.00131484,0.00349997,0.000860304,0.828922,0.00210596,0.0153081,832,1562,-5.35058,-31.6365
-385,-538,-5.40381,32.3472,0.0025139,0.00317835,0.00158085,0.0044615,0.00123075,0.888968,0.00266072,0.013344,839,1562,-5.40382,-32.3471
-378,-538,-5.43536,33.041,0.00308273,0.00400836,0.0018306,0.00543374,0.00165735,0.909214,0.00321571,0.0100287,846,1562,-5.43534,-33.0411
-371,-538,-5.48059,33.7186,0.00370261,0.005045,0.00218911,0.0066635,0.00208411,0.934151,0.00393606,0.0148114,853,1562,-5.48061,-33.7187
-364,-538,-5.41248,34.5265,0.00452148,0.00638538,0.00273578,0.00834359,0.00256327,0.94956,0.00493509,0.0234248,860,1562,-5.41247,-34.5265
-357,-538,-5.24377,35.4098,0,0,0,0,0,0,0,-1,867,1562,-5.24378,-35.4097
-350,-538,-5.12964,36.5822,0,0,0,0,0,0,0,-1,874,1562,-5.12965,-36.5821
-343,-538,-2.47339,28.3082,0,0,0,0,0,0,0,-1,881,1562,-2.47341,-28.3083
-336,-538,-2.40161,28.5409,0,0,0,0,0,0,0,-1,888,1562,-2.40163,-28.541
-329,-538,-2.57159,28.4905,0,0,0,0,0,0,0,-1,895,1562,-2.57161,-28.4905
-322,-538,-2.83783,28.2308,0,0,0,0,0,0,0,-1,902,1562,-2.83783,-28.2308
-315,-538,-2.91827,27.7609,0,0,0,0,0,0,0,-1,909,1562,-2.91829,-27.7608
-308,-538,-4.37433,31.7996,0,0,0,0,0,0,0,-1,916,1562,-4.3743,-31.7995
-301,-538,-0.452393,18.5101,0,0,0,0,0,0,0,-1,923,1562,-0.452367,-18.5102
-294,-538,1.23138,14.0757,0,0,0,0,0,0,0,-1,930,1562,1.23137,-14.0757
-287,-538,-2.60419,10.2361,0,0,0,0,0,0,0,-1,937,1562,-2.6042,-10.2361
-280,-538,-2.93475,10.5106,0,0,0,0,0,0,0,-1,944,1562,-2.93475,-10.5106
-273,-538,-3.26532,10.785,0,0,0,0,0,0,0,-1,951,1562,-3.26531,-10.785
-266,-538,-5.03412,15.9951,0,0,0,0,0,0,0,-1,958,1562,-5.03409,-15.9951
-259,-538,-5.89642,16.5184,0,0,0,0,0,0,0,-1,965,1562,-5.89644,-16.5184
-252,-538,0,0,0,0,0,0,0,0,0,-1,972,1562,0,0
-245,-538,0,0,0,0,0,0,0,0,0,-1,979,1562,0,0
-238,-538,0,0,0,0,0,0,0,0,0,-1,986,1562,0,0
-231,-538,0,0,0,0,0,0,0,0,0,-1,993,1562,0,0
-224,-538,0,0,0,0,0,0,0,0,0,-1,1000,1562,0,0
-217,-538,0,0,0,0,0,0,0,0,0,-1,1007,1562,0,0
-210,-538,0,0,0,0,0,0,0,0,0,-1,1014,1562,0,0
-203,-538,0,0,0,0,0,0,0,0,0,-1,1021,1562,0,0
-196,-538,0,0,0,0,0,0,0,0,0,-1,1028,1562,0,0
-189,-538,0,0,0,0,0,0,0,0,0,-1,1035,1562,0,0
-182,-538,0,0,0,0,0,0,0,0,0,-1,1042,1562,0,0
-175,-538,0,0,0,0,0,0,0,0,0,-1,1049,1562,0,0
-168,-538,0,0,0,0,0,0,0,0,0,-1,1056,1562,0,0
-161,-538,0,0,0,0,0,0,0,0,0,-1,1063,1562,0,0
-154,-538,0,0,0,0,0,0,0,0,0,-1,1070,1562,0,0
-147,-538,0,0,0,0,0,0,0,0,0,-1,1077,1562,0,0
-140,-538,0,0,0,0,0,0,0,0,0,-1,1084,1562,0,0
-133,-538,0,0,0,0,0,0,0,0,0,-1,1091,1562,0,0
-126,-538,0,0,0,0,0,0,0,0,0,-1,1098,1562,0,0
-119,-538,0,0,0,0,0,0,0,0,0,-1,1105,1562,0,0
-112,-538,0,0,0,0,0,0,0,0,0,-1,1112,1562,0,0
-105,-538,0,0,0,0,0,0,0,0,0,-1,1119,1562,0,0
-98,-538,0,0,0,0,0,0,0,0,0,-1,1126,1562,0,0
-91,-538,0,0,0,0,0,0,0,0,0,-1,1133,1562,0,0
-84,-538,0,0,0,0,0,0,0,0,0,-1,1140,1562,0,0
-77,-538,0,0,0,0,0,0,0,0,0,-1,1147,1562,0,0
-70,-538,0,0,0,0,0,0,0,0,0,-1,1154,1562,0,0
-63,-538,0,0,0,0,0,0,0,0,0,-1,1161,1562,0,0
-56,-538,0,0,0,0,0,0,0,0,0,-1,1168,1562,0,0
-49,-538,0,0,0,0,0,0,0,0,0,-1,1175,1562,0,0
-42,-538,0,0,0,0,0,0,0,0,0,-1,1182,1562,0,0
-35,-538,0,0,0,0,0,0,0,0,0,-1,1189,1562,0,0
-28,-538,0,0,0,0,0,0,0,0,0,-1,1196,1562,0,0
-21,-538,0,0,0,0,0,0,0,0,0,-1,1203,1562,0,0
-14,-538,0,0,0,0,0,0,0,0,0,-1,1210,1562,0,0
-7,-538,0,0,0,0,0,0,0,0,0,-1,1217,1562,0,0
0,-538,0,0,0,0,0,0,0,0,0,-1,1224,1562,0,0
7,-538,0,0,0,0,0,0,0,0,0,-1,1231,1562,0,0
14,-538,0,0,0,0,0,0,0,0,0,-1,1238,1562,0,0
21,-538,0,0,0,0,0,0,0,0,0,-1,1245,1562,0,0
28,-538,0,0,0,0,0,0,0,0,0,-1,1252,1562,0,0
35,-538,0,0,0,0,0,0,0,0,0,-1,1259,1562,0,0
42,-538,0,0,0,0,0,0,0,0,0,-1,1266,1562,0,0
49,-538,0,0,0,0,0,0,0,0,0,-1,1273,1562,0,0
56,-538,0,0,0,0,0,0,0,0,0,-1,1280,1562,0,0
63,-538,0,0,0,0,0,0,0,0,0,-1,1287,1562,0,0
70,-538,0,0,0,0,0,0,0,0,0,-1,1294,1562,0,0
77,-538,0,0,0,0,0,0,0,0,0,-1,1301,1562,0,0
84,-538,0,0,0,0,0,0,0,0,0,-1,1308,1562,0,0
91,-538,0,0,0,0,0,0,0,0,0,-1,1315,1562,0,0
98,-538,0,0,0,0,0,0,0,0,0,-1,1322,1562,0,0
105,-538,0,0,0,0,0,0,0,0,0,-1,1329,1562,0,0
112,-538,0,0,0,0,0,0,0,0,0,-1,1336,1562,0,0
119,-538,0,0,0,0,0,0,0,0,0,-1,1343,1562,0,0
126,-538,0,0,0,0,0,0,0,0,0,-1,1350,1562,0,0
133,-538,0,0,0,0,0,0,0,0,0,-1,1357,1562,0,0
140,-538,0,0,0,0,0,0,0,0,0,-1,1364,1562,0,0
147,-538,0,0,0,0,0,0,0,0,0,-1,1371,1562,0,0
154,-538,0,0,0,0,0,0,0,0,0,-1,1378,1562,0,0
161,-538,0,0,0,0,0,0,0,0,0,-1,1385,1562,0,0
168,-538,0,0,0,0,0,0,0,0,0,-1,1392,1562,0,0
175,-538,0,0,0,0,0,0,0,0,0,-1,1399,1562,0,0
182,-538,0,0,0,0,0,0,0,0,0,-1,1406,1562,0,0
189,-538,0,0,0,0,0,0,0,0,0,-1,1413,1562,0,0
196,-538,0,0,0,0,0,0,0,0,0,-1,1420,1562,0,0
203,-538,0,0,0,0,0,0,0,0,0,-1,1427,1562,0,0
210,-538,0,0,0,0,0,0,0,0,0,-1,1434,1562,0,0
217,-538,0,0,0,0,0,0,0,0,0,-1,1441,1562,0,0
224,-538,0,0,0,0,0,0,0,0,0,-1,1448,1562,0,0
231,-538,0,0,0,0,0,0,0,0,0,-1,1455,1562,0,0
238,-538,0,0,0,0,0,0,0,0,0,-1,1462,1562,0,0
245,-538,0,0,0,0,0,0,0,0,0,-1,1469,1562,0,0
252,-538,0,0,0,0,0,0,0,0,0,-1,1476,1562,0,0
259,-538,0,0,0,0,0,0,0,0,0,-1,1483,1562,0,0
266,-538,0,0,0,0,0,0,0,0,0,-1,1490,1562,0,0
273,-538,0,0,0,0,0,0,0,0,0,-1,1497,1562,0,0
280,-538,0,0,0,0,0,0,0,0,0,-1,1504,1562,0,0
287,-538,0,0,0,0,0,0,0,0,0,-1,1511,1562,0,0
294,-538,0,0,0,0,0,0,0,0,0,-1,1518,1562,0,0
301,-538,0,0,0,0,0,0,0,0,0,-1,1525,1562,0,0
308,-538,0,0,0,0,0,0,0,0,0,-1,1532,1562,0,0
315,-538,0,0,0,0,0,0,0,0,0,-1,1539,1562,0,0
322,-538,0,0,0,0,0,0,0,0,0,-1,1546,1562,0,0
329,-538,0,0,0,0,0,0,0,0,0,-1,1553,1562,0,0
336,-538,0,0,0,0,0,0,0,0,0,-1,1560,1562,0,0
343,-538,0,0,0,0,0,0,0,0,0,-1,1567,1562,0,0
350,-538,0,0,0,0,0,0,0,0,0,-1,1574,1562,0,0
357,-538,0,0,0,0,0,0,0,0,0,-1,1581,1562,0,0
364,-538,0,0,0,0,0,0,0,0,0,-1,1588,1562,0,0
371,-538,0,0,0,0,0,0,0,0,0,-1,1595,1562,0,0
378,-538,9.65479,5.82434,0,0,0,0,0,0,0,-1,1602,1562,9.6548,-5.82439
385,-538,10.5449,7.9502,0,0,0,0,0,0,0,-1,1609,1562,10.5449,-7.95014
392,-538,8.20361,7.07214,0,0,0,0,0,0,0,-1,1616,1562,8.20362,-7.07211
399,-538,7.85425,4.70508,0,0,0,0,0,0,0,-1,1623,1562,7.85425,-4.70512
406,-538,7.77734,4.96094,0,0,0,0,0,0,0,-1,1630,1562,7.77729,-4.96097
413,-538,13.0446,13.1765,0,0,0,0,0,0,0,-1,1637,1562,13.0446,-13.1765
420,-538,9.96216,12.7653,0,0,0,0,0,0,0,-1,1644,1562,9.96221,-12.7653
427,-538,10.1732,14.5863,0,0,0,0,0,0,0,-1,1651,1562,10.1732,-14.5863
434,-538,9.64331,14.7745,0,0,0,0,0,0,0,-1,1658,1562,9.64326,-14.7746
441,-538,11.5039,20.5195,0,0,0,0,0,0,0,-1,1665,1562,11.5039,-20.5195
448,-538,12.8766,22.4932,0,0,0,0,0,0,0,-1,1672,1562,12.8766,-22.4932
455,-538,12.5693,17.4128,0,0,0,0,0,0,0,-1,1679,1562,12.5694,-17.4128
462,-538,12.1389,17.017,0,0,0,0,0,0,0,-1,1686,1562,12.1389,-17.017
469,-538,14.3802,16.6945,0,0,0,0,0,0,0,-1,1693,1562,14.3803,-16.6945
476,-538,13.724,19.0608,0,0,0,0,0,0,0,-1,1700,1562,13.724,-19.0608
483,-538,17.088,25.2936,0,0,0,0,0,0,0,-1,1707,1562,17.088,-25.2936
490,-538,22.9,35.4515,0,0,0,0,0,0,0,-1,1714,1562,22.9,-35.4516
497,-538,23.1202,34.5646,0,0,0,0,0,0,0,-1,1721,1562,23.1202,-34.5646
504,-538,23.1122,33.8344,0.00689403,0.0075543,-0.00549071,0.0127248,0.00172354,-0.815425,0.00797104,0.0182103,1728,1562,23.1121,-33.8344
511,-538,23.0526,33.1575,0.00548654,0.00583262,-0.0043371,0.0100001,0.00131903,-0.805336,0.00627347,0.0110011,1735,1562,23.0526,-33.1575
518,-538,23.0391,32.5004,0.00421459,0.00424537,-0.00317303,0.00740304,0.00105692,-0.787823,0.0046235,0.0121561,1742,1562,23.039,-32.5003
525,-538,23.0121,31.8114,0.0031659,0.00322356,-0.0023401,0.00553501,0.000854449,-0.791559,0.00344074,0.0129777,1749,1562,23.0121,-31.8114
532,-538,23.0024,31.1302,0.0023137,0.00227606,-0.00156679,0.00386178,0.000727974,-0.779392,0.00236944,0.0145114,1756,1562,23.0025,-31.1302
539,-538,22.9507,30.4554,0.00170117,0.00153099,-0.000882083,0.00250226,0.000729904,-0.737312,0.00148588,0.0169857,1763,1562,22.9507,-30.4554
546,-538,22.8862,29.7457,0.00125036,0.000707822,-0.000211081,0.00132281,0.000635373,-0.33063,0.000763921,0.0176276,1770,1562,22.8862,-29.7457
553,-538,22.879,29.0459,0.000992361,2.83816e-05,0.000433133,0.00115838,-0.00013764,0.36603,0.000821985,0.0292302,1777,1562,22.879,-29.0459
560,-538,22.787,28.3932,0.000992365,-0.000553865,0.000978047,0.00146596,-0.00102746,0.450947,0.00144698,0.031909,1784,1562,22.787,-28.3932
567,-538,22.7323,27.686,0.00125865,-0.000932143,0.0013498,0.0019016,-0.0015751,0.444534,0.00201022,0.0235079,1791,1562,22.7323,-27.686
574,-538,22.6626,26.9558,0.0017662,-0.0012869,0.00166448,0.00249816,-0.00201885,0.414297,0.00261279,0.0325299,1798,1562,22.6626,-26.9558
581,-538,22.7136,26.2537,0.00289739,-0.00132358,0.00152071,0.00338819,-0.00181438,0.312193,0.00304917,0.0495089,1805,1562,22.7137,-26.2537
588,-538,22.6655,25.3522,0,0,0,0,0,0,0,-1,1812,1562,22.6655,-25.3521
595,-538,15.9808,16.0894,0,0,0,0,0,0,0,-1,1819,1562,15.9808,-16.0893
602,-538,10.314,8.94238,0,0,0,0,0,0,0,-1,1826,1562,10.314,-8.94238
609,-538,10.1046,7.05713,0,0,0,0,0,0,0,-1,1833,1562,10.1046,-7.05719
616,-538,9.92249,5.43506,0,0,0,0,0,0,0,-1,1840,1562,9.92254,-5.43507
623,-538,11.1711,4.31604,0,0,0,0,0,0,0,-1,1847,1562,11.1711,-4.316
630,-538,12.6112,2.61633,0,0,0,0,0,0,0,-1,1854,1562,12.6112,-2.61637
637,-538,0,0,0,0,0,0,0,0,0,-1,1861,1562,0,0
644,-538,0,0,0,0,0,0,0,0,0,-1,1868,1562,0,0
651,-538,0,0,0,0,0,0,0,0,0,-1,1875,1562,0,0
658,-538,0,0,0,0,0,0,0,0,0,-1,1882,1562,0,0
665,-538,0,0,0,0,0,0,0,0,0,-1,1889,1562,0,0
672,-538,0,0,0,0,0,0,0,0,0,-1,1896,1562,0,0
679,-538,0,0,0,0,0,0,0,0,0,-1,1903,1562,0,0
686,-538,0,0,0,0,0,0,0,0,0,-1,1910,1562,0,0
693,-538,0,0,0,0,0,0,0,0,0,-1,1917,1562,0,0
700,-538,0,0,0,0,0,0,0,0,0,-1,1924,1562,0,0
707,-538,0,0,0,0,0,0,0,0,0,-1,1931,1562,0,0
714,-538,0,0,0,0,0,0,0,0,0,-1,1938,1562,0,0
721,-538,0,0,0,0,0,0,0,0,0,-1,1945,1562,0,0
728,-538,0,0,0,0,0,0,0,0,0,-1,1952,1562,0,0
735,-538,0,0,0,0,0,0,0,0,0,-1,1959,1562,0,0
742,-538,0,0,0,0,0,0,0,0,0,-1,1966,1562,0,0
749,-538,0,0,0,0,0,0,0,0,0,-1,1973,1562,0,0
756,-538,0,0,0,0,0,0,0,0,0,-1,1980,1562,0,0
763,-538,0,0,0,0,0,0,0,0,0,-1,1987,1562,0,0
770,-538,0,0,0,0,0,0,0,0,0,-1,1994,1562,0,0
777,-538,0,0,0,0,0,0,0,0,0,-1,2001,1562,0,0
784,-538,0,0,0,0,0,0,0,0,0,-1,2008,1562,0,0
791,-538,0,0,0,0,0,0,0,0,0,-1,2015,1562,0,0
798,-538,0,0,0,0,0,0,0,0,0,-1,2022,1562,0,0
805,-538,0,0,0,0,0,0,0,0,0,-1,2029,1562,0,0
812,-538,0,0,0,0,0,0,0,0,0,-1,2036,1562,0,0
-700,-545,0,0,0,0,0,0,0,0,0,-1,524,1569,0,0
-693,-545,0,0,0,0,0,0,0,0,0,-1,531,1569,0,0
-686,-545,0,0,0,0,0,0,0,0,0,-1,538,1569,0,0
-679,-545,0,0,0,0,0,0,0,0,0,-1,545,1569,0,0
-672,-545,0,0,0,0,0,0,0,0,0,-1,552,1569,0,0
-665,-545,0,0,0,0,0,0,0,0,0,-1,559,1569,0,0
-658,-545,0,0,0,0,0,0,0,0,0,-1,566,1569,0,0
-651,-545,0,0,0,0,0,0,0,0,0,-1,573,1569,0,0
-644,-545,0,0,0,0,0,0,0,0,0,-1,580,1569,0,0
-637,-545,0,0,0,0,0,0,0,0,0,-1,587,1569,0,0
-630,-545,0,0,0,0,0,0,0,0,0,-1,594,1569,0,0
-623,-545,0,0,0,0,0,0,0,0,0,-1,601,1569,0,0
-616,-545,0,0,0,0,0,0,0,0,0,-1,608,1569,0,0
-609,-545,0,0,0,0,0,0,0,0,0,-1,615,1569,0,0
-602,-545,0,0,0,0,0,0,0,0,0,-1,622,1569,0,0
-595,-545,0,0,0,0,0,0,0,0,0,-1,629,1569,0,0
-588,-545,0,0,0,0,0,0,0,0,0,-1,636,1569,0,0
-581,-545,0,0,0,0,0,0,0,0,0,-1,643,1569,0,0
-574,-545,0,0,0,0,0,0,0,0,0,-1,650,1569,0,0
-567,-545,0,0,0,0,0,0,0,0,0,-1,657,1569,0,0
-560,-545,0,0,0,0,0,0,0,0,0,-1,664,1569,0,0
-553,-545,0,0,0,0,0,0,0,0,0,-1,671,1569,0,0
-546,-545,0,0,0,0,0,0,0,0,0,-1,678,1569,0,0
-539,-545,0,0,0,0,0,0,0,0,0,-1,685,1569,0,0
-532,-545,0,0,0,0,0,0,0,0,0,-1,692,1569,0,0
-525,-545,0,0,0,0,0,0,0,0,0,-1,699,1569,0,0
-518,-545,0,0,0,0,0,0,0,0,0,-1,706,1569,0,0
-511,-545,0,0,0,0,0,0,0,0,0,-1,713,1569,0,0
-504,-545,-3.55237,-2.5354,0,0,0,0,0,0,0,-1,720,1569,-3.55236,2.53545
-497,-545,2.26575,5.69214,0,0,0,0,0,0,0,-1,727,1569,2.26573,-5.6922
-490,-545,-2.17334,7.81396,0,0,0,0,0,0,0,-1,734,1569,-2.17334,-7.81399
-483,-545,-1.88336,5.8446,0,0,0,0,0,0,0,-1,741,1569,-1.88334,-5.84466
-476,-545,-1.13147,6.5741,0,0,0,0,0,0,0,-1,748,1569,-1.13149,-6.57405
-469,-545,-1.03412,15.8353,0,0,0,0,0,0,0,-1,755,1569,-1.03414,-15.8353
-462,-545,-4.09772,21.0458,0,0,0,0,0,0,0,-1,762,1569,-4.0977,-21.0458
-455,-545,-4.84271,25.6355,0,0,0,0,0,0,0,-1,769,1569,-4.84269,-25.6355
-448,-545,-3.92749,25.5662,0,0,0,0,0,0,0,-1,776,1569,-3.9275,-25.5661
-441,-545,-4.24829,26.6281,0,0,0,0,0,0,0,-1,783,1569,-4.24832,-26.6281
-434,-545,-4.55188,27.3901,0.0117707,-0.00745178,-0.0011263,0.0118365,-0.00751755,-0.0583266,0.0112664,0.0307302,790,1569,-4.55191,-27.3901
-427,-545,-4.5293,28.0798,0.00725647,-0.00497893,-0.000658987,0.00729186,-0.00501432,-0.0536522,0.00714542,0.021889,797,1569,-4.52932,-28.0799
-420,-545,-4.5166,28.7737,0.004405,-0.00305772,-0.000228292,0.00441197,-0.00306469,-0.030553,0.00433995,0.0247981,804,1569,-4.51659,-28.7737
-413,-545,-4.55121,29.4908,0.00179765,-0.00131649,-0.000208268,0.00181152,-0.00133036,-0.0664837,0.00182104,0.0251084,811,1569,-4.55122,-29.4908
-406,-545,-4.57147,30.2118,0.000702862,-0.000252752,0.000405879,0.000851982,-0.000401871,0.352091,0.000739297,0.017892,818,1569,-4.57149,-30.2118
-399,-545,-4.59973,30.9291,0.00113259,0.000524258,0.000677453,0.00157103,8.58204e-05,0.574395,0.00101995,0.0117674,825,1569,-4.59971,-30.9291
-392,-545,-4.63855,31.6348,0.00153668,0.00129331,0.00091645,0.00233949,0.0004905,0.719396,0.00142459,0.0120714,832,1569,-4.63858,-31.6347
-385,-545,-4.66791,32.3507,0.00193746,0.00214447,0.0011451,0.00319074,0.000891198,0.830472,0.00190105,0.0107829,839,1569,-4.6679,-32.3507
-378,-545,-4.70813,33.0765,0.00240986,0.00292514,0.00135049,0.00404234,0.00129265,0.879653,0.00238385,0.0120039,846,1569,-4.70816,-33.0765
-371,-545,-4.74371,33.8103,0.00293972,0.00384668,0.0016377,0.00509252,0.00169388,0.920465,0.00299458,0.0152925,853,1569,-4.74373,-33.8103
-364,-545,-4.76801,34.4661,0.00366054,0.00510688,0.00211831,0.00662206,0.00214536,0.94989,0.00390143,0.0119215,860,1569,-4.76803,-34.466
-357,-545,-4.69214,35.3042,0.00442829,0.00662443,0.00265241,0.00839708,0.00265564,0.981651,0.00495598,0.0237223,867,1569,-4.69211,-35.3042
-350,-545,-4.63641,36.1165,0.0053401,0.0084837,0.00338823,0.010647,0.00317684,1.00257,0.00631141,0.0422344,874,1569,-4.63642,-36.1164
-343,-545,-4.66223,37.0856,0,0,0,0,0,0,0,-1,881,1569,-4.66221,-37.0856
-336,-545,-4.2146,36.9165,0,0,0,0,0,0,0,-1,888,1569,-4.21457,-36.9165
-329,-545,-2.03595,27.8694,0,0,0,0,0,0,0,-1,895,1569,-2.03592,-27.8694
-322,-545,-2.42474,27.9695,0,0,0,0,0,0,0,-1,902,1569,-2.42474,-27.9695
-315,-545,-2.52954,30.1711,0,0,0,0,0,0,0,-1,909,1569,-2.52951,-30.1712
-308,-545,-1.54358,21.4457,0,0,0,0,0,0,0,-1,916,1569,-1.54357,-21.4457
-301,-545,1.52191,17.5009,0,0,0,0,0,0,0,-1,923,1569,1.52192,-17.5008
-294,-545,-2.69287,8.42102,0,0,0,0,0,0,0,-1,930,1569,-2.69287,-8.42097
-287,-545,-3.47784,9.96021,0,0,0,0,0,0,0,-1,937,1569,-3.47785,-9.96021
-280,-545,-3.7879,10.5448,0,0,0,0,0,0,0,-1,944,1569,-3.78793,-10.5448
-273,-545,-5.10333,12.864,0,0,0,0,0,0,0,-1,951,1569,-5.10331,-12.864
-266,-545,-5.78955,13.3704,0,0,0,0,0,0,0,-1,958,1569,-5.78952,-13.3703
-259,-545,-6.32184,13.8101,0,0,0,0,0,0,0,-1,965,1569,-6.32182,-13.81
-252,-545,0.369263,7.54053,0,0,0,0,0,0,0,-1,972,1569,0.369276,-7.54056
-245,-545,-0.236633,6.65564,0,0,0,0,0,0,0,-1,979,1569,-0.236605,-6.65566
-238,-545,0,0,0,0,0,0,0,0,0,-1,986,1569,0,0
-231,-545,0,0,0,0,0,0,0,0,0,-1,993,1569,0,0
-224,-545,0,0,0,0,0,0,0,0,0,-1,1000,1569,0,0
-217,-545,0,0,0,0,0,0,0,0,0,-1,1007,1569,0,0
-210,-545,0,0,0,0,0,0,0,0,0,-1,1014,1569,0,0
-203,-545,0,0,0,0,0,0,0,0,0,-1,1021,1569,0,0
-196,-545,0,0,0,0,0,0,0,0,0,-1,1028,1569,0,0
-189,-545,0,0,0,0,0,0,0,0,0,-1,1035,1569,0,0
-182,-545,0,0,0,0,0,0,0,0,0,-1,1042,1569,0,0
-175,-545,0,0,0,0,0,0,0,0,0,-1,1049,1569,0,0
-168,-545,0,0,0,0,0,0,0,0,0,-1,1056,1569,0,0
-161,-545,0,0,0,0,0,0,0,0,0,-1,1063,1569,0,0
-154,-545,0,0,0,0,0,0,0,0,0,-1,1070,1569,0,0
-147,-545,0,0,0,0,0,0,0,0,0,-1,1077,1569,0,0
-140,-545,0,0,0,0,0,0,0,0,0,-1,1084,1569,0,0
-133,-545,0,0,0,0,0,0,0,0,0,-1,1091,1569,0,0
-126,-545,0,0,0,0,0,0,0,0,0,-1,1098,1569,0,0
-119,-545,0,0,0,0,0,0,0,0,0,-1,1105,1569,0,0
-112,-545,0,0,0,0,0,0,0,0,0,-1,1112,1569,0,0
-105,-545,0,0,0,0,0,0,0,0,0,-1,1119,1569,0,0
-98,-545,0,0,0,0,0,0,0,0,0,-1,1126,1569,0,0
-91,-545,0,0,0,0,0,0,0,0,0,-1,1133,1569,0,0
-84,-545,0,0,0,0,0,0,0,0,0,-1,1140,1569,0,0
-77,-545,0,0,0,0,0,0,0,0,0,-1,1147,1569,0,0
-70,-545,0,0,0,0,0,0,0,0,0,-1,1154,1569,0,0
-63,-545,0,0,0,0,0,0,0,0,0,-1,1161,1569,0,0
-56,-545,0,0,0,0,0,0,0,0,0,-1,1168,1569,0,0
-49,-545,0,0,0,0,0,0,0,0,0,-1,1175,1569,0,0
-42,-545,0,0,0,0,0,0,0,0,0,-1,1182,1569,0,0
-35,-545,0,0,0,0,0,0,0,0,0,-1,1189,1569,0,0
-28,-545,0,0,0,0,0,0,0,0,0,-1,1196,1569,0,0
-21,-545,0,0,0,0,0,0,0,0,0,-1,1203,1569,0,0
-14,-545,0,0,0,0,0,0,0,0,0,-1,1210,1569,0,0
-7,-545,0,0,0,0,0,0,0,0,0,-1,1217,1569,0,0
0,-545,0,0,0,0,0,0,0,0,0,-1,1224,1569,0,0
7,-545,0,0,0,0,0,0,0,0,0,-1,1231,1569,0,0
14,-545,0,0,0,0,0,0,0,0,0,-1,1238,1569,0,0
21,-545,0,0,0,0,0,0,0,0,0,-1,1245,1569,0,0
28,-545,0,0,0,0,0,0,0,0,0,-1,1252,1569,0,0
35,-545,0,0,0,0,0,0,0,0,0,-1,1259,1569,0,0
42,-545,0,0,0,0,0,0,0,0,0,-1,1266,1569,0,0
49,-545,0,0,0,0,0,0,0,0,0,-1,1273,1569,0,0
56,-545,0,0,0,0,0,0,0,0,0,-1,1280,1569,0,0
63,-545,0,0,0,0,0,0,0,0,0,-1,1287,1569,0,0
70,-545,0,0,0,0,0,0,0,0,0,-1,1294,1569,0,0
77,-545,0,0,0,0,0,0,0,0,0,-1,1301,1569,0,0
84,-545,0,0,0,0,0,0,0,0,0,-1,1308,1569,0,0
91,-545,0,0,0,0,0,0,0,0,0,-1,1315,1569,0,0
98,-545,0,0,0,0,0,0,0,0,0,-1,1322,1569,0,0
105,-545,0,0,0,0,0,0,0,0,0,-1,1329,1569,0,0
112,-545,0,0,0,0,0,0,0,0,0,-1,1336,1569,0,0
119,-545,0,0,0,0,0,0,0,0,0,-1,1343,1569,0,0
126,-545,0,0,0,0,0,0,0,0,0,-1,1350,1569,0,0
133,-545,0,0,0,0,0,0,0,0,0,-1,1357,1569,0,0
140,-545,0,0,0,0,0,0,0,0,0,-1,1364,1569,0,0
147,-545,0,0,0,0,0,0,0,0,0,-1,1371,1569,0,0
154,-545,0,0,0,0,0,0,0,0,0,-1,1378,1569,0,0
161,-545,0,0,0,0,0,0,0,0,0,-1,1385,1569,0,0
168,-545,0,0,0,0,0,0,0,0,0,-1,1392,1569,0,0
175,-545,0,0,0,0,0,0,0,0,0,-1,1399,1569,0,0
182,-545,0,0,0,0,0,0,0,0,0,-1,1406,1569,0,0
189,-545,0,0,0,0,0,0,0,0,0,-1,1413,1569,0,0
196,-545,0,0,0,0,0,0,0,0,0,-1,1420,1569,0,0
203,-545,0,0,0,0,0,0,0,0,0,-1,1427,1569,0,0
210,-545,0,0,0,0,0,0,0,0,0,-1,1434,1569,0,0
217,-545,0,0,0,0,0,0,0,0,0,-1,1441,1569,0,0
224,-545,0,0,0,0,0,0,0,0,0,-1,1448,1569,0,0
231,-545,0,0,0,0,0,0,0,0,0,-1,1455,1569,0,0
238,-545,0,0,0,0,0,0,0,0,0,-1,1462,1569,0,0
245,-545,0,0,0,0,0,0,0,0,0,-1,1469,1569,0,0
252,-545,0,0,0,0,0,0,0,0,0,-1,1476,1569,0,0
259,-545,0,0,0,0,0,0,0,0,0,-1,1483,1569,0,0
266,-545,0,0,0,0,0,0,0,0,0,-1,1490,1569,0,0
273,-545,0,0,0,0,0,0,0,0,0,-1,1497,1569,0,0
280,-545,0,0,0,0,0,0,0,0,0,-1,1504,1569,0,0
287,-545,0,0,0,0,0,0,0,0,0,-1,1511,1569,0,0
294,-545,0,0,0,0,0,0,0,0,0,-1,1518,1569,0,0
301,-545,0,0,0,0,0,0,0,0,0,-1,1525,1569,0,0
308,-545,0,0,0,0,0,0,0,0,0,-1,1532,1569,0,0
315,-545,0,0,0,0,0,0,0,0,0,-1,1539,1569,0,0
322,-545,0,0,0,0,0,0,0,0,0,-1,1546,1569,0,0
329,-545,0,0,0,0,0,0,0,0,0,-1,1553,1569,0,0
336,-545,0,0,0,0,0,0,0,0,0,-1,1560,1569,0,0
343,-545,0,0,0,0,0,0,0,0,0,-1,1567,1569,0,0
350,-545,0,0,0,0,0,0,0,0,0,-1,1574,1569,0,0
357,-545,0,0,0,0,0,0,0,0,0,-1,1581,1569,0,0
364,-545,7.19495,4.88098,0,0,0,0,0,0,0,-1,1588,1569,7.19497,-4.88095
371,-545,7.82324,3.84302,0,0,0,0,0,0,0,-1,1595,1569,7.82324,-3.84307
378,-545,7.65674,5.52673,0,0,0,0,0,0,0,-1,1602,1569,7.6567,-5.52667
385,-545,8.58447,1.16125,0,0,0,0,0,0,0,-1,1609,1569,8.5845,-1.1612
392,-545,12.5654,3.89526,0,0,0,0,0,0,0,-1,1616,1569,12.5655,-3.89532
399,-545,11.5869,5.6333,0,0,0,0,0,0,0,-1,1623,1569,11.5869,-5.63326
406,-545,11.234,6.36414,0,0,0,0,0,0,0,-1,1630,1569,11.234,-6.3641
413,-545,12.1521,13.4817,0,0,0,0,0,0,0,-1,1637,1569,12.1521,-13.4817
420,-545,11.1954,13.6047,0,0,0,0,0,0,0,-1,1644,1569,11.1954,-13.6047
427,-545,9.61072,14.9135,0,0,0,0,0,0,0,-1,1651,1569,9.61076,-14.9134
434,-545,13.1598,23.9921,0,0,0,0,0,0,0,-1,1658,1569,13.1598,-23.992
441,-545,12.2833,22.2238,0,0,0,0,0,0,0,-1,1665,1569,12.2833,-22.2237
448,-545,13.0082,21.941,0,0,0,0,0,0,0,-1,1672,1569,13.0082,-21.941
455,-545,13.733,21.6583,0,0,0,0,0,0,0,-1,1679,1569,13.733,-21.6583
462,-545,12.449,20.7413,0,0,0,0,0,0,0,-1,1686,1569,12.4489,-20.7413
469,-545,12.7837,17.7919,0,0,0,0,0,0,0,-1,1693,1569,12.7837,-17.7919
476,-545,15.7562,24.8708,0,0,0,0,0,0,0,-1,1700,1569,15.7563,-24.8709
483,-545,22.353,36.0682,0,0,0,0,0,0,0,-1,1707,1569,22.353,-36.0682
490,-545,22.3986,35.2877,0.00873428,0.0110108,-0.00752187,0.01748,0.00226503,-0.860492,0.0109765,0.0297918,1714,1569,22.3986,-35.2877
497,-545,22.4275,34.5828,0.00692341,0.00818084,-0.00566299,0.0132499,0.00185434,-0.840683,0.00828462,0.0235737,1721,1569,22.4275,-34.5828
504,-545,22.4944,33.8719,0.005398,0.00592425,-0.00421875,0.00988808,0.00143418,-0.816543,0.00616981,0.0155594,1728,1569,22.4944,-33.8719
511,-545,22.4146,33.1798,0.00416685,0.00445901,-0.00320066,0.00751693,0.00110894,-0.808203,0.00468559,0.0117924,1735,1569,22.4146,-33.1798
518,-545,22.3699,32.5142,0.00303262,0.00308724,-0.00219558,0.00525568,0.000864181,-0.791616,0.0032542,0.0142048,1742,1569,22.3699,-32.5141
525,-545,22.3087,31.8365,0.0021139,0.00223118,-0.00147326,0.00364697,0.00069811,-0.805288,0.00223525,0.0150324,1749,1569,22.3087,-31.8366
532,-545,22.2804,31.1649,0.00139563,0.00141343,-0.000781153,0.00218573,0.000623326,-0.791095,0.00130018,0.0149401,1756,1569,22.2804,-31.1649
539,-545,22.2427,30.4919,0.000886185,0.000782608,-0.000150071,0.000993152,0.000675641,-0.619251,0.000585692,0.0171956,1763,1569,22.2427,-30.492
546,-545,22.1691,29.7764,0.000529434,3.24429e-05,0.000509636,0.000847929,-0.000286053,0.558561,0.000680968,0.0183151,1770,1569,22.169,-29.7764
553,-545,22.1843,29.0474,0.000343488,-0.000607416,0.0011742,0.00113484,-0.00139877,0.59303,0.00146543,0.0273657,1777,1569,22.1843,-29.0474
560,-545,22.1593,28.338,0.00040571,-0.0011419,0.00175917,0.00155374,-0.00228993,0.5782,0.00223267,0.0314728,1784,1569,22.1592,-28.3381
567,-545,22.1217,27.5139,0,0,0,0,0,0,0,-1,1791,1569,22.1218,-27.5139
574,-545,22.1204,26.7874,0,0,0,0,0,0,0,-1,1798,1569,22.1203,-26.7873
581,-545,22.0648,26.1544,0,0,0,0,0,0,0,-1,1805,1569,22.0648,-26.1545
588,-545,15.4786,16.7035,0,0,0,0,0,0,0,-1,1812,1569,15.4786,-16.7035
595,-545,10.2859,9.11218,0,0,0,0,0,0,0,-1,1819,1569,10.2858,-9.11215
602,-545,8.82117,6.32214,0,0,0,0,0,0,0,-1,1826,1569,8.82121,-6.32217
609,-545,10.2406,5.22351,0,0,0,0,0,0,0,-1,1833,1569,10.2406,-5.22353
616,-545,11.701,3.93188,0,0,0,0,0,0,0,-1,1840,1569,11.701,-3.93191
623,-545,13.2139,2.32043,0,0,0,0,0,0,0,-1,1847,1569,13.2139,-2.32042
630,-545,0,0,0,0,0,0,0,0,0,-1,1854,1569,0,0
637,-545,0,0,0,0,0,0,0,0,0,-1,1861,1569,0,0
644,-545,0,0,0,0,0,0,0,0,0,-1,1868,1569,0,0
651,-545,0,0,0,0,0,0,0,0,0,-1,1875,1569,0,0
658,-545,0,0,0,0,0,0,0,0,0,-1,1882,1569,0,0
665,-545,0,0,0,0,0,0,0,0,0,-1,1889,1569,0,0
672,-545,0,0,0,0,0,0,0,0,0,-1,1896,1569,0,0
679,-545,0,0,0,0,0,0,0,0,0,-1,1903,1569,0,0
686,-545,0,0,0,0,0,0,0,0,0,-1,1910,1569,0,0
693,-545,0,0,0,0,0,0,0,0,0,-1,1917,1569,0,0
700,-545,0,0,0,0,0,0,0,0,0,-1,1924,1569,0,0
707,-545,0,0,0,0,0,0,0,0,0,-1,1931,1569,0,0
714,-545,0,0,0,0,0,0,0,0,0,-1,1938,1569,0,0
721,-545,0,0,0,0,0,0,0,0,0,-1,1945,1569,0,0
728,-545,0,0,0,0,0,0,0,0,0,-1,1952,1569,0,0
735,-545,0,0,0,0,0,0,0,0,0,-1,1959,1569,0,0
742,-545,0,0,0,0,0,0,0,0,0,-1,1966,1569,0,0
749,-545,0,0,0,0,0,0,0,0,0,-1,1973,1569,0,0
756,-545,0,0,0,0,0,0,0,0,0,-1,1980,1569,0,0
763,-545,0,0,0,0,0,0,0,0,0,-1,1987,1569,0,0
770,-545,0,0,0,0,0,0,0,0,0,-1,1994,1569,0,0
777,-545,0,0,0,0,0,0,0,0,0,-1,2001,1569,0,0
784,-545,0,0,0,0,0,0,0,0,0,-1,2008,1569,0,0
791,-545,0,0,0,0,0,0,0,0,0,-1,2015,1569,0,0
798,-545,0,0,0,0,0,0,0,0,0,-1,2022,1569,0,0
805,-545,0,0,0,0,0,0,0,0,0,-1,2029,1569,0,0
812,-545,0,0,0,0,0,0,0,0,0,-1,2036,1569,0,0
-700,-552,0,0,0,0,0,0,0,0,0,-1,524,1576,0,0
-693,-552,0,0,0,0,0,0,0,0,0,-1,531,1576,0,0
-686,-552,0,0,0,0,0,0,0,0,0,-1,538,1576,0,0
-679,-552,0,0,0,0,0,0,0,0,0,-1,545,1576,0,0
-672,-552,0,0,0,0,0,0,0,0,0,-1,552,1576,0,0
-665,-552,0,0,0,0,0,0,0,0,0,-1,559,1576,0,0
-658,-552,0,0,0,0,0,0,0,0,0,-1,566,1576,0,0
-651,-552,0,0,0,0,0,0,0,0,0,-1,573,1576,0,0
-644,-552,0,0,0,0,0,0,0,0,0,-1,580,1576,0,0
-637,-552,0,0,0,0,0,0,0,0,0,-1,587,1576,0,0
-630,-552,0,0,0,0,0,0,0,0,0,-1,594,1576,0,0
-623,-552,0,0,0,0,0,0,0,0,0,-1,601,1576,0,0
-616,-552,0,0,0,0,0,0,0,0,0,-1,608,1576,0,0
-609,-552,0,0,0,0,0,0,0,0,0,-1,615,1576,0,0
-602,-552,0,0,0,0,0,0,0,0,0,-1,622,1576,0,0
-595,-552,0,0,0,0,0,0,0,0,0,-1,629,1576,0,0
-588,-552,0,0,0,0,0,0,0,0,0,-1,636,1576,0,0
-581,-552,0,0,0,0,0,0,0,0,0,-1,643,1576,0,0
-574,-552,0,0,0,0,0,0,0,0,0,-1,650,1576,0,0
-567,-552,0,0,0,0,0,0,0,0,0,-1,657,1576,0,0
-560,-552,0,0,0,0,0,0,0,0,0,-1,664,1576,0,0
-553,-552,0,0,0,0,0,0,0,0,0,-1,671,1576,0,0
-546,-552,0,0,0,0,0,0,0,0,0,-1,678,1576,0,0
-539,-552,0,0,0,0,0,0,0,0,0,-1,685,1576,0,0
-532,-552,0,0,0,0,0,0,0,0,0,-1,692,1576,0,0
-525,-552,0,0,0,0,0,0,0,0,0,-1,699,1576,0,0
-518,-552,0,0,0,0,0,0,0,0,0,-1,706,1576,0,0
-511,-552,0,0,0,0,0,0,0,0,0,-1,713,1576,0,0
-504,-552,0,0,0,0,0,0,0,0,0,-1,720,1576,0,0
-497,-552,1.51282,3.96924,0,0,0,0,0,0,0,-1,727,1576,1.5128,-3.96924
-490,-552,-3.82312,6.32104,0,0,0,0,0,0,0,-1,734,1576,-3.82314,-6.3211
-483,-552,-3.50586,6.47986,0,0,0,0,0,0,0,-1,741,1576,-3.50587,-6.47983
-476,-552,-1.95129,4.43054,0,0,0,0,0,0,0,-1,748,1576,-1.95128,-4.43054
-469,-552,-1.40491,7.9895,0,0,0,0,0,0,0,-1,755,1576,-1.40491,-7.98947
-462,-552,0.0459595,16.3469,0,0,0,0,0,0,0,-1,762,1576,0.0459611,-16.3469
-455,-552,-3.21484,22.3766,0,0,0,0,0,0,0,-1,769,1576,-3.21487,-22.3766
-448,-552,-3.13776,25.2072,0,0,0,0,0,0,0,-1,776,1576,-3.13773,-25.2072
-441,-552,-2.84552,27.1594,0,0,0,0,0,0,0,-1,783,1576,-2.84555,-27.1594
-434,-552,-3.52124,27.6066,0,0,0,0,0,0,0,-1,790,1576,-3.52123,-27.6066
-427,-552,-4.1969,28.0537,0,0,0,0,0,0,0,-1,797,1576,-4.19692,-28.0537
-420,-552,-3.79535,28.8401,0.00504598,-0.00358766,-0.000147628,0.00504851,-0.00359019,-0.0170924,0.00501118,0.0244603,804,1576,-3.79534,-28.8401
-413,-552,-3.80261,29.5326,0.0018398,-0.00179415,-0.00021188,0.00185211,-0.00180646,-0.0580435,0.00211234,0.0183425,811,1576,-3.80263,-29.5326
-406,-552,-3.85492,30.2312,0.000417153,-0.000797625,0.000382789,0.000527712,-0.000908184,0.281172,0.00083866,0.0136353,818,1576,-3.85494,-30.2312
-399,-552,-3.89581,30.9415,0.000750289,-0.000163265,0.000561057,0.001017,-0.000429973,0.443748,0.000858018,0.0143432,825,1576,-3.89581,-30.9416
-392,-552,-3.93616,31.6544,0.0010904,0.000506774,0.000736238,0.00159055,6.62706e-06,0.596717,0.00105816,0.0163371,832,1576,-3.93617,-31.6544
-385,-552,-3.96344,32.3617,0.00142482,0.00127212,0.000899323,0.00225103,0.000445909,0.743051,0.00137634,0.0146367,839,1576,-3.96344,-32.3617
-378,-552,-4.00171,33.0748,0.00179916,0.00194416,0.00103407,0.00290827,0.000835051,0.820397,0.00172907,0.0154714,846,1576,-4.00173,-33.0748
-371,-552,-4.03973,33.8054,0.00224264,0.00268527,0.00121288,0.00369686,0.00123105,0.875641,0.00217371,0.0197426,853,1576,-4.03974,-33.8054
-364,-552,-4.04767,34.5055,0.00287463,0.00373343,0.00157477,0.00493629,0.00167177,0.918501,0.002899,0.0152649,860,1576,-4.04767,-34.5055
-357,-552,-4.06506,35.1814,0.00354588,0.004934,0.00197941,0.0063375,0.00214238,0.954022,0.00372239,0.0107975,867,1576,-4.06505,-35.1814
-350,-552,-4.07202,35.9401,0.00434939,0.00632981,0.00251103,0.00803883,0.00264038,0.973209,0.0047314,0.0156398,874,1576,-4.07205,-35.94
-343,-552,-4.10846,36.5939,0.00531575,0.00773429,0.00313597,0.00988606,0.00316397,0.96942,0.00582965,0.0267013,881,1576,-4.10843,-36.5939
-336,-552,-3.82025,37.3668,0,0,0,0,0,0,0,-1,888,1576,-3.82025,-37.3668
-329,-552,-3.68982,37.6417,0,0,0,0,0,0,0,-1,895,1576,-3.68984,-37.6417
-322,-552,-1.23962,28.5371,0,0,0,0,0,0,0,-1,902,1576,-1.23964,-28.5371
-315,-552,-0.605347,28.994,0,0,0,0,0,0,0,-1,909,1576,-0.605331,-28.9941
-308,-552,-1.01624,30.3169,0,0,0,0,0,0,0,-1,916,1576,-1.01624,-30.3169
-301,-552,1.39453,18.4995,0,0,0,0,0,0,0,-1,923,1576,1.3945,-18.4995
-294,-552,0.842163,13.7863,0,0,0,0,0,0,0,-1,930,1576,0.842149,-13.7863
-287,-552,-0.663757,13.3474,0,0,0,0,0,0,0,-1,937,1576,-0.663744,-13.3474
-280,-552,-5.47241,8.96765,0,0,0,0,0,0,0,-1,944,1576,-5.47239,-8.96766
-273,-552,1.64587,10.6685,0,0,0,0,0,0,0,-1,951,1576,1.6459,-10.6685
-266,-552,-1.32678,8.05688,0,0,0,0,0,0,0,-1,958,1576,-1.32677,-8.05683
-259,-552,-5.54321,8.31213,0,0,0,0,0,0,0,-1,965,1576,-5.54324,-8.31214
-252,-552,-1.93445,7.81543,0,0,0,0,0,0,0,-1,972,1576,-1.93445,-7.81546
-245,-552,-2.53613,6.92212,0,0,0,0,0,0,0,-1,979,1576,-2.53614,-6.92216
-238,-552,-6.5365,2.81885,0,0,0,0,0,0,0,-1,986,1576,-6.53649,-2.8188
-231,-552,-4.32239,4.34583,0,0,0,0,0,0,0,-1,993,1576,-4.32239,-4.34587
-224,-552,0,0,0,0,0,0,0,0,0,-1,1000,1576,0,0
-217,-552,0,0,0,0,0,0,0,0,0,-1,1007,1576,0,0
-210,-552,0,0,0,0,0,0,0,0,0,-1,1014,1576,0,0
-203,-552,0,0,0,0,0,0,0,0,0,-1,1021,1576,0,0
-196,-552,0,0,0,0,0,0,0,0,0,-1,1028,1576,0,0
-189,-552,0,0,0,0,0,0,0,0,0,-1,1035,1576,0,0
-182,-552,0,0,0,0,0,0,0,0,0,-1,1042,1576,0,0
-175,-552,0,0,0,0,0,0,0,0,0,-1,1049,1576,0,0
-168,-552,0,0,0,0,0,0,0,0,0,-1,1056,1576,0,0
-161,-552,0,0,0,0,0,0,0,0,0,-1,1063,1576,0,0
-154,-552,0,0,0,0,0,0,0,0,0,-1,1070,1576,0,0
-147,-552,0,0,0,0,0,0,0,0,0,-1,1077,1576,0,0
-140,-552,0,0,0,0,0,0,0,0,0,-1,1084,1576,0,0
-133,-552,0,0,0,0,0,0,0,0,0,-1,1091,1576,0,0
-126,-552,0,0,0,0,0,0,0,0,0,-1,1098,1576,0,0
-119,-552,0,0,0,0,0,0,0,0,0,-1,1105,1576,0,0
-112,-552,0,0,0,0,0,0,0,0,0,-1,1112,1576,0,0
-105,-552,0,0,0,0,0,0,0,0,0,-1,1119,1576,0,0
-98,-552,0,0,0,0,0,0,0,0,0,-1,1126,1576,0,0
-91,-552,0,0,0,0,0,0,0,0,0,-1,1133,1576,0,0
-84,-552,0,0,0,0,0,0,0,0,0,-1,1140,1576,0,0
-77,-552,0,0,0,0,0,0,0,0,0,-1,1147,1576,0,0
-70,-552,0,0,0,0,0,0,0,0,0,-1,1154,1576,0,0
-63,-552,0,0,0,0,0,0,0,0,0,-1,1161,1576,0,0
-56,-552,0,0,0,0,0,0,0,0,0,-1,1168,1576,0,0
-49,-552,0,0,0,0,0,0,0,0,0,-1,1175,1576,0,0
-42,-552,0,0,0,0,0,0,0,0,0,-1,1182,1576,0,0
-35,-552,0,0,0,0,0,0,0,0,0,-1,1189,1576,0,0
-28,-552,0,0,0,0,0,0,0,0,0,-1,1196,1576,0,0
-21,-552,0,0,0,0,0,0,0,0,0,-1,1203,1576,0,0
-14,-552,0,0,0,0,0,0,0,0,0,-1,1210,1576,0,0
-7,-552,0,0,0,0,0,0,0,0,0,-1,1217,1576,0,0
0,-552,0,0,0,0,0,0,0,0,0,-1,1224,1576,0,0
7,-552,0,0,0,0,0,0,0,0,0,-1,1231,1576,0,0
14,-552,0,0,0,0,0,0,0,0,0,-1,1238,1576,0,0
21,-552,0,0,0,0,0,0,0,0,0,-1,1245,1576,0,0
28,-552,0,0,0,0,0,0,0,0,0,-1,1252,1576,0,0
35,-552,0,0,0,0,0,0,0,0,0,-1,1259,1576,0,0
42,-552,0,0,0,0,0,0,0,0,0,-1,1266,1576,0,0
49,-552,0,0,0,0,0,0,0,0,0,-1,1273,1576,0,0
56,-552,0,0,0,0,0,0,0,0,0,-1,1280,1576,0,0
63,-552,0,0,0,0,0,0,0,0,0,-1,1287,1576,0,0
70,-552,0,0,0,0,0,0,0,0,0,-1,1294,1576,0,0
77,-552,0,0,0,0,0,0,0,0,0,-1,1301,1576,0,0
84,-552,0,0,0,0,0,0,0,0,0,-1,1308,1576,0,0
91,-552,0,0,0,0,0,0,0,0,0,-1,1315,1576,0,0
98,-552,0,0,0,0,0,0,0,0,0,-1,1322,1576,0,0
105,-552,0,0,0,0,0,0,0,0,0,-1,1329,1576,0,0
112,-552,0,0,0,0,0,0,0,0,0,-1,1336,1576,0,0
119,-552,0,0,0,0,0,0,0,0,0,-1,1343,1576,0,0
126,-552,0,0,0,0,0,0,0,0,0,-1,1350,1576,0,0
133,-552,0,0,0,0,0,0,0,0,0,-1,1357,1576,0,0
140,-552,0,0,0,0,0,0,0,0,0,-1,1364,1576,0,0
147,-552,0,0,0,0,0,0,0,0,0,-1,1371,1576,0,0
154,-552,0,0,0,0,0,0,0,0,0,-1,1378,1576,0,0
161,-552,0,0,0,0,0,0,0,0,0,-1,1385,1576,0,0
168,-552,0,0,0,0,0,0,0,0,0,-1,1392,1576,0,0
175,-552,0,0,0,0,0,0,0,0,0,-1,1399,1576,0,0
182,-552,0,0,0,0,0,0,0,0,0,-1,1406,1576,0,0
189,-552,0,0,0,0,0,0,0,0,0,-1,1413,1576,0,0
196,-552,0,0,0,0,0,0,0,0,0,-1,1420,1576,0,0
203,-552,0,0,0,0,0,0,0,0,0,-1,1427,1576,0,0
210,-552,0,0,0,0,0,0,0,0,0,-1,1434,1576,0,0
217,-552,0,0,0,0,0,0,0,0,0,-1,1441,1576,0,0
224,-552,0,0,0,0,0,0,0,0,0,-1,1448,1576,0,0
231,-552,0,0,0,0,0,0,0,0,0,-1,1455,1576,0,0
238,-552,0,0,0,0,0,0,0,0,0,-1,1462,1576,0,0
245,-552,0,0,0,0,0,0,0,0,0,-1,1469,1576,0,0
252,-552,0,0,0,0,0,0,0,0,0,-1,1476,1576,0,0
259,-552,0,0,0,0,0,0,0,0,0,-1,1483,1576,0,0
266,-552,0,0,0,0,0,0,0,0,0,-1,1490,1576,0,0
273,-552,0,0,0,0,0,0,0,0,0,-1,1497,1576,0,0
280,-552,0,0,0,0,0,0,0,0,0,-1,1504,1576,0,0
287,-552,0,0,0,0,0,0,0,0,0,-1,1511,1576,0,0
294,-552,0,0,0,0,0,0,0,0,0,-1,1518,1576,0,0
301,-552,0,0,0,0,0,0,0,0,0,-1,1525,1576,0,0
308,-552,0,0,0,0,0,0,0,0,0,-1,1532,1576,0,0
315,-552,0,0,0,0,0,0,0,0,0,-1,1539,1576,0,0
322,-552,0,0,0,0,0,0,0,0,0,-1,1546,1576,0,0
329,-552,0,0,0,0,0,0,0,0,0,-1,1553,1576,0,0
336,-552,0,0,0,0,0,0,0,0,0,-1,1560,1576,0,0
343,-552,0,0,0,0,0,0,0,0,0,-1,1567,1576,0,0
350,-552,4.97876,4.09888,0,0,0,0,0,0,0,-1,1574,1576,4.97875,-4.09883
357,-552,5.18469,4.10706,0,0,0,0,0,0,0,-1,1581,1576,5.1847,-4.10702
364,-552,5.80872,5.07031,0,0,0,0,0,0,0,-1,1588,1576,5.80874,-5.07037
371,-552,7.10657,5.64783,0,0,0,0,0,0,0,-1,1595,1576,7.10651,-5.64786
378,-552,6.44446,4.91492,0,0,0,0,0,0,0,-1,1602,1576,6.44448,-4.91496
385,-552,12.8276,3.16504,0,0,0,0,0,0,0,-1,1609,1576,12.8276,-3.16503
392,-552,12.1301,4.3363,0,0,0,0,0,0,0,-1,1616,1576,12.1302,-4.33631
399,-552,11.3486,5.6012,0,0,0,0,0,0,0,-1,1623,1576,11.3486,-5.60115
406,-552,10.7863,6.42542,0,0,0,0,0,0,0,-1,1630,1576,10.7863,-6.42536
413,-552,8.39307,10.365,0,0,0,0,0,0,0,-1,1637,1576,8.3931,-10.365
420,-552,10.2306,12.7225,0,0,0,0,0,0,0,-1,1644,1576,10.2305,-12.7226
427,-552,9.73267,14.783,0,0,0,0,0,0,0,-1,1651,1576,9.73269,-14.783
434,-552,12.0377,20.1364,0,0,0,0,0,0,0,-1,1658,1576,12.0377,-20.1364
441,-552,12.4963,21.5277,0,0,0,0,0,0,0,-1,1665,1576,12.4964,-21.5277
448,-552,12.9141,21.5482,0,0,0,0,0,0,0,-1,1672,1576,12.9141,-21.5482
455,-552,13.3318,21.5687,0,0,0,0,0,0,0,-1,1679,1576,13.3317,-21.5687
462,-552,12.745,20.5947,0,0,0,0,0,0,0,-1,1686,1576,12.745,-20.5947
469,-552,17.7067,29.6902,0,0,0,0,0,0,0,-1,1693,1576,17.7067,-29.6902
476,-552,21.6095,36.8198,0,0,0,0,0,0,0,-1,1700,1576,21.6095,-36.8198
483,-552,21.8097,35.8605,0,0,0,0,0,0,0,-1,1707,1576,21.8097,-35.8605
490,-552,21.7959,35.207,0.00688221,0.00921913,-0.00590056,0.0140658,0.00203552,-0.883146,0.00877773,0.0151495,1714,1576,21.7959,-35.2071
497,-552,21.88,34.5311,0.00534288,0.00677141,-0.00442162,0.0105361,0.00157821,-0.865476,0.00656156,0.0216802,1721,1576,21.88,-34.5311
504,-552,21.8099,33.8922,0.00405107,0.00470173,-0.00322903,0.00762177,0.00113103,-0.835604,0.00474928,0.0238164,1728,1576,21.81,-33.8922
511,-552,21.7404,33.2073,0.00296757,0.00336101,-0.0023157,0.00548833,0.000840247,-0.827772,0.00341345,0.0179372,1735,1576,21.7403,-33.2072
518,-552,21.7036,32.5244,0.00196288,0.00211528,-0.00144335,0.00348444,0.000593721,-0.81177,0.00215252,0.0162002,1742,1576,21.7036,-32.5244
525,-552,21.6344,31.8616,0.00115786,0.00132632,-0.000800015,0.00204653,0.000437656,-0.837846,0.00124439,0.0160745,1749,1576,21.6344,-31.8615
532,-552,21.6193,31.177,0.000556717,0.000559466,-0.000156713,0.000714811,0.000401373,-0.789784,0.000413736,0.0156733,1756,1576,21.6192,-31.177
539,-552,21.6012,30.5035,0.000136486,-4.11078e-05,0.000464796,0.000520891,-0.000425513,0.691013,0.000547331,0.0185948,1763,1576,21.6011,-30.5035
546,-552,21.5273,29.8199,-0.000124437,-0.000772406,0.00116382,0.000759657,-0.0016565,0.649646,0.00142664,0.0229484,1770,1576,21.5273,-29.8199
553,-552,21.5293,29.0731,-0.000243013,-0.00144068,0.0019181,0.00116756,-0.00285125,0.634092,0.00238717,0.0279049,1777,1576,21.5293,-29.0731
560,-552,21.5934,28.1617,0,0,0,0,0,0,0,-1,1784,1576,21.5933,-28.1618
567,-552,20.6783,26.0908,0,0,0,0,0,0,0,-1,1791,1576,20.6784,-26.0908
574,-552,12.8835,14.8463,0,0,0,0,0,0,0,-1,1798,1576,12.8836,-14.8463
581,-552,9.74841,9.98645,0,0,0,0,0,0,0,-1,1805,1576,9.74847,-9.9864
588,-552,10.5619,9.34924,0,0,0,0,0,0,0,-1,1812,1576,10.5619,-9.34921
595,-552,5.36194,6.62744,0,0,0,0,0,0,0,-1,1819,1576,5.36193,-6.62742
602,-552,10.6863,4.31616,0,0,0,0,0,0,0,-1,1826,1576,10.6862,-4.31619
609,-552,12.146,3.18286,0,0,0,0,0,0,0,-1,1833,1576,12.1459,-3.18281
616,-552,13.8762,2.08167,0,0,0,0,0,0,0,-1,1840,1576,13.8763,-2.08167
623,-552,0,0,0,0,0,0,0,0,0,-1,1847,1576,0,0
630,-552,0,0,0,0,0,0,0,0,0,-1,1854,1576,0,0
637,-552,0,0,0,0,0,0,0,0,0,-1,1861,1576,0,0
644,-552,0,0,0,0,0,0,0,0,0,-1,1868,1576,0,0
651,-552,0,0,0,0,0,0,0,0,0,-1,1875,1576,0,0
658,-552,0,0,0,0,0,0,0,0,0,-1,1882,1576,0,0
665,-552,0,0,0,0,0,0,0,0,0,-1,1889,1576,0,0
672,-552,0,0,0,0,0,0,0,0,0,-1,1896,1576,0,0
679,-552,0,0,0,0,0,0,0,0,0,-1,1903,1576,0,0
686,-552,0,0,0,0,0,0,0,0,0,-1,1910,1576,0,0
693,-552,0,0,0,0,0,0,0,0,0,-1,1917,1576,0,0
700,-552,0,0,0,0,0,0,0,0,0,-1,1924,1576,0,0
707,-552,0,0,0,0,0,0,0,0,0,-1,1931,1576,0,0
714,-552,0,0,0,0,0,0,0,0,0,-1,1938,1576,0,0
721,-552,0,0,0,0,0,0,0,0,0,-1,1945,1576,0,0
728,-552,0,0,0,0,0,0,0,0,0,-1,1952,1576,0,0
735,-552,0,0,0,0,0,0,0,0,0,-1,1959,1576,0,0
742,-552,0,0,0,0,0,0,0,0,0,-1,1966,1576,0,0
749,-552,0,0,0,0,0,0,0,0,0,-1,1973,1576,0,0
756,-552,0,0,0,0,0,0,0,0,0,-1,1980,1576,0,0
763,-552,0,0,0,0,0,0,0,0,0,-1,1987,1576,0,0
770,-552,0,0,0,0,0,0,0,0,0,-1,1994,1576,0,0
777,-552,0,0,0,0,0,0,0,0,0,-1,2001,1576,0,0
784,-552,0,0,0,0,0,0,0,0,0,-1,2008,1576,0,0
791,-552,0,0,0,0,0,0,0,0,0,-1,2015,1576,0,0
798,-552,0,0,0,0,0,0,0,0,0,-1,2022,1576,0,0
805,-552,0,0,0,0,0,0,0,0,0,-1,2029,1576,0,0
812,-552,0,0,0,0,0,0,0,0,0,-1,2036,1576,0,0
-700,-559,0,0,0,0,0,0,0,0,0,-1,524,1583,0,0
-693,-559,0,0,0,0,0,0,0,0,0,-1,531,1583,0,0
-686,-559,0,0,0,0,0,0,0,0,0,-1,538,1583,0,0
-679,-559,0,0,0,0,0,0,0,0,0,-1,545,1583,0,0
-672,-559,0,0,0,0,0,0,0,0,0,-1,552,1583,0,0
-665,-559,0,0,0,0,0,0,0,0,0,-1,559,1583,0,0
-658,-559,0,0,0,0,0,0,0,0,0,-1,566,1583,0,0
-651,-559,0,0,0,0,0,0,0,0,0,-1,573,1583,0,0
-644,-559,0,0,0,0,0,0,0,0,0,-1,580,1583,0,0
-637,-559,0,0,0,0,0,0,0,0,0,-1,587,1583,0,0
-630,-559,0,0,0,0,0,0,0,0,0,-1,594,1583,0,0
-623,-559,0,0,0,0,0,0,0,0,0,-1,601,1583,0,0
-616,-559,0,0,0,0,0,0,0,0,0,-1,608,1583,0,0
-609,-559,0,0,0,0,0,0,0,0,0,-1,615,1583,0,0
-602,-559,0,0,0,0,0,0,0,0,0,-1,622,1583,0,0
-595,-559,0,0,0,0,0,0,0,0,0,-1,629,1583,0,0
-588,-559,0,0,0,0,0,0,0,0,0,-1,636,1583,0,0
-581,-559,0,0,0,0,0,0,0,0,0,-1,643,1583,0,0
-574,-559,0,0,0,0,0,0,0,0,0,-1,650,1583,0,0
-567,-559,0,0,0,0,0,0,0,0,0,-1,657,1583,0,0
-560,-559,0,0,0,0,0,0,0,0,0,-1,664,1583,0,0
-553,-559,0,0,0,0,0,0,0,0,0,-1,671,1583,0,0
-546,-559,0,0,0,0,0,0,0,0,0,-1,678,1583,0,0
-539,-559,0,0,0,0,0,0,0,0,0,-1,685,1583,0,0
-532,-559,0,0,0,0,0,0,0,0,0,-1,692,1583,0,0
-525,-559,0,0,0,0,0,0,0,0,0,-1,699,1583,0,0
-518,-559,0,0,0,0,0,0,0,0,0,-1,706,1583,0,0
-511,-559,0,0,0,0,0,0,0,0,0,-1,713,1583,0,0
-504,-559,0,0,0,0,0,0,0,0,0,-1,720,1583,0,0
-497,-559,0,0,0,0,0,0,0,0,0,-1,727,1583,0,0
-490,-559,-5.49835,4.47424,0,0,0,0,0,0,0,-1,734,1583,-5.49833,-4.4743
-483,-559,-5.24078,4.74561,0,0,0,0,0,0,0,-1,741,1583,-5.24079,-4.74563
-476,-559,-4.98022,4.99316,0,0,0,0,0,0,0,-1,748,1583,-4.98024,-4.99321
-469,-559,-4.6424,5.38062,0,0,0,0,0,0,0,-1,755,1583,-4.64237,-5.38058
-462,-559,-0.161865,6.49438,0,0,0,0,0,0,0,-1,762,1583,-0.161835,-6.49444
-455,-559,1.08826,7.02527,0,0,0,0,0,0,0,-1,769,1583,1.08823,-7.02529
-448,-559,-2.86023,20.0852,0,0,0,0,0,0,0,-1,776,1583,-2.86025,-20.0852
-441,-559,-1.60327,27.2687,0,0,0,0,0,0,0,-1,783,1583,-1.60325,-27.2686
-434,-559,-2.41345,27.7341,0,0,0,0,0,0,0,-1,790,1583,-2.41347,-27.7342
-427,-559,-2.87897,28.2942,0,0,0,0,0,0,0,-1,797,1583,-2.87899,-28.2942
-420,-559,-3.06171,28.7372,0,0,0,0,0,0,0,-1,804,1583,-3.06168,-28.7372
-413,-559,-3.12378,29.5594,0.00201543,-0.0020703,0.000167616,0.00202229,-0.00207717,0.040933,0.0023669,0.0178252,811,1583,-3.12378,-29.5594
-406,-559,-3.16827,30.2939,0.000271248,-0.00126496,0.000609422,0.000483643,-0.00147735,0.335355,0.00117964,0.0101238,818,1583,-3.16826,-30.2939
-399,-559,-3.18768,31.0093,0.000456183,-0.000843445,0.000613946,0.000700343,-0.0010876,0.378512,0.00104031,0.0141096,825,1583,-3.18766,-31.0093
-392,-559,-3.21136,31.7152,0.000696836,-0.000294987,0.000678726,0.00104152,-0.000639669,0.469897,0.000979833,0.0175938,832,1583,-3.21135,-31.7152
-385,-559,-3.25763,32.403,0.000941675,0.000377201,0.000751044,0.00146176,-0.000142887,0.605665,0.00102546,0.0163529,839,1583,-3.25765,-32.4029
-378,-559,-3.30316,33.099,0.00121713,0.000978476,0.000811957,0.00191848,0.000277126,0.712438,0.00119735,0.0148904,846,1583,-3.30315,-33.099
-371,-559,-3.33228,33.824,0.00159296,0.00161175,0.000895344,0.00249775,0.000706962,0.790647,0.00148664,0.0222472,853,1583,-3.33229,-33.824
-364,-559,-3.33673,34.5084,0.0021556,0.00251248,0.00115514,0.00350287,0.0011652,0.86203,0.0020598,0.0199264,860,1583,-3.33673,-34.5085
-357,-559,-3.36395,35.1851,0.00276016,0.00352208,0.00144667,0.00463711,0.00164513,0.914143,0.00271462,0.0124997,867,1583,-3.36394,-35.1851
-350,-559,-3.40063,35.8738,0.00352937,0.00463501,0.00183265,0.0059964,0.00216798,0.931883,0.00350599,0.0103643,874,1583,-3.40062,-35.8738
-343,-559,-3.44073,36.5728,0.00446665,0.00588004,0.00236282,0.00763959,0.00270711,0.930708,0.00447266,0.0113312,881,1583,-3.44071,-36.5728
-336,-559,-3.50586,37.2445,0.00569754,0.00751296,0.00318991,0.0099218,0.0032887,0.924012,0.00583582,0.0298197,888,1583,-3.50586,-37.2445
-329,-559,-3.19458,38.1469,0,0,0,0,0,0,0,-1,895,1583,-3.19456,-38.1468
-322,-559,-3.07751,39.0713,0,0,0,0,0,0,0,-1,902,1583,-3.07751,-39.0713
-315,-559,-0.659607,29.1698,0,0,0,0,0,0,0,-1,909,1583,-0.659577,-29.1698
-308,-559,-0.755493,30.4624,0,0,0,0,0,0,0,-1,916,1583,-0.755509,-30.4625
-301,-559,-1.22174,31.0372,0,0,0,0,0,0,0,-1,923,1583,-1.22176,-31.0372
-294,-559,0.945129,18.5165,0,0,0,0,0,0,0,-1,930,1583,0.945117,-18.5165
-287,-559,-0.11792,15.4912,0,0,0,0,0,0,0,-1,937,1583,-0.117939,-15.4912
-280,-559,0.191467,13.5093,0,0,0,0,0,0,0,-1,944,1583,0.191441,-13.5093
-273,-559,2.12836,10.3059,0,0,0,0,0,0,0,-1,951,1583,2.12839,-10.3059
-266,-559,-0.597046,6.68933,0,0,0,0,0,0,0,-1,958,1583,-0.597031,-6.68937
-259,-559,-7.00311,8.62756,0,0,0,0,0,0,0,-1,965,1583,-7.00312,-8.6275
-252,-559,-9.4483,2.87805,0,0,0,0,0,0,0,-1,972,1583,-9.44829,-2.87805
-245,-559,-4.80804,7.1803,0,0,0,0,0,0,0,-1,979,1583,-4.80804,-7.18027
-238,-559,-8.45764,2.54858,0,0,0,0,0,0,0,-1,986,1583,-8.45763,-2.54862
-231,-559,-5.86914,4.34021,0,0,0,0,0,0,0,-1,993,1583,-5.86914,-4.34019
-224,-559,-3.30505,6.22864,0,0,0,0,0,0,0,-1,1000,1583,-3.30505,-6.22859
-217,-559,0,0,0,0,0,0,0,0,0,-1,1007,1583,0,0
-210,-559,0,0,0,0,0,0,0,0,0,-1,1014,1583,0,0
-203,-559,0,0,0,0,0,0,0,0,0,-1,1021,1583,0,0
-196,-559,0,0,0,0,0,0,0,0,0,-1,1028,1583,0,0
-189,-559,0,0,0,0,0,0,0,0,0,-1,1035,1583,0,0
-182,-559,0,0,0,0,0,0,0,0,0,-1,1042,1583,0,0
-175,-559,0,0,0,0,0,0,0,0,0,-1,1049,1583,0,0
-168,-559,0,0,0,0,0,0,0,0,0,-1,1056,1583,0,0
-161,-559,0,0,0,0,0,0,0,0,0,-1,1063,1583,0,0
-154,-559,0,0,0,0,0,0,0,0,0,-1,1070,1583,0,0
-147,-559,0,0,0,0,0,0,0,0,0,-1,1077,1583,0,0
-140,-559,0,0,0,0,0,0,0,0,0,-1,1084,1583,0,0
-133,-559,0,0,0,0,0,0,0,0,0,-1,1091,1583,0,0
-126,-559,0,0,0,0,0,0,0,0,0,-1,1098,1583,0,0
-119,-559,0,0,0,0,0,0,0,0,0,-1,1105,1583,0,0
-112,-559,0,0,0,0,0,0,0,0,0,-1,1112,1583,0,0
-105,-559,0,0,0,0,0,0,0,0,0,-1,1119,1583,0,0
-98,-559,0,0,0,0,0,0,0,0,0,-1,1126,1583,0,0
-91,-559,0,0,0,0,0,0,0,0,0,-1,1133,1583,0,0
-84,-559,0,0,0,0,0,0,0,0,0,-1,1140,1583,0,0
-77,-559,0,0,0,0,0,0,0,0,0,-1,1147,1583,0,0
-70,-559,0,0,0,0,0,0,0,0,0,-1,1154,1583,0,0
-63,-559,0,0,0,0,0,0,0,0,0,-1,1161,1583,0,0
-56,-559,0,0,0,0,0,0,0,0,0,-1,1168,1583,0,0
-49,-559,0,0,0,0,0,0,0,0,0,-1,1175,1583,0,0
-42,-559,0,0,0,0,0,0,0,0,0,-1,1182,1583,0,0
-35,-559,0,0,0,0,0,0,0,0,0,-1,1189,1583,0,0
-28,-559,0,0,0,0,0,0,0,0,0,-1,1196,1583,0,0
-21,-559,0,0,0,0,0,0,0,0,0,-1,1203,1583,0,0
-14,-559,0,0,0,0,0,0,0,0,0,-1,1210,1583,0,0
-7,-559,0,0,0,0,0,0,0,0,0,-1,1217,1583,0,0
0,-559,0,0,0,0,0,0,0,0,0,-1,1224,1583,0,0
7,-559,0,0,0,0,0,0,0,0,0,-1,1231,1583,0,0
14,-559,0,0,0,0,0,0,0,0,0,-1,1238,1583,0,0
21,-559,0,0,0,0,0,0,0,0,0,-1,1245,1583,0,0
28,-559,0,0,0,0,0,0,0,0,0,-1,1252,1583,0,0
35,-559,0,0,0,0,0,0,0,0,0,-1,1259,1583,0,0
42,-559,0,0,0,0,0,0,0,0,0,-1,1266,1583,0,0
49,-559,0,0,0,0,0,0,0,0,0,-1,1273,1583,0,0
56,-559,0,0,0,0,0,0,0,0,0,-1,1280,1583,0,0
63,-559,0,0,0,0,0,0,0,0,0,-1,1287,1583,0,0
70,-559,0,0,0,0,0,0,0,0,0,-1,1294,1583,0,0
77,-559,0,0,0,0,0,0,0,0,0,-1,1301,1583,0,0
84,-559,0,0,0,0,0,0,0,0,0,-1,1308,1583,0,0
91,-559,0,0,0,0,0,0,0,0,0,-1,1315,1583,0,0
98,-559,0,0,0,0,0,0,0,0,0,-1,1322,1583,0,0
105,-559,0,0,0,0,0,0,0,0,0,-1,1329,1583,0,0
112,-559,0,0,0,0,0,0,0,0,0,-1,1336,1583,0,0
119,-559,0,0,0,0,0,0,0,0,0,-1,1343,1583,0,0
126,-559,0,0,0,0,0,0,0,0,0,-1,1350,1583,0,0
133,-559,0,0,0,0,0,0,0,0,0,-1,1357,1583,0,0
140,-559,0,0,0,0,0,0,0,0,0,-1,1364,1583,0,0
147,-559,0,0,0,0,0,0,0,0,0,-1,1371,1583,0,0
154,-559,0,0,0,0,0,0,0,0,0,-1,1378,1583,0,0
161,-559,0,0,0,0,0,0,0,0,0,-1,1385,1583,0,0
168,-559,0,0,0,0,0,0,0,0,0,-1,1392,1583,0,0
175,-559,0,0,0,0,0,0,0,0,0,-1,1399,1583,0,0
182,-559,0,0,0,0,0,0,0,0,0,-1,1406,1583,0,0
189,-559,0,0,0,0,0,0,0,0,0,-1,1413,1583,0,0
196,-559,0,0,0,0,0,0,0,0,0,-1,1420,1583,0,0
203,-559,0,0,0,0,0,0,0,0,0,-1,1427,1583,0,0
210,-559,0,0,0,0,0,0,0,0,0,-1,1434,1583,0,0
217,-559,0,0,0,0,0,0,0,0,0,-1,1441,1583,0,0
224,-559,0,0,0,0,0,0,0,0,0,-1,1448,1583,0,0
231,-559,0,0,0,0,0,0,0,0,0,-1,1455,1583,0,0
238,-559,0,0,0,0,0,0,0,0,0,-1,1462,1583,0,0
245,-559,0,0,0,0,0,0,0,0,0,-1,1469,1583,0,0
252,-559,0,0,0,0,0,0,0,0,0,-1,1476,1583,0,0
259,-559,0,0,0,0,0,0,0,0,0,-1,1483,1583,0,0
266,-559,0,0,0,0,0,0,0,0,0,-1,1490,1583,0,0
273,-559,0,0,0,0,0,0,0,0,0,-1,1497,1583,0,0
280,-559,0,0,0,0,0,0,0,0,0,-1,1504,1583,0,0
287,-559,0,0,0,0,0,0,0,0,0,-1,1511,1583,0,0
294,-559,0,0,0,0,0,0,0,0,0,-1,1518,1583,0,0
301,-559,0,0,0,0,0,0,0,0,0,-1,1525,1583,0,0
308,-559,0,0,0,0,0,0,0,0,0,-1,1532,1583,0,0
315,-559,0,0,0,0,0,0,0,0,0,-1,1539,1583,0,0
322,-559,0,0,0,0,0,0,0,0,0,-1,1546,1583,0,0
329,-559,0,0,0,0,0,0,0,0,0,-1,1553,1583,0,0
336,-559,5.97668,3.09827,0,0,0,0,0,0,0,-1,1560,1583,5.97667,-3.09824
343,-559,5.44824,2.88696,0,0,0,0,0,0,0,-1,1567,1583,5.44819,-2.88693
350,-559,4.69775,3.27051,0,0,0,0,0,0,0,-1,1574,1583,4.69771,-3.27048
357,-559,3.88025,3.60999,0,0,0,0,0,0,0,-1,1581,1583,3.88027,-3.60998
364,-559,5.00928,5.32605,0,0,0,0,0,0,0,-1,1588,1583,5.00928,-5.32607
371,-559,1.84436,2.52441,0,0,0,0,0,0,0,-1,1595,1583,1.84441,-2.52447
378,-559,6.34753,1.53137,0,0,0,0,0,0,0,-1,1602,1583,6.34752,-1.53139
385,-559,6.95911,1.48181,0,0,0,0,0,0,0,-1,1609,1583,6.95916,-1.48175
392,-559,11.6949,4.77734,0,0,0,0,0,0,0,-1,1616,1583,11.6949,-4.77731
399,-559,11.1104,5.56909,0,0,0,0,0,0,0,-1,1623,1583,11.1103,-5.56905
406,-559,10.3385,6.48657,0,0,0,0,0,0,0,-1,1630,1583,10.3385,-6.48661
413,-559,9.76147,6.97571,0,0,0,0,0,0,0,-1,1637,1583,9.76143,-6.97574
420,-559,7.77124,10.5851,0,0,0,0,0,0,0,-1,1644,1583,7.77128,-10.585
427,-559,10.1022,12.5565,0,0,0,0,0,0,0,-1,1651,1583,10.1021,-12.5565
434,-559,9.62769,14.6309,0,0,0,0,0,0,0,-1,1658,1583,9.62771,-14.6309
441,-559,12.6149,21.3678,0,0,0,0,0,0,0,-1,1665,1583,12.6149,-21.3678
448,-559,13.7046,22.6677,0,0,0,0,0,0,0,-1,1672,1583,13.7046,-22.6677
455,-559,13.9427,23.0509,0,0,0,0,0,0,0,-1,1679,1583,13.9427,-23.0509
462,-559,20.7616,38.6654,0,0,0,0,0,0,0,-1,1686,1583,20.7616,-38.6654
469,-559,20.7495,37.6621,0,0,0,0,0,0,0,-1,1693,1583,20.7495,-37.6621
476,-559,21.0747,36.6833,0.00817544,0.0131439,-0.00775394,0.0188018,0.00251749,-0.940423,0.0117854,0.0269845,1700,1583,21.0746,-36.6833
483,-559,21.1514,35.8894,0.00669538,0.0100489,-0.00606514,0.0146648,0.00207949,-0.920259,0.00916237,0.0140311,1707,1583,21.1514,-35.8894
490,-559,21.136,35.2169,0.0052934,0.00740198,-0.00459881,0.0110658,0.00162958,-0.898078,0.00689847,0.0155555,1714,1583,21.136,-35.2169
497,-559,21.1388,34.5796,0.00401389,0.00535821,-0.00342113,0.00817258,0.00119951,-0.882399,0.00509583,0.0177677,1721,1583,21.1388,-34.5796
504,-559,21.0717,33.9269,0.00293343,0.0035343,-0.00244159,0.00569387,0.000773859,-0.846615,0.00356606,0.0241146,1728,1583,21.0717,-33.9269
511,-559,21.0259,33.2401,0.00198488,0.00234983,-0.001613,0.00379064,0.000544062,-0.841723,0.00236668,0.0230728,1735,1583,21.0259,-33.2402
518,-559,21.0304,32.5613,0.00110903,0.00127743,-0.000858275,0.00205562,0.000330833,-0.834292,0.00127453,0.0149639,1742,1583,21.0303,-32.5612
525,-559,20.9894,31.8953,0.000405325,0.000571342,-0.000271474,0.000772216,0.000204452,-0.933769,0.000461994,0.0136074,1749,1583,20.9894,-31.8953
532,-559,20.9534,31.22,-0.000103551,-0.000138576,0.000345806,0.000225186,-0.000467312,0.760099,0.000407879,0.0141646,1756,1583,20.9534,-31.22
539,-559,20.9401,30.5424,-0.00047636,-0.000737702,0.000990023,0.000391578,-0.00160564,0.719783,0.00122205,0.0181595,1763,1583,20.9401,-30.5423
546,-559,20.8569,29.8447,-0.000695983,-0.00148306,0.00177463,0.000728214,-0.00290726,0.676284,0.00222107,0.0177886,1770,1583,20.8569,-29.8447
553,-559,20.9137,29.0959,-0.000828471,-0.0022458,0.0026882,0.00124291,-0.00431718,0.65652,0.00336971,0.0244439,1777,1583,20.9137,-29.096
560,-559,20.9156,28.652,-0.000766433,-0.00289361,0.0035882,0.00191249,-0.00557254,0.641317,0.00449039,0.0472933,1784,1583,20.9156,-28.652
567,-559,20.9063,27.8348,0,0,0,0,0,0,0,-1,1791,1583,20.9063,-27.8348
574,-559,10.5109,10.7317,0,0,0,0,0,0,0,-1,1798,1583,10.5108,-10.7317
581,-559,5.97095,5.96179,0,0,0,0,0,0,0,-1,1805,1583,5.97093,-5.96181
588,-559,5.79102,5.89954,0,0,0,0,0,0,0,-1,1812,1583,5.79098,-5.89949
595,-559,5.79089,6.24231,0,0,0,0,0,0,0,-1,1819,1583,5.7909,-6.24227
602,-559,12.478,2.35669,0,0,0,0,0,0,0,-1,1826,1583,12.4781,-2.35675
609,-559,14.0479,1.22681,0,0,0,0,0,0,0,-1,1833,1583,14.0479,-1.22681
616,-559,0,0,0,0,0,0,0,0,0,-1,1840,1583,0,0
623,-559,0,0,0,0,0,0,0,0,0,-1,1847,1583,0,0
630,-559,0,0,0,0,0,0,0,0,0,-1,1854,1583,0,0
637,-559,0,0,0,0,0,0,0,0,0,-1,1861,1583,0,0
644,-559,0,0,0,0,0,0,0,0,0,-1,1868,1583,0,0
651,-559,0,0,0,0,0,0,0,0,0,-1,1875,1583,0,0
658,-559,0,0,0,0,0,0,0,0,0,-1,1882,1583,0,0
665,-559,0,0,0,0,0,0,0,0,0,-1,1889,1583,0,0
672,-559,0,0,0,0,0,0,0,0,0,-1,1896,1583,0,0
679,-559,0,0,0,0,0,0,0,0,0,-1,1903,1583,0,0
686,-559,0,0,0,0,0,0,0,0,0,-1,1910,1583,0,0
693,-559,0,0,0,0,0,0,0,0,0,-1,1917,1583,0,0
700,-559,0,0,0,0,0,0,0,0,0,-1,1924,1583,0,0
707,-559,0,0,0,0,0,0,0,0,0,-1,1931,1583,0,0
714,-559,0,0,0,0,0,0,0,0,0,-1,1938,1583,0,0
721,-559,0,0,0,0,0,0,0,0,0,-1,1945,1583,0,0
728,-559,0,0,0,0,0,0,0,0,0,-1,1952,1583,0,0
735,-559,0,0,0,0,0,0,0,0,0,-1,1959,1583,0,0
742,-559,0,0,0,0,0,0,0,0,0,-1,1966,1583,0,0
749,-559,0,0,0,0,0,0,0,0,0,-1,1973,1583,0,0
756,-559,0,0,0,0,0,0,0,0,0,-1,1980,1583,0,0
763,-559,0,0,0,0,0,0,0,0,0,-1,1987,1583,0,0
770,-559,0,0,0,0,0,0,0,0,0,-1,1994,1583,0,0
777,-559,0,0,0,0,0,0,0,0,0,-1,2001,1583,0,0
784,-559,0,0,0,0,0,0,0,0,0,-1,2008,1583,0,0
791,-559,0,0,0,0,0,0,0,0,0,-1,2015,1583,0,0
798,-559,0,0,0,0,0,0,0,0,0,-1,2022,1583,0,0
805,-559,0,0,0,0,0,0,0,0,0,-1,2029,1583,0,0
812,-559,0,0,0,0,0,0,0,0,0,-1,2036,1583,0,0
-700,-566,0,0,0,0,0,0,0,0,0,-1,524,1590,0,0
-693,-566,0,0,0,0,0,0,0,0,0,-1,531,1590,0,0
-686,-566,0,0,0,0,0,0,0,0,0,-1,538,1590,0,0
-679,-566,0,0,0,0,0,0,0,0,0,-1,545,1590,0,0
-672,-566,0,0,0,0,0,0,0,0,0,-1,552,1590,0,0
-665,-566,0,0,0,0,0,0,0,0,0,-1,559,1590,0,0
-658,-566,0,0,0,0,0,0,0,0,0,-1,566,1590,0,0
-651,-566,0,0,0,0,0,0,0,0,0,-1,573,1590,0,0
-644,-566,0,0,0,0,0,0,0,0,0,-1,580,1590,0,0
-637,-566,0,0,0,0,0,0,0,0,0,-1,587,1590,0,0
-630,-566,0,0,0,0,0,0,0,0,0,-1,594,1590,0,0
-623,-566,0,0,0,0,0,0,0,0,0,-1,601,1590,0,0
-616,-566,0,0,0,0,0,0,0,0,0,-1,608,1590,0,0
-609,-566,0,0,0,0,0,0,0,0,0,-1,615,1590,0,0
-602,-566,0,0,0,0,0,0,0,0,0,-1,622,1590,0,0
-595,-566,0,0,0,0,0,0,0,0,0,-1,629,1590,0,0
-588,-566,0,0,0,0,0,0,0,0,0,-1,636,1590,0,0
-581,-566,0,0,0,0,0,0,0,0,0,-1,643,1590,0,0
-574,-566,0,0,0,0,0,0,0,0,0,-1,650,1590,0,0
-567,-566,0,0,0,0,0,0,0,0,0,-1,657,1590,0,0
-560,-566,0,0,0,0,0,0,0,0,0,-1,664,1590,0,0
-553,-566,0,0,0,0,0,0,0,0,0,-1,671,1590,0,0
-546,-566,0,0,0,0,0,0,0,0,0,-1,678,1590,0,0
-539,-566,0,0,0,0,0,0,0,0,0,-1,685,1590,0,0
-532,-566,0,0,0,0,0,0,0,0,0,-1,692,1590,0,0
-525,-566,0,0,0,0,0,0,0,0,0,-1,699,1590,0,0
-518,-566,0,0,0,0,0,0,0,0,0,-1,706,1590,0,0
-511,-566,0,0,0,0,0,0,0,0,0,-1,713,1590,0,0
-504,-566,0,0,0,0,0,0,0,0,0,-1,720,1590,0,0
-497,-566,0,0,0,0,0,0,0,0,0,-1,727,1590,0,0
-490,-566,0,0,0,0,0,0,0,0,0,-1,734,1590,0,0
-483,-566,-7.17084,2.78613,0,0,0,0,0,0,0,-1,741,1590,-7.17083,-2.78618
-476,-566,-7.13971,2.87183,0,0,0,0,0,0,0,-1,748,1590,-7.13971,-2.87184
-469,-566,-6.43829,3.2998,0,0,0,0,0,0,0,-1,755,1590,-6.43829,-3.2998
-462,-566,-0.459106,3.89343,0,0,0,0,0,0,0,-1,762,1590,-0.459095,-3.89341
-455,-566,0.280212,4.74023,0,0,0,0,0,0,0,-1,769,1590,0.280207,-4.74023
-448,-566,0.436951,5.51306,0,0,0,0,0,0,0,-1,776,1590,0.436971,-5.51301
-441,-566,-0.440735,12.4063,0,0,0,0,0,0,0,-1,783,1590,-0.440753,-12.4062
-434,-566,-1.62482,27.9781,0,0,0,0,0,0,0,-1,790,1590,-1.62481,-27.9781
-427,-566,-2.18817,29.0374,0,0,0,0,0,0,0,-1,797,1590,-2.18819,-29.0374
-420,-566,-2.53912,28.7439,0,0,0,0,0,0,0,-1,804,1590,-2.53914,-28.7439
-413,-566,-2.4361,29.577,0.00206518,-0.00248931,0.000577663,0.0021373,-0.00256143,0.124214,0.0027165,0.0346353,811,1590,-2.43609,-29.5771
-406,-566,-2.46448,30.3191,0.000192451,-0.00193755,0.000894834,0.000518478,-0.00226357,0.349395,0.0017083,0.0150012,818,1590,-2.46449,-30.3191
-399,-566,-2.48737,31.0526,0.000308436,-0.00173421,0.000775781,0.000569664,-0.00199544,0.324803,0.00155535,0.0117021,825,1590,-2.48738,-31.0526
-392,-566,-2.51105,31.7577,0.000514413,-0.00129115,0.000786452,0.000808929,-0.00158566,0.358321,0.00140655,0.014777,832,1590,-2.51105,-31.7577
-385,-566,-2.54224,32.4603,0.000701922,-0.000687273,0.000807358,0.00107236,-0.00105771,0.430167,0.0012298,0.0163486,839,1590,-2.54225,-32.4603
-378,-566,-2.59583,33.1644,0.000886088,-0.000105374,0.000821414,0.00134977,-0.000569054,0.5139,0.00113799,0.0159122,846,1590,-2.59585,-33.1645
-371,-566,-2.65869,33.8673,0.00117292,0.000487454,0.000833034,0.00173097,-7.05963e-05,0.590239,0.00117822,0.022691,853,1590,-2.65871,-33.8673
-364,-566,-2.65436,34.5549,0.00161818,0.00131966,0.00100317,0.00248313,0.000454709,0.711548,0.00152659,0.0233058,860,1590,-2.65438,-34.555
-357,-566,-2.64777,35.2346,0.00210914,0.00225972,0.00120009,0.00338688,0.000981977,0.816726,0.00201212,0.0188948,867,1590,-2.64775,-35.2346
-350,-566,-2.7016,35.9175,0.00275941,0.00326441,0.00145955,0.00449314,0.00153068,0.871049,0.00263765,0.0211814,874,1590,-2.70158,-35.9175
-343,-566,-2.76587,36.552,0.0035424,0.00444055,0.00185849,0.00590346,0.0020795,0.903943,0.00345761,0.0255022,881,1590,-2.76589,-36.552
-336,-566,-2.867,37.2637,0.00459758,0.00592112,0.00252854,0.00787306,0.00264564,0.913388,0.00462626,0.0316274,888,1590,-2.86698,-37.2637
-329,-566,-2.78351,37.8456,0.0061336,0.00823022,0.00380566,0.0111293,0.0032345,0.919795,0.00661063,0.0290004,895,1590,-2.7835,-37.8456
-322,-566,-2.65442,38.7181,0,0,0,0,0,0,0,-1,902,1590,-2.65445,-38.7182
-315,-566,-2.39484,39.5417,0,0,0,0,0,0,0,-1,909,1590,-2.39483,-39.5418
-308,-566,-0.127258,29.7607,0,0,0,0,0,0,0,-1,916,1590,-0.12725,-29.7608
-301,-566,0.424011,30.6545,0,0,0,0,0,0,0,-1,923,1590,0.424036,-30.6546
-294,-566,-2.56561,41.4967,0,0,0,0,0,0,0,-1,930,1590,-2.56559,-41.4967
-287,-566,1.25391,23.4589,0,0,0,0,0,0,0,-1,937,1590,1.2539,-23.4589
-280,-566,1.59406,17.8762,0,0,0,0,0,0,0,-1,944,1590,1.59405,-17.8762
-273,-566,0.49762,11.2427,0,0,0,0,0,0,0,-1,951,1590,0.497591,-11.2426
-266,-566,0.392151,6.90295,0,0,0,0,0,0,0,-1,958,1590,0.392151,-6.90294
-259,-566,0.343628,6.47437,0,0,0,0,0,0,0,-1,965,1590,0.34363,-6.47438
-252,-566,-7.68311,1.01343,0,0,0,0,0,0,0,-1,972,1590,-7.68308,-1.01348
-245,-566,-11.1835,1.97522,0,0,0,0,0,0,0,-1,979,1590,-11.1835,-1.97527
-238,-566,-10.4883,2.40491,0,0,0,0,0,0,0,-1,986,1590,-10.4883,-2.40487
-231,-566,-7.41827,4.22803,0,0,0,0,0,0,0,-1,993,1590,-7.41827,-4.22803
-224,-566,-4.67188,6.30859,0,0,0,0,0,0,0,-1,1000,1590,-4.67185,-6.30853
-217,-566,-2.82867,7.52527,0,0,0,0,0,0,0,-1,1007,1590,-2.82869,-7.52531
-210,-566,-1.03436,8.67737,0,0,0,0,0,0,0,-1,1014,1590,-1.03439,-8.67733
-203,-566,0,0,0,0,0,0,0,0,0,-1,1021,1590,0,0
-196,-566,0,0,0,0,0,0,0,0,0,-1,1028,1590,0,0
-189,-566,0,0,0,0,0,0,0,0,0,-1,1035,1590,0,0
-182,-566,0,0,0,0,0,0,0,0,0,-1,1042,1590,0,0
-175,-566,0,0,0,0,0,0,0,0,0,-1,1049,1590,0,0
-168,-566,0,0,0,0,0,0,0,0,0,-1,1056,1590,0,0
-161,-566,0,0,0,0,0,0,0,0,0,-1,1063,1590,0,0
-154,-566,0,0,0,0,0,0,0,0,0,-1,1070,1590,0,0
-147,-566,0,0,0,0,0,0,0,0,0,-1,1077,1590,0,0
-140,-566,0,0,0,0,0,0,0,0,0,-1,1084,1590,0,0
-133,-566,0,0,0,0,0,0,0,0,0,-1,1091,1590,0,0
-126,-566,0,0,0,0,0,0,0,0,0,-1,1098,1590,0,0
-119,-566,0,0,0,0,0,0,0,0,0,-1,1105,1590,0,0
-112,-566,0,0,0,0,0,0,0,0,0,-1,1112,1590,0,0
-105,-566,0,0,0,0,0,0,0,0,0,-1,1119,1590,0,0
-98,-566,0,0,0,0,0,0,0,0,0,-1,1126,1590,0,0
-91,-566,0,0,0,0,0,0,0,0,0,-1,1133,1590,0,0
-84,-566,0,0,0,0,0,0,0,0,0,-1,1140,1590,0,0
-77,-566,0,0,0,0,0,0,0,0,0,-1,1147,1590,0,0
-70,-566,0,0,0,0,0,0,0,0,0,-1,1154,1590,0,0
-63,-566,0,0,0,0,0,0,0,0,0,-1,1161,1590,0,0
-56,-566,0,0,0,0,0,0,0,0,0,-1,1168,1590,0,0
-49,-566,0,0,0,0,0,0,0,0,0,-1,1175,1590,0,0
-42,-566,0,0,0,0,0,0,0,0,0,-1,1182,1590,0,0
-35,-566,0,0,0,0,0,0,0,0,0,-1,1189,1590,0,0
-28,-566,0,0,0,0,0,0,0,0,0,-1,1196,1590,0,0
-21,-566,0,0,0,0,0,0,0,0,0,-1,1203,1590,0,0
-14,-566,0,0,0,0,0,0,0,0,0,-1,1210,1590,0,0
-7,-566,0,0,0,0,0,0,0,0,0,-1,1217,1590,0,0
0,-566,0,0,0,0,0,0,0,0,0,-1,1224,1590,0,0
7,-566,0,0,0,0,0,0,0,0,0,-1,1231,1590,0,0
14,-566,0,0,0,0,0,0,0,0,0,-1,1238,1590,0,0
21,-566,0,0,0,0,0,0,0,0,0,-1,1245,1590,0,0
28,-566,0,0,0,0,0,0,0,0,0,-1,1252,1590,0,0
35,-566,0,0,0,0,0,0,0,0,0,-1,1259,1590,0,0
42,-566,0,0,0,0,0,0,0,0,0,-1,1266,1590,0,0
49,-566,0,0,0,0,0,0,0,0,0,-1,1273,1590,0,0
56,-566,0,0,0,0,0,0,0,0,0,-1,1280,1590,0,0
63,-566,0,0,0,0,0,0,0,0,0,-1,1287,1590,0,0
70,-566,0,0,0,0,0,0,0,0,0,-1,1294,1590,0,0
77,-566,0,0,0,0,0,0,0,0,0,-1,1301,1590,0,0
84,-566,0,0,0,0,0,0,0,0,0,-1,1308,1590,0,0
91,-566,0,0,0,0,0,0,0,0,0,-1,1315,1590,0,0
98,-566,0,0,0,0,0,0,0,0,0,-1,1322,1590,0,0
105,-566,0,0,0,0,0,0,0,0,0,-1,1329,1590,0,0
112,-566,0,0,0,0,0,0,0,0,0,-1,1336,1590,0,0
119,-566,0,0,0,0,0,0,0,0,0,-1,1343,1590,0,0
126,-566,0,0,0,0,0,0,0,0,0,-1,1350,1590,0,0
133,-566,0,0,0,0,0,0,0,0,0,-1,1357,1590,0,0
140,-566,0,0,0,0,0,0,0,0,0,-1,1364,1590,0,0
147,-566,0,0,0,0,0,0,0,0,0,-1,1371,1590,0,0
154,-566,0,0,0,0,0,0,0,0,0,-1,1378,1590,0,0
161,-566,0,0,0,0,0,0,0,0,0,-1,1385,1590,0,0
168,-566,0,0,0,0,0,0,0,0,0,-1,1392,1590,0,0
175,-566,0,0,0,0,0,0,0,0,0,-1,1399,1590,0,0
182,-566,0,0,0,0,0,0,0,0,0,-1,1406,1590,0,0
189,-566,0,0,0,0,0,0,0,0,0,-1,1413,1590,0,0
196,-566,0,0,0,0,0,0,0,0,0,-1,1420,1590,0,0
203,-566,0,0,0,0,0,0,0,0,0,-1,1427,1590,0,0
210,-566,0,0,0,0,0,0,0,0,0,-1,1434,1590,0,0
217,-566,0,0,0,0,0,0,0,0,0,-1,1441,1590,0,0
224,-566,0,0,0,0,0,0,0,0,0,-1,1448,1590,0,0
231,-566,0,0,0,0,0,0,0,0,0,-1,1455,1590,0,0
238,-566,0,0,0,0,0,0,0,0,0,-1,1462,1590,0,0
245,-566,0,0,0,0,0,0,0,0,0,-1,1469,1590,0,0
252,-566,0,0,0,0,0,0,0,0,0,-1,1476,1590,0,0
259,-566,0,0,0,0,0,0,0,0,0,-1,1483,1590,0,0
266,-566,0,0,0,0,0,0,0,0,0,-1,1490,1590,0,0
273,-566,0,0,0,0,0,0,0,0,0,-1,1497,1590,0,0
280,-566,0,0,0,0,0,0,0,0,0,-1,1504,1590,0,0
287,-566,0,0,0,0,0,0,0,0,0,-1,1511,1590,0,0
294,-566,0,0,0,0,0,0,0,0,0,-1,1518,1590,0,0
301,-566,0,0,0,0,0,0,0,0,0,-1,1525,1590,0,0
308,-566,0,0,0,0,0,0,0,0,0,-1,1532,1590,0,0
315,-566,0,0,0,0,0,0,0,0,0,-1,1539,1590,0,0
322,-566,6.07983,4.44873,0,0,0,0,0,0,0,-1,1546,1590,6.07983,-4.44873
329,-566,5.77026,3.47534,0,0,0,0,0,0,0,-1,1553,1590,5.77026,-3.47535
336,-566,5.41138,2.62915,0,0,0,0,0,0,0,-1,1560,1590,5.41138,-2.62909
343,-566,4.81873,1.79089,0,0,0,0,0,0,0,-1,1567,1590,4.81878,-1.79095
350,-566,4.41663,2.44214,0,0,0,0,0,0,0,-1,1574,1590,4.41666,-2.44214
357,-566,6.34058,5.18579,0,0,0,0,0,0,0,-1,1581,1590,6.34059,-5.1858
364,-566,6.06262,4.20251,0,0,0,0,0,0,0,-1,1588,1590,6.06259,-4.20246
371,-566,5.78455,3.21912,0,0,0,0,0,0,0,-1,1595,1590,5.7846,-3.21912
378,-566,5.7439,0.695557,0,0,0,0,0,0,0,-1,1602,1590,5.74392,-0.695531
385,-566,5.67615,-0.573975,0,0,0,0,0,0,0,-1,1609,1590,5.67612,0.573956
392,-566,5.78638,1.82434,0,0,0,0,0,0,0,-1,1616,1590,5.78637,-1.82439
399,-566,18.6853,38.6455,0,0,0,0,0,0,0,-1,1623,1590,18.6853,-38.6456
406,-566,4.30359,5.26868,0,0,0,0,0,0,0,-1,1630,1590,4.30364,-5.26867
413,-566,4.27124,5.79492,0,0,0,0,0,0,0,-1,1637,1590,4.27123,-5.7949
420,-566,18.0121,32.5314,0,0,0,0,0,0,0,-1,1644,1590,18.0121,-32.5313
427,-566,19.4491,36.9315,0,0,0,0,0,0,0,-1,1651,1590,19.4491,-36.9315
434,-566,19.338,36.7385,0,0,0,0,0,0,0,-1,1658,1590,19.338,-36.7386
441,-566,15.5841,27.5869,0,0,0,0,0,0,0,-1,1665,1590,15.5842,-27.587
448,-566,20.5287,40.2312,0,0,0,0,0,0,0,-1,1672,1590,20.5287,-40.2313
455,-566,20.1957,39.1276,0,0,0,0,0,0,0,-1,1679,1590,20.1957,-39.1276
462,-566,20.2831,38.2881,0.00841853,0.0166848,-0.00921905,0.0226548,0.0024485,-0.996127,0.0143568,0.0476856,1686,1590,20.2831,-38.2881
469,-566,20.4083,37.3096,0.00750205,0.0133231,-0.00753776,0.0184927,0.0023324,-0.969642,0.0116292,0.0213782,1693,1590,20.4084,-37.3095
476,-566,20.4823,36.5985,0.00635304,0.0104188,-0.0060206,0.0147405,0.00203137,-0.948214,0.0092247,0.0116408,1700,1590,20.4823,-36.5985
483,-566,20.4796,35.92,0.00513407,0.00790142,-0.00471984,0.0114362,0.00159927,-0.927984,0.00715093,0.0119977,1707,1590,20.4796,-35.9201
490,-566,20.4568,35.2467,0.00397118,0.00573535,-0.00357569,0.00853615,0.00117038,-0.906328,0.00534354,0.0127319,1714,1590,20.4568,-35.2467
497,-566,20.4739,34.6163,0.00291425,0.00407144,-0.00265936,0.00621442,0.000771269,-0.892514,0.00391129,0.0152351,1721,1590,20.4739,-34.6163
504,-566,20.4081,33.9609,0.00200404,0.00250776,-0.00186276,0.00413561,0.000376192,-0.852594,0.00264062,0.0206234,1728,1590,20.408,-33.961
511,-566,20.3546,33.2843,0.00116255,0.00147637,-0.00110873,0.00243923,0.000199682,-0.855691,0.00156385,0.021488,1735,1590,20.3546,-33.2843
518,-566,20.3467,32.6232,0.000401257,0.000593875,-0.000463364,0.000970833,2.42991e-05,-0.887863,0.000639276,0.0127263,1742,1590,20.3466,-32.6232
525,-566,20.3163,31.9375,-0.000220746,-3.69546e-05,8.92611e-05,-7.39499e-07,-0.000256961,1.18537,0.000171061,0.0123354,1749,1590,20.3163,-31.9375
532,-566,20.2882,31.2267,-0.000669131,-0.000700203,0.000714138,2.96402e-05,-0.00139897,0.774522,0.000942685,0.0140788,1756,1590,20.2882,-31.2267
539,-566,20.2446,30.5212,-0.00104815,-0.00134844,0.00143253,0.000242079,-0.00263867,0.733184,0.00184511,0.0197505,1763,1590,20.2447,-30.5212
546,-566,20.2841,29.7711,-0.00129555,-0.00214193,0.00236711,0.000685901,-0.00412338,0.696944,0.00300377,0.0256198,1770,1590,20.284,-29.7711
553,-566,20.2876,29.3204,-0.00150863,-0.00301276,0.00349443,0.00131375,-0.00583514,0.679406,0.00439397,0.0379436,1777,1590,20.2876,-29.3204
560,-566,20.1145,28.8188,-0.00162873,-0.00381633,0.00468491,0.00208837,-0.00753343,0.670716,0.00584414,0.0422223,1784,1590,20.1145,-28.8188
567,-566,20.0881,28.1592,0,0,0,0,0,0,0,-1,1791,1590,20.0881,-28.1592
574,-566,7.99548,3.14514,0,0,0,0,0,0,0,-1,1798,1590,7.99543,-3.14511
581,-566,2.54102,5.1311,0,0,0,0,0,0,0,-1,1805,1590,2.54099,-5.13111
588,-566,-1.91321,8.39197,0,0,0,0,0,0,0,-1,1812,1590,-1.91316,-8.39199
595,-566,9.0271,4.66467,0,0,0,0,0,0,0,-1,1819,1590,9.02705,-4.66468
602,-566,9.953,3.54895,0,0,0,0,0,0,0,-1,1826,1590,9.953,-3.54898
609,-566,0,0,0,0,0,0,0,0,0,-1,1833,1590,0,0
616,-566,0,0,0,0,0,0,0,0,0,-1,1840,1590,0,0
623,-566,0,0,0,0,0,0,0,0,0,-1,1847,1590,0,0
630,-566,0,0,0,0,0,0,0,0,0,-1,1854,1590,0,0
637,-566,0,0,0,0,0,0,0,0,0,-1,1861,1590,0,0
644,-566,0,0,0,0,0,0,0,0,0,-1,1868,1590,0,0
651,-566,0,0,0,0,0,0,0,0,0,-1,1875,1590,0,0
658,-566,0,0,0,0,0,0,0,0,0,-1,1882,1590,0,0
665,-566,0,0,0,0,0,0,0,0,0,-1,1889,1590,0,0
672,-566,0,0,0,0,0,0,0,0,0,-1,1896,1590,0,0
679,-566,0,0,0,0,0,0,0,0,0,-1,1903,1590,0,0
686,-566,0,0,0,0,0,0,0,0,0,-1,1910,1590,0,0
693,-566,0,0,0,0,0,0,0,0,0,-1,1917,1590,0,0
700,-566,0,0,0,0,0,0,0,0,0,-1,1924,1590,0,0
707,-566,0,0,0,0,0,0,0,0,0,-1,1931,1590,0,0
714,-566,0,0,0,0,0,0,0,0,0,-1,1938,1590,0,0
721,-566,0,0,0,0,0,0,0,0,0,-1,1945,1590,0,0
728,-566,0,0,0,0,0,0,0,0,0,-1,1952,1590,0,0
735,-566,0,0,0,0,0,0,0,0,0,-1,1959,1590,0,0
742,-566,0,0,0,0,0,0,0,0,0,-1,1966,1590,0,0
749,-566,0,0,0,0,0,0,0,0,0,-1,1973,1590,0,0
756,-566,0,0,0,0,0,0,0,0,0,-1,1980,1590,0,0
763,-566,0,0,0,0,0,0,0,0,0,-1,1987,1590,0,0
770,-566,0,0,0,0,0,0,0,0,0,-1,1994,1590,0,0
777,-566,0,0,0,0,0,0,0,0,0,-1,2001,1590,0,0
784,-566,0,0,0,0,0,0,0,0,0,-1,2008,1590,0,0
791,-566,0,0,0,0,0,0,0,0,0,-1,2015,1590,0,0
798,-566,0,0,0,0,0,0,0,0,0,-1,2022,1590,0,0
805,-566,0,0,0,0,0,0,0,0,0,-1,2029,1590,0,0
812,-566,0,0,0,0,0,0,0,0,0,-1,2036,1590,0,0
-700,-573,0,0,0,0,0,0,0,0,0,-1,524,1597,0,0
-693,-573,0,0,0,0,0,0,0,0,0,-1,531,1597,0,0
-686,-573,0,0,0,0,0,0,0,0,0,-1,538,1597,0,0
-679,-573,0,0,0,0,0,0,0,0,0,-1,545,1597,0,0
-672,-573,0,0,0,0,0,0,0,0,0,-1,552,1597,0,0
-665,-573,0,0,0,0,0,0,0,0,0,-1,559,1597,0,0
-658,-573,0,0,0,0,0,0,0,0,0,-1,566,1597,0,0
-651,-573,0,0,0,0,0,0,0,0,0,-1,573,1597,0,0
-644,-573,0,0,0,0,0,0,0,0,0,-1,580,1597,0,0
-637,-573,0,0,0,0,0,0,0,0,0,-1,587,1597,0,0
-630,-573,0,0,0,0,0,0,0,0,0,-1,594,1597,0,0
-623,-573,0,0,0,0,0,0,0,0,0,-1,601,1597,0,0
-616,-573,0,0,0,0,0,0,0,0,0,-1,608,1597,0,0
-609,-573,0,0,0,0,0,0,0,0,0,-1,615,1597,0,0
-602,-573,0,0,0,0,0,0,0,0,0,-1,622,1597,0,0
-595,-573,0,0,0,0,0,0,0,0,0,-1,629,1597,0,0
-588,-573,0,0,0,0,0,0,0,0,0,-1,636,1597,0,0
-581,-573,0,0,0,0,0,0,0,0,0,-1,643,1597,0,0
-574,-573,0,0,0,0,0,0,0,0,0,-1,650,1597,0,0
-567,-573,0,0,0,0,0,0,0,0,0,-1,657,1597,0,0
-560,-573,0,0,0,0,0,0,0,0,0,-1,664,1597,0,0
-553,-573,0,0,0,0,0,0,0,0,0,-1,671,1597,0,0
-546,-573,0,0,0,0,0,0,0,0,0,-1,678,1597,0,0
-539,-573,0,0,0,0,0,0,0,0,0,-1,685,1597,0,0
-532,-573,0,0,0,0,0,0,0,0,0,-1,692,1597,0,0
-525,-573,0,0,0,0,0,0,0,0,0,-1,699,1597,0,0
-518,-573,0,0,0,0,0,0,0,0,0,-1,706,1597,0,0
-511,-573,0,0,0,0,0,0,0,0,0,-1,713,1597,0,0
-504,-573,0,0,0,0,0,0,0,0,0,-1,720,1597,0,0
-497,-573,0,0,0,0,0,0,0,0,0,-1,727,1597,0,0
-490,-573,0,0,0,0,0,0,0,0,0,-1,734,1597,0,0
-483,-573,0,0,0,0,0,0,0,0,0,-1,741,1597,0,0
-476,-573,-9.3327,0.972778,0,0,0,0,0,0,0,-1,748,1597,-9.33268,-0.972776
-469,-573,-1.41681,1.13379,0,0,0,0,0,0,0,-1,755,1597,-1.41681,-1.13382
-462,-573,-0.748535,2.02588,0,0,0,0,0,0,0,-1,762,1597,-0.748533,-2.02584
-455,-573,-0.112976,2.70703,0,0,0,0,0,0,0,-1,769,1597,-0.112988,-2.70697
-448,-573,-1.26172,3.33252,0,0,0,0,0,0,0,-1,776,1597,-1.26173,-3.33248
-441,-573,0.108582,5.06726,0,0,0,0,0,0,0,-1,783,1597,0.108584,-5.06721
-434,-573,1.61768,7.05444,0,0,0,0,0,0,0,-1,790,1597,1.61767,-7.05446
-427,-573,-1.37927,24.4124,0,0,0,0,0,0,0,-1,797,1597,-1.37928,-24.4124
-420,-573,-1.15186,28.0936,0,0,0,0,0,0,0,-1,804,1597,-1.15185,-28.0936
-413,-573,-1.82727,29.2827,0,0,0,0,0,0,0,-1,811,1597,-1.82724,-29.2827
-406,-573,-1.75781,30.2457,0.000100039,-0.00269946,0.00119896,0.000543331,-0.00314275,0.354143,0.00229779,0.0429755,818,1597,-1.75779,-30.2457
-399,-573,-1.81238,31.0803,7.86264e-05,-0.00269105,0.000956234,0.00037669,-0.00298912,0.302161,0.00212944,0.0172581,825,1597,-1.81236,-31.0803
-392,-573,-1.80841,31.8094,0.000228563,-0.0023192,0.000924816,0.000528867,-0.0026195,0.313976,0.00194672,0.0143072,832,1597,-1.80842,-31.8094
-385,-573,-1.85406,32.5104,0.000364919,-0.00176532,0.000903061,0.000696222,-0.00209663,0.351622,0.00167866,0.016475,839,1597,-1.85407,-32.5103
-378,-573,-1.89514,33.2002,0.000469076,-0.00118867,0.00088099,0.00084982,-0.00156942,0.407934,0.00141719,0.0169394,846,1597,-1.89512,-33.2002
-371,-573,-1.93463,33.9047,0.000684965,-0.000635218,0.00083604,0.00109009,-0.00104034,0.451232,0.00123012,0.0175194,853,1597,-1.93463,-33.9046
-364,-573,-1.95422,34.593,0.00104065,0.000107466,0.000921224,0.0016067,-0.00045859,0.550985,0.00125231,0.0205035,860,1597,-1.95421,-34.5931
-357,-573,-1.96149,35.2617,0.00147252,0.000959442,0.00104127,0.00228839,0.000143575,0.664618,0.00148005,0.0233431,867,1597,-1.9615,-35.2617
-350,-573,-1.99847,35.9697,0.00206821,0.00185278,0.00120819,0.00317348,0.000747507,0.740939,0.00191573,0.0184662,874,1597,-1.99845,-35.9698
-343,-573,-2.01477,36.6133,0.002778,0.00292528,0.00150508,0.00435852,0.00134477,0.809843,0.00257716,0.0231314,881,1597,-2.01475,-36.6133
-336,-573,-2.06195,37.328,0.00373225,0.00426227,0.00205205,0.00606635,0.00192817,0.849615,0.00357904,0.018813,888,1597,-2.06193,-37.328
-329,-573,-2.09406,37.9797,0.00508573,0.00635275,0.00313416,0.00891679,0.00252169,0.88512,0.00530755,0.0199393,895,1597,-2.09402,-37.9797
-322,-573,-2.12506,38.6768,0.00683442,0.0101133,0.00508615,0.0138177,0.00313003,0.941309,0.00836598,0.017772,902,1597,-2.12506,-38.6768
-315,-573,-1.98712,39.5602,0.00872844,0.0140062,0.00718479,0.0190214,0.00371323,0.961393,0.0116423,0.0395121,909,1597,-1.98711,-39.5602
-308,-573,-1.6629,40.4935,0,0,0,0,0,0,0,-1,916,1597,-1.66292,-40.4935
-301,-573,-1.84351,41.0244,0,0,0,0,0,0,0,-1,923,1597,-1.8435,-41.0245
-294,-573,-1.86401,40.9286,0,0,0,0,0,0,0,-1,930,1597,-1.86399,-40.9286
-287,-573,-1.95471,41.8563,0,0,0,0,0,0,0,-1,937,1597,-1.95473,-41.8563
-280,-573,1.19684,26.4906,0,0,0,0,0,0,0,-1,944,1597,1.19685,-26.4906
-273,-573,2.24805,25.4375,0,0,0,0,0,0,0,-1,951,1597,2.24803,-25.4374
-266,-573,1.31116,7.1814,0,0,0,0,0,0,0,-1,958,1597,1.31118,-7.18142
-259,-573,1.2514,6.70959,0,0,0,0,0,0,0,-1,965,1597,1.25137,-6.70965
-252,-573,2.07874,5.27161,0,0,0,0,0,0,0,-1,972,1597,2.07875,-5.27157
-245,-573,-10.2592,1.09827,0,0,0,0,0,0,0,-1,979,1597,-10.2592,-1.09823
-238,-573,-11.5463,4.44141,0,0,0,0,0,0,0,-1,986,1597,-11.5463,-4.44146
-231,-573,-9.23431,4.14539,0,0,0,0,0,0,0,-1,993,1597,-9.23431,-4.14534
-224,-573,-6.70044,7.40857,0,0,0,0,0,0,0,-1,1000,1597,-6.70045,-7.40851
-217,-573,-4.25824,8.59119,0,0,0,0,0,0,0,-1,1007,1597,-4.25824,-8.59122
-210,-573,-2.39661,9.73914,0,0,0,0,0,0,0,-1,1014,1597,-2.39658,-9.73915
-203,-573,-0.557373,10.9005,0,0,0,0,0,0,0,-1,1021,1597,-0.557387,-10.9006
-196,-573,-1.65344,9.02246,0,0,0,0,0,0,0,-1,1028,1597,-1.65349,-9.02241
-189,-573,-6.12915,6.66882,0,0,0,0,0,0,0,-1,1035,1597,-6.12913,-6.66884
-182,-573,0,0,0,0,0,0,0,0,0,-1,1042,1597,0,0
-175,-573,0,0,0,0,0,0,0,0,0,-1,1049,1597,0,0
-168,-573,0,0,0,0,0,0,0,0,0,-1,1056,1597,0,0
-161,-573,0,0,0,0,0,0,0,0,0,-1,1063,1597,0,0
-154,-573,0,0,0,0,0,0,0,0,0,-1,1070,1597,0,0
-147,-573,0,0,0,0,0,0,0,0,0,-1,1077,1597,0,0
-140,-573,0,0,0,0,0,0,0,0,0,-1,1084,1597,0,0
-133,-573,0,0,0,0,0,0,0,0,0,-1,1091,1597,0,0
-126,-573,0,0,0,0,0,0,0,0,0,-1,1098,1597,0,0
-119,-573,0,0,0,0,0,0,0,0,0,-1,1105,1597,0,0
-112,-573,0,0,0,0,0,0,0,0,0,-1,1112,1597,0,0
-105,-573,0,0,0,0,0,0,0,0,0,-1,1119,1597,0,0
-98,-573,0,0,0,0,0,0,0,0,0,-1,1126,1597,0,0
-91,-573,0,0,0,0,0,0,0,0,0,-1,1133,1597,0,0
-84,-573,0,0,0,0,0,0,0,0,0,-1,1140,1597,0,0
-77,-573,0,0,0,0,0,0,0,0,0,-1,1147,1597,0,0
-70,-573,0,0,0,0,0,0,0,0,0,-1,1154,1597,0,0
-63,-573,0,0,0,0,0,0,0,0,0,-1,1161,1597,0,0
-56,-573,0,0,0,0,0,0,0,0,0,-1,1168,1597,0,0
-49,-573,0,0,0,0,0,0,0,0,0,-1,1175,1597,0,0
-42,-573,0,0,0,0,0,0,0,0,0,-1,1182,1597,0,0
-35,-573,0,0,0,0,0,0,0,0,0,-1,1189,1597,0,0
-28,-573,0,0,0,0,0,0,0,0,0,-1,1196,1597,0,0
-21,-573,0,0,0,0,0,0,0,0,0,-1,1203,1597,0,0
-14,-573,0,0,0,0,0,0,0,0,0,-1,1210,1597,0,0
-7,-573,0,0,0,0,0,0,0,0,0,-1,1217,1597,0,0
0,-573,0,0,0,0,0,0,0,0,0,-1,1224,1597,0,0
7,-573,0,0,0,0,0,0,0,0,0,-1,1231,1597,0,0
14,-573,0,0,0,0,0,0,0,0,0,-1,1238,1597,0,0
21,-573,0,0,0,0,0,0,0,0,0,-1,1245,1597,0,0
28,-573,0,0,0,0,0,0,0,0,0,-1,1252,1597,0,0
35,-573,0,0,0,0,0,0,0,0,0,-1,1259,1597,0,0
42,-573,0,0,0,0,0,0,0,0,0,-1,1266,1597,0,0
49,-573,0,0,0,0,0,0,0,0,0,-1,1273,1597,0,0
56,-573,0,0,0,0,0,0,0,0,0,-1,1280,1597,0,0
63,-573,0,0,0,0,0,0,0,0,0,-1,1287,1597,0,0
70,-573,0,0,0,0,0,0,0,0,0,-1,1294,1597,0,0
77,-573,0,0,0,0,0,0,0,0,0,-1,1301,1597,0,0
84,-573,0,0,0,0,0,0,0,0,0,-1,1308,1597,0,0
91,-573,0,0,0,0,0,0,0,0,0,-1,1315,1597,0,0
98,-573,0,0,0,0,0,0,0,0,0,-1,1322,1597,0,0
105,-573,0,0,0,0,0,0,0,0,0,-1,1329,1597,0,0
112,-573,0,0,0,0,0,0,0,0,0,-1,1336,1597,0,0
119,-573,0,0,0,0,0,0,0,0,0,-1,1343,1597,0,0
126,-573,0,0,0,0,0,0,0,0,0,-1,1350,1597,0,0
133,-573,0,0,0,0,0,0,0,0,0,-1,1357,1597,0,0
140,-573,0,0,0,0,0,0,0,0,0,-1,1364,1597,0,0
147,-573,0,0,0,0,0,0,0,0,0,-1,1371,1597,0,0
154,-573,0,0,0,0,0,0,0,0,0,-1,1378,1597,0,0
161,-573,0,0,0,0,0,0,0,0,0,-1,1385,1597,0,0
168,-573,0,0,0,0,0,0,0,0,0,-1,1392,1597,0,0
175,-573,0,0,0,0,0,0,0,0,0,-1,1399,1597,0,0
182,-573,0,0,0,0,0,0,0,0,0,-1,1406,1597,0,0
189,-573,0,0,0,0,0,0,0,0,0,-1,1413,1597,0,0
196,-573,0,0,0,0,0,0,0,0,0,-1,1420,1597,0,0
203,-573,0,0,0,0,0,0,0,0,0,-1,1427,1597,0,0
210,-573,0,0,0,0,0,0,0,0,0,-1,1434,1597,0,0
217,-573,0,0,0,0,0,0,0,0,0,-1,1441,1597,0,0
224,-573,0,0,0,0,0,0,0,0,0,-1,1448,1597,0,0
231,-573,0,0,0,0,0,0,0,0,0,-1,1455,1597,0,0
238,-573,0,0,0,0,0,0,0,0,0,-1,1462,1597,0,0
245,-573,0,0,0,0,0,0,0,0,0,-1,1469,1597,0,0
252,-573,0,0,0,0,0,0,0,0,0,-1,1476,1597,0,0
259,-573,0,0,0,0,0,0,0,0,0,-1,1483,1597,0,0
266,-573,0,0,0,0,0,0,0,0,0,-1,1490,1597,0,0
273,-573,0,0,0,0,0,0,0,0,0,-1,1497,1597,0,0
280,-573,0,0,0,0,0,0,0,0,0,-1,1504,1597,0,0
287,-573,0,0,0,0,0,0,0,0,0,-1,1511,1597,0,0
294,-573,0,0,0,0,0,0,0,0,0,-1,1518,1597,0,0
301,-573,0,0,0,0,0,0,0,0,0,-1,1525,1597,0,0
308,-573,5.93042,9.71143,0,0,0,0,0,0,0,-1,1532,1597,5.93046,-9.71144
315,-573,4.34204,11.719,0,0,0,0,0,0,0,-1,1539,1597,4.34205,-11.719
322,-573,10.3269,7.77563,0,0,0,0,0,0,0,-1,1546,1597,10.327,-7.77565
329,-573,4.99573,3.80273,0,0,0,0,0,0,0,-1,1553,1597,4.9957,-3.80273
336,-573,4.85693,2.53455,0,0,0,0,0,0,0,-1,1560,1597,4.8569,-2.53459
343,-573,5.5946,2.15894,0,0,0,0,0,0,0,-1,1567,1597,5.59456,-2.1589
350,-573,2.53748,1.56433,0,0,0,0,0,0,0,-1,1574,1597,2.53753,-1.5643
357,-573,7.40247,4.03613,0,0,0,0,0,0,0,-1,1581,1597,7.40244,-4.03614
364,-573,7.14551,3.02087,0,0,0,0,0,0,0,-1,1588,1597,7.14556,-3.02084
371,-573,6.88867,2.00549,0,0,0,0,0,0,0,-1,1595,1597,6.88868,-2.00553
378,-573,8.62012,6.09106,0,0,0,0,0,0,0,-1,1602,1597,8.62012,-6.09103
385,-573,6.54346,-0.951904,0,0,0,0,0,0,0,-1,1609,1597,6.54349,0.951901
392,-573,17.5164,38.3645,0,0,0,0,0,0,0,-1,1616,1597,17.5164,-38.3645
399,-573,20.5255,42.9893,0,0,0,0,0,0,0,-1,1623,1597,20.5255,-42.9893
406,-573,20.4028,44.3046,0,0,0,0,0,0,0,-1,1630,1597,20.4028,-44.3046
413,-573,18.702,40.8951,0,0,0,0,0,0,0,-1,1637,1597,18.702,-40.8951
420,-573,18.8063,37.0011,0,0,0,0,0,0,0,-1,1644,1597,18.8063,-37.0011
427,-573,20.4286,42.2079,0,0,0,0,0,0,0,-1,1651,1597,20.4285,-42.2079
434,-573,19.9692,41.4705,0,0,0,0,0,0,0,-1,1658,1597,19.9692,-41.4705
441,-573,19.8523,40.442,0,0,0,0,0,0,0,-1,1665,1597,19.8523,-40.442
448,-573,19.7704,39.6166,0.00801577,0.0175669,-0.00781487,0.0219499,0.00363283,-1.05966,0.0135852,0.0438408,1672,1597,19.7704,-39.6166
455,-573,19.8096,38.7313,0.00689921,0.0158368,-0.00763057,0.0202108,0.00252516,-1.0503,0.012716,0.0333372,1679,1597,19.8095,-38.7313
462,-573,19.8837,37.8624,0.00625066,0.0129286,-0.00697675,0.0173242,0.00185506,-1.00858,0.0109835,0.023727,1686,1597,19.8836,-37.8624
469,-573,19.8572,37.225,0.00566892,0.0103094,-0.00579967,0.0142357,0.00174258,-0.975678,0.00896624,0.0157327,1693,1597,19.8572,-37.2249
476,-573,19.8706,36.599,0.0047761,0.0080576,-0.00464624,0.0113443,0.00148942,-0.955131,0.00711851,0.0148715,1700,1597,19.8706,-36.599
483,-573,19.8591,35.9642,0.0037854,0.00600608,-0.00365496,0.00871564,0.00107585,-0.932863,0.00548708,0.0142836,1707,1597,19.8592,-35.9643
490,-573,19.8105,35.2909,0.00283417,0.00424041,-0.00277721,0.00640213,0.000672455,-0.90938,0.00406253,0.0144505,1714,1597,19.8105,-35.2909
497,-573,19.8215,34.615,0.00196735,0.00289114,-0.0020759,0.00455591,0.000302583,-0.894867,0.0029416,0.0212454,1721,1597,19.8215,-34.615
504,-573,19.7578,33.9429,0.00120505,0.00158407,-0.0014416,0.00284856,-5.94447e-05,-0.850753,0.00191916,0.0190683,1728,1597,19.7578,-33.9429
511,-573,19.687,33.27,0.000461636,0.000694984,-0.000766466,0.00135361,-0.000196986,-0.86093,0.000974723,0.0200015,1735,1597,19.6871,-33.27
518,-573,19.6727,32.6292,-0.000183122,1.23653e-05,-0.000238235,0.000172128,-0.000342885,-0.980068,0.000302742,0.0157047,1742,1597,19.6728,-32.6292
525,-573,19.6694,31.9562,-0.000718436,-0.000556326,0.000288047,-0.000338147,-0.000936615,0.922549,0.000547673,0.0187529,1749,1597,19.6695,-31.9562
532,-573,19.6548,31.2134,-0.00110195,-0.00119009,0.000941684,-0.000203309,-0.00208874,0.762015,0.00132991,0.0192886,1756,1597,19.6548,-31.2133
539,-573,19.5493,30.5388,-0.00145427,-0.00193907,0.00175332,7.33283e-05,-0.00346666,0.716707,0.00233594,0.0406077,1763,1597,19.5493,-30.5388
546,-573,19.7072,29.7615,0,0,0,0,0,0,0,-1,1770,1597,19.7071,-29.7614
553,-573,19.484,29.5378,0,0,0,0,0,0,0,-1,1777,1597,19.4841,-29.5379
560,-573,19.2866,28.9968,0,0,0,0,0,0,0,-1,1784,1597,19.2866,-28.9968
567,-573,19.0273,28.3853,0,0,0,0,0,0,0,-1,1791,1597,19.0273,-28.3852
574,-573,0.83374,5.7041,0,0,0,0,0,0,0,-1,1798,1597,0.833718,-5.70405
581,-573,-0.224854,7.41602,0,0,0,0,0,0,0,-1,1805,1597,-0.224904,-7.41596
588,-573,-0.134033,7.67065,0,0,0,0,0,0,0,-1,1812,1597,-0.134037,-7.67063
595,-573,-0.0825195,8.35083,0,0,0,0,0,0,0,-1,1819,1597,-0.0824684,-8.35088
602,-573,0,0,0,0,0,0,0,0,0,-1,1826,1597,0,0
609,-573,0,0,0,0,0,0,0,0,0,-1,1833,1597,0,0
616,-573,0,0,0,0,0,0,0,0,0,-1,1840,1597,0,0
623,-573,0,0,0,0,0,0,0,0,0,-1,1847,1597,0,0
630,-573,0,0,0,0,0,0,0,0,0,-1,1854,1597,0,0
637,-573,0,0,0,0,0,0,0,0,0,-1,1861,1597,0,0
644,-573,0,0,0,0,0,0,0,0,0,-1,1868,1597,0,0
651,-573,0,0,0,0,0,0,0,0,0,-1,1875,1597,0,0
658,-573,0,0,0,0,0,0,0,0,0,-1,1882,1597,0,0
665,-573,0,0,0,0,0,0,0,0,0,-1,1889,1597,0,0
672,-573,0,0,0,0,0,0,0,0,0,-1,1896,1597,0,0
679,-573,0,0,0,0,0,0,0,0,0,-1,1903,1597,0,0
686,-573,0,0,0,0,0,0,0,0,0,-1,1910,1597,0,0
693,-573,0,0,0,0,0,0,0,0,0,-1,1917,1597,0,0
700,-573,0,0,0,0,0,0,0,0,0,-1,1924,1597,0,0
707,-573,0,0,0,0,0,0,0,0,0,-1,1931,1597,0,0
714,-573,0,0,0,0,0,0,0,0,0,-1,1938,1597,0,0
721,-573,0,0,0,0,0,0,0,0,0,-1,1945,1597,0,0
728,-573,0,0,0,0,0,0,0,0,0,-1,1952,1597,0,0
735,-573,0,0,0,0,0,0,0,0,0,-1,1959,1597,0,0
742,-573,0,0,0,0,0,0,0,0,0,-1,1966,1597,0,0
749,-573,0,0,0,0,0,0,0,0,0,-1,1973,1597,0,0
756,-573,0,0,0,0,0,0,0,0,0,-1,1980,1597,0,0
763,-573,0,0,0,0,0,0,0,0,0,-1,1987,1597,0,0
770,-573,0,0,0,0,0,0,0,0,0,-1,1994,1597,0,0
777,-573,0,0,0,0,0,0,0,0,0,-1,2001,1597,0,0
784,-573,0,0,0,0,0,0,0,0,0,-1,2008,1597,0,0
791,-573,0,0,0,0,0,0,0,0,0,-1,2015,1597,0,0
798,-573,0,0,0,0,0,0,0,0,0,-1,2022,1597,0,0
805,-573,0,0,0,0,0,0,0,0,0,-1,2029,1597,0,0
812,-573,0,0,0,0,0,0,0,0,0,-1,2036,1597,0,0
-700,-580,0,0,0,0,0,0,0,0,0,-1,524,1604,0,0
-693,-580,0,0,0,0,0,0,0,0,0,-1,531,1604,0,0
-686,-580,0,0,0,0,0,0,0,0,0,-1,538,1604,0,0
-679,-580,0,0,0,0,0,0,0,0,0,-1,545,1604,0,0
-672,-580,0,0,0,0,0,0,0,0,0,-1,552,1604,0,0
-665,-580,0,0,0,0,0,0,0,0,0,-1,559,1604,0,0
-658,-580,0,0,0,0,0,0,0,0,0,-1,566,1604,0,0
-651,-580,0,0,0,0,0,0,0,0,0,-1,573,1604,0,0
-644,-580,0,0,0,0,0,0,0,0,0,-1,580,1604,0,0
-637,-580,0,0,0,0,0,0,0,0,0,-1,587,1604,0,0
-630,-580,0,0,0,0,0,0,0,0,0,-1,594,1604,0,0
-623,-580,0,0,0,0,0,0,0,0,0,-1,601,1604,0,0
-616,-580,0,0,0,0,0,0,0,0,0,-1,608,1604,0,0
-609,-580,0,0,0,0,0,0,0,0,0,-1,615,1604,0,0
-602,-580,0,0,0,0,0,0,0,0,0,-1,622,1604,0,0
-595,-580,0,0,0,0,0,0,0,0,0,-1,629,1604,0,0
-588,-580,0,0,0,0,0,0,0,0,0,-1,636,1604,0,0
-581,-580,0,0,0,0,0,0,0,0,0,-1,643,1604,0,0
-574,-580,0,0,0,0,0,0,0,0,0,-1,650,1604,0,0
-567,-580,0,0,0,0,0,0,0,0,0,-1,657,1604,0,0
-560,-580,0,0,0,0,0,0,0,0,0,-1,664,1604,0,0
-553,-580,0,0,0,0,0,0,0,0,0,-1,671,1604,0,0
-546,-580,0,0,0,0,0,0,0,0,0,-1,678,1604,0,0
-539,-580,0,0,0,0,0,0,0,0,0,-1,685,1604,0,0
-532,-580,0,0,0,0,0,0,0,0,0,-1,692,1604,0,0
-525,-580,0,0,0,0,0,0,0,0,0,-1,699,1604,0,0
-518,-580,0,0,0,0,0,0,0,0,0,-1,706,1604,0,0
-511,-580,0,0,0,0,0,0,0,0,0,-1,713,1604,0,0
-504,-580,0,0,0,0,0,0,0,0,0,-1,720,1604,0,0
-497,-580,0,0,0,0,0,0,0,0,0,-1,727,1604,0,0
-490,-580,0,0,0,0,0,0,0,0,0,-1,734,1604,0,0
-483,-580,0,0,0,0,0,0,0,0,0,-1,741,1604,0,0
-476,-580,0,0,0,0,0,0,0,0,0,-1,748,1604,0,0
-469,-580,-1.69189,-0.38916,0,0,0,0,0,0,0,-1,755,1604,-1.69192,0.389188
-462,-580,-0.859863,0.675293,0,0,0,0,0,0,0,-1,762,1604,-0.859834,-0.675245
-455,-580,-0.730164,0.651978,0,0,0,0,0,0,0,-1,769,1604,-0.730153,-0.651957
-448,-580,-3.31891,2.07544,0,0,0,0,0,0,0,-1,776,1604,-3.3189,-2.07539
-441,-580,-1.63843,3.9469,0,0,0,0,0,0,0,-1,783,1604,-1.63842,-3.94695
-434,-580,0.23291,5.97876,0,0,0,0,0,0,0,-1,790,1604,0.232901,-5.97878
-427,-580,1.62756,8.05493,0,0,0,0,0,0,0,-1,797,1604,1.62758,-8.05488
-420,-580,0.986572,11.2383,0,0,0,0,0,0,0,-1,804,1604,0.986544,-11.2382
-413,-580,0.922913,21.5701,0,0,0,0,0,0,0,-1,811,1604,0.922905,-21.5701
-406,-580,-1.09882,30.2058,0,0,0,0,0,0,0,-1,818,1604,-1.09885,-30.2058
-399,-580,-1.11115,31.1285,-0.000172653,-0.00390203,0.00116039,0.000158919,-0.0042336,0.278326,0.00287684,0.0431753,825,1604,-1.11112,-31.1285
-392,-580,-1.13776,31.8474,-1.34526e-05,-0.00354237,0.00107137,0.000286344,-0.00384217,0.272847,0.00266203,0.0209763,832,1604,-1.13776,-31.8474
-385,-580,-1.16388,32.5466,0.000115066,-0.00300105,0.0010165,0.000417338,-0.00330332,0.289037,0.00235369,0.0138872,839,1604,-1.16386,-32.5466
-378,-580,-1.19525,33.2469,0.000158655,-0.00238076,0.000967,0.000484957,-0.00270706,0.32544,0.00198619,0.0161762,846,1604,-1.19523,-33.2469
-371,-580,-1.22614,33.9585,0.000302144,-0.00181463,0.000879343,0.000619775,-0.00213226,0.34663,0.00166696,0.0143221,853,1604,-1.22615,-33.9585
-364,-580,-1.29437,34.6246,0.000557366,-0.0011279,0.000884481,0.000936347,-0.00150688,0.404812,0.00142336,0.0198648,860,1604,-1.29436,-34.6246
-357,-580,-1.30817,35.2928,0.00091714,-0.000331854,0.00093659,0.00141834,-0.000833055,0.491358,0.0013144,0.0145552,867,1604,-1.30815,-35.2928
-350,-580,-1.3338,36.0015,0.00142849,0.00049779,0.00102735,0.00209097,-0.000164686,0.57274,0.00145199,0.0119899,874,1604,-1.3338,-36.0015
-343,-580,-1.33154,36.6849,0.0020318,0.00150462,0.00123787,0.00303383,0.000502581,0.680496,0.00187759,0.0127751,881,1604,-1.33156,-36.685
-336,-580,-1.34778,37.3331,0.00284521,0.00272691,0.00166918,0.00445629,0.00111583,0.767686,0.00267757,0.0218797,888,1604,-1.34777,-37.3332
-329,-580,-1.41547,38.0276,0.00398326,0.00461856,0.0025645,0.00688501,0.00171681,0.847016,0.0041382,0.0198611,895,1604,-1.41548,-38.0275
-322,-580,-1.44531,38.7136,0.00542707,0.00780767,0.00413642,0.0109216,0.00231309,0.925494,0.00664563,0.0217465,902,1604,-1.44534,-38.7137
-315,-580,-1.42261,39.3588,0.00698146,0.0110539,0.00581219,0.0151762,0.00285913,0.953884,0.00931191,0.0227353,909,1604,-1.4226,-39.3587
-308,-580,-1.36151,40.1809,0.0087509,0.01462,0.00784094,0.0200575,0.00331335,0.964458,0.0124155,0.0336201,916,1604,-1.3615,-40.1809
-301,-580,-1.30371,40.7328,0.0109223,0.0189928,0.0105329,0.0262369,0.00367817,0.96833,0.0164033,0.0319831,923,1604,-1.30374,-40.7328
-294,-580,-1.23315,41.5087,0,0,0,0,0,0,0,-1,930,1604,-1.23314,-41.5087
-287,-580,-1.16772,42.4963,0,0,0,0,0,0,0,-1,937,1604,-1.16775,-42.4963
-280,-580,-0.974304,43.6724,0,0,0,0,0,0,0,-1,944,1604,-0.974303,-43.6723
-273,-580,-0.67804,44.9436,0,0,0,0,0,0,0,-1,951,1604,-0.678069,-44.9436
-266,-580,1.71777,25.6515,0,0,0,0,0,0,0,-1,958,1604,1.71775,-25.6515
-259,-580,1.31091,9.11536,0,0,0,0,0,0,0,-1,965,1604,1.31092,-9.11539
-252,-580,1.07629,7.74097,0,0,0,0,0,0,0,-1,972,1604,1.07627,-7.74101
-245,-580,3.80304,9.16028,0,0,0,0,0,0,0,-1,979,1604,3.80306,-9.16034
-238,-580,-10.3588,1.57556,0,0,0,0,0,0,0,-1,986,1604,-10.3588,-1.5755
-231,-580,-10.576,6.43787,0,0,0,0,0,0,0,-1,993,1604,-10.576,-6.43783
-224,-580,-8.27435,7.58972,0,0,0,0,0,0,0,-1,1000,1604,-8.27435,-7.5897
-217,-580,-5.85632,9.51221,0,0,0,0,0,0,0,-1,1007,1604,-5.85632,-9.5122
-210,-580,-3.6684,11.1569,0,0,0,0,0,0,0,-1,1014,1604,-3.66839,-11.1569
-203,-580,-1.92474,12.7845,0,0,0,0,0,0,0,-1,1021,1604,-1.92477,-12.7845
-196,-580,-2.28552,10.3289,0,0,0,0,0,0,0,-1,1028,1604,-2.28552,-10.3288
-189,-580,-4.58252,7.59058,0,0,0,0,0,0,0,-1,1035,1604,-4.58256,-7.59057
-182,-580,-5.45874,7.65942,0,0,0,0,0,0,0,-1,1042,1604,-5.45876,-7.65939
-175,-580,-6.38977,7.55005,0,0,0,0,0,0,0,-1,1049,1604,-6.38981,-7.5501
-168,-580,0,0,0,0,0,0,0,0,0,-1,1056,1604,0,0
-161,-580,0,0,0,0,0,0,0,0,0,-1,1063,1604,0,0
-154,-580,0,0,0,0,0,0,0,0,0,-1,1070,1604,0,0
-147,-580,0,0,0,0,0,0,0,0,0,-1,1077,1604,0,0
-140,-580,0,0,0,0,0,0,0,0,0,-1,1084,1604,0,0
-133,-580,0,0,0,0,0,0,0,0,0,-1,1091,1604,0,0
-126,-580,0,0,0,0,0,0,0,0,0,-1,1098,1604,0,0
-119,-580,0,0,0,0,0,0,0,0,0,-1,1105,1604,0,0
-112,-580,0,0,0,0,0,0,0,0,0,-1,1112,1604,0,0
-105,-580,0,0,0,0,0,0,0,0,0,-1,1119,1604,0,0
-98,-580,0,0,0,0,0,0,0,0,0,-1,1126,1604,0,0
-91,-580,0,0,0,0,0,0,0,0,0,-1,1133,1604,0,0
-84,-580,0,0,0,0,0,0,0,0,0,-1,1140,1604,0,0
-77,-580,0,0,0,0,0,0,0,0,0,-1,1147,1604,0,0
-70,-580,0,0,0,0,0,0,0,0,0,-1,1154,1604,0,0
-63,-580,0,0,0,0,0,0,0,0,0,-1,1161,1604,0,0
-56,-580,0,0,0,0,0,0,0,0,0,-1,1168,1604,0,0
-49,-580,0,0,0,0,0,0,0,0,0,-1,1175,1604,0,0
-42,-580,0,0,0,0,0,0,0,0,0,-1,1182,1604,0,0
-35,-580,0,0,0,0,0,0,0,0,0,-1,1189,1604,0,0
-28,-580,0,0,0,0,0,0,0,0,0,-1,1196,1604,0,0
-21,-580,0,0,0,0,0,0,0,0,0,-1,1203,1604,0,0
-14,-580,0,0,0,0,0,0,0,0,0,-1,1210,1604,0,0
-7,-580,0,0,0,0,0,0,0,0,0,-1,1217,1604,0,0
0,-580,0,0,0,0,0,0,0,0,0,-1,1224,1604,0,0
7,-580,0,0,0,0,0,0,0,0,0,-1,1231,1604,0,0
14,-580,0,0,0,0,0,0,0,0,0,-1,1238,1604,0,0
21,-580,0,0,0,0,0,0,0,0,0,-1,1245,1604,0,0
28,-580,0,0,0,0,0,0,0,0,0,-1,1252,1604,0,0
35,-580,0,0,0,0,0,0,0,0,0,-1,1259,1604,0,0
42,-580,0,0,0,0,0,0,0,0,0,-1,1266,1604,0,0
49,-580,0,0,0,0,0,0,0,0,0,-1,1273,1604,0,0
56,-580,0,0,0,0,0,0,0,0,0,-1,1280,1604,0,0
63,-580,0,0,0,0,0,0,0,0,0,-1,1287,1604,0,0
70,-580,0,0,0,0,0,0,0,0,0,-1,1294,1604,0,0
77,-580,0,0,0,0,0,0,0,0,0,-1,1301,1604,0,0
84,-580,0,0,0,0,0,0,0,0,0,-1,1308,1604,0,0
91,-580,0,0,0,0,0,0,0,0,0,-1,1315,1604,0,0
98,-580,0,0,0,0,0,0,0,0,0,-1,1322,1604,0,0
105,-580,0,0,0,0,0,0,0,0,0,-1,1329,1604,0,0
112,-580,0,0,0,0,0,0,0,0,0,-1,1336,1604,0,0
119,-580,0,0,0,0,0,0,0,0,0,-1,1343,1604,0,0
126,-580,0,0,0,0,0,0,0,0,0,-1,1350,1604,0,0
133,-580,0,0,0,0,0,0,0,0,0,-1,1357,1604,0,0
140,-580,0,0,0,0,0,0,0,0,0,-1,1364,1604,0,0
147,-580,0,0,0,0,0,0,0,0,0,-1,1371,1604,0,0
154,-580,0,0,0,0,0,0,0,0,0,-1,1378,1604,0,0
161,-580,0,0,0,0,0,0,0,0,0,-1,1385,1604,0,0
168,-580,0,0,0,0,0,0,0,0,0,-1,1392,1604,0,0
175,-580,0,0,0,0,0,0,0,0,0,-1,1399,1604,0,0
182,-580,0,0,0,0,0,0,0,0,0,-1,1406,1604,0,0
189,-580,0,0,0,0,0,0,0,0,0,-1,1413,1604,0,0
196,-580,0,0,0,0,0,0,0,0,0,-1,1420,1604,0,0
203,-580,0,0,0,0,0,0,0,0,0,-1,1427,1604,0,0
210,-580,0,0,0,0,0,0,0,0,0,-1,1434,1604,0,0
217,-580,0,0,0,0,0,0,0,0,0,-1,1441,1604,0,0
224,-580,0,0,0,0,0,0,0,0,0,-1,1448,1604,0,0
231,-580,0,0,0,0,0,0,0,0,0,-1,1455,1604,0,0
238,-580,0,0,0,0,0,0,0,0,0,-1,1462,1604,0,0
245,-580,0,0,0,0,0,0,0,0,0,-1,1469,1604,0,0
252,-580,0,0,0,0,0,0,0,0,0,-1,1476,1604,0,0
259,-580,0,0,0,0,0,0,0,0,0,-1,1483,1604,0,0
266,-580,0,0,0,0,0,0,0,0,0,-1,1490,1604,0,0
273,-580,0,0,0,0,0,0,0,0,0,-1,1497,1604,0,0
280,-580,0,0,0,0,0,0,0,0,0,-1,1504,1604,0,0
287,-580,0,0,0,0,0,0,0,0,0,-1,1511,1604,0,0
294,-580,4.0437,0.177368,0,0,0,0,0,0,0,-1,1518,1604,4.04369,-0.177371
301,-580,7.55164,8.05798,0,0,0,0,0,0,0,-1,1525,1604,7.55158,-8.05802
308,-580,5.9126,9.99341,0,0,0,0,0,0,0,-1,1532,1604,5.91255,-9.99337
315,-580,4.27356,11.9287,0,0,0,0,0,0,0,-1,1539,1604,4.27352,-11.9287
322,-580,10.2366,7.50281,0,0,0,0,0,0,0,-1,1546,1604,10.2366,-7.50282
329,-580,10.5962,8.69641,0,0,0,0,0,0,0,-1,1553,1604,10.5962,-8.69642
336,-580,3.66431,1.58862,0,0,0,0,0,0,0,-1,1560,1604,3.6643,-1.58864
343,-580,3.32227,1.39636,0,0,0,0,0,0,0,-1,1567,1604,3.32222,-1.39633
350,-580,8.71277,4.0564,0,0,0,0,0,0,0,-1,1574,1604,8.71271,-4.05638
357,-580,8.52332,3.08154,0,0,0,0,0,0,0,-1,1581,1604,8.52332,-3.08157
364,-580,8.25818,2.07605,0,0,0,0,0,0,0,-1,1588,1604,8.25812,-2.07608
371,-580,7.42114,7.14282,0,0,0,0,0,0,0,-1,1595,1604,7.42119,-7.14281
378,-580,7.9718,6.6731,0,0,0,0,0,0,0,-1,1602,1604,7.9718,-6.67307
385,-580,8.52246,6.20337,0,0,0,0,0,0,0,-1,1609,1604,8.52241,-6.20334
392,-580,19.1649,43.3333,0,0,0,0,0,0,0,-1,1616,1604,19.1649,-43.3333
399,-580,19.3013,43.4558,0,0,0,0,0,0,0,-1,1623,1604,19.3013,-43.4558
406,-580,19.7817,43.7032,0,0,0,0,0,0,0,-1,1630,1604,19.7817,-43.7033
413,-580,19.3468,42.6979,0,0,0,0,0,0,0,-1,1637,1604,19.3468,-42.6979
420,-580,18.8708,41.9091,0,0,0,0,0,0,0,-1,1644,1604,18.8709,-41.9091
427,-580,19.0009,41.4573,0,0,0,0,0,0,0,-1,1651,1604,19.0008,-41.4573
434,-580,19.3584,40.662,0,0,0,0,0,0,0,-1,1658,1604,19.3585,-40.662
441,-580,19.1228,39.9177,0,0,0,0,0,0,0,-1,1665,1604,19.1227,-39.9177
448,-580,19.2191,39.1775,0.005965,0.0132105,-0.00563369,0.0162857,0.00288979,-1.07114,0.0100336,0.0182492,1672,1604,19.2192,-39.1775
455,-580,19.2822,38.5546,0.00510373,0.0119312,-0.00561836,0.0150916,0.0019433,-1.05839,0.00947994,0.0227075,1679,1604,19.2822,-38.5546
462,-580,19.2084,37.8887,0.00462956,0.00965941,-0.00523717,0.0129542,0.00133477,-1.00924,0.00822738,0.0235098,1686,1604,19.2084,-37.8887
469,-580,19.1801,37.228,0.00424028,0.0076512,-0.0044456,0.0107072,0.00118423,-0.968555,0.00677799,0.0195049,1693,1604,19.18,-37.228
476,-580,19.2015,36.594,0.00355553,0.0059485,-0.00360871,0.0085539,0.000950125,-0.945473,0.00541376,0.0154893,1700,1604,19.2015,-36.594
483,-580,19.1808,35.9818,0.00275411,0.0043163,-0.00287808,0.00651739,0.000553016,-0.917904,0.00417282,0.0146551,1707,1604,19.1808,-35.9818
490,-580,19.1298,35.3478,0.00197385,0.00291324,-0.0022253,0.00471787,0.000169217,-0.889406,0.00309039,0.0186151,1714,1604,19.1298,-35.3478
497,-580,19.1062,34.6561,0.00125782,0.00184505,-0.00170711,0.00328361,-0.000180745,-0.870562,0.00225174,0.0144371,1721,1604,19.1062,-34.6561
504,-580,19.0471,33.9651,0.000604703,0.000798975,-0.0012165,0.00192221,-0.00051853,-0.825238,0.00148481,0.0177265,1728,1604,19.0472,-33.9651
511,-580,19.0302,33.3075,-7.88307e-05,3.56104e-05,-0.000616431,0.000597471,-0.000640691,-0.831678,0.000714998,0.0185242,1735,1604,19.0301,-33.3075
518,-580,19.0115,32.6626,-0.000660727,-0.000473014,-0.000193628,-0.000351694,-0.000782046,-1.01108,0.000452275,0.0176106,1742,1604,19.0115,-32.6626
525,-580,18.9944,31.9789,-0.00118861,-0.00103724,0.000353309,-0.0007516,-0.00147425,0.890909,0.000851212,0.0233632,1749,1604,18.9944,-31.9789
532,-580,18.9236,31.3168,-0.00161634,-0.00170049,0.00110395,-0.000553661,-0.00276317,0.76635,0.0016881,0.0448896,1756,1604,18.9236,-31.3168
539,-580,18.9716,30.5831,0,0,0,0,0,0,0,-1,1763,1604,18.9716,-30.5831
546,-580,19.3851,29.3604,0,0,0,0,0,0,0,-1,1770,1604,19.3851,-29.3604
553,-580,17.1749,26.6359,0,0,0,0,0,0,0,-1,1777,1604,17.1749,-26.6358
560,-580,18.844,29.1804,0,0,0,0,0,0,0,-1,1784,1604,18.844,-29.1804
567,-580,3.87708,4.0647,0,0,0,0,0,0,0,-1,1791,1604,3.87711,-4.06471
574,-580,2.31653,5.62952,0,0,0,0,0,0,0,-1,1798,1604,2.31654,-5.62947
581,-580,1.60876,6.67664,0,0,0,0,0,0,0,-1,1805,1604,1.60873,-6.67667
588,-580,1.38684,7.14441,0,0,0,0,0,0,0,-1,1812,1604,1.38689,-7.14443
595,-580,0,0,0,0,0,0,0,0,0,-1,1819,1604,0,0
602,-580,0,0,0,0,0,0,0,0,0,-1,1826,1604,0,0
609,-580,0,0,0,0,0,0,0,0,0,-1,1833,1604,0,0
616,-580,0,0,0,0,0,0,0,0,0,-1,1840,1604,0,0
623,-580,0,0,0,0,0,0,0,0,0,-1,1847,1604,0,0
630,-580,0,0,0,0,0,0,0,0,0,-1,1854,1604,0,0
637,-580,0,0,0,0,0,0,0,0,0,-1,1861,1604,0,0
644,-580,0,0,0,0,0,0,0,0,0,-1,1868,1604,0,0
651,-580,0,0,0,0,0,0,0,0,0,-1,1875,1604,0,0
658,-580,0,0,0,0,0,0,0,0,0,-1,1882,1604,0,0
665,-580,0,0,0,0,0,0,0,0,0,-1,1889,1604,0,0
672,-580,0,0,0,0,0,0,0,0,0,-1,1896,1604,0,0
679,-580,0,0,0,0,0,0,0,0,0,-1,1903,1604,0,0
686,-580,0,0,0,0,0,0,0,0,0,-1,1910,1604,0,0
693,-580,0,0,0,0,0,0,0,0,0,-1,1917,1604,0,0
700,-580,0,0,0,0,0,0,0,0,0,-1,1924,1604,0,0
707,-580,0,0,0,0,0,0,0,0,0,-1,1931,1604,0,0
714,-580,0,0,0,0,0,0,0,0,0,-1,1938,1604,0,0
721,-580,0,0,0,0,0,0,0,0,0,-1,1945,1604,0,0
728,-580,0,0,0,0,0,0,0,0,0,-1,1952,1604,0,0
735,-580,0,0,0,0,0,0,0,0,0,-1,1959,1604,0,0
742,-580,0,0,0,0,0,0,0,0,0,-1,1966,1604,0,0
749,-580,0,0,0,0,0,0,0,0,0,-1,1973,1604,0,0
756,-580,0,0,0,0,0,0,0,0,0,-1,1980,1604,0,0
763,-580,0,0,0,0,0,0,0,0,0,-1,1987,1604,0,0
770,-580,0,0,0,0,0,0,0,0,0,-1,1994,1604,0,0
777,-580,0,0,0,0,0,0,0,0,0,-1,2001,1604,0,0
784,-580,0,0,0,0,0,0,0,0,0,-1,2008,1604,0,0
791,-580,0,0,0,0,0,0,0,0,0,-1,2015,1604,0,0
798,-580,0,0,0,0,0,0,0,0,0,-1,2022,1604,0,0
805,-580,0,0,0,0,0,0,0,0,0,-1,2029,1604,0,0
812,-580,0,0,0,0,0,0,0,0,0,-1,2036,1604,0,0
-700,-587,0,0,0,0,0,0,0,0,0,-1,524,1611,0,0
-693,-587,0,0,0,0,0,0,0,0,0,-1,531,1611,0,0
-686,-587,0,0,0,0,0,0,0,0,0,-1,538,1611,0,0
-679,-587,0,0,0,0,0,0,0,0,0,-1,545,1611,0,0
-672,-587,0,0,0,0,0,0,0,0,0,-1,552,1611,0,0
-665,-587,0,0,0,0,0,0,0,0,0,-1,559,1611,0,0
-658,-587,0,0,0,0,0,0,0,0,0,-1,566,1611,0,0
-651,-587,0,0,0,0,0,0,0,0,0,-1,573,1611,0,0
-644,-587,0,0,0,0,0,0,0,0,0,-1,580,1611,0,0
-637,-587,0,0,0,0,0,0,0,0,0,-1,587,1611,0,0
-630,-587,0,0,0,0,0,0,0,0,0,-1,594,1611,0,0
-623,-587,0,0,0,0,0,0,0,0,0,-1,601,1611,0,0
-616,-587,0,0,0,0,0,0,0,0,0,-1,608,1611,0,0
-609,-587,0,0,0,0,0,0,0,0,0,-1,615,1611,0,0
-602,-587,0,0,0,0,0,0,0,0,0,-1,622,1611,0,0
-595,-587,0,0,0,0,0,0,0,0,0,-1,629,1611,0,0
-588,-587,0,0,0,0,0,0,0,0,0,-1,636,1611,0,0
-581,-587,0,0,0,0,0,0,0,0,0,-1,643,1611,0,0
-574,-587,0,0,0,0,0,0,0,0,0,-1,650,1611,0,0
-567,-587,0,0,0,0,0,0,0,0,0,-1,657,1611,0,0
-560,-587,0,0,0,0,0,0,0,0,0,-1,664,1611,0,0
-553,-587,0,0,0,0,0,0,0,0,0,-1,671,1611,0,0
-546,-587,0,0,0,0,0,0,0,0,0,-1,678,1611,0,0
-539,-587,0,0,0,0,0,0,0,0,0,-1,685,1611,0,0
-532,-587,0,0,0,0,0,0,0,0,0,-1,692,1611,0,0
-525,-587,0,0,0,0,0,0,0,0,0,-1,699,1611,0,0
-518,-587,0,0,0,0,0,0,0,0,0,-1,706,1611,0,0
-511,-587,0,0,0,0,0,0,0,0,0,-1,713,1611,0,0
-504,-587,0,0,0,0,0,0,0,0,0,-1,720,1611,0,0
-497,-587,0,0,0,0,0,0,0,0,0,-1,727,1611,0,0
-490,-587,0,0,0,0,0,0,0,0,0,-1,734,1611,0,0
-483,-587,0,0,0,0,0,0,0,0,0,-1,741,1611,0,0
-476,-587,0,0,0,0,0,0,0,0,0,-1,748,1611,0,0
-469,-587,0,0,0,0,0,0,0,0,0,-1,755,1611,0,0
-462,-587,-0.714355,-0.418457,0,0,0,0,0,0,0,-1,762,1611,-0.714359,0.418483
-455,-587,-0.619812,-0.522461,0,0,0,0,0,0,0,-1,769,1611,-0.619802,0.522515
-448,-587,-0.461731,-0.686523,0,0,0,0,0,0,0,-1,776,1611,-0.461739,0.686559
-441,-587,-3.56555,2.72253,0,0,0,0,0,0,0,-1,783,1611,-3.56555,-2.72259
-434,-587,-1.77319,4.76318,0,0,0,0,0,0,0,-1,790,1611,-1.77318,-4.76323
-427,-587,0.0346069,6.92944,0,0,0,0,0,0,0,-1,797,1611,0.034587,-6.92941
-420,-587,-0.647156,10.1157,0,0,0,0,0,0,0,-1,804,1611,-0.647128,-10.1158
-413,-587,2.13971,10.3901,0,0,0,0,0,0,0,-1,811,1611,2.13971,-10.3902
-406,-587,2.2525,19.7814,0,0,0,0,0,0,0,-1,818,1611,2.25253,-19.7814
-399,-587,-0.500549,31.0603,0,0,0,0,0,0,0,-1,825,1611,-0.500564,-31.0603
-392,-587,-0.54657,31.7964,0,0,0,0,0,0,0,-1,832,1611,-0.546569,-31.7964
-385,-587,-0.565002,32.5122,-0.000143631,-0.00454278,0.00109274,0.00011285,-0.00479926,0.23054,0.00323778,0.0276554,839,1611,-0.564974,-32.5122
-378,-587,-0.541565,33.283,-0.000130835,-0.00377481,0.00105938,0.000154767,-0.00406041,0.263332,0.00275997,0.0142525,846,1611,-0.541561,-33.283
-371,-587,-0.57135,33.9814,-4.71537e-05,-0.00311258,0.000959091,0.000228188,-0.00338792,0.279568,0.00233839,0.0141689,853,1611,-0.571344,-33.9815
-364,-587,-0.624695,34.6776,0.000126551,-0.00242517,0.000900713,0.000412453,-0.00271107,0.307359,0.00195939,0.0176969,860,1611,-0.624687,-34.6777
-357,-587,-0.643188,35.3264,0.000433966,-0.00162953,0.000898059,0.000770069,-0.00196563,0.358117,0.00162896,0.0171272,867,1611,-0.643201,-35.3264
-350,-587,-0.684753,36.0289,0.000870484,-0.000801303,0.000926293,0.00128228,-0.0012131,0.418326,0.0014409,0.0106545,874,1611,-0.684758,-36.0289
-343,-587,-0.716553,36.6949,0.00138593,0.000187004,0.00106243,0.00200635,-0.000433415,0.528544,0.00150301,0.0137901,881,1611,-0.716539,-36.6949
-336,-587,-0.740784,37.325,0.00207564,0.00133654,0.00138162,0.00313628,0.000275901,0.65472,0.00200522,0.0137594,888,1611,-0.74078,-37.3249
-329,-587,-0.778809,38.0021,0.00302104,0.00305337,0.00208922,0.00512648,0.000947923,0.789267,0.00314959,0.0160169,895,1611,-0.778799,-38.0021
-322,-587,-0.775574,38.7017,0.00419299,0.00572874,0.00330986,0.00835863,0.0015631,0.899379,0.00513137,0.0188131,902,1611,-0.775575,-38.7016
-315,-587,-0.804993,39.3479,0.00545997,0.00844252,0.00462357,0.0118094,0.00209313,0.9414,0.00727625,0.0149269,909,1611,-0.805011,-39.3479
-308,-587,-0.816223,40.0144,0.00689521,0.0113696,0.00616965,0.0156951,0.00256965,0.959331,0.00972075,0.0149337,916,1611,-0.816199,-40.0144
-301,-587,-0.787231,40.6835,0.00863168,0.0148829,0.00824405,0.020574,0.00294061,0.966594,0.0128484,0.0154988,923,1611,-0.787207,-40.6834
-294,-587,-0.714417,41.3683,0.0106313,0.0193372,0.0109107,0.0267312,0.00323734,0.975204,0.0168457,0.0236218,930,1611,-0.714409,-41.3683
-287,-587,-0.71991,42.1165,0.0129681,0.0247753,0.0140962,0.0341542,0.00358921,0.983707,0.0216723,0.0368713,937,1611,-0.719885,-42.1165
-280,-587,-0.546997,43.1252,0.0156321,0.0307981,0.0177536,0.0425204,0.00390984,0.987231,0.0271377,0.0457214,944,1611,-0.546999,-43.1253
-273,-587,-0.369629,44.2052,0.0182652,0.0371675,0.0216199,0.0513118,0.00412094,0.991456,0.0329203,0.040122,951,1611,-0.369624,-44.2052
-266,-587,-0.261047,44.911,0,0,0,0,0,0,0,-1,958,1611,-0.261052,-44.911
-259,-587,0.069519,44.2048,0,0,0,0,0,0,0,-1,965,1611,0.069495,-44.2048
-252,-587,1.30188,10.3103,0,0,0,0,0,0,0,-1,972,1611,1.30188,-10.3104
-245,-587,1.52075,27.4791,0,0,0,0,0,0,0,-1,979,1611,1.52076,-27.4791
-238,-587,2.87799,9.53821,0,0,0,0,0,0,0,-1,986,1611,2.87797,-9.53823
-231,-587,2.49548,9.14465,0,0,0,0,0,0,0,-1,993,1611,2.49551,-9.14468
-224,-587,-9.72528,9.21069,0,0,0,0,0,0,0,-1,1000,1611,-9.72529,-9.21072
-217,-587,-7.07495,10.7847,0,0,0,0,0,0,0,-1,1007,1611,-7.07495,-10.7847
-210,-587,-4.72308,12.5889,0,0,0,0,0,0,0,-1,1014,1611,-4.72307,-12.5888
-203,-587,-3.2583,13.7289,0,0,0,0,0,0,0,-1,1021,1611,-3.25828,-13.7289
-196,-587,-1.953,14.8145,0,0,0,0,0,0,0,-1,1028,1611,-1.95302,-14.8144
-189,-587,-3.04138,8.66638,0,0,0,0,0,0,0,-1,1035,1611,-3.04136,-8.66635
-182,-587,-3.97095,9.7146,0,0,0,0,0,0,0,-1,1042,1611,-3.97093,-9.71461
-175,-587,-4.80969,8.37878,0,0,0,0,0,0,0,-1,1049,1611,-4.80964,-8.37883
-168,-587,-5.91394,8.72546,0,0,0,0,0,0,0,-1,1056,1611,-5.91398,-8.72542
-161,-587,-7.06946,8.88501,0,0,0,0,0,0,0,-1,1063,1611,-7.06947,-8.885
-154,-587,-2.24731,6.56519,0,0,0,0,0,0,0,-1,1070,1611,-2.24728,-6.56517
-147,-587,0,0,0,0,0,0,0,0,0,-1,1077,1611,0,0
-140,-587,0,0,0,0,0,0,0,0,0,-1,1084,1611,0,0
-133,-587,0,0,0,0,0,0,0,0,0,-1,1091,1611,0,0
-126,-587,0,0,0,0,0,0,0,0,0,-1,1098,1611,0,0
-119,-587,0,0,0,0,0,0,0,0,0,-1,1105,1611,0,0
-112,-587,0,0,0,0,0,0,0,0,0,-1,1112,1611,0,0
-105,-587,0,0,0,0,0,0,0,0,0,-1,1119,1611,0,0
-98,-587,0,0,0,0,0,0,0,0,0,-1,1126,1611,0,0
-91,-587,0,0,0,0,0,0,0,0,0,-1,1133,1611,0,0
-84,-587,0,0,0,0,0,0,0,0,0,-1,1140,1611,0,0
-77,-587,0,0,0,0,0,0,0,0,0,-1,1147,1611,0,0
-70,-587,0,0,0,0,0,0,0,0,0,-1,1154,1611,0,0
-63,-587,0,0,0,0,0,0,0,0,0,-1,1161,1611,0,0
-56,-587,0,0,0,0,0,0,0,0,0,-1,1168,1611,0,0
-49,-587,0,0,0,0,0,0,0,0,0,-1,1175,1611,0,0
-42,-587,0,0,0,0,0,0,0,0,0,-1,1182,1611,0,0
-35,-587,0,0,0,0,0,0,0,0,0,-1,1189,1611,0,0
-28,-587,0,0,0,0,0,0,0,0,0,-1,1196,1611,0,0
-21,-587,0,0,0,0,0,0,0,0,0,-1,1203,1611,0,0
-14,-587,0,0,0,0,0,0,0,0,0,-1,1210,1611,0,0
-7,-587,0,0,0,0,0,0,0,0,0,-1,1217,1611,0,0
0,-587,0,0,0,0,0,0,0,0,0,-1,1224,1611,0,0
7,-587,0,0,0,0,0,0,0,0,0,-1,1231,1611,0,0
14,-587,0,0,0,0,0,0,0,0,0,-1,1238,1611,0,0
21,-587,0,0,0,0,0,0,0,0,0,-1,1245,1611,0,0
28,-587,0,0,0,0,0,0,0,0,0,-1,1252,1611,0,0
35,-587,0,0,0,0,0,0,0,0,0,-1,1259,1611,0,0
42,-587,0,0,0,0,0,0,0,0,0,-1,1266,1611,0,0
49,-587,0,0,0,0,0,0,0,0,0,-1,1273,1611,0,0
56,-587,0,0,0,0,0,0,0,0,0,-1,1280,1611,0,0
63,-587,0,0,0,0,0,0,0,0,0,-1,1287,1611,0,0
70,-587,0,0,0,0,0,0,0,0,0,-1,1294,1611,0,0
77,-587,0,0,0,0,0,0,0,0,0,-1,1301,1611,0,0
84,-587,0,0,0,0,0,0,0,0,0,-1,1308,1611,0,0
91,-587,0,0,0,0,0,0,0,0,0,-1,1315,1611,0,0
98,-587,0,0,0,0,0,0,0,0,0,-1,1322,1611,0,0
105,-587,0,0,0,0,0,0,0,0,0,-1,1329,1611,0,0
112,-587,0,0,0,0,0,0,0,0,0,-1,1336,1611,0,0
119,-587,0,0,0,0,0,0,0,0,0,-1,1343,1611,0,0
126,-587,0,0,0,0,0,0,0,0,0,-1,1350,1611,0,0
133,-587,0,0,0,0,0,0,0,0,0,-1,1357,1611,0,0
140,-587,0,0,0,0,0,0,0,0,0,-1,1364,1611,0,0
147,-587,0,0,0,0,0,0,0,0,0,-1,1371,1611,0,0
154,-587,0,0,0,0,0,0,0,0,0,-1,1378,1611,0,0
161,-587,0,0,0,0,0,0,0,0,0,-1,1385,1611,0,0
168,-587,0,0,0,0,0,0,0,0,0,-1,1392,1611,0,0
175,-587,0,0,0,0,0,0,0,0,0,-1,1399,1611,0,0
182,-587,0,0,0,0,0,0,0,0,0,-1,1406,1611,0,0
189,-587,0,0,0,0,0,0,0,0,0,-1,1413,1611,0,0
196,-587,0,0,0,0,0,0,0,0,0,-1,1420,1611,0,0
203,-587,0,0,0,0,0,0,0,0,0,-1,1427,1611,0,0
210,-587,0,0,0,0,0,0,0,0,0,-1,1434,1611,0,0
217,-587,0,0,0,0,0,0,0,0,0,-1,1441,1611,0,0
224,-587,0,0,0,0,0,0,0,0,0,-1,1448,1611,0,0
231,-587,0,0,0,0,0,0,0,0,0,-1,1455,1611,0,0
238,-587,0,0,0,0,0,0,0,0,0,-1,1462,1611,0,0
245,-587,0,0,0,0,0,0,0,0,0,-1,1469,1611,0,0
252,-587,0,0,0,0,0,0,0,0,0,-1,1476,1611,0,0
259,-587,0,0,0,0,0,0,0,0,0,-1,1483,1611,0,0
266,-587,0,0,0,0,0,0,0,0,0,-1,1490,1611,0,0
273,-587,10.2936,6.35083,0,0,0,0,0,0,0,-1,1497,1611,10.2936,-6.35087
280,-587,2.09204,1.1217,0,0,0,0,0,0,0,-1,1504,1611,2.092,-1.12176
287,-587,3.2865,0.671509,0,0,0,0,0,0,0,-1,1511,1611,3.28656,-0.671538
294,-587,4.24646,1.58765,0,0,0,0,0,0,0,-1,1518,1611,4.24648,-1.58761
301,-587,7.60474,8.37085,0,0,0,0,0,0,0,-1,1525,1611,7.60478,-8.37084
308,-587,5.99316,10.2291,0,0,0,0,0,0,0,-1,1532,1611,5.99315,-10.2291
315,-587,4.34558,12.3289,0,0,0,0,0,0,0,-1,1539,1611,4.34556,-12.3288
322,-587,10.4526,6.38245,0,0,0,0,0,0,0,-1,1546,1611,10.4526,-6.38245
329,-587,10.7738,8.42444,0,0,0,0,0,0,0,-1,1553,1611,10.7738,-8.42438
336,-587,7.5531,5.96619,0,0,0,0,0,0,0,-1,1560,1611,7.55311,-5.96617
343,-587,9.57495,4.38391,0,0,0,0,0,0,0,-1,1567,1611,9.57494,-4.38397
350,-587,9.50378,3.45093,0,0,0,0,0,0,0,-1,1574,1611,9.50376,-3.4509
357,-587,9.40027,2.50806,0,0,0,0,0,0,0,-1,1581,1611,9.40022,-2.50803
364,-587,9.26477,1.34131,0,0,0,0,0,0,0,-1,1588,1611,9.26479,-1.34126
371,-587,6.98926,7.87561,0,0,0,0,0,0,0,-1,1595,1611,6.98928,-7.87564
378,-587,9.25146,13.8358,0,0,0,0,0,0,0,-1,1602,1611,9.2515,-13.8359
385,-587,16.5306,40.6755,0,0,0,0,0,0,0,-1,1609,1611,16.5307,-40.6755
392,-587,18.2039,43.595,0,0,0,0,0,0,0,-1,1616,1611,18.2039,-43.595
399,-587,18.6215,43.401,0.0162209,0.0183133,-0.0066139,0.0239632,0.010571,-0.863837,0.0138671,0.049188,1623,1611,18.6215,-43.401
406,-587,18.8197,43.2461,0.012738,0.0169024,-0.00531789,0.0205312,0.00910919,-0.971997,0.0118787,0.0409579,1630,1611,18.8197,-43.2461
413,-587,18.722,42.5624,0.0103653,0.016313,-0.00522439,0.0193507,0.00732767,-1.04414,0.0112812,0.034772,1637,1611,18.722,-42.5624
420,-587,18.5203,41.7787,0.00851979,0.0151525,-0.00504149,0.0178706,0.00580168,-1.07632,0.010527,0.0344419,1644,1611,18.5203,-41.7787
427,-587,18.5736,41.1993,0.00697668,0.0138253,-0.00455709,0.0161013,0.00470074,-1.10761,0.00956058,0.0301948,1651,1611,18.5736,-41.1993
434,-587,18.6268,40.5624,0,0,0,0,0,0,0,-1,1658,1611,18.6268,-40.5624
441,-587,18.6477,39.8601,0,0,0,0,0,0,0,-1,1665,1611,18.6477,-39.8601
448,-587,18.6442,39.1896,0.00438316,0.00961608,-0.00399719,0.011777,0.00222224,-1.07519,0.00722541,0.0179125,1672,1611,18.6442,-39.1896
455,-587,18.5986,38.5812,0.00369595,0.00865594,-0.00407422,0.0109456,0.00140628,-1.0588,0.00687641,0.0161498,1679,1611,18.5987,-38.5811
462,-587,18.5687,37.936,0.00333551,0.00691178,-0.00389062,0.00940551,0.000841781,-1.0008,0.00600943,0.0187951,1686,1611,18.5687,-37.936
469,-587,18.532,37.2996,0.00306249,0.00537068,-0.00338964,0.00779731,0.00063586,-0.949481,0.00499975,0.0161375,1693,1611,18.532,-37.2995
476,-587,18.5217,36.6598,0.0025399,0.0041168,-0.00281997,0.00625647,0.000400234,-0.921715,0.00404417,0.0108917,1700,1611,18.5217,-36.6597
483,-587,18.495,36.0039,0.00190503,0.0028406,-0.00231474,0.00473435,1.1283e-05,-0.885101,0.00315248,0.0141519,1707,1611,18.495,-36.0039
490,-587,18.4562,35.3555,0.00128056,0.0017566,-0.00186199,0.00339572,-0.000358559,-0.848968,0.00239231,0.0168794,1714,1611,18.4562,-35.3555
497,-587,18.4312,34.7014,0.000707559,0.00094016,-0.00151173,0.00234005,-0.000692336,-0.823789,0.00183488,0.0132856,1721,1611,18.4312,-34.7014
504,-587,18.3787,34.0665,0.000174121,0.000172256,-0.00117477,0.00134796,-0.00100158,-0.785001,0.00136141,0.0131815,1728,1611,18.3786,-34.0665
511,-587,18.3611,33.4135,-0.000415304,-0.000444051,-0.000687051,0.000257524,-0.00111688,-0.774939,0.000843633,0.0156731,1735,1611,18.3611,-33.4135
518,-587,18.3724,32.7327,-0.000908049,-0.000759722,-0.000400393,-0.000426682,-0.00124109,-0.876974,0.000728105,0.0161226,1742,1611,18.3724,-32.7327
525,-587,18.3821,32.099,-0.00143437,-0.00130156,0.000149365,-0.00120451,-0.00153143,0.99457,0.000931307,0.0279466,1749,1611,18.382,-32.099
532,-587,18.3199,31.2783,0,0,0,0,0,0,0,-1,1756,1611,18.32,-31.2783
539,-587,19.5343,30.6699,0,0,0,0,0,0,0,-1,1763,1611,19.5343,-30.6699
546,-587,17.6716,25.2673,0,0,0,0,0,0,0,-1,1770,1611,17.6716,-25.2674
553,-587,7.5813,8.45068,0,0,0,0,0,0,0,-1,1777,1611,7.58125,-8.45068
560,-587,4.21179,5.23547,0,0,0,0,0,0,0,-1,1784,1611,4.21185,-5.23553
567,-587,4.03711,5.46387,0,0,0,0,0,0,0,-1,1791,1611,4.03715,-5.46382
574,-587,3.83142,5.68884,0,0,0,0,0,0,0,-1,1798,1611,3.83141,-5.68881
581,-587,3.47168,6.00977,0,0,0,0,0,0,0,-1,1805,1611,3.47167,-6.00983
588,-587,0,0,0,0,0,0,0,0,0,-1,1812,1611,0,0
595,-587,0,0,0,0,0,0,0,0,0,-1,1819,1611,0,0
602,-587,0,0,0,0,0,0,0,0,0,-1,1826,1611,0,0
609,-587,0,0,0,0,0,0,0,0,0,-1,1833,1611,0,0
616,-587,0,0,0,0,0,0,0,0,0,-1,1840,1611,0,0
623,-587,0,0,0,0,0,0,0,0,0,-1,1847,1611,0,0
630,-587,0,0,0,0,0,0,0,0,0,-1,1854,1611,0,0
637,-587,0,0,0,0,0,0,0,0,0,-1,1861,1611,0,0
644,-587,0,0,0,0,0,0,0,0,0,-1,1868,1611,0,0
651,-587,0,0,0,0,0,0,0,0,0,-1,1875,1611,0,0
658,-587,0,0,0,0,0,0,0,0,0,-1,1882,1611,0,0
665,-587,0,0,0,0,0,0,0,0,0,-1,1889,1611,0,0
672,-587,0,0,0,0,0,0,0,0,0,-1,1896,1611,0,0
679,-587,0,0,0,0,0,0,0,0,0,-1,1903,1611,0,0
686,-587,0,0,0,0,0,0,0,0,0,-1,1910,1611,0,0
693,-587,0,0,0,0,0,0,0,0,0,-1,1917,1611,0,0
700,-587,0,0,0,0,0,0,0,0,0,-1,1924,1611,0,0
707,-587,0,0,0,0,0,0,0,0,0,-1,1931,1611,0,0
714,-587,0,0,0,0,0,0,0,0,0,-1,1938,1611,0,0
721,-587,0,0,0,0,0,0,0,0,0,-1,1945,1611,0,0
728,-587,0,0,0,0,0,0,0,0,0,-1,1952,1611,0,0
735,-587,0,0,0,0,0,0,0,0,0,-1,1959,1611,0,0
742,-587,0,0,0,0,0,0,0,0,0,-1,1966,1611,0,0
749,-587,0,0,0,0,0,0,0,0,0,-1,1973,1611,0,0
756,-587,0,0,0,0,0,0,0,0,0,-1,1980,1611,0,0
763,-587,0,0,0,0,0,0,0,0,0,-1,1987,1611,0,0
770,-587,0,0,0,0,0,0,0,0,0,-1,1994,1611,0,0
777,-587,0,0,0,0,0,0,0,0,0,-1,2001,1611,0,0
784,-587,0,0,0,0,0,0,0,0,0,-1,2008,1611,0,0
791,-587,0,0,0,0,0,0,0,0,0,-1,2015,1611,0,0
798,-587,0,0,0,0,0,0,0,0,0,-1,2022,1611,0,0
805,-587,0,0,0,0,0,0,0,0,0,-1,2029,1611,0,0
812,-587,0,0,0,0,0,0,0,0,0,-1,2036,1611,0,0
-700,-594,0,0,0,0,0,0,0,0,0,-1,524,1618,0,0
-693,-594,0,0,0,0,0,0,0,0,0,-1,531,1618,0,0
-686,-594,0,0,0,0,0,0,0,0,0,-1,538,1618,0,0
-679,-594,0,0,0,0,0,0,0,0,0,-1,545,1618,0,0
-672,-594,0,0,0,0,0,0,0,0,0,-1,552,1618,0,0
-665,-594,0,0,0,0,0,0,0,0,0,-1,559,1618,0,0
-658,-594,0,0,0,0,0,0,0,0,0,-1,566,1618,0,0
-651,-594,0,0,0,0,0,0,0,0,0,-1,573,1618,0,0
-644,-594,0,0,0,0,0,0,0,0,0,-1,580,1618,0,0
-637,-594,0,0,0,0,0,0,0,0,0,-1,587,1618,0,0
-630,-594,0,0,0,0,0,0,0,0,0,-1,594,1618,0,0
-623,-594,0,0,0,0,0,0,0,0,0,-1,601,1618,0,0
-616,-594,0,0,0,0,0,0,0,0,0,-1,608,1618,0,0
-609,-594,0,0,0,0,0,0,0,0,0,-1,615,1618,0,0
-602,-594,0,0,0,0,0,0,0,0,0,-1,622,1618,0,0
-595,-594,0,0,0,0,0,0,0,0,0,-1,629,1618,0,0
-588,-594,0,0,0,0,0,0,0,0,0,-1,636,1618,0,0
-581,-594,0,0,0,0,0,0,0,0,0,-1,643,1618,0,0
-574,-594,0,0,0,0,0,0,0,0,0,-1,650,1618,0,0
-567,-594,0,0,0,0,0,0,0,0,0,-1,657,1618,0,0
-560,-594,0,0,0,0,0,0,0,0,0,-1,664,1618,0,0
-553,-594,0,0,0,0,0,0,0,0,0,-1,671,1618,0,0
-546,-594,0,0,0,0,0,0,0,0,0,-1,678,1618,0,0
-539,-594,0,0,0,0,0,0,0,0,0,-1,685,1618,0,0
-532,-594,0,0,0,0,0,0,0,0,0,-1,692,1618,0,0
-525,-594,0,0,0,0,0,0,0,0,0,-1,699,1618,0,0
-518,-594,0,0,0,0,0,0,0,0,0,-1,706,1618,0,0
-511,-594,0,0,0,0,0,0,0,0,0,-1,713,1618,0,0
-504,-594,0,0,0,0,0,0,0,0,0,-1,720,1618,0,0
-497,-594,0,0,0,0,0,0,0,0,0,-1,727,1618,0,0
-490,-594,0,0,0,0,0,0,0,0,0,-1,734,1618,0,0
-483,-594,0,0,0,0,0,0,0,0,0,-1,741,1618,0,0
-476,-594,0,0,0,0,0,0,0,0,0,-1,748,1618,0,0
-469,-594,0,0,0,0,0,0,0,0,0,-1,755,1618,0,0
-462,-594,0,0,0,0,0,0,0,0,0,-1,762,1618,0,0
-455,-594,-0.509216,-1.58411,0,0,0,0,0,0,0,-1,769,1618,-0.509245,1.58415
-448,-594,-7.71887,-0.0559082,0,0,0,0,0,0,0,-1,776,1618,-7.71885,0.055939
-441,-594,-5.78473,1.18298,0,0,0,0,0,0,0,-1,783,1618,-5.78474,-1.18295
-434,-594,-3.93628,3.06213,0,0,0,0,0,0,0,-1,790,1618,-3.93631,-3.06208
-427,-594,-3.97693,6.77759,0,0,0,0,0,0,0,-1,797,1618,-3.97695,-6.77764
-420,-594,-2.53046,7.71606,0,0,0,0,0,0,0,-1,804,1618,-2.53047,-7.71609
-413,-594,-0.860413,8.00391,0,0,0,0,0,0,0,-1,811,1618,-0.860423,-8.00389
-406,-594,2.45746,13.6218,0,0,0,0,0,0,0,-1,818,1618,2.45747,-13.6218
-399,-594,1.30414,24.9963,0,0,0,0,0,0,0,-1,825,1618,1.30415,-24.9963
-392,-594,0.279358,32.3351,0,0,0,0,0,0,0,-1,832,1618,0.279342,-32.3351
-385,-594,0.178223,32.8284,-0.000254923,-0.00644406,0.00122804,-2.01622e-05,-0.00667882,0.188888,0.00444584,0.0432815,839,1618,0.178212,-32.8284
-378,-594,0.0591431,33.2926,-0.000322943,-0.00541563,0.00119289,-5.73748e-05,-0.0056812,0.219054,0.00376849,0.0195728,846,1618,0.0591427,-33.2926
-371,-594,0.0969238,34.0193,-0.000342442,-0.00453112,0.00107042,-8.4748e-05,-0.00478882,0.236245,0.00316467,0.0134403,853,1618,0.0969422,-34.0193
-364,-594,0.0769653,34.7017,-0.00027767,-0.00374649,0.000934135,-4.21086e-05,-0.00398205,0.247021,0.00264077,0.0110627,860,1618,0.076961,-34.7016
-357,-594,0.0408936,35.3956,-2.86949e-05,-0.00287655,0.000871327,0.000216743,-0.00312198,0.274569,0.0021572,0.0110722,867,1618,0.0409162,-35.3956
-350,-594,-0.0129395,36.0999,0.00033376,-0.00198469,0.000843244,0.000608015,-0.00225895,0.314446,0.00174432,0.0158689,874,1618,-0.0129688,-36.0999
-343,-594,-0.0597534,36.7758,0.00077755,-0.000969272,0.000913236,0.0011678,-0.00135953,0.403843,0.00146055,0.0189764,881,1618,-0.0597448,-36.7758
-336,-594,-0.111633,37.3832,0.00136882,0.000139907,0.00113034,0.00204092,-0.000532194,0.536439,0.0015684,0.0165572,888,1618,-0.111655,-37.3832
-329,-594,-0.123169,38.0598,0.00216033,0.00168745,0.0016651,0.00360569,0.000242082,0.71487,0.0023273,0.0156642,895,1618,-0.123168,-38.0599
-322,-594,-0.0944214,38.7671,0.00311596,0.00388838,0.00257941,0.00611034,0.000894002,0.859711,0.00381068,0.0166476,902,1618,-0.0944085,-38.7671
-315,-594,-0.10083,39.3911,0.00415431,0.0061156,0.00358562,0.00885226,0.00141766,0.918881,0.00549031,0.0170827,909,1618,-0.100829,-39.3912
-308,-594,-0.142151,40.0308,0.00533019,0.00849648,0.00474481,0.0119153,0.00191138,0.94642,0.00738927,0.0153201,916,1618,-0.142131,-40.0308
-301,-594,-0.184937,40.6611,0.00672583,0.0112713,0.00632437,0.0157189,0.00227824,0.957895,0.00980847,0.0116998,923,1618,-0.184964,-40.6611
-294,-594,-0.150513,41.2867,0.00832234,0.0147289,0.00834688,0.0204661,0.00258518,0.968617,0.0128692,0.0129063,930,1618,-0.150505,-41.2867
-287,-594,-0.190491,41.9163,0.0100912,0.0187721,0.0106447,0.0259273,0.00293601,0.978987,0.0163941,0.0204631,937,1618,-0.190487,-41.9163
-280,-594,-0.139648,42.6229,0.0120924,0.0230923,0.0132156,0.0319067,0.00327799,0.982584,0.020267,0.0228111,944,1618,-0.139627,-42.6229
-273,-594,-0.0869751,43.4225,0.0141671,0.0275826,0.0159246,0.0381545,0.0035952,0.98473,0.0243266,0.0274186,951,1618,-0.0869601,-43.4225
-266,-594,0.0108032,44.1725,0.0162973,0.0315953,0.0186659,0.0441186,0.003774,0.979854,0.0282386,0.036846,958,1618,0.0108306,-44.1725
-259,-594,0.0838013,44.8805,0,0,0,0,0,0,0,-1,965,1618,0.0837822,-44.8805
-252,-594,0.953491,44.1974,0,0,0,0,0,0,0,-1,972,1618,0.953496,-44.1973
-245,-594,2.27759,35.1766,0,0,0,0,0,0,0,-1,979,1618,2.27756,-35.1766
-238,-594,2.09015,28.0121,0,0,0,0,0,0,0,-1,986,1618,2.09012,-28.0121
-231,-594,1.93774,9.35388,0,0,0,0,0,0,0,-1,993,1618,1.93776,-9.35393
-224,-594,1.81824,8.62744,0,0,0,0,0,0,0,-1,1000,1618,1.81822,-8.62745
-217,-594,-8.24066,12.0752,0,0,0,0,0,0,0,-1,1007,1618,-8.24068,-12.0751
-210,-594,-5.61438,14.2119,0,0,0,0,0,0,0,-1,1014,1618,-5.6144,-14.212
-203,-594,-3.94507,15.5768,0,0,0,0,0,0,0,-1,1021,1618,-3.94506,-15.5768
-196,-594,2.78613,10.5815,0,0,0,0,0,0,0,-1,1028,1618,2.78612,-10.5815
-189,-594,2.60913,9.48865,0,0,0,0,0,0,0,-1,1035,1618,2.6091,-9.48871
-182,-594,1.2395,9.38806,0,0,0,0,0,0,0,-1,1042,1618,1.23951,-9.38804
-175,-594,0.234863,8.73792,0,0,0,0,0,0,0,-1,1049,1618,0.234812,-8.73786
-168,-594,-0.495483,8.46289,0,0,0,0,0,0,0,-1,1056,1618,-0.495513,-8.46285
-161,-594,-1.39734,8.28699,0,0,0,0,0,0,0,-1,1063,1618,-1.39729,-8.28699
-154,-594,-0.000854492,7.68445,0,0,0,0,0,0,0,-1,1070,1618,-0.000805755,-7.6845
-147,-594,0.348267,9.3385,0,0,0,0,0,0,0,-1,1077,1618,0.348237,-9.33849
-140,-594,0.675171,11.5884,0,0,0,0,0,0,0,-1,1084,1618,0.675204,-11.5884
-133,-594,0,0,0,0,0,0,0,0,0,-1,1091,1618,0,0
-126,-594,0,0,0,0,0,0,0,0,0,-1,1098,1618,0,0
-119,-594,0,0,0,0,0,0,0,0,0,-1,1105,1618,0,0
-112,-594,0,0,0,0,0,0,0,0,0,-1,1112,1618,0,0
-105,-594,0,0,0,0,0,0,0,0,0,-1,1119,1618,0,0
-98,-594,0,0,0,0,0,0,0,0,0,-1,1126,1618,0,0
-91,-594,0,0,0,0,0,0,0,0,0,-1,1133,1618,0,0
-84,-594,0,0,0,0,0,0,0,0,0,-1,1140,1618,0,0
-77,-594,0,0,0,0,0,0,0,0,0,-1,1147,1618,0,0
-70,-594,0,0,0,0,0,0,0,0,0,-1,1154,1618,0,0
-63,-594,0,0,0,0,0,0,0,0,0,-1,1161,1618,0,0
-56,-594,0,0,0,0,0,0,0,0,0,-1,1168,1618,0,0
-49,-594,0,0,0,0,0,0,0,0,0,-1,1175,1618,0,0
-42,-594,0,0,0,0,0,0,0,0,0,-1,1182,1618,0,0
-35,-594,0,0,0,0,0,0,0,0,0,-1,1189,1618,0,0
-28,-594,0,0,0,0,0,0,0,0,0,-1,1196,1618,0,0
-21,-594,0,0,0,0,0,0,0,0,0,-1,1203,1618,0,0
-14,-594,0,0,0,0,0,0,0,0,0,-1,1210,1618,0,0
-7,-594,0,0,0,0,0,0,0,0,0,-1,1217,1618,0,0
0,-594,0,0,0,0,0,0,0,0,0,-1,1224,1618,0,0
7,-594,0,0,0,0,0,0,0,0,0,-1,1231,1618,0,0
14,-594,0,0,0,0,0,0,0,0,0,-1,1238,1618,0,0
21,-594,0,0,0,0,0,0,0,0,0,-1,1245,1618,0,0
28,-594,0,0,0,0,0,0,0,0,0,-1,1252,1618,0,0
35,-594,0,0,0,0,0,0,0,0,0,-1,1259,1618,0,0
42,-594,0,0,0,0,0,0,0,0,0,-1,1266,1618,0,0
49,-594,0,0,0,0,0,0,0,0,0,-1,1273,1618,0,0
56,-594,0,0,0,0,0,0,0,0,0,-1,1280,1618,0,0
63,-594,0,0,0,0,0,0,0,0,0,-1,1287,1618,0,0
70,-594,0,0,0,0,0,0,0,0,0,-1,1294,1618,0,0
77,-594,0,0,0,0,0,0,0,0,0,-1,1301,1618,0,0
84,-594,0,0,0,0,0,0,0,0,0,-1,1308,1618,0,0
91,-594,0,0,0,0,0,0,0,0,0,-1,1315,1618,0,0
98,-594,0,0,0,0,0,0,0,0,0,-1,1322,1618,0,0
105,-594,0,0,0,0,0,0,0,0,0,-1,1329,1618,0,0
112,-594,0,0,0,0,0,0,0,0,0,-1,1336,1618,0,0
119,-594,0,0,0,0,0,0,0,0,0,-1,1343,1618,0,0
126,-594,0,0,0,0,0,0,0,0,0,-1,1350,1618,0,0
133,-594,0,0,0,0,0,0,0,0,0,-1,1357,1618,0,0
140,-594,0,0,0,0,0,0,0,0,0,-1,1364,1618,0,0
147,-594,0,0,0,0,0,0,0,0,0,-1,1371,1618,0,0
154,-594,0,0,0,0,0,0,0,0,0,-1,1378,1618,0,0
161,-594,0,0,0,0,0,0,0,0,0,-1,1385,1618,0,0
168,-594,0,0,0,0,0,0,0,0,0,-1,1392,1618,0,0
175,-594,0,0,0,0,0,0,0,0,0,-1,1399,1618,0,0
182,-594,0,0,0,0,0,0,0,0,0,-1,1406,1618,0,0
189,-594,0,0,0,0,0,0,0,0,0,-1,1413,1618,0,0
196,-594,0,0,0,0,0,0,0,0,0,-1,1420,1618,0,0
203,-594,0,0,0,0,0,0,0,0,0,-1,1427,1618,0,0
210,-594,0,0,0,0,0,0,0,0,0,-1,1434,1618,0,0
217,-594,0,0,0,0,0,0,0,0,0,-1,1441,1618,0,0
224,-594,0,0,0,0,0,0,0,0,0,-1,1448,1618,0,0
231,-594,0,0,0,0,0,0,0,0,0,-1,1455,1618,0,0
238,-594,0,0,0,0,0,0,0,0,0,-1,1462,1618,0,0
245,-594,0,0,0,0,0,0,0,0,0,-1,1469,1618,0,0
252,-594,3.03674,1.20996,0,0,0,0,0,0,0,-1,1476,1618,3.0368,-1.20999
259,-594,4.79834,1.53113,0,0,0,0,0,0,0,-1,1483,1618,4.79837,-1.53118
266,-594,3.71606,2.68152,0,0,0,0,0,0,0,-1,1490,1618,3.71609,-2.68149
273,-594,9.7655,6.33557,0,0,0,0,0,0,0,-1,1497,1618,9.76555,-6.33554
280,-594,3.13281,0.911255,0,0,0,0,0,0,0,-1,1504,1618,3.13277,-0.911207
287,-594,4.42749,1.51563,0,0,0,0,0,0,0,-1,1511,1618,4.42747,-1.51564
294,-594,5.36475,3.34937,0,0,0,0,0,0,0,-1,1518,1618,5.36475,-3.3494
301,-594,7.97144,9.04333,0,0,0,0,0,0,0,-1,1525,1618,7.9714,-9.04328
308,-594,6.30347,10.4633,0,0,0,0,0,0,0,-1,1532,1618,6.30351,-10.4633
315,-594,4.62012,11.934,0,0,0,0,0,0,0,-1,1539,1618,4.62006,-11.934
322,-594,2.91528,13.3134,0,0,0,0,0,0,0,-1,1546,1618,2.91523,-13.3133
329,-594,4.19861,9.77258,0,0,0,0,0,0,0,-1,1553,1618,4.19865,-9.77264
336,-594,10.1353,4.66528,0,0,0,0,0,0,0,-1,1560,1618,10.1353,-4.66533
343,-594,10.5729,3.71228,0,0,0,0,0,0,0,-1,1567,1618,10.5729,-3.71232
350,-594,10.219,2.98792,0,0,0,0,0,0,0,-1,1574,1618,10.219,-2.98797
357,-594,9.83154,1.96326,0,0,0,0,0,0,0,-1,1581,1618,9.8315,-1.96321
364,-594,9.74939,0.700562,0,0,0,0,0,0,0,-1,1588,1618,9.74939,-0.700615
371,-594,8.54297,14.3988,0,0,0,0,0,0,0,-1,1595,1618,8.54296,-14.3989
378,-594,17.1241,45.8274,0,0,0,0,0,0,0,-1,1602,1618,17.1241,-45.8274
385,-594,17.4525,45.205,0,0,0,0,0,0,0,-1,1609,1618,17.4525,-45.2049
392,-594,17.823,44.4683,0,0,0,0,0,0,0,-1,1616,1618,17.823,-44.4683
399,-594,18.0807,43.5828,0.0139369,0.0158302,-0.00661313,0.0215641,0.00820299,-0.856487,0.0125682,0.0436443,1623,1618,18.0807,-43.5828
406,-594,18.1162,43.0282,0.0109234,0.0140118,-0.00504289,0.0177416,0.00719357,-0.933975,0.010304,0.0264794,1630,1618,18.1162,-43.0283
413,-594,18.0734,42.4387,0.00870872,0.0127613,-0.00434048,0.0155251,0.00594484,-1.00378,0.00904499,0.0185622,1637,1618,18.0734,-42.4387
420,-594,18.0455,41.8076,0.00701776,0.011488,-0.00386589,0.0137184,0.00478737,-1.0475,0.00803986,0.0150056,1644,1618,18.0455,-41.8076
427,-594,18.0691,41.1649,0.00555072,0.0101698,-0.00323915,0.0118385,0.00388207,-1.0951,0.00696857,0.0130332,1651,1618,18.0691,-41.1649
434,-594,18.0415,40.5157,0.00430048,0.00907338,-0.00290685,0.0104479,0.00292596,-1.1291,0.0062236,0.0186827,1658,1618,18.0415,-40.5157
441,-594,18.0179,39.8544,0.00366074,0.0079265,-0.00288008,0.00937748,0.00220976,-1.10411,0.00566071,0.0176122,1665,1618,18.018,-39.8544
448,-594,18.0314,39.2452,0.00327376,0.00686777,-0.00290089,0.00848315,0.00165838,-1.0627,0.00519169,0.0173268,1672,1618,18.0313,-39.2452
455,-594,17.9742,38.5996,0.00276756,0.00614631,-0.0030601,0.00795239,0.00096148,-1.03761,0.00501194,0.0128454,1679,1618,17.9743,-38.5996
462,-594,17.9355,37.9594,0.00251083,0.0048244,-0.00302744,0.00690853,0.000426695,-0.967888,0.00447025,0.014529,1686,1618,17.9356,-37.9594
469,-594,17.9001,37.3462,0.00231689,0.0036422,-0.00276676,0.00582456,0.000134537,-0.902937,0.00383898,0.012929,1693,1618,17.9002,-37.3462
476,-594,17.8831,36.7107,0.00191911,0.00273794,-0.00242867,0.00479146,-0.000134409,-0.8689,0.00324004,0.0130466,1700,1618,17.8831,-36.7108
483,-594,17.8761,36.0516,0.00141552,0.00175258,-0.00211938,0.00371013,-0.000542024,-0.825074,0.00267248,0.0162257,1707,1618,17.8761,-36.0517
490,-594,17.8329,35.3802,0.00089622,0.00092769,-0.00183299,0.00274501,-0.000921099,-0.78969,0.00220221,0.0143462,1714,1618,17.8329,-35.3802
497,-594,17.7977,34.7263,0.000405181,0.000305402,-0.00160651,0.00196258,-0.00125199,-0.769876,0.00187099,0.01103,1721,1618,17.7977,-34.7263
504,-594,17.754,34.0768,-6.63501e-05,-0.00021375,-0.00139143,0.00125333,-0.00153343,-0.75894,0.00161165,0.0114938,1728,1618,17.754,-34.0768
511,-594,17.7247,33.3816,-0.000656211,-0.000721822,-0.000984531,0.000296061,-0.00167409,-0.768744,0.00122672,0.0174763,1735,1618,17.7247,-33.3815
518,-594,17.6643,32.6909,-0.00122066,-0.00090888,-0.000754128,-0.000294699,-0.00183484,-0.887321,0.00113779,0.024333,1742,1618,17.6643,-32.6909
525,-594,17.5693,31.9553,-0.00186627,-0.00143832,-0.000156303,-0.00138731,-0.00191727,-1.25535,0.00114323,0.0411079,1749,1618,17.5693,-31.9554
532,-594,17.5714,31.2069,0,0,0,0,0,0,0,-1,1756,1618,17.5715,-31.2069
539,-594,21.0237,24.9617,0,0,0,0,0,0,0,-1,1763,1618,21.0237,-24.9616
546,-594,7.48645,8.54785,0,0,0,0,0,0,0,-1,1770,1618,7.48639,-8.54789
553,-594,3.69714,5.68762,0,0,0,0,0,0,0,-1,1777,1618,3.69715,-5.68764
560,-594,6.06616,4.44482,0,0,0,0,0,0,0,-1,1784,1618,6.06621,-4.44477
567,-594,5.97266,4.73303,0,0,0,0,0,0,0,-1,1791,1618,5.97271,-4.73309
574,-594,5.9906,4.96326,0,0,0,0,0,0,0,-1,1798,1618,5.99065,-4.96326
581,-594,0,0,0,0,0,0,0,0,0,-1,1805,1618,0,0
588,-594,0,0,0,0,0,0,0,0,0,-1,1812,1618,0,0
595,-594,0,0,0,0,0,0,0,0,0,-1,1819,1618,0,0
602,-594,0,0,0,0,0,0,0,0,0,-1,1826,1618,0,0
609,-594,0,0,0,0,0,0,0,0,0,-1,1833,1618,0,0
616,-594,0,0,0,0,0,0,0,0,0,-1,1840,1618,0,0
623,-594,0,0,0,0,0,0,0,0,0,-1,1847,1618,0,0
630,-594,0,0,0,0,0,0,0,0,0,-1,1854,1618,0,0
637,-594,0,0,0,0,0,0,0,0,0,-1,1861,1618,0,0
644,-594,0,0,0,0,0,0,0,0,0,-1,1868,1618,0,0
651,-594,0,0,0,0,0,0,0,0,0,-1,1875,1618,0,0
658,-594,0,0,0,0,0,0,0,0,0,-1,1882,1618,0,0
665,-594,0,0,0,0,0,0,0,0,0,-1,1889,1618,0,0
672,-594,0,0,0,0,0,0,0,0,0,-1,1896,1618,0,0
679,-594,0,0,0,0,0,0,0,0,0,-1,1903,1618,0,0
686,-594,0,0,0,0,0,0,0,0,0,-1,1910,1618,0,0
693,-594,0,0,0,0,0,0,0,0,0,-1,1917,1618,0,0
700,-594,0,0,0,0,0,0,0,0,0,-1,1924,1618,0,0
707,-594,0,0,0,0,0,0,0,0,0,-1,1931,1618,0,0
714,-594,0,0,0,0,0,0,0,0,0,-1,1938,1618,0,0
721,-594,0,0,0,0,0,0,0,0,0,-1,1945,1618,0,0
728,-594,0,0,0,0,0,0,0,0,0,-1,1952,1618,0,0
735,-594,0,0,0,0,0,0,0,0,0,-1,1959,1618,0,0
742,-594,0,0,0,0,0,0,0,0,0,-1,1966,1618,0,0
749,-594,0,0,0,0,0,0,0,0,0,-1,1973,1618,0,0
756,-594,0,0,0,0,0,0,0,0,0,-1,1980,1618,0,0
763,-594,0,0,0,0,0,0,0,0,0,-1,1987,1618,0,0
770,-594,0,0,0,0,0,0,0,0,0,-1,1994,1618,0,0
777,-594,0,0,0,0,0,0,0,0,0,-1,2001,1618,0,0
784,-594,0,0,0,0,0,0,0,0,0,-1,2008,1618,0,0
791,-594,0,0,0,0,0,0,0,0,0,-1,2015,1618,0,0
798,-594,0,0,0,0,0,0,0,0,0,-1,2022,1618,0,0
805,-594,0,0,0,0,0,0,0,0,0,-1,2029,1618,0,0
812,-594,0,0,0,0,0,0,0,0,0,-1,2036,1618,0,0
-700,-601,0,0,0,0,0,0,0,0,0,-1,524,1625,0,0
-693,-601,0,0,0,0,0,0,0,0,0,-1,531,1625,0,0
-686,-601,0,0,0,0,0,0,0,0,0,-1,538,1625,0,0
-679,-601,0,0,0,0,0,0,0,0,0,-1,545,1625,0,0
-672,-601,0,0,0,0,0,0,0,0,0,-1,552,1625,0,0
-665,-601,0,0,0,0,0,0,0,0,0,-1,559,1625,0,0
-658,-601,0,0,0,0,0,0,0,0,0,-1,566,1625,0,0
-651,-601,0,0,0,0,0,0,0,0,0,-1,573,1625,0,0
-644,-601,0,0,0,0,0,0,0,0,0,-1,580,1625,0,0
-637,-601,0,0,0,0,0,0,0,0,0,-1,587,1625,0,0
-630,-601,0,0,0,0,0,0,0,0,0,-1,594,1625,0,0
-623,-601,0,0,0,0,0,0,0,0,0,-1,601,1625,0,0
-616,-601,0,0,0,0,0,0,0,0,0,-1,608,1625,0,0
-609,-601,0,0,0,0,0,0,0,0,0,-1,615,1625,0,0
-602,-601,0,0,0,0,0,0,0,0,0,-1,622,1625,0,0
-595,-601,0,0,0,0,0,0,0,0,0,-1,629,1625,0,0
-588,-601,0,0,0,0,0,0,0,0,0,-1,636,1625,0,0
-581,-601,0,0,0,0,0,0,0,0,0,-1,643,1625,0,0
-574,-601,0,0,0,0,0,0,0,0,0,-1,650,1625,0,0
-567,-601,0,0,0,0,0,0,0,0,0,-1,657,1625,0,0
-560,-601,0,0,0,0,0,0,0,0,0,-1,664,1625,0,0
-553,-601,0,0,0,0,0,0,0,0,0,-1,671,1625,0,0
-546,-601,0,0,0,0,0,0,0,0,0,-1,678,1625,0,0
-539,-601,0,0,0,0,0,0,0,0,0,-1,685,1625,0,0
-532,-601,0,0,0,0,0,0,0,0,0,-1,692,1625,0,0
-525,-601,0,0,0,0,0,0,0,0,0,-1,699,1625,0,0
-518,-601,0,0,0,0,0,0,0,0,0,-1,706,1625,0,0
-511,-601,0,0,0,0,0,0,0,0,0,-1,713,1625,0,0
-504,-601,0,0,0,0,0,0,0,0,0,-1,720,1625,0,0
-497,-601,0,0,0,0,0,0,0,0,0,-1,727,1625,0,0
-490,-601,0,0,0,0,0,0,0,0,0,-1,734,1625,0,0
-483,-601,0,0,0,0,0,0,0,0,0,-1,741,1625,0,0
-476,-601,0,0,0,0,0,0,0,0,0,-1,748,1625,0,0
-469,-601,0,0,0,0,0,0,0,0,0,-1,755,1625,0,0
-462,-601,0,0,0,0,0,0,0,0,0,-1,762,1625,0,0
-455,-601,0,0,0,0,0,0,0,0,0,-1,769,1625,0,0
-448,-601,-7.07623,2.7616,0,0,0,0,0,0,0,-1,776,1625,-7.07626,-2.76161
-441,-601,-6.06689,3.33447,0,0,0,0,0,0,0,-1,783,1625,-6.06691,-3.33448
-434,-601,-5.02655,3.8468,0,0,0,0,0,0,0,-1,790,1625,-5.02657,-3.84674
-427,-601,-5.78601,4.2406,0,0,0,0,0,0,0,-1,797,1625,-5.786,-4.24058
-420,-601,-5.5191,5.60364,0,0,0,0,0,0,0,-1,804,1625,-5.51907,-5.60368
-413,-601,-4.30756,5.86047,0,0,0,0,0,0,0,-1,811,1625,-4.30757,-5.86046
-406,-601,-1.67493,7.20422,0,0,0,0,0,0,0,-1,818,1625,-1.67493,-7.20428
-399,-601,1.40094,15.3108,0,0,0,0,0,0,0,-1,825,1625,1.40096,-15.3107
-392,-601,0.678833,30.98,0,0,0,0,0,0,0,-1,832,1625,0.678827,-30.98
-385,-601,0.915161,33.2783,0,0,0,0,0,0,0,-1,839,1625,0.915179,-33.2783
-378,-601,0.67981,33.1798,0,0,0,0,0,0,0,-1,846,1625,0.679819,-33.1798
-371,-601,0.765076,33.9904,-0.000504063,-0.00586341,0.00134764,-0.000184271,-0.0061832,0.232988,0.0040621,0.0252851,853,1625,0.765076,-33.9904
-364,-601,0.751526,34.7148,-0.000580081,-0.00494224,0.0010939,-0.000321136,-0.00520118,0.232439,0.00336552,0.0132227,860,1625,0.751556,-34.7148
-357,-601,0.687927,35.4172,-0.000409736,-0.00398087,0.000948762,-0.000173324,-0.00421728,0.244206,0.00275556,0.0110111,867,1625,0.687915,-35.4172
-350,-601,0.689514,36.1812,-0.000139587,-0.00299924,0.00085377,9.5917e-05,-0.00323475,0.269147,0.00218917,0.0221842,874,1625,0.689543,-36.1811
-343,-601,0.607971,36.8792,0.000227684,-0.00193575,0.000850464,0.000521976,-0.00223004,0.33314,0.00168781,0.0255956,881,1625,0.607987,-36.8792
-336,-601,0.51062,37.4851,0.000725874,-0.000844938,0.000964725,0.00118448,-0.00130354,0.443751,0.00143701,0.023471,888,1625,0.510596,-37.4851
-329,-601,0.523926,38.1531,0.00138427,0.00055196,0.00133507,0.00236654,-0.000430311,0.634315,0.00173897,0.0185842,895,1625,0.523943,-38.1531
-322,-601,0.557373,38.821,0.00216158,0.00234164,0.00197643,0.00423009,0.000273126,0.808158,0.00273357,0.0127789,902,1625,0.557344,-38.821
-315,-601,0.548279,39.3988,0.00301368,0.00417465,0.00271659,0.00637208,0.000816247,0.890656,0.0040038,0.0139819,909,1625,0.548305,-39.3988
-308,-601,0.496094,40.0452,0.00397945,0.00612038,0.00355028,0.00875806,0.00134177,0.931822,0.00544682,0.0130934,916,1625,0.496083,-40.0451
-301,-601,0.470337,40.7036,0.0051216,0.00831891,0.00473434,0.0117172,0.00172329,0.948223,0.00730512,0.0105525,923,1625,0.470353,-40.7036
-294,-601,0.455322,41.3264,0.00642566,0.0110047,0.00625291,0.015374,0.00205628,0.960893,0.00963734,0.0103841,930,1625,0.455349,-41.3264
-287,-601,0.425354,41.9739,0.0077905,0.0140135,0.00789155,0.0193848,0.0024192,0.973182,0.012197,0.010844,937,1625,0.425368,-41.9739
-280,-601,0.426331,42.6155,0.00932186,0.0171298,0.00968252,0.0236658,0.00278589,0.977028,0.0149354,0.0129655,944,1625,0.426332,-42.6154
-273,-601,0.423523,43.2633,0.0109378,0.0202453,0.0115247,0.0280204,0.00316269,0.977291,0.0177204,0.0133248,951,1625,0.423499,-43.2633
-266,-601,0.462524,43.9063,0.012618,0.0230692,0.0134682,0.0322901,0.00339712,0.970455,0.0204884,0.0154529,958,1625,0.462502,-43.9063
-259,-601,0.517761,44.4746,0.014363,0.0257544,0.0153575,0.0364384,0.00367896,0.962973,0.0231635,0.0282164,965,1625,0.517771,-44.4746
-252,-601,0.567322,45.0663,0,0,0,0,0,0,0,-1,972,1625,0.567316,-45.0663
-245,-601,0.841553,46.3618,0,0,0,0,0,0,0,-1,979,1625,0.841549,-46.3618
-238,-601,2.75482,35.777,0,0,0,0,0,0,0,-1,986,1625,2.75481,-35.777
-231,-601,2.66772,13.7051,0,0,0,0,0,0,0,-1,993,1625,2.6677,-13.7051
-224,-601,-0.0305176,9.13684,0,0,0,0,0,0,0,-1,1000,1625,-0.030498,-9.13681
-217,-601,3.39429,10.3898,0,0,0,0,0,0,0,-1,1007,1625,3.39431,-10.3898
-210,-601,-6.53699,15.7931,0,0,0,0,0,0,0,-1,1014,1625,-6.53697,-15.7931
-203,-601,2.69348,15.9099,0,0,0,0,0,0,0,-1,1021,1625,2.69351,-15.91
-196,-601,2.66992,16.1815,0,0,0,0,0,0,0,-1,1028,1625,2.66995,-16.1815
-189,-601,2.849,16.6105,0,0,0,0,0,0,0,-1,1035,1625,2.84902,-16.6104
-182,-601,1.82153,13.9752,0,0,0,0,0,0,0,-1,1042,1625,1.82155,-13.9752
-175,-601,0.544922,9.28687,0,0,0,0,0,0,0,-1,1049,1625,0.544879,-9.28685
-168,-601,-0.247559,8.97461,0,0,0,0,0,0,0,-1,1056,1625,-0.247598,-8.97466
-161,-601,-1.16833,8.80078,0,0,0,0,0,0,0,-1,1063,1625,-1.16837,-8.80081
-154,-601,1.12756,7.94861,0,0,0,0,0,0,0,-1,1070,1625,1.12762,-7.94855
-147,-601,1.35352,9.55432,0,0,0,0,0,0,0,-1,1077,1625,1.35351,-9.55429
-140,-601,1.72437,11.1498,0,0,0,0,0,0,0,-1,1084,1625,1.72432,-11.1498
-133,-601,2.13281,12.8347,0,0,0,0,0,0,0,-1,1091,1625,2.13287,-12.8348
-126,-601,3.09534,15.427,0,0,0,0,0,0,0,-1,1098,1625,3.0953,-15.4271
-119,-601,1.22485,9.43457,0,0,0,0,0,0,0,-1,1105,1625,1.22489,-9.43456
-112,-601,0,0,0,0,0,0,0,0,0,-1,1112,1625,0,0
-105,-601,0,0,0,0,0,0,0,0,0,-1,1119,1625,0,0
-98,-601,0,0,0,0,0,0,0,0,0,-1,1126,1625,0,0
-91,-601,0,0,0,0,0,0,0,0,0,-1,1133,1625,0,0
-84,-601,0,0,0,0,0,0,0,0,0,-1,1140,1625,0,0
-77,-601,0,0,0,0,0,0,0,0,0,-1,1147,1625,0,0
-70,-601,0,0,0,0,0,0,0,0,0,-1,1154,1625,0,0
-63,-601,0,0,0,0,0,0,0,0,0,-1,1161,1625,0,0
-56,-601,0,0,0,0,0,0,0,0,0,-1,1168,1625,0,0
-49,-601,0,0,0,0,0,0,0,0,0,-1,1175,1625,0,0
-42,-601,0,0,0,0,0,0,0,0,0,-1,1182,1625,0,0
-35,-601,0,0,0,0,0,0,0,0,0,-1,1189,1625,0,0
-28,-601,0,0,0,0,0,0,0,0,0,-1,1196,1625,0,0
-21,-601,0,0,0,0,0,0,0,0,0,-1,1203,1625,0,0
-14,-601,0,0,0,0,0,0,0,0,0,-1,1210,1625,0,0
-7,-601,0,0,0,0,0,0,0,0,0,-1,1217,1625,0,0
0,-601,0,0,0,0,0,0,0,0,0,-1,1224,1625,0,0
7,-601,0,0,0,0,0,0,0,0,0,-1,1231,1625,0,0
14,-601,0,0,0,0,0,0,0,0,0,-1,1238,1625,0,0
21,-601,0,0,0,0,0,0,0,0,0,-1,1245,1625,0,0
28,-601,0,0,0,0,0,0,0,0,0,-1,1252,1625,0,0
35,-601,0,0,0,0,0,0,0,0,0,-1,1259,1625,0,0
42,-601,0,0,0,0,0,0,0,0,0,-1,1266,1625,0,0
49,-601,0,0,0,0,0,0,0,0,0,-1,1273,1625,0,0
56,-601,0,0,0,0,0,0,0,0,0,-1,1280,1625,0,0
63,-601,0,0,0,0,0,0,0,0,0,-1,1287,1625,0,0
70,-601,0,0,0,0,0,0,0,0,0,-1,1294,1625,0,0
77,-601,0,0,0,0,0,0,0,0,0,-1,1301,1625,0,0
84,-601,0,0,0,0,0,0,0,0,0,-1,1308,1625,0,0
91,-601,0,0,0,0,0,0,0,0,0,-1,1315,1625,0,0
98,-601,0,0,0,0,0,0,0,0,0,-1,1322,1625,0,0
105,-601,0,0,0,0,0,0,0,0,0,-1,1329,1625,0,0
112,-601,0,0,0,0,0,0,0,0,0,-1,1336,1625,0,0
119,-601,0,0,0,0,0,0,0,0,0,-1,1343,1625,0,0
126,-601,0,0,0,0,0,0,0,0,0,-1,1350,1625,0,0
133,-601,0,0,0,0,0,0,0,0,0,-1,1357,1625,0,0
140,-601,0,0,0,0,0,0,0,0,0,-1,1364,1625,0,0
147,-601,0,0,0,0,0,0,0,0,0,-1,1371,1625,0,0
154,-601,0,0,0,0,0,0,0,0,0,-1,1378,1625,0,0
161,-601,0,0,0,0,0,0,0,0,0,-1,1385,1625,0,0
168,-601,0,0,0,0,0,0,0,0,0,-1,1392,1625,0,0
175,-601,0,0,0,0,0,0,0,0,0,-1,1399,1625,0,0
182,-601,0,0,0,0,0,0,0,0,0,-1,1406,1625,0,0
189,-601,0,0,0,0,0,0,0,0,0,-1,1413,1625,0,0
196,-601,0,0,0,0,0,0,0,0,0,-1,1420,1625,0,0
203,-601,0,0,0,0,0,0,0,0,0,-1,1427,1625,0,0
210,-601,0,0,0,0,0,0,0,0,0,-1,1434,1625,0,0
217,-601,0,0,0,0,0,0,0,0,0,-1,1441,1625,0,0
224,-601,0,0,0,0,0,0,0,0,0,-1,1448,1625,0,0
231,-601,-0.0371094,0.525879,0,0,0,0,0,0,0,-1,1455,1625,-0.0371518,-0.525824
238,-601,2.03369,-1.32861,0,0,0,0,0,0,0,-1,1462,1625,2.03364,1.32858
245,-601,2.71375,2.44983,0,0,0,0,0,0,0,-1,1469,1625,2.71371,-2.44979
252,-601,4.66943,2.28381,0,0,0,0,0,0,0,-1,1476,1625,4.66947,-2.28376
259,-601,6.42712,2.61987,0,0,0,0,0,0,0,-1,1483,1625,6.42711,-2.61985
266,-601,6.75317,1.68701,0,0,0,0,0,0,0,-1,1490,1625,6.75323,-1.687
273,-601,5.4314,2.92053,0,0,0,0,0,0,0,-1,1497,1625,5.43144,-2.92051
280,-601,4.64722,1.17786,0,0,0,0,0,0,0,-1,1504,1625,4.64722,-1.1779
287,-601,5.32532,2.6217,0,0,0,0,0,0,0,-1,1511,1625,5.32535,-2.62171
294,-601,5.97693,4.22693,0,0,0,0,0,0,0,-1,1518,1625,5.97697,-4.22694
301,-601,7.28162,9.50024,0,0,0,0,0,0,0,-1,1525,1625,7.28162,-9.50025
308,-601,6.53528,10.3927,0,0,0,0,0,0,0,-1,1532,1625,6.53529,-10.3927
315,-601,4.88013,11.7184,0,0,0,0,0,0,0,-1,1539,1625,4.88015,-11.7184
322,-601,3.38098,12.7864,0,0,0,0,0,0,0,-1,1546,1625,3.38104,-12.7864
329,-601,1.8772,13.8768,0,0,0,0,0,0,0,-1,1553,1625,1.87716,-13.8768
336,-601,4.67847,9.53308,0,0,0,0,0,0,0,-1,1560,1625,4.67848,-9.53309
343,-601,11.1404,3.14575,0,0,0,0,0,0,0,-1,1567,1625,11.1404,-3.1458
350,-601,10.9462,2.37769,0,0,0,0,0,0,0,-1,1574,1625,10.9461,-2.37764
357,-601,10.7518,1.6095,0,0,0,0,0,0,0,-1,1581,1625,10.7518,-1.60948
364,-601,5.33643,9.74426,0,0,0,0,0,0,0,-1,1588,1625,5.33637,-9.74429
371,-601,16.647,46.2012,0,0,0,0,0,0,0,-1,1595,1625,16.6469,-46.2012
378,-601,16.9058,45.6639,0.0224511,0.0232147,-0.0155464,0.038384,0.00728184,-0.797675,0.0235405,0.0491451,1602,1625,16.9058,-45.664
385,-601,17.1975,45.0264,0.0185041,0.0190996,-0.0117532,0.0305588,0.00704486,-0.798062,0.0184774,0.0466192,1609,1625,17.1975,-45.0263
392,-601,17.3037,44.3583,0.0148462,0.0156639,-0.00846972,0.0237346,0.00677544,-0.809517,0.0141174,0.0419576,1616,1625,17.3037,-44.3583
399,-601,17.4224,43.6155,0.0116821,0.0131686,-0.00607849,0.0185491,0.0063016,-0.846235,0.0108912,0.0223205,1623,1625,17.4223,-43.6155
406,-601,17.467,42.9703,0.00917578,0.0112951,-0.00453865,0.0148962,0.00557474,-0.900082,0.00869051,0.0143947,1630,1625,17.467,-42.9703
413,-601,17.4249,42.3616,0.0072865,0.00987289,-0.00365852,0.01246,0.00469934,-0.955282,0.00726583,0.0129282,1637,1625,17.4249,-42.3615
420,-601,17.4222,41.7231,0.00580466,0.00864254,-0.0030826,0.0106171,0.0038301,-1.00109,0.00620852,0.01049,1644,1625,17.4223,-41.7232
427,-601,17.4535,41.1063,0.00446789,0.00741797,-0.00243177,0.00878709,0.00309877,-1.05802,0.00514614,0.0149306,1651,1625,17.4534,-41.1063
434,-601,17.418,40.464,0.00336193,0.00653787,-0.00214016,0.00761485,0.00228495,-1.10457,0.00451208,0.0158983,1658,1625,17.418,-40.464
441,-601,17.4038,39.8303,0.00279813,0.00567898,-0.00218571,0.00685621,0.0016209,-1.07674,0.00413773,0.0179921,1665,1625,17.4039,-39.8303
448,-601,17.4015,39.2529,0.0024867,0.00490933,-0.00230508,0.00630199,0.00109405,-1.02732,0.00388829,0.0153548,1672,1625,17.4015,-39.253
455,-601,17.3745,38.6061,0.00210603,0.00437561,-0.00251729,0.00600208,0.000479568,-0.997157,0.00385149,0.0130984,1679,1625,17.3745,-38.6061
462,-601,17.3201,37.9738,0.00191244,0.00339879,-0.00257951,0.00534005,-2.88121e-05,-0.925654,0.00356968,0.0116712,1686,1625,17.3201,-37.9737
469,-601,17.2844,37.3727,0.00175939,0.00249451,-0.00249361,0.00464751,-0.000393606,-0.858571,0.00323753,0.011921,1693,1625,17.2844,-37.3726
476,-601,17.2577,36.7314,0.00145991,0.0018486,-0.0023363,0.00399863,-0.000690118,-0.826895,0.00292308,0.0139374,1700,1625,17.2576,-36.7315
483,-601,17.2274,36.0767,0.00107887,0.00108707,-0.00218965,0.00327263,-0.00110668,-0.786334,0.00262946,0.016499,1707,1625,17.2274,-36.0766
490,-601,17.1757,35.4264,0.000660839,0.000458194,-0.00204716,0.00260918,-0.00149015,-0.760671,0.00239596,0.0128303,1714,1625,17.1757,-35.4264
497,-601,17.1573,34.7648,0.000271227,-2.08582e-05,-0.00191844,0.00204918,-0.00179881,-0.747409,0.0022232,0.0116711,1721,1625,17.1573,-34.7648
504,-601,17.1783,34.0876,-9.87487e-05,-0.000293591,-0.00186163,0.00166801,-0.00206035,-0.759257,0.00215654,0.0232745,1728,1625,17.1783,-34.0876
511,-601,17.0775,33.5214,-0.000662277,-0.000707955,-0.00159323,0.000908274,-0.00227851,-0.778231,0.00189573,0.038058,1735,1625,17.0776,-33.5214
518,-601,17.0236,32.8342,-0.00131531,-0.000744266,-0.00150189,0.000498998,-0.00255857,-0.879331,0.00189409,0.0455122,1742,1625,17.0236,-32.8342
525,-601,16.705,31.723,0,0,0,0,0,0,0,-1,1749,1625,16.705,-31.723
532,-601,16.3573,21.5406,0,0,0,0,0,0,0,-1,1756,1625,16.3573,-21.5406
539,-601,7.77112,11.4299,0,0,0,0,0,0,0,-1,1763,1625,7.77116,-11.4299
546,-601,6.56873,3.62354,0,0,0,0,0,0,0,-1,1770,1625,6.56867,-3.62352
553,-601,7.03015,4.25049,0,0,0,0,0,0,0,-1,1777,1625,7.03011,-4.25048
560,-601,7.50745,4.83374,0,0,0,0,0,0,0,-1,1784,1625,7.50744,-4.83376
567,-601,7.82043,3.83301,0,0,0,0,0,0,0,-1,1791,1625,7.82041,-3.83303
574,-601,0,0,0,0,0,0,0,0,0,-1,1798,1625,0,0
581,-601,0,0,0,0,0,0,0,0,0,-1,1805,1625,0,0
588,-601,0,0,0,0,0,0,0,0,0,-1,1812,1625,0,0
595,-601,0,0,0,0,0,0,0,0,0,-1,1819,1625,0,0
602,-601,0,0,0,0,0,0,0,0,0,-1,1826,1625,0,0
609,-601,0,0,0,0,0,0,0,0,0,-1,1833,1625,0,0
616,-601,0,0,0,0,0,0,0,0,0,-1,1840,1625,0,0
623,-601,0,0,0,0,0,0,0,0,0,-1,1847,1625,0,0
630,-601,0,0,0,0,0,0,0,0,0,-1,1854,1625,0,0
637,-601,0,0,0,0,0,0,0,0,0,-1,1861,1625,0,0
644,-601,0,0,0,0,0,0,0,0,0,-1,1868,1625,0,0
651,-601,0,0,0,0,0,0,0,0,0,-1,1875,1625,0,0
658,-601,0,0,0,0,0,0,0,0,0,-1,1882,1625,0,0
665,-601,0,0,0,0,0,0,0,0,0,-1,1889,1625,0,0
672,-601,0,0,0,0,0,0,0,0,0,-1,1896,1625,0,0
679,-601,0,0,0,0,0,0,0,0,0,-1,1903,1625,0,0
686,-601,0,0,0,0,0,0,0,0,0,-1,1910,1625,0,0
693,-601,0,0,0,0,0,0,0,0,0,-1,1917,1625,0,0
700,-601,0,0,0,0,0,0,0,0,0,-1,1924,1625,0,0
707,-601,0,0,0,0,0,0,0,0,0,-1,1931,1625,0,0
714,-601,0,0,0,0,0,0,0,0,0,-1,1938,1625,0,0
721,-601,0,0,0,0,0,0,0,0,0,-1,1945,1625,0,0
728,-601,0,0,0,0,0,0,0,0,0,-1,1952,1625,0,0
735,-601,0,0,0,0,0,0,0,0,0,-1,1959,1625,0,0
742,-601,0,0,0,0,0,0,0,0,0,-1,1966,1625,0,0
749,-601,0,0,0,0,0,0,0,0,0,-1,1973,1625,0,0
756,-601,0,0,0,0,0,0,0,0,0,-1,1980,1625,0,0
763,-601,0,0,0,0,0,0,0,0,0,-1,1987,1625,0,0
770,-601,0,0,0,0,0,0,0,0,0,-1,1994,1625,0,0
777,-601,0,0,0,0,0,0,0,0,0,-1,2001,1625,0,0
784,-601,0,0,0,0,0,0,0,0,0,-1,2008,1625,0,0
791,-601,0,0,0,0,0,0,0,0,0,-1,2015,1625,0,0
798,-601,0,0,0,0,0,0,0,0,0,-1,2022,1625,0,0
805,-601,0,0,0,0,0,0,0,0,0,-1,2029,1625,0,0
812,-601,0,0,0,0,0,0,0,0,0,-1,2036,1625,0,0
-700,-608,0,0,0,0,0,0,0,0,0,-1,524,1632,0,0
-693,-608,0,0,0,0,0,0,0,0,0,-1,531,1632,0,0
-686,-608,0,0,0,0,0,0,0,0,0,-1,538,1632,0,0
-679,-608,0,0,0,0,0,0,0,0,0,-1,545,1632,0,0
-672,-608,0,0,0,0,0,0,0,0,0,-1,552,1632,0,0
-665,-608,0,0,0,0,0,0,0,0,0,-1,559,1632,0,0
-658,-608,0,0,0,0,0,0,0,0,0,-1,566,1632,0,0
-651,-608,0,0,0,0,0,0,0,0,0,-1,573,1632,0,0
-644,-608,0,0,0,0,0,0,0,0,0,-1,580,1632,0,0
-637,-608,0,0,0,0,0,0,0,0,0,-1,587,1632,0,0
-630,-608,0,0,0,0,0,0,0,0,0,-1,594,1632,0,0
-623,-608,0,0,0,0,0,0,0,0,0,-1,601,1632,0,0
-616,-608,0,0,0,0,0,0,0,0,0,-1,608,1632,0,0
-609,-608,0,0,0,0,0,0,0,0,0,-1,615,1632,0,0
-602,-608,0,0,0,0,0,0,0,0,0,-1,622,1632,0,0
-595,-608,0,0,0,0,0,0,0,0,0,-1,629,1632,0,0
-588,-608,0,0,0,0,0,0,0,0,0,-1,636,1632,0,0
-581,-608,0,0,0,0,0,0,0,0,0,-1,643,1632,0,0
-574,-608,0,0,0,0,0,0,0,0,0,-1,650,1632,0,0
-567,-608,0,0,0,0,0,0,0,0,0,-1,657,1632,0,0
-560,-608,0,0,0,0,0,0,0,0,0,-1,664,1632,0,0
-553,-608,0,0,0,0,0,0,0,0,0,-1,671,1632,0,0
-546,-608,0,0,0,0,0,0,0,0,0,-1,678,1632,0,0
-539,-608,0,0,0,0,0,0,0,0,0,-1,685,1632,0,0
-532,-608,0,0,0,0,0,0,0,0,0,-1,692,1632,0,0
-525,-608,0,0,0,0,0,0,0,0,0,-1,699,1632,0,0
-518,-608,0,0,0,0,0,0,0,0,0,-1,706,1632,0,0
-511,-608,0,0,0,0,0,0,0,0,0,-1,713,1632,0,0
-504,-608,0,0,0,0,0,0,0,0,0,-1,720,1632,0,0
-497,-608,0,0,0,0,0,0,0,0,0,-1,727,1632,0,0
-490,-608,0,0,0,0,0,0,0,0,0,-1,734,1632,0,0
-483,-608,0,0,0,0,0,0,0,0,0,-1,741,1632,0,0
-476,-608,0,0,0,0,0,0,0,0,0,-1,748,1632,0,0
-469,-608,0,0,0,0,0,0,0,0,0,-1,755,1632,0,0
-462,-608,0,0,0,0,0,0,0,0,0,-1,762,1632,0,0
-455,-608,0,0,0,0,0,0,0,0,0,-1,769,1632,0,0
-448,-608,0,0,0,0,0,0,0,0,0,-1,776,1632,0,0
-441,-608,-7.34601,2.78052,0,0,0,0,0,0,0,-1,783,1632,-7.346,-2.78056
-434,-608,-6.34558,3.27405,0,0,0,0,0,0,0,-1,790,1632,-6.34555,-3.27406
-427,-608,-7.74335,4.17688,0,0,0,0,0,0,0,-1,797,1632,-7.74334,-4.17693
-420,-608,-6.82794,4.34839,0,0,0,0,0,0,0,-1,804,1632,-6.82794,-4.34838
-413,-608,-5.41919,5.66138,0,0,0,0,0,0,0,-1,811,1632,-5.41917,-5.66133
-406,-608,-4.79681,4.98999,0,0,0,0,0,0,0,-1,818,1632,-4.79684,-4.98997
-399,-608,-2.60645,6.34167,0,0,0,0,0,0,0,-1,825,1632,-2.60643,-6.34169
-392,-608,2.08356,15.437,0,0,0,0,0,0,0,-1,832,1632,2.08354,-15.437
-385,-608,1.51526,31.5153,0,0,0,0,0,0,0,-1,839,1632,1.51527,-31.5153
-378,-608,1.66779,33.2322,0,0,0,0,0,0,0,-1,846,1632,1.66778,-33.2322
-371,-608,1.47375,33.8099,0,0,0,0,0,0,0,-1,853,1632,1.47378,-33.8099
-364,-608,1.47943,34.6653,-0.000809611,-0.00593295,0.00150709,-0.000399164,-0.0063434,0.265895,0.00410236,0.0286776,860,1632,1.47943,-34.6653
-357,-608,1.35046,35.3879,-0.000656119,-0.00479737,0.0013712,-0.00024326,-0.00521022,0.292458,0.0033953,0.0194869,867,1632,1.35049,-35.3879
-350,-608,1.35773,36.1383,-0.000436466,-0.00366137,0.00125902,-3.15811e-06,-0.00409468,0.331465,0.00272873,0.020442,874,1632,1.35774,-36.1384
-343,-608,1.31079,36.8469,-0.000111556,-0.00250175,0.00120949,0.000393679,-0.00300699,0.395692,0.00214794,0.0266917,881,1632,1.31082,-36.847
-336,-608,1.23773,37.5161,0.000309821,-0.00140401,0.00122551,0.000948289,-0.00204248,0.480292,0.00176482,0.0196985,888,1632,1.23773,-37.5162
-329,-608,1.17999,38.2086,0.000845183,-0.00014627,0.00142036,0.00185384,-0.00115493,0.6175,0.00175267,0.0179249,895,1632,1.18002,-38.2086
-322,-608,1.16785,38.8445,0.00145485,0.00127961,0.00178316,0.00315255,-0.000418081,0.760849,0.00225402,0.0168641,902,1632,1.16786,-38.8445
-315,-608,1.17505,39.4379,0.00213019,0.00277329,0.00225407,0.00472862,0.00017485,0.856247,0.00309578,0.016284,909,1632,1.17506,-39.4378
-308,-608,1.11786,40.0994,0.00289397,0.00435515,0.00277804,0.00649706,0.000752056,0.91398,0.00410372,0.0168317,916,1632,1.11784,-40.0993
-301,-608,1.09503,40.7437,0.00379668,0.00606569,0.00359122,0.00869735,0.00116503,0.938393,0.00545155,0.0115433,923,1632,1.095,-40.7437
-294,-608,1.07959,41.3398,0.00484785,0.00811592,0.00467014,0.0114296,0.00153412,0.953687,0.00716336,0.0115051,930,1632,1.07956,-41.3399
-287,-608,1.05621,41.9753,0.00589448,0.0103318,0.00579435,0.0143177,0.00190854,0.968237,0.00897685,0.0111391,937,1632,1.05622,-41.9753
-280,-608,1.0647,42.5992,0.00706881,0.0125764,0.00701342,0.0173573,0.00228793,0.972475,0.0108893,0.00962454,944,1632,1.06471,-42.5992
-273,-608,1.02954,43.231,0.0083381,0.0147397,0.0082536,0.0203914,0.0026864,0.970375,0.0127932,0.0108748,951,1632,1.02954,-43.231
-266,-608,1.03815,43.8739,0.00968608,0.0167027,0.0096509,0.0234632,0.00292561,0.959734,0.0147639,0.0110989,958,1632,1.03814,-43.8739
-259,-608,1.09302,44.4924,0.0111013,0.0185954,0.0110135,0.0264818,0.00321481,0.949367,0.0166865,0.0159682,965,1632,1.093,-44.4924
-252,-608,1.23749,45.1296,0.0127434,0.0201672,0.0122756,0.0292798,0.00363079,0.932216,0.0184292,0.0319602,972,1632,1.23751,-45.1297
-245,-608,1.31494,46.1475,0.0143911,0.0213568,0.0134472,0.0317649,0.00398304,0.912113,0.0199817,0.046885,979,1632,1.31495,-46.1474
-238,-608,1.32068,47.0585,0,0,0,0,0,0,0,-1,986,1632,1.32068,-47.0585
-231,-608,1.6626,46.9142,0,0,0,0,0,0,0,-1,993,1632,1.66257,-46.9141
-224,-608,2.51642,15.3452,0,0,0,0,0,0,0,-1,1000,1632,2.5164,-15.3452
-217,-608,1.04419,12.8451,0,0,0,0,0,0,0,-1,1007,1632,1.04418,-12.8451
-210,-608,2.75903,15.9414,0,0,0,0,0,0,0,-1,1014,1632,2.75903,-15.9414
-203,-608,2.76776,16.217,0,0,0,0,0,0,0,-1,1021,1632,2.76773,-16.217
-196,-608,1.53955,18.6058,0,0,0,0,0,0,0,-1,1028,1632,1.53959,-18.6058
-189,-608,1.37634,19.119,0,0,0,0,0,0,0,-1,1035,1632,1.37634,-19.1191
-182,-608,2.89221,16.7092,0,0,0,0,0,0,0,-1,1042,1632,2.89224,-16.7093
-175,-608,0.219116,15.1643,0,0,0,0,0,0,0,-1,1049,1632,0.219173,-15.1644
-168,-608,0.000366211,9.48645,0,0,0,0,0,0,0,-1,1056,1632,0.000317105,-9.48648
-161,-608,2.27832,15.4423,0,0,0,0,0,0,0,-1,1063,1632,2.27826,-15.4423
-154,-608,1.3999,16.4037,0,0,0,0,0,0,0,-1,1070,1632,1.39987,-16.4037
-147,-608,2.4386,9.50317,0,0,0,0,0,0,0,-1,1077,1632,2.43858,-9.50313
-140,-608,2.60132,10.8401,0,0,0,0,0,0,0,-1,1084,1632,2.60134,-10.8401
-133,-608,3.2312,12.4738,0,0,0,0,0,0,0,-1,1091,1632,3.23116,-12.4738
-126,-608,3.76465,13.9644,0,0,0,0,0,0,0,-1,1098,1632,3.76466,-13.9644
-119,-608,4.28906,15.4196,0,0,0,0,0,0,0,-1,1105,1632,4.28911,-15.4195
-112,-608,0.745117,10.5587,0,0,0,0,0,0,0,-1,1112,1632,0.745145,-10.5587
-105,-608,-0.252319,1.42419,0,0,0,0,0,0,0,-1,1119,1632,-0.252331,-1.42418
-98,-608,-2.8595,3.0863,0,0,0,0,0,0,0,-1,1126,1632,-2.85948,-3.08625
-91,-608,-3.71948,1.73608,0,0,0,0,0,0,0,-1,1133,1632,-3.7195,-1.73607
-84,-608,0,0,0,0,0,0,0,0,0,-1,1140,1632,0,0
-77,-608,0,0,0,0,0,0,0,0,0,-1,1147,1632,0,0
-70,-608,0,0,0,0,0,0,0,0,0,-1,1154,1632,0,0
-63,-608,0,0,0,0,0,0,0,0,0,-1,1161,1632,0,0
-56,-608,0,0,0,0,0,0,0,0,0,-1,1168,1632,0,0
-49,-608,0,0,0,0,0,0,0,0,0,-1,1175,1632,0,0
-42,-608,0,0,0,0,0,0,0,0,0,-1,1182,1632,0,0
-35,-608,0,0,0,0,0,0,0,0,0,-1,1189,1632,0,0
-28,-608,0,0,0,0,0,0,0,0,0,-1,1196,1632,0,0
-21,-608,0,0,0,0,0,0,0,0,0,-1,1203,1632,0,0
-14,-608,0,0,0,0,0,0,0,0,0,-1,1210,1632,0,0
-7,-608,0,0,0,0,0,0,0,0,0,-1,1217,1632,0,0
0,-608,0,0,0,0,0,0,0,0,0,-1,1224,1632,0,0
7,-608,0,0,0,0,0,0,0,0,0,-1,1231,1632,0,0
14,-608,0,0,0,0,0,0,0,0,0,-1,1238,1632,0,0
21,-608,0,0,0,0,0,0,0,0,0,-1,1245,1632,0,0
28,-608,0,0,0,0,0,0,0,0,0,-1,1252,1632,0,0
35,-608,0,0,0,0,0,0,0,0,0,-1,1259,1632,0,0
42,-608,0,0,0,0,0,0,0,0,0,-1,1266,1632,0,0
49,-608,0,0,0,0,0,0,0,0,0,-1,1273,1632,0,0
56,-608,0,0,0,0,0,0,0,0,0,-1,1280,1632,0,0
63,-608,0,0,0,0,0,0,0,0,0,-1,1287,1632,0,0
70,-608,0,0,0,0,0,0,0,0,0,-1,1294,1632,0,0
77,-608,0,0,0,0,0,0,0,0,0,-1,1301,1632,0,0
84,-608,0,0,0,0,0,0,0,0,0,-1,1308,1632,0,0
91,-608,0,0,0,0,0,0,0,0,0,-1,1315,1632,0,0
98,-608,0,0,0,0,0,0,0,0,0,-1,1322,1632,0,0
105,-608,0,0,0,0,0,0,0,0,0,-1,1329,1632,0,0
112,-608,0,0,0,0,0,0,0,0,0,-1,1336,1632,0,0
119,-608,0,0,0,0,0,0,0,0,0,-1,1343,1632,0,0
126,-608,0,0,0,0,0,0,0,0,0,-1,1350,1632,0,0
133,-608,0,0,0,0,0,0,0,0,0,-1,1357,1632,0,0
140,-608,0,0,0,0,0,0,0,0,0,-1,1364,1632,0,0
147,-608,0,0,0,0,0,0,0,0,0,-1,1371,1632,0,0
154,-608,0,0,0,0,0,0,0,0,0,-1,1378,1632,0,0
161,-608,0,0,0,0,0,0,0,0,0,-1,1385,1632,0,0
168,-608,0,0,0,0,0,0,0,0,0,-1,1392,1632,0,0
175,-608,0,0,0,0,0,0,0,0,0,-1,1399,1632,0,0
182,-608,0,0,0,0,0,0,0,0,0,-1,1406,1632,0,0
189,-608,0,0,0,0,0,0,0,0,0,-1,1413,1632,0,0
196,-608,0,0,0,0,0,0,0,0,0,-1,1420,1632,0,0
203,-608,0,0,0,0,0,0,0,0,0,-1,1427,1632,0,0
210,-608,5.7157,-0.333008,0,0,0,0,0,0,0,-1,1434,1632,5.71566,0.333004
217,-608,4.49402,-0.831787,0,0,0,0,0,0,0,-1,1441,1632,4.49396,0.831738
224,-608,4.18018,-1.11792,0,0,0,0,0,0,0,-1,1448,1632,4.1802,1.11796
231,-608,0.361816,0.825195,0,0,0,0,0,0,0,-1,1455,1632,0.36185,-0.825226
238,-608,2.85388,-0.28833,0,0,0,0,0,0,0,-1,1462,1632,2.85391,0.288282
245,-608,3.87537,4.02173,0,0,0,0,0,0,0,-1,1469,1632,3.87538,-4.02168
252,-608,5.66956,3.5282,0,0,0,0,0,0,0,-1,1476,1632,5.6696,-3.52815
259,-608,7.47437,3.07178,0,0,0,0,0,0,0,-1,1483,1632,7.4744,-3.07172
266,-608,9.46936,2.34766,0,0,0,0,0,0,0,-1,1490,1632,9.46932,-2.34764
273,-608,6.03003,3.34241,0,0,0,0,0,0,0,-1,1497,1632,6.02997,-3.34245
280,-608,5.72461,2.0769,0,0,0,0,0,0,0,-1,1504,1632,5.72457,-2.07688
287,-608,6.20581,3.59338,0,0,0,0,0,0,0,-1,1511,1632,6.20585,-3.59341
294,-608,6.94922,5.17151,0,0,0,0,0,0,0,-1,1518,1632,6.94925,-5.17151
301,-608,7.60083,6.68018,0,0,0,0,0,0,0,-1,1525,1632,7.60086,-6.68013
308,-608,7.64746,9.93848,0,0,0,0,0,0,0,-1,1532,1632,7.64745,-9.93842
315,-608,5.30688,11.2054,0,0,0,0,0,0,0,-1,1539,1632,5.30694,-11.2054
322,-608,5.32617,13.7581,0,0,0,0,0,0,0,-1,1546,1632,5.32613,-13.758
329,-608,7.12231,13.9607,0,0,0,0,0,0,0,-1,1553,1632,7.12231,-13.9607
336,-608,5.48633,7.82446,0,0,0,0,0,0,0,-1,1560,1632,5.48634,-7.82446
343,-608,5.47192,5.61047,0,0,0,0,0,0,0,-1,1567,1632,5.47192,-5.61045
350,-608,11.6957,1.71387,0,0,0,0,0,0,0,-1,1574,1632,11.6957,-1.71388
357,-608,3.77002,5.10046,0,0,0,0,0,0,0,-1,1581,1632,3.77002,-5.10043
364,-608,16.1058,47.6455,0,0,0,0,0,0,0,-1,1588,1632,16.1058,-47.6456
371,-608,16.324,46.6448,0.0210555,0.0238855,-0.0161991,0.0387312,0.00620971,-0.828963,0.02402,0.0478232,1595,1632,16.324,-46.6448
378,-608,16.6014,45.6012,0.0178699,0.0197983,-0.0129409,0.0318108,0.00585733,-0.822584,0.0195495,0.0368009,1602,1632,16.6014,-45.6012
385,-608,16.8301,44.8683,0.0148525,0.0161616,-0.0100157,0.0255441,0.00546996,-0.818029,0.0155306,0.032268,1609,1632,16.8301,-44.8683
392,-608,16.79,44.2316,0.0119715,0.0131325,-0.00737236,0.0199472,0.00515681,-0.82469,0.0119558,0.0236015,1616,1632,16.79,-44.2316
399,-608,16.8376,43.5604,0.00944527,0.0107505,-0.00533539,0.0154731,0.00472274,-0.846257,0.00915653,0.0118811,1623,1632,16.8376,-43.5604
406,-608,16.8622,42.9181,0.00744521,0.00904399,-0.00399882,0.0123225,0.00416665,-0.884051,0.00723763,0.00980051,1630,1632,16.8622,-42.9181
413,-608,16.8218,42.3119,0.00591927,0.00766235,-0.00314013,0.0100496,0.00353198,-0.920765,0.0058869,0.0103569,1637,1632,16.8218,-42.3119
420,-608,16.812,41.7048,0.00470406,0.00656252,-0.00258493,0.00838017,0.00288641,-0.957945,0.00491573,0.0179249,1644,1632,16.812,-41.7048
427,-608,16.8218,41.1008,0.00358064,0.00548783,-0.00199879,0.00674884,0.00231962,-1.00797,0.00395939,0.0196348,1651,1632,16.8218,-41.1008
434,-608,16.788,40.4905,0.00269097,0.00481617,-0.0017892,0.00583452,0.00167262,-1.05336,0.00346925,0.0152718,1658,1632,16.7879,-40.4905
441,-608,16.7708,39.8905,0.00226755,0.00420792,-0.00191143,0.00538129,0.00109418,-1.02024,0.00328413,0.0141486,1665,1632,16.7708,-39.8905
448,-608,16.7786,39.3109,0.0020918,0.00368518,-0.00213007,0.00516268,0.000614305,-0.964354,0.00325639,0.0159792,1672,1632,16.7786,-39.3109
455,-608,16.7793,38.6549,0.00188454,0.00330481,-0.00239969,0.00509723,9.21143e-05,-0.929257,0.00336787,0.0119152,1679,1632,16.7792,-38.655
462,-608,16.725,38.0349,0.00178902,0.00262418,-0.00254749,0.00478808,-0.000374886,-0.866635,0.00332407,0.0110075,1686,1632,16.725,-38.0349
469,-608,16.6617,37.4078,0.00169203,0.00195035,-0.00261134,0.00443573,-0.000793344,-0.810109,0.003254,0.00884105,1693,1632,16.6617,-37.4078
476,-608,16.6144,36.761,0.00149296,0.00149717,-0.00260666,0.00410173,-0.00111159,-0.785802,0.00317065,0.00910443,1700,1632,16.6143,-36.761
483,-608,16.5809,36.1161,0.0012234,0.000899961,-0.00259637,0.00366308,-0.00153972,-0.754295,0.0030861,0.00864549,1707,1632,16.581,-36.1161
490,-608,16.5828,35.4585,0.000839768,0.000381917,-0.00256722,0.00318825,-0.00196656,-0.74093,0.00300386,0.011113,1714,1632,16.5828,-35.4585
497,-608,16.6112,34.7628,0.000430203,-2.91897e-05,-0.00243722,0.00264853,-0.00224751,-0.738414,0.00282989,0.0281523,1721,1632,16.6112,-34.7629
504,-608,16.6715,34.0485,0,0,0,0,0,0,0,-1,1728,1632,16.6715,-34.0485
511,-608,16.432,33.7118,0,0,0,0,0,0,0,-1,1735,1632,16.4319,-33.7118
518,-608,16.537,32.9274,0,0,0,0,0,0,0,-1,1742,1632,16.537,-32.9273
525,-608,11.2109,16.2579,0,0,0,0,0,0,0,-1,1749,1632,11.2109,-16.2579
532,-608,8.27917,11.6693,0,0,0,0,0,0,0,-1,1756,1632,8.27919,-11.6694
539,-608,9.40796,1.43457,0,0,0,0,0,0,0,-1,1763,1632,9.40801,-1.43463
546,-608,9.94031,2.1134,0,0,0,0,0,0,0,-1,1770,1632,9.94031,-2.11346
553,-608,10.363,2.81335,0,0,0,0,0,0,0,-1,1777,1632,10.3631,-2.81333
560,-608,9.23999,4.5636,0,0,0,0,0,0,0,-1,1784,1632,9.24,-4.56354
567,-608,0,0,0,0,0,0,0,0,0,-1,1791,1632,0,0
574,-608,0,0,0,0,0,0,0,0,0,-1,1798,1632,0,0
581,-608,0,0,0,0,0,0,0,0,0,-1,1805,1632,0,0
588,-608,0,0,0,0,0,0,0,0,0,-1,1812,1632,0,0
595,-608,0,0,0,0,0,0,0,0,0,-1,1819,1632,0,0
602,-608,0,0,0,0,0,0,0,0,0,-1,1826,1632,0,0
609,-608,0,0,0,0,0,0,0,0,0,-1,1833,1632,0,0
616,-608,0,0,0,0,0,0,0,0,0,-1,1840,1632,0,0
623,-608,0,0,0,0,0,0,0,0,0,-1,1847,1632,0,0
630,-608,0,0,0,0,0,0,0,0,0,-1,1854,1632,0,0
637,-608,0,0,0,0,0,0,0,0,0,-1,1861,1632,0,0
644,-608,0,0,0,0,0,0,0,0,0,-1,1868,1632,0,0
651,-608,0,0,0,0,0,0,0,0,0,-1,1875,1632,0,0
658,-608,0,0,0,0,0,0,0,0,0,-1,1882,1632,0,0
665,-608,0,0,0,0,0,0,0,0,0,-1,1889,1632,0,0
672,-608,0,0,0,0,0,0,0,0,0,-1,1896,1632,0,0
679,-608,0,0,0,0,0,0,0,0,0,-1,1903,1632,0,0
686,-608,0,0,0,0,0,0,0,0,0,-1,1910,1632,0,0
693,-608,0,0,0,0,0,0,0,0,0,-1,1917,1632,0,0
700,-608,0,0,0,0,0,0,0,0,0,-1,1924,1632,0,0
707,-608,0,0,0,0,0,0,0,0,0,-1,1931,1632,0,0
714,-608,0,0,0,0,0,0,0,0,0,-1,1938,1632,0,0
721,-608,0,0,0,0,0,0,0,0,0,-1,1945,1632,0,0
728,-608,0,0,0,0,0,0,0,0,0,-1,1952,1632,0,0
735,-608,0,0,0,0,0,0,0,0,0,-1,1959,1632,0,0
742,-608,0,0,0,0,0,0,0,0,0,-1,1966,1632,0,0
749,-608,0,0,0,0,0,0,0,0,0,-1,1973,1632,0,0
756,-608,0,0,0,0,0,0,0,0,0,-1,1980,1632,0,0
763,-608,0,0,0,0,0,0,0,0,0,-1,1987,1632,0,0
770,-608,0,0,0,0,0,0,0,0,0,-1,1994,1632,0,0
777,-608,0,0,0,0,0,0,0,0,0,-1,2001,1632,0,0
784,-608,0,0,0,0,0,0,0,0,0,-1,2008,1632,0,0
791,-608,0,0,0,0,0,0,0,0,0,-1,2015,1632,0,0
798,-608,0,0,0,0,0,0,0,0,0,-1,2022,1632,0,0
805,-608,0,0,0,0,0,0,0,0,0,-1,2029,1632,0,0
812,-608,0,0,0,0,0,0,0,0,0,-1,2036,1632,0,0
-700,-615,0,0,0,0,0,0,0,0,0,-1,524,1639,0,0
-693,-615,0,0,0,0,0,0,0,0,0,-1,531,1639,0,0
-686,-615,0,0,0,0,0,0,0,0,0,-1,538,1639,0,0
-679,-615,0,0,0,0,0,0,0,0,0,-1,545,1639,0,0
-672,-615,0,0,0,0,0,0,0,0,0,-1,552,1639,0,0
-665,-615,0,0,0,0,0,0,0,0,0,-1,559,1639,0,0
-658,-615,0,0,0,0,0,0,0,0,0,-1,566,1639,0,0
-651,-615,0,0,0,0,0,0,0,0,0,-1,573,1639,0,0
-644,-615,0,0,0,0,0,0,0,0,0,-1,580,1639,0,0
-637,-615,0,0,0,0,0,0,0,0,0,-1,587,1639,0,0
-630,-615,0,0,0,0,0,0,0,0,0,-1,594,1639,0,0
-623,-615,0,0,0,0,0,0,0,0,0,-1,601,1639,0,0
-616,-615,0,0,0,0,0,0,0,0,0,-1,608,1639,0,0
-609,-615,0,0,0,0,0,0,0,0,0,-1,615,1639,0,0
-602,-615,0,0,0,0,0,0,0,0,0,-1,622,1639,0,0
-595,-615,0,0,0,0,0,0,0,0,0,-1,629,1639,0,0
-588,-615,0,0,0,0,0,0,0,0,0,-1,636,1639,0,0
-581,-615,0,0,0,0,0,0,0,0,0,-1,643,1639,0,0
-574,-615,0,0,0,0,0,0,0,0,0,-1,650,1639,0,0
-567,-615,0,0,0,0,0,0,0,0,0,-1,657,1639,0,0
-560,-615,0,0,0,0,0,0,0,0,0,-1,664,1639,0,0
-553,-615,0,0,0,0,0,0,0,0,0,-1,671,1639,0,0
-546,-615,0,0,0,0,0,0,0,0,0,-1,678,1639,0,0
-539,-615,0,0,0,0,0,0,0,0,0,-1,685,1639,0,0
-532,-615,0,0,0,0,0,0,0,0,0,-1,692,1639,0,0
-525,-615,0,0,0,0,0,0,0,0,0,-1,699,1639,0,0
-518,-615,0,0,0,0,0,0,0,0,0,-1,706,1639,0,0
-511,-615,0,0,0,0,0,0,0,0,0,-1,713,1639,0,0
-504,-615,0,0,0,0,0,0,0,0,0,-1,720,1639,0,0
-497,-615,0,0,0,0,0,0,0,0,0,-1,727,1639,0,0
-490,-615,0,0,0,0,0,0,0,0,0,-1,734,1639,0,0
-483,-615,0,0,0,0,0,0,0,0,0,-1,741,1639,0,0
-476,-615,0,0,0,0,0,0,0,0,0,-1,748,1639,0,0
-469,-615,0,0,0,0,0,0,0,0,0,-1,755,1639,0,0
-462,-615,0,0,0,0,0,0,0,0,0,-1,762,1639,0,0
-455,-615,0,0,0,0,0,0,0,0,0,-1,769,1639,0,0
-448,-615,0,0,0,0,0,0,0,0,0,-1,776,1639,0,0
-441,-615,0,0,0,0,0,0,0,0,0,-1,783,1639,0,0
-434,-615,-7.64508,2.98596,0,0,0,0,0,0,0,-1,790,1639,-7.64505,-2.98594
-427,-615,-9.0011,2.89404,0,0,0,0,0,0,0,-1,797,1639,-9.00107,-2.89399
-420,-615,-8.07568,3.0752,0,0,0,0,0,0,0,-1,804,1639,-8.07569,-3.07514
-413,-615,-7.09149,3.396,0,0,0,0,0,0,0,-1,811,1639,-7.09147,-3.39599
-406,-615,-6.21368,3.7312,0,0,0,0,0,0,0,-1,818,1639,-6.21366,-3.73114
-399,-615,-4.84875,3.91907,0,0,0,0,0,0,0,-1,825,1639,-4.84877,-3.91901
-392,-615,1.7395,13.3127,0,0,0,0,0,0,0,-1,832,1639,1.73953,-13.3128
-385,-615,3.42297,14.9401,0,0,0,0,0,0,0,-1,839,1639,3.42296,-14.94
-378,-615,2.80365,34.2993,0,0,0,0,0,0,0,-1,846,1639,2.80367,-34.2993
-371,-615,2.37366,34.7268,0,0,0,0,0,0,0,-1,853,1639,2.37367,-34.7268
-364,-615,2.01575,34.9493,-0.000900884,-0.00661088,0.00289509,0.000310144,-0.00782191,0.396185,0.005321,0.0375768,860,1639,2.01575,-34.9493
-357,-615,2.08685,35.655,-0.000725213,-0.00515115,0.00283535,0.000658548,-0.00653491,0.454032,0.00459189,0.0352268,867,1639,2.08688,-35.655
-350,-615,1.98718,36.2223,-0.000574094,-0.00377463,0.00266197,0.00093159,-0.00528032,0.514762,0.00386832,0.0310284,874,1639,1.9872,-36.2223
-343,-615,1.94604,36.817,-0.000310495,-0.0024592,0.00251476,0.00134979,-0.00411949,0.583523,0.00328988,0.0202524,881,1639,1.94606,-36.817
-336,-615,1.92126,37.5072,1.09947e-05,-0.00134229,0.00236708,0.00179624,-0.00312754,0.646183,0.00287718,0.0113076,888,1639,1.92123,-37.5072
-329,-615,1.85345,38.1864,0.00040947,-0.000231965,0.0022983,0.00240933,-0.00223182,0.716073,0.00268022,0.0120602,895,1639,1.85348,-38.1864
-322,-615,1.82062,38.8615,0.000845619,0.000846648,0.00230376,0.00314989,-0.00145762,0.78551,0.0027193,0.0129805,902,1639,1.82062,-38.8614
-315,-615,1.80115,39.5186,0.00134221,0.00200554,0.00242708,0.00412351,-0.000775758,0.853304,0.00304076,0.0160448,909,1639,1.80115,-39.5185
-308,-615,1.74976,40.1646,0.00191874,0.00324541,0.00259324,0.00525881,-9.46578e-05,0.910611,0.00353785,0.0246749,916,1639,1.74974,-40.1646
-301,-615,1.75073,40.7529,0.00261619,0.00450624,0.00300057,0.00670709,0.000415341,0.937955,0.00433957,0.0144551,923,1639,1.75072,-40.753
-294,-615,1.72003,41.3724,0.00347191,0.00599679,0.00364565,0.00859239,0.000876305,0.95208,0.00545965,0.0110968,930,1639,1.72005,-41.3724
-287,-615,1.6875,42.0024,0.00430123,0.00758166,0.00433133,0.0105729,0.00130995,0.966397,0.00665509,0.00851954,937,1639,1.6875,-42.0025
-280,-615,1.6853,42.6381,0.00522763,0.00915777,0.00509242,0.0126511,0.00173429,0.969537,0.00791953,0.0107817,944,1639,1.68527,-42.6381
-273,-615,1.65051,43.2632,0.00627446,0.0106443,0.00589462,0.0147459,0.00217285,0.96288,0.00919233,0.0126244,951,1639,1.65049,-43.2631
-266,-615,1.62427,43.8582,0.00740108,0.0119666,0.00688866,0.0169409,0.00242679,0.945392,0.0105782,0.0124323,958,1639,1.62426,-43.8581
-259,-615,1.64954,44.4437,0.00859582,0.0133085,0.0079029,0.0191989,0.00270546,0.930284,0.0119995,0.0137967,965,1639,1.64953,-44.4437
-252,-615,1.65546,45.0972,0.00992114,0.0144236,0.0087563,0.0212134,0.00313132,0.911223,0.0132227,0.0186619,972,1639,1.65547,-45.0972
-245,-615,1.77454,45.886,0.0112074,0.0152408,0.00947786,0.0229141,0.00353404,0.890225,0.014245,0.0307327,979,1639,1.77452,-45.886
-238,-615,1.78394,46.5616,0.012676,0.014722,0.010774,0.0245214,0.00287654,0.832733,0.0154781,0.0408673,986,1639,1.78391,-46.5616
-231,-615,1.91589,47.1246,0,0,0,0,0,0,0,-1,993,1639,1.91591,-47.1246
-224,-615,2.0517,47.4244,0,0,0,0,0,0,0,-1,1000,1639,2.05172,-47.4244
-217,-615,2.57983,47.7939,0,0,0,0,0,0,0,-1,1007,1639,2.57981,-47.7939
-210,-615,2.48901,18.9324,0,0,0,0,0,0,0,-1,1014,1639,2.48902,-18.9323
-203,-615,2.13684,18.6173,0,0,0,0,0,0,0,-1,1021,1639,2.13683,-18.6173
-196,-615,4.27161,21.3264,0,0,0,0,0,0,0,-1,1028,1639,4.27165,-21.3264
-189,-615,1.8269,19.6761,0,0,0,0,0,0,0,-1,1035,1639,1.82691,-19.6761
-182,-615,1.87402,50.2983,0,0,0,0,0,0,0,-1,1042,1639,1.87402,-50.2984
-175,-615,2.25159,49.2682,0,0,0,0,0,0,0,-1,1049,1639,2.25158,-49.2682
-168,-615,3.85754,15.472,0,0,0,0,0,0,0,-1,1056,1639,3.85757,-15.472
-161,-615,2.14307,46.5156,0,0,0,0,0,0,0,-1,1063,1639,2.14303,-46.5156
-154,-615,1.37329,47.9545,0,0,0,0,0,0,0,-1,1070,1639,1.37327,-47.9545
-147,-615,0.0180664,48.1396,0,0,0,0,0,0,0,-1,1077,1639,0.0180157,-48.1397
-140,-615,3.73401,10.2349,0,0,0,0,0,0,0,-1,1084,1639,3.73402,-10.2348
-133,-615,2.6178,17.45,0,0,0,0,0,0,0,-1,1091,1639,2.61776,-17.4499
-126,-615,4.43408,12.5017,0,0,0,0,0,0,0,-1,1098,1639,4.43403,-12.5018
-119,-615,4.82983,13.9279,0,0,0,0,0,0,0,-1,1105,1639,4.82986,-13.9278
-112,-615,3.65698,14.4874,0,0,0,0,0,0,0,-1,1112,1639,3.65695,-14.4875
-105,-615,0.958496,2.45398,0,0,0,0,0,0,0,-1,1119,1639,0.958452,-2.45398
-98,-615,-0.647705,2.12109,0,0,0,0,0,0,0,-1,1126,1639,-0.647756,-2.12105
-91,-615,-3.07983,2.97375,0,0,0,0,0,0,0,-1,1133,1639,-3.07989,-2.97376
-84,-615,-2.46509,0.703247,0,0,0,0,0,0,0,-1,1140,1639,-2.46505,-0.703273
-77,-615,-3.17859,1.23755,0,0,0,0,0,0,0,-1,1147,1639,-3.17865,-1.23752
-70,-615,-4.03943,1.43335,0,0,0,0,0,0,0,-1,1154,1639,-4.03942,-1.43339
-63,-615,-4.8877,1.45544,0,0,0,0,0,0,0,-1,1161,1639,-4.88766,-1.45549
-56,-615,0,0,0,0,0,0,0,0,0,-1,1168,1639,0,0
-49,-615,0,0,0,0,0,0,0,0,0,-1,1175,1639,0,0
-42,-615,0,0,0,0,0,0,0,0,0,-1,1182,1639,0,0
-35,-615,0,0,0,0,0,0,0,0,0,-1,1189,1639,0,0
-28,-615,0,0,0,0,0,0,0,0,0,-1,1196,1639,0,0
-21,-615,0,0,0,0,0,0,0,0,0,-1,1203,1639,0,0
-14,-615,0,0,0,0,0,0,0,0,0,-1,1210,1639,0,0
-7,-615,0,0,0,0,0,0,0,0,0,-1,1217,1639,0,0
0,-615,0,0,0,0,0,0,0,0,0,-1,1224,1639,0,0
7,-615,0,0,0,0,0,0,0,0,0,-1,1231,1639,0,0
14,-615,0,0,0,0,0,0,0,0,0,-1,1238,1639,0,0
21,-615,0,0,0,0,0,0,0,0,0,-1,1245,1639,0,0
28,-615,0,0,0,0,0,0,0,0,0,-1,1252,1639,0,0
35,-615,0,0,0,0,0,0,0,0,0,-1,1259,1639,0,0
42,-615,0,0,0,0,0,0,0,0,0,-1,1266,1639,0,0
49,-615,0,0,0,0,0,0,0,0,0,-1,1273,1639,0,0
56,-615,0,0,0,0,0,0,0,0,0,-1,1280,1639,0,0
63,-615,0,0,0,0,0,0,0,0,0,-1,1287,1639,0,0
70,-615,0,0,0,0,0,0,0,0,0,-1,1294,1639,0,0
77,-615,0,0,0,0,0,0,0,0,0,-1,1301,1639,0,0
84,-615,0,0,0,0,0,0,0,0,0,-1,1308,1639,0,0
91,-615,0,0,0,0,0,0,0,0,0,-1,1315,1639,0,0
98,-615,0,0,0,0,0,0,0,0,0,-1,1322,1639,0,0
105,-615,0,0,0,0,0,0,0,0,0,-1,1329,1639,0,0
112,-615,0,0,0,0,0,0,0,0,0,-1,1336,1639,0,0
119,-615,0,0,0,0,0,0,0,0,0,-1,1343,1639,0,0
126,-615,0,0,0,0,0,0,0,0,0,-1,1350,1639,0,0
133,-615,0,0,0,0,0,0,0,0,0,-1,1357,1639,0,0
140,-615,0,0,0,0,0,0,0,0,0,-1,1364,1639,0,0
147,-615,0,0,0,0,0,0,0,0,0,-1,1371,1639,0,0
154,-615,0,0,0,0,0,0,0,0,0,-1,1378,1639,0,0
161,-615,0,0,0,0,0,0,0,0,0,-1,1385,1639,0,0
168,-615,0,0,0,0,0,0,0,0,0,-1,1392,1639,0,0
175,-615,5.39648,-2.00879,0,0,0,0,0,0,0,-1,1399,1639,5.3965,2.00881
182,-615,5.65393,-1.51025,0,0,0,0,0,0,0,-1,1406,1639,5.65388,1.51028
189,-615,5.58972,-1.35608,0,0,0,0,0,0,0,-1,1413,1639,5.58967,1.35607
196,-615,5.49915,-0.693604,0,0,0,0,0,0,0,-1,1420,1639,5.4991,0.693602
203,-615,5.33411,-0.226685,0,0,0,0,0,0,0,-1,1427,1639,5.33414,0.226689
210,-615,5.60278,0.108276,0,0,0,0,0,0,0,-1,1434,1639,5.60284,-0.10831
217,-615,6.26331,-0.307373,0,0,0,0,0,0,0,-1,1441,1639,6.26331,0.307372
224,-615,5.45422,-0.333984,0,0,0,0,0,0,0,-1,1448,1639,5.45422,0.333992
231,-615,4.92542,1.80298,0,0,0,0,0,0,0,-1,1455,1639,4.92537,-1.80297
238,-615,4.76355,1.96729,0,0,0,0,0,0,0,-1,1462,1639,4.76357,-1.96734
245,-615,4.08643,3.15906,0,0,0,0,0,0,0,-1,1469,1639,4.08638,-3.159
252,-615,6.37805,3.73889,0,0,0,0,0,0,0,-1,1476,1639,6.37806,-3.73891
259,-615,8.35974,3.16443,0,0,0,0,0,0,0,-1,1483,1639,8.35975,-3.16444
266,-615,10.3414,2.58997,0,0,0,0,0,0,0,-1,1490,1639,10.3414,-2.58996
273,-615,6.57043,1.84766,0,0,0,0,0,0,0,-1,1497,1639,6.5704,-1.84771
280,-615,7.10449,3.23438,0,0,0,0,0,0,0,-1,1504,1639,7.10447,-3.23435
287,-615,7.35779,4.68542,0,0,0,0,0,0,0,-1,1511,1639,7.35776,-4.68546
294,-615,7.63733,6.29114,0,0,0,0,0,0,0,-1,1518,1639,7.63735,-6.29109
301,-615,8.47925,11.452,0,0,0,0,0,0,0,-1,1525,1639,8.47922,-11.452
308,-615,6.8114,10.9059,0,0,0,0,0,0,0,-1,1532,1639,6.81137,-10.9058
315,-615,5.1427,14.7251,0,0,0,0,0,0,0,-1,1539,1639,5.14269,-14.7251
322,-615,7.17981,17.6864,0,0,0,0,0,0,0,-1,1546,1639,7.17985,-17.6864
329,-615,7.62134,20.4354,0,0,0,0,0,0,0,-1,1553,1639,7.62139,-20.4354
336,-615,6.45007,14.1138,0,0,0,0,0,0,0,-1,1560,1639,6.45011,-14.1138
343,-615,2.40491,6.50134,0,0,0,0,0,0,0,-1,1567,1639,2.40489,-6.50137
350,-615,15.046,46.4662,0,0,0,0,0,0,0,-1,1574,1639,15.046,-46.4662
357,-615,16.0505,47.6608,0,0,0,0,0,0,0,-1,1581,1639,16.0505,-47.6608
364,-615,15.72,47.3999,0,0,0,0,0,0,0,-1,1588,1639,15.72,-47.3999
371,-615,15.9778,46.4933,0.0163252,0.0198719,-0.0128267,0.0310473,0.00514976,-0.85409,0.019213,0.038297,1595,1639,15.9778,-46.4933
378,-615,16.1804,45.3767,0.0140255,0.0164512,-0.0104104,0.0257191,0.00475759,-0.843387,0.0158008,0.0195766,1602,1639,16.1804,-45.3767
385,-615,16.2175,44.702,0.0118008,0.013352,-0.00821938,0.0208323,0.00432053,-0.832441,0.0126955,0.0127933,1609,1639,16.2176,-44.702
392,-615,16.2554,44.1245,0.00962092,0.0108206,-0.00622277,0.0164724,0.00396915,-0.833447,0.00992667,0.0118617,1616,1639,16.2554,-44.1245
399,-615,16.259,43.5359,0.0075981,0.0086831,-0.00457368,0.0127463,0.00353486,-0.844429,0.00759848,0.0124461,1623,1639,16.259,-43.5359
406,-615,16.2441,42.9365,0.00600074,0.00721856,-0.00349523,0.0101575,0.00306178,-0.871638,0.00601663,0.0112682,1630,1639,16.2441,-42.9365
413,-615,16.2178,42.3573,0.00477515,0.0059978,-0.00276314,0.00821643,0.00255651,-0.894266,0.00485524,0.0126165,1637,1639,16.2177,-42.3573
420,-615,16.2057,41.7579,0.00378189,0.00508186,-0.00230091,0.00682283,0.00204093,-0.923057,0.00404373,0.0145569,1644,1639,16.2057,-41.7579
427,-615,16.2052,41.1337,0.00283934,0.00419775,-0.00183122,0.00547166,0.00156542,-0.962986,0.003254,0.0149599,1651,1639,16.2052,-41.1336
434,-615,16.1794,40.5354,0.00212479,0.00373827,-0.00172746,0.00483809,0.00102497,-1.00385,0.00294383,0.0138389,1658,1639,16.1795,-40.5355
441,-615,16.161,39.9305,0.00181616,0.00336702,-0.0019261,0.00466792,0.000515259,-0.976767,0.00295521,0.0147302,1665,1639,16.161,-39.9306
448,-615,16.1395,39.3328,0.00174282,0.00307623,-0.00223428,0.00474116,7.78923e-05,-0.930391,0.00313513,0.0152999,1672,1639,16.1395,-39.3328
455,-615,16.1228,38.701,0.00168432,0.00285219,-0.00256284,0.00489678,-0.000360272,-0.897409,0.003391,0.0143223,1679,1639,16.1229,-38.701
462,-615,16.097,38.0929,0.00169554,0.00245369,-0.00279753,0.00489771,-0.000748478,-0.85274,0.0035411,0.0150746,1686,1639,16.097,-38.0929
469,-615,16.0502,37.4651,0.0016856,0.00201303,-0.00300767,0.00486144,-0.00116281,-0.812588,0.00369015,0.012813,1693,1639,16.0502,-37.4651
476,-615,16.0117,36.7788,0.00165678,0.00173182,-0.00315976,0.00485428,-0.00146568,-0.791335,0.00381966,0.0124964,1700,1639,16.0117,-36.7788
483,-615,16.0248,36.0426,0.00160719,0.00127131,-0.00331001,0.00475352,-0.00187502,-0.760051,0.00394544,0.0291505,1707,1639,16.0247,-36.0426
490,-615,16.004,35.4116,0.00136358,0.00077555,-0.00343252,0.00451466,-0.00237553,-0.742675,0.00404145,0.0478091,1714,1639,16.004,-35.4116
497,-615,16.0956,34.6202,0,0,0,0,0,0,0,-1,1721,1639,16.0956,-34.6203
504,-615,15.389,31.2102,0,0,0,0,0,0,0,-1,1728,1639,15.389,-31.2102
511,-615,15.2349,30.2052,0,0,0,0,0,0,0,-1,1735,1639,15.2348,-30.2052
518,-615,13.2416,9.81812,0,0,0,0,0,0,0,-1,1742,1639,13.2416,-9.81813
525,-615,4.37524,3.90491,0,0,0,0,0,0,0,-1,1749,1639,4.37518,-3.90495
532,-615,7.3645,0.848145,0,0,0,0,0,0,0,-1,1756,1639,7.36451,-0.848093
539,-615,12.8112,-0.0476074,0,0,0,0,0,0,0,-1,1763,1639,12.8111,0.0475553
546,-615,8.33813,2.94556,0,0,0,0,0,0,0,-1,1770,1639,8.33813,-2.9455
553,-615,5.82532,-2.04199,0,0,0,0,0,0,0,-1,1777,1639,5.82534,2.04195
560,-615,0,0,0,0,0,0,0,0,0,-1,1784,1639,0,0
567,-615,0,0,0,0,0,0,0,0,0,-1,1791,1639,0,0
574,-615,0,0,0,0,0,0,0,0,0,-1,1798,1639,0,0
581,-615,0,0,0,0,0,0,0,0,0,-1,1805,1639,0,0
588,-615,0,0,0,0,0,0,0,0,0,-1,1812,1639,0,0
595,-615,0,0,0,0,0,0,0,0,0,-1,1819,1639,0,0
602,-615,0,0,0,0,0,0,0,0,0,-1,1826,1639,0,0
609,-615,0,0,0,0,0,0,0,0,0,-1,1833,1639,0,0
616,-615,0,0,0,0,0,0,0,0,0,-1,1840,1639,0,0
623,-615,0,0,0,0,0,0,0,0,0,-1,1847,1639,0,0
630,-615,0,0,0,0,0,0,0,0,0,-1,1854,1639,0,0
637,-615,0,0,0,0,0,0,0,0,0,-1,1861,1639,0,0
644,-615,0,0,0,0,0,0,0,0,0,-1,1868,1639,0,0
651,-615,0,0,0,0,0,0,0,0,0,-1,1875,1639,0,0
658,-615,0,0,0,0,0,0,0,0,0,-1,1882,1639,0,0
665,-615,0,0,0,0,0,0,0,0,0,-1,1889,1639,0,0
672,-615,0,0,0,0,0,0,0,0,0,-1,1896,1639,0,0
679,-615,0,0,0,0,0,0,0,0,0,-1,1903,1639,0,0
686,-615,0,0,0,0,0,0,0,0,0,-1,1910,1639,0,0
693,-615,0,0,0,0,0,0,0,0,0,-1,1917,1639,0,0
700,-615,0,0,0,0,0,0,0,0,0,-1,1924,1639,0,0
707,-615,0,0,0,0,0,0,0,0,0,-1,1931,1639,0,0
714,-615,0,0,0,0,0,0,0,0,0,-1,1938,1639,0,0
721,-615,0,0,0,0,0,0,0,0,0,-1,1945,1639,0,0
728,-615,0,0,0,0,0,0,0,0,0,-1,1952,1639,0,0
735,-615,0,0,0,0,0,0,0,0,0,-1,1959,1639,0,0
742,-615,0,0,0,0,0,0,0,0,0,-1,1966,1639,0,0
749,-615,0,0,0,0,0,0,0,0,0,-1,1973,1639,0,0
756,-615,0,0,0,0,0,0,0,0,0,-1,1980,1639,0,0
763,-615,0,0,0,0,0,0,0,0,0,-1,1987,1639,0,0
770,-615,0,0,0,0,0,0,0,0,0,-1,1994,1639,0,0
777,-615,0,0,0,0,0,0,0,0,0,-1,2001,1639,0,0
784,-615,0,0,0,0,0,0,0,0,0,-1,2008,1639,0,0
791,-615,0,0,0,0,0,0,0,0,0,-1,2015,1639,0,0
798,-615,0,0,0,0,0,0,0,0,0,-1,2022,1639,0,0
805,-615,0,0,0,0,0,0,0,0,0,-1,2029,1639,0,0
812,-615,0,0,0,0,0,0,0,0,0,-1,2036,1639,0,0
-700,-622,0,0,0,0,0,0,0,0,0,-1,524,1646,0,0
-693,-622,0,0,0,0,0,0,0,0,0,-1,531,1646,0,0
-686,-622,0,0,0,0,0,0,0,0,0,-1,538,1646,0,0
-679,-622,0,0,0,0,0,0,0,0,0,-1,545,1646,0,0
-672,-622,0,0,0,0,0,0,0,0,0,-1,552,1646,0,0
-665,-622,0,0,0,0,0,0,0,0,0,-1,559,1646,0,0
-658,-622,0,0,0,0,0,0,0,0,0,-1,566,1646,0,0
-651,-622,0,0,0,0,0,0,0,0,0,-1,573,1646,0,0
-644,-622,0,0,0,0,0,0,0,0,0,-1,580,1646,0,0
-637,-622,0,0,0,0,0,0,0,0,0,-1,587,1646,0,0
-630,-622,0,0,0,0,0,0,0,0,0,-1,594,1646,0,0
-623,-622,0,0,0,0,0,0,0,0,0,-1,601,1646,0,0
-616,-622,0,0,0,0,0,0,0,0,0,-1,608,1646,0,0
-609,-622,0,0,0,0,0,0,0,0,0,-1,615,1646,0,0
-602,-622,0,0,0,0,0,0,0,0,0,-1,622,1646,0,0
-595,-622,0,0,0,0,0,0,0,0,0,-1,629,1646,0,0
-588,-622,0,0,0,0,0,0,0,0,0,-1,636,1646,0,0
-581,-622,0,0,0,0,0,0,0,0,0,-1,643,1646,0,0
-574,-622,0,0,0,0,0,0,0,0,0,-1,650,1646,0,0
-567,-622,0,0,0,0,0,0,0,0,0,-1,657,1646,0,0
-560,-622,0,0,0,0,0,0,0,0,0,-1,664,1646,0,0
-553,-622,0,0,0,0,0,0,0,0,0,-1,671,1646,0,0
-546,-622,0,0,0,0,0,0,0,0,0,-1,678,1646,0,0
-539,-622,0,0,0,0,0,0,0,0,0,-1,685,1646,0,0
-532,-622,0,0,0,0,0,0,0,0,0,-1,692,1646,0,0
-525,-622,0,0,0,0,0,0,0,0,0,-1,699,1646,0,0
-518,-622,0,0,0,0,0,0,0,0,0,-1,706,1646,0,0
-511,-622,0,0,0,0,0,0,0,0,0,-1,713,1646,0,0
-504,-622,0,0,0,0,0,0,0,0,0,-1,720,1646,0,0
-497,-622,0,0,0,0,0,0,0,0,0,-1,727,1646,0,0
-490,-622,0,0,0,0,0,0,0,0,0,-1,734,1646,0,0
-483,-622,0,0,0,0,0,0,0,0,0,-1,741,1646,0,0
-476,-622,0,0,0,0,0,0,0,0,0,-1,748,1646,0,0
-469,-622,0,0,0,0,0,0,0,0,0,-1,755,1646,0,0
-462,-622,0,0,0,0,0,0,0,0,0,-1,762,1646,0,0
-455,-622,0,0,0,0,0,0,0,0,0,-1,769,1646,0,0
-448,-622,0,0,0,0,0,0,0,0,0,-1,776,1646,0,0
-441,-622,0,0,0,0,0,0,0,0,0,-1,783,1646,0,0
-434,-622,0,0,0,0,0,0,0,0,0,-1,790,1646,0,0
-427,-622,-7.62891,3.48096,0,0,0,0,0,0,0,-1,797,1646,-7.62892,-3.48092
-420,-622,-9.35791,1.77185,0,0,0,0,0,0,0,-1,804,1646,-9.35789,-1.77183
-413,-622,-8.46075,1.96777,0,0,0,0,0,0,0,-1,811,1646,-8.46074,-1.96774
-406,-622,-4.44318,2.16858,0,0,0,0,0,0,0,-1,818,1646,-4.44315,-2.16859
-399,-622,-7.06976,1.51001,0,0,0,0,0,0,0,-1,825,1646,-7.06976,-1.51005
-392,-622,3.89551,5.85376,0,0,0,0,0,0,0,-1,832,1646,3.8955,-5.85379
-385,-622,2.00543,14.0448,0,0,0,0,0,0,0,-1,839,1646,2.00544,-14.0448
-378,-622,1.49036,15.3436,0,0,0,0,0,0,0,-1,846,1646,1.49033,-15.3436
-371,-622,2.59088,35.0416,0,0,0,0,0,0,0,-1,853,1646,2.59086,-35.0417
-364,-622,2.38947,34.9613,0,0,0,0,0,0,0,-1,860,1646,2.38948,-34.9613
-357,-622,2.85211,35.657,0,0,0,0,0,0,0,-1,867,1646,2.85214,-35.657
-350,-622,2.66882,36.3572,-0.000656149,-0.00376069,0.00383402,0.00192791,-0.00634475,0.59305,0.00499799,0.0413183,874,1646,2.6688,-36.3572
-343,-622,2.47345,36.9512,-0.000571918,-0.00215999,0.00356258,0.00228405,-0.00501595,0.675749,0.00431191,0.0262099,881,1646,2.47346,-36.9512
-336,-622,2.54193,37.5394,-0.000426096,-0.000951589,0.00326078,0.00258251,-0.00396019,0.745196,0.00380524,0.00982223,888,1646,2.54193,-37.5394
-329,-622,2.48572,38.1963,-0.000209939,3.04035e-05,0.00293681,0.0028495,-0.00302903,0.805846,0.0033945,0.00892605,895,1646,2.48569,-38.1962
-322,-622,2.4425,38.8605,2.15254e-05,0.00079295,0.00262553,0.00306095,-0.00224647,0.858331,0.00307625,0.0108261,902,1646,2.44249,-38.8604
-315,-622,2.4068,39.5272,0.00032872,0.00164535,0.0024616,0.00353514,-0.00156107,0.916057,0.00301499,0.0152498,909,1646,2.40682,-39.5272
-308,-622,2.39709,40.15,0.000733222,0.00257092,0.00235508,0.00418005,-0.00087591,0.971394,0.00311993,0.0158689,916,1646,2.39709,-40.1501
-301,-622,2.39709,40.7518,0.00126703,0.00343034,0.00246155,0.00503741,-0.000340032,0.992409,0.00347716,0.014513,923,1646,2.39708,-40.7518
-294,-622,2.34473,41.3929,0.00198481,0.00442918,0.00279066,0.00625355,0.000160431,0.991795,0.0041166,0.0106419,930,1646,2.3447,-41.393
-287,-622,2.328,42.0127,0.00268605,0.0054966,0.00318433,0.00757195,0.000610705,0.9932,0.00485722,0.00827627,937,1646,2.32798,-42.0127
-280,-622,2.3031,42.6296,0.00348135,0.00656971,0.00365598,0.00899424,0.00105682,0.985219,0.00567677,0.0100901,944,1646,2.30312,-42.6297
-273,-622,2.28595,43.2318,0.0044133,0.00756391,0.00418534,0.0104606,0.00151662,0.965391,0.00652719,0.0154751,951,1646,2.28594,-43.2319
-266,-622,2.24774,43.8407,0.00540852,0.00839358,0.00485234,0.0119777,0.00182435,0.934601,0.00745186,0.0149494,958,1646,2.24774,-43.8407
-259,-622,2.24579,44.4545,0.00646402,0.00937083,0.00556044,0.0136647,0.00217017,0.91323,0.00847947,0.0131181,965,1646,2.24581,-44.4545
-252,-622,2.23523,45.0233,0.00760345,0.0102361,0.00618105,0.0152395,0.00260013,0.890313,0.0094134,0.0136961,972,1646,2.23522,-45.0233
-245,-622,2.27869,45.6343,0.00867194,0.0109007,0.00664276,0.0165219,0.00305073,0.868503,0.0101516,0.0123306,979,1646,2.27868,-45.6343
-238,-622,2.27362,46.2545,0.00986013,0.010521,0.00758151,0.0177793,0.00260186,0.807176,0.0110878,0.0151604,986,1646,2.27362,-46.2546
-231,-622,2.32983,46.9219,0.010851,0.00963175,0.00904118,0.0193031,0.00117969,0.751734,0.0124941,0.0246973,993,1646,2.32983,-46.9219
-224,-622,2.46149,47.3783,0.0109657,0.0082856,0.0104142,0.0201257,-0.00087445,0.721412,0.0137179,0.0365287,1000,1646,2.46147,-47.3783
-217,-622,2.66022,47.8257,0.0102328,0.00572634,0.0112298,0.0194332,-0.00347406,0.686389,0.0142553,0.0478613,1007,1646,2.66022,-47.8257
-210,-622,2.7038,48.6818,0,0,0,0,0,0,0,-1,1014,1646,2.70377,-48.6818
-203,-622,4.21375,20.9574,0,0,0,0,0,0,0,-1,1021,1646,4.21375,-20.9574
-196,-622,4.18518,21.2491,0,0,0,0,0,0,0,-1,1028,1646,4.18521,-21.2491
-189,-622,3.50037,49.6027,0,0,0,0,0,0,0,-1,1035,1646,3.50036,-49.6027
-182,-622,3.94019,50.564,0,0,0,0,0,0,0,-1,1042,1646,3.94024,-50.5639
-175,-622,3.52148,51.4192,0,0,0,0,0,0,0,-1,1049,1646,3.52148,-51.4192
-168,-622,2.93652,51.5444,0,0,0,0,0,0,0,-1,1056,1646,2.93652,-51.5444
-161,-622,2.91394,48.1183,0,0,0,0,0,0,0,-1,1063,1646,2.91396,-48.1183
-154,-622,3.18774,47.9808,0,0,0,0,0,0,0,-1,1070,1646,3.1878,-47.9808
-147,-622,1.85205,49.8027,0,0,0,0,0,0,0,-1,1077,1646,1.85208,-49.8027
-140,-622,0.546997,48.6783,0,0,0,0,0,0,0,-1,1084,1646,0.547022,-48.6784
-133,-622,3.09644,17.677,0,0,0,0,0,0,0,-1,1091,1646,3.09638,-17.677
-126,-622,3.5061,19.5251,0,0,0,0,0,0,0,-1,1098,1646,3.50616,-19.5252
-119,-622,4.06384,13.1715,0,0,0,0,0,0,0,-1,1105,1646,4.06379,-13.1716
-112,-622,4.33276,14.6605,0,0,0,0,0,0,0,-1,1112,1646,4.33281,-14.6605
-105,-622,0.306519,4.38159,0,0,0,0,0,0,0,-1,1119,1646,0.306536,-4.38159
-98,-622,-0.510376,3.5033,0,0,0,0,0,0,0,-1,1126,1646,-0.510393,-3.50324
-91,-622,-1.146,0.975952,0,0,0,0,0,0,0,-1,1133,1646,-1.14599,-0.97597
-84,-622,-2.04895,1.31787,0,0,0,0,0,0,0,-1,1140,1646,-2.0489,-1.31781
-77,-622,-1.80627,0.332275,0,0,0,0,0,0,0,-1,1147,1646,-1.80622,-0.33223
-70,-622,-3.65588,2.28149,0,0,0,0,0,0,0,-1,1154,1646,-3.65589,-2.28155
-63,-622,-2.49683,1.27087,0,0,0,0,0,0,0,-1,1161,1646,-2.49679,-1.27093
-56,-622,-2.44238,-0.575562,0,0,0,0,0,0,0,-1,1168,1646,-2.44242,0.575508
-49,-622,-2.41089,1.38818,0,0,0,0,0,0,0,-1,1175,1646,-2.41088,-1.38815
-42,-622,-2.71497,2.85242,0,0,0,0,0,0,0,-1,1182,1646,-2.71491,-2.85247
-35,-622,-3.0177,4.25842,0,0,0,0,0,0,0,-1,1189,1646,-3.01773,-4.25838
-28,-622,-0.896606,0.678833,0,0,0,0,0,0,0,-1,1196,1646,-0.89661,-0.678835
-21,-622,16.4141,36.2849,0,0,0,0,0,0,0,-1,1203,1646,16.4141,-36.285
-14,-622,22.5557,61.7714,0,0,0,0,0,0,0,-1,1210,1646,22.5557,-61.7714
-7,-622,2.05774,47.2183,0,0,0,0,0,0,0,-1,1217,1646,2.05772,-47.2183
0,-622,0,0,0,0,0,0,0,0,0,-1,1224,1646,0,0
7,-622,0,0,0,0,0,0,0,0,0,-1,1231,1646,0,0
14,-622,0,0,0,0,0,0,0,0,0,-1,1238,1646,0,0
21,-622,0,0,0,0,0,0,0,0,0,-1,1245,1646,0,0
28,-622,0,0,0,0,0,0,0,0,0,-1,1252,1646,0,0
35,-622,0,0,0,0,0,0,0,0,0,-1,1259,1646,0,0
42,-622,0,0,0,0,0,0,0,0,0,-1,1266,1646,0,0
49,-622,0,0,0,0,0,0,0,0,0,-1,1273,1646,0,0
56,-622,0,0,0,0,0,0,0,0,0,-1,1280,1646,0,0
63,-622,0,0,0,0,0,0,0,0,0,-1,1287,1646,0,0
70,-622,0,0,0,0,0,0,0,0,0,-1,1294,1646,0,0
77,-622,0,0,0,0,0,0,0,0,0,-1,1301,1646,0,0
84,-622,0,0,0,0,0,0,0,0,0,-1,1308,1646,0,0
91,-622,0,0,0,0,0,0,0,0,0,-1,1315,1646,0,0
98,-622,0,0,0,0,0,0,0,0,0,-1,1322,1646,0,0
105,-622,0,0,0,0,0,0,0,0,0,-1,1329,1646,0,0
112,-622,0,0,0,0,0,0,0,0,0,-1,1336,1646,0,0
119,-622,0,0,0,0,0,0,0,0,0,-1,1343,1646,0,0
126,-622,4.80518,55.8245,-0.0990479,-0.00197186,-0.0360702,0.00996325,-0.110983,-1.25125,0.0775235,0.0426255,1350,1646,4.80515,-55.8245
133,-622,3.78809,55.7919,-0.116789,0.00530662,-0.0298371,0.012208,-0.12369,-1.34349,0.0868162,0.0460518,1357,1646,3.78814,-55.7919
140,-622,2.87585,55.8674,-0.137,0.0142202,-0.0218411,0.0173115,-0.140092,-1.43019,0.0996673,0.0471551,1364,1646,2.87584,-55.8674
147,-622,2.15625,55.8597,0,0,0,0,0,0,0,-1,1371,1646,2.15625,-55.8597
154,-622,13.7296,49.3832,0,0,0,0,0,0,0,-1,1378,1646,13.7297,-49.3832
161,-622,10.6884,6.46448,0,0,0,0,0,0,0,-1,1385,1646,10.6883,-6.46442
168,-622,12.2402,5.18091,0,0,0,0,0,0,0,-1,1392,1646,12.2403,-5.1809
175,-622,5.64355,-1.77075,0,0,0,0,0,0,0,-1,1399,1646,5.64351,1.77077
182,-622,5.88586,-1.32251,0,0,0,0,0,0,0,-1,1406,1646,5.88587,1.32256
189,-622,5.97986,-1.18005,0,0,0,0,0,0,0,-1,1413,1646,5.97986,1.18003
196,-622,5.85022,-0.244507,0,0,0,0,0,0,0,-1,1420,1646,5.85026,0.244478
203,-622,5.25159,0.138794,0,0,0,0,0,0,0,-1,1427,1646,5.25162,-0.138822
210,-622,6.66833,0.0397949,0,0,0,0,0,0,0,-1,1434,1646,6.6684,-0.0398278
217,-622,6.12061,0.0506592,0,0,0,0,0,0,0,-1,1441,1646,6.12058,-0.0507181
224,-622,5.57275,0.0616455,0,0,0,0,0,0,0,-1,1448,1646,5.57276,-0.0616084
231,-622,5.31348,1.3949,0,0,0,0,0,0,0,-1,1455,1646,5.31342,-1.39495
238,-622,3.76477,2.90686,0,0,0,0,0,0,0,-1,1462,1646,3.7648,-2.90686
245,-622,5.13794,2.67993,0,0,0,0,0,0,0,-1,1469,1646,5.13796,-2.67992
252,-622,6.66528,2.53992,0,0,0,0,0,0,0,-1,1476,1646,6.66522,-2.53991
259,-622,8.93787,3.31458,0,0,0,0,0,0,0,-1,1483,1646,8.93791,-3.31454
266,-622,5.72644,3.11926,0,0,0,0,0,0,0,-1,1490,1646,5.72647,-3.1192
273,-622,7.28076,3.61218,0,0,0,0,0,0,0,-1,1497,1646,7.28071,-3.61212
280,-622,8.43127,4.4447,0,0,0,0,0,0,0,-1,1504,1646,8.43123,-4.44467
287,-622,8.60315,5.94617,0,0,0,0,0,0,0,-1,1511,1646,8.60319,-5.94622
294,-622,7.62756,11.5143,0,0,0,0,0,0,0,-1,1518,1646,7.62762,-11.5143
301,-622,7.36548,11.6569,0,0,0,0,0,0,0,-1,1525,1646,7.36549,-11.6569
308,-622,7.10339,11.7994,0,0,0,0,0,0,0,-1,1532,1646,7.10335,-11.7995
315,-622,8.28687,16.5842,0,0,0,0,0,0,0,-1,1539,1646,8.28689,-16.5843
322,-622,7.43689,20.5786,0,0,0,0,0,0,0,-1,1546,1646,7.43685,-20.5786
329,-622,9.76477,26.4202,0,0,0,0,0,0,0,-1,1553,1646,9.7648,-26.4202
336,-622,10.4526,28.8552,0,0,0,0,0,0,0,-1,1560,1646,10.4526,-28.8552
343,-622,15.1061,49.1334,0,0,0,0,0,0,0,-1,1567,1646,15.1061,-49.1335
350,-622,15.7789,47.7577,0,0,0,0,0,0,0,-1,1574,1646,15.7789,-47.7577
357,-622,15.6342,47.3416,0.0159259,0.0220812,-0.0135121,0.0328618,0.00514532,-0.897374,0.0204101,0.0410165,1581,1646,15.6341,-47.3416
364,-622,15.6093,46.6425,0.0140996,0.0190669,-0.0116547,0.0284996,0.00466686,-0.890379,0.017651,0.0318985,1588,1646,15.6092,-46.6425
371,-622,15.6285,45.9561,0.0124636,0.0160714,-0.0099347,0.0243646,0.00417035,-0.875206,0.0150469,0.0193941,1595,1646,15.6285,-45.956
378,-622,15.6642,45.3101,0.0107879,0.0133236,-0.00821064,0.0203637,0.00374779,-0.862,0.012515,0.0122092,1602,1646,15.6642,-45.31
385,-622,15.681,44.6847,0.00915023,0.0107966,-0.00661219,0.0166367,0.00331019,-0.847328,0.0101689,0.0108599,1609,1646,15.681,-44.6847
392,-622,15.6555,44.1383,0.00750227,0.00871215,-0.00514507,0.0132877,0.00292671,-0.843918,0.00806198,0.0118554,1616,1646,15.6556,-44.1383
399,-622,15.627,43.568,0.00589101,0.00686297,-0.00385809,0.0102656,0.00248841,-0.84805,0.00618346,0.0121031,1623,1646,15.627,-43.568
406,-622,15.6063,42.9213,0.00464074,0.00565546,-0.00303796,0.00822814,0.00206806,-0.868138,0.00494246,0.0148025,1630,1646,15.6064,-42.9213
413,-622,15.6039,42.3329,0.00368333,0.00461792,-0.00244933,0.00664414,0.00165711,-0.879658,0.00399336,0.0167889,1637,1646,15.6039,-42.3329
420,-622,15.5895,41.7996,0.00290595,0.00389832,-0.00210003,0.00555999,0.00124428,-0.901407,0.00336937,0.0173313,1644,1646,15.5895,-41.7996
427,-622,15.5793,41.181,0.002185,0.00323294,-0.00179234,0.00457632,0.000841609,-0.927605,0.00281264,0.0131039,1651,1646,15.5793,-41.1811
434,-622,15.5657,40.5625,0.00168344,0.00298061,-0.00181638,0.00426073,0.000403326,-0.956881,0.00271604,0.0138203,1658,1646,15.5656,-40.5625
441,-622,15.5424,39.951,0.00152412,0.00284928,-0.00210659,0.00439503,-2.16335e-05,-0.937764,0.00293726,0.0151684,1665,1646,15.5423,-39.9511
448,-622,15.5168,39.3507,0.00158675,0.00281174,-0.00252306,0.00479558,-0.000397094,-0.904474,0.0033373,0.0140553,1672,1646,15.5168,-39.3508
455,-622,15.4675,38.7061,0.00171832,0.00281123,-0.00296129,0.00527606,-0.000746518,-0.876638,0.0037908,0.016373,1679,1646,15.4675,-38.7061
462,-622,15.4633,38.1104,0.00190901,0.00278039,-0.00336416,0.00573696,-0.00104756,-0.849794,0.00421742,0.0182913,1686,1646,15.4633,-38.1103
469,-622,15.422,37.493,0.00208389,0.00273583,-0.00383901,0.00626268,-0.00144296,-0.827752,0.00473005,0.0194123,1693,1646,15.422,-37.493
476,-622,15.5011,36.8048,0.00233567,0.00278843,-0.00428993,0.00685795,-0.00173385,-0.811759,0.0052463,0.0377074,1700,1646,15.501,-36.8048
483,-622,15.4766,35.976,0,0,0,0,0,0,0,-1,1707,1646,15.4766,-35.976
490,-622,15.4553,35.4429,0,0,0,0,0,0,0,-1,1714,1646,15.4553,-35.4428
497,-622,14.9666,32.1024,0,0,0,0,0,0,0,-1,1721,1646,14.9665,-32.1024
504,-622,10.8306,19.8021,0,0,0,0,0,0,0,-1,1728,1646,10.8306,-19.8022
511,-622,5.29004,4.14587,0,0,0,0,0,0,0,-1,1735,1646,5.29008,-4.14589
518,-622,5.6001,1.55359,0,0,0,0,0,0,0,-1,1742,1646,5.60015,-1.5536
525,-622,5.83093,2.01807,0,0,0,0,0,0,0,-1,1749,1646,5.83097,-2.01802
532,-622,5.44202,0.57373,0,0,0,0,0,0,0,-1,1756,1646,5.44196,-0.573705
539,-622,9.32129,1.06116,0,0,0,0,0,0,0,-1,1763,1646,9.32131,-1.0612
546,-622,6.50977,-3.45618,0,0,0,0,0,0,0,-1,1770,1646,6.50981,3.4562
553,-622,0,0,0,0,0,0,0,0,0,-1,1777,1646,0,0
560,-622,0,0,0,0,0,0,0,0,0,-1,1784,1646,0,0
567,-622,0,0,0,0,0,0,0,0,0,-1,1791,1646,0,0
574,-622,0,0,0,0,0,0,0,0,0,-1,1798,1646,0,0
581,-622,0,0,0,0,0,0,0,0,0,-1,1805,1646,0,0
588,-622,0,0,0,0,0,0,0,0,0,-1,1812,1646,0,0
595,-622,0,0,0,0,0,0,0,0,0,-1,1819,1646,0,0
602,-622,0,0,0,0,0,0,0,0,0,-1,1826,1646,0,0
609,-622,0,0,0,0,0,0,0,0,0,-1,1833,1646,0,0
616,-622,0,0,0,0,0,0,0,0,0,-1,1840,1646,0,0
623,-622,0,0,0,0,0,0,0,0,0,-1,1847,1646,0,0
630,-622,0,0,0,0,0,0,0,0,0,-1,1854,1646,0,0
637,-622,0,0,0,0,0,0,0,0,0,-1,1861,1646,0,0
644,-622,0,0,0,0,0,0,0,0,0,-1,1868,1646,0,0
651,-622,0,0,0,0,0,0,0,0,0,-1,1875,1646,0,0
658,-622,0,0,0,0,0,0,0,0,0,-1,1882,1646,0,0
665,-622,0,0,0,0,0,0,0,0,0,-1,1889,1646,0,0
672,-622,0,0,0,0,0,0,0,0,0,-1,1896,1646,0,0
679,-622,0,0,0,0,0,0,0,0,0,-1,1903,1646,0,0
686,-622,0,0,0,0,0,0,0,0,0,-1,1910,1646,0,0
693,-622,0,0,0,0,0,0,0,0,0,-1,1917,1646,0,0
700,-622,0,0,0,0,0,0,0,0,0,-1,1924,1646,0,0
707,-622,0,0,0,0,0,0,0,0,0,-1,1931,1646,0,0
714,-622,0,0,0,0,0,0,0,0,0,-1,1938,1646,0,0
721,-622,0,0,0,0,0,0,0,0,0,-1,1945,1646,0,0
728,-622,0,0,0,0,0,0,0,0,0,-1,1952,1646,0,0
735,-622,0,0,0,0,0,0,0,0,0,-1,1959,1646,0,0
742,-622,0,0,0,0,0,0,0,0,0,-1,1966,1646,0,0
749,-622,0,0,0,0,0,0,0,0,0,-1,1973,1646,0,0
756,-622,0,0,0,0,0,0,0,0,0,-1,1980,1646,0,0
763,-622,0,0,0,0,0,0,0,0,0,-1,1987,1646,0,0
770,-622,0,0,0,0,0,0,0,0,0,-1,1994,1646,0,0
777,-622,0,0,0,0,0,0,0,0,0,-1,2001,1646,0,0
784,-622,0,0,0,0,0,0,0,0,0,-1,2008,1646,0,0
791,-622,0,0,0,0,0,0,0,0,0,-1,2015,1646,0,0
798,-622,0,0,0,0,0,0,0,0,0,-1,2022,1646,0,0
805,-622,0,0,0,0,0,0,0,0,0,-1,2029,1646,0,0
812,-622,0,0,0,0,0,0,0,0,0,-1,2036,1646,0,0
-700,-629,0,0,0,0,0,0,0,0,0,-1,524,1653,0,0
-693,-629,0,0,0,0,0,0,0,0,0,-1,531,1653,0,0
-686,-629,0,0,0,0,0,0,0,0,0,-1,538,1653,0,0
-679,-629,0,0,0,0,0,0,0,0,0,-1,545,1653,0,0
-672,-629,0,0,0,0,0,0,0,0,0,-1,552,1653,0,0
-665,-629,0,0,0,0,0,0,0,0,0,-1,559,1653,0,0
-658,-629,0,0,0,0,0,0,0,0,0,-1,566,1653,0,0
-651,-629,0,0,0,0,0,0,0,0,0,-1,573,1653,0,0
-644,-629,0,0,0,0,0,0,0,0,0,-1,580,1653,0,0
-637,-629,0,0,0,0,0,0,0,0,0,-1,587,1653,0,0
-630,-629,0,0,0,0,0,0,0,0,0,-1,594,1653,0,0
-623,-629,0,0,0,0,0,0,0,0,0,-1,601,1653,0,0
-616,-629,0,0,0,0,0,0,0,0,0,-1,608,1653,0,0
-609,-629,0,0,0,0,0,0,0,0,0,-1,615,1653,0,0
-602,-629,0,0,0,0,0,0,0,0,0,-1,622,1653,0,0
-595,-629,0,0,0,0,0,0,0,0,0,-1,629,1653,0,0
-588,-629,0,0,0,0,0,0,0,0,0,-1,636,1653,0,0
-581,-629,0,0,0,0,0,0,0,0,0,-1,643,1653,0,0
-574,-629,0,0,0,0,0,0,0,0,0,-1,650,1653,0,0
-567,-629,0,0,0,0,0,0,0,0,0,-1,657,1653,0,0
-560,-629,0,0,0,0,0,0,0,0,0,-1,664,1653,0,0
-553,-629,0,0,0,0,0,0,0,0,0,-1,671,1653,0,0
-546,-629,0,0,0,0,0,0,0,0,0,-1,678,1653,0,0
-539,-629,0,0,0,0,0,0,0,0,0,-1,685,1653,0,0
-532,-629,0,0,0,0,0,0,0,0,0,-1,692,1653,0,0
-525,-629,0,0,0,0,0,0,0,0,0,-1,699,1653,0,0
-518,-629,0,0,0,0,0,0,0,0,0,-1,706,1653,0,0
-511,-629,0,0,0,0,0,0,0,0,0,-1,713,1653,0,0
-504,-629,0,0,0,0,0,0,0,0,0,-1,720,1653,0,0
-497,-629,0,0,0,0,0,0,0,0,0,-1,727,1653,0,0
-490,-629,0,0,0,0,0,0,0,0,0,-1,734,1653,0,0
-483,-629,0,0,0,0,0,0,0,0,0,-1,741,1653,0,0
-476,-629,0,0,0,0,0,0,0,0,0,-1,748,1653,0,0
-469,-629,0,0,0,0,0,0,0,0,0,-1,755,1653,0,0
-462,-629,0,0,0,0,0,0,0,0,0,-1,762,1653,0,0
-455,-629,0,0,0,0,0,0,0,0,0,-1,769,1653,0,0
-448,-629,0,0,0,0,0,0,0,0,0,-1,776,1653,0,0
-441,-629,0,0,0,0,0,0,0,0,0,-1,783,1653,0,0
-434,-629,0,0,0,0,0,0,0,0,0,-1,790,1653,0,0
-427,-629,0,0,0,0,0,0,0,0,0,-1,797,1653,0,0
-420,-629,-3.87103,3.37634,0,0,0,0,0,0,0,-1,804,1653,-3.87101,-3.37633
-413,-629,-5.69751,1.33582,0,0,0,0,0,0,0,-1,811,1653,-5.69754,-1.3358
-406,-629,2.85406,6.01501,0,0,0,0,0,0,0,-1,818,1653,2.85405,-6.01507
-399,-629,-0.455627,10.8687,0,0,0,0,0,0,0,-1,825,1653,-0.455625,-10.8687
-392,-629,1.15369,11.1295,0,0,0,0,0,0,0,-1,832,1653,1.1537,-11.1295
-385,-629,1.81976,11.6935,0,0,0,0,0,0,0,-1,839,1653,1.81975,-11.6935
-378,-629,2.19452,14.7941,0,0,0,0,0,0,0,-1,846,1653,2.19451,-14.7941
-371,-629,3.60114,14.7299,0,0,0,0,0,0,0,-1,853,1653,3.60113,-14.7299
-364,-629,3.26898,21.0801,0,0,0,0,0,0,0,-1,860,1653,3.26895,-21.08
-357,-629,4.38782,16.3444,0,0,0,0,0,0,0,-1,867,1653,4.38783,-16.3443
-350,-629,3.36957,36.4736,0,0,0,0,0,0,0,-1,874,1653,3.36957,-36.4736
-343,-629,3.10602,36.9902,-0.000443887,-0.00119222,0.00559393,0.00478837,-0.00642448,0.752004,0.00649668,0.0401602,881,1653,3.10601,-36.9902
-336,-629,3.12708,37.6003,-0.000535119,2.56151e-05,0.00498151,0.00473464,-0.00524415,0.813509,0.00576376,0.0194385,888,1653,3.1271,-37.6004
-329,-629,3.12604,38.243,-0.000598206,0.000695586,0.00422772,0.00432562,-0.00422824,0.861316,0.00493868,0.0120499,895,1653,3.12603,-38.2431
-322,-629,3.08246,38.8917,-0.000648957,0.00112584,0.00353662,0.00388469,-0.00340781,0.908319,0.00421333,0.0125734,902,1653,3.08245,-38.8918
-315,-629,3.02478,39.5477,-0.000584969,0.00162471,0.0030024,0.0037191,-0.00267936,0.961702,0.00371037,0.0164203,909,1653,3.02477,-39.5477
-308,-629,3.01154,40.1738,-0.000390718,0.00221766,0.00255774,0.00378453,-0.00195758,1.02117,0.00337068,0.0131266,916,1653,3.01153,-40.1739
-301,-629,3.00336,40.8088,-4.98555e-05,0.00269675,0.00231759,0.00401737,-0.00137047,1.05286,0.00323338,0.0111619,923,1653,3.00338,-40.8088
-294,-629,2.9809,41.4282,0.000510141,0.0032602,0.00230419,0.00456845,-0.000798109,1.05441,0.00334357,0.0119339,930,1653,2.98089,-41.4282
-287,-629,2.96472,42.0477,0.00108522,0.00389911,0.00240069,0.00527475,-0.000290427,1.05045,0.0036172,0.00954708,937,1653,2.96469,-42.0477
-280,-629,2.93103,42.6592,0.00175876,0.00459122,0.00259987,0.00613557,0.000214413,1.03479,0.00402082,0.010212,944,1653,2.93103,-42.6592
-273,-629,2.89136,43.2476,0.00258971,0.00524195,0.00289327,0.00709853,0.000733127,1.00029,0.00450789,0.0139533,951,1653,2.89138,-43.2476
-266,-629,2.86066,43.8628,0.00349171,0.00568808,0.00325917,0.00802911,0.00115068,0.9479,0.0050134,0.0151731,958,1653,2.86067,-43.8627
-259,-629,2.8468,44.5013,0.00446676,0.00640495,0.00371364,0.00927385,0.00159785,0.91303,0.00572477,0.0162907,965,1653,2.84683,-44.5013
-252,-629,2.84039,45.0613,0.00549467,0.00707343,0.00416784,0.010526,0.00204211,0.878988,0.00644537,0.0122205,972,1653,2.84041,-45.0613
-245,-629,2.84839,45.6552,0.00646504,0.00755411,0.00451349,0.0115558,0.00246336,0.845431,0.00702815,0.00871124,979,1653,2.84839,-45.6552
-238,-629,2.85052,46.2502,0.00751638,0.00722692,0.00522206,0.0125957,0.00214759,0.771545,0.00778071,0.011279,986,1653,2.85054,-46.2502
-231,-629,2.8147,46.821,0.00838021,0.00658864,0.00631427,0.0138619,0.00110693,0.714935,0.00889529,0.0160748,993,1653,2.81469,-46.821
-224,-629,2.91357,47.4655,0.00853827,0.00565498,0.00734981,0.0145865,-0.000393239,0.688554,0.00985802,0.0190659,1000,1653,2.91355,-47.4654
-217,-629,2.88068,47.936,0.00807981,0.00417405,0.0080969,0.014456,-0.00220214,0.667064,0.010449,0.0302689,1007,1653,2.88069,-47.936
-210,-629,3.03119,48.5863,0,0,0,0,0,0,0,-1,1014,1653,3.03118,-48.5863
-203,-629,3.12708,49.6405,0,0,0,0,0,0,0,-1,1021,1653,3.12713,-49.6405
-196,-629,3.38538,49.6699,0,0,0,0,0,0,0,-1,1028,1653,3.38541,-49.6699
-189,-629,3.53601,49.7195,0.00717609,0.000785601,0.0132919,0.0176514,-0.00968973,0.667441,0.016007,0.0465058,1035,1653,3.53605,-49.7194
-182,-629,3.68372,50.5657,0.00643652,0.000634833,0.0146656,0.0184854,-0.011414,0.687759,0.0174226,0.045247,1042,1653,3.68371,-50.5656
-175,-629,3.56531,51.3226,0.00560607,0.00195933,0.0157811,0.0196688,-0.0121034,0.727883,0.0185162,0.045686,1049,1653,3.56536,-51.3226
-168,-629,3.2002,51.7284,0.00485103,0.00455143,0.0165246,0.0212265,-0.011824,0.780866,0.0193374,0.047309,1056,1653,3.20022,-51.7284
-161,-629,3.27271,52.6499,0,0,0,0,0,0,0,-1,1063,1653,3.27268,-52.65
-154,-629,4.26489,47.3336,0,0,0,0,0,0,0,-1,1070,1653,4.26491,-47.3336
-147,-629,4.43958,47.1637,0,0,0,0,0,0,0,-1,1077,1653,4.43951,-47.1637
-140,-629,2.10181,41.6577,0,0,0,0,0,0,0,-1,1084,1653,2.10175,-41.6577
-133,-629,3.41248,17.6686,0,0,0,0,0,0,0,-1,1091,1653,3.41243,-17.6686
-126,-629,4.01025,19.5328,0,0,0,0,0,0,0,-1,1098,1653,4.01022,-19.5328
-119,-629,4.94177,13.5525,0,0,0,0,0,0,0,-1,1105,1653,4.94172,-13.5525
-112,-629,5.63123,15.9187,0,0,0,0,0,0,0,-1,1112,1653,5.63118,-15.9187
-105,-629,2.15881,4.38342,0,0,0,0,0,0,0,-1,1119,1653,2.15878,-4.38347
-98,-629,0.825806,4.19385,0,0,0,0,0,0,0,-1,1126,1653,0.825779,-4.1939
-91,-629,-0.452271,3.64465,0,0,0,0,0,0,0,-1,1133,1653,-0.452278,-3.6446
-84,-629,-2.6084,0.466797,0,0,0,0,0,0,0,-1,1140,1653,-2.6084,-0.466786
-77,-629,-3.50903,2.10706,0,0,0,0,0,0,0,-1,1147,1653,-3.509,-2.10707
-70,-629,-1.20886,2.52502,0,0,0,0,0,0,0,-1,1154,1653,-1.20886,-2.525
-63,-629,-0.960693,4.30212,0,0,0,0,0,0,0,-1,1161,1653,-0.960691,-4.30215
-56,-629,-1.31934,5.64343,0,0,0,0,0,0,0,-1,1168,1653,-1.31928,-5.6434
-49,-629,-2.15662,2.57458,0,0,0,0,0,0,0,-1,1175,1653,-2.15656,-2.57459
-42,-629,-2.46326,3.91467,0,0,0,0,0,0,0,-1,1182,1653,-2.4633,-3.91466
-35,-629,-2.67261,5.24292,0,0,0,0,0,0,0,-1,1189,1653,-2.67257,-5.24298
-28,-629,-0.402954,-0.866577,0,0,0,0,0,0,0,-1,1196,1653,-0.402943,0.866612
-21,-629,3.45508,27.0596,0,0,0,0,0,0,0,-1,1203,1653,3.45508,-27.0596
-14,-629,2.62427,49.126,0,0,0,0,0,0,0,-1,1210,1653,2.62426,-49.126
-7,-629,5.08948,74.4821,0,0,0,0,0,0,0,-1,1217,1653,5.08949,-74.482
0,-629,5.51025,72.4906,0.115289,-0.124241,-0.173886,0.206663,-0.215615,-0.483828,0.243821,0.0484112,1224,1653,5.51028,-72.4905
7,-629,5.9873,70.6349,0.110784,-0.116376,-0.173843,0.204862,-0.210453,-0.496035,0.239789,0.0438484,1231,1653,5.98729,-70.6349
14,-629,6.35962,68.9078,0.10461,-0.101949,-0.169031,0.199417,-0.196755,-0.51116,0.228732,0.0443575,1238,1653,6.35961,-68.9078
21,-629,6.75537,67.1554,0.0995541,-0.0894551,-0.159249,0.190229,-0.18013,-0.517608,0.213853,0.047901,1245,1653,6.75534,-67.1554
28,-629,7.18567,65.4348,0.0939158,-0.0757835,-0.148273,0.179901,-0.161768,-0.525515,0.197355,0.0485603,1252,1653,7.18572,-65.4348
35,-629,7.56946,63.733,0.0873277,-0.0600461,-0.134919,0.16737,-0.140089,-0.535454,0.177744,0.0477434,1259,1653,7.5695,-63.733
42,-629,7.94556,62.045,0.0803298,-0.0471997,-0.119428,0.15195,-0.11882,-0.540192,0.156718,0.0485265,1266,1653,7.9455,-62.045
49,-629,8.01929,60.7084,0.0719853,-0.0365084,-0.103347,0.134458,-0.0989809,-0.543715,0.135294,0.045694,1273,1653,8.01925,-60.7084
56,-629,10.6213,60.5032,0,0,0,0,0,0,0,-1,1280,1653,10.6214,-60.5032
63,-629,10.4722,59.949,0.0516553,-0.0143658,-0.0741366,0.0997986,-0.062509,-0.575943,0.0945291,0.0481064,1287,1653,10.4721,-59.949
70,-629,10.3143,59.4441,0.0386145,-0.00786008,-0.0635421,0.0830349,-0.0522805,-0.610102,0.0787942,0.0484746,1294,1653,10.3144,-59.4441
77,-629,8.45398,57.3401,0,0,0,0,0,0,0,-1,1301,1653,8.45396,-57.3401
84,-629,8.44055,57.0502,0.00388775,-0.00183373,-0.0508565,0.0519639,-0.0499099,-0.757302,0.0588208,0.04538,1308,1653,8.44056,-57.0502
91,-629,8.38074,56.7002,-0.015678,0.000367323,-0.0435705,0.0366476,-0.0519583,-0.876444,0.0514106,0.0431751,1315,1653,8.38074,-56.7002
98,-629,8.23938,56.4215,-0.0331728,0.000165037,-0.0366299,0.0237404,-0.0567482,-0.998926,0.0477549,0.0456868,1322,1653,8.23936,-56.4216
105,-629,8.08801,56.1451,0,0,0,0,0,0,0,-1,1329,1653,8.08805,-56.1452
112,-629,6.27441,56.6213,-0.0667462,-0.00200202,-0.0309744,0.0104295,-0.0791778,-1.18913,0.056583,0.0490609,1336,1653,6.27447,-56.6213
119,-629,5.92981,56.261,-0.0855237,-0.00607501,-0.0332158,0.00598202,-0.0975807,-1.2226,0.0671367,0.0465621,1343,1653,5.92978,-56.261
126,-629,5.18835,56.0338,-0.10215,-0.000517616,-0.0306596,0.0080151,-0.110683,-1.29936,0.0766003,0.0433664,1350,1653,5.18834,-56.0338
133,-629,4.23938,55.728,-0.119515,0.00780548,-0.0239661,0.0121673,-0.123877,-1.39077,0.0869249,0.0465711,1357,1653,4.23944,-55.7281
140,-629,3.35425,55.6453,-0.140092,0.0186353,-0.0145888,0.019965,-0.141422,-1.4799,0.101592,0.0469784,1364,1653,3.35428,-55.6453
147,-629,2.68896,55.6271,0,0,0,0,0,0,0,-1,1371,1653,2.68895,-55.627
154,-629,6.41516,53.151,0,0,0,0,0,0,0,-1,1378,1653,6.41517,-53.151
161,-629,10.5461,6.83752,0,0,0,0,0,0,0,-1,1385,1653,10.5461,-6.83758
168,-629,12.0059,5.56348,0,0,0,0,0,0,0,-1,1392,1653,12.0059,-5.56352
175,-629,5.84485,-1.78845,0,0,0,0,0,0,0,-1,1399,1653,5.84479,1.7884
182,-629,5.99036,-1.27783,0,0,0,0,0,0,0,-1,1406,1653,5.99041,1.27778
189,-629,5.97668,-0.748535,0,0,0,0,0,0,0,-1,1413,1653,5.97671,0.748544
196,-629,4.52869,9.24695,0,0,0,0,0,0,0,-1,1420,1653,4.52869,-9.2469
203,-629,3.75085,6.88037,0,0,0,0,0,0,0,-1,1427,1653,3.75087,-6.88032
210,-629,3.5907,6.52637,0,0,0,0,0,0,0,-1,1434,1653,3.59067,-6.52642
217,-629,2.4585,4.84448,0,0,0,0,0,0,0,-1,1441,1653,2.45855,-4.84448
224,-629,1.31982,3.68481,0,0,0,0,0,0,0,-1,1448,1653,1.31986,-3.68487
231,-629,3.63025,1.73499,0,0,0,0,0,0,0,-1,1455,1653,3.6303,-1.735
238,-629,4.26428,2.11255,0,0,0,0,0,0,0,-1,1462,1653,4.26429,-2.11253
245,-629,5.61816,1.95361,0,0,0,0,0,0,0,-1,1469,1653,5.61815,-1.95359
252,-629,7.27136,2.18982,0,0,0,0,0,0,0,-1,1476,1653,7.27131,-2.18985
259,-629,8.67334,2.18628,0,0,0,0,0,0,0,-1,1483,1653,8.6733,-2.18633
266,-629,6.86475,3.72058,0,0,0,0,0,0,0,-1,1490,1653,6.86479,-3.72063
273,-629,7.9021,3.8717,0,0,0,0,0,0,0,-1,1497,1653,7.90205,-3.87171
280,-629,9.70837,4.39087,0,0,0,0,0,0,0,-1,1504,1653,9.7084,-4.39082
287,-629,9.82947,7.19348,0,0,0,0,0,0,0,-1,1511,1653,9.8295,-7.19347
294,-629,6.56555,11.6359,0,0,0,0,0,0,0,-1,1518,1653,6.5656,-11.6358
301,-629,13.903,44.4862,0,0,0,0,0,0,0,-1,1525,1653,13.903,-44.4862
308,-629,6.08264,12.1423,0,0,0,0,0,0,0,-1,1532,1653,6.08263,-12.1423
315,-629,6.82043,18.2764,0,0,0,0,0,0,0,-1,1539,1653,6.82049,-18.2764
322,-629,14.1931,43.8071,0,0,0,0,0,0,0,-1,1546,1653,14.1931,-43.8071
329,-629,14.9434,49.3538,0,0,0,0,0,0,0,-1,1553,1653,14.9434,-49.3538
336,-629,14.8167,48.7941,0,0,0,0,0,0,0,-1,1560,1653,14.8167,-48.794
343,-629,14.8217,48.6021,0.0144045,0.025174,-0.0133375,0.0341728,0.00540575,-0.977256,0.0212108,0.049332,1567,1653,14.8216,-48.602
350,-629,15.153,47.6427,0.0131796,0.0210635,-0.0116192,0.0293912,0.00485186,-0.948938,0.0181938,0.0291888,1574,1653,15.153,-47.6427
357,-629,15.1514,47.0135,0.0117847,0.0170829,-0.00984472,0.0246287,0.00423886,-0.91683,0.0152044,0.0173098,1581,1653,15.1514,-47.0136
364,-629,15.0909,46.4392,0.0104777,0.0147848,-0.00861946,0.0215157,0.00374683,-0.907815,0.0132723,0.0150568,1588,1653,15.091,-46.4392
371,-629,15.0798,45.8782,0.00930001,0.0124998,-0.00748184,0.0185509,0.00324892,-0.89073,0.0114391,0.0120861,1595,1653,15.0799,-45.8782
378,-629,15.083,45.2852,0.0080913,0.0103904,-0.00632353,0.015668,0.0028137,-0.875312,0.00964524,0.0114499,1602,1653,15.083,-45.2852
385,-629,15.0911,44.7228,0.00691074,0.00844469,-0.00522723,0.0129609,0.00239451,-0.858242,0.00796336,0.0140867,1609,1653,15.0911,-44.7228
392,-629,15.0845,44.163,0.00569745,0.00683208,-0.00423863,0.0105412,0.00198834,-0.851925,0.00646738,0.0116126,1616,1653,15.0845,-44.163
399,-629,15.0522,43.5771,0.00443571,0.00531817,-0.00330168,0.00820797,0.00154591,-0.851823,0.00503639,0.0115125,1623,1653,15.0522,-43.5772
406,-629,15.0433,42.9678,0.0034745,0.00439298,-0.00273105,0.00670313,0.00116434,-0.868696,0.00413564,0.0152104,1630,1653,15.0433,-42.9677
413,-629,15.0109,42.4023,0.00276731,0.00363568,-0.0023457,0.00558705,0.000815952,-0.876912,0.0034847,0.0252733,1637,1653,15.0109,-42.4023
420,-629,14.9619,41.8672,0.00220793,0.00316309,-0.00215731,0.00489505,0.000475963,-0.89433,0.00311685,0.0237369,1644,1653,14.962,-41.8672
427,-629,14.9711,41.2498,0.00172231,0.00277515,-0.00205502,0.0043701,0.000127358,-0.910784,0.00287189,0.0156084,1651,1653,14.971,-41.2497
434,-629,14.9663,40.6073,0.00144738,0.00277115,-0.00224064,0.00444562,-0.000227098,-0.929014,0.00304227,0.0136508,1658,1653,14.9663,-40.6073
441,-629,14.9359,39.9802,0.00145438,0.0029312,-0.00265573,0.00494926,-0.000563682,-0.920995,0.00350255,0.0161516,1665,1653,14.9359,-39.9802
448,-629,14.905,39.363,0.00166587,0.00321206,-0.00321075,0.00574148,-0.000863543,-0.903541,0.00414559,0.0152119,1672,1653,14.905,-39.363
455,-629,14.8683,38.7247,0.00200613,0.00353336,-0.00379445,0.00664027,-0.00110078,-0.884695,0.00483572,0.0147395,1679,1653,14.8682,-38.7248
462,-629,14.8568,38.1538,0.00241373,0.00401827,-0.00441118,0.00769955,-0.00126754,-0.875351,0.00560354,0.0192386,1686,1653,14.8568,-38.1538
469,-629,14.8414,37.5007,0.00281612,0.00456084,-0.00521168,0.00897266,-0.00159571,-0.868322,0.0065785,0.0285772,1693,1653,14.8414,-37.5008
476,-629,14.9319,36.8245,0,0,0,0,0,0,0,-1,1700,1653,14.9319,-36.8245
483,-629,14.0381,30.967,0,0,0,0,0,0,0,-1,1707,1653,14.0381,-30.9671
490,-629,13.9072,28.8588,0,0,0,0,0,0,0,-1,1714,1653,13.9072,-28.8587
497,-629,10.3662,19.8605,0,0,0,0,0,0,0,-1,1721,1653,10.3662,-19.8605
504,-629,7.89453,15.5316,0,0,0,0,0,0,0,-1,1728,1653,7.89447,-15.5316
511,-629,6.29138,3.40295,0,0,0,0,0,0,0,-1,1735,1653,6.29137,-3.403
518,-629,5.84387,1.41858,0,0,0,0,0,0,0,-1,1742,1653,5.84391,-1.4186
525,-629,6.4729,1.02319,0,0,0,0,0,0,0,-1,1749,1653,6.47284,-1.02316
532,-629,6.86511,0.903687,0,0,0,0,0,0,0,-1,1756,1653,6.86514,-0.903691
539,-629,6.60803,0.746704,0,0,0,0,0,0,0,-1,1763,1653,6.60809,-0.746691
546,-629,0,0,0,0,0,0,0,0,0,-1,1770,1653,0,0
553,-629,0,0,0,0,0,0,0,0,0,-1,1777,1653,0,0
560,-629,0,0,0,0,0,0,0,0,0,-1,1784,1653,0,0
567,-629,0,0,0,0,0,0,0,0,0,-1,1791,1653,0,0
574,-629,0,0,0,0,0,0,0,0,0,-1,1798,1653,0,0
581,-629,0,0,0,0,0,0,0,0,0,-1,1805,1653,0,0
588,-629,0,0,0,0,0,0,0,0,0,-1,1812,1653,0,0
595,-629,0,0,0,0,0,0,0,0,0,-1,1819,1653,0,0
602,-629,0,0,0,0,0,0,0,0,0,-1,1826,1653,0,0
609,-629,0,0,0,0,0,0,0,0,0,-1,1833,1653,0,0
616,-629,0,0,0,0,0,0,0,0,0,-1,1840,1653,0,0
623,-629,0,0,0,0,0,0,0,0,0,-1,1847,1653,0,0
630,-629,0,0,0,0,0,0,0,0,0,-1,1854,1653,0,0
637,-629,0,0,0,0,0,0,0,0,0,-1,1861,1653,0,0
644,-629,0,0,0,0,0,0,0,0,0,-1,1868,1653,0,0
651,-629,0,0,0,0,0,0,0,0,0,-1,1875,1653,0,0
658,-629,0,0,0,0,0,0,0,0,0,-1,1882,1653,0,0
665,-629,0,0,0,0,0,0,0,0,0,-1,1889,1653,0,0
672,-629,0,0,0,0,0,0,0,0,0,-1,1896,1653,0,0
679,-629,0,0,0,0,0,0,0,0,0,-1,1903,1653,0,0
686,-629,0,0,0,0,0,0,0,0,0,-1,1910,1653,0,0
693,-629,0,0,0,0,0,0,0,0,0,-1,1917,1653,0,0
700,-629,0,0,0,0,0,0,0,0,0,-1,1924,1653,0,0
707,-629,0,0,0,0,0,0,0,0,0,-1,1931,1653,0,0
714,-629,0,0,0,0,0,0,0,0,0,-1,1938,1653,0,0
721,-629,0,0,0,0,0,0,0,0,0,-1,1945,1653,0,0
728,-629,0,0,0,0,0,0,0,0,0,-1,1952,1653,0,0
735,-629,0,0,0,0,0,0,0,0,0,-1,1959,1653,0,0
742,-629,0,0,0,0,0,0,0,0,0,-1,1966,1653,0,0
749,-629,0,0,0,0,0,0,0,0,0,-1,1973,1653,0,0
756,-629,0,0,0,0,0,0,0,0,0,-1,1980,1653,0,0
763,-629,0,0,0,0,0,0,0,0,0,-1,1987,1653,0,0
770,-629,0,0,0,0,0,0,0,0,0,-1,1994,1653,0,0
777,-629,0,0,0,0,0,0,0,0,0,-1,2001,1653,0,0
784,-629,0,0,0,0,0,0,0,0,0,-1,2008,1653,0,0
791,-629,0,0,0,0,0,0,0,0,0,-1,2015,1653,0,0
798,-629,0,0,0,0,0,0,0,0,0,-1,2022,1653,0,0
805,-629,0,0,0,0,0,0,0,0,0,-1,2029,1653,0,0
812,-629,0,0,0,0,0,0,0,0,0,-1,2036,1653,0,0
-700,-636,0,0,0,0,0,0,0,0,0,-1,524,1660,0,0
-693,-636,0,0,0,0,0,0,0,0,0,-1,531,1660,0,0
-686,-636,0,0,0,0,0,0,0,0,0,-1,538,1660,0,0
-679,-636,0,0,0,0,0,0,0,0,0,-1,545,1660,0,0
-672,-636,0,0,0,0,0,0,0,0,0,-1,552,1660,0,0
-665,-636,0,0,0,0,0,0,0,0,0,-1,559,1660,0,0
-658,-636,0,0,0,0,0,0,0,0,0,-1,566,1660,0,0
-651,-636,0,0,0,0,0,0,0,0,0,-1,573,1660,0,0
-644,-636,0,0,0,0,0,0,0,0,0,-1,580,1660,0,0
-637,-636,0,0,0,0,0,0,0,0,0,-1,587,1660,0,0
-630,-636,0,0,0,0,0,0,0,0,0,-1,594,1660,0,0
-623,-636,0,0,0,0,0,0,0,0,0,-1,601,1660,0,0
-616,-636,0,0,0,0,0,0,0,0,0,-1,608,1660,0,0
-609,-636,0,0,0,0,0,0,0,0,0,-1,615,1660,0,0
-602,-636,0,0,0,0,0,0,0,0,0,-1,622,1660,0,0
-595,-636,0,0,0,0,0,0,0,0,0,-1,629,1660,0,0
-588,-636,0,0,0,0,0,0,0,0,0,-1,636,1660,0,0
-581,-636,0,0,0,0,0,0,0,0,0,-1,643,1660,0,0
-574,-636,0,0,0,0,0,0,0,0,0,-1,650,1660,0,0
-567,-636,0,0,0,0,0,0,0,0,0,-1,657,1660,0,0
-560,-636,0,0,0,0,0,0,0,0,0,-1,664,1660,0,0
-553,-636,0,0,0,0,0,0,0,0,0,-1,671,1660,0,0
-546,-636,0,0,0,0,0,0,0,0,0,-1,678,1660,0,0
-539,-636,0,0,0,0,0,0,0,0,0,-1,685,1660,0,0
-532,-636,0,0,0,0,0,0,0,0,0,-1,692,1660,0,0
-525,-636,0,0,0,0,0,0,0,0,0,-1,699,1660,0,0
-518,-636,0,0,0,0,0,0,0,0,0,-1,706,1660,0,0
-511,-636,0,0,0,0,0,0,0,0,0,-1,713,1660,0,0
-504,-636,0,0,0,0,0,0,0,0,0,-1,720,1660,0,0
-497,-636,0,0,0,0,0,0,0,0,0,-1,727,1660,0,0
-490,-636,0,0,0,0,0,0,0,0,0,-1,734,1660,0,0
-483,-636,0,0,0,0,0,0,0,0,0,-1,741,1660,0,0
-476,-636,0,0,0,0,0,0,0,0,0,-1,748,1660,0,0
-469,-636,0,0,0,0,0,0,0,0,0,-1,755,1660,0,0
-462,-636,0,0,0,0,0,0,0,0,0,-1,762,1660,0,0
-455,-636,0,0,0,0,0,0,0,0,0,-1,769,1660,0,0
-448,-636,0,0,0,0,0,0,0,0,0,-1,776,1660,0,0
-441,-636,0,0,0,0,0,0,0,0,0,-1,783,1660,0,0
-434,-636,0,0,0,0,0,0,0,0,0,-1,790,1660,0,0
-427,-636,0,0,0,0,0,0,0,0,0,-1,797,1660,0,0
-420,-636,0,0,0,0,0,0,0,0,0,-1,804,1660,0,0
-413,-636,0,0,0,0,0,0,0,0,0,-1,811,1660,0,0
-406,-636,-0.591125,10.6943,0,0,0,0,0,0,0,-1,818,1660,-0.59115,-10.6943
-399,-636,0.0766602,11.2408,0,0,0,0,0,0,0,-1,825,1660,0.076685,-11.2409
-392,-636,0.75946,11.9233,0,0,0,0,0,0,0,-1,832,1660,0.759481,-11.9233
-385,-636,1.68878,12.517,0,0,0,0,0,0,0,-1,839,1660,1.6888,-12.5169
-378,-636,2.22107,13.0013,0,0,0,0,0,0,0,-1,846,1660,2.22107,-13.0014
-371,-636,2.52185,11.9684,0,0,0,0,0,0,0,-1,853,1660,2.52184,-11.9684
-364,-636,4.51947,14.8503,0,0,0,0,0,0,0,-1,860,1660,4.51949,-14.8504
-357,-636,4.55682,15.8809,0,0,0,0,0,0,0,-1,867,1660,4.55681,-15.8808
-350,-636,3.67798,35.933,0,0,0,0,0,0,0,-1,874,1660,3.678,-35.933
-343,-636,3.64398,37.0342,0,0,0,0,0,0,0,-1,881,1660,3.64398,-37.0342
-336,-636,3.69354,37.693,-0.000482531,0.00199328,0.00764255,0.00849753,-0.00698678,0.865689,0.00895404,0.0343945,888,1660,3.69354,-37.6929
-329,-636,3.7511,38.3121,-0.00133238,0.00204365,0.00605545,0.00664196,-0.00593069,0.921327,0.00726269,0.0181922,895,1660,3.7511,-38.3122
-322,-636,3.70453,38.9073,-0.00186762,0.00218256,0.00485971,0.00542224,-0.0051073,0.982812,0.00608014,0.0122695,902,1660,3.70452,-38.9074
-315,-636,3.65216,39.5674,-0.00220589,0.00225947,0.00381399,0.00444622,-0.00439264,1.0502,0.00510315,0.0140109,909,1660,3.65217,-39.5673
-308,-636,3.63947,40.2167,-0.00233461,0.0025084,0.00293603,0.00389267,-0.00371889,1.13023,0.00439492,0.0120845,916,1660,3.63946,-40.2166
-301,-636,3.61804,40.8436,-0.00225607,0.00263508,0.00229841,0.00354562,-0.00316661,1.1936,0.00387737,0.0107752,923,1660,3.61803,-40.8437
-294,-636,3.5896,41.4858,-0.00187536,0.0028212,0.00193246,0.0035141,-0.00256826,1.22651,0.00352578,0.0137982,930,1660,3.58962,-41.4859
-287,-636,3.56946,42.1057,-0.00138522,0.00313158,0.00175574,0.00373377,-0.00198741,1.24038,0.00335403,0.0129247,937,1660,3.56943,-42.1057
-280,-636,3.547,42.7054,-0.000732102,0.00352397,0.00173667,0.00414267,-0.0013508,1.22856,0.00330537,0.0124718,944,1660,3.54701,-42.7054
-273,-636,3.51172,43.2924,0.000146671,0.00390533,0.00186674,0.00467489,-0.000622882,1.17978,0.00334361,0.0122298,951,1660,3.51174,-43.2924
-266,-636,3.4881,43.9061,0.00112379,0.00402315,0.00200428,0.00504707,9.98632e-05,1.09849,0.00333193,0.0139185,958,1660,3.48812,-43.9061
-259,-636,3.48566,44.5359,0.00222095,0.0044858,0.00228514,0.00590372,0.000803035,1.01544,0.00369732,0.0165996,965,1660,3.48567,-44.5359
-252,-636,3.44739,45.0956,0.00337202,0.00493092,0.00266925,0.0069322,0.00137075,0.927454,0.00423908,0.0126236,972,1660,3.44737,-45.0956
-245,-636,3.44513,45.6888,0.00445773,0.00518055,0.00299355,0.00783443,0.00180386,0.845472,0.00473756,0.0106804,979,1660,3.44512,-45.6889
-238,-636,3.45544,46.28,0.0055398,0.00482809,0.00355978,0.00876147,0.00160643,0.735581,0.00538596,0.0114362,986,1660,3.45547,-46.2801
-231,-636,3.45721,46.8534,0.00638941,0.00433097,0.00438701,0.00986632,0.000854063,0.670179,0.00631215,0.0110806,993,1660,3.45719,-46.8534
-224,-636,3.45135,47.3939,0.00652775,0.0036996,0.00514273,0.0104473,-0.000219921,0.651231,0.0070393,0.0104051,1000,1660,3.45138,-47.3939
-217,-636,3.43842,47.9978,0.00630074,0.00291092,0.0057739,0.0106234,-0.0014117,0.642635,0.00759665,0.0173114,1007,1660,3.43845,-47.9978
-210,-636,3.40649,48.5446,0.00653007,0.00252152,0.00651726,0.0113443,-0.0022927,0.636221,0.00843164,0.028239,1014,1660,3.40651,-48.5445
-203,-636,3.45813,49.1414,0.00686761,0.00214894,0.0075949,0.0124612,-0.00344465,0.6348,0.00966257,0.0319796,1021,1660,3.45813,-49.1414
-196,-636,3.63611,49.5667,0.00684667,0.00187826,0.00869806,0.0134083,-0.00468339,0.646299,0.0108426,0.0311892,1028,1660,3.63607,-49.5666
-189,-636,3.63953,49.9795,0.00651248,0.00151449,0.00957248,0.0139068,-0.00587981,0.657717,0.011733,0.028044,1035,1660,3.63947,-49.9795
-182,-636,3.69409,50.7335,0.00619562,0.00204324,0.0104894,0.0148124,-0.00657349,0.687695,0.0126489,0.0409622,1042,1660,3.69412,-50.7336
-175,-636,3.70154,51.3275,0.00594494,0.0034551,0.0113069,0.0160752,-0.00667519,0.730568,0.0135035,0.0481488,1049,1660,3.7015,-51.3275
-168,-636,3.66711,51.8969,0.00575927,0.00587793,0.011918,0.0177367,-0.00609955,0.787887,0.0142981,0.0484706,1056,1660,3.66709,-51.8968
-161,-636,3.70813,52.2916,0.00586274,0.00924733,0.0121657,0.0198379,-0.00472782,0.854506,0.0150508,0.0489806,1063,1660,3.70818,-52.2916
-154,-636,4.10669,52.6543,0,0,0,0,0,0,0,-1,1070,1660,4.10672,-52.6544
-147,-636,2.90784,51.7357,0,0,0,0,0,0,0,-1,1077,1660,2.90779,-51.7357
-140,-636,3.4729,27.1271,0,0,0,0,0,0,0,-1,1084,1660,3.47287,-27.1271
-133,-636,1.87109,53.1626,0,0,0,0,0,0,0,-1,1091,1660,1.87115,-53.1626
-126,-636,3.79028,18.2225,0,0,0,0,0,0,0,-1,1098,1660,3.79025,-18.2226
-119,-636,1.8667,13.8916,0,0,0,0,0,0,0,-1,1105,1660,1.86668,-13.8916
-112,-636,-1.24963,9.7998,0,0,0,0,0,0,0,-1,1112,1660,-1.24968,-9.79978
-105,-636,3.51624,4.72791,0,0,0,0,0,0,0,-1,1119,1660,3.51618,-4.7279
-98,-636,1.54504,5.11914,0,0,0,0,0,0,0,-1,1126,1660,1.54503,-5.11912
-91,-636,-1.87964,-2.25012,0,0,0,0,0,0,0,-1,1133,1660,-1.87966,2.25016
-84,-636,-2.84143,0.133667,0,0,0,0,0,0,0,-1,1140,1660,-2.84144,-0.133701
-77,-636,-3.57349,2.45935,0,0,0,0,0,0,0,-1,1147,1660,-3.57345,-2.45939
-70,-636,-4.23682,4.82312,0,0,0,0,0,0,0,-1,1154,1660,-4.23681,-4.82307
-63,-636,-2.21033,6.97168,0,0,0,0,0,0,0,-1,1161,1660,-2.21034,-6.97165
-56,-636,-2.51917,8.80359,0,0,0,0,0,0,0,-1,1168,1660,-2.51916,-8.80361
-49,-636,-3.13,10.4113,0,0,0,0,0,0,0,-1,1175,1660,-3.12996,-10.4112
-42,-636,-2.27771,4.90173,0,0,0,0,0,0,0,-1,1182,1660,-2.27775,-4.90173
-35,-636,-2.27698,5.89685,0,0,0,0,0,0,0,-1,1189,1660,-2.27695,-5.89686
-28,-636,-1.70654,4.83936,0,0,0,0,0,0,0,-1,1196,1660,-1.70656,-4.8393
-21,-636,4.24683,27.7834,0,0,0,0,0,0,0,-1,1203,1660,4.24687,-27.7835
-14,-636,-0.462646,46.4132,0,0,0,0,0,0,0,-1,1210,1660,-0.462615,-46.4132
-7,-636,5.64905,75.3296,0,0,0,0,0,0,0,-1,1217,1660,5.64902,-75.3296
0,-636,6.07666,73.2639,0.101973,-0.110667,-0.160967,0.188563,-0.197257,-0.493535,0.222772,0.0493566,1224,1660,6.07663,-73.2639
7,-636,6.6073,71.4255,0.0958329,-0.102126,-0.16338,0.187877,-0.19417,-0.513053,0.220585,0.0449607,1231,1660,6.6073,-71.4256
14,-636,7.01135,69.6855,0.0877806,-0.0904852,-0.162077,0.183617,-0.186322,-0.534,0.213586,0.0438772,1238,1660,7.01136,-69.6855
21,-636,7.11072,67.8472,0.0809171,-0.0798026,-0.155559,0.175647,-0.174532,-0.546983,0.202176,0.0441627,1245,1660,7.11067,-67.8472
28,-636,7.29248,66.2244,0.0737804,-0.0686024,-0.1469,0.165831,-0.160653,-0.559762,0.188503,0.0426666,1252,1660,7.29245,-66.2244
35,-636,8.33545,64.5125,0.0662933,-0.0560515,-0.135476,0.153768,-0.143526,-0.573333,0.171676,0.046054,1259,1660,8.33545,-64.5124
42,-636,8.44751,62.7283,0.058495,-0.0454028,-0.121372,0.138568,-0.125476,-0.583187,0.152508,0.0482537,1266,1660,8.44747,-62.7283
49,-636,8.43457,61.0405,0.0498514,-0.0366567,-0.106264,0.121327,-0.108132,-0.592116,0.132551,0.0470913,1273,1660,8.43455,-61.0406
56,-636,7.87292,60.1034,0,0,0,0,0,0,0,-1,1280,1660,7.87296,-60.1034
63,-636,8.97571,57.4808,0.0304416,-0.0196582,-0.078656,0.0879403,-0.0771569,-0.631239,0.0953867,0.0462108,1287,1660,8.97573,-57.4808
70,-636,10.4036,59.5316,0.0188813,-0.0146244,-0.0676974,0.071868,-0.067611,-0.664102,0.0805407,0.0461417,1294,1660,10.4036,-59.5317
77,-636,10.1244,59.0286,0.0053654,-0.0115734,-0.0592954,0.0567932,-0.0630012,-0.714461,0.0691943,0.0464185,1301,1660,10.1244,-59.0286
84,-636,8.84937,56.7151,-0.0102654,-0.0100517,-0.0532844,0.0431259,-0.063443,-0.7864,0.0618992,0.0450415,1308,1660,8.84931,-56.7151
91,-636,8.69482,57.0477,-0.0267853,-0.00787986,-0.0459961,0.0296248,-0.06429,-0.886743,0.0554393,0.0450777,1315,1660,8.69477,-57.0477
98,-636,8.52795,57.0913,-0.0417645,-0.0076589,-0.0388485,0.0177147,-0.0671382,-0.992215,0.0516857,0.0487331,1322,1660,8.52792,-57.0914
105,-636,7.87073,56.9329,0,0,0,0,0,0,0,-1,1329,1660,7.87073,-56.9328
112,-636,6.68164,56.4191,-0.0700092,-0.00618623,-0.0326122,0.00753012,-0.0837256,-1.17267,0.0584889,0.0487006,1336,1660,6.68168,-56.419
119,-636,6.2063,56.381,-0.0862792,-0.00570244,-0.0328555,0.00599611,-0.0979777,-1.22873,0.0674061,0.0495399,1343,1660,6.20631,-56.3809
126,-636,5.70581,56.1621,-0.101625,0.00115451,-0.0293589,0.00894964,-0.10942,-1.31127,0.0761055,0.048554,1350,1660,5.70582,-56.1621
133,-636,5.80872,55.9999,-0.118717,0.0104147,-0.0223593,0.0141767,-0.122479,-1.40411,0.0867652,0.0463441,1357,1660,5.80872,-55.9999
140,-636,3.34485,55.6925,-0.139461,0.0229893,-0.0120442,0.0238774,-0.14035,-1.49719,0.102457,0.0443686,1364,1660,3.34484,-55.6925
147,-636,2.33728,56.1099,-0.163206,0.0349361,0.00499999,0.0350621,-0.163333,1.54558,0.122263,0.044523,1371,1660,2.33729,-56.1099
154,-636,1.53149,56.5167,0,0,0,0,0,0,0,-1,1378,1660,1.5315,-56.5167
161,-636,10.2961,7.13025,0,0,0,0,0,0,0,-1,1385,1660,10.2961,-7.13021
168,-636,11.7659,5.83899,0,0,0,0,0,0,0,-1,1392,1660,11.7658,-5.83899
175,-636,5.94592,-1.72888,0,0,0,0,0,0,0,-1,1399,1660,5.94598,1.72886
182,-636,5.93994,-1.11938,0,0,0,0,0,0,0,-1,1406,1660,5.93998,1.11936
189,-636,5.32544,11.9595,0,0,0,0,0,0,0,-1,1413,1660,5.32542,-11.9595
196,-636,5.3623,9.38025,0,0,0,0,0,0,0,-1,1420,1660,5.36225,-9.38027
203,-636,5.18542,9.02429,0,0,0,0,0,0,0,-1,1427,1660,5.18547,-9.0243
210,-636,4.09167,7.17041,0,0,0,0,0,0,0,-1,1434,1660,4.09173,-7.17041
217,-636,2.94897,5.28992,0,0,0,0,0,0,0,-1,1441,1660,2.94899,-5.28991
224,-636,1.49194,3.63916,0,0,0,0,0,0,0,-1,1448,1660,1.49197,-3.63918
231,-636,0.17749,2.24854,0,0,0,0,0,0,0,-1,1455,1660,0.177501,-2.24855
238,-636,-0.764648,1.00598,0,0,0,0,0,0,0,-1,1462,1660,-0.764704,-1.00595
245,-636,6.21204,1.18005,0,0,0,0,0,0,0,-1,1469,1660,6.21206,-1.18001
252,-636,7.70251,0.865723,0,0,0,0,0,0,0,-1,1476,1660,7.7025,-0.865692
259,-636,9.03601,0.787231,0,0,0,0,0,0,0,-1,1483,1660,9.03598,-0.787243
266,-636,10.1071,3.24109,0,0,0,0,0,0,0,-1,1490,1660,10.1071,-3.24103
273,-636,8.48535,5.02466,0,0,0,0,0,0,0,-1,1497,1660,8.48533,-5.02472
280,-636,11.908,32.0698,0,0,0,0,0,0,0,-1,1504,1660,11.9079,-32.0698
287,-636,12.1218,36.4158,0,0,0,0,0,0,0,-1,1511,1660,12.1218,-36.4158
294,-636,13.3706,44.9711,0,0,0,0,0,0,0,-1,1518,1660,13.3706,-44.9711
301,-636,14.5992,52.8079,0,0,0,0,0,0,0,-1,1525,1660,14.5993,-52.8079
308,-636,14.5258,51.0873,0,0,0,0,0,0,0,-1,1532,1660,14.5257,-51.0872
315,-636,14.4297,50.4216,0,0,0,0,0,0,0,-1,1539,1660,14.4297,-50.4216
322,-636,14.4445,49.7664,0,0,0,0,0,0,0,-1,1546,1660,14.4444,-49.7663
329,-636,14.4205,49.3044,0.0123251,0.024945,-0.0110579,0.0313667,0.00590347,-1.04467,0.0192475,0.0390273,1553,1660,14.4205,-49.3044
336,-636,14.3585,48.7313,0.0116375,0.0217024,-0.0101639,0.0280115,0.00532842,-1.01527,0.0171759,0.029279,1560,1660,14.3586,-48.7313
343,-636,14.5199,48.1069,0.0105858,0.0188623,-0.0092799,0.0248848,0.00456326,-0.995132,0.0152974,0.0221474,1567,1660,14.5199,-48.1069
350,-636,14.5326,47.5494,0.00955598,0.015837,-0.00817294,0.0214521,0.00394095,-0.96883,0.0131855,0.0118667,1574,1660,14.5326,-47.5495
357,-636,14.5187,46.9727,0.00855196,0.0128159,-0.00704802,0.0180473,0.00332051,-0.932269,0.0110917,0.0110344,1581,1660,14.5186,-46.9727
364,-636,14.5138,46.4066,0.00764024,0.0111551,-0.00630999,0.0159478,0.00284752,-0.921215,0.0098213,0.0113707,1588,1660,14.5138,-46.4066
371,-636,14.5203,45.8652,0.00683267,0.00952261,-0.0056437,0.0139794,0.0023759,-0.902373,0.00863724,0.00985858,1595,1660,14.5202,-45.8652
378,-636,14.5148,45.3032,0.00601484,0.00801921,-0.00495166,0.0120691,0.00196496,-0.885246,0.00747763,0.010527,1602,1660,14.5147,-45.3032
385,-636,14.5214,44.7389,0.00522432,0.00664281,-0.00427682,0.0102688,0.00159833,-0.867568,0.00638018,0.017043,1609,1660,14.5214,-44.739
392,-636,14.5072,44.1615,0.00439513,0.00549784,-0.00370701,0.00869428,0.00119869,-0.859224,0.00544082,0.017581,1616,1660,14.5072,-44.1615
399,-636,14.468,43.5938,0.00345265,0.00439096,-0.0031165,0.00707342,0.000770192,-0.860107,0.004481,0.0125929,1623,1660,14.4681,-43.5937
406,-636,14.4746,43.0372,0.00274834,0.0037819,-0.0028024,0.00611478,0.00041547,-0.876577,0.00394533,0.0151028,1630,1660,14.4746,-43.0373
413,-636,14.4633,42.4492,0.00225514,0.00335353,-0.00263741,0.00549832,0.000110356,-0.888048,0.00362932,0.0240048,1637,1660,14.4633,-42.4492
420,-636,14.3933,41.8696,0.00187688,0.00315574,-0.00261927,0.0052125,-0.000179888,-0.905119,0.00353649,0.0243549,1644,1660,14.3934,-41.8696
427,-636,14.3766,41.2743,0.00159709,0.00308409,-0.00272837,0.00516845,-0.000487271,-0.918422,0.00361901,0.0161595,1651,1660,14.3766,-41.2743
434,-636,14.3734,40.6418,0.00152284,0.00334475,-0.00307271,0.0056387,-0.0007711,-0.929504,0.00404077,0.0157112,1658,1660,14.3734,-40.6418
441,-636,14.3386,40.0177,0.00166867,0.00379223,-0.00359188,0.00647597,-0.00101508,-0.929108,0.00469242,0.0134127,1665,1660,14.3386,-40.0177
448,-636,14.3213,39.3912,0.00196609,0.00434476,-0.00422994,0.00754938,-0.00123854,-0.922445,0.00549251,0.0147059,1672,1660,14.3213,-39.3913
455,-636,14.2806,38.7628,0.00242353,0.00489811,-0.00486065,0.00867648,-0.00135484,-0.910027,0.0062848,0.0162323,1679,1660,14.2807,-38.7629
462,-636,14.1777,38.1201,0.00305165,0.00584965,-0.00563149,0.0102533,-0.00135202,-0.907146,0.00732791,0.0228988,1686,1660,14.1777,-38.1201
469,-636,14.2723,37.4498,0.00368555,0.00692698,-0.00665041,0.0121513,-0.00153878,-0.904919,0.0086595,0.0403596,1693,1660,14.2723,-37.4499
476,-636,14.5051,36.8118,0,0,0,0,0,0,0,-1,1700,1660,14.5052,-36.8118
483,-636,11.3833,24.3958,0,0,0,0,0,0,0,-1,1707,1660,11.3833,-24.3957
490,-636,10.8951,23.9569,0,0,0,0,0,0,0,-1,1714,1660,10.8951,-23.9569
497,-636,9.55579,18.0111,0,0,0,0,0,0,0,-1,1721,1660,9.55574,-18.0111
504,-636,6.26428,19.4268,0,0,0,0,0,0,0,-1,1728,1660,6.26433,-19.4268
511,-636,5.65466,9.23218,0,0,0,0,0,0,0,-1,1735,1660,5.65461,-9.23216
518,-636,6.72791,1.07605,0,0,0,0,0,0,0,-1,1742,1660,6.7279,-1.0761
525,-636,7.04309,0.93335,0,0,0,0,0,0,0,-1,1749,1660,7.04308,-0.933298
532,-636,0,0,0,0,0,0,0,0,0,-1,1756,1660,0,0
539,-636,0,0,0,0,0,0,0,0,0,-1,1763,1660,0,0
546,-636,0,0,0,0,0,0,0,0,0,-1,1770,1660,0,0
553,-636,0,0,0,0,0,0,0,0,0,-1,1777,1660,0,0
560,-636,0,0,0,0,0,0,0,0,0,-1,1784,1660,0,0
567,-636,0,0,0,0,0,0,0,0,0,-1,1791,1660,0,0
574,-636,0,0,0,0,0,0,0,0,0,-1,1798,1660,0,0
581,-636,0,0,0,0,0,0,0,0,0,-1,1805,1660,0,0
588,-636,0,0,0,0,0,0,0,0,0,-1,1812,1660,0,0
595,-636,0,0,0,0,0,0,0,0,0,-1,1819,1660,0,0
602,-636,0,0,0,0,0,0,0,0,0,-1,1826,1660,0,0
609,-636,0,0,0,0,0,0,0,0,0,-1,1833,1660,0,0
616,-636,0,0,0,0,0,0,0,0,0,-1,1840,1660,0,0
623,-636,0,0,0,0,0,0,0,0,0,-1,1847,1660,0,0
630,-636,0,0,0,0,0,0,0,0,0,-1,1854,1660,0,0
637,-636,0,0,0,0,0,0,0,0,0,-1,1861,1660,0,0
644,-636,0,0,0,0,0,0,0,0,0,-1,1868,1660,0,0
651,-636,0,0,0,0,0,0,0,0,0,-1,1875,1660,0,0
658,-636,0,0,0,0,0,0,0,0,0,-1,1882,1660,0,0
665,-636,0,0,0,0,0,0,0,0,0,-1,1889,1660,0,0
672,-636,0,0,0,0,0,0,0,0,0,-1,1896,1660,0,0
679,-636,0,0,0,0,0,0,0,0,0,-1,1903,1660,0,0
686,-636,0,0,0,0,0,0,0,0,0,-1,1910,1660,0,0
693,-636,0,0,0,0,0,0,0,0,0,-1,1917,1660,0,0
700,-636,0,0,0,0,0,0,0,0,0,-1,1924,1660,0,0
707,-636,0,0,0,0,0,0,0,0,0,-1,1931,1660,0,0
714,-636,0,0,0,0,0,0,0,0,0,-1,1938,1660,0,0
721,-636,0,0,0,0,0,0,0,0,0,-1,1945,1660,0,0
728,-636,0,0,0,0,0,0,0,0,0,-1,1952,1660,0,0
735,-636,0,0,0,0,0,0,0,0,0,-1,1959,1660,0,0
742,-636,0,0,0,0,0,0,0,0,0,-1,1966,1660,0,0
749,-636,0,0,0,0,0,0,0,0,0,-1,1973,1660,0,0
756,-636,0,0,0,0,0,0,0,0,0,-1,1980,1660,0,0
763,-636,0,0,0,0,0,0,0,0,0,-1,1987,1660,0,0
770,-636,0,0,0,0,0,0,0,0,0,-1,1994,1660,0,0
777,-636,0,0,0,0,0,0,0,0,0,-1,2001,1660,0,0
784,-636,0,0,0,0,0,0,0,0,0,-1,2008,1660,0,0
791,-636,0,0,0,0,0,0,0,0,0,-1,2015,1660,0,0
798,-636,0,0,0,0,0,0,0,0,0,-1,2022,1660,0,0
805,-636,0,0,0,0,0,0,0,0,0,-1,2029,1660,0,0
812,-636,0,0,0,0,0,0,0,0,0,-1,2036,1660,0,0
-700,-643,0,0,0,0,0,0,0,0,0,-1,524,1667,0,0
-693,-643,0,0,0,0,0,0,0,0,0,-1,531,1667,0,0
-686,-643,0,0,0,0,0,0,0,0,0,-1,538,1667,0,0
-679,-643,0,0,0,0,0,0,0,0,0,-1,545,1667,0,0
-672,-643,0,0,0,0,0,0,0,0,0,-1,552,1667,0,0
-665,-643,0,0,0,0,0,0,0,0,0,-1,559,1667,0,0
-658,-643,0,0,0,0,0,0,0,0,0,-1,566,1667,0,0
-651,-643,0,0,0,0,0,0,0,0,0,-1,573,1667,0,0
-644,-643,0,0,0,0,0,0,0,0,0,-1,580,1667,0,0
-637,-643,0,0,0,0,0,0,0,0,0,-1,587,1667,0,0
-630,-643,0,0,0,0,0,0,0,0,0,-1,594,1667,0,0
-623,-643,0,0,0,0,0,0,0,0,0,-1,601,1667,0,0
-616,-643,0,0,0,0,0,0,0,0,0,-1,608,1667,0,0
-609,-643,0,0,0,0,0,0,0,0,0,-1,615,1667,0,0
-602,-643,0,0,0,0,0,0,0,0,0,-1,622,1667,0,0
-595,-643,0,0,0,0,0,0,0,0,0,-1,629,1667,0,0
-588,-643,0,0,0,0,0,0,0,0,0,-1,636,1667,0,0
-581,-643,0,0,0,0,0,0,0,0,0,-1,643,1667,0,0
-574,-643,0,0,0,0,0,0,0,0,0,-1,650,1667,0,0
-567,-643,0,0,0,0,0,0,0,0,0,-1,657,1667,0,0
-560,-643,0,0,0,0,0,0,0,0,0,-1,664,1667,0,0
-553,-643,0,0,0,0,0,0,0,0,0,-1,671,1667,0,0
-546,-643,0,0,0,0,0,0,0,0,0,-1,678,1667,0,0
-539,-643,0,0,0,0,0,0,0,0,0,-1,685,1667,0,0
-532,-643,0,0,0,0,0,0,0,0,0,-1,692,1667,0,0
-525,-643,0,0,0,0,0,0,0,0,0,-1,699,1667,0,0
-518,-643,0,0,0,0,0,0,0,0,0,-1,706,1667,0,0
-511,-643,0,0,0,0,0,0,0,0,0,-1,713,1667,0,0
-504,-643,0,0,0,0,0,0,0,0,0,-1,720,1667,0,0
-497,-643,0,0,0,0,0,0,0,0,0,-1,727,1667,0,0
-490,-643,0,0,0,0,0,0,0,0,0,-1,734,1667,0,0
-483,-643,0,0,0,0,0,0,0,0,0,-1,741,1667,0,0
-476,-643,0,0,0,0,0,0,0,0,0,-1,748,1667,0,0
-469,-643,0,0,0,0,0,0,0,0,0,-1,755,1667,0,0
-462,-643,0,0,0,0,0,0,0,0,0,-1,762,1667,0,0
-455,-643,0,0,0,0,0,0,0,0,0,-1,769,1667,0,0
-448,-643,0,0,0,0,0,0,0,0,0,-1,776,1667,0,0
-441,-643,0,0,0,0,0,0,0,0,0,-1,783,1667,0,0
-434,-643,0,0,0,0,0,0,0,0,0,-1,790,1667,0,0
-427,-643,0,0,0,0,0,0,0,0,0,-1,797,1667,0,0
-420,-643,0,0,0,0,0,0,0,0,0,-1,804,1667,0,0
-413,-643,0,0,0,0,0,0,0,0,0,-1,811,1667,0,0
-406,-643,0,0,0,0,0,0,0,0,0,-1,818,1667,0,0
-399,-643,0.589417,11.6465,0,0,0,0,0,0,0,-1,825,1667,0.58939,-11.6465
-392,-643,0.865295,12.6523,0,0,0,0,0,0,0,-1,832,1667,0.865315,-12.6523
-385,-643,1.72968,13.2692,0,0,0,0,0,0,0,-1,839,1667,1.72967,-13.2692
-378,-643,2.66522,13.8193,0,0,0,0,0,0,0,-1,846,1667,2.66524,-13.8193
-371,-643,0.466125,3.35095,0,0,0,0,0,0,0,-1,853,1667,0.466148,-3.351
-364,-643,1.69513,9.922,0,0,0,0,0,0,0,-1,860,1667,1.69511,-9.92205
-357,-643,1.14227,10.8429,0,0,0,0,0,0,0,-1,867,1667,1.14228,-10.8429
-350,-643,4.48804,36.1799,0,0,0,0,0,0,0,-1,874,1667,4.48801,-36.1799
-343,-643,4.51654,37.0381,0,0,0,0,0,0,0,-1,881,1667,4.51652,-37.0381
-336,-643,4.37439,37.8169,0,0,0,0,0,0,0,-1,888,1667,4.3744,-37.8169
-329,-643,4.33258,38.3584,-0.00177749,0.00465825,0.00919982,0.0111867,-0.00830598,0.953635,0.011295,0.0397493,895,1667,4.33257,-38.3584
-322,-643,4.36212,38.98,-0.0028145,0.00445828,0.00728581,0.00896476,-0.00732098,1.01686,0.00941853,0.0287817,902,1667,4.36215,-38.9799
-315,-643,4.26666,39.6217,-0.0036439,0.00384891,0.00541632,0.00668825,-0.00648324,1.08796,0.00760487,0.0201247,909,1667,4.26668,-39.6218
-308,-643,4.27332,40.2429,-0.00414965,0.00348645,0.00385158,0.00509169,-0.0057549,1.17591,0.00626618,0.0138134,916,1667,4.27332,-40.2429
-301,-643,4.2569,40.8632,-0.00436757,0.00302762,0.00261666,0.00385982,-0.00519977,1.26287,0.0052496,0.0139816,923,1667,4.25691,-40.8631
-294,-643,4.20624,41.4875,-0.00419312,0.00264894,0.00175397,0.00307237,-0.00461655,1.33392,0.00446894,0.013147,930,1667,4.20624,-41.4875
-287,-643,4.17737,42.1113,-0.00380969,0.00255315,0.00123154,0.0027832,-0.00403973,1.38613,0.00396143,0.0115063,937,1667,4.17735,-42.1113
-280,-643,4.15002,42.7334,-0.00321834,0.00259285,0.000958658,0.00274691,-0.00337241,1.41145,0.00353914,0.0145928,944,1667,4.15005,-42.7334
-273,-643,4.12115,43.3516,-0.00235378,0.00271042,0.000914757,0.00287059,-0.00251395,1.39746,0.00311104,0.0120894,951,1667,4.12116,-43.3516
-266,-643,4.08569,43.9574,-0.0013729,0.00256418,0.000833097,0.00273321,-0.00154193,1.37062,0.00249999,0.0125919,958,1667,4.08567,-43.9573
-259,-643,4.07214,44.5387,-0.000233002,0.00289365,0.000975567,0.00317307,-0.000512424,1.29184,0.00230525,0.0132586,965,1667,4.07214,-44.5387
-252,-643,4.04126,45.1407,0.00098865,0.00326267,0.00135642,0.00389559,0.00035573,1.13421,0.00248698,0.014811,972,1667,4.04128,-45.1407
-245,-643,4.01874,45.7288,0.0021745,0.00345759,0.00174803,0.00467809,0.000954011,0.961272,0.00285437,0.0124824,979,1667,4.01873,-45.7288
-238,-643,4.05988,46.3,0.00332815,0.00320047,0.00224878,0.005514,0.00101462,0.771207,0.00338881,0.0153499,986,1667,4.0599,-46.3001
-231,-643,4.03516,46.8584,0.0042509,0.00289044,0.00290949,0.00655862,0.000582718,0.670563,0.0041917,0.0113188,993,1667,4.03516,-46.8584
-224,-643,4.02423,47.3895,0.00467707,0.00259978,0.00357442,0.00736069,-8.38418e-05,0.644003,0.00493531,0.0102776,1000,1667,4.02426,-47.3895
-217,-643,4.0094,47.9038,0.00473432,0.00214823,0.00405309,0.00769563,-0.000813073,0.630988,0.0054218,0.00982429,1007,1667,4.0094,-47.9039
-210,-643,3.98755,48.4918,0.00506723,0.00193712,0.00456706,0.00832995,-0.0013256,0.620327,0.00604382,0.0129853,1014,1667,3.98752,-48.4919
-203,-643,3.98499,49.109,0.00550853,0.00170823,0.00530772,0.00924597,-0.00202921,0.613507,0.00693999,0.0172135,1021,1667,3.98494,-49.109
-196,-643,4.00684,49.6136,0.0057194,0.00166127,0.00613631,0.0101534,-0.00277274,0.625725,0.00785799,0.0163974,1028,1667,4.0068,-49.6136
-189,-643,4.1012,50.1,0.00568979,0.00173162,0.00677312,0.010767,-0.00334564,0.643257,0.00851522,0.0166869,1035,1667,4.10122,-50.1
-182,-643,4.17102,50.6572,0.0056475,0.00256135,0.00738505,0.011649,-0.00344011,0.682407,0.0091313,0.025999,1042,1667,4.17102,-50.6572
-175,-643,4.15259,51.2087,0.00574233,0.00392012,0.00798996,0.012873,-0.00321051,0.728628,0.00982851,0.0394589,1049,1667,4.15261,-51.2088
-168,-643,4.11243,51.6813,0.00587117,0.00610422,0.00847839,0.0144669,-0.0024915,0.79227,0.0105734,0.0441324,1056,1667,4.11239,-51.6812
-161,-643,4.14758,52.0748,0.0062111,0.00898953,0.00873243,0.0164426,-0.00124193,0.864281,0.0113983,0.0452228,1063,1667,4.14757,-52.0748
-154,-643,4.42957,52.5187,0.0067887,0.0125355,0.00890238,0.0190167,0.000307486,0.941504,0.0125766,0.047001,1070,1667,4.42953,-52.5187
-147,-643,4.71228,53.2848,0,0,0,0,0,0,0,-1,1077,1667,4.71224,-53.2848
-140,-643,2.88684,53.5577,0,0,0,0,0,0,0,-1,1084,1667,2.88688,-53.5578
-133,-643,2.90088,53.454,0,0,0,0,0,0,0,-1,1091,1667,2.90084,-53.454
-126,-643,2.91479,53.3503,0,0,0,0,0,0,0,-1,1098,1667,2.9148,-53.3503
-119,-643,3.76282,14.1458,0,0,0,0,0,0,0,-1,1105,1667,3.76283,-14.1458
-112,-643,3.81458,16.2069,0,0,0,0,0,0,0,-1,1112,1667,3.81463,-16.2069
-105,-643,-2.23413,10.0996,0,0,0,0,0,0,0,-1,1119,1667,-2.23415,-10.0996
-98,-643,3.11035,4.68066,0,0,0,0,0,0,0,-1,1126,1667,3.11041,-4.68071
-91,-643,-1.74146,-2.5885,0,0,0,0,0,0,0,-1,1133,1667,-1.74146,2.58856
-84,-643,-3.07446,-0.199341,0,0,0,0,0,0,0,-1,1140,1667,-3.07449,0.199383
-77,-643,-3.63794,2.81165,0,0,0,0,0,0,0,-1,1147,1667,-3.63791,-2.8117
-70,-643,-3.36938,4.45203,0,0,0,0,0,0,0,-1,1154,1667,-3.36941,-4.452
-63,-643,-3.67822,6.26855,0,0,0,0,0,0,0,-1,1161,1667,-3.67823,-6.26856
-56,-643,-3.95142,8.1073,0,0,0,0,0,0,0,-1,1168,1667,-3.95139,-8.10732
-49,-643,-4.23535,9.90552,0,0,0,0,0,0,0,-1,1175,1667,-4.23537,-9.90557
-42,-643,-4.25195,10.7059,0,0,0,0,0,0,0,-1,1182,1667,-4.25192,-10.706
-35,-643,-4.10986,11.6588,0,0,0,0,0,0,0,-1,1189,1667,-4.10982,-11.6589
-28,-643,-1.38513,5.604,0,0,0,0,0,0,0,-1,1196,1667,-1.3851,-5.60403
-21,-643,1.61011,23.1276,0,0,0,0,0,0,0,-1,1203,1667,1.61011,-23.1275
-14,-643,6.16138,56.0734,0,0,0,0,0,0,0,-1,1210,1667,6.16137,-56.0733
-7,-643,7.22375,75.7926,0,0,0,0,0,0,0,-1,1217,1667,7.22376,-75.7926
0,-643,7.34155,73.868,0.0856446,-0.0949491,-0.145257,0.166383,-0.175687,-0.50731,0.197519,0.0463162,1224,1667,7.34152,-73.868
7,-643,7.54382,72.0912,0.0790829,-0.086847,-0.14887,0.166545,-0.174309,-0.531183,0.196809,0.0447945,1231,1667,7.54386,-72.0912
14,-643,7.73486,70.3988,0.0702044,-0.0774482,-0.149684,0.163278,-0.170522,-0.556296,0.192735,0.043251,1238,1667,7.73485,-70.3988
21,-643,7.61316,68.5189,0.0616237,-0.0685354,-0.146171,0.156548,-0.16346,-0.575959,0.184771,0.0428635,1245,1667,7.61314,-68.5189
28,-643,9.3446,66.8138,0,0,0,0,0,0,0,-1,1252,1667,9.34464,-66.8139
35,-643,9.23291,65.1799,0.0439689,-0.050343,-0.131546,0.136556,-0.14293,-0.613296,0.161375,0.0442771,1259,1667,9.23297,-65.1799
42,-643,9.08386,63.5905,0.0351722,-0.0423753,-0.120131,0.122632,-0.129835,-0.629295,0.145781,0.0470267,1266,1667,9.08391,-63.5905
49,-643,9.06104,61.9492,0.0263474,-0.0359745,-0.107286,0.106906,-0.116533,-0.644063,0.129042,0.0449735,1273,1667,9.06102,-61.9493
56,-643,8.88037,60.5057,0.0176381,-0.0295384,-0.0944587,0.0914092,-0.10331,-0.66304,0.112491,0.0467648,1280,1667,8.88034,-60.5058
63,-643,9.22339,58.5364,0.00832502,-0.0238711,-0.0819643,0.0757571,-0.0913033,-0.688431,0.0965915,0.0454405,1287,1667,9.22333,-58.5364
70,-643,10.5475,59.5614,-0.00122824,-0.0200734,-0.0705598,0.0605354,-0.081837,-0.719021,0.0825048,0.045328,1294,1667,10.5475,-59.5614
77,-643,10.5991,59.1912,-0.0118651,-0.0175933,-0.0611313,0.0464691,-0.0759275,-0.761989,0.0713447,0.0440045,1301,1667,10.5991,-59.1912
84,-643,9.55493,57.4702,0,0,0,0,0,0,0,-1,1308,1667,9.5549,-57.4702
91,-643,8.98572,57.5112,-0.0365697,-0.0143506,-0.0469803,0.0228158,-0.0737361,-0.901502,0.0582711,0.0494388,1315,1667,8.98569,-57.5112
98,-643,8.56482,57.5953,-0.0486005,-0.0136581,-0.0399126,0.0124397,-0.0746983,-0.991702,0.0544215,0.0471387,1322,1667,8.56476,-57.5953
105,-643,7.95569,57.1805,-0.0592962,-0.0121757,-0.0356153,0.00696695,-0.0784388,-1.07761,0.0547628,0.045229,1329,1667,7.95564,-57.1805
112,-643,7.26257,56.4064,0,0,0,0,0,0,0,-1,1336,1667,7.26256,-56.4063
119,-643,6.64612,56.5381,-0.083532,-0.00578739,-0.0319899,0.00568324,-0.0950026,-1.22651,0.065312,0.0465936,1343,1667,6.64611,-56.538
126,-643,6.34192,56.168,-0.0963916,0.0015944,-0.0275619,0.00881504,-0.103612,-1.31458,0.0721928,0.0473482,1350,1667,6.34188,-56.168
133,-643,6.19666,55.8378,0,0,0,0,0,0,0,-1,1357,1667,6.19668,-55.8377
140,-643,3.70483,55.4635,-0.130347,0.0235191,-0.00888252,0.0240302,-0.130858,-1.51332,0.0962536,0.0436585,1364,1667,3.70484,-55.4636
147,-643,2.33997,56.1295,-0.146139,0.0317421,0.00634027,0.0319678,-0.146364,1.53521,0.109795,0.0444889,1371,1667,2.33991,-56.1295
154,-643,1.55688,56.5106,0,0,0,0,0,0,0,-1,1378,1667,1.55693,-56.5106
161,-643,5.57935,26.2754,0,0,0,0,0,0,0,-1,1385,1667,5.57931,-26.2754
168,-643,10.5563,10.9818,0,0,0,0,0,0,0,-1,1392,1667,10.5562,-10.9819
175,-643,5.88525,-1.1698,0,0,0,0,0,0,0,-1,1399,1667,5.88526,1.16977
182,-643,5.80945,-0.418701,0,0,0,0,0,0,0,-1,1406,1667,5.80949,0.418712
189,-643,5.42297,12.9208,0,0,0,0,0,0,0,-1,1413,1667,5.42298,-12.9208
196,-643,5.51953,11.2415,0,0,0,0,0,0,0,-1,1420,1667,5.51948,-11.2414
203,-643,5.60828,9.82153,0,0,0,0,0,0,0,-1,1427,1667,5.60833,-9.82148
210,-643,4.73218,7.58728,0,0,0,0,0,0,0,-1,1434,1667,4.73222,-7.58728
217,-643,3.8031,5.28955,0,0,0,0,0,0,0,-1,1441,1667,3.80305,-5.28955
224,-643,2.96436,2.97095,0,0,0,0,0,0,0,-1,1448,1667,2.96432,-2.97095
231,-643,2.13403,1.08472,0,0,0,0,0,0,0,-1,1455,1667,2.13403,-1.08467
238,-643,1.18152,-0.261963,0,0,0,0,0,0,0,-1,1462,1667,1.18152,0.26192
245,-643,-0.157471,-1.79016,0,0,0,0,0,0,0,-1,1469,1667,-0.157517,1.7901
252,-643,8.08789,0.0202637,0,0,0,0,0,0,0,-1,1476,1667,8.08791,-0.0203056
259,-643,9.02979,-0.46936,0,0,0,0,0,0,0,-1,1483,1667,9.02974,0.46933
266,-643,4.55066,5.17554,0,0,0,0,0,0,0,-1,1490,1667,4.55063,-5.17556
273,-643,10.74,31.432,0,0,0,0,0,0,0,-1,1497,1667,10.7399,-31.4319
280,-643,12.1675,42.5023,0,0,0,0,0,0,0,-1,1504,1667,12.1675,-42.5023
287,-643,12.9725,46.299,0,0,0,0,0,0,0,-1,1511,1667,12.9725,-46.299
294,-643,13.772,52.9119,0,0,0,0,0,0,0,-1,1518,1667,13.7719,-52.9119
301,-643,13.8895,51.9709,0.013414,0.0289978,-0.010096,0.0339591,0.0084527,-1.11404,0.0204137,0.0401259,1525,1667,13.8895,-51.9709
308,-643,13.9575,50.7954,0.0119575,0.0262184,-0.00908033,0.0306333,0.0075426,-1.11824,0.0184299,0.0386129,1532,1667,13.9575,-50.7954
315,-643,13.9343,50.2483,0.0106,0.0232952,-0.008162,0.0272873,0.00660789,-1.1159,0.0164378,0.030833,1539,1667,13.9344,-50.2482
322,-643,13.9514,49.6926,0.00986618,0.0208729,-0.00792481,0.0250178,0.00572124,-1.08889,0.0151363,0.0191333,1546,1667,13.9514,-49.6926
329,-643,13.9387,49.093,0.00933849,0.0181919,-0.00754724,0.0225148,0.00501553,-1.05063,0.0136488,0.0140231,1553,1667,13.9388,-49.093
336,-643,13.9478,48.6079,0.0087047,0.0159211,-0.00699624,0.0201848,0.00444101,-1.02348,0.0122476,0.0128336,1560,1667,13.9477,-48.6079
343,-643,14.0015,48.1073,0.00782408,0.0139324,-0.00646196,0.0180256,0.00373088,-1.00616,0.0109867,0.0142613,1567,1667,14.0014,-48.1073
350,-643,13.9987,47.5406,0.00700589,0.0119126,-0.00590239,0.0158512,0.0030673,-0.982364,0.00970794,0.0123093,1574,1667,13.9987,-47.5406
357,-643,13.9684,46.9955,0.00626114,0.00967171,-0.00527235,0.0135077,0.00242516,-0.941808,0.00831547,0.0104518,1581,1667,13.9684,-46.9955
364,-643,13.9564,46.4397,0.00561863,0.00849261,-0.00487702,0.0121399,0.0019713,-0.928666,0.00752278,0.0100211,1588,1667,13.9565,-46.4398
371,-643,13.9606,45.9064,0.0050439,0.00734885,-0.00452905,0.0108698,0.00152299,-0.909985,0.00679597,0.00839711,1595,1667,13.9606,-45.9063
378,-643,13.9561,45.3606,0.00446253,0.00628629,-0.00414691,0.0096204,0.00112842,-0.893623,0.00607251,0.0105236,1602,1667,13.956,-45.3606
385,-643,13.9674,44.7833,0.00392143,0.00534063,-0.00375043,0.008448,0.000814064,-0.878895,0.00538121,0.0168687,1609,1667,13.9674,-44.7833
392,-643,13.9316,44.2098,0.00336536,0.00455177,-0.00348118,0.00748993,0.000427204,-0.869789,0.00485715,0.0171845,1616,1667,13.9316,-44.2099
399,-643,13.8877,43.663,0.00267236,0.00380688,-0.00315364,0.00644388,3.53674e-05,-0.874384,0.00428418,0.0142893,1623,1667,13.8877,-43.6629
406,-643,13.8876,43.0385,0.00217007,0.00347736,-0.0030312,0.00592459,-0.000277155,-0.891592,0.00404528,0.013673,1630,1667,13.8876,-43.0385
413,-643,13.8954,42.4362,0.00184792,0.00335654,-0.00304382,0.00573812,-0.00053366,-0.90686,0.00401514,0.0197237,1637,1667,13.8954,-42.4362
420,-643,13.8274,41.8857,0.00161956,0.00344988,-0.00318344,0.0058471,-0.000777653,-0.925361,0.00418146,0.0188646,1644,1667,13.8274,-41.8857
427,-643,13.8024,41.2981,0.00153375,0.00375052,-0.00350278,0.00631609,-0.00103182,-0.938629,0.00459346,0.0161284,1651,1667,13.8024,-41.2981
434,-643,13.7964,40.696,0.00166859,0.00434784,-0.00402211,0.00724755,-0.00123112,-0.946153,0.00529004,0.0172246,1658,1667,13.7964,-40.696
441,-643,13.7693,40.0676,0.00196635,0.00516618,-0.0046781,0.00851039,-0.00137786,-0.950164,0.00618426,0.0163464,1665,1667,13.7692,-40.0677
448,-643,13.7394,39.413,0.0023619,0.00607162,-0.0054411,0.00996533,-0.00153181,-0.94967,0.00720861,0.0204392,1672,1667,13.7394,-39.4129
455,-643,13.6036,38.7975,0.0028934,0.00694661,-0.00621126,0.0114535,-0.00161352,-0.943092,0.00822644,0.0284307,1679,1667,13.6037,-38.7975
462,-643,13.687,37.9889,0.00371779,0.00824921,-0.00722468,0.0135551,-0.00158812,-0.937344,0.00960996,0.0454514,1686,1667,13.687,-37.9889
469,-643,13.8792,37.1807,0,0,0,0,0,0,0,-1,1693,1667,13.8792,-37.1807
476,-643,10.5598,24.5066,0,0,0,0,0,0,0,-1,1700,1667,10.5598,-24.5065
483,-643,10.4502,24.3062,0,0,0,0,0,0,0,-1,1707,1667,10.4502,-24.3062
490,-643,10.6885,24.1522,0,0,0,0,0,0,0,-1,1714,1667,10.6884,-24.1522
497,-643,10.9073,23.9465,0,0,0,0,0,0,0,-1,1721,1667,10.9074,-23.9465
504,-643,8.05591,19.0656,0,0,0,0,0,0,0,-1,1728,1667,8.0559,-19.0655
511,-643,7.74719,18.1564,0,0,0,0,0,0,0,-1,1735,1667,7.74724,-18.1563
518,-643,7.40564,0.922607,0,0,0,0,0,0,0,-1,1742,1667,7.4057,-0.922598
525,-643,0,0,0,0,0,0,0,0,0,-1,1749,1667,0,0
532,-643,0,0,0,0,0,0,0,0,0,-1,1756,1667,0,0
539,-643,0,0,0,0,0,0,0,0,0,-1,1763,1667,0,0
546,-643,0,0,0,0,0,0,0,0,0,-1,1770,1667,0,0
553,-643,0,0,0,0,0,0,0,0,0,-1,1777,1667,0,0
560,-643,0,0,0,0,0,0,0,0,0,-1,1784,1667,0,0
567,-643,0,0,0,0,0,0,0,0,0,-1,1791,1667,0,0
574,-643,0,0,0,0,0,0,0,0,0,-1,1798,1667,0,0
581,-643,0,0,0,0,0,0,0,0,0,-1,1805,1667,0,0
588,-643,0,0,0,0,0,0,0,0,0,-1,1812,1667,0,0
595,-643,0,0,0,0,0,0,0,0,0,-1,1819,1667,0,0
602,-643,0,0,0,0,0,0,0,0,0,-1,1826,1667,0,0
609,-643,0,0,0,0,0,0,0,0,0,-1,1833,1667,0,0
616,-643,0,0,0,0,0,0,0,0,0,-1,1840,1667,0,0
623,-643,0,0,0,0,0,0,0,0,0,-1,1847,1667,0,0
630,-643,0,0,0,0,0,0,0,0,0,-1,1854,1667,0,0
637,-643,0,0,0,0,0,0,0,0,0,-1,1861,1667,0,0
644,-643,0,0,0,0,0,0,0,0,0,-1,1868,1667,0,0
651,-643,0,0,0,0,0,0,0,0,0,-1,1875,1667,0,0
658,-643,0,0,0,0,0,0,0,0,0,-1,1882,1667,0,0
665,-643,0,0,0,0,0,0,0,0,0,-1,1889,1667,0,0
672,-643,0,0,0,0,0,0,0,0,0,-1,1896,1667,0,0
679,-643,0,0,0,0,0,0,0,0,0,-1,1903,1667,0,0
686,-643,0,0,0,0,0,0,0,0,0,-1,1910,1667,0,0
693,-643,0,0,0,0,0,0,0,0,0,-1,1917,1667,0,0
700,-643,0,0,0,0,0,0,0,0,0,-1,1924,1667,0,0
707,-643,0,0,0,0,0,0,0,0,0,-1,1931,1667,0,0
714,-643,0,0,0,0,0,0,0,0,0,-1,1938,1667,0,0
721,-643,0,0,0,0,0,0,0,0,0,-1,1945,1667,0,0
728,-643,0,0,0,0,0,0,0,0,0,-1,1952,1667,0,0
735,-643,0,0,0,0,0,0,0,0,0,-1,1959,1667,0,0
742,-643,0,0,0,0,0,0,0,0,0,-1,1966,1667,0,0
749,-643,0,0,0,0,0,0,0,0,0,-1,1973,1667,0,0
756,-643,0,0,0,0,0,0,0,0,0,-1,1980,1667,0,0
763,-643,0,0,0,0,0,0,0,0,0,-1,1987,1667,0,0
770,-643,0,0,0,0,0,0,0,0,0,-1,1994,1667,0,0
777,-643,0,0,0,0,0,0,0,0,0,-1,2001,1667,0,0
784,-643,0,0,0,0,0,0,0,0,0,-1,2008,1667,0,0
791,-643,0,0,0,0,0,0,0,0,0,-1,2015,1667,0,0
798,-643,0,0,0,0,0,0,0,0,0,-1,2022,1667,0,0
805,-643,0,0,0,0,0,0,0,0,0,-1,2029,1667,0,0
812,-643,0,0,0,0,0,0,0,0,0,-1,2036,1667,0,0
-700,-650,0,0,0,0,0,0,0,0,0,-1,524,1674,0,0
-693,-650,0,0,0,0,0,0,0,0,0,-1,531,1674,0,0
-686,-650,0,0,0,0,0,0,0,0,0,-1,538,1674,0,0
-679,-650,0,0,0,0,0,0,0,0,0,-1,545,1674,0,0
-672,-650,0,0,0,0,0,0,0,0,0,-1,552,1674,0,0
-665,-650,0,0,0,0,0,0,0,0,0,-1,559,1674,0,0
-658,-650,0,0,0,0,0,0,0,0,0,-1,566,1674,0,0
-651,-650,0,0,0,0,0,0,0,0,0,-1,573,1674,0,0
-644,-650,0,0,0,0,0,0,0,0,0,-1,580,1674,0,0
-637,-650,0,0,0,0,0,0,0,0,0,-1,587,1674,0,0
-630,-650,0,0,0,0,0,0,0,0,0,-1,594,1674,0,0
-623,-650,0,0,0,0,0,0,0,0,0,-1,601,1674,0,0
-616,-650,0,0,0,0,0,0,0,0,0,-1,608,1674,0,0
-609,-650,0,0,0,0,0,0,0,0,0,-1,615,1674,0,0
-602,-650,0,0,0,0,0,0,0,0,0,-1,622,1674,0,0
-595,-650,0,0,0,0,0,0,0,0,0,-1,629,1674,0,0
-588,-650,0,0,0,0,0,0,0,0,0,-1,636,1674,0,0
-581,-650,0,0,0,0,0,0,0,0,0,-1,643,1674,0,0
-574,-650,0,0,0,0,0,0,0,0,0,-1,650,1674,0,0
-567,-650,0,0,0,0,0,0,0,0,0,-1,657,1674,0,0
-560,-650,0,0,0,0,0,0,0,0,0,-1,664,1674,0,0
-553,-650,0,0,0,0,0,0,0,0,0,-1,671,1674,0,0
-546,-650,0,0,0,0,0,0,0,0,0,-1,678,1674,0,0
-539,-650,0,0,0,0,0,0,0,0,0,-1,685,1674,0,0
-532,-650,0,0,0,0,0,0,0,0,0,-1,692,1674,0,0
-525,-650,0,0,0,0,0,0,0,0,0,-1,699,1674,0,0
-518,-650,0,0,0,0,0,0,0,0,0,-1,706,1674,0,0
-511,-650,0,0,0,0,0,0,0,0,0,-1,713,1674,0,0
-504,-650,0,0,0,0,0,0,0,0,0,-1,720,1674,0,0
-497,-650,0,0,0,0,0,0,0,0,0,-1,727,1674,0,0
-490,-650,0,0,0,0,0,0,0,0,0,-1,734,1674,0,0
-483,-650,0,0,0,0,0,0,0,0,0,-1,741,1674,0,0
-476,-650,0,0,0,0,0,0,0,0,0,-1,748,1674,0,0
-469,-650,0,0,0,0,0,0,0,0,0,-1,755,1674,0,0
-462,-650,0,0,0,0,0,0,0,0,0,-1,762,1674,0,0
-455,-650,0,0,0,0,0,0,0,0,0,-1,769,1674,0,0
-448,-650,0,0,0,0,0,0,0,0,0,-1,776,1674,0,0
-441,-650,0,0,0,0,0,0,0,0,0,-1,783,1674,0,0
-434,-650,0,0,0,0,0,0,0,0,0,-1,790,1674,0,0
-427,-650,0,0,0,0,0,0,0,0,0,-1,797,1674,0,0
-420,-650,0,0,0,0,0,0,0,0,0,-1,804,1674,0,0
-413,-650,0,0,0,0,0,0,0,0,0,-1,811,1674,0,0
-406,-650,0,0,0,0,0,0,0,0,0,-1,818,1674,0,0
-399,-650,0,0,0,0,0,0,0,0,0,-1,825,1674,0,0
-392,-650,5.44415,6.85669,0,0,0,0,0,0,0,-1,832,1674,5.44414,-6.85674
-385,-650,1.74451,14.0183,0,0,0,0,0,0,0,-1,839,1674,1.74453,-14.0183
-378,-650,0.997986,4.11108,0,0,0,0,0,0,0,-1,846,1674,0.998006,-4.11113
-371,-650,-1.80096,3.78625,0,0,0,0,0,0,0,-1,853,1674,-1.80094,-3.78625
-364,-650,-2.95679,2.57507,0,0,0,0,0,0,0,-1,860,1674,-2.95681,-2.57506
-357,-650,5.76074,34.531,0,0,0,0,0,0,0,-1,867,1674,5.76077,-34.531
-350,-650,5.11011,35.4972,0,0,0,0,0,0,0,-1,874,1674,5.1101,-35.4971
-343,-650,5.20538,37.4165,0,0,0,0,0,0,0,-1,881,1674,5.20538,-37.4166
-336,-650,4.75696,38.2585,0,0,0,0,0,0,0,-1,888,1674,4.75693,-38.2585
-329,-650,4.97559,37.9623,0,0,0,0,0,0,0,-1,895,1674,4.97556,-37.9623
-322,-650,4.97443,38.7744,-0.00434754,0.0075349,0.0104049,0.0135753,-0.010388,1.04481,0.0138759,0.0478106,902,1674,4.9744,-38.7744
-315,-650,4.90796,39.4443,-0.00574918,0.00624713,0.00754316,0.00988625,-0.0093883,1.12129,0.0111294,0.0434966,909,1674,4.90793,-39.4444
-308,-650,4.89679,40.2026,-0.00666616,0.00522168,0.00514169,0.00713696,-0.00858145,1.21422,0.00908779,0.0254023,916,1674,4.89678,-40.2027
-301,-650,4.87811,40.9069,-0.00716066,0.00417094,0.00323936,0.00503161,-0.00802133,1.31111,0.00760172,0.0130494,923,1674,4.87809,-40.9069
-294,-650,4.82593,41.5199,-0.00713427,0.00324442,0.00186136,0.00356814,-0.00745799,1.3986,0.00649665,0.0109689,930,1674,4.82595,-41.5199
-287,-650,4.77039,42.1425,-0.0067573,0.0027688,0.00100869,0.00287444,-0.00686294,1.46645,0.00577694,0.0148198,937,1674,4.77039,-42.1424
-280,-650,4.73206,42.7361,-0.00614413,0.00249929,0.000521079,0.00253059,-0.00617543,1.5108,0.00517117,0.0157507,944,1674,4.73207,-42.736
-273,-650,4.70056,43.3894,-0.00520319,0.00237837,0.000344951,0.00239403,-0.00521885,1.52542,0.00449503,0.0145107,951,1674,4.70059,-43.3894
-266,-650,4.65802,43.9858,-0.00413444,0.00196611,6.53187e-05,0.00196681,-0.00413514,1.56009,0.00359634,0.0123484,958,1674,4.65805,-43.9858
-259,-650,4.64856,44.5503,-0.00287058,0.00216197,0.000101562,0.00216402,-0.00287263,1.55063,0.00291749,0.0153286,965,1674,4.64856,-44.5503
-252,-650,4.63507,45.1652,-0.00150566,0.0024316,0.000509661,0.0024965,-0.00157056,1.44413,0.00236832,0.013868,972,1674,4.63508,-45.1651
-245,-650,4.60303,45.752,-0.00016952,0.00255284,0.000991216,0.0028755,-0.000492181,1.25609,0.00210037,0.0117788,979,1674,4.60305,-45.7519
-238,-650,4.5896,46.3201,0.00109944,0.00235535,0.00144496,0.00330291,0.000151886,0.990377,0.0021531,0.0131909,986,1674,4.58962,-46.3201
-231,-650,4.54938,46.8909,0.00212181,0.00216786,0.00195906,0.00410403,0.000185645,0.791274,0.00267628,0.0182799,993,1674,4.54936,-46.8909
-224,-650,4.55243,47.4323,0.00285132,0.00210618,0.00255115,0.00505697,-9.94646e-05,0.712891,0.00340495,0.015252,1000,1674,4.55242,-47.4323
-217,-650,4.56366,47.9507,0.00314603,0.00172874,0.00283707,0.00536162,-0.000486845,0.663012,0.00374725,0.0105545,1007,1674,4.56368,-47.9507
-210,-650,4.56793,48.4836,0.0035821,0.0016381,0.00321005,0.00596408,-0.000743887,0.638387,0.0042458,0.0105328,1014,1674,4.56792,-48.4837
-203,-650,4.60303,49.02,0.00410086,0.00147065,0.00371901,0.00673044,-0.00115893,0.615451,0.00491899,0.0157068,1021,1674,4.60305,-49.0201
-196,-650,4.59021,49.5403,0.00447637,0.0015134,0.00432896,0.00757033,-0.00158056,0.620532,0.00564794,0.0140982,1028,1674,4.59026,-49.5402
-189,-650,4.57141,50.0706,0.00466685,0.00176997,0.00477308,0.00820642,-0.0017696,0.638084,0.00614632,0.0118821,1035,1674,4.57137,-50.0706
-182,-650,4.64929,50.6488,0.00484026,0.00260112,0.00513651,0.0089778,-0.00153641,0.678095,0.00655761,0.0123179,1042,1674,4.64929,-50.6489
-175,-650,4.64099,51.0806,0.00516397,0.00382028,0.00556278,0.0100953,-0.00111108,0.725301,0.00712949,0.0202595,1049,1674,4.64097,-51.0806
-168,-650,4.59509,51.5562,0.00548532,0.00572997,0.00594394,0.0115528,-0.000337554,0.795687,0.00781684,0.0258769,1056,1674,4.59504,-51.5561
-161,-650,4.54297,52.0272,0.00593748,0.00810116,0.00615856,0.0132722,0.000766454,0.872343,0.00860402,0.0332211,1063,1674,4.54299,-52.0272
-154,-650,4.7644,52.4604,0.00656352,0.0109742,0.00636542,0.0155055,0.00203225,0.952156,0.00973058,0.0331062,1070,1674,4.76446,-52.4605
-147,-650,4.97449,53.1399,0.00719891,0.0143982,0.0065431,0.0182664,0.00333065,1.03687,0.0112332,0.0420985,1077,1674,4.97455,-53.1399
-140,-650,4.56641,54.1779,0,0,0,0,0,0,0,-1,1084,1674,4.56639,-54.1778
-133,-650,4.14575,54.6398,0,0,0,0,0,0,0,-1,1091,1674,4.14575,-54.6398
-126,-650,3.95898,53.8031,0,0,0,0,0,0,0,-1,1098,1674,3.95901,-53.8031
-119,-650,5.16663,20.6232,0,0,0,0,0,0,0,-1,1105,1674,5.16665,-20.6232
-112,-650,3.86292,14.4513,0,0,0,0,0,0,0,-1,1112,1674,3.8629,-14.4513
-105,-650,7.92102,38.1313,0,0,0,0,0,0,0,-1,1119,1674,7.92104,-38.1314
-98,-650,3.3761,6.78003,0,0,0,0,0,0,0,-1,1126,1674,3.37611,-6.78009
-91,-650,3.66809,7.04443,0,0,0,0,0,0,0,-1,1133,1674,3.66806,-7.04439
-84,-650,-3.82666,-1.59521,0,0,0,0,0,0,0,-1,1140,1674,-3.82661,1.59517
-77,-650,-4.70557,1.90198,0,0,0,0,0,0,0,-1,1147,1674,-4.7056,-1.90194
-70,-650,-4.88171,3.81653,0,0,0,0,0,0,0,-1,1154,1674,-4.88176,-3.81651
-63,-650,-5.14612,5.56543,0,0,0,0,0,0,0,-1,1161,1674,-5.14612,-5.56547
-56,-650,-5.38367,7.41101,0,0,0,0,0,0,0,-1,1168,1674,-5.38361,-7.41102
-49,-650,-5.11316,8.23706,0,0,0,0,0,0,0,-1,1175,1674,-5.11317,-8.23708
-42,-650,-4.99487,9.6792,0,0,0,0,0,0,0,-1,1182,1674,-4.99484,-9.67921
-35,-650,-4.77771,11.3369,0,0,0,0,0,0,0,-1,1189,1674,-4.77769,-11.3369
-28,-650,-4.1936,13.1501,0,0,0,0,0,0,0,-1,1196,1674,-4.19358,-13.1501
-21,-650,7.52466,48.5822,0,0,0,0,0,0,0,-1,1203,1674,7.52469,-48.5821
-14,-650,7.34265,59.3594,0,0,0,0,0,0,0,-1,1210,1674,7.34261,-59.3594
-7,-650,7.92871,76.0808,0,0,0,0,0,0,0,-1,1217,1674,7.92876,-76.0809
0,-650,8.24731,74.4556,0.0707244,-0.078774,-0.127567,0.143829,-0.151878,-0.520381,0.170748,0.0422978,1224,1674,8.24731,-74.4556
7,-650,8.40332,72.7972,0.0645427,-0.0721343,-0.131083,0.144032,-0.151623,-0.545112,0.170715,0.0450765,1231,1674,8.40338,-72.7973
14,-650,8.43555,71.1471,0,0,0,0,0,0,0,-1,1238,1674,8.43554,-71.147
21,-650,8.09521,68.9169,0,0,0,0,0,0,0,-1,1245,1674,8.09527,-68.9169
28,-650,7.43433,67.093,0,0,0,0,0,0,0,-1,1252,1674,7.43433,-67.093
35,-650,9.86157,66.0466,0,0,0,0,0,0,0,-1,1259,1674,9.86158,-66.0467
42,-650,9.56274,64.6498,0.0189005,-0.0372798,-0.111,0.105309,-0.123689,-0.661468,0.132354,0.0420896,1266,1674,9.56275,-64.6498
49,-650,10.4741,62.0814,0.0101626,-0.0328336,-0.100663,0.0915971,-0.114268,-0.680196,0.119096,0.0477945,1273,1674,10.4741,-62.0815
56,-650,9.8783,60.9207,0.00175467,-0.028537,-0.0898661,0.0777423,-0.104525,-0.701914,0.10561,0.0455973,1280,1674,9.87824,-60.9207
63,-650,9.65723,59.4111,-0.0064607,-0.02479,-0.0789675,0.0638722,-0.0951229,-0.727629,0.092385,0.0454665,1287,1674,9.65722,-59.4112
70,-650,10.5302,60.0665,0,0,0,0,0,0,0,-1,1294,1674,10.5301,-60.0665
77,-650,10.3088,59.3668,-0.0222245,-0.0205156,-0.0589761,0.0376123,-0.0803524,-0.792641,0.069581,0.0477255,1301,1674,10.3089,-59.3669
84,-650,10.0228,58.7861,-0.0304583,-0.01995,-0.0521263,0.0271863,-0.0775946,-0.835627,0.0627854,0.0465064,1308,1674,10.0229,-58.7861
91,-650,9.05176,58.0594,0,0,0,0,0,0,0,-1,1315,1674,9.05173,-58.0594
98,-650,8.5459,57.8259,-0.0490199,-0.0169838,-0.0383323,0.0085426,-0.0745463,-0.983308,0.0527761,0.0477379,1322,1674,8.54591,-57.8259
105,-650,8.05701,57.3655,-0.0568616,-0.0148871,-0.0343319,0.00436426,-0.076113,-1.05974,0.0522575,0.0458843,1329,1674,8.05698,-57.3655
112,-650,7.55298,56.7261,-0.0652525,-0.0111873,-0.0318962,0.00359072,-0.0800306,-1.13692,0.05459,0.0439442,1336,1674,7.55302,-56.7261
119,-650,7.06091,56.4659,-0.0751841,-0.00657791,-0.0297688,0.00453799,-0.0863,-1.21342,0.0591041,0.0424307,1343,1674,7.06087,-56.466
126,-650,6.59521,56.085,-0.0848615,0.000274796,-0.0252997,0.00722554,-0.0918122,-1.30267,0.0637533,0.0475375,1350,1674,6.59527,-56.0849
133,-650,6.25452,55.7526,0,0,0,0,0,0,0,-1,1357,1674,6.25451,-55.7526
140,-650,4.25818,54.8209,-0.106776,0.0167396,-0.0100003,0.017544,-0.10758,-1.49053,0.0782265,0.0477484,1364,1674,4.25813,-54.8209
147,-650,2.69629,55.9658,-0.113667,0.0210448,-0.00115215,0.0210546,-0.113677,-1.56224,0.0836902,0.0475481,1371,1674,2.69627,-55.9658
154,-650,2.65295,56.1021,0,0,0,0,0,0,0,-1,1378,1674,2.653,-56.1021
161,-650,4.09106,30.3021,0,0,0,0,0,0,0,-1,1385,1674,4.09104,-30.3021
168,-650,11.2113,7.87231,0,0,0,0,0,0,0,-1,1392,1674,11.2113,-7.87236
175,-650,5.62537,-0.230713,0,0,0,0,0,0,0,-1,1399,1674,5.62538,0.230745
182,-650,5.56006,0.421631,0,0,0,0,0,0,0,-1,1406,1674,5.56,-0.421652
189,-650,4.81543,11.0654,0,0,0,0,0,0,0,-1,1413,1674,4.81542,-11.0654
196,-650,5.39575,11.9077,0,0,0,0,0,0,0,-1,1420,1674,5.39575,-11.9078
203,-650,3.93628,11.8215,0,0,0,0,0,0,0,-1,1427,1674,3.93624,-11.8216
210,-650,5.40955,8.08594,0,0,0,0,0,0,0,-1,1434,1674,5.40958,-8.086
217,-650,5.12451,4.69739,0,0,0,0,0,0,0,-1,1441,1674,5.12451,-4.69738
224,-650,4.79041,1.45813,0,0,0,0,0,0,0,-1,1448,1674,4.79046,-1.45816
231,-650,4.04102,-0.642212,0,0,0,0,0,0,0,-1,1455,1674,4.04101,0.642209
238,-650,3.23022,-1.43396,0,0,0,0,0,0,0,-1,1462,1674,3.23023,1.43394
245,-650,1.65894,-2.55042,0,0,0,0,0,0,0,-1,1469,1674,1.65889,2.55036
252,-650,8.75342,0.355103,0,0,0,0,0,0,0,-1,1476,1674,8.75337,-0.355147
259,-650,5.61255,3.17566,0,0,0,0,0,0,0,-1,1483,1674,5.61257,-3.17572
266,-650,4.00403,6.10229,0,0,0,0,0,0,0,-1,1490,1674,4.00401,-6.10225
273,-650,11.9524,42.7109,0,0,0,0,0,0,0,-1,1497,1674,11.9524,-42.7109
280,-650,12.3011,46.7283,0,0,0,0,0,0,0,-1,1504,1674,12.3011,-46.7283
287,-650,13.0229,52.0635,0,0,0,0,0,0,0,-1,1511,1674,13.023,-52.0635
294,-650,13.2389,51.7582,0.0116927,0.0220692,-0.00759284,0.0260771,0.00768477,-1.08512,0.0154729,0.0417593,1518,1674,13.2389,-51.7582
301,-650,13.2775,51.111,0.0107459,0.0200783,-0.00685049,0.0237008,0.00712336,-1.08438,0.0140418,0.0324228,1525,1674,13.2775,-51.111
308,-650,13.3898,50.6417,0.0095745,0.0182493,-0.00617578,0.0214587,0.00636517,-1.09154,0.0127262,0.0207911,1532,1674,13.3898,-50.6417
315,-650,13.446,50.1462,0.00848261,0.016335,-0.00560659,0.0192534,0.00556418,-1.09086,0.0114411,0.0122707,1539,1674,13.4461,-50.1463
322,-650,13.4265,49.639,0.00770994,0.0148066,-0.00542616,0.0177417,0.00477493,-1.07497,0.0106009,0.0111094,1546,1674,13.4265,-49.639
329,-650,13.4315,49.1003,0.00711196,0.0130912,-0.00521091,0.0161092,0.00409398,-1.04584,0.0096682,0.0164453,1553,1674,13.4315,-49.1004
336,-650,13.4421,48.616,0.00651038,0.011582,-0.0048789,0.0145447,0.00354764,-1.02506,0.00875685,0.0158396,1560,1674,13.4422,-48.616
343,-650,13.4659,48.0879,0.00574826,0.0102766,-0.00457985,0.0131214,0.00290348,-1.01497,0.00795834,0.0148525,1567,1674,13.4659,-48.0879
350,-650,13.4424,47.5471,0.00509415,0.00899179,-0.00433997,0.0118004,0.00228552,-0.996425,0.00722659,0.0158922,1574,1674,13.4423,-47.5471
357,-650,13.4185,47.0118,0.00452175,0.00741311,-0.00403096,0.0102498,0.00168507,-0.957576,0.00634651,0.0130424,1581,1674,13.4184,-47.0119
364,-650,13.4205,46.4644,0.00404654,0.0066063,-0.00387402,0.00940638,0.00124646,-0.944941,0.00589949,0.00955096,1588,1674,13.4205,-46.4643
371,-650,13.4122,45.9056,0.00362869,0.00583279,-0.00376589,0.00865457,0.000806914,-0.927743,0.00552043,0.0117733,1595,1674,13.4123,-45.9057
378,-650,13.3879,45.3608,0.00322789,0.00511693,-0.00362577,0.00791918,0.000425634,-0.912818,0.00514345,0.0132709,1602,1674,13.388,-45.3608
385,-650,13.4003,44.8048,0.00289454,0.00454137,-0.00346206,0.00727659,0.000159325,-0.902149,0.00479883,0.0142178,1609,1674,13.4003,-44.8047
392,-650,13.375,44.2416,0.00258536,0.00406699,-0.0034702,0.00687457,-0.000222224,-0.890559,0.00465889,0.0169059,1616,1674,13.375,-44.2415
399,-650,13.3306,43.6736,0.002127,0.00366585,-0.00340357,0.00638588,-0.000593034,-0.896562,0.00446807,0.0156434,1623,1674,13.3305,-43.6736
406,-650,13.3081,43.0636,0.00181334,0.00360408,-0.00346876,0.00629117,-0.000873749,-0.911703,0.00451364,0.0158391,1630,1674,13.3081,-43.0636
413,-650,13.2977,42.4595,0.00165538,0.00379058,-0.00367167,0.00654671,-0.00110075,-0.92688,0.00477388,0.0165566,1637,1674,13.2978,-42.4594
420,-650,13.2402,41.9213,0.0015827,0.00421422,-0.00400977,0.00711859,-0.00132166,-0.943932,0.00524211,0.0161815,1644,1674,13.2402,-41.9213
427,-650,13.2269,41.3429,0.00167097,0.00496235,-0.00456568,0.00816988,-0.00153656,-0.958374,0.00602444,0.0142461,1651,1674,13.227,-41.3429
434,-650,13.1965,40.7506,0.0020034,0.00598487,-0.00528927,0.00964563,-0.00165736,-0.965385,0.00704813,0.0192991,1658,1674,13.1966,-40.7507
441,-650,13.2081,40.0811,0.00245154,0.00728956,-0.00611364,0.0114454,-0.00170426,-0.973784,0.00825717,0.033988,1665,1674,13.2082,-40.0811
448,-650,13.0795,39.3917,0.00292532,0.00868276,-0.00702673,0.0133976,-0.00178951,-0.97981,0.00958408,0.0441215,1672,1674,13.0794,-39.3917
455,-650,13.025,38.7246,0.00353077,0.00999165,-0.0078919,0.0152887,-0.00176626,-0.979663,0.0108293,0.0471171,1679,1674,13.0251,-38.7246
462,-650,12.9249,38.0657,0,0,0,0,0,0,0,-1,1686,1674,12.925,-38.0657
469,-650,11.3628,29.8889,0,0,0,0,0,0,0,-1,1693,1674,11.3628,-29.8889
476,-650,10.9189,27.1289,0,0,0,0,0,0,0,-1,1700,1674,10.919,-27.1289
483,-650,10.2426,24.5127,0,0,0,0,0,0,0,-1,1707,1674,10.2425,-24.5127
490,-650,10.4818,24.3475,0,0,0,0,0,0,0,-1,1714,1674,10.4818,-24.3475
497,-650,10.4985,20.1362,0,0,0,0,0,0,0,-1,1721,1674,10.4986,-20.1362
504,-650,9.69458,18.7721,0,0,0,0,0,0,0,-1,1728,1674,9.6946,-18.772
511,-650,9.37158,17.7506,0,0,0,0,0,0,0,-1,1735,1674,9.37159,-17.7506
518,-650,0,0,0,0,0,0,0,0,0,-1,1742,1674,0,0
525,-650,0,0,0,0,0,0,0,0,0,-1,1749,1674,0,0
532,-650,0,0,0,0,0,0,0,0,0,-1,1756,1674,0,0
539,-650,0,0,0,0,0,0,0,0,0,-1,1763,1674,0,0
546,-650,0,0,0,0,0,0,0,0,0,-1,1770,1674,0,0
553,-650,0,0,0,0,0,0,0,0,0,-1,1777,1674,0,0
560,-650,0,0,0,0,0,0,0,0,0,-1,1784,1674,0,0
567,-650,0,0,0,0,0,0,0,0,0,-1,1791,1674,0,0
574,-650,0,0,0,0,0,0,0,0,0,-1,1798,1674,0,0
581,-650,0,0,0,0,0,0,0,0,0,-1,1805,1674,0,0
588,-650,0,0,0,0,0,0,0,0,0,-1,1812,1674,0,0
595,-650,0,0,0,0,0,0,0,0,0,-1,1819,1674,0,0
602,-650,0,0,0,0,0,0,0,0,0,-1,1826,1674,0,0
609,-650,0,0,0,0,0,0,0,0,0,-1,1833,1674,0,0
616,-650,0,0,0,0,0,0,0,0,0,-1,1840,1674,0,0
623,-650,0,0,0,0,0,0,0,0,0,-1,1847,1674,0,0
630,-650,0,0,0,0,0,0,0,0,0,-1,1854,1674,0,0
637,-650,0,0,0,0,0,0,0,0,0,-1,1861,1674,0,0
644,-650,0,0,0,0,0,0,0,0,0,-1,1868,1674,0,0
651,-650,0,0,0,0,0,0,0,0,0,-1,1875,1674,0,0
658,-650,0,0,0,0,0,0,0,0,0,-1,1882,1674,0,0
665,-650,0,0,0,0,0,0,0,0,0,-1,1889,1674,0,0
672,-650,0,0,0,0,0,0,0,0,0,-1,1896,1674,0,0
679,-650,0,0,0,0,0,0,0,0,0,-1,1903,1674,0,0
686,-650,0,0,0,0,0,0,0,0,0,-1,1910,1674,0,0
693,-650,0,0,0,0,0,0,0,0,0,-1,1917,1674,0,0
700,-650,0,0,0,0,0,0,0,0,0,-1,1924,1674,0,0
707,-650,0,0,0,0,0,0,0,0,0,-1,1931,1674,0,0
714,-650,0,0,0,0,0,0,0,0,0,-1,1938,1674,0,0
721,-650,0,0,0,0,0,0,0,0,0,-1,1945,1674,0,0
728,-650,0,0,0,0,0,0,0,0,0,-1,1952,1674,0,0
735,-650,0,0,0,0,0,0,0,0,0,-1,1959,1674,0,0
742,-650,0,0,0,0,0,0,0,0,0,-1,1966,1674,0,0
749,-650,0,0,0,0,0,0,0,0,0,-1,1973,1674,0,0
756,-650,0,0,0,0,0,0,0,0,0,-1,1980,1674,0,0
763,-650,0,0,0,0,0,0,0,0,0,-1,1987,1674,0,0
770,-650,0,0,0,0,0,0,0,0,0,-1,1994,1674,0,0
777,-650,0,0,0,0,0,0,0,0,0,-1,2001,1674,0,0
784,-650,0,0,0,0,0,0,0,0,0,-1,2008,1674,0,0
791,-650,0,0,0,0,0,0,0,0,0,-1,2015,1674,0,0
798,-650,0,0,0,0,0,0,0,0,0,-1,2022,1674,0,0
805,-650,0,0,0,0,0,0,0,0,0,-1,2029,1674,0,0
812,-650,0,0,0,0,0,0,0,0,0,-1,2036,1674,0,0
-700,-657,0,0,0,0,0,0,0,0,0,-1,524,1681,0,0
-693,-657,0,0,0,0,0,0,0,0,0,-1,531,1681,0,0
-686,-657,0,0,0,0,0,0,0,0,0,-1,538,1681,0,0
-679,-657,0,0,0,0,0,0,0,0,0,-1,545,1681,0,0
-672,-657,0,0,0,0,0,0,0,0,0,-1,552,1681,0,0
-665,-657,0,0,0,0,0,0,0,0,0,-1,559,1681,0,0
-658,-657,0,0,0,0,0,0,0,0,0,-1,566,1681,0,0
-651,-657,0,0,0,0,0,0,0,0,0,-1,573,1681,0,0
-644,-657,0,0,0,0,0,0,0,0,0,-1,580,1681,0,0
-637,-657,0,0,0,0,0,0,0,0,0,-1,587,1681,0,0
-630,-657,0,0,0,0,0,0,0,0,0,-1,594,1681,0,0
-623,-657,0,0,0,0,0,0,0,0,0,-1,601,1681,0,0
-616,-657,0,0,0,0,0,0,0,0,0,-1,608,1681,0,0
-609,-657,0,0,0,0,0,0,0,0,0,-1,615,1681,0,0
-602,-657,0,0,0,0,0,0,0,0,0,-1,622,1681,0,0
-595,-657,0,0,0,0,0,0,0,0,0,-1,629,1681,0,0
-588,-657,0,0,0,0,0,0,0,0,0,-1,636,1681,0,0
-581,-657,0,0,0,0,0,0,0,0,0,-1,643,1681,0,0
-574,-657,0,0,0,0,0,0,0,0,0,-1,650,1681,0,0
-567,-657,0,0,0,0,0,0,0,0,0,-1,657,1681,0,0
-560,-657,0,0,0,0,0,0,0,0,0,-1,664,1681,0,0
-553,-657,0,0,0,0,0,0,0,0,0,-1,671,1681,0,0
-546,-657,0,0,0,0,0,0,0,0,0,-1,678,1681,0,0
-539,-657,0,0,0,0,0,0,0,0,0,-1,685,1681,0,0
-532,-657,0,0,0,0,0,0,0,0,0,-1,692,1681,0,0
-525,-657,0,0,0,0,0,0,0,0,0,-1,699,1681,0,0
-518,-657,0,0,0,0,0,0,0,0,0,-1,706,1681,0,0
-511,-657,0,0,0,0,0,0,0,0,0,-1,713,1681,0,0
-504,-657,0,0,0,0,0,0,0,0,0,-1,720,1681,0,0
-497,-657,0,0,0,0,0,0,0,0,0,-1,727,1681,0,0
-490,-657,0,0,0,0,0,0,0,0,0,-1,734,1681,0,0
-483,-657,0,0,0,0,0,0,0,0,0,-1,741,1681,0,0
-476,-657,0,0,0,0,0,0,0,0,0,-1,748,1681,0,0
-469,-657,0,0,0,0,0,0,0,0,0,-1,755,1681,0,0
-462,-657,0,0,0,0,0,0,0,0,0,-1,762,1681,0,0
-455,-657,0,0,0,0,0,0,0,0,0,-1,769,1681,0,0
-448,-657,0,0,0,0,0,0,0,0,0,-1,776,1681,0,0
-441,-657,0,0,0,0,0,0,0,0,0,-1,783,1681,0,0
-434,-657,0,0,0,0,0,0,0,0,0,-1,790,1681,0,0
-427,-657,0,0,0,0,0,0,0,0,0,-1,797,1681,0,0
-420,-657,0,0,0,0,0,0,0,0,0,-1,804,1681,0,0
-413,-657,0,0,0,0,0,0,0,0,0,-1,811,1681,0,0
-406,-657,0,0,0,0,0,0,0,0,0,-1,818,1681,0,0
-399,-657,0,0,0,0,0,0,0,0,0,-1,825,1681,0,0
-392,-657,0,0,0,0,0,0,0,0,0,-1,832,1681,0,0
-385,-657,1.09814,6.18896,0,0,0,0,0,0,0,-1,839,1681,1.09814,-6.18894
-378,-657,0.31488,4.46753,0,0,0,0,0,0,0,-1,846,1681,0.31487,-4.46755
-371,-657,-0.519043,2.69421,0,0,0,0,0,0,0,-1,853,1681,-0.519064,-2.69422
-364,-657,-3.42017,4.18323,0,0,0,0,0,0,0,-1,860,1681,-3.42019,-4.18319
-357,-657,5.03418,34.7598,0,0,0,0,0,0,0,-1,867,1681,5.03417,-34.7597
-350,-657,4.23431,35.8203,0,0,0,0,0,0,0,-1,874,1681,4.23429,-35.8203
-343,-657,3.60156,36.754,0,0,0,0,0,0,0,-1,881,1681,3.60154,-36.754
-336,-657,3.91907,37.433,0,0,0,0,0,0,0,-1,888,1681,3.91905,-37.433
-329,-657,5.55304,37.7054,0,0,0,0,0,0,0,-1,895,1681,5.55304,-37.7055
-322,-657,5.54218,38.5747,-0.00674746,0.0111261,0.0142765,0.0190323,-0.0146536,1.06505,0.0195033,0.0480771,902,1681,5.54217,-38.5747
-315,-657,5.55029,39.4403,-0.00897111,0.00905681,0.0100361,0.0135326,-0.0134469,1.1513,0.0155767,0.0469741,909,1681,5.55029,-39.4403
-308,-657,5.50415,40.2391,-0.0103822,0.00733894,0.00657314,0.00951087,-0.0125541,1.25167,0.0127795,0.040549,916,1681,5.50417,-40.2391
-301,-657,5.4566,40.9332,-0.0111486,0.00570718,0.00387259,0.00655433,-0.0119958,1.35543,0.0108624,0.0297537,923,1681,5.4566,-40.9333
-294,-657,5.40594,41.58,-0.0112004,0.00428386,0.0019374,0.00452258,-0.0114392,1.44819,0.00949955,0.0159282,930,1681,5.40593,-41.58
-287,-657,5.35034,42.1963,-0.0106995,0.00354038,0.00078232,0.00358323,-0.0107424,1.51608,0.00860827,0.0116823,937,1681,5.35031,-42.1963
-280,-657,5.29926,42.7751,-0.0098958,0.00304133,0.000138712,0.00304282,-0.00989729,1.56008,0.00781255,0.0147627,944,1681,5.29924,-42.7752
-273,-657,5.28644,43.3925,-0.00870292,0.00274584,-0.000103561,0.00274678,-0.00870386,-1.56175,0.0069028,0.0115451,951,1681,5.28645,-43.3925
-266,-657,5.24835,43.9729,-0.00739906,0.00207321,-0.000536275,0.00210347,-0.00742932,-1.51442,0.005783,0.0158353,958,1681,5.24833,-43.9729
-259,-657,5.23834,44.5553,-0.0058661,0.00213121,-0.000548779,0.00216869,-0.00590358,-1.5026,0.00482395,0.019089,965,1681,5.23834,-44.5553
-252,-657,5.20154,45.1403,-0.00421462,0.00227182,-6.70518e-05,0.00227251,-0.00421531,-1.56046,0.00380131,0.0131785,972,1681,5.20156,-45.1403
-245,-657,5.17511,45.7363,-0.00263114,0.00226644,0.000539695,0.00232521,-0.00268991,1.46233,0.00289803,0.0146916,979,1681,5.17512,-45.7364
-238,-657,5.1684,46.339,-0.00117954,0.00206201,0.000972255,0.00233126,-0.00144878,1.30063,0.00220215,0.0193597,986,1681,5.16841,-46.339
-231,-657,5.14508,46.9032,-1.23385e-05,0.00191286,0.00136984,0.00262449,-0.000723975,1.09167,0.00203439,0.0208272,993,1681,5.1451,-46.9032
-224,-657,5.10846,47.4502,0.00106293,0.00198942,0.00192998,0.00351098,-0.000458626,0.903183,0.00250755,0.0162098,1000,1681,5.10848,-47.4502
-217,-657,5.10773,48.0074,0.00156733,0.00151015,0.00202124,0.00356018,-0.000482699,0.778327,0.00254963,0.0102513,1007,1681,5.10772,-48.0075
-210,-657,5.11163,48.5323,0.00207874,0.00144559,0.00229328,0.0040772,-0.000552867,0.716809,0.00291992,0.0116562,1014,1681,5.11163,-48.5323
-203,-657,5.1217,49.0591,0.00264682,0.00128766,0.00264655,0.00469965,-0.000765167,0.659723,0.00341683,0.0144547,1021,1681,5.1217,-49.0591
-196,-657,5.09875,49.5845,0.00313709,0.0013504,0.00309137,0.00546161,-0.000974117,0.64474,0.00400546,0.0144646,1028,1681,5.09873,-49.5845
-189,-657,5.09302,50.1085,0.00348924,0.00165972,0.00339,0.00608574,-0.000936776,0.653617,0.00440276,0.0103118,1035,1681,5.09296,-50.1085
-182,-657,5.10938,50.6123,0.0038225,0.00238407,0.00357908,0.00675391,-0.000547344,0.686244,0.0046957,0.00863415,1042,1681,5.10936,-50.6123
-175,-657,5.11865,51.1036,0.00432693,0.00341174,0.00386224,0.00775859,-1.99159e-05,0.726433,0.00517904,0.0119171,1049,1681,5.11863,-51.1036
-168,-657,5.08447,51.6021,0.00478496,0.00502393,0.00414072,0.00904689,0.000762005,0.799822,0.00579398,0.015181,1056,1681,5.08443,-51.6021
-161,-657,5.11035,52.1058,0.00526528,0.00689189,0.0042879,0.0104429,0.00171424,0.879122,0.00646673,0.0154465,1063,1681,5.11037,-52.1058
-154,-657,5.19348,52.5317,0.00587517,0.00912006,0.00445951,0.0122431,0.00275214,0.959863,0.00741689,0.0158052,1070,1681,5.19347,-52.5317
-147,-657,5.19812,53.0128,0.00654348,0.011733,0.00462824,0.0144442,0.00383226,1.04088,0.00864016,0.0246952,1077,1681,5.1981,-53.0128
-140,-657,5.14185,53.7374,0.0071618,0.0143802,0.00476639,0.0167497,0.0047923,1.10945,0.009961,0.0356401,1084,1681,5.14184,-53.7374
-133,-657,4.90161,54.272,0.00766944,0.0174461,0.0047528,0.0193758,0.00573979,1.18513,0.0114921,0.0434008,1091,1681,4.90161,-54.272
-126,-657,4.78174,54.7672,0,0,0,0,0,0,0,-1,1098,1681,4.78171,-54.7672
-119,-657,5.64758,54.4952,0,0,0,0,0,0,0,-1,1105,1681,5.64753,-54.4952
-112,-657,6.24219,42.9092,0,0,0,0,0,0,0,-1,1112,1681,6.24217,-42.9092
-105,-657,7.37256,41.0361,0,0,0,0,0,0,0,-1,1119,1681,7.37254,-41.0362
-98,-657,8.14404,38.4435,0,0,0,0,0,0,0,-1,1126,1681,8.14405,-38.4435
-91,-657,3.6521,16.6017,0,0,0,0,0,0,0,-1,1133,1681,3.65215,-16.6017
-84,-657,4.08008,10.4579,0,0,0,0,0,0,0,-1,1140,1681,4.08006,-10.4579
-77,-657,-5.29846,0.396606,0,0,0,0,0,0,0,-1,1147,1681,-5.29842,-0.396573
-70,-657,-4.14893,2.14575,0,0,0,0,0,0,0,-1,1154,1681,-4.14893,-2.1458
-63,-657,-4.1239,3.177,0,0,0,0,0,0,0,-1,1161,1681,-4.12391,-3.17698
-56,-657,-6.40576,5.73987,0,0,0,0,0,0,0,-1,1168,1681,-6.40577,-5.7399
-49,-657,-5.98462,7.54053,0,0,0,0,0,0,0,-1,1175,1681,-5.98466,-7.5405
-42,-657,-5.71948,9.28955,0,0,0,0,0,0,0,-1,1182,1681,-5.71951,-9.2895
-35,-657,-5.44556,11.015,0,0,0,0,0,0,0,-1,1189,1681,-5.44555,-11.015
-28,-657,-1.3446,8.92847,0,0,0,0,0,0,0,-1,1196,1681,-1.34459,-8.92848
-21,-657,7.01123,59.7748,0,0,0,0,0,0,0,-1,1203,1681,7.01125,-59.7748
-14,-657,8.29407,78.9147,0,0,0,0,0,0,0,-1,1210,1681,8.29409,-78.9147
-7,-657,8.58398,77.1356,0,0,0,0,0,0,0,-1,1217,1681,8.58402,-77.1357
0,-657,8.95337,75.3828,0.0573112,-0.0638925,-0.109875,0.122189,-0.12877,-0.533381,0.144908,0.0454783,1224,1681,8.95337,-75.3829
7,-657,9.26978,73.5486,0.0516995,-0.0587892,-0.112846,0.122098,-0.129188,-0.55777,0.1451,0.0466155,1231,1681,9.26976,-73.5486
14,-657,9.58557,71.6959,0.0439452,-0.0526512,-0.113891,0.119356,-0.128062,-0.584855,0.142876,0.0420902,1238,1681,9.58558,-71.6959
21,-657,9.79749,69.8958,0.0353858,-0.0468642,-0.112938,0.114454,-0.125932,-0.610792,0.13884,0.042917,1245,1681,9.79746,-69.8958
28,-657,10.0604,68.1343,0,0,0,0,0,0,0,-1,1252,1681,10.0605,-68.1342
35,-657,13.0597,64.316,0,0,0,0,0,0,0,-1,1259,1681,13.0597,-64.316
42,-657,12.3076,63.3129,0.00808773,-0.0319341,-0.0983343,0.0884266,-0.112273,-0.685019,0.116146,0.0442752,1266,1681,12.3076,-63.3129
49,-657,11.5579,62.2451,-0.000108596,-0.0289352,-0.0901801,0.0768027,-0.105847,-0.706154,0.105896,0.046224,1273,1681,11.5579,-62.2452
56,-657,10.8484,61.2004,-0.0079126,-0.0261799,-0.0812748,0.0647402,-0.0988327,-0.729443,0.0951201,0.0448071,1280,1681,10.8484,-61.2004
63,-657,10.2866,60.1376,-0.01506,-0.0238393,-0.0721414,0.0528252,-0.0917245,-0.755011,0.0844571,0.0486692,1287,1681,10.2866,-60.1376
70,-657,10.5417,60.1948,0,0,0,0,0,0,0,-1,1294,1681,10.5418,-60.1948
77,-657,10.1351,59.6265,-0.0272113,-0.0212498,-0.054194,0.0300454,-0.0785065,-0.812871,0.0647208,0.0493138,1301,1681,10.1351,-59.6264
84,-657,9.7262,59.0352,-0.0326597,-0.0210804,-0.0478831,0.0213618,-0.0751019,-0.845562,0.0585033,0.0469322,1308,1681,9.72624,-59.0352
91,-657,9.32361,58.4504,-0.0391535,-0.0193007,-0.0414069,0.013353,-0.0718072,-0.903042,0.0528874,0.0461397,1315,1681,9.32365,-58.4505
98,-657,8.73828,57.8903,-0.0458409,-0.018345,-0.0353166,0.00580512,-0.0699911,-0.971012,0.0487112,0.0450804,1322,1681,8.7383,-57.8903
105,-657,8.28918,57.4683,-0.0512479,-0.0160032,-0.0317105,0.0026526,-0.0699037,-1.03901,0.0475114,0.0439091,1329,1681,8.28915,-57.4682
112,-657,7.89185,57.0964,-0.0572213,-0.0120578,-0.0293169,0.00236604,-0.0716452,-1.11357,0.0485714,0.0427726,1336,1681,7.89189,-57.0965
119,-657,7.42957,56.7474,-0.0645858,-0.00740489,-0.0270814,0.00338507,-0.0753758,-1.19165,0.0514161,0.0475839,1343,1681,7.4296,-56.7474
126,-657,7.02063,56.4133,0,0,0,0,0,0,0,-1,1350,1681,7.02067,-56.4133
133,-657,10.1287,54.5275,0,0,0,0,0,0,0,-1,1357,1681,10.1286,-54.5274
140,-657,4.65515,54.2123,0,0,0,0,0,0,0,-1,1364,1681,4.65518,-54.2123
147,-657,3.41919,55.5332,0,0,0,0,0,0,0,-1,1371,1681,3.41923,-55.5332
154,-657,3.48572,55.238,0,0,0,0,0,0,0,-1,1378,1681,3.48571,-55.2381
161,-657,4.2926,24.9226,0,0,0,0,0,0,0,-1,1385,1681,4.29264,-24.9226
168,-657,5.21643,0.70105,0,0,0,0,0,0,0,-1,1392,1681,5.21648,-0.7011
175,-657,5.52771,0.649048,0,0,0,0,0,0,0,-1,1399,1681,5.52774,-0.649019
182,-657,5.73999,1.02612,0,0,0,0,0,0,0,-1,1406,1681,5.73995,-1.02611
189,-657,5.92126,1.44116,0,0,0,0,0,0,0,-1,1413,1681,5.92126,-1.44115
196,-657,4.92834,9.59021,0,0,0,0,0,0,0,-1,1420,1681,4.9284,-9.59018
203,-657,6.26343,5.16492,0,0,0,0,0,0,0,-1,1427,1681,6.26345,-5.16488
210,-657,3.9856,5.28088,0,0,0,0,0,0,0,-1,1434,1681,3.98555,-5.28084
217,-657,3.95178,5.2843,0,0,0,0,0,0,0,-1,1441,1681,3.95174,-5.28431
224,-657,6.66736,-0.250244,0,0,0,0,0,0,0,-1,1448,1681,6.66737,0.250229
231,-657,6.85498,-1.70752,0,0,0,0,0,0,0,-1,1455,1681,6.855,1.70758
238,-657,5.34143,-2.89819,0,0,0,0,0,0,0,-1,1462,1681,5.34143,2.89813
245,-657,8.66003,-0.102783,0,0,0,0,0,0,0,-1,1469,1681,8.66,0.102824
252,-657,4.78955,0.623779,0,0,0,0,0,0,0,-1,1476,1681,4.7895,-0.623826
259,-657,2.61523,4.31909,0,0,0,0,0,0,0,-1,1483,1681,2.61523,-4.31908
266,-657,5.35437,11.4742,0,0,0,0,0,0,0,-1,1490,1681,5.35441,-11.4742
273,-657,11.9164,46.0638,0,0,0,0,0,0,0,-1,1497,1681,11.9164,-46.0638
280,-657,12.3497,52.3717,0,0,0,0,0,0,0,-1,1504,1681,12.3497,-52.3717
287,-657,12.6194,52.0448,0.00991379,0.0153455,-0.00529937,0.0185844,0.00667489,-1.02219,0.0108707,0.0418694,1511,1681,12.6194,-52.0448
294,-657,12.7579,51.605,0.00932318,0.0147678,-0.00514614,0.0178673,0.00622366,-1.02869,0.0104727,0.0324632,1518,1681,12.758,-51.6049
301,-657,12.8398,51.183,0.0084869,0.0135487,-0.00467749,0.0163361,0.00569949,-1.03338,0.00957415,0.024341,1525,1681,12.8398,-51.183
308,-657,12.8776,50.6704,0.00752657,0.0125562,-0.00429709,0.0150203,0.00506249,-1.05014,0.00882413,0.0163757,1532,1681,12.8775,-50.6704
315,-657,12.9146,50.1354,0.00661927,0.0114614,-0.00396299,0.0136844,0.00439634,-1.05961,0.00806719,0.0120972,1539,1681,12.9145,-50.1354
322,-657,12.9342,49.6292,0.00587149,0.0105913,-0.0038452,0.012743,0.00371977,-1.06062,0.0075666,0.0135245,1546,1681,12.9343,-49.6291
329,-657,12.9304,49.1338,0.00522535,0.00958284,-0.00372444,0.011719,0.0030892,-1.05005,0.0070135,0.020238,1553,1681,12.9305,-49.1338
336,-657,12.915,48.6145,0.00463345,0.00863168,-0.0035162,0.0106773,0.00258781,-1.04388,0.00643156,0.0183863,1560,1681,12.9151,-48.6145
343,-657,12.9305,48.0809,0.00396813,0.00782864,-0.00336098,0.00977421,0.00202255,-1.04606,0.00595752,0.0140849,1567,1681,12.9305,-48.0809
350,-657,12.8999,47.573,0.00345414,0.00706805,-0.00332815,0.00904813,0.00147406,-1.0341,0.00560571,0.015415,1574,1681,12.8999,-47.573
357,-657,12.8861,47.028,0.0030286,0.00601089,-0.0032415,0.00808778,0.000951715,-1.00097,0.00510428,0.0145577,1581,1681,12.8862,-47.028
364,-657,12.9059,46.4736,0.00270709,0.00546568,-0.00325518,0.00762173,0.000551043,-0.985793,0.00490779,0.0106095,1588,1681,12.9059,-46.4737
371,-657,12.8828,45.9271,0.00244811,0.00496963,-0.00334088,0.00727972,0.00013802,-0.965823,0.0048078,0.0149861,1595,1681,12.8828,-45.9271
378,-657,12.8335,45.3773,0.00223744,0.00453333,-0.003418,0.006991,-0.000220235,-0.947406,0.00473579,0.0152661,1602,1681,12.8335,-45.3773
385,-657,12.8134,44.8145,0.00213562,0.00429705,-0.00348167,0.00686187,-0.000429204,-0.935884,0.00472415,0.0133787,1609,1681,12.8134,-44.8145
392,-657,12.7913,44.2494,0.00211017,0.00413046,-0.00378153,0.00703444,-0.000793805,-0.915914,0.00497538,0.0130028,1616,1681,12.7912,-44.2494
399,-657,12.7716,43.675,0.00193892,0.00408872,-0.00401736,0.0071725,-0.00114486,-0.916118,0.00520542,0.0138216,1623,1681,12.7716,-43.675
406,-657,12.751,43.0841,0.00187426,0.00433259,-0.00432165,0.00759647,-0.00138962,-0.92395,0.00558544,0.015497,1630,1681,12.751,-43.0842
413,-657,12.7185,42.4839,0.00192759,0.00491172,-0.00476743,0.00841511,-0.00157581,-0.937055,0.00620243,0.0146429,1637,1681,12.7185,-42.4839
420,-657,12.6951,41.8926,0.00204777,0.00575613,-0.00535198,0.00956602,-0.00176212,-0.952151,0.00703863,0.016753,1644,1681,12.6951,-41.8926
427,-657,12.6399,41.2716,0.00234986,0.00706774,-0.00618955,0.0113326,-0.00191503,-0.967459,0.00826769,0.0214054,1651,1681,12.6399,-41.2716
434,-657,12.6477,40.6121,0.00284686,0.00859686,-0.00710395,0.0133855,-0.0019418,-0.977676,0.00963638,0.0308168,1658,1681,12.6477,-40.612
441,-657,12.9243,39.952,0.00338257,0.0104201,-0.00804194,0.0156794,-0.00187675,-0.991624,0.0111314,0.0456294,1665,1681,12.9244,-39.9521
448,-657,13.1957,39.3876,0,0,0,0,0,0,0,-1,1672,1681,13.1957,-39.3876
455,-657,12.4478,38.7083,0,0,0,0,0,0,0,-1,1679,1681,12.4478,-38.7082
462,-657,10.2832,30.1719,0,0,0,0,0,0,0,-1,1686,1681,10.2831,-30.1718
469,-657,9.22205,26.4175,0,0,0,0,0,0,0,-1,1693,1681,9.2221,-26.4175
476,-657,8.9519,20.5712,0,0,0,0,0,0,0,-1,1700,1681,8.95194,-20.5712
483,-657,10.0663,21.8628,0,0,0,0,0,0,0,-1,1707,1681,10.0663,-21.8628
490,-657,11.6039,21.2185,0,0,0,0,0,0,0,-1,1714,1681,11.6038,-21.2185
497,-657,9.20862,17.8127,0,0,0,0,0,0,0,-1,1721,1681,9.2086,-17.8127
504,-657,0,0,0,0,0,0,0,0,0,-1,1728,1681,0,0
511,-657,0,0,0,0,0,0,0,0,0,-1,1735,1681,0,0
518,-657,0,0,0,0,0,0,0,0,0,-1,1742,1681,0,0
525,-657,0,0,0,0,0,0,0,0,0,-1,1749,1681,0,0
532,-657,0,0,0,0,0,0,0,0,0,-1,1756,1681,0,0
539,-657,0,0,0,0,0,0,0,0,0,-1,1763,1681,0,0
546,-657,0,0,0,0,0,0,0,0,0,-1,1770,1681,0,0
553,-657,0,0,0,0,0,0,0,0,0,-1,1777,1681,0,0
560,-657,0,0,0,0,0,0,0,0,0,-1,1784,1681,0,0
567,-657,0,0,0,0,0,0,0,0,0,-1,1791,1681,0,0
574,-657,0,0,0,0,0,0,0,0,0,-1,1798,1681,0,0
581,-657,0,0,0,0,0,0,0,0,0,-1,1805,1681,0,0
588,-657,0,0,0,0,0,0,0,0,0,-1,1812,1681,0,0
595,-657,0,0,0,0,0,0,0,0,0,-1,1819,1681,0,0
602,-657,0,0,0,0,0,0,0,0,0,-1,1826,1681,0,0
609,-657,0,0,0,0,0,0,0,0,0,-1,1833,1681,0,0
616,-657,0,0,0,0,0,0,0,0,0,-1,1840,1681,0,0
623,-657,0,0,0,0,0,0,0,0,0,-1,1847,1681,0,0
630,-657,0,0,0,0,0,0,0,0,0,-1,1854,1681,0,0
637,-657,0,0,0,0,0,0,0,0,0,-1,1861,1681,0,0
644,-657,0,0,0,0,0,0,0,0,0,-1,1868,1681,0,0
651,-657,0,0,0,0,0,0,0,0,0,-1,1875,1681,0,0
658,-657,0,0,0,0,0,0,0,0,0,-1,1882,1681,0,0
665,-657,0,0,0,0,0,0,0,0,0,-1,1889,1681,0,0
672,-657,0,0,0,0,0,0,0,0,0,-1,1896,1681,0,0
679,-657,0,0,0,0,0,0,0,0,0,-1,1903,1681,0,0
686,-657,0,0,0,0,0,0,0,0,0,-1,1910,1681,0,0
693,-657,0,0,0,0,0,0,0,0,0,-1,1917,1681,0,0
700,-657,0,0,0,0,0,0,0,0,0,-1,1924,1681,0,0
707,-657,0,0,0,0,0,0,0,0,0,-1,1931,1681,0,0
714,-657,0,0,0,0,0,0,0,0,0,-1,1938,1681,0,0
721,-657,0,0,0,0,0,0,0,0,0,-1,1945,1681,0,0
728,-657,0,0,0,0,0,0,0,0,0,-1,1952,1681,0,0
735,-657,0,0,0,0,0,0,0,0,0,-1,1959,1681,0,0
742,-657,0,0,0,0,0,0,0,0,0,-1,1966,1681,0,0
749,-657,0,0,0,0,0,0,0,0,0,-1,1973,1681,0,0
756,-657,0,0,0,0,0,0,0,0,0,-1,1980,1681,0,0
763,-657,0,0,0,0,0,0,0,0,0,-1,1987,1681,0,0
770,-657,0,0,0,0,0,0,0,0,0,-1,1994,1681,0,0
777,-657,0,0,0,0,0,0,0,0,0,-1,2001,1681,0,0
784,-657,0,0,0,0,0,0,0,0,0,-1,2008,1681,0,0
791,-657,0,0,0,0,0,0,0,0,0,-1,2015,1681,0,0
798,-657,0,0,0,0,0,0,0,0,0,-1,2022,1681,0,0
805,-657,0,0,0,0,0,0,0,0,0,-1,2029,1681,0,0
812,-657,0,0,0,0,0,0,0,0,0,-1,2036,1681,0,0
-700,-664,0,0,0,0,0,0,0,0,0,-1,524,1688,0,0
-693,-664,0,0,0,0,0,0,0,0,0,-1,531,1688,0,0
-686,-664,0,0,0,0,0,0,0,0,0,-1,538,1688,0,0
-679,-664,0,0,0,0,0,0,0,0,0,-1,545,1688,0,0
-672,-664,0,0,0,0,0,0,0,0,0,-1,552,1688,0,0
-665,-664,0,0,0,0,0,0,0,0,0,-1,559,1688,0,0
-658,-664,0,0,0,0,0,0,0,0,0,-1,566,1688,0,0
-651,-664,0,0,0,0,0,0,0,0,0,-1,573,1688,0,0
-644,-664,0,0,0,0,0,0,0,0,0,-1,580,1688,0,0
-637,-664,0,0,0,0,0,0,0,0,0,-1,587,1688,0,0
-630,-664,0,0,0,0,0,0,0,0,0,-1,594,1688,0,0
-623,-664,0,0,0,0,0,0,0,0,0,-1,601,1688,0,0
-616,-664,0,0,0,0,0,0,0,0,0,-1,608,1688,0,0
-609,-664,0,0,0,0,0,0,0,0,0,-1,615,1688,0,0
-602,-664,0,0,0,0,0,0,0,0,0,-1,622,1688,0,0
-595,-664,0,0,0,0,0,0,0,0,0,-1,629,1688,0,0
-588,-664,0,0,0,0,0,0,0,0,0,-1,636,1688,0,0
-581,-664,0,0,0,0,0,0,0,0,0,-1,643,1688,0,0
-574,-664,0,0,0,0,0,0,0,0,0,-1,650,1688,0,0
-567,-664,0,0,0,0,0,0,0,0,0,-1,657,1688,0,0
-560,-664,0,0,0,0,0,0,0,0,0,-1,664,1688,0,0
-553,-664,0,0,0,0,0,0,0,0,0,-1,671,1688,0,0
-546,-664,0,0,0,0,0,0,0,0,0,-1,678,1688,0,0
-539,-664,0,0,0,0,0,0,0,0,0,-1,685,1688,0,0
-532,-664,0,0,0,0,0,0,0,0,0,-1,692,1688,0,0
-525,-664,0,0,0,0,0,0,0,0,0,-1,699,1688,0,0
-518,-664,0,0,0,0,0,0,0,0,0,-1,706,1688,0,0
-511,-664,0,0,0,0,0,0,0,0,0,-1,713,1688,0,0
-504,-664,0,0,0,0,0,0,0,0,0,-1,720,1688,0,0
-497,-664,0,0,0,0,0,0,0,0,0,-1,727,1688,0,0
-490,-664,0,0,0,0,0,0,0,0,0,-1,734,1688,0,0
-483,-664,0,0,0,0,0,0,0,0,0,-1,741,1688,0,0
-476,-664,0,0,0,0,0,0,0,0,0,-1,748,1688,0,0
-469,-664,0,0,0,0,0,0,0,0,0,-1,755,1688,0,0
-462,-664,0,0,0,0,0,0,0,0,0,-1,762,1688,0,0
-455,-664,0,0,0,0,0,0,0,0,0,-1,769,1688,0,0
-448,-664,0,0,0,0,0,0,0,0,0,-1,776,1688,0,0
-441,-664,0,0,0,0,0,0,0,0,0,-1,783,1688,0,0
-434,-664,0,0,0,0,0,0,0,0,0,-1,790,1688,0,0
-427,-664,0,0,0,0,0,0,0,0,0,-1,797,1688,0,0
-420,-664,0,0,0,0,0,0,0,0,0,-1,804,1688,0,0
-413,-664,0,0,0,0,0,0,0,0,0,-1,811,1688,0,0
-406,-664,0,0,0,0,0,0,0,0,0,-1,818,1688,0,0
-399,-664,0,0,0,0,0,0,0,0,0,-1,825,1688,0,0
-392,-664,0,0,0,0,0,0,0,0,0,-1,832,1688,0,0
-385,-664,0,0,0,0,0,0,0,0,0,-1,839,1688,0,0
-378,-664,0,0,0,0,0,0,0,0,0,-1,846,1688,0,0
-371,-664,-1.61676,5.92737,0,0,0,0,0,0,0,-1,853,1688,-1.61675,-5.92735
-364,-664,-3.901,5.87024,0,0,0,0,0,0,0,-1,860,1688,-3.90097,-5.87027
-357,-664,-4.81012,4.53479,0,0,0,0,0,0,0,-1,867,1688,-4.81012,-4.5348
-350,-664,3.26105,36.0225,0,0,0,0,0,0,0,-1,874,1688,3.26104,-36.0224
-343,-664,5.2652,32.889,0,0,0,0,0,0,0,-1,881,1688,5.26517,-32.889
-336,-664,5.38037,33.5928,0,0,0,0,0,0,0,-1,888,1688,5.38037,-33.5927
-329,-664,6.11078,37.1841,0,0,0,0,0,0,0,-1,895,1688,6.11079,-37.1841
-322,-664,5.63586,38.1508,-0.0104793,0.0157899,0.0189619,0.025722,-0.0204113,1.0883,0.0266938,0.0499228,902,1688,5.63588,-38.1508
-315,-664,5.60657,39.45,-0.0138543,0.0125375,0.012846,0.0177576,-0.0190744,1.18482,0.0212695,0.0486531,909,1688,5.60657,-39.4499
-308,-664,6.04895,40.2789,0,0,0,0,0,0,0,-1,916,1688,6.04897,-40.279
-301,-664,6.40369,40.9928,-0.0168718,0.0076668,0.00443646,0.00844426,-0.0176492,1.39731,0.0153744,0.0455929,923,1688,6.4037,-40.9928
-294,-664,6.20477,41.5068,-0.016894,0.00578628,0.00194292,0.00595151,-0.0170592,1.48595,0.0137916,0.038898,930,1688,6.20475,-41.5069
-287,-664,5.99084,42.2261,-0.0160751,0.00482661,0.000489252,0.00483805,-0.0160866,1.54741,0.0126493,0.0275854,937,1688,5.99085,-42.226
-280,-664,5.90308,42.8213,-0.0148742,0.00412392,-0.000270386,0.00412776,-0.014878,-1.55657,0.0115433,0.0190777,944,1688,5.90311,-42.8213
-273,-664,5.86981,43.4197,-0.0132123,0.00366435,-0.000535023,0.00368129,-0.0132292,-1.53914,0.0102689,0.0162872,951,1688,5.8698,-43.4196
-266,-664,5.80231,44.0089,-0.0114572,0.00273642,-0.00108258,0.00281852,-0.0115393,-1.49511,0.00878441,0.022926,958,1688,5.80231,-44.0089
-259,-664,5.77893,44.5879,-0.00946631,0.00265121,-0.00110861,0.0027518,-0.0095669,-1.48031,0.0074662,0.0190495,965,1688,5.7789,-44.5879
-252,-664,5.78021,45.1719,-0.00737094,0.00262744,-0.000539167,0.00265643,-0.00739993,-1.51708,0.00601749,0.0167106,972,1688,5.78018,-45.1719
-245,-664,5.74658,45.7559,-0.00541502,0.00243393,0.000193562,0.0024387,-0.00541979,1.54616,0.00464465,0.0208775,979,1688,5.74656,-45.7558
-238,-664,5.75446,46.3654,-0.00367419,0.00216912,0.000607282,0.00223156,-0.00373663,1.46833,0.00348207,0.0232464,986,1688,5.75447,-46.3654
-231,-664,5.72327,46.9276,-0.00227235,0.00197759,0.000902422,0.00216127,-0.00245603,1.37,0.00266761,0.0194968,993,1688,5.72325,-46.9277
-224,-664,5.69415,47.4797,-0.000747237,0.00214019,0.00147647,0.00276149,-0.00136853,1.17249,0.00242925,0.0141318,1000,1688,5.69414,-47.4798
-217,-664,5.66016,48.0354,-8.62172e-06,0.00144631,0.00138587,0.00228404,-0.000846352,1.02709,0.00186979,0.0104047,1007,1688,5.66016,-48.0354
-210,-664,5.64648,48.5599,0.000591869,0.00134473,0.00160979,0.00262152,-0.000684916,0.900254,0.00201516,0.0117703,1014,1688,5.64649,-48.5599
-203,-664,5.6283,49.0913,0.00121327,0.0011626,0.00188069,0.00306879,-0.000692926,0.778663,0.00231172,0.0143843,1021,1688,5.62836,-49.0913
-196,-664,5.60339,49.6077,0.00180549,0.00120285,0.00222559,0.00375007,-0.000741728,0.718113,0.00278047,0.0152638,1028,1688,5.60344,-49.6076
-189,-664,5.58582,50.1232,0.00229312,0.00150454,0.00244791,0.00437829,-0.000580629,0.705548,0.00313041,0.010609,1035,1688,5.58586,-50.1232
-182,-664,5.60767,50.6154,0.00274723,0.00206224,0.00252932,0.00495714,-0.000147671,0.718103,0.00335507,0.00942572,1042,1688,5.60769,-50.6154
-175,-664,5.61462,51.0774,0.00336764,0.00289605,0.00271862,0.00586067,0.00040302,0.742139,0.00377994,0.0134522,1049,1688,5.61461,-51.0774
-168,-664,5.60608,51.5682,0.00389377,0.00423506,0.00292793,0.00699731,0.00113151,0.814506,0.00433719,0.0146629,1056,1688,5.60605,-51.5682
-161,-664,5.61035,52.0353,0.00437252,0.00569615,0.00303208,0.0081378,0.00193087,0.892848,0.00490981,0.0108765,1063,1688,5.61041,-52.0353
-154,-664,5.67664,52.4896,0.00494187,0.00739629,0.00314947,0.00954919,0.00278896,0.971177,0.00566992,0.0110717,1070,1688,5.67665,-52.4897
-147,-664,5.68604,52.9379,0.00558142,0.00933844,0.00326331,0.0112253,0.00369457,1.04656,0.00660587,0.0160104,1077,1688,5.6861,-52.9379
-140,-664,5.69617,53.4281,0.00619661,0.0112461,0.00335175,0.0129176,0.0045251,1.10819,0.0075686,0.0181392,1084,1688,5.69617,-53.428
-133,-664,5.66187,53.9236,0.00673742,0.0134946,0.00334371,0.0148694,0.00536256,1.18069,0.00869531,0.0203846,1091,1688,5.66187,-53.9236
-126,-664,5.76941,54.4714,0.00739311,0.0153987,0.0031571,0.0164939,0.0062979,1.23688,0.009611,0.0391921,1098,1688,5.76941,-54.4715
-119,-664,5.9458,55.1036,0,0,0,0,0,0,0,-1,1105,1688,5.94583,-55.1036
-112,-664,6.3916,51.1235,0,0,0,0,0,0,0,-1,1112,1688,6.39161,-51.1236
-105,-664,6.87256,43.2527,0,0,0,0,0,0,0,-1,1119,1688,6.87258,-43.2527
-98,-664,7.69324,41.3359,0,0,0,0,0,0,0,-1,1126,1688,7.69321,-41.3359
-91,-664,5.41931,25.6302,0,0,0,0,0,0,0,-1,1133,1688,5.41932,-25.6302
-84,-664,3.48389,16.6913,0,0,0,0,0,0,0,-1,1140,1688,3.4839,-16.6913
-77,-664,4.52014,11.2122,0,0,0,0,0,0,0,-1,1147,1688,4.5202,-11.2122
-70,-664,4.20374,8.24524,0,0,0,0,0,0,0,-1,1154,1688,4.20379,-8.24519
-63,-664,-4.677,2.40503,0,0,0,0,0,0,0,-1,1161,1688,-4.67702,-2.40498
-56,-664,-4.66504,3.32727,0,0,0,0,0,0,0,-1,1168,1688,-4.6651,-3.32724
-49,-664,-2.54297,3.31848,0,0,0,0,0,0,0,-1,1175,1688,-2.54297,-3.31852
-42,-664,-0.359253,4.38684,0,0,0,0,0,0,0,-1,1182,1688,-0.359261,-4.38685
-35,-664,-0.705566,3.55017,0,0,0,0,0,0,0,-1,1189,1688,-0.705567,-3.55023
-28,-664,-1.54236,10.2538,0,0,0,0,0,0,0,-1,1196,1688,-1.54236,-10.2538
-21,-664,6.33118,57.7296,0,0,0,0,0,0,0,-1,1203,1688,6.33116,-57.7296
-14,-664,6.98279,60.1672,0,0,0,0,0,0,0,-1,1210,1688,6.98276,-60.1672
-7,-664,9.32031,78.0823,0,0,0,0,0,0,0,-1,1217,1688,9.32033,-78.0823
0,-664,9.77771,76.1521,0,0,0,0,0,0,0,-1,1224,1688,9.7777,-76.1521
7,-664,10.1323,74.2821,0,0,0,0,0,0,0,-1,1231,1688,10.1324,-74.2821
14,-664,10.4921,72.1733,0.0336228,-0.0422232,-0.0958089,0.0987411,-0.107342,-0.59695,0.119016,0.0418114,1238,1688,10.4921,-72.1734
21,-664,10.6898,70.6345,0.025945,-0.0377694,-0.0953895,0.0946564,-0.106481,-0.624236,0.116193,0.0460108,1245,1688,10.6899,-70.6345
28,-664,11.1962,69.3691,0,0,0,0,0,0,0,-1,1252,1688,11.1962,-69.3692
35,-664,13.5293,63.7653,0.00890076,-0.0296666,-0.0897133,0.0813795,-0.102145,-0.679535,0.106184,0.0464413,1259,1688,13.5293,-63.7653
42,-664,13.0764,62.6921,0.000959927,-0.0268063,-0.0844618,0.072672,-0.0985183,-0.703941,0.0992116,0.043113,1266,1688,13.0764,-62.6921
49,-664,12.5067,61.9801,-0.00638291,-0.0248725,-0.0781281,0.0630455,-0.0943009,-0.726508,0.0914395,0.0420675,1273,1688,12.5067,-61.9801
56,-664,11.6951,61.4327,-0.0133746,-0.0232314,-0.0708954,0.0527635,-0.0893695,-0.750696,0.0829628,0.0463257,1280,1688,11.695,-61.4327
63,-664,10.9332,60.8574,-0.0194659,-0.0218986,-0.0634589,0.0427883,-0.0841528,-0.775815,0.0745752,0.0478807,1287,1688,10.9333,-60.8575
70,-664,10.3953,60.4043,-0.0244764,-0.0210899,-0.055483,0.0327257,-0.078292,-0.800653,0.0658712,0.0485982,1294,1688,10.3952,-60.4042
77,-664,9.92993,60.0381,-0.0286541,-0.0206046,-0.0480769,0.0236157,-0.0728745,-0.827158,0.058078,0.0447897,1301,1688,9.92992,-60.0381
84,-664,9.5083,59.4879,0,0,0,0,0,0,0,-1,1308,1688,9.50831,-59.4879
91,-664,9.11658,58.9016,0,0,0,0,0,0,0,-1,1315,1688,9.11653,-58.9016
98,-664,9.36865,58.8342,0,0,0,0,0,0,0,-1,1322,1688,9.36869,-58.8342
105,-664,8.93152,58.0598,0,0,0,0,0,0,0,-1,1329,1688,8.93155,-58.0598
112,-664,8.21252,57.583,0,0,0,0,0,0,0,-1,1336,1688,8.21247,-57.5831
119,-664,7.80334,57.3267,0,0,0,0,0,0,0,-1,1343,1688,7.80334,-57.3266
126,-664,10.0183,55.9265,0,0,0,0,0,0,0,-1,1350,1688,10.0183,-55.9265
133,-664,9.98718,58.6561,0,0,0,0,0,0,0,-1,1357,1688,9.98719,-58.6561
140,-664,10.4817,57.9497,0,0,0,0,0,0,0,-1,1364,1688,10.4817,-57.9497
147,-664,3.97021,55.313,0,0,0,0,0,0,0,-1,1371,1688,3.97025,-55.313
154,-664,13.0916,56.0908,0,0,0,0,0,0,0,-1,1378,1688,13.0915,-56.0908
161,-664,4.60132,1.56238,0,0,0,0,0,0,0,-1,1385,1688,4.60134,-1.56233
168,-664,5.172,1.25488,0,0,0,0,0,0,0,-1,1392,1688,5.17203,-1.25484
175,-664,5.58313,1.16467,0,0,0,0,0,0,0,-1,1399,1688,5.58317,-1.16466
182,-664,5.74268,1.41113,0,0,0,0,0,0,0,-1,1406,1688,5.74263,-1.41115
189,-664,5.87744,1.87061,0,0,0,0,0,0,0,-1,1413,1688,5.87745,-1.87065
196,-664,6.7594,5.97473,0,0,0,0,0,0,0,-1,1420,1688,6.75943,-5.97478
203,-664,5.38452,5.22034,0,0,0,0,0,0,0,-1,1427,1688,5.38453,-5.2203
210,-664,5.25549,6.45715,0,0,0,0,0,0,0,-1,1434,1688,5.25549,-6.45721
217,-664,5.72009,6.73975,0,0,0,0,0,0,0,-1,1441,1688,5.72014,-6.73972
224,-664,5.05725,7.42908,0,0,0,0,0,0,0,-1,1448,1688,5.05723,-7.42912
231,-664,5.13318,7.60864,0,0,0,0,0,0,0,-1,1455,1688,5.13313,-7.60862
238,-664,4.23193,6.45471,0,0,0,0,0,0,0,-1,1462,1688,4.23197,-6.45476
245,-664,4.42004,6.80896,0,0,0,0,0,0,0,-1,1469,1688,4.4201,-6.80901
252,-664,3.67346,6.85461,0,0,0,0,0,0,0,-1,1476,1688,3.6734,-6.85462
259,-664,4.55823,11.7435,0,0,0,0,0,0,0,-1,1483,1688,4.55826,-11.7435
266,-664,11.9412,53.0022,0,0,0,0,0,0,0,-1,1490,1688,11.9412,-53.0021
273,-664,12.3147,52.9315,0,0,0,0,0,0,0,-1,1497,1688,12.3147,-52.9316
280,-664,12.2246,52.542,0.00878743,0.0105197,-0.0039354,0.0136831,0.00562397,-0.893714,0.00794156,0.0329354,1504,1688,12.2246,-52.542
287,-664,12.1665,52.0741,0.00799399,0.0102725,-0.00373761,0.0130406,0.00522587,-0.933332,0.00757832,0.0307964,1511,1688,12.1665,-52.0741
294,-664,12.2943,51.6025,0.00739635,0.0100683,-0.00365015,0.0126193,0.00484538,-0.96083,0.00735086,0.0217016,1518,1688,12.2944,-51.6026
301,-664,12.3734,51.1167,0.00660207,0.00939724,-0.00336106,0.0116397,0.00435961,-0.982432,0.00679033,0.0133276,1525,1688,12.3734,-51.1167
308,-664,12.4014,50.6302,0.00574293,0.00889724,-0.00314731,0.0108405,0.00379972,-1.01767,0.00635129,0.0122669,1532,1688,12.4014,-50.6303
315,-664,12.4128,50.1387,0.00493992,0.00829512,-0.00293935,0.0100019,0.00323313,-1.04471,0.00589365,0.0125069,1539,1688,12.4129,-50.1386
322,-664,12.4465,49.6537,0.00419177,0.00781509,-0.00282083,0.00935592,0.00265093,-1.07085,0.00556811,0.0147956,1546,1688,12.4465,-49.6536
329,-664,12.4271,49.1678,0.00353861,0.00721952,-0.00273537,0.00867596,0.00208217,-1.08153,0.00522995,0.0179305,1553,1688,12.4271,-49.1679
336,-664,12.4056,48.6353,0.00297769,0.00661998,-0.00259787,0.00797145,0.00162622,-1.0911,0.00486371,0.0159735,1560,1688,12.4056,-48.6353
343,-664,12.3949,48.1219,0.00243615,0.006164,-0.0025432,0.00745318,0.00114697,-1.10163,0.00463402,0.0121169,1567,1688,12.3949,-48.122
350,-664,12.3665,47.614,0.00210457,0.00581458,-0.00268554,0.0072235,0.000695653,-1.08764,0.00460134,0.0142335,1574,1688,12.3665,-47.614
357,-664,12.3575,47.0359,0.00186494,0.00521077,-0.00280892,0.00680721,0.000268502,-1.05398,0.00445134,0.0141568,1581,1688,12.3575,-47.0359
364,-664,12.3727,46.468,0.00174647,0.00491261,-0.00301267,0.00673282,-7.37372e-05,-1.02731,0.00451333,0.0113334,1588,1688,12.3727,-46.4681
371,-664,12.3473,45.9635,0.00169664,0.00471337,-0.00332224,0.00685363,-0.000443609,-0.998494,0.0047239,0.0137017,1595,1688,12.3473,-45.9635
378,-664,12.3015,45.4229,0.00172213,0.00459149,-0.00366003,0.00708798,-0.000774364,-0.972188,0.00500346,0.0132146,1602,1688,12.3015,-45.4228
385,-664,12.2695,44.8604,0.00188898,0.0047442,-0.00400557,0.00756896,-0.000935785,-0.956584,0.00538507,0.0136781,1609,1688,12.2695,-44.8603
392,-664,12.2045,44.306,0.00218568,0.00494953,-0.00465233,0.00842085,-0.00128563,-0.929767,0.00608786,0.0172747,1616,1688,12.2044,-44.306
399,-664,12.2015,43.7156,0.00235069,0.00534764,-0.00525822,0.00931673,-0.0016184,-0.924207,0.00681498,0.0155096,1623,1688,12.2016,-43.7155
406,-664,12.2009,43.1274,0.00256675,0.00596025,-0.00585721,0.0103615,-0.00183452,-0.926382,0.00759342,0.0135439,1630,1688,12.2009,-43.1275
413,-664,12.1866,42.5081,0.00285172,0.00697086,-0.00659152,0.0118171,-0.0019945,-0.936822,0.00862015,0.0141473,1637,1688,12.1866,-42.508
420,-664,12.1904,41.8838,0.00317495,0.00828624,-0.00747223,0.0136278,-0.0021666,-0.950172,0.00988684,0.0317429,1644,1688,12.1904,-41.8838
427,-664,11.9558,41.2107,0.00355763,0.0101499,-0.00848497,0.0159565,-0.00224893,-0.970661,0.0114611,0.049507,1651,1688,11.9558,-41.2107
434,-664,11.8195,40.4336,0.00412972,0.0121451,-0.00949445,0.018443,-0.00216824,-0.985107,0.0130781,0.0480804,1658,1688,11.8195,-40.4336
441,-664,11.7939,39.6038,0,0,0,0,0,0,0,-1,1665,1688,11.794,-39.6037
448,-664,13.4644,38.7773,0,0,0,0,0,0,0,-1,1672,1688,13.4644,-38.7774
455,-664,12.1709,39.3733,0,0,0,0,0,0,0,-1,1679,1688,12.1708,-39.3733
462,-664,4.3147,4.25439,0,0,0,0,0,0,0,-1,1686,1688,4.31467,-4.25435
469,-664,6.05469,7.49341,0,0,0,0,0,0,0,-1,1693,1688,6.05474,-7.49339
476,-664,10.2377,22.7128,0,0,0,0,0,0,0,-1,1700,1688,10.2377,-22.7128
483,-664,8.41895,10.9768,0,0,0,0,0,0,0,-1,1707,1688,8.41897,-10.9769
490,-664,3.90771,13.2842,0,0,0,0,0,0,0,-1,1714,1688,3.90776,-13.2841
497,-664,0,0,0,0,0,0,0,0,0,-1,1721,1688,0,0
504,-664,0,0,0,0,0,0,0,0,0,-1,1728,1688,0,0
511,-664,0,0,0,0,0,0,0,0,0,-1,1735,1688,0,0
518,-664,0,0,0,0,0,0,0,0,0,-1,1742,1688,0,0
525,-664,0,0,0,0,0,0,0,0,0,-1,1749,1688,0,0
532,-664,0,0,0,0,0,0,0,0,0,-1,1756,1688,0,0
539,-664,0,0,0,0,0,0,0,0,0,-1,1763,1688,0,0
546,-664,0,0,0,0,0,0,0,0,0,-1,1770,1688,0,0
553,-664,0,0,0,0,0,0,0,0,0,-1,1777,1688,0,0
560,-664,0,0,0,0,0,0,0,0,0,-1,1784,1688,0,0
567,-664,0,0,0,0,0,0,0,0,0,-1,1791,1688,0,0
574,-664,0,0,0,0,0,0,0,0,0,-1,1798,1688,0,0
581,-664,0,0,0,0,0,0,0,0,0,-1,1805,1688,0,0
588,-664,0,0,0,0,0,0,0,0,0,-1,1812,1688,0,0
595,-664,0,0,0,0,0,0,0,0,0,-1,1819,1688,0,0
602,-664,0,0,0,0,0,0,0,0,0,-1,1826,1688,0,0
609,-664,0,0,0,0,0,0,0,0,0,-1,1833,1688,0,0
616,-664,0,0,0,0,0,0,0,0,0,-1,1840,1688,0,0
623,-664,0,0,0,0,0,0,0,0,0,-1,1847,1688,0,0
630,-664,0,0,0,0,0,0,0,0,0,-1,1854,1688,0,0
637,-664,0,0,0,0,0,0,0,0,0,-1,1861,1688,0,0
644,-664,0,0,0,0,0,0,0,0,0,-1,1868,1688,0,0
651,-664,0,0,0,0,0,0,0,0,0,-1,1875,1688,0,0
658,-664,0,0,0,0,0,0,0,0,0,-1,1882,1688,0,0
665,-664,0,0,0,0,0,0,0,0,0,-1,1889,1688,0,0
672,-664,0,0,0,0,0,0,0,0,0,-1,1896,1688,0,0
679,-664,0,0,0,0,0,0,0,0,0,-1,1903,1688,0,0
686,-664,0,0,0,0,0,0,0,0,0,-1,1910,1688,0,0
693,-664,0,0,0,0,0,0,0,0,0,-1,1917,1688,0,0
700,-664,0,0,0,0,0,0,0,0,0,-1,1924,1688,0,0
707,-664,0,0,0,0,0,0,0,0,0,-1,1931,1688,0,0
714,-664,0,0,0,0,0,0,0,0,0,-1,1938,1688,0,0
721,-664,0,0,0,0,0,0,0,0,0,-1,1945,1688,0,0
728,-664,0,0,0,0,0,0,0,0,0,-1,1952,1688,0,0
735,-664,0,0,0,0,0,0,0,0,0,-1,1959,1688,0,0
742,-664,0,0,0,0,0,0,0,0,0,-1,1966,1688,0,0
749,-664,0,0,0,0,0,0,0,0,0,-1,1973,1688,0,0
756,-664,0,0,0,0,0,0,0,0,0,-1,1980,1688,0,0
763,-664,0,0,0,0,0,0,0,0,0,-1,1987,1688,0,0
770,-664,0,0,0,0,0,0,0,0,0,-1,1994,1688,0,0
777,-664,0,0,0,0,0,0,0,0,0,-1,2001,1688,0,0
784,-664,0,0,0,0,0,0,0,0,0,-1,2008,1688,0,0
791,-664,0,0,0,0,0,0,0,0,0,-1,2015,1688,0,0
798,-664,0,0,0,0,0,0,0,0,0,-1,2022,1688,0,0
805,-664,0,0,0,0,0,0,0,0,0,-1,2029,1688,0,0
812,-664,0,0,0,0,0,0,0,0,0,-1,2036,1688,0,0
-700,-671,0,0,0,0,0,0,0,0,0,-1,524,1695,0,0
-693,-671,0,0,0,0,0,0,0,0,0,-1,531,1695,0,0
-686,-671,0,0,0,0,0,0,0,0,0,-1,538,1695,0,0
-679,-671,0,0,0,0,0,0,0,0,0,-1,545,1695,0,0
-672,-671,0,0,0,0,0,0,0,0,0,-1,552,1695,0,0
-665,-671,0,0,0,0,0,0,0,0,0,-1,559,1695,0,0
-658,-671,0,0,0,0,0,0,0,0,0,-1,566,1695,0,0
-651,-671,0,0,0,0,0,0,0,0,0,-1,573,1695,0,0
-644,-671,0,0,0,0,0,0,0,0,0,-1,580,1695,0,0
-637,-671,0,0,0,0,0,0,0,0,0,-1,587,1695,0,0
-630,-671,0,0,0,0,0,0,0,0,0,-1,594,1695,0,0
-623,-671,0,0,0,0,0,0,0,0,0,-1,601,1695,0,0
-616,-671,0,0,0,0,0,0,0,0,0,-1,608,1695,0,0
-609,-671,0,0,0,0,0,0,0,0,0,-1,615,1695,0,0
-602,-671,0,0,0,0,0,0,0,0,0,-1,622,1695,0,0
-595,-671,0,0,0,0,0,0,0,0,0,-1,629,1695,0,0
-588,-671,0,0,0,0,0,0,0,0,0,-1,636,1695,0,0
-581,-671,0,0,0,0,0,0,0,0,0,-1,643,1695,0,0
-574,-671,0,0,0,0,0,0,0,0,0,-1,650,1695,0,0
-567,-671,0,0,0,0,0,0,0,0,0,-1,657,1695,0,0
-560,-671,0,0,0,0,0,0,0,0,0,-1,664,1695,0,0
-553,-671,0,0,0,0,0,0,0,0,0,-1,671,1695,0,0
-546,-671,0,0,0,0,0,0,0,0,0,-1,678,1695,0,0
-539,-671,0,0,0,0,0,0,0,0,0,-1,685,1695,0,0
-532,-671,0,0,0,0,0,0,0,0,0,-1,692,1695,0,0
-525,-671,0,0,0,0,0,0,0,0,0,-1,699,1695,0,0
-518,-671,0,0,0,0,0,0,0,0,0,-1,706,1695,0,0
-511,-671,0,0,0,0,0,0,0,0,0,-1,713,1695,0,0
-504,-671,0,0,0,0,0,0,0,0,0,-1,720,1695,0,0
-497,-671,0,0,0,0,0,0,0,0,0,-1,727,1695,0,0
-490,-671,0,0,0,0,0,0,0,0,0,-1,734,1695,0,0
-483,-671,0,0,0,0,0,0,0,0,0,-1,741,1695,0,0
-476,-671,0,0,0,0,0,0,0,0,0,-1,748,1695,0,0
-469,-671,0,0,0,0,0,0,0,0,0,-1,755,1695,0,0
-462,-671,0,0,0,0,0,0,0,0,0,-1,762,1695,0,0
-455,-671,0,0,0,0,0,0,0,0,0,-1,769,1695,0,0
-448,-671,0,0,0,0,0,0,0,0,0,-1,776,1695,0,0
-441,-671,0,0,0,0,0,0,0,0,0,-1,783,1695,0,0
-434,-671,0,0,0,0,0,0,0,0,0,-1,790,1695,0,0
-427,-671,0,0,0,0,0,0,0,0,0,-1,797,1695,0,0
-420,-671,0,0,0,0,0,0,0,0,0,-1,804,1695,0,0
-413,-671,0,0,0,0,0,0,0,0,0,-1,811,1695,0,0
-406,-671,0,0,0,0,0,0,0,0,0,-1,818,1695,0,0
-399,-671,0,0,0,0,0,0,0,0,0,-1,825,1695,0,0
-392,-671,0,0,0,0,0,0,0,0,0,-1,832,1695,0,0
-385,-671,0,0,0,0,0,0,0,0,0,-1,839,1695,0,0
-378,-671,0,0,0,0,0,0,0,0,0,-1,846,1695,0,0
-371,-671,0,0,0,0,0,0,0,0,0,-1,853,1695,0,0
-364,-671,-4.18738,7.51416,0,0,0,0,0,0,0,-1,860,1695,-4.18739,-7.51419
-357,-671,-5.02393,6.07129,0,0,0,0,0,0,0,-1,867,1695,-5.0239,-6.07135
-350,-671,6.93323,33.8943,0,0,0,0,0,0,0,-1,874,1695,6.93325,-33.8943
-343,-671,6.16626,32.3158,0,0,0,0,0,0,0,-1,881,1695,6.16623,-32.3158
-336,-671,5.67371,33.653,0,0,0,0,0,0,0,-1,888,1695,5.67369,-33.653
-329,-671,6.14716,34.5975,0,0,0,0,0,0,0,-1,895,1695,6.14716,-34.5976
-322,-671,5.93262,37.9797,0,0,0,0,0,0,0,-1,902,1695,5.93262,-37.9797
-315,-671,5.71783,39.4319,0,0,0,0,0,0,0,-1,909,1695,5.71781,-39.4319
-308,-671,7.34937,40.5203,0,0,0,0,0,0,0,-1,916,1695,7.34936,-40.5202
-301,-671,7.39624,41.0685,-0.0253117,0.0102721,0.00465232,0.0108703,-0.0259099,1.44292,0.0218188,0.0482076,923,1695,7.39625,-41.0684
-294,-671,7.10938,41.444,-0.0251055,0.00795217,0.00156852,0.00802642,-0.0251798,1.52349,0.0200061,0.0477216,930,1695,7.10936,-41.4439
-287,-671,6.71881,42.2706,-0.0236596,0.00696091,-7.08332e-05,0.00696107,-0.0236598,-1.56848,0.0185345,0.0440862,937,1695,6.71881,-42.2707
-280,-671,6.70374,42.8894,-0.0216929,0.00606774,-0.000831472,0.00609262,-0.0217178,-1.54088,0.01688,0.0361452,944,1695,6.70373,-42.8894
-273,-671,6.51575,43.4423,-0.0191891,0.00542577,-0.00100316,0.00546658,-0.0192299,-1.53013,0.0149784,0.0316995,951,1695,6.51577,-43.4423
-266,-671,6.39929,44.0808,-0.0166356,0.00417193,-0.00157783,0.00429089,-0.0167546,-1.49554,0.0128413,0.0222037,958,1695,6.39928,-44.0808
-259,-671,6.31659,44.6267,-0.0138839,0.0038763,-0.00152356,0.00400605,-0.0140137,-1.48584,0.0109254,0.0216658,965,1695,6.3166,-44.6267
-252,-671,6.32288,45.2236,-0.0110838,0.00359948,-0.000799733,0.00364291,-0.0111272,-1.51654,0.00888497,0.0181385,972,1695,6.32288,-45.2236
-245,-671,6.31812,45.7952,-0.0085719,0.0031196,9.20148e-05,0.00312032,-0.00857262,1.56293,0.00699129,0.0206832,979,1695,6.31814,-45.7951
-238,-671,6.31549,46.3877,-0.00640767,0.00268234,0.000506092,0.00271043,-0.00643576,1.51535,0.00542459,0.0209522,986,1695,6.31552,-46.3877
-231,-671,6.28485,46.9604,-0.00466996,0.00230574,0.000688878,0.00237312,-0.00473734,1.4733,0.00418018,0.0155083,993,1695,6.28484,-46.9604
-224,-671,6.22491,47.4768,-0.00260488,0.00246415,0.00128423,0.00277094,-0.00291167,1.3363,0.00328119,0.0121554,1000,1695,6.22489,-47.4768
-217,-671,6.18677,48.0134,-0.00164159,0.00143293,0.00098394,0.00172086,-0.00192952,1.28612,0.00210869,0.0119673,1007,1695,6.18675,-48.0134
-210,-671,6.18646,48.5802,-0.000958526,0.00124017,0.00116315,0.00174129,-0.00145964,1.164,0.00185044,0.0118487,1014,1695,6.18649,-48.5803
-203,-671,6.13171,49.1268,-0.000292879,0.00100433,0.00135919,0.00186174,-0.00115029,1.00802,0.0017551,0.0191542,1021,1695,6.13176,-49.1269
-196,-671,6.11304,49.6343,0.00037763,0.00100411,0.00160538,0.00232652,-0.000944781,0.881748,0.00194404,0.0168331,1028,1695,6.11303,-49.6343
-189,-671,6.11279,50.1644,0.000976985,0.00126343,0.0017603,0.00288633,-0.000645906,0.825991,0.00217178,0.0126531,1035,1695,6.11284,-50.1644
-182,-671,6.10083,50.6653,0.00154162,0.00167428,0.00178777,0.00339696,-0.000181052,0.80394,0.00232734,0.00990695,1042,1695,6.10083,-50.6653
-175,-671,6.09521,51.1315,0.0022601,0.00235293,0.00192692,0.004234,0.000379038,0.797439,0.00270518,0.013347,1049,1695,6.09525,-51.1314
-168,-671,6.08606,51.5809,0.00284446,0.00347651,0.00210424,0.00528832,0.00103264,0.859933,0.00323672,0.0145055,1056,1695,6.08601,-51.581
-161,-671,6.08411,52.0397,0.00333748,0.00464235,0.00219988,0.0062845,0.00169532,0.929555,0.0037544,0.00979171,1063,1695,6.08414,-52.0396
-154,-671,6.11426,52.5032,0.00390024,0.00594586,0.00229079,0.0074318,0.0024143,0.995362,0.00437762,0.00899228,1070,1695,6.11429,-52.5031
-147,-671,6.12476,52.9607,0.00454377,0.0073677,0.00237019,0.00871462,0.00319685,1.05403,0.00509052,0.0105051,1077,1695,6.12471,-52.9606
-140,-671,6.15808,53.3918,0.00517863,0.00866932,0.00240846,0.00989835,0.0039496,1.09894,0.00575354,0.0130528,1084,1695,6.15811,-53.3918
-133,-671,6.17432,53.8029,0.00574982,0.0101311,0.00237829,0.0111739,0.00470701,1.15757,0.00647787,0.0194222,1091,1695,6.17434,-53.8028
-126,-671,6.24719,54.3503,0.00639406,0.0112412,0.00216369,0.0120666,0.00556876,1.2064,0.00697351,0.0350872,1098,1695,6.24721,-54.3504
-119,-671,6.35645,55.0497,0,0,0,0,0,0,0,-1,1105,1695,6.3564,-55.0497
-112,-671,6.58704,44.6255,0,0,0,0,0,0,0,-1,1112,1695,6.58701,-44.6255
-105,-671,7.33252,41.3418,0,0,0,0,0,0,0,-1,1119,1695,7.33247,-41.3418
-98,-671,6.34534,45.6299,0,0,0,0,0,0,0,-1,1126,1695,6.34533,-45.6299
-91,-671,6.40063,38.2443,0,0,0,0,0,0,0,-1,1133,1695,6.40059,-38.2442
-84,-671,5.4209,26.2415,0,0,0,0,0,0,0,-1,1140,1695,5.42096,-26.2414
-77,-671,4.31763,16.489,0,0,0,0,0,0,0,-1,1147,1695,4.31757,-16.489
-70,-671,3.06067,10.7737,0,0,0,0,0,0,0,-1,1154,1695,3.0607,-10.7737
-63,-671,2.94592,6.90198,0,0,0,0,0,0,0,-1,1161,1695,2.94594,-6.90198
-56,-671,-3.07678,2.87976,0,0,0,0,0,0,0,-1,1168,1695,-3.07675,-2.87979
-49,-671,-1.05957,4.76917,0,0,0,0,0,0,0,-1,1175,1695,-1.05958,-4.76921
-42,-671,0.539307,3.7865,0,0,0,0,0,0,0,-1,1182,1695,0.539266,-3.78648
-35,-671,-0.272461,0.347534,0,0,0,0,0,0,0,-1,1189,1695,-0.272434,-0.347569
-28,-671,-10.4878,17.2009,0,0,0,0,0,0,0,-1,1196,1695,-10.4878,-17.2009
-21,-671,7.74463,56.662,0,0,0,0,0,0,0,-1,1203,1695,7.74468,-56.662
-14,-671,7.81421,57.6765,0,0,0,0,0,0,0,-1,1210,1695,7.81423,-57.6765
-7,-671,8.08789,58.9668,0,0,0,0,0,0,0,-1,1217,1695,8.08793,-58.9668
0,-671,8.38599,59.4329,0.0351732,-0.0389928,-0.0755088,0.0822136,-0.0860331,-0.557144,0.0971456,0.0482724,1224,1695,8.38603,-59.4329
7,-671,8.77698,59.1659,0.0306136,-0.0363871,-0.0777436,0.0817675,-0.087541,-0.581966,0.0977693,0.0455378,1231,1695,8.77703,-59.1659
14,-671,9.0802,58.9313,0,0,0,0,0,0,0,-1,1238,1695,9.08016,-58.9313
21,-671,11.5468,71.4027,0,0,0,0,0,0,0,-1,1245,1695,11.5467,-71.4027
28,-671,11.9771,70.2229,0,0,0,0,0,0,0,-1,1252,1695,11.977,-70.2229
35,-671,14.5892,63.8511,0.00329793,-0.0239434,-0.0744529,0.0653658,-0.0860113,-0.694927,0.0876681,0.0460725,1259,1695,14.5892,-63.8511
42,-671,13.9354,62.4583,-0.00355849,-0.022072,-0.0705436,0.0583331,-0.0839636,-0.720161,0.0825981,0.0452962,1266,1695,13.9354,-62.4583
49,-671,13.3696,61.864,-0.00988427,-0.0209141,-0.0657129,0.0505447,-0.0813431,-0.743534,0.0768344,0.0429953,1273,1695,13.3697,-61.864
56,-671,12.3448,61.8081,-0.0159314,-0.0200749,-0.0599326,0.0419652,-0.0779715,-0.768121,0.070278,0.0439208,1280,1695,12.3448,-61.8082
63,-671,11.5895,61.4255,-0.0209814,-0.0194484,-0.0540318,0.0338223,-0.0742521,-0.792491,0.0638356,0.0463168,1287,1695,11.5895,-61.4256
70,-671,10.51,60.7632,-0.0248606,-0.0191606,-0.0475011,0.0255759,-0.0695972,-0.815361,0.0568738,0.0460922,1294,1695,10.51,-60.7631
77,-671,9.72131,60.2111,-0.0277283,-0.0190925,-0.0413545,0.0181689,-0.0649897,-0.837416,0.0504846,0.0440026,1301,1695,9.72128,-60.2111
84,-671,9.18225,59.718,-0.0295601,-0.0194706,-0.0368547,0.012683,-0.0617137,-0.853417,0.0459573,0.0446376,1308,1695,9.18229,-59.7181
91,-671,9.83423,59.5345,0,0,0,0,0,0,0,-1,1315,1695,9.83422,-59.5346
98,-671,9.36121,59.0979,-0.0350765,-0.0178242,-0.0276576,0.00252126,-0.0554219,-0.936563,0.0378164,0.0450537,1322,1695,9.36115,-59.0978
105,-671,8.88538,58.4958,-0.0370881,-0.0158428,-0.0250842,0.000775248,-0.0537062,-0.985689,0.0360653,0.0436501,1329,1695,8.88538,-58.4958
112,-671,8.40015,58.0215,-0.0396831,-0.0125027,-0.0232752,0.000859428,-0.0530452,-1.04964,0.0356534,0.041926,1336,1695,8.40014,-58.0215
119,-671,7.89368,57.6384,-0.0436704,-0.00887137,-0.0216471,0.00150215,-0.054044,-1.12392,0.0365403,0.0484731,1343,1695,7.89372,-57.6384
126,-671,8.50928,56.5725,0,0,0,0,0,0,0,-1,1350,1695,8.50928,-56.5726
133,-671,10.0813,57.4797,0,0,0,0,0,0,0,-1,1357,1695,10.0814,-57.4797
140,-671,10.5455,57.3843,0,0,0,0,0,0,0,-1,1364,1695,10.5456,-57.3842
147,-671,11.1302,56.554,0,0,0,0,0,0,0,-1,1371,1695,11.1303,-56.5539
154,-671,11.5029,55.7073,0,0,0,0,0,0,0,-1,1378,1695,11.503,-55.7072
161,-671,4.49292,4.91272,0,0,0,0,0,0,0,-1,1385,1695,4.49297,-4.91273
168,-671,5.17639,6.1416,0,0,0,0,0,0,0,-1,1392,1695,5.1764,-6.14164
175,-671,5.6731,1.64685,0,0,0,0,0,0,0,-1,1399,1695,5.67313,-1.64691
182,-671,5.56812,1.71692,0,0,0,0,0,0,0,-1,1406,1695,5.56809,-1.71686
189,-671,6.98315,6.36169,0,0,0,0,0,0,0,-1,1413,1695,6.98312,-6.36175
196,-671,5.38123,5.69775,0,0,0,0,0,0,0,-1,1420,1695,5.38125,-5.69769
203,-671,5.95117,8.11658,0,0,0,0,0,0,0,-1,1427,1695,5.9512,-8.11662
210,-671,4.73596,8.39624,0,0,0,0,0,0,0,-1,1434,1695,4.736,-8.39618
217,-671,5.37097,11.863,0,0,0,0,0,0,0,-1,1441,1695,5.37094,-11.863
224,-671,5.08167,13.6694,0,0,0,0,0,0,0,-1,1448,1695,5.08165,-13.6695
231,-671,5.66663,15.3348,0,0,0,0,0,0,0,-1,1455,1695,5.66667,-15.3349
238,-671,6.32959,16.2036,0,0,0,0,0,0,0,-1,1462,1695,6.32961,-16.2037
245,-671,11.6923,54.8376,0,0,0,0,0,0,0,-1,1469,1695,11.6922,-54.8377
252,-671,11.7327,54.2273,0,0,0,0,0,0,0,-1,1476,1695,11.7327,-54.2273
259,-671,11.5992,53.5604,0,0,0,0,0,0,0,-1,1483,1695,11.5993,-53.5605
266,-671,11.7552,53.3051,0.00762271,0.00640148,-0.0026594,0.00974069,0.00428349,-0.672552,0.00563738,0.0362886,1490,1695,11.7552,-53.305
273,-671,11.861,52.9265,0.00721685,0.0066954,-0.00273276,0.00970129,0.00421096,-0.737839,0.00561726,0.0115478,1497,1695,11.861,-52.9265
280,-671,11.8533,52.5087,0.00663592,0.00692047,-0.00272165,0.00950356,0.00405283,-0.811513,0.00550663,0.010554,1504,1695,11.8533,-52.5086
287,-671,11.8328,51.9801,0.00601145,0.00691184,-0.00266013,0.0091596,0.00376369,-0.869223,0.00531621,0.0126841,1511,1695,11.8327,-51.9801
294,-671,11.8634,51.5118,0.00549972,0.00688923,-0.00263736,0.00892182,0.00346714,-0.914186,0.00519344,0.0122904,1518,1695,11.8635,-51.5118
301,-671,11.8956,51.0803,0.00480862,0.00655193,-0.00249372,0.00832195,0.00303861,-0.95353,0.00486259,0.010807,1525,1695,11.8957,-51.0804
308,-671,11.906,50.6244,0.00407214,0.00637962,-0.00241767,0.00790473,0.00254703,-1.00802,0.00465897,0.0116533,1532,1695,11.9059,-50.6244
315,-671,11.9301,50.1671,0.0033833,0.00613264,-0.00230923,0.00744539,0.00207055,-1.05387,0.00443747,0.0128013,1539,1695,11.9301,-50.1671
322,-671,11.9343,49.6948,0.00271102,0.00593907,-0.00223416,0.00708123,0.00156886,-1.09821,0.00429448,0.0140757,1546,1695,11.9343,-49.6948
329,-671,11.8817,49.1973,0.00211612,0.00568656,-0.00221576,0.00674679,0.00105589,-1.1245,0.00419048,0.0134055,1553,1695,11.8817,-49.1973
336,-671,11.8715,48.668,0.00161822,0.00541146,-0.00216909,0.00639618,0.000633496,-1.14464,0.00406943,0.0117217,1560,1695,11.8715,-48.668
343,-671,11.895,48.1216,0.00121639,0.00529481,-0.00223323,0.00627978,0.000231415,-1.15541,0.00411155,0.0125681,1567,1695,11.895,-48.1216
350,-671,11.8867,47.6331,0.00108699,0.00535822,-0.00256318,0.00655888,-0.000113674,-1.13272,0.00441097,0.0141229,1574,1695,11.8867,-47.633
357,-671,11.8505,47.0403,0.00105828,0.0052247,-0.00291587,0.00672507,-0.000442093,-1.09557,0.00463778,0.0131637,1581,1695,11.8505,-47.0402
364,-671,11.8156,46.4818,0.00116892,0.00521236,-0.00333287,0.00708876,-0.00070748,-1.05803,0.00497845,0.0132141,1588,1695,11.8156,-46.4818
371,-671,11.7798,45.9854,0.00136257,0.00534177,-0.00388521,0.00771719,-0.00101285,-1.02204,0.00551351,0.0146262,1595,1695,11.7798,-45.9853
378,-671,11.7616,45.4492,0.00165483,0.00556491,-0.0045053,0.00852107,-0.00130133,-0.990108,0.00616048,0.0123307,1602,1695,11.7616,-45.4492
385,-671,11.7195,44.8921,0.00212093,0.0061434,-0.00516133,0.00967151,-0.00140718,-0.971185,0.00696428,0.0140886,1609,1695,11.7195,-44.8921
392,-671,11.6582,44.3501,0.00277455,0.00676202,-0.00618063,0.0112625,-0.00172595,-0.941418,0.00814486,0.0190828,1616,1695,11.6582,-44.3501
399,-671,11.6384,43.7605,0.00333008,0.00764758,-0.00719367,0.0129994,-0.00202177,-0.931168,0.00941287,0.0154327,1623,1695,11.6384,-43.7605
406,-671,11.6494,43.1643,0.00388876,0.00867113,-0.00812053,0.0147452,-0.00218532,-0.928582,0.0106337,0.0213393,1630,1695,11.6494,-43.1643
413,-671,11.6338,42.652,0.00446225,0.0101501,-0.00917144,0.0169084,-0.00229607,-0.935741,0.0121104,0.0333138,1637,1695,11.6337,-42.6519
420,-671,11.6832,42.0028,0,0,0,0,0,0,0,-1,1644,1695,11.6832,-42.0028
427,-671,11.2855,41.2355,0,0,0,0,0,0,0,-1,1651,1695,11.2855,-41.2355
434,-671,11.1063,40.4591,0,0,0,0,0,0,0,-1,1658,1695,11.1063,-40.4591
441,-671,12.0238,39.3538,0,0,0,0,0,0,0,-1,1665,1695,12.0239,-39.3537
448,-671,11.6979,39.1995,0,0,0,0,0,0,0,-1,1672,1695,11.6979,-39.1994
455,-671,11.5221,39.0929,0,0,0,0,0,0,0,-1,1679,1695,11.5221,-39.0929
462,-671,5.86255,4.47961,0,0,0,0,0,0,0,-1,1686,1695,5.8625,-4.4796
469,-671,3.71301,3.76978,0,0,0,0,0,0,0,-1,1693,1695,3.71297,-3.76974
476,-671,3.75574,3.18848,0,0,0,0,0,0,0,-1,1700,1695,3.7558,-3.18847
483,-671,7.81824,12.1041,0,0,0,0,0,0,0,-1,1707,1695,7.81826,-12.1041
490,-671,0,0,0,0,0,0,0,0,0,-1,1714,1695,0,0
497,-671,0,0,0,0,0,0,0,0,0,-1,1721,1695,0,0
504,-671,0,0,0,0,0,0,0,0,0,-1,1728,1695,0,0
511,-671,0,0,0,0,0,0,0,0,0,-1,1735,1695,0,0
518,-671,0,0,0,0,0,0,0,0,0,-1,1742,1695,0,0
525,-671,0,0,0,0,0,0,0,0,0,-1,1749,1695,0,0
532,-671,0,0,0,0,0,0,0,0,0,-1,1756,1695,0,0
539,-671,0,0,0,0,0,0,0,0,0,-1,1763,1695,0,0
546,-671,0,0,0,0,0,0,0,0,0,-1,1770,1695,0,0
553,-671,0,0,0,0,0,0,0,0,0,-1,1777,1695,0,0
560,-671,0,0,0,0,0,0,0,0,0,-1,1784,1695,0,0
567,-671,0,0,0,0,0,0,0,0,0,-1,1791,1695,0,0
574,-671,0,0,0,0,0,0,0,0,0,-1,1798,1695,0,0
581,-671,0,0,0,0,0,0,0,0,0,-1,1805,1695,0,0
588,-671,0,0,0,0,0,0,0,0,0,-1,1812,1695,0,0
595,-671,0,0,0,0,0,0,0,0,0,-1,1819,1695,0,0
602,-671,0,0,0,0,0,0,0,0,0,-1,1826,1695,0,0
609,-671,0,0,0,0,0,0,0,0,0,-1,1833,1695,0,0
616,-671,0,0,0,0,0,0,0,0,0,-1,1840,1695,0,0
623,-671,0,0,0,0,0,0,0,0,0,-1,1847,1695,0,0
630,-671,0,0,0,0,0,0,0,0,0,-1,1854,1695,0,0
637,-671,0,0,0,0,0,0,0,0,0,-1,1861,1695,0,0
644,-671,0,0,0,0,0,0,0,0,0,-1,1868,1695,0,0
651,-671,0,0,0,0,0,0,0,0,0,-1,1875,1695,0,0
658,-671,0,0,0,0,0,0,0,0,0,-1,1882,1695,0,0
665,-671,0,0,0,0,0,0,0,0,0,-1,1889,1695,0,0
672,-671,0,0,0,0,0,0,0,0,0,-1,1896,1695,0,0
679,-671,0,0,0,0,0,0,0,0,0,-1,1903,1695,0,0
686,-671,0,0,0,0,0,0,0,0,0,-1,1910,1695,0,0
693,-671,0,0,0,0,0,0,0,0,0,-1,1917,1695,0,0
700,-671,0,0,0,0,0,0,0,0,0,-1,1924,1695,0,0
707,-671,0,0,0,0,0,0,0,0,0,-1,1931,1695,0,0
714,-671,0,0,0,0,0,0,0,0,0,-1,1938,1695,0,0
721,-671,0,0,0,0,0,0,0,0,0,-1,1945,1695,0,0
728,-671,0,0,0,0,0,0,0,0,0,-1,1952,1695,0,0
735,-671,0,0,0,0,0,0,0,0,0,-1,1959,1695,0,0
742,-671,0,0,0,0,0,0,0,0,0,-1,1966,1695,0,0
749,-671,0,0,0,0,0,0,0,0,0,-1,1973,1695,0,0
756,-671,0,0,0,0,0,0,0,0,0,-1,1980,1695,0,0
763,-671,0,0,0,0,0,0,0,0,0,-1,1987,1695,0,0
770,-671,0,0,0,0,0,0,0,0,0,-1,1994,1695,0,0
777,-671,0,0,0,0,0,0,0,0,0,-1,2001,1695,0,0
784,-671,0,0,0,0,0,0,0,0,0,-1,2008,1695,0,0
791,-671,0,0,0,0,0,0,0,0,0,-1,2015,1695,0,0
798,-671,0,0,0,0,0,0,0,0,0,-1,2022,1695,0,0
805,-671,0,0,0,0,0,0,0,0,0,-1,2029,1695,0,0
812,-671,0,0,0,0,0,0,0,0,0,-1,2036,1695,0,0
-700,-678,0,0,0,0,0,0,0,0,0,-1,524,1702,0,0
-693,-678,0,0,0,0,0,0,0,0,0,-1,531,1702,0,0
-686,-678,0,0,0,0,0,0,0,0,0,-1,538,1702,0,0
-679,-678,0,0,0,0,0,0,0,0,0,-1,545,1702,0,0
-672,-678,0,0,0,0,0,0,0,0,0,-1,552,1702,0,0
-665,-678,0,0,0,0,0,0,0,0,0,-1,559,1702,0,0
-658,-678,0,0,0,0,0,0,0,0,0,-1,566,1702,0,0
-651,-678,0,0,0,0,0,0,0,0,0,-1,573,1702,0,0
-644,-678,0,0,0,0,0,0,0,0,0,-1,580,1702,0,0
-637,-678,0,0,0,0,0,0,0,0,0,-1,587,1702,0,0
-630,-678,0,0,0,0,0,0,0,0,0,-1,594,1702,0,0
-623,-678,0,0,0,0,0,0,0,0,0,-1,601,1702,0,0
-616,-678,0,0,0,0,0,0,0,0,0,-1,608,1702,0,0
-609,-678,0,0,0,0,0,0,0,0,0,-1,615,1702,0,0
-602,-678,0,0,0,0,0,0,0,0,0,-1,622,1702,0,0
-595,-678,0,0,0,0,0,0,0,0,0,-1,629,1702,0,0
-588,-678,0,0,0,0,0,0,0,0,0,-1,636,1702,0,0
-581,-678,0,0,0,0,0,0,0,0,0,-1,643,1702,0,0
-574,-678,0,0,0,0,0,0,0,0,0,-1,650,1702,0,0
-567,-678,0,0,0,0,0,0,0,0,0,-1,657,1702,0,0
-560,-678,0,0,0,0,0,0,0,0,0,-1,664,1702,0,0
-553,-678,0,0,0,0,0,0,0,0,0,-1,671,1702,0,0
-546,-678,0,0,0,0,0,0,0,0,0,-1,678,1702,0,0
-539,-678,0,0,0,0,0,0,0,0,0,-1,685,1702,0,0
-532,-678,0,0,0,0,0,0,0,0,0,-1,692,1702,0,0
-525,-678,0,0,0,0,0,0,0,0,0,-1,699,1702,0,0
-518,-678,0,0,0,0,0,0,0,0,0,-1,706,1702,0,0
-511,-678,0,0,0,0,0,0,0,0,0,-1,713,1702,0,0
-504,-678,0,0,0,0,0,0,0,0,0,-1,720,1702,0,0
-497,-678,0,0,0,0,0,0,0,0,0,-1,727,1702,0,0
-490,-678,0,0,0,0,0,0,0,0,0,-1,734,1702,0,0
-483,-678,0,0,0,0,0,0,0,0,0,-1,741,1702,0,0
-476,-678,0,0,0,0,0,0,0,0,0,-1,748,1702,0,0
-469,-678,0,0,0,0,0,0,0,0,0,-1,755,1702,0,0
-462,-678,0,0,0,0,0,0,0,0,0,-1,762,1702,0,0
-455,-678,0,0,0,0,0,0,0,0,0,-1,769,1702,0,0
-448,-678,0,0,0,0,0,0,0,0,0,-1,776,1702,0,0
-441,-678,0,0,0,0,0,0,0,0,0,-1,783,1702,0,0
-434,-678,0,0,0,0,0,0,0,0,0,-1,790,1702,0,0
-427,-678,0,0,0,0,0,0,0,0,0,-1,797,1702,0,0
-420,-678,0,0,0,0,0,0,0,0,0,-1,804,1702,0,0
-413,-678,0,0,0,0,0,0,0,0,0,-1,811,1702,0,0
-406,-678,0,0,0,0,0,0,0,0,0,-1,818,1702,0,0
-399,-678,0,0,0,0,0,0,0,0,0,-1,825,1702,0,0
-392,-678,0,0,0,0,0,0,0,0,0,-1,832,1702,0,0
-385,-678,0,0,0,0,0,0,0,0,0,-1,839,1702,0,0
-378,-678,0,0,0,0,0,0,0,0,0,-1,846,1702,0,0
-371,-678,0,0,0,0,0,0,0,0,0,-1,853,1702,0,0
-364,-678,0,0,0,0,0,0,0,0,0,-1,860,1702,0,0
-357,-678,0,0,0,0,0,0,0,0,0,-1,867,1702,0,0
-350,-678,-5.79944,6.11865,0,0,0,0,0,0,0,-1,874,1702,-5.79942,-6.11864
-343,-678,8.79578,34.4388,0,0,0,0,0,0,0,-1,881,1702,8.79579,-34.4388
-336,-678,9.06317,34.813,0,0,0,0,0,0,0,-1,888,1702,9.06318,-34.8129
-329,-678,8.68359,35.6151,0,0,0,0,0,0,0,-1,895,1702,8.68362,-35.6152
-322,-678,8.50494,35.5048,0,0,0,0,0,0,0,-1,902,1702,8.50495,-35.5047
-315,-678,7.95453,39.342,0,0,0,0,0,0,0,-1,909,1702,7.95455,-39.342
-308,-678,8.48486,39.9932,0,0,0,0,0,0,0,-1,916,1702,8.48485,-39.9932
-301,-678,8.66248,40.7397,0,0,0,0,0,0,0,-1,923,1702,8.66251,-40.7397
-294,-678,8.90649,41.312,0,0,0,0,0,0,0,-1,930,1702,8.9065,-41.312
-287,-678,7.43127,42.3291,0,0,0,0,0,0,0,-1,937,1702,7.43128,-42.3291
-280,-678,7.65192,43.4016,-0.0311631,0.00902527,-0.00177319,0.00910335,-0.0312412,-1.52679,0.0244339,0.0457881,944,1702,7.65191,-43.4016
-273,-678,7.39081,43.9164,-0.0272875,0.00817576,-0.0017041,0.00825746,-0.0273692,-1.52289,0.021533,0.0426171,951,1702,7.39081,-43.9164
-266,-678,6.04297,44.0728,0,0,0,0,0,0,0,-1,958,1702,6.04296,-44.0728
-259,-678,6.88062,44.739,-0.0194758,0.00586258,-0.0019336,0.00600929,-0.0196225,-1.49507,0.0154786,0.0230061,965,1702,6.88062,-44.739
-252,-678,6.90857,45.2841,-0.0155984,0.00523482,-0.000964365,0.00527937,-0.015643,-1.52464,0.0125638,0.018938,972,1702,6.90859,-45.2841
-245,-678,6.87305,45.8531,-0.0122638,0.00435783,0.000138335,0.00435898,-0.012265,1.56247,0.00995306,0.0189085,979,1702,6.87303,-45.8532
-238,-678,6.84564,46.4153,-0.00949067,0.00366379,0.000581517,0.00368945,-0.00951633,1.5267,0.00786787,0.0154622,986,1702,6.84562,-46.4153
-231,-678,6.79163,46.9559,-0.00729228,0.00301327,0.000677644,0.00305764,-0.00733665,1.50542,0.00616832,0.0127399,993,1702,6.79164,-46.956
-224,-678,6.72009,47.4777,-0.00457806,0.00311263,0.00133007,0.00333616,-0.00480159,1.40429,0.00472366,0.0127471,1000,1702,6.72007,-47.4777
-217,-678,6.69775,48.0452,-0.00337039,0.00165866,0.000814192,0.00178719,-0.00349892,1.41423,0.00310482,0.014709,1007,1702,6.69775,-48.0452
-210,-678,6.68091,48.6522,-0.00258823,0.00133579,0.000954803,0.00155578,-0.00280822,1.34434,0.00255391,0.0159767,1014,1702,6.68088,-48.6522
-203,-678,6.66125,49.1398,-0.00188344,0.00103886,0.00108617,0.00139835,-0.00224293,1.25117,0.00212106,0.0201541,1021,1702,6.66128,-49.1398
-196,-678,6.62244,49.6514,-0.00115368,0.000996805,0.00124079,0.00156342,-0.0017203,1.14242,0.00189658,0.0195159,1028,1702,6.62248,-49.6514
-189,-678,6.6062,50.1696,-0.000453707,0.00120829,0.00134561,0.00195881,-0.00120424,1.06201,0.00184343,0.0108392,1035,1702,6.60623,-50.1695
-182,-678,6.60693,50.6997,0.000216777,0.00146587,0.00134029,0.00231998,-0.000637336,1.00343,0.00179717,0.00987596,1042,1702,6.60688,-50.6997
-175,-678,6.58679,51.1892,0.00101501,0.0020309,0.00145076,0.00306007,-1.41654e-05,0.95379,0.00204478,0.0111328,1049,1702,6.58682,-51.1892
-168,-678,6.57532,51.6263,0.00163759,0.00296516,0.00160147,0.00403497,0.000567789,0.981863,0.00252211,0.0107959,1056,1702,6.57527,-51.6264
-161,-678,6.57349,52.0728,0.00213074,0.00389991,0.00169754,0.00492952,0.00110114,1.02559,0.00298772,0.00966594,1063,1702,6.57348,-52.0728
-154,-678,6.56848,52.5431,0.00267093,0.00488612,0.00176684,0.00586383,0.00169322,1.06537,0.00348474,0.00908387,1070,1702,6.56843,-52.5431
-147,-678,6.55676,53.0066,0.00331231,0.00588349,0.00181699,0.0068237,0.00237209,1.09328,0.00400018,0.0108219,1077,1702,6.55676,-53.0066
-140,-678,6.59839,53.4305,0.00396987,0.00670199,0.00181296,0.00760594,0.00306592,1.10827,0.0044187,0.0115983,1084,1702,6.59834,-53.4305
-133,-678,6.6311,53.829,0.0045799,0.00753078,0.00175635,0.00834918,0.0037615,1.13475,0.00482826,0.0133583,1091,1702,6.6311,-53.829
-126,-678,6.63892,54.2861,0.00522915,0.00802538,0.00154406,0.00871025,0.00454428,1.15332,0.00503045,0.0167132,1098,1702,6.63889,-54.2862
-119,-678,6.71387,55.083,0.00604997,0.00827648,0.00131583,0.00888681,0.00543964,1.1365,0.00517361,0.0499785,1105,1702,6.71388,-55.083
-112,-678,6.7876,55.8011,0,0,0,0,0,0,0,-1,1112,1702,6.78756,-55.8012
-105,-678,6.6825,55.4607,0,0,0,0,0,0,0,-1,1119,1702,6.6825,-55.4607
-98,-678,6.73999,55.9419,0,0,0,0,0,0,0,-1,1126,1702,6.73996,-55.9418
-91,-678,6.88477,56.0807,0,0,0,0,0,0,0,-1,1133,1702,6.88481,-56.0807
-84,-678,6.58545,36.5073,0,0,0,0,0,0,0,-1,1140,1702,6.58544,-36.5073
-77,-678,5.95154,29.1879,0,0,0,0,0,0,0,-1,1147,1702,5.95156,-29.1878
-70,-678,4.75891,19.6552,0,0,0,0,0,0,0,-1,1154,1702,4.75895,-19.6551
-63,-678,3.41687,11.0365,0,0,0,0,0,0,0,-1,1161,1702,3.41682,-11.0365
-56,-678,1.72388,6.13159,0,0,0,0,0,0,0,-1,1168,1702,1.72388,-6.13157
-49,-678,-0.241699,5.29895,0,0,0,0,0,0,0,-1,1175,1702,-0.241682,-5.29897
-42,-678,0.297119,3.90649,0,0,0,0,0,0,0,-1,1182,1702,0.297139,-3.90655
-35,-678,0.498413,3.64038,0,0,0,0,0,0,0,-1,1189,1702,0.498471,-3.64038
-28,-678,0.132446,3.55994,0,0,0,0,0,0,0,-1,1196,1702,0.132432,-3.55993
-21,-678,7.57532,57.8702,0,0,0,0,0,0,0,-1,1203,1702,7.5753,-57.8702
-14,-678,8.01672,58.5942,0,0,0,0,0,0,0,-1,1210,1702,8.01676,-58.5942
-7,-678,8.13086,58.9022,0.028903,-0.0304754,-0.0573031,0.0637513,-0.0653238,-0.546384,0.0745234,0.0467586,1217,1702,8.13083,-58.9022
0,-678,8.26868,59.2198,0.0265788,-0.0290477,-0.0591926,0.0641669,-0.0666358,-0.565768,0.0755235,0.0490114,1224,1702,8.2687,-59.2198
7,-678,7.46667,59.4767,0.0225233,-0.0273778,-0.0613665,0.0638176,-0.068672,-0.592314,0.07651,0.0444809,1231,1702,7.4667,-59.4767
14,-678,7.67175,59.464,0,0,0,0,0,0,0,-1,1238,1702,7.6717,-59.464
21,-678,12.4856,72.2157,0,0,0,0,0,0,0,-1,1245,1702,12.4856,-72.2157
28,-678,8.22986,60.1464,0,0,0,0,0,0,0,-1,1252,1702,8.22982,-60.1463
35,-678,15.2523,63.6771,0,0,0,0,0,0,0,-1,1259,1702,15.2524,-63.6771
42,-678,14.863,62.3649,0,0,0,0,0,0,0,-1,1266,1702,14.8631,-62.3649
49,-678,14.2109,61.8361,-0.0114099,-0.0172036,-0.0536018,0.0393733,-0.0679868,-0.758402,0.0627139,0.0463923,1273,1702,14.2109,-61.836
56,-678,12.694,62.3109,-0.0164521,-0.0169401,-0.0490821,0.0323866,-0.0657788,-0.782913,0.0577585,0.0445316,1280,1702,12.694,-62.3109
63,-678,11.8583,61.866,-0.0204966,-0.0168023,-0.0445314,0.0259203,-0.0632192,-0.806127,0.0529452,0.0470752,1287,1702,11.8583,-61.866
70,-678,10.0521,60.9081,0,0,0,0,0,0,0,-1,1294,1702,10.0521,-60.9081
77,-678,9.49402,60.4261,-0.0251871,-0.0171047,-0.0345005,0.0135905,-0.0558822,-0.843699,0.0425153,0.0453979,1301,1702,9.49404,-60.4261
84,-678,8.93152,59.9391,-0.0258902,-0.0176774,-0.0309925,0.00947953,-0.0530471,-0.851263,0.0389114,0.0434461,1308,1702,8.93153,-59.9391
91,-678,9.55981,59.321,0,0,0,0,0,0,0,-1,1315,1702,9.55978,-59.3211
98,-678,9.35754,59.2499,-0.0287864,-0.0167622,-0.0236695,0.00164678,-0.0471955,-0.909769,0.0320267,0.0411842,1322,1702,9.35752,-59.2499
105,-678,8.87244,58.8865,-0.029662,-0.0152208,-0.0216907,0.000419617,-0.0453023,-0.946074,0.0303424,0.0390134,1329,1702,8.87248,-58.8865
112,-678,8.85437,58.1654,-0.031099,-0.0124584,-0.0203023,0.000560736,-0.0441182,-1.00059,0.0296008,0.0411219,1336,1702,8.8544,-58.1654
119,-678,8.93188,57.4534,-0.0339132,-0.00946929,-0.0190901,0.000976127,-0.0443586,-1.07013,0.0299031,0.0439468,1343,1702,8.93194,-57.4534
126,-678,8.90161,56.847,0,0,0,0,0,0,0,-1,1350,1702,8.90157,-56.847
133,-678,8.88293,56.261,0,0,0,0,0,0,0,-1,1357,1702,8.88297,-56.261
140,-678,10.446,57.1479,0,0,0,0,0,0,0,-1,1364,1702,10.4461,-57.1479
147,-678,10.6184,56.8413,0,0,0,0,0,0,0,-1,1371,1702,10.6184,-56.8413
154,-678,10.3881,54.8787,0,0,0,0,0,0,0,-1,1378,1702,10.3881,-54.8787
161,-678,8.81226,34.8624,0,0,0,0,0,0,0,-1,1385,1702,8.81229,-34.8624
168,-678,4.21863,5.25781,0,0,0,0,0,0,0,-1,1392,1702,4.21865,-5.25781
175,-678,5.21899,5.9635,0,0,0,0,0,0,0,-1,1399,1702,5.21894,-5.96346
182,-678,7.31262,6.75122,0,0,0,0,0,0,0,-1,1406,1702,7.3126,-6.75123
189,-678,5.96021,6.36853,0,0,0,0,0,0,0,-1,1413,1702,5.96018,-6.36851
196,-678,5.01599,8.15771,0,0,0,0,0,0,0,-1,1420,1702,5.01596,-8.15767
203,-678,4.64771,13.0559,0,0,0,0,0,0,0,-1,1427,1702,4.64766,-13.0559
210,-678,5.6532,18.5957,0,0,0,0,0,0,0,-1,1434,1702,5.65318,-18.5958
217,-678,6.88049,23.4835,0,0,0,0,0,0,0,-1,1441,1702,6.88047,-23.4835
224,-678,8.521,32.0977,0,0,0,0,0,0,0,-1,1448,1702,8.52098,-32.0977
231,-678,9.96838,42.3734,0,0,0,0,0,0,0,-1,1455,1702,9.96844,-42.3734
238,-678,11.1892,55.2114,0,0,0,0,0,0,0,-1,1462,1702,11.1892,-55.2115
245,-678,11.2903,54.7306,0.0067848,0.00112836,-0.000369343,0.00680882,0.00110434,-0.0649286,0.00421955,0.0404424,1469,1702,11.2903,-54.7306
252,-678,11.3579,54.2153,0.00655871,0.00303718,-0.00112888,0.00688952,0.00270638,-0.285057,0.00400801,0.0210327,1476,1702,11.3579,-54.2153
259,-678,11.3689,53.8267,0.0061561,0.00365196,-0.00163029,0.00695964,0.00284842,-0.457936,0.00404014,0.0162237,1483,1702,11.3689,-53.8266
266,-678,11.4199,53.3672,0.00571219,0.00411272,-0.0019193,0.00699171,0.0028332,-0.587996,0.00406077,0.0131342,1490,1702,11.4199,-53.3672
273,-678,11.4357,52.9585,0.00534128,0.00445116,-0.00203128,0.00697568,0.00281676,-0.67755,0.00405219,0.0122311,1497,1702,11.4356,-52.9585
280,-678,11.4242,52.5348,0.00481609,0.00469258,-0.00207281,0.00682807,0.0026806,-0.770506,0.00397239,0.0125572,1504,1702,11.4242,-52.5348
287,-678,11.4395,52.0464,0.00426521,0.00476487,-0.00205262,0.0065828,0.00244728,-0.845957,0.00384202,0.0118008,1511,1702,11.4394,-52.0463
294,-678,11.4351,51.5753,0.00378834,0.00481177,-0.00204083,0.00640406,0.00219605,-0.908236,0.00375771,0.0122809,1518,1702,11.4351,-51.5753
301,-678,11.4209,51.1201,0.0031597,0.00468892,-0.00198622,0.00605262,0.001796,-0.969134,0.00358945,0.0121302,1525,1702,11.4208,-51.1201
308,-678,11.4254,50.6465,0.00251177,0.00473928,-0.00200049,0.00591515,0.0013359,-1.0394,0.00358215,0.0129231,1532,1702,11.4254,-50.6465
315,-678,11.4314,50.1816,0.00191079,0.00476116,-0.00195815,0.00575786,0.000914097,-1.09998,0.00357306,0.0138433,1539,1702,11.4314,-50.1817
322,-678,11.4064,49.7209,0.00134215,0.00483744,-0.00197116,0.00572413,0.000455456,-1.14808,0.00367369,0.0163936,1546,1702,11.4064,-49.721
329,-678,11.3649,49.2003,0.000826946,0.00492014,-0.00205103,0.005771,-2.39166e-05,-1.17756,0.00385533,0.0145025,1553,1702,11.3649,-49.2003
336,-678,11.3441,48.6611,0.000405034,0.00498553,-0.00211882,0.00581532,-0.000424754,-1.19753,0.00402594,0.0124276,1560,1702,11.3442,-48.6611
343,-678,11.3496,48.1422,0.000158414,0.00523683,-0.0023265,0.00614148,-0.000746238,-1.19994,0.00436438,0.0144051,1567,1702,11.3496,-48.1422
350,-678,11.3549,47.6302,0.000247671,0.00575466,-0.00286287,0.00697328,-0.000970955,-1.16836,0.00500401,0.0157705,1574,1702,11.3549,-47.6303
357,-678,11.3142,47.0957,0.000440089,0.0061377,-0.00345842,0.00776956,-0.00119177,-1.12992,0.00561925,0.0119945,1581,1702,11.3142,-47.0957
364,-678,11.2715,46.5596,0.000795029,0.00649398,-0.00411498,0.00864976,-0.00136075,-1.08822,0.00626951,0.0122715,1588,1702,11.2715,-46.5596
371,-678,11.2281,46.0234,0.00125479,0.00703655,-0.0049281,0.00985911,-0.00156776,-1.05066,0.00715283,0.0127147,1595,1702,11.2282,-46.0235
378,-678,11.2081,45.469,0.00184156,0.00768788,-0.00585532,0.0113092,-0.00177972,-1.01691,0.00819733,0.012543,1602,1702,11.2081,-45.469
385,-678,11.1813,44.9285,0.00264437,0.00878076,-0.00686098,0.0132283,-0.00180321,-0.995658,0.00947732,0.0126695,1609,1702,11.1812,-44.9285
392,-678,11.2058,44.4006,0.00370858,0.00990241,-0.00830013,0.0156646,-0.00205357,-0.963957,0.0111905,0.0217617,1616,1702,11.2058,-44.4006
399,-678,11.2565,43.7832,0.00474082,0.0113664,-0.00978919,0.0183882,-0.00228092,-0.948557,0.0130855,0.033493,1623,1702,11.2564,-43.7832
406,-678,11.2875,43.1072,0.00575771,0.012881,-0.01112,0.0209958,-0.00235713,-0.940381,0.0148454,0.0446109,1630,1702,11.2875,-43.1071
413,-678,11.089,42.7502,0,0,0,0,0,0,0,-1,1637,1702,11.089,-42.7502
420,-678,11.8551,41.2942,0,0,0,0,0,0,0,-1,1644,1702,11.8551,-41.2942
427,-678,10.0541,38.9548,0,0,0,0,0,0,0,-1,1651,1702,10.0541,-38.9548
434,-678,10.1094,38.722,0,0,0,0,0,0,0,-1,1658,1702,10.1094,-38.7221
441,-678,11.6007,39.4658,0,0,0,0,0,0,0,-1,1665,1702,11.6007,-39.4658
448,-678,11.344,38.9084,0,0,0,0,0,0,0,-1,1672,1702,11.344,-38.9084
455,-678,5.44678,5.54297,0,0,0,0,0,0,0,-1,1679,1702,5.44676,-5.54294
462,-678,3.86792,2.87402,0,0,0,0,0,0,0,-1,1686,1702,3.86796,-2.87406
469,-678,2.26587,1.98755,0,0,0,0,0,0,0,-1,1693,1702,2.26592,-1.98755
476,-678,0,0,0,0,0,0,0,0,0,-1,1700,1702,0,0
483,-678,0,0,0,0,0,0,0,0,0,-1,1707,1702,0,0
490,-678,0,0,0,0,0,0,0,0,0,-1,1714,1702,0,0
497,-678,0,0,0,0,0,0,0,0,0,-1,1721,1702,0,0
504,-678,0,0,0,0,0,0,0,0,0,-1,1728,1702,0,0
511,-678,0,0,0,0,0,0,0,0,0,-1,1735,1702,0,0
518,-678,0,0,0,0,0,0,0,0,0,-1,1742,1702,0,0
525,-678,0,0,0,0,0,0,0,0,0,-1,1749,1702,0,0
532,-678,0,0,0,0,0,0,0,0,0,-1,1756,1702,0,0
539,-678,0,0,0,0,0,0,0,0,0,-1,1763,1702,0,0
546,-678,0,0,0,0,0,0,0,0,0,-1,1770,1702,0,0
553,-678,0,0,0,0,0,0,0,0,0,-1,1777,1702,0,0
560,-678,0,0,0,0,0,0,0,0,0,-1,1784,1702,0,0
567,-678,0,0,0,0,0,0,0,0,0,-1,1791,1702,0,0
574,-678,0,0,0,0,0,0,0,0,0,-1,1798,1702,0,0
581,-678,0,0,0,0,0,0,0,0,0,-1,1805,1702,0,0
588,-678,0,0,0,0,0,0,0,0,0,-1,1812,1702,0,0
595,-678,0,0,0,0,0,0,0,0,0,-1,1819,1702,0,0
602,-678,0,0,0,0,0,0,0,0,0,-1,1826,1702,0,0
609,-678,0,0,0,0,0,0,0,0,0,-1,1833,1702,0,0
616,-678,0,0,0,0,0,0,0,0,0,-1,1840,1702,0,0
623,-678,0,0,0,0,0,0,0,0,0,-1,1847,1702,0,0
630,-678,0,0,0,0,0,0,0,0,0,-1,1854,1702,0,0
637,-678,0,0,0,0,0,0,0,0,0,-1,1861,1702,0,0
644,-678,0,0,0,0,0,0,0,0,0,-1,1868,1702,0,0
651,-678,0,0,0,0,0,0,0,0,0,-1,1875,1702,0,0
658,-678,0,0,0,0,0,0,0,0,0,-1,1882,1702,0,0
665,-678,0,0,0,0,0,0,0,0,0,-1,1889,1702,0,0
672,-678,0,0,0,0,0,0,0,0,0,-1,1896,1702,0,0
679,-678,0,0,0,0,0,0,0,0,0,-1,1903,1702,0,0
686,-678,0,0,0,0,0,0,0,0,0,-1,1910,1702,0,0
693,-678,0,0,0,0,0,0,0,0,0,-1,1917,1702,0,0
700,-678,0,0,0,0,0,0,0,0,0,-1,1924,1702,0,0
707,-678,0,0,0,0,0,0,0,0,0,-1,1931,1702,0,0
714,-678,0,0,0,0,0,0,0,0,0,-1,1938,1702,0,0
721,-678,0,0,0,0,0,0,0,0,0,-1,1945,1702,0,0
728,-678,0,0,0,0,0,0,0,0,0,-1,1952,1702,0,0
735,-678,0,0,0,0,0,0,0,0,0,-1,1959,1702,0,0
742,-678,0,0,0,0,0,0,0,0,0,-1,1966,1702,0,0
749,-678,0,0,0,0,0,0,0,0,0,-1,1973,1702,0,0
756,-678,0,0,0,0,0,0,0,0,0,-1,1980,1702,0,0
763,-678,0,0,0,0,0,0,0,0,0,-1,1987,1702,0,0
770,-678,0,0,0,0,0,0,0,0,0,-1,1994,1702,0,0
777,-678,0,0,0,0,0,0,0,0,0,-1,2001,1702,0,0
784,-678,0,0,0,0,0,0,0,0,0,-1,2008,1702,0,0
791,-678,0,0,0,0,0,0,0,0,0,-1,2015,1702,0,0
798,-678,0,0,0,0,0,0,0,0,0,-1,2022,1702,0,0
805,-678,0,0,0,0,0,0,0,0,0,-1,2029,1702,0,0
812,-678,0,0,0,0,0,0,0,0,0,-1,2036,1702,0,0
-700,-685,0,0,0,0,0,0,0,0,0,-1,524,1709,0,0
-693,-685,0,0,0,0,0,0,0,0,0,-1,531,1709,0,0
-686,-685,0,0,0,0,0,0,0,0,0,-1,538,1709,0,0
-679,-685,0,0,0,0,0,0,0,0,0,-1,545,1709,0,0
-672,-685,0,0,0,0,0,0,0,0,0,-1,552,1709,0,0
-665,-685,0,0,0,0,0,0,0,0,0,-1,559,1709,0,0
-658,-685,0,0,0,0,0,0,0,0,0,-1,566,1709,0,0
-651,-685,0,0,0,0,0,0,0,0,0,-1,573,1709,0,0
-644,-685,0,0,0,0,0,0,0,0,0,-1,580,1709,0,0
-637,-685,0,0,0,0,0,0,0,0,0,-1,587,1709,0,0
-630,-685,0,0,0,0,0,0,0,0,0,-1,594,1709,0,0
-623,-685,0,0,0,0,0,0,0,0,0,-1,601,1709,0,0
-616,-685,0,0,0,0,0,0,0,0,0,-1,608,1709,0,0
-609,-685,0,0,0,0,0,0,0,0,0,-1,615,1709,0,0
-602,-685,0,0,0,0,0,0,0,0,0,-1,622,1709,0,0
-595,-685,0,0,0,0,0,0,0,0,0,-1,629,1709,0,0
-588,-685,0,0,0,0,0,0,0,0,0,-1,636,1709,0,0
-581,-685,0,0,0,0,0,0,0,0,0,-1,643,1709,0,0
-574,-685,0,0,0,0,0,0,0,0,0,-1,650,1709,0,0
-567,-685,0,0,0,0,0,0,0,0,0,-1,657,1709,0,0
-560,-685,0,0,0,0,0,0,0,0,0,-1,664,1709,0,0
-553,-685,0,0,0,0,0,0,0,0,0,-1,671,1709,0,0
-546,-685,0,0,0,0,0,0,0,0,0,-1,678,1709,0,0
-539,-685,0,0,0,0,0,0,0,0,0,-1,685,1709,0,0
-532,-685,0,0,0,0,0,0,0,0,0,-1,692,1709,0,0
-525,-685,0,0,0,0,0,0,0,0,0,-1,699,1709,0,0
-518,-685,0,0,0,0,0,0,0,0,0,-1,706,1709,0,0
-511,-685,0,0,0,0,0,0,0,0,0,-1,713,1709,0,0
-504,-685,0,0,0,0,0,0,0,0,0,-1,720,1709,0,0
-497,-685,0,0,0,0,0,0,0,0,0,-1,727,1709,0,0
-490,-685,0,0,0,0,0,0,0,0,0,-1,734,1709,0,0
-483,-685,0,0,0,0,0,0,0,0,0,-1,741,1709,0,0
-476,-685,0,0,0,0,0,0,0,0,0,-1,748,1709,0,0
-469,-685,0,0,0,0,0,0,0,0,0,-1,755,1709,0,0
-462,-685,0,0,0,0,0,0,0,0,0,-1,762,1709,0,0
-455,-685,0,0,0,0,0,0,0,0,0,-1,769,1709,0,0
-448,-685,0,0,0,0,0,0,0,0,0,-1,776,1709,0,0
-441,-685,0,0,0,0,0,0,0,0,0,-1,783,1709,0,0
-434,-685,0,0,0,0,0,0,0,0,0,-1,790,1709,0,0
-427,-685,0,0,0,0,0,0,0,0,0,-1,797,1709,0,0
-420,-685,0,0,0,0,0,0,0,0,0,-1,804,1709,0,0
-413,-685,0,0,0,0,0,0,0,0,0,-1,811,1709,0,0
-406,-685,0,0,0,0,0,0,0,0,0,-1,818,1709,0,0
-399,-685,0,0,0,0,0,0,0,0,0,-1,825,1709,0,0
-392,-685,0,0,0,0,0,0,0,0,0,-1,832,1709,0,0
-385,-685,0,0,0,0,0,0,0,0,0,-1,839,1709,0,0
-378,-685,0,0,0,0,0,0,0,0,0,-1,846,1709,0,0
-371,-685,0,0,0,0,0,0,0,0,0,-1,853,1709,0,0
-364,-685,0,0,0,0,0,0,0,0,0,-1,860,1709,0,0
-357,-685,0,0,0,0,0,0,0,0,0,-1,867,1709,0,0
-350,-685,0,0,0,0,0,0,0,0,0,-1,874,1709,0,0
-343,-685,-5.98505,6.56335,0,0,0,0,0,0,0,-1,881,1709,-5.98505,-6.56329
-336,-685,-6.51312,5.10571,0,0,0,0,0,0,0,-1,888,1709,-6.51311,-5.10575
-329,-685,9.98907,36.2474,0,0,0,0,0,0,0,-1,895,1709,9.98909,-36.2475
-322,-685,3.83191,16.7219,0,0,0,0,0,0,0,-1,902,1709,3.8319,-16.7219
-315,-685,5.15784,21.4388,0,0,0,0,0,0,0,-1,909,1709,5.15783,-21.4389
-308,-685,9.5943,40.3096,0,0,0,0,0,0,0,-1,916,1709,9.5943,-40.3095
-301,-685,9.84204,40.6484,0,0,0,0,0,0,0,-1,923,1709,9.84203,-40.6484
-294,-685,10.7231,42.4034,0,0,0,0,0,0,0,-1,930,1709,10.7231,-42.4034
-287,-685,8.49493,43.4645,0,0,0,0,0,0,0,-1,937,1709,8.49496,-43.4645
-280,-685,8.31256,43.9773,-0.0443981,0.0128035,-0.00328901,0.012992,-0.0445866,-1.51355,0.0348714,0.0495688,944,1709,8.31256,-43.9773
-273,-685,6.22974,42.9927,-0.0384397,0.0117939,-0.00275973,0.011945,-0.0385908,-1.51608,0.0304988,0.0472523,951,1709,6.22971,-42.9927
-266,-685,7.0578,43.8317,0,0,0,0,0,0,0,-1,958,1709,7.05778,-43.8317
-259,-685,7.58856,44.521,-0.0268656,0.00843662,-0.00245305,0.00860625,-0.0270352,-1.50175,0.021475,0.0440183,965,1709,7.58856,-44.521
-252,-685,7.5589,45.2061,-0.0213883,0.00734529,-0.00114754,0.00739105,-0.0214341,-1.53094,0.017288,0.0400136,972,1709,7.55891,-45.2061
-245,-685,7.5224,45.8347,-0.0168383,0.00595473,0.000216915,0.00595679,-0.0168403,1.56128,0.0136527,0.0371462,979,1709,7.52239,-45.8347
-238,-685,7.44189,46.447,-0.013154,0.00489627,0.000792978,0.00493104,-0.0131888,1.52698,0.0108175,0.0280935,986,1709,7.44189,-46.447
-231,-685,7.33862,47.0117,-0.0102637,0.00385684,0.000869223,0.00391015,-0.010317,1.50955,0.00848716,0.0180923,993,1709,7.33865,-47.0117
-224,-685,7.25049,47.5187,-0.00671698,0.00386037,0.00163364,0.00410693,-0.00696354,1.421,0.00646208,0.0156087,1000,1709,7.25047,-47.5187
-217,-685,7.2204,48.0994,-0.00521189,0.00189962,0.000873742,0.0020054,-0.00531767,1.45032,0.00436976,0.01245,1007,1709,7.22041,-48.0993
-210,-685,7.20239,48.677,-0.00425729,0.00144447,0.000952306,0.00159932,-0.00441214,1.4096,0.00359513,0.0171439,1014,1709,7.20238,-48.6771
-203,-685,7.17725,49.1652,-0.00344928,0.00110196,0.00098483,0.00130592,-0.00365325,1.36658,0.00296816,0.0166597,1021,1709,7.17719,-49.1651
-196,-685,7.13171,49.6718,-0.0026138,0.00103945,0.00101146,0.00130079,-0.00287514,1.31795,0.00246743,0.0142008,1028,1709,7.13166,-49.6718
-189,-685,7.10132,50.1697,-0.00178586,0.00122034,0.00102798,0.00153825,-0.00210376,1.27088,0.00211115,0.00931463,1035,1709,7.10126,-50.1696
-182,-685,7.08154,50.693,-0.000998548,0.00135266,0.000957641,0.00169334,-0.00133923,1.22901,0.00175483,0.0134695,1042,1709,7.08151,-50.693
-175,-685,7.06873,51.1964,-0.000116612,0.00183903,0.00101598,0.0022713,-0.00054888,1.16853,0.00172649,0.014344,1049,1709,7.06875,-51.1964
-168,-685,7.05859,51.6552,0.000539994,0.00263354,0.00112916,0.00312648,4.70509e-05,1.15918,0.00206882,0.0110287,1056,1709,7.05859,-51.6552
-161,-685,7.07068,52.1151,0.00102816,0.00341015,0.00122258,0.00392595,0.000512355,1.17155,0.00246433,0.0117611,1063,1709,7.07064,-52.1151
-154,-685,7.05103,52.5873,0.00154318,0.00415862,0.00128201,0.0046822,0.00101959,1.18306,0.00284321,0.0108458,1070,1709,7.05097,-52.5873
-147,-685,7.02417,53.0305,0.00215227,0.00485633,0.00133395,0.00540361,0.00160498,1.18146,0.00320432,0.00996141,1077,1709,7.02422,-53.0306
-140,-685,7.0459,53.4296,0.00278775,0.00538224,0.00134352,0.00595259,0.0022174,1.16934,0.00347377,0.0118485,1084,1709,7.04594,-53.4296
-133,-685,7.0575,53.8411,0.00338986,0.00582787,0.00135218,0.0064294,0.00278832,1.15222,0.00372288,0.0118867,1091,1709,7.05749,-53.8411
-126,-685,7.06787,54.2742,0.00398532,0.00604226,0.00125405,0.00663564,0.00339194,1.12884,0.00383141,0.0104176,1098,1709,7.06784,-54.2742
-119,-685,7.09534,54.6758,0.00464982,0.00609642,0.00111251,0.00670009,0.00404615,1.07364,0.00389603,0.0144098,1105,1709,7.09536,-54.6758
-112,-685,7.09534,55.056,0.00523689,0.00588269,0.000929309,0.0065436,0.00457598,0.952603,0.0038767,0.0145815,1112,1709,7.09535,-55.0561
-105,-685,7.07983,55.4412,0.00556104,0.005379,0.000758715,0.00623418,0.00470587,0.725699,0.00375191,0.0165758,1119,1709,7.07988,-55.4412
-98,-685,7.17908,55.7645,0.00566124,0.00504166,0.000383806,0.00584468,0.00485822,0.445856,0.00361281,0.0232353,1126,1709,7.17902,-55.7645
-91,-685,7.22668,55.9791,0.00605379,0.00453702,-0.000315395,0.00611676,0.00447405,-0.197059,0.00365545,0.045264,1133,1709,7.22665,-55.9791
-84,-685,7.25464,56.3641,0,0,0,0,0,0,0,-1,1140,1709,7.25468,-56.3642
-77,-685,7.23621,56.8271,0,0,0,0,0,0,0,-1,1147,1709,7.23625,-56.8272
-70,-685,7.42932,57.4397,0,0,0,0,0,0,0,-1,1154,1709,7.4293,-57.4397
-63,-685,6.03015,29.7728,0,0,0,0,0,0,0,-1,1161,1709,6.0302,-29.7728
-56,-685,3.93909,15.8704,0,0,0,0,0,0,0,-1,1168,1709,3.93905,-15.8704
-49,-685,3.07471,9.86011,0,0,0,0,0,0,0,-1,1175,1709,3.07467,-9.86009
-42,-685,2.70618,7.54504,0,0,0,0,0,0,0,-1,1182,1709,2.7062,-7.54504
-35,-685,2.95264,7.91516,0,0,0,0,0,0,0,-1,1189,1709,2.95262,-7.91517
-28,-685,8.11353,52.4509,0,0,0,0,0,0,0,-1,1196,1709,8.1135,-52.451
-21,-685,7.93835,58.5876,0,0,0,0,0,0,0,-1,1203,1709,7.9384,-58.5877
-14,-685,8.0365,58.7164,0.0214074,-0.0216416,-0.0385421,0.0440281,-0.0442623,-0.530738,0.0509746,0.0318155,1210,1709,8.03646,-58.7164
-7,-685,8.07751,58.9346,0.0207215,-0.0207691,-0.0416339,0.0464923,-0.0465399,-0.554263,0.0537122,0.0467278,1217,1709,8.07755,-58.9346
0,-685,7.71277,59.1967,0,0,0,0,0,0,0,-1,1224,1709,7.71274,-59.1966
7,-685,7.974,59.3324,0,0,0,0,0,0,0,-1,1231,1709,7.97397,-59.3324
14,-685,8.31799,59.7495,0,0,0,0,0,0,0,-1,1238,1709,8.31803,-59.7495
21,-685,8.67896,59.8427,0,0,0,0,0,0,0,-1,1245,1709,8.67901,-59.8427
28,-685,8.67236,59.6738,0,0,0,0,0,0,0,-1,1252,1709,8.67234,-59.6738
35,-685,8.66187,59.6841,0,0,0,0,0,0,0,-1,1259,1709,8.66188,-59.684
42,-685,8.77466,60.0703,0,0,0,0,0,0,0,-1,1266,1709,8.77472,-60.0703
49,-685,8.9574,60.0552,0,0,0,0,0,0,0,-1,1273,1709,8.95734,-60.0552
56,-685,12.936,62.8488,0,0,0,0,0,0,0,-1,1280,1709,12.9361,-62.8488
63,-685,12.0989,62.0902,0,0,0,0,0,0,0,-1,1287,1709,12.0989,-62.0902
70,-685,9.29871,60.3689,0,0,0,0,0,0,0,-1,1294,1709,9.29869,-60.3689
77,-685,9.547,60.2632,0,0,0,0,0,0,0,-1,1301,1709,9.54706,-60.2632
84,-685,9.37512,59.2656,0,0,0,0,0,0,0,-1,1308,1709,9.37517,-59.2656
91,-685,9.50232,59.2588,-0.0228571,-0.0163524,-0.0226496,0.00327713,-0.0424867,-0.856708,0.0294776,0.0459026,1315,1709,9.50236,-59.2588
98,-685,9.42786,59.2075,-0.0235585,-0.016168,-0.0197718,0.00025087,-0.0399774,-0.87778,0.0267356,0.0391839,1322,1709,9.42788,-59.2075
105,-685,9.43005,59.1847,0,0,0,0,0,0,0,-1,1329,1709,9.43011,-59.1847
112,-685,9.57104,59.1099,0,0,0,0,0,0,0,-1,1336,1709,9.57099,-59.1098
119,-685,9.77686,58.9879,0,0,0,0,0,0,0,-1,1343,1709,9.77682,-58.9879
126,-685,10.061,58.8119,0,0,0,0,0,0,0,-1,1350,1709,10.061,-58.8119
133,-685,10.2866,58.7648,0,0,0,0,0,0,0,-1,1357,1709,10.2866,-58.7648
140,-685,10.1581,58.8158,0,0,0,0,0,0,0,-1,1364,1709,10.1581,-58.8158
147,-685,10.2471,57.4418,0,0,0,0,0,0,0,-1,1371,1709,10.2471,-57.4417
154,-685,10.0796,56.0078,0,0,0,0,0,0,0,-1,1378,1709,10.0796,-56.0079
161,-685,10.4932,55.8827,0,0,0,0,0,0,0,-1,1385,1709,10.4932,-55.8827
168,-685,4.37524,10.8778,0,0,0,0,0,0,0,-1,1392,1709,4.37525,-10.8778
175,-685,3.97522,8.94324,0,0,0,0,0,0,0,-1,1399,1709,3.97519,-8.94328
182,-685,3.98218,9.19739,0,0,0,0,0,0,0,-1,1406,1709,3.98221,-9.1974
189,-685,4.53479,15.2343,0,0,0,0,0,0,0,-1,1413,1709,4.53474,-15.2343
196,-685,10.6565,57.3048,0,0,0,0,0,0,0,-1,1420,1709,10.6565,-57.3048
203,-685,10.7322,56.8146,0,0,0,0,0,0,0,-1,1427,1709,10.7322,-56.8146
210,-685,11.0215,56.3928,0,0,0,0,0,0,0,-1,1434,1709,11.0215,-56.3928
217,-685,10.8872,55.9346,0,0,0,0,0,0,0,-1,1441,1709,10.8872,-55.9346
224,-685,10.783,55.6493,0,0,0,0,0,0,0,-1,1448,1709,10.783,-55.6493
231,-685,10.7683,55.658,0,0,0,0,0,0,0,-1,1455,1709,10.7683,-55.6579
238,-685,10.9038,54.9993,0.00539952,0.000500021,-1.8476e-05,0.00539959,0.000499951,-0.00377094,0.00344519,0.0363024,1462,1709,10.9038,-54.9993
245,-685,10.8921,54.5845,0.00505982,0.000948408,-0.000388668,0.00509624,0.000911989,-0.0934311,0.00313799,0.0212851,1469,1709,10.8921,-54.5845
252,-685,10.9536,54.223,0.00478287,0.00212202,-0.000929705,0.00507552,0.00182936,-0.304961,0.00296817,0.0148017,1476,1709,10.9536,-54.223
259,-685,10.9885,53.8149,0.00439084,0.00256561,-0.00131105,0.00507563,0.00188082,-0.481348,0.00296297,0.0103761,1483,1709,10.9885,-53.8149
266,-685,11.0089,53.3817,0.00398483,0.00288354,-0.00155504,0.00508384,0.00178452,-0.615235,0.00297827,0.0129518,1490,1709,11.0089,-53.3817
273,-685,11.0046,52.9551,0.0036266,0.00314867,-0.00166317,0.00506789,0.00170738,-0.714047,0.00297738,0.0155036,1497,1709,11.0046,-52.955
280,-685,10.9801,52.5212,0.00313023,0.0033294,-0.00172553,0.00495821,0.00150141,-0.814222,0.00293589,0.0168343,1504,1709,10.9801,-52.5213
287,-685,10.9796,52.0701,0.00263199,0.0034284,-0.00172629,0.00480181,0.00125857,-0.89875,0.00287503,0.0125464,1511,1709,10.9796,-52.0701
294,-685,10.9717,51.6205,0.00216473,0.00350271,-0.00170119,0.00466173,0.00100572,-0.972735,0.00283273,0.0106721,1518,1709,10.9716,-51.6204
301,-685,10.9559,51.1597,0.00157873,0.00356988,-0.00171884,0.00456065,0.000587954,-1.0479,0.00286463,0.0134339,1525,1709,10.9559,-51.1597
308,-685,10.9594,50.6727,0.000993354,0.00385408,-0.00182535,0.00474273,0.0001047,-1.11773,0.00312751,0.0146133,1532,1709,10.9594,-50.6727
315,-685,10.9629,50.2032,0.000461345,0.00415068,-0.00185428,0.00492157,-0.000309547,-1.1768,0.00338894,0.012868,1539,1709,10.9629,-50.2033
322,-685,10.9272,49.7074,-5.93911e-06,0.00453829,-0.00197514,0.00527677,-0.000744418,-1.213,0.00379043,0.0208762,1546,1709,10.9273,-49.7073
329,-685,10.8701,49.2026,-0.000437094,0.00499309,-0.00217059,0.00575409,-0.00119809,-1.23359,0.00429153,0.0191747,1553,1709,10.8701,-49.2027
336,-685,10.8469,48.6627,-0.000776111,0.00545595,-0.00237874,0.00626013,-0.00158029,-1.24479,0.00478792,0.013565,1560,1709,10.847,-48.6628
343,-685,10.8342,48.1526,-0.000856869,0.00614486,-0.0027566,0.00709988,-0.00181188,-1.23729,0.00543876,0.0126355,1567,1709,10.8343,-48.1526
350,-685,10.7958,47.6438,-0.00052532,0.00719293,-0.00351901,0.00855648,-0.00188887,-1.20113,0.00642714,0.0133799,1574,1709,10.7958,-47.6438
357,-685,10.7755,47.144,-6.00681e-05,0.00817839,-0.00439156,0.0100803,-0.00196195,-1.1621,0.00746066,0.0112856,1581,1709,10.7755,-47.144
364,-685,10.7567,46.6222,0.000614098,0.00900992,-0.00533896,0.0116037,-0.00197968,-1.11856,0.00847313,0.0120902,1588,1709,10.7567,-46.6222
371,-685,10.7449,46.0636,0.00143402,0.0100586,-0.00645481,0.013509,-0.00201645,-1.07989,0.00974795,0.0213245,1595,1709,10.7449,-46.0637
378,-685,10.7727,45.4677,0.00242557,0.0112155,-0.00774709,0.0157275,-0.00208638,-1.04341,0.0112451,0.0244829,1602,1709,10.7727,-45.4676
385,-685,10.682,44.8864,0.00369379,0.0129063,-0.00918456,0.0185749,-0.00197487,-1.01783,0.0130913,0.0353253,1609,1709,10.682,-44.8863
392,-685,10.7744,44.1549,0.00532198,0.0146162,-0.0111467,0.0220457,-0.00210751,-0.982895,0.0154476,0.0371632,1616,1709,10.7745,-44.1549
399,-685,11.0883,43.3448,0.00682018,0.0164689,-0.0130551,0.0255625,-0.00227349,-0.962384,0.0178479,0.0430252,1623,1709,11.0882,-43.3448
406,-685,10.9194,43.0819,0,0,0,0,0,0,0,-1,1630,1709,10.9194,-43.0819
413,-685,10.8662,42.3104,0,0,0,0,0,0,0,-1,1637,1709,10.8662,-42.3105
420,-685,10.3047,40.3569,0,0,0,0,0,0,0,-1,1644,1709,10.3047,-40.3569
427,-685,10.7286,38.6702,0,0,0,0,0,0,0,-1,1651,1709,10.7286,-38.6702
434,-685,4.87769,8.91418,0,0,0,0,0,0,0,-1,1658,1709,4.87768,-8.91413
441,-685,5.62,8.75549,0,0,0,0,0,0,0,-1,1665,1709,5.61996,-8.75545
448,-685,6.4043,8.58972,0,0,0,0,0,0,0,-1,1672,1709,6.40435,-8.58971
455,-685,2.31958,4.09802,0,0,0,0,0,0,0,-1,1679,1709,2.31957,-4.09803
462,-685,0,0,0,0,0,0,0,0,0,-1,1686,1709,0,0
469,-685,0,0,0,0,0,0,0,0,0,-1,1693,1709,0,0
476,-685,0,0,0,0,0,0,0,0,0,-1,1700,1709,0,0
483,-685,0,0,0,0,0,0,0,0,0,-1,1707,1709,0,0
490,-685,0,0,0,0,0,0,0,0,0,-1,1714,1709,0,0
497,-685,0,0,0,0,0,0,0,0,0,-1,1721,1709,0,0
504,-685,0,0,0,0,0,0,0,0,0,-1,1728,1709,0,0
511,-685,0,0,0,0,0,0,0,0,0,-1,1735,1709,0,0
518,-685,0,0,0,0,0,0,0,0,0,-1,1742,1709,0,0
525,-685,0,0,0,0,0,0,0,0,0,-1,1749,1709,0,0
532,-685,0,0,0,0,0,0,0,0,0,-1,1756,1709,0,0
539,-685,0,0,0,0,0,0,0,0,0,-1,1763,1709,0,0
546,-685,0,0,0,0,0,0,0,0,0,-1,1770,1709,0,0
553,-685,0,0,0,0,0,0,0,0,0,-1,1777,1709,0,0
560,-685,0,0,0,0,0,0,0,0,0,-1,1784,1709,0,0
567,-685,0,0,0,0,0,0,0,0,0,-1,1791,1709,0,0
574,-685,0,0,0,0,0,0,0,0,0,-1,1798,1709,0,0
581,-685,0,0,0,0,0,0,0,0,0,-1,1805,1709,0,0
588,-685,0,0,0,0,0,0,0,0,0,-1,1812,1709,0,0
595,-685,0,0,0,0,0,0,0,0,0,-1,1819,1709,0,0
602,-685,0,0,0,0,0,0,0,0,0,-1,1826,1709,0,0
609,-685,0,0,0,0,0,0,0,0,0,-1,1833,1709,0,0
616,-685,0,0,0,0,0,0,0,0,0,-1,1840,1709,0,0
623,-685,0,0,0,0,0,0,0,0,0,-1,1847,1709,0,0
630,-685,0,0,0,0,0,0,0,0,0,-1,1854,1709,0,0
637,-685,0,0,0,0,0,0,0,0,0,-1,1861,1709,0,0
644,-685,0,0,0,0,0,0,0,0,0,-1,1868,1709,0,0
651,-685,0,0,0,0,0,0,0,0,0,-1,1875,1709,0,0
658,-685,0,0,0,0,0,0,0,0,0,-1,1882,1709,0,0
665,-685,0,0,0,0,0,0,0,0,0,-1,1889,1709,0,0
672,-685,0,0,0,0,0,0,0,0,0,-1,1896,1709,0,0
679,-685,0,0,0,0,0,0,0,0,0,-1,1903,1709,0,0
686,-685,0,0,0,0,0,0,0,0,0,-1,1910,1709,0,0
693,-685,0,0,0,0,0,0,0,0,0,-1,1917,1709,0,0
700,-685,0,0,0,0,0,0,0,0,0,-1,1924,1709,0,0
707,-685,0,0,0,0,0,0,0,0,0,-1,1931,1709,0,0
714,-685,0,0,0,0,0,0,0,0,0,-1,1938,1709,0,0
721,-685,0,0,0,0,0,0,0,0,0,-1,1945,1709,0,0
728,-685,0,0,0,0,0,0,0,0,0,-1,1952,1709,0,0
735,-685,0,0,0,0,0,0,0,0,0,-1,1959,1709,0,0
742,-685,0,0,0,0,0,0,0,0,0,-1,1966,1709,0,0
749,-685,0,0,0,0,0,0,0,0,0,-1,1973,1709,0,0
756,-685,0,0,0,0,0,0,0,0,0,-1,1980,1709,0,0
763,-685,0,0,0,0,0,0,0,0,0,-1,1987,1709,0,0
770,-685,0,0,0,0,0,0,0,0,0,-1,1994,1709,0,0
777,-685,0,0,0,0,0,0,0,0,0,-1,2001,1709,0,0
784,-685,0,0,0,0,0,0,0,0,0,-1,2008,1709,0,0
791,-685,0,0,0,0,0,0,0,0,0,-1,2015,1709,0,0
798,-685,0,0,0,0,0,0,0,0,0,-1,2022,1709,0,0
805,-685,0,0,0,0,0,0,0,0,0,-1,2029,1709,0,0
812,-685,0,0,0,0,0,0,0,0,0,-1,2036,1709,0,0
-700,-692,0,0,0,0,0,0,0,0,0,-1,524,1716,0,0
-693,-692,0,0,0,0,0,0,0,0,0,-1,531,1716,0,0
-686,-692,0,0,0,0,0,0,0,0,0,-1,538,1716,0,0
-679,-692,0,0,0,0,0,0,0,0,0,-1,545,1716,0,0
-672,-692,0,0,0,0,0,0,0,0,0,-1,552,1716,0,0
-665,-692,0,0,0,0,0,0,0,0,0,-1,559,1716,0,0
-658,-692,0,0,0,0,0,0,0,0,0,-1,566,1716,0,0
-651,-692,0,0,0,0,0,0,0,0,0,-1,573,1716,0,0
-644,-692,0,0,0,0,0,0,0,0,0,-1,580,1716,0,0
-637,-692,0,0,0,0,0,0,0,0,0,-1,587,1716,0,0
-630,-692,0,0,0,0,0,0,0,0,0,-1,594,1716,0,0
-623,-692,0,0,0,0,0,0,0,0,0,-1,601,1716,0,0
-616,-692,0,0,0,0,0,0,0,0,0,-1,608,1716,0,0
-609,-692,0,0,0,0,0,0,0,0,0,-1,615,1716,0,0
-602,-692,0,0,0,0,0,0,0,0,0,-1,622,1716,0,0
-595,-692,0,0,0,0,0,0,0,0,0,-1,629,1716,0,0
-588,-692,0,0,0,0,0,0,0,0,0,-1,636,1716,0,0
-581,-692,0,0,0,0,0,0,0,0,0,-1,643,1716,0,0
-574,-692,0,0,0,0,0,0,0,0,0,-1,650,1716,0,0
-567,-692,0,0,0,0,0,0,0,0,0,-1,657,1716,0,0
-560,-692,0,0,0,0,0,0,0,0,0,-1,664,1716,0,0
-553,-692,0,0,0,0,0,0,0,0,0,-1,671,1716,0,0
-546,-692,0,0,0,0,0,0,0,0,0,-1,678,1716,0,0
-539,-692,0,0,0,0,0,0,0,0,0,-1,685,1716,0,0
-532,-692,0,0,0,0,0,0,0,0,0,-1,692,1716,0,0
-525,-692,0,0,0,0,0,0,0,0,0,-1,699,1716,0,0
-518,-692,0,0,0,0,0,0,0,0,0,-1,706,1716,0,0
-511,-692,0,0,0,0,0,0,0,0,0,-1,713,1716,0,0
-504,-692,0,0,0,0,0,0,0,0,0,-1,720,1716,0,0
-497,-692,0,0,0,0,0,0,0,0,0,-1,727,1716,0,0
-490,-692,0,0,0,0,0,0,0,0,0,-1,734,1716,0,0
-483,-692,0,0,0,0,0,0,0,0,0,-1,741,1716,0,0
-476,-692,0,0,0,0,0,0,0,0,0,-1,748,1716,0,0
-469,-692,0,0,0,0,0,0,0,0,0,-1,755,1716,0,0
-462,-692,0,0,0,0,0,0,0,0,0,-1,762,1716,0,0
-455,-692,0,0,0,0,0,0,0,0,0,-1,769,1716,0,0
-448,-692,0,0,0,0,0,0,0,0,0,-1,776,1716,0,0
-441,-692,0,0,0,0,0,0,0,0,0,-1,783,1716,0,0
-434,-692,0,0,0,0,0,0,0,0,0,-1,790,1716,0,0
-427,-692,0,0,0,0,0,0,0,0,0,-1,797,1716,0,0
-420,-692,0,0,0,0,0,0,0,0,0,-1,804,1716,0,0
-413,-692,0,0,0,0,0,0,0,0,0,-1,811,1716,0,0
-406,-692,0,0,0,0,0,0,0,0,0,-1,818,1716,0,0
-399,-692,0,0,0,0,0,0,0,0,0,-1,825,1716,0,0
-392,-692,0,0,0,0,0,0,0,0,0,-1,832,1716,0,0
-385,-692,0,0,0,0,0,0,0,0,0,-1,839,1716,0,0
-378,-692,0,0,0,0,0,0,0,0,0,-1,846,1716,0,0
-371,-692,0,0,0,0,0,0,0,0,0,-1,853,1716,0,0
-364,-692,0,0,0,0,0,0,0,0,0,-1,860,1716,0,0
-357,-692,0,0,0,0,0,0,0,0,0,-1,867,1716,0,0
-350,-692,0,0,0,0,0,0,0,0,0,-1,874,1716,0,0
-343,-692,0,0,0,0,0,0,0,0,0,-1,881,1716,0,0
-336,-692,0,0,0,0,0,0,0,0,0,-1,888,1716,0,0
-329,-692,3.03107,4.10266,0,0,0,0,0,0,0,-1,895,1716,3.03105,-4.10267
-322,-692,4.43713,18.5242,0,0,0,0,0,0,0,-1,902,1716,4.43711,-18.5241
-315,-692,5.38965,17.975,0,0,0,0,0,0,0,-1,909,1716,5.38963,-17.975
-308,-692,5.86938,17.4392,0,0,0,0,0,0,0,-1,916,1716,5.86937,-17.4392
-301,-692,12.015,41.2892,0,0,0,0,0,0,0,-1,923,1716,12.015,-41.2892
-294,-692,8.41125,35.4742,0,0,0,0,0,0,0,-1,930,1716,8.41125,-35.4742
-287,-692,11.6848,42.9779,0,0,0,0,0,0,0,-1,937,1716,11.6847,-42.9779
-280,-692,8.97406,44.4323,0,0,0,0,0,0,0,-1,944,1716,8.97405,-44.4323
-273,-692,7.20062,42.7711,0,0,0,0,0,0,0,-1,951,1716,7.20062,-42.7711
-266,-692,8.07263,43.5906,0,0,0,0,0,0,0,-1,958,1716,8.07261,-43.5906
-259,-692,8.35529,44.3425,0,0,0,0,0,0,0,-1,965,1716,8.35526,-44.3425
-252,-692,8.18842,45.0914,0,0,0,0,0,0,0,-1,972,1716,8.18843,-45.0914
-245,-692,8.28137,45.6666,0,0,0,0,0,0,0,-1,979,1716,8.28139,-45.6667
-238,-692,8.27942,46.0713,-0.0176756,0.00653547,0.000976728,0.00657481,-0.0177149,1.53054,0.014507,0.0450382,986,1716,8.27941,-46.0713
-231,-692,8.06854,47.0688,-0.0137909,0.00492935,0.00107053,0.00499036,-0.0138519,1.51386,0.0112725,0.0409012,993,1716,8.06855,-47.0688
-224,-692,7.77515,47.5999,-0.00913583,0.00476155,0.00203379,0.00505307,-0.00942735,1.42843,0.00848647,0.0202233,1000,1716,7.77517,-47.5999
-217,-692,7.7182,48.1071,-0.00724664,0.00216199,0.00106274,0.00228054,-0.00736519,1.45971,0.00582116,0.0135528,1007,1716,7.7182,-48.107
-210,-692,7.70203,48.6425,-0.00608128,0.00153908,0.00114529,0.00170748,-0.00624969,1.4248,0.00483714,0.0150784,1014,1716,7.70204,-48.6425
-203,-692,7.68481,49.1583,-0.0051542,0.0011332,0.0011342,0.00133154,-0.00535254,1.39767,0.00408519,0.0163781,1021,1716,7.68483,-49.1584
-196,-692,7.63269,49.6885,-0.00422668,0.00103607,0.00108787,0.00125207,-0.00444269,1.37478,0.00345561,0.0178784,1028,1716,7.63273,-49.6885
-189,-692,7.5752,50.1825,-0.00329997,0.00118051,0.00106712,0.00142169,-0.00354115,1.34853,0.00295111,0.00933778,1035,1716,7.57524,-50.1825
-182,-692,7.54248,50.6984,-0.0024323,0.00119216,0.000966229,0.00143365,-0.00267379,1.32588,0.0024072,0.0144008,1042,1716,7.54253,-50.6984
-175,-692,7.51147,51.2192,-0.0015119,0.00160573,0.000987694,0.0018923,-0.00179847,1.28841,0.0021311,0.0157847,1049,1716,7.51145,-51.2192
-168,-692,7.53162,51.674,-0.000863825,0.00226702,0.00106439,0.0025946,-0.00119141,1.27223,0.00223534,0.0121501,1056,1716,7.53157,-51.674
-161,-692,7.54358,52.1399,-0.000398687,0.00294003,0.00115157,0.00329869,-0.000757351,1.26886,0.00249027,0.0142576,1063,1716,7.5436,-52.1399
-154,-692,7.51367,52.6295,7.66256e-05,0.00351069,0.00118928,0.00388234,-0.000295024,1.26791,0.00269196,0.0153004,1070,1716,7.51368,-52.6295
-147,-692,7.48645,53.0505,0.000652266,0.00397918,0.00122453,0.00438129,0.000250154,1.25351,0.00284115,0.0145422,1077,1716,7.4865,-53.0506
-140,-692,7.45105,53.4564,0.00127497,0.00429612,0.00122837,0.00473252,0.000838566,1.22943,0.00291597,0.0111674,1084,1716,7.45108,-53.4564
-133,-692,7.45667,53.8687,0.00186923,0.00447891,0.00124344,0.0049765,0.00137164,1.19014,0.00296805,0.010238,1091,1716,7.45663,-53.8687
-126,-692,7.4718,54.2732,0.00243885,0.00453839,0.0012009,0.00508367,0.00189358,1.14457,0.00296671,0.0086687,1098,1716,7.47178,-54.2731
-119,-692,7.45544,54.676,0.00304696,0.00447347,0.00109821,0.00506972,0.00245071,1.0734,0.00292754,0.0128414,1105,1716,7.45548,-54.6761
-112,-692,7.47424,55.0815,0.00361116,0.00423688,0.000936033,0.00491096,0.00293708,0.946683,0.00285346,0.0120439,1112,1716,7.47419,-55.0816
-105,-692,7.49377,55.4548,0.00398825,0.00380766,0.00074254,0.00464596,0.00314994,0.724894,0.00273842,0.0166562,1119,1716,7.49372,-55.4548
-98,-692,7.5791,55.7747,0.00423295,0.00343842,0.00044216,0.0044301,0.00324127,0.419413,0.00264764,0.0183671,1126,1716,7.57907,-55.7747
-91,-692,7.57678,56.1016,0.00463342,0.00305208,-5.02495e-05,0.00463502,0.00305049,-0.0317338,0.00272028,0.0200453,1133,1716,7.57673,-56.1016
-84,-692,7.62195,56.4347,0.00534878,0.00246894,-0.000319423,0.00538378,0.00243394,-0.109149,0.00311308,0.0235113,1140,1716,7.62189,-56.4347
-77,-692,7.60376,56.8246,0.00617643,0.00155198,-0.000473767,0.00622447,0.00150394,-0.10105,0.00375024,0.0189676,1147,1716,7.60374,-56.8246
-70,-692,7.66846,57.2091,0.00642036,0.000719603,-0.00102368,0.00659861,0.000541353,-0.172397,0.00423018,0.0369426,1154,1716,7.66846,-57.2091
-63,-692,7.78882,57.5488,0,0,0,0,0,0,0,-1,1161,1716,7.78887,-57.5489
-56,-692,7.70361,57.6128,0,0,0,0,0,0,0,-1,1168,1716,7.70362,-57.6128
-49,-692,7.70911,57.9657,0,0,0,0,0,0,0,-1,1175,1716,7.70913,-57.9657
-42,-692,7.73608,58.4607,0,0,0,0,0,0,0,-1,1182,1716,7.73614,-58.4607
-35,-692,7.97644,58.6604,0,0,0,0,0,0,0,-1,1189,1716,7.97645,-58.6604
-28,-692,8.05872,58.6903,0,0,0,0,0,0,0,-1,1196,1716,8.05873,-58.6903
-21,-692,8.08838,58.689,0.014496,-0.0120412,-0.0193562,0.0246948,-0.02224,-0.484936,0.0271102,0.0366085,1203,1716,8.08832,-58.689
-14,-692,8.16821,58.8422,0.0143017,-0.0133949,-0.0224057,0.0267933,-0.0258865,-0.508598,0.0304162,0.0186958,1210,1716,8.16823,-58.8422
-7,-692,8.16211,59.0518,0.013786,-0.0126601,-0.0259087,0.0296509,-0.028525,-0.549443,0.03359,0.0176011,1217,1716,8.16211,-59.0518
0,-692,8.21277,59.2125,0.0115985,-0.0118343,-0.0287938,0.0309683,-0.0312042,-0.592175,0.0358954,0.0242405,1224,1716,8.21282,-59.2126
7,-692,8.33765,59.2787,0.00838839,-0.0114233,-0.0314792,0.0314835,-0.0345185,-0.632963,0.0381197,0.0326944,1231,1716,8.33759,-59.2787
14,-692,8.49658,59.5743,0.00466202,-0.0114975,-0.033774,0.0313093,-0.0381448,-0.66799,0.040164,0.035862,1238,1716,8.49657,-59.5744
21,-692,8.62036,59.6815,0.000875873,-0.0108366,-0.035298,0.0308001,-0.0407609,-0.703193,0.0414489,0.0326531,1245,1716,8.62032,-59.6815
28,-692,8.66064,59.637,-0.00331047,-0.010284,-0.0355539,0.0289272,-0.0425217,-0.73652,0.0414992,0.0341314,1252,1716,8.66066,-59.637
35,-692,8.70361,59.7043,-0.00751975,-0.0100217,-0.0354282,0.0266795,-0.044221,-0.76775,0.04135,0.0328626,1259,1716,8.70355,-59.7043
42,-692,8.80322,59.9054,-0.011153,-0.0102539,-0.0346291,0.0239285,-0.0453355,-0.791889,0.0406213,0.0305031,1266,1716,8.80316,-59.9054
49,-692,8.92896,59.9388,-0.0144783,-0.010693,-0.0331499,0.0206183,-0.0457896,-0.813914,0.0392479,0.0399665,1273,1716,8.9289,-59.9388
56,-692,9.0448,59.8724,0,0,0,0,0,0,0,-1,1280,1716,9.04482,-59.8725
63,-692,9.03418,59.8938,0,0,0,0,0,0,0,-1,1287,1716,9.03419,-59.8938
70,-692,9.15466,60.0482,-0.020463,-0.0129972,-0.0255381,0.00907936,-0.0425395,-0.85797,0.0318209,0.0429682,1294,1716,9.15462,-60.0482
77,-692,9.33875,60.0092,-0.0205828,-0.0137079,-0.0227049,0.00581831,-0.040109,-0.860527,0.0288748,0.0490055,1301,1716,9.3388,-60.0092
84,-692,9.3241,59.7404,0,0,0,0,0,0,0,-1,1308,1716,9.32404,-59.7403
91,-692,9.39197,59.4956,-0.0189274,-0.0144611,-0.0182924,0.00173399,-0.0351224,-0.846138,0.0240138,0.0491687,1315,1716,9.39199,-59.4956
98,-692,9.42151,59.4691,-0.0186155,-0.0146325,-0.0160852,-0.000416005,-0.032832,-0.846989,0.0217507,0.0359026,1322,1716,9.42149,-59.4691
105,-692,9.44824,59.4058,-0.017662,-0.0138726,-0.0148273,-0.000819462,-0.0307152,-0.848946,0.0202092,0.0438358,1329,1716,9.44821,-59.4057
112,-692,9.5802,59.3105,-0.0170729,-0.0120477,-0.0138243,-0.000509505,-0.0286111,-0.875294,0.0189065,0.0492247,1336,1716,9.58018,-59.3105
119,-692,9.68494,59.1549,-0.0172749,-0.00969492,-0.012766,-0.000168176,-0.0268017,-0.929695,0.017812,0.0430665,1343,1716,9.68495,-59.1549
126,-692,9.85364,58.9915,-0.0179734,-0.0077262,-0.0118251,3.75481e-05,-0.0257371,-0.989831,0.0171706,0.0437179,1350,1716,9.85365,-58.9914
133,-692,9.99451,58.9154,-0.0187165,-0.00550497,-0.010538,0.000326531,-0.024548,-1.06536,0.0164752,0.032334,1357,1716,9.9945,-58.9154
140,-692,9.92371,58.9143,-0.0193466,-0.00324494,-0.00890275,0.00070735,-0.0232989,-1.15299,0.0157737,0.0352046,1364,1716,9.92371,-58.9143
147,-692,9.82019,58.9261,0,0,0,0,0,0,0,-1,1371,1716,9.82014,-58.9262
154,-692,9.92883,56.0276,0,0,0,0,0,0,0,-1,1378,1716,9.92887,-56.0276
161,-692,9.88562,58.2206,0,0,0,0,0,0,0,-1,1385,1716,9.88556,-58.2206
168,-692,10.2354,58.1589,0,0,0,0,0,0,0,-1,1392,1716,10.2353,-58.159
175,-692,10.3926,57.8865,0,0,0,0,0,0,0,-1,1399,1716,10.3926,-57.8864
182,-692,10.338,57.6146,0,0,0,0,0,0,0,-1,1406,1716,10.338,-57.6146
189,-692,10.4117,57.3672,0,0,0,0,0,0,0,-1,1413,1716,10.4117,-57.3672
196,-692,10.3424,57.0056,0.000428759,0.00116147,0.00339953,0.00421433,-0.0026241,0.839074,0.00398359,0.0387292,1420,1716,10.3424,-57.0056
203,-692,10.3898,56.7025,0.00587673,0.000110255,0.00194746,0.00647281,-0.000485825,0.297026,0.00448593,0.0263676,1427,1716,10.3897,-56.7025
210,-692,10.5415,56.4043,0.00546779,0.000142131,0.0014845,0.00585363,-0.000243709,0.254287,0.00398614,0.0215489,1434,1716,10.5415,-56.4044
217,-692,10.5029,56.0332,0.00512119,9.74542e-05,0.00108818,0.00534677,-0.000128126,0.204405,0.00360798,0.0184306,1441,1716,10.503,-56.0332
224,-692,10.4821,55.7023,0.0047052,0.000238872,0.000689364,0.00480918,0.000134891,0.149707,0.00316212,0.0143358,1448,1716,10.4821,-55.7023
231,-692,10.5022,55.3647,0.00416409,0.000519081,0.000179404,0.0041729,0.000510272,0.0490611,0.00262841,0.0122051,1455,1716,10.5022,-55.3648
238,-692,10.5033,54.9496,0.00379626,0.000731044,-0.000270091,0.00381987,0.000707427,-0.0872193,0.00234659,0.0184798,1462,1716,10.5033,-54.9495
245,-692,10.499,54.5757,0.00345691,0.00107209,-0.000588865,0.00359439,0.00093461,-0.229355,0.00215343,0.0210678,1469,1716,10.499,-54.5756
252,-692,10.5485,54.2334,0.00314296,0.00177383,-0.000967842,0.00364387,0.00127292,-0.47759,0.00213539,0.0177704,1476,1716,10.5485,-54.2334
259,-692,10.5562,53.8354,0.00275736,0.00209244,-0.00123983,0.00370853,0.00114127,-0.654406,0.00219325,0.00950216,1483,1716,10.5562,-53.8355
266,-692,10.5464,53.4061,0.00238359,0.00230532,-0.00144181,0.0037868,0.000902118,-0.77183,0.002284,0.0106234,1490,1716,10.5464,-53.4062
273,-692,10.5488,52.9801,0.00204023,0.00252097,-0.00154658,0.00384575,0.000715453,-0.862492,0.00236175,0.0153146,1497,1716,10.5488,-52.9801
280,-692,10.5471,52.5251,0.00157317,0.00264686,-0.00162261,0.00381913,0.000400899,-0.945155,0.00242353,0.0144067,1504,1716,10.5472,-52.5251
287,-692,10.5375,52.0916,0.00111521,0.00277218,-0.0016339,0.00377564,0.000111746,-1.02004,0.00248068,0.0119477,1511,1716,10.5375,-52.0915
294,-692,10.5157,51.6561,0.000696495,0.00294218,-0.00163989,0.00380681,-0.00016813,-1.08559,0.00259573,0.0111233,1518,1716,10.5158,-51.6561
301,-692,10.5071,51.1978,0.000173068,0.0032219,-0.00174191,0.00401225,-0.000617275,-1.14485,0.00290255,0.0144584,1525,1716,10.5071,-51.1978
308,-692,10.4919,50.7305,-0.000356755,0.00376998,-0.00194732,0.00454378,-0.00113056,-1.19256,0.00346802,0.0183322,1532,1716,10.492,-50.7305
315,-692,10.4879,50.2495,-0.000837565,0.0043662,-0.00205502,0.00507987,-0.00155124,-1.23654,0.00400508,0.0171625,1539,1716,10.488,-50.2496
322,-692,10.476,49.738,-0.00122106,0.00510373,-0.00229273,0.0058474,-0.00196473,-1.25714,0.00469235,0.0217203,1546,1716,10.4759,-49.738
329,-692,10.3978,49.2122,-0.00159293,0.0059815,-0.00260509,0.00679096,-0.0024024,-1.26953,0.00550569,0.0181084,1553,1716,10.3979,-49.2122
336,-692,10.3591,48.6929,-0.00188314,0.00690949,-0.00295954,0.00781284,-0.00278649,-1.27455,0.00634474,0.0122455,1560,1716,10.3591,-48.6929
343,-692,10.3552,48.2167,-0.00184602,0.00810673,-0.00350707,0.00921836,-0.00295765,-1.26384,0.00733305,0.013434,1567,1716,10.3552,-48.2167
350,-692,10.2808,47.7233,-0.0013164,0.00974985,-0.00447653,0.0113339,-0.00290049,-1.23068,0.00868575,0.016656,1574,1716,10.2808,-47.7233
357,-692,10.2078,47.0952,-0.000585487,0.0114105,-0.00562825,0.0136376,-0.00281265,-1.19399,0.0101599,0.0272188,1581,1716,10.2077,-47.0952
364,-692,10.2017,46.4431,0.000426134,0.0128025,-0.00689255,0.0158772,-0.00264856,-1.1512,0.0115691,0.0340091,1588,1716,10.2017,-46.4431
371,-692,10.3151,45.9589,0.00165632,0.014437,-0.00833297,0.0185479,-0.00245451,-1.11251,0.0132594,0.041588,1595,1716,10.3151,-45.9589
378,-692,10.282,45.3806,0.00314867,0.0161814,-0.0100513,0.0216439,-0.00231379,-1.07299,0.0152591,0.0490962,1602,1716,10.282,-45.3806
385,-692,10.1735,44.8339,0,0,0,0,0,0,0,-1,1609,1716,10.1735,-44.8339
392,-692,10.251,43.8933,0,0,0,0,0,0,0,-1,1616,1716,10.2509,-43.8933
399,-692,10.7598,43.0066,0,0,0,0,0,0,0,-1,1623,1716,10.7598,-43.0066
406,-692,11.3221,42.7773,0,0,0,0,0,0,0,-1,1630,1716,11.3222,-42.7773
413,-692,11.4845,42.9004,0,0,0,0,0,0,0,-1,1637,1716,11.4845,-42.9004
420,-692,9.65894,40.2512,0,0,0,0,0,0,0,-1,1644,1716,9.65889,-40.2513
427,-692,3.79578,8.60339,0,0,0,0,0,0,0,-1,1651,1716,3.79577,-8.6034
434,-692,4.78516,8.64636,0,0,0,0,0,0,0,-1,1658,1716,4.78512,-8.64634
441,-692,5.8208,8.74036,0,0,0,0,0,0,0,-1,1665,1716,5.82084,-8.7404
448,-692,6.73792,8.51013,0,0,0,0,0,0,0,-1,1672,1716,6.73793,-8.5101
455,-692,0,0,0,0,0,0,0,0,0,-1,1679,1716,0,0
462,-692,0,0,0,0,0,0,0,0,0,-1,1686,1716,0,0
469,-692,0,0,0,0,0,0,0,0,0,-1,1693,1716,0,0
476,-692,0,0,0,0,0,0,0,0,0,-1,1700,1716,0,0
483,-692,0,0,0,0,0,0,0,0,0,-1,1707,1716,0,0
490,-692,0,0,0,0,0,0,0,0,0,-1,1714,1716,0,0
497,-692,0,0,0,0,0,0,0,0,0,-1,1721,1716,0,0
504,-692,0,0,0,0,0,0,0,0,0,-1,1728,1716,0,0
511,-692,0,0,0,0,0,0,0,0,0,-1,1735,1716,0,0
518,-692,0,0,0,0,0,0,0,0,0,-1,1742,1716,0,0
525,-692,0,0,0,0,0,0,0,0,0,-1,1749,1716,0,0
532,-692,0,0,0,0,0,0,0,0,0,-1,1756,1716,0,0
539,-692,0,0,0,0,0,0,0,0,0,-1,1763,1716,0,0
546,-692,0,0,0,0,0,0,0,0,0,-1,1770,1716,0,0
553,-692,0,0,0,0,0,0,0,0,0,-1,1777,1716,0,0
560,-692,0,0,0,0,0,0,0,0,0,-1,1784,1716,0,0
567,-692,0,0,0,0,0,0,0,0,0,-1,1791,1716,0,0
574,-692,0,0,0,0,0,0,0,0,0,-1,1798,1716,0,0
581,-692,0,0,0,0,0,0,0,0,0,-1,1805,1716,0,0
588,-692,0,0,0,0,0,0,0,0,0,-1,1812,1716,0,0
595,-692,0,0,0,0,0,0,0,0,0,-1,1819,1716,0,0
602,-692,0,0,0,0,0,0,0,0,0,-1,1826,1716,0,0
609,-692,0,0,0,0,0,0,0,0,0,-1,1833,1716,0,0
616,-692,0,0,0,0,0,0,0,0,0,-1,1840,1716,0,0
623,-692,0,0,0,0,0,0,0,0,0,-1,1847,1716,0,0
630,-692,0,0,0,0,0,0,0,0,0,-1,1854,1716,0,0
637,-692,0,0,0,0,0,0,0,0,0,-1,1861,1716,0,0
644,-692,0,0,0,0,0,0,0,0,0,-1,1868,1716,0,0
651,-692,0,0,0,0,0,0,0,0,0,-1,1875,1716,0,0
658,-692,0,0,0,0,0,0,0,0,0,-1,1882,1716,0,0
665,-692,0,0,0,0,0,0,0,0,0,-1,1889,1716,0,0
672,-692,0,0,0,0,0,0,0,0,0,-1,1896,1716,0,0
679,-692,0,0,0,0,0,0,0,0,0,-1,1903,1716,0,0
686,-692,0,0,0,0,0,0,0,0,0,-1,1910,1716,0,0
693,-692,0,0,0,0,0,0,0,0,0,-1,1917,1716,0,0
700,-692,0,0,0,0,0,0,0,0,0,-1,1924,1716,0,0
707,-692,0,0,0,0,0,0,0,0,0,-1,1931,1716,0,0
714,-692,0,0,0,0,0,0,0,0,0,-1,1938,1716,0,0
721,-692,0,0,0,0,0,0,0,0,0,-1,1945,1716,0,0
728,-692,0,0,0,0,0,0,0,0,0,-1,1952,1716,0,0
735,-692,0,0,0,0,0,0,0,0,0,-1,1959,1716,0,0
742,-692,0,0,0,0,0,0,0,0,0,-1,1966,1716,0,0
749,-692,0,0,0,0,0,0,0,0,0,-1,1973,1716,0,0
756,-692,0,0,0,0,0,0,0,0,0,-1,1980,1716,0,0
763,-692,0,0,0,0,0,0,0,0,0,-1,1987,1716,0,0
770,-692,0,0,0,0,0,0,0,0,0,-1,1994,1716,0,0
777,-692,0,0,0,0,0,0,0,0,0,-1,2001,1716,0,0
784,-692,0,0,0,0,0,0,0,0,0,-1,2008,1716,0,0
791,-692,0,0,0,0,0,0,0,0,0,-1,2015,1716,0,0
798,-692,0,0,0,0,0,0,0,0,0,-1,2022,1716,0,0
805,-692,0,0,0,0,0,0,0,0,0,-1,2029,1716,0,0
812,-692,0,0,0,0,0,0,0,0,0,-1,2036,1716,0,0
-700,-699,0,0,0,0,0,0,0,0,0,-1,524,1723,0,0
-693,-699,0,0,0,0,0,0,0,0,0,-1,531,1723,0,0
-686,-699,0,0,0,0,0,0,0,0,0,-1,538,1723,0,0
-679,-699,0,0,0,0,0,0,0,0,0,-1,545,1723,0,0
-672,-699,0,0,0,0,0,0,0,0,0,-1,552,1723,0,0
-665,-699,0,0,0,0,0,0,0,0,0,-1,559,1723,0,0
-658,-699,0,0,0,0,0,0,0,0,0,-1,566,1723,0,0
-651,-699,0,0,0,0,0,0,0,0,0,-1,573,1723,0,0
-644,-699,0,0,0,0,0,0,0,0,0,-1,580,1723,0,0
-637,-699,0,0,0,0,0,0,0,0,0,-1,587,1723,0,0
-630,-699,0,0,0,0,0,0,0,0,0,-1,594,1723,0,0
-623,-699,0,0,0,0,0,0,0,0,0,-1,601,1723,0,0
-616,-699,0,0,0,0,0,0,0,0,0,-1,608,1723,0,0
-609,-699,0,0,0,0,0,0,0,0,0,-1,615,1723,0,0
-602,-699,0,0,0,0,0,0,0,0,0,-1,622,1723,0,0
-595,-699,0,0,0,0,0,0,0,0,0,-1,629,1723,0,0
-588,-699,0,0,0,0,0,0,0,0,0,-1,636,1723,0,0
-581,-699,0,0,0,0,0,0,0,0,0,-1,643,1723,0,0
-574,-699,0,0,0,0,0,0,0,0,0,-1,650,1723,0,0
-567,-699,0,0,0,0,0,0,0,0,0,-1,657,1723,0,0
-560,-699,0,0,0,0,0,0,0,0,0,-1,664,1723,0,0
-553,-699,0,0,0,0,0,0,0,0,0,-1,671,1723,0,0
-546,-699,0,0,0,0,0,0,0,0,0,-1,678,1723,0,0
-539,-699,0,0,0,0,0,0,0,0,0,-1,685,1723,0,0
-532,-699,0,0,0,0,0,0,0,0,0,-1,692,1723,0,0
-525,-699,0,0,0,0,0,0,0,0,0,-1,699,1723,0,0
-518,-699,0,0,0,0,0,0,0,0,0,-1,706,1723,0,0
-511,-699,0,0,0,0,0,0,0,0,0,-1,713,1723,0,0
-504,-699,0,0,0,0,0,0,0,0,0,-1,720,1723,0,0
-497,-699,0,0,0,0,0,0,0,0,0,-1,727,1723,0,0
-490,-699,0,0,0,0,0,0,0,0,0,-1,734,1723,0,0
-483,-699,0,0,0,0,0,0,0,0,0,-1,741,1723,0,0
-476,-699,0,0,0,0,0,0,0,0,0,-1,748,1723,0,0
-469,-699,0,0,0,0,0,0,0,0,0,-1,755,1723,0,0
-462,-699,0,0,0,0,0,0,0,0,0,-1,762,1723,0,0
-455,-699,0,0,0,0,0,0,0,0,0,-1,769,1723,0,0
-448,-699,0,0,0,0,0,0,0,0,0,-1,776,1723,0,0
-441,-699,0,0,0,0,0,0,0,0,0,-1,783,1723,0,0
-434,-699,0,0,0,0,0,0,0,0,0,-1,790,1723,0,0
-427,-699,0,0,0,0,0,0,0,0,0,-1,797,1723,0,0
-420,-699,0,0,0,0,0,0,0,0,0,-1,804,1723,0,0
-413,-699,0,0,0,0,0,0,0,0,0,-1,811,1723,0,0
-406,-699,0,0,0,0,0,0,0,0,0,-1,818,1723,0,0
-399,-699,0,0,0,0,0,0,0,0,0,-1,825,1723,0,0
-392,-699,0,0,0,0,0,0,0,0,0,-1,832,1723,0,0
-385,-699,0,0,0,0,0,0,0,0,0,-1,839,1723,0,0
-378,-699,0,0,0,0,0,0,0,0,0,-1,846,1723,0,0
-371,-699,0,0,0,0,0,0,0,0,0,-1,853,1723,0,0
-364,-699,0,0,0,0,0,0,0,0,0,-1,860,1723,0,0
-357,-699,0,0,0,0,0,0,0,0,0,-1,867,1723,0,0
-350,-699,0,0,0,0,0,0,0,0,0,-1,874,1723,0,0
-343,-699,0,0,0,0,0,0,0,0,0,-1,881,1723,0,0
-336,-699,0,0,0,0,0,0,0,0,0,-1,888,1723,0,0
-329,-699,0,0,0,0,0,0,0,0,0,-1,895,1723,0,0
-322,-699,0,0,0,0,0,0,0,0,0,-1,902,1723,0,0
-315,-699,6.20001,19.5193,0,0,0,0,0,0,0,-1,909,1723,6.20001,-19.5193
-308,-699,6.98151,18.9218,0,0,0,0,0,0,0,-1,916,1723,6.98151,-18.9217
-301,-699,4.72729,12.8752,0,0,0,0,0,0,0,-1,923,1723,4.72732,-12.8752
-294,-699,6.90332,19.8601,0,0,0,0,0,0,0,-1,930,1723,6.90332,-19.8601
-287,-699,9.0968,36.3315,0,0,0,0,0,0,0,-1,937,1723,9.09678,-36.3315
-280,-699,11.921,44.2709,0,0,0,0,0,0,0,-1,944,1723,11.9209,-44.2709
-273,-699,10.2987,33.8755,0,0,0,0,0,0,0,-1,951,1723,10.2987,-33.8755
-266,-699,6.81915,20.8951,0,0,0,0,0,0,0,-1,958,1723,6.81914,-20.8952
-259,-699,5.39758,14.5466,0,0,0,0,0,0,0,-1,965,1723,5.39759,-14.5466
-252,-699,8.3866,31.6284,0,0,0,0,0,0,0,-1,972,1723,8.38657,-31.6284
-245,-699,8.77527,44.9578,0,0,0,0,0,0,0,-1,979,1723,8.77526,-44.9578
-238,-699,8.99829,46.6228,0,0,0,0,0,0,0,-1,986,1723,8.9983,-46.6228
-231,-699,8.73328,47.0021,-0.0180293,0.00629336,0.00116722,0.00634925,-0.0180852,1.52295,0.0146396,0.0448528,993,1723,8.73329,-47.0021
-224,-699,8.33112,47.6161,-0.0119605,0.00594278,0.00233593,0.00624254,-0.0122603,1.44317,0.0108693,0.0387987,1000,1723,8.33114,-47.6161
-217,-699,8.22864,48.0919,-0.00957777,0.00265264,0.00114856,0.00275957,-0.0096847,1.47797,0.00754643,0.0268276,1007,1723,8.22862,-48.0919
-210,-699,8.19562,48.5776,-0.00807816,0.00184831,0.00128689,0.00201243,-0.00824228,1.44395,0.00627418,0.0212105,1014,1723,8.19562,-48.5776
-203,-699,8.21399,49.1567,-0.00692505,0.00140584,0.00128438,0.00159935,-0.00711856,1.42125,0.00535898,0.0249213,1021,1723,8.21403,-49.1567
-196,-699,8.1499,49.7401,-0.0058667,0.00128346,0.00121837,0.00148537,-0.0060686,1.40657,0.00462113,0.0179523,1028,1723,8.14993,-49.7401
-189,-699,8.07288,50.2386,-0.00482602,0.00140958,0.00121719,0.00163875,-0.0050552,1.38469,0.00402905,0.00955693,1035,1723,8.07282,-50.2386
-182,-699,8.02576,50.7336,-0.00388377,0.00132562,0.00113131,0.00156069,-0.00411885,1.36592,0.00338815,0.0137242,1042,1723,8.02578,-50.7337
-175,-699,8.00293,51.2458,-0.00294888,0.00168372,0.00114942,0.00195323,-0.00321838,1.34048,0.00301547,0.0154552,1049,1723,8.00292,-51.2458
-168,-699,7.99731,51.6993,-0.00233817,0.00221548,0.00120814,0.00251617,-0.00263885,1.32687,0.00297653,0.0163941,1056,1723,7.99736,-51.6994
-161,-699,7.98206,52.1422,-0.00191236,0.00283154,0.0013069,0.00316775,-0.00224857,1.319,0.00314209,0.0149575,1063,1723,7.982,-52.1422
-154,-699,7.94885,52.6044,-0.00149508,0.00327514,0.0013359,0.00362377,-0.00184371,1.31551,0.00321194,0.0142932,1070,1723,7.94888,-52.6043
-147,-699,7.91565,53.0396,-0.000974243,0.0035692,0.00135958,0.00394496,-0.00135001,1.30115,0.00317707,0.0153289,1077,1723,7.91559,-53.0396
-140,-699,7.87683,53.4558,-0.000375272,0.00374556,0.00135586,0.00415165,-0.000781368,1.27979,0.00306164,0.0110436,1084,1723,7.87677,-53.4559
-133,-699,7.87317,53.9009,0.000212214,0.00373956,0.00136189,0.00420418,-0.000252405,1.24202,0.0028906,0.00985649,1091,1723,7.87318,-53.9009
-126,-699,7.86084,54.301,0.000759707,0.00370576,0.00135709,0.00423561,0.000229862,1.19857,0.00275032,0.0125076,1098,1723,7.8609,-54.3011
-119,-699,7.8501,54.7101,0.00133043,0.00354514,0.00127015,0.00412288,0.000752694,1.14391,0.00253521,0.0183587,1105,1723,7.85015,-54.7101
-112,-699,7.85376,55.1002,0.00190442,0.00332507,0.00112682,0.00394676,0.00128273,1.06663,0.00232472,0.0122028,1112,1723,7.85379,-55.1003
-105,-699,7.85681,55.4746,0.00234869,0.00294151,0.000921928,0.00361351,0.0016767,0.940933,0.00208806,0.0128716,1119,1723,7.8568,-55.4746
-98,-699,7.92224,55.8119,0.00271843,0.0025563,0.000691632,0.00333373,0.001941,0.727061,0.00193339,0.0154766,1126,1723,7.92223,-55.8119
-91,-699,7.94812,56.1345,0.00312052,0.00226565,0.000339242,0.00323878,0.00214739,0.335434,0.00190276,0.0222703,1133,1723,7.94817,-56.1345
-84,-699,7.97424,56.505,0.00364631,0.00191868,9.33933e-05,0.00365135,0.00191365,0.0538495,0.00210892,0.0261691,1140,1723,7.9742,-56.505
-77,-699,7.95508,56.8225,0.00422865,0.00142835,-8.79724e-05,0.00423141,0.00142559,-0.0313741,0.00248595,0.0170031,1147,1723,7.95503,-56.8225
-70,-699,7.9502,57.121,0.00453426,0.000931234,-0.000484951,0.00459839,0.000867103,-0.131479,0.00282133,0.017599,1154,1723,7.95021,-57.121
-63,-699,7.98438,57.4081,0.00478353,-0.000215489,-0.000613486,0.00485771,-0.000289676,-0.120343,0.00333922,0.0152001,1161,1723,7.98443,-57.4081
-56,-699,7.98987,57.6582,0.00525466,-0.000480346,0.000148119,0.00525849,-0.000484169,0.0258043,0.00367769,0.0109167,1168,1723,7.98989,-57.6582
-49,-699,7.98792,57.9705,0.00613603,-0.00132405,-0.00144531,0.00640626,-0.00159427,-0.184833,0.00488968,0.024881,1175,1723,7.98786,-57.9704
-42,-699,8.03052,58.3035,0.00702535,-0.00278037,-0.00237601,0.00757074,-0.00332576,-0.225633,0.00644827,0.0293482,1182,1723,8.03055,-58.3034
-35,-699,8.12927,58.4908,0.00815307,-0.00371599,-0.00458392,0.00971727,-0.00528019,-0.328846,0.0087842,0.0269946,1189,1723,8.12928,-58.4909
-28,-699,8.20288,58.6333,0.00929099,-0.00520228,-0.00683695,0.0120072,-0.00791846,-0.378158,0.0115845,0.0220424,1196,1723,8.20294,-58.6333
-21,-699,8.25085,58.7577,0.0100702,-0.00642703,-0.0081084,0.0133882,-0.009745,-0.388413,0.013411,0.0151526,1203,1723,8.25087,-58.7577
-14,-699,8.28613,58.9369,0.0100562,-0.00746563,-0.0102508,0.0147799,-0.0121893,-0.431803,0.0155945,0.0130126,1210,1723,8.28616,-58.9369
-7,-699,8.32959,59.1239,0.00976893,-0.00690996,-0.0130805,0.0169423,-0.0140833,-0.501613,0.017938,0.0097285,1217,1723,8.32955,-59.1239
0,-699,8.42358,59.2878,0.00804573,-0.00630793,-0.0155355,0.017982,-0.0162442,-0.569019,0.019769,0.0139988,1224,1723,8.4236,-59.2879
7,-699,8.56238,59.3419,0.00545884,-0.00615852,-0.0179159,0.0184842,-0.0191839,-0.628635,0.0217489,0.0238929,1231,1723,8.5624,-59.3419
14,-699,8.61426,59.4646,0.00229569,-0.00634722,-0.0202242,0.018655,-0.0227065,-0.680143,0.0239183,0.0238188,1238,1723,8.61425,-59.4646
21,-699,8.5979,59.5538,-0.000866981,-0.00596887,-0.021935,0.0186649,-0.0255007,-0.72751,0.0256006,0.0183168,1245,1723,8.5979,-59.5538
28,-699,8.66919,59.6278,-0.00430995,-0.00570062,-0.0227042,0.0177096,-0.0277202,-0.77009,0.0264403,0.0178168,1252,1723,8.6692,-59.6278
35,-699,8.75867,59.7456,-0.00777777,-0.00567688,-0.0231382,0.0164347,-0.0298894,-0.808082,0.0271187,0.0156955,1259,1723,8.75867,-59.7456
42,-699,8.83252,59.8201,-0.0107299,-0.00603932,-0.0230549,0.0147893,-0.0315584,-0.836087,0.0273365,0.013935,1266,1723,8.83256,-59.82
49,-699,8.91235,59.8864,-0.0134036,-0.00660896,-0.0224542,0.0127035,-0.032716,-0.860478,0.0270582,0.0170962,1273,1723,8.91236,-59.8864
56,-699,8.99341,59.9185,-0.0156185,-0.0075632,-0.0210907,0.00988103,-0.0330627,-0.879745,0.0259698,0.0176276,1280,1723,8.9934,-59.9184
63,-699,9.021,59.8754,-0.0169842,-0.00846783,-0.019775,0.00750228,-0.0329543,-0.891445,0.0248507,0.0156203,1287,1723,9.02094,-59.8754
70,-699,9.08521,59.882,-0.0173822,-0.00929723,-0.018032,0.00513989,-0.0318193,-0.895667,0.0231174,0.013478,1294,1723,9.08515,-59.882
77,-699,9.16541,59.8596,-0.0170585,-0.0101463,-0.0162248,0.00298641,-0.0301911,-0.890337,0.0211931,0.0131256,1301,1723,9.16543,-59.8596
84,-699,9.24915,59.7927,-0.015879,-0.010976,-0.0149007,0.00167349,-0.0285286,-0.866929,0.0196007,0.0153699,1308,1723,9.24909,-59.7928
91,-699,9.30688,59.7444,-0.0146463,-0.0113201,-0.0133727,0.000492581,-0.0264589,-0.847263,0.0178057,0.014387,1315,1723,9.30691,-59.7443
98,-699,9.3479,59.6823,-0.0136125,-0.0118949,-0.0119619,-0.000761047,-0.0247464,-0.821234,0.0162499,0.0125571,1322,1723,9.34791,-59.6823
105,-699,9.41028,59.6132,-0.0120539,-0.0116912,-0.0112068,-0.0006643,-0.0230809,-0.793488,0.0151707,0.017413,1329,1723,9.41029,-59.6132
112,-699,9.48669,59.5247,-0.010667,-0.0105762,-0.0106094,-1.21119e-05,-0.0212311,-0.787538,0.01415,0.0240322,1336,1723,9.48664,-59.5247
119,-699,9.53357,59.3856,-0.00974436,-0.00907159,-0.00983035,0.000428131,-0.0192441,-0.802501,0.0129745,0.018105,1343,1723,9.53352,-59.3857
126,-699,9.63611,59.2131,-0.00927072,-0.00783389,-0.00917281,0.000648602,-0.0177532,-0.824479,0.0120575,0.0194736,1350,1723,9.63606,-59.2131
133,-699,9.74548,59.0759,-0.00878317,-0.00635611,-0.00831775,0.000836165,-0.0159755,-0.857835,0.0109397,0.0173869,1357,1723,9.74552,-59.076
140,-699,9.78638,58.9265,-0.00823629,-0.0047297,-0.00715382,0.000882545,-0.0138485,-0.905572,0.00954016,0.0179471,1364,1723,9.78636,-58.9265
147,-699,9.82227,58.7461,0,0,0,0,0,0,0,-1,1371,1723,9.82222,-58.7461
154,-699,9.93835,58.5946,0,0,0,0,0,0,0,-1,1378,1723,9.9383,-58.5946
161,-699,9.8512,58.3459,-0.00450335,-0.00013813,-0.00233926,0.00087862,-0.0055201,-1.16078,0.00400519,0.0308752,1385,1723,9.85118,-58.346
168,-699,9.94312,58.1146,-0.00295786,0.00123954,0.000159367,0.00124559,-0.0029639,1.5329,0.00249693,0.0124983,1392,1723,9.9431,-58.1147
175,-699,9.98633,57.8778,-0.00106731,0.00128506,0.0034417,0.003746,-0.00352825,0.95005,0.00420042,0.0188798,1399,1723,9.98632,-57.8779
182,-699,10.0244,57.6294,-5.42044e-06,0.00151731,0.00332101,0.00416311,-0.00265122,0.89808,0.0039664,0.0199191,1406,1723,10.0244,-57.6294
189,-699,10.0248,57.3291,0.00085652,0.00149301,0.00259918,0.00379336,-0.00144382,0.846316,0.00312347,0.0179511,1413,1723,10.0248,-57.3291
196,-699,10.0404,57.0195,0.00295452,0.000794593,0.0017423,0.00392442,-0.000175305,0.507955,0.00267663,0.0170859,1420,1723,10.0404,-57.0195
203,-699,10.049,56.7263,0.00420143,0.000413113,0.00110805,0.00450172,0.000112822,0.264652,0.00296425,0.0139436,1427,1723,10.049,-56.7263
210,-699,10.1017,56.4271,0.00382763,0.000497913,0.000734986,0.00398265,0.000342892,0.207869,0.0025485,0.0140725,1434,1723,10.1017,-56.4272
217,-699,10.1201,56.092,0.00347413,0.000553283,0.000420557,0.00353347,0.000493935,0.140192,0.00220948,0.014469,1441,1723,10.1201,-56.092
224,-699,10.1198,55.7395,0.00308239,0.000728049,8.34701e-05,0.00308535,0.000725093,0.0353944,0.00186285,0.0160151,1448,1723,10.1197,-55.7395
231,-699,10.1499,55.3872,0.00261604,0.000980529,-0.000309417,0.00267262,0.000923949,-0.180862,0.00156734,0.0128662,1455,1723,10.1499,-55.3872
238,-699,10.1385,54.9899,0.00226601,0.00118478,-0.000656471,0.00257582,0.00087497,-0.440939,0.00151241,0.0109818,1462,1723,10.1386,-54.9898
245,-699,10.1357,54.6136,0.00194997,0.00146526,-0.000937839,0.00267626,0.00073897,-0.658956,0.00159594,0.012508,1469,1723,10.1357,-54.6136
252,-699,10.1361,54.2631,0.00160715,0.00177279,-0.00116324,0.00285615,0.000523787,-0.820936,0.00175575,0.0105155,1476,1723,10.1362,-54.263
259,-699,10.1116,53.861,0.00122775,0.00198689,-0.00132238,0.0029831,0.000231539,-0.925159,0.00191622,0.0104938,1483,1723,10.1115,-53.861
266,-699,10.0914,53.4226,0.00088679,0.0021209,-0.00148129,0.00310853,-0.00010083,-0.982751,0.00210676,0.0133461,1490,1723,10.0914,-53.4226
273,-699,10.1012,52.9783,0.000565081,0.00232191,-0.00158769,0.00325799,-0.000370998,-1.03807,0.00230563,0.0126253,1497,1723,10.1012,-52.9783
280,-699,10.1146,52.5396,0.000113829,0.00247485,-0.00169591,0.00336067,-0.000771993,-1.08945,0.00253724,0.0124707,1504,1723,10.1147,-52.5395
287,-699,10.0933,52.0813,-0.000310165,0.00271891,-0.0017534,0.00352132,-0.00111257,-1.14162,0.00279327,0.0111367,1511,1723,10.0932,-52.0813
294,-699,10.0634,51.6467,-0.000684639,0.0031149,-0.0018351,0.00385648,-0.00142622,-1.18675,0.00315571,0.0114825,1518,1723,10.0633,-51.6467
301,-699,10.0544,51.2142,-0.00115388,0.00373489,-0.00206035,0.00448738,-0.00190638,-1.22062,0.00379037,0.0132807,1525,1723,10.0544,-51.2142
308,-699,10.0576,50.7555,-0.00163856,0.00467088,-0.00240424,0.0054826,-0.00245028,-1.24519,0.00469026,0.0185731,1532,1723,10.0576,-50.7555
315,-699,10.0333,50.2483,-0.0020882,0.00567104,-0.00262744,0.00647702,-0.00289418,-1.27315,0.00554071,0.0210927,1539,1723,10.0333,-50.2483
322,-699,9.99084,49.7377,-0.00240584,0.00686498,-0.00301383,0.0077586,-0.00329946,-1.28255,0.00655512,0.0208654,1546,1723,9.99079,-49.7376
329,-699,9.9364,49.2407,-0.00273896,0.00825949,-0.00345566,0.00925511,-0.00373459,-1.29028,0.00772207,0.0164473,1553,1723,9.93639,-49.2407
336,-699,9.87756,48.7485,-0.00300694,0.00974544,-0.00397251,0.0108817,-0.00414319,-1.29221,0.0089607,0.0171369,1560,1723,9.87756,-48.7485
343,-699,9.91687,48.266,-0.00288593,0.0115284,-0.00469474,0.0129226,-0.00428015,-1.28212,0.0103414,0.0266971,1567,1723,9.91688,-48.266
350,-699,9.84595,47.6532,-0.00217824,0.0138283,-0.00585222,0.0157397,-0.00408965,-1.25511,0.0120892,0.0420813,1574,1723,9.84593,-47.6532
357,-699,9.78394,46.8297,-0.00118425,0.0159601,-0.0071909,0.0185768,-0.00380097,-1.2218,0.0138268,0.046808,1581,1723,9.784,-46.8297
364,-699,9.62915,46.361,0.0002019,0.0179336,-0.00875815,0.02153,-0.00339453,-1.18115,0.0156084,0.042347,1588,1723,9.62916,-46.361
371,-699,9.73975,46.1849,0,0,0,0,0,0,0,-1,1595,1723,9.73975,-46.185
378,-699,9.64526,45.4628,0,0,0,0,0,0,0,-1,1602,1723,9.64523,-45.4627
385,-699,8.04944,42.8464,0,0,0,0,0,0,0,-1,1609,1723,8.04943,-42.8464
392,-699,8.04492,42.0624,0,0,0,0,0,0,0,-1,1616,1723,8.04492,-42.0623
399,-699,8.49963,41.4828,0,0,0,0,0,0,0,-1,1623,1723,8.49961,-41.4828
406,-699,11.7264,44.1525,0,0,0,0,0,0,0,-1,1630,1723,11.7264,-44.1525
413,-699,12.3215,44.3011,0,0,0,0,0,0,0,-1,1637,1723,12.3215,-44.3011
420,-699,8.41907,38.2246,0,0,0,0,0,0,0,-1,1644,1723,8.41902,-38.2247
427,-699,2.98743,11.8593,0,0,0,0,0,0,0,-1,1651,1723,2.98746,-11.8592
434,-699,4.66455,8.90222,0,0,0,0,0,0,0,-1,1658,1723,4.66456,-8.90223
441,-699,0,0,0,0,0,0,0,0,0,-1,1665,1723,0,0
448,-699,0,0,0,0,0,0,0,0,0,-1,1672,1723,0,0
455,-699,0,0,0,0,0,0,0,0,0,-1,1679,1723,0,0
462,-699,0,0,0,0,0,0,0,0,0,-1,1686,1723,0,0
469,-699,0,0,0,0,0,0,0,0,0,-1,1693,1723,0,0
476,-699,0,0,0,0,0,0,0,0,0,-1,1700,1723,0,0
483,-699,0,0,0,0,0,0,0,0,0,-1,1707,1723,0,0
490,-699,0,0,0,0,0,0,0,0,0,-1,1714,1723,0,0
497,-699,0,0,0,0,0,0,0,0,0,-1,1721,1723,0,0
504,-699,0,0,0,0,0,0,0,0,0,-1,1728,1723,0,0
511,-699,0,0,0,0,0,0,0,0,0,-1,1735,1723,0,0
518,-699,0,0,0,0,0,0,0,0,0,-1,1742,1723,0,0
525,-699,0,0,0,0,0,0,0,0,0,-1,1749,1723,0,0
532,-699,0,0,0,0,0,0,0,0,0,-1,1756,1723,0,0
539,-699,0,0,0,0,0,0,0,0,0,-1,1763,1723,0,0
546,-699,0,0,0,0,0,0,0,0,0,-1,1770,1723,0,0
553,-699,0,0,0,0,0,0,0,0,0,-1,1777,1723,0,0
560,-699,0,0,0,0,0,0,0,0,0,-1,1784,1723,0,0
567,-699,0,0,0,0,0,0,0,0,0,-1,1791,1723,0,0
574,-699,0,0,0,0,0,0,0,0,0,-1,1798,1723,0,0
581,-699,0,0,0,0,0,0,0,0,0,-1,1805,1723,0,0
588,-699,0,0,0,0,0,0,0,0,0,-1,1812,1723,0,0
595,-699,0,0,0,0,0,0,0,0,0,-1,1819,1723,0,0
602,-699,0,0,0,0,0,0,0,0,0,-1,1826,1723,0,0
609,-699,0,0,0,0,0,0,0,0,0,-1,1833,1723,0,0
616,-699,0,0,0,0,0,0,0,0,0,-1,1840,1723,0,0
623,-699,0,0,0,0,0,0,0,0,0,-1,1847,1723,0,0
630,-699,0,0,0,0,0,0,0,0,0,-1,1854,1723,0,0
637,-699,0,0,0,0,0,0,0,0,0,-1,1861,1723,0,0
644,-699,0,0,0,0,0,0,0,0,0,-1,1868,1723,0,0
651,-699,0,0,0,0,0,0,0,0,0,-1,1875,1723,0,0
658,-699,0,0,0,0,0,0,0,0,0,-1,1882,1723,0,0
665,-699,0,0,0,0,0,0,0,0,0,-1,1889,1723,0,0
672,-699,0,0,0,0,0,0,0,0,0,-1,1896,1723,0,0
679,-699,0,0,0,0,0,0,0,0,0,-1,1903,1723,0,0
686,-699,0,0,0,0,0,0,0,0,0,-1,1910,1723,0,0
693,-699,0,0,0,0,0,0,0,0,0,-1,1917,1723,0,0
700,-699,0,0,0,0,0,0,0,0,0,-1,1924,1723,0,0
707,-699,0,0,0,0,0,0,0,0,0,-1,1931,1723,0,0
714,-699,0,0,0,0,0,0,0,0,0,-1,1938,1723,0,0
721,-699,0,0,0,0,0,0,0,0,0,-1,1945,1723,0,0
728,-699,0,0,0,0,0,0,0,0,0,-1,1952,1723,0,0
735,-699,0,0,0,0,0,0,0,0,0,-1,1959,1723,0,0
742,-699,0,0,0,0,0,0,0,0,0,-1,1966,1723,0,0
749,-699,0,0,0,0,0,0,0,0,0,-1,1973,1723,0,0
756,-699,0,0,0,0,0,0,0,0,0,-1,1980,1723,0,0
763,-699,0,0,0,0,0,0,0,0,0,-1,1987,1723,0,0
770,-699,0,0,0,0,0,0,0,0,0,-1,1994,1723,0,0
777,-699,0,0,0,0,0,0,0,0,0,-1,2001,1723,0,0
784,-699,0,0,0,0,0,0,0,0,0,-1,2008,1723,0,0
791,-699,0,0,0,0,0,0,0,0,0,-1,2015,1723,0,0
798,-699,0,0,0,0,0,0,0,0,0,-1,2022,1723,0,0
805,-699,0,0,0,0,0,0,0,0,0,-1,2029,1723,0,0
812,-699,0,0,0,0,0,0,0,0,0,-1,2036,1723,0,0
-700,-706,0,0,0,0,0,0,0,0,0,-1,524,1730,0,0
-693,-706,0,0,0,0,0,0,0,0,0,-1,531,1730,0,0
-686,-706,0,0,0,0,0,0,0,0,0,-1,538,1730,0,0
-679,-706,0,0,0,0,0,0,0,0,0,-1,545,1730,0,0
-672,-706,0,0,0,0,0,0,0,0,0,-1,552,1730,0,0
-665,-706,0,0,0,0,0,0,0,0,0,-1,559,1730,0,0
-658,-706,0,0,0,0,0,0,0,0,0,-1,566,1730,0,0
-651,-706,0,0,0,0,0,0,0,0,0,-1,573,1730,0,0
-644,-706,0,0,0,0,0,0,0,0,0,-1,580,1730,0,0
-637,-706,0,0,0,0,0,0,0,0,0,-1,587,1730,0,0
-630,-706,0,0,0,0,0,0,0,0,0,-1,594,1730,0,0
-623,-706,0,0,0,0,0,0,0,0,0,-1,601,1730,0,0
-616,-706,0,0,0,0,0,0,0,0,0,-1,608,1730,0,0
-609,-706,0,0,0,0,0,0,0,0,0,-1,615,1730,0,0
-602,-706,0,0,0,0,0,0,0,0,0,-1,622,1730,0,0
-595,-706,0,0,0,0,0,0,0,0,0,-1,629,1730,0,0
-588,-706,0,0,0,0,0,0,0,0,0,-1,636,1730,0,0
-581,-706,0,0,0,0,0,0,0,0,0,-1,643,1730,0,0
-574,-706,0,0,0,0,0,0,0,0,0,-1,650,1730,0,0
-567,-706,0,0,0,0,0,0,0,0,0,-1,657,1730,0,0
-560,-706,0,0,0,0,0,0,0,0,0,-1,664,1730,0,0
-553,-706,0,0,0,0,0,0,0,0,0,-1,671,1730,0,0
-546,-706,0,0,0,0,0,0,0,0,0,-1,678,1730,0,0
-539,-706,0,0,0,0,0,0,0,0,0,-1,685,1730,0,0
-532,-706,0,0,0,0,0,0,0,0,0,-1,692,1730,0,0
-525,-706,0,0,0,0,0,0,0,0,0,-1,699,1730,0,0
-518,-706,0,0,0,0,0,0,0,0,0,-1,706,1730,0,0
-511,-706,0,0,0,0,0,0,0,0,0,-1,713,1730,0,0
-504,-706,0,0,0,0,0,0,0,0,0,-1,720,1730,0,0
-497,-706,0,0,0,0,0,0,0,0,0,-1,727,1730,0,0
-490,-706,0,0,0,0,0,0,0,0,0,-1,734,1730,0,0
-483,-706,0,0,0,0,0,0,0,0,0,-1,741,1730,0,0
-476,-706,0,0,0,0,0,0,0,0,0,-1,748,1730,0,0
-469,-706,0,0,0,0,0,0,0,0,0,-1,755,1730,0,0
-462,-706,0,0,0,0,0,0,0,0,0,-1,762,1730,0,0
-455,-706,0,0,0,0,0,0,0,0,0,-1,769,1730,0,0
-448,-706,0,0,0,0,0,0,0,0,0,-1,776,1730,0,0
-441,-706,0,0,0,0,0,0,0,0,0,-1,783,1730,0,0
-434,-706,0,0,0,0,0,0,0,0,0,-1,790,1730,0,0
-427,-706,0,0,0,0,0,0,0,0,0,-1,797,1730,0,0
-420,-706,0,0,0,0,0,0,0,0,0,-1,804,1730,0,0
-413,-706,0,0,0,0,0,0,0,0,0,-1,811,1730,0,0
-406,-706,0,0,0,0,0,0,0,0,0,-1,818,1730,0,0
-399,-706,0,0,0,0,0,0,0,0,0,-1,825,1730,0,0
-392,-706,0,0,0,0,0,0,0,0,0,-1,832,1730,0,0
-385,-706,0,0,0,0,0,0,0,0,0,-1,839,1730,0,0
-378,-706,0,0,0,0,0,0,0,0,0,-1,846,1730,0,0
-371,-706,0,0,0,0,0,0,0,0,0,-1,853,1730,0,0
-364,-706,0,0,0,0,0,0,0,0,0,-1,860,1730,0,0
-357,-706,0,0,0,0,0,0,0,0,0,-1,867,1730,0,0
-350,-706,0,0,0,0,0,0,0,0,0,-1,874,1730,0,0
-343,-706,0,0,0,0,0,0,0,0,0,-1,881,1730,0,0
-336,-706,0,0,0,0,0,0,0,0,0,-1,888,1730,0,0
-329,-706,0,0,0,0,0,0,0,0,0,-1,895,1730,0,0
-322,-706,0,0,0,0,0,0,0,0,0,-1,902,1730,0,0
-315,-706,0,0,0,0,0,0,0,0,0,-1,909,1730,0,0
-308,-706,5.08191,14.6245,0,0,0,0,0,0,0,-1,916,1730,5.08188,-14.6245
-301,-706,7.45007,21.1975,0,0,0,0,0,0,0,-1,923,1730,7.45005,-21.1976
-294,-706,11.8603,21.026,0,0,0,0,0,0,0,-1,930,1730,11.8603,-21.026
-287,-706,10.3292,20.8425,0,0,0,0,0,0,0,-1,937,1730,10.3292,-20.8425
-280,-706,7.9162,21.8951,0,0,0,0,0,0,0,-1,944,1730,7.9162,-21.8952
-273,-706,7.38953,20.6355,0,0,0,0,0,0,0,-1,951,1730,7.38955,-20.6355
-266,-706,9.66724,22.8231,0,0,0,0,0,0,0,-1,958,1730,9.66722,-22.8231
-259,-706,3.47852,20.7363,0,0,0,0,0,0,0,-1,965,1730,3.47851,-20.7364
-252,-706,3.84259,20.1979,0,0,0,0,0,0,0,-1,972,1730,3.84256,-20.1979
-245,-706,4.698,19.2992,0,0,0,0,0,0,0,-1,979,1730,4.69799,-19.2991
-238,-706,8.12567,36.8694,0,0,0,0,0,0,0,-1,986,1730,8.12568,-36.8694
-231,-706,9.50116,46.9261,0,0,0,0,0,0,0,-1,993,1730,9.50114,-46.9262
-224,-706,8.93945,47.7145,0,0,0,0,0,0,0,-1,1000,1730,8.93943,-47.7145
-217,-706,8.77618,48.3264,-0.012281,0.00302371,0.00100949,0.00309001,-0.0123473,1.50522,0.00943177,0.0412215,1007,1730,8.7762,-48.3264
-210,-706,8.55713,48.6831,-0.0103451,0.00207055,0.00124029,0.00219324,-0.0104678,1.4722,0.00781291,0.0404689,1014,1730,8.55716,-48.6831
-203,-706,8.61243,49.1467,-0.00886581,0.00170783,0.00130107,0.00186558,-0.00902355,1.45015,0.00672438,0.0329755,1021,1730,8.61237,-49.1468
-196,-706,8.64697,49.6738,-0.00758954,0.00169962,0.00132142,0.00188394,-0.00777385,1.4322,0.00591148,0.0240954,1028,1730,8.64695,-49.6739
-189,-706,8.52539,50.2361,-0.0063961,0.00191873,0.00139719,0.00214723,-0.0066246,1.40869,0.00527975,0.0207633,1035,1730,8.52538,-50.2361
-182,-706,8.4845,50.7502,-0.00535776,0.00184145,0.00137028,0.00209344,-0.00560975,1.38893,0.0045993,0.016223,1042,1730,8.4845,-50.7502
-175,-706,8.47375,51.2566,-0.00440366,0.002211,0.00141867,0.00250243,-0.00469508,1.36819,0.00421927,0.015703,1049,1730,8.47369,-51.2566
-168,-706,8.44238,51.7195,-0.00382736,0.0026474,0.00148076,0.00296997,-0.00414994,1.3563,0.00412946,0.0162772,1056,1730,8.44233,-51.7195
-161,-706,8.40784,52.1659,-0.00342637,0.00326397,0.00161338,0.00363272,-0.00379512,1.3461,0.00428881,0.0140997,1063,1730,8.40789,-52.1659
-154,-706,8.37073,52.6222,-0.00305808,0.00362827,0.00165454,0.00401528,-0.00344509,1.34102,0.00431144,0.0132709,1070,1730,8.37075,-52.6222
-147,-706,8.32959,53.0415,-0.00258648,0.00378038,0.00168112,0.004197,-0.00300311,1.32787,0.00417599,0.0121557,1077,1730,8.32956,-53.0415
-140,-706,8.31201,53.4894,-0.00201215,0.00384999,0.00167817,0.0042964,-0.00245857,1.3108,0.00394781,0.012017,1084,1730,8.31196,-53.4894
-133,-706,8.30359,53.9069,-0.00143442,0.0036829,0.0016785,0.00418432,-0.00193584,1.2805,0.00361209,0.00976277,1091,1730,8.30357,-53.9069
-126,-706,8.29041,54.2898,-0.00090613,0.00357566,0.00171807,0.00415848,-0.00148895,1.24375,0.00337979,0.0141689,1098,1730,8.29046,-54.2898
-119,-706,8.26978,54.6873,-0.000361015,0.00330559,0.00163992,0.00393203,-0.000987452,1.20591,0.00300508,0.0190927,1105,1730,8.26976,-54.6872
-112,-706,8.26465,55.1293,0.000239058,0.00309167,0.00151093,0.00374317,-0.00041244,1.1637,0.00264367,0.0135552,1112,1730,8.26466,-55.1292
-105,-706,8.22937,55.4871,0.000721112,0.00273259,0.00129074,0.00336317,9.05378e-05,1.11636,0.00221255,0.0101258,1119,1730,8.22931,-55.4871
-98,-706,8.25439,55.8115,0.00114543,0.00231934,0.00111082,0.00298875,0.000476028,1.02845,0.0018543,0.0119371,1126,1730,8.25439,-55.8115
-91,-706,8.26636,56.157,0.00157139,0.00208693,0.000866765,0.00273345,0.00092488,0.929929,0.00160541,0.0156839,1133,1730,8.26641,-56.157
-84,-706,8.25635,56.5203,0.00197032,0.00184756,0.000626503,0.00253844,0.00127944,0.736567,0.00146559,0.0188583,1140,1730,8.25639,-56.5202
-77,-706,8.24927,56.843,0.00239024,0.00157579,0.000436962,0.00258031,0.00138572,0.410307,0.00149111,0.0165476,1147,1730,8.24932,-56.8431
-70,-706,8.2406,57.155,0.00271516,0.00126294,0.000121579,0.00272527,0.00125283,0.0829502,0.00157514,0.0179541,1154,1730,8.2406,-57.1551
-63,-706,8.2406,57.4166,0.0030208,0.000570688,-4.40908e-05,0.00302159,0.000569895,-0.0179877,0.00185386,0.0135107,1161,1730,8.24055,-57.4166
-56,-706,8.26294,57.6692,0.00346448,0.000314839,0.000294843,0.00349185,0.000287476,0.0925401,0.00223824,0.0129017,1168,1730,8.26295,-57.6692
-49,-706,8.25317,57.9506,0.00395396,4.7471e-05,-1.29822e-05,0.003954,4.74278e-05,-0.00332318,0.00262034,0.0147517,1175,1730,8.25315,-57.9506
-42,-706,8.30957,58.1902,0.00446615,-0.000614557,3.84181e-05,0.00446644,-0.000614847,0.00756098,0.00320231,0.0207755,1182,1730,8.30957,-58.1901
-35,-706,8.32813,58.3973,0.00520974,-0.00114844,-0.000906565,0.00533647,-0.00127517,-0.138896,0.00405018,0.0192163,1189,1730,8.32812,-58.3973
-28,-706,8.38,58.6073,0.00598145,-0.00207521,-0.00203508,0.00646632,-0.00256009,-0.233897,0.0053716,0.0123866,1196,1730,8.38,-58.6073
-21,-706,8.4325,58.7902,0.00654543,-0.00292656,-0.0026532,0.00723798,-0.00361911,-0.255328,0.00638336,0.0130061,1203,1730,8.4325,-58.7902
-14,-706,8.47156,58.962,0.00661596,-0.0037242,-0.00396513,0.0079614,-0.00506964,-0.327127,0.00758497,0.0119504,1210,1730,8.47153,-58.962
-7,-706,8.5105,59.1458,0.00629868,-0.00366985,-0.00554504,0.0087703,-0.00614148,-0.419303,0.0086538,0.00908361,1217,1730,8.51045,-59.1458
0,-706,8.57141,59.3132,0.00503792,-0.00343937,-0.00705738,0.00903169,-0.00743314,-0.514969,0.0095209,0.0139757,1224,1730,8.57138,-59.3133
7,-706,8.60425,59.4341,0.00320734,-0.0035353,-0.00863735,0.009108,-0.00943596,-0.599332,0.0107069,0.0170243,1231,1730,8.60422,-59.4341
14,-706,8.63525,59.5251,0.000881257,-0.00382229,-0.0102754,0.00907054,-0.0120116,-0.672898,0.0122112,0.0166142,1238,1730,8.63527,-59.5252
21,-706,8.6925,59.6317,-0.00142408,-0.00370183,-0.0115235,0.00901665,-0.0141426,-0.736143,0.0134797,0.0126518,1245,1730,8.69256,-59.6317
28,-706,8.76514,59.7263,-0.00394758,-0.00361193,-0.0122725,0.00849389,-0.0160534,-0.792235,0.0143946,0.0129418,1252,1730,8.76516,-59.7263
35,-706,8.80566,59.7954,-0.00653007,-0.00367491,-0.0128337,0.00781035,-0.0180153,-0.840789,0.0152936,0.0151825,1259,1730,8.80564,-59.7954
42,-706,8.85669,59.8364,-0.00866785,-0.00402517,-0.0129608,0.00682058,-0.0195136,-0.874011,0.0157818,0.0125357,1266,1730,8.85668,-59.8365
49,-706,8.91431,59.8911,-0.0105945,-0.00452506,-0.0128282,0.00562247,-0.020742,-0.901546,0.0160342,0.0150338,1273,1730,8.91432,-59.8911
56,-706,8.96289,59.9257,-0.0120238,-0.00537415,-0.0121922,0.00393843,-0.0213364,-0.918512,0.0157026,0.0154913,1280,1730,8.96288,-59.9256
63,-706,9.00916,59.917,-0.0127709,-0.00609836,-0.0116545,0.00268802,-0.0215573,-0.924802,0.0153462,0.0132825,1287,1730,9.00918,-59.9169
70,-706,9.0542,59.9088,-0.0128201,-0.00672479,-0.0108092,0.00145822,-0.0210031,-0.922805,0.0145126,0.0132616,1294,1730,9.0542,-59.9088
77,-706,9.10217,59.8895,-0.0122692,-0.00742961,-0.00984284,0.000286504,-0.0199853,-0.90593,0.0134201,0.0110184,1301,1730,9.1022,-59.8896
84,-706,9.16992,59.8496,-0.0110871,-0.00809578,-0.0091871,-0.000283403,-0.0188995,-0.866091,0.0125063,0.00882124,1308,1730,9.16987,-59.8496
91,-706,9.22192,59.8025,-0.00969653,-0.00853874,-0.00835551,-0.000742101,-0.0174932,-0.819984,0.0114228,0.00991507,1315,1730,9.22197,-59.8025
98,-706,9.24695,59.7451,-0.00819776,-0.00917954,-0.00776732,-0.000905836,-0.0164715,-0.75384,0.0106918,0.0147736,1322,1730,9.24699,-59.7451
105,-706,9.30249,59.6843,-0.00641394,-0.00932237,-0.00746189,-0.00026589,-0.0154704,-0.689162,0.0102261,0.0185844,1329,1730,9.30245,-59.6843
112,-706,9.32886,59.5874,-0.00472702,-0.0087644,-0.00718894,0.000721281,-0.0142127,-0.648521,0.00972448,0.0173862,1336,1730,9.32888,-59.5874
119,-706,9.35706,59.4543,-0.0032831,-0.00795583,-0.00673594,0.00151016,-0.0127491,-0.618465,0.0090449,0.0142738,1343,1730,9.35711,-59.4544
126,-706,9.42981,59.2814,-0.00222093,-0.00732387,-0.00635236,0.00207322,-0.011618,-0.594431,0.00852091,0.0151184,1350,1730,9.42983,-59.2813
133,-706,9.51318,59.099,-0.00108849,-0.00645669,-0.00584631,0.00266043,-0.0102056,-0.570196,0.00784244,0.0129749,1357,1730,9.51312,-59.099
140,-706,9.56921,58.9202,-2.48962e-05,-0.00536506,-0.00510432,0.00306553,-0.00845548,-0.544419,0.00689003,0.0128224,1364,1730,9.56921,-58.9202
147,-706,9.64136,58.7433,0.000722846,-0.00413683,-0.00433479,0.00326236,-0.00667635,-0.529947,0.00584987,0.0242777,1371,1730,9.64135,-58.7433
154,-706,9.69189,58.5697,0.00199922,-0.00309871,-0.00327079,0.00359698,-0.00469646,-0.454399,0.00480223,0.0239702,1378,1730,9.6919,-58.5697
161,-706,9.65833,58.3453,0.00297633,-0.00173193,-0.00206396,0.00375299,-0.00250859,-0.359908,0.00363884,0.0116238,1385,1730,9.6583,-58.3454
168,-706,9.66516,58.1058,0.00354561,-0.000737406,-0.000535892,0.00361165,-0.000803439,-0.122602,0.00271549,0.0106835,1392,1730,9.66516,-58.1058
175,-706,9.7052,57.8649,0.00402243,-0.000482576,0.00132278,0.00438212,-0.000842257,0.265495,0.00323888,0.0108504,1399,1730,9.70521,-57.8648
182,-706,9.71057,57.5924,0.00347209,0.000126711,0.00110299,0.00380301,-0.000204217,0.291482,0.00260608,0.0116416,1406,1730,9.71059,-57.5924
189,-706,9.72974,57.2982,0.00303314,0.000506465,0.000758012,0.0032431,0.000296505,0.270213,0.00207032,0.0150795,1413,1730,9.72969,-57.2983
196,-706,9.75073,57.0066,0.002841,0.000727846,0.000489768,0.002949,0.000619851,0.217029,0.00179541,0.0132217,1420,1730,9.75069,-57.0066
203,-706,9.75818,56.7175,0.00254457,0.00083166,0.000243968,0.00257864,0.000797589,0.138754,0.00152445,0.0143273,1427,1730,9.75822,-56.7176
210,-706,9.76587,56.4133,0.00222622,0.00101997,-7.38339e-05,0.00223072,0.00101547,-0.0609067,0.00128963,0.0133423,1434,1730,9.76583,-56.4134
217,-706,9.7644,56.1058,0.00189999,0.00119325,-0.000337854,0.00203551,0.00105772,-0.381476,0.0011755,0.013648,1441,1730,9.76443,-56.1059
224,-706,9.75244,55.7644,0.00153844,0.00141437,-0.000618088,0.0020976,0.000855209,-0.735383,0.00121791,0.0182506,1448,1730,9.75245,-55.7645
231,-706,9.79358,55.3947,0.00112161,0.00165796,-0.000911115,0.00233955,0.000440022,-0.928525,0.00143568,0.0147392,1455,1730,9.79356,-55.3946
238,-706,9.78992,55.0182,0.000801063,0.00185826,-0.00116636,0.00261022,4.91109e-05,-0.998156,0.00172401,0.00974367,1462,1730,9.78988,-55.0182
245,-706,9.76917,54.6327,0.000527818,0.00210434,-0.00141787,0.00293834,-0.000306178,-1.0391,0.00206852,0.0122087,1469,1730,9.76912,-54.6327
252,-706,9.7616,54.2533,0.000189649,0.00233694,-0.00160107,0.00319102,-0.000664431,-1.08075,0.00237994,0.0117857,1476,1730,9.76156,-54.2533
259,-706,9.74866,53.8531,-0.0001772,0.00254866,-0.00169944,0.00336419,-0.000992726,-1.12337,0.00263675,0.0119981,1483,1730,9.74866,-53.8532
266,-706,9.70215,53.4443,-0.000489017,0.00268605,-0.0018364,0.00352599,-0.00132895,-1.14182,0.00289709,0.0129769,1490,1730,9.70218,-53.4443
273,-706,9.67798,53.0044,-0.000783376,0.00293609,-0.00195892,0.00377746,-0.00162475,-1.16511,0.00320045,0.0125327,1497,1730,9.67803,-53.0044
280,-706,9.66479,52.5488,-0.00121269,0.00317179,-0.00210084,0.0040159,-0.0020568,-1.18874,0.00356638,0.0101911,1504,1730,9.66478,-52.5488
287,-706,9.63867,52.0933,-0.00160672,0.00357386,-0.00219316,0.00437762,-0.00241048,-1.21951,0.00397358,0.010789,1511,1730,9.63863,-52.0933
294,-706,9.62158,51.6685,-0.00194631,0.0042271,-0.00232379,0.00500404,-0.00272324,-1.24814,0.00452567,0.0104914,1518,1730,9.6216,-51.6684
301,-706,9.61218,51.2174,-0.00236851,0.00522306,-0.00263434,0.00604763,-0.00319309,-1.26745,0.00541932,0.0104946,1525,1730,9.61213,-51.2174
308,-706,9.60437,50.7354,-0.00281749,0.00656959,-0.00306985,0.00748437,-0.00373228,-1.28118,0.0065956,0.0146547,1532,1730,9.60441,-50.7353
315,-706,9.58557,50.2191,-0.00325958,0.00798929,-0.0033694,0.00892132,-0.0041916,-1.30093,0.00773316,0.0272752,1539,1730,9.58559,-50.2191
322,-706,9.56555,49.6665,-0.00353608,0.00968427,-0.00387286,0.0107353,-0.00458707,-1.3058,0.00908064,0.0291118,1546,1730,9.56557,-49.6665
329,-706,9.50586,49.198,-0.00385931,0.0116718,-0.00441465,0.012839,-0.00502644,-1.31233,0.0106383,0.0258567,1553,1730,9.5059,-49.198
336,-706,9.33752,48.6174,-0.0041447,0.0138239,-0.00509085,0.015166,-0.00548679,-1.31303,0.0123527,0.0418326,1560,1730,9.33753,-48.6174
343,-706,9.39099,48.0223,-0.00400096,0.0163272,-0.00599246,0.0179622,-0.00563595,-1.30444,0.0142305,0.0455096,1567,1730,9.39103,-48.0224
350,-706,9.33582,47.4381,-0.00319565,0.0193139,-0.00726615,0.0214556,-0.0053374,-1.28416,0.0163755,0.0497297,1574,1730,9.33583,-47.4381
357,-706,9.09692,46.7943,0,0,0,0,0,0,0,-1,1581,1730,9.09689,-46.7943
364,-706,8.96521,46.4316,0,0,0,0,0,0,0,-1,1588,1730,8.96525,-46.4316
371,-706,8.00464,44.9037,0,0,0,0,0,0,0,-1,1595,1730,8.00467,-44.9037
378,-706,7.63867,44.0519,0,0,0,0,0,0,0,-1,1602,1730,7.63863,-44.0519
385,-706,7.3186,43.2451,0,0,0,0,0,0,0,-1,1609,1730,7.31862,-43.2451
392,-706,7.33728,42.4652,0,0,0,0,0,0,0,-1,1616,1730,7.3373,-42.4651
399,-706,7.51855,41.7692,0,0,0,0,0,0,0,-1,1623,1730,7.51855,-41.7691
406,-706,7.46301,40.9797,0,0,0,0,0,0,0,-1,1630,1730,7.46301,-40.9797
413,-706,8.43433,40.3345,0,0,0,0,0,0,0,-1,1637,1730,8.43428,-40.3344
420,-706,8.0636,39.6101,0,0,0,0,0,0,0,-1,1644,1730,8.06362,-39.6101
427,-706,0,0,0,0,0,0,0,0,0,-1,1651,1730,0,0
434,-706,0,0,0,0,0,0,0,0,0,-1,1658,1730,0,0
441,-706,0,0,0,0,0,0,0,0,0,-1,1665,1730,0,0
448,-706,0,0,0,0,0,0,0,0,0,-1,1672,1730,0,0
455,-706,0,0,0,0,0,0,0,0,0,-1,1679,1730,0,0
462,-706,0,0,0,0,0,0,0,0,0,-1,1686,1730,0,0
469,-706,0,0,0,0,0,0,0,0,0,-1,1693,1730,0,0
476,-706,0,0,0,0,0,0,0,0,0,-1,1700,1730,0,0
483,-706,0,0,0,0,0,0,0,0,0,-1,1707,1730,0,0
490,-706,0,0,0,0,0,0,0,0,0,-1,1714,1730,0,0
497,-706,0,0,0,0,0,0,0,0,0,-1,1721,1730,0,0
504,-706,0,0,0,0,0,0,0,0,0,-1,1728,1730,0,0
511,-706,0,0,0,0,0,0,0,0,0,-1,1735,1730,0,0
518,-706,0,0,0,0,0,0,0,0,0,-1,1742,1730,0,0
525,-706,0,0,0,0,0,0,0,0,0,-1,1749,1730,0,0
532,-706,0,0,0,0,0,0,0,0,0,-1,1756,1730,0,0
539,-706,0,0,0,0,0,0,0,0,0,-1,1763,1730,0,0
546,-706,0,0,0,0,0,0,0,0,0,-1,1770,1730,0,0
553,-706,0,0,0,0,0,0,0,0,0,-1,1777,1730,0,0
560,-706,0,0,0,0,0,0,0,0,0,-1,1784,1730,0,0
567,-706,0,0,0,0,0,0,0,0,0,-1,1791,1730,0,0
574,-706,0,0,0,0,0,0,0,0,0,-1,1798,1730,0,0
581,-706,0,0,0,0,0,0,0,0,0,-1,1805,1730,0,0
588,-706,0,0,0,0,0,0,0,0,0,-1,1812,1730,0,0
595,-706,0,0,0,0,0,0,0,0,0,-1,1819,1730,0,0
602,-706,0,0,0,0,0,0,0,0,0,-1,1826,1730,0,0
609,-706,0,0,0,0,0,0,0,0,0,-1,1833,1730,0,0
616,-706,0,0,0,0,0,0,0,0,0,-1,1840,1730,0,0
623,-706,0,0,0,0,0,0,0,0,0,-1,1847,1730,0,0
630,-706,0,0,0,0,0,0,0,0,0,-1,1854,1730,0,0
637,-706,0,0,0,0,0,0,0,0,0,-1,1861,1730,0,0
644,-706,0,0,0,0,0,0,0,0,0,-1,1868,1730,0,0
651,-706,0,0,0,0,0,0,0,0,0,-1,1875,1730,0,0
658,-706,0,0,0,0,0,0,0,0,0,-1,1882,1730,0,0
665,-706,0,0,0,0,0,0,0,0,0,-1,1889,1730,0,0
672,-706,0,0,0,0,0,0,0,0,0,-1,1896,1730,0,0
679,-706,0,0,0,0,0,0,0,0,0,-1,1903,1730,0,0
686,-706,0,0,0,0,0,0,0,0,0,-1,1910,1730,0,0
693,-706,0,0,0,0,0,0,0,0,0,-1,1917,1730,0,0
700,-706,0,0,0,0,0,0,0,0,0,-1,1924,1730,0,0
707,-706,0,0,0,0,0,0,0,0,0,-1,1931,1730,0,0
714,-706,0,0,0,0,0,0,0,0,0,-1,1938,1730,0,0
721,-706,0,0,0,0,0,0,0,0,0,-1,1945,1730,0,0
728,-706,0,0,0,0,0,0,0,0,0,-1,1952,1730,0,0
735,-706,0,0,0,0,0,0,0,0,0,-1,1959,1730,0,0
742,-706,0,0,0,0,0,0,0,0,0,-1,1966,1730,0,0
749,-706,0,0,0,0,0,0,0,0,0,-1,1973,1730,0,0
756,-706,0,0,0,0,0,0,0,0,0,-1,1980,1730,0,0
763,-706,0,0,0,0,0,0,0,0,0,-1,1987,1730,0,0
770,-706,0,0,0,0,0,0,0,0,0,-1,1994,1730,0,0
777,-706,0,0,0,0,0,0,0,0,0,-1,2001,1730,0,0
784,-706,0,0,0,0,0,0,0,0,0,-1,2008,1730,0,0
791,-706,0,0,0,0,0,0,0,0,0,-1,2015,1730,0,0
798,-706,0,0,0,0,0,0,0,0,0,-1,2022,1730,0,0
805,-706,0,0,0,0,0,0,0,0,0,-1,2029,1730,0,0
812,-706,0,0,0,0,0,0,0,0,0,-1,2036,1730,0,0
-700,-713,0,0,0,0,0,0,0,0,0,-1,524,1737,0,0
-693,-713,0,0,0,0,0,0,0,0,0,-1,531,1737,0,0
-686,-713,0,0,0,0,0,0,0,0,0,-1,538,1737,0,0
-679,-713,0,0,0,0,0,0,0,0,0,-1,545,1737,0,0
-672,-713,0,0,0,0,0,0,0,0,0,-1,552,1737,0,0
-665,-713,0,0,0,0,0,0,0,0,0,-1,559,1737,0,0
-658,-713,0,0,0,0,0,0,0,0,0,-1,566,1737,0,0
-651,-713,0,0,0,0,0,0,0,0,0,-1,573,1737,0,0
-644,-713,0,0,0,0,0,0,0,0,0,-1,580,1737,0,0
-637,-713,0,0,0,0,0,0,0,0,0,-1,587,1737,0,0
-630,-713,0,0,0,0,0,0,0,0,0,-1,594,1737,0,0
-623,-713,0,0,0,0,0,0,0,0,0,-1,601,1737,0,0
-616,-713,0,0,0,0,0,0,0,0,0,-1,608,1737,0,0
-609,-713,0,0,0,0,0,0,0,0,0,-1,615,1737,0,0
-602,-713,0,0,0,0,0,0,0,0,0,-1,622,1737,0,0
-595,-713,0,0,0,0,0,0,0,0,0,-1,629,1737,0,0
-588,-713,0,0,0,0,0,0,0,0,0,-1,636,1737,0,0
-581,-713,0,0,0,0,0,0,0,0,0,-1,643,1737,0,0
-574,-713,0,0,0,0,0,0,0,0,0,-1,650,1737,0,0
-567,-713,0,0,0,0,0,0,0,0,0,-1,657,1737,0,0
-560,-713,0,0,0,0,0,0,0,0,0,-1,664,1737,0,0
-553,-713,0,0,0,0,0,0,0,0,0,-1,671,1737,0,0
-546,-713,0,0,0,0,0,0,0,0,0,-1,678,1737,0,0
-539,-713,0,0,0,0,0,0,0,0,0,-1,685,1737,0,0
-532,-713,0,0,0,0,0,0,0,0,0,-1,692,1737,0,0
-525,-713,0,0,0,0,0,0,0,0,0,-1,699,1737,0,0
-518,-713,0,0,0,0,0,0,0,0,0,-1,706,1737,0,0
-511,-713,0,0,0,0,0,0,0,0,0,-1,713,1737,0,0
-504,-713,0,0,0,0,0,0,0,0,0,-1,720,1737,0,0
-497,-713,0,0,0,0,0,0,0,0,0,-1,727,1737,0,0
-490,-713,0,0,0,0,0,0,0,0,0,-1,734,1737,0,0
-483,-713,0,0,0,0,0,0,0,0,0,-1,741,1737,0,0
-476,-713,0,0,0,0,0,0,0,0,0,-1,748,1737,0,0
-469,-713,0,0,0,0,0,0,0,0,0,-1,755,1737,0,0
-462,-713,0,0,0,0,0,0,0,0,0,-1,762,1737,0,0
-455,-713,0,0,0,0,0,0,0,0,0,-1,769,1737,0,0
-448,-713,0,0,0,0,0,0,0,0,0,-1,776,1737,0,0
-441,-713,0,0,0,0,0,0,0,0,0,-1,783,1737,0,0
-434,-713,0,0,0,0,0,0,0,0,0,-1,790,1737,0,0
-427,-713,0,0,0,0,0,0,0,0,0,-1,797,1737,0,0
-420,-713,0,0,0,0,0,0,0,0,0,-1,804,1737,0,0
-413,-713,0,0,0,0,0,0,0,0,0,-1,811,1737,0,0
-406,-713,0,0,0,0,0,0,0,0,0,-1,818,1737,0,0
-399,-713,0,0,0,0,0,0,0,0,0,-1,825,1737,0,0
-392,-713,0,0,0,0,0,0,0,0,0,-1,832,1737,0,0
-385,-713,0,0,0,0,0,0,0,0,0,-1,839,1737,0,0
-378,-713,0,0,0,0,0,0,0,0,0,-1,846,1737,0,0
-371,-713,0,0,0,0,0,0,0,0,0,-1,853,1737,0,0
-364,-713,0,0,0,0,0,0,0,0,0,-1,860,1737,0,0
-357,-713,0,0,0,0,0,0,0,0,0,-1,867,1737,0,0
-350,-713,0,0,0,0,0,0,0,0,0,-1,874,1737,0,0
-343,-713,0,0,0,0,0,0,0,0,0,-1,881,1737,0,0
-336,-713,0,0,0,0,0,0,0,0,0,-1,888,1737,0,0
-329,-713,0,0,0,0,0,0,0,0,0,-1,895,1737,0,0
-322,-713,0,0,0,0,0,0,0,0,0,-1,902,1737,0,0
-315,-713,0,0,0,0,0,0,0,0,0,-1,909,1737,0,0
-308,-713,0,0,0,0,0,0,0,0,0,-1,916,1737,0,0
-301,-713,0,0,0,0,0,0,0,0,0,-1,923,1737,0,0
-294,-713,7.17883,22.0453,0,0,0,0,0,0,0,-1,930,1737,7.17881,-22.0453
-287,-713,11.8916,21.5834,0,0,0,0,0,0,0,-1,937,1737,11.8916,-21.5833
-280,-713,10.2786,21.3551,0,0,0,0,0,0,0,-1,944,1737,10.2787,-21.3551
-273,-713,11.1981,23.8683,0,0,0,0,0,0,0,-1,951,1737,11.198,-23.8683
-266,-713,3.17981,19.8851,0,0,0,0,0,0,0,-1,958,1737,3.17983,-19.8851
-259,-713,3.5921,19.6868,0,0,0,0,0,0,0,-1,965,1737,3.59207,-19.6868
-252,-713,4.55469,20.5758,0,0,0,0,0,0,0,-1,972,1737,4.55466,-20.5758
-245,-713,3.89014,25.9825,0,0,0,0,0,0,0,-1,979,1737,3.89013,-25.9826
-238,-713,6.62506,30.5463,0,0,0,0,0,0,0,-1,986,1737,6.62509,-30.5462
-231,-713,9.22864,47.2107,0,0,0,0,0,0,0,-1,993,1737,9.22866,-47.2107
-224,-713,9.27545,47.6686,0,0,0,0,0,0,0,-1,1000,1737,9.27548,-47.6686
-217,-713,9.27393,48.5757,0,0,0,0,0,0,0,-1,1007,1737,9.2739,-48.5757
-210,-713,8.91949,48.8566,0,0,0,0,0,0,0,-1,1014,1737,8.91948,-48.8565
-203,-713,8.92151,49.2462,0,0,0,0,0,0,0,-1,1021,1737,8.92156,-49.2462
-196,-713,8.94263,49.7365,-0.00960393,0.00208991,0.00123847,0.00221964,-0.00973365,1.46643,0.00734169,0.0463779,1028,1737,8.94268,-49.7365
-189,-713,8.90894,50.0837,-0.00830251,0.00269622,0.00148448,0.00289306,-0.00849935,1.43897,0.00683773,0.040701,1035,1737,8.9089,-50.0838
-182,-713,8.91882,50.5826,-0.0072379,0.00289724,0.00156149,0.00313236,-0.00747302,1.42135,0.00629165,0.0265698,1042,1737,8.91887,-50.5827
-175,-713,8.95178,51.1372,-0.00626966,0.00338917,0.00170128,0.00368007,-0.00656056,1.40145,0.00598989,0.0244493,1049,1737,8.95175,-51.1372
-168,-713,8.97778,51.6552,-0.00572034,0.00378217,0.00181725,0.00411784,-0.00605601,1.38814,0.0059093,0.0276811,1056,1737,8.97774,-51.6551
-161,-713,8.87085,52.1763,-0.00531179,0.00447236,0.00203852,0.0048801,-0.00571952,1.37339,0.00612608,0.01357,1063,1737,8.87085,-52.1763
-154,-713,8.78748,52.6176,-0.00494936,0.00480101,0.00215088,0.0052544,-0.00540275,1.36304,0.0061531,0.0116676,1070,1737,8.78749,-52.6176
-147,-713,8.73181,53.0721,-0.00447386,0.00482496,0.00222647,0.00533056,-0.00497946,1.3475,0.00595365,0.0189736,1077,1737,8.73178,-53.0722
-140,-713,8.73083,53.5302,-0.00387488,0.00479478,0.00225413,0.00534583,-0.00442594,1.33103,0.00565006,0.0194544,1084,1737,8.73086,-53.5302
-133,-713,8.70068,53.9257,-0.00326072,0.00445924,0.00226581,0.00507512,-0.0038766,1.30539,0.0051837,0.0124838,1091,1737,8.70066,-53.9256
-126,-713,8.69519,54.2948,-0.00270863,0.0042665,0.00236228,0.00499123,-0.00343336,1.27312,0.00489158,0.0182897,1098,1737,8.69519,-54.2948
-119,-713,8.69312,54.6877,-0.0021423,0.00384571,0.00228535,0.00461826,-0.00291484,1.24481,0.00438614,0.0271629,1105,1737,8.69313,-54.6877
-112,-713,8.62183,55.1189,-0.00145928,0.00361006,0.00216309,0.00440758,-0.0022568,1.21756,0.00391391,0.0142632,1112,1737,8.62186,-55.1189
-105,-713,8.59314,55.4783,-0.000914602,0.00322783,0.00192066,0.0039813,-0.00166807,1.19695,0.00335157,0.0114604,1119,1737,8.59319,-55.4783
-98,-713,8.59045,55.8184,-0.000433926,0.00272663,0.00176217,0.00351332,-0.00122061,1.15091,0.00283797,0.0105841,1126,1737,8.59045,-55.8183
-91,-713,8.57483,56.1633,2.07806e-05,0.00244846,0.00154081,0.00319612,-0.000726883,1.11902,0.00240986,0.0107841,1133,1737,8.57482,-56.1633
-84,-713,8.55981,56.5175,0.000351955,0.00217685,0.00128808,0.00284292,-0.00031411,1.09356,0.00200819,0.0106,1140,1737,8.55981,-56.5174
-77,-713,8.54871,56.8406,0.000658774,0.00196339,0.00109369,0.00258452,3.76381e-05,1.05429,0.00171061,0.013783,1147,1737,8.54865,-56.8406
-70,-713,8.54773,57.1394,0.000978048,0.00172634,0.000809169,0.00224367,0.000460712,1.00195,0.00136832,0.0153924,1154,1737,8.54777,-57.1394
-63,-713,8.53516,57.405,0.00128082,0.00131842,0.000562117,0.00186205,0.00073719,0.802113,0.00108279,0.0134129,1161,1737,8.53515,-57.405
-56,-713,8.55859,57.6742,0.00165689,0.00101548,0.000561677,0.00198297,0.0006894,0.525994,0.00116245,0.013345,1168,1737,8.55859,-57.6741
-49,-713,8.52527,57.9406,0.00192677,0.000860512,0.000541286,0.00215338,0.000633893,0.396496,0.00127782,0.0164023,1175,1737,8.52525,-57.9406
-42,-713,8.55139,58.1848,0.00219216,0.000579856,0.0007895,0.00251437,0.000257651,0.387481,0.0015973,0.0193028,1182,1737,8.5514,-58.1849
-35,-713,8.57642,58.3981,0.00259413,0.000323839,0.000727707,0.00280736,0.00011061,0.285036,0.00183581,0.0156115,1189,1737,8.57636,-58.398
-28,-713,8.59644,58.6404,0.00301423,-0.00013049,0.000560252,0.00311106,-0.000227321,0.171144,0.00215382,0.0144226,1196,1737,8.59642,-58.6403
-21,-713,8.62927,58.8245,0.00335254,-0.00064851,0.000546097,0.00342574,-0.000721707,0.133242,0.00255855,0.0112171,1203,1737,8.62933,-58.8244
-14,-713,8.64514,58.9838,0.00342096,-0.00116699,0.000100774,0.00342318,-0.0011692,0.0219508,0.0027558,0.0121248,1210,1737,8.6451,-58.9837
-7,-713,8.6665,59.171,0.00334135,-0.00139326,-0.000492864,0.00339212,-0.00144403,-0.102632,0.00286666,0.00971495,1217,1737,8.66646,-59.171
0,-713,8.69336,59.3293,0.00267064,-0.00135751,-0.00118132,0.00299152,-0.00167839,-0.265228,0.00273147,0.0152817,1224,1737,8.69335,-59.3293
7,-713,8.71802,59.4447,0.00162665,-0.00154948,-0.00200822,0.00259884,-0.00252167,-0.45085,0.00295644,0.0188441,1231,1737,8.71798,-59.4447
14,-713,8.74963,59.5701,0.000252689,-0.0018628,-0.00301994,0.00239477,-0.00400488,-0.616948,0.00373361,0.0135219,1238,1737,8.74958,-59.5701
21,-713,8.79773,59.672,-0.00110375,-0.00192581,-0.00391281,0.00241956,-0.00544912,-0.733066,0.00465387,0.0114646,1245,1737,8.79771,-59.672
28,-713,8.82825,59.7692,-0.00261025,-0.00196881,-0.00462106,0.00234265,-0.0069217,-0.820045,0.0055623,0.0114868,1252,1737,8.82821,-59.7692
35,-713,8.85657,59.8386,-0.00417805,-0.00210173,-0.00525327,0.00221498,-0.00849476,-0.882952,0.00652798,0.0117413,1259,1737,8.85657,-59.8386
42,-713,8.9043,59.8781,-0.00543376,-0.00240499,-0.00560362,0.00188526,-0.00972402,-0.917371,0.00719392,0.011778,1266,1737,8.90433,-59.878
49,-713,8.94055,59.8671,-0.00659629,-0.00281999,-0.0058204,0.00141086,-0.0108271,-0.942244,0.00773141,0.0135197,1273,1737,8.94056,-59.8671
56,-713,8.96863,59.8859,-0.00733661,-0.00351688,-0.00576983,0.000650962,-0.0115045,-0.945227,0.00789557,0.0157969,1280,1737,8.96863,-59.8858
63,-713,9.005,59.9363,-0.0076419,-0.00400054,-0.00580708,0.000264591,-0.011907,-0.937308,0.00802767,0.0150266,1287,1737,9.00501,-59.9363
70,-713,9.03687,59.9449,-0.00749054,-0.00437912,-0.00563391,-9.00691e-05,-0.0117796,-0.920108,0.00782321,0.012431,1294,1737,9.03691,-59.945
77,-713,9.07092,59.9374,-0.00692678,-0.00485039,-0.00527568,-0.000511717,-0.0112654,-0.882551,0.00734567,0.011696,1301,1737,9.0709,-59.9374
84,-713,9.11707,59.9125,-0.00603502,-0.00525131,-0.00499661,-0.000631216,-0.0106551,-0.82453,0.00690264,0.0117248,1308,1737,9.11706,-59.9124
91,-713,9.13855,59.8307,-0.00495494,-0.00551572,-0.00453752,-0.000689149,-0.00978151,-0.754541,0.00630386,0.0119837,1315,1737,9.1386,-59.8307
98,-713,9.15491,59.7456,-0.00383145,-0.00585899,-0.00430442,-0.000423033,-0.0092674,-0.669746,0.0060422,0.01236,1322,1737,9.15494,-59.7456
105,-713,9.18872,59.6702,-0.00250104,-0.00599712,-0.00415146,0.000255399,-0.00875356,-0.586131,0.00592267,0.0154533,1329,1737,9.18871,-59.6702
112,-713,9.21277,59.5862,-0.00127371,-0.00564594,-0.00398528,0.00108568,-0.00800533,-0.534535,0.00573315,0.0146885,1336,1737,9.21278,-59.5862
119,-713,9.22083,59.4529,-0.000276953,-0.00514711,-0.00365108,0.00167659,-0.00710065,-0.4913,0.00538042,0.0142206,1343,1737,9.22083,-59.4529
126,-713,9.26135,59.3135,0.000387752,-0.00473402,-0.00333201,0.0020293,-0.00637556,-0.457758,0.0050642,0.0138439,1350,1737,9.26139,-59.3135
133,-713,9.31323,59.1335,0.000992034,-0.00413015,-0.00295634,0.00234235,-0.00548047,-0.428456,0.00463606,0.0128193,1357,1737,9.31326,-59.1335
140,-713,9.37793,58.9556,0.00143908,-0.00332369,-0.00244801,0.00247292,-0.00435753,-0.399596,0.00399329,0.013848,1364,1737,9.37798,-58.9555
147,-713,9.40918,58.7454,0.00159608,-0.00244657,-0.00199687,0.0024161,-0.00326659,-0.389656,0.00329313,0.0154773,1371,1737,9.40913,-58.7453
154,-713,9.39709,58.5819,0.00203176,-0.00163786,-0.00142798,0.00252195,-0.00212806,-0.330675,0.00268789,0.0150638,1378,1737,9.39713,-58.5819
161,-713,9.41211,58.338,0.00222951,-0.000716518,-0.000848548,0.00245643,-0.000943447,-0.261317,0.00202668,0.010784,1385,1737,9.41217,-58.338
168,-713,9.41162,58.0995,0.00216152,-0.000157671,-0.000194915,0.00217779,-0.000173938,-0.083266,0.00151318,0.0102322,1392,1737,9.41162,-58.0994
175,-713,9.4259,57.8558,0.00205336,7.07609e-05,0.000480899,0.00216385,-3.97286e-05,0.225837,0.00145599,0.0133435,1399,1737,9.42592,-57.8558
182,-713,9.42322,57.601,0.00169406,0.00048743,0.000255472,0.00174592,0.00043557,0.200276,0.00104934,0.0127665,1406,1737,9.42317,-57.6009
189,-713,9.43518,57.3158,0.0013968,0.00081978,-7.97019e-05,0.00140761,0.000808974,-0.134765,0.000815703,0.0122671,1413,1737,9.43514,-57.3158
196,-713,9.45471,57.0271,0.00117345,0.00108587,-0.000383897,0.00151604,0.000743272,-0.728613,0.000875344,0.0132032,1420,1737,9.4547,-57.0271
203,-713,9.46021,56.7358,0.000899326,0.00133348,-0.000642201,0.0017943,0.000438507,-0.948381,0.00108012,0.0177959,1427,1737,9.46017,-56.7358
210,-713,9.44824,56.4019,0.000664263,0.00168808,-0.000937629,0.00224444,0.000107902,-1.03527,0.00146165,0.0155006,1434,1737,9.44821,-56.4018
217,-713,9.45325,56.0791,0.000389493,0.00199864,-0.00117496,0.0026181,-0.00022997,-1.08561,0.00182689,0.0117821,1441,1737,9.45324,-56.0791
224,-713,9.44104,55.7554,6.53266e-05,0.00228305,-0.00140465,0.00296378,-0.000615399,-1.11953,0.00220974,0.01149,1448,1737,9.44106,-55.7553
231,-713,9.44836,55.4006,-0.000320728,0.00254066,-0.00161356,0.00326646,-0.00104653,-1.1481,0.00259773,0.0114788,1455,1737,9.44834,-55.4006
238,-713,9.42749,55.0271,-0.000601767,0.00274688,-0.0017887,0.00352262,-0.0013775,-1.16159,0.00291805,0.0093415,1462,1737,9.42752,-55.0271
245,-713,9.40515,54.6432,-0.000809298,0.00301995,-0.00203473,0.00389923,-0.00168858,-1.1629,0.00330921,0.0124016,1469,1737,9.40513,-54.6432
252,-713,9.39294,54.2371,-0.00112359,0.0032705,-0.00218704,0.00417349,-0.00202658,-1.17924,0.00365044,0.0125673,1476,1737,9.39297,-54.237
259,-713,9.37769,53.8291,-0.00146096,0.00351277,-0.00222511,0.00436291,-0.0023111,-1.20584,0.00391347,0.0117917,1483,1737,9.37763,-53.8291
266,-713,9.31677,53.4478,-0.00172777,0.00367734,-0.00233408,0.00454575,-0.00259617,-1.21461,0.00417429,0.0108847,1490,1737,9.31675,-53.4478
273,-713,9.27466,53.0331,-0.0019679,0.00398828,-0.00246769,0.00487781,-0.00285744,-1.22482,0.00451644,0.00932498,1497,1737,9.27465,-53.0331
280,-713,9.23669,52.5897,-0.00233942,0.0043031,-0.00263358,0.00522053,-0.00325685,-1.23558,0.00493799,0.0100279,1504,1737,9.23672,-52.5897
287,-713,9.22314,52.1198,-0.0026765,0.00485131,-0.00275241,0.00575032,-0.00357551,-1.25509,0.00543285,0.0110132,1511,1737,9.22315,-52.1197
294,-713,9.21411,51.6644,-0.00296153,0.00575134,-0.00292181,0.00664042,-0.00385062,-1.27541,0.00612798,0.0184092,1518,1737,9.21415,-51.6644
301,-713,9.0979,51.1376,-0.00331479,0.00713393,-0.0033081,0.00809321,-0.00427408,-1.28856,0.00725286,0.0303391,1525,1737,9.09792,-51.1376
308,-713,8.95581,50.644,-0.00371054,0.00891395,-0.00383118,0.00998563,-0.00478222,-1.29804,0.00870085,0.0448944,1532,1737,8.95575,-50.644
315,-713,9.08691,50.1085,0,0,0,0,0,0,0,-1,1539,1737,9.08695,-50.1085
322,-713,9.01343,49.5233,0,0,0,0,0,0,0,-1,1546,1737,9.01342,-49.5233
329,-713,9.14221,49.1034,0,0,0,0,0,0,0,-1,1553,1737,9.14217,-49.1034
336,-713,9.02637,48.5758,0,0,0,0,0,0,0,-1,1560,1737,9.02638,-48.5759
343,-713,8.63843,47.9285,0,0,0,0,0,0,0,-1,1567,1737,8.63843,-47.9285
350,-713,8.63867,47.4143,0,0,0,0,0,0,0,-1,1574,1737,8.6387,-47.4143
357,-713,8.01538,45.3817,0,0,0,0,0,0,0,-1,1581,1737,8.01534,-45.3818
364,-713,7.52661,46.5348,0,0,0,0,0,0,0,-1,1588,1737,7.52664,-46.5347
371,-713,7.3302,45.0861,0,0,0,0,0,0,0,-1,1595,1737,7.33021,-45.0861
378,-713,6.73975,44.3853,0,0,0,0,0,0,0,-1,1602,1737,6.7397,-44.3853
385,-713,6.58777,43.6438,0,0,0,0,0,0,0,-1,1609,1737,6.58781,-43.6438
392,-713,6.62964,42.8679,0,0,0,0,0,0,0,-1,1616,1737,6.62968,-42.868
399,-713,6.53748,42.0555,0,0,0,0,0,0,0,-1,1623,1737,6.53749,-42.0555
406,-713,2.49878,27.8931,0,0,0,0,0,0,0,-1,1630,1737,2.49884,-27.893
413,-713,1.36597,29.459,0,0,0,0,0,0,0,-1,1637,1737,1.36593,-29.459
420,-713,0,0,0,0,0,0,0,0,0,-1,1644,1737,0,0
427,-713,0,0,0,0,0,0,0,0,0,-1,1651,1737,0,0
434,-713,0,0,0,0,0,0,0,0,0,-1,1658,1737,0,0
441,-713,0,0,0,0,0,0,0,0,0,-1,1665,1737,0,0
448,-713,0,0,0,0,0,0,0,0,0,-1,1672,1737,0,0
455,-713,0,0,0,0,0,0,0,0,0,-1,1679,1737,0,0
462,-713,0,0,0,0,0,0,0,0,0,-1,1686,1737,0,0
469,-713,0,0,0,0,0,0,0,0,0,-1,1693,1737,0,0
476,-713,0,0,0,0,0,0,0,0,0,-1,1700,1737,0,0
483,-713,0,0,0,0,0,0,0,0,0,-1,1707,1737,0,0
490,-713,0,0,0,0,0,0,0,0,0,-1,1714,1737,0,0
497,-713,0,0,0,0,0,0,0,0,0,-1,1721,1737,0,0
504,-713,0,0,0,0,0,0,0,0,0,-1,1728,1737,0,0
511,-713,0,0,0,0,0,0,0,0,0,-1,1735,1737,0,0
518,-713,0,0,0,0,0,0,0,0,0,-1,1742,1737,0,0
525,-713,0,0,0,0,0,0,0,0,0,-1,1749,1737,0,0
532,-713,0,0,0,0,0,0,0,0,0,-1,1756,1737,0,0
539,-713,0,0,0,0,0,0,0,0,0,-1,1763,1737,0,0
546,-713,0,0,0,0,0,0,0,0,0,-1,1770,1737,0,0
553,-713,0,0,0,0,0,0,0,0,0,-1,1777,1737,0,0
560,-713,0,0,0,0,0,0,0,0,0,-1,1784,1737,0,0
567,-713,0,0,0,0,0,0,0,0,0,-1,1791,1737,0,0
574,-713,0,0,0,0,0,0,0,0,0,-1,1798,1737,0,0
581,-713,0,0,0,0,0,0,0,0,0,-1,1805,1737,0,0
588,-713,0,0,0,0,0,0,0,0,0,-1,1812,1737,0,0
595,-713,0,0,0,0,0,0,0,0,0,-1,1819,1737,0,0
602,-713,0,0,0,0,0,0,0,0,0,-1,1826,1737,0,0
609,-713,0,0,0,0,0,0,0,0,0,-1,1833,1737,0,0
616,-713,0,0,0,0,0,0,0,0,0,-1,1840,1737,0,0
623,-713,0,0,0,0,0,0,0,0,0,-1,1847,1737,0,0
630,-713,0,0,0,0,0,0,0,0,0,-1,1854,1737,0,0
637,-713,0,0,0,0,0,0,0,0,0,-1,1861,1737,0,0
644,-713,0,0,0,0,0,0,0,0,0,-1,1868,1737,0,0
651,-713,0,0,0,0,0,0,0,0,0,-1,1875,1737,0,0
658,-713,0,0,0,0,0,0,0,0,0,-1,1882,1737,0,0
665,-713,0,0,0,0,0,0,0,0,0,-1,1889,1737,0,0
672,-713,0,0,0,0,0,0,0,0,0,-1,1896,1737,0,0
679,-713,0,0,0,0,0,0,0,0,0,-1,1903,1737,0,0
686,-713,0,0,0,0,0,0,0,0,0,-1,1910,1737,0,0
693,-713,0,0,0,0,0,0,0,0,0,-1,1917,1737,0,0
700,-713,0,0,0,0,0,0,0,0,0,-1,1924,1737,0,0
707,-713,0,0,0,0,0,0,0,0,0,-1,1931,1737,0,0
714,-713,0,0,0,0,0,0,0,0,0,-1,1938,1737,0,0
721,-713,0,0,0,0,0,0,0,0,0,-1,1945,1737,0,0
728,-713,0,0,0,0,0,0,0,0,0,-1,1952,1737,0,0
735,-713,0,0,0,0,0,0,0,0,0,-1,1959,1737,0,0
742,-713,0,0,0,0,0,0,0,0,0,-1,1966,1737,0,0
749,-713,0,0,0,0,0,0,0,0,0,-1,1973,1737,0,0
756,-713,0,0,0,0,0,0,0,0,0,-1,1980,1737,0,0
763,-713,0,0,0,0,0,0,0,0,0,-1,1987,1737,0,0
770,-713,0,0,0,0,0,0,0,0,0,-1,1994,1737,0,0
777,-713,0,0,0,0,0,0,0,0,0,-1,2001,1737,0,0
784,-713,0,0,0,0,0,0,0,0,0,-1,2008,1737,0,0
791,-713,0,0,0,0,0,0,0,0,0,-1,2015,1737,0,0
798,-713,0,0,0,0,0,0,0,0,0,-1,2022,1737,0,0
805,-713,0,0,0,0,0,0,0,0,0,-1,2029,1737,0,0
812,-713,0,0,0,0,0,0,0,0,0,-1,2036,1737,0,0
-700,-720,0,0,0,0,0,0,0,0,0,-1,524,1744,0,0
-693,-720,0,0,0,0,0,0,0,0,0,-1,531,1744,0,0
-686,-720,0,0,0,0,0,0,0,0,0,-1,538,1744,0,0
-679,-720,0,0,0,0,0,0,0,0,0,-1,545,1744,0,0
-672,-720,0,0,0,0,0,0,0,0,0,-1,552,1744,0,0
-665,-720,0,0,0,0,0,0,0,0,0,-1,559,1744,0,0
-658,-720,0,0,0,0,0,0,0,0,0,-1,566,1744,0,0
-651,-720,0,0,0,0,0,0,0,0,0,-1,573,1744,0,0
-644,-720,0,0,0,0,0,0,0,0,0,-1,580,1744,0,0
-637,-720,0,0,0,0,0,0,0,0,0,-1,587,1744,0,0
-630,-720,0,0,0,0,0,0,0,0,0,-1,594,1744,0,0
-623,-720,0,0,0,0,0,0,0,0,0,-1,601,1744,0,0
-616,-720,0,0,0,0,0,0,0,0,0,-1,608,1744,0,0
-609,-720,0,0,0,0,0,0,0,0,0,-1,615,1744,0,0
-602,-720,0,0,0,0,0,0,0,0,0,-1,622,1744,0,0
-595,-720,0,0,0,0,0,0,0,0,0,-1,629,1744,0,0
-588,-720,0,0,0,0,0,0,0,0,0,-1,636,1744,0,0
-581,-720,0,0,0,0,0,0,0,0,0,-1,643,1744,0,0
-574,-720,0,0,0,0,0,0,0,0,0,-1,650,1744,0,0
-567,-720,0,0,0,0,0,0,0,0,0,-1,657,1744,0,0
-560,-720,0,0,0,0,0,0,0,0,0,-1,664,1744,0,0
-553,-720,0,0,0,0,0,0,0,0,0,-1,671,1744,0,0
-546,-720,0,0,0,0,0,0,0,0,0,-1,678,1744,0,0
-539,-720,0,0,0,0,0,0,0,0,0,-1,685,1744,0,0
-532,-720,0,0,0,0,0,0,0,0,0,-1,692,1744,0,0
-525,-720,0,0,0,0,0,0,0,0,0,-1,699,1744,0,0
-518,-720,0,0,0,0,0,0,0,0,0,-1,706,1744,0,0
-511,-720,0,0,0,0,0,0,0,0,0,-1,713,1744,0,0
-504,-720,0,0,0,0,0,0,0,0,0,-1,720,1744,0,0
-497,-720,0,0,0,0,0,0,0,0,0,-1,727,1744,0,0
-490,-720,0,0,0,0,0,0,0,0,0,-1,734,1744,0,0
-483,-720,0,0,0,0,0,0,0,0,0,-1,741,1744,0,0
-476,-720,0,0,0,0,0,0,0,0,0,-1,748,1744,0,0
-469,-720,0,0,0,0,0,0,0,0,0,-1,755,1744,0,0
-462,-720,0,0,0,0,0,0,0,0,0,-1,762,1744,0,0
-455,-720,0,0,0,0,0,0,0,0,0,-1,769,1744,0,0
-448,-720,0,0,0,0,0,0,0,0,0,-1,776,1744,0,0
-441,-720,0,0,0,0,0,0,0,0,0,-1,783,1744,0,0
-434,-720,0,0,0,0,0,0,0,0,0,-1,790,1744,0,0
-427,-720,0,0,0,0,0,0,0,0,0,-1,797,1744,0,0
-420,-720,0,0,0,0,0,0,0,0,0,-1,804,1744,0,0
-413,-720,0,0,0,0,0,0,0,0,0,-1,811,1744,0,0
-406,-720,0,0,0,0,0,0,0,0,0,-1,818,1744,0,0
-399,-720,0,0,0,0,0,0,0,0,0,-1,825,1744,0,0
-392,-720,0,0,0,0,0,0,0,0,0,-1,832,1744,0,0
-385,-720,0,0,0,0,0,0,0,0,0,-1,839,1744,0,0
-378,-720,0,0,0,0,0,0,0,0,0,-1,846,1744,0,0
-371,-720,0,0,0,0,0,0,0,0,0,-1,853,1744,0,0
-364,-720,0,0,0,0,0,0,0,0,0,-1,860,1744,0,0
-357,-720,0,0,0,0,0,0,0,0,0,-1,867,1744,0,0
-350,-720,0,0,0,0,0,0,0,0,0,-1,874,1744,0,0
-343,-720,0,0,0,0,0,0,0,0,0,-1,881,1744,0,0
-336,-720,0,0,0,0,0,0,0,0,0,-1,888,1744,0,0
-329,-720,0,0,0,0,0,0,0,0,0,-1,895,1744,0,0
-322,-720,0,0,0,0,0,0,0,0,0,-1,902,1744,0,0
-315,-720,0,0,0,0,0,0,0,0,0,-1,909,1744,0,0
-308,-720,0,0,0,0,0,0,0,0,0,-1,916,1744,0,0
-301,-720,0,0,0,0,0,0,0,0,0,-1,923,1744,0,0
-294,-720,0,0,0,0,0,0,0,0,0,-1,930,1744,0,0
-287,-720,0,0,0,0,0,0,0,0,0,-1,937,1744,0,0
-280,-720,6.46796,22.6417,0,0,0,0,0,0,0,-1,944,1744,6.46793,-22.6417
-273,-720,8.54633,13.262,0,0,0,0,0,0,0,-1,951,1744,8.54636,-13.2619
-266,-720,7.28027,13.3165,0,0,0,0,0,0,0,-1,958,1744,7.28026,-13.3166
-259,-720,3.70563,18.6372,0,0,0,0,0,0,0,-1,965,1744,3.70564,-18.6372
-252,-720,4.00989,18.5059,0,0,0,0,0,0,0,-1,972,1744,4.00988,-18.5058
-245,-720,7.05634,33.8489,0,0,0,0,0,0,0,-1,979,1744,7.05634,-33.8489
-238,-720,5.02216,24.1455,0,0,0,0,0,0,0,-1,986,1744,5.02217,-24.1455
-231,-720,10.0776,46.4656,0,0,0,0,0,0,0,-1,993,1744,10.0776,-46.4655
-224,-720,9.78308,47.9088,0,0,0,0,0,0,0,-1,1000,1744,9.78308,-47.9088
-217,-720,10.4755,46.8452,0,0,0,0,0,0,0,-1,1007,1744,10.4755,-46.8452
-210,-720,8.74036,38.6686,0,0,0,0,0,0,0,-1,1014,1744,8.74035,-38.6686
-203,-720,10.1962,49.0282,0,0,0,0,0,0,0,-1,1021,1744,10.1962,-49.0282
-196,-720,9.26318,49.9153,0,0,0,0,0,0,0,-1,1028,1744,9.26321,-49.9153
-189,-720,9.56189,50.3237,0,0,0,0,0,0,0,-1,1035,1744,9.56191,-50.3238
-182,-720,9.65393,50.7792,-0.00934208,0.00449074,0.00151215,0.00465412,-0.00950545,1.46317,0.00833344,0.0445754,1042,1744,9.65399,-50.7792
-175,-720,9.59583,51.1985,-0.00834907,0.00529597,0.00185034,0.00554244,-0.00859553,1.43838,0.00822576,0.0455928,1049,1744,9.59588,-51.1985
-168,-720,9.43103,51.687,-0.00783401,0.00572515,0.0020907,0.0060402,-0.00814906,1.42123,0.00822228,0.0423057,1056,1744,9.43107,-51.687
-161,-720,9.14001,52.1542,-0.00740697,0.00660007,0.00246841,0.00702234,-0.00782924,1.40137,0.00857878,0.0276356,1063,1744,9.13998,-52.1542
-154,-720,9.21387,52.6221,-0.00704369,0.00698286,0.0027261,0.00749406,-0.00755488,1.38543,0.00868853,0.020516,1070,1744,9.21391,-52.622
-147,-720,9.14978,53.1515,-0.00655052,0.00693446,0.0029061,0.00753408,-0.00715015,1.36732,0.00847891,0.0218962,1077,1744,9.14976,-53.1515
-140,-720,9.12439,53.5999,-0.00591107,0.00683571,0.00300008,0.0075065,-0.00658186,1.35082,0.00813976,0.0199675,1084,1744,9.12445,-53.5999
-133,-720,9.07434,53.9502,-0.00524511,0.00634009,0.0030446,0.00709147,-0.0059965,1.32884,0.00756515,0.0152631,1091,1744,9.07439,-53.9502
-126,-720,9.06238,54.351,-0.00464382,0.00604642,0.0032134,0.00693799,-0.00553538,1.30015,0.00721667,0.0147209,1098,1744,9.06238,-54.351
-119,-720,9.02307,54.7365,-0.00402687,0.00541405,0.00312853,0.00635667,-0.00496949,1.27815,0.00655549,0.0146972,1105,1744,9.02302,-54.7364
-112,-720,8.96948,55.0981,-0.00322913,0.00511444,0.00301469,0.00608971,-0.0042044,1.25792,0.00597644,0.0136337,1112,1744,8.96948,-55.0982
-105,-720,8.94751,55.4713,-0.00260827,0.00462149,0.00275057,0.00554896,-0.00353574,1.24558,0.00528781,0.0134434,1119,1744,8.94748,-55.4713
-98,-720,8.92871,55.8218,-0.0020496,0.00392674,0.00260573,0.00490329,-0.00302616,1.21223,0.00462063,0.0107778,1126,1744,8.92869,-55.8218
-91,-720,8.90552,56.1648,-0.00153088,0.00347466,0.00237861,0.00442467,-0.00248089,1.19081,0.00403923,0.0101862,1133,1744,8.90546,-56.1648
-84,-720,8.87732,56.5171,-0.00121619,0.00296314,0.00208104,0.00382262,-0.00207567,1.17913,0.00345481,0.0113195,1140,1744,8.87728,-56.5171
-77,-720,8.86096,56.8678,-0.000966307,0.00257531,0.00188059,0.0033876,-0.00177859,1.16307,0.00303054,0.0143928,1147,1744,8.86091,-56.8679
-70,-720,8.85291,57.1548,-0.000682142,0.00230793,0.00157941,0.00298768,-0.00136189,1.16438,0.00256903,0.0129633,1154,1744,8.85294,-57.1548
-63,-720,8.81116,57.4083,-0.000427441,0.00205474,0.00122102,0.00255469,-0.000927385,1.18217,0.00208227,0.012067,1161,1744,8.81117,-57.4083
-56,-720,8.82874,57.6738,-0.000150409,0.00165151,0.000945543,0.00205661,-0.000555504,1.16603,0.00158894,0.014319,1168,1744,8.82871,-57.6738
-49,-720,8.81067,57.9301,9.61883e-05,0.00133377,0.000754449,0.00169073,-0.000260775,1.12886,0.00122338,0.0213576,1175,1744,8.81069,-57.9301
-42,-720,8.81885,58.1599,0.000343213,0.00111264,0.000710904,0.00153625,-8.03989e-05,1.03341,0.00105199,0.0232291,1182,1744,8.81883,-58.16
-35,-720,8.81934,58.3934,0.000652362,0.000828739,0.000733338,0.00147917,1.92865e-06,0.845239,0.000985472,0.0198706,1189,1744,8.81928,-58.3934
-28,-720,8.82251,58.6455,0.000921629,0.00046377,0.000742589,0.00146978,-8.43765e-05,0.635878,0.00100915,0.0117172,1196,1744,8.82257,-58.6455
-21,-720,8.80847,58.859,0.00116147,5.78367e-05,0.00085379,0.00162624,-0.000406939,0.498509,0.00124223,0.010196,1203,1744,8.8085,-58.859
-14,-720,8.81775,58.9948,0.00131425,-0.000326829,0.000920296,0.00172668,-0.000739267,0.42132,0.00146127,0.0120956,1210,1744,8.8178,-58.9947
-7,-720,8.84192,59.1742,0.00136987,-0.000623093,0.000862932,0.00169158,-0.000944802,0.356849,0.00154233,0.0122846,1217,1744,8.84194,-59.1741
0,-720,8.85254,59.3481,0.00112478,-0.00065985,0.000750307,0.00139831,-0.000933376,0.349581,0.00135509,0.0137515,1224,1744,8.8526,-59.3481
7,-720,8.85254,59.4673,0.000665101,-0.000785201,0.000522866,0.000833948,-0.000954048,0.312355,0.00103308,0.0159932,1231,1744,8.85257,-59.4673
14,-720,8.8783,59.5945,-1.16978e-06,-0.000946493,0.000112074,1.19357e-05,-0.000959598,0.116407,0.000643747,0.0144214,1238,1744,8.87829,-59.5945
21,-720,8.89502,59.7003,-0.000660411,-0.000919041,-0.000325103,-0.000439848,-0.0011396,-0.596109,0.00066363,0.0116924,1245,1744,8.89501,-59.7004
28,-720,8.90076,59.7794,-0.00144164,-0.000878273,-0.000760295,-0.000349159,-0.00197076,-0.962806,0.0012143,0.0111821,1252,1744,8.90081,-59.7794
35,-720,8.91675,59.8505,-0.00228884,-0.000905215,-0.0012156,-0.000198358,-0.0029957,-1.0441,0.00193441,0.0111811,1259,1744,8.91669,-59.8505
42,-720,8.93372,59.9012,-0.00297848,-0.00107967,-0.00153746,-0.000222101,-0.00383604,-1.062,0.00248664,0.0120307,1266,1744,8.93369,-59.9013
49,-720,8.96118,59.894,-0.0036875,-0.00135197,-0.00185348,-0.00032906,-0.00471041,-1.06651,0.00303653,0.0134405,1273,1744,8.96112,-59.894
56,-720,8.98486,59.916,-0.00411098,-0.0017991,-0.00204463,-0.000606266,-0.00530381,-1.04268,0.00335211,0.0127535,1280,1744,8.98492,-59.916
63,-720,9,59.958,-0.00429155,-0.00207704,-0.00233317,-0.000601714,-0.00576688,-1.00695,0.00366054,0.0140789,1287,1744,9.00004,-59.958
70,-720,9.02625,59.9744,-0.00418623,-0.0023122,-0.00256994,-0.000513781,-0.00598465,-0.960211,0.00383001,0.0140356,1294,1744,9.02627,-59.9744
77,-720,9.04993,59.9674,-0.00379784,-0.00263339,-0.0025792,-0.000571512,-0.00585972,-0.896406,0.00373059,0.0157772,1301,1744,9.04994,-59.9674
84,-720,9.0614,59.8752,-0.00329227,-0.00288322,-0.00252167,-0.000557792,-0.0056177,-0.825862,0.00357374,0.0143867,1308,1744,9.0614,-59.8753
91,-720,9.07617,59.7777,-0.00264207,-0.00304576,-0.00237984,-0.000455529,-0.0052323,-0.743092,0.00334671,0.0141062,1315,1744,9.07619,-59.7777
98,-720,9.05115,59.7388,-0.00195792,-0.00325505,-0.00232742,-0.000190388,-0.00502258,-0.649514,0.00328676,0.0135439,1322,1744,9.05116,-59.7388
105,-720,9.07971,59.6648,-0.00117334,-0.00335112,-0.00225939,0.00024586,-0.00477032,-0.56085,0.00326525,0.0127433,1329,1744,9.07967,-59.6648
112,-720,9.10791,59.563,-0.000466339,-0.00317361,-0.00215863,0.00072797,-0.00436792,-0.505351,0.00318248,0.010984,1336,1744,9.10795,-59.5629
119,-720,9.10962,59.4521,0.000100161,-0.00293354,-0.00194324,0.00104847,-0.00388185,-0.454005,0.00299911,0.0106923,1343,1744,9.1096,-59.4522
126,-720,9.14575,59.2939,0.000483187,-0.00271525,-0.00172192,0.00123397,-0.00346603,-0.411163,0.0028137,0.0111691,1350,1744,9.14578,-59.2939
133,-720,9.17834,59.1481,0.000791288,-0.00231928,-0.00147075,0.00137657,-0.00290456,-0.378735,0.00252364,0.0129402,1357,1744,9.17838,-59.1481
140,-720,9.229,59.0109,0.000967559,-0.0017754,-0.00115307,0.00138787,-0.00219572,-0.349548,0.00208643,0.0198824,1364,1744,9.22902,-59.0109
147,-720,9.20361,58.7712,0.000963692,-0.00118061,-0.000895248,0.00128831,-0.00150524,-0.347861,0.00161448,0.0216132,1371,1744,9.20363,-58.7713
154,-720,9.17676,58.5482,0.00104509,-0.000618291,-0.000630297,0.00125694,-0.000830144,-0.324254,0.00121335,0.0145716,1378,1744,9.17682,-58.5482
161,-720,9.20264,58.34,0.000953976,-6.20753e-05,-0.000409225,0.0010983,-0.000206396,-0.339049,0.000809811,0.0102608,1385,1744,9.20258,-58.34
168,-720,9.18884,58.1193,0.000700752,0.000245619,-0.000236696,0.000801533,0.000144839,-0.40253,0.000493216,0.0103328,1392,1744,9.18889,-58.1193
175,-720,9.18005,57.8572,0.000448341,0.000484958,-0.000188582,0.000656118,0.000277181,-0.833789,0.000380326,0.0161279,1399,1744,9.18004,-57.8572
182,-720,9.17847,57.6051,0.000199421,0.000774598,-0.000455377,0.0010256,-5.15765e-05,-1.06704,0.000701555,0.0162571,1406,1744,9.17852,-57.6051
189,-720,9.17639,57.3295,-2.42214e-05,0.00111208,-0.000827671,0.00154784,-0.000459981,-1.08618,0.00121461,0.0134689,1413,1744,9.17637,-57.3295
196,-720,9.17529,57.042,-0.000386042,0.00147704,-0.00124171,0.00209779,-0.00100679,-1.10722,0.00182895,0.0133898,1420,1744,9.17525,-57.042
203,-720,9.14441,56.7498,-0.000733501,0.00191078,-0.00154351,0.00262099,-0.00144372,-1.13955,0.00237935,0.0156293,1427,1744,9.14443,-56.7498
210,-720,9.14819,56.4412,-0.000864621,0.00248225,-0.00184565,0.00330016,-0.00168253,-1.15365,0.00292685,0.0145237,1434,1744,9.14814,-56.4411
217,-720,9.14404,56.083,-0.0010645,0.00295283,-0.00208093,0.0038364,-0.00194807,-1.16926,0.00339846,0.0137812,1441,1744,9.14407,-56.083
224,-720,9.1012,55.7213,-0.00134271,0.00331984,-0.00226737,0.00424061,-0.00226348,-1.18504,0.00381253,0.0097887,1448,1744,9.10116,-55.7213
231,-720,9.08887,55.3779,-0.00172291,0.00362466,-0.00241449,0.0045535,-0.00265174,-1.20355,0.00420797,0.0099917,1455,1744,9.08882,-55.3779
238,-720,9.06702,55.0145,-0.00196022,0.00386486,-0.00253165,0.00481135,-0.00290672,-1.21302,0.00450103,0.00959262,1462,1744,9.06699,-55.0146
245,-720,9.03772,54.6534,-0.00208396,0.00420764,-0.00278803,0.00526531,-0.00314163,-1.20821,0.00490509,0.0125091,1469,1744,9.03772,-54.6535
252,-720,9.01599,54.2454,-0.00237021,0.00451452,-0.00292817,0.00559146,-0.00344714,-1.21837,0.00526716,0.0116344,1476,1744,9.01593,-54.2453
259,-720,8.97778,53.8445,-0.00268282,0.00482005,-0.00292683,0.00582673,-0.00368949,-1.23952,0.00554019,0.00955665,1483,1744,8.97781,-53.8445
266,-720,8.93176,53.4419,-0.00290985,0.00504366,-0.00302197,0.00606159,-0.00392777,-1.24589,0.00581105,0.00783701,1490,1744,8.93175,-53.4419
273,-720,8.89124,53.0226,-0.00309025,0.00544925,-0.00318672,0.00650735,-0.00414835,-1.25022,0.00620212,0.0127604,1497,1744,8.89127,-53.0225
280,-720,8.81873,52.5927,-0.00339422,0.00589006,-0.00339922,0.00700154,-0.0045057,-1.25477,0.0066956,0.0178088,1504,1744,8.81877,-52.5926
287,-720,8.80701,52.1003,-0.00367683,0.00664712,-0.00357459,0.00776397,-0.00479369,-1.26796,0.00731746,0.0288571,1511,1744,8.80706,-52.1004
294,-720,8.89185,51.5565,-0.00391566,0.00788122,-0.00380828,0.00900379,-0.00503823,-1.28414,0.00821422,0.0472728,1518,1744,8.89179,-51.5565
301,-720,9.01294,50.8276,0,0,0,0,0,0,0,-1,1525,1744,9.0129,-50.8276
308,-720,8.43542,50.6555,0,0,0,0,0,0,0,-1,1532,1744,8.43541,-50.6555
315,-720,8.66516,48.6633,0,0,0,0,0,0,0,-1,1539,1744,8.6651,-48.6633
322,-720,8.98181,43.5223,0,0,0,0,0,0,0,-1,1546,1744,8.98176,-43.5223
329,-720,9.15906,34.7668,0,0,0,0,0,0,0,-1,1553,1744,9.1591,-34.7669
336,-720,6.14148,26.5682,0,0,0,0,0,0,0,-1,1560,1744,6.14151,-26.5683
343,-720,6.78552,21.3625,0,0,0,0,0,0,0,-1,1567,1744,6.78551,-21.3625
350,-720,4.0741,11.1836,0,0,0,0,0,0,0,-1,1574,1744,4.07412,-11.1836
357,-720,6.90833,21.4504,0,0,0,0,0,0,0,-1,1581,1744,6.90827,-21.4505
364,-720,6.59497,44.1384,0,0,0,0,0,0,0,-1,1588,1744,6.59492,-44.1385
371,-720,6.67773,45.2386,0,0,0,0,0,0,0,-1,1595,1744,6.67779,-45.2386
378,-720,3.88257,25.5404,0,0,0,0,0,0,0,-1,1602,1744,3.88262,-25.5404
385,-720,4.672,37.3854,0,0,0,0,0,0,0,-1,1609,1744,4.67202,-37.3854
392,-720,4.89319,36.2684,0,0,0,0,0,0,0,-1,1616,1744,4.89323,-36.2684
399,-720,2.37317,24.7166,0,0,0,0,0,0,0,-1,1623,1744,2.37317,-24.7166
406,-720,0,0,0,0,0,0,0,0,0,-1,1630,1744,0,0
413,-720,0,0,0,0,0,0,0,0,0,-1,1637,1744,0,0
420,-720,0,0,0,0,0,0,0,0,0,-1,1644,1744,0,0
427,-720,0,0,0,0,0,0,0,0,0,-1,1651,1744,0,0
434,-720,0,0,0,0,0,0,0,0,0,-1,1658,1744,0,0
441,-720,0,0,0,0,0,0,0,0,0,-1,1665,1744,0,0
448,-720,0,0,0,0,0,0,0,0,0,-1,1672,1744,0,0
455,-720,0,0,0,0,0,0,0,0,0,-1,1679,1744,0,0
462,-720,0,0,0,0,0,0,0,0,0,-1,1686,1744,0,0
469,-720,0,0,0,0,0,0,0,0,0,-1,1693,1744,0,0
476,-720,0,0,0,0,0,0,0,0,0,-1,1700,1744,0,0
483,-720,0,0,0,0,0,0,0,0,0,-1,1707,1744,0,0
490,-720,0,0,0,0,0,0,0,0,0,-1,1714,1744,0,0
497,-720,0,0,0,0,0,0,0,0,0,-1,1721,1744,0,0
504,-720,0,0,0,0,0,0,0,0,0,-1,1728,1744,0,0
511,-720,0,0,0,0,0,0,0,0,0,-1,1735,1744,0,0
518,-720,0,0,0,0,0,0,0,0,0,-1,1742,1744,0,0
525,-720,0,0,0,0,0,0,0,0,0,-1,1749,1744,0,0
532,-720,0,0,0,0,0,0,0,0,0,-1,1756,1744,0,0
539,-720,0,0,0,0,0,0,0,0,0,-1,1763,1744,0,0
546,-720,0,0,0,0,0,0,0,0,0,-1,1770,1744,0,0
553,-720,0,0,0,0,0,0,0,0,0,-1,1777,1744,0,0
560,-720,0,0,0,0,0,0,0,0,0,-1,1784,1744,0,0
567,-720,0,0,0,0,0,0,0,0,0,-1,1791,1744,0,0
574,-720,0,0,0,0,0,0,0,0,0,-1,1798,1744,0,0
581,-720,0,0,0,0,0,0,0,0,0,-1,1805,1744,0,0
588,-720,0,0,0,0,0,0,0,0,0,-1,1812,1744,0,0
595,-720,0,0,0,0,0,0,0,0,0,-1,1819,1744,0,0
602,-720,0,0,0,0,0,0,0,0,0,-1,1826,1744,0,0
609,-720,0,0,0,0,0,0,0,0,0,-1,1833,1744,0,0
616,-720,0,0,0,0,0,0,0,0,0,-1,1840,1744,0,0
623,-720,0,0,0,0,0,0,0,0,0,-1,1847,1744,0,0
630,-720,0,0,0,0,0,0,0,0,0,-1,1854,1744,0,0
637,-720,0,0,0,0,0,0,0,0,0,-1,1861,1744,0,0
644,-720,0,0,0,0,0,0,0,0,0,-1,1868,1744,0,0
651,-720,0,0,0,0,0,0,0,0,0,-1,1875,1744,0,0
658,-720,0,0,0,0,0,0,0,0,0,-1,1882,1744,0,0
665,-720,0,0,0,0,0,0,0,0,0,-1,1889,1744,0,0
672,-720,0,0,0,0,0,0,0,0,0,-1,1896,1744,0,0
679,-720,0,0,0,0,0,0,0,0,0,-1,1903,1744,0,0
686,-720,0,0,0,0,0,0,0,0,0,-1,1910,1744,0,0
693,-720,0,0,0,0,0,0,0,0,0,-1,1917,1744,0,0
700,-720,0,0,0,0,0,0,0,0,0,-1,1924,1744,0,0
707,-720,0,0,0,0,0,0,0,0,0,-1,1931,1744,0,0
714,-720,0,0,0,0,0,0,0,0,0,-1,1938,1744,0,0
721,-720,0,0,0,0,0,0,0,0,0,-1,1945,1744,0,0
728,-720,0,0,0,0,0,0,0,0,0,-1,1952,1744,0,0
735,-720,0,0,0,0,0,0,0,0,0,-1,1959,1744,0,0
742,-720,0,0,0,0,0,0,0,0,0,-1,1966,1744,0,0
749,-720,0,0,0,0,0,0,0,0,0,-1,1973,1744,0,0
756,-720,0,0,0,0,0,0,0,0,0,-1,1980,1744,0,0
763,-720,0,0,0,0,0,0,0,0,0,-1,1987,1744,0,0
770,-720,0,0,0,0,0,0,0,0,0,-1,1994,1744,0,0
777,-720,0,0,0,0,0,0,0,0,0,-1,2001,1744,0,0
784,-720,0,0,0,0,0,0,0,0,0,-1,2008,1744,0,0
791,-720,0,0,0,0,0,0,0,0,0,-1,2015,1744,0,0
798,-720,0,0,0,0,0,0,0,0,0,-1,2022,1744,0,0
805,-720,0,0,0,0,0,0,0,0,0,-1,2029,1744,0,0
812,-720,0,0,0,0,0,0,0,0,0,-1,2036,1744,0,0
-700,-727,0,0,0,0,0,0,0,0,0,-1,524,1751,0,0
-693,-727,0,0,0,0,0,0,0,0,0,-1,531,1751,0,0
-686,-727,0,0,0,0,0,0,0,0,0,-1,538,1751,0,0
-679,-727,0,0,0,0,0,0,0,0,0,-1,545,1751,0,0
-672,-727,0,0,0,0,0,0,0,0,0,-1,552,1751,0,0
-665,-727,0,0,0,0,0,0,0,0,0,-1,559,1751,0,0
-658,-727,0,0,0,0,0,0,0,0,0,-1,566,1751,0,0
-651,-727,0,0,0,0,0,0,0,0,0,-1,573,1751,0,0
-644,-727,0,0,0,0,0,0,0,0,0,-1,580,1751,0,0
-637,-727,0,0,0,0,0,0,0,0,0,-1,587,1751,0,0
-630,-727,0,0,0,0,0,0,0,0,0,-1,594,1751,0,0
-623,-727,0,0,0,0,0,0,0,0,0,-1,601,1751,0,0
-616,-727,0,0,0,0,0,0,0,0,0,-1,608,1751,0,0
-609,-727,0,0,0,0,0,0,0,0,0,-1,615,1751,0,0
-602,-727,0,0,0,0,0,0,0,0,0,-1,622,1751,0,0
-595,-727,0,0,0,0,0,0,0,0,0,-1,629,1751,0,0
-588,-727,0,0,0,0,0,0,0,0,0,-1,636,1751,0,0
-581,-727,0,0,0,0,0,0,0,0,0,-1,643,1751,0,0
-574,-727,0,0,0,0,0,0,0,0,0,-1,650,1751,0,0
-567,-727,0,0,0,0,0,0,0,0,0,-1,657,1751,0,0
-560,-727,0,0,0,0,0,0,0,0,0,-1,664,1751,0,0
-553,-727,0,0,0,0,0,0,0,0,0,-1,671,1751,0,0
-546,-727,0,0,0,0,0,0,0,0,0,-1,678,1751,0,0
-539,-727,0,0,0,0,0,0,0,0,0,-1,685,1751,0,0
-532,-727,0,0,0,0,0,0,0,0,0,-1,692,1751,0,0
-525,-727,0,0,0,0,0,0,0,0,0,-1,699,1751,0,0
-518,-727,0,0,0,0,0,0,0,0,0,-1,706,1751,0,0
-511,-727,0,0,0,0,0,0,0,0,0,-1,713,1751,0,0
-504,-727,0,0,0,0,0,0,0,0,0,-1,720,1751,0,0
-497,-727,0,0,0,0,0,0,0,0,0,-1,727,1751,0,0
-490,-727,0,0,0,0,0,0,0,0,0,-1,734,1751,0,0
-483,-727,0,0,0,0,0,0,0,0,0,-1,741,1751,0,0
-476,-727,0,0,0,0,0,0,0,0,0,-1,748,1751,0,0
-469,-727,0,0,0,0,0,0,0,0,0,-1,755,1751,0,0
-462,-727,0,0,0,0,0,0,0,0,0,-1,762,1751,0,0
-455,-727,0,0,0,0,0,0,0,0,0,-1,769,1751,0,0
-448,-727,0,0,0,0,0,0,0,0,0,-1,776,1751,0,0
-441,-727,0,0,0,0,0,0,0,0,0,-1,783,1751,0,0
-434,-727,0,0,0,0,0,0,0,0,0,-1,790,1751,0,0
-427,-727,0,0,0,0,0,0,0,0,0,-1,797,1751,0,0
-420,-727,0,0,0,0,0,0,0,0,0,-1,804,1751,0,0
-413,-727,0,0,0,0,0,0,0,0,0,-1,811,1751,0,0
-406,-727,0,0,0,0,0,0,0,0,0,-1,818,1751,0,0
-399,-727,0,0,0,0,0,0,0,0,0,-1,825,1751,0,0
-392,-727,0,0,0,0,0,0,0,0,0,-1,832,1751,0,0
-385,-727,0,0,0,0,0,0,0,0,0,-1,839,1751,0,0
-378,-727,0,0,0,0,0,0,0,0,0,-1,846,1751,0,0
-371,-727,0,0,0,0,0,0,0,0,0,-1,853,1751,0,0
-364,-727,0,0,0,0,0,0,0,0,0,-1,860,1751,0,0
-357,-727,0,0,0,0,0,0,0,0,0,-1,867,1751,0,0
-350,-727,0,0,0,0,0,0,0,0,0,-1,874,1751,0,0
-343,-727,0,0,0,0,0,0,0,0,0,-1,881,1751,0,0
-336,-727,0,0,0,0,0,0,0,0,0,-1,888,1751,0,0
-329,-727,0,0,0,0,0,0,0,0,0,-1,895,1751,0,0
-322,-727,0,0,0,0,0,0,0,0,0,-1,902,1751,0,0
-315,-727,0,0,0,0,0,0,0,0,0,-1,909,1751,0,0
-308,-727,0,0,0,0,0,0,0,0,0,-1,916,1751,0,0
-301,-727,0,0,0,0,0,0,0,0,0,-1,923,1751,0,0
-294,-727,0,0,0,0,0,0,0,0,0,-1,930,1751,0,0
-287,-727,0,0,0,0,0,0,0,0,0,-1,937,1751,0,0
-280,-727,0,0,0,0,0,0,0,0,0,-1,944,1751,0,0
-273,-727,0,0,0,0,0,0,0,0,0,-1,951,1751,0,0
-266,-727,4.24805,7.61145,0,0,0,0,0,0,0,-1,958,1751,4.24802,-7.6115
-259,-727,3.65228,5.4082,0,0,0,0,0,0,0,-1,965,1751,3.65229,-5.40818
-252,-727,5.8797,32.9292,0,0,0,0,0,0,0,-1,972,1751,5.87972,-32.9292
-245,-727,6.59198,32.2588,0,0,0,0,0,0,0,-1,979,1751,6.59195,-32.2587
-238,-727,6.6189,30.4597,0,0,0,0,0,0,0,-1,986,1751,6.61889,-30.4598
-231,-727,6.70105,28.9473,0,0,0,0,0,0,0,-1,993,1751,6.70103,-28.9472
-224,-727,10.7735,47.245,0,0,0,0,0,0,0,-1,1000,1751,10.7735,-47.245
-217,-727,9.07013,38.8207,0,0,0,0,0,0,0,-1,1007,1751,9.07015,-38.8207
-210,-727,5.0921,32.4524,0,0,0,0,0,0,0,-1,1014,1751,5.09209,-32.4523
-203,-727,14.1763,48.6819,0,0,0,0,0,0,0,-1,1021,1751,14.1763,-48.6819
-196,-727,13.0454,48.5956,0,0,0,0,0,0,0,-1,1028,1751,13.0455,-48.5955
-189,-727,10.3168,48.1697,0,0,0,0,0,0,0,-1,1035,1751,10.3168,-48.1697
-182,-727,10.4591,51.0735,0,0,0,0,0,0,0,-1,1042,1751,10.4591,-51.0735
-175,-727,10.2733,51.3287,0,0,0,0,0,0,0,-1,1049,1751,10.2733,-51.3287
-168,-727,9.76062,51.8191,0,0,0,0,0,0,0,-1,1056,1751,9.76059,-51.8191
-161,-727,9.86011,51.7013,0,0,0,0,0,0,0,-1,1063,1751,9.86008,-51.7012
-154,-727,9.75696,52.4248,-0.00942847,0.00972364,0.0034652,0.0103313,-0.0100361,1.3972,0.0117596,0.0492977,1070,1751,9.75701,-52.4248
-147,-727,9.54309,52.9835,-0.00883794,0.00966386,0.0038181,0.0104208,-0.00959489,1.37508,0.0115593,0.0467087,1077,1751,9.54315,-52.9835
-140,-727,9.36438,53.3541,-0.00809212,0.00952044,0.00401575,0.0103928,-0.00896452,1.35688,0.0111861,0.032613,1084,1751,9.36443,-53.3541
-133,-727,9.47693,53.826,-0.00731343,0.00887118,0.00410901,0.00985463,-0.00829689,1.33588,0.0104926,0.0255289,1091,1751,9.47691,-53.8261
-126,-727,9.3772,54.303,-0.00659961,0.00845671,0.00435268,0.00962447,-0.00776737,1.30868,0.0100602,0.0174266,1098,1751,9.3772,-54.303
-119,-727,9.3374,54.7395,-0.00588234,0.00756335,0.00423834,0.00878784,-0.00710683,1.28955,0.00919388,0.0148913,1105,1751,9.33735,-54.7395
-112,-727,9.29773,55.0038,-0.00492735,0.00720109,0.00413101,0.00847444,-0.0062007,1.27179,0.00850653,0.0240669,1112,1751,9.29778,-55.0038
-105,-727,9.20361,55.3798,-0.00421044,0.0065528,0.00383574,0.00777987,-0.00543751,1.26118,0.0076709,0.0251638,1119,1751,9.20363,-55.3797
-98,-727,9.2406,55.8301,-0.00355484,0.005605,0.00368175,0.00690138,-0.00485122,1.23224,0.0068197,0.01482,1126,1751,9.24057,-55.8301
-91,-727,9.23279,56.1554,-0.00295845,0.00491331,0.00342541,0.00619514,-0.00424029,1.21271,0.00606003,0.0131464,1133,1751,9.23279,-56.1554
-84,-727,9.1925,56.5004,-0.00265822,0.00406931,0.00304885,0.00524541,-0.00383432,1.20263,0.00526325,0.0130873,1140,1751,9.1925,-56.5003
-77,-727,9.15259,56.8386,-0.00248805,0.00339737,0.00280417,0.0045195,-0.00361018,1.19015,0.00470345,0.0136021,1147,1751,9.15261,-56.8386
-70,-727,9.1427,57.1637,-0.00227103,0.00299655,0.00243375,0.00394884,-0.00322333,1.19782,0.00414791,0.0145425,1154,1751,9.14269,-57.1637
-63,-727,9.10754,57.4355,-0.00211121,0.00279892,0.00193293,0.00346852,-0.00278082,1.23731,0.00361533,0.0117258,1161,1751,9.10754,-57.4355
-56,-727,9.07666,57.683,-0.00196599,0.00225017,0.00142977,0.0026893,-0.00240511,1.27281,0.00294278,0.0120498,1168,1751,9.07661,-57.683
-49,-727,9.06018,57.9385,-0.00160944,0.001868,0.00112339,0.00219934,-0.00194078,1.28398,0.00239185,0.0151952,1175,1751,9.06017,-57.9385
-42,-727,9.047,58.1884,-0.00126022,0.00171356,0.00101478,0.00202684,-0.0015735,1.27136,0.00208414,0.0188917,1182,1751,9.04704,-58.1883
-35,-727,9.0033,58.4098,-0.000924269,0.00133987,0.000934598,0.00167581,-0.00126021,1.22573,0.00170076,0.0165279,1189,1751,9.00324,-58.4098
-28,-727,9.00928,58.6364,-0.000721095,0.000888876,0.000764482,0.00119404,-0.00102626,1.191,0.00128311,0.009354,1196,1751,9.00923,-58.6364
-21,-727,8.98694,58.8605,-0.000593023,0.000467188,0.000707013,0.000820756,-0.000946591,1.10708,0.00102124,0.0107721,1203,1751,8.98694,-58.8605
-14,-727,8.9884,58.9956,-0.000492275,8.41827e-05,0.000768022,0.000616279,-0.00102437,0.964909,0.000956948,0.0117117,1210,1751,8.98843,-58.9956
-7,-727,9.00684,59.1675,-0.000417497,-0.000309721,0.000757902,0.000396207,-0.00112342,0.820889,0.00091023,0.0144595,1217,1751,9.00687,-59.1675
0,-727,9.00439,59.3491,-0.000412616,-0.000451541,0.000762815,0.000330984,-0.00119514,0.772644,0.000926999,0.014696,1224,1751,9.00439,-59.3491
7,-727,8.98669,59.4601,-0.000502997,-0.000592334,0.000705149,0.000158897,-0.00125423,0.753767,0.000893838,0.0138872,1231,1751,8.98667,-59.4601
14,-727,8.98901,59.5952,-0.000683293,-0.000692682,0.000527363,-0.000160604,-0.00121537,0.780947,0.000762373,0.0135919,1238,1751,8.98901,-59.5953
21,-727,8.98181,59.7135,-0.000831412,-0.000575906,0.000326753,-0.00035282,-0.0010545,0.97175,0.000619821,0.0122231,1245,1751,8.98176,-59.7135
28,-727,8.99231,59.7775,-0.0010497,-0.000445365,0.00012601,-0.000420143,-0.00107492,1.37325,0.000625515,0.0115734,1252,1751,8.99225,-59.7775
35,-727,9.01367,59.8391,-0.00128351,-0.000314414,-0.000117453,-0.000300382,-0.00129754,-1.45189,0.000784314,0.0117427,1259,1751,9.01362,-59.8391
42,-727,8.98352,59.8843,-0.0015512,-0.000305271,-0.000294422,-0.0002392,-0.00161727,-1.35005,0.00100796,0.0115651,1266,1751,8.98352,-59.8843
49,-727,8.97278,59.9083,-0.00189897,-0.000394659,-0.000480838,-0.000254098,-0.00203953,-1.2864,0.0012834,0.0104871,1273,1751,8.97272,-59.9084
56,-727,8.9751,59.9712,-0.00206147,-0.000534904,-0.000666454,-0.000284895,-0.00231148,-1.21191,0.00145535,0.00950511,1280,1751,8.97511,-59.9712
63,-727,8.99207,59.9805,-0.00214161,-0.000592184,-0.000892342,-0.00018518,-0.00254861,-1.14287,0.00164083,0.0120142,1287,1751,8.99204,-59.9805
70,-727,9.01416,59.953,-0.00214507,-0.000657154,-0.00110644,-6.78111e-05,-0.00273441,-1.08137,0.00180076,0.0146683,1294,1751,9.01411,-59.953
77,-727,9.02197,59.9635,-0.00198838,-0.000795558,-0.00112951,-0.000114664,-0.00266927,-1.02831,0.00174255,0.0173779,1301,1751,9.02198,-59.9635
84,-727,9.01062,59.8413,-0.00178547,-0.000932409,-0.00107117,-0.000205974,-0.0025119,-0.974872,0.00161034,0.0170999,1308,1751,9.01067,-59.8413
91,-727,9.00793,59.726,-0.0014584,-0.00102816,-0.00100142,-0.00021901,-0.00226755,-0.891197,0.00144424,0.0180823,1315,1751,9.00791,-59.726
98,-727,8.98108,59.7168,-0.00108924,-0.00118604,-0.000937338,-0.000199054,-0.00207623,-0.759605,0.0013228,0.0154781,1322,1751,8.9811,-59.7168
105,-727,8.97961,59.6632,-0.000727111,-0.00126494,-0.000816666,-0.000136225,-0.00185583,-0.626347,0.0011944,0.014106,1329,1751,8.97961,-59.6632
112,-727,9.00781,59.5616,-0.000384796,-0.00119649,-0.000673094,-4.66208e-06,-0.00157663,-0.514101,0.00104953,0.0119059,1336,1751,9.00779,-59.5616
119,-727,9.01599,59.4456,-9.98932e-05,-0.00112441,-0.000479147,8.92695e-05,-0.00131357,-0.376007,0.000906934,0.00949642,1343,1751,9.01602,-59.4456
126,-727,9.03967,59.2625,0.000115302,-0.00109037,-0.000332315,0.000200829,-0.0011759,-0.251902,0.00085874,0.0104938,1350,1751,9.03971,-59.2625
133,-727,9.05103,59.1473,0.000255662,-0.000848925,-0.000248694,0.000309072,-0.000902335,-0.211549,0.000726826,0.0151936,1357,1751,9.05106,-59.1473
140,-727,9.07861,59.0481,0.000225433,-0.000529294,-0.000149868,0.000254103,-0.000557965,-0.189021,0.000479664,0.0229197,1364,1751,9.07863,-59.0481
147,-727,9.0332,58.7827,0.000145498,-0.00017088,-0.00011913,0.000185339,-0.000210721,-0.322737,0.000228822,0.0197963,1371,1751,9.03326,-58.7827
154,-727,9.00378,58.5353,1.82919e-05,0.0002146,-0.000171386,0.000313949,-8.10566e-05,-1.04545,0.000240907,0.0119627,1378,1751,9.00381,-58.5353
161,-727,8.98083,58.3464,-0.000286778,0.000480874,-0.000239316,0.00054937,-0.000355273,-1.29204,0.000526288,0.00958223,1385,1751,8.98082,-58.3464
168,-727,8.95459,58.1337,-0.000653535,0.000569852,-0.000398129,0.000688004,-0.000771688,-1.28231,0.000843215,0.0125698,1392,1751,8.95462,-58.1337
175,-727,8.96399,57.8715,-0.000946829,0.000766751,-0.000715499,0.00102622,-0.0012063,-1.22291,0.00129034,0.018199,1399,1751,8.96403,-57.8714
182,-727,8.97192,57.6093,-0.00110826,0.000989373,-0.00104579,0.00142167,-0.00154055,-1.17882,0.0017107,0.0202501,1406,1751,8.97187,-57.6093
189,-727,8.92395,57.3186,-0.00126967,0.00137791,-0.001487,0.002045,-0.00193676,-1.1491,0.00229915,0.0122159,1413,1751,8.92392,-57.3186
196,-727,8.88391,57.0321,-0.00184145,0.00188231,-0.00207258,0.0028065,-0.00276565,-1.15135,0.00321711,0.0125205,1420,1751,8.88388,-57.0321
203,-727,8.84192,56.7349,-0.00236515,0.00254343,-0.00244734,0.00355512,-0.00337684,-1.17881,0.00400261,0.0154151,1427,1751,8.84194,-56.7348
210,-727,8.83032,56.4316,-0.00236597,0.00338634,-0.0027887,0.00451632,-0.00349595,-1.18582,0.00463837,0.0165813,1434,1751,8.83032,-56.4316
217,-727,8.823,56.1003,-0.00245162,0.0040314,-0.00305594,0.00524479,-0.00366501,-1.19283,0.00517096,0.0130674,1441,1751,8.82297,-56.1003
224,-727,8.76331,55.7216,-0.00265856,0.00449512,-0.00321128,0.00572516,-0.0038886,-1.205,0.00558417,0.013094,1448,1751,8.76334,-55.7216
231,-727,8.73779,55.3627,-0.00303273,0.00487547,-0.00332228,0.00608591,-0.00424317,-1.2214,0.00599505,0.0111586,1455,1751,8.73779,-55.3626
238,-727,8.75256,54.9104,-0.00321481,0.00517347,-0.00341447,0.0063876,-0.00442894,-1.22916,0.00627897,0.0179717,1462,1751,8.75254,-54.9104
245,-727,8.7561,54.5566,-0.00323083,0.00560951,-0.00370312,0.00695571,-0.00457702,-1.22212,0.00670547,0.0269776,1469,1751,8.75611,-54.5567
252,-727,8.67639,54.1941,-0.00346862,0.00598985,-0.00385049,0.00735913,-0.0048379,-1.22913,0.00709193,0.0275177,1476,1751,8.67642,-54.1941
259,-727,8.60278,53.7544,-0.00373842,0.0063618,-0.00382928,0.00764943,-0.00502606,-1.24641,0.00737026,0.0227279,1483,1751,8.60282,-53.7545
266,-727,8.57678,53.4083,-0.00390849,0.00664327,-0.00391644,0.00793804,-0.00520326,-1.25151,0.0076417,0.0207064,1490,1751,8.57672,-53.4084
273,-727,8.54663,53.0157,-0.00400105,0.00714059,-0.00412417,0.00850106,-0.00536153,-1.25216,0.0080717,0.0340281,1497,1751,8.54668,-53.0158
280,-727,8.37048,52.683,0,0,0,0,0,0,0,-1,1504,1751,8.37052,-52.6829
287,-727,8.36755,52.0917,0,0,0,0,0,0,0,-1,1511,1751,8.36756,-52.0917
294,-727,8.56006,51.3627,0,0,0,0,0,0,0,-1,1518,1751,8.56008,-51.3626
301,-727,8.44385,46.1619,0,0,0,0,0,0,0,-1,1525,1751,8.4439,-46.1619
308,-727,8.77002,44.8007,0,0,0,0,0,0,0,-1,1532,1751,8.76996,-44.8006
315,-727,8.10571,41.24,0,0,0,0,0,0,0,-1,1539,1751,8.10567,-41.2399
322,-727,8.24133,40.2081,0,0,0,0,0,0,0,-1,1546,1751,8.24136,-40.2082
329,-727,5.54419,31.0325,0,0,0,0,0,0,0,-1,1553,1751,5.54425,-31.0325
336,-727,5.55823,20.2439,0,0,0,0,0,0,0,-1,1560,1751,5.55829,-20.2438
343,-727,2.41699,8.72095,0,0,0,0,0,0,0,-1,1567,1751,2.41702,-8.72098
350,-727,3.89783,7.50195,0,0,0,0,0,0,0,-1,1574,1751,3.89782,-7.50193
357,-727,4.48462,10.2948,0,0,0,0,0,0,0,-1,1581,1751,4.48464,-10.2948
364,-727,6.96729,17.2365,0,0,0,0,0,0,0,-1,1588,1751,6.96732,-17.2365
371,-727,5.04565,23.2227,0,0,0,0,0,0,0,-1,1595,1751,5.04564,-23.2227
378,-727,4.56726,23.0574,0,0,0,0,0,0,0,-1,1602,1751,4.56727,-23.0574
385,-727,3.52307,22.6431,0,0,0,0,0,0,0,-1,1609,1751,3.52303,-22.643
392,-727,0,0,0,0,0,0,0,0,0,-1,1616,1751,0,0
399,-727,0,0,0,0,0,0,0,0,0,-1,1623,1751,0,0
406,-727,0,0,0,0,0,0,0,0,0,-1,1630,1751,0,0
413,-727,0,0,0,0,0,0,0,0,0,-1,1637,1751,0,0
420,-727,0,0,0,0,0,0,0,0,0,-1,1644,1751,0,0
427,-727,0,0,0,0,0,0,0,0,0,-1,1651,1751,0,0
434,-727,0,0,0,0,0,0,0,0,0,-1,1658,1751,0,0
441,-727,0,0,0,0,0,0,0,0,0,-1,1665,1751,0,0
448,-727,0,0,0,0,0,0,0,0,0,-1,1672,1751,0,0
455,-727,0,0,0,0,0,0,0,0,0,-1,1679,1751,0,0
462,-727,0,0,0,0,0,0,0,0,0,-1,1686,1751,0,0
469,-727,0,0,0,0,0,0,0,0,0,-1,1693,1751,0,0
476,-727,0,0,0,0,0,0,0,0,0,-1,1700,1751,0,0
483,-727,0,0,0,0,0,0,0,0,0,-1,1707,1751,0,0
490,-727,0,0,0,0,0,0,0,0,0,-1,1714,1751,0,0
497,-727,0,0,0,0,0,0,0,0,0,-1,1721,1751,0,0
504,-727,0,0,0,0,0,0,0,0,0,-1,1728,1751,0,0
511,-727,0,0,0,0,0,0,0,0,0,-1,1735,1751,0,0
518,-727,0,0,0,0,0,0,0,0,0,-1,1742,1751,0,0
525,-727,0,0,0,0,0,0,0,0,0,-1,1749,1751,0,0
532,-727,0,0,0,0,0,0,0,0,0,-1,1756,1751,0,0
539,-727,0,0,0,0,0,0,0,0,0,-1,1763,1751,0,0
546,-727,0,0,0,0,0,0,0,0,0,-1,1770,1751,0,0
553,-727,0,0,0,0,0,0,0,0,0,-1,1777,1751,0,0
560,-727,0,0,0,0,0,0,0,0,0,-1,1784,1751,0,0
567,-727,0,0,0,0,0,0,0,0,0,-1,1791,1751,0,0
574,-727,0,0,0,0,0,0,0,0,0,-1,1798,1751,0,0
581,-727,0,0,0,0,0,0,0,0,0,-1,1805,1751,0,0
588,-727,0,0,0,0,0,0,0,0,0,-1,1812,1751,0,0
595,-727,0,0,0,0,0,0,0,0,0,-1,1819,1751,0,0
602,-727,0,0,0,0,0,0,0,0,0,-1,1826,1751,0,0
609,-727,0,0,0,0,0,0,0,0,0,-1,1833,1751,0,0
616,-727,0,0,0,0,0,0,0,0,0,-1,1840,1751,0,0
623,-727,0,0,0,0,0,0,0,0,0,-1,1847,1751,0,0
630,-727,0,0,0,0,0,0,0,0,0,-1,1854,1751,0,0
637,-727,0,0,0,0,0,0,0,0,0,-1,1861,1751,0,0
644,-727,0,0,0,0,0,0,0,0,0,-1,1868,1751,0,0
651,-727,0,0,0,0,0,0,0,0,0,-1,1875,1751,0,0
658,-727,0,0,0,0,0,0,0,0,0,-1,1882,1751,0,0
665,-727,0,0,0,0,0,0,0,0,0,-1,1889,1751,0,0
672,-727,0,0,0,0,0,0,0,0,0,-1,1896,1751,0,0
679,-727,0,0,0,0,0,0,0,0,0,-1,1903,1751,0,0
686,-727,0,0,0,0,0,0,0,0,0,-1,1910,1751,0,0
693,-727,0,0,0,0,0,0,0,0,0,-1,1917,1751,0,0
700,-727,0,0,0,0,0,0,0,0,0,-1,1924,1751,0,0
707,-727,0,0,0,0,0,0,0,0,0,-1,1931,1751,0,0
714,-727,0,0,0,0,0,0,0,0,0,-1,1938,1751,0,0
721,-727,0,0,0,0,0,0,0,0,0,-1,1945,1751,0,0
728,-727,0,0,0,0,0,0,0,0,0,-1,1952,1751,0,0
735,-727,0,0,0,0,0,0,0,0,0,-1,1959,1751,0,0
742,-727,0,0,0,0,0,0,0,0,0,-1,1966,1751,0,0
749,-727,0,0,0,0,0,0,0,0,0,-1,1973,1751,0,0
756,-727,0,0,0,0,0,0,0,0,0,-1,1980,1751,0,0
763,-727,0,0,0,0,0,0,0,0,0,-1,1987,1751,0,0
770,-727,0,0,0,0,0,0,0,0,0,-1,1994,1751,0,0
777,-727,0,0,0,0,0,0,0,0,0,-1,2001,1751,0,0
784,-727,0,0,0,0,0,0,0,0,0,-1,2008,1751,0,0
791,-727,0,0,0,0,0,0,0,0,0,-1,2015,1751,0,0
798,-727,0,0,0,0,0,0,0,0,0,-1,2022,1751,0,0
805,-727,0,0,0,0,0,0,0,0,0,-1,2029,1751,0,0
812,-727,0,0,0,0,0,0,0,0,0,-1,2036,1751,0,0
-700,-734,0,0,0,0,0,0,0,0,0,-1,524,1758,0,0
-693,-734,0,0,0,0,0,0,0,0,0,-1,531,1758,0,0
-686,-734,0,0,0,0,0,0,0,0,0,-1,538,1758,0,0
-679,-734,0,0,0,0,0,0,0,0,0,-1,545,1758,0,0
-672,-734,0,0,0,0,0,0,0,0,0,-1,552,1758,0,0
-665,-734,0,0,0,0,0,0,0,0,0,-1,559,1758,0,0
-658,-734,0,0,0,0,0,0,0,0,0,-1,566,1758,0,0
-651,-734,0,0,0,0,0,0,0,0,0,-1,573,1758,0,0
-644,-734,0,0,0,0,0,0,0,0,0,-1,580,1758,0,0
-637,-734,0,0,0,0,0,0,0,0,0,-1,587,1758,0,0
-630,-734,0,0,0,0,0,0,0,0,0,-1,594,1758,0,0
-623,-734,0,0,0,0,0,0,0,0,0,-1,601,1758,0,0
-616,-734,0,0,0,0,0,0,0,0,0,-1,608,1758,0,0
-609,-734,0,0,0,0,0,0,0,0,0,-1,615,1758,0,0
-602,-734,0,0,0,0,0,0,0,0,0,-1,622,1758,0,0
-595,-734,0,0,0,0,0,0,0,0,0,-1,629,1758,0,0
-588,-734,0,0,0,0,0,0,0,0,0,-1,636,1758,0,0
-581,-734,0,0,0,0,0,0,0,0,0,-1,643,1758,0,0
-574,-734,0,0,0,0,0,0,0,0,0,-1,650,1758,0,0
-567,-734,0,0,0,0,0,0,0,0,0,-1,657,1758,0,0
-560,-734,0,0,0,0,0,0,0,0,0,-1,664,1758,0,0
-553,-734,0,0,0,0,0,0,0,0,0,-1,671,1758,0,0
-546,-734,0,0,0,0,0,0,0,0,0,-1,678,1758,0,0
-539,-734,0,0,0,0,0,0,0,0,0,-1,685,1758,0,0
-532,-734,0,0,0,0,0,0,0,0,0,-1,692,1758,0,0
-525,-734,0,0,0,0,0,0,0,0,0,-1,699,1758,0,0
-518,-734,0,0,0,0,0,0,0,0,0,-1,706,1758,0,0
-511,-734,0,0,0,0,0,0,0,0,0,-1,713,1758,0,0
-504,-734,0,0,0,0,0,0,0,0,0,-1,720,1758,0,0
-497,-734,0,0,0,0,0,0,0,0,0,-1,727,1758,0,0
-490,-734,0,0,0,0,0,0,0,0,0,-1,734,1758,0,0
-483,-734,0,0,0,0,0,0,0,0,0,-1,741,1758,0,0
-476,-734,0,0,0,0,0,0,0,0,0,-1,748,1758,0,0
-469,-734,0,0,0,0,0,0,0,0,0,-1,755,1758,0,0
-462,-734,0,0,0,0,0,0,0,0,0,-1,762,1758,0,0
-455,-734,0,0,0,0,0,0,0,0,0,-1,769,1758,0,0
-448,-734,0,0,0,0,0,0,0,0,0,-1,776,1758,0,0
-441,-734,0,0,0,0,0,0,0,0,0,-1,783,1758,0,0
-434,-734,0,0,0,0,0,0,0,0,0,-1,790,1758,0,0
-427,-734,0,0,0,0,0,0,0,0,0,-1,797,1758,0,0
-420,-734,0,0,0,0,0,0,0,0,0,-1,804,1758,0,0
-413,-734,0,0,0,0,0,0,0,0,0,-1,811,1758,0,0
-406,-734,0,0,0,0,0,0,0,0,0,-1,818,1758,0,0
-399,-734,0,0,0,0,0,0,0,0,0,-1,825,1758,0,0
-392,-734,0,0,0,0,0,0,0,0,0,-1,832,1758,0,0
-385,-734,0,0,0,0,0,0,0,0,0,-1,839,1758,0,0
-378,-734,0,0,0,0,0,0,0,0,0,-1,846,1758,0,0
-371,-734,0,0,0,0,0,0,0,0,0,-1,853,1758,0,0
-364,-734,0,0,0,0,0,0,0,0,0,-1,860,1758,0,0
-357,-734,0,0,0,0,0,0,0,0,0,-1,867,1758,0,0
-350,-734,0,0,0,0,0,0,0,0,0,-1,874,1758,0,0
-343,-734,0,0,0,0,0,0,0,0,0,-1,881,1758,0,0
-336,-734,0,0,0,0,0,0,0,0,0,-1,888,1758,0,0
-329,-734,0,0,0,0,0,0,0,0,0,-1,895,1758,0,0
-322,-734,0,0,0,0,0,0,0,0,0,-1,902,1758,0,0
-315,-734,0,0,0,0,0,0,0,0,0,-1,909,1758,0,0
-308,-734,0,0,0,0,0,0,0,0,0,-1,916,1758,0,0
-301,-734,0,0,0,0,0,0,0,0,0,-1,923,1758,0,0
-294,-734,0,0,0,0,0,0,0,0,0,-1,930,1758,0,0
-287,-734,0,0,0,0,0,0,0,0,0,-1,937,1758,0,0
-280,-734,0,0,0,0,0,0,0,0,0,-1,944,1758,0,0
-273,-734,0,0,0,0,0,0,0,0,0,-1,951,1758,0,0
-266,-734,0,0,0,0,0,0,0,0,0,-1,958,1758,0,0
-259,-734,0,0,0,0,0,0,0,0,0,-1,965,1758,0,0
-252,-734,5.73883,31.5245,0,0,0,0,0,0,0,-1,972,1758,5.73884,-31.5246
-245,-734,6.32513,30.9761,0,0,0,0,0,0,0,-1,979,1758,6.32511,-30.9761
-238,-734,6.82385,30.0449,0,0,0,0,0,0,0,-1,986,1758,6.82387,-30.0449
-231,-734,7.1958,29.1666,0,0,0,0,0,0,0,-1,993,1758,7.19578,-29.1666
-224,-734,7.36169,28.5652,0,0,0,0,0,0,0,-1,1000,1758,7.36172,-28.5651
-217,-734,7.45984,28.4386,0,0,0,0,0,0,0,-1,1007,1758,7.45986,-28.4386
-210,-734,7.45483,28.4388,0,0,0,0,0,0,0,-1,1014,1758,7.45482,-28.4388
-203,-734,14.3309,49.7766,0,0,0,0,0,0,0,-1,1021,1758,14.3309,-49.7766
-196,-734,13.0366,49.6821,0,0,0,0,0,0,0,-1,1028,1758,13.0366,-49.6822
-189,-734,11.8075,49.2727,0,0,0,0,0,0,0,-1,1035,1758,11.8075,-49.2728
-182,-734,10.8073,48.8035,0,0,0,0,0,0,0,-1,1042,1758,10.8072,-48.8035
-175,-734,9.90186,48.634,0,0,0,0,0,0,0,-1,1049,1758,9.90187,-48.6341
-168,-734,8.91504,48.7642,0,0,0,0,0,0,0,-1,1056,1758,8.91505,-48.7641
-161,-734,10.4485,52.0808,0,0,0,0,0,0,0,-1,1063,1758,10.4485,-52.0808
-154,-734,10.3014,52.4893,0,0,0,0,0,0,0,-1,1070,1758,10.3014,-52.4893
-147,-734,10.1332,53.0853,0,0,0,0,0,0,0,-1,1077,1758,10.1331,-53.0854
-140,-734,9.74768,53.3583,0,0,0,0,0,0,0,-1,1084,1758,9.74771,-53.3583
-133,-734,9.76672,53.8931,0,0,0,0,0,0,0,-1,1091,1758,9.76667,-53.8931
-126,-734,9.66907,54.2603,0,0,0,0,0,0,0,-1,1098,1758,9.66902,-54.2603
-119,-734,9.64221,54.6378,0,0,0,0,0,0,0,-1,1105,1758,9.64215,-54.6378
-112,-734,9.57092,54.8623,0,0,0,0,0,0,0,-1,1112,1758,9.57087,-54.8623
-105,-734,9.38586,55.2007,0,0,0,0,0,0,0,-1,1119,1758,9.38586,-55.2007
-98,-734,9.51978,55.8243,0,0,0,0,0,0,0,-1,1126,1758,9.51974,-55.8243
-91,-734,9.55518,56.1455,0,0,0,0,0,0,0,-1,1133,1758,9.55515,-56.1456
-84,-734,9.49072,56.4574,0,0,0,0,0,0,0,-1,1140,1758,9.49073,-56.4574
-77,-734,9.43604,56.8439,0,0,0,0,0,0,0,-1,1147,1758,9.43604,-56.8439
-70,-734,9.43042,57.1804,0,0,0,0,0,0,0,-1,1154,1758,9.43046,-57.1804
-63,-734,9.28931,57.2295,-0.00378022,0.00356696,0.00269422,0.00444904,-0.0046623,1.2544,0.00526091,0.0358607,1161,1758,9.28932,-57.2295
-56,-734,9.32336,57.658,-0.0037773,0.00282519,0.00208749,0.00342982,-0.00438193,1.28887,0.00452126,0.0178219,1168,1758,9.32342,-57.658
-49,-734,9.28809,57.9557,-0.00342896,0.00246342,0.00179253,0.00296588,-0.00393142,1.2975,0.00399514,0.0140093,1175,1758,9.28811,-57.9557
-42,-734,9.25464,58.2094,-0.00269734,0.00243937,0.00188244,0.00305535,-0.00331333,1.25455,0.00367796,0.0152662,1182,1758,9.25459,-58.2093
-35,-734,9.23718,58.4186,-0.00197721,0.00203524,0.0018209,0.00273837,-0.00268034,1.20229,0.00312855,0.0150018,1189,1758,9.2372,-58.4186
-28,-734,9.22644,58.6212,-0.00150233,0.00147308,0.00149981,0.00209789,-0.00212714,1.17607,0.00243934,0.0100195,1196,1758,9.22638,-58.6212
-21,-734,9.23303,58.8318,-0.0013039,0.0010184,0.00127426,0.00158119,-0.0018667,1.15489,0.00199291,0.0152608,1203,1758,9.23301,-58.8318
-14,-734,9.15845,59.0276,-0.00109355,0.000581224,0.0011981,0.00120557,-0.0017179,1.0904,0.00169648,0.0154375,1210,1758,9.15846,-59.0276
-7,-734,9.13928,59.2012,-0.000896448,7.73113e-05,0.00107708,0.000772446,-0.00159158,0.997671,0.00139192,0.0170865,1217,1758,9.13927,-59.2011
0,-734,9.11511,59.3337,-0.00073436,-0.00014245,0.000967101,0.000572967,-0.00144978,0.933885,0.00120385,0.0174895,1224,1758,9.11506,-59.3338
7,-734,9.0946,59.4524,-0.000668868,-0.000312011,0.000820661,0.000349395,-0.00133027,0.892442,0.00102339,0.0131141,1231,1758,9.09466,-59.4524
14,-734,9.08801,59.5958,-0.0006709,-0.000388814,0.000553115,4.09575e-05,-0.00110067,0.910237,0.000747807,0.0127096,1238,1758,9.08796,-59.5959
21,-734,9.04797,59.6951,-0.000733322,-0.000240197,0.000252143,-0.000134099,-0.00083942,1.1725,0.000520702,0.0119059,1245,1758,9.04802,-59.6951
28,-734,9.04858,59.7755,-0.0008372,-5.70717e-05,-1.28976e-05,-5.68585e-05,-0.000837413,-1.55427,0.000540321,0.0124493,1252,1758,9.04853,-59.7755
35,-734,9.05334,59.873,-0.000928742,0.000175796,-0.000299014,0.000251548,-0.00100449,-1.32268,0.000767381,0.0139938,1259,1758,9.05331,-59.873
42,-734,9.0365,59.8943,-0.00120622,0.000331975,-0.000483441,0.000471298,-0.00134554,-1.29021,0.00108868,0.0111903,1266,1758,9.03644,-59.8943
49,-734,8.99902,59.9224,-0.00159391,0.000338919,-0.000582442,0.000500865,-0.00175586,-1.2996,0.00136843,0.00994992,1273,1758,8.99904,-59.9223
56,-734,8.97998,59.9702,-0.00188559,0.000400061,-0.000721458,0.000608735,-0.00209426,-1.28924,0.00163725,0.00949647,1280,1758,8.97999,-59.9702
63,-734,8.99634,59.9456,-0.00222626,0.000503069,-0.000857087,0.000749896,-0.00247309,-1.2904,0.00194743,0.012807,1287,1758,8.99633,-59.9456
70,-734,8.98779,59.9209,-0.00254061,0.000553862,-0.000899279,0.000796219,-0.00278297,-1.30755,0.00216997,0.0135575,1294,1758,8.98785,-59.9209
77,-734,8.97351,59.9664,-0.00274709,0.000541299,-0.000768275,0.000711938,-0.00291773,-1.35224,0.00222084,0.0180685,1301,1758,8.97353,-59.9664
84,-734,8.94995,59.8877,-0.002864,0.000459448,-0.000551367,0.000548534,-0.00295308,-1.41061,0.00217475,0.0183811,1308,1758,8.94998,-59.8877
91,-734,8.948,59.8138,-0.00281218,0.000409813,-0.000339063,0.000445107,-0.00284748,-1.46708,0.00206276,0.0198108,1315,1758,8.948,-59.8138
98,-734,8.93298,59.7599,-0.00264775,0.000280958,-0.000173618,0.000291214,-0.00265801,-1.51179,0.00187662,0.0146956,1322,1758,8.93301,-59.7599
105,-734,8.90088,59.6693,-0.00257038,0.000199794,1.48256e-05,0.000199873,-0.00257046,1.56544,0.001784,0.0153485,1329,1758,8.90089,-59.6693
112,-734,8.92773,59.5331,-0.00237014,0.000204403,0.000168229,0.000215349,-0.00238109,1.50582,0.00166383,0.0137357,1336,1758,8.92768,-59.5331
119,-734,8.9408,59.3815,-0.0021194,0.000177191,0.00034769,0.000228675,-0.00217088,1.42379,0.00152919,0.0146568,1343,1758,8.94075,-59.3815
126,-734,8.90808,59.2202,-0.00178268,8.40628e-05,0.000432408,0.00017936,-0.00187798,1.35388,0.00131585,0.0163425,1350,1758,8.90809,-59.2202
133,-734,8.88013,59.0887,-0.00149599,0.000221486,0.000363448,0.000295231,-0.00156974,1.37061,0.00115752,0.0156316,1357,1758,8.8801,-59.0888
140,-734,8.86462,58.974,-0.00139516,0.000378523,0.000263713,0.000416902,-0.00143354,1.42628,0.00112081,0.0206855,1364,1758,8.86464,-58.974
147,-734,8.84314,58.7596,-0.00122138,0.000518767,6.77298e-05,0.000521399,-0.00122401,1.53195,0.00103457,0.0143608,1371,1758,8.84319,-58.7597
154,-734,8.8092,58.5728,-0.00111922,0.000851637,-0.000272979,0.000888748,-0.00115633,-1.43568,0.00118409,0.00956525,1378,1758,8.80925,-58.5728
161,-734,8.76697,58.3699,-0.00141303,0.000917827,-0.000473597,0.00101038,-0.00150559,-1.3778,0.00146194,0.00923311,1385,1758,8.76694,-58.3699
168,-734,8.70557,58.1267,-0.00177025,0.000812679,-0.000725779,0.00100265,-0.00196021,-1.3148,0.00174013,0.014639,1392,1758,8.70558,-58.1267
175,-734,8.70056,57.8695,-0.00204893,0.000905686,-0.00109298,0.00126605,-0.0024093,-1.25231,0.00215591,0.0178581,1399,1758,8.70061,-57.8694
182,-734,8.71912,57.584,-0.00215118,0.00111899,-0.00150552,0.00170654,-0.00273873,-1.19871,0.00258944,0.0162116,1406,1758,8.71908,-57.584
189,-734,8.65698,57.3082,-0.00226697,0.00160179,-0.00204138,0.00247971,-0.0031449,-1.16464,0.00325493,0.0117876,1413,1758,8.65704,-57.3082
196,-734,8.62012,57.028,-0.00314799,0.00230596,-0.00287673,0.00354282,-0.00438485,-1.16474,0.00458565,0.0145495,1420,1758,8.62011,-57.028
203,-734,8.60583,56.699,-0.00399707,0.00327402,-0.00338036,0.00460275,-0.0053258,-1.19628,0.00573732,0.021781,1427,1758,8.60583,-56.699
210,-734,8.60608,56.3672,-0.00381505,0.00451171,-0.00384354,0.00601459,-0.00531793,-1.19806,0.00654696,0.0375476,1434,1758,8.60612,-56.3672
217,-734,8.51379,56.1144,0,0,0,0,0,0,0,-1,1441,1758,8.51378,-56.1143
224,-734,8.42908,55.7739,0,0,0,0,0,0,0,-1,1448,1758,8.42902,-55.7739
231,-734,8.37366,55.3425,0,0,0,0,0,0,0,-1,1455,1758,8.37367,-55.3425
238,-734,8.42749,54.741,0,0,0,0,0,0,0,-1,1462,1758,8.42748,-54.741
245,-734,8.51611,54.2277,0,0,0,0,0,0,0,-1,1469,1758,8.51615,-54.2277
252,-734,8.32532,53.9628,0,0,0,0,0,0,0,-1,1476,1758,8.32537,-53.9628
259,-734,8.27515,53.6334,0,0,0,0,0,0,0,-1,1483,1758,8.27518,-53.6334
266,-734,8.19604,53.3582,0,0,0,0,0,0,0,-1,1490,1758,8.19605,-53.3582
273,-734,8.20288,53.0505,0,0,0,0,0,0,0,-1,1497,1758,8.20285,-53.0505
280,-734,7.90149,52.7294,0,0,0,0,0,0,0,-1,1504,1758,7.90153,-52.7294
287,-734,7.56177,50.5933,0,0,0,0,0,0,0,-1,1511,1758,7.56172,-50.5933
294,-734,7.42676,47.7545,0,0,0,0,0,0,0,-1,1518,1758,7.4268,-47.7545
301,-734,7.21814,42.6078,0,0,0,0,0,0,0,-1,1525,1758,7.21809,-42.6078
308,-734,8.0509,41.5156,0,0,0,0,0,0,0,-1,1532,1758,8.05087,-41.5157
315,-734,7.93787,40.8274,0,0,0,0,0,0,0,-1,1539,1758,7.93784,-40.8273
322,-734,7.82483,40.139,0,0,0,0,0,0,0,-1,1546,1758,7.82481,-40.139
329,-734,5.73267,19.656,0,0,0,0,0,0,0,-1,1553,1758,5.73262,-19.656
336,-734,6.71375,23.7469,0,0,0,0,0,0,0,-1,1560,1758,6.71372,-23.7469
343,-734,5.54968,5.14221,0,0,0,0,0,0,0,-1,1567,1758,5.54973,-5.14225
350,-734,5.07397,6.73242,0,0,0,0,0,0,0,-1,1574,1758,5.07402,-6.73243
357,-734,5.05542,7.19189,0,0,0,0,0,0,0,-1,1581,1758,5.05541,-7.19184
364,-734,4.43896,10.4904,0,0,0,0,0,0,0,-1,1588,1758,4.43893,-10.4904
371,-734,7.36975,17.4751,0,0,0,0,0,0,0,-1,1595,1758,7.36972,-17.4752
378,-734,0,0,0,0,0,0,0,0,0,-1,1602,1758,0,0
385,-734,0,0,0,0,0,0,0,0,0,-1,1609,1758,0,0
392,-734,0,0,0,0,0,0,0,0,0,-1,1616,1758,0,0
399,-734,0,0,0,0,0,0,0,0,0,-1,1623,1758,0,0
406,-734,0,0,0,0,0,0,0,0,0,-1,1630,1758,0,0
413,-734,0,0,0,0,0,0,0,0,0,-1,1637,1758,0,0
420,-734,0,0,0,0,0,0,0,0,0,-1,1644,1758,0,0
427,-734,0,0,0,0,0,0,0,0,0,-1,1651,1758,0,0
434,-734,0,0,0,0,0,0,0,0,0,-1,1658,1758,0,0
441,-734,0,0,0,0,0,0,0,0,0,-1,1665,1758,0,0
448,-734,0,0,0,0,0,0,0,0,0,-1,1672,1758,0,0
455,-734,0,0,0,0,0,0,0,0,0,-1,1679,1758,0,0
462,-734,0,0,0,0,0,0,0,0,0,-1,1686,1758,0,0
469,-734,0,0,0,0,0,0,0,0,0,-1,1693,1758,0,0
476,-734,0,0,0,0,0,0,0,0,0,-1,1700,1758,0,0
483,-734,0,0,0,0,0,0,0,0,0,-1,1707,1758,0,0
490,-734,0,0,0,0,0,0,0,0,0,-1,1714,1758,0,0
497,-734,0,0,0,0,0,0,0,0,0,-1,1721,1758,0,0
504,-734,0,0,0,0,0,0,0,0,0,-1,1728,1758,0,0
511,-734,0,0,0,0,0,0,0,0,0,-1,1735,1758,0,0
518,-734,0,0,0,0,0,0,0,0,0,-1,1742,1758,0,0
525,-734,0,0,0,0,0,0,0,0,0,-1,1749,1758,0,0
532,-734,0,0,0,0,0,0,0,0,0,-1,1756,1758,0,0
539,-734,0,0,0,0,0,0,0,0,0,-1,1763,1758,0,0
546,-734,0,0,0,0,0,0,0,0,0,-1,1770,1758,0,0
553,-734,0,0,0,0,0,0,0,0,0,-1,1777,1758,0,0
560,-734,0,0,0,0,0,0,0,0,0,-1,1784,1758,0,0
567,-734,0,0,0,0,0,0,0,0,0,-1,1791,1758,0,0
574,-734,0,0,0,0,0,0,0,0,0,-1,1798,1758,0,0
581,-734,0,0,0,0,0,0,0,0,0,-1,1805,1758,0,0
588,-734,0,0,0,0,0,0,0,0,0,-1,1812,1758,0,0
595,-734,0,0,0,0,0,0,0,0,0,-1,1819,1758,0,0
602,-734,0,0,0,0,0,0,0,0,0,-1,1826,1758,0,0
609,-734,0,0,0,0,0,0,0,0,0,-1,1833,1758,0,0
616,-734,0,0,0,0,0,0,0,0,0,-1,1840,1758,0,0
623,-734,0,0,0,0,0,0,0,0,0,-1,1847,1758,0,0
630,-734,0,0,0,0,0,0,0,0,0,-1,1854,1758,0,0
637,-734,0,0,0,0,0,0,0,0,0,-1,1861,1758,0,0
644,-734,0,0,0,0,0,0,0,0,0,-1,1868,1758,0,0
651,-734,0,0,0,0,0,0,0,0,0,-1,1875,1758,0,0
658,-734,0,0,0,0,0,0,0,0,0,-1,1882,1758,0,0
665,-734,0,0,0,0,0,0,0,0,0,-1,1889,1758,0,0
672,-734,0,0,0,0,0,0,0,0,0,-1,1896,1758,0,0
679,-734,0,0,0,0,0,0,0,0,0,-1,1903,1758,0,0
686,-734,0,0,0,0,0,0,0,0,0,-1,1910,1758,0,0
693,-734,0,0,0,0,0,0,0,0,0,-1,1917,1758,0,0
700,-734,0,0,0,0,0,0,0,0,0,-1,1924,1758,0,0
707,-734,0,0,0,0,0,0,0,0,0,-1,1931,1758,0,0
714,-734,0,0,0,0,0,0,0,0,0,-1,1938,1758,0,0
721,-734,0,0,0,0,0,0,0,0,0,-1,1945,1758,0,0
728,-734,0,0,0,0,0,0,0,0,0,-1,1952,1758,0,0
735,-734,0,0,0,0,0,0,0,0,0,-1,1959,1758,0,0
742,-734,0,0,0,0,0,0,0,0,0,-1,1966,1758,0,0
749,-734,0,0,0,0,0,0,0,0,0,-1,1973,1758,0,0
756,-734,0,0,0,0,0,0,0,0,0,-1,1980,1758,0,0
763,-734,0,0,0,0,0,0,0,0,0,-1,1987,1758,0,0
770,-734,0,0,0,0,0,0,0,0,0,-1,1994,1758,0,0
777,-734,0,0,0,0,0,0,0,0,0,-1,2001,1758,0,0
784,-734,0,0,0,0,0,0,0,0,0,-1,2008,1758,0,0
791,-734,0,0,0,0,0,0,0,0,0,-1,2015,1758,0,0
798,-734,0,0,0,0,0,0,0,0,0,-1,2022,1758,0,0
805,-734,0,0,0,0,0,0,0,0,0,-1,2029,1758,0,0
812,-734,0,0,0,0,0,0,0,0,0,-1,2036,1758,0,0
-700,-741,0,0,0,0,0,0,0,0,0,-1,524,1765,0,0
-693,-741,0,0,0,0,0,0,0,0,0,-1,531,1765,0,0
-686,-741,0,0,0,0,0,0,0,0,0,-1,538,1765,0,0
-679,-741,0,0,0,0,0,0,0,0,0,-1,545,1765,0,0
-672,-741,0,0,0,0,0,0,0,0,0,-1,552,1765,0,0
-665,-741,0,0,0,0,0,0,0,0,0,-1,559,1765,0,0
-658,-741,0,0,0,0,0,0,0,0,0,-1,566,1765,0,0
-651,-741,0,0,0,0,0,0,0,0,0,-1,573,1765,0,0
-644,-741,0,0,0,0,0,0,0,0,0,-1,580,1765,0,0
-637,-741,0,0,0,0,0,0,0,0,0,-1,587,1765,0,0
-630,-741,0,0,0,0,0,0,0,0,0,-1,594,1765,0,0
-623,-741,0,0,0,0,0,0,0,0,0,-1,601,1765,0,0
-616,-741,0,0,0,0,0,0,0,0,0,-1,608,1765,0,0
-609,-741,0,0,0,0,0,0,0,0,0,-1,615,1765,0,0
-602,-741,0,0,0,0,0,0,0,0,0,-1,622,1765,0,0
-595,-741,0,0,0,0,0,0,0,0,0,-1,629,1765,0,0
-588,-741,0,0,0,0,0,0,0,0,0,-1,636,1765,0,0
-581,-741,0,0,0,0,0,0,0,0,0,-1,643,1765,0,0
-574,-741,0,0,0,0,0,0,0,0,0,-1,650,1765,0,0
-567,-741,0,0,0,0,0,0,0,0,0,-1,657,1765,0,0
-560,-741,0,0,0,0,0,0,0,0,0,-1,664,1765,0,0
-553,-741,0,0,0,0,0,0,0,0,0,-1,671,1765,0,0
-546,-741,0,0,0,0,0,0,0,0,0,-1,678,1765,0,0
-539,-741,0,0,0,0,0,0,0,0,0,-1,685,1765,0,0
-532,-741,0,0,0,0,0,0,0,0,0,-1,692,1765,0,0
-525,-741,0,0,0,0,0,0,0,0,0,-1,699,1765,0,0
-518,-741,0,0,0,0,0,0,0,0,0,-1,706,1765,0,0
-511,-741,0,0,0,0,0,0,0,0,0,-1,713,1765,0,0
-504,-741,0,0,0,0,0,0,0,0,0,-1,720,1765,0,0
-497,-741,0,0,0,0,0,0,0,0,0,-1,727,1765,0,0
-490,-741,0,0,0,0,0,0,0,0,0,-1,734,1765,0,0
-483,-741,0,0,0,0,0,0,0,0,0,-1,741,1765,0,0
-476,-741,0,0,0,0,0,0,0,0,0,-1,748,1765,0,0
-469,-741,0,0,0,0,0,0,0,0,0,-1,755,1765,0,0
-462,-741,0,0,0,0,0,0,0,0,0,-1,762,1765,0,0
-455,-741,0,0,0,0,0,0,0,0,0,-1,769,1765,0,0
-448,-741,0,0,0,0,0,0,0,0,0,-1,776,1765,0,0
-441,-741,0,0,0,0,0,0,0,0,0,-1,783,1765,0,0
-434,-741,0,0,0,0,0,0,0,0,0,-1,790,1765,0,0
-427,-741,0,0,0,0,0,0,0,0,0,-1,797,1765,0,0
-420,-741,0,0,0,0,0,0,0,0,0,-1,804,1765,0,0
-413,-741,0,0,0,0,0,0,0,0,0,-1,811,1765,0,0
-406,-741,0,0,0,0,0,0,0,0,0,-1,818,1765,0,0
-399,-741,0,0,0,0,0,0,0,0,0,-1,825,1765,0,0
-392,-741,0,0,0,0,0,0,0,0,0,-1,832,1765,0,0
-385,-741,0,0,0,0,0,0,0,0,0,-1,839,1765,0,0
-378,-741,0,0,0,0,0,0,0,0,0,-1,846,1765,0,0
-371,-741,0,0,0,0,0,0,0,0,0,-1,853,1765,0,0
-364,-741,0,0,0,0,0,0,0,0,0,-1,860,1765,0,0
-357,-741,0,0,0,0,0,0,0,0,0,-1,867,1765,0,0
-350,-741,0,0,0,0,0,0,0,0,0,-1,874,1765,0,0
-343,-741,0,0,0,0,0,0,0,0,0,-1,881,1765,0,0
-336,-741,0,0,0,0,0,0,0,0,0,-1,888,1765,0,0
-329,-741,0,0,0,0,0,0,0,0,0,-1,895,1765,0,0
-322,-741,0,0,0,0,0,0,0,0,0,-1,902,1765,0,0
-315,-741,0,0,0,0,0,0,0,0,0,-1,909,1765,0,0
-308,-741,0,0,0,0,0,0,0,0,0,-1,916,1765,0,0
-301,-741,0,0,0,0,0,0,0,0,0,-1,923,1765,0,0
-294,-741,0,0,0,0,0,0,0,0,0,-1,930,1765,0,0
-287,-741,0,0,0,0,0,0,0,0,0,-1,937,1765,0,0
-280,-741,0,0,0,0,0,0,0,0,0,-1,944,1765,0,0
-273,-741,0,0,0,0,0,0,0,0,0,-1,951,1765,0,0
-266,-741,0,0,0,0,0,0,0,0,0,-1,958,1765,0,0
-259,-741,0,0,0,0,0,0,0,0,0,-1,965,1765,0,0
-252,-741,0,0,0,0,0,0,0,0,0,-1,972,1765,0,0
-245,-741,0,0,0,0,0,0,0,0,0,-1,979,1765,0,0
-238,-741,7.13855,29.8348,0,0,0,0,0,0,0,-1,986,1765,7.13856,-29.8348
-231,-741,7.74182,29.3066,0,0,0,0,0,0,0,-1,993,1765,7.74183,-29.3066
-224,-741,7.80078,29.0964,0,0,0,0,0,0,0,-1,1000,1765,7.80079,-29.0964
-217,-741,8.15863,29.113,0,0,0,0,0,0,0,-1,1007,1765,8.15863,-29.1131
-210,-741,8.37024,29.3896,0,0,0,0,0,0,0,-1,1014,1765,8.37022,-29.3896
-203,-741,7.703,44.0701,0,0,0,0,0,0,0,-1,1021,1765,7.70306,-44.0701
-196,-741,13.1698,50.7012,0,0,0,0,0,0,0,-1,1028,1765,13.1698,-50.7012
-189,-741,12.3024,50.0712,0,0,0,0,0,0,0,-1,1035,1765,12.3023,-50.0712
-182,-741,11.3236,49.675,0,0,0,0,0,0,0,-1,1042,1765,11.3236,-49.675
-175,-741,10.1451,49.7836,0,0,0,0,0,0,0,-1,1049,1765,10.1451,-49.7836
-168,-741,9.26172,49.837,0,0,0,0,0,0,0,-1,1056,1765,9.26167,-49.837
-161,-741,8.42102,49.8832,0,0,0,0,0,0,0,-1,1063,1765,8.42099,-49.8832
-154,-741,10.5177,48.0798,0,0,0,0,0,0,0,-1,1070,1765,10.5177,-48.0798
-147,-741,10.9515,48.8568,0,0,0,0,0,0,0,-1,1077,1765,10.9515,-48.8569
-140,-741,10.5068,51.2876,0,0,0,0,0,0,0,-1,1084,1765,10.5068,-51.2876
-133,-741,10.5951,53.1439,0,0,0,0,0,0,0,-1,1091,1765,10.5951,-53.1439
-126,-741,9.89746,52.7167,0,0,0,0,0,0,0,-1,1098,1765,9.8975,-52.7167
-119,-741,9.33801,50.1482,0,0,0,0,0,0,0,-1,1105,1765,9.33802,-50.1482
-112,-741,9.6283,47.2815,0,0,0,0,0,0,0,-1,1112,1765,9.62827,-47.2815
-105,-741,9.61792,45.9158,0,0,0,0,0,0,0,-1,1119,1765,9.61797,-45.9158
-98,-741,9.19971,40.25,0,0,0,0,0,0,0,-1,1126,1765,9.19971,-40.25
-91,-741,8.40002,36.3687,0,0,0,0,0,0,0,-1,1133,1765,8.40002,-36.3687
-84,-741,7.8877,35.0892,0,0,0,0,0,0,0,-1,1140,1765,7.88776,-35.0892
-77,-741,7.73303,34.1174,0,0,0,0,0,0,0,-1,1147,1765,7.73304,-34.1174
-70,-741,7.5437,32.0275,0,0,0,0,0,0,0,-1,1154,1765,7.5437,-32.0275
-63,-741,9.29041,56.8676,0,0,0,0,0,0,0,-1,1161,1765,9.29035,-56.8676
-56,-741,9.60107,57.5822,0,0,0,0,0,0,0,-1,1168,1765,9.60105,-57.5821
-49,-741,9.52881,58.01,0,0,0,0,0,0,0,-1,1175,1765,9.5288,-58.0101
-42,-741,9.45544,58.2319,0,0,0,0,0,0,0,-1,1182,1765,9.45547,-58.232
-35,-741,9.45483,58.4232,-0.00238427,0.00272948,0.00323024,0.00429232,-0.00394711,1.12018,0.00475843,0.0247096,1189,1765,9.45478,-58.4233
-28,-741,9.43066,58.6328,-0.00143956,0.0021473,0.00298747,0.00383831,-0.00313057,1.05572,0.0040304,0.0152519,1196,1765,9.43071,-58.6328
-21,-741,9.38843,58.8185,-0.00127802,0.00175023,0.00268155,0.0033156,-0.0028434,1.04241,0.00355938,0.0188745,1203,1765,9.38838,-58.8185
-14,-741,9.33728,59.026,-0.00116688,0.0012683,0.00249493,0.00282689,-0.00272547,1.01241,0.00320583,0.0186179,1210,1765,9.33729,-59.026
-7,-741,9.30322,59.1844,-0.000926473,0.000665955,0.00230328,0.00230675,-0.00256727,0.951812,0.00281536,0.0157003,1217,1765,9.30322,-59.1844
0,-741,9.25476,59.2938,-0.000831532,0.000414218,0.00211527,0.00199641,-0.00241373,0.928584,0.00254999,0.0157906,1224,1765,9.25477,-59.2939
7,-741,9.21704,59.4215,-0.000939986,0.000177631,0.0018663,0.00156699,-0.00232934,0.930861,0.00226386,0.0175046,1231,1765,9.21699,-59.4215
14,-741,9.20166,59.5641,-0.00114154,-2.33032e-06,0.00143226,0.000969436,-0.00211331,0.974657,0.00182021,0.0161527,1238,1765,9.20166,-59.564
21,-741,9.1615,59.6597,-0.00143869,7.97685e-05,0.000926625,0.000518481,-0.0018774,1.12861,0.00145554,0.0140848,1245,1765,9.16148,-59.6597
28,-741,9.10681,59.7745,-0.00183726,0.000179129,0.000449491,0.000274791,-0.00193292,1.3611,0.0013893,0.0144692,1252,1765,9.10678,-59.7746
35,-741,9.10437,59.8439,-0.00223453,0.000353736,-4.59628e-05,0.000354552,-0.00223535,-1.55305,0.00162139,0.0150941,1259,1765,9.10438,-59.8439
42,-741,9.08472,59.8848,-0.00283693,0.000527341,-0.000404632,0.000575324,-0.00288491,-1.45277,0.00214097,0.0153639,1266,1765,9.08469,-59.8847
49,-741,9.03979,59.9203,-0.00356468,0.000531728,-0.000604831,0.000619164,-0.00365211,-1.42723,0.00266521,0.0107533,1273,1765,9.03979,-59.9203
56,-741,9.00256,59.9447,-0.0041492,0.00065294,-0.000864646,0.000803879,-0.00430014,-1.39797,0.00316889,0.0104299,1280,1765,9.00258,-59.9447
63,-741,8.9895,59.9117,-0.00475544,0.000758557,-0.00103346,0.00094589,-0.00494277,-1.39148,0.00365155,0.0155983,1287,1765,8.98947,-59.9117
70,-741,8.97058,59.9041,-0.00535487,0.000779258,-0.00106308,0.000958272,-0.00553388,-1.40397,0.00404668,0.0179704,1294,1765,8.97062,-59.9041
77,-741,8.93823,59.9281,-0.00579689,0.000786594,-0.000855454,0.000895935,-0.00590623,-1.44367,0.0042676,0.0146723,1301,1765,8.93825,-59.9281
84,-741,8.88501,59.9099,-0.00601697,0.000704327,-0.000473113,0.000737466,-0.00605011,-1.50087,0.00430036,0.0171009,1308,1765,8.88503,-59.9099
91,-741,8.8595,59.8636,-0.00598071,0.000609047,-7.11563e-05,0.000609815,-0.00598148,-1.56,0.00420569,0.0131505,1315,1765,8.85951,-59.8636
98,-741,8.84485,59.7522,-0.00584143,0.000432258,0.000238625,0.000441321,-0.00585049,1.53283,0.00405545,0.0102034,1322,1765,8.84487,-59.7522
105,-741,8.81726,59.6289,-0.00577659,0.000211138,0.000547993,0.000260877,-0.00582633,1.48028,0.00397403,0.0110469,1329,1765,8.81729,-59.629
112,-741,8.84265,59.4885,-0.00548684,9.06332e-05,0.000811788,0.000206385,-0.00560259,1.42916,0.00380572,0.0117212,1336,1765,8.84262,-59.4885
119,-741,8.80334,59.3347,-0.00514363,-3.51298e-05,0.00110985,0.000195572,-0.00537434,1.36585,0.00364983,0.0145181,1343,1765,8.8033,-59.3347
126,-741,8.74988,59.1736,-0.00466392,-0.000299172,0.00126196,3.94254e-05,-0.00500252,1.30866,0.00334823,0.0194594,1350,1765,8.74984,-59.1736
133,-741,8.70264,59.0649,-0.00418044,-0.000231102,0.00118131,9.52745e-05,-0.00450682,1.30124,0.0030368,0.0155711,1357,1765,8.70264,-59.0649
140,-741,8.68494,58.9135,-0.00391178,-0.000120148,0.000994105,0.000124681,-0.00415661,1.32932,0.00281356,0.0120224,1364,1765,8.6849,-58.9135
147,-741,8.65894,58.7443,-0.00353762,-4.64514e-05,0.000671665,7.83117e-05,-0.00366238,1.38714,0.00246811,0.0109898,1371,1765,8.65897,-58.7443
154,-741,8.62622,58.5791,-0.00323084,0.000381191,0.00014349,0.000386882,-0.00323653,1.53115,0.00229753,0.0093024,1378,1765,8.62628,-58.5791
161,-741,8.57397,58.359,-0.00351134,0.000440265,-0.000164758,0.000447123,-0.0035182,-1.5292,0.00250783,0.0113989,1385,1765,8.57403,-58.359
168,-741,8.50952,58.1196,-0.00387014,0.000566808,-0.000688315,0.000671135,-0.00397446,-1.42037,0.00289936,0.0265632,1392,1765,8.50947,-58.1197
175,-741,8.40247,57.8602,0,0,0,0,0,0,0,-1,1399,1765,8.40242,-57.8603
182,-741,8.44788,57.576,0,0,0,0,0,0,0,-1,1406,1765,8.44783,-57.576
189,-741,8.37329,57.3394,0,0,0,0,0,0,0,-1,1413,1765,8.37325,-57.3394
196,-741,8.35754,57.0681,0,0,0,0,0,0,0,-1,1420,1765,8.35749,-57.0681
203,-741,8.34705,56.6573,0,0,0,0,0,0,0,-1,1427,1765,8.34707,-56.6574
210,-741,8.27979,56.0759,0,0,0,0,0,0,0,-1,1434,1765,8.27982,-56.0759
217,-741,8.4032,40.1213,0,0,0,0,0,0,0,-1,1441,1765,8.40325,-40.1214
224,-741,8.0719,38.4249,0,0,0,0,0,0,0,-1,1448,1765,8.07187,-38.4249
231,-741,7.95923,39.0671,0,0,0,0,0,0,0,-1,1455,1765,7.9592,-39.0671
238,-741,7.96619,42.4865,0,0,0,0,0,0,0,-1,1462,1765,7.96621,-42.4864
245,-741,8.53577,45.7744,0,0,0,0,0,0,0,-1,1469,1765,8.53581,-45.7744
252,-741,8.59167,47.473,0,0,0,0,0,0,0,-1,1476,1765,8.59162,-47.473
259,-741,8.47412,48.5269,0,0,0,0,0,0,0,-1,1483,1765,8.47412,-48.5269
266,-741,8.50134,48.3838,0,0,0,0,0,0,0,-1,1490,1765,8.50132,-48.3838
273,-741,8.81421,49.1227,0,0,0,0,0,0,0,-1,1497,1765,8.81426,-49.1227
280,-741,7.33093,51.4729,0,0,0,0,0,0,0,-1,1504,1765,7.33092,-51.4729
287,-741,7.52783,49.7068,0,0,0,0,0,0,0,-1,1511,1765,7.52783,-49.7068
294,-741,5.91187,43.7742,0,0,0,0,0,0,0,-1,1518,1765,5.91188,-43.7742
301,-741,6.20667,38.5165,0,0,0,0,0,0,0,-1,1525,1765,6.20667,-38.5165
308,-741,7.99036,42.5969,0,0,0,0,0,0,0,-1,1532,1765,7.99037,-42.5969
315,-741,7.83838,41.6693,0,0,0,0,0,0,0,-1,1539,1765,7.83835,-41.6694
322,-741,7.68628,40.7418,0,0,0,0,0,0,0,-1,1546,1765,7.68633,-40.7418
329,-741,4.74414,17.928,0,0,0,0,0,0,0,-1,1553,1765,4.74414,-17.928
336,-741,5.74304,22.0945,0,0,0,0,0,0,0,-1,1560,1765,5.74306,-22.0945
343,-741,7.09888,26.501,0,0,0,0,0,0,0,-1,1567,1765,7.09885,-26.501
350,-741,4.90369,5.44666,0,0,0,0,0,0,0,-1,1574,1765,4.90368,-5.44664
357,-741,4.02063,5.16626,0,0,0,0,0,0,0,-1,1581,1765,4.02058,-5.1662
364,-741,0,0,0,0,0,0,0,0,0,-1,1588,1765,0,0
371,-741,0,0,0,0,0,0,0,0,0,-1,1595,1765,0,0
378,-741,0,0,0,0,0,0,0,0,0,-1,1602,1765,0,0
385,-741,0,0,0,0,0,0,0,0,0,-1,1609,1765,0,0
392,-741,0,0,0,0,0,0,0,0,0,-1,1616,1765,0,0
399,-741,0,0,0,0,0,0,0,0,0,-1,1623,1765,0,0
406,-741,0,0,0,0,0,0,0,0,0,-1,1630,1765,0,0
413,-741,0,0,0,0,0,0,0,0,0,-1,1637,1765,0,0
420,-741,0,0,0,0,0,0,0,0,0,-1,1644,1765,0,0
427,-741,0,0,0,0,0,0,0,0,0,-1,1651,1765,0,0
434,-741,0,0,0,0,0,0,0,0,0,-1,1658,1765,0,0
441,-741,0,0,0,0,0,0,0,0,0,-1,1665,1765,0,0
448,-741,0,0,0,0,0,0,0,0,0,-1,1672,1765,0,0
455,-741,0,0,0,0,0,0,0,0,0,-1,1679,1765,0,0
462,-741,0,0,0,0,0,0,0,0,0,-1,1686,1765,0,0
469,-741,0,0,0,0,0,0,0,0,0,-1,1693,1765,0,0
476,-741,0,0,0,0,0,0,0,0,0,-1,1700,1765,0,0
483,-741,0,0,0,0,0,0,0,0,0,-1,1707,1765,0,0
490,-741,0,0,0,0,0,0,0,0,0,-1,1714,1765,0,0
497,-741,0,0,0,0,0,0,0,0,0,-1,1721,1765,0,0
504,-741,0,0,0,0,0,0,0,0,0,-1,1728,1765,0,0
511,-741,0,0,0,0,0,0,0,0,0,-1,1735,1765,0,0
518,-741,0,0,0,0,0,0,0,0,0,-1,1742,1765,0,0
525,-741,0,0,0,0,0,0,0,0,0,-1,1749,1765,0,0
532,-741,0,0,0,0,0,0,0,0,0,-1,1756,1765,0,0
539,-741,0,0,0,0,0,0,0,0,0,-1,1763,1765,0,0
546,-741,0,0,0,0,0,0,0,0,0,-1,1770,1765,0,0
553,-741,0,0,0,0,0,0,0,0,0,-1,1777,1765,0,0
560,-741,0,0,0,0,0,0,0,0,0,-1,1784,1765,0,0
567,-741,0,0,0,0,0,0,0,0,0,-1,1791,1765,0,0
574,-741,0,0,0,0,0,0,0,0,0,-1,1798,1765,0,0
581,-741,0,0,0,0,0,0,0,0,0,-1,1805,1765,0,0
588,-741,0,0,0,0,0,0,0,0,0,-1,1812,1765,0,0
595,-741,0,0,0,0,0,0,0,0,0,-1,1819,1765,0,0
602,-741,0,0,0,0,0,0,0,0,0,-1,1826,1765,0,0
609,-741,0,0,0,0,0,0,0,0,0,-1,1833,1765,0,0
616,-741,0,0,0,0,0,0,0,0,0,-1,1840,1765,0,0
623,-741,0,0,0,0,0,0,0,0,0,-1,1847,1765,0,0
630,-741,0,0,0,0,0,0,0,0,0,-1,1854,1765,0,0
637,-741,0,0,0,0,0,0,0,0,0,-1,1861,1765,0,0
644,-741,0,0,0,0,0,0,0,0,0,-1,1868,1765,0,0
651,-741,0,0,0,0,0,0,0,0,0,-1,1875,1765,0,0
658,-741,0,0,0,0,0,0,0,0,0,-1,1882,1765,0,0
665,-741,0,0,0,0,0,0,0,0,0,-1,1889,1765,0,0
672,-741,0,0,0,0,0,0,0,0,0,-1,1896,1765,0,0
679,-741,0,0,0,0,0,0,0,0,0,-1,1903,1765,0,0
686,-741,0,0,0,0,0,0,0,0,0,-1,1910,1765,0,0
693,-741,0,0,0,0,0,0,0,0,0,-1,1917,1765,0,0
700,-741,0,0,0,0,0,0,0,0,0,-1,1924,1765,0,0
707,-741,0,0,0,0,0,0,0,0,0,-1,1931,1765,0,0
714,-741,0,0,0,0,0,0,0,0,0,-1,1938,1765,0,0
721,-741,0,0,0,0,0,0,0,0,0,-1,1945,1765,0,0
728,-741,0,0,0,0,0,0,0,0,0,-1,1952,1765,0,0
735,-741,0,0,0,0,0,0,0,0,0,-1,1959,1765,0,0
742,-741,0,0,0,0,0,0,0,0,0,-1,1966,1765,0,0
749,-741,0,0,0,0,0,0,0,0,0,-1,1973,1765,0,0
756,-741,0,0,0,0,0,0,0,0,0,-1,1980,1765,0,0
763,-741,0,0,0,0,0,0,0,0,0,-1,1987,1765,0,0
770,-741,0,0,0,0,0,0,0,0,0,-1,1994,1765,0,0
777,-741,0,0,0,0,0,0,0,0,0,-1,2001,1765,0,0
784,-741,0,0,0,0,0,0,0,0,0,-1,2008,1765,0,0
791,-741,0,0,0,0,0,0,0,0,0,-1,2015,1765,0,0
798,-741,0,0,0,0,0,0,0,0,0,-1,2022,1765,0,0
805,-741,0,0,0,0,0,0,0,0,0,-1,2029,1765,0,0
812,-741,0,0,0,0,0,0,0,0,0,-1,2036,1765,0,0
-700,-748,0,0,0,0,0,0,0,0,0,-1,524,1772,0,0
-693,-748,0,0,0,0,0,0,0,0,0,-1,531,1772,0,0
-686,-748,0,0,0,0,0,0,0,0,0,-1,538,1772,0,0
-679,-748,0,0,0,0,0,0,0,0,0,-1,545,1772,0,0
-672,-748,0,0,0,0,0,0,0,0,0,-1,552,1772,0,0
-665,-748,0,0,0,0,0,0,0,0,0,-1,559,1772,0,0
-658,-748,0,0,0,0,0,0,0,0,0,-1,566,1772,0,0
-651,-748,0,0,0,0,0,0,0,0,0,-1,573,1772,0,0
-644,-748,0,0,0,0,0,0,0,0,0,-1,580,1772,0,0
-637,-748,0,0,0,0,0,0,0,0,0,-1,587,1772,0,0
-630,-748,0,0,0,0,0,0,0,0,0,-1,594,1772,0,0
-623,-748,0,0,0,0,0,0,0,0,0,-1,601,1772,0,0
-616,-748,0,0,0,0,0,0,0,0,0,-1,608,1772,0,0
-609,-748,0,0,0,0,0,0,0,0,0,-1,615,1772,0,0
-602,-748,0,0,0,0,0,0,0,0,0,-1,622,1772,0,0
-595,-748,0,0,0,0,0,0,0,0,0,-1,629,1772,0,0
-588,-748,0,0,0,0,0,0,0,0,0,-1,636,1772,0,0
-581,-748,0,0,0,0,0,0,0,0,0,-1,643,1772,0,0
-574,-748,0,0,0,0,0,0,0,0,0,-1,650,1772,0,0
-567,-748,0,0,0,0,0,0,0,0,0,-1,657,1772,0,0
-560,-748,0,0,0,0,0,0,0,0,0,-1,664,1772,0,0
-553,-748,0,0,0,0,0,0,0,0,0,-1,671,1772,0,0
-546,-748,0,0,0,0,0,0,0,0,0,-1,678,1772,0,0
-539,-748,0,0,0,0,0,0,0,0,0,-1,685,1772,0,0
-532,-748,0,0,0,0,0,0,0,0,0,-1,692,1772,0,0
-525,-748,0,0,0,0,0,0,0,0,0,-1,699,1772,0,0
-518,-748,0,0,0,0,0,0,0,0,0,-1,706,1772,0,0
-511,-748,0,0,0,0,0,0,0,0,0,-1,713,1772,0,0
-504,-748,0,0,0,0,0,0,0,0,0,-1,720,1772,0,0
-497,-748,0,0,0,0,0,0,0,0,0,-1,727,1772,0,0
-490,-748,0,0,0,0,0,0,0,0,0,-1,734,1772,0,0
-483,-748,0,0,0,0,0,0,0,0,0,-1,741,1772,0,0
-476,-748,0,0,0,0,0,0,0,0,0,-1,748,1772,0,0
-469,-748,0,0,0,0,0,0,0,0,0,-1,755,1772,0,0
-462,-748,0,0,0,0,0,0,0,0,0,-1,762,1772,0,0
-455,-748,0,0,0,0,0,0,0,0,0,-1,769,1772,0,0
-448,-748,0,0,0,0,0,0,0,0,0,-1,776,1772,0,0
-441,-748,0,0,0,0,0,0,0,0,0,-1,783,1772,0,0
-434,-748,0,0,0,0,0,0,0,0,0,-1,790,1772,0,0
-427,-748,0,0,0,0,0,0,0,0,0,-1,797,1772,0,0
-420,-748,0,0,0,0,0,0,0,0,0,-1,804,1772,0,0
-413,-748,0,0,0,0,0,0,0,0,0,-1,811,1772,0,0
-406,-748,0,0,0,0,0,0,0,0,0,-1,818,1772,0,0
-399,-748,0,0,0,0,0,0,0,0,0,-1,825,1772,0,0
-392,-748,0,0,0,0,0,0,0,0,0,-1,832,1772,0,0
-385,-748,0,0,0,0,0,0,0,0,0,-1,839,1772,0,0
-378,-748,0,0,0,0,0,0,0,0,0,-1,846,1772,0,0
-371,-748,0,0,0,0,0,0,0,0,0,-1,853,1772,0,0
-364,-748,0,0,0,0,0,0,0,0,0,-1,860,1772,0,0
-357,-748,0,0,0,0,0,0,0,0,0,-1,867,1772,0,0
-350,-748,0,0,0,0,0,0,0,0,0,-1,874,1772,0,0
-343,-748,0,0,0,0,0,0,0,0,0,-1,881,1772,0,0
-336,-748,0,0,0,0,0,0,0,0,0,-1,888,1772,0,0
-329,-748,0,0,0,0,0,0,0,0,0,-1,895,1772,0,0
-322,-748,0,0,0,0,0,0,0,0,0,-1,902,1772,0,0
-315,-748,0,0,0,0,0,0,0,0,0,-1,909,1772,0,0
-308,-748,0,0,0,0,0,0,0,0,0,-1,916,1772,0,0
-301,-748,0,0,0,0,0,0,0,0,0,-1,923,1772,0,0
-294,-748,0,0,0,0,0,0,0,0,0,-1,930,1772,0,0
-287,-748,0,0,0,0,0,0,0,0,0,-1,937,1772,0,0
-280,-748,0,0,0,0,0,0,0,0,0,-1,944,1772,0,0
-273,-748,0,0,0,0,0,0,0,0,0,-1,951,1772,0,0
-266,-748,0,0,0,0,0,0,0,0,0,-1,958,1772,0,0
-259,-748,0,0,0,0,0,0,0,0,0,-1,965,1772,0,0
-252,-748,0,0,0,0,0,0,0,0,0,-1,972,1772,0,0
-245,-748,0,0,0,0,0,0,0,0,0,-1,979,1772,0,0
-238,-748,0,0,0,0,0,0,0,0,0,-1,986,1772,0,0
-231,-748,0,0,0,0,0,0,0,0,0,-1,993,1772,0,0
-224,-748,0,0,0,0,0,0,0,0,0,-1,1000,1772,0,0
-217,-748,8.97742,29.9884,0,0,0,0,0,0,0,-1,1007,1772,8.97744,-29.9884
-210,-748,8.8941,30.14,0,0,0,0,0,0,0,-1,1014,1772,8.8941,-30.14
-203,-748,7.88,43.3942,0,0,0,0,0,0,0,-1,1021,1772,7.87999,-43.3941
-196,-748,7.95483,43.9952,0,0,0,0,0,0,0,-1,1028,1772,7.95478,-43.9953
-189,-748,8.18359,44.5873,0,0,0,0,0,0,0,-1,1035,1772,8.18358,-44.5873
-182,-748,8.49304,45.5183,0,0,0,0,0,0,0,-1,1042,1772,8.49308,-45.5183
-175,-748,10.4392,50.6167,0,0,0,0,0,0,0,-1,1049,1772,10.4392,-50.6167
-168,-748,9.54541,50.6587,0,0,0,0,0,0,0,-1,1056,1772,9.54547,-50.6586
-161,-748,10.7574,47.7889,0,0,0,0,0,0,0,-1,1063,1772,10.7574,-47.7889
-154,-748,11.4552,48.7113,0,0,0,0,0,0,0,-1,1070,1772,11.4552,-48.7113
-147,-748,11.7789,49.4792,0,0,0,0,0,0,0,-1,1077,1772,11.7789,-49.4793
-140,-748,10.4108,44.9001,0,0,0,0,0,0,0,-1,1084,1772,10.4107,-44.9001
-133,-748,7.44727,22.0308,0,0,0,0,0,0,0,-1,1091,1772,7.44728,-22.0308
-126,-748,5.98035,22.6067,0,0,0,0,0,0,0,-1,1098,1772,5.9803,-22.6067
-119,-748,6.63342,26.309,0,0,0,0,0,0,0,-1,1105,1772,6.6334,-26.3089
-112,-748,6.91333,24.923,0,0,0,0,0,0,0,-1,1112,1772,6.91339,-24.923
-105,-748,6.83313,25.0537,0,0,0,0,0,0,0,-1,1119,1772,6.83311,-25.0537
-98,-748,8.13623,30.8743,0,0,0,0,0,0,0,-1,1126,1772,8.13628,-30.8742
-91,-748,4.85352,15.3033,0,0,0,0,0,0,0,-1,1133,1772,4.85351,-15.3033
-84,-748,-0.192017,7.26196,0,0,0,0,0,0,0,-1,1140,1772,-0.192047,-7.26201
-77,-748,4.42615,13.5537,0,0,0,0,0,0,0,-1,1147,1772,4.4261,-13.5538
-70,-748,4.46191,13.7446,0,0,0,0,0,0,0,-1,1154,1772,4.4619,-13.7446
-63,-748,4.49768,13.9355,0,0,0,0,0,0,0,-1,1161,1772,4.49769,-13.9355
-56,-748,3.05762,7.87817,0,0,0,0,0,0,0,-1,1168,1772,3.05768,-7.87822
-49,-748,3.04102,7.82471,0,0,0,0,0,0,0,-1,1175,1772,3.04096,-7.82468
-42,-748,0.793457,14.9474,0,0,0,0,0,0,0,-1,1182,1772,0.793413,-14.9474
-35,-748,9.61475,58.4784,0,0,0,0,0,0,0,-1,1189,1772,9.6148,-58.4784
-28,-748,9.62183,58.653,0.000118562,0.00290265,0.00514126,0.00683699,-0.00381578,0.917608,0.00623228,0.0486147,1196,1772,9.62184,-58.653
-21,-748,9.54517,58.8411,0.000194358,0.00261778,0.00480599,0.00636245,-0.00355031,0.908887,0.0057994,0.0225475,1203,1772,9.54519,-58.8411
-14,-748,9.49646,58.9679,2.70564e-05,0.00199901,0.00446115,0.00558184,-0.00355577,0.894157,0.00531865,0.0168199,1210,1772,9.49643,-58.9679
-7,-748,9.46594,59.1356,9.53227e-05,0.00146575,0.00420784,0.00504381,-0.00348273,0.866111,0.00495023,0.0163828,1217,1772,9.46595,-59.1357
0,-748,9.3894,59.2603,-0.000110337,0.00122301,0.003953,0.00456516,-0.00345249,0.868937,0.00464383,0.015526,1224,1772,9.38935,-59.2603
7,-748,9.32971,59.3901,-0.000570081,0.000918057,0.00361053,0.00386039,-0.00351242,0.887017,0.00425827,0.0146596,1231,1772,9.32977,-59.3901
14,-748,9.29272,59.5408,-0.00111202,0.000643743,0.00301152,0.00290273,-0.00337101,0.927222,0.00362551,0.0171557,1238,1772,9.29267,-59.5407
21,-748,9.26611,59.6466,-0.00175908,0.000654604,0.00232614,0.00206833,-0.00317282,1.02469,0.00304829,0.0130938,1245,1772,9.2661,-59.6466
28,-748,9.18713,59.7524,-0.00254897,0.00067169,0.00166218,0.00137566,-0.00325294,1.17018,0.00274461,0.0131141,1252,1772,9.18709,-59.7525
35,-748,9.16187,59.811,-0.0033192,0.000781688,0.000972586,0.00100066,-0.00353817,1.34935,0.00275362,0.0134872,1259,1772,9.16191,-59.811
42,-748,9.1344,59.8607,-0.00429209,0.000939482,0.000454295,0.000978639,-0.00433124,1.48482,0.003263,0.014428,1266,1772,9.13441,-59.8607
49,-748,9.08459,59.8904,-0.00539553,0.000899119,0.000141364,0.000902292,-0.0053987,1.54835,0.00393454,0.0112706,1273,1772,9.08461,-59.8903
56,-748,9.01819,59.925,-0.00630389,0.00102964,-0.000238936,0.00103741,-0.00631167,-1.53826,0.00459281,0.0109182,1280,1772,9.01815,-59.9251
63,-748,8.9845,59.9099,-0.00716386,0.00101555,-0.000436564,0.00103879,-0.00718709,-1.51762,0.00517255,0.0127956,1287,1772,8.98453,-59.9099
70,-748,8.95679,59.896,-0.00799796,0.000859378,-0.000411801,0.000878482,-0.00801707,-1.52444,0.00566031,0.0154788,1294,1772,8.95676,-59.896
77,-748,8.90723,59.876,-0.00873325,0.000706731,-0.000179357,0.000710137,-0.00873666,-1.55181,0.006075,0.0143175,1301,1772,8.9072,-59.876
84,-748,8.83667,59.8773,-0.00905696,0.000491515,0.000366882,0.000505591,-0.00907104,1.53245,0.00622274,0.0156592,1308,1772,8.8367,-59.8773
91,-748,8.79321,59.8386,-0.00900441,0.000200189,0.00098943,0.000305344,-0.00910957,1.46491,0.00617734,0.0121388,1315,1772,8.79323,-59.8386
98,-748,8.75146,59.7494,-0.0088502,-0.000300191,0.00144799,-6.16238e-05,-0.00908877,1.40751,0.00603874,0.0108957,1322,1772,8.75144,-59.7494
105,-748,8.74146,59.6031,-0.00877285,-0.000822451,0.00191349,-0.000385886,-0.00920942,1.34648,0.00601511,0.0119919,1329,1772,8.74151,-59.6031
112,-748,8.72742,59.4761,-0.0084536,-0.00118436,0.00235273,-0.000489332,-0.00914863,1.28355,0.00594269,0.0155701,1336,1772,8.72745,-59.4761
119,-748,8.68469,59.3419,-0.00809169,-0.00151699,0.00289447,-0.000424318,-0.00918437,1.20983,0.00598649,0.0144059,1343,1772,8.68465,-59.3419
126,-748,8.62061,59.2125,-0.00753074,-0.00200904,0.0032284,-0.000521961,-0.00901781,1.13914,0.00584566,0.0167166,1350,1772,8.62061,-59.2125
133,-748,8.54651,59.0802,-0.00689265,-0.00208887,0.00326689,-0.000435927,-0.00854559,1.10239,0.00555745,0.0105045,1357,1772,8.54656,-59.0803
140,-748,8.53564,58.907,-0.00651086,-0.002053,0.00314115,-0.000430311,-0.00813354,1.09396,0.00528477,0.0129496,1364,1772,8.53561,-58.907
147,-748,8.50598,58.7225,-0.00603601,-0.00200849,0.00276424,-0.00060227,-0.00744223,1.1002,0.00477341,0.0147071,1371,1772,8.50601,-58.7225
154,-748,8.43005,58.5471,-0.00564945,-0.00142492,0.00210498,-0.000555137,-0.00651923,1.17896,0.00417343,0.0132763,1378,1772,8.43001,-58.5471
161,-748,8.35815,58.3644,-0.00599202,-0.00121836,0.00167266,-0.000690612,-0.00651976,1.26517,0.00413557,0.0189549,1385,1772,8.3582,-58.3644
168,-748,8.33728,58.1279,0,0,0,0,0,0,0,-1,1392,1772,8.33725,-58.1279
175,-748,11.6235,16.8242,0,0,0,0,0,0,0,-1,1399,1772,11.6236,-16.8242
182,-748,7.62476,10.3058,0,0,0,0,0,0,0,-1,1406,1772,7.62476,-10.3058
189,-748,6.15857,6.95898,0,0,0,0,0,0,0,-1,1413,1772,6.15862,-6.95896
196,-748,3.9425,8.46021,0,0,0,0,0,0,0,-1,1420,1772,3.9425,-8.46026
203,-748,3.9668,12.9835,0,0,0,0,0,0,0,-1,1427,1772,3.96678,-12.9836
210,-748,4.71472,16.8318,0,0,0,0,0,0,0,-1,1434,1772,4.71471,-16.8317
217,-748,5.38452,21.5551,0,0,0,0,0,0,0,-1,1441,1772,5.38455,-21.555
224,-748,6.14258,25.2345,0,0,0,0,0,0,0,-1,1448,1772,6.14263,-25.2345
231,-748,6.46045,29.7867,0,0,0,0,0,0,0,-1,1455,1772,6.46049,-29.7867
238,-748,7.41565,32.8574,0,0,0,0,0,0,0,-1,1462,1772,7.41562,-32.8574
245,-748,7.84912,32.0914,0,0,0,0,0,0,0,-1,1469,1772,7.84914,-32.0914
252,-748,7.57336,29.4369,0,0,0,0,0,0,0,-1,1476,1772,7.57337,-29.4369
259,-748,9.47351,46.1896,0,0,0,0,0,0,0,-1,1483,1772,9.4735,-46.1895
266,-748,8.36536,48.6908,0,0,0,0,0,0,0,-1,1490,1772,8.36541,-48.6909
273,-748,7.31421,46.6743,0,0,0,0,0,0,0,-1,1497,1772,7.31415,-46.6743
280,-748,8.76538,40.4501,0,0,0,0,0,0,0,-1,1504,1772,8.76537,-40.45
287,-748,14.161,8.32813,0,0,0,0,0,0,0,-1,1511,1772,14.161,-8.32808
294,-748,6.38525,32.4724,0,0,0,0,0,0,0,-1,1518,1772,6.38521,-32.4725
301,-748,5.40393,38.9807,0,0,0,0,0,0,0,-1,1525,1772,5.40397,-38.9807
308,-748,5.95227,37.1827,0,0,0,0,0,0,0,-1,1532,1772,5.95229,-37.1827
315,-748,7.71741,42.637,0,0,0,0,0,0,0,-1,1539,1772,7.71738,-42.637
322,-748,4.26538,29.0557,0,0,0,0,0,0,0,-1,1546,1772,4.26537,-29.0556
329,-748,3.87256,16.1473,0,0,0,0,0,0,0,-1,1553,1772,3.87259,-16.1474
336,-748,4.81006,19.6141,0,0,0,0,0,0,0,-1,1560,1772,4.81011,-19.6141
343,-748,0,0,0,0,0,0,0,0,0,-1,1567,1772,0,0
350,-748,0,0,0,0,0,0,0,0,0,-1,1574,1772,0,0
357,-748,0,0,0,0,0,0,0,0,0,-1,1581,1772,0,0
364,-748,0,0,0,0,0,0,0,0,0,-1,1588,1772,0,0
371,-748,0,0,0,0,0,0,0,0,0,-1,1595,1772,0,0
378,-748,0,0,0,0,0,0,0,0,0,-1,1602,1772,0,0
385,-748,0,0,0,0,0,0,0,0,0,-1,1609,1772,0,0
392,-748,0,0,0,0,0,0,0,0,0,-1,1616,1772,0,0
399,-748,0,0,0,0,0,0,0,0,0,-1,1623,1772,0,0
406,-748,0,0,0,0,0,0,0,0,0,-1,1630,1772,0,0
413,-748,0,0,0,0,0,0,0,0,0,-1,1637,1772,0,0
420,-748,0,0,0,0,0,0,0,0,0,-1,1644,1772,0,0
427,-748,0,0,0,0,0,0,0,0,0,-1,1651,1772,0,0
434,-748,0,0,0,0,0,0,0,0,0,-1,1658,1772,0,0
441,-748,0,0,0,0,0,0,0,0,0,-1,1665,1772,0,0
448,-748,0,0,0,0,0,0,0,0,0,-1,1672,1772,0,0
455,-748,0,0,0,0,0,0,0,0,0,-1,1679,1772,0,0
462,-748,0,0,0,0,0,0,0,0,0,-1,1686,1772,0,0
469,-748,0,0,0,0,0,0,0,0,0,-1,1693,1772,0,0
476,-748,0,0,0,0,0,0,0,0,0,-1,1700,1772,0,0
483,-748,0,0,0,0,0,0,0,0,0,-1,1707,1772,0,0
490,-748,0,0,0,0,0,0,0,0,0,-1,1714,1772,0,0
497,-748,0,0,0,0,0,0,0,0,0,-1,1721,1772,0,0
504,-748,0,0,0,0,0,0,0,0,0,-1,1728,1772,0,0
511,-748,0,0,0,0,0,0,0,0,0,-1,1735,1772,0,0
518,-748,0,0,0,0,0,0,0,0,0,-1,1742,1772,0,0
525,-748,0,0,0,0,0,0,0,0,0,-1,1749,1772,0,0
532,-748,0,0,0,0,0,0,0,0,0,-1,1756,1772,0,0
539,-748,0,0,0,0,0,0,0,0,0,-1,1763,1772,0,0
546,-748,0,0,0,0,0,0,0,0,0,-1,1770,1772,0,0
553,-748,0,0,0,0,0,0,0,0,0,-1,1777,1772,0,0
560,-748,0,0,0,0,0,0,0,0,0,-1,1784,1772,0,0
567,-748,0,0,0,0,0,0,0,0,0,-1,1791,1772,0,0
574,-748,0,0,0,0,0,0,0,0,0,-1,1798,1772,0,0
581,-748,0,0,0,0,0,0,0,0,0,-1,1805,1772,0,0
588,-748,0,0,0,0,0,0,0,0,0,-1,1812,1772,0,0
595,-748,0,0,0,0,0,0,0,0,0,-1,1819,1772,0,0
602,-748,0,0,0,0,0,0,0,0,0,-1,1826,1772,0,0
609,-748,0,0,0,0,0,0,0,0,0,-1,1833,1772,0,0
616,-748,0,0,0,0,0,0,0,0,0,-1,1840,1772,0,0
623,-748,0,0,0,0,0,0,0,0,0,-1,1847,1772,0,0
630,-748,0,0,0,0,0,0,0,0,0,-1,1854,1772,0,0
637,-748,0,0,0,0,0,0,0,0,0,-1,1861,1772,0,0
644,-748,0,0,0,0,0,0,0,0,0,-1,1868,1772,0,0
651,-748,0,0,0,0,0,0,0,0,0,-1,1875,1772,0,0
658,-748,0,0,0,0,0,0,0,0,0,-1,1882,1772,0,0
665,-748,0,0,0,0,0,0,0,0,0,-1,1889,1772,0,0
672,-748,0,0,0,0,0,0,0,0,0,-1,1896,1772,0,0
679,-748,0,0,0,0,0,0,0,0,0,-1,1903,1772,0,0
686,-748,0,0,0,0,0,0,0,0,0,-1,1910,1772,0,0
693,-748,0,0,0,0,0,0,0,0,0,-1,1917,1772,0,0
700,-748,0,0,0,0,0,0,0,0,0,-1,1924,1772,0,0
707,-748,0,0,0,0,0,0,0,0,0,-1,1931,1772,0,0
714,-748,0,0,0,0,0,0,0,0,0,-1,1938,1772,0,0
721,-748,0,0,0,0,0,0,0,0,0,-1,1945,1772,0,0
728,-748,0,0,0,0,0,0,0,0,0,-1,1952,1772,0,0
735,-748,0,0,0,0,0,0,0,0,0,-1,1959,1772,0,0
742,-748,0,0,0,0,0,0,0,0,0,-1,1966,1772,0,0
749,-748,0,0,0,0,0,0,0,0,0,-1,1973,1772,0,0
756,-748,0,0,0,0,0,0,0,0,0,-1,1980,1772,0,0
763,-748,0,0,0,0,0,0,0,0,0,-1,1987,1772,0,0
770,-748,0,0,0,0,0,0,0,0,0,-1,1994,1772,0,0
777,-748,0,0,0,0,0,0,0,0,0,-1,2001,1772,0,0
784,-748,0,0,0,0,0,0,0,0,0,-1,2008,1772,0,0
791,-748,0,0,0,0,0,0,0,0,0,-1,2015,1772,0,0
798,-748,0,0,0,0,0,0,0,0,0,-1,2022,1772,0,0
805,-748,0,0,0,0,0,0,0,0,0,-1,2029,1772,0,0
812,-748,0,0,0,0,0,0,0,0,0,-1,2036,1772,0,0
-700,-755,0,0,0,0,0,0,0,0,0,-1,524,1779,0,0
-693,-755,0,0,0,0,0,0,0,0,0,-1,531,1779,0,0
-686,-755,0,0,0,0,0,0,0,0,0,-1,538,1779,0,0
-679,-755,0,0,0,0,0,0,0,0,0,-1,545,1779,0,0
-672,-755,0,0,0,0,0,0,0,0,0,-1,552,1779,0,0
-665,-755,0,0,0,0,0,0,0,0,0,-1,559,1779,0,0
-658,-755,0,0,0,0,0,0,0,0,0,-1,566,1779,0,0
-651,-755,0,0,0,0,0,0,0,0,0,-1,573,1779,0,0
-644,-755,0,0,0,0,0,0,0,0,0,-1,580,1779,0,0
-637,-755,0,0,0,0,0,0,0,0,0,-1,587,1779,0,0
-630,-755,0,0,0,0,0,0,0,0,0,-1,594,1779,0,0
-623,-755,0,0,0,0,0,0,0,0,0,-1,601,1779,0,0
-616,-755,0,0,0,0,0,0,0,0,0,-1,608,1779,0,0
-609,-755,0,0,0,0,0,0,0,0,0,-1,615,1779,0,0
-602,-755,0,0,0,0,0,0,0,0,0,-1,622,1779,0,0
-595,-755,0,0,0,0,0,0,0,0,0,-1,629,1779,0,0
-588,-755,0,0,0,0,0,0,0,0,0,-1,636,1779,0,0
-581,-755,0,0,0,0,0,0,0,0,0,-1,643,1779,0,0
-574,-755,0,0,0,0,0,0,0,0,0,-1,650,1779,0,0
-567,-755,0,0,0,0,0,0,0,0,0,-1,657,1779,0,0
-560,-755,0,0,0,0,0,0,0,0,0,-1,664,1779,0,0
-553,-755,0,0,0,0,0,0,0,0,0,-1,671,1779,0,0
-546,-755,0,0,0,0,0,0,0,0,0,-1,678,1779,0,0
-539,-755,0,0,0,0,0,0,0,0,0,-1,685,1779,0,0
-532,-755,0,0,0,0,0,0,0,0,0,-1,692,1779,0,0
-525,-755,0,0,0,0,0,0,0,0,0,-1,699,1779,0,0
-518,-755,0,0,0,0,0,0,0,0,0,-1,706,1779,0,0
-511,-755,0,0,0,0,0,0,0,0,0,-1,713,1779,0,0
-504,-755,0,0,0,0,0,0,0,0,0,-1,720,1779,0,0
-497,-755,0,0,0,0,0,0,0,0,0,-1,727,1779,0,0
-490,-755,0,0,0,0,0,0,0,0,0,-1,734,1779,0,0
-483,-755,0,0,0,0,0,0,0,0,0,-1,741,1779,0,0
-476,-755,0,0,0,0,0,0,0,0,0,-1,748,1779,0,0
-469,-755,0,0,0,0,0,0,0,0,0,-1,755,1779,0,0
-462,-755,0,0,0,0,0,0,0,0,0,-1,762,1779,0,0
-455,-755,0,0,0,0,0,0,0,0,0,-1,769,1779,0,0
-448,-755,0,0,0,0,0,0,0,0,0,-1,776,1779,0,0
-441,-755,0,0,0,0,0,0,0,0,0,-1,783,1779,0,0
-434,-755,0,0,0,0,0,0,0,0,0,-1,790,1779,0,0
-427,-755,0,0,0,0,0,0,0,0,0,-1,797,1779,0,0
-420,-755,0,0,0,0,0,0,0,0,0,-1,804,1779,0,0
-413,-755,0,0,0,0,0,0,0,0,0,-1,811,1779,0,0
-406,-755,0,0,0,0,0,0,0,0,0,-1,818,1779,0,0
-399,-755,0,0,0,0,0,0,0,0,0,-1,825,1779,0,0
-392,-755,0,0,0,0,0,0,0,0,0,-1,832,1779,0,0
-385,-755,0,0,0,0,0,0,0,0,0,-1,839,1779,0,0
-378,-755,0,0,0,0,0,0,0,0,0,-1,846,1779,0,0
-371,-755,0,0,0,0,0,0,0,0,0,-1,853,1779,0,0
-364,-755,0,0,0,0,0,0,0,0,0,-1,860,1779,0,0
-357,-755,0,0,0,0,0,0,0,0,0,-1,867,1779,0,0
-350,-755,0,0,0,0,0,0,0,0,0,-1,874,1779,0,0
-343,-755,0,0,0,0,0,0,0,0,0,-1,881,1779,0,0
-336,-755,0,0,0,0,0,0,0,0,0,-1,888,1779,0,0
-329,-755,0,0,0,0,0,0,0,0,0,-1,895,1779,0,0
-322,-755,0,0,0,0,0,0,0,0,0,-1,902,1779,0,0
-315,-755,0,0,0,0,0,0,0,0,0,-1,909,1779,0,0
-308,-755,0,0,0,0,0,0,0,0,0,-1,916,1779,0,0
-301,-755,0,0,0,0,0,0,0,0,0,-1,923,1779,0,0
-294,-755,0,0,0,0,0,0,0,0,0,-1,930,1779,0,0
-287,-755,0,0,0,0,0,0,0,0,0,-1,937,1779,0,0
-280,-755,0,0,0,0,0,0,0,0,0,-1,944,1779,0,0
-273,-755,0,0,0,0,0,0,0,0,0,-1,951,1779,0,0
-266,-755,0,0,0,0,0,0,0,0,0,-1,958,1779,0,0
-259,-755,0,0,0,0,0,0,0,0,0,-1,965,1779,0,0
-252,-755,0,0,0,0,0,0,0,0,0,-1,972,1779,0,0
-245,-755,0,0,0,0,0,0,0,0,0,-1,979,1779,0,0
-238,-755,0,0,0,0,0,0,0,0,0,-1,986,1779,0,0
-231,-755,0,0,0,0,0,0,0,0,0,-1,993,1779,0,0
-224,-755,0,0,0,0,0,0,0,0,0,-1,1000,1779,0,0
-217,-755,0,0,0,0,0,0,0,0,0,-1,1007,1779,0,0
-210,-755,0,0,0,0,0,0,0,0,0,-1,1014,1779,0,0
-203,-755,8.97363,30.5414,0,0,0,0,0,0,0,-1,1021,1779,8.97362,-30.5414
-196,-755,8.08667,43.2203,0,0,0,0,0,0,0,-1,1028,1779,8.08666,-43.2204
-189,-755,0.725098,39.8892,0,0,0,0,0,0,0,-1,1035,1779,0.725055,-39.8891
-182,-755,1.80835,40.9692,0,0,0,0,0,0,0,-1,1042,1779,1.80838,-40.9692
-175,-755,3.04749,41.9612,0,0,0,0,0,0,0,-1,1049,1779,3.0475,-41.9612
-168,-755,4.8302,42.7631,0,0,0,0,0,0,0,-1,1056,1779,4.8302,-42.7631
-161,-755,6.46777,44.0007,0,0,0,0,0,0,0,-1,1063,1779,6.46773,-44.0007
-154,-755,7.71094,44.9023,0,0,0,0,0,0,0,-1,1070,1779,7.71089,-44.9023
-147,-755,-6.45593,10.2422,0,0,0,0,0,0,0,-1,1077,1779,-6.45594,-10.2422
-140,-755,1.33521,21.3856,0,0,0,0,0,0,0,-1,1084,1779,1.33522,-21.3857
-133,-755,2.89417,21.0964,0,0,0,0,0,0,0,-1,1091,1779,2.89422,-21.0964
-126,-755,3.26404,20.9304,0,0,0,0,0,0,0,-1,1098,1779,3.26399,-20.9305
-119,-755,5.17761,21.9325,0,0,0,0,0,0,0,-1,1105,1779,5.17761,-21.9325
-112,-755,5.40247,24.5646,0,0,0,0,0,0,0,-1,1112,1779,5.40244,-24.5646
-105,-755,7.01294,20.1539,0,0,0,0,0,0,0,-1,1119,1779,7.01295,-20.154
-98,-755,5.50708,16.9628,0,0,0,0,0,0,0,-1,1126,1779,5.5071,-16.9628
-91,-755,5.51025,12.0438,0,0,0,0,0,0,0,-1,1133,1779,5.51022,-12.0439
-84,-755,0.169312,8.66443,0,0,0,0,0,0,0,-1,1140,1779,0.16932,-8.66446
-77,-755,-0.0491943,6.87439,0,0,0,0,0,0,0,-1,1147,1779,-0.0491385,-6.87443
-70,-755,4.5686,13.2169,0,0,0,0,0,0,0,-1,1154,1779,4.56865,-13.2169
-63,-755,-1.36316,7.3147,0,0,0,0,0,0,0,-1,1161,1779,-1.36312,-7.31473
-56,-755,0.0483398,5.06079,0,0,0,0,0,0,0,-1,1168,1779,0.0483138,-5.06084
-49,-755,-1.32263,5.33716,0,0,0,0,0,0,0,-1,1175,1779,-1.32264,-5.33718
-42,-755,-2.03613,4.01672,0,0,0,0,0,0,0,-1,1182,1779,-2.0361,-4.01671
-35,-755,-2.72498,2.37476,0,0,0,0,0,0,0,-1,1189,1779,-2.72502,-2.37473
-28,-755,9.69312,58.7192,0,0,0,0,0,0,0,-1,1196,1779,9.69314,-58.7192
-21,-755,9.73059,58.8184,0,0,0,0,0,0,0,-1,1203,1779,9.73063,-58.8183
-14,-755,9.69055,58.9579,0.00215077,0.00260952,0.00666602,0.00905012,-0.00428982,0.802596,0.00786357,0.0355099,1210,1779,9.69055,-58.9579
-7,-755,9.56677,59.0647,0.00162228,0.00255513,0.00627524,0.00838126,-0.00420384,0.822494,0.00739824,0.0257254,1217,1779,9.56676,-59.0648
0,-755,9.49146,59.2042,0.000891079,0.00243806,0.00597278,0.00768722,-0.00435808,0.849791,0.00704234,0.0158781,1224,1779,9.49145,-59.2042
7,-755,9.44629,59.3539,-0.000151746,0.00217364,0.0054435,0.00657724,-0.00455534,0.890614,0.00646264,0.014111,1231,1779,9.44624,-59.3538
14,-755,9.40015,59.5046,-0.00121117,0.00191195,0.00462011,0.00522726,-0.00452648,0.948366,0.00563617,0.0132377,1238,1779,9.40013,-59.5046
21,-755,9.28796,59.6512,-0.00233453,0.00193714,0.00371304,0.00408481,-0.0044822,1.0464,0.00494794,0.0183589,1245,1779,9.28795,-59.6513
28,-755,9.21936,59.7179,-0.00360229,0.00195329,0.00283741,0.00314627,-0.00479527,1.17279,0.00461788,0.0223751,1252,1779,9.21935,-59.7179
35,-755,9.21741,59.7964,-0.00482128,0.00205599,0.00195377,0.00257229,-0.00533757,1.31245,0.00465885,0.0221992,1259,1779,9.21746,-59.7963
42,-755,9.1947,59.8293,-0.00616101,0.00221435,0.00130927,0.00241425,-0.00636091,1.41929,0.00523436,0.0153551,1266,1779,9.19466,-59.8293
49,-755,9.13977,59.8243,-0.00760394,0.00209828,0.000935372,0.00218764,-0.0076933,1.47556,0.00599269,0.0108026,1273,1779,9.1398,-59.8243
56,-755,9.04639,59.8661,-0.00879375,0.00217463,0.000501689,0.00219753,-0.00881665,1.52518,0.00673093,0.0105809,1280,1779,9.04641,-59.8661
63,-755,8.99377,59.9056,-0.00987239,0.0019592,0.00032251,0.00196798,-0.00988117,1.54356,0.00733201,0.0105182,1287,1779,8.99383,-59.9056
70,-755,8.95972,59.8665,-0.0109131,0.00150771,0.000427291,0.00152239,-0.0109278,1.53645,0.00784205,0.0150361,1294,1779,8.95978,-59.8665
77,-755,8.87439,59.8091,-0.0118756,0.00105541,0.000756561,0.00109952,-0.0119197,1.51255,0.00833715,0.0151464,1301,1779,8.87436,-59.8091
84,-755,8.81116,59.7965,-0.0123327,0.000550588,0.0014728,0.000716812,-0.0124989,1.45841,0.00858151,0.015674,1308,1779,8.8111,-59.7965
91,-755,8.77039,59.7554,-0.0122201,-4.50899e-05,0.0023824,0.000404495,-0.0126697,1.38428,0.00858449,0.0155612,1315,1779,8.77039,-59.7554
98,-755,8.66577,59.7189,-0.0120985,-0.00121393,0.00291028,-0.000484656,-0.0128278,1.32527,0.00839497,0.0157875,1322,1779,8.66581,-59.7189
105,-755,8.61694,59.5969,-0.0121445,-0.00215002,0.00340389,-0.00110086,-0.0131937,1.27181,0.00845275,0.0184229,1329,1779,8.61698,-59.5969
112,-755,8.59424,59.4573,-0.0118155,-0.00280712,0.00402702,-0.0012694,-0.0133532,1.20603,0.00851062,0.0253832,1336,1779,8.59429,-59.4573
119,-755,8.5791,59.3099,-0.0115322,-0.00340215,0.00478635,-0.00118755,-0.0137468,1.13744,0.00879542,0.0264584,1343,1779,8.5791,-59.3099
126,-755,8.55505,59.2458,-0.0109157,-0.00413545,0.00528108,-0.00125,-0.0138011,1.07074,0.00881369,0.0308767,1350,1779,8.555,-59.2459
133,-755,8.37195,59.1017,-0.0100454,-0.00438816,0.00545023,-0.00107624,-0.0133573,1.02476,0.00856867,0.0321697,1357,1779,8.37196,-59.1017
140,-755,8.23132,58.9731,-0.00940157,-0.00444063,0.00540723,-0.000972079,-0.0128701,1.00044,0.00827511,0.0375813,1364,1779,8.23134,-58.9732
147,-755,8.38318,58.7655,-0.00875759,-0.00437626,0.00492843,-0.00117356,-0.0119603,0.994531,0.00761255,0.0391343,1371,1779,8.38312,-58.7655
154,-755,8.26013,58.6195,-0.00823104,-0.0035701,0.00409999,-0.00118453,-0.0106166,1.04383,0.0067178,0.0391483,1378,1779,8.2601,-58.6195
161,-755,8.15833,58.4066,0,0,0,0,0,0,0,-1,1385,1779,8.15826,-58.4066
168,-755,3.98181,7.35901,0,0,0,0,0,0,0,-1,1392,1779,3.98184,-7.35904
175,-755,8.17065,1.34363,0,0,0,0,0,0,0,-1,1399,1779,8.1706,-1.34368
182,-755,8.09216,2.96924,0,0,0,0,0,0,0,-1,1406,1779,8.09213,-2.9693
189,-755,8.04419,4.68042,0,0,0,0,0,0,0,-1,1413,1779,8.04419,-4.68046
196,-755,7.74841,7.4541,0,0,0,0,0,0,0,-1,1420,1779,7.74842,-7.45405
203,-755,4.80554,6.88696,0,0,0,0,0,0,0,-1,1427,1779,4.80554,-6.88697
210,-755,25.1694,7.35693,0,0,0,0,0,0,0,-1,1434,1779,25.1694,-7.35688
217,-755,5.01648,16.411,0,0,0,0,0,0,0,-1,1441,1779,5.01646,-16.411
224,-755,5.18103,22.6283,0,0,0,0,0,0,0,-1,1448,1779,5.18101,-22.6283
231,-755,5.7489,30.15,0,0,0,0,0,0,0,-1,1455,1779,5.74885,-30.15
238,-755,6.56323,29.2726,0,0,0,0,0,0,0,-1,1462,1779,6.56327,-29.2726
245,-755,8.29639,28.2113,0,0,0,0,0,0,0,-1,1469,1779,8.29639,-28.2113
252,-755,6.8877,28.8699,0,0,0,0,0,0,0,-1,1476,1779,6.88774,-28.8698
259,-755,6.42676,30.8574,0,0,0,0,0,0,0,-1,1483,1779,6.42677,-30.8575
266,-755,17.255,7.86096,0,0,0,0,0,0,0,-1,1490,1779,17.255,-7.86092
273,-755,15.7932,7.59778,0,0,0,0,0,0,0,-1,1497,1779,15.7932,-7.59777
280,-755,14.6255,7.34802,0,0,0,0,0,0,0,-1,1504,1779,14.6254,-7.34806
287,-755,13.8279,7.83105,0,0,0,0,0,0,0,-1,1511,1779,13.8279,-7.83104
294,-755,12.5695,7.96814,0,0,0,0,0,0,0,-1,1518,1779,12.5694,-7.9682
301,-755,11.2659,8.27087,0,0,0,0,0,0,0,-1,1525,1779,11.2658,-8.27087
308,-755,5.17737,37.2896,0,0,0,0,0,0,0,-1,1532,1779,5.17742,-37.2896
315,-755,0.828613,31.032,0,0,0,0,0,0,0,-1,1539,1779,0.828668,-31.032
322,-755,0,0,0,0,0,0,0,0,0,-1,1546,1779,0,0
329,-755,0,0,0,0,0,0,0,0,0,-1,1553,1779,0,0
336,-755,0,0,0,0,0,0,0,0,0,-1,1560,1779,0,0
343,-755,0,0,0,0,0,0,0,0,0,-1,1567,1779,0,0
350,-755,0,0,0,0,0,0,0,0,0,-1,1574,1779,0,0
357,-755,0,0,0,0,0,0,0,0,0,-1,1581,1779,0,0
364,-755,0,0,0,0,0,0,0,0,0,-1,1588,1779,0,0
371,-755,0,0,0,0,0,0,0,0,0,-1,1595,1779,0,0
378,-755,0,0,0,0,0,0,0,0,0,-1,1602,1779,0,0
385,-755,0,0,0,0,0,0,0,0,0,-1,1609,1779,0,0
392,-755,0,0,0,0,0,0,0,0,0,-1,1616,1779,0,0
399,-755,0,0,0,0,0,0,0,0,0,-1,1623,1779,0,0
406,-755,0,0,0,0,0,0,0,0,0,-1,1630,1779,0,0
413,-755,0,0,0,0,0,0,0,0,0,-1,1637,1779,0,0
420,-755,0,0,0,0,0,0,0,0,0,-1,1644,1779,0,0
427,-755,0,0,0,0,0,0,0,0,0,-1,1651,1779,0,0
434,-755,0,0,0,0,0,0,0,0,0,-1,1658,1779,0,0
441,-755,0,0,0,0,0,0,0,0,0,-1,1665,1779,0,0
448,-755,0,0,0,0,0,0,0,0,0,-1,1672,1779,0,0
455,-755,0,0,0,0,0,0,0,0,0,-1,1679,1779,0,0
462,-755,0,0,0,0,0,0,0,0,0,-1,1686,1779,0,0
469,-755,0,0,0,0,0,0,0,0,0,-1,1693,1779,0,0
476,-755,0,0,0,0,0,0,0,0,0,-1,1700,1779,0,0
483,-755,0,0,0,0,0,0,0,0,0,-1,1707,1779,0,0
490,-755,0,0,0,0,0,0,0,0,0,-1,1714,1779,0,0
497,-755,0,0,0,0,0,0,0,0,0,-1,1721,1779,0,0
504,-755,0,0,0,0,0,0,0,0,0,-1,1728,1779,0,0
511,-755,0,0,0,0,0,0,0,0,0,-1,1735,1779,0,0
518,-755,0,0,0,0,0,0,0,0,0,-1,1742,1779,0,0
525,-755,0,0,0,0,0,0,0,0,0,-1,1749,1779,0,0
532,-755,0,0,0,0,0,0,0,0,0,-1,1756,1779,0,0
539,-755,0,0,0,0,0,0,0,0,0,-1,1763,1779,0,0
546,-755,0,0,0,0,0,0,0,0,0,-1,1770,1779,0,0
553,-755,0,0,0,0,0,0,0,0,0,-1,1777,1779,0,0
560,-755,0,0,0,0,0,0,0,0,0,-1,1784,1779,0,0
567,-755,0,0,0,0,0,0,0,0,0,-1,1791,1779,0,0
574,-755,0,0,0,0,0,0,0,0,0,-1,1798,1779,0,0
581,-755,0,0,0,0,0,0,0,0,0,-1,1805,1779,0,0
588,-755,0,0,0,0,0,0,0,0,0,-1,1812,1779,0,0
595,-755,0,0,0,0,0,0,0,0,0,-1,1819,1779,0,0
602,-755,0,0,0,0,0,0,0,0,0,-1,1826,1779,0,0
609,-755,0,0,0,0,0,0,0,0,0,-1,1833,1779,0,0
616,-755,0,0,0,0,0,0,0,0,0,-1,1840,1779,0,0
623,-755,0,0,0,0,0,0,0,0,0,-1,1847,1779,0,0
630,-755,0,0,0,0,0,0,0,0,0,-1,1854,1779,0,0
637,-755,0,0,0,0,0,0,0,0,0,-1,1861,1779,0,0
644,-755,0,0,0,0,0,0,0,0,0,-1,1868,1779,0,0
651,-755,0,0,0,0,0,0,0,0,0,-1,1875,1779,0,0
658,-755,0,0,0,0,0,0,0,0,0,-1,1882,1779,0,0
665,-755,0,0,0,0,0,0,0,0,0,-1,1889,1779,0,0
672,-755,0,0,0,0,0,0,0,0,0,-1,1896,1779,0,0
679,-755,0,0,0,0,0,0,0,0,0,-1,1903,1779,0,0
686,-755,0,0,0,0,0,0,0,0,0,-1,1910,1779,0,0
693,-755,0,0,0,0,0,0,0,0,0,-1,1917,1779,0,0
700,-755,0,0,0,0,0,0,0,0,0,-1,1924,1779,0,0
707,-755,0,0,0,0,0,0,0,0,0,-1,1931,1779,0,0
714,-755,0,0,0,0,0,0,0,0,0,-1,1938,1779,0,0
721,-755,0,0,0,0,0,0,0,0,0,-1,1945,1779,0,0
728,-755,0,0,0,0,0,0,0,0,0,-1,1952,1779,0,0
735,-755,0,0,0,0,0,0,0,0,0,-1,1959,1779,0,0
742,-755,0,0,0,0,0,0,0,0,0,-1,1966,1779,0,0
749,-755,0,0,0,0,0,0,0,0,0,-1,1973,1779,0,0
756,-755,0,0,0,0,0,0,0,0,0,-1,1980,1779,0,0
763,-755,0,0,0,0,0,0,0,0,0,-1,1987,1779,0,0
770,-755,0,0,0,0,0,0,0,0,0,-1,1994,1779,0,0
777,-755,0,0,0,0,0,0,0,0,0,-1,2001,1779,0,0
784,-755,0,0,0,0,0,0,0,0,0,-1,2008,1779,0,0
791,-755,0,0,0,0,0,0,0,0,0,-1,2015,1779,0,0
798,-755,0,0,0,0,0,0,0,0,0,-1,2022,1779,0,0
805,-755,0,0,0,0,0,0,0,0,0,-1,2029,1779,0,0
812,-755,0,0,0,0,0,0,0,0,0,-1,2036,1779,0,0
-700,-762,0,0,0,0,0,0,0,0,0,-1,524,1786,0,0
-693,-762,0,0,0,0,0,0,0,0,0,-1,531,1786,0,0
-686,-762,0,0,0,0,0,0,0,0,0,-1,538,1786,0,0
-679,-762,0,0,0,0,0,0,0,0,0,-1,545,1786,0,0
-672,-762,0,0,0,0,0,0,0,0,0,-1,552,1786,0,0
-665,-762,0,0,0,0,0,0,0,0,0,-1,559,1786,0,0
-658,-762,0,0,0,0,0,0,0,0,0,-1,566,1786,0,0
-651,-762,0,0,0,0,0,0,0,0,0,-1,573,1786,0,0
-644,-762,0,0,0,0,0,0,0,0,0,-1,580,1786,0,0
-637,-762,0,0,0,0,0,0,0,0,0,-1,587,1786,0,0
-630,-762,0,0,0,0,0,0,0,0,0,-1,594,1786,0,0
-623,-762,0,0,0,0,0,0,0,0,0,-1,601,1786,0,0
-616,-762,0,0,0,0,0,0,0,0,0,-1,608,1786,0,0
-609,-762,0,0,0,0,0,0,0,0,0,-1,615,1786,0,0
-602,-762,0,0,0,0,0,0,0,0,0,-1,622,1786,0,0
-595,-762,0,0,0,0,0,0,0,0,0,-1,629,1786,0,0
-588,-762,0,0,0,0,0,0,0,0,0,-1,636,1786,0,0
-581,-762,0,0,0,0,0,0,0,0,0,-1,643,1786,0,0
-574,-762,0,0,0,0,0,0,0,0,0,-1,650,1786,0,0
-567,-762,0,0,0,0,0,0,0,0,0,-1,657,1786,0,0
-560,-762,0,0,0,0,0,0,0,0,0,-1,664,1786,0,0
-553,-762,0,0,0,0,0,0,0,0,0,-1,671,1786,0,0
-546,-762,0,0,0,0,0,0,0,0,0,-1,678,1786,0,0
-539,-762,0,0,0,0,0,0,0,0,0,-1,685,1786,0,0
-532,-762,0,0,0,0,0,0,0,0,0,-1,692,1786,0,0
-525,-762,0,0,0,0,0,0,0,0,0,-1,699,1786,0,0
-518,-762,0,0,0,0,0,0,0,0,0,-1,706,1786,0,0
-511,-762,0,0,0,0,0,0,0,0,0,-1,713,1786,0,0
-504,-762,0,0,0,0,0,0,0,0,0,-1,720,1786,0,0
-497,-762,0,0,0,0,0,0,0,0,0,-1,727,1786,0,0
-490,-762,0,0,0,0,0,0,0,0,0,-1,734,1786,0,0
-483,-762,0,0,0,0,0,0,0,0,0,-1,741,1786,0,0
-476,-762,0,0,0,0,0,0,0,0,0,-1,748,1786,0,0
-469,-762,0,0,0,0,0,0,0,0,0,-1,755,1786,0,0
-462,-762,0,0,0,0,0,0,0,0,0,-1,762,1786,0,0
-455,-762,0,0,0,0,0,0,0,0,0,-1,769,1786,0,0
-448,-762,0,0,0,0,0,0,0,0,0,-1,776,1786,0,0
-441,-762,0,0,0,0,0,0,0,0,0,-1,783,1786,0,0
-434,-762,0,0,0,0,0,0,0,0,0,-1,790,1786,0,0
-427,-762,0,0,0,0,0,0,0,0,0,-1,797,1786,0,0
-420,-762,0,0,0,0,0,0,0,0,0,-1,804,1786,0,0
-413,-762,0,0,0,0,0,0,0,0,0,-1,811,1786,0,0
-406,-762,0,0,0,0,0,0,0,0,0,-1,818,1786,0,0
-399,-762,0,0,0,0,0,0,0,0,0,-1,825,1786,0,0
-392,-762,0,0,0,0,0,0,0,0,0,-1,832,1786,0,0
-385,-762,0,0,0,0,0,0,0,0,0,-1,839,1786,0,0
-378,-762,0,0,0,0,0,0,0,0,0,-1,846,1786,0,0
-371,-762,0,0,0,0,0,0,0,0,0,-1,853,1786,0,0
-364,-762,0,0,0,0,0,0,0,0,0,-1,860,1786,0,0
-357,-762,0,0,0,0,0,0,0,0,0,-1,867,1786,0,0
-350,-762,0,0,0,0,0,0,0,0,0,-1,874,1786,0,0
-343,-762,0,0,0,0,0,0,0,0,0,-1,881,1786,0,0
-336,-762,0,0,0,0,0,0,0,0,0,-1,888,1786,0,0
-329,-762,0,0,0,0,0,0,0,0,0,-1,895,1786,0,0
-322,-762,0,0,0,0,0,0,0,0,0,-1,902,1786,0,0
-315,-762,0,0,0,0,0,0,0,0,0,-1,909,1786,0,0
-308,-762,0,0,0,0,0,0,0,0,0,-1,916,1786,0,0
-301,-762,0,0,0,0,0,0,0,0,0,-1,923,1786,0,0
-294,-762,0,0,0,0,0,0,0,0,0,-1,930,1786,0,0
-287,-762,0,0,0,0,0,0,0,0,0,-1,937,1786,0,0
-280,-762,0,0,0,0,0,0,0,0,0,-1,944,1786,0,0
-273,-762,0,0,0,0,0,0,0,0,0,-1,951,1786,0,0
-266,-762,0,0,0,0,0,0,0,0,0,-1,958,1786,0,0
-259,-762,0,0,0,0,0,0,0,0,0,-1,965,1786,0,0
-252,-762,0,0,0,0,0,0,0,0,0,-1,972,1786,0,0
-245,-762,0,0,0,0,0,0,0,0,0,-1,979,1786,0,0
-238,-762,0,0,0,0,0,0,0,0,0,-1,986,1786,0,0
-231,-762,0,0,0,0,0,0,0,0,0,-1,993,1786,0,0
-224,-762,0,0,0,0,0,0,0,0,0,-1,1000,1786,0,0
-217,-762,0,0,0,0,0,0,0,0,0,-1,1007,1786,0,0
-210,-762,0,0,0,0,0,0,0,0,0,-1,1014,1786,0,0
-203,-762,0,0,0,0,0,0,0,0,0,-1,1021,1786,0,0
-196,-762,0,0,0,0,0,0,0,0,0,-1,1028,1786,0,0
-189,-762,0,0,0,0,0,0,0,0,0,-1,1035,1786,0,0
-182,-762,4.44226,13.2462,0,0,0,0,0,0,0,-1,1042,1786,4.44227,-13.2462
-175,-762,1.14465,40.1932,0,0,0,0,0,0,0,-1,1049,1786,1.1447,-40.1932
-168,-762,3.26794,41.3881,0,0,0,0,0,0,0,-1,1056,1786,3.26794,-41.388
-161,-762,-3.29077,11.9508,0,0,0,0,0,0,0,-1,1063,1786,-3.29076,-11.9508
-154,-762,-4.55823,11.1176,0,0,0,0,0,0,0,-1,1070,1786,-4.55828,-11.1175
-147,-762,-6.52454,9.41418,0,0,0,0,0,0,0,-1,1077,1786,-6.52458,-9.41419
-140,-762,4.99792,5.28589,0,0,0,0,0,0,0,-1,1084,1786,4.99793,-5.28587
-133,-762,0.689819,19.2172,0,0,0,0,0,0,0,-1,1091,1786,0.689867,-19.2171
-126,-762,1.48743,19.9288,0,0,0,0,0,0,0,-1,1098,1786,1.48738,-19.9289
-119,-762,2.65637,20.208,0,0,0,0,0,0,0,-1,1105,1786,2.65632,-20.208
-112,-762,6.84705,25.5554,0,0,0,0,0,0,0,-1,1112,1786,6.84706,-25.5554
-105,-762,5.57947,21.618,0,0,0,0,0,0,0,-1,1119,1786,5.57948,-21.618
-98,-762,5.0636,17.9901,0,0,0,0,0,0,0,-1,1126,1786,5.06361,-17.9901
-91,-762,4.54773,14.3622,0,0,0,0,0,0,0,-1,1133,1786,4.54774,-14.3622
-84,-762,3.96375,10.4547,0,0,0,0,0,0,0,-1,1140,1786,3.96371,-10.4548
-77,-762,0.305054,8.49365,0,0,0,0,0,0,0,-1,1147,1786,0.305008,-8.49362
-70,-762,0.183716,6.74622,0,0,0,0,0,0,0,-1,1154,1786,0.183696,-6.74621
-63,-762,-0.883057,9.08813,0,0,0,0,0,0,0,-1,1161,1786,-0.88311,-9.08808
-56,-762,-0.578979,5.10254,0,0,0,0,0,0,0,-1,1168,1786,-0.578951,-5.10249
-49,-762,-2.04541,3.66321,0,0,0,0,0,0,0,-1,1175,1786,-2.0454,-3.66319
-42,-762,-2.23462,3.474,0,0,0,0,0,0,0,-1,1182,1786,-2.23459,-3.47399
-35,-762,-3.28992,1.68164,0,0,0,0,0,0,0,-1,1189,1786,-3.28998,-1.68164
-28,-762,-3.75378,1.37769,0,0,0,0,0,0,0,-1,1196,1786,-3.75373,-1.37767
-21,-762,9.78564,58.3785,0,0,0,0,0,0,0,-1,1203,1786,9.78562,-58.3785
-14,-762,9.85986,58.9675,0,0,0,0,0,0,0,-1,1210,1786,9.85989,-58.9675
-7,-762,9.62073,59.1348,0.00541111,0.00383102,0.00960439,0.0142579,-0.00501577,0.744361,0.0115462,0.0499579,1217,1786,9.62074,-59.1347
0,-762,9.52161,59.2267,0.00387614,0.00376358,0.00908071,0.0129007,-0.00526103,0.782299,0.0107905,0.0378286,1224,1786,9.52166,-59.2267
7,-762,9.54541,59.3475,0.00199277,0.00348011,0.00824753,0.0110174,-0.00554455,0.830361,0.00973454,0.0229595,1231,1786,9.54541,-59.3475
14,-762,9.47546,59.6376,0.000137799,0.00313005,0.00708952,0.00887959,-0.00561175,0.889389,0.00843719,0.0393219,1238,1786,9.47548,-59.6375
21,-762,9.28271,59.6261,-0.00170901,0.00308001,0.00584524,0.00700219,-0.00563119,0.979797,0.00730818,0.0481594,1245,1786,9.2827,-59.6261
28,-762,9.15161,59.7318,-0.00367513,0.00303981,0.004638,0.00540804,-0.00604336,1.09869,0.00661486,0.0495915,1252,1786,9.15164,-59.7318
35,-762,8.99792,59.8324,-0.00554581,0.00308424,0.00344118,0.00428838,-0.00674995,1.23419,0.00642558,0.0493014,1259,1786,8.9979,-59.8324
42,-762,9.36328,59.8051,0,0,0,0,0,0,0,-1,1266,1786,9.36329,-59.805
49,-762,9.18994,59.8054,-0.00943592,0.00297218,0.00205462,0.00330355,-0.00976729,1.41089,0.007848,0.0480955,1273,1786,9.18993,-59.8054
56,-762,9.11853,59.8734,-0.0110924,0.0029545,0.00150059,0.00311302,-0.0112509,1.46555,0.00872539,0.0348336,1280,1786,9.11849,-59.8735
63,-762,9.05151,59.8726,-0.0125292,0.0024368,0.0013205,0.00255241,-0.0126449,1.48346,0.00939698,0.0315615,1287,1786,9.05151,-59.8725
70,-762,8.97913,59.873,-0.0138893,0.00154594,0.00151281,0.00169282,-0.0140361,1.47401,0.00996972,0.0334983,1294,1786,8.97908,-59.873
77,-762,8.89197,59.8002,-0.0151911,0.00065909,0.0019623,0.000898414,-0.0154305,1.44943,0.0105992,0.0420771,1301,1786,8.89199,-59.8002
84,-762,8.84167,59.65,0,0,0,0,0,0,0,-1,1308,1786,8.84171,-59.65
91,-762,8.83179,59.6558,0,0,0,0,0,0,0,-1,1315,1786,8.83174,-59.6557
98,-762,8.49097,59.6537,0,0,0,0,0,0,0,-1,1322,1786,8.49092,-59.6537
105,-762,8.45227,59.5118,-0.0158104,-0.00446054,0.00551287,-0.00222366,-0.0180472,1.18534,0.011363,0.0498497,1329,1786,8.45228,-59.5118
112,-762,8.46057,59.246,-0.0154623,-0.0054601,0.00635931,-0.00237096,-0.0185514,1.1186,0.0116579,0.0473226,1336,1786,8.46061,-59.246
119,-762,8.21692,58.969,0,0,0,0,0,0,0,-1,1343,1786,8.21693,-58.969
126,-762,8.47388,59.2626,0,0,0,0,0,0,0,-1,1350,1786,8.47392,-59.2626
133,-762,7.86926,59.0343,0,0,0,0,0,0,0,-1,1357,1786,7.86927,-59.0343
140,-762,7.89844,58.9598,-0.0128797,-0.00755145,0.00846655,-0.00133975,-0.0190914,0.937825,0.0123053,0.0468331,1364,1786,7.89841,-58.9598
147,-762,8.23242,58.8033,-0.0122695,-0.00733673,0.0078855,-0.0015409,-0.0180653,0.936966,0.0115642,0.0448865,1371,1786,8.23243,-58.8034
154,-762,8.01526,58.7372,0,0,0,0,0,0,0,-1,1378,1786,8.0152,-58.7372
161,-762,8.65051,34.8102,0,0,0,0,0,0,0,-1,1385,1786,8.65054,-34.8101
168,-762,8.19287,0.880615,0,0,0,0,0,0,0,-1,1392,1786,8.19291,-0.880603
175,-762,8.33997,1.95947,0,0,0,0,0,0,0,-1,1399,1786,8.33997,-1.95942
182,-762,8.28418,3.56482,0,0,0,0,0,0,0,-1,1406,1786,8.28415,-3.56485
189,-762,8.21179,5.23389,0,0,0,0,0,0,0,-1,1413,1786,8.21183,-5.23383
196,-762,8.05969,6.95483,0,0,0,0,0,0,0,-1,1420,1786,8.05972,-6.9548
203,-762,24.0077,7.10425,0,0,0,0,0,0,0,-1,1427,1786,24.0077,-7.10426
210,-762,23.8073,7.6499,0,0,0,0,0,0,0,-1,1434,1786,23.8073,-7.64987
217,-762,23.3193,8.24426,0,0,0,0,0,0,0,-1,1441,1786,23.3194,-8.2442
224,-762,2.65149,20.6106,0,0,0,0,0,0,0,-1,1448,1786,2.65153,-20.6106
231,-762,5.46655,23.521,0,0,0,0,0,0,0,-1,1455,1786,5.46653,-23.521
238,-762,5.35632,29.7203,0,0,0,0,0,0,0,-1,1462,1786,5.35629,-29.7203
245,-762,6.93054,27.8312,0,0,0,0,0,0,0,-1,1469,1786,6.93058,-27.8312
252,-762,6.20215,28.3027,0,0,0,0,0,0,0,-1,1476,1786,6.20211,-28.3027
259,-762,5.46472,28.8762,0,0,0,0,0,0,0,-1,1483,1786,5.46476,-28.8762
266,-762,16.451,7.67773,0,0,0,0,0,0,0,-1,1490,1786,16.4511,-7.67773
273,-762,15.287,7.5304,0,0,0,0,0,0,0,-1,1497,1786,15.2869,-7.53044
280,-762,14.1501,7.38379,0,0,0,0,0,0,0,-1,1504,1786,14.1502,-7.38376
287,-762,12.6891,7.99133,0,0,0,0,0,0,0,-1,1511,1786,12.6891,-7.99135
294,-762,12.6959,8.30371,0,0,0,0,0,0,0,-1,1518,1786,12.6959,-8.30368
301,-762,11.4222,8.84143,0,0,0,0,0,0,0,-1,1525,1786,11.4223,-8.84149
308,-762,0,0,0,0,0,0,0,0,0,-1,1532,1786,0,0
315,-762,0,0,0,0,0,0,0,0,0,-1,1539,1786,0,0
322,-762,0,0,0,0,0,0,0,0,0,-1,1546,1786,0,0
329,-762,0,0,0,0,0,0,0,0,0,-1,1553,1786,0,0
336,-762,0,0,0,0,0,0,0,0,0,-1,1560,1786,0,0
343,-762,0,0,0,0,0,0,0,0,0,-1,1567,1786,0,0
350,-762,0,0,0,0,0,0,0,0,0,-1,1574,1786,0,0
357,-762,0,0,0,0,0,0,0,0,0,-1,1581,1786,0,0
364,-762,0,0,0,0,0,0,0,0,0,-1,1588,1786,0,0
371,-762,0,0,0,0,0,0,0,0,0,-1,1595,1786,0,0
378,-762,0,0,0,0,0,0,0,0,0,-1,1602,1786,0,0
385,-762,0,0,0,0,0,0,0,0,0,-1,1609,1786,0,0
392,-762,0,0,0,0,0,0,0,0,0,-1,1616,1786,0,0
399,-762,0,0,0,0,0,0,0,0,0,-1,1623,1786,0,0
406,-762,0,0,0,0,0,0,0,0,0,-1,1630,1786,0,0
413,-762,0,0,0,0,0,0,0,0,0,-1,1637,1786,0,0
420,-762,0,0,0,0,0,0,0,0,0,-1,1644,1786,0,0
427,-762,0,0,0,0,0,0,0,0,0,-1,1651,1786,0,0
434,-762,0,0,0,0,0,0,0,0,0,-1,1658,1786,0,0
441,-762,0,0,0,0,0,0,0,0,0,-1,1665,1786,0,0
448,-762,0,0,0,0,0,0,0,0,0,-1,1672,1786,0,0
455,-762,0,0,0,0,0,0,0,0,0,-1,1679,1786,0,0
462,-762,0,0,0,0,0,0,0,0,0,-1,1686,1786,0,0
469,-762,0,0,0,0,0,0,0,0,0,-1,1693,1786,0,0
476,-762,0,0,0,0,0,0,0,0,0,-1,1700,1786,0,0
483,-762,0,0,0,0,0,0,0,0,0,-1,1707,1786,0,0
490,-762,0,0,0,0,0,0,0,0,0,-1,1714,1786,0,0
497,-762,0,0,0,0,0,0,0,0,0,-1,1721,1786,0,0
504,-762,0,0,0,0,0,0,0,0,0,-1,1728,1786,0,0
511,-762,0,0,0,0,0,0,0,0,0,-1,1735,1786,0,0
518,-762,0,0,0,0,0,0,0,0,0,-1,1742,1786,0,0
525,-762,0,0,0,0,0,0,0,0,0,-1,1749,1786,0,0
532,-762,0,0,0,0,0,0,0,0,0,-1,1756,1786,0,0
539,-762,0,0,0,0,0,0,0,0,0,-1,1763,1786,0,0
546,-762,0,0,0,0,0,0,0,0,0,-1,1770,1786,0,0
553,-762,0,0,0,0,0,0,0,0,0,-1,1777,1786,0,0
560,-762,0,0,0,0,0,0,0,0,0,-1,1784,1786,0,0
567,-762,0,0,0,0,0,0,0,0,0,-1,1791,1786,0,0
574,-762,0,0,0,0,0,0,0,0,0,-1,1798,1786,0,0
581,-762,0,0,0,0,0,0,0,0,0,-1,1805,1786,0,0
588,-762,0,0,0,0,0,0,0,0,0,-1,1812,1786,0,0
595,-762,0,0,0,0,0,0,0,0,0,-1,1819,1786,0,0
602,-762,0,0,0,0,0,0,0,0,0,-1,1826,1786,0,0
609,-762,0,0,0,0,0,0,0,0,0,-1,1833,1786,0,0
616,-762,0,0,0,0,0,0,0,0,0,-1,1840,1786,0,0
623,-762,0,0,0,0,0,0,0,0,0,-1,1847,1786,0,0
630,-762,0,0,0,0,0,0,0,0,0,-1,1854,1786,0,0
637,-762,0,0,0,0,0,0,0,0,0,-1,1861,1786,0,0
644,-762,0,0,0,0,0,0,0,0,0,-1,1868,1786,0,0
651,-762,0,0,0,0,0,0,0,0,0,-1,1875,1786,0,0
658,-762,0,0,0,0,0,0,0,0,0,-1,1882,1786,0,0
665,-762,0,0,0,0,0,0,0,0,0,-1,1889,1786,0,0
672,-762,0,0,0,0,0,0,0,0,0,-1,1896,1786,0,0
679,-762,0,0,0,0,0,0,0,0,0,-1,1903,1786,0,0
686,-762,0,0,0,0,0,0,0,0,0,-1,1910,1786,0,0
693,-762,0,0,0,0,0,0,0,0,0,-1,1917,1786,0,0
700,-762,0,0,0,0,0,0,0,0,0,-1,1924,1786,0,0
707,-762,0,0,0,0,0,0,0,0,0,-1,1931,1786,0,0
714,-762,0,0,0,0,0,0,0,0,0,-1,1938,1786,0,0
721,-762,0,0,0,0,0,0,0,0,0,-1,1945,1786,0,0
728,-762,0,0,0,0,0,0,0,0,0,-1,1952,1786,0,0
735,-762,0,0,0,0,0,0,0,0,0,-1,1959,1786,0,0
742,-762,0,0,0,0,0,0,0,0,0,-1,1966,1786,0,0
749,-762,0,0,0,0,0,0,0,0,0,-1,1973,1786,0,0
756,-762,0,0,0,0,0,0,0,0,0,-1,1980,1786,0,0
763,-762,0,0,0,0,0,0,0,0,0,-1,1987,1786,0,0
770,-762,0,0,0,0,0,0,0,0,0,-1,1994,1786,0,0
777,-762,0,0,0,0,0,0,0,0,0,-1,2001,1786,0,0
784,-762,0,0,0,0,0,0,0,0,0,-1,2008,1786,0,0
791,-762,0,0,0,0,0,0,0,0,0,-1,2015,1786,0,0
798,-762,0,0,0,0,0,0,0,0,0,-1,2022,1786,0,0
805,-762,0,0,0,0,0,0,0,0,0,-1,2029,1786,0,0
812,-762,0,0,0,0,0,0,0,0,0,-1,2036,1786,0,0
-700,-769,0,0,0,0,0,0,0,0,0,-1,524,1793,0,0
-693,-769,0,0,0,0,0,0,0,0,0,-1,531,1793,0,0
-686,-769,0,0,0,0,0,0,0,0,0,-1,538,1793,0,0
-679,-769,0,0,0,0,0,0,0,0,0,-1,545,1793,0,0
-672,-769,0,0,0,0,0,0,0,0,0,-1,552,1793,0,0
-665,-769,0,0,0,0,0,0,0,0,0,-1,559,1793,0,0
-658,-769,0,0,0,0,0,0,0,0,0,-1,566,1793,0,0
-651,-769,0,0,0,0,0,0,0,0,0,-1,573,1793,0,0
-644,-769,0,0,0,0,0,0,0,0,0,-1,580,1793,0,0
-637,-769,0,0,0,0,0,0,0,0,0,-1,587,1793,0,0
-630,-769,0,0,0,0,0,0,0,0,0,-1,594,1793,0,0
-623,-769,0,0,0,0,0,0,0,0,0,-1,601,1793,0,0
-616,-769,0,0,0,0,0,0,0,0,0,-1,608,1793,0,0
-609,-769,0,0,0,0,0,0,0,0,0,-1,615,1793,0,0
-602,-769,0,0,0,0,0,0,0,0,0,-1,622,1793,0,0
-595,-769,0,0,0,0,0,0,0,0,0,-1,629,1793,0,0
-588,-769,0,0,0,0,0,0,0,0,0,-1,636,1793,0,0
-581,-769,0,0,0,0,0,0,0,0,0,-1,643,1793,0,0
-574,-769,0,0,0,0,0,0,0,0,0,-1,650,1793,0,0
-567,-769,0,0,0,0,0,0,0,0,0,-1,657,1793,0,0
-560,-769,0,0,0,0,0,0,0,0,0,-1,664,1793,0,0
-553,-769,0,0,0,0,0,0,0,0,0,-1,671,1793,0,0
-546,-769,0,0,0,0,0,0,0,0,0,-1,678,1793,0,0
-539,-769,0,0,0,0,0,0,0,0,0,-1,685,1793,0,0
-532,-769,0,0,0,0,0,0,0,0,0,-1,692,1793,0,0
-525,-769,0,0,0,0,0,0,0,0,0,-1,699,1793,0,0
-518,-769,0,0,0,0,0,0,0,0,0,-1,706,1793,0,0
-511,-769,0,0,0,0,0,0,0,0,0,-1,713,1793,0,0
-504,-769,0,0,0,0,0,0,0,0,0,-1,720,1793,0,0
-497,-769,0,0,0,0,0,0,0,0,0,-1,727,1793,0,0
-490,-769,0,0,0,0,0,0,0,0,0,-1,734,1793,0,0
-483,-769,0,0,0,0,0,0,0,0,0,-1,741,1793,0,0
-476,-769,0,0,0,0,0,0,0,0,0,-1,748,1793,0,0
-469,-769,0,0,0,0,0,0,0,0,0,-1,755,1793,0,0
-462,-769,0,0,0,0,0,0,0,0,0,-1,762,1793,0,0
-455,-769,0,0,0,0,0,0,0,0,0,-1,769,1793,0,0
-448,-769,0,0,0,0,0,0,0,0,0,-1,776,1793,0,0
-441,-769,0,0,0,0,0,0,0,0,0,-1,783,1793,0,0
-434,-769,0,0,0,0,0,0,0,0,0,-1,790,1793,0,0
-427,-769,0,0,0,0,0,0,0,0,0,-1,797,1793,0,0
-420,-769,0,0,0,0,0,0,0,0,0,-1,804,1793,0,0
-413,-769,0,0,0,0,0,0,0,0,0,-1,811,1793,0,0
-406,-769,0,0,0,0,0,0,0,0,0,-1,818,1793,0,0
-399,-769,0,0,0,0,0,0,0,0,0,-1,825,1793,0,0
-392,-769,0,0,0,0,0,0,0,0,0,-1,832,1793,0,0
-385,-769,0,0,0,0,0,0,0,0,0,-1,839,1793,0,0
-378,-769,0,0,0,0,0,0,0,0,0,-1,846,1793,0,0
-371,-769,0,0,0,0,0,0,0,0,0,-1,853,1793,0,0
-364,-769,0,0,0,0,0,0,0,0,0,-1,860,1793,0,0
-357,-769,0,0,0,0,0,0,0,0,0,-1,867,1793,0,0
-350,-769,0,0,0,0,0,0,0,0,0,-1,874,1793,0,0
-343,-769,0,0,0,0,0,0,0,0,0,-1,881,1793,0,0
-336,-769,0,0,0,0,0,0,0,0,0,-1,888,1793,0,0
-329,-769,0,0,0,0,0,0,0,0,0,-1,895,1793,0,0
-322,-769,0,0,0,0,0,0,0,0,0,-1,902,1793,0,0
-315,-769,0,0,0,0,0,0,0,0,0,-1,909,1793,0,0
-308,-769,0,0,0,0,0,0,0,0,0,-1,916,1793,0,0
-301,-769,0,0,0,0,0,0,0,0,0,-1,923,1793,0,0
-294,-769,0,0,0,0,0,0,0,0,0,-1,930,1793,0,0
-287,-769,0,0,0,0,0,0,0,0,0,-1,937,1793,0,0
-280,-769,0,0,0,0,0,0,0,0,0,-1,944,1793,0,0
-273,-769,0,0,0,0,0,0,0,0,0,-1,951,1793,0,0
-266,-769,0,0,0,0,0,0,0,0,0,-1,958,1793,0,0
-259,-769,0,0,0,0,0,0,0,0,0,-1,965,1793,0,0
-252,-769,0,0,0,0,0,0,0,0,0,-1,972,1793,0,0
-245,-769,0,0,0,0,0,0,0,0,0,-1,979,1793,0,0
-238,-769,0,0,0,0,0,0,0,0,0,-1,986,1793,0,0
-231,-769,0,0,0,0,0,0,0,0,0,-1,993,1793,0,0
-224,-769,0,0,0,0,0,0,0,0,0,-1,1000,1793,0,0
-217,-769,0,0,0,0,0,0,0,0,0,-1,1007,1793,0,0
-210,-769,0,0,0,0,0,0,0,0,0,-1,1014,1793,0,0
-203,-769,0,0,0,0,0,0,0,0,0,-1,1021,1793,0,0
-196,-769,0,0,0,0,0,0,0,0,0,-1,1028,1793,0,0
-189,-769,0,0,0,0,0,0,0,0,0,-1,1035,1793,0,0
-182,-769,0,0,0,0,0,0,0,0,0,-1,1042,1793,0,0
-175,-769,0,0,0,0,0,0,0,0,0,-1,1049,1793,0,0
-168,-769,0,0,0,0,0,0,0,0,0,-1,1056,1793,0,0
-161,-769,-3.61145,12.4761,0,0,0,0,0,0,0,-1,1063,1793,-3.6114,-12.476
-154,-769,-0.813232,5.32874,0,0,0,0,0,0,0,-1,1070,1793,-0.813269,-5.32872
-147,-769,4.26587,4.7002,0,0,0,0,0,0,0,-1,1077,1793,4.26593,-4.70022
-140,-769,4.10376,5.28589,0,0,0,0,0,0,0,-1,1084,1793,4.10371,-5.28584
-133,-769,6.422,8.21777,0,0,0,0,0,0,0,-1,1091,1793,6.42198,-8.21773
-126,-769,-0.352295,19.326,0,0,0,0,0,0,0,-1,1098,1793,-0.352235,-19.326
-119,-769,6.01685,16.2577,0,0,0,0,0,0,0,-1,1105,1793,6.01689,-16.2576
-112,-769,5.76416,27.2615,0,0,0,0,0,0,0,-1,1112,1793,5.7642,-27.2615
-105,-769,4.97009,22.8479,0,0,0,0,0,0,0,-1,1119,1793,4.97006,-22.8479
-98,-769,4.69373,18.9142,0,0,0,0,0,0,0,-1,1126,1793,4.69376,-18.9142
-91,-769,4.41748,14.9805,0,0,0,0,0,0,0,-1,1133,1793,4.41746,-14.9805
-84,-769,3.2207,12.4565,0,0,0,0,0,0,0,-1,1140,1793,3.22066,-12.4565
-77,-769,2.48816,8.98486,0,0,0,0,0,0,0,-1,1147,1793,2.48815,-8.98489
-70,-769,1.04944,11.9852,0,0,0,0,0,0,0,-1,1154,1793,1.04947,-11.9852
-63,-769,-2.39709,9.60339,0,0,0,0,0,0,0,-1,1161,1793,-2.39706,-9.6034
-56,-769,-5.84363,7.22156,0,0,0,0,0,0,0,-1,1168,1793,-5.84359,-7.22157
-49,-769,-2.41443,3.95471,0,0,0,0,0,0,0,-1,1175,1793,-2.41446,-3.95471
-42,-769,-3.1991,2.64941,0,0,0,0,0,0,0,-1,1182,1793,-3.19914,-2.64944
-35,-769,-3.50183,1.73389,0,0,0,0,0,0,0,-1,1189,1793,-3.50189,-1.7339
-28,-769,-3.96985,1.14075,0,0,0,0,0,0,0,-1,1196,1793,-3.96985,-1.14078
-21,-769,8.51636,58.248,0,0,0,0,0,0,0,-1,1203,1793,8.51634,-58.248
-14,-769,9.28455,58.3851,0,0,0,0,0,0,0,-1,1210,1793,9.28454,-58.3852
-7,-769,9.4718,59.0527,0,0,0,0,0,0,0,-1,1217,1793,9.4718,-59.0527
0,-769,9.50989,59.1908,0.00871868,0.00583516,0.0134748,0.0208286,-0.00627475,0.732102,0.0163829,0.0483944,1224,1793,9.50993,-59.1908
7,-769,9.59375,59.3916,0.00556469,0.005476,0.0121871,0.0177076,-0.00666687,0.783579,0.0145458,0.0458373,1231,1793,9.59377,-59.3916
14,-769,9.62061,59.7781,0.00252677,0.00496094,0.0105996,0.0144131,-0.00692543,0.84256,0.0125701,0.0456674,1238,1793,9.62057,-59.7781
21,-769,9.60693,59.8444,-0.000355001,0.0047318,0.00893326,0.0114767,-0.00709988,0.924084,0.010824,0.0465281,1245,1793,9.60693,-59.8444
28,-769,9.02539,59.6093,-0.00326576,0.00457639,0.00730815,0.00894892,-0.00763829,1.03162,0.00958659,0.0441123,1252,1793,9.02539,-59.6093
35,-769,8.96912,59.6049,-0.00598814,0.00449821,0.00572402,0.00701747,-0.00850739,1.15619,0.00897703,0.0461981,1259,1793,8.96917,-59.6049
42,-769,8.79663,59.8735,0,0,0,0,0,0,0,-1,1266,1793,8.79664,-59.8736
49,-769,9.30664,59.8375,-0.0112083,0.00411525,0.00385469,0.00503027,-0.0121233,1.33773,0.0101819,0.0467013,1273,1793,9.30667,-59.8375
56,-769,9.24768,59.7665,-0.0134175,0.00392543,0.00314448,0.00447795,-0.01397,1.39686,0.011111,0.0466555,1280,1793,9.24763,-59.7665
63,-769,9.23914,59.6083,-0.0152395,0.00295582,0.00295814,0.00342467,-0.0157084,1.41361,0.0117809,0.0470235,1287,1793,9.23912,-59.6083
70,-769,9.24805,59.7078,-0.0169156,0.00143699,0.00324161,0.00199272,-0.0174714,1.40101,0.0123655,0.0465679,1294,1793,9.24803,-59.7078
77,-769,8.90393,59.8193,-0.0185636,-7.93901e-05,0.00381006,0.000675157,-0.0193182,1.37529,0.0131096,0.0464876,1301,1793,8.90388,-59.8193
84,-769,8.8158,59.9009,0,0,0,0,0,0,0,-1,1308,1793,8.81576,-59.9008
91,-769,8.91663,60.0436,-0.0193585,-0.00293336,0.0065903,-0.000616046,-0.0216758,1.23267,0.0142496,0.0441106,1315,1793,8.91669,-60.0436
98,-769,8.56433,59.8496,-0.0193613,-0.00560242,0.00751119,-0.00229636,-0.0226674,1.15616,0.0144073,0.0442278,1322,1793,8.56433,-59.8496
105,-769,8.20398,59.2278,0,0,0,0,0,0,0,-1,1329,1793,8.20399,-59.2278
112,-769,8.41101,58.8887,0,0,0,0,0,0,0,-1,1336,1793,8.41103,-58.8887
119,-769,8.35376,58.7706,0,0,0,0,0,0,0,-1,1343,1793,8.35379,-58.7707
126,-769,8.33752,58.9042,0,0,0,0,0,0,0,-1,1350,1793,8.33756,-58.9042
133,-769,8.10742,58.8767,0,0,0,0,0,0,0,-1,1357,1793,8.10746,-58.8767
140,-769,7.65625,58.854,0,0,0,0,0,0,0,-1,1364,1793,7.65624,-58.854
147,-769,8.03088,58.7357,0,0,0,0,0,0,0,-1,1371,1793,8.03086,-58.7357
154,-769,7.29382,55.4241,0,0,0,0,0,0,0,-1,1378,1793,7.29384,-55.4241
161,-769,6.57019,1.53223,0,0,0,0,0,0,0,-1,1385,1793,6.57019,-1.53226
168,-769,8.27637,0.756958,0,0,0,0,0,0,0,-1,1392,1793,8.27639,-0.756944
175,-769,8.47144,2.41174,0,0,0,0,0,0,0,-1,1399,1793,8.47147,-2.4118
182,-769,8.41479,4.05994,0,0,0,0,0,0,0,-1,1406,1793,8.41479,-4.05997
189,-769,8.25049,5.68433,0,0,0,0,0,0,0,-1,1413,1793,8.25054,-5.68428
196,-769,7.97729,7.42847,0,0,0,0,0,0,0,-1,1420,1793,7.9773,-7.42848
203,-769,22.0977,6.73889,0,0,0,0,0,0,0,-1,1427,1793,22.0977,-6.7389
210,-769,22.1115,7.77246,0,0,0,0,0,0,0,-1,1434,1793,22.1115,-7.77248
217,-769,22.4723,8.79102,0,0,0,0,0,0,0,-1,1441,1793,22.4723,-8.79099
224,-769,22.1348,9.35278,0,0,0,0,0,0,0,-1,1448,1793,22.1348,-9.35283
231,-769,3.13318,19.7184,0,0,0,0,0,0,0,-1,1455,1793,3.13323,-19.7184
238,-769,5.74512,18.6597,0,0,0,0,0,0,0,-1,1462,1793,5.74512,-18.6596
245,-769,5.80798,22.87,0,0,0,0,0,0,0,-1,1469,1793,5.80796,-22.87
252,-769,6.20837,28.394,0,0,0,0,0,0,0,-1,1476,1793,6.20833,-28.3941
259,-769,10.974,17.7698,0,0,0,0,0,0,0,-1,1483,1793,10.974,-17.7698
266,-769,15.8488,7.3905,0,0,0,0,0,0,0,-1,1490,1793,15.8488,-7.39046
273,-769,14.8075,7.56152,0,0,0,0,0,0,0,-1,1497,1793,14.8075,-7.56152
280,-769,13.6519,7.43054,0,0,0,0,0,0,0,-1,1504,1793,13.6518,-7.43058
287,-769,0,0,0,0,0,0,0,0,0,-1,1511,1793,0,0
294,-769,0,0,0,0,0,0,0,0,0,-1,1518,1793,0,0
301,-769,0,0,0,0,0,0,0,0,0,-1,1525,1793,0,0
308,-769,0,0,0,0,0,0,0,0,0,-1,1532,1793,0,0
315,-769,0,0,0,0,0,0,0,0,0,-1,1539,1793,0,0
322,-769,0,0,0,0,0,0,0,0,0,-1,1546,1793,0,0
329,-769,0,0,0,0,0,0,0,0,0,-1,1553,1793,0,0
336,-769,0,0,0,0,0,0,0,0,0,-1,1560,1793,0,0
343,-769,0,0,0,0,0,0,0,0,0,-1,1567,1793,0,0
350,-769,0,0,0,0,0,0,0,0,0,-1,1574,1793,0,0
357,-769,0,0,0,0,0,0,0,0,0,-1,1581,1793,0,0
364,-769,0,0,0,0,0,0,0,0,0,-1,1588,1793,0,0
371,-769,0,0,0,0,0,0,0,0,0,-1,1595,1793,0,0
378,-769,0,0,0,0,0,0,0,0,0,-1,1602,1793,0,0
385,-769,0,0,0,0,0,0,0,0,0,-1,1609,1793,0,0
392,-769,0,0,0,0,0,0,0,0,0,-1,1616,1793,0,0
399,-769,0,0,0,0,0,0,0,0,0,-1,1623,1793,0,0
406,-769,0,0,0,0,0,0,0,0,0,-1,1630,1793,0,0
413,-769,0,0,0,0,0,0,0,0,0,-1,1637,1793,0,0
420,-769,0,0,0,0,0,0,0,0,0,-1,1644,1793,0,0
427,-769,0,0,0,0,0,0,0,0,0,-1,1651,1793,0,0
434,-769,0,0,0,0,0,0,0,0,0,-1,1658,1793,0,0
441,-769,0,0,0,0,0,0,0,0,0,-1,1665,1793,0,0
448,-769,0,0,0,0,0,0,0,0,0,-1,1672,1793,0,0
455,-769,0,0,0,0,0,0,0,0,0,-1,1679,1793,0,0
462,-769,0,0,0,0,0,0,0,0,0,-1,1686,1793,0,0
469,-769,0,0,0,0,0,0,0,0,0,-1,1693,1793,0,0
476,-769,0,0,0,0,0,0,0,0,0,-1,1700,1793,0,0
483,-769,0,0,0,0,0,0,0,0,0,-1,1707,1793,0,0
490,-769,0,0,0,0,0,0,0,0,0,-1,1714,1793,0,0
497,-769,0,0,0,0,0,0,0,0,0,-1,1721,1793,0,0
504,-769,0,0,0,0,0,0,0,0,0,-1,1728,1793,0,0
511,-769,0,0,0,0,0,0,0,0,0,-1,1735,1793,0,0
518,-769,0,0,0,0,0,0,0,0,0,-1,1742,1793,0,0
525,-769,0,0,0,0,0,0,0,0,0,-1,1749,1793,0,0
532,-769,0,0,0,0,0,0,0,0,0,-1,1756,1793,0,0
539,-769,0,0,0,0,0,0,0,0,0,-1,1763,1793,0,0
546,-769,0,0,0,0,0,0,0,0,0,-1,1770,1793,0,0
553,-769,0,0,0,0,0,0,0,0,0,-1,1777,1793,0,0
560,-769,0,0,0,0,0,0,0,0,0,-1,1784,1793,0,0
567,-769,0,0,0,0,0,0,0,0,0,-1,1791,1793,0,0
574,-769,0,0,0,0,0,0,0,0,0,-1,1798,1793,0,0
581,-769,0,0,0,0,0,0,0,0,0,-1,1805,1793,0,0
588,-769,0,0,0,0,0,0,0,0,0,-1,1812,1793,0,0
595,-769,0,0,0,0,0,0,0,0,0,-1,1819,1793,0,0
602,-769,0,0,0,0,0,0,0,0,0,-1,1826,1793,0,0
609,-769,0,0,0,0,0,0,0,0,0,-1,1833,1793,0,0
616,-769,0,0,0,0,0,0,0,0,0,-1,1840,1793,0,0
623,-769,0,0,0,0,0,0,0,0,0,-1,1847,1793,0,0
630,-769,0,0,0,0,0,0,0,0,0,-1,1854,1793,0,0
637,-769,0,0,0,0,0,0,0,0,0,-1,1861,1793,0,0
644,-769,0,0,0,0,0,0,0,0,0,-1,1868,1793,0,0
651,-769,0,0,0,0,0,0,0,0,0,-1,1875,1793,0,0
658,-769,0,0,0,0,0,0,0,0,0,-1,1882,1793,0,0
665,-769,0,0,0,0,0,0,0,0,0,-1,1889,1793,0,0
672,-769,0,0,0,0,0,0,0,0,0,-1,1896,1793,0,0
679,-769,0,0,0,0,0,0,0,0,0,-1,1903,1793,0,0
686,-769,0,0,0,0,0,0,0,0,0,-1,1910,1793,0,0
693,-769,0,0,0,0,0,0,0,0,0,-1,1917,1793,0,0
700,-769,0,0,0,0,0,0,0,0,0,-1,1924,1793,0,0
707,-769,0,0,0,0,0,0,0,0,0,-1,1931,1793,0,0
714,-769,0,0,0,0,0,0,0,0,0,-1,1938,1793,0,0
721,-769,0,0,0,0,0,0,0,0,0,-1,1945,1793,0,0
728,-769,0,0,0,0,0,0,0,0,0,-1,1952,1793,0,0
735,-769,0,0,0,0,0,0,0,0,0,-1,1959,1793,0,0
742,-769,0,0,0,0,0,0,0,0,0,-1,1966,1793,0,0
749,-769,0,0,0,0,0,0,0,0,0,-1,1973,1793,0,0
756,-769,0,0,0,0,0,0,0,0,0,-1,1980,1793,0,0
763,-769,0,0,0,0,0,0,0,0,0,-1,1987,1793,0,0
770,-769,0,0,0,0,0,0,0,0,0,-1,1994,1793,0,0
777,-769,0,0,0,0,0,0,0,0,0,-1,2001,1793,0,0
784,-769,0,0,0,0,0,0,0,0,0,-1,2008,1793,0,0
791,-769,0,0,0,0,0,0,0,0,0,-1,2015,1793,0,0
798,-769,0,0,0,0,0,0,0,0,0,-1,2022,1793,0,0
805,-769,0,0,0,0,0,0,0,0,0,-1,2029,1793,0,0
812,-769,0,0,0,0,0,0,0,0,0,-1,2036,1793,0,0
-700,-776,0,0,0,0,0,0,0,0,0,-1,524,1800,0,0
-693,-776,0,0,0,0,0,0,0,0,0,-1,531,1800,0,0
-686,-776,0,0,0,0,0,0,0,0,0,-1,538,1800,0,0
-679,-776,0,0,0,0,0,0,0,0,0,-1,545,1800,0,0
-672,-776,0,0,0,0,0,0,0,0,0,-1,552,1800,0,0
-665,-776,0,0,0,0,0,0,0,0,0,-1,559,1800,0,0
-658,-776,0,0,0,0,0,0,0,0,0,-1,566,1800,0,0
-651,-776,0,0,0,0,0,0,0,0,0,-1,573,1800,0,0
-644,-776,0,0,0,0,0,0,0,0,0,-1,580,1800,0,0
-637,-776,0,0,0,0,0,0,0,0,0,-1,587,1800,0,0
-630,-776,0,0,0,0,0,0,0,0,0,-1,594,1800,0,0
-623,-776,0,0,0,0,0,0,0,0,0,-1,601,1800,0,0
-616,-776,0,0,0,0,0,0,0,0,0,-1,608,1800,0,0
-609,-776,0,0,0,0,0,0,0,0,0,-1,615,1800,0,0
-602,-776,0,0,0,0,0,0,0,0,0,-1,622,1800,0,0
-595,-776,0,0,0,0,0,0,0,0,0,-1,629,1800,0,0
-588,-776,0,0,0,0,0,0,0,0,0,-1,636,1800,0,0
-581,-776,0,0,0,0,0,0,0,0,0,-1,643,1800,0,0
-574,-776,0,0,0,0,0,0,0,0,0,-1,650,1800,0,0
-567,-776,0,0,0,0,0,0,0,0,0,-1,657,1800,0,0
-560,-776,0,0,0,0,0,0,0,0,0,-1,664,1800,0,0
-553,-776,0,0,0,0,0,0,0,0,0,-1,671,1800,0,0
-546,-776,0,0,0,0,0,0,0,0,0,-1,678,1800,0,0
-539,-776,0,0,0,0,0,0,0,0,0,-1,685,1800,0,0
-532,-776,0,0,0,0,0,0,0,0,0,-1,692,1800,0,0
-525,-776,0,0,0,0,0,0,0,0,0,-1,699,1800,0,0
-518,-776,0,0,0,0,0,0,0,0,0,-1,706,1800,0,0
-511,-776,0,0,0,0,0,0,0,0,0,-1,713,1800,0,0
-504,-776,0,0,0,0,0,0,0,0,0,-1,720,1800,0,0
-497,-776,0,0,0,0,0,0,0,0,0,-1,727,1800,0,0
-490,-776,0,0,0,0,0,0,0,0,0,-1,734,1800,0,0
-483,-776,0,0,0,0,0,0,0,0,0,-1,741,1800,0,0
-476,-776,0,0,0,0,0,0,0,0,0,-1,748,1800,0,0
-469,-776,0,0,0,0,0,0,0,0,0,-1,755,1800,0,0
-462,-776,0,0,0,0,0,0,0,0,0,-1,762,1800,0,0
-455,-776,0,0,0,0,0,0,0,0,0,-1,769,1800,0,0
-448,-776,0,0,0,0,0,0,0,0,0,-1,776,1800,0,0
-441,-776,0,0,0,0,0,0,0,0,0,-1,783,1800,0,0
-434,-776,0,0,0,0,0,0,0,0,0,-1,790,1800,0,0
-427,-776,0,0,0,0,0,0,0,0,0,-1,797,1800,0,0
-420,-776,0,0,0,0,0,0,0,0,0,-1,804,1800,0,0
-413,-776,0,0,0,0,0,0,0,0,0,-1,811,1800,0,0
-406,-776,0,0,0,0,0,0,0,0,0,-1,818,1800,0,0
-399,-776,0,0,0,0,0,0,0,0,0,-1,825,1800,0,0
-392,-776,0,0,0,0,0,0,0,0,0,-1,832,1800,0,0
-385,-776,0,0,0,0,0,0,0,0,0,-1,839,1800,0,0
-378,-776,0,0,0,0,0,0,0,0,0,-1,846,1800,0,0
-371,-776,0,0,0,0,0,0,0,0,0,-1,853,1800,0,0
-364,-776,0,0,0,0,0,0,0,0,0,-1,860,1800,0,0
-357,-776,0,0,0,0,0,0,0,0,0,-1,867,1800,0,0
-350,-776,0,0,0,0,0,0,0,0,0,-1,874,1800,0,0
-343,-776,0,0,0,0,0,0,0,0,0,-1,881,1800,0,0
-336,-776,0,0,0,0,0,0,0,0,0,-1,888,1800,0,0
-329,-776,0,0,0,0,0,0,0,0,0,-1,895,1800,0,0
-322,-776,0,0,0,0,0,0,0,0,0,-1,902,1800,0,0
-315,-776,0,0,0,0,0,0,0,0,0,-1,909,1800,0,0
-308,-776,0,0,0,0,0,0,0,0,0,-1,916,1800,0,0
-301,-776,0,0,0,0,0,0,0,0,0,-1,923,1800,0,0
-294,-776,0,0,0,0,0,0,0,0,0,-1,930,1800,0,0
-287,-776,0,0,0,0,0,0,0,0,0,-1,937,1800,0,0
-280,-776,0,0,0,0,0,0,0,0,0,-1,944,1800,0,0
-273,-776,0,0,0,0,0,0,0,0,0,-1,951,1800,0,0
-266,-776,0,0,0,0,0,0,0,0,0,-1,958,1800,0,0
-259,-776,0,0,0,0,0,0,0,0,0,-1,965,1800,0,0
-252,-776,0,0,0,0,0,0,0,0,0,-1,972,1800,0,0
-245,-776,0,0,0,0,0,0,0,0,0,-1,979,1800,0,0
-238,-776,0,0,0,0,0,0,0,0,0,-1,986,1800,0,0
-231,-776,0,0,0,0,0,0,0,0,0,-1,993,1800,0,0
-224,-776,0,0,0,0,0,0,0,0,0,-1,1000,1800,0,0
-217,-776,0,0,0,0,0,0,0,0,0,-1,1007,1800,0,0
-210,-776,0,0,0,0,0,0,0,0,0,-1,1014,1800,0,0
-203,-776,0,0,0,0,0,0,0,0,0,-1,1021,1800,0,0
-196,-776,0,0,0,0,0,0,0,0,0,-1,1028,1800,0,0
-189,-776,0,0,0,0,0,0,0,0,0,-1,1035,1800,0,0
-182,-776,0,0,0,0,0,0,0,0,0,-1,1042,1800,0,0
-175,-776,0,0,0,0,0,0,0,0,0,-1,1049,1800,0,0
-168,-776,0,0,0,0,0,0,0,0,0,-1,1056,1800,0,0
-161,-776,0,0,0,0,0,0,0,0,0,-1,1063,1800,0,0
-154,-776,0,0,0,0,0,0,0,0,0,-1,1070,1800,0,0
-147,-776,0,0,0,0,0,0,0,0,0,-1,1077,1800,0,0
-140,-776,2.98499,5.20911,0,0,0,0,0,0,0,-1,1084,1800,2.98493,-5.2091
-133,-776,6.72363,9.35828,0,0,0,0,0,0,0,-1,1091,1800,6.72358,-9.35824
-126,-776,6.55029,13.7832,0,0,0,0,0,0,0,-1,1098,1800,6.55029,-13.7832
-119,-776,5.72107,13.7787,0,0,0,0,0,0,0,-1,1105,1800,5.72106,-13.7787
-112,-776,6.84998,20.4421,0,0,0,0,0,0,0,-1,1112,1800,6.84993,-20.4421
-105,-776,4.46863,24.6742,0,0,0,0,0,0,0,-1,1119,1800,4.46868,-24.6742
-98,-776,4.31616,19.7659,0,0,0,0,0,0,0,-1,1126,1800,4.31619,-19.7659
-91,-776,3.30225,18.134,0,0,0,0,0,0,0,-1,1133,1800,3.30222,-18.134
-84,-776,2.67932,14.3162,0,0,0,0,0,0,0,-1,1140,1800,2.67926,-14.3161
-77,-776,0.580078,11.1272,0,0,0,0,0,0,0,-1,1147,1800,0.58002,-11.1272
-70,-776,-0.562866,12.3163,0,0,0,0,0,0,0,-1,1154,1800,-0.562897,-12.3163
-63,-776,-3.96106,9.97656,0,0,0,0,0,0,0,-1,1161,1800,-3.961,-9.97654
-56,-776,-7.35913,7.63672,0,0,0,0,0,0,0,-1,1168,1800,-7.3591,-7.63676
-49,-776,-7.62952,3.1908,0,0,0,0,0,0,0,-1,1175,1800,-7.62955,-3.19076
-42,-776,-3.41272,3.0249,0,0,0,0,0,0,0,-1,1182,1800,-3.41269,-3.02488
-35,-776,-3.71753,1.63635,0,0,0,0,0,0,0,-1,1189,1800,-3.71755,-1.63631
-28,-776,-4.03979,0.716064,0,0,0,0,0,0,0,-1,1196,1800,-4.03977,-0.716055
-21,-776,7.11768,58.079,0,0,0,0,0,0,0,-1,1203,1800,7.11766,-58.079
-14,-776,8.46777,58.1067,0,0,0,0,0,0,0,-1,1210,1800,8.4678,-58.1066
-7,-776,9.47278,59.1105,0,0,0,0,0,0,0,-1,1217,1800,9.47272,-59.1104
0,-776,9.46289,59.1489,0.0157705,0.00903811,0.0195278,0.0322201,-0.00741146,0.700046,0.0243298,0.0474438,1224,1800,9.46289,-59.1489
7,-776,9.5896,59.2615,0.0107437,0.00851857,0.0175429,0.0272093,-0.00794706,0.753731,0.0212889,0.0481925,1231,1800,9.58964,-59.2614
14,-776,9.80896,59.8276,0.00600037,0.00775912,0.0153938,0.0222986,-0.00853912,0.81393,0.0183854,0.0469445,1238,1800,9.80902,-59.8277
21,-776,10.0197,60.0023,0.00169041,0.00721925,0.0131993,0.0179405,-0.00903087,0.888624,0.0158526,0.0442574,1245,1800,10.0196,-60.0023
28,-776,9.75647,59.8154,-0.00244657,0.00686864,0.0110552,0.0142073,-0.00978526,0.984766,0.0139303,0.0427328,1252,1800,9.75643,-59.8155
35,-776,9.21204,59.6877,-0.00622488,0.00657539,0.00900331,0.0112216,-0.0108711,1.09439,0.0127557,0.045354,1259,1800,9.212,-59.6877
42,-776,8.68433,59.5966,0,0,0,0,0,0,0,-1,1266,1800,8.68428,-59.5965
49,-776,9.63074,60.0239,-0.0129601,0.00574962,0.00650449,0.0077887,-0.0149992,1.26701,0.0133743,0.0464197,1273,1800,9.63071,-60.0239
56,-776,9.88281,60.3035,-0.0157863,0.00527487,0.00558591,0.00666467,-0.0171761,1.32694,0.0142034,0.0453081,1280,1800,9.88285,-60.3034
63,-776,9.69604,59.7196,-0.0179863,0.00366896,0.00536938,0.00492718,-0.0192445,1.34062,0.014749,0.0473294,1287,1800,9.69608,-59.7196
70,-776,9.5531,59.3215,-0.0199332,0.00130452,0.00572495,0.00274946,-0.0213781,1.32357,0.0152514,0.0495018,1294,1800,9.55314,-59.3216
77,-776,8.95386,59.6901,0,0,0,0,0,0,0,-1,1301,1800,8.95391,-59.6901
84,-776,8.58069,59.8593,0,0,0,0,0,0,0,-1,1308,1800,8.58069,-59.8592
91,-776,8.50049,60.1707,-0.0229114,-0.00515036,0.00969168,-0.000885829,-0.0271759,1.15627,0.0178293,0.0447129,1315,1800,8.50052,-60.1707
98,-776,7.9696,60.075,-0.0229935,-0.00882495,0.0107931,-0.00299882,-0.0288196,1.07582,0.0182956,0.0445956,1322,1800,7.96955,-60.075
105,-776,7.44666,60.0032,0,0,0,0,0,0,0,-1,1329,1800,7.44664,-60.0031
112,-776,7.68701,60.0865,0,0,0,0,0,0,0,-1,1336,1800,7.68703,-60.0866
119,-776,8.24316,58.7864,0,0,0,0,0,0,0,-1,1343,1800,8.24321,-58.7864
126,-776,8.63098,58.5077,0,0,0,0,0,0,0,-1,1350,1800,8.63095,-58.5077
133,-776,8.80945,58.4182,0,0,0,0,0,0,0,-1,1357,1800,8.80941,-58.4182
140,-776,6.73706,62.718,0,0,0,0,0,0,0,-1,1364,1800,6.73703,-62.718
147,-776,5.7168,55.2931,0,0,0,0,0,0,0,-1,1371,1800,5.71682,-55.2931
154,-776,38.4338,21.854,0,0,0,0,0,0,0,-1,1378,1800,38.4339,-21.854
161,-776,6.50293,1.1731,0,0,0,0,0,0,0,-1,1385,1800,6.5029,-1.17313
168,-776,8.44971,1.22913,0,0,0,0,0,0,0,-1,1392,1800,8.44974,-1.22915
175,-776,8.61523,2.87061,0,0,0,0,0,0,0,-1,1399,1800,8.6152,-2.87063
182,-776,8.54065,4.60645,0,0,0,0,0,0,0,-1,1406,1800,8.5407,-4.60643
189,-776,8.35303,6.28223,0,0,0,0,0,0,0,-1,1413,1800,8.35297,-6.28225
196,-776,8.0387,8.21704,0,0,0,0,0,0,0,-1,1420,1800,8.03865,-8.217
203,-776,7.91736,9.79919,0,0,0,0,0,0,0,-1,1427,1800,7.91735,-9.79922
210,-776,20.2479,7.85718,0,0,0,0,0,0,0,-1,1434,1800,20.248,-7.85719
217,-776,21.5171,9.3418,0,0,0,0,0,0,0,-1,1441,1800,21.5171,-9.34182
224,-776,3.09253,14.9313,0,0,0,0,0,0,0,-1,1448,1800,3.09254,-14.9313
231,-776,20.8671,9.21057,0,0,0,0,0,0,0,-1,1455,1800,20.867,-9.21054
238,-776,20.7511,9.05847,0,0,0,0,0,0,0,-1,1462,1800,20.7511,-9.05848
245,-776,3.80823,15.4108,0,0,0,0,0,0,0,-1,1469,1800,3.80826,-15.4108
252,-776,8.57837,20.2009,0,0,0,0,0,0,0,-1,1476,1800,8.57841,-20.2009
259,-776,14.1882,7.69055,0,0,0,0,0,0,0,-1,1483,1800,14.1882,-7.69061
266,-776,0,0,0,0,0,0,0,0,0,-1,1490,1800,0,0
273,-776,0,0,0,0,0,0,0,0,0,-1,1497,1800,0,0
280,-776,0,0,0,0,0,0,0,0,0,-1,1504,1800,0,0
287,-776,0,0,0,0,0,0,0,0,0,-1,1511,1800,0,0
294,-776,0,0,0,0,0,0,0,0,0,-1,1518,1800,0,0
301,-776,0,0,0,0,0,0,0,0,0,-1,1525,1800,0,0
308,-776,0,0,0,0,0,0,0,0,0,-1,1532,1800,0,0
315,-776,0,0,0,0,0,0,0,0,0,-1,1539,1800,0,0
322,-776,0,0,0,0,0,0,0,0,0,-1,1546,1800,0,0
329,-776,0,0,0,0,0,0,0,0,0,-1,1553,1800,0,0
336,-776,0,0,0,0,0,0,0,0,0,-1,1560,1800,0,0
343,-776,0,0,0,0,0,0,0,0,0,-1,1567,1800,0,0
350,-776,0,0,0,0,0,0,0,0,0,-1,1574,1800,0,0
357,-776,0,0,0,0,0,0,0,0,0,-1,1581,1800,0,0
364,-776,0,0,0,0,0,0,0,0,0,-1,1588,1800,0,0
371,-776,0,0,0,0,0,0,0,0,0,-1,1595,1800,0,0
378,-776,0,0,0,0,0,0,0,0,0,-1,1602,1800,0,0
385,-776,0,0,0,0,0,0,0,0,0,-1,1609,1800,0,0
392,-776,0,0,0,0,0,0,0,0,0,-1,1616,1800,0,0
399,-776,0,0,0,0,0,0,0,0,0,-1,1623,1800,0,0
406,-776,0,0,0,0,0,0,0,0,0,-1,1630,1800,0,0
413,-776,0,0,0,0,0,0,0,0,0,-1,1637,1800,0,0
420,-776,0,0,0,0,0,0,0,0,0,-1,1644,1800,0,0
427,-776,0,0,0,0,0,0,0,0,0,-1,1651,1800,0,0
434,-776,0,0,0,0,0,0,0,0,0,-1,1658,1800,0,0
441,-776,0,0,0,0,0,0,0,0,0,-1,1665,1800,0,0
448,-776,0,0,0,0,0,0,0,0,0,-1,1672,1800,0,0
455,-776,0,0,0,0,0,0,0,0,0,-1,1679,1800,0,0
462,-776,0,0,0,0,0,0,0,0,0,-1,1686,1800,0,0
469,-776,0,0,0,0,0,0,0,0,0,-1,1693,1800,0,0
476,-776,0,0,0,0,0,0,0,0,0,-1,1700,1800,0,0
483,-776,0,0,0,0,0,0,0,0,0,-1,1707,1800,0,0
490,-776,0,0,0,0,0,0,0,0,0,-1,1714,1800,0,0
497,-776,0,0,0,0,0,0,0,0,0,-1,1721,1800,0,0
504,-776,0,0,0,0,0,0,0,0,0,-1,1728,1800,0,0
511,-776,0,0,0,0,0,0,0,0,0,-1,1735,1800,0,0
518,-776,0,0,0,0,0,0,0,0,0,-1,1742,1800,0,0
525,-776,0,0,0,0,0,0,0,0,0,-1,1749,1800,0,0
532,-776,0,0,0,0,0,0,0,0,0,-1,1756,1800,0,0
539,-776,0,0,0,0,0,0,0,0,0,-1,1763,1800,0,0
546,-776,0,0,0,0,0,0,0,0,0,-1,1770,1800,0,0
553,-776,0,0,0,0,0,0,0,0,0,-1,1777,1800,0,0
560,-776,0,0,0,0,0,0,0,0,0,-1,1784,1800,0,0
567,-776,0,0,0,0,0,0,0,0,0,-1,1791,1800,0,0
574,-776,0,0,0,0,0,0,0,0,0,-1,1798,1800,0,0
581,-776,0,0,0,0,0,0,0,0,0,-1,1805,1800,0,0
588,-776,0,0,0,0,0,0,0,0,0,-1,1812,1800,0,0
595,-776,0,0,0,0,0,0,0,0,0,-1,1819,1800,0,0
602,-776,0,0,0,0,0,0,0,0,0,-1,1826,1800,0,0
609,-776,0,0,0,0,0,0,0,0,0,-1,1833,1800,0,0
616,-776,0,0,0,0,0,0,0,0,0,-1,1840,1800,0,0
623,-776,0,0,0,0,0,0,0,0,0,-1,1847,1800,0,0
630,-776,0,0,0,0,0,0,0,0,0,-1,1854,1800,0,0
637,-776,0,0,0,0,0,0,0,0,0,-1,1861,1800,0,0
644,-776,0,0,0,0,0,0,0,0,0,-1,1868,1800,0,0
651,-776,0,0,0,0,0,0,0,0,0,-1,1875,1800,0,0
658,-776,0,0,0,0,0,0,0,0,0,-1,1882,1800,0,0
665,-776,0,0,0,0,0,0,0,0,0,-1,1889,1800,0,0
672,-776,0,0,0,0,0,0,0,0,0,-1,1896,1800,0,0
679,-776,0,0,0,0,0,0,0,0,0,-1,1903,1800,0,0
686,-776,0,0,0,0,0,0,0,0,0,-1,1910,1800,0,0
693,-776,0,0,0,0,0,0,0,0,0,-1,1917,1800,0,0
700,-776,0,0,0,0,0,0,0,0,0,-1,1924,1800,0,0
707,-776,0,0,0,0,0,0,0,0,0,-1,1931,1800,0,0
714,-776,0,0,0,0,0,0,0,0,0,-1,1938,1800,0,0
721,-776,0,0,0,0,0,0,0,0,0,-1,1945,1800,0,0
728,-776,0,0,0,0,0,0,0,0,0,-1,1952,1800,0,0
735,-776,0,0,0,0,0,0,0,0,0,-1,1959,1800,0,0
742,-776,0,0,0,0,0,0,0,0,0,-1,1966,1800,0,0
749,-776,0,0,0,0,0,0,0,0,0,-1,1973,1800,0,0
756,-776,0,0,0,0,0,0,0,0,0,-1,1980,1800,0,0
763,-776,0,0,0,0,0,0,0,0,0,-1,1987,1800,0,0
770,-776,0,0,0,0,0,0,0,0,0,-1,1994,1800,0,0
777,-776,0,0,0,0,0,0,0,0,0,-1,2001,1800,0,0
784,-776,0,0,0,0,0,0,0,0,0,-1,2008,1800,0,0
791,-776,0,0,0,0,0,0,0,0,0,-1,2015,1800,0,0
798,-776,0,0,0,0,0,0,0,0,0,-1,2022,1800,0,0
805,-776,0,0,0,0,0,0,0,0,0,-1,2029,1800,0,0
812,-776,0,0,0,0,0,0,0,0,0,-1,2036,1800,0,0
-700,-783,0,0,0,0,0,0,0,0,0,-1,524,1807,0,0
-693,-783,0,0,0,0,0,0,0,0,0,-1,531,1807,0,0
-686,-783,0,0,0,0,0,0,0,0,0,-1,538,1807,0,0
-679,-783,0,0,0,0,0,0,0,0,0,-1,545,1807,0,0
-672,-783,0,0,0,0,0,0,0,0,0,-1,552,1807,0,0
-665,-783,0,0,0,0,0,0,0,0,0,-1,559,1807,0,0
-658,-783,0,0,0,0,0,0,0,0,0,-1,566,1807,0,0
-651,-783,0,0,0,0,0,0,0,0,0,-1,573,1807,0,0
-644,-783,0,0,0,0,0,0,0,0,0,-1,580,1807,0,0
-637,-783,0,0,0,0,0,0,0,0,0,-1,587,1807,0,0
-630,-783,0,0,0,0,0,0,0,0,0,-1,594,1807,0,0
-623,-783,0,0,0,0,0,0,0,0,0,-1,601,1807,0,0
-616,-783,0,0,0,0,0,0,0,0,0,-1,608,1807,0,0
-609,-783,0,0,0,0,0,0,0,0,0,-1,615,1807,0,0
-602,-783,0,0,0,0,0,0,0,0,0,-1,622,1807,0,0
-595,-783,0,0,0,0,0,0,0,0,0,-1,629,1807,0,0
-588,-783,0,0,0,0,0,0,0,0,0,-1,636,1807,0,0
-581,-783,0,0,0,0,0,0,0,0,0,-1,643,1807,0,0
-574,-783,0,0,0,0,0,0,0,0,0,-1,650,1807,0,0
-567,-783,0,0,0,0,0,0,0,0,0,-1,657,1807,0,0
-560,-783,0,0,0,0,0,0,0,0,0,-1,664,1807,0,0
-553,-783,0,0,0,0,0,0,0,0,0,-1,671,1807,0,0
-546,-783,0,0,0,0,0,0,0,0,0,-1,678,1807,0,0
-539,-783,0,0,0,0,0,0,0,0,0,-1,685,1807,0,0
-532,-783,0,0,0,0,0,0,0,0,0,-1,692,1807,0,0
-525,-783,0,0,0,0,0,0,0,0,0,-1,699,1807,0,0
-518,-783,0,0,0,0,0,0,0,0,0,-1,706,1807,0,0
-511,-783,0,0,0,0,0,0,0,0,0,-1,713,1807,0,0
-504,-783,0,0,0,0,0,0,0,0,0,-1,720,1807,0,0
-497,-783,0,0,0,0,0,0,0,0,0,-1,727,1807,0,0
-490,-783,0,0,0,0,0,0,0,0,0,-1,734,1807,0,0
-483,-783,0,0,0,0,0,0,0,0,0,-1,741,1807,0,0
-476,-783,0,0,0,0,0,0,0,0,0,-1,748,1807,0,0
-469,-783,0,0,0,0,0,0,0,0,0,-1,755,1807,0,0
-462,-783,0,0,0,0,0,0,0,0,0,-1,762,1807,0,0
-455,-783,0,0,0,0,0,0,0,0,0,-1,769,1807,0,0
-448,-783,0,0,0,0,0,0,0,0,0,-1,776,1807,0,0
-441,-783,0,0,0,0,0,0,0,0,0,-1,783,1807,0,0
-434,-783,0,0,0,0,0,0,0,0,0,-1,790,1807,0,0
-427,-783,0,0,0,0,0,0,0,0,0,-1,797,1807,0,0
-420,-783,0,0,0,0,0,0,0,0,0,-1,804,1807,0,0
-413,-783,0,0,0,0,0,0,0,0,0,-1,811,1807,0,0
-406,-783,0,0,0,0,0,0,0,0,0,-1,818,1807,0,0
-399,-783,0,0,0,0,0,0,0,0,0,-1,825,1807,0,0
-392,-783,0,0,0,0,0,0,0,0,0,-1,832,1807,0,0
-385,-783,0,0,0,0,0,0,0,0,0,-1,839,1807,0,0
-378,-783,0,0,0,0,0,0,0,0,0,-1,846,1807,0,0
-371,-783,0,0,0,0,0,0,0,0,0,-1,853,1807,0,0
-364,-783,0,0,0,0,0,0,0,0,0,-1,860,1807,0,0
-357,-783,0,0,0,0,0,0,0,0,0,-1,867,1807,0,0
-350,-783,0,0,0,0,0,0,0,0,0,-1,874,1807,0,0
-343,-783,0,0,0,0,0,0,0,0,0,-1,881,1807,0,0
-336,-783,0,0,0,0,0,0,0,0,0,-1,888,1807,0,0
-329,-783,0,0,0,0,0,0,0,0,0,-1,895,1807,0,0
-322,-783,0,0,0,0,0,0,0,0,0,-1,902,1807,0,0
-315,-783,0,0,0,0,0,0,0,0,0,-1,909,1807,0,0
-308,-783,0,0,0,0,0,0,0,0,0,-1,916,1807,0,0
-301,-783,0,0,0,0,0,0,0,0,0,-1,923,1807,0,0
-294,-783,0,0,0,0,0,0,0,0,0,-1,930,1807,0,0
-287,-783,0,0,0,0,0,0,0,0,0,-1,937,1807,0,0
-280,-783,0,0,0,0,0,0,0,0,0,-1,944,1807,0,0
-273,-783,0,0,0,0,0,0,0,0,0,-1,951,1807,0,0
-266,-783,0,0,0,0,0,0,0,0,0,-1,958,1807,0,0
-259,-783,0,0,0,0,0,0,0,0,0,-1,965,1807,0,0
-252,-783,0,0,0,0,0,0,0,0,0,-1,972,1807,0,0
-245,-783,0,0,0,0,0,0,0,0,0,-1,979,1807,0,0
-238,-783,0,0,0,0,0,0,0,0,0,-1,986,1807,0,0
-231,-783,0,0,0,0,0,0,0,0,0,-1,993,1807,0,0
-224,-783,0,0,0,0,0,0,0,0,0,-1,1000,1807,0,0
-217,-783,0,0,0,0,0,0,0,0,0,-1,1007,1807,0,0
-210,-783,0,0,0,0,0,0,0,0,0,-1,1014,1807,0,0
-203,-783,0,0,0,0,0,0,0,0,0,-1,1021,1807,0,0
-196,-783,0,0,0,0,0,0,0,0,0,-1,1028,1807,0,0
-189,-783,0,0,0,0,0,0,0,0,0,-1,1035,1807,0,0
-182,-783,0,0,0,0,0,0,0,0,0,-1,1042,1807,0,0
-175,-783,0,0,0,0,0,0,0,0,0,-1,1049,1807,0,0
-168,-783,0,0,0,0,0,0,0,0,0,-1,1056,1807,0,0
-161,-783,0,0,0,0,0,0,0,0,0,-1,1063,1807,0,0
-154,-783,0,0,0,0,0,0,0,0,0,-1,1070,1807,0,0
-147,-783,0,0,0,0,0,0,0,0,0,-1,1077,1807,0,0
-140,-783,0,0,0,0,0,0,0,0,0,-1,1084,1807,0,0
-133,-783,0,0,0,0,0,0,0,0,0,-1,1091,1807,0,0
-126,-783,0,0,0,0,0,0,0,0,0,-1,1098,1807,0,0
-119,-783,0,0,0,0,0,0,0,0,0,-1,1105,1807,0,0
-112,-783,5.33936,14.7699,0,0,0,0,0,0,0,-1,1112,1807,5.33931,-14.7699
-105,-783,6.44263,21.2224,0,0,0,0,0,0,0,-1,1119,1807,6.44263,-21.2224
-98,-783,5.54773,20.5695,0,0,0,0,0,0,0,-1,1126,1807,5.54772,-20.5695
-91,-783,2.6106,20.2491,0,0,0,0,0,0,0,-1,1133,1807,2.61056,-20.2492
-84,-783,-0.0491943,14.5743,0,0,0,0,0,0,0,-1,1140,1807,-0.0491562,-14.5743
-77,-783,0.332764,12.7788,0,0,0,0,0,0,0,-1,1147,1807,0.332743,-12.7788
-70,-783,-1.93176,5.12817,0,0,0,0,0,0,0,-1,1154,1807,-1.93171,-5.12813
-63,-783,-5.31702,10.54,0,0,0,0,0,0,0,-1,1161,1807,-5.31703,-10.54
-56,-783,-6.26135,6.9679,0,0,0,0,0,0,0,-1,1168,1807,-6.26136,-6.96785
-49,-783,-3.17688,4.59705,0,0,0,0,0,0,0,-1,1175,1807,-3.17685,-4.5971
-42,-783,-3.72876,3.1405,0,0,0,0,0,0,0,-1,1182,1807,-3.72874,-3.14055
-35,-783,-3.97046,1.59399,0,0,0,0,0,0,0,-1,1189,1807,-3.97041,-1.59401
-28,-783,-4.12195,0.270386,0,0,0,0,0,0,0,-1,1196,1807,-4.12197,-0.270408
-21,-783,6.06958,57.9203,0,0,0,0,0,0,0,-1,1203,1807,6.06953,-57.9203
-14,-783,7.5094,57.8845,0,0,0,0,0,0,0,-1,1210,1807,7.5094,-57.8846
-7,-783,9.80762,58.9958,0,0,0,0,0,0,0,-1,1217,1807,9.80767,-58.9959
0,-783,9.43848,59.2028,0,0,0,0,0,0,0,-1,1224,1807,9.43844,-59.2028
7,-783,9.56897,59.1409,0.0176515,0.0130816,0.0246883,0.0401604,-0.00942726,0.739254,0.0304071,0.0452581,1231,1807,9.56902,-59.1409
14,-783,10.0962,59.7467,0.010499,0.0120076,0.0217713,0.0330377,-0.0105311,0.802714,0.0262494,0.0460634,1238,1807,10.0962,-59.7467
21,-783,10.7488,60.1436,0.00427853,0.0109869,0.0189012,0.0268293,-0.0115638,0.873213,0.0227428,0.0464496,1245,1807,10.7488,-60.1435
28,-783,11.2391,60.6892,0,0,0,0,0,0,0,-1,1252,1807,11.2391,-60.6892
35,-783,9.51831,59.9813,-0.00640836,0.00968723,0.0135164,0.0173703,-0.0140914,1.05392,0.0181973,0.0477375,1259,1807,9.51829,-59.9813
42,-783,9.69727,59.9363,-0.0107321,0.00920858,0.0115368,0.0144863,-0.0160099,1.14175,0.0176143,0.0461425,1266,1807,9.69724,-59.9362
49,-783,9.79626,60.0654,-0.0147657,0.00817031,0.0102085,0.0120557,-0.0186511,1.20712,0.0178644,0.0464503,1273,1807,9.79626,-60.0654
56,-783,9.5188,60.2117,-0.0182266,0.00725263,0.00900849,0.0101159,-0.0210899,1.26305,0.0183843,0.0458091,1280,1807,9.51884,-60.2117
63,-783,9.91211,59.2784,0,0,0,0,0,0,0,-1,1287,1807,9.91207,-59.2784
70,-783,9.83118,58.9034,0,0,0,0,0,0,0,-1,1294,1807,9.83115,-58.9034
77,-783,8.59448,60.3978,-0.0250419,-0.00217937,0.00976748,0.00142524,-0.0286465,1.21726,0.01959,0.0459624,1301,1807,8.59454,-60.3978
84,-783,8.4137,60.2324,-0.0262596,-0.00489842,0.0113241,-1.27293e-05,-0.0311453,1.16348,0.0207593,0.0458403,1308,1807,8.41371,-60.2324
91,-783,8.33032,60.0139,-0.0262358,-0.00775648,0.0134636,-0.00066705,-0.0333252,1.08612,0.0219978,0.0472188,1315,1807,8.33036,-60.0139
98,-783,7.50195,60.4492,-0.0264045,-0.012643,0.0146807,-0.00331054,-0.0357369,1.00454,0.0228014,0.0461881,1322,1807,7.50196,-60.4492
105,-783,7.15991,60.3903,0,0,0,0,0,0,0,-1,1329,1807,7.15992,-60.3903
112,-783,7.09412,60.6006,0,0,0,0,0,0,0,-1,1336,1807,7.09409,-60.6005
119,-783,7.03491,60.785,0,0,0,0,0,0,0,-1,1343,1807,7.03495,-60.785
126,-783,8.51025,58.5503,0,0,0,0,0,0,0,-1,1350,1807,8.51022,-58.5503
133,-783,6.67261,63.0303,0,0,0,0,0,0,0,-1,1357,1807,6.67261,-63.0302
140,-783,6.16809,62.4868,0,0,0,0,0,0,0,-1,1364,1807,6.1681,-62.4868
147,-783,5.66138,61.8387,0,0,0,0,0,0,0,-1,1371,1807,5.66137,-61.8387
154,-783,38.2109,17.545,0,0,0,0,0,0,0,-1,1378,1807,38.2109,-17.545
161,-783,39.5087,17.5449,0,0,0,0,0,0,0,-1,1385,1807,39.5087,-17.545
168,-783,8.62561,1.79944,0,0,0,0,0,0,0,-1,1392,1807,8.62561,-1.79946
175,-783,8.78699,3.40857,0,0,0,0,0,0,0,-1,1399,1807,8.78697,-3.40854
182,-783,8.70984,5.14661,0,0,0,0,0,0,0,-1,1406,1807,8.70989,-5.14666
189,-783,8.55762,6.79871,0,0,0,0,0,0,0,-1,1413,1807,8.55766,-6.79872
196,-783,8.25488,8.66626,0,0,0,0,0,0,0,-1,1420,1807,8.25492,-8.66628
203,-783,7.86755,10.5735,0,0,0,0,0,0,0,-1,1427,1807,7.8676,-10.5734
210,-783,5.6969,8.99231,0,0,0,0,0,0,0,-1,1434,1807,5.69693,-8.99234
217,-783,5.28503,3.80872,0,0,0,0,0,0,0,-1,1441,1807,5.285,-3.80868
224,-783,3.22571,6.62903,0,0,0,0,0,0,0,-1,1448,1807,3.2257,-6.62907
231,-783,4.27942,4.56262,0,0,0,0,0,0,0,-1,1455,1807,4.27948,-4.56267
238,-783,0,0,0,0,0,0,0,0,0,-1,1462,1807,0,0
245,-783,0,0,0,0,0,0,0,0,0,-1,1469,1807,0,0
252,-783,0,0,0,0,0,0,0,0,0,-1,1476,1807,0,0
259,-783,0,0,0,0,0,0,0,0,0,-1,1483,1807,0,0
266,-783,0,0,0,0,0,0,0,0,0,-1,1490,1807,0,0
273,-783,0,0,0,0,0,0,0,0,0,-1,1497,1807,0,0
280,-783,0,0,0,0,0,0,0,0,0,-1,1504,1807,0,0
287,-783,0,0,0,0,0,0,0,0,0,-1,1511,1807,0,0
294,-783,0,0,0,0,0,0,0,0,0,-1,1518,1807,0,0
301,-783,0,0,0,0,0,0,0,0,0,-1,1525,1807,0,0
308,-783,0,0,0,0,0,0,0,0,0,-1,1532,1807,0,0
315,-783,0,0,0,0,0,0,0,0,0,-1,1539,1807,0,0
322,-783,0,0,0,0,0,0,0,0,0,-1,1546,1807,0,0
329,-783,0,0,0,0,0,0,0,0,0,-1,1553,1807,0,0
336,-783,0,0,0,0,0,0,0,0,0,-1,1560,1807,0,0
343,-783,0,0,0,0,0,0,0,0,0,-1,1567,1807,0,0
350,-783,0,0,0,0,0,0,0,0,0,-1,1574,1807,0,0
357,-783,0,0,0,0,0,0,0,0,0,-1,1581,1807,0,0
364,-783,0,0,0,0,0,0,0,0,0,-1,1588,1807,0,0
371,-783,0,0,0,0,0,0,0,0,0,-1,1595,1807,0,0
378,-783,0,0,0,0,0,0,0,0,0,-1,1602,1807,0,0
385,-783,0,0,0,0,0,0,0,0,0,-1,1609,1807,0,0
392,-783,0,0,0,0,0,0,0,0,0,-1,1616,1807,0,0
399,-783,0,0,0,0,0,0,0,0,0,-1,1623,1807,0,0
406,-783,0,0,0,0,0,0,0,0,0,-1,1630,1807,0,0
413,-783,0,0,0,0,0,0,0,0,0,-1,1637,1807,0,0
420,-783,0,0,0,0,0,0,0,0,0,-1,1644,1807,0,0
427,-783,0,0,0,0,0,0,0,0,0,-1,1651,1807,0,0
434,-783,0,0,0,0,0,0,0,0,0,-1,1658,1807,0,0
441,-783,0,0,0,0,0,0,0,0,0,-1,1665,1807,0,0
448,-783,0,0,0,0,0,0,0,0,0,-1,1672,1807,0,0
455,-783,0,0,0,0,0,0,0,0,0,-1,1679,1807,0,0
462,-783,0,0,0,0,0,0,0,0,0,-1,1686,1807,0,0
469,-783,0,0,0,0,0,0,0,0,0,-1,1693,1807,0,0
476,-783,0,0,0,0,0,0,0,0,0,-1,1700,1807,0,0
483,-783,0,0,0,0,0,0,0,0,0,-1,1707,1807,0,0
490,-783,0,0,0,0,0,0,0,0,0,-1,1714,1807,0,0
497,-783,0,0,0,0,0,0,0,0,0,-1,1721,1807,0,0
504,-783,0,0,0,0,0,0,0,0,0,-1,1728,1807,0,0
511,-783,0,0,0,0,0,0,0,0,0,-1,1735,1807,0,0
518,-783,0,0,0,0,0,0,0,0,0,-1,1742,1807,0,0
525,-783,0,0,0,0,0,0,0,0,0,-1,1749,1807,0,0
532,-783,0,0,0,0,0,0,0,0,0,-1,1756,1807,0,0
539,-783,0,0,0,0,0,0,0,0,0,-1,1763,1807,0,0
546,-783,0,0,0,0,0,0,0,0,0,-1,1770,1807,0,0
553,-783,0,0,0,0,0,0,0,0,0,-1,1777,1807,0,0
560,-783,0,0,0,0,0,0,0,0,0,-1,1784,1807,0,0
567,-783,0,0,0,0,0,0,0,0,0,-1,1791,1807,0,0
574,-783,0,0,0,0,0,0,0,0,0,-1,1798,1807,0,0
581,-783,0,0,0,0,0,0,0,0,0,-1,1805,1807,0,0
588,-783,0,0,0,0,0,0,0,0,0,-1,1812,1807,0,0
595,-783,0,0,0,0,0,0,0,0,0,-1,1819,1807,0,0
602,-783,0,0,0,0,0,0,0,0,0,-1,1826,1807,0,0
609,-783,0,0,0,0,0,0,0,0,0,-1,1833,1807,0,0
616,-783,0,0,0,0,0,0,0,0,0,-1,1840,1807,0,0
623,-783,0,0,0,0,0,0,0,0,0,-1,1847,1807,0,0
630,-783,0,0,0,0,0,0,0,0,0,-1,1854,1807,0,0
637,-783,0,0,0,0,0,0,0,0,0,-1,1861,1807,0,0
644,-783,0,0,0,0,0,0,0,0,0,-1,1868,1807,0,0
651,-783,0,0,0,0,0,0,0,0,0,-1,1875,1807,0,0
658,-783,0,0,0,0,0,0,0,0,0,-1,1882,1807,0,0
665,-783,0,0,0,0,0,0,0,0,0,-1,1889,1807,0,0
672,-783,0,0,0,0,0,0,0,0,0,-1,1896,1807,0,0
679,-783,0,0,0,0,0,0,0,0,0,-1,1903,1807,0,0
686,-783,0,0,0,0,0,0,0,0,0,-1,1910,1807,0,0
693,-783,0,0,0,0,0,0,0,0,0,-1,1917,1807,0,0
700,-783,0,0,0,0,0,0,0,0,0,-1,1924,1807,0,0
707,-783,0,0,0,0,0,0,0,0,0,-1,1931,1807,0,0
714,-783,0,0,0,0,0,0,0,0,0,-1,1938,1807,0,0
721,-783,0,0,0,0,0,0,0,0,0,-1,1945,1807,0,0
728,-783,0,0,0,0,0,0,0,0,0,-1,1952,1807,0,0
735,-783,0,0,0,0,0,0,0,0,0,-1,1959,1807,0,0
742,-783,0,0,0,0,0,0,0,0,0,-1,1966,1807,0,0
749,-783,0,0,0,0,0,0,0,0,0,-1,1973,1807,0,0
756,-783,0,0,0,0,0,0,0,0,0,-1,1980,1807,0,0
763,-783,0,0,0,0,0,0,0,0,0,-1,1987,1807,0,0
770,-783,0,0,0,0,0,0,0,0,0,-1,1994,1807,0,0
777,-783,0,0,0,0,0,0,0,0,0,-1,2001,1807,0,0
784,-783,0,0,0,0,0,0,0,0,0,-1,2008,1807,0,0
791,-783,0,0,0,0,0,0,0,0,0,-1,2015,1807,0,0
798,-783,0,0,0,0,0,0,0,0,0,-1,2022,1807,0,0
805,-783,0,0,0,0,0,0,0,0,0,-1,2029,1807,0,0
812,-783,0,0,0,0,0,0,0,0,0,-1,2036,1807,0,0
-700,-790,0,0,0,0,0,0,0,0,0,-1,524,1814,0,0
-693,-790,0,0,0,0,0,0,0,0,0,-1,531,1814,0,0
-686,-790,0,0,0,0,0,0,0,0,0,-1,538,1814,0,0
-679,-790,0,0,0,0,0,0,0,0,0,-1,545,1814,0,0
-672,-790,0,0,0,0,0,0,0,0,0,-1,552,1814,0,0
-665,-790,0,0,0,0,0,0,0,0,0,-1,559,1814,0,0
-658,-790,0,0,0,0,0,0,0,0,0,-1,566,1814,0,0
-651,-790,0,0,0,0,0,0,0,0,0,-1,573,1814,0,0
-644,-790,0,0,0,0,0,0,0,0,0,-1,580,1814,0,0
-637,-790,0,0,0,0,0,0,0,0,0,-1,587,1814,0,0
-630,-790,0,0,0,0,0,0,0,0,0,-1,594,1814,0,0
-623,-790,0,0,0,0,0,0,0,0,0,-1,601,1814,0,0
-616,-790,0,0,0,0,0,0,0,0,0,-1,608,1814,0,0
-609,-790,0,0,0,0,0,0,0,0,0,-1,615,1814,0,0
-602,-790,0,0,0,0,0,0,0,0,0,-1,622,1814,0,0
-595,-790,0,0,0,0,0,0,0,0,0,-1,629,1814,0,0
-588,-790,0,0,0,0,0,0,0,0,0,-1,636,1814,0,0
-581,-790,0,0,0,0,0,0,0,0,0,-1,643,1814,0,0
-574,-790,0,0,0,0,0,0,0,0,0,-1,650,1814,0,0
-567,-790,0,0,0,0,0,0,0,0,0,-1,657,1814,0,0
-560,-790,0,0,0,0,0,0,0,0,0,-1,664,1814,0,0
-553,-790,0,0,0,0,0,0,0,0,0,-1,671,1814,0,0
-546,-790,0,0,0,0,0,0,0,0,0,-1,678,1814,0,0
-539,-790,0,0,0,0,0,0,0,0,0,-1,685,1814,0,0
-532,-790,0,0,0,0,0,0,0,0,0,-1,692,1814,0,0
-525,-790,0,0,0,0,0,0,0,0,0,-1,699,1814,0,0
-518,-790,0,0,0,0,0,0,0,0,0,-1,706,1814,0,0
-511,-790,0,0,0,0,0,0,0,0,0,-1,713,1814,0,0
-504,-790,0,0,0,0,0,0,0,0,0,-1,720,1814,0,0
-497,-790,0,0,0,0,0,0,0,0,0,-1,727,1814,0,0
-490,-790,0,0,0,0,0,0,0,0,0,-1,734,1814,0,0
-483,-790,0,0,0,0,0,0,0,0,0,-1,741,1814,0,0
-476,-790,0,0,0,0,0,0,0,0,0,-1,748,1814,0,0
-469,-790,0,0,0,0,0,0,0,0,0,-1,755,1814,0,0
-462,-790,0,0,0,0,0,0,0,0,0,-1,762,1814,0,0
-455,-790,0,0,0,0,0,0,0,0,0,-1,769,1814,0,0
-448,-790,0,0,0,0,0,0,0,0,0,-1,776,1814,0,0
-441,-790,0,0,0,0,0,0,0,0,0,-1,783,1814,0,0
-434,-790,0,0,0,0,0,0,0,0,0,-1,790,1814,0,0
-427,-790,0,0,0,0,0,0,0,0,0,-1,797,1814,0,0
-420,-790,0,0,0,0,0,0,0,0,0,-1,804,1814,0,0
-413,-790,0,0,0,0,0,0,0,0,0,-1,811,1814,0,0
-406,-790,0,0,0,0,0,0,0,0,0,-1,818,1814,0,0
-399,-790,0,0,0,0,0,0,0,0,0,-1,825,1814,0,0
-392,-790,0,0,0,0,0,0,0,0,0,-1,832,1814,0,0
-385,-790,0,0,0,0,0,0,0,0,0,-1,839,1814,0,0
-378,-790,0,0,0,0,0,0,0,0,0,-1,846,1814,0,0
-371,-790,0,0,0,0,0,0,0,0,0,-1,853,1814,0,0
-364,-790,0,0,0,0,0,0,0,0,0,-1,860,1814,0,0
-357,-790,0,0,0,0,0,0,0,0,0,-1,867,1814,0,0
-350,-790,0,0,0,0,0,0,0,0,0,-1,874,1814,0,0
-343,-790,0,0,0,0,0,0,0,0,0,-1,881,1814,0,0
-336,-790,0,0,0,0,0,0,0,0,0,-1,888,1814,0,0
-329,-790,0,0,0,0,0,0,0,0,0,-1,895,1814,0,0
-322,-790,0,0,0,0,0,0,0,0,0,-1,902,1814,0,0
-315,-790,0,0,0,0,0,0,0,0,0,-1,909,1814,0,0
-308,-790,0,0,0,0,0,0,0,0,0,-1,916,1814,0,0
-301,-790,0,0,0,0,0,0,0,0,0,-1,923,1814,0,0
-294,-790,0,0,0,0,0,0,0,0,0,-1,930,1814,0,0
-287,-790,0,0,0,0,0,0,0,0,0,-1,937,1814,0,0
-280,-790,0,0,0,0,0,0,0,0,0,-1,944,1814,0,0
-273,-790,0,0,0,0,0,0,0,0,0,-1,951,1814,0,0
-266,-790,0,0,0,0,0,0,0,0,0,-1,958,1814,0,0
-259,-790,0,0,0,0,0,0,0,0,0,-1,965,1814,0,0
-252,-790,0,0,0,0,0,0,0,0,0,-1,972,1814,0,0
-245,-790,0,0,0,0,0,0,0,0,0,-1,979,1814,0,0
-238,-790,0,0,0,0,0,0,0,0,0,-1,986,1814,0,0
-231,-790,0,0,0,0,0,0,0,0,0,-1,993,1814,0,0
-224,-790,0,0,0,0,0,0,0,0,0,-1,1000,1814,0,0
-217,-790,0,0,0,0,0,0,0,0,0,-1,1007,1814,0,0
-210,-790,0,0,0,0,0,0,0,0,0,-1,1014,1814,0,0
-203,-790,0,0,0,0,0,0,0,0,0,-1,1021,1814,0,0
-196,-790,0,0,0,0,0,0,0,0,0,-1,1028,1814,0,0
-189,-790,0,0,0,0,0,0,0,0,0,-1,1035,1814,0,0
-182,-790,0,0,0,0,0,0,0,0,0,-1,1042,1814,0,0
-175,-790,0,0,0,0,0,0,0,0,0,-1,1049,1814,0,0
-168,-790,0,0,0,0,0,0,0,0,0,-1,1056,1814,0,0
-161,-790,0,0,0,0,0,0,0,0,0,-1,1063,1814,0,0
-154,-790,0,0,0,0,0,0,0,0,0,-1,1070,1814,0,0
-147,-790,0,0,0,0,0,0,0,0,0,-1,1077,1814,0,0
-140,-790,0,0,0,0,0,0,0,0,0,-1,1084,1814,0,0
-133,-790,0,0,0,0,0,0,0,0,0,-1,1091,1814,0,0
-126,-790,0,0,0,0,0,0,0,0,0,-1,1098,1814,0,0
-119,-790,0,0,0,0,0,0,0,0,0,-1,1105,1814,0,0
-112,-790,0,0,0,0,0,0,0,0,0,-1,1112,1814,0,0
-105,-790,0,0,0,0,0,0,0,0,0,-1,1119,1814,0,0
-98,-790,0,0,0,0,0,0,0,0,0,-1,1126,1814,0,0
-91,-790,0,0,0,0,0,0,0,0,0,-1,1133,1814,0,0
-84,-790,0,0,0,0,0,0,0,0,0,-1,1140,1814,0,0
-77,-790,-0.969238,5.30847,0,0,0,0,0,0,0,-1,1147,1814,-0.969277,-5.3085
-70,-790,-1.23169,4.98914,0,0,0,0,0,0,0,-1,1154,1814,-1.23163,-4.98916
-63,-790,-1.69128,4.32263,0,0,0,0,0,0,0,-1,1161,1814,-1.69128,-4.32258
-56,-790,-2.24756,3.75305,0,0,0,0,0,0,0,-1,1168,1814,-2.24758,-3.75302
-49,-790,-3.11011,3.35779,0,0,0,0,0,0,0,-1,1175,1814,-3.11006,-3.35781
-42,-790,0.593262,1.19165,0,0,0,0,0,0,0,-1,1182,1814,0.593225,-1.19165
-35,-790,0.307129,-0.20105,0,0,0,0,0,0,0,-1,1189,1814,0.307178,0.201006
-28,-790,-2.78467,0.785156,0,0,0,0,0,0,0,-1,1196,1814,-2.78471,-0.785183
-21,-790,11.5181,59.9904,0,0,0,0,0,0,0,-1,1203,1814,11.5181,-59.9904
-14,-790,9.8175,58.9298,0,0,0,0,0,0,0,-1,1210,1814,9.81752,-58.9298
-7,-790,9.96289,59.1808,0,0,0,0,0,0,0,-1,1217,1814,9.96285,-59.1808
0,-790,10.1379,59.5078,0,0,0,0,0,0,0,-1,1224,1814,10.138,-59.5078
7,-790,9.02515,58.8961,0,0,0,0,0,0,0,-1,1231,1814,9.02519,-58.8961
14,-790,9.59375,59.4377,0.0158378,0.0183855,0.0300221,0.0471607,-0.0129374,0.806601,0.0365249,0.043716,1238,1814,9.59379,-59.4378
21,-790,10.1453,60.1168,0.00711921,0.0166499,0.0263098,0.0386224,-0.0148533,0.874989,0.0318746,0.0428349,1245,1814,10.1453,-60.1168
28,-790,10.765,60.7681,-0.000397468,0.0155281,0.022772,0.0316894,-0.0165587,0.95359,0.028309,0.0437039,1252,1814,10.765,-60.7681
35,-790,9.51331,60.2103,-0.00680056,0.0143616,0.0195576,0.0260169,-0.0184559,1.03336,0.0257998,0.0481527,1259,1814,9.51326,-60.2103
42,-790,9.5946,60.1394,-0.0120496,0.0133472,0.0170307,0.0218925,-0.0205949,1.10574,0.0245339,0.0442098,1266,1814,9.59462,-60.1394
49,-790,10.0049,59.7961,-0.0167434,0.0117841,0.0152243,0.0183826,-0.0233419,1.16182,0.0241463,0.0479425,1273,1814,10.0049,-59.7961
56,-790,9.29224,59.9741,-0.0207784,0.0101911,0.0136477,0.015347,-0.0259343,1.20958,0.0240936,0.0479029,1280,1814,9.29223,-59.9742
63,-790,9.0885,59.8385,-0.0234739,0.00658207,0.0131913,0.0115503,-0.0284422,1.21059,0.0237663,0.0414377,1287,1814,9.08852,-59.8385
70,-790,8.91626,60.4656,0,0,0,0,0,0,0,-1,1294,1814,8.91622,-60.4656
77,-790,8.64136,60.3339,-0.027818,-0.00324616,0.0140859,0.00315903,-0.0342232,1.14402,0.0239381,0.0410295,1301,1814,8.64139,-60.3339
84,-790,8.25208,60.2476,-0.0291359,-0.00687541,0.0156437,0.00119352,-0.0372048,1.09459,0.0252105,0.0431945,1308,1814,8.2521,-60.2476
91,-790,8.02954,60.025,0,0,0,0,0,0,0,-1,1315,1814,8.02956,-60.025
98,-790,7.05981,60.7926,0,0,0,0,0,0,0,-1,1322,1814,7.05982,-60.7926
105,-790,6.69043,60.6573,0,0,0,0,0,0,0,-1,1329,1814,6.69045,-60.6574
112,-790,6.59241,61.2706,-0.0302299,-0.0233254,0.0215015,-0.00500077,-0.0485545,0.864999,0.0308382,0.0493087,1336,1814,6.59246,-61.2706
119,-790,6.60022,61.421,-0.0313912,-0.0246978,0.0231495,-0.00465434,-0.0514346,0.857186,0.0328484,0.0464898,1343,1814,6.60023,-61.421
126,-790,6.51526,61.5527,0,0,0,0,0,0,0,-1,1350,1814,6.51528,-61.5528
133,-790,6.12988,62.8036,-0.0317245,-0.0237754,0.0243373,-0.00309023,-0.0524097,0.866338,0.0339566,0.0494656,1357,1814,6.12992,-62.8036
140,-790,5.57483,62.4133,-0.032142,-0.0211019,0.0235147,-0.00246806,-0.0507759,0.900685,0.0330586,0.0487637,1364,1814,5.57477,-62.4133
147,-790,5.03748,62.022,0,0,0,0,0,0,0,-1,1371,1814,5.03742,-62.022
154,-790,40.215,13.2396,0,0,0,0,0,0,0,-1,1378,1814,40.2149,-13.2396
161,-790,39.3429,13.0336,0,0,0,0,0,0,0,-1,1385,1814,39.3429,-13.0336
168,-790,7.04077,2.23279,0,0,0,0,0,0,0,-1,1392,1814,7.04082,-2.23275
175,-790,9.03918,3.98535,0,0,0,0,0,0,0,-1,1399,1814,9.0392,-3.98535
182,-790,8.96997,5.67896,0,0,0,0,0,0,0,-1,1406,1814,8.97001,-5.6789
189,-790,8.59729,6.86975,0,0,0,0,0,0,0,-1,1413,1814,8.59728,-6.86972
196,-790,8.21924,9.29053,0,0,0,0,0,0,0,-1,1420,1814,8.21924,-9.29048
203,-790,0,0,0,0,0,0,0,0,0,-1,1427,1814,0,0
210,-790,0,0,0,0,0,0,0,0,0,-1,1434,1814,0,0
217,-790,0,0,0,0,0,0,0,0,0,-1,1441,1814,0,0
224,-790,0,0,0,0,0,0,0,0,0,-1,1448,1814,0,0
231,-790,0,0,0,0,0,0,0,0,0,-1,1455,1814,0,0
238,-790,0,0,0,0,0,0,0,0,0,-1,1462,1814,0,0
245,-790,0,0,0,0,0,0,0,0,0,-1,1469,1814,0,0
252,-790,0,0,0,0,0,0,0,0,0,-1,1476,1814,0,0
259,-790,0,0,0,0,0,0,0,0,0,-1,1483,1814,0,0
266,-790,0,0,0,0,0,0,0,0,0,-1,1490,1814,0,0
273,-790,0,0,0,0,0,0,0,0,0,-1,1497,1814,0,0
280,-790,0,0,0,0,0,0,0,0,0,-1,1504,1814,0,0
287,-790,0,0,0,0,0,0,0,0,0,-1,1511,1814,0,0
294,-790,0,0,0,0,0,0,0,0,0,-1,1518,1814,0,0
301,-790,0,0,0,0,0,0,0,0,0,-1,1525,1814,0,0
308,-790,0,0,0,0,0,0,0,0,0,-1,1532,1814,0,0
315,-790,0,0,0,0,0,0,0,0,0,-1,1539,1814,0,0
322,-790,0,0,0,0,0,0,0,0,0,-1,1546,1814,0,0
329,-790,0,0,0,0,0,0,0,0,0,-1,1553,1814,0,0
336,-790,0,0,0,0,0,0,0,0,0,-1,1560,1814,0,0
343,-790,0,0,0,0,0,0,0,0,0,-1,1567,1814,0,0
350,-790,0,0,0,0,0,0,0,0,0,-1,1574,1814,0,0
357,-790,0,0,0,0,0,0,0,0,0,-1,1581,1814,0,0
364,-790,0,0,0,0,0,0,0,0,0,-1,1588,1814,0,0
371,-790,0,0,0,0,0,0,0,0,0,-1,1595,1814,0,0
378,-790,0,0,0,0,0,0,0,0,0,-1,1602,1814,0,0
385,-790,0,0,0,0,0,0,0,0,0,-1,1609,1814,0,0
392,-790,0,0,0,0,0,0,0,0,0,-1,1616,1814,0,0
399,-790,0,0,0,0,0,0,0,0,0,-1,1623,1814,0,0
406,-790,0,0,0,0,0,0,0,0,0,-1,1630,1814,0,0
413,-790,0,0,0,0,0,0,0,0,0,-1,1637,1814,0,0
420,-790,0,0,0,0,0,0,0,0,0,-1,1644,1814,0,0
427,-790,0,0,0,0,0,0,0,0,0,-1,1651,1814,0,0
434,-790,0,0,0,0,0,0,0,0,0,-1,1658,1814,0,0
441,-790,0,0,0,0,0,0,0,0,0,-1,1665,1814,0,0
448,-790,0,0,0,0,0,0,0,0,0,-1,1672,1814,0,0
455,-790,0,0,0,0,0,0,0,0,0,-1,1679,1814,0,0
462,-790,0,0,0,0,0,0,0,0,0,-1,1686,1814,0,0
469,-790,0,0,0,0,0,0,0,0,0,-1,1693,1814,0,0
476,-790,0,0,0,0,0,0,0,0,0,-1,1700,1814,0,0
483,-790,0,0,0,0,0,0,0,0,0,-1,1707,1814,0,0
490,-790,0,0,0,0,0,0,0,0,0,-1,1714,1814,0,0
497,-790,0,0,0,0,0,0,0,0,0,-1,1721,1814,0,0
504,-790,0,0,0,0,0,0,0,0,0,-1,1728,1814,0,0
511,-790,0,0,0,0,0,0,0,0,0,-1,1735,1814,0,0
518,-790,0,0,0,0,0,0,0,0,0,-1,1742,1814,0,0
525,-790,0,0,0,0,0,0,0,0,0,-1,1749,1814,0,0
532,-790,0,0,0,0,0,0,0,0,0,-1,1756,1814,0,0
539,-790,0,0,0,0,0,0,0,0,0,-1,1763,1814,0,0
546,-790,0,0,0,0,0,0,0,0,0,-1,1770,1814,0,0
553,-790,0,0,0,0,0,0,0,0,0,-1,1777,1814,0,0
560,-790,0,0,0,0,0,0,0,0,0,-1,1784,1814,0,0
567,-790,0,0,0,0,0,0,0,0,0,-1,1791,1814,0,0
574,-790,0,0,0,0,0,0,0,0,0,-1,1798,1814,0,0
581,-790,0,0,0,0,0,0,0,0,0,-1,1805,1814,0,0
588,-790,0,0,0,0,0,0,0,0,0,-1,1812,1814,0,0
595,-790,0,0,0,0,0,0,0,0,0,-1,1819,1814,0,0
602,-790,0,0,0,0,0,0,0,0,0,-1,1826,1814,0,0
609,-790,0,0,0,0,0,0,0,0,0,-1,1833,1814,0,0
616,-790,0,0,0,0,0,0,0,0,0,-1,1840,1814,0,0
623,-790,0,0,0,0,0,0,0,0,0,-1,1847,1814,0,0
630,-790,0,0,0,0,0,0,0,0,0,-1,1854,1814,0,0
637,-790,0,0,0,0,0,0,0,0,0,-1,1861,1814,0,0
644,-790,0,0,0,0,0,0,0,0,0,-1,1868,1814,0,0
651,-790,0,0,0,0,0,0,0,0,0,-1,1875,1814,0,0
658,-790,0,0,0,0,0,0,0,0,0,-1,1882,1814,0,0
665,-790,0,0,0,0,0,0,0,0,0,-1,1889,1814,0,0
672,-790,0,0,0,0,0,0,0,0,0,-1,1896,1814,0,0
679,-790,0,0,0,0,0,0,0,0,0,-1,1903,1814,0,0
686,-790,0,0,0,0,0,0,0,0,0,-1,1910,1814,0,0
693,-790,0,0,0,0,0,0,0,0,0,-1,1917,1814,0,0
700,-790,0,0,0,0,0,0,0,0,0,-1,1924,1814,0,0
707,-790,0,0,0,0,0,0,0,0,0,-1,1931,1814,0,0
714,-790,0,0,0,0,0,0,0,0,0,-1,1938,1814,0,0
721,-790,0,0,0,0,0,0,0,0,0,-1,1945,1814,0,0
728,-790,0,0,0,0,0,0,0,0,0,-1,1952,1814,0,0
735,-790,0,0,0,0,0,0,0,0,0,-1,1959,1814,0,0
742,-790,0,0,0,0,0,0,0,0,0,-1,1966,1814,0,0
749,-790,0,0,0,0,0,0,0,0,0,-1,1973,1814,0,0
756,-790,0,0,0,0,0,0,0,0,0,-1,1980,1814,0,0
763,-790,0,0,0,0,0,0,0,0,0,-1,1987,1814,0,0
770,-790,0,0,0,0,0,0,0,0,0,-1,1994,1814,0,0
777,-790,0,0,0,0,0,0,0,0,0,-1,2001,1814,0,0
784,-790,0,0,0,0,0,0,0,0,0,-1,2008,1814,0,0
791,-790,0,0,0,0,0,0,0,0,0,-1,2015,1814,0,0
798,-790,0,0,0,0,0,0,0,0,0,-1,2022,1814,0,0
805,-790,0,0,0,0,0,0,0,0,0,-1,2029,1814,0,0
812,-790,0,0,0,0,0,0,0,0,0,-1,2036,1814,0,0
-700,-797,0,0,0,0,0,0,0,0,0,-1,524,1821,0,0
-693,-797,0,0,0,0,0,0,0,0,0,-1,531,1821,0,0
-686,-797,0,0,0,0,0,0,0,0,0,-1,538,1821,0,0
-679,-797,0,0,0,0,0,0,0,0,0,-1,545,1821,0,0
-672,-797,0,0,0,0,0,0,0,0,0,-1,552,1821,0,0
-665,-797,0,0,0,0,0,0,0,0,0,-1,559,1821,0,0
-658,-797,0,0,0,0,0,0,0,0,0,-1,566,1821,0,0
-651,-797,0,0,0,0,0,0,0,0,0,-1,573,1821,0,0
-644,-797,0,0,0,0,0,0,0,0,0,-1,580,1821,0,0
-637,-797,0,0,0,0,0,0,0,0,0,-1,587,1821,0,0
-630,-797,0,0,0,0,0,0,0,0,0,-1,594,1821,0,0
-623,-797,0,0,0,0,0,0,0,0,0,-1,601,1821,0,0
-616,-797,0,0,0,0,0,0,0,0,0,-1,608,1821,0,0
-609,-797,0,0,0,0,0,0,0,0,0,-1,615,1821,0,0
-602,-797,0,0,0,0,0,0,0,0,0,-1,622,1821,0,0
-595,-797,0,0,0,0,0,0,0,0,0,-1,629,1821,0,0
-588,-797,0,0,0,0,0,0,0,0,0,-1,636,1821,0,0
-581,-797,0,0,0,0,0,0,0,0,0,-1,643,1821,0,0
-574,-797,0,0,0,0,0,0,0,0,0,-1,650,1821,0,0
-567,-797,0,0,0,0,0,0,0,0,0,-1,657,1821,0,0
-560,-797,0,0,0,0,0,0,0,0,0,-1,664,1821,0,0
-553,-797,0,0,0,0,0,0,0,0,0,-1,671,1821,0,0
-546,-797,0,0,0,0,0,0,0,0,0,-1,678,1821,0,0
-539,-797,0,0,0,0,0,0,0,0,0,-1,685,1821,0,0
-532,-797,0,0,0,0,0,0,0,0,0,-1,692,1821,0,0
-525,-797,0,0,0,0,0,0,0,0,0,-1,699,1821,0,0
-518,-797,0,0,0,0,0,0,0,0,0,-1,706,1821,0,0
-511,-797,0,0,0,0,0,0,0,0,0,-1,713,1821,0,0
-504,-797,0,0,0,0,0,0,0,0,0,-1,720,1821,0,0
-497,-797,0,0,0,0,0,0,0,0,0,-1,727,1821,0,0
-490,-797,0,0,0,0,0,0,0,0,0,-1,734,1821,0,0
-483,-797,0,0,0,0,0,0,0,0,0,-1,741,1821,0,0
-476,-797,0,0,0,0,0,0,0,0,0,-1,748,1821,0,0
-469,-797,0,0,0,0,0,0,0,0,0,-1,755,1821,0,0
-462,-797,0,0,0,0,0,0,0,0,0,-1,762,1821,0,0
-455,-797,0,0,0,0,0,0,0,0,0,-1,769,1821,0,0
-448,-797,0,0,0,0,0,0,0,0,0,-1,776,1821,0,0
-441,-797,0,0,0,0,0,0,0,0,0,-1,783,1821,0,0
-434,-797,0,0,0,0,0,0,0,0,0,-1,790,1821,0,0
-427,-797,0,0,0,0,0,0,0,0,0,-1,797,1821,0,0
-420,-797,0,0,0,0,0,0,0,0,0,-1,804,1821,0,0
-413,-797,0,0,0,0,0,0,0,0,0,-1,811,1821,0,0
-406,-797,0,0,0,0,0,0,0,0,0,-1,818,1821,0,0
-399,-797,0,0,0,0,0,0,0,0,0,-1,825,1821,0,0
-392,-797,0,0,0,0,0,0,0,0,0,-1,832,1821,0,0
-385,-797,0,0,0,0,0,0,0,0,0,-1,839,1821,0,0
-378,-797,0,0,0,0,0,0,0,0,0,-1,846,1821,0,0
-371,-797,0,0,0,0,0,0,0,0,0,-1,853,1821,0,0
-364,-797,0,0,0,0,0,0,0,0,0,-1,860,1821,0,0
-357,-797,0,0,0,0,0,0,0,0,0,-1,867,1821,0,0
-350,-797,0,0,0,0,0,0,0,0,0,-1,874,1821,0,0
-343,-797,0,0,0,0,0,0,0,0,0,-1,881,1821,0,0
-336,-797,0,0,0,0,0,0,0,0,0,-1,888,1821,0,0
-329,-797,0,0,0,0,0,0,0,0,0,-1,895,1821,0,0
-322,-797,0,0,0,0,0,0,0,0,0,-1,902,1821,0,0
-315,-797,0,0,0,0,0,0,0,0,0,-1,909,1821,0,0
-308,-797,0,0,0,0,0,0,0,0,0,-1,916,1821,0,0
-301,-797,0,0,0,0,0,0,0,0,0,-1,923,1821,0,0
-294,-797,0,0,0,0,0,0,0,0,0,-1,930,1821,0,0
-287,-797,0,0,0,0,0,0,0,0,0,-1,937,1821,0,0
-280,-797,0,0,0,0,0,0,0,0,0,-1,944,1821,0,0
-273,-797,0,0,0,0,0,0,0,0,0,-1,951,1821,0,0
-266,-797,0,0,0,0,0,0,0,0,0,-1,958,1821,0,0
-259,-797,0,0,0,0,0,0,0,0,0,-1,965,1821,0,0
-252,-797,0,0,0,0,0,0,0,0,0,-1,972,1821,0,0
-245,-797,0,0,0,0,0,0,0,0,0,-1,979,1821,0,0
-238,-797,0,0,0,0,0,0,0,0,0,-1,986,1821,0,0
-231,-797,0,0,0,0,0,0,0,0,0,-1,993,1821,0,0
-224,-797,0,0,0,0,0,0,0,0,0,-1,1000,1821,0,0
-217,-797,0,0,0,0,0,0,0,0,0,-1,1007,1821,0,0
-210,-797,0,0,0,0,0,0,0,0,0,-1,1014,1821,0,0
-203,-797,0,0,0,0,0,0,0,0,0,-1,1021,1821,0,0
-196,-797,0,0,0,0,0,0,0,0,0,-1,1028,1821,0,0
-189,-797,0,0,0,0,0,0,0,0,0,-1,1035,1821,0,0
-182,-797,0,0,0,0,0,0,0,0,0,-1,1042,1821,0,0
-175,-797,0,0,0,0,0,0,0,0,0,-1,1049,1821,0,0
-168,-797,0,0,0,0,0,0,0,0,0,-1,1056,1821,0,0
-161,-797,0,0,0,0,0,0,0,0,0,-1,1063,1821,0,0
-154,-797,0,0,0,0,0,0,0,0,0,-1,1070,1821,0,0
-147,-797,0,0,0,0,0,0,0,0,0,-1,1077,1821,0,0
-140,-797,0,0,0,0,0,0,0,0,0,-1,1084,1821,0,0
-133,-797,0,0,0,0,0,0,0,0,0,-1,1091,1821,0,0
-126,-797,0,0,0,0,0,0,0,0,0,-1,1098,1821,0,0
-119,-797,0,0,0,0,0,0,0,0,0,-1,1105,1821,0,0
-112,-797,0,0,0,0,0,0,0,0,0,-1,1112,1821,0,0
-105,-797,0,0,0,0,0,0,0,0,0,-1,1119,1821,0,0
-98,-797,0,0,0,0,0,0,0,0,0,-1,1126,1821,0,0
-91,-797,0,0,0,0,0,0,0,0,0,-1,1133,1821,0,0
-84,-797,0,0,0,0,0,0,0,0,0,-1,1140,1821,0,0
-77,-797,0,0,0,0,0,0,0,0,0,-1,1147,1821,0,0
-70,-797,0,0,0,0,0,0,0,0,0,-1,1154,1821,0,0
-63,-797,0,0,0,0,0,0,0,0,0,-1,1161,1821,0,0
-56,-797,0,0,0,0,0,0,0,0,0,-1,1168,1821,0,0
-49,-797,0,0,0,0,0,0,0,0,0,-1,1175,1821,0,0
-42,-797,0.579834,0.692871,0,0,0,0,0,0,0,-1,1182,1821,0.579856,-0.692816
-35,-797,-0.185425,5.55396,0,0,0,0,0,0,0,-1,1189,1821,-0.18542,-5.55396
-28,-797,-0.310181,4.71509,0,0,0,0,0,0,0,-1,1196,1821,-0.310228,-4.71503
-21,-797,8.5199,54.9666,0,0,0,0,0,0,0,-1,1203,1821,8.51988,-54.9665
-14,-797,9.21265,56.4213,0,0,0,0,0,0,0,-1,1210,1821,9.21262,-56.4213
-7,-797,10.1039,59.3492,0,0,0,0,0,0,0,-1,1217,1821,10.1039,-59.3492
0,-797,10.2921,59.671,0,0,0,0,0,0,0,-1,1224,1821,10.2921,-59.671
7,-797,13.2191,58.2253,0,0,0,0,0,0,0,-1,1231,1821,13.2191,-58.2253
14,-797,9.07385,59.3352,0,0,0,0,0,0,0,-1,1238,1821,9.07381,-59.3352
21,-797,9.65601,59.8613,0.00959898,0.0251416,0.0356944,0.0539009,-0.0191603,0.892585,0.0437426,0.0452049,1245,1821,9.65597,-59.8614
28,-797,10.4436,60.6169,-5.40607e-05,0.0233445,0.0313019,0.045062,-0.0217715,0.964238,0.0393596,0.0434021,1252,1821,10.4436,-60.617
35,-797,9.47131,60.4762,-0.00788831,0.0214383,0.0274664,0.0379105,-0.0243605,1.03058,0.0362348,0.048442,1259,1821,9.47128,-60.4762
42,-797,9.47668,60.4424,-0.0139584,0.0195886,0.0242984,0.0323408,-0.0267105,1.0875,0.0341449,0.0452081,1266,1821,9.47666,-60.4424
49,-797,8.7428,59.7706,-0.0191095,0.0172722,0.0218766,0.027533,-0.0293702,1.13223,0.0328588,0.0468786,1273,1821,8.74276,-59.7707
56,-797,8.57922,60.0924,-0.0235208,0.0146745,0.0198206,0.023101,-0.0319473,1.16881,0.0319186,0.0454266,1280,1821,8.5792,-60.0924
63,-797,8.69128,60.1183,-0.0261329,0.00957319,0.019096,0.0178618,-0.0344216,1.16128,0.0306864,0.0407453,1287,1821,8.69131,-60.1183
70,-797,8.90442,59.9957,-0.0279052,0.00295953,0.0192373,0.0121895,-0.0371352,1.12344,0.0296668,0.0404123,1294,1821,8.90443,-59.9957
77,-797,8.70068,60.3876,-0.0299625,-0.00386013,0.0195355,0.0065827,-0.0404054,1.07989,0.029378,0.0407057,1301,1821,8.70063,-60.3876
84,-797,8.24756,60.2693,-0.0312567,-0.00857631,0.0209039,0.00386526,-0.0436983,1.03393,0.0305024,0.0445892,1308,1821,8.24758,-60.2693
91,-797,8.08228,59.8491,0,0,0,0,0,0,0,-1,1315,1821,8.08233,-59.8491
98,-797,6.74341,60.9103,0,0,0,0,0,0,0,-1,1322,1821,6.7434,-60.9103
105,-797,6.73657,60.67,0,0,0,0,0,0,0,-1,1329,1821,6.73653,-60.67
112,-797,5.94922,61.9738,-0.0331001,-0.0289955,0.0263877,-0.00458047,-0.0575152,0.824208,0.0369115,0.047736,1336,1821,5.94921,-61.9737
119,-797,6.08765,61.9888,-0.0351736,-0.030392,0.0280209,-0.00466009,-0.0609055,0.827956,0.0391429,0.0446486,1343,1821,6.08759,-61.9888
126,-797,5.91833,62.4506,0,0,0,0,0,0,0,-1,1350,1821,5.91835,-62.4506
133,-797,5.65649,62.5391,-0.0370925,-0.0280064,0.0289486,-0.00324655,-0.0618524,0.86323,0.0401964,0.0467467,1357,1821,5.65645,-62.5391
140,-797,5.28455,62.5875,-0.0384152,-0.0235659,0.02728,-0.00271819,-0.0592628,0.918262,0.0386344,0.0458974,1364,1821,5.2846,-62.5875
147,-797,5.13147,62.8438,0,0,0,0,0,0,0,-1,1371,1821,5.13144,-62.8437
154,-797,40.2623,8.88733,0,0,0,0,0,0,0,-1,1378,1821,40.2623,-8.88731
161,-797,42.2798,8.17371,0,0,0,0,0,0,0,-1,1385,1821,42.2798,-8.17367
168,-797,0,0,0,0,0,0,0,0,0,-1,1392,1821,0,0
175,-797,0,0,0,0,0,0,0,0,0,-1,1399,1821,0,0
182,-797,0,0,0,0,0,0,0,0,0,-1,1406,1821,0,0
189,-797,0,0,0,0,0,0,0,0,0,-1,1413,1821,0,0
196,-797,0,0,0,0,0,0,0,0,0,-1,1420,1821,0,0
203,-797,0,0,0,0,0,0,0,0,0,-1,1427,1821,0,0
210,-797,0,0,0,0,0,0,0,0,0,-1,1434,1821,0,0
217,-797,0,0,0,0,0,0,0,0,0,-1,1441,1821,0,0
224,-797,0,0,0,0,0,0,0,0,0,-1,1448,1821,0,0
231,-797,0,0,0,0,0,0,0,0,0,-1,1455,1821,0,0
238,-797,0,0,0,0,0,0,0,0,0,-1,1462,1821,0,0
245,-797,0,0,0,0,0,0,0,0,0,-1,1469,1821,0,0
252,-797,0,0,0,0,0,0,0,0,0,-1,1476,1821,0,0
259,-797,0,0,0,0,0,0,0,0,0,-1,1483,1821,0,0
266,-797,0,0,0,0,0,0,0,0,0,-1,1490,1821,0,0
273,-797,0,0,0,0,0,0,0,0,0,-1,1497,1821,0,0
280,-797,0,0,0,0,0,0,0,0,0,-1,1504,1821,0,0
287,-797,0,0,0,0,0,0,0,0,0,-1,1511,1821,0,0
294,-797,0,0,0,0,0,0,0,0,0,-1,1518,1821,0,0
301,-797,0,0,0,0,0,0,0,0,0,-1,1525,1821,0,0
308,-797,0,0,0,0,0,0,0,0,0,-1,1532,1821,0,0
315,-797,0,0,0,0,0,0,0,0,0,-1,1539,1821,0,0
322,-797,0,0,0,0,0,0,0,0,0,-1,1546,1821,0,0
329,-797,0,0,0,0,0,0,0,0,0,-1,1553,1821,0,0
336,-797,0,0,0,0,0,0,0,0,0,-1,1560,1821,0,0
343,-797,0,0,0,0,0,0,0,0,0,-1,1567,1821,0,0
350,-797,0,0,0,0,0,0,0,0,0,-1,1574,1821,0,0
357,-797,0,0,0,0,0,0,0,0,0,-1,1581,1821,0,0
364,-797,0,0,0,0,0,0,0,0,0,-1,1588,1821,0,0
371,-797,0,0,0,0,0,0,0,0,0,-1,1595,1821,0,0
378,-797,0,0,0,0,0,0,0,0,0,-1,1602,1821,0,0
385,-797,0,0,0,0,0,0,0,0,0,-1,1609,1821,0,0
392,-797,0,0,0,0,0,0,0,0,0,-1,1616,1821,0,0
399,-797,0,0,0,0,0,0,0,0,0,-1,1623,1821,0,0
406,-797,0,0,0,0,0,0,0,0,0,-1,1630,1821,0,0
413,-797,0,0,0,0,0,0,0,0,0,-1,1637,1821,0,0
420,-797,0,0,0,0,0,0,0,0,0,-1,1644,1821,0,0
427,-797,0,0,0,0,0,0,0,0,0,-1,1651,1821,0,0
434,-797,0,0,0,0,0,0,0,0,0,-1,1658,1821,0,0
441,-797,0,0,0,0,0,0,0,0,0,-1,1665,1821,0,0
448,-797,0,0,0,0,0,0,0,0,0,-1,1672,1821,0,0
455,-797,0,0,0,0,0,0,0,0,0,-1,1679,1821,0,0
462,-797,0,0,0,0,0,0,0,0,0,-1,1686,1821,0,0
469,-797,0,0,0,0,0,0,0,0,0,-1,1693,1821,0,0
476,-797,0,0,0,0,0,0,0,0,0,-1,1700,1821,0,0
483,-797,0,0,0,0,0,0,0,0,0,-1,1707,1821,0,0
490,-797,0,0,0,0,0,0,0,0,0,-1,1714,1821,0,0
497,-797,0,0,0,0,0,0,0,0,0,-1,1721,1821,0,0
504,-797,0,0,0,0,0,0,0,0,0,-1,1728,1821,0,0
511,-797,0,0,0,0,0,0,0,0,0,-1,1735,1821,0,0
518,-797,0,0,0,0,0,0,0,0,0,-1,1742,1821,0,0
525,-797,0,0,0,0,0,0,0,0,0,-1,1749,1821,0,0
532,-797,0,0,0,0,0,0,0,0,0,-1,1756,1821,0,0
539,-797,0,0,0,0,0,0,0,0,0,-1,1763,1821,0,0
546,-797,0,0,0,0,0,0,0,0,0,-1,1770,1821,0,0
553,-797,0,0,0,0,0,0,0,0,0,-1,1777,1821,0,0
560,-797,0,0,0,0,0,0,0,0,0,-1,1784,1821,0,0
567,-797,0,0,0,0,0,0,0,0,0,-1,1791,1821,0,0
574,-797,0,0,0,0,0,0,0,0,0,-1,1798,1821,0,0
581,-797,0,0,0,0,0,0,0,0,0,-1,1805,1821,0,0
588,-797,0,0,0,0,0,0,0,0,0,-1,1812,1821,0,0
595,-797,0,0,0,0,0,0,0,0,0,-1,1819,1821,0,0
602,-797,0,0,0,0,0,0,0,0,0,-1,1826,1821,0,0
609,-797,0,0,0,0,0,0,0,0,0,-1,1833,1821,0,0
616,-797,0,0,0,0,0,0,0,0,0,-1,1840,1821,0,0
623,-797,0,0,0,0,0,0,0,0,0,-1,1847,1821,0,0
630,-797,0,0,0,0,0,0,0,0,0,-1,1854,1821,0,0
637,-797,0,0,0,0,0,0,0,0,0,-1,1861,1821,0,0
644,-797,0,0,0,0,0,0,0,0,0,-1,1868,1821,0,0
651,-797,0,0,0,0,0,0,0,0,0,-1,1875,1821,0,0
658,-797,0,0,0,0,0,0,0,0,0,-1,1882,1821,0,0
665,-797,0,0,0,0,0,0,0,0,0,-1,1889,1821,0,0
672,-797,0,0,0,0,0,0,0,0,0,-1,1896,1821,0,0
679,-797,0,0,0,0,0,0,0,0,0,-1,1903,1821,0,0
686,-797,0,0,0,0,0,0,0,0,0,-1,1910,1821,0,0
693,-797,0,0,0,0,0,0,0,0,0,-1,1917,1821,0,0
700,-797,0,0,0,0,0,0,0,0,0,-1,1924,1821,0,0
707,-797,0,0,0,0,0,0,0,0,0,-1,1931,1821,0,0
714,-797,0,0,0,0,0,0,0,0,0,-1,1938,1821,0,0
721,-797,0,0,0,0,0,0,0,0,0,-1,1945,1821,0,0
728,-797,0,0,0,0,0,0,0,0,0,-1,1952,1821,0,0
735,-797,0,0,0,0,0,0,0,0,0,-1,1959,1821,0,0
742,-797,0,0,0,0,0,0,0,0,0,-1,1966,1821,0,0
749,-797,0,0,0,0,0,0,0,0,0,-1,1973,1821,0,0
756,-797,0,0,0,0,0,0,0,0,0,-1,1980,1821,0,0
763,-797,0,0,0,0,0,0,0,0,0,-1,1987,1821,0,0
770,-797,0,0,0,0,0,0,0,0,0,-1,1994,1821,0,0
777,-797,0,0,0,0,0,0,0,0,0,-1,2001,1821,0,0
784,-797,0,0,0,0,0,0,0,0,0,-1,2008,1821,0,0
791,-797,0,0,0,0,0,0,0,0,0,-1,2015,1821,0,0
798,-797,0,0,0,0,0,0,0,0,0,-1,2022,1821,0,0
805,-797,0,0,0,0,0,0,0,0,0,-1,2029,1821,0,0
812,-797,0,0,0,0,0,0,0,0,0,-1,2036,1821,0,0
-700,-804,0,0,0,0,0,0,0,0,0,-1,524,1828,0,0
-693,-804,0,0,0,0,0,0,0,0,0,-1,531,1828,0,0
-686,-804,0,0,0,0,0,0,0,0,0,-1,538,1828,0,0
-679,-804,0,0,0,0,0,0,0,0,0,-1,545,1828,0,0
-672,-804,0,0,0,0,0,0,0,0,0,-1,552,1828,0,0
-665,-804,0,0,0,0,0,0,0,0,0,-1,559,1828,0,0
-658,-804,0,0,0,0,0,0,0,0,0,-1,566,1828,0,0
-651,-804,0,0,0,0,0,0,0,0,0,-1,573,1828,0,0
-644,-804,0,0,0,0,0,0,0,0,0,-1,580,1828,0,0
-637,-804,0,0,0,0,0,0,0,0,0,-1,587,1828,0,0
-630,-804,0,0,0,0,0,0,0,0,0,-1,594,1828,0,0
-623,-804,0,0,0,0,0,0,0,0,0,-1,601,1828,0,0
-616,-804,0,0,0,0,0,0,0,0,0,-1,608,1828,0,0
-609,-804,0,0,0,0,0,0,0,0,0,-1,615,1828,0,0
-602,-804,0,0,0,0,0,0,0,0,0,-1,622,1828,0,0
-595,-804,0,0,0,0,0,0,0,0,0,-1,629,1828,0,0
-588,-804,0,0,0,0,0,0,0,0,0,-1,636,1828,0,0
-581,-804,0,0,0,0,0,0,0,0,0,-1,643,1828,0,0
-574,-804,0,0,0,0,0,0,0,0,0,-1,650,1828,0,0
-567,-804,0,0,0,0,0,0,0,0,0,-1,657,1828,0,0
-560,-804,0,0,0,0,0,0,0,0,0,-1,664,1828,0,0
-553,-804,0,0,0,0,0,0,0,0,0,-1,671,1828,0,0
-546,-804,0,0,0,0,0,0,0,0,0,-1,678,1828,0,0
-539,-804,0,0,0,0,0,0,0,0,0,-1,685,1828,0,0
-532,-804,0,0,0,0,0,0,0,0,0,-1,692,1828,0,0
-525,-804,0,0,0,0,0,0,0,0,0,-1,699,1828,0,0
-518,-804,0,0,0,0,0,0,0,0,0,-1,706,1828,0,0
-511,-804,0,0,0,0,0,0,0,0,0,-1,713,1828,0,0
-504,-804,0,0,0,0,0,0,0,0,0,-1,720,1828,0,0
-497,-804,0,0,0,0,0,0,0,0,0,-1,727,1828,0,0
-490,-804,0,0,0,0,0,0,0,0,0,-1,734,1828,0,0
-483,-804,0,0,0,0,0,0,0,0,0,-1,741,1828,0,0
-476,-804,0,0,0,0,0,0,0,0,0,-1,748,1828,0,0
-469,-804,0,0,0,0,0,0,0,0,0,-1,755,1828,0,0
-462,-804,0,0,0,0,0,0,0,0,0,-1,762,1828,0,0
-455,-804,0,0,0,0,0,0,0,0,0,-1,769,1828,0,0
-448,-804,0,0,0,0,0,0,0,0,0,-1,776,1828,0,0
-441,-804,0,0,0,0,0,0,0,0,0,-1,783,1828,0,0
-434,-804,0,0,0,0,0,0,0,0,0,-1,790,1828,0,0
-427,-804,0,0,0,0,0,0,0,0,0,-1,797,1828,0,0
-420,-804,0,0,0,0,0,0,0,0,0,-1,804,1828,0,0
-413,-804,0,0,0,0,0,0,0,0,0,-1,811,1828,0,0
-406,-804,0,0,0,0,0,0,0,0,0,-1,818,1828,0,0
-399,-804,0,0,0,0,0,0,0,0,0,-1,825,1828,0,0
-392,-804,0,0,0,0,0,0,0,0,0,-1,832,1828,0,0
-385,-804,0,0,0,0,0,0,0,0,0,-1,839,1828,0,0
-378,-804,0,0,0,0,0,0,0,0,0,-1,846,1828,0,0
-371,-804,0,0,0,0,0,0,0,0,0,-1,853,1828,0,0
-364,-804,0,0,0,0,0,0,0,0,0,-1,860,1828,0,0
-357,-804,0,0,0,0,0,0,0,0,0,-1,867,1828,0,0
-350,-804,0,0,0,0,0,0,0,0,0,-1,874,1828,0,0
-343,-804,0,0,0,0,0,0,0,0,0,-1,881,1828,0,0
-336,-804,0,0,0,0,0,0,0,0,0,-1,888,1828,0,0
-329,-804,0,0,0,0,0,0,0,0,0,-1,895,1828,0,0
-322,-804,0,0,0,0,0,0,0,0,0,-1,902,1828,0,0
-315,-804,0,0,0,0,0,0,0,0,0,-1,909,1828,0,0
-308,-804,0,0,0,0,0,0,0,0,0,-1,916,1828,0,0
-301,-804,0,0,0,0,0,0,0,0,0,-1,923,1828,0,0
-294,-804,0,0,0,0,0,0,0,0,0,-1,930,1828,0,0
-287,-804,0,0,0,0,0,0,0,0,0,-1,937,1828,0,0
-280,-804,0,0,0,0,0,0,0,0,0,-1,944,1828,0,0
-273,-804,0,0,0,0,0,0,0,0,0,-1,951,1828,0,0
-266,-804,0,0,0,0,0,0,0,0,0,-1,958,1828,0,0
-259,-804,0,0,0,0,0,0,0,0,0,-1,965,1828,0,0
-252,-804,0,0,0,0,0,0,0,0,0,-1,972,1828,0,0
-245,-804,0,0,0,0,0,0,0,0,0,-1,979,1828,0,0
-238,-804,0,0,0,0,0,0,0,0,0,-1,986,1828,0,0
-231,-804,0,0,0,0,0,0,0,0,0,-1,993,1828,0,0
-224,-804,0,0,0,0,0,0,0,0,0,-1,1000,1828,0,0
-217,-804,0,0,0,0,0,0,0,0,0,-1,1007,1828,0,0
-210,-804,0,0,0,0,0,0,0,0,0,-1,1014,1828,0,0
-203,-804,0,0,0,0,0,0,0,0,0,-1,1021,1828,0,0
-196,-804,0,0,0,0,0,0,0,0,0,-1,1028,1828,0,0
-189,-804,0,0,0,0,0,0,0,0,0,-1,1035,1828,0,0
-182,-804,0,0,0,0,0,0,0,0,0,-1,1042,1828,0,0
-175,-804,0,0,0,0,0,0,0,0,0,-1,1049,1828,0,0
-168,-804,0,0,0,0,0,0,0,0,0,-1,1056,1828,0,0
-161,-804,0,0,0,0,0,0,0,0,0,-1,1063,1828,0,0
-154,-804,0,0,0,0,0,0,0,0,0,-1,1070,1828,0,0
-147,-804,0,0,0,0,0,0,0,0,0,-1,1077,1828,0,0
-140,-804,0,0,0,0,0,0,0,0,0,-1,1084,1828,0,0
-133,-804,0,0,0,0,0,0,0,0,0,-1,1091,1828,0,0
-126,-804,0,0,0,0,0,0,0,0,0,-1,1098,1828,0,0
-119,-804,0,0,0,0,0,0,0,0,0,-1,1105,1828,0,0
-112,-804,0,0,0,0,0,0,0,0,0,-1,1112,1828,0,0
-105,-804,0,0,0,0,0,0,0,0,0,-1,1119,1828,0,0
-98,-804,0,0,0,0,0,0,0,0,0,-1,1126,1828,0,0
-91,-804,0,0,0,0,0,0,0,0,0,-1,1133,1828,0,0
-84,-804,0,0,0,0,0,0,0,0,0,-1,1140,1828,0,0
-77,-804,0,0,0,0,0,0,0,0,0,-1,1147,1828,0,0
-70,-804,0,0,0,0,0,0,0,0,0,-1,1154,1828,0,0
-63,-804,0,0,0,0,0,0,0,0,0,-1,1161,1828,0,0
-56,-804,0,0,0,0,0,0,0,0,0,-1,1168,1828,0,0
-49,-804,0,0,0,0,0,0,0,0,0,-1,1175,1828,0,0
-42,-804,0,0,0,0,0,0,0,0,0,-1,1182,1828,0,0
-35,-804,0,0,0,0,0,0,0,0,0,-1,1189,1828,0,0
-28,-804,0,0,0,0,0,0,0,0,0,-1,1196,1828,0,0
-21,-804,0,0,0,0,0,0,0,0,0,-1,1203,1828,0,0
-14,-804,0,0,0,0,0,0,0,0,0,-1,1210,1828,0,0
-7,-804,0,0,0,0,0,0,0,0,0,-1,1217,1828,0,0
0,-804,0,0,0,0,0,0,0,0,0,-1,1224,1828,0,0
7,-804,0,0,0,0,0,0,0,0,0,-1,1231,1828,0,0
14,-804,0,0,0,0,0,0,0,0,0,-1,1238,1828,0,0
21,-804,0,0,0,0,0,0,0,0,0,-1,1245,1828,0,0
28,-804,0,0,0,0,0,0,0,0,0,-1,1252,1828,0,0
35,-804,9.42871,60.827,-0.0105685,0.0323251,0.0377503,0.0542954,-0.0325388,1.04372,0.0506556,0.0435771,1259,1828,9.42871,-60.8271
42,-804,7.60632,58.9055,-0.0171188,0.0292217,0.0338586,0.0470791,-0.0349762,1.08546,0.0475461,0.0449165,1266,1828,7.60637,-58.9055
49,-804,7.64148,59.511,-0.0222617,0.0258301,0.0306572,0.0407466,-0.0371782,1.11796,0.0450056,0.0458881,1273,1828,7.64153,-59.5109
56,-804,7.69019,59.9209,0,0,0,0,0,0,0,-1,1280,1828,7.69016,-59.921
63,-804,8.46228,60.0347,-0.0286615,0.014779,0.0269116,0.027642,-0.0415245,1.12493,0.0402005,0.0436533,1287,1828,8.46233,-60.0346
70,-804,8.75684,60.098,-0.0295948,0.00603727,0.0267369,0.0203502,-0.0439078,1.07929,0.0379213,0.0437101,1294,1828,8.75687,-60.0981
77,-804,8.64685,60.3899,-0.0310163,-0.00309386,0.0264787,0.0128789,-0.046989,1.02801,0.0363868,0.0447478,1301,1828,8.6468,-60.3899
84,-804,8.15405,60.2434,-0.0320095,-0.00912387,0.027374,0.00910271,-0.0502361,0.983369,0.0369011,0.0435079,1308,1828,8.15404,-60.2434
91,-804,0,0,0,0,0,0,0,0,0,-1,1315,1828,0,0
98,-804,0,0,0,0,0,0,0,0,0,-1,1322,1828,0,0
105,-804,0,0,0,0,0,0,0,0,0,-1,1329,1828,0,0
112,-804,0,0,0,0,0,0,0,0,0,-1,1336,1828,0,0
119,-804,0,0,0,0,0,0,0,0,0,-1,1343,1828,0,0
126,-804,0,0,0,0,0,0,0,0,0,-1,1350,1828,0,0
133,-804,0,0,0,0,0,0,0,0,0,-1,1357,1828,0,0
140,-804,0,0,0,0,0,0,0,0,0,-1,1364,1828,0,0
147,-804,0,0,0,0,0,0,0,0,0,-1,1371,1828,0,0
154,-804,0,0,0,0,0,0,0,0,0,-1,1378,1828,0,0
161,-804,0,0,0,0,0,0,0,0,0,-1,1385,1828,0,0
168,-804,0,0,0,0,0,0,0,0,0,-1,1392,1828,0,0
175,-804,0,0,0,0,0,0,0,0,0,-1,1399,1828,0,0
182,-804,0,0,0,0,0,0,0,0,0,-1,1406,1828,0,0
189,-804,0,0,0,0,0,0,0,0,0,-1,1413,1828,0,0
196,-804,0,0,0,0,0,0,0,0,0,-1,1420,1828,0,0
203,-804,0,0,0,0,0,0,0,0,0,-1,1427,1828,0,0
210,-804,0,0,0,0,0,0,0,0,0,-1,1434,1828,0,0
217,-804,0,0,0,0,0,0,0,0,0,-1,1441,1828,0,0
224,-804,0,0,0,0,0,0,0,0,0,-1,1448,1828,0,0
231,-804,0,0,0,0,0,0,0,0,0,-1,1455,1828,0,0
238,-804,0,0,0,0,0,0,0,0,0,-1,1462,1828,0,0
245,-804,0,0,0,0,0,0,0,0,0,-1,1469,1828,0,0
252,-804,0,0,0,0,0,0,0,0,0,-1,1476,1828,0,0
259,-804,0,0,0,0,0,0,0,0,0,-1,1483,1828,0,0
266,-804,0,0,0,0,0,0,0,0,0,-1,1490,1828,0,0
273,-804,0,0,0,0,0,0,0,0,0,-1,1497,1828,0,0
280,-804,0,0,0,0,0,0,0,0,0,-1,1504,1828,0,0
287,-804,0,0,0,0,0,0,0,0,0,-1,1511,1828,0,0
294,-804,0,0,0,0,0,0,0,0,0,-1,1518,1828,0,0
301,-804,0,0,0,0,0,0,0,0,0,-1,1525,1828,0,0
308,-804,0,0,0,0,0,0,0,0,0,-1,1532,1828,0,0
315,-804,0,0,0,0,0,0,0,0,0,-1,1539,1828,0,0
322,-804,0,0,0,0,0,0,0,0,0,-1,1546,1828,0,0
329,-804,0,0,0,0,0,0,0,0,0,-1,1553,1828,0,0
336,-804,0,0,0,0,0,0,0,0,0,-1,1560,1828,0,0
343,-804,0,0,0,0,0,0,0,0,0,-1,1567,1828,0,0
350,-804,0,0,0,0,0,0,0,0,0,-1,1574,1828,0,0
357,-804,0,0,0,0,0,0,0,0,0,-1,1581,1828,0,0
364,-804,0,0,0,0,0,0,0,0,0,-1,1588,1828,0,0
371,-804,0,0,0,0,0,0,0,0,0,-1,1595,1828,0,0
378,-804,0,0,0,0,0,0,0,0,0,-1,1602,1828,0,0
385,-804,0,0,0,0,0,0,0,0,0,-1,1609,1828,0,0
392,-804,0,0,0,0,0,0,0,0,0,-1,1616,1828,0,0
399,-804,0,0,0,0,0,0,0,0,0,-1,1623,1828,0,0
406,-804,0,0,0,0,0,0,0,0,0,-1,1630,1828,0,0
413,-804,0,0,0,0,0,0,0,0,0,-1,1637,1828,0,0
420,-804,0,0,0,0,0,0,0,0,0,-1,1644,1828,0,0
427,-804,0,0,0,0,0,0,0,0,0,-1,1651,1828,0,0
434,-804,0,0,0,0,0,0,0,0,0,-1,1658,1828,0,0
441,-804,0,0,0,0,0,0,0,0,0,-1,1665,1828,0,0
448,-804,0,0,0,0,0,0,0,0,0,-1,1672,1828,0,0
455,-804,0,0,0,0,0,0,0,0,0,-1,1679,1828,0,0
462,-804,0,0,0,0,0,0,0,0,0,-1,1686,1828,0,0
469,-804,0,0,0,0,0,0,0,0,0,-1,1693,1828,0,0
476,-804,0,0,0,0,0,0,0,0,0,-1,1700,1828,0,0
483,-804,0,0,0,0,0,0,0,0,0,-1,1707,1828,0,0
490,-804,0,0,0,0,0,0,0,0,0,-1,1714,1828,0,0
497,-804,0,0,0,0,0,0,0,0,0,-1,1721,1828,0,0
504,-804,0,0,0,0,0,0,0,0,0,-1,1728,1828,0,0
511,-804,0,0,0,0,0,0,0,0,0,-1,1735,1828,0,0
518,-804,0,0,0,0,0,0,0,0,0,-1,1742,1828,0,0
525,-804,0,0,0,0,0,0,0,0,0,-1,1749,1828,0,0
532,-804,0,0,0,0,0,0,0,0,0,-1,1756,1828,0,0
539,-804,0,0,0,0,0,0,0,0,0,-1,1763,1828,0,0
546,-804,0,0,0,0,0,0,0,0,0,-1,1770,1828,0,0
553,-804,0,0,0,0,0,0,0,0,0,-1,1777,1828,0,0
560,-804,0,0,0,0,0,0,0,0,0,-1,1784,1828,0,0
567,-804,0,0,0,0,0,0,0,0,0,-1,1791,1828,0,0
574,-804,0,0,0,0,0,0,0,0,0,-1,1798,1828,0,0
581,-804,0,0,0,0,0,0,0,0,0,-1,1805,1828,0,0
588,-804,0,0,0,0,0,0,0,0,0,-1,1812,1828,0,0
595,-804,0,0,0,0,0,0,0,0,0,-1,1819,1828,0,0
602,-804,0,0,0,0,0,0,0,0,0,-1,1826,1828,0,0
609,-804,0,0,0,0,0,0,0,0,0,-1,1833,1828,0,0
616,-804,0,0,0,0,0,0,0,0,0,-1,1840,1828,0,0
623,-804,0,0,0,0,0,0,0,0,0,-1,1847,1828,0,0
630,-804,0,0,0,0,0,0,0,0,0,-1,1854,1828,0,0
637,-804,0,0,0,0,0,0,0,0,0,-1,1861,1828,0,0
644,-804,0,0,0,0,0,0,0,0,0,-1,1868,1828,0,0
651,-804,0,0,0,0,0,0,0,0,0,-1,1875,1828,0,0
658,-804,0,0,0,0,0,0,0,0,0,-1,1882,1828,0,0
665,-804,0,0,0,0,0,0,0,0,0,-1,1889,1828,0,0
672,-804,0,0,0,0,0,0,0,0,0,-1,1896,1828,0,0
679,-804,0,0,0,0,0,0,0,0,0,-1,1903,1828,0,0
686,-804,0,0,0,0,0,0,0,0,0,-1,1910,1828,0,0
693,-804,0,0,0,0,0,0,0,0,0,-1,1917,1828,0,0
700,-804,0,0,0,0,0,0,0,0,0,-1,1924,1828,0,0
707,-804,0,0,0,0,0,0,0,0,0,-1,1931,1828,0,0
714,-804,0,0,0,0,0,0,0,0,0,-1,1938,1828,0,0
721,-804,0,0,0,0,0,0,0,0,0,-1,1945,1828,0,0
728,-804,0,0,0,0,0,0,0,0,0,-1,1952,1828,0,0
735,-804,0,0,0,0,0,0,0,0,0,-1,1959,1828,0,0
742,-804,0,0,0,0,0,0,0,0,0,-1,1966,1828,0,0
749,-804,0,0,0,0,0,0,0,0,0,-1,1973,1828,0,0
756,-804,0,0,0,0,0,0,0,0,0,-1,1980,1828,0,0
763,-804,0,0,0,0,0,0,0,0,0,-1,1987,1828,0,0
770,-804,0,0,0,0,0,0,0,0,0,-1,1994,1828,0,0
777,-804,0,0,0,0,0,0,0,0,0,-1,2001,1828,0,0
784,-804,0,0,0,0,0,0,0,0,0,-1,2008,1828,0,0
791,-804,0,0,0,0,0,0,0,0,0,-1,2015,1828,0,0
798,-804,0,0,0,0,0,0,0,0,0,-1,2022,1828,0,0
805,-804,0,0,0,0,0,0,0,0,0,-1,2029,1828,0,0
812,-804,0,0,0,0,0,0,0,0,0,-1,2036,1828,0,0

