 "x_c",  "y_c",  "u_c",  "v_c",  "exx",  "eyy",  "exy",  "e1",  "e2",  "gamma",  "e_vonmises",  "sigma",  "x",  "y",  "u",  "v"
-700,715,0,0,0,0,0,0,0,0,0,-1,524,309,0,0
-693,715,0,0,0,0,0,0,0,0,0,-1,531,309,0,0
-686,715,0,0,0,0,0,0,0,0,0,-1,538,309,0,0
-679,715,0,0,0,0,0,0,0,0,0,-1,545,309,0,0
-672,715,0,0,0,0,0,0,0,0,0,-1,552,309,0,0
-665,715,0,0,0,0,0,0,0,0,0,-1,559,309,0,0
-658,715,0,0,0,0,0,0,0,0,0,-1,566,309,0,0
-651,715,0,0,0,0,0,0,0,0,0,-1,573,309,0,0
-644,715,0,0,0,0,0,0,0,0,0,-1,580,309,0,0
-637,715,0,0,0,0,0,0,0,0,0,-1,587,309,0,0
-630,715,0,0,0,0,0,0,0,0,0,-1,594,309,0,0
-623,715,0,0,0,0,0,0,0,0,0,-1,601,309,0,0
-616,715,0,0,0,0,0,0,0,0,0,-1,608,309,0,0
-609,715,0,0,0,0,0,0,0,0,0,-1,615,309,0,0
-602,715,0,0,0,0,0,0,0,0,0,-1,622,309,0,0
-595,715,0,0,0,0,0,0,0,0,0,-1,629,309,0,0
-588,715,0,0,0,0,0,0,0,0,0,-1,636,309,0,0
-581,715,0,0,0,0,0,0,0,0,0,-1,643,309,0,0
-574,715,0,0,0,0,0,0,0,0,0,-1,650,309,0,0
-567,715,0,0,0,0,0,0,0,0,0,-1,657,309,0,0
-560,715,0,0,0,0,0,0,0,0,0,-1,664,309,0,0
-553,715,0,0,0,0,0,0,0,0,0,-1,671,309,0,0
-546,715,0,0,0,0,0,0,0,0,0,-1,678,309,0,0
-539,715,0,0,0,0,0,0,0,0,0,-1,685,309,0,0
-532,715,0,0,0,0,0,0,0,0,0,-1,692,309,0,0
-525,715,0,0,0,0,0,0,0,0,0,-1,699,309,0,0
-518,715,0,0,0,0,0,0,0,0,0,-1,706,309,0,0
-511,715,0,0,0,0,0,0,0,0,0,-1,713,309,0,0
-504,715,0,0,0,0,0,0,0,0,0,-1,720,309,0,0
-497,715,0,0,0,0,0,0,0,0,0,-1,727,309,0,0
-490,715,0,0,0,0,0,0,0,0,0,-1,734,309,0,0
-483,715,0,0,0,0,0,0,0,0,0,-1,741,309,0,0
-476,715,0,0,0,0,0,0,0,0,0,-1,748,309,0,0
-469,715,0,0,0,0,0,0,0,0,0,-1,755,309,0,0
-462,715,0,0,0,0,0,0,0,0,0,-1,762,309,0,0
-455,715,0,0,0,0,0,0,0,0,0,-1,769,309,0,0
-448,715,0,0,0,0,0,0,0,0,0,-1,776,309,0,0
-441,715,0,0,0,0,0,0,0,0,0,-1,783,309,0,0
-434,715,0,0,0,0,0,0,0,0,0,-1,790,309,0,0
-427,715,0,0,0,0,0,0,0,0,0,-1,797,309,0,0
-420,715,0,0,0,0,0,0,0,0,0,-1,804,309,0,0
-413,715,0,0,0,0,0,0,0,0,0,-1,811,309,0,0
-406,715,0,0,0,0,0,0,0,0,0,-1,818,309,0,0
-399,715,0,0,0,0,0,0,0,0,0,-1,825,309,0,0
-392,715,0,0,0,0,0,0,0,0,0,-1,832,309,0,0
-385,715,0,0,0,0,0,0,0,0,0,-1,839,309,0,0
-378,715,0,0,0,0,0,0,0,0,0,-1,846,309,0,0
-371,715,0,0,0,0,0,0,0,0,0,-1,853,309,0,0
-364,715,0,0,0,0,0,0,0,0,0,-1,860,309,0,0
-357,715,0,0,0,0,0,0,0,0,0,-1,867,309,0,0
-350,715,0,0,0,0,0,0,0,0,0,-1,874,309,0,0
-343,715,0,0,0,0,0,0,0,0,0,-1,881,309,0,0
-336,715,0,0,0,0,0,0,0,0,0,-1,888,309,0,0
-329,715,0,0,0,0,0,0,0,0,0,-1,895,309,0,0
-322,715,0,0,0,0,0,0,0,0,0,-1,902,309,0,0
-315,715,0,0,0,0,0,0,0,0,0,-1,909,309,0,0
-308,715,0,0,0,0,0,0,0,0,0,-1,916,309,0,0
-301,715,0,0,0,0,0,0,0,0,0,-1,923,309,0,0
-294,715,0,0,0,0,0,0,0,0,0,-1,930,309,0,0
-287,715,0,0,0,0,0,0,0,0,0,-1,937,309,0,0
-280,715,0,0,0,0,0,0,0,0,0,-1,944,309,0,0
-273,715,0,0,0,0,0,0,0,0,0,-1,951,309,0,0
-266,715,0,0,0,0,0,0,0,0,0,-1,958,309,0,0
-259,715,0,0,0,0,0,0,0,0,0,-1,965,309,0,0
-252,715,0,0,0,0,0,0,0,0,0,-1,972,309,0,0
-245,715,0,0,0,0,0,0,0,0,0,-1,979,309,0,0
-238,715,0,0,0,0,0,0,0,0,0,-1,986,309,0,0
-231,715,0,0,0,0,0,0,0,0,0,-1,993,309,0,0
-224,715,0,0,0,0,0,0,0,0,0,-1,1000,309,0,0
-217,715,0,0,0,0,0,0,0,0,0,-1,1007,309,0,0
-210,715,0,0,0,0,0,0,0,0,0,-1,1014,309,0,0
-203,715,0,0,0,0,0,0,0,0,0,-1,1021,309,0,0
-196,715,0,0,0,0,0,0,0,0,0,-1,1028,309,0,0
-189,715,0,0,0,0,0,0,0,0,0,-1,1035,309,0,0
-182,715,0,0,0,0,0,0,0,0,0,-1,1042,309,0,0
-175,715,0,0,0,0,0,0,0,0,0,-1,1049,309,0,0
-168,715,0,0,0,0,0,0,0,0,0,-1,1056,309,0,0
-161,715,0,0,0,0,0,0,0,0,0,-1,1063,309,0,0
-154,715,0,0,0,0,0,0,0,0,0,-1,1070,309,0,0
-147,715,0,0,0,0,0,0,0,0,0,-1,1077,309,0,0
-140,715,0,0,0,0,0,0,0,0,0,-1,1084,309,0,0
-133,715,0,0,0,0,0,0,0,0,0,-1,1091,309,0,0
-126,715,0,0,0,0,0,0,0,0,0,-1,1098,309,0,0
-119,715,0,0,0,0,0,0,0,0,0,-1,1105,309,0,0
-112,715,0,0,0,0,0,0,0,0,0,-1,1112,309,0,0
-105,715,0,0,0,0,0,0,0,0,0,-1,1119,309,0,0
-98,715,0,0,0,0,0,0,0,0,0,-1,1126,309,0,0
-91,715,0,0,0,0,0,0,0,0,0,-1,1133,309,0,0
-84,715,0,0,0,0,0,0,0,0,0,-1,1140,309,0,0
-77,715,0,0,0,0,0,0,0,0,0,-1,1147,309,0,0
-70,715,0,0,0,0,0,0,0,0,0,-1,1154,309,0,0
-63,715,0,0,0,0,0,0,0,0,0,-1,1161,309,0,0
-56,715,0,0,0,0,0,0,0,0,0,-1,1168,309,0,0
-49,715,0,0,0,0,0,0,0,0,0,-1,1175,309,0,0
-42,715,0,0,0,0,0,0,0,0,0,-1,1182,309,0,0
-35,715,0,0,0,0,0,0,0,0,0,-1,1189,309,0,0
-28,715,0,0,0,0,0,0,0,0,0,-1,1196,309,0,0
-21,715,0,0,0,0,0,0,0,0,0,-1,1203,309,0,0
-14,715,0,0,0,0,0,0,0,0,0,-1,1210,309,0,0
-7,715,0,0,0,0,0,0,0,0,0,-1,1217,309,0,0
0,715,0,0,0,0,0,0,0,0,0,-1,1224,309,0,0
7,715,0,0,0,0,0,0,0,0,0,-1,1231,309,0,0
14,715,0,0,0,0,0,0,0,0,0,-1,1238,309,0,0
21,715,0,0,0,0,0,0,0,0,0,-1,1245,309,0,0
28,715,0,0,0,0,0,0,0,0,0,-1,1252,309,0,0
35,715,0,0,0,0,0,0,0,0,0,-1,1259,309,0,0
42,715,0,0,0,0,0,0,0,0,0,-1,1266,309,0,0
49,715,0,0,0,0,0,0,0,0,0,-1,1273,309,0,0
56,715,0,0,0,0,0,0,0,0,0,-1,1280,309,0,0
63,715,5.56714,-17.7163,-0.0557983,0.0904381,0.0387767,0.100084,-0.0654443,1.32699,0.0962628,0.0482561,1287,309,5.56713,17.7164
70,715,5.16736,-17.4066,-0.0583908,0.118766,0.0374587,0.126361,-0.0659856,1.37076,0.11286,0.0473643,1294,309,5.16734,17.4066
77,715,0,0,0,0,0,0,0,0,0,-1,1301,309,0,0
84,715,0,0,0,0,0,0,0,0,0,-1,1308,309,0,0
91,715,0,0,0,0,0,0,0,0,0,-1,1315,309,0,0
98,715,0,0,0,0,0,0,0,0,0,-1,1322,309,0,0
105,715,0,0,0,0,0,0,0,0,0,-1,1329,309,0,0
112,715,0,0,0,0,0,0,0,0,0,-1,1336,309,0,0
119,715,0,0,0,0,0,0,0,0,0,-1,1343,309,0,0
126,715,0,0,0,0,0,0,0,0,0,-1,1350,309,0,0
133,715,0,0,0,0,0,0,0,0,0,-1,1357,309,0,0
140,715,0,0,0,0,0,0,0,0,0,-1,1364,309,0,0
147,715,0,0,0,0,0,0,0,0,0,-1,1371,309,0,0
154,715,0,0,0,0,0,0,0,0,0,-1,1378,309,0,0
161,715,0,0,0,0,0,0,0,0,0,-1,1385,309,0,0
168,715,0,0,0,0,0,0,0,0,0,-1,1392,309,0,0
175,715,0,0,0,0,0,0,0,0,0,-1,1399,309,0,0
182,715,0,0,0,0,0,0,0,0,0,-1,1406,309,0,0
189,715,0,0,0,0,0,0,0,0,0,-1,1413,309,0,0
196,715,0,0,0,0,0,0,0,0,0,-1,1420,309,0,0
203,715,0,0,0,0,0,0,0,0,0,-1,1427,309,0,0
210,715,0,0,0,0,0,0,0,0,0,-1,1434,309,0,0
217,715,0,0,0,0,0,0,0,0,0,-1,1441,309,0,0
224,715,0,0,0,0,0,0,0,0,0,-1,1448,309,0,0
231,715,0,0,0,0,0,0,0,0,0,-1,1455,309,0,0
238,715,0,0,0,0,0,0,0,0,0,-1,1462,309,0,0
245,715,0,0,0,0,0,0,0,0,0,-1,1469,309,0,0
252,715,0,0,0,0,0,0,0,0,0,-1,1476,309,0,0
259,715,0,0,0,0,0,0,0,0,0,-1,1483,309,0,0
266,715,0,0,0,0,0,0,0,0,0,-1,1490,309,0,0
273,715,0,0,0,0,0,0,0,0,0,-1,1497,309,0,0
280,715,0,0,0,0,0,0,0,0,0,-1,1504,309,0,0
287,715,0,0,0,0,0,0,0,0,0,-1,1511,309,0,0
294,715,0,0,0,0,0,0,0,0,0,-1,1518,309,0,0
301,715,0,0,0,0,0,0,0,0,0,-1,1525,309,0,0
308,715,0,0,0,0,0,0,0,0,0,-1,1532,309,0,0
315,715,0,0,0,0,0,0,0,0,0,-1,1539,309,0,0
322,715,0,0,0,0,0,0,0,0,0,-1,1546,309,0,0
329,715,0,0,0,0,0,0,0,0,0,-1,1553,309,0,0
336,715,0,0,0,0,0,0,0,0,0,-1,1560,309,0,0
343,715,0,0,0,0,0,0,0,0,0,-1,1567,309,0,0
350,715,0,0,0,0,0,0,0,0,0,-1,1574,309,0,0
357,715,0,0,0,0,0,0,0,0,0,-1,1581,309,0,0
364,715,0,0,0,0,0,0,0,0,0,-1,1588,309,0,0
371,715,0,0,0,0,0,0,0,0,0,-1,1595,309,0,0
378,715,0,0,0,0,0,0,0,0,0,-1,1602,309,0,0
385,715,0,0,0,0,0,0,0,0,0,-1,1609,309,0,0
392,715,0,0,0,0,0,0,0,0,0,-1,1616,309,0,0
399,715,0,0,0,0,0,0,0,0,0,-1,1623,309,0,0
406,715,0,0,0,0,0,0,0,0,0,-1,1630,309,0,0
413,715,0,0,0,0,0,0,0,0,0,-1,1637,309,0,0
420,715,0,0,0,0,0,0,0,0,0,-1,1644,309,0,0
427,715,0,0,0,0,0,0,0,0,0,-1,1651,309,0,0
434,715,0,0,0,0,0,0,0,0,0,-1,1658,309,0,0
441,715,0,0,0,0,0,0,0,0,0,-1,1665,309,0,0
448,715,0,0,0,0,0,0,0,0,0,-1,1672,309,0,0
455,715,0,0,0,0,0,0,0,0,0,-1,1679,309,0,0
462,715,0,0,0,0,0,0,0,0,0,-1,1686,309,0,0
469,715,0,0,0,0,0,0,0,0,0,-1,1693,309,0,0
476,715,0,0,0,0,0,0,0,0,0,-1,1700,309,0,0
483,715,0,0,0,0,0,0,0,0,0,-1,1707,309,0,0
490,715,0,0,0,0,0,0,0,0,0,-1,1714,309,0,0
497,715,0,0,0,0,0,0,0,0,0,-1,1721,309,0,0
504,715,0,0,0,0,0,0,0,0,0,-1,1728,309,0,0
511,715,0,0,0,0,0,0,0,0,0,-1,1735,309,0,0
518,715,0,0,0,0,0,0,0,0,0,-1,1742,309,0,0
525,715,0,0,0,0,0,0,0,0,0,-1,1749,309,0,0
532,715,0,0,0,0,0,0,0,0,0,-1,1756,309,0,0
539,715,0,0,0,0,0,0,0,0,0,-1,1763,309,0,0
546,715,0,0,0,0,0,0,0,0,0,-1,1770,309,0,0
553,715,0,0,0,0,0,0,0,0,0,-1,1777,309,0,0
560,715,0,0,0,0,0,0,0,0,0,-1,1784,309,0,0
567,715,0,0,0,0,0,0,0,0,0,-1,1791,309,0,0
574,715,0,0,0,0,0,0,0,0,0,-1,1798,309,0,0
581,715,0,0,0,0,0,0,0,0,0,-1,1805,309,0,0
588,715,0,0,0,0,0,0,0,0,0,-1,1812,309,0,0
595,715,0,0,0,0,0,0,0,0,0,-1,1819,309,0,0
602,715,0,0,0,0,0,0,0,0,0,-1,1826,309,0,0
609,715,0,0,0,0,0,0,0,0,0,-1,1833,309,0,0
616,715,0,0,0,0,0,0,0,0,0,-1,1840,309,0,0
623,715,0,0,0,0,0,0,0,0,0,-1,1847,309,0,0
630,715,0,0,0,0,0,0,0,0,0,-1,1854,309,0,0
637,715,0,0,0,0,0,0,0,0,0,-1,1861,309,0,0
644,715,0,0,0,0,0,0,0,0,0,-1,1868,309,0,0
651,715,0,0,0,0,0,0,0,0,0,-1,1875,309,0,0
658,715,0,0,0,0,0,0,0,0,0,-1,1882,309,0,0
665,715,0,0,0,0,0,0,0,0,0,-1,1889,309,0,0
672,715,0,0,0,0,0,0,0,0,0,-1,1896,309,0,0
679,715,0,0,0,0,0,0,0,0,0,-1,1903,309,0,0
686,715,0,0,0,0,0,0,0,0,0,-1,1910,309,0,0
693,715,0,0,0,0,0,0,0,0,0,-1,1917,309,0,0
700,715,0,0,0,0,0,0,0,0,0,-1,1924,309,0,0
707,715,0,0,0,0,0,0,0,0,0,-1,1931,309,0,0
714,715,0,0,0,0,0,0,0,0,0,-1,1938,309,0,0
721,715,0,0,0,0,0,0,0,0,0,-1,1945,309,0,0
728,715,0,0,0,0,0,0,0,0,0,-1,1952,309,0,0
735,715,0,0,0,0,0,0,0,0,0,-1,1959,309,0,0
742,715,0,0,0,0,0,0,0,0,0,-1,1966,309,0,0
749,715,0,0,0,0,0,0,0,0,0,-1,1973,309,0,0
756,715,0,0,0,0,0,0,0,0,0,-1,1980,309,0,0
763,715,0,0,0,0,0,0,0,0,0,-1,1987,309,0,0
770,715,0,0,0,0,0,0,0,0,0,-1,1994,309,0,0
777,715,0,0,0,0,0,0,0,0,0,-1,2001,309,0,0
784,715,0,0,0,0,0,0,0,0,0,-1,2008,309,0,0
791,715,0,0,0,0,0,0,0,0,0,-1,2015,309,0,0
798,715,0,0,0,0,0,0,0,0,0,-1,2022,309,0,0
805,715,0,0,0,0,0,0,0,0,0,-1,2029,309,0,0
812,715,0,0,0,0,0,0,0,0,0,-1,2036,309,0,0
-700,708,0,0,0,0,0,0,0,0,0,-1,524,316,0,0
-693,708,0,0,0,0,0,0,0,0,0,-1,531,316,0,0
-686,708,0,0,0,0,0,0,0,0,0,-1,538,316,0,0
-679,708,0,0,0,0,0,0,0,0,0,-1,545,316,0,0
-672,708,0,0,0,0,0,0,0,0,0,-1,552,316,0,0
-665,708,0,0,0,0,0,0,0,0,0,-1,559,316,0,0
-658,708,0,0,0,0,0,0,0,0,0,-1,566,316,0,0
-651,708,0,0,0,0,0,0,0,0,0,-1,573,316,0,0
-644,708,0,0,0,0,0,0,0,0,0,-1,580,316,0,0
-637,708,0,0,0,0,0,0,0,0,0,-1,587,316,0,0
-630,708,0,0,0,0,0,0,0,0,0,-1,594,316,0,0
-623,708,0,0,0,0,0,0,0,0,0,-1,601,316,0,0
-616,708,0,0,0,0,0,0,0,0,0,-1,608,316,0,0
-609,708,0,0,0,0,0,0,0,0,0,-1,615,316,0,0
-602,708,0,0,0,0,0,0,0,0,0,-1,622,316,0,0
-595,708,0,0,0,0,0,0,0,0,0,-1,629,316,0,0
-588,708,0,0,0,0,0,0,0,0,0,-1,636,316,0,0
-581,708,0,0,0,0,0,0,0,0,0,-1,643,316,0,0
-574,708,0,0,0,0,0,0,0,0,0,-1,650,316,0,0
-567,708,0,0,0,0,0,0,0,0,0,-1,657,316,0,0
-560,708,0,0,0,0,0,0,0,0,0,-1,664,316,0,0
-553,708,0,0,0,0,0,0,0,0,0,-1,671,316,0,0
-546,708,0,0,0,0,0,0,0,0,0,-1,678,316,0,0
-539,708,0,0,0,0,0,0,0,0,0,-1,685,316,0,0
-532,708,0,0,0,0,0,0,0,0,0,-1,692,316,0,0
-525,708,0,0,0,0,0,0,0,0,0,-1,699,316,0,0
-518,708,0,0,0,0,0,0,0,0,0,-1,706,316,0,0
-511,708,0,0,0,0,0,0,0,0,0,-1,713,316,0,0
-504,708,0,0,0,0,0,0,0,0,0,-1,720,316,0,0
-497,708,0,0,0,0,0,0,0,0,0,-1,727,316,0,0
-490,708,0,0,0,0,0,0,0,0,0,-1,734,316,0,0
-483,708,0,0,0,0,0,0,0,0,0,-1,741,316,0,0
-476,708,0,0,0,0,0,0,0,0,0,-1,748,316,0,0
-469,708,0,0,0,0,0,0,0,0,0,-1,755,316,0,0
-462,708,0,0,0,0,0,0,0,0,0,-1,762,316,0,0
-455,708,0,0,0,0,0,0,0,0,0,-1,769,316,0,0
-448,708,0,0,0,0,0,0,0,0,0,-1,776,316,0,0
-441,708,0,0,0,0,0,0,0,0,0,-1,783,316,0,0
-434,708,0,0,0,0,0,0,0,0,0,-1,790,316,0,0
-427,708,0,0,0,0,0,0,0,0,0,-1,797,316,0,0
-420,708,0,0,0,0,0,0,0,0,0,-1,804,316,0,0
-413,708,0,0,0,0,0,0,0,0,0,-1,811,316,0,0
-406,708,0,0,0,0,0,0,0,0,0,-1,818,316,0,0
-399,708,0,0,0,0,0,0,0,0,0,-1,825,316,0,0
-392,708,0,0,0,0,0,0,0,0,0,-1,832,316,0,0
-385,708,0,0,0,0,0,0,0,0,0,-1,839,316,0,0
-378,708,0,0,0,0,0,0,0,0,0,-1,846,316,0,0
-371,708,0,0,0,0,0,0,0,0,0,-1,853,316,0,0
-364,708,0,0,0,0,0,0,0,0,0,-1,860,316,0,0
-357,708,0,0,0,0,0,0,0,0,0,-1,867,316,0,0
-350,708,0,0,0,0,0,0,0,0,0,-1,874,316,0,0
-343,708,0,0,0,0,0,0,0,0,0,-1,881,316,0,0
-336,708,0,0,0,0,0,0,0,0,0,-1,888,316,0,0
-329,708,0,0,0,0,0,0,0,0,0,-1,895,316,0,0
-322,708,0,0,0,0,0,0,0,0,0,-1,902,316,0,0
-315,708,0,0,0,0,0,0,0,0,0,-1,909,316,0,0
-308,708,0,0,0,0,0,0,0,0,0,-1,916,316,0,0
-301,708,0,0,0,0,0,0,0,0,0,-1,923,316,0,0
-294,708,0,0,0,0,0,0,0,0,0,-1,930,316,0,0
-287,708,0,0,0,0,0,0,0,0,0,-1,937,316,0,0
-280,708,0,0,0,0,0,0,0,0,0,-1,944,316,0,0
-273,708,0,0,0,0,0,0,0,0,0,-1,951,316,0,0
-266,708,0,0,0,0,0,0,0,0,0,-1,958,316,0,0
-259,708,0,0,0,0,0,0,0,0,0,-1,965,316,0,0
-252,708,0,0,0,0,0,0,0,0,0,-1,972,316,0,0
-245,708,0,0,0,0,0,0,0,0,0,-1,979,316,0,0
-238,708,0,0,0,0,0,0,0,0,0,-1,986,316,0,0
-231,708,0,0,0,0,0,0,0,0,0,-1,993,316,0,0
-224,708,0,0,0,0,0,0,0,0,0,-1,1000,316,0,0
-217,708,0,0,0,0,0,0,0,0,0,-1,1007,316,0,0
-210,708,0,0,0,0,0,0,0,0,0,-1,1014,316,0,0
-203,708,0,0,0,0,0,0,0,0,0,-1,1021,316,0,0
-196,708,0,0,0,0,0,0,0,0,0,-1,1028,316,0,0
-189,708,0,0,0,0,0,0,0,0,0,-1,1035,316,0,0
-182,708,0,0,0,0,0,0,0,0,0,-1,1042,316,0,0
-175,708,0,0,0,0,0,0,0,0,0,-1,1049,316,0,0
-168,708,0,0,0,0,0,0,0,0,0,-1,1056,316,0,0
-161,708,0,0,0,0,0,0,0,0,0,-1,1063,316,0,0
-154,708,0,0,0,0,0,0,0,0,0,-1,1070,316,0,0
-147,708,0,0,0,0,0,0,0,0,0,-1,1077,316,0,0
-140,708,0,0,0,0,0,0,0,0,0,-1,1084,316,0,0
-133,708,0,0,0,0,0,0,0,0,0,-1,1091,316,0,0
-126,708,0,0,0,0,0,0,0,0,0,-1,1098,316,0,0
-119,708,0,0,0,0,0,0,0,0,0,-1,1105,316,0,0
-112,708,0,0,0,0,0,0,0,0,0,-1,1112,316,0,0
-105,708,0,0,0,0,0,0,0,0,0,-1,1119,316,0,0
-98,708,0,0,0,0,0,0,0,0,0,-1,1126,316,0,0
-91,708,0,0,0,0,0,0,0,0,0,-1,1133,316,0,0
-84,708,0,0,0,0,0,0,0,0,0,-1,1140,316,0,0
-77,708,0,0,0,0,0,0,0,0,0,-1,1147,316,0,0
-70,708,0,0,0,0,0,0,0,0,0,-1,1154,316,0,0
-63,708,0,0,0,0,0,0,0,0,0,-1,1161,316,0,0
-56,708,0,0,0,0,0,0,0,0,0,-1,1168,316,0,0
-49,708,0,0,0,0,0,0,0,0,0,-1,1175,316,0,0
-42,708,0,0,0,0,0,0,0,0,0,-1,1182,316,0,0
-35,708,-2.71204,-6.31558,0,0,0,0,0,0,0,-1,1189,316,-2.712,6.3156
-28,708,-2.92371,-5.53253,0,0,0,0,0,0,0,-1,1196,316,-2.92375,5.53254
-21,708,-16.2667,-7.40662,0,0,0,0,0,0,0,-1,1203,316,-16.2667,7.4066
-14,708,2.71252,-18.5193,0,0,0,0,0,0,0,-1,1210,316,2.71252,18.5193
-7,708,3.90479,-18.2204,0,0,0,0,0,0,0,-1,1217,316,3.9048,18.2204
0,708,2.91711,-19.446,0,0,0,0,0,0,0,-1,1224,316,2.91709,19.446
7,708,2.79749,-19.189,0.0088491,0.0513147,-0.0236224,0.0618443,-0.00168045,-1.15149,0.0418009,0.0437788,1231,316,2.79746,19.189
14,708,3.77661,-20.9659,0,0,0,0,0,0,0,-1,1238,316,3.7766,20.9659
21,708,3.55798,-20.8709,-0.00793019,0.0513209,0.000557108,0.0513261,-0.00793543,1.56139,0.0371462,0.0426388,1245,316,3.55794,20.8709
28,708,3.29895,-20.8849,-0.0154433,0.0563166,0.0108304,0.0579156,-0.0170422,1.42422,0.0453709,0.0449369,1252,316,3.29901,20.8849
35,708,3.00317,-20.9379,0,0,0,0,0,0,0,-1,1259,316,3.00323,20.9379
42,708,2.68811,-20.9596,0,0,0,0,0,0,0,-1,1266,316,2.68809,20.9596
49,708,5.83374,-17.542,-0.0353158,0.0717481,0.0323457,0.0807614,-0.0443292,1.29903,0.073235,0.0445674,1273,316,5.83372,17.542
56,708,5.48291,-17.3156,-0.039081,0.0802849,0.0339851,0.0892827,-0.0480788,1.31198,0.0804862,0.0462029,1280,316,5.48296,17.3156
63,708,5.28662,-17.6003,-0.0443869,0.0869107,0.0353827,0.0958387,-0.0533149,1.32363,0.0872726,0.0453289,1287,316,5.28667,17.6002
70,708,4.89404,-17.7001,-0.047397,0.109474,0.0329363,0.116109,-0.0540316,1.37202,0.100386,0.0441467,1294,316,4.89398,17.7001
77,708,4.23804,-17.4192,-0.0500274,0.15367,0.0275526,0.157331,-0.0536884,1.4387,0.126636,0.0418478,1301,316,4.23802,17.4192
84,708,3.61414,-17.8036,-0.0502212,0.178729,0.0163855,0.179896,-0.0513879,1.49971,0.140234,0.047805,1308,316,3.61413,17.8036
91,708,2.88269,-18.1469,0,0,0,0,0,0,0,-1,1315,316,2.88275,18.1469
98,708,2.22791,-17.1837,-0.053196,0.23003,-0.00947619,0.230347,-0.0535127,-1.53739,0.174164,0.0462929,1322,316,2.22796,17.1838
105,708,1.73816,-16.738,-0.0559353,0.256591,-0.0230454,0.258281,-0.0576255,-1.49759,0.194266,0.0463819,1329,316,1.73818,16.738
112,708,2.39172,-16.0573,-0.0577896,0.28355,-0.0378211,0.287691,-0.0619301,-1.46176,0.215425,0.0441001,1336,316,2.3917,16.0573
119,708,2.31921,-15.4073,-0.0600391,0.306964,-0.0542517,0.314816,-0.0678908,-1.42707,0.235788,0.0422317,1343,316,2.31926,15.4073
126,708,1.94788,-14.8782,-0.0633535,0.316662,-0.0727246,0.330104,-0.0767955,-1.38802,0.249637,0.0461602,1350,316,1.94783,14.8782
133,708,-3.21509,-21.7377,-0.0687526,0.304211,-0.0920767,0.325704,-0.0902457,-1.34148,0.252649,0.0467606,1357,316,-3.21514,21.7377
140,708,-4.1333,-21.8153,0,0,0,0,0,0,0,-1,1364,316,-4.13331,21.8153
147,708,-5.56311,-21.0722,0,0,0,0,0,0,0,-1,1371,316,-5.56305,21.0722
154,708,0,0,0,0,0,0,0,0,0,-1,1378,316,0,0
161,708,0,0,0,0,0,0,0,0,0,-1,1385,316,0,0
168,708,0,0,0,0,0,0,0,0,0,-1,1392,316,0,0
175,708,0,0,0,0,0,0,0,0,0,-1,1399,316,0,0
182,708,0,0,0,0,0,0,0,0,0,-1,1406,316,0,0
189,708,0,0,0,0,0,0,0,0,0,-1,1413,316,0,0
196,708,0,0,0,0,0,0,0,0,0,-1,1420,316,0,0
203,708,0,0,0,0,0,0,0,0,0,-1,1427,316,0,0
210,708,0,0,0,0,0,0,0,0,0,-1,1434,316,0,0
217,708,0,0,0,0,0,0,0,0,0,-1,1441,316,0,0
224,708,0,0,0,0,0,0,0,0,0,-1,1448,316,0,0
231,708,0,0,0,0,0,0,0,0,0,-1,1455,316,0,0
238,708,0,0,0,0,0,0,0,0,0,-1,1462,316,0,0
245,708,0,0,0,0,0,0,0,0,0,-1,1469,316,0,0
252,708,0,0,0,0,0,0,0,0,0,-1,1476,316,0,0
259,708,0,0,0,0,0,0,0,0,0,-1,1483,316,0,0
266,708,0,0,0,0,0,0,0,0,0,-1,1490,316,0,0
273,708,0,0,0,0,0,0,0,0,0,-1,1497,316,0,0
280,708,0,0,0,0,0,0,0,0,0,-1,1504,316,0,0
287,708,0,0,0,0,0,0,0,0,0,-1,1511,316,0,0
294,708,0,0,0,0,0,0,0,0,0,-1,1518,316,0,0
301,708,0,0,0,0,0,0,0,0,0,-1,1525,316,0,0
308,708,0,0,0,0,0,0,0,0,0,-1,1532,316,0,0
315,708,0,0,0,0,0,0,0,0,0,-1,1539,316,0,0
322,708,0,0,0,0,0,0,0,0,0,-1,1546,316,0,0
329,708,0,0,0,0,0,0,0,0,0,-1,1553,316,0,0
336,708,0,0,0,0,0,0,0,0,0,-1,1560,316,0,0
343,708,0,0,0,0,0,0,0,0,0,-1,1567,316,0,0
350,708,0,0,0,0,0,0,0,0,0,-1,1574,316,0,0
357,708,0,0,0,0,0,0,0,0,0,-1,1581,316,0,0
364,708,0,0,0,0,0,0,0,0,0,-1,1588,316,0,0
371,708,0,0,0,0,0,0,0,0,0,-1,1595,316,0,0
378,708,0,0,0,0,0,0,0,0,0,-1,1602,316,0,0
385,708,0,0,0,0,0,0,0,0,0,-1,1609,316,0,0
392,708,0,0,0,0,0,0,0,0,0,-1,1616,316,0,0
399,708,0,0,0,0,0,0,0,0,0,-1,1623,316,0,0
406,708,0,0,0,0,0,0,0,0,0,-1,1630,316,0,0
413,708,0,0,0,0,0,0,0,0,0,-1,1637,316,0,0
420,708,0,0,0,0,0,0,0,0,0,-1,1644,316,0,0
427,708,0,0,0,0,0,0,0,0,0,-1,1651,316,0,0
434,708,0,0,0,0,0,0,0,0,0,-1,1658,316,0,0
441,708,0,0,0,0,0,0,0,0,0,-1,1665,316,0,0
448,708,0,0,0,0,0,0,0,0,0,-1,1672,316,0,0
455,708,0,0,0,0,0,0,0,0,0,-1,1679,316,0,0
462,708,0,0,0,0,0,0,0,0,0,-1,1686,316,0,0
469,708,0,0,0,0,0,0,0,0,0,-1,1693,316,0,0
476,708,0,0,0,0,0,0,0,0,0,-1,1700,316,0,0
483,708,0,0,0,0,0,0,0,0,0,-1,1707,316,0,0
490,708,0,0,0,0,0,0,0,0,0,-1,1714,316,0,0
497,708,0,0,0,0,0,0,0,0,0,-1,1721,316,0,0
504,708,0,0,0,0,0,0,0,0,0,-1,1728,316,0,0
511,708,0,0,0,0,0,0,0,0,0,-1,1735,316,0,0
518,708,0,0,0,0,0,0,0,0,0,-1,1742,316,0,0
525,708,0,0,0,0,0,0,0,0,0,-1,1749,316,0,0
532,708,0,0,0,0,0,0,0,0,0,-1,1756,316,0,0
539,708,0,0,0,0,0,0,0,0,0,-1,1763,316,0,0
546,708,0,0,0,0,0,0,0,0,0,-1,1770,316,0,0
553,708,0,0,0,0,0,0,0,0,0,-1,1777,316,0,0
560,708,0,0,0,0,0,0,0,0,0,-1,1784,316,0,0
567,708,0,0,0,0,0,0,0,0,0,-1,1791,316,0,0
574,708,0,0,0,0,0,0,0,0,0,-1,1798,316,0,0
581,708,0,0,0,0,0,0,0,0,0,-1,1805,316,0,0
588,708,0,0,0,0,0,0,0,0,0,-1,1812,316,0,0
595,708,0,0,0,0,0,0,0,0,0,-1,1819,316,0,0
602,708,0,0,0,0,0,0,0,0,0,-1,1826,316,0,0
609,708,0,0,0,0,0,0,0,0,0,-1,1833,316,0,0
616,708,0,0,0,0,0,0,0,0,0,-1,1840,316,0,0
623,708,0,0,0,0,0,0,0,0,0,-1,1847,316,0,0
630,708,0,0,0,0,0,0,0,0,0,-1,1854,316,0,0
637,708,0,0,0,0,0,0,0,0,0,-1,1861,316,0,0
644,708,0,0,0,0,0,0,0,0,0,-1,1868,316,0,0
651,708,0,0,0,0,0,0,0,0,0,-1,1875,316,0,0
658,708,0,0,0,0,0,0,0,0,0,-1,1882,316,0,0
665,708,0,0,0,0,0,0,0,0,0,-1,1889,316,0,0
672,708,0,0,0,0,0,0,0,0,0,-1,1896,316,0,0
679,708,0,0,0,0,0,0,0,0,0,-1,1903,316,0,0
686,708,0,0,0,0,0,0,0,0,0,-1,1910,316,0,0
693,708,0,0,0,0,0,0,0,0,0,-1,1917,316,0,0
700,708,0,0,0,0,0,0,0,0,0,-1,1924,316,0,0
707,708,0,0,0,0,0,0,0,0,0,-1,1931,316,0,0
714,708,0,0,0,0,0,0,0,0,0,-1,1938,316,0,0
721,708,0,0,0,0,0,0,0,0,0,-1,1945,316,0,0
728,708,0,0,0,0,0,0,0,0,0,-1,1952,316,0,0
735,708,0,0,0,0,0,0,0,0,0,-1,1959,316,0,0
742,708,0,0,0,0,0,0,0,0,0,-1,1966,316,0,0
749,708,0,0,0,0,0,0,0,0,0,-1,1973,316,0,0
756,708,0,0,0,0,0,0,0,0,0,-1,1980,316,0,0
763,708,0,0,0,0,0,0,0,0,0,-1,1987,316,0,0
770,708,0,0,0,0,0,0,0,0,0,-1,1994,316,0,0
777,708,0,0,0,0,0,0,0,0,0,-1,2001,316,0,0
784,708,0,0,0,0,0,0,0,0,0,-1,2008,316,0,0
791,708,0,0,0,0,0,0,0,0,0,-1,2015,316,0,0
798,708,0,0,0,0,0,0,0,0,0,-1,2022,316,0,0
805,708,0,0,0,0,0,0,0,0,0,-1,2029,316,0,0
812,708,0,0,0,0,0,0,0,0,0,-1,2036,316,0,0
-700,701,0,0,0,0,0,0,0,0,0,-1,524,323,0,0
-693,701,0,0,0,0,0,0,0,0,0,-1,531,323,0,0
-686,701,0,0,0,0,0,0,0,0,0,-1,538,323,0,0
-679,701,0,0,0,0,0,0,0,0,0,-1,545,323,0,0
-672,701,0,0,0,0,0,0,0,0,0,-1,552,323,0,0
-665,701,0,0,0,0,0,0,0,0,0,-1,559,323,0,0
-658,701,0,0,0,0,0,0,0,0,0,-1,566,323,0,0
-651,701,0,0,0,0,0,0,0,0,0,-1,573,323,0,0
-644,701,0,0,0,0,0,0,0,0,0,-1,580,323,0,0
-637,701,0,0,0,0,0,0,0,0,0,-1,587,323,0,0
-630,701,0,0,0,0,0,0,0,0,0,-1,594,323,0,0
-623,701,0,0,0,0,0,0,0,0,0,-1,601,323,0,0
-616,701,0,0,0,0,0,0,0,0,0,-1,608,323,0,0
-609,701,0,0,0,0,0,0,0,0,0,-1,615,323,0,0
-602,701,0,0,0,0,0,0,0,0,0,-1,622,323,0,0
-595,701,0,0,0,0,0,0,0,0,0,-1,629,323,0,0
-588,701,0,0,0,0,0,0,0,0,0,-1,636,323,0,0
-581,701,0,0,0,0,0,0,0,0,0,-1,643,323,0,0
-574,701,0,0,0,0,0,0,0,0,0,-1,650,323,0,0
-567,701,0,0,0,0,0,0,0,0,0,-1,657,323,0,0
-560,701,0,0,0,0,0,0,0,0,0,-1,664,323,0,0
-553,701,0,0,0,0,0,0,0,0,0,-1,671,323,0,0
-546,701,0,0,0,0,0,0,0,0,0,-1,678,323,0,0
-539,701,0,0,0,0,0,0,0,0,0,-1,685,323,0,0
-532,701,0,0,0,0,0,0,0,0,0,-1,692,323,0,0
-525,701,0,0,0,0,0,0,0,0,0,-1,699,323,0,0
-518,701,0,0,0,0,0,0,0,0,0,-1,706,323,0,0
-511,701,0,0,0,0,0,0,0,0,0,-1,713,323,0,0
-504,701,0,0,0,0,0,0,0,0,0,-1,720,323,0,0
-497,701,0,0,0,0,0,0,0,0,0,-1,727,323,0,0
-490,701,0,0,0,0,0,0,0,0,0,-1,734,323,0,0
-483,701,0,0,0,0,0,0,0,0,0,-1,741,323,0,0
-476,701,0,0,0,0,0,0,0,0,0,-1,748,323,0,0
-469,701,0,0,0,0,0,0,0,0,0,-1,755,323,0,0
-462,701,0,0,0,0,0,0,0,0,0,-1,762,323,0,0
-455,701,0,0,0,0,0,0,0,0,0,-1,769,323,0,0
-448,701,0,0,0,0,0,0,0,0,0,-1,776,323,0,0
-441,701,0,0,0,0,0,0,0,0,0,-1,783,323,0,0
-434,701,0,0,0,0,0,0,0,0,0,-1,790,323,0,0
-427,701,0,0,0,0,0,0,0,0,0,-1,797,323,0,0
-420,701,0,0,0,0,0,0,0,0,0,-1,804,323,0,0
-413,701,0,0,0,0,0,0,0,0,0,-1,811,323,0,0
-406,701,0,0,0,0,0,0,0,0,0,-1,818,323,0,0
-399,701,0,0,0,0,0,0,0,0,0,-1,825,323,0,0
-392,701,0,0,0,0,0,0,0,0,0,-1,832,323,0,0
-385,701,0,0,0,0,0,0,0,0,0,-1,839,323,0,0
-378,701,0,0,0,0,0,0,0,0,0,-1,846,323,0,0
-371,701,0,0,0,0,0,0,0,0,0,-1,853,323,0,0
-364,701,0,0,0,0,0,0,0,0,0,-1,860,323,0,0
-357,701,0,0,0,0,0,0,0,0,0,-1,867,323,0,0
-350,701,0,0,0,0,0,0,0,0,0,-1,874,323,0,0
-343,701,0,0,0,0,0,0,0,0,0,-1,881,323,0,0
-336,701,0,0,0,0,0,0,0,0,0,-1,888,323,0,0
-329,701,0,0,0,0,0,0,0,0,0,-1,895,323,0,0
-322,701,0,0,0,0,0,0,0,0,0,-1,902,323,0,0
-315,701,0,0,0,0,0,0,0,0,0,-1,909,323,0,0
-308,701,0,0,0,0,0,0,0,0,0,-1,916,323,0,0
-301,701,0,0,0,0,0,0,0,0,0,-1,923,323,0,0
-294,701,0,0,0,0,0,0,0,0,0,-1,930,323,0,0
-287,701,0,0,0,0,0,0,0,0,0,-1,937,323,0,0
-280,701,0,0,0,0,0,0,0,0,0,-1,944,323,0,0
-273,701,0,0,0,0,0,0,0,0,0,-1,951,323,0,0
-266,701,0,0,0,0,0,0,0,0,0,-1,958,323,0,0
-259,701,0,0,0,0,0,0,0,0,0,-1,965,323,0,0
-252,701,0,0,0,0,0,0,0,0,0,-1,972,323,0,0
-245,701,0,0,0,0,0,0,0,0,0,-1,979,323,0,0
-238,701,0,0,0,0,0,0,0,0,0,-1,986,323,0,0
-231,701,0,0,0,0,0,0,0,0,0,-1,993,323,0,0
-224,701,0,0,0,0,0,0,0,0,0,-1,1000,323,0,0
-217,701,0,0,0,0,0,0,0,0,0,-1,1007,323,0,0
-210,701,0,0,0,0,0,0,0,0,0,-1,1014,323,0,0
-203,701,0,0,0,0,0,0,0,0,0,-1,1021,323,0,0
-196,701,0,0,0,0,0,0,0,0,0,-1,1028,323,0,0
-189,701,0,0,0,0,0,0,0,0,0,-1,1035,323,0,0
-182,701,0,0,0,0,0,0,0,0,0,-1,1042,323,0,0
-175,701,0,0,0,0,0,0,0,0,0,-1,1049,323,0,0
-168,701,0,0,0,0,0,0,0,0,0,-1,1056,323,0,0
-161,701,0,0,0,0,0,0,0,0,0,-1,1063,323,0,0
-154,701,0,0,0,0,0,0,0,0,0,-1,1070,323,0,0
-147,701,0,0,0,0,0,0,0,0,0,-1,1077,323,0,0
-140,701,0,0,0,0,0,0,0,0,0,-1,1084,323,0,0
-133,701,0,0,0,0,0,0,0,0,0,-1,1091,323,0,0
-126,701,0,0,0,0,0,0,0,0,0,-1,1098,323,0,0
-119,701,0,0,0,0,0,0,0,0,0,-1,1105,323,0,0
-112,701,0,0,0,0,0,0,0,0,0,-1,1112,323,0,0
-105,701,0,0,0,0,0,0,0,0,0,-1,1119,323,0,0
-98,701,0,0,0,0,0,0,0,0,0,-1,1126,323,0,0
-91,701,0,0,0,0,0,0,0,0,0,-1,1133,323,0,0
-84,701,0,0,0,0,0,0,0,0,0,-1,1140,323,0,0
-77,701,0,0,0,0,0,0,0,0,0,-1,1147,323,0,0
-70,701,-2.36731,-1.49271,0,0,0,0,0,0,0,-1,1154,323,-2.36729,1.4927
-63,701,-2.479,-0.295959,0,0,0,0,0,0,0,-1,1161,323,-2.47895,0.295961
-56,701,-0.420166,-0.101776,0,0,0,0,0,0,0,-1,1168,323,-0.420119,0.101777
-49,701,-1.09021,-0.155762,0,0,0,0,0,0,0,-1,1175,323,-1.09024,0.155768
-42,701,-0.210327,-0.299133,0,0,0,0,0,0,0,-1,1182,323,-0.210379,0.29914
-35,701,-2.9635,-7.98676,0,0,0,0,0,0,0,-1,1189,323,-2.9635,7.98676
-28,701,-6.64417,-5.4917,0,0,0,0,0,0,0,-1,1196,323,-6.64411,5.4917
-21,701,2.82434,-19.5332,0,0,0,0,0,0,0,-1,1203,323,2.82432,19.5332
-14,701,3.47559,-19.344,0.0203474,0.072426,-0.0385697,0.0929234,-0.000150051,-1.08232,0.061999,0.0466206,1210,323,3.47553,19.344
-7,701,4.11023,-19.342,0.012743,0.0558928,-0.033624,0.0742685,-0.00563269,-1.07064,0.0514927,0.0456316,1217,323,4.11021,19.342
0,701,3.401,-19.6876,0,0,0,0,0,0,0,-1,1224,323,3.40096,19.6876
7,701,3.26526,-19.5102,0,0,0,0,0,0,0,-1,1231,323,3.26524,19.5101
14,701,3.72278,-20.4317,0,0,0,0,0,0,0,-1,1238,323,3.72276,20.4317
21,701,3.51001,-20.5266,-0.00896765,0.046681,0.00476044,0.0470853,-0.00937195,1.48607,0.0349358,0.0452563,1245,323,3.50996,20.5266
28,701,3.35559,-20.5154,-0.0137998,0.0515047,0.0130631,0.0540208,-0.0163159,1.38051,0.0425094,0.0477511,1252,323,3.35555,20.5154
35,701,3.18066,-20.5355,0,0,0,0,0,0,0,-1,1259,323,3.18068,20.5355
42,701,6.15649,-17.7102,-0.023147,0.0603825,0.026437,0.0680466,-0.0308111,1.28863,0.0584094,0.0460943,1266,323,6.15647,17.7102
49,701,5.61023,-17.6989,-0.0277527,0.0651225,0.0297267,0.0738222,-0.0364524,1.28609,0.0648742,0.0476021,1273,323,5.61017,17.6989
56,701,5.30249,-17.8,-0.0307335,0.0728043,0.0305714,0.0811572,-0.0390864,1.30408,0.0708249,0.0463147,1280,323,5.30247,17.8
63,701,5.01147,-17.8905,-0.0350853,0.0784751,0.0309102,0.0863434,-0.0429536,1.32154,0.0760379,0.0436903,1287,323,5.01143,17.8905
70,701,4.59875,-18.0232,-0.0381233,0.096153,0.0280729,0.101786,-0.0437562,1.37278,0.0862263,0.0428491,1294,323,4.59881,18.0232
77,701,3.94824,-18.1929,-0.0410857,0.130406,0.0230562,0.133452,-0.0441314,1.43946,0.106763,0.0464054,1301,323,3.94819,18.1929
84,701,3.33179,-18.3578,-0.0419252,0.148559,0.0135805,0.149522,-0.0428886,1.49998,0.116636,0.0492218,1308,323,3.33176,18.3578
91,701,2.80151,-18.2022,-0.0432659,0.16701,0.00340875,0.167066,-0.0433211,1.55459,0.128279,0.0475504,1315,323,2.80154,18.2022
98,701,2.29382,-17.9467,-0.0454059,0.182971,-0.00909251,0.183333,-0.0457674,-1.53107,0.139994,0.0464433,1322,323,2.29386,17.9467
105,701,2.04932,-17.6387,-0.0481054,0.200674,-0.0205087,0.202353,-0.0497848,-1.48909,0.154199,0.0458949,1329,323,2.04929,17.6387
112,701,1.95923,-17.0076,-0.0498202,0.218892,-0.0326764,0.222808,-0.0537366,-1.45151,0.169318,0.0437006,1336,323,1.95919,17.0076
119,701,-0.248535,-20.9254,-0.0513878,0.234192,-0.0458876,0.241384,-0.05858,-1.41533,0.183592,0.0425883,1343,323,-0.248544,20.9254
126,701,-1.13098,-21.0818,-0.053453,0.239132,-0.060378,0.251102,-0.0654229,-1.37508,0.192942,0.0452945,1350,323,-1.13104,21.0819
133,701,-1.98718,-21.2087,-0.0567408,0.228645,-0.0751367,0.247218,-0.0753141,-1.32846,0.194831,0.0476254,1357,323,-1.98718,21.2088
140,701,-2.97583,-21.0456,-0.0622003,0.205029,-0.090366,0.232718,-0.0898894,-1.27347,0.192246,0.0492174,1364,323,-2.97577,21.0456
147,701,-4.04236,-20.724,-0.0707465,0.166205,-0.105645,0.206466,-0.111008,-1.20669,0.186035,0.0483226,1371,323,-4.04234,20.724
154,701,-5.31372,-20.4939,-0.0822569,0.113709,-0.12014,0.170756,-0.139303,-1.12748,0.17932,0.0469503,1378,323,-5.31377,20.4939
161,701,-6.25854,-20.2908,0,0,0,0,0,0,0,-1,1385,323,-6.25853,20.2908
168,701,6.88513,-0.0237427,0,0,0,0,0,0,0,-1,1392,323,6.88517,0.0237498
175,701,6.94556,0.0693054,0,0,0,0,0,0,0,-1,1399,323,6.94555,-0.0692958
182,701,8.80652,5.42807,0,0,0,0,0,0,0,-1,1406,323,8.8065,-5.42808
189,701,8.58081,4.24493,0,0,0,0,0,0,0,-1,1413,323,8.58082,-4.24494
196,701,0,0,0,0,0,0,0,0,0,-1,1420,323,0,0
203,701,0,0,0,0,0,0,0,0,0,-1,1427,323,0,0
210,701,0,0,0,0,0,0,0,0,0,-1,1434,323,0,0
217,701,0,0,0,0,0,0,0,0,0,-1,1441,323,0,0
224,701,0,0,0,0,0,0,0,0,0,-1,1448,323,0,0
231,701,0,0,0,0,0,0,0,0,0,-1,1455,323,0,0
238,701,0,0,0,0,0,0,0,0,0,-1,1462,323,0,0
245,701,0,0,0,0,0,0,0,0,0,-1,1469,323,0,0
252,701,0,0,0,0,0,0,0,0,0,-1,1476,323,0,0
259,701,0,0,0,0,0,0,0,0,0,-1,1483,323,0,0
266,701,0,0,0,0,0,0,0,0,0,-1,1490,323,0,0
273,701,0,0,0,0,0,0,0,0,0,-1,1497,323,0,0
280,701,0,0,0,0,0,0,0,0,0,-1,1504,323,0,0
287,701,0,0,0,0,0,0,0,0,0,-1,1511,323,0,0
294,701,0,0,0,0,0,0,0,0,0,-1,1518,323,0,0
301,701,0,0,0,0,0,0,0,0,0,-1,1525,323,0,0
308,701,0,0,0,0,0,0,0,0,0,-1,1532,323,0,0
315,701,0,0,0,0,0,0,0,0,0,-1,1539,323,0,0
322,701,0,0,0,0,0,0,0,0,0,-1,1546,323,0,0
329,701,0,0,0,0,0,0,0,0,0,-1,1553,323,0,0
336,701,0,0,0,0,0,0,0,0,0,-1,1560,323,0,0
343,701,0,0,0,0,0,0,0,0,0,-1,1567,323,0,0
350,701,0,0,0,0,0,0,0,0,0,-1,1574,323,0,0
357,701,0,0,0,0,0,0,0,0,0,-1,1581,323,0,0
364,701,0,0,0,0,0,0,0,0,0,-1,1588,323,0,0
371,701,0,0,0,0,0,0,0,0,0,-1,1595,323,0,0
378,701,0,0,0,0,0,0,0,0,0,-1,1602,323,0,0
385,701,0,0,0,0,0,0,0,0,0,-1,1609,323,0,0
392,701,0,0,0,0,0,0,0,0,0,-1,1616,323,0,0
399,701,0,0,0,0,0,0,0,0,0,-1,1623,323,0,0
406,701,0,0,0,0,0,0,0,0,0,-1,1630,323,0,0
413,701,0,0,0,0,0,0,0,0,0,-1,1637,323,0,0
420,701,0,0,0,0,0,0,0,0,0,-1,1644,323,0,0
427,701,0,0,0,0,0,0,0,0,0,-1,1651,323,0,0
434,701,0,0,0,0,0,0,0,0,0,-1,1658,323,0,0
441,701,0,0,0,0,0,0,0,0,0,-1,1665,323,0,0
448,701,0,0,0,0,0,0,0,0,0,-1,1672,323,0,0
455,701,0,0,0,0,0,0,0,0,0,-1,1679,323,0,0
462,701,0,0,0,0,0,0,0,0,0,-1,1686,323,0,0
469,701,0,0,0,0,0,0,0,0,0,-1,1693,323,0,0
476,701,0,0,0,0,0,0,0,0,0,-1,1700,323,0,0
483,701,0,0,0,0,0,0,0,0,0,-1,1707,323,0,0
490,701,0,0,0,0,0,0,0,0,0,-1,1714,323,0,0
497,701,0,0,0,0,0,0,0,0,0,-1,1721,323,0,0
504,701,0,0,0,0,0,0,0,0,0,-1,1728,323,0,0
511,701,0,0,0,0,0,0,0,0,0,-1,1735,323,0,0
518,701,0,0,0,0,0,0,0,0,0,-1,1742,323,0,0
525,701,0,0,0,0,0,0,0,0,0,-1,1749,323,0,0
532,701,0,0,0,0,0,0,0,0,0,-1,1756,323,0,0
539,701,0,0,0,0,0,0,0,0,0,-1,1763,323,0,0
546,701,0,0,0,0,0,0,0,0,0,-1,1770,323,0,0
553,701,0,0,0,0,0,0,0,0,0,-1,1777,323,0,0
560,701,0,0,0,0,0,0,0,0,0,-1,1784,323,0,0
567,701,0,0,0,0,0,0,0,0,0,-1,1791,323,0,0
574,701,0,0,0,0,0,0,0,0,0,-1,1798,323,0,0
581,701,0,0,0,0,0,0,0,0,0,-1,1805,323,0,0
588,701,0,0,0,0,0,0,0,0,0,-1,1812,323,0,0
595,701,0,0,0,0,0,0,0,0,0,-1,1819,323,0,0
602,701,0,0,0,0,0,0,0,0,0,-1,1826,323,0,0
609,701,0,0,0,0,0,0,0,0,0,-1,1833,323,0,0
616,701,0,0,0,0,0,0,0,0,0,-1,1840,323,0,0
623,701,0,0,0,0,0,0,0,0,0,-1,1847,323,0,0
630,701,0,0,0,0,0,0,0,0,0,-1,1854,323,0,0
637,701,0,0,0,0,0,0,0,0,0,-1,1861,323,0,0
644,701,0,0,0,0,0,0,0,0,0,-1,1868,323,0,0
651,701,0,0,0,0,0,0,0,0,0,-1,1875,323,0,0
658,701,0,0,0,0,0,0,0,0,0,-1,1882,323,0,0
665,701,0,0,0,0,0,0,0,0,0,-1,1889,323,0,0
672,701,0,0,0,0,0,0,0,0,0,-1,1896,323,0,0
679,701,0,0,0,0,0,0,0,0,0,-1,1903,323,0,0
686,701,0,0,0,0,0,0,0,0,0,-1,1910,323,0,0
693,701,0,0,0,0,0,0,0,0,0,-1,1917,323,0,0
700,701,0,0,0,0,0,0,0,0,0,-1,1924,323,0,0
707,701,0,0,0,0,0,0,0,0,0,-1,1931,323,0,0
714,701,0,0,0,0,0,0,0,0,0,-1,1938,323,0,0
721,701,0,0,0,0,0,0,0,0,0,-1,1945,323,0,0
728,701,0,0,0,0,0,0,0,0,0,-1,1952,323,0,0
735,701,0,0,0,0,0,0,0,0,0,-1,1959,323,0,0
742,701,0,0,0,0,0,0,0,0,0,-1,1966,323,0,0
749,701,0,0,0,0,0,0,0,0,0,-1,1973,323,0,0
756,701,0,0,0,0,0,0,0,0,0,-1,1980,323,0,0
763,701,0,0,0,0,0,0,0,0,0,-1,1987,323,0,0
770,701,0,0,0,0,0,0,0,0,0,-1,1994,323,0,0
777,701,0,0,0,0,0,0,0,0,0,-1,2001,323,0,0
784,701,0,0,0,0,0,0,0,0,0,-1,2008,323,0,0
791,701,0,0,0,0,0,0,0,0,0,-1,2015,323,0,0
798,701,0,0,0,0,0,0,0,0,0,-1,2022,323,0,0
805,701,0,0,0,0,0,0,0,0,0,-1,2029,323,0,0
812,701,0,0,0,0,0,0,0,0,0,-1,2036,323,0,0
-700,694,0,0,0,0,0,0,0,0,0,-1,524,330,0,0
-693,694,0,0,0,0,0,0,0,0,0,-1,531,330,0,0
-686,694,0,0,0,0,0,0,0,0,0,-1,538,330,0,0
-679,694,0,0,0,0,0,0,0,0,0,-1,545,330,0,0
-672,694,0,0,0,0,0,0,0,0,0,-1,552,330,0,0
-665,694,0,0,0,0,0,0,0,0,0,-1,559,330,0,0
-658,694,0,0,0,0,0,0,0,0,0,-1,566,330,0,0
-651,694,0,0,0,0,0,0,0,0,0,-1,573,330,0,0
-644,694,0,0,0,0,0,0,0,0,0,-1,580,330,0,0
-637,694,0,0,0,0,0,0,0,0,0,-1,587,330,0,0
-630,694,0,0,0,0,0,0,0,0,0,-1,594,330,0,0
-623,694,0,0,0,0,0,0,0,0,0,-1,601,330,0,0
-616,694,0,0,0,0,0,0,0,0,0,-1,608,330,0,0
-609,694,0,0,0,0,0,0,0,0,0,-1,615,330,0,0
-602,694,0,0,0,0,0,0,0,0,0,-1,622,330,0,0
-595,694,0,0,0,0,0,0,0,0,0,-1,629,330,0,0
-588,694,0,0,0,0,0,0,0,0,0,-1,636,330,0,0
-581,694,0,0,0,0,0,0,0,0,0,-1,643,330,0,0
-574,694,0,0,0,0,0,0,0,0,0,-1,650,330,0,0
-567,694,0,0,0,0,0,0,0,0,0,-1,657,330,0,0
-560,694,0,0,0,0,0,0,0,0,0,-1,664,330,0,0
-553,694,0,0,0,0,0,0,0,0,0,-1,671,330,0,0
-546,694,0,0,0,0,0,0,0,0,0,-1,678,330,0,0
-539,694,0,0,0,0,0,0,0,0,0,-1,685,330,0,0
-532,694,0,0,0,0,0,0,0,0,0,-1,692,330,0,0
-525,694,0,0,0,0,0,0,0,0,0,-1,699,330,0,0
-518,694,0,0,0,0,0,0,0,0,0,-1,706,330,0,0
-511,694,0,0,0,0,0,0,0,0,0,-1,713,330,0,0
-504,694,0,0,0,0,0,0,0,0,0,-1,720,330,0,0
-497,694,0,0,0,0,0,0,0,0,0,-1,727,330,0,0
-490,694,0,0,0,0,0,0,0,0,0,-1,734,330,0,0
-483,694,0,0,0,0,0,0,0,0,0,-1,741,330,0,0
-476,694,0,0,0,0,0,0,0,0,0,-1,748,330,0,0
-469,694,0,0,0,0,0,0,0,0,0,-1,755,330,0,0
-462,694,0,0,0,0,0,0,0,0,0,-1,762,330,0,0
-455,694,0,0,0,0,0,0,0,0,0,-1,769,330,0,0
-448,694,0,0,0,0,0,0,0,0,0,-1,776,330,0,0
-441,694,0,0,0,0,0,0,0,0,0,-1,783,330,0,0
-434,694,0,0,0,0,0,0,0,0,0,-1,790,330,0,0
-427,694,0,0,0,0,0,0,0,0,0,-1,797,330,0,0
-420,694,0,0,0,0,0,0,0,0,0,-1,804,330,0,0
-413,694,0,0,0,0,0,0,0,0,0,-1,811,330,0,0
-406,694,0,0,0,0,0,0,0,0,0,-1,818,330,0,0
-399,694,0,0,0,0,0,0,0,0,0,-1,825,330,0,0
-392,694,0,0,0,0,0,0,0,0,0,-1,832,330,0,0
-385,694,0,0,0,0,0,0,0,0,0,-1,839,330,0,0
-378,694,0,0,0,0,0,0,0,0,0,-1,846,330,0,0
-371,694,0,0,0,0,0,0,0,0,0,-1,853,330,0,0
-364,694,0,0,0,0,0,0,0,0,0,-1,860,330,0,0
-357,694,0,0,0,0,0,0,0,0,0,-1,867,330,0,0
-350,694,0,0,0,0,0,0,0,0,0,-1,874,330,0,0
-343,694,0,0,0,0,0,0,0,0,0,-1,881,330,0,0
-336,694,0,0,0,0,0,0,0,0,0,-1,888,330,0,0
-329,694,0,0,0,0,0,0,0,0,0,-1,895,330,0,0
-322,694,0,0,0,0,0,0,0,0,0,-1,902,330,0,0
-315,694,0,0,0,0,0,0,0,0,0,-1,909,330,0,0
-308,694,0,0,0,0,0,0,0,0,0,-1,916,330,0,0
-301,694,0,0,0,0,0,0,0,0,0,-1,923,330,0,0
-294,694,0,0,0,0,0,0,0,0,0,-1,930,330,0,0
-287,694,0,0,0,0,0,0,0,0,0,-1,937,330,0,0
-280,694,0,0,0,0,0,0,0,0,0,-1,944,330,0,0
-273,694,0,0,0,0,0,0,0,0,0,-1,951,330,0,0
-266,694,0,0,0,0,0,0,0,0,0,-1,958,330,0,0
-259,694,0,0,0,0,0,0,0,0,0,-1,965,330,0,0
-252,694,0,0,0,0,0,0,0,0,0,-1,972,330,0,0
-245,694,0,0,0,0,0,0,0,0,0,-1,979,330,0,0
-238,694,0,0,0,0,0,0,0,0,0,-1,986,330,0,0
-231,694,0,0,0,0,0,0,0,0,0,-1,993,330,0,0
-224,694,0,0,0,0,0,0,0,0,0,-1,1000,330,0,0
-217,694,0,0,0,0,0,0,0,0,0,-1,1007,330,0,0
-210,694,0,0,0,0,0,0,0,0,0,-1,1014,330,0,0
-203,694,0,0,0,0,0,0,0,0,0,-1,1021,330,0,0
-196,694,0,0,0,0,0,0,0,0,0,-1,1028,330,0,0
-189,694,0,0,0,0,0,0,0,0,0,-1,1035,330,0,0
-182,694,0,0,0,0,0,0,0,0,0,-1,1042,330,0,0
-175,694,0,0,0,0,0,0,0,0,0,-1,1049,330,0,0
-168,694,0,0,0,0,0,0,0,0,0,-1,1056,330,0,0
-161,694,0,0,0,0,0,0,0,0,0,-1,1063,330,0,0
-154,694,0,0,0,0,0,0,0,0,0,-1,1070,330,0,0
-147,694,0,0,0,0,0,0,0,0,0,-1,1077,330,0,0
-140,694,0,0,0,0,0,0,0,0,0,-1,1084,330,0,0
-133,694,0,0,0,0,0,0,0,0,0,-1,1091,330,0,0
-126,694,0,0,0,0,0,0,0,0,0,-1,1098,330,0,0
-119,694,0,0,0,0,0,0,0,0,0,-1,1105,330,0,0
-112,694,0,0,0,0,0,0,0,0,0,-1,1112,330,0,0
-105,694,2.5188,-19.3963,0,0,0,0,0,0,0,-1,1119,330,2.51882,19.3963
-98,694,1.34875,-10.1051,0,0,0,0,0,0,0,-1,1126,330,1.34874,10.1051
-91,694,1.35474,-9.22229,0,0,0,0,0,0,0,-1,1133,330,1.35476,9.22229
-84,694,-4.39136,-4.62332,0,0,0,0,0,0,0,-1,1140,330,-4.3914,4.62331
-77,694,-4.93396,-10.2672,0,0,0,0,0,0,0,-1,1147,330,-4.9339,10.2672
-70,694,-6.49402,-10.0714,0,0,0,0,0,0,0,-1,1154,330,-6.49399,10.0714
-63,694,-5.80835,-4.75275,0,0,0,0,0,0,0,-1,1161,330,-5.80834,4.75274
-56,694,-6.50623,-0.649139,0,0,0,0,0,0,0,-1,1168,330,-6.5062,0.649126
-49,694,-1.11426,0.0341797,0,0,0,0,0,0,0,-1,1175,330,-1.11424,-0.0341846
-42,694,-0.346313,-0.709595,0,0,0,0,0,0,0,-1,1182,330,-0.346298,0.709581
-35,694,-0.459106,-1.24713,0,0,0,0,0,0,0,-1,1189,330,-0.459142,1.24714
-28,694,-6.48413,-3.95972,0,0,0,0,0,0,0,-1,1196,330,-6.48414,3.9597
-21,694,4.61853,-20.3878,0,0,0,0,0,0,0,-1,1203,330,4.61854,20.3878
-14,694,4.50635,-20.1936,0.00902596,0.0565047,-0.0277258,0.0692657,-0.00373505,-1.13944,0.0474711,0.0498625,1210,330,4.50635,20.1936
-7,694,4.37402,-19.9198,0.00392041,0.0461202,-0.023376,0.0565107,-0.0064701,-1.15253,0.0400053,0.0436701,1217,330,4.37408,19.9198
0,694,4.02051,-19.7928,-0.000219517,0.0402506,-0.016722,0.046266,-0.00623487,-1.22548,0.0331185,0.0463475,1224,330,4.02045,19.7928
7,694,3.80786,-19.9416,-0.00316558,0.0385261,-0.00897588,0.0403764,-0.00501589,-1.3675,0.0287359,0.0449717,1231,330,3.80782,19.9416
14,694,3.78394,-20.243,-0.00608392,0.0382795,-0.00100223,0.0383021,-0.00610655,-1.54822,0.0277948,0.0453494,1238,330,3.78388,20.243
21,694,3.58289,-20.356,-0.00910614,0.0406314,0.00662718,0.0414993,-0.00997402,1.44058,0.0315214,0.0451448,1245,330,3.58287,20.3559
28,694,3.30127,-19.732,0,0,0,0,0,0,0,-1,1252,330,3.30129,19.732
35,694,3.0802,-20.1913,0,0,0,0,0,0,0,-1,1259,330,3.08017,20.1914
42,694,3.4303,-19.9385,-0.018231,0.0527203,0.023639,0.0598747,-0.0253854,1.27691,0.0505496,0.0493002,1266,330,3.43025,19.9385
49,694,3.7041,-19.6863,-0.0216178,0.0565402,0.0259476,0.0643701,-0.0294478,1.27773,0.0554025,0.0490596,1273,330,3.70407,19.6863
56,694,4.63806,-18.3629,-0.0239421,0.0632023,0.0263273,0.0705384,-0.0312782,1.29904,0.060223,0.045942,1280,330,4.63806,18.3629
63,694,4.55701,-18.2527,-0.0274525,0.0679458,0.0261124,0.0746255,-0.0341322,1.32036,0.0642257,0.044116,1287,330,4.55697,18.2527
70,694,4.41089,-18.3273,-0.0302885,0.0815323,0.0232959,0.0861915,-0.0349477,1.3734,0.0719954,0.0435411,1294,330,4.41086,18.3273
77,694,4.28357,-18.3565,-0.0332414,0.1075,0.0188513,0.109982,-0.0357226,1.43993,0.0876886,0.0478874,1301,330,4.28351,18.3565
84,694,4.15552,-18.3778,0,0,0,0,0,0,0,-1,1308,330,4.15556,18.3778
91,694,2.69055,-18.7005,-0.0358336,0.133118,0.00242154,0.133152,-0.0358683,1.55647,0.102831,0.047694,1315,330,2.69055,18.7005
98,694,2.22083,-18.5785,-0.0378717,0.143431,-0.00830064,0.14381,-0.038251,-1.52514,0.110846,0.0470975,1322,330,2.2208,18.5785
105,694,1.89771,-18.8936,-0.0403044,0.155188,-0.0177477,0.156786,-0.0419025,-1.48099,0.120936,0.0440106,1329,330,1.89766,18.8936
112,694,1.55896,-20.3578,0,0,0,0,0,0,0,-1,1336,330,1.55893,20.3578
119,694,0.934937,-20.3423,0,0,0,0,0,0,0,-1,1343,330,0.934877,20.3423
126,694,0.780273,-20.0181,0,0,0,0,0,0,0,-1,1350,330,0.780297,20.0181
133,694,-0.758789,-20.6508,-0.0457885,0.171291,-0.0603874,0.186958,-0.0614563,-1.31694,0.149399,0.047361,1357,330,-0.758775,20.6508
140,694,-0.0788574,-17.857,-0.0490876,0.15396,-0.0715003,0.176611,-0.0717386,-1.264,0.147585,0.0461112,1364,330,-0.0788689,17.857
147,694,-2.75171,-20.5345,-0.0544182,0.127846,-0.0823307,0.159529,-0.0861006,-1.20345,0.143911,0.0440445,1371,330,-2.75176,20.5345
154,694,-3.64319,-20.4622,-0.0616889,0.0956544,-0.0923887,0.138329,-0.104363,-1.13809,0.140575,0.0478695,1378,330,-3.64316,20.4622
161,694,-4.43298,-20.3649,0,0,0,0,0,0,0,-1,1385,330,-4.43294,20.3649
168,694,6.77161,1.01288,0,0,0,0,0,0,0,-1,1392,330,6.77156,-1.01287
175,694,6.72839,0.473175,0,0,0,0,0,0,0,-1,1399,330,6.72838,-0.473182
182,694,8.29028,5.75238,0,0,0,0,0,0,0,-1,1406,330,8.29034,-5.75237
189,694,7.9801,4.46118,0,0,0,0,0,0,0,-1,1413,330,7.9801,-4.46118
196,694,7.39331,3.32632,0,0,0,0,0,0,0,-1,1420,330,7.39329,-3.32633
203,694,7.04492,2.20529,0,0,0,0,0,0,0,-1,1427,330,7.04496,-2.20529
210,694,6.44714,0.646912,0,0,0,0,0,0,0,-1,1434,330,6.44717,-0.646903
217,694,7.12061,-0.644958,0,0,0,0,0,0,0,-1,1441,330,7.12059,0.644961
224,694,6.74011,-1.70544,0,0,0,0,0,0,0,-1,1448,330,6.74013,1.70546
231,694,0,0,0,0,0,0,0,0,0,-1,1455,330,0,0
238,694,0,0,0,0,0,0,0,0,0,-1,1462,330,0,0
245,694,0,0,0,0,0,0,0,0,0,-1,1469,330,0,0
252,694,0,0,0,0,0,0,0,0,0,-1,1476,330,0,0
259,694,0,0,0,0,0,0,0,0,0,-1,1483,330,0,0
266,694,0,0,0,0,0,0,0,0,0,-1,1490,330,0,0
273,694,0,0,0,0,0,0,0,0,0,-1,1497,330,0,0
280,694,0,0,0,0,0,0,0,0,0,-1,1504,330,0,0
287,694,0,0,0,0,0,0,0,0,0,-1,1511,330,0,0
294,694,0,0,0,0,0,0,0,0,0,-1,1518,330,0,0
301,694,0,0,0,0,0,0,0,0,0,-1,1525,330,0,0
308,694,0,0,0,0,0,0,0,0,0,-1,1532,330,0,0
315,694,0,0,0,0,0,0,0,0,0,-1,1539,330,0,0
322,694,0,0,0,0,0,0,0,0,0,-1,1546,330,0,0
329,694,0,0,0,0,0,0,0,0,0,-1,1553,330,0,0
336,694,0,0,0,0,0,0,0,0,0,-1,1560,330,0,0
343,694,0,0,0,0,0,0,0,0,0,-1,1567,330,0,0
350,694,0,0,0,0,0,0,0,0,0,-1,1574,330,0,0
357,694,0,0,0,0,0,0,0,0,0,-1,1581,330,0,0
364,694,0,0,0,0,0,0,0,0,0,-1,1588,330,0,0
371,694,0,0,0,0,0,0,0,0,0,-1,1595,330,0,0
378,694,0,0,0,0,0,0,0,0,0,-1,1602,330,0,0
385,694,0,0,0,0,0,0,0,0,0,-1,1609,330,0,0
392,694,0,0,0,0,0,0,0,0,0,-1,1616,330,0,0
399,694,0,0,0,0,0,0,0,0,0,-1,1623,330,0,0
406,694,0,0,0,0,0,0,0,0,0,-1,1630,330,0,0
413,694,0,0,0,0,0,0,0,0,0,-1,1637,330,0,0
420,694,0,0,0,0,0,0,0,0,0,-1,1644,330,0,0
427,694,0,0,0,0,0,0,0,0,0,-1,1651,330,0,0
434,694,0,0,0,0,0,0,0,0,0,-1,1658,330,0,0
441,694,0,0,0,0,0,0,0,0,0,-1,1665,330,0,0
448,694,0,0,0,0,0,0,0,0,0,-1,1672,330,0,0
455,694,0,0,0,0,0,0,0,0,0,-1,1679,330,0,0
462,694,0,0,0,0,0,0,0,0,0,-1,1686,330,0,0
469,694,0,0,0,0,0,0,0,0,0,-1,1693,330,0,0
476,694,0,0,0,0,0,0,0,0,0,-1,1700,330,0,0
483,694,0,0,0,0,0,0,0,0,0,-1,1707,330,0,0
490,694,0,0,0,0,0,0,0,0,0,-1,1714,330,0,0
497,694,0,0,0,0,0,0,0,0,0,-1,1721,330,0,0
504,694,0,0,0,0,0,0,0,0,0,-1,1728,330,0,0
511,694,0,0,0,0,0,0,0,0,0,-1,1735,330,0,0
518,694,0,0,0,0,0,0,0,0,0,-1,1742,330,0,0
525,694,0,0,0,0,0,0,0,0,0,-1,1749,330,0,0
532,694,0,0,0,0,0,0,0,0,0,-1,1756,330,0,0
539,694,0,0,0,0,0,0,0,0,0,-1,1763,330,0,0
546,694,0,0,0,0,0,0,0,0,0,-1,1770,330,0,0
553,694,0,0,0,0,0,0,0,0,0,-1,1777,330,0,0
560,694,0,0,0,0,0,0,0,0,0,-1,1784,330,0,0
567,694,0,0,0,0,0,0,0,0,0,-1,1791,330,0,0
574,694,0,0,0,0,0,0,0,0,0,-1,1798,330,0,0
581,694,0,0,0,0,0,0,0,0,0,-1,1805,330,0,0
588,694,0,0,0,0,0,0,0,0,0,-1,1812,330,0,0
595,694,0,0,0,0,0,0,0,0,0,-1,1819,330,0,0
602,694,0,0,0,0,0,0,0,0,0,-1,1826,330,0,0
609,694,0,0,0,0,0,0,0,0,0,-1,1833,330,0,0
616,694,0,0,0,0,0,0,0,0,0,-1,1840,330,0,0
623,694,0,0,0,0,0,0,0,0,0,-1,1847,330,0,0
630,694,0,0,0,0,0,0,0,0,0,-1,1854,330,0,0
637,694,0,0,0,0,0,0,0,0,0,-1,1861,330,0,0
644,694,0,0,0,0,0,0,0,0,0,-1,1868,330,0,0
651,694,0,0,0,0,0,0,0,0,0,-1,1875,330,0,0
658,694,0,0,0,0,0,0,0,0,0,-1,1882,330,0,0
665,694,0,0,0,0,0,0,0,0,0,-1,1889,330,0,0
672,694,0,0,0,0,0,0,0,0,0,-1,1896,330,0,0
679,694,0,0,0,0,0,0,0,0,0,-1,1903,330,0,0
686,694,0,0,0,0,0,0,0,0,0,-1,1910,330,0,0
693,694,0,0,0,0,0,0,0,0,0,-1,1917,330,0,0
700,694,0,0,0,0,0,0,0,0,0,-1,1924,330,0,0
707,694,0,0,0,0,0,0,0,0,0,-1,1931,330,0,0
714,694,0,0,0,0,0,0,0,0,0,-1,1938,330,0,0
721,694,0,0,0,0,0,0,0,0,0,-1,1945,330,0,0
728,694,0,0,0,0,0,0,0,0,0,-1,1952,330,0,0
735,694,0,0,0,0,0,0,0,0,0,-1,1959,330,0,0
742,694,0,0,0,0,0,0,0,0,0,-1,1966,330,0,0
749,694,0,0,0,0,0,0,0,0,0,-1,1973,330,0,0
756,694,0,0,0,0,0,0,0,0,0,-1,1980,330,0,0
763,694,0,0,0,0,0,0,0,0,0,-1,1987,330,0,0
770,694,0,0,0,0,0,0,0,0,0,-1,1994,330,0,0
777,694,0,0,0,0,0,0,0,0,0,-1,2001,330,0,0
784,694,0,0,0,0,0,0,0,0,0,-1,2008,330,0,0
791,694,0,0,0,0,0,0,0,0,0,-1,2015,330,0,0
798,694,0,0,0,0,0,0,0,0,0,-1,2022,330,0,0
805,694,0,0,0,0,0,0,0,0,0,-1,2029,330,0,0
812,694,0,0,0,0,0,0,0,0,0,-1,2036,330,0,0
-700,687,0,0,0,0,0,0,0,0,0,-1,524,337,0,0
-693,687,0,0,0,0,0,0,0,0,0,-1,531,337,0,0
-686,687,0,0,0,0,0,0,0,0,0,-1,538,337,0,0
-679,687,0,0,0,0,0,0,0,0,0,-1,545,337,0,0
-672,687,0,0,0,0,0,0,0,0,0,-1,552,337,0,0
-665,687,0,0,0,0,0,0,0,0,0,-1,559,337,0,0
-658,687,0,0,0,0,0,0,0,0,0,-1,566,337,0,0
-651,687,0,0,0,0,0,0,0,0,0,-1,573,337,0,0
-644,687,0,0,0,0,0,0,0,0,0,-1,580,337,0,0
-637,687,0,0,0,0,0,0,0,0,0,-1,587,337,0,0
-630,687,0,0,0,0,0,0,0,0,0,-1,594,337,0,0
-623,687,0,0,0,0,0,0,0,0,0,-1,601,337,0,0
-616,687,0,0,0,0,0,0,0,0,0,-1,608,337,0,0
-609,687,0,0,0,0,0,0,0,0,0,-1,615,337,0,0
-602,687,0,0,0,0,0,0,0,0,0,-1,622,337,0,0
-595,687,0,0,0,0,0,0,0,0,0,-1,629,337,0,0
-588,687,0,0,0,0,0,0,0,0,0,-1,636,337,0,0
-581,687,0,0,0,0,0,0,0,0,0,-1,643,337,0,0
-574,687,0,0,0,0,0,0,0,0,0,-1,650,337,0,0
-567,687,0,0,0,0,0,0,0,0,0,-1,657,337,0,0
-560,687,0,0,0,0,0,0,0,0,0,-1,664,337,0,0
-553,687,0,0,0,0,0,0,0,0,0,-1,671,337,0,0
-546,687,0,0,0,0,0,0,0,0,0,-1,678,337,0,0
-539,687,0,0,0,0,0,0,0,0,0,-1,685,337,0,0
-532,687,0,0,0,0,0,0,0,0,0,-1,692,337,0,0
-525,687,0,0,0,0,0,0,0,0,0,-1,699,337,0,0
-518,687,0,0,0,0,0,0,0,0,0,-1,706,337,0,0
-511,687,0,0,0,0,0,0,0,0,0,-1,713,337,0,0
-504,687,0,0,0,0,0,0,0,0,0,-1,720,337,0,0
-497,687,0,0,0,0,0,0,0,0,0,-1,727,337,0,0
-490,687,0,0,0,0,0,0,0,0,0,-1,734,337,0,0
-483,687,0,0,0,0,0,0,0,0,0,-1,741,337,0,0
-476,687,0,0,0,0,0,0,0,0,0,-1,748,337,0,0
-469,687,0,0,0,0,0,0,0,0,0,-1,755,337,0,0
-462,687,0,0,0,0,0,0,0,0,0,-1,762,337,0,0
-455,687,0,0,0,0,0,0,0,0,0,-1,769,337,0,0
-448,687,0,0,0,0,0,0,0,0,0,-1,776,337,0,0
-441,687,0,0,0,0,0,0,0,0,0,-1,783,337,0,0
-434,687,0,0,0,0,0,0,0,0,0,-1,790,337,0,0
-427,687,0,0,0,0,0,0,0,0,0,-1,797,337,0,0
-420,687,0,0,0,0,0,0,0,0,0,-1,804,337,0,0
-413,687,0,0,0,0,0,0,0,0,0,-1,811,337,0,0
-406,687,0,0,0,0,0,0,0,0,0,-1,818,337,0,0
-399,687,0,0,0,0,0,0,0,0,0,-1,825,337,0,0
-392,687,0,0,0,0,0,0,0,0,0,-1,832,337,0,0
-385,687,0,0,0,0,0,0,0,0,0,-1,839,337,0,0
-378,687,0,0,0,0,0,0,0,0,0,-1,846,337,0,0
-371,687,0,0,0,0,0,0,0,0,0,-1,853,337,0,0
-364,687,0,0,0,0,0,0,0,0,0,-1,860,337,0,0
-357,687,0,0,0,0,0,0,0,0,0,-1,867,337,0,0
-350,687,0,0,0,0,0,0,0,0,0,-1,874,337,0,0
-343,687,0,0,0,0,0,0,0,0,0,-1,881,337,0,0
-336,687,0,0,0,0,0,0,0,0,0,-1,888,337,0,0
-329,687,0,0,0,0,0,0,0,0,0,-1,895,337,0,0
-322,687,0,0,0,0,0,0,0,0,0,-1,902,337,0,0
-315,687,0,0,0,0,0,0,0,0,0,-1,909,337,0,0
-308,687,0,0,0,0,0,0,0,0,0,-1,916,337,0,0
-301,687,0,0,0,0,0,0,0,0,0,-1,923,337,0,0
-294,687,0,0,0,0,0,0,0,0,0,-1,930,337,0,0
-287,687,0,0,0,0,0,0,0,0,0,-1,937,337,0,0
-280,687,0,0,0,0,0,0,0,0,0,-1,944,337,0,0
-273,687,0,0,0,0,0,0,0,0,0,-1,951,337,0,0
-266,687,0,0,0,0,0,0,0,0,0,-1,958,337,0,0
-259,687,0,0,0,0,0,0,0,0,0,-1,965,337,0,0
-252,687,0,0,0,0,0,0,0,0,0,-1,972,337,0,0
-245,687,0,0,0,0,0,0,0,0,0,-1,979,337,0,0
-238,687,0,0,0,0,0,0,0,0,0,-1,986,337,0,0
-231,687,0,0,0,0,0,0,0,0,0,-1,993,337,0,0
-224,687,0,0,0,0,0,0,0,0,0,-1,1000,337,0,0
-217,687,0,0,0,0,0,0,0,0,0,-1,1007,337,0,0
-210,687,0,0,0,0,0,0,0,0,0,-1,1014,337,0,0
-203,687,0,0,0,0,0,0,0,0,0,-1,1021,337,0,0
-196,687,0,0,0,0,0,0,0,0,0,-1,1028,337,0,0
-189,687,0,0,0,0,0,0,0,0,0,-1,1035,337,0,0
-182,687,0,0,0,0,0,0,0,0,0,-1,1042,337,0,0
-175,687,0,0,0,0,0,0,0,0,0,-1,1049,337,0,0
-168,687,0,0,0,0,0,0,0,0,0,-1,1056,337,0,0
-161,687,0,0,0,0,0,0,0,0,0,-1,1063,337,0,0
-154,687,0,0,0,0,0,0,0,0,0,-1,1070,337,0,0
-147,687,0,0,0,0,0,0,0,0,0,-1,1077,337,0,0
-140,687,0,0,0,0,0,0,0,0,0,-1,1084,337,0,0
-133,687,2.16895,-19.4911,0,0,0,0,0,0,0,-1,1091,337,2.16889,19.4911
-126,687,3.54932,-20.9862,0,0,0,0,0,0,0,-1,1098,337,3.54935,20.9862
-119,687,3.22107,-18.9146,0,0,0,0,0,0,0,-1,1105,337,3.22101,18.9146
-112,687,3.47534,-17.9837,0,0,0,0,0,0,0,-1,1112,337,3.47529,17.9837
-105,687,3.57935,-16.7483,0,0,0,0,0,0,0,-1,1119,337,3.57937,16.7483
-98,687,3.33679,-15.4141,0,0,0,0,0,0,0,-1,1126,337,3.33683,15.4141
-91,687,2.28162,-7.72437,0,0,0,0,0,0,0,-1,1133,337,2.28167,7.72437
-84,687,-0.867676,-5.7392,0,0,0,0,0,0,0,-1,1140,337,-0.867619,5.73919
-77,687,-3.63806,-12.9185,0,0,0,0,0,0,0,-1,1147,337,-3.6381,12.9185
-70,687,-6.24756,-13.2618,0,0,0,0,0,0,0,-1,1154,337,-6.24752,13.2618
-63,687,-8.37585,-12.8959,0,0,0,0,0,0,0,-1,1161,337,-8.3758,12.8959
-56,687,-12.91,-10.9161,0,0,0,0,0,0,0,-1,1168,337,-12.91,10.9161
-49,687,-15.6449,-9.94391,0,0,0,0,0,0,0,-1,1175,337,-15.6449,9.94392
-42,687,-4.2019,-0.405609,0,0,0,0,0,0,0,-1,1182,337,-4.20192,0.405614
-35,687,-4.42273,-0.688171,0,0,0,0,0,0,0,-1,1189,337,-4.42276,0.688178
-28,687,-1.14038,-1.39072,0,0,0,0,0,0,0,-1,1196,337,-1.14035,1.3907
-21,687,5.00366,-21.0205,0,0,0,0,0,0,0,-1,1203,337,5.00363,21.0205
-14,687,4.86072,-20.8726,0.0017762,0.0433078,-0.0193947,0.0509563,-0.00587228,-1.19516,0.0360879,0.0469935,1210,337,4.86076,20.8726
-7,687,4.65271,-20.6507,-0.0014679,0.0370715,-0.0157319,0.0426778,-0.00707419,-1.22846,0.0310795,0.043883,1217,337,4.65272,20.6507
0,687,4.3916,-19.6425,-0.00394488,0.0330756,-0.0106977,0.0359445,-0.00681383,-1.30878,0.0265276,0.0493655,1224,337,4.39157,19.6425
7,687,4.14124,-19.9083,-0.00551109,0.0319882,-0.00486794,0.0326098,-0.00613271,-1.44379,0.0240462,0.0484466,1231,337,4.14118,19.9083
14,687,3.84985,-20.0388,-0.00701045,0.0319842,0.00118657,0.0320203,-0.00704652,1.5404,0.0240424,0.046281,1238,337,3.8498,20.0388
21,687,3.52844,-19.8637,-0.00864249,0.0341684,0.00707492,0.0353073,-0.00978139,1.41119,0.0273872,0.0459375,1245,337,3.52843,19.8637
28,687,3.24939,-19.7538,-0.0103507,0.0378805,0.0121595,0.0407726,-0.0132428,1.33729,0.0325079,0.0486051,1252,337,3.24944,19.7538
35,687,3.18567,-19.6948,0,0,0,0,0,0,0,-1,1259,337,3.18562,19.6948
42,687,2.91968,-20.4482,-0.0142131,0.0443481,0.0201197,0.0505944,-0.0204594,1.26978,0.0422348,0.0495936,1266,337,2.9197,20.4482
49,687,3.35486,-19.9862,-0.016643,0.0473478,0.0217155,0.0540211,-0.0233163,1.27265,0.0458088,0.0494131,1273,337,3.35481,19.9862
56,687,3.4054,-19.8154,-0.0184152,0.0529382,0.0218405,0.0590925,-0.0245695,1.29613,0.0496542,0.0483542,1280,337,3.40536,19.8154
63,687,3.81189,-19.5688,0,0,0,0,0,0,0,-1,1287,337,3.81185,19.5688
70,687,4.09656,-18.757,-0.0236781,0.0670321,0.0188272,0.0707845,-0.0274305,1.37407,0.058517,0.0403075,1294,337,4.09654,18.757
77,687,3.93469,-18.7423,-0.0264083,0.0861987,0.0150429,0.0881736,-0.0283832,1.44026,0.0701834,0.0448536,1301,337,3.93467,18.7423
84,687,3.38257,-19.3083,0,0,0,0,0,0,0,-1,1308,337,3.38253,19.3083
91,687,2.5011,-19.3192,0,0,0,0,0,0,0,-1,1315,337,2.50114,19.3192
98,687,3.00977,-20.4801,0,0,0,0,0,0,0,-1,1322,337,3.00977,20.4801
105,687,2.57227,-20.4791,-0.0329316,0.118041,-0.0149841,0.119514,-0.0344044,-1.47282,0.0932837,0.0455375,1329,337,2.57232,20.4791
112,687,2.17798,-20.3116,0,0,0,0,0,0,0,-1,1336,337,2.17804,20.3116
119,687,1.79944,-20.1463,-0.0347326,0.132252,-0.0309783,0.137813,-0.0402943,-1.39315,0.107846,0.0435199,1343,337,1.79942,20.1463
126,687,1.3645,-19.972,-0.0352591,0.132967,-0.0395103,0.141784,-0.0440765,-1.35123,0.112141,0.044756,1350,337,1.36451,19.972
133,687,0.9021,-19.7818,0,0,0,0,0,0,0,-1,1357,337,0.902104,19.7818
140,687,0.549927,-18.8856,-0.0378939,0.114352,-0.0555879,0.132488,-0.0560298,-1.25543,0.111785,0.0475689,1364,337,0.549879,18.8856
147,687,0.30603,-18.5055,-0.0409993,0.0971713,-0.063103,0.121653,-0.0654809,-1.20071,0.109652,0.0477213,1371,337,0.306051,18.5055
154,687,2.27222,-19.3331,0,0,0,0,0,0,0,-1,1378,337,2.27223,19.3331
161,687,2.44641,-15.2103,0,0,0,0,0,0,0,-1,1385,337,2.44636,15.2103
168,687,6.66968,1.37039,0,0,0,0,0,0,0,-1,1392,337,6.6697,-1.37039
175,687,6.64075,0.771606,0,0,0,0,0,0,0,-1,1399,337,6.64073,-0.771595
182,687,6.67249,0.289917,0,0,0,0,0,0,0,-1,1406,337,6.67247,-0.289916
189,687,7.76062,4.53635,0,0,0,0,0,0,0,-1,1413,337,7.76064,-4.53636
196,687,6.99048,3.2966,0,0,0,0,0,0,0,-1,1420,337,6.99046,-3.2966
203,687,6.36499,2.1445,0,0,0,0,0,0,0,-1,1427,337,6.36499,-2.14451
210,687,6.68066,0.674652,0,0,0,0,0,0,0,-1,1434,337,6.68062,-0.674655
217,687,5.99683,-0.630493,0,0,0,0,0,0,0,-1,1441,337,5.99684,0.630497
224,687,5.52917,0.524902,0,0,0,0,0,0,0,-1,1448,337,5.5292,-0.524915
231,687,5.85583,-1.73651,0,0,0,0,0,0,0,-1,1455,337,5.85577,1.73651
238,687,5.96582,-2.96774,0,0,0,0,0,0,0,-1,1462,337,5.96577,2.96773
245,687,1.28259,2.32211,0,0,0,0,0,0,0,-1,1469,337,1.28258,-2.32211
252,687,1.97278,3.88422,0,0,0,0,0,0,0,-1,1476,337,1.97281,-3.88421
259,687,0,0,0,0,0,0,0,0,0,-1,1483,337,0,0
266,687,0,0,0,0,0,0,0,0,0,-1,1490,337,0,0
273,687,0,0,0,0,0,0,0,0,0,-1,1497,337,0,0
280,687,0,0,0,0,0,0,0,0,0,-1,1504,337,0,0
287,687,0,0,0,0,0,0,0,0,0,-1,1511,337,0,0
294,687,0,0,0,0,0,0,0,0,0,-1,1518,337,0,0
301,687,0,0,0,0,0,0,0,0,0,-1,1525,337,0,0
308,687,0,0,0,0,0,0,0,0,0,-1,1532,337,0,0
315,687,0,0,0,0,0,0,0,0,0,-1,1539,337,0,0
322,687,0,0,0,0,0,0,0,0,0,-1,1546,337,0,0
329,687,0,0,0,0,0,0,0,0,0,-1,1553,337,0,0
336,687,0,0,0,0,0,0,0,0,0,-1,1560,337,0,0
343,687,0,0,0,0,0,0,0,0,0,-1,1567,337,0,0
350,687,0,0,0,0,0,0,0,0,0,-1,1574,337,0,0
357,687,0,0,0,0,0,0,0,0,0,-1,1581,337,0,0
364,687,0,0,0,0,0,0,0,0,0,-1,1588,337,0,0
371,687,0,0,0,0,0,0,0,0,0,-1,1595,337,0,0
378,687,0,0,0,0,0,0,0,0,0,-1,1602,337,0,0
385,687,0,0,0,0,0,0,0,0,0,-1,1609,337,0,0
392,687,0,0,0,0,0,0,0,0,0,-1,1616,337,0,0
399,687,0,0,0,0,0,0,0,0,0,-1,1623,337,0,0
406,687,0,0,0,0,0,0,0,0,0,-1,1630,337,0,0
413,687,0,0,0,0,0,0,0,0,0,-1,1637,337,0,0
420,687,0,0,0,0,0,0,0,0,0,-1,1644,337,0,0
427,687,0,0,0,0,0,0,0,0,0,-1,1651,337,0,0
434,687,0,0,0,0,0,0,0,0,0,-1,1658,337,0,0
441,687,0,0,0,0,0,0,0,0,0,-1,1665,337,0,0
448,687,0,0,0,0,0,0,0,0,0,-1,1672,337,0,0
455,687,0,0,0,0,0,0,0,0,0,-1,1679,337,0,0
462,687,0,0,0,0,0,0,0,0,0,-1,1686,337,0,0
469,687,0,0,0,0,0,0,0,0,0,-1,1693,337,0,0
476,687,0,0,0,0,0,0,0,0,0,-1,1700,337,0,0
483,687,0,0,0,0,0,0,0,0,0,-1,1707,337,0,0
490,687,0,0,0,0,0,0,0,0,0,-1,1714,337,0,0
497,687,0,0,0,0,0,0,0,0,0,-1,1721,337,0,0
504,687,0,0,0,0,0,0,0,0,0,-1,1728,337,0,0
511,687,0,0,0,0,0,0,0,0,0,-1,1735,337,0,0
518,687,0,0,0,0,0,0,0,0,0,-1,1742,337,0,0
525,687,0,0,0,0,0,0,0,0,0,-1,1749,337,0,0
532,687,0,0,0,0,0,0,0,0,0,-1,1756,337,0,0
539,687,0,0,0,0,0,0,0,0,0,-1,1763,337,0,0
546,687,0,0,0,0,0,0,0,0,0,-1,1770,337,0,0
553,687,0,0,0,0,0,0,0,0,0,-1,1777,337,0,0
560,687,0,0,0,0,0,0,0,0,0,-1,1784,337,0,0
567,687,0,0,0,0,0,0,0,0,0,-1,1791,337,0,0
574,687,0,0,0,0,0,0,0,0,0,-1,1798,337,0,0
581,687,0,0,0,0,0,0,0,0,0,-1,1805,337,0,0
588,687,0,0,0,0,0,0,0,0,0,-1,1812,337,0,0
595,687,0,0,0,0,0,0,0,0,0,-1,1819,337,0,0
602,687,0,0,0,0,0,0,0,0,0,-1,1826,337,0,0
609,687,0,0,0,0,0,0,0,0,0,-1,1833,337,0,0
616,687,0,0,0,0,0,0,0,0,0,-1,1840,337,0,0
623,687,0,0,0,0,0,0,0,0,0,-1,1847,337,0,0
630,687,0,0,0,0,0,0,0,0,0,-1,1854,337,0,0
637,687,0,0,0,0,0,0,0,0,0,-1,1861,337,0,0
644,687,0,0,0,0,0,0,0,0,0,-1,1868,337,0,0
651,687,0,0,0,0,0,0,0,0,0,-1,1875,337,0,0
658,687,0,0,0,0,0,0,0,0,0,-1,1882,337,0,0
665,687,0,0,0,0,0,0,0,0,0,-1,1889,337,0,0
672,687,0,0,0,0,0,0,0,0,0,-1,1896,337,0,0
679,687,0,0,0,0,0,0,0,0,0,-1,1903,337,0,0
686,687,0,0,0,0,0,0,0,0,0,-1,1910,337,0,0
693,687,0,0,0,0,0,0,0,0,0,-1,1917,337,0,0
700,687,0,0,0,0,0,0,0,0,0,-1,1924,337,0,0
707,687,0,0,0,0,0,0,0,0,0,-1,1931,337,0,0
714,687,0,0,0,0,0,0,0,0,0,-1,1938,337,0,0
721,687,0,0,0,0,0,0,0,0,0,-1,1945,337,0,0
728,687,0,0,0,0,0,0,0,0,0,-1,1952,337,0,0
735,687,0,0,0,0,0,0,0,0,0,-1,1959,337,0,0
742,687,0,0,0,0,0,0,0,0,0,-1,1966,337,0,0
749,687,0,0,0,0,0,0,0,0,0,-1,1973,337,0,0
756,687,0,0,0,0,0,0,0,0,0,-1,1980,337,0,0
763,687,0,0,0,0,0,0,0,0,0,-1,1987,337,0,0
770,687,0,0,0,0,0,0,0,0,0,-1,1994,337,0,0
777,687,0,0,0,0,0,0,0,0,0,-1,2001,337,0,0
784,687,0,0,0,0,0,0,0,0,0,-1,2008,337,0,0
791,687,0,0,0,0,0,0,0,0,0,-1,2015,337,0,0
798,687,0,0,0,0,0,0,0,0,0,-1,2022,337,0,0
805,687,0,0,0,0,0,0,0,0,0,-1,2029,337,0,0
812,687,0,0,0,0,0,0,0,0,0,-1,2036,337,0,0
-700,680,0,0,0,0,0,0,0,0,0,-1,524,344,0,0
-693,680,0,0,0,0,0,0,0,0,0,-1,531,344,0,0
-686,680,0,0,0,0,0,0,0,0,0,-1,538,344,0,0
-679,680,0,0,0,0,0,0,0,0,0,-1,545,344,0,0
-672,680,0,0,0,0,0,0,0,0,0,-1,552,344,0,0
-665,680,0,0,0,0,0,0,0,0,0,-1,559,344,0,0
-658,680,0,0,0,0,0,0,0,0,0,-1,566,344,0,0
-651,680,0,0,0,0,0,0,0,0,0,-1,573,344,0,0
-644,680,0,0,0,0,0,0,0,0,0,-1,580,344,0,0
-637,680,0,0,0,0,0,0,0,0,0,-1,587,344,0,0
-630,680,0,0,0,0,0,0,0,0,0,-1,594,344,0,0
-623,680,0,0,0,0,0,0,0,0,0,-1,601,344,0,0
-616,680,0,0,0,0,0,0,0,0,0,-1,608,344,0,0
-609,680,0,0,0,0,0,0,0,0,0,-1,615,344,0,0
-602,680,0,0,0,0,0,0,0,0,0,-1,622,344,0,0
-595,680,0,0,0,0,0,0,0,0,0,-1,629,344,0,0
-588,680,0,0,0,0,0,0,0,0,0,-1,636,344,0,0
-581,680,0,0,0,0,0,0,0,0,0,-1,643,344,0,0
-574,680,0,0,0,0,0,0,0,0,0,-1,650,344,0,0
-567,680,0,0,0,0,0,0,0,0,0,-1,657,344,0,0
-560,680,0,0,0,0,0,0,0,0,0,-1,664,344,0,0
-553,680,0,0,0,0,0,0,0,0,0,-1,671,344,0,0
-546,680,0,0,0,0,0,0,0,0,0,-1,678,344,0,0
-539,680,0,0,0,0,0,0,0,0,0,-1,685,344,0,0
-532,680,0,0,0,0,0,0,0,0,0,-1,692,344,0,0
-525,680,0,0,0,0,0,0,0,0,0,-1,699,344,0,0
-518,680,0,0,0,0,0,0,0,0,0,-1,706,344,0,0
-511,680,0,0,0,0,0,0,0,0,0,-1,713,344,0,0
-504,680,0,0,0,0,0,0,0,0,0,-1,720,344,0,0
-497,680,0,0,0,0,0,0,0,0,0,-1,727,344,0,0
-490,680,0,0,0,0,0,0,0,0,0,-1,734,344,0,0
-483,680,0,0,0,0,0,0,0,0,0,-1,741,344,0,0
-476,680,0,0,0,0,0,0,0,0,0,-1,748,344,0,0
-469,680,0,0,0,0,0,0,0,0,0,-1,755,344,0,0
-462,680,0,0,0,0,0,0,0,0,0,-1,762,344,0,0
-455,680,0,0,0,0,0,0,0,0,0,-1,769,344,0,0
-448,680,0,0,0,0,0,0,0,0,0,-1,776,344,0,0
-441,680,0,0,0,0,0,0,0,0,0,-1,783,344,0,0
-434,680,0,0,0,0,0,0,0,0,0,-1,790,344,0,0
-427,680,0,0,0,0,0,0,0,0,0,-1,797,344,0,0
-420,680,0,0,0,0,0,0,0,0,0,-1,804,344,0,0
-413,680,0,0,0,0,0,0,0,0,0,-1,811,344,0,0
-406,680,0,0,0,0,0,0,0,0,0,-1,818,344,0,0
-399,680,0,0,0,0,0,0,0,0,0,-1,825,344,0,0
-392,680,0,0,0,0,0,0,0,0,0,-1,832,344,0,0
-385,680,0,0,0,0,0,0,0,0,0,-1,839,344,0,0
-378,680,0,0,0,0,0,0,0,0,0,-1,846,344,0,0
-371,680,0,0,0,0,0,0,0,0,0,-1,853,344,0,0
-364,680,0,0,0,0,0,0,0,0,0,-1,860,344,0,0
-357,680,0,0,0,0,0,0,0,0,0,-1,867,344,0,0
-350,680,0,0,0,0,0,0,0,0,0,-1,874,344,0,0
-343,680,0,0,0,0,0,0,0,0,0,-1,881,344,0,0
-336,680,0,0,0,0,0,0,0,0,0,-1,888,344,0,0
-329,680,0,0,0,0,0,0,0,0,0,-1,895,344,0,0
-322,680,0,0,0,0,0,0,0,0,0,-1,902,344,0,0
-315,680,0,0,0,0,0,0,0,0,0,-1,909,344,0,0
-308,680,0,0,0,0,0,0,0,0,0,-1,916,344,0,0
-301,680,0,0,0,0,0,0,0,0,0,-1,923,344,0,0
-294,680,0,0,0,0,0,0,0,0,0,-1,930,344,0,0
-287,680,0,0,0,0,0,0,0,0,0,-1,937,344,0,0
-280,680,0,0,0,0,0,0,0,0,0,-1,944,344,0,0
-273,680,0,0,0,0,0,0,0,0,0,-1,951,344,0,0
-266,680,0,0,0,0,0,0,0,0,0,-1,958,344,0,0
-259,680,0,0,0,0,0,0,0,0,0,-1,965,344,0,0
-252,680,0,0,0,0,0,0,0,0,0,-1,972,344,0,0
-245,680,0,0,0,0,0,0,0,0,0,-1,979,344,0,0
-238,680,0,0,0,0,0,0,0,0,0,-1,986,344,0,0
-231,680,0,0,0,0,0,0,0,0,0,-1,993,344,0,0
-224,680,0,0,0,0,0,0,0,0,0,-1,1000,344,0,0
-217,680,0,0,0,0,0,0,0,0,0,-1,1007,344,0,0
-210,680,0,0,0,0,0,0,0,0,0,-1,1014,344,0,0
-203,680,0,0,0,0,0,0,0,0,0,-1,1021,344,0,0
-196,680,0,0,0,0,0,0,0,0,0,-1,1028,344,0,0
-189,680,0,0,0,0,0,0,0,0,0,-1,1035,344,0,0
-182,680,0,0,0,0,0,0,0,0,0,-1,1042,344,0,0
-175,680,0,0,0,0,0,0,0,0,0,-1,1049,344,0,0
-168,680,0,0,0,0,0,0,0,0,0,-1,1056,344,0,0
-161,680,0,0,0,0,0,0,0,0,0,-1,1063,344,0,0
-154,680,3.55957,-21.9337,0,0,0,0,0,0,0,-1,1070,344,3.55954,21.9337
-147,680,4.37744,-22.0085,0,0,0,0,0,0,0,-1,1077,344,4.37745,22.0085
-140,680,5.27588,-21.7303,0,0,0,0,0,0,0,-1,1084,344,5.27585,21.7303
-133,680,1.7467,-18.0083,0,0,0,0,0,0,0,-1,1091,344,1.74676,18.0083
-126,680,3.92261,-18.8725,0,0,0,0,0,0,0,-1,1098,344,3.92265,18.8725
-119,680,4.03174,-17.8893,-0.0362031,-0.00203091,0.0454975,0.029483,-0.067717,0.96502,0.0575474,0.0432479,1105,344,4.03172,17.8892
-112,680,3.68225,-17.5857,-0.0313234,0.00852849,0.0454091,0.0381911,-0.060986,0.992153,0.0577619,0.0455272,1112,344,3.68225,17.5856
-105,680,3.67236,-16.5804,-0.0267969,0.0158267,0.0456192,0.0448667,-0.0558369,1.00392,0.0582562,0.0435763,1119,344,3.6724,16.5803
-98,680,3.63757,-15.6561,0,0,0,0,0,0,0,-1,1126,344,3.63751,15.6561
-91,680,2.73938,-14.278,0,0,0,0,0,0,0,-1,1133,344,2.73941,14.278
-84,680,1.92285,-8.71033,0,0,0,0,0,0,0,-1,1140,344,1.92286,8.71034
-77,680,-2.41516,-7.36899,0,0,0,0,0,0,0,-1,1147,344,-2.41511,7.36899
-70,680,-6.00818,-14.159,0,0,0,0,0,0,0,-1,1154,344,-6.00822,14.159
-63,680,-5.41333,-13.0013,0,0,0,0,0,0,0,-1,1161,344,-5.41332,13.0013
-56,680,-6.96912,-8.83356,0,0,0,0,0,0,0,-1,1168,344,-6.96907,8.83354
-49,680,-6.7677,-2.24063,0,0,0,0,0,0,0,-1,1175,344,-6.76772,2.24063
-42,680,-1.02368,0.618805,0,0,0,0,0,0,0,-1,1182,344,-1.0237,-0.618797
-35,680,-0.947876,-0.942719,0,0,0,0,0,0,0,-1,1189,344,-0.947842,0.942731
-28,680,-1.46118,-1.10574,0,0,0,0,0,0,0,-1,1196,344,-1.4612,1.10575
-21,680,2.76563,-19.9979,0,0,0,0,0,0,0,-1,1203,344,2.76568,19.9979
-14,680,3.88208,-19.137,0,0,0,0,0,0,0,-1,1210,344,3.88209,19.137
-7,680,3.3623,-19.387,0,0,0,0,0,0,0,-1,1217,344,3.36229,19.387
0,680,3.37317,-19.814,0,0,0,0,0,0,0,-1,1224,344,3.37315,19.814
7,680,3.46521,-19.8445,0,0,0,0,0,0,0,-1,1231,344,3.46522,19.8445
14,680,3.84973,-19.8379,-0.0070243,0.0259623,0.00225586,0.0261158,-0.00717786,1.50283,0.0202321,0.0448923,1238,344,3.84974,19.8379
21,680,3.34485,-19.8437,-0.00778136,0.0278589,0.00666439,0.0290643,-0.00898677,1.39186,0.0229656,0.0447058,1245,344,3.34479,19.8437
28,680,3.25342,-19.9284,-0.00865952,0.0309026,0.0104877,0.0335109,-0.0112678,1.32704,0.0268952,0.0445253,1252,344,3.25342,19.9284
35,680,3.26416,-19.9111,-0.00952401,0.0341741,0.0137836,0.0381585,-0.0135084,1.2894,0.0309409,0.0463664,1259,344,3.26411,19.9111
42,680,3.27661,-19.8788,0,0,0,0,0,0,0,-1,1266,344,3.27665,19.8788
49,680,3.0686,-19.967,-0.0126282,0.0383554,0.0174863,0.0437764,-0.0180493,1.27018,0.0367108,0.0417992,1273,344,3.06858,19.967
56,680,3.14111,-19.8839,-0.0139395,0.042893,0.0174872,0.0478427,-0.0188892,1.29497,0.0397181,0.037952,1280,344,3.14111,19.8839
63,680,3.49011,-19.7635,-0.0160519,0.0459882,0.0169822,0.0503326,-0.0203962,1.32035,0.0420369,0.0378497,1287,344,3.49016,19.7635
70,680,3.57483,-19.4914,-0.0181381,0.0534699,0.0148007,0.0564085,-0.0210767,1.3748,0.0462604,0.0369733,1294,344,3.57487,19.4914
77,680,3.276,-19.3731,-0.020518,0.0671693,0.0116955,0.0687024,-0.0220511,1.44045,0.0546554,0.0427165,1301,344,3.27596,19.3732
84,680,2.76147,-19.8979,0,0,0,0,0,0,0,-1,1308,344,2.76144,19.8979
91,680,2.28198,-20.21,-0.0230199,0.079019,0.00105688,0.07903,-0.0230308,1.56044,0.0618108,0.0484885,1315,344,2.28193,20.21
98,680,1.86377,-20.3985,-0.0245201,0.0830202,-0.00620805,0.0833774,-0.0248773,-1.51332,0.0654722,0.0448122,1322,344,1.8638,20.3985
105,680,3.41211,-20.5039,0,0,0,0,0,0,0,-1,1329,344,3.41205,20.5039
112,680,2.75806,-20.3062,0,0,0,0,0,0,0,-1,1336,344,2.75809,20.3062
119,680,2.44617,-20.1777,-0.0274118,0.0966241,-0.0246189,0.101332,-0.0321196,-1.38185,0.0804281,0.0448962,1343,344,2.44613,20.1777
126,680,2.02441,-20.013,-0.0275147,0.0964586,-0.0309695,0.103764,-0.0348206,-1.33913,0.0832471,0.0420162,1350,344,2.02438,20.013
133,680,1.52869,-19.7752,-0.0277279,0.0917986,-0.0368986,0.102272,-0.0382011,-1.29423,0.0838669,0.043119,1357,344,1.52864,19.7752
140,680,1.15369,-19.5824,-0.0285247,0.083255,-0.0422923,0.0974531,-0.0427227,-1.24691,0.0829613,0.0483559,1364,344,1.15373,19.5824
147,680,2.53687,-19.464,-0.0301338,0.0721811,-0.0473462,0.0907283,-0.0486811,-1.19743,0.0816992,0.0467079,1371,344,2.53691,19.464
154,680,2.56702,-19.4899,-0.0326095,0.0598829,-0.0519254,0.0831706,-0.0558971,-1.1492,0.0808038,0.0494624,1378,344,2.56706,19.4899
161,680,2.61426,-19.4669,0,0,0,0,0,0,0,-1,1385,344,2.61428,19.4669
168,680,6.85046,1.69257,0,0,0,0,0,0,0,-1,1392,344,6.85045,-1.69257
175,680,6.66541,0.942078,0,0,0,0,0,0,0,-1,1399,344,6.66538,-0.942088
182,680,6.52917,0.532379,0,0,0,0,0,0,0,-1,1406,344,6.52922,-0.532385
189,680,7.55884,4.77695,0,0,0,0,0,0,0,-1,1413,344,7.55886,-4.77694
196,680,6.55627,3.35254,0,0,0,0,0,0,0,-1,1420,344,6.55622,-3.35255
203,680,5.7334,1.90753,0,0,0,0,0,0,0,-1,1427,344,5.73341,-1.90754
210,680,5.27515,0.493622,0,0,0,0,0,0,0,-1,1434,344,5.27514,-0.493632
217,680,6.56384,-0.374176,0,0,0,0,0,0,0,-1,1441,344,6.56379,0.374176
224,680,3.9491,-0.640228,0,0,0,0,0,0,0,-1,1448,344,3.94908,0.64024
231,680,4.24866,-1.96881,0,0,0,0,0,0,0,-1,1455,344,4.2486,1.96882
238,680,4.29333,-3.23984,0,0,0,0,0,0,0,-1,1462,344,4.29332,3.23984
245,680,2.44397,0.985382,0,0,0,0,0,0,0,-1,1469,344,2.44402,-0.985394
252,680,3.07349,2.18951,0,0,0,0,0,0,0,-1,1476,344,3.0735,-2.18952
259,680,2.82971,1.30682,0,0,0,0,0,0,0,-1,1483,344,2.82972,-1.30684
266,680,2.67554,1.44067,0,0,0,0,0,0,0,-1,1490,344,2.67551,-1.44066
273,680,2.46411,1.54666,0,0,0,0,0,0,0,-1,1497,344,2.46407,-1.54666
280,680,0,0,0,0,0,0,0,0,0,-1,1504,344,0,0
287,680,0,0,0,0,0,0,0,0,0,-1,1511,344,0,0
294,680,0,0,0,0,0,0,0,0,0,-1,1518,344,0,0
301,680,0,0,0,0,0,0,0,0,0,-1,1525,344,0,0
308,680,0,0,0,0,0,0,0,0,0,-1,1532,344,0,0
315,680,0,0,0,0,0,0,0,0,0,-1,1539,344,0,0
322,680,0,0,0,0,0,0,0,0,0,-1,1546,344,0,0
329,680,0,0,0,0,0,0,0,0,0,-1,1553,344,0,0
336,680,0,0,0,0,0,0,0,0,0,-1,1560,344,0,0
343,680,0,0,0,0,0,0,0,0,0,-1,1567,344,0,0
350,680,0,0,0,0,0,0,0,0,0,-1,1574,344,0,0
357,680,0,0,0,0,0,0,0,0,0,-1,1581,344,0,0
364,680,0,0,0,0,0,0,0,0,0,-1,1588,344,0,0
371,680,0,0,0,0,0,0,0,0,0,-1,1595,344,0,0
378,680,0,0,0,0,0,0,0,0,0,-1,1602,344,0,0
385,680,0,0,0,0,0,0,0,0,0,-1,1609,344,0,0
392,680,0,0,0,0,0,0,0,0,0,-1,1616,344,0,0
399,680,0,0,0,0,0,0,0,0,0,-1,1623,344,0,0
406,680,0,0,0,0,0,0,0,0,0,-1,1630,344,0,0
413,680,0,0,0,0,0,0,0,0,0,-1,1637,344,0,0
420,680,0,0,0,0,0,0,0,0,0,-1,1644,344,0,0
427,680,0,0,0,0,0,0,0,0,0,-1,1651,344,0,0
434,680,0,0,0,0,0,0,0,0,0,-1,1658,344,0,0
441,680,0,0,0,0,0,0,0,0,0,-1,1665,344,0,0
448,680,0,0,0,0,0,0,0,0,0,-1,1672,344,0,0
455,680,0,0,0,0,0,0,0,0,0,-1,1679,344,0,0
462,680,0,0,0,0,0,0,0,0,0,-1,1686,344,0,0
469,680,0,0,0,0,0,0,0,0,0,-1,1693,344,0,0
476,680,0,0,0,0,0,0,0,0,0,-1,1700,344,0,0
483,680,0,0,0,0,0,0,0,0,0,-1,1707,344,0,0
490,680,0,0,0,0,0,0,0,0,0,-1,1714,344,0,0
497,680,0,0,0,0,0,0,0,0,0,-1,1721,344,0,0
504,680,0,0,0,0,0,0,0,0,0,-1,1728,344,0,0
511,680,0,0,0,0,0,0,0,0,0,-1,1735,344,0,0
518,680,0,0,0,0,0,0,0,0,0,-1,1742,344,0,0
525,680,0,0,0,0,0,0,0,0,0,-1,1749,344,0,0
532,680,0,0,0,0,0,0,0,0,0,-1,1756,344,0,0
539,680,0,0,0,0,0,0,0,0,0,-1,1763,344,0,0
546,680,0,0,0,0,0,0,0,0,0,-1,1770,344,0,0
553,680,0,0,0,0,0,0,0,0,0,-1,1777,344,0,0
560,680,0,0,0,0,0,0,0,0,0,-1,1784,344,0,0
567,680,0,0,0,0,0,0,0,0,0,-1,1791,344,0,0
574,680,0,0,0,0,0,0,0,0,0,-1,1798,344,0,0
581,680,0,0,0,0,0,0,0,0,0,-1,1805,344,0,0
588,680,0,0,0,0,0,0,0,0,0,-1,1812,344,0,0
595,680,0,0,0,0,0,0,0,0,0,-1,1819,344,0,0
602,680,0,0,0,0,0,0,0,0,0,-1,1826,344,0,0
609,680,0,0,0,0,0,0,0,0,0,-1,1833,344,0,0
616,680,0,0,0,0,0,0,0,0,0,-1,1840,344,0,0
623,680,0,0,0,0,0,0,0,0,0,-1,1847,344,0,0
630,680,0,0,0,0,0,0,0,0,0,-1,1854,344,0,0
637,680,0,0,0,0,0,0,0,0,0,-1,1861,344,0,0
644,680,0,0,0,0,0,0,0,0,0,-1,1868,344,0,0
651,680,0,0,0,0,0,0,0,0,0,-1,1875,344,0,0
658,680,0,0,0,0,0,0,0,0,0,-1,1882,344,0,0
665,680,0,0,0,0,0,0,0,0,0,-1,1889,344,0,0
672,680,0,0,0,0,0,0,0,0,0,-1,1896,344,0,0
679,680,0,0,0,0,0,0,0,0,0,-1,1903,344,0,0
686,680,0,0,0,0,0,0,0,0,0,-1,1910,344,0,0
693,680,0,0,0,0,0,0,0,0,0,-1,1917,344,0,0
700,680,0,0,0,0,0,0,0,0,0,-1,1924,344,0,0
707,680,0,0,0,0,0,0,0,0,0,-1,1931,344,0,0
714,680,0,0,0,0,0,0,0,0,0,-1,1938,344,0,0
721,680,0,0,0,0,0,0,0,0,0,-1,1945,344,0,0
728,680,0,0,0,0,0,0,0,0,0,-1,1952,344,0,0
735,680,0,0,0,0,0,0,0,0,0,-1,1959,344,0,0
742,680,0,0,0,0,0,0,0,0,0,-1,1966,344,0,0
749,680,0,0,0,0,0,0,0,0,0,-1,1973,344,0,0
756,680,0,0,0,0,0,0,0,0,0,-1,1980,344,0,0
763,680,0,0,0,0,0,0,0,0,0,-1,1987,344,0,0
770,680,0,0,0,0,0,0,0,0,0,-1,1994,344,0,0
777,680,0,0,0,0,0,0,0,0,0,-1,2001,344,0,0
784,680,0,0,0,0,0,0,0,0,0,-1,2008,344,0,0
791,680,0,0,0,0,0,0,0,0,0,-1,2015,344,0,0
798,680,0,0,0,0,0,0,0,0,0,-1,2022,344,0,0
805,680,0,0,0,0,0,0,0,0,0,-1,2029,344,0,0
812,680,0,0,0,0,0,0,0,0,0,-1,2036,344,0,0
-700,673,0,0,0,0,0,0,0,0,0,-1,524,351,0,0
-693,673,0,0,0,0,0,0,0,0,0,-1,531,351,0,0
-686,673,0,0,0,0,0,0,0,0,0,-1,538,351,0,0
-679,673,0,0,0,0,0,0,0,0,0,-1,545,351,0,0
-672,673,0,0,0,0,0,0,0,0,0,-1,552,351,0,0
-665,673,0,0,0,0,0,0,0,0,0,-1,559,351,0,0
-658,673,0,0,0,0,0,0,0,0,0,-1,566,351,0,0
-651,673,0,0,0,0,0,0,0,0,0,-1,573,351,0,0
-644,673,0,0,0,0,0,0,0,0,0,-1,580,351,0,0
-637,673,0,0,0,0,0,0,0,0,0,-1,587,351,0,0
-630,673,0,0,0,0,0,0,0,0,0,-1,594,351,0,0
-623,673,0,0,0,0,0,0,0,0,0,-1,601,351,0,0
-616,673,0,0,0,0,0,0,0,0,0,-1,608,351,0,0
-609,673,0,0,0,0,0,0,0,0,0,-1,615,351,0,0
-602,673,0,0,0,0,0,0,0,0,0,-1,622,351,0,0
-595,673,0,0,0,0,0,0,0,0,0,-1,629,351,0,0
-588,673,0,0,0,0,0,0,0,0,0,-1,636,351,0,0
-581,673,0,0,0,0,0,0,0,0,0,-1,643,351,0,0
-574,673,0,0,0,0,0,0,0,0,0,-1,650,351,0,0
-567,673,0,0,0,0,0,0,0,0,0,-1,657,351,0,0
-560,673,0,0,0,0,0,0,0,0,0,-1,664,351,0,0
-553,673,0,0,0,0,0,0,0,0,0,-1,671,351,0,0
-546,673,0,0,0,0,0,0,0,0,0,-1,678,351,0,0
-539,673,0,0,0,0,0,0,0,0,0,-1,685,351,0,0
-532,673,0,0,0,0,0,0,0,0,0,-1,692,351,0,0
-525,673,0,0,0,0,0,0,0,0,0,-1,699,351,0,0
-518,673,0,0,0,0,0,0,0,0,0,-1,706,351,0,0
-511,673,0,0,0,0,0,0,0,0,0,-1,713,351,0,0
-504,673,0,0,0,0,0,0,0,0,0,-1,720,351,0,0
-497,673,0,0,0,0,0,0,0,0,0,-1,727,351,0,0
-490,673,0,0,0,0,0,0,0,0,0,-1,734,351,0,0
-483,673,0,0,0,0,0,0,0,0,0,-1,741,351,0,0
-476,673,0,0,0,0,0,0,0,0,0,-1,748,351,0,0
-469,673,0,0,0,0,0,0,0,0,0,-1,755,351,0,0
-462,673,0,0,0,0,0,0,0,0,0,-1,762,351,0,0
-455,673,0,0,0,0,0,0,0,0,0,-1,769,351,0,0
-448,673,0,0,0,0,0,0,0,0,0,-1,776,351,0,0
-441,673,0,0,0,0,0,0,0,0,0,-1,783,351,0,0
-434,673,0,0,0,0,0,0,0,0,0,-1,790,351,0,0
-427,673,0,0,0,0,0,0,0,0,0,-1,797,351,0,0
-420,673,0,0,0,0,0,0,0,0,0,-1,804,351,0,0
-413,673,0,0,0,0,0,0,0,0,0,-1,811,351,0,0
-406,673,0,0,0,0,0,0,0,0,0,-1,818,351,0,0
-399,673,0,0,0,0,0,0,0,0,0,-1,825,351,0,0
-392,673,0,0,0,0,0,0,0,0,0,-1,832,351,0,0
-385,673,0,0,0,0,0,0,0,0,0,-1,839,351,0,0
-378,673,0,0,0,0,0,0,0,0,0,-1,846,351,0,0
-371,673,0,0,0,0,0,0,0,0,0,-1,853,351,0,0
-364,673,0,0,0,0,0,0,0,0,0,-1,860,351,0,0
-357,673,0,0,0,0,0,0,0,0,0,-1,867,351,0,0
-350,673,0,0,0,0,0,0,0,0,0,-1,874,351,0,0
-343,673,0,0,0,0,0,0,0,0,0,-1,881,351,0,0
-336,673,0,0,0,0,0,0,0,0,0,-1,888,351,0,0
-329,673,0,0,0,0,0,0,0,0,0,-1,895,351,0,0
-322,673,0,0,0,0,0,0,0,0,0,-1,902,351,0,0
-315,673,0,0,0,0,0,0,0,0,0,-1,909,351,0,0
-308,673,0,0,0,0,0,0,0,0,0,-1,916,351,0,0
-301,673,0,0,0,0,0,0,0,0,0,-1,923,351,0,0
-294,673,0,0,0,0,0,0,0,0,0,-1,930,351,0,0
-287,673,0,0,0,0,0,0,0,0,0,-1,937,351,0,0
-280,673,0,0,0,0,0,0,0,0,0,-1,944,351,0,0
-273,673,0,0,0,0,0,0,0,0,0,-1,951,351,0,0
-266,673,0,0,0,0,0,0,0,0,0,-1,958,351,0,0
-259,673,0,0,0,0,0,0,0,0,0,-1,965,351,0,0
-252,673,0,0,0,0,0,0,0,0,0,-1,972,351,0,0
-245,673,0,0,0,0,0,0,0,0,0,-1,979,351,0,0
-238,673,0,0,0,0,0,0,0,0,0,-1,986,351,0,0
-231,673,0,0,0,0,0,0,0,0,0,-1,993,351,0,0
-224,673,0,0,0,0,0,0,0,0,0,-1,1000,351,0,0
-217,673,0,0,0,0,0,0,0,0,0,-1,1007,351,0,0
-210,673,0,0,0,0,0,0,0,0,0,-1,1014,351,0,0
-203,673,0,0,0,0,0,0,0,0,0,-1,1021,351,0,0
-196,673,0,0,0,0,0,0,0,0,0,-1,1028,351,0,0
-189,673,0,0,0,0,0,0,0,0,0,-1,1035,351,0,0
-182,673,0,0,0,0,0,0,0,0,0,-1,1042,351,0,0
-175,673,2.65991,-15.9225,0,0,0,0,0,0,0,-1,1049,351,2.65986,15.9225
-168,673,0.9375,-13.6093,0,0,0,0,0,0,0,-1,1056,351,0.937509,13.6093
-161,673,2.83765,-20.7893,0,0,0,0,0,0,0,-1,1063,351,2.83767,20.7893
-154,673,3.63416,-21.0645,0,0,0,0,0,0,0,-1,1070,351,3.63414,21.0645
-147,673,3.9801,-20.6381,0,0,0,0,0,0,0,-1,1077,351,3.98005,20.6381
-140,673,4.03748,-19.8893,0,0,0,0,0,0,0,-1,1084,351,4.03747,19.8893
-133,673,3.2312,-17.7283,0,0,0,0,0,0,0,-1,1091,351,3.23115,17.7283
-126,673,4.14063,-18.5533,0,0,0,0,0,0,0,-1,1098,351,4.14065,18.5533
-119,673,4.1178,-18.0895,-0.0310243,-0.00454199,0.0340459,0.018747,-0.0543133,0.970858,0.0438158,0.041657,1105,351,4.11779,18.0895
-112,673,3.75525,-17.5408,-0.0272077,0.0045333,0.0339545,0.0261432,-0.0488177,1.00401,0.0439337,0.0405317,1112,351,3.75524,17.5408
-105,673,3.67615,-16.6905,-0.023739,0.0110637,0.033934,0.031798,-0.0444733,1.02232,0.0442375,0.0408704,1119,351,3.6762,16.6905
-98,673,2.03625,-17.1984,0,0,0,0,0,0,0,-1,1126,351,2.03622,17.1984
-91,673,2.69482,-15.6822,0,0,0,0,0,0,0,-1,1133,351,2.69488,15.6822
-84,673,2.31641,-13.7224,0,0,0,0,0,0,0,-1,1140,351,2.31642,13.7223
-77,673,1.60266,-8.87473,0,0,0,0,0,0,0,-1,1147,351,1.60268,8.87474
-70,673,1.88684,-4.7381,0,0,0,0,0,0,0,-1,1154,351,1.88682,4.73809
-63,673,1.11719,-2.95016,0,0,0,0,0,0,0,-1,1161,351,1.11724,2.95016
-56,673,-6.18872,-9.52338,0,0,0,0,0,0,0,-1,1168,351,-6.18874,9.52336
-49,673,-0.926758,-0.115448,0,0,0,0,0,0,0,-1,1175,351,-0.926732,0.115444
-42,673,-1.15015,0.289917,0,0,0,0,0,0,0,-1,1182,351,-1.15017,-0.289932
-35,673,-0.919556,-1.00711,0,0,0,0,0,0,0,-1,1189,351,-0.919514,1.00711
-28,673,1.03564,-2.58228,0,0,0,0,0,0,0,-1,1196,351,1.0356,2.58229
-21,673,3.38049,-19.7231,0,0,0,0,0,0,0,-1,1203,351,3.38048,19.7231
-14,673,3.68396,-19.4349,-0.00457098,0.023912,-0.00846878,0.0262398,-0.00689875,-1.30256,0.0201895,0.0422471,1210,351,3.68392,19.4349
-7,673,3.34363,-19.6203,-0.00560493,0.0221282,-0.00625906,0.0234753,-0.00695209,-1.3588,0.0184105,0.04015,1217,351,3.34365,19.6203
0,673,3.3363,-19.8674,-0.00620024,0.0205463,-0.00360248,0.0210231,-0.00667696,-1.43923,0.0166923,0.0421789,1224,351,3.33634,19.8674
7,673,3.37,-19.9036,-0.00633617,0.0202991,-0.000577364,0.0203116,-0.00634868,-1.54913,0.0160806,0.0438652,1231,351,3.36997,19.9036
14,673,3.51563,-19.8549,-0.0064377,0.0204652,0.00258191,0.0207107,-0.00668325,1.47598,0.0164926,0.0372123,1238,351,3.51563,19.8549
21,673,3.26599,-19.9728,-0.00668033,0.0220346,0.00578454,0.023156,-0.00780181,1.3793,0.0185919,0.0261937,1245,351,3.26598,19.9728
28,673,3.25745,-20.0171,-0.00704449,0.0244373,0.00857614,0.026622,-0.00922917,1.32136,0.0214953,0.018073,1252,351,3.25749,20.0171
35,673,3.23865,-20.0102,-0.00740998,0.0269605,0.010988,0.030173,-0.0106225,1.28636,0.0244383,0.0258041,1259,351,3.23859,20.0102
42,673,3.12085,-20.0022,-0.00826931,0.0283967,0.0128483,0.0324507,-0.0123233,1.26516,0.0267067,0.0287421,1266,351,3.12085,20.0022
49,673,3.09644,-20.0264,-0.00940685,0.0300756,0.0135534,0.0342804,-0.0136116,1.26997,0.0284959,0.016535,1273,351,3.09649,20.0264
56,673,3.10583,-19.9798,-0.0103405,0.0336309,0.0135035,0.0374467,-0.0141563,1.2954,0.0307879,0.0134078,1280,351,3.10579,19.9798
63,673,3.12659,-19.9014,-0.0118935,0.0360235,0.0130429,0.0393437,-0.0152137,1.32153,0.0325095,0.0159275,1287,351,3.12657,19.9014
70,673,3.08813,-19.8824,-0.0135496,0.0413407,0.0112807,0.0435686,-0.0157775,1.37581,0.0354937,0.0261337,1294,351,3.08812,19.8824
77,673,3.05591,-19.8465,-0.0155171,0.0507699,0.0088238,0.0519244,-0.0166716,1.4407,0.0413105,0.0380793,1301,351,3.05594,19.8465
84,673,2.95447,-19.9562,-0.016714,0.0548561,0.00504461,0.05521,-0.0170679,1.50077,0.0436235,0.0422472,1308,351,2.95453,19.9562
91,673,2.64587,-20.1184,-0.0177256,0.058476,0.000619746,0.058481,-0.0177307,1.56266,0.0460498,0.0451754,1315,351,2.64591,20.1184
98,673,2.59155,-20.1328,-0.018918,0.0608091,-0.00508907,0.0611326,-0.0192415,-1.50731,0.0484594,0.0448057,1322,351,2.59154,20.1328
105,673,2.78711,-19.7997,-0.0202043,0.0637454,-0.00980755,0.0648759,-0.0213348,-1.45603,0.0518467,0.0413584,1329,351,2.7871,19.7998
112,673,2.95227,-19.3609,0,0,0,0,0,0,0,-1,1336,351,2.95227,19.3609
119,673,3.06067,-19.2209,0,0,0,0,0,0,0,-1,1343,351,3.06065,19.2209
126,673,2.6062,-19.7562,-0.0208065,0.0681614,-0.0236166,0.0740418,-0.0266869,-1.32676,0.0602599,0.0381162,1350,351,2.60625,19.7562
133,673,2.3512,-19.6797,-0.0206528,0.0647685,-0.0277788,0.0730075,-0.0288917,-1.28247,0.0606415,0.0386547,1357,351,2.35118,19.6797
140,673,2.60815,-19.5023,-0.0208413,0.0590007,-0.0313254,0.0698238,-0.0316644,-1.23813,0.059959,0.040539,1364,351,2.6081,19.5023
147,673,2.62805,-19.4171,-0.0215017,0.0519809,-0.0345775,0.0656929,-0.0352136,-1.19326,0.0591376,0.0396903,1371,351,2.62811,19.4171
154,673,2.63855,-19.2743,-0.0227242,0.0443392,-0.0374234,0.0610557,-0.0394408,-1.1507,0.0584673,0.0394079,1378,351,2.63854,19.2743
161,673,2.74854,-19.1108,0,0,0,0,0,0,0,-1,1385,351,2.74848,19.1108
168,673,6.87061,1.83954,0,0,0,0,0,0,0,-1,1392,351,6.87063,-1.83953
175,673,6.6228,1.1459,0,0,0,0,0,0,0,-1,1399,351,6.62276,-1.14591
182,673,6.37244,0.796112,0,0,0,0,0,0,0,-1,1406,351,6.3724,-0.796102
189,673,6.12097,0.265472,0,0,0,0,0,0,0,-1,1413,351,6.121,-0.265482
196,673,6.02173,3.12717,0,0,0,0,0,0,0,-1,1420,351,6.02176,-3.12717
203,673,5.04456,1.6351,0,0,0,0,0,0,0,-1,1427,351,5.04455,-1.63509
210,673,4.79224,0.447479,0,0,0,0,0,0,0,-1,1434,351,4.79229,-0.447469
217,673,2.01648,0.972687,0,0,0,0,0,0,0,-1,1441,351,2.01644,-0.972691
224,673,2.3689,-1.80539,0,0,0,0,0,0,0,-1,1448,351,2.36896,1.80539
231,673,2.65857,-2.18497,0,0,0,0,0,0,0,-1,1455,351,2.65852,2.18496
238,673,3.77844,-2.06088,0,0,0,0,0,0,0,-1,1462,351,3.77839,2.06088
245,673,3.5376,-0.190399,0,0,0,0,0,0,0,-1,1469,351,3.53759,0.1904
252,673,3.80518,0.55603,0,0,0,0,0,0,0,-1,1476,351,3.80519,-0.556022
259,673,3.88562,1.29617,0,0,0,0,0,0,0,-1,1483,351,3.88562,-1.29618
266,673,4.22424,2.04834,0,0,0,0,0,0,0,-1,1490,351,4.22429,-2.04834
273,673,6.07886,0.385895,0,0,0,0,0,0,0,-1,1497,351,6.0789,-0.385906
280,673,6.97534,-0.0820007,0,0,0,0,0,0,0,-1,1504,351,6.97536,0.0820122
287,673,7.66968,-0.348541,0,0,0,0,0,0,0,-1,1511,351,7.66969,0.348534
294,673,8.20996,0.28537,0,0,0,0,0,0,0,-1,1518,351,8.20993,-0.28536
301,673,0,0,0,0,0,0,0,0,0,-1,1525,351,0,0
308,673,0,0,0,0,0,0,0,0,0,-1,1532,351,0,0
315,673,0,0,0,0,0,0,0,0,0,-1,1539,351,0,0
322,673,0,0,0,0,0,0,0,0,0,-1,1546,351,0,0
329,673,0,0,0,0,0,0,0,0,0,-1,1553,351,0,0
336,673,0,0,0,0,0,0,0,0,0,-1,1560,351,0,0
343,673,0,0,0,0,0,0,0,0,0,-1,1567,351,0,0
350,673,0,0,0,0,0,0,0,0,0,-1,1574,351,0,0
357,673,0,0,0,0,0,0,0,0,0,-1,1581,351,0,0
364,673,0,0,0,0,0,0,0,0,0,-1,1588,351,0,0
371,673,0,0,0,0,0,0,0,0,0,-1,1595,351,0,0
378,673,0,0,0,0,0,0,0,0,0,-1,1602,351,0,0
385,673,0,0,0,0,0,0,0,0,0,-1,1609,351,0,0
392,673,0,0,0,0,0,0,0,0,0,-1,1616,351,0,0
399,673,0,0,0,0,0,0,0,0,0,-1,1623,351,0,0
406,673,0,0,0,0,0,0,0,0,0,-1,1630,351,0,0
413,673,0,0,0,0,0,0,0,0,0,-1,1637,351,0,0
420,673,0,0,0,0,0,0,0,0,0,-1,1644,351,0,0
427,673,0,0,0,0,0,0,0,0,0,-1,1651,351,0,0
434,673,0,0,0,0,0,0,0,0,0,-1,1658,351,0,0
441,673,0,0,0,0,0,0,0,0,0,-1,1665,351,0,0
448,673,0,0,0,0,0,0,0,0,0,-1,1672,351,0,0
455,673,0,0,0,0,0,0,0,0,0,-1,1679,351,0,0
462,673,0,0,0,0,0,0,0,0,0,-1,1686,351,0,0
469,673,0,0,0,0,0,0,0,0,0,-1,1693,351,0,0
476,673,0,0,0,0,0,0,0,0,0,-1,1700,351,0,0
483,673,0,0,0,0,0,0,0,0,0,-1,1707,351,0,0
490,673,0,0,0,0,0,0,0,0,0,-1,1714,351,0,0
497,673,0,0,0,0,0,0,0,0,0,-1,1721,351,0,0
504,673,0,0,0,0,0,0,0,0,0,-1,1728,351,0,0
511,673,0,0,0,0,0,0,0,0,0,-1,1735,351,0,0
518,673,0,0,0,0,0,0,0,0,0,-1,1742,351,0,0
525,673,0,0,0,0,0,0,0,0,0,-1,1749,351,0,0
532,673,0,0,0,0,0,0,0,0,0,-1,1756,351,0,0
539,673,0,0,0,0,0,0,0,0,0,-1,1763,351,0,0
546,673,0,0,0,0,0,0,0,0,0,-1,1770,351,0,0
553,673,0,0,0,0,0,0,0,0,0,-1,1777,351,0,0
560,673,0,0,0,0,0,0,0,0,0,-1,1784,351,0,0
567,673,0,0,0,0,0,0,0,0,0,-1,1791,351,0,0
574,673,0,0,0,0,0,0,0,0,0,-1,1798,351,0,0
581,673,0,0,0,0,0,0,0,0,0,-1,1805,351,0,0
588,673,0,0,0,0,0,0,0,0,0,-1,1812,351,0,0
595,673,0,0,0,0,0,0,0,0,0,-1,1819,351,0,0
602,673,0,0,0,0,0,0,0,0,0,-1,1826,351,0,0
609,673,0,0,0,0,0,0,0,0,0,-1,1833,351,0,0
616,673,0,0,0,0,0,0,0,0,0,-1,1840,351,0,0
623,673,0,0,0,0,0,0,0,0,0,-1,1847,351,0,0
630,673,0,0,0,0,0,0,0,0,0,-1,1854,351,0,0
637,673,0,0,0,0,0,0,0,0,0,-1,1861,351,0,0
644,673,0,0,0,0,0,0,0,0,0,-1,1868,351,0,0
651,673,0,0,0,0,0,0,0,0,0,-1,1875,351,0,0
658,673,0,0,0,0,0,0,0,0,0,-1,1882,351,0,0
665,673,0,0,0,0,0,0,0,0,0,-1,1889,351,0,0
672,673,0,0,0,0,0,0,0,0,0,-1,1896,351,0,0
679,673,0,0,0,0,0,0,0,0,0,-1,1903,351,0,0
686,673,0,0,0,0,0,0,0,0,0,-1,1910,351,0,0
693,673,0,0,0,0,0,0,0,0,0,-1,1917,351,0,0
700,673,0,0,0,0,0,0,0,0,0,-1,1924,351,0,0
707,673,0,0,0,0,0,0,0,0,0,-1,1931,351,0,0
714,673,0,0,0,0,0,0,0,0,0,-1,1938,351,0,0
721,673,0,0,0,0,0,0,0,0,0,-1,1945,351,0,0
728,673,0,0,0,0,0,0,0,0,0,-1,1952,351,0,0
735,673,0,0,0,0,0,0,0,0,0,-1,1959,351,0,0
742,673,0,0,0,0,0,0,0,0,0,-1,1966,351,0,0
749,673,0,0,0,0,0,0,0,0,0,-1,1973,351,0,0
756,673,0,0,0,0,0,0,0,0,0,-1,1980,351,0,0
763,673,0,0,0,0,0,0,0,0,0,-1,1987,351,0,0
770,673,0,0,0,0,0,0,0,0,0,-1,1994,351,0,0
777,673,0,0,0,0,0,0,0,0,0,-1,2001,351,0,0
784,673,0,0,0,0,0,0,0,0,0,-1,2008,351,0,0
791,673,0,0,0,0,0,0,0,0,0,-1,2015,351,0,0
798,673,0,0,0,0,0,0,0,0,0,-1,2022,351,0,0
805,673,0,0,0,0,0,0,0,0,0,-1,2029,351,0,0
812,673,0,0,0,0,0,0,0,0,0,-1,2036,351,0,0
-700,666,0,0,0,0,0,0,0,0,0,-1,524,358,0,0
-693,666,0,0,0,0,0,0,0,0,0,-1,531,358,0,0
-686,666,0,0,0,0,0,0,0,0,0,-1,538,358,0,0
-679,666,0,0,0,0,0,0,0,0,0,-1,545,358,0,0
-672,666,0,0,0,0,0,0,0,0,0,-1,552,358,0,0
-665,666,0,0,0,0,0,0,0,0,0,-1,559,358,0,0
-658,666,0,0,0,0,0,0,0,0,0,-1,566,358,0,0
-651,666,0,0,0,0,0,0,0,0,0,-1,573,358,0,0
-644,666,0,0,0,0,0,0,0,0,0,-1,580,358,0,0
-637,666,0,0,0,0,0,0,0,0,0,-1,587,358,0,0
-630,666,0,0,0,0,0,0,0,0,0,-1,594,358,0,0
-623,666,0,0,0,0,0,0,0,0,0,-1,601,358,0,0
-616,666,0,0,0,0,0,0,0,0,0,-1,608,358,0,0
-609,666,0,0,0,0,0,0,0,0,0,-1,615,358,0,0
-602,666,0,0,0,0,0,0,0,0,0,-1,622,358,0,0
-595,666,0,0,0,0,0,0,0,0,0,-1,629,358,0,0
-588,666,0,0,0,0,0,0,0,0,0,-1,636,358,0,0
-581,666,0,0,0,0,0,0,0,0,0,-1,643,358,0,0
-574,666,0,0,0,0,0,0,0,0,0,-1,650,358,0,0
-567,666,0,0,0,0,0,0,0,0,0,-1,657,358,0,0
-560,666,0,0,0,0,0,0,0,0,0,-1,664,358,0,0
-553,666,0,0,0,0,0,0,0,0,0,-1,671,358,0,0
-546,666,0,0,0,0,0,0,0,0,0,-1,678,358,0,0
-539,666,0,0,0,0,0,0,0,0,0,-1,685,358,0,0
-532,666,0,0,0,0,0,0,0,0,0,-1,692,358,0,0
-525,666,0,0,0,0,0,0,0,0,0,-1,699,358,0,0
-518,666,0,0,0,0,0,0,0,0,0,-1,706,358,0,0
-511,666,0,0,0,0,0,0,0,0,0,-1,713,358,0,0
-504,666,0,0,0,0,0,0,0,0,0,-1,720,358,0,0
-497,666,0,0,0,0,0,0,0,0,0,-1,727,358,0,0
-490,666,0,0,0,0,0,0,0,0,0,-1,734,358,0,0
-483,666,0,0,0,0,0,0,0,0,0,-1,741,358,0,0
-476,666,0,0,0,0,0,0,0,0,0,-1,748,358,0,0
-469,666,0,0,0,0,0,0,0,0,0,-1,755,358,0,0
-462,666,0,0,0,0,0,0,0,0,0,-1,762,358,0,0
-455,666,0,0,0,0,0,0,0,0,0,-1,769,358,0,0
-448,666,0,0,0,0,0,0,0,0,0,-1,776,358,0,0
-441,666,0,0,0,0,0,0,0,0,0,-1,783,358,0,0
-434,666,0,0,0,0,0,0,0,0,0,-1,790,358,0,0
-427,666,0,0,0,0,0,0,0,0,0,-1,797,358,0,0
-420,666,0,0,0,0,0,0,0,0,0,-1,804,358,0,0
-413,666,0,0,0,0,0,0,0,0,0,-1,811,358,0,0
-406,666,0,0,0,0,0,0,0,0,0,-1,818,358,0,0
-399,666,0,0,0,0,0,0,0,0,0,-1,825,358,0,0
-392,666,0,0,0,0,0,0,0,0,0,-1,832,358,0,0
-385,666,0,0,0,0,0,0,0,0,0,-1,839,358,0,0
-378,666,0,0,0,0,0,0,0,0,0,-1,846,358,0,0
-371,666,0,0,0,0,0,0,0,0,0,-1,853,358,0,0
-364,666,0,0,0,0,0,0,0,0,0,-1,860,358,0,0
-357,666,0,0,0,0,0,0,0,0,0,-1,867,358,0,0
-350,666,0,0,0,0,0,0,0,0,0,-1,874,358,0,0
-343,666,0,0,0,0,0,0,0,0,0,-1,881,358,0,0
-336,666,0,0,0,0,0,0,0,0,0,-1,888,358,0,0
-329,666,0,0,0,0,0,0,0,0,0,-1,895,358,0,0
-322,666,0,0,0,0,0,0,0,0,0,-1,902,358,0,0
-315,666,0,0,0,0,0,0,0,0,0,-1,909,358,0,0
-308,666,0,0,0,0,0,0,0,0,0,-1,916,358,0,0
-301,666,0,0,0,0,0,0,0,0,0,-1,923,358,0,0
-294,666,0,0,0,0,0,0,0,0,0,-1,930,358,0,0
-287,666,0,0,0,0,0,0,0,0,0,-1,937,358,0,0
-280,666,0,0,0,0,0,0,0,0,0,-1,944,358,0,0
-273,666,0,0,0,0,0,0,0,0,0,-1,951,358,0,0
-266,666,0,0,0,0,0,0,0,0,0,-1,958,358,0,0
-259,666,0,0,0,0,0,0,0,0,0,-1,965,358,0,0
-252,666,0,0,0,0,0,0,0,0,0,-1,972,358,0,0
-245,666,0,0,0,0,0,0,0,0,0,-1,979,358,0,0
-238,666,0,0,0,0,0,0,0,0,0,-1,986,358,0,0
-231,666,0,0,0,0,0,0,0,0,0,-1,993,358,0,0
-224,666,0,0,0,0,0,0,0,0,0,-1,1000,358,0,0
-217,666,0,0,0,0,0,0,0,0,0,-1,1007,358,0,0
-210,666,0,0,0,0,0,0,0,0,0,-1,1014,358,0,0
-203,666,0,0,0,0,0,0,0,0,0,-1,1021,358,0,0
-196,666,6.60352,-18.3707,0,0,0,0,0,0,0,-1,1028,358,6.60355,18.3707
-189,666,6.39758,-18.0365,0,0,0,0,0,0,0,-1,1035,358,6.39754,18.0365
-182,666,6.09619,-17.953,0,0,0,0,0,0,0,-1,1042,358,6.09622,17.953
-175,666,5.36121,-18.2244,0,0,0,0,0,0,0,-1,1049,358,5.36126,18.2244
-168,666,5.07251,-18.701,0,0,0,0,0,0,0,-1,1056,358,5.07251,18.701
-161,666,2.85913,-19.9752,0,0,0,0,0,0,0,-1,1063,358,2.85915,19.9752
-154,666,4.06226,-20.3654,0,0,0,0,0,0,0,-1,1070,358,4.06225,20.3654
-147,666,3.90955,-19.8705,-0.0395139,-0.0493603,0.0250639,-0.0188942,-0.06998,0.688419,0.0418036,0.0454946,1077,358,3.90952,19.8705
-140,666,3.87439,-19.3901,0,0,0,0,0,0,0,-1,1084,358,3.87434,19.3901
-133,666,3.06873,-18.0516,0,0,0,0,0,0,0,-1,1091,358,3.06867,18.0516
-126,666,1.70483,-17.5127,0,0,0,0,0,0,0,-1,1098,358,1.7048,17.5127
-119,666,4.03979,-18.2237,0,0,0,0,0,0,0,-1,1105,358,4.03984,18.2237
-112,666,3.78772,-17.4467,0,0,0,0,0,0,0,-1,1112,358,3.78774,17.4468
-105,666,3.66309,-18.3801,0,0,0,0,0,0,0,-1,1119,358,3.66307,18.3801
-98,666,2.72217,-17.6818,0,0,0,0,0,0,0,-1,1126,358,2.72216,17.6818
-91,666,2.74976,-16.9264,0,0,0,0,0,0,0,-1,1133,358,2.74972,16.9264
-84,666,2.5249,-14.169,0,0,0,0,0,0,0,-1,1140,358,2.52485,14.169
-77,666,0.964722,-10.3601,0,0,0,0,0,0,0,-1,1147,358,0.964669,10.3601
-70,666,2.05957,-6.51086,0,0,0,0,0,0,0,-1,1154,358,2.05959,6.51088
-63,666,1.47485,-3.79593,0,0,0,0,0,0,0,-1,1161,358,1.47481,3.79593
-56,666,0.424683,-2.04132,0,0,0,0,0,0,0,-1,1168,358,0.424665,2.04132
-49,666,0.754395,-2.23169,0,0,0,0,0,0,0,-1,1175,358,0.754383,2.23169
-42,666,1.34473,-3.53897,0,0,0,0,0,0,0,-1,1182,358,1.34476,3.53896
-35,666,3.14001,-19.8877,0,0,0,0,0,0,0,-1,1189,358,3.14001,19.8877
-28,666,3.36377,-19.8153,0,0,0,0,0,0,0,-1,1196,358,3.36373,19.8153
-21,666,3.34863,-19.7733,-0.00441798,0.0194404,-0.00571048,0.0207367,-0.00571434,-1.34757,0.0160715,0.0329729,1203,358,3.34868,19.7733
-14,666,3.3031,-19.836,-0.00512291,0.0171543,-0.00520416,0.01831,-0.00627869,-1.35226,0.0147519,0.0241591,1210,358,3.3031,19.836
-7,666,3.29883,-19.8757,-0.00562176,0.0163835,-0.00362401,0.0169649,-0.00620322,-1.4117,0.0138488,0.0155254,1217,358,3.29885,19.8757
0,666,3.3053,-19.9093,-0.00578894,0.0154864,-0.00179125,0.0156361,-0.00593869,-1.48739,0.0128688,0.010944,1224,358,3.30529,19.9093
7,666,3.255,-19.9345,-0.00564352,0.0154657,0.000282719,0.0154695,-0.0056473,1.55741,0.0126237,0.0147343,1231,358,3.25495,19.9346
14,666,3.25085,-19.9572,-0.00548746,0.0156473,0.00244982,0.0159276,-0.00576771,1.45689,0.0129755,0.0148987,1238,358,3.25081,19.9571
21,666,3.22754,-20.0126,-0.00545841,0.0168955,0.00470137,0.017844,-0.00640693,1.37171,0.014511,0.0118778,1245,358,3.22748,20.0126
28,666,3.18604,-20.059,-0.00552744,0.0187255,0.00667487,0.0204412,-0.00724312,1.31921,0.0165779,0.0119573,1252,358,3.18602,20.059
35,666,3.19824,-20.0533,-0.00560392,0.0205918,0.00838019,0.0230433,-0.00805539,1.28621,0.0186369,0.0107603,1259,358,3.19819,20.0533
42,666,3.16687,-20.0637,-0.00609218,0.0216248,0.0096525,0.0246551,-0.00912239,1.26661,0.020177,0.0120126,1266,358,3.16686,20.0637
49,666,3.11902,-20.0779,-0.00682465,0.0228071,0.0100923,0.0259179,-0.00993544,1.2718,0.0213745,0.00988571,1273,358,3.11904,20.0779
56,666,3.10632,-20.072,-0.00745935,0.0254836,0.0100297,0.0282969,-0.0102727,1.29732,0.0230645,0.0108816,1280,358,3.10636,20.072
63,666,3.10559,-20.0816,-0.00855116,0.0272611,0.00965294,0.0296972,-0.0109873,1.32358,0.0243031,0.0122876,1287,358,3.10559,20.0816
70,666,3.0835,-20.0583,-0.00979974,0.0309111,0.00829768,0.0325374,-0.011426,1.37726,0.0263397,0.0129109,1294,358,3.08344,20.0583
77,666,3.08618,-20.0361,-0.0113477,0.0371293,0.00642682,0.0379669,-0.0121853,1.4412,0.0302038,0.0180897,1301,358,3.08616,20.0361
84,666,3.07324,-20.0374,-0.0123713,0.0396886,0.00363525,0.0399412,-0.0126239,1.50142,0.0316851,0.0241817,1308,358,3.07324,20.0374
91,666,3.01868,-20.0153,-0.0131932,0.0419388,0.000300513,0.0419404,-0.0131948,1.56535,0.0332432,0.021727,1315,358,3.01866,20.0153
98,666,2.93262,-19.9737,-0.0141001,0.0432094,-0.00402538,0.0434907,-0.0143815,-1.50101,0.0347929,0.0173658,1322,358,2.93262,19.9737
105,666,2.89453,-19.8749,-0.0150402,0.0448692,-0.00755481,0.0458072,-0.0159782,-1.44727,0.0370316,0.0181875,1329,358,2.89454,19.8749
112,666,2.96558,-19.6564,-0.015482,0.0464951,-0.0109669,0.0483785,-0.0173654,-1.40072,0.0393398,0.0353547,1336,358,2.96563,19.6564
119,666,2.98267,-19.551,-0.0154547,0.0475066,-0.0142215,0.0505698,-0.018518,-1.35864,0.0412939,0.0386855,1343,358,2.98272,19.551
126,666,2.90186,-19.5663,-0.0151672,0.0467093,-0.0174332,0.0512829,-0.0197408,-1.31423,0.042332,0.0246362,1350,358,2.90184,19.5663
133,666,2.85083,-19.5202,-0.0148322,0.044278,-0.0202464,0.0505477,-0.021102,-1.27049,0.0425155,0.0211901,1357,358,2.85086,19.5202
140,666,2.80383,-19.5304,-0.0146904,0.0404799,-0.0224594,0.0484667,-0.0226772,-1.22913,0.0419649,0.0203984,1364,358,2.80379,19.5304
147,666,2.74768,-19.4553,-0.014795,0.0360884,-0.0244241,0.0459145,-0.0246211,-1.1883,0.0413376,0.0195678,1371,358,2.74774,19.4553
154,666,2.75757,-19.309,-0.0152566,0.0313277,-0.0260301,0.0429654,-0.0268942,-1.15037,0.0406876,0.0188889,1378,358,2.75762,19.309
161,666,2.78821,-19.2081,-0.0161302,0.0261327,-0.0271682,0.03942,-0.0294175,-1.11593,0.039883,0.0250896,1385,358,2.78824,19.2081
168,666,2.80627,-19.1089,0,0,0,0,0,0,0,-1,1392,358,2.80625,19.109
175,666,2.90332,-19.2861,0,0,0,0,0,0,0,-1,1399,358,2.9033,19.2861
182,666,2.60876,-5.17068,0,0,0,0,0,0,0,-1,1406,358,2.6088,5.17068
189,666,2.46973,-5.49979,0,0,0,0,0,0,0,-1,1413,358,2.46975,5.49979
196,666,2.32458,-5.23651,0,0,0,0,0,0,0,-1,1420,358,2.32461,5.23653
203,666,2.28064,-3.88004,0,0,0,0,0,0,0,-1,1427,358,2.28059,3.88003
210,666,3.02576,-5.83548,0,0,0,0,0,0,0,-1,1434,358,3.02581,5.83547
217,666,2.30444,-5.36011,0,0,0,0,0,0,0,-1,1441,358,2.30447,5.3601
224,666,1.82324,-6.03101,0,0,0,0,0,0,0,-1,1448,358,1.82322,6.031
231,666,2.29797,-10.1093,0,0,0,0,0,0,0,-1,1455,358,2.29801,10.1093
238,666,2.52429,-6.10568,0,0,0,0,0,0,0,-1,1462,358,2.52423,6.10567
245,666,4.53345,-1.38205,0,0,0,0,0,0,0,-1,1469,358,4.53349,1.38204
252,666,4.77405,-0.246979,0,0,0,0,0,0,0,-1,1476,358,4.77405,0.246993
259,666,4.83655,1.14087,0,0,0,0,0,0,0,-1,1483,358,4.83652,-1.14087
266,666,6.14148,0.749512,0,0,0,0,0,0,0,-1,1490,358,6.14144,-0.749519
273,666,2.61304,-1.53772,0,0,0,0,0,0,0,-1,1497,358,2.613,1.53773
280,666,8.70898,-0.836975,0,0,0,0,0,0,0,-1,1504,358,8.70894,0.836988
287,666,2.27039,-4.09058,0,0,0,0,0,0,0,-1,1511,358,2.27042,4.09059
294,666,5.04211,-6.10623,0,0,0,0,0,0,0,-1,1518,358,5.04208,6.10623
301,666,1.35095,-11.8304,0,0,0,0,0,0,0,-1,1525,358,1.3509,11.8304
308,666,1.08496,-1.87576,0,0,0,0,0,0,0,-1,1532,358,1.08491,1.87575
315,666,1.76294,-0.284027,0,0,0,0,0,0,0,-1,1539,358,1.76291,0.284016
322,666,0,0,0,0,0,0,0,0,0,-1,1546,358,0,0
329,666,0,0,0,0,0,0,0,0,0,-1,1553,358,0,0
336,666,0,0,0,0,0,0,0,0,0,-1,1560,358,0,0
343,666,0,0,0,0,0,0,0,0,0,-1,1567,358,0,0
350,666,0,0,0,0,0,0,0,0,0,-1,1574,358,0,0
357,666,0,0,0,0,0,0,0,0,0,-1,1581,358,0,0
364,666,0,0,0,0,0,0,0,0,0,-1,1588,358,0,0
371,666,0,0,0,0,0,0,0,0,0,-1,1595,358,0,0
378,666,0,0,0,0,0,0,0,0,0,-1,1602,358,0,0
385,666,0,0,0,0,0,0,0,0,0,-1,1609,358,0,0
392,666,0,0,0,0,0,0,0,0,0,-1,1616,358,0,0
399,666,0,0,0,0,0,0,0,0,0,-1,1623,358,0,0
406,666,0,0,0,0,0,0,0,0,0,-1,1630,358,0,0
413,666,0,0,0,0,0,0,0,0,0,-1,1637,358,0,0
420,666,0,0,0,0,0,0,0,0,0,-1,1644,358,0,0
427,666,0,0,0,0,0,0,0,0,0,-1,1651,358,0,0
434,666,0,0,0,0,0,0,0,0,0,-1,1658,358,0,0
441,666,0,0,0,0,0,0,0,0,0,-1,1665,358,0,0
448,666,0,0,0,0,0,0,0,0,0,-1,1672,358,0,0
455,666,0,0,0,0,0,0,0,0,0,-1,1679,358,0,0
462,666,0,0,0,0,0,0,0,0,0,-1,1686,358,0,0
469,666,0,0,0,0,0,0,0,0,0,-1,1693,358,0,0
476,666,0,0,0,0,0,0,0,0,0,-1,1700,358,0,0
483,666,0,0,0,0,0,0,0,0,0,-1,1707,358,0,0
490,666,0,0,0,0,0,0,0,0,0,-1,1714,358,0,0
497,666,0,0,0,0,0,0,0,0,0,-1,1721,358,0,0
504,666,0,0,0,0,0,0,0,0,0,-1,1728,358,0,0
511,666,0,0,0,0,0,0,0,0,0,-1,1735,358,0,0
518,666,0,0,0,0,0,0,0,0,0,-1,1742,358,0,0
525,666,0,0,0,0,0,0,0,0,0,-1,1749,358,0,0
532,666,0,0,0,0,0,0,0,0,0,-1,1756,358,0,0
539,666,0,0,0,0,0,0,0,0,0,-1,1763,358,0,0
546,666,0,0,0,0,0,0,0,0,0,-1,1770,358,0,0
553,666,0,0,0,0,0,0,0,0,0,-1,1777,358,0,0
560,666,0,0,0,0,0,0,0,0,0,-1,1784,358,0,0
567,666,0,0,0,0,0,0,0,0,0,-1,1791,358,0,0
574,666,0,0,0,0,0,0,0,0,0,-1,1798,358,0,0
581,666,0,0,0,0,0,0,0,0,0,-1,1805,358,0,0
588,666,0,0,0,0,0,0,0,0,0,-1,1812,358,0,0
595,666,0,0,0,0,0,0,0,0,0,-1,1819,358,0,0
602,666,0,0,0,0,0,0,0,0,0,-1,1826,358,0,0
609,666,0,0,0,0,0,0,0,0,0,-1,1833,358,0,0
616,666,0,0,0,0,0,0,0,0,0,-1,1840,358,0,0
623,666,0,0,0,0,0,0,0,0,0,-1,1847,358,0,0
630,666,0,0,0,0,0,0,0,0,0,-1,1854,358,0,0
637,666,0,0,0,0,0,0,0,0,0,-1,1861,358,0,0
644,666,0,0,0,0,0,0,0,0,0,-1,1868,358,0,0
651,666,0,0,0,0,0,0,0,0,0,-1,1875,358,0,0
658,666,0,0,0,0,0,0,0,0,0,-1,1882,358,0,0
665,666,0,0,0,0,0,0,0,0,0,-1,1889,358,0,0
672,666,0,0,0,0,0,0,0,0,0,-1,1896,358,0,0
679,666,0,0,0,0,0,0,0,0,0,-1,1903,358,0,0
686,666,0,0,0,0,0,0,0,0,0,-1,1910,358,0,0
693,666,0,0,0,0,0,0,0,0,0,-1,1917,358,0,0
700,666,0,0,0,0,0,0,0,0,0,-1,1924,358,0,0
707,666,0,0,0,0,0,0,0,0,0,-1,1931,358,0,0
714,666,0,0,0,0,0,0,0,0,0,-1,1938,358,0,0
721,666,0,0,0,0,0,0,0,0,0,-1,1945,358,0,0
728,666,0,0,0,0,0,0,0,0,0,-1,1952,358,0,0
735,666,0,0,0,0,0,0,0,0,0,-1,1959,358,0,0
742,666,0,0,0,0,0,0,0,0,0,-1,1966,358,0,0
749,666,0,0,0,0,0,0,0,0,0,-1,1973,358,0,0
756,666,0,0,0,0,0,0,0,0,0,-1,1980,358,0,0
763,666,0,0,0,0,0,0,0,0,0,-1,1987,358,0,0
770,666,0,0,0,0,0,0,0,0,0,-1,1994,358,0,0
777,666,0,0,0,0,0,0,0,0,0,-1,2001,358,0,0
784,666,0,0,0,0,0,0,0,0,0,-1,2008,358,0,0
791,666,0,0,0,0,0,0,0,0,0,-1,2015,358,0,0
798,666,0,0,0,0,0,0,0,0,0,-1,2022,358,0,0
805,666,0,0,0,0,0,0,0,0,0,-1,2029,358,0,0
812,666,0,0,0,0,0,0,0,0,0,-1,2036,358,0,0
-700,659,0,0,0,0,0,0,0,0,0,-1,524,365,0,0
-693,659,0,0,0,0,0,0,0,0,0,-1,531,365,0,0
-686,659,0,0,0,0,0,0,0,0,0,-1,538,365,0,0
-679,659,0,0,0,0,0,0,0,0,0,-1,545,365,0,0
-672,659,0,0,0,0,0,0,0,0,0,-1,552,365,0,0
-665,659,0,0,0,0,0,0,0,0,0,-1,559,365,0,0
-658,659,0,0,0,0,0,0,0,0,0,-1,566,365,0,0
-651,659,0,0,0,0,0,0,0,0,0,-1,573,365,0,0
-644,659,0,0,0,0,0,0,0,0,0,-1,580,365,0,0
-637,659,0,0,0,0,0,0,0,0,0,-1,587,365,0,0
-630,659,0,0,0,0,0,0,0,0,0,-1,594,365,0,0
-623,659,0,0,0,0,0,0,0,0,0,-1,601,365,0,0
-616,659,0,0,0,0,0,0,0,0,0,-1,608,365,0,0
-609,659,0,0,0,0,0,0,0,0,0,-1,615,365,0,0
-602,659,0,0,0,0,0,0,0,0,0,-1,622,365,0,0
-595,659,0,0,0,0,0,0,0,0,0,-1,629,365,0,0
-588,659,0,0,0,0,0,0,0,0,0,-1,636,365,0,0
-581,659,0,0,0,0,0,0,0,0,0,-1,643,365,0,0
-574,659,0,0,0,0,0,0,0,0,0,-1,650,365,0,0
-567,659,0,0,0,0,0,0,0,0,0,-1,657,365,0,0
-560,659,0,0,0,0,0,0,0,0,0,-1,664,365,0,0
-553,659,0,0,0,0,0,0,0,0,0,-1,671,365,0,0
-546,659,0,0,0,0,0,0,0,0,0,-1,678,365,0,0
-539,659,0,0,0,0,0,0,0,0,0,-1,685,365,0,0
-532,659,0,0,0,0,0,0,0,0,0,-1,692,365,0,0
-525,659,0,0,0,0,0,0,0,0,0,-1,699,365,0,0
-518,659,0,0,0,0,0,0,0,0,0,-1,706,365,0,0
-511,659,0,0,0,0,0,0,0,0,0,-1,713,365,0,0
-504,659,0,0,0,0,0,0,0,0,0,-1,720,365,0,0
-497,659,0,0,0,0,0,0,0,0,0,-1,727,365,0,0
-490,659,0,0,0,0,0,0,0,0,0,-1,734,365,0,0
-483,659,0,0,0,0,0,0,0,0,0,-1,741,365,0,0
-476,659,0,0,0,0,0,0,0,0,0,-1,748,365,0,0
-469,659,0,0,0,0,0,0,0,0,0,-1,755,365,0,0
-462,659,0,0,0,0,0,0,0,0,0,-1,762,365,0,0
-455,659,0,0,0,0,0,0,0,0,0,-1,769,365,0,0
-448,659,0,0,0,0,0,0,0,0,0,-1,776,365,0,0
-441,659,0,0,0,0,0,0,0,0,0,-1,783,365,0,0
-434,659,0,0,0,0,0,0,0,0,0,-1,790,365,0,0
-427,659,0,0,0,0,0,0,0,0,0,-1,797,365,0,0
-420,659,0,0,0,0,0,0,0,0,0,-1,804,365,0,0
-413,659,0,0,0,0,0,0,0,0,0,-1,811,365,0,0
-406,659,0,0,0,0,0,0,0,0,0,-1,818,365,0,0
-399,659,0,0,0,0,0,0,0,0,0,-1,825,365,0,0
-392,659,0,0,0,0,0,0,0,0,0,-1,832,365,0,0
-385,659,0,0,0,0,0,0,0,0,0,-1,839,365,0,0
-378,659,0,0,0,0,0,0,0,0,0,-1,846,365,0,0
-371,659,0,0,0,0,0,0,0,0,0,-1,853,365,0,0
-364,659,0,0,0,0,0,0,0,0,0,-1,860,365,0,0
-357,659,0,0,0,0,0,0,0,0,0,-1,867,365,0,0
-350,659,0,0,0,0,0,0,0,0,0,-1,874,365,0,0
-343,659,0,0,0,0,0,0,0,0,0,-1,881,365,0,0
-336,659,0,0,0,0,0,0,0,0,0,-1,888,365,0,0
-329,659,0,0,0,0,0,0,0,0,0,-1,895,365,0,0
-322,659,0,0,0,0,0,0,0,0,0,-1,902,365,0,0
-315,659,0,0,0,0,0,0,0,0,0,-1,909,365,0,0
-308,659,0,0,0,0,0,0,0,0,0,-1,916,365,0,0
-301,659,0,0,0,0,0,0,0,0,0,-1,923,365,0,0
-294,659,0,0,0,0,0,0,0,0,0,-1,930,365,0,0
-287,659,0,0,0,0,0,0,0,0,0,-1,937,365,0,0
-280,659,0,0,0,0,0,0,0,0,0,-1,944,365,0,0
-273,659,0,0,0,0,0,0,0,0,0,-1,951,365,0,0
-266,659,0,0,0,0,0,0,0,0,0,-1,958,365,0,0
-259,659,0,0,0,0,0,0,0,0,0,-1,965,365,0,0
-252,659,0,0,0,0,0,0,0,0,0,-1,972,365,0,0
-245,659,0,0,0,0,0,0,0,0,0,-1,979,365,0,0
-238,659,0,0,0,0,0,0,0,0,0,-1,986,365,0,0
-231,659,0,0,0,0,0,0,0,0,0,-1,993,365,0,0
-224,659,0,0,0,0,0,0,0,0,0,-1,1000,365,0,0
-217,659,0.806091,-15.796,0,0,0,0,0,0,0,-1,1007,365,0.806085,15.796
-210,659,1.66937,-16.0386,0,0,0,0,0,0,0,-1,1014,365,1.6694,16.0386
-203,659,0.876404,-18.097,0,0,0,0,0,0,0,-1,1021,365,0.876398,18.097
-196,659,2.38367,-17.2749,0,0,0,0,0,0,0,-1,1028,365,2.38372,17.2749
-189,659,5.37476,-16.5301,0,0,0,0,0,0,0,-1,1035,365,5.37481,16.5301
-182,659,5.19678,-16.6499,0,0,0,0,0,0,0,-1,1042,365,5.19673,16.6499
-175,659,4.92114,-17.0037,0,0,0,0,0,0,0,-1,1049,365,4.9212,17.0037
-168,659,4.6908,-17.4607,0,0,0,0,0,0,0,-1,1056,365,4.69076,17.4607
-161,659,4.31409,-19.1974,0,0,0,0,0,0,0,-1,1063,365,4.31412,19.1974
-154,659,4.01099,-19.383,-0.0331803,-0.0492653,0.0167395,-0.0226515,-0.059794,0.561455,0.0348584,0.0460223,1070,365,4.01104,19.383
-147,659,3.54895,-19.2724,-0.0308218,-0.0404446,0.0164661,-0.0184785,-0.0527879,0.643256,0.0309306,0.0455619,1077,365,3.54892,19.2724
-140,659,3.10669,-19.135,0,0,0,0,0,0,0,-1,1084,365,3.10669,19.135
-133,659,2.86133,-18.1211,-0.0251757,-0.0224402,0.016469,-0.00728219,-0.0403337,0.826828,0.0248204,0.045618,1091,365,2.86131,18.1211
-126,659,1.60413,-17.7657,0,0,0,0,0,0,0,-1,1098,365,1.6041,17.7656
-119,659,3.75525,-18.1678,0,0,0,0,0,0,0,-1,1105,365,3.75519,18.1677
-112,659,3.64673,-18.5223,0,0,0,0,0,0,0,-1,1112,365,3.64675,18.5223
-105,659,3.57764,-18.3846,-0.0160193,0.0049727,0.0163788,0.01393,-0.0249766,1.07035,0.0227625,0.0436046,1119,365,3.5776,18.3846
-98,659,3.37585,-18.1731,-0.0139715,0.00849853,0.015756,0.0166149,-0.0220879,1.09512,0.0224194,0.0452972,1126,365,3.37584,18.1731
-91,659,3.61487,-18.6348,0,0,0,0,0,0,0,-1,1133,365,3.61485,18.6348
-84,659,2.8584,-17.8303,0,0,0,0,0,0,0,-1,1140,365,2.85836,17.8303
-77,659,2.80139,-15.3457,0,0,0,0,0,0,0,-1,1147,365,2.80139,15.3457
-70,659,2.9353,-12.7028,0,0,0,0,0,0,0,-1,1154,365,2.93533,12.7028
-63,659,2.11267,-9.7796,0,0,0,0,0,0,0,-1,1161,365,2.11266,9.7796
-56,659,2.11182,-9.91541,0,0,0,0,0,0,0,-1,1168,365,2.11178,9.91541
-49,659,3.37756,-19.4388,0,0,0,0,0,0,0,-1,1175,365,3.37758,19.4388
-42,659,3.39429,-19.5942,0,0,0,0,0,0,0,-1,1182,365,3.39424,19.5942
-35,659,3.31873,-19.758,-0.00335339,0.0158832,-0.00387688,0.0166352,-0.00410533,-1.37922,0.012682,0.0447044,1189,365,3.31873,19.758
-28,659,3.35034,-19.7681,-0.00392369,0.0145684,-0.00359164,0.0152415,-0.00459678,-1.38554,0.0119906,0.0170347,1196,365,3.35032,19.7681
-21,659,3.32288,-19.807,-0.00434299,0.0133413,-0.00330459,0.0139386,-0.00494033,-1.39197,0.0113049,0.011704,1203,365,3.3229,19.807
-14,659,3.29724,-19.8756,-0.00471665,0.0120242,-0.00299567,0.0125441,-0.00523656,-1.39895,0.0105507,0.00855147,1210,365,3.29722,19.8756
-7,659,3.28284,-19.9179,-0.00491147,0.0117469,-0.00193104,0.0119678,-0.00513238,-1.45689,0.0101323,0.00856214,1217,365,3.28283,19.9179
0,659,3.26855,-19.9615,-0.00485831,0.0112393,-0.000724679,0.0112718,-0.00489087,-1.5259,0.00957089,0.00789256,1224,365,3.26861,19.9615
7,659,3.24756,-19.9969,-0.00459569,0.0113028,0.000636211,0.0113282,-0.00462111,1.53086,0.00947589,0.00738234,1231,365,3.24757,19.9969
14,659,3.22888,-20.0194,-0.00431143,0.0114787,0.00204896,0.0117403,-0.00457298,1.44384,0.00971674,0.0100227,1238,365,3.22888,20.0194
21,659,3.21118,-20.0506,-0.0041284,0.0124312,0.00356335,0.0131654,-0.00486262,1.36759,0.0107701,0.0109522,1245,365,3.21117,20.0506
28,659,3.17639,-20.0885,-0.0040319,0.0137902,0.0049077,0.0150523,-0.00529396,1.31909,0.012189,0.0101227,1252,365,3.17641,20.0885
35,659,3.18408,-20.1065,-0.00394085,0.0151417,0.00606758,0.0169076,-0.00570671,1.28759,0.0135797,0.0102842,1259,365,3.18403,20.1065
42,659,3.17139,-20.1082,-0.00417729,0.0158731,0.00689898,0.0180176,-0.00632175,1.26943,0.0145831,0.0108154,1266,365,3.17143,20.1082
49,659,3.11462,-20.114,-0.00461678,0.0166948,0.00714882,0.0188707,-0.00679265,1.27534,0.015354,0.0103968,1273,365,3.11457,20.114
56,659,3.08411,-20.1173,-0.00502031,0.0186698,0.00708058,0.0206247,-0.00697526,1.30141,0.0165717,0.0134913,1280,365,3.08408,20.1173
63,659,3.11072,-20.131,-0.005755,0.0199717,0.0067806,0.0216494,-0.0074327,1.32824,0.0174465,0.0147463,1287,365,3.11075,20.131
70,659,3.08704,-20.1205,-0.00665968,0.022433,0.00576821,0.0235349,-0.00776161,1.38204,0.0188185,0.0151879,1294,365,3.08701,20.1205
77,659,3.03687,-20.0801,-0.00783308,0.0264036,0.00438089,0.0269552,-0.00838477,1.44553,0.0213219,0.0173274,1301,365,3.03692,20.0802
84,659,3.05005,-20.0714,-0.00867335,0.0279081,0.00236699,0.0280606,-0.00882587,1.50645,0.0222406,0.0130158,1308,365,3.05009,20.0714
91,659,3.01233,-20.0319,-0.00933662,0.029217,-7.18862e-05,0.0292171,-0.00933675,-1.56893,0.0232246,0.0109446,1315,365,3.01237,20.0319
98,659,2.9928,-19.9951,-0.0100205,0.0297936,-0.00323229,0.0300543,-0.0102812,-1.49031,0.0242025,0.00761102,1322,365,2.99284,19.9951
105,659,2.98254,-19.9342,-0.0106929,0.0306107,-0.00576866,0.0314012,-0.0114835,-1.4346,0.0256342,0.00858306,1329,365,2.98249,19.9342
112,659,2.97656,-19.8604,-0.0109808,0.0313571,-0.00816164,0.0328759,-0.0124997,-1.3868,0.0270638,0.01206,1336,365,2.97654,19.8604
119,659,2.95349,-19.7766,-0.0109013,0.0316635,-0.0103507,0.0340471,-0.0132849,-1.34446,0.0281899,0.0138224,1343,365,2.95348,19.7766
126,659,2.94788,-19.7048,-0.0105793,0.0308242,-0.0124587,0.0342841,-0.0140391,-1.29992,0.0287039,0.0127519,1350,365,2.94793,19.7048
133,659,2.90479,-19.6502,-0.0101916,0.0291335,-0.014269,0.0337653,-0.0148235,-1.25692,0.0287545,0.010973,1357,365,2.90478,19.6502
140,659,2.86584,-19.5902,-0.00991058,0.026726,-0.0155546,0.0324391,-0.0156237,-1.2188,0.0283095,0.008626,1364,365,2.86579,19.5902
147,659,2.85107,-19.5025,-0.00973257,0.0240485,-0.0166294,0.0308609,-0.0165449,-1.18199,0.0277826,0.00818437,1371,365,2.8511,19.5025
154,659,2.83069,-19.4053,-0.00977862,0.0211335,-0.0173909,0.028944,-0.0175891,-1.14868,0.0271312,0.00958038,1378,365,2.83073,19.4053
161,659,2.82996,-19.3019,-0.010107,0.0176169,-0.0178355,0.0263438,-0.018834,-1.11574,0.0262033,0.0105027,1385,365,2.83001,19.3019
168,659,2.83826,-19.202,-0.0105216,0.0150564,-0.0176589,0.0240709,-0.0195362,-1.0988,0.0252219,0.0175516,1392,365,2.83825,19.202
175,659,2.82727,-19.1336,-0.0104464,0.0101201,-0.0172616,0.0199294,-0.0202557,-1.05403,0.0232011,0.0416104,1399,365,2.82726,19.1336
182,659,2.68921,-19.1003,0,0,0,0,0,0,0,-1,1406,365,2.68926,19.1004
189,659,2.83423,-18.7467,0,0,0,0,0,0,0,-1,1413,365,2.83421,18.7467
196,659,2.41248,-13.4371,0,0,0,0,0,0,0,-1,1420,365,2.41243,13.4371
203,659,2.38623,-12.2163,0,0,0,0,0,0,0,-1,1427,365,2.38617,12.2163
210,659,2.20789,-13.9792,0,0,0,0,0,0,0,-1,1434,365,2.20794,13.9792
217,659,2.24121,-13.487,0,0,0,0,0,0,0,-1,1441,365,2.24116,13.487
224,659,2.3479,-15.2926,0,0,0,0,0,0,0,-1,1448,365,2.34793,15.2926
231,659,2.47974,-17.8629,0,0,0,0,0,0,0,-1,1455,365,2.47976,17.8628
238,659,2.96875,-17.9995,0,0,0,0,0,0,0,-1,1462,365,2.9687,17.9995
245,659,2.69324,-18.1215,0,0,0,0,0,0,0,-1,1469,365,2.69327,18.1215
252,659,2.02734,-16.3987,0,0,0,0,0,0,0,-1,1476,365,2.02732,16.3987
259,659,2.33069,-3.36703,0,0,0,0,0,0,0,-1,1483,365,2.33073,3.36702
266,659,1.72681,-17.183,0,0,0,0,0,0,0,-1,1490,365,1.72683,17.183
273,659,2.4375,-14.5841,0,0,0,0,0,0,0,-1,1497,365,2.43748,14.5841
280,659,1.70947,-9.4129,0,0,0,0,0,0,0,-1,1504,365,1.70952,9.4129
287,659,5.63684,-10.0938,0,0,0,0,0,0,0,-1,1511,365,5.63681,10.0938
294,659,5.19153,-7.84253,0,0,0,0,0,0,0,-1,1518,365,5.19151,7.84252
301,659,4.35144,-3.54773,0,0,0,0,0,0,0,-1,1525,365,4.35145,3.54772
308,659,-0.0958252,-20.9479,0,0,0,0,0,0,0,-1,1532,365,-0.0958365,20.9479
315,659,2.17102,-2.98474,0,0,0,0,0,0,0,-1,1539,365,2.171,2.98473
322,659,0.382813,-2.2424,0,0,0,0,0,0,0,-1,1546,365,0.382801,2.2424
329,659,0.604004,-1.75998,0,0,0,0,0,0,0,-1,1553,365,0.603966,1.75998
336,659,2.09851,-1.17941,0,0,0,0,0,0,0,-1,1560,365,2.09857,1.17942
343,659,0,0,0,0,0,0,0,0,0,-1,1567,365,0,0
350,659,0,0,0,0,0,0,0,0,0,-1,1574,365,0,0
357,659,0,0,0,0,0,0,0,0,0,-1,1581,365,0,0
364,659,0,0,0,0,0,0,0,0,0,-1,1588,365,0,0
371,659,0,0,0,0,0,0,0,0,0,-1,1595,365,0,0
378,659,0,0,0,0,0,0,0,0,0,-1,1602,365,0,0
385,659,0,0,0,0,0,0,0,0,0,-1,1609,365,0,0
392,659,0,0,0,0,0,0,0,0,0,-1,1616,365,0,0
399,659,0,0,0,0,0,0,0,0,0,-1,1623,365,0,0
406,659,0,0,0,0,0,0,0,0,0,-1,1630,365,0,0
413,659,0,0,0,0,0,0,0,0,0,-1,1637,365,0,0
420,659,0,0,0,0,0,0,0,0,0,-1,1644,365,0,0
427,659,0,0,0,0,0,0,0,0,0,-1,1651,365,0,0
434,659,0,0,0,0,0,0,0,0,0,-1,1658,365,0,0
441,659,0,0,0,0,0,0,0,0,0,-1,1665,365,0,0
448,659,0,0,0,0,0,0,0,0,0,-1,1672,365,0,0
455,659,0,0,0,0,0,0,0,0,0,-1,1679,365,0,0
462,659,0,0,0,0,0,0,0,0,0,-1,1686,365,0,0
469,659,0,0,0,0,0,0,0,0,0,-1,1693,365,0,0
476,659,0,0,0,0,0,0,0,0,0,-1,1700,365,0,0
483,659,0,0,0,0,0,0,0,0,0,-1,1707,365,0,0
490,659,0,0,0,0,0,0,0,0,0,-1,1714,365,0,0
497,659,0,0,0,0,0,0,0,0,0,-1,1721,365,0,0
504,659,0,0,0,0,0,0,0,0,0,-1,1728,365,0,0
511,659,0,0,0,0,0,0,0,0,0,-1,1735,365,0,0
518,659,0,0,0,0,0,0,0,0,0,-1,1742,365,0,0
525,659,0,0,0,0,0,0,0,0,0,-1,1749,365,0,0
532,659,0,0,0,0,0,0,0,0,0,-1,1756,365,0,0
539,659,0,0,0,0,0,0,0,0,0,-1,1763,365,0,0
546,659,0,0,0,0,0,0,0,0,0,-1,1770,365,0,0
553,659,0,0,0,0,0,0,0,0,0,-1,1777,365,0,0
560,659,0,0,0,0,0,0,0,0,0,-1,1784,365,0,0
567,659,0,0,0,0,0,0,0,0,0,-1,1791,365,0,0
574,659,0,0,0,0,0,0,0,0,0,-1,1798,365,0,0
581,659,0,0,0,0,0,0,0,0,0,-1,1805,365,0,0
588,659,0,0,0,0,0,0,0,0,0,-1,1812,365,0,0
595,659,0,0,0,0,0,0,0,0,0,-1,1819,365,0,0
602,659,0,0,0,0,0,0,0,0,0,-1,1826,365,0,0
609,659,0,0,0,0,0,0,0,0,0,-1,1833,365,0,0
616,659,0,0,0,0,0,0,0,0,0,-1,1840,365,0,0
623,659,0,0,0,0,0,0,0,0,0,-1,1847,365,0,0
630,659,0,0,0,0,0,0,0,0,0,-1,1854,365,0,0
637,659,0,0,0,0,0,0,0,0,0,-1,1861,365,0,0
644,659,0,0,0,0,0,0,0,0,0,-1,1868,365,0,0
651,659,0,0,0,0,0,0,0,0,0,-1,1875,365,0,0
658,659,0,0,0,0,0,0,0,0,0,-1,1882,365,0,0
665,659,0,0,0,0,0,0,0,0,0,-1,1889,365,0,0
672,659,0,0,0,0,0,0,0,0,0,-1,1896,365,0,0
679,659,0,0,0,0,0,0,0,0,0,-1,1903,365,0,0
686,659,0,0,0,0,0,0,0,0,0,-1,1910,365,0,0
693,659,0,0,0,0,0,0,0,0,0,-1,1917,365,0,0
700,659,0,0,0,0,0,0,0,0,0,-1,1924,365,0,0
707,659,0,0,0,0,0,0,0,0,0,-1,1931,365,0,0
714,659,0,0,0,0,0,0,0,0,0,-1,1938,365,0,0
721,659,0,0,0,0,0,0,0,0,0,-1,1945,365,0,0
728,659,0,0,0,0,0,0,0,0,0,-1,1952,365,0,0
735,659,0,0,0,0,0,0,0,0,0,-1,1959,365,0,0
742,659,0,0,0,0,0,0,0,0,0,-1,1966,365,0,0
749,659,0,0,0,0,0,0,0,0,0,-1,1973,365,0,0
756,659,0,0,0,0,0,0,0,0,0,-1,1980,365,0,0
763,659,0,0,0,0,0,0,0,0,0,-1,1987,365,0,0
770,659,0,0,0,0,0,0,0,0,0,-1,1994,365,0,0
777,659,0,0,0,0,0,0,0,0,0,-1,2001,365,0,0
784,659,0,0,0,0,0,0,0,0,0,-1,2008,365,0,0
791,659,0,0,0,0,0,0,0,0,0,-1,2015,365,0,0
798,659,0,0,0,0,0,0,0,0,0,-1,2022,365,0,0
805,659,0,0,0,0,0,0,0,0,0,-1,2029,365,0,0
812,659,0,0,0,0,0,0,0,0,0,-1,2036,365,0,0
-700,652,0,0,0,0,0,0,0,0,0,-1,524,372,0,0
-693,652,0,0,0,0,0,0,0,0,0,-1,531,372,0,0
-686,652,0,0,0,0,0,0,0,0,0,-1,538,372,0,0
-679,652,0,0,0,0,0,0,0,0,0,-1,545,372,0,0
-672,652,0,0,0,0,0,0,0,0,0,-1,552,372,0,0
-665,652,0,0,0,0,0,0,0,0,0,-1,559,372,0,0
-658,652,0,0,0,0,0,0,0,0,0,-1,566,372,0,0
-651,652,0,0,0,0,0,0,0,0,0,-1,573,372,0,0
-644,652,0,0,0,0,0,0,0,0,0,-1,580,372,0,0
-637,652,0,0,0,0,0,0,0,0,0,-1,587,372,0,0
-630,652,0,0,0,0,0,0,0,0,0,-1,594,372,0,0
-623,652,0,0,0,0,0,0,0,0,0,-1,601,372,0,0
-616,652,0,0,0,0,0,0,0,0,0,-1,608,372,0,0
-609,652,0,0,0,0,0,0,0,0,0,-1,615,372,0,0
-602,652,0,0,0,0,0,0,0,0,0,-1,622,372,0,0
-595,652,0,0,0,0,0,0,0,0,0,-1,629,372,0,0
-588,652,0,0,0,0,0,0,0,0,0,-1,636,372,0,0
-581,652,0,0,0,0,0,0,0,0,0,-1,643,372,0,0
-574,652,0,0,0,0,0,0,0,0,0,-1,650,372,0,0
-567,652,0,0,0,0,0,0,0,0,0,-1,657,372,0,0
-560,652,0,0,0,0,0,0,0,0,0,-1,664,372,0,0
-553,652,0,0,0,0,0,0,0,0,0,-1,671,372,0,0
-546,652,0,0,0,0,0,0,0,0,0,-1,678,372,0,0
-539,652,0,0,0,0,0,0,0,0,0,-1,685,372,0,0
-532,652,0,0,0,0,0,0,0,0,0,-1,692,372,0,0
-525,652,0,0,0,0,0,0,0,0,0,-1,699,372,0,0
-518,652,0,0,0,0,0,0,0,0,0,-1,706,372,0,0
-511,652,0,0,0,0,0,0,0,0,0,-1,713,372,0,0
-504,652,0,0,0,0,0,0,0,0,0,-1,720,372,0,0
-497,652,0,0,0,0,0,0,0,0,0,-1,727,372,0,0
-490,652,0,0,0,0,0,0,0,0,0,-1,734,372,0,0
-483,652,0,0,0,0,0,0,0,0,0,-1,741,372,0,0
-476,652,0,0,0,0,0,0,0,0,0,-1,748,372,0,0
-469,652,0,0,0,0,0,0,0,0,0,-1,755,372,0,0
-462,652,0,0,0,0,0,0,0,0,0,-1,762,372,0,0
-455,652,0,0,0,0,0,0,0,0,0,-1,769,372,0,0
-448,652,0,0,0,0,0,0,0,0,0,-1,776,372,0,0
-441,652,0,0,0,0,0,0,0,0,0,-1,783,372,0,0
-434,652,0,0,0,0,0,0,0,0,0,-1,790,372,0,0
-427,652,0,0,0,0,0,0,0,0,0,-1,797,372,0,0
-420,652,0,0,0,0,0,0,0,0,0,-1,804,372,0,0
-413,652,0,0,0,0,0,0,0,0,0,-1,811,372,0,0
-406,652,0,0,0,0,0,0,0,0,0,-1,818,372,0,0
-399,652,0,0,0,0,0,0,0,0,0,-1,825,372,0,0
-392,652,0,0,0,0,0,0,0,0,0,-1,832,372,0,0
-385,652,0,0,0,0,0,0,0,0,0,-1,839,372,0,0
-378,652,0,0,0,0,0,0,0,0,0,-1,846,372,0,0
-371,652,0,0,0,0,0,0,0,0,0,-1,853,372,0,0
-364,652,0,0,0,0,0,0,0,0,0,-1,860,372,0,0
-357,652,0,0,0,0,0,0,0,0,0,-1,867,372,0,0
-350,652,0,0,0,0,0,0,0,0,0,-1,874,372,0,0
-343,652,0,0,0,0,0,0,0,0,0,-1,881,372,0,0
-336,652,0,0,0,0,0,0,0,0,0,-1,888,372,0,0
-329,652,0,0,0,0,0,0,0,0,0,-1,895,372,0,0
-322,652,0,0,0,0,0,0,0,0,0,-1,902,372,0,0
-315,652,0,0,0,0,0,0,0,0,0,-1,909,372,0,0
-308,652,0,0,0,0,0,0,0,0,0,-1,916,372,0,0
-301,652,0,0,0,0,0,0,0,0,0,-1,923,372,0,0
-294,652,0,0,0,0,0,0,0,0,0,-1,930,372,0,0
-287,652,0,0,0,0,0,0,0,0,0,-1,937,372,0,0
-280,652,0,0,0,0,0,0,0,0,0,-1,944,372,0,0
-273,652,0,0,0,0,0,0,0,0,0,-1,951,372,0,0
-266,652,0,0,0,0,0,0,0,0,0,-1,958,372,0,0
-259,652,0,0,0,0,0,0,0,0,0,-1,965,372,0,0
-252,652,0,0,0,0,0,0,0,0,0,-1,972,372,0,0
-245,652,0,0,0,0,0,0,0,0,0,-1,979,372,0,0
-238,652,0,0,0,0,0,0,0,0,0,-1,986,372,0,0
-231,652,-0.0509033,-13.1051,0,0,0,0,0,0,0,-1,993,372,-0.0509221,13.1051
-224,652,1.83624,-9.07111,0,0,0,0,0,0,0,-1,1000,372,1.83626,9.0711
-217,652,2.88489,-16.6299,0,0,0,0,0,0,0,-1,1007,372,2.88488,16.6299
-210,652,3.10815,-16.6885,0,0,0,0,0,0,0,-1,1014,372,3.10813,16.6885
-203,652,1.35736,-17.4617,0,0,0,0,0,0,0,-1,1021,372,1.35736,17.4617
-196,652,2.57312,-16.9845,0,0,0,0,0,0,0,-1,1028,372,2.57306,16.9845
-189,652,3.03674,-16.0751,0,0,0,0,0,0,0,-1,1035,372,3.0368,16.0751
-182,652,4.71582,-15.2441,0,0,0,0,0,0,0,-1,1042,372,4.71577,15.2441
-175,652,4.4906,-15.7271,0,0,0,0,0,0,0,-1,1049,372,4.49057,15.7271
-168,652,3.31653,-17.4377,0,0,0,0,0,0,0,-1,1056,372,3.3165,17.4377
-161,652,3.51721,-18.3103,0,0,0,0,0,0,0,-1,1063,372,3.51719,18.3103
-154,652,3.61719,-18.6289,-0.0249749,-0.0382427,0.0101745,-0.0194626,-0.043755,0.496504,0.0253132,0.0436008,1070,372,3.61723,18.6289
-147,652,3.41736,-18.752,-0.0233155,-0.0318366,0.0100705,-0.0166414,-0.0385107,0.585281,0.0223024,0.0425697,1077,372,3.4173,18.752
-140,652,3.31897,-18.8532,0,0,0,0,0,0,0,-1,1084,372,3.31902,18.8532
-133,652,2.92358,-18.0004,0,0,0,0,0,0,0,-1,1091,372,2.92357,18.0004
-126,652,2.9646,-17.8897,0,0,0,0,0,0,0,-1,1098,372,2.96458,17.8897
-119,652,3.58276,-18.1465,-0.0153746,-0.00573805,0.0106687,0.00115,-0.0222627,0.997501,0.0152396,0.0354404,1105,372,3.58279,18.1465
-112,652,3.54358,-18.3527,-0.0137352,-0.000859712,0.0106399,0.00513846,-0.0197334,1.05746,0.0151615,0.0266861,1112,372,3.54361,18.3527
-105,652,3.51257,-18.4411,-0.0122684,0.00317427,0.0104656,0.00845858,-0.0175527,1.10322,0.0153205,0.0229648,1119,372,3.51253,18.4411
-98,652,3.47729,-18.5668,-0.0106272,0.00636986,0.00992263,0.0109359,-0.0151933,1.13952,0.0151523,0.025035,1126,372,3.47734,18.5668
-91,652,3.46899,-18.7253,-0.00920388,0.00859168,0.00899678,0.0123475,-0.0129597,1.17533,0.0146125,0.0336689,1133,372,3.46901,18.7253
-84,652,3.48584,-18.7379,0,0,0,0,0,0,0,-1,1140,372,3.48586,18.7379
-77,652,3.42053,-19.02,0,0,0,0,0,0,0,-1,1147,372,3.42052,19.02
-70,652,3.37012,-19.1879,0,0,0,0,0,0,0,-1,1154,372,3.37006,19.1879
-63,652,3.36096,-19.3098,0,0,0,0,0,0,0,-1,1161,372,3.36096,19.3098
-56,652,3.35632,-19.386,0,0,0,0,0,0,0,-1,1168,372,3.35636,19.386
-49,652,3.35596,-19.4982,-0.00345963,0.0112314,-0.00171846,0.0114297,-0.00365796,-1.45589,0.00908795,0.037508,1175,372,3.35594,19.4982
-42,652,3.29797,-19.5759,-0.00315123,0.0105008,-0.00203793,0.0107986,-0.00344896,-1.42573,0.00858288,0.0118435,1182,372,3.29798,19.5759
-35,652,3.30627,-19.6659,-0.00356208,0.0102438,-0.00181495,0.0104784,-0.00379669,-1.44224,0.00853739,0.00956527,1189,372,3.30628,19.6659
-28,652,3.28784,-19.7467,-0.00390991,0.00960358,-0.00154201,0.00977731,-0.00408363,-1.45861,0.00822459,0.00790813,1196,372,3.28784,19.7467
-21,652,3.25061,-19.817,-0.00410982,0.00898672,-0.00128077,0.0091108,-0.0042339,-1.47422,0.0078742,0.00773596,1203,372,3.25056,19.817
-14,652,3.25366,-19.8674,-0.00428863,0.00818067,-0.00103385,0.00826581,-0.00437377,-1.48863,0.00741189,0.00913692,1210,372,3.25365,19.8674
-7,652,3.24731,-19.9407,-0.00430755,0.00808386,-0.000335792,0.00809295,-0.00431664,-1.54372,0.00727442,0.0125342,1217,372,3.2473,19.9407
0,652,3.22058,-19.9857,-0.0041024,0.00777825,0.000393577,0.00779128,-0.00411543,1.53772,0.00698268,0.0127252,1224,372,3.2206,19.9857
7,652,3.21008,-19.9926,-0.00374495,0.0078353,0.00121869,0.00796217,-0.00387181,1.46707,0.00696707,0.012452,1231,372,3.21008,19.9926
14,652,3.20752,-20.0425,-0.00337152,0.00794403,0.00208077,0.00831452,-0.00374202,1.39459,0.00712576,0.0112009,1238,372,3.20752,20.0425
21,652,3.18359,-20.0952,-0.00306024,0.00862463,0.00301649,0.00935739,-0.003793,1.33249,0.00781566,0.0106272,1245,372,3.18362,20.0952
28,652,3.16553,-20.124,-0.00278303,0.00954746,0.00384605,0.0106487,-0.00388431,1.29192,0.00868835,0.0096559,1252,372,3.16551,20.124
35,652,3.14661,-20.1396,-0.00249565,0.0104502,0.00457467,0.0119036,-0.00394903,1.26318,0.00952883,0.00980971,1259,372,3.14662,20.1397
42,652,3.12817,-20.135,-0.00249651,0.0108816,0.0050471,0.0125721,-0.00418699,1.2476,0.0100715,0.0107076,1266,372,3.1282,20.135
49,652,3.11597,-20.1364,-0.00263604,0.0113267,0.00512445,0.0130056,-0.0043149,1.2542,0.0104111,0.013064,1273,372,3.11598,20.1364
56,652,3.10864,-20.1389,-0.002809,0.0126313,0.00501451,0.0141169,-0.00429461,1.28277,0.0111227,0.0148151,1280,372,3.10869,20.1388
63,652,3.10364,-20.1416,-0.00319493,0.01342,0.00463407,0.0146251,-0.00440001,1.31638,0.0115008,0.0183563,1287,372,3.10367,20.1416
70,652,3.09094,-20.1189,-0.0038391,0.0143192,0.00370847,0.0150474,-0.00456728,1.37691,0.0118511,0.0154637,1294,372,3.091,20.1189
77,652,3.04065,-20.0852,-0.00475063,0.0156595,0.00273535,0.0160198,-0.00511086,1.43985,0.0127302,0.0158468,1301,372,3.04062,20.0852
84,652,3.06372,-20.0849,-0.00549777,0.0158073,0.00148406,0.0159102,-0.00560065,1.50158,0.012886,0.0138809,1308,372,3.06369,20.0849
91,652,3.03918,-20.0828,-0.00610007,0.0158206,-0.000248841,0.0158234,-0.00610289,-1.55945,0.0130672,0.0163068,1315,372,3.03924,20.0828
98,652,3.04822,-20.0046,-0.00671366,0.0152855,-0.0024739,0.0155603,-0.00698843,-1.46018,0.0133284,0.013009,1322,372,3.04817,20.0046
105,652,3.02917,-19.9284,-0.0073025,0.0149432,-0.00416769,0.0156983,-0.00805768,-1.39154,0.01395,0.0104829,1329,372,3.0292,19.9284
112,652,3.01221,-19.8888,-0.00757872,0.0145999,-0.00568477,0.0159721,-0.00895093,-1.33394,0.0145784,0.00893358,1336,372,3.01221,19.8888
119,652,3.00659,-19.8119,-0.00755487,0.0141961,-0.00698311,0.016245,-0.00960378,-1.2854,0.0150871,0.00988079,1343,372,3.00665,19.8119
126,652,2.97693,-19.7462,-0.00730217,0.0132562,-0.00815791,0.0161,-0.010146,-1.23537,0.0152826,0.0117764,1350,372,2.9769,19.7463
133,652,2.92749,-19.6815,-0.00696697,0.0121388,-0.00907231,0.0157603,-0.0105885,-1.191,0.0153098,0.0121215,1357,372,2.92748,19.6815
140,652,2.91187,-19.6057,-0.00666164,0.0109994,-0.00957729,0.0151958,-0.0108581,-1.15782,0.0151116,0.00941043,1364,372,2.91183,19.6057
147,652,2.91516,-19.5136,-0.00633634,0.0098725,-0.00993227,0.0145873,-0.0110511,-1.1276,0.0148492,0.00911637,1371,372,2.91515,19.5136
154,652,2.91284,-19.4082,-0.00617262,0.00873738,-0.0100366,0.0137848,-0.0112201,-1.10483,0.0144619,0.00958411,1378,372,2.9128,19.4082
161,652,2.90027,-19.3031,-0.0061643,0.00710807,-0.00998613,0.012462,-0.0115182,-1.07866,0.0138485,0.0103225,1385,372,2.90026,19.3031
168,652,2.88354,-19.2061,-0.00620498,0.00626654,-0.00947895,0.0113769,-0.0113154,-1.07634,0.0131014,0.0108371,1392,372,2.88353,19.2061
175,652,2.8739,-19.0846,-0.00597441,0.00498188,-0.00860125,0.00970136,-0.0106939,-1.06895,0.0117798,0.0116699,1399,372,2.87386,19.0846
182,652,2.854,-18.9792,-0.00507219,0.00261061,-0.00799776,0.00764167,-0.0101032,-1.00928,0.0102778,0.017412,1406,372,2.85405,18.9792
189,652,2.87512,-18.8559,-0.00487381,0.00334948,-0.00661192,0.00702392,-0.00854825,-1.06356,0.00900494,0.0286893,1413,372,2.8751,18.8559
196,652,2.83179,-18.6915,0,0,0,0,0,0,0,-1,1420,372,2.83181,18.6915
203,652,2.82361,-18.5395,0,0,0,0,0,0,0,-1,1427,372,2.82357,18.5395
210,652,2.85803,-18.3662,0,0,0,0,0,0,0,-1,1434,372,2.85807,18.3662
217,652,2.84509,-18.2362,0,0,0,0,0,0,0,-1,1441,372,2.84504,18.2362
224,652,2.73132,-18.1255,0,0,0,0,0,0,0,-1,1448,372,2.73128,18.1255
231,652,2.69348,-17.8165,-0.00106527,0.00471447,0.00294758,0.0059525,-0.0023033,1.17315,0.00491925,0.0489118,1455,372,2.69345,17.8165
238,652,2.86072,-17.7699,-0.000784182,0.00569278,0.00348207,0.00720957,-0.00230097,1.15998,0.00572951,0.0441667,1462,372,2.86075,17.7699
245,652,2.73535,-17.7186,-0.000709672,0.00683956,0.00394585,0.00852548,-0.00239559,1.16701,0.0066281,0.0431637,1469,372,2.73541,17.7186
252,652,2.70703,-17.3123,0,0,0,0,0,0,0,-1,1476,372,2.70709,17.3123
259,652,2.69629,-16.9708,0,0,0,0,0,0,0,-1,1483,372,2.69629,16.9708
266,652,2.59521,-16.6963,0,0,0,0,0,0,0,-1,1490,372,2.59517,16.6963
273,652,2.57288,-16.6568,0,0,0,0,0,0,0,-1,1497,372,2.57294,16.6568
280,652,2.47961,-14.9797,0,0,0,0,0,0,0,-1,1504,372,2.47958,14.9797
287,652,6.36182,-12.2355,0,0,0,0,0,0,0,-1,1511,372,6.3618,12.2355
294,652,5.29248,-8.064,0,0,0,0,0,0,0,-1,1518,372,5.29254,8.064
301,652,-2.11365,-21.2409,0,0,0,0,0,0,0,-1,1525,372,-2.1137,21.2409
308,652,0.201904,-18.7653,0,0,0,0,0,0,0,-1,1532,372,0.201964,18.7653
315,652,2.33008,-15.3782,0,0,0,0,0,0,0,-1,1539,372,2.33012,15.3782
322,652,3.10327,-14.0434,0,0,0,0,0,0,0,-1,1546,372,3.10324,14.0434
329,652,2.7074,-13.3513,0,0,0,0,0,0,0,-1,1553,372,2.70745,13.3513
336,652,1.76904,-14.9183,0,0,0,0,0,0,0,-1,1560,372,1.7691,14.9183
343,652,4.18225,-6.7092,0,0,0,0,0,0,0,-1,1567,372,4.18231,6.70921
350,652,4.64563,-7.2074,0,0,0,0,0,0,0,-1,1574,372,4.6456,7.2074
357,652,0,0,0,0,0,0,0,0,0,-1,1581,372,0,0
364,652,0,0,0,0,0,0,0,0,0,-1,1588,372,0,0
371,652,0,0,0,0,0,0,0,0,0,-1,1595,372,0,0
378,652,0,0,0,0,0,0,0,0,0,-1,1602,372,0,0
385,652,0,0,0,0,0,0,0,0,0,-1,1609,372,0,0
392,652,0,0,0,0,0,0,0,0,0,-1,1616,372,0,0
399,652,0,0,0,0,0,0,0,0,0,-1,1623,372,0,0
406,652,0,0,0,0,0,0,0,0,0,-1,1630,372,0,0
413,652,0,0,0,0,0,0,0,0,0,-1,1637,372,0,0
420,652,0,0,0,0,0,0,0,0,0,-1,1644,372,0,0
427,652,0,0,0,0,0,0,0,0,0,-1,1651,372,0,0
434,652,0,0,0,0,0,0,0,0,0,-1,1658,372,0,0
441,652,0,0,0,0,0,0,0,0,0,-1,1665,372,0,0
448,652,0,0,0,0,0,0,0,0,0,-1,1672,372,0,0
455,652,0,0,0,0,0,0,0,0,0,-1,1679,372,0,0
462,652,0,0,0,0,0,0,0,0,0,-1,1686,372,0,0
469,652,0,0,0,0,0,0,0,0,0,-1,1693,372,0,0
476,652,0,0,0,0,0,0,0,0,0,-1,1700,372,0,0
483,652,0,0,0,0,0,0,0,0,0,-1,1707,372,0,0
490,652,0,0,0,0,0,0,0,0,0,-1,1714,372,0,0
497,652,0,0,0,0,0,0,0,0,0,-1,1721,372,0,0
504,652,0,0,0,0,0,0,0,0,0,-1,1728,372,0,0
511,652,0,0,0,0,0,0,0,0,0,-1,1735,372,0,0
518,652,0,0,0,0,0,0,0,0,0,-1,1742,372,0,0
525,652,0,0,0,0,0,0,0,0,0,-1,1749,372,0,0
532,652,0,0,0,0,0,0,0,0,0,-1,1756,372,0,0
539,652,0,0,0,0,0,0,0,0,0,-1,1763,372,0,0
546,652,0,0,0,0,0,0,0,0,0,-1,1770,372,0,0
553,652,0,0,0,0,0,0,0,0,0,-1,1777,372,0,0
560,652,0,0,0,0,0,0,0,0,0,-1,1784,372,0,0
567,652,0,0,0,0,0,0,0,0,0,-1,1791,372,0,0
574,652,0,0,0,0,0,0,0,0,0,-1,1798,372,0,0
581,652,0,0,0,0,0,0,0,0,0,-1,1805,372,0,0
588,652,0,0,0,0,0,0,0,0,0,-1,1812,372,0,0
595,652,0,0,0,0,0,0,0,0,0,-1,1819,372,0,0
602,652,0,0,0,0,0,0,0,0,0,-1,1826,372,0,0
609,652,0,0,0,0,0,0,0,0,0,-1,1833,372,0,0
616,652,0,0,0,0,0,0,0,0,0,-1,1840,372,0,0
623,652,0,0,0,0,0,0,0,0,0,-1,1847,372,0,0
630,652,0,0,0,0,0,0,0,0,0,-1,1854,372,0,0
637,652,0,0,0,0,0,0,0,0,0,-1,1861,372,0,0
644,652,0,0,0,0,0,0,0,0,0,-1,1868,372,0,0
651,652,0,0,0,0,0,0,0,0,0,-1,1875,372,0,0
658,652,0,0,0,0,0,0,0,0,0,-1,1882,372,0,0
665,652,0,0,0,0,0,0,0,0,0,-1,1889,372,0,0
672,652,0,0,0,0,0,0,0,0,0,-1,1896,372,0,0
679,652,0,0,0,0,0,0,0,0,0,-1,1903,372,0,0
686,652,0,0,0,0,0,0,0,0,0,-1,1910,372,0,0
693,652,0,0,0,0,0,0,0,0,0,-1,1917,372,0,0
700,652,0,0,0,0,0,0,0,0,0,-1,1924,372,0,0
707,652,0,0,0,0,0,0,0,0,0,-1,1931,372,0,0
714,652,0,0,0,0,0,0,0,0,0,-1,1938,372,0,0
721,652,0,0,0,0,0,0,0,0,0,-1,1945,372,0,0
728,652,0,0,0,0,0,0,0,0,0,-1,1952,372,0,0
735,652,0,0,0,0,0,0,0,0,0,-1,1959,372,0,0
742,652,0,0,0,0,0,0,0,0,0,-1,1966,372,0,0
749,652,0,0,0,0,0,0,0,0,0,-1,1973,372,0,0
756,652,0,0,0,0,0,0,0,0,0,-1,1980,372,0,0
763,652,0,0,0,0,0,0,0,0,0,-1,1987,372,0,0
770,652,0,0,0,0,0,0,0,0,0,-1,1994,372,0,0
777,652,0,0,0,0,0,0,0,0,0,-1,2001,372,0,0
784,652,0,0,0,0,0,0,0,0,0,-1,2008,372,0,0
791,652,0,0,0,0,0,0,0,0,0,-1,2015,372,0,0
798,652,0,0,0,0,0,0,0,0,0,-1,2022,372,0,0
805,652,0,0,0,0,0,0,0,0,0,-1,2029,372,0,0
812,652,0,0,0,0,0,0,0,0,0,-1,2036,372,0,0
-700,645,0,0,0,0,0,0,0,0,0,-1,524,379,0,0
-693,645,0,0,0,0,0,0,0,0,0,-1,531,379,0,0
-686,645,0,0,0,0,0,0,0,0,0,-1,538,379,0,0
-679,645,0,0,0,0,0,0,0,0,0,-1,545,379,0,0
-672,645,0,0,0,0,0,0,0,0,0,-1,552,379,0,0
-665,645,0,0,0,0,0,0,0,0,0,-1,559,379,0,0
-658,645,0,0,0,0,0,0,0,0,0,-1,566,379,0,0
-651,645,0,0,0,0,0,0,0,0,0,-1,573,379,0,0
-644,645,0,0,0,0,0,0,0,0,0,-1,580,379,0,0
-637,645,0,0,0,0,0,0,0,0,0,-1,587,379,0,0
-630,645,0,0,0,0,0,0,0,0,0,-1,594,379,0,0
-623,645,0,0,0,0,0,0,0,0,0,-1,601,379,0,0
-616,645,0,0,0,0,0,0,0,0,0,-1,608,379,0,0
-609,645,0,0,0,0,0,0,0,0,0,-1,615,379,0,0
-602,645,0,0,0,0,0,0,0,0,0,-1,622,379,0,0
-595,645,0,0,0,0,0,0,0,0,0,-1,629,379,0,0
-588,645,0,0,0,0,0,0,0,0,0,-1,636,379,0,0
-581,645,0,0,0,0,0,0,0,0,0,-1,643,379,0,0
-574,645,0,0,0,0,0,0,0,0,0,-1,650,379,0,0
-567,645,0,0,0,0,0,0,0,0,0,-1,657,379,0,0
-560,645,0,0,0,0,0,0,0,0,0,-1,664,379,0,0
-553,645,0,0,0,0,0,0,0,0,0,-1,671,379,0,0
-546,645,0,0,0,0,0,0,0,0,0,-1,678,379,0,0
-539,645,0,0,0,0,0,0,0,0,0,-1,685,379,0,0
-532,645,0,0,0,0,0,0,0,0,0,-1,692,379,0,0
-525,645,0,0,0,0,0,0,0,0,0,-1,699,379,0,0
-518,645,0,0,0,0,0,0,0,0,0,-1,706,379,0,0
-511,645,0,0,0,0,0,0,0,0,0,-1,713,379,0,0
-504,645,0,0,0,0,0,0,0,0,0,-1,720,379,0,0
-497,645,0,0,0,0,0,0,0,0,0,-1,727,379,0,0
-490,645,0,0,0,0,0,0,0,0,0,-1,734,379,0,0
-483,645,0,0,0,0,0,0,0,0,0,-1,741,379,0,0
-476,645,0,0,0,0,0,0,0,0,0,-1,748,379,0,0
-469,645,0,0,0,0,0,0,0,0,0,-1,755,379,0,0
-462,645,0,0,0,0,0,0,0,0,0,-1,762,379,0,0
-455,645,0,0,0,0,0,0,0,0,0,-1,769,379,0,0
-448,645,0,0,0,0,0,0,0,0,0,-1,776,379,0,0
-441,645,0,0,0,0,0,0,0,0,0,-1,783,379,0,0
-434,645,0,0,0,0,0,0,0,0,0,-1,790,379,0,0
-427,645,0,0,0,0,0,0,0,0,0,-1,797,379,0,0
-420,645,0,0,0,0,0,0,0,0,0,-1,804,379,0,0
-413,645,0,0,0,0,0,0,0,0,0,-1,811,379,0,0
-406,645,0,0,0,0,0,0,0,0,0,-1,818,379,0,0
-399,645,0,0,0,0,0,0,0,0,0,-1,825,379,0,0
-392,645,0,0,0,0,0,0,0,0,0,-1,832,379,0,0
-385,645,0,0,0,0,0,0,0,0,0,-1,839,379,0,0
-378,645,0,0,0,0,0,0,0,0,0,-1,846,379,0,0
-371,645,0,0,0,0,0,0,0,0,0,-1,853,379,0,0
-364,645,0,0,0,0,0,0,0,0,0,-1,860,379,0,0
-357,645,0,0,0,0,0,0,0,0,0,-1,867,379,0,0
-350,645,0,0,0,0,0,0,0,0,0,-1,874,379,0,0
-343,645,0,0,0,0,0,0,0,0,0,-1,881,379,0,0
-336,645,0,0,0,0,0,0,0,0,0,-1,888,379,0,0
-329,645,0,0,0,0,0,0,0,0,0,-1,895,379,0,0
-322,645,0,0,0,0,0,0,0,0,0,-1,902,379,0,0
-315,645,0,0,0,0,0,0,0,0,0,-1,909,379,0,0
-308,645,0,0,0,0,0,0,0,0,0,-1,916,379,0,0
-301,645,0,0,0,0,0,0,0,0,0,-1,923,379,0,0
-294,645,0,0,0,0,0,0,0,0,0,-1,930,379,0,0
-287,645,0,0,0,0,0,0,0,0,0,-1,937,379,0,0
-280,645,0,0,0,0,0,0,0,0,0,-1,944,379,0,0
-273,645,0,0,0,0,0,0,0,0,0,-1,951,379,0,0
-266,645,0,0,0,0,0,0,0,0,0,-1,958,379,0,0
-259,645,0,0,0,0,0,0,0,0,0,-1,965,379,0,0
-252,645,3.57031,-12.7438,0,0,0,0,0,0,0,-1,972,379,3.57033,12.7438
-245,645,2.27789,-13.5026,0,0,0,0,0,0,0,-1,979,379,2.2779,13.5026
-238,645,0.993347,-14.2849,0,0,0,0,0,0,0,-1,986,379,0.993334,14.2848
-231,645,4.76465,-17.1852,0,0,0,0,0,0,0,-1,993,379,4.76463,17.1852
-224,645,4.32983,-18.4094,0,0,0,0,0,0,0,-1,1000,379,4.32981,18.4094
-217,645,4.55615,-19.2188,0,0,0,0,0,0,0,-1,1007,379,4.55617,19.2187
-210,645,5.05524,-17.6685,0,0,0,0,0,0,0,-1,1014,379,5.05522,17.6685
-203,645,4.50842,-16.9673,0,0,0,0,0,0,0,-1,1021,379,4.50848,16.9673
-196,645,2.53796,-16.0215,0,0,0,0,0,0,0,-1,1028,379,2.53799,16.0215
-189,645,4.11768,-16.7195,0,0,0,0,0,0,0,-1,1035,379,4.11767,16.7195
-182,645,3.60986,-17.1694,0,0,0,0,0,0,0,-1,1042,379,3.60991,17.1694
-175,645,2.89355,-15.8995,0,0,0,0,0,0,0,-1,1049,379,2.89358,15.8995
-168,645,3.36719,-16.9891,0,0,0,0,0,0,0,-1,1056,379,3.36714,16.9891
-161,645,3.41296,-17.7982,-0.0199752,-0.032838,0.00495401,-0.0182884,-0.0345248,0.328178,0.0199447,0.0469488,1063,379,3.41299,17.7982
-154,645,3.45886,-17.9993,-0.0182873,-0.0284966,0.00564523,-0.0157811,-0.0310028,0.417823,0.0179005,0.0395644,1070,379,3.45887,17.9993
-147,645,3.25012,-18.0199,-0.0171259,-0.0240665,0.00560576,-0.0140032,-0.0271892,0.508238,0.0157001,0.0387815,1077,379,3.25015,18.0199
-140,645,3.15808,-18.0523,-0.0156026,-0.0195125,0.00567804,-0.0115524,-0.0235627,0.619606,0.0136048,0.0395563,1084,379,3.15807,18.0523
-133,645,3.14563,-17.9565,-0.0138759,-0.0145124,0.00594361,-0.00824202,-0.0201463,0.758648,0.0116953,0.0341143,1091,379,3.14563,17.9565
-126,645,3.43311,-18.0193,-0.0124301,-0.00947012,0.00623973,-0.00453726,-0.017363,0.90184,0.0103983,0.0260407,1098,379,3.43315,18.0193
-119,645,3.448,-18.2041,-0.0111901,-0.0049377,0.00634041,-0.000994688,-0.0151332,1.01444,0.0097741,0.0173188,1105,379,3.44798,18.2041
-112,645,3.41467,-18.3924,-0.00998188,-0.00117692,0.00633795,0.00213757,-0.0132964,1.08895,0.00965595,0.0120142,1112,379,3.41472,18.3924
-105,645,3.38733,-18.5415,-0.00891395,0.00207742,0.00620255,0.00486873,-0.0117053,1.14792,0.0098366,0.0117872,1119,379,3.38731,18.5415
-98,645,3.35889,-18.6644,-0.00764773,0.00479702,0.00577732,0.00706554,-0.00991626,1.19663,0.00985039,0.0136863,1126,379,3.3589,18.6644
-91,645,3.34656,-18.7963,-0.00651645,0.00669728,0.0051244,0.00845164,-0.00827082,1.24095,0.0096549,0.0156307,1133,379,3.34656,18.7962
-84,645,3.34229,-18.9349,-0.00567319,0.00621844,0.00457248,0.00777331,-0.00722806,1.24301,0.00866295,0.0153586,1140,379,3.34223,18.9349
-77,645,3.30554,-19.0907,-0.004312,0.00551558,0.00388256,0.00686435,-0.00566077,1.23645,0.0072425,0.0127764,1147,379,3.30551,19.0907
-70,645,3.28027,-19.2012,-0.00393318,0.00457476,0.00298198,0.00551584,-0.00487425,1.2651,0.00600253,0.0113243,1154,379,3.28026,19.2012
-63,645,3.27783,-19.2902,-0.00337627,0.00527462,0.00183039,0.00564596,-0.00374761,1.37064,0.00546017,0.0110345,1161,379,3.27783,19.2902
-56,645,3.26758,-19.3696,-0.00318417,0.00649576,0.000651713,0.00653944,-0.00322785,1.50387,0.00574617,0.0119059,1168,379,3.26752,19.3696
-49,645,3.24792,-19.4752,-0.00315775,0.00633294,-0.000743398,0.00639081,-0.00321563,-1.4931,0.00564637,0.0104196,1175,379,3.24794,19.4752
-42,645,3.23181,-19.5807,-0.00306518,0.00575829,-0.000842649,0.00583805,-0.00314493,-1.47643,0.00526344,0.0105138,1182,379,3.23177,19.5807
-35,645,3.22852,-19.681,-0.00338542,0.0055499,-0.000584987,0.00558804,-0.00342356,-1.5057,0.00525264,0.0101958,1189,379,3.22846,19.681
-28,645,3.20544,-19.7775,-0.00357318,0.00509283,-0.000306988,0.00510369,-0.00358404,-1.53543,0.00504138,0.00824583,1196,379,3.20547,19.7775
-21,645,3.18213,-19.8296,-0.00358663,0.00474166,-9.89436e-05,0.00474283,-0.00358781,-1.55892,0.00482508,0.00974841,1203,379,3.18217,19.8296
-14,645,3.19495,-19.8839,-0.00354746,0.00421267,5.09814e-05,0.00421301,-0.00354779,1.56423,0.00448618,0.00955382,1210,379,3.19493,19.8838
-7,645,3.20959,-19.9539,-0.00332224,0.00393873,0.000300633,0.00395116,-0.00333467,1.52949,0.00421149,0.012989,1217,379,3.20954,19.9539
0,645,3.17725,-19.9801,-0.00292947,0.00361603,0.000568086,0.00366497,-0.00297841,1.48486,0.00384238,0.0236419,1224,379,3.17726,19.9801
7,645,3.16125,-20.0283,-0.00247014,0.0035719,0.000901405,0.00370351,-0.00260175,1.42581,0.00365882,0.0157571,1231,379,3.16124,20.0283
14,645,3.16577,-20.0583,-0.00202584,0.00352341,0.00127765,0.00380345,-0.00230587,1.35503,0.00356236,0.0155584,1238,379,3.16573,20.0583
21,645,3.13831,-20.1086,-0.00163277,0.00392853,0.00172765,0.00442154,-0.00212577,1.29282,0.00385677,0.0104834,1245,379,3.13833,20.1086
28,645,3.13196,-20.1302,-0.00126934,0.00449741,0.0021651,0.0052198,-0.00199173,1.24876,0.00430038,0.00899292,1252,379,3.13192,20.1302
35,645,3.12207,-20.1467,-0.000899203,0.00503918,0.00254605,0.00598131,-0.00184134,1.21638,0.00472254,0.00839395,1259,379,3.12209,20.1467
42,645,3.11206,-20.1687,-0.000721167,0.0052885,0.00273309,0.00634553,-0.0017782,1.20176,0.00493115,0.00840979,1266,379,3.1121,20.1687
49,645,3.13281,-20.1735,-0.000696384,0.00552469,0.00274499,0.00656269,-0.00173439,1.20927,0.00505346,0.011696,1273,379,3.13285,20.1735
56,645,3.13635,-20.1693,-0.000749329,0.00636234,0.00269325,0.00726717,-0.00165416,1.24668,0.00548003,0.0118125,1280,379,3.13638,20.1693
63,645,3.1283,-20.162,-0.000921562,0.0068662,0.00254357,0.00762335,-0.00167871,1.28148,0.00572445,0.0115294,1287,379,3.12825,20.162
70,645,3.09546,-20.1328,-0.00122043,0.00823863,0.00198521,0.00863838,-0.00162018,1.37209,0.00636806,0.0150387,1294,379,3.09548,20.1328
77,645,3.073,-20.1222,-0.00172086,0.00856204,0.00127092,0.00871679,-0.00187561,1.44963,0.00652685,0.01792,1301,379,3.07302,20.1222
84,645,3.09082,-20.1016,-0.00211849,0.00869923,0.000439085,0.00871702,-0.00213629,1.5303,0.00663902,0.0135182,1308,379,3.09076,20.1016
91,645,3.07776,-20.0673,-0.00243705,0.00890421,-0.000647885,0.0089411,-0.00247394,-1.51392,0.00693408,0.0147964,1315,379,3.0778,20.0673
98,645,3.08826,-20.0013,-0.00277669,0.0087198,-0.00203647,0.00906988,-0.00312677,-1.40056,0.00731509,0.0138975,1322,379,3.08825,20.0013
105,645,3.07202,-19.9393,-0.00303912,0.00844647,-0.00310912,0.00923409,-0.00382674,-1.32269,0.0077531,0.0105487,1329,379,3.07201,19.9393
112,645,3.05591,-19.9,-0.0031007,0.00801666,-0.00408601,0.00935685,-0.00444089,-1.25386,0.00813292,0.00828708,1336,379,3.05585,19.9
119,645,3.05823,-19.8362,-0.00297262,0.00757948,-0.00488143,0.00949128,-0.00488441,-1.19751,0.00844067,0.00828934,1343,379,3.05829,19.8362
126,645,3.04126,-19.764,-0.00268447,0.00668417,-0.00553163,0.00924843,-0.00524872,-1.13672,0.00847545,0.0108891,1350,379,3.04125,19.764
133,645,3.02466,-19.6961,-0.00232812,0.0056714,-0.00595765,0.00884741,-0.00550412,-1.08102,0.00836047,0.0121252,1357,379,3.02467,19.6961
140,645,3.02271,-19.6145,-0.00202559,0.00478569,-0.00602031,0.00829688,-0.00553678,-1.0428,0.00803968,0.0119533,1364,379,3.02273,19.6145
147,645,3.00415,-19.526,-0.00165106,0.00387627,-0.00591365,0.00764017,-0.00541496,-1.00399,0.00757379,0.0126013,1371,379,3.00409,19.526
154,645,3.00903,-19.423,-0.00138681,0.00309213,-0.00562176,0.00690406,-0.00519874,-0.974943,0.00701064,0.0119332,1378,379,3.00908,19.423
161,645,2.99585,-19.3305,-0.0012526,0.00212762,-0.00526553,0.00596763,-0.00509262,-0.940692,0.0063923,0.0135806,1385,379,2.99583,19.3305
168,645,2.98157,-19.2411,-0.00124548,0.00193551,-0.00475775,0.00536158,-0.00467155,-0.946707,0.00579719,0.0156422,1392,379,2.98157,19.2411
175,645,2.98865,-19.1189,-0.00112951,0.00275453,-0.00417572,0.00541773,-0.00379271,-1.00306,0.00534517,0.0144287,1399,379,2.98869,19.1189
182,645,2.98145,-18.9827,-0.000735098,0.00327601,-0.00342886,0.00524277,-0.00270186,-1.05002,0.00466438,0.0107398,1406,379,2.98149,18.9827
189,645,2.96521,-18.835,-0.000972173,0.00363583,-0.00253686,0.00475879,-0.00209513,-1.15406,0.0040555,0.0108333,1413,379,2.96526,18.835
196,645,2.9469,-18.7074,-0.00140179,0.00278786,-0.00100816,0.00301783,-0.00163176,-1.34652,0.00272391,0.0112865,1420,379,2.94687,18.7074
203,645,2.9281,-18.5647,-0.00133469,0.00254896,0.00130629,0.00294745,-0.00173318,1.27471,0.00273251,0.0113311,1427,379,2.92816,18.5647
210,645,2.94543,-18.3953,-0.00101578,0.00291121,0.00202792,0.00377044,-0.00187501,1.17003,0.00332007,0.0149542,1434,379,2.94543,18.3953
217,645,2.92517,-18.2757,-0.0011537,0.00307354,0.00210068,0.00393989,-0.00202005,1.17963,0.00349998,0.014718,1441,379,2.92522,18.2757
224,645,2.86707,-18.1404,-0.00119508,0.00356322,0.0021775,0.00440926,-0.00204113,1.20021,0.00380687,0.0136462,1448,379,2.86712,18.1404
231,645,2.85608,-17.8982,-0.00109893,0.00416286,0.00236372,0.00506874,-0.00200482,1.20482,0.00420969,0.015974,1455,379,2.85611,17.8982
238,645,2.83032,-17.7571,-0.000851384,0.00500714,0.00285854,0.00617077,-0.00201502,1.18421,0.0049249,0.0126825,1462,379,2.83033,17.7571
245,645,2.81628,-17.5681,-0.000770841,0.00593372,0.00327024,0.00726463,-0.00210175,1.18429,0.00567492,0.0123833,1469,379,2.81625,17.5681
252,645,2.82263,-17.3364,-0.000473761,0.00705257,0.00384537,0.00866976,-0.00209095,1.1727,0.00658837,0.0179448,1476,379,2.82266,17.3364
259,645,2.81921,-17.0952,6.86728e-06,0.00848192,0.00459976,0.0104985,-0.00200976,1.15761,0.00775623,0.0296923,1483,379,2.8192,17.0952
266,645,2.74402,-16.8929,0.00045518,0.00983057,0.00544091,0.0123247,-0.00203891,1.14098,0.00897362,0.0269214,1490,379,2.74398,16.8929
273,645,2.74402,-16.7366,0.00136829,0.0108833,0.00634892,0.0140594,-0.00180784,1.10694,0.01003,0.0274691,1497,379,2.74407,16.7366
280,645,2.80811,-16.5762,0,0,0,0,0,0,0,-1,1504,379,2.80811,16.5762
287,645,3.11743,-16.1545,0,0,0,0,0,0,0,-1,1511,379,3.11737,16.1546
294,645,2.81799,-15.901,0,0,0,0,0,0,0,-1,1518,379,2.81801,15.901
301,645,-1.56445,-18.9762,0,0,0,0,0,0,0,-1,1525,379,-1.56445,18.9762
308,645,1.63428,-17.5499,0,0,0,0,0,0,0,-1,1532,379,1.63424,17.5499
315,645,3.13208,-15.7474,0,0,0,0,0,0,0,-1,1539,379,3.13204,15.7474
322,645,2.62317,-13.9917,0,0,0,0,0,0,0,-1,1546,379,2.62314,13.9917
329,645,4.3324,-15.2804,0,0,0,0,0,0,0,-1,1553,379,4.33237,15.2804
336,645,2.35303,-12.1996,0,0,0,0,0,0,0,-1,1560,379,2.35297,12.1996
343,645,0.977295,-13.792,0,0,0,0,0,0,0,-1,1567,379,0.977251,13.792
350,645,3.93213,-5.72198,0,0,0,0,0,0,0,-1,1574,379,3.9321,5.72198
357,645,1.63928,-6.465,0,0,0,0,0,0,0,-1,1581,379,1.63926,6.46499
364,645,-0.0794678,-3.22021,0,0,0,0,0,0,0,-1,1588,379,-0.0794987,3.22021
371,645,0,0,0,0,0,0,0,0,0,-1,1595,379,0,0
378,645,0,0,0,0,0,0,0,0,0,-1,1602,379,0,0
385,645,0,0,0,0,0,0,0,0,0,-1,1609,379,0,0
392,645,0,0,0,0,0,0,0,0,0,-1,1616,379,0,0
399,645,0,0,0,0,0,0,0,0,0,-1,1623,379,0,0
406,645,0,0,0,0,0,0,0,0,0,-1,1630,379,0,0
413,645,0,0,0,0,0,0,0,0,0,-1,1637,379,0,0
420,645,0,0,0,0,0,0,0,0,0,-1,1644,379,0,0
427,645,0,0,0,0,0,0,0,0,0,-1,1651,379,0,0
434,645,0,0,0,0,0,0,0,0,0,-1,1658,379,0,0
441,645,0,0,0,0,0,0,0,0,0,-1,1665,379,0,0
448,645,0,0,0,0,0,0,0,0,0,-1,1672,379,0,0
455,645,0,0,0,0,0,0,0,0,0,-1,1679,379,0,0
462,645,0,0,0,0,0,0,0,0,0,-1,1686,379,0,0
469,645,0,0,0,0,0,0,0,0,0,-1,1693,379,0,0
476,645,0,0,0,0,0,0,0,0,0,-1,1700,379,0,0
483,645,0,0,0,0,0,0,0,0,0,-1,1707,379,0,0
490,645,0,0,0,0,0,0,0,0,0,-1,1714,379,0,0
497,645,0,0,0,0,0,0,0,0,0,-1,1721,379,0,0
504,645,0,0,0,0,0,0,0,0,0,-1,1728,379,0,0
511,645,0,0,0,0,0,0,0,0,0,-1,1735,379,0,0
518,645,0,0,0,0,0,0,0,0,0,-1,1742,379,0,0
525,645,0,0,0,0,0,0,0,0,0,-1,1749,379,0,0
532,645,0,0,0,0,0,0,0,0,0,-1,1756,379,0,0
539,645,0,0,0,0,0,0,0,0,0,-1,1763,379,0,0
546,645,0,0,0,0,0,0,0,0,0,-1,1770,379,0,0
553,645,0,0,0,0,0,0,0,0,0,-1,1777,379,0,0
560,645,0,0,0,0,0,0,0,0,0,-1,1784,379,0,0
567,645,0,0,0,0,0,0,0,0,0,-1,1791,379,0,0
574,645,0,0,0,0,0,0,0,0,0,-1,1798,379,0,0
581,645,0,0,0,0,0,0,0,0,0,-1,1805,379,0,0
588,645,0,0,0,0,0,0,0,0,0,-1,1812,379,0,0
595,645,0,0,0,0,0,0,0,0,0,-1,1819,379,0,0
602,645,0,0,0,0,0,0,0,0,0,-1,1826,379,0,0
609,645,0,0,0,0,0,0,0,0,0,-1,1833,379,0,0
616,645,0,0,0,0,0,0,0,0,0,-1,1840,379,0,0
623,645,0,0,0,0,0,0,0,0,0,-1,1847,379,0,0
630,645,0,0,0,0,0,0,0,0,0,-1,1854,379,0,0
637,645,0,0,0,0,0,0,0,0,0,-1,1861,379,0,0
644,645,0,0,0,0,0,0,0,0,0,-1,1868,379,0,0
651,645,0,0,0,0,0,0,0,0,0,-1,1875,379,0,0
658,645,0,0,0,0,0,0,0,0,0,-1,1882,379,0,0
665,645,0,0,0,0,0,0,0,0,0,-1,1889,379,0,0
672,645,0,0,0,0,0,0,0,0,0,-1,1896,379,0,0
679,645,0,0,0,0,0,0,0,0,0,-1,1903,379,0,0
686,645,0,0,0,0,0,0,0,0,0,-1,1910,379,0,0
693,645,0,0,0,0,0,0,0,0,0,-1,1917,379,0,0
700,645,0,0,0,0,0,0,0,0,0,-1,1924,379,0,0
707,645,0,0,0,0,0,0,0,0,0,-1,1931,379,0,0
714,645,0,0,0,0,0,0,0,0,0,-1,1938,379,0,0
721,645,0,0,0,0,0,0,0,0,0,-1,1945,379,0,0
728,645,0,0,0,0,0,0,0,0,0,-1,1952,379,0,0
735,645,0,0,0,0,0,0,0,0,0,-1,1959,379,0,0
742,645,0,0,0,0,0,0,0,0,0,-1,1966,379,0,0
749,645,0,0,0,0,0,0,0,0,0,-1,1973,379,0,0
756,645,0,0,0,0,0,0,0,0,0,-1,1980,379,0,0
763,645,0,0,0,0,0,0,0,0,0,-1,1987,379,0,0
770,645,0,0,0,0,0,0,0,0,0,-1,1994,379,0,0
777,645,0,0,0,0,0,0,0,0,0,-1,2001,379,0,0
784,645,0,0,0,0,0,0,0,0,0,-1,2008,379,0,0
791,645,0,0,0,0,0,0,0,0,0,-1,2015,379,0,0
798,645,0,0,0,0,0,0,0,0,0,-1,2022,379,0,0
805,645,0,0,0,0,0,0,0,0,0,-1,2029,379,0,0
812,645,0,0,0,0,0,0,0,0,0,-1,2036,379,0,0
-700,638,0,0,0,0,0,0,0,0,0,-1,524,386,0,0
-693,638,0,0,0,0,0,0,0,0,0,-1,531,386,0,0
-686,638,0,0,0,0,0,0,0,0,0,-1,538,386,0,0
-679,638,0,0,0,0,0,0,0,0,0,-1,545,386,0,0
-672,638,0,0,0,0,0,0,0,0,0,-1,552,386,0,0
-665,638,0,0,0,0,0,0,0,0,0,-1,559,386,0,0
-658,638,0,0,0,0,0,0,0,0,0,-1,566,386,0,0
-651,638,0,0,0,0,0,0,0,0,0,-1,573,386,0,0
-644,638,0,0,0,0,0,0,0,0,0,-1,580,386,0,0
-637,638,0,0,0,0,0,0,0,0,0,-1,587,386,0,0
-630,638,0,0,0,0,0,0,0,0,0,-1,594,386,0,0
-623,638,0,0,0,0,0,0,0,0,0,-1,601,386,0,0
-616,638,0,0,0,0,0,0,0,0,0,-1,608,386,0,0
-609,638,0,0,0,0,0,0,0,0,0,-1,615,386,0,0
-602,638,0,0,0,0,0,0,0,0,0,-1,622,386,0,0
-595,638,0,0,0,0,0,0,0,0,0,-1,629,386,0,0
-588,638,0,0,0,0,0,0,0,0,0,-1,636,386,0,0
-581,638,0,0,0,0,0,0,0,0,0,-1,643,386,0,0
-574,638,0,0,0,0,0,0,0,0,0,-1,650,386,0,0
-567,638,0,0,0,0,0,0,0,0,0,-1,657,386,0,0
-560,638,0,0,0,0,0,0,0,0,0,-1,664,386,0,0
-553,638,0,0,0,0,0,0,0,0,0,-1,671,386,0,0
-546,638,0,0,0,0,0,0,0,0,0,-1,678,386,0,0
-539,638,0,0,0,0,0,0,0,0,0,-1,685,386,0,0
-532,638,0,0,0,0,0,0,0,0,0,-1,692,386,0,0
-525,638,0,0,0,0,0,0,0,0,0,-1,699,386,0,0
-518,638,0,0,0,0,0,0,0,0,0,-1,706,386,0,0
-511,638,0,0,0,0,0,0,0,0,0,-1,713,386,0,0
-504,638,0,0,0,0,0,0,0,0,0,-1,720,386,0,0
-497,638,0,0,0,0,0,0,0,0,0,-1,727,386,0,0
-490,638,0,0,0,0,0,0,0,0,0,-1,734,386,0,0
-483,638,0,0,0,0,0,0,0,0,0,-1,741,386,0,0
-476,638,0,0,0,0,0,0,0,0,0,-1,748,386,0,0
-469,638,0,0,0,0,0,0,0,0,0,-1,755,386,0,0
-462,638,0,0,0,0,0,0,0,0,0,-1,762,386,0,0
-455,638,0,0,0,0,0,0,0,0,0,-1,769,386,0,0
-448,638,0,0,0,0,0,0,0,0,0,-1,776,386,0,0
-441,638,0,0,0,0,0,0,0,0,0,-1,783,386,0,0
-434,638,0,0,0,0,0,0,0,0,0,-1,790,386,0,0
-427,638,0,0,0,0,0,0,0,0,0,-1,797,386,0,0
-420,638,0,0,0,0,0,0,0,0,0,-1,804,386,0,0
-413,638,0,0,0,0,0,0,0,0,0,-1,811,386,0,0
-406,638,0,0,0,0,0,0,0,0,0,-1,818,386,0,0
-399,638,0,0,0,0,0,0,0,0,0,-1,825,386,0,0
-392,638,0,0,0,0,0,0,0,0,0,-1,832,386,0,0
-385,638,0,0,0,0,0,0,0,0,0,-1,839,386,0,0
-378,638,0,0,0,0,0,0,0,0,0,-1,846,386,0,0
-371,638,0,0,0,0,0,0,0,0,0,-1,853,386,0,0
-364,638,0,0,0,0,0,0,0,0,0,-1,860,386,0,0
-357,638,0,0,0,0,0,0,0,0,0,-1,867,386,0,0
-350,638,0,0,0,0,0,0,0,0,0,-1,874,386,0,0
-343,638,0,0,0,0,0,0,0,0,0,-1,881,386,0,0
-336,638,0,0,0,0,0,0,0,0,0,-1,888,386,0,0
-329,638,0,0,0,0,0,0,0,0,0,-1,895,386,0,0
-322,638,0,0,0,0,0,0,0,0,0,-1,902,386,0,0
-315,638,0,0,0,0,0,0,0,0,0,-1,909,386,0,0
-308,638,0,0,0,0,0,0,0,0,0,-1,916,386,0,0
-301,638,0,0,0,0,0,0,0,0,0,-1,923,386,0,0
-294,638,0,0,0,0,0,0,0,0,0,-1,930,386,0,0
-287,638,0,0,0,0,0,0,0,0,0,-1,937,386,0,0
-280,638,0,0,0,0,0,0,0,0,0,-1,944,386,0,0
-273,638,0,0,0,0,0,0,0,0,0,-1,951,386,0,0
-266,638,5.203,-11.6631,0,0,0,0,0,0,0,-1,958,386,5.203,11.6631
-259,638,4.63385,-11.2466,0,0,0,0,0,0,0,-1,965,386,4.63383,11.2465
-252,638,3.03979,-12.6195,0,0,0,0,0,0,0,-1,972,386,3.03981,12.6195
-245,638,2.12054,-13.6139,0,0,0,0,0,0,0,-1,979,386,2.12052,13.6139
-238,638,3.80823,-17.0571,0,0,0,0,0,0,0,-1,986,386,3.80822,17.0571
-231,638,4.19507,-16.7842,0.0330726,-0.058142,0.000938336,0.0330823,-0.0581517,0.0102857,0.0533327,0.0463622,993,386,4.19504,16.7843
-224,638,4.03497,-17.5518,0,0,0,0,0,0,0,-1,1000,386,4.03497,17.5519
-217,638,4.16846,-18.2269,0,0,0,0,0,0,0,-1,1007,386,4.16843,18.2269
-210,638,4.29834,-18.8424,0,0,0,0,0,0,0,-1,1014,386,4.29836,18.8424
-203,638,1.64349,-16.5565,0,0,0,0,0,0,0,-1,1021,386,1.64348,16.5566
-196,638,4.12427,-16.7184,0,0,0,0,0,0,0,-1,1028,386,4.12424,16.7184
-189,638,3.77588,-16.5204,-0.0101978,-0.0312169,0.00372501,-0.00955719,-0.0318575,0.170313,0.018877,0.0481197,1035,386,3.7759,16.5203
-182,638,3.39502,-16.766,-0.0147085,-0.0287788,0.00319205,-0.0140182,-0.0294691,0.212975,0.0170207,0.0456925,1042,386,3.39508,16.766
-175,638,3.34827,-15.5898,0,0,0,0,0,0,0,-1,1049,386,3.34832,15.5898
-168,638,3.3197,-16.9973,-0.0156389,-0.0253598,0.00235645,-0.0150978,-0.0259009,0.225716,0.0150223,0.0357118,1056,386,3.31968,16.9973
-161,638,3.3031,-17.2283,-0.0142108,-0.0230262,0.00225481,-0.0136676,-0.0235695,0.236427,0.0136656,0.0308778,1063,386,3.30308,17.2283
-154,638,3.34253,-17.4073,-0.0130305,-0.0203292,0.00272395,-0.012126,-0.0212337,0.320601,0.0123005,0.0232586,1070,386,3.34249,17.4073
-147,638,3.31494,-17.5955,-0.012218,-0.0174396,0.00269657,-0.0110754,-0.0185821,0.400779,0.0107941,0.0192054,1077,386,3.3149,17.5955
-140,638,3.32275,-17.7506,-0.0110697,-0.0144391,0.00275829,-0.00952231,-0.0159865,0.511247,0.00928591,0.0147171,1084,386,3.3228,17.7506
-133,638,3.31543,-17.9601,-0.00971306,-0.0108999,0.00300017,-0.00724819,-0.0133648,0.687759,0.00772537,0.0118574,1091,386,3.31544,17.9601
-126,638,3.32019,-18.1101,-0.00861731,-0.00723797,0.00327539,-0.00458043,-0.0112749,0.889162,0.00654757,0.0132152,1098,386,3.3202,18.1101
-119,638,3.31531,-18.2406,-0.00769787,-0.00388254,0.00337091,-0.00191693,-0.00966348,1.04289,0.00590793,0.0144999,1105,386,3.31526,18.2406
-112,638,3.29968,-18.412,-0.00679037,-0.00105056,0.00337896,0.000512781,-0.00835371,1.13746,0.0057477,0.0135992,1112,386,3.29973,18.412
-105,638,3.26172,-18.5806,-0.00600012,0.00150098,0.00326637,0.00272394,-0.00722308,1.21254,0.0059355,0.0157235,1119,386,3.26175,18.5806
-98,638,3.25537,-18.7095,-0.0050406,0.00367949,0.00293094,0.00457305,-0.00593416,1.27488,0.00608328,0.0159857,1126,386,3.25534,18.7095
-91,638,3.23364,-18.8329,-0.00416718,0.00516678,0.00247705,0.00578341,-0.00478381,1.32682,0.00611008,0.0128498,1133,386,3.23361,18.8329
-84,638,3.18188,-18.9704,-0.00356638,0.00487226,0.00217292,0.00539891,-0.00409303,1.33301,0.00549744,0.0141634,1140,386,3.18188,18.9704
-77,638,3.1781,-19.1055,-0.00265859,0.00433696,0.00179322,0.00476984,-0.00309147,1.33393,0.00457308,0.010954,1147,386,3.17811,19.1055
-70,638,3.19324,-19.2039,-0.00243621,0.0035807,0.0013239,0.00385912,-0.00271463,1.36352,0.00381448,0.0101057,1154,386,3.19322,19.2039
-63,638,3.19775,-19.2978,-0.00203117,0.00344741,0.000840928,0.00357358,-0.00215734,1.42187,0.00334226,0.0111292,1161,386,3.19776,19.2978
-56,638,3.17651,-19.4063,-0.00177899,0.00365593,0.000286886,0.00367104,-0.00179409,1.51821,0.00321672,0.0138147,1168,386,3.17653,19.4063
-49,638,3.15491,-19.5125,-0.00161501,0.00332815,-0.00033839,0.00335121,-0.00163806,-1.50276,0.00293661,0.0123187,1175,386,3.15496,19.5125
-42,638,3.16528,-19.5906,-0.00145771,0.00272631,-0.000223326,0.00273819,-0.0014696,-1.51762,0.0024659,0.0119466,1182,386,3.16523,19.5907
-35,638,3.15808,-19.6835,-0.00160273,0.00244194,9.07289e-05,0.00244397,-0.00160477,1.54838,0.00235422,0.0103089,1189,386,3.15812,19.6835
-28,638,3.14868,-19.7631,-0.00157945,0.00208071,0.000322006,0.00210883,-0.00160757,1.48371,0.00215216,0.00955319,1196,386,3.14868,19.7631
-21,638,3.1145,-19.8188,-0.00137313,0.00179387,0.00041892,0.00184834,-0.0014276,1.44148,0.00189656,0.0110113,1203,386,3.11454,19.8188
-14,638,3.11987,-19.888,-0.00110795,0.00144544,0.000418135,0.00151217,-0.00117467,1.41254,0.00155532,0.01101,1210,386,3.11988,19.888
-7,638,3.15771,-19.9617,-0.000733403,0.00122449,0.000324557,0.00127689,-0.000785802,1.41073,0.00120209,0.0162344,1217,386,3.15767,19.9617
0,638,3.15173,-19.9774,-0.000314006,0.000970398,0.000196968,0.000999925,-0.000343534,1.422,0.000805915,0.027772,1224,386,3.15177,19.9774
7,638,3.11316,-20.0262,5.00218e-05,0.000873986,0.0001007,0.000886114,3.78934e-05,1.45093,0.000578525,0.0211699,1231,386,3.11321,20.0261
14,638,3.11987,-20.0662,0.000329584,0.00073093,9.2592e-05,0.000751261,0.000309252,1.35465,0.000435992,0.0117965,1238,386,3.11986,20.0662
21,638,3.11853,-20.1125,0.000507457,0.000903722,0.00015755,0.000958727,0.000452453,1.2349,0.000553812,0.0104392,1245,386,3.11855,20.1126
28,638,3.10425,-20.1262,0.000605412,0.00115852,0.000282091,0.00127701,0.000486925,1.17314,0.000744174,0.00875836,1252,386,3.10422,20.1262
35,638,3.10559,-20.1482,0.000663729,0.00139067,0.000421832,0.00158403,0.000470377,1.14101,0.000939339,0.0100826,1259,386,3.10559,20.1482
42,638,3.11523,-20.1759,0.000592078,0.00141969,0.000457551,0.00162281,0.000388966,1.15302,0.000978338,0.00898585,1266,386,3.11522,20.1759
49,638,3.14148,-20.1705,0.000419309,0.00142805,0.000480151,0.00162005,0.000227307,1.1904,0.00101281,0.00820173,1273,386,3.14151,20.1705
56,638,3.13196,-20.1638,0.000267464,0.00175688,0.000541543,0.00193296,9.13792e-05,1.25643,0.00125929,0.0112168,1280,386,3.13198,20.1638
63,638,3.12488,-20.1735,8.72256e-05,0.00200709,0.000546863,0.00215193,-5.76181e-05,1.31188,0.00145421,0.0128144,1287,386,3.12487,20.1735
70,638,3.11951,-20.145,-0.000178681,0.00387719,0.000268441,0.00389488,-0.000196371,1.50499,0.00266445,0.0170369,1294,386,3.11954,20.145
77,638,3.11365,-20.1457,-0.000498448,0.00445291,-7.73361e-05,0.00445412,-0.000499655,-1.55518,0.00314921,0.0173753,1301,386,3.11362,20.1457
84,638,3.12134,-20.0926,-0.000800853,0.00523801,-0.000626248,0.00530227,-0.000865113,-1.46854,0.00385571,0.0128638,1308,386,3.12137,20.0926
91,638,3.13049,-20.0286,-0.00106461,0.00601725,-0.00122653,0.00622366,-0.00127103,-1.40407,0.00463129,0.013923,1315,386,3.13052,20.0286
98,638,3.1311,-19.9955,-0.00128337,0.00661908,-0.00187896,0.00704308,-0.00170738,-1.34885,0.00535601,0.0135894,1322,386,3.13114,19.9955
105,638,3.11829,-19.9556,-0.00142059,0.00700063,-0.00240687,0.00764,-0.00205996,-1.31115,0.00590108,0.0104636,1329,386,3.11834,19.9556
112,638,3.1145,-19.9068,-0.00149011,0.00706104,-0.0029185,0.00796216,-0.00239123,-1.27132,0.00625933,0.00944665,1336,386,3.11448,19.9068
119,638,3.11987,-19.8633,-0.00150483,0.00696644,-0.0033332,0.00812069,-0.00265907,-1.23743,0.0064845,0.0113423,1343,386,3.11989,19.8633
126,638,3.1178,-19.7958,-0.00137682,0.00631243,-0.00360074,0.0077353,-0.00279969,-1.19447,0.00630096,0.0149993,1350,386,3.11784,19.7958
133,638,3.11816,-19.693,-0.0011323,0.00538445,-0.00369534,0.0070528,-0.00280064,-1.14672,0.0058628,0.0157674,1357,386,3.11811,19.693
140,638,3.08167,-19.6165,-0.000873666,0.0044367,-0.00353414,0.00620194,-0.00263891,-1.10756,0.00524062,0.0159828,1364,386,3.08166,19.6165
147,638,3.07288,-19.5484,-0.000509987,0.00345907,-0.00321756,0.00525489,-0.0023058,-1.06173,0.00447449,0.0176834,1371,386,3.07287,19.5484
154,638,3.10657,-19.4606,-0.000176029,0.00260802,-0.00280791,0.00435001,-0.00191803,-1.01552,0.00370854,0.0168159,1378,386,3.10654,19.4606
161,638,3.09937,-19.3575,5.51681e-05,0.00183421,-0.00242547,0.00352813,-0.00163875,-0.961154,0.00304885,0.018175,1385,386,3.09933,19.3575
168,638,3.10522,-19.2333,0.000164064,0.00156629,-0.00197833,0.00296407,-0.00123372,-0.955691,0.00249128,0.0221526,1392,386,3.10521,19.2333
175,638,3.11597,-19.1199,0.00028861,0.00173897,-0.00148019,0.00266207,-0.000634492,-1.01318,0.00201971,0.0190301,1399,386,3.11599,19.1199
182,638,3.09448,-19.002,0.000519877,0.00232766,-0.000966432,0.00274702,0.000100511,-1.16138,0.00179878,0.0127296,1406,386,3.09443,19.002
189,638,3.06274,-18.8462,0.000437016,0.0026592,-0.000290879,0.00269664,0.000399572,-1.44277,0.00168048,0.00987579,1413,386,3.06274,18.8462
196,638,3.05811,-18.7201,-6.91288e-05,0.00222352,0.000427963,0.0023008,-0.000146411,1.39214,0.00158493,0.0130354,1420,386,3.05807,18.7201
203,638,3.05151,-18.6152,-0.000509237,0.00207252,0.00128978,0.00260645,-0.00104316,1.17831,0.00217058,0.0210676,1427,386,3.05153,18.6152
210,638,3.05859,-18.4618,-0.000680932,0.00242123,0.00146915,0.00300656,-0.00126626,1.19166,0.00253421,0.0169169,1434,386,3.05864,18.4618
217,638,3.03955,-18.3055,-0.000803424,0.0026252,0.0015524,0.00322363,-0.00140186,1.20286,0.0027387,0.0113789,1441,386,3.03954,18.3055
224,638,3.01367,-18.1301,-0.000870767,0.00304149,0.00165101,0.0036451,-0.00147438,1.22029,0.00304301,0.00982406,1448,386,3.01371,18.1301
231,638,2.99048,-17.9495,-0.000827458,0.00351708,0.00184053,0.00419197,-0.00150235,1.21934,0.00340767,0.0101173,1455,386,2.99052,17.9495
238,638,2.97327,-17.7735,-0.000644455,0.00419982,0.00227846,0.00510306,-0.00154769,1.19338,0.00401854,0.0109322,1462,386,2.97324,17.7735
245,638,2.95813,-17.5902,-0.000591047,0.00491528,0.00263143,0.00597057,-0.00164634,1.1894,0.00462783,0.0128679,1469,386,2.9581,17.5903
252,638,2.9469,-17.4096,-0.000376646,0.00577658,0.00309778,0.00706596,-0.00166602,1.17638,0.0053531,0.0150535,1476,386,2.9469,17.4096
259,638,2.94214,-17.254,-4.50131e-05,0.00684109,0.00369746,0.00845034,-0.00165427,1.16029,0.0062583,0.0155546,1483,386,2.94213,17.254
266,638,2.90527,-17.0468,0.000230758,0.00777685,0.0043467,0.00975964,-0.00175204,1.14283,0.00716223,0.0126299,1490,386,2.90523,17.0467
273,638,2.89246,-16.8578,0.000855863,0.00845592,0.00503548,0.0109643,-0.00165254,1.10863,0.00791809,0.0112297,1497,386,2.89248,16.8578
280,638,2.94922,-16.6105,0.00207459,0.00889422,0.00608102,0.0124562,-0.00148737,1.04092,0.00884171,0.0220745,1504,386,2.94921,16.6105
287,638,3.14478,-16.2483,0.00290182,0.00914637,0.00713323,0.0138107,-0.00176253,0.991691,0.00984738,0.0421173,1511,386,3.14472,16.2483
294,638,3.24341,-15.9512,0,0,0,0,0,0,0,-1,1518,386,3.24345,15.9512
301,638,2.88025,-15.8887,0,0,0,0,0,0,0,-1,1525,386,2.88026,15.8887
308,638,3.11414,-15.5299,0,0,0,0,0,0,0,-1,1532,386,3.11413,15.5299
315,638,3.17126,-15.6013,0,0,0,0,0,0,0,-1,1539,386,3.1713,15.6014
322,638,3.01294,-15.3175,0,0,0,0,0,0,0,-1,1546,386,3.01297,15.3175
329,638,3.58826,-15.5049,0,0,0,0,0,0,0,-1,1553,386,3.58829,15.5049
336,638,3.72925,-13.9203,0,0,0,0,0,0,0,-1,1560,386,3.72923,13.9202
343,638,-0.128174,-12.1073,0,0,0,0,0,0,0,-1,1567,386,-0.128176,12.1073
350,638,2.3783,-11.33,0,0,0,0,0,0,0,-1,1574,386,2.37831,11.33
357,638,0.130371,-3.02618,0,0,0,0,0,0,0,-1,1581,386,0.130345,3.0262
364,638,3.78149,-6.45215,0,0,0,0,0,0,0,-1,1588,386,3.78155,6.45216
371,638,4.18604,-6.71164,0,0,0,0,0,0,0,-1,1595,386,4.18598,6.71164
378,638,4.59045,-6.97113,0,0,0,0,0,0,0,-1,1602,386,4.5904,6.97112
385,638,0,0,0,0,0,0,0,0,0,-1,1609,386,0,0
392,638,0,0,0,0,0,0,0,0,0,-1,1616,386,0,0
399,638,0,0,0,0,0,0,0,0,0,-1,1623,386,0,0
406,638,0,0,0,0,0,0,0,0,0,-1,1630,386,0,0
413,638,0,0,0,0,0,0,0,0,0,-1,1637,386,0,0
420,638,0,0,0,0,0,0,0,0,0,-1,1644,386,0,0
427,638,0,0,0,0,0,0,0,0,0,-1,1651,386,0,0
434,638,0,0,0,0,0,0,0,0,0,-1,1658,386,0,0
441,638,0,0,0,0,0,0,0,0,0,-1,1665,386,0,0
448,638,0,0,0,0,0,0,0,0,0,-1,1672,386,0,0
455,638,0,0,0,0,0,0,0,0,0,-1,1679,386,0,0
462,638,0,0,0,0,0,0,0,0,0,-1,1686,386,0,0
469,638,0,0,0,0,0,0,0,0,0,-1,1693,386,0,0
476,638,0,0,0,0,0,0,0,0,0,-1,1700,386,0,0
483,638,0,0,0,0,0,0,0,0,0,-1,1707,386,0,0
490,638,0,0,0,0,0,0,0,0,0,-1,1714,386,0,0
497,638,0,0,0,0,0,0,0,0,0,-1,1721,386,0,0
504,638,0,0,0,0,0,0,0,0,0,-1,1728,386,0,0
511,638,0,0,0,0,0,0,0,0,0,-1,1735,386,0,0
518,638,0,0,0,0,0,0,0,0,0,-1,1742,386,0,0
525,638,0,0,0,0,0,0,0,0,0,-1,1749,386,0,0
532,638,0,0,0,0,0,0,0,0,0,-1,1756,386,0,0
539,638,0,0,0,0,0,0,0,0,0,-1,1763,386,0,0
546,638,0,0,0,0,0,0,0,0,0,-1,1770,386,0,0
553,638,0,0,0,0,0,0,0,0,0,-1,1777,386,0,0
560,638,0,0,0,0,0,0,0,0,0,-1,1784,386,0,0
567,638,0,0,0,0,0,0,0,0,0,-1,1791,386,0,0
574,638,0,0,0,0,0,0,0,0,0,-1,1798,386,0,0
581,638,0,0,0,0,0,0,0,0,0,-1,1805,386,0,0
588,638,0,0,0,0,0,0,0,0,0,-1,1812,386,0,0
595,638,0,0,0,0,0,0,0,0,0,-1,1819,386,0,0
602,638,0,0,0,0,0,0,0,0,0,-1,1826,386,0,0
609,638,0,0,0,0,0,0,0,0,0,-1,1833,386,0,0
616,638,0,0,0,0,0,0,0,0,0,-1,1840,386,0,0
623,638,0,0,0,0,0,0,0,0,0,-1,1847,386,0,0
630,638,0,0,0,0,0,0,0,0,0,-1,1854,386,0,0
637,638,0,0,0,0,0,0,0,0,0,-1,1861,386,0,0
644,638,0,0,0,0,0,0,0,0,0,-1,1868,386,0,0
651,638,0,0,0,0,0,0,0,0,0,-1,1875,386,0,0
658,638,0,0,0,0,0,0,0,0,0,-1,1882,386,0,0
665,638,0,0,0,0,0,0,0,0,0,-1,1889,386,0,0
672,638,0,0,0,0,0,0,0,0,0,-1,1896,386,0,0
679,638,0,0,0,0,0,0,0,0,0,-1,1903,386,0,0
686,638,0,0,0,0,0,0,0,0,0,-1,1910,386,0,0
693,638,0,0,0,0,0,0,0,0,0,-1,1917,386,0,0
700,638,0,0,0,0,0,0,0,0,0,-1,1924,386,0,0
707,638,0,0,0,0,0,0,0,0,0,-1,1931,386,0,0
714,638,0,0,0,0,0,0,0,0,0,-1,1938,386,0,0
721,638,0,0,0,0,0,0,0,0,0,-1,1945,386,0,0
728,638,0,0,0,0,0,0,0,0,0,-1,1952,386,0,0
735,638,0,0,0,0,0,0,0,0,0,-1,1959,386,0,0
742,638,0,0,0,0,0,0,0,0,0,-1,1966,386,0,0
749,638,0,0,0,0,0,0,0,0,0,-1,1973,386,0,0
756,638,0,0,0,0,0,0,0,0,0,-1,1980,386,0,0
763,638,0,0,0,0,0,0,0,0,0,-1,1987,386,0,0
770,638,0,0,0,0,0,0,0,0,0,-1,1994,386,0,0
777,638,0,0,0,0,0,0,0,0,0,-1,2001,386,0,0
784,638,0,0,0,0,0,0,0,0,0,-1,2008,386,0,0
791,638,0,0,0,0,0,0,0,0,0,-1,2015,386,0,0
798,638,0,0,0,0,0,0,0,0,0,-1,2022,386,0,0
805,638,0,0,0,0,0,0,0,0,0,-1,2029,386,0,0
812,638,0,0,0,0,0,0,0,0,0,-1,2036,386,0,0
-700,631,0,0,0,0,0,0,0,0,0,-1,524,393,0,0
-693,631,0,0,0,0,0,0,0,0,0,-1,531,393,0,0
-686,631,0,0,0,0,0,0,0,0,0,-1,538,393,0,0
-679,631,0,0,0,0,0,0,0,0,0,-1,545,393,0,0
-672,631,0,0,0,0,0,0,0,0,0,-1,552,393,0,0
-665,631,0,0,0,0,0,0,0,0,0,-1,559,393,0,0
-658,631,0,0,0,0,0,0,0,0,0,-1,566,393,0,0
-651,631,0,0,0,0,0,0,0,0,0,-1,573,393,0,0
-644,631,0,0,0,0,0,0,0,0,0,-1,580,393,0,0
-637,631,0,0,0,0,0,0,0,0,0,-1,587,393,0,0
-630,631,0,0,0,0,0,0,0,0,0,-1,594,393,0,0
-623,631,0,0,0,0,0,0,0,0,0,-1,601,393,0,0
-616,631,0,0,0,0,0,0,0,0,0,-1,608,393,0,0
-609,631,0,0,0,0,0,0,0,0,0,-1,615,393,0,0
-602,631,0,0,0,0,0,0,0,0,0,-1,622,393,0,0
-595,631,0,0,0,0,0,0,0,0,0,-1,629,393,0,0
-588,631,0,0,0,0,0,0,0,0,0,-1,636,393,0,0
-581,631,0,0,0,0,0,0,0,0,0,-1,643,393,0,0
-574,631,0,0,0,0,0,0,0,0,0,-1,650,393,0,0
-567,631,0,0,0,0,0,0,0,0,0,-1,657,393,0,0
-560,631,0,0,0,0,0,0,0,0,0,-1,664,393,0,0
-553,631,0,0,0,0,0,0,0,0,0,-1,671,393,0,0
-546,631,0,0,0,0,0,0,0,0,0,-1,678,393,0,0
-539,631,0,0,0,0,0,0,0,0,0,-1,685,393,0,0
-532,631,0,0,0,0,0,0,0,0,0,-1,692,393,0,0
-525,631,0,0,0,0,0,0,0,0,0,-1,699,393,0,0
-518,631,0,0,0,0,0,0,0,0,0,-1,706,393,0,0
-511,631,0,0,0,0,0,0,0,0,0,-1,713,393,0,0
-504,631,0,0,0,0,0,0,0,0,0,-1,720,393,0,0
-497,631,0,0,0,0,0,0,0,0,0,-1,727,393,0,0
-490,631,0,0,0,0,0,0,0,0,0,-1,734,393,0,0
-483,631,0,0,0,0,0,0,0,0,0,-1,741,393,0,0
-476,631,0,0,0,0,0,0,0,0,0,-1,748,393,0,0
-469,631,0,0,0,0,0,0,0,0,0,-1,755,393,0,0
-462,631,0,0,0,0,0,0,0,0,0,-1,762,393,0,0
-455,631,0,0,0,0,0,0,0,0,0,-1,769,393,0,0
-448,631,0,0,0,0,0,0,0,0,0,-1,776,393,0,0
-441,631,0,0,0,0,0,0,0,0,0,-1,783,393,0,0
-434,631,0,0,0,0,0,0,0,0,0,-1,790,393,0,0
-427,631,0,0,0,0,0,0,0,0,0,-1,797,393,0,0
-420,631,0,0,0,0,0,0,0,0,0,-1,804,393,0,0
-413,631,0,0,0,0,0,0,0,0,0,-1,811,393,0,0
-406,631,0,0,0,0,0,0,0,0,0,-1,818,393,0,0
-399,631,0,0,0,0,0,0,0,0,0,-1,825,393,0,0
-392,631,0,0,0,0,0,0,0,0,0,-1,832,393,0,0
-385,631,0,0,0,0,0,0,0,0,0,-1,839,393,0,0
-378,631,0,0,0,0,0,0,0,0,0,-1,846,393,0,0
-371,631,0,0,0,0,0,0,0,0,0,-1,853,393,0,0
-364,631,0,0,0,0,0,0,0,0,0,-1,860,393,0,0
-357,631,0,0,0,0,0,0,0,0,0,-1,867,393,0,0
-350,631,0,0,0,0,0,0,0,0,0,-1,874,393,0,0
-343,631,0,0,0,0,0,0,0,0,0,-1,881,393,0,0
-336,631,0,0,0,0,0,0,0,0,0,-1,888,393,0,0
-329,631,0,0,0,0,0,0,0,0,0,-1,895,393,0,0
-322,631,0,0,0,0,0,0,0,0,0,-1,902,393,0,0
-315,631,0,0,0,0,0,0,0,0,0,-1,909,393,0,0
-308,631,0,0,0,0,0,0,0,0,0,-1,916,393,0,0
-301,631,0,0,0,0,0,0,0,0,0,-1,923,393,0,0
-294,631,0,0,0,0,0,0,0,0,0,-1,930,393,0,0
-287,631,0,0,0,0,0,0,0,0,0,-1,937,393,0,0
-280,631,1.38763,-14.3453,0,0,0,0,0,0,0,-1,944,393,1.38762,14.3453
-273,631,2.6192,-11.8094,0,0,0,0,0,0,0,-1,951,393,2.61918,11.8094
-266,631,0.616394,-9.4404,0,0,0,0,0,0,0,-1,958,393,0.616411,9.4404
-259,631,3.48328,-12.1518,0,0,0,0,0,0,0,-1,965,393,3.48325,12.1518
-252,631,3.14685,-12.495,0,0,0,0,0,0,0,-1,972,393,3.14685,12.495
-245,631,2.27789,-13.5737,0,0,0,0,0,0,0,-1,979,393,2.27788,13.5737
-238,631,2.13855,-16.2813,0,0,0,0,0,0,0,-1,986,393,2.13853,16.2813
-231,631,3.59491,-16.3476,0,0,0,0,0,0,0,-1,993,393,3.59489,16.3476
-224,631,3.69025,-16.7146,0,0,0,0,0,0,0,-1,1000,393,3.69024,16.7146
-217,631,3.77283,-17.2244,0,0,0,0,0,0,0,-1,1007,393,3.7728,17.2244
-210,631,2.9483,-16.6072,0,0,0,0,0,0,0,-1,1014,393,2.94829,16.6072
-203,631,3.44263,-16.0001,0,0,0,0,0,0,0,-1,1021,393,3.44257,16
-196,631,4.29272,-15.3645,0,0,0,0,0,0,0,-1,1028,393,4.29272,15.3645
-189,631,3.50073,-16.3138,-0.00686311,-0.0205492,0.00213577,-0.00653756,-0.0208747,0.151264,0.0123292,0.0460436,1035,393,3.50073,16.3138
-182,631,3.31909,-16.4373,-0.0102312,-0.0188501,0.00159667,-0.00994494,-0.0191363,0.177413,0.0110512,0.0443596,1042,393,3.31904,16.4373
-175,631,3.27344,-16.8099,-0.0115097,-0.0174014,0.0010958,-0.0113125,-0.0175986,0.178063,0.0102978,0.0340408,1049,393,3.27339,16.8099
-168,631,3.23694,-17.04,-0.0110067,-0.016827,0.000832547,-0.01089,-0.0169437,0.139322,0.00991441,0.0192279,1056,393,3.23689,17.04
-161,631,3.22961,-17.2417,-0.00989438,-0.0154194,0.000697006,-0.00980781,-0.015506,0.123575,0.00905659,0.00991938,1063,393,3.22962,17.2417
-154,631,3.21704,-17.4401,-0.00903287,-0.0138605,0.000999145,-0.00883426,-0.0140591,0.196227,0.00820572,0.0093532,1070,393,3.21708,17.4401
-147,631,3.19568,-17.6242,-0.00844314,-0.0121403,0.000971208,-0.00820354,-0.0123799,0.241876,0.00727248,0.0103266,1077,393,3.19573,17.6242
-140,631,3.17566,-17.8029,-0.00755066,-0.0103399,0.00100038,-0.00722897,-0.0106616,0.311128,0.00628419,0.00901312,1084,393,3.17567,17.8029
-133,631,3.16016,-17.9885,-0.00645364,-0.00792809,0.00118891,-0.00579194,-0.00858979,0.507869,0.00505875,0.00754679,1091,393,3.16012,17.9885
-126,631,3.17432,-18.1437,-0.00559722,-0.00536187,0.00141357,-0.00406109,-0.006898,0.826926,0.00400341,0.0121575,1098,393,3.17427,18.1437
-119,631,3.16919,-18.2648,-0.00488516,-0.0029399,0.00147968,-0.0021418,-0.00568325,1.07615,0.00331423,0.0152012,1105,393,3.1692,18.2648
-112,631,3.16199,-18.4282,-0.00417261,-0.000847641,0.00147986,-0.000284401,-0.00473585,1.20712,0.00306683,0.0136826,1112,393,3.16204,18.4282
-105,631,3.17749,-18.5829,-0.00355422,0.00110485,0.0013722,0.00147895,-0.00392833,1.30463,0.00322689,0.0176647,1119,393,3.17751,18.5829
-98,631,3.15381,-18.7159,-0.00281794,0.00275497,0.00110182,0.0029649,-0.00302788,1.38252,0.00346,0.0159034,1126,393,3.15386,18.7159
-91,631,3.11548,-18.8366,-0.00214,0.00382448,0.000786842,0.00392653,-0.00224206,1.44181,0.00360543,0.0169811,1133,393,3.11544,18.8366
-84,631,3.09998,-18.9635,-0.00169077,0.00364911,0.000619272,0.00371999,-0.00176164,1.45684,0.00323144,0.0158089,1140,393,3.10002,18.9635
-77,631,3.07043,-19.1088,-0.00112062,0.00325534,0.000430711,0.00329733,-0.00116261,1.47361,0.00267146,0.0103375,1147,393,3.0704,19.1088
-70,631,3.08679,-19.2008,-0.00100753,0.00265202,0.000257413,0.00267004,-0.00102554,1.50091,0.00220294,0.0109757,1154,393,3.08674,19.2008
-63,631,3.10034,-19.31,-0.00076214,0.00222041,0.000190419,0.00223252,-0.000774248,1.5073,0.00180273,0.0108557,1161,393,3.10032,19.31
-56,631,3.07141,-19.4378,-0.000562726,0.0019409,4.26172e-05,0.00194162,-0.000563452,1.55378,0.00151751,0.0116249,1168,393,3.07143,19.4378
-49,631,3.07068,-19.5158,-0.000430639,0.00148306,-9.73348e-05,0.001488,-0.000435577,-1.52011,0.00116467,0.0104172,1175,393,3.07065,19.5158
-42,631,3.07703,-19.5923,-0.000300284,0.000836676,0.000175698,0.000863208,-0.000326816,1.42092,0.000709944,0.00888706,1182,393,3.07706,19.5924
-35,631,3.07544,-19.6696,-0.000193744,0.000578791,0.000342669,0.000708881,-0.000323834,1.20797,0.000609896,0.00955814,1189,393,3.07541,19.6696
-28,631,3.07739,-19.7363,2.06963e-05,0.000358968,0.000425008,0.000647258,-0.000267594,0.974771,0.00054314,0.0130291,1196,393,3.07739,19.7363
-21,631,3.0564,-19.8147,0.000226625,0.000180849,0.00043836,0.000642694,-0.000235221,0.759315,0.000524747,0.0115609,1203,393,3.0564,19.8147
-14,631,3.047,-19.8958,0.000445387,5.78857e-05,0.00036907,0.000668473,-0.0001652,0.543687,0.000509718,0.0125306,1210,393,3.04702,19.8958
-7,631,3.08252,-19.9801,0.000739697,8.59386e-05,0.000143121,0.000769657,5.59793e-05,0.206349,0.0004955,0.018977,1217,393,3.08251,19.9801
0,631,3.09863,-19.9956,0.0010439,3.83771e-05,-6.82702e-05,0.00104852,3.37631e-05,-0.0674822,0.000688034,0.0203599,1224,393,3.09857,19.9956
7,631,3.07727,-20.027,0.00126725,1.8161e-05,-0.000273654,0.00132457,-3.91612e-05,-0.206484,0.000896387,0.016112,1231,393,3.0773,20.027
14,631,3.08801,-20.0797,0.00148445,-0.000173832,-0.000384253,0.00156916,-0.000258543,-0.216985,0.00114209,0.00932237,1238,393,3.08801,20.0797
21,631,3.10754,-20.1179,0.00166867,-0.00021717,-0.000482255,0.00178484,-0.000333338,-0.236382,0.00131516,0.0120032,1245,393,3.10752,20.1179
28,631,3.09448,-20.1295,0.00182759,-0.000316466,-0.000520527,0.00194728,-0.000436156,-0.226012,0.00146537,0.0142148,1252,393,3.09453,20.1295
35,631,3.09888,-20.15,0.00201408,-0.000471994,-0.000574103,0.00214025,-0.000598167,-0.216334,0.00166249,0.013361,1259,393,3.09891,20.15
42,631,3.12256,-20.1669,0.00214793,-0.000799299,-0.000704697,0.00230776,-0.000959128,-0.223032,0.00193897,0.0113565,1266,393,3.12257,20.1669
49,631,3.12439,-20.162,0.00219042,-0.00114066,-0.000784926,0.00236611,-0.00131635,-0.220202,0.00215467,0.0105899,1273,393,3.12444,20.162
56,631,3.12097,-20.1735,0.00233046,-0.00135956,-0.000952264,0.00256171,-0.00159081,-0.238234,0.00241921,0.0125034,1280,393,3.12101,20.1735
63,631,3.11938,-20.1943,0.00253412,-0.00154255,-0.00127858,0.00290194,-0.00191037,-0.280114,0.00279798,0.0143284,1287,393,3.11933,20.1943
70,631,3.13403,-20.149,0.00259971,0.000821208,-0.0018398,0.00375389,-0.000332978,-0.560282,0.00262065,0.0140937,1294,393,3.13399,20.149
77,631,3.14709,-20.1329,0.00262361,0.00221716,-0.00191893,0.00435005,0.000490722,-0.732643,0.00275109,0.0137857,1301,393,3.14711,20.1329
84,631,3.14111,-20.1013,0.00255177,0.00378949,-0.002458,0.00570534,0.000635925,-0.908722,0.0036103,0.0125944,1308,393,3.14112,20.1013
91,631,3.14502,-20.0445,0.00233769,0.00528226,-0.00288297,0.00704713,0.000572822,-1.02148,0.00451926,0.015467,1315,393,3.14499,20.0445
98,631,3.15601,-20.0095,0.00206554,0.00668183,-0.00309825,0.00823719,0.000510176,-1.10554,0.00532955,0.0137059,1322,393,3.15603,20.0095
105,631,3.15698,-19.9699,0.00181617,0.0078433,-0.00323983,0.00925445,0.000405026,-1.16001,0.00603915,0.0111375,1329,393,3.15695,19.9699
112,631,3.1626,-19.9112,0.00153064,0.00845346,-0.00323537,0.00973008,0.000254021,-1.19497,0.00640373,0.0107929,1336,393,3.16255,19.9112
119,631,3.17603,-19.8655,0.00113888,0.00875218,-0.00312264,0.00986909,2.19666e-05,-1.22729,0.00657208,0.0117805,1343,393,3.17601,19.8655
126,631,3.17944,-19.7944,0.000843163,0.00823873,-0.00285216,0.00921089,-0.000129002,-1.24229,0.00618404,0.0161098,1350,393,3.1794,19.7944
133,631,3.17908,-19.7094,0.000653993,0.00710967,-0.00251184,0.00797185,-0.000208193,-1.24015,0.00538531,0.0177311,1357,393,3.17906,19.7094
140,631,3.15771,-19.6409,0.000522217,0.00570904,-0.00209731,0.00645097,-0.000219711,-1.23078,0.00437572,0.0188483,1364,393,3.15774,19.6409
147,631,3.15308,-19.5289,0.000518264,0.00412057,-0.00169739,0.00479434,-0.000155513,-1.19292,0.00324931,0.0217205,1371,393,3.15307,19.5289
154,631,3.1886,-19.4168,0.000599266,0.00259175,-0.00135538,0.00327764,-8.66223e-05,-1.10232,0.00221453,0.0216204,1378,393,3.18859,19.4168
161,631,3.20837,-19.3449,0.00060975,0.00143059,-0.00106979,0.00216599,-0.000125648,-0.968563,0.00148765,0.0230343,1385,393,3.20838,19.3449
168,631,3.21655,-19.2184,0.000582162,0.000723686,-0.00080457,0.0014606,-0.000154751,-0.82926,0.0010292,0.0264894,1392,393,3.21658,19.2184
175,631,3.22791,-19.123,0.000567098,-0.000324749,-0.000459352,0.000761371,-0.000519022,-0.400116,0.000743636,0.019585,1399,393,3.22789,19.123
182,631,3.20435,-19.0122,0.000634727,0.000220535,-0.000331004,0.000818083,3.71789e-05,-0.505861,0.000533428,0.0101972,1406,393,3.2043,19.0122
189,631,3.1803,-18.8761,0.000621047,0.000780886,8.63892e-05,0.000818653,0.00058328,1.15866,0.000486669,0.00918997,1413,393,3.18033,18.8761
196,631,3.16968,-18.7577,0.00036404,0.00107875,0.000458254,0.00130251,0.000140275,1.11655,0.000825565,0.0108586,1420,393,3.16971,18.7577
203,631,3.19604,-18.6129,6.0977e-05,0.001402,0.000748127,0.00173612,-0.00027314,1.15077,0.00125838,0.0142264,1427,393,3.19608,18.6129
210,631,3.18518,-18.4477,-0.000160856,0.00187135,0.000936549,0.00223713,-0.000526632,1.19846,0.00169446,0.0158178,1434,393,3.18518,18.4477
217,631,3.17358,-18.3096,-0.000323834,0.00223847,0.00107833,0.00263188,-0.000717239,1.22097,0.00203621,0.0154747,1441,393,3.17362,18.3096
224,631,3.15417,-18.1462,-0.000412859,0.00261863,0.00121308,0.00304429,-0.000838516,1.23333,0.00235924,0.0125478,1448,393,3.15417,18.1462
231,631,3.13879,-17.958,-0.000420406,0.00301603,0.00141721,0.00352509,-0.000929468,1.22595,0.00271347,0.0104836,1455,393,3.13875,17.958
238,631,3.12854,-17.7699,-0.00030798,0.00356469,0.00179884,0.00427132,-0.0010146,1.19649,0.00323915,0.0157885,1462,393,3.12849,17.7699
245,631,3.12732,-17.6054,-0.000287069,0.00411425,0.0020964,0.00495296,-0.00112578,1.19023,0.00373424,0.0176573,1469,393,3.12735,17.6054
252,631,3.09924,-17.4586,-0.000150513,0.00476649,0.00246645,0.00579046,-0.00117448,1.17729,0.00430553,0.0172518,1476,393,3.0992,17.4586
259,631,3.09021,-17.2819,5.45728e-05,0.00553494,0.00293199,0.00680788,-0.00121837,1.1612,0.00499449,0.0126365,1483,393,3.09016,17.2819
266,631,3.10559,-17.0847,0.00019449,0.00615221,0.00341914,0.00770811,-0.00136142,1.14374,0.00564751,0.0117225,1490,393,3.10557,17.0847
273,631,3.08813,-16.8541,0.000590566,0.0065539,0.00392332,0.00849999,-0.00135552,1.11033,0.00616835,0.0143424,1497,393,3.08812,16.8541
280,631,3.0769,-16.6725,0.0014249,0.00678769,0.00471423,0.00952975,-0.00131716,1.04398,0.00683465,0.0131211,1504,393,3.07695,16.6725
287,631,3.07495,-16.4619,0.00197329,0.00688822,0.00549024,0.0104459,-0.00158438,0.995829,0.00754769,0.0144603,1511,393,3.07494,16.4619
294,631,3.05017,-16.1874,0.00277382,0.00698319,0.0061997,0.0114257,-0.0016687,0.949035,0.00822996,0.01846,1518,393,3.05021,16.1874
301,631,3.02258,-15.8959,0.00387377,0.00696422,0.00701984,0.0126069,-0.00176891,0.893732,0.00905202,0.0269154,1525,393,3.02253,15.8959
308,631,3.18506,-15.6162,0.00487485,0.00617684,0.00775334,0.0133065,-0.00225478,0.827281,0.00971023,0.0316855,1532,393,3.18505,15.6162
315,631,3.17419,-15.5642,0.0059082,0.00514836,0.00848728,0.0140241,-0.0029675,0.763031,0.0104795,0.033409,1539,393,3.17419,15.5642
322,631,3.03918,-15.4676,0.00700923,0.00423272,0.00927656,0.0150008,-0.00375889,0.711123,0.0114609,0.0398758,1546,393,3.03914,15.4676
329,631,3.33484,-15.2041,0.00806198,0.00326664,0.010078,0.0160236,-0.00469497,0.668613,0.0125438,0.0497561,1553,393,3.3349,15.2041
336,631,3.38281,-14.6451,0,0,0,0,0,0,0,-1,1560,393,3.38279,14.6451
343,631,2.45703,-11.5554,0,0,0,0,0,0,0,-1,1567,393,2.45703,11.5554
350,631,2.1344,-9.23401,0,0,0,0,0,0,0,-1,1574,393,2.13439,9.23401
357,631,2.6449,-9.60303,0,0,0,0,0,0,0,-1,1581,393,2.64491,9.60304
364,631,3.39136,-5.7594,0,0,0,0,0,0,0,-1,1588,393,3.39137,5.75939
371,631,3.72839,-6.0574,0,0,0,0,0,0,0,-1,1595,393,3.72845,6.05742
378,631,4.06555,-6.35544,0,0,0,0,0,0,0,-1,1602,393,4.06553,6.35544
385,631,3.90442,-3.58298,0,0,0,0,0,0,0,-1,1609,393,3.90437,3.58299
392,631,0.352295,-2.21301,0,0,0,0,0,0,0,-1,1616,393,0.352345,2.213
399,631,0,0,0,0,0,0,0,0,0,-1,1623,393,0,0
406,631,0,0,0,0,0,0,0,0,0,-1,1630,393,0,0
413,631,0,0,0,0,0,0,0,0,0,-1,1637,393,0,0
420,631,0,0,0,0,0,0,0,0,0,-1,1644,393,0,0
427,631,0,0,0,0,0,0,0,0,0,-1,1651,393,0,0
434,631,0,0,0,0,0,0,0,0,0,-1,1658,393,0,0
441,631,0,0,0,0,0,0,0,0,0,-1,1665,393,0,0
448,631,0,0,0,0,0,0,0,0,0,-1,1672,393,0,0
455,631,0,0,0,0,0,0,0,0,0,-1,1679,393,0,0
462,631,0,0,0,0,0,0,0,0,0,-1,1686,393,0,0
469,631,0,0,0,0,0,0,0,0,0,-1,1693,393,0,0
476,631,0,0,0,0,0,0,0,0,0,-1,1700,393,0,0
483,631,0,0,0,0,0,0,0,0,0,-1,1707,393,0,0
490,631,0,0,0,0,0,0,0,0,0,-1,1714,393,0,0
497,631,0,0,0,0,0,0,0,0,0,-1,1721,393,0,0
504,631,0,0,0,0,0,0,0,0,0,-1,1728,393,0,0
511,631,0,0,0,0,0,0,0,0,0,-1,1735,393,0,0
518,631,0,0,0,0,0,0,0,0,0,-1,1742,393,0,0
525,631,0,0,0,0,0,0,0,0,0,-1,1749,393,0,0
532,631,0,0,0,0,0,0,0,0,0,-1,1756,393,0,0
539,631,0,0,0,0,0,0,0,0,0,-1,1763,393,0,0
546,631,0,0,0,0,0,0,0,0,0,-1,1770,393,0,0
553,631,0,0,0,0,0,0,0,0,0,-1,1777,393,0,0
560,631,0,0,0,0,0,0,0,0,0,-1,1784,393,0,0
567,631,0,0,0,0,0,0,0,0,0,-1,1791,393,0,0
574,631,0,0,0,0,0,0,0,0,0,-1,1798,393,0,0
581,631,0,0,0,0,0,0,0,0,0,-1,1805,393,0,0
588,631,0,0,0,0,0,0,0,0,0,-1,1812,393,0,0
595,631,0,0,0,0,0,0,0,0,0,-1,1819,393,0,0
602,631,0,0,0,0,0,0,0,0,0,-1,1826,393,0,0
609,631,0,0,0,0,0,0,0,0,0,-1,1833,393,0,0
616,631,0,0,0,0,0,0,0,0,0,-1,1840,393,0,0
623,631,0,0,0,0,0,0,0,0,0,-1,1847,393,0,0
630,631,0,0,0,0,0,0,0,0,0,-1,1854,393,0,0
637,631,0,0,0,0,0,0,0,0,0,-1,1861,393,0,0
644,631,0,0,0,0,0,0,0,0,0,-1,1868,393,0,0
651,631,0,0,0,0,0,0,0,0,0,-1,1875,393,0,0
658,631,0,0,0,0,0,0,0,0,0,-1,1882,393,0,0
665,631,0,0,0,0,0,0,0,0,0,-1,1889,393,0,0
672,631,0,0,0,0,0,0,0,0,0,-1,1896,393,0,0
679,631,0,0,0,0,0,0,0,0,0,-1,1903,393,0,0
686,631,0,0,0,0,0,0,0,0,0,-1,1910,393,0,0
693,631,0,0,0,0,0,0,0,0,0,-1,1917,393,0,0
700,631,0,0,0,0,0,0,0,0,0,-1,1924,393,0,0
707,631,0,0,0,0,0,0,0,0,0,-1,1931,393,0,0
714,631,0,0,0,0,0,0,0,0,0,-1,1938,393,0,0
721,631,0,0,0,0,0,0,0,0,0,-1,1945,393,0,0
728,631,0,0,0,0,0,0,0,0,0,-1,1952,393,0,0
735,631,0,0,0,0,0,0,0,0,0,-1,1959,393,0,0
742,631,0,0,0,0,0,0,0,0,0,-1,1966,393,0,0
749,631,0,0,0,0,0,0,0,0,0,-1,1973,393,0,0
756,631,0,0,0,0,0,0,0,0,0,-1,1980,393,0,0
763,631,0,0,0,0,0,0,0,0,0,-1,1987,393,0,0
770,631,0,0,0,0,0,0,0,0,0,-1,1994,393,0,0
777,631,0,0,0,0,0,0,0,0,0,-1,2001,393,0,0
784,631,0,0,0,0,0,0,0,0,0,-1,2008,393,0,0
791,631,0,0,0,0,0,0,0,0,0,-1,2015,393,0,0
798,631,0,0,0,0,0,0,0,0,0,-1,2022,393,0,0
805,631,0,0,0,0,0,0,0,0,0,-1,2029,393,0,0
812,631,0,0,0,0,0,0,0,0,0,-1,2036,393,0,0
-700,624,0,0,0,0,0,0,0,0,0,-1,524,400,0,0
-693,624,0,0,0,0,0,0,0,0,0,-1,531,400,0,0
-686,624,0,0,0,0,0,0,0,0,0,-1,538,400,0,0
-679,624,0,0,0,0,0,0,0,0,0,-1,545,400,0,0
-672,624,0,0,0,0,0,0,0,0,0,-1,552,400,0,0
-665,624,0,0,0,0,0,0,0,0,0,-1,559,400,0,0
-658,624,0,0,0,0,0,0,0,0,0,-1,566,400,0,0
-651,624,0,0,0,0,0,0,0,0,0,-1,573,400,0,0
-644,624,0,0,0,0,0,0,0,0,0,-1,580,400,0,0
-637,624,0,0,0,0,0,0,0,0,0,-1,587,400,0,0
-630,624,0,0,0,0,0,0,0,0,0,-1,594,400,0,0
-623,624,0,0,0,0,0,0,0,0,0,-1,601,400,0,0
-616,624,0,0,0,0,0,0,0,0,0,-1,608,400,0,0
-609,624,0,0,0,0,0,0,0,0,0,-1,615,400,0,0
-602,624,0,0,0,0,0,0,0,0,0,-1,622,400,0,0
-595,624,0,0,0,0,0,0,0,0,0,-1,629,400,0,0
-588,624,0,0,0,0,0,0,0,0,0,-1,636,400,0,0
-581,624,0,0,0,0,0,0,0,0,0,-1,643,400,0,0
-574,624,0,0,0,0,0,0,0,0,0,-1,650,400,0,0
-567,624,0,0,0,0,0,0,0,0,0,-1,657,400,0,0
-560,624,0,0,0,0,0,0,0,0,0,-1,664,400,0,0
-553,624,0,0,0,0,0,0,0,0,0,-1,671,400,0,0
-546,624,0,0,0,0,0,0,0,0,0,-1,678,400,0,0
-539,624,0,0,0,0,0,0,0,0,0,-1,685,400,0,0
-532,624,0,0,0,0,0,0,0,0,0,-1,692,400,0,0
-525,624,0,0,0,0,0,0,0,0,0,-1,699,400,0,0
-518,624,0,0,0,0,0,0,0,0,0,-1,706,400,0,0
-511,624,0,0,0,0,0,0,0,0,0,-1,713,400,0,0
-504,624,0,0,0,0,0,0,0,0,0,-1,720,400,0,0
-497,624,0,0,0,0,0,0,0,0,0,-1,727,400,0,0
-490,624,0,0,0,0,0,0,0,0,0,-1,734,400,0,0
-483,624,0,0,0,0,0,0,0,0,0,-1,741,400,0,0
-476,624,0,0,0,0,0,0,0,0,0,-1,748,400,0,0
-469,624,0,0,0,0,0,0,0,0,0,-1,755,400,0,0
-462,624,0,0,0,0,0,0,0,0,0,-1,762,400,0,0
-455,624,0,0,0,0,0,0,0,0,0,-1,769,400,0,0
-448,624,0,0,0,0,0,0,0,0,0,-1,776,400,0,0
-441,624,0,0,0,0,0,0,0,0,0,-1,783,400,0,0
-434,624,0,0,0,0,0,0,0,0,0,-1,790,400,0,0
-427,624,0,0,0,0,0,0,0,0,0,-1,797,400,0,0
-420,624,0,0,0,0,0,0,0,0,0,-1,804,400,0,0
-413,624,0,0,0,0,0,0,0,0,0,-1,811,400,0,0
-406,624,0,0,0,0,0,0,0,0,0,-1,818,400,0,0
-399,624,0,0,0,0,0,0,0,0,0,-1,825,400,0,0
-392,624,0,0,0,0,0,0,0,0,0,-1,832,400,0,0
-385,624,0,0,0,0,0,0,0,0,0,-1,839,400,0,0
-378,624,0,0,0,0,0,0,0,0,0,-1,846,400,0,0
-371,624,0,0,0,0,0,0,0,0,0,-1,853,400,0,0
-364,624,0,0,0,0,0,0,0,0,0,-1,860,400,0,0
-357,624,0,0,0,0,0,0,0,0,0,-1,867,400,0,0
-350,624,0,0,0,0,0,0,0,0,0,-1,874,400,0,0
-343,624,0,0,0,0,0,0,0,0,0,-1,881,400,0,0
-336,624,0,0,0,0,0,0,0,0,0,-1,888,400,0,0
-329,624,0,0,0,0,0,0,0,0,0,-1,895,400,0,0
-322,624,0,0,0,0,0,0,0,0,0,-1,902,400,0,0
-315,624,0,0,0,0,0,0,0,0,0,-1,909,400,0,0
-308,624,0,0,0,0,0,0,0,0,0,-1,916,400,0,0
-301,624,0,0,0,0,0,0,0,0,0,-1,923,400,0,0
-294,624,-0.912903,-12.9461,0,0,0,0,0,0,0,-1,930,400,-0.912926,12.9461
-287,624,0.12146,-15.0862,0,0,0,0,0,0,0,-1,937,400,0.121451,15.0862
-280,624,1.44836,-13.0475,0,0,0,0,0,0,0,-1,944,400,1.44835,13.0475
-273,624,2.56573,-11.0646,0,0,0,0,0,0,0,-1,951,400,2.56571,11.0646
-266,624,4.63965,-10.4106,0,0,0,0,0,0,0,-1,958,400,4.63965,10.4106
-259,624,3.94147,-11.5439,0,0,0,0,0,0,0,-1,965,400,3.94147,11.5439
-252,624,3.05292,-12.3682,0,0,0,0,0,0,0,-1,972,400,3.0529,12.3682
-245,624,1.40314,-15.7654,0,0,0,0,0,0,0,-1,979,400,1.40314,15.7655
-238,624,2.08972,-15.9514,0.0293323,-0.0328892,-0.00425793,0.0296223,-0.0331792,-0.0680093,0.0362779,0.0471055,986,400,2.08973,15.9514
-231,624,2.87262,-15.7879,0.0221837,-0.0297016,-0.00195795,0.0222575,-0.0297754,-0.0376647,0.0301456,0.0495445,993,400,2.8726,15.7879
-224,624,3.22803,-15.1107,0,0,0,0,0,0,0,-1,1000,400,3.22804,15.1107
-217,624,3.45697,-16.232,0.0100558,-0.0206049,0.000487726,0.0100636,-0.0206126,0.0159018,0.0180566,0.0457314,1007,400,3.457,16.232
-210,624,2.97662,-16.246,0.00553899,-0.0173046,0.000857693,0.00557115,-0.0173368,0.037476,0.0137951,0.0436598,1014,400,2.97663,16.246
-203,624,3.22156,-16.0082,0.00120846,-0.0155456,0.00118057,0.00129124,-0.0156284,0.0700036,0.0108749,0.0390403,1021,400,3.22154,16.0082
-196,624,3.61267,-15.827,-0.00222099,-0.014459,0.0013258,-0.00207901,-0.014601,0.106686,0.00912033,0.0335766,1028,400,3.61273,15.827
-189,624,3.16736,-16.3029,-0.00452189,-0.0131356,0.00116393,-0.00436739,-0.0132901,0.131972,0.00782187,0.0342771,1035,400,3.1674,16.3029
-182,624,3.0957,-16.5602,-0.00699947,-0.0119618,0.000697872,-0.00690319,-0.0120581,0.137092,0.00698609,0.0283333,1042,400,3.09575,16.5602
-175,624,3.11096,-16.8456,-0.00800169,-0.0109022,0.000277989,-0.00797529,-0.0109286,0.0946933,0.00652791,0.0173098,1049,400,3.11093,16.8457
-168,624,3.10083,-17.0698,-0.00758768,-0.0108957,2.90121e-05,-0.00758743,-0.010896,0.00876935,0.00645045,0.0120241,1056,400,3.10083,17.0698
-161,624,3.08289,-17.2805,-0.00669462,-0.010146,-0.000167978,-0.00668646,-0.0101542,-0.0485169,0.00595988,0.0109889,1063,400,3.08294,17.2805
-154,624,3.06775,-17.4482,-0.00602485,-0.00941296,-6.87332e-05,-0.00602345,-0.00941436,-0.0202754,0.00550576,0.0104064,1070,400,3.06773,17.4482
-147,624,3.04285,-17.6286,-0.00553319,-0.00853763,-0.000148597,-0.00552586,-0.00854496,-0.0492988,0.0050037,0.0112439,1077,400,3.04285,17.6286
-140,624,3.01538,-17.81,-0.00477218,-0.00760357,-0.000207198,-0.0047571,-0.00761865,-0.0726632,0.00444378,0.00965114,1084,400,3.0154,17.81
-133,624,3.01221,-17.9949,-0.00382995,-0.00604118,-0.000132803,-0.003822,-0.00604913,-0.0597721,0.00353269,0.0100216,1091,400,3.01216,17.9949
-126,624,3.00317,-18.1327,-0.00310959,-0.00432068,-1.60807e-05,-0.00310938,-0.00432089,-0.0132748,0.00257363,0.0125157,1098,400,3.00316,18.1327
-119,624,2.98413,-18.2906,-0.00250956,-0.00261109,-2.38425e-05,-0.00250424,-0.00261641,-0.219539,0.00170811,0.0145854,1105,400,2.98408,18.2906
-112,624,2.98206,-18.4429,-0.0019145,-0.00107991,-5.88344e-05,-0.00107578,-0.00191863,-1.50076,0.00111044,0.0157602,1112,400,2.98208,18.4429
-105,624,3.01953,-18.5755,-0.00140379,0.000407706,-0.000170118,0.000423543,-0.00141963,-1.47797,0.00111475,0.011843,1119,400,3.01952,18.5755
-98,624,2.99829,-18.7255,-0.000832208,0.00163456,-0.000375262,0.00169039,-0.000888031,-1.42312,0.00151249,0.0132471,1126,400,2.99824,18.7255
-91,624,2.98901,-18.8472,-0.0003073,0.0023862,-0.000563409,0.0024993,-0.000420401,-1.37269,0.00182257,0.0187791,1133,400,2.98898,18.8472
-84,624,3.01501,-18.9754,4.29995e-05,0.00232087,-0.000606636,0.00247235,-0.000108484,-1.32609,0.00168556,0.0168512,1140,400,3.01496,18.9754
-77,624,2.99268,-19.1184,0.000374824,0.00208289,-0.00062563,0.00228752,0.000170185,-1.25467,0.00147157,0.0121367,1147,400,2.99264,19.1184
-70,624,2.97339,-19.2145,0.000393707,0.00166064,-0.000540486,0.00185989,0.000194465,-1.21762,0.00118045,0.0128233,1154,400,2.97339,19.2145
-63,624,2.99646,-19.3067,0.000425206,0.00127199,-0.000236579,0.0013336,0.000363592,-1.31602,0.000796047,0.0126534,1161,400,2.9965,19.3067
-56,624,2.99109,-19.4272,0.000475812,0.000929558,2.9339e-05,0.000931447,0.000473922,1.50649,0.000537799,0.0106992,1168,400,2.99107,19.4273
-49,624,2.98108,-19.5245,0.000466855,0.000377294,0.000294417,0.000719877,0.000124272,0.709927,0.000444325,0.00982138,1175,400,2.98102,19.5245
-42,624,2.99634,-19.5915,0.000364877,-0.000170663,0.00076009,0.000902984,-0.00070877,0.616042,0.000932796,0.00933396,1182,400,2.99633,19.5915
-35,624,3.01672,-19.6601,0.000686512,-0.000289714,0.000662982,0.00102169,-0.000624887,0.468081,0.000959806,0.0141431,1189,400,3.0167,19.6601
-28,624,2.99683,-19.7645,0.0011698,-0.000463511,0.000561992,0.00134449,-0.000638199,0.301368,0.00116867,0.0188362,1196,400,2.99683,19.7645
-21,624,2.99158,-19.8394,0.00139135,-0.000674812,0.000569915,0.00153813,-0.000821586,0.25206,0.00138316,0.0136446,1203,400,2.99161,19.8394
-14,624,3.01758,-19.8977,0.00162467,-0.000800792,0.000515826,0.00172981,-0.000905936,0.20108,0.00154633,0.0142919,1210,400,3.01756,19.8977
-7,624,3.0033,-19.935,0.00200673,-0.000699167,0.000213333,0.00202344,-0.000715883,0.0781961,0.00164051,0.0184933,1217,400,3.00336,19.935
0,624,3.04456,-19.9685,0.00246241,-0.000813283,-6.36427e-05,0.00246365,-0.000814519,-0.019419,0.00197086,0.0182907,1224,400,3.04461,19.9685
7,624,3.05383,-20.0226,0.00281623,-0.000917944,-0.000324898,0.00284429,-0.000946002,-0.0861441,0.00227797,0.0135198,1231,400,3.05381,20.0226
14,624,3.06409,-20.0942,0.00324703,-0.00130277,-0.000510321,0.00330356,-0.0013593,-0.110337,0.00276902,0.0114127,1238,400,3.06403,20.0942
21,624,3.06812,-20.1075,0.00371737,-0.00157713,-0.000723592,0.00381448,-0.00167424,-0.13341,0.00324822,0.0119242,1245,400,3.06813,20.1075
28,624,3.0636,-20.1264,0.00421393,-0.00194806,-0.000880361,0.00433724,-0.00207137,-0.139161,0.00377631,0.0108212,1252,400,3.06366,20.1264
35,624,3.07178,-20.1494,0.00474756,-0.00242405,-0.00113758,0.00492369,-0.00260017,-0.153602,0.00441241,0.0144726,1259,400,3.07175,20.1494
42,624,3.09521,-20.1641,0.00522589,-0.00303302,-0.00145477,0.00547465,-0.00328178,-0.169357,0.00510809,0.0162368,1266,400,3.09523,20.1641
49,624,3.10413,-20.1595,0.00564328,-0.00361204,-0.00166976,0.00593531,-0.00390407,-0.173141,0.00572098,0.0166773,1273,400,3.10408,20.1595
56,624,3.12732,-20.1602,0.00614635,-0.00402981,-0.00219563,0.00659987,-0.00448333,-0.203691,0.00643767,0.0160639,1280,400,3.12737,20.1602
63,624,3.15149,-20.1521,0.00672632,-0.00439377,-0.00297991,0.00747452,-0.00514197,-0.245996,0.00732551,0.0130947,1287,400,3.15145,20.1521
70,624,3.16626,-20.1492,0.00781786,-0.00131396,-0.00353416,0.00902584,-0.00252194,-0.329353,0.00701074,0.0116318,1294,400,3.16629,20.1492
77,624,3.17224,-20.131,0.00910343,0.00100767,-0.0034915,0.0104012,-0.000290092,-0.355867,0.00703282,0.0124444,1301,400,3.17229,20.131
84,624,3.17773,-20.1025,0.00975176,0.0034701,-0.00417306,0.0118339,0.00138798,-0.462803,0.00746971,0.0120293,1308,400,3.1777,20.1025
91,624,3.17883,-20.0581,0.0100485,0.00585255,-0.00459218,0.0129992,0.0029018,-0.571127,0.00787907,0.0126966,1315,400,3.1788,20.0581
98,624,3.19629,-20.0251,0.0100305,0.00799245,-0.00459881,0.0137218,0.00430112,-0.676368,0.00810402,0.0128389,1322,400,3.19633,20.0251
105,624,3.21191,-20.0014,0.0099467,0.0100577,-0.00447014,0.0144727,0.00553169,-0.791603,0.00843272,0.0135428,1329,400,3.21187,20.0014
112,624,3.22473,-19.941,0.00954974,0.0113066,-0.00413759,0.014658,0.00619835,-0.889996,0.00849628,0.0136499,1336,400,3.22467,19.941
119,624,3.2301,-19.8545,0.00878663,0.0121122,-0.00368883,0.0144957,0.00640315,-0.997143,0.00838801,0.0145147,1343,400,3.23007,19.8545
126,624,3.23267,-19.7523,0.00783446,0.0117598,-0.00311394,0.013478,0.00611627,-1.06659,0.00779257,0.0174674,1350,400,3.23267,19.7523
133,624,3.25293,-19.6873,0.0066983,0.0104045,-0.00254523,0.0116998,0.00540304,-1.10006,0.00676143,0.0174189,1357,400,3.25298,19.6873
140,624,3.2666,-19.6215,0.00558168,0.00858333,-0.00198717,0.00957275,0.00459226,-1.10883,0.00552835,0.0171051,1364,400,3.26662,19.6215
147,624,3.25623,-19.4971,0.00452927,0.0063478,-0.0015753,0.00725741,0.00361966,-1.04714,0.00419007,0.0212234,1371,400,3.25626,19.4971
154,624,3.28589,-19.4211,0.00359193,0.00401194,-0.00131384,0.00513245,0.00247142,-0.864649,0.0029639,0.0239903,1378,400,3.28592,19.4211
161,624,3.34424,-19.3306,0.00275827,0.00221912,-0.00097123,0.00349664,0.00148075,-0.650026,0.00202665,0.0227571,1385,400,3.34427,19.3306
168,624,3.35681,-19.2212,0.00203748,0.000983743,-0.000665032,0.00235906,0.000662168,-0.4504,0.001405,0.0218503,1392,400,3.35681,19.2212
175,624,3.33557,-19.1374,0.00104201,-0.00159236,-0.000473708,0.0011246,-0.00167495,-0.172617,0.0016267,0.0161038,1399,400,3.33557,19.1374
182,624,3.32458,-19.0175,0.000415272,-0.00170633,-0.00075175,0.000654635,-0.00194569,-0.308258,0.00156176,0.00950528,1406,400,3.32462,19.0175
189,624,3.31287,-18.8891,0.000642618,-0.00105936,-0.000295103,0.000692333,-0.00110908,-0.1669,0.00104928,0.00944956,1413,400,3.31286,18.8891
196,624,3.2981,-18.7726,0.00081262,-0.000276348,2.71796e-06,0.000812627,-0.000276355,0.00249588,0.000653642,0.0106885,1420,400,3.29804,18.7726
203,624,3.31262,-18.6082,0.000757532,0.000618741,0.000196952,0.000896956,0.000479317,0.616015,0.000518266,0.0138609,1427,400,3.31268,18.6082
210,624,3.31738,-18.4588,0.000438355,0.00133664,0.00042689,0.00150714,0.000267849,1.19079,0.000928447,0.0170225,1434,400,3.31742,18.4588
217,624,3.29761,-18.3102,0.00020408,0.00195792,0.000651121,0.00217323,-1.12209e-05,1.25145,0.00145257,0.0187057,1441,400,3.29766,18.3102
224,624,3.30225,-18.1459,9.1707e-05,0.00236012,0.000837338,0.00263572,-0.000183896,1.25282,0.00182154,0.0150665,1448,400,3.30224,18.1459
231,624,3.31213,-18.0002,3.46279e-05,0.00274059,0.00107225,0.00311396,-0.000338737,1.23572,0.0021976,0.011254,1455,400,3.31211,18.0002
238,624,3.29028,-17.8176,8.32531e-05,0.00320358,0.00141013,0.00374641,-0.000459574,1.20333,0.00266404,0.0172199,1462,400,3.29024,17.8176
245,624,3.29431,-17.6584,7.85416e-05,0.0036487,0.00166454,0.00430436,-0.00057712,1.19556,0.00308002,0.0183998,1469,400,3.29436,17.6584
252,624,3.29199,-17.4876,0.000152308,0.00415935,0.0019599,0.00495856,-0.000646903,1.1836,0.00354109,0.0132829,1476,400,3.29195,17.4876
259,624,3.27588,-17.3004,0.000261753,0.00472392,0.00232284,0.0057136,-0.000727926,1.16802,0.00407344,0.00897182,1483,400,3.27586,17.3004
266,624,3.28882,-17.0841,0.000310503,0.00513908,0.00269201,0.00634082,-0.00089124,1.15093,0.00455346,0.0123507,1490,400,3.28877,17.0841
273,624,3.27673,-16.8627,0.000543993,0.0053774,0.0030656,0.00686433,-0.00094294,1.11919,0.00492074,0.0161443,1497,400,3.27674,16.8627
280,624,3.24512,-16.7052,0.00110287,0.00549144,0.00367002,0.00757313,-0.00097881,1.05483,0.00540465,0.0154584,1504,400,3.24509,16.7052
287,624,3.23328,-16.5143,0.00147171,0.00550817,0.00424627,0.00819144,-0.00121156,1.00724,0.00590638,0.0114697,1511,400,3.23328,16.5143
294,624,3.20728,-16.2777,0.00199858,0.00551846,0.00477761,0.00884997,-0.00133294,0.961872,0.0063908,0.00916059,1518,400,3.20733,16.2777
301,624,3.19031,-16.0318,0.00270172,0.00541627,0.00538625,0.00961363,-0.00149564,0.908823,0.00696139,0.0107994,1525,400,3.19033,16.0318
308,624,3.22192,-15.7708,0.0033528,0.0048613,0.0059562,0.0101108,-0.00189671,0.848379,0.00745366,0.014245,1532,400,3.22192,15.7708
315,624,3.20605,-15.5486,0.00399456,0.0042169,0.00651605,0.0106227,-0.00241126,0.793928,0.00800752,0.0159986,1539,400,3.20601,15.5486
322,624,3.17957,-15.3468,0.00463542,0.00374675,0.00709774,0.0113027,-0.00292055,0.754138,0.00867413,0.0246696,1546,400,3.17955,15.3468
329,624,3.26025,-15.1252,0.00521008,0.00323737,0.0076959,0.0119826,-0.00353512,0.721662,0.00939123,0.0393159,1553,400,3.26026,15.1252
336,624,3.36096,-14.8416,0,0,0,0,0,0,0,-1,1560,400,3.36098,14.8417
343,624,3.39978,-13.5963,0,0,0,0,0,0,0,-1,1567,400,3.39979,13.5963
350,624,1.99194,-7.29742,0,0,0,0,0,0,0,-1,1574,400,1.99198,7.29741
357,624,2.64075,-3.13092,0,0,0,0,0,0,0,-1,1581,400,2.64076,3.13091
364,624,3.16565,-4.9458,0,0,0,0,0,0,0,-1,1588,400,3.16564,4.94579
371,624,3.37561,-5.23529,0,0,0,0,0,0,0,-1,1595,400,3.37563,5.23529
378,624,1.50439,-5.22165,0,0,0,0,0,0,0,-1,1602,400,1.50438,5.22164
385,624,1.2301,-10.5866,0,0,0,0,0,0,0,-1,1609,400,1.2301,10.5866
392,624,4.26819,-5.14236,0,0,0,0,0,0,0,-1,1616,400,4.26818,5.14236
399,624,3.86841,-2.36917,0,0,0,0,0,0,0,-1,1623,400,3.86838,2.36916
406,624,4.35376,-2.6962,0,0,0,0,0,0,0,-1,1630,400,4.35373,2.69619
413,624,0,0,0,0,0,0,0,0,0,-1,1637,400,0,0
420,624,0,0,0,0,0,0,0,0,0,-1,1644,400,0,0
427,624,0,0,0,0,0,0,0,0,0,-1,1651,400,0,0
434,624,0,0,0,0,0,0,0,0,0,-1,1658,400,0,0
441,624,0,0,0,0,0,0,0,0,0,-1,1665,400,0,0
448,624,0,0,0,0,0,0,0,0,0,-1,1672,400,0,0
455,624,0,0,0,0,0,0,0,0,0,-1,1679,400,0,0
462,624,0,0,0,0,0,0,0,0,0,-1,1686,400,0,0
469,624,0,0,0,0,0,0,0,0,0,-1,1693,400,0,0
476,624,0,0,0,0,0,0,0,0,0,-1,1700,400,0,0
483,624,0,0,0,0,0,0,0,0,0,-1,1707,400,0,0
490,624,0,0,0,0,0,0,0,0,0,-1,1714,400,0,0
497,624,0,0,0,0,0,0,0,0,0,-1,1721,400,0,0
504,624,0,0,0,0,0,0,0,0,0,-1,1728,400,0,0
511,624,0,0,0,0,0,0,0,0,0,-1,1735,400,0,0
518,624,0,0,0,0,0,0,0,0,0,-1,1742,400,0,0
525,624,0,0,0,0,0,0,0,0,0,-1,1749,400,0,0
532,624,0,0,0,0,0,0,0,0,0,-1,1756,400,0,0
539,624,0,0,0,0,0,0,0,0,0,-1,1763,400,0,0
546,624,0,0,0,0,0,0,0,0,0,-1,1770,400,0,0
553,624,0,0,0,0,0,0,0,0,0,-1,1777,400,0,0
560,624,0,0,0,0,0,0,0,0,0,-1,1784,400,0,0
567,624,0,0,0,0,0,0,0,0,0,-1,1791,400,0,0
574,624,0,0,0,0,0,0,0,0,0,-1,1798,400,0,0
581,624,0,0,0,0,0,0,0,0,0,-1,1805,400,0,0
588,624,0,0,0,0,0,0,0,0,0,-1,1812,400,0,0
595,624,0,0,0,0,0,0,0,0,0,-1,1819,400,0,0
602,624,0,0,0,0,0,0,0,0,0,-1,1826,400,0,0
609,624,0,0,0,0,0,0,0,0,0,-1,1833,400,0,0
616,624,0,0,0,0,0,0,0,0,0,-1,1840,400,0,0
623,624,0,0,0,0,0,0,0,0,0,-1,1847,400,0,0
630,624,0,0,0,0,0,0,0,0,0,-1,1854,400,0,0
637,624,0,0,0,0,0,0,0,0,0,-1,1861,400,0,0
644,624,0,0,0,0,0,0,0,0,0,-1,1868,400,0,0
651,624,0,0,0,0,0,0,0,0,0,-1,1875,400,0,0
658,624,0,0,0,0,0,0,0,0,0,-1,1882,400,0,0
665,624,0,0,0,0,0,0,0,0,0,-1,1889,400,0,0
672,624,0,0,0,0,0,0,0,0,0,-1,1896,400,0,0
679,624,0,0,0,0,0,0,0,0,0,-1,1903,400,0,0
686,624,0,0,0,0,0,0,0,0,0,-1,1910,400,0,0
693,624,0,0,0,0,0,0,0,0,0,-1,1917,400,0,0
700,624,0,0,0,0,0,0,0,0,0,-1,1924,400,0,0
707,624,0,0,0,0,0,0,0,0,0,-1,1931,400,0,0
714,624,0,0,0,0,0,0,0,0,0,-1,1938,400,0,0
721,624,0,0,0,0,0,0,0,0,0,-1,1945,400,0,0
728,624,0,0,0,0,0,0,0,0,0,-1,1952,400,0,0
735,624,0,0,0,0,0,0,0,0,0,-1,1959,400,0,0
742,624,0,0,0,0,0,0,0,0,0,-1,1966,400,0,0
749,624,0,0,0,0,0,0,0,0,0,-1,1973,400,0,0
756,624,0,0,0,0,0,0,0,0,0,-1,1980,400,0,0
763,624,0,0,0,0,0,0,0,0,0,-1,1987,400,0,0
770,624,0,0,0,0,0,0,0,0,0,-1,1994,400,0,0
777,624,0,0,0,0,0,0,0,0,0,-1,2001,400,0,0
784,624,0,0,0,0,0,0,0,0,0,-1,2008,400,0,0
791,624,0,0,0,0,0,0,0,0,0,-1,2015,400,0,0
798,624,0,0,0,0,0,0,0,0,0,-1,2022,400,0,0
805,624,0,0,0,0,0,0,0,0,0,-1,2029,400,0,0
812,624,0,0,0,0,0,0,0,0,0,-1,2036,400,0,0
-700,617,0,0,0,0,0,0,0,0,0,-1,524,407,0,0
-693,617,0,0,0,0,0,0,0,0,0,-1,531,407,0,0
-686,617,0,0,0,0,0,0,0,0,0,-1,538,407,0,0
-679,617,0,0,0,0,0,0,0,0,0,-1,545,407,0,0
-672,617,0,0,0,0,0,0,0,0,0,-1,552,407,0,0
-665,617,0,0,0,0,0,0,0,0,0,-1,559,407,0,0
-658,617,0,0,0,0,0,0,0,0,0,-1,566,407,0,0
-651,617,0,0,0,0,0,0,0,0,0,-1,573,407,0,0
-644,617,0,0,0,0,0,0,0,0,0,-1,580,407,0,0
-637,617,0,0,0,0,0,0,0,0,0,-1,587,407,0,0
-630,617,0,0,0,0,0,0,0,0,0,-1,594,407,0,0
-623,617,0,0,0,0,0,0,0,0,0,-1,601,407,0,0
-616,617,0,0,0,0,0,0,0,0,0,-1,608,407,0,0
-609,617,0,0,0,0,0,0,0,0,0,-1,615,407,0,0
-602,617,0,0,0,0,0,0,0,0,0,-1,622,407,0,0
-595,617,0,0,0,0,0,0,0,0,0,-1,629,407,0,0
-588,617,0,0,0,0,0,0,0,0,0,-1,636,407,0,0
-581,617,0,0,0,0,0,0,0,0,0,-1,643,407,0,0
-574,617,0,0,0,0,0,0,0,0,0,-1,650,407,0,0
-567,617,0,0,0,0,0,0,0,0,0,-1,657,407,0,0
-560,617,0,0,0,0,0,0,0,0,0,-1,664,407,0,0
-553,617,0,0,0,0,0,0,0,0,0,-1,671,407,0,0
-546,617,0,0,0,0,0,0,0,0,0,-1,678,407,0,0
-539,617,0,0,0,0,0,0,0,0,0,-1,685,407,0,0
-532,617,0,0,0,0,0,0,0,0,0,-1,692,407,0,0
-525,617,0,0,0,0,0,0,0,0,0,-1,699,407,0,0
-518,617,0,0,0,0,0,0,0,0,0,-1,706,407,0,0
-511,617,0,0,0,0,0,0,0,0,0,-1,713,407,0,0
-504,617,0,0,0,0,0,0,0,0,0,-1,720,407,0,0
-497,617,0,0,0,0,0,0,0,0,0,-1,727,407,0,0
-490,617,0,0,0,0,0,0,0,0,0,-1,734,407,0,0
-483,617,0,0,0,0,0,0,0,0,0,-1,741,407,0,0
-476,617,0,0,0,0,0,0,0,0,0,-1,748,407,0,0
-469,617,0,0,0,0,0,0,0,0,0,-1,755,407,0,0
-462,617,0,0,0,0,0,0,0,0,0,-1,762,407,0,0
-455,617,0,0,0,0,0,0,0,0,0,-1,769,407,0,0
-448,617,0,0,0,0,0,0,0,0,0,-1,776,407,0,0
-441,617,0,0,0,0,0,0,0,0,0,-1,783,407,0,0
-434,617,0,0,0,0,0,0,0,0,0,-1,790,407,0,0
-427,617,0,0,0,0,0,0,0,0,0,-1,797,407,0,0
-420,617,0,0,0,0,0,0,0,0,0,-1,804,407,0,0
-413,617,0,0,0,0,0,0,0,0,0,-1,811,407,0,0
-406,617,0,0,0,0,0,0,0,0,0,-1,818,407,0,0
-399,617,0,0,0,0,0,0,0,0,0,-1,825,407,0,0
-392,617,0,0,0,0,0,0,0,0,0,-1,832,407,0,0
-385,617,0,0,0,0,0,0,0,0,0,-1,839,407,0,0
-378,617,0,0,0,0,0,0,0,0,0,-1,846,407,0,0
-371,617,0,0,0,0,0,0,0,0,0,-1,853,407,0,0
-364,617,0,0,0,0,0,0,0,0,0,-1,860,407,0,0
-357,617,0,0,0,0,0,0,0,0,0,-1,867,407,0,0
-350,617,0,0,0,0,0,0,0,0,0,-1,874,407,0,0
-343,617,0,0,0,0,0,0,0,0,0,-1,881,407,0,0
-336,617,0,0,0,0,0,0,0,0,0,-1,888,407,0,0
-329,617,0,0,0,0,0,0,0,0,0,-1,895,407,0,0
-322,617,0,0,0,0,0,0,0,0,0,-1,902,407,0,0
-315,617,0,0,0,0,0,0,0,0,0,-1,909,407,0,0
-308,617,0,0,0,0,0,0,0,0,0,-1,916,407,0,0
-301,617,3.0321,-13.8866,0,0,0,0,0,0,0,-1,923,407,3.03209,13.8866
-294,617,-0.867493,-11.1655,0,0,0,0,0,0,0,-1,930,407,-0.867487,11.1655
-287,617,-0.212524,-10.7744,0,0,0,0,0,0,0,-1,937,407,-0.212541,10.7743
-280,617,2.19739,-11.6377,0,0,0,0,0,0,0,-1,944,407,2.19737,11.6377
-273,617,2.36188,-10.5736,0,0,0,0,0,0,0,-1,951,407,2.36188,10.5736
-266,617,1.75769,-13.3046,0,0,0,0,0,0,0,-1,958,407,1.75769,13.3046
-259,617,4.39972,-10.936,0,0,0,0,0,0,0,-1,965,407,4.39969,10.936
-252,617,1.58496,-14.6232,0,0,0,0,0,0,0,-1,972,407,1.58499,14.6232
-245,617,1.89142,-15.2768,0.0272424,-0.0228581,-0.00786628,0.0284485,-0.0240641,-0.152135,0.0303534,0.0412167,979,407,1.89144,15.2768
-238,617,2.16248,-15.5883,0.0220119,-0.0222279,-0.00471158,0.0225081,-0.0227241,-0.104933,0.026115,0.0413932,986,407,2.1625,15.5883
-231,617,2.64929,-15.3499,0.0168834,-0.0202736,-0.00262365,0.0170677,-0.0204579,-0.0701461,0.0216949,0.0448792,993,407,2.64927,15.3499
-224,617,3.03864,-15.1631,0.0122892,-0.0173182,-0.00113767,0.0123328,-0.0173619,-0.0383498,0.017226,0.0435734,1000,407,3.03866,15.1631
-217,617,3.07593,-15.5115,0.00804228,-0.0139759,-0.000315969,0.00804681,-0.0139804,-0.0143465,0.0128703,0.0340361,1007,407,3.07593,15.5115
-210,617,3.03802,-15.8435,0.00468146,-0.0116526,0.00020471,0.00468403,-0.0116552,0.0125301,0.00971542,0.0231456,1014,407,3.038,15.8435
-203,617,3.00623,-16.0516,0.00147495,-0.0101619,0.000577325,0.00150353,-0.0101904,0.0494501,0.00734626,0.0180801,1021,407,3.00627,16.0516
-196,617,2.98132,-16.2269,-0.00112548,-0.00918464,0.000690277,-0.00106679,-0.00924333,0.0848279,0.0058392,0.015252,1028,407,2.98134,16.2269
-189,617,2.94287,-16.4538,-0.00290074,-0.00816229,0.000597944,-0.00283364,-0.00822939,0.111746,0.00482738,0.0138121,1035,407,2.94286,16.4538
-182,617,2.9325,-16.671,-0.00465982,-0.00731195,0.000232303,-0.00463962,-0.00733214,0.0867111,0.00428268,0.0145828,1042,407,2.93244,16.671
-175,617,2.9325,-16.8586,-0.00537851,-0.0065796,-8.45902e-05,-0.00537258,-0.00658553,-0.0699672,0.00404709,0.0117538,1049,407,2.93248,16.8585
-168,617,2.91919,-17.0816,-0.00499739,-0.00681484,-0.000324684,-0.00494112,-0.0068711,-0.17158,0.00409204,0.00965454,1056,407,2.91918,17.0816
-161,617,2.89734,-17.2959,-0.00422626,-0.00644868,-0.000568017,-0.0040895,-0.00658544,-0.236272,0.00383903,0.0111014,1063,407,2.89739,17.2959
-154,617,2.88,-17.4562,-0.00362715,-0.00615611,-0.000592996,-0.003495,-0.00628825,-0.219256,0.00363805,0.011566,1070,407,2.88005,17.4562
-147,617,2.87903,-17.6378,-0.00315664,-0.00579203,-0.000716408,-0.00297448,-0.00597419,-0.248989,0.00344921,0.0157738,1077,407,2.87908,17.6377
-140,617,2.87317,-17.845,-0.00246001,-0.00541166,-0.000841901,-0.00223676,-0.00563491,-0.259208,0.00327627,0.0118063,1084,407,2.87323,17.845
-133,617,2.85742,-17.9914,-0.00162139,-0.00446083,-0.000857722,-0.00138241,-0.00469981,-0.271732,0.00278904,0.0132674,1091,407,2.85746,17.9914
-126,617,2.85767,-18.1191,-0.000985169,-0.00340202,-0.000824216,-0.000730849,-0.00365634,-0.299291,0.00223415,0.01367,1098,407,2.85762,18.1191
-119,617,2.84949,-18.2972,-0.000441713,-0.00227392,-0.000883341,-8.52072e-05,-0.00263043,-0.383596,0.00172592,0.0136609,1105,407,2.84954,18.2973
-112,617,2.84167,-18.4315,8.92297e-05,-0.00123744,-0.000936149,0.000573235,-0.00172144,-0.477169,0.00137901,0.0149759,1112,407,2.84163,18.4315
-105,617,2.82617,-18.5805,0.000543309,-0.000208973,-0.00103958,0.00127271,-0.000938369,-0.611816,0.00128142,0.0154085,1119,407,2.82613,18.5805
-98,617,2.85364,-18.7224,0.00099061,0.000571531,-0.00117215,0.0019718,-0.000409662,-0.69695,0.00147024,0.0128579,1126,407,2.85359,18.7224
-91,617,2.86267,-18.8648,0.00139217,0.000992322,-0.00125911,0.00246713,-8.26393e-05,-0.706665,0.00167298,0.0176706,1133,407,2.86272,18.8648
-84,617,2.87805,-18.9961,0.00167178,0.00100753,-0.00121761,0.00260175,7.75611e-05,-0.652254,0.00170923,0.0167085,1140,407,2.87806,18.9961
-77,617,2.8877,-19.1127,0.00183097,0.000933901,-0.00113432,0.00260222,0.00016265,-0.597123,0.00168322,0.0129577,1147,407,2.88772,19.1127
-70,617,2.88379,-19.2288,0.00175146,0.000675264,-0.00086494,0.00223202,0.000194701,-0.507135,0.00142755,0.0140847,1154,407,2.88374,19.2288
-63,617,2.90527,-19.3253,0.00159304,0.000321858,-0.000262755,0.00164521,0.000269688,-0.196004,0.00101888,0.0146008,1161,407,2.90529,19.3253
-56,617,2.91248,-19.4276,0.00146654,1.12025e-05,0.000277626,0.00151771,-3.996e-05,0.18224,0.00102538,0.0112601,1168,407,2.91244,19.4276
-49,617,2.89868,-19.5265,0.00124656,-0.000642976,0.00077442,0.00152339,-0.00091981,0.343317,0.00142486,0.00946894,1175,407,2.89863,19.5265
-42,617,2.91772,-19.6225,0.00100304,-0.000306756,0.00211351,0.00256079,-0.00186451,0.635158,0.00256547,0.0110967,1182,407,2.91775,19.6225
-35,617,2.96326,-19.6874,0.00173387,0.000642599,0.00233512,0.00358626,-0.00120978,0.670624,0.00288008,0.0161689,1189,407,2.96324,19.6874
-28,617,2.94031,-19.7676,0.00273149,0.00130868,0.00262799,0.00474266,-0.000702493,0.653214,0.00342007,0.0181228,1196,407,2.94032,19.7676
-21,617,2.94275,-19.8336,0.00313209,0.00150158,0.00318104,0.00560068,-0.000967012,0.659955,0.00409437,0.0131465,1203,407,2.94272,19.8336
-14,617,2.94226,-19.8762,0.00347267,0.00167641,0.00363863,0.00632237,-0.00117329,0.664401,0.00465556,0.0152326,1210,407,2.94222,19.8762
-7,617,2.9364,-19.9064,0.00404728,0.00207769,0.00354049,0.00673738,-0.000612412,0.649751,0.00470902,0.018107,1217,407,2.9364,19.9064
0,617,2.98816,-19.9411,0.00467859,0.00191963,0.00328972,0.00686635,-0.000268134,0.586869,0.00466951,0.0150414,1224,407,2.98817,19.9411
7,617,3.0343,-20.0363,0.00517306,0.00156997,0.00293083,0.00681177,-6.87349e-05,0.509824,0.00456426,0.0111102,1231,407,3.03432,20.0363
14,617,3.02307,-20.084,0.00578971,0.000604935,0.00247445,0.00678109,-0.000386445,0.381063,0.00465489,0.013514,1238,407,3.02308,20.084
21,617,3.03296,-20.0855,0.0064891,-0.000212997,0.00191415,0.00699726,-0.000721159,0.259491,0.00492287,0.0124005,1245,407,3.03295,20.0855
28,617,3.0531,-20.1231,0.00738674,-0.00132428,0.0012966,0.00757564,-0.00151318,0.144669,0.0056231,0.0105145,1252,407,3.05313,20.1231
35,617,3.04053,-20.161,0.00856893,-0.00264973,0.000527501,0.00859368,-0.00267448,0.0468821,0.00679829,0.0132945,1259,407,3.04054,20.161
42,617,3.08997,-20.1495,0.00955297,-0.00405237,-0.000342374,0.00956158,-0.00406098,-0.0251435,0.00807588,0.0192065,1266,407,3.09002,20.1495
49,617,3.11218,-20.1542,0.0106297,-0.005393,-0.00116371,0.0107138,-0.00547708,-0.0721241,0.00950939,0.0187739,1273,407,3.11214,20.1542
56,617,3.11646,-20.1545,0.0117897,-0.00642383,-0.00245852,0.0121158,-0.00674986,-0.13184,0.0110379,0.0130671,1280,407,3.11645,20.1545
63,617,3.14307,-20.1484,0.0130559,-0.00745814,-0.00417042,0.0138714,-0.00827356,-0.193088,0.0129208,0.00966735,1287,407,3.14311,20.1484
70,617,3.18494,-20.153,0.015771,-0.00406196,-0.00489167,0.0169119,-0.00520283,-0.229131,0.0133512,0.013988,1294,407,3.18493,20.153
77,617,3.21094,-20.1287,0.018913,-0.00117728,-0.00444048,0.0198507,-0.00211497,-0.208113,0.0139922,0.0131096,1301,407,3.2109,20.1287
84,617,3.23206,-20.0864,0.0205747,0.00208558,-0.00522088,0.021947,0.000713191,-0.25705,0.0143995,0.0105988,1308,407,3.23211,20.0864
91,617,3.24866,-20.0555,0.0216351,0.00531287,-0.00555146,0.0233443,0.0036037,-0.298668,0.0145115,0.0101722,1315,407,3.2486,20.0555
98,617,3.26086,-20.0258,0.021918,0.00828567,-0.00520779,0.0236798,0.00652388,-0.326212,0.0141234,0.0111922,1322,407,3.26091,20.0259
105,617,3.27722,-19.9871,0.0219617,0.0113538,-0.00470208,0.0237459,0.00956961,-0.36266,0.0137954,0.0126089,1329,407,3.27722,19.9871
112,617,3.29565,-19.9359,0.0213167,0.0135326,-0.00394837,0.0229688,0.0118805,-0.396288,0.0132637,0.0161912,1336,407,3.29568,19.9359
119,617,3.29895,-19.8621,0.0199615,0.0152072,-0.00312018,0.0215069,0.0136618,-0.459873,0.0125675,0.0192725,1343,407,3.29898,19.8621
126,617,3.28516,-19.7372,0.0180302,0.0152046,-0.00232313,0.0193364,0.0138984,-0.512201,0.0115146,0.0208594,1350,407,3.28513,19.7371
133,617,3.30786,-19.666,0.0154459,0.0139355,-0.00167533,0.0165284,0.012853,-0.57365,0.010021,0.0173402,1357,407,3.30787,19.666
140,617,3.35425,-19.6183,0.0127745,0.0119553,-0.00122323,0.0136549,0.011075,-0.623837,0.00837679,0.0147248,1364,407,3.35425,19.6183
147,617,3.34888,-19.5334,0.0103994,0.0091968,-0.00104858,0.0110068,0.00858934,-0.525072,0.00667951,0.0187014,1371,407,3.34888,19.5333
154,617,3.38635,-19.4387,0.00812475,0.0062184,-0.0010802,0.0086122,0.00573096,-0.423895,0.00506218,0.021616,1378,407,3.38632,19.4387
161,617,3.43652,-19.3224,0.00615935,0.00386962,-0.000890088,0.00646465,0.00356433,-0.330423,0.00373892,0.0228963,1385,407,3.43647,19.3224
168,617,3.42725,-19.2495,0.00445186,0.00218633,-0.00069072,0.00464584,0.00199235,-0.273785,0.00269131,0.0209972,1392,407,3.42719,19.2495
175,617,3.41736,-19.157,0.00156761,-0.00181721,-0.00116205,0.00192815,-0.00217775,-0.300845,0.002372,0.017066,1399,407,3.41734,19.157
182,617,3.4436,-19.0335,-0.000630981,-0.00295658,-0.00239022,0.000864273,-0.00445183,-0.559011,0.00329399,0.0109266,1406,407,3.44355,19.0335
189,617,3.43335,-18.8925,0.00011272,-0.00255335,-0.00146453,0.000760045,-0.00320067,-0.416183,0.00242713,0.0106647,1413,407,3.43331,18.8925
196,617,3.44104,-18.7705,0.000965117,-0.00157856,-0.000864894,0.00123133,-0.00184478,-0.2986,0.00178773,0.0148163,1420,407,3.44101,18.7705
203,617,3.42908,-18.639,0.00136859,-0.000205838,-0.000471846,0.00149917,-0.000336418,-0.269985,0.00112843,0.0151219,1427,407,3.42912,18.639
210,617,3.45728,-18.4817,0.00112265,0.000787131,-6.54041e-05,0.00113495,0.000774832,-0.185869,0.000669688,0.0140668,1434,407,3.45726,18.4817
217,617,3.46069,-18.3177,0.000783215,0.00174663,0.00026159,0.00181308,0.00071677,1.32205,0.0010544,0.0178212,1441,407,3.46068,18.3176
224,617,3.47266,-18.1717,0.000643641,0.00219978,0.000508512,0.00235122,0.000492207,1.28136,0.00143189,0.0174611,1448,407,3.47264,18.1717
231,617,3.48828,-18.0302,0.000536665,0.00259082,0.00078415,0.00285594,0.000271544,1.24476,0.00182021,0.0131642,1455,407,3.48827,18.0302
238,617,3.47815,-17.8543,0.00052657,0.00298933,0.00108599,0.0033998,0.000116099,1.20943,0.00222884,0.0148271,1462,407,3.4782,17.8543
245,617,3.48108,-17.6942,0.000494852,0.00334465,0.00129707,0.0038466,-7.09493e-06,1.20156,0.00256677,0.0130424,1469,407,3.48114,17.6942
252,617,3.48596,-17.4957,0.000508738,0.00372663,0.00152216,0.00433256,-9.71938e-05,1.19195,0.00292131,0.0137321,1476,407,3.48598,17.4957
259,617,3.46399,-17.2892,0.000533669,0.00410134,0.0017909,0.00484523,-0.000210217,1.17711,0.00330245,0.01115,1483,407,3.46402,17.2892
266,617,3.4679,-17.0934,0.000509702,0.00433794,0.00205522,0.00523234,-0.000384697,1.16033,0.00362327,0.0130158,1490,407,3.46788,17.0934
273,617,3.45642,-16.9049,0.000609817,0.00444117,0.00231723,0.00553205,-0.00048106,1.13081,0.0038584,0.0148847,1497,407,3.45638,16.9049
280,617,3.43945,-16.7172,0.000942344,0.00446193,0.00276298,0.00597794,-0.000573673,1.06896,0.00418963,0.0139157,1504,407,3.4394,16.7172
287,617,3.4137,-16.5046,0.00118005,0.00442288,0.00318546,0.00637584,-0.000772913,1.02081,0.00453023,0.0126777,1511,407,3.41371,16.5046
294,617,3.40918,-16.2893,0.00151678,0.00438196,0.00358239,0.00680759,-0.000908848,0.975607,0.00486969,0.0104572,1518,407,3.40921,16.2893
301,617,3.4054,-16.0629,0.0019452,0.00424104,0.00404076,0.00729377,-0.00110754,0.923795,0.00527063,0.0080894,1525,407,3.40539,16.0629
308,617,3.38354,-15.8368,0.00235754,0.00386149,0.00449699,0.00766894,-0.00144991,0.86824,0.00565819,0.00828063,1532,407,3.38352,15.8368
315,617,3.36401,-15.6029,0.00274766,0.00348276,0.00493681,0.00806569,-0.00183526,0.822555,0.00608189,0.0096918,1539,407,3.36398,15.6029
322,617,3.36597,-15.3595,0.00309435,0.00328991,0.00537967,0.00857269,-0.00218843,0.794485,0.00656729,0.0121474,1546,407,3.36592,15.3595
329,617,3.37463,-15.1183,0.00336721,0.00305535,0.00584177,0.00905514,-0.00263257,0.772055,0.00707937,0.0116948,1553,407,3.3746,15.1183
336,617,3.40845,-14.8834,0.00340598,0.00317479,0.00622999,0.00952145,-0.00294068,0.776122,0.00752197,0.0232374,1560,407,3.40845,14.8834
343,617,3.31909,-14.4698,0,0,0,0,0,0,0,-1,1567,407,3.31914,14.4698
350,617,2.88098,-10.0063,0,0,0,0,0,0,0,-1,1574,407,2.88098,10.0063
357,617,2.1748,-7.16504,0,0,0,0,0,0,0,-1,1581,407,2.1748,7.16505
364,617,2.30127,-7.60257,0,0,0,0,0,0,0,-1,1588,407,2.30125,7.60258
371,617,2.60266,-6.20667,0,0,0,0,0,0,0,-1,1595,407,2.60261,6.20668
378,617,1.56921,-10.3601,0,0,0,0,0,0,0,-1,1602,407,1.56918,10.3601
385,617,1.74146,-10.3561,0,0,0,0,0,0,0,-1,1609,407,1.7414,10.3561
392,617,1.91357,-10.3521,0,0,0,0,0,0,0,-1,1616,407,1.91362,10.3521
399,617,3.25,-2.14835,0,0,0,0,0,0,0,-1,1623,407,3.25006,2.14836
406,617,3.02429,-3.19577,0,0,0,0,0,0,0,-1,1630,407,3.02431,3.19577
413,617,2.92786,-3.80649,0,0,0,0,0,0,0,-1,1637,407,2.92788,3.8065
420,617,3.42737,-4.47391,0,0,0,0,0,0,0,-1,1644,407,3.42737,4.47391
427,617,0,0,0,0,0,0,0,0,0,-1,1651,407,0,0
434,617,0,0,0,0,0,0,0,0,0,-1,1658,407,0,0
441,617,0,0,0,0,0,0,0,0,0,-1,1665,407,0,0
448,617,0,0,0,0,0,0,0,0,0,-1,1672,407,0,0
455,617,0,0,0,0,0,0,0,0,0,-1,1679,407,0,0
462,617,0,0,0,0,0,0,0,0,0,-1,1686,407,0,0
469,617,0,0,0,0,0,0,0,0,0,-1,1693,407,0,0
476,617,0,0,0,0,0,0,0,0,0,-1,1700,407,0,0
483,617,0,0,0,0,0,0,0,0,0,-1,1707,407,0,0
490,617,0,0,0,0,0,0,0,0,0,-1,1714,407,0,0
497,617,0,0,0,0,0,0,0,0,0,-1,1721,407,0,0
504,617,0,0,0,0,0,0,0,0,0,-1,1728,407,0,0
511,617,0,0,0,0,0,0,0,0,0,-1,1735,407,0,0
518,617,0,0,0,0,0,0,0,0,0,-1,1742,407,0,0
525,617,0,0,0,0,0,0,0,0,0,-1,1749,407,0,0
532,617,0,0,0,0,0,0,0,0,0,-1,1756,407,0,0
539,617,0,0,0,0,0,0,0,0,0,-1,1763,407,0,0
546,617,0,0,0,0,0,0,0,0,0,-1,1770,407,0,0
553,617,0,0,0,0,0,0,0,0,0,-1,1777,407,0,0
560,617,0,0,0,0,0,0,0,0,0,-1,1784,407,0,0
567,617,0,0,0,0,0,0,0,0,0,-1,1791,407,0,0
574,617,0,0,0,0,0,0,0,0,0,-1,1798,407,0,0
581,617,0,0,0,0,0,0,0,0,0,-1,1805,407,0,0
588,617,0,0,0,0,0,0,0,0,0,-1,1812,407,0,0
595,617,0,0,0,0,0,0,0,0,0,-1,1819,407,0,0
602,617,0,0,0,0,0,0,0,0,0,-1,1826,407,0,0
609,617,0,0,0,0,0,0,0,0,0,-1,1833,407,0,0
616,617,0,0,0,0,0,0,0,0,0,-1,1840,407,0,0
623,617,0,0,0,0,0,0,0,0,0,-1,1847,407,0,0
630,617,0,0,0,0,0,0,0,0,0,-1,1854,407,0,0
637,617,0,0,0,0,0,0,0,0,0,-1,1861,407,0,0
644,617,0,0,0,0,0,0,0,0,0,-1,1868,407,0,0
651,617,0,0,0,0,0,0,0,0,0,-1,1875,407,0,0
658,617,0,0,0,0,0,0,0,0,0,-1,1882,407,0,0
665,617,0,0,0,0,0,0,0,0,0,-1,1889,407,0,0
672,617,0,0,0,0,0,0,0,0,0,-1,1896,407,0,0
679,617,0,0,0,0,0,0,0,0,0,-1,1903,407,0,0
686,617,0,0,0,0,0,0,0,0,0,-1,1910,407,0,0
693,617,0,0,0,0,0,0,0,0,0,-1,1917,407,0,0
700,617,0,0,0,0,0,0,0,0,0,-1,1924,407,0,0
707,617,0,0,0,0,0,0,0,0,0,-1,1931,407,0,0
714,617,0,0,0,0,0,0,0,0,0,-1,1938,407,0,0
721,617,0,0,0,0,0,0,0,0,0,-1,1945,407,0,0
728,617,0,0,0,0,0,0,0,0,0,-1,1952,407,0,0
735,617,0,0,0,0,0,0,0,0,0,-1,1959,407,0,0
742,617,0,0,0,0,0,0,0,0,0,-1,1966,407,0,0
749,617,0,0,0,0,0,0,0,0,0,-1,1973,407,0,0
756,617,0,0,0,0,0,0,0,0,0,-1,1980,407,0,0
763,617,0,0,0,0,0,0,0,0,0,-1,1987,407,0,0
770,617,0,0,0,0,0,0,0,0,0,-1,1994,407,0,0
777,617,0,0,0,0,0,0,0,0,0,-1,2001,407,0,0
784,617,0,0,0,0,0,0,0,0,0,-1,2008,407,0,0
791,617,0,0,0,0,0,0,0,0,0,-1,2015,407,0,0
798,617,0,0,0,0,0,0,0,0,0,-1,2022,407,0,0
805,617,0,0,0,0,0,0,0,0,0,-1,2029,407,0,0
812,617,0,0,0,0,0,0,0,0,0,-1,2036,407,0,0
-700,610,0,0,0,0,0,0,0,0,0,-1,524,414,0,0
-693,610,0,0,0,0,0,0,0,0,0,-1,531,414,0,0
-686,610,0,0,0,0,0,0,0,0,0,-1,538,414,0,0
-679,610,0,0,0,0,0,0,0,0,0,-1,545,414,0,0
-672,610,0,0,0,0,0,0,0,0,0,-1,552,414,0,0
-665,610,0,0,0,0,0,0,0,0,0,-1,559,414,0,0
-658,610,0,0,0,0,0,0,0,0,0,-1,566,414,0,0
-651,610,0,0,0,0,0,0,0,0,0,-1,573,414,0,0
-644,610,0,0,0,0,0,0,0,0,0,-1,580,414,0,0
-637,610,0,0,0,0,0,0,0,0,0,-1,587,414,0,0
-630,610,0,0,0,0,0,0,0,0,0,-1,594,414,0,0
-623,610,0,0,0,0,0,0,0,0,0,-1,601,414,0,0
-616,610,0,0,0,0,0,0,0,0,0,-1,608,414,0,0
-609,610,0,0,0,0,0,0,0,0,0,-1,615,414,0,0
-602,610,0,0,0,0,0,0,0,0,0,-1,622,414,0,0
-595,610,0,0,0,0,0,0,0,0,0,-1,629,414,0,0
-588,610,0,0,0,0,0,0,0,0,0,-1,636,414,0,0
-581,610,0,0,0,0,0,0,0,0,0,-1,643,414,0,0
-574,610,0,0,0,0,0,0,0,0,0,-1,650,414,0,0
-567,610,0,0,0,0,0,0,0,0,0,-1,657,414,0,0
-560,610,0,0,0,0,0,0,0,0,0,-1,664,414,0,0
-553,610,0,0,0,0,0,0,0,0,0,-1,671,414,0,0
-546,610,0,0,0,0,0,0,0,0,0,-1,678,414,0,0
-539,610,0,0,0,0,0,0,0,0,0,-1,685,414,0,0
-532,610,0,0,0,0,0,0,0,0,0,-1,692,414,0,0
-525,610,0,0,0,0,0,0,0,0,0,-1,699,414,0,0
-518,610,0,0,0,0,0,0,0,0,0,-1,706,414,0,0
-511,610,0,0,0,0,0,0,0,0,0,-1,713,414,0,0
-504,610,0,0,0,0,0,0,0,0,0,-1,720,414,0,0
-497,610,0,0,0,0,0,0,0,0,0,-1,727,414,0,0
-490,610,0,0,0,0,0,0,0,0,0,-1,734,414,0,0
-483,610,0,0,0,0,0,0,0,0,0,-1,741,414,0,0
-476,610,0,0,0,0,0,0,0,0,0,-1,748,414,0,0
-469,610,0,0,0,0,0,0,0,0,0,-1,755,414,0,0
-462,610,0,0,0,0,0,0,0,0,0,-1,762,414,0,0
-455,610,0,0,0,0,0,0,0,0,0,-1,769,414,0,0
-448,610,0,0,0,0,0,0,0,0,0,-1,776,414,0,0
-441,610,0,0,0,0,0,0,0,0,0,-1,783,414,0,0
-434,610,0,0,0,0,0,0,0,0,0,-1,790,414,0,0
-427,610,0,0,0,0,0,0,0,0,0,-1,797,414,0,0
-420,610,0,0,0,0,0,0,0,0,0,-1,804,414,0,0
-413,610,0,0,0,0,0,0,0,0,0,-1,811,414,0,0
-406,610,0,0,0,0,0,0,0,0,0,-1,818,414,0,0
-399,610,0,0,0,0,0,0,0,0,0,-1,825,414,0,0
-392,610,0,0,0,0,0,0,0,0,0,-1,832,414,0,0
-385,610,0,0,0,0,0,0,0,0,0,-1,839,414,0,0
-378,610,0,0,0,0,0,0,0,0,0,-1,846,414,0,0
-371,610,0,0,0,0,0,0,0,0,0,-1,853,414,0,0
-364,610,0,0,0,0,0,0,0,0,0,-1,860,414,0,0
-357,610,0,0,0,0,0,0,0,0,0,-1,867,414,0,0
-350,610,0,0,0,0,0,0,0,0,0,-1,874,414,0,0
-343,610,0,0,0,0,0,0,0,0,0,-1,881,414,0,0
-336,610,0,0,0,0,0,0,0,0,0,-1,888,414,0,0
-329,610,0,0,0,0,0,0,0,0,0,-1,895,414,0,0
-322,610,0,0,0,0,0,0,0,0,0,-1,902,414,0,0
-315,610,1.74609,-13.6603,0,0,0,0,0,0,0,-1,909,414,1.74607,13.6603
-308,610,2.05853,-13.3974,0,0,0,0,0,0,0,-1,916,414,2.05856,13.3974
-301,610,2.2345,-13.0041,0,0,0,0,0,0,0,-1,923,414,2.2345,13.0041
-294,610,2.37964,-12.4347,0,0,0,0,0,0,0,-1,930,414,2.37964,12.4347
-287,610,2.08557,-11.9136,0,0,0,0,0,0,0,-1,937,414,2.08555,11.9136
-280,610,2.25854,-11.0924,0,0,0,0,0,0,0,-1,944,414,2.25856,11.0924
-273,610,0.750854,-12.2343,0,0,0,0,0,0,0,-1,951,414,0.750827,12.2343
-266,610,2.46454,-14.0587,0,0,0,0,0,0,0,-1,958,414,2.46456,14.0587
-259,610,2.40308,-14.2646,0,0,0,0,0,0,0,-1,965,414,2.40309,14.2646
-252,610,2.46198,-14.756,0,0,0,0,0,0,0,-1,972,414,2.46201,14.756
-245,610,2.30835,-14.9898,0,0,0,0,0,0,0,-1,979,414,2.30838,14.9898
-238,610,2.88928,-14.6055,0,0,0,0,0,0,0,-1,986,414,2.88929,14.6055
-231,610,2.82611,-14.9022,0.0124156,-0.013297,-0.00290652,0.0127401,-0.0136214,-0.11117,0.0152227,0.0364685,993,414,2.8261,14.9022
-224,610,2.83691,-15.2539,0.00918443,-0.0113767,-0.0016033,0.0093087,-0.011501,-0.0773538,0.0120367,0.0241866,1000,414,2.83693,15.2539
-217,610,2.83942,-15.5722,0.00619969,-0.00915879,-0.000808612,0.00624215,-0.00920125,-0.0524559,0.00897064,0.0148474,1007,414,2.83943,15.5722
-210,610,2.82831,-15.8239,0.00379368,-0.00762895,-0.000216273,0.00379777,-0.00763304,-0.0189247,0.00672227,0.010004,1014,414,2.82831,15.8239
-203,610,2.79645,-16.0477,0.0014967,-0.00648526,0.000198379,0.00150163,-0.00649019,0.024833,0.00490457,0.0125339,1021,414,2.79644,16.0477
-196,610,2.77466,-16.2802,-0.000409473,-0.00558476,0.000269514,-0.000395475,-0.00559876,0.0518901,0.00360791,0.0137199,1028,414,2.7747,16.2802
-189,610,2.77136,-16.4811,-0.00171558,-0.00476433,0.000209195,-0.00170129,-0.00477862,0.0681907,0.0027968,0.0115274,1035,414,2.77137,16.4811
-182,610,2.77454,-16.6875,-0.00290074,-0.00408941,-7.5569e-05,-0.00289595,-0.0040942,-0.0632348,0.00243058,0.0120507,1042,414,2.7746,16.6875
-175,610,2.74927,-16.868,-0.0033357,-0.00354777,-0.000316146,-0.00310828,-0.00377519,-0.623595,0.00232657,0.0113811,1049,414,2.74929,16.868
-168,610,2.7207,-17.0669,-0.00294559,-0.00377936,-0.000510797,-0.00270315,-0.0040218,-0.443144,0.0023674,0.0105395,1056,414,2.7207,17.0669
-161,610,2.70044,-17.2943,-0.00223104,-0.00358771,-0.000734594,-0.00190949,-0.00390926,-0.412596,0.00225721,0.0106151,1063,414,2.70041,17.2943
-154,610,2.70398,-17.4669,-0.00162339,-0.00348475,-0.000766589,-0.00134832,-0.00375982,-0.344509,0.00219947,0.0138085,1070,414,2.70397,17.4669
-147,610,2.72351,-17.6269,-0.00110914,-0.00342142,-0.000867516,-0.000819854,-0.0037107,-0.321864,0.00225085,0.0152822,1077,414,2.72353,17.6269
-140,610,2.71033,-17.8307,-0.000420685,-0.00341337,-0.000986486,-0.000124767,-0.00370929,-0.29143,0.00243234,0.0117079,1084,414,2.71038,17.8306
-133,610,2.7135,-17.9888,0.00035088,-0.00295161,-0.00102436,0.000642811,-0.00324354,-0.277627,0.00240543,0.012998,1091,414,2.71346,17.9888
-126,610,2.72363,-18.1347,0.00093854,-0.00247063,-0.0010262,0.0012236,-0.00275569,-0.270953,0.00235352,0.0125383,1098,414,2.7236,18.1347
-119,610,2.71851,-18.2932,0.00146505,-0.00189946,-0.00111322,0.00180003,-0.00223443,-0.292292,0.00233379,0.0105857,1105,414,2.71848,18.2932
-112,610,2.71082,-18.4231,0.00197717,-0.00137502,-0.00119626,0.00236028,-0.00175813,-0.309936,0.00238622,0.0174853,1112,414,2.71081,18.4231
-105,610,2.69836,-18.5719,0.00240108,-0.00084976,-0.00134409,0.00288482,-0.0013335,-0.345469,0.00248974,0.0168596,1119,414,2.69835,18.5719
-98,610,2.70056,-18.7317,0.00275264,-0.000561257,-0.0014756,0.00331444,-0.00112306,-0.363785,0.00266409,0.0121053,1126,414,2.70062,18.7317
-91,610,2.72473,-18.8531,0.00305271,-0.000453394,-0.00161766,0.00368504,-0.00108572,-0.372627,0.00288746,0.0133421,1133,414,2.72469,18.8531
-84,610,2.75037,-18.9931,0.00324126,-0.000385583,-0.00159485,0.0038428,-0.000987126,-0.360679,0.00294655,0.0138551,1140,414,2.75043,18.9931
-77,610,2.75317,-19.1017,0.0033146,-0.000285099,-0.00150079,0.00385822,-0.000828715,-0.347519,0.00288829,0.0116666,1147,414,2.75316,19.1017
-70,610,2.75562,-19.2374,0.00312207,-0.000404926,-0.0010948,0.00343427,-0.000717125,-0.277791,0.00256223,0.0142192,1154,414,2.7556,19.2374
-63,610,2.78381,-19.3452,0.00273144,-0.000672176,-0.000181907,0.00274113,-0.00068187,-0.0532431,0.00209209,0.0122484,1161,414,2.78385,19.3453
-56,610,2.81665,-19.4313,0.00240245,-0.000846416,0.000640313,0.00252409,-0.00096806,0.187738,0.00208184,0.0104059,1168,414,2.81665,19.4313
-49,610,2.81506,-19.5226,0.00195127,-0.00160706,0.00135994,0.00241149,-0.00206729,0.326318,0.00258837,0.0113185,1175,414,2.81505,19.5226
-42,610,2.82117,-19.6252,0.00189312,0.00105069,0.00479333,0.0062837,-0.00333989,0.741574,0.00564217,0.0150246,1182,414,2.82122,19.6252
-35,610,2.82544,-19.7039,0.00348292,0.00433481,0.00616739,0.0100909,-0.00227322,0.819875,0.00759923,0.0149983,1189,414,2.8255,19.7038
-28,610,2.84937,-19.7787,0.00532141,0.00666293,0.00766009,0.0136816,-0.00169723,0.82907,0.00973623,0.012613,1196,414,2.84939,19.7787
-21,610,2.87085,-19.8226,0.00611687,0.00742856,0.00940729,0.0162028,-0.00265741,0.8202,0.011788,0.0111137,1203,414,2.87086,19.8226
-14,610,2.87903,-19.8663,0.00679893,0.00792366,0.0106747,0.0180508,-0.00332822,0.811715,0.013283,0.0126147,1210,414,2.879,19.8663
-7,610,2.90271,-19.9121,0.0078036,0.00867264,0.0110157,0.0192623,-0.00278611,0.805111,0.0138639,0.0138523,1217,414,2.90267,19.9121
0,610,2.92957,-19.9737,0.00880365,0.00834356,0.0108223,0.0193984,-0.00225115,0.774772,0.0137442,0.010368,1224,414,2.92959,19.9737
7,610,2.95178,-20.0411,0.0096218,0.00734116,0.010279,0.0188235,-0.00186058,0.730156,0.013213,0.0110879,1231,414,2.95176,20.0411
14,610,2.98743,-20.0692,0.0105355,0.00518705,0.00936721,0.0176027,-0.00188019,0.646353,0.0124095,0.0138545,1238,414,2.98744,20.0692
21,610,3.03333,-20.0755,0.0114654,0.00336242,0.00827127,0.0166241,-0.00179634,0.55766,0.0117275,0.0127196,1245,414,3.03334,20.0755
28,610,3.04004,-20.1259,0.0127418,0.000841146,0.00680114,0.0158282,-0.00224522,0.426011,0.0113746,0.0129533,1252,414,3.04004,20.1259
35,610,3.08545,-20.1307,0.0144359,-0.00191781,0.0051189,0.015906,-0.00338793,0.279668,0.0118952,0.0167951,1259,414,3.08548,20.1307
42,610,3.10327,-20.1164,0.0158552,-0.0047308,0.00327554,0.0163638,-0.00523942,0.154048,0.0130122,0.0155281,1266,414,3.1033,20.1164
49,610,3.12756,-20.1565,0.0174686,-0.00746051,0.00139205,0.0175461,-0.007538,0.0556099,0.0148616,0.0154667,1273,414,3.12755,20.1565
56,610,3.15088,-20.1599,0.0190922,-0.00959762,-0.00114613,0.0191379,-0.00964333,-0.0398644,0.0169156,0.013631,1280,414,3.15084,20.16
63,610,3.15869,-20.1076,0.0208611,-0.0117632,-0.00437302,0.0214371,-0.0123392,-0.130962,0.0197352,0.0170438,1287,414,3.15868,20.1076
70,610,3.18677,-20.0824,0.024802,-0.00834274,-0.00603915,0.0258681,-0.00940882,-0.174727,0.0210932,0.0236406,1294,414,3.18683,20.0824
77,610,3.1936,-20.1017,0.0293002,-0.00501313,-0.00594308,0.0303004,-0.00601332,-0.166733,0.0224745,0.0287403,1301,414,3.19354,20.1017
84,610,3.25476,-20.0768,0.0316643,-0.000995086,-0.00740919,0.0332665,-0.00259735,-0.212974,0.0230922,0.0313087,1308,414,3.2548,20.0768
91,610,3.31274,-20.045,0.0332676,0.00310483,-0.00814507,0.0353265,0.0010459,-0.247595,0.0232103,0.0259388,1315,414,3.31271,20.045
98,610,3.37048,-20.0357,0.0335062,0.00704933,-0.00794205,0.0357072,0.00484832,-0.270349,0.0223645,0.0228881,1322,414,3.37049,20.0357
105,610,3.38342,-19.9731,0.0333888,0.0113199,-0.00741749,0.0356501,0.00905852,-0.295916,0.0213963,0.0183428,1329,414,3.38345,19.9731
112,610,3.35815,-19.9123,0.032399,0.01491,-0.00636319,0.0344692,0.0128398,-0.314531,0.0201153,0.0129376,1336,414,3.35818,19.9123
119,610,3.35266,-19.8634,0.0303837,0.0180161,-0.0051553,0.0322508,0.0161491,-0.347471,0.01862,0.01792,1343,414,3.3527,19.8634
126,610,3.38184,-19.7708,0.0273944,0.0185602,-0.00400297,0.0289384,0.0170162,-0.368128,0.0167937,0.0244309,1350,414,3.38189,19.7708
133,610,3.41907,-19.6841,0.0233485,0.0177222,-0.00295529,0.0246155,0.0164552,-0.405018,0.0144782,0.0200224,1357,414,3.41903,19.6841
140,610,3.44653,-19.6296,0.0190947,0.0157119,-0.00237813,0.0203216,0.014485,-0.476284,0.0120816,0.0160181,1364,414,3.44652,19.6296
147,610,3.44666,-19.5294,0.0152803,0.0124409,-0.00224851,0.0165198,0.0112014,-0.50381,0.00973721,0.0166224,1371,414,3.44664,19.5294
154,610,3.46448,-19.4112,0.0115908,0.0088174,-0.00240376,0.0129792,0.00742903,-0.523772,0.00751966,0.0214467,1378,414,3.46447,19.4112
161,610,3.48389,-19.3082,0.00843177,0.0059608,-0.0022153,0.00973281,0.00465976,-0.531028,0.00562093,0.0274711,1385,414,3.48392,19.3082
168,610,3.49219,-19.2371,0.00563425,0.004043,-0.00183645,0.00684002,0.00283723,-0.580983,0.00396815,0.0279733,1392,414,3.49223,19.2371
175,610,3.51233,-19.1214,0.00066179,-0.00102988,-0.00271275,0.00265752,-0.0030256,-0.634275,0.00328345,0.0213409,1399,414,3.51231,19.1214
182,610,3.5636,-19.0295,-0.00321481,-0.00349093,-0.00489148,0.00154055,-0.0082463,-0.771289,0.0060765,0.0146597,1406,414,3.56362,19.0295
189,610,3.58691,-18.8857,-0.00173125,-0.00348714,-0.0033005,0.000806081,-0.00602447,-0.655407,0.00431021,0.0133985,1413,414,3.58692,18.8856
196,610,3.59473,-18.7604,0.00011361,-0.0025118,-0.00217254,0.00133923,-0.00373742,-0.513638,0.00303807,0.0137212,1420,414,3.59473,18.7604
203,610,3.58997,-18.6409,0.0016107,-0.000885272,-0.00130441,0.00216798,-0.00144254,-0.40375,0.00209851,0.0139631,1427,414,3.58993,18.6409
210,610,3.59558,-18.4895,0.00188004,0.000239018,-0.000531719,0.00203726,8.17948e-05,-0.287496,0.00133175,0.0105896,1434,414,3.59562,18.4895
217,610,3.62622,-18.3245,0.0013957,0.00164285,-7.82864e-05,0.00166556,0.00137299,-1.28845,0.00102684,0.0155908,1441,414,3.62619,18.3245
224,610,3.63171,-18.1708,0.00122609,0.00217838,0.000238333,0.0022347,0.00116977,1.33875,0.00129068,0.0185108,1448,414,3.63166,18.1708
231,610,3.63269,-18.0138,0.00107213,0.00260829,0.00056425,0.00279327,0.000887148,1.254,0.00164808,0.014517,1455,414,3.63263,18.0138
238,610,3.63428,-17.8382,0.0010129,0.00296569,0.000837944,0.00327596,0.000702632,1.21618,0.00199152,0.0113192,1462,414,3.63426,17.8382
245,610,3.6532,-17.6741,0.000958015,0.00324784,0.00100648,0.00362734,0.000578515,1.21022,0.00225031,0.0128127,1469,414,3.6532,17.6741
252,610,3.66931,-17.479,0.000913551,0.00350416,0.00116668,0.00395212,0.000465594,1.2042,0.00249408,0.0138937,1476,414,3.66928,17.479
259,610,3.65857,-17.281,0.000862449,0.00368791,0.00134739,0.00422742,0.000322936,1.18993,0.00271704,0.0116855,1483,414,3.65862,17.281
266,610,3.66089,-17.0976,0.000780243,0.00375501,0.00151293,0.00438925,0.000146006,1.17384,0.00287873,0.012182,1490,414,3.66092,17.0976
273,610,3.64624,-16.916,0.000766834,0.00373602,0.00167431,0.00448913,1.37177e-05,1.1481,0.00298819,0.010136,1497,414,3.64629,16.916
280,610,3.62354,-16.7087,0.000906476,0.00366207,0.00198101,0.00469731,-0.000128762,1.08925,0.00317533,0.00944363,1504,414,3.6235,16.7087
287,610,3.6012,-16.4816,0.00104177,0.00356752,0.00227912,0.00491026,-0.000300972,1.03839,0.0033783,0.0125582,1511,414,3.60118,16.4816
294,610,3.61572,-16.274,0.00123632,0.0034767,0.00256796,0.00515816,-0.000445142,0.991065,0.00359635,0.0115617,1518,414,3.61578,16.274
301,610,3.6355,-16.0783,0.00146074,0.003299,0.00291261,0.00543407,-0.000674328,0.938237,0.00386713,0.010832,1525,414,3.63544,16.0783
308,610,3.63147,-15.8406,0.00170128,0.00303334,0.00328308,0.00571727,-0.000982647,0.885474,0.00417777,0.0124562,1532,414,3.63153,15.8406
315,610,3.60925,-15.6043,0.00192522,0.00282306,0.00363347,0.00603524,-0.00128695,0.846862,0.00451405,0.0140565,1539,414,3.60926,15.6043
322,610,3.58984,-15.3872,0.00207966,0.00279007,0.00397834,0.00642903,-0.0015593,0.829922,0.00488938,0.0129702,1546,414,3.58984,15.3872
329,610,3.56763,-15.1396,0.0021608,0.00272068,0.00434284,0.00679259,-0.00191111,0.817584,0.00528196,0.0104855,1553,414,3.56759,15.1396
336,610,3.56348,-14.8669,0.00207243,0.00294919,0.00465621,0.00718762,-0.00216599,0.832335,0.00565378,0.010356,1560,414,3.56345,14.8669
343,610,3.56226,-14.601,0.00186392,0.00333308,0.00484545,0.00749932,-0.00230231,0.860626,0.00591819,0.0229827,1567,414,3.56222,14.601
350,610,3.5929,-14.3363,0,0,0,0,0,0,0,-1,1574,414,3.59284,14.3363
357,610,3.62183,-13.9184,0,0,0,0,0,0,0,-1,1581,414,3.62179,13.9184
364,610,3.72803,-13.6392,0,0,0,0,0,0,0,-1,1588,414,3.72802,13.6392
371,610,3.60181,-13.1696,0,0,0,0,0,0,0,-1,1595,414,3.60179,13.1695
378,610,3.5752,-12.1958,0,0,0,0,0,0,0,-1,1602,414,3.57517,12.1958
385,610,2.57104,-10.3878,0,0,0,0,0,0,0,-1,1609,414,2.57109,10.3878
392,610,2.35229,-10.3207,0,0,0,0,0,0,0,-1,1616,414,2.35227,10.3207
399,610,3.03833,-2.82547,0,0,0,0,0,0,0,-1,1623,414,3.03827,2.82546
406,610,2.91687,-2.9166,0,0,0,0,0,0,0,-1,1630,414,2.91688,2.91659
413,610,3.01929,-3.20306,0,0,0,0,0,0,0,-1,1637,414,3.01929,3.20306
420,610,4.78149,-3.64041,0,0,0,0,0,0,0,-1,1644,414,4.78152,3.64042
427,610,5.20764,-4.67545,0,0,0,0,0,0,0,-1,1651,414,5.20759,4.67545
434,610,5.39233,-5.45441,0,0,0,0,0,0,0,-1,1658,414,5.39228,5.4544
441,610,0,0,0,0,0,0,0,0,0,-1,1665,414,0,0
448,610,0,0,0,0,0,0,0,0,0,-1,1672,414,0,0
455,610,0,0,0,0,0,0,0,0,0,-1,1679,414,0,0
462,610,0,0,0,0,0,0,0,0,0,-1,1686,414,0,0
469,610,0,0,0,0,0,0,0,0,0,-1,1693,414,0,0
476,610,0,0,0,0,0,0,0,0,0,-1,1700,414,0,0
483,610,0,0,0,0,0,0,0,0,0,-1,1707,414,0,0
490,610,0,0,0,0,0,0,0,0,0,-1,1714,414,0,0
497,610,0,0,0,0,0,0,0,0,0,-1,1721,414,0,0
504,610,0,0,0,0,0,0,0,0,0,-1,1728,414,0,0
511,610,0,0,0,0,0,0,0,0,0,-1,1735,414,0,0
518,610,0,0,0,0,0,0,0,0,0,-1,1742,414,0,0
525,610,0,0,0,0,0,0,0,0,0,-1,1749,414,0,0
532,610,0,0,0,0,0,0,0,0,0,-1,1756,414,0,0
539,610,0,0,0,0,0,0,0,0,0,-1,1763,414,0,0
546,610,0,0,0,0,0,0,0,0,0,-1,1770,414,0,0
553,610,0,0,0,0,0,0,0,0,0,-1,1777,414,0,0
560,610,0,0,0,0,0,0,0,0,0,-1,1784,414,0,0
567,610,0,0,0,0,0,0,0,0,0,-1,1791,414,0,0
574,610,0,0,0,0,0,0,0,0,0,-1,1798,414,0,0
581,610,0,0,0,0,0,0,0,0,0,-1,1805,414,0,0
588,610,0,0,0,0,0,0,0,0,0,-1,1812,414,0,0
595,610,0,0,0,0,0,0,0,0,0,-1,1819,414,0,0
602,610,0,0,0,0,0,0,0,0,0,-1,1826,414,0,0
609,610,0,0,0,0,0,0,0,0,0,-1,1833,414,0,0
616,610,0,0,0,0,0,0,0,0,0,-1,1840,414,0,0
623,610,0,0,0,0,0,0,0,0,0,-1,1847,414,0,0
630,610,0,0,0,0,0,0,0,0,0,-1,1854,414,0,0
637,610,0,0,0,0,0,0,0,0,0,-1,1861,414,0,0
644,610,0,0,0,0,0,0,0,0,0,-1,1868,414,0,0
651,610,0,0,0,0,0,0,0,0,0,-1,1875,414,0,0
658,610,0,0,0,0,0,0,0,0,0,-1,1882,414,0,0
665,610,0,0,0,0,0,0,0,0,0,-1,1889,414,0,0
672,610,0,0,0,0,0,0,0,0,0,-1,1896,414,0,0
679,610,0,0,0,0,0,0,0,0,0,-1,1903,414,0,0
686,610,0,0,0,0,0,0,0,0,0,-1,1910,414,0,0
693,610,0,0,0,0,0,0,0,0,0,-1,1917,414,0,0
700,610,0,0,0,0,0,0,0,0,0,-1,1924,414,0,0
707,610,0,0,0,0,0,0,0,0,0,-1,1931,414,0,0
714,610,0,0,0,0,0,0,0,0,0,-1,1938,414,0,0
721,610,0,0,0,0,0,0,0,0,0,-1,1945,414,0,0
728,610,0,0,0,0,0,0,0,0,0,-1,1952,414,0,0
735,610,0,0,0,0,0,0,0,0,0,-1,1959,414,0,0
742,610,0,0,0,0,0,0,0,0,0,-1,1966,414,0,0
749,610,0,0,0,0,0,0,0,0,0,-1,1973,414,0,0
756,610,0,0,0,0,0,0,0,0,0,-1,1980,414,0,0
763,610,0,0,0,0,0,0,0,0,0,-1,1987,414,0,0
770,610,0,0,0,0,0,0,0,0,0,-1,1994,414,0,0
777,610,0,0,0,0,0,0,0,0,0,-1,2001,414,0,0
784,610,0,0,0,0,0,0,0,0,0,-1,2008,414,0,0
791,610,0,0,0,0,0,0,0,0,0,-1,2015,414,0,0
798,610,0,0,0,0,0,0,0,0,0,-1,2022,414,0,0
805,610,0,0,0,0,0,0,0,0,0,-1,2029,414,0,0
812,610,0,0,0,0,0,0,0,0,0,-1,2036,414,0,0
-700,603,0,0,0,0,0,0,0,0,0,-1,524,421,0,0
-693,603,0,0,0,0,0,0,0,0,0,-1,531,421,0,0
-686,603,0,0,0,0,0,0,0,0,0,-1,538,421,0,0
-679,603,0,0,0,0,0,0,0,0,0,-1,545,421,0,0
-672,603,0,0,0,0,0,0,0,0,0,-1,552,421,0,0
-665,603,0,0,0,0,0,0,0,0,0,-1,559,421,0,0
-658,603,0,0,0,0,0,0,0,0,0,-1,566,421,0,0
-651,603,0,0,0,0,0,0,0,0,0,-1,573,421,0,0
-644,603,0,0,0,0,0,0,0,0,0,-1,580,421,0,0
-637,603,0,0,0,0,0,0,0,0,0,-1,587,421,0,0
-630,603,0,0,0,0,0,0,0,0,0,-1,594,421,0,0
-623,603,0,0,0,0,0,0,0,0,0,-1,601,421,0,0
-616,603,0,0,0,0,0,0,0,0,0,-1,608,421,0,0
-609,603,0,0,0,0,0,0,0,0,0,-1,615,421,0,0
-602,603,0,0,0,0,0,0,0,0,0,-1,622,421,0,0
-595,603,0,0,0,0,0,0,0,0,0,-1,629,421,0,0
-588,603,0,0,0,0,0,0,0,0,0,-1,636,421,0,0
-581,603,0,0,0,0,0,0,0,0,0,-1,643,421,0,0
-574,603,0,0,0,0,0,0,0,0,0,-1,650,421,0,0
-567,603,0,0,0,0,0,0,0,0,0,-1,657,421,0,0
-560,603,0,0,0,0,0,0,0,0,0,-1,664,421,0,0
-553,603,0,0,0,0,0,0,0,0,0,-1,671,421,0,0
-546,603,0,0,0,0,0,0,0,0,0,-1,678,421,0,0
-539,603,0,0,0,0,0,0,0,0,0,-1,685,421,0,0
-532,603,0,0,0,0,0,0,0,0,0,-1,692,421,0,0
-525,603,0,0,0,0,0,0,0,0,0,-1,699,421,0,0
-518,603,0,0,0,0,0,0,0,0,0,-1,706,421,0,0
-511,603,0,0,0,0,0,0,0,0,0,-1,713,421,0,0
-504,603,0,0,0,0,0,0,0,0,0,-1,720,421,0,0
-497,603,0,0,0,0,0,0,0,0,0,-1,727,421,0,0
-490,603,0,0,0,0,0,0,0,0,0,-1,734,421,0,0
-483,603,0,0,0,0,0,0,0,0,0,-1,741,421,0,0
-476,603,0,0,0,0,0,0,0,0,0,-1,748,421,0,0
-469,603,0,0,0,0,0,0,0,0,0,-1,755,421,0,0
-462,603,0,0,0,0,0,0,0,0,0,-1,762,421,0,0
-455,603,0,0,0,0,0,0,0,0,0,-1,769,421,0,0
-448,603,0,0,0,0,0,0,0,0,0,-1,776,421,0,0
-441,603,0,0,0,0,0,0,0,0,0,-1,783,421,0,0
-434,603,0,0,0,0,0,0,0,0,0,-1,790,421,0,0
-427,603,0,0,0,0,0,0,0,0,0,-1,797,421,0,0
-420,603,0,0,0,0,0,0,0,0,0,-1,804,421,0,0
-413,603,0,0,0,0,0,0,0,0,0,-1,811,421,0,0
-406,603,0,0,0,0,0,0,0,0,0,-1,818,421,0,0
-399,603,0,0,0,0,0,0,0,0,0,-1,825,421,0,0
-392,603,0,0,0,0,0,0,0,0,0,-1,832,421,0,0
-385,603,0,0,0,0,0,0,0,0,0,-1,839,421,0,0
-378,603,0,0,0,0,0,0,0,0,0,-1,846,421,0,0
-371,603,0,0,0,0,0,0,0,0,0,-1,853,421,0,0
-364,603,0,0,0,0,0,0,0,0,0,-1,860,421,0,0
-357,603,0,0,0,0,0,0,0,0,0,-1,867,421,0,0
-350,603,0,0,0,0,0,0,0,0,0,-1,874,421,0,0
-343,603,0,0,0,0,0,0,0,0,0,-1,881,421,0,0
-336,603,0,0,0,0,0,0,0,0,0,-1,888,421,0,0
-329,603,4.6095,-8.85309,0,0,0,0,0,0,0,-1,895,421,4.60952,8.8531
-322,603,0.71051,-13.0377,0,0,0,0,0,0,0,-1,902,421,0.710527,13.0377
-315,603,0.859131,-12.5952,0,0,0,0,0,0,0,-1,909,421,0.85915,12.5952
-308,603,1.1261,-12.3507,0,0,0,0,0,0,0,-1,916,421,1.12607,12.3507
-301,603,1.61816,-10.6029,0,0,0,0,0,0,0,-1,923,421,1.61814,10.6029
-294,603,1.81226,-12.6574,0,0,0,0,0,0,0,-1,930,421,1.81226,12.6574
-287,603,3.80811,-9.60947,0,0,0,0,0,0,0,-1,937,421,3.80809,9.60946
-280,603,2.37079,-10.1415,0,0,0,0,0,0,0,-1,944,421,2.37081,10.1416
-273,603,2.50696,-13.1745,0,0,0,0,0,0,0,-1,951,421,2.50695,13.1745
-266,603,2.41907,-13.6155,0.0213181,-0.00289427,-0.0142567,0.0279152,-0.00949139,-0.433396,0.0224529,0.0459748,958,421,2.41906,13.6155
-259,603,2.37506,-14.0991,0.017889,-0.00553754,-0.0116188,0.0226741,-0.0103227,-0.390675,0.0194905,0.0470051,965,421,2.37505,14.0991
-252,603,2.4444,-14.5369,0.0156151,-0.00759119,-0.0090325,0.0187163,-0.0106924,-0.330732,0.0171885,0.0403052,972,421,2.44437,14.5369
-245,603,2.71185,-14.706,0.0137929,-0.0081688,-0.00659238,0.0156198,-0.0099957,-0.27034,0.0149074,0.0309999,979,421,2.71183,14.706
-238,603,2.7251,-14.8324,0.0113214,-0.00873619,-0.00441593,0.0122506,-0.00966536,-0.207389,0.0126825,0.0211706,986,421,2.7251,14.8324
-231,603,2.64838,-15.1008,0.00891181,-0.00826389,-0.00289508,0.00938666,-0.00873875,-0.162574,0.0104669,0.0143268,993,421,2.6484,15.1008
-224,603,2.61969,-15.3806,0.00670423,-0.00716732,-0.00176543,0.00692539,-0.00738848,-0.124623,0.00826556,0.0135019,1000,421,2.61971,15.3806
-217,603,2.62292,-15.6011,0.00465617,-0.00584231,-0.00100762,0.004752,-0.00593814,-0.0948241,0.00618461,0.0114863,1007,421,2.62292,15.6011
-210,603,2.62659,-15.8355,0.00299061,-0.00495255,-0.000371865,0.00300798,-0.00496992,-0.0466797,0.00465224,0.00970977,1014,421,2.6266,15.8355
-203,603,2.60168,-16.0891,0.00145005,-0.00407512,4.51815e-05,0.00145042,-0.00407549,0.00817666,0.00330821,0.0157529,1021,421,2.60171,16.0891
-196,603,2.60803,-16.3311,0.00016686,-0.00328859,0.000183494,0.000176577,-0.00329831,0.0529044,0.00226003,0.0177148,1028,421,2.60799,16.3311
-189,603,2.59998,-16.4914,-0.000708872,-0.00259747,0.000172886,-0.000693177,-0.00261317,0.0905391,0.00156315,0.0148629,1035,421,2.60003,16.4914
-182,603,2.57983,-16.6942,-0.00134302,-0.00198534,-3.22412e-05,-0.00134141,-0.00198695,-0.0500278,0.00117038,0.0109304,1042,421,2.57982,16.6942
-175,603,2.55054,-16.9019,-0.00149477,-0.00151726,-0.000197731,-0.00130797,-0.00170407,-0.756992,0.00102973,0.0101844,1049,421,2.55051,16.9019
-168,603,2.51807,-17.0722,-0.00106949,-0.00164687,-0.000357658,-0.000898552,-0.00181782,-0.44585,0.00104954,0.0124001,1056,421,2.51807,17.0722
-161,603,2.51074,-17.287,-0.000395179,-0.0015252,-0.000582933,-0.000148372,-0.00177201,-0.400505,0.00113512,0.0131271,1063,421,2.5107,17.2871
-154,603,2.51721,-17.4733,0.000215399,-0.00150652,-0.000652377,0.000434647,-0.00172576,-0.324216,0.00131947,0.0134949,1070,421,2.5172,17.4733
-147,603,2.54272,-17.6309,0.000762979,-0.0016353,-0.000770577,0.000989225,-0.00186155,-0.28558,0.00167138,0.0139366,1077,421,2.54276,17.6309
-140,603,2.55127,-17.8108,0.0014178,-0.00188568,-0.00092613,0.00165973,-0.0021276,-0.25551,0.00219217,0.0111736,1084,421,2.55126,17.8108
-133,603,2.55322,-17.9685,0.00210123,-0.00182884,-0.0010359,0.00235756,-0.00208517,-0.242572,0.00256662,0.0112094,1091,421,2.5532,17.9685
-126,603,2.55786,-18.1126,0.00261872,-0.00185531,-0.00112353,0.00288501,-0.00212161,-0.232722,0.00290175,0.0104599,1098,421,2.55786,18.1126
-119,603,2.56238,-18.2834,0.00308096,-0.00182123,-0.00126264,0.00338706,-0.00212733,-0.23784,0.00321131,0.010582,1105,421,2.56244,18.2835
-112,603,2.55981,-18.4404,0.00353044,-0.0017937,-0.00139889,0.00387561,-0.00213888,-0.241915,0.00352039,0.015449,1112,421,2.55986,18.4404
-105,603,2.57434,-18.6124,0.00388965,-0.00173431,-0.00160619,0.00431604,-0.00216071,-0.259485,0.00380775,0.015358,1119,421,2.57435,18.6124
-98,603,2.57275,-18.7292,0.00421054,-0.00191115,-0.00176011,0.00468052,-0.00238114,-0.260932,0.00414847,0.0125731,1126,421,2.57279,18.7292
-91,603,2.57739,-18.8439,0.00450003,-0.00204787,-0.00200962,0.00506761,-0.00261544,-0.27526,0.00451049,0.0090957,1133,421,2.5774,18.8439
-84,603,2.61841,-18.9769,0.00457636,-0.00186384,-0.00197251,0.00513248,-0.00241996,-0.274802,0.00445316,0.00919331,1140,421,2.61839,18.9769
-77,603,2.64233,-19.1266,0.00478385,-0.00151393,-0.00186962,0.00529706,-0.00202714,-0.267901,0.00436685,0.0136839,1147,421,2.64237,19.1266
-70,603,2.70508,-19.3943,0.00443678,-0.0015353,-0.00129015,0.00470357,-0.00180209,-0.203918,0.00387857,0.0415477,1154,421,2.70514,19.3943
-63,603,2.6521,-19.3195,0,0,0,0,0,0,0,-1,1161,421,2.65204,19.3195
-56,603,2.70911,-19.4315,0,0,0,0,0,0,0,-1,1168,421,2.7091,19.4315
-49,603,2.74695,-19.5193,0,0,0,0,0,0,0,-1,1175,421,2.74696,19.5193
-42,603,2.745,-19.5791,0,0,0,0,0,0,0,-1,1182,421,2.74495,19.5791
-35,603,2.66125,-19.6424,0.00560504,0.0107419,0.0120957,0.0205388,-0.00419195,0.890015,0.0152827,0.0422425,1189,421,2.66129,19.6424
-28,603,2.68018,-19.7108,0.00842664,0.0156774,0.0157337,0.028198,-0.00409394,0.898633,0.0203014,0.0250072,1196,421,2.68012,19.7108
-21,603,2.73254,-19.7771,0.00946296,0.0170405,0.0187329,0.032364,-0.00586051,0.885178,0.0237715,0.0206065,1203,421,2.7325,19.7771
-14,603,2.81128,-19.8272,0.0103814,0.017654,0.0207419,0.0350759,-0.00704054,0.872172,0.0260499,0.0207572,1210,421,2.81132,19.8272
-7,603,2.87109,-19.8862,0.011817,0.0185964,0.0213245,0.0367989,-0.00638546,0.864218,0.0269148,0.0226082,1217,421,2.8711,19.8862
0,603,2.89075,-19.9376,0.0132466,0.0179273,0.0208557,0.0365736,-0.00539963,0.841273,0.0263672,0.0263005,1224,421,2.89073,19.9376
7,603,2.86816,-19.8928,0.0143252,0.0161053,0.0197727,0.035008,-0.00457755,0.80789,0.0250046,0.0321254,1231,421,2.86821,19.8928
14,603,3.02234,-19.8805,0.0154782,0.0127356,0.0181083,0.032267,-0.00405319,0.747606,0.0229819,0.0294814,1238,421,3.02232,19.8805
21,603,3.08337,-19.9356,0.0166685,0.00971716,0.0162458,0.0298063,-0.00342062,0.680015,0.0211037,0.022829,1245,421,3.08334,19.9356
28,603,3.15186,-19.9198,0.0183597,0.00568769,0.0137553,0.0271681,-0.00312075,0.569572,0.0192369,0.0265635,1252,421,3.15184,19.9198
35,603,3.1217,-19.8704,0.0207099,0.00129899,0.0109141,0.0256097,-0.00360081,0.421974,0.0183913,0.0353094,1259,421,3.12171,19.8704
42,603,3.07458,-19.9969,0.0227414,-0.00310654,0.00787557,0.0249519,-0.00531708,0.273643,0.0186612,0.0304139,1266,421,3.0746,19.9969
49,603,3.16699,-20.1066,0.0251229,-0.00740614,0.00469998,0.0257884,-0.0080716,0.140654,0.0204216,0.0166912,1273,421,3.16695,20.1066
56,603,3.16077,-20.0561,0.0274734,-0.0107256,0.000635855,0.027484,-0.0107362,0.0166397,0.0227616,0.0316397,1280,421,3.16073,20.056
63,603,3.10498,-19.8935,0.0299942,-0.014046,-0.00428443,0.0304072,-0.0144589,-0.096084,0.0264433,0.0449634,1287,421,3.10504,19.8934
70,603,3.11414,-19.9412,0.0356115,-0.0110383,-0.00706802,0.0366589,-0.0120856,-0.147115,0.0293105,0.0485828,1294,421,3.11408,19.9412
77,603,3.2511,-20.1687,0,0,0,0,0,0,0,-1,1301,421,3.25116,20.1687
84,603,3.35645,-20.0203,0.0456142,-0.00392032,-0.00937237,0.0473283,-0.00563435,-0.180882,0.0335882,0.0480932,1308,421,3.35646,20.0203
91,603,3.48535,-19.8521,0.0482277,0.000314116,-0.010607,0.0504708,-0.00192901,-0.208406,0.0343083,0.0457363,1315,421,3.4854,19.8521
98,603,3.48438,-19.9078,0.048949,0.00448765,-0.0105918,0.0513433,0.00209336,-0.222315,0.0335529,0.0456951,1322,421,3.48432,19.9078
105,603,3.5426,-19.8645,0.0492453,0.00923873,-0.0100446,0.0516256,0.00685844,-0.232681,0.032374,0.0418641,1329,421,3.54257,19.8645
112,603,3.59375,-19.7802,0.0483945,0.0137198,-0.0085469,0.0503868,0.0117275,-0.229006,0.0304445,0.0330326,1336,421,3.59372,19.7802
119,603,3.54956,-19.7328,0.0461255,0.0177071,-0.00681348,0.0476747,0.016158,-0.223561,0.027997,0.0335408,1343,421,3.54951,19.7328
126,603,3.59937,-19.6532,0.0423131,0.0186115,-0.00517394,0.0433933,0.0175313,-0.205823,0.0252066,0.0398689,1350,421,3.59931,19.6532
133,603,3.61621,-19.6053,0.0369389,0.018048,-0.00368814,0.0376334,0.0173535,-0.186131,0.0217495,0.0369363,1357,421,3.61625,19.6054
140,603,3.60974,-19.5334,0.0310567,0.0161408,-0.00291044,0.0316045,0.0155931,-0.186035,0.0182474,0.0249234,1364,421,3.60977,19.5334
147,603,3.5531,-19.458,0.0254633,0.012554,-0.00281638,0.026051,0.0119663,-0.205715,0.0150571,0.018688,1371,421,3.55306,19.458
154,603,3.49121,-19.3761,0.0198839,0.00863559,-0.00314667,0.0207043,0.00781516,-0.255051,0.0120727,0.0269404,1378,421,3.49118,19.3761
161,603,3.55823,-19.2857,0.0149735,0.00568124,-0.00300794,0.0158622,0.00479255,-0.287274,0.00939404,0.0327548,1385,421,3.55822,19.2857
168,603,3.61938,-19.184,0.0104314,0.00413959,-0.00244876,0.0112721,0.00329888,-0.330713,0.00669189,0.030442,1392,421,3.61944,19.184
175,603,3.79614,-19.0991,0.00207474,-0.000691717,-0.00390087,0.00483036,-0.00344734,-0.615017,0.00480132,0.0307655,1399,421,3.79611,19.0991
182,603,3.86377,-19.0109,-0.00546495,-0.00370043,-0.0075597,0.00302832,-0.0121937,-0.843488,0.00930432,0.03772,1406,421,3.86377,19.0109
189,603,3.83813,-18.8448,-0.00431548,-0.00427463,-0.00563945,0.00134444,-0.00993455,-0.787209,0.00711365,0.0338783,1413,421,3.83816,18.8448
196,603,3.77234,-18.665,-0.00119592,-0.00346105,-0.00373286,0.00157241,-0.00622938,-0.63811,0.00476435,0.0258406,1420,421,3.77231,18.665
203,603,3.75378,-18.5839,0.00172112,-0.00151471,-0.00222448,0.00285384,-0.00264743,-0.470984,0.0031769,0.0148525,1427,421,3.75383,18.5839
210,603,3.7478,-18.5092,0.0027034,-0.000293397,-0.000960814,0.00298499,-0.000574988,-0.285092,0.00220677,0.0115249,1434,421,3.74786,18.5092
217,603,3.76953,-18.3466,0.00202379,0.0016813,-0.000357232,0.0022487,0.00145639,-0.561895,0.00131702,0.0131435,1441,421,3.76959,18.3466
224,603,3.8009,-18.1736,0.00182224,0.00233379,3.68929e-05,0.00233644,0.00181959,1.49917,0.00141712,0.0160749,1448,421,3.80093,18.1736
231,603,3.79126,-18.0025,0.00162751,0.00283193,0.000421947,0.00296504,0.0014944,1.26521,0.00171189,0.0141621,1455,421,3.79124,18.0025
238,603,3.80078,-17.835,0.0015336,0.00317248,0.000675681,0.00341513,0.00129096,1.22603,0.00199119,0.0109885,1462,421,3.80075,17.835
245,603,3.81934,-17.6748,0.00146037,0.00339121,0.000799949,0.00367957,0.00117202,1.22483,0.00217054,0.0117827,1469,421,3.81928,17.6748
252,603,3.84485,-17.4891,0.00136442,0.00352358,0.000896064,0.00384701,0.001041,1.22441,0.00229767,0.0100591,1476,421,3.84486,17.4891
259,603,3.8429,-17.2987,0.00124891,0.003516,0.000991894,0.0038887,0.000876204,1.21137,0.00235536,0.00972753,1483,421,3.84287,17.2987
266,603,3.82739,-17.1082,0.00112015,0.00341297,0.00106362,0.00383038,0.000702735,1.19682,0.00235456,0.0113269,1490,421,3.82743,17.1082
273,603,3.82593,-16.9135,0.00100979,0.00326624,0.00113101,0.00373553,0.000540496,1.17748,0.00233117,0.00996334,1497,421,3.82598,16.9135
280,603,3.82849,-16.7049,0.000980465,0.00306625,0.00130561,0.00369436,0.000352356,1.1224,0.00235426,0.0106623,1504,421,3.82847,16.7049
287,603,3.81958,-16.481,0.00103414,0.00289817,0.00148863,0.00372248,0.000209828,1.06509,0.00241475,0.0104213,1511,421,3.8196,16.481
294,603,3.8103,-16.2712,0.00112025,0.00274404,0.00168057,0.00379855,6.57374e-05,1.01042,0.00251074,0.00945606,1518,421,3.81032,16.2712
301,603,3.82385,-16.0668,0.00118867,0.00251497,0.00193369,0.00389606,-0.000192417,0.950586,0.00266383,0.0117672,1525,421,3.82384,16.0668
308,603,3.83801,-15.8362,0.00130758,0.00231546,0.00224051,0.00410801,-0.000484965,0.896018,0.00291381,0.0169694,1532,421,3.83803,15.8362
315,603,3.8302,-15.6176,0.00143174,0.00220539,0.00253408,0.004382,-0.000744867,0.861138,0.00319866,0.0154427,1539,421,3.83019,15.6176
322,603,3.81897,-15.387,0.00147482,0.00225537,0.00283024,0.00472212,-0.00099193,0.853914,0.00352555,0.014508,1546,421,3.81903,15.387
329,603,3.78406,-15.1328,0.0014522,0.00228657,0.00315599,0.00505282,-0.00131406,0.851111,0.00388144,0.0105001,1553,421,3.78401,15.1328
336,603,3.77185,-14.8959,0.00130837,0.0025666,0.00345242,0.00544675,-0.00157179,0.875521,0.00425304,0.00913826,1560,421,3.7719,14.8959
343,603,3.78479,-14.6575,0.00107561,0.00298588,0.00366452,0.0058177,-0.00175621,0.912884,0.00457757,0.0114898,1567,421,3.78482,14.6575
350,603,3.77563,-14.3996,0.000875839,0.00381497,0.00404413,0.00664826,-0.00195745,0.959671,0.00520874,0.0233542,1574,421,3.7756,14.3996
357,603,3.79578,-14.063,0.000461171,0.0047079,0.00443436,0.00750106,-0.00233199,1.00869,0.00593283,0.0325738,1581,421,3.79581,14.063
364,603,3.76685,-13.7274,-0.000133111,0.00590151,0.00471058,0.00847828,-0.00270988,1.07025,0.00673959,0.038773,1588,421,3.76687,13.7275
371,603,3.73328,-13.4283,-0.00054992,0.00746901,0.00503365,0.00989487,-0.00297578,1.12171,0.00778057,0.0470618,1595,421,3.73334,13.4283
378,603,3.70313,-13.2934,0,0,0,0,0,0,0,-1,1602,421,3.70311,13.2934
385,603,3.48169,-12.8253,0,0,0,0,0,0,0,-1,1609,421,3.48166,12.8253
392,603,3.47888,-12.5801,0,0,0,0,0,0,0,-1,1616,421,3.47883,12.5801
399,603,2.38013,-5.37076,0,0,0,0,0,0,0,-1,1623,421,2.38016,5.37075
406,603,3.01917,-2.37219,0,0,0,0,0,0,0,-1,1630,421,3.01915,2.37219
413,603,2.38928,-2.41275,0,0,0,0,0,0,0,-1,1637,421,2.38926,2.41274
420,603,2.74866,-2.30066,0,0,0,0,0,0,0,-1,1644,421,2.74867,2.30065
427,603,7.11548,-3.35352,0,0,0,0,0,0,0,-1,1651,421,7.11549,3.35351
434,603,7.32153,-4.50525,0,0,0,0,0,0,0,-1,1658,421,7.32149,4.50525
441,603,3.18213,-0.250946,0,0,0,0,0,0,0,-1,1665,421,3.18212,0.250944
448,603,2.95667,-0.066925,0,0,0,0,0,0,0,-1,1672,421,2.95662,0.0669226
455,603,0,0,0,0,0,0,0,0,0,-1,1679,421,0,0
462,603,0,0,0,0,0,0,0,0,0,-1,1686,421,0,0
469,603,0,0,0,0,0,0,0,0,0,-1,1693,421,0,0
476,603,0,0,0,0,0,0,0,0,0,-1,1700,421,0,0
483,603,0,0,0,0,0,0,0,0,0,-1,1707,421,0,0
490,603,0,0,0,0,0,0,0,0,0,-1,1714,421,0,0
497,603,0,0,0,0,0,0,0,0,0,-1,1721,421,0,0
504,603,0,0,0,0,0,0,0,0,0,-1,1728,421,0,0
511,603,0,0,0,0,0,0,0,0,0,-1,1735,421,0,0
518,603,0,0,0,0,0,0,0,0,0,-1,1742,421,0,0
525,603,0,0,0,0,0,0,0,0,0,-1,1749,421,0,0
532,603,0,0,0,0,0,0,0,0,0,-1,1756,421,0,0
539,603,0,0,0,0,0,0,0,0,0,-1,1763,421,0,0
546,603,0,0,0,0,0,0,0,0,0,-1,1770,421,0,0
553,603,0,0,0,0,0,0,0,0,0,-1,1777,421,0,0
560,603,0,0,0,0,0,0,0,0,0,-1,1784,421,0,0
567,603,0,0,0,0,0,0,0,0,0,-1,1791,421,0,0
574,603,0,0,0,0,0,0,0,0,0,-1,1798,421,0,0
581,603,0,0,0,0,0,0,0,0,0,-1,1805,421,0,0
588,603,0,0,0,0,0,0,0,0,0,-1,1812,421,0,0
595,603,0,0,0,0,0,0,0,0,0,-1,1819,421,0,0
602,603,0,0,0,0,0,0,0,0,0,-1,1826,421,0,0
609,603,0,0,0,0,0,0,0,0,0,-1,1833,421,0,0
616,603,0,0,0,0,0,0,0,0,0,-1,1840,421,0,0
623,603,0,0,0,0,0,0,0,0,0,-1,1847,421,0,0
630,603,0,0,0,0,0,0,0,0,0,-1,1854,421,0,0
637,603,0,0,0,0,0,0,0,0,0,-1,1861,421,0,0
644,603,0,0,0,0,0,0,0,0,0,-1,1868,421,0,0
651,603,0,0,0,0,0,0,0,0,0,-1,1875,421,0,0
658,603,0,0,0,0,0,0,0,0,0,-1,1882,421,0,0
665,603,0,0,0,0,0,0,0,0,0,-1,1889,421,0,0
672,603,0,0,0,0,0,0,0,0,0,-1,1896,421,0,0
679,603,0,0,0,0,0,0,0,0,0,-1,1903,421,0,0
686,603,0,0,0,0,0,0,0,0,0,-1,1910,421,0,0
693,603,0,0,0,0,0,0,0,0,0,-1,1917,421,0,0
700,603,0,0,0,0,0,0,0,0,0,-1,1924,421,0,0
707,603,0,0,0,0,0,0,0,0,0,-1,1931,421,0,0
714,603,0,0,0,0,0,0,0,0,0,-1,1938,421,0,0
721,603,0,0,0,0,0,0,0,0,0,-1,1945,421,0,0
728,603,0,0,0,0,0,0,0,0,0,-1,1952,421,0,0
735,603,0,0,0,0,0,0,0,0,0,-1,1959,421,0,0
742,603,0,0,0,0,0,0,0,0,0,-1,1966,421,0,0
749,603,0,0,0,0,0,0,0,0,0,-1,1973,421,0,0
756,603,0,0,0,0,0,0,0,0,0,-1,1980,421,0,0
763,603,0,0,0,0,0,0,0,0,0,-1,1987,421,0,0
770,603,0,0,0,0,0,0,0,0,0,-1,1994,421,0,0
777,603,0,0,0,0,0,0,0,0,0,-1,2001,421,0,0
784,603,0,0,0,0,0,0,0,0,0,-1,2008,421,0,0
791,603,0,0,0,0,0,0,0,0,0,-1,2015,421,0,0
798,603,0,0,0,0,0,0,0,0,0,-1,2022,421,0,0
805,603,0,0,0,0,0,0,0,0,0,-1,2029,421,0,0
812,603,0,0,0,0,0,0,0,0,0,-1,2036,421,0,0
-700,596,0,0,0,0,0,0,0,0,0,-1,524,428,0,0
-693,596,0,0,0,0,0,0,0,0,0,-1,531,428,0,0
-686,596,0,0,0,0,0,0,0,0,0,-1,538,428,0,0
-679,596,0,0,0,0,0,0,0,0,0,-1,545,428,0,0
-672,596,0,0,0,0,0,0,0,0,0,-1,552,428,0,0
-665,596,0,0,0,0,0,0,0,0,0,-1,559,428,0,0
-658,596,0,0,0,0,0,0,0,0,0,-1,566,428,0,0
-651,596,0,0,0,0,0,0,0,0,0,-1,573,428,0,0
-644,596,0,0,0,0,0,0,0,0,0,-1,580,428,0,0
-637,596,0,0,0,0,0,0,0,0,0,-1,587,428,0,0
-630,596,0,0,0,0,0,0,0,0,0,-1,594,428,0,0
-623,596,0,0,0,0,0,0,0,0,0,-1,601,428,0,0
-616,596,0,0,0,0,0,0,0,0,0,-1,608,428,0,0
-609,596,0,0,0,0,0,0,0,0,0,-1,615,428,0,0
-602,596,0,0,0,0,0,0,0,0,0,-1,622,428,0,0
-595,596,0,0,0,0,0,0,0,0,0,-1,629,428,0,0
-588,596,0,0,0,0,0,0,0,0,0,-1,636,428,0,0
-581,596,0,0,0,0,0,0,0,0,0,-1,643,428,0,0
-574,596,0,0,0,0,0,0,0,0,0,-1,650,428,0,0
-567,596,0,0,0,0,0,0,0,0,0,-1,657,428,0,0
-560,596,0,0,0,0,0,0,0,0,0,-1,664,428,0,0
-553,596,0,0,0,0,0,0,0,0,0,-1,671,428,0,0
-546,596,0,0,0,0,0,0,0,0,0,-1,678,428,0,0
-539,596,0,0,0,0,0,0,0,0,0,-1,685,428,0,0
-532,596,0,0,0,0,0,0,0,0,0,-1,692,428,0,0
-525,596,0,0,0,0,0,0,0,0,0,-1,699,428,0,0
-518,596,0,0,0,0,0,0,0,0,0,-1,706,428,0,0
-511,596,0,0,0,0,0,0,0,0,0,-1,713,428,0,0
-504,596,0,0,0,0,0,0,0,0,0,-1,720,428,0,0
-497,596,0,0,0,0,0,0,0,0,0,-1,727,428,0,0
-490,596,0,0,0,0,0,0,0,0,0,-1,734,428,0,0
-483,596,0,0,0,0,0,0,0,0,0,-1,741,428,0,0
-476,596,0,0,0,0,0,0,0,0,0,-1,748,428,0,0
-469,596,0,0,0,0,0,0,0,0,0,-1,755,428,0,0
-462,596,0,0,0,0,0,0,0,0,0,-1,762,428,0,0
-455,596,0,0,0,0,0,0,0,0,0,-1,769,428,0,0
-448,596,0,0,0,0,0,0,0,0,0,-1,776,428,0,0
-441,596,0,0,0,0,0,0,0,0,0,-1,783,428,0,0
-434,596,0,0,0,0,0,0,0,0,0,-1,790,428,0,0
-427,596,0,0,0,0,0,0,0,0,0,-1,797,428,0,0
-420,596,0,0,0,0,0,0,0,0,0,-1,804,428,0,0
-413,596,0,0,0,0,0,0,0,0,0,-1,811,428,0,0
-406,596,0,0,0,0,0,0,0,0,0,-1,818,428,0,0
-399,596,0,0,0,0,0,0,0,0,0,-1,825,428,0,0
-392,596,0,0,0,0,0,0,0,0,0,-1,832,428,0,0
-385,596,0,0,0,0,0,0,0,0,0,-1,839,428,0,0
-378,596,0,0,0,0,0,0,0,0,0,-1,846,428,0,0
-371,596,0,0,0,0,0,0,0,0,0,-1,853,428,0,0
-364,596,0,0,0,0,0,0,0,0,0,-1,860,428,0,0
-357,596,0,0,0,0,0,0,0,0,0,-1,867,428,0,0
-350,596,0,0,0,0,0,0,0,0,0,-1,874,428,0,0
-343,596,0,0,0,0,0,0,0,0,0,-1,881,428,0,0
-336,596,-2.27789,-15.8111,0,0,0,0,0,0,0,-1,888,428,-2.27789,15.8111
-329,596,-0.936462,-13.5532,0,0,0,0,0,0,0,-1,895,428,-0.936434,13.5532
-322,596,-0.406311,-12.5136,0,0,0,0,0,0,0,-1,902,428,-0.406284,12.5136
-315,596,3.67957,-9.47427,0,0,0,0,0,0,0,-1,909,428,3.67957,9.47429
-308,596,1.21112,-9.53857,0,0,0,0,0,0,0,-1,916,428,1.2111,9.53857
-301,596,1.90051,-11.9816,0,0,0,0,0,0,0,-1,923,428,1.90052,11.9816
-294,596,2.09418,-11.9895,0,0,0,0,0,0,0,-1,930,428,2.09417,11.9895
-287,596,2.29822,-12.5561,0,0,0,0,0,0,0,-1,937,428,2.29821,12.5561
-280,596,2.30249,-13.0783,0,0,0,0,0,0,0,-1,944,428,2.30252,13.0783
-273,596,2.32593,-13.3702,0,0,0,0,0,0,0,-1,951,428,2.32592,13.3702
-266,596,2.32782,-13.6653,0.0150646,0.000376095,-0.0115875,0.0214393,-0.00599858,-0.502945,0.0166564,0.0400562,958,428,2.32779,13.6652
-259,596,2.30328,-13.9868,0.0124111,-0.00175737,-0.00952759,0.0171996,-0.00654584,-0.465718,0.0141619,0.0326222,965,428,2.30326,13.9868
-252,596,2.41791,-14.3914,0.010707,-0.00356826,-0.00753629,0.0139492,-0.00681049,-0.40628,0.0122196,0.0162684,972,428,2.41794,14.3914
-245,596,2.45166,-14.6656,0.00948301,-0.00426502,-0.00565008,0.0115071,-0.00628907,-0.343991,0.0104208,0.0125482,979,428,2.45167,14.6657
-238,596,2.45062,-14.9014,0.00784789,-0.0050639,-0.00387705,0.0089226,-0.00613862,-0.27041,0.00874498,0.0117852,986,428,2.45063,14.9014
-231,596,2.40405,-15.1628,0.00624173,-0.00508687,-0.00256143,0.00679395,-0.00563909,-0.212344,0.00718854,0.0130549,993,428,2.40408,15.1628
-224,596,2.39484,-15.4092,0.00473599,-0.00458338,-0.00155811,0.00498959,-0.00483698,-0.161346,0.0056736,0.0130994,1000,428,2.39481,15.4092
-217,596,2.40247,-15.6201,0.00333383,-0.00391385,-0.00082057,0.00342557,-0.00400559,-0.111341,0.00429474,0.0135176,1007,428,2.40246,15.6201
-210,596,2.40436,-15.8533,0.0021919,-0.00349534,-0.00015705,0.00219623,-0.00349967,-0.0275864,0.00331711,0.011072,1014,428,2.40434,15.8533
-203,596,2.40002,-16.0959,0.00114588,-0.00285111,0.000280382,0.00116545,-0.00287069,0.0696933,0.00239859,0.0134808,1021,428,2.40005,16.0959
-196,596,2.39856,-16.3034,0.000283724,-0.00214778,0.000503394,0.00038382,-0.00224788,0.196284,0.00164155,0.0142785,1028,428,2.39861,16.3034
-189,596,2.38232,-16.4848,-0.00023773,-0.00153103,0.000532984,-4.63901e-05,-0.00172238,0.344668,0.0011331,0.0119533,1035,428,2.38237,16.4848
-182,596,2.36145,-16.6841,-0.000557869,-0.000924243,0.000415188,-0.000287252,-0.00119486,0.577636,0.000720179,0.0112377,1042,428,2.36149,16.6841
-175,596,2.34741,-16.8981,-0.000483639,-0.000471866,0.000307557,-0.000170139,-0.000785366,0.794967,0.000477086,0.0126674,1049,428,2.34742,16.8981
-168,596,2.34192,-17.1097,-8.20157e-06,-0.000476917,0.000155405,3.86422e-05,-0.000523761,0.292768,0.000362741,0.0147245,1056,428,2.34197,17.1097
-161,596,2.34924,-17.3044,0.000658195,-0.000407992,-0.000111438,0.000669718,-0.000419515,-0.103037,0.000634375,0.0147243,1063,428,2.34929,17.3044
-154,596,2.34534,-17.4806,0.00130812,-0.00042989,-0.000247343,0.00134264,-0.000464404,-0.138647,0.00108359,0.0137808,1070,428,2.34529,17.4806
-147,596,2.36511,-17.6262,0.00195686,-0.000661679,-0.000417648,0.00202186,-0.000726679,-0.154395,0.00164455,0.0139837,1077,428,2.36511,17.6262
-140,596,2.38342,-17.7823,0.00268152,-0.00108984,-0.000660814,0.00279396,-0.00120228,-0.168532,0.00236744,0.0130825,1084,428,2.38348,17.7822
-133,596,2.37451,-17.9541,0.00338825,-0.0013323,-0.000908661,0.00355712,-0.00150117,-0.183746,0.00299973,0.0127077,1091,428,2.37452,17.9541
-126,596,2.38928,-18.1083,0.00395257,-0.00181793,-0.00112582,0.00416443,-0.00202979,-0.186015,0.00364634,0.0108017,1098,428,2.38929,18.1083
-119,596,2.40674,-18.2843,0.00449353,-0.00226404,-0.00137598,0.00476297,-0.00253347,-0.193367,0.00427765,0.0141095,1105,428,2.40677,18.2843
-112,596,2.39502,-18.4301,0.00504074,-0.00268484,-0.00163619,0.00537298,-0.00301708,-0.200333,0.00490724,0.0163343,1112,428,2.39497,18.4301
-105,596,2.43518,-18.5927,0.00549159,-0.00303916,-0.00198387,0.00593038,-0.00347795,-0.217675,0.00549307,0.0166197,1119,428,2.43519,18.5927
-98,596,2.46082,-18.711,0.00594374,-0.00355542,-0.00224132,0.00644602,-0.0040577,-0.220458,0.00611636,0.0106368,1126,428,2.46078,18.711
-91,596,2.47034,-18.8652,0.00635536,-0.00384295,-0.0026851,0.00701912,-0.00450671,-0.242341,0.00670693,0.0119863,1133,428,2.47038,18.8652
-84,596,2.57751,-19.1458,0.00634705,-0.00357795,-0.0026668,0.00701822,-0.00424912,-0.246555,0.00657036,0.0306166,1140,428,2.57756,19.1458
-77,596,2.66956,-19.4569,0,0,0,0,0,0,0,-1,1147,428,2.6696,19.457
-70,596,2.62158,-19.6919,0,0,0,0,0,0,0,-1,1154,428,2.62162,19.6919
-63,596,1.95569,-12.2758,0,0,0,0,0,0,0,-1,1161,428,1.95563,12.2759
-56,596,1.60107,-10.5827,0,0,0,0,0,0,0,-1,1168,428,1.60108,10.5827
-49,596,1.59473,-10.0393,0,0,0,0,0,0,0,-1,1175,428,1.59472,10.0393
-42,596,1.99585,-6.6246,0,0,0,0,0,0,0,-1,1182,428,1.99586,6.62459
-35,596,2.35547,-19.4845,0,0,0,0,0,0,0,-1,1189,428,2.35545,19.4845
-28,596,2.51221,-19.6097,0,0,0,0,0,0,0,-1,1196,428,2.51221,19.6097
-21,596,2.44531,-19.5187,0.013813,0.0314123,0.0324386,0.0562236,-0.0109983,0.917846,0.0416356,0.046364,1203,428,2.44535,19.5187
-14,596,2.24512,-19.5638,0.0149015,0.0315616,0.0348701,0.0590828,-0.0126197,0.902644,0.0441998,0.0429098,1210,428,2.24512,19.5638
-7,596,2.82056,-19.8134,0,0,0,0,0,0,0,-1,1217,428,2.82054,19.8134
0,596,2.85474,-19.8658,0,0,0,0,0,0,0,-1,1224,428,2.85476,19.8658
7,596,2.57654,-19.4108,0.0197407,0.0275735,0.0319463,0.0558426,-0.00852841,0.846391,0.0403726,0.046434,1231,428,2.57659,19.4108
14,596,3.14197,-19.6667,0.0210873,0.0223968,0.0291128,0.0508622,-0.00737815,0.796641,0.0366161,0.0456328,1238,428,3.14198,19.6667
21,596,3.21167,-19.6919,0.0225173,0.0175864,0.0261021,0.0462701,-0.00616641,0.73831,0.0330943,0.0465694,1245,428,3.21173,19.6919
28,596,3.28027,-19.6212,0.0246934,0.0113847,0.0221435,0.0411608,-0.0050827,0.639435,0.0292822,0.0457011,1252,428,3.28032,19.6212
35,596,3.18091,-19.6339,0.0278353,0.00476644,0.0177355,0.0374572,-0.00485544,0.497084,0.0267373,0.0445011,1259,428,3.1809,19.6339
42,596,3.16711,-19.9137,0.0306612,-0.00179805,0.0130922,0.0352836,-0.00642045,0.339402,0.0259289,0.0445366,1266,428,3.16707,19.9137
49,596,3.2002,-20.0083,0.0340487,-0.00815771,0.00820799,0.0355888,-0.00969774,0.18547,0.0275337,0.044728,1273,428,3.20022,20.0083
56,596,3.19324,-19.9283,0.0372999,-0.0128388,0.00226335,0.0374019,-0.0129407,0.0450197,0.0301874,0.0453479,1280,428,3.19319,19.9283
63,596,2.90198,-19.6677,0.0406552,-0.017417,-0.00460822,0.0410186,-0.0177804,-0.0786969,0.0348202,0.0469764,1287,428,2.902,19.6677
70,596,3.08496,-20.0724,0.0481762,-0.015216,-0.00830978,0.0492474,-0.0162872,-0.1282,0.0393993,0.048183,1294,428,3.08497,20.0725
77,596,3.50513,-20.4129,0,0,0,0,0,0,0,-1,1301,428,3.50514,20.4129
84,596,3.43604,-19.918,0,0,0,0,0,0,0,-1,1308,428,3.43606,19.918
91,596,3.59521,-19.6771,0,0,0,0,0,0,0,-1,1315,428,3.59524,19.6771
98,596,3.58093,-19.8058,0,0,0,0,0,0,0,-1,1322,428,3.58091,19.8057
105,596,3.43542,-19.7243,0.0667134,0.00476007,-0.0123462,0.0690831,0.00239033,-0.189634,0.0452797,0.0472383,1329,428,3.43548,19.7243
112,596,3.52502,-19.6046,0.0659792,0.0100151,-0.0103605,0.0678356,0.00815864,-0.177302,0.0427644,0.0441061,1336,428,3.52501,19.6046
119,596,4.1886,-19.2856,0.0633762,0.0147356,-0.00807978,0.0646833,0.0134286,-0.160376,0.039416,0.0458364,1343,428,4.1886,19.2856
126,596,4.07336,-19.451,0.0586056,0.0158646,-0.00598591,0.0594281,0.0150421,-0.136551,0.0356778,0.0492192,1350,428,4.07334,19.451
133,596,4.05334,-19.4975,0.0517448,0.0154295,-0.00416101,0.0522154,0.0149588,-0.112635,0.0310493,0.0476589,1357,428,4.05339,19.4975
140,596,3.8623,-19.2178,0.0440216,0.0133539,-0.00336993,0.0443875,0.012988,-0.108166,0.0263518,0.0465051,1364,428,3.86232,19.2178
147,596,3.47192,-19.0951,0.0363996,0.00940067,-0.00352349,0.0368519,0.00894841,-0.127657,0.0221948,0.0410714,1371,428,3.47197,19.0951
154,596,3.43115,-19.106,0.0288117,0.00530036,-0.00423799,0.0295522,0.00455977,-0.173002,0.0183712,0.0457841,1378,428,3.43121,19.106
161,596,3.53149,-19.0154,0.0221244,0.00244599,-0.00442165,0.0230723,0.00149813,-0.211174,0.0149073,0.0487971,1385,428,3.53152,19.0154
168,596,3.82935,-18.9771,0,0,0,0,0,0,0,-1,1392,428,3.8293,18.977
175,596,4.0376,-18.8666,0,0,0,0,0,0,0,-1,1399,428,4.03764,18.8666
182,596,4.10986,-18.9368,0,0,0,0,0,0,0,-1,1406,428,4.10983,18.9368
189,596,4.04004,-18.8091,0,0,0,0,0,0,0,-1,1413,428,4.04007,18.809
196,596,3.97009,-18.4959,0,0,0,0,0,0,0,-1,1420,428,3.97009,18.4959
203,596,3.86462,-18.5551,0,0,0,0,0,0,0,-1,1427,428,3.86458,18.5551
210,596,3.8595,-18.5463,0,0,0,0,0,0,0,-1,1434,428,3.85944,18.5463
217,596,3.86133,-18.3987,0.00276059,0.00182269,-0.000620031,0.00306904,0.00151423,-0.461627,0.00177196,0.0321888,1441,428,3.8613,18.3987
224,596,3.92639,-18.234,0.00249471,0.00263611,-0.000126827,0.00271061,0.00242021,-1.03968,0.00171847,0.0139858,1448,428,3.92641,18.234
231,596,3.99475,-18.0191,0.00224104,0.00324478,0.000336245,0.00334701,0.00213881,1.27565,0.00195714,0.0122733,1455,428,3.99474,18.0191
238,596,3.9834,-17.8291,0.00210967,0.00360053,0.000584304,0.00380224,0.00190796,1.23839,0.00219523,0.0143142,1462,428,3.98341,17.8291
245,596,4.00049,-17.6656,0.00200898,0.00376641,0.000665776,0.00399015,0.00178524,1.2466,0.00230796,0.0126083,1469,428,4.00046,17.6656
252,596,4.03418,-17.4812,0.00185563,0.0037708,0.000703406,0.00400138,0.00162504,1.25402,0.00232373,0.00955939,1476,428,4.03424,17.4812
259,596,4.02234,-17.2956,0.00168072,0.00356559,0.000721281,0.00380993,0.00143638,1.24417,0.00222173,0.00825977,1483,428,4.02232,17.2956
266,596,4.00061,-17.1021,0.00151598,0.00329344,0.000705859,0.00353965,0.00126977,1.23519,0.00207063,0.00967891,1490,428,4.00057,17.1021
273,596,4.01599,-16.9065,0.0013259,0.00301913,0.000688256,0.00326359,0.00108144,1.2295,0.00191962,0.010866,1497,428,4.01599,16.9065
280,596,4.04761,-16.7213,0.00115579,0.00268022,0.000745675,0.00298431,0.000851698,1.18358,0.00177511,0.011123,1504,428,4.04763,16.7213
287,596,4.04614,-16.5085,0.00114874,0.00242665,0.000801071,0.00281238,0.000763009,1.12204,0.00167939,0.0104675,1511,428,4.04611,16.5085
294,596,4.01929,-16.2897,0.00114161,0.00219838,0.000887612,0.00270297,0.000637014,1.05387,0.00163163,0.00852347,1518,428,4.0193,16.2897
301,596,4.00916,-16.068,0.00106589,0.00189355,0.00104813,0.00260659,0.00035285,0.973416,0.00163287,0.0100299,1525,428,4.00912,16.068
308,596,4.03345,-15.833,0.00108269,0.00171033,0.00128761,0.00272181,7.12111e-05,0.90493,0.00179127,0.0161772,1532,428,4.03348,15.833
315,596,4.03479,-15.6125,0.00113655,0.0016387,0.00152725,0.00293537,-0.000160122,0.866869,0.00201241,0.0160148,1539,428,4.03477,15.6125
322,596,4.03015,-15.3656,0.00110675,0.001705,0.00178544,0.0032162,-0.00040444,0.868395,0.00229088,0.0127509,1546,428,4.03019,15.3656
329,596,4.01245,-15.1334,0.00102577,0.00177877,0.0020866,0.00352257,-0.000718027,0.874657,0.00262072,0.0095326,1553,428,4.01247,15.1334
336,596,3.99426,-14.9214,0.00086919,0.00205648,0.00237986,0.00391562,-0.000989953,0.907626,0.00299543,0.00862194,1560,428,3.99429,14.9214
343,596,4.01343,-14.6848,0.000654945,0.00245583,0.00262302,0.00432866,-0.00121788,0.950738,0.00336599,0.0107949,1567,428,4.0134,14.6848
350,596,4.02234,-14.4095,0.000472389,0.00317371,0.00299808,0.00511133,-0.00146523,0.997036,0.00398674,0.0117295,1574,428,4.02233,14.4095
357,596,4.00549,-14.1137,0.000127631,0.00393508,0.00337568,0.00590684,-0.00184413,1.04214,0.00467545,0.00974303,1581,428,4.00547,14.1137
364,596,3.98572,-13.833,-0.000360278,0.00495354,0.00365568,0.00681583,-0.00222257,1.09964,0.0054383,0.0115507,1588,428,3.98567,13.833
371,596,3.97595,-13.5766,-0.000724833,0.00615343,0.0039572,0.00795711,-0.00252851,1.14313,0.00631853,0.0141561,1595,428,3.976,13.5766
378,596,3.95264,-13.3498,-0.00140602,0.00753414,0.0041843,0.00918697,-0.00305885,1.1946,0.0073593,0.0179391,1602,428,3.95262,13.3498
385,596,3.87964,-12.9648,-0.00266048,0.00870679,0.00386807,0.00989815,-0.00385185,1.27202,0.00819041,0.0271479,1609,428,3.87959,12.9648
392,596,3.84949,-12.6198,-0.00350765,0.0096696,0.00365102,0.0106136,-0.00445162,1.31779,0.00893713,0.0380623,1616,428,3.84943,12.6198
399,596,3.77856,-12.4153,0,0,0,0,0,0,0,-1,1623,428,3.77861,12.4153
406,596,3.60034,-10.1525,0,0,0,0,0,0,0,-1,1630,428,3.60028,10.1525
413,596,3.39124,-2.63528,0,0,0,0,0,0,0,-1,1637,428,3.39122,2.6353
420,596,2.6344,-3.06308,0,0,0,0,0,0,0,-1,1644,428,2.63439,3.06308
427,596,2.99329,-1.90512,0,0,0,0,0,0,0,-1,1651,428,2.99327,1.90512
434,596,3.80896,-0.253998,0,0,0,0,0,0,0,-1,1658,428,3.80902,0.254004
441,596,3.86401,-0.131622,0,0,0,0,0,0,0,-1,1665,428,3.86406,0.131613
448,596,1.0769,0.0083313,0,0,0,0,0,0,0,-1,1672,428,1.07684,-0.00832231
455,596,2.00769,-1.43329,0,0,0,0,0,0,0,-1,1679,428,2.00765,1.4333
462,596,0,0,0,0,0,0,0,0,0,-1,1686,428,0,0
469,596,0,0,0,0,0,0,0,0,0,-1,1693,428,0,0
476,596,0,0,0,0,0,0,0,0,0,-1,1700,428,0,0
483,596,0,0,0,0,0,0,0,0,0,-1,1707,428,0,0
490,596,0,0,0,0,0,0,0,0,0,-1,1714,428,0,0
497,596,0,0,0,0,0,0,0,0,0,-1,1721,428,0,0
504,596,0,0,0,0,0,0,0,0,0,-1,1728,428,0,0
511,596,0,0,0,0,0,0,0,0,0,-1,1735,428,0,0
518,596,0,0,0,0,0,0,0,0,0,-1,1742,428,0,0
525,596,0,0,0,0,0,0,0,0,0,-1,1749,428,0,0
532,596,0,0,0,0,0,0,0,0,0,-1,1756,428,0,0
539,596,0,0,0,0,0,0,0,0,0,-1,1763,428,0,0
546,596,0,0,0,0,0,0,0,0,0,-1,1770,428,0,0
553,596,0,0,0,0,0,0,0,0,0,-1,1777,428,0,0
560,596,0,0,0,0,0,0,0,0,0,-1,1784,428,0,0
567,596,0,0,0,0,0,0,0,0,0,-1,1791,428,0,0
574,596,0,0,0,0,0,0,0,0,0,-1,1798,428,0,0
581,596,0,0,0,0,0,0,0,0,0,-1,1805,428,0,0
588,596,0,0,0,0,0,0,0,0,0,-1,1812,428,0,0
595,596,0,0,0,0,0,0,0,0,0,-1,1819,428,0,0
602,596,0,0,0,0,0,0,0,0,0,-1,1826,428,0,0
609,596,0,0,0,0,0,0,0,0,0,-1,1833,428,0,0
616,596,0,0,0,0,0,0,0,0,0,-1,1840,428,0,0
623,596,0,0,0,0,0,0,0,0,0,-1,1847,428,0,0
630,596,0,0,0,0,0,0,0,0,0,-1,1854,428,0,0
637,596,0,0,0,0,0,0,0,0,0,-1,1861,428,0,0
644,596,0,0,0,0,0,0,0,0,0,-1,1868,428,0,0
651,596,0,0,0,0,0,0,0,0,0,-1,1875,428,0,0
658,596,0,0,0,0,0,0,0,0,0,-1,1882,428,0,0
665,596,0,0,0,0,0,0,0,0,0,-1,1889,428,0,0
672,596,0,0,0,0,0,0,0,0,0,-1,1896,428,0,0
679,596,0,0,0,0,0,0,0,0,0,-1,1903,428,0,0
686,596,0,0,0,0,0,0,0,0,0,-1,1910,428,0,0
693,596,0,0,0,0,0,0,0,0,0,-1,1917,428,0,0
700,596,0,0,0,0,0,0,0,0,0,-1,1924,428,0,0
707,596,0,0,0,0,0,0,0,0,0,-1,1931,428,0,0
714,596,0,0,0,0,0,0,0,0,0,-1,1938,428,0,0
721,596,0,0,0,0,0,0,0,0,0,-1,1945,428,0,0
728,596,0,0,0,0,0,0,0,0,0,-1,1952,428,0,0
735,596,0,0,0,0,0,0,0,0,0,-1,1959,428,0,0
742,596,0,0,0,0,0,0,0,0,0,-1,1966,428,0,0
749,596,0,0,0,0,0,0,0,0,0,-1,1973,428,0,0
756,596,0,0,0,0,0,0,0,0,0,-1,1980,428,0,0
763,596,0,0,0,0,0,0,0,0,0,-1,1987,428,0,0
770,596,0,0,0,0,0,0,0,0,0,-1,1994,428,0,0
777,596,0,0,0,0,0,0,0,0,0,-1,2001,428,0,0
784,596,0,0,0,0,0,0,0,0,0,-1,2008,428,0,0
791,596,0,0,0,0,0,0,0,0,0,-1,2015,428,0,0
798,596,0,0,0,0,0,0,0,0,0,-1,2022,428,0,0
805,596,0,0,0,0,0,0,0,0,0,-1,2029,428,0,0
812,596,0,0,0,0,0,0,0,0,0,-1,2036,428,0,0
-700,589,0,0,0,0,0,0,0,0,0,-1,524,435,0,0
-693,589,0,0,0,0,0,0,0,0,0,-1,531,435,0,0
-686,589,0,0,0,0,0,0,0,0,0,-1,538,435,0,0
-679,589,0,0,0,0,0,0,0,0,0,-1,545,435,0,0
-672,589,0,0,0,0,0,0,0,0,0,-1,552,435,0,0
-665,589,0,0,0,0,0,0,0,0,0,-1,559,435,0,0
-658,589,0,0,0,0,0,0,0,0,0,-1,566,435,0,0
-651,589,0,0,0,0,0,0,0,0,0,-1,573,435,0,0
-644,589,0,0,0,0,0,0,0,0,0,-1,580,435,0,0
-637,589,0,0,0,0,0,0,0,0,0,-1,587,435,0,0
-630,589,0,0,0,0,0,0,0,0,0,-1,594,435,0,0
-623,589,0,0,0,0,0,0,0,0,0,-1,601,435,0,0
-616,589,0,0,0,0,0,0,0,0,0,-1,608,435,0,0
-609,589,0,0,0,0,0,0,0,0,0,-1,615,435,0,0
-602,589,0,0,0,0,0,0,0,0,0,-1,622,435,0,0
-595,589,0,0,0,0,0,0,0,0,0,-1,629,435,0,0
-588,589,0,0,0,0,0,0,0,0,0,-1,636,435,0,0
-581,589,0,0,0,0,0,0,0,0,0,-1,643,435,0,0
-574,589,0,0,0,0,0,0,0,0,0,-1,650,435,0,0
-567,589,0,0,0,0,0,0,0,0,0,-1,657,435,0,0
-560,589,0,0,0,0,0,0,0,0,0,-1,664,435,0,0
-553,589,0,0,0,0,0,0,0,0,0,-1,671,435,0,0
-546,589,0,0,0,0,0,0,0,0,0,-1,678,435,0,0
-539,589,0,0,0,0,0,0,0,0,0,-1,685,435,0,0
-532,589,0,0,0,0,0,0,0,0,0,-1,692,435,0,0
-525,589,0,0,0,0,0,0,0,0,0,-1,699,435,0,0
-518,589,0,0,0,0,0,0,0,0,0,-1,706,435,0,0
-511,589,0,0,0,0,0,0,0,0,0,-1,713,435,0,0
-504,589,0,0,0,0,0,0,0,0,0,-1,720,435,0,0
-497,589,0,0,0,0,0,0,0,0,0,-1,727,435,0,0
-490,589,0,0,0,0,0,0,0,0,0,-1,734,435,0,0
-483,589,0,0,0,0,0,0,0,0,0,-1,741,435,0,0
-476,589,0,0,0,0,0,0,0,0,0,-1,748,435,0,0
-469,589,0,0,0,0,0,0,0,0,0,-1,755,435,0,0
-462,589,0,0,0,0,0,0,0,0,0,-1,762,435,0,0
-455,589,0,0,0,0,0,0,0,0,0,-1,769,435,0,0
-448,589,0,0,0,0,0,0,0,0,0,-1,776,435,0,0
-441,589,0,0,0,0,0,0,0,0,0,-1,783,435,0,0
-434,589,0,0,0,0,0,0,0,0,0,-1,790,435,0,0
-427,589,0,0,0,0,0,0,0,0,0,-1,797,435,0,0
-420,589,0,0,0,0,0,0,0,0,0,-1,804,435,0,0
-413,589,0,0,0,0,0,0,0,0,0,-1,811,435,0,0
-406,589,0,0,0,0,0,0,0,0,0,-1,818,435,0,0
-399,589,0,0,0,0,0,0,0,0,0,-1,825,435,0,0
-392,589,0,0,0,0,0,0,0,0,0,-1,832,435,0,0
-385,589,0,0,0,0,0,0,0,0,0,-1,839,435,0,0
-378,589,0,0,0,0,0,0,0,0,0,-1,846,435,0,0
-371,589,0,0,0,0,0,0,0,0,0,-1,853,435,0,0
-364,589,0,0,0,0,0,0,0,0,0,-1,860,435,0,0
-357,589,0,0,0,0,0,0,0,0,0,-1,867,435,0,0
-350,589,-5.74323,-18.0391,0,0,0,0,0,0,0,-1,874,435,-5.74325,18.0391
-343,589,-4.7887,-16.4395,0,0,0,0,0,0,0,-1,881,435,-4.78868,16.4395
-336,589,-3.74249,-14.758,0,0,0,0,0,0,0,-1,888,435,-3.74249,14.758
-329,589,-3.14648,-14.0188,0,0,0,0,0,0,0,-1,895,435,-3.14648,14.0188
-322,589,1.08551,-12.5097,0,0,0,0,0,0,0,-1,902,435,1.08553,12.5097
-315,589,1.69165,-12.0793,0,0,0,0,0,0,0,-1,909,435,1.69166,12.0793
-308,589,1.93628,-12.0409,0,0,0,0,0,0,0,-1,916,435,1.93631,12.0409
-301,589,1.763,-11.7791,0,0,0,0,0,0,0,-1,923,435,1.763,11.7791
-294,589,1.90173,-12.2077,0.0204693,0.0125968,-0.0161992,0.0332036,-0.000137439,-0.666213,0.0221817,0.0479367,930,435,1.90175,12.2077
-287,589,2.10352,-12.7637,0.0175165,0.00973307,-0.0144554,0.0285949,-0.00134526,-0.653904,0.0195271,0.0424406,937,435,2.10349,12.7637
-280,589,2.32874,-13.3197,0.0150798,0.00644461,-0.0125097,0.0239961,-0.00247163,-0.619229,0.0168817,0.0322016,944,435,2.32875,13.3197
-273,589,2.27344,-13.6271,0,0,0,0,0,0,0,-1,951,435,2.27343,13.6271
-266,589,2.27045,-13.8933,0.0105345,0.00211254,-0.00920489,0.0164459,-0.00379885,-0.570873,0.0124253,0.0174396,958,435,2.27044,13.8933
-259,589,2.21899,-14.1489,0.00848423,0.000429637,-0.00759179,0.0130508,-0.00413693,-0.541531,0.0103586,0.0140638,965,435,2.219,14.1489
-252,589,2.23145,-14.43,0.00720056,-0.00116723,-0.00605469,0.0103763,-0.00434297,-0.483063,0.0087329,0.00985829,972,435,2.23146,14.43
-245,589,2.23761,-14.6819,0.00638419,-0.00194228,-0.00459279,0.00841985,-0.00397793,-0.417209,0.00730939,0.00970145,979,435,2.23762,14.6819
-238,589,2.21057,-14.927,0.00530311,-0.00288997,-0.00311584,0.00635342,-0.00394028,-0.325126,0.00599726,0.0127966,986,435,2.21057,14.927
-231,589,2.17877,-15.1718,0.00422147,-0.00324579,-0.0019351,0.00469315,-0.00371747,-0.239086,0.00486675,0.0140098,993,435,2.17874,15.1718
-224,589,2.16547,-15.4129,0.003177,-0.00315445,-0.000993636,0.00332927,-0.00330673,-0.152068,0.00383131,0.0135575,1000,435,2.16545,15.4129
-217,589,2.17249,-15.6313,0.00219177,-0.00294398,-0.000229982,0.00220205,-0.00295426,-0.0446615,0.00298754,0.0150409,1007,435,2.17251,15.6313
-210,589,2.17725,-15.8516,0.00138855,-0.00280991,0.000487486,0.00144441,-0.00286576,0.114089,0.00253318,0.013844,1014,435,2.17727,15.8516
-203,589,2.17828,-16.0753,0.000663549,-0.00231947,0.000962087,0.000946924,-0.00260284,0.286441,0.00212249,0.00959207,1021,435,2.17831,16.0752
-196,589,2.18262,-16.2715,9.57527e-05,-0.00164863,0.00126957,0.000763862,-0.00231674,0.484425,0.00185238,0.0121148,1028,435,2.18268,16.2715
-189,589,2.16797,-16.5028,-0.000135181,-0.00102124,0.00133652,0.000829822,-0.00198624,0.625357,0.00167093,0.0155836,1035,435,2.16801,16.5028
-182,589,2.16345,-16.6853,-0.000206005,-0.000348329,0.00128546,0.00101026,-0.00156459,0.757747,0.00149803,0.0120424,1042,435,2.16347,16.6853
-175,589,2.16833,-16.8848,7.38529e-05,0.000143436,0.0011937,0.00130285,-0.00108556,0.799967,0.00138085,0.015145,1049,435,2.16832,16.8848
-168,589,2.17542,-17.1082,0.000647779,0.000295957,0.000995856,0.00148314,-0.000539405,0.697978,0.00120935,0.0127446,1056,435,2.17542,17.1082
-161,589,2.17468,-17.3014,0.00137452,0.000344627,0.000619529,0.00166517,5.39779e-05,0.438661,0.00109257,0.0120948,1063,435,2.17468,17.3014
-154,589,2.17456,-17.4672,0.0021289,0.000316052,0.000361763,0.00219842,0.000246527,0.18987,0.00139074,0.0127922,1070,435,2.1746,17.4672
-147,589,2.19495,-17.6338,0.00298109,-2.1848e-06,6.63302e-05,0.00298256,-3.65893e-06,0.0222194,0.0019896,0.0126667,1077,435,2.19495,17.6338
-140,589,2.20935,-17.7823,0.00390814,-0.000567464,-0.000370145,0.00393855,-0.00059787,-0.0819607,0.002846,0.0128458,1084,435,2.20939,17.7824
-133,589,2.2063,-17.9373,0.00477419,-0.00102875,-0.000881159,0.00490504,-0.0011596,-0.147421,0.00371735,0.0119859,1091,435,2.20624,17.9373
-126,589,2.22974,-18.1221,0.0054931,-0.00199159,-0.00128268,0.00570681,-0.0022053,-0.1651,0.00471481,0.0103942,1098,435,2.22969,18.1221
-119,589,2.25989,-18.2889,0.00620972,-0.00300451,-0.00168684,0.00650882,-0.00330361,-0.175489,0.00576507,0.0171486,1105,435,2.25984,18.2889
-112,589,2.22717,-18.4339,0.00696332,-0.00398848,-0.00212354,0.00736066,-0.00438581,-0.184971,0.00685394,0.0185355,1112,435,2.22718,18.4339
-105,589,2.2428,-18.5855,0.00758279,-0.00478084,-0.00265679,0.00812953,-0.00532758,-0.202954,0.0078254,0.01824,1119,435,2.24276,18.5855
-98,589,2.31714,-18.6923,0.00828448,-0.00578614,-0.00303267,0.00891029,-0.00641194,-0.203498,0.00888541,0.0193822,1126,435,2.31714,18.6923
-91,589,2.43823,-18.8072,0.00895069,-0.0064082,-0.00374871,0.00981681,-0.00727433,-0.227061,0.0099039,0.0331509,1133,435,2.43818,18.8072
-84,589,2.58972,-19.146,0,0,0,0,0,0,0,-1,1140,435,2.58971,19.146
-77,589,2.18152,-14.8023,0,0,0,0,0,0,0,-1,1147,435,2.18155,14.8023
-70,589,1.48267,-9.90961,0,0,0,0,0,0,0,-1,1154,435,1.48264,9.9096
-63,589,0.880127,-5.50586,0,0,0,0,0,0,0,-1,1161,435,0.880186,5.50587
-56,589,-2.78052,-7.28082,0,0,0,0,0,0,0,-1,1168,435,-2.78053,7.28082
-49,589,-0.525757,-2.76703,0,0,0,0,0,0,0,-1,1175,435,-0.525771,2.76702
-42,589,-2.7738,-2.87921,0,0,0,0,0,0,0,-1,1182,435,-2.77383,2.87922
-35,589,-2.55225,-3.27551,0,0,0,0,0,0,0,-1,1189,435,-2.55223,3.27552
-28,589,-0.0632324,-3.42938,0,0,0,0,0,0,0,-1,1196,435,-0.063241,3.42938
-21,589,2.17004,-19.2552,0,0,0,0,0,0,0,-1,1203,435,2.16999,19.2552
-14,589,1.73975,-19.3218,0,0,0,0,0,0,0,-1,1210,435,1.73971,19.3218
-7,589,2.63074,-19.0782,0,0,0,0,0,0,0,-1,1217,435,2.63075,19.0782
0,589,2.92456,-20.0435,0,0,0,0,0,0,0,-1,1224,435,2.92453,20.0435
7,589,7.04919,-18.0473,0,0,0,0,0,0,0,-1,1231,435,7.04914,18.0473
14,589,2.7146,-19.2252,0.027941,0.0360288,0.0443519,0.0765208,-0.012551,0.830861,0.0556711,0.0468351,1238,435,2.71456,19.2251
21,589,3.87769,-20.5301,0.0295462,0.0287338,0.0397248,0.068867,-0.0105869,0.780286,0.0498167,0.0449219,1245,435,3.87773,20.5301
28,589,3.20618,-19.8347,0,0,0,0,0,0,0,-1,1252,435,3.20619,19.8347
35,589,3.17554,-19.9151,0.0362628,0.010103,0.0272617,0.05342,-0.00705422,0.561724,0.0381826,0.0479309,1259,435,3.17559,19.9151
42,589,3.15417,-19.9462,0.0400573,0.00070014,0.0204586,0.0487654,-0.00800792,0.402415,0.035482,0.0492772,1266,435,3.15412,19.9462
49,589,3.19177,-19.849,0.0446567,-0.00833897,0.0132833,0.0477998,-0.011482,0.232343,0.0363042,0.0480834,1273,435,3.19178,19.849
56,589,3.38855,-20.4157,0,0,0,0,0,0,0,-1,1280,435,3.3886,20.4158
63,589,2.52124,-19.5472,0,0,0,0,0,0,0,-1,1287,435,2.52128,19.5473
70,589,2.48962,-20.1643,0,0,0,0,0,0,0,-1,1294,435,2.48967,20.1643
77,589,6.8772,-23.9742,0,0,0,0,0,0,0,-1,1301,435,6.87725,23.9742
84,589,7.28918,-24.7901,0,0,0,0,0,0,0,-1,1308,435,7.28914,24.7901
91,589,7.76172,-25.8101,0,0,0,0,0,0,0,-1,1315,435,7.76172,25.8101
98,589,8.24988,-26.8734,0,0,0,0,0,0,0,-1,1322,435,8.24986,26.8734
105,589,3.22009,-19.8251,0,0,0,0,0,0,0,-1,1329,435,3.22011,19.8251
112,589,7.35632,-29.367,0,0,0,0,0,0,0,-1,1336,435,7.35633,29.367
119,589,7.60815,-30.6786,0,0,0,0,0,0,0,-1,1343,435,7.60815,30.6786
126,589,4.57666,-19.8231,0,0,0,0,0,0,0,-1,1350,435,4.5766,19.8231
133,589,4.61609,-19.6168,0.0683252,0.0131246,-0.0046049,0.0687067,0.012743,-0.0826597,0.042203,0.0490666,1357,435,4.61612,19.6168
140,589,3.83643,-18.9791,0.057993,0.0108351,-0.00390146,0.0583136,0.0105145,-0.0819891,0.0358881,0.0469741,1364,435,3.83642,18.9791
147,589,3.29675,-18.7446,0.0473594,0.00627636,-0.00450523,0.0478476,0.00578811,-0.107952,0.0301548,0.0468279,1371,435,3.29673,18.7446
154,589,3.72253,-18.758,0.0369569,0.0017503,-0.00585729,0.0379058,0.000801401,-0.160607,0.0250077,0.04472,1378,435,3.72248,18.758
161,589,3.94238,-18.5987,0.0279651,-0.00122131,-0.00673392,0.0294438,-0.00270005,-0.216164,0.0205883,0.0449332,1385,435,3.94244,18.5987
168,589,4.22278,-18.3318,0,0,0,0,0,0,0,-1,1392,435,4.22272,18.3318
175,589,8.66992,-7.65527,0,0,0,0,0,0,0,-1,1399,435,8.66994,7.65528
182,589,3.8136,-2.45389,0,0,0,0,0,0,0,-1,1406,435,3.81363,2.4539
189,589,3.69983,-3.68149,0,0,0,0,0,0,0,-1,1413,435,3.69987,3.68147
196,589,3.31055,-5.31677,0,0,0,0,0,0,0,-1,1420,435,3.31059,5.31678
203,589,2.72559,-8.84338,0,0,0,0,0,0,0,-1,1427,435,2.72558,8.84338
210,589,3.62378,-14.4032,0,0,0,0,0,0,0,-1,1434,435,3.62378,14.4032
217,589,4.12012,-18.5475,0,0,0,0,0,0,0,-1,1441,435,4.12006,18.5475
224,589,4.11768,-18.2558,0.00307522,0.0036301,3.90049e-05,0.00363282,0.00307249,1.50096,0.0022584,0.0330982,1448,435,4.11767,18.2558
231,589,4.15808,-18.0721,0.00279809,0.00435983,0.000557545,0.00453845,0.00261947,1.26077,0.00263066,0.0202228,1455,435,4.15811,18.0721
238,589,4.15222,-17.8876,0.00267088,0.00470121,0.000755333,0.00495139,0.00242071,1.25096,0.00285892,0.022332,1462,435,4.15221,17.8876
245,589,4.16882,-17.6183,0.00256188,0.00474143,0.000737455,0.0049675,0.00233581,1.27334,0.00286968,0.0207107,1469,435,4.16887,17.6183
252,589,4.21472,-17.446,0.0023572,0.00450872,0.000671471,0.00470108,0.00216484,1.29179,0.00271699,0.0133891,1476,435,4.21468,17.4461
259,589,4.21082,-17.2821,0.00213449,0.00399563,0.000576174,0.00415957,0.00197056,1.2936,0.00240263,0.00947024,1483,435,4.21078,17.2821
266,589,4.21863,-17.0934,0.00194981,0.00347411,0.000449016,0.00359655,0.00182737,1.3046,0.00207656,0.0102118,1490,435,4.21862,17.0934
273,589,4.23267,-16.9264,0.00169764,0.00301107,0.000336203,0.00309213,0.00161658,1.33422,0.00178586,0.0120092,1497,435,4.23265,16.9264
280,589,4.25085,-16.7362,0.00141063,0.00245893,0.000276879,0.00252756,0.00134199,1.3278,0.00146022,0.0117799,1504,435,4.2509,16.7362
287,589,4.25854,-16.5345,0.00135528,0.00206996,0.000217072,0.00213073,0.00129452,1.29785,0.00123962,0.0105763,1511,435,4.25858,16.5345
294,589,4.24866,-16.3002,0.00127719,0.00173446,0.000205697,0.00181337,0.00119828,1.20448,0.00106485,0.00910171,1518,435,4.24861,16.3002
301,589,4.25171,-16.078,0.00109222,0.00133141,0.000284463,0.0015204,0.000903234,0.984395,0.000882966,0.0097258,1525,435,4.25167,16.078
308,589,4.26379,-15.8406,0.000999636,0.00110142,0.000441388,0.00149484,0.000606214,0.842793,0.000868164,0.0102761,1532,435,4.26382,15.8406
315,589,4.26257,-15.5983,0.000980693,0.00102247,0.000617277,0.00161921,0.00038395,0.802311,0.000976971,0.0105792,1539,435,4.26257,15.5983
322,589,4.27258,-15.3745,0.000885786,0.00107303,0.000828227,0.00181291,0.000145905,0.841678,0.00116303,0.0112289,1546,435,4.27256,15.3745
329,589,4.26379,-15.1473,0.000758168,0.0011734,0.00109133,0.00207669,-0.000145125,0.879394,0.00143528,0.0097128,1553,435,4.26382,15.1473
336,589,4.23975,-14.9325,0.000593121,0.00144034,0.00136686,0.00244773,-0.000414267,0.935662,0.001786,0.00895131,1560,435,4.23975,14.9325
343,589,4.24438,-14.6923,0.000397197,0.00181981,0.00162198,0.0028796,-0.000662591,0.992041,0.00217451,0.0100439,1567,435,4.24444,14.6923
350,589,4.23682,-14.4102,0.000245962,0.00245911,0.00199017,0.00362966,-0.000924583,1.03913,0.0027797,0.0157445,1574,435,4.23682,14.4102
357,589,4.23206,-14.1049,-1.62511e-05,0.003143,0.00236486,0.00440727,-0.00128053,1.07985,0.00344528,0.0133476,1581,435,4.232,14.105
364,589,4.23682,-13.8441,-0.00038913,0.00405109,0.00266994,0.00530337,-0.00164141,1.13223,0.00419126,0.0109012,1588,435,4.23683,13.844
371,589,4.22083,-13.5968,-0.000670404,0.00502495,0.00298977,0.00630619,-0.00195165,1.16593,0.00498373,0.0109982,1595,435,4.22079,13.5968
378,589,4.21191,-13.3251,-0.00115654,0.00605272,0.00321951,0.00728116,-0.00238499,1.20628,0.0058145,0.011776,1602,435,4.2119,13.3251
385,589,4.20337,-13.036,-0.00200408,0.00686546,0.00304187,0.00780844,-0.00294706,1.27019,0.00641764,0.0145666,1609,435,4.20341,13.036
392,589,4.18408,-12.6934,-0.00264669,0.00750369,0.00289385,0.00827075,-0.00341375,1.31169,0.00693761,0.0179677,1616,435,4.18412,12.6934
399,589,4.18408,-12.2983,-0.00330365,0.00786421,0.00262589,0.00845082,-0.00389026,1.35101,0.00728549,0.0285482,1623,435,4.18407,12.2983
406,589,4.1886,-12.0099,0,0,0,0,0,0,0,-1,1630,435,4.18856,12.0099
413,589,3.75757,-11.6746,0,0,0,0,0,0,0,-1,1637,435,3.75759,11.6746
420,589,2.79724,-5.79956,0,0,0,0,0,0,0,-1,1644,435,2.7973,5.79955
427,589,2.87976,-5.28177,0,0,0,0,0,0,0,-1,1651,435,2.87972,5.28177
434,589,2.52734,-2.73029,0,0,0,0,0,0,0,-1,1658,435,2.52736,2.73029
441,589,3.17639,-2.02435,0,0,0,0,0,0,0,-1,1665,435,3.17643,2.02435
448,589,0.453735,-3.2868,0,0,0,0,0,0,0,-1,1672,435,0.453701,3.28681
455,589,0.664307,-3.46848,0,0,0,0,0,0,0,-1,1679,435,0.66425,3.46846
462,589,3.46716,-4.41891,0,0,0,0,0,0,0,-1,1686,435,3.4672,4.41891
469,589,0.0238037,-3.81497,0,0,0,0,0,0,0,-1,1693,435,0.0237965,3.81498
476,589,0,0,0,0,0,0,0,0,0,-1,1700,435,0,0
483,589,0,0,0,0,0,0,0,0,0,-1,1707,435,0,0
490,589,0,0,0,0,0,0,0,0,0,-1,1714,435,0,0
497,589,0,0,0,0,0,0,0,0,0,-1,1721,435,0,0
504,589,0,0,0,0,0,0,0,0,0,-1,1728,435,0,0
511,589,0,0,0,0,0,0,0,0,0,-1,1735,435,0,0
518,589,0,0,0,0,0,0,0,0,0,-1,1742,435,0,0
525,589,0,0,0,0,0,0,0,0,0,-1,1749,435,0,0
532,589,0,0,0,0,0,0,0,0,0,-1,1756,435,0,0
539,589,0,0,0,0,0,0,0,0,0,-1,1763,435,0,0
546,589,0,0,0,0,0,0,0,0,0,-1,1770,435,0,0
553,589,0,0,0,0,0,0,0,0,0,-1,1777,435,0,0
560,589,0,0,0,0,0,0,0,0,0,-1,1784,435,0,0
567,589,0,0,0,0,0,0,0,0,0,-1,1791,435,0,0
574,589,0,0,0,0,0,0,0,0,0,-1,1798,435,0,0
581,589,0,0,0,0,0,0,0,0,0,-1,1805,435,0,0
588,589,0,0,0,0,0,0,0,0,0,-1,1812,435,0,0
595,589,0,0,0,0,0,0,0,0,0,-1,1819,435,0,0
602,589,0,0,0,0,0,0,0,0,0,-1,1826,435,0,0
609,589,0,0,0,0,0,0,0,0,0,-1,1833,435,0,0
616,589,0,0,0,0,0,0,0,0,0,-1,1840,435,0,0
623,589,0,0,0,0,0,0,0,0,0,-1,1847,435,0,0
630,589,0,0,0,0,0,0,0,0,0,-1,1854,435,0,0
637,589,0,0,0,0,0,0,0,0,0,-1,1861,435,0,0
644,589,0,0,0,0,0,0,0,0,0,-1,1868,435,0,0
651,589,0,0,0,0,0,0,0,0,0,-1,1875,435,0,0
658,589,0,0,0,0,0,0,0,0,0,-1,1882,435,0,0
665,589,0,0,0,0,0,0,0,0,0,-1,1889,435,0,0
672,589,0,0,0,0,0,0,0,0,0,-1,1896,435,0,0
679,589,0,0,0,0,0,0,0,0,0,-1,1903,435,0,0
686,589,0,0,0,0,0,0,0,0,0,-1,1910,435,0,0
693,589,0,0,0,0,0,0,0,0,0,-1,1917,435,0,0
700,589,0,0,0,0,0,0,0,0,0,-1,1924,435,0,0
707,589,0,0,0,0,0,0,0,0,0,-1,1931,435,0,0
714,589,0,0,0,0,0,0,0,0,0,-1,1938,435,0,0
721,589,0,0,0,0,0,0,0,0,0,-1,1945,435,0,0
728,589,0,0,0,0,0,0,0,0,0,-1,1952,435,0,0
735,589,0,0,0,0,0,0,0,0,0,-1,1959,435,0,0
742,589,0,0,0,0,0,0,0,0,0,-1,1966,435,0,0
749,589,0,0,0,0,0,0,0,0,0,-1,1973,435,0,0
756,589,0,0,0,0,0,0,0,0,0,-1,1980,435,0,0
763,589,0,0,0,0,0,0,0,0,0,-1,1987,435,0,0
770,589,0,0,0,0,0,0,0,0,0,-1,1994,435,0,0
777,589,0,0,0,0,0,0,0,0,0,-1,2001,435,0,0
784,589,0,0,0,0,0,0,0,0,0,-1,2008,435,0,0
791,589,0,0,0,0,0,0,0,0,0,-1,2015,435,0,0
798,589,0,0,0,0,0,0,0,0,0,-1,2022,435,0,0
805,589,0,0,0,0,0,0,0,0,0,-1,2029,435,0,0
812,589,0,0,0,0,0,0,0,0,0,-1,2036,435,0,0
-700,582,0,0,0,0,0,0,0,0,0,-1,524,442,0,0
-693,582,0,0,0,0,0,0,0,0,0,-1,531,442,0,0
-686,582,0,0,0,0,0,0,0,0,0,-1,538,442,0,0
-679,582,0,0,0,0,0,0,0,0,0,-1,545,442,0,0
-672,582,0,0,0,0,0,0,0,0,0,-1,552,442,0,0
-665,582,0,0,0,0,0,0,0,0,0,-1,559,442,0,0
-658,582,0,0,0,0,0,0,0,0,0,-1,566,442,0,0
-651,582,0,0,0,0,0,0,0,0,0,-1,573,442,0,0
-644,582,0,0,0,0,0,0,0,0,0,-1,580,442,0,0
-637,582,0,0,0,0,0,0,0,0,0,-1,587,442,0,0
-630,582,0,0,0,0,0,0,0,0,0,-1,594,442,0,0
-623,582,0,0,0,0,0,0,0,0,0,-1,601,442,0,0
-616,582,0,0,0,0,0,0,0,0,0,-1,608,442,0,0
-609,582,0,0,0,0,0,0,0,0,0,-1,615,442,0,0
-602,582,0,0,0,0,0,0,0,0,0,-1,622,442,0,0
-595,582,0,0,0,0,0,0,0,0,0,-1,629,442,0,0
-588,582,0,0,0,0,0,0,0,0,0,-1,636,442,0,0
-581,582,0,0,0,0,0,0,0,0,0,-1,643,442,0,0
-574,582,0,0,0,0,0,0,0,0,0,-1,650,442,0,0
-567,582,0,0,0,0,0,0,0,0,0,-1,657,442,0,0
-560,582,0,0,0,0,0,0,0,0,0,-1,664,442,0,0
-553,582,0,0,0,0,0,0,0,0,0,-1,671,442,0,0
-546,582,0,0,0,0,0,0,0,0,0,-1,678,442,0,0
-539,582,0,0,0,0,0,0,0,0,0,-1,685,442,0,0
-532,582,0,0,0,0,0,0,0,0,0,-1,692,442,0,0
-525,582,0,0,0,0,0,0,0,0,0,-1,699,442,0,0
-518,582,0,0,0,0,0,0,0,0,0,-1,706,442,0,0
-511,582,0,0,0,0,0,0,0,0,0,-1,713,442,0,0
-504,582,0,0,0,0,0,0,0,0,0,-1,720,442,0,0
-497,582,0,0,0,0,0,0,0,0,0,-1,727,442,0,0
-490,582,0,0,0,0,0,0,0,0,0,-1,734,442,0,0
-483,582,0,0,0,0,0,0,0,0,0,-1,741,442,0,0
-476,582,0,0,0,0,0,0,0,0,0,-1,748,442,0,0
-469,582,0,0,0,0,0,0,0,0,0,-1,755,442,0,0
-462,582,0,0,0,0,0,0,0,0,0,-1,762,442,0,0
-455,582,0,0,0,0,0,0,0,0,0,-1,769,442,0,0
-448,582,0,0,0,0,0,0,0,0,0,-1,776,442,0,0
-441,582,0,0,0,0,0,0,0,0,0,-1,783,442,0,0
-434,582,0,0,0,0,0,0,0,0,0,-1,790,442,0,0
-427,582,0,0,0,0,0,0,0,0,0,-1,797,442,0,0
-420,582,0,0,0,0,0,0,0,0,0,-1,804,442,0,0
-413,582,0,0,0,0,0,0,0,0,0,-1,811,442,0,0
-406,582,0,0,0,0,0,0,0,0,0,-1,818,442,0,0
-399,582,0,0,0,0,0,0,0,0,0,-1,825,442,0,0
-392,582,0,0,0,0,0,0,0,0,0,-1,832,442,0,0
-385,582,0,0,0,0,0,0,0,0,0,-1,839,442,0,0
-378,582,0,0,0,0,0,0,0,0,0,-1,846,442,0,0
-371,582,0,0,0,0,0,0,0,0,0,-1,853,442,0,0
-364,582,0,0,0,0,0,0,0,0,0,-1,860,442,0,0
-357,582,6.4043,-4.18127,0,0,0,0,0,0,0,-1,867,442,6.40427,4.18126
-350,582,-1.12933,-15.713,0,0,0,0,0,0,0,-1,874,442,-1.12935,15.713
-343,582,-6.46735,-15.7183,0,0,0,0,0,0,0,-1,881,442,-6.46737,15.7183
-336,582,-6.42596,-13.6619,0,0,0,0,0,0,0,-1,888,442,-6.42598,13.6619
-329,582,0.464783,-11.636,0,0,0,0,0,0,0,-1,895,442,0.464803,11.636
-322,582,0.846802,-11.9018,0,0,0,0,0,0,0,-1,902,442,0.846814,11.9018
-315,582,1.3916,-12.0445,0.0265297,0.0118835,-0.0138469,0.0348707,0.00354248,-0.542164,0.0221609,0.0461309,909,442,1.3916,12.0445
-308,582,1.75146,-12.0813,0.0223128,0.0118531,-0.0135477,0.031605,0.00256087,-0.601195,0.0202704,0.0491798,916,442,1.75149,12.0813
-301,582,2.2663,-12.2994,0,0,0,0,0,0,0,-1,923,442,2.26632,12.2994
-294,582,1.93726,-12.6779,0.0151259,0.00988191,-0.0122021,0.0249846,2.32421e-05,-0.679567,0.0166487,0.0461345,930,442,1.93728,12.6779
-287,582,2.02582,-13.0284,0.0127174,0.00813788,-0.0108649,0.0215312,-0.000675989,-0.681545,0.0145847,0.0347222,937,442,2.0258,13.0284
-280,582,2.10132,-13.3372,0.010842,0.00612986,-0.00954863,0.0183209,-0.00134908,-0.664442,0.0126876,0.0168251,944,442,2.10133,13.3372
-273,582,2.05579,-13.5952,0.00904662,0.00479993,-0.00831837,0.0155084,-0.00166182,-0.660437,0.010935,0.0105127,951,442,2.05581,13.5952
-266,582,2.02972,-13.8934,0.00745479,0.00293625,-0.00711459,0.0126602,-0.00226918,-0.631656,0.00928939,0.00926538,958,442,2.02972,13.8934
-259,582,2.00751,-14.1747,0.00590464,0.00158386,-0.00584752,0.00997809,-0.00248959,-0.608449,0.00761874,0.00765407,965,442,2.00752,14.1747
-252,582,2.0061,-14.4267,0.00490503,0.000202986,-0.00464845,0.00776317,-0.00265516,-0.551274,0.00625137,0.0076672,972,442,2.00613,14.4267
-245,582,2.01624,-14.6803,0.00429808,-0.000623331,-0.00347159,0.00609261,-0.00241786,-0.47709,0.0050639,0.0106365,979,442,2.01623,14.6803
-238,582,1.99976,-14.9273,0.00356015,-0.00168843,-0.0021933,0.00435601,-0.00248429,-0.348087,0.00399823,0.0146665,986,442,1.99976,14.9273
-231,582,1.96967,-15.163,0.00281206,-0.00227641,-0.00110907,0.00304329,-0.00250764,-0.205539,0.0032098,0.0122924,993,442,1.96969,15.163
-224,582,1.95483,-15.4069,0.00204591,-0.00249721,-0.000212196,0.0020558,-0.0025071,-0.0465719,0.00263868,0.00962364,1000,442,1.95481,15.4069
-217,582,1.95959,-15.633,0.00131564,-0.00263986,0.000579383,0.00139876,-0.00272298,0.142488,0.00242028,0.0117091,1007,442,1.9596,15.633
-210,582,1.97064,-15.8488,0.000739943,-0.0027616,0.00133867,0.00119308,-0.00321474,0.326395,0.00263257,0.0120112,1014,442,1.97067,15.8488
-203,582,1.97498,-16.0807,0.000240169,-0.00240729,0.00182872,0.00117398,-0.0033411,0.47212,0.00270502,0.00930954,1021,442,1.975,16.0807
-196,582,1.97461,-16.2867,-0.000113317,-0.00177566,0.00220609,0.00141298,-0.00330196,0.605241,0.00279405,0.0142395,1028,442,1.97465,16.2867
-189,582,1.9613,-16.5013,-9.87889e-05,-0.00114827,0.00229298,0.00172873,-0.00297579,0.672911,0.00274778,0.0197778,1035,442,1.96125,16.5014
-182,582,1.98108,-16.727,3.98622e-05,-0.00037427,0.00230098,0.00214307,-0.00247748,0.740524,0.00267001,0.0136947,1042,442,1.98109,16.727
-175,582,1.97705,-16.8902,0.000510563,0.000194743,0.00219273,0.00255107,-0.00184576,0.749453,0.00254937,0.0123518,1049,442,1.97704,16.8902
-168,582,1.9906,-17.0906,0.00121756,0.000567013,0.00191734,0.00283702,-0.00105245,0.701374,0.00232304,0.0113398,1056,442,1.99065,17.0906
-161,582,1.98926,-17.2714,0.00206,0.000691178,0.00138272,0.00291842,-0.000167245,0.555589,0.00200369,0.012949,1063,442,1.98928,17.2714
-154,582,1.98352,-17.4483,0.00295567,0.000774737,0.000953693,0.00331388,0.000416533,0.359294,0.00208433,0.0121301,1070,442,1.98351,17.4483
-147,582,2.01367,-17.6325,0.00406218,0.000512358,0.000474466,0.0041245,0.000450035,0.130606,0.00261261,0.0115773,1077,442,2.01368,17.6325
-140,582,2.02112,-17.7771,0.00525891,-4.3415e-05,-0.000217293,0.0052678,-5.23049e-05,-0.0408892,0.00352943,0.012979,1084,442,2.02115,17.7771
-133,582,2.05164,-17.9389,0.0063908,-0.000570216,-0.00107008,0.00655159,-0.000731001,-0.149139,0.00463066,0.0150864,1091,442,2.05159,17.9389
-126,582,2.08362,-18.0625,0.00737446,-0.00191175,-0.00172362,0.00768407,-0.00222135,-0.177727,0.00600179,0.0126445,1098,442,2.08361,18.0625
-119,582,2.09424,-18.1892,0.0083154,-0.00356826,-0.00233947,0.00875938,-0.00401223,-0.187544,0.00754157,0.0159639,1105,442,2.09419,18.1892
-112,582,2.06543,-18.3572,0.00931256,-0.00525153,-0.00299911,0.00990597,-0.00584494,-0.19534,0.009194,0.0234157,1112,442,2.06543,18.3572
-105,582,2.0697,-18.527,0.0101154,-0.00665051,-0.00377416,0.0109258,-0.00746094,-0.211518,0.0106783,0.0331651,1119,442,2.0697,18.527
-98,582,2.14539,-18.7059,0.01113,-0.00854307,-0.00428873,0.0120243,-0.00943736,-0.205576,0.0124209,0.0384981,1126,442,2.14534,18.7059
-91,582,2.41443,-18.7121,0,0,0,0,0,0,0,-1,1133,442,2.41439,18.7121
-84,582,2.10278,-16.7533,0,0,0,0,0,0,0,-1,1140,442,2.10279,16.7533
-77,582,2.30212,-11.4907,0,0,0,0,0,0,0,-1,1147,442,2.30207,11.4907
-70,582,1.49255,-6.36548,0,0,0,0,0,0,0,-1,1154,442,1.49251,6.36549
-63,582,-4.62915,-4.0347,0,0,0,0,0,0,0,-1,1161,442,-4.6292,4.03471
-56,582,-5.81714,-5.24149,0,0,0,0,0,0,0,-1,1168,442,-5.81718,5.24149
-49,582,-3.88672,-10.1064,0,0,0,0,0,0,0,-1,1175,442,-3.88678,10.1064
-42,582,-0.948975,1.13968,0,0,0,0,0,0,0,-1,1182,442,-0.949003,-1.13969
-35,582,-2.58435,-3.86911,0,0,0,0,0,0,0,-1,1189,442,-2.58437,3.86912
-28,582,-0.825317,-3.45941,0,0,0,0,0,0,0,-1,1196,442,-0.825377,3.45942
-21,582,13.8378,-30.8691,0,0,0,0,0,0,0,-1,1203,442,13.8377,30.8691
-14,582,12.6272,-29.8983,0,0,0,0,0,0,0,-1,1210,442,12.6272,29.8984
-7,582,11.3781,-28.6774,0,0,0,0,0,0,0,-1,1217,442,11.3781,28.6774
0,582,4.29541,-20.811,0,0,0,0,0,0,0,-1,1224,442,4.2954,20.811
7,582,4.87012,-19.2696,0.0348132,0.06461,0.0710833,0.122339,-0.0229162,0.888698,0.0901742,0.047427,1231,442,4.87018,19.2696
14,582,3.54224,-20.4289,0.0361219,0.0541981,0.0644472,0.110238,-0.0199179,0.855064,0.0809522,0.048144,1238,442,3.54224,20.4289
21,582,3.35864,-20.4483,0.0378198,0.0435848,0.0576795,0.0984538,-0.0170492,0.810365,0.071995,0.0420648,1245,442,3.3587,20.4483
28,582,3.05151,-20.4033,0.0410049,0.0308623,0.0492354,0.0854294,-0.0135623,0.734079,0.0619704,0.0427529,1252,442,3.05154,20.4033
35,582,2.81165,-20.0687,0.0460341,0.0176418,0.0400178,0.0742991,-0.0106233,0.61495,0.0534271,0.0460807,1259,442,2.81167,20.0687
42,582,3.10986,-19.9603,0.050976,0.00467206,0.0304528,0.0660783,-0.0104302,0.460381,0.0479089,0.049793,1266,442,3.10989,19.9603
49,582,3.08301,-19.4792,0.0569642,-0.00768877,0.0203656,0.0628445,-0.0135691,0.281092,0.0470758,0.0461301,1273,442,3.08299,19.4792
56,582,3.40076,-20.1106,0,0,0,0,0,0,0,-1,1280,442,3.40077,20.1106
63,582,4.9458,-21.1961,0.0673455,-0.0243296,-0.00293886,0.0674396,-0.0244237,-0.0320135,0.0549413,0.0414264,1287,442,4.94583,21.1961
70,582,5.69031,-22.3927,0.0791145,-0.0256546,-0.0093674,0.0799454,-0.0264855,-0.0884748,0.0639797,0.0429516,1294,442,5.69033,22.3927
77,582,6.26636,-23.3854,0.0921524,-0.026041,-0.0113081,0.0932246,-0.0271131,-0.094532,0.0728882,0.0451249,1301,442,6.26633,23.3854
84,582,6.8291,-24.4415,0.0994538,-0.0225084,-0.0151783,0.101314,-0.0243689,-0.121972,0.0769628,0.0463039,1308,442,6.82907,24.4415
91,582,7.36462,-25.5149,0.105591,-0.0188123,-0.0180703,0.108163,-0.0213839,-0.141364,0.0801925,0.0478922,1315,442,7.36461,25.5149
98,582,7.8999,-26.8297,0,0,0,0,0,0,0,-1,1322,442,7.89985,26.8297
105,582,8.1958,-28.1371,0.109352,-0.0086693,-0.017716,0.111954,-0.0112713,-0.145828,0.0786629,0.0451979,1329,442,8.19574,28.1371
112,582,8.39246,-29.4519,0.109057,-0.00130862,-0.0144711,0.110922,-0.00317452,-0.128233,0.0750289,0.0435961,1336,442,8.39248,29.4519
119,582,8.61646,-30.8815,0.10551,0.00550941,-0.0107821,0.106659,0.00436008,-0.106195,0.0696981,0.0462073,1343,442,8.61639,30.8815
126,582,9.11804,-32.4114,0.0978177,0.00749549,-0.0075494,0.0984444,0.00686883,-0.0828172,0.063464,0.04822,1350,442,9.11805,32.4114
133,582,4.12134,-18.7346,0,0,0,0,0,0,0,-1,1357,442,4.12137,18.7346
140,582,3.65076,-18.8724,0,0,0,0,0,0,0,-1,1364,442,3.65072,18.8724
147,582,3.16626,-18.298,0,0,0,0,0,0,0,-1,1371,442,3.16628,18.298
154,582,4.12354,-18.3536,0,0,0,0,0,0,0,-1,1378,442,4.12351,18.3536
161,582,4.16467,-18.1127,0,0,0,0,0,0,0,-1,1385,442,4.16463,18.1127
168,582,4.672,-20.2961,0,0,0,0,0,0,0,-1,1392,442,4.67199,20.2961
175,582,6.50549,-2.00424,0,0,0,0,0,0,0,-1,1399,442,6.50546,2.00425
182,582,5.18958,-2.18652,0,0,0,0,0,0,0,-1,1406,442,5.1896,2.18652
189,582,6.19751,-0.880951,0,0,0,0,0,0,0,-1,1413,442,6.19754,0.88096
196,582,4.87354,-2.22327,0,0,0,0,0,0,0,-1,1420,442,4.87348,2.22325
203,582,3.11401,-4.48257,0,0,0,0,0,0,0,-1,1427,442,3.11404,4.48259
210,582,2.93115,-11.0731,0,0,0,0,0,0,0,-1,1434,442,2.93113,11.0731
217,582,4.94092,-16.5476,0,0,0,0,0,0,0,-1,1441,442,4.94087,16.5476
224,582,4.40063,-18.3217,0,0,0,0,0,0,0,-1,1448,442,4.40059,18.3217
231,582,4.30957,-18.0447,0.00336843,0.00624259,0.00101872,0.00656704,0.00304397,1.26246,0.00379484,0.041164,1455,442,4.30955,18.0447
238,582,4.2218,-17.9041,0.00342891,0.0066729,0.00127276,0.00711264,0.00298916,1.23813,0.00412386,0.0441178,1462,442,4.22178,17.9041
245,582,4.26648,-17.8535,0.00335747,0.00651949,0.00113888,0.00688697,0.00298999,1.25867,0.00398767,0.0456342,1469,442,4.26649,17.8535
252,582,4.44116,-17.5723,0.00311235,0.00592306,0.000957808,0.00621841,0.002817,1.27168,0.00359548,0.0314212,1476,442,4.4412,17.5723
259,582,4.37268,-17.3739,0.00284879,0.00497047,0.00073103,0.00519795,0.0026213,1.26911,0.00300108,0.0246155,1483,442,4.37265,17.3739
266,582,4.3833,-17.2082,0.00264276,0.00410644,0.000463924,0.0042411,0.0025081,1.2883,0.00246219,0.0184045,1490,442,4.38335,17.2082
273,582,4.45532,-16.975,0.00230997,0.00338103,0.000228963,0.00342792,0.00226308,1.36878,0.00201268,0.0155276,1497,442,4.4553,16.975
280,582,4.45386,-16.753,0.00187515,0.00251322,1.8421e-05,0.00251375,0.00187462,1.54196,0.00150861,0.0121731,1504,442,4.45381,16.753
287,582,4.47253,-16.5185,0.00173549,0.00191913,-0.000211063,0.00205748,0.00159714,-0.990571,0.00124686,0.0104441,1511,442,4.47248,16.5185
294,582,4.47717,-16.2916,0.00154774,0.00142739,-0.000365251,0.00185774,0.00111739,-0.703758,0.0010799,0.00835921,1518,442,4.47714,16.2916
301,582,4.49231,-16.0669,0.00122668,0.0008825,-0.000399614,0.00148969,0.000619497,-0.582078,0.00086412,0.00924561,1525,442,4.49231,16.0669
308,582,4.50647,-15.8356,0.00101744,0.000556263,-0.000348887,0.00120505,0.000368649,-0.49339,0.000712994,0.0121198,1532,442,4.50647,15.8356
315,582,4.50696,-15.6135,0.000931471,0.000422067,-0.000248858,0.00103286,0.000320675,-0.386896,0.000610438,0.0132185,1539,442,4.50698,15.6135
322,582,4.51733,-15.3888,0.000781049,0.000421459,-8.73374e-05,0.000801139,0.000401369,-0.226096,0.000462538,0.0107298,1546,442,4.51732,15.3888
329,582,4.50439,-15.1647,0.000614419,0.000525947,0.000139003,0.000716056,0.000424311,0.631346,0.00041577,0.0102557,1553,442,4.50443,15.1647
336,582,4.48438,-14.9162,0.000438482,0.000769019,0.000396885,0.00103367,0.00017383,0.982686,0.0006391,0.0104601,1560,442,4.48443,14.9162
343,582,4.49121,-14.6455,0.00025318,0.00111843,0.000663875,0.0014782,-0.000106592,1.07417,0.00102285,0.0123867,1567,442,4.49125,14.6455
350,582,4.49182,-14.3843,0.000114181,0.00165768,0.00102134,0.00216606,-0.000394201,1.10894,0.00159179,0.0156498,1574,442,4.49187,14.3843
357,582,4.48242,-14.1018,-9.39363e-05,0.00223788,0.00139,0.00288621,-0.000742263,1.13437,0.00221344,0.0133701,1581,442,4.48236,14.1018
364,582,4.47937,-13.8541,-0.00038531,0.00300905,0.00171969,0.00372801,-0.00110427,1.1748,0.00292379,0.0106882,1588,442,4.47932,13.8541
371,582,4.46313,-13.5963,-0.000607167,0.00378464,0.00206466,0.00460284,-0.00142537,1.19349,0.00363798,0.0148596,1595,442,4.46317,13.5962
378,582,4.43762,-13.3299,-0.000959031,0.00456072,0.00231813,0.00540509,-0.00180341,1.22148,0.00433153,0.0150693,1602,442,4.43762,13.3299
385,582,4.43445,-13.0551,-0.00154904,0.00516356,0.00225531,0.00585092,-0.0022364,1.27497,0.00482216,0.0108947,1609,442,4.43447,13.0551
392,582,4.41724,-12.7546,-0.00203676,0.00560741,0.00219245,0.00619159,-0.00262093,1.3104,0.00522527,0.00977475,1616,442,4.41723,12.7546
399,582,4.41101,-12.4883,-0.00252234,0.0058154,0.00201257,0.00627578,-0.00298272,1.34592,0.00545694,0.0153335,1623,442,4.41102,12.4883
406,582,4.41455,-12.1186,-0.00321332,0.00576242,0.00181958,0.00611726,-0.00356816,1.3782,0.00565607,0.0263506,1630,442,4.41457,12.1186
413,582,4.2677,-11.721,-0.00428938,0.00521206,0.00135737,0.00540217,-0.00447949,1.43164,0.00571346,0.042741,1637,442,4.26768,11.721
420,582,4.1875,-11.2939,0,0,0,0,0,0,0,-1,1644,442,4.18747,11.2939
427,582,4.32715,-11.3574,0,0,0,0,0,0,0,-1,1651,442,4.32712,11.3574
434,582,3.88428,-11.0702,0,0,0,0,0,0,0,-1,1658,442,3.88434,11.0702
441,582,3.68677,-8.97913,0,0,0,0,0,0,0,-1,1665,442,3.68682,8.97912
448,582,1.52722,-2.85928,0,0,0,0,0,0,0,-1,1672,442,1.52724,2.85927
455,582,3.6698,-4.4032,0,0,0,0,0,0,0,-1,1679,442,3.66983,4.40319
462,582,1.38074,-3.94418,0,0,0,0,0,0,0,-1,1686,442,1.38074,3.94419
469,582,4.77759,-10.3864,0,0,0,0,0,0,0,-1,1693,442,4.77756,10.3864
476,582,1.93579,-8.53891,0,0,0,0,0,0,0,-1,1700,442,1.93579,8.53892
483,582,0,0,0,0,0,0,0,0,0,-1,1707,442,0,0
490,582,0,0,0,0,0,0,0,0,0,-1,1714,442,0,0
497,582,0,0,0,0,0,0,0,0,0,-1,1721,442,0,0
504,582,0,0,0,0,0,0,0,0,0,-1,1728,442,0,0
511,582,0,0,0,0,0,0,0,0,0,-1,1735,442,0,0
518,582,0,0,0,0,0,0,0,0,0,-1,1742,442,0,0
525,582,0,0,0,0,0,0,0,0,0,-1,1749,442,0,0
532,582,0,0,0,0,0,0,0,0,0,-1,1756,442,0,0
539,582,0,0,0,0,0,0,0,0,0,-1,1763,442,0,0
546,582,0,0,0,0,0,0,0,0,0,-1,1770,442,0,0
553,582,0,0,0,0,0,0,0,0,0,-1,1777,442,0,0
560,582,0,0,0,0,0,0,0,0,0,-1,1784,442,0,0
567,582,0,0,0,0,0,0,0,0,0,-1,1791,442,0,0
574,582,0,0,0,0,0,0,0,0,0,-1,1798,442,0,0
581,582,0,0,0,0,0,0,0,0,0,-1,1805,442,0,0
588,582,0,0,0,0,0,0,0,0,0,-1,1812,442,0,0
595,582,0,0,0,0,0,0,0,0,0,-1,1819,442,0,0
602,582,0,0,0,0,0,0,0,0,0,-1,1826,442,0,0
609,582,0,0,0,0,0,0,0,0,0,-1,1833,442,0,0
616,582,0,0,0,0,0,0,0,0,0,-1,1840,442,0,0
623,582,0,0,0,0,0,0,0,0,0,-1,1847,442,0,0
630,582,0,0,0,0,0,0,0,0,0,-1,1854,442,0,0
637,582,0,0,0,0,0,0,0,0,0,-1,1861,442,0,0
644,582,0,0,0,0,0,0,0,0,0,-1,1868,442,0,0
651,582,0,0,0,0,0,0,0,0,0,-1,1875,442,0,0
658,582,0,0,0,0,0,0,0,0,0,-1,1882,442,0,0
665,582,0,0,0,0,0,0,0,0,0,-1,1889,442,0,0
672,582,0,0,0,0,0,0,0,0,0,-1,1896,442,0,0
679,582,0,0,0,0,0,0,0,0,0,-1,1903,442,0,0
686,582,0,0,0,0,0,0,0,0,0,-1,1910,442,0,0
693,582,0,0,0,0,0,0,0,0,0,-1,1917,442,0,0
700,582,0,0,0,0,0,0,0,0,0,-1,1924,442,0,0
707,582,0,0,0,0,0,0,0,0,0,-1,1931,442,0,0
714,582,0,0,0,0,0,0,0,0,0,-1,1938,442,0,0
721,582,0,0,0,0,0,0,0,0,0,-1,1945,442,0,0
728,582,0,0,0,0,0,0,0,0,0,-1,1952,442,0,0
735,582,0,0,0,0,0,0,0,0,0,-1,1959,442,0,0
742,582,0,0,0,0,0,0,0,0,0,-1,1966,442,0,0
749,582,0,0,0,0,0,0,0,0,0,-1,1973,442,0,0
756,582,0,0,0,0,0,0,0,0,0,-1,1980,442,0,0
763,582,0,0,0,0,0,0,0,0,0,-1,1987,442,0,0
770,582,0,0,0,0,0,0,0,0,0,-1,1994,442,0,0
777,582,0,0,0,0,0,0,0,0,0,-1,2001,442,0,0
784,582,0,0,0,0,0,0,0,0,0,-1,2008,442,0,0
791,582,0,0,0,0,0,0,0,0,0,-1,2015,442,0,0
798,582,0,0,0,0,0,0,0,0,0,-1,2022,442,0,0
805,582,0,0,0,0,0,0,0,0,0,-1,2029,442,0,0
812,582,0,0,0,0,0,0,0,0,0,-1,2036,442,0,0
-700,575,0,0,0,0,0,0,0,0,0,-1,524,449,0,0
-693,575,0,0,0,0,0,0,0,0,0,-1,531,449,0,0
-686,575,0,0,0,0,0,0,0,0,0,-1,538,449,0,0
-679,575,0,0,0,0,0,0,0,0,0,-1,545,449,0,0
-672,575,0,0,0,0,0,0,0,0,0,-1,552,449,0,0
-665,575,0,0,0,0,0,0,0,0,0,-1,559,449,0,0
-658,575,0,0,0,0,0,0,0,0,0,-1,566,449,0,0
-651,575,0,0,0,0,0,0,0,0,0,-1,573,449,0,0
-644,575,0,0,0,0,0,0,0,0,0,-1,580,449,0,0
-637,575,0,0,0,0,0,0,0,0,0,-1,587,449,0,0
-630,575,0,0,0,0,0,0,0,0,0,-1,594,449,0,0
-623,575,0,0,0,0,0,0,0,0,0,-1,601,449,0,0
-616,575,0,0,0,0,0,0,0,0,0,-1,608,449,0,0
-609,575,0,0,0,0,0,0,0,0,0,-1,615,449,0,0
-602,575,0,0,0,0,0,0,0,0,0,-1,622,449,0,0
-595,575,0,0,0,0,0,0,0,0,0,-1,629,449,0,0
-588,575,0,0,0,0,0,0,0,0,0,-1,636,449,0,0
-581,575,0,0,0,0,0,0,0,0,0,-1,643,449,0,0
-574,575,0,0,0,0,0,0,0,0,0,-1,650,449,0,0
-567,575,0,0,0,0,0,0,0,0,0,-1,657,449,0,0
-560,575,0,0,0,0,0,0,0,0,0,-1,664,449,0,0
-553,575,0,0,0,0,0,0,0,0,0,-1,671,449,0,0
-546,575,0,0,0,0,0,0,0,0,0,-1,678,449,0,0
-539,575,0,0,0,0,0,0,0,0,0,-1,685,449,0,0
-532,575,0,0,0,0,0,0,0,0,0,-1,692,449,0,0
-525,575,0,0,0,0,0,0,0,0,0,-1,699,449,0,0
-518,575,0,0,0,0,0,0,0,0,0,-1,706,449,0,0
-511,575,0,0,0,0,0,0,0,0,0,-1,713,449,0,0
-504,575,0,0,0,0,0,0,0,0,0,-1,720,449,0,0
-497,575,0,0,0,0,0,0,0,0,0,-1,727,449,0,0
-490,575,0,0,0,0,0,0,0,0,0,-1,734,449,0,0
-483,575,0,0,0,0,0,0,0,0,0,-1,741,449,0,0
-476,575,0,0,0,0,0,0,0,0,0,-1,748,449,0,0
-469,575,0,0,0,0,0,0,0,0,0,-1,755,449,0,0
-462,575,0,0,0,0,0,0,0,0,0,-1,762,449,0,0
-455,575,0,0,0,0,0,0,0,0,0,-1,769,449,0,0
-448,575,0,0,0,0,0,0,0,0,0,-1,776,449,0,0
-441,575,0,0,0,0,0,0,0,0,0,-1,783,449,0,0
-434,575,0,0,0,0,0,0,0,0,0,-1,790,449,0,0
-427,575,0,0,0,0,0,0,0,0,0,-1,797,449,0,0
-420,575,0,0,0,0,0,0,0,0,0,-1,804,449,0,0
-413,575,0,0,0,0,0,0,0,0,0,-1,811,449,0,0
-406,575,0,0,0,0,0,0,0,0,0,-1,818,449,0,0
-399,575,0,0,0,0,0,0,0,0,0,-1,825,449,0,0
-392,575,0,0,0,0,0,0,0,0,0,-1,832,449,0,0
-385,575,0,0,0,0,0,0,0,0,0,-1,839,449,0,0
-378,575,0,0,0,0,0,0,0,0,0,-1,846,449,0,0
-371,575,0.56897,-3.52304,0,0,0,0,0,0,0,-1,853,449,0.568955,3.52306
-364,575,1.49805,-4.67191,0,0,0,0,0,0,0,-1,860,449,1.49803,4.6719
-357,575,3.15521,-8.29892,0,0,0,0,0,0,0,-1,867,449,3.15521,8.29891
-350,575,2.76715,-7.23752,0,0,0,0,0,0,0,-1,874,449,2.76717,7.2375
-343,575,0.6922,-9.68082,0,0,0,0,0,0,0,-1,881,449,0.692185,9.68081
-336,575,2.28522,-11.753,0,0,0,0,0,0,0,-1,888,449,2.28521,11.753
-329,575,2.862,-11.7561,0,0,0,0,0,0,0,-1,895,449,2.86202,11.7561
-322,575,1.89618,-11.5171,0,0,0,0,0,0,0,-1,902,449,1.8962,11.5171
-315,575,1.15125,-11.8541,0.0187241,0.00876923,-0.0107404,0.0255843,0.001909,-0.568414,0.0164568,0.0417638,909,449,1.15128,11.8541
-308,575,1.58008,-12.2673,0.0159501,0.00876816,-0.0103557,0.0233198,0.00139849,-0.618504,0.0151019,0.0431304,916,449,1.58008,12.2673
-301,575,1.89203,-12.5398,0.0133253,0.00835976,-0.0098129,0.0209647,0.000720421,-0.661492,0.0137426,0.0332661,923,449,1.89206,12.5398
-294,575,1.86145,-12.7906,0.0108847,0.00753686,-0.00914502,0.0185077,-8.61809e-05,-0.69488,0.0123673,0.0245418,930,449,1.86147,12.7906
-287,575,1.8396,-13.0948,0.00894556,0.00646521,-0.00809002,0.0158899,-0.000479143,-0.709342,0.0107565,0.0172272,937,449,1.83957,13.0948
-280,575,1.8338,-13.3576,0.00750667,0.00512199,-0.00713225,0.0135456,-0.000916898,-0.702576,0.009351,0.0132742,944,449,1.83382,13.3576
-273,575,1.81946,-13.6317,0.00620025,0.00411936,-0.00619984,0.0114463,-0.00112674,-0.702264,0.00803286,0.0109978,951,449,1.81944,13.6316
-266,575,1.81329,-13.9279,0.00513898,0.00267463,-0.00529082,0.00933922,-0.0015256,-0.670993,0.00679203,0.0113575,958,449,1.81332,13.9279
-259,575,1.78577,-14.1861,0.00408147,0.0015421,-0.0042719,0.00726838,-0.00164481,-0.640947,0.00547681,0.0113884,965,449,1.78574,14.1861
-252,575,1.74506,-14.4351,0.00340875,0.000339594,-0.00331133,0.00552381,-0.00177547,-0.568414,0.00439556,0.0107019,972,449,1.74505,14.4351
-245,575,1.75049,-14.6846,0.00303143,-0.000512819,-0.00232377,0.0041817,-0.00166308,-0.459638,0.00347735,0.0132994,979,449,1.75049,14.6846
-238,575,1.75677,-14.9348,0.00254518,-0.00165827,-0.00117731,0.00285246,-0.00196555,-0.255307,0.00279735,0.0134955,986,449,1.75678,14.9348
-231,575,1.74445,-15.1603,0.00200831,-0.00243751,-0.000151074,0.00201343,-0.00244263,-0.033929,0.00257669,0.0117585,993,449,1.74447,15.1603
-224,575,1.7196,-15.3808,0.00140616,-0.00290071,0.000744392,0.00153119,-0.00302574,0.166409,0.0026777,0.0123105,1000,449,1.71958,15.3808
-217,575,1.72845,-15.612,0.000772106,-0.00330403,0.00159342,0.00132106,-0.00385299,0.33178,0.00310417,0.0103863,1007,449,1.72848,15.612
-210,575,1.76477,-15.8471,0.000263811,-0.00363602,0.00242345,0.00142441,-0.00479662,0.446628,0.0037635,0.00862016,1014,449,1.76479,15.8471
-203,575,1.7655,-16.0764,-0.000171357,-0.00334985,0.00294573,0.00158649,-0.00510769,0.538022,0.00403919,0.0113393,1021,449,1.76549,16.0764
-196,575,1.76563,-16.2962,-0.000449695,-0.00268128,0.00340689,0.00201946,-0.00515044,0.627147,0.00426908,0.0142409,1028,449,1.76559,16.2962
-189,575,1.77234,-16.5043,-0.000324179,-0.00197732,0.00350741,0.00245274,-0.00475423,0.669678,0.00423108,0.0149043,1035,449,1.77235,16.5043
-182,575,1.77368,-16.7141,-0.000134554,-0.000951541,0.00359206,0.00307217,-0.00415826,0.728781,0.00419016,0.0129651,1042,449,1.77365,16.7141
-175,575,1.77673,-16.887,0.000536046,-0.000149095,0.00344502,0.00365549,-0.00326854,0.735841,0.00399967,0.01093,1049,449,1.77678,16.887
-168,575,1.78223,-17.0724,0.00142704,0.000606718,0.00305973,0.00410398,-0.00207022,0.71877,0.00362856,0.0105993,1056,449,1.78227,17.0724
-161,575,1.80811,-17.2618,0.00246068,0.00102698,0.00231874,0.00417086,-0.000683192,0.635481,0.00303405,0.0147885,1063,449,1.80808,17.2618
-154,575,1.80298,-17.4303,0.00358928,0.00148208,0.00166074,0.00450244,0.000568919,0.502727,0.0028311,0.017114,1070,449,1.80293,17.4303
-147,575,1.83752,-17.5583,0.0050697,0.00151408,0.000932996,0.00529964,0.00128413,0.241645,0.00319234,0.0176966,1077,449,1.83757,17.5583
-140,575,1.76953,-17.7557,0,0,0,0,0,0,0,-1,1084,449,1.76955,17.7557
-133,575,1.80884,-18.0104,0,0,0,0,0,0,0,-1,1091,449,1.80886,18.0104
-126,575,1.94238,-17.7224,0.00955392,-0.000753096,-0.00235304,0.0100657,-0.00126487,-0.21416,0.00716938,0.0395293,1098,449,1.94243,17.7224
-119,575,2.04346,-17.7774,0.0107937,-0.00319101,-0.00315686,0.0114733,-0.0038706,-0.21204,0.00921414,0.038446,1105,449,2.04342,17.7774
-112,575,2.25549,-17.957,0.0121255,-0.00579753,-0.00403931,0.0129938,-0.00666581,-0.211734,0.0115448,0.0436995,1112,449,2.25546,17.957
-105,575,2.31042,-18.0956,0,0,0,0,0,0,0,-1,1119,449,2.31044,18.0956
-98,575,2.00879,-18.6416,0,0,0,0,0,0,0,-1,1126,449,2.00874,18.6416
-91,575,1.60803,-16.4247,0,0,0,0,0,0,0,-1,1133,449,1.60802,16.4247
-84,575,1.16553,-11.9056,0,0,0,0,0,0,0,-1,1140,449,1.16558,11.9056
-77,575,0.205078,-11.2584,0,0,0,0,0,0,0,-1,1147,449,0.205117,11.2584
-70,575,-4.2467,-1.78738,0,0,0,0,0,0,0,-1,1154,449,-4.24674,1.78739
-63,575,-4.52209,-3.48798,0,0,0,0,0,0,0,-1,1161,449,-4.5221,3.48796
-56,575,-5.5968,-5.4928,0,0,0,0,0,0,0,-1,1168,449,-5.59683,5.49281
-49,575,-5.96863,-7.17612,0,0,0,0,0,0,0,-1,1175,449,-5.96868,7.1761
-42,575,-0.830322,0.773499,0,0,0,0,0,0,0,-1,1182,449,-0.83038,-0.77351
-35,575,-0.62085,0.205139,0,0,0,0,0,0,0,-1,1189,449,-0.620855,-0.205126
-28,575,0.49292,-3.87988,0,0,0,0,0,0,0,-1,1196,449,0.492941,3.87989
-21,575,14.2568,-28.9987,0,0,0,0,0,0,0,-1,1203,449,14.2568,28.9987
-14,575,13.0215,-28.0076,0,0,0,0,0,0,0,-1,1210,449,13.0214,28.0076
-7,575,-2.20313,-21.1515,0,0,0,0,0,0,0,-1,1217,449,-2.20315,21.1515
0,575,1.9668,-21.8074,0,0,0,0,0,0,0,-1,1224,449,1.96682,21.8074
7,575,2.48926,-20.3023,0,0,0,0,0,0,0,-1,1231,449,2.48924,20.3023
14,575,2.65259,-19.5954,0,0,0,0,0,0,0,-1,1238,449,2.65258,19.5954
21,575,2.85864,-20.3336,0,0,0,0,0,0,0,-1,1245,449,2.85869,20.3336
28,575,2.51575,-20.2987,0.0511246,0.0453336,0.0690186,0.117308,-0.0208502,0.764434,0.0860023,0.0422868,1252,449,2.5158,20.2987
35,575,2.23999,-19.7545,0.0572282,0.0277041,0.0565368,0.100898,-0.0159661,0.657697,0.0731706,0.0436849,1259,449,2.23999,19.7545
42,575,3.0697,-19.9749,0,0,0,0,0,0,0,-1,1266,449,3.06969,19.9749
49,575,2.77612,-19.0148,0.0709863,-0.00583414,0.0300395,0.081338,-0.0161858,0.331856,0.0603485,0.0445826,1273,449,2.77618,19.0148
56,575,3.55798,-19.6353,0.0774142,-0.0169015,0.0154756,0.0798885,-0.0193759,0.158546,0.0607564,0.0444839,1280,449,3.55798,19.6353
63,575,4.42688,-20.7039,0.0832466,-0.0271338,0.000170907,0.0832469,-0.0271341,0.00154834,0.0664166,0.0448912,1287,449,4.42685,20.7039
70,575,5.49609,-22.0545,0.0970298,-0.0317788,-0.00819283,0.0975488,-0.0322978,-0.0632649,0.0780585,0.0472553,1294,449,5.49605,22.0545
77,575,6.36499,-23.0025,0.112194,-0.0352096,-0.0115813,0.113098,-0.036114,-0.0779316,0.0898884,0.0474976,1301,449,6.36505,23.0025
84,575,7.24512,-23.9762,0.120854,-0.0328602,-0.0164403,0.122592,-0.0345989,-0.105366,0.0953766,0.0489521,1308,449,7.24515,23.9762
91,575,6.89319,-25.1751,0.128493,-0.030278,-0.0203203,0.131052,-0.0328374,-0.125294,0.100125,0.0486819,1315,449,6.89323,25.1751
98,575,7.60449,-26.2483,0,0,0,0,0,0,0,-1,1322,449,7.60455,26.2483
105,575,9.06274,-28.0929,0.133477,-0.0209478,-0.020496,0.136151,-0.0236218,-0.129733,0.0995798,0.0418389,1329,449,9.06279,28.0929
112,575,9.4231,-29.416,0.133479,-0.012703,-0.0165481,0.135329,-0.0145529,-0.111325,0.0954409,0.0440729,1336,449,9.42312,29.4161
119,575,9.77832,-30.735,0.129331,-0.00499006,-0.0120816,0.130409,-0.0060681,-0.088994,0.089031,0.0455795,1343,449,9.77833,30.7351
126,575,4.38647,-16.3792,0.119697,-0.00255686,-0.00823451,0.120249,-0.00310901,-0.0669529,0.0812221,0.0469835,1350,449,4.38648,16.3792
133,575,4.02173,-17.6725,0.105188,-0.00210445,-0.00550694,0.105469,-0.00238637,-0.0511475,0.0711218,0.04674,1357,449,4.02176,17.6725
140,575,3.65564,-18.7169,0.0870703,-0.00495417,-0.00555929,0.0874049,-0.0052888,-0.0601196,0.0601105,0.0447929,1364,449,3.65564,18.7169
147,575,3.15173,-20.0721,0.0666898,-0.0106804,-0.00791222,0.0674906,-0.0114813,-0.100873,0.0492688,0.0459373,1371,449,3.15171,20.0721
154,575,2.68799,-21.3189,0,0,0,0,0,0,0,-1,1378,449,2.68801,21.3189
161,575,5.66675,-21.2715,0,0,0,0,0,0,0,-1,1385,449,5.66676,21.2715
168,575,0.931152,-15.5912,0,0,0,0,0,0,0,-1,1392,449,0.931185,15.5912
175,575,4.32617,1.93634,0,0,0,0,0,0,0,-1,1399,449,4.32612,-1.93634
182,575,6.3147,-2.88345,0,0,0,0,0,0,0,-1,1406,449,6.31466,2.88346
189,575,6.10449,-1.30817,0,0,0,0,0,0,0,-1,1413,449,6.10455,1.30817
196,575,5.79895,0.818359,0,0,0,0,0,0,0,-1,1420,449,5.79895,-0.81837
203,575,3.29724,-1.46378,0,0,0,0,0,0,0,-1,1427,449,3.29722,1.46377
210,575,2.32739,-7.74503,0,0,0,0,0,0,0,-1,1434,449,2.32741,7.74502
217,575,3.33618,-11.5521,0,0,0,0,0,0,0,-1,1441,449,3.3362,11.5521
224,575,5.51709,-16.3903,0,0,0,0,0,0,0,-1,1448,449,5.51713,16.3903
231,575,4.48083,-18.1829,0,0,0,0,0,0,0,-1,1455,449,4.48086,18.1829
238,575,4.4679,-18.0514,0,0,0,0,0,0,0,-1,1462,449,4.46786,18.0514
245,575,4.48901,-18.2464,0,0,0,0,0,0,0,-1,1469,449,4.489,18.2464
252,575,4.65356,-17.8617,0,0,0,0,0,0,0,-1,1476,449,4.65354,17.8617
259,575,4.56482,-17.6536,0,0,0,0,0,0,0,-1,1483,449,4.56477,17.6536
266,575,4.53735,-17.46,0,0,0,0,0,0,0,-1,1490,449,4.5374,17.46
273,575,4.62732,-17.0704,0,0,0,0,0,0,0,-1,1497,449,4.62734,17.0704
280,575,4.64355,-16.772,0,0,0,0,0,0,0,-1,1504,449,4.64354,16.772
287,575,4.65723,-16.5425,0.0023567,0.00195987,-0.000437707,0.00263886,0.00167771,-0.572601,0.00154216,0.0206094,1511,449,4.65721,16.5425
294,575,4.70276,-16.3058,0.00208339,0.00125279,-0.000762844,0.00253665,0.000799522,-0.536126,0.00149751,0.0105072,1518,449,4.7027,16.3058
301,575,4.70984,-16.0706,0.00162932,0.000510626,-0.000933983,0.00215864,-1.86922e-05,-0.515598,0.00144537,0.00934086,1525,449,4.70986,16.0706
308,575,4.73584,-15.8446,0.00127263,2.5968e-05,-0.00102924,0.00185257,-0.000553979,-0.513127,0.00145529,0.0100886,1532,449,4.73586,15.8446
315,575,4.73901,-15.6285,0.00107809,-0.000199941,-0.00103377,0.0016544,-0.000776255,-0.508573,0.00143354,0.0104592,1539,449,4.73905,15.6285
322,575,4.76038,-15.3935,0.0008296,-0.000264805,-0.000944226,0.00137372,-0.000808929,-0.522784,0.00127414,0.0096349,1546,449,4.76036,15.3935
329,575,4.74597,-15.1599,0.00057897,-0.000154273,-0.000775356,0.00107001,-0.000645316,-0.564555,0.00100041,0.0105556,1553,449,4.74595,15.1599
336,575,4.73413,-14.9035,0.000338994,7.09782e-05,-0.000554723,0.000775666,-0.000365694,-0.666881,0.000672985,0.0125822,1560,449,4.73414,14.9035
343,575,4.76306,-14.6349,0.000102849,0.000394603,-0.000302478,0.000584543,-8.7091e-05,-1.01008,0.000421734,0.0122263,1567,449,4.76305,14.6349
350,575,4.76331,-14.3799,-4.63877e-05,0.000849409,4.89009e-05,0.00085207,-4.90493e-05,1.51642,0.000585082,0.0112927,1574,449,4.76334,14.3799
357,575,4.74011,-14.1299,-0.000208466,0.00135084,0.000419214,0.0014564,-0.000314024,1.32412,0.00109078,0.0105538,1581,449,4.74013,14.1299
364,575,4.7179,-13.8711,-0.000419529,0.00200895,0.000781843,0.00223889,-0.000649469,1.28476,0.00174974,0.0103802,1588,449,4.71786,13.8711
371,575,4.70459,-13.6189,-0.000581076,0.00262537,0.00116082,0.0030015,-0.000957204,1.25745,0.00238498,0.0196834,1595,449,4.70464,13.6189
378,575,4.69385,-13.3293,-0.000797255,0.00321458,0.00145367,0.00368593,-0.00126861,1.25724,0.00297183,0.0173548,1602,449,4.6938,13.3293
385,575,4.69165,-13.0482,-0.00114228,0.00369688,0.00151567,0.0041324,-0.0015778,1.29099,0.00340499,0.0106974,1609,449,4.69167,13.0482
392,575,4.68689,-12.7594,-0.00148493,0.00403896,0.0015491,0.00444372,-0.0018897,1.31522,0.0037544,0.00947515,1616,449,4.68684,12.7594
399,575,4.68884,-12.4976,-0.00181411,0.00417729,0.00146186,0.00451495,-0.00215177,1.3438,0.00392881,0.009881,1623,449,4.68884,12.4976
406,575,4.69324,-12.2006,-0.00230736,0.00409469,0.0013698,0.00437546,-0.00258813,1.36862,0.00406434,0.0110216,1630,449,4.69327,12.2006
413,575,4.67615,-11.8866,-0.00310888,0.00364342,0.00108146,0.0038124,-0.00327786,1.4158,0.00409744,0.012494,1637,449,4.67619,11.8866
420,575,4.65247,-11.5809,-0.00361018,0.00226954,0.00100465,0.00243647,-0.00377711,1.40615,0.00361513,0.0133214,1644,449,4.65248,11.5809
427,575,4.60107,-11.3262,-0.00376102,0.000322228,0.00124938,0.000674176,-0.00411296,1.29621,0.00299213,0.019754,1651,449,4.60109,11.3262
434,575,4.41919,-11.1008,-0.0040252,-0.0015891,0.00132783,-0.00100528,-0.00460903,1.15655,0.00279845,0.0306589,1658,449,4.41915,11.1008
441,575,4.46814,-10.8167,0,0,0,0,0,0,0,-1,1665,449,4.46813,10.8167
448,575,4.53406,-10.4366,0,0,0,0,0,0,0,-1,1672,449,4.5341,10.4366
455,575,4.84131,-9.07938,0,0,0,0,0,0,0,-1,1679,449,4.84128,9.07938
462,575,4.34033,-10.9056,0,0,0,0,0,0,0,-1,1686,449,4.34028,10.9056
469,575,4.73425,-10.0624,0,0,0,0,0,0,0,-1,1693,449,4.73429,10.0625
476,575,4.62793,-9.54315,0,0,0,0,0,0,0,-1,1700,449,4.62798,9.54317
483,575,5.56714,-8.63892,0,0,0,0,0,0,0,-1,1707,449,5.56714,8.63892
490,575,5.37744,-8.57776,0,0,0,0,0,0,0,-1,1714,449,5.37748,8.57775
497,575,0,0,0,0,0,0,0,0,0,-1,1721,449,0,0
504,575,0,0,0,0,0,0,0,0,0,-1,1728,449,0,0
511,575,0,0,0,0,0,0,0,0,0,-1,1735,449,0,0
518,575,0,0,0,0,0,0,0,0,0,-1,1742,449,0,0
525,575,0,0,0,0,0,0,0,0,0,-1,1749,449,0,0
532,575,0,0,0,0,0,0,0,0,0,-1,1756,449,0,0
539,575,0,0,0,0,0,0,0,0,0,-1,1763,449,0,0
546,575,0,0,0,0,0,0,0,0,0,-1,1770,449,0,0
553,575,0,0,0,0,0,0,0,0,0,-1,1777,449,0,0
560,575,0,0,0,0,0,0,0,0,0,-1,1784,449,0,0
567,575,0,0,0,0,0,0,0,0,0,-1,1791,449,0,0
574,575,0,0,0,0,0,0,0,0,0,-1,1798,449,0,0
581,575,0,0,0,0,0,0,0,0,0,-1,1805,449,0,0
588,575,0,0,0,0,0,0,0,0,0,-1,1812,449,0,0
595,575,0,0,0,0,0,0,0,0,0,-1,1819,449,0,0
602,575,0,0,0,0,0,0,0,0,0,-1,1826,449,0,0
609,575,0,0,0,0,0,0,0,0,0,-1,1833,449,0,0
616,575,0,0,0,0,0,0,0,0,0,-1,1840,449,0,0
623,575,0,0,0,0,0,0,0,0,0,-1,1847,449,0,0
630,575,0,0,0,0,0,0,0,0,0,-1,1854,449,0,0
637,575,0,0,0,0,0,0,0,0,0,-1,1861,449,0,0
644,575,0,0,0,0,0,0,0,0,0,-1,1868,449,0,0
651,575,0,0,0,0,0,0,0,0,0,-1,1875,449,0,0
658,575,0,0,0,0,0,0,0,0,0,-1,1882,449,0,0
665,575,0,0,0,0,0,0,0,0,0,-1,1889,449,0,0
672,575,0,0,0,0,0,0,0,0,0,-1,1896,449,0,0
679,575,0,0,0,0,0,0,0,0,0,-1,1903,449,0,0
686,575,0,0,0,0,0,0,0,0,0,-1,1910,449,0,0
693,575,0,0,0,0,0,0,0,0,0,-1,1917,449,0,0
700,575,0,0,0,0,0,0,0,0,0,-1,1924,449,0,0
707,575,0,0,0,0,0,0,0,0,0,-1,1931,449,0,0
714,575,0,0,0,0,0,0,0,0,0,-1,1938,449,0,0
721,575,0,0,0,0,0,0,0,0,0,-1,1945,449,0,0
728,575,0,0,0,0,0,0,0,0,0,-1,1952,449,0,0
735,575,0,0,0,0,0,0,0,0,0,-1,1959,449,0,0
742,575,0,0,0,0,0,0,0,0,0,-1,1966,449,0,0
749,575,0,0,0,0,0,0,0,0,0,-1,1973,449,0,0
756,575,0,0,0,0,0,0,0,0,0,-1,1980,449,0,0
763,575,0,0,0,0,0,0,0,0,0,-1,1987,449,0,0
770,575,0,0,0,0,0,0,0,0,0,-1,1994,449,0,0
777,575,0,0,0,0,0,0,0,0,0,-1,2001,449,0,0
784,575,0,0,0,0,0,0,0,0,0,-1,2008,449,0,0
791,575,0,0,0,0,0,0,0,0,0,-1,2015,449,0,0
798,575,0,0,0,0,0,0,0,0,0,-1,2022,449,0,0
805,575,0,0,0,0,0,0,0,0,0,-1,2029,449,0,0
812,575,0,0,0,0,0,0,0,0,0,-1,2036,449,0,0
-700,568,0,0,0,0,0,0,0,0,0,-1,524,456,0,0
-693,568,0,0,0,0,0,0,0,0,0,-1,531,456,0,0
-686,568,0,0,0,0,0,0,0,0,0,-1,538,456,0,0
-679,568,0,0,0,0,0,0,0,0,0,-1,545,456,0,0
-672,568,0,0,0,0,0,0,0,0,0,-1,552,456,0,0
-665,568,0,0,0,0,0,0,0,0,0,-1,559,456,0,0
-658,568,0,0,0,0,0,0,0,0,0,-1,566,456,0,0
-651,568,0,0,0,0,0,0,0,0,0,-1,573,456,0,0
-644,568,0,0,0,0,0,0,0,0,0,-1,580,456,0,0
-637,568,0,0,0,0,0,0,0,0,0,-1,587,456,0,0
-630,568,0,0,0,0,0,0,0,0,0,-1,594,456,0,0
-623,568,0,0,0,0,0,0,0,0,0,-1,601,456,0,0
-616,568,0,0,0,0,0,0,0,0,0,-1,608,456,0,0
-609,568,0,0,0,0,0,0,0,0,0,-1,615,456,0,0
-602,568,0,0,0,0,0,0,0,0,0,-1,622,456,0,0
-595,568,0,0,0,0,0,0,0,0,0,-1,629,456,0,0
-588,568,0,0,0,0,0,0,0,0,0,-1,636,456,0,0
-581,568,0,0,0,0,0,0,0,0,0,-1,643,456,0,0
-574,568,0,0,0,0,0,0,0,0,0,-1,650,456,0,0
-567,568,0,0,0,0,0,0,0,0,0,-1,657,456,0,0
-560,568,0,0,0,0,0,0,0,0,0,-1,664,456,0,0
-553,568,0,0,0,0,0,0,0,0,0,-1,671,456,0,0
-546,568,0,0,0,0,0,0,0,0,0,-1,678,456,0,0
-539,568,0,0,0,0,0,0,0,0,0,-1,685,456,0,0
-532,568,0,0,0,0,0,0,0,0,0,-1,692,456,0,0
-525,568,0,0,0,0,0,0,0,0,0,-1,699,456,0,0
-518,568,0,0,0,0,0,0,0,0,0,-1,706,456,0,0
-511,568,0,0,0,0,0,0,0,0,0,-1,713,456,0,0
-504,568,0,0,0,0,0,0,0,0,0,-1,720,456,0,0
-497,568,0,0,0,0,0,0,0,0,0,-1,727,456,0,0
-490,568,0,0,0,0,0,0,0,0,0,-1,734,456,0,0
-483,568,0,0,0,0,0,0,0,0,0,-1,741,456,0,0
-476,568,0,0,0,0,0,0,0,0,0,-1,748,456,0,0
-469,568,0,0,0,0,0,0,0,0,0,-1,755,456,0,0
-462,568,0,0,0,0,0,0,0,0,0,-1,762,456,0,0
-455,568,0,0,0,0,0,0,0,0,0,-1,769,456,0,0
-448,568,0,0,0,0,0,0,0,0,0,-1,776,456,0,0
-441,568,0,0,0,0,0,0,0,0,0,-1,783,456,0,0
-434,568,0,0,0,0,0,0,0,0,0,-1,790,456,0,0
-427,568,0,0,0,0,0,0,0,0,0,-1,797,456,0,0
-420,568,0,0,0,0,0,0,0,0,0,-1,804,456,0,0
-413,568,0,0,0,0,0,0,0,0,0,-1,811,456,0,0
-406,568,0,0,0,0,0,0,0,0,0,-1,818,456,0,0
-399,568,0,0,0,0,0,0,0,0,0,-1,825,456,0,0
-392,568,0,0,0,0,0,0,0,0,0,-1,832,456,0,0
-385,568,0,0,0,0,0,0,0,0,0,-1,839,456,0,0
-378,568,0.321777,-7.29929,0,0,0,0,0,0,0,-1,846,456,0.321806,7.29927
-371,568,1.09595,-7.46707,0,0,0,0,0,0,0,-1,853,456,1.09597,7.46707
-364,568,1.87787,-7.61115,0,0,0,0,0,0,0,-1,860,456,1.87784,7.61116
-357,568,2.14166,-7.67645,0,0,0,0,0,0,0,-1,867,456,2.14167,7.67646
-350,568,2.40472,-8.64417,0,0,0,0,0,0,0,-1,874,456,2.4047,8.64415
-343,568,2.67731,-8.79678,0,0,0,0,0,0,0,-1,881,456,2.67729,8.79678
-336,568,1.27155,-11.4473,0,0,0,0,0,0,0,-1,888,456,1.27157,11.4473
-329,568,1.54376,-11.4145,0,0,0,0,0,0,0,-1,895,456,1.54379,11.4145
-322,568,1.64532,-11.6058,0.0145651,0.00626308,-0.00866891,0.0200256,0.000802588,-0.56211,0.0130911,0.0395703,902,456,1.64531,11.6058
-315,568,1.65308,-11.8396,0.0129022,0.00647165,-0.00819915,0.018494,0.000879875,-0.59854,0.0120467,0.0363969,909,456,1.65308,11.8396
-308,568,1.60809,-12.2523,0.0111853,0.00646062,-0.00779934,0.0169722,0.000673703,-0.638345,0.0110971,0.027704,916,456,1.60809,12.2524
-301,568,1.61237,-12.5385,0.0094657,0.00617727,-0.00729769,0.0153021,0.000340863,-0.674595,0.0100897,0.0151908,923,456,1.61235,12.5385
-294,568,1.59686,-12.8012,0.00782789,0.00560849,-0.00670228,0.0135117,-7.53319e-05,-0.703357,0.00903302,0.0108434,930,456,1.59689,12.8012
-287,568,1.58655,-13.1013,0.00635457,0.0048957,-0.00590188,0.0115719,-0.000321658,-0.723913,0.00782404,0.0102861,937,456,1.58653,13.1013
-280,568,1.57159,-13.3716,0.00515497,0.00403897,-0.00522342,0.00985012,-0.000656172,-0.732187,0.00679603,0.0111933,944,456,1.57158,13.3716
-273,568,1.56799,-13.65,0.00413886,0.00327803,-0.00450946,0.0082384,-0.000821507,-0.737818,0.00578558,0.0119208,951,456,1.56798,13.65
-266,568,1.56311,-13.9401,0.0034157,0.00222229,-0.00382735,0.00669258,-0.00105459,-0.708068,0.00485161,0.0110606,958,456,1.56312,13.9401
-259,568,1.53381,-14.1976,0.00268369,0.00132279,-0.00301412,0.00509322,-0.00108673,-0.674382,0.00380974,0.01195,965,456,1.53379,14.1976
-252,568,1.50177,-14.4416,0.00217153,0.000335342,-0.00225106,0.00368452,-0.00117765,-0.591771,0.00292891,0.0125177,972,456,1.50177,14.4416
-245,568,1.51251,-14.6738,0.00188524,-0.000509133,-0.00139625,0.00252729,-0.00115118,-0.431002,0.00217273,0.0139993,979,456,1.51252,14.6738
-238,568,1.5307,-14.919,0.0015185,-0.0017316,-0.000300848,0.00154611,-0.00175922,-0.0915295,0.00190965,0.0126766,986,456,1.53071,14.919
-231,568,1.50861,-15.1534,0.00110266,-0.00272046,0.000730034,0.00123732,-0.00285511,0.182405,0.00242353,0.0116938,993,456,1.50862,15.1534
-224,568,1.48468,-15.373,0.000609359,-0.00346674,0.00169942,0.00122493,-0.0040823,0.347521,0.00320875,0.0136297,1000,456,1.4847,15.373
-217,568,1.50378,-15.6061,3.87868e-05,-0.00420249,0.00269333,0.00134614,-0.00550985,0.451903,0.00419458,0.0115104,1007,456,1.50377,15.6061
-210,568,1.52917,-15.8524,-0.000427263,-0.00484247,0.00369514,0.00166951,-0.00693923,0.516133,0.00527153,0.0106483,1014,456,1.52918,15.8525
-203,568,1.53894,-16.0619,-0.000843933,-0.00467385,0.00434343,0.00198795,-0.00750573,0.577774,0.00578154,0.00960485,1021,456,1.53892,16.0619
-196,568,1.56238,-16.2557,-0.00109985,-0.00397922,0.00497612,0.00264066,-0.00771973,0.644584,0.00621656,0.0124809,1028,456,1.56239,16.2557
-189,568,1.55786,-16.4673,-0.000888173,-0.00317675,0.00517537,0.0032679,-0.00733282,0.676597,0.00626853,0.012483,1035,456,1.55792,16.4672
-182,568,1.56433,-16.6742,-0.000703283,-0.00179719,0.00539962,0.00417702,-0.00667749,0.734923,0.00632204,0.0131059,1042,456,1.56439,16.6742
-175,568,1.58081,-16.8647,9.92446e-05,-0.000559464,0.00522111,0.00500137,-0.00546159,0.753899,0.00604274,0.0121356,1049,456,1.58076,16.8647
-168,568,1.57654,-17.0256,0.00121362,0.000821842,0.00472223,0.00574403,-0.00370856,0.764669,0.00549947,0.0164883,1056,456,1.57648,17.0256
-161,568,1.57361,-17.1809,0.0025529,0.00188377,0.00370818,0.00594158,-0.00150491,0.740409,0.00454648,0.0271719,1063,456,1.57366,17.1809
-154,568,1.64697,-17.5078,0.00399006,0.00305095,0.00275043,0.00631073,0.000730278,0.700853,0.00398609,0.0381637,1070,456,1.64703,17.5079
-147,568,1.77368,-17.705,0.00588527,0.00359317,0.0016496,0.00674786,0.00273058,0.481804,0.00391942,0.0441224,1077,456,1.77373,17.7051
-140,568,1.86157,-17.8376,0.00804391,0.00368907,7.98754e-05,0.00804538,0.00368761,0.0183335,0.00465037,0.0452458,1084,456,1.86157,17.8376
-133,568,2.0365,-18.1445,0,0,0,0,0,0,0,-1,1091,456,2.03648,18.1445
-126,568,2.11938,-18.4292,0,0,0,0,0,0,0,-1,1098,456,2.11937,18.4292
-119,568,1.95178,-17.2688,0,0,0,0,0,0,0,-1,1105,456,1.95182,17.2688
-112,568,2.40173,-17.5178,0,0,0,0,0,0,0,-1,1112,456,2.4017,17.5178
-105,568,0.272095,-16.297,0,0,0,0,0,0,0,-1,1119,456,0.272141,16.297
-98,568,1.58618,-14.7874,0,0,0,0,0,0,0,-1,1126,456,1.58617,14.7874
-91,568,1.11621,-11.1853,0,0,0,0,0,0,0,-1,1133,456,1.11626,11.1853
-84,568,0.461792,-9.7959,0,0,0,0,0,0,0,-1,1140,456,0.461793,9.7959
-77,568,-1.13806,-8.57822,0,0,0,0,0,0,0,-1,1147,456,-1.13807,8.57821
-70,568,-4.09766,-1.42911,0,0,0,0,0,0,0,-1,1154,456,-4.09767,1.4291
-63,568,-5.92273,-3.70752,0,0,0,0,0,0,0,-1,1161,456,-5.92272,3.70751
-56,568,-5.24158,-6.01385,0,0,0,0,0,0,0,-1,1168,456,-5.24161,6.01386
-49,568,-5.24365,-8.33557,0,0,0,0,0,0,0,-1,1175,456,-5.24371,8.33557
-42,568,-0.664795,0.521973,0,0,0,0,0,0,0,-1,1182,456,-0.664829,-0.521984
-35,568,-0.153076,-1.67731,0,0,0,0,0,0,0,-1,1189,456,-0.153068,1.67731
-28,568,1.25439,-4.48798,0,0,0,0,0,0,0,-1,1196,456,1.2544,4.48797
-21,568,14.595,-27.423,0,0,0,0,0,0,0,-1,1203,456,14.595,27.423
-14,568,13.335,-26.213,0,0,0,0,0,0,0,-1,1210,456,13.3349,26.213
-7,568,-0.652954,-24.3413,0,0,0,0,0,0,0,-1,1217,456,-0.652985,24.3413
0,568,-0.14917,-22.9548,0,0,0,0,0,0,0,-1,1224,456,-0.149126,22.9548
7,568,0.286377,-21.6347,0.0563137,0.123633,0.133467,0.227619,-0.0476725,0.90892,0.169881,0.0456442,1231,456,0.286328,21.6347
14,568,0.831299,-20.7095,0.056791,0.105873,0.121192,0.204984,-0.0423197,0.885296,0.15273,0.0449579,1238,456,0.831315,20.7095
21,568,1.21021,-19.7785,0.0584937,0.0855853,0.108447,0.18133,-0.0372505,0.84753,0.135027,0.0439519,1245,456,1.21022,19.7785
28,568,1.84399,-20.3469,0.0627625,0.0633029,0.0936338,0.156667,-0.0306015,0.786841,0.115998,0.0416293,1252,456,1.84395,20.3469
35,568,1.68762,-19.4494,0.070001,0.040611,0.0773929,0.134082,-0.0234697,0.691578,0.0981509,0.0451216,1259,456,1.68759,19.4494
42,568,1.68848,-18.9654,0,0,0,0,0,0,0,-1,1266,456,1.68842,18.9654
49,568,3.17468,-18.3741,0.0867447,-0.00221679,0.0430961,0.104198,-0.01967,0.384794,0.0768655,0.0446103,1273,456,3.17465,18.374
56,568,3.1792,-19.2365,0.0941585,-0.0159457,0.0248142,0.0994925,-0.0212797,0.211735,0.0744423,0.044445,1280,456,3.17926,19.2364
63,568,3.47571,-20.6432,0.100628,-0.0286807,0.00599195,0.100905,-0.0289578,0.0462063,0.0787186,0.0440008,1287,456,3.47576,20.6433
70,568,3.89392,-22.1952,0.116018,-0.0380737,-0.00488132,0.116172,-0.0382282,-0.0316358,0.0928522,0.0452834,1294,456,3.89396,22.1952
77,568,4.73657,-23.6837,0.132784,-0.0464593,-0.0106446,0.133414,-0.0470893,-0.0591095,0.108113,0.0464114,1301,456,4.73655,23.6837
84,568,7.13696,-23.216,0.142718,-0.0462583,-0.0168167,0.144203,-0.0477431,-0.0880661,0.11539,0.0489546,1308,456,7.13692,23.216
91,568,6.43542,-24.7693,0,0,0,0,0,0,0,-1,1315,456,6.4354,24.7693
98,568,8.87183,-26.6588,0.15591,-0.0433507,-0.0238751,0.158731,-0.0461714,-0.117601,0.124108,0.0439943,1322,456,8.87179,26.6588
105,568,9.38794,-27.9598,0.158466,-0.0384854,-0.0232899,0.161183,-0.041202,-0.116119,0.123502,0.0447955,1329,456,9.38792,27.9598
112,568,9.81689,-28.9879,0.158799,-0.029525,-0.0186318,0.160624,-0.0313506,-0.0976735,0.118919,0.0460061,1336,456,9.81692,28.9879
119,568,10.5168,-30.1671,0.15395,-0.021106,-0.0133755,0.154966,-0.0221221,-0.0758207,0.111419,0.0451822,1343,456,10.5169,30.1671
126,568,4.45715,-16.5089,0.142022,-0.018216,-0.00890454,0.142515,-0.0187093,-0.0553437,0.101821,0.0481873,1350,456,4.45719,16.5089
133,568,4.37415,-18.3043,0.123748,-0.0172717,-0.00610171,0.124011,-0.0175352,-0.0431611,0.0890963,0.0499483,1357,456,4.37412,18.3043
140,568,4.04529,-19.1689,0.0998658,-0.0202801,-0.00689526,0.10026,-0.0206746,-0.0571406,0.0746916,0.0481106,1364,456,4.04524,19.1689
147,568,3.00537,-19.6802,0.0717945,-0.0262474,-0.0106569,0.0729395,-0.0273924,-0.107032,0.0598832,0.046031,1371,456,3.00533,19.6802
154,568,2.13904,-20.0547,0.0458565,-0.0313957,-0.0161123,0.0490823,-0.0346215,-0.197595,0.0485662,0.0441269,1378,456,2.13909,20.0547
161,568,1.17004,-20.6263,0,0,0,0,0,0,0,-1,1385,456,1.17002,20.6263
168,568,-0.458252,-13.0519,0,0,0,0,0,0,0,-1,1392,456,-0.458298,13.0519
175,568,10.5151,0.747498,0,0,0,0,0,0,0,-1,1399,456,10.5152,-0.747501
182,568,6.35095,-3.63361,0,0,0,0,0,0,0,-1,1406,456,6.35093,3.63359
189,568,6.17493,-1.70911,0,0,0,0,0,0,0,-1,1413,456,6.17497,1.70911
196,568,6.04724,0.200836,0,0,0,0,0,0,0,-1,1420,456,6.04724,-0.200835
203,568,5.9281,2.08649,0,0,0,0,0,0,0,-1,1427,456,5.92812,-2.08648
210,568,1.46216,-2.50446,0,0,0,0,0,0,0,-1,1434,456,1.46219,2.50446
217,568,2.62366,-7.86703,0,0,0,0,0,0,0,-1,1441,456,2.62365,7.86704
224,568,3.43494,-12.1555,0,0,0,0,0,0,0,-1,1448,456,3.43492,12.1555
231,568,4.38245,-9.3205,0,0,0,0,0,0,0,-1,1455,456,4.38244,9.32048
238,568,3.88123,-9.43616,0,0,0,0,0,0,0,-1,1462,456,3.88117,9.43617
245,568,3.34387,-10.6774,0,0,0,0,0,0,0,-1,1469,456,3.34389,10.6774
252,568,3.56946,-9.28928,0,0,0,0,0,0,0,-1,1476,456,3.56948,9.28928
259,568,3.38843,-8.73068,0,0,0,0,0,0,0,-1,1483,456,3.38842,8.73068
266,568,3.104,-9.16876,0,0,0,0,0,0,0,-1,1490,456,3.10397,9.16876
273,568,3.77869,-13.1147,0,0,0,0,0,0,0,-1,1497,456,3.77869,13.1147
280,568,4.40002,-14.9322,0,0,0,0,0,0,0,-1,1504,456,4.4,14.9322
287,568,4.90698,-16.6235,0,0,0,0,0,0,0,-1,1511,456,4.90696,16.6235
294,568,4.96362,-16.2658,0.0025571,0.00109662,-0.00110535,0.00315164,0.000502072,-0.493489,0.00195534,0.0301781,1518,456,4.96368,16.2658
301,568,4.93884,-16.0618,0.00200223,0.000153218,-0.00141994,0.00277211,-0.000616657,-0.496827,0.00208426,0.0206904,1525,456,4.93884,16.0618
308,568,4.9519,-15.825,0.00151828,-0.000529651,-0.00168758,0.00246826,-0.00147962,-0.512708,0.00230301,0.0129314,1532,456,4.95189,15.825
315,568,4.96765,-15.609,0.00124576,-0.000871526,-0.00180499,0.00227966,-0.00190542,-0.520178,0.00241948,0.00769663,1539,456,4.9676,15.609
322,568,4.98535,-15.381,0.000940065,-0.00101629,-0.00178972,0.00200148,-0.0020777,-0.535302,0.00235525,0.00934186,1546,456,4.9853,15.381
329,568,4.99463,-15.1389,0.000641237,-0.000911982,-0.00167942,0.00171491,-0.00198566,-0.568827,0.00213843,0.010048,1553,456,4.99467,15.1389
336,568,5.00403,-14.8886,0.000356367,-0.000720383,-0.00149276,0.00140487,-0.00176889,-0.61233,0.00183638,0.0108204,1560,456,5.00399,14.8886
343,568,5.04004,-14.6407,7.82986e-05,-0.00043292,-0.0012541,0.00110257,-0.00145719,-0.684865,0.0014826,0.0113666,1567,456,5.03999,14.6407
350,568,5.03479,-14.4066,-8.90416e-05,-8.52266e-05,-0.000919695,0.000832563,-0.00100683,-0.786435,0.00106356,0.0101293,1574,456,5.03476,14.4066
357,568,5.00745,-14.1301,-0.000221975,0.000349272,-0.000546615,0.000680389,-0.000553092,-1.02615,0.000713414,0.00926901,1581,456,5.00739,14.1301
364,568,5.00073,-13.8818,-0.000374245,0.000919158,-0.000140801,0.000934309,-0.000389395,-1.46361,0.000785529,0.0115971,1588,456,5.00069,13.8818
371,568,5.00391,-13.599,-0.000486535,0.00144443,0.000282919,0.00148503,-0.000527133,1.42827,0.0012048,0.0216921,1595,456,5.00387,13.599
378,568,4.97522,-13.3163,-0.000615,0.00194874,0.000629725,0.00209507,-0.000761326,1.34248,0.00170802,0.0186466,1602,456,4.97526,13.3163
385,568,4.95935,-13.0511,-0.000821408,0.00241723,0.000803927,0.00260581,-0.00100999,1.34039,0.00215429,0.00893825,1609,456,4.9593,13.0511
392,568,4.95239,-12.7776,-0.00104341,0.00273387,0.000955336,0.00296174,-0.00127129,1.33664,0.00250806,0.0104988,1616,456,4.95237,12.7776
399,568,4.93665,-12.5279,-0.00124964,0.0028695,0.000977897,0.00308987,-0.00147001,1.34915,0.00268745,0.0173013,1623,456,4.93669,12.5279
406,568,4.95313,-12.2166,-0.00158791,0.00282221,0.000990076,0.00303429,-0.00179999,1.35978,0.00282123,0.0160349,1630,456,4.95316,12.2167
413,568,4.94824,-11.8882,-0.0021694,0.00251323,0.000864885,0.00266787,-0.00232403,1.39387,0.00288436,0.0123486,1637,456,4.94824,11.8881
420,568,4.93079,-11.5734,-0.00253593,0.00147381,0.000876414,0.001657,-0.00271912,1.36474,0.00255124,0.0102459,1644,456,4.93076,11.5734
427,568,4.91809,-11.2664,-0.00263108,3.46619e-05,0.00112578,0.000446475,-0.00304289,1.22011,0.00219263,0.0121707,1651,456,4.91814,11.2665
434,568,4.90845,-11.006,-0.00281266,-0.00143451,0.00125172,-0.000694734,-0.00355244,1.03701,0.00217404,0.0165447,1658,456,4.90849,11.006
441,568,4.86707,-10.7591,-0.00292313,-0.00348506,0.00151913,-0.0016592,-0.00474899,0.693956,0.00278299,0.0253939,1665,456,4.86702,10.7591
448,568,4.86768,-10.4143,-0.00295614,-0.00593207,0.00201285,-0.00194099,-0.00694722,0.46711,0.00413908,0.042445,1672,456,4.86771,10.4143
455,568,4.85205,-10.032,0,0,0,0,0,0,0,-1,1679,456,4.85207,10.0319
462,568,4.79309,-9.72888,0,0,0,0,0,0,0,-1,1686,456,4.7931,9.72889
469,568,4.76074,-9.67047,-0.000978683,-0.015594,0.00496066,0.000545986,-0.0171187,0.298188,0.0115987,0.0466146,1693,456,4.76069,9.67048
476,568,4.81604,-9.24753,0.000144517,-0.019039,0.00617241,0.00195892,-0.0208534,0.2859,0.0145991,0.0457737,1700,456,4.81599,9.24753
483,568,4.77966,-8.80331,0,0,0,0,0,0,0,-1,1707,456,4.77962,8.8033
490,568,5.13306,-8.48105,0,0,0,0,0,0,0,-1,1714,456,5.13308,8.48106
497,568,6.58289,-3.47745,0,0,0,0,0,0,0,-1,1721,456,6.58294,3.47744
504,568,0,0,0,0,0,0,0,0,0,-1,1728,456,0,0
511,568,0,0,0,0,0,0,0,0,0,-1,1735,456,0,0
518,568,0,0,0,0,0,0,0,0,0,-1,1742,456,0,0
525,568,0,0,0,0,0,0,0,0,0,-1,1749,456,0,0
532,568,0,0,0,0,0,0,0,0,0,-1,1756,456,0,0
539,568,0,0,0,0,0,0,0,0,0,-1,1763,456,0,0
546,568,0,0,0,0,0,0,0,0,0,-1,1770,456,0,0
553,568,0,0,0,0,0,0,0,0,0,-1,1777,456,0,0
560,568,0,0,0,0,0,0,0,0,0,-1,1784,456,0,0
567,568,0,0,0,0,0,0,0,0,0,-1,1791,456,0,0
574,568,0,0,0,0,0,0,0,0,0,-1,1798,456,0,0
581,568,0,0,0,0,0,0,0,0,0,-1,1805,456,0,0
588,568,0,0,0,0,0,0,0,0,0,-1,1812,456,0,0
595,568,0,0,0,0,0,0,0,0,0,-1,1819,456,0,0
602,568,0,0,0,0,0,0,0,0,0,-1,1826,456,0,0
609,568,0,0,0,0,0,0,0,0,0,-1,1833,456,0,0
616,568,0,0,0,0,0,0,0,0,0,-1,1840,456,0,0
623,568,0,0,0,0,0,0,0,0,0,-1,1847,456,0,0
630,568,0,0,0,0,0,0,0,0,0,-1,1854,456,0,0
637,568,0,0,0,0,0,0,0,0,0,-1,1861,456,0,0
644,568,0,0,0,0,0,0,0,0,0,-1,1868,456,0,0
651,568,0,0,0,0,0,0,0,0,0,-1,1875,456,0,0
658,568,0,0,0,0,0,0,0,0,0,-1,1882,456,0,0
665,568,0,0,0,0,0,0,0,0,0,-1,1889,456,0,0
672,568,0,0,0,0,0,0,0,0,0,-1,1896,456,0,0
679,568,0,0,0,0,0,0,0,0,0,-1,1903,456,0,0
686,568,0,0,0,0,0,0,0,0,0,-1,1910,456,0,0
693,568,0,0,0,0,0,0,0,0,0,-1,1917,456,0,0
700,568,0,0,0,0,0,0,0,0,0,-1,1924,456,0,0
707,568,0,0,0,0,0,0,0,0,0,-1,1931,456,0,0
714,568,0,0,0,0,0,0,0,0,0,-1,1938,456,0,0
721,568,0,0,0,0,0,0,0,0,0,-1,1945,456,0,0
728,568,0,0,0,0,0,0,0,0,0,-1,1952,456,0,0
735,568,0,0,0,0,0,0,0,0,0,-1,1959,456,0,0
742,568,0,0,0,0,0,0,0,0,0,-1,1966,456,0,0
749,568,0,0,0,0,0,0,0,0,0,-1,1973,456,0,0
756,568,0,0,0,0,0,0,0,0,0,-1,1980,456,0,0
763,568,0,0,0,0,0,0,0,0,0,-1,1987,456,0,0
770,568,0,0,0,0,0,0,0,0,0,-1,1994,456,0,0
777,568,0,0,0,0,0,0,0,0,0,-1,2001,456,0,0
784,568,0,0,0,0,0,0,0,0,0,-1,2008,456,0,0
791,568,0,0,0,0,0,0,0,0,0,-1,2015,456,0,0
798,568,0,0,0,0,0,0,0,0,0,-1,2022,456,0,0
805,568,0,0,0,0,0,0,0,0,0,-1,2029,456,0,0
812,568,0,0,0,0,0,0,0,0,0,-1,2036,456,0,0
-700,561,0,0,0,0,0,0,0,0,0,-1,524,463,0,0
-693,561,0,0,0,0,0,0,0,0,0,-1,531,463,0,0
-686,561,0,0,0,0,0,0,0,0,0,-1,538,463,0,0
-679,561,0,0,0,0,0,0,0,0,0,-1,545,463,0,0
-672,561,0,0,0,0,0,0,0,0,0,-1,552,463,0,0
-665,561,0,0,0,0,0,0,0,0,0,-1,559,463,0,0
-658,561,0,0,0,0,0,0,0,0,0,-1,566,463,0,0
-651,561,0,0,0,0,0,0,0,0,0,-1,573,463,0,0
-644,561,0,0,0,0,0,0,0,0,0,-1,580,463,0,0
-637,561,0,0,0,0,0,0,0,0,0,-1,587,463,0,0
-630,561,0,0,0,0,0,0,0,0,0,-1,594,463,0,0
-623,561,0,0,0,0,0,0,0,0,0,-1,601,463,0,0
-616,561,0,0,0,0,0,0,0,0,0,-1,608,463,0,0
-609,561,0,0,0,0,0,0,0,0,0,-1,615,463,0,0
-602,561,0,0,0,0,0,0,0,0,0,-1,622,463,0,0
-595,561,0,0,0,0,0,0,0,0,0,-1,629,463,0,0
-588,561,0,0,0,0,0,0,0,0,0,-1,636,463,0,0
-581,561,0,0,0,0,0,0,0,0,0,-1,643,463,0,0
-574,561,0,0,0,0,0,0,0,0,0,-1,650,463,0,0
-567,561,0,0,0,0,0,0,0,0,0,-1,657,463,0,0
-560,561,0,0,0,0,0,0,0,0,0,-1,664,463,0,0
-553,561,0,0,0,0,0,0,0,0,0,-1,671,463,0,0
-546,561,0,0,0,0,0,0,0,0,0,-1,678,463,0,0
-539,561,0,0,0,0,0,0,0,0,0,-1,685,463,0,0
-532,561,0,0,0,0,0,0,0,0,0,-1,692,463,0,0
-525,561,0,0,0,0,0,0,0,0,0,-1,699,463,0,0
-518,561,0,0,0,0,0,0,0,0,0,-1,706,463,0,0
-511,561,0,0,0,0,0,0,0,0,0,-1,713,463,0,0
-504,561,0,0,0,0,0,0,0,0,0,-1,720,463,0,0
-497,561,0,0,0,0,0,0,0,0,0,-1,727,463,0,0
-490,561,0,0,0,0,0,0,0,0,0,-1,734,463,0,0
-483,561,0,0,0,0,0,0,0,0,0,-1,741,463,0,0
-476,561,0,0,0,0,0,0,0,0,0,-1,748,463,0,0
-469,561,0,0,0,0,0,0,0,0,0,-1,755,463,0,0
-462,561,0,0,0,0,0,0,0,0,0,-1,762,463,0,0
-455,561,0,0,0,0,0,0,0,0,0,-1,769,463,0,0
-448,561,0,0,0,0,0,0,0,0,0,-1,776,463,0,0
-441,561,0,0,0,0,0,0,0,0,0,-1,783,463,0,0
-434,561,0,0,0,0,0,0,0,0,0,-1,790,463,0,0
-427,561,0,0,0,0,0,0,0,0,0,-1,797,463,0,0
-420,561,0,0,0,0,0,0,0,0,0,-1,804,463,0,0
-413,561,0,0,0,0,0,0,0,0,0,-1,811,463,0,0
-406,561,0,0,0,0,0,0,0,0,0,-1,818,463,0,0
-399,561,0,0,0,0,0,0,0,0,0,-1,825,463,0,0
-392,561,4.92407,-2.54578,0,0,0,0,0,0,0,-1,832,463,4.92408,2.54576
-385,561,5.55634,-1.02338,0,0,0,0,0,0,0,-1,839,463,5.55634,1.02338
-378,561,0.160522,-4.51785,0,0,0,0,0,0,0,-1,846,463,0.160542,4.51785
-371,561,1.06299,-7.56818,0,0,0,0,0,0,0,-1,853,463,1.06297,7.56817
-364,561,1.45264,-7.57684,0,0,0,0,0,0,0,-1,860,463,1.45264,7.57684
-357,561,1.29395,-8.94031,0,0,0,0,0,0,0,-1,867,463,1.29393,8.94031
-350,561,1.61902,-9.08127,0,0,0,0,0,0,0,-1,874,463,1.61905,9.08126
-343,561,1.50677,-10.3734,0,0,0,0,0,0,0,-1,881,463,1.5068,10.3735
-336,561,1.10394,-11.3401,0,0,0,0,0,0,0,-1,888,463,1.10396,11.3401
-329,561,1.18884,-11.551,0.00997491,0.00493629,-0.00721723,0.0150999,-0.000188699,-0.617476,0.0101301,0.034651,895,463,1.18882,11.551
-322,561,1.35248,-11.6886,0.00952357,0.00481879,-0.00664635,0.0142216,0.000120808,-0.615309,0.00944102,0.0266623,902,463,1.35248,11.6886
-315,561,1.40338,-11.8636,0.00862247,0.00485961,-0.0061879,0.0132086,0.000273441,-0.637814,0.00871604,0.0197072,909,463,1.40337,11.8636
-308,561,1.38373,-12.189,0.00761006,0.00479764,-0.00579055,0.0121627,0.000245004,-0.666281,0.00802804,0.015873,916,463,1.38371,12.189
-301,561,1.35657,-12.5597,0.00652749,0.0045524,-0.00532189,0.0109527,0.000127202,-0.69366,0.00725976,0.0120583,923,463,1.35655,12.5597
-294,561,1.33899,-12.8371,0.00547165,0.00413698,-0.00473634,0.00958744,2.11913e-05,-0.71541,0.00638458,0.0103381,930,463,1.33897,12.8371
-287,561,1.30841,-13.0913,0.00453407,0.00354249,-0.00407636,0.00814467,-6.8123e-05,-0.724883,0.00545263,0.00890071,937,463,1.3084,13.0913
-280,561,1.27301,-13.3332,0.00370802,0.00292609,-0.00353196,0.00687059,-0.00023648,-0.730276,0.00466122,0.0122565,944,463,1.273,13.3332
-273,561,1.27972,-13.617,0.00300066,0.0022601,-0.00295444,0.00560794,-0.000347176,-0.723059,0.00385956,0.0148264,951,463,1.27975,13.617
-266,561,1.29443,-13.9163,0.00255176,0.00136032,-0.00237357,0.00440322,-0.000491142,-0.662448,0.00311214,0.00931073,958,463,1.29441,13.9163
-259,561,1.27905,-14.1881,0.00213974,0.000513506,-0.00168683,0.0031992,-0.000545955,-0.560811,0.00233614,0.0101781,965,463,1.27903,14.1881
-252,561,1.26965,-14.4257,0.0018215,-0.000375001,-0.00102821,0.0022277,-0.000781203,-0.376237,0.00180286,0.0149832,972,463,1.26964,14.4257
-245,561,1.28125,-14.6818,0.00159008,-0.00126345,-0.000208643,0.00160525,-0.00127863,-0.0726029,0.00166856,0.0171202,979,463,1.28123,14.6818
-238,561,1.28894,-14.9139,0.00125686,-0.00263271,0.000909032,0.00145882,-0.00283468,0.218623,0.00252092,0.0133363,986,463,1.28896,14.9139
-231,561,1.27948,-15.149,0.000860301,-0.00384979,0.00199557,0.00159209,-0.00458158,0.351479,0.00370104,0.011484,993,463,1.27947,15.149
-224,561,1.27094,-15.3972,0.000338261,-0.0048837,0.00309581,0.00177713,-0.00632257,0.435075,0.00491569,0.0113638,1000,463,1.27093,15.3972
-217,561,1.29443,-15.6259,-0.00031551,-0.00591869,0.00427595,0.00199492,-0.00822911,0.495388,0.00625795,0.011079,1007,463,1.29444,15.626
-210,561,1.30353,-15.8405,-0.000892334,-0.00683411,0.00550113,0.00238887,-0.0101153,0.537812,0.00766494,0.0115159,1014,463,1.3035,15.8405
-203,561,1.29559,-16.0588,-0.00145437,-0.00670283,0.00631501,0.00275997,-0.0109172,0.588477,0.00835152,0.0129068,1021,463,1.29559,16.0588
-196,561,1.30798,-16.2506,-0.00184244,-0.00586217,0.00715449,0.00357914,-0.0112837,0.648466,0.00895716,0.013835,1028,463,1.30796,16.2506
-189,561,1.30029,-16.4441,-0.00169921,-0.00480393,0.00748928,0.00439691,-0.0109,0.683206,0.00909384,0.0165794,1035,463,1.30031,16.4441
-182,561,1.34778,-16.668,-0.00170501,-0.00283144,0.00788834,0.00564019,-0.0101766,0.749759,0.00925621,0.0185718,1042,463,1.34783,16.668
-175,561,1.36255,-16.8507,-0.000844032,-0.000917437,0.00763817,0.00675753,-0.00851899,0.782996,0.00883943,0.0290714,1049,463,1.36256,16.8507
-168,561,1.31116,-17.0875,0.000472487,0.0013145,0.00698415,0.00789032,-0.00610333,0.815502,0.00810117,0.0444035,1056,463,1.31117,17.0875
-161,561,1.1593,-17.3409,0.00212808,0.00332027,0.00565436,0.00840987,-0.00296152,0.837915,0.00681184,0.0459626,1063,463,1.15928,17.3409
-154,561,1.51526,-17.7054,0.00391651,0.00555064,0.00434785,0.00915754,0.000309615,0.878276,0.00600448,0.0471001,1070,463,1.51521,17.7054
-147,561,1.5708,-17.9552,0.00638702,0.00690229,0.00279794,0.00945443,0.00383489,0.831309,0.00549084,0.0455695,1077,463,1.57086,17.9552
-140,561,1.98633,-17.9327,0.00928437,0.00775049,0.000501739,0.00943391,0.00760095,0.289664,0.00577606,0.0476182,1084,463,1.98636,17.9327
-133,561,2.00781,-18.2116,0,0,0,0,0,0,0,-1,1091,463,2.00786,18.2116
-126,561,1.11938,-15.5724,0,0,0,0,0,0,0,-1,1098,463,1.11935,15.5724
-119,561,1.02283,-16.3709,0,0,0,0,0,0,0,-1,1105,463,1.02282,16.3709
-112,561,0.92627,-17.1693,0,0,0,0,0,0,0,-1,1112,463,0.926288,17.1693
-105,561,0.530518,-13.5379,0,0,0,0,0,0,0,-1,1119,463,0.530477,13.5379
-98,561,1.5387,-7.54352,0,0,0,0,0,0,0,-1,1126,463,1.53871,7.54351
-91,561,1.29553,-6.57968,0,0,0,0,0,0,0,-1,1133,463,1.29549,6.5797
-84,561,1.23364,-5.84555,0,0,0,0,0,0,0,-1,1140,463,1.23363,5.84556
-77,561,-2.36023,1.00204,0,0,0,0,0,0,0,-1,1147,463,-2.3602,-1.00205
-70,561,-3.90015,-1.41541,0,0,0,0,0,0,0,-1,1154,463,-3.90009,1.4154
-63,561,-6.95691,-4.02756,0,0,0,0,0,0,0,-1,1161,463,-6.95696,4.02756
-56,561,-5.37988,-6.66855,0,0,0,0,0,0,0,-1,1168,463,-5.37988,6.66854
-49,561,-5.7439,-9.11029,0,0,0,0,0,0,0,-1,1175,463,-5.74387,9.1103
-42,561,-1.72644,-5.63065,0,0,0,0,0,0,0,-1,1182,463,-1.72648,5.63064
-35,561,-1.65674,-4.87994,0,0,0,0,0,0,0,-1,1189,463,-1.6567,4.87993
-28,561,-1.91418,-3.86896,0,0,0,0,0,0,0,-1,1196,463,-1.91414,3.86895
-21,561,14.7195,-25.7854,0,0,0,0,0,0,0,-1,1203,463,14.7195,25.7854
-14,561,13.5323,-24.4661,0,0,0,0,0,0,0,-1,1210,463,13.5324,24.4661
-7,561,12.3458,-23.1511,0,0,0,0,0,0,0,-1,1217,463,12.3459,23.1511
0,561,-2.36633,-23.8224,0,0,0,0,0,0,0,-1,1224,463,-2.36639,23.8224
7,561,-1.70129,-22.8208,0.0697204,0.162402,0.174345,0.296459,-0.0643374,0.915294,0.222212,0.0456159,1231,463,-1.70124,22.8208
14,561,-1.005,-21.8355,0.0695892,0.13993,0.158642,0.267254,-0.0577345,0.894482,0.200209,0.039975,1238,463,-1.00497,21.8355
21,561,-0.43396,-20.8561,0.0713317,0.112982,0.14207,0.235745,-0.0514312,0.858171,0.176818,0.0416267,1245,463,-0.433945,20.8561
28,561,0.118286,-20.1605,0.0762302,0.0849045,0.123591,0.204235,-0.0430999,0.802937,0.152566,0.0445089,1252,463,0.118311,20.1605
35,561,0.794312,-19.4944,0.0846032,0.0567304,0.103258,0.174861,-0.0335272,0.71832,0.129208,0.0428918,1259,463,0.794353,19.4943
42,561,1.55579,-18.9252,0.093799,0.029285,0.0823646,0.149998,-0.0269138,0.59876,0.110072,0.0435333,1266,463,1.55574,18.9252
49,561,2.30664,-18.4311,0.10424,0.00405434,0.0606725,0.132826,-0.0245323,0.440313,0.0977597,0.0417977,1273,463,2.30667,18.4311
56,561,3.06995,-17.9055,0.112308,-0.012266,0.0385474,0.123271,-0.0232291,0.277089,0.0909181,0.0432637,1280,463,3.07,17.9055
63,561,3.76404,-17.347,0.119094,-0.0277527,0.0160861,0.120835,-0.0294942,0.10784,0.0919783,0.0457184,1287,463,3.76407,17.347
70,561,4.12817,-22.2649,0,0,0,0,0,0,0,-1,1294,463,4.12811,22.2649
77,561,6.27246,-21.6672,0.152387,-0.0601141,-0.00765982,0.152662,-0.0603898,-0.0359838,0.126793,0.0476823,1301,463,6.2724,21.6672
84,561,7.07385,-22.6976,0.163329,-0.0635583,-0.0156695,0.164406,-0.0646354,-0.0686289,0.136355,0.0447786,1308,463,7.0738,22.6976
91,561,7.89038,-23.7122,0,0,0,0,0,0,0,-1,1315,463,7.89041,23.7122
98,561,8.78503,-26.4805,0,0,0,0,0,0,0,-1,1322,463,8.78506,26.4805
105,561,9.89136,-27.8793,0,0,0,0,0,0,0,-1,1329,463,9.89139,27.8793
112,561,9.90747,-28.4348,0.183603,-0.0537628,-0.0207452,0.185403,-0.0555622,-0.0865235,0.145698,0.0477081,1336,463,9.90753,28.4349
119,561,10.8101,-29.7709,0.178041,-0.0449159,-0.01472,0.179008,-0.0458836,-0.0656419,0.137215,0.0462853,1343,463,10.8101,29.7709
126,561,4.54749,-16.6644,0,0,0,0,0,0,0,-1,1350,463,4.54742,16.6644
133,561,4.55615,-18.9882,0,0,0,0,0,0,0,-1,1357,463,4.55613,18.9882
140,561,4.76563,-19.6014,0,0,0,0,0,0,0,-1,1364,463,4.76557,19.6014
147,561,3.60815,-20.1028,0.0712321,-0.0481091,-0.0142918,0.0729198,-0.0497967,-0.117541,0.0712684,0.0486289,1371,463,3.60811,20.1028
154,561,2.59277,-20.4471,0.035607,-0.0523369,-0.0221399,0.0408662,-0.0575961,-0.233222,0.0571201,0.0461729,1378,463,2.59279,20.4471
161,561,1.61548,-20.7846,0,0,0,0,0,0,0,-1,1385,463,1.61552,20.7847
168,561,0.764893,-12.8633,0,0,0,0,0,0,0,-1,1392,463,0.764939,12.8633
175,561,10.4185,0.276398,0,0,0,0,0,0,0,-1,1399,463,10.4185,-0.276394
182,561,6.45703,-4.02127,0,0,0,0,0,0,0,-1,1406,463,6.45704,4.02127
189,561,6.50854,-2.08685,0,0,0,0,0,0,0,-1,1413,463,6.50851,2.08686
196,561,6.44775,-0.27182,0,0,0,0,0,0,0,-1,1420,463,6.44773,0.271814
203,561,6.18591,1.1301,0,0,0,0,0,0,0,-1,1427,463,6.18592,-1.13009
210,561,5.68713,2.68427,0,0,0,0,0,0,0,-1,1434,463,5.6871,-2.68425
217,561,3.61743,-7.33582,0,0,0,0,0,0,0,-1,1441,463,3.61738,7.33581
224,561,4.27466,-8.59171,0,0,0,0,0,0,0,-1,1448,463,4.27466,8.59171
231,561,4.93188,-9.8476,0,0,0,0,0,0,0,-1,1455,463,4.93193,9.84761
238,561,2.18018,-5.18359,0,0,0,0,0,0,0,-1,1462,463,2.18023,5.18359
245,561,3.07568,-3.50238,0,0,0,0,0,0,0,-1,1469,463,3.0757,3.50238
252,561,3.47412,-3.71109,0,0,0,0,0,0,0,-1,1476,463,3.47413,3.71109
259,561,3.42212,-3.2334,0,0,0,0,0,0,0,-1,1483,463,3.42214,3.2334
266,561,4.44373,-5.90027,0,0,0,0,0,0,0,-1,1490,463,4.44372,5.90026
273,561,2.59485,-3.65268,0,0,0,0,0,0,0,-1,1497,463,2.5948,3.65268
280,561,3.10767,-6.38235,0,0,0,0,0,0,0,-1,1504,463,3.10766,6.38235
287,561,4.91809,-14.429,0,0,0,0,0,0,0,-1,1511,463,4.9181,14.429
294,561,5.23596,-16.1947,0,0,0,0,0,0,0,-1,1518,463,5.23595,16.1947
301,561,5.17542,-16.0304,0.00228562,-0.000333253,-0.00209846,0.00344967,-0.00149731,-0.506459,0.00292934,0.041986,1525,463,5.17543,16.0304
308,561,5.16052,-15.765,0.001658,-0.00121819,-0.00254608,0.00314405,-0.00270425,-0.528321,0.0033797,0.0338124,1532,463,5.16052,15.7649
315,561,5.19116,-15.6189,0.00130703,-0.00166001,-0.00274971,0.00294789,-0.00330086,-0.538018,0.00360963,0.0208137,1539,463,5.19115,15.6189
322,561,5.24255,-15.4279,0.000961297,-0.00186374,-0.00277637,0.00266381,-0.00356626,-0.55008,0.00360949,0.0219321,1546,463,5.2425,15.4279
329,561,5.23401,-15.1376,0.000629716,-0.00175337,-0.00269597,0.00238571,-0.00350937,-0.577319,0.00342408,0.0157928,1553,463,5.23398,15.1376
336,561,5.26355,-14.8784,0.000305977,-0.00158938,-0.00251215,0.00204326,-0.00332666,-0.605033,0.0031297,0.0108612,1560,463,5.26355,14.8784
343,561,5.28271,-14.6429,-1.28946e-05,-0.00131744,-0.00226035,0.00168741,-0.00301774,-0.644929,0.00275248,0.0100003,1567,463,5.28273,14.6429
350,561,5.27356,-14.393,-0.000194114,-0.00106463,-0.00191987,0.00133922,-0.00259797,-0.673926,0.00231153,0.00973942,1574,463,5.27352,14.393
357,561,5.2688,-14.1116,-0.000293114,-0.00067899,-0.00152683,0.00105292,-0.00202503,-0.722549,0.00180636,0.00992264,1581,463,5.26878,14.1116
364,561,5.27856,-13.8697,-0.000353002,-0.000155249,-0.00104487,0.000795412,-0.00130366,-0.832573,0.00122369,0.00949825,1588,463,5.27853,13.8697
371,561,5.26306,-13.5995,-0.000394492,0.000337198,-0.000559458,0.000639811,-0.000697105,-1.07496,0.000772105,0.0160393,1595,463,5.26306,13.5994
378,561,5.24048,-13.3144,-0.000435562,0.000826121,-0.000139966,0.000841462,-0.000450903,-1.46163,0.000757419,0.01139,1602,463,5.24042,13.3144
385,561,5.23743,-13.048,-0.000522526,0.00134358,0.000150657,0.00135566,-0.000534611,1.49075,0.00112514,0.00938024,1609,463,5.23747,13.048
392,561,5.22131,-12.7563,-0.000639373,0.00167721,0.000424789,0.00175265,-0.00071481,1.39504,0.00146599,0.0129039,1616,463,5.22136,12.7563
399,561,5.23499,-12.4913,-0.000757991,0.00184431,0.000546873,0.00195457,-0.000868245,1.37186,0.00166949,0.0197825,1623,463,5.23502,12.4913
406,561,5.25427,-12.2164,-0.000990881,0.00185895,0.000633175,0.00199329,-0.00112523,1.36172,0.00182358,0.0188867,1630,463,5.2543,12.2164
413,561,5.22192,-11.9107,-0.00141867,0.00169641,0.000625046,0.00181715,-0.00153941,1.37998,0.00194012,0.0171096,1637,463,5.22196,11.9107
420,561,5.21033,-11.57,-0.00172104,0.000948835,0.000684127,0.00111393,-0.00188613,1.33401,0.00175111,0.01339,1644,463,5.21029,11.57
427,561,5.2179,-11.262,-0.00182003,-8.71772e-05,0.000921234,0.000311056,-0.00221827,1.16277,0.00159269,0.00999263,1651,463,5.21787,11.262
434,561,5.23669,-10.9728,-0.00197162,-0.00120599,0.00107121,-0.000451247,-0.00272636,0.957008,0.00168739,0.0108709,1658,463,5.23665,10.9728
441,561,5.23499,-10.6758,-0.00205457,-0.0027504,0.00131742,-0.0010399,-0.00376507,0.656303,0.00224518,0.0143486,1665,463,5.23493,10.6758
448,561,5.21899,-10.3686,-0.00209175,-0.00455497,0.00172386,-0.00120474,-0.00544197,0.475219,0.00330053,0.0196108,1672,463,5.21898,10.3686
455,561,5.3407,-10.0973,-0.00196597,-0.00678625,0.00221469,-0.00110295,-0.00764928,0.371581,0.00477452,0.036466,1679,463,5.34069,10.0973
462,561,5.09448,-9.74734,-0.00146184,-0.00912473,0.00288303,-0.000498304,-0.0100883,0.322539,0.00656572,0.0404701,1686,463,5.09448,9.74734
469,561,5.01953,-9.37439,-0.000625608,-0.0117468,0.0036316,0.000455236,-0.0128277,0.289273,0.0087075,0.0271135,1693,463,5.01956,9.37439
476,561,4.9751,-8.94537,0.000247156,-0.0145068,0.00427269,0.00139518,-0.0156548,0.26249,0.0109313,0.0427512,1700,463,4.97506,8.94538
483,561,4.90747,-8.49698,0,0,0,0,0,0,0,-1,1707,463,4.90753,8.49698
490,561,6.13135,-2.58374,0,0,0,0,0,0,0,-1,1714,463,6.13139,2.58373
497,561,7.30652,-2.46649,0,0,0,0,0,0,0,-1,1721,463,7.30649,2.4665
504,561,6.45044,-2.35263,0,0,0,0,0,0,0,-1,1728,463,6.4504,2.35263
511,561,0,0,0,0,0,0,0,0,0,-1,1735,463,0,0
518,561,0,0,0,0,0,0,0,0,0,-1,1742,463,0,0
525,561,0,0,0,0,0,0,0,0,0,-1,1749,463,0,0
532,561,0,0,0,0,0,0,0,0,0,-1,1756,463,0,0
539,561,0,0,0,0,0,0,0,0,0,-1,1763,463,0,0
546,561,0,0,0,0,0,0,0,0,0,-1,1770,463,0,0
553,561,0,0,0,0,0,0,0,0,0,-1,1777,463,0,0
560,561,0,0,0,0,0,0,0,0,0,-1,1784,463,0,0
567,561,0,0,0,0,0,0,0,0,0,-1,1791,463,0,0
574,561,0,0,0,0,0,0,0,0,0,-1,1798,463,0,0
581,561,0,0,0,0,0,0,0,0,0,-1,1805,463,0,0
588,561,0,0,0,0,0,0,0,0,0,-1,1812,463,0,0
595,561,0,0,0,0,0,0,0,0,0,-1,1819,463,0,0
602,561,0,0,0,0,0,0,0,0,0,-1,1826,463,0,0
609,561,0,0,0,0,0,0,0,0,0,-1,1833,463,0,0
616,561,0,0,0,0,0,0,0,0,0,-1,1840,463,0,0
623,561,0,0,0,0,0,0,0,0,0,-1,1847,463,0,0
630,561,0,0,0,0,0,0,0,0,0,-1,1854,463,0,0
637,561,0,0,0,0,0,0,0,0,0,-1,1861,463,0,0
644,561,0,0,0,0,0,0,0,0,0,-1,1868,463,0,0
651,561,0,0,0,0,0,0,0,0,0,-1,1875,463,0,0
658,561,0,0,0,0,0,0,0,0,0,-1,1882,463,0,0
665,561,0,0,0,0,0,0,0,0,0,-1,1889,463,0,0
672,561,0,0,0,0,0,0,0,0,0,-1,1896,463,0,0
679,561,0,0,0,0,0,0,0,0,0,-1,1903,463,0,0
686,561,0,0,0,0,0,0,0,0,0,-1,1910,463,0,0
693,561,0,0,0,0,0,0,0,0,0,-1,1917,463,0,0
700,561,0,0,0,0,0,0,0,0,0,-1,1924,463,0,0
707,561,0,0,0,0,0,0,0,0,0,-1,1931,463,0,0
714,561,0,0,0,0,0,0,0,0,0,-1,1938,463,0,0
721,561,0,0,0,0,0,0,0,0,0,-1,1945,463,0,0
728,561,0,0,0,0,0,0,0,0,0,-1,1952,463,0,0
735,561,0,0,0,0,0,0,0,0,0,-1,1959,463,0,0
742,561,0,0,0,0,0,0,0,0,0,-1,1966,463,0,0
749,561,0,0,0,0,0,0,0,0,0,-1,1973,463,0,0
756,561,0,0,0,0,0,0,0,0,0,-1,1980,463,0,0
763,561,0,0,0,0,0,0,0,0,0,-1,1987,463,0,0
770,561,0,0,0,0,0,0,0,0,0,-1,1994,463,0,0
777,561,0,0,0,0,0,0,0,0,0,-1,2001,463,0,0
784,561,0,0,0,0,0,0,0,0,0,-1,2008,463,0,0
791,561,0,0,0,0,0,0,0,0,0,-1,2015,463,0,0
798,561,0,0,0,0,0,0,0,0,0,-1,2022,463,0,0
805,561,0,0,0,0,0,0,0,0,0,-1,2029,463,0,0
812,561,0,0,0,0,0,0,0,0,0,-1,2036,463,0,0
-700,554,0,0,0,0,0,0,0,0,0,-1,524,470,0,0
-693,554,0,0,0,0,0,0,0,0,0,-1,531,470,0,0
-686,554,0,0,0,0,0,0,0,0,0,-1,538,470,0,0
-679,554,0,0,0,0,0,0,0,0,0,-1,545,470,0,0
-672,554,0,0,0,0,0,0,0,0,0,-1,552,470,0,0
-665,554,0,0,0,0,0,0,0,0,0,-1,559,470,0,0
-658,554,0,0,0,0,0,0,0,0,0,-1,566,470,0,0
-651,554,0,0,0,0,0,0,0,0,0,-1,573,470,0,0
-644,554,0,0,0,0,0,0,0,0,0,-1,580,470,0,0
-637,554,0,0,0,0,0,0,0,0,0,-1,587,470,0,0
-630,554,0,0,0,0,0,0,0,0,0,-1,594,470,0,0
-623,554,0,0,0,0,0,0,0,0,0,-1,601,470,0,0
-616,554,0,0,0,0,0,0,0,0,0,-1,608,470,0,0
-609,554,0,0,0,0,0,0,0,0,0,-1,615,470,0,0
-602,554,0,0,0,0,0,0,0,0,0,-1,622,470,0,0
-595,554,0,0,0,0,0,0,0,0,0,-1,629,470,0,0
-588,554,0,0,0,0,0,0,0,0,0,-1,636,470,0,0
-581,554,0,0,0,0,0,0,0,0,0,-1,643,470,0,0
-574,554,0,0,0,0,0,0,0,0,0,-1,650,470,0,0
-567,554,0,0,0,0,0,0,0,0,0,-1,657,470,0,0
-560,554,0,0,0,0,0,0,0,0,0,-1,664,470,0,0
-553,554,0,0,0,0,0,0,0,0,0,-1,671,470,0,0
-546,554,0,0,0,0,0,0,0,0,0,-1,678,470,0,0
-539,554,0,0,0,0,0,0,0,0,0,-1,685,470,0,0
-532,554,0,0,0,0,0,0,0,0,0,-1,692,470,0,0
-525,554,0,0,0,0,0,0,0,0,0,-1,699,470,0,0
-518,554,0,0,0,0,0,0,0,0,0,-1,706,470,0,0
-511,554,0,0,0,0,0,0,0,0,0,-1,713,470,0,0
-504,554,0,0,0,0,0,0,0,0,0,-1,720,470,0,0
-497,554,0,0,0,0,0,0,0,0,0,-1,727,470,0,0
-490,554,0,0,0,0,0,0,0,0,0,-1,734,470,0,0
-483,554,0,0,0,0,0,0,0,0,0,-1,741,470,0,0
-476,554,0,0,0,0,0,0,0,0,0,-1,748,470,0,0
-469,554,0,0,0,0,0,0,0,0,0,-1,755,470,0,0
-462,554,0,0,0,0,0,0,0,0,0,-1,762,470,0,0
-455,554,0,0,0,0,0,0,0,0,0,-1,769,470,0,0
-448,554,0,0,0,0,0,0,0,0,0,-1,776,470,0,0
-441,554,0,0,0,0,0,0,0,0,0,-1,783,470,0,0
-434,554,0,0,0,0,0,0,0,0,0,-1,790,470,0,0
-427,554,0,0,0,0,0,0,0,0,0,-1,797,470,0,0
-420,554,0,0,0,0,0,0,0,0,0,-1,804,470,0,0
-413,554,0,0,0,0,0,0,0,0,0,-1,811,470,0,0
-406,554,0,0,0,0,0,0,0,0,0,-1,818,470,0,0
-399,554,-1.32275,-3.95142,0,0,0,0,0,0,0,-1,825,470,-1.32275,3.95141
-392,554,-1.35632,-3.7406,0,0,0,0,0,0,0,-1,832,470,-1.35632,3.7406
-385,554,-0.849243,-4.14447,0,0,0,0,0,0,0,-1,839,470,-0.849262,4.14446
-378,554,-0.982666,-4.55084,0,0,0,0,0,0,0,-1,846,470,-0.982671,4.55084
-371,554,-1.74542,-4.63467,0,0,0,0,0,0,0,-1,853,470,-1.74541,4.63468
-364,554,1.04883,-7.68756,0,0,0,0,0,0,0,-1,860,470,1.0488,7.68757
-357,554,-0.0963745,-9.06607,0,0,0,0,0,0,0,-1,867,470,-0.0963828,9.06609
-350,554,1.18652,-10.0633,0,0,0,0,0,0,0,-1,874,470,1.18653,10.0632
-343,554,1.18506,-10.496,0.00579659,0.00437036,-0.00635174,0.0114751,-0.00130817,-0.729497,0.00812134,0.0483254,881,470,1.18504,10.496
-336,554,1.1936,-11.0653,0.00612021,0.00424581,-0.00600591,0.0112616,-0.000895583,-0.707999,0.00782337,0.0348976,888,470,1.19361,11.0653
-329,554,1.09497,-11.4167,0.00620779,0.00393781,-0.0055184,0.0107067,-0.000561105,-0.683976,0.007332,0.0155387,895,470,1.09495,11.4167
-322,554,1.09534,-11.7047,0.00606526,0.00370029,-0.00501703,0.0100373,-0.000271718,-0.669663,0.0067839,0.0100834,902,470,1.09534,11.7047
-315,554,1.09601,-11.9745,0.00560428,0.00363637,-0.00458174,0.00930654,-6.58822e-05,-0.679627,0.00622643,0.0107772,909,470,1.096,11.9745
-308,554,1.07196,-12.2615,0.00502468,0.00352902,-0.00419539,0.00853837,1.53277e-05,-0.697199,0.00568714,0.0129558,916,470,1.07199,12.2615
-301,554,1.08185,-12.557,0.00435797,0.00328838,-0.00375032,0.00761143,3.49162e-05,-0.714576,0.00506269,0.0134915,923,470,1.08183,12.557
-294,554,1.07159,-12.8259,0.00375675,0.00288457,-0.00320591,0.00655609,8.52258e-05,-0.7178,0.00434259,0.0120321,930,470,1.07156,12.8259
-287,554,1.0274,-13.0813,0.00332509,0.00222352,-0.00266457,0.0054952,5.34111e-05,-0.68348,0.0036458,0.0116997,937,470,1.0274,13.0813
-280,554,1.01575,-13.3482,0.00291396,0.00164407,-0.00219032,0.00455951,-1.47335e-06,-0.644322,0.00304016,0.0114234,944,470,1.01575,13.3482
-273,554,1.01898,-13.6358,0.00256489,0.000933003,-0.00169012,0.00362572,-0.000127828,-0.560513,0.00246086,0.0153145,951,470,1.01899,13.6358
-266,554,1.02094,-13.9136,0.00243034,1.4702e-05,-0.00115489,0.00289363,-0.000448583,-0.381499,0.00209469,0.0126535,958,470,1.02093,13.9136
-259,554,1.00775,-14.1355,0.00238617,-0.000930005,-0.000564547,0.00247964,-0.00102348,-0.164085,0.00207996,0.0123354,965,470,1.00776,14.1355
-252,554,0.99823,-14.3702,0.00228928,-0.00181972,3.52018e-05,0.00228958,-0.00182003,0.00856616,0.00237784,0.0148572,972,470,0.99825,14.3702
-245,554,0.981262,-14.6293,0.00209263,-0.00278607,0.000892536,0.00225079,-0.00294423,0.17538,0.00300824,0.0163925,979,470,0.981247,14.6293
-238,554,1.01135,-14.8938,0.00172972,-0.0043184,0.00210312,0.00238914,-0.00497782,0.303837,0.00433996,0.0118202,986,470,1.01138,14.8938
-231,554,1.02979,-15.1465,0.00125087,-0.00572604,0.00330853,0.00257029,-0.00704546,0.379466,0.00574857,0.010089,993,470,1.02976,15.1465
-224,554,1.03778,-15.3926,0.000554204,-0.00698624,0.0046135,0.00274208,-0.00917411,0.442823,0.00720615,0.0103125,1000,470,1.03777,15.3926
-217,554,1.05554,-15.6132,-0.000371328,-0.00823736,0.00606115,0.00292104,-0.0115297,0.497601,0.00882284,0.0106678,1007,470,1.05552,15.6132
-210,554,1.07507,-15.8433,-0.00126897,-0.00936105,0.00760632,0.00330047,-0.0139305,0.540966,0.0105605,0.0141819,1014,470,1.07505,15.8433
-203,554,1.05707,-16.0962,-0.0021983,-0.00917978,0.00868413,0.00367041,-0.0150485,0.594297,0.0114535,0.0224903,1021,470,1.05709,16.0962
-196,554,0.999268,-16.1844,-0.00292432,-0.0081006,0.00982897,0.00465155,-0.0156765,0.656662,0.0122983,0.028411,1028,470,0.999311,16.1844
-189,554,1.00586,-16.2399,-0.00304363,-0.00669796,0.0103761,0.00566493,-0.0154065,0.698245,0.0125915,0.0349598,1035,470,1.00592,16.2399
-182,554,0.880127,-16.2262,-0.00345593,-0.003961,0.011079,0.00737341,-0.0147903,0.774003,0.0130329,0.042729,1042,470,0.880139,16.2262
-175,554,1.1394,-16.8583,0,0,0,0,0,0,0,-1,1049,470,1.13946,16.8583
-168,554,1.05872,-17.1684,0,0,0,0,0,0,0,-1,1056,470,1.05866,17.1684
-161,554,0.714722,-17.425,0,0,0,0,0,0,0,-1,1063,470,0.714718,17.425
-154,554,1.47717,-18.2257,0.00305238,0.00902891,0.00666553,0.0133454,-0.00126408,0.996125,0.00934681,0.0432241,1070,470,1.47714,18.2257
-147,554,1.22546,-18.3487,0.00620638,0.01164,0.00458246,0.0142505,0.00359589,1.05298,0.00855733,0.0471441,1077,470,1.22545,18.3487
-140,554,2.06445,-17.9974,0,0,0,0,0,0,0,-1,1084,470,2.06447,17.9974
-133,554,1.97351,-17.6925,0,0,0,0,0,0,0,-1,1091,470,1.97355,17.6925
-126,554,0.532715,-15.1913,0,0,0,0,0,0,0,-1,1098,470,0.532762,15.1913
-119,554,0.532349,-15.9729,0,0,0,0,0,0,0,-1,1105,470,0.532337,15.9729
-112,554,0.53186,-16.7545,0,0,0,0,0,0,0,-1,1112,470,0.531912,16.7545
-105,554,2.82129,-9.46112,0,0,0,0,0,0,0,-1,1119,470,2.82127,9.46112
-98,554,1.51929,-7.3624,0,0,0,0,0,0,0,-1,1126,470,1.51928,7.36241
-91,554,1.41089,-6.5864,0,0,0,0,0,0,0,-1,1133,470,1.41093,6.58638
-84,554,1.62305,-5.87186,0,0,0,0,0,0,0,-1,1140,470,1.62299,5.87186
-77,554,-2.56958,1.33258,0,0,0,0,0,0,0,-1,1147,470,-2.56959,-1.33257
-70,554,-3.68164,-1.18332,0,0,0,0,0,0,0,-1,1154,470,-3.68158,1.18331
-63,554,-4.86853,-3.88708,0,0,0,0,0,0,0,-1,1161,470,-4.86853,3.88708
-56,554,-5.69958,-6.45422,0,0,0,0,0,0,0,-1,1168,470,-5.69955,6.45422
-49,554,-6.23645,-8.8569,0,0,0,0,0,0,0,-1,1175,470,-6.23643,8.85689
-42,554,-6.62524,-11.5382,0,0,0,0,0,0,0,-1,1182,470,-6.62522,11.5382
-35,554,-2.40173,-4.59482,0,0,0,0,0,0,0,-1,1189,470,-2.40169,4.59481
-28,554,-0.760132,-1.65555,0,0,0,0,0,0,0,-1,1196,470,-0.760095,1.65556
-21,554,2.11389,-16.8645,0,0,0,0,0,0,0,-1,1203,470,2.11394,16.8645
-14,554,13.6566,-22.7422,0,0,0,0,0,0,0,-1,1210,470,13.6566,22.7422
-7,554,12.4059,-21.4837,0,0,0,0,0,0,0,-1,1217,470,12.4059,21.4837
0,554,-0.343628,-16.0495,0,0,0,0,0,0,0,-1,1224,470,-0.343658,16.0495
7,554,-2.83899,-23.7068,0,0,0,0,0,0,0,-1,1231,470,-2.83901,23.7068
14,554,-2.38025,-22.7104,0.0845245,0.178359,0.202622,0.339425,-0.0765411,0.899169,0.255645,0.0457768,1238,470,-2.38029,22.7104
21,554,-2.03625,-21.8547,0.0864517,0.143394,0.181698,0.298838,-0.0689924,0.863113,0.225764,0.0437415,1245,470,-2.03623,21.8547
28,554,-0.916382,-20.3915,0,0,0,0,0,0,0,-1,1252,470,-0.916426,20.3915
35,554,-0.196289,-19.7504,0.10135,0.0757177,0.13503,0.22417,-0.0471027,0.738083,0.167372,0.0397648,1259,470,-0.196345,19.7504
42,554,0.228882,-19.4901,0.111868,0.0430741,0.110114,0.192832,-0.0378905,0.634013,0.14287,0.0413321,1266,470,0.228873,19.4901
49,554,1.25574,-19.2504,0.123232,0.0136998,0.084674,0.169307,-0.0323757,0.498342,0.125068,0.0455596,1273,470,1.25576,19.2504
56,554,2.11133,-18.2191,0,0,0,0,0,0,0,-1,1280,470,2.11133,18.2191
63,554,2.88025,-17.0304,0,0,0,0,0,0,0,-1,1287,470,2.88026,17.0304
70,554,5.24707,-21.1727,0,0,0,0,0,0,0,-1,1294,470,5.24707,21.1727
77,554,6.11707,-21.1987,0,0,0,0,0,0,0,-1,1301,470,6.11704,21.1987
84,554,6.53638,-22.1509,0.178839,-0.0869145,-0.0118221,0.179364,-0.0874394,-0.0443683,0.157057,0.0421711,1308,470,6.53633,22.1509
91,554,7.30115,-23.2413,0,0,0,0,0,0,0,-1,1315,470,7.30117,23.2413
98,554,8.7478,-26.404,0,0,0,0,0,0,0,-1,1322,470,8.74776,26.404
105,554,9.1825,-26.9654,0.203481,-0.0992897,-0.0288799,0.206211,-0.10202,-0.094253,0.181315,0.0466017,1329,470,9.18253,26.9654
112,554,10.0929,-27.8412,0.205086,-0.0893074,-0.0230318,0.206877,-0.0910984,-0.0776055,0.176312,0.0435311,1336,470,10.0929,27.8412
119,554,11.3934,-29.5916,0.199058,-0.0804741,-0.0163283,0.200008,-0.0814247,-0.0581493,0.167224,0.041394,1343,470,11.3934,29.5916
126,554,12.157,-32.1532,0.182038,-0.0767691,-0.0106648,0.182476,-0.0772079,-0.0411146,0.15398,0.0416949,1350,470,12.157,32.1532
133,554,14.1074,-29.1577,0.154707,-0.0740327,-0.0082858,0.155007,-0.0743325,-0.0361605,0.135112,0.0418387,1357,470,14.1074,29.1576
140,554,15.6235,-29.2106,0,0,0,0,0,0,0,-1,1364,470,15.6236,29.2106
147,554,4.31775,-20.4903,0,0,0,0,0,0,0,-1,1371,470,4.31771,20.4903
154,554,3.34119,-20.8824,0,0,0,0,0,0,0,-1,1378,470,3.34117,20.8824
161,554,-0.395386,-12.7159,0,0,0,0,0,0,0,-1,1385,470,-0.395346,12.7159
168,554,-0.163452,-12.8915,0,0,0,0,0,0,0,-1,1392,470,-0.163462,12.8915
175,554,10.663,0.286957,0,0,0,0,0,0,0,-1,1399,470,10.663,-0.286966
182,554,6.71106,-4.50217,0,0,0,0,0,0,0,-1,1406,470,6.71107,4.50215
189,554,6.90479,-2.50348,0,0,0,0,0,0,0,-1,1413,470,6.90477,2.50348
196,554,6.96216,-0.740906,0,0,0,0,0,0,0,-1,1420,470,6.96214,0.740912
203,554,6.43518,0.414154,0,0,0,0,0,0,0,-1,1427,470,6.43523,-0.414141
210,554,6.21167,1.96707,0,0,0,0,0,0,0,-1,1434,470,6.21165,-1.96706
217,554,5.64551,3.4989,0,0,0,0,0,0,0,-1,1441,470,5.64555,-3.49891
224,554,4.85144,-8.85172,0,0,0,0,0,0,0,-1,1448,470,4.85146,8.85173
231,554,3.25073,-5.29642,0,0,0,0,0,0,0,-1,1455,470,3.25078,5.29642
238,554,4.28625,-3.25253,0,0,0,0,0,0,0,-1,1462,470,4.28622,3.25252
245,554,4.0752,-2.90033,0,0,0,0,0,0,0,-1,1469,470,4.07515,2.90032
252,554,3.52112,-0.934998,0,0,0,0,0,0,0,-1,1476,470,3.52113,0.934996
259,554,3.96448,-2.16425,0,0,0,0,0,0,0,-1,1483,470,3.96446,2.16424
266,554,3.0592,-2.71716,0,0,0,0,0,0,0,-1,1490,470,3.05923,2.71718
273,554,2.58521,-3.06876,0,0,0,0,0,0,0,-1,1497,470,2.58524,3.06874
280,554,2.83301,-0.991699,0,0,0,0,0,0,0,-1,1504,470,2.83303,0.991704
287,554,3.54126,-4.12277,0,0,0,0,0,0,0,-1,1511,470,3.54123,4.12277
294,554,3.62036,-8.50146,0,0,0,0,0,0,0,-1,1518,470,3.62031,8.50145
301,554,5.35107,-15.8137,0,0,0,0,0,0,0,-1,1525,470,5.35107,15.8137
308,554,5.36963,-15.7356,0,0,0,0,0,0,0,-1,1532,470,5.36966,15.7356
315,554,5.42969,-15.6683,0,0,0,0,0,0,0,-1,1539,470,5.42964,15.6683
322,554,5.48413,-15.5254,0,0,0,0,0,0,0,-1,1546,470,5.48414,15.5254
329,554,5.4856,-14.998,0.000405931,-0.00269374,-0.00392669,0.00307757,-0.00536538,-0.597437,0.00493383,0.0352387,1553,470,5.48559,14.998
336,554,5.47766,-14.8417,7.06624e-05,-0.00254073,-0.00370187,0.00269036,-0.00516042,-0.615853,0.00460682,0.0174472,1560,470,5.4777,14.8417
343,554,5.50452,-14.6466,-0.000266834,-0.00225045,-0.00339583,0.00227906,-0.00479634,-0.643317,0.00417027,0.0105772,1567,470,5.50449,14.6466
350,554,5.52649,-14.3802,-0.00044154,-0.00209653,-0.00302289,0.00186508,-0.00440314,-0.6518,0.00371653,0.00940549,1574,470,5.52652,14.3802
357,554,5.54285,-14.1078,-0.000480758,-0.00173671,-0.00258145,0.001548,-0.00376547,-0.666083,0.00315552,0.0108135,1581,470,5.54285,14.1078
364,554,5.53748,-13.8754,-0.000427801,-0.00123458,-0.00199828,0.0012074,-0.00286978,-0.685802,0.00241831,0.00872109,1588,470,5.53751,13.8754
371,554,5.53259,-13.6068,-0.000389026,-0.000743679,-0.00143472,0.000879282,-0.00201199,-0.723912,0.00171144,0.00842707,1595,470,5.53257,13.6067
378,554,5.5238,-13.3248,-0.000339636,-0.000230673,-0.000936087,0.000652517,-0.00122283,-0.814466,0.00109929,0.00970571,1602,470,5.52376,13.3248
385,554,5.51929,-13.0551,-0.000309524,0.000376898,-0.000512733,0.000650687,-0.000583313,-1.08034,0.000712804,0.00930066,1609,470,5.51933,13.0551
392,554,5.50952,-12.765,-0.000326901,0.000777516,-0.000103088,0.000787056,-0.000336441,-1.47852,0.000665815,0.0126948,1616,470,5.50953,12.765
399,554,5.52527,-12.4576,-0.00035781,0.00101741,0.000127619,0.00102915,-0.000369552,1.47904,0.000836939,0.0180506,1623,470,5.52522,12.4576
406,554,5.53186,-12.1938,-0.000484578,0.00113596,0.000290455,0.00118644,-0.000535065,1.3987,0.00101735,0.0160897,1630,470,5.53184,12.1938
413,554,5.52026,-11.8758,-0.000757632,0.00115173,0.000399139,0.00123181,-0.000837711,1.3728,0.00120204,0.0151417,1637,470,5.52021,11.8758
420,554,5.5022,-11.568,-0.000997221,0.000688556,0.000507881,0.000829743,-0.00113841,1.29965,0.00114096,0.0162628,1644,470,5.50216,11.568
427,554,5.5116,-11.2637,-0.00110245,-5.58255e-06,0.000740999,0.000367862,-0.00147589,1.10397,0.00112675,0.0113991,1651,470,5.51157,11.2637
434,554,5.50439,-10.9801,-0.00122699,-0.000828763,0.000917063,-8.94455e-05,-0.0019663,0.892299,0.00128209,0.00986549,1658,470,5.50437,10.9801
441,554,5.5033,-10.6785,-0.00128593,-0.00198508,0.00114808,-0.00043539,-0.00283562,0.637615,0.00176329,0.0109065,1665,470,5.50326,10.6785
448,554,5.49658,-10.3586,-0.00132939,-0.00333019,0.00148479,-0.000539427,-0.00412015,0.488949,0.00258578,0.0132393,1672,470,5.49656,10.3586
455,554,5.48474,-10.0407,-0.00125726,-0.00496558,0.00184625,-0.000494829,-0.00572802,0.391631,0.00366489,0.0143595,1679,470,5.48476,10.0407
462,554,5.40747,-9.71466,-0.000894513,-0.00677839,0.00225921,-0.000127136,-0.00754577,0.327439,0.00498867,0.0173266,1686,470,5.40752,9.71466
469,554,5.31848,-9.36398,-0.000298222,-0.00878025,0.0026214,0.000446539,-0.00952501,0.276814,0.00650397,0.0236889,1693,470,5.31844,9.36398
476,554,5.39734,-8.88773,0.000253556,-0.0109471,0.00285848,0.00094088,-0.0116344,0.235971,0.00808818,0.0472506,1700,470,5.39734,8.88773
483,554,5.49927,-8.45032,0,0,0,0,0,0,0,-1,1707,470,5.49925,8.45031
490,554,7.31543,-3.51794,0,0,0,0,0,0,0,-1,1714,470,7.3154,3.51794
497,554,7.9751,-2.43454,0,0,0,0,0,0,0,-1,1721,470,7.97505,2.43453
504,554,2.13257,-3.81628,0,0,0,0,0,0,0,-1,1728,470,2.1326,3.8163
511,554,1.31396,-4.02713,0,0,0,0,0,0,0,-1,1735,470,1.31398,4.02712
518,554,5.04236,-5.9472,0,0,0,0,0,0,0,-1,1742,470,5.04231,5.94721
525,554,0,0,0,0,0,0,0,0,0,-1,1749,470,0,0
532,554,0,0,0,0,0,0,0,0,0,-1,1756,470,0,0
539,554,0,0,0,0,0,0,0,0,0,-1,1763,470,0,0
546,554,0,0,0,0,0,0,0,0,0,-1,1770,470,0,0
553,554,0,0,0,0,0,0,0,0,0,-1,1777,470,0,0
560,554,0,0,0,0,0,0,0,0,0,-1,1784,470,0,0
567,554,0,0,0,0,0,0,0,0,0,-1,1791,470,0,0
574,554,0,0,0,0,0,0,0,0,0,-1,1798,470,0,0
581,554,0,0,0,0,0,0,0,0,0,-1,1805,470,0,0
588,554,0,0,0,0,0,0,0,0,0,-1,1812,470,0,0
595,554,0,0,0,0,0,0,0,0,0,-1,1819,470,0,0
602,554,0,0,0,0,0,0,0,0,0,-1,1826,470,0,0
609,554,0,0,0,0,0,0,0,0,0,-1,1833,470,0,0
616,554,0,0,0,0,0,0,0,0,0,-1,1840,470,0,0
623,554,0,0,0,0,0,0,0,0,0,-1,1847,470,0,0
630,554,0,0,0,0,0,0,0,0,0,-1,1854,470,0,0
637,554,0,0,0,0,0,0,0,0,0,-1,1861,470,0,0
644,554,0,0,0,0,0,0,0,0,0,-1,1868,470,0,0
651,554,0,0,0,0,0,0,0,0,0,-1,1875,470,0,0
658,554,0,0,0,0,0,0,0,0,0,-1,1882,470,0,0
665,554,0,0,0,0,0,0,0,0,0,-1,1889,470,0,0
672,554,0,0,0,0,0,0,0,0,0,-1,1896,470,0,0
679,554,0,0,0,0,0,0,0,0,0,-1,1903,470,0,0
686,554,0,0,0,0,0,0,0,0,0,-1,1910,470,0,0
693,554,0,0,0,0,0,0,0,0,0,-1,1917,470,0,0
700,554,0,0,0,0,0,0,0,0,0,-1,1924,470,0,0
707,554,0,0,0,0,0,0,0,0,0,-1,1931,470,0,0
714,554,0,0,0,0,0,0,0,0,0,-1,1938,470,0,0
721,554,0,0,0,0,0,0,0,0,0,-1,1945,470,0,0
728,554,0,0,0,0,0,0,0,0,0,-1,1952,470,0,0
735,554,0,0,0,0,0,0,0,0,0,-1,1959,470,0,0
742,554,0,0,0,0,0,0,0,0,0,-1,1966,470,0,0
749,554,0,0,0,0,0,0,0,0,0,-1,1973,470,0,0
756,554,0,0,0,0,0,0,0,0,0,-1,1980,470,0,0
763,554,0,0,0,0,0,0,0,0,0,-1,1987,470,0,0
770,554,0,0,0,0,0,0,0,0,0,-1,1994,470,0,0
777,554,0,0,0,0,0,0,0,0,0,-1,2001,470,0,0
784,554,0,0,0,0,0,0,0,0,0,-1,2008,470,0,0
791,554,0,0,0,0,0,0,0,0,0,-1,2015,470,0,0
798,554,0,0,0,0,0,0,0,0,0,-1,2022,470,0,0
805,554,0,0,0,0,0,0,0,0,0,-1,2029,470,0,0
812,554,0,0,0,0,0,0,0,0,0,-1,2036,470,0,0
-700,547,0,0,0,0,0,0,0,0,0,-1,524,477,0,0
-693,547,0,0,0,0,0,0,0,0,0,-1,531,477,0,0
-686,547,0,0,0,0,0,0,0,0,0,-1,538,477,0,0
-679,547,0,0,0,0,0,0,0,0,0,-1,545,477,0,0
-672,547,0,0,0,0,0,0,0,0,0,-1,552,477,0,0
-665,547,0,0,0,0,0,0,0,0,0,-1,559,477,0,0
-658,547,0,0,0,0,0,0,0,0,0,-1,566,477,0,0
-651,547,0,0,0,0,0,0,0,0,0,-1,573,477,0,0
-644,547,0,0,0,0,0,0,0,0,0,-1,580,477,0,0
-637,547,0,0,0,0,0,0,0,0,0,-1,587,477,0,0
-630,547,0,0,0,0,0,0,0,0,0,-1,594,477,0,0
-623,547,0,0,0,0,0,0,0,0,0,-1,601,477,0,0
-616,547,0,0,0,0,0,0,0,0,0,-1,608,477,0,0
-609,547,0,0,0,0,0,0,0,0,0,-1,615,477,0,0
-602,547,0,0,0,0,0,0,0,0,0,-1,622,477,0,0
-595,547,0,0,0,0,0,0,0,0,0,-1,629,477,0,0
-588,547,0,0,0,0,0,0,0,0,0,-1,636,477,0,0
-581,547,0,0,0,0,0,0,0,0,0,-1,643,477,0,0
-574,547,0,0,0,0,0,0,0,0,0,-1,650,477,0,0
-567,547,0,0,0,0,0,0,0,0,0,-1,657,477,0,0
-560,547,0,0,0,0,0,0,0,0,0,-1,664,477,0,0
-553,547,0,0,0,0,0,0,0,0,0,-1,671,477,0,0
-546,547,0,0,0,0,0,0,0,0,0,-1,678,477,0,0
-539,547,0,0,0,0,0,0,0,0,0,-1,685,477,0,0
-532,547,0,0,0,0,0,0,0,0,0,-1,692,477,0,0
-525,547,0,0,0,0,0,0,0,0,0,-1,699,477,0,0
-518,547,0,0,0,0,0,0,0,0,0,-1,706,477,0,0
-511,547,0,0,0,0,0,0,0,0,0,-1,713,477,0,0
-504,547,0,0,0,0,0,0,0,0,0,-1,720,477,0,0
-497,547,0,0,0,0,0,0,0,0,0,-1,727,477,0,0
-490,547,0,0,0,0,0,0,0,0,0,-1,734,477,0,0
-483,547,0,0,0,0,0,0,0,0,0,-1,741,477,0,0
-476,547,0,0,0,0,0,0,0,0,0,-1,748,477,0,0
-469,547,0,0,0,0,0,0,0,0,0,-1,755,477,0,0
-462,547,0,0,0,0,0,0,0,0,0,-1,762,477,0,0
-455,547,0,0,0,0,0,0,0,0,0,-1,769,477,0,0
-448,547,0,0,0,0,0,0,0,0,0,-1,776,477,0,0
-441,547,0,0,0,0,0,0,0,0,0,-1,783,477,0,0
-434,547,0,0,0,0,0,0,0,0,0,-1,790,477,0,0
-427,547,0,0,0,0,0,0,0,0,0,-1,797,477,0,0
-420,547,0,0,0,0,0,0,0,0,0,-1,804,477,0,0
-413,547,0,0,0,0,0,0,0,0,0,-1,811,477,0,0
-406,547,0.8573,-6.14468,0,0,0,0,0,0,0,-1,818,477,0.85729,6.14469
-399,547,1.271,-4.19394,0,0,0,0,0,0,0,-1,825,477,1.27098,4.19393
-392,547,-1.52271,-4.41675,0,0,0,0,0,0,0,-1,832,477,-1.52273,4.41674
-385,547,-1.73743,-4.6431,0,0,0,0,0,0,0,-1,839,477,-1.73743,4.64308
-378,547,-2.41339,-4.60071,0,0,0,0,0,0,0,-1,846,477,-2.41337,4.60071
-371,547,-3.15997,-4.6044,0,0,0,0,0,0,0,-1,853,477,-3.15997,4.60439
-364,547,0.271729,-4.58582,0,0,0,0,0,0,0,-1,860,477,0.271753,4.5858
-357,547,1.13318,-6.4292,0,0,0,0,0,0,0,-1,867,477,1.1332,6.4292
-350,547,0.962036,-10.1512,0,0,0,0,0,0,0,-1,874,477,0.962062,10.1512
-343,547,0.896851,-10.595,0.00308986,0.00366911,-0.00490024,0.00828828,-0.00152931,-0.814916,0.00609954,0.0382722,881,477,0.896832,10.595
-336,547,0.865234,-11.0766,0.00343458,0.00342994,-0.00455373,0.007986,-0.00112147,-0.785143,0.00573449,0.016384,888,477,0.865207,11.0766
-329,547,0.835327,-11.3785,0.00364017,0.00308581,-0.00413452,0.00750678,-0.000780808,-0.751928,0.00528406,0.00849109,895,477,0.835341,11.3785
-322,547,0.825256,-11.6834,0.00366134,0.00279566,-0.00369133,0.00694512,-0.000488125,-0.727035,0.00480107,0.0095684,902,477,0.825254,11.6834
-315,547,0.808411,-11.9991,0.00347249,0.00268035,-0.00326396,0.00636432,-0.000211488,-0.72502,0.0043151,0.00940842,909,477,0.808391,11.9991
-308,547,0.802551,-12.2836,0.00317697,0.00256182,-0.00287321,0.00575902,-2.02295e-05,-0.732077,0.00384611,0.0111356,916,477,0.802551,12.2836
-301,547,0.809753,-12.5507,0.00278963,0.00234001,-0.00243588,0.00501105,0.000118582,-0.739383,0.00330188,0.0114082,923,477,0.809762,12.5507
-294,547,0.791443,-12.8219,0.00252664,0.00194378,-0.00191331,0.0041706,0.000299833,-0.709821,0.00268604,0.0102021,930,477,0.791441,12.8219
-287,547,0.771179,-13.0804,0.00252201,0.00118134,-0.00147944,0.00347589,0.000227456,-0.572684,0.00224529,0.011632,937,477,0.771196,13.0804
-280,547,0.776001,-13.3561,0.0024631,0.000562504,-0.00107143,0.00294494,8.06644e-05,-0.42262,0.00193697,0.0129918,944,477,0.775984,13.3561
-273,547,0.763672,-13.624,0.00243407,-0.000266398,-0.000635449,0.00257612,-0.000408453,-0.219935,0.00186851,0.0130258,951,477,0.763656,13.624
-266,547,0.746582,-13.8922,0.00259437,-0.00127985,-0.000126401,0.00259849,-0.00128397,-0.03258,0.00228396,0.0127477,958,477,0.746606,13.8922
-259,547,0.738342,-14.1506,0.00291897,-0.00240573,0.000377229,0.00294557,-0.00243232,0.0703767,0.00310963,0.0112623,965,477,0.73836,14.1506
-252,547,0.760803,-14.3992,0.00306717,-0.00339519,0.000931537,0.00319877,-0.00352679,0.140342,0.00388455,0.0112013,972,477,0.760808,14.3992
-245,547,0.776611,-14.6551,0.00293156,-0.00451319,0.00185213,0.00336689,-0.00494852,0.23085,0.00482976,0.0127696,979,477,0.776598,14.6551
-238,547,0.777283,-14.8951,0.00254782,-0.00628527,0.00320565,0.00358857,-0.00732602,0.313925,0.00642351,0.00875419,986,477,0.777284,14.8952
-231,547,0.787354,-15.1505,0.00197455,-0.00793574,0.00458865,0.00377287,-0.00973406,0.373508,0.00804741,0.00777682,993,477,0.787355,15.1505
-224,547,0.782227,-15.3767,0.00104251,-0.00947961,0.00620471,0.00391639,-0.0123535,0.433757,0.00980539,0.0105166,1000,477,0.782256,15.3767
-217,547,0.808533,-15.5932,-0.000257496,-0.0109925,0.00805481,0.00405436,-0.0153044,0.491498,0.0117891,0.0155129,1007,477,0.808555,15.5932
-210,547,0.872559,-15.7643,-0.00162073,-0.0123715,0.0101059,0.00445048,-0.0184427,0.540977,0.0140161,0.0292242,1014,477,0.872572,15.7643
-203,547,0.808228,-15.6834,-0.00311981,-0.0120973,0.0116409,0.00486781,-0.0200849,0.601382,0.0152733,0.0387301,1021,477,0.808224,15.6834
-196,547,0.616455,-15.7511,-0.00442772,-0.0106889,0.0132685,0.00607448,-0.0211911,0.669546,0.0165286,0.0410921,1028,477,0.616442,15.7511
-189,547,0.498657,-15.7008,-0.00508178,-0.00886441,0.0141363,0.00728916,-0.0212354,0.718897,0.0171122,0.0453336,1035,477,0.498657,15.7008
-182,547,0.448608,-15.6584,0,0,0,0,0,0,0,-1,1042,477,0.448614,15.6584
-175,547,-0.350098,-12.3584,0,0,0,0,0,0,0,-1,1049,477,-0.350098,12.3584
-168,547,1.12463,-8.66785,0,0,0,0,0,0,0,-1,1056,477,1.12461,8.66786
-161,547,-0.691406,-10.3529,0,0,0,0,0,0,0,-1,1063,477,-0.691388,10.3529
-154,547,1.31836,-19.0765,0,0,0,0,0,0,0,-1,1070,477,1.31839,19.0765
-147,547,1.11035,-18.7576,0,0,0,0,0,0,0,-1,1077,477,1.1104,18.7576
-140,547,1.599,-16.0124,0,0,0,0,0,0,0,-1,1084,477,1.59903,16.0124
-133,547,2.31665,-17.9421,0,0,0,0,0,0,0,-1,1091,477,2.31667,17.9421
-126,547,0.784302,-9.76431,0,0,0,0,0,0,0,-1,1098,477,0.78428,9.76432
-119,547,0.190308,-15.7633,0,0,0,0,0,0,0,-1,1105,477,0.190348,15.7633
-112,547,4.36194,-9.23029,0,0,0,0,0,0,0,-1,1112,477,4.36195,9.23029
-105,547,4.448,-9.17819,0,0,0,0,0,0,0,-1,1119,477,4.44799,9.1782
-98,547,1.50391,-7.20621,0,0,0,0,0,0,0,-1,1126,477,1.50395,7.20621
-91,547,1.37805,-7.12024,0,0,0,0,0,0,0,-1,1133,477,1.37804,7.12025
-84,547,1.94202,-6.66241,0,0,0,0,0,0,0,-1,1140,477,1.94201,6.66241
-77,547,-2.28357,1.8588,0,0,0,0,0,0,0,-1,1147,477,-2.28356,-1.85879
-70,547,-3.70178,-0.874908,0,0,0,0,0,0,0,-1,1154,477,-3.70182,0.874918
-63,547,-5.12012,-3.60861,0,0,0,0,0,0,0,-1,1161,477,-5.12009,3.60862
-56,547,-6.01917,-6.2399,0,0,0,0,0,0,0,-1,1168,477,-6.01921,6.23991
-49,547,-6.729,-8.60349,0,0,0,0,0,0,0,-1,1175,477,-6.72899,8.60348
-42,547,-2.41736,-5.53012,0,0,0,0,0,0,0,-1,1182,477,-2.41734,5.53011
-35,547,-2.96838,-4.45734,0,0,0,0,0,0,0,-1,1189,477,-2.96839,4.45734
-28,547,-0.869141,-1.29901,0,0,0,0,0,0,0,-1,1196,477,-0.869135,1.29901
-21,547,4.6062,-17.7772,0,0,0,0,0,0,0,-1,1203,477,4.60625,17.7771
-14,547,2.55115,-17.2508,0,0,0,0,0,0,0,-1,1210,477,2.55111,17.2508
-7,547,-0.560791,-14.6584,0,0,0,0,0,0,0,-1,1217,477,-0.560846,14.6584
0,547,-0.518677,-14.9079,0,0,0,0,0,0,0,-1,1224,477,-0.518733,14.9079
7,547,-0.45105,-15.1747,0,0,0,0,0,0,0,-1,1231,477,-0.451051,15.1747
14,547,0,0,0,0,0,0,0,0,0,-1,1238,477,0,0
21,547,0,0,0,0,0,0,0,0,0,-1,1245,477,0,0
28,547,0,0,0,0,0,0,0,0,0,-1,1252,477,0,0
35,547,0,0,0,0,0,0,0,0,0,-1,1259,477,0,0
42,547,0,0,0,0,0,0,0,0,0,-1,1266,477,0,0
49,547,0,0,0,0,0,0,0,0,0,-1,1273,477,0,0
56,547,0,0,0,0,0,0,0,0,0,-1,1280,477,0,0
63,547,0,0,0,0,0,0,0,0,0,-1,1287,477,0,0
70,547,0,0,0,0,0,0,0,0,0,-1,1294,477,0,0
77,547,0,0,0,0,0,0,0,0,0,-1,1301,477,0,0
84,547,0,0,0,0,0,0,0,0,0,-1,1308,477,0,0
91,547,0,0,0,0,0,0,0,0,0,-1,1315,477,0,0
98,547,0,0,0,0,0,0,0,0,0,-1,1322,477,0,0
105,547,9.04236,-27.0875,0.213184,-0.154928,-0.0321203,0.215966,-0.15771,-0.0863867,0.216614,0.0479293,1329,477,9.04239,27.0875
112,547,9.98572,-27.5415,0.217047,-0.14442,-0.026139,0.218928,-0.1463,-0.0718157,0.21225,0.0454731,1336,477,9.98572,27.5415
119,547,11.0597,-27.8846,0.21164,-0.136512,-0.0190382,0.212678,-0.13755,-0.0544671,0.203749,0.0429171,1343,477,11.0597,27.8846
126,547,12.2675,-28.3661,0.193039,-0.13312,-0.0129436,0.193552,-0.133633,-0.0396019,0.189953,0.042932,1350,477,12.2674,28.3662
133,547,13.5004,-28.8945,0.160747,-0.130248,-0.0110287,0.161165,-0.130665,-0.0378277,0.168795,0.043175,1357,477,13.5004,28.8945
140,547,14.7983,-29.2469,0,0,0,0,0,0,0,-1,1364,477,14.7983,29.2469
147,547,3.85449,-21.0166,0,0,0,0,0,0,0,-1,1371,477,3.85448,21.0166
154,547,-1.36047,-12.6197,0,0,0,0,0,0,0,-1,1378,477,-1.36049,12.6197
161,547,-1.47144,-12.6331,0,0,0,0,0,0,0,-1,1385,477,-1.47141,12.6331
168,547,-1.32007,-12.7464,0,0,0,0,0,0,0,-1,1392,477,-1.32002,12.7464
175,547,3.35034,-0.26532,0,0,0,0,0,0,0,-1,1399,477,3.3503,0.265306
182,547,4.26038,3.72672,0,0,0,0,0,0,0,-1,1406,477,4.26039,-3.7267
189,547,3.40454,1.28671,0,0,0,0,0,0,0,-1,1413,477,3.40457,-1.28673
196,547,3.53931,1.87793,0,0,0,0,0,0,0,-1,1420,477,3.53928,-1.87794
203,547,6.49414,-0.425842,0,0,0,0,0,0,0,-1,1427,477,6.4941,0.425844
210,547,4.82092,0.53595,0,0,0,0,0,0,0,-1,1434,477,4.82096,-0.535942
217,547,4.68579,0.480072,0,0,0,0,0,0,0,-1,1441,477,4.68577,-0.480069
224,547,4.55615,0.739807,0,0,0,0,0,0,0,-1,1448,477,4.55613,-0.73981
231,547,5.90869,-3.57721,0,0,0,0,0,0,0,-1,1455,477,5.90871,3.57722
238,547,5.50049,-3.15356,0,0,0,0,0,0,0,-1,1462,477,5.50045,3.15356
245,547,5.13708,-2.65213,0,0,0,0,0,0,0,-1,1469,477,5.13708,2.65212
252,547,3.73511,-0.645233,0,0,0,0,0,0,0,-1,1476,477,3.73515,0.645237
259,547,5.86816,-3.20816,0,0,0,0,0,0,0,-1,1483,477,5.86815,3.20816
266,547,5.40222,-2.45731,0,0,0,0,0,0,0,-1,1490,477,5.40221,2.45732
273,547,3.05737,0.495789,0,0,0,0,0,0,0,-1,1497,477,3.05742,-0.49578
280,547,2.0885,1.47797,0,0,0,0,0,0,0,-1,1504,477,2.08848,-1.47795
287,547,2.31177,-2.21716,0,0,0,0,0,0,0,-1,1511,477,2.31174,2.21717
294,547,2.4823,-3.03659,0,0,0,0,0,0,0,-1,1518,477,2.48229,3.0366
301,547,4.72119,-3.93454,0,0,0,0,0,0,0,-1,1525,477,4.72119,3.93453
308,547,4.07471,-5.42175,0,0,0,0,0,0,0,-1,1532,477,4.07468,5.42174
315,547,3.58496,-6.62112,0,0,0,0,0,0,0,-1,1539,477,3.58497,6.62113
322,547,5.73926,-14.1878,0,0,0,0,0,0,0,-1,1546,477,5.73926,14.1878
329,547,5.63477,-14.9828,0,0,0,0,0,0,0,-1,1553,477,5.63474,14.9828
336,547,5.90222,-14.8277,-0.000460004,-0.00343159,-0.00510808,0.00337398,-0.00726558,-0.643868,0.00627823,0.0430876,1560,477,5.90216,14.8277
343,547,5.88477,-14.7023,-0.000793647,-0.00308648,-0.00469088,0.00288887,-0.006769,-0.665551,0.00572402,0.0295584,1567,477,5.88471,14.7023
350,547,5.82935,-14.4252,-0.000934752,-0.00307254,-0.00425494,0.0023835,-0.00639079,-0.662338,0.00523899,0.0214756,1574,477,5.82938,14.4252
357,547,5.80042,-14.1365,-0.000870565,-0.00273007,-0.00372865,0.0020425,-0.00564313,-0.663213,0.00459676,0.0150217,1581,477,5.80038,14.1365
364,547,5.7782,-13.8701,-0.000639238,-0.00222916,-0.00299301,0.00166259,-0.00453098,-0.655593,0.00370148,0.0104326,1588,477,5.77825,13.8701
371,547,5.79541,-13.5954,-0.000482195,-0.00172216,-0.00232853,0.00130748,-0.00351183,-0.655289,0.00287781,0.00960022,1595,477,5.79545,13.5954
378,547,5.8031,-13.3311,-0.000420765,-0.00119144,-0.00178562,0.00102062,-0.00263283,-0.679127,0.0021767,0.0101261,1602,477,5.80305,13.3311
385,547,5.79956,-13.0565,-0.000330741,-0.000529878,-0.00124493,0.0008186,-0.00167922,-0.745494,0.00147037,0.0102752,1609,477,5.79962,13.0565
392,547,5.79138,-12.7722,-0.000282167,-6.22051e-05,-0.000713824,0.000550061,-0.000894433,-0.861834,0.000841842,0.0109723,1616,477,5.79139,12.7722
399,547,5.78723,-12.4705,-0.000256754,0.000250734,-0.0003872,0.000459926,-0.000465947,-1.07545,0.000534557,0.0131128,1623,477,5.78725,12.4705
406,547,5.81213,-12.1719,-0.000294465,0.000475421,-0.000162194,0.000508196,-0.000327239,-1.37141,0.000486096,0.0121715,1630,477,5.81215,12.1719
413,547,5.82068,-11.8761,-0.000418461,0.000667382,5.2689e-05,0.000669933,-0.000421012,1.52242,0.000635299,0.0119146,1637,477,5.82064,11.8761
420,547,5.82104,-11.5942,-0.000586758,0.000464335,0.00021201,0.000505487,-0.00062791,1.37908,0.000655638,0.0144562,1644,477,5.82103,11.5942
427,547,5.81775,-11.2807,-0.000675366,6.23526e-05,0.000451901,0.000276822,-0.000889835,1.12768,0.000703882,0.0138302,1651,477,5.81772,11.2807
434,547,5.77563,-10.9793,-0.000737932,-0.000505335,0.000664417,5.28849e-05,-0.00129615,0.872039,0.000882258,0.00947239,1658,477,5.77558,10.9794
441,547,5.76538,-10.7015,-0.000728981,-0.00134149,0.000901019,-8.35924e-05,-0.00198688,0.621574,0.00129762,0.010145,1665,477,5.76535,10.7015
448,547,5.76477,-10.373,-0.000722843,-0.00232655,0.00120337,-7.86455e-05,-0.00297075,0.49151,0.00195481,0.0114638,1672,477,5.76483,10.373
455,547,5.77002,-10.0443,-0.000635273,-0.00350276,0.00149233,4.44008e-07,-0.00413848,0.402709,0.00275913,0.0103291,1679,477,5.77007,10.0443
462,547,5.73572,-9.72025,-0.000320737,-0.00490342,0.00175221,0.000272445,-0.0054966,0.326424,0.00375851,0.00994772,1686,477,5.73569,9.72026
469,547,5.67517,-9.38965,0.000145344,-0.0064426,0.00188457,0.00064635,-0.00694361,0.259836,0.00485887,0.018086,1693,477,5.6752,9.38966
476,547,5.71411,-8.98282,0.000512496,-0.00814396,0.0018926,0.000908196,-0.00853966,0.206108,0.00601872,0.0423052,1700,477,5.71411,8.98282
483,547,5.81409,-8.54059,0,0,0,0,0,0,0,-1,1707,477,5.81405,8.5406
490,547,3.65271,-3.71707,0,0,0,0,0,0,0,-1,1714,477,3.65277,3.71708
497,547,2.55481,-3.81421,0,0,0,0,0,0,0,-1,1721,477,2.55476,3.8142
504,547,4.01953,-2.22714,0,0,0,0,0,0,0,-1,1728,477,4.0195,2.22713
511,547,5.2146,-6.9552,0,0,0,0,0,0,0,-1,1735,477,5.21464,6.95521
518,547,5.48401,-6.14368,0,0,0,0,0,0,0,-1,1742,477,5.48397,6.14368
525,547,5.7533,-5.33215,0,0,0,0,0,0,0,-1,1749,477,5.75329,5.33215
532,547,0,0,0,0,0,0,0,0,0,-1,1756,477,0,0
539,547,0,0,0,0,0,0,0,0,0,-1,1763,477,0,0
546,547,0,0,0,0,0,0,0,0,0,-1,1770,477,0,0
553,547,0,0,0,0,0,0,0,0,0,-1,1777,477,0,0
560,547,0,0,0,0,0,0,0,0,0,-1,1784,477,0,0
567,547,0,0,0,0,0,0,0,0,0,-1,1791,477,0,0
574,547,0,0,0,0,0,0,0,0,0,-1,1798,477,0,0
581,547,0,0,0,0,0,0,0,0,0,-1,1805,477,0,0
588,547,0,0,0,0,0,0,0,0,0,-1,1812,477,0,0
595,547,0,0,0,0,0,0,0,0,0,-1,1819,477,0,0
602,547,0,0,0,0,0,0,0,0,0,-1,1826,477,0,0
609,547,0,0,0,0,0,0,0,0,0,-1,1833,477,0,0
616,547,0,0,0,0,0,0,0,0,0,-1,1840,477,0,0
623,547,0,0,0,0,0,0,0,0,0,-1,1847,477,0,0
630,547,0,0,0,0,0,0,0,0,0,-1,1854,477,0,0
637,547,0,0,0,0,0,0,0,0,0,-1,1861,477,0,0
644,547,0,0,0,0,0,0,0,0,0,-1,1868,477,0,0
651,547,0,0,0,0,0,0,0,0,0,-1,1875,477,0,0
658,547,0,0,0,0,0,0,0,0,0,-1,1882,477,0,0
665,547,0,0,0,0,0,0,0,0,0,-1,1889,477,0,0
672,547,0,0,0,0,0,0,0,0,0,-1,1896,477,0,0
679,547,0,0,0,0,0,0,0,0,0,-1,1903,477,0,0
686,547,0,0,0,0,0,0,0,0,0,-1,1910,477,0,0
693,547,0,0,0,0,0,0,0,0,0,-1,1917,477,0,0
700,547,0,0,0,0,0,0,0,0,0,-1,1924,477,0,0
707,547,0,0,0,0,0,0,0,0,0,-1,1931,477,0,0
714,547,0,0,0,0,0,0,0,0,0,-1,1938,477,0,0
721,547,0,0,0,0,0,0,0,0,0,-1,1945,477,0,0
728,547,0,0,0,0,0,0,0,0,0,-1,1952,477,0,0
735,547,0,0,0,0,0,0,0,0,0,-1,1959,477,0,0
742,547,0,0,0,0,0,0,0,0,0,-1,1966,477,0,0
749,547,0,0,0,0,0,0,0,0,0,-1,1973,477,0,0
756,547,0,0,0,0,0,0,0,0,0,-1,1980,477,0,0
763,547,0,0,0,0,0,0,0,0,0,-1,1987,477,0,0
770,547,0,0,0,0,0,0,0,0,0,-1,1994,477,0,0
777,547,0,0,0,0,0,0,0,0,0,-1,2001,477,0,0
784,547,0,0,0,0,0,0,0,0,0,-1,2008,477,0,0
791,547,0,0,0,0,0,0,0,0,0,-1,2015,477,0,0
798,547,0,0,0,0,0,0,0,0,0,-1,2022,477,0,0
805,547,0,0,0,0,0,0,0,0,0,-1,2029,477,0,0
812,547,0,0,0,0,0,0,0,0,0,-1,2036,477,0,0
-700,540,0,0,0,0,0,0,0,0,0,-1,524,484,0,0
-693,540,0,0,0,0,0,0,0,0,0,-1,531,484,0,0
-686,540,0,0,0,0,0,0,0,0,0,-1,538,484,0,0
-679,540,0,0,0,0,0,0,0,0,0,-1,545,484,0,0
-672,540,0,0,0,0,0,0,0,0,0,-1,552,484,0,0
-665,540,0,0,0,0,0,0,0,0,0,-1,559,484,0,0
-658,540,0,0,0,0,0,0,0,0,0,-1,566,484,0,0
-651,540,0,0,0,0,0,0,0,0,0,-1,573,484,0,0
-644,540,0,0,0,0,0,0,0,0,0,-1,580,484,0,0
-637,540,0,0,0,0,0,0,0,0,0,-1,587,484,0,0
-630,540,0,0,0,0,0,0,0,0,0,-1,594,484,0,0
-623,540,0,0,0,0,0,0,0,0,0,-1,601,484,0,0
-616,540,0,0,0,0,0,0,0,0,0,-1,608,484,0,0
-609,540,0,0,0,0,0,0,0,0,0,-1,615,484,0,0
-602,540,0,0,0,0,0,0,0,0,0,-1,622,484,0,0
-595,540,0,0,0,0,0,0,0,0,0,-1,629,484,0,0
-588,540,0,0,0,0,0,0,0,0,0,-1,636,484,0,0
-581,540,0,0,0,0,0,0,0,0,0,-1,643,484,0,0
-574,540,0,0,0,0,0,0,0,0,0,-1,650,484,0,0
-567,540,0,0,0,0,0,0,0,0,0,-1,657,484,0,0
-560,540,0,0,0,0,0,0,0,0,0,-1,664,484,0,0
-553,540,0,0,0,0,0,0,0,0,0,-1,671,484,0,0
-546,540,0,0,0,0,0,0,0,0,0,-1,678,484,0,0
-539,540,0,0,0,0,0,0,0,0,0,-1,685,484,0,0
-532,540,0,0,0,0,0,0,0,0,0,-1,692,484,0,0
-525,540,0,0,0,0,0,0,0,0,0,-1,699,484,0,0
-518,540,0,0,0,0,0,0,0,0,0,-1,706,484,0,0
-511,540,0,0,0,0,0,0,0,0,0,-1,713,484,0,0
-504,540,0,0,0,0,0,0,0,0,0,-1,720,484,0,0
-497,540,0,0,0,0,0,0,0,0,0,-1,727,484,0,0
-490,540,0,0,0,0,0,0,0,0,0,-1,734,484,0,0
-483,540,0,0,0,0,0,0,0,0,0,-1,741,484,0,0
-476,540,0,0,0,0,0,0,0,0,0,-1,748,484,0,0
-469,540,0,0,0,0,0,0,0,0,0,-1,755,484,0,0
-462,540,0,0,0,0,0,0,0,0,0,-1,762,484,0,0
-455,540,0,0,0,0,0,0,0,0,0,-1,769,484,0,0
-448,540,0,0,0,0,0,0,0,0,0,-1,776,484,0,0
-441,540,0,0,0,0,0,0,0,0,0,-1,783,484,0,0
-434,540,0,0,0,0,0,0,0,0,0,-1,790,484,0,0
-427,540,0,0,0,0,0,0,0,0,0,-1,797,484,0,0
-420,540,0.319397,-9.34122,0,0,0,0,0,0,0,-1,804,484,0.319412,9.34122
-413,540,0.569153,-8.03989,0,0,0,0,0,0,0,-1,811,484,0.56913,8.03988
-406,540,0.992554,-6.1304,0,0,0,0,0,0,0,-1,818,484,0.992553,6.13041
-399,540,1.35217,-4.24222,0,0,0,0,0,0,0,-1,825,484,1.35215,4.24222
-392,540,1.74487,-2.36649,0,0,0,0,0,0,0,-1,832,484,1.74486,2.36648
-385,540,-2.29407,-5.03418,0,0,0,0,0,0,0,-1,839,484,-2.29408,5.03418
-378,540,-3.78162,-4.68256,0,0,0,0,0,0,0,-1,846,484,-3.78161,4.68257
-371,540,0.246338,-6.47092,0,0,0,0,0,0,0,-1,853,484,0.246322,6.47091
-364,540,0.765686,-9.86752,0,0,0,0,0,0,0,-1,860,484,0.765665,9.86751
-357,540,0.761902,-10.1631,0,0,0,0,0,0,0,-1,867,484,0.76189,10.1631
-350,540,0.661255,-10.3323,0.00130615,0.00297863,-0.00433415,0.00655648,-0.00227169,-0.880699,0.00529328,0.0312779,874,484,0.661228,10.3323
-343,540,0.584229,-10.7342,0.00143902,0.00298138,-0.00370647,0.00599604,-0.00157565,-0.887967,0.00461316,0.0149282,881,484,0.584228,10.7342
-336,540,0.540039,-11.1087,0.00173097,0.00268939,-0.0033629,0.00560705,-0.00118669,-0.856171,0.00418999,0.0119422,888,484,0.540063,11.1087
-329,540,0.545044,-11.3925,0.00196364,0.00234529,-0.0030047,0.00516521,-0.000856287,-0.81711,0.00376153,0.0095915,895,484,0.545065,11.3925
-322,540,0.543274,-11.6933,0.00205268,0.00204424,-0.00261519,0.00466366,-0.000566733,-0.784592,0.00331421,0.0131425,902,484,0.543255,11.6933
-315,540,0.528809,-11.9958,0.00200066,0.00190432,-0.00221522,0.00416823,-0.000263256,-0.774527,0.0028706,0.0116359,909,484,0.528789,11.9958
-308,540,0.522095,-12.2663,0.00187238,0.00176803,-0.00183846,0.0036594,-1.89915e-05,-0.771212,0.00244596,0.0113093,916,484,0.522095,12.2663
-301,540,0.50354,-12.5141,0.00168195,0.00154099,-0.00142105,0.00303427,0.000188671,-0.76062,0.00196298,0.0120411,923,484,0.503562,12.5141
-294,540,0.516968,-12.7971,0.00169457,0.00112844,-0.000905829,0.00236053,0.000462482,-0.633959,0.00144442,0.0110489,930,484,0.516967,12.7971
-287,540,0.531494,-13.0853,0.00207697,0.00022912,-0.000572032,0.00223972,6.63723e-05,-0.277185,0.00147152,0.00836863,937,484,0.531487,13.0853
-280,540,0.51825,-13.3544,0.00235095,-0.00046625,-0.000217142,0.00236759,-0.000482889,-0.0764752,0.00176156,0.00999387,944,484,0.518248,13.3544
-273,540,0.507019,-13.6304,0.00264477,-0.00146597,0.000175683,0.00265227,-0.00147346,0.042634,0.00241418,0.0128547,951,484,0.507007,13.6304
-266,540,0.500183,-13.9062,0.00311686,-0.0026343,0.00069542,0.00319975,-0.00271719,0.11864,0.00341993,0.0134559,958,484,0.500192,13.9062
-259,540,0.503052,-14.1838,0.003852,-0.00399608,0.00113149,0.00401187,-0.00415595,0.140367,0.00471594,0.0119598,965,484,0.503077,14.1838
-252,540,0.524048,-14.4103,0.00429306,-0.00514865,0.00166143,0.00457689,-0.00543248,0.169199,0.00578594,0.012054,972,484,0.524024,14.4103
-245,540,0.540405,-14.663,0.00425381,-0.00648347,0.00268734,0.00488884,-0.0071185,0.232049,0.00697217,0.012886,979,484,0.540418,14.663
-238,540,0.525574,-14.8918,0.00385821,-0.00857427,0.00424586,0.00516985,-0.00988591,0.299621,0.00883345,0.00962907,986,484,0.525585,14.8918
-231,540,0.532349,-15.1234,0.00316865,-0.0105296,0.00587199,0.00534121,-0.0127021,0.354369,0.0107024,0.0112128,993,484,0.532335,15.1234
-224,540,0.517029,-15.3364,0.00191846,-0.0124384,0.00791638,0.00542642,-0.0159464,0.417124,0.0128282,0.016442,1000,484,0.517033,15.3364
-217,540,0.4776,-15.5101,0.000114184,-0.0142837,0.0103123,0.00549171,-0.0196612,0.480675,0.0152708,0.0282601,1007,484,0.477627,15.5101
-210,540,0.607971,-15.6813,-0.0018944,-0.0160218,0.0130519,0.00588263,-0.0237988,0.537367,0.0181474,0.0434684,1014,484,0.607951,15.6813
-203,540,0.666565,-15.9658,-0.00422917,-0.0156892,0.0152601,0.00634123,-0.0262596,0.605798,0.0199588,0.0434563,1021,484,0.666539,15.9658
-196,540,0.327759,-15.8354,-0.00639341,-0.0139263,0.01759,0.00782889,-0.0281486,0.679929,0.0218481,0.0470165,1028,484,0.32776,15.8354
-189,540,0.148926,-15.2994,-0.00791918,-0.0116324,0.0189716,0.00928639,-0.028838,0.736622,0.0229557,0.0487571,1035,484,0.148897,15.2994
-182,540,0.109375,-15.2948,0,0,0,0,0,0,0,-1,1042,484,0.109331,15.2948
-175,540,1.73413,-10.728,0,0,0,0,0,0,0,-1,1049,484,1.73414,10.728
-168,540,1.18164,-7.65347,0,0,0,0,0,0,0,-1,1056,484,1.18163,7.65347
-161,540,-0.405884,-9.86481,0,0,0,0,0,0,0,-1,1063,484,-0.405886,9.8648
-154,540,0.15686,-11.5802,0,0,0,0,0,0,0,-1,1070,484,0.15682,11.5802
-147,540,1.0376,-13.8125,0,0,0,0,0,0,0,-1,1077,484,1.03762,13.8125
-140,540,1.40735,-15.6289,0,0,0,0,0,0,0,-1,1084,484,1.4073,15.6289
-133,540,2.28345,-17.6413,0,0,0,0,0,0,0,-1,1091,484,2.2835,17.6413
-126,540,1.46765,-17.5085,0,0,0,0,0,0,0,-1,1098,484,1.46764,17.5085
-119,540,6.18579,-10.4846,0,0,0,0,0,0,0,-1,1105,484,6.18582,10.4846
-112,540,5.8468,-9.65106,0,0,0,0,0,0,0,-1,1112,484,5.84681,9.65106
-105,540,5.50781,-8.81754,0,0,0,0,0,0,0,-1,1119,484,5.5078,8.81753
-98,540,0.73877,-3.08093,0,0,0,0,0,0,0,-1,1126,484,0.738754,3.08092
-91,540,1.56519,-7.48666,0,0,0,0,0,0,0,-1,1133,484,1.56514,7.48667
-84,540,-0.945923,4.43073,0,0,0,0,0,0,0,-1,1140,484,-0.945891,-4.43074
-77,540,-2.28894,2.14368,0,0,0,0,0,0,0,-1,1147,484,-2.28894,-2.14368
-70,540,-3.75244,-0.452576,0,0,0,0,0,0,0,-1,1154,484,-3.75244,0.452576
-63,540,-5.26257,-3.04767,0,0,0,0,0,0,0,-1,1161,484,-5.26262,3.04766
-56,540,-5.19055,-6.12595,0,0,0,0,0,0,0,-1,1168,484,-5.19057,6.12595
-49,540,-5.63867,-8.52298,0,0,0,0,0,0,0,-1,1175,484,-5.63871,8.52298
-42,540,0,0,0,0,0,0,0,0,0,-1,1182,484,0,0
-35,540,0,0,0,0,0,0,0,0,0,-1,1189,484,0,0
-28,540,0,0,0,0,0,0,0,0,0,-1,1196,484,0,0
-21,540,0,0,0,0,0,0,0,0,0,-1,1203,484,0,0
-14,540,0,0,0,0,0,0,0,0,0,-1,1210,484,0,0
-7,540,0,0,0,0,0,0,0,0,0,-1,1217,484,0,0
0,540,0,0,0,0,0,0,0,0,0,-1,1224,484,0,0
7,540,0,0,0,0,0,0,0,0,0,-1,1231,484,0,0
14,540,0,0,0,0,0,0,0,0,0,-1,1238,484,0,0
21,540,0,0,0,0,0,0,0,0,0,-1,1245,484,0,0
28,540,0,0,0,0,0,0,0,0,0,-1,1252,484,0,0
35,540,0,0,0,0,0,0,0,0,0,-1,1259,484,0,0
42,540,0,0,0,0,0,0,0,0,0,-1,1266,484,0,0
49,540,0,0,0,0,0,0,0,0,0,-1,1273,484,0,0
56,540,0,0,0,0,0,0,0,0,0,-1,1280,484,0,0
63,540,0,0,0,0,0,0,0,0,0,-1,1287,484,0,0
70,540,0,0,0,0,0,0,0,0,0,-1,1294,484,0,0
77,540,0,0,0,0,0,0,0,0,0,-1,1301,484,0,0
84,540,0,0,0,0,0,0,0,0,0,-1,1308,484,0,0
91,540,0,0,0,0,0,0,0,0,0,-1,1315,484,0,0
98,540,0,0,0,0,0,0,0,0,0,-1,1322,484,0,0
105,540,0,0,0,0,0,0,0,0,0,-1,1329,484,0,0
112,540,0,0,0,0,0,0,0,0,0,-1,1336,484,0,0
119,540,0,0,0,0,0,0,0,0,0,-1,1343,484,0,0
126,540,0,0,0,0,0,0,0,0,0,-1,1350,484,0,0
133,540,0,0,0,0,0,0,0,0,0,-1,1357,484,0,0
140,540,0,0,0,0,0,0,0,0,0,-1,1364,484,0,0
147,540,0,0,0,0,0,0,0,0,0,-1,1371,484,0,0
154,540,0,0,0,0,0,0,0,0,0,-1,1378,484,0,0
161,540,0,0,0,0,0,0,0,0,0,-1,1385,484,0,0
168,540,3.05078,-0.0010376,0,0,0,0,0,0,0,-1,1392,484,3.05084,0.00102554
175,540,3.37708,0.617035,0,0,0,0,0,0,0,-1,1399,484,3.37707,-0.617046
182,540,3.32678,1.23267,0,0,0,0,0,0,0,-1,1406,484,3.32678,-1.23266
189,540,3.5813,2.15619,0,0,0,0,0,0,0,-1,1413,484,3.58129,-2.1562
196,540,1.84448,-0.801483,0,0,0,0,0,0,0,-1,1420,484,1.84446,0.80148
203,540,4.14648,0.702087,0,0,0,0,0,0,0,-1,1427,484,4.14645,-0.702089
210,540,4.50671,-0.56076,0,0,0,0,0,0,0,-1,1434,484,4.50667,0.560771
217,540,5.00452,-0.278717,0,0,0,0,0,0,0,-1,1441,484,5.00452,0.278709
224,540,6.44458,-2.83527,0,0,0,0,0,0,0,-1,1448,484,6.44457,2.83525
231,540,6.9231,-3.10504,0,0,0,0,0,0,0,-1,1455,484,6.92307,3.10505
238,540,6.4823,-2.58365,0,0,0,0,0,0,0,-1,1462,484,6.48225,2.58363
245,540,6.02087,-1.97916,0,0,0,0,0,0,0,-1,1469,484,6.02088,1.97915
252,540,6.50647,-3.56006,0,0,0,0,0,0,0,-1,1476,484,6.50649,3.56006
259,540,6.01941,-2.798,0,0,0,0,0,0,0,-1,1483,484,6.01941,2.79801
266,540,5.5332,-2.02853,0,0,0,0,0,0,0,-1,1490,484,5.53323,2.02855
273,540,5.06787,-1.28137,0,0,0,0,0,0,0,-1,1497,484,5.06786,1.28136
280,540,1.62903,-2.14609,0,0,0,0,0,0,0,-1,1504,484,1.62906,2.1461
287,540,1.97156,-2.45053,0,0,0,0,0,0,0,-1,1511,484,1.97159,2.45053
294,540,2.44165,-2.6185,0,0,0,0,0,0,0,-1,1518,484,2.44167,2.6185
301,540,4.36169,-2.54272,0,0,0,0,0,0,0,-1,1525,484,4.36165,2.54272
308,540,4.2019,-4.30469,0,0,0,0,0,0,0,-1,1532,484,4.20193,4.3047
315,540,4.45923,-5.32101,0,0,0,0,0,0,0,-1,1539,484,4.45923,5.32103
322,540,4.71655,-6.33737,0,0,0,0,0,0,0,-1,1546,484,4.71653,6.33736
329,540,5.8949,-12.9383,0,0,0,0,0,0,0,-1,1553,484,5.89492,12.9383
336,540,6.37378,-14.9648,0,0,0,0,0,0,0,-1,1560,484,6.37372,14.9648
343,540,6.30566,-14.8404,0,0,0,0,0,0,0,-1,1567,484,6.30567,14.8404
350,540,6.09998,-14.5295,0,0,0,0,0,0,0,-1,1574,484,6.1,14.5295
357,540,6.18774,-13.9417,-0.00163121,-0.00383022,-0.00516183,0.00254692,-0.00800835,-0.680463,0.00636019,0.0441341,1581,484,6.18771,13.9416
364,540,6.03113,-13.791,-0.00110445,-0.00323742,-0.0041525,0.00211634,-0.0064582,-0.6597,0.00515773,0.0264994,1588,484,6.0311,13.791
371,540,6.03052,-13.5734,-0.000755261,-0.00263605,-0.00331696,0.00175203,-0.00514335,-0.647267,0.00413844,0.0168422,1595,484,6.03049,13.5734
378,540,6.08313,-13.3037,-0.000625955,-0.00202784,-0.00268035,0.00144359,-0.00409738,-0.657506,0.00331913,0.0123013,1602,484,6.0831,13.3037
385,540,6.08887,-13.0374,-0.000492773,-0.00138973,-0.00205917,0.00116619,-0.00304869,-0.678174,0.00251307,0.0131116,1609,484,6.08884,13.0374
392,540,6.06287,-12.762,-0.000396019,-0.000862145,-0.00142908,0.000818877,-0.00207704,-0.704567,0.00172376,0.0118495,1616,484,6.06292,12.762
399,540,6.04919,-12.4899,-0.000326929,-0.000501967,-0.00102597,0.000615245,-0.00144414,-0.742849,0.00122067,0.0161777,1623,484,6.04916,12.4899
406,540,6.07361,-12.2055,-0.00029384,-0.000194441,-0.000764423,0.000521896,-0.00101018,-0.81786,0.000899392,0.0154119,1630,484,6.07363,12.2055
413,540,6.10669,-11.9031,-0.000299147,0.000134519,-0.000476446,0.000441153,-0.000605781,-0.998944,0.000606934,0.0114421,1637,484,6.10671,11.9031
420,540,6.12695,-11.5851,-0.000425078,0.000127982,-0.000286065,0.000249324,-0.00054642,-1.16962,0.000469975,0.0110509,1644,484,6.12694,11.5851
427,540,6.10278,-11.2809,-0.000521752,-6.35309e-05,-4.39133e-05,-5.93605e-05,-0.000525922,-1.47611,0.000332599,0.0119687,1651,484,6.10282,11.2809
434,540,6.06958,-10.9762,-0.000553856,-0.000421249,0.00020969,-0.000267629,-0.000707476,0.938523,0.000412476,0.0146702,1658,484,6.06957,10.9762
441,540,6.06519,-10.6655,-0.000499771,-0.000985893,0.000472517,-0.000211465,-0.0012742,0.547849,0.000788487,0.0185838,1665,484,6.06517,10.6655
448,540,6.07092,-10.3676,-0.000447624,-0.00167555,0.000778755,-6.99169e-05,-0.00205326,0.451587,0.00134614,0.0118311,1672,484,6.07091,10.3677
455,540,6.07288,-10.0408,-0.000332627,-0.00248434,0.0010585,0.000100786,-0.00291776,0.388633,0.00197962,0.00992338,1679,484,6.07292,10.0408
462,540,6.04211,-9.71051,-3.51186e-05,-0.003543,0.00126379,0.00037276,-0.00395088,0.312189,0.00276656,0.00963304,1686,484,6.04211,9.7105
469,540,6.01648,-9.40442,0.000349133,-0.00471633,0.00130153,0.000663983,-0.00503118,0.237347,0.00359594,0.0130051,1693,484,6.0165,9.4044
476,540,5.99805,-9.13623,0.00060895,-0.00602915,0.00123328,0.000830673,-0.00625087,0.177883,0.00446994,0.0217967,1700,484,5.998,9.13623
483,540,6.03235,-8.8588,0.000754282,-0.00766016,0.000833546,0.000836059,-0.00774194,0.0977949,0.00546135,0.0414696,1707,484,6.03231,8.85879
490,540,6.23914,-8.45767,0,0,0,0,0,0,0,-1,1714,484,6.23916,8.45767
497,540,4.27393,-2.67752,0,0,0,0,0,0,0,-1,1721,484,4.27395,2.67751
504,540,5.52747,-4.4433,0,0,0,0,0,0,0,-1,1728,484,5.5275,4.44329
511,540,5.9585,-7.16177,0,0,0,0,0,0,0,-1,1735,484,5.95856,7.16176
518,540,6.05859,-6.52338,0,0,0,0,0,0,0,-1,1742,484,6.05861,6.52337
525,540,6.15869,-5.88498,0,0,0,0,0,0,0,-1,1749,484,6.15866,5.88497
532,540,2.84265,-1.07925,0,0,0,0,0,0,0,-1,1756,484,2.84269,1.07927
539,540,0,0,0,0,0,0,0,0,0,-1,1763,484,0,0
546,540,0,0,0,0,0,0,0,0,0,-1,1770,484,0,0
553,540,0,0,0,0,0,0,0,0,0,-1,1777,484,0,0
560,540,0,0,0,0,0,0,0,0,0,-1,1784,484,0,0
567,540,0,0,0,0,0,0,0,0,0,-1,1791,484,0,0
574,540,0,0,0,0,0,0,0,0,0,-1,1798,484,0,0
581,540,0,0,0,0,0,0,0,0,0,-1,1805,484,0,0
588,540,0,0,0,0,0,0,0,0,0,-1,1812,484,0,0
595,540,0,0,0,0,0,0,0,0,0,-1,1819,484,0,0
602,540,0,0,0,0,0,0,0,0,0,-1,1826,484,0,0
609,540,0,0,0,0,0,0,0,0,0,-1,1833,484,0,0
616,540,0,0,0,0,0,0,0,0,0,-1,1840,484,0,0
623,540,0,0,0,0,0,0,0,0,0,-1,1847,484,0,0
630,540,0,0,0,0,0,0,0,0,0,-1,1854,484,0,0
637,540,0,0,0,0,0,0,0,0,0,-1,1861,484,0,0
644,540,0,0,0,0,0,0,0,0,0,-1,1868,484,0,0
651,540,0,0,0,0,0,0,0,0,0,-1,1875,484,0,0
658,540,0,0,0,0,0,0,0,0,0,-1,1882,484,0,0
665,540,0,0,0,0,0,0,0,0,0,-1,1889,484,0,0
672,540,0,0,0,0,0,0,0,0,0,-1,1896,484,0,0
679,540,0,0,0,0,0,0,0,0,0,-1,1903,484,0,0
686,540,0,0,0,0,0,0,0,0,0,-1,1910,484,0,0
693,540,0,0,0,0,0,0,0,0,0,-1,1917,484,0,0
700,540,0,0,0,0,0,0,0,0,0,-1,1924,484,0,0
707,540,0,0,0,0,0,0,0,0,0,-1,1931,484,0,0
714,540,0,0,0,0,0,0,0,0,0,-1,1938,484,0,0
721,540,0,0,0,0,0,0,0,0,0,-1,1945,484,0,0
728,540,0,0,0,0,0,0,0,0,0,-1,1952,484,0,0
735,540,0,0,0,0,0,0,0,0,0,-1,1959,484,0,0
742,540,0,0,0,0,0,0,0,0,0,-1,1966,484,0,0
749,540,0,0,0,0,0,0,0,0,0,-1,1973,484,0,0
756,540,0,0,0,0,0,0,0,0,0,-1,1980,484,0,0
763,540,0,0,0,0,0,0,0,0,0,-1,1987,484,0,0
770,540,0,0,0,0,0,0,0,0,0,-1,1994,484,0,0
777,540,0,0,0,0,0,0,0,0,0,-1,2001,484,0,0
784,540,0,0,0,0,0,0,0,0,0,-1,2008,484,0,0
791,540,0,0,0,0,0,0,0,0,0,-1,2015,484,0,0
798,540,0,0,0,0,0,0,0,0,0,-1,2022,484,0,0
805,540,0,0,0,0,0,0,0,0,0,-1,2029,484,0,0
812,540,0,0,0,0,0,0,0,0,0,-1,2036,484,0,0
-700,533,0,0,0,0,0,0,0,0,0,-1,524,491,0,0
-693,533,0,0,0,0,0,0,0,0,0,-1,531,491,0,0
-686,533,0,0,0,0,0,0,0,0,0,-1,538,491,0,0
-679,533,0,0,0,0,0,0,0,0,0,-1,545,491,0,0
-672,533,0,0,0,0,0,0,0,0,0,-1,552,491,0,0
-665,533,0,0,0,0,0,0,0,0,0,-1,559,491,0,0
-658,533,0,0,0,0,0,0,0,0,0,-1,566,491,0,0
-651,533,0,0,0,0,0,0,0,0,0,-1,573,491,0,0
-644,533,0,0,0,0,0,0,0,0,0,-1,580,491,0,0
-637,533,0,0,0,0,0,0,0,0,0,-1,587,491,0,0
-630,533,0,0,0,0,0,0,0,0,0,-1,594,491,0,0
-623,533,0,0,0,0,0,0,0,0,0,-1,601,491,0,0
-616,533,0,0,0,0,0,0,0,0,0,-1,608,491,0,0
-609,533,0,0,0,0,0,0,0,0,0,-1,615,491,0,0
-602,533,0,0,0,0,0,0,0,0,0,-1,622,491,0,0
-595,533,0,0,0,0,0,0,0,0,0,-1,629,491,0,0
-588,533,0,0,0,0,0,0,0,0,0,-1,636,491,0,0
-581,533,0,0,0,0,0,0,0,0,0,-1,643,491,0,0
-574,533,0,0,0,0,0,0,0,0,0,-1,650,491,0,0
-567,533,0,0,0,0,0,0,0,0,0,-1,657,491,0,0
-560,533,0,0,0,0,0,0,0,0,0,-1,664,491,0,0
-553,533,0,0,0,0,0,0,0,0,0,-1,671,491,0,0
-546,533,0,0,0,0,0,0,0,0,0,-1,678,491,0,0
-539,533,0,0,0,0,0,0,0,0,0,-1,685,491,0,0
-532,533,0,0,0,0,0,0,0,0,0,-1,692,491,0,0
-525,533,0,0,0,0,0,0,0,0,0,-1,699,491,0,0
-518,533,0,0,0,0,0,0,0,0,0,-1,706,491,0,0
-511,533,0,0,0,0,0,0,0,0,0,-1,713,491,0,0
-504,533,0,0,0,0,0,0,0,0,0,-1,720,491,0,0
-497,533,0,0,0,0,0,0,0,0,0,-1,727,491,0,0
-490,533,0,0,0,0,0,0,0,0,0,-1,734,491,0,0
-483,533,0,0,0,0,0,0,0,0,0,-1,741,491,0,0
-476,533,0,0,0,0,0,0,0,0,0,-1,748,491,0,0
-469,533,0,0,0,0,0,0,0,0,0,-1,755,491,0,0
-462,533,0,0,0,0,0,0,0,0,0,-1,762,491,0,0
-455,533,0,0,0,0,0,0,0,0,0,-1,769,491,0,0
-448,533,0,0,0,0,0,0,0,0,0,-1,776,491,0,0
-441,533,0,0,0,0,0,0,0,0,0,-1,783,491,0,0
-434,533,0,0,0,0,0,0,0,0,0,-1,790,491,0,0
-427,533,-0.122925,-6.00681,0,0,0,0,0,0,0,-1,797,491,-0.12292,6.0068
-420,533,0.47583,-9.66522,0,0,0,0,0,0,0,-1,804,491,0.475807,9.66523
-413,533,0.69989,-7.88477,0,0,0,0,0,0,0,-1,811,491,0.699895,7.88475
-406,533,1.03619,-6.12021,0,0,0,0,0,0,0,-1,818,491,1.0362,6.1202
-399,533,1.49341,-4.32501,0,0,0,0,0,0,0,-1,825,491,1.49343,4.32502
-392,533,1.98297,-2.53873,0,0,0,0,0,0,0,-1,832,491,1.98299,2.53873
-385,533,-1.69116,-6.64645,0,0,0,0,0,0,0,-1,839,491,-1.69115,6.64645
-378,533,-0.761414,-5.15549,0,0,0,0,0,0,0,-1,846,491,-0.761387,5.15549
-371,533,0.432007,-9.56674,0,0,0,0,0,0,0,-1,853,491,0.432019,9.56676
-364,533,0.423767,-9.90845,1.38772e-05,0.00322492,-0.00500229,0.00687303,-0.00363423,-0.940684,0.00616168,0.043434,860,491,0.423788,9.90843
-357,533,0.353333,-10.1623,0.000193832,0.00288969,-0.00406561,0.00582499,-0.00274147,-0.945468,0.00505152,0.0245309,867,491,0.353305,10.1623
-350,533,0.330139,-10.4436,0.000285105,0.00235259,-0.00331797,0.00479413,-0.00215644,-0.936411,0.0041081,0.0103704,874,491,0.330132,10.4436
-343,533,0.303345,-10.8042,0.000372528,0.00222051,-0.00266603,0.00411812,-0.00152509,-0.95221,0.00337081,0.0104654,881,491,0.30335,10.8042
-336,533,0.266052,-11.1118,0.000636501,0.00189968,-0.0023263,0.0036786,-0.00114243,-0.917952,0.00290897,0.0145493,888,491,0.266029,11.1118
-329,533,0.25946,-11.3859,0.000893845,0.00158216,-0.00202312,0.00329018,-0.00081418,-0.869648,0.00250927,0.0131551,895,491,0.259479,11.3859
-322,533,0.268494,-11.6832,0.00103924,0.00130043,-0.00168976,0.00286463,-0.00052496,-0.823966,0.00210666,0.0108024,902,491,0.268474,11.6832
-315,533,0.24646,-11.9805,0.00107796,0.00117319,-0.00133309,0.00245952,-0.000208369,-0.80325,0.00171336,0.0114348,909,491,0.246488,11.9805
-308,533,0.22522,-12.2452,0.00107044,0.00104765,-0.000991646,0.00205076,6.73328e-05,-0.779654,0.00134529,0.0108757,916,491,0.225208,12.2452
-301,533,0.211731,-12.5081,0.00103366,0.000846242,-0.000622097,0.00156906,0.000310834,-0.710645,0.000959365,0.0121696,923,491,0.211731,12.5081
-294,533,0.233643,-12.7927,0.00128494,0.000462581,-0.000138612,0.00130767,0.000439846,-0.162572,0.000768346,0.0111802,930,491,0.233641,12.7927
-287,533,0.247559,-13.0875,0.00204801,-0.000535587,6.23532e-05,0.00204952,-0.000537091,0.0241155,0.00157618,0.00904474,937,491,0.247587,13.0875
-280,533,0.246521,-13.3705,0.00267383,-0.00128272,0.000337013,0.00270233,-0.00131122,0.0843686,0.00236317,0.00896821,944,491,0.246522,13.3705
-273,533,0.246094,-13.6342,0.00331447,-0.00244878,0.000670261,0.0033914,-0.00252571,0.114267,0.00342841,0.0128336,951,491,0.246102,13.6342
-266,533,0.246399,-13.8998,0.00411865,-0.00381277,0.00123359,0.00430608,-0.0040002,0.150789,0.00479672,0.0118789,958,491,0.24637,13.8998
-259,533,0.251221,-14.1585,0.0053569,-0.00546017,0.00159682,0.0055877,-0.00569097,0.143543,0.00651183,0.0116415,965,491,0.25124,14.1585
-252,533,0.267517,-14.3835,0.00618682,-0.00687714,0.00212324,0.00652324,-0.00721356,0.15714,0.00793428,0.0135999,972,491,0.267536,14.3834
-245,533,0.340759,-14.6146,0.00630272,-0.00855474,0.00331479,0.00700872,-0.00926074,0.209849,0.00942313,0.0200099,979,491,0.34074,14.6146
-238,533,0.32782,-14.7549,0.00586491,-0.0111791,0.00521241,0.00733259,-0.0126468,0.274468,0.0116703,0.0220839,986,491,0.327822,14.7549
-231,533,0.149841,-14.9076,0,0,0,0,0,0,0,-1,993,491,0.149841,14.9076
-224,533,0.107666,-15.1382,0.00329948,-0.0159485,0.00981135,0.00741899,-0.020068,0.397519,0.0164202,0.0434217,1000,491,0.107665,15.1382
-217,533,-0.0684814,-15.4173,0.000875155,-0.018224,0.0129061,0.00738058,-0.0247294,0.466887,0.0194198,0.0489135,1007,491,-0.0684534,15.4173
-210,533,0.383362,-15.6591,0,0,0,0,0,0,0,-1,1014,491,0.383382,15.6592
-203,533,0.441956,-16.2329,0,0,0,0,0,0,0,-1,1021,491,0.441977,16.2329
-196,533,0.565674,-16.3236,0,0,0,0,0,0,0,-1,1028,491,0.565693,16.3237
-189,533,-0.169189,-15.0303,0,0,0,0,0,0,0,-1,1035,491,-0.169241,15.0303
-182,533,1.26123,-11.4969,0,0,0,0,0,0,0,-1,1042,491,1.26128,11.4969
-175,533,0.937744,-7.36966,0,0,0,0,0,0,0,-1,1049,491,0.937769,7.36965
-168,533,2.64807,-2.7543,0,0,0,0,0,0,0,-1,1056,491,2.64812,2.7543
-161,533,1.91833,-1.76553,0,0,0,0,0,0,0,-1,1063,491,1.91836,1.76554
-154,533,0.376709,-11.0633,0,0,0,0,0,0,0,-1,1070,491,0.376715,11.0632
-147,533,0.383789,-12.1586,0,0,0,0,0,0,0,-1,1077,491,0.383829,12.1586
-140,533,1.14001,-15.4608,0,0,0,0,0,0,0,-1,1084,491,1.14005,15.4608
-133,533,0.189941,-16.0795,0,0,0,0,0,0,0,-1,1091,491,0.18994,16.0795
-126,533,2.89612,-2.59003,0,0,0,0,0,0,0,-1,1098,491,2.89608,2.59003
-119,533,3.00842,-12.8239,0,0,0,0,0,0,0,-1,1105,491,3.00841,12.8239
-112,533,7.05884,-10.21,0,0,0,0,0,0,0,-1,1112,491,7.0588,10.21
-105,533,3.84839,1.12769,0,0,0,0,0,0,0,-1,1119,491,3.84843,-1.12769
-98,533,-1.39392,-5.16367,0,0,0,0,0,0,0,-1,1126,491,-1.39394,5.16367
-91,533,0.367432,4.49753,0,0,0,0,0,0,0,-1,1133,491,0.367468,-4.49754
-84,533,-0.88623,3.03604,0,0,0,0,0,0,0,-1,1140,491,-0.886288,-3.03605
-77,533,0,0,0,0,0,0,0,0,0,-1,1147,491,0,0
-70,533,0,0,0,0,0,0,0,0,0,-1,1154,491,0,0
-63,533,0,0,0,0,0,0,0,0,0,-1,1161,491,0,0
-56,533,0,0,0,0,0,0,0,0,0,-1,1168,491,0,0
-49,533,0,0,0,0,0,0,0,0,0,-1,1175,491,0,0
-42,533,0,0,0,0,0,0,0,0,0,-1,1182,491,0,0
-35,533,0,0,0,0,0,0,0,0,0,-1,1189,491,0,0
-28,533,0,0,0,0,0,0,0,0,0,-1,1196,491,0,0
-21,533,0,0,0,0,0,0,0,0,0,-1,1203,491,0,0
-14,533,0,0,0,0,0,0,0,0,0,-1,1210,491,0,0
-7,533,0,0,0,0,0,0,0,0,0,-1,1217,491,0,0
0,533,0,0,0,0,0,0,0,0,0,-1,1224,491,0,0
7,533,0,0,0,0,0,0,0,0,0,-1,1231,491,0,0
14,533,0,0,0,0,0,0,0,0,0,-1,1238,491,0,0
21,533,0,0,0,0,0,0,0,0,0,-1,1245,491,0,0
28,533,0,0,0,0,0,0,0,0,0,-1,1252,491,0,0
35,533,0,0,0,0,0,0,0,0,0,-1,1259,491,0,0
42,533,0,0,0,0,0,0,0,0,0,-1,1266,491,0,0
49,533,0,0,0,0,0,0,0,0,0,-1,1273,491,0,0
56,533,0,0,0,0,0,0,0,0,0,-1,1280,491,0,0
63,533,0,0,0,0,0,0,0,0,0,-1,1287,491,0,0
70,533,0,0,0,0,0,0,0,0,0,-1,1294,491,0,0
77,533,0,0,0,0,0,0,0,0,0,-1,1301,491,0,0
84,533,0,0,0,0,0,0,0,0,0,-1,1308,491,0,0
91,533,0,0,0,0,0,0,0,0,0,-1,1315,491,0,0
98,533,0,0,0,0,0,0,0,0,0,-1,1322,491,0,0
105,533,0,0,0,0,0,0,0,0,0,-1,1329,491,0,0
112,533,0,0,0,0,0,0,0,0,0,-1,1336,491,0,0
119,533,0,0,0,0,0,0,0,0,0,-1,1343,491,0,0
126,533,0,0,0,0,0,0,0,0,0,-1,1350,491,0,0
133,533,0,0,0,0,0,0,0,0,0,-1,1357,491,0,0
140,533,0,0,0,0,0,0,0,0,0,-1,1364,491,0,0
147,533,0,0,0,0,0,0,0,0,0,-1,1371,491,0,0
154,533,0,0,0,0,0,0,0,0,0,-1,1378,491,0,0
161,533,0,0,0,0,0,0,0,0,0,-1,1385,491,0,0
168,533,0,0,0,0,0,0,0,0,0,-1,1392,491,0,0
175,533,0,0,0,0,0,0,0,0,0,-1,1399,491,0,0
182,533,0,0,0,0,0,0,0,0,0,-1,1406,491,0,0
189,533,0,0,0,0,0,0,0,0,0,-1,1413,491,0,0
196,533,0,0,0,0,0,0,0,0,0,-1,1420,491,0,0
203,533,3.7887,1.16193,0,0,0,0,0,0,0,-1,1427,491,3.78872,-1.16193
210,533,5.09558,-0.216034,0,0,0,0,0,0,0,-1,1434,491,5.09559,0.216028
217,533,6.91614,-2.46814,0,0,0,0,0,0,0,-1,1441,491,6.91618,2.46814
224,533,7.23621,-2.1857,0,0,0,0,0,0,0,-1,1448,491,7.23621,2.1857
231,533,7.23474,-1.92282,0,0,0,0,0,0,0,-1,1455,491,7.2347,1.92282
238,533,7.23535,-1.67258,0,0,0,0,0,0,0,-1,1462,491,7.23539,1.67258
245,533,6.86682,-1.2301,0,0,0,0,0,0,0,-1,1469,491,6.86686,1.23011
252,533,6.63354,-3.07825,0,0,0,0,0,0,0,-1,1476,491,6.6335,3.07824
259,533,6.16431,-2.35037,0,0,0,0,0,0,0,-1,1483,491,6.1643,2.35037
266,533,5.68884,-1.6214,0,0,0,0,0,0,0,-1,1490,491,5.68885,1.6214
273,533,5.21399,-0.864227,0,0,0,0,0,0,0,-1,1497,491,5.21403,0.864227
280,533,1.41089,-1.97946,0,0,0,0,0,0,0,-1,1504,491,1.41087,1.97946
287,533,1.6814,-2.44443,0,0,0,0,0,0,0,-1,1511,491,1.6814,2.44444
294,533,2.2384,-2.57626,0,0,0,0,0,0,0,-1,1518,491,2.23839,2.57625
301,533,3.39941,-4.0817,0,0,0,0,0,0,0,-1,1525,491,3.3994,4.08171
308,533,4.13733,-4.14752,0,0,0,0,0,0,0,-1,1532,491,4.13727,4.14752
315,533,4.80762,-5.29349,0,0,0,0,0,0,0,-1,1539,491,4.80762,5.29347
322,533,5.47803,-6.43942,0,0,0,0,0,0,0,-1,1546,491,5.47798,6.43943
329,533,3.88477,-3.86301,0,0,0,0,0,0,0,-1,1553,491,3.88475,3.86299
336,533,6.70923,-13.2003,0,0,0,0,0,0,0,-1,1560,491,6.70926,13.2004
343,533,6.77979,-13.4931,0,0,0,0,0,0,0,-1,1567,491,6.77973,13.4931
350,533,5.62915,-8.02426,0,0,0,0,0,0,0,-1,1574,491,5.6291,8.02426
357,533,6.48425,-13.8219,0,0,0,0,0,0,0,-1,1581,491,6.4843,13.8219
364,533,6.2323,-13.8444,0,0,0,0,0,0,0,-1,1588,491,6.23232,13.8444
371,533,6.2572,-13.5876,0,0,0,0,0,0,0,-1,1595,491,6.25716,13.5876
378,533,6.36926,-13.274,0,0,0,0,0,0,0,-1,1602,491,6.36925,13.2741
385,533,6.38831,-13.0113,-0.000805712,-0.00209894,-0.00288918,0.00150833,-0.00441298,-0.67531,0.00355314,0.0251624,1609,491,6.38825,13.0113
392,533,6.3562,-12.7604,-0.000665439,-0.00150631,-0.0021663,0.00112085,-0.00329259,-0.68955,0.00264894,0.0146385,1616,491,6.35623,12.7604
399,533,6.36914,-12.4978,-0.000584058,-0.00113878,-0.00172706,0.000887774,-0.00261061,-0.70578,0.00209985,0.0122062,1623,491,6.36908,12.4978
406,533,6.37268,-12.2227,-0.00049301,-0.00077112,-0.00145465,0.000829221,-0.00209335,-0.737746,0.00173917,0.0135237,1630,491,6.37267,12.2227
413,533,6.40454,-11.8939,-0.000384708,-0.000338314,-0.00111713,0.000755856,-0.00147888,-0.795779,0.00131254,0.0120481,1637,491,6.40448,11.8939
420,533,6.41956,-11.5774,-0.000471727,-0.000209203,-0.000905753,0.000574749,-0.00125568,-0.857357,0.0010809,0.0116358,1644,491,6.41959,11.5774
427,533,6.4126,-11.2577,-0.000575041,-0.000261778,-0.000662324,0.000262183,-0.001099,-0.901509,0.000833916,0.0125614,1651,491,6.41265,11.2577
434,533,6.38953,-10.9646,-0.000580134,-0.000459941,-0.000376313,-0.000138955,-0.000901119,-0.864578,0.000560202,0.012963,1658,491,6.3895,10.9646
441,533,6.39575,-10.6519,-0.000484938,-0.000819372,-8.66264e-05,-0.000463832,-0.000840478,-0.238991,0.00048612,0.0148258,1665,491,6.39579,10.6519
448,533,6.38721,-10.3506,-0.000384637,-0.00129618,0.000236622,-0.000326874,-0.00135394,0.239432,0.000815801,0.0161681,1672,491,6.3872,10.3506
455,533,6.36865,-10.0364,-0.000236423,-0.00182172,0.000534704,-7.29338e-05,-0.00198521,0.29673,0.00129985,0.015614,1679,491,6.36863,10.0364
462,533,6.33997,-9.67923,5.53524e-05,-0.00262728,0.000728124,0.000240239,-0.00281217,0.248666,0.00195977,0.0142012,1686,491,6.33996,9.67924
469,533,6.33398,-9.3931,0.000381578,-0.00354617,0.000736012,0.000514967,-0.00367956,0.179287,0.00264148,0.00945338,1693,491,6.33395,9.39309
476,533,6.34595,-9.08087,0.000569789,-0.00457629,0.000659396,0.000652937,-0.00465944,0.125436,0.00334525,0.0116917,1700,491,6.34598,9.08086
483,533,6.37927,-8.73123,0.000654456,-0.00586442,0.000295617,0.000667834,-0.00587779,0.0452241,0.00415905,0.0216521,1707,491,6.37928,8.73123
490,533,6.42761,-8.60086,0.000614387,-0.00759605,-0.000313194,0.000626316,-0.00760798,-0.0380722,0.00529312,0.049256,1714,491,6.42757,8.60087
497,533,6.52673,-8.48819,0,0,0,0,0,0,0,-1,1721,491,6.52677,8.4882
504,533,6.2041,-7.75525,0,0,0,0,0,0,0,-1,1728,491,6.20408,7.75525
511,533,6.38049,-7.59952,0,0,0,0,0,0,0,-1,1735,491,6.3805,7.59953
518,533,6.36169,-7.13498,0,0,0,0,0,0,0,-1,1742,491,6.36169,7.13498
525,533,6.34204,-6.62457,0,0,0,0,0,0,0,-1,1749,491,6.34202,6.62456
532,533,3.24243,0.0737,0,0,0,0,0,0,0,-1,1756,491,3.24239,-0.0737072
539,533,3.61609,1.62427,0,0,0,0,0,0,0,-1,1763,491,3.61606,-1.62426
546,533,3.59607,1.65799,0,0,0,0,0,0,0,-1,1770,491,3.59605,-1.658
553,533,0,0,0,0,0,0,0,0,0,-1,1777,491,0,0
560,533,0,0,0,0,0,0,0,0,0,-1,1784,491,0,0
567,533,0,0,0,0,0,0,0,0,0,-1,1791,491,0,0
574,533,0,0,0,0,0,0,0,0,0,-1,1798,491,0,0
581,533,0,0,0,0,0,0,0,0,0,-1,1805,491,0,0
588,533,0,0,0,0,0,0,0,0,0,-1,1812,491,0,0
595,533,0,0,0,0,0,0,0,0,0,-1,1819,491,0,0
602,533,0,0,0,0,0,0,0,0,0,-1,1826,491,0,0
609,533,0,0,0,0,0,0,0,0,0,-1,1833,491,0,0
616,533,0,0,0,0,0,0,0,0,0,-1,1840,491,0,0
623,533,0,0,0,0,0,0,0,0,0,-1,1847,491,0,0
630,533,0,0,0,0,0,0,0,0,0,-1,1854,491,0,0
637,533,0,0,0,0,0,0,0,0,0,-1,1861,491,0,0
644,533,0,0,0,0,0,0,0,0,0,-1,1868,491,0,0
651,533,0,0,0,0,0,0,0,0,0,-1,1875,491,0,0
658,533,0,0,0,0,0,0,0,0,0,-1,1882,491,0,0
665,533,0,0,0,0,0,0,0,0,0,-1,1889,491,0,0
672,533,0,0,0,0,0,0,0,0,0,-1,1896,491,0,0
679,533,0,0,0,0,0,0,0,0,0,-1,1903,491,0,0
686,533,0,0,0,0,0,0,0,0,0,-1,1910,491,0,0
693,533,0,0,0,0,0,0,0,0,0,-1,1917,491,0,0
700,533,0,0,0,0,0,0,0,0,0,-1,1924,491,0,0
707,533,0,0,0,0,0,0,0,0,0,-1,1931,491,0,0
714,533,0,0,0,0,0,0,0,0,0,-1,1938,491,0,0
721,533,0,0,0,0,0,0,0,0,0,-1,1945,491,0,0
728,533,0,0,0,0,0,0,0,0,0,-1,1952,491,0,0
735,533,0,0,0,0,0,0,0,0,0,-1,1959,491,0,0
742,533,0,0,0,0,0,0,0,0,0,-1,1966,491,0,0
749,533,0,0,0,0,0,0,0,0,0,-1,1973,491,0,0
756,533,0,0,0,0,0,0,0,0,0,-1,1980,491,0,0
763,533,0,0,0,0,0,0,0,0,0,-1,1987,491,0,0
770,533,0,0,0,0,0,0,0,0,0,-1,1994,491,0,0
777,533,0,0,0,0,0,0,0,0,0,-1,2001,491,0,0
784,533,0,0,0,0,0,0,0,0,0,-1,2008,491,0,0
791,533,0,0,0,0,0,0,0,0,0,-1,2015,491,0,0
798,533,0,0,0,0,0,0,0,0,0,-1,2022,491,0,0
805,533,0,0,0,0,0,0,0,0,0,-1,2029,491,0,0
812,533,0,0,0,0,0,0,0,0,0,-1,2036,491,0,0
-700,526,0,0,0,0,0,0,0,0,0,-1,524,498,0,0
-693,526,0,0,0,0,0,0,0,0,0,-1,531,498,0,0
-686,526,0,0,0,0,0,0,0,0,0,-1,538,498,0,0
-679,526,0,0,0,0,0,0,0,0,0,-1,545,498,0,0
-672,526,0,0,0,0,0,0,0,0,0,-1,552,498,0,0
-665,526,0,0,0,0,0,0,0,0,0,-1,559,498,0,0
-658,526,0,0,0,0,0,0,0,0,0,-1,566,498,0,0
-651,526,0,0,0,0,0,0,0,0,0,-1,573,498,0,0
-644,526,0,0,0,0,0,0,0,0,0,-1,580,498,0,0
-637,526,0,0,0,0,0,0,0,0,0,-1,587,498,0,0
-630,526,0,0,0,0,0,0,0,0,0,-1,594,498,0,0
-623,526,0,0,0,0,0,0,0,0,0,-1,601,498,0,0
-616,526,0,0,0,0,0,0,0,0,0,-1,608,498,0,0
-609,526,0,0,0,0,0,0,0,0,0,-1,615,498,0,0
-602,526,0,0,0,0,0,0,0,0,0,-1,622,498,0,0
-595,526,0,0,0,0,0,0,0,0,0,-1,629,498,0,0
-588,526,0,0,0,0,0,0,0,0,0,-1,636,498,0,0
-581,526,0,0,0,0,0,0,0,0,0,-1,643,498,0,0
-574,526,0,0,0,0,0,0,0,0,0,-1,650,498,0,0
-567,526,0,0,0,0,0,0,0,0,0,-1,657,498,0,0
-560,526,0,0,0,0,0,0,0,0,0,-1,664,498,0,0
-553,526,0,0,0,0,0,0,0,0,0,-1,671,498,0,0
-546,526,0,0,0,0,0,0,0,0,0,-1,678,498,0,0
-539,526,0,0,0,0,0,0,0,0,0,-1,685,498,0,0
-532,526,0,0,0,0,0,0,0,0,0,-1,692,498,0,0
-525,526,0,0,0,0,0,0,0,0,0,-1,699,498,0,0
-518,526,0,0,0,0,0,0,0,0,0,-1,706,498,0,0
-511,526,0,0,0,0,0,0,0,0,0,-1,713,498,0,0
-504,526,0,0,0,0,0,0,0,0,0,-1,720,498,0,0
-497,526,0,0,0,0,0,0,0,0,0,-1,727,498,0,0
-490,526,0,0,0,0,0,0,0,0,0,-1,734,498,0,0
-483,526,0,0,0,0,0,0,0,0,0,-1,741,498,0,0
-476,526,0,0,0,0,0,0,0,0,0,-1,748,498,0,0
-469,526,0,0,0,0,0,0,0,0,0,-1,755,498,0,0
-462,526,0,0,0,0,0,0,0,0,0,-1,762,498,0,0
-455,526,0,0,0,0,0,0,0,0,0,-1,769,498,0,0
-448,526,0,0,0,0,0,0,0,0,0,-1,776,498,0,0
-441,526,0,0,0,0,0,0,0,0,0,-1,783,498,0,0
-434,526,-0.153564,-5.96649,0,0,0,0,0,0,0,-1,790,498,-0.153589,5.9665
-427,526,0.0078125,-5.84042,0,0,0,0,0,0,0,-1,797,498,0.00779806,5.84041
-420,526,0.137146,-5.72488,0,0,0,0,0,0,0,-1,804,498,0.137154,5.7249
-413,526,0.536926,-6.68375,0,0,0,0,0,0,0,-1,811,498,0.536925,6.68374
-406,526,0.739624,-6.38733,0,0,0,0,0,0,0,-1,818,498,0.739614,6.38734
-399,526,0.806152,-5.63318,0,0,0,0,0,0,0,-1,825,498,0.806178,5.63318
-392,526,-1.10022,-6.7597,0,0,0,0,0,0,0,-1,832,498,-1.10022,6.75971
-385,526,-0.176819,-7.98654,0,0,0,0,0,0,0,-1,839,498,-0.176804,7.98655
-378,526,0.115112,-9.11655,0,0,0,0,0,0,0,-1,846,498,0.115112,9.11655
-371,526,0.0918579,-9.496,-1.81821e-05,0.00298722,-0.00518652,0.00688434,-0.0039153,-0.926403,0.00631323,0.0409471,853,498,0.0918807,9.49601
-364,526,0.0686035,-9.90158,-0.000251779,0.0026974,-0.00417911,0.00565444,-0.00320882,-0.955003,0.00518173,0.0227705,860,498,0.0685749,9.90159
-357,526,-0.00341797,-10.1461,-0.000336228,0.00231328,-0.0033253,0.004568,-0.00259094,-0.974955,0.00418542,0.0141724,867,498,-0.00341118,10.1461
-350,526,0.022644,-10.454,-0.00031284,0.00183288,-0.00266199,0.00363008,-0.00211004,-0.976955,0.00335257,0.01121,874,498,0.0226698,10.454
-343,526,0.00866699,-10.7832,-0.000268305,0.00167409,-0.00205172,0.00297286,-0.00156708,-1.00645,0.00266269,0.0147576,881,498,0.00866128,10.7832
-336,526,-0.0166626,-11.0829,-3.3874e-05,0.00137534,-0.00173932,0.00254735,-0.00120589,-0.977848,0.00221259,0.0144952,888,498,-0.0166365,11.0829
-329,526,-0.0203857,-11.3588,0.000253956,0.00109926,-0.00149158,0.00222692,-0.000873699,-0.923458,0.0018461,0.0143613,895,498,-0.0203816,11.3588
-322,526,-0.0217896,-11.6613,0.000459462,0.000854351,-0.00119668,0.00186977,-0.000555956,-0.867158,0.00146737,0.00938776,902,498,-0.0217939,11.6613
-315,526,-0.0328369,-11.9622,0.000593915,0.000758791,-0.000862841,0.00154312,-0.000190418,-0.833025,0.00109774,0.00812212,909,498,-0.0328291,11.9622
-308,526,-0.0482788,-12.256,0.000723242,0.000657009,-0.000528016,0.00121918,0.000161072,-0.75408,0.00076477,0.00798735,916,498,-0.0482768,12.2559
-301,526,-0.0679321,-12.5345,0.000858961,0.000486997,-0.000169145,0.000924374,0.000421585,-0.369011,0.000534374,0.00940499,923,498,-0.0679355,12.5345
-294,526,-0.0551758,-12.8087,0.00135914,0.000135113,0.000329441,0.00144217,5.20779e-05,0.246905,0.000944567,0.00897937,930,498,-0.0551721,12.8087
-287,526,-0.0579224,-13.0833,0.00251816,-0.000980164,0.0004415,0.00257302,-0.00103502,0.123621,0.00214526,0.0094888,937,498,-0.0578935,13.0833
-280,526,-0.0720215,-13.3502,0.00350707,-0.00183332,0.000702223,0.00359786,-0.00192412,0.128581,0.00323657,0.0123368,944,498,-0.0720207,13.3502
-273,526,-0.0500488,-13.624,0.00452601,-0.0032458,0.00102378,0.00465861,-0.0033784,0.128803,0.00465975,0.010326,951,498,-0.0500585,13.624
-266,526,-0.0292358,-13.8911,0.0056975,-0.00491128,0.00169198,0.00596082,-0.0051746,0.154388,0.00643437,0.00932843,958,498,-0.0292116,13.8911
-259,526,-0.0154419,-14.1305,0.00743139,-0.00693253,0.00200015,0.00770471,-0.00720585,0.135807,0.00861022,0.0157272,965,498,-0.0154588,14.1305
-252,526,0.0324097,-14.3124,0.00866167,-0.00883332,0.00254521,0.00902443,-0.00919608,0.141573,0.0105198,0.0303858,972,498,0.0324081,14.3124
-245,526,0.0455933,-14.4543,0.00906922,-0.01106,0.00396305,0.00982137,-0.0118121,0.187558,0.0125077,0.0412649,979,498,0.0456229,14.4543
-238,526,0.795471,-14.1813,0.00867858,-0.0144495,0.00628107,0.0102743,-0.0160452,0.248786,0.0153169,0.0423257,986,498,0.795468,14.1813
-231,526,0.96405,-14.3729,0,0,0,0,0,0,0,-1,993,498,0.964037,14.3729
-224,526,-0.312683,-14.8837,0,0,0,0,0,0,0,-1,1000,498,-0.312705,14.8838
-217,526,-0.535217,-15.3382,0,0,0,0,0,0,0,-1,1007,498,-0.535236,15.3382
-210,526,1.31683,-13.776,0,0,0,0,0,0,0,-1,1014,498,1.31682,13.776
-203,526,0.232422,-16.4912,0,0,0,0,0,0,0,-1,1021,498,0.232414,16.4912
-196,526,-0.328247,-12.179,0,0,0,0,0,0,0,-1,1028,498,-0.328238,12.179
-189,526,0.401245,-5.96826,0,0,0,0,0,0,0,-1,1035,498,0.401197,5.96826
-182,526,1.7323,-2.99405,0,0,0,0,0,0,0,-1,1042,498,1.73226,2.99404
-175,526,2.27637,-2.07983,0,0,0,0,0,0,0,-1,1049,498,2.27639,2.07984
-168,526,2.12036,-1.66049,0,0,0,0,0,0,0,-1,1056,498,2.12035,1.66048
-161,526,2.09082,-1.20572,0,0,0,0,0,0,0,-1,1063,498,2.09086,1.2057
-154,526,-1.3446,-5.37799,0,0,0,0,0,0,0,-1,1070,498,-1.34457,5.37799
-147,526,-0.472656,-6.64996,0,0,0,0,0,0,0,-1,1077,498,-0.472659,6.64997
-140,526,0.422852,-8.03339,0,0,0,0,0,0,0,-1,1084,498,0.422844,8.0334
-133,526,1.09583,-9.2215,0,0,0,0,0,0,0,-1,1091,498,1.09581,9.2215
-126,526,3.42529,-2.36053,0,0,0,0,0,0,0,-1,1098,498,3.42523,2.36052
-119,526,2.7771,-0.764099,0,0,0,0,0,0,0,-1,1105,498,2.7771,0.764107
-112,526,2.57715,-1.1893,0,0,0,0,0,0,0,-1,1112,498,2.57718,1.1893
-105,526,0,0,0,0,0,0,0,0,0,-1,1119,498,0,0
-98,526,0,0,0,0,0,0,0,0,0,-1,1126,498,0,0
-91,526,0,0,0,0,0,0,0,0,0,-1,1133,498,0,0
-84,526,0,0,0,0,0,0,0,0,0,-1,1140,498,0,0
-77,526,0,0,0,0,0,0,0,0,0,-1,1147,498,0,0
-70,526,0,0,0,0,0,0,0,0,0,-1,1154,498,0,0
-63,526,0,0,0,0,0,0,0,0,0,-1,1161,498,0,0
-56,526,0,0,0,0,0,0,0,0,0,-1,1168,498,0,0
-49,526,0,0,0,0,0,0,0,0,0,-1,1175,498,0,0
-42,526,0,0,0,0,0,0,0,0,0,-1,1182,498,0,0
-35,526,0,0,0,0,0,0,0,0,0,-1,1189,498,0,0
-28,526,0,0,0,0,0,0,0,0,0,-1,1196,498,0,0
-21,526,0,0,0,0,0,0,0,0,0,-1,1203,498,0,0
-14,526,0,0,0,0,0,0,0,0,0,-1,1210,498,0,0
-7,526,0,0,0,0,0,0,0,0,0,-1,1217,498,0,0
0,526,0,0,0,0,0,0,0,0,0,-1,1224,498,0,0
7,526,0,0,0,0,0,0,0,0,0,-1,1231,498,0,0
14,526,0,0,0,0,0,0,0,0,0,-1,1238,498,0,0
21,526,0,0,0,0,0,0,0,0,0,-1,1245,498,0,0
28,526,0,0,0,0,0,0,0,0,0,-1,1252,498,0,0
35,526,0,0,0,0,0,0,0,0,0,-1,1259,498,0,0
42,526,0,0,0,0,0,0,0,0,0,-1,1266,498,0,0
49,526,0,0,0,0,0,0,0,0,0,-1,1273,498,0,0
56,526,0,0,0,0,0,0,0,0,0,-1,1280,498,0,0
63,526,0,0,0,0,0,0,0,0,0,-1,1287,498,0,0
70,526,0,0,0,0,0,0,0,0,0,-1,1294,498,0,0
77,526,0,0,0,0,0,0,0,0,0,-1,1301,498,0,0
84,526,0,0,0,0,0,0,0,0,0,-1,1308,498,0,0
91,526,0,0,0,0,0,0,0,0,0,-1,1315,498,0,0
98,526,0,0,0,0,0,0,0,0,0,-1,1322,498,0,0
105,526,0,0,0,0,0,0,0,0,0,-1,1329,498,0,0
112,526,0,0,0,0,0,0,0,0,0,-1,1336,498,0,0
119,526,0,0,0,0,0,0,0,0,0,-1,1343,498,0,0
126,526,0,0,0,0,0,0,0,0,0,-1,1350,498,0,0
133,526,0,0,0,0,0,0,0,0,0,-1,1357,498,0,0
140,526,0,0,0,0,0,0,0,0,0,-1,1364,498,0,0
147,526,0,0,0,0,0,0,0,0,0,-1,1371,498,0,0
154,526,0,0,0,0,0,0,0,0,0,-1,1378,498,0,0
161,526,0,0,0,0,0,0,0,0,0,-1,1385,498,0,0
168,526,0,0,0,0,0,0,0,0,0,-1,1392,498,0,0
175,526,0,0,0,0,0,0,0,0,0,-1,1399,498,0,0
182,526,0,0,0,0,0,0,0,0,0,-1,1406,498,0,0
189,526,0,0,0,0,0,0,0,0,0,-1,1413,498,0,0
196,526,0,0,0,0,0,0,0,0,0,-1,1420,498,0,0
203,526,0,0,0,0,0,0,0,0,0,-1,1427,498,0,0
210,526,0,0,0,0,0,0,0,0,0,-1,1434,498,0,0
217,526,0,0,0,0,0,0,0,0,0,-1,1441,498,0,0
224,526,0,0,0,0,0,0,0,0,0,-1,1448,498,0,0
231,526,7.93237,-1.30618,0,0,0,0,0,0,0,-1,1455,498,7.93238,1.30618
238,526,7.97717,-1.08197,0,0,0,0,0,0,0,-1,1462,498,7.97723,1.08196
245,526,7.2793,-0.792938,0,0,0,0,0,0,0,-1,1469,498,7.27931,0.792926
252,526,6.73523,-2.23608,0,0,0,0,0,0,0,-1,1476,498,6.73525,2.23608
259,526,6.22949,-1.84967,0,0,0,0,0,0,0,-1,1483,498,6.22953,1.84968
266,526,5.72375,-1.46329,0,0,0,0,0,0,0,-1,1490,498,5.72381,1.46328
273,526,4.33984,0.49173,0,0,0,0,0,0,0,-1,1497,498,4.33979,-0.491727
280,526,1.4585,-1.59897,0,0,0,0,0,0,0,-1,1504,498,1.45846,1.59895
287,526,1.46411,-2.40134,0,0,0,0,0,0,0,-1,1511,498,1.46406,2.40133
294,526,5.57471,-4.59085,0,0,0,0,0,0,0,-1,1518,498,5.57466,4.59084
301,526,4.42786,-3.99677,0,0,0,0,0,0,0,-1,1525,498,4.42788,3.99676
308,526,5.79529,-4.19366,0,0,0,0,0,0,0,-1,1532,498,5.79528,4.19368
315,526,5.09851,-5.20068,0,0,0,0,0,0,0,-1,1539,498,5.09851,5.20068
322,526,5.50708,-4.72348,0,0,0,0,0,0,0,-1,1546,498,5.50713,4.72347
329,526,3.88672,-4.345,0,0,0,0,0,0,0,-1,1553,498,3.88674,4.34501
336,526,4.97876,-2.23828,0,0,0,0,0,0,0,-1,1560,498,4.97877,2.23828
343,526,3.31665,-2.69696,0,0,0,0,0,0,0,-1,1567,498,3.31667,2.69696
350,526,6.06287,-6.12015,0,0,0,0,0,0,0,-1,1574,498,6.06286,6.12014
357,526,5.79736,-7.7854,0,0,0,0,0,0,0,-1,1581,498,5.79734,7.78539
364,526,6.46191,-13.365,0,0,0,0,0,0,0,-1,1588,498,6.46194,13.365
371,526,6.08374,-12.2745,0,0,0,0,0,0,0,-1,1595,498,6.08372,12.2745
378,526,5.96716,-11.8669,0,0,0,0,0,0,0,-1,1602,498,5.96712,11.8669
385,526,6.60986,-13.1609,0,0,0,0,0,0,0,-1,1609,498,6.60991,13.1609
392,526,6.74573,-12.7931,-0.0013945,-0.0020823,-0.0030933,0.00137396,-0.00485076,-0.730037,0.00377609,0.0382403,1616,498,6.74568,12.7931
399,526,6.67578,-12.494,-0.00122375,-0.00173466,-0.0026018,0.0011351,-0.00409351,-0.736463,0.00317573,0.0203442,1623,498,6.67582,12.494
406,526,6.70911,-12.1782,-0.00100813,-0.00134299,-0.00231021,0.00114071,-0.00349182,-0.749224,0.00278705,0.0120742,1630,498,6.70909,12.1782
413,526,6.70642,-11.8687,-0.000744151,-0.000823883,-0.00190334,0.00111974,-0.00268778,-0.774927,0.00225956,0.012793,1637,498,6.70642,11.8686
420,526,6.70471,-11.5765,-0.000753211,-0.000606675,-0.00164223,0.000963918,-0.00232381,-0.807691,0.00195154,0.0132997,1644,498,6.70469,11.5765
427,526,6.71033,-11.2759,-0.000824595,-0.000560849,-0.00136829,0.000681912,-0.00206736,-0.833439,0.00165311,0.0141309,1651,498,6.7103,11.2759
434,526,6.69397,-10.9539,-0.000784764,-0.000620462,-0.00103037,0.000331023,-0.00173625,-0.825179,0.00128216,0.013372,1658,498,6.69403,10.9539
441,526,6.68127,-10.6317,-0.000638426,-0.000796574,-0.000689295,-2.36842e-05,-0.00141132,-0.728289,0.000933083,0.0112269,1665,498,6.68127,10.6317
448,526,6.67798,-10.3348,-0.000476021,-0.00108875,-0.000326328,-0.000334782,-0.00122999,-0.408469,0.000734297,0.0104847,1672,498,6.67803,10.3348
455,526,6.66357,-10.0484,-0.000281234,-0.00137847,1.12047e-05,-0.000281119,-0.00137859,0.0102103,0.000841159,0.0133317,1679,498,6.6636,10.0484
462,526,6.66394,-9.71338,1.92661e-05,-0.00195026,0.000227115,4.51166e-05,-0.00197611,0.113333,0.0013327,0.0100838,1686,498,6.66389,9.71337
469,526,6.67273,-9.40692,0.000306432,-0.0026492,0.000242561,0.000326206,-0.00266898,0.081342,0.00189742,0.00766442,1693,498,6.67271,9.40693
476,526,6.66003,-9.08411,0.000458778,-0.00345709,0.000184155,0.000467419,-0.00346573,0.04689,0.00248101,0.0095257,1700,498,6.66007,9.0841
483,526,6.6698,-8.70459,0.000523619,-0.00448691,-0.000120883,0.000526534,-0.00448983,-0.0241071,0.00318328,0.012325,1707,498,6.66977,8.7046
490,526,6.74695,-8.33279,0.00043992,-0.00589132,-0.000648027,0.000505568,-0.00595696,-0.100959,0.00415011,0.0245883,1714,498,6.74696,8.3328
497,526,6.66138,-8.1759,0.00024654,-0.00734064,-0.00134435,0.000477698,-0.0075718,-0.170283,0.0052144,0.0307652,1721,498,6.66138,8.17591
504,526,6.53491,-7.82016,-5.31539e-05,-0.00898248,-0.00233757,0.000521771,-0.0095574,-0.241163,0.00655245,0.0331782,1728,498,6.5349,7.82015
511,526,6.65247,-7.55225,-0.000354639,-0.01061,-0.0035968,0.000781078,-0.0117457,-0.305849,0.00810338,0.0394113,1735,498,6.65248,7.55224
518,526,6.65918,-7.30615,-0.0005605,-0.012284,-0.00500448,0.00128521,-0.0141297,-0.353334,0.00987612,0.0476943,1742,498,6.65921,7.30616
525,526,6.68579,-7.06445,0,0,0,0,0,0,0,-1,1749,498,6.6858,7.06446
532,526,3.54285,-2.81274,0,0,0,0,0,0,0,-1,1756,498,3.54284,2.81273
539,526,3.29407,0.932312,0,0,0,0,0,0,0,-1,1763,498,3.2941,-0.93232
546,526,3.36731,1.07721,0,0,0,0,0,0,0,-1,1770,498,3.36735,-1.07719
553,526,3.40796,1.37137,0,0,0,0,0,0,0,-1,1777,498,3.40792,-1.37138
560,526,0,0,0,0,0,0,0,0,0,-1,1784,498,0,0
567,526,0,0,0,0,0,0,0,0,0,-1,1791,498,0,0
574,526,0,0,0,0,0,0,0,0,0,-1,1798,498,0,0
581,526,0,0,0,0,0,0,0,0,0,-1,1805,498,0,0
588,526,0,0,0,0,0,0,0,0,0,-1,1812,498,0,0
595,526,0,0,0,0,0,0,0,0,0,-1,1819,498,0,0
602,526,0,0,0,0,0,0,0,0,0,-1,1826,498,0,0
609,526,0,0,0,0,0,0,0,0,0,-1,1833,498,0,0
616,526,0,0,0,0,0,0,0,0,0,-1,1840,498,0,0
623,526,0,0,0,0,0,0,0,0,0,-1,1847,498,0,0
630,526,0,0,0,0,0,0,0,0,0,-1,1854,498,0,0
637,526,0,0,0,0,0,0,0,0,0,-1,1861,498,0,0
644,526,0,0,0,0,0,0,0,0,0,-1,1868,498,0,0
651,526,0,0,0,0,0,0,0,0,0,-1,1875,498,0,0
658,526,0,0,0,0,0,0,0,0,0,-1,1882,498,0,0
665,526,0,0,0,0,0,0,0,0,0,-1,1889,498,0,0
672,526,0,0,0,0,0,0,0,0,0,-1,1896,498,0,0
679,526,0,0,0,0,0,0,0,0,0,-1,1903,498,0,0
686,526,0,0,0,0,0,0,0,0,0,-1,1910,498,0,0
693,526,0,0,0,0,0,0,0,0,0,-1,1917,498,0,0
700,526,0,0,0,0,0,0,0,0,0,-1,1924,498,0,0
707,526,0,0,0,0,0,0,0,0,0,-1,1931,498,0,0
714,526,0,0,0,0,0,0,0,0,0,-1,1938,498,0,0
721,526,0,0,0,0,0,0,0,0,0,-1,1945,498,0,0
728,526,0,0,0,0,0,0,0,0,0,-1,1952,498,0,0
735,526,0,0,0,0,0,0,0,0,0,-1,1959,498,0,0
742,526,0,0,0,0,0,0,0,0,0,-1,1966,498,0,0
749,526,0,0,0,0,0,0,0,0,0,-1,1973,498,0,0
756,526,0,0,0,0,0,0,0,0,0,-1,1980,498,0,0
763,526,0,0,0,0,0,0,0,0,0,-1,1987,498,0,0
770,526,0,0,0,0,0,0,0,0,0,-1,1994,498,0,0
777,526,0,0,0,0,0,0,0,0,0,-1,2001,498,0,0
784,526,0,0,0,0,0,0,0,0,0,-1,2008,498,0,0
791,526,0,0,0,0,0,0,0,0,0,-1,2015,498,0,0
798,526,0,0,0,0,0,0,0,0,0,-1,2022,498,0,0
805,526,0,0,0,0,0,0,0,0,0,-1,2029,498,0,0
812,526,0,0,0,0,0,0,0,0,0,-1,2036,498,0,0
-700,519,0,0,0,0,0,0,0,0,0,-1,524,505,0,0
-693,519,0,0,0,0,0,0,0,0,0,-1,531,505,0,0
-686,519,0,0,0,0,0,0,0,0,0,-1,538,505,0,0
-679,519,0,0,0,0,0,0,0,0,0,-1,545,505,0,0
-672,519,0,0,0,0,0,0,0,0,0,-1,552,505,0,0
-665,519,0,0,0,0,0,0,0,0,0,-1,559,505,0,0
-658,519,0,0,0,0,0,0,0,0,0,-1,566,505,0,0
-651,519,0,0,0,0,0,0,0,0,0,-1,573,505,0,0
-644,519,0,0,0,0,0,0,0,0,0,-1,580,505,0,0
-637,519,0,0,0,0,0,0,0,0,0,-1,587,505,0,0
-630,519,0,0,0,0,0,0,0,0,0,-1,594,505,0,0
-623,519,0,0,0,0,0,0,0,0,0,-1,601,505,0,0
-616,519,0,0,0,0,0,0,0,0,0,-1,608,505,0,0
-609,519,0,0,0,0,0,0,0,0,0,-1,615,505,0,0
-602,519,0,0,0,0,0,0,0,0,0,-1,622,505,0,0
-595,519,0,0,0,0,0,0,0,0,0,-1,629,505,0,0
-588,519,0,0,0,0,0,0,0,0,0,-1,636,505,0,0
-581,519,0,0,0,0,0,0,0,0,0,-1,643,505,0,0
-574,519,0,0,0,0,0,0,0,0,0,-1,650,505,0,0
-567,519,0,0,0,0,0,0,0,0,0,-1,657,505,0,0
-560,519,0,0,0,0,0,0,0,0,0,-1,664,505,0,0
-553,519,0,0,0,0,0,0,0,0,0,-1,671,505,0,0
-546,519,0,0,0,0,0,0,0,0,0,-1,678,505,0,0
-539,519,0,0,0,0,0,0,0,0,0,-1,685,505,0,0
-532,519,0,0,0,0,0,0,0,0,0,-1,692,505,0,0
-525,519,0,0,0,0,0,0,0,0,0,-1,699,505,0,0
-518,519,0,0,0,0,0,0,0,0,0,-1,706,505,0,0
-511,519,0,0,0,0,0,0,0,0,0,-1,713,505,0,0
-504,519,0,0,0,0,0,0,0,0,0,-1,720,505,0,0
-497,519,0,0,0,0,0,0,0,0,0,-1,727,505,0,0
-490,519,0,0,0,0,0,0,0,0,0,-1,734,505,0,0
-483,519,0,0,0,0,0,0,0,0,0,-1,741,505,0,0
-476,519,0,0,0,0,0,0,0,0,0,-1,748,505,0,0
-469,519,0,0,0,0,0,0,0,0,0,-1,755,505,0,0
-462,519,0,0,0,0,0,0,0,0,0,-1,762,505,0,0
-455,519,0,0,0,0,0,0,0,0,0,-1,769,505,0,0
-448,519,0,0,0,0,0,0,0,0,0,-1,776,505,0,0
-441,519,1.34839,-5.29346,0,0,0,0,0,0,0,-1,783,505,1.3484,5.29347
-434,519,0.949585,-5.77313,0,0,0,0,0,0,0,-1,790,505,0.949598,5.77315
-427,519,0.138489,-5.67401,0,0,0,0,0,0,0,-1,797,505,0.138516,5.67402
-420,519,0.323425,-6.76398,0,0,0,0,0,0,0,-1,804,505,0.323439,6.76396
-413,519,0.166199,-7.0437,0,0,0,0,0,0,0,-1,811,505,0.166196,7.04367
-406,519,0.183838,-6.90329,0,0,0,0,0,0,0,-1,818,505,0.18386,6.9033
-399,519,-0.488464,-8.03864,0,0,0,0,0,0,0,-1,825,505,-0.488456,8.03863
-392,519,-0.122742,-8.45526,0,0,0,0,0,0,0,-1,832,505,-0.122767,8.45524
-385,519,-0.212524,-8.72522,0,0,0,0,0,0,0,-1,839,505,-0.212503,8.72523
-378,519,-0.235168,-9.04492,0.000839637,0.0029625,-0.0059933,0.00798763,-0.0041855,-0.873041,0.00714152,0.037483,846,505,-0.235158,9.04495
-371,519,-0.249451,-9.44263,0.000167146,0.00252867,-0.00442786,0.0059305,-0.00323468,-0.915699,0.00536728,0.0196463,853,505,-0.249424,9.44264
-364,519,-0.292908,-9.78442,-0.000197434,0.0021971,-0.00341897,0.00462238,-0.00262271,-0.953817,0.00423573,0.0122179,860,505,-0.292903,9.7844
-357,519,-0.273499,-10.1362,-0.000389383,0.00180804,-0.00258823,0.00352111,-0.00210245,-0.986123,0.00328102,0.0101042,867,505,-0.273514,10.1362
-350,519,-0.277527,-10.4533,-0.000415719,0.00137056,-0.00198688,0.00265581,-0.00170097,-0.996625,0.00253545,0.012174,874,505,-0.277512,10.4533
-343,519,-0.298889,-10.7479,-0.000374841,0.00122029,-0.00143794,0.00206704,-0.00122159,-1.0386,0.00191949,0.0154442,881,505,-0.29888,10.7479
-336,519,-0.323242,-11.051,-0.000143859,0.000967439,-0.00116176,0.00169959,-0.000876009,-1.00846,0.00151215,0.0152577,888,505,-0.323261,11.0509
-329,519,-0.322083,-11.3481,0.00018243,0.00074286,-0.000979182,0.00148113,-0.000555843,-0.92476,0.00121582,0.0130703,895,505,-0.322079,11.3481
-322,519,-0.315979,-11.6583,0.000449217,0.000553455,-0.000753025,0.00125616,-0.00025349,-0.81995,0.000933482,0.0103255,902,505,-0.315953,11.6583
-315,519,-0.307312,-11.9677,0.000680665,0.000495903,-0.000490087,0.001087,8.9566e-05,-0.692242,0.000696734,0.00877844,909,505,-0.307294,11.9677
-308,519,-0.326416,-12.2614,0.00095018,0.000418201,-0.000217564,0.00102783,0.000340556,-0.342793,0.000604564,0.00799156,916,505,-0.326397,12.2613
-301,519,-0.352783,-12.5545,0.00125649,0.000274135,7.52792e-05,0.00126222,0.0002684,0.07604,0.000767813,0.0119415,923,505,-0.352783,12.5545
-294,519,-0.35498,-12.817,0.00199197,-5.85622e-05,0.000546729,0.00212863,-0.000195227,0.244949,0.00148844,0.0139946,930,505,-0.354963,12.817
-287,519,-0.363403,-13.0845,0.00355216,-0.00132443,0.000538821,0.00361099,-0.00138326,0.108744,0.00297751,0.0103203,937,505,-0.363395,13.0845
-280,519,-0.364075,-13.356,0.00494534,-0.00235126,0.000769471,0.0050256,-0.00243152,0.103933,0.00439134,0.0145371,944,505,-0.364102,13.356
-273,519,-0.321594,-13.6524,0.00639059,-0.00410817,0.00109607,0.0065038,-0.00422138,0.102922,0.00623875,0.0242791,951,505,-0.321589,13.6524
-266,519,-0.359497,-13.9396,0.00797653,-0.0062131,0.00195977,0.00824223,-0.00647879,0.134753,0.00851949,0.0341053,958,505,-0.359471,13.9396
-259,519,-0.266602,-14.1756,0,0,0,0,0,0,0,-1,965,505,-0.266571,14.1756
-252,519,-0.212158,-14.3019,0,0,0,0,0,0,0,-1,972,505,-0.212165,14.3019
-245,519,-0.269348,-14.2896,0,0,0,0,0,0,0,-1,979,505,-0.269332,14.2895
-238,519,1.17072,-13.5575,0,0,0,0,0,0,0,-1,986,505,1.1707,13.5575
-231,519,0.337585,-11.2798,0,0,0,0,0,0,0,-1,993,505,0.337568,11.2798
-224,519,-0.0494995,-7.97394,0,0,0,0,0,0,0,-1,1000,505,-0.0495123,7.97392
-217,519,-2.97125,-4.84393,0,0,0,0,0,0,0,-1,1007,505,-2.97128,4.84393
-210,519,-2.14398,-4.74774,0,0,0,0,0,0,0,-1,1014,505,-2.14397,4.74775
-203,519,-0.513611,-5.39017,0,0,0,0,0,0,0,-1,1021,505,-0.513585,5.39017
-196,519,-0.374023,-5.41635,0,0,0,0,0,0,0,-1,1028,505,-0.374047,5.41635
-189,519,-0.234497,-5.44254,0,0,0,0,0,0,0,-1,1035,505,-0.234508,5.44253
-182,519,2.76697,-1.19659,0,0,0,0,0,0,0,-1,1042,505,2.76696,1.19661
-175,519,2.31323,-0.960938,0,0,0,0,0,0,0,-1,1049,505,2.31319,0.960941
-168,519,2.01074,-0.721405,0,0,0,0,0,0,0,-1,1056,505,2.01072,0.721407
-161,519,2.32056,-0.522339,0,0,0,0,0,0,0,-1,1063,505,2.32057,0.522328
-154,519,2.55566,0.116669,0,0,0,0,0,0,0,-1,1070,505,2.55563,-0.116661
-147,519,-0.55127,-6.14001,0,0,0,0,0,0,0,-1,1077,505,-0.551252,6.14001
-140,519,0.240601,-7.53503,0,0,0,0,0,0,0,-1,1084,505,0.240653,7.53501
-133,519,2.70911,-4.4516,0,0,0,0,0,0,0,-1,1091,505,2.70915,4.45161
-126,519,0,0,0,0,0,0,0,0,0,-1,1098,505,0,0
-119,519,0,0,0,0,0,0,0,0,0,-1,1105,505,0,0
-112,519,0,0,0,0,0,0,0,0,0,-1,1112,505,0,0
-105,519,0,0,0,0,0,0,0,0,0,-1,1119,505,0,0
-98,519,0,0,0,0,0,0,0,0,0,-1,1126,505,0,0
-91,519,0,0,0,0,0,0,0,0,0,-1,1133,505,0,0
-84,519,0,0,0,0,0,0,0,0,0,-1,1140,505,0,0
-77,519,0,0,0,0,0,0,0,0,0,-1,1147,505,0,0
-70,519,0,0,0,0,0,0,0,0,0,-1,1154,505,0,0
-63,519,0,0,0,0,0,0,0,0,0,-1,1161,505,0,0
-56,519,0,0,0,0,0,0,0,0,0,-1,1168,505,0,0
-49,519,0,0,0,0,0,0,0,0,0,-1,1175,505,0,0
-42,519,0,0,0,0,0,0,0,0,0,-1,1182,505,0,0
-35,519,0,0,0,0,0,0,0,0,0,-1,1189,505,0,0
-28,519,0,0,0,0,0,0,0,0,0,-1,1196,505,0,0
-21,519,0,0,0,0,0,0,0,0,0,-1,1203,505,0,0
-14,519,0,0,0,0,0,0,0,0,0,-1,1210,505,0,0
-7,519,0,0,0,0,0,0,0,0,0,-1,1217,505,0,0
0,519,0,0,0,0,0,0,0,0,0,-1,1224,505,0,0
7,519,0,0,0,0,0,0,0,0,0,-1,1231,505,0,0
14,519,0,0,0,0,0,0,0,0,0,-1,1238,505,0,0
21,519,0,0,0,0,0,0,0,0,0,-1,1245,505,0,0
28,519,0,0,0,0,0,0,0,0,0,-1,1252,505,0,0
35,519,0,0,0,0,0,0,0,0,0,-1,1259,505,0,0
42,519,0,0,0,0,0,0,0,0,0,-1,1266,505,0,0
49,519,0,0,0,0,0,0,0,0,0,-1,1273,505,0,0
56,519,0,0,0,0,0,0,0,0,0,-1,1280,505,0,0
63,519,0,0,0,0,0,0,0,0,0,-1,1287,505,0,0
70,519,0,0,0,0,0,0,0,0,0,-1,1294,505,0,0
77,519,0,0,0,0,0,0,0,0,0,-1,1301,505,0,0
84,519,0,0,0,0,0,0,0,0,0,-1,1308,505,0,0
91,519,0,0,0,0,0,0,0,0,0,-1,1315,505,0,0
98,519,0,0,0,0,0,0,0,0,0,-1,1322,505,0,0
105,519,0,0,0,0,0,0,0,0,0,-1,1329,505,0,0
112,519,0,0,0,0,0,0,0,0,0,-1,1336,505,0,0
119,519,0,0,0,0,0,0,0,0,0,-1,1343,505,0,0
126,519,0,0,0,0,0,0,0,0,0,-1,1350,505,0,0
133,519,0,0,0,0,0,0,0,0,0,-1,1357,505,0,0
140,519,0,0,0,0,0,0,0,0,0,-1,1364,505,0,0
147,519,0,0,0,0,0,0,0,0,0,-1,1371,505,0,0
154,519,0,0,0,0,0,0,0,0,0,-1,1378,505,0,0
161,519,0,0,0,0,0,0,0,0,0,-1,1385,505,0,0
168,519,0,0,0,0,0,0,0,0,0,-1,1392,505,0,0
175,519,0,0,0,0,0,0,0,0,0,-1,1399,505,0,0
182,519,0,0,0,0,0,0,0,0,0,-1,1406,505,0,0
189,519,0,0,0,0,0,0,0,0,0,-1,1413,505,0,0
196,519,0,0,0,0,0,0,0,0,0,-1,1420,505,0,0
203,519,0,0,0,0,0,0,0,0,0,-1,1427,505,0,0
210,519,0,0,0,0,0,0,0,0,0,-1,1434,505,0,0
217,519,0,0,0,0,0,0,0,0,0,-1,1441,505,0,0
224,519,0,0,0,0,0,0,0,0,0,-1,1448,505,0,0
231,519,0,0,0,0,0,0,0,0,0,-1,1455,505,0,0
238,519,0,0,0,0,0,0,0,0,0,-1,1462,505,0,0
245,519,0,0,0,0,0,0,0,0,0,-1,1469,505,0,0
252,519,5.26208,0.0938416,0,0,0,0,0,0,0,-1,1476,505,5.26207,-0.0938493
259,519,6.14246,-1.36441,0,0,0,0,0,0,0,-1,1483,505,6.14241,1.36441
266,519,5.31909,-0.400787,0,0,0,0,0,0,0,-1,1490,505,5.31912,0.400773
273,519,4.02393,0.325531,0,0,0,0,0,0,0,-1,1497,505,4.0239,-0.325522
280,519,4.68848,0.53006,0,0,0,0,0,0,0,-1,1504,505,4.68842,-0.530073
287,519,7.9519,-3.80801,0,0,0,0,0,0,0,-1,1511,505,7.95193,3.808
294,519,6.92273,-3.38889,0,0,0,0,0,0,0,-1,1518,505,6.92268,3.38888
301,519,5.35669,-2.92661,0,0,0,0,0,0,0,-1,1525,505,5.35675,2.9266
308,519,7.37549,-5.64529,0,0,0,0,0,0,0,-1,1532,505,7.3755,5.64529
315,519,6.30029,-4.53754,0,0,0,0,0,0,0,-1,1539,505,6.30024,4.53753
322,519,5.84302,-5.45117,0,0,0,0,0,0,0,-1,1546,505,5.84303,5.45116
329,519,4.92407,0.62384,0,0,0,0,0,0,0,-1,1553,505,4.92403,-0.623832
336,519,3.10095,-0.329285,0,0,0,0,0,0,0,-1,1560,505,3.1009,0.329283
343,519,2.49146,-2.31119,0,0,0,0,0,0,0,-1,1567,505,2.49145,2.31119
350,519,3.47729,-2.22516,0,0,0,0,0,0,0,-1,1574,505,3.47726,2.22515
357,519,4.51917,-4.51691,0,0,0,0,0,0,0,-1,1581,505,4.51914,4.51691
364,519,3.54626,-7.20673,0,0,0,0,0,0,0,-1,1588,505,3.54622,7.20675
371,519,5.349,-8.20068,0,0,0,0,0,0,0,-1,1595,505,5.34898,8.20068
378,519,6.36597,-10.0967,0,0,0,0,0,0,0,-1,1602,505,6.36597,10.0967
385,519,6.24756,-9.72186,0,0,0,0,0,0,0,-1,1609,505,6.24752,9.72183
392,519,6.88684,-13.0523,0,0,0,0,0,0,0,-1,1616,505,6.88682,13.0523
399,519,7.03162,-12.3248,-0.00249819,-0.00276913,-0.00403489,0.0014035,-0.00667082,-0.768617,0.0049814,0.0493634,1623,505,7.0316,12.3249
406,519,6.98218,-12.1964,-0.00209518,-0.00224937,-0.00363483,0.00146337,-0.00580792,-0.774795,0.00444085,0.0286501,1630,505,6.98222,12.1963
413,519,7.02563,-11.8839,-0.00160656,-0.00156854,-0.00307025,0.00148276,-0.00465785,-0.788494,0.00369989,0.0147214,1637,505,7.02559,11.8839
420,519,7.00464,-11.5701,-0.00146165,-0.00121512,-0.00267084,0.0013353,-0.00401207,-0.808458,0.00321365,0.01553,1644,505,7.00464,11.5701
427,519,7.00867,-11.2962,-0.00139148,-0.001036,-0.0022741,0.0010673,-0.00349478,-0.824398,0.00275541,0.0144569,1651,505,7.00872,11.2962
434,519,6.99646,-10.971,-0.00122641,-0.000916196,-0.00181341,0.00074873,-0.00289134,-0.828062,0.00221964,0.0132497,1658,505,6.99648,10.971
441,519,6.97681,-10.6289,-0.000965018,-0.000890507,-0.00136474,0.000437489,-0.00229301,-0.799044,0.00169345,0.0120255,1665,505,6.97685,10.6289
448,519,6.97314,-10.3304,-0.000679909,-0.000993747,-0.000915918,9.2434e-05,-0.00176609,-0.70056,0.00120938,0.00912333,1672,505,6.97316,10.3304
455,519,6.96094,-10.052,-0.000389408,-0.00106176,-0.00050033,-0.000122803,-0.00132837,-0.489587,0.000847613,0.00996685,1679,505,6.96097,10.052
462,519,6.97302,-9.72583,-4.14038e-05,-0.00140996,-0.000223011,-5.98043e-06,-0.00144538,-0.157526,0.000961601,0.00975871,1686,505,6.97297,9.72583
469,519,7.00562,-9.38812,0.000240866,-0.00191322,-0.000151373,0.000251452,-0.0019238,-0.0698151,0.00137404,0.0105115,1693,505,7.00564,9.38813
476,519,6.9978,-9.04651,0.000371705,-0.00251493,-0.000151338,0.000379618,-0.00252285,-0.0522363,0.00182167,0.0128164,1700,505,6.99785,9.04649
483,519,6.9729,-8.70068,0.000417398,-0.00331872,-0.000366375,0.000452987,-0.00335431,-0.096834,0.00240148,0.0138468,1707,505,6.9729,8.70068
490,519,6.97937,-8.35358,0.000280203,-0.00443955,-0.00079578,0.000410765,-0.00457011,-0.162619,0.00319248,0.0117343,1714,505,6.97939,8.35358
497,519,6.99158,-8.0379,2.76922e-05,-0.00564015,-0.00133625,0.000326929,-0.00593939,-0.220303,0.00407295,0.0143554,1721,505,6.99157,8.03791
504,519,6.94543,-7.71643,-0.000327132,-0.00696962,-0.00209095,0.000276256,-0.00757301,-0.280939,0.00514323,0.0143429,1728,505,6.94549,7.7164
511,519,6.95398,-7.37457,-0.000743362,-0.00827602,-0.00302123,0.000318667,-0.00933805,-0.338031,0.00633426,0.0196769,1735,505,6.95393,7.3746
518,519,6.99292,-7.39276,-0.0011534,-0.00962115,-0.0039958,0.000434421,-0.011209,-0.378239,0.00762158,0.0430046,1742,505,6.99292,7.39276
525,519,7.09863,-7.35858,0,0,0,0,0,0,0,-1,1749,505,7.09869,7.35858
532,519,3.5155,-2.86511,0,0,0,0,0,0,0,-1,1756,505,3.51554,2.8651
539,519,3.30005,0.0229797,0,0,0,0,0,0,0,-1,1763,505,3.30008,-0.0229869
546,519,4.62024,-2.89774,0,0,0,0,0,0,0,-1,1770,505,4.62023,2.89775
553,519,4.14136,0.0667419,0,0,0,0,0,0,0,-1,1777,505,4.14141,-0.0667503
560,519,3.77856,0.279724,0,0,0,0,0,0,0,-1,1784,505,3.77861,-0.279731
567,519,0,0,0,0,0,0,0,0,0,-1,1791,505,0,0
574,519,0,0,0,0,0,0,0,0,0,-1,1798,505,0,0
581,519,0,0,0,0,0,0,0,0,0,-1,1805,505,0,0
588,519,0,0,0,0,0,0,0,0,0,-1,1812,505,0,0
595,519,0,0,0,0,0,0,0,0,0,-1,1819,505,0,0
602,519,0,0,0,0,0,0,0,0,0,-1,1826,505,0,0
609,519,0,0,0,0,0,0,0,0,0,-1,1833,505,0,0
616,519,0,0,0,0,0,0,0,0,0,-1,1840,505,0,0
623,519,0,0,0,0,0,0,0,0,0,-1,1847,505,0,0
630,519,0,0,0,0,0,0,0,0,0,-1,1854,505,0,0
637,519,0,0,0,0,0,0,0,0,0,-1,1861,505,0,0
644,519,0,0,0,0,0,0,0,0,0,-1,1868,505,0,0
651,519,0,0,0,0,0,0,0,0,0,-1,1875,505,0,0
658,519,0,0,0,0,0,0,0,0,0,-1,1882,505,0,0
665,519,0,0,0,0,0,0,0,0,0,-1,1889,505,0,0
672,519,0,0,0,0,0,0,0,0,0,-1,1896,505,0,0
679,519,0,0,0,0,0,0,0,0,0,-1,1903,505,0,0
686,519,0,0,0,0,0,0,0,0,0,-1,1910,505,0,0
693,519,0,0,0,0,0,0,0,0,0,-1,1917,505,0,0
700,519,0,0,0,0,0,0,0,0,0,-1,1924,505,0,0
707,519,0,0,0,0,0,0,0,0,0,-1,1931,505,0,0
714,519,0,0,0,0,0,0,0,0,0,-1,1938,505,0,0
721,519,0,0,0,0,0,0,0,0,0,-1,1945,505,0,0
728,519,0,0,0,0,0,0,0,0,0,-1,1952,505,0,0
735,519,0,0,0,0,0,0,0,0,0,-1,1959,505,0,0
742,519,0,0,0,0,0,0,0,0,0,-1,1966,505,0,0
749,519,0,0,0,0,0,0,0,0,0,-1,1973,505,0,0
756,519,0,0,0,0,0,0,0,0,0,-1,1980,505,0,0
763,519,0,0,0,0,0,0,0,0,0,-1,1987,505,0,0
770,519,0,0,0,0,0,0,0,0,0,-1,1994,505,0,0
777,519,0,0,0,0,0,0,0,0,0,-1,2001,505,0,0
784,519,0,0,0,0,0,0,0,0,0,-1,2008,505,0,0
791,519,0,0,0,0,0,0,0,0,0,-1,2015,505,0,0
798,519,0,0,0,0,0,0,0,0,0,-1,2022,505,0,0
805,519,0,0,0,0,0,0,0,0,0,-1,2029,505,0,0
812,519,0,0,0,0,0,0,0,0,0,-1,2036,505,0,0
-700,512,0,0,0,0,0,0,0,0,0,-1,524,512,0,0
-693,512,0,0,0,0,0,0,0,0,0,-1,531,512,0,0
-686,512,0,0,0,0,0,0,0,0,0,-1,538,512,0,0
-679,512,0,0,0,0,0,0,0,0,0,-1,545,512,0,0
-672,512,0,0,0,0,0,0,0,0,0,-1,552,512,0,0
-665,512,0,0,0,0,0,0,0,0,0,-1,559,512,0,0
-658,512,0,0,0,0,0,0,0,0,0,-1,566,512,0,0
-651,512,0,0,0,0,0,0,0,0,0,-1,573,512,0,0
-644,512,0,0,0,0,0,0,0,0,0,-1,580,512,0,0
-637,512,0,0,0,0,0,0,0,0,0,-1,587,512,0,0
-630,512,0,0,0,0,0,0,0,0,0,-1,594,512,0,0
-623,512,0,0,0,0,0,0,0,0,0,-1,601,512,0,0
-616,512,0,0,0,0,0,0,0,0,0,-1,608,512,0,0
-609,512,0,0,0,0,0,0,0,0,0,-1,615,512,0,0
-602,512,0,0,0,0,0,0,0,0,0,-1,622,512,0,0
-595,512,0,0,0,0,0,0,0,0,0,-1,629,512,0,0
-588,512,0,0,0,0,0,0,0,0,0,-1,636,512,0,0
-581,512,0,0,0,0,0,0,0,0,0,-1,643,512,0,0
-574,512,0,0,0,0,0,0,0,0,0,-1,650,512,0,0
-567,512,0,0,0,0,0,0,0,0,0,-1,657,512,0,0
-560,512,0,0,0,0,0,0,0,0,0,-1,664,512,0,0
-553,512,0,0,0,0,0,0,0,0,0,-1,671,512,0,0
-546,512,0,0,0,0,0,0,0,0,0,-1,678,512,0,0
-539,512,0,0,0,0,0,0,0,0,0,-1,685,512,0,0
-532,512,0,0,0,0,0,0,0,0,0,-1,692,512,0,0
-525,512,0,0,0,0,0,0,0,0,0,-1,699,512,0,0
-518,512,0,0,0,0,0,0,0,0,0,-1,706,512,0,0
-511,512,0,0,0,0,0,0,0,0,0,-1,713,512,0,0
-504,512,0,0,0,0,0,0,0,0,0,-1,720,512,0,0
-497,512,0,0,0,0,0,0,0,0,0,-1,727,512,0,0
-490,512,0,0,0,0,0,0,0,0,0,-1,734,512,0,0
-483,512,0,0,0,0,0,0,0,0,0,-1,741,512,0,0
-476,512,0,0,0,0,0,0,0,0,0,-1,748,512,0,0
-469,512,0,0,0,0,0,0,0,0,0,-1,755,512,0,0
-462,512,0,0,0,0,0,0,0,0,0,-1,762,512,0,0
-455,512,0,0,0,0,0,0,0,0,0,-1,769,512,0,0
-448,512,1.96283,-4.15674,0,0,0,0,0,0,0,-1,776,512,1.96285,4.15677
-441,512,1.78198,-4.88824,0,0,0,0,0,0,0,-1,783,512,1.78201,4.88826
-434,512,1.32996,-7.28003,0,0,0,0,0,0,0,-1,790,512,1.32993,7.28003
-427,512,0.427734,-6.66571,0,0,0,0,0,0,0,-1,797,512,0.427713,6.6657
-420,512,0.118835,-6.97083,0,0,0,0,0,0,0,-1,804,512,0.118822,6.97082
-413,512,-0.190491,-7.46906,0,0,0,0,0,0,0,-1,811,512,-0.190476,7.46904
-406,512,-0.738892,-7.62384,0,0,0,0,0,0,0,-1,818,512,-0.738905,7.62381
-399,512,-0.670166,-8.02454,0.00450562,0.00446002,-0.0109177,0.0154006,-0.00643494,-0.784354,0.0129561,0.0446905,825,512,-0.670175,8.02457
-392,512,-0.497498,-8.4884,0.0027829,0.00394733,-0.00851289,0.0118979,-0.00516767,-0.819541,0.010105,0.0342169,832,512,-0.497498,8.48839
-385,512,-0.522217,-8.81165,0.00163412,0.00331945,-0.00653459,0.00906548,-0.00411191,-0.849522,0.00778509,0.0203153,839,512,-0.522217,8.81163
-378,512,-0.554993,-9.13867,0.000929014,0.00270712,-0.00502779,0.00692386,-0.00328773,-0.872907,0.00601896,0.0161472,846,512,-0.555022,9.13869
-371,512,-0.566406,-9.47443,0.000411149,0.00216264,-0.00375785,0.00514544,-0.00257165,-0.899877,0.00453731,0.0117226,853,512,-0.566389,9.4744
-364,512,-0.564514,-9.83221,0.000125139,0.00174857,-0.0028398,0.00389039,-0.00201668,-0.924603,0.00346717,0.00925464,860,512,-0.564539,9.83223
-357,512,-0.56073,-10.1428,-1.14148e-05,0.00134859,-0.00207999,0.00285691,-0.00151974,-0.943385,0.00256587,0.0109097,867,512,-0.560735,10.1428
-350,512,-0.572327,-10.4656,2.81539e-06,0.000928874,-0.00155801,0.0020912,-0.00115951,-0.929838,0.00190232,0.0118615,874,512,-0.572306,10.4656
-343,512,-0.60199,-10.7682,8.92208e-05,0.000769211,-0.00110305,0.00158348,-0.000725045,-0.934894,0.0013632,0.0130682,881,512,-0.601985,10.7682
-336,512,-0.618103,-11.0615,0.000343937,0.00055333,-0.000877452,0.00133231,-0.000435043,-0.844777,0.00106331,0.0132575,888,512,-0.618086,11.0615
-329,512,-0.608215,-11.3554,0.000702651,0.000380557,-0.000757995,0.00131652,-0.00023331,-0.680722,0.000964897,0.0139151,895,512,-0.60823,11.3554
-322,512,-0.61145,-11.6686,0.000992897,0.000261291,-0.00059991,0.00132973,-7.55473e-05,-0.511615,0.000912715,0.0113763,902,512,-0.611463,11.6686
-315,512,-0.605347,-11.9752,0.00124832,0.00025279,-0.000408461,0.00139446,0.000106652,-0.343585,0.000896206,0.0103732,909,512,-0.60533,11.9752
-308,512,-0.628235,-12.2617,0.00155279,0.000208511,-0.000195371,0.00158061,0.000180693,-0.141438,0.000998972,0.0107444,916,512,-0.628256,12.2617
-301,512,-0.636047,-12.5389,0.00189939,9.31049e-05,4.31254e-05,0.00190042,9.20758e-05,0.0238571,0.0012374,0.0143119,923,512,-0.636075,12.5389
-294,512,-0.63562,-12.8139,0.00272731,-0.000178843,0.000511358,0.00281466,-0.000266195,0.169189,0.00197117,0.0146113,930,512,-0.635618,12.8139
-287,512,-0.71698,-13.0311,0.00461651,-0.00163229,0.0003798,0.00463951,-0.00165529,0.0604829,0.00376798,0.0220264,937,512,-0.716995,13.0311
-280,512,-0.577942,-13.3462,0.00639181,-0.00292373,0.000601997,0.00643055,-0.00296247,0.0642665,0.00554491,0.0329676,944,512,-0.577935,13.3462
-273,512,-0.504211,-13.7034,0,0,0,0,0,0,0,-1,951,512,-0.504202,13.7034
-266,512,-0.656067,-14.0523,0,0,0,0,0,0,0,-1,958,512,-0.656078,14.0523
-259,512,-0.593445,-13.386,0,0,0,0,0,0,0,-1,965,512,-0.593417,13.386
-252,512,1.45941,-3.43475,0,0,0,0,0,0,0,-1,972,512,1.45938,3.43475
-245,512,4.12927,-11.272,0,0,0,0,0,0,0,-1,979,512,4.1293,11.272
-238,512,0.227051,-8.92969,0,0,0,0,0,0,0,-1,986,512,0.227073,8.92968
-231,512,-2.54437,-10.169,0,0,0,0,0,0,0,-1,993,512,-2.54439,10.169
-224,512,-4.84601,-7.52783,0,0,0,0,0,0,0,-1,1000,512,-4.84602,7.52786
-217,512,-7.37274,-3.89563,0,0,0,0,0,0,0,-1,1007,512,-7.37274,3.89561
-210,512,-3.76642,-1.94702,0,0,0,0,0,0,0,-1,1014,512,-3.76641,1.94702
-203,512,-2.48328,-5.19061,0,0,0,0,0,0,0,-1,1021,512,-2.48328,5.19059
-196,512,-1.14929,-4.63202,0,0,0,0,0,0,0,-1,1028,512,-1.14934,4.632
-189,512,0.197998,4.55505,0,0,0,0,0,0,0,-1,1035,512,0.197996,-4.55506
-182,512,2.73938,0.0778503,0,0,0,0,0,0,0,-1,1042,512,2.73944,-0.077852
-175,512,2.29565,0.209808,0,0,0,0,0,0,0,-1,1049,512,2.29565,-0.209813
-168,512,2.09399,-0.302856,0,0,0,0,0,0,0,-1,1056,512,2.09403,0.302826
-161,512,2.76636,0.0921021,0,0,0,0,0,0,0,-1,1063,512,2.76633,-0.0921104
-154,512,3.41382,0.466187,0,0,0,0,0,0,0,-1,1070,512,3.41382,-0.466178
-147,512,0,0,0,0,0,0,0,0,0,-1,1077,512,0,0
-140,512,0,0,0,0,0,0,0,0,0,-1,1084,512,0,0
-133,512,0,0,0,0,0,0,0,0,0,-1,1091,512,0,0
-126,512,0,0,0,0,0,0,0,0,0,-1,1098,512,0,0
-119,512,0,0,0,0,0,0,0,0,0,-1,1105,512,0,0
-112,512,0,0,0,0,0,0,0,0,0,-1,1112,512,0,0
-105,512,0,0,0,0,0,0,0,0,0,-1,1119,512,0,0
-98,512,0,0,0,0,0,0,0,0,0,-1,1126,512,0,0
-91,512,0,0,0,0,0,0,0,0,0,-1,1133,512,0,0
-84,512,0,0,0,0,0,0,0,0,0,-1,1140,512,0,0
-77,512,0,0,0,0,0,0,0,0,0,-1,1147,512,0,0
-70,512,0,0,0,0,0,0,0,0,0,-1,1154,512,0,0
-63,512,0,0,0,0,0,0,0,0,0,-1,1161,512,0,0
-56,512,0,0,0,0,0,0,0,0,0,-1,1168,512,0,0
-49,512,0,0,0,0,0,0,0,0,0,-1,1175,512,0,0
-42,512,0,0,0,0,0,0,0,0,0,-1,1182,512,0,0
-35,512,0,0,0,0,0,0,0,0,0,-1,1189,512,0,0
-28,512,0,0,0,0,0,0,0,0,0,-1,1196,512,0,0
-21,512,0,0,0,0,0,0,0,0,0,-1,1203,512,0,0
-14,512,0,0,0,0,0,0,0,0,0,-1,1210,512,0,0
-7,512,0,0,0,0,0,0,0,0,0,-1,1217,512,0,0
0,512,0,0,0,0,0,0,0,0,0,-1,1224,512,0,0
7,512,0,0,0,0,0,0,0,0,0,-1,1231,512,0,0
14,512,0,0,0,0,0,0,0,0,0,-1,1238,512,0,0
21,512,0,0,0,0,0,0,0,0,0,-1,1245,512,0,0
28,512,0,0,0,0,0,0,0,0,0,-1,1252,512,0,0
35,512,0,0,0,0,0,0,0,0,0,-1,1259,512,0,0
42,512,0,0,0,0,0,0,0,0,0,-1,1266,512,0,0
49,512,0,0,0,0,0,0,0,0,0,-1,1273,512,0,0
56,512,0,0,0,0,0,0,0,0,0,-1,1280,512,0,0
63,512,0,0,0,0,0,0,0,0,0,-1,1287,512,0,0
70,512,0,0,0,0,0,0,0,0,0,-1,1294,512,0,0
77,512,0,0,0,0,0,0,0,0,0,-1,1301,512,0,0
84,512,0,0,0,0,0,0,0,0,0,-1,1308,512,0,0
91,512,0,0,0,0,0,0,0,0,0,-1,1315,512,0,0
98,512,0,0,0,0,0,0,0,0,0,-1,1322,512,0,0
105,512,0,0,0,0,0,0,0,0,0,-1,1329,512,0,0
112,512,0,0,0,0,0,0,0,0,0,-1,1336,512,0,0
119,512,0,0,0,0,0,0,0,0,0,-1,1343,512,0,0
126,512,0,0,0,0,0,0,0,0,0,-1,1350,512,0,0
133,512,0,0,0,0,0,0,0,0,0,-1,1357,512,0,0
140,512,0,0,0,0,0,0,0,0,0,-1,1364,512,0,0
147,512,0,0,0,0,0,0,0,0,0,-1,1371,512,0,0
154,512,0,0,0,0,0,0,0,0,0,-1,1378,512,0,0
161,512,0,0,0,0,0,0,0,0,0,-1,1385,512,0,0
168,512,0,0,0,0,0,0,0,0,0,-1,1392,512,0,0
175,512,0,0,0,0,0,0,0,0,0,-1,1399,512,0,0
182,512,0,0,0,0,0,0,0,0,0,-1,1406,512,0,0
189,512,0,0,0,0,0,0,0,0,0,-1,1413,512,0,0
196,512,0,0,0,0,0,0,0,0,0,-1,1420,512,0,0
203,512,0,0,0,0,0,0,0,0,0,-1,1427,512,0,0
210,512,0,0,0,0,0,0,0,0,0,-1,1434,512,0,0
217,512,0,0,0,0,0,0,0,0,0,-1,1441,512,0,0
224,512,0,0,0,0,0,0,0,0,0,-1,1448,512,0,0
231,512,0,0,0,0,0,0,0,0,0,-1,1455,512,0,0
238,512,0,0,0,0,0,0,0,0,0,-1,1462,512,0,0
245,512,0,0,0,0,0,0,0,0,0,-1,1469,512,0,0
252,512,0,0,0,0,0,0,0,0,0,-1,1476,512,0,0
259,512,0,0,0,0,0,0,0,0,0,-1,1483,512,0,0
266,512,0,0,0,0,0,0,0,0,0,-1,1490,512,0,0
273,512,4.00745,0.618622,0,0,0,0,0,0,0,-1,1497,512,4.00747,-0.618611
280,512,4.49609,0.649841,0,0,0,0,0,0,0,-1,1504,512,4.49612,-0.649834
287,512,4.77234,0.458069,0,0,0,0,0,0,0,-1,1511,512,4.77233,-0.458083
294,512,8.54956,-2.36273,0,0,0,0,0,0,0,-1,1518,512,8.54952,2.36274
301,512,6.302,-1.69092,0,0,0,0,0,0,0,-1,1525,512,6.30196,1.69093
308,512,8.2439,-6.22754,0,0,0,0,0,0,0,-1,1532,512,8.24394,6.22757
315,512,7.53687,-6.04211,0,0,0,0,0,0,0,-1,1539,512,7.53691,6.04211
322,512,6.82983,-5.85663,0,0,0,0,0,0,0,-1,1546,512,6.82988,5.85666
329,512,4.38147,-0.329651,0,0,0,0,0,0,0,-1,1553,512,4.38144,0.329662
336,512,4.41467,-0.741455,0,0,0,0,0,0,0,-1,1560,512,4.41467,0.741442
343,512,4.44727,-1.21667,0,0,0,0,0,0,0,-1,1567,512,4.44732,1.21666
350,512,4.55469,-1.65082,0,0,0,0,0,0,0,-1,1574,512,4.5547,1.65083
357,512,5.79993,-2.67456,0,0,0,0,0,0,0,-1,1581,512,5.79991,2.67454
364,512,5.18298,-6.80133,0,0,0,0,0,0,0,-1,1588,512,5.18296,6.80132
371,512,5.28467,-7.69269,0,0,0,0,0,0,0,-1,1595,512,5.28464,7.69269
378,512,6.29407,-9.88055,0,0,0,0,0,0,0,-1,1602,512,6.29412,9.88057
385,512,6.45569,-9.32233,0,0,0,0,0,0,0,-1,1609,512,6.45565,9.3223
392,512,6.35522,-8.98425,0,0,0,0,0,0,0,-1,1616,512,6.35526,8.98422
399,512,7.36047,-11.97,0,0,0,0,0,0,0,-1,1623,512,7.36047,11.9699
406,512,7.2948,-12.2803,0,0,0,0,0,0,0,-1,1630,512,7.29483,12.2803
413,512,7.20837,-11.9643,-0.00287806,-0.00281857,-0.00470792,0.0018597,-0.00755633,-0.788557,0.00575843,0.0449212,1637,512,7.20839,11.9643
420,512,7.33447,-11.6158,-0.00255001,-0.00232179,-0.00408924,0.00165493,-0.00652673,-0.799347,0.00499503,0.0209304,1644,512,7.33448,11.6158
427,512,7.32922,-11.2933,-0.00231173,-0.00197948,-0.00348916,0.00134751,-0.00563872,-0.809186,0.00427962,0.0143943,1651,512,7.32919,11.2933
434,512,7.31299,-10.9766,-0.00196197,-0.00154007,-0.00280203,0.00105894,-0.00456098,-0.82297,0.00344827,0.0105477,1658,512,7.313,10.9766
441,512,7.28503,-10.6418,-0.00153614,-0.00120889,-0.00217057,0.000804219,-0.00354925,-0.82302,0.00267485,0.01169,1665,512,7.285,10.6418
448,512,7.27344,-10.3434,-0.00108046,-0.00103046,-0.00157747,0.000522205,-0.00263312,-0.793322,0.0019529,0.00862318,1672,512,7.27345,10.3434
455,512,7.28174,-10.022,-0.000644542,-0.000809357,-0.00103515,0.000311479,-0.00176538,-0.745677,0.00129331,0.00823838,1679,512,7.28179,10.022
462,512,7.30542,-9.68604,-0.000203426,-0.000881542,-0.000653001,0.000193295,-0.00127826,-0.545941,0.000923376,0.00909608,1686,512,7.3054,9.68605
469,512,7.31128,-9.37775,0.000115219,-0.00115493,-0.000486117,0.000279913,-0.00131963,-0.326657,0.000986384,0.0107348,1693,512,7.31127,9.37772
476,512,7.30603,-9.06781,0.000265277,-0.00153088,-0.000410659,0.000354713,-0.00162031,-0.21444,0.00121582,0.0138517,1700,512,7.30604,9.06782
483,512,7.30359,-8.71149,0.000333961,-0.00210693,-0.000529545,0.000443894,-0.00221686,-0.20469,0.00164595,0.0124357,1707,512,7.30365,8.7115
490,512,7.30627,-8.35034,0.00018437,-0.00296023,-0.000862518,0.00040541,-0.00318127,-0.250873,0.00226809,0.0101338,1714,512,7.30623,8.35035
497,512,7.30847,-8.01422,-0.000127397,-0.00395785,-0.0012994,0.000271795,-0.00435704,-0.298061,0.0029994,0.0115191,1721,512,7.30841,8.01421
504,512,7.26672,-7.66394,-0.000538102,-0.00502721,-0.00188479,0.00014829,-0.0057136,-0.349247,0.00385944,0.0121951,1728,512,7.26671,7.66392
511,512,7.24133,-7.30475,-0.001058,-0.00607574,-0.00259239,4.07477e-05,-0.0071745,-0.400885,0.00479664,0.0130854,1735,512,7.24133,7.30476
518,512,7.29565,-6.98956,-0.00163089,-0.00713999,-0.00330202,-8.53357e-05,-0.00868554,-0.437773,0.00576212,0.0206203,1742,512,7.29569,6.98959
525,512,7.42212,-6.66046,0,0,0,0,0,0,0,-1,1749,512,7.42209,6.66047
532,512,5.73535,-4.92993,0,0,0,0,0,0,0,-1,1756,512,5.73534,4.92994
539,512,4.39929,-3.11737,0,0,0,0,0,0,0,-1,1763,512,4.3993,3.11735
546,512,2.77551,-0.66449,0,0,0,0,0,0,0,-1,1770,512,2.77548,0.664503
553,512,3.927,-0.448853,0,0,0,0,0,0,0,-1,1777,512,3.92704,0.448843
560,512,3.55762,-0.201233,0,0,0,0,0,0,0,-1,1784,512,3.55768,0.201259
567,512,3.09045,0.191193,0,0,0,0,0,0,0,-1,1791,512,3.09045,-0.191203
574,512,0,0,0,0,0,0,0,0,0,-1,1798,512,0,0
581,512,0,0,0,0,0,0,0,0,0,-1,1805,512,0,0
588,512,0,0,0,0,0,0,0,0,0,-1,1812,512,0,0
595,512,0,0,0,0,0,0,0,0,0,-1,1819,512,0,0
602,512,0,0,0,0,0,0,0,0,0,-1,1826,512,0,0
609,512,0,0,0,0,0,0,0,0,0,-1,1833,512,0,0
616,512,0,0,0,0,0,0,0,0,0,-1,1840,512,0,0
623,512,0,0,0,0,0,0,0,0,0,-1,1847,512,0,0
630,512,0,0,0,0,0,0,0,0,0,-1,1854,512,0,0
637,512,0,0,0,0,0,0,0,0,0,-1,1861,512,0,0
644,512,0,0,0,0,0,0,0,0,0,-1,1868,512,0,0
651,512,0,0,0,0,0,0,0,0,0,-1,1875,512,0,0
658,512,0,0,0,0,0,0,0,0,0,-1,1882,512,0,0
665,512,0,0,0,0,0,0,0,0,0,-1,1889,512,0,0
672,512,0,0,0,0,0,0,0,0,0,-1,1896,512,0,0
679,512,0,0,0,0,0,0,0,0,0,-1,1903,512,0,0
686,512,0,0,0,0,0,0,0,0,0,-1,1910,512,0,0
693,512,0,0,0,0,0,0,0,0,0,-1,1917,512,0,0
700,512,0,0,0,0,0,0,0,0,0,-1,1924,512,0,0
707,512,0,0,0,0,0,0,0,0,0,-1,1931,512,0,0
714,512,0,0,0,0,0,0,0,0,0,-1,1938,512,0,0
721,512,0,0,0,0,0,0,0,0,0,-1,1945,512,0,0
728,512,0,0,0,0,0,0,0,0,0,-1,1952,512,0,0
735,512,0,0,0,0,0,0,0,0,0,-1,1959,512,0,0
742,512,0,0,0,0,0,0,0,0,0,-1,1966,512,0,0
749,512,0,0,0,0,0,0,0,0,0,-1,1973,512,0,0
756,512,0,0,0,0,0,0,0,0,0,-1,1980,512,0,0
763,512,0,0,0,0,0,0,0,0,0,-1,1987,512,0,0
770,512,0,0,0,0,0,0,0,0,0,-1,1994,512,0,0
777,512,0,0,0,0,0,0,0,0,0,-1,2001,512,0,0
784,512,0,0,0,0,0,0,0,0,0,-1,2008,512,0,0
791,512,0,0,0,0,0,0,0,0,0,-1,2015,512,0,0
798,512,0,0,0,0,0,0,0,0,0,-1,2022,512,0,0
805,512,0,0,0,0,0,0,0,0,0,-1,2029,512,0,0
812,512,0,0,0,0,0,0,0,0,0,-1,2036,512,0,0
-700,505,0,0,0,0,0,0,0,0,0,-1,524,519,0,0
-693,505,0,0,0,0,0,0,0,0,0,-1,531,519,0,0
-686,505,0,0,0,0,0,0,0,0,0,-1,538,519,0,0
-679,505,0,0,0,0,0,0,0,0,0,-1,545,519,0,0
-672,505,0,0,0,0,0,0,0,0,0,-1,552,519,0,0
-665,505,0,0,0,0,0,0,0,0,0,-1,559,519,0,0
-658,505,0,0,0,0,0,0,0,0,0,-1,566,519,0,0
-651,505,0,0,0,0,0,0,0,0,0,-1,573,519,0,0
-644,505,0,0,0,0,0,0,0,0,0,-1,580,519,0,0
-637,505,0,0,0,0,0,0,0,0,0,-1,587,519,0,0
-630,505,0,0,0,0,0,0,0,0,0,-1,594,519,0,0
-623,505,0,0,0,0,0,0,0,0,0,-1,601,519,0,0
-616,505,0,0,0,0,0,0,0,0,0,-1,608,519,0,0
-609,505,0,0,0,0,0,0,0,0,0,-1,615,519,0,0
-602,505,0,0,0,0,0,0,0,0,0,-1,622,519,0,0
-595,505,0,0,0,0,0,0,0,0,0,-1,629,519,0,0
-588,505,0,0,0,0,0,0,0,0,0,-1,636,519,0,0
-581,505,0,0,0,0,0,0,0,0,0,-1,643,519,0,0
-574,505,0,0,0,0,0,0,0,0,0,-1,650,519,0,0
-567,505,0,0,0,0,0,0,0,0,0,-1,657,519,0,0
-560,505,0,0,0,0,0,0,0,0,0,-1,664,519,0,0
-553,505,0,0,0,0,0,0,0,0,0,-1,671,519,0,0
-546,505,0,0,0,0,0,0,0,0,0,-1,678,519,0,0
-539,505,0,0,0,0,0,0,0,0,0,-1,685,519,0,0
-532,505,0,0,0,0,0,0,0,0,0,-1,692,519,0,0
-525,505,0,0,0,0,0,0,0,0,0,-1,699,519,0,0
-518,505,0,0,0,0,0,0,0,0,0,-1,706,519,0,0
-511,505,0,0,0,0,0,0,0,0,0,-1,713,519,0,0
-504,505,0,0,0,0,0,0,0,0,0,-1,720,519,0,0
-497,505,0,0,0,0,0,0,0,0,0,-1,727,519,0,0
-490,505,0,0,0,0,0,0,0,0,0,-1,734,519,0,0
-483,505,0,0,0,0,0,0,0,0,0,-1,741,519,0,0
-476,505,0,0,0,0,0,0,0,0,0,-1,748,519,0,0
-469,505,0,0,0,0,0,0,0,0,0,-1,755,519,0,0
-462,505,0,0,0,0,0,0,0,0,0,-1,762,519,0,0
-455,505,2.72137,-3.26379,0,0,0,0,0,0,0,-1,769,519,2.72135,3.26377
-448,505,2.51111,-3.94989,0,0,0,0,0,0,0,-1,776,519,2.51112,3.94986
-441,505,2.80212,-6.8902,0,0,0,0,0,0,0,-1,783,519,2.80209,6.89019
-434,505,0.304626,-6.2099,0,0,0,0,0,0,0,-1,790,519,0.304615,6.20987
-427,505,0.0349731,-6.49762,0,0,0,0,0,0,0,-1,797,519,0.0349682,6.49761
-420,505,-0.270813,-6.81567,0,0,0,0,0,0,0,-1,804,519,-0.270824,6.81568
-413,505,-0.442444,-7.89441,0,0,0,0,0,0,0,-1,811,519,-0.442434,7.89442
-406,505,-0.944763,-7.39679,0,0,0,0,0,0,0,-1,818,519,-0.944735,7.39681
-399,505,-0.814697,-7.66443,0.00313611,0.00483176,-0.00903461,0.0130582,-0.00509037,-0.832182,0.0108095,0.0411124,825,519,-0.814707,7.66441
-392,505,-0.810913,-8.45282,0.00207338,0.00390339,-0.00703226,0.0100799,-0.00410315,-0.850092,0.00842747,0.020343,832,519,-0.810883,8.45282
-385,505,-0.845703,-8.83502,0.00136683,0.00311816,-0.00542472,0.00773744,-0.00325245,-0.865419,0.00651876,0.00950755,839,519,-0.845717,8.83501
-378,505,-0.871765,-9.17212,0.000920326,0.00245568,-0.00417982,0.00593774,-0.00256173,-0.876218,0.00503455,0.011599,846,519,-0.871772,9.17209
-371,505,-0.865479,-9.53503,0.000601347,0.00185179,-0.00315197,0.00443995,-0.00198681,-0.883307,0.00379953,0.0146897,853,519,-0.865451,9.53503
-364,505,-0.880615,-9.85437,0.000443592,0.00135891,-0.00235774,0.003303,-0.0015005,-0.881261,0.00283764,0.0152591,860,519,-0.880635,9.85435
-357,505,-0.851257,-10.1547,0.000418019,0.000927575,-0.0016863,0.00237824,-0.00103264,-0.860375,0.00201971,0.0128048,867,519,-0.85124,10.1547
-350,505,-0.869385,-10.4595,0.000528593,0.00051121,-0.0012443,0.00176423,-0.000724427,-0.781906,0.00147804,0.0118102,874,519,-0.869395,10.4595
-343,505,-0.892273,-10.7534,0.000714142,0.000318882,-0.000896497,0.00143453,-0.00040151,-0.67691,0.00111457,0.00908893,881,519,-0.892246,10.7534
-336,505,-0.901306,-11.0468,0.00104292,0.000112794,-0.000728342,0.00144202,-0.000286298,-0.501265,0.00106963,0.0111316,888,519,-0.901333,11.0468
-329,505,-0.888123,-11.3465,0.00148315,-3.20162e-05,-0.000662535,0.00173199,-0.000280855,-0.359284,0.00125877,0.0152674,895,519,-0.8881,11.3465
-322,505,-0.910645,-11.663,0.00185575,-9.38314e-05,-0.00056064,0.00200547,-0.000243556,-0.260969,0.00142512,0.0172199,902,519,-0.910671,11.663
-315,505,-0.921448,-11.9711,0.00219524,-6.61366e-05,-0.000424717,0.00227238,-0.000143273,-0.17966,0.00156486,0.0135078,909,519,-0.921469,11.9711
-308,505,-0.929626,-12.2426,0.00259046,-8.94708e-05,-0.00024545,0.00261275,-0.000111766,-0.0905839,0.00178026,0.0118166,916,519,-0.929596,12.2426
-301,505,-0.909729,-12.5392,0.0030023,-0.000189163,-3.93692e-05,0.00300279,-0.000189649,-0.0123333,0.00206798,0.0178775,923,519,-0.909709,12.5392
-294,505,-0.914185,-12.8008,0,0,0,0,0,0,0,-1,930,519,-0.91418,12.8008
-287,505,-0.950134,-13.1193,0,0,0,0,0,0,0,-1,937,519,-0.950138,13.1193
-280,505,-0.765137,-13.5429,0,0,0,0,0,0,0,-1,944,519,-0.765123,13.5429
-273,505,-0.0680542,-9.44867,0,0,0,0,0,0,0,-1,951,519,-0.0680462,9.44866
-266,505,-0.036377,-9.07922,0,0,0,0,0,0,0,-1,958,519,-0.0364055,9.0792
-259,505,0.10321,-6.69824,0,0,0,0,0,0,0,-1,965,519,0.103235,6.69826
-252,505,6.82312,-15.6972,0,0,0,0,0,0,0,-1,972,519,6.82314,15.6972
-245,505,4.26727,-12.9861,0,0,0,0,0,0,0,-1,979,519,4.2673,12.9861
-238,505,1.67432,-11.2307,0,0,0,0,0,0,0,-1,986,519,1.67429,11.2307
-231,505,-0.958435,-8.3075,0,0,0,0,0,0,0,-1,993,519,-0.958421,8.30751
-224,505,-3.69653,-5.12732,0,0,0,0,0,0,0,-1,1000,519,-3.69653,5.12733
-217,505,-6.34302,-1.65533,0,0,0,0,0,0,0,-1,1007,519,-6.34299,1.65535
-210,505,-3.06128,-0.396301,0,0,0,0,0,0,0,-1,1014,519,-3.06129,0.396294
-203,505,-4.26465,2.03607,0,0,0,0,0,0,0,-1,1021,519,-4.26462,-2.03606
-196,505,-5.47595,4.27295,0,0,0,0,0,0,0,-1,1028,519,-5.47597,-4.27292
-189,505,1.51526,5.56207,0,0,0,0,0,0,0,-1,1035,519,1.51523,-5.56209
-182,505,2.97815,7.5097,0,0,0,0,0,0,0,-1,1042,519,2.97812,-7.5097
-175,505,-2.38416,-2.17548,0,0,0,0,0,0,0,-1,1049,519,-2.38411,2.1755
-168,505,0,0,0,0,0,0,0,0,0,-1,1056,519,0,0
-161,505,0,0,0,0,0,0,0,0,0,-1,1063,519,0,0
-154,505,0,0,0,0,0,0,0,0,0,-1,1070,519,0,0
-147,505,0,0,0,0,0,0,0,0,0,-1,1077,519,0,0
-140,505,0,0,0,0,0,0,0,0,0,-1,1084,519,0,0
-133,505,0,0,0,0,0,0,0,0,0,-1,1091,519,0,0
-126,505,0,0,0,0,0,0,0,0,0,-1,1098,519,0,0
-119,505,0,0,0,0,0,0,0,0,0,-1,1105,519,0,0
-112,505,0,0,0,0,0,0,0,0,0,-1,1112,519,0,0
-105,505,0,0,0,0,0,0,0,0,0,-1,1119,519,0,0
-98,505,0,0,0,0,0,0,0,0,0,-1,1126,519,0,0
-91,505,0,0,0,0,0,0,0,0,0,-1,1133,519,0,0
-84,505,0,0,0,0,0,0,0,0,0,-1,1140,519,0,0
-77,505,0,0,0,0,0,0,0,0,0,-1,1147,519,0,0
-70,505,0,0,0,0,0,0,0,0,0,-1,1154,519,0,0
-63,505,0,0,0,0,0,0,0,0,0,-1,1161,519,0,0
-56,505,0,0,0,0,0,0,0,0,0,-1,1168,519,0,0
-49,505,0,0,0,0,0,0,0,0,0,-1,1175,519,0,0
-42,505,0,0,0,0,0,0,0,0,0,-1,1182,519,0,0
-35,505,0,0,0,0,0,0,0,0,0,-1,1189,519,0,0
-28,505,0,0,0,0,0,0,0,0,0,-1,1196,519,0,0
-21,505,0,0,0,0,0,0,0,0,0,-1,1203,519,0,0
-14,505,0,0,0,0,0,0,0,0,0,-1,1210,519,0,0
-7,505,0,0,0,0,0,0,0,0,0,-1,1217,519,0,0
0,505,0,0,0,0,0,0,0,0,0,-1,1224,519,0,0
7,505,0,0,0,0,0,0,0,0,0,-1,1231,519,0,0
14,505,0,0,0,0,0,0,0,0,0,-1,1238,519,0,0
21,505,0,0,0,0,0,0,0,0,0,-1,1245,519,0,0
28,505,0,0,0,0,0,0,0,0,0,-1,1252,519,0,0
35,505,0,0,0,0,0,0,0,0,0,-1,1259,519,0,0
42,505,0,0,0,0,0,0,0,0,0,-1,1266,519,0,0
49,505,0,0,0,0,0,0,0,0,0,-1,1273,519,0,0
56,505,0,0,0,0,0,0,0,0,0,-1,1280,519,0,0
63,505,0,0,0,0,0,0,0,0,0,-1,1287,519,0,0
70,505,0,0,0,0,0,0,0,0,0,-1,1294,519,0,0
77,505,0,0,0,0,0,0,0,0,0,-1,1301,519,0,0
84,505,0,0,0,0,0,0,0,0,0,-1,1308,519,0,0
91,505,0,0,0,0,0,0,0,0,0,-1,1315,519,0,0
98,505,0,0,0,0,0,0,0,0,0,-1,1322,519,0,0
105,505,0,0,0,0,0,0,0,0,0,-1,1329,519,0,0
112,505,0,0,0,0,0,0,0,0,0,-1,1336,519,0,0
119,505,0,0,0,0,0,0,0,0,0,-1,1343,519,0,0
126,505,0,0,0,0,0,0,0,0,0,-1,1350,519,0,0
133,505,0,0,0,0,0,0,0,0,0,-1,1357,519,0,0
140,505,0,0,0,0,0,0,0,0,0,-1,1364,519,0,0
147,505,0,0,0,0,0,0,0,0,0,-1,1371,519,0,0
154,505,0,0,0,0,0,0,0,0,0,-1,1378,519,0,0
161,505,0,0,0,0,0,0,0,0,0,-1,1385,519,0,0
168,505,0,0,0,0,0,0,0,0,0,-1,1392,519,0,0
175,505,0,0,0,0,0,0,0,0,0,-1,1399,519,0,0
182,505,0,0,0,0,0,0,0,0,0,-1,1406,519,0,0
189,505,0,0,0,0,0,0,0,0,0,-1,1413,519,0,0
196,505,0,0,0,0,0,0,0,0,0,-1,1420,519,0,0
203,505,0,0,0,0,0,0,0,0,0,-1,1427,519,0,0
210,505,0,0,0,0,0,0,0,0,0,-1,1434,519,0,0
217,505,0,0,0,0,0,0,0,0,0,-1,1441,519,0,0
224,505,0,0,0,0,0,0,0,0,0,-1,1448,519,0,0
231,505,0,0,0,0,0,0,0,0,0,-1,1455,519,0,0
238,505,0,0,0,0,0,0,0,0,0,-1,1462,519,0,0
245,505,0,0,0,0,0,0,0,0,0,-1,1469,519,0,0
252,505,0,0,0,0,0,0,0,0,0,-1,1476,519,0,0
259,505,0,0,0,0,0,0,0,0,0,-1,1483,519,0,0
266,505,0,0,0,0,0,0,0,0,0,-1,1490,519,0,0
273,505,0,0,0,0,0,0,0,0,0,-1,1497,519,0,0
280,505,0,0,0,0,0,0,0,0,0,-1,1504,519,0,0
287,505,4.39478,0.499512,0,0,0,0,0,0,0,-1,1511,519,4.39476,-0.499506
294,505,4.88867,0.0822754,0,0,0,0,0,0,0,-1,1518,519,4.88871,-0.0822748
301,505,4.82153,-0.0704346,0,0,0,0,0,0,0,-1,1525,519,4.82156,0.0704312
308,505,4.67761,-0.29187,0,0,0,0,0,0,0,-1,1532,519,4.67762,0.291845
315,505,8.44055,-6.54352,0,0,0,0,0,0,0,-1,1539,519,8.44059,6.54349
322,505,4.78955,-0.594116,0,0,0,0,0,0,0,-1,1546,519,4.78957,0.594096
329,505,5.16321,0.434631,0,0,0,0,0,0,0,-1,1553,519,5.16316,-0.434614
336,505,4.94495,-0.920471,0,0,0,0,0,0,0,-1,1560,519,4.945,0.920495
343,505,5.01855,-1.4823,0,0,0,0,0,0,0,-1,1567,519,5.01851,1.48227
350,505,5.33154,-1.77838,0,0,0,0,0,0,0,-1,1574,519,5.33152,1.77838
357,505,5.56567,-1.9425,0,0,0,0,0,0,0,-1,1581,519,5.56562,1.94248
364,505,5.85205,-2.6579,0,0,0,0,0,0,0,-1,1588,519,5.85211,2.65788
371,505,5.88477,-7.00922,0,0,0,0,0,0,0,-1,1595,519,5.88473,7.00924
378,505,5.44104,-7.10162,0,0,0,0,0,0,0,-1,1602,519,5.44099,7.10162
385,505,6.64661,-8.65015,0,0,0,0,0,0,0,-1,1609,519,6.64662,8.65014
392,505,6.34558,-8.3429,0,0,0,0,0,0,0,-1,1616,519,6.34554,8.34288
399,505,7.45898,-9.70386,0,0,0,0,0,0,0,-1,1623,519,7.45899,9.70388
406,505,7.08679,-9.4928,0,0,0,0,0,0,0,-1,1630,519,7.08678,9.49278
413,505,7.40039,-12.081,0,0,0,0,0,0,0,-1,1637,519,7.40035,12.081
420,505,7.61768,-11.7422,0,0,0,0,0,0,0,-1,1644,519,7.61763,11.7422
427,505,7.65417,-11.3395,-0.00378479,-0.00341092,-0.00502052,0.00142614,-0.00862185,-0.804007,0.00627751,0.0166511,1651,519,7.65418,11.3395
434,505,7.63794,-10.9783,-0.00314225,-0.00257017,-0.0040403,0.00119421,-0.00690662,-0.820737,0.00504978,0.0093508,1658,519,7.63796,10.9783
441,505,7.62952,-10.6308,-0.00245036,-0.00187748,-0.00316729,0.00101629,-0.00534413,-0.830494,0.00394539,0.00966756,1665,519,7.62948,10.6308
448,505,7.62207,-10.3142,-0.00171038,-0.00137807,-0.00237332,0.0008349,-0.00392335,-0.820346,0.00293374,0.0103049,1672,519,7.62203,10.3142
455,505,7.63196,-9.99994,-0.00102668,-0.000864201,-0.00165209,0.000708645,-0.00259953,-0.809966,0.00201129,0.0109927,1679,519,7.63199,9.99991
462,505,7.63159,-9.67035,-0.000407344,-0.000665062,-0.00111254,0.000583775,-0.00165618,-0.727743,0.00134173,0.0110789,1686,519,7.63158,9.67038
469,505,7.61865,-9.36639,2.71351e-05,-0.000714033,-0.000795635,0.000534257,-0.00122115,-0.567452,0.00103903,0.0102783,1693,519,7.61859,9.36642
476,505,7.62183,-9.06628,0.000278959,-0.000885687,-0.000592877,0.000527662,-0.00113439,-0.397189,0.000980667,0.0106916,1700,519,7.62184,9.06626
483,505,7.62891,-8.72211,0.000445194,-0.00125256,-0.000558671,0.000612538,-0.0014199,-0.291034,0.0012039,0.0118309,1707,519,7.62889,8.72208
490,505,7.63672,-8.35858,0.000355208,-0.00184662,-0.000735374,0.000578223,-0.00206963,-0.294451,0.00160754,0.0117771,1714,519,7.63676,8.3586
497,505,7.62463,-8.02545,5.04562e-05,-0.002662,-0.00103672,0.000401314,-0.00301286,-0.326331,0.00215484,0.0119409,1721,519,7.62467,8.02545
504,505,7.5946,-7.66589,-0.000348172,-0.00350184,-0.00144624,0.000214623,-0.00406463,-0.371113,0.00278405,0.012283,1728,519,7.59466,7.66588
511,505,7.57922,-7.32513,-0.000902826,-0.00432219,-0.00194703,-2.13806e-05,-0.00520363,-0.425108,0.00346198,0.0140293,1735,519,7.57921,7.32512
518,505,7.64526,-7.00012,-0.00155037,-0.00513773,-0.00245107,-0.000306781,-0.00638132,-0.469524,0.00415573,0.0234078,1742,519,7.64527,7.00011
525,505,7.41516,-6.70062,-0.00220535,-0.00596665,-0.0028905,-0.00063754,-0.00753446,-0.496989,0.00482452,0.0375381,1749,519,7.41513,6.70062
532,505,7.39587,-6.16205,0,0,0,0,0,0,0,-1,1756,519,7.39583,6.16205
539,505,6.57825,-5.91382,0,0,0,0,0,0,0,-1,1763,519,6.57825,5.91381
546,505,4.69727,-1.47705,0,0,0,0,0,0,0,-1,1770,519,4.69723,1.47703
553,505,2.82837,0.162659,0,0,0,0,0,0,0,-1,1777,519,2.82841,-0.162672
560,505,3.66223,-0.479797,0,0,0,0,0,0,0,-1,1784,519,3.66219,0.47982
567,505,4.65271,-0.950256,0,0,0,0,0,0,0,-1,1791,519,4.65274,0.95028
574,505,5.54443,-1.19977,0,0,0,0,0,0,0,-1,1798,519,5.54443,1.19974
581,505,0,0,0,0,0,0,0,0,0,-1,1805,519,0,0
588,505,0,0,0,0,0,0,0,0,0,-1,1812,519,0,0
595,505,0,0,0,0,0,0,0,0,0,-1,1819,519,0,0
602,505,0,0,0,0,0,0,0,0,0,-1,1826,519,0,0
609,505,0,0,0,0,0,0,0,0,0,-1,1833,519,0,0
616,505,0,0,0,0,0,0,0,0,0,-1,1840,519,0,0
623,505,0,0,0,0,0,0,0,0,0,-1,1847,519,0,0
630,505,0,0,0,0,0,0,0,0,0,-1,1854,519,0,0
637,505,0,0,0,0,0,0,0,0,0,-1,1861,519,0,0
644,505,0,0,0,0,0,0,0,0,0,-1,1868,519,0,0
651,505,0,0,0,0,0,0,0,0,0,-1,1875,519,0,0
658,505,0,0,0,0,0,0,0,0,0,-1,1882,519,0,0
665,505,0,0,0,0,0,0,0,0,0,-1,1889,519,0,0
672,505,0,0,0,0,0,0,0,0,0,-1,1896,519,0,0
679,505,0,0,0,0,0,0,0,0,0,-1,1903,519,0,0
686,505,0,0,0,0,0,0,0,0,0,-1,1910,519,0,0
693,505,0,0,0,0,0,0,0,0,0,-1,1917,519,0,0
700,505,0,0,0,0,0,0,0,0,0,-1,1924,519,0,0
707,505,0,0,0,0,0,0,0,0,0,-1,1931,519,0,0
714,505,0,0,0,0,0,0,0,0,0,-1,1938,519,0,0
721,505,0,0,0,0,0,0,0,0,0,-1,1945,519,0,0
728,505,0,0,0,0,0,0,0,0,0,-1,1952,519,0,0
735,505,0,0,0,0,0,0,0,0,0,-1,1959,519,0,0
742,505,0,0,0,0,0,0,0,0,0,-1,1966,519,0,0
749,505,0,0,0,0,0,0,0,0,0,-1,1973,519,0,0
756,505,0,0,0,0,0,0,0,0,0,-1,1980,519,0,0
763,505,0,0,0,0,0,0,0,0,0,-1,1987,519,0,0
770,505,0,0,0,0,0,0,0,0,0,-1,1994,519,0,0
777,505,0,0,0,0,0,0,0,0,0,-1,2001,519,0,0
784,505,0,0,0,0,0,0,0,0,0,-1,2008,519,0,0
791,505,0,0,0,0,0,0,0,0,0,-1,2015,519,0,0
798,505,0,0,0,0,0,0,0,0,0,-1,2022,519,0,0
805,505,0,0,0,0,0,0,0,0,0,-1,2029,519,0,0
812,505,0,0,0,0,0,0,0,0,0,-1,2036,519,0,0
-700,498,0,0,0,0,0,0,0,0,0,-1,524,526,0,0
-693,498,0,0,0,0,0,0,0,0,0,-1,531,526,0,0
-686,498,0,0,0,0,0,0,0,0,0,-1,538,526,0,0
-679,498,0,0,0,0,0,0,0,0,0,-1,545,526,0,0
-672,498,0,0,0,0,0,0,0,0,0,-1,552,526,0,0
-665,498,0,0,0,0,0,0,0,0,0,-1,559,526,0,0
-658,498,0,0,0,0,0,0,0,0,0,-1,566,526,0,0
-651,498,0,0,0,0,0,0,0,0,0,-1,573,526,0,0
-644,498,0,0,0,0,0,0,0,0,0,-1,580,526,0,0
-637,498,0,0,0,0,0,0,0,0,0,-1,587,526,0,0
-630,498,0,0,0,0,0,0,0,0,0,-1,594,526,0,0
-623,498,0,0,0,0,0,0,0,0,0,-1,601,526,0,0
-616,498,0,0,0,0,0,0,0,0,0,-1,608,526,0,0
-609,498,0,0,0,0,0,0,0,0,0,-1,615,526,0,0
-602,498,0,0,0,0,0,0,0,0,0,-1,622,526,0,0
-595,498,0,0,0,0,0,0,0,0,0,-1,629,526,0,0
-588,498,0,0,0,0,0,0,0,0,0,-1,636,526,0,0
-581,498,0,0,0,0,0,0,0,0,0,-1,643,526,0,0
-574,498,0,0,0,0,0,0,0,0,0,-1,650,526,0,0
-567,498,0,0,0,0,0,0,0,0,0,-1,657,526,0,0
-560,498,0,0,0,0,0,0,0,0,0,-1,664,526,0,0
-553,498,0,0,0,0,0,0,0,0,0,-1,671,526,0,0
-546,498,0,0,0,0,0,0,0,0,0,-1,678,526,0,0
-539,498,0,0,0,0,0,0,0,0,0,-1,685,526,0,0
-532,498,0,0,0,0,0,0,0,0,0,-1,692,526,0,0
-525,498,0,0,0,0,0,0,0,0,0,-1,699,526,0,0
-518,498,0,0,0,0,0,0,0,0,0,-1,706,526,0,0
-511,498,0,0,0,0,0,0,0,0,0,-1,713,526,0,0
-504,498,0,0,0,0,0,0,0,0,0,-1,720,526,0,0
-497,498,0,0,0,0,0,0,0,0,0,-1,727,526,0,0
-490,498,0,0,0,0,0,0,0,0,0,-1,734,526,0,0
-483,498,0,0,0,0,0,0,0,0,0,-1,741,526,0,0
-476,498,0,0,0,0,0,0,0,0,0,-1,748,526,0,0
-469,498,0,0,0,0,0,0,0,0,0,-1,755,526,0,0
-462,498,6.81024,1.15515,0,0,0,0,0,0,0,-1,762,526,6.81026,-1.15514
-455,498,3.25757,-3.0592,0,0,0,0,0,0,0,-1,769,526,3.25754,3.05921
-448,498,3.05939,-3.74298,0,0,0,0,0,0,0,-1,776,526,3.05939,3.74296
-441,498,2.77191,-6.08209,0,0,0,0,0,0,0,-1,783,526,2.77189,6.08207
-434,498,2.10681,-6.95929,0,0,0,0,0,0,0,-1,790,526,2.10682,6.9593
-427,498,-0.342224,-6.47314,0,0,0,0,0,0,0,-1,797,526,-0.342207,6.47314
-420,498,-0.675293,-6.72467,0,0,0,0,0,0,0,-1,804,526,-0.675275,6.72468
-413,498,-1.42603,-7.24072,0,0,0,0,0,0,0,-1,811,526,-1.42603,7.24073
-406,498,-1.23389,-7.58636,0.00319729,0.00557797,-0.00905712,0.0135226,-0.00474738,-0.850737,0.0109463,0.0460408,818,526,-1.2339,7.58637
-399,498,-1.09283,-8.06696,0.00232932,0.00461794,-0.00726517,0.0108284,-0.0038811,-0.86351,0.00880259,0.0241901,825,526,-1.09283,8.06695
-392,498,-1.14215,-8.50269,0.00168464,0.00350911,-0.00561112,0.00828166,-0.00308791,-0.865981,0.00678869,0.0124163,832,526,-1.14215,8.50267
-385,498,-1.16223,-8.8363,0.00127843,0.00269675,-0.00431205,0.00635757,-0.00238238,-0.866899,0.00521709,0.00927831,839,526,-1.16222,8.83632
-378,498,-1.15845,-9.15887,0.00106193,0.00202951,-0.00328647,0.00486761,-0.00177617,-0.858476,0.0039718,0.010813,846,526,-1.15843,9.1589
-371,498,-1.15472,-9.49323,0.000920824,0.00143676,-0.00245833,0.00365062,-0.00129304,-0.837675,0.00296043,0.0166128,853,526,-1.15471,9.49323
-364,498,-1.17749,-9.8382,0.000877812,0.000924409,-0.00178446,0.00268572,-0.000883499,-0.791926,0.00214647,0.0163991,860,526,-1.17751,9.8382
-357,498,-1.16357,-10.1537,0.000961382,0.000500515,-0.00122571,0.00197813,-0.000516237,-0.692483,0.00152034,0.0116091,867,526,-1.16356,10.1537
-350,498,-1.18188,-10.4573,0.00117574,0.000127932,-0.000896206,0.00168994,-0.000386268,-0.520896,0.00127504,0.0112269,874,526,-1.18186,10.4573
-343,498,-1.17853,-10.7455,0.00147287,-6.55085e-05,-0.000704452,0.00174671,-0.000339346,-0.370748,0.00129252,0.0107025,881,526,-1.17851,10.7455
-336,498,-1.15729,-11.049,0.00188193,-0.000240167,-0.000650412,0.00206541,-0.000423651,-0.274959,0.00153773,0.0137419,888,526,-1.1573,11.049
-329,498,-1.17859,-11.3237,0.00240485,-0.000339376,-0.000695602,0.0025711,-0.000505624,-0.234598,0.00190511,0.0192295,895,526,-1.1786,11.3237
-322,498,-1.21014,-11.6422,0.0028673,-0.000321034,-0.000720453,0.00302254,-0.000476273,-0.21223,0.0021911,0.019946,902,526,-1.21012,11.6422
-315,498,-1.22974,-11.9595,0.00330102,-0.000247957,-0.00071801,0.00344078,-0.000387717,-0.192246,0.00243341,0.0167147,909,526,-1.22971,11.9595
-308,498,-1.21069,-12.2545,0.00381206,-0.000258553,-0.000672966,0.00392043,-0.000366925,-0.159665,0.00274412,0.0205166,916,526,-1.21068,12.2545
-301,498,-1.17181,-12.6035,0,0,0,0,0,0,0,-1,923,526,-1.17184,12.6034
-294,498,-1.00745,-12.4502,0,0,0,0,0,0,0,-1,930,526,-1.00747,12.4502
-287,498,-0.894226,-11.2529,0,0,0,0,0,0,0,-1,937,526,-0.894239,11.2529
-280,498,-0.341614,-8.66608,0,0,0,0,0,0,0,-1,944,526,-0.341589,8.66606
-273,498,-0.988892,-8.62921,0,0,0,0,0,0,0,-1,951,526,-0.988906,8.62922
-266,498,0.362488,-6.33545,0,0,0,0,0,0,0,-1,958,526,0.362478,6.33547
-259,498,10.9454,-17.3615,0,0,0,0,0,0,0,-1,965,526,10.9454,17.3614
-252,498,8.56586,-14.6886,0,0,0,0,0,0,0,-1,972,526,8.56584,14.6886
-245,498,5.97382,-11.928,0,0,0,0,0,0,0,-1,979,526,5.97381,11.928
-238,498,2.24841,-13.8145,0,0,0,0,0,0,0,-1,986,526,2.24838,13.8145
-231,498,0.665894,-10.4898,0,0,0,0,0,0,0,-1,993,526,0.665863,10.4898
-224,498,-2.11243,-4.76312,0,0,0,0,0,0,0,-1,1000,526,-2.11245,4.76314
-217,498,-3.82239,-1.42841,0,0,0,0,0,0,0,-1,1007,526,-3.82241,1.42843
-210,498,-1.80591,-0.358215,0,0,0,0,0,0,0,-1,1014,526,-1.8059,0.3582
-203,498,-3.17316,1.06641,0,0,0,0,0,0,0,-1,1021,526,-3.17313,-1.0664
-196,498,-0.103271,5.40527,0,0,0,0,0,0,0,-1,1028,526,-0.103285,-5.40528
-189,498,3.00256,6.47137,0,0,0,0,0,0,0,-1,1035,526,3.00256,-6.47139
-182,498,0,0,0,0,0,0,0,0,0,-1,1042,526,0,0
-175,498,0,0,0,0,0,0,0,0,0,-1,1049,526,0,0
-168,498,0,0,0,0,0,0,0,0,0,-1,1056,526,0,0
-161,498,0,0,0,0,0,0,0,0,0,-1,1063,526,0,0
-154,498,0,0,0,0,0,0,0,0,0,-1,1070,526,0,0
-147,498,0,0,0,0,0,0,0,0,0,-1,1077,526,0,0
-140,498,0,0,0,0,0,0,0,0,0,-1,1084,526,0,0
-133,498,0,0,0,0,0,0,0,0,0,-1,1091,526,0,0
-126,498,0,0,0,0,0,0,0,0,0,-1,1098,526,0,0
-119,498,0,0,0,0,0,0,0,0,0,-1,1105,526,0,0
-112,498,0,0,0,0,0,0,0,0,0,-1,1112,526,0,0
-105,498,0,0,0,0,0,0,0,0,0,-1,1119,526,0,0
-98,498,0,0,0,0,0,0,0,0,0,-1,1126,526,0,0
-91,498,0,0,0,0,0,0,0,0,0,-1,1133,526,0,0
-84,498,0,0,0,0,0,0,0,0,0,-1,1140,526,0,0
-77,498,0,0,0,0,0,0,0,0,0,-1,1147,526,0,0
-70,498,0,0,0,0,0,0,0,0,0,-1,1154,526,0,0
-63,498,0,0,0,0,0,0,0,0,0,-1,1161,526,0,0
-56,498,0,0,0,0,0,0,0,0,0,-1,1168,526,0,0
-49,498,0,0,0,0,0,0,0,0,0,-1,1175,526,0,0
-42,498,0,0,0,0,0,0,0,0,0,-1,1182,526,0,0
-35,498,0,0,0,0,0,0,0,0,0,-1,1189,526,0,0
-28,498,0,0,0,0,0,0,0,0,0,-1,1196,526,0,0
-21,498,0,0,0,0,0,0,0,0,0,-1,1203,526,0,0
-14,498,0,0,0,0,0,0,0,0,0,-1,1210,526,0,0
-7,498,0,0,0,0,0,0,0,0,0,-1,1217,526,0,0
0,498,0,0,0,0,0,0,0,0,0,-1,1224,526,0,0
7,498,0,0,0,0,0,0,0,0,0,-1,1231,526,0,0
14,498,0,0,0,0,0,0,0,0,0,-1,1238,526,0,0
21,498,0,0,0,0,0,0,0,0,0,-1,1245,526,0,0
28,498,0,0,0,0,0,0,0,0,0,-1,1252,526,0,0
35,498,0,0,0,0,0,0,0,0,0,-1,1259,526,0,0
42,498,0,0,0,0,0,0,0,0,0,-1,1266,526,0,0
49,498,0,0,0,0,0,0,0,0,0,-1,1273,526,0,0
56,498,0,0,0,0,0,0,0,0,0,-1,1280,526,0,0
63,498,0,0,0,0,0,0,0,0,0,-1,1287,526,0,0
70,498,0,0,0,0,0,0,0,0,0,-1,1294,526,0,0
77,498,0,0,0,0,0,0,0,0,0,-1,1301,526,0,0
84,498,0,0,0,0,0,0,0,0,0,-1,1308,526,0,0
91,498,0,0,0,0,0,0,0,0,0,-1,1315,526,0,0
98,498,0,0,0,0,0,0,0,0,0,-1,1322,526,0,0
105,498,0,0,0,0,0,0,0,0,0,-1,1329,526,0,0
112,498,0,0,0,0,0,0,0,0,0,-1,1336,526,0,0
119,498,0,0,0,0,0,0,0,0,0,-1,1343,526,0,0
126,498,0,0,0,0,0,0,0,0,0,-1,1350,526,0,0
133,498,0,0,0,0,0,0,0,0,0,-1,1357,526,0,0
140,498,0,0,0,0,0,0,0,0,0,-1,1364,526,0,0
147,498,0,0,0,0,0,0,0,0,0,-1,1371,526,0,0
154,498,0,0,0,0,0,0,0,0,0,-1,1378,526,0,0
161,498,0,0,0,0,0,0,0,0,0,-1,1385,526,0,0
168,498,0,0,0,0,0,0,0,0,0,-1,1392,526,0,0
175,498,0,0,0,0,0,0,0,0,0,-1,1399,526,0,0
182,498,0,0,0,0,0,0,0,0,0,-1,1406,526,0,0
189,498,0,0,0,0,0,0,0,0,0,-1,1413,526,0,0
196,498,0,0,0,0,0,0,0,0,0,-1,1420,526,0,0
203,498,0,0,0,0,0,0,0,0,0,-1,1427,526,0,0
210,498,0,0,0,0,0,0,0,0,0,-1,1434,526,0,0
217,498,0,0,0,0,0,0,0,0,0,-1,1441,526,0,0
224,498,0,0,0,0,0,0,0,0,0,-1,1448,526,0,0
231,498,0,0,0,0,0,0,0,0,0,-1,1455,526,0,0
238,498,0,0,0,0,0,0,0,0,0,-1,1462,526,0,0
245,498,0,0,0,0,0,0,0,0,0,-1,1469,526,0,0
252,498,0,0,0,0,0,0,0,0,0,-1,1476,526,0,0
259,498,0,0,0,0,0,0,0,0,0,-1,1483,526,0,0
266,498,0,0,0,0,0,0,0,0,0,-1,1490,526,0,0
273,498,0,0,0,0,0,0,0,0,0,-1,1497,526,0,0
280,498,0,0,0,0,0,0,0,0,0,-1,1504,526,0,0
287,498,0,0,0,0,0,0,0,0,0,-1,1511,526,0,0
294,498,0,0,0,0,0,0,0,0,0,-1,1518,526,0,0
301,498,0,0,0,0,0,0,0,0,0,-1,1525,526,0,0
308,498,4.77942,-0.293884,0,0,0,0,0,0,0,-1,1532,526,4.77939,0.293899
315,498,4.56091,-0.564148,0,0,0,0,0,0,0,-1,1539,526,4.56097,0.564142
322,498,4.52344,-0.447266,0,0,0,0,0,0,0,-1,1546,526,4.52341,0.447295
329,498,4.63232,-0.156982,0,0,0,0,0,0,0,-1,1553,526,4.63238,0.156991
336,498,5.22644,0.0925903,0,0,0,0,0,0,0,-1,1560,526,5.22648,-0.0926188
343,498,6.22607,-1.67615,0,0,0,0,0,0,0,-1,1567,526,6.22605,1.67617
350,498,6.19373,-1.59906,0,0,0,0,0,0,0,-1,1574,526,6.19367,1.59906
357,498,6.21472,-1.58929,0,0,0,0,0,0,0,-1,1581,526,6.21476,1.58927
364,498,5.73547,-1.2019,0,0,0,0,0,0,0,-1,1588,526,5.73547,1.20192
371,498,3.27087,-4.55334,0,0,0,0,0,0,0,-1,1595,526,3.27089,4.55332
378,498,8.42944,-4.70624,0,0,0,0,0,0,0,-1,1602,526,8.42942,4.70624
385,498,4.7793,-5.15314,0,0,0,0,0,0,0,-1,1609,526,4.77935,5.15311
392,498,9.12439,-8.57953,0,0,0,0,0,0,0,-1,1616,526,9.12443,8.57955
399,498,7.98938,-9.46021,0,0,0,0,0,0,0,-1,1623,526,7.98936,9.4602
406,498,7.58081,-9.26819,0,0,0,0,0,0,0,-1,1630,526,7.58085,9.26817
413,498,7.17236,-9.07611,0,0,0,0,0,0,0,-1,1637,526,7.17234,9.07614
420,498,8.62085,-11.5543,0,0,0,0,0,0,0,-1,1644,526,8.62087,11.5543
427,498,8.32556,-11.2155,-0.00579148,-0.00514792,-0.00693329,0.00147105,-0.0124105,-0.808587,0.00880504,0.0426777,1651,526,8.32561,11.2155
434,498,8.00232,-10.9489,-0.00467595,-0.00376514,-0.00550654,0.0013048,-0.00974589,-0.826656,0.006973,0.0166116,1658,526,8.00238,10.9489
441,498,7.96716,-10.6294,-0.0036009,-0.00264404,-0.00428653,0.00119068,-0.00743562,-0.840974,0.00539793,0.00916529,1665,526,7.96719,10.6294
448,498,7.95984,-10.3073,-0.00249494,-0.00179043,-0.00321873,0.00109526,-0.00538063,-0.839901,0.00400244,0.0100871,1672,526,7.95987,10.3072
455,498,7.95239,-9.99414,-0.00149083,-0.000981799,-0.00225287,0.00103089,-0.00350352,-0.841647,0.00274462,0.0139338,1679,526,7.9524,9.99412
462,498,7.95007,-9.67938,-0.000655133,-0.000522602,-0.00150387,0.000916461,-0.0020942,-0.807416,0.00178198,0.0158979,1686,526,7.95009,9.6794
469,498,7.94128,-9.36646,-8.16833e-05,-0.00036486,-0.000999938,0.000786641,-0.00123318,-0.715067,0.00117561,0.0134332,1693,526,7.9413,9.36647
476,498,7.94983,-9.04248,0.000287138,-0.000369471,-0.000648379,0.000685593,-0.000767926,-0.551042,0.000839639,0.0101245,1700,526,7.94985,9.04246
483,498,7.94177,-8.69305,0.000555996,-0.00056424,-0.000451263,0.000715163,-0.000723407,-0.339091,0.000830563,0.00833731,1707,526,7.94176,8.69304
490,498,7.93555,-8.36389,0.00053352,-0.000931094,-0.000474392,0.00067375,-0.00107132,-0.287415,0.0010162,0.0105424,1714,526,7.9355,8.36389
497,498,7.93945,-8.02887,0.000247365,-0.00160096,-0.000663338,0.000460785,-0.00181438,-0.311277,0.0013889,0.0116934,1721,526,7.93944,8.02889
504,498,7.93665,-7.67285,-0.000133545,-0.00225766,-0.000932511,0.000217742,-0.00260895,-0.36027,0.00181624,0.0129573,1728,526,7.93666,7.67286
511,498,7.93591,-7.32227,-0.000692237,-0.00290366,-0.00129102,-9.81466e-05,-0.00349775,-0.43128,0.00229982,0.0147439,1735,526,7.93596,7.32225
518,498,7.96802,-6.96399,-0.00135024,-0.00353907,-0.00165163,-0.000463335,-0.00442598,-0.492798,0.00280898,0.0170153,1742,526,7.96803,6.96399
525,498,7.88513,-6.64148,-0.00197481,-0.00415615,-0.00194567,-0.000834963,-0.005296,-0.52994,0.00328788,0.0291187,1749,526,7.88508,6.64148
532,498,7.72131,-6.40491,-0.00248611,-0.00458719,-0.00208229,-0.00120436,-0.00586894,-0.551774,0.00357936,0.0452552,1756,526,7.72133,6.40491
539,498,7.75464,-6.198,0,0,0,0,0,0,0,-1,1763,526,7.75458,6.19799
546,498,8.23267,-5.63422,0,0,0,0,0,0,0,-1,1770,526,8.23263,5.63422
553,498,5.93958,-1.71448,0,0,0,0,0,0,0,-1,1777,526,5.93956,1.71447
560,498,3.69385,-0.615112,0,0,0,0,0,0,0,-1,1784,526,3.69381,0.615118
567,498,5.12695,-0.581604,0,0,0,0,0,0,0,-1,1791,526,5.12699,0.58159
574,498,3.88,0.0286255,0,0,0,0,0,0,0,-1,1798,526,3.87999,-0.0286535
581,498,10.8722,2.58551,0,0,0,0,0,0,0,-1,1805,526,10.8723,-2.58551
588,498,0,0,0,0,0,0,0,0,0,-1,1812,526,0,0
595,498,0,0,0,0,0,0,0,0,0,-1,1819,526,0,0
602,498,0,0,0,0,0,0,0,0,0,-1,1826,526,0,0
609,498,0,0,0,0,0,0,0,0,0,-1,1833,526,0,0
616,498,0,0,0,0,0,0,0,0,0,-1,1840,526,0,0
623,498,0,0,0,0,0,0,0,0,0,-1,1847,526,0,0
630,498,0,0,0,0,0,0,0,0,0,-1,1854,526,0,0
637,498,0,0,0,0,0,0,0,0,0,-1,1861,526,0,0
644,498,0,0,0,0,0,0,0,0,0,-1,1868,526,0,0
651,498,0,0,0,0,0,0,0,0,0,-1,1875,526,0,0
658,498,0,0,0,0,0,0,0,0,0,-1,1882,526,0,0
665,498,0,0,0,0,0,0,0,0,0,-1,1889,526,0,0
672,498,0,0,0,0,0,0,0,0,0,-1,1896,526,0,0
679,498,0,0,0,0,0,0,0,0,0,-1,1903,526,0,0
686,498,0,0,0,0,0,0,0,0,0,-1,1910,526,0,0
693,498,0,0,0,0,0,0,0,0,0,-1,1917,526,0,0
700,498,0,0,0,0,0,0,0,0,0,-1,1924,526,0,0
707,498,0,0,0,0,0,0,0,0,0,-1,1931,526,0,0
714,498,0,0,0,0,0,0,0,0,0,-1,1938,526,0,0
721,498,0,0,0,0,0,0,0,0,0,-1,1945,526,0,0
728,498,0,0,0,0,0,0,0,0,0,-1,1952,526,0,0
735,498,0,0,0,0,0,0,0,0,0,-1,1959,526,0,0
742,498,0,0,0,0,0,0,0,0,0,-1,1966,526,0,0
749,498,0,0,0,0,0,0,0,0,0,-1,1973,526,0,0
756,498,0,0,0,0,0,0,0,0,0,-1,1980,526,0,0
763,498,0,0,0,0,0,0,0,0,0,-1,1987,526,0,0
770,498,0,0,0,0,0,0,0,0,0,-1,1994,526,0,0
777,498,0,0,0,0,0,0,0,0,0,-1,2001,526,0,0
784,498,0,0,0,0,0,0,0,0,0,-1,2008,526,0,0
791,498,0,0,0,0,0,0,0,0,0,-1,2015,526,0,0
798,498,0,0,0,0,0,0,0,0,0,-1,2022,526,0,0
805,498,0,0,0,0,0,0,0,0,0,-1,2029,526,0,0
812,498,0,0,0,0,0,0,0,0,0,-1,2036,526,0,0
-700,491,0,0,0,0,0,0,0,0,0,-1,524,533,0,0
-693,491,0,0,0,0,0,0,0,0,0,-1,531,533,0,0
-686,491,0,0,0,0,0,0,0,0,0,-1,538,533,0,0
-679,491,0,0,0,0,0,0,0,0,0,-1,545,533,0,0
-672,491,0,0,0,0,0,0,0,0,0,-1,552,533,0,0
-665,491,0,0,0,0,0,0,0,0,0,-1,559,533,0,0
-658,491,0,0,0,0,0,0,0,0,0,-1,566,533,0,0
-651,491,0,0,0,0,0,0,0,0,0,-1,573,533,0,0
-644,491,0,0,0,0,0,0,0,0,0,-1,580,533,0,0
-637,491,0,0,0,0,0,0,0,0,0,-1,587,533,0,0
-630,491,0,0,0,0,0,0,0,0,0,-1,594,533,0,0
-623,491,0,0,0,0,0,0,0,0,0,-1,601,533,0,0
-616,491,0,0,0,0,0,0,0,0,0,-1,608,533,0,0
-609,491,0,0,0,0,0,0,0,0,0,-1,615,533,0,0
-602,491,0,0,0,0,0,0,0,0,0,-1,622,533,0,0
-595,491,0,0,0,0,0,0,0,0,0,-1,629,533,0,0
-588,491,0,0,0,0,0,0,0,0,0,-1,636,533,0,0
-581,491,0,0,0,0,0,0,0,0,0,-1,643,533,0,0
-574,491,0,0,0,0,0,0,0,0,0,-1,650,533,0,0
-567,491,0,0,0,0,0,0,0,0,0,-1,657,533,0,0
-560,491,0,0,0,0,0,0,0,0,0,-1,664,533,0,0
-553,491,0,0,0,0,0,0,0,0,0,-1,671,533,0,0
-546,491,0,0,0,0,0,0,0,0,0,-1,678,533,0,0
-539,491,0,0,0,0,0,0,0,0,0,-1,685,533,0,0
-532,491,0,0,0,0,0,0,0,0,0,-1,692,533,0,0
-525,491,0,0,0,0,0,0,0,0,0,-1,699,533,0,0
-518,491,0,0,0,0,0,0,0,0,0,-1,706,533,0,0
-511,491,0,0,0,0,0,0,0,0,0,-1,713,533,0,0
-504,491,0,0,0,0,0,0,0,0,0,-1,720,533,0,0
-497,491,0,0,0,0,0,0,0,0,0,-1,727,533,0,0
-490,491,0,0,0,0,0,0,0,0,0,-1,734,533,0,0
-483,491,0,0,0,0,0,0,0,0,0,-1,741,533,0,0
-476,491,0,0,0,0,0,0,0,0,0,-1,748,533,0,0
-469,491,-5.85913,4.55011,0,0,0,0,0,0,0,-1,755,533,-5.8591,-4.55009
-462,491,-9.93713,4.90381,0,0,0,0,0,0,0,-1,762,533,-9.93716,-4.9038
-455,491,1.9494,-0.27887,0,0,0,0,0,0,0,-1,769,533,1.94941,0.27885
-448,491,2.68909,-1.8999,0,0,0,0,0,0,0,-1,776,533,2.6891,1.89988
-441,491,3.46069,-3.51855,0,0,0,0,0,0,0,-1,783,533,3.46071,3.51854
-434,491,2.67145,-7.44061,0,0,0,0,0,0,0,-1,790,533,2.67146,7.44061
-427,491,2.27136,-8.34546,0,0,0,0,0,0,0,-1,797,533,2.27136,8.34546
-420,491,-1.35248,-7.06482,0,0,0,0,0,0,0,-1,804,533,-1.35251,7.06483
-413,491,-1.55322,-7.36218,0.00266972,0.00671074,-0.00854866,0.0134744,-0.00409397,-0.901446,0.0106141,0.0467157,811,533,-1.5532,7.36216
-406,491,-1.43628,-7.82764,0.00230183,0.00527022,-0.00706087,0.0110012,-0.00342914,-0.88899,0.0087053,0.0239922,818,533,-1.4363,7.82764
-399,491,-1.4411,-8.19098,0.00180478,0.00425759,-0.00568532,0.00884728,-0.00278491,-0.891628,0.00701329,0.010799,825,533,-1.44112,8.19096
-392,491,-1.47821,-8.526,0.00142754,0.00306808,-0.00433202,0.0066568,-0.00216119,-0.878966,0.00530704,0.0100338,832,533,-1.47823,8.52601
-385,491,-1.49268,-8.84186,0.00120343,0.00223772,-0.00329545,0.00505636,-0.00161521,-0.863227,0.004019,0.00958655,839,533,-1.49268,8.84188
-378,491,-1.47424,-9.15704,0.00112154,0.00153485,-0.00246623,0.00380306,-0.00114668,-0.827197,0.00299177,0.013244,846,533,-1.47423,9.15706
-371,491,-1.46497,-9.47687,0.00109547,0.000925181,-0.00181089,0.00282321,-0.000802561,-0.761906,0.00219903,0.0143408,853,533,-1.46498,9.47684
-364,491,-1.47845,-9.80389,0.00112966,0.000378707,-0.00124645,0.00205596,-0.000547589,-0.639102,0.00158502,0.0133218,860,533,-1.47845,9.80389
-357,491,-1.49792,-10.1147,0.00130553,-5.1242e-05,-0.000802152,0.00167769,-0.000423406,-0.4344,0.0012831,0.0115606,867,533,-1.49795,10.1147
-350,491,-1.50793,-10.4291,0.00162705,-0.000381966,-0.000587102,0.00178604,-0.000540955,-0.26446,0.00140614,0.0140066,874,533,-1.50796,10.4291
-343,491,-1.4613,-10.7175,0.00205503,-0.000567827,-0.000558947,0.00216918,-0.000681974,-0.201448,0.00171914,0.02136,881,533,-1.46133,10.7175
-336,491,-1.46747,-11.0013,0.00257452,-0.000702014,-0.000625632,0.00268991,-0.00081741,-0.182397,0.00211897,0.0223118,888,533,-1.46746,11.0013
-329,491,-1.51837,-11.3261,0.0032254,-0.000739164,-0.000783056,0.00337446,-0.000888224,-0.188106,0.00259685,0.0238186,895,533,-1.51837,11.3261
-322,491,-1.54272,-11.6268,0.00385163,-0.000610799,-0.000944989,0.0040435,-0.000802666,-0.200313,0.00299924,0.0231092,902,533,-1.54271,11.6267
-315,491,-1.5545,-11.9211,0.00452254,-0.000440658,-0.00111322,0.00476079,-0.00067891,-0.21084,0.00342268,0.0226726,909,533,-1.55453,11.9211
-308,491,-1.4624,-12.3953,0,0,0,0,0,0,0,-1,916,533,-1.46243,12.3953
-301,491,-1.41064,-12.5186,0,0,0,0,0,0,0,-1,923,533,-1.41066,12.5185
-294,491,-0.777283,-8.60913,0,0,0,0,0,0,0,-1,930,533,-0.777288,8.6091
-287,491,-0.26123,-8.69055,0,0,0,0,0,0,0,-1,937,533,-0.261204,8.69053
-280,491,0.2948,-5.99219,0,0,0,0,0,0,0,-1,944,533,0.294811,5.99221
-273,491,0.369995,-5.33691,0,0,0,0,0,0,0,-1,951,533,0.369985,5.33693
-266,491,1.1167,-5.0321,0,0,0,0,0,0,0,-1,958,533,1.11668,5.0321
-259,491,12.0862,-16.9615,0,0,0,0,0,0,0,-1,965,533,12.0862,16.9615
-252,491,9.72443,-13.8417,0,0,0,0,0,0,0,-1,972,533,9.72444,13.8418
-245,491,5.27258,-14.3619,0,0,0,0,0,0,0,-1,979,533,5.27255,14.3619
-238,491,3.65381,-11.1472,0,0,0,0,0,0,0,-1,986,533,3.6538,11.1472
-231,491,2.17719,-7.86835,0,0,0,0,0,0,0,-1,993,533,2.17719,7.86832
-224,491,0.554626,-4.61725,0,0,0,0,0,0,0,-1,1000,533,0.554608,4.61727
-217,491,-2.92743,-1.0766,0,0,0,0,0,0,0,-1,1007,533,-2.92743,1.07659
-210,491,-0.92395,0.374512,0,0,0,0,0,0,0,-1,1014,533,-0.923959,-0.374531
-203,491,0.417419,4.77161,0,0,0,0,0,0,0,-1,1021,533,0.417446,-4.77162
-196,491,0,0,0,0,0,0,0,0,0,-1,1028,533,0,0
-189,491,0,0,0,0,0,0,0,0,0,-1,1035,533,0,0
-182,491,0,0,0,0,0,0,0,0,0,-1,1042,533,0,0
-175,491,0,0,0,0,0,0,0,0,0,-1,1049,533,0,0
-168,491,0,0,0,0,0,0,0,0,0,-1,1056,533,0,0
-161,491,0,0,0,0,0,0,0,0,0,-1,1063,533,0,0
-154,491,0,0,0,0,0,0,0,0,0,-1,1070,533,0,0
-147,491,0,0,0,0,0,0,0,0,0,-1,1077,533,0,0
-140,491,0,0,0,0,0,0,0,0,0,-1,1084,533,0,0
-133,491,0,0,0,0,0,0,0,0,0,-1,1091,533,0,0
-126,491,0,0,0,0,0,0,0,0,0,-1,1098,533,0,0
-119,491,0,0,0,0,0,0,0,0,0,-1,1105,533,0,0
-112,491,0,0,0,0,0,0,0,0,0,-1,1112,533,0,0
-105,491,0,0,0,0,0,0,0,0,0,-1,1119,533,0,0
-98,491,0,0,0,0,0,0,0,0,0,-1,1126,533,0,0
-91,491,0,0,0,0,0,0,0,0,0,-1,1133,533,0,0
-84,491,0,0,0,0,0,0,0,0,0,-1,1140,533,0,0
-77,491,0,0,0,0,0,0,0,0,0,-1,1147,533,0,0
-70,491,0,0,0,0,0,0,0,0,0,-1,1154,533,0,0
-63,491,0,0,0,0,0,0,0,0,0,-1,1161,533,0,0
-56,491,0,0,0,0,0,0,0,0,0,-1,1168,533,0,0
-49,491,0,0,0,0,0,0,0,0,0,-1,1175,533,0,0
-42,491,0,0,0,0,0,0,0,0,0,-1,1182,533,0,0
-35,491,0,0,0,0,0,0,0,0,0,-1,1189,533,0,0
-28,491,0,0,0,0,0,0,0,0,0,-1,1196,533,0,0
-21,491,0,0,0,0,0,0,0,0,0,-1,1203,533,0,0
-14,491,0,0,0,0,0,0,0,0,0,-1,1210,533,0,0
-7,491,0,0,0,0,0,0,0,0,0,-1,1217,533,0,0
0,491,0,0,0,0,0,0,0,0,0,-1,1224,533,0,0
7,491,0,0,0,0,0,0,0,0,0,-1,1231,533,0,0
14,491,0,0,0,0,0,0,0,0,0,-1,1238,533,0,0
21,491,0,0,0,0,0,0,0,0,0,-1,1245,533,0,0
28,491,0,0,0,0,0,0,0,0,0,-1,1252,533,0,0
35,491,0,0,0,0,0,0,0,0,0,-1,1259,533,0,0
42,491,0,0,0,0,0,0,0,0,0,-1,1266,533,0,0
49,491,0,0,0,0,0,0,0,0,0,-1,1273,533,0,0
56,491,0,0,0,0,0,0,0,0,0,-1,1280,533,0,0
63,491,0,0,0,0,0,0,0,0,0,-1,1287,533,0,0
70,491,0,0,0,0,0,0,0,0,0,-1,1294,533,0,0
77,491,0,0,0,0,0,0,0,0,0,-1,1301,533,0,0
84,491,0,0,0,0,0,0,0,0,0,-1,1308,533,0,0
91,491,0,0,0,0,0,0,0,0,0,-1,1315,533,0,0
98,491,0,0,0,0,0,0,0,0,0,-1,1322,533,0,0
105,491,0,0,0,0,0,0,0,0,0,-1,1329,533,0,0
112,491,0,0,0,0,0,0,0,0,0,-1,1336,533,0,0
119,491,0,0,0,0,0,0,0,0,0,-1,1343,533,0,0
126,491,0,0,0,0,0,0,0,0,0,-1,1350,533,0,0
133,491,0,0,0,0,0,0,0,0,0,-1,1357,533,0,0
140,491,0,0,0,0,0,0,0,0,0,-1,1364,533,0,0
147,491,0,0,0,0,0,0,0,0,0,-1,1371,533,0,0
154,491,0,0,0,0,0,0,0,0,0,-1,1378,533,0,0
161,491,0,0,0,0,0,0,0,0,0,-1,1385,533,0,0
168,491,0,0,0,0,0,0,0,0,0,-1,1392,533,0,0
175,491,0,0,0,0,0,0,0,0,0,-1,1399,533,0,0
182,491,0,0,0,0,0,0,0,0,0,-1,1406,533,0,0
189,491,0,0,0,0,0,0,0,0,0,-1,1413,533,0,0
196,491,0,0,0,0,0,0,0,0,0,-1,1420,533,0,0
203,491,0,0,0,0,0,0,0,0,0,-1,1427,533,0,0
210,491,0,0,0,0,0,0,0,0,0,-1,1434,533,0,0
217,491,0,0,0,0,0,0,0,0,0,-1,1441,533,0,0
224,491,0,0,0,0,0,0,0,0,0,-1,1448,533,0,0
231,491,0,0,0,0,0,0,0,0,0,-1,1455,533,0,0
238,491,0,0,0,0,0,0,0,0,0,-1,1462,533,0,0
245,491,0,0,0,0,0,0,0,0,0,-1,1469,533,0,0
252,491,0,0,0,0,0,0,0,0,0,-1,1476,533,0,0
259,491,0,0,0,0,0,0,0,0,0,-1,1483,533,0,0
266,491,0,0,0,0,0,0,0,0,0,-1,1490,533,0,0
273,491,0,0,0,0,0,0,0,0,0,-1,1497,533,0,0
280,491,0,0,0,0,0,0,0,0,0,-1,1504,533,0,0
287,491,0,0,0,0,0,0,0,0,0,-1,1511,533,0,0
294,491,0,0,0,0,0,0,0,0,0,-1,1518,533,0,0
301,491,0,0,0,0,0,0,0,0,0,-1,1525,533,0,0
308,491,0,0,0,0,0,0,0,0,0,-1,1532,533,0,0
315,491,0,0,0,0,0,0,0,0,0,-1,1539,533,0,0
322,491,4.26331,-0.734314,0,0,0,0,0,0,0,-1,1546,533,4.26326,0.734324
329,491,4.25354,-0.783752,0,0,0,0,0,0,0,-1,1553,533,4.25359,0.783734
336,491,4.81604,-0.722107,0,0,0,0,0,0,0,-1,1560,533,4.81605,0.722115
343,491,6.14478,-1.44281,0,0,0,0,0,0,0,-1,1567,533,6.14474,1.44281
350,491,6.36353,-1.30792,0,0,0,0,0,0,0,-1,1574,533,6.36352,1.3079
357,491,6.69482,-1.06018,0,0,0,0,0,0,0,-1,1581,533,6.69489,1.06018
364,491,8.01086,-1.69604,0,0,0,0,0,0,0,-1,1588,533,8.01087,1.69607
371,491,8.2135,-0.539307,0,0,0,0,0,0,0,-1,1595,533,8.21348,0.53929
378,491,13.3589,2.17267,0,0,0,0,0,0,0,-1,1602,533,13.3589,-2.17264
385,491,8.08228,-4.95471,0,0,0,0,0,0,0,-1,1609,533,8.08227,4.95474
392,491,2.88721,-4.30988,0,0,0,0,0,0,0,-1,1616,533,2.88716,4.30986
399,491,8.95862,-8.55518,0,0,0,0,0,0,0,-1,1623,533,8.95864,8.55516
406,491,8.16541,-9.00806,0,0,0,0,0,0,0,-1,1630,533,8.16535,9.00807
413,491,5.31848,-3.7124,0,0,0,0,0,0,0,-1,1637,533,5.31849,3.7124
420,491,4.86389,-3.95892,0,0,0,0,0,0,0,-1,1644,533,4.86387,3.95893
427,491,8.56006,-10.7534,0,0,0,0,0,0,0,-1,1651,533,8.56005,10.7533
434,491,8.50598,-10.5929,-0.00664123,-0.0050869,-0.00728289,0.00146018,-0.0131883,-0.838553,0.00931715,0.04815,1658,533,8.50596,10.5929
441,491,8.33826,-10.5786,-0.00499694,-0.00340194,-0.00554948,0.00140705,-0.00980594,-0.856763,0.00705325,0.0214717,1665,533,8.33828,10.5785
448,491,8.27612,-10.2984,-0.00339128,-0.00210226,-0.00409839,0.00140198,-0.00689553,-0.863389,0.00512863,0.0116787,1672,533,8.27617,10.2984
455,491,8.26331,-9.97614,-0.00197507,-0.000971038,-0.00281998,0.00139127,-0.00433737,-0.873486,0.00345014,0.0114009,1679,533,8.26336,9.97616
462,491,8.27917,-9.68762,-0.000844727,-0.000251188,-0.00179803,0.0012744,-0.00237031,-0.867187,0.00213575,0.0147207,1686,533,8.27923,9.6876
469,491,8.27612,-9.37415,-8.25906e-05,9.77077e-05,-0.00107684,0.00108817,-0.00107305,-0.827159,0.00124779,0.0140094,1693,533,8.27616,9.37416
476,491,8.29114,-9.03943,0.000440225,0.000219294,-0.000567906,0.000908309,-0.00024879,-0.689341,0.000703294,0.0102502,1700,533,8.29114,9.03941
483,491,8.28137,-8.68884,0.000832626,0.000149992,-0.000215451,0.000894938,8.76804e-05,-0.281535,0.000569652,0.0110524,1707,533,8.28133,8.68883
490,491,8.27075,-8.36066,0.000891394,-3.71968e-05,-0.000109181,0.000904059,-4.98612e-05,-0.115479,0.000619995,0.00961566,1714,533,8.27077,8.36068
497,491,8.26819,-8.03497,0.00063055,-0.000617162,-0.0002254,0.00067002,-0.000656632,-0.173354,0.000765956,0.010881,1721,533,8.26819,8.03496
504,491,8.27502,-7.67389,0.00026883,-0.00115571,-0.000402233,0.000374558,-0.00126144,-0.257037,0.000989724,0.0123445,1728,533,8.27505,7.67392
511,491,8.27856,-7.31067,-0.0002865,-0.00169221,-0.000674978,-1.48805e-05,-0.00196383,-0.382584,0.00130429,0.01201,1735,533,8.27854,7.31068
518,491,8.26563,-6.9845,-0.000943538,-0.00221533,-0.000951156,-0.000435292,-0.00272358,-0.490745,0.00168942,0.00978655,1742,533,8.26558,6.98449
525,491,8.26477,-6.63574,-0.0015497,-0.0026847,-0.00116985,-0.000816969,-0.00341743,-0.559568,0.00206067,0.00977397,1749,533,8.26475,6.63571
532,491,8.25708,-6.29083,-0.00203297,-0.00292443,-0.00122928,-0.00117111,-0.00378629,-0.611473,0.00223839,0.0212236,1756,533,8.25705,6.2908
539,491,8.17883,-6.06403,-0.00234031,-0.0027374,-0.00101909,-0.00150061,-0.0035771,-0.689189,0.00207414,0.0335008,1763,533,8.17879,6.06401
546,491,8.22644,-5.59149,-0.00251368,-0.00234347,-0.000666775,-0.00175639,-0.00310076,-0.848872,0.00179549,0.0438286,1770,533,8.22643,5.59151
553,491,8.33093,-4.73871,0,0,0,0,0,0,0,-1,1777,533,8.33087,4.73868
560,491,6.28455,-1.43585,0,0,0,0,0,0,0,-1,1784,533,6.28458,1.43586
567,491,5.67651,-1.3562,0,0,0,0,0,0,0,-1,1791,533,5.67649,1.3562
574,491,8.0719,1.58325,0,0,0,0,0,0,0,-1,1798,533,8.07195,-1.58326
581,491,9.44812,1.60931,0,0,0,0,0,0,0,-1,1805,533,9.44808,-1.60933
588,491,11.0497,1.54962,0,0,0,0,0,0,0,-1,1812,533,11.0496,-1.54963
595,491,0,0,0,0,0,0,0,0,0,-1,1819,533,0,0
602,491,0,0,0,0,0,0,0,0,0,-1,1826,533,0,0
609,491,0,0,0,0,0,0,0,0,0,-1,1833,533,0,0
616,491,0,0,0,0,0,0,0,0,0,-1,1840,533,0,0
623,491,0,0,0,0,0,0,0,0,0,-1,1847,533,0,0
630,491,0,0,0,0,0,0,0,0,0,-1,1854,533,0,0
637,491,0,0,0,0,0,0,0,0,0,-1,1861,533,0,0
644,491,0,0,0,0,0,0,0,0,0,-1,1868,533,0,0
651,491,0,0,0,0,0,0,0,0,0,-1,1875,533,0,0
658,491,0,0,0,0,0,0,0,0,0,-1,1882,533,0,0
665,491,0,0,0,0,0,0,0,0,0,-1,1889,533,0,0
672,491,0,0,0,0,0,0,0,0,0,-1,1896,533,0,0
679,491,0,0,0,0,0,0,0,0,0,-1,1903,533,0,0
686,491,0,0,0,0,0,0,0,0,0,-1,1910,533,0,0
693,491,0,0,0,0,0,0,0,0,0,-1,1917,533,0,0
700,491,0,0,0,0,0,0,0,0,0,-1,1924,533,0,0
707,491,0,0,0,0,0,0,0,0,0,-1,1931,533,0,0
714,491,0,0,0,0,0,0,0,0,0,-1,1938,533,0,0
721,491,0,0,0,0,0,0,0,0,0,-1,1945,533,0,0
728,491,0,0,0,0,0,0,0,0,0,-1,1952,533,0,0
735,491,0,0,0,0,0,0,0,0,0,-1,1959,533,0,0
742,491,0,0,0,0,0,0,0,0,0,-1,1966,533,0,0
749,491,0,0,0,0,0,0,0,0,0,-1,1973,533,0,0
756,491,0,0,0,0,0,0,0,0,0,-1,1980,533,0,0
763,491,0,0,0,0,0,0,0,0,0,-1,1987,533,0,0
770,491,0,0,0,0,0,0,0,0,0,-1,1994,533,0,0
777,491,0,0,0,0,0,0,0,0,0,-1,2001,533,0,0
784,491,0,0,0,0,0,0,0,0,0,-1,2008,533,0,0
791,491,0,0,0,0,0,0,0,0,0,-1,2015,533,0,0
798,491,0,0,0,0,0,0,0,0,0,-1,2022,533,0,0
805,491,0,0,0,0,0,0,0,0,0,-1,2029,533,0,0
812,491,0,0,0,0,0,0,0,0,0,-1,2036,533,0,0
-700,484,0,0,0,0,0,0,0,0,0,-1,524,540,0,0
-693,484,0,0,0,0,0,0,0,0,0,-1,531,540,0,0
-686,484,0,0,0,0,0,0,0,0,0,-1,538,540,0,0
-679,484,0,0,0,0,0,0,0,0,0,-1,545,540,0,0
-672,484,0,0,0,0,0,0,0,0,0,-1,552,540,0,0
-665,484,0,0,0,0,0,0,0,0,0,-1,559,540,0,0
-658,484,0,0,0,0,0,0,0,0,0,-1,566,540,0,0
-651,484,0,0,0,0,0,0,0,0,0,-1,573,540,0,0
-644,484,0,0,0,0,0,0,0,0,0,-1,580,540,0,0
-637,484,0,0,0,0,0,0,0,0,0,-1,587,540,0,0
-630,484,0,0,0,0,0,0,0,0,0,-1,594,540,0,0
-623,484,0,0,0,0,0,0,0,0,0,-1,601,540,0,0
-616,484,0,0,0,0,0,0,0,0,0,-1,608,540,0,0
-609,484,0,0,0,0,0,0,0,0,0,-1,615,540,0,0
-602,484,0,0,0,0,0,0,0,0,0,-1,622,540,0,0
-595,484,0,0,0,0,0,0,0,0,0,-1,629,540,0,0
-588,484,0,0,0,0,0,0,0,0,0,-1,636,540,0,0
-581,484,0,0,0,0,0,0,0,0,0,-1,643,540,0,0
-574,484,0,0,0,0,0,0,0,0,0,-1,650,540,0,0
-567,484,0,0,0,0,0,0,0,0,0,-1,657,540,0,0
-560,484,0,0,0,0,0,0,0,0,0,-1,664,540,0,0
-553,484,0,0,0,0,0,0,0,0,0,-1,671,540,0,0
-546,484,0,0,0,0,0,0,0,0,0,-1,678,540,0,0
-539,484,0,0,0,0,0,0,0,0,0,-1,685,540,0,0
-532,484,0,0,0,0,0,0,0,0,0,-1,692,540,0,0
-525,484,0,0,0,0,0,0,0,0,0,-1,699,540,0,0
-518,484,0,0,0,0,0,0,0,0,0,-1,706,540,0,0
-511,484,0,0,0,0,0,0,0,0,0,-1,713,540,0,0
-504,484,0,0,0,0,0,0,0,0,0,-1,720,540,0,0
-497,484,0,0,0,0,0,0,0,0,0,-1,727,540,0,0
-490,484,0,0,0,0,0,0,0,0,0,-1,734,540,0,0
-483,484,0,0,0,0,0,0,0,0,0,-1,741,540,0,0
-476,484,-8.46552,1.44702,0,0,0,0,0,0,0,-1,748,540,-8.46554,-1.44702
-469,484,-7.82343,1.70355,0,0,0,0,0,0,0,-1,755,540,-7.82345,-1.70355
-462,484,-8.36987,3.08612,0,0,0,0,0,0,0,-1,762,540,-8.36988,-3.0861
-455,484,-6.77197,2.07092,0,0,0,0,0,0,0,-1,769,540,-6.77197,-2.07094
-448,484,3.54895,-1.40106,0,0,0,0,0,0,0,-1,776,540,3.54897,1.40106
-441,484,4.28906,-3.05884,0,0,0,0,0,0,0,-1,783,540,4.28905,3.05883
-434,484,-2.17548,-5.07245,0,0,0,0,0,0,0,-1,790,540,-2.17546,5.07243
-427,484,-1.74292,-6.53595,0,0,0,0,0,0,0,-1,797,540,-1.74293,6.53593
-420,484,-1.68622,-7.01959,0.00160481,0.00772575,-0.00798614,0.0132178,-0.0038872,-0.968378,0.0103537,0.0455231,804,540,-1.68621,7.01958
-413,484,-1.67712,-7.4184,0.00178802,0.00615768,-0.006651,0.0109735,-0.00302781,-0.944094,0.00850651,0.0264161,811,540,-1.67713,7.41841
-406,484,-1.7251,-7.84424,0.00161353,0.0048228,-0.00544921,0.00889873,-0.00246239,-0.928587,0.0069013,0.0151874,818,540,-1.72509,7.84425
-399,484,-1.79858,-8.20166,0.00135247,0.00372615,-0.00433701,0.00703578,-0.00195715,-0.918955,0.00546109,0.0161153,825,540,-1.79857,8.20164
-392,484,-1.81909,-8.51099,0.00112267,0.00245752,-0.00318466,0.00504395,-0.00146375,-0.888691,0.0039422,0.0174482,832,540,-1.81912,8.51101
-385,484,-1.81018,-8.84003,0.000982307,0.00156059,-0.00231649,0.00360591,-0.00106301,-0.847486,0.00282573,0.0122702,839,540,-1.81017,8.84
-378,484,-1.81244,-9.16937,0.000950807,0.000764001,-0.00160727,0.00246739,-0.000752578,-0.756374,0.00194494,0.0130196,846,540,-1.81245,9.16937
-371,484,-1.80298,-9.4801,0.000973097,7.82042e-05,-0.00105933,0.0016756,-0.000624296,-0.58557,0.00137331,0.0140509,853,540,-1.80295,9.4801
-364,484,-1.81873,-9.76965,0.0010413,-0.000547537,-0.000565258,0.00122188,-0.000728115,-0.309213,0.0011378,0.0105887,860,540,-1.81875,9.76964
-357,484,-1.83301,-10.0787,0.00128023,-0.00101978,-0.00021556,0.00130026,-0.00103981,-0.0926462,0.00135383,0.0118724,867,540,-1.833,10.0787
-350,484,-1.82666,-10.3831,0.00169143,-0.00132853,-0.000103783,0.00169499,-0.00133209,-0.0343119,0.00175187,0.0138707,874,540,-1.82666,10.3831
-343,484,-1.78333,-10.6791,0.0022409,-0.00150227,-0.000235781,0.00225569,-0.00151706,-0.0626595,0.00219207,0.02071,881,540,-1.78333,10.6791
-336,484,-1.82019,-10.9992,0.00287635,-0.00158768,-0.000433017,0.00291796,-0.0016293,-0.0958112,0.00266027,0.0239529,888,540,-1.82019,10.9992
-329,484,-1.83667,-11.2963,0.00368308,-0.00154069,-0.000721585,0.00378092,-0.00163854,-0.134773,0.00320939,0.032931,895,540,-1.83666,11.2962
-322,484,-1.64716,-11.6994,0.00456151,-0.00121207,-0.00107898,0.00475656,-0.00140713,-0.178844,0.00372964,0.0475468,902,540,-1.64717,11.6994
-315,484,-1.80048,-12.1508,0,0,0,0,0,0,0,-1,909,540,-1.80051,12.1508
-308,484,-1.32623,-8.9317,0,0,0,0,0,0,0,-1,916,540,-1.32626,8.93173
-301,484,-1.33453,-6.52667,0,0,0,0,0,0,0,-1,923,540,-1.33454,6.5267
-294,484,-1.61224,-8.17059,0,0,0,0,0,0,0,-1,930,540,-1.61227,8.17058
-287,484,-0.715759,-5.62103,0,0,0,0,0,0,0,-1,937,540,-0.715772,5.62105
-280,484,2.66742,-1.6795,0,0,0,0,0,0,0,-1,944,540,2.6674,1.67949
-273,484,2.53125,-2.22296,0,0,0,0,0,0,0,-1,951,540,2.53128,2.22295
-266,484,2.6778,-2.72058,0,0,0,0,0,0,0,-1,958,540,2.6778,2.72061
-259,484,2.41718,-2.59894,0,0,0,0,0,0,0,-1,965,540,2.41717,2.59892
-252,484,10.6069,-11.696,0,0,0,0,0,0,0,-1,972,540,10.6069,11.696
-245,484,6.34106,-11.6107,0,0,0,0,0,0,0,-1,979,540,6.34104,11.6107
-238,484,4.89319,-8.54059,0,0,0,0,0,0,0,-1,986,540,4.89321,8.5406
-231,484,3.47675,-5.22064,0,0,0,0,0,0,0,-1,993,540,3.47676,5.22067
-224,484,1.71344,-2.03473,0,0,0,0,0,0,0,-1,1000,540,1.71342,2.03472
-217,484,-0.745056,1.17358,0,0,0,0,0,0,0,-1,1007,540,-0.745043,-1.17359
-210,484,0,0,0,0,0,0,0,0,0,-1,1014,540,0,0
-203,484,0,0,0,0,0,0,0,0,0,-1,1021,540,0,0
-196,484,0,0,0,0,0,0,0,0,0,-1,1028,540,0,0
-189,484,0,0,0,0,0,0,0,0,0,-1,1035,540,0,0
-182,484,0,0,0,0,0,0,0,0,0,-1,1042,540,0,0
-175,484,0,0,0,0,0,0,0,0,0,-1,1049,540,0,0
-168,484,0,0,0,0,0,0,0,0,0,-1,1056,540,0,0
-161,484,0,0,0,0,0,0,0,0,0,-1,1063,540,0,0
-154,484,0,0,0,0,0,0,0,0,0,-1,1070,540,0,0
-147,484,0,0,0,0,0,0,0,0,0,-1,1077,540,0,0
-140,484,0,0,0,0,0,0,0,0,0,-1,1084,540,0,0
-133,484,0,0,0,0,0,0,0,0,0,-1,1091,540,0,0
-126,484,0,0,0,0,0,0,0,0,0,-1,1098,540,0,0
-119,484,0,0,0,0,0,0,0,0,0,-1,1105,540,0,0
-112,484,0,0,0,0,0,0,0,0,0,-1,1112,540,0,0
-105,484,0,0,0,0,0,0,0,0,0,-1,1119,540,0,0
-98,484,0,0,0,0,0,0,0,0,0,-1,1126,540,0,0
-91,484,0,0,0,0,0,0,0,0,0,-1,1133,540,0,0
-84,484,0,0,0,0,0,0,0,0,0,-1,1140,540,0,0
-77,484,0,0,0,0,0,0,0,0,0,-1,1147,540,0,0
-70,484,0,0,0,0,0,0,0,0,0,-1,1154,540,0,0
-63,484,0,0,0,0,0,0,0,0,0,-1,1161,540,0,0
-56,484,0,0,0,0,0,0,0,0,0,-1,1168,540,0,0
-49,484,0,0,0,0,0,0,0,0,0,-1,1175,540,0,0
-42,484,0,0,0,0,0,0,0,0,0,-1,1182,540,0,0
-35,484,0,0,0,0,0,0,0,0,0,-1,1189,540,0,0
-28,484,0,0,0,0,0,0,0,0,0,-1,1196,540,0,0
-21,484,0,0,0,0,0,0,0,0,0,-1,1203,540,0,0
-14,484,0,0,0,0,0,0,0,0,0,-1,1210,540,0,0
-7,484,0,0,0,0,0,0,0,0,0,-1,1217,540,0,0
0,484,0,0,0,0,0,0,0,0,0,-1,1224,540,0,0
7,484,0,0,0,0,0,0,0,0,0,-1,1231,540,0,0
14,484,0,0,0,0,0,0,0,0,0,-1,1238,540,0,0
21,484,0,0,0,0,0,0,0,0,0,-1,1245,540,0,0
28,484,0,0,0,0,0,0,0,0,0,-1,1252,540,0,0
35,484,0,0,0,0,0,0,0,0,0,-1,1259,540,0,0
42,484,0,0,0,0,0,0,0,0,0,-1,1266,540,0,0
49,484,0,0,0,0,0,0,0,0,0,-1,1273,540,0,0
56,484,0,0,0,0,0,0,0,0,0,-1,1280,540,0,0
63,484,0,0,0,0,0,0,0,0,0,-1,1287,540,0,0
70,484,0,0,0,0,0,0,0,0,0,-1,1294,540,0,0
77,484,0,0,0,0,0,0,0,0,0,-1,1301,540,0,0
84,484,0,0,0,0,0,0,0,0,0,-1,1308,540,0,0
91,484,0,0,0,0,0,0,0,0,0,-1,1315,540,0,0
98,484,0,0,0,0,0,0,0,0,0,-1,1322,540,0,0
105,484,0,0,0,0,0,0,0,0,0,-1,1329,540,0,0
112,484,0,0,0,0,0,0,0,0,0,-1,1336,540,0,0
119,484,0,0,0,0,0,0,0,0,0,-1,1343,540,0,0
126,484,0,0,0,0,0,0,0,0,0,-1,1350,540,0,0
133,484,0,0,0,0,0,0,0,0,0,-1,1357,540,0,0
140,484,0,0,0,0,0,0,0,0,0,-1,1364,540,0,0
147,484,0,0,0,0,0,0,0,0,0,-1,1371,540,0,0
154,484,0,0,0,0,0,0,0,0,0,-1,1378,540,0,0
161,484,0,0,0,0,0,0,0,0,0,-1,1385,540,0,0
168,484,0,0,0,0,0,0,0,0,0,-1,1392,540,0,0
175,484,0,0,0,0,0,0,0,0,0,-1,1399,540,0,0
182,484,0,0,0,0,0,0,0,0,0,-1,1406,540,0,0
189,484,0,0,0,0,0,0,0,0,0,-1,1413,540,0,0
196,484,0,0,0,0,0,0,0,0,0,-1,1420,540,0,0
203,484,0,0,0,0,0,0,0,0,0,-1,1427,540,0,0
210,484,0,0,0,0,0,0,0,0,0,-1,1434,540,0,0
217,484,0,0,0,0,0,0,0,0,0,-1,1441,540,0,0
224,484,0,0,0,0,0,0,0,0,0,-1,1448,540,0,0
231,484,0,0,0,0,0,0,0,0,0,-1,1455,540,0,0
238,484,0,0,0,0,0,0,0,0,0,-1,1462,540,0,0
245,484,0,0,0,0,0,0,0,0,0,-1,1469,540,0,0
252,484,0,0,0,0,0,0,0,0,0,-1,1476,540,0,0
259,484,0,0,0,0,0,0,0,0,0,-1,1483,540,0,0
266,484,0,0,0,0,0,0,0,0,0,-1,1490,540,0,0
273,484,0,0,0,0,0,0,0,0,0,-1,1497,540,0,0
280,484,0,0,0,0,0,0,0,0,0,-1,1504,540,0,0
287,484,0,0,0,0,0,0,0,0,0,-1,1511,540,0,0
294,484,0,0,0,0,0,0,0,0,0,-1,1518,540,0,0
301,484,0,0,0,0,0,0,0,0,0,-1,1525,540,0,0
308,484,0,0,0,0,0,0,0,0,0,-1,1532,540,0,0
315,484,0,0,0,0,0,0,0,0,0,-1,1539,540,0,0
322,484,0,0,0,0,0,0,0,0,0,-1,1546,540,0,0
329,484,0,0,0,0,0,0,0,0,0,-1,1553,540,0,0
336,484,4.38708,-1.64136,0,0,0,0,0,0,0,-1,1560,540,4.38704,1.64138
343,484,7.57996,-1.05457,0,0,0,0,0,0,0,-1,1567,540,7.57995,1.05454
350,484,8.10425,-1.18878,0,0,0,0,0,0,0,-1,1574,540,8.1043,1.18877
357,484,7.74902,-3.80286,0,0,0,0,0,0,0,-1,1581,540,7.74901,3.80287
364,484,6.31262,-3.87213,0,0,0,0,0,0,0,-1,1588,540,6.31263,3.87215
371,484,7.21008,0.973511,0,0,0,0,0,0,0,-1,1595,540,7.21014,-0.973541
378,484,11.0563,1.5014,0,0,0,0,0,0,0,-1,1602,540,11.0563,-1.5014
385,484,14.3469,2.5545,0,0,0,0,0,0,0,-1,1609,540,14.3469,-2.55453
392,484,7.39453,-4.95026,0,0,0,0,0,0,0,-1,1616,540,7.39448,4.95023
399,484,7.14417,-2.5639,0,0,0,0,0,0,0,-1,1623,540,7.14417,2.56391
406,484,7.88953,-2.47321,0,0,0,0,0,0,0,-1,1630,540,7.88954,2.47323
413,484,4.4895,-1.08673,0,0,0,0,0,0,0,-1,1637,540,4.48952,1.08674
420,484,4.50012,-2.11255,0,0,0,0,0,0,0,-1,1644,540,4.50012,2.11256
427,484,5.28601,-3.54053,0,0,0,0,0,0,0,-1,1651,540,5.28599,3.54051
434,484,9.07727,-10.2742,0,0,0,0,0,0,0,-1,1658,540,9.07733,10.2742
441,484,8.72302,-10.493,0,0,0,0,0,0,0,-1,1665,540,8.72299,10.4931
448,484,8.68518,-10.1852,-0.00435371,-0.00249489,-0.00511403,0.0017735,-0.0086221,-0.875286,0.00642139,0.0403291,1672,540,8.68518,10.1852
455,484,8.59314,-9.99445,-0.00240124,-0.00094296,-0.00341405,0.00181894,-0.00516314,-0.890603,0.0041824,0.0194836,1679,540,8.59312,9.99447
462,484,8.62329,-9.67426,-0.000917923,8.33453e-05,-0.00204931,0.00169228,-0.00252686,-0.905199,0.00245176,0.0142693,1686,540,8.62333,9.67428
469,484,8.64209,-9.34766,5.02346e-05,0.000645011,-0.0010711,0.00145924,-0.000763993,-0.920811,0.00130434,0.0152459,1693,540,8.64214,9.34764
476,484,8.63367,-9,0.000740919,0.000896275,-0.000382132,0.00120854,0.00042865,-0.885669,0.000707508,0.0141091,1700,540,8.63371,9
483,484,8.6311,-8.66077,0.00125554,0.000933727,0.000123562,0.00129751,0.000891758,0.327432,0.000766434,0.0111313,1707,540,8.63109,8.66077
490,484,8.6261,-8.35443,0.00138577,0.000901874,0.000340456,0.00156149,0.00072615,0.476478,0.000902261,0.0111542,1714,540,8.6261,8.35445
497,484,8.61194,-8.02246,0.00113441,0.000374064,0.000263283,0.00121668,0.000291799,0.302847,0.000733464,0.0133439,1721,540,8.6119,8.02248
504,484,8.61462,-7.68134,0.000774602,-0.000106524,0.000135849,0.000795071,-0.000126994,0.149551,0.000577055,0.0164533,1728,540,8.61466,7.68136
511,484,8.61462,-7.30902,0.000219951,-0.000603273,-9.44696e-05,0.000230653,-0.000613975,-0.112802,0.000504108,0.0181845,1735,540,8.61465,7.30902
518,484,8.58667,-6.96375,-0.000425583,-0.00108535,-0.000332782,-0.000286887,-0.00122405,-0.394886,0.000739198,0.0145792,1742,540,8.58663,6.96372
525,484,8.59241,-6.63074,-0.00101466,-0.00149256,-0.000530975,-0.000671349,-0.00183588,-0.573963,0.00107262,0.0122885,1749,540,8.59244,6.63076
532,484,8.59338,-6.27026,-0.00148656,-0.00167464,-0.000588355,-0.00098478,-0.00217643,-0.706152,0.00125845,0.0142073,1756,540,8.59344,6.27027
539,484,8.54639,-5.86426,-0.00179932,-0.00157883,-0.000445121,-0.00123051,-0.00214765,-0.90679,0.00124434,0.0270745,1763,540,8.54637,5.86428
546,484,8.40002,-5.60675,-0.0020062,-0.00131349,-0.000194151,-0.00126279,-0.0020569,-1.31534,0.00119778,0.0300783,1770,540,8.4,5.60674
553,484,8.50452,-5.0625,-0.00199894,-0.000817607,0.000141414,-0.000800915,-0.00201563,1.4533,0.00117187,0.045518,1777,540,8.50456,5.06252
560,484,8.69678,-4.52667,0,0,0,0,0,0,0,-1,1784,540,8.69683,4.52669
567,484,7.78223,-1.38312,0,0,0,0,0,0,0,-1,1791,540,7.78224,1.38311
574,484,5.74463,1.50922,0,0,0,0,0,0,0,-1,1798,540,5.74463,-1.50924
581,484,10.34,2.9491,0,0,0,0,0,0,0,-1,1805,540,10.34,-2.94912
588,484,10.6669,2.88568,0,0,0,0,0,0,0,-1,1812,540,10.6669,-2.88567
595,484,10.7233,1.04767,0,0,0,0,0,0,0,-1,1819,540,10.7233,-1.04766
602,484,0,0,0,0,0,0,0,0,0,-1,1826,540,0,0
609,484,0,0,0,0,0,0,0,0,0,-1,1833,540,0,0
616,484,0,0,0,0,0,0,0,0,0,-1,1840,540,0,0
623,484,0,0,0,0,0,0,0,0,0,-1,1847,540,0,0
630,484,0,0,0,0,0,0,0,0,0,-1,1854,540,0,0
637,484,0,0,0,0,0,0,0,0,0,-1,1861,540,0,0
644,484,0,0,0,0,0,0,0,0,0,-1,1868,540,0,0
651,484,0,0,0,0,0,0,0,0,0,-1,1875,540,0,0
658,484,0,0,0,0,0,0,0,0,0,-1,1882,540,0,0
665,484,0,0,0,0,0,0,0,0,0,-1,1889,540,0,0
672,484,0,0,0,0,0,0,0,0,0,-1,1896,540,0,0
679,484,0,0,0,0,0,0,0,0,0,-1,1903,540,0,0
686,484,0,0,0,0,0,0,0,0,0,-1,1910,540,0,0
693,484,0,0,0,0,0,0,0,0,0,-1,1917,540,0,0
700,484,0,0,0,0,0,0,0,0,0,-1,1924,540,0,0
707,484,0,0,0,0,0,0,0,0,0,-1,1931,540,0,0
714,484,0,0,0,0,0,0,0,0,0,-1,1938,540,0,0
721,484,0,0,0,0,0,0,0,0,0,-1,1945,540,0,0
728,484,0,0,0,0,0,0,0,0,0,-1,1952,540,0,0
735,484,0,0,0,0,0,0,0,0,0,-1,1959,540,0,0
742,484,0,0,0,0,0,0,0,0,0,-1,1966,540,0,0
749,484,0,0,0,0,0,0,0,0,0,-1,1973,540,0,0
756,484,0,0,0,0,0,0,0,0,0,-1,1980,540,0,0
763,484,0,0,0,0,0,0,0,0,0,-1,1987,540,0,0
770,484,0,0,0,0,0,0,0,0,0,-1,1994,540,0,0
777,484,0,0,0,0,0,0,0,0,0,-1,2001,540,0,0
784,484,0,0,0,0,0,0,0,0,0,-1,2008,540,0,0
791,484,0,0,0,0,0,0,0,0,0,-1,2015,540,0,0
798,484,0,0,0,0,0,0,0,0,0,-1,2022,540,0,0
805,484,0,0,0,0,0,0,0,0,0,-1,2029,540,0,0
812,484,0,0,0,0,0,0,0,0,0,-1,2036,540,0,0
-700,477,0,0,0,0,0,0,0,0,0,-1,524,547,0,0
-693,477,0,0,0,0,0,0,0,0,0,-1,531,547,0,0
-686,477,0,0,0,0,0,0,0,0,0,-1,538,547,0,0
-679,477,0,0,0,0,0,0,0,0,0,-1,545,547,0,0
-672,477,0,0,0,0,0,0,0,0,0,-1,552,547,0,0
-665,477,0,0,0,0,0,0,0,0,0,-1,559,547,0,0
-658,477,0,0,0,0,0,0,0,0,0,-1,566,547,0,0
-651,477,0,0,0,0,0,0,0,0,0,-1,573,547,0,0
-644,477,0,0,0,0,0,0,0,0,0,-1,580,547,0,0
-637,477,0,0,0,0,0,0,0,0,0,-1,587,547,0,0
-630,477,0,0,0,0,0,0,0,0,0,-1,594,547,0,0
-623,477,0,0,0,0,0,0,0,0,0,-1,601,547,0,0
-616,477,0,0,0,0,0,0,0,0,0,-1,608,547,0,0
-609,477,0,0,0,0,0,0,0,0,0,-1,615,547,0,0
-602,477,0,0,0,0,0,0,0,0,0,-1,622,547,0,0
-595,477,0,0,0,0,0,0,0,0,0,-1,629,547,0,0
-588,477,0,0,0,0,0,0,0,0,0,-1,636,547,0,0
-581,477,0,0,0,0,0,0,0,0,0,-1,643,547,0,0
-574,477,0,0,0,0,0,0,0,0,0,-1,650,547,0,0
-567,477,0,0,0,0,0,0,0,0,0,-1,657,547,0,0
-560,477,0,0,0,0,0,0,0,0,0,-1,664,547,0,0
-553,477,0,0,0,0,0,0,0,0,0,-1,671,547,0,0
-546,477,0,0,0,0,0,0,0,0,0,-1,678,547,0,0
-539,477,0,0,0,0,0,0,0,0,0,-1,685,547,0,0
-532,477,0,0,0,0,0,0,0,0,0,-1,692,547,0,0
-525,477,0,0,0,0,0,0,0,0,0,-1,699,547,0,0
-518,477,0,0,0,0,0,0,0,0,0,-1,706,547,0,0
-511,477,0,0,0,0,0,0,0,0,0,-1,713,547,0,0
-504,477,0,0,0,0,0,0,0,0,0,-1,720,547,0,0
-497,477,0,0,0,0,0,0,0,0,0,-1,727,547,0,0
-490,477,0,0,0,0,0,0,0,0,0,-1,734,547,0,0
-483,477,-7.73151,-0.224182,0,0,0,0,0,0,0,-1,741,547,-7.73152,0.224176
-476,477,-6.25806,-0.310547,0,0,0,0,0,0,0,-1,748,547,-6.25804,0.310549
-469,477,-7.26617,0.525085,0,0,0,0,0,0,0,-1,755,547,-7.2662,-0.525111
-462,477,-6.65143,1.06042,0,0,0,0,0,0,0,-1,762,547,-6.65143,-1.06043
-455,477,-5.31757,0.429016,0,0,0,0,0,0,0,-1,769,547,-5.31756,-0.42902
-448,477,-4.0697,0.273376,0,0,0,0,0,0,0,-1,776,547,-4.06971,-0.273363
-441,477,-2.47504,-4.76971,0,0,0,0,0,0,0,-1,783,547,-2.47505,4.76973
-434,477,-1.90979,-6.59052,0,0,0,0,0,0,0,-1,790,547,-1.9098,6.59051
-427,477,-2.05554,-6.7511,0.000834621,0.00838494,-0.00783569,0.0133075,-0.00408791,-1.00989,0.0105029,0.0295939,797,547,-2.05555,6.75109
-420,477,-2.08081,-6.98541,0.000890732,0.00664024,-0.00627727,0.0106697,-0.00313874,-1.00013,0.00835819,0.0255251,804,547,-2.08081,6.98544
-413,477,-2.06293,-7.46246,0.00102509,0.00523552,-0.00511699,0.00866343,-0.00240282,-0.980553,0.00672128,0.0179425,811,547,-2.06293,7.46246
-406,477,-2.11206,-7.83417,0.000979975,0.00403858,-0.00409637,0.0068818,-0.00186325,-0.964051,0.00531887,0.0116095,818,547,-2.11207,7.83418
-399,477,-2.11505,-8.18042,0.00086708,0.00293637,-0.00314089,0.00520863,-0.00140519,-0.944506,0.00402346,0.0190955,825,547,-2.11507,8.18043
-392,477,-2.14294,-8.51666,0.000733341,0.00167104,-0.00211794,0.00337141,-0.000967027,-0.894327,0.0026299,0.0168026,832,547,-2.14294,8.51669
-385,477,-2.13531,-8.80981,0.000654079,0.000758829,-0.00135153,0.00205899,-0.000646086,-0.804765,0.00163125,0.0143609,839,547,-2.1353,8.80984
-378,477,-2.12134,-9.14301,0.000663087,-8.8842e-05,-0.00070803,0.00108878,-0.000514536,-0.541328,0.000945259,0.0131646,846,547,-2.12133,9.14298
-371,477,-2.12982,-9.45398,0.00073687,-0.000823609,-0.000220298,0.000767374,-0.000854113,-0.137592,0.000936612,0.0130088,853,547,-2.12984,9.45399
-364,477,-2.14893,-9.76154,0.000857826,-0.00151428,0.000234288,0.000880745,-0.0015372,0.0975127,0.00141305,0.0127009,860,547,-2.14894,9.76153
-357,477,-2.15369,-10.0826,0.00117939,-0.00203958,0.000513849,0.00125943,-0.00211962,0.154517,0.00197185,0.0106643,867,547,-2.15371,10.0826
-350,477,-2.1507,-10.3763,0.00170059,-0.00236229,0.000550699,0.00177391,-0.00243561,0.132363,0.00244036,0.00966199,874,547,-2.1507,10.3763
-343,477,-2.10303,-10.6962,0.00239016,-0.00258367,0.000292397,0.00240729,-0.0026008,0.0585185,0.00289214,0.0176364,881,547,-2.10304,10.6962
-336,477,-2.04797,-11.0429,0.00316967,-0.00270197,-1.45754e-05,0.00316971,-0.002702,-0.00248232,0.00339361,0.0315999,888,547,-2.04795,11.0429
-329,477,-2.00336,-11.4002,0,0,0,0,0,0,0,-1,895,547,-2.00339,11.4002
-322,477,-1.94342,-11.9331,0,0,0,0,0,0,0,-1,902,547,-1.94342,11.9331
-315,477,-1.67358,-9.15253,0,0,0,0,0,0,0,-1,909,547,-1.67356,9.15253
-308,477,-1.30127,-6.55188,0,0,0,0,0,0,0,-1,916,547,-1.30128,6.55185
-301,477,-1.21185,-6.28351,0,0,0,0,0,0,0,-1,923,547,-1.21184,6.28352
-294,477,-0.352905,3.27142,0,0,0,0,0,0,0,-1,930,547,-0.35292,-3.27144
-287,477,3.54364,2.15399,0,0,0,0,0,0,0,-1,937,547,3.54362,-2.15396
-280,477,1.97308,-0.954163,0,0,0,0,0,0,0,-1,944,547,1.9731,0.954178
-273,477,2.11621,-3.76709,0,0,0,0,0,0,0,-1,951,547,2.11619,3.76706
-266,477,2.04669,-3.42389,0,0,0,0,0,0,0,-1,958,547,2.04671,3.42391
-259,477,-1.33478,-3.41205,0,0,0,0,0,0,0,-1,965,547,-1.3348,3.41206
-252,477,0.597168,-5.32922,0,0,0,0,0,0,0,-1,972,547,0.597144,5.32924
-245,477,8.2309,-8.48492,0,0,0,0,0,0,0,-1,979,547,8.23091,8.48494
-238,477,6.60938,-5.64063,0,0,0,0,0,0,0,-1,986,547,6.60938,5.64063
-231,477,4.71716,-2.52484,0,0,0,0,0,0,0,-1,993,547,4.71716,2.52483
-224,477,0,0,0,0,0,0,0,0,0,-1,1000,547,0,0
-217,477,0,0,0,0,0,0,0,0,0,-1,1007,547,0,0
-210,477,0,0,0,0,0,0,0,0,0,-1,1014,547,0,0
-203,477,0,0,0,0,0,0,0,0,0,-1,1021,547,0,0
-196,477,0,0,0,0,0,0,0,0,0,-1,1028,547,0,0
-189,477,0,0,0,0,0,0,0,0,0,-1,1035,547,0,0
-182,477,0,0,0,0,0,0,0,0,0,-1,1042,547,0,0
-175,477,0,0,0,0,0,0,0,0,0,-1,1049,547,0,0
-168,477,0,0,0,0,0,0,0,0,0,-1,1056,547,0,0
-161,477,0,0,0,0,0,0,0,0,0,-1,1063,547,0,0
-154,477,0,0,0,0,0,0,0,0,0,-1,1070,547,0,0
-147,477,0,0,0,0,0,0,0,0,0,-1,1077,547,0,0
-140,477,0,0,0,0,0,0,0,0,0,-1,1084,547,0,0
-133,477,0,0,0,0,0,0,0,0,0,-1,1091,547,0,0
-126,477,0,0,0,0,0,0,0,0,0,-1,1098,547,0,0
-119,477,0,0,0,0,0,0,0,0,0,-1,1105,547,0,0
-112,477,0,0,0,0,0,0,0,0,0,-1,1112,547,0,0
-105,477,0,0,0,0,0,0,0,0,0,-1,1119,547,0,0
-98,477,0,0,0,0,0,0,0,0,0,-1,1126,547,0,0
-91,477,0,0,0,0,0,0,0,0,0,-1,1133,547,0,0
-84,477,0,0,0,0,0,0,0,0,0,-1,1140,547,0,0
-77,477,0,0,0,0,0,0,0,0,0,-1,1147,547,0,0
-70,477,0,0,0,0,0,0,0,0,0,-1,1154,547,0,0
-63,477,0,0,0,0,0,0,0,0,0,-1,1161,547,0,0
-56,477,0,0,0,0,0,0,0,0,0,-1,1168,547,0,0
-49,477,0,0,0,0,0,0,0,0,0,-1,1175,547,0,0
-42,477,0,0,0,0,0,0,0,0,0,-1,1182,547,0,0
-35,477,0,0,0,0,0,0,0,0,0,-1,1189,547,0,0
-28,477,0,0,0,0,0,0,0,0,0,-1,1196,547,0,0
-21,477,0,0,0,0,0,0,0,0,0,-1,1203,547,0,0
-14,477,0,0,0,0,0,0,0,0,0,-1,1210,547,0,0
-7,477,0,0,0,0,0,0,0,0,0,-1,1217,547,0,0
0,477,0,0,0,0,0,0,0,0,0,-1,1224,547,0,0
7,477,0,0,0,0,0,0,0,0,0,-1,1231,547,0,0
14,477,0,0,0,0,0,0,0,0,0,-1,1238,547,0,0
21,477,0,0,0,0,0,0,0,0,0,-1,1245,547,0,0
28,477,0,0,0,0,0,0,0,0,0,-1,1252,547,0,0
35,477,0,0,0,0,0,0,0,0,0,-1,1259,547,0,0
42,477,0,0,0,0,0,0,0,0,0,-1,1266,547,0,0
49,477,0,0,0,0,0,0,0,0,0,-1,1273,547,0,0
56,477,0,0,0,0,0,0,0,0,0,-1,1280,547,0,0
63,477,0,0,0,0,0,0,0,0,0,-1,1287,547,0,0
70,477,0,0,0,0,0,0,0,0,0,-1,1294,547,0,0
77,477,0,0,0,0,0,0,0,0,0,-1,1301,547,0,0
84,477,0,0,0,0,0,0,0,0,0,-1,1308,547,0,0
91,477,0,0,0,0,0,0,0,0,0,-1,1315,547,0,0
98,477,0,0,0,0,0,0,0,0,0,-1,1322,547,0,0
105,477,0,0,0,0,0,0,0,0,0,-1,1329,547,0,0
112,477,0,0,0,0,0,0,0,0,0,-1,1336,547,0,0
119,477,0,0,0,0,0,0,0,0,0,-1,1343,547,0,0
126,477,0,0,0,0,0,0,0,0,0,-1,1350,547,0,0
133,477,0,0,0,0,0,0,0,0,0,-1,1357,547,0,0
140,477,0,0,0,0,0,0,0,0,0,-1,1364,547,0,0
147,477,0,0,0,0,0,0,0,0,0,-1,1371,547,0,0
154,477,0,0,0,0,0,0,0,0,0,-1,1378,547,0,0
161,477,0,0,0,0,0,0,0,0,0,-1,1385,547,0,0
168,477,0,0,0,0,0,0,0,0,0,-1,1392,547,0,0
175,477,0,0,0,0,0,0,0,0,0,-1,1399,547,0,0
182,477,0,0,0,0,0,0,0,0,0,-1,1406,547,0,0
189,477,0,0,0,0,0,0,0,0,0,-1,1413,547,0,0
196,477,0,0,0,0,0,0,0,0,0,-1,1420,547,0,0
203,477,0,0,0,0,0,0,0,0,0,-1,1427,547,0,0
210,477,0,0,0,0,0,0,0,0,0,-1,1434,547,0,0
217,477,0,0,0,0,0,0,0,0,0,-1,1441,547,0,0
224,477,0,0,0,0,0,0,0,0,0,-1,1448,547,0,0
231,477,0,0,0,0,0,0,0,0,0,-1,1455,547,0,0
238,477,0,0,0,0,0,0,0,0,0,-1,1462,547,0,0
245,477,0,0,0,0,0,0,0,0,0,-1,1469,547,0,0
252,477,0,0,0,0,0,0,0,0,0,-1,1476,547,0,0
259,477,0,0,0,0,0,0,0,0,0,-1,1483,547,0,0
266,477,0,0,0,0,0,0,0,0,0,-1,1490,547,0,0
273,477,0,0,0,0,0,0,0,0,0,-1,1497,547,0,0
280,477,0,0,0,0,0,0,0,0,0,-1,1504,547,0,0
287,477,0,0,0,0,0,0,0,0,0,-1,1511,547,0,0
294,477,0,0,0,0,0,0,0,0,0,-1,1518,547,0,0
301,477,0,0,0,0,0,0,0,0,0,-1,1525,547,0,0
308,477,0,0,0,0,0,0,0,0,0,-1,1532,547,0,0
315,477,0,0,0,0,0,0,0,0,0,-1,1539,547,0,0
322,477,0,0,0,0,0,0,0,0,0,-1,1546,547,0,0
329,477,0,0,0,0,0,0,0,0,0,-1,1553,547,0,0
336,477,0,0,0,0,0,0,0,0,0,-1,1560,547,0,0
343,477,0,0,0,0,0,0,0,0,0,-1,1567,547,0,0
350,477,1.7699,-3.32275,0,0,0,0,0,0,0,-1,1574,547,1.7699,3.32272
357,477,3.073,-4.83313,0,0,0,0,0,0,0,-1,1581,547,3.07303,4.83316
364,477,4.30127,-4.22864,0,0,0,0,0,0,0,-1,1588,547,4.30125,4.22865
371,477,4.57703,0.283264,0,0,0,0,0,0,0,-1,1595,547,4.57706,-0.283262
378,477,8.57947,1.05969,0,0,0,0,0,0,0,-1,1602,547,8.5795,-1.05972
385,477,12.3726,2.02356,0,0,0,0,0,0,0,-1,1609,547,12.3725,-2.02355
392,477,16.4678,2.76843,0,0,0,0,0,0,0,-1,1616,547,16.4678,-2.76845
399,477,8.00037,-2.29523,0,0,0,0,0,0,0,-1,1623,547,8.00031,2.2952
406,477,4.82495,2.7475,0,0,0,0,0,0,0,-1,1630,547,4.825,-2.74752
413,477,4.88171,-0.336426,0,0,0,0,0,0,0,-1,1637,547,4.88169,0.336398
420,477,3.34875,0.102722,0,0,0,0,0,0,0,-1,1644,547,3.34871,-0.1027
427,477,1.66772,-0.373108,0,0,0,0,0,0,0,-1,1651,547,1.66768,0.373104
434,477,3.76978,-2.30798,0,0,0,0,0,0,0,-1,1658,547,3.76974,2.30801
441,477,4.05444,-2.80402,0,0,0,0,0,0,0,-1,1665,547,4.05444,2.804
448,477,9.12769,-10.1331,0,0,0,0,0,0,0,-1,1672,547,9.12771,10.1331
455,477,8.95142,-10.041,0,0,0,0,0,0,0,-1,1679,547,8.9514,10.041
462,477,9.01843,-9.75531,-0.000700908,0.000307242,-0.00222875,0.00208821,-0.00248188,-0.896612,0.0026418,0.0422869,1686,547,9.01844,9.75533
469,477,8.97986,-9.32971,0.000460702,0.0010969,-0.000985002,0.0018139,-0.00025629,-0.941584,0.00130312,0.0253423,1693,547,8.97983,9.32969
476,477,8.97083,-9.00519,0.00133407,0.00151019,-8.0884e-05,0.00154169,0.00130256,-1.19932,0.000958084,0.0162947,1700,547,8.9708,9.00521
483,477,8.99316,-8.66522,0.00196277,0.00166483,0.000583787,0.00241629,0.00121131,0.660478,0.00139505,0.0108031,1707,547,8.99316,8.66524
490,477,8.96399,-8.34686,0.0021411,0.00179256,0.000894276,0.00287792,0.00105573,0.689168,0.0016811,0.0113865,1714,547,8.96399,8.34684
497,477,8.94128,-7.9967,0.00186429,0.00131177,0.000832436,0.00246511,0.000710953,0.625182,0.0014651,0.0131154,1721,547,8.94134,7.99672
504,477,8.94031,-7.67926,0.00146628,0.000858277,0.000721011,0.00194476,0.0003798,0.58589,0.00119028,0.017911,1728,547,8.94033,7.67928
511,477,8.96545,-7.34625,0.000882323,0.000359601,0.0004952,0.0011809,6.1022e-05,0.542583,0.000767736,0.021685,1735,547,8.96548,7.34622
518,477,8.95886,-6.96069,0.000219155,-0.000119371,0.000251072,0.000352691,-0.000252907,0.488812,0.00035122,0.0182738,1742,547,8.95889,6.96071
525,477,8.94507,-6.60107,-0.000395491,-0.000512869,2.69729e-05,-0.000389589,-0.000518771,0.215399,0.000311837,0.0158962,1749,547,8.94506,6.60106
532,477,8.9115,-6.27631,-0.000913363,-0.000712854,-8.17349e-05,-0.000683758,-0.000942459,-1.2288,0.000562273,0.0181637,1756,547,8.9115,6.27631
539,477,8.88782,-5.8457,-0.00129938,-0.000739953,-5.78161e-05,-0.00073404,-0.0013053,-1.46888,0.000755565,0.0164919,1763,547,8.88776,5.84569
546,477,8.84766,-5.5177,-0.00157915,-0.000633201,4.76822e-05,-0.000630804,-0.00158154,1.52056,0.000919312,0.0246502,1770,547,8.84765,5.51768
553,477,8.86072,-5.16656,-0.00172499,-0.000313419,0.0002129,-0.000282007,-0.0017564,1.42431,0.00108917,0.0292394,1777,547,8.86073,5.16657
560,477,8.84998,-4.64514,-0.00166069,9.13762e-05,0.000449576,0.000200002,-0.00176931,1.33372,0.00125155,0.0482206,1784,547,8.85003,4.64517
567,477,8.88123,-4.11365,0,0,0,0,0,0,0,-1,1791,547,8.88118,4.11364
574,477,6.82593,-0.916992,0,0,0,0,0,0,0,-1,1798,547,6.82598,0.916977
581,477,9.29321,-0.557007,0,0,0,0,0,0,0,-1,1805,547,9.29324,0.55703
588,477,9.75195,0.422729,0,0,0,0,0,0,0,-1,1812,547,9.75198,-0.42273
595,477,9.89172,1.21326,0,0,0,0,0,0,0,-1,1819,547,9.89174,-1.21328
602,477,6.5271,-0.964417,0,0,0,0,0,0,0,-1,1826,547,6.52706,0.964427
609,477,0,0,0,0,0,0,0,0,0,-1,1833,547,0,0
616,477,0,0,0,0,0,0,0,0,0,-1,1840,547,0,0
623,477,0,0,0,0,0,0,0,0,0,-1,1847,547,0,0
630,477,0,0,0,0,0,0,0,0,0,-1,1854,547,0,0
637,477,0,0,0,0,0,0,0,0,0,-1,1861,547,0,0
644,477,0,0,0,0,0,0,0,0,0,-1,1868,547,0,0
651,477,0,0,0,0,0,0,0,0,0,-1,1875,547,0,0
658,477,0,0,0,0,0,0,0,0,0,-1,1882,547,0,0
665,477,0,0,0,0,0,0,0,0,0,-1,1889,547,0,0
672,477,0,0,0,0,0,0,0,0,0,-1,1896,547,0,0
679,477,0,0,0,0,0,0,0,0,0,-1,1903,547,0,0
686,477,0,0,0,0,0,0,0,0,0,-1,1910,547,0,0
693,477,0,0,0,0,0,0,0,0,0,-1,1917,547,0,0
700,477,0,0,0,0,0,0,0,0,0,-1,1924,547,0,0
707,477,0,0,0,0,0,0,0,0,0,-1,1931,547,0,0
714,477,0,0,0,0,0,0,0,0,0,-1,1938,547,0,0
721,477,0,0,0,0,0,0,0,0,0,-1,1945,547,0,0
728,477,0,0,0,0,0,0,0,0,0,-1,1952,547,0,0
735,477,0,0,0,0,0,0,0,0,0,-1,1959,547,0,0
742,477,0,0,0,0,0,0,0,0,0,-1,1966,547,0,0
749,477,0,0,0,0,0,0,0,0,0,-1,1973,547,0,0
756,477,0,0,0,0,0,0,0,0,0,-1,1980,547,0,0
763,477,0,0,0,0,0,0,0,0,0,-1,1987,547,0,0
770,477,0,0,0,0,0,0,0,0,0,-1,1994,547,0,0
777,477,0,0,0,0,0,0,0,0,0,-1,2001,547,0,0
784,477,0,0,0,0,0,0,0,0,0,-1,2008,547,0,0
791,477,0,0,0,0,0,0,0,0,0,-1,2015,547,0,0
798,477,0,0,0,0,0,0,0,0,0,-1,2022,547,0,0
805,477,0,0,0,0,0,0,0,0,0,-1,2029,547,0,0
812,477,0,0,0,0,0,0,0,0,0,-1,2036,547,0,0
-700,470,0,0,0,0,0,0,0,0,0,-1,524,554,0,0
-693,470,0,0,0,0,0,0,0,0,0,-1,531,554,0,0
-686,470,0,0,0,0,0,0,0,0,0,-1,538,554,0,0
-679,470,0,0,0,0,0,0,0,0,0,-1,545,554,0,0
-672,470,0,0,0,0,0,0,0,0,0,-1,552,554,0,0
-665,470,0,0,0,0,0,0,0,0,0,-1,559,554,0,0
-658,470,0,0,0,0,0,0,0,0,0,-1,566,554,0,0
-651,470,0,0,0,0,0,0,0,0,0,-1,573,554,0,0
-644,470,0,0,0,0,0,0,0,0,0,-1,580,554,0,0
-637,470,0,0,0,0,0,0,0,0,0,-1,587,554,0,0
-630,470,0,0,0,0,0,0,0,0,0,-1,594,554,0,0
-623,470,0,0,0,0,0,0,0,0,0,-1,601,554,0,0
-616,470,0,0,0,0,0,0,0,0,0,-1,608,554,0,0
-609,470,0,0,0,0,0,0,0,0,0,-1,615,554,0,0
-602,470,0,0,0,0,0,0,0,0,0,-1,622,554,0,0
-595,470,0,0,0,0,0,0,0,0,0,-1,629,554,0,0
-588,470,0,0,0,0,0,0,0,0,0,-1,636,554,0,0
-581,470,0,0,0,0,0,0,0,0,0,-1,643,554,0,0
-574,470,0,0,0,0,0,0,0,0,0,-1,650,554,0,0
-567,470,0,0,0,0,0,0,0,0,0,-1,657,554,0,0
-560,470,0,0,0,0,0,0,0,0,0,-1,664,554,0,0
-553,470,0,0,0,0,0,0,0,0,0,-1,671,554,0,0
-546,470,0,0,0,0,0,0,0,0,0,-1,678,554,0,0
-539,470,0,0,0,0,0,0,0,0,0,-1,685,554,0,0
-532,470,0,0,0,0,0,0,0,0,0,-1,692,554,0,0
-525,470,0,0,0,0,0,0,0,0,0,-1,699,554,0,0
-518,470,0,0,0,0,0,0,0,0,0,-1,706,554,0,0
-511,470,0,0,0,0,0,0,0,0,0,-1,713,554,0,0
-504,470,0,0,0,0,0,0,0,0,0,-1,720,554,0,0
-497,470,0,0,0,0,0,0,0,0,0,-1,727,554,0,0
-490,470,-9.13263,-1.03125,0,0,0,0,0,0,0,-1,734,554,-9.1326,1.03127
-483,470,-7.68677,-1.03955,0,0,0,0,0,0,0,-1,741,554,-7.68678,1.03958
-476,470,-6.17969,-1.03394,0,0,0,0,0,0,0,-1,748,554,-6.17971,1.03395
-469,470,-6.23016,-0.651855,0,0,0,0,0,0,0,-1,755,554,-6.23014,0.651829
-462,470,-4.87915,-1.03705,0,0,0,0,0,0,0,-1,762,554,-4.87914,1.03702
-455,470,-4.362,-1.12903,0,0,0,0,0,0,0,-1,769,554,-4.36198,1.12901
-448,470,-2.5437,-4.89972,0,0,0,0,0,0,0,-1,776,554,-2.54367,4.89974
-441,470,-2.17029,-6.0116,0,0,0,0,0,0,0,-1,783,554,-2.17026,6.01162
-434,470,-2.2301,-6.46967,0.000375245,0.00870728,-0.00780406,0.0133877,-0.00430515,-1.03057,0.0106542,0.0315078,790,554,-2.2301,6.46967
-427,470,-2.40485,-6.79193,0.000402302,0.00705003,-0.00620569,0.010766,-0.00331363,-1.03126,0.00849995,0.0155304,797,554,-2.40486,6.79196
-420,470,-2.39526,-7.15002,0.000379443,0.00546368,-0.00478057,0.008336,-0.00249288,-1.02976,0.00654842,0.0133457,804,554,-2.39528,7.15
-413,470,-2.41003,-7.50366,0.000441741,0.00422692,-0.00374861,0.00653362,-0.00186495,-1.01917,0.00509252,0.0125632,811,554,-2.41002,7.50367
-406,470,-2.43378,-7.82507,0.000437824,0.00316526,-0.00284986,0.00496088,-0.0013578,-1.00856,0.00384071,0.0107115,818,554,-2.43379,7.82507
-399,470,-2.42029,-8.17645,0.000392902,0.00208364,-0.00200458,0.00341382,-0.000937274,-0.984942,0.00264427,0.014735,825,554,-2.42027,8.17645
-392,470,-2.43671,-8.50146,0.00029126,0.00084894,-0.00108349,0.00168889,-0.000548693,-0.911342,0.00134662,0.0141418,832,554,-2.4367,8.50149
-385,470,-2.42999,-8.79291,0.000217132,-7.81273e-05,-0.000385541,0.000482342,-0.000343337,-0.602552,0.000478953,0.0109063,839,554,-2.42999,8.79294
-378,470,-2.43085,-9.13452,0.000211944,-0.000989917,0.00022405,0.000252353,-0.00103033,0.178437,0.000784647,0.015745,846,554,-2.43083,9.13453
-371,470,-2.43463,-9.45752,0.000290708,-0.00180855,0.000684621,0.000494245,-0.00201209,0.288978,0.00153293,0.0141428,853,554,-2.43465,9.45755
-364,470,-2.45288,-9.75745,0.000434288,-0.00261559,0.00112236,0.000802794,-0.0029841,0.317241,0.00230409,0.0143474,860,554,-2.45286,9.75744
-357,470,-2.47314,-10.0607,0.000814535,-0.00327604,0.00134969,0.00121973,-0.00368123,0.291653,0.00294613,0.0134966,867,554,-2.47315,10.0607
-350,470,-2.43237,-10.3845,0.00142912,-0.00372807,0.00133287,0.00175323,-0.00405218,0.238537,0.00343824,0.00985917,874,554,-2.43238,10.3845
-343,470,-2.34198,-10.6962,0.00225999,-0.00412674,0.000964881,0.00240258,-0.00426933,0.146715,0.00390196,0.0272428,881,554,-2.34195,10.6962
-336,470,-2.22119,-11.098,0,0,0,0,0,0,0,-1,888,554,-2.2212,11.098
-329,470,-2.08862,-9.10834,0,0,0,0,0,0,0,-1,895,554,-2.0886,9.10836
-322,470,-1.94629,-9.47327,0,0,0,0,0,0,0,-1,902,554,-1.94628,9.47329
-315,470,-1.04797,-8.29529,0,0,0,0,0,0,0,-1,909,554,-1.04797,8.29526
-308,470,-1.39368,-6.68152,0,0,0,0,0,0,0,-1,916,554,-1.39369,6.68149
-301,470,-0.0340576,3.34888,0,0,0,0,0,0,0,-1,923,554,-0.0340496,-3.3489
-294,470,-1.18378,3.22266,0,0,0,0,0,0,0,-1,930,554,-1.18376,-3.22268
-287,470,-2.15454,3.2204,0,0,0,0,0,0,0,-1,937,554,-2.15452,-3.22037
-280,470,-3.00537,3.099,0,0,0,0,0,0,0,-1,944,554,-3.00536,-3.09898
-273,470,-12.3932,3.65009,0,0,0,0,0,0,0,-1,951,554,-12.3932,-3.65011
-266,470,-11.5706,1.16028,0,0,0,0,0,0,0,-1,958,554,-11.5706,-1.16031
-259,470,-7.50415,-2.77167,0,0,0,0,0,0,0,-1,965,554,-7.50413,2.7717
-252,470,-0.371155,-5.87823,0,0,0,0,0,0,0,-1,972,554,-0.37114,5.87821
-245,470,1.33221,-6.81122,0,0,0,0,0,0,0,-1,979,554,1.33223,6.8112
-238,470,0,0,0,0,0,0,0,0,0,-1,986,554,0,0
-231,470,0,0,0,0,0,0,0,0,0,-1,993,554,0,0
-224,470,0,0,0,0,0,0,0,0,0,-1,1000,554,0,0
-217,470,0,0,0,0,0,0,0,0,0,-1,1007,554,0,0
-210,470,0,0,0,0,0,0,0,0,0,-1,1014,554,0,0
-203,470,0,0,0,0,0,0,0,0,0,-1,1021,554,0,0
-196,470,0,0,0,0,0,0,0,0,0,-1,1028,554,0,0
-189,470,0,0,0,0,0,0,0,0,0,-1,1035,554,0,0
-182,470,0,0,0,0,0,0,0,0,0,-1,1042,554,0,0
-175,470,0,0,0,0,0,0,0,0,0,-1,1049,554,0,0
-168,470,0,0,0,0,0,0,0,0,0,-1,1056,554,0,0
-161,470,0,0,0,0,0,0,0,0,0,-1,1063,554,0,0
-154,470,0,0,0,0,0,0,0,0,0,-1,1070,554,0,0
-147,470,0,0,0,0,0,0,0,0,0,-1,1077,554,0,0
-140,470,0,0,0,0,0,0,0,0,0,-1,1084,554,0,0
-133,470,0,0,0,0,0,0,0,0,0,-1,1091,554,0,0
-126,470,0,0,0,0,0,0,0,0,0,-1,1098,554,0,0
-119,470,0,0,0,0,0,0,0,0,0,-1,1105,554,0,0
-112,470,0,0,0,0,0,0,0,0,0,-1,1112,554,0,0
-105,470,0,0,0,0,0,0,0,0,0,-1,1119,554,0,0
-98,470,0,0,0,0,0,0,0,0,0,-1,1126,554,0,0
-91,470,0,0,0,0,0,0,0,0,0,-1,1133,554,0,0
-84,470,0,0,0,0,0,0,0,0,0,-1,1140,554,0,0
-77,470,0,0,0,0,0,0,0,0,0,-1,1147,554,0,0
-70,470,0,0,0,0,0,0,0,0,0,-1,1154,554,0,0
-63,470,0,0,0,0,0,0,0,0,0,-1,1161,554,0,0
-56,470,0,0,0,0,0,0,0,0,0,-1,1168,554,0,0
-49,470,0,0,0,0,0,0,0,0,0,-1,1175,554,0,0
-42,470,0,0,0,0,0,0,0,0,0,-1,1182,554,0,0
-35,470,0,0,0,0,0,0,0,0,0,-1,1189,554,0,0
-28,470,0,0,0,0,0,0,0,0,0,-1,1196,554,0,0
-21,470,0,0,0,0,0,0,0,0,0,-1,1203,554,0,0
-14,470,0,0,0,0,0,0,0,0,0,-1,1210,554,0,0
-7,470,0,0,0,0,0,0,0,0,0,-1,1217,554,0,0
0,470,0,0,0,0,0,0,0,0,0,-1,1224,554,0,0
7,470,0,0,0,0,0,0,0,0,0,-1,1231,554,0,0
14,470,0,0,0,0,0,0,0,0,0,-1,1238,554,0,0
21,470,0,0,0,0,0,0,0,0,0,-1,1245,554,0,0
28,470,0,0,0,0,0,0,0,0,0,-1,1252,554,0,0
35,470,0,0,0,0,0,0,0,0,0,-1,1259,554,0,0
42,470,0,0,0,0,0,0,0,0,0,-1,1266,554,0,0
49,470,0,0,0,0,0,0,0,0,0,-1,1273,554,0,0
56,470,0,0,0,0,0,0,0,0,0,-1,1280,554,0,0
63,470,0,0,0,0,0,0,0,0,0,-1,1287,554,0,0
70,470,0,0,0,0,0,0,0,0,0,-1,1294,554,0,0
77,470,0,0,0,0,0,0,0,0,0,-1,1301,554,0,0
84,470,0,0,0,0,0,0,0,0,0,-1,1308,554,0,0
91,470,0,0,0,0,0,0,0,0,0,-1,1315,554,0,0
98,470,0,0,0,0,0,0,0,0,0,-1,1322,554,0,0
105,470,0,0,0,0,0,0,0,0,0,-1,1329,554,0,0
112,470,0,0,0,0,0,0,0,0,0,-1,1336,554,0,0
119,470,0,0,0,0,0,0,0,0,0,-1,1343,554,0,0
126,470,0,0,0,0,0,0,0,0,0,-1,1350,554,0,0
133,470,0,0,0,0,0,0,0,0,0,-1,1357,554,0,0
140,470,0,0,0,0,0,0,0,0,0,-1,1364,554,0,0
147,470,0,0,0,0,0,0,0,0,0,-1,1371,554,0,0
154,470,0,0,0,0,0,0,0,0,0,-1,1378,554,0,0
161,470,0,0,0,0,0,0,0,0,0,-1,1385,554,0,0
168,470,0,0,0,0,0,0,0,0,0,-1,1392,554,0,0
175,470,0,0,0,0,0,0,0,0,0,-1,1399,554,0,0
182,470,0,0,0,0,0,0,0,0,0,-1,1406,554,0,0
189,470,0,0,0,0,0,0,0,0,0,-1,1413,554,0,0
196,470,0,0,0,0,0,0,0,0,0,-1,1420,554,0,0
203,470,0,0,0,0,0,0,0,0,0,-1,1427,554,0,0
210,470,0,0,0,0,0,0,0,0,0,-1,1434,554,0,0
217,470,0,0,0,0,0,0,0,0,0,-1,1441,554,0,0
224,470,0,0,0,0,0,0,0,0,0,-1,1448,554,0,0
231,470,0,0,0,0,0,0,0,0,0,-1,1455,554,0,0
238,470,0,0,0,0,0,0,0,0,0,-1,1462,554,0,0
245,470,0,0,0,0,0,0,0,0,0,-1,1469,554,0,0
252,470,0,0,0,0,0,0,0,0,0,-1,1476,554,0,0
259,470,0,0,0,0,0,0,0,0,0,-1,1483,554,0,0
266,470,0,0,0,0,0,0,0,0,0,-1,1490,554,0,0
273,470,0,0,0,0,0,0,0,0,0,-1,1497,554,0,0
280,470,0,0,0,0,0,0,0,0,0,-1,1504,554,0,0
287,470,0,0,0,0,0,0,0,0,0,-1,1511,554,0,0
294,470,0,0,0,0,0,0,0,0,0,-1,1518,554,0,0
301,470,0,0,0,0,0,0,0,0,0,-1,1525,554,0,0
308,470,0,0,0,0,0,0,0,0,0,-1,1532,554,0,0
315,470,0,0,0,0,0,0,0,0,0,-1,1539,554,0,0
322,470,0,0,0,0,0,0,0,0,0,-1,1546,554,0,0
329,470,0,0,0,0,0,0,0,0,0,-1,1553,554,0,0
336,470,0,0,0,0,0,0,0,0,0,-1,1560,554,0,0
343,470,0,0,0,0,0,0,0,0,0,-1,1567,554,0,0
350,470,0,0,0,0,0,0,0,0,0,-1,1574,554,0,0
357,470,0,0,0,0,0,0,0,0,0,-1,1581,554,0,0
364,470,1.33423,0.293335,0,0,0,0,0,0,0,-1,1588,554,1.33422,-0.293348
371,470,2.22498,-0.0305176,0,0,0,0,0,0,0,-1,1595,554,2.22494,0.0305046
378,470,6.27051,0.710083,0,0,0,0,0,0,0,-1,1602,554,6.27054,-0.710093
385,470,10.3657,1.47296,0,0,0,0,0,0,0,-1,1609,554,10.3657,-1.47299
392,470,15.3881,3.01935,0,0,0,0,0,0,0,-1,1616,554,15.388,-3.01937
399,470,18.4479,2.93793,0,0,0,0,0,0,0,-1,1623,554,18.4479,-2.93792
406,470,15.1896,1.36676,0,0,0,0,0,0,0,-1,1630,554,15.1896,-1.36679
413,470,6.55383,1.99207,0,0,0,0,0,0,0,-1,1637,554,6.5538,-1.99208
420,470,4.47095,0.845703,0,0,0,0,0,0,0,-1,1644,554,4.47098,-0.845718
427,470,3.51038,1.19684,0,0,0,0,0,0,0,-1,1651,554,3.51039,-1.19684
434,470,3.31775,-1.37427,0,0,0,0,0,0,0,-1,1658,554,3.31781,1.37426
441,470,2.55457,-2.05902,0,0,0,0,0,0,0,-1,1665,554,2.55461,2.05904
448,470,3.27258,-2.64032,0,0,0,0,0,0,0,-1,1672,554,3.27257,2.64029
455,470,9.99939,-9.1217,0,0,0,0,0,0,0,-1,1679,554,9.9994,9.12173
462,470,9.44531,-9.79401,0,0,0,0,0,0,0,-1,1686,554,9.44533,9.79403
469,470,9.1394,-9.50067,0,0,0,0,0,0,0,-1,1693,554,9.13941,9.50066
476,470,9.24902,-9.02582,0.00218151,0.00200212,0.000385913,0.00248801,0.00169562,0.67122,0.00146767,0.035526,1700,554,9.24901,9.02579
483,470,9.33044,-8.67462,0.0029657,0.00225653,0.00117305,0.00383659,0.00138565,0.638626,0.00224334,0.0144947,1707,554,9.33039,8.6746
490,470,9.30225,-8.34241,0.00318625,0.0025378,0.00152339,0.00441954,0.00130451,0.680546,0.00262202,0.0113973,1714,554,9.30224,8.34238
497,470,9.29407,-8.00598,0.00283768,0.00207762,0.00142245,0.00392998,0.000985314,0.654865,0.00236111,0.0121782,1721,554,9.29407,8.00599
504,470,9.31543,-7.72986,0.00234712,0.00162134,0.00127833,0.00331307,0.000655385,0.647099,0.0020259,0.018221,1728,554,9.31541,7.72983
511,470,9.37097,-7.43597,0.00169451,0.00109619,0.00102528,0.00246338,0.000327317,0.643445,0.00154475,0.0237965,1735,554,9.371,7.43599
518,470,9.37903,-7.01575,0.000983212,0.000609988,0.000760066,0.00157924,1.39602e-05,0.665019,0.0010482,0.023546,1742,554,9.37902,7.01575
525,470,9.32605,-6.60394,0.000309425,0.00022202,0.000509033,0.000776627,-0.000245183,0.742576,0.000615966,0.0156924,1749,554,9.326,6.60395
532,470,9.26636,-6.22601,-0.000283599,-3.65465e-06,0.000352947,0.000236062,-0.000523316,0.974176,0.000448761,0.0135349,1756,554,9.2663,6.226
539,470,9.24939,-5.87213,-0.00076155,-0.000136648,0.000277463,-3.12341e-05,-0.000866964,1.20772,0.000567851,0.0158727,1763,554,9.24933,5.87211
546,470,9.25562,-5.52704,-0.00113281,-0.000131718,0.000275474,-6.0922e-05,-0.00120361,1.31924,0.000782889,0.0146767,1770,554,9.25557,5.52703
553,470,9.28455,-5.17145,-0.00142824,2.74978e-05,0.000306281,8.93131e-05,-0.00149006,1.37165,0.00102444,0.0135131,1777,554,9.2845,5.17143
560,470,9.29956,-4.77985,-0.00157588,0.000225647,0.000368765,0.000298209,-0.00164845,1.37651,0.00121067,0.0200175,1784,554,9.29957,4.77986
567,470,9.22314,-4.41394,-0.00162667,0.000446939,0.000536522,0.000577532,-0.00175726,1.33203,0.00140418,0.0216509,1791,554,9.22319,4.41395
574,470,9.28979,-3.8891,0,0,0,0,0,0,0,-1,1798,554,9.28982,3.8891
581,470,8.24646,-4.06317,0,0,0,0,0,0,0,-1,1805,554,8.24648,4.06318
588,470,11.1803,1.74927,0,0,0,0,0,0,0,-1,1812,554,11.1803,-1.74926
595,470,4.72192,3.44116,0,0,0,0,0,0,0,-1,1819,554,4.72191,-3.44116
602,470,14.4307,2.76141,0,0,0,0,0,0,0,-1,1826,554,14.4306,-2.76139
609,470,20.9181,4.41058,0,0,0,0,0,0,0,-1,1833,554,20.9181,-4.4106
616,470,0,0,0,0,0,0,0,0,0,-1,1840,554,0,0
623,470,0,0,0,0,0,0,0,0,0,-1,1847,554,0,0
630,470,0,0,0,0,0,0,0,0,0,-1,1854,554,0,0
637,470,0,0,0,0,0,0,0,0,0,-1,1861,554,0,0
644,470,0,0,0,0,0,0,0,0,0,-1,1868,554,0,0
651,470,0,0,0,0,0,0,0,0,0,-1,1875,554,0,0
658,470,0,0,0,0,0,0,0,0,0,-1,1882,554,0,0
665,470,0,0,0,0,0,0,0,0,0,-1,1889,554,0,0
672,470,0,0,0,0,0,0,0,0,0,-1,1896,554,0,0
679,470,0,0,0,0,0,0,0,0,0,-1,1903,554,0,0
686,470,0,0,0,0,0,0,0,0,0,-1,1910,554,0,0
693,470,0,0,0,0,0,0,0,0,0,-1,1917,554,0,0
700,470,0,0,0,0,0,0,0,0,0,-1,1924,554,0,0
707,470,0,0,0,0,0,0,0,0,0,-1,1931,554,0,0
714,470,0,0,0,0,0,0,0,0,0,-1,1938,554,0,0
721,470,0,0,0,0,0,0,0,0,0,-1,1945,554,0,0
728,470,0,0,0,0,0,0,0,0,0,-1,1952,554,0,0
735,470,0,0,0,0,0,0,0,0,0,-1,1959,554,0,0
742,470,0,0,0,0,0,0,0,0,0,-1,1966,554,0,0
749,470,0,0,0,0,0,0,0,0,0,-1,1973,554,0,0
756,470,0,0,0,0,0,0,0,0,0,-1,1980,554,0,0
763,470,0,0,0,0,0,0,0,0,0,-1,1987,554,0,0
770,470,0,0,0,0,0,0,0,0,0,-1,1994,554,0,0
777,470,0,0,0,0,0,0,0,0,0,-1,2001,554,0,0
784,470,0,0,0,0,0,0,0,0,0,-1,2008,554,0,0
791,470,0,0,0,0,0,0,0,0,0,-1,2015,554,0,0
798,470,0,0,0,0,0,0,0,0,0,-1,2022,554,0,0
805,470,0,0,0,0,0,0,0,0,0,-1,2029,554,0,0
812,470,0,0,0,0,0,0,0,0,0,-1,2036,554,0,0
-700,463,0,0,0,0,0,0,0,0,0,-1,524,561,0,0
-693,463,0,0,0,0,0,0,0,0,0,-1,531,561,0,0
-686,463,0,0,0,0,0,0,0,0,0,-1,538,561,0,0
-679,463,0,0,0,0,0,0,0,0,0,-1,545,561,0,0
-672,463,0,0,0,0,0,0,0,0,0,-1,552,561,0,0
-665,463,0,0,0,0,0,0,0,0,0,-1,559,561,0,0
-658,463,0,0,0,0,0,0,0,0,0,-1,566,561,0,0
-651,463,0,0,0,0,0,0,0,0,0,-1,573,561,0,0
-644,463,0,0,0,0,0,0,0,0,0,-1,580,561,0,0
-637,463,0,0,0,0,0,0,0,0,0,-1,587,561,0,0
-630,463,0,0,0,0,0,0,0,0,0,-1,594,561,0,0
-623,463,0,0,0,0,0,0,0,0,0,-1,601,561,0,0
-616,463,0,0,0,0,0,0,0,0,0,-1,608,561,0,0
-609,463,0,0,0,0,0,0,0,0,0,-1,615,561,0,0
-602,463,0,0,0,0,0,0,0,0,0,-1,622,561,0,0
-595,463,0,0,0,0,0,0,0,0,0,-1,629,561,0,0
-588,463,0,0,0,0,0,0,0,0,0,-1,636,561,0,0
-581,463,0,0,0,0,0,0,0,0,0,-1,643,561,0,0
-574,463,0,0,0,0,0,0,0,0,0,-1,650,561,0,0
-567,463,0,0,0,0,0,0,0,0,0,-1,657,561,0,0
-560,463,0,0,0,0,0,0,0,0,0,-1,664,561,0,0
-553,463,0,0,0,0,0,0,0,0,0,-1,671,561,0,0
-546,463,0,0,0,0,0,0,0,0,0,-1,678,561,0,0
-539,463,0,0,0,0,0,0,0,0,0,-1,685,561,0,0
-532,463,0,0,0,0,0,0,0,0,0,-1,692,561,0,0
-525,463,0,0,0,0,0,0,0,0,0,-1,699,561,0,0
-518,463,0,0,0,0,0,0,0,0,0,-1,706,561,0,0
-511,463,0,0,0,0,0,0,0,0,0,-1,713,561,0,0
-504,463,0,0,0,0,0,0,0,0,0,-1,720,561,0,0
-497,463,-9.81451,-1.67126,0,0,0,0,0,0,0,-1,727,561,-9.81452,1.67127
-490,463,-8.57043,-1.58942,0,0,0,0,0,0,0,-1,734,561,-8.57045,1.58944
-483,463,-7.29224,-1.7226,0,0,0,0,0,0,0,-1,741,561,-7.29226,1.72261
-476,463,-5.77704,-1.7312,0,0,0,0,0,0,0,-1,748,561,-5.77703,1.73121
-469,463,-5.14545,-2.138,0,0,0,0,0,0,0,-1,755,561,-5.14546,2.13799
-462,463,-3.13672,-3.07977,0,0,0,0,0,0,0,-1,762,561,-3.13672,3.07974
-455,463,-2.56592,-4.49554,0,0,0,0,0,0,0,-1,769,561,-2.56589,4.49556
-448,463,-2.64709,-5.21234,0.00185347,0.012418,-0.0110676,0.0193993,-0.00512776,-1.00805,0.0149384,0.04836,776,561,-2.64712,5.21231
-441,463,-2.57281,-6.03101,0.000850585,0.00958423,-0.00833901,0.0146306,-0.00419579,-1.0266,0.0114124,0.0389383,783,561,-2.5728,6.03099
-434,463,-2.70966,-6.46344,0.000334944,0.00736226,-0.00629713,0.0110597,-0.00336248,-1.03987,0.00871297,0.0167709,790,561,-2.70964,6.46341
-427,463,-2.72772,-6.80786,0.000235233,0.00585378,-0.00486617,0.00866336,-0.00257435,-1.04718,0.00679816,0.00968008,797,561,-2.7277,6.80785
-420,463,-2.70935,-7.13812,9.14721e-05,0.00434347,-0.00354506,0.00635115,-0.00191621,-1.0555,0.00499684,0.010097,804,561,-2.70936,7.1381
-413,463,-2.73505,-7.47943,2.41551e-05,0.00315478,-0.00257716,0.00460475,-0.00142582,-1.05831,0.00363943,0.00882742,811,561,-2.73506,7.47942
-406,463,-2.75708,-7.81836,-4.72483e-07,0.0021384,-0.00174167,0.00311275,-0.000974831,-1.06073,0.00246522,0.00877218,818,561,-2.75707,7.81836
-399,463,-2.73828,-8.14838,-4.45741e-05,0.00100986,-0.0009488,0.00156808,-0.000602796,-1.03899,0.001294,0.0105652,825,561,-2.73831,8.14839
-392,463,-2.74377,-8.47723,-0.000179185,-0.000244271,-8.38076e-05,-0.000121824,-0.000301632,-0.600205,0.000175217,0.00996344,832,561,-2.74379,8.47721
-385,463,-2.76062,-8.80835,-0.000315347,-0.00124194,0.000600747,-1.99999e-05,-0.00153729,0.456932,0.00101826,0.0103267,839,561,-2.76065,8.80834
-378,463,-2.76355,-9.14856,-0.000410066,-0.00226618,0.00123451,0.000206318,-0.00288256,0.463084,0.00199404,0.0114019,846,561,-2.76353,9.14858
-371,463,-2.76147,-9.4881,-0.000400535,-0.00321611,0.00172679,0.00041961,-0.00403626,0.443409,0.00284106,0.0115528,853,561,-2.76148,9.48809
-364,463,-2.75061,-9.7738,-0.000297912,-0.00418061,0.00219413,0.000690418,-0.00516895,0.423223,0.00369765,0.0138157,860,561,-2.75062,9.7738
-357,463,-2.77631,-10.0437,7.30556e-05,-0.00502404,0.00240851,0.00103108,-0.00598206,0.378578,0.00437245,0.0168547,867,561,-2.77631,10.0437
-350,463,-2.7038,-10.3958,0.000720342,-0.00564819,0.00236264,0.00150113,-0.00642897,0.319172,0.00486419,0.0219716,874,561,-2.7038,10.3958
-343,463,-2.49072,-10.6445,0,0,0,0,0,0,0,-1,881,561,-2.49074,10.6445
-336,463,-2.59491,-10.2785,0,0,0,0,0,0,0,-1,888,561,-2.59492,10.2785
-329,463,-2.37225,-10.7344,0,0,0,0,0,0,0,-1,895,561,-2.37226,10.7344
-322,463,-1.82898,-9.11957,0,0,0,0,0,0,0,-1,902,561,-1.829,9.11957
-315,463,-0.944763,-5.96234,0,0,0,0,0,0,0,-1,909,561,-0.94479,5.96237
-308,463,-1.1535,-3.17889,0,0,0,0,0,0,0,-1,916,561,-1.15352,3.17889
-301,463,-1.50366,-3.15338,0,0,0,0,0,0,0,-1,923,561,-1.50364,3.15341
-294,463,-2.35889,-3.93463,0,0,0,0,0,0,0,-1,930,561,-2.35886,3.93465
-287,463,-2.80322,2.73999,0,0,0,0,0,0,0,-1,937,561,-2.80322,-2.74
-280,463,-12.864,5.25146,0,0,0,0,0,0,0,-1,944,561,-12.864,-5.25149
-273,463,-12.4598,3.39178,0,0,0,0,0,0,0,-1,951,561,-12.4598,-3.3918
-266,463,-8.80402,-0.883667,0,0,0,0,0,0,0,-1,958,561,-8.804,0.883639
-259,463,-6.36206,-4.78564,0,0,0,0,0,0,0,-1,965,561,-6.36207,4.78565
-252,463,0,0,0,0,0,0,0,0,0,-1,972,561,0,0
-245,463,0,0,0,0,0,0,0,0,0,-1,979,561,0,0
-238,463,0,0,0,0,0,0,0,0,0,-1,986,561,0,0
-231,463,0,0,0,0,0,0,0,0,0,-1,993,561,0,0
-224,463,0,0,0,0,0,0,0,0,0,-1,1000,561,0,0
-217,463,0,0,0,0,0,0,0,0,0,-1,1007,561,0,0
-210,463,0,0,0,0,0,0,0,0,0,-1,1014,561,0,0
-203,463,0,0,0,0,0,0,0,0,0,-1,1021,561,0,0
-196,463,0,0,0,0,0,0,0,0,0,-1,1028,561,0,0
-189,463,0,0,0,0,0,0,0,0,0,-1,1035,561,0,0
-182,463,0,0,0,0,0,0,0,0,0,-1,1042,561,0,0
-175,463,0,0,0,0,0,0,0,0,0,-1,1049,561,0,0
-168,463,0,0,0,0,0,0,0,0,0,-1,1056,561,0,0
-161,463,0,0,0,0,0,0,0,0,0,-1,1063,561,0,0
-154,463,0,0,0,0,0,0,0,0,0,-1,1070,561,0,0
-147,463,0,0,0,0,0,0,0,0,0,-1,1077,561,0,0
-140,463,0,0,0,0,0,0,0,0,0,-1,1084,561,0,0
-133,463,0,0,0,0,0,0,0,0,0,-1,1091,561,0,0
-126,463,0,0,0,0,0,0,0,0,0,-1,1098,561,0,0
-119,463,0,0,0,0,0,0,0,0,0,-1,1105,561,0,0
-112,463,0,0,0,0,0,0,0,0,0,-1,1112,561,0,0
-105,463,0,0,0,0,0,0,0,0,0,-1,1119,561,0,0
-98,463,0,0,0,0,0,0,0,0,0,-1,1126,561,0,0
-91,463,0,0,0,0,0,0,0,0,0,-1,1133,561,0,0
-84,463,0,0,0,0,0,0,0,0,0,-1,1140,561,0,0
-77,463,0,0,0,0,0,0,0,0,0,-1,1147,561,0,0
-70,463,0,0,0,0,0,0,0,0,0,-1,1154,561,0,0
-63,463,0,0,0,0,0,0,0,0,0,-1,1161,561,0,0
-56,463,0,0,0,0,0,0,0,0,0,-1,1168,561,0,0
-49,463,0,0,0,0,0,0,0,0,0,-1,1175,561,0,0
-42,463,0,0,0,0,0,0,0,0,0,-1,1182,561,0,0
-35,463,0,0,0,0,0,0,0,0,0,-1,1189,561,0,0
-28,463,0,0,0,0,0,0,0,0,0,-1,1196,561,0,0
-21,463,0,0,0,0,0,0,0,0,0,-1,1203,561,0,0
-14,463,0,0,0,0,0,0,0,0,0,-1,1210,561,0,0
-7,463,0,0,0,0,0,0,0,0,0,-1,1217,561,0,0
0,463,0,0,0,0,0,0,0,0,0,-1,1224,561,0,0
7,463,0,0,0,0,0,0,0,0,0,-1,1231,561,0,0
14,463,0,0,0,0,0,0,0,0,0,-1,1238,561,0,0
21,463,0,0,0,0,0,0,0,0,0,-1,1245,561,0,0
28,463,0,0,0,0,0,0,0,0,0,-1,1252,561,0,0
35,463,0,0,0,0,0,0,0,0,0,-1,1259,561,0,0
42,463,0,0,0,0,0,0,0,0,0,-1,1266,561,0,0
49,463,0,0,0,0,0,0,0,0,0,-1,1273,561,0,0
56,463,0,0,0,0,0,0,0,0,0,-1,1280,561,0,0
63,463,0,0,0,0,0,0,0,0,0,-1,1287,561,0,0
70,463,0,0,0,0,0,0,0,0,0,-1,1294,561,0,0
77,463,0,0,0,0,0,0,0,0,0,-1,1301,561,0,0
84,463,0,0,0,0,0,0,0,0,0,-1,1308,561,0,0
91,463,0,0,0,0,0,0,0,0,0,-1,1315,561,0,0
98,463,0,0,0,0,0,0,0,0,0,-1,1322,561,0,0
105,463,0,0,0,0,0,0,0,0,0,-1,1329,561,0,0
112,463,0,0,0,0,0,0,0,0,0,-1,1336,561,0,0
119,463,0,0,0,0,0,0,0,0,0,-1,1343,561,0,0
126,463,0,0,0,0,0,0,0,0,0,-1,1350,561,0,0
133,463,0,0,0,0,0,0,0,0,0,-1,1357,561,0,0
140,463,0,0,0,0,0,0,0,0,0,-1,1364,561,0,0
147,463,0,0,0,0,0,0,0,0,0,-1,1371,561,0,0
154,463,0,0,0,0,0,0,0,0,0,-1,1378,561,0,0
161,463,0,0,0,0,0,0,0,0,0,-1,1385,561,0,0
168,463,0,0,0,0,0,0,0,0,0,-1,1392,561,0,0
175,463,0,0,0,0,0,0,0,0,0,-1,1399,561,0,0
182,463,0,0,0,0,0,0,0,0,0,-1,1406,561,0,0
189,463,0,0,0,0,0,0,0,0,0,-1,1413,561,0,0
196,463,0,0,0,0,0,0,0,0,0,-1,1420,561,0,0
203,463,0,0,0,0,0,0,0,0,0,-1,1427,561,0,0
210,463,0,0,0,0,0,0,0,0,0,-1,1434,561,0,0
217,463,0,0,0,0,0,0,0,0,0,-1,1441,561,0,0
224,463,0,0,0,0,0,0,0,0,0,-1,1448,561,0,0
231,463,0,0,0,0,0,0,0,0,0,-1,1455,561,0,0
238,463,0,0,0,0,0,0,0,0,0,-1,1462,561,0,0
245,463,0,0,0,0,0,0,0,0,0,-1,1469,561,0,0
252,463,0,0,0,0,0,0,0,0,0,-1,1476,561,0,0
259,463,0,0,0,0,0,0,0,0,0,-1,1483,561,0,0
266,463,0,0,0,0,0,0,0,0,0,-1,1490,561,0,0
273,463,0,0,0,0,0,0,0,0,0,-1,1497,561,0,0
280,463,0,0,0,0,0,0,0,0,0,-1,1504,561,0,0
287,463,0,0,0,0,0,0,0,0,0,-1,1511,561,0,0
294,463,0,0,0,0,0,0,0,0,0,-1,1518,561,0,0
301,463,0,0,0,0,0,0,0,0,0,-1,1525,561,0,0
308,463,0,0,0,0,0,0,0,0,0,-1,1532,561,0,0
315,463,0,0,0,0,0,0,0,0,0,-1,1539,561,0,0
322,463,0,0,0,0,0,0,0,0,0,-1,1546,561,0,0
329,463,0,0,0,0,0,0,0,0,0,-1,1553,561,0,0
336,463,0,0,0,0,0,0,0,0,0,-1,1560,561,0,0
343,463,0,0,0,0,0,0,0,0,0,-1,1567,561,0,0
350,463,0,0,0,0,0,0,0,0,0,-1,1574,561,0,0
357,463,0,0,0,0,0,0,0,0,0,-1,1581,561,0,0
364,463,0,0,0,0,0,0,0,0,0,-1,1588,561,0,0
371,463,1.75842,0.152588,0,0,0,0,0,0,0,-1,1595,561,1.75844,-0.152558
378,463,4.58813,-0.0444336,0,0,0,0,0,0,0,-1,1602,561,4.58809,0.0444505
385,463,8.88574,1.65057,0,0,0,0,0,0,0,-1,1609,561,8.88575,-1.65055
392,463,14.0912,2.50513,0,0,0,0,0,0,0,-1,1616,561,14.0912,-2.5051
399,463,21.4769,2.7002,0,0,0,0,0,0,0,-1,1623,561,21.477,-2.70017
406,463,26.2987,4.32318,0,0,0,0,0,0,0,-1,1630,561,26.2987,-4.3232
413,463,26.5011,2.65222,0,0,0,0,0,0,0,-1,1637,561,26.5011,-2.65224
420,463,8.849,2.26611,0,0,0,0,0,0,0,-1,1644,561,8.84899,-2.26613
427,463,5.12207,1.69183,0,0,0,0,0,0,0,-1,1651,561,5.12206,-1.69184
434,463,4.59814,1.81995,0,0,0,0,0,0,0,-1,1658,561,4.59812,-1.81994
441,463,1.76392,-5.99225,0,0,0,0,0,0,0,-1,1665,561,1.7639,5.99225
448,463,2.49939,-4.30536,0,0,0,0,0,0,0,-1,1672,561,2.49941,4.30536
455,463,4.40295,-3.02557,0,0,0,0,0,0,0,-1,1679,561,4.40299,3.02558
462,463,5.38293,-4.06445,0,0,0,0,0,0,0,-1,1686,561,5.38289,4.06444
469,463,5.94373,-4.50647,0,0,0,0,0,0,0,-1,1693,561,5.94368,4.50646
476,463,9.46667,-9.28619,0,0,0,0,0,0,0,-1,1700,561,9.4667,9.28621
483,463,9.51404,-8.86615,0.00431451,0.00274714,0.00189965,0.00558577,0.00147588,0.589763,0.00334233,0.0446418,1707,561,9.51401,8.86614
490,463,9.65173,-8.33905,0.00451696,0.00316985,0.00225183,0.00619382,0.001493,0.640076,0.00373244,0.0214865,1714,561,9.65168,8.33904
497,463,9.6394,-7.99329,0.00402724,0.00270143,0.00207457,0.00554224,0.00118643,0.630756,0.0033697,0.0125949,1721,561,9.63943,7.99327
504,463,9.67615,-7.70074,0.00337865,0.00222115,0.00186595,0.00475354,0.000846263,0.63502,0.00292799,0.0154123,1728,561,9.67616,7.70074
511,463,9.73303,-7.40234,0.00261956,0.00165612,0.00157106,0.0037811,0.000494584,0.636637,0.00237311,0.0210884,1735,561,9.73305,7.40233
518,463,9.77747,-6.99707,0.00184108,0.00116854,0.00128184,0.00283002,0.000179604,0.657122,0.00182975,0.0220081,1742,561,9.77741,6.99708
525,463,9.6908,-6.61145,0.00109615,0.000805629,0.00100287,0.00196423,-6.24503e-05,0.713477,0.00133079,0.0178451,1749,561,9.69079,6.61144
532,463,9.66797,-6.24432,0.000426014,0.000566326,0.000791862,0.00129113,-0.000298794,0.829581,0.000975725,0.0152084,1756,561,9.66797,6.2443
539,463,9.63599,-5.87524,-0.00013802,0.000348163,0.000613637,0.000765105,-0.000554962,0.973989,0.000765353,0.0155824,1763,561,9.63599,5.87527
546,463,9.6167,-5.54572,-0.000578905,0.000279136,0.000511108,0.000517416,-0.000817186,1.13455,0.000776985,0.0132778,1770,561,9.61665,5.54571
553,463,9.62439,-5.14893,-0.000962675,0.000302116,0.000421131,0.000429507,-0.00109007,1.27705,0.000904535,0.0115926,1777,561,9.6244,5.1489
560,463,9.64917,-4.72858,-0.00125392,0.000328973,0.000337188,0.000397808,-0.00132275,1.36942,0.00104011,0.0138867,1784,561,9.64916,4.72858
567,463,9.56799,-4.39423,-0.00146921,0.000332891,0.000300528,0.000381688,-0.00151801,1.40983,0.00116035,0.0208865,1791,561,9.56797,4.39424
574,463,9.63757,-4.03796,0,0,0,0,0,0,0,-1,1798,561,9.63753,4.03799
581,463,7.77832,-2.18085,0,0,0,0,0,0,0,-1,1805,561,7.77828,2.18082
588,463,1.97424,2.16016,0,0,0,0,0,0,0,-1,1812,561,1.97422,-2.16013
595,463,9.98657,2.99854,0,0,0,0,0,0,0,-1,1819,561,9.98662,-2.99856
602,463,17.2202,4.91302,0,0,0,0,0,0,0,-1,1826,561,17.2202,-4.91305
609,463,17.96,4.03131,0,0,0,0,0,0,0,-1,1833,561,17.96,-4.03132
616,463,20.8352,3.15131,0,0,0,0,0,0,0,-1,1840,561,20.8352,-3.1513
623,463,0,0,0,0,0,0,0,0,0,-1,1847,561,0,0
630,463,0,0,0,0,0,0,0,0,0,-1,1854,561,0,0
637,463,0,0,0,0,0,0,0,0,0,-1,1861,561,0,0
644,463,0,0,0,0,0,0,0,0,0,-1,1868,561,0,0
651,463,0,0,0,0,0,0,0,0,0,-1,1875,561,0,0
658,463,0,0,0,0,0,0,0,0,0,-1,1882,561,0,0
665,463,0,0,0,0,0,0,0,0,0,-1,1889,561,0,0
672,463,0,0,0,0,0,0,0,0,0,-1,1896,561,0,0
679,463,0,0,0,0,0,0,0,0,0,-1,1903,561,0,0
686,463,0,0,0,0,0,0,0,0,0,-1,1910,561,0,0
693,463,0,0,0,0,0,0,0,0,0,-1,1917,561,0,0
700,463,0,0,0,0,0,0,0,0,0,-1,1924,561,0,0
707,463,0,0,0,0,0,0,0,0,0,-1,1931,561,0,0
714,463,0,0,0,0,0,0,0,0,0,-1,1938,561,0,0
721,463,0,0,0,0,0,0,0,0,0,-1,1945,561,0,0
728,463,0,0,0,0,0,0,0,0,0,-1,1952,561,0,0
735,463,0,0,0,0,0,0,0,0,0,-1,1959,561,0,0
742,463,0,0,0,0,0,0,0,0,0,-1,1966,561,0,0
749,463,0,0,0,0,0,0,0,0,0,-1,1973,561,0,0
756,463,0,0,0,0,0,0,0,0,0,-1,1980,561,0,0
763,463,0,0,0,0,0,0,0,0,0,-1,1987,561,0,0
770,463,0,0,0,0,0,0,0,0,0,-1,1994,561,0,0
777,463,0,0,0,0,0,0,0,0,0,-1,2001,561,0,0
784,463,0,0,0,0,0,0,0,0,0,-1,2008,561,0,0
791,463,0,0,0,0,0,0,0,0,0,-1,2015,561,0,0
798,463,0,0,0,0,0,0,0,0,0,-1,2022,561,0,0
805,463,0,0,0,0,0,0,0,0,0,-1,2029,561,0,0
812,463,0,0,0,0,0,0,0,0,0,-1,2036,561,0,0
-700,456,0,0,0,0,0,0,0,0,0,-1,524,568,0,0
-693,456,0,0,0,0,0,0,0,0,0,-1,531,568,0,0
-686,456,0,0,0,0,0,0,0,0,0,-1,538,568,0,0
-679,456,0,0,0,0,0,0,0,0,0,-1,545,568,0,0
-672,456,0,0,0,0,0,0,0,0,0,-1,552,568,0,0
-665,456,0,0,0,0,0,0,0,0,0,-1,559,568,0,0
-658,456,0,0,0,0,0,0,0,0,0,-1,566,568,0,0
-651,456,0,0,0,0,0,0,0,0,0,-1,573,568,0,0
-644,456,0,0,0,0,0,0,0,0,0,-1,580,568,0,0
-637,456,0,0,0,0,0,0,0,0,0,-1,587,568,0,0
-630,456,0,0,0,0,0,0,0,0,0,-1,594,568,0,0
-623,456,0,0,0,0,0,0,0,0,0,-1,601,568,0,0
-616,456,0,0,0,0,0,0,0,0,0,-1,608,568,0,0
-609,456,0,0,0,0,0,0,0,0,0,-1,615,568,0,0
-602,456,0,0,0,0,0,0,0,0,0,-1,622,568,0,0
-595,456,0,0,0,0,0,0,0,0,0,-1,629,568,0,0
-588,456,0,0,0,0,0,0,0,0,0,-1,636,568,0,0
-581,456,0,0,0,0,0,0,0,0,0,-1,643,568,0,0
-574,456,0,0,0,0,0,0,0,0,0,-1,650,568,0,0
-567,456,0,0,0,0,0,0,0,0,0,-1,657,568,0,0
-560,456,0,0,0,0,0,0,0,0,0,-1,664,568,0,0
-553,456,0,0,0,0,0,0,0,0,0,-1,671,568,0,0
-546,456,0,0,0,0,0,0,0,0,0,-1,678,568,0,0
-539,456,0,0,0,0,0,0,0,0,0,-1,685,568,0,0
-532,456,0,0,0,0,0,0,0,0,0,-1,692,568,0,0
-525,456,0,0,0,0,0,0,0,0,0,-1,699,568,0,0
-518,456,0,0,0,0,0,0,0,0,0,-1,706,568,0,0
-511,456,0,0,0,0,0,0,0,0,0,-1,713,568,0,0
-504,456,-10.3994,-2.34839,0,0,0,0,0,0,0,-1,720,568,-10.3994,2.3484
-497,456,-9.21375,-2.38068,0,0,0,0,0,0,0,-1,727,568,-9.21372,2.38069
-490,456,-8.09058,-2.31824,0,0,0,0,0,0,0,-1,734,568,-8.09057,2.31821
-483,456,-6.66119,-2.24329,0,0,0,0,0,0,0,-1,741,568,-6.66121,2.24331
-476,456,-5.1499,-2.21185,0,0,0,0,0,0,0,-1,748,568,-5.14992,2.21184
-469,456,-2.81238,-3.51501,0,0,0,0,0,0,0,-1,755,568,-2.81237,3.51501
-462,456,-2.91895,-4.18488,0,0,0,0,0,0,0,-1,762,568,-2.91892,4.18488
-455,456,-2.81812,-4.74854,0,0,0,0,0,0,0,-1,769,568,-2.81811,4.74854
-448,456,-2.8479,-5.448,0.00212715,0.0104925,-0.00924302,0.0164552,-0.00383554,-0.997872,0.0124472,0.0399839,776,568,-2.84787,5.44799
-441,456,-2.98145,-6.09979,0.000991893,0.00824691,-0.00694556,0.0124552,-0.00321639,-1.02605,0.00955773,0.0203404,783,568,-2.98146,6.09977
-434,456,-3.06104,-6.47345,0.000356754,0.00626503,-0.00511776,0.00922007,-0.00259828,-1.04715,0.00717146,0.0111544,790,568,-3.06106,6.47344
-427,456,-3.05933,-6.80511,0.000143825,0.00486143,-0.00376599,0.00694634,-0.00194109,-1.06518,0.00539559,0.00866555,797,568,-3.05936,6.80512
-420,456,-3.0498,-7.12909,-0.000134742,0.00337487,-0.00246124,0.00464282,-0.00140269,-1.09509,0.00365366,0.00961756,804,568,-3.0498,7.1291
-413,456,-3.06366,-7.46033,-0.000352169,0.00216703,-0.00147556,0.0028475,-0.00103264,-1.1387,0.00232044,0.00892784,811,568,-3.06366,7.46033
-406,456,-3.09741,-7.79211,-0.000430655,0.00111762,-0.000629579,0.00134131,-0.000654344,-1.22941,0.00117473,0.0087609,818,568,-3.09739,7.7921
-399,456,-3.09589,-8.12732,-0.000519455,-0.000131735,0.000178109,-6.23375e-05,-0.000588853,1.19926,0.000373527,0.0101423,825,568,-3.09589,8.12731
-392,456,-3.08252,-8.46466,-0.00072922,-0.00148627,0.00103644,-4.34218e-06,-0.00221115,0.610316,0.00147265,0.00927504,832,568,-3.08254,8.46466
-385,456,-3.08221,-8.7959,-0.000974459,-0.00266641,0.00175705,0.000129663,-0.00377053,0.561038,0.00255801,0.00907665,839,568,-3.08224,8.79589
-378,456,-3.0954,-9.13879,-0.00122421,-0.00392816,0.00246791,0.000237792,-0.00539015,0.534814,0.00367526,0.0105829,846,568,-3.09539,9.13882
-371,456,-3.09174,-9.47229,-0.00135743,-0.00514766,0.00304998,0.000338259,-0.00684335,0.507412,0.00467906,0.0112071,853,568,-3.09171,9.47226
-364,456,-3.08246,-9.75531,-0.00136905,-0.00641261,0.00360266,0.000506728,-0.00828839,0.480043,0.00570201,0.0150668,860,568,-3.08248,9.75531
-357,456,-3.04608,-10.0867,-0.0010951,-0.00759012,0.00384983,0.000694012,-0.00937922,0.43503,0.00649652,0.0221784,867,568,-3.0461,10.0867
-350,456,-2.86908,-10.1268,-0.000507405,-0.00854671,0.00376777,0.00098236,-0.0100365,0.376532,0.00704132,0.0467284,874,568,-2.8691,10.1267
-343,456,-2.55817,-10.263,0,0,0,0,0,0,0,-1,881,568,-2.55816,10.263
-336,456,-2.74646,-10.5612,0,0,0,0,0,0,0,-1,888,568,-2.74645,10.5612
-329,456,-1.91858,-9.27509,0,0,0,0,0,0,0,-1,895,568,-1.9186,9.27508
-322,456,-0.662537,-7.66632,0,0,0,0,0,0,0,-1,902,568,-0.662564,7.66633
-315,456,-0.675476,-3.38397,0,0,0,0,0,0,0,-1,909,568,-0.675473,3.38399
-308,456,-1.1618,-3.15314,0,0,0,0,0,0,0,-1,916,568,-1.16178,3.15314
-301,456,-1.83551,-3.26447,0,0,0,0,0,0,0,-1,923,568,-1.8355,3.26449
-294,456,-2.93414,-3.35449,0,0,0,0,0,0,0,-1,930,568,-2.93413,3.35451
-287,456,-3.7569,-3.53101,0,0,0,0,0,0,0,-1,937,568,-3.75692,3.53101
-280,456,-13.072,4.52856,0,0,0,0,0,0,0,-1,944,568,-13.072,-4.52855
-273,456,-9.20386,0.0843506,0,0,0,0,0,0,0,-1,951,568,-9.20388,-0.0843452
-266,456,-5.58484,-2.96448,0,0,0,0,0,0,0,-1,958,568,-5.58485,2.96451
-259,456,0,0,0,0,0,0,0,0,0,-1,965,568,0,0
-252,456,0,0,0,0,0,0,0,0,0,-1,972,568,0,0
-245,456,0,0,0,0,0,0,0,0,0,-1,979,568,0,0
-238,456,0,0,0,0,0,0,0,0,0,-1,986,568,0,0
-231,456,0,0,0,0,0,0,0,0,0,-1,993,568,0,0
-224,456,0,0,0,0,0,0,0,0,0,-1,1000,568,0,0
-217,456,0,0,0,0,0,0,0,0,0,-1,1007,568,0,0
-210,456,0,0,0,0,0,0,0,0,0,-1,1014,568,0,0
-203,456,0,0,0,0,0,0,0,0,0,-1,1021,568,0,0
-196,456,0,0,0,0,0,0,0,0,0,-1,1028,568,0,0
-189,456,0,0,0,0,0,0,0,0,0,-1,1035,568,0,0
-182,456,0,0,0,0,0,0,0,0,0,-1,1042,568,0,0
-175,456,0,0,0,0,0,0,0,0,0,-1,1049,568,0,0
-168,456,0,0,0,0,0,0,0,0,0,-1,1056,568,0,0
-161,456,0,0,0,0,0,0,0,0,0,-1,1063,568,0,0
-154,456,0,0,0,0,0,0,0,0,0,-1,1070,568,0,0
-147,456,0,0,0,0,0,0,0,0,0,-1,1077,568,0,0
-140,456,0,0,0,0,0,0,0,0,0,-1,1084,568,0,0
-133,456,0,0,0,0,0,0,0,0,0,-1,1091,568,0,0
-126,456,0,0,0,0,0,0,0,0,0,-1,1098,568,0,0
-119,456,0,0,0,0,0,0,0,0,0,-1,1105,568,0,0
-112,456,0,0,0,0,0,0,0,0,0,-1,1112,568,0,0
-105,456,0,0,0,0,0,0,0,0,0,-1,1119,568,0,0
-98,456,0,0,0,0,0,0,0,0,0,-1,1126,568,0,0
-91,456,0,0,0,0,0,0,0,0,0,-1,1133,568,0,0
-84,456,0,0,0,0,0,0,0,0,0,-1,1140,568,0,0
-77,456,0,0,0,0,0,0,0,0,0,-1,1147,568,0,0
-70,456,0,0,0,0,0,0,0,0,0,-1,1154,568,0,0
-63,456,0,0,0,0,0,0,0,0,0,-1,1161,568,0,0
-56,456,0,0,0,0,0,0,0,0,0,-1,1168,568,0,0
-49,456,0,0,0,0,0,0,0,0,0,-1,1175,568,0,0
-42,456,0,0,0,0,0,0,0,0,0,-1,1182,568,0,0
-35,456,0,0,0,0,0,0,0,0,0,-1,1189,568,0,0
-28,456,0,0,0,0,0,0,0,0,0,-1,1196,568,0,0
-21,456,0,0,0,0,0,0,0,0,0,-1,1203,568,0,0
-14,456,0,0,0,0,0,0,0,0,0,-1,1210,568,0,0
-7,456,0,0,0,0,0,0,0,0,0,-1,1217,568,0,0
0,456,0,0,0,0,0,0,0,0,0,-1,1224,568,0,0
7,456,0,0,0,0,0,0,0,0,0,-1,1231,568,0,0
14,456,0,0,0,0,0,0,0,0,0,-1,1238,568,0,0
21,456,0,0,0,0,0,0,0,0,0,-1,1245,568,0,0
28,456,0,0,0,0,0,0,0,0,0,-1,1252,568,0,0
35,456,0,0,0,0,0,0,0,0,0,-1,1259,568,0,0
42,456,0,0,0,0,0,0,0,0,0,-1,1266,568,0,0
49,456,0,0,0,0,0,0,0,0,0,-1,1273,568,0,0
56,456,0,0,0,0,0,0,0,0,0,-1,1280,568,0,0
63,456,0,0,0,0,0,0,0,0,0,-1,1287,568,0,0
70,456,0,0,0,0,0,0,0,0,0,-1,1294,568,0,0
77,456,0,0,0,0,0,0,0,0,0,-1,1301,568,0,0
84,456,0,0,0,0,0,0,0,0,0,-1,1308,568,0,0
91,456,0,0,0,0,0,0,0,0,0,-1,1315,568,0,0
98,456,0,0,0,0,0,0,0,0,0,-1,1322,568,0,0
105,456,0,0,0,0,0,0,0,0,0,-1,1329,568,0,0
112,456,0,0,0,0,0,0,0,0,0,-1,1336,568,0,0
119,456,0,0,0,0,0,0,0,0,0,-1,1343,568,0,0
126,456,0,0,0,0,0,0,0,0,0,-1,1350,568,0,0
133,456,0,0,0,0,0,0,0,0,0,-1,1357,568,0,0
140,456,0,0,0,0,0,0,0,0,0,-1,1364,568,0,0
147,456,0,0,0,0,0,0,0,0,0,-1,1371,568,0,0
154,456,0,0,0,0,0,0,0,0,0,-1,1378,568,0,0
161,456,0,0,0,0,0,0,0,0,0,-1,1385,568,0,0
168,456,0,0,0,0,0,0,0,0,0,-1,1392,568,0,0
175,456,0,0,0,0,0,0,0,0,0,-1,1399,568,0,0
182,456,0,0,0,0,0,0,0,0,0,-1,1406,568,0,0
189,456,0,0,0,0,0,0,0,0,0,-1,1413,568,0,0
196,456,0,0,0,0,0,0,0,0,0,-1,1420,568,0,0
203,456,0,0,0,0,0,0,0,0,0,-1,1427,568,0,0
210,456,0,0,0,0,0,0,0,0,0,-1,1434,568,0,0
217,456,0,0,0,0,0,0,0,0,0,-1,1441,568,0,0
224,456,0,0,0,0,0,0,0,0,0,-1,1448,568,0,0
231,456,0,0,0,0,0,0,0,0,0,-1,1455,568,0,0
238,456,0,0,0,0,0,0,0,0,0,-1,1462,568,0,0
245,456,0,0,0,0,0,0,0,0,0,-1,1469,568,0,0
252,456,0,0,0,0,0,0,0,0,0,-1,1476,568,0,0
259,456,0,0,0,0,0,0,0,0,0,-1,1483,568,0,0
266,456,0,0,0,0,0,0,0,0,0,-1,1490,568,0,0
273,456,0,0,0,0,0,0,0,0,0,-1,1497,568,0,0
280,456,0,0,0,0,0,0,0,0,0,-1,1504,568,0,0
287,456,0,0,0,0,0,0,0,0,0,-1,1511,568,0,0
294,456,0,0,0,0,0,0,0,0,0,-1,1518,568,0,0
301,456,0,0,0,0,0,0,0,0,0,-1,1525,568,0,0
308,456,0,0,0,0,0,0,0,0,0,-1,1532,568,0,0
315,456,0,0,0,0,0,0,0,0,0,-1,1539,568,0,0
322,456,0,0,0,0,0,0,0,0,0,-1,1546,568,0,0
329,456,0,0,0,0,0,0,0,0,0,-1,1553,568,0,0
336,456,0,0,0,0,0,0,0,0,0,-1,1560,568,0,0
343,456,0,0,0,0,0,0,0,0,0,-1,1567,568,0,0
350,456,0,0,0,0,0,0,0,0,0,-1,1574,568,0,0
357,456,0,0,0,0,0,0,0,0,0,-1,1581,568,0,0
364,456,0,0,0,0,0,0,0,0,0,-1,1588,568,0,0
371,456,0,0,0,0,0,0,0,0,0,-1,1595,568,0,0
378,456,0,0,0,0,0,0,0,0,0,-1,1602,568,0,0
385,456,5.66284,0.660645,0,0,0,0,0,0,0,-1,1609,568,5.66285,-0.660615
392,456,16.7321,4.45581,0,0,0,0,0,0,0,-1,1616,568,16.732,-4.45581
399,456,24.1917,5.99652,0,0,0,0,0,0,0,-1,1623,568,24.1916,-5.99651
406,456,24.446,4.53003,0,0,0,0,0,0,0,-1,1630,568,24.446,-4.53005
413,456,24.9418,2.90521,0,0,0,0,0,0,0,-1,1637,568,24.9418,-2.90524
420,456,25.3048,1.04712,0,0,0,0,0,0,0,-1,1644,568,25.3048,-1.04713
427,456,6.21375,2.02905,0,0,0,0,0,0,0,-1,1651,568,6.21372,-2.02904
434,456,3.0719,-4.86285,0,0,0,0,0,0,0,-1,1658,568,3.07184,4.86287
441,456,2.90344,-4.70459,0,0,0,0,0,0,0,-1,1665,568,2.90346,4.7046
448,456,3.06995,-4.93689,0,0,0,0,0,0,0,-1,1672,568,3.06991,4.93687
455,456,3.46582,-3.43701,0,0,0,0,0,0,0,-1,1679,568,3.46585,3.43698
462,456,4.68445,-4.45831,0,0,0,0,0,0,0,-1,1686,568,4.68439,4.45833
469,456,4.93201,-2.289,0,0,0,0,0,0,0,-1,1693,568,4.93197,2.28903
476,456,4.8363,-2.79364,0,0,0,0,0,0,0,-1,1700,568,4.83636,2.79363
483,456,9.55542,-9.29901,0,0,0,0,0,0,0,-1,1707,568,9.55548,9.29899
490,456,9.95618,-8.39203,0,0,0,0,0,0,0,-1,1714,568,9.95613,8.39202
497,456,9.98804,-8.01813,0.00542556,0.00331487,0.00294793,0.00750136,0.00123907,0.613509,0.00464332,0.0401395,1721,568,9.98801,8.0181
504,456,10.0005,-7.66101,0.00453977,0.002733,0.00255184,0.00634341,0.000929357,0.615275,0.00395572,0.0118354,1728,568,10.0005,7.66098
511,456,10.0302,-7.30884,0.00362838,0.00206614,0.00212012,0.00510669,0.000587828,0.608899,0.00322642,0.0143781,1735,568,10.0302,7.30881
518,456,10.0485,-6.94843,0.00275352,0.00154583,0.00173501,0.00398676,0.000312589,0.617935,0.00256001,0.016677,1742,568,10.0484,6.94843
525,456,10.0254,-6.62109,0.00191602,0.0011976,0.00138038,0.00298316,0.000130457,0.658108,0.00194675,0.0152593,1749,568,10.0254,6.62107
532,456,10.0188,-6.22717,0.00115776,0.00093336,0.00108791,0.00213924,-4.81185e-05,0.734013,0.00144247,0.0139618,1756,568,10.0188,6.22715
539,456,9.99255,-5.84692,0.000508477,0.000643684,0.000810719,0.00138961,-0.000237452,0.826995,0.00101486,0.0168987,1763,568,9.99257,5.8469
546,456,9.95996,-5.52283,4.2338e-06,0.000520816,0.000631728,0.000945016,-0.000419966,0.979461,0.000807273,0.0198278,1770,568,9.96002,5.5228
553,456,9.96057,-5.1286,-0.000448313,0.000459148,0.00047764,0.000664213,-0.000653378,1.16526,0.00076072,0.0135706,1777,568,9.96062,5.12861
560,456,9.97095,-4.77142,-0.000834166,0.000388386,0.00033983,0.000476498,-0.000922277,1.3171,0.000821139,0.00993199,1784,568,9.97097,4.77145
567,456,9.97949,-4.40039,-0.00112328,0.000322555,0.000274398,0.00037288,-0.00117361,1.38941,0.000931907,0.0149588,1791,568,9.97945,4.40039
574,456,9.92908,-4.18744,-0.00152681,0.000229803,0.00020701,0.000253869,-0.00155088,1.45506,0.0011281,0.0444346,1798,568,9.92903,4.18746
581,456,9.93726,-3.91235,0,0,0,0,0,0,0,-1,1805,568,9.93725,3.91233
588,456,5.23901,-0.0901489,0,0,0,0,0,0,0,-1,1812,568,5.23906,0.0901656
595,456,6.90063,3.14886,0,0,0,0,0,0,0,-1,1819,568,6.90066,-3.14887
602,456,16.894,4.10938,0,0,0,0,0,0,0,-1,1826,568,16.8941,-4.1094
609,456,14.9966,3.5708,0,0,0,0,0,0,0,-1,1833,568,14.9966,-3.57083
616,456,17.7407,2.6579,0,0,0,0,0,0,0,-1,1840,568,17.7408,-2.6579
623,456,20.6838,1.7121,0,0,0,0,0,0,0,-1,1847,568,20.6838,-1.71208
630,456,0,0,0,0,0,0,0,0,0,-1,1854,568,0,0
637,456,0,0,0,0,0,0,0,0,0,-1,1861,568,0,0
644,456,0,0,0,0,0,0,0,0,0,-1,1868,568,0,0
651,456,0,0,0,0,0,0,0,0,0,-1,1875,568,0,0
658,456,0,0,0,0,0,0,0,0,0,-1,1882,568,0,0
665,456,0,0,0,0,0,0,0,0,0,-1,1889,568,0,0
672,456,0,0,0,0,0,0,0,0,0,-1,1896,568,0,0
679,456,0,0,0,0,0,0,0,0,0,-1,1903,568,0,0
686,456,0,0,0,0,0,0,0,0,0,-1,1910,568,0,0
693,456,0,0,0,0,0,0,0,0,0,-1,1917,568,0,0
700,456,0,0,0,0,0,0,0,0,0,-1,1924,568,0,0
707,456,0,0,0,0,0,0,0,0,0,-1,1931,568,0,0
714,456,0,0,0,0,0,0,0,0,0,-1,1938,568,0,0
721,456,0,0,0,0,0,0,0,0,0,-1,1945,568,0,0
728,456,0,0,0,0,0,0,0,0,0,-1,1952,568,0,0
735,456,0,0,0,0,0,0,0,0,0,-1,1959,568,0,0
742,456,0,0,0,0,0,0,0,0,0,-1,1966,568,0,0
749,456,0,0,0,0,0,0,0,0,0,-1,1973,568,0,0
756,456,0,0,0,0,0,0,0,0,0,-1,1980,568,0,0
763,456,0,0,0,0,0,0,0,0,0,-1,1987,568,0,0
770,456,0,0,0,0,0,0,0,0,0,-1,1994,568,0,0
777,456,0,0,0,0,0,0,0,0,0,-1,2001,568,0,0
784,456,0,0,0,0,0,0,0,0,0,-1,2008,568,0,0
791,456,0,0,0,0,0,0,0,0,0,-1,2015,568,0,0
798,456,0,0,0,0,0,0,0,0,0,-1,2022,568,0,0
805,456,0,0,0,0,0,0,0,0,0,-1,2029,568,0,0
812,456,0,0,0,0,0,0,0,0,0,-1,2036,568,0,0
-700,449,0,0,0,0,0,0,0,0,0,-1,524,575,0,0
-693,449,0,0,0,0,0,0,0,0,0,-1,531,575,0,0
-686,449,0,0,0,0,0,0,0,0,0,-1,538,575,0,0
-679,449,0,0,0,0,0,0,0,0,0,-1,545,575,0,0
-672,449,0,0,0,0,0,0,0,0,0,-1,552,575,0,0
-665,449,0,0,0,0,0,0,0,0,0,-1,559,575,0,0
-658,449,0,0,0,0,0,0,0,0,0,-1,566,575,0,0
-651,449,0,0,0,0,0,0,0,0,0,-1,573,575,0,0
-644,449,0,0,0,0,0,0,0,0,0,-1,580,575,0,0
-637,449,0,0,0,0,0,0,0,0,0,-1,587,575,0,0
-630,449,0,0,0,0,0,0,0,0,0,-1,594,575,0,0
-623,449,0,0,0,0,0,0,0,0,0,-1,601,575,0,0
-616,449,0,0,0,0,0,0,0,0,0,-1,608,575,0,0
-609,449,0,0,0,0,0,0,0,0,0,-1,615,575,0,0
-602,449,0,0,0,0,0,0,0,0,0,-1,622,575,0,0
-595,449,0,0,0,0,0,0,0,0,0,-1,629,575,0,0
-588,449,0,0,0,0,0,0,0,0,0,-1,636,575,0,0
-581,449,0,0,0,0,0,0,0,0,0,-1,643,575,0,0
-574,449,0,0,0,0,0,0,0,0,0,-1,650,575,0,0
-567,449,0,0,0,0,0,0,0,0,0,-1,657,575,0,0
-560,449,0,0,0,0,0,0,0,0,0,-1,664,575,0,0
-553,449,0,0,0,0,0,0,0,0,0,-1,671,575,0,0
-546,449,0,0,0,0,0,0,0,0,0,-1,678,575,0,0
-539,449,0,0,0,0,0,0,0,0,0,-1,685,575,0,0
-532,449,0,0,0,0,0,0,0,0,0,-1,692,575,0,0
-525,449,0,0,0,0,0,0,0,0,0,-1,699,575,0,0
-518,449,0,0,0,0,0,0,0,0,0,-1,706,575,0,0
-511,449,-0.941345,-4.4519,0,0,0,0,0,0,0,-1,713,575,-0.941356,4.45191
-504,449,-14.1078,0.318237,0,0,0,0,0,0,0,-1,720,575,-14.1078,-0.318231
-497,449,-8.61292,-3.09009,0,0,0,0,0,0,0,-1,727,575,-8.61291,3.09011
-490,449,-7.50995,-2.96252,0,0,0,0,0,0,0,-1,734,575,-7.50995,2.96251
-483,449,-5.77789,-2.50061,0,0,0,0,0,0,0,-1,741,575,-5.77792,2.50059
-476,449,-4.1723,-2.07739,0,0,0,0,0,0,0,-1,748,575,-4.17228,2.0774
-469,449,-4.13055,-3.68597,0,0,0,0,0,0,0,-1,755,575,-4.13058,3.686
-462,449,-3.49011,-5.11932,0,0,0,0,0,0,0,-1,762,575,-3.49013,5.11935
-455,449,-3.52679,-5.42682,0,0,0,0,0,0,0,-1,769,575,-3.52681,5.4268
-448,449,-3.35962,-5.73114,0.00270207,0.00829006,-0.00762996,0.0136215,-0.00262937,-0.960909,0.0100725,0.0276592,776,575,-3.35962,5.73111
-441,449,-3.35541,-6.16077,0.00148791,0.00655415,-0.00562766,0.0101925,-0.00215046,-0.996875,0.00761375,0.0154504,783,575,-3.35543,6.16079
-434,449,-3.39587,-6.47015,0.000673712,0.00484372,-0.00396232,0.00723613,-0.0017187,-1.02759,0.00548745,0.0127262,790,575,-3.39588,6.47015
-427,449,-3.41321,-6.7984,0.000239415,0.00357576,-0.00265969,0.00504713,-0.00123196,-1.06549,0.00384182,0.0127152,797,575,-3.41321,6.79841
-420,449,-3.39929,-7.13269,-0.000277965,0.00216806,-0.0013652,0.00277795,-0.000887855,-1.15066,0.00220824,0.0128041,804,575,-3.39931,7.13267
-413,449,-3.39008,-7.44995,-0.000753967,0.000992948,-0.000354629,0.00106219,-0.000823212,-1.37796,0.00109145,0.0104967,811,575,-3.3901,7.44995
-406,449,-3.42755,-7.78796,-0.0010134,-4.69221e-05,0.000517812,0.000178111,-0.00123843,1.16084,0.000890946,0.0095,818,575,-3.42755,7.78796
-399,449,-3.44202,-8.13623,-0.001266,-0.00136483,0.00135797,4.345e-05,-0.00267428,0.76721,0.00179751,0.00874661,825,575,-3.44204,8.13624
-392,449,-3.41711,-8.47546,-0.00165887,-0.00277288,0.00221888,7.1849e-05,-0.00450359,0.662424,0.00302663,0.00922252,832,575,-3.41709,8.47546
-385,449,-3.4104,-8.79315,-0.00212114,-0.00412804,0.00299303,3.21704e-05,-0.00628135,0.623655,0.00419833,0.010372,839,575,-3.41037,8.79312
-378,449,-3.43335,-9.10565,-0.00264047,-0.00565095,0.00380619,-5.26896e-05,-0.00823873,0.5971,0.00547501,0.0102446,846,575,-3.43338,9.10564
-371,449,-3.43353,-9.43652,-0.00303723,-0.00720836,0.0045124,-0.000151741,-0.0100938,0.568928,0.00667923,0.0108837,853,575,-3.43356,9.4365
-364,449,-3.46265,-9.7749,-0.00328926,-0.00888974,0.00518802,-0.000194004,-0.011985,0.537928,0.00792612,0.0223429,860,575,-3.46262,9.7749
-357,449,-3.19568,-10.1931,0,0,0,0,0,0,0,-1,867,575,-3.19571,10.1931
-350,449,-2.88037,-9.7641,0,0,0,0,0,0,0,-1,874,575,-2.88037,9.76411
-343,449,-3.16248,-9.15442,0,0,0,0,0,0,0,-1,881,575,-3.16247,9.15443
-336,449,-3.06061,-8.43689,0,0,0,0,0,0,0,-1,888,575,-3.06063,8.43688
-329,449,-0.733398,-7.78937,0,0,0,0,0,0,0,-1,895,575,-0.733398,7.78937
-322,449,-0.628845,-3.16669,0,0,0,0,0,0,0,-1,902,575,-0.628861,3.16667
-315,449,-0.540344,-3.21918,0,0,0,0,0,0,0,-1,909,575,-0.540336,3.21917
-308,449,-1.04413,-2.99341,0,0,0,0,0,0,0,-1,916,575,-1.04415,2.99338
-301,449,-1.58691,-2.80725,0,0,0,0,0,0,0,-1,923,575,-1.58692,2.80728
-294,449,-3.71118,-2.76086,0,0,0,0,0,0,0,-1,930,575,-3.71119,2.76087
-287,449,-4.4082,-2.69525,0,0,0,0,0,0,0,-1,937,575,-4.40822,2.69526
-280,449,-5.09955,-2.96295,0,0,0,0,0,0,0,-1,944,575,-5.09953,2.96297
-273,449,0,0,0,0,0,0,0,0,0,-1,951,575,0,0
-266,449,0,0,0,0,0,0,0,0,0,-1,958,575,0,0
-259,449,0,0,0,0,0,0,0,0,0,-1,965,575,0,0
-252,449,0,0,0,0,0,0,0,0,0,-1,972,575,0,0
-245,449,0,0,0,0,0,0,0,0,0,-1,979,575,0,0
-238,449,0,0,0,0,0,0,0,0,0,-1,986,575,0,0
-231,449,0,0,0,0,0,0,0,0,0,-1,993,575,0,0
-224,449,0,0,0,0,0,0,0,0,0,-1,1000,575,0,0
-217,449,0,0,0,0,0,0,0,0,0,-1,1007,575,0,0
-210,449,0,0,0,0,0,0,0,0,0,-1,1014,575,0,0
-203,449,0,0,0,0,0,0,0,0,0,-1,1021,575,0,0
-196,449,0,0,0,0,0,0,0,0,0,-1,1028,575,0,0
-189,449,0,0,0,0,0,0,0,0,0,-1,1035,575,0,0
-182,449,0,0,0,0,0,0,0,0,0,-1,1042,575,0,0
-175,449,0,0,0,0,0,0,0,0,0,-1,1049,575,0,0
-168,449,0,0,0,0,0,0,0,0,0,-1,1056,575,0,0
-161,449,0,0,0,0,0,0,0,0,0,-1,1063,575,0,0
-154,449,0,0,0,0,0,0,0,0,0,-1,1070,575,0,0
-147,449,0,0,0,0,0,0,0,0,0,-1,1077,575,0,0
-140,449,0,0,0,0,0,0,0,0,0,-1,1084,575,0,0
-133,449,0,0,0,0,0,0,0,0,0,-1,1091,575,0,0
-126,449,0,0,0,0,0,0,0,0,0,-1,1098,575,0,0
-119,449,0,0,0,0,0,0,0,0,0,-1,1105,575,0,0
-112,449,0,0,0,0,0,0,0,0,0,-1,1112,575,0,0
-105,449,0,0,0,0,0,0,0,0,0,-1,1119,575,0,0
-98,449,0,0,0,0,0,0,0,0,0,-1,1126,575,0,0
-91,449,0,0,0,0,0,0,0,0,0,-1,1133,575,0,0
-84,449,0,0,0,0,0,0,0,0,0,-1,1140,575,0,0
-77,449,0,0,0,0,0,0,0,0,0,-1,1147,575,0,0
-70,449,0,0,0,0,0,0,0,0,0,-1,1154,575,0,0
-63,449,0,0,0,0,0,0,0,0,0,-1,1161,575,0,0
-56,449,0,0,0,0,0,0,0,0,0,-1,1168,575,0,0
-49,449,0,0,0,0,0,0,0,0,0,-1,1175,575,0,0
-42,449,0,0,0,0,0,0,0,0,0,-1,1182,575,0,0
-35,449,0,0,0,0,0,0,0,0,0,-1,1189,575,0,0
-28,449,0,0,0,0,0,0,0,0,0,-1,1196,575,0,0
-21,449,0,0,0,0,0,0,0,0,0,-1,1203,575,0,0
-14,449,0,0,0,0,0,0,0,0,0,-1,1210,575,0,0
-7,449,0,0,0,0,0,0,0,0,0,-1,1217,575,0,0
0,449,0,0,0,0,0,0,0,0,0,-1,1224,575,0,0
7,449,0,0,0,0,0,0,0,0,0,-1,1231,575,0,0
14,449,0,0,0,0,0,0,0,0,0,-1,1238,575,0,0
21,449,0,0,0,0,0,0,0,0,0,-1,1245,575,0,0
28,449,0,0,0,0,0,0,0,0,0,-1,1252,575,0,0
35,449,0,0,0,0,0,0,0,0,0,-1,1259,575,0,0
42,449,0,0,0,0,0,0,0,0,0,-1,1266,575,0,0
49,449,0,0,0,0,0,0,0,0,0,-1,1273,575,0,0
56,449,0,0,0,0,0,0,0,0,0,-1,1280,575,0,0
63,449,0,0,0,0,0,0,0,0,0,-1,1287,575,0,0
70,449,0,0,0,0,0,0,0,0,0,-1,1294,575,0,0
77,449,0,0,0,0,0,0,0,0,0,-1,1301,575,0,0
84,449,0,0,0,0,0,0,0,0,0,-1,1308,575,0,0
91,449,0,0,0,0,0,0,0,0,0,-1,1315,575,0,0
98,449,0,0,0,0,0,0,0,0,0,-1,1322,575,0,0
105,449,0,0,0,0,0,0,0,0,0,-1,1329,575,0,0
112,449,0,0,0,0,0,0,0,0,0,-1,1336,575,0,0
119,449,0,0,0,0,0,0,0,0,0,-1,1343,575,0,0
126,449,0,0,0,0,0,0,0,0,0,-1,1350,575,0,0
133,449,0,0,0,0,0,0,0,0,0,-1,1357,575,0,0
140,449,0,0,0,0,0,0,0,0,0,-1,1364,575,0,0
147,449,0,0,0,0,0,0,0,0,0,-1,1371,575,0,0
154,449,0,0,0,0,0,0,0,0,0,-1,1378,575,0,0
161,449,0,0,0,0,0,0,0,0,0,-1,1385,575,0,0
168,449,0,0,0,0,0,0,0,0,0,-1,1392,575,0,0
175,449,0,0,0,0,0,0,0,0,0,-1,1399,575,0,0
182,449,0,0,0,0,0,0,0,0,0,-1,1406,575,0,0
189,449,0,0,0,0,0,0,0,0,0,-1,1413,575,0,0
196,449,0,0,0,0,0,0,0,0,0,-1,1420,575,0,0
203,449,0,0,0,0,0,0,0,0,0,-1,1427,575,0,0
210,449,0,0,0,0,0,0,0,0,0,-1,1434,575,0,0
217,449,0,0,0,0,0,0,0,0,0,-1,1441,575,0,0
224,449,0,0,0,0,0,0,0,0,0,-1,1448,575,0,0
231,449,0,0,0,0,0,0,0,0,0,-1,1455,575,0,0
238,449,0,0,0,0,0,0,0,0,0,-1,1462,575,0,0
245,449,0,0,0,0,0,0,0,0,0,-1,1469,575,0,0
252,449,0,0,0,0,0,0,0,0,0,-1,1476,575,0,0
259,449,0,0,0,0,0,0,0,0,0,-1,1483,575,0,0
266,449,0,0,0,0,0,0,0,0,0,-1,1490,575,0,0
273,449,0,0,0,0,0,0,0,0,0,-1,1497,575,0,0
280,449,0,0,0,0,0,0,0,0,0,-1,1504,575,0,0
287,449,0,0,0,0,0,0,0,0,0,-1,1511,575,0,0
294,449,0,0,0,0,0,0,0,0,0,-1,1518,575,0,0
301,449,0,0,0,0,0,0,0,0,0,-1,1525,575,0,0
308,449,0,0,0,0,0,0,0,0,0,-1,1532,575,0,0
315,449,0,0,0,0,0,0,0,0,0,-1,1539,575,0,0
322,449,0,0,0,0,0,0,0,0,0,-1,1546,575,0,0
329,449,0,0,0,0,0,0,0,0,0,-1,1553,575,0,0
336,449,0,0,0,0,0,0,0,0,0,-1,1560,575,0,0
343,449,0,0,0,0,0,0,0,0,0,-1,1567,575,0,0
350,449,0,0,0,0,0,0,0,0,0,-1,1574,575,0,0
357,449,0,0,0,0,0,0,0,0,0,-1,1581,575,0,0
364,449,0,0,0,0,0,0,0,0,0,-1,1588,575,0,0
371,449,0,0,0,0,0,0,0,0,0,-1,1595,575,0,0
378,449,0,0,0,0,0,0,0,0,0,-1,1602,575,0,0
385,449,0,0,0,0,0,0,0,0,0,-1,1609,575,0,0
392,449,7.95471,3.66217,0,0,0,0,0,0,0,-1,1616,575,7.95471,-3.66218
399,449,19.9791,5.565,0,0,0,0,0,0,0,-1,1623,575,19.9791,-5.56499
406,449,22.5933,4.73688,0,0,0,0,0,0,0,-1,1630,575,22.5933,-4.7369
413,449,23.5795,3.19586,0,0,0,0,0,0,0,-1,1637,575,23.5795,-3.19584
420,449,23.9675,1.29718,0,0,0,0,0,0,0,-1,1644,575,23.9675,-1.29721
427,449,24.4276,-0.596558,0,0,0,0,0,0,0,-1,1651,575,24.4277,0.596569
434,449,25.61,-2.96594,0,0,0,0,0,0,0,-1,1658,575,25.61,2.96595
441,449,3.89856,-6.06458,0,0,0,0,0,0,0,-1,1665,575,3.89855,6.06459
448,449,4.03198,-5.18207,0,0,0,0,0,0,0,-1,1672,575,4.03197,5.18207
455,449,4.21948,-4.09467,0,0,0,0,0,0,0,-1,1679,575,4.21952,4.09465
462,449,4.23181,-2.96924,0,0,0,0,0,0,0,-1,1686,575,4.23185,2.96926
469,449,4.51672,-2.95135,0,0,0,0,0,0,0,-1,1693,575,4.51672,2.95135
476,449,4.71838,-1.86688,0,0,0,0,0,0,0,-1,1700,575,4.71842,1.86689
483,449,4.87878,-1.73126,0,0,0,0,0,0,0,-1,1707,575,4.87875,1.73128
490,449,5.73279,-2.74573,0,0,0,0,0,0,0,-1,1714,575,5.73282,2.74575
497,449,10.2781,-8.08832,0,0,0,0,0,0,0,-1,1721,575,10.2781,8.08835
504,449,10.2932,-7.66974,0.00551384,0.00336198,0.00330427,0.00791294,0.000962882,0.628003,0.00498543,0.0441659,1728,575,10.2933,7.66976
511,449,10.3621,-7.30585,0.00448873,0.00250989,0.00271875,0.00639251,0.000606119,0.610886,0.00407469,0.0126757,1735,575,10.362,7.30582
518,449,10.3845,-6.95673,0.00356264,0.0019027,0.00223631,0.00511803,0.000347318,0.60771,0.00330234,0.0150705,1742,575,10.3845,6.9567
525,449,10.351,-6.61462,0.00266963,0.00153336,0.00181046,0.00399901,0.000203981,0.63336,0.00260068,0.0132747,1749,575,10.3509,6.61463
532,449,10.3192,-6.24738,0.00185689,0.00120961,0.00143779,0.00300702,5.94829e-05,0.674695,0.00198515,0.0102319,1756,575,10.3192,6.24738
539,449,10.2933,-5.86841,0.00115665,0.000846288,0.00107072,0.00208337,-8.04337e-05,0.713433,0.00141649,0.0120059,1763,575,10.2933,5.86843
546,449,10.3145,-5.52814,0.000615644,0.000670317,0.000819148,0.00146259,-0.000176624,0.802078,0.00103895,0.020489,1770,575,10.3144,5.52816
553,449,10.3086,-5.15436,0.000122864,0.000536677,0.000602842,0.000967131,-0.000307591,0.950708,0.000768096,0.0154774,1777,575,10.3086,5.15438
560,449,10.3214,-4.78571,-0.000325503,0.000398874,0.000406913,0.000581441,-0.00050807,1.14905,0.000629505,0.0126838,1784,575,10.3214,4.78572
567,449,10.3181,-4.43195,-0.000674655,0.000294959,0.000291817,0.00037601,-0.000755705,1.29988,0.000665541,0.00972332,1791,575,10.3182,4.43195
574,449,10.3168,-4.03412,-0.00107282,0.00017053,0.000189968,0.000198908,-0.00110119,1.42251,0.000808628,0.0219856,1798,575,10.3168,4.03414
581,449,10.3319,-3.58417,0,0,0,0,0,0,0,-1,1805,575,10.332,3.58414
588,449,9.92969,-2.62286,0,0,0,0,0,0,0,-1,1812,575,9.92974,2.62288
595,449,10.7784,-2.33783,0,0,0,0,0,0,0,-1,1819,575,10.7784,2.33784
602,449,9.46167,4.17444,0,0,0,0,0,0,0,-1,1826,575,9.46164,-4.17442
609,449,12.2028,3.18652,0,0,0,0,0,0,0,-1,1833,575,12.2027,-3.18655
616,449,14.9438,2.19867,0,0,0,0,0,0,0,-1,1840,575,14.9438,-2.19867
623,449,9.83789,-0.0820313,0,0,0,0,0,0,0,-1,1847,575,9.83794,0.0820443
630,449,8.90686,4.99329,0,0,0,0,0,0,0,-1,1854,575,8.90685,-4.99327
637,449,0,0,0,0,0,0,0,0,0,-1,1861,575,0,0
644,449,0,0,0,0,0,0,0,0,0,-1,1868,575,0,0
651,449,0,0,0,0,0,0,0,0,0,-1,1875,575,0,0
658,449,0,0,0,0,0,0,0,0,0,-1,1882,575,0,0
665,449,0,0,0,0,0,0,0,0,0,-1,1889,575,0,0
672,449,0,0,0,0,0,0,0,0,0,-1,1896,575,0,0
679,449,0,0,0,0,0,0,0,0,0,-1,1903,575,0,0
686,449,0,0,0,0,0,0,0,0,0,-1,1910,575,0,0
693,449,0,0,0,0,0,0,0,0,0,-1,1917,575,0,0
700,449,0,0,0,0,0,0,0,0,0,-1,1924,575,0,0
707,449,0,0,0,0,0,0,0,0,0,-1,1931,575,0,0
714,449,0,0,0,0,0,0,0,0,0,-1,1938,575,0,0
721,449,0,0,0,0,0,0,0,0,0,-1,1945,575,0,0
728,449,0,0,0,0,0,0,0,0,0,-1,1952,575,0,0
735,449,0,0,0,0,0,0,0,0,0,-1,1959,575,0,0
742,449,0,0,0,0,0,0,0,0,0,-1,1966,575,0,0
749,449,0,0,0,0,0,0,0,0,0,-1,1973,575,0,0
756,449,0,0,0,0,0,0,0,0,0,-1,1980,575,0,0
763,449,0,0,0,0,0,0,0,0,0,-1,1987,575,0,0
770,449,0,0,0,0,0,0,0,0,0,-1,1994,575,0,0
777,449,0,0,0,0,0,0,0,0,0,-1,2001,575,0,0
784,449,0,0,0,0,0,0,0,0,0,-1,2008,575,0,0
791,449,0,0,0,0,0,0,0,0,0,-1,2015,575,0,0
798,449,0,0,0,0,0,0,0,0,0,-1,2022,575,0,0
805,449,0,0,0,0,0,0,0,0,0,-1,2029,575,0,0
812,449,0,0,0,0,0,0,0,0,0,-1,2036,575,0,0
-700,442,0,0,0,0,0,0,0,0,0,-1,524,582,0,0
-693,442,0,0,0,0,0,0,0,0,0,-1,531,582,0,0
-686,442,0,0,0,0,0,0,0,0,0,-1,538,582,0,0
-679,442,0,0,0,0,0,0,0,0,0,-1,545,582,0,0
-672,442,0,0,0,0,0,0,0,0,0,-1,552,582,0,0
-665,442,0,0,0,0,0,0,0,0,0,-1,559,582,0,0
-658,442,0,0,0,0,0,0,0,0,0,-1,566,582,0,0
-651,442,0,0,0,0,0,0,0,0,0,-1,573,582,0,0
-644,442,0,0,0,0,0,0,0,0,0,-1,580,582,0,0
-637,442,0,0,0,0,0,0,0,0,0,-1,587,582,0,0
-630,442,0,0,0,0,0,0,0,0,0,-1,594,582,0,0
-623,442,0,0,0,0,0,0,0,0,0,-1,601,582,0,0
-616,442,0,0,0,0,0,0,0,0,0,-1,608,582,0,0
-609,442,0,0,0,0,0,0,0,0,0,-1,615,582,0,0
-602,442,0,0,0,0,0,0,0,0,0,-1,622,582,0,0
-595,442,0,0,0,0,0,0,0,0,0,-1,629,582,0,0
-588,442,0,0,0,0,0,0,0,0,0,-1,636,582,0,0
-581,442,0,0,0,0,0,0,0,0,0,-1,643,582,0,0
-574,442,0,0,0,0,0,0,0,0,0,-1,650,582,0,0
-567,442,0,0,0,0,0,0,0,0,0,-1,657,582,0,0
-560,442,0,0,0,0,0,0,0,0,0,-1,664,582,0,0
-553,442,0,0,0,0,0,0,0,0,0,-1,671,582,0,0
-546,442,0,0,0,0,0,0,0,0,0,-1,678,582,0,0
-539,442,0,0,0,0,0,0,0,0,0,-1,685,582,0,0
-532,442,0,0,0,0,0,0,0,0,0,-1,692,582,0,0
-525,442,0,0,0,0,0,0,0,0,0,-1,699,582,0,0
-518,442,-0.493774,-5.72943,0,0,0,0,0,0,0,-1,706,582,-0.493791,5.72946
-511,442,-1.33008,-6.18512,0,0,0,0,0,0,0,-1,713,582,-1.33006,6.18511
-504,442,-3.20807,-6.34082,0,0,0,0,0,0,0,-1,720,582,-3.2081,6.34083
-497,442,-13.6886,-0.250122,0,0,0,0,0,0,0,-1,727,582,-13.6886,0.250143
-490,442,-9.09039,-3.64862,0,0,0,0,0,0,0,-1,734,582,-9.09037,3.64861
-483,442,-7.3457,-0.569519,0,0,0,0,0,0,0,-1,741,582,-7.34569,0.5695
-476,442,-4.62225,-3.47467,0,0,0,0,0,0,0,-1,748,582,-4.62225,3.47465
-469,442,-3.92621,-4.37042,0,0,0,0,0,0,0,-1,755,582,-3.92622,4.37044
-462,442,-3.70563,-5.11237,0.0067285,0.0105444,-0.0109105,0.0197126,-0.00243964,-0.87196,0.0140258,0.0381364,762,582,-3.70562,5.11234
-455,442,-3.76715,-5.45081,0.00450484,0.00817015,-0.00837237,0.0149081,-0.0022331,-0.893146,0.0107606,0.031294,769,582,-3.76716,5.4508
-448,442,-3.70404,-5.78583,0.00274294,0.00647724,-0.00620538,0.0110903,-0.00187011,-0.931535,0.00808928,0.0149699,776,582,-3.70406,5.78584
-441,442,-3.71515,-6.1272,0.00155259,0.00503637,-0.0044669,0.008089,-0.00150003,-0.971307,0.00595598,0.0142441,783,582,-3.71517,6.12718
-434,442,-3.72748,-6.45819,0.000687645,0.00350279,-0.00295484,0.00536819,-0.00117775,-1.00768,0.00402917,0.0135045,790,582,-3.7275,6.45822
-427,442,-3.74524,-6.79504,0.000156779,0.00230252,-0.00170805,0.0032467,-0.000787402,-1.06582,0.00246914,0.0132169,797,582,-3.74525,6.79505
-420,442,-3.73322,-7.13257,-0.000478832,0.00093804,-0.000442749,0.00106501,-0.000605806,-1.29151,0.000976717,0.0130144,804,582,-3.73324,7.13254
-413,442,-3.7171,-7.45306,-0.00112356,-0.000243243,0.000592931,5.50489e-05,-0.00142185,1.10469,0.00096677,0.0103345,811,582,-3.71709,7.45308
-406,442,-3.74231,-7.79126,-0.00152722,-0.00131191,0.00151453,9.87878e-05,-0.00293792,0.820878,0.00199236,0.00877758,818,582,-3.7423,7.79124
-399,442,-3.75824,-8.14624,-0.00194217,-0.00271308,0.00242979,0.000132548,-0.0047878,0.706736,0.00323695,0.00783634,825,582,-3.75824,8.14626
-392,442,-3.7464,-8.47205,-0.00254528,-0.00418154,0.00335375,8.8691e-05,-0.00681551,0.665763,0.00457352,0.0100528,832,582,-3.7464,8.47207
-385,442,-3.7453,-8.77509,-0.00328695,-0.00573895,0.00426695,-7.33654e-05,-0.00895254,0.645504,0.00594406,0.012527,839,582,-3.74531,8.77508
-378,442,-3.75372,-9.10291,-0.00418595,-0.00757934,0.00529918,-0.000318475,-0.0114468,0.630465,0.0075273,0.0131852,846,582,-3.75373,9.10291
-371,442,-3.75964,-9.46661,-0.00499725,-0.00957176,0.00627847,-0.000602386,-0.0139666,0.610719,0.00911692,0.02508,853,582,-3.75962,9.46662
-364,442,-4.03418,-9.79669,-0.00568791,-0.0118205,0.00724905,-0.000883298,-0.0166251,0.585315,0.010801,0.0420013,860,582,-4.03417,9.7967
-357,442,-4.22083,-10.118,0,0,0,0,0,0,0,-1,867,582,-4.22084,10.118
-350,442,-1.75372,-6.27618,0,0,0,0,0,0,0,-1,874,582,-1.75371,6.27618
-343,442,-1.4599,-4.63605,0,0,0,0,0,0,0,-1,881,582,-1.4599,4.63607
-336,442,-1.4054,-2.64313,0,0,0,0,0,0,0,-1,888,582,-1.40539,2.64315
-329,442,-0.952576,-2.76923,0,0,0,0,0,0,0,-1,895,582,-0.952571,2.7692
-322,442,-0.972534,-2.63208,0,0,0,0,0,0,0,-1,902,582,-0.972512,2.6321
-315,442,-0.445557,-2.89764,0,0,0,0,0,0,0,-1,909,582,-0.445582,2.89765
-308,442,-0.654175,-3.07831,0,0,0,0,0,0,0,-1,916,582,-0.654145,3.07832
-301,442,-1.37427,-2.41455,0,0,0,0,0,0,0,-1,923,582,-1.37425,2.41453
-294,442,-2.99963,-2.07855,0,0,0,0,0,0,0,-1,930,582,-2.99964,2.07857
-287,442,-5.62799,-2.76422,0,0,0,0,0,0,0,-1,937,582,-5.628,2.76424
-280,442,0,0,0,0,0,0,0,0,0,-1,944,582,0,0
-273,442,0,0,0,0,0,0,0,0,0,-1,951,582,0,0
-266,442,0,0,0,0,0,0,0,0,0,-1,958,582,0,0
-259,442,0,0,0,0,0,0,0,0,0,-1,965,582,0,0
-252,442,0,0,0,0,0,0,0,0,0,-1,972,582,0,0
-245,442,0,0,0,0,0,0,0,0,0,-1,979,582,0,0
-238,442,0,0,0,0,0,0,0,0,0,-1,986,582,0,0
-231,442,0,0,0,0,0,0,0,0,0,-1,993,582,0,0
-224,442,0,0,0,0,0,0,0,0,0,-1,1000,582,0,0
-217,442,0,0,0,0,0,0,0,0,0,-1,1007,582,0,0
-210,442,0,0,0,0,0,0,0,0,0,-1,1014,582,0,0
-203,442,0,0,0,0,0,0,0,0,0,-1,1021,582,0,0
-196,442,0,0,0,0,0,0,0,0,0,-1,1028,582,0,0
-189,442,0,0,0,0,0,0,0,0,0,-1,1035,582,0,0
-182,442,0,0,0,0,0,0,0,0,0,-1,1042,582,0,0
-175,442,0,0,0,0,0,0,0,0,0,-1,1049,582,0,0
-168,442,0,0,0,0,0,0,0,0,0,-1,1056,582,0,0
-161,442,0,0,0,0,0,0,0,0,0,-1,1063,582,0,0
-154,442,0,0,0,0,0,0,0,0,0,-1,1070,582,0,0
-147,442,0,0,0,0,0,0,0,0,0,-1,1077,582,0,0
-140,442,0,0,0,0,0,0,0,0,0,-1,1084,582,0,0
-133,442,0,0,0,0,0,0,0,0,0,-1,1091,582,0,0
-126,442,0,0,0,0,0,0,0,0,0,-1,1098,582,0,0
-119,442,0,0,0,0,0,0,0,0,0,-1,1105,582,0,0
-112,442,0,0,0,0,0,0,0,0,0,-1,1112,582,0,0
-105,442,0,0,0,0,0,0,0,0,0,-1,1119,582,0,0
-98,442,0,0,0,0,0,0,0,0,0,-1,1126,582,0,0
-91,442,0,0,0,0,0,0,0,0,0,-1,1133,582,0,0
-84,442,0,0,0,0,0,0,0,0,0,-1,1140,582,0,0
-77,442,0,0,0,0,0,0,0,0,0,-1,1147,582,0,0
-70,442,0,0,0,0,0,0,0,0,0,-1,1154,582,0,0
-63,442,0,0,0,0,0,0,0,0,0,-1,1161,582,0,0
-56,442,0,0,0,0,0,0,0,0,0,-1,1168,582,0,0
-49,442,0,0,0,0,0,0,0,0,0,-1,1175,582,0,0
-42,442,0,0,0,0,0,0,0,0,0,-1,1182,582,0,0
-35,442,0,0,0,0,0,0,0,0,0,-1,1189,582,0,0
-28,442,0,0,0,0,0,0,0,0,0,-1,1196,582,0,0
-21,442,0,0,0,0,0,0,0,0,0,-1,1203,582,0,0
-14,442,0,0,0,0,0,0,0,0,0,-1,1210,582,0,0
-7,442,0,0,0,0,0,0,0,0,0,-1,1217,582,0,0
0,442,0,0,0,0,0,0,0,0,0,-1,1224,582,0,0
7,442,0,0,0,0,0,0,0,0,0,-1,1231,582,0,0
14,442,0,0,0,0,0,0,0,0,0,-1,1238,582,0,0
21,442,0,0,0,0,0,0,0,0,0,-1,1245,582,0,0
28,442,0,0,0,0,0,0,0,0,0,-1,1252,582,0,0
35,442,0,0,0,0,0,0,0,0,0,-1,1259,582,0,0
42,442,0,0,0,0,0,0,0,0,0,-1,1266,582,0,0
49,442,0,0,0,0,0,0,0,0,0,-1,1273,582,0,0
56,442,0,0,0,0,0,0,0,0,0,-1,1280,582,0,0
63,442,0,0,0,0,0,0,0,0,0,-1,1287,582,0,0
70,442,0,0,0,0,0,0,0,0,0,-1,1294,582,0,0
77,442,0,0,0,0,0,0,0,0,0,-1,1301,582,0,0
84,442,0,0,0,0,0,0,0,0,0,-1,1308,582,0,0
91,442,0,0,0,0,0,0,0,0,0,-1,1315,582,0,0
98,442,0,0,0,0,0,0,0,0,0,-1,1322,582,0,0
105,442,0,0,0,0,0,0,0,0,0,-1,1329,582,0,0
112,442,0,0,0,0,0,0,0,0,0,-1,1336,582,0,0
119,442,0,0,0,0,0,0,0,0,0,-1,1343,582,0,0
126,442,0,0,0,0,0,0,0,0,0,-1,1350,582,0,0
133,442,0,0,0,0,0,0,0,0,0,-1,1357,582,0,0
140,442,0,0,0,0,0,0,0,0,0,-1,1364,582,0,0
147,442,0,0,0,0,0,0,0,0,0,-1,1371,582,0,0
154,442,0,0,0,0,0,0,0,0,0,-1,1378,582,0,0
161,442,0,0,0,0,0,0,0,0,0,-1,1385,582,0,0
168,442,0,0,0,0,0,0,0,0,0,-1,1392,582,0,0
175,442,0,0,0,0,0,0,0,0,0,-1,1399,582,0,0
182,442,0,0,0,0,0,0,0,0,0,-1,1406,582,0,0
189,442,0,0,0,0,0,0,0,0,0,-1,1413,582,0,0
196,442,0,0,0,0,0,0,0,0,0,-1,1420,582,0,0
203,442,0,0,0,0,0,0,0,0,0,-1,1427,582,0,0
210,442,0,0,0,0,0,0,0,0,0,-1,1434,582,0,0
217,442,0,0,0,0,0,0,0,0,0,-1,1441,582,0,0
224,442,0,0,0,0,0,0,0,0,0,-1,1448,582,0,0
231,442,0,0,0,0,0,0,0,0,0,-1,1455,582,0,0
238,442,0,0,0,0,0,0,0,0,0,-1,1462,582,0,0
245,442,0,0,0,0,0,0,0,0,0,-1,1469,582,0,0
252,442,0,0,0,0,0,0,0,0,0,-1,1476,582,0,0
259,442,0,0,0,0,0,0,0,0,0,-1,1483,582,0,0
266,442,0,0,0,0,0,0,0,0,0,-1,1490,582,0,0
273,442,0,0,0,0,0,0,0,0,0,-1,1497,582,0,0
280,442,0,0,0,0,0,0,0,0,0,-1,1504,582,0,0
287,442,0,0,0,0,0,0,0,0,0,-1,1511,582,0,0
294,442,0,0,0,0,0,0,0,0,0,-1,1518,582,0,0
301,442,0,0,0,0,0,0,0,0,0,-1,1525,582,0,0
308,442,0,0,0,0,0,0,0,0,0,-1,1532,582,0,0
315,442,0,0,0,0,0,0,0,0,0,-1,1539,582,0,0
322,442,0,0,0,0,0,0,0,0,0,-1,1546,582,0,0
329,442,0,0,0,0,0,0,0,0,0,-1,1553,582,0,0
336,442,0,0,0,0,0,0,0,0,0,-1,1560,582,0,0
343,442,0,0,0,0,0,0,0,0,0,-1,1567,582,0,0
350,442,0,0,0,0,0,0,0,0,0,-1,1574,582,0,0
357,442,0,0,0,0,0,0,0,0,0,-1,1581,582,0,0
364,442,0,0,0,0,0,0,0,0,0,-1,1588,582,0,0
371,442,0,0,0,0,0,0,0,0,0,-1,1595,582,0,0
378,442,0,0,0,0,0,0,0,0,0,-1,1602,582,0,0
385,442,0,0,0,0,0,0,0,0,0,-1,1609,582,0,0
392,442,0,0,0,0,0,0,0,0,0,-1,1616,582,0,0
399,442,0,0,0,0,0,0,0,0,0,-1,1623,582,0,0
406,442,17.6321,4.08295,0,0,0,0,0,0,0,-1,1630,582,17.6321,-4.08293
413,442,22.1273,3.56525,0,0,0,0,0,0,0,-1,1637,582,22.1273,-3.56525
420,442,22.7478,1.55011,0,0,0,0,0,0,0,-1,1644,582,22.7478,-1.55009
427,442,23.2969,-0.456787,0,0,0,0,0,0,0,-1,1651,582,23.2968,0.456769
434,442,23.9512,-2.49365,0,0,0,0,0,0,0,-1,1658,582,23.9512,2.49366
441,442,24.8251,-4.43958,0,0,0,0,0,0,0,-1,1665,582,24.8251,4.43956
448,442,4.7749,-5.88562,0,0,0,0,0,0,0,-1,1672,582,4.7749,5.8856
455,442,4.87024,-4.60687,0,0,0,0,0,0,0,-1,1679,582,4.87019,4.60686
462,442,5.02307,-3.72821,0,0,0,0,0,0,0,-1,1686,582,5.02311,3.7282
469,442,5.12976,-2.98834,0,0,0,0,0,0,0,-1,1693,582,5.12971,2.98834
476,442,5.4624,1.76947,0,0,0,0,0,0,0,-1,1700,582,5.46234,-1.76944
483,442,5.98486,1.87042,0,0,0,0,0,0,0,-1,1707,582,5.98492,-1.87045
490,442,5.04407,-2.35834,0,0,0,0,0,0,0,-1,1714,582,5.04411,2.35837
497,442,6.20984,-3.07831,0,0,0,0,0,0,0,-1,1721,582,6.2098,3.07833
504,442,10.5503,-7.67322,0,0,0,0,0,0,0,-1,1728,582,10.5503,7.67319
511,442,10.6437,-7.31799,0.00540565,0.00288321,0.0032493,0.00762991,0.000658943,0.600273,0.00488181,0.0277257,1735,582,10.6437,7.31797
518,442,10.7205,-6.91382,0.00439962,0.00218294,0.00268345,0.00619461,0.000387956,0.589554,0.00400669,0.0126985,1742,582,10.7205,6.91381
525,442,10.6897,-6.56586,0.00342905,0.00179737,0.00220196,0.00496145,0.000264965,0.607985,0.00322294,0.0110682,1749,582,10.6897,6.56588
532,442,10.6882,-6.2149,0.00254352,0.0014117,0.0017605,0.00382683,0.000128395,0.62989,0.00250952,0.0110115,1756,582,10.6882,6.21488
539,442,10.6719,-5.84747,0.00178364,0.00099724,0.00132354,0.00277115,9.7286e-06,0.641009,0.0018442,0.0114528,1763,582,10.6719,5.84746
546,442,10.6775,-5.51666,0.00119416,0.000785799,0.00101957,0.00202979,-4.98315e-05,0.686574,0.00137011,0.0143285,1770,582,10.6775,5.51669
553,442,10.6613,-5.15674,0.000650781,0.000605994,0.000762156,0.00139087,-0.000134097,0.770711,0.000975026,0.0157899,1777,582,10.6613,5.15673
560,442,10.67,-4.78149,0.000133953,0.000441752,0.000530331,0.000840063,-0.000264358,0.926617,0.000665888,0.0150682,1784,582,10.6701,4.7815
567,442,10.6642,-4.41864,-0.000280851,0.000342399,0.000390078,0.000530044,-0.000468497,1.12243,0.000576873,0.0111697,1791,582,10.6642,4.41867
574,442,10.6573,-4.05267,-0.000672764,0.000274552,0.000298853,0.000360952,-0.000759164,1.28936,0.000660181,0.0133195,1798,582,10.6573,4.05264
581,442,10.7026,-3.64539,-0.00105248,0.000337084,0.000355904,0.000422936,-0.00113833,1.33409,0.000932406,0.0223805,1805,582,10.7026,3.64539
588,442,10.7496,-3.30237,0,0,0,0,0,0,0,-1,1812,582,10.7496,3.30238
595,442,10.7328,-2.78357,0,0,0,0,0,0,0,-1,1819,582,10.7328,2.78357
602,442,10.969,-1.8573,0,0,0,0,0,0,0,-1,1826,582,10.969,1.85728
609,442,12.761,2.97223,0,0,0,0,0,0,0,-1,1833,582,12.761,-2.97221
616,442,9.78345,-0.103394,0,0,0,0,0,0,0,-1,1840,582,9.78341,0.103424
623,442,9.23828,0.326721,0,0,0,0,0,0,0,-1,1847,582,9.23829,-0.326727
630,442,7.74304,2.3924,0,0,0,0,0,0,0,-1,1854,582,7.7431,-2.39238
637,442,5.87805,1.84027,0,0,0,0,0,0,0,-1,1861,582,5.87807,-1.84025
644,442,0,0,0,0,0,0,0,0,0,-1,1868,582,0,0
651,442,0,0,0,0,0,0,0,0,0,-1,1875,582,0,0
658,442,0,0,0,0,0,0,0,0,0,-1,1882,582,0,0
665,442,0,0,0,0,0,0,0,0,0,-1,1889,582,0,0
672,442,0,0,0,0,0,0,0,0,0,-1,1896,582,0,0
679,442,0,0,0,0,0,0,0,0,0,-1,1903,582,0,0
686,442,0,0,0,0,0,0,0,0,0,-1,1910,582,0,0
693,442,0,0,0,0,0,0,0,0,0,-1,1917,582,0,0
700,442,0,0,0,0,0,0,0,0,0,-1,1924,582,0,0
707,442,0,0,0,0,0,0,0,0,0,-1,1931,582,0,0
714,442,0,0,0,0,0,0,0,0,0,-1,1938,582,0,0
721,442,0,0,0,0,0,0,0,0,0,-1,1945,582,0,0
728,442,0,0,0,0,0,0,0,0,0,-1,1952,582,0,0
735,442,0,0,0,0,0,0,0,0,0,-1,1959,582,0,0
742,442,0,0,0,0,0,0,0,0,0,-1,1966,582,0,0
749,442,0,0,0,0,0,0,0,0,0,-1,1973,582,0,0
756,442,0,0,0,0,0,0,0,0,0,-1,1980,582,0,0
763,442,0,0,0,0,0,0,0,0,0,-1,1987,582,0,0
770,442,0,0,0,0,0,0,0,0,0,-1,1994,582,0,0
777,442,0,0,0,0,0,0,0,0,0,-1,2001,582,0,0
784,442,0,0,0,0,0,0,0,0,0,-1,2008,582,0,0
791,442,0,0,0,0,0,0,0,0,0,-1,2015,582,0,0
798,442,0,0,0,0,0,0,0,0,0,-1,2022,582,0,0
805,442,0,0,0,0,0,0,0,0,0,-1,2029,582,0,0
812,442,0,0,0,0,0,0,0,0,0,-1,2036,582,0,0
-700,435,0,0,0,0,0,0,0,0,0,-1,524,589,0,0
-693,435,0,0,0,0,0,0,0,0,0,-1,531,589,0,0
-686,435,0,0,0,0,0,0,0,0,0,-1,538,589,0,0
-679,435,0,0,0,0,0,0,0,0,0,-1,545,589,0,0
-672,435,0,0,0,0,0,0,0,0,0,-1,552,589,0,0
-665,435,0,0,0,0,0,0,0,0,0,-1,559,589,0,0
-658,435,0,0,0,0,0,0,0,0,0,-1,566,589,0,0
-651,435,0,0,0,0,0,0,0,0,0,-1,573,589,0,0
-644,435,0,0,0,0,0,0,0,0,0,-1,580,589,0,0
-637,435,0,0,0,0,0,0,0,0,0,-1,587,589,0,0
-630,435,0,0,0,0,0,0,0,0,0,-1,594,589,0,0
-623,435,0,0,0,0,0,0,0,0,0,-1,601,589,0,0
-616,435,0,0,0,0,0,0,0,0,0,-1,608,589,0,0
-609,435,0,0,0,0,0,0,0,0,0,-1,615,589,0,0
-602,435,0,0,0,0,0,0,0,0,0,-1,622,589,0,0
-595,435,0,0,0,0,0,0,0,0,0,-1,629,589,0,0
-588,435,0,0,0,0,0,0,0,0,0,-1,636,589,0,0
-581,435,0,0,0,0,0,0,0,0,0,-1,643,589,0,0
-574,435,0,0,0,0,0,0,0,0,0,-1,650,589,0,0
-567,435,0,0,0,0,0,0,0,0,0,-1,657,589,0,0
-560,435,0,0,0,0,0,0,0,0,0,-1,664,589,0,0
-553,435,0,0,0,0,0,0,0,0,0,-1,671,589,0,0
-546,435,0,0,0,0,0,0,0,0,0,-1,678,589,0,0
-539,435,0,0,0,0,0,0,0,0,0,-1,685,589,0,0
-532,435,0,0,0,0,0,0,0,0,0,-1,692,589,0,0
-525,435,-10.0776,10.0547,0,0,0,0,0,0,0,-1,699,589,-10.0776,-10.0547
-518,435,-1.83093,-5.82367,0,0,0,0,0,0,0,-1,706,589,-1.83093,5.8237
-511,435,-2.45154,-5.33118,0,0,0,0,0,0,0,-1,713,589,-2.45151,5.33115
-504,435,-3.07208,-4.83862,0,0,0,0,0,0,0,-1,720,589,-3.0721,4.8386
-497,435,-6.31012,-5.84698,0,0,0,0,0,0,0,-1,727,589,-6.31012,5.84697
-490,435,-5.81903,-0.458679,0,0,0,0,0,0,0,-1,734,589,-5.81902,0.458684
-483,435,-6.2019,-1.34552,0,0,0,0,0,0,0,-1,741,589,-6.20193,1.34554
-476,435,-4.26593,-4.00867,0,0,0,0,0,0,0,-1,748,589,-4.26595,4.00867
-469,435,-4.10107,-4.50311,0.00845054,0.0107851,-0.0112903,0.0209683,-0.00173267,-0.836908,0.0145907,0.0316583,755,589,-4.10105,4.50314
-462,435,-3.96704,-5.07098,0.00598213,0.00848292,-0.0087499,0.0160713,-0.00160627,-0.85637,0.0112878,0.0174265,762,589,-3.96704,5.07098
-455,435,-4.04871,-5.3855,0.00415189,0.00648039,-0.00672187,0.0121381,-0.00150581,-0.871149,0.00863785,0.0164113,769,589,-4.04869,5.38549
-448,435,-4.04913,-5.76611,0.00263369,0.00500687,-0.00490119,0.00886306,-0.0012225,-0.904164,0.00635552,0.0129839,776,589,-4.04912,5.7661
-441,435,-4.04865,-6.1142,0.0015106,0.00380931,-0.00338932,0.00623885,-0.000918943,-0.948869,0.00449696,0.0114117,783,589,-4.04867,6.11422
-434,435,-4.06458,-6.44415,0.000626982,0.00242587,-0.00201115,0.00372954,-0.000676687,-0.995672,0.00273992,0.0125857,790,589,-4.06458,6.44415
-427,435,-4.07416,-6.79565,2.29843e-05,0.00127069,-0.000808216,0.00166782,-0.000374146,-1.11408,0.00125532,0.0101642,797,589,-4.07415,6.79566
-420,435,-4.05109,-7.12073,-0.000703374,-6.35684e-05,0.000426527,0.000149692,-0.000916635,1.10715,0.000666613,0.0101371,804,589,-4.05107,7.12073
-413,435,-4.04858,-7.45026,-0.00150621,-0.00129072,0.00149977,0.000105171,-0.0029021,0.821257,0.00197073,0.0100602,811,589,-4.04858,7.45027
-406,435,-4.06946,-7.784,-0.00208993,-0.00245845,0.00250455,0.000237124,-0.0047855,0.748679,0.00327224,0.0101849,818,589,-4.06945,7.78402
-399,435,-4.09198,-8.12445,-0.00272674,-0.00401941,0.00354284,0.00022824,-0.00697439,0.695174,0.00472751,0.00854087,825,589,-4.09198,8.12445
-392,435,-4.09241,-8.46271,-0.0036155,-0.0056458,0.0045924,7.26101e-05,-0.0093339,0.676622,0.00624695,0.00988478,832,589,-4.0924,8.46274
-385,435,-4.07605,-8.78033,-0.00474269,-0.0075562,0.00573272,-0.000246642,-0.0120522,0.665081,0.00795389,0.0137204,839,589,-4.07607,8.78034
-378,435,-4.07855,-9.05359,-0.00618123,-0.00992901,0.00711448,-0.000697997,-0.0154122,0.656627,0.0100502,0.0244509,846,589,-4.07857,9.05357
-371,435,-4.20789,-9.19525,-0.00759139,-0.0126209,0.00852472,-0.00121825,-0.0189941,0.641968,0.0122768,0.0434215,853,589,-4.2079,9.19523
-364,435,-4.54102,-9.46021,-0.0089659,-0.0157933,0.0100038,-0.00180935,-0.0229498,0.620975,0.0147338,0.0482614,860,589,-4.54099,9.46021
-357,435,-4.72668,-9.84155,0,0,0,0,0,0,0,-1,867,589,-4.72666,9.84155
-350,435,-0.86676,-3.69836,0,0,0,0,0,0,0,-1,874,589,-0.866784,3.69834
-343,435,-1.60706,-2.36835,0,0,0,0,0,0,0,-1,881,589,-1.60706,2.36838
-336,435,-2.07263,-1.94012,0,0,0,0,0,0,0,-1,888,589,-2.07265,1.94014
-329,435,-2.55963,-1.5517,0,0,0,0,0,0,0,-1,895,589,-2.5596,1.55168
-322,435,-3.08545,-1.55255,0,0,0,0,0,0,0,-1,902,589,-3.08544,1.55254
-315,435,-0.404297,-2.63763,0,0,0,0,0,0,0,-1,909,589,-0.404276,2.63761
-308,435,-1.70056,-1.90369,0,0,0,0,0,0,0,-1,916,589,-1.70056,1.90367
-301,435,-1.25232,-2.05511,0,0,0,0,0,0,0,-1,923,589,-1.25234,2.05514
-294,435,-1.79974,-1.97321,0,0,0,0,0,0,0,-1,930,589,-1.79973,1.97322
-287,435,0,0,0,0,0,0,0,0,0,-1,937,589,0,0
-280,435,0,0,0,0,0,0,0,0,0,-1,944,589,0,0
-273,435,0,0,0,0,0,0,0,0,0,-1,951,589,0,0
-266,435,0,0,0,0,0,0,0,0,0,-1,958,589,0,0
-259,435,0,0,0,0,0,0,0,0,0,-1,965,589,0,0
-252,435,0,0,0,0,0,0,0,0,0,-1,972,589,0,0
-245,435,0,0,0,0,0,0,0,0,0,-1,979,589,0,0
-238,435,0,0,0,0,0,0,0,0,0,-1,986,589,0,0
-231,435,0,0,0,0,0,0,0,0,0,-1,993,589,0,0
-224,435,0,0,0,0,0,0,0,0,0,-1,1000,589,0,0
-217,435,0,0,0,0,0,0,0,0,0,-1,1007,589,0,0
-210,435,0,0,0,0,0,0,0,0,0,-1,1014,589,0,0
-203,435,0,0,0,0,0,0,0,0,0,-1,1021,589,0,0
-196,435,0,0,0,0,0,0,0,0,0,-1,1028,589,0,0
-189,435,0,0,0,0,0,0,0,0,0,-1,1035,589,0,0
-182,435,0,0,0,0,0,0,0,0,0,-1,1042,589,0,0
-175,435,0,0,0,0,0,0,0,0,0,-1,1049,589,0,0
-168,435,0,0,0,0,0,0,0,0,0,-1,1056,589,0,0
-161,435,0,0,0,0,0,0,0,0,0,-1,1063,589,0,0
-154,435,0,0,0,0,0,0,0,0,0,-1,1070,589,0,0
-147,435,0,0,0,0,0,0,0,0,0,-1,1077,589,0,0
-140,435,0,0,0,0,0,0,0,0,0,-1,1084,589,0,0
-133,435,0,0,0,0,0,0,0,0,0,-1,1091,589,0,0
-126,435,0,0,0,0,0,0,0,0,0,-1,1098,589,0,0
-119,435,0,0,0,0,0,0,0,0,0,-1,1105,589,0,0
-112,435,0,0,0,0,0,0,0,0,0,-1,1112,589,0,0
-105,435,0,0,0,0,0,0,0,0,0,-1,1119,589,0,0
-98,435,0,0,0,0,0,0,0,0,0,-1,1126,589,0,0
-91,435,0,0,0,0,0,0,0,0,0,-1,1133,589,0,0
-84,435,0,0,0,0,0,0,0,0,0,-1,1140,589,0,0
-77,435,0,0,0,0,0,0,0,0,0,-1,1147,589,0,0
-70,435,0,0,0,0,0,0,0,0,0,-1,1154,589,0,0
-63,435,0,0,0,0,0,0,0,0,0,-1,1161,589,0,0
-56,435,0,0,0,0,0,0,0,0,0,-1,1168,589,0,0
-49,435,0,0,0,0,0,0,0,0,0,-1,1175,589,0,0
-42,435,0,0,0,0,0,0,0,0,0,-1,1182,589,0,0
-35,435,0,0,0,0,0,0,0,0,0,-1,1189,589,0,0
-28,435,0,0,0,0,0,0,0,0,0,-1,1196,589,0,0
-21,435,0,0,0,0,0,0,0,0,0,-1,1203,589,0,0
-14,435,0,0,0,0,0,0,0,0,0,-1,1210,589,0,0
-7,435,0,0,0,0,0,0,0,0,0,-1,1217,589,0,0
0,435,0,0,0,0,0,0,0,0,0,-1,1224,589,0,0
7,435,0,0,0,0,0,0,0,0,0,-1,1231,589,0,0
14,435,0,0,0,0,0,0,0,0,0,-1,1238,589,0,0
21,435,0,0,0,0,0,0,0,0,0,-1,1245,589,0,0
28,435,0,0,0,0,0,0,0,0,0,-1,1252,589,0,0
35,435,0,0,0,0,0,0,0,0,0,-1,1259,589,0,0
42,435,0,0,0,0,0,0,0,0,0,-1,1266,589,0,0
49,435,0,0,0,0,0,0,0,0,0,-1,1273,589,0,0
56,435,0,0,0,0,0,0,0,0,0,-1,1280,589,0,0
63,435,0,0,0,0,0,0,0,0,0,-1,1287,589,0,0
70,435,0,0,0,0,0,0,0,0,0,-1,1294,589,0,0
77,435,0,0,0,0,0,0,0,0,0,-1,1301,589,0,0
84,435,0,0,0,0,0,0,0,0,0,-1,1308,589,0,0
91,435,0,0,0,0,0,0,0,0,0,-1,1315,589,0,0
98,435,0,0,0,0,0,0,0,0,0,-1,1322,589,0,0
105,435,0,0,0,0,0,0,0,0,0,-1,1329,589,0,0
112,435,0,0,0,0,0,0,0,0,0,-1,1336,589,0,0
119,435,0,0,0,0,0,0,0,0,0,-1,1343,589,0,0
126,435,0,0,0,0,0,0,0,0,0,-1,1350,589,0,0
133,435,0,0,0,0,0,0,0,0,0,-1,1357,589,0,0
140,435,0,0,0,0,0,0,0,0,0,-1,1364,589,0,0
147,435,0,0,0,0,0,0,0,0,0,-1,1371,589,0,0
154,435,0,0,0,0,0,0,0,0,0,-1,1378,589,0,0
161,435,0,0,0,0,0,0,0,0,0,-1,1385,589,0,0
168,435,0,0,0,0,0,0,0,0,0,-1,1392,589,0,0
175,435,0,0,0,0,0,0,0,0,0,-1,1399,589,0,0
182,435,0,0,0,0,0,0,0,0,0,-1,1406,589,0,0
189,435,0,0,0,0,0,0,0,0,0,-1,1413,589,0,0
196,435,0,0,0,0,0,0,0,0,0,-1,1420,589,0,0
203,435,0,0,0,0,0,0,0,0,0,-1,1427,589,0,0
210,435,0,0,0,0,0,0,0,0,0,-1,1434,589,0,0
217,435,0,0,0,0,0,0,0,0,0,-1,1441,589,0,0
224,435,0,0,0,0,0,0,0,0,0,-1,1448,589,0,0
231,435,0,0,0,0,0,0,0,0,0,-1,1455,589,0,0
238,435,0,0,0,0,0,0,0,0,0,-1,1462,589,0,0
245,435,0,0,0,0,0,0,0,0,0,-1,1469,589,0,0
252,435,0,0,0,0,0,0,0,0,0,-1,1476,589,0,0
259,435,0,0,0,0,0,0,0,0,0,-1,1483,589,0,0
266,435,0,0,0,0,0,0,0,0,0,-1,1490,589,0,0
273,435,0,0,0,0,0,0,0,0,0,-1,1497,589,0,0
280,435,0,0,0,0,0,0,0,0,0,-1,1504,589,0,0
287,435,0,0,0,0,0,0,0,0,0,-1,1511,589,0,0
294,435,0,0,0,0,0,0,0,0,0,-1,1518,589,0,0
301,435,0,0,0,0,0,0,0,0,0,-1,1525,589,0,0
308,435,0,0,0,0,0,0,0,0,0,-1,1532,589,0,0
315,435,0,0,0,0,0,0,0,0,0,-1,1539,589,0,0
322,435,0,0,0,0,0,0,0,0,0,-1,1546,589,0,0
329,435,0,0,0,0,0,0,0,0,0,-1,1553,589,0,0
336,435,0,0,0,0,0,0,0,0,0,-1,1560,589,0,0
343,435,0,0,0,0,0,0,0,0,0,-1,1567,589,0,0
350,435,0,0,0,0,0,0,0,0,0,-1,1574,589,0,0
357,435,0,0,0,0,0,0,0,0,0,-1,1581,589,0,0
364,435,0,0,0,0,0,0,0,0,0,-1,1588,589,0,0
371,435,0,0,0,0,0,0,0,0,0,-1,1595,589,0,0
378,435,0,0,0,0,0,0,0,0,0,-1,1602,589,0,0
385,435,0,0,0,0,0,0,0,0,0,-1,1609,589,0,0
392,435,0,0,0,0,0,0,0,0,0,-1,1616,589,0,0
399,435,0,0,0,0,0,0,0,0,0,-1,1623,589,0,0
406,435,0,0,0,0,0,0,0,0,0,-1,1630,589,0,0
413,435,20.4565,3.49835,0,0,0,0,0,0,0,-1,1637,589,20.4565,-3.49836
420,435,21.4015,1.49609,0,0,0,0,0,0,0,-1,1644,589,21.4015,-1.49609
427,435,22.0464,-0.373962,0,0,0,0,0,0,0,-1,1651,589,22.0464,0.373972
434,435,22.1863,-1.54407,0,0,0,0,0,0,0,-1,1658,589,22.1862,1.54405
441,435,22.3992,-2.38287,0,0,0,0,0,0,0,-1,1665,589,22.3992,2.38289
448,435,7.4585,-0.00292969,0,0,0,0,0,0,0,-1,1672,589,7.45848,0.00294131
455,435,5.49915,-5.047,0,0,0,0,0,0,0,-1,1679,589,5.49914,5.04703
462,435,5.60669,-4.71466,0,0,0,0,0,0,0,-1,1686,589,5.60675,4.71469
469,435,5.87708,1.22351,0,0,0,0,0,0,0,-1,1693,589,5.87703,-1.22351
476,435,6.14136,1.37714,0,0,0,0,0,0,0,-1,1700,589,6.14138,-1.37712
483,435,6.49243,1.36169,0,0,0,0,0,0,0,-1,1707,589,6.49242,-1.36171
490,435,4.38391,-1.36218,0,0,0,0,0,0,0,-1,1714,589,4.38389,1.3622
497,435,7.23499,-3.64551,0,0,0,0,0,0,0,-1,1721,589,7.23495,3.64551
504,435,7.31189,-3.75909,0,0,0,0,0,0,0,-1,1728,589,7.31184,3.75911
511,435,10.9329,-7.36298,0,0,0,0,0,0,0,-1,1735,589,10.9329,7.36298
518,435,11.0708,-6.93176,0.00532688,0.00242073,0.00330327,0.00748254,0.000265067,0.578191,0.0049024,0.0240744,1742,589,11.0709,6.93176
525,435,11.0537,-6.54657,0.0041615,0.00202727,0.00266941,0.00596919,0.00021959,0.59525,0.00390832,0.0124572,1749,589,11.0537,6.54656
532,435,11.0728,-6.19104,0.00311892,0.00157969,0.0020752,0.00456262,0.000135989,0.60783,0.00299745,0.0137809,1756,589,11.0727,6.19102
539,435,11.0693,-5.83337,0.00224848,0.00113567,0.00151361,0.00330471,7.94351e-05,0.609266,0.00217715,0.0156813,1763,589,11.0694,5.83334
546,435,11.0334,-5.49359,0.00158373,0.000896958,0.0011208,0.00241257,6.81211e-05,0.63675,0.00158616,0.0148312,1770,589,11.0334,5.49357
553,435,11.0228,-5.15503,0.000993887,0.000677898,0.000802159,0.00165346,1.83226e-05,0.688162,0.00109625,0.0108239,1777,589,11.0228,5.15505
560,435,11.0197,-4.78857,0.000443371,0.000495621,0.000533788,0.00100392,-6.49302e-05,0.80985,0.000691942,0.00979644,1784,589,11.0196,4.7886
567,435,11.0327,-4.40295,8.31661e-06,0.000403987,0.000378868,0.000633563,-0.000221259,1.02601,0.00051231,0.00935784,1791,589,11.0327,4.40295
574,435,11.0168,-4.05048,-0.000334076,0.000378298,0.000307632,0.000492756,-0.000448533,1.2146,0.000543654,0.0101609,1798,589,11.0169,4.05047
581,435,10.9998,-3.71082,-0.000607697,0.000473001,0.000386499,0.000597,-0.000731696,1.26034,0.000768436,0.0166594,1805,589,10.9998,3.71079
588,435,10.9897,-3.36224,-0.00076985,0.000692223,0.000601735,0.000908023,-0.00098565,1.22645,0.00109362,0.0272338,1812,589,10.9897,3.36223
595,435,10.913,-2.98792,-0.000862423,0.00122129,0.000974786,0.00160621,-0.00124734,1.19472,0.00165183,0.0299514,1819,589,10.9129,2.98793
602,435,10.9232,-2.62561,0,0,0,0,0,0,0,-1,1826,589,10.9232,2.62563
609,435,10.941,-1.83826,0,0,0,0,0,0,0,-1,1833,589,10.9411,1.83828
616,435,5.05151,-2.75269,0,0,0,0,0,0,0,-1,1840,589,5.05157,2.7527
623,435,11.7588,3.9704,0,0,0,0,0,0,0,-1,1847,589,11.7587,-3.97043
630,435,4.72742,-0.87561,0,0,0,0,0,0,0,-1,1854,589,4.7274,0.875636
637,435,5.05286,1.48792,0,0,0,0,0,0,0,-1,1861,589,5.05291,-1.48792
644,435,0,0,0,0,0,0,0,0,0,-1,1868,589,0,0
651,435,0,0,0,0,0,0,0,0,0,-1,1875,589,0,0
658,435,0,0,0,0,0,0,0,0,0,-1,1882,589,0,0
665,435,0,0,0,0,0,0,0,0,0,-1,1889,589,0,0
672,435,0,0,0,0,0,0,0,0,0,-1,1896,589,0,0
679,435,0,0,0,0,0,0,0,0,0,-1,1903,589,0,0
686,435,0,0,0,0,0,0,0,0,0,-1,1910,589,0,0
693,435,0,0,0,0,0,0,0,0,0,-1,1917,589,0,0
700,435,0,0,0,0,0,0,0,0,0,-1,1924,589,0,0
707,435,0,0,0,0,0,0,0,0,0,-1,1931,589,0,0
714,435,0,0,0,0,0,0,0,0,0,-1,1938,589,0,0
721,435,0,0,0,0,0,0,0,0,0,-1,1945,589,0,0
728,435,0,0,0,0,0,0,0,0,0,-1,1952,589,0,0
735,435,0,0,0,0,0,0,0,0,0,-1,1959,589,0,0
742,435,0,0,0,0,0,0,0,0,0,-1,1966,589,0,0
749,435,0,0,0,0,0,0,0,0,0,-1,1973,589,0,0
756,435,0,0,0,0,0,0,0,0,0,-1,1980,589,0,0
763,435,0,0,0,0,0,0,0,0,0,-1,1987,589,0,0
770,435,0,0,0,0,0,0,0,0,0,-1,1994,589,0,0
777,435,0,0,0,0,0,0,0,0,0,-1,2001,589,0,0
784,435,0,0,0,0,0,0,0,0,0,-1,2008,589,0,0
791,435,0,0,0,0,0,0,0,0,0,-1,2015,589,0,0
798,435,0,0,0,0,0,0,0,0,0,-1,2022,589,0,0
805,435,0,0,0,0,0,0,0,0,0,-1,2029,589,0,0
812,435,0,0,0,0,0,0,0,0,0,-1,2036,589,0,0
-700,428,0,0,0,0,0,0,0,0,0,-1,524,596,0,0
-693,428,0,0,0,0,0,0,0,0,0,-1,531,596,0,0
-686,428,0,0,0,0,0,0,0,0,0,-1,538,596,0,0
-679,428,0,0,0,0,0,0,0,0,0,-1,545,596,0,0
-672,428,0,0,0,0,0,0,0,0,0,-1,552,596,0,0
-665,428,0,0,0,0,0,0,0,0,0,-1,559,596,0,0
-658,428,0,0,0,0,0,0,0,0,0,-1,566,596,0,0
-651,428,0,0,0,0,0,0,0,0,0,-1,573,596,0,0
-644,428,0,0,0,0,0,0,0,0,0,-1,580,596,0,0
-637,428,0,0,0,0,0,0,0,0,0,-1,587,596,0,0
-630,428,0,0,0,0,0,0,0,0,0,-1,594,596,0,0
-623,428,0,0,0,0,0,0,0,0,0,-1,601,596,0,0
-616,428,0,0,0,0,0,0,0,0,0,-1,608,596,0,0
-609,428,0,0,0,0,0,0,0,0,0,-1,615,596,0,0
-602,428,0,0,0,0,0,0,0,0,0,-1,622,596,0,0
-595,428,0,0,0,0,0,0,0,0,0,-1,629,596,0,0
-588,428,0,0,0,0,0,0,0,0,0,-1,636,596,0,0
-581,428,0,0,0,0,0,0,0,0,0,-1,643,596,0,0
-574,428,0,0,0,0,0,0,0,0,0,-1,650,596,0,0
-567,428,0,0,0,0,0,0,0,0,0,-1,657,596,0,0
-560,428,0,0,0,0,0,0,0,0,0,-1,664,596,0,0
-553,428,0,0,0,0,0,0,0,0,0,-1,671,596,0,0
-546,428,0,0,0,0,0,0,0,0,0,-1,678,596,0,0
-539,428,0,0,0,0,0,0,0,0,0,-1,685,596,0,0
-532,428,0,0,0,0,0,0,0,0,0,-1,692,596,0,0
-525,428,-9.59918,7.58618,0,0,0,0,0,0,0,-1,699,596,-9.59918,-7.5862
-518,428,-2.92285,-4.81854,0,0,0,0,0,0,0,-1,706,596,-2.92285,4.81856
-511,428,-3.68811,-4.79474,0,0,0,0,0,0,0,-1,713,596,-3.68811,4.79474
-504,428,-4.45337,-4.77094,0,0,0,0,0,0,0,-1,720,596,-4.45337,4.77092
-497,428,-2.85516,-3.52179,0,0,0,0,0,0,0,-1,727,596,-2.85517,3.52181
-490,428,-4.45392,-1.88556,0,0,0,0,0,0,0,-1,734,596,-4.45389,1.88555
-483,428,-5.4823,-3.19257,0,0,0,0,0,0,0,-1,741,596,-5.48232,3.19257
-476,428,-4.89307,-3.90051,0.00986327,0.0106981,-0.0110164,0.021305,-0.000743591,-0.804334,0.0144575,0.0450888,748,596,-4.89305,3.90049
-469,428,-4.30573,-4.6485,0.00717218,0.00854175,-0.00879996,0.0166835,-0.000969594,-0.824228,0.0114592,0.0204602,755,596,-4.30571,4.64852
-462,428,-4.35938,-4.98041,0.00522217,0.00666324,-0.0069079,0.0128881,-0.00100267,-0.837363,0.00894503,0.0193701,762,596,-4.35935,4.98043
-455,428,-4.40039,-5.36438,0.00371854,0.0050352,-0.00529705,0.00971468,-0.000960935,-0.847223,0.00681937,0.0125056,769,596,-4.40036,5.3644
-448,428,-4.41553,-5.72687,0.00243558,0.00375622,-0.00377304,0.00692628,-0.000734478,-0.872026,0.0048808,0.0109132,776,596,-4.41554,5.72685
-441,428,-4.40588,-6.08868,0.00139578,0.00276348,-0.00245243,0.00462562,-0.000466358,-0.921367,0.00325037,0.0135039,783,596,-4.40587,6.08868
-434,428,-4.40448,-6.44598,0.000514065,0.00151909,-0.00118385,0.00230266,-0.000269507,-0.986111,0.00163238,0.0101751,790,596,-4.4045,6.446
-427,428,-4.39819,-6.79657,-0.000157493,0.000393377,2.30603e-06,0.000393387,-0.000157503,1.56661,0.000327631,0.0103927,797,596,-4.39817,6.79659
-420,428,-4.38562,-7.12524,-0.000966351,-0.000916344,0.00122511,0.000284015,-0.00216671,0.795601,0.00154785,0.011027,804,596,-4.38563,7.12522
-413,428,-4.37939,-7.4389,-0.00193784,-0.00222905,0.00237527,0.000296282,-0.00446317,0.754786,0.00307896,0.0131486,811,596,-4.37942,7.43889
-406,428,-4.40894,-7.76862,-0.00277017,-0.00357623,0.0035305,0.000380231,-0.00672663,0.728566,0.00461638,0.0159938,818,596,-4.40896,7.76864
-399,428,-4.41663,-8.10358,-0.00372467,-0.00538798,0.00477408,0.000289656,-0.0094023,0.699163,0.00636695,0.0140101,825,596,-4.4166,8.1036
-392,428,-4.40063,-8.45789,-0.00502419,-0.00729866,0.00605862,3.00352e-06,-0.0123259,0.692625,0.00821824,0.0152352,832,596,-4.40065,8.45787
-385,428,-4.43323,-8.75494,-0.00671156,-0.00977618,0.00757781,-0.000512694,-0.0159751,0.685638,0.0104833,0.0282574,839,596,-4.43324,8.75497
-378,428,-4.5401,-8.75281,-0.00893756,-0.0129276,0.00947339,-0.00125139,-0.0206138,0.681619,0.0133449,0.049373,846,596,-4.54008,8.75282
-371,428,-4.56244,-8.95667,0,0,0,0,0,0,0,-1,853,596,-4.56242,8.95664
-364,428,-5.11035,-9.164,0,0,0,0,0,0,0,-1,860,596,-5.11033,9.16402
-357,428,-3.20996,-4.70966,0,0,0,0,0,0,0,-1,867,596,-3.20997,4.70965
-350,428,-1.62793,-3.94055,0,0,0,0,0,0,0,-1,874,596,-1.62794,3.94055
-343,428,-0.0567017,-4.80994,0,0,0,0,0,0,0,-1,881,596,-0.0567096,4.80996
-336,428,-3.29175,-1.39569,0,0,0,0,0,0,0,-1,888,596,-3.29172,1.39568
-329,428,-3.71564,-0.791321,0,0,0,0,0,0,0,-1,895,596,-3.71564,0.791299
-322,428,-5.52863,-3.59827,0,0,0,0,0,0,0,-1,902,596,-5.52865,3.59829
-315,428,-4.57172,-1.22052,0,0,0,0,0,0,0,-1,909,596,-4.57171,1.22052
-308,428,-5.94324,-0.810791,0,0,0,0,0,0,0,-1,916,596,-5.94321,0.810803
-301,428,0,0,0,0,0,0,0,0,0,-1,923,596,0,0
-294,428,0,0,0,0,0,0,0,0,0,-1,930,596,0,0
-287,428,0,0,0,0,0,0,0,0,0,-1,937,596,0,0
-280,428,0,0,0,0,0,0,0,0,0,-1,944,596,0,0
-273,428,0,0,0,0,0,0,0,0,0,-1,951,596,0,0
-266,428,0,0,0,0,0,0,0,0,0,-1,958,596,0,0
-259,428,0,0,0,0,0,0,0,0,0,-1,965,596,0,0
-252,428,0,0,0,0,0,0,0,0,0,-1,972,596,0,0
-245,428,0,0,0,0,0,0,0,0,0,-1,979,596,0,0
-238,428,0,0,0,0,0,0,0,0,0,-1,986,596,0,0
-231,428,0,0,0,0,0,0,0,0,0,-1,993,596,0,0
-224,428,0,0,0,0,0,0,0,0,0,-1,1000,596,0,0
-217,428,0,0,0,0,0,0,0,0,0,-1,1007,596,0,0
-210,428,0,0,0,0,0,0,0,0,0,-1,1014,596,0,0
-203,428,0,0,0,0,0,0,0,0,0,-1,1021,596,0,0
-196,428,0,0,0,0,0,0,0,0,0,-1,1028,596,0,0
-189,428,0,0,0,0,0,0,0,0,0,-1,1035,596,0,0
-182,428,0,0,0,0,0,0,0,0,0,-1,1042,596,0,0
-175,428,0,0,0,0,0,0,0,0,0,-1,1049,596,0,0
-168,428,0,0,0,0,0,0,0,0,0,-1,1056,596,0,0
-161,428,0,0,0,0,0,0,0,0,0,-1,1063,596,0,0
-154,428,0,0,0,0,0,0,0,0,0,-1,1070,596,0,0
-147,428,0,0,0,0,0,0,0,0,0,-1,1077,596,0,0
-140,428,0,0,0,0,0,0,0,0,0,-1,1084,596,0,0
-133,428,0,0,0,0,0,0,0,0,0,-1,1091,596,0,0
-126,428,0,0,0,0,0,0,0,0,0,-1,1098,596,0,0
-119,428,0,0,0,0,0,0,0,0,0,-1,1105,596,0,0
-112,428,0,0,0,0,0,0,0,0,0,-1,1112,596,0,0
-105,428,0,0,0,0,0,0,0,0,0,-1,1119,596,0,0
-98,428,0,0,0,0,0,0,0,0,0,-1,1126,596,0,0
-91,428,0,0,0,0,0,0,0,0,0,-1,1133,596,0,0
-84,428,0,0,0,0,0,0,0,0,0,-1,1140,596,0,0
-77,428,0,0,0,0,0,0,0,0,0,-1,1147,596,0,0
-70,428,0,0,0,0,0,0,0,0,0,-1,1154,596,0,0
-63,428,0,0,0,0,0,0,0,0,0,-1,1161,596,0,0
-56,428,0,0,0,0,0,0,0,0,0,-1,1168,596,0,0
-49,428,0,0,0,0,0,0,0,0,0,-1,1175,596,0,0
-42,428,0,0,0,0,0,0,0,0,0,-1,1182,596,0,0
-35,428,0,0,0,0,0,0,0,0,0,-1,1189,596,0,0
-28,428,0,0,0,0,0,0,0,0,0,-1,1196,596,0,0
-21,428,0,0,0,0,0,0,0,0,0,-1,1203,596,0,0
-14,428,0,0,0,0,0,0,0,0,0,-1,1210,596,0,0
-7,428,0,0,0,0,0,0,0,0,0,-1,1217,596,0,0
0,428,0,0,0,0,0,0,0,0,0,-1,1224,596,0,0
7,428,0,0,0,0,0,0,0,0,0,-1,1231,596,0,0
14,428,0,0,0,0,0,0,0,0,0,-1,1238,596,0,0
21,428,0,0,0,0,0,0,0,0,0,-1,1245,596,0,0
28,428,0,0,0,0,0,0,0,0,0,-1,1252,596,0,0
35,428,0,0,0,0,0,0,0,0,0,-1,1259,596,0,0
42,428,0,0,0,0,0,0,0,0,0,-1,1266,596,0,0
49,428,0,0,0,0,0,0,0,0,0,-1,1273,596,0,0
56,428,0,0,0,0,0,0,0,0,0,-1,1280,596,0,0
63,428,0,0,0,0,0,0,0,0,0,-1,1287,596,0,0
70,428,0,0,0,0,0,0,0,0,0,-1,1294,596,0,0
77,428,0,0,0,0,0,0,0,0,0,-1,1301,596,0,0
84,428,0,0,0,0,0,0,0,0,0,-1,1308,596,0,0
91,428,0,0,0,0,0,0,0,0,0,-1,1315,596,0,0
98,428,0,0,0,0,0,0,0,0,0,-1,1322,596,0,0
105,428,0,0,0,0,0,0,0,0,0,-1,1329,596,0,0
112,428,0,0,0,0,0,0,0,0,0,-1,1336,596,0,0
119,428,0,0,0,0,0,0,0,0,0,-1,1343,596,0,0
126,428,0,0,0,0,0,0,0,0,0,-1,1350,596,0,0
133,428,0,0,0,0,0,0,0,0,0,-1,1357,596,0,0
140,428,0,0,0,0,0,0,0,0,0,-1,1364,596,0,0
147,428,0,0,0,0,0,0,0,0,0,-1,1371,596,0,0
154,428,0,0,0,0,0,0,0,0,0,-1,1378,596,0,0
161,428,0,0,0,0,0,0,0,0,0,-1,1385,596,0,0
168,428,0,0,0,0,0,0,0,0,0,-1,1392,596,0,0
175,428,0,0,0,0,0,0,0,0,0,-1,1399,596,0,0
182,428,0,0,0,0,0,0,0,0,0,-1,1406,596,0,0
189,428,0,0,0,0,0,0,0,0,0,-1,1413,596,0,0
196,428,0,0,0,0,0,0,0,0,0,-1,1420,596,0,0
203,428,0,0,0,0,0,0,0,0,0,-1,1427,596,0,0
210,428,0,0,0,0,0,0,0,0,0,-1,1434,596,0,0
217,428,0,0,0,0,0,0,0,0,0,-1,1441,596,0,0
224,428,0,0,0,0,0,0,0,0,0,-1,1448,596,0,0
231,428,0,0,0,0,0,0,0,0,0,-1,1455,596,0,0
238,428,0,0,0,0,0,0,0,0,0,-1,1462,596,0,0
245,428,0,0,0,0,0,0,0,0,0,-1,1469,596,0,0
252,428,0,0,0,0,0,0,0,0,0,-1,1476,596,0,0
259,428,0,0,0,0,0,0,0,0,0,-1,1483,596,0,0
266,428,0,0,0,0,0,0,0,0,0,-1,1490,596,0,0
273,428,0,0,0,0,0,0,0,0,0,-1,1497,596,0,0
280,428,0,0,0,0,0,0,0,0,0,-1,1504,596,0,0
287,428,0,0,0,0,0,0,0,0,0,-1,1511,596,0,0
294,428,0,0,0,0,0,0,0,0,0,-1,1518,596,0,0
301,428,0,0,0,0,0,0,0,0,0,-1,1525,596,0,0
308,428,0,0,0,0,0,0,0,0,0,-1,1532,596,0,0
315,428,0,0,0,0,0,0,0,0,0,-1,1539,596,0,0
322,428,0,0,0,0,0,0,0,0,0,-1,1546,596,0,0
329,428,0,0,0,0,0,0,0,0,0,-1,1553,596,0,0
336,428,0,0,0,0,0,0,0,0,0,-1,1560,596,0,0
343,428,0,0,0,0,0,0,0,0,0,-1,1567,596,0,0
350,428,0,0,0,0,0,0,0,0,0,-1,1574,596,0,0
357,428,0,0,0,0,0,0,0,0,0,-1,1581,596,0,0
364,428,0,0,0,0,0,0,0,0,0,-1,1588,596,0,0
371,428,0,0,0,0,0,0,0,0,0,-1,1595,596,0,0
378,428,0,0,0,0,0,0,0,0,0,-1,1602,596,0,0
385,428,0,0,0,0,0,0,0,0,0,-1,1609,596,0,0
392,428,0,0,0,0,0,0,0,0,0,-1,1616,596,0,0
399,428,0,0,0,0,0,0,0,0,0,-1,1623,596,0,0
406,428,0,0,0,0,0,0,0,0,0,-1,1630,596,0,0
413,428,0,0,0,0,0,0,0,0,0,-1,1637,596,0,0
420,428,19.8469,1.3399,0,0,0,0,0,0,0,-1,1644,596,19.8469,-1.33992
427,428,20.7299,-0.225281,0,0,0,0,0,0,0,-1,1651,596,20.7299,0.225262
434,428,19.8915,-0.583069,0,0,0,0,0,0,0,-1,1658,596,19.8915,0.583075
441,428,8.17993,0.607483,0,0,0,0,0,0,0,-1,1665,596,8.17997,-0.607513
448,428,7.84338,-0.385986,0,0,0,0,0,0,0,-1,1672,596,7.84336,0.385978
455,428,6.64038,2.1123,0,0,0,0,0,0,0,-1,1679,596,6.64037,-2.11229
462,428,4.84106,4.12341,0,0,0,0,0,0,0,-1,1686,596,4.84107,-4.12339
469,428,7.83789,3.10083,0,0,0,0,0,0,0,-1,1693,596,7.83785,-3.10086
476,428,7.61255,1.73956,0,0,0,0,0,0,0,-1,1700,596,7.61252,-1.73958
483,428,7.22766,1.05121,0,0,0,0,0,0,0,-1,1707,596,7.2277,-1.05121
490,428,5.4071,-3.2793,0,0,0,0,0,0,0,-1,1714,596,5.40707,3.27929
497,428,7.84106,-3.65491,0,0,0,0,0,0,0,-1,1721,596,7.84107,3.65491
504,428,6.92139,-2.83356,0,0,0,0,0,0,0,-1,1728,596,6.92137,2.83353
511,428,7.88501,-3.78723,0,0,0,0,0,0,0,-1,1735,596,7.88502,3.78722
518,428,11.3313,-7.05298,0,0,0,0,0,0,0,-1,1742,596,11.3313,7.053
525,428,11.2998,-6.65802,0.00461464,0.0024054,0.0031595,0.00685705,0.000162992,0.61723,0.00451802,0.0489602,1749,596,11.2998,6.65802
532,428,11.4003,-6.18127,0.00341069,0.00182264,0.00235876,0.00510549,0.000127846,0.623042,0.00336185,0.0194764,1756,596,11.4003,6.18129
539,428,11.4366,-5.84509,0.00244088,0.00130409,0.00164984,0.00361749,0.000127483,0.619508,0.00237031,0.0204337,1763,596,11.4366,5.84509
546,428,11.4155,-5.50311,0.00172154,0.000991559,0.00116011,0.00257272,0.000140376,0.632992,0.00167032,0.0168235,1770,596,11.4155,5.50313
553,428,11.3887,-5.13971,0.00112112,0.000696438,0.000781047,0.00171817,9.93813e-05,0.652673,0.0011138,0.0109807,1777,596,11.3886,5.13971
560,428,11.4015,-4.78235,0.000586304,0.000471461,0.000488259,0.00102051,3.72592e-05,0.726865,0.000668264,0.0117712,1784,596,11.4015,4.78233
567,428,11.4043,-4.42084,0.000190311,0.000364577,0.000336413,0.000624958,-7.00695e-05,0.912116,0.000441851,0.0110177,1791,596,11.4043,4.42085
574,428,11.3938,-4.06995,-6.02223e-05,0.000351657,0.000300465,0.000509985,-0.000218549,1.08583,0.000431692,0.0126837,1798,596,11.3938,4.06992
581,428,11.3656,-3.69153,-0.00021776,0.000450392,0.000417359,0.000650914,-0.000418282,1.12291,0.000622152,0.0112086,1805,596,11.3656,3.69155
588,428,11.3359,-3.30597,-0.000266576,0.000730202,0.000696812,0.00108852,-0.000624889,1.09584,0.00100123,0.0145367,1812,596,11.3359,3.30596
595,428,11.3326,-2.92279,-0.000218806,0.00125857,0.00114916,0.00188597,-0.000846215,1.07105,0.00161506,0.0107217,1819,596,11.3327,2.92277
602,428,11.3085,-2.54944,-0.000277965,0.00204992,0.00172212,0.00296455,-0.0011926,1.08257,0.00247174,0.0194866,1826,596,11.3085,2.54946
609,428,11.2776,-2.09497,0,0,0,0,0,0,0,-1,1833,596,11.2776,2.09496
616,428,5.88977,-0.239319,0,0,0,0,0,0,0,-1,1840,596,5.88983,0.239293
623,428,9.02405,1.30554,0,0,0,0,0,0,0,-1,1847,596,9.02407,-1.30554
630,428,7.07996,6.88562,0,0,0,0,0,0,0,-1,1854,596,7.0799,-6.88565
637,428,3.95435,1.90857,0,0,0,0,0,0,0,-1,1861,596,3.95439,-1.90858
644,428,5.75476,0.888977,0,0,0,0,0,0,0,-1,1868,596,5.75472,-0.888955
651,428,0,0,0,0,0,0,0,0,0,-1,1875,596,0,0
658,428,0,0,0,0,0,0,0,0,0,-1,1882,596,0,0
665,428,0,0,0,0,0,0,0,0,0,-1,1889,596,0,0
672,428,0,0,0,0,0,0,0,0,0,-1,1896,596,0,0
679,428,0,0,0,0,0,0,0,0,0,-1,1903,596,0,0
686,428,0,0,0,0,0,0,0,0,0,-1,1910,596,0,0
693,428,0,0,0,0,0,0,0,0,0,-1,1917,596,0,0
700,428,0,0,0,0,0,0,0,0,0,-1,1924,596,0,0
707,428,0,0,0,0,0,0,0,0,0,-1,1931,596,0,0
714,428,0,0,0,0,0,0,0,0,0,-1,1938,596,0,0
721,428,0,0,0,0,0,0,0,0,0,-1,1945,596,0,0
728,428,0,0,0,0,0,0,0,0,0,-1,1952,596,0,0
735,428,0,0,0,0,0,0,0,0,0,-1,1959,596,0,0
742,428,0,0,0,0,0,0,0,0,0,-1,1966,596,0,0
749,428,0,0,0,0,0,0,0,0,0,-1,1973,596,0,0
756,428,0,0,0,0,0,0,0,0,0,-1,1980,596,0,0
763,428,0,0,0,0,0,0,0,0,0,-1,1987,596,0,0
770,428,0,0,0,0,0,0,0,0,0,-1,1994,596,0,0
777,428,0,0,0,0,0,0,0,0,0,-1,2001,596,0,0
784,428,0,0,0,0,0,0,0,0,0,-1,2008,596,0,0
791,428,0,0,0,0,0,0,0,0,0,-1,2015,596,0,0
798,428,0,0,0,0,0,0,0,0,0,-1,2022,596,0,0
805,428,0,0,0,0,0,0,0,0,0,-1,2029,596,0,0
812,428,0,0,0,0,0,0,0,0,0,-1,2036,596,0,0
-700,421,0,0,0,0,0,0,0,0,0,-1,524,603,0,0
-693,421,0,0,0,0,0,0,0,0,0,-1,531,603,0,0
-686,421,0,0,0,0,0,0,0,0,0,-1,538,603,0,0
-679,421,0,0,0,0,0,0,0,0,0,-1,545,603,0,0
-672,421,0,0,0,0,0,0,0,0,0,-1,552,603,0,0
-665,421,0,0,0,0,0,0,0,0,0,-1,559,603,0,0
-658,421,0,0,0,0,0,0,0,0,0,-1,566,603,0,0
-651,421,0,0,0,0,0,0,0,0,0,-1,573,603,0,0
-644,421,0,0,0,0,0,0,0,0,0,-1,580,603,0,0
-637,421,0,0,0,0,0,0,0,0,0,-1,587,603,0,0
-630,421,0,0,0,0,0,0,0,0,0,-1,594,603,0,0
-623,421,0,0,0,0,0,0,0,0,0,-1,601,603,0,0
-616,421,0,0,0,0,0,0,0,0,0,-1,608,603,0,0
-609,421,0,0,0,0,0,0,0,0,0,-1,615,603,0,0
-602,421,0,0,0,0,0,0,0,0,0,-1,622,603,0,0
-595,421,0,0,0,0,0,0,0,0,0,-1,629,603,0,0
-588,421,0,0,0,0,0,0,0,0,0,-1,636,603,0,0
-581,421,0,0,0,0,0,0,0,0,0,-1,643,603,0,0
-574,421,0,0,0,0,0,0,0,0,0,-1,650,603,0,0
-567,421,0,0,0,0,0,0,0,0,0,-1,657,603,0,0
-560,421,0,0,0,0,0,0,0,0,0,-1,664,603,0,0
-553,421,0,0,0,0,0,0,0,0,0,-1,671,603,0,0
-546,421,0,0,0,0,0,0,0,0,0,-1,678,603,0,0
-539,421,0,0,0,0,0,0,0,0,0,-1,685,603,0,0
-532,421,-8.97382,6.95636,0,0,0,0,0,0,0,-1,692,603,-8.97384,-6.95634
-525,421,-2.11481,-8.04272,0,0,0,0,0,0,0,-1,699,603,-2.11483,8.0427
-518,421,-3.05908,-5.07233,0,0,0,0,0,0,0,-1,706,603,-3.0591,5.07235
-511,421,-4.63525,-4.08447,0,0,0,0,0,0,0,-1,713,603,-4.63524,4.08449
-504,421,-4.97272,-4.38385,0,0,0,0,0,0,0,-1,720,603,-4.9727,4.38383
-497,421,-4.67682,-1.86725,0,0,0,0,0,0,0,-1,727,603,-4.6768,1.86727
-490,421,-5.01318,-2.87817,0,0,0,0,0,0,0,-1,734,603,-5.0132,2.87816
-483,421,-4.64636,-3.99561,0,0,0,0,0,0,0,-1,741,603,-4.64633,3.99558
-476,421,-4.65649,-4.35913,0.00764978,0.0081048,-0.00815768,0.0160381,-0.000283561,-0.799339,0.0107879,0.0265596,748,603,-4.65648,4.35913
-469,421,-4.71082,-4.65424,0.00577838,0.00648559,-0.00665529,0.0127967,-0.000532687,-0.811939,0.0087141,0.0197084,755,603,-4.71084,4.65421
-462,421,-4.72546,-5.03644,0.00433626,0.00502955,-0.00532021,0.0100144,-0.000648583,-0.81793,0.00690262,0.0175507,762,603,-4.72547,5.03641
-455,421,-4.73505,-5.36798,0.00316859,0.00377673,-0.00408848,0.00757243,-0.000627111,-0.822515,0.00526978,0.0184719,769,603,-4.73506,5.36798
-448,421,-4.75745,-5.70831,0.00213933,0.00267996,-0.00283732,0.00525981,-0.000440521,-0.83289,0.00366222,0.0186925,776,603,-4.75742,5.70829
-441,421,-4.75079,-6.07922,0.00121444,0.00186584,-0.00169501,0.00326615,-0.000185874,-0.880317,0.00224196,0.0139534,783,603,-4.75082,6.07923
-434,421,-4.7605,-6.42963,0.000364987,0.000761591,-0.00053063,0.00112976,-3.18431e-06,-0.964218,0.000754238,0.0100568,790,603,-4.76052,6.4296
-427,421,-4.7392,-6.77478,-0.000365935,-0.000337756,0.000656063,0.000304369,-0.00100806,0.796135,0.000793207,0.00976535,797,603,-4.73918,6.77478
-420,421,-4.73181,-7.11023,-0.00124805,-0.00160946,0.00188637,0.000466256,-0.00332376,0.737646,0.00238649,0.0112698,804,603,-4.73182,7.11021
-413,421,-4.7428,-7.43573,-0.00239666,-0.00302206,0.00316376,0.000469816,-0.00588853,0.736139,0.00409129,0.013974,811,603,-4.74279,7.43571
-406,421,-4.77704,-7.79895,-0.00354155,-0.00459813,0.00455263,0.000513338,-0.00865301,0.727636,0.00594718,0.0194075,818,603,-4.77702,7.79895
-399,421,-4.73425,-8.1936,-0.00489991,-0.00672298,0.00610601,0.000362231,-0.0119851,0.711303,0.00811352,0.0208446,825,603,-4.73425,8.19362
-392,421,-4.78693,-8.44006,-0.00675768,-0.00902722,0.00779329,-1.69789e-05,-0.0157679,0.713102,0.0105063,0.026702,832,603,-4.7869,8.44006
-385,421,-4.72449,-8.69714,0,0,0,0,0,0,0,-1,839,603,-4.72447,8.69713
-378,421,-5.13782,-8.74323,0,0,0,0,0,0,0,-1,846,603,-5.13784,8.74325
-371,421,-5.65082,-7.01849,0,0,0,0,0,0,0,-1,853,603,-5.65082,7.0185
-364,421,-5.94189,-7.09875,0,0,0,0,0,0,0,-1,860,603,-5.94192,7.09878
-357,421,-7.62531,-8.26337,0,0,0,0,0,0,0,-1,867,603,-7.62532,8.26337
-350,421,-5.38019,-3.75024,0,0,0,0,0,0,0,-1,874,603,-5.38017,3.75026
-343,421,-6.22797,-2.57123,0,0,0,0,0,0,0,-1,881,603,-6.22798,2.57121
-336,421,-6.22882,-2.59369,0,0,0,0,0,0,0,-1,888,603,-6.22883,2.5937
-329,421,-4.50134,-1.49469,0,0,0,0,0,0,0,-1,895,603,-4.50137,1.49468
-322,421,-6.30377,-0.285339,0,0,0,0,0,0,0,-1,902,603,-6.30379,0.285355
-315,421,-4.47821,-1.26733,0,0,0,0,0,0,0,-1,909,603,-4.47824,1.26732
-308,421,0,0,0,0,0,0,0,0,0,-1,916,603,0,0
-301,421,0,0,0,0,0,0,0,0,0,-1,923,603,0,0
-294,421,0,0,0,0,0,0,0,0,0,-1,930,603,0,0
-287,421,0,0,0,0,0,0,0,0,0,-1,937,603,0,0
-280,421,0,0,0,0,0,0,0,0,0,-1,944,603,0,0
-273,421,0,0,0,0,0,0,0,0,0,-1,951,603,0,0
-266,421,0,0,0,0,0,0,0,0,0,-1,958,603,0,0
-259,421,0,0,0,0,0,0,0,0,0,-1,965,603,0,0
-252,421,0,0,0,0,0,0,0,0,0,-1,972,603,0,0
-245,421,0,0,0,0,0,0,0,0,0,-1,979,603,0,0
-238,421,0,0,0,0,0,0,0,0,0,-1,986,603,0,0
-231,421,0,0,0,0,0,0,0,0,0,-1,993,603,0,0
-224,421,0,0,0,0,0,0,0,0,0,-1,1000,603,0,0
-217,421,0,0,0,0,0,0,0,0,0,-1,1007,603,0,0
-210,421,0,0,0,0,0,0,0,0,0,-1,1014,603,0,0
-203,421,0,0,0,0,0,0,0,0,0,-1,1021,603,0,0
-196,421,0,0,0,0,0,0,0,0,0,-1,1028,603,0,0
-189,421,0,0,0,0,0,0,0,0,0,-1,1035,603,0,0
-182,421,0,0,0,0,0,0,0,0,0,-1,1042,603,0,0
-175,421,0,0,0,0,0,0,0,0,0,-1,1049,603,0,0
-168,421,0,0,0,0,0,0,0,0,0,-1,1056,603,0,0
-161,421,0,0,0,0,0,0,0,0,0,-1,1063,603,0,0
-154,421,0,0,0,0,0,0,0,0,0,-1,1070,603,0,0
-147,421,0,0,0,0,0,0,0,0,0,-1,1077,603,0,0
-140,421,0,0,0,0,0,0,0,0,0,-1,1084,603,0,0
-133,421,0,0,0,0,0,0,0,0,0,-1,1091,603,0,0
-126,421,0,0,0,0,0,0,0,0,0,-1,1098,603,0,0
-119,421,0,0,0,0,0,0,0,0,0,-1,1105,603,0,0
-112,421,0,0,0,0,0,0,0,0,0,-1,1112,603,0,0
-105,421,0,0,0,0,0,0,0,0,0,-1,1119,603,0,0
-98,421,0,0,0,0,0,0,0,0,0,-1,1126,603,0,0
-91,421,0,0,0,0,0,0,0,0,0,-1,1133,603,0,0
-84,421,0,0,0,0,0,0,0,0,0,-1,1140,603,0,0
-77,421,0,0,0,0,0,0,0,0,0,-1,1147,603,0,0
-70,421,0,0,0,0,0,0,0,0,0,-1,1154,603,0,0
-63,421,0,0,0,0,0,0,0,0,0,-1,1161,603,0,0
-56,421,0,0,0,0,0,0,0,0,0,-1,1168,603,0,0
-49,421,0,0,0,0,0,0,0,0,0,-1,1175,603,0,0
-42,421,0,0,0,0,0,0,0,0,0,-1,1182,603,0,0
-35,421,0,0,0,0,0,0,0,0,0,-1,1189,603,0,0
-28,421,0,0,0,0,0,0,0,0,0,-1,1196,603,0,0
-21,421,0,0,0,0,0,0,0,0,0,-1,1203,603,0,0
-14,421,0,0,0,0,0,0,0,0,0,-1,1210,603,0,0
-7,421,0,0,0,0,0,0,0,0,0,-1,1217,603,0,0
0,421,0,0,0,0,0,0,0,0,0,-1,1224,603,0,0
7,421,0,0,0,0,0,0,0,0,0,-1,1231,603,0,0
14,421,0,0,0,0,0,0,0,0,0,-1,1238,603,0,0
21,421,0,0,0,0,0,0,0,0,0,-1,1245,603,0,0
28,421,0,0,0,0,0,0,0,0,0,-1,1252,603,0,0
35,421,0,0,0,0,0,0,0,0,0,-1,1259,603,0,0
42,421,0,0,0,0,0,0,0,0,0,-1,1266,603,0,0
49,421,0,0,0,0,0,0,0,0,0,-1,1273,603,0,0
56,421,0,0,0,0,0,0,0,0,0,-1,1280,603,0,0
63,421,0,0,0,0,0,0,0,0,0,-1,1287,603,0,0
70,421,0,0,0,0,0,0,0,0,0,-1,1294,603,0,0
77,421,0,0,0,0,0,0,0,0,0,-1,1301,603,0,0
84,421,0,0,0,0,0,0,0,0,0,-1,1308,603,0,0
91,421,0,0,0,0,0,0,0,0,0,-1,1315,603,0,0
98,421,0,0,0,0,0,0,0,0,0,-1,1322,603,0,0
105,421,0,0,0,0,0,0,0,0,0,-1,1329,603,0,0
112,421,0,0,0,0,0,0,0,0,0,-1,1336,603,0,0
119,421,0,0,0,0,0,0,0,0,0,-1,1343,603,0,0
126,421,0,0,0,0,0,0,0,0,0,-1,1350,603,0,0
133,421,0,0,0,0,0,0,0,0,0,-1,1357,603,0,0
140,421,0,0,0,0,0,0,0,0,0,-1,1364,603,0,0
147,421,0,0,0,0,0,0,0,0,0,-1,1371,603,0,0
154,421,0,0,0,0,0,0,0,0,0,-1,1378,603,0,0
161,421,0,0,0,0,0,0,0,0,0,-1,1385,603,0,0
168,421,0,0,0,0,0,0,0,0,0,-1,1392,603,0,0
175,421,0,0,0,0,0,0,0,0,0,-1,1399,603,0,0
182,421,0,0,0,0,0,0,0,0,0,-1,1406,603,0,0
189,421,0,0,0,0,0,0,0,0,0,-1,1413,603,0,0
196,421,0,0,0,0,0,0,0,0,0,-1,1420,603,0,0
203,421,0,0,0,0,0,0,0,0,0,-1,1427,603,0,0
210,421,0,0,0,0,0,0,0,0,0,-1,1434,603,0,0
217,421,0,0,0,0,0,0,0,0,0,-1,1441,603,0,0
224,421,0,0,0,0,0,0,0,0,0,-1,1448,603,0,0
231,421,0,0,0,0,0,0,0,0,0,-1,1455,603,0,0
238,421,0,0,0,0,0,0,0,0,0,-1,1462,603,0,0
245,421,0,0,0,0,0,0,0,0,0,-1,1469,603,0,0
252,421,0,0,0,0,0,0,0,0,0,-1,1476,603,0,0
259,421,0,0,0,0,0,0,0,0,0,-1,1483,603,0,0
266,421,0,0,0,0,0,0,0,0,0,-1,1490,603,0,0
273,421,0,0,0,0,0,0,0,0,0,-1,1497,603,0,0
280,421,0,0,0,0,0,0,0,0,0,-1,1504,603,0,0
287,421,0,0,0,0,0,0,0,0,0,-1,1511,603,0,0
294,421,0,0,0,0,0,0,0,0,0,-1,1518,603,0,0
301,421,0,0,0,0,0,0,0,0,0,-1,1525,603,0,0
308,421,0,0,0,0,0,0,0,0,0,-1,1532,603,0,0
315,421,0,0,0,0,0,0,0,0,0,-1,1539,603,0,0
322,421,0,0,0,0,0,0,0,0,0,-1,1546,603,0,0
329,421,0,0,0,0,0,0,0,0,0,-1,1553,603,0,0
336,421,0,0,0,0,0,0,0,0,0,-1,1560,603,0,0
343,421,0,0,0,0,0,0,0,0,0,-1,1567,603,0,0
350,421,0,0,0,0,0,0,0,0,0,-1,1574,603,0,0
357,421,0,0,0,0,0,0,0,0,0,-1,1581,603,0,0
364,421,0,0,0,0,0,0,0,0,0,-1,1588,603,0,0
371,421,0,0,0,0,0,0,0,0,0,-1,1595,603,0,0
378,421,0,0,0,0,0,0,0,0,0,-1,1602,603,0,0
385,421,0,0,0,0,0,0,0,0,0,-1,1609,603,0,0
392,421,0,0,0,0,0,0,0,0,0,-1,1616,603,0,0
399,421,0,0,0,0,0,0,0,0,0,-1,1623,603,0,0
406,421,0,0,0,0,0,0,0,0,0,-1,1630,603,0,0
413,421,0,0,0,0,0,0,0,0,0,-1,1637,603,0,0
420,421,0,0,0,0,0,0,0,0,0,-1,1644,603,0,0
427,421,0,0,0,0,0,0,0,0,0,-1,1651,603,0,0
434,421,3.68176,-0.0327759,0,0,0,0,0,0,0,-1,1658,603,3.6818,0.0328037
441,421,8.06689,0.527832,0,0,0,0,0,0,0,-1,1665,603,8.06693,-0.527851
448,421,6.93921,0.802246,0,0,0,0,0,0,0,-1,1672,603,6.93923,-0.802251
455,421,7.29456,2.14825,0,0,0,0,0,0,0,-1,1679,603,7.29461,-2.14827
462,421,7.86902,3.53174,0,0,0,0,0,0,0,-1,1686,603,7.869,-3.53173
469,421,8.06604,2.81213,0,0,0,0,0,0,0,-1,1693,603,8.06606,-2.81212
476,421,8.26306,2.09253,0,0,0,0,0,0,0,-1,1700,603,8.26312,-2.09251
483,421,8.05322,0.798096,0,0,0,0,0,0,0,-1,1707,603,8.05323,-0.7981
490,421,7.51233,0.213074,0,0,0,0,0,0,0,-1,1714,603,7.51235,-0.213043
497,421,7.49634,-2.86688,0,0,0,0,0,0,0,-1,1721,603,7.4963,2.86688
504,421,6.90491,-2.18671,0,0,0,0,0,0,0,-1,1728,603,6.90491,2.18669
511,421,6.31348,-1.50653,0,0,0,0,0,0,0,-1,1735,603,6.31353,1.5065
518,421,6.27588,-2.49878,0,0,0,0,0,0,0,-1,1742,603,6.2759,2.4988
525,421,11.4551,-6.81305,0,0,0,0,0,0,0,-1,1749,603,11.4551,6.81308
532,421,11.6589,-6.22491,0.00376866,0.00219028,0.00261139,0.00570751,0.000251434,0.638657,0.00372402,0.0379678,1756,603,11.659,6.22491
539,421,11.7852,-5.84326,0.00270011,0.00154612,0.00177268,0.00398734,0.000258894,0.628059,0.00257627,0.0209786,1763,603,11.7851,5.84328
546,421,11.7832,-5.4823,0.00192522,0.00111168,0.00120114,0.0027866,0.000250303,0.622133,0.00178017,0.0133148,1770,603,11.7831,5.48227
553,421,11.7709,-5.10034,0.00130901,0.000708958,0.000769627,0.00183502,0.000182944,0.599543,0.00116716,0.0115538,1777,603,11.7709,5.10037
560,421,11.7711,-4.74658,0.000772317,0.000424171,0.000455576,0.00108594,0.000110545,0.60291,0.000690072,0.0139587,1784,603,11.7711,4.74661
567,421,11.7755,-4.40442,0.000380108,0.000284571,0.000301136,0.00063724,2.74387e-05,0.70674,0.000415982,0.0167905,1791,603,11.7755,4.40441
574,421,11.756,-4.05322,0.00015475,0.000270499,0.000289401,0.000507756,-8.25062e-05,0.884087,0.000369093,0.0183073,1798,603,11.756,4.05324
581,421,11.7401,-3.65692,2.18058e-05,0.000361066,0.000421606,0.000645888,-0.000263016,0.97666,0.000540052,0.0152298,1805,603,11.7401,3.65691
588,421,11.7123,-3.30103,-1.07738e-06,0.000663608,0.000728307,0.00113182,-0.000469286,0.999448,0.000950412,0.0110748,1812,603,11.7123,3.30102
595,421,11.7462,-2.92871,0.000131978,0.00120704,0.00123633,0.00201764,-0.00067862,0.99046,0.00161941,0.0145776,1819,603,11.7462,2.92871
602,421,11.6915,-2.59937,0.000246843,0.00200151,0.00186834,0.00318825,-0.000939901,1.00491,0.00249844,0.0147878,1826,603,11.6916,2.59935
609,421,11.623,-2.1673,0,0,0,0,0,0,0,-1,1833,603,11.623,2.16731
616,421,11.8412,-1.64966,0,0,0,0,0,0,0,-1,1840,603,11.8412,1.64966
623,421,6.19885,0.376648,0,0,0,0,0,0,0,-1,1847,603,6.19881,-0.376624
630,421,6.54993,0.778748,0,0,0,0,0,0,0,-1,1854,603,6.54991,-0.778744
637,421,3.74512,1.65405,0,0,0,0,0,0,0,-1,1861,603,3.74517,-1.65407
644,421,3.58081,0.354675,0,0,0,0,0,0,0,-1,1868,603,3.58082,-0.354704
651,421,3.28687,3.66351,0,0,0,0,0,0,0,-1,1875,603,3.28688,-3.66353
658,421,0,0,0,0,0,0,0,0,0,-1,1882,603,0,0
665,421,0,0,0,0,0,0,0,0,0,-1,1889,603,0,0
672,421,0,0,0,0,0,0,0,0,0,-1,1896,603,0,0
679,421,0,0,0,0,0,0,0,0,0,-1,1903,603,0,0
686,421,0,0,0,0,0,0,0,0,0,-1,1910,603,0,0
693,421,0,0,0,0,0,0,0,0,0,-1,1917,603,0,0
700,421,0,0,0,0,0,0,0,0,0,-1,1924,603,0,0
707,421,0,0,0,0,0,0,0,0,0,-1,1931,603,0,0
714,421,0,0,0,0,0,0,0,0,0,-1,1938,603,0,0
721,421,0,0,0,0,0,0,0,0,0,-1,1945,603,0,0
728,421,0,0,0,0,0,0,0,0,0,-1,1952,603,0,0
735,421,0,0,0,0,0,0,0,0,0,-1,1959,603,0,0
742,421,0,0,0,0,0,0,0,0,0,-1,1966,603,0,0
749,421,0,0,0,0,0,0,0,0,0,-1,1973,603,0,0
756,421,0,0,0,0,0,0,0,0,0,-1,1980,603,0,0
763,421,0,0,0,0,0,0,0,0,0,-1,1987,603,0,0
770,421,0,0,0,0,0,0,0,0,0,-1,1994,603,0,0
777,421,0,0,0,0,0,0,0,0,0,-1,2001,603,0,0
784,421,0,0,0,0,0,0,0,0,0,-1,2008,603,0,0
791,421,0,0,0,0,0,0,0,0,0,-1,2015,603,0,0
798,421,0,0,0,0,0,0,0,0,0,-1,2022,603,0,0
805,421,0,0,0,0,0,0,0,0,0,-1,2029,603,0,0
812,421,0,0,0,0,0,0,0,0,0,-1,2036,603,0,0
-700,414,0,0,0,0,0,0,0,0,0,-1,524,610,0,0
-693,414,0,0,0,0,0,0,0,0,0,-1,531,610,0,0
-686,414,0,0,0,0,0,0,0,0,0,-1,538,610,0,0
-679,414,0,0,0,0,0,0,0,0,0,-1,545,610,0,0
-672,414,0,0,0,0,0,0,0,0,0,-1,552,610,0,0
-665,414,0,0,0,0,0,0,0,0,0,-1,559,610,0,0
-658,414,0,0,0,0,0,0,0,0,0,-1,566,610,0,0
-651,414,0,0,0,0,0,0,0,0,0,-1,573,610,0,0
-644,414,0,0,0,0,0,0,0,0,0,-1,580,610,0,0
-637,414,0,0,0,0,0,0,0,0,0,-1,587,610,0,0
-630,414,0,0,0,0,0,0,0,0,0,-1,594,610,0,0
-623,414,0,0,0,0,0,0,0,0,0,-1,601,610,0,0
-616,414,0,0,0,0,0,0,0,0,0,-1,608,610,0,0
-609,414,0,0,0,0,0,0,0,0,0,-1,615,610,0,0
-602,414,0,0,0,0,0,0,0,0,0,-1,622,610,0,0
-595,414,0,0,0,0,0,0,0,0,0,-1,629,610,0,0
-588,414,0,0,0,0,0,0,0,0,0,-1,636,610,0,0
-581,414,0,0,0,0,0,0,0,0,0,-1,643,610,0,0
-574,414,0,0,0,0,0,0,0,0,0,-1,650,610,0,0
-567,414,0,0,0,0,0,0,0,0,0,-1,657,610,0,0
-560,414,0,0,0,0,0,0,0,0,0,-1,664,610,0,0
-553,414,0,0,0,0,0,0,0,0,0,-1,671,610,0,0
-546,414,0,0,0,0,0,0,0,0,0,-1,678,610,0,0
-539,414,-7.50146,5.65619,0,0,0,0,0,0,0,-1,685,610,-7.50149,-5.65617
-532,414,-8.15204,4.01605,0,0,0,0,0,0,0,-1,692,610,-8.15206,-4.01606
-525,414,-3.47137,-3.27924,0,0,0,0,0,0,0,-1,699,610,-3.47136,3.27922
-518,414,-3.41998,-4.42413,0,0,0,0,0,0,0,-1,706,610,-3.42001,4.4241
-511,414,-3.92542,-4.97021,0,0,0,0,0,0,0,-1,713,610,-3.92542,4.97023
-504,414,-1.62408,-3.64496,0,0,0,0,0,0,0,-1,720,610,-1.62406,3.64499
-497,414,-5.3988,-2.8703,0,0,0,0,0,0,0,-1,727,610,-5.3988,2.87028
-490,414,-5.23236,-3.31433,0.00893656,0.00916422,-0.00786608,0.0169173,0.00118349,-0.792633,0.0109051,0.0434144,734,610,-5.23238,3.31432
-483,414,-4.9975,-3.96405,0.00730078,0.00752545,-0.00697727,0.0143913,0.000434936,-0.793448,0.00945255,0.0221506,741,610,-4.99748,3.96402
-476,414,-5.03949,-4.34845,0.00585345,0.00613522,-0.00600733,0.0120033,-1.46516e-05,-0.797122,0.0080071,0.0145584,748,610,-5.03948,4.34844
-469,414,-5.0824,-4.6767,0.00462169,0.00489965,-0.00500592,0.00976852,-0.000247172,-0.799276,0.00659628,0.0126498,755,610,-5.08238,4.67671
-462,414,-5.10077,-5.04279,0.00358736,0.00375892,-0.00407932,0.00775336,-0.000407084,-0.795911,0.00530981,0.0204244,762,610,-5.10075,5.04281
-455,414,-5.10297,-5.40454,0.00267619,0.0027929,-0.00310702,0.00584211,-0.000373025,-0.794787,0.00402485,0.0239491,769,610,-5.10294,5.40455
-448,414,-5.10577,-5.73914,0.00185164,0.00182519,-0.00205113,0.00388959,-0.000212754,-0.782174,0.00266681,0.0240573,776,610,-5.10578,5.73913
-441,414,-5.0885,-6.07996,0.00101074,0.00113425,-0.00103152,0.00210586,3.91307e-05,-0.815297,0.00139105,0.0163167,783,610,-5.0885,6.07994
-434,414,-5.09271,-6.42249,0.000169803,0.000152964,6.54491e-05,0.000227372,9.53952e-05,0.72143,0.000131838,0.00997468,790,610,-5.0927,6.42247
-427,414,-5.07965,-6.76093,-0.000659504,-0.00093985,0.00128232,0.000490284,-0.00208964,0.730958,0.00158205,0.010699,797,610,-5.07967,6.76091
-420,414,-5.08411,-7.10205,-0.0016559,-0.00217619,0.00253953,0.000636778,-0.00446887,0.734358,0.00321261,0.010068,804,610,-5.08409,7.10207
-413,414,-5.11029,-7.45624,-0.00303336,-0.00371412,0.00398452,0.00062529,-0.00737277,0.742789,0.00513631,0.0111564,811,610,-5.1103,7.45626
-406,414,-5.09778,-7.87262,-0.00460177,-0.00557814,0.00567564,0.000606639,-0.0107865,0.742497,0.00740154,0.0196718,818,610,-5.09779,7.87264
-399,414,-5.09802,-8.09125,-0.00652426,-0.00810009,0.00764359,0.00037192,-0.0149963,0.734039,0.0101238,0.0332104,825,610,-5.098,8.09128
-392,414,-5.14166,-8.30615,0,0,0,0,0,0,0,-1,832,610,-5.14167,8.30616
-385,414,-5.74854,-8.13806,0,0,0,0,0,0,0,-1,839,610,-5.74854,8.13807
-378,414,-6.33557,-8.47357,0,0,0,0,0,0,0,-1,846,610,-6.33558,8.47357
-371,414,-6.52948,-6.48608,0,0,0,0,0,0,0,-1,853,610,-6.52945,6.48606
-364,414,-6.76282,-6.58759,0,0,0,0,0,0,0,-1,860,610,-6.7628,6.58756
-357,414,-9.08685,-8.86188,0,0,0,0,0,0,0,-1,867,610,-9.08688,8.86187
-350,414,-6.4502,-2.41821,0,0,0,0,0,0,0,-1,874,610,-6.45021,2.41822
-343,414,-6.80249,-2.32117,0,0,0,0,0,0,0,-1,881,610,-6.80252,2.32116
-336,414,-7.11017,-2.52026,0,0,0,0,0,0,0,-1,888,610,-7.11016,2.52026
-329,414,-7.59747,-2.70313,0,0,0,0,0,0,0,-1,895,610,-7.59747,2.70315
-322,414,-4.42236,-1.29163,0,0,0,0,0,0,0,-1,902,610,-4.42238,1.2916
-315,414,0,0,0,0,0,0,0,0,0,-1,909,610,0,0
-308,414,0,0,0,0,0,0,0,0,0,-1,916,610,0,0
-301,414,0,0,0,0,0,0,0,0,0,-1,923,610,0,0
-294,414,0,0,0,0,0,0,0,0,0,-1,930,610,0,0
-287,414,0,0,0,0,0,0,0,0,0,-1,937,610,0,0
-280,414,0,0,0,0,0,0,0,0,0,-1,944,610,0,0
-273,414,0,0,0,0,0,0,0,0,0,-1,951,610,0,0
-266,414,0,0,0,0,0,0,0,0,0,-1,958,610,0,0
-259,414,0,0,0,0,0,0,0,0,0,-1,965,610,0,0
-252,414,0,0,0,0,0,0,0,0,0,-1,972,610,0,0
-245,414,0,0,0,0,0,0,0,0,0,-1,979,610,0,0
-238,414,0,0,0,0,0,0,0,0,0,-1,986,610,0,0
-231,414,0,0,0,0,0,0,0,0,0,-1,993,610,0,0
-224,414,0,0,0,0,0,0,0,0,0,-1,1000,610,0,0
-217,414,0,0,0,0,0,0,0,0,0,-1,1007,610,0,0
-210,414,0,0,0,0,0,0,0,0,0,-1,1014,610,0,0
-203,414,0,0,0,0,0,0,0,0,0,-1,1021,610,0,0
-196,414,0,0,0,0,0,0,0,0,0,-1,1028,610,0,0
-189,414,0,0,0,0,0,0,0,0,0,-1,1035,610,0,0
-182,414,0,0,0,0,0,0,0,0,0,-1,1042,610,0,0
-175,414,0,0,0,0,0,0,0,0,0,-1,1049,610,0,0
-168,414,0,0,0,0,0,0,0,0,0,-1,1056,610,0,0
-161,414,0,0,0,0,0,0,0,0,0,-1,1063,610,0,0
-154,414,0,0,0,0,0,0,0,0,0,-1,1070,610,0,0
-147,414,0,0,0,0,0,0,0,0,0,-1,1077,610,0,0
-140,414,0,0,0,0,0,0,0,0,0,-1,1084,610,0,0
-133,414,0,0,0,0,0,0,0,0,0,-1,1091,610,0,0
-126,414,0,0,0,0,0,0,0,0,0,-1,1098,610,0,0
-119,414,0,0,0,0,0,0,0,0,0,-1,1105,610,0,0
-112,414,0,0,0,0,0,0,0,0,0,-1,1112,610,0,0
-105,414,0,0,0,0,0,0,0,0,0,-1,1119,610,0,0
-98,414,0,0,0,0,0,0,0,0,0,-1,1126,610,0,0
-91,414,0,0,0,0,0,0,0,0,0,-1,1133,610,0,0
-84,414,0,0,0,0,0,0,0,0,0,-1,1140,610,0,0
-77,414,0,0,0,0,0,0,0,0,0,-1,1147,610,0,0
-70,414,0,0,0,0,0,0,0,0,0,-1,1154,610,0,0
-63,414,0,0,0,0,0,0,0,0,0,-1,1161,610,0,0
-56,414,0,0,0,0,0,0,0,0,0,-1,1168,610,0,0
-49,414,0,0,0,0,0,0,0,0,0,-1,1175,610,0,0
-42,414,0,0,0,0,0,0,0,0,0,-1,1182,610,0,0
-35,414,0,0,0,0,0,0,0,0,0,-1,1189,610,0,0
-28,414,0,0,0,0,0,0,0,0,0,-1,1196,610,0,0
-21,414,0,0,0,0,0,0,0,0,0,-1,1203,610,0,0
-14,414,0,0,0,0,0,0,0,0,0,-1,1210,610,0,0
-7,414,0,0,0,0,0,0,0,0,0,-1,1217,610,0,0
0,414,0,0,0,0,0,0,0,0,0,-1,1224,610,0,0
7,414,0,0,0,0,0,0,0,0,0,-1,1231,610,0,0
14,414,0,0,0,0,0,0,0,0,0,-1,1238,610,0,0
21,414,0,0,0,0,0,0,0,0,0,-1,1245,610,0,0
28,414,0,0,0,0,0,0,0,0,0,-1,1252,610,0,0
35,414,0,0,0,0,0,0,0,0,0,-1,1259,610,0,0
42,414,0,0,0,0,0,0,0,0,0,-1,1266,610,0,0
49,414,0,0,0,0,0,0,0,0,0,-1,1273,610,0,0
56,414,0,0,0,0,0,0,0,0,0,-1,1280,610,0,0
63,414,0,0,0,0,0,0,0,0,0,-1,1287,610,0,0
70,414,0,0,0,0,0,0,0,0,0,-1,1294,610,0,0
77,414,0,0,0,0,0,0,0,0,0,-1,1301,610,0,0
84,414,0,0,0,0,0,0,0,0,0,-1,1308,610,0,0
91,414,0,0,0,0,0,0,0,0,0,-1,1315,610,0,0
98,414,0,0,0,0,0,0,0,0,0,-1,1322,610,0,0
105,414,0,0,0,0,0,0,0,0,0,-1,1329,610,0,0
112,414,0,0,0,0,0,0,0,0,0,-1,1336,610,0,0
119,414,0,0,0,0,0,0,0,0,0,-1,1343,610,0,0
126,414,0,0,0,0,0,0,0,0,0,-1,1350,610,0,0
133,414,0,0,0,0,0,0,0,0,0,-1,1357,610,0,0
140,414,0,0,0,0,0,0,0,0,0,-1,1364,610,0,0
147,414,0,0,0,0,0,0,0,0,0,-1,1371,610,0,0
154,414,0,0,0,0,0,0,0,0,0,-1,1378,610,0,0
161,414,0,0,0,0,0,0,0,0,0,-1,1385,610,0,0
168,414,0,0,0,0,0,0,0,0,0,-1,1392,610,0,0
175,414,0,0,0,0,0,0,0,0,0,-1,1399,610,0,0
182,414,0,0,0,0,0,0,0,0,0,-1,1406,610,0,0
189,414,0,0,0,0,0,0,0,0,0,-1,1413,610,0,0
196,414,0,0,0,0,0,0,0,0,0,-1,1420,610,0,0
203,414,0,0,0,0,0,0,0,0,0,-1,1427,610,0,0
210,414,0,0,0,0,0,0,0,0,0,-1,1434,610,0,0
217,414,0,0,0,0,0,0,0,0,0,-1,1441,610,0,0
224,414,0,0,0,0,0,0,0,0,0,-1,1448,610,0,0
231,414,0,0,0,0,0,0,0,0,0,-1,1455,610,0,0
238,414,0,0,0,0,0,0,0,0,0,-1,1462,610,0,0
245,414,0,0,0,0,0,0,0,0,0,-1,1469,610,0,0
252,414,0,0,0,0,0,0,0,0,0,-1,1476,610,0,0
259,414,0,0,0,0,0,0,0,0,0,-1,1483,610,0,0
266,414,0,0,0,0,0,0,0,0,0,-1,1490,610,0,0
273,414,0,0,0,0,0,0,0,0,0,-1,1497,610,0,0
280,414,0,0,0,0,0,0,0,0,0,-1,1504,610,0,0
287,414,0,0,0,0,0,0,0,0,0,-1,1511,610,0,0
294,414,0,0,0,0,0,0,0,0,0,-1,1518,610,0,0
301,414,0,0,0,0,0,0,0,0,0,-1,1525,610,0,0
308,414,0,0,0,0,0,0,0,0,0,-1,1532,610,0,0
315,414,0,0,0,0,0,0,0,0,0,-1,1539,610,0,0
322,414,0,0,0,0,0,0,0,0,0,-1,1546,610,0,0
329,414,0,0,0,0,0,0,0,0,0,-1,1553,610,0,0
336,414,0,0,0,0,0,0,0,0,0,-1,1560,610,0,0
343,414,0,0,0,0,0,0,0,0,0,-1,1567,610,0,0
350,414,0,0,0,0,0,0,0,0,0,-1,1574,610,0,0
357,414,0,0,0,0,0,0,0,0,0,-1,1581,610,0,0
364,414,0,0,0,0,0,0,0,0,0,-1,1588,610,0,0
371,414,0,0,0,0,0,0,0,0,0,-1,1595,610,0,0
378,414,0,0,0,0,0,0,0,0,0,-1,1602,610,0,0
385,414,0,0,0,0,0,0,0,0,0,-1,1609,610,0,0
392,414,0,0,0,0,0,0,0,0,0,-1,1616,610,0,0
399,414,0,0,0,0,0,0,0,0,0,-1,1623,610,0,0
406,414,0,0,0,0,0,0,0,0,0,-1,1630,610,0,0
413,414,0,0,0,0,0,0,0,0,0,-1,1637,610,0,0
420,414,0,0,0,0,0,0,0,0,0,-1,1644,610,0,0
427,414,0,0,0,0,0,0,0,0,0,-1,1651,610,0,0
434,414,0,0,0,0,0,0,0,0,0,-1,1658,610,0,0
441,414,7.84375,0.584412,0,0,0,0,0,0,0,-1,1665,610,7.84379,-0.584394
448,414,7.40808,1.25446,0,0,0,0,0,0,0,-1,1672,610,7.40807,-1.25446
455,414,6.3512,1.73846,0,0,0,0,0,0,0,-1,1679,610,6.3512,-1.73847
462,414,8.18103,3.22113,0,0,0,0,0,0,0,-1,1686,610,8.18108,-3.22112
469,414,8.38513,2.49579,0,0,0,0,0,0,0,-1,1693,610,8.38516,-2.49576
476,414,8.64099,1.71161,0,0,0,0,0,0,0,-1,1700,610,8.64097,-1.71164
483,414,8.62744,0.687622,0,0,0,0,0,0,0,-1,1707,610,8.62749,-0.687615
490,414,8.38831,-0.0302734,0,0,0,0,0,0,0,-1,1714,610,8.38835,0.0302913
497,414,4.71094,-0.110046,0,0,0,0,0,0,0,-1,1721,610,4.71089,0.110024
504,414,7.19568,-1.43835,0,0,0,0,0,0,0,-1,1728,610,7.19563,1.43836
511,414,5.94153,-1.28772,0,0,0,0,0,0,0,-1,1735,610,5.94151,1.28769
518,414,4.53381,-0.0996704,0,0,0,0,0,0,0,-1,1742,610,4.53378,0.0996819
525,414,6.18811,-1.64056,0,0,0,0,0,0,0,-1,1749,610,6.18814,1.64055
532,414,12.0212,-6.42004,0,0,0,0,0,0,0,-1,1756,610,12.0212,6.42003
539,414,12.0822,-5.92694,0.00266326,0.00183561,0.00183623,0.00413171,0.000367156,0.674566,0.00264061,0.0487024,1763,610,12.0822,5.92696
546,414,12.1293,-5.45984,0.00186888,0.00128873,0.00120203,0.00281535,0.000342267,0.667001,0.00177385,0.0135584,1770,610,12.1293,5.45983
553,414,12.1454,-5.10229,0.00128476,0.00079716,0.000735744,0.00181604,0.000265873,0.62541,0.00113252,0.0118061,1777,610,12.1454,5.10228
560,414,12.1549,-4.72815,0.000795922,0.000474145,0.000414383,0.00107955,0.000190513,0.600225,0.000665353,0.0139626,1784,610,12.155,4.72813
567,414,12.1412,-4.35852,0.000452797,0.000309446,0.000263219,0.000653925,0.000108318,0.652469,0.000404705,0.023299,1791,610,12.1413,4.35854
574,414,12.1084,-4.00769,0.000284977,0.000297487,0.000273842,0.000565146,1.73185e-05,0.796817,0.000371126,0.0207238,1798,610,12.1084,4.00769
581,414,12.1094,-3.65222,0.000202895,0.000384375,0.000410943,0.000714477,-0.000127206,0.894059,0.000523893,0.015461,1805,610,12.1094,3.65224
588,414,12.1082,-3.30219,0.000224952,0.000684337,0.000708773,0.00119971,-0.000290418,0.942094,0.000912154,0.01557,1812,610,12.1081,3.3022
595,414,12.1361,-2.89282,0.000442097,0.00120266,0.00120164,0.00208275,-0.000437996,0.938647,0.0015552,0.0212935,1819,610,12.1361,2.8928
602,414,12.1218,-2.5332,0.000752778,0.00194978,0.00182691,0.00327373,-0.000571173,0.94369,0.00239568,0.0241774,1826,610,12.1218,2.5332
609,414,12.0879,-2.16382,0,0,0,0,0,0,0,-1,1833,610,12.0879,2.16379
616,414,12.3585,-1.60077,0,0,0,0,0,0,0,-1,1840,610,12.3585,1.60075
623,414,9.6969,0.0378418,0,0,0,0,0,0,0,-1,1847,610,9.69685,-0.0378644
630,414,5.47144,0.499329,0,0,0,0,0,0,0,-1,1854,610,5.47142,-0.499303
637,414,8.0824,4.20221,0,0,0,0,0,0,0,-1,1861,610,8.08239,-4.20223
644,414,5.87073,1.51422,0,0,0,0,0,0,0,-1,1868,610,5.87076,-1.51424
651,414,3.6377,0.820557,0,0,0,0,0,0,0,-1,1875,610,3.6377,-0.820543
658,414,2.29761,3.87323,0,0,0,0,0,0,0,-1,1882,610,2.29758,-3.87325
665,414,0,0,0,0,0,0,0,0,0,-1,1889,610,0,0
672,414,0,0,0,0,0,0,0,0,0,-1,1896,610,0,0
679,414,0,0,0,0,0,0,0,0,0,-1,1903,610,0,0
686,414,0,0,0,0,0,0,0,0,0,-1,1910,610,0,0
693,414,0,0,0,0,0,0,0,0,0,-1,1917,610,0,0
700,414,0,0,0,0,0,0,0,0,0,-1,1924,610,0,0
707,414,0,0,0,0,0,0,0,0,0,-1,1931,610,0,0
714,414,0,0,0,0,0,0,0,0,0,-1,1938,610,0,0
721,414,0,0,0,0,0,0,0,0,0,-1,1945,610,0,0
728,414,0,0,0,0,0,0,0,0,0,-1,1952,610,0,0
735,414,0,0,0,0,0,0,0,0,0,-1,1959,610,0,0
742,414,0,0,0,0,0,0,0,0,0,-1,1966,610,0,0
749,414,0,0,0,0,0,0,0,0,0,-1,1973,610,0,0
756,414,0,0,0,0,0,0,0,0,0,-1,1980,610,0,0
763,414,0,0,0,0,0,0,0,0,0,-1,1987,610,0,0
770,414,0,0,0,0,0,0,0,0,0,-1,1994,610,0,0
777,414,0,0,0,0,0,0,0,0,0,-1,2001,610,0,0
784,414,0,0,0,0,0,0,0,0,0,-1,2008,610,0,0
791,414,0,0,0,0,0,0,0,0,0,-1,2015,610,0,0
798,414,0,0,0,0,0,0,0,0,0,-1,2022,610,0,0
805,414,0,0,0,0,0,0,0,0,0,-1,2029,610,0,0
812,414,0,0,0,0,0,0,0,0,0,-1,2036,610,0,0
-700,407,0,0,0,0,0,0,0,0,0,-1,524,617,0,0
-693,407,0,0,0,0,0,0,0,0,0,-1,531,617,0,0
-686,407,0,0,0,0,0,0,0,0,0,-1,538,617,0,0
-679,407,0,0,0,0,0,0,0,0,0,-1,545,617,0,0
-672,407,0,0,0,0,0,0,0,0,0,-1,552,617,0,0
-665,407,0,0,0,0,0,0,0,0,0,-1,559,617,0,0
-658,407,0,0,0,0,0,0,0,0,0,-1,566,617,0,0
-651,407,0,0,0,0,0,0,0,0,0,-1,573,617,0,0
-644,407,0,0,0,0,0,0,0,0,0,-1,580,617,0,0
-637,407,0,0,0,0,0,0,0,0,0,-1,587,617,0,0
-630,407,0,0,0,0,0,0,0,0,0,-1,594,617,0,0
-623,407,0,0,0,0,0,0,0,0,0,-1,601,617,0,0
-616,407,0,0,0,0,0,0,0,0,0,-1,608,617,0,0
-609,407,0,0,0,0,0,0,0,0,0,-1,615,617,0,0
-602,407,0,0,0,0,0,0,0,0,0,-1,622,617,0,0
-595,407,0,0,0,0,0,0,0,0,0,-1,629,617,0,0
-588,407,0,0,0,0,0,0,0,0,0,-1,636,617,0,0
-581,407,0,0,0,0,0,0,0,0,0,-1,643,617,0,0
-574,407,0,0,0,0,0,0,0,0,0,-1,650,617,0,0
-567,407,0,0,0,0,0,0,0,0,0,-1,657,617,0,0
-560,407,0,0,0,0,0,0,0,0,0,-1,664,617,0,0
-553,407,0,0,0,0,0,0,0,0,0,-1,671,617,0,0
-546,407,-8.54517,-0.658142,0,0,0,0,0,0,0,-1,678,617,-8.54515,0.658112
-539,407,-6.09442,-1.01154,0,0,0,0,0,0,0,-1,685,617,-6.09441,1.01155
-532,407,-7.75665,1.62152,0,0,0,0,0,0,0,-1,692,617,-7.75667,-1.62154
-525,407,-3.78247,-2.67639,0,0,0,0,0,0,0,-1,699,617,-3.78246,2.67638
-518,407,-5.013,-5.87323,0,0,0,0,0,0,0,-1,706,617,-5.013,5.87324
-511,407,-4.26392,-4.37659,0,0,0,0,0,0,0,-1,713,617,-4.26393,4.37658
-504,407,-5.71747,-3.51605,0,0,0,0,0,0,0,-1,720,617,-5.71745,3.51608
-497,407,-5.55951,-3.62225,0.00841696,0.00954155,-0.00706111,0.0160627,0.00189579,-0.82513,0.0101358,0.0422636,727,617,-5.55954,3.62224
-490,407,-5.40283,-3.65161,0.00682512,0.00737942,-0.00599796,0.0131066,0.0010979,-0.808485,0.00839575,0.0275677,734,617,-5.40286,3.65163
-483,407,-5.34778,-3.96198,0.00557541,0.00584576,-0.00518342,0.0108958,0.000525406,-0.798434,0.0070952,0.017172,741,617,-5.34781,3.96195
-476,407,-5.37494,-4.3064,0.00442548,0.00449349,-0.0042786,0.00873822,0.000180746,-0.789372,0.00576618,0.0117629,748,617,-5.37492,4.30642
-469,407,-5.40497,-4.65094,0.00353668,0.00354055,-0.00354179,0.00708041,-3.17954e-06,-0.785671,0.00472133,0.012273,755,617,-5.40496,4.65095
-462,407,-5.45789,-4.99957,0.0028197,0.00264972,-0.00293332,0.00566926,-0.000199845,-0.770915,0.00384785,0.0189527,762,617,-5.4579,4.99958
-455,407,-5.45776,-5.39148,0.0021073,0.00193291,-0.00217689,0.00419875,-0.000158531,-0.765381,0.00285348,0.0210842,769,617,-5.45774,5.39147
-448,407,-5.42175,-5.74628,0.00145848,0.00109633,-0.00131285,0.00260268,-4.78715e-05,-0.716867,0.0017513,0.0185805,776,617,-5.42175,5.74627
-441,407,-5.44232,-6.06183,0.000705986,0.000519317,-0.000435301,0.00105785,0.000167457,-0.67979,0.000656569,0.0137373,783,617,-5.44233,6.06185
-434,407,-5.44824,-6.39526,-0.000100818,-0.000299876,0.000553712,0.000362239,-0.000762932,0.696474,0.000663207,0.010775,790,617,-5.44823,6.39526
-427,407,-5.41864,-6.73785,-0.00100869,-0.00135389,0.00175558,0.000582759,-0.00294534,0.736398,0.00218388,0.0110446,797,617,-5.41865,6.73787
-420,407,-5.40417,-7.07977,-0.00210621,-0.00251391,0.00298939,0.000686273,-0.00530639,0.751355,0.00378713,0.0105781,804,617,-5.40418,7.07978
-413,407,-5.41138,-7.42236,-0.00372033,-0.004174,0.00458808,0.00064652,-0.00854085,0.760698,0.00592118,0.0122363,811,617,-5.41139,7.42239
-406,407,-5.43799,-7.65759,-0.00580382,-0.00638702,0.00662605,0.000537037,-0.0127279,0.763408,0.00866981,0.0284479,818,617,-5.43798,7.6576
-399,407,-5.45313,-7.69128,-0.00846916,-0.00940778,0.00914067,0.000214243,-0.0180912,0.759749,0.0121328,0.0468816,825,617,-5.45312,7.6913
-392,407,-5.33209,-7.79291,0,0,0,0,0,0,0,-1,832,617,-5.33208,7.7929
-385,407,-6.22467,-8.16498,0,0,0,0,0,0,0,-1,839,617,-6.22468,8.16498
-378,407,-7.28882,-5.95453,0,0,0,0,0,0,0,-1,846,617,-7.28881,5.95453
-371,407,-7.4007,-5.79449,0,0,0,0,0,0,0,-1,853,617,-7.40072,5.79447
-364,407,-10.0638,-6.6228,0,0,0,0,0,0,0,-1,860,617,-10.0639,6.62279
-357,407,-6.64447,-1.83337,0,0,0,0,0,0,0,-1,867,617,-6.64446,1.8334
-350,407,-7.03351,-1.77551,0,0,0,0,0,0,0,-1,874,617,-7.03349,1.77551
-343,407,-7.40967,-1.95026,0,0,0,0,0,0,0,-1,881,617,-7.40969,1.95026
-336,407,-8.10229,-2.40662,0,0,0,0,0,0,0,-1,888,617,-8.10229,2.40664
-329,407,-8.81232,-2.76331,0,0,0,0,0,0,0,-1,895,617,-8.81235,2.76331
-322,407,0,0,0,0,0,0,0,0,0,-1,902,617,0,0
-315,407,0,0,0,0,0,0,0,0,0,-1,909,617,0,0
-308,407,0,0,0,0,0,0,0,0,0,-1,916,617,0,0
-301,407,0,0,0,0,0,0,0,0,0,-1,923,617,0,0
-294,407,0,0,0,0,0,0,0,0,0,-1,930,617,0,0
-287,407,0,0,0,0,0,0,0,0,0,-1,937,617,0,0
-280,407,0,0,0,0,0,0,0,0,0,-1,944,617,0,0
-273,407,0,0,0,0,0,0,0,0,0,-1,951,617,0,0
-266,407,0,0,0,0,0,0,0,0,0,-1,958,617,0,0
-259,407,0,0,0,0,0,0,0,0,0,-1,965,617,0,0
-252,407,0,0,0,0,0,0,0,0,0,-1,972,617,0,0
-245,407,0,0,0,0,0,0,0,0,0,-1,979,617,0,0
-238,407,0,0,0,0,0,0,0,0,0,-1,986,617,0,0
-231,407,0,0,0,0,0,0,0,0,0,-1,993,617,0,0
-224,407,0,0,0,0,0,0,0,0,0,-1,1000,617,0,0
-217,407,0,0,0,0,0,0,0,0,0,-1,1007,617,0,0
-210,407,0,0,0,0,0,0,0,0,0,-1,1014,617,0,0
-203,407,0,0,0,0,0,0,0,0,0,-1,1021,617,0,0
-196,407,0,0,0,0,0,0,0,0,0,-1,1028,617,0,0
-189,407,0,0,0,0,0,0,0,0,0,-1,1035,617,0,0
-182,407,0,0,0,0,0,0,0,0,0,-1,1042,617,0,0
-175,407,0,0,0,0,0,0,0,0,0,-1,1049,617,0,0
-168,407,0,0,0,0,0,0,0,0,0,-1,1056,617,0,0
-161,407,0,0,0,0,0,0,0,0,0,-1,1063,617,0,0
-154,407,0,0,0,0,0,0,0,0,0,-1,1070,617,0,0
-147,407,0,0,0,0,0,0,0,0,0,-1,1077,617,0,0
-140,407,0,0,0,0,0,0,0,0,0,-1,1084,617,0,0
-133,407,0,0,0,0,0,0,0,0,0,-1,1091,617,0,0
-126,407,0,0,0,0,0,0,0,0,0,-1,1098,617,0,0
-119,407,0,0,0,0,0,0,0,0,0,-1,1105,617,0,0
-112,407,0,0,0,0,0,0,0,0,0,-1,1112,617,0,0
-105,407,0,0,0,0,0,0,0,0,0,-1,1119,617,0,0
-98,407,0,0,0,0,0,0,0,0,0,-1,1126,617,0,0
-91,407,0,0,0,0,0,0,0,0,0,-1,1133,617,0,0
-84,407,0,0,0,0,0,0,0,0,0,-1,1140,617,0,0
-77,407,0,0,0,0,0,0,0,0,0,-1,1147,617,0,0
-70,407,0,0,0,0,0,0,0,0,0,-1,1154,617,0,0
-63,407,0,0,0,0,0,0,0,0,0,-1,1161,617,0,0
-56,407,0,0,0,0,0,0,0,0,0,-1,1168,617,0,0
-49,407,0,0,0,0,0,0,0,0,0,-1,1175,617,0,0
-42,407,0,0,0,0,0,0,0,0,0,-1,1182,617,0,0
-35,407,0,0,0,0,0,0,0,0,0,-1,1189,617,0,0
-28,407,0,0,0,0,0,0,0,0,0,-1,1196,617,0,0
-21,407,0,0,0,0,0,0,0,0,0,-1,1203,617,0,0
-14,407,0,0,0,0,0,0,0,0,0,-1,1210,617,0,0
-7,407,0,0,0,0,0,0,0,0,0,-1,1217,617,0,0
0,407,0,0,0,0,0,0,0,0,0,-1,1224,617,0,0
7,407,0,0,0,0,0,0,0,0,0,-1,1231,617,0,0
14,407,0,0,0,0,0,0,0,0,0,-1,1238,617,0,0
21,407,0,0,0,0,0,0,0,0,0,-1,1245,617,0,0
28,407,0,0,0,0,0,0,0,0,0,-1,1252,617,0,0
35,407,0,0,0,0,0,0,0,0,0,-1,1259,617,0,0
42,407,0,0,0,0,0,0,0,0,0,-1,1266,617,0,0
49,407,0,0,0,0,0,0,0,0,0,-1,1273,617,0,0
56,407,0,0,0,0,0,0,0,0,0,-1,1280,617,0,0
63,407,0,0,0,0,0,0,0,0,0,-1,1287,617,0,0
70,407,0,0,0,0,0,0,0,0,0,-1,1294,617,0,0
77,407,0,0,0,0,0,0,0,0,0,-1,1301,617,0,0
84,407,0,0,0,0,0,0,0,0,0,-1,1308,617,0,0
91,407,0,0,0,0,0,0,0,0,0,-1,1315,617,0,0
98,407,0,0,0,0,0,0,0,0,0,-1,1322,617,0,0
105,407,0,0,0,0,0,0,0,0,0,-1,1329,617,0,0
112,407,0,0,0,0,0,0,0,0,0,-1,1336,617,0,0
119,407,0,0,0,0,0,0,0,0,0,-1,1343,617,0,0
126,407,0,0,0,0,0,0,0,0,0,-1,1350,617,0,0
133,407,0,0,0,0,0,0,0,0,0,-1,1357,617,0,0
140,407,0,0,0,0,0,0,0,0,0,-1,1364,617,0,0
147,407,0,0,0,0,0,0,0,0,0,-1,1371,617,0,0
154,407,0,0,0,0,0,0,0,0,0,-1,1378,617,0,0
161,407,0,0,0,0,0,0,0,0,0,-1,1385,617,0,0
168,407,0,0,0,0,0,0,0,0,0,-1,1392,617,0,0
175,407,0,0,0,0,0,0,0,0,0,-1,1399,617,0,0
182,407,0,0,0,0,0,0,0,0,0,-1,1406,617,0,0
189,407,0,0,0,0,0,0,0,0,0,-1,1413,617,0,0
196,407,0,0,0,0,0,0,0,0,0,-1,1420,617,0,0
203,407,0,0,0,0,0,0,0,0,0,-1,1427,617,0,0
210,407,0,0,0,0,0,0,0,0,0,-1,1434,617,0,0
217,407,0,0,0,0,0,0,0,0,0,-1,1441,617,0,0
224,407,0,0,0,0,0,0,0,0,0,-1,1448,617,0,0
231,407,0,0,0,0,0,0,0,0,0,-1,1455,617,0,0
238,407,0,0,0,0,0,0,0,0,0,-1,1462,617,0,0
245,407,0,0,0,0,0,0,0,0,0,-1,1469,617,0,0
252,407,0,0,0,0,0,0,0,0,0,-1,1476,617,0,0
259,407,0,0,0,0,0,0,0,0,0,-1,1483,617,0,0
266,407,0,0,0,0,0,0,0,0,0,-1,1490,617,0,0
273,407,0,0,0,0,0,0,0,0,0,-1,1497,617,0,0
280,407,0,0,0,0,0,0,0,0,0,-1,1504,617,0,0
287,407,0,0,0,0,0,0,0,0,0,-1,1511,617,0,0
294,407,0,0,0,0,0,0,0,0,0,-1,1518,617,0,0
301,407,0,0,0,0,0,0,0,0,0,-1,1525,617,0,0
308,407,0,0,0,0,0,0,0,0,0,-1,1532,617,0,0
315,407,0,0,0,0,0,0,0,0,0,-1,1539,617,0,0
322,407,0,0,0,0,0,0,0,0,0,-1,1546,617,0,0
329,407,0,0,0,0,0,0,0,0,0,-1,1553,617,0,0
336,407,0,0,0,0,0,0,0,0,0,-1,1560,617,0,0
343,407,0,0,0,0,0,0,0,0,0,-1,1567,617,0,0
350,407,0,0,0,0,0,0,0,0,0,-1,1574,617,0,0
357,407,0,0,0,0,0,0,0,0,0,-1,1581,617,0,0
364,407,0,0,0,0,0,0,0,0,0,-1,1588,617,0,0
371,407,0,0,0,0,0,0,0,0,0,-1,1595,617,0,0
378,407,0,0,0,0,0,0,0,0,0,-1,1602,617,0,0
385,407,0,0,0,0,0,0,0,0,0,-1,1609,617,0,0
392,407,0,0,0,0,0,0,0,0,0,-1,1616,617,0,0
399,407,0,0,0,0,0,0,0,0,0,-1,1623,617,0,0
406,407,0,0,0,0,0,0,0,0,0,-1,1630,617,0,0
413,407,0,0,0,0,0,0,0,0,0,-1,1637,617,0,0
420,407,0,0,0,0,0,0,0,0,0,-1,1644,617,0,0
427,407,0,0,0,0,0,0,0,0,0,-1,1651,617,0,0
434,407,0,0,0,0,0,0,0,0,0,-1,1658,617,0,0
441,407,0,0,0,0,0,0,0,0,0,-1,1665,617,0,0
448,407,7.02893,2.13843,0,0,0,0,0,0,0,-1,1672,617,7.02899,-2.13844
455,407,7.55237,2.29242,0,0,0,0,0,0,0,-1,1679,617,7.55236,-2.29244
462,407,8.2926,2.46173,0,0,0,0,0,0,0,-1,1686,617,8.29261,-2.46174
469,407,8.71509,2.22681,0,0,0,0,0,0,0,-1,1693,617,8.71511,-2.22681
476,407,8.89917,1.47766,0,0,0,0,0,0,0,-1,1700,617,8.89914,-1.47768
483,407,9.02612,0.682983,0,0,0,0,0,0,0,-1,1707,617,9.02608,-0.683004
490,407,9.12659,0.000671387,0,0,0,0,0,0,0,-1,1714,617,9.12653,-0.000675931
497,407,7.76819,0.855835,0,0,0,0,0,0,0,-1,1721,617,7.7682,-0.855865
504,407,4.69336,0.160706,0,0,0,0,0,0,0,-1,1728,617,4.69337,-0.1607
511,407,4.07104,-0.00140381,0,0,0,0,0,0,0,-1,1735,617,4.07109,0.00141425
518,407,6.09534,1.9411,0,0,0,0,0,0,0,-1,1742,617,6.09532,-1.94113
525,407,5.72534,-1.35986,0,0,0,0,0,0,0,-1,1749,617,5.72529,1.35988
532,407,12.307,-5.82465,0,0,0,0,0,0,0,-1,1756,617,12.307,5.82467
539,407,12.447,-5.86273,0,0,0,0,0,0,0,-1,1763,617,12.447,5.86273
546,407,12.4993,-5.46051,0.00161449,0.00147304,0.001079,0.00262508,0.00046245,0.752672,0.00161809,0.0170266,1770,617,12.4993,5.46052
553,407,12.4835,-5.10901,0.00112786,0.000899945,0.000589697,0.00161451,0.000413294,0.689953,0.00096843,0.0146352,1777,617,12.4835,5.10902
560,407,12.5153,-4.70728,0.00073194,0.000542608,0.000275606,0.000928685,0.000345863,0.619969,0.000541963,0.0160902,1784,617,12.5152,4.70726
567,407,12.4894,-4.3374,0.000464868,0.000349374,0.000140142,0.000558695,0.000255547,0.589969,0.000322953,0.0287267,1791,617,12.4893,4.33738
574,407,12.485,-4.03119,0.000359693,0.000342509,0.000184127,0.000535428,0.000166774,0.762083,0.000316369,0.0242209,1798,617,12.485,4.03117
581,407,12.478,-3.63928,0.000322034,0.000440249,0.000335916,0.000722219,4.00649e-05,0.872486,0.000468695,0.0164431,1805,617,12.478,3.63925
588,407,12.4633,-3.28741,0.000373027,0.00073722,0.000627017,0.00120805,-9.78002e-05,0.926719,0.000839865,0.0118515,1812,617,12.4633,3.28741
595,407,12.4829,-2.91504,0.000625171,0.00121511,0.00109458,0.00205376,-0.000213484,0.917012,0.0014456,0.0223637,1819,617,12.4829,2.91502
602,407,12.4817,-2.53021,0.000963756,0.00188963,0.00168465,0.0031738,-0.000320406,0.919487,0.00223035,0.0188586,1826,617,12.4817,2.5302
609,407,12.4292,-2.12329,0.00134838,0.00260476,0.00232159,0.00438164,-0.000428505,0.917526,0.0030739,0.016527,1833,617,12.4291,2.12331
616,407,12.4861,-1.66504,0.00172243,0.00353644,0.00300143,0.00576491,-0.000506045,0.93213,0.00402258,0.0294362,1840,617,12.486,1.66504
623,407,12.7405,-1.11908,0,0,0,0,0,0,0,-1,1847,617,12.7405,1.1191
630,407,7.06177,0.814575,0,0,0,0,0,0,0,-1,1854,617,7.06178,-0.814579
637,407,7.57141,1.14954,0,0,0,0,0,0,0,-1,1861,617,7.57139,-1.14955
644,407,5.09766,2.27747,0,0,0,0,0,0,0,-1,1868,617,5.09764,-2.27746
651,407,7.37524,0.0513916,0,0,0,0,0,0,0,-1,1875,617,7.3752,-0.0513923
658,407,3.76685,0.594177,0,0,0,0,0,0,0,-1,1882,617,3.76683,-0.594184
665,407,5.76123,0.375061,0,0,0,0,0,0,0,-1,1889,617,5.76118,-0.37509
672,407,0,0,0,0,0,0,0,0,0,-1,1896,617,0,0
679,407,0,0,0,0,0,0,0,0,0,-1,1903,617,0,0
686,407,0,0,0,0,0,0,0,0,0,-1,1910,617,0,0
693,407,0,0,0,0,0,0,0,0,0,-1,1917,617,0,0
700,407,0,0,0,0,0,0,0,0,0,-1,1924,617,0,0
707,407,0,0,0,0,0,0,0,0,0,-1,1931,617,0,0
714,407,0,0,0,0,0,0,0,0,0,-1,1938,617,0,0
721,407,0,0,0,0,0,0,0,0,0,-1,1945,617,0,0
728,407,0,0,0,0,0,0,0,0,0,-1,1952,617,0,0
735,407,0,0,0,0,0,0,0,0,0,-1,1959,617,0,0
742,407,0,0,0,0,0,0,0,0,0,-1,1966,617,0,0
749,407,0,0,0,0,0,0,0,0,0,-1,1973,617,0,0
756,407,0,0,0,0,0,0,0,0,0,-1,1980,617,0,0
763,407,0,0,0,0,0,0,0,0,0,-1,1987,617,0,0
770,407,0,0,0,0,0,0,0,0,0,-1,1994,617,0,0
777,407,0,0,0,0,0,0,0,0,0,-1,2001,617,0,0
784,407,0,0,0,0,0,0,0,0,0,-1,2008,617,0,0
791,407,0,0,0,0,0,0,0,0,0,-1,2015,617,0,0
798,407,0,0,0,0,0,0,0,0,0,-1,2022,617,0,0
805,407,0,0,0,0,0,0,0,0,0,-1,2029,617,0,0
812,407,0,0,0,0,0,0,0,0,0,-1,2036,617,0,0
-700,400,0,0,0,0,0,0,0,0,0,-1,524,624,0,0
-693,400,0,0,0,0,0,0,0,0,0,-1,531,624,0,0
-686,400,0,0,0,0,0,0,0,0,0,-1,538,624,0,0
-679,400,0,0,0,0,0,0,0,0,0,-1,545,624,0,0
-672,400,0,0,0,0,0,0,0,0,0,-1,552,624,0,0
-665,400,0,0,0,0,0,0,0,0,0,-1,559,624,0,0
-658,400,0,0,0,0,0,0,0,0,0,-1,566,624,0,0
-651,400,0,0,0,0,0,0,0,0,0,-1,573,624,0,0
-644,400,0,0,0,0,0,0,0,0,0,-1,580,624,0,0
-637,400,0,0,0,0,0,0,0,0,0,-1,587,624,0,0
-630,400,0,0,0,0,0,0,0,0,0,-1,594,624,0,0
-623,400,0,0,0,0,0,0,0,0,0,-1,601,624,0,0
-616,400,0,0,0,0,0,0,0,0,0,-1,608,624,0,0
-609,400,0,0,0,0,0,0,0,0,0,-1,615,624,0,0
-602,400,0,0,0,0,0,0,0,0,0,-1,622,624,0,0
-595,400,0,0,0,0,0,0,0,0,0,-1,629,624,0,0
-588,400,0,0,0,0,0,0,0,0,0,-1,636,624,0,0
-581,400,0,0,0,0,0,0,0,0,0,-1,643,624,0,0
-574,400,0,0,0,0,0,0,0,0,0,-1,650,624,0,0
-567,400,0,0,0,0,0,0,0,0,0,-1,657,624,0,0
-560,400,0,0,0,0,0,0,0,0,0,-1,664,624,0,0
-553,400,0,0,0,0,0,0,0,0,0,-1,671,624,0,0
-546,400,-8.41174,-1.4599,0,0,0,0,0,0,0,-1,678,624,-8.41173,1.45989
-539,400,-5.69104,-1.7337,0,0,0,0,0,0,0,-1,685,624,-5.69103,1.7337
-532,400,-3.03632,-2.03912,0,0,0,0,0,0,0,-1,692,624,-3.03632,2.03909
-525,400,-6.20813,-7.04071,0,0,0,0,0,0,0,-1,699,624,-6.20814,7.04071
-518,400,-4.9964,-5.26758,0,0,0,0,0,0,0,-1,706,624,-4.99638,5.26759
-511,400,-4.73004,-2.12067,0,0,0,0,0,0,0,-1,713,624,-4.73005,2.12068
-504,400,-5.85236,-3.30176,0,0,0,0,0,0,0,-1,720,624,-5.85233,3.30173
-497,400,-5.6795,-3.37616,0.00624881,0.00808079,-0.00547648,0.0127174,0.00161225,-0.868261,0.00799519,0.0362053,727,624,-5.67948,3.37614
-490,400,-5.71472,-3.58929,0.00488585,0.00590086,-0.00443112,0.00985345,0.000933262,-0.842415,0.00628103,0.0186902,734,624,-5.71473,3.58932
-483,400,-5.73645,-3.94678,0.00408162,0.00450273,-0.00378211,0.00808015,0.000504212,-0.813205,0.00522681,0.0149345,741,624,-5.73647,3.94679
-476,400,-5.73389,-4.29163,0.00331594,0.00322892,-0.00303293,0.00630567,0.000239185,-0.778225,0.00412636,0.0131495,748,624,-5.73389,4.29165
-469,400,-5.75757,-4.63727,0.00277064,0.00251753,-0.00254902,0.00519624,9.19288e-05,-0.760594,0.00343393,0.014761,755,624,-5.75756,4.63724
-462,400,-5.74689,-4.99512,0.00231248,0.00183954,-0.00219182,0.00428054,-0.000128529,-0.731662,0.00289749,0.0189485,762,624,-5.74686,4.9951
-455,400,-5.75745,-5.37244,0.00174118,0.00134905,-0.00159604,0.00315315,-6.29213e-05,-0.724281,0.00212339,0.0196497,769,624,-5.75745,5.37243
-448,400,-5.78162,-5.73529,0.0012117,0.000641359,-0.000881047,0.00185258,4.81552e-07,-0.628882,0.00123489,0.0147201,776,624,-5.78159,5.7353
-441,400,-5.79956,-6.04547,0.000505508,0.000149409,-0.000109756,0.000536618,0.000118299,-0.276209,0.000325558,0.0134352,783,624,-5.79958,6.04549
-434,400,-5.79565,-6.37408,-0.000306052,-0.000484391,0.000800459,0.000410189,-0.00120063,0.729928,0.00096661,0.0111954,790,624,-5.79567,6.37407
-427,400,-5.7774,-6.70721,-0.00134785,-0.00147639,0.00201907,0.000607977,-0.00343221,0.769488,0.00251541,0.00992557,797,624,-5.77743,6.70724
-420,400,-5.71643,-7.07166,-0.0026254,-0.00251636,0.0032576,0.000687177,-0.00582894,0.793765,0.0041341,0.0144103,804,624,-5.71641,7.07165
-413,400,-5.76868,-7.37909,-0.00459217,-0.00427232,0.00505933,0.000629616,-0.00949411,0.801197,0.00654937,0.032032,811,624,-5.76868,7.37911
-406,400,-6.271,-7.69983,-0.00740721,-0.00685353,0.00753139,0.000406102,-0.0146668,0.803769,0.00991604,0.0432389,818,624,-6.271,7.69985
-399,400,-5.80139,-7.34497,0,0,0,0,0,0,0,-1,825,624,-5.8014,7.34495
-392,400,-4.92285,-6.63354,0,0,0,0,0,0,0,-1,832,624,-4.92285,6.63354
-385,400,-3.68738,-5.04205,0,0,0,0,0,0,0,-1,839,624,-3.68736,5.04207
-378,400,-6.84064,-1.28662,0,0,0,0,0,0,0,-1,846,624,-6.84062,1.28662
-371,400,-6.98865,-1.2572,0,0,0,0,0,0,0,-1,853,624,-6.98865,1.25721
-364,400,-6.97247,-1.24133,0,0,0,0,0,0,0,-1,860,624,-6.97249,1.24135
-357,400,-7.18329,-1.23218,0,0,0,0,0,0,0,-1,867,624,-7.18327,1.2322
-350,400,-7.40186,-1.19409,0,0,0,0,0,0,0,-1,874,624,-7.40187,1.19407
-343,400,-8.09357,-1.51147,0,0,0,0,0,0,0,-1,881,624,-8.09355,1.51148
-336,400,0,0,0,0,0,0,0,0,0,-1,888,624,0,0
-329,400,0,0,0,0,0,0,0,0,0,-1,895,624,0,0
-322,400,0,0,0,0,0,0,0,0,0,-1,902,624,0,0
-315,400,0,0,0,0,0,0,0,0,0,-1,909,624,0,0
-308,400,0,0,0,0,0,0,0,0,0,-1,916,624,0,0
-301,400,0,0,0,0,0,0,0,0,0,-1,923,624,0,0
-294,400,0,0,0,0,0,0,0,0,0,-1,930,624,0,0
-287,400,0,0,0,0,0,0,0,0,0,-1,937,624,0,0
-280,400,0,0,0,0,0,0,0,0,0,-1,944,624,0,0
-273,400,0,0,0,0,0,0,0,0,0,-1,951,624,0,0
-266,400,0,0,0,0,0,0,0,0,0,-1,958,624,0,0
-259,400,0,0,0,0,0,0,0,0,0,-1,965,624,0,0
-252,400,0,0,0,0,0,0,0,0,0,-1,972,624,0,0
-245,400,0,0,0,0,0,0,0,0,0,-1,979,624,0,0
-238,400,0,0,0,0,0,0,0,0,0,-1,986,624,0,0
-231,400,0,0,0,0,0,0,0,0,0,-1,993,624,0,0
-224,400,0,0,0,0,0,0,0,0,0,-1,1000,624,0,0
-217,400,0,0,0,0,0,0,0,0,0,-1,1007,624,0,0
-210,400,0,0,0,0,0,0,0,0,0,-1,1014,624,0,0
-203,400,0,0,0,0,0,0,0,0,0,-1,1021,624,0,0
-196,400,0,0,0,0,0,0,0,0,0,-1,1028,624,0,0
-189,400,0,0,0,0,0,0,0,0,0,-1,1035,624,0,0
-182,400,0,0,0,0,0,0,0,0,0,-1,1042,624,0,0
-175,400,0,0,0,0,0,0,0,0,0,-1,1049,624,0,0
-168,400,0,0,0,0,0,0,0,0,0,-1,1056,624,0,0
-161,400,0,0,0,0,0,0,0,0,0,-1,1063,624,0,0
-154,400,0,0,0,0,0,0,0,0,0,-1,1070,624,0,0
-147,400,0,0,0,0,0,0,0,0,0,-1,1077,624,0,0
-140,400,0,0,0,0,0,0,0,0,0,-1,1084,624,0,0
-133,400,0,0,0,0,0,0,0,0,0,-1,1091,624,0,0
-126,400,0,0,0,0,0,0,0,0,0,-1,1098,624,0,0
-119,400,0,0,0,0,0,0,0,0,0,-1,1105,624,0,0
-112,400,0,0,0,0,0,0,0,0,0,-1,1112,624,0,0
-105,400,0,0,0,0,0,0,0,0,0,-1,1119,624,0,0
-98,400,0,0,0,0,0,0,0,0,0,-1,1126,624,0,0
-91,400,0,0,0,0,0,0,0,0,0,-1,1133,624,0,0
-84,400,0,0,0,0,0,0,0,0,0,-1,1140,624,0,0
-77,400,0,0,0,0,0,0,0,0,0,-1,1147,624,0,0
-70,400,0,0,0,0,0,0,0,0,0,-1,1154,624,0,0
-63,400,0,0,0,0,0,0,0,0,0,-1,1161,624,0,0
-56,400,0,0,0,0,0,0,0,0,0,-1,1168,624,0,0
-49,400,0,0,0,0,0,0,0,0,0,-1,1175,624,0,0
-42,400,0,0,0,0,0,0,0,0,0,-1,1182,624,0,0
-35,400,0,0,0,0,0,0,0,0,0,-1,1189,624,0,0
-28,400,0,0,0,0,0,0,0,0,0,-1,1196,624,0,0
-21,400,0,0,0,0,0,0,0,0,0,-1,1203,624,0,0
-14,400,0,0,0,0,0,0,0,0,0,-1,1210,624,0,0
-7,400,0,0,0,0,0,0,0,0,0,-1,1217,624,0,0
0,400,0,0,0,0,0,0,0,0,0,-1,1224,624,0,0
7,400,0,0,0,0,0,0,0,0,0,-1,1231,624,0,0
14,400,0,0,0,0,0,0,0,0,0,-1,1238,624,0,0
21,400,0,0,0,0,0,0,0,0,0,-1,1245,624,0,0
28,400,0,0,0,0,0,0,0,0,0,-1,1252,624,0,0
35,400,0,0,0,0,0,0,0,0,0,-1,1259,624,0,0
42,400,0,0,0,0,0,0,0,0,0,-1,1266,624,0,0
49,400,0,0,0,0,0,0,0,0,0,-1,1273,624,0,0
56,400,0,0,0,0,0,0,0,0,0,-1,1280,624,0,0
63,400,0,0,0,0,0,0,0,0,0,-1,1287,624,0,0
70,400,0,0,0,0,0,0,0,0,0,-1,1294,624,0,0
77,400,0,0,0,0,0,0,0,0,0,-1,1301,624,0,0
84,400,0,0,0,0,0,0,0,0,0,-1,1308,624,0,0
91,400,0,0,0,0,0,0,0,0,0,-1,1315,624,0,0
98,400,0,0,0,0,0,0,0,0,0,-1,1322,624,0,0
105,400,0,0,0,0,0,0,0,0,0,-1,1329,624,0,0
112,400,0,0,0,0,0,0,0,0,0,-1,1336,624,0,0
119,400,0,0,0,0,0,0,0,0,0,-1,1343,624,0,0
126,400,0,0,0,0,0,0,0,0,0,-1,1350,624,0,0
133,400,0,0,0,0,0,0,0,0,0,-1,1357,624,0,0
140,400,0,0,0,0,0,0,0,0,0,-1,1364,624,0,0
147,400,0,0,0,0,0,0,0,0,0,-1,1371,624,0,0
154,400,0,0,0,0,0,0,0,0,0,-1,1378,624,0,0
161,400,0,0,0,0,0,0,0,0,0,-1,1385,624,0,0
168,400,0,0,0,0,0,0,0,0,0,-1,1392,624,0,0
175,400,0,0,0,0,0,0,0,0,0,-1,1399,624,0,0
182,400,0,0,0,0,0,0,0,0,0,-1,1406,624,0,0
189,400,0,0,0,0,0,0,0,0,0,-1,1413,624,0,0
196,400,0,0,0,0,0,0,0,0,0,-1,1420,624,0,0
203,400,0,0,0,0,0,0,0,0,0,-1,1427,624,0,0
210,400,0,0,0,0,0,0,0,0,0,-1,1434,624,0,0
217,400,0,0,0,0,0,0,0,0,0,-1,1441,624,0,0
224,400,0,0,0,0,0,0,0,0,0,-1,1448,624,0,0
231,400,0,0,0,0,0,0,0,0,0,-1,1455,624,0,0
238,400,0,0,0,0,0,0,0,0,0,-1,1462,624,0,0
245,400,0,0,0,0,0,0,0,0,0,-1,1469,624,0,0
252,400,0,0,0,0,0,0,0,0,0,-1,1476,624,0,0
259,400,0,0,0,0,0,0,0,0,0,-1,1483,624,0,0
266,400,0,0,0,0,0,0,0,0,0,-1,1490,624,0,0
273,400,0,0,0,0,0,0,0,0,0,-1,1497,624,0,0
280,400,0,0,0,0,0,0,0,0,0,-1,1504,624,0,0
287,400,0,0,0,0,0,0,0,0,0,-1,1511,624,0,0
294,400,0,0,0,0,0,0,0,0,0,-1,1518,624,0,0
301,400,0,0,0,0,0,0,0,0,0,-1,1525,624,0,0
308,400,0,0,0,0,0,0,0,0,0,-1,1532,624,0,0
315,400,0,0,0,0,0,0,0,0,0,-1,1539,624,0,0
322,400,0,0,0,0,0,0,0,0,0,-1,1546,624,0,0
329,400,0,0,0,0,0,0,0,0,0,-1,1553,624,0,0
336,400,0,0,0,0,0,0,0,0,0,-1,1560,624,0,0
343,400,0,0,0,0,0,0,0,0,0,-1,1567,624,0,0
350,400,0,0,0,0,0,0,0,0,0,-1,1574,624,0,0
357,400,0,0,0,0,0,0,0,0,0,-1,1581,624,0,0
364,400,0,0,0,0,0,0,0,0,0,-1,1588,624,0,0
371,400,0,0,0,0,0,0,0,0,0,-1,1595,624,0,0
378,400,0,0,0,0,0,0,0,0,0,-1,1602,624,0,0
385,400,0,0,0,0,0,0,0,0,0,-1,1609,624,0,0
392,400,0,0,0,0,0,0,0,0,0,-1,1616,624,0,0
399,400,0,0,0,0,0,0,0,0,0,-1,1623,624,0,0
406,400,0,0,0,0,0,0,0,0,0,-1,1630,624,0,0
413,400,0,0,0,0,0,0,0,0,0,-1,1637,624,0,0
420,400,0,0,0,0,0,0,0,0,0,-1,1644,624,0,0
427,400,0,0,0,0,0,0,0,0,0,-1,1651,624,0,0
434,400,0,0,0,0,0,0,0,0,0,-1,1658,624,0,0
441,400,0,0,0,0,0,0,0,0,0,-1,1665,624,0,0
448,400,0,0,0,0,0,0,0,0,0,-1,1672,624,0,0
455,400,8.91309,2.75885,0,0,0,0,0,0,0,-1,1679,624,8.91312,-2.75885
462,400,8.90356,2.37878,0,0,0,0,0,0,0,-1,1686,624,8.90353,-2.37878
469,400,9.14429,1.76849,0,0,0,0,0,0,0,-1,1693,624,9.14432,-1.76847
476,400,9.23254,1.25995,0,0,0,0,0,0,0,-1,1700,624,9.23252,-1.25994
483,400,9.59766,0.562439,0,0,0,0,0,0,0,-1,1707,624,9.59771,-0.56242
490,400,9.92578,-0.213745,0,0,0,0,0,0,0,-1,1714,624,9.92579,0.21376
497,400,9.19141,0.175232,0,0,0,0,0,0,0,-1,1721,624,9.19138,-0.175209
504,400,9.23438,0.00823975,0,0,0,0,0,0,0,-1,1728,624,9.23436,-0.00823766
511,400,6.16687,3.3501,0,0,0,0,0,0,0,-1,1735,624,6.16682,-3.35007
518,400,6.55237,1.74994,0,0,0,0,0,0,0,-1,1742,624,6.55236,-1.74993
525,400,6.99731,1.08783,0,0,0,0,0,0,0,-1,1749,624,6.99736,-1.08785
532,400,6.96582,-1.74982,0,0,0,0,0,0,0,-1,1756,624,6.96585,1.74983
539,400,12.9724,-5.84534,0,0,0,0,0,0,0,-1,1763,624,12.9724,5.84534
546,400,12.9189,-5.50891,0.00107368,0.00155706,0.00066203,0.00202014,0.000610606,0.960419,0.00119635,0.0375859,1770,624,12.9189,5.5089
553,400,12.8062,-5.09125,0.000743733,0.000935409,0.000228426,0.00108729,0.000591855,0.984024,0.000628568,0.0204336,1777,624,12.8061,5.09124
560,400,12.8602,-4.68231,0.000484054,0.000571299,-1.14554e-05,0.000572778,0.000482575,-1.44239,0.000355618,0.0142962,1784,624,12.8602,4.68232
567,400,12.8779,-4.33923,0.000324298,0.000367586,-8.47783e-05,0.00043344,0.000258445,-0.91038,0.000251788,0.0180002,1791,624,12.878,4.33926
574,400,12.8687,-4.02032,0.000307523,0.000375325,2.63567e-05,0.000384365,0.000298483,1.24037,0.000232954,0.0182731,1798,624,12.8686,4.02032
581,400,12.8307,-3.6275,0.000343071,0.000492255,0.000223239,0.000653034,0.000182292,0.946635,0.000389096,0.0182135,1805,624,12.8306,3.62751
588,400,12.806,-3.25562,0.00044528,0.000784453,0.000533024,0.00117422,5.55154e-05,0.939414,0.000764979,0.0150085,1812,624,12.806,3.25564
595,400,12.8124,-2.91809,0.000733836,0.00122236,0.000988346,0.00199618,-3.99861e-05,0.906541,0.00134431,0.0138362,1819,624,12.8123,2.91806
602,400,12.8201,-2.53699,0.00111764,0.00181942,0.00155481,0.00306245,-0.000125381,0.896379,0.00208468,0.0131967,1826,624,12.8201,2.53696
609,400,12.7683,-2.133,0.00139705,0.00242879,0.00208612,0.00406188,-0.00023604,0.906609,0.00278993,0.0132054,1833,624,12.7683,2.13299
616,400,12.7454,-1.74585,0.00152335,0.0031017,0.00255641,0.00498797,-0.000362919,0.935109,0.00345265,0.0171612,1840,624,12.7454,1.74585
623,400,12.7988,-1.34082,0,0,0,0,0,0,0,-1,1847,624,12.7988,1.34081
630,400,11.9432,0.09021,0,0,0,0,0,0,0,-1,1854,624,11.9432,-0.0902007
637,400,6.92896,1.01917,0,0,0,0,0,0,0,-1,1861,624,6.92899,-1.01918
644,400,8.65381,1.4599,0,0,0,0,0,0,0,-1,1868,624,8.65379,-1.45991
651,400,7.90601,0.424072,0,0,0,0,0,0,0,-1,1875,624,7.90598,-0.424097
658,400,8.69031,1.0484,0,0,0,0,0,0,0,-1,1882,624,8.6903,-1.0484
665,400,5.98438,0.522522,0,0,0,0,0,0,0,-1,1889,624,5.98442,-0.522552
672,400,0,0,0,0,0,0,0,0,0,-1,1896,624,0,0
679,400,0,0,0,0,0,0,0,0,0,-1,1903,624,0,0
686,400,0,0,0,0,0,0,0,0,0,-1,1910,624,0,0
693,400,0,0,0,0,0,0,0,0,0,-1,1917,624,0,0
700,400,0,0,0,0,0,0,0,0,0,-1,1924,624,0,0
707,400,0,0,0,0,0,0,0,0,0,-1,1931,624,0,0
714,400,0,0,0,0,0,0,0,0,0,-1,1938,624,0,0
721,400,0,0,0,0,0,0,0,0,0,-1,1945,624,0,0
728,400,0,0,0,0,0,0,0,0,0,-1,1952,624,0,0
735,400,0,0,0,0,0,0,0,0,0,-1,1959,624,0,0
742,400,0,0,0,0,0,0,0,0,0,-1,1966,624,0,0
749,400,0,0,0,0,0,0,0,0,0,-1,1973,624,0,0
756,400,0,0,0,0,0,0,0,0,0,-1,1980,624,0,0
763,400,0,0,0,0,0,0,0,0,0,-1,1987,624,0,0
770,400,0,0,0,0,0,0,0,0,0,-1,1994,624,0,0
777,400,0,0,0,0,0,0,0,0,0,-1,2001,624,0,0
784,400,0,0,0,0,0,0,0,0,0,-1,2008,624,0,0
791,400,0,0,0,0,0,0,0,0,0,-1,2015,624,0,0
798,400,0,0,0,0,0,0,0,0,0,-1,2022,624,0,0
805,400,0,0,0,0,0,0,0,0,0,-1,2029,624,0,0
812,400,0,0,0,0,0,0,0,0,0,-1,2036,624,0,0
-700,393,0,0,0,0,0,0,0,0,0,-1,524,631,0,0
-693,393,0,0,0,0,0,0,0,0,0,-1,531,631,0,0
-686,393,0,0,0,0,0,0,0,0,0,-1,538,631,0,0
-679,393,0,0,0,0,0,0,0,0,0,-1,545,631,0,0
-672,393,0,0,0,0,0,0,0,0,0,-1,552,631,0,0
-665,393,0,0,0,0,0,0,0,0,0,-1,559,631,0,0
-658,393,0,0,0,0,0,0,0,0,0,-1,566,631,0,0
-651,393,0,0,0,0,0,0,0,0,0,-1,573,631,0,0
-644,393,0,0,0,0,0,0,0,0,0,-1,580,631,0,0
-637,393,0,0,0,0,0,0,0,0,0,-1,587,631,0,0
-630,393,0,0,0,0,0,0,0,0,0,-1,594,631,0,0
-623,393,0,0,0,0,0,0,0,0,0,-1,601,631,0,0
-616,393,0,0,0,0,0,0,0,0,0,-1,608,631,0,0
-609,393,0,0,0,0,0,0,0,0,0,-1,615,631,0,0
-602,393,0,0,0,0,0,0,0,0,0,-1,622,631,0,0
-595,393,0,0,0,0,0,0,0,0,0,-1,629,631,0,0
-588,393,0,0,0,0,0,0,0,0,0,-1,636,631,0,0
-581,393,0,0,0,0,0,0,0,0,0,-1,643,631,0,0
-574,393,0,0,0,0,0,0,0,0,0,-1,650,631,0,0
-567,393,0,0,0,0,0,0,0,0,0,-1,657,631,0,0
-560,393,0,0,0,0,0,0,0,0,0,-1,664,631,0,0
-553,393,-2.35107,3.92633,0,0,0,0,0,0,0,-1,671,631,-2.35108,-3.92634
-546,393,-1.78778,2.4856,0,0,0,0,0,0,0,-1,678,631,-1.78778,-2.48557
-539,393,-5.2113,-2.20245,0,0,0,0,0,0,0,-1,685,631,-5.21128,2.20247
-532,393,-2.83643,-2.01624,0,0,0,0,0,0,0,-1,692,631,-2.83642,2.01626
-525,393,-5.43378,-4.97723,0,0,0,0,0,0,0,-1,699,631,-5.4338,4.97722
-518,393,-5.44556,-1.64801,0,0,0,0,0,0,0,-1,706,631,-5.44557,1.64803
-511,393,-5.39008,-2.22534,0,0,0,0,0,0,0,-1,713,631,-5.39006,2.22537
-504,393,-5.33453,-2.80273,0,0,0,0,0,0,0,-1,720,631,-5.33454,2.80271
-497,393,-5.88654,-2.97003,0,0,0,0,0,0,0,-1,727,631,-5.88653,2.97003
-490,393,-6.0509,-3.59509,0.00351197,0.00479411,-0.0034027,0.0076156,0.000690471,-0.878507,0.00486328,0.0150089,734,631,-6.05093,3.59511
-483,393,-6.06116,-3.95905,0.00296037,0.00351642,-0.00282609,0.00607813,0.00039866,-0.834429,0.00392595,0.0182128,741,631,-6.06117,3.95905
-476,393,-6.07062,-4.28943,0.00245391,0.00238898,-0.00221198,0.00463366,0.000209227,-0.77806,0.00302178,0.0153732,748,631,-6.07061,4.28945
-469,393,-6.07556,-4.63489,0.00217488,0.00190018,-0.00193664,0.00397903,9.60305e-05,-0.749996,0.00262126,0.0132569,755,631,-6.07556,4.63489
-462,393,-6.08551,-5.01788,0.00193975,0.00142405,-0.00178833,0.00348873,-0.000124922,-0.713799,0.00236856,0.0151262,762,631,-6.08548,5.01786
-455,393,-6.09918,-5.3833,0.00149719,0.00114142,-0.00132736,0.00265853,-1.9922e-05,-0.71879,0.00177903,0.0139126,769,631,-6.09918,5.38327
-448,393,-6.12555,-5.74286,0.00108285,0.000560454,-0.000734023,0.00160077,4.2542e-05,-0.614461,0.00105328,0.0135499,776,631,-6.12554,5.74283
-441,393,-6.13513,-6.06464,0.000456254,0.000115213,-4.11934e-05,0.000461159,0.000110308,-0.118517,0.000278061,0.0122662,783,631,-6.13511,6.06461
-434,393,-6.13367,-6.36359,-0.000310473,-0.000334516,0.000819993,0.000497587,-0.00114258,0.778068,0.000971048,0.0109483,790,631,-6.13367,6.3636
-427,393,-6.0929,-6.72571,-0.00144419,-0.00126699,0.00208977,0.000736056,-0.00344723,0.806584,0.00257876,0.0184971,797,631,-6.09292,6.72569
-420,393,-6.11115,-7.04279,-0.00288669,-0.00217984,0.00338421,0.000869358,-0.00593588,0.837426,0.0042766,0.0405084,804,631,-6.11117,7.04277
-413,393,-6.13379,-7.45233,0,0,0,0,0,0,0,-1,811,631,-6.13377,7.45233
-406,393,-7.04456,-7.95227,0,0,0,0,0,0,0,-1,818,631,-7.04453,7.95229
-399,393,-5.07343,-5.92365,0,0,0,0,0,0,0,-1,825,631,-5.07344,5.92364
-392,393,-2.08063,-3.02386,0,0,0,0,0,0,0,-1,832,631,-2.08063,3.02384
-385,393,-3.16931,-0.624756,0,0,0,0,0,0,0,-1,839,631,-3.16928,0.624764
-378,393,-7.33081,-0.872314,0,0,0,0,0,0,0,-1,846,631,-7.33081,0.872325
-371,393,-7.47858,-0.811096,0,0,0,0,0,0,0,-1,853,631,-7.47859,0.811075
-364,393,-7.64917,-0.662415,0,0,0,0,0,0,0,-1,860,631,-7.64917,0.662406
-357,393,-8.09686,-0.726013,0,0,0,0,0,0,0,-1,867,631,-8.09689,0.726029
-350,393,-8.38788,-0.511841,0,0,0,0,0,0,0,-1,874,631,-8.38785,0.511811
-343,393,0,0,0,0,0,0,0,0,0,-1,881,631,0,0
-336,393,0,0,0,0,0,0,0,0,0,-1,888,631,0,0
-329,393,0,0,0,0,0,0,0,0,0,-1,895,631,0,0
-322,393,0,0,0,0,0,0,0,0,0,-1,902,631,0,0
-315,393,0,0,0,0,0,0,0,0,0,-1,909,631,0,0
-308,393,0,0,0,0,0,0,0,0,0,-1,916,631,0,0
-301,393,0,0,0,0,0,0,0,0,0,-1,923,631,0,0
-294,393,0,0,0,0,0,0,0,0,0,-1,930,631,0,0
-287,393,0,0,0,0,0,0,0,0,0,-1,937,631,0,0
-280,393,0,0,0,0,0,0,0,0,0,-1,944,631,0,0
-273,393,0,0,0,0,0,0,0,0,0,-1,951,631,0,0
-266,393,0,0,0,0,0,0,0,0,0,-1,958,631,0,0
-259,393,0,0,0,0,0,0,0,0,0,-1,965,631,0,0
-252,393,0,0,0,0,0,0,0,0,0,-1,972,631,0,0
-245,393,0,0,0,0,0,0,0,0,0,-1,979,631,0,0
-238,393,0,0,0,0,0,0,0,0,0,-1,986,631,0,0
-231,393,0,0,0,0,0,0,0,0,0,-1,993,631,0,0
-224,393,0,0,0,0,0,0,0,0,0,-1,1000,631,0,0
-217,393,0,0,0,0,0,0,0,0,0,-1,1007,631,0,0
-210,393,0,0,0,0,0,0,0,0,0,-1,1014,631,0,0
-203,393,0,0,0,0,0,0,0,0,0,-1,1021,631,0,0
-196,393,0,0,0,0,0,0,0,0,0,-1,1028,631,0,0
-189,393,0,0,0,0,0,0,0,0,0,-1,1035,631,0,0
-182,393,0,0,0,0,0,0,0,0,0,-1,1042,631,0,0
-175,393,0,0,0,0,0,0,0,0,0,-1,1049,631,0,0
-168,393,0,0,0,0,0,0,0,0,0,-1,1056,631,0,0
-161,393,0,0,0,0,0,0,0,0,0,-1,1063,631,0,0
-154,393,0,0,0,0,0,0,0,0,0,-1,1070,631,0,0
-147,393,0,0,0,0,0,0,0,0,0,-1,1077,631,0,0
-140,393,0,0,0,0,0,0,0,0,0,-1,1084,631,0,0
-133,393,0,0,0,0,0,0,0,0,0,-1,1091,631,0,0
-126,393,0,0,0,0,0,0,0,0,0,-1,1098,631,0,0
-119,393,0,0,0,0,0,0,0,0,0,-1,1105,631,0,0
-112,393,0,0,0,0,0,0,0,0,0,-1,1112,631,0,0
-105,393,0,0,0,0,0,0,0,0,0,-1,1119,631,0,0
-98,393,0,0,0,0,0,0,0,0,0,-1,1126,631,0,0
-91,393,0,0,0,0,0,0,0,0,0,-1,1133,631,0,0
-84,393,0,0,0,0,0,0,0,0,0,-1,1140,631,0,0
-77,393,0,0,0,0,0,0,0,0,0,-1,1147,631,0,0
-70,393,0,0,0,0,0,0,0,0,0,-1,1154,631,0,0
-63,393,0,0,0,0,0,0,0,0,0,-1,1161,631,0,0
-56,393,0,0,0,0,0,0,0,0,0,-1,1168,631,0,0
-49,393,0,0,0,0,0,0,0,0,0,-1,1175,631,0,0
-42,393,0,0,0,0,0,0,0,0,0,-1,1182,631,0,0
-35,393,0,0,0,0,0,0,0,0,0,-1,1189,631,0,0
-28,393,0,0,0,0,0,0,0,0,0,-1,1196,631,0,0
-21,393,0,0,0,0,0,0,0,0,0,-1,1203,631,0,0
-14,393,0,0,0,0,0,0,0,0,0,-1,1210,631,0,0
-7,393,0,0,0,0,0,0,0,0,0,-1,1217,631,0,0
0,393,0,0,0,0,0,0,0,0,0,-1,1224,631,0,0
7,393,0,0,0,0,0,0,0,0,0,-1,1231,631,0,0
14,393,0,0,0,0,0,0,0,0,0,-1,1238,631,0,0
21,393,0,0,0,0,0,0,0,0,0,-1,1245,631,0,0
28,393,0,0,0,0,0,0,0,0,0,-1,1252,631,0,0
35,393,0,0,0,0,0,0,0,0,0,-1,1259,631,0,0
42,393,0,0,0,0,0,0,0,0,0,-1,1266,631,0,0
49,393,0,0,0,0,0,0,0,0,0,-1,1273,631,0,0
56,393,0,0,0,0,0,0,0,0,0,-1,1280,631,0,0
63,393,0,0,0,0,0,0,0,0,0,-1,1287,631,0,0
70,393,0,0,0,0,0,0,0,0,0,-1,1294,631,0,0
77,393,0,0,0,0,0,0,0,0,0,-1,1301,631,0,0
84,393,0,0,0,0,0,0,0,0,0,-1,1308,631,0,0
91,393,0,0,0,0,0,0,0,0,0,-1,1315,631,0,0
98,393,0,0,0,0,0,0,0,0,0,-1,1322,631,0,0
105,393,0,0,0,0,0,0,0,0,0,-1,1329,631,0,0
112,393,0,0,0,0,0,0,0,0,0,-1,1336,631,0,0
119,393,0,0,0,0,0,0,0,0,0,-1,1343,631,0,0
126,393,0,0,0,0,0,0,0,0,0,-1,1350,631,0,0
133,393,0,0,0,0,0,0,0,0,0,-1,1357,631,0,0
140,393,0,0,0,0,0,0,0,0,0,-1,1364,631,0,0
147,393,0,0,0,0,0,0,0,0,0,-1,1371,631,0,0
154,393,0,0,0,0,0,0,0,0,0,-1,1378,631,0,0
161,393,0,0,0,0,0,0,0,0,0,-1,1385,631,0,0
168,393,0,0,0,0,0,0,0,0,0,-1,1392,631,0,0
175,393,0,0,0,0,0,0,0,0,0,-1,1399,631,0,0
182,393,0,0,0,0,0,0,0,0,0,-1,1406,631,0,0
189,393,0,0,0,0,0,0,0,0,0,-1,1413,631,0,0
196,393,0,0,0,0,0,0,0,0,0,-1,1420,631,0,0
203,393,0,0,0,0,0,0,0,0,0,-1,1427,631,0,0
210,393,0,0,0,0,0,0,0,0,0,-1,1434,631,0,0
217,393,0,0,0,0,0,0,0,0,0,-1,1441,631,0,0
224,393,0,0,0,0,0,0,0,0,0,-1,1448,631,0,0
231,393,0,0,0,0,0,0,0,0,0,-1,1455,631,0,0
238,393,0,0,0,0,0,0,0,0,0,-1,1462,631,0,0
245,393,0,0,0,0,0,0,0,0,0,-1,1469,631,0,0
252,393,0,0,0,0,0,0,0,0,0,-1,1476,631,0,0
259,393,0,0,0,0,0,0,0,0,0,-1,1483,631,0,0
266,393,0,0,0,0,0,0,0,0,0,-1,1490,631,0,0
273,393,0,0,0,0,0,0,0,0,0,-1,1497,631,0,0
280,393,0,0,0,0,0,0,0,0,0,-1,1504,631,0,0
287,393,0,0,0,0,0,0,0,0,0,-1,1511,631,0,0
294,393,0,0,0,0,0,0,0,0,0,-1,1518,631,0,0
301,393,0,0,0,0,0,0,0,0,0,-1,1525,631,0,0
308,393,0,0,0,0,0,0,0,0,0,-1,1532,631,0,0
315,393,0,0,0,0,0,0,0,0,0,-1,1539,631,0,0
322,393,0,0,0,0,0,0,0,0,0,-1,1546,631,0,0
329,393,0,0,0,0,0,0,0,0,0,-1,1553,631,0,0
336,393,0,0,0,0,0,0,0,0,0,-1,1560,631,0,0
343,393,0,0,0,0,0,0,0,0,0,-1,1567,631,0,0
350,393,0,0,0,0,0,0,0,0,0,-1,1574,631,0,0
357,393,0,0,0,0,0,0,0,0,0,-1,1581,631,0,0
364,393,0,0,0,0,0,0,0,0,0,-1,1588,631,0,0
371,393,0,0,0,0,0,0,0,0,0,-1,1595,631,0,0
378,393,0,0,0,0,0,0,0,0,0,-1,1602,631,0,0
385,393,0,0,0,0,0,0,0,0,0,-1,1609,631,0,0
392,393,0,0,0,0,0,0,0,0,0,-1,1616,631,0,0
399,393,0,0,0,0,0,0,0,0,0,-1,1623,631,0,0
406,393,0,0,0,0,0,0,0,0,0,-1,1630,631,0,0
413,393,0,0,0,0,0,0,0,0,0,-1,1637,631,0,0
420,393,0,0,0,0,0,0,0,0,0,-1,1644,631,0,0
427,393,0,0,0,0,0,0,0,0,0,-1,1651,631,0,0
434,393,0,0,0,0,0,0,0,0,0,-1,1658,631,0,0
441,393,0,0,0,0,0,0,0,0,0,-1,1665,631,0,0
448,393,0,0,0,0,0,0,0,0,0,-1,1672,631,0,0
455,393,0,0,0,0,0,0,0,0,0,-1,1679,631,0,0
462,393,8.51099,1.89502,0,0,0,0,0,0,0,-1,1686,631,8.51103,-1.89504
469,393,9.39465,1.51703,0,0,0,0,0,0,0,-1,1693,631,9.39465,-1.51703
476,393,9.95569,1.185,0,0,0,0,0,0,0,-1,1700,631,9.95575,-1.18497
483,393,10.5267,0.887329,0,0,0,0,0,0,0,-1,1707,631,10.5267,-0.887321
490,393,10.9303,0.761414,0,0,0,0,0,0,0,-1,1714,631,10.9303,-0.761386
497,393,8.32153,1.88104,0,0,0,0,0,0,0,-1,1721,631,8.32148,-1.88103
504,393,9.46985,1.78711,0,0,0,0,0,0,0,-1,1728,631,9.46986,-1.78713
511,393,9.66565,-0.375977,0,0,0,0,0,0,0,-1,1735,631,9.66571,0.375949
518,393,7.01599,1.62482,0,0,0,0,0,0,0,-1,1742,631,7.01597,-1.62483
525,393,7.88245,-1.13422,0,0,0,0,0,0,0,-1,1749,631,7.88246,1.13423
532,393,7.06335,-1.18103,0,0,0,0,0,0,0,-1,1756,631,7.06332,1.18101
539,393,9.91626,-2.46301,0,0,0,0,0,0,0,-1,1763,631,9.91625,2.46302
546,393,13.2758,-5.54034,0,0,0,0,0,0,0,-1,1770,631,13.2757,5.54034
553,393,13.1688,-5.01666,0.000162835,0.000940411,-0.000208897,0.000992978,0.000110268,-1.32427,0.000628462,0.0382508,1777,631,13.1688,5.01664
560,393,13.2156,-4.73114,7.4387e-05,0.000555707,-0.000385008,0.000769082,-0.000138988,-1.06473,0.000564781,0.0179545,1784,631,13.2156,4.73113
567,393,13.209,-4.34814,3.41743e-05,0.000320814,-0.000413283,0.000614922,-0.000259934,-0.952301,0.000518774,0.0134105,1791,631,13.209,4.34813
574,393,13.2201,-3.99731,0.000104378,0.000310065,-0.000255786,0.000482909,-6.84648e-05,-0.976542,0.000347019,0.014192,1798,631,13.2201,3.9973
581,393,13.1763,-3.612,0.000213133,0.000421588,-2.71557e-05,0.000425067,0.000209653,-1.44336,0.00024542,0.0156075,1805,631,13.1763,3.61197
588,393,13.163,-3.23346,0.000374241,0.000692605,0.000295323,0.000868914,0.000197931,1.03258,0.000525866,0.0179065,1812,631,13.163,3.23346
595,393,13.1753,-2.91248,0.000707241,0.00109192,0.000738752,0.00166296,0.000136202,0.912751,0.00106614,0.0145544,1819,631,13.1753,2.91248
602,393,13.1819,-2.52454,0.00114314,0.00162938,0.00128955,0.00269853,7.39917e-05,0.878569,0.00177487,0.0157935,1826,631,13.1819,2.52455
609,393,13.1611,-2.14264,0.00138975,0.00219474,0.00176895,0.00360641,-2.19191e-05,0.89726,0.00241161,0.0158091,1833,631,13.1612,2.14262
616,393,13.1122,-1.76031,0.00151533,0.00275764,0.00214386,0.00436851,-9.55451e-05,0.926405,0.00294471,0.0156943,1840,631,13.1122,1.7603
623,393,13.1564,-1.29779,0.00187368,0.00344705,0.00260515,0.00538171,-6.09751e-05,0.932031,0.0036083,0.0262347,1847,631,13.1564,1.29777
630,393,13.3645,-0.901794,0,0,0,0,0,0,0,-1,1854,631,13.3645,0.901771
637,393,11.4626,0.608887,0,0,0,0,0,0,0,-1,1861,631,11.4627,-0.608904
644,393,8.97583,1.30585,0,0,0,0,0,0,0,-1,1868,631,8.97586,-1.30584
651,393,11.348,0.53302,0,0,0,0,0,0,0,-1,1875,631,11.348,-0.53305
658,393,9.21338,1.50836,0,0,0,0,0,0,0,-1,1882,631,9.21338,-1.50834
665,393,6.1001,2.32129,0,0,0,0,0,0,0,-1,1889,631,6.10012,-2.3213
672,393,7.14575,2.43225,0,0,0,0,0,0,0,-1,1896,631,7.14572,-2.43222
679,393,0,0,0,0,0,0,0,0,0,-1,1903,631,0,0
686,393,0,0,0,0,0,0,0,0,0,-1,1910,631,0,0
693,393,0,0,0,0,0,0,0,0,0,-1,1917,631,0,0
700,393,0,0,0,0,0,0,0,0,0,-1,1924,631,0,0
707,393,0,0,0,0,0,0,0,0,0,-1,1931,631,0,0
714,393,0,0,0,0,0,0,0,0,0,-1,1938,631,0,0
721,393,0,0,0,0,0,0,0,0,0,-1,1945,631,0,0
728,393,0,0,0,0,0,0,0,0,0,-1,1952,631,0,0
735,393,0,0,0,0,0,0,0,0,0,-1,1959,631,0,0
742,393,0,0,0,0,0,0,0,0,0,-1,1966,631,0,0
749,393,0,0,0,0,0,0,0,0,0,-1,1973,631,0,0
756,393,0,0,0,0,0,0,0,0,0,-1,1980,631,0,0
763,393,0,0,0,0,0,0,0,0,0,-1,1987,631,0,0
770,393,0,0,0,0,0,0,0,0,0,-1,1994,631,0,0
777,393,0,0,0,0,0,0,0,0,0,-1,2001,631,0,0
784,393,0,0,0,0,0,0,0,0,0,-1,2008,631,0,0
791,393,0,0,0,0,0,0,0,0,0,-1,2015,631,0,0
798,393,0,0,0,0,0,0,0,0,0,-1,2022,631,0,0
805,393,0,0,0,0,0,0,0,0,0,-1,2029,631,0,0
812,393,0,0,0,0,0,0,0,0,0,-1,2036,631,0,0
-700,386,0,0,0,0,0,0,0,0,0,-1,524,638,0,0
-693,386,0,0,0,0,0,0,0,0,0,-1,531,638,0,0
-686,386,0,0,0,0,0,0,0,0,0,-1,538,638,0,0
-679,386,0,0,0,0,0,0,0,0,0,-1,545,638,0,0
-672,386,0,0,0,0,0,0,0,0,0,-1,552,638,0,0
-665,386,0,0,0,0,0,0,0,0,0,-1,559,638,0,0
-658,386,0,0,0,0,0,0,0,0,0,-1,566,638,0,0
-651,386,0,0,0,0,0,0,0,0,0,-1,573,638,0,0
-644,386,0,0,0,0,0,0,0,0,0,-1,580,638,0,0
-637,386,0,0,0,0,0,0,0,0,0,-1,587,638,0,0
-630,386,0,0,0,0,0,0,0,0,0,-1,594,638,0,0
-623,386,0,0,0,0,0,0,0,0,0,-1,601,638,0,0
-616,386,0,0,0,0,0,0,0,0,0,-1,608,638,0,0
-609,386,0,0,0,0,0,0,0,0,0,-1,615,638,0,0
-602,386,0,0,0,0,0,0,0,0,0,-1,622,638,0,0
-595,386,0,0,0,0,0,0,0,0,0,-1,629,638,0,0
-588,386,0,0,0,0,0,0,0,0,0,-1,636,638,0,0
-581,386,0,0,0,0,0,0,0,0,0,-1,643,638,0,0
-574,386,0,0,0,0,0,0,0,0,0,-1,650,638,0,0
-567,386,0,0,0,0,0,0,0,0,0,-1,657,638,0,0
-560,386,-3.97229,-5.13898,0,0,0,0,0,0,0,-1,664,638,-3.97232,5.13897
-553,386,-4.94244,-5.54309,0,0,0,0,0,0,0,-1,671,638,-4.94242,5.5431
-546,386,-1.78668,1.72827,0,0,0,0,0,0,0,-1,678,638,-1.78668,-1.72829
-539,386,-0.879456,-2.90009,0,0,0,0,0,0,0,-1,685,638,-0.879442,2.90008
-532,386,-4.83362,1.61053,0,0,0,0,0,0,0,-1,692,638,-4.83361,-1.61051
-525,386,-6.12347,-1.48175,0,0,0,0,0,0,0,-1,699,638,-6.12348,1.48174
-518,386,-5.98871,-1.94336,0.0110415,0.0188279,-0.0115952,0.027166,0.00270337,-0.947365,0.0172802,0.0484079,706,638,-5.98873,1.94334
-511,386,-6.01685,-2.4502,0.00769889,0.0131442,-0.00805133,0.0189208,0.00192233,-0.948444,0.0120244,0.0473016,713,638,-6.01682,2.45018
-504,386,-6.36987,-2.85632,0.00543426,0.00918986,-0.00563278,0.0132496,0.00137452,-0.94629,0.0084124,0.0314184,720,638,-6.3699,2.85631
-497,386,-6.45215,-3.24994,0.00368038,0.00606149,-0.00373786,0.00879382,0.000948051,-0.939575,0.00557347,0.013597,727,638,-6.45216,3.24994
-490,386,-6.41254,-3.63098,0.0026741,0.00409514,-0.00271902,0.00619494,0.000574298,-0.913198,0.00395246,0.0123529,734,638,-6.41254,3.63099
-483,386,-6.39935,-3.99829,0.00229586,0.00292274,-0.00219073,0.00482234,0.000396257,-0.856454,0.00309128,0.0157756,741,638,-6.39935,3.99829
-476,386,-6.39954,-4.31531,0.00197503,0.00192545,-0.00168482,0.00363525,0.000265234,-0.778041,0.0023401,0.0144964,748,638,-6.39951,4.3153
-469,386,-6.41345,-4.64886,0.0018893,0.00160954,-0.00157464,0.00333026,0.000168582,-0.741097,0.00216617,0.0115563,755,638,-6.41347,4.64885
-462,386,-6.43042,-5.00818,0.00183349,0.00130749,-0.00160147,0.00319341,-5.2437e-05,-0.704013,0.00214663,0.010677,762,638,-6.43041,5.0082
-455,386,-6.45215,-5.36115,0.00148813,0.00119567,-0.00126842,0.00261872,6.50755e-05,-0.728008,0.00172453,0.0120555,769,638,-6.45217,5.36112
-448,386,-6.46222,-5.71216,0.00115627,0.000719491,-0.00080476,0.00177175,0.000104015,-0.652902,0.00114807,0.0125297,776,638,-6.46221,5.71214
-441,386,-6.47876,-6.03796,0.000611271,0.000265644,-0.000214,0.000713522,0.000163393,-0.445738,0.000431651,0.0128945,783,638,-6.47875,6.03798
-434,386,-6.43561,-6.42163,-9.38845e-05,-3.16852e-05,0.000574998,0.000513053,-0.000638623,0.812415,0.000666237,0.0263829,790,638,-6.43559,6.42161
-427,386,-6.37244,-6.79999,0,0,0,0,0,0,0,-1,797,638,-6.37243,6.8
-420,386,-6.50452,-7.08685,0,0,0,0,0,0,0,-1,804,638,-6.50451,7.08687
-413,386,-5.45691,-5.35785,0,0,0,0,0,0,0,-1,811,638,-5.45691,5.35783
-406,386,-4.51135,-4.10999,0,0,0,0,0,0,0,-1,818,638,-4.51135,4.10996
-399,386,-3.57117,-3.42126,0,0,0,0,0,0,0,-1,825,638,-3.57116,3.42129
-392,386,-4.00977,0.403625,0,0,0,0,0,0,0,-1,832,638,-4.0098,-0.403616
-385,386,-3.2406,-0.118469,0,0,0,0,0,0,0,-1,839,638,-3.24058,0.118485
-378,386,-2.55243,-1.22748,0,0,0,0,0,0,0,-1,846,638,-2.55243,1.22748
-371,386,-7.95807,-0.330261,0,0,0,0,0,0,0,-1,853,638,-7.95806,0.330284
-364,386,-8.90637,-0.665955,0,0,0,0,0,0,0,-1,860,638,-8.90635,0.665951
-357,386,-9.10364,-0.388733,0,0,0,0,0,0,0,-1,867,638,-9.10364,0.388744
-350,386,0,0,0,0,0,0,0,0,0,-1,874,638,0,0
-343,386,0,0,0,0,0,0,0,0,0,-1,881,638,0,0
-336,386,0,0,0,0,0,0,0,0,0,-1,888,638,0,0
-329,386,0,0,0,0,0,0,0,0,0,-1,895,638,0,0
-322,386,0,0,0,0,0,0,0,0,0,-1,902,638,0,0
-315,386,0,0,0,0,0,0,0,0,0,-1,909,638,0,0
-308,386,0,0,0,0,0,0,0,0,0,-1,916,638,0,0
-301,386,0,0,0,0,0,0,0,0,0,-1,923,638,0,0
-294,386,0,0,0,0,0,0,0,0,0,-1,930,638,0,0
-287,386,0,0,0,0,0,0,0,0,0,-1,937,638,0,0
-280,386,0,0,0,0,0,0,0,0,0,-1,944,638,0,0
-273,386,0,0,0,0,0,0,0,0,0,-1,951,638,0,0
-266,386,0,0,0,0,0,0,0,0,0,-1,958,638,0,0
-259,386,0,0,0,0,0,0,0,0,0,-1,965,638,0,0
-252,386,0,0,0,0,0,0,0,0,0,-1,972,638,0,0
-245,386,0,0,0,0,0,0,0,0,0,-1,979,638,0,0
-238,386,0,0,0,0,0,0,0,0,0,-1,986,638,0,0
-231,386,0,0,0,0,0,0,0,0,0,-1,993,638,0,0
-224,386,0,0,0,0,0,0,0,0,0,-1,1000,638,0,0
-217,386,0,0,0,0,0,0,0,0,0,-1,1007,638,0,0
-210,386,0,0,0,0,0,0,0,0,0,-1,1014,638,0,0
-203,386,0,0,0,0,0,0,0,0,0,-1,1021,638,0,0
-196,386,0,0,0,0,0,0,0,0,0,-1,1028,638,0,0
-189,386,0,0,0,0,0,0,0,0,0,-1,1035,638,0,0
-182,386,0,0,0,0,0,0,0,0,0,-1,1042,638,0,0
-175,386,0,0,0,0,0,0,0,0,0,-1,1049,638,0,0
-168,386,0,0,0,0,0,0,0,0,0,-1,1056,638,0,0
-161,386,0,0,0,0,0,0,0,0,0,-1,1063,638,0,0
-154,386,0,0,0,0,0,0,0,0,0,-1,1070,638,0,0
-147,386,0,0,0,0,0,0,0,0,0,-1,1077,638,0,0
-140,386,0,0,0,0,0,0,0,0,0,-1,1084,638,0,0
-133,386,0,0,0,0,0,0,0,0,0,-1,1091,638,0,0
-126,386,0,0,0,0,0,0,0,0,0,-1,1098,638,0,0
-119,386,0,0,0,0,0,0,0,0,0,-1,1105,638,0,0
-112,386,0,0,0,0,0,0,0,0,0,-1,1112,638,0,0
-105,386,0,0,0,0,0,0,0,0,0,-1,1119,638,0,0
-98,386,0,0,0,0,0,0,0,0,0,-1,1126,638,0,0
-91,386,0,0,0,0,0,0,0,0,0,-1,1133,638,0,0
-84,386,0,0,0,0,0,0,0,0,0,-1,1140,638,0,0
-77,386,0,0,0,0,0,0,0,0,0,-1,1147,638,0,0
-70,386,0,0,0,0,0,0,0,0,0,-1,1154,638,0,0
-63,386,0,0,0,0,0,0,0,0,0,-1,1161,638,0,0
-56,386,0,0,0,0,0,0,0,0,0,-1,1168,638,0,0
-49,386,0,0,0,0,0,0,0,0,0,-1,1175,638,0,0
-42,386,0,0,0,0,0,0,0,0,0,-1,1182,638,0,0
-35,386,0,0,0,0,0,0,0,0,0,-1,1189,638,0,0
-28,386,0,0,0,0,0,0,0,0,0,-1,1196,638,0,0
-21,386,0,0,0,0,0,0,0,0,0,-1,1203,638,0,0
-14,386,0,0,0,0,0,0,0,0,0,-1,1210,638,0,0
-7,386,0,0,0,0,0,0,0,0,0,-1,1217,638,0,0
0,386,0,0,0,0,0,0,0,0,0,-1,1224,638,0,0
7,386,0,0,0,0,0,0,0,0,0,-1,1231,638,0,0
14,386,0,0,0,0,0,0,0,0,0,-1,1238,638,0,0
21,386,0,0,0,0,0,0,0,0,0,-1,1245,638,0,0
28,386,0,0,0,0,0,0,0,0,0,-1,1252,638,0,0
35,386,0,0,0,0,0,0,0,0,0,-1,1259,638,0,0
42,386,0,0,0,0,0,0,0,0,0,-1,1266,638,0,0
49,386,0,0,0,0,0,0,0,0,0,-1,1273,638,0,0
56,386,0,0,0,0,0,0,0,0,0,-1,1280,638,0,0
63,386,0,0,0,0,0,0,0,0,0,-1,1287,638,0,0
70,386,0,0,0,0,0,0,0,0,0,-1,1294,638,0,0
77,386,0,0,0,0,0,0,0,0,0,-1,1301,638,0,0
84,386,0,0,0,0,0,0,0,0,0,-1,1308,638,0,0
91,386,0,0,0,0,0,0,0,0,0,-1,1315,638,0,0
98,386,0,0,0,0,0,0,0,0,0,-1,1322,638,0,0
105,386,0,0,0,0,0,0,0,0,0,-1,1329,638,0,0
112,386,0,0,0,0,0,0,0,0,0,-1,1336,638,0,0
119,386,0,0,0,0,0,0,0,0,0,-1,1343,638,0,0
126,386,0,0,0,0,0,0,0,0,0,-1,1350,638,0,0
133,386,0,0,0,0,0,0,0,0,0,-1,1357,638,0,0
140,386,0,0,0,0,0,0,0,0,0,-1,1364,638,0,0
147,386,0,0,0,0,0,0,0,0,0,-1,1371,638,0,0
154,386,0,0,0,0,0,0,0,0,0,-1,1378,638,0,0
161,386,0,0,0,0,0,0,0,0,0,-1,1385,638,0,0
168,386,0,0,0,0,0,0,0,0,0,-1,1392,638,0,0
175,386,0,0,0,0,0,0,0,0,0,-1,1399,638,0,0
182,386,0,0,0,0,0,0,0,0,0,-1,1406,638,0,0
189,386,0,0,0,0,0,0,0,0,0,-1,1413,638,0,0
196,386,0,0,0,0,0,0,0,0,0,-1,1420,638,0,0
203,386,0,0,0,0,0,0,0,0,0,-1,1427,638,0,0
210,386,0,0,0,0,0,0,0,0,0,-1,1434,638,0,0
217,386,0,0,0,0,0,0,0,0,0,-1,1441,638,0,0
224,386,0,0,0,0,0,0,0,0,0,-1,1448,638,0,0
231,386,0,0,0,0,0,0,0,0,0,-1,1455,638,0,0
238,386,0,0,0,0,0,0,0,0,0,-1,1462,638,0,0
245,386,0,0,0,0,0,0,0,0,0,-1,1469,638,0,0
252,386,0,0,0,0,0,0,0,0,0,-1,1476,638,0,0
259,386,0,0,0,0,0,0,0,0,0,-1,1483,638,0,0
266,386,0,0,0,0,0,0,0,0,0,-1,1490,638,0,0
273,386,0,0,0,0,0,0,0,0,0,-1,1497,638,0,0
280,386,0,0,0,0,0,0,0,0,0,-1,1504,638,0,0
287,386,0,0,0,0,0,0,0,0,0,-1,1511,638,0,0
294,386,0,0,0,0,0,0,0,0,0,-1,1518,638,0,0
301,386,0,0,0,0,0,0,0,0,0,-1,1525,638,0,0
308,386,0,0,0,0,0,0,0,0,0,-1,1532,638,0,0
315,386,0,0,0,0,0,0,0,0,0,-1,1539,638,0,0
322,386,0,0,0,0,0,0,0,0,0,-1,1546,638,0,0
329,386,0,0,0,0,0,0,0,0,0,-1,1553,638,0,0
336,386,0,0,0,0,0,0,0,0,0,-1,1560,638,0,0
343,386,0,0,0,0,0,0,0,0,0,-1,1567,638,0,0
350,386,0,0,0,0,0,0,0,0,0,-1,1574,638,0,0
357,386,0,0,0,0,0,0,0,0,0,-1,1581,638,0,0
364,386,0,0,0,0,0,0,0,0,0,-1,1588,638,0,0
371,386,0,0,0,0,0,0,0,0,0,-1,1595,638,0,0
378,386,0,0,0,0,0,0,0,0,0,-1,1602,638,0,0
385,386,0,0,0,0,0,0,0,0,0,-1,1609,638,0,0
392,386,0,0,0,0,0,0,0,0,0,-1,1616,638,0,0
399,386,0,0,0,0,0,0,0,0,0,-1,1623,638,0,0
406,386,0,0,0,0,0,0,0,0,0,-1,1630,638,0,0
413,386,0,0,0,0,0,0,0,0,0,-1,1637,638,0,0
420,386,0,0,0,0,0,0,0,0,0,-1,1644,638,0,0
427,386,0,0,0,0,0,0,0,0,0,-1,1651,638,0,0
434,386,0,0,0,0,0,0,0,0,0,-1,1658,638,0,0
441,386,0,0,0,0,0,0,0,0,0,-1,1665,638,0,0
448,386,0,0,0,0,0,0,0,0,0,-1,1672,638,0,0
455,386,0,0,0,0,0,0,0,0,0,-1,1679,638,0,0
462,386,0,0,0,0,0,0,0,0,0,-1,1686,638,0,0
469,386,9.84692,1.55804,0,0,0,0,0,0,0,-1,1693,638,9.84691,-1.55807
476,386,10.6145,0.986511,0,0,0,0,0,0,0,-1,1700,638,10.6145,-0.986529
483,386,11.4113,0.732971,0,0,0,0,0,0,0,-1,1707,638,11.4112,-0.732958
490,386,7.79785,1.79572,0,0,0,0,0,0,0,-1,1714,638,7.79788,-1.7957
497,386,8.96362,1.77081,0,0,0,0,0,0,0,-1,1721,638,8.96357,-1.77081
504,386,10.0555,1.69427,0,0,0,0,0,0,0,-1,1728,638,10.0555,-1.69426
511,386,11.2172,1.534,0,0,0,0,0,0,0,-1,1735,638,11.2172,-1.53398
518,386,7.41553,1.75238,0,0,0,0,0,0,0,-1,1742,638,7.41547,-1.75238
525,386,8.82422,-1.1449,0,0,0,0,0,0,0,-1,1749,638,8.82426,1.14492
532,386,10.6432,0.617371,0,0,0,0,0,0,0,-1,1756,638,10.6432,-0.617359
539,386,9.62061,-0.393616,0,0,0,0,0,0,0,-1,1763,638,9.62059,0.393634
546,386,10.7963,-2.854,0,0,0,0,0,0,0,-1,1770,638,10.7962,2.854
553,386,13.6187,-5.01868,0,0,0,0,0,0,0,-1,1777,638,13.6187,5.01867
560,386,13.5946,-4.60217,-0.000404544,0.000682066,-0.000765415,0.0010774,-0.000799876,-1.09404,0.00108779,0.0369884,1784,638,13.5946,4.60218
567,386,13.5164,-4.31567,-0.000276859,0.000384391,-0.000722922,0.000848706,-0.000741174,-0.999871,0.000918617,0.0185639,1791,638,13.5164,4.31569
574,386,13.5529,-3.96539,-0.000107156,0.000317893,-0.000517227,0.000664556,-0.000453819,-0.980329,0.000649504,0.0130146,1798,638,13.5529,3.96539
581,386,13.5382,-3.61957,7.18136e-05,0.000390741,-0.000266491,0.000541835,-7.92799e-05,-1.05501,0.000390343,0.0142162,1805,638,13.5382,3.61956
588,386,13.5535,-3.2569,0.000280428,0.000600557,5.45077e-05,0.000609583,0.000271401,1.40669,0.000352646,0.0132873,1812,638,13.5535,3.25689
595,386,13.5365,-2.91162,0.000627547,0.00092391,0.000466186,0.0012649,0.000286558,0.939278,0.000765831,0.0141118,1819,638,13.5365,2.91161
602,386,13.5299,-2.51886,0.00107439,0.00136934,0.000977206,0.00221014,0.000233593,0.86029,0.00140206,0.0155554,1826,638,13.5299,2.51884
609,386,13.5437,-2.14545,0.00127845,0.001857,0.00139156,0.00298903,0.000146417,0.887879,0.00194572,0.0152373,1833,638,13.5438,2.14545
616,386,13.5229,-1.76849,0.00139442,0.00230322,0.00168731,0.00359625,0.000101398,0.91693,0.00236443,0.0123294,1840,638,13.523,1.76848
623,386,13.5015,-1.39856,0.00165589,0.0028227,0.0019632,0.00428735,0.000191243,0.929827,0.00279667,0.0100353,1847,638,13.5015,1.39857
630,386,13.5967,-1.00439,0.00189031,0.00309309,0.00210904,0.00468481,0.000298589,0.924287,0.00302859,0.0259223,1854,638,13.5967,1.0044
637,386,13.6648,-0.640625,0,0,0,0,0,0,0,-1,1861,638,13.6648,0.640635
644,386,11.6521,0.723328,0,0,0,0,0,0,0,-1,1868,638,11.6521,-0.723355
651,386,9.3866,1.31097,0,0,0,0,0,0,0,-1,1875,638,9.3866,-1.31095
658,386,12.0731,-0.00415039,0,0,0,0,0,0,0,-1,1882,638,12.0731,0.00412803
665,386,6.33167,1.78601,0,0,0,0,0,0,0,-1,1889,638,6.33171,-1.78601
672,386,7.23352,2.14435,0,0,0,0,0,0,0,-1,1896,638,7.23353,-2.14433
679,386,8.07764,2.57104,0,0,0,0,0,0,0,-1,1903,638,8.07758,-2.57103
686,386,0,0,0,0,0,0,0,0,0,-1,1910,638,0,0
693,386,0,0,0,0,0,0,0,0,0,-1,1917,638,0,0
700,386,0,0,0,0,0,0,0,0,0,-1,1924,638,0,0
707,386,0,0,0,0,0,0,0,0,0,-1,1931,638,0,0
714,386,0,0,0,0,0,0,0,0,0,-1,1938,638,0,0
721,386,0,0,0,0,0,0,0,0,0,-1,1945,638,0,0
728,386,0,0,0,0,0,0,0,0,0,-1,1952,638,0,0
735,386,0,0,0,0,0,0,0,0,0,-1,1959,638,0,0
742,386,0,0,0,0,0,0,0,0,0,-1,1966,638,0,0
749,386,0,0,0,0,0,0,0,0,0,-1,1973,638,0,0
756,386,0,0,0,0,0,0,0,0,0,-1,1980,638,0,0
763,386,0,0,0,0,0,0,0,0,0,-1,1987,638,0,0
770,386,0,0,0,0,0,0,0,0,0,-1,1994,638,0,0
777,386,0,0,0,0,0,0,0,0,0,-1,2001,638,0,0
784,386,0,0,0,0,0,0,0,0,0,-1,2008,638,0,0
791,386,0,0,0,0,0,0,0,0,0,-1,2015,638,0,0
798,386,0,0,0,0,0,0,0,0,0,-1,2022,638,0,0
805,386,0,0,0,0,0,0,0,0,0,-1,2029,638,0,0
812,386,0,0,0,0,0,0,0,0,0,-1,2036,638,0,0
-700,379,0,0,0,0,0,0,0,0,0,-1,524,645,0,0
-693,379,0,0,0,0,0,0,0,0,0,-1,531,645,0,0
-686,379,0,0,0,0,0,0,0,0,0,-1,538,645,0,0
-679,379,0,0,0,0,0,0,0,0,0,-1,545,645,0,0
-672,379,0,0,0,0,0,0,0,0,0,-1,552,645,0,0
-665,379,0,0,0,0,0,0,0,0,0,-1,559,645,0,0
-658,379,0,0,0,0,0,0,0,0,0,-1,566,645,0,0
-651,379,0,0,0,0,0,0,0,0,0,-1,573,645,0,0
-644,379,0,0,0,0,0,0,0,0,0,-1,580,645,0,0
-637,379,0,0,0,0,0,0,0,0,0,-1,587,645,0,0
-630,379,0,0,0,0,0,0,0,0,0,-1,594,645,0,0
-623,379,0,0,0,0,0,0,0,0,0,-1,601,645,0,0
-616,379,0,0,0,0,0,0,0,0,0,-1,608,645,0,0
-609,379,0,0,0,0,0,0,0,0,0,-1,615,645,0,0
-602,379,0,0,0,0,0,0,0,0,0,-1,622,645,0,0
-595,379,0,0,0,0,0,0,0,0,0,-1,629,645,0,0
-588,379,0,0,0,0,0,0,0,0,0,-1,636,645,0,0
-581,379,0,0,0,0,0,0,0,0,0,-1,643,645,0,0
-574,379,0,0,0,0,0,0,0,0,0,-1,650,645,0,0
-567,379,-8.78058,0.59668,0,0,0,0,0,0,0,-1,657,645,-8.7806,-0.596692
-560,379,-9.53485,-0.211304,0,0,0,0,0,0,0,-1,664,645,-9.53487,0.211282
-553,379,-5.17108,-4.53119,0,0,0,0,0,0,0,-1,671,645,-5.17106,4.53117
-546,379,-6.23053,-4.92102,0,0,0,0,0,0,0,-1,678,645,-6.23054,4.92105
-539,379,-0.71698,-2.19427,0,0,0,0,0,0,0,-1,685,645,-0.716959,2.19427
-532,379,-7.69611,0.217224,0,0,0,0,0,0,0,-1,692,645,-7.69614,-0.217204
-525,379,-6.80957,-1.27161,0,0,0,0,0,0,0,-1,699,645,-6.80959,1.27161
-518,379,-6.64404,-2.0332,0.00992909,0.0176372,-0.0109676,0.0254082,0.00215805,-0.954359,0.0162672,0.0451032,706,645,-6.64406,2.03322
-511,379,-6.58258,-2.6582,0.00679141,0.0122588,-0.00751672,0.0175235,0.00152671,-0.959803,0.0112081,0.0369735,713,645,-6.58259,2.65819
-504,379,-6.72076,-2.96448,0.0046616,0.00843426,-0.005105,0.0119903,0.00110557,-0.962371,0.00765167,0.0204465,720,645,-6.72075,2.9645
-497,379,-6.77124,-3.25861,0.00300835,0.00533628,-0.00320162,0.00757895,0.000765678,-0.959748,0.00481773,0.0107683,727,645,-6.77124,3.25863
-490,379,-6.7525,-3.61145,0.00210826,0.00346574,-0.00220173,0.00509098,0.000483029,-0.934914,0.00324498,0.0109455,734,645,-6.75253,3.61146
-483,379,-6.73822,-3.96716,0.00186014,0.00239266,-0.00170923,0.00385624,0.00039656,-0.862665,0.00244936,0.0124403,741,645,-6.73823,3.96714
-476,379,-6.7309,-4.28192,0.0016957,0.00152918,-0.00130347,0.00291856,0.000306318,-0.753502,0.00185207,0.0125192,748,645,-6.73089,4.28191
-469,379,-6.75195,-4.61719,0.00179255,0.0013763,-0.0013508,0.00295117,0.000217682,-0.70896,0.00189905,0.0113983,755,645,-6.75194,4.61717
-462,379,-6.78143,-4.97827,0.00193484,0.00126835,-0.00155223,0.00318919,1.40019e-05,-0.679659,0.00212148,0.00865752,762,645,-6.78141,4.97827
-455,379,-6.79712,-5.33502,0.00172628,0.00135917,-0.00137971,0.00293459,0.000150863,-0.719267,0.0019081,0.00912278,769,645,-6.79712,5.33501
-448,379,-6.80505,-5.66467,0.0015098,0.00104841,-0.00109707,0.00240017,0.00015804,-0.681767,0.00155012,0.0113108,776,645,-6.80503,5.6647
-441,379,-6.78406,-6.0368,0.00111095,0.000629501,-0.000680911,0.00159243,0.000148014,-0.61549,0.00101589,0.0178129,783,645,-6.78406,6.0368
-434,379,-6.67706,-6.54254,0,0,0,0,0,0,0,-1,790,645,-6.67707,6.54256
-427,379,-4.16113,-4.13452,0,0,0,0,0,0,0,-1,797,645,-4.16116,4.1345
-420,379,-4.63953,-3.46869,0,0,0,0,0,0,0,-1,804,645,-4.63953,3.46872
-413,379,-4.62543,-3.7912,0,0,0,0,0,0,0,-1,811,645,-4.62541,3.79123
-406,379,-4.64063,-4.38489,0,0,0,0,0,0,0,-1,818,645,-4.64065,4.3849
-399,379,-2.93536,-1.40118,0,0,0,0,0,0,0,-1,825,645,-2.93534,1.40119
-392,379,-4.16711,-0.466003,0,0,0,0,0,0,0,-1,832,645,-4.16714,0.465992
-385,379,-3.51862,0.441101,0,0,0,0,0,0,0,-1,839,645,-3.51859,-0.441072
-378,379,-5.3504,0.212219,0,0,0,0,0,0,0,-1,846,645,-5.35038,-0.212241
-371,379,-4.32092,-0.186707,0,0,0,0,0,0,0,-1,853,645,-4.3209,0.186707
-364,379,-3.40887,-0.549805,0,0,0,0,0,0,0,-1,860,645,-3.4089,0.549802
-357,379,0,0,0,0,0,0,0,0,0,-1,867,645,0,0
-350,379,0,0,0,0,0,0,0,0,0,-1,874,645,0,0
-343,379,0,0,0,0,0,0,0,0,0,-1,881,645,0,0
-336,379,0,0,0,0,0,0,0,0,0,-1,888,645,0,0
-329,379,0,0,0,0,0,0,0,0,0,-1,895,645,0,0
-322,379,0,0,0,0,0,0,0,0,0,-1,902,645,0,0
-315,379,0,0,0,0,0,0,0,0,0,-1,909,645,0,0
-308,379,0,0,0,0,0,0,0,0,0,-1,916,645,0,0
-301,379,0,0,0,0,0,0,0,0,0,-1,923,645,0,0
-294,379,0,0,0,0,0,0,0,0,0,-1,930,645,0,0
-287,379,0,0,0,0,0,0,0,0,0,-1,937,645,0,0
-280,379,0,0,0,0,0,0,0,0,0,-1,944,645,0,0
-273,379,0,0,0,0,0,0,0,0,0,-1,951,645,0,0
-266,379,0,0,0,0,0,0,0,0,0,-1,958,645,0,0
-259,379,0,0,0,0,0,0,0,0,0,-1,965,645,0,0
-252,379,0,0,0,0,0,0,0,0,0,-1,972,645,0,0
-245,379,0,0,0,0,0,0,0,0,0,-1,979,645,0,0
-238,379,0,0,0,0,0,0,0,0,0,-1,986,645,0,0
-231,379,0,0,0,0,0,0,0,0,0,-1,993,645,0,0
-224,379,0,0,0,0,0,0,0,0,0,-1,1000,645,0,0
-217,379,0,0,0,0,0,0,0,0,0,-1,1007,645,0,0
-210,379,0,0,0,0,0,0,0,0,0,-1,1014,645,0,0
-203,379,0,0,0,0,0,0,0,0,0,-1,1021,645,0,0
-196,379,0,0,0,0,0,0,0,0,0,-1,1028,645,0,0
-189,379,0,0,0,0,0,0,0,0,0,-1,1035,645,0,0
-182,379,0,0,0,0,0,0,0,0,0,-1,1042,645,0,0
-175,379,0,0,0,0,0,0,0,0,0,-1,1049,645,0,0
-168,379,0,0,0,0,0,0,0,0,0,-1,1056,645,0,0
-161,379,0,0,0,0,0,0,0,0,0,-1,1063,645,0,0
-154,379,0,0,0,0,0,0,0,0,0,-1,1070,645,0,0
-147,379,0,0,0,0,0,0,0,0,0,-1,1077,645,0,0
-140,379,0,0,0,0,0,0,0,0,0,-1,1084,645,0,0
-133,379,0,0,0,0,0,0,0,0,0,-1,1091,645,0,0
-126,379,0,0,0,0,0,0,0,0,0,-1,1098,645,0,0
-119,379,0,0,0,0,0,0,0,0,0,-1,1105,645,0,0
-112,379,0,0,0,0,0,0,0,0,0,-1,1112,645,0,0
-105,379,0,0,0,0,0,0,0,0,0,-1,1119,645,0,0
-98,379,0,0,0,0,0,0,0,0,0,-1,1126,645,0,0
-91,379,0,0,0,0,0,0,0,0,0,-1,1133,645,0,0
-84,379,0,0,0,0,0,0,0,0,0,-1,1140,645,0,0
-77,379,0,0,0,0,0,0,0,0,0,-1,1147,645,0,0
-70,379,0,0,0,0,0,0,0,0,0,-1,1154,645,0,0
-63,379,0,0,0,0,0,0,0,0,0,-1,1161,645,0,0
-56,379,0,0,0,0,0,0,0,0,0,-1,1168,645,0,0
-49,379,0,0,0,0,0,0,0,0,0,-1,1175,645,0,0
-42,379,0,0,0,0,0,0,0,0,0,-1,1182,645,0,0
-35,379,0,0,0,0,0,0,0,0,0,-1,1189,645,0,0
-28,379,0,0,0,0,0,0,0,0,0,-1,1196,645,0,0
-21,379,0,0,0,0,0,0,0,0,0,-1,1203,645,0,0
-14,379,0,0,0,0,0,0,0,0,0,-1,1210,645,0,0
-7,379,0,0,0,0,0,0,0,0,0,-1,1217,645,0,0
0,379,0,0,0,0,0,0,0,0,0,-1,1224,645,0,0
7,379,0,0,0,0,0,0,0,0,0,-1,1231,645,0,0
14,379,0,0,0,0,0,0,0,0,0,-1,1238,645,0,0
21,379,0,0,0,0,0,0,0,0,0,-1,1245,645,0,0
28,379,0,0,0,0,0,0,0,0,0,-1,1252,645,0,0
35,379,0,0,0,0,0,0,0,0,0,-1,1259,645,0,0
42,379,0,0,0,0,0,0,0,0,0,-1,1266,645,0,0
49,379,0,0,0,0,0,0,0,0,0,-1,1273,645,0,0
56,379,0,0,0,0,0,0,0,0,0,-1,1280,645,0,0
63,379,0,0,0,0,0,0,0,0,0,-1,1287,645,0,0
70,379,0,0,0,0,0,0,0,0,0,-1,1294,645,0,0
77,379,0,0,0,0,0,0,0,0,0,-1,1301,645,0,0
84,379,0,0,0,0,0,0,0,0,0,-1,1308,645,0,0
91,379,0,0,0,0,0,0,0,0,0,-1,1315,645,0,0
98,379,0,0,0,0,0,0,0,0,0,-1,1322,645,0,0
105,379,0,0,0,0,0,0,0,0,0,-1,1329,645,0,0
112,379,0,0,0,0,0,0,0,0,0,-1,1336,645,0,0
119,379,0,0,0,0,0,0,0,0,0,-1,1343,645,0,0
126,379,0,0,0,0,0,0,0,0,0,-1,1350,645,0,0
133,379,0,0,0,0,0,0,0,0,0,-1,1357,645,0,0
140,379,0,0,0,0,0,0,0,0,0,-1,1364,645,0,0
147,379,0,0,0,0,0,0,0,0,0,-1,1371,645,0,0
154,379,0,0,0,0,0,0,0,0,0,-1,1378,645,0,0
161,379,0,0,0,0,0,0,0,0,0,-1,1385,645,0,0
168,379,0,0,0,0,0,0,0,0,0,-1,1392,645,0,0
175,379,0,0,0,0,0,0,0,0,0,-1,1399,645,0,0
182,379,0,0,0,0,0,0,0,0,0,-1,1406,645,0,0
189,379,0,0,0,0,0,0,0,0,0,-1,1413,645,0,0
196,379,0,0,0,0,0,0,0,0,0,-1,1420,645,0,0
203,379,0,0,0,0,0,0,0,0,0,-1,1427,645,0,0
210,379,0,0,0,0,0,0,0,0,0,-1,1434,645,0,0
217,379,0,0,0,0,0,0,0,0,0,-1,1441,645,0,0
224,379,0,0,0,0,0,0,0,0,0,-1,1448,645,0,0
231,379,0,0,0,0,0,0,0,0,0,-1,1455,645,0,0
238,379,0,0,0,0,0,0,0,0,0,-1,1462,645,0,0
245,379,0,0,0,0,0,0,0,0,0,-1,1469,645,0,0
252,379,0,0,0,0,0,0,0,0,0,-1,1476,645,0,0
259,379,0,0,0,0,0,0,0,0,0,-1,1483,645,0,0
266,379,0,0,0,0,0,0,0,0,0,-1,1490,645,0,0
273,379,0,0,0,0,0,0,0,0,0,-1,1497,645,0,0
280,379,0,0,0,0,0,0,0,0,0,-1,1504,645,0,0
287,379,0,0,0,0,0,0,0,0,0,-1,1511,645,0,0
294,379,0,0,0,0,0,0,0,0,0,-1,1518,645,0,0
301,379,0,0,0,0,0,0,0,0,0,-1,1525,645,0,0
308,379,0,0,0,0,0,0,0,0,0,-1,1532,645,0,0
315,379,0,0,0,0,0,0,0,0,0,-1,1539,645,0,0
322,379,0,0,0,0,0,0,0,0,0,-1,1546,645,0,0
329,379,0,0,0,0,0,0,0,0,0,-1,1553,645,0,0
336,379,0,0,0,0,0,0,0,0,0,-1,1560,645,0,0
343,379,0,0,0,0,0,0,0,0,0,-1,1567,645,0,0
350,379,0,0,0,0,0,0,0,0,0,-1,1574,645,0,0
357,379,0,0,0,0,0,0,0,0,0,-1,1581,645,0,0
364,379,0,0,0,0,0,0,0,0,0,-1,1588,645,0,0
371,379,0,0,0,0,0,0,0,0,0,-1,1595,645,0,0
378,379,0,0,0,0,0,0,0,0,0,-1,1602,645,0,0
385,379,0,0,0,0,0,0,0,0,0,-1,1609,645,0,0
392,379,0,0,0,0,0,0,0,0,0,-1,1616,645,0,0
399,379,0,0,0,0,0,0,0,0,0,-1,1623,645,0,0
406,379,0,0,0,0,0,0,0,0,0,-1,1630,645,0,0
413,379,0,0,0,0,0,0,0,0,0,-1,1637,645,0,0
420,379,0,0,0,0,0,0,0,0,0,-1,1644,645,0,0
427,379,0,0,0,0,0,0,0,0,0,-1,1651,645,0,0
434,379,0,0,0,0,0,0,0,0,0,-1,1658,645,0,0
441,379,0,0,0,0,0,0,0,0,0,-1,1665,645,0,0
448,379,0,0,0,0,0,0,0,0,0,-1,1672,645,0,0
455,379,0,0,0,0,0,0,0,0,0,-1,1679,645,0,0
462,379,0,0,0,0,0,0,0,0,0,-1,1686,645,0,0
469,379,0,0,0,0,0,0,0,0,0,-1,1693,645,0,0
476,379,11.1787,0.830383,0,0,0,0,0,0,0,-1,1700,645,11.1787,-0.830365
483,379,7.4231,1.54321,0,0,0,0,0,0,0,-1,1707,645,7.42314,-1.54324
490,379,8.52881,1.56677,0,0,0,0,0,0,0,-1,1714,645,8.52878,-1.56677
497,379,9.63599,1.49573,0,0,0,0,0,0,0,-1,1721,645,9.63604,-1.4957
504,379,10.0833,1.35229,0,0,0,0,0,0,0,-1,1728,645,10.0832,-1.35227
511,379,8.14343,1.59912,0,0,0,0,0,0,0,-1,1735,645,8.14347,-1.59912
518,379,12.7955,-0.324097,0,0,0,0,0,0,0,-1,1742,645,12.7955,0.324101
525,379,6.03711,1.10352,0,0,0,0,0,0,0,-1,1749,645,6.03711,-1.10351
532,379,8.70947,0.887817,0,0,0,0,0,0,0,-1,1756,645,8.70953,-0.887808
539,379,9.87097,0.111389,0,0,0,0,0,0,0,-1,1763,645,9.87095,-0.111395
546,379,8.42383,-0.730652,0,0,0,0,0,0,0,-1,1770,645,8.42378,0.730638
553,379,14.2834,-5.01013,0,0,0,0,0,0,0,-1,1777,645,14.2834,5.01016
560,379,14.0979,-4.60114,-0.0010292,0.000760475,-0.00125068,0.00140347,-0.00167219,-1.09592,0.00177799,0.0392982,1784,645,14.0979,4.60111
567,379,13.8313,-4.2901,-0.000614684,0.000450737,-0.0010639,0.00110784,-0.00127179,-1.01751,0.00137497,0.0217143,1791,645,13.8313,4.29009
574,379,13.9163,-3.95355,-0.000267204,0.000363194,-0.000751447,0.000862871,-0.00076688,-0.983981,0.000941481,0.0126345,1798,645,13.9163,3.95358
581,379,13.9254,-3.60138,3.99643e-05,0.000428431,-0.000440702,0.000715804,-0.000247409,-0.99296,0.000577613,0.0148396,1805,645,13.9255,3.6014
588,379,13.9258,-3.2312,0.000324337,0.000586512,-0.000102446,0.000621795,0.000289054,-1.23912,0.000359289,0.0163497,1812,645,13.9257,3.2312
595,379,13.9022,-2.89209,0.00067879,0.000839122,0.000277071,0.00104739,0.000470521,0.92622,0.00060575,0.0142292,1819,645,13.9022,2.8921
602,379,13.9036,-2.52606,0.00110873,0.00119678,0.000736734,0.0018908,0.000414706,0.815244,0.00114756,0.0150048,1826,645,13.9036,2.52604
609,379,13.8896,-2.14789,0.00125224,0.00159703,0.00108215,0.00252043,0.000328841,0.86439,0.0015821,0.0154431,1833,645,13.8896,2.14787
616,379,13.8772,-1.78723,0.00131793,0.00191514,0.00129696,0.00294743,0.00028565,0.898544,0.00187699,0.0124748,1840,645,13.8772,1.78724
623,379,13.8906,-1.3985,0.00140483,0.00225479,0.00142038,0.0033124,0.000347208,0.93076,0.00210211,0.0108522,1847,645,13.8906,1.39853
630,379,13.8831,-1.03174,0.00140693,0.00224991,0.00137722,0.00326869,0.000388151,0.933894,0.00206196,0.0124487,1854,645,13.8831,1.03172
637,379,13.9009,-0.612061,0.00125784,0.00235314,0.00114093,0.00307105,0.00053993,1.00916,0.00189323,0.0246772,1861,645,13.9009,0.612052
644,379,14.0051,-0.143921,0,0,0,0,0,0,0,-1,1868,645,14.0051,0.143924
651,379,12.9515,0.220825,0,0,0,0,0,0,0,-1,1875,645,12.9515,-0.220814
658,379,13.1963,0.197632,0,0,0,0,0,0,0,-1,1882,645,13.1963,-0.197632
665,379,11.9719,0.353333,0,0,0,0,0,0,0,-1,1889,645,11.9719,-0.353321
672,379,7.57605,2.15326,0,0,0,0,0,0,0,-1,1896,645,7.57599,-2.15326
679,379,8.55078,2.50409,0,0,0,0,0,0,0,-1,1903,645,8.55073,-2.50406
686,379,0,0,0,0,0,0,0,0,0,-1,1910,645,0,0
693,379,0,0,0,0,0,0,0,0,0,-1,1917,645,0,0
700,379,0,0,0,0,0,0,0,0,0,-1,1924,645,0,0
707,379,0,0,0,0,0,0,0,0,0,-1,1931,645,0,0
714,379,0,0,0,0,0,0,0,0,0,-1,1938,645,0,0
721,379,0,0,0,0,0,0,0,0,0,-1,1945,645,0,0
728,379,0,0,0,0,0,0,0,0,0,-1,1952,645,0,0
735,379,0,0,0,0,0,0,0,0,0,-1,1959,645,0,0
742,379,0,0,0,0,0,0,0,0,0,-1,1966,645,0,0
749,379,0,0,0,0,0,0,0,0,0,-1,1973,645,0,0
756,379,0,0,0,0,0,0,0,0,0,-1,1980,645,0,0
763,379,0,0,0,0,0,0,0,0,0,-1,1987,645,0,0
770,379,0,0,0,0,0,0,0,0,0,-1,1994,645,0,0
777,379,0,0,0,0,0,0,0,0,0,-1,2001,645,0,0
784,379,0,0,0,0,0,0,0,0,0,-1,2008,645,0,0
791,379,0,0,0,0,0,0,0,0,0,-1,2015,645,0,0
798,379,0,0,0,0,0,0,0,0,0,-1,2022,645,0,0
805,379,0,0,0,0,0,0,0,0,0,-1,2029,645,0,0
812,379,0,0,0,0,0,0,0,0,0,-1,2036,645,0,0
-700,372,0,0,0,0,0,0,0,0,0,-1,524,652,0,0
-693,372,0,0,0,0,0,0,0,0,0,-1,531,652,0,0
-686,372,0,0,0,0,0,0,0,0,0,-1,538,652,0,0
-679,372,0,0,0,0,0,0,0,0,0,-1,545,652,0,0
-672,372,0,0,0,0,0,0,0,0,0,-1,552,652,0,0
-665,372,0,0,0,0,0,0,0,0,0,-1,559,652,0,0
-658,372,0,0,0,0,0,0,0,0,0,-1,566,652,0,0
-651,372,0,0,0,0,0,0,0,0,0,-1,573,652,0,0
-644,372,0,0,0,0,0,0,0,0,0,-1,580,652,0,0
-637,372,0,0,0,0,0,0,0,0,0,-1,587,652,0,0
-630,372,0,0,0,0,0,0,0,0,0,-1,594,652,0,0
-623,372,0,0,0,0,0,0,0,0,0,-1,601,652,0,0
-616,372,0,0,0,0,0,0,0,0,0,-1,608,652,0,0
-609,372,0,0,0,0,0,0,0,0,0,-1,615,652,0,0
-602,372,0,0,0,0,0,0,0,0,0,-1,622,652,0,0
-595,372,0,0,0,0,0,0,0,0,0,-1,629,652,0,0
-588,372,0,0,0,0,0,0,0,0,0,-1,636,652,0,0
-581,372,0,0,0,0,0,0,0,0,0,-1,643,652,0,0
-574,372,0,0,0,0,0,0,0,0,0,-1,650,652,0,0
-567,372,-7.93744,0.73407,0,0,0,0,0,0,0,-1,657,652,-7.93741,-0.734076
-560,372,-8.78552,-0.158203,0,0,0,0,0,0,0,-1,664,652,-8.78552,0.158216
-553,372,-7.95551,1.61694,0,0,0,0,0,0,0,-1,671,652,-7.95552,-1.61697
-546,372,-4.2403,-3.75372,0,0,0,0,0,0,0,-1,678,652,-4.24028,3.75369
-539,372,-7.92285,-0.0650024,0,0,0,0,0,0,0,-1,685,652,-7.92287,0.0649772
-532,372,-7.37073,-0.403503,0,0,0,0,0,0,0,-1,692,652,-7.37074,0.403502
-525,372,-6.94348,-1.1911,0,0,0,0,0,0,0,-1,699,652,-6.94347,1.19112
-518,372,-7.0802,-2.14447,0,0,0,0,0,0,0,-1,706,652,-7.0802,2.14445
-511,372,-7.07465,-2.56573,0.00584746,0.0110918,-0.00678399,0.0157428,0.00119651,-0.969816,0.0101199,0.0233824,713,652,-7.07466,2.56575
-504,372,-7.10248,-2.88824,0.00384798,0.00746346,-0.00445495,0.0104635,0.000847962,-0.978139,0.00671088,0.0128994,720,652,-7.10248,2.88823
-497,372,-7.08929,-3.26276,0.00231964,0.00449163,-0.00262622,0.00624754,0.000563737,-0.981452,0.00399041,0.0111602,727,652,-7.0893,3.26276
-490,372,-7.09863,-3.59991,0.00154181,0.00276381,-0.00170366,0.00396273,0.000342903,-0.957573,0.00253526,0.0122034,734,652,-7.09863,3.59993
-483,372,-7.09021,-3.93701,0.00143671,0.00182317,-0.00128436,0.00292876,0.000331125,-0.860063,0.00185202,0.0122446,741,652,-7.09019,3.93701
-476,372,-7.09094,-4.24951,0.0014881,0.00116727,-0.00104282,0.00238277,0.000272595,-0.709083,0.0015059,0.0131492,748,652,-7.09097,4.2495
-469,372,-7.11029,-4.58417,0.0018616,0.00122795,-0.00130704,0.00288966,0.000199879,-0.666493,0.00186339,0.0104696,755,652,-7.1103,4.58417
-462,372,-7.12549,-4.96295,0.00232514,0.00140298,-0.00174475,0.00366871,5.94103e-05,-0.656217,0.00242624,0.00926438,762,652,-7.12548,4.96296
-455,372,-7.13965,-5.30524,0.00241595,0.00180713,-0.00182689,0.00396361,0.000259465,-0.702844,0.00256031,0.0100026,769,652,-7.13964,5.30526
-448,372,-7.13232,-5.65179,0.00247489,0.00179693,-0.00183102,0.00399805,0.000273778,-0.693869,0.00257895,0.0114794,776,652,-7.1323,5.65178
-441,372,-6.97467,-6.1925,0.0024388,0.00155797,-0.00172449,0.00377823,0.000218543,-0.660377,0.00244923,0.0409513,783,652,-6.97465,6.1925
-434,372,-6.88013,-6.85767,0,0,0,0,0,0,0,-1,790,652,-6.8801,6.85769
-427,372,-4.54248,-3.56268,0,0,0,0,0,0,0,-1,797,652,-4.54247,3.56266
-420,372,-4.66168,-2.93597,0,0,0,0,0,0,0,-1,804,652,-4.66166,2.93599
-413,372,-4.74762,-3.29541,0,0,0,0,0,0,0,-1,811,652,-4.74763,3.29542
-406,372,-0.885437,-0.583923,0,0,0,0,0,0,0,-1,818,652,-0.885437,0.5839
-399,372,-3.97357,-0.825012,0,0,0,0,0,0,0,-1,825,652,-3.97359,0.825037
-392,372,-7.64337,0.173035,0,0,0,0,0,0,0,-1,832,652,-7.64337,-0.173019
-385,372,-6.48871,-0.0271606,0,0,0,0,0,0,0,-1,839,652,-6.48874,0.0271353
-378,372,-5.33044,-0.242432,0,0,0,0,0,0,0,-1,846,652,-5.33042,0.242457
-371,372,-4.40802,-0.495667,0,0,0,0,0,0,0,-1,853,652,-4.40802,0.495661
-364,372,0,0,0,0,0,0,0,0,0,-1,860,652,0,0
-357,372,0,0,0,0,0,0,0,0,0,-1,867,652,0,0
-350,372,0,0,0,0,0,0,0,0,0,-1,874,652,0,0
-343,372,0,0,0,0,0,0,0,0,0,-1,881,652,0,0
-336,372,0,0,0,0,0,0,0,0,0,-1,888,652,0,0
-329,372,0,0,0,0,0,0,0,0,0,-1,895,652,0,0
-322,372,0,0,0,0,0,0,0,0,0,-1,902,652,0,0
-315,372,0,0,0,0,0,0,0,0,0,-1,909,652,0,0
-308,372,0,0,0,0,0,0,0,0,0,-1,916,652,0,0
-301,372,0,0,0,0,0,0,0,0,0,-1,923,652,0,0
-294,372,0,0,0,0,0,0,0,0,0,-1,930,652,0,0
-287,372,0,0,0,0,0,0,0,0,0,-1,937,652,0,0
-280,372,0,0,0,0,0,0,0,0,0,-1,944,652,0,0
-273,372,0,0,0,0,0,0,0,0,0,-1,951,652,0,0
-266,372,0,0,0,0,0,0,0,0,0,-1,958,652,0,0
-259,372,0,0,0,0,0,0,0,0,0,-1,965,652,0,0
-252,372,0,0,0,0,0,0,0,0,0,-1,972,652,0,0
-245,372,0,0,0,0,0,0,0,0,0,-1,979,652,0,0
-238,372,0,0,0,0,0,0,0,0,0,-1,986,652,0,0
-231,372,0,0,0,0,0,0,0,0,0,-1,993,652,0,0
-224,372,0,0,0,0,0,0,0,0,0,-1,1000,652,0,0
-217,372,0,0,0,0,0,0,0,0,0,-1,1007,652,0,0
-210,372,0,0,0,0,0,0,0,0,0,-1,1014,652,0,0
-203,372,0,0,0,0,0,0,0,0,0,-1,1021,652,0,0
-196,372,0,0,0,0,0,0,0,0,0,-1,1028,652,0,0
-189,372,0,0,0,0,0,0,0,0,0,-1,1035,652,0,0
-182,372,0,0,0,0,0,0,0,0,0,-1,1042,652,0,0
-175,372,0,0,0,0,0,0,0,0,0,-1,1049,652,0,0
-168,372,0,0,0,0,0,0,0,0,0,-1,1056,652,0,0
-161,372,0,0,0,0,0,0,0,0,0,-1,1063,652,0,0
-154,372,0,0,0,0,0,0,0,0,0,-1,1070,652,0,0
-147,372,0,0,0,0,0,0,0,0,0,-1,1077,652,0,0
-140,372,0,0,0,0,0,0,0,0,0,-1,1084,652,0,0
-133,372,0,0,0,0,0,0,0,0,0,-1,1091,652,0,0
-126,372,0,0,0,0,0,0,0,0,0,-1,1098,652,0,0
-119,372,0,0,0,0,0,0,0,0,0,-1,1105,652,0,0
-112,372,0,0,0,0,0,0,0,0,0,-1,1112,652,0,0
-105,372,0,0,0,0,0,0,0,0,0,-1,1119,652,0,0
-98,372,0,0,0,0,0,0,0,0,0,-1,1126,652,0,0
-91,372,0,0,0,0,0,0,0,0,0,-1,1133,652,0,0
-84,372,0,0,0,0,0,0,0,0,0,-1,1140,652,0,0
-77,372,0,0,0,0,0,0,0,0,0,-1,1147,652,0,0
-70,372,0,0,0,0,0,0,0,0,0,-1,1154,652,0,0
-63,372,0,0,0,0,0,0,0,0,0,-1,1161,652,0,0
-56,372,0,0,0,0,0,0,0,0,0,-1,1168,652,0,0
-49,372,0,0,0,0,0,0,0,0,0,-1,1175,652,0,0
-42,372,0,0,0,0,0,0,0,0,0,-1,1182,652,0,0
-35,372,0,0,0,0,0,0,0,0,0,-1,1189,652,0,0
-28,372,0,0,0,0,0,0,0,0,0,-1,1196,652,0,0
-21,372,0,0,0,0,0,0,0,0,0,-1,1203,652,0,0
-14,372,0,0,0,0,0,0,0,0,0,-1,1210,652,0,0
-7,372,0,0,0,0,0,0,0,0,0,-1,1217,652,0,0
0,372,0,0,0,0,0,0,0,0,0,-1,1224,652,0,0
7,372,0,0,0,0,0,0,0,0,0,-1,1231,652,0,0
14,372,0,0,0,0,0,0,0,0,0,-1,1238,652,0,0
21,372,0,0,0,0,0,0,0,0,0,-1,1245,652,0,0
28,372,0,0,0,0,0,0,0,0,0,-1,1252,652,0,0
35,372,0,0,0,0,0,0,0,0,0,-1,1259,652,0,0
42,372,0,0,0,0,0,0,0,0,0,-1,1266,652,0,0
49,372,0,0,0,0,0,0,0,0,0,-1,1273,652,0,0
56,372,0,0,0,0,0,0,0,0,0,-1,1280,652,0,0
63,372,0,0,0,0,0,0,0,0,0,-1,1287,652,0,0
70,372,0,0,0,0,0,0,0,0,0,-1,1294,652,0,0
77,372,0,0,0,0,0,0,0,0,0,-1,1301,652,0,0
84,372,0,0,0,0,0,0,0,0,0,-1,1308,652,0,0
91,372,0,0,0,0,0,0,0,0,0,-1,1315,652,0,0
98,372,0,0,0,0,0,0,0,0,0,-1,1322,652,0,0
105,372,0,0,0,0,0,0,0,0,0,-1,1329,652,0,0
112,372,0,0,0,0,0,0,0,0,0,-1,1336,652,0,0
119,372,0,0,0,0,0,0,0,0,0,-1,1343,652,0,0
126,372,0,0,0,0,0,0,0,0,0,-1,1350,652,0,0
133,372,0,0,0,0,0,0,0,0,0,-1,1357,652,0,0
140,372,0,0,0,0,0,0,0,0,0,-1,1364,652,0,0
147,372,0,0,0,0,0,0,0,0,0,-1,1371,652,0,0
154,372,0,0,0,0,0,0,0,0,0,-1,1378,652,0,0
161,372,0,0,0,0,0,0,0,0,0,-1,1385,652,0,0
168,372,0,0,0,0,0,0,0,0,0,-1,1392,652,0,0
175,372,0,0,0,0,0,0,0,0,0,-1,1399,652,0,0
182,372,0,0,0,0,0,0,0,0,0,-1,1406,652,0,0
189,372,0,0,0,0,0,0,0,0,0,-1,1413,652,0,0
196,372,0,0,0,0,0,0,0,0,0,-1,1420,652,0,0
203,372,0,0,0,0,0,0,0,0,0,-1,1427,652,0,0
210,372,0,0,0,0,0,0,0,0,0,-1,1434,652,0,0
217,372,0,0,0,0,0,0,0,0,0,-1,1441,652,0,0
224,372,0,0,0,0,0,0,0,0,0,-1,1448,652,0,0
231,372,0,0,0,0,0,0,0,0,0,-1,1455,652,0,0
238,372,0,0,0,0,0,0,0,0,0,-1,1462,652,0,0
245,372,0,0,0,0,0,0,0,0,0,-1,1469,652,0,0
252,372,0,0,0,0,0,0,0,0,0,-1,1476,652,0,0
259,372,0,0,0,0,0,0,0,0,0,-1,1483,652,0,0
266,372,0,0,0,0,0,0,0,0,0,-1,1490,652,0,0
273,372,0,0,0,0,0,0,0,0,0,-1,1497,652,0,0
280,372,0,0,0,0,0,0,0,0,0,-1,1504,652,0,0
287,372,0,0,0,0,0,0,0,0,0,-1,1511,652,0,0
294,372,0,0,0,0,0,0,0,0,0,-1,1518,652,0,0
301,372,0,0,0,0,0,0,0,0,0,-1,1525,652,0,0
308,372,0,0,0,0,0,0,0,0,0,-1,1532,652,0,0
315,372,0,0,0,0,0,0,0,0,0,-1,1539,652,0,0
322,372,0,0,0,0,0,0,0,0,0,-1,1546,652,0,0
329,372,0,0,0,0,0,0,0,0,0,-1,1553,652,0,0
336,372,0,0,0,0,0,0,0,0,0,-1,1560,652,0,0
343,372,0,0,0,0,0,0,0,0,0,-1,1567,652,0,0
350,372,0,0,0,0,0,0,0,0,0,-1,1574,652,0,0
357,372,0,0,0,0,0,0,0,0,0,-1,1581,652,0,0
364,372,0,0,0,0,0,0,0,0,0,-1,1588,652,0,0
371,372,0,0,0,0,0,0,0,0,0,-1,1595,652,0,0
378,372,0,0,0,0,0,0,0,0,0,-1,1602,652,0,0
385,372,0,0,0,0,0,0,0,0,0,-1,1609,652,0,0
392,372,0,0,0,0,0,0,0,0,0,-1,1616,652,0,0
399,372,0,0,0,0,0,0,0,0,0,-1,1623,652,0,0
406,372,0,0,0,0,0,0,0,0,0,-1,1630,652,0,0
413,372,0,0,0,0,0,0,0,0,0,-1,1637,652,0,0
420,372,0,0,0,0,0,0,0,0,0,-1,1644,652,0,0
427,372,0,0,0,0,0,0,0,0,0,-1,1651,652,0,0
434,372,0,0,0,0,0,0,0,0,0,-1,1658,652,0,0
441,372,0,0,0,0,0,0,0,0,0,-1,1665,652,0,0
448,372,0,0,0,0,0,0,0,0,0,-1,1672,652,0,0
455,372,0,0,0,0,0,0,0,0,0,-1,1679,652,0,0
462,372,0,0,0,0,0,0,0,0,0,-1,1686,652,0,0
469,372,0,0,0,0,0,0,0,0,0,-1,1693,652,0,0
476,372,0,0,0,0,0,0,0,0,0,-1,1700,652,0,0
483,372,8.74182,1.53125,0,0,0,0,0,0,0,-1,1707,652,8.74186,-1.53126
490,372,9.78455,1.67096,0,0,0,0,0,0,0,-1,1714,652,9.7846,-1.67093
497,372,9.97644,1.46069,0,0,0,0,0,0,0,-1,1721,652,9.97647,-1.46071
504,372,10.1216,1.28375,0,0,0,0,0,0,0,-1,1728,652,10.1216,-1.28376
511,372,11.7367,-0.0272217,0,0,0,0,0,0,0,-1,1735,652,11.7367,0.0272326
518,372,12.0657,-0.0995483,0,0,0,0,0,0,0,-1,1742,652,12.0657,0.0995285
525,372,12.3947,-0.171814,0,0,0,0,0,0,0,-1,1749,652,12.3946,0.171824
532,372,9.36597,1.72034,0,0,0,0,0,0,0,-1,1756,652,9.36597,-1.72036
539,372,7.82886,-0.0865479,0,0,0,0,0,0,0,-1,1763,652,7.82882,0.0865771
546,372,10.953,-0.187195,0,0,0,0,0,0,0,-1,1770,652,10.953,0.187181
553,372,14.1201,-4.83234,0,0,0,0,0,0,0,-1,1777,652,14.1201,4.83235
560,372,14.4906,-4.6803,0,0,0,0,0,0,0,-1,1784,652,14.4906,4.68028
567,372,14.2581,-4.29028,-0.00105994,0.000584194,-0.00150155,0.00147398,-0.00194972,-1.03585,0.00198303,0.0298443,1791,652,14.2581,4.29031
574,372,14.3217,-3.90942,-0.000497836,0.000434772,-0.00104399,0.00111186,-0.00117492,-0.995434,0.00132044,0.019598,1798,652,14.3217,3.90945
581,372,14.3096,-3.59393,-4.16153e-05,0.000474761,-0.000638493,0.000905292,-0.000472147,-0.977533,0.000808265,0.0168385,1805,652,14.3096,3.59392
588,372,14.2894,-3.22858,0.000309406,0.000549699,-0.000272546,0.000727406,0.000131699,-0.993,0.000447544,0.0155827,1812,652,14.2894,3.22855
595,372,14.2754,-2.87567,0.000644749,0.000701295,6.93569e-05,0.00074792,0.000598124,0.978938,0.000456941,0.0134856,1819,652,14.2754,2.87567
602,372,14.2819,-2.53021,0.00104221,0.000959039,0.000478066,0.0014805,0.000520755,0.742012,0.000867201,0.0144166,1826,652,14.2818,2.53019
609,372,14.2319,-2.15149,0.00115951,0.00127381,0.000780287,0.00199904,0.000434285,0.821955,0.0012141,0.0149188,1833,652,14.232,2.15149
616,372,14.2391,-1.77722,0.00120833,0.00148714,0.000946333,0.00230428,0.00039119,0.858529,0.00142382,0.0145113,1840,652,14.2391,1.77724
623,372,14.2703,-1.38617,0.0011788,0.00169347,0.00096952,0.00243923,0.000433048,0.91512,0.00150275,0.0123786,1847,652,14.2703,1.38614
630,372,14.2382,-1.01001,0.00103603,0.00152478,0.000782137,0.00209983,0.000460981,0.936814,0.00127433,0.0165622,1854,652,14.2381,1.00999
637,372,14.249,-0.675415,0.000837223,0.001342,0.000352051,0.00152279,0.000656438,1.09639,0.000881961,0.0210086,1861,652,14.2491,0.675398
644,372,14.3499,-0.20282,0.000399338,0.000850041,-0.000307095,0.0010056,0.000243781,-1.10193,0.000605717,0.0283586,1868,652,14.3499,0.202835
651,372,14.6079,0.319702,0,0,0,0,0,0,0,-1,1875,652,14.6079,-0.319699
658,372,13.3284,0.342285,0,0,0,0,0,0,0,-1,1882,652,13.3284,-0.342308
665,372,12.6793,0.756653,0,0,0,0,0,0,0,-1,1889,652,12.6793,-0.756671
672,372,9.34106,1.48444,0,0,0,0,0,0,0,-1,1896,652,9.34109,-1.48444
679,372,10.7308,2.32391,0,0,0,0,0,0,0,-1,1903,652,10.7309,-2.3239
686,372,11.6295,2.52997,0,0,0,0,0,0,0,-1,1910,652,11.6296,-2.52996
693,372,0,0,0,0,0,0,0,0,0,-1,1917,652,0,0
700,372,0,0,0,0,0,0,0,0,0,-1,1924,652,0,0
707,372,0,0,0,0,0,0,0,0,0,-1,1931,652,0,0
714,372,0,0,0,0,0,0,0,0,0,-1,1938,652,0,0
721,372,0,0,0,0,0,0,0,0,0,-1,1945,652,0,0
728,372,0,0,0,0,0,0,0,0,0,-1,1952,652,0,0
735,372,0,0,0,0,0,0,0,0,0,-1,1959,652,0,0
742,372,0,0,0,0,0,0,0,0,0,-1,1966,652,0,0
749,372,0,0,0,0,0,0,0,0,0,-1,1973,652,0,0
756,372,0,0,0,0,0,0,0,0,0,-1,1980,652,0,0
763,372,0,0,0,0,0,0,0,0,0,-1,1987,652,0,0
770,372,0,0,0,0,0,0,0,0,0,-1,1994,652,0,0
777,372,0,0,0,0,0,0,0,0,0,-1,2001,652,0,0
784,372,0,0,0,0,0,0,0,0,0,-1,2008,652,0,0
791,372,0,0,0,0,0,0,0,0,0,-1,2015,652,0,0
798,372,0,0,0,0,0,0,0,0,0,-1,2022,652,0,0
805,372,0,0,0,0,0,0,0,0,0,-1,2029,652,0,0
812,372,0,0,0,0,0,0,0,0,0,-1,2036,652,0,0
-700,365,0,0,0,0,0,0,0,0,0,-1,524,659,0,0
-693,365,0,0,0,0,0,0,0,0,0,-1,531,659,0,0
-686,365,0,0,0,0,0,0,0,0,0,-1,538,659,0,0
-679,365,0,0,0,0,0,0,0,0,0,-1,545,659,0,0
-672,365,0,0,0,0,0,0,0,0,0,-1,552,659,0,0
-665,365,0,0,0,0,0,0,0,0,0,-1,559,659,0,0
-658,365,0,0,0,0,0,0,0,0,0,-1,566,659,0,0
-651,365,0,0,0,0,0,0,0,0,0,-1,573,659,0,0
-644,365,0,0,0,0,0,0,0,0,0,-1,580,659,0,0
-637,365,0,0,0,0,0,0,0,0,0,-1,587,659,0,0
-630,365,0,0,0,0,0,0,0,0,0,-1,594,659,0,0
-623,365,0,0,0,0,0,0,0,0,0,-1,601,659,0,0
-616,365,0,0,0,0,0,0,0,0,0,-1,608,659,0,0
-609,365,0,0,0,0,0,0,0,0,0,-1,615,659,0,0
-602,365,0,0,0,0,0,0,0,0,0,-1,622,659,0,0
-595,365,0,0,0,0,0,0,0,0,0,-1,629,659,0,0
-588,365,0,0,0,0,0,0,0,0,0,-1,636,659,0,0
-581,365,0,0,0,0,0,0,0,0,0,-1,643,659,0,0
-574,365,-7.69281,1.59015,0,0,0,0,0,0,0,-1,650,659,-7.69282,-1.59018
-567,365,-8.2583,1.72638,0,0,0,0,0,0,0,-1,657,659,-8.25827,-1.72637
-560,365,-7.17767,0.275757,0,0,0,0,0,0,0,-1,664,659,-7.17768,-0.27577
-553,365,-8.82336,3.15826,0,0,0,0,0,0,0,-1,671,659,-8.82338,-3.15825
-546,365,-8.5188,0.96405,0,0,0,0,0,0,0,-1,678,659,-8.51877,-0.964027
-539,365,-8.72192,1.55731,0,0,0,0,0,0,0,-1,685,659,-8.72194,-1.55729
-532,365,-7.46033,-0.993774,0,0,0,0,0,0,0,-1,692,659,-7.46033,0.993795
-525,365,-7.30597,-1.58765,0,0,0,0,0,0,0,-1,699,659,-7.30595,1.58767
-518,365,-7.4541,-2.14288,0,0,0,0,0,0,0,-1,706,659,-7.45409,2.14291
-511,365,-7.44788,-2.52679,0.00543349,0.0100293,-0.0063195,0.0144557,0.00100709,-0.959779,0.00931962,0.0229268,713,659,-7.44786,2.52678
-504,365,-7.42932,-2.87347,0.00363965,0.0066533,-0.00413344,0.00954601,0.000746945,-0.960185,0.00613021,0.0117672,720,659,-7.42931,2.87349
-497,365,-7.43365,-3.2406,0.00229721,0.00387741,-0.00242804,0.00564067,0.00053396,-0.942698,0.0035957,0.0121957,727,659,-7.43365,3.24061
-490,365,-7.43982,-3.59705,0.00163385,0.00231553,-0.00158704,0.00359792,0.000351461,-0.891173,0.00229046,0.0135081,734,659,-7.43984,3.59705
-483,365,-7.45532,-3.93579,0.00159046,0.00150584,-0.00121899,0.00276788,0.000328422,-0.76805,0.0017461,0.0129817,741,659,-7.45535,3.9358
-476,365,-7.4422,-4.25397,0.00175802,0.0010812,-0.00112522,0.00259461,0.000244605,-0.639327,0.00165425,0.0137596,748,659,-7.44222,4.25398
-469,365,-7.46179,-4.59711,0.00226838,0.00131049,-0.00153554,0.00339794,0.000180936,-0.634226,0.00220745,0.0134759,755,659,-7.46182,4.5971
-462,365,-7.4848,-4.96423,0.00287084,0.00173985,-0.00210071,0.00448084,0.000129851,-0.653919,0.0029449,0.0137431,762,659,-7.48477,4.96422
-455,365,-7.48083,-5.29645,0.00307946,0.00243872,-0.00233696,0.00511791,0.000400275,-0.717278,0.00328665,0.0153622,769,659,-7.48086,5.29642
-448,365,-7.3866,-5.7088,0.00322757,0.00276934,-0.00254834,0.00555708,0.000439831,-0.740565,0.00356716,0.0262381,776,659,-7.3866,5.70877
-441,365,-7.20007,-6.22137,0,0,0,0,0,0,0,-1,783,659,-7.20009,6.22139
-434,365,-5.45056,-3.98041,0,0,0,0,0,0,0,-1,790,659,-5.45055,3.98042
-427,365,-5.05377,-4.74689,0,0,0,0,0,0,0,-1,797,659,-5.05376,4.7469
-420,365,-4.58813,-3.16376,0,0,0,0,0,0,0,-1,804,659,-4.58816,3.16374
-413,365,0.141357,0.672729,0,0,0,0,0,0,0,-1,811,659,0.141365,-0.672714
-406,365,-1.75067,-0.934448,0,0,0,0,0,0,0,-1,818,659,-1.7507,0.934424
-399,365,-4.10242,-1.25439,0,0,0,0,0,0,0,-1,825,659,-4.10244,1.25438
-392,365,-7.46545,-0.779724,0,0,0,0,0,0,0,-1,832,659,-7.46543,0.779744
-385,365,-6.27875,-0.887573,0,0,0,0,0,0,0,-1,839,659,-6.27874,0.887545
-378,365,-5.34503,-0.263306,0,0,0,0,0,0,0,-1,846,659,-5.34504,0.263275
-371,365,0,0,0,0,0,0,0,0,0,-1,853,659,0,0
-364,365,0,0,0,0,0,0,0,0,0,-1,860,659,0,0
-357,365,0,0,0,0,0,0,0,0,0,-1,867,659,0,0
-350,365,0,0,0,0,0,0,0,0,0,-1,874,659,0,0
-343,365,0,0,0,0,0,0,0,0,0,-1,881,659,0,0
-336,365,0,0,0,0,0,0,0,0,0,-1,888,659,0,0
-329,365,0,0,0,0,0,0,0,0,0,-1,895,659,0,0
-322,365,0,0,0,0,0,0,0,0,0,-1,902,659,0,0
-315,365,0,0,0,0,0,0,0,0,0,-1,909,659,0,0
-308,365,0,0,0,0,0,0,0,0,0,-1,916,659,0,0
-301,365,0,0,0,0,0,0,0,0,0,-1,923,659,0,0
-294,365,0,0,0,0,0,0,0,0,0,-1,930,659,0,0
-287,365,0,0,0,0,0,0,0,0,0,-1,937,659,0,0
-280,365,0,0,0,0,0,0,0,0,0,-1,944,659,0,0
-273,365,0,0,0,0,0,0,0,0,0,-1,951,659,0,0
-266,365,0,0,0,0,0,0,0,0,0,-1,958,659,0,0
-259,365,0,0,0,0,0,0,0,0,0,-1,965,659,0,0
-252,365,0,0,0,0,0,0,0,0,0,-1,972,659,0,0
-245,365,0,0,0,0,0,0,0,0,0,-1,979,659,0,0
-238,365,0,0,0,0,0,0,0,0,0,-1,986,659,0,0
-231,365,0,0,0,0,0,0,0,0,0,-1,993,659,0,0
-224,365,0,0,0,0,0,0,0,0,0,-1,1000,659,0,0
-217,365,0,0,0,0,0,0,0,0,0,-1,1007,659,0,0
-210,365,0,0,0,0,0,0,0,0,0,-1,1014,659,0,0
-203,365,0,0,0,0,0,0,0,0,0,-1,1021,659,0,0
-196,365,0,0,0,0,0,0,0,0,0,-1,1028,659,0,0
-189,365,0,0,0,0,0,0,0,0,0,-1,1035,659,0,0
-182,365,0,0,0,0,0,0,0,0,0,-1,1042,659,0,0
-175,365,0,0,0,0,0,0,0,0,0,-1,1049,659,0,0
-168,365,0,0,0,0,0,0,0,0,0,-1,1056,659,0,0
-161,365,0,0,0,0,0,0,0,0,0,-1,1063,659,0,0
-154,365,0,0,0,0,0,0,0,0,0,-1,1070,659,0,0
-147,365,0,0,0,0,0,0,0,0,0,-1,1077,659,0,0
-140,365,0,0,0,0,0,0,0,0,0,-1,1084,659,0,0
-133,365,0,0,0,0,0,0,0,0,0,-1,1091,659,0,0
-126,365,0,0,0,0,0,0,0,0,0,-1,1098,659,0,0
-119,365,0,0,0,0,0,0,0,0,0,-1,1105,659,0,0
-112,365,0,0,0,0,0,0,0,0,0,-1,1112,659,0,0
-105,365,0,0,0,0,0,0,0,0,0,-1,1119,659,0,0
-98,365,0,0,0,0,0,0,0,0,0,-1,1126,659,0,0
-91,365,0,0,0,0,0,0,0,0,0,-1,1133,659,0,0
-84,365,0,0,0,0,0,0,0,0,0,-1,1140,659,0,0
-77,365,0,0,0,0,0,0,0,0,0,-1,1147,659,0,0
-70,365,0,0,0,0,0,0,0,0,0,-1,1154,659,0,0
-63,365,0,0,0,0,0,0,0,0,0,-1,1161,659,0,0
-56,365,0,0,0,0,0,0,0,0,0,-1,1168,659,0,0
-49,365,0,0,0,0,0,0,0,0,0,-1,1175,659,0,0
-42,365,0,0,0,0,0,0,0,0,0,-1,1182,659,0,0
-35,365,0,0,0,0,0,0,0,0,0,-1,1189,659,0,0
-28,365,0,0,0,0,0,0,0,0,0,-1,1196,659,0,0
-21,365,0,0,0,0,0,0,0,0,0,-1,1203,659,0,0
-14,365,0,0,0,0,0,0,0,0,0,-1,1210,659,0,0
-7,365,0,0,0,0,0,0,0,0,0,-1,1217,659,0,0
0,365,0,0,0,0,0,0,0,0,0,-1,1224,659,0,0
7,365,0,0,0,0,0,0,0,0,0,-1,1231,659,0,0
14,365,0,0,0,0,0,0,0,0,0,-1,1238,659,0,0
21,365,0,0,0,0,0,0,0,0,0,-1,1245,659,0,0
28,365,0,0,0,0,0,0,0,0,0,-1,1252,659,0,0
35,365,0,0,0,0,0,0,0,0,0,-1,1259,659,0,0
42,365,0,0,0,0,0,0,0,0,0,-1,1266,659,0,0
49,365,0,0,0,0,0,0,0,0,0,-1,1273,659,0,0
56,365,0,0,0,0,0,0,0,0,0,-1,1280,659,0,0
63,365,0,0,0,0,0,0,0,0,0,-1,1287,659,0,0
70,365,0,0,0,0,0,0,0,0,0,-1,1294,659,0,0
77,365,0,0,0,0,0,0,0,0,0,-1,1301,659,0,0
84,365,0,0,0,0,0,0,0,0,0,-1,1308,659,0,0
91,365,0,0,0,0,0,0,0,0,0,-1,1315,659,0,0
98,365,0,0,0,0,0,0,0,0,0,-1,1322,659,0,0
105,365,0,0,0,0,0,0,0,0,0,-1,1329,659,0,0
112,365,0,0,0,0,0,0,0,0,0,-1,1336,659,0,0
119,365,0,0,0,0,0,0,0,0,0,-1,1343,659,0,0
126,365,0,0,0,0,0,0,0,0,0,-1,1350,659,0,0
133,365,0,0,0,0,0,0,0,0,0,-1,1357,659,0,0
140,365,0,0,0,0,0,0,0,0,0,-1,1364,659,0,0
147,365,0,0,0,0,0,0,0,0,0,-1,1371,659,0,0
154,365,0,0,0,0,0,0,0,0,0,-1,1378,659,0,0
161,365,0,0,0,0,0,0,0,0,0,-1,1385,659,0,0
168,365,0,0,0,0,0,0,0,0,0,-1,1392,659,0,0
175,365,0,0,0,0,0,0,0,0,0,-1,1399,659,0,0
182,365,0,0,0,0,0,0,0,0,0,-1,1406,659,0,0
189,365,0,0,0,0,0,0,0,0,0,-1,1413,659,0,0
196,365,0,0,0,0,0,0,0,0,0,-1,1420,659,0,0
203,365,0,0,0,0,0,0,0,0,0,-1,1427,659,0,0
210,365,0,0,0,0,0,0,0,0,0,-1,1434,659,0,0
217,365,0,0,0,0,0,0,0,0,0,-1,1441,659,0,0
224,365,0,0,0,0,0,0,0,0,0,-1,1448,659,0,0
231,365,0,0,0,0,0,0,0,0,0,-1,1455,659,0,0
238,365,0,0,0,0,0,0,0,0,0,-1,1462,659,0,0
245,365,0,0,0,0,0,0,0,0,0,-1,1469,659,0,0
252,365,0,0,0,0,0,0,0,0,0,-1,1476,659,0,0
259,365,0,0,0,0,0,0,0,0,0,-1,1483,659,0,0
266,365,0,0,0,0,0,0,0,0,0,-1,1490,659,0,0
273,365,0,0,0,0,0,0,0,0,0,-1,1497,659,0,0
280,365,0,0,0,0,0,0,0,0,0,-1,1504,659,0,0
287,365,0,0,0,0,0,0,0,0,0,-1,1511,659,0,0
294,365,0,0,0,0,0,0,0,0,0,-1,1518,659,0,0
301,365,0,0,0,0,0,0,0,0,0,-1,1525,659,0,0
308,365,0,0,0,0,0,0,0,0,0,-1,1532,659,0,0
315,365,0,0,0,0,0,0,0,0,0,-1,1539,659,0,0
322,365,0,0,0,0,0,0,0,0,0,-1,1546,659,0,0
329,365,0,0,0,0,0,0,0,0,0,-1,1553,659,0,0
336,365,0,0,0,0,0,0,0,0,0,-1,1560,659,0,0
343,365,0,0,0,0,0,0,0,0,0,-1,1567,659,0,0
350,365,0,0,0,0,0,0,0,0,0,-1,1574,659,0,0
357,365,0,0,0,0,0,0,0,0,0,-1,1581,659,0,0
364,365,0,0,0,0,0,0,0,0,0,-1,1588,659,0,0
371,365,0,0,0,0,0,0,0,0,0,-1,1595,659,0,0
378,365,0,0,0,0,0,0,0,0,0,-1,1602,659,0,0
385,365,0,0,0,0,0,0,0,0,0,-1,1609,659,0,0
392,365,0,0,0,0,0,0,0,0,0,-1,1616,659,0,0
399,365,0,0,0,0,0,0,0,0,0,-1,1623,659,0,0
406,365,0,0,0,0,0,0,0,0,0,-1,1630,659,0,0
413,365,0,0,0,0,0,0,0,0,0,-1,1637,659,0,0
420,365,0,0,0,0,0,0,0,0,0,-1,1644,659,0,0
427,365,0,0,0,0,0,0,0,0,0,-1,1651,659,0,0
434,365,0,0,0,0,0,0,0,0,0,-1,1658,659,0,0
441,365,0,0,0,0,0,0,0,0,0,-1,1665,659,0,0
448,365,0,0,0,0,0,0,0,0,0,-1,1672,659,0,0
455,365,0,0,0,0,0,0,0,0,0,-1,1679,659,0,0
462,365,0,0,0,0,0,0,0,0,0,-1,1686,659,0,0
469,365,0,0,0,0,0,0,0,0,0,-1,1693,659,0,0
476,365,0,0,0,0,0,0,0,0,0,-1,1700,659,0,0
483,365,0,0,0,0,0,0,0,0,0,-1,1707,659,0,0
490,365,8.39551,0.471252,0,0,0,0,0,0,0,-1,1714,659,8.39551,-0.471241
497,365,9.89233,1.35394,0,0,0,0,0,0,0,-1,1721,659,9.89237,-1.35396
504,365,10.1414,1.18005,0,0,0,0,0,0,0,-1,1728,659,10.1413,-1.18004
511,365,10.5151,0.993896,0,0,0,0,0,0,0,-1,1735,659,10.5152,-0.993894
518,365,11.2029,0.398132,0,0,0,0,0,0,0,-1,1742,659,11.2029,-0.398136
525,365,15.5748,3.85303,0,0,0,0,0,0,0,-1,1749,659,15.5748,-3.85303
532,365,11.2446,1.00629,0,0,0,0,0,0,0,-1,1756,659,11.2446,-1.00631
539,365,12.6301,1.03204,0,0,0,0,0,0,0,-1,1763,659,12.6302,-1.03204
546,365,11.647,0.84198,0,0,0,0,0,0,0,-1,1770,659,11.6469,-0.841955
553,365,12.028,-0.558899,0,0,0,0,0,0,0,-1,1777,659,12.028,0.558873
560,365,14.5372,-4.55548,0,0,0,0,0,0,0,-1,1784,659,14.5373,4.55547
567,365,14.786,-4.40466,0,0,0,0,0,0,0,-1,1791,659,14.786,4.40468
574,365,14.7809,-3.95123,0,0,0,0,0,0,0,-1,1798,659,14.7809,3.95123
581,365,14.6617,-3.67883,-9.46338e-05,0.000554548,-0.000818954,0.00111089,-0.000650977,-0.974075,0.0010287,0.0319516,1805,659,14.6617,3.67884
588,365,14.6249,-3.27319,0.000339025,0.000552154,-0.000407304,0.000866603,2.45758e-05,-0.913347,0.00056972,0.0136412,1812,659,14.6248,3.27318
595,365,14.6528,-2.85077,0.000640802,0.000601558,-0.000100062,0.000723148,0.000519212,-0.688578,0.000430533,0.0124701,1819,659,14.6528,2.8508
602,365,14.6405,-2.47498,0.000996892,0.000759233,0.000254426,0.00115887,0.000597254,0.566928,0.000669179,0.0147354,1826,659,14.6405,2.475
609,365,14.6014,-2.1145,0.00112255,0.000997909,0.000532961,0.00159682,0.000523638,0.727195,0.000939949,0.0152342,1833,659,14.6014,2.11448
616,365,14.6283,-1.7608,0.00116254,0.00112562,0.000667935,0.00181227,0.000475885,0.771583,0.00108492,0.0163715,1840,659,14.6283,1.76078
623,365,14.6581,-1.37848,0.00102926,0.00121486,0.000610694,0.00173976,0.000504355,0.860797,0.00103359,0.0117578,1847,659,14.6581,1.37848
630,365,14.6119,-1.01166,0.000751109,0.000916064,0.000321766,0.00116576,0.000501418,0.910861,0.000675237,0.0158516,1854,659,14.6119,1.01164
637,365,14.5957,-0.676758,0.000442229,0.000503586,-0.000218837,0.000693885,0.000251931,-0.855039,0.000405591,0.020933,1861,659,14.5957,0.676733
644,365,14.6244,-0.297974,-0.000109428,-0.000189241,-0.00101936,0.000870805,-0.00116947,-0.765834,0.00118216,0.0157953,1868,659,14.6244,0.297945
651,365,14.7809,0.14917,-0.000818916,-0.00131984,-0.00225629,0.00120077,-0.00333953,-0.730122,0.00271656,0.0347469,1875,659,14.7809,-0.14919
658,365,14.1052,0.319946,0,0,0,0,0,0,0,-1,1882,659,14.1052,-0.319932
665,365,13.1493,0.771606,0,0,0,0,0,0,0,-1,1889,659,13.1493,-0.771602
672,365,10.0579,2.15088,0,0,0,0,0,0,0,-1,1896,659,10.0579,-2.15088
679,365,10.9718,2.19208,0,0,0,0,0,0,0,-1,1903,659,10.9718,-2.19211
686,365,12.2134,2.17108,0,0,0,0,0,0,0,-1,1910,659,12.2134,-2.17109
693,365,13.7141,1.98279,0,0,0,0,0,0,0,-1,1917,659,13.7141,-1.98278
700,365,0,0,0,0,0,0,0,0,0,-1,1924,659,0,0
707,365,0,0,0,0,0,0,0,0,0,-1,1931,659,0,0
714,365,0,0,0,0,0,0,0,0,0,-1,1938,659,0,0
721,365,0,0,0,0,0,0,0,0,0,-1,1945,659,0,0
728,365,0,0,0,0,0,0,0,0,0,-1,1952,659,0,0
735,365,0,0,0,0,0,0,0,0,0,-1,1959,659,0,0
742,365,0,0,0,0,0,0,0,0,0,-1,1966,659,0,0
749,365,0,0,0,0,0,0,0,0,0,-1,1973,659,0,0
756,365,0,0,0,0,0,0,0,0,0,-1,1980,659,0,0
763,365,0,0,0,0,0,0,0,0,0,-1,1987,659,0,0
770,365,0,0,0,0,0,0,0,0,0,-1,1994,659,0,0
777,365,0,0,0,0,0,0,0,0,0,-1,2001,659,0,0
784,365,0,0,0,0,0,0,0,0,0,-1,2008,659,0,0
791,365,0,0,0,0,0,0,0,0,0,-1,2015,659,0,0
798,365,0,0,0,0,0,0,0,0,0,-1,2022,659,0,0
805,365,0,0,0,0,0,0,0,0,0,-1,2029,659,0,0
812,365,0,0,0,0,0,0,0,0,0,-1,2036,659,0,0
-700,358,0,0,0,0,0,0,0,0,0,-1,524,666,0,0
-693,358,0,0,0,0,0,0,0,0,0,-1,531,666,0,0
-686,358,0,0,0,0,0,0,0,0,0,-1,538,666,0,0
-679,358,0,0,0,0,0,0,0,0,0,-1,545,666,0,0
-672,358,0,0,0,0,0,0,0,0,0,-1,552,666,0,0
-665,358,0,0,0,0,0,0,0,0,0,-1,559,666,0,0
-658,358,0,0,0,0,0,0,0,0,0,-1,566,666,0,0
-651,358,0,0,0,0,0,0,0,0,0,-1,573,666,0,0
-644,358,0,0,0,0,0,0,0,0,0,-1,580,666,0,0
-637,358,0,0,0,0,0,0,0,0,0,-1,587,666,0,0
-630,358,0,0,0,0,0,0,0,0,0,-1,594,666,0,0
-623,358,0,0,0,0,0,0,0,0,0,-1,601,666,0,0
-616,358,0,0,0,0,0,0,0,0,0,-1,608,666,0,0
-609,358,0,0,0,0,0,0,0,0,0,-1,615,666,0,0
-602,358,0,0,0,0,0,0,0,0,0,-1,622,666,0,0
-595,358,0,0,0,0,0,0,0,0,0,-1,629,666,0,0
-588,358,0,0,0,0,0,0,0,0,0,-1,636,666,0,0
-581,358,-8.31616,1.61993,0,0,0,0,0,0,0,-1,643,666,-8.31614,-1.61993
-574,358,-8.22406,1.75385,0,0,0,0,0,0,0,-1,650,666,-8.22408,-1.75383
-567,358,-8.14215,1.91577,0,0,0,0,0,0,0,-1,657,666,-8.14214,-1.91579
-560,358,-6.117,1.40564,0,0,0,0,0,0,0,-1,664,666,-6.11702,-1.40564
-553,358,-7.97766,1.43567,0,0,0,0,0,0,0,-1,671,666,-7.97766,-1.43567
-546,358,-7.4411,0.173096,0,0,0,0,0,0,0,-1,678,666,-7.4411,-0.17307
-539,358,-8.68262,1.04358,0,0,0,0,0,0,0,-1,685,666,-8.68262,-1.04356
-532,358,-8.13501,-0.641418,0.0138453,0.0248071,-0.0161186,0.0363512,0.00230122,-0.949283,0.0235047,0.0476085,692,666,-8.13502,0.641391
-525,358,-7.68286,-1.90576,0.00995575,0.0182031,-0.0117624,0.0265438,0.00161508,-0.953994,0.0171828,0.0396794,699,666,-7.68285,1.90578
-518,358,-7.79224,-2.20764,0,0,0,0,0,0,0,-1,706,666,-7.79224,2.20765
-511,358,-7.78271,-2.5329,0.00472599,0.00878116,-0.00555512,0.0126672,0.000839996,-0.960383,0.00817916,0.0159503,713,666,-7.78274,2.53289
-504,358,-7.7818,-2.86292,0.00317747,0.00571529,-0.00357228,0.00823733,0.000655423,-0.956053,0.00528664,0.0116412,720,666,-7.78182,2.8629
-497,358,-7.7774,-3.2193,0.00206453,0.00321116,-0.00206115,0.00477724,0.000498446,-0.921046,0.00303237,0.0109491,727,666,-7.7774,3.21932
-490,358,-7.77258,-3.56567,0.00157523,0.00186564,-0.00135358,0.00308178,0.000359095,-0.83883,0.0019459,0.0106817,734,666,-7.7726,3.56569
-483,358,-7.79156,-3.90521,0.00165047,0.00124001,-0.00109704,0.00256131,0.000329166,-0.69293,0.00160908,0.0100694,741,666,-7.79159,3.90523
-476,358,-7.7887,-4.23077,0.00202258,0.00113314,-0.00124669,0.0029015,0.000254222,-0.614073,0.0018554,0.0107751,748,666,-7.78868,4.23077
-469,358,-7.80481,-4.57733,0.0027773,0.00154634,-0.00187553,0.00413575,0.00018788,-0.626853,0.00269672,0.0137247,755,666,-7.8048,4.57735
-462,358,-7.82538,-4.94434,0.00361755,0.00226171,-0.00261841,0.00564438,0.000234878,-0.658727,0.00368712,0.0169052,762,666,-7.82539,4.94435
-455,358,-7.76477,-5.31317,0.00409168,0.00333218,-0.0030979,0.00683302,0.000590845,-0.72441,0.00437173,0.027143,769,666,-7.76479,5.31318
-448,358,-7.58966,-5.85474,0,0,0,0,0,0,0,-1,776,666,-7.58964,5.85472
-441,358,-5.56293,-3.98041,0,0,0,0,0,0,0,-1,783,666,-5.56291,3.98043
-434,358,-5.21558,-4.43127,0,0,0,0,0,0,0,-1,790,666,-5.21559,4.43125
-427,358,-3.56189,-3.15729,0,0,0,0,0,0,0,-1,797,666,-3.56192,3.15729
-420,358,0.200195,1.08234,0,0,0,0,0,0,0,-1,804,666,0.200174,-1.08231
-413,358,0.0325317,0.161072,0,0,0,0,0,0,0,-1,811,666,0.0325501,-0.161098
-406,358,-3.85846,0.753113,0,0,0,0,0,0,0,-1,818,666,-3.85846,-0.753129
-399,358,-1.31213,0.190735,0,0,0,0,0,0,0,-1,825,666,-1.31215,-0.190763
-392,358,-3.73914,-0.832214,0,0,0,0,0,0,0,-1,832,666,-3.73915,0.832202
-385,358,-5.95178,-1.69141,0,0,0,0,0,0,0,-1,839,666,-5.9518,1.69143
-378,358,0,0,0,0,0,0,0,0,0,-1,846,666,0,0
-371,358,0,0,0,0,0,0,0,0,0,-1,853,666,0,0
-364,358,0,0,0,0,0,0,0,0,0,-1,860,666,0,0
-357,358,0,0,0,0,0,0,0,0,0,-1,867,666,0,0
-350,358,0,0,0,0,0,0,0,0,0,-1,874,666,0,0
-343,358,0,0,0,0,0,0,0,0,0,-1,881,666,0,0
-336,358,0,0,0,0,0,0,0,0,0,-1,888,666,0,0
-329,358,0,0,0,0,0,0,0,0,0,-1,895,666,0,0
-322,358,0,0,0,0,0,0,0,0,0,-1,902,666,0,0
-315,358,0,0,0,0,0,0,0,0,0,-1,909,666,0,0
-308,358,0,0,0,0,0,0,0,0,0,-1,916,666,0,0
-301,358,0,0,0,0,0,0,0,0,0,-1,923,666,0,0
-294,358,0,0,0,0,0,0,0,0,0,-1,930,666,0,0
-287,358,0,0,0,0,0,0,0,0,0,-1,937,666,0,0
-280,358,0,0,0,0,0,0,0,0,0,-1,944,666,0,0
-273,358,0,0,0,0,0,0,0,0,0,-1,951,666,0,0
-266,358,0,0,0,0,0,0,0,0,0,-1,958,666,0,0
-259,358,0,0,0,0,0,0,0,0,0,-1,965,666,0,0
-252,358,0,0,0,0,0,0,0,0,0,-1,972,666,0,0
-245,358,0,0,0,0,0,0,0,0,0,-1,979,666,0,0
-238,358,0,0,0,0,0,0,0,0,0,-1,986,666,0,0
-231,358,0,0,0,0,0,0,0,0,0,-1,993,666,0,0
-224,358,0,0,0,0,0,0,0,0,0,-1,1000,666,0,0
-217,358,0,0,0,0,0,0,0,0,0,-1,1007,666,0,0
-210,358,0,0,0,0,0,0,0,0,0,-1,1014,666,0,0
-203,358,0,0,0,0,0,0,0,0,0,-1,1021,666,0,0
-196,358,0,0,0,0,0,0,0,0,0,-1,1028,666,0,0
-189,358,0,0,0,0,0,0,0,0,0,-1,1035,666,0,0
-182,358,0,0,0,0,0,0,0,0,0,-1,1042,666,0,0
-175,358,0,0,0,0,0,0,0,0,0,-1,1049,666,0,0
-168,358,0,0,0,0,0,0,0,0,0,-1,1056,666,0,0
-161,358,0,0,0,0,0,0,0,0,0,-1,1063,666,0,0
-154,358,0,0,0,0,0,0,0,0,0,-1,1070,666,0,0
-147,358,0,0,0,0,0,0,0,0,0,-1,1077,666,0,0
-140,358,0,0,0,0,0,0,0,0,0,-1,1084,666,0,0
-133,358,0,0,0,0,0,0,0,0,0,-1,1091,666,0,0
-126,358,0,0,0,0,0,0,0,0,0,-1,1098,666,0,0
-119,358,0,0,0,0,0,0,0,0,0,-1,1105,666,0,0
-112,358,0,0,0,0,0,0,0,0,0,-1,1112,666,0,0
-105,358,0,0,0,0,0,0,0,0,0,-1,1119,666,0,0
-98,358,0,0,0,0,0,0,0,0,0,-1,1126,666,0,0
-91,358,0,0,0,0,0,0,0,0,0,-1,1133,666,0,0
-84,358,0,0,0,0,0,0,0,0,0,-1,1140,666,0,0
-77,358,0,0,0,0,0,0,0,0,0,-1,1147,666,0,0
-70,358,0,0,0,0,0,0,0,0,0,-1,1154,666,0,0
-63,358,0,0,0,0,0,0,0,0,0,-1,1161,666,0,0
-56,358,0,0,0,0,0,0,0,0,0,-1,1168,666,0,0
-49,358,0,0,0,0,0,0,0,0,0,-1,1175,666,0,0
-42,358,0,0,0,0,0,0,0,0,0,-1,1182,666,0,0
-35,358,0,0,0,0,0,0,0,0,0,-1,1189,666,0,0
-28,358,0,0,0,0,0,0,0,0,0,-1,1196,666,0,0
-21,358,0,0,0,0,0,0,0,0,0,-1,1203,666,0,0
-14,358,0,0,0,0,0,0,0,0,0,-1,1210,666,0,0
-7,358,0,0,0,0,0,0,0,0,0,-1,1217,666,0,0
0,358,0,0,0,0,0,0,0,0,0,-1,1224,666,0,0
7,358,0,0,0,0,0,0,0,0,0,-1,1231,666,0,0
14,358,0,0,0,0,0,0,0,0,0,-1,1238,666,0,0
21,358,0,0,0,0,0,0,0,0,0,-1,1245,666,0,0
28,358,0,0,0,0,0,0,0,0,0,-1,1252,666,0,0
35,358,0,0,0,0,0,0,0,0,0,-1,1259,666,0,0
42,358,0,0,0,0,0,0,0,0,0,-1,1266,666,0,0
49,358,0,0,0,0,0,0,0,0,0,-1,1273,666,0,0
56,358,0,0,0,0,0,0,0,0,0,-1,1280,666,0,0
63,358,0,0,0,0,0,0,0,0,0,-1,1287,666,0,0
70,358,0,0,0,0,0,0,0,0,0,-1,1294,666,0,0
77,358,0,0,0,0,0,0,0,0,0,-1,1301,666,0,0
84,358,0,0,0,0,0,0,0,0,0,-1,1308,666,0,0
91,358,0,0,0,0,0,0,0,0,0,-1,1315,666,0,0
98,358,0,0,0,0,0,0,0,0,0,-1,1322,666,0,0
105,358,0,0,0,0,0,0,0,0,0,-1,1329,666,0,0
112,358,0,0,0,0,0,0,0,0,0,-1,1336,666,0,0
119,358,0,0,0,0,0,0,0,0,0,-1,1343,666,0,0
126,358,0,0,0,0,0,0,0,0,0,-1,1350,666,0,0
133,358,0,0,0,0,0,0,0,0,0,-1,1357,666,0,0
140,358,0,0,0,0,0,0,0,0,0,-1,1364,666,0,0
147,358,0,0,0,0,0,0,0,0,0,-1,1371,666,0,0
154,358,0,0,0,0,0,0,0,0,0,-1,1378,666,0,0
161,358,0,0,0,0,0,0,0,0,0,-1,1385,666,0,0
168,358,0,0,0,0,0,0,0,0,0,-1,1392,666,0,0
175,358,0,0,0,0,0,0,0,0,0,-1,1399,666,0,0
182,358,0,0,0,0,0,0,0,0,0,-1,1406,666,0,0
189,358,0,0,0,0,0,0,0,0,0,-1,1413,666,0,0
196,358,0,0,0,0,0,0,0,0,0,-1,1420,666,0,0
203,358,0,0,0,0,0,0,0,0,0,-1,1427,666,0,0
210,358,0,0,0,0,0,0,0,0,0,-1,1434,666,0,0
217,358,0,0,0,0,0,0,0,0,0,-1,1441,666,0,0
224,358,0,0,0,0,0,0,0,0,0,-1,1448,666,0,0
231,358,0,0,0,0,0,0,0,0,0,-1,1455,666,0,0
238,358,0,0,0,0,0,0,0,0,0,-1,1462,666,0,0
245,358,0,0,0,0,0,0,0,0,0,-1,1469,666,0,0
252,358,0,0,0,0,0,0,0,0,0,-1,1476,666,0,0
259,358,0,0,0,0,0,0,0,0,0,-1,1483,666,0,0
266,358,0,0,0,0,0,0,0,0,0,-1,1490,666,0,0
273,358,0,0,0,0,0,0,0,0,0,-1,1497,666,0,0
280,358,0,0,0,0,0,0,0,0,0,-1,1504,666,0,0
287,358,0,0,0,0,0,0,0,0,0,-1,1511,666,0,0
294,358,0,0,0,0,0,0,0,0,0,-1,1518,666,0,0
301,358,0,0,0,0,0,0,0,0,0,-1,1525,666,0,0
308,358,0,0,0,0,0,0,0,0,0,-1,1532,666,0,0
315,358,0,0,0,0,0,0,0,0,0,-1,1539,666,0,0
322,358,0,0,0,0,0,0,0,0,0,-1,1546,666,0,0
329,358,0,0,0,0,0,0,0,0,0,-1,1553,666,0,0
336,358,0,0,0,0,0,0,0,0,0,-1,1560,666,0,0
343,358,0,0,0,0,0,0,0,0,0,-1,1567,666,0,0
350,358,0,0,0,0,0,0,0,0,0,-1,1574,666,0,0
357,358,0,0,0,0,0,0,0,0,0,-1,1581,666,0,0
364,358,0,0,0,0,0,0,0,0,0,-1,1588,666,0,0
371,358,0,0,0,0,0,0,0,0,0,-1,1595,666,0,0
378,358,0,0,0,0,0,0,0,0,0,-1,1602,666,0,0
385,358,0,0,0,0,0,0,0,0,0,-1,1609,666,0,0
392,358,0,0,0,0,0,0,0,0,0,-1,1616,666,0,0
399,358,0,0,0,0,0,0,0,0,0,-1,1623,666,0,0
406,358,0,0,0,0,0,0,0,0,0,-1,1630,666,0,0
413,358,0,0,0,0,0,0,0,0,0,-1,1637,666,0,0
420,358,0,0,0,0,0,0,0,0,0,-1,1644,666,0,0
427,358,0,0,0,0,0,0,0,0,0,-1,1651,666,0,0
434,358,0,0,0,0,0,0,0,0,0,-1,1658,666,0,0
441,358,0,0,0,0,0,0,0,0,0,-1,1665,666,0,0
448,358,0,0,0,0,0,0,0,0,0,-1,1672,666,0,0
455,358,0,0,0,0,0,0,0,0,0,-1,1679,666,0,0
462,358,0,0,0,0,0,0,0,0,0,-1,1686,666,0,0
469,358,0,0,0,0,0,0,0,0,0,-1,1693,666,0,0
476,358,0,0,0,0,0,0,0,0,0,-1,1700,666,0,0
483,358,0,0,0,0,0,0,0,0,0,-1,1707,666,0,0
490,358,0,0,0,0,0,0,0,0,0,-1,1714,666,0,0
497,358,8.57239,1.1322,0,0,0,0,0,0,0,-1,1721,666,8.57234,-1.13219
504,358,10.5972,0.832947,0,0,0,0,0,0,0,-1,1728,666,10.5972,-0.832968
511,358,10.6873,0.868469,0,0,0,0,0,0,0,-1,1735,666,10.6872,-0.868484
518,358,16.5884,2.34894,0,0,0,0,0,0,0,-1,1742,666,16.5884,-2.34894
525,358,15.7626,3.65344,0,0,0,0,0,0,0,-1,1749,666,15.7626,-3.65342
532,358,14.9368,4.95789,0,0,0,0,0,0,0,-1,1756,666,14.9367,-4.9579
539,358,15.1597,3.42694,0,0,0,0,0,0,0,-1,1763,666,15.1597,-3.42692
546,358,12.3792,1.53558,0,0,0,0,0,0,0,-1,1770,666,12.3792,-1.5356
553,358,11.6584,1.26172,0,0,0,0,0,0,0,-1,1777,666,11.6585,-1.26175
560,358,10.8234,1.43042,0,0,0,0,0,0,0,-1,1784,666,10.8233,-1.43041
567,358,10.1333,-0.955139,0,0,0,0,0,0,0,-1,1791,666,10.1333,0.955132
574,358,14.7886,-2.69293,0,0,0,0,0,0,0,-1,1798,666,14.7885,2.6929
581,358,14.8848,-3.69672,0,0,0,0,0,0,0,-1,1805,666,14.8847,3.69672
588,358,14.9319,-3.29376,0.000502019,0.000621497,-0.000406468,0.000972592,0.000150923,-0.858361,0.000604401,0.0256213,1812,666,14.9319,3.29376
595,358,15.0203,-2.84009,0.000726975,0.000576824,-0.000135501,0.000806808,0.00049699,-0.532422,0.000469971,0.0125355,1819,666,15.0203,2.84009
602,358,15.0068,-2.45013,0.00102646,0.000632429,0.000144488,0.00107377,0.000585125,0.316389,0.000620774,0.012317,1826,666,15.0068,2.45012
609,358,14.9614,-2.12579,0.00118699,0.000804158,0.000405323,0.00144382,0.000547324,0.564797,0.000841676,0.0155965,1833,666,14.9614,2.12579
616,358,14.9717,-1.75415,0.00121613,0.000867092,0.000519747,0.00158987,0.000493347,0.623424,0.000939677,0.0150273,1840,666,14.9716,1.75417
623,358,15.0046,-1.37634,0.00098157,0.000858792,0.000396848,0.00132175,0.000518612,0.708661,0.000768983,0.0139845,1847,666,15.0047,1.37636
630,358,14.9769,-1.03326,0.000599323,0.000474252,2.71167e-05,0.000604949,0.000468626,0.204575,0.000366411,0.0176474,1854,666,14.977,1.03327
637,358,14.9615,-0.669861,0.000198937,-7.21007e-05,-0.000599547,0.00067809,-0.000551254,-0.674248,0.00071102,0.024713,1861,666,14.9616,0.669834
644,358,14.9727,-0.314209,-0.000499018,-0.000819055,-0.00148823,0.000837767,-0.00215584,-0.731842,0.00178333,0.0203928,1868,666,14.9726,0.314202
651,358,15.0723,0.11554,-0.0012822,-0.0019735,-0.00275086,0.00114465,-0.00440034,-0.7229,0.00338034,0.023895,1875,666,15.0722,-0.115552
658,358,14.7535,0.375671,-0.00224195,-0.00372321,-0.00460504,0.00168164,-0.00764679,-0.705666,0.0057411,0.0423504,1882,666,14.7535,-0.375652
665,358,14.1941,0.581543,0,0,0,0,0,0,0,-1,1889,666,14.194,-0.58157
672,358,12.4299,1.47272,0,0,0,0,0,0,0,-1,1896,666,12.4299,-1.4727
679,358,12.1294,2.19702,0,0,0,0,0,0,0,-1,1903,666,12.1294,-2.19703
686,358,11.9557,2.2002,0,0,0,0,0,0,0,-1,1910,666,11.9557,-2.20021
693,358,13.188,2.52203,0,0,0,0,0,0,0,-1,1917,666,13.188,-2.52202
700,358,0,0,0,0,0,0,0,0,0,-1,1924,666,0,0
707,358,0,0,0,0,0,0,0,0,0,-1,1931,666,0,0
714,358,0,0,0,0,0,0,0,0,0,-1,1938,666,0,0
721,358,0,0,0,0,0,0,0,0,0,-1,1945,666,0,0
728,358,0,0,0,0,0,0,0,0,0,-1,1952,666,0,0
735,358,0,0,0,0,0,0,0,0,0,-1,1959,666,0,0
742,358,0,0,0,0,0,0,0,0,0,-1,1966,666,0,0
749,358,0,0,0,0,0,0,0,0,0,-1,1973,666,0,0
756,358,0,0,0,0,0,0,0,0,0,-1,1980,666,0,0
763,358,0,0,0,0,0,0,0,0,0,-1,1987,666,0,0
770,358,0,0,0,0,0,0,0,0,0,-1,1994,666,0,0
777,358,0,0,0,0,0,0,0,0,0,-1,2001,666,0,0
784,358,0,0,0,0,0,0,0,0,0,-1,2008,666,0,0
791,358,0,0,0,0,0,0,0,0,0,-1,2015,666,0,0
798,358,0,0,0,0,0,0,0,0,0,-1,2022,666,0,0
805,358,0,0,0,0,0,0,0,0,0,-1,2029,666,0,0
812,358,0,0,0,0,0,0,0,0,0,-1,2036,666,0,0
-700,351,0,0,0,0,0,0,0,0,0,-1,524,673,0,0
-693,351,0,0,0,0,0,0,0,0,0,-1,531,673,0,0
-686,351,0,0,0,0,0,0,0,0,0,-1,538,673,0,0
-679,351,0,0,0,0,0,0,0,0,0,-1,545,673,0,0
-672,351,0,0,0,0,0,0,0,0,0,-1,552,673,0,0
-665,351,0,0,0,0,0,0,0,0,0,-1,559,673,0,0
-658,351,0,0,0,0,0,0,0,0,0,-1,566,673,0,0
-651,351,0,0,0,0,0,0,0,0,0,-1,573,673,0,0
-644,351,0,0,0,0,0,0,0,0,0,-1,580,673,0,0
-637,351,0,0,0,0,0,0,0,0,0,-1,587,673,0,0
-630,351,0,0,0,0,0,0,0,0,0,-1,594,673,0,0
-623,351,0,0,0,0,0,0,0,0,0,-1,601,673,0,0
-616,351,0,0,0,0,0,0,0,0,0,-1,608,673,0,0
-609,351,0,0,0,0,0,0,0,0,0,-1,615,673,0,0
-602,351,0,0,0,0,0,0,0,0,0,-1,622,673,0,0
-595,351,0,0,0,0,0,0,0,0,0,-1,629,673,0,0
-588,351,0,0,0,0,0,0,0,0,0,-1,636,673,0,0
-581,351,-9.0647,1.71906,0,0,0,0,0,0,0,-1,643,673,-9.06472,-1.71908
-574,351,-8.23584,2.64764,0,0,0,0,0,0,0,-1,650,673,-8.23584,-2.64764
-567,351,-6.17303,1.88818,0,0,0,0,0,0,0,-1,657,673,-6.17304,-1.88818
-560,351,-9.10345,1.42603,0,0,0,0,0,0,0,-1,664,673,-9.10342,-1.42602
-553,351,-8.54102,0.648682,0.0256775,0.0460909,-0.0286761,0.0663226,0.00544582,-0.956373,0.0425162,0.0453461,671,673,-8.54103,-0.64869
-546,351,-8.11871,-0.0482788,0.0198561,0.03646,-0.0230498,0.0526573,0.00365878,-0.958253,0.0339511,0.0477572,678,673,-8.11871,0.0482707
-539,351,-7.67969,-0.554749,0,0,0,0,0,0,0,-1,685,673,-7.67968,0.554775
-532,351,-8.052,-1.37897,0.0112671,0.0215196,-0.013763,0.03108,0.00170671,-0.963671,0.0201752,0.0379526,692,673,-8.05198,1.37895
-525,351,-8.07233,-1.92004,0.00820542,0.0158657,-0.0101554,0.0228892,0.00118193,-0.965728,0.0148812,0.0289212,699,673,-8.07231,1.92007
-518,351,-8.12964,-2.14728,0.00578931,0.0112533,-0.0071865,0.0162096,0.000833026,-0.96704,0.0105397,0.0139199,706,673,-8.12961,2.14729
-511,351,-8.12415,-2.50745,0.00397724,0.00764645,-0.00485716,0.0110039,0.000619765,-0.965971,0.00713834,0.0115074,713,673,-8.12412,2.50747
-504,351,-8.14417,-2.85999,0.00273537,0.00491886,-0.00312805,0.00714021,0.000514022,-0.953298,0.00459839,0.0105204,720,673,-8.14416,2.85998
-497,351,-8.13556,-3.19421,0.00186883,0.00267851,-0.00180372,0.00412227,0.000425076,-0.895792,0.00261802,0.0103105,727,673,-8.13556,3.19423
-490,351,-8.13135,-3.5318,0.00155857,0.00150904,-0.00119031,0.00272438,0.000343235,-0.774996,0.00171334,0.0100918,734,673,-8.13133,3.53178
-483,351,-8.1416,-3.87195,0.00173629,0.00101471,-0.000996422,0.00243523,0.000315774,-0.611698,0.00152914,0.0117911,741,673,-8.14159,3.87195
-476,351,-8.16425,-4.22614,0.00230807,0.00121073,-0.0013655,0.00323101,0.000287791,-0.594366,0.00206477,0.0107244,748,673,-8.16423,4.22616
-469,351,-8.16187,-4.56152,0.0033068,0.00172281,-0.00215827,0.0048138,0.000215808,-0.609547,0.00313974,0.0127633,755,673,-8.16184,4.5615
-462,351,-8.12836,-4.92499,0.004372,0.00266645,-0.00301599,0.00665346,0.00038499,-0.647619,0.00431304,0.0207409,762,673,-8.12838,4.92496
-455,351,-8.09369,-5.32806,0,0,0,0,0,0,0,-1,769,673,-8.09371,5.32804
-448,351,-6.61456,-4.38654,0,0,0,0,0,0,0,-1,776,673,-6.61456,4.38654
-441,351,-4.31567,-2.3009,0,0,0,0,0,0,0,-1,783,673,-4.31565,2.30089
-434,351,-3.81708,-2.28003,0,0,0,0,0,0,0,-1,790,673,-3.81706,2.28006
-427,351,-2.05157,-2.7785,0,0,0,0,0,0,0,-1,797,673,-2.05157,2.77848
-420,351,-1.06989,-2.43665,0,0,0,0,0,0,0,-1,804,673,-1.06991,2.43663
-413,351,-0.392334,-2.06671,0,0,0,0,0,0,0,-1,811,673,-0.392363,2.06672
-406,351,-1.86316,-2.58105,0,0,0,0,0,0,0,-1,818,673,-1.86313,2.58106
-399,351,1.00952,-1.53455,0,0,0,0,0,0,0,-1,825,673,1.00954,1.53457
-392,351,-1.02197,0.877136,0,0,0,0,0,0,0,-1,832,673,-1.02195,-0.877143
-385,351,-1.47205,1.04437,0,0,0,0,0,0,0,-1,839,673,-1.47207,-1.04435
-378,351,0,0,0,0,0,0,0,0,0,-1,846,673,0,0
-371,351,0,0,0,0,0,0,0,0,0,-1,853,673,0,0
-364,351,0,0,0,0,0,0,0,0,0,-1,860,673,0,0
-357,351,0,0,0,0,0,0,0,0,0,-1,867,673,0,0
-350,351,0,0,0,0,0,0,0,0,0,-1,874,673,0,0
-343,351,0,0,0,0,0,0,0,0,0,-1,881,673,0,0
-336,351,0,0,0,0,0,0,0,0,0,-1,888,673,0,0
-329,351,0,0,0,0,0,0,0,0,0,-1,895,673,0,0
-322,351,0,0,0,0,0,0,0,0,0,-1,902,673,0,0
-315,351,0,0,0,0,0,0,0,0,0,-1,909,673,0,0
-308,351,0,0,0,0,0,0,0,0,0,-1,916,673,0,0
-301,351,0,0,0,0,0,0,0,0,0,-1,923,673,0,0
-294,351,0,0,0,0,0,0,0,0,0,-1,930,673,0,0
-287,351,0,0,0,0,0,0,0,0,0,-1,937,673,0,0
-280,351,0,0,0,0,0,0,0,0,0,-1,944,673,0,0
-273,351,0,0,0,0,0,0,0,0,0,-1,951,673,0,0
-266,351,0,0,0,0,0,0,0,0,0,-1,958,673,0,0
-259,351,0,0,0,0,0,0,0,0,0,-1,965,673,0,0
-252,351,0,0,0,0,0,0,0,0,0,-1,972,673,0,0
-245,351,0,0,0,0,0,0,0,0,0,-1,979,673,0,0
-238,351,0,0,0,0,0,0,0,0,0,-1,986,673,0,0
-231,351,0,0,0,0,0,0,0,0,0,-1,993,673,0,0
-224,351,0,0,0,0,0,0,0,0,0,-1,1000,673,0,0
-217,351,0,0,0,0,0,0,0,0,0,-1,1007,673,0,0
-210,351,0,0,0,0,0,0,0,0,0,-1,1014,673,0,0
-203,351,0,0,0,0,0,0,0,0,0,-1,1021,673,0,0
-196,351,0,0,0,0,0,0,0,0,0,-1,1028,673,0,0
-189,351,0,0,0,0,0,0,0,0,0,-1,1035,673,0,0
-182,351,0,0,0,0,0,0,0,0,0,-1,1042,673,0,0
-175,351,0,0,0,0,0,0,0,0,0,-1,1049,673,0,0
-168,351,0,0,0,0,0,0,0,0,0,-1,1056,673,0,0
-161,351,0,0,0,0,0,0,0,0,0,-1,1063,673,0,0
-154,351,0,0,0,0,0,0,0,0,0,-1,1070,673,0,0
-147,351,0,0,0,0,0,0,0,0,0,-1,1077,673,0,0
-140,351,0,0,0,0,0,0,0,0,0,-1,1084,673,0,0
-133,351,0,0,0,0,0,0,0,0,0,-1,1091,673,0,0
-126,351,0,0,0,0,0,0,0,0,0,-1,1098,673,0,0
-119,351,0,0,0,0,0,0,0,0,0,-1,1105,673,0,0
-112,351,0,0,0,0,0,0,0,0,0,-1,1112,673,0,0
-105,351,0,0,0,0,0,0,0,0,0,-1,1119,673,0,0
-98,351,0,0,0,0,0,0,0,0,0,-1,1126,673,0,0
-91,351,0,0,0,0,0,0,0,0,0,-1,1133,673,0,0
-84,351,0,0,0,0,0,0,0,0,0,-1,1140,673,0,0
-77,351,0,0,0,0,0,0,0,0,0,-1,1147,673,0,0
-70,351,0,0,0,0,0,0,0,0,0,-1,1154,673,0,0
-63,351,0,0,0,0,0,0,0,0,0,-1,1161,673,0,0
-56,351,0,0,0,0,0,0,0,0,0,-1,1168,673,0,0
-49,351,0,0,0,0,0,0,0,0,0,-1,1175,673,0,0
-42,351,0,0,0,0,0,0,0,0,0,-1,1182,673,0,0
-35,351,0,0,0,0,0,0,0,0,0,-1,1189,673,0,0
-28,351,0,0,0,0,0,0,0,0,0,-1,1196,673,0,0
-21,351,0,0,0,0,0,0,0,0,0,-1,1203,673,0,0
-14,351,0,0,0,0,0,0,0,0,0,-1,1210,673,0,0
-7,351,0,0,0,0,0,0,0,0,0,-1,1217,673,0,0
0,351,0,0,0,0,0,0,0,0,0,-1,1224,673,0,0
7,351,0,0,0,0,0,0,0,0,0,-1,1231,673,0,0
14,351,0,0,0,0,0,0,0,0,0,-1,1238,673,0,0
21,351,0,0,0,0,0,0,0,0,0,-1,1245,673,0,0
28,351,0,0,0,0,0,0,0,0,0,-1,1252,673,0,0
35,351,0,0,0,0,0,0,0,0,0,-1,1259,673,0,0
42,351,0,0,0,0,0,0,0,0,0,-1,1266,673,0,0
49,351,0,0,0,0,0,0,0,0,0,-1,1273,673,0,0
56,351,0,0,0,0,0,0,0,0,0,-1,1280,673,0,0
63,351,0,0,0,0,0,0,0,0,0,-1,1287,673,0,0
70,351,0,0,0,0,0,0,0,0,0,-1,1294,673,0,0
77,351,0,0,0,0,0,0,0,0,0,-1,1301,673,0,0
84,351,0,0,0,0,0,0,0,0,0,-1,1308,673,0,0
91,351,0,0,0,0,0,0,0,0,0,-1,1315,673,0,0
98,351,0,0,0,0,0,0,0,0,0,-1,1322,673,0,0
105,351,0,0,0,0,0,0,0,0,0,-1,1329,673,0,0
112,351,0,0,0,0,0,0,0,0,0,-1,1336,673,0,0
119,351,0,0,0,0,0,0,0,0,0,-1,1343,673,0,0
126,351,0,0,0,0,0,0,0,0,0,-1,1350,673,0,0
133,351,0,0,0,0,0,0,0,0,0,-1,1357,673,0,0
140,351,0,0,0,0,0,0,0,0,0,-1,1364,673,0,0
147,351,0,0,0,0,0,0,0,0,0,-1,1371,673,0,0
154,351,0,0,0,0,0,0,0,0,0,-1,1378,673,0,0
161,351,0,0,0,0,0,0,0,0,0,-1,1385,673,0,0
168,351,0,0,0,0,0,0,0,0,0,-1,1392,673,0,0
175,351,0,0,0,0,0,0,0,0,0,-1,1399,673,0,0
182,351,0,0,0,0,0,0,0,0,0,-1,1406,673,0,0
189,351,0,0,0,0,0,0,0,0,0,-1,1413,673,0,0
196,351,0,0,0,0,0,0,0,0,0,-1,1420,673,0,0
203,351,0,0,0,0,0,0,0,0,0,-1,1427,673,0,0
210,351,0,0,0,0,0,0,0,0,0,-1,1434,673,0,0
217,351,0,0,0,0,0,0,0,0,0,-1,1441,673,0,0
224,351,0,0,0,0,0,0,0,0,0,-1,1448,673,0,0
231,351,0,0,0,0,0,0,0,0,0,-1,1455,673,0,0
238,351,0,0,0,0,0,0,0,0,0,-1,1462,673,0,0
245,351,0,0,0,0,0,0,0,0,0,-1,1469,673,0,0
252,351,0,0,0,0,0,0,0,0,0,-1,1476,673,0,0
259,351,0,0,0,0,0,0,0,0,0,-1,1483,673,0,0
266,351,0,0,0,0,0,0,0,0,0,-1,1490,673,0,0
273,351,0,0,0,0,0,0,0,0,0,-1,1497,673,0,0
280,351,0,0,0,0,0,0,0,0,0,-1,1504,673,0,0
287,351,0,0,0,0,0,0,0,0,0,-1,1511,673,0,0
294,351,0,0,0,0,0,0,0,0,0,-1,1518,673,0,0
301,351,0,0,0,0,0,0,0,0,0,-1,1525,673,0,0
308,351,0,0,0,0,0,0,0,0,0,-1,1532,673,0,0
315,351,0,0,0,0,0,0,0,0,0,-1,1539,673,0,0
322,351,0,0,0,0,0,0,0,0,0,-1,1546,673,0,0
329,351,0,0,0,0,0,0,0,0,0,-1,1553,673,0,0
336,351,0,0,0,0,0,0,0,0,0,-1,1560,673,0,0
343,351,0,0,0,0,0,0,0,0,0,-1,1567,673,0,0
350,351,0,0,0,0,0,0,0,0,0,-1,1574,673,0,0
357,351,0,0,0,0,0,0,0,0,0,-1,1581,673,0,0
364,351,0,0,0,0,0,0,0,0,0,-1,1588,673,0,0
371,351,0,0,0,0,0,0,0,0,0,-1,1595,673,0,0
378,351,0,0,0,0,0,0,0,0,0,-1,1602,673,0,0
385,351,0,0,0,0,0,0,0,0,0,-1,1609,673,0,0
392,351,0,0,0,0,0,0,0,0,0,-1,1616,673,0,0
399,351,0,0,0,0,0,0,0,0,0,-1,1623,673,0,0
406,351,0,0,0,0,0,0,0,0,0,-1,1630,673,0,0
413,351,0,0,0,0,0,0,0,0,0,-1,1637,673,0,0
420,351,0,0,0,0,0,0,0,0,0,-1,1644,673,0,0
427,351,0,0,0,0,0,0,0,0,0,-1,1651,673,0,0
434,351,0,0,0,0,0,0,0,0,0,-1,1658,673,0,0
441,351,0,0,0,0,0,0,0,0,0,-1,1665,673,0,0
448,351,0,0,0,0,0,0,0,0,0,-1,1672,673,0,0
455,351,0,0,0,0,0,0,0,0,0,-1,1679,673,0,0
462,351,0,0,0,0,0,0,0,0,0,-1,1686,673,0,0
469,351,0,0,0,0,0,0,0,0,0,-1,1693,673,0,0
476,351,0,0,0,0,0,0,0,0,0,-1,1700,673,0,0
483,351,0,0,0,0,0,0,0,0,0,-1,1707,673,0,0
490,351,0,0,0,0,0,0,0,0,0,-1,1714,673,0,0
497,351,0,0,0,0,0,0,0,0,0,-1,1721,673,0,0
504,351,10.8842,1.61615,0,0,0,0,0,0,0,-1,1728,673,10.8842,-1.61618
511,351,15.4548,0.0236816,0,0,0,0,0,0,0,-1,1735,673,15.4549,-0.0236664
518,351,16.7448,2.49268,0,0,0,0,0,0,0,-1,1742,673,16.7448,-2.49269
525,351,16.0701,3.43225,0,0,0,0,0,0,0,-1,1749,673,16.07,-3.43227
532,351,16.4181,3.33472,0,0,0,0,0,0,0,-1,1756,673,16.4181,-3.33473
539,351,15.3387,3.54486,0,0,0,0,0,0,0,-1,1763,673,15.3387,-3.54485
546,351,13.9387,4.59357,0,0,0,0,0,0,0,-1,1770,673,13.9388,-4.59359
553,351,12.0682,2.02832,0,0,0,0,0,0,0,-1,1777,673,12.0683,-2.02831
560,351,12.0173,0.55304,0,0,0,0,0,0,0,-1,1784,673,12.0174,-0.553028
567,351,10.7827,0.130188,0,0,0,0,0,0,0,-1,1791,673,10.7827,-0.130183
574,351,13.405,-1.09204,0,0,0,0,0,0,0,-1,1798,673,13.405,1.09207
581,351,14.6934,-2.63446,0,0,0,0,0,0,0,-1,1805,673,14.6934,2.63447
588,351,15.2504,-3.33423,0,0,0,0,0,0,0,-1,1812,673,15.2504,3.33423
595,351,15.3522,-2.9021,0.000862921,0.000625172,1.66613e-05,0.000864082,0.00062401,0.0696256,0.000515032,0.0245325,1819,673,15.3522,2.90212
602,351,15.3594,-2.49286,0.00109145,0.000548199,0.000139161,0.00112502,0.000514626,0.236732,0.000650315,0.0163718,1826,673,15.3594,2.49287
609,351,15.3779,-2.14532,0.0013196,0.000640022,0.000359996,0.00147484,0.000484782,0.407134,0.000867996,0.0168032,1833,673,15.3779,2.1453
616,351,15.3735,-1.76123,0.00134795,0.000652808,0.000453052,0.0015714,0.000429362,0.458195,0.000937835,0.0144148,1840,673,15.3735,1.76125
623,351,15.3757,-1.39191,0.00103115,0.000574363,0.000277166,0.0011619,0.000443611,0.440789,0.000677041,0.0154963,1847,673,15.3758,1.39188
630,351,15.379,-1.05127,0.000585847,0.000164638,-0.000139031,0.000627599,0.000122885,-0.29174,0.000384048,0.0254741,1854,673,15.379,1.05126
637,351,15.4058,-0.622803,0.000132099,-0.000441413,-0.000800388,0.000695549,-0.00100486,-0.613386,0.000987133,0.0277591,1861,673,15.4057,0.622775
644,351,15.3251,-0.270325,-0.000641094,-0.00118148,-0.00172279,0.000832561,-0.00265513,-0.707615,0.00210327,0.0211746,1868,673,15.3251,0.27032
651,351,15.3578,0.0935059,-0.00143505,-0.0022859,-0.00294987,0.00111992,-0.00484086,-0.713783,0.00365815,0.015831,1875,673,15.3578,-0.0934977
658,351,15.3265,0.502502,-0.00233744,-0.00385629,-0.00463664,0.00160155,-0.00779528,-0.704225,0.00580482,0.0285221,1882,673,15.3266,-0.50252
665,351,14.9558,0.64325,-0.00320348,-0.00593763,-0.00673751,0.00230424,-0.0114454,-0.685304,0.00850304,0.0364927,1889,673,14.9558,-0.64323
672,351,15.1433,1.22095,0,0,0,0,0,0,0,-1,1896,673,15.1433,-1.22092
679,351,14.1252,1.85681,0,0,0,0,0,0,0,-1,1903,673,14.1253,-1.85682
686,351,13.0294,2.1189,0,0,0,0,0,0,0,-1,1910,673,13.0294,-2.11892
693,351,13.5187,2.34595,0,0,0,0,0,0,0,-1,1917,673,13.5187,-2.34596
700,351,14.5629,-2.40173,0,0,0,0,0,0,0,-1,1924,673,14.5629,2.40172
707,351,0,0,0,0,0,0,0,0,0,-1,1931,673,0,0
714,351,0,0,0,0,0,0,0,0,0,-1,1938,673,0,0
721,351,0,0,0,0,0,0,0,0,0,-1,1945,673,0,0
728,351,0,0,0,0,0,0,0,0,0,-1,1952,673,0,0
735,351,0,0,0,0,0,0,0,0,0,-1,1959,673,0,0
742,351,0,0,0,0,0,0,0,0,0,-1,1966,673,0,0
749,351,0,0,0,0,0,0,0,0,0,-1,1973,673,0,0
756,351,0,0,0,0,0,0,0,0,0,-1,1980,673,0,0
763,351,0,0,0,0,0,0,0,0,0,-1,1987,673,0,0
770,351,0,0,0,0,0,0,0,0,0,-1,1994,673,0,0
777,351,0,0,0,0,0,0,0,0,0,-1,2001,673,0,0
784,351,0,0,0,0,0,0,0,0,0,-1,2008,673,0,0
791,351,0,0,0,0,0,0,0,0,0,-1,2015,673,0,0
798,351,0,0,0,0,0,0,0,0,0,-1,2022,673,0,0
805,351,0,0,0,0,0,0,0,0,0,-1,2029,673,0,0
812,351,0,0,0,0,0,0,0,0,0,-1,2036,673,0,0
-700,344,0,0,0,0,0,0,0,0,0,-1,524,680,0,0
-693,344,0,0,0,0,0,0,0,0,0,-1,531,680,0,0
-686,344,0,0,0,0,0,0,0,0,0,-1,538,680,0,0
-679,344,0,0,0,0,0,0,0,0,0,-1,545,680,0,0
-672,344,0,0,0,0,0,0,0,0,0,-1,552,680,0,0
-665,344,0,0,0,0,0,0,0,0,0,-1,559,680,0,0
-658,344,0,0,0,0,0,0,0,0,0,-1,566,680,0,0
-651,344,0,0,0,0,0,0,0,0,0,-1,573,680,0,0
-644,344,0,0,0,0,0,0,0,0,0,-1,580,680,0,0
-637,344,0,0,0,0,0,0,0,0,0,-1,587,680,0,0
-630,344,0,0,0,0,0,0,0,0,0,-1,594,680,0,0
-623,344,0,0,0,0,0,0,0,0,0,-1,601,680,0,0
-616,344,0,0,0,0,0,0,0,0,0,-1,608,680,0,0
-609,344,0,0,0,0,0,0,0,0,0,-1,615,680,0,0
-602,344,0,0,0,0,0,0,0,0,0,-1,622,680,0,0
-595,344,0,0,0,0,0,0,0,0,0,-1,629,680,0,0
-588,344,-9.27826,1.47302,0,0,0,0,0,0,0,-1,636,680,-9.27829,-1.473
-581,344,-10.0098,1.71753,0,0,0,0,0,0,0,-1,643,680,-10.0098,-1.7175
-574,344,-6.25641,2.37372,0,0,0,0,0,0,0,-1,650,680,-6.25642,-2.37369
-567,344,-10.2697,1.82111,0,0,0,0,0,0,0,-1,657,680,-10.2697,-1.82109
-560,344,-8.6106,0.682495,0,0,0,0,0,0,0,-1,664,680,-8.61061,-0.682468
-553,344,-8.52148,0.157898,0.0175864,0.0374399,-0.0217186,0.0513928,0.00363353,-0.999754,0.0331172,0.0474047,671,680,-8.52146,-0.157927
-546,344,-8.4826,-0.317627,0.0141216,0.0299561,-0.0178361,0.0415532,0.00252455,-0.994278,0.0269001,0.0445139,678,680,-8.48261,0.317607
-539,344,-8.50391,-0.757935,0.0111046,0.0235,-0.0142251,0.0328189,0.00178574,-0.990843,0.021309,0.0408593,685,680,-8.50391,0.757941
-532,344,-8.34607,-1.4834,0.00854926,0.0179945,-0.0110321,0.0252723,0.00127141,-0.987635,0.0164408,0.0252071,692,680,-8.34606,1.4834
-525,344,-8.49084,-1.78467,0.00638248,0.0132909,-0.00820383,0.0187381,0.000935332,-0.984659,0.0121922,0.0233362,699,680,-8.49082,1.78468
-518,344,-8.49701,-2.18872,0.00460199,0.00939371,-0.0058117,0.013284,0.000711678,-0.980908,0.00862858,0.0210819,706,680,-8.497,2.18873
-511,344,-8.50134,-2.50775,0.00327682,0.00630011,-0.00390688,0.00897759,0.000599339,-0.969988,0.00579562,0.0175359,713,680,-8.50134,2.50772
-504,344,-8.49451,-2.85553,0.00232575,0.00390887,-0.0024499,0.00569191,0.000542714,-0.941653,0.00362726,0.016705,720,680,-8.49451,2.85554
-497,344,-8.48688,-3.1947,0.00167527,0.00195858,-0.00135059,0.00317492,0.000458925,-0.83765,0.00198143,0.0149892,727,680,-8.48686,3.1947
-490,344,-8.49896,-3.54602,0.00150528,0.000968661,-0.000866126,0.00214371,0.000330239,-0.635194,0.00133277,0.0137228,734,680,-8.49895,3.54599
-483,344,-8.49713,-3.86993,0.00171835,0.000600349,-0.00077884,0.00211803,0.000200666,-0.474134,0.00135011,0.013676,741,680,-8.49716,3.8699
-476,344,-8.50891,-4.22351,0.00242186,0.00111081,-0.00143474,0.00334374,0.000188933,-0.571112,0.00216893,0.0138973,748,680,-8.50889,4.22354
-469,344,-8.51367,-4.60199,0.00360569,0.00168442,-0.00245524,0.00528154,8.57399e-06,-0.598924,0.00351817,0.0136516,755,680,-8.51367,4.60197
-462,344,-8.47278,-5.00055,0.00493218,0.00283843,-0.00348486,0.00752401,0.000246602,-0.639484,0.00493586,0.0343022,762,680,-8.4728,5.00054
-455,344,-8.34222,-5.34674,0,0,0,0,0,0,0,-1,769,680,-8.34224,5.34673
-448,344,-5.67657,-2.72864,0,0,0,0,0,0,0,-1,776,680,-5.6766,2.72863
-441,344,-5.09229,-2.34167,0,0,0,0,0,0,0,-1,783,680,-5.09229,2.34168
-434,344,-4.28778,-2.08807,0,0,0,0,0,0,0,-1,790,680,-4.28778,2.08809
-427,344,-3.06506,-1.45404,0,0,0,0,0,0,0,-1,797,680,-3.06505,1.45402
-420,344,-1.96582,-1.57574,0,0,0,0,0,0,0,-1,804,680,-1.96579,1.57574
-413,344,-0.817993,-1.4751,0,0,0,0,0,0,0,-1,811,680,-0.818017,1.47511
-406,344,-0.00714111,-1.25189,0,0,0,0,0,0,0,-1,818,680,-0.00714956,1.25191
-399,344,0.240051,-1.75769,0,0,0,0,0,0,0,-1,825,680,0.240079,1.75767
-392,344,1.11353,-2.05615,0,0,0,0,0,0,0,-1,832,680,1.11351,2.05616
-385,344,0,0,0,0,0,0,0,0,0,-1,839,680,0,0
-378,344,0,0,0,0,0,0,0,0,0,-1,846,680,0,0
-371,344,0,0,0,0,0,0,0,0,0,-1,853,680,0,0
-364,344,0,0,0,0,0,0,0,0,0,-1,860,680,0,0
-357,344,0,0,0,0,0,0,0,0,0,-1,867,680,0,0
-350,344,0,0,0,0,0,0,0,0,0,-1,874,680,0,0
-343,344,0,0,0,0,0,0,0,0,0,-1,881,680,0,0
-336,344,0,0,0,0,0,0,0,0,0,-1,888,680,0,0
-329,344,0,0,0,0,0,0,0,0,0,-1,895,680,0,0
-322,344,0,0,0,0,0,0,0,0,0,-1,902,680,0,0
-315,344,0,0,0,0,0,0,0,0,0,-1,909,680,0,0
-308,344,0,0,0,0,0,0,0,0,0,-1,916,680,0,0
-301,344,0,0,0,0,0,0,0,0,0,-1,923,680,0,0
-294,344,0,0,0,0,0,0,0,0,0,-1,930,680,0,0
-287,344,0,0,0,0,0,0,0,0,0,-1,937,680,0,0
-280,344,0,0,0,0,0,0,0,0,0,-1,944,680,0,0
-273,344,0,0,0,0,0,0,0,0,0,-1,951,680,0,0
-266,344,0,0,0,0,0,0,0,0,0,-1,958,680,0,0
-259,344,0,0,0,0,0,0,0,0,0,-1,965,680,0,0
-252,344,0,0,0,0,0,0,0,0,0,-1,972,680,0,0
-245,344,0,0,0,0,0,0,0,0,0,-1,979,680,0,0
-238,344,0,0,0,0,0,0,0,0,0,-1,986,680,0,0
-231,344,0,0,0,0,0,0,0,0,0,-1,993,680,0,0
-224,344,0,0,0,0,0,0,0,0,0,-1,1000,680,0,0
-217,344,0,0,0,0,0,0,0,0,0,-1,1007,680,0,0
-210,344,0,0,0,0,0,0,0,0,0,-1,1014,680,0,0
-203,344,0,0,0,0,0,0,0,0,0,-1,1021,680,0,0
-196,344,0,0,0,0,0,0,0,0,0,-1,1028,680,0,0
-189,344,0,0,0,0,0,0,0,0,0,-1,1035,680,0,0
-182,344,0,0,0,0,0,0,0,0,0,-1,1042,680,0,0
-175,344,0,0,0,0,0,0,0,0,0,-1,1049,680,0,0
-168,344,0,0,0,0,0,0,0,0,0,-1,1056,680,0,0
-161,344,0,0,0,0,0,0,0,0,0,-1,1063,680,0,0
-154,344,0,0,0,0,0,0,0,0,0,-1,1070,680,0,0
-147,344,0,0,0,0,0,0,0,0,0,-1,1077,680,0,0
-140,344,0,0,0,0,0,0,0,0,0,-1,1084,680,0,0
-133,344,0,0,0,0,0,0,0,0,0,-1,1091,680,0,0
-126,344,0,0,0,0,0,0,0,0,0,-1,1098,680,0,0
-119,344,0,0,0,0,0,0,0,0,0,-1,1105,680,0,0
-112,344,0,0,0,0,0,0,0,0,0,-1,1112,680,0,0
-105,344,0,0,0,0,0,0,0,0,0,-1,1119,680,0,0
-98,344,0,0,0,0,0,0,0,0,0,-1,1126,680,0,0
-91,344,0,0,0,0,0,0,0,0,0,-1,1133,680,0,0
-84,344,0,0,0,0,0,0,0,0,0,-1,1140,680,0,0
-77,344,0,0,0,0,0,0,0,0,0,-1,1147,680,0,0
-70,344,0,0,0,0,0,0,0,0,0,-1,1154,680,0,0
-63,344,0,0,0,0,0,0,0,0,0,-1,1161,680,0,0
-56,344,0,0,0,0,0,0,0,0,0,-1,1168,680,0,0
-49,344,0,0,0,0,0,0,0,0,0,-1,1175,680,0,0
-42,344,0,0,0,0,0,0,0,0,0,-1,1182,680,0,0
-35,344,0,0,0,0,0,0,0,0,0,-1,1189,680,0,0
-28,344,0,0,0,0,0,0,0,0,0,-1,1196,680,0,0
-21,344,0,0,0,0,0,0,0,0,0,-1,1203,680,0,0
-14,344,0,0,0,0,0,0,0,0,0,-1,1210,680,0,0
-7,344,0,0,0,0,0,0,0,0,0,-1,1217,680,0,0
0,344,0,0,0,0,0,0,0,0,0,-1,1224,680,0,0
7,344,0,0,0,0,0,0,0,0,0,-1,1231,680,0,0
14,344,0,0,0,0,0,0,0,0,0,-1,1238,680,0,0
21,344,0,0,0,0,0,0,0,0,0,-1,1245,680,0,0
28,344,0,0,0,0,0,0,0,0,0,-1,1252,680,0,0
35,344,0,0,0,0,0,0,0,0,0,-1,1259,680,0,0
42,344,0,0,0,0,0,0,0,0,0,-1,1266,680,0,0
49,344,0,0,0,0,0,0,0,0,0,-1,1273,680,0,0
56,344,0,0,0,0,0,0,0,0,0,-1,1280,680,0,0
63,344,0,0,0,0,0,0,0,0,0,-1,1287,680,0,0
70,344,0,0,0,0,0,0,0,0,0,-1,1294,680,0,0
77,344,0,0,0,0,0,0,0,0,0,-1,1301,680,0,0
84,344,0,0,0,0,0,0,0,0,0,-1,1308,680,0,0
91,344,0,0,0,0,0,0,0,0,0,-1,1315,680,0,0
98,344,0,0,0,0,0,0,0,0,0,-1,1322,680,0,0
105,344,0,0,0,0,0,0,0,0,0,-1,1329,680,0,0
112,344,0,0,0,0,0,0,0,0,0,-1,1336,680,0,0
119,344,0,0,0,0,0,0,0,0,0,-1,1343,680,0,0
126,344,0,0,0,0,0,0,0,0,0,-1,1350,680,0,0
133,344,0,0,0,0,0,0,0,0,0,-1,1357,680,0,0
140,344,0,0,0,0,0,0,0,0,0,-1,1364,680,0,0
147,344,0,0,0,0,0,0,0,0,0,-1,1371,680,0,0
154,344,0,0,0,0,0,0,0,0,0,-1,1378,680,0,0
161,344,0,0,0,0,0,0,0,0,0,-1,1385,680,0,0
168,344,0,0,0,0,0,0,0,0,0,-1,1392,680,0,0
175,344,0,0,0,0,0,0,0,0,0,-1,1399,680,0,0
182,344,0,0,0,0,0,0,0,0,0,-1,1406,680,0,0
189,344,0,0,0,0,0,0,0,0,0,-1,1413,680,0,0
196,344,0,0,0,0,0,0,0,0,0,-1,1420,680,0,0
203,344,0,0,0,0,0,0,0,0,0,-1,1427,680,0,0
210,344,0,0,0,0,0,0,0,0,0,-1,1434,680,0,0
217,344,0,0,0,0,0,0,0,0,0,-1,1441,680,0,0
224,344,0,0,0,0,0,0,0,0,0,-1,1448,680,0,0
231,344,0,0,0,0,0,0,0,0,0,-1,1455,680,0,0
238,344,0,0,0,0,0,0,0,0,0,-1,1462,680,0,0
245,344,0,0,0,0,0,0,0,0,0,-1,1469,680,0,0
252,344,0,0,0,0,0,0,0,0,0,-1,1476,680,0,0
259,344,0,0,0,0,0,0,0,0,0,-1,1483,680,0,0
266,344,0,0,0,0,0,0,0,0,0,-1,1490,680,0,0
273,344,0,0,0,0,0,0,0,0,0,-1,1497,680,0,0
280,344,0,0,0,0,0,0,0,0,0,-1,1504,680,0,0
287,344,0,0,0,0,0,0,0,0,0,-1,1511,680,0,0
294,344,0,0,0,0,0,0,0,0,0,-1,1518,680,0,0
301,344,0,0,0,0,0,0,0,0,0,-1,1525,680,0,0
308,344,0,0,0,0,0,0,0,0,0,-1,1532,680,0,0
315,344,0,0,0,0,0,0,0,0,0,-1,1539,680,0,0
322,344,0,0,0,0,0,0,0,0,0,-1,1546,680,0,0
329,344,0,0,0,0,0,0,0,0,0,-1,1553,680,0,0
336,344,0,0,0,0,0,0,0,0,0,-1,1560,680,0,0
343,344,0,0,0,0,0,0,0,0,0,-1,1567,680,0,0
350,344,0,0,0,0,0,0,0,0,0,-1,1574,680,0,0
357,344,0,0,0,0,0,0,0,0,0,-1,1581,680,0,0
364,344,0,0,0,0,0,0,0,0,0,-1,1588,680,0,0
371,344,0,0,0,0,0,0,0,0,0,-1,1595,680,0,0
378,344,0,0,0,0,0,0,0,0,0,-1,1602,680,0,0
385,344,0,0,0,0,0,0,0,0,0,-1,1609,680,0,0
392,344,0,0,0,0,0,0,0,0,0,-1,1616,680,0,0
399,344,0,0,0,0,0,0,0,0,0,-1,1623,680,0,0
406,344,0,0,0,0,0,0,0,0,0,-1,1630,680,0,0
413,344,0,0,0,0,0,0,0,0,0,-1,1637,680,0,0
420,344,0,0,0,0,0,0,0,0,0,-1,1644,680,0,0
427,344,0,0,0,0,0,0,0,0,0,-1,1651,680,0,0
434,344,0,0,0,0,0,0,0,0,0,-1,1658,680,0,0
441,344,0,0,0,0,0,0,0,0,0,-1,1665,680,0,0
448,344,0,0,0,0,0,0,0,0,0,-1,1672,680,0,0
455,344,0,0,0,0,0,0,0,0,0,-1,1679,680,0,0
462,344,0,0,0,0,0,0,0,0,0,-1,1686,680,0,0
469,344,0,0,0,0,0,0,0,0,0,-1,1693,680,0,0
476,344,0,0,0,0,0,0,0,0,0,-1,1700,680,0,0
483,344,0,0,0,0,0,0,0,0,0,-1,1707,680,0,0
490,344,0,0,0,0,0,0,0,0,0,-1,1714,680,0,0
497,344,0,0,0,0,0,0,0,0,0,-1,1721,680,0,0
504,344,0,0,0,0,0,0,0,0,0,-1,1728,680,0,0
511,344,15.4819,0.452637,0,0,0,0,0,0,0,-1,1735,680,15.4819,-0.452656
518,344,17.1357,2.31207,0,0,0,0,0,0,0,-1,1742,680,17.1358,-2.31207
525,344,16.4807,2.83368,0,0,0,0,0,0,0,-1,1749,680,16.4807,-2.83368
532,344,19.5029,6.32385,0,0,0,0,0,0,0,-1,1756,680,19.503,-6.32388
539,344,15.3691,3.78113,0,0,0,0,0,0,0,-1,1763,680,15.3691,-3.78113
546,344,14.6722,4.30243,0,0,0,0,0,0,0,-1,1770,680,14.6722,-4.30241
553,344,14.8136,4.35681,0,0,0,0,0,0,0,-1,1777,680,14.8136,-4.35679
560,344,11.9363,2.14185,0,0,0,0,0,0,0,-1,1784,680,11.9362,-2.14182
567,344,11.397,0.925842,0,0,0,0,0,0,0,-1,1791,680,11.397,-0.92583
574,344,10.0004,0.504639,0,0,0,0,0,0,0,-1,1798,680,10.0004,-0.504645
581,344,13.6709,-0.969604,0,0,0,0,0,0,0,-1,1805,680,13.6709,0.969629
588,344,15.5907,-2.77747,0,0,0,0,0,0,0,-1,1812,680,15.5907,2.77748
595,344,15.6398,-2.89233,0,0,0,0,0,0,0,-1,1819,680,15.6397,2.89235
602,344,15.8403,-2.43005,0.0012094,0.000518112,0.000167948,0.00124804,0.000479469,0.226152,0.000726973,0.038552,1826,680,15.8403,2.43004
609,344,15.7532,-2.09503,0.0015529,0.000532926,0.000389204,0.00168445,0.000401379,0.325936,0.00101596,0.0159143,1833,680,15.7531,2.09504
616,344,15.7246,-1.71008,0.00160599,0.000523977,0.000500741,0.00180216,0.000327807,0.373383,0.00110845,0.0211343,1840,680,15.7246,1.71006
623,344,15.734,-1.34863,0.00122583,0.000399811,0.000310938,0.00132979,0.000295849,0.322664,0.000806213,0.0197864,1847,680,15.7341,1.34866
630,344,15.7566,-1.02045,0.000736357,1.06307e-05,-0.000108844,0.00075233,-5.34201e-06,-0.145709,0.000503343,0.0258635,1854,680,15.7567,1.02043
637,344,15.7797,-0.635193,0.000245937,-0.000605139,-0.000760996,0.000692293,-0.00105149,-0.530464,0.00101387,0.0232272,1861,680,15.7796,0.635201
644,344,15.729,-0.273315,-0.000539247,-0.00130512,-0.00166599,0.000787253,-0.00263162,-0.672433,0.00206741,0.0154227,1868,680,15.729,0.273309
651,344,15.7122,0.104248,-0.00128418,-0.00232053,-0.00279769,0.00104292,-0.00464763,-0.693829,0.00349827,0.0111556,1875,680,15.7122,-0.104238
658,344,15.6995,0.540955,-0.00208885,-0.00368419,-0.0042788,0.001466,-0.00723903,-0.693244,0.00538166,0.0198682,1882,680,15.6994,-0.54096
665,344,15.5857,0.868896,-0.0028725,-0.00544704,-0.00610168,0.00207622,-0.0103958,-0.681438,0.00771626,0.029844,1889,680,15.5856,-0.868909
672,344,15.6606,1.10376,-0.00350599,-0.00781387,-0.0085022,0.00311087,-0.0144307,-0.661339,0.0108077,0.0276967,1896,680,15.6606,-1.10379
679,344,15.8577,0.957581,0,0,0,0,0,0,0,-1,1903,680,15.8576,-0.957592
686,344,15.024,1.82709,0,0,0,0,0,0,0,-1,1910,680,15.024,-1.82706
693,344,12.4362,-1.42346,0,0,0,0,0,0,0,-1,1917,680,12.4361,1.42348
700,344,17.5396,2.61206,0,0,0,0,0,0,0,-1,1924,680,17.5396,-2.61204
707,344,18.5829,3.29352,0,0,0,0,0,0,0,-1,1931,680,18.5828,-3.2935
714,344,0,0,0,0,0,0,0,0,0,-1,1938,680,0,0
721,344,0,0,0,0,0,0,0,0,0,-1,1945,680,0,0
728,344,0,0,0,0,0,0,0,0,0,-1,1952,680,0,0
735,344,0,0,0,0,0,0,0,0,0,-1,1959,680,0,0
742,344,0,0,0,0,0,0,0,0,0,-1,1966,680,0,0
749,344,0,0,0,0,0,0,0,0,0,-1,1973,680,0,0
756,344,0,0,0,0,0,0,0,0,0,-1,1980,680,0,0
763,344,0,0,0,0,0,0,0,0,0,-1,1987,680,0,0
770,344,0,0,0,0,0,0,0,0,0,-1,1994,680,0,0
777,344,0,0,0,0,0,0,0,0,0,-1,2001,680,0,0
784,344,0,0,0,0,0,0,0,0,0,-1,2008,680,0,0
791,344,0,0,0,0,0,0,0,0,0,-1,2015,680,0,0
798,344,0,0,0,0,0,0,0,0,0,-1,2022,680,0,0
805,344,0,0,0,0,0,0,0,0,0,-1,2029,680,0,0
812,344,0,0,0,0,0,0,0,0,0,-1,2036,680,0,0
-700,337,0,0,0,0,0,0,0,0,0,-1,524,687,0,0
-693,337,0,0,0,0,0,0,0,0,0,-1,531,687,0,0
-686,337,0,0,0,0,0,0,0,0,0,-1,538,687,0,0
-679,337,0,0,0,0,0,0,0,0,0,-1,545,687,0,0
-672,337,0,0,0,0,0,0,0,0,0,-1,552,687,0,0
-665,337,0,0,0,0,0,0,0,0,0,-1,559,687,0,0
-658,337,0,0,0,0,0,0,0,0,0,-1,566,687,0,0
-651,337,0,0,0,0,0,0,0,0,0,-1,573,687,0,0
-644,337,0,0,0,0,0,0,0,0,0,-1,580,687,0,0
-637,337,0,0,0,0,0,0,0,0,0,-1,587,687,0,0
-630,337,0,0,0,0,0,0,0,0,0,-1,594,687,0,0
-623,337,0,0,0,0,0,0,0,0,0,-1,601,687,0,0
-616,337,0,0,0,0,0,0,0,0,0,-1,608,687,0,0
-609,337,0,0,0,0,0,0,0,0,0,-1,615,687,0,0
-602,337,0,0,0,0,0,0,0,0,0,-1,622,687,0,0
-595,337,0,0,0,0,0,0,0,0,0,-1,629,687,0,0
-588,337,-10.8413,1.27863,0,0,0,0,0,0,0,-1,636,687,-10.8413,-1.27861
-581,337,-11.2157,1.31567,0,0,0,0,0,0,0,-1,643,687,-11.2157,-1.3157
-574,337,-6.03339,2.0321,0,0,0,0,0,0,0,-1,650,687,-6.03337,-2.03213
-567,337,-10.1181,1.40186,0,0,0,0,0,0,0,-1,657,687,-10.1181,-1.40188
-560,337,-8.86627,0.616333,0,0,0,0,0,0,0,-1,664,687,-8.86629,-0.61631
-553,337,-8.80328,0.0752563,0.0107904,0.0296432,-0.0156002,0.0384437,0.00198979,-1.05717,0.0249923,0.0494975,671,687,-8.8033,-0.0752635
-546,337,-8.74982,-0.483093,0.00906336,0.0237524,-0.0130543,0.0313864,0.00142937,-1.04164,0.0204644,0.0418773,678,687,-8.74981,0.483083
-539,337,-8.69952,-1.03082,0.00743212,0.0187223,-0.0106079,0.0250937,0.00106074,-1.02992,0.016387,0.0269741,685,687,-8.6995,1.03084
-532,337,-8.77832,-1.47357,0.00591365,0.0143206,-0.00831917,0.0194379,0.0007963,-1.01933,0.0127015,0.0167165,692,687,-8.77832,1.47356
-525,337,-8.83868,-1.83142,0.00452852,0.0104891,-0.00620094,0.0143888,0.000628865,-1.00941,0.00938992,0.0146496,699,687,-8.83868,1.83141
-518,337,-8.86243,-2.20374,0.0033411,0.00727214,-0.00435542,0.010085,0.000528237,-0.997358,0.00655436,0.0241878,706,687,-8.86245,2.20374
-511,337,-8.85583,-2.52228,0.0024519,0.00470704,-0.00285426,0.00664838,0.000510565,-0.973513,0.00427225,0.0246719,713,687,-8.85584,2.52228
-504,337,-8.85895,-2.87927,0.0017531,0.00279893,-0.00165798,0.0040145,0.000537525,-0.938158,0.00251637,0.0238466,720,687,-8.85895,2.87928
-497,337,-8.83759,-3.21246,0.00120587,0.00149198,-0.000750926,0.00211336,0.000584494,-0.879521,0.0012601,0.0172222,727,687,-8.83758,3.21248
-490,337,-8.8432,-3.56329,0.00100092,0.00110082,-0.000312796,0.00136763,0.000734111,-0.864577,0.000790312,0.0141495,734,687,-8.84322,3.56328
-483,337,-8.84235,-3.9024,0.000936703,0.00148158,-0.000179159,0.00153521,0.000883073,-1.27994,0.000889692,0.0139965,741,687,-8.84235,3.90238
-476,337,-8.82947,-4.25415,0.00118472,0.00312534,-0.000758987,0.00338692,0.000923132,-1.2389,0.00202175,0.0126399,748,687,-8.82947,4.25418
-469,337,-8.82458,-4.66785,0.00162267,0.00505037,-0.001484,0.00560358,0.00106947,-1.21397,0.00343518,0.0282811,755,687,-8.82457,4.66787
-462,337,-8.71155,-4.96741,0,0,0,0,0,0,0,-1,762,687,-8.71154,4.96742
-455,337,-6.00574,-3.12933,0,0,0,0,0,0,0,-1,769,687,-6.00576,3.12934
-448,337,-5.30627,-2.07202,0,0,0,0,0,0,0,-1,776,687,-5.30628,2.07205
-441,337,-4.24762,-1.49597,0,0,0,0,0,0,0,-1,783,687,-4.24762,1.49598
-434,337,-6.86908,1.37531,0,0,0,0,0,0,0,-1,790,687,-6.86908,-1.3753
-427,337,-9.92004,2.487,0,0,0,0,0,0,0,-1,797,687,-9.92002,-2.48701
-420,337,-2.95996,-1.76697,0,0,0,0,0,0,0,-1,804,687,-2.95998,1.76696
-413,337,-1.29169,-1.99487,0,0,0,0,0,0,0,-1,811,687,-1.29171,1.9949
-406,337,-1.02356,-1.89563,0,0,0,0,0,0,0,-1,818,687,-1.02357,1.89564
-399,337,-0.472839,-2.21338,0,0,0,0,0,0,0,-1,825,687,-0.472837,2.2134
-392,337,0,0,0,0,0,0,0,0,0,-1,832,687,0,0
-385,337,0,0,0,0,0,0,0,0,0,-1,839,687,0,0
-378,337,0,0,0,0,0,0,0,0,0,-1,846,687,0,0
-371,337,0,0,0,0,0,0,0,0,0,-1,853,687,0,0
-364,337,0,0,0,0,0,0,0,0,0,-1,860,687,0,0
-357,337,0,0,0,0,0,0,0,0,0,-1,867,687,0,0
-350,337,0,0,0,0,0,0,0,0,0,-1,874,687,0,0
-343,337,0,0,0,0,0,0,0,0,0,-1,881,687,0,0
-336,337,0,0,0,0,0,0,0,0,0,-1,888,687,0,0
-329,337,0,0,0,0,0,0,0,0,0,-1,895,687,0,0
-322,337,0,0,0,0,0,0,0,0,0,-1,902,687,0,0
-315,337,0,0,0,0,0,0,0,0,0,-1,909,687,0,0
-308,337,0,0,0,0,0,0,0,0,0,-1,916,687,0,0
-301,337,0,0,0,0,0,0,0,0,0,-1,923,687,0,0
-294,337,0,0,0,0,0,0,0,0,0,-1,930,687,0,0
-287,337,0,0,0,0,0,0,0,0,0,-1,937,687,0,0
-280,337,0,0,0,0,0,0,0,0,0,-1,944,687,0,0
-273,337,0,0,0,0,0,0,0,0,0,-1,951,687,0,0
-266,337,0,0,0,0,0,0,0,0,0,-1,958,687,0,0
-259,337,0,0,0,0,0,0,0,0,0,-1,965,687,0,0
-252,337,0,0,0,0,0,0,0,0,0,-1,972,687,0,0
-245,337,0,0,0,0,0,0,0,0,0,-1,979,687,0,0
-238,337,0,0,0,0,0,0,0,0,0,-1,986,687,0,0
-231,337,0,0,0,0,0,0,0,0,0,-1,993,687,0,0
-224,337,0,0,0,0,0,0,0,0,0,-1,1000,687,0,0
-217,337,0,0,0,0,0,0,0,0,0,-1,1007,687,0,0
-210,337,0,0,0,0,0,0,0,0,0,-1,1014,687,0,0
-203,337,0,0,0,0,0,0,0,0,0,-1,1021,687,0,0
-196,337,0,0,0,0,0,0,0,0,0,-1,1028,687,0,0
-189,337,0,0,0,0,0,0,0,0,0,-1,1035,687,0,0
-182,337,0,0,0,0,0,0,0,0,0,-1,1042,687,0,0
-175,337,0,0,0,0,0,0,0,0,0,-1,1049,687,0,0
-168,337,0,0,0,0,0,0,0,0,0,-1,1056,687,0,0
-161,337,0,0,0,0,0,0,0,0,0,-1,1063,687,0,0
-154,337,0,0,0,0,0,0,0,0,0,-1,1070,687,0,0
-147,337,0,0,0,0,0,0,0,0,0,-1,1077,687,0,0
-140,337,0,0,0,0,0,0,0,0,0,-1,1084,687,0,0
-133,337,0,0,0,0,0,0,0,0,0,-1,1091,687,0,0
-126,337,0,0,0,0,0,0,0,0,0,-1,1098,687,0,0
-119,337,0,0,0,0,0,0,0,0,0,-1,1105,687,0,0
-112,337,0,0,0,0,0,0,0,0,0,-1,1112,687,0,0
-105,337,0,0,0,0,0,0,0,0,0,-1,1119,687,0,0
-98,337,0,0,0,0,0,0,0,0,0,-1,1126,687,0,0
-91,337,0,0,0,0,0,0,0,0,0,-1,1133,687,0,0
-84,337,0,0,0,0,0,0,0,0,0,-1,1140,687,0,0
-77,337,0,0,0,0,0,0,0,0,0,-1,1147,687,0,0
-70,337,0,0,0,0,0,0,0,0,0,-1,1154,687,0,0
-63,337,0,0,0,0,0,0,0,0,0,-1,1161,687,0,0
-56,337,0,0,0,0,0,0,0,0,0,-1,1168,687,0,0
-49,337,0,0,0,0,0,0,0,0,0,-1,1175,687,0,0
-42,337,0,0,0,0,0,0,0,0,0,-1,1182,687,0,0
-35,337,0,0,0,0,0,0,0,0,0,-1,1189,687,0,0
-28,337,0,0,0,0,0,0,0,0,0,-1,1196,687,0,0
-21,337,0,0,0,0,0,0,0,0,0,-1,1203,687,0,0
-14,337,0,0,0,0,0,0,0,0,0,-1,1210,687,0,0
-7,337,0,0,0,0,0,0,0,0,0,-1,1217,687,0,0
0,337,0,0,0,0,0,0,0,0,0,-1,1224,687,0,0
7,337,0,0,0,0,0,0,0,0,0,-1,1231,687,0,0
14,337,0,0,0,0,0,0,0,0,0,-1,1238,687,0,0
21,337,0,0,0,0,0,0,0,0,0,-1,1245,687,0,0
28,337,0,0,0,0,0,0,0,0,0,-1,1252,687,0,0
35,337,0,0,0,0,0,0,0,0,0,-1,1259,687,0,0
42,337,0,0,0,0,0,0,0,0,0,-1,1266,687,0,0
49,337,0,0,0,0,0,0,0,0,0,-1,1273,687,0,0
56,337,0,0,0,0,0,0,0,0,0,-1,1280,687,0,0
63,337,0,0,0,0,0,0,0,0,0,-1,1287,687,0,0
70,337,0,0,0,0,0,0,0,0,0,-1,1294,687,0,0
77,337,0,0,0,0,0,0,0,0,0,-1,1301,687,0,0
84,337,0,0,0,0,0,0,0,0,0,-1,1308,687,0,0
91,337,0,0,0,0,0,0,0,0,0,-1,1315,687,0,0
98,337,0,0,0,0,0,0,0,0,0,-1,1322,687,0,0
105,337,0,0,0,0,0,0,0,0,0,-1,1329,687,0,0
112,337,0,0,0,0,0,0,0,0,0,-1,1336,687,0,0
119,337,0,0,0,0,0,0,0,0,0,-1,1343,687,0,0
126,337,0,0,0,0,0,0,0,0,0,-1,1350,687,0,0
133,337,0,0,0,0,0,0,0,0,0,-1,1357,687,0,0
140,337,0,0,0,0,0,0,0,0,0,-1,1364,687,0,0
147,337,0,0,0,0,0,0,0,0,0,-1,1371,687,0,0
154,337,0,0,0,0,0,0,0,0,0,-1,1378,687,0,0
161,337,0,0,0,0,0,0,0,0,0,-1,1385,687,0,0
168,337,0,0,0,0,0,0,0,0,0,-1,1392,687,0,0
175,337,0,0,0,0,0,0,0,0,0,-1,1399,687,0,0
182,337,0,0,0,0,0,0,0,0,0,-1,1406,687,0,0
189,337,0,0,0,0,0,0,0,0,0,-1,1413,687,0,0
196,337,0,0,0,0,0,0,0,0,0,-1,1420,687,0,0
203,337,0,0,0,0,0,0,0,0,0,-1,1427,687,0,0
210,337,0,0,0,0,0,0,0,0,0,-1,1434,687,0,0
217,337,0,0,0,0,0,0,0,0,0,-1,1441,687,0,0
224,337,0,0,0,0,0,0,0,0,0,-1,1448,687,0,0
231,337,0,0,0,0,0,0,0,0,0,-1,1455,687,0,0
238,337,0,0,0,0,0,0,0,0,0,-1,1462,687,0,0
245,337,0,0,0,0,0,0,0,0,0,-1,1469,687,0,0
252,337,0,0,0,0,0,0,0,0,0,-1,1476,687,0,0
259,337,0,0,0,0,0,0,0,0,0,-1,1483,687,0,0
266,337,0,0,0,0,0,0,0,0,0,-1,1490,687,0,0
273,337,0,0,0,0,0,0,0,0,0,-1,1497,687,0,0
280,337,0,0,0,0,0,0,0,0,0,-1,1504,687,0,0
287,337,0,0,0,0,0,0,0,0,0,-1,1511,687,0,0
294,337,0,0,0,0,0,0,0,0,0,-1,1518,687,0,0
301,337,0,0,0,0,0,0,0,0,0,-1,1525,687,0,0
308,337,0,0,0,0,0,0,0,0,0,-1,1532,687,0,0
315,337,0,0,0,0,0,0,0,0,0,-1,1539,687,0,0
322,337,0,0,0,0,0,0,0,0,0,-1,1546,687,0,0
329,337,0,0,0,0,0,0,0,0,0,-1,1553,687,0,0
336,337,0,0,0,0,0,0,0,0,0,-1,1560,687,0,0
343,337,0,0,0,0,0,0,0,0,0,-1,1567,687,0,0
350,337,0,0,0,0,0,0,0,0,0,-1,1574,687,0,0
357,337,0,0,0,0,0,0,0,0,0,-1,1581,687,0,0
364,337,0,0,0,0,0,0,0,0,0,-1,1588,687,0,0
371,337,0,0,0,0,0,0,0,0,0,-1,1595,687,0,0
378,337,0,0,0,0,0,0,0,0,0,-1,1602,687,0,0
385,337,0,0,0,0,0,0,0,0,0,-1,1609,687,0,0
392,337,0,0,0,0,0,0,0,0,0,-1,1616,687,0,0
399,337,0,0,0,0,0,0,0,0,0,-1,1623,687,0,0
406,337,0,0,0,0,0,0,0,0,0,-1,1630,687,0,0
413,337,0,0,0,0,0,0,0,0,0,-1,1637,687,0,0
420,337,0,0,0,0,0,0,0,0,0,-1,1644,687,0,0
427,337,0,0,0,0,0,0,0,0,0,-1,1651,687,0,0
434,337,0,0,0,0,0,0,0,0,0,-1,1658,687,0,0
441,337,0,0,0,0,0,0,0,0,0,-1,1665,687,0,0
448,337,0,0,0,0,0,0,0,0,0,-1,1672,687,0,0
455,337,0,0,0,0,0,0,0,0,0,-1,1679,687,0,0
462,337,0,0,0,0,0,0,0,0,0,-1,1686,687,0,0
469,337,0,0,0,0,0,0,0,0,0,-1,1693,687,0,0
476,337,0,0,0,0,0,0,0,0,0,-1,1700,687,0,0
483,337,0,0,0,0,0,0,0,0,0,-1,1707,687,0,0
490,337,0,0,0,0,0,0,0,0,0,-1,1714,687,0,0
497,337,0,0,0,0,0,0,0,0,0,-1,1721,687,0,0
504,337,0,0,0,0,0,0,0,0,0,-1,1728,687,0,0
511,337,0,0,0,0,0,0,0,0,0,-1,1735,687,0,0
518,337,18.0369,1.64581,0,0,0,0,0,0,0,-1,1742,687,18.0368,-1.64581
525,337,21.0253,4.16956,0,0,0,0,0,0,0,-1,1749,687,21.0253,-4.16956
532,337,20.4332,5.16278,0,0,0,0,0,0,0,-1,1756,687,20.4333,-5.16281
539,337,19.9229,6.04456,0,0,0,0,0,0,0,-1,1763,687,19.9228,-6.04456
546,337,15.0701,4.06219,0,0,0,0,0,0,0,-1,1770,687,15.0701,-4.06219
553,337,19.068,3.61273,0,0,0,0,0,0,0,-1,1777,687,19.068,-3.6127
560,337,18.4053,3.62793,0,0,0,0,0,0,0,-1,1784,687,18.4052,-3.6279
567,337,11.9288,1.38776,0,0,0,0,0,0,0,-1,1791,687,11.9288,-1.38777
574,337,10.704,1.19476,0,0,0,0,0,0,0,-1,1798,687,10.704,-1.19478
581,337,8.50427,0.561768,0,0,0,0,0,0,0,-1,1805,687,8.5043,-0.561754
588,337,8.5885,-0.0536499,0,0,0,0,0,0,0,-1,1812,687,8.58844,0.0536788
595,337,13.8816,-1.70703,0,0,0,0,0,0,0,-1,1819,687,13.8816,1.70702
602,337,16.0741,-2.45129,0,0,0,0,0,0,0,-1,1826,687,16.0741,2.45131
609,337,16.1047,-2.01379,0.00201262,0.000545245,0.000519879,0.00217814,0.000379727,0.308232,0.00134353,0.0263184,1833,687,16.1047,2.01379
616,337,16.0713,-1.67328,0.00202953,0.000480944,0.000643993,0.00226234,0.000248134,0.346892,0.0014327,0.0174882,1840,687,16.0713,1.67331
623,337,16.085,-1.34015,0.00154699,0.000302827,0.000446592,0.00169069,0.000159121,0.31132,0.00107801,0.0159804,1847,687,16.085,1.34013
630,337,16.0859,-0.995605,0.000988124,-3.84306e-05,3.29971e-05,0.000989183,-3.94901e-05,0.0320994,0.000673005,0.0198182,1854,687,16.0859,0.995626
637,337,16.1157,-0.633545,0.000437138,-0.000632038,-0.000599837,0.000706036,-0.000900936,-0.421426,0.000930057,0.0169463,1861,687,16.1157,0.633529
644,337,16.0869,-0.247864,-0.000371737,-0.00126613,-0.00146523,0.000713024,-0.00235089,-0.637286,0.00185129,0.0109821,1868,687,16.0869,0.247842
651,337,16.0603,0.119446,-0.0010962,-0.00215848,-0.00250072,0.000929166,-0.00418384,-0.680757,0.00314504,0.0096537,1875,687,16.0604,-0.119472
658,337,16.0577,0.484253,-0.00181033,-0.00329414,-0.00378989,0.00130959,-0.00641406,-0.68874,0.00477284,0.0114232,1882,687,16.0577,-0.484268
665,337,16.068,0.846985,-0.00253436,-0.00473149,-0.00535995,0.00183844,-0.0091043,-0.684319,0.00676612,0.0134628,1889,687,16.068,-0.846993
672,337,16.0731,1.1488,-0.00313789,-0.00656339,-0.00732646,0.00267335,-0.0123746,-0.670572,0.00927027,0.0224203,1896,687,16.0731,-1.14882
679,337,16.1079,1.0874,-0.00367159,-0.00901627,-0.00981969,0.00383289,-0.0165207,-0.652545,0.0124891,0.0460612,1903,687,16.1079,-1.08738
686,337,16.3079,1,0,0,0,0,0,0,0,-1,1910,687,16.3079,-1.00002
693,337,16.5415,2.21411,0,0,0,0,0,0,0,-1,1917,687,16.5415,-2.2141
700,337,17.2661,2.44379,0,0,0,0,0,0,0,-1,1924,687,17.2661,-2.44378
707,337,17.3544,5.61853,0,0,0,0,0,0,0,-1,1931,687,17.3543,-5.61851
714,337,0,0,0,0,0,0,0,0,0,-1,1938,687,0,0
721,337,0,0,0,0,0,0,0,0,0,-1,1945,687,0,0
728,337,0,0,0,0,0,0,0,0,0,-1,1952,687,0,0
735,337,0,0,0,0,0,0,0,0,0,-1,1959,687,0,0
742,337,0,0,0,0,0,0,0,0,0,-1,1966,687,0,0
749,337,0,0,0,0,0,0,0,0,0,-1,1973,687,0,0
756,337,0,0,0,0,0,0,0,0,0,-1,1980,687,0,0
763,337,0,0,0,0,0,0,0,0,0,-1,1987,687,0,0
770,337,0,0,0,0,0,0,0,0,0,-1,1994,687,0,0
777,337,0,0,0,0,0,0,0,0,0,-1,2001,687,0,0
784,337,0,0,0,0,0,0,0,0,0,-1,2008,687,0,0
791,337,0,0,0,0,0,0,0,0,0,-1,2015,687,0,0
798,337,0,0,0,0,0,0,0,0,0,-1,2022,687,0,0
805,337,0,0,0,0,0,0,0,0,0,-1,2029,687,0,0
812,337,0,0,0,0,0,0,0,0,0,-1,2036,687,0,0
-700,330,0,0,0,0,0,0,0,0,0,-1,524,694,0,0
-693,330,0,0,0,0,0,0,0,0,0,-1,531,694,0,0
-686,330,0,0,0,0,0,0,0,0,0,-1,538,694,0,0
-679,330,0,0,0,0,0,0,0,0,0,-1,545,694,0,0
-672,330,0,0,0,0,0,0,0,0,0,-1,552,694,0,0
-665,330,0,0,0,0,0,0,0,0,0,-1,559,694,0,0
-658,330,0,0,0,0,0,0,0,0,0,-1,566,694,0,0
-651,330,0,0,0,0,0,0,0,0,0,-1,573,694,0,0
-644,330,0,0,0,0,0,0,0,0,0,-1,580,694,0,0
-637,330,0,0,0,0,0,0,0,0,0,-1,587,694,0,0
-630,330,0,0,0,0,0,0,0,0,0,-1,594,694,0,0
-623,330,0,0,0,0,0,0,0,0,0,-1,601,694,0,0
-616,330,0,0,0,0,0,0,0,0,0,-1,608,694,0,0
-609,330,0,0,0,0,0,0,0,0,0,-1,615,694,0,0
-602,330,0,0,0,0,0,0,0,0,0,-1,622,694,0,0
-595,330,-4.67883,1.65515,0,0,0,0,0,0,0,-1,629,694,-4.67881,-1.65515
-588,330,-8.5047,2.67346,0,0,0,0,0,0,0,-1,636,694,-8.50469,-2.67348
-581,330,-12.4227,0.947083,0,0,0,0,0,0,0,-1,643,694,-12.4227,-0.947109
-574,330,-9.02118,1.87952,0,0,0,0,0,0,0,-1,650,694,-9.02115,-1.87953
-567,330,-8.35577,0.909973,0,0,0,0,0,0,0,-1,657,694,-8.35575,-0.909945
-560,330,-9.23199,0.098999,0,0,0,0,0,0,0,-1,664,694,-9.23198,-0.0989859
-553,330,-9.09558,-0.245117,0.00542095,0.0227967,-0.0104673,0.0277118,0.000505782,-1.13178,0.0183083,0.044061,671,694,-9.09558,0.245116
-546,330,-9.03375,-0.694214,0.00506074,0.0182664,-0.00903015,0.0228502,0.00047692,-1.10108,0.015077,0.028352,678,694,-9.03374,0.69423
-539,330,-9.07233,-1.13977,0.00454212,0.0144381,-0.00754477,0.0185126,0.000467578,-1.07563,0.0121889,0.013433,685,694,-9.07234,1.13978
-532,330,-9.18103,-1.46112,0.00388223,0.0109959,-0.00602262,0.0144336,0.000444571,-1.05213,0.00947766,0.0104569,692,694,-9.18101,1.46113
-525,330,-9.18652,-1.83606,0.00315633,0.0079436,-0.00451708,0.0106621,0.000437863,-1.02904,0.00696667,0.0108863,699,694,-9.18653,1.83606
-518,330,-9.17224,-2.15027,0.00245956,0.00537924,-0.00313475,0.0073774,0.000461396,-1.00331,0.00477191,0.0148146,706,694,-9.17224,2.15025
-511,330,-9.20319,-2.50238,0.00187335,0.00341217,-0.00191431,0.00470591,0.000579616,-0.976481,0.00296303,0.0207934,713,694,-9.2032,2.50241
-504,330,-9.21466,-2.87128,0.00125175,0.00217198,-0.000815359,0.00264809,0.000775642,-1.04228,0.00157198,0.0200685,720,694,-9.21466,2.87129
-497,330,-9.20245,-3.19574,0.000574115,0.0018121,0.00013208,0.00182603,0.00056018,1.46568,0.00108018,0.0145051,727,694,-9.20248,3.19576
-490,330,-9.18011,-3.55243,1.38656e-05,0.00235574,0.000869615,0.00264334,-0.000273732,1.2514,0.0018602,0.0135798,734,694,-9.18012,3.55244
-483,330,-9.17847,-3.91022,-0.000701721,0.00387914,0.00153124,0.00434385,-0.00116642,1.27615,0.00335303,0.0134777,741,694,-9.17847,3.91023
-476,330,-9.18225,-4.23669,-0.00142397,0.00690045,0.00177746,0.00726409,-0.00178762,1.369,0.00553566,0.0282318,748,694,-9.18226,4.23668
-469,330,-9.00983,-4.70667,0,0,0,0,0,0,0,-1,755,694,-9.00983,4.70667
-462,330,-7.26733,-3.84833,0,0,0,0,0,0,0,-1,762,694,-7.26731,3.84832
-455,330,-5.04254,-1.79303,0,0,0,0,0,0,0,-1,769,694,-5.04252,1.79305
-448,330,-4.89886,-1.66156,0,0,0,0,0,0,0,-1,776,694,-4.89886,1.66157
-441,330,-5.30676,-2.34045,0,0,0,0,0,0,0,-1,783,694,-5.30679,2.34048
-434,330,-7.20428,1.00024,0,0,0,0,0,0,0,-1,790,694,-7.20431,-1.00027
-427,330,-16.0428,2.89258,0,0,0,0,0,0,0,-1,797,694,-16.0428,-2.89259
-420,330,-15.2923,3.32672,0,0,0,0,0,0,0,-1,804,694,-15.2923,-3.32675
-413,330,-10.4567,2.56183,0,0,0,0,0,0,0,-1,811,694,-10.4567,-2.56182
-406,330,-1.65375,-1.74371,0,0,0,0,0,0,0,-1,818,694,-1.65375,1.74371
-399,330,0,0,0,0,0,0,0,0,0,-1,825,694,0,0
-392,330,0,0,0,0,0,0,0,0,0,-1,832,694,0,0
-385,330,0,0,0,0,0,0,0,0,0,-1,839,694,0,0
-378,330,0,0,0,0,0,0,0,0,0,-1,846,694,0,0
-371,330,0,0,0,0,0,0,0,0,0,-1,853,694,0,0
-364,330,0,0,0,0,0,0,0,0,0,-1,860,694,0,0
-357,330,0,0,0,0,0,0,0,0,0,-1,867,694,0,0
-350,330,0,0,0,0,0,0,0,0,0,-1,874,694,0,0
-343,330,0,0,0,0,0,0,0,0,0,-1,881,694,0,0
-336,330,0,0,0,0,0,0,0,0,0,-1,888,694,0,0
-329,330,0,0,0,0,0,0,0,0,0,-1,895,694,0,0
-322,330,0,0,0,0,0,0,0,0,0,-1,902,694,0,0
-315,330,0,0,0,0,0,0,0,0,0,-1,909,694,0,0
-308,330,0,0,0,0,0,0,0,0,0,-1,916,694,0,0
-301,330,0,0,0,0,0,0,0,0,0,-1,923,694,0,0
-294,330,0,0,0,0,0,0,0,0,0,-1,930,694,0,0
-287,330,0,0,0,0,0,0,0,0,0,-1,937,694,0,0
-280,330,0,0,0,0,0,0,0,0,0,-1,944,694,0,0
-273,330,0,0,0,0,0,0,0,0,0,-1,951,694,0,0
-266,330,0,0,0,0,0,0,0,0,0,-1,958,694,0,0
-259,330,0,0,0,0,0,0,0,0,0,-1,965,694,0,0
-252,330,0,0,0,0,0,0,0,0,0,-1,972,694,0,0
-245,330,0,0,0,0,0,0,0,0,0,-1,979,694,0,0
-238,330,0,0,0,0,0,0,0,0,0,-1,986,694,0,0
-231,330,0,0,0,0,0,0,0,0,0,-1,993,694,0,0
-224,330,0,0,0,0,0,0,0,0,0,-1,1000,694,0,0
-217,330,0,0,0,0,0,0,0,0,0,-1,1007,694,0,0
-210,330,0,0,0,0,0,0,0,0,0,-1,1014,694,0,0
-203,330,0,0,0,0,0,0,0,0,0,-1,1021,694,0,0
-196,330,0,0,0,0,0,0,0,0,0,-1,1028,694,0,0
-189,330,0,0,0,0,0,0,0,0,0,-1,1035,694,0,0
-182,330,0,0,0,0,0,0,0,0,0,-1,1042,694,0,0
-175,330,0,0,0,0,0,0,0,0,0,-1,1049,694,0,0
-168,330,0,0,0,0,0,0,0,0,0,-1,1056,694,0,0
-161,330,0,0,0,0,0,0,0,0,0,-1,1063,694,0,0
-154,330,0,0,0,0,0,0,0,0,0,-1,1070,694,0,0
-147,330,0,0,0,0,0,0,0,0,0,-1,1077,694,0,0
-140,330,0,0,0,0,0,0,0,0,0,-1,1084,694,0,0
-133,330,0,0,0,0,0,0,0,0,0,-1,1091,694,0,0
-126,330,0,0,0,0,0,0,0,0,0,-1,1098,694,0,0
-119,330,0,0,0,0,0,0,0,0,0,-1,1105,694,0,0
-112,330,0,0,0,0,0,0,0,0,0,-1,1112,694,0,0
-105,330,0,0,0,0,0,0,0,0,0,-1,1119,694,0,0
-98,330,0,0,0,0,0,0,0,0,0,-1,1126,694,0,0
-91,330,0,0,0,0,0,0,0,0,0,-1,1133,694,0,0
-84,330,0,0,0,0,0,0,0,0,0,-1,1140,694,0,0
-77,330,0,0,0,0,0,0,0,0,0,-1,1147,694,0,0
-70,330,0,0,0,0,0,0,0,0,0,-1,1154,694,0,0
-63,330,0,0,0,0,0,0,0,0,0,-1,1161,694,0,0
-56,330,0,0,0,0,0,0,0,0,0,-1,1168,694,0,0
-49,330,0,0,0,0,0,0,0,0,0,-1,1175,694,0,0
-42,330,0,0,0,0,0,0,0,0,0,-1,1182,694,0,0
-35,330,0,0,0,0,0,0,0,0,0,-1,1189,694,0,0
-28,330,0,0,0,0,0,0,0,0,0,-1,1196,694,0,0
-21,330,0,0,0,0,0,0,0,0,0,-1,1203,694,0,0
-14,330,0,0,0,0,0,0,0,0,0,-1,1210,694,0,0
-7,330,0,0,0,0,0,0,0,0,0,-1,1217,694,0,0
0,330,0,0,0,0,0,0,0,0,0,-1,1224,694,0,0
7,330,0,0,0,0,0,0,0,0,0,-1,1231,694,0,0
14,330,0,0,0,0,0,0,0,0,0,-1,1238,694,0,0
21,330,0,0,0,0,0,0,0,0,0,-1,1245,694,0,0
28,330,0,0,0,0,0,0,0,0,0,-1,1252,694,0,0
35,330,0,0,0,0,0,0,0,0,0,-1,1259,694,0,0
42,330,0,0,0,0,0,0,0,0,0,-1,1266,694,0,0
49,330,0,0,0,0,0,0,0,0,0,-1,1273,694,0,0
56,330,0,0,0,0,0,0,0,0,0,-1,1280,694,0,0
63,330,0,0,0,0,0,0,0,0,0,-1,1287,694,0,0
70,330,0,0,0,0,0,0,0,0,0,-1,1294,694,0,0
77,330,0,0,0,0,0,0,0,0,0,-1,1301,694,0,0
84,330,0,0,0,0,0,0,0,0,0,-1,1308,694,0,0
91,330,0,0,0,0,0,0,0,0,0,-1,1315,694,0,0
98,330,0,0,0,0,0,0,0,0,0,-1,1322,694,0,0
105,330,0,0,0,0,0,0,0,0,0,-1,1329,694,0,0
112,330,0,0,0,0,0,0,0,0,0,-1,1336,694,0,0
119,330,0,0,0,0,0,0,0,0,0,-1,1343,694,0,0
126,330,0,0,0,0,0,0,0,0,0,-1,1350,694,0,0
133,330,0,0,0,0,0,0,0,0,0,-1,1357,694,0,0
140,330,0,0,0,0,0,0,0,0,0,-1,1364,694,0,0
147,330,0,0,0,0,0,0,0,0,0,-1,1371,694,0,0
154,330,0,0,0,0,0,0,0,0,0,-1,1378,694,0,0
161,330,0,0,0,0,0,0,0,0,0,-1,1385,694,0,0
168,330,0,0,0,0,0,0,0,0,0,-1,1392,694,0,0
175,330,0,0,0,0,0,0,0,0,0,-1,1399,694,0,0
182,330,0,0,0,0,0,0,0,0,0,-1,1406,694,0,0
189,330,0,0,0,0,0,0,0,0,0,-1,1413,694,0,0
196,330,0,0,0,0,0,0,0,0,0,-1,1420,694,0,0
203,330,0,0,0,0,0,0,0,0,0,-1,1427,694,0,0
210,330,0,0,0,0,0,0,0,0,0,-1,1434,694,0,0
217,330,0,0,0,0,0,0,0,0,0,-1,1441,694,0,0
224,330,0,0,0,0,0,0,0,0,0,-1,1448,694,0,0
231,330,0,0,0,0,0,0,0,0,0,-1,1455,694,0,0
238,330,0,0,0,0,0,0,0,0,0,-1,1462,694,0,0
245,330,0,0,0,0,0,0,0,0,0,-1,1469,694,0,0
252,330,0,0,0,0,0,0,0,0,0,-1,1476,694,0,0
259,330,0,0,0,0,0,0,0,0,0,-1,1483,694,0,0
266,330,0,0,0,0,0,0,0,0,0,-1,1490,694,0,0
273,330,0,0,0,0,0,0,0,0,0,-1,1497,694,0,0
280,330,0,0,0,0,0,0,0,0,0,-1,1504,694,0,0
287,330,0,0,0,0,0,0,0,0,0,-1,1511,694,0,0
294,330,0,0,0,0,0,0,0,0,0,-1,1518,694,0,0
301,330,0,0,0,0,0,0,0,0,0,-1,1525,694,0,0
308,330,0,0,0,0,0,0,0,0,0,-1,1532,694,0,0
315,330,0,0,0,0,0,0,0,0,0,-1,1539,694,0,0
322,330,0,0,0,0,0,0,0,0,0,-1,1546,694,0,0
329,330,0,0,0,0,0,0,0,0,0,-1,1553,694,0,0
336,330,0,0,0,0,0,0,0,0,0,-1,1560,694,0,0
343,330,0,0,0,0,0,0,0,0,0,-1,1567,694,0,0
350,330,0,0,0,0,0,0,0,0,0,-1,1574,694,0,0
357,330,0,0,0,0,0,0,0,0,0,-1,1581,694,0,0
364,330,0,0,0,0,0,0,0,0,0,-1,1588,694,0,0
371,330,0,0,0,0,0,0,0,0,0,-1,1595,694,0,0
378,330,0,0,0,0,0,0,0,0,0,-1,1602,694,0,0
385,330,0,0,0,0,0,0,0,0,0,-1,1609,694,0,0
392,330,0,0,0,0,0,0,0,0,0,-1,1616,694,0,0
399,330,0,0,0,0,0,0,0,0,0,-1,1623,694,0,0
406,330,0,0,0,0,0,0,0,0,0,-1,1630,694,0,0
413,330,0,0,0,0,0,0,0,0,0,-1,1637,694,0,0
420,330,0,0,0,0,0,0,0,0,0,-1,1644,694,0,0
427,330,0,0,0,0,0,0,0,0,0,-1,1651,694,0,0
434,330,0,0,0,0,0,0,0,0,0,-1,1658,694,0,0
441,330,0,0,0,0,0,0,0,0,0,-1,1665,694,0,0
448,330,0,0,0,0,0,0,0,0,0,-1,1672,694,0,0
455,330,0,0,0,0,0,0,0,0,0,-1,1679,694,0,0
462,330,0,0,0,0,0,0,0,0,0,-1,1686,694,0,0
469,330,0,0,0,0,0,0,0,0,0,-1,1693,694,0,0
476,330,0,0,0,0,0,0,0,0,0,-1,1700,694,0,0
483,330,0,0,0,0,0,0,0,0,0,-1,1707,694,0,0
490,330,0,0,0,0,0,0,0,0,0,-1,1714,694,0,0
497,330,0,0,0,0,0,0,0,0,0,-1,1721,694,0,0
504,330,0,0,0,0,0,0,0,0,0,-1,1728,694,0,0
511,330,0,0,0,0,0,0,0,0,0,-1,1735,694,0,0
518,330,0,0,0,0,0,0,0,0,0,-1,1742,694,0,0
525,330,21.8806,2.67316,0,0,0,0,0,0,0,-1,1749,694,21.8806,-2.67316
532,330,21.4119,3.82379,0,0,0,0,0,0,0,-1,1756,694,21.4118,-3.82381
539,330,22.2223,4.29657,0,0,0,0,0,0,0,-1,1763,694,22.2223,-4.2966
546,330,23.2045,4.75311,0,0,0,0,0,0,0,-1,1770,694,23.2044,-4.7531
553,330,19.3512,3.78687,0,0,0,0,0,0,0,-1,1777,694,19.3512,-3.78684
560,330,31.0944,1.66516,0,0,0,0,0,0,0,-1,1784,694,31.0943,-1.66516
567,330,18.0321,3.98578,0,0,0,0,0,0,0,-1,1791,694,18.0321,-3.98576
574,330,12.0454,2.1662,0,0,0,0,0,0,0,-1,1798,694,12.0455,-2.16618
581,330,11.4215,4.50836,0,0,0,0,0,0,0,-1,1805,694,11.4215,-4.50837
588,330,6.45667,-0.0630493,0,0,0,0,0,0,0,-1,1812,694,6.45661,0.0630695
595,330,8.23193,-0.258484,0,0,0,0,0,0,0,-1,1819,694,8.23188,0.258459
602,330,16.0842,-2.69489,0,0,0,0,0,0,0,-1,1826,694,16.0842,2.69489
609,330,16.3457,-2.10565,0.00404594,0.00223048,-0.000911024,0.00442426,0.00185215,-0.393604,0.0025656,0.0399789,1833,694,16.3457,2.10567
616,330,16.46,-1.68024,0.00312469,0.00139337,-9.50965e-06,0.00312475,0.00139332,-0.00549248,0.00180759,0.0115283,1840,694,16.4599,1.68023
623,330,16.48,-1.33441,0.0021658,0.000757403,0.00021478,0.00219783,0.000725377,0.148019,0.00129312,0.013566,1847,694,16.48,1.33443
630,330,16.4861,-0.96521,0.00109381,0.000151477,0.000337489,0.00120221,4.30777e-05,0.310785,0.000787508,0.0136207,1854,694,16.4861,0.96523
637,330,16.478,-0.598633,0.000600577,-0.000465104,-0.00034073,0.000700204,-0.000564732,-0.284465,0.000731706,0.0121924,1861,694,16.478,0.598645
644,330,16.4513,-0.226257,-0.000145205,-0.00105983,-0.00118896,0.000671356,-0.00187639,-0.601803,0.0015248,0.00780665,1868,694,16.4513,0.226234
651,330,16.4215,0.129211,-0.00085333,-0.00183054,-0.00211685,0.000830569,-0.00351444,-0.671975,0.00266334,0.010848,1875,694,16.4215,-0.129224
658,330,16.399,0.480347,-0.00154145,-0.00275356,-0.00320947,0.00111869,-0.00541369,-0.69208,0.00403406,0.0116003,1882,694,16.3991,-0.480337
665,330,16.4015,0.850037,-0.00226577,-0.0038957,-0.00453567,0.00152757,-0.00768903,-0.696507,0.00570381,0.0101161,1889,694,16.4015,-0.850011
672,330,16.4553,1.21051,-0.00291588,-0.00527971,-0.00612636,0.00214153,-0.0103371,-0.690108,0.0077051,0.0160654,1896,694,16.4553,-1.21052
679,330,16.3022,1.47229,-0.00352586,-0.00707527,-0.00808042,0.00297245,-0.0135736,-0.677299,0.0101855,0.0305653,1903,694,16.3023,-1.47232
686,330,16.5474,1.59576,-0.00396276,-0.00931842,-0.010477,0.00417321,-0.0174544,-0.660281,0.0132483,0.0456695,1910,694,16.5473,-1.59578
693,330,16.8529,1.51208,0,0,0,0,0,0,0,-1,1917,694,16.853,-1.51207
700,330,17.1072,4.13,0,0,0,0,0,0,0,-1,1924,694,17.1071,-4.13002
707,330,16.663,4.88672,0,0,0,0,0,0,0,-1,1931,694,16.6629,-4.88673
714,330,16.5454,5.80896,0,0,0,0,0,0,0,-1,1938,694,16.5454,-5.80899
721,330,0,0,0,0,0,0,0,0,0,-1,1945,694,0,0
728,330,0,0,0,0,0,0,0,0,0,-1,1952,694,0,0
735,330,0,0,0,0,0,0,0,0,0,-1,1959,694,0,0
742,330,0,0,0,0,0,0,0,0,0,-1,1966,694,0,0
749,330,0,0,0,0,0,0,0,0,0,-1,1973,694,0,0
756,330,0,0,0,0,0,0,0,0,0,-1,1980,694,0,0
763,330,0,0,0,0,0,0,0,0,0,-1,1987,694,0,0
770,330,0,0,0,0,0,0,0,0,0,-1,1994,694,0,0
777,330,0,0,0,0,0,0,0,0,0,-1,2001,694,0,0
784,330,0,0,0,0,0,0,0,0,0,-1,2008,694,0,0
791,330,0,0,0,0,0,0,0,0,0,-1,2015,694,0,0
798,330,0,0,0,0,0,0,0,0,0,-1,2022,694,0,0
805,330,0,0,0,0,0,0,0,0,0,-1,2029,694,0,0
812,330,0,0,0,0,0,0,0,0,0,-1,2036,694,0,0
-700,323,0,0,0,0,0,0,0,0,0,-1,524,701,0,0
-693,323,0,0,0,0,0,0,0,0,0,-1,531,701,0,0
-686,323,0,0,0,0,0,0,0,0,0,-1,538,701,0,0
-679,323,0,0,0,0,0,0,0,0,0,-1,545,701,0,0
-672,323,0,0,0,0,0,0,0,0,0,-1,552,701,0,0
-665,323,0,0,0,0,0,0,0,0,0,-1,559,701,0,0
-658,323,0,0,0,0,0,0,0,0,0,-1,566,701,0,0
-651,323,0,0,0,0,0,0,0,0,0,-1,573,701,0,0
-644,323,0,0,0,0,0,0,0,0,0,-1,580,701,0,0
-637,323,0,0,0,0,0,0,0,0,0,-1,587,701,0,0
-630,323,0,0,0,0,0,0,0,0,0,-1,594,701,0,0
-623,323,0,0,0,0,0,0,0,0,0,-1,601,701,0,0
-616,323,0,0,0,0,0,0,0,0,0,-1,608,701,0,0
-609,323,0,0,0,0,0,0,0,0,0,-1,615,701,0,0
-602,323,-4.15833,2.12256,0,0,0,0,0,0,0,-1,622,701,-4.1583,-2.12257
-595,323,-4.052,1.79156,0,0,0,0,0,0,0,-1,629,701,-4.05198,-1.79158
-588,323,-4.07019,1.94543,0,0,0,0,0,0,0,-1,636,701,-4.07019,-1.94542
-581,323,-6.63727,0.562805,0,0,0,0,0,0,0,-1,643,701,-6.63728,-0.56279
-574,323,-6.15887,0.426697,0,0,0,0,0,0,0,-1,650,701,-6.15887,-0.426727
-567,323,-8.20746,0.122803,0,0,0,0,0,0,0,-1,657,701,-8.20745,-0.122813
-560,323,-9.09265,-0.872925,0,0,0,0,0,0,0,-1,664,701,-9.09267,0.872952
-553,323,-9.49713,-0.509583,0.00119008,0.0167769,-0.00623964,0.018967,-0.00100001,-1.23323,0.0129908,0.035258,671,701,-9.49714,0.509585
-546,323,-9.47473,-0.805542,0.00173583,0.0134936,-0.00560812,0.0157395,-0.000510079,-1.18988,0.0106671,0.0134124,678,701,-9.47471,0.805571
-539,323,-9.47565,-1.11566,0.00197944,0.0107128,-0.00484908,0.0128716,-0.000179325,-1.15195,0.00864146,0.012686,685,701,-9.47564,1.11564
-532,323,-9.5036,-1.46948,0.00196706,0.0081324,-0.00396125,0.0100691,3.03318e-05,-1.11605,0.00670266,0.00995295,692,701,-9.50362,1.46949
-525,323,-9.52533,-1.8183,0.00177878,0.00580536,-0.00300249,0.00740708,0.00017706,-1.08074,0.0048801,0.00808661,699,701,-9.52532,1.81831
-518,323,-9.5199,-2.14087,0.00148965,0.00387117,-0.00201333,0.00501951,0.000341302,-1.05245,0.00323857,0.00974245,706,701,-9.51991,2.14084
-511,323,-9.54004,-2.4895,0.00116393,0.00247249,-0.00100896,0.00302074,0.000615676,-1.07305,0.0018432,0.0138212,713,701,-9.54003,2.4895
-504,323,-9.54883,-2.84314,0.000616796,0.00184407,6.70416e-05,0.00184772,0.000613145,1.51639,0.00108671,0.0157611,720,701,-9.54886,2.84312
-497,323,-9.54565,-3.16315,-0.000176056,0.00224427,0.00115319,0.00270574,-0.000637518,1.19015,0.00204965,0.0123319,727,701,-9.54566,3.16316
-490,323,-9.54535,-3.51624,-0.00100719,0.00342854,0.00229761,0.0044041,-0.00198275,1.16927,0.00377474,0.0129113,734,701,-9.54535,3.51624
-483,323,-9.53357,-3.86542,-0.00215128,0.00562387,0.0035614,0.00700856,-0.00353597,1.19998,0.00619696,0.0205922,741,701,-9.53359,3.86544
-476,323,-9.50043,-4.21667,0,0,0,0,0,0,0,-1,748,701,-9.50042,4.21669
-469,323,-8.33301,-3.64001,0,0,0,0,0,0,0,-1,755,701,-8.33298,3.64
-462,323,-5.29431,-1.45697,0,0,0,0,0,0,0,-1,762,701,-5.29431,1.45699
-455,323,-5.0658,-1.36639,0,0,0,0,0,0,0,-1,769,701,-5.06578,1.3664
-448,323,-4.91608,-1.59601,0,0,0,0,0,0,0,-1,776,701,-4.91606,1.59604
-441,323,-14.4006,0.535217,0,0,0,0,0,0,0,-1,783,701,-14.4006,-0.535203
-434,323,-15.3158,2.479,0,0,0,0,0,0,0,-1,790,701,-15.3158,-2.47898
-427,323,-15.4075,2.98248,0,0,0,0,0,0,0,-1,797,701,-15.4075,-2.98248
-420,323,-14.8839,3.49579,0,0,0,0,0,0,0,-1,804,701,-14.8839,-3.49579
-413,323,-14.0645,4.22607,0,0,0,0,0,0,0,-1,811,701,-14.0645,-4.22605
-406,323,0,0,0,0,0,0,0,0,0,-1,818,701,0,0
-399,323,0,0,0,0,0,0,0,0,0,-1,825,701,0,0
-392,323,0,0,0,0,0,0,0,0,0,-1,832,701,0,0
-385,323,0,0,0,0,0,0,0,0,0,-1,839,701,0,0
-378,323,0,0,0,0,0,0,0,0,0,-1,846,701,0,0
-371,323,0,0,0,0,0,0,0,0,0,-1,853,701,0,0
-364,323,0,0,0,0,0,0,0,0,0,-1,860,701,0,0
-357,323,0,0,0,0,0,0,0,0,0,-1,867,701,0,0
-350,323,0,0,0,0,0,0,0,0,0,-1,874,701,0,0
-343,323,0,0,0,0,0,0,0,0,0,-1,881,701,0,0
-336,323,0,0,0,0,0,0,0,0,0,-1,888,701,0,0
-329,323,0,0,0,0,0,0,0,0,0,-1,895,701,0,0
-322,323,0,0,0,0,0,0,0,0,0,-1,902,701,0,0
-315,323,0,0,0,0,0,0,0,0,0,-1,909,701,0,0
-308,323,0,0,0,0,0,0,0,0,0,-1,916,701,0,0
-301,323,0,0,0,0,0,0,0,0,0,-1,923,701,0,0
-294,323,0,0,0,0,0,0,0,0,0,-1,930,701,0,0
-287,323,0,0,0,0,0,0,0,0,0,-1,937,701,0,0
-280,323,0,0,0,0,0,0,0,0,0,-1,944,701,0,0
-273,323,0,0,0,0,0,0,0,0,0,-1,951,701,0,0
-266,323,0,0,0,0,0,0,0,0,0,-1,958,701,0,0
-259,323,0,0,0,0,0,0,0,0,0,-1,965,701,0,0
-252,323,0,0,0,0,0,0,0,0,0,-1,972,701,0,0
-245,323,0,0,0,0,0,0,0,0,0,-1,979,701,0,0
-238,323,0,0,0,0,0,0,0,0,0,-1,986,701,0,0
-231,323,0,0,0,0,0,0,0,0,0,-1,993,701,0,0
-224,323,0,0,0,0,0,0,0,0,0,-1,1000,701,0,0
-217,323,0,0,0,0,0,0,0,0,0,-1,1007,701,0,0
-210,323,0,0,0,0,0,0,0,0,0,-1,1014,701,0,0
-203,323,0,0,0,0,0,0,0,0,0,-1,1021,701,0,0
-196,323,0,0,0,0,0,0,0,0,0,-1,1028,701,0,0
-189,323,0,0,0,0,0,0,0,0,0,-1,1035,701,0,0
-182,323,0,0,0,0,0,0,0,0,0,-1,1042,701,0,0
-175,323,0,0,0,0,0,0,0,0,0,-1,1049,701,0,0
-168,323,0,0,0,0,0,0,0,0,0,-1,1056,701,0,0
-161,323,0,0,0,0,0,0,0,0,0,-1,1063,701,0,0
-154,323,0,0,0,0,0,0,0,0,0,-1,1070,701,0,0
-147,323,0,0,0,0,0,0,0,0,0,-1,1077,701,0,0
-140,323,0,0,0,0,0,0,0,0,0,-1,1084,701,0,0
-133,323,0,0,0,0,0,0,0,0,0,-1,1091,701,0,0
-126,323,0,0,0,0,0,0,0,0,0,-1,1098,701,0,0
-119,323,0,0,0,0,0,0,0,0,0,-1,1105,701,0,0
-112,323,0,0,0,0,0,0,0,0,0,-1,1112,701,0,0
-105,323,0,0,0,0,0,0,0,0,0,-1,1119,701,0,0
-98,323,0,0,0,0,0,0,0,0,0,-1,1126,701,0,0
-91,323,0,0,0,0,0,0,0,0,0,-1,1133,701,0,0
-84,323,0,0,0,0,0,0,0,0,0,-1,1140,701,0,0
-77,323,0,0,0,0,0,0,0,0,0,-1,1147,701,0,0
-70,323,0,0,0,0,0,0,0,0,0,-1,1154,701,0,0
-63,323,0,0,0,0,0,0,0,0,0,-1,1161,701,0,0
-56,323,0,0,0,0,0,0,0,0,0,-1,1168,701,0,0
-49,323,0,0,0,0,0,0,0,0,0,-1,1175,701,0,0
-42,323,0,0,0,0,0,0,0,0,0,-1,1182,701,0,0
-35,323,0,0,0,0,0,0,0,0,0,-1,1189,701,0,0
-28,323,0,0,0,0,0,0,0,0,0,-1,1196,701,0,0
-21,323,0,0,0,0,0,0,0,0,0,-1,1203,701,0,0
-14,323,0,0,0,0,0,0,0,0,0,-1,1210,701,0,0
-7,323,0,0,0,0,0,0,0,0,0,-1,1217,701,0,0
0,323,0,0,0,0,0,0,0,0,0,-1,1224,701,0,0
7,323,0,0,0,0,0,0,0,0,0,-1,1231,701,0,0
14,323,0,0,0,0,0,0,0,0,0,-1,1238,701,0,0
21,323,0,0,0,0,0,0,0,0,0,-1,1245,701,0,0
28,323,0,0,0,0,0,0,0,0,0,-1,1252,701,0,0
35,323,0,0,0,0,0,0,0,0,0,-1,1259,701,0,0
42,323,0,0,0,0,0,0,0,0,0,-1,1266,701,0,0
49,323,0,0,0,0,0,0,0,0,0,-1,1273,701,0,0
56,323,0,0,0,0,0,0,0,0,0,-1,1280,701,0,0
63,323,0,0,0,0,0,0,0,0,0,-1,1287,701,0,0
70,323,0,0,0,0,0,0,0,0,0,-1,1294,701,0,0
77,323,0,0,0,0,0,0,0,0,0,-1,1301,701,0,0
84,323,0,0,0,0,0,0,0,0,0,-1,1308,701,0,0
91,323,0,0,0,0,0,0,0,0,0,-1,1315,701,0,0
98,323,0,0,0,0,0,0,0,0,0,-1,1322,701,0,0
105,323,0,0,0,0,0,0,0,0,0,-1,1329,701,0,0
112,323,0,0,0,0,0,0,0,0,0,-1,1336,701,0,0
119,323,0,0,0,0,0,0,0,0,0,-1,1343,701,0,0
126,323,0,0,0,0,0,0,0,0,0,-1,1350,701,0,0
133,323,0,0,0,0,0,0,0,0,0,-1,1357,701,0,0
140,323,0,0,0,0,0,0,0,0,0,-1,1364,701,0,0
147,323,0,0,0,0,0,0,0,0,0,-1,1371,701,0,0
154,323,0,0,0,0,0,0,0,0,0,-1,1378,701,0,0
161,323,0,0,0,0,0,0,0,0,0,-1,1385,701,0,0
168,323,0,0,0,0,0,0,0,0,0,-1,1392,701,0,0
175,323,0,0,0,0,0,0,0,0,0,-1,1399,701,0,0
182,323,0,0,0,0,0,0,0,0,0,-1,1406,701,0,0
189,323,0,0,0,0,0,0,0,0,0,-1,1413,701,0,0
196,323,0,0,0,0,0,0,0,0,0,-1,1420,701,0,0
203,323,0,0,0,0,0,0,0,0,0,-1,1427,701,0,0
210,323,0,0,0,0,0,0,0,0,0,-1,1434,701,0,0
217,323,0,0,0,0,0,0,0,0,0,-1,1441,701,0,0
224,323,0,0,0,0,0,0,0,0,0,-1,1448,701,0,0
231,323,0,0,0,0,0,0,0,0,0,-1,1455,701,0,0
238,323,0,0,0,0,0,0,0,0,0,-1,1462,701,0,0
245,323,0,0,0,0,0,0,0,0,0,-1,1469,701,0,0
252,323,0,0,0,0,0,0,0,0,0,-1,1476,701,0,0
259,323,0,0,0,0,0,0,0,0,0,-1,1483,701,0,0
266,323,0,0,0,0,0,0,0,0,0,-1,1490,701,0,0
273,323,0,0,0,0,0,0,0,0,0,-1,1497,701,0,0
280,323,0,0,0,0,0,0,0,0,0,-1,1504,701,0,0
287,323,0,0,0,0,0,0,0,0,0,-1,1511,701,0,0
294,323,0,0,0,0,0,0,0,0,0,-1,1518,701,0,0
301,323,0,0,0,0,0,0,0,0,0,-1,1525,701,0,0
308,323,0,0,0,0,0,0,0,0,0,-1,1532,701,0,0
315,323,0,0,0,0,0,0,0,0,0,-1,1539,701,0,0
322,323,0,0,0,0,0,0,0,0,0,-1,1546,701,0,0
329,323,0,0,0,0,0,0,0,0,0,-1,1553,701,0,0
336,323,0,0,0,0,0,0,0,0,0,-1,1560,701,0,0
343,323,0,0,0,0,0,0,0,0,0,-1,1567,701,0,0
350,323,0,0,0,0,0,0,0,0,0,-1,1574,701,0,0
357,323,0,0,0,0,0,0,0,0,0,-1,1581,701,0,0
364,323,0,0,0,0,0,0,0,0,0,-1,1588,701,0,0
371,323,0,0,0,0,0,0,0,0,0,-1,1595,701,0,0
378,323,0,0,0,0,0,0,0,0,0,-1,1602,701,0,0
385,323,0,0,0,0,0,0,0,0,0,-1,1609,701,0,0
392,323,0,0,0,0,0,0,0,0,0,-1,1616,701,0,0
399,323,0,0,0,0,0,0,0,0,0,-1,1623,701,0,0
406,323,0,0,0,0,0,0,0,0,0,-1,1630,701,0,0
413,323,0,0,0,0,0,0,0,0,0,-1,1637,701,0,0
420,323,0,0,0,0,0,0,0,0,0,-1,1644,701,0,0
427,323,0,0,0,0,0,0,0,0,0,-1,1651,701,0,0
434,323,0,0,0,0,0,0,0,0,0,-1,1658,701,0,0
441,323,0,0,0,0,0,0,0,0,0,-1,1665,701,0,0
448,323,0,0,0,0,0,0,0,0,0,-1,1672,701,0,0
455,323,0,0,0,0,0,0,0,0,0,-1,1679,701,0,0
462,323,0,0,0,0,0,0,0,0,0,-1,1686,701,0,0
469,323,0,0,0,0,0,0,0,0,0,-1,1693,701,0,0
476,323,0,0,0,0,0,0,0,0,0,-1,1700,701,0,0
483,323,0,0,0,0,0,0,0,0,0,-1,1707,701,0,0
490,323,0,0,0,0,0,0,0,0,0,-1,1714,701,0,0
497,323,0,0,0,0,0,0,0,0,0,-1,1721,701,0,0
504,323,0,0,0,0,0,0,0,0,0,-1,1728,701,0,0
511,323,0,0,0,0,0,0,0,0,0,-1,1735,701,0,0
518,323,0,0,0,0,0,0,0,0,0,-1,1742,701,0,0
525,323,0,0,0,0,0,0,0,0,0,-1,1749,701,0,0
532,323,22.2468,2.71307,0,0,0,0,0,0,0,-1,1756,701,22.2468,-2.71308
539,323,22.6949,3.42468,0,0,0,0,0,0,0,-1,1763,701,22.6949,-3.4247
546,323,23.5679,4.21869,0,0,0,0,0,0,0,-1,1770,701,23.5679,-4.21866
553,323,28.6703,3.07184,0,0,0,0,0,0,0,-1,1777,701,28.6703,-3.07183
560,323,30.0328,1.90747,0,0,0,0,0,0,0,-1,1784,701,30.0328,-1.9075
567,323,30.9888,1.33337,0,0,0,0,0,0,0,-1,1791,701,30.9888,-1.33339
574,323,12.514,5.89685,0,0,0,0,0,0,0,-1,1798,701,12.5141,-5.89683
581,323,11.821,5.3476,0,0,0,0,0,0,0,-1,1805,701,11.821,-5.34762
588,323,11.7933,7.00818,0,0,0,0,0,0,0,-1,1812,701,11.7933,-7.00819
595,323,6.67847,0.06604,0,0,0,0,0,0,0,-1,1819,701,6.67841,-0.0660418
602,323,11.2856,-0.595459,0,0,0,0,0,0,0,-1,1826,701,11.2856,0.595433
609,323,16.5369,-2.26154,0,0,0,0,0,0,0,-1,1833,701,16.5369,2.26153
616,323,16.8206,-1.67572,0.0022103,0.00258143,-8.94974e-06,0.00258165,0.00221008,-1.5467,0.00161158,0.0149904,1840,701,16.8206,1.67574
623,323,16.8479,-1.3161,0.00157176,0.00141988,0.000298727,0.00180405,0.00118759,0.660931,0.00105882,0.0125832,1847,701,16.8478,1.31612
630,323,16.8396,-0.937927,0.000576325,0.000475989,0.000697288,0.00122525,-0.000172933,0.749486,0.000880157,0.0136557,1854,701,16.8396,0.93791
637,323,16.8403,-0.5802,0.000367946,-0.000165971,-7.1407e-05,0.000377331,-0.000175356,-0.130682,0.000326119,0.0103045,1861,701,16.8403,0.580205
644,323,16.8313,-0.221069,-0.000101868,-0.000730125,-0.000934286,0.000569684,-0.00140168,-0.623223,0.00117147,0.00704561,1868,701,16.8313,0.221075
651,323,16.8087,0.141357,-0.000644811,-0.00142395,-0.00175738,0.000765661,-0.00283442,-0.676324,0.00218991,0.00918936,1875,701,16.8087,-0.14133
658,323,16.7596,0.497559,-0.00122442,-0.0021675,-0.00264569,0.000991421,-0.00438334,-0.69721,0.00330268,0.0125403,1882,701,16.7597,-0.497558
665,323,16.7424,0.86969,-0.00185574,-0.00306402,-0.00372985,0.00131858,-0.00623834,-0.705109,0.00466101,0.0112725,1889,701,16.7424,-0.869716
672,323,16.7642,1.24927,-0.00245762,-0.00409518,-0.00498858,0.00177892,-0.00833173,-0.704058,0.00623267,0.0104258,1896,701,16.7642,-1.24926
679,323,16.7054,1.59424,-0.00303027,-0.00538595,-0.00649753,0.00239531,-0.0108115,-0.695734,0.00812468,0.0223648,1903,701,16.7054,-1.59421
686,323,16.8324,1.55786,-0.00362227,-0.00697524,-0.00845035,0.0033163,-0.0139138,-0.687474,0.0105564,0.0422744,1910,701,16.8324,-1.55788
693,323,17.0471,1.52899,0,0,0,0,0,0,0,-1,1917,701,17.0471,-1.52901
700,323,10.7705,0.828613,0,0,0,0,0,0,0,-1,1924,701,10.7705,-0.828591
707,323,16.9005,4.79193,0,0,0,0,0,0,0,-1,1931,701,16.9005,-4.7919
714,323,16.2346,6.25958,0,0,0,0,0,0,0,-1,1938,701,16.2346,-6.25956
721,323,0,0,0,0,0,0,0,0,0,-1,1945,701,0,0
728,323,0,0,0,0,0,0,0,0,0,-1,1952,701,0,0
735,323,0,0,0,0,0,0,0,0,0,-1,1959,701,0,0
742,323,0,0,0,0,0,0,0,0,0,-1,1966,701,0,0
749,323,0,0,0,0,0,0,0,0,0,-1,1973,701,0,0
756,323,0,0,0,0,0,0,0,0,0,-1,1980,701,0,0
763,323,0,0,0,0,0,0,0,0,0,-1,1987,701,0,0
770,323,0,0,0,0,0,0,0,0,0,-1,1994,701,0,0
777,323,0,0,0,0,0,0,0,0,0,-1,2001,701,0,0
784,323,0,0,0,0,0,0,0,0,0,-1,2008,701,0,0
791,323,0,0,0,0,0,0,0,0,0,-1,2015,701,0,0
798,323,0,0,0,0,0,0,0,0,0,-1,2022,701,0,0
805,323,0,0,0,0,0,0,0,0,0,-1,2029,701,0,0
812,323,0,0,0,0,0,0,0,0,0,-1,2036,701,0,0
-700,316,0,0,0,0,0,0,0,0,0,-1,524,708,0,0
-693,316,0,0,0,0,0,0,0,0,0,-1,531,708,0,0
-686,316,0,0,0,0,0,0,0,0,0,-1,538,708,0,0
-679,316,0,0,0,0,0,0,0,0,0,-1,545,708,0,0
-672,316,0,0,0,0,0,0,0,0,0,-1,552,708,0,0
-665,316,0,0,0,0,0,0,0,0,0,-1,559,708,0,0
-658,316,0,0,0,0,0,0,0,0,0,-1,566,708,0,0
-651,316,0,0,0,0,0,0,0,0,0,-1,573,708,0,0
-644,316,0,0,0,0,0,0,0,0,0,-1,580,708,0,0
-637,316,0,0,0,0,0,0,0,0,0,-1,587,708,0,0
-630,316,0,0,0,0,0,0,0,0,0,-1,594,708,0,0
-623,316,0,0,0,0,0,0,0,0,0,-1,601,708,0,0
-616,316,0,0,0,0,0,0,0,0,0,-1,608,708,0,0
-609,316,0,0,0,0,0,0,0,0,0,-1,615,708,0,0
-602,316,-0.451782,-0.0494995,0,0,0,0,0,0,0,-1,622,708,-0.451768,0.0495022
-595,316,-3.3761,2.17188,0,0,0,0,0,0,0,-1,629,708,-3.37609,-2.17189
-588,316,-5.00177,2.60675,0,0,0,0,0,0,0,-1,636,708,-5.00175,-2.60676
-581,316,-3.94653,0.393433,0,0,0,0,0,0,0,-1,643,708,-3.94655,-0.39342
-574,316,-7.51819,2.09735,0,0,0,0,0,0,0,-1,650,708,-7.51818,-2.09732
-567,316,-8.97015,-0.511475,0,0,0,0,0,0,0,-1,657,708,-8.97014,0.51147
-560,316,-9.29938,-0.580078,0,0,0,0,0,0,0,-1,664,708,-9.29936,0.580087
-553,316,-9.69061,-0.499207,-0.00157538,0.0119302,-0.00303716,0.0125818,-0.00222695,-1.35947,0.00922023,0.0341202,671,708,-9.69063,0.499203
-546,316,-9.87317,-0.760071,-0.000628855,0.00964803,-0.00289743,0.0104086,-0.00138946,-1.31408,0.00744558,0.0195205,678,708,-9.87319,0.760085
-539,316,-9.82855,-1.1402,2.56547e-05,0.00761752,-0.00267244,0.0084639,-0.000820721,-1.26408,0.00593512,0.0132566,685,708,-9.82855,1.14017
-532,316,-9.84198,-1.47131,0.000491985,0.00571134,-0.0022595,0.00655358,-0.000350259,-1.21399,0.00449036,0.0108166,692,708,-9.84197,1.47134
-525,316,-9.85767,-1.80835,0.000724287,0.00401365,-0.00169054,0.00472755,1.03882e-05,-1.17122,0.00314824,0.00897337,699,708,-9.85764,1.80834
-518,316,-9.83899,-2.14111,0.000745335,0.00271715,-0.000903843,0.00306876,0.000393727,-1.1998,0.00192804,0.00898105,706,708,-9.83897,2.1411
-511,316,-9.84686,-2.4823,0.000619265,0.00192372,8.96892e-05,0.00192986,0.000613127,1.50247,0.00113862,0.011254,713,708,-9.84689,2.48232
-504,316,-9.86896,-2.836,0.000148305,0.00195492,0.00136218,0.00268609,-0.000582861,1.07817,0.00201334,0.0151245,720,708,-9.86898,2.83602
-497,316,-9.87518,-3.14709,-0.000727466,0.00312299,0.00281425,0.00460752,-0.002212,1.08539,0.00401741,0.0126716,727,708,-9.87516,3.14712
-490,316,-9.88586,-3.49652,-0.00171989,0.00488064,0.0045857,0.00723019,-0.00406944,1.09731,0.00660837,0.0149042,734,708,-9.88585,3.49651
-483,316,-9.86969,-3.91052,0,0,0,0,0,0,0,-1,741,708,-9.8697,3.9105
-476,316,-8.90894,-3.31207,0,0,0,0,0,0,0,-1,748,708,-8.90896,3.31206
-469,316,-6.24194,-1.42725,0,0,0,0,0,0,0,-1,755,708,-6.24192,1.42725
-462,316,-5.74237,-1.40039,0,0,0,0,0,0,0,-1,762,708,-5.74238,1.40039
-455,316,-5.44745,-1.21899,0,0,0,0,0,0,0,-1,769,708,-5.44746,1.21898
-448,316,-14.8945,0.655396,0,0,0,0,0,0,0,-1,776,708,-14.8946,-0.655396
-441,316,-14.9626,0.576111,0,0,0,0,0,0,0,-1,783,708,-14.9626,-0.576115
-434,316,-15.272,0.942993,0,0,0,0,0,0,0,-1,790,708,-15.272,-0.942979
-427,316,-14.6848,3.17792,0,0,0,0,0,0,0,-1,797,708,-14.6848,-3.1779
-420,316,-13.5587,2.737,0,0,0,0,0,0,0,-1,804,708,-13.5587,-2.73703
-413,316,0,0,0,0,0,0,0,0,0,-1,811,708,0,0
-406,316,0,0,0,0,0,0,0,0,0,-1,818,708,0,0
-399,316,0,0,0,0,0,0,0,0,0,-1,825,708,0,0
-392,316,0,0,0,0,0,0,0,0,0,-1,832,708,0,0
-385,316,0,0,0,0,0,0,0,0,0,-1,839,708,0,0
-378,316,0,0,0,0,0,0,0,0,0,-1,846,708,0,0
-371,316,0,0,0,0,0,0,0,0,0,-1,853,708,0,0
-364,316,0,0,0,0,0,0,0,0,0,-1,860,708,0,0
-357,316,0,0,0,0,0,0,0,0,0,-1,867,708,0,0
-350,316,0,0,0,0,0,0,0,0,0,-1,874,708,0,0
-343,316,0,0,0,0,0,0,0,0,0,-1,881,708,0,0
-336,316,0,0,0,0,0,0,0,0,0,-1,888,708,0,0
-329,316,0,0,0,0,0,0,0,0,0,-1,895,708,0,0
-322,316,0,0,0,0,0,0,0,0,0,-1,902,708,0,0
-315,316,0,0,0,0,0,0,0,0,0,-1,909,708,0,0
-308,316,0,0,0,0,0,0,0,0,0,-1,916,708,0,0
-301,316,0,0,0,0,0,0,0,0,0,-1,923,708,0,0
-294,316,0,0,0,0,0,0,0,0,0,-1,930,708,0,0
-287,316,0,0,0,0,0,0,0,0,0,-1,937,708,0,0
-280,316,0,0,0,0,0,0,0,0,0,-1,944,708,0,0
-273,316,0,0,0,0,0,0,0,0,0,-1,951,708,0,0
-266,316,0,0,0,0,0,0,0,0,0,-1,958,708,0,0
-259,316,0,0,0,0,0,0,0,0,0,-1,965,708,0,0
-252,316,0,0,0,0,0,0,0,0,0,-1,972,708,0,0
-245,316,0,0,0,0,0,0,0,0,0,-1,979,708,0,0
-238,316,0,0,0,0,0,0,0,0,0,-1,986,708,0,0
-231,316,0,0,0,0,0,0,0,0,0,-1,993,708,0,0
-224,316,0,0,0,0,0,0,0,0,0,-1,1000,708,0,0
-217,316,0,0,0,0,0,0,0,0,0,-1,1007,708,0,0
-210,316,0,0,0,0,0,0,0,0,0,-1,1014,708,0,0
-203,316,0,0,0,0,0,0,0,0,0,-1,1021,708,0,0
-196,316,0,0,0,0,0,0,0,0,0,-1,1028,708,0,0
-189,316,0,0,0,0,0,0,0,0,0,-1,1035,708,0,0
-182,316,0,0,0,0,0,0,0,0,0,-1,1042,708,0,0
-175,316,0,0,0,0,0,0,0,0,0,-1,1049,708,0,0
-168,316,0,0,0,0,0,0,0,0,0,-1,1056,708,0,0
-161,316,0,0,0,0,0,0,0,0,0,-1,1063,708,0,0
-154,316,0,0,0,0,0,0,0,0,0,-1,1070,708,0,0
-147,316,0,0,0,0,0,0,0,0,0,-1,1077,708,0,0
-140,316,0,0,0,0,0,0,0,0,0,-1,1084,708,0,0
-133,316,0,0,0,0,0,0,0,0,0,-1,1091,708,0,0
-126,316,0,0,0,0,0,0,0,0,0,-1,1098,708,0,0
-119,316,0,0,0,0,0,0,0,0,0,-1,1105,708,0,0
-112,316,0,0,0,0,0,0,0,0,0,-1,1112,708,0,0
-105,316,0,0,0,0,0,0,0,0,0,-1,1119,708,0,0
-98,316,0,0,0,0,0,0,0,0,0,-1,1126,708,0,0
-91,316,0,0,0,0,0,0,0,0,0,-1,1133,708,0,0
-84,316,0,0,0,0,0,0,0,0,0,-1,1140,708,0,0
-77,316,0,0,0,0,0,0,0,0,0,-1,1147,708,0,0
-70,316,0,0,0,0,0,0,0,0,0,-1,1154,708,0,0
-63,316,0,0,0,0,0,0,0,0,0,-1,1161,708,0,0
-56,316,0,0,0,0,0,0,0,0,0,-1,1168,708,0,0
-49,316,0,0,0,0,0,0,0,0,0,-1,1175,708,0,0
-42,316,0,0,0,0,0,0,0,0,0,-1,1182,708,0,0
-35,316,0,0,0,0,0,0,0,0,0,-1,1189,708,0,0
-28,316,0,0,0,0,0,0,0,0,0,-1,1196,708,0,0
-21,316,0,0,0,0,0,0,0,0,0,-1,1203,708,0,0
-14,316,0,0,0,0,0,0,0,0,0,-1,1210,708,0,0
-7,316,0,0,0,0,0,0,0,0,0,-1,1217,708,0,0
0,316,0,0,0,0,0,0,0,0,0,-1,1224,708,0,0
7,316,0,0,0,0,0,0,0,0,0,-1,1231,708,0,0
14,316,0,0,0,0,0,0,0,0,0,-1,1238,708,0,0
21,316,0,0,0,0,0,0,0,0,0,-1,1245,708,0,0
28,316,0,0,0,0,0,0,0,0,0,-1,1252,708,0,0
35,316,0,0,0,0,0,0,0,0,0,-1,1259,708,0,0
42,316,0,0,0,0,0,0,0,0,0,-1,1266,708,0,0
49,316,0,0,0,0,0,0,0,0,0,-1,1273,708,0,0
56,316,0,0,0,0,0,0,0,0,0,-1,1280,708,0,0
63,316,0,0,0,0,0,0,0,0,0,-1,1287,708,0,0
70,316,0,0,0,0,0,0,0,0,0,-1,1294,708,0,0
77,316,0,0,0,0,0,0,0,0,0,-1,1301,708,0,0
84,316,0,0,0,0,0,0,0,0,0,-1,1308,708,0,0
91,316,0,0,0,0,0,0,0,0,0,-1,1315,708,0,0
98,316,0,0,0,0,0,0,0,0,0,-1,1322,708,0,0
105,316,0,0,0,0,0,0,0,0,0,-1,1329,708,0,0
112,316,0,0,0,0,0,0,0,0,0,-1,1336,708,0,0
119,316,0,0,0,0,0,0,0,0,0,-1,1343,708,0,0
126,316,0,0,0,0,0,0,0,0,0,-1,1350,708,0,0
133,316,0,0,0,0,0,0,0,0,0,-1,1357,708,0,0
140,316,0,0,0,0,0,0,0,0,0,-1,1364,708,0,0
147,316,0,0,0,0,0,0,0,0,0,-1,1371,708,0,0
154,316,0,0,0,0,0,0,0,0,0,-1,1378,708,0,0
161,316,0,0,0,0,0,0,0,0,0,-1,1385,708,0,0
168,316,0,0,0,0,0,0,0,0,0,-1,1392,708,0,0
175,316,0,0,0,0,0,0,0,0,0,-1,1399,708,0,0
182,316,0,0,0,0,0,0,0,0,0,-1,1406,708,0,0
189,316,0,0,0,0,0,0,0,0,0,-1,1413,708,0,0
196,316,0,0,0,0,0,0,0,0,0,-1,1420,708,0,0
203,316,0,0,0,0,0,0,0,0,0,-1,1427,708,0,0
210,316,0,0,0,0,0,0,0,0,0,-1,1434,708,0,0
217,316,0,0,0,0,0,0,0,0,0,-1,1441,708,0,0
224,316,0,0,0,0,0,0,0,0,0,-1,1448,708,0,0
231,316,0,0,0,0,0,0,0,0,0,-1,1455,708,0,0
238,316,0,0,0,0,0,0,0,0,0,-1,1462,708,0,0
245,316,0,0,0,0,0,0,0,0,0,-1,1469,708,0,0
252,316,0,0,0,0,0,0,0,0,0,-1,1476,708,0,0
259,316,0,0,0,0,0,0,0,0,0,-1,1483,708,0,0
266,316,0,0,0,0,0,0,0,0,0,-1,1490,708,0,0
273,316,0,0,0,0,0,0,0,0,0,-1,1497,708,0,0
280,316,0,0,0,0,0,0,0,0,0,-1,1504,708,0,0
287,316,0,0,0,0,0,0,0,0,0,-1,1511,708,0,0
294,316,0,0,0,0,0,0,0,0,0,-1,1518,708,0,0
301,316,0,0,0,0,0,0,0,0,0,-1,1525,708,0,0
308,316,0,0,0,0,0,0,0,0,0,-1,1532,708,0,0
315,316,0,0,0,0,0,0,0,0,0,-1,1539,708,0,0
322,316,0,0,0,0,0,0,0,0,0,-1,1546,708,0,0
329,316,0,0,0,0,0,0,0,0,0,-1,1553,708,0,0
336,316,0,0,0,0,0,0,0,0,0,-1,1560,708,0,0
343,316,0,0,0,0,0,0,0,0,0,-1,1567,708,0,0
350,316,0,0,0,0,0,0,0,0,0,-1,1574,708,0,0
357,316,0,0,0,0,0,0,0,0,0,-1,1581,708,0,0
364,316,0,0,0,0,0,0,0,0,0,-1,1588,708,0,0
371,316,0,0,0,0,0,0,0,0,0,-1,1595,708,0,0
378,316,0,0,0,0,0,0,0,0,0,-1,1602,708,0,0
385,316,0,0,0,0,0,0,0,0,0,-1,1609,708,0,0
392,316,0,0,0,0,0,0,0,0,0,-1,1616,708,0,0
399,316,0,0,0,0,0,0,0,0,0,-1,1623,708,0,0
406,316,0,0,0,0,0,0,0,0,0,-1,1630,708,0,0
413,316,0,0,0,0,0,0,0,0,0,-1,1637,708,0,0
420,316,0,0,0,0,0,0,0,0,0,-1,1644,708,0,0
427,316,0,0,0,0,0,0,0,0,0,-1,1651,708,0,0
434,316,0,0,0,0,0,0,0,0,0,-1,1658,708,0,0
441,316,0,0,0,0,0,0,0,0,0,-1,1665,708,0,0
448,316,0,0,0,0,0,0,0,0,0,-1,1672,708,0,0
455,316,0,0,0,0,0,0,0,0,0,-1,1679,708,0,0
462,316,0,0,0,0,0,0,0,0,0,-1,1686,708,0,0
469,316,0,0,0,0,0,0,0,0,0,-1,1693,708,0,0
476,316,0,0,0,0,0,0,0,0,0,-1,1700,708,0,0
483,316,0,0,0,0,0,0,0,0,0,-1,1707,708,0,0
490,316,0,0,0,0,0,0,0,0,0,-1,1714,708,0,0
497,316,0,0,0,0,0,0,0,0,0,-1,1721,708,0,0
504,316,0,0,0,0,0,0,0,0,0,-1,1728,708,0,0
511,316,0,0,0,0,0,0,0,0,0,-1,1735,708,0,0
518,316,0,0,0,0,0,0,0,0,0,-1,1742,708,0,0
525,316,0,0,0,0,0,0,0,0,0,-1,1749,708,0,0
532,316,22.8335,1.74329,0,0,0,0,0,0,0,-1,1756,708,22.8335,-1.74327
539,316,22.6497,6.00525,0,0,0,0,0,0,0,-1,1763,708,22.6496,-6.00525
546,316,23.5505,6.44965,0,0,0,0,0,0,0,-1,1770,708,23.5506,-6.44963
553,316,24.2952,7.30524,0,0,0,0,0,0,0,-1,1777,708,24.2952,-7.30526
560,316,24.4661,7.026,0,0,0,0,0,0,0,-1,1784,708,24.4661,-7.02601
567,316,29.8258,1.57428,0,0,0,0,0,0,0,-1,1791,708,29.8258,-1.57428
574,316,30.6538,1.13232,0,0,0,0,0,0,0,-1,1798,708,30.6539,-1.13233
581,316,23.7242,2.23938,0,0,0,0,0,0,0,-1,1805,708,23.7243,-2.23941
588,316,19.7659,2.90198,0,0,0,0,0,0,0,-1,1812,708,19.7659,-2.902
595,316,12.5363,1.50702,0,0,0,0,0,0,0,-1,1819,708,12.5363,-1.50701
602,316,7.79919,0.0422363,0,0,0,0,0,0,0,-1,1826,708,7.79923,-0.0422066
609,316,17.062,-2.01813,0,0,0,0,0,0,0,-1,1833,708,17.062,2.01814
616,316,17.171,-1.64606,0.00186959,0.00382963,0.000363472,0.00389486,0.00180436,1.39322,0.00225072,0.0209516,1840,708,17.171,1.64606
623,316,17.2064,-1.3053,0.00127957,0.00226088,0.000709857,0.00263315,0.000907298,1.0878,0.00154454,0.0109902,1847,708,17.2064,1.30527
630,316,17.1869,-0.958496,0.000148987,0.000952527,0.00132201,0.00193247,-0.000830954,0.932918,0.00163717,0.0128178,1854,708,17.1869,0.958466
637,316,17.2014,-0.575439,0.000148897,0.000249658,0.00036752,0.000570235,-0.000171679,0.853515,0.000448474,0.0120005,1861,708,17.2014,0.575463
644,316,17.2014,-0.20813,-9.24821e-05,-0.000308396,-0.000600882,0.000410064,-0.000810942,-0.696514,0.000717501,0.0115028,1868,708,17.2015,0.208136
651,316,17.1664,0.14325,-0.000497389,-0.000977097,-0.0014001,0.000683251,-0.00215774,-0.700566,0.0017123,0.0131006,1875,708,17.1664,-0.143276
658,316,17.1624,0.513,-0.001014,-0.00157812,-0.00214444,0.000866849,-0.00345898,-0.720008,0.00264276,0.0210991,1882,708,17.1624,-0.513013
665,316,17.1196,0.899414,-0.00158171,-0.00226457,-0.00303437,0.00113038,-0.00497666,-0.729373,0.00375176,0.0159476,1889,708,17.1196,-0.899426
672,316,17.1296,1.25214,-0.00214671,-0.00301044,-0.00403924,0.00148368,-0.00664083,-0.732142,0.00499577,0.011991,1896,708,17.1297,-1.25216
679,316,17.1417,1.62982,-0.00267633,-0.00389976,-0.00521193,0.00195967,-0.00853575,-0.726981,0.00644383,0.0189414,1903,708,17.1417,-1.62979
686,316,16.9661,1.95343,-0.00323123,-0.00496232,-0.00672677,0.00268545,-0.010879,-0.721414,0.00829403,0.0338909,1910,708,16.966,-1.95341
693,316,16.5476,2.50275,0,0,0,0,0,0,0,-1,1917,708,16.5476,-2.50277
700,316,12.8749,2.89136,0,0,0,0,0,0,0,-1,1924,708,12.8748,-2.89137
707,316,15.7089,5.41486,0,0,0,0,0,0,0,-1,1931,708,15.7088,-5.41487
714,316,16.1727,5.52045,0,0,0,0,0,0,0,-1,1938,708,16.1728,-5.52042
721,316,16.7094,6.53351,0,0,0,0,0,0,0,-1,1945,708,16.7094,-6.5335
728,316,0,0,0,0,0,0,0,0,0,-1,1952,708,0,0
735,316,0,0,0,0,0,0,0,0,0,-1,1959,708,0,0
742,316,0,0,0,0,0,0,0,0,0,-1,1966,708,0,0
749,316,0,0,0,0,0,0,0,0,0,-1,1973,708,0,0
756,316,0,0,0,0,0,0,0,0,0,-1,1980,708,0,0
763,316,0,0,0,0,0,0,0,0,0,-1,1987,708,0,0
770,316,0,0,0,0,0,0,0,0,0,-1,1994,708,0,0
777,316,0,0,0,0,0,0,0,0,0,-1,2001,708,0,0
784,316,0,0,0,0,0,0,0,0,0,-1,2008,708,0,0
791,316,0,0,0,0,0,0,0,0,0,-1,2015,708,0,0
798,316,0,0,0,0,0,0,0,0,0,-1,2022,708,0,0
805,316,0,0,0,0,0,0,0,0,0,-1,2029,708,0,0
812,316,0,0,0,0,0,0,0,0,0,-1,2036,708,0,0
-700,309,0,0,0,0,0,0,0,0,0,-1,524,715,0,0
-693,309,0,0,0,0,0,0,0,0,0,-1,531,715,0,0
-686,309,0,0,0,0,0,0,0,0,0,-1,538,715,0,0
-679,309,0,0,0,0,0,0,0,0,0,-1,545,715,0,0
-672,309,0,0,0,0,0,0,0,0,0,-1,552,715,0,0
-665,309,0,0,0,0,0,0,0,0,0,-1,559,715,0,0
-658,309,0,0,0,0,0,0,0,0,0,-1,566,715,0,0
-651,309,0,0,0,0,0,0,0,0,0,-1,573,715,0,0
-644,309,0,0,0,0,0,0,0,0,0,-1,580,715,0,0
-637,309,0,0,0,0,0,0,0,0,0,-1,587,715,0,0
-630,309,0,0,0,0,0,0,0,0,0,-1,594,715,0,0
-623,309,0,0,0,0,0,0,0,0,0,-1,601,715,0,0
-616,309,0,0,0,0,0,0,0,0,0,-1,608,715,0,0
-609,309,-5.95392,-3.93689,0,0,0,0,0,0,0,-1,615,715,-5.95392,3.93686
-602,309,-4.99786,-3.31287,0,0,0,0,0,0,0,-1,622,715,-4.99786,3.31284
-595,309,-6.80847,2.4046,0,0,0,0,0,0,0,-1,629,715,-6.80845,-2.40458
-588,309,-6.08795,2.19324,0,0,0,0,0,0,0,-1,636,715,-6.08793,-2.19325
-581,309,-5.97552,1.3277,0,0,0,0,0,0,0,-1,643,715,-5.97552,-1.32769
-574,309,-8.49042,-0.105652,0,0,0,0,0,0,0,-1,650,715,-8.49044,0.105668
-567,309,-8.76874,-0.567627,0,0,0,0,0,0,0,-1,657,715,-8.76876,0.567635
-560,309,-10.0635,-0.532227,0,0,0,0,0,0,0,-1,664,715,-10.0635,0.532246
-553,309,-10.1275,-0.526855,-0.00339282,0.00821811,-0.000918605,0.00829034,-0.00346505,-1.49233,0.00697496,0.0356142,671,715,-10.1275,0.52683
-546,309,-10.2098,-0.771179,-0.00216449,0.00662597,-0.000974939,0.0067328,-0.00227132,-1.46165,0.00540707,0.017791,678,715,-10.2098,0.771149
-539,309,-10.1884,-1.1153,-0.0012605,0.00510357,-0.00104635,0.00527119,-0.00142812,-1.41195,0.00407447,0.0150283,685,715,-10.1884,1.11527
-532,309,-10.1826,-1.46069,-0.000486735,0.00368384,-0.000958462,0.00389356,-0.000696459,-1.35538,0.0028563,0.012114,692,715,-10.1825,1.4607
-525,309,-10.1957,-1.80664,2.25778e-05,0.00247308,-0.000635134,0.00262791,-0.000132257,-1.33168,0.00179765,0.0143959,699,715,-10.1957,1.80662
-518,309,-10.1801,-2.14044,0.000219655,0.00164651,4.88456e-05,0.00164818,0.000217985,1.53662,0.00103381,0.0144151,706,715,-10.1801,2.14043
-511,309,-10.176,-2.45837,0.000203505,0.0012919,0.00108966,0.00196569,-0.00047029,1.01699,0.00149214,0.0129824,713,715,-10.176,2.45835
-504,309,-10.2001,-2.80389,-0.00023758,0.00179532,0.0025384,0.00351322,-0.00195548,0.975836,0.00319976,0.0109186,720,715,-10.2001,2.8039
-497,309,-10.2045,-3.13757,-0.001208,0.00348255,0.00425092,0.00599223,-0.00371768,1.03748,0.00565706,0.0150834,727,715,-10.2045,3.1376
-490,309,-10.1819,-3.4765,-0.00227173,0.00558101,0.00635459,0.00912439,-0.00581511,1.06213,0.00869558,0.0361076,734,715,-10.1819,3.47649
-483,309,-9.9444,-4.03162,0,0,0,0,0,0,0,-1,741,715,-9.94442,4.03159
-476,309,-5.29486,-1.2262,0,0,0,0,0,0,0,-1,748,715,-5.29484,1.22622
-469,309,-4.22717,-0.592896,0,0,0,0,0,0,0,-1,755,715,-4.2272,0.592905
-462,309,-10.428,2.46948,0,0,0,0,0,0,0,-1,762,715,-10.428,-2.46947
-455,309,-15.8216,0.00915527,0,0,0,0,0,0,0,-1,769,715,-15.8216,-0.00913359
-448,309,-19.2673,1.19257,0,0,0,0,0,0,0,-1,776,715,-19.2673,-1.19254
-441,309,-19.8181,1.4425,0,0,0,0,0,0,0,-1,783,715,-19.8181,-1.44249
-434,309,-15.3519,1.06873,0,0,0,0,0,0,0,-1,790,715,-15.3519,-1.06874
-427,309,-15.1996,1.32141,0,0,0,0,0,0,0,-1,797,715,-15.1996,-1.3214
-420,309,-13.3781,3.26843,0,0,0,0,0,0,0,-1,804,715,-13.3781,-3.26842
-413,309,0,0,0,0,0,0,0,0,0,-1,811,715,0,0
-406,309,0,0,0,0,0,0,0,0,0,-1,818,715,0,0
-399,309,0,0,0,0,0,0,0,0,0,-1,825,715,0,0
-392,309,0,0,0,0,0,0,0,0,0,-1,832,715,0,0
-385,309,0,0,0,0,0,0,0,0,0,-1,839,715,0,0
-378,309,0,0,0,0,0,0,0,0,0,-1,846,715,0,0
-371,309,0,0,0,0,0,0,0,0,0,-1,853,715,0,0
-364,309,0,0,0,0,0,0,0,0,0,-1,860,715,0,0
-357,309,0,0,0,0,0,0,0,0,0,-1,867,715,0,0
-350,309,0,0,0,0,0,0,0,0,0,-1,874,715,0,0
-343,309,0,0,0,0,0,0,0,0,0,-1,881,715,0,0
-336,309,0,0,0,0,0,0,0,0,0,-1,888,715,0,0
-329,309,0,0,0,0,0,0,0,0,0,-1,895,715,0,0
-322,309,0,0,0,0,0,0,0,0,0,-1,902,715,0,0
-315,309,0,0,0,0,0,0,0,0,0,-1,909,715,0,0
-308,309,0,0,0,0,0,0,0,0,0,-1,916,715,0,0
-301,309,0,0,0,0,0,0,0,0,0,-1,923,715,0,0
-294,309,0,0,0,0,0,0,0,0,0,-1,930,715,0,0
-287,309,0,0,0,0,0,0,0,0,0,-1,937,715,0,0
-280,309,0,0,0,0,0,0,0,0,0,-1,944,715,0,0
-273,309,0,0,0,0,0,0,0,0,0,-1,951,715,0,0
-266,309,0,0,0,0,0,0,0,0,0,-1,958,715,0,0
-259,309,0,0,0,0,0,0,0,0,0,-1,965,715,0,0
-252,309,0,0,0,0,0,0,0,0,0,-1,972,715,0,0
-245,309,0,0,0,0,0,0,0,0,0,-1,979,715,0,0
-238,309,0,0,0,0,0,0,0,0,0,-1,986,715,0,0
-231,309,0,0,0,0,0,0,0,0,0,-1,993,715,0,0
-224,309,0,0,0,0,0,0,0,0,0,-1,1000,715,0,0
-217,309,0,0,0,0,0,0,0,0,0,-1,1007,715,0,0
-210,309,0,0,0,0,0,0,0,0,0,-1,1014,715,0,0
-203,309,0,0,0,0,0,0,0,0,0,-1,1021,715,0,0
-196,309,0,0,0,0,0,0,0,0,0,-1,1028,715,0,0
-189,309,0,0,0,0,0,0,0,0,0,-1,1035,715,0,0
-182,309,0,0,0,0,0,0,0,0,0,-1,1042,715,0,0
-175,309,0,0,0,0,0,0,0,0,0,-1,1049,715,0,0
-168,309,0,0,0,0,0,0,0,0,0,-1,1056,715,0,0
-161,309,0,0,0,0,0,0,0,0,0,-1,1063,715,0,0
-154,309,0,0,0,0,0,0,0,0,0,-1,1070,715,0,0
-147,309,0,0,0,0,0,0,0,0,0,-1,1077,715,0,0
-140,309,0,0,0,0,0,0,0,0,0,-1,1084,715,0,0
-133,309,0,0,0,0,0,0,0,0,0,-1,1091,715,0,0
-126,309,0,0,0,0,0,0,0,0,0,-1,1098,715,0,0
-119,309,0,0,0,0,0,0,0,0,0,-1,1105,715,0,0
-112,309,0,0,0,0,0,0,0,0,0,-1,1112,715,0,0
-105,309,0,0,0,0,0,0,0,0,0,-1,1119,715,0,0
-98,309,0,0,0,0,0,0,0,0,0,-1,1126,715,0,0
-91,309,0,0,0,0,0,0,0,0,0,-1,1133,715,0,0
-84,309,0,0,0,0,0,0,0,0,0,-1,1140,715,0,0
-77,309,0,0,0,0,0,0,0,0,0,-1,1147,715,0,0
-70,309,0,0,0,0,0,0,0,0,0,-1,1154,715,0,0
-63,309,0,0,0,0,0,0,0,0,0,-1,1161,715,0,0
-56,309,0,0,0,0,0,0,0,0,0,-1,1168,715,0,0
-49,309,0,0,0,0,0,0,0,0,0,-1,1175,715,0,0
-42,309,0,0,0,0,0,0,0,0,0,-1,1182,715,0,0
-35,309,0,0,0,0,0,0,0,0,0,-1,1189,715,0,0
-28,309,0,0,0,0,0,0,0,0,0,-1,1196,715,0,0
-21,309,0,0,0,0,0,0,0,0,0,-1,1203,715,0,0
-14,309,0,0,0,0,0,0,0,0,0,-1,1210,715,0,0
-7,309,0,0,0,0,0,0,0,0,0,-1,1217,715,0,0
0,309,0,0,0,0,0,0,0,0,0,-1,1224,715,0,0
7,309,0,0,0,0,0,0,0,0,0,-1,1231,715,0,0
14,309,0,0,0,0,0,0,0,0,0,-1,1238,715,0,0
21,309,0,0,0,0,0,0,0,0,0,-1,1245,715,0,0
28,309,0,0,0,0,0,0,0,0,0,-1,1252,715,0,0
35,309,0,0,0,0,0,0,0,0,0,-1,1259,715,0,0
42,309,0,0,0,0,0,0,0,0,0,-1,1266,715,0,0
49,309,0,0,0,0,0,0,0,0,0,-1,1273,715,0,0
56,309,0,0,0,0,0,0,0,0,0,-1,1280,715,0,0
63,309,0,0,0,0,0,0,0,0,0,-1,1287,715,0,0
70,309,0,0,0,0,0,0,0,0,0,-1,1294,715,0,0
77,309,0,0,0,0,0,0,0,0,0,-1,1301,715,0,0
84,309,0,0,0,0,0,0,0,0,0,-1,1308,715,0,0
91,309,0,0,0,0,0,0,0,0,0,-1,1315,715,0,0
98,309,0,0,0,0,0,0,0,0,0,-1,1322,715,0,0
105,309,0,0,0,0,0,0,0,0,0,-1,1329,715,0,0
112,309,0,0,0,0,0,0,0,0,0,-1,1336,715,0,0
119,309,0,0,0,0,0,0,0,0,0,-1,1343,715,0,0
126,309,0,0,0,0,0,0,0,0,0,-1,1350,715,0,0
133,309,0,0,0,0,0,0,0,0,0,-1,1357,715,0,0
140,309,0,0,0,0,0,0,0,0,0,-1,1364,715,0,0
147,309,0,0,0,0,0,0,0,0,0,-1,1371,715,0,0
154,309,0,0,0,0,0,0,0,0,0,-1,1378,715,0,0
161,309,0,0,0,0,0,0,0,0,0,-1,1385,715,0,0
168,309,0,0,0,0,0,0,0,0,0,-1,1392,715,0,0
175,309,0,0,0,0,0,0,0,0,0,-1,1399,715,0,0
182,309,0,0,0,0,0,0,0,0,0,-1,1406,715,0,0
189,309,0,0,0,0,0,0,0,0,0,-1,1413,715,0,0
196,309,0,0,0,0,0,0,0,0,0,-1,1420,715,0,0
203,309,0,0,0,0,0,0,0,0,0,-1,1427,715,0,0
210,309,0,0,0,0,0,0,0,0,0,-1,1434,715,0,0
217,309,0,0,0,0,0,0,0,0,0,-1,1441,715,0,0
224,309,0,0,0,0,0,0,0,0,0,-1,1448,715,0,0
231,309,0,0,0,0,0,0,0,0,0,-1,1455,715,0,0
238,309,0,0,0,0,0,0,0,0,0,-1,1462,715,0,0
245,309,0,0,0,0,0,0,0,0,0,-1,1469,715,0,0
252,309,0,0,0,0,0,0,0,0,0,-1,1476,715,0,0
259,309,0,0,0,0,0,0,0,0,0,-1,1483,715,0,0
266,309,0,0,0,0,0,0,0,0,0,-1,1490,715,0,0
273,309,0,0,0,0,0,0,0,0,0,-1,1497,715,0,0
280,309,0,0,0,0,0,0,0,0,0,-1,1504,715,0,0
287,309,0,0,0,0,0,0,0,0,0,-1,1511,715,0,0
294,309,0,0,0,0,0,0,0,0,0,-1,1518,715,0,0
301,309,0,0,0,0,0,0,0,0,0,-1,1525,715,0,0
308,309,0,0,0,0,0,0,0,0,0,-1,1532,715,0,0
315,309,0,0,0,0,0,0,0,0,0,-1,1539,715,0,0
322,309,0,0,0,0,0,0,0,0,0,-1,1546,715,0,0
329,309,0,0,0,0,0,0,0,0,0,-1,1553,715,0,0
336,309,0,0,0,0,0,0,0,0,0,-1,1560,715,0,0
343,309,0,0,0,0,0,0,0,0,0,-1,1567,715,0,0
350,309,0,0,0,0,0,0,0,0,0,-1,1574,715,0,0
357,309,0,0,0,0,0,0,0,0,0,-1,1581,715,0,0
364,309,0,0,0,0,0,0,0,0,0,-1,1588,715,0,0
371,309,0,0,0,0,0,0,0,0,0,-1,1595,715,0,0
378,309,0,0,0,0,0,0,0,0,0,-1,1602,715,0,0
385,309,0,0,0,0,0,0,0,0,0,-1,1609,715,0,0
392,309,0,0,0,0,0,0,0,0,0,-1,1616,715,0,0
399,309,0,0,0,0,0,0,0,0,0,-1,1623,715,0,0
406,309,0,0,0,0,0,0,0,0,0,-1,1630,715,0,0
413,309,0,0,0,0,0,0,0,0,0,-1,1637,715,0,0
420,309,0,0,0,0,0,0,0,0,0,-1,1644,715,0,0
427,309,0,0,0,0,0,0,0,0,0,-1,1651,715,0,0
434,309,0,0,0,0,0,0,0,0,0,-1,1658,715,0,0
441,309,0,0,0,0,0,0,0,0,0,-1,1665,715,0,0
448,309,0,0,0,0,0,0,0,0,0,-1,1672,715,0,0
455,309,0,0,0,0,0,0,0,0,0,-1,1679,715,0,0
462,309,0,0,0,0,0,0,0,0,0,-1,1686,715,0,0
469,309,0,0,0,0,0,0,0,0,0,-1,1693,715,0,0
476,309,0,0,0,0,0,0,0,0,0,-1,1700,715,0,0
483,309,0,0,0,0,0,0,0,0,0,-1,1707,715,0,0
490,309,0,0,0,0,0,0,0,0,0,-1,1714,715,0,0
497,309,0,0,0,0,0,0,0,0,0,-1,1721,715,0,0
504,309,0,0,0,0,0,0,0,0,0,-1,1728,715,0,0
511,309,0,0,0,0,0,0,0,0,0,-1,1735,715,0,0
518,309,0,0,0,0,0,0,0,0,0,-1,1742,715,0,0
525,309,0,0,0,0,0,0,0,0,0,-1,1749,715,0,0
532,309,0,0,0,0,0,0,0,0,0,-1,1756,715,0,0
539,309,22.9954,5.62506,0,0,0,0,0,0,0,-1,1763,715,22.9954,-5.62506
546,309,23.847,6.0658,0,0,0,0,0,0,0,-1,1770,715,23.847,-6.06578
553,309,24.3765,6.26331,0,0,0,0,0,0,0,-1,1777,715,24.3765,-6.26329
560,309,24.4663,6.1394,0,0,0,0,0,0,0,-1,1784,715,24.4663,-6.13938
567,309,23.8927,5.73145,0,0,0,0,0,0,0,-1,1791,715,23.8927,-5.73144
574,309,26.0281,6.51862,0,0,0,0,0,0,0,-1,1798,715,26.0281,-6.51863
581,309,28.7903,3.70422,0,0,0,0,0,0,0,-1,1805,715,28.7903,-3.70421
588,309,24.2113,3.86719,0,0,0,0,0,0,0,-1,1812,715,24.2113,-3.86717
595,309,19.585,3.71558,0,0,0,0,0,0,0,-1,1819,715,19.5849,-3.71555
602,309,11.0811,3.47772,0,0,0,0,0,0,0,-1,1826,715,11.0811,-3.47772
609,309,17.4246,-2.1286,0,0,0,0,0,0,0,-1,1833,715,17.4246,2.12863
616,309,17.5166,-1.69012,0.00143682,0.00519274,0.000487598,0.00525501,0.00137455,1.44378,0.00314686,0.0314461,1840,715,17.5166,1.69012
623,309,17.5642,-1.2934,0.000889314,0.00331533,0.000925919,0.00362833,0.000576309,1.24481,0.00225151,0.0113979,1847,715,17.5642,1.29339
630,309,17.5452,-0.934387,-0.000377093,0.00161916,0.00182064,0.00269732,-0.00145526,1.03614,0.00243298,0.010895,1854,715,17.5452,0.934387
637,309,17.5212,-0.559265,-0.000155486,0.000780708,0.000744975,0.00119244,-0.000567221,1.0659,0.0010371,0.0137594,1861,715,17.5213,0.559256
644,309,17.4991,-0.199402,-0.000135227,0.00016308,-0.0003032,0.000351828,-0.000323975,-1.01398,0.000390285,0.0149356,1868,715,17.4991,0.1994
651,309,17.5081,0.153931,-0.000380528,-0.000541587,-0.00107985,0.00062179,-0.00154391,-0.74818,0.00128759,0.013808,1875,715,17.508,-0.153957
658,309,17.5651,0.536438,-0.000847037,-0.00105348,-0.0016947,0.000747587,-0.0026481,-0.754982,0.00206031,0.0194272,1882,715,17.5651,-0.536412
665,309,17.5532,0.90033,-0.00132561,-0.0015622,-0.00241934,0.000978329,-0.00386614,-0.76097,0.00295796,0.0162376,1889,715,17.5532,-0.900302
672,309,17.5251,1.25562,-0.00171405,-0.00210239,-0.00320174,0.0012994,-0.00511584,-0.755113,0.00391622,0.0146159,1896,715,17.5251,-1.25561
679,309,17.511,1.64526,-0.0020505,-0.00270585,-0.00410481,0.00173969,-0.00649604,-0.745569,0.00501226,0.0157018,1903,715,17.511,-1.64527
686,309,17.4386,2.00995,-0.00230439,-0.00341643,-0.00526553,0.00243439,-0.00815521,-0.732795,0.0064044,0.0239029,1910,715,17.4385,-2.00997
693,309,17.0688,2.38391,-0.00227804,-0.00415975,-0.00645859,0.00330787,-0.00974566,-0.713069,0.00783602,0.0404274,1917,715,17.0688,-2.38392
700,309,16.8395,2.86951,0,0,0,0,0,0,0,-1,1924,715,16.8395,-2.86951
707,309,15.6318,4.58655,0,0,0,0,0,0,0,-1,1931,715,15.6318,-4.58657
714,309,16.7573,6.68286,0,0,0,0,0,0,0,-1,1938,715,16.7574,-6.68284
721,309,16.8337,5.4458,0,0,0,0,0,0,0,-1,1945,715,16.8338,-5.44582
728,309,0,0,0,0,0,0,0,0,0,-1,1952,715,0,0
735,309,0,0,0,0,0,0,0,0,0,-1,1959,715,0,0
742,309,0,0,0,0,0,0,0,0,0,-1,1966,715,0,0
749,309,0,0,0,0,0,0,0,0,0,-1,1973,715,0,0
756,309,0,0,0,0,0,0,0,0,0,-1,1980,715,0,0
763,309,0,0,0,0,0,0,0,0,0,-1,1987,715,0,0
770,309,0,0,0,0,0,0,0,0,0,-1,1994,715,0,0
777,309,0,0,0,0,0,0,0,0,0,-1,2001,715,0,0
784,309,0,0,0,0,0,0,0,0,0,-1,2008,715,0,0
791,309,0,0,0,0,0,0,0,0,0,-1,2015,715,0,0
798,309,0,0,0,0,0,0,0,0,0,-1,2022,715,0,0
805,309,0,0,0,0,0,0,0,0,0,-1,2029,715,0,0
812,309,0,0,0,0,0,0,0,0,0,-1,2036,715,0,0
-700,302,0,0,0,0,0,0,0,0,0,-1,524,722,0,0
-693,302,0,0,0,0,0,0,0,0,0,-1,531,722,0,0
-686,302,0,0,0,0,0,0,0,0,0,-1,538,722,0,0
-679,302,0,0,0,0,0,0,0,0,0,-1,545,722,0,0
-672,302,0,0,0,0,0,0,0,0,0,-1,552,722,0,0
-665,302,0,0,0,0,0,0,0,0,0,-1,559,722,0,0
-658,302,0,0,0,0,0,0,0,0,0,-1,566,722,0,0
-651,302,0,0,0,0,0,0,0,0,0,-1,573,722,0,0
-644,302,0,0,0,0,0,0,0,0,0,-1,580,722,0,0
-637,302,0,0,0,0,0,0,0,0,0,-1,587,722,0,0
-630,302,0,0,0,0,0,0,0,0,0,-1,594,722,0,0
-623,302,0,0,0,0,0,0,0,0,0,-1,601,722,0,0
-616,302,0,0,0,0,0,0,0,0,0,-1,608,722,0,0
-609,302,-7.79266,-3.71649,0,0,0,0,0,0,0,-1,615,722,-7.79267,3.7165
-602,302,0.92865,-1.99158,0,0,0,0,0,0,0,-1,622,722,0.928637,1.99157
-595,302,-7.89941,2.13641,0,0,0,0,0,0,0,-1,629,722,-7.89939,-2.13639
-588,302,-7.10895,1.79163,0,0,0,0,0,0,0,-1,636,722,-7.10896,-1.79163
-581,302,-8.59845,0.402344,0,0,0,0,0,0,0,-1,643,722,-8.59848,-0.402343
-574,302,-9.3042,0.574951,0,0,0,0,0,0,0,-1,650,722,-9.30422,-0.574954
-567,302,-9.82367,0.081604,0,0,0,0,0,0,0,-1,657,722,-9.82369,-0.0815855
-560,302,-10.2568,-0.370789,-0.00637292,0.00715435,0.000770307,0.00719807,-0.00641664,1.5141,0.00786477,0.0478383,664,722,-10.2569,0.370773
-553,302,-10.527,-0.40564,-0.00470903,0.0051171,0.000956584,0.00520935,-0.00480129,1.47465,0.00578125,0.0203578,671,722,-10.5271,0.405661
-546,302,-10.524,-0.760071,-0.00340114,0.00403926,0.000744477,0.00411302,-0.0034749,1.47204,0.00438605,0.0149778,678,722,-10.524,0.760096
-539,302,-10.5555,-1.07697,-0.00237587,0.00292264,0.000461545,0.00296255,-0.00241577,1.48455,0.00311052,0.0144863,685,722,-10.5555,1.07694
-532,302,-10.5518,-1.43219,-0.00142371,0.00187029,0.000297985,0.00189703,-0.00145045,1.4813,0.0019384,0.0134136,692,722,-10.5517,1.43217
-525,302,-10.5162,-1.80908,-0.000704905,0.00103745,0.000385403,0.00111889,-0.000786348,1.36254,0.00110556,0.0179833,699,722,-10.5161,1.80909
-518,302,-10.5305,-2.13354,-0.000323809,0.000520347,0.000900521,0.0010928,-0.00089626,1.00455,0.00115025,0.0190713,706,722,-10.5305,2.13356
-511,302,-10.5325,-2.44098,-0.000144361,0.000464084,0.00191465,0.00209853,-0.00177881,0.864185,0.00224112,0.0107084,713,722,-10.5325,2.44099
-504,302,-10.5379,-2.79602,-0.000446946,0.00126745,0.00340946,0.00392582,-0.00310532,0.908554,0.00406863,0.00985481,720,722,-10.5379,2.79605
-497,302,-10.5555,-3.12964,-0.00131494,0.0032148,0.00515953,0.00658468,-0.00468482,0.99222,0.00653719,0.0149488,727,722,-10.5555,3.12962
-490,302,-10.4251,-3.4386,0,0,0,0,0,0,0,-1,734,722,-10.4251,3.43861
-483,302,-9.53412,-3.1673,0,0,0,0,0,0,0,-1,741,722,-9.53411,3.1673
-476,302,-4.29749,-0.203491,0,0,0,0,0,0,0,-1,748,722,-4.29751,0.203464
-469,302,-12.369,1.42859,0,0,0,0,0,0,0,-1,755,722,-12.3689,-1.42857
-462,302,-17.4766,0.310791,0,0,0,0,0,0,0,-1,762,722,-17.4766,-0.310788
-455,302,-17.8736,1.4895,0,0,0,0,0,0,0,-1,769,722,-17.8736,-1.48952
-448,302,-18.4984,1.81525,0,0,0,0,0,0,0,-1,776,722,-18.4984,-1.81528
-441,302,-19.3027,1.54785,0,0,0,0,0,0,0,-1,783,722,-19.3027,-1.54786
-434,302,-19.7321,1.78467,0,0,0,0,0,0,0,-1,790,722,-19.732,-1.78469
-427,302,-15.3611,1.80798,0,0,0,0,0,0,0,-1,797,722,-15.3611,-1.80801
-420,302,0,0,0,0,0,0,0,0,0,-1,804,722,0,0
-413,302,0,0,0,0,0,0,0,0,0,-1,811,722,0,0
-406,302,0,0,0,0,0,0,0,0,0,-1,818,722,0,0
-399,302,0,0,0,0,0,0,0,0,0,-1,825,722,0,0
-392,302,0,0,0,0,0,0,0,0,0,-1,832,722,0,0
-385,302,0,0,0,0,0,0,0,0,0,-1,839,722,0,0
-378,302,0,0,0,0,0,0,0,0,0,-1,846,722,0,0
-371,302,0,0,0,0,0,0,0,0,0,-1,853,722,0,0
-364,302,0,0,0,0,0,0,0,0,0,-1,860,722,0,0
-357,302,0,0,0,0,0,0,0,0,0,-1,867,722,0,0
-350,302,0,0,0,0,0,0,0,0,0,-1,874,722,0,0
-343,302,0,0,0,0,0,0,0,0,0,-1,881,722,0,0
-336,302,0,0,0,0,0,0,0,0,0,-1,888,722,0,0
-329,302,0,0,0,0,0,0,0,0,0,-1,895,722,0,0
-322,302,0,0,0,0,0,0,0,0,0,-1,902,722,0,0
-315,302,0,0,0,0,0,0,0,0,0,-1,909,722,0,0
-308,302,0,0,0,0,0,0,0,0,0,-1,916,722,0,0
-301,302,0,0,0,0,0,0,0,0,0,-1,923,722,0,0
-294,302,0,0,0,0,0,0,0,0,0,-1,930,722,0,0
-287,302,0,0,0,0,0,0,0,0,0,-1,937,722,0,0
-280,302,0,0,0,0,0,0,0,0,0,-1,944,722,0,0
-273,302,0,0,0,0,0,0,0,0,0,-1,951,722,0,0
-266,302,0,0,0,0,0,0,0,0,0,-1,958,722,0,0
-259,302,0,0,0,0,0,0,0,0,0,-1,965,722,0,0
-252,302,0,0,0,0,0,0,0,0,0,-1,972,722,0,0
-245,302,0,0,0,0,0,0,0,0,0,-1,979,722,0,0
-238,302,0,0,0,0,0,0,0,0,0,-1,986,722,0,0
-231,302,0,0,0,0,0,0,0,0,0,-1,993,722,0,0
-224,302,0,0,0,0,0,0,0,0,0,-1,1000,722,0,0
-217,302,0,0,0,0,0,0,0,0,0,-1,1007,722,0,0
-210,302,0,0,0,0,0,0,0,0,0,-1,1014,722,0,0
-203,302,0,0,0,0,0,0,0,0,0,-1,1021,722,0,0
-196,302,0,0,0,0,0,0,0,0,0,-1,1028,722,0,0
-189,302,0,0,0,0,0,0,0,0,0,-1,1035,722,0,0
-182,302,0,0,0,0,0,0,0,0,0,-1,1042,722,0,0
-175,302,0,0,0,0,0,0,0,0,0,-1,1049,722,0,0
-168,302,0,0,0,0,0,0,0,0,0,-1,1056,722,0,0
-161,302,0,0,0,0,0,0,0,0,0,-1,1063,722,0,0
-154,302,0,0,0,0,0,0,0,0,0,-1,1070,722,0,0
-147,302,0,0,0,0,0,0,0,0,0,-1,1077,722,0,0
-140,302,0,0,0,0,0,0,0,0,0,-1,1084,722,0,0
-133,302,0,0,0,0,0,0,0,0,0,-1,1091,722,0,0
-126,302,0,0,0,0,0,0,0,0,0,-1,1098,722,0,0
-119,302,0,0,0,0,0,0,0,0,0,-1,1105,722,0,0
-112,302,0,0,0,0,0,0,0,0,0,-1,1112,722,0,0
-105,302,0,0,0,0,0,0,0,0,0,-1,1119,722,0,0
-98,302,0,0,0,0,0,0,0,0,0,-1,1126,722,0,0
-91,302,0,0,0,0,0,0,0,0,0,-1,1133,722,0,0
-84,302,0,0,0,0,0,0,0,0,0,-1,1140,722,0,0
-77,302,0,0,0,0,0,0,0,0,0,-1,1147,722,0,0
-70,302,0,0,0,0,0,0,0,0,0,-1,1154,722,0,0
-63,302,0,0,0,0,0,0,0,0,0,-1,1161,722,0,0
-56,302,0,0,0,0,0,0,0,0,0,-1,1168,722,0,0
-49,302,0,0,0,0,0,0,0,0,0,-1,1175,722,0,0
-42,302,0,0,0,0,0,0,0,0,0,-1,1182,722,0,0
-35,302,0,0,0,0,0,0,0,0,0,-1,1189,722,0,0
-28,302,0,0,0,0,0,0,0,0,0,-1,1196,722,0,0
-21,302,0,0,0,0,0,0,0,0,0,-1,1203,722,0,0
-14,302,0,0,0,0,0,0,0,0,0,-1,1210,722,0,0
-7,302,0,0,0,0,0,0,0,0,0,-1,1217,722,0,0
0,302,0,0,0,0,0,0,0,0,0,-1,1224,722,0,0
7,302,0,0,0,0,0,0,0,0,0,-1,1231,722,0,0
14,302,0,0,0,0,0,0,0,0,0,-1,1238,722,0,0
21,302,0,0,0,0,0,0,0,0,0,-1,1245,722,0,0
28,302,0,0,0,0,0,0,0,0,0,-1,1252,722,0,0
35,302,0,0,0,0,0,0,0,0,0,-1,1259,722,0,0
42,302,0,0,0,0,0,0,0,0,0,-1,1266,722,0,0
49,302,0,0,0,0,0,0,0,0,0,-1,1273,722,0,0
56,302,0,0,0,0,0,0,0,0,0,-1,1280,722,0,0
63,302,0,0,0,0,0,0,0,0,0,-1,1287,722,0,0
70,302,0,0,0,0,0,0,0,0,0,-1,1294,722,0,0
77,302,0,0,0,0,0,0,0,0,0,-1,1301,722,0,0
84,302,0,0,0,0,0,0,0,0,0,-1,1308,722,0,0
91,302,0,0,0,0,0,0,0,0,0,-1,1315,722,0,0
98,302,0,0,0,0,0,0,0,0,0,-1,1322,722,0,0
105,302,0,0,0,0,0,0,0,0,0,-1,1329,722,0,0
112,302,0,0,0,0,0,0,0,0,0,-1,1336,722,0,0
119,302,0,0,0,0,0,0,0,0,0,-1,1343,722,0,0
126,302,0,0,0,0,0,0,0,0,0,-1,1350,722,0,0
133,302,0,0,0,0,0,0,0,0,0,-1,1357,722,0,0
140,302,0,0,0,0,0,0,0,0,0,-1,1364,722,0,0
147,302,0,0,0,0,0,0,0,0,0,-1,1371,722,0,0
154,302,0,0,0,0,0,0,0,0,0,-1,1378,722,0,0
161,302,0,0,0,0,0,0,0,0,0,-1,1385,722,0,0
168,302,0,0,0,0,0,0,0,0,0,-1,1392,722,0,0
175,302,0,0,0,0,0,0,0,0,0,-1,1399,722,0,0
182,302,0,0,0,0,0,0,0,0,0,-1,1406,722,0,0
189,302,0,0,0,0,0,0,0,0,0,-1,1413,722,0,0
196,302,0,0,0,0,0,0,0,0,0,-1,1420,722,0,0
203,302,0,0,0,0,0,0,0,0,0,-1,1427,722,0,0
210,302,0,0,0,0,0,0,0,0,0,-1,1434,722,0,0
217,302,0,0,0,0,0,0,0,0,0,-1,1441,722,0,0
224,302,0,0,0,0,0,0,0,0,0,-1,1448,722,0,0
231,302,0,0,0,0,0,0,0,0,0,-1,1455,722,0,0
238,302,0,0,0,0,0,0,0,0,0,-1,1462,722,0,0
245,302,0,0,0,0,0,0,0,0,0,-1,1469,722,0,0
252,302,0,0,0,0,0,0,0,0,0,-1,1476,722,0,0
259,302,0,0,0,0,0,0,0,0,0,-1,1483,722,0,0
266,302,0,0,0,0,0,0,0,0,0,-1,1490,722,0,0
273,302,0,0,0,0,0,0,0,0,0,-1,1497,722,0,0
280,302,0,0,0,0,0,0,0,0,0,-1,1504,722,0,0
287,302,0,0,0,0,0,0,0,0,0,-1,1511,722,0,0
294,302,0,0,0,0,0,0,0,0,0,-1,1518,722,0,0
301,302,0,0,0,0,0,0,0,0,0,-1,1525,722,0,0
308,302,0,0,0,0,0,0,0,0,0,-1,1532,722,0,0
315,302,0,0,0,0,0,0,0,0,0,-1,1539,722,0,0
322,302,0,0,0,0,0,0,0,0,0,-1,1546,722,0,0
329,302,0,0,0,0,0,0,0,0,0,-1,1553,722,0,0
336,302,0,0,0,0,0,0,0,0,0,-1,1560,722,0,0
343,302,0,0,0,0,0,0,0,0,0,-1,1567,722,0,0
350,302,0,0,0,0,0,0,0,0,0,-1,1574,722,0,0
357,302,0,0,0,0,0,0,0,0,0,-1,1581,722,0,0
364,302,0,0,0,0,0,0,0,0,0,-1,1588,722,0,0
371,302,0,0,0,0,0,0,0,0,0,-1,1595,722,0,0
378,302,0,0,0,0,0,0,0,0,0,-1,1602,722,0,0
385,302,0,0,0,0,0,0,0,0,0,-1,1609,722,0,0
392,302,0,0,0,0,0,0,0,0,0,-1,1616,722,0,0
399,302,0,0,0,0,0,0,0,0,0,-1,1623,722,0,0
406,302,0,0,0,0,0,0,0,0,0,-1,1630,722,0,0
413,302,0,0,0,0,0,0,0,0,0,-1,1637,722,0,0
420,302,0,0,0,0,0,0,0,0,0,-1,1644,722,0,0
427,302,0,0,0,0,0,0,0,0,0,-1,1651,722,0,0
434,302,0,0,0,0,0,0,0,0,0,-1,1658,722,0,0
441,302,0,0,0,0,0,0,0,0,0,-1,1665,722,0,0
448,302,0,0,0,0,0,0,0,0,0,-1,1672,722,0,0
455,302,0,0,0,0,0,0,0,0,0,-1,1679,722,0,0
462,302,0,0,0,0,0,0,0,0,0,-1,1686,722,0,0
469,302,0,0,0,0,0,0,0,0,0,-1,1693,722,0,0
476,302,0,0,0,0,0,0,0,0,0,-1,1700,722,0,0
483,302,0,0,0,0,0,0,0,0,0,-1,1707,722,0,0
490,302,0,0,0,0,0,0,0,0,0,-1,1714,722,0,0
497,302,0,0,0,0,0,0,0,0,0,-1,1721,722,0,0
504,302,0,0,0,0,0,0,0,0,0,-1,1728,722,0,0
511,302,0,0,0,0,0,0,0,0,0,-1,1735,722,0,0
518,302,0,0,0,0,0,0,0,0,0,-1,1742,722,0,0
525,302,0,0,0,0,0,0,0,0,0,-1,1749,722,0,0
532,302,0,0,0,0,0,0,0,0,0,-1,1756,722,0,0
539,302,0,0,0,0,0,0,0,0,0,-1,1763,722,0,0
546,302,24.1589,5.0755,0,0,0,0,0,0,0,-1,1770,722,24.159,-5.07551
553,302,24.4579,5.14789,0,0,0,0,0,0,0,-1,1777,722,24.4579,-5.14791
560,302,24.7241,5.1944,0,0,0,0,0,0,0,-1,1784,722,24.7241,-5.19439
567,302,24.75,5.05096,0,0,0,0,0,0,0,-1,1791,722,24.75,-5.05099
574,302,26.3213,5.76587,0,0,0,0,0,0,0,-1,1798,722,26.3213,-5.76588
581,302,27.5466,6.51996,0,0,0,0,0,0,0,-1,1805,722,27.5466,-6.51995
588,302,28.5369,3.9776,0,0,0,0,0,0,0,-1,1812,722,28.5369,-3.97761
595,302,26.5759,7.33228,0,0,0,0,0,0,0,-1,1819,722,26.5759,-7.3323
602,302,14.7349,5.21246,0,0,0,0,0,0,0,-1,1826,722,14.7349,-5.21247
609,302,11.1578,-0.125854,0,0,0,0,0,0,0,-1,1833,722,11.1579,0.125839
616,302,17.8251,-1.71704,0,0,0,0,0,0,0,-1,1840,722,17.825,1.71701
623,302,17.9102,-1.27917,-0.000115036,0.00420981,0.000583076,0.00428704,-0.000192267,1.43911,0.00292423,0.0148369,1847,722,17.9101,1.2792
630,302,17.887,-0.921997,-0.00139692,0.00224111,0.00172086,0.00292613,-0.00208194,1.19196,0.00290507,0.0105631,1854,722,17.8869,0.922004
637,302,17.8375,-0.546326,-0.000862814,0.00128402,0.000712823,0.00149914,-0.00107794,1.2777,0.00149449,0.013873,1861,722,17.8376,0.546297
644,302,17.8475,-0.197815,-0.000478801,0.000606319,-0.000294488,0.000681088,-0.00055357,-1.32216,0.000714096,0.0147462,1868,722,17.8475,0.197832
651,302,17.8757,0.1698,-0.000384036,-0.000148844,-0.000936881,0.000677793,-0.00121067,-0.847831,0.00110468,0.0135448,1875,722,17.8757,-0.169809
658,302,17.9174,0.520325,-0.000629554,-0.000589555,-0.00135181,0.000742399,-0.00196151,-0.792795,0.00161313,0.0145654,1882,722,17.9173,-0.520342
665,302,17.9011,0.885925,-0.000912291,-0.000945009,-0.00186856,0.000939977,-0.00279728,-0.781021,0.00224477,0.0136821,1889,722,17.9011,-0.885938
672,302,17.8771,1.22968,-0.001028,-0.00132032,-0.00241431,0.00124456,-0.00359289,-0.755165,0.00290053,0.0109745,1896,722,17.8771,-1.22967
679,302,17.8632,1.61005,-0.000923763,-0.00178256,-0.00300956,0.00168687,-0.00439319,-0.714538,0.00362439,0.00932956,1903,722,17.8632,-1.61004
686,302,17.865,1.98328,-0.000672532,-0.0023138,-0.00379465,0.0023892,-0.00537553,-0.678908,0.00459216,0.0150632,1910,722,17.865,-1.98327
693,302,17.5839,2.24915,0.000115231,-0.00291445,-0.00452069,0.00336813,-0.00616735,-0.623732,0.00558382,0.0348943,1917,722,17.5839,-2.24914
700,302,17.4856,2.40271,0,0,0,0,0,0,0,-1,1924,722,17.4856,-2.40268
707,302,16.7321,4.76685,0,0,0,0,0,0,0,-1,1931,722,16.7321,-4.76687
714,302,17.2,5.77594,0,0,0,0,0,0,0,-1,1938,722,17.2,-5.77595
721,302,17.7914,6.60394,0,0,0,0,0,0,0,-1,1945,722,17.7914,-6.60395
728,302,17.2798,4.81702,0,0,0,0,0,0,0,-1,1952,722,17.2798,-4.81703
735,302,0,0,0,0,0,0,0,0,0,-1,1959,722,0,0
742,302,0,0,0,0,0,0,0,0,0,-1,1966,722,0,0
749,302,0,0,0,0,0,0,0,0,0,-1,1973,722,0,0
756,302,0,0,0,0,0,0,0,0,0,-1,1980,722,0,0
763,302,0,0,0,0,0,0,0,0,0,-1,1987,722,0,0
770,302,0,0,0,0,0,0,0,0,0,-1,1994,722,0,0
777,302,0,0,0,0,0,0,0,0,0,-1,2001,722,0,0
784,302,0,0,0,0,0,0,0,0,0,-1,2008,722,0,0
791,302,0,0,0,0,0,0,0,0,0,-1,2015,722,0,0
798,302,0,0,0,0,0,0,0,0,0,-1,2022,722,0,0
805,302,0,0,0,0,0,0,0,0,0,-1,2029,722,0,0
812,302,0,0,0,0,0,0,0,0,0,-1,2036,722,0,0
-700,295,0,0,0,0,0,0,0,0,0,-1,524,729,0,0
-693,295,0,0,0,0,0,0,0,0,0,-1,531,729,0,0
-686,295,0,0,0,0,0,0,0,0,0,-1,538,729,0,0
-679,295,0,0,0,0,0,0,0,0,0,-1,545,729,0,0
-672,295,0,0,0,0,0,0,0,0,0,-1,552,729,0,0
-665,295,0,0,0,0,0,0,0,0,0,-1,559,729,0,0
-658,295,0,0,0,0,0,0,0,0,0,-1,566,729,0,0
-651,295,0,0,0,0,0,0,0,0,0,-1,573,729,0,0
-644,295,0,0,0,0,0,0,0,0,0,-1,580,729,0,0
-637,295,0,0,0,0,0,0,0,0,0,-1,587,729,0,0
-630,295,0,0,0,0,0,0,0,0,0,-1,594,729,0,0
-623,295,0,0,0,0,0,0,0,0,0,-1,601,729,0,0
-616,295,-13.4911,1.31738,0,0,0,0,0,0,0,-1,608,729,-13.4911,-1.3174
-609,295,-10.2864,0.832031,0,0,0,0,0,0,0,-1,615,729,-10.2863,-0.832034
-602,295,-8.19006,3.01587,0,0,0,0,0,0,0,-1,622,729,-8.19005,-3.01588
-595,295,-0.615479,-1.95447,0,0,0,0,0,0,0,-1,629,729,-0.615481,1.95445
-588,295,-7.98999,1.56903,0,0,0,0,0,0,0,-1,636,729,-7.98997,-1.56905
-581,295,-9.74835,0.834778,0,0,0,0,0,0,0,-1,643,729,-9.74836,-0.834765
-574,295,-10.1097,0.461243,0,0,0,0,0,0,0,-1,650,729,-10.1097,-0.461217
-567,295,-10.338,0.098999,-0.00707958,0.0168279,0.00277486,0.0171457,-0.00739743,1.45675,0.0145378,0.0496871,657,729,-10.3379,-0.0990193
-560,295,-10.8221,-0.138794,-0.00642465,0.00553954,0.00204371,0.00587902,-0.00676412,1.40619,0.00730548,0.0281794,664,729,-10.8221,0.13877
-553,295,-10.8237,-0.445679,-0.00515964,0.00267181,0.0019207,0.0031175,-0.00560533,1.34278,0.00510395,0.0173997,671,729,-10.8237,0.44565
-546,295,-10.8668,-0.765015,-0.00386471,0.00201022,0.00164115,0.00243758,-0.00429208,1.31605,0.00393424,0.0198983,678,729,-10.8668,0.764992
-539,295,-10.8792,-1.07245,-0.00286317,0.00120229,0.00128026,0.00157186,-0.00323274,1.28977,0.00282864,0.0176422,685,729,-10.8792,1.07247
-532,295,-10.8876,-1.42175,-0.00180368,0.000420904,0.00100015,0.00080444,-0.00218722,1.20461,0.00178768,0.0147531,692,729,-10.8876,1.42176
-525,295,-10.8719,-1.77979,-0.000952181,-0.000141516,0.00102541,0.000555765,-0.00164946,0.973617,0.00132436,0.0137906,699,729,-10.8719,1.77976
-518,295,-10.8676,-2.09955,-0.0005158,-0.000483474,0.00153391,0.00103436,-0.00203363,0.790666,0.00180235,0.0104348,706,729,-10.8676,2.09952
-511,295,-10.8564,-2.42773,-0.000310892,-0.000372536,0.00264155,0.00230001,-0.00298344,0.779564,0.0030589,0.00901577,713,729,-10.8564,2.42775
-504,295,-10.8755,-2.78314,-0.000596601,0.000588746,0.00422253,0.00425999,-0.00426784,0.855123,0.00492355,0.010419,720,729,-10.8756,2.78315
-497,295,-10.9176,-3.07825,-0.00147518,0.00267881,0.00601124,0.00696176,-0.00575812,0.951737,0.00735478,0.018204,727,729,-10.9176,3.07827
-490,295,-10.9498,-3.34534,0,0,0,0,0,0,0,-1,734,729,-10.9498,3.34535
-483,295,-6.84503,-0.454651,0,0,0,0,0,0,0,-1,741,729,-6.84505,0.454639
-476,295,-13.1738,-0.836243,0,0,0,0,0,0,0,-1,748,729,-13.1738,0.836223
-469,295,-15.9404,1.67041,0,0,0,0,0,0,0,-1,755,729,-15.9403,-1.67042
-462,295,-17.9293,-0.330566,0,0,0,0,0,0,0,-1,762,729,-17.9293,0.330568
-455,295,-18.821,1.64069,0,0,0,0,0,0,0,-1,769,729,-18.821,-1.64066
-448,295,-19.0543,1.41168,0,0,0,0,0,0,0,-1,776,729,-19.0543,-1.4117
-441,295,-19.2372,1.28839,0,0,0,0,0,0,0,-1,783,729,-19.2372,-1.28838
-434,295,-15.7352,0.180969,0,0,0,0,0,0,0,-1,790,729,-15.7352,-0.180951
-427,295,0,0,0,0,0,0,0,0,0,-1,797,729,0,0
-420,295,0,0,0,0,0,0,0,0,0,-1,804,729,0,0
-413,295,0,0,0,0,0,0,0,0,0,-1,811,729,0,0
-406,295,0,0,0,0,0,0,0,0,0,-1,818,729,0,0
-399,295,0,0,0,0,0,0,0,0,0,-1,825,729,0,0
-392,295,0,0,0,0,0,0,0,0,0,-1,832,729,0,0
-385,295,0,0,0,0,0,0,0,0,0,-1,839,729,0,0
-378,295,0,0,0,0,0,0,0,0,0,-1,846,729,0,0
-371,295,0,0,0,0,0,0,0,0,0,-1,853,729,0,0
-364,295,0,0,0,0,0,0,0,0,0,-1,860,729,0,0
-357,295,0,0,0,0,0,0,0,0,0,-1,867,729,0,0
-350,295,0,0,0,0,0,0,0,0,0,-1,874,729,0,0
-343,295,0,0,0,0,0,0,0,0,0,-1,881,729,0,0
-336,295,0,0,0,0,0,0,0,0,0,-1,888,729,0,0
-329,295,0,0,0,0,0,0,0,0,0,-1,895,729,0,0
-322,295,0,0,0,0,0,0,0,0,0,-1,902,729,0,0
-315,295,0,0,0,0,0,0,0,0,0,-1,909,729,0,0
-308,295,0,0,0,0,0,0,0,0,0,-1,916,729,0,0
-301,295,0,0,0,0,0,0,0,0,0,-1,923,729,0,0
-294,295,0,0,0,0,0,0,0,0,0,-1,930,729,0,0
-287,295,0,0,0,0,0,0,0,0,0,-1,937,729,0,0
-280,295,0,0,0,0,0,0,0,0,0,-1,944,729,0,0
-273,295,0,0,0,0,0,0,0,0,0,-1,951,729,0,0
-266,295,0,0,0,0,0,0,0,0,0,-1,958,729,0,0
-259,295,0,0,0,0,0,0,0,0,0,-1,965,729,0,0
-252,295,0,0,0,0,0,0,0,0,0,-1,972,729,0,0
-245,295,0,0,0,0,0,0,0,0,0,-1,979,729,0,0
-238,295,0,0,0,0,0,0,0,0,0,-1,986,729,0,0
-231,295,0,0,0,0,0,0,0,0,0,-1,993,729,0,0
-224,295,0,0,0,0,0,0,0,0,0,-1,1000,729,0,0
-217,295,0,0,0,0,0,0,0,0,0,-1,1007,729,0,0
-210,295,0,0,0,0,0,0,0,0,0,-1,1014,729,0,0
-203,295,0,0,0,0,0,0,0,0,0,-1,1021,729,0,0
-196,295,0,0,0,0,0,0,0,0,0,-1,1028,729,0,0
-189,295,0,0,0,0,0,0,0,0,0,-1,1035,729,0,0
-182,295,0,0,0,0,0,0,0,0,0,-1,1042,729,0,0
-175,295,0,0,0,0,0,0,0,0,0,-1,1049,729,0,0
-168,295,0,0,0,0,0,0,0,0,0,-1,1056,729,0,0
-161,295,0,0,0,0,0,0,0,0,0,-1,1063,729,0,0
-154,295,0,0,0,0,0,0,0,0,0,-1,1070,729,0,0
-147,295,0,0,0,0,0,0,0,0,0,-1,1077,729,0,0
-140,295,0,0,0,0,0,0,0,0,0,-1,1084,729,0,0
-133,295,0,0,0,0,0,0,0,0,0,-1,1091,729,0,0
-126,295,0,0,0,0,0,0,0,0,0,-1,1098,729,0,0
-119,295,0,0,0,0,0,0,0,0,0,-1,1105,729,0,0
-112,295,0,0,0,0,0,0,0,0,0,-1,1112,729,0,0
-105,295,0,0,0,0,0,0,0,0,0,-1,1119,729,0,0
-98,295,0,0,0,0,0,0,0,0,0,-1,1126,729,0,0
-91,295,0,0,0,0,0,0,0,0,0,-1,1133,729,0,0
-84,295,0,0,0,0,0,0,0,0,0,-1,1140,729,0,0
-77,295,0,0,0,0,0,0,0,0,0,-1,1147,729,0,0
-70,295,0,0,0,0,0,0,0,0,0,-1,1154,729,0,0
-63,295,0,0,0,0,0,0,0,0,0,-1,1161,729,0,0
-56,295,0,0,0,0,0,0,0,0,0,-1,1168,729,0,0
-49,295,0,0,0,0,0,0,0,0,0,-1,1175,729,0,0
-42,295,0,0,0,0,0,0,0,0,0,-1,1182,729,0,0
-35,295,0,0,0,0,0,0,0,0,0,-1,1189,729,0,0
-28,295,0,0,0,0,0,0,0,0,0,-1,1196,729,0,0
-21,295,0,0,0,0,0,0,0,0,0,-1,1203,729,0,0
-14,295,0,0,0,0,0,0,0,0,0,-1,1210,729,0,0
-7,295,0,0,0,0,0,0,0,0,0,-1,1217,729,0,0
0,295,0,0,0,0,0,0,0,0,0,-1,1224,729,0,0
7,295,0,0,0,0,0,0,0,0,0,-1,1231,729,0,0
14,295,0,0,0,0,0,0,0,0,0,-1,1238,729,0,0
21,295,0,0,0,0,0,0,0,0,0,-1,1245,729,0,0
28,295,0,0,0,0,0,0,0,0,0,-1,1252,729,0,0
35,295,0,0,0,0,0,0,0,0,0,-1,1259,729,0,0
42,295,0,0,0,0,0,0,0,0,0,-1,1266,729,0,0
49,295,0,0,0,0,0,0,0,0,0,-1,1273,729,0,0
56,295,0,0,0,0,0,0,0,0,0,-1,1280,729,0,0
63,295,0,0,0,0,0,0,0,0,0,-1,1287,729,0,0
70,295,0,0,0,0,0,0,0,0,0,-1,1294,729,0,0
77,295,0,0,0,0,0,0,0,0,0,-1,1301,729,0,0
84,295,0,0,0,0,0,0,0,0,0,-1,1308,729,0,0
91,295,0,0,0,0,0,0,0,0,0,-1,1315,729,0,0
98,295,0,0,0,0,0,0,0,0,0,-1,1322,729,0,0
105,295,0,0,0,0,0,0,0,0,0,-1,1329,729,0,0
112,295,0,0,0,0,0,0,0,0,0,-1,1336,729,0,0
119,295,0,0,0,0,0,0,0,0,0,-1,1343,729,0,0
126,295,0,0,0,0,0,0,0,0,0,-1,1350,729,0,0
133,295,0,0,0,0,0,0,0,0,0,-1,1357,729,0,0
140,295,0,0,0,0,0,0,0,0,0,-1,1364,729,0,0
147,295,0,0,0,0,0,0,0,0,0,-1,1371,729,0,0
154,295,0,0,0,0,0,0,0,0,0,-1,1378,729,0,0
161,295,0,0,0,0,0,0,0,0,0,-1,1385,729,0,0
168,295,0,0,0,0,0,0,0,0,0,-1,1392,729,0,0
175,295,0,0,0,0,0,0,0,0,0,-1,1399,729,0,0
182,295,0,0,0,0,0,0,0,0,0,-1,1406,729,0,0
189,295,0,0,0,0,0,0,0,0,0,-1,1413,729,0,0
196,295,0,0,0,0,0,0,0,0,0,-1,1420,729,0,0
203,295,0,0,0,0,0,0,0,0,0,-1,1427,729,0,0
210,295,0,0,0,0,0,0,0,0,0,-1,1434,729,0,0
217,295,0,0,0,0,0,0,0,0,0,-1,1441,729,0,0
224,295,0,0,0,0,0,0,0,0,0,-1,1448,729,0,0
231,295,0,0,0,0,0,0,0,0,0,-1,1455,729,0,0
238,295,0,0,0,0,0,0,0,0,0,-1,1462,729,0,0
245,295,0,0,0,0,0,0,0,0,0,-1,1469,729,0,0
252,295,0,0,0,0,0,0,0,0,0,-1,1476,729,0,0
259,295,0,0,0,0,0,0,0,0,0,-1,1483,729,0,0
266,295,0,0,0,0,0,0,0,0,0,-1,1490,729,0,0
273,295,0,0,0,0,0,0,0,0,0,-1,1497,729,0,0
280,295,0,0,0,0,0,0,0,0,0,-1,1504,729,0,0
287,295,0,0,0,0,0,0,0,0,0,-1,1511,729,0,0
294,295,0,0,0,0,0,0,0,0,0,-1,1518,729,0,0
301,295,0,0,0,0,0,0,0,0,0,-1,1525,729,0,0
308,295,0,0,0,0,0,0,0,0,0,-1,1532,729,0,0
315,295,0,0,0,0,0,0,0,0,0,-1,1539,729,0,0
322,295,0,0,0,0,0,0,0,0,0,-1,1546,729,0,0
329,295,0,0,0,0,0,0,0,0,0,-1,1553,729,0,0
336,295,0,0,0,0,0,0,0,0,0,-1,1560,729,0,0
343,295,0,0,0,0,0,0,0,0,0,-1,1567,729,0,0
350,295,0,0,0,0,0,0,0,0,0,-1,1574,729,0,0
357,295,0,0,0,0,0,0,0,0,0,-1,1581,729,0,0
364,295,0,0,0,0,0,0,0,0,0,-1,1588,729,0,0
371,295,0,0,0,0,0,0,0,0,0,-1,1595,729,0,0
378,295,0,0,0,0,0,0,0,0,0,-1,1602,729,0,0
385,295,0,0,0,0,0,0,0,0,0,-1,1609,729,0,0
392,295,0,0,0,0,0,0,0,0,0,-1,1616,729,0,0
399,295,0,0,0,0,0,0,0,0,0,-1,1623,729,0,0
406,295,0,0,0,0,0,0,0,0,0,-1,1630,729,0,0
413,295,0,0,0,0,0,0,0,0,0,-1,1637,729,0,0
420,295,0,0,0,0,0,0,0,0,0,-1,1644,729,0,0
427,295,0,0,0,0,0,0,0,0,0,-1,1651,729,0,0
434,295,0,0,0,0,0,0,0,0,0,-1,1658,729,0,0
441,295,0,0,0,0,0,0,0,0,0,-1,1665,729,0,0
448,295,0,0,0,0,0,0,0,0,0,-1,1672,729,0,0
455,295,0,0,0,0,0,0,0,0,0,-1,1679,729,0,0
462,295,0,0,0,0,0,0,0,0,0,-1,1686,729,0,0
469,295,0,0,0,0,0,0,0,0,0,-1,1693,729,0,0
476,295,0,0,0,0,0,0,0,0,0,-1,1700,729,0,0
483,295,0,0,0,0,0,0,0,0,0,-1,1707,729,0,0
490,295,0,0,0,0,0,0,0,0,0,-1,1714,729,0,0
497,295,0,0,0,0,0,0,0,0,0,-1,1721,729,0,0
504,295,0,0,0,0,0,0,0,0,0,-1,1728,729,0,0
511,295,0,0,0,0,0,0,0,0,0,-1,1735,729,0,0
518,295,0,0,0,0,0,0,0,0,0,-1,1742,729,0,0
525,295,0,0,0,0,0,0,0,0,0,-1,1749,729,0,0
532,295,0,0,0,0,0,0,0,0,0,-1,1756,729,0,0
539,295,0,0,0,0,0,0,0,0,0,-1,1763,729,0,0
546,295,24.4187,4.56165,0,0,0,0,0,0,0,-1,1770,729,24.4186,-4.56167
553,295,24.6594,4.21075,0,0,0,0,0,0,0,-1,1777,729,24.6594,-4.21077
560,295,24.9915,4.16138,0,0,0,0,0,0,0,-1,1784,729,24.9914,-4.16137
567,295,25.6292,4.4884,0,0,0,0,0,0,0,-1,1791,729,25.6291,-4.48839
574,295,26.5083,4.9751,0,0,0,0,0,0,0,-1,1798,729,26.5083,-4.97507
581,295,27.4553,5.63196,0,0,0,0,0,0,0,-1,1805,729,27.4553,-5.63193
588,295,28.5273,6.26849,0,0,0,0,0,0,0,-1,1812,729,28.5273,-6.26848
595,295,24.7372,7.24054,0,0,0,0,0,0,0,-1,1819,729,24.7372,-7.24055
602,295,26.5505,5.9444,0,0,0,0,0,0,0,-1,1826,729,26.5505,-5.94438
609,295,11.7737,2.19989,0,0,0,0,0,0,0,-1,1833,729,11.7736,-2.19988
616,295,18.2977,-1.49609,0,0,0,0,0,0,0,-1,1840,729,18.2978,1.49606
623,295,18.2542,-1.2243,-0.000793868,0.00502988,0.000540331,0.00507959,-0.000843576,1.47906,0.00369978,0.0319152,1847,729,18.2542,1.22432
630,295,18.2294,-0.913391,-0.00208556,0.00294746,0.00173191,0.00348583,-0.00262394,1.26941,0.00353916,0.0119422,1854,729,18.2294,0.913361
637,295,18.2305,-0.538879,-0.00136779,0.0019343,0.0007146,0.00208231,-0.0015158,1.36656,0.00208593,0.012977,1861,729,18.2304,0.538889
644,295,18.241,-0.172058,-0.000731161,0.00120145,-0.000325512,0.0012548,-0.000784515,-1.40833,0.00118779,0.012384,1868,729,18.241,0.172043
651,295,18.2385,0.193359,-0.000372189,0.000339273,-0.000885555,0.000937875,-0.000970791,-0.976385,0.00110202,0.0123385,1875,729,18.2385,-0.193361
658,295,18.2322,0.540833,-0.00042504,-0.000112982,-0.00113195,0.000873642,-0.00141166,-0.853887,0.00133155,0.011675,1882,729,18.2321,-0.540809
665,295,18.2269,0.87561,-0.000550757,-0.000401209,-0.00144967,0.000975615,-0.00192758,-0.811165,0.00170593,0.0107493,1889,729,18.2269,-0.875634
672,295,18.2147,1.22449,-0.000445839,-0.000672232,-0.00176029,0.00120489,-0.00232296,-0.75329,0.00207063,0.0121519,1896,729,18.2147,-1.22451
679,295,18.2122,1.60016,-3.10627e-05,-0.00100694,-0.00205799,0.00159604,-0.00263404,-0.669001,0.00246663,0.00981918,1903,729,18.2122,-1.60014
686,295,18.228,1.9566,0.000524718,-0.00138665,-0.00253462,0.00227784,-0.00313977,-0.605113,0.00314103,0.00996901,1910,729,18.228,-1.95662
693,295,18.178,2.26642,0.00167797,-0.00184349,-0.00290103,0.00331079,-0.0034763,-0.512647,0.00391891,0.0295495,1917,729,18.178,-2.26641
700,295,18.2369,2.62115,0.00388932,-0.00264207,-0.00307277,0.00510767,-0.00386042,-0.377486,0.0051944,0.0437863,1924,729,18.237,-2.62115
707,295,18.5051,2.90314,0,0,0,0,0,0,0,-1,1931,729,18.5051,-2.90314
714,295,17.4906,4.63068,0,0,0,0,0,0,0,-1,1938,729,17.4906,-4.63066
721,295,18.3792,5.32281,0,0,0,0,0,0,0,-1,1945,729,18.3791,-5.32283
728,295,17.379,3.74866,0,0,0,0,0,0,0,-1,1952,729,17.379,-3.74863
735,295,0,0,0,0,0,0,0,0,0,-1,1959,729,0,0
742,295,0,0,0,0,0,0,0,0,0,-1,1966,729,0,0
749,295,0,0,0,0,0,0,0,0,0,-1,1973,729,0,0
756,295,0,0,0,0,0,0,0,0,0,-1,1980,729,0,0
763,295,0,0,0,0,0,0,0,0,0,-1,1987,729,0,0
770,295,0,0,0,0,0,0,0,0,0,-1,1994,729,0,0
777,295,0,0,0,0,0,0,0,0,0,-1,2001,729,0,0
784,295,0,0,0,0,0,0,0,0,0,-1,2008,729,0,0
791,295,0,0,0,0,0,0,0,0,0,-1,2015,729,0,0
798,295,0,0,0,0,0,0,0,0,0,-1,2022,729,0,0
805,295,0,0,0,0,0,0,0,0,0,-1,2029,729,0,0
812,295,0,0,0,0,0,0,0,0,0,-1,2036,729,0,0
-700,288,0,0,0,0,0,0,0,0,0,-1,524,736,0,0
-693,288,0,0,0,0,0,0,0,0,0,-1,531,736,0,0
-686,288,0,0,0,0,0,0,0,0,0,-1,538,736,0,0
-679,288,0,0,0,0,0,0,0,0,0,-1,545,736,0,0
-672,288,0,0,0,0,0,0,0,0,0,-1,552,736,0,0
-665,288,0,0,0,0,0,0,0,0,0,-1,559,736,0,0
-658,288,0,0,0,0,0,0,0,0,0,-1,566,736,0,0
-651,288,0,0,0,0,0,0,0,0,0,-1,573,736,0,0
-644,288,0,0,0,0,0,0,0,0,0,-1,580,736,0,0
-637,288,0,0,0,0,0,0,0,0,0,-1,587,736,0,0
-630,288,0,0,0,0,0,0,0,0,0,-1,594,736,0,0
-623,288,0,0,0,0,0,0,0,0,0,-1,601,736,0,0
-616,288,-11.7584,2.4425,0,0,0,0,0,0,0,-1,608,736,-11.7584,-2.44251
-609,288,-10.3007,2.32178,0,0,0,0,0,0,0,-1,615,736,-10.3007,-2.32178
-602,288,-10.1458,-1.85559,0,0,0,0,0,0,0,-1,622,736,-10.1458,1.85556
-595,288,-7.63208,1.81769,0,0,0,0,0,0,0,-1,629,736,-7.63205,-1.81766
-588,288,-8.19269,1.50598,0,0,0,0,0,0,0,-1,636,736,-8.19268,-1.50601
-581,288,-10.9827,1.02606,0,0,0,0,0,0,0,-1,643,736,-10.9827,-1.02608
-574,288,-10.8714,0.654846,-0.00452142,0.0276759,0.00403153,0.0281731,-0.00501854,1.44811,0.0206591,0.0454959,650,736,-10.8714,-0.654832
-567,288,-10.9999,0.162964,-0.00473178,0.0160807,0.00345347,0.0166387,-0.00528986,1.41058,0.0132136,0.0302344,657,736,-10.9999,-0.162935
-560,288,-11.1749,-0.154724,-0.00502907,0.00431603,0.00240422,0.00489829,-0.00561133,1.33319,0.00607239,0.0147583,664,736,-11.1749,0.154726
-553,288,-11.1678,-0.450012,-0.00440232,0.0012188,0.00219913,0.00197691,-0.00516043,1.23882,0.00425519,0.0173655,671,736,-11.1678,0.450025
-546,288,-11.1896,-0.769104,-0.00341123,0.000742313,0.00201947,0.00156231,-0.00423122,1.18509,0.00346118,0.0184933,678,736,-11.1897,0.769117
-539,288,-11.1965,-1.09692,-0.00273404,3.53203e-05,0.00177249,0.000899878,-0.0035986,1.11699,0.00274857,0.0163272,685,736,-11.1965,1.0969
-532,288,-11.182,-1.43311,-0.00191787,-0.000707237,0.00160257,0.000400523,-0.00302563,0.965973,0.00216299,0.0131759,692,736,-11.182,1.43309
-525,288,-11.1904,-1.76575,-0.00125714,-0.0011923,0.00179607,0.000571638,-0.00302108,0.794424,0.00222917,0.0117623,699,736,-11.1904,1.76574
-518,288,-11.2148,-2.0896,-0.00100595,-0.0015337,0.00246226,0.00120653,-0.00374619,0.732018,0.00298213,0.0116675,706,736,-11.2148,2.08958
-511,288,-11.2103,-2.42383,-0.000923283,-0.00140372,0.00371572,0.00255997,-0.00488698,0.753118,0.00436891,0.00895425,713,736,-11.2103,2.42384
-504,288,-11.2137,-2.76404,-0.00121281,-0.000403152,0.00536261,0.00456989,-0.00618585,0.823072,0.00623314,0.0109674,720,736,-11.2137,2.76402
-497,288,-11.2382,-2.98456,-0.00206271,0.00170132,0.00714851,0.0072114,-0.00757279,0.914114,0.00853651,0.0263728,727,736,-11.2382,2.98457
-490,288,-11.1995,-3.1701,0,0,0,0,0,0,0,-1,734,736,-11.1995,3.17012
-483,288,-12.7689,0.764282,0,0,0,0,0,0,0,-1,741,736,-12.7689,-0.76427
-476,288,-18.0788,1.1225,0,0,0,0,0,0,0,-1,748,736,-18.0788,-1.12251
-469,288,-17.6531,1.3009,0,0,0,0,0,0,0,-1,755,736,-17.6531,-1.30089
-462,288,-19.1483,1.38574,0,0,0,0,0,0,0,-1,762,736,-19.1483,-1.38575
-455,288,-19.3578,1.27887,-0.0150084,0.0353452,0.0241324,0.045043,-0.0247063,1.18869,0.0408364,0.049298,769,736,-19.3578,-1.27885
-448,288,-19.605,1.09058,-0.0215184,0.0490355,0.0279435,0.0587619,-0.0312448,1.23584,0.0527687,0.0476118,776,736,-19.605,-1.09059
-441,288,-19.9909,0.918213,0,0,0,0,0,0,0,-1,783,736,-19.9909,-0.918201
-434,288,-20.4501,1.06042,0,0,0,0,0,0,0,-1,790,736,-20.4501,-1.06045
-427,288,0,0,0,0,0,0,0,0,0,-1,797,736,0,0
-420,288,0,0,0,0,0,0,0,0,0,-1,804,736,0,0
-413,288,0,0,0,0,0,0,0,0,0,-1,811,736,0,0
-406,288,0,0,0,0,0,0,0,0,0,-1,818,736,0,0
-399,288,0,0,0,0,0,0,0,0,0,-1,825,736,0,0
-392,288,0,0,0,0,0,0,0,0,0,-1,832,736,0,0
-385,288,0,0,0,0,0,0,0,0,0,-1,839,736,0,0
-378,288,0,0,0,0,0,0,0,0,0,-1,846,736,0,0
-371,288,0,0,0,0,0,0,0,0,0,-1,853,736,0,0
-364,288,0,0,0,0,0,0,0,0,0,-1,860,736,0,0
-357,288,0,0,0,0,0,0,0,0,0,-1,867,736,0,0
-350,288,0,0,0,0,0,0,0,0,0,-1,874,736,0,0
-343,288,0,0,0,0,0,0,0,0,0,-1,881,736,0,0
-336,288,0,0,0,0,0,0,0,0,0,-1,888,736,0,0
-329,288,0,0,0,0,0,0,0,0,0,-1,895,736,0,0
-322,288,0,0,0,0,0,0,0,0,0,-1,902,736,0,0
-315,288,0,0,0,0,0,0,0,0,0,-1,909,736,0,0
-308,288,0,0,0,0,0,0,0,0,0,-1,916,736,0,0
-301,288,0,0,0,0,0,0,0,0,0,-1,923,736,0,0
-294,288,0,0,0,0,0,0,0,0,0,-1,930,736,0,0
-287,288,0,0,0,0,0,0,0,0,0,-1,937,736,0,0
-280,288,0,0,0,0,0,0,0,0,0,-1,944,736,0,0
-273,288,0,0,0,0,0,0,0,0,0,-1,951,736,0,0
-266,288,0,0,0,0,0,0,0,0,0,-1,958,736,0,0
-259,288,0,0,0,0,0,0,0,0,0,-1,965,736,0,0
-252,288,0,0,0,0,0,0,0,0,0,-1,972,736,0,0
-245,288,0,0,0,0,0,0,0,0,0,-1,979,736,0,0
-238,288,0,0,0,0,0,0,0,0,0,-1,986,736,0,0
-231,288,0,0,0,0,0,0,0,0,0,-1,993,736,0,0
-224,288,0,0,0,0,0,0,0,0,0,-1,1000,736,0,0
-217,288,0,0,0,0,0,0,0,0,0,-1,1007,736,0,0
-210,288,0,0,0,0,0,0,0,0,0,-1,1014,736,0,0
-203,288,0,0,0,0,0,0,0,0,0,-1,1021,736,0,0
-196,288,0,0,0,0,0,0,0,0,0,-1,1028,736,0,0
-189,288,0,0,0,0,0,0,0,0,0,-1,1035,736,0,0
-182,288,0,0,0,0,0,0,0,0,0,-1,1042,736,0,0
-175,288,0,0,0,0,0,0,0,0,0,-1,1049,736,0,0
-168,288,0,0,0,0,0,0,0,0,0,-1,1056,736,0,0
-161,288,0,0,0,0,0,0,0,0,0,-1,1063,736,0,0
-154,288,0,0,0,0,0,0,0,0,0,-1,1070,736,0,0
-147,288,0,0,0,0,0,0,0,0,0,-1,1077,736,0,0
-140,288,0,0,0,0,0,0,0,0,0,-1,1084,736,0,0
-133,288,0,0,0,0,0,0,0,0,0,-1,1091,736,0,0
-126,288,0,0,0,0,0,0,0,0,0,-1,1098,736,0,0
-119,288,0,0,0,0,0,0,0,0,0,-1,1105,736,0,0
-112,288,0,0,0,0,0,0,0,0,0,-1,1112,736,0,0
-105,288,0,0,0,0,0,0,0,0,0,-1,1119,736,0,0
-98,288,0,0,0,0,0,0,0,0,0,-1,1126,736,0,0
-91,288,0,0,0,0,0,0,0,0,0,-1,1133,736,0,0
-84,288,0,0,0,0,0,0,0,0,0,-1,1140,736,0,0
-77,288,0,0,0,0,0,0,0,0,0,-1,1147,736,0,0
-70,288,0,0,0,0,0,0,0,0,0,-1,1154,736,0,0
-63,288,0,0,0,0,0,0,0,0,0,-1,1161,736,0,0
-56,288,0,0,0,0,0,0,0,0,0,-1,1168,736,0,0
-49,288,0,0,0,0,0,0,0,0,0,-1,1175,736,0,0
-42,288,0,0,0,0,0,0,0,0,0,-1,1182,736,0,0
-35,288,0,0,0,0,0,0,0,0,0,-1,1189,736,0,0
-28,288,0,0,0,0,0,0,0,0,0,-1,1196,736,0,0
-21,288,0,0,0,0,0,0,0,0,0,-1,1203,736,0,0
-14,288,0,0,0,0,0,0,0,0,0,-1,1210,736,0,0
-7,288,0,0,0,0,0,0,0,0,0,-1,1217,736,0,0
0,288,0,0,0,0,0,0,0,0,0,-1,1224,736,0,0
7,288,0,0,0,0,0,0,0,0,0,-1,1231,736,0,0
14,288,0,0,0,0,0,0,0,0,0,-1,1238,736,0,0
21,288,0,0,0,0,0,0,0,0,0,-1,1245,736,0,0
28,288,0,0,0,0,0,0,0,0,0,-1,1252,736,0,0
35,288,0,0,0,0,0,0,0,0,0,-1,1259,736,0,0
42,288,0,0,0,0,0,0,0,0,0,-1,1266,736,0,0
49,288,0,0,0,0,0,0,0,0,0,-1,1273,736,0,0
56,288,0,0,0,0,0,0,0,0,0,-1,1280,736,0,0
63,288,0,0,0,0,0,0,0,0,0,-1,1287,736,0,0
70,288,0,0,0,0,0,0,0,0,0,-1,1294,736,0,0
77,288,0,0,0,0,0,0,0,0,0,-1,1301,736,0,0
84,288,0,0,0,0,0,0,0,0,0,-1,1308,736,0,0
91,288,0,0,0,0,0,0,0,0,0,-1,1315,736,0,0
98,288,0,0,0,0,0,0,0,0,0,-1,1322,736,0,0
105,288,0,0,0,0,0,0,0,0,0,-1,1329,736,0,0
112,288,0,0,0,0,0,0,0,0,0,-1,1336,736,0,0
119,288,0,0,0,0,0,0,0,0,0,-1,1343,736,0,0
126,288,0,0,0,0,0,0,0,0,0,-1,1350,736,0,0
133,288,0,0,0,0,0,0,0,0,0,-1,1357,736,0,0
140,288,0,0,0,0,0,0,0,0,0,-1,1364,736,0,0
147,288,0,0,0,0,0,0,0,0,0,-1,1371,736,0,0
154,288,0,0,0,0,0,0,0,0,0,-1,1378,736,0,0
161,288,0,0,0,0,0,0,0,0,0,-1,1385,736,0,0
168,288,0,0,0,0,0,0,0,0,0,-1,1392,736,0,0
175,288,0,0,0,0,0,0,0,0,0,-1,1399,736,0,0
182,288,0,0,0,0,0,0,0,0,0,-1,1406,736,0,0
189,288,0,0,0,0,0,0,0,0,0,-1,1413,736,0,0
196,288,0,0,0,0,0,0,0,0,0,-1,1420,736,0,0
203,288,0,0,0,0,0,0,0,0,0,-1,1427,736,0,0
210,288,0,0,0,0,0,0,0,0,0,-1,1434,736,0,0
217,288,0,0,0,0,0,0,0,0,0,-1,1441,736,0,0
224,288,0,0,0,0,0,0,0,0,0,-1,1448,736,0,0
231,288,0,0,0,0,0,0,0,0,0,-1,1455,736,0,0
238,288,0,0,0,0,0,0,0,0,0,-1,1462,736,0,0
245,288,0,0,0,0,0,0,0,0,0,-1,1469,736,0,0
252,288,0,0,0,0,0,0,0,0,0,-1,1476,736,0,0
259,288,0,0,0,0,0,0,0,0,0,-1,1483,736,0,0
266,288,0,0,0,0,0,0,0,0,0,-1,1490,736,0,0
273,288,0,0,0,0,0,0,0,0,0,-1,1497,736,0,0
280,288,0,0,0,0,0,0,0,0,0,-1,1504,736,0,0
287,288,0,0,0,0,0,0,0,0,0,-1,1511,736,0,0
294,288,0,0,0,0,0,0,0,0,0,-1,1518,736,0,0
301,288,0,0,0,0,0,0,0,0,0,-1,1525,736,0,0
308,288,0,0,0,0,0,0,0,0,0,-1,1532,736,0,0
315,288,0,0,0,0,0,0,0,0,0,-1,1539,736,0,0
322,288,0,0,0,0,0,0,0,0,0,-1,1546,736,0,0
329,288,0,0,0,0,0,0,0,0,0,-1,1553,736,0,0
336,288,0,0,0,0,0,0,0,0,0,-1,1560,736,0,0
343,288,0,0,0,0,0,0,0,0,0,-1,1567,736,0,0
350,288,0,0,0,0,0,0,0,0,0,-1,1574,736,0,0
357,288,0,0,0,0,0,0,0,0,0,-1,1581,736,0,0
364,288,0,0,0,0,0,0,0,0,0,-1,1588,736,0,0
371,288,0,0,0,0,0,0,0,0,0,-1,1595,736,0,0
378,288,0,0,0,0,0,0,0,0,0,-1,1602,736,0,0
385,288,0,0,0,0,0,0,0,0,0,-1,1609,736,0,0
392,288,0,0,0,0,0,0,0,0,0,-1,1616,736,0,0
399,288,0,0,0,0,0,0,0,0,0,-1,1623,736,0,0
406,288,0,0,0,0,0,0,0,0,0,-1,1630,736,0,0
413,288,0,0,0,0,0,0,0,0,0,-1,1637,736,0,0
420,288,0,0,0,0,0,0,0,0,0,-1,1644,736,0,0
427,288,0,0,0,0,0,0,0,0,0,-1,1651,736,0,0
434,288,0,0,0,0,0,0,0,0,0,-1,1658,736,0,0
441,288,0,0,0,0,0,0,0,0,0,-1,1665,736,0,0
448,288,0,0,0,0,0,0,0,0,0,-1,1672,736,0,0
455,288,0,0,0,0,0,0,0,0,0,-1,1679,736,0,0
462,288,0,0,0,0,0,0,0,0,0,-1,1686,736,0,0
469,288,0,0,0,0,0,0,0,0,0,-1,1693,736,0,0
476,288,0,0,0,0,0,0,0,0,0,-1,1700,736,0,0
483,288,0,0,0,0,0,0,0,0,0,-1,1707,736,0,0
490,288,0,0,0,0,0,0,0,0,0,-1,1714,736,0,0
497,288,0,0,0,0,0,0,0,0,0,-1,1721,736,0,0
504,288,0,0,0,0,0,0,0,0,0,-1,1728,736,0,0
511,288,0,0,0,0,0,0,0,0,0,-1,1735,736,0,0
518,288,0,0,0,0,0,0,0,0,0,-1,1742,736,0,0
525,288,0,0,0,0,0,0,0,0,0,-1,1749,736,0,0
532,288,0,0,0,0,0,0,0,0,0,-1,1756,736,0,0
539,288,0,0,0,0,0,0,0,0,0,-1,1763,736,0,0
546,288,0,0,0,0,0,0,0,0,0,-1,1770,736,0,0
553,288,25.1869,3.50854,0,0,0,0,0,0,0,-1,1777,736,25.1869,-3.50857
560,288,25.3739,3.69635,0,0,0,0,0,0,0,-1,1784,736,25.374,-3.69636
567,288,26.021,4.09271,0,0,0,0,0,0,0,-1,1791,736,26.021,-4.09272
574,288,27.9709,3.8938,0,0,0,0,0,0,0,-1,1798,736,27.9709,-3.8938
581,288,29.293,1.53345,0,0,0,0,0,0,0,-1,1805,736,29.2929,-1.53347
588,288,29.3369,2.98309,0,0,0,0,0,0,0,-1,1812,736,29.3369,-2.98307
595,288,29.0732,3.90515,0,0,0,0,0,0,0,-1,1819,736,29.0733,-3.90513
602,288,25.66,5.46246,0,0,0,0,0,0,0,-1,1826,736,25.66,-5.46245
609,288,17.5223,4.86414,0,0,0,0,0,0,0,-1,1833,736,17.5223,-4.86412
616,288,13.4886,0.801331,0,0,0,0,0,0,0,-1,1840,736,13.4886,-0.80132
623,288,18.5846,-1.20038,0,0,0,0,0,0,0,-1,1847,736,18.5846,1.20039
630,288,18.5469,-0.876892,-0.00310301,0.00361858,0.00215893,0.00425227,-0.0037367,1.28529,0.00461564,0.0208893,1854,736,18.5468,0.876917
637,288,18.6096,-0.538208,-0.0023213,0.00254327,0.00107123,0.00276871,-0.00254675,1.36337,0.00306978,0.0100655,1861,736,18.6096,0.538226
644,288,18.62,-0.170166,-0.00152354,0.00173723,-7.21791e-05,0.00173883,-0.00152514,-1.54868,0.0018858,0.0101363,1868,736,18.62,0.17015
651,288,18.5938,0.193176,-0.000899256,0.00070812,-0.000685618,0.000960835,-0.00115197,-1.21765,0.00122149,0.011387,1875,736,18.5938,-0.193155
658,288,18.5884,0.554504,-0.000706021,0.000170236,-0.000918566,0.000749811,-0.0012856,-1.00793,0.00118864,0.0152542,1882,736,18.5883,-0.554484
665,288,18.6138,0.897095,-0.000614725,-0.000115963,-0.00115881,0.000819996,-0.00155068,-0.891384,0.00139021,0.0158728,1889,736,18.6138,-0.897064
672,288,18.5892,1.23566,-0.000260037,-0.000311996,-0.00132805,0.00104229,-0.00161432,-0.775618,0.0015456,0.0143478,1896,736,18.5892,-1.23568
679,288,18.5784,1.61926,0.000413344,-0.000539955,-0.00140415,0.00141954,-0.00154615,-0.621772,0.00171277,0.0123865,1903,736,18.5784,-1.61926
686,288,18.5692,1.93689,0.00116448,-0.000791868,-0.00165692,0.00211041,-0.0017378,-0.518749,0.00222524,0.00991427,1910,736,18.5692,-1.9369
693,288,18.5763,2.30865,0.00252668,-0.00110843,-0.00179907,0.0032665,-0.00184825,-0.390143,0.0029906,0.0139681,1917,736,18.5763,-2.30863
700,288,18.5233,2.68256,0.00492911,-0.00169325,-0.00169413,0.00533733,-0.00210147,-0.236458,0.00442817,0.0287558,1924,736,18.5233,-2.68255
707,288,18.6897,2.83698,0.00892794,-0.00253284,-0.00115506,0.00904319,-0.00264809,-0.0994513,0.00707857,0.0448516,1931,736,18.6897,-2.83694
714,288,18.8367,3.00989,0,0,0,0,0,0,0,-1,1938,736,18.8367,-3.00986
721,288,18.0732,3.69385,0,0,0,0,0,0,0,-1,1945,736,18.0732,-3.69387
728,288,19.3208,3.91455,0,0,0,0,0,0,0,-1,1952,736,19.3209,-3.91455
735,288,18.7712,3.51312,0,0,0,0,0,0,0,-1,1959,736,18.7713,-3.51309
742,288,0,0,0,0,0,0,0,0,0,-1,1966,736,0,0
749,288,0,0,0,0,0,0,0,0,0,-1,1973,736,0,0
756,288,0,0,0,0,0,0,0,0,0,-1,1980,736,0,0
763,288,0,0,0,0,0,0,0,0,0,-1,1987,736,0,0
770,288,0,0,0,0,0,0,0,0,0,-1,1994,736,0,0
777,288,0,0,0,0,0,0,0,0,0,-1,2001,736,0,0
784,288,0,0,0,0,0,0,0,0,0,-1,2008,736,0,0
791,288,0,0,0,0,0,0,0,0,0,-1,2015,736,0,0
798,288,0,0,0,0,0,0,0,0,0,-1,2022,736,0,0
805,288,0,0,0,0,0,0,0,0,0,-1,2029,736,0,0
812,288,0,0,0,0,0,0,0,0,0,-1,2036,736,0,0
-700,281,0,0,0,0,0,0,0,0,0,-1,524,743,0,0
-693,281,0,0,0,0,0,0,0,0,0,-1,531,743,0,0
-686,281,0,0,0,0,0,0,0,0,0,-1,538,743,0,0
-679,281,0,0,0,0,0,0,0,0,0,-1,545,743,0,0
-672,281,0,0,0,0,0,0,0,0,0,-1,552,743,0,0
-665,281,0,0,0,0,0,0,0,0,0,-1,559,743,0,0
-658,281,0,0,0,0,0,0,0,0,0,-1,566,743,0,0
-651,281,0,0,0,0,0,0,0,0,0,-1,573,743,0,0
-644,281,0,0,0,0,0,0,0,0,0,-1,580,743,0,0
-637,281,0,0,0,0,0,0,0,0,0,-1,587,743,0,0
-630,281,0,0,0,0,0,0,0,0,0,-1,594,743,0,0
-623,281,-14.1312,5.10962,0,0,0,0,0,0,0,-1,601,743,-14.1312,-5.10964
-616,281,-11.1393,2.46698,0,0,0,0,0,0,0,-1,608,743,-11.1393,-2.46697
-609,281,-10.5098,2.23016,0,0,0,0,0,0,0,-1,615,743,-10.5098,-2.23017
-602,281,-9.68762,2.23035,0,0,0,0,0,0,0,-1,622,743,-9.68763,-2.23038
-595,281,-10.4797,-1.07404,0,0,0,0,0,0,0,-1,629,743,-10.4798,1.07402
-588,281,-10.5586,1.50061,0,0,0,0,0,0,0,-1,636,743,-10.5586,-1.50062
-581,281,-11.3474,0.799316,0,0,0,0,0,0,0,-1,643,743,-11.3474,-0.799287
-574,281,-11.3676,0.507935,-0.00134016,0.02767,0.00440484,0.0283241,-0.00199424,1.42338,0.0195813,0.0310734,650,743,-11.3676,-0.507948
-567,281,-11.4985,0.215698,-0.00239827,0.0160632,0.00363583,0.0167534,-0.00308851,1.38319,0.0123281,0.0151932,657,743,-11.4985,-0.21572
-560,281,-11.5303,-0.115234,-0.00357493,0.00379899,0.00240759,0.00451545,-0.0042914,1.28156,0.00508519,0.00850915,664,743,-11.5304,0.115214
-553,281,-11.5078,-0.446594,-0.00357453,0.000340981,0.00218254,0.00131517,-0.00454872,1.15098,0.00355295,0.0133833,671,743,-11.5077,0.446579
-546,281,-11.5049,-0.753784,-0.0028557,-7.05944e-05,0.00213195,0.00108331,-0.0040096,1.0747,0.00309796,0.0145341,678,743,-11.5049,0.753795
-539,281,-11.5292,-1.08746,-0.00249012,-0.00079278,0.00204565,0.00057326,-0.00385616,0.982026,0.00278162,0.0132883,685,743,-11.5292,1.08747
-532,281,-11.5385,-1.4079,-0.00193275,-0.00162669,0.00199552,0.000221658,-0.0037811,0.823666,0.00259778,0.0129267,692,743,-11.5385,1.40793
-525,281,-11.5397,-1.73914,-0.00145803,-0.00212255,0.00233133,0.000564597,-0.00414517,0.714615,0.00296959,0.0147275,699,743,-11.5397,1.73911
-518,281,-11.5523,-2.08588,-0.00132651,-0.00254101,0.00308822,0.00121359,-0.00508111,0.688319,0.00385613,0.0129095,706,743,-11.5523,2.08587
-511,281,-11.5712,-2.44269,-0.00125495,-0.00243213,0.00441186,0.00260741,-0.00629449,0.719085,0.00528442,0.0110676,713,743,-11.5712,2.4427
-504,281,-11.571,-2.78217,-0.00145385,-0.00146042,0.00606198,0.00460485,-0.00751912,0.785127,0.00706686,0.0142627,720,743,-11.571,2.7822
-497,281,-11.483,-3.18237,-0.00216867,0.00056352,0.00781788,0.00713377,-0.00873891,0.871895,0.0091797,0.0414297,727,743,-11.483,3.18238
-490,281,-11.343,-3.51025,0,0,0,0,0,0,0,-1,734,743,-11.343,3.51024
-483,281,-19.0268,-0.770996,0,0,0,0,0,0,0,-1,741,743,-19.0268,0.770995
-476,281,-19.3176,0.174377,0,0,0,0,0,0,0,-1,748,743,-19.3176,-0.174394
-469,281,-19.3987,0.952332,-0.00699483,0.0161968,0.0183962,0.0263468,-0.0171449,1.06661,0.0252966,0.0468557,755,743,-19.3987,-0.952326
-462,281,-19.6746,0.943726,-0.00966189,0.0236763,0.0218841,0.0345167,-0.0205023,1.11087,0.0321069,0.0465792,762,743,-19.6745,-0.943753
-455,281,-19.8898,0.850464,-0.0133069,0.0332532,0.025765,0.0446977,-0.0247514,1.15279,0.0406439,0.0453094,769,743,-19.8898,-0.850448
-448,281,-20.0477,0.597717,-0.0180789,0.0448391,0.0296905,0.0566374,-0.0298772,1.19255,0.0507395,0.0456658,776,743,-20.0477,-0.597737
-441,281,-20.2383,0.425842,0,0,0,0,0,0,0,-1,783,743,-20.2383,-0.42583
-434,281,0,0,0,0,0,0,0,0,0,-1,790,743,0,0
-427,281,0,0,0,0,0,0,0,0,0,-1,797,743,0,0
-420,281,0,0,0,0,0,0,0,0,0,-1,804,743,0,0
-413,281,0,0,0,0,0,0,0,0,0,-1,811,743,0,0
-406,281,0,0,0,0,0,0,0,0,0,-1,818,743,0,0
-399,281,0,0,0,0,0,0,0,0,0,-1,825,743,0,0
-392,281,0,0,0,0,0,0,0,0,0,-1,832,743,0,0
-385,281,0,0,0,0,0,0,0,0,0,-1,839,743,0,0
-378,281,0,0,0,0,0,0,0,0,0,-1,846,743,0,0
-371,281,0,0,0,0,0,0,0,0,0,-1,853,743,0,0
-364,281,0,0,0,0,0,0,0,0,0,-1,860,743,0,0
-357,281,0,0,0,0,0,0,0,0,0,-1,867,743,0,0
-350,281,0,0,0,0,0,0,0,0,0,-1,874,743,0,0
-343,281,0,0,0,0,0,0,0,0,0,-1,881,743,0,0
-336,281,0,0,0,0,0,0,0,0,0,-1,888,743,0,0
-329,281,0,0,0,0,0,0,0,0,0,-1,895,743,0,0
-322,281,0,0,0,0,0,0,0,0,0,-1,902,743,0,0
-315,281,0,0,0,0,0,0,0,0,0,-1,909,743,0,0
-308,281,0,0,0,0,0,0,0,0,0,-1,916,743,0,0
-301,281,0,0,0,0,0,0,0,0,0,-1,923,743,0,0
-294,281,0,0,0,0,0,0,0,0,0,-1,930,743,0,0
-287,281,0,0,0,0,0,0,0,0,0,-1,937,743,0,0
-280,281,0,0,0,0,0,0,0,0,0,-1,944,743,0,0
-273,281,0,0,0,0,0,0,0,0,0,-1,951,743,0,0
-266,281,0,0,0,0,0,0,0,0,0,-1,958,743,0,0
-259,281,0,0,0,0,0,0,0,0,0,-1,965,743,0,0
-252,281,0,0,0,0,0,0,0,0,0,-1,972,743,0,0
-245,281,0,0,0,0,0,0,0,0,0,-1,979,743,0,0
-238,281,0,0,0,0,0,0,0,0,0,-1,986,743,0,0
-231,281,0,0,0,0,0,0,0,0,0,-1,993,743,0,0
-224,281,0,0,0,0,0,0,0,0,0,-1,1000,743,0,0
-217,281,0,0,0,0,0,0,0,0,0,-1,1007,743,0,0
-210,281,0,0,0,0,0,0,0,0,0,-1,1014,743,0,0
-203,281,0,0,0,0,0,0,0,0,0,-1,1021,743,0,0
-196,281,0,0,0,0,0,0,0,0,0,-1,1028,743,0,0
-189,281,0,0,0,0,0,0,0,0,0,-1,1035,743,0,0
-182,281,0,0,0,0,0,0,0,0,0,-1,1042,743,0,0
-175,281,0,0,0,0,0,0,0,0,0,-1,1049,743,0,0
-168,281,0,0,0,0,0,0,0,0,0,-1,1056,743,0,0
-161,281,0,0,0,0,0,0,0,0,0,-1,1063,743,0,0
-154,281,0,0,0,0,0,0,0,0,0,-1,1070,743,0,0
-147,281,0,0,0,0,0,0,0,0,0,-1,1077,743,0,0
-140,281,0,0,0,0,0,0,0,0,0,-1,1084,743,0,0
-133,281,0,0,0,0,0,0,0,0,0,-1,1091,743,0,0
-126,281,0,0,0,0,0,0,0,0,0,-1,1098,743,0,0
-119,281,0,0,0,0,0,0,0,0,0,-1,1105,743,0,0
-112,281,0,0,0,0,0,0,0,0,0,-1,1112,743,0,0
-105,281,0,0,0,0,0,0,0,0,0,-1,1119,743,0,0
-98,281,0,0,0,0,0,0,0,0,0,-1,1126,743,0,0
-91,281,0,0,0,0,0,0,0,0,0,-1,1133,743,0,0
-84,281,0,0,0,0,0,0,0,0,0,-1,1140,743,0,0
-77,281,0,0,0,0,0,0,0,0,0,-1,1147,743,0,0
-70,281,0,0,0,0,0,0,0,0,0,-1,1154,743,0,0
-63,281,0,0,0,0,0,0,0,0,0,-1,1161,743,0,0
-56,281,0,0,0,0,0,0,0,0,0,-1,1168,743,0,0
-49,281,0,0,0,0,0,0,0,0,0,-1,1175,743,0,0
-42,281,0,0,0,0,0,0,0,0,0,-1,1182,743,0,0
-35,281,0,0,0,0,0,0,0,0,0,-1,1189,743,0,0
-28,281,0,0,0,0,0,0,0,0,0,-1,1196,743,0,0
-21,281,0,0,0,0,0,0,0,0,0,-1,1203,743,0,0
-14,281,0,0,0,0,0,0,0,0,0,-1,1210,743,0,0
-7,281,0,0,0,0,0,0,0,0,0,-1,1217,743,0,0
0,281,0,0,0,0,0,0,0,0,0,-1,1224,743,0,0
7,281,0,0,0,0,0,0,0,0,0,-1,1231,743,0,0
14,281,0,0,0,0,0,0,0,0,0,-1,1238,743,0,0
21,281,0,0,0,0,0,0,0,0,0,-1,1245,743,0,0
28,281,0,0,0,0,0,0,0,0,0,-1,1252,743,0,0
35,281,0,0,0,0,0,0,0,0,0,-1,1259,743,0,0
42,281,0,0,0,0,0,0,0,0,0,-1,1266,743,0,0
49,281,0,0,0,0,0,0,0,0,0,-1,1273,743,0,0
56,281,0,0,0,0,0,0,0,0,0,-1,1280,743,0,0
63,281,0,0,0,0,0,0,0,0,0,-1,1287,743,0,0
70,281,0,0,0,0,0,0,0,0,0,-1,1294,743,0,0
77,281,0,0,0,0,0,0,0,0,0,-1,1301,743,0,0
84,281,0,0,0,0,0,0,0,0,0,-1,1308,743,0,0
91,281,0,0,0,0,0,0,0,0,0,-1,1315,743,0,0
98,281,0,0,0,0,0,0,0,0,0,-1,1322,743,0,0
105,281,0,0,0,0,0,0,0,0,0,-1,1329,743,0,0
112,281,0,0,0,0,0,0,0,0,0,-1,1336,743,0,0
119,281,0,0,0,0,0,0,0,0,0,-1,1343,743,0,0
126,281,0,0,0,0,0,0,0,0,0,-1,1350,743,0,0
133,281,0,0,0,0,0,0,0,0,0,-1,1357,743,0,0
140,281,0,0,0,0,0,0,0,0,0,-1,1364,743,0,0
147,281,0,0,0,0,0,0,0,0,0,-1,1371,743,0,0
154,281,0,0,0,0,0,0,0,0,0,-1,1378,743,0,0
161,281,0,0,0,0,0,0,0,0,0,-1,1385,743,0,0
168,281,0,0,0,0,0,0,0,0,0,-1,1392,743,0,0
175,281,0,0,0,0,0,0,0,0,0,-1,1399,743,0,0
182,281,0,0,0,0,0,0,0,0,0,-1,1406,743,0,0
189,281,0,0,0,0,0,0,0,0,0,-1,1413,743,0,0
196,281,0,0,0,0,0,0,0,0,0,-1,1420,743,0,0
203,281,0,0,0,0,0,0,0,0,0,-1,1427,743,0,0
210,281,0,0,0,0,0,0,0,0,0,-1,1434,743,0,0
217,281,0,0,0,0,0,0,0,0,0,-1,1441,743,0,0
224,281,0,0,0,0,0,0,0,0,0,-1,1448,743,0,0
231,281,0,0,0,0,0,0,0,0,0,-1,1455,743,0,0
238,281,0,0,0,0,0,0,0,0,0,-1,1462,743,0,0
245,281,0,0,0,0,0,0,0,0,0,-1,1469,743,0,0
252,281,0,0,0,0,0,0,0,0,0,-1,1476,743,0,0
259,281,0,0,0,0,0,0,0,0,0,-1,1483,743,0,0
266,281,0,0,0,0,0,0,0,0,0,-1,1490,743,0,0
273,281,0,0,0,0,0,0,0,0,0,-1,1497,743,0,0
280,281,0,0,0,0,0,0,0,0,0,-1,1504,743,0,0
287,281,0,0,0,0,0,0,0,0,0,-1,1511,743,0,0
294,281,0,0,0,0,0,0,0,0,0,-1,1518,743,0,0
301,281,0,0,0,0,0,0,0,0,0,-1,1525,743,0,0
308,281,0,0,0,0,0,0,0,0,0,-1,1532,743,0,0
315,281,0,0,0,0,0,0,0,0,0,-1,1539,743,0,0
322,281,0,0,0,0,0,0,0,0,0,-1,1546,743,0,0
329,281,0,0,0,0,0,0,0,0,0,-1,1553,743,0,0
336,281,0,0,0,0,0,0,0,0,0,-1,1560,743,0,0
343,281,0,0,0,0,0,0,0,0,0,-1,1567,743,0,0
350,281,0,0,0,0,0,0,0,0,0,-1,1574,743,0,0
357,281,0,0,0,0,0,0,0,0,0,-1,1581,743,0,0
364,281,0,0,0,0,0,0,0,0,0,-1,1588,743,0,0
371,281,0,0,0,0,0,0,0,0,0,-1,1595,743,0,0
378,281,0,0,0,0,0,0,0,0,0,-1,1602,743,0,0
385,281,0,0,0,0,0,0,0,0,0,-1,1609,743,0,0
392,281,0,0,0,0,0,0,0,0,0,-1,1616,743,0,0
399,281,0,0,0,0,0,0,0,0,0,-1,1623,743,0,0
406,281,0,0,0,0,0,0,0,0,0,-1,1630,743,0,0
413,281,0,0,0,0,0,0,0,0,0,-1,1637,743,0,0
420,281,0,0,0,0,0,0,0,0,0,-1,1644,743,0,0
427,281,0,0,0,0,0,0,0,0,0,-1,1651,743,0,0
434,281,0,0,0,0,0,0,0,0,0,-1,1658,743,0,0
441,281,0,0,0,0,0,0,0,0,0,-1,1665,743,0,0
448,281,0,0,0,0,0,0,0,0,0,-1,1672,743,0,0
455,281,0,0,0,0,0,0,0,0,0,-1,1679,743,0,0
462,281,0,0,0,0,0,0,0,0,0,-1,1686,743,0,0
469,281,0,0,0,0,0,0,0,0,0,-1,1693,743,0,0
476,281,0,0,0,0,0,0,0,0,0,-1,1700,743,0,0
483,281,0,0,0,0,0,0,0,0,0,-1,1707,743,0,0
490,281,0,0,0,0,0,0,0,0,0,-1,1714,743,0,0
497,281,0,0,0,0,0,0,0,0,0,-1,1721,743,0,0
504,281,0,0,0,0,0,0,0,0,0,-1,1728,743,0,0
511,281,0,0,0,0,0,0,0,0,0,-1,1735,743,0,0
518,281,0,0,0,0,0,0,0,0,0,-1,1742,743,0,0
525,281,0,0,0,0,0,0,0,0,0,-1,1749,743,0,0
532,281,0,0,0,0,0,0,0,0,0,-1,1756,743,0,0
539,281,0,0,0,0,0,0,0,0,0,-1,1763,743,0,0
546,281,0,0,0,0,0,0,0,0,0,-1,1770,743,0,0
553,281,0,0,0,0,0,0,0,0,0,-1,1777,743,0,0
560,281,29.3169,2.88263,0,0,0,0,0,0,0,-1,1784,743,29.3169,-2.8826
567,281,28.1971,3.89764,0,0,0,0,0,0,0,-1,1791,743,28.1972,-3.89767
574,281,28.4532,3.50134,0.0236673,0.0292482,-0.0306507,0.0572352,-0.00431968,-0.830794,0.0396751,0.0479749,1798,743,28.4532,-3.50136
581,281,29.5005,1.38269,0,0,0,0,0,0,0,-1,1805,743,29.5005,-1.3827
588,281,29.4766,2.78546,0.0101516,0.0203304,-0.0105998,0.0269993,0.00348273,-1.00922,0.0169582,0.042778,1812,743,29.4766,-2.78549
595,281,29.2329,3.49658,0.00509251,0.0166032,-0.00489699,0.0184046,0.00329111,-1.2183,0.0113331,0.047368,1819,743,29.2329,-3.49658
602,281,28.928,4.23987,0,0,0,0,0,0,0,-1,1826,743,28.928,-4.23988
609,281,29.5114,2.23206,0,0,0,0,0,0,0,-1,1833,743,29.5113,-2.23207
616,281,19.7532,0.0239868,0,0,0,0,0,0,0,-1,1840,743,19.7532,-0.0239913
623,281,18.7319,-1.09448,0,0,0,0,0,0,0,-1,1847,743,18.7319,1.09447
630,281,18.864,-0.835449,-0.00404205,0.00387782,0.00221082,0.00445317,-0.0046174,1.3162,0.00523718,0.0366995,1854,743,18.864,0.835453
637,281,18.9435,-0.53186,-0.00334481,0.00273664,0.00116225,0.00295119,-0.00355936,1.38825,0.00376434,0.0133878,1861,743,18.9435,0.531851
644,281,18.9579,-0.146179,-0.00254545,0.00187592,2.7498e-05,0.00187609,-0.00254562,1.56458,0.00256261,0.0109657,1868,743,18.9579,0.146207
651,281,18.9556,0.189331,-0.0017521,0.000762077,-0.000591694,0.000894368,-0.00188439,-1.35083,0.00163791,0.0122873,1875,743,18.9555,-0.18934
658,281,18.9501,0.541504,-0.00131505,0.000186259,-0.000811138,0.000540787,-0.00166958,-1.15874,0.00133047,0.0197066,1882,743,18.9501,-0.541497
665,281,18.9888,0.880554,-0.000969785,-5.67278e-05,-0.00098309,0.000570665,-0.00159718,-1.00277,0.00129753,0.0213247,1889,743,18.9887,-0.880571
672,281,18.9423,1.25513,-0.000287434,-0.000118028,-0.00102044,0.00082122,-0.00122668,-0.826806,0.00119006,0.0125298,1896,743,18.9423,-1.25515
679,281,18.9407,1.58447,0.000736742,-0.000211278,-0.000902023,0.00128172,-0.000756253,-0.54348,0.00118959,0.0180837,1903,743,18.9406,-1.58448
686,281,18.9092,1.90796,0.00176926,-0.000311598,-0.000977603,0.00215649,-0.000698824,-0.377138,0.00171863,0.0145021,1910,743,18.9091,-1.90795
693,281,18.9052,2.26685,0.00331716,-0.000504003,-0.000944403,0.00353783,-0.00072467,-0.229539,0.00263356,0.0108047,1917,743,18.9052,-2.26682
700,281,18.8956,2.60529,0.00589146,-0.000908981,-0.000649522,0.00595294,-0.000970462,-0.0943748,0.00432853,0.0197536,1924,743,18.8956,-2.60529
707,281,18.9114,2.85065,0.00996641,-0.00154676,9.08587e-05,0.00996713,-0.00154748,0.00789106,0.0072161,0.0409471,1931,743,18.9114,-2.85065
714,281,18.9713,3.09509,0,0,0,0,0,0,0,-1,1938,743,18.9713,-3.09507
721,281,16.9656,3.22174,0,0,0,0,0,0,0,-1,1945,743,16.9656,-3.22172
728,281,19.0251,3.63934,0,0,0,0,0,0,0,-1,1952,743,19.0252,-3.63932
735,281,19.0869,2.50311,0,0,0,0,0,0,0,-1,1959,743,19.0869,-2.5031
742,281,0,0,0,0,0,0,0,0,0,-1,1966,743,0,0
749,281,0,0,0,0,0,0,0,0,0,-1,1973,743,0,0
756,281,0,0,0,0,0,0,0,0,0,-1,1980,743,0,0
763,281,0,0,0,0,0,0,0,0,0,-1,1987,743,0,0
770,281,0,0,0,0,0,0,0,0,0,-1,1994,743,0,0
777,281,0,0,0,0,0,0,0,0,0,-1,2001,743,0,0
784,281,0,0,0,0,0,0,0,0,0,-1,2008,743,0,0
791,281,0,0,0,0,0,0,0,0,0,-1,2015,743,0,0
798,281,0,0,0,0,0,0,0,0,0,-1,2022,743,0,0
805,281,0,0,0,0,0,0,0,0,0,-1,2029,743,0,0
812,281,0,0,0,0,0,0,0,0,0,-1,2036,743,0,0
-700,274,0,0,0,0,0,0,0,0,0,-1,524,750,0,0
-693,274,0,0,0,0,0,0,0,0,0,-1,531,750,0,0
-686,274,0,0,0,0,0,0,0,0,0,-1,538,750,0,0
-679,274,0,0,0,0,0,0,0,0,0,-1,545,750,0,0
-672,274,0,0,0,0,0,0,0,0,0,-1,552,750,0,0
-665,274,0,0,0,0,0,0,0,0,0,-1,559,750,0,0
-658,274,0,0,0,0,0,0,0,0,0,-1,566,750,0,0
-651,274,0,0,0,0,0,0,0,0,0,-1,573,750,0,0
-644,274,0,0,0,0,0,0,0,0,0,-1,580,750,0,0
-637,274,0,0,0,0,0,0,0,0,0,-1,587,750,0,0
-630,274,0,0,0,0,0,0,0,0,0,-1,594,750,0,0
-623,274,-14.3429,3.75806,0,0,0,0,0,0,0,-1,601,750,-14.3429,-3.75805
-616,274,-14.3758,4.08948,0,0,0,0,0,0,0,-1,608,750,-14.3758,-4.08948
-609,274,-11.0388,5.00842,0,0,0,0,0,0,0,-1,615,750,-11.0387,-5.00842
-602,274,-11.163,3.6438,0,0,0,0,0,0,0,-1,622,750,-11.163,-3.64377
-595,274,-11.1272,2.56677,0,0,0,0,0,0,0,-1,629,750,-11.1272,-2.56678
-588,274,-11.6697,1.11395,0,0,0,0,0,0,0,-1,636,750,-11.6697,-1.11394
-581,274,-11.7014,0.822937,0.00397238,0.0438661,0.00595157,0.044735,0.00310342,1.42582,0.0288446,0.0412265,643,750,-11.7014,-0.822907
-574,274,-11.7234,0.530518,0.00150167,0.0279367,0.00413341,0.0285679,0.000870439,1.41925,0.0187619,0.0209963,650,750,-11.7234,-0.530533
-567,274,-11.8433,0.195496,-0.000332098,0.0162174,0.00326254,0.0168373,-0.000952047,1.38301,0.0115553,0.0189757,657,750,-11.8433,-0.195525
-560,274,-11.8519,-0.115601,-0.0021349,0.00357628,0.0020533,0.00423785,-0.00279648,1.2591,0.00408959,0.0145424,664,750,-11.8519,0.115615
-553,274,-11.852,-0.444153,-0.00263228,-0.00020566,0.00192046,0.000852659,-0.0036906,1.06713,0.00278842,0.00933283,671,750,-11.852,0.444135
-546,274,-11.8542,-0.764893,-0.00225994,-0.000618825,0.00199827,0.000720805,-0.00359957,0.980217,0.00267258,0.0109259,678,750,-11.8543,0.764869
-539,274,-11.8715,-1.08417,-0.00228824,-0.00139729,0.00209008,0.000294265,-0.00397979,0.890396,0.00275653,0.0115304,685,750,-11.8715,1.08414
-532,274,-11.8819,-1.40381,-0.00207993,-0.00234275,0.00213673,-7.05707e-05,-0.0043521,0.754686,0.00287817,0.0122804,692,750,-11.8819,1.40381
-525,274,-11.8851,-1.72614,-0.00186042,-0.0028614,0.00254602,0.000233834,-0.00495565,0.688347,0.00338441,0.0126548,699,750,-11.8851,1.72611
-518,274,-11.883,-2.07477,-0.00187754,-0.00336455,0.0032893,0.000751239,-0.00599333,0.674247,0.00426806,0.0123833,706,750,-11.883,2.07476
-511,274,-11.8952,-2.44025,-0.00181581,-0.00330585,0.00458007,0.00207944,-0.0072011,0.704772,0.00562353,0.0120404,713,750,-11.8952,2.44024
-504,274,-11.9,-2.80499,-0.00190934,-0.00244721,0.00615987,0.00398746,-0.00834402,0.763583,0.00726618,0.0227772,720,750,-11.9,2.80501
-497,274,-11.9257,-3.21228,-0.00244055,-0.000641875,0.00783676,0.00634698,-0.0094294,0.842528,0.00916627,0.0497248,727,750,-11.9257,3.21225
-490,274,-11.9488,-3.61206,0,0,0,0,0,0,0,-1,734,750,-11.9488,3.61207
-483,274,-19.5716,-3.547,0,0,0,0,0,0,0,-1,741,750,-19.5716,3.54699
-476,274,-20.3578,0.663208,0,0,0,0,0,0,0,-1,748,750,-20.3579,-0.663198
-469,274,-20.1895,0.68042,-0.00567181,0.0135088,0.0183753,0.0246459,-0.0168089,1.02591,0.0240761,0.048356,755,750,-20.1894,-0.680423
-462,274,-20.3884,0.801575,-0.00744971,0.0199694,0.0218059,0.0320174,-0.0194977,1.06603,0.0300336,0.0475059,762,750,-20.3885,-0.801593
-455,274,-20.4116,0.838867,-0.00966172,0.0278416,0.0254308,0.0406867,-0.0225067,1.10308,0.0369846,0.0470051,769,750,-20.4116,-0.83885
-448,274,-20.1794,1.13525,0,0,0,0,0,0,0,-1,776,750,-20.1795,-1.13526
-441,274,0,0,0,0,0,0,0,0,0,-1,783,750,0,0
-434,274,0,0,0,0,0,0,0,0,0,-1,790,750,0,0
-427,274,0,0,0,0,0,0,0,0,0,-1,797,750,0,0
-420,274,0,0,0,0,0,0,0,0,0,-1,804,750,0,0
-413,274,0,0,0,0,0,0,0,0,0,-1,811,750,0,0
-406,274,0,0,0,0,0,0,0,0,0,-1,818,750,0,0
-399,274,0,0,0,0,0,0,0,0,0,-1,825,750,0,0
-392,274,0,0,0,0,0,0,0,0,0,-1,832,750,0,0
-385,274,0,0,0,0,0,0,0,0,0,-1,839,750,0,0
-378,274,0,0,0,0,0,0,0,0,0,-1,846,750,0,0
-371,274,0,0,0,0,0,0,0,0,0,-1,853,750,0,0
-364,274,0,0,0,0,0,0,0,0,0,-1,860,750,0,0
-357,274,0,0,0,0,0,0,0,0,0,-1,867,750,0,0
-350,274,0,0,0,0,0,0,0,0,0,-1,874,750,0,0
-343,274,0,0,0,0,0,0,0,0,0,-1,881,750,0,0
-336,274,0,0,0,0,0,0,0,0,0,-1,888,750,0,0
-329,274,0,0,0,0,0,0,0,0,0,-1,895,750,0,0
-322,274,0,0,0,0,0,0,0,0,0,-1,902,750,0,0
-315,274,0,0,0,0,0,0,0,0,0,-1,909,750,0,0
-308,274,0,0,0,0,0,0,0,0,0,-1,916,750,0,0
-301,274,0,0,0,0,0,0,0,0,0,-1,923,750,0,0
-294,274,0,0,0,0,0,0,0,0,0,-1,930,750,0,0
-287,274,0,0,0,0,0,0,0,0,0,-1,937,750,0,0
-280,274,0,0,0,0,0,0,0,0,0,-1,944,750,0,0
-273,274,0,0,0,0,0,0,0,0,0,-1,951,750,0,0
-266,274,0,0,0,0,0,0,0,0,0,-1,958,750,0,0
-259,274,0,0,0,0,0,0,0,0,0,-1,965,750,0,0
-252,274,0,0,0,0,0,0,0,0,0,-1,972,750,0,0
-245,274,0,0,0,0,0,0,0,0,0,-1,979,750,0,0
-238,274,0,0,0,0,0,0,0,0,0,-1,986,750,0,0
-231,274,0,0,0,0,0,0,0,0,0,-1,993,750,0,0
-224,274,0,0,0,0,0,0,0,0,0,-1,1000,750,0,0
-217,274,0,0,0,0,0,0,0,0,0,-1,1007,750,0,0
-210,274,0,0,0,0,0,0,0,0,0,-1,1014,750,0,0
-203,274,0,0,0,0,0,0,0,0,0,-1,1021,750,0,0
-196,274,0,0,0,0,0,0,0,0,0,-1,1028,750,0,0
-189,274,0,0,0,0,0,0,0,0,0,-1,1035,750,0,0
-182,274,0,0,0,0,0,0,0,0,0,-1,1042,750,0,0
-175,274,0,0,0,0,0,0,0,0,0,-1,1049,750,0,0
-168,274,0,0,0,0,0,0,0,0,0,-1,1056,750,0,0
-161,274,0,0,0,0,0,0,0,0,0,-1,1063,750,0,0
-154,274,0,0,0,0,0,0,0,0,0,-1,1070,750,0,0
-147,274,0,0,0,0,0,0,0,0,0,-1,1077,750,0,0
-140,274,0,0,0,0,0,0,0,0,0,-1,1084,750,0,0
-133,274,0,0,0,0,0,0,0,0,0,-1,1091,750,0,0
-126,274,0,0,0,0,0,0,0,0,0,-1,1098,750,0,0
-119,274,0,0,0,0,0,0,0,0,0,-1,1105,750,0,0
-112,274,0,0,0,0,0,0,0,0,0,-1,1112,750,0,0
-105,274,0,0,0,0,0,0,0,0,0,-1,1119,750,0,0
-98,274,0,0,0,0,0,0,0,0,0,-1,1126,750,0,0
-91,274,0,0,0,0,0,0,0,0,0,-1,1133,750,0,0
-84,274,0,0,0,0,0,0,0,0,0,-1,1140,750,0,0
-77,274,0,0,0,0,0,0,0,0,0,-1,1147,750,0,0
-70,274,0,0,0,0,0,0,0,0,0,-1,1154,750,0,0
-63,274,0,0,0,0,0,0,0,0,0,-1,1161,750,0,0
-56,274,0,0,0,0,0,0,0,0,0,-1,1168,750,0,0
-49,274,0,0,0,0,0,0,0,0,0,-1,1175,750,0,0
-42,274,0,0,0,0,0,0,0,0,0,-1,1182,750,0,0
-35,274,0,0,0,0,0,0,0,0,0,-1,1189,750,0,0
-28,274,0,0,0,0,0,0,0,0,0,-1,1196,750,0,0
-21,274,0,0,0,0,0,0,0,0,0,-1,1203,750,0,0
-14,274,0,0,0,0,0,0,0,0,0,-1,1210,750,0,0
-7,274,0,0,0,0,0,0,0,0,0,-1,1217,750,0,0
0,274,0,0,0,0,0,0,0,0,0,-1,1224,750,0,0
7,274,0,0,0,0,0,0,0,0,0,-1,1231,750,0,0
14,274,0,0,0,0,0,0,0,0,0,-1,1238,750,0,0
21,274,0,0,0,0,0,0,0,0,0,-1,1245,750,0,0
28,274,0,0,0,0,0,0,0,0,0,-1,1252,750,0,0
35,274,0,0,0,0,0,0,0,0,0,-1,1259,750,0,0
42,274,0,0,0,0,0,0,0,0,0,-1,1266,750,0,0
49,274,0,0,0,0,0,0,0,0,0,-1,1273,750,0,0
56,274,0,0,0,0,0,0,0,0,0,-1,1280,750,0,0
63,274,0,0,0,0,0,0,0,0,0,-1,1287,750,0,0
70,274,0,0,0,0,0,0,0,0,0,-1,1294,750,0,0
77,274,0,0,0,0,0,0,0,0,0,-1,1301,750,0,0
84,274,0,0,0,0,0,0,0,0,0,-1,1308,750,0,0
91,274,0,0,0,0,0,0,0,0,0,-1,1315,750,0,0
98,274,0,0,0,0,0,0,0,0,0,-1,1322,750,0,0
105,274,0,0,0,0,0,0,0,0,0,-1,1329,750,0,0
112,274,0,0,0,0,0,0,0,0,0,-1,1336,750,0,0
119,274,0,0,0,0,0,0,0,0,0,-1,1343,750,0,0
126,274,0,0,0,0,0,0,0,0,0,-1,1350,750,0,0
133,274,0,0,0,0,0,0,0,0,0,-1,1357,750,0,0
140,274,0,0,0,0,0,0,0,0,0,-1,1364,750,0,0
147,274,0,0,0,0,0,0,0,0,0,-1,1371,750,0,0
154,274,0,0,0,0,0,0,0,0,0,-1,1378,750,0,0
161,274,0,0,0,0,0,0,0,0,0,-1,1385,750,0,0
168,274,0,0,0,0,0,0,0,0,0,-1,1392,750,0,0
175,274,0,0,0,0,0,0,0,0,0,-1,1399,750,0,0
182,274,0,0,0,0,0,0,0,0,0,-1,1406,750,0,0
189,274,0,0,0,0,0,0,0,0,0,-1,1413,750,0,0
196,274,0,0,0,0,0,0,0,0,0,-1,1420,750,0,0
203,274,0,0,0,0,0,0,0,0,0,-1,1427,750,0,0
210,274,0,0,0,0,0,0,0,0,0,-1,1434,750,0,0
217,274,0,0,0,0,0,0,0,0,0,-1,1441,750,0,0
224,274,0,0,0,0,0,0,0,0,0,-1,1448,750,0,0
231,274,0,0,0,0,0,0,0,0,0,-1,1455,750,0,0
238,274,0,0,0,0,0,0,0,0,0,-1,1462,750,0,0
245,274,0,0,0,0,0,0,0,0,0,-1,1469,750,0,0
252,274,0,0,0,0,0,0,0,0,0,-1,1476,750,0,0
259,274,0,0,0,0,0,0,0,0,0,-1,1483,750,0,0
266,274,0,0,0,0,0,0,0,0,0,-1,1490,750,0,0
273,274,0,0,0,0,0,0,0,0,0,-1,1497,750,0,0
280,274,0,0,0,0,0,0,0,0,0,-1,1504,750,0,0
287,274,0,0,0,0,0,0,0,0,0,-1,1511,750,0,0
294,274,0,0,0,0,0,0,0,0,0,-1,1518,750,0,0
301,274,0,0,0,0,0,0,0,0,0,-1,1525,750,0,0
308,274,0,0,0,0,0,0,0,0,0,-1,1532,750,0,0
315,274,0,0,0,0,0,0,0,0,0,-1,1539,750,0,0
322,274,0,0,0,0,0,0,0,0,0,-1,1546,750,0,0
329,274,0,0,0,0,0,0,0,0,0,-1,1553,750,0,0
336,274,0,0,0,0,0,0,0,0,0,-1,1560,750,0,0
343,274,0,0,0,0,0,0,0,0,0,-1,1567,750,0,0
350,274,0,0,0,0,0,0,0,0,0,-1,1574,750,0,0
357,274,0,0,0,0,0,0,0,0,0,-1,1581,750,0,0
364,274,0,0,0,0,0,0,0,0,0,-1,1588,750,0,0
371,274,0,0,0,0,0,0,0,0,0,-1,1595,750,0,0
378,274,0,0,0,0,0,0,0,0,0,-1,1602,750,0,0
385,274,0,0,0,0,0,0,0,0,0,-1,1609,750,0,0
392,274,0,0,0,0,0,0,0,0,0,-1,1616,750,0,0
399,274,0,0,0,0,0,0,0,0,0,-1,1623,750,0,0
406,274,0,0,0,0,0,0,0,0,0,-1,1630,750,0,0
413,274,0,0,0,0,0,0,0,0,0,-1,1637,750,0,0
420,274,0,0,0,0,0,0,0,0,0,-1,1644,750,0,0
427,274,0,0,0,0,0,0,0,0,0,-1,1651,750,0,0
434,274,0,0,0,0,0,0,0,0,0,-1,1658,750,0,0
441,274,0,0,0,0,0,0,0,0,0,-1,1665,750,0,0
448,274,0,0,0,0,0,0,0,0,0,-1,1672,750,0,0
455,274,0,0,0,0,0,0,0,0,0,-1,1679,750,0,0
462,274,0,0,0,0,0,0,0,0,0,-1,1686,750,0,0
469,274,0,0,0,0,0,0,0,0,0,-1,1693,750,0,0
476,274,0,0,0,0,0,0,0,0,0,-1,1700,750,0,0
483,274,0,0,0,0,0,0,0,0,0,-1,1707,750,0,0
490,274,0,0,0,0,0,0,0,0,0,-1,1714,750,0,0
497,274,0,0,0,0,0,0,0,0,0,-1,1721,750,0,0
504,274,0,0,0,0,0,0,0,0,0,-1,1728,750,0,0
511,274,0,0,0,0,0,0,0,0,0,-1,1735,750,0,0
518,274,0,0,0,0,0,0,0,0,0,-1,1742,750,0,0
525,274,0,0,0,0,0,0,0,0,0,-1,1749,750,0,0
532,274,0,0,0,0,0,0,0,0,0,-1,1756,750,0,0
539,274,0,0,0,0,0,0,0,0,0,-1,1763,750,0,0
546,274,0,0,0,0,0,0,0,0,0,-1,1770,750,0,0
553,274,0,0,0,0,0,0,0,0,0,-1,1777,750,0,0
560,274,29.3011,2.84052,0,0,0,0,0,0,0,-1,1784,750,29.3011,-2.84053
567,274,29.0208,3.09705,0.0252146,0.0309039,-0.0407195,0.0688779,-0.0127595,-0.820271,0.0507097,0.0415009,1791,750,29.0207,-3.09706
574,274,28.9628,3.08008,0.0172283,0.027226,-0.0245854,0.0473156,-0.00286126,-0.885694,0.0325395,0.0439094,1798,750,28.9628,-3.08005
581,274,30.0212,2.07751,0,0,0,0,0,0,0,-1,1805,750,30.0212,-2.07752
588,274,29.7743,2.72479,0.00640089,0.0197225,-0.00810579,0.0235532,0.00257028,-1.12933,0.0149193,0.045049,1812,750,29.7743,-2.72479
595,274,29.4962,3.26959,0.00244011,0.0163293,-0.00361172,0.0172124,0.00155707,-1.33101,0.0109927,0.0475628,1819,750,29.4962,-3.26958
602,274,29.3932,3.37262,0,0,0,0,0,0,0,-1,1826,750,29.3932,-3.37263
609,274,29.6177,3.17145,0,0,0,0,0,0,0,-1,1833,750,29.6177,-3.17148
616,274,28.4136,1.82983,0,0,0,0,0,0,0,-1,1840,750,28.4136,-1.82982
623,274,19.9136,-1.11902,0,0,0,0,0,0,0,-1,1847,750,19.9136,1.11899
630,274,19.5997,-0.842285,-0.00510222,0.00399475,0.0020964,0.00445462,-0.00556209,1.35486,0.00579492,0.0457362,1854,750,19.5997,0.842286
637,274,19.2839,-0.535095,-0.00451277,0.00279685,0.00110046,0.00295893,-0.00467485,1.42456,0.00444432,0.0138908,1861,750,19.2839,0.535112
644,274,19.2915,-0.141602,-0.00377439,0.00187517,-4.44711e-06,0.00187517,-0.00377439,-1.57001,0.00332264,0.0121819,1868,750,19.2915,0.141574
651,274,19.296,0.1922,-0.00291024,0.000688182,-0.000645979,0.000800632,-0.00302269,-1.39845,0.00232835,0.0136719,1875,750,19.2961,-0.192221
658,274,19.2969,0.535706,-0.00229562,2.53166e-05,-0.000904263,0.000336031,-0.00260633,-1.23982,0.00185971,0.0163012,1882,750,19.2968,-0.535726
665,274,19.2977,0.916504,-0.00171142,-0.000238725,-0.00105656,0.000312762,-0.00226291,-1.08973,0.00162294,0.0170361,1889,750,19.2978,-0.916494
672,274,19.2855,1.25671,-0.000693082,-0.000223381,-0.00099063,0.000559856,-0.00147632,-0.901786,0.00121463,0.0138544,1896,750,19.2855,-1.25669
679,274,19.2899,1.58936,0.000690892,-0.000242584,-0.000693186,0.00105983,-0.000611521,-0.4891,0.000976456,0.0142844,1903,750,19.29,-1.58934
686,274,19.2899,1.92395,0.00204077,-0.000231243,-0.000607146,0.00219284,-0.000383311,-0.245415,0.001605,0.0155984,1910,750,19.2899,-1.92397
693,274,19.2618,2.28387,0.00380756,-0.000333023,-0.000388665,0.00384373,-0.00036919,-0.0927871,0.002694,0.0120962,1917,750,19.2619,-2.28389
700,274,19.2454,2.64172,0.00651375,-0.000619364,9.73795e-05,0.00651508,-0.000620693,0.0136484,0.00456438,0.0134922,1924,750,19.2454,-2.64173
707,274,19.2272,2.9826,0.0105948,-0.00113934,0.00102118,0.010683,-0.00122754,0.0861634,0.00756445,0.0222978,1931,750,19.2272,-2.98262
714,274,19.2898,3.25555,0.0165715,-0.00233204,0.00246478,0.0168876,-0.00264814,0.127547,0.012237,0.0452488,1938,750,19.2898,-3.25553
721,274,19.3322,3.35437,0,0,0,0,0,0,0,-1,1945,750,19.3322,-3.35437
728,274,19.2209,3.95154,0,0,0,0,0,0,0,-1,1952,750,19.221,-3.95151
735,274,20.6608,4.10931,0,0,0,0,0,0,0,-1,1959,750,20.6607,-4.10932
742,274,11.7815,-0.740234,0,0,0,0,0,0,0,-1,1966,750,11.7815,0.740253
749,274,0,0,0,0,0,0,0,0,0,-1,1973,750,0,0
756,274,0,0,0,0,0,0,0,0,0,-1,1980,750,0,0
763,274,0,0,0,0,0,0,0,0,0,-1,1987,750,0,0
770,274,0,0,0,0,0,0,0,0,0,-1,1994,750,0,0
777,274,0,0,0,0,0,0,0,0,0,-1,2001,750,0,0
784,274,0,0,0,0,0,0,0,0,0,-1,2008,750,0,0
791,274,0,0,0,0,0,0,0,0,0,-1,2015,750,0,0
798,274,0,0,0,0,0,0,0,0,0,-1,2022,750,0,0
805,274,0,0,0,0,0,0,0,0,0,-1,2029,750,0,0
812,274,0,0,0,0,0,0,0,0,0,-1,2036,750,0,0
-700,267,0,0,0,0,0,0,0,0,0,-1,524,757,0,0
-693,267,0,0,0,0,0,0,0,0,0,-1,531,757,0,0
-686,267,0,0,0,0,0,0,0,0,0,-1,538,757,0,0
-679,267,0,0,0,0,0,0,0,0,0,-1,545,757,0,0
-672,267,0,0,0,0,0,0,0,0,0,-1,552,757,0,0
-665,267,0,0,0,0,0,0,0,0,0,-1,559,757,0,0
-658,267,0,0,0,0,0,0,0,0,0,-1,566,757,0,0
-651,267,0,0,0,0,0,0,0,0,0,-1,573,757,0,0
-644,267,0,0,0,0,0,0,0,0,0,-1,580,757,0,0
-637,267,0,0,0,0,0,0,0,0,0,-1,587,757,0,0
-630,267,-14.277,2.11951,0.0245212,0.218221,0.0223691,0.220771,0.0219715,1.4573,0.140431,0.0454317,594,757,-14.277,-2.11953
-623,267,-14.4756,2.41357,0,0,0,0,0,0,0,-1,601,757,-14.4756,-2.41359
-616,267,-11.7697,6.52808,0,0,0,0,0,0,0,-1,608,757,-11.7697,-6.52806
-609,267,-12.0375,5.2926,0.0240936,0.138984,0.0137647,0.14061,0.0224675,1.45321,0.0872211,0.0448057,615,757,-12.0375,-5.29262
-602,267,-12.3074,3.84552,0.0209742,0.110307,0.0114703,0.111757,0.019525,1.44511,0.0689242,0.0444754,622,757,-12.3074,-3.8455
-595,267,-12.2731,2.52319,0.0167287,0.0838033,0.00918214,0.0850376,0.0154945,1.43718,0.0522977,0.0495186,629,757,-12.2731,-2.52318
-588,267,-12.0377,1.58667,0,0,0,0,0,0,0,-1,636,757,-12.0377,-1.58669
-581,267,-12.028,0.927795,0.00771364,0.0430722,0.00550032,0.043908,0.00687777,1.41998,0.0272701,0.0306179,643,757,-12.028,-0.927784
-574,267,-12.1229,0.546143,0.00418189,0.0279383,0.00380456,0.0285328,0.00358747,1.41581,0.0179459,0.0167797,650,757,-12.1229,-0.546114
-567,267,-12.1735,0.219849,0.00156579,0.0162656,0.00283654,0.016794,0.00103743,1.38664,0.0108667,0.0224079,657,757,-12.1735,-0.219871
-560,267,-12.1709,-0.115356,-0.000810169,0.00355175,0.00168408,0.00412628,-0.0013847,1.24203,0.0033104,0.0210909,664,757,-12.1709,0.115344
-553,267,-12.1724,-0.4245,-0.00182546,-0.00046402,0.0016503,0.00064044,-0.00292992,0.981008,0.00219808,0.0175324,671,757,-12.1724,0.424502
-546,267,-12.1943,-0.7547,-0.00185466,-0.000909579,0.00186609,0.000542867,-0.0033071,0.909404,0.00240619,0.0119193,678,757,-12.1943,0.754699
-539,267,-12.196,-1.08221,-0.00233448,-0.00171688,0.00217913,0.000175227,-0.00422658,0.855784,0.00287791,0.0112328,685,757,-12.196,1.08222
-532,267,-12.1719,-1.4079,-0.0025236,-0.00269997,0.00235188,-0.000258248,-0.00496532,0.766659,0.00322757,0.0113193,692,757,-12.1719,1.4079
-525,267,-12.1927,-1.72516,-0.00256462,-0.00320105,0.00280578,-5.90635e-05,-0.0057066,0.728933,0.00378487,0.0105625,699,757,-12.1928,1.72514
-518,267,-12.209,-2.06006,-0.00270129,-0.00379209,0.00347829,0.0002741,-0.00676748,0.70763,0.00460574,0.0107473,706,757,-12.209,2.06007
-511,267,-12.2038,-2.40271,-0.00263555,-0.00383648,0.00465813,0.00146066,-0.00793269,0.721298,0.00583659,0.01579,713,757,-12.2038,2.4027
-504,267,-12.2443,-2.64154,-0.00262165,-0.00320819,0.00609081,0.00318295,-0.00901279,0.761342,0.00730445,0.0297981,720,757,-12.2443,2.64156
-497,267,-12.2126,-3.07031,0,0,0,0,0,0,0,-1,727,757,-12.2126,3.07034
-490,267,-12.278,-2.81342,0,0,0,0,0,0,0,-1,734,757,-12.278,2.8134
-483,267,-20.679,0.513184,0,0,0,0,0,0,0,-1,741,757,-20.6789,-0.513184
-476,267,-20.603,0.54187,-0.0035781,0.00527154,0.0142818,0.0157983,-0.0141048,0.93562,0.0172738,0.0447638,748,757,-20.603,-0.54187
-469,267,-20.583,0.638062,-0.00407427,0.00942582,0.0171076,0.0210669,-0.0157153,0.973304,0.021311,0.0467133,755,757,-20.583,-0.638049
-462,267,-20.561,0.775818,-0.00472008,0.0145123,0.019996,0.0270842,-0.017292,1.00953,0.0258277,0.0487494,762,757,-20.561,-0.775809
-455,267,-20.5492,0.92041,-0.00535854,0.0208206,0.0228642,0.0340769,-0.0186149,1.04537,0.0308551,0.0472797,769,757,-20.5492,-0.920406
-448,267,-20.4106,1.17322,0,0,0,0,0,0,0,-1,776,757,-20.4106,-1.17322
-441,267,0,0,0,0,0,0,0,0,0,-1,783,757,0,0
-434,267,0,0,0,0,0,0,0,0,0,-1,790,757,0,0
-427,267,0,0,0,0,0,0,0,0,0,-1,797,757,0,0
-420,267,0,0,0,0,0,0,0,0,0,-1,804,757,0,0
-413,267,0,0,0,0,0,0,0,0,0,-1,811,757,0,0
-406,267,0,0,0,0,0,0,0,0,0,-1,818,757,0,0
-399,267,0,0,0,0,0,0,0,0,0,-1,825,757,0,0
-392,267,0,0,0,0,0,0,0,0,0,-1,832,757,0,0
-385,267,0,0,0,0,0,0,0,0,0,-1,839,757,0,0
-378,267,0,0,0,0,0,0,0,0,0,-1,846,757,0,0
-371,267,0,0,0,0,0,0,0,0,0,-1,853,757,0,0
-364,267,0,0,0,0,0,0,0,0,0,-1,860,757,0,0
-357,267,0,0,0,0,0,0,0,0,0,-1,867,757,0,0
-350,267,0,0,0,0,0,0,0,0,0,-1,874,757,0,0
-343,267,0,0,0,0,0,0,0,0,0,-1,881,757,0,0
-336,267,0,0,0,0,0,0,0,0,0,-1,888,757,0,0
-329,267,0,0,0,0,0,0,0,0,0,-1,895,757,0,0
-322,267,0,0,0,0,0,0,0,0,0,-1,902,757,0,0
-315,267,0,0,0,0,0,0,0,0,0,-1,909,757,0,0
-308,267,0,0,0,0,0,0,0,0,0,-1,916,757,0,0
-301,267,0,0,0,0,0,0,0,0,0,-1,923,757,0,0
-294,267,0,0,0,0,0,0,0,0,0,-1,930,757,0,0
-287,267,0,0,0,0,0,0,0,0,0,-1,937,757,0,0
-280,267,0,0,0,0,0,0,0,0,0,-1,944,757,0,0
-273,267,0,0,0,0,0,0,0,0,0,-1,951,757,0,0
-266,267,0,0,0,0,0,0,0,0,0,-1,958,757,0,0
-259,267,0,0,0,0,0,0,0,0,0,-1,965,757,0,0
-252,267,0,0,0,0,0,0,0,0,0,-1,972,757,0,0
-245,267,0,0,0,0,0,0,0,0,0,-1,979,757,0,0
-238,267,0,0,0,0,0,0,0,0,0,-1,986,757,0,0
-231,267,0,0,0,0,0,0,0,0,0,-1,993,757,0,0
-224,267,0,0,0,0,0,0,0,0,0,-1,1000,757,0,0
-217,267,0,0,0,0,0,0,0,0,0,-1,1007,757,0,0
-210,267,0,0,0,0,0,0,0,0,0,-1,1014,757,0,0
-203,267,0,0,0,0,0,0,0,0,0,-1,1021,757,0,0
-196,267,0,0,0,0,0,0,0,0,0,-1,1028,757,0,0
-189,267,0,0,0,0,0,0,0,0,0,-1,1035,757,0,0
-182,267,0,0,0,0,0,0,0,0,0,-1,1042,757,0,0
-175,267,0,0,0,0,0,0,0,0,0,-1,1049,757,0,0
-168,267,0,0,0,0,0,0,0,0,0,-1,1056,757,0,0
-161,267,0,0,0,0,0,0,0,0,0,-1,1063,757,0,0
-154,267,0,0,0,0,0,0,0,0,0,-1,1070,757,0,0
-147,267,0,0,0,0,0,0,0,0,0,-1,1077,757,0,0
-140,267,0,0,0,0,0,0,0,0,0,-1,1084,757,0,0
-133,267,0,0,0,0,0,0,0,0,0,-1,1091,757,0,0
-126,267,0,0,0,0,0,0,0,0,0,-1,1098,757,0,0
-119,267,0,0,0,0,0,0,0,0,0,-1,1105,757,0,0
-112,267,0,0,0,0,0,0,0,0,0,-1,1112,757,0,0
-105,267,0,0,0,0,0,0,0,0,0,-1,1119,757,0,0
-98,267,0,0,0,0,0,0,0,0,0,-1,1126,757,0,0
-91,267,0,0,0,0,0,0,0,0,0,-1,1133,757,0,0
-84,267,0,0,0,0,0,0,0,0,0,-1,1140,757,0,0
-77,267,0,0,0,0,0,0,0,0,0,-1,1147,757,0,0
-70,267,0,0,0,0,0,0,0,0,0,-1,1154,757,0,0
-63,267,0,0,0,0,0,0,0,0,0,-1,1161,757,0,0
-56,267,0,0,0,0,0,0,0,0,0,-1,1168,757,0,0
-49,267,0,0,0,0,0,0,0,0,0,-1,1175,757,0,0
-42,267,0,0,0,0,0,0,0,0,0,-1,1182,757,0,0
-35,267,0,0,0,0,0,0,0,0,0,-1,1189,757,0,0
-28,267,0,0,0,0,0,0,0,0,0,-1,1196,757,0,0
-21,267,0,0,0,0,0,0,0,0,0,-1,1203,757,0,0
-14,267,0,0,0,0,0,0,0,0,0,-1,1210,757,0,0
-7,267,0,0,0,0,0,0,0,0,0,-1,1217,757,0,0
0,267,0,0,0,0,0,0,0,0,0,-1,1224,757,0,0
7,267,0,0,0,0,0,0,0,0,0,-1,1231,757,0,0
14,267,0,0,0,0,0,0,0,0,0,-1,1238,757,0,0
21,267,0,0,0,0,0,0,0,0,0,-1,1245,757,0,0
28,267,0,0,0,0,0,0,0,0,0,-1,1252,757,0,0
35,267,0,0,0,0,0,0,0,0,0,-1,1259,757,0,0
42,267,0,0,0,0,0,0,0,0,0,-1,1266,757,0,0
49,267,0,0,0,0,0,0,0,0,0,-1,1273,757,0,0
56,267,0,0,0,0,0,0,0,0,0,-1,1280,757,0,0
63,267,0,0,0,0,0,0,0,0,0,-1,1287,757,0,0
70,267,0,0,0,0,0,0,0,0,0,-1,1294,757,0,0
77,267,0,0,0,0,0,0,0,0,0,-1,1301,757,0,0
84,267,0,0,0,0,0,0,0,0,0,-1,1308,757,0,0
91,267,0,0,0,0,0,0,0,0,0,-1,1315,757,0,0
98,267,0,0,0,0,0,0,0,0,0,-1,1322,757,0,0
105,267,0,0,0,0,0,0,0,0,0,-1,1329,757,0,0
112,267,0,0,0,0,0,0,0,0,0,-1,1336,757,0,0
119,267,0,0,0,0,0,0,0,0,0,-1,1343,757,0,0
126,267,0,0,0,0,0,0,0,0,0,-1,1350,757,0,0
133,267,0,0,0,0,0,0,0,0,0,-1,1357,757,0,0
140,267,0,0,0,0,0,0,0,0,0,-1,1364,757,0,0
147,267,0,0,0,0,0,0,0,0,0,-1,1371,757,0,0
154,267,0,0,0,0,0,0,0,0,0,-1,1378,757,0,0
161,267,0,0,0,0,0,0,0,0,0,-1,1385,757,0,0
168,267,0,0,0,0,0,0,0,0,0,-1,1392,757,0,0
175,267,0,0,0,0,0,0,0,0,0,-1,1399,757,0,0
182,267,0,0,0,0,0,0,0,0,0,-1,1406,757,0,0
189,267,0,0,0,0,0,0,0,0,0,-1,1413,757,0,0
196,267,0,0,0,0,0,0,0,0,0,-1,1420,757,0,0
203,267,0,0,0,0,0,0,0,0,0,-1,1427,757,0,0
210,267,0,0,0,0,0,0,0,0,0,-1,1434,757,0,0
217,267,0,0,0,0,0,0,0,0,0,-1,1441,757,0,0
224,267,0,0,0,0,0,0,0,0,0,-1,1448,757,0,0
231,267,0,0,0,0,0,0,0,0,0,-1,1455,757,0,0
238,267,0,0,0,0,0,0,0,0,0,-1,1462,757,0,0
245,267,0,0,0,0,0,0,0,0,0,-1,1469,757,0,0
252,267,0,0,0,0,0,0,0,0,0,-1,1476,757,0,0
259,267,0,0,0,0,0,0,0,0,0,-1,1483,757,0,0
266,267,0,0,0,0,0,0,0,0,0,-1,1490,757,0,0
273,267,0,0,0,0,0,0,0,0,0,-1,1497,757,0,0
280,267,0,0,0,0,0,0,0,0,0,-1,1504,757,0,0
287,267,0,0,0,0,0,0,0,0,0,-1,1511,757,0,0
294,267,0,0,0,0,0,0,0,0,0,-1,1518,757,0,0
301,267,0,0,0,0,0,0,0,0,0,-1,1525,757,0,0
308,267,0,0,0,0,0,0,0,0,0,-1,1532,757,0,0
315,267,0,0,0,0,0,0,0,0,0,-1,1539,757,0,0
322,267,0,0,0,0,0,0,0,0,0,-1,1546,757,0,0
329,267,0,0,0,0,0,0,0,0,0,-1,1553,757,0,0
336,267,0,0,0,0,0,0,0,0,0,-1,1560,757,0,0
343,267,0,0,0,0,0,0,0,0,0,-1,1567,757,0,0
350,267,0,0,0,0,0,0,0,0,0,-1,1574,757,0,0
357,267,0,0,0,0,0,0,0,0,0,-1,1581,757,0,0
364,267,0,0,0,0,0,0,0,0,0,-1,1588,757,0,0
371,267,0,0,0,0,0,0,0,0,0,-1,1595,757,0,0
378,267,0,0,0,0,0,0,0,0,0,-1,1602,757,0,0
385,267,0,0,0,0,0,0,0,0,0,-1,1609,757,0,0
392,267,0,0,0,0,0,0,0,0,0,-1,1616,757,0,0
399,267,0,0,0,0,0,0,0,0,0,-1,1623,757,0,0
406,267,0,0,0,0,0,0,0,0,0,-1,1630,757,0,0
413,267,0,0,0,0,0,0,0,0,0,-1,1637,757,0,0
420,267,0,0,0,0,0,0,0,0,0,-1,1644,757,0,0
427,267,0,0,0,0,0,0,0,0,0,-1,1651,757,0,0
434,267,0,0,0,0,0,0,0,0,0,-1,1658,757,0,0
441,267,0,0,0,0,0,0,0,0,0,-1,1665,757,0,0
448,267,0,0,0,0,0,0,0,0,0,-1,1672,757,0,0
455,267,0,0,0,0,0,0,0,0,0,-1,1679,757,0,0
462,267,0,0,0,0,0,0,0,0,0,-1,1686,757,0,0
469,267,0,0,0,0,0,0,0,0,0,-1,1693,757,0,0
476,267,0,0,0,0,0,0,0,0,0,-1,1700,757,0,0
483,267,0,0,0,0,0,0,0,0,0,-1,1707,757,0,0
490,267,0,0,0,0,0,0,0,0,0,-1,1714,757,0,0
497,267,0,0,0,0,0,0,0,0,0,-1,1721,757,0,0
504,267,0,0,0,0,0,0,0,0,0,-1,1728,757,0,0
511,267,0,0,0,0,0,0,0,0,0,-1,1735,757,0,0
518,267,0,0,0,0,0,0,0,0,0,-1,1742,757,0,0
525,267,0,0,0,0,0,0,0,0,0,-1,1749,757,0,0
532,267,0,0,0,0,0,0,0,0,0,-1,1756,757,0,0
539,267,0,0,0,0,0,0,0,0,0,-1,1763,757,0,0
546,267,0,0,0,0,0,0,0,0,0,-1,1770,757,0,0
553,267,0,0,0,0,0,0,0,0,0,-1,1777,757,0,0
560,267,0,0,0,0,0,0,0,0,0,-1,1784,757,0,0
567,267,29.2792,2.92847,0.0191094,0.0264602,-0.0351261,0.0581026,-0.0125331,-0.837526,0.0435186,0.0371567,1791,757,29.2792,-2.92849
574,267,29.3386,2.85168,0.0124157,0.0242666,-0.0198386,0.0390458,-0.00236343,-0.930522,0.026853,0.0396887,1798,757,29.3386,-2.8517
581,267,29.421,2.81268,0,0,0,0,0,0,0,-1,1805,757,29.421,-2.8127
588,267,29.4124,2.89545,0.00330589,0.0185141,-0.00559791,0.0203524,0.00146759,-1.2535,0.0131065,0.0454059,1812,757,29.4124,-2.89547
595,267,29.3499,3.10059,7.60065e-05,0.0155833,-0.00206871,0.0158545,-0.000195219,-1.44043,0.0106354,0.0485536,1819,757,29.3498,-3.10056
602,267,29.2344,3.28009,-0.00216089,0.0127973,-2.9519e-05,0.0127973,-0.00216095,-1.56882,0.0093356,0.0470783,1826,757,29.2344,-3.28006
609,267,29.2965,3.32178,-0.00360805,0.0103065,0.000986344,0.010376,-0.00367762,1.50038,0.0084155,0.0445911,1833,757,29.2965,-3.32175
616,267,29.526,3.50061,0,0,0,0,0,0,0,-1,1840,757,29.526,-3.50063
623,267,20.7837,-0.123169,0,0,0,0,0,0,0,-1,1847,757,20.7837,0.123162
630,267,19.8322,-1.14319,0,0,0,0,0,0,0,-1,1854,757,19.8321,1.14318
637,267,19.7134,-0.608643,-0.0053986,0.00289046,0.00112862,0.00304138,-0.00554953,1.43786,0.00502993,0.0275216,1861,757,19.7134,0.608648
644,267,19.642,-0.156433,-0.00474608,0.00195414,0.000105763,0.00195581,-0.00474775,1.55502,0.00398062,0.0125831,1868,757,19.6419,0.156461
651,267,19.6359,0.200195,-0.00391328,0.000744239,-0.000520509,0.0008017,-0.00397075,-1.46085,0.00295092,0.0145661,1875,757,19.6359,-0.200168
658,267,19.6487,0.549011,-0.00321224,-1.33957e-05,-0.000841322,0.000194383,-0.00342002,-1.32867,0.00234749,0.0146744,1882,757,19.6487,-0.549032
665,267,19.6423,0.914063,-0.00248111,-0.000367189,-0.00103412,5.45542e-05,-0.00290285,-1.18356,0.00195367,0.0153914,1889,757,19.6424,-0.914046
672,267,19.6289,1.2608,-0.00120134,-0.000354677,-0.000921576,0.000236147,-0.00179217,-1.0007,0.00128077,0.0133493,1896,757,19.6289,-1.26082
679,267,19.6287,1.59998,0.000491682,-0.000367074,-0.000509731,0.00072878,-0.000604172,-0.435377,0.000770701,0.01233,1903,757,19.6286,-1.6
686,267,19.6467,1.95453,0.00215411,-0.000273974,-0.000332363,0.00219878,-0.000318647,-0.133609,0.0015828,0.0131525,1910,757,19.6467,-1.95452
693,267,19.6211,2.27783,0.00413503,-0.000289621,7.29634e-06,0.00413505,-0.000289633,0.00164901,0.00285814,0.0125756,1917,757,19.6211,-2.27784
700,267,19.5938,2.62268,0.00690566,-0.000453504,0.000617796,0.00695716,-0.000505006,0.0831735,0.00481528,0.0137466,1924,757,19.5938,-2.6227
707,267,19.5698,2.94727,0.0109006,-0.000839562,0.00163475,0.011124,-0.00106294,0.135803,0.00779451,0.0144234,1931,757,19.5698,-2.94727
714,267,19.6359,3.29626,0.0165398,-0.00182016,0.00311388,0.0170535,-0.00233391,0.163513,0.0122215,0.0305347,1938,757,19.6358,-3.29625
721,267,19.713,3.6626,0,0,0,0,0,0,0,-1,1945,757,19.713,-3.66259
728,267,19.7385,4.02264,0,0,0,0,0,0,0,-1,1952,757,19.7386,-4.02267
735,267,22.7133,4.1806,0,0,0,0,0,0,0,-1,1959,757,22.7133,-4.18059
742,267,18.1177,3.56561,0,0,0,0,0,0,0,-1,1966,757,18.1176,-3.56564
749,267,0,0,0,0,0,0,0,0,0,-1,1973,757,0,0
756,267,0,0,0,0,0,0,0,0,0,-1,1980,757,0,0
763,267,0,0,0,0,0,0,0,0,0,-1,1987,757,0,0
770,267,0,0,0,0,0,0,0,0,0,-1,1994,757,0,0
777,267,0,0,0,0,0,0,0,0,0,-1,2001,757,0,0
784,267,0,0,0,0,0,0,0,0,0,-1,2008,757,0,0
791,267,0,0,0,0,0,0,0,0,0,-1,2015,757,0,0
798,267,0,0,0,0,0,0,0,0,0,-1,2022,757,0,0
805,267,0,0,0,0,0,0,0,0,0,-1,2029,757,0,0
812,267,0,0,0,0,0,0,0,0,0,-1,2036,757,0,0
-700,260,0,0,0,0,0,0,0,0,0,-1,524,764,0,0
-693,260,0,0,0,0,0,0,0,0,0,-1,531,764,0,0
-686,260,0,0,0,0,0,0,0,0,0,-1,538,764,0,0
-679,260,0,0,0,0,0,0,0,0,0,-1,545,764,0,0
-672,260,0,0,0,0,0,0,0,0,0,-1,552,764,0,0
-665,260,0,0,0,0,0,0,0,0,0,-1,559,764,0,0
-658,260,0,0,0,0,0,0,0,0,0,-1,566,764,0,0
-651,260,0,0,0,0,0,0,0,0,0,-1,573,764,0,0
-644,260,0,0,0,0,0,0,0,0,0,-1,580,764,0,0
-637,260,0,0,0,0,0,0,0,0,0,-1,587,764,0,0
-630,260,-14.3853,1.47998,0,0,0,0,0,0,0,-1,594,764,-14.3852,-1.48
-623,260,-13.1237,7.67749,0,0,0,0,0,0,0,-1,601,764,-13.1237,-7.67747
-616,260,-12.8331,6.76056,0,0,0,0,0,0,0,-1,608,764,-12.833,-6.76058
-609,260,-12.9569,5.56903,0.032634,0.128218,0.0123103,0.129778,0.031074,1.44475,0.0782454,0.0469377,615,764,-12.9569,-5.569
-602,260,-13.4907,4.0387,0.0267995,0.101588,0.00943813,0.10276,0.0256269,1.44718,0.0617629,0.0466903,622,764,-13.4907,-4.03869
-595,260,-13.6287,2.53973,0.021033,0.0775546,0.00722531,0.0784636,0.020124,1.44564,0.0470579,0.0489153,629,764,-13.6287,-2.53971
-588,260,-12.9567,1.46283,0,0,0,0,0,0,0,-1,636,764,-12.9567,-1.46284
-581,260,-12.4845,0.843872,0.010336,0.0407002,0.0043192,0.0413027,0.00973359,1.43221,0.0249322,0.0253974,643,764,-12.4845,-0.843886
-574,260,-12.5015,0.539185,0.00616572,0.0268439,0.00317899,0.0273216,0.00568802,1.42165,0.0166456,0.0168694,650,764,-12.5015,-0.539181
-567,260,-12.5164,0.236877,0.0031454,0.015762,0.00256355,0.016263,0.00264441,1.3778,0.0100769,0.0167947,657,764,-12.5164,-0.236851
-560,260,-12.5098,-0.0598755,0.000323019,0.00346976,0.00147889,0.0040557,-0.000262919,1.19357,0.00279556,0.0183589,664,764,-12.5098,0.0598483
-553,260,-12.5054,-0.372864,-0.00112179,-0.000576605,0.00151136,0.000686548,-0.00238495,0.874621,0.0018615,0.0172688,671,764,-12.5054,0.372894
-546,260,-12.5133,-0.717285,-0.00153014,-0.00104681,0.00182212,0.000549605,-0.00312655,0.851327,0.00228966,0.0116059,678,764,-12.5133,0.717289
-539,260,-12.5005,-1.04803,-0.00240967,-0.00184397,0.0023473,0.000237465,-0.0044911,0.845359,0.00307628,0.0118278,685,764,-12.5005,1.04801
-532,260,-12.4895,-1.35614,-0.00292834,-0.00280971,0.00264291,-0.000225455,-0.0055126,0.796618,0.00360227,0.0141161,692,764,-12.4895,1.35614
-525,260,-12.5073,-1.70367,-0.00316591,-0.0032884,0.00310925,-0.000117304,-0.00633701,0.775551,0.00418612,0.012566,699,764,-12.5073,1.70366
-518,260,-12.5296,-2.03149,-0.00339151,-0.00396851,0.00368286,1.41258e-05,-0.00737415,0.74631,0.00492082,0.0132554,706,764,-12.5296,2.03151
-511,260,-12.4925,-2.33356,-0.00335226,-0.00415031,0.00470319,0.000968799,-0.00847137,0.743079,0.00599665,0.0234536,713,764,-12.4925,2.33356
-504,260,-12.5497,-2.38367,-0.00329339,-0.00380678,0.00592922,0.00238469,-0.00948485,0.763765,0.00725006,0.0449534,720,764,-12.5497,2.38369
-497,260,-12.6625,-2.47717,0,0,0,0,0,0,0,-1,727,764,-12.6625,2.47715
-490,260,-21.7581,-0.0827026,0,0,0,0,0,0,0,-1,734,764,-21.7581,0.0826921
-483,260,-21.7704,-0.0724487,-0.00317152,-0.000233879,0.0106059,0.00900446,-0.0124099,0.854206,0.0124156,0.045366,741,764,-21.7704,0.0724234
-476,260,-21.7916,0.00494385,-0.00294198,0.00214056,0.0126784,0.0125299,-0.0133313,0.884308,0.0149334,0.0452376,748,764,-21.7916,-0.00493101
-469,260,-21.987,-0.0789185,0,0,0,0,0,0,0,-1,755,764,-21.987,0.0789454
-462,260,-20.8909,0.915405,-0.0022216,0.00922691,0.016968,0.0214102,-0.0144049,0.948081,0.0208093,0.0466948,762,764,-20.8909,-0.915413
-455,260,-20.7586,0.990356,-0.00128029,0.0143076,0.018908,0.0269651,-0.0139377,0.98089,0.0240112,0.0458447,769,764,-20.7586,-0.99033
-448,260,0,0,0,0,0,0,0,0,0,-1,776,764,0,0
-441,260,0,0,0,0,0,0,0,0,0,-1,783,764,0,0
-434,260,0,0,0,0,0,0,0,0,0,-1,790,764,0,0
-427,260,0,0,0,0,0,0,0,0,0,-1,797,764,0,0
-420,260,0,0,0,0,0,0,0,0,0,-1,804,764,0,0
-413,260,0,0,0,0,0,0,0,0,0,-1,811,764,0,0
-406,260,0,0,0,0,0,0,0,0,0,-1,818,764,0,0
-399,260,0,0,0,0,0,0,0,0,0,-1,825,764,0,0
-392,260,0,0,0,0,0,0,0,0,0,-1,832,764,0,0
-385,260,0,0,0,0,0,0,0,0,0,-1,839,764,0,0
-378,260,0,0,0,0,0,0,0,0,0,-1,846,764,0,0
-371,260,0,0,0,0,0,0,0,0,0,-1,853,764,0,0
-364,260,0,0,0,0,0,0,0,0,0,-1,860,764,0,0
-357,260,0,0,0,0,0,0,0,0,0,-1,867,764,0,0
-350,260,0,0,0,0,0,0,0,0,0,-1,874,764,0,0
-343,260,0,0,0,0,0,0,0,0,0,-1,881,764,0,0
-336,260,0,0,0,0,0,0,0,0,0,-1,888,764,0,0
-329,260,0,0,0,0,0,0,0,0,0,-1,895,764,0,0
-322,260,0,0,0,0,0,0,0,0,0,-1,902,764,0,0
-315,260,0,0,0,0,0,0,0,0,0,-1,909,764,0,0
-308,260,0,0,0,0,0,0,0,0,0,-1,916,764,0,0
-301,260,0,0,0,0,0,0,0,0,0,-1,923,764,0,0
-294,260,0,0,0,0,0,0,0,0,0,-1,930,764,0,0
-287,260,0,0,0,0,0,0,0,0,0,-1,937,764,0,0
-280,260,0,0,0,0,0,0,0,0,0,-1,944,764,0,0
-273,260,0,0,0,0,0,0,0,0,0,-1,951,764,0,0
-266,260,0,0,0,0,0,0,0,0,0,-1,958,764,0,0
-259,260,0,0,0,0,0,0,0,0,0,-1,965,764,0,0
-252,260,0,0,0,0,0,0,0,0,0,-1,972,764,0,0
-245,260,0,0,0,0,0,0,0,0,0,-1,979,764,0,0
-238,260,0,0,0,0,0,0,0,0,0,-1,986,764,0,0
-231,260,0,0,0,0,0,0,0,0,0,-1,993,764,0,0
-224,260,0,0,0,0,0,0,0,0,0,-1,1000,764,0,0
-217,260,0,0,0,0,0,0,0,0,0,-1,1007,764,0,0
-210,260,0,0,0,0,0,0,0,0,0,-1,1014,764,0,0
-203,260,0,0,0,0,0,0,0,0,0,-1,1021,764,0,0
-196,260,0,0,0,0,0,0,0,0,0,-1,1028,764,0,0
-189,260,0,0,0,0,0,0,0,0,0,-1,1035,764,0,0
-182,260,0,0,0,0,0,0,0,0,0,-1,1042,764,0,0
-175,260,0,0,0,0,0,0,0,0,0,-1,1049,764,0,0
-168,260,0,0,0,0,0,0,0,0,0,-1,1056,764,0,0
-161,260,0,0,0,0,0,0,0,0,0,-1,1063,764,0,0
-154,260,0,0,0,0,0,0,0,0,0,-1,1070,764,0,0
-147,260,0,0,0,0,0,0,0,0,0,-1,1077,764,0,0
-140,260,0,0,0,0,0,0,0,0,0,-1,1084,764,0,0
-133,260,0,0,0,0,0,0,0,0,0,-1,1091,764,0,0
-126,260,0,0,0,0,0,0,0,0,0,-1,1098,764,0,0
-119,260,0,0,0,0,0,0,0,0,0,-1,1105,764,0,0
-112,260,0,0,0,0,0,0,0,0,0,-1,1112,764,0,0
-105,260,0,0,0,0,0,0,0,0,0,-1,1119,764,0,0
-98,260,0,0,0,0,0,0,0,0,0,-1,1126,764,0,0
-91,260,0,0,0,0,0,0,0,0,0,-1,1133,764,0,0
-84,260,0,0,0,0,0,0,0,0,0,-1,1140,764,0,0
-77,260,0,0,0,0,0,0,0,0,0,-1,1147,764,0,0
-70,260,0,0,0,0,0,0,0,0,0,-1,1154,764,0,0
-63,260,0,0,0,0,0,0,0,0,0,-1,1161,764,0,0
-56,260,0,0,0,0,0,0,0,0,0,-1,1168,764,0,0
-49,260,0,0,0,0,0,0,0,0,0,-1,1175,764,0,0
-42,260,0,0,0,0,0,0,0,0,0,-1,1182,764,0,0
-35,260,0,0,0,0,0,0,0,0,0,-1,1189,764,0,0
-28,260,0,0,0,0,0,0,0,0,0,-1,1196,764,0,0
-21,260,0,0,0,0,0,0,0,0,0,-1,1203,764,0,0
-14,260,0,0,0,0,0,0,0,0,0,-1,1210,764,0,0
-7,260,0,0,0,0,0,0,0,0,0,-1,1217,764,0,0
0,260,0,0,0,0,0,0,0,0,0,-1,1224,764,0,0
7,260,0,0,0,0,0,0,0,0,0,-1,1231,764,0,0
14,260,0,0,0,0,0,0,0,0,0,-1,1238,764,0,0
21,260,0,0,0,0,0,0,0,0,0,-1,1245,764,0,0
28,260,0,0,0,0,0,0,0,0,0,-1,1252,764,0,0
35,260,0,0,0,0,0,0,0,0,0,-1,1259,764,0,0
42,260,0,0,0,0,0,0,0,0,0,-1,1266,764,0,0
49,260,0,0,0,0,0,0,0,0,0,-1,1273,764,0,0
56,260,0,0,0,0,0,0,0,0,0,-1,1280,764,0,0
63,260,0,0,0,0,0,0,0,0,0,-1,1287,764,0,0
70,260,0,0,0,0,0,0,0,0,0,-1,1294,764,0,0
77,260,0,0,0,0,0,0,0,0,0,-1,1301,764,0,0
84,260,0,0,0,0,0,0,0,0,0,-1,1308,764,0,0
91,260,0,0,0,0,0,0,0,0,0,-1,1315,764,0,0
98,260,0,0,0,0,0,0,0,0,0,-1,1322,764,0,0
105,260,0,0,0,0,0,0,0,0,0,-1,1329,764,0,0
112,260,0,0,0,0,0,0,0,0,0,-1,1336,764,0,0
119,260,0,0,0,0,0,0,0,0,0,-1,1343,764,0,0
126,260,0,0,0,0,0,0,0,0,0,-1,1350,764,0,0
133,260,0,0,0,0,0,0,0,0,0,-1,1357,764,0,0
140,260,0,0,0,0,0,0,0,0,0,-1,1364,764,0,0
147,260,0,0,0,0,0,0,0,0,0,-1,1371,764,0,0
154,260,0,0,0,0,0,0,0,0,0,-1,1378,764,0,0
161,260,0,0,0,0,0,0,0,0,0,-1,1385,764,0,0
168,260,0,0,0,0,0,0,0,0,0,-1,1392,764,0,0
175,260,0,0,0,0,0,0,0,0,0,-1,1399,764,0,0
182,260,0,0,0,0,0,0,0,0,0,-1,1406,764,0,0
189,260,0,0,0,0,0,0,0,0,0,-1,1413,764,0,0
196,260,0,0,0,0,0,0,0,0,0,-1,1420,764,0,0
203,260,0,0,0,0,0,0,0,0,0,-1,1427,764,0,0
210,260,0,0,0,0,0,0,0,0,0,-1,1434,764,0,0
217,260,0,0,0,0,0,0,0,0,0,-1,1441,764,0,0
224,260,0,0,0,0,0,0,0,0,0,-1,1448,764,0,0
231,260,0,0,0,0,0,0,0,0,0,-1,1455,764,0,0
238,260,0,0,0,0,0,0,0,0,0,-1,1462,764,0,0
245,260,0,0,0,0,0,0,0,0,0,-1,1469,764,0,0
252,260,0,0,0,0,0,0,0,0,0,-1,1476,764,0,0
259,260,0,0,0,0,0,0,0,0,0,-1,1483,764,0,0
266,260,0,0,0,0,0,0,0,0,0,-1,1490,764,0,0
273,260,0,0,0,0,0,0,0,0,0,-1,1497,764,0,0
280,260,0,0,0,0,0,0,0,0,0,-1,1504,764,0,0
287,260,0,0,0,0,0,0,0,0,0,-1,1511,764,0,0
294,260,0,0,0,0,0,0,0,0,0,-1,1518,764,0,0
301,260,0,0,0,0,0,0,0,0,0,-1,1525,764,0,0
308,260,0,0,0,0,0,0,0,0,0,-1,1532,764,0,0
315,260,0,0,0,0,0,0,0,0,0,-1,1539,764,0,0
322,260,0,0,0,0,0,0,0,0,0,-1,1546,764,0,0
329,260,0,0,0,0,0,0,0,0,0,-1,1553,764,0,0
336,260,0,0,0,0,0,0,0,0,0,-1,1560,764,0,0
343,260,0,0,0,0,0,0,0,0,0,-1,1567,764,0,0
350,260,0,0,0,0,0,0,0,0,0,-1,1574,764,0,0
357,260,0,0,0,0,0,0,0,0,0,-1,1581,764,0,0
364,260,0,0,0,0,0,0,0,0,0,-1,1588,764,0,0
371,260,0,0,0,0,0,0,0,0,0,-1,1595,764,0,0
378,260,0,0,0,0,0,0,0,0,0,-1,1602,764,0,0
385,260,0,0,0,0,0,0,0,0,0,-1,1609,764,0,0
392,260,0,0,0,0,0,0,0,0,0,-1,1616,764,0,0
399,260,0,0,0,0,0,0,0,0,0,-1,1623,764,0,0
406,260,0,0,0,0,0,0,0,0,0,-1,1630,764,0,0
413,260,0,0,0,0,0,0,0,0,0,-1,1637,764,0,0
420,260,0,0,0,0,0,0,0,0,0,-1,1644,764,0,0
427,260,0,0,0,0,0,0,0,0,0,-1,1651,764,0,0
434,260,0,0,0,0,0,0,0,0,0,-1,1658,764,0,0
441,260,0,0,0,0,0,0,0,0,0,-1,1665,764,0,0
448,260,0,0,0,0,0,0,0,0,0,-1,1672,764,0,0
455,260,0,0,0,0,0,0,0,0,0,-1,1679,764,0,0
462,260,0,0,0,0,0,0,0,0,0,-1,1686,764,0,0
469,260,0,0,0,0,0,0,0,0,0,-1,1693,764,0,0
476,260,0,0,0,0,0,0,0,0,0,-1,1700,764,0,0
483,260,0,0,0,0,0,0,0,0,0,-1,1707,764,0,0
490,260,0,0,0,0,0,0,0,0,0,-1,1714,764,0,0
497,260,0,0,0,0,0,0,0,0,0,-1,1721,764,0,0
504,260,0,0,0,0,0,0,0,0,0,-1,1728,764,0,0
511,260,0,0,0,0,0,0,0,0,0,-1,1735,764,0,0
518,260,0,0,0,0,0,0,0,0,0,-1,1742,764,0,0
525,260,0,0,0,0,0,0,0,0,0,-1,1749,764,0,0
532,260,0,0,0,0,0,0,0,0,0,-1,1756,764,0,0
539,260,0,0,0,0,0,0,0,0,0,-1,1763,764,0,0
546,260,0,0,0,0,0,0,0,0,0,-1,1770,764,0,0
553,260,0,0,0,0,0,0,0,0,0,-1,1777,764,0,0
560,260,0,0,0,0,0,0,0,0,0,-1,1784,764,0,0
567,260,0,0,0,0,0,0,0,0,0,-1,1791,764,0,0
574,260,29.4014,2.73871,0,0,0,0,0,0,0,-1,1798,764,29.4014,-2.73873
581,260,29.2399,2.82434,0,0,0,0,0,0,0,-1,1805,764,29.2398,-2.82435
588,260,29.3281,2.83582,0.0010809,0.0168162,-0.00356972,0.0175881,0.000308941,-1.35782,0.0116238,0.0429054,1812,764,29.3281,-2.83584
595,260,29.2246,3.01099,-0.00178211,0.0144519,-0.000686297,0.0144808,-0.00181107,-1.52862,0.0103107,0.0464827,1819,764,29.2246,-3.01101
602,260,29.0928,3.12567,-0.00368716,0.0120385,0.000835769,0.0120828,-0.00373145,1.51785,0.00954531,0.0457975,1826,764,29.0928,-3.12569
609,260,29.2108,3.25983,-0.00494277,0.00981314,0.00139272,0.00994344,-0.00507307,1.47751,0.00882048,0.0422938,1833,764,29.2108,-3.25985
616,260,29.3119,3.46893,0,0,0,0,0,0,0,-1,1840,764,29.3119,-3.46895
623,260,28.8927,3.28204,0,0,0,0,0,0,0,-1,1847,764,28.8927,-3.28202
630,260,20.7802,0.368103,0,0,0,0,0,0,0,-1,1854,764,20.7801,-0.368084
637,260,20.166,-0.708496,0,0,0,0,0,0,0,-1,1861,764,20.166,0.70849
644,260,20.0211,-0.130432,-0.00598358,0.00214173,-0.00026337,0.00215026,-0.00599211,-1.53843,0.00487231,0.0259516,1868,764,20.0211,0.130424
651,260,20.0121,0.208862,-0.00524013,0.000983313,-0.000891161,0.00110841,-0.00536523,-1.43134,0.00399784,0.0145603,1875,764,20.012,-0.208868
658,260,19.9916,0.562683,-0.00450103,0.000183807,-0.00126817,0.000505066,-0.00482229,-1.32269,0.00339576,0.0157375,1882,764,19.9916,-0.562691
665,260,19.9756,0.927124,-0.00363422,-0.000285756,-0.00146252,0.000263076,-0.00418305,-1.21179,0.0028804,0.0155752,1889,764,19.9755,-0.927101
672,260,19.9659,1.28284,-0.00207328,-0.000360799,-0.0012505,0.00029851,-0.00273259,-1.0856,0.00192894,0.0136181,1896,764,19.9659,-1.28287
679,260,19.9601,1.62964,-4.50998e-05,-0.00044711,-0.000692336,0.00047482,-0.00096703,-0.644118,0.000848467,0.0120469,1903,764,19.9601,-1.62964
686,260,19.9612,1.96863,0.00200295,-0.000365011,-0.000400108,0.00206873,-0.000430789,-0.162943,0.00154293,0.0143934,1910,764,19.9612,-1.96866
693,260,19.9434,2.27283,0.00427009,-0.000354758,7.65927e-05,0.00427136,-0.000356026,0.0165551,0.00297336,0.014013,1917,764,19.9433,-2.27281
700,260,19.9199,2.62036,0.00706529,-0.000426405,0.000789016,0.00714748,-0.000508602,0.103801,0.00494325,0.0131821,1924,764,19.92,-2.62035
707,260,19.9098,2.94305,0.0108016,-0.000498523,0.00175209,0.011067,-0.000763952,0.15035,0.00764538,0.0137536,1931,764,19.9099,-2.94303
714,260,19.933,3.2793,0.0159135,-0.00107769,0.00312468,0.0164699,-0.0016341,0.176222,0.0115632,0.023733,1938,764,19.933,-3.2793
721,260,20.3898,3.47272,0.0228273,-0.00177348,0.00530291,0.0239217,-0.00286789,0.20352,0.0169847,0.0426753,1945,764,20.3898,-3.47269
728,260,21.2998,3.60468,0,0,0,0,0,0,0,-1,1952,764,21.2998,-3.6047
735,260,22.4575,4.20001,0,0,0,0,0,0,0,-1,1959,764,22.4576,-4.20004
742,260,23.8765,5.12695,0,0,0,0,0,0,0,-1,1966,764,23.8764,-5.12696
749,260,18.9454,4.52777,0,0,0,0,0,0,0,-1,1973,764,18.9455,-4.5278
756,260,0,0,0,0,0,0,0,0,0,-1,1980,764,0,0
763,260,0,0,0,0,0,0,0,0,0,-1,1987,764,0,0
770,260,0,0,0,0,0,0,0,0,0,-1,1994,764,0,0
777,260,0,0,0,0,0,0,0,0,0,-1,2001,764,0,0
784,260,0,0,0,0,0,0,0,0,0,-1,2008,764,0,0
791,260,0,0,0,0,0,0,0,0,0,-1,2015,764,0,0
798,260,0,0,0,0,0,0,0,0,0,-1,2022,764,0,0
805,260,0,0,0,0,0,0,0,0,0,-1,2029,764,0,0
812,260,0,0,0,0,0,0,0,0,0,-1,2036,764,0,0
-700,253,0,0,0,0,0,0,0,0,0,-1,524,771,0,0
-693,253,0,0,0,0,0,0,0,0,0,-1,531,771,0,0
-686,253,0,0,0,0,0,0,0,0,0,-1,538,771,0,0
-679,253,0,0,0,0,0,0,0,0,0,-1,545,771,0,0
-672,253,0,0,0,0,0,0,0,0,0,-1,552,771,0,0
-665,253,0,0,0,0,0,0,0,0,0,-1,559,771,0,0
-658,253,0,0,0,0,0,0,0,0,0,-1,566,771,0,0
-651,253,0,0,0,0,0,0,0,0,0,-1,573,771,0,0
-644,253,0,0,0,0,0,0,0,0,0,-1,580,771,0,0
-637,253,-19.311,-1.52161,0,0,0,0,0,0,0,-1,587,771,-19.311,1.52158
-630,253,-14.5881,8.88434,0,0,0,0,0,0,0,-1,594,771,-14.5882,-8.88435
-623,253,-14.3357,7.79504,0,0,0,0,0,0,0,-1,601,771,-14.3357,-7.79502
-616,253,-14.1447,6.63733,0.0431285,0.134659,0.0118049,0.136157,0.0416306,1.44457,0.0805635,0.0489441,608,771,-14.1446,-6.63735
-609,253,-14.1183,5.86884,0.0365225,0.111361,0.00879069,0.11238,0.0355038,1.45543,0.0663322,0.0492925,615,771,-14.1184,-5.86885
-602,253,-14.7189,3.87067,0,0,0,0,0,0,0,-1,622,771,-14.7188,-3.87068
-595,253,-12.942,1.44513,0,0,0,0,0,0,0,-1,629,771,-12.942,-1.44512
-588,253,-12.884,1.11865,0.0177268,0.0501781,0.00380373,0.050618,0.0172869,1.45566,0.0297097,0.0401926,636,771,-12.884,-1.11866
-581,253,-12.8019,0.815796,0.012257,0.0367064,0.00316306,0.037109,0.0118544,1.4442,0.0218856,0.0241416,643,771,-12.8019,-0.815783
-574,253,-12.8093,0.533325,0.0076459,0.0244638,0.00250344,0.0248285,0.00728116,1.42612,0.0147376,0.020579,650,771,-12.8093,-0.533338
-567,253,-12.8273,0.200806,0.00422496,0.0145819,0.00230514,0.0150717,0.00373508,1.36139,0.00906309,0.0166681,657,771,-12.8273,-0.20079
-560,253,-12.8091,-0.0667725,0.00105115,0.00323028,0.0013548,0.00387929,0.000402144,1.12405,0.00246311,0.0123493,664,771,-12.8091,0.0668011
-553,253,-12.809,-0.363098,-0.000717804,-0.000642324,0.00143331,0.000753744,-0.00211387,0.798561,0.00171657,0.0121419,671,771,-12.809,0.36309
-546,253,-12.8265,-0.685486,-0.00145677,-0.00115872,0.00176961,0.000468126,-0.00308362,0.827407,0.00222824,0.0106943,678,771,-12.8265,0.685505
-539,253,-12.8427,-1.0343,-0.00265727,-0.00196972,0.00245468,0.000165137,-0.00479213,0.85497,0.00325119,0.0110287,685,771,-12.8427,1.0343
-532,253,-12.8399,-1.36407,-0.00344952,-0.00294352,0.00283377,-0.000351481,-0.00604156,0.829921,0.00391581,0.0142482,692,771,-12.8399,1.36407
-525,253,-12.8416,-1.7019,-0.0038665,-0.00344114,0.00327505,-0.000371867,-0.00693577,0.817823,0.00450501,0.0119535,699,771,-12.8416,1.70193
-518,253,-12.8761,-2.00006,-0.00419993,-0.00422036,0.00373349,-0.000476638,-0.00794365,0.78403,0.00514426,0.0163654,706,771,-12.8761,2.00004
-511,253,-12.8849,-2.28497,-0.0042475,-0.00453791,0.00457923,0.000188825,-0.00897424,0.769549,0.00604675,0.0394407,713,771,-12.885,2.28495
-504,253,-12.9165,-2.57269,0,0,0,0,0,0,0,-1,720,771,-12.9165,2.57266
-497,253,-11.7769,-3.08105,0,0,0,0,0,0,0,-1,727,771,-11.7769,3.08106
-490,253,-21.5404,0.420715,0,0,0,0,0,0,0,-1,734,771,-21.5404,-0.420707
-483,253,-21.4909,0.330505,-0.00343998,-0.00242799,0.00907687,0.00615698,-0.012025,0.813242,0.010678,0.0467077,741,771,-21.4909,-0.330493
-476,253,-21.489,0.300842,-0.00264655,-0.000721061,0.0105582,0.00891821,-0.0122858,0.830865,0.0122935,0.0452564,748,771,-21.489,-0.300822
-469,253,-21.564,0.208191,-0.00156517,0.00170802,0.0120596,0.0122416,-0.0120987,0.852841,0.014053,0.0417773,755,771,-21.564,-0.208199
-462,253,-21.0114,0.74884,-3.70073e-05,0.00479102,0.0132718,0.0158666,-0.0111126,0.87536,0.0156568,0.0430447,762,771,-21.0113,-0.748844
-455,253,-20.9059,0.867188,0.00250803,0.00893874,0.0142045,0.0202873,-0.00884053,0.896703,0.0172444,0.034614,769,771,-20.9059,-0.867205
-448,253,0,0,0,0,0,0,0,0,0,-1,776,771,0,0
-441,253,0,0,0,0,0,0,0,0,0,-1,783,771,0,0
-434,253,0,0,0,0,0,0,0,0,0,-1,790,771,0,0
-427,253,0,0,0,0,0,0,0,0,0,-1,797,771,0,0
-420,253,0,0,0,0,0,0,0,0,0,-1,804,771,0,0
-413,253,0,0,0,0,0,0,0,0,0,-1,811,771,0,0
-406,253,0,0,0,0,0,0,0,0,0,-1,818,771,0,0
-399,253,0,0,0,0,0,0,0,0,0,-1,825,771,0,0
-392,253,0,0,0,0,0,0,0,0,0,-1,832,771,0,0
-385,253,0,0,0,0,0,0,0,0,0,-1,839,771,0,0
-378,253,0,0,0,0,0,0,0,0,0,-1,846,771,0,0
-371,253,0,0,0,0,0,0,0,0,0,-1,853,771,0,0
-364,253,0,0,0,0,0,0,0,0,0,-1,860,771,0,0
-357,253,0,0,0,0,0,0,0,0,0,-1,867,771,0,0
-350,253,0,0,0,0,0,0,0,0,0,-1,874,771,0,0
-343,253,0,0,0,0,0,0,0,0,0,-1,881,771,0,0
-336,253,0,0,0,0,0,0,0,0,0,-1,888,771,0,0
-329,253,0,0,0,0,0,0,0,0,0,-1,895,771,0,0
-322,253,0,0,0,0,0,0,0,0,0,-1,902,771,0,0
-315,253,0,0,0,0,0,0,0,0,0,-1,909,771,0,0
-308,253,0,0,0,0,0,0,0,0,0,-1,916,771,0,0
-301,253,0,0,0,0,0,0,0,0,0,-1,923,771,0,0
-294,253,0,0,0,0,0,0,0,0,0,-1,930,771,0,0
-287,253,0,0,0,0,0,0,0,0,0,-1,937,771,0,0
-280,253,0,0,0,0,0,0,0,0,0,-1,944,771,0,0
-273,253,0,0,0,0,0,0,0,0,0,-1,951,771,0,0
-266,253,0,0,0,0,0,0,0,0,0,-1,958,771,0,0
-259,253,0,0,0,0,0,0,0,0,0,-1,965,771,0,0
-252,253,0,0,0,0,0,0,0,0,0,-1,972,771,0,0
-245,253,0,0,0,0,0,0,0,0,0,-1,979,771,0,0
-238,253,0,0,0,0,0,0,0,0,0,-1,986,771,0,0
-231,253,0,0,0,0,0,0,0,0,0,-1,993,771,0,0
-224,253,0,0,0,0,0,0,0,0,0,-1,1000,771,0,0
-217,253,0,0,0,0,0,0,0,0,0,-1,1007,771,0,0
-210,253,0,0,0,0,0,0,0,0,0,-1,1014,771,0,0
-203,253,0,0,0,0,0,0,0,0,0,-1,1021,771,0,0
-196,253,0,0,0,0,0,0,0,0,0,-1,1028,771,0,0
-189,253,0,0,0,0,0,0,0,0,0,-1,1035,771,0,0
-182,253,0,0,0,0,0,0,0,0,0,-1,1042,771,0,0
-175,253,0,0,0,0,0,0,0,0,0,-1,1049,771,0,0
-168,253,0,0,0,0,0,0,0,0,0,-1,1056,771,0,0
-161,253,0,0,0,0,0,0,0,0,0,-1,1063,771,0,0
-154,253,0,0,0,0,0,0,0,0,0,-1,1070,771,0,0
-147,253,0,0,0,0,0,0,0,0,0,-1,1077,771,0,0
-140,253,0,0,0,0,0,0,0,0,0,-1,1084,771,0,0
-133,253,0,0,0,0,0,0,0,0,0,-1,1091,771,0,0
-126,253,0,0,0,0,0,0,0,0,0,-1,1098,771,0,0
-119,253,0,0,0,0,0,0,0,0,0,-1,1105,771,0,0
-112,253,0,0,0,0,0,0,0,0,0,-1,1112,771,0,0
-105,253,0,0,0,0,0,0,0,0,0,-1,1119,771,0,0
-98,253,0,0,0,0,0,0,0,0,0,-1,1126,771,0,0
-91,253,0,0,0,0,0,0,0,0,0,-1,1133,771,0,0
-84,253,0,0,0,0,0,0,0,0,0,-1,1140,771,0,0
-77,253,0,0,0,0,0,0,0,0,0,-1,1147,771,0,0
-70,253,0,0,0,0,0,0,0,0,0,-1,1154,771,0,0
-63,253,0,0,0,0,0,0,0,0,0,-1,1161,771,0,0
-56,253,0,0,0,0,0,0,0,0,0,-1,1168,771,0,0
-49,253,0,0,0,0,0,0,0,0,0,-1,1175,771,0,0
-42,253,0,0,0,0,0,0,0,0,0,-1,1182,771,0,0
-35,253,0,0,0,0,0,0,0,0,0,-1,1189,771,0,0
-28,253,0,0,0,0,0,0,0,0,0,-1,1196,771,0,0
-21,253,0,0,0,0,0,0,0,0,0,-1,1203,771,0,0
-14,253,0,0,0,0,0,0,0,0,0,-1,1210,771,0,0
-7,253,0,0,0,0,0,0,0,0,0,-1,1217,771,0,0
0,253,0,0,0,0,0,0,0,0,0,-1,1224,771,0,0
7,253,0,0,0,0,0,0,0,0,0,-1,1231,771,0,0
14,253,0,0,0,0,0,0,0,0,0,-1,1238,771,0,0
21,253,0,0,0,0,0,0,0,0,0,-1,1245,771,0,0
28,253,0,0,0,0,0,0,0,0,0,-1,1252,771,0,0
35,253,0,0,0,0,0,0,0,0,0,-1,1259,771,0,0
42,253,0,0,0,0,0,0,0,0,0,-1,1266,771,0,0
49,253,0,0,0,0,0,0,0,0,0,-1,1273,771,0,0
56,253,0,0,0,0,0,0,0,0,0,-1,1280,771,0,0
63,253,0,0,0,0,0,0,0,0,0,-1,1287,771,0,0
70,253,0,0,0,0,0,0,0,0,0,-1,1294,771,0,0
77,253,0,0,0,0,0,0,0,0,0,-1,1301,771,0,0
84,253,0,0,0,0,0,0,0,0,0,-1,1308,771,0,0
91,253,0,0,0,0,0,0,0,0,0,-1,1315,771,0,0
98,253,0,0,0,0,0,0,0,0,0,-1,1322,771,0,0
105,253,0,0,0,0,0,0,0,0,0,-1,1329,771,0,0
112,253,0,0,0,0,0,0,0,0,0,-1,1336,771,0,0
119,253,0,0,0,0,0,0,0,0,0,-1,1343,771,0,0
126,253,0,0,0,0,0,0,0,0,0,-1,1350,771,0,0
133,253,0,0,0,0,0,0,0,0,0,-1,1357,771,0,0
140,253,0,0,0,0,0,0,0,0,0,-1,1364,771,0,0
147,253,0,0,0,0,0,0,0,0,0,-1,1371,771,0,0
154,253,0,0,0,0,0,0,0,0,0,-1,1378,771,0,0
161,253,0,0,0,0,0,0,0,0,0,-1,1385,771,0,0
168,253,0,0,0,0,0,0,0,0,0,-1,1392,771,0,0
175,253,0,0,0,0,0,0,0,0,0,-1,1399,771,0,0
182,253,0,0,0,0,0,0,0,0,0,-1,1406,771,0,0
189,253,0,0,0,0,0,0,0,0,0,-1,1413,771,0,0
196,253,0,0,0,0,0,0,0,0,0,-1,1420,771,0,0
203,253,0,0,0,0,0,0,0,0,0,-1,1427,771,0,0
210,253,0,0,0,0,0,0,0,0,0,-1,1434,771,0,0
217,253,0,0,0,0,0,0,0,0,0,-1,1441,771,0,0
224,253,0,0,0,0,0,0,0,0,0,-1,1448,771,0,0
231,253,0,0,0,0,0,0,0,0,0,-1,1455,771,0,0
238,253,0,0,0,0,0,0,0,0,0,-1,1462,771,0,0
245,253,0,0,0,0,0,0,0,0,0,-1,1469,771,0,0
252,253,0,0,0,0,0,0,0,0,0,-1,1476,771,0,0
259,253,0,0,0,0,0,0,0,0,0,-1,1483,771,0,0
266,253,0,0,0,0,0,0,0,0,0,-1,1490,771,0,0
273,253,0,0,0,0,0,0,0,0,0,-1,1497,771,0,0
280,253,0,0,0,0,0,0,0,0,0,-1,1504,771,0,0
287,253,0,0,0,0,0,0,0,0,0,-1,1511,771,0,0
294,253,0,0,0,0,0,0,0,0,0,-1,1518,771,0,0
301,253,0,0,0,0,0,0,0,0,0,-1,1525,771,0,0
308,253,0,0,0,0,0,0,0,0,0,-1,1532,771,0,0
315,253,0,0,0,0,0,0,0,0,0,-1,1539,771,0,0
322,253,0,0,0,0,0,0,0,0,0,-1,1546,771,0,0
329,253,0,0,0,0,0,0,0,0,0,-1,1553,771,0,0
336,253,0,0,0,0,0,0,0,0,0,-1,1560,771,0,0
343,253,0,0,0,0,0,0,0,0,0,-1,1567,771,0,0
350,253,0,0,0,0,0,0,0,0,0,-1,1574,771,0,0
357,253,0,0,0,0,0,0,0,0,0,-1,1581,771,0,0
364,253,0,0,0,0,0,0,0,0,0,-1,1588,771,0,0
371,253,0,0,0,0,0,0,0,0,0,-1,1595,771,0,0
378,253,0,0,0,0,0,0,0,0,0,-1,1602,771,0,0
385,253,0,0,0,0,0,0,0,0,0,-1,1609,771,0,0
392,253,0,0,0,0,0,0,0,0,0,-1,1616,771,0,0
399,253,0,0,0,0,0,0,0,0,0,-1,1623,771,0,0
406,253,0,0,0,0,0,0,0,0,0,-1,1630,771,0,0
413,253,0,0,0,0,0,0,0,0,0,-1,1637,771,0,0
420,253,0,0,0,0,0,0,0,0,0,-1,1644,771,0,0
427,253,0,0,0,0,0,0,0,0,0,-1,1651,771,0,0
434,253,0,0,0,0,0,0,0,0,0,-1,1658,771,0,0
441,253,0,0,0,0,0,0,0,0,0,-1,1665,771,0,0
448,253,0,0,0,0,0,0,0,0,0,-1,1672,771,0,0
455,253,0,0,0,0,0,0,0,0,0,-1,1679,771,0,0
462,253,0,0,0,0,0,0,0,0,0,-1,1686,771,0,0
469,253,0,0,0,0,0,0,0,0,0,-1,1693,771,0,0
476,253,0,0,0,0,0,0,0,0,0,-1,1700,771,0,0
483,253,0,0,0,0,0,0,0,0,0,-1,1707,771,0,0
490,253,0,0,0,0,0,0,0,0,0,-1,1714,771,0,0
497,253,0,0,0,0,0,0,0,0,0,-1,1721,771,0,0
504,253,0,0,0,0,0,0,0,0,0,-1,1728,771,0,0
511,253,0,0,0,0,0,0,0,0,0,-1,1735,771,0,0
518,253,0,0,0,0,0,0,0,0,0,-1,1742,771,0,0
525,253,0,0,0,0,0,0,0,0,0,-1,1749,771,0,0
532,253,0,0,0,0,0,0,0,0,0,-1,1756,771,0,0
539,253,0,0,0,0,0,0,0,0,0,-1,1763,771,0,0
546,253,0,0,0,0,0,0,0,0,0,-1,1770,771,0,0
553,253,0,0,0,0,0,0,0,0,0,-1,1777,771,0,0
560,253,0,0,0,0,0,0,0,0,0,-1,1784,771,0,0
567,253,0,0,0,0,0,0,0,0,0,-1,1791,771,0,0
574,253,29.5793,2.5553,0,0,0,0,0,0,0,-1,1798,771,29.5794,-2.55532
581,253,29.4149,2.63733,0.00314418,0.0162706,-0.00634882,0.0188388,0.000575944,-1.1864,0.0123717,0.0371592,1805,771,29.4149,-2.63734
588,253,29.4435,2.73206,-8.95456e-05,0.0147556,-0.00213399,0.0150562,-0.00039022,-1.43082,0.0101701,0.0420144,1812,771,29.4435,-2.73206
595,253,29.5154,2.83966,-0.00290925,0.0130721,0.000298301,0.0130777,-0.00291481,1.55214,0.0098351,0.0454489,1819,771,29.5153,-2.83968
602,253,29.2833,2.7804,-0.00480278,0.011139,0.00140316,0.0112615,-0.00492535,1.48367,0.0095812,0.0439799,1826,771,29.2834,-2.78041
609,253,29.3074,3.10675,-0.00604092,0.00917185,0.00157102,0.0093324,-0.00620146,1.46896,0.009029,0.0412319,1833,771,29.3074,-3.10673
616,253,29.3207,3.24066,-0.00682641,0.00731279,0.001277,0.0074272,-0.00694082,1.48144,0.00829697,0.0403461,1840,771,29.3206,-3.24066
623,253,28.9432,2.83856,-0.00720348,0.00559426,0.000969382,0.00566727,-0.00727649,1.49562,0.00749231,0.0449769,1847,771,28.9433,-2.83857
630,253,28.8258,2.54474,0,0,0,0,0,0,0,-1,1854,771,28.8258,-2.54471
637,253,20.3811,-0.304688,0,0,0,0,0,0,0,-1,1861,771,20.3811,0.304683
644,253,20.3777,-0.0396118,-0.00684276,0.00192274,-0.000807169,0.00199645,-0.00691647,-1.47973,0.0054009,0.0477168,1868,771,20.3777,0.0396384
651,253,20.3488,0.227905,-0.00615591,0.000811833,-0.00142573,0.00109228,-0.00643636,-1.37657,0.00469752,0.0248855,1875,771,20.3487,-0.227913
658,253,20.3519,0.57312,-0.00543694,-6.71962e-07,-0.00184801,0.000568048,-0.00600566,-1.27225,0.00420593,0.0184993,1882,771,20.352,-0.573096
665,253,20.2773,0.927124,-0.00453749,-0.000557709,-0.00204039,0.000302459,-0.00539766,-1.17183,0.00370338,0.0193958,1889,771,20.2774,-0.927131
672,253,20.2814,1.29456,-0.00286174,-0.000680189,-0.00174159,0.000284009,-0.00382594,-1.06517,0.00265037,0.0157521,1896,771,20.2814,-1.29455
679,253,20.3169,1.64319,-0.00067351,-0.000794324,-0.00106165,0.000329445,-0.00179728,-0.756979,0.00132176,0.0122815,1903,771,20.3169,-1.64318
686,253,20.2959,1.99493,0.00161952,-0.000686626,-0.000659525,0.00179481,-0.000861917,-0.259777,0.00156507,0.0175261,1910,771,20.2959,-1.99494
693,253,20.2494,2.31744,0.00406166,-0.000635088,-3.94621e-05,0.00406199,-0.000635419,-0.00840121,0.00294276,0.0175784,1917,771,20.2494,-2.31744
700,253,20.2594,2.63293,0.00680899,-0.000598854,0.000783339,0.00689092,-0.000680782,0.104209,0.00483687,0.0157935,1924,771,20.2595,-2.63294
707,253,20.2734,2.9621,0.0102938,-0.000537149,0.00169991,0.0105543,-0.000797682,0.15208,0.00731661,0.0146166,1931,771,20.2734,-2.96208
714,253,20.2676,3.2807,0.0148341,-0.000864194,0.00293518,0.015365,-0.00139504,0.178924,0.0107386,0.0177785,1938,771,20.2675,-3.28069
721,253,20.4475,3.57111,0.0207489,-0.00122282,0.00477543,0.0217419,-0.00221585,0.205024,0.0152869,0.0306798,1945,771,20.4476,-3.5711
728,253,21.2327,3.80475,0.0289007,-0.00157555,0.00762199,0.0307006,-0.00337547,0.2319,0.02168,0.0424547,1952,771,21.2326,-3.80474
735,253,22.2466,4.38867,0,0,0,0,0,0,0,-1,1959,771,22.2465,-4.38865
742,253,23.3325,5.19232,0,0,0,0,0,0,0,-1,1966,771,23.3325,-5.19235
749,253,24.353,5.8703,0,0,0,0,0,0,0,-1,1973,771,24.3531,-5.87028
756,253,0,0,0,0,0,0,0,0,0,-1,1980,771,0,0
763,253,0,0,0,0,0,0,0,0,0,-1,1987,771,0,0
770,253,0,0,0,0,0,0,0,0,0,-1,1994,771,0,0
777,253,0,0,0,0,0,0,0,0,0,-1,2001,771,0,0
784,253,0,0,0,0,0,0,0,0,0,-1,2008,771,0,0
791,253,0,0,0,0,0,0,0,0,0,-1,2015,771,0,0
798,253,0,0,0,0,0,0,0,0,0,-1,2022,771,0,0
805,253,0,0,0,0,0,0,0,0,0,-1,2029,771,0,0
812,253,0,0,0,0,0,0,0,0,0,-1,2036,771,0,0
-700,246,0,0,0,0,0,0,0,0,0,-1,524,778,0,0
-693,246,0,0,0,0,0,0,0,0,0,-1,531,778,0,0
-686,246,0,0,0,0,0,0,0,0,0,-1,538,778,0,0
-679,246,0,0,0,0,0,0,0,0,0,-1,545,778,0,0
-672,246,0,0,0,0,0,0,0,0,0,-1,552,778,0,0
-665,246,0,0,0,0,0,0,0,0,0,-1,559,778,0,0
-658,246,0,0,0,0,0,0,0,0,0,-1,566,778,0,0
-651,246,0,0,0,0,0,0,0,0,0,-1,573,778,0,0
-644,246,0,0,0,0,0,0,0,0,0,-1,580,778,0,0
-637,246,-18.9866,-1.03009,0,0,0,0,0,0,0,-1,587,778,-18.9866,1.03008
-630,246,-17.842,-0.0478516,0,0,0,0,0,0,0,-1,594,778,-17.842,0.0478235
-623,246,-16.985,0.762146,0,0,0,0,0,0,0,-1,601,778,-16.985,-0.762151
-616,246,-15.9429,1.1322,0.0437703,0.110101,0.00551717,0.110556,0.0433146,1.48837,0.0643261,0.0447269,608,778,-15.9429,-1.13221
-609,246,-14.9814,1.54541,0.0371355,0.0924432,0.00414396,0.092752,0.0368267,1.49642,0.0539275,0.0445702,615,778,-14.9814,-1.54541
-602,246,-14.3038,1.79022,0,0,0,0,0,0,0,-1,622,778,-14.3038,-1.79022
-595,246,-13.6046,1.66687,0.0242063,0.0581546,0.00253229,0.0583425,0.0240184,1.49675,0.0338588,0.0411541,629,778,-13.6046,-1.66684
-588,246,-13.0741,1.13574,0.0185066,0.0433606,0.00217757,0.04355,0.0183173,1.48406,0.025249,0.0295249,636,778,-13.0741,-1.13576
-581,246,-13.1296,0.84906,0.0131034,0.0321745,0.00214382,0.0324125,0.0128654,1.46022,0.0188454,0.01707,643,778,-13.1296,-0.849077
-574,246,-13.1052,0.514648,0.00837051,0.0216516,0.00199551,0.021945,0.00807716,1.42484,0.0128161,0.0191057,650,778,-13.1052,-0.514651
-567,246,-13.1263,0.177429,0.00478863,0.0128629,0.00206238,0.0133591,0.00429235,1.33465,0.00787539,0.0183387,657,778,-13.1263,-0.177414
-560,246,-13.1478,-0.0950928,0.00151668,0.00287564,0.00130268,0.0036654,0.00072692,1.02579,0.00224095,0.0141072,664,778,-13.1478,0.0950817
-553,246,-13.1362,-0.364441,-0.000445273,-0.000597126,0.00144386,0.000924659,-0.00196706,0.75913,0.00170531,0.0134007,671,778,-13.1362,0.364445
-546,246,-13.1499,-0.685974,-0.00147083,-0.0010577,0.00176859,0.000516344,-0.00304487,0.843533,0.00222212,0.011298,678,778,-13.1499,0.685972
-539,246,-13.1635,-1.03174,-0.00290154,-0.0017413,0.0025341,0.000278236,-0.00492108,0.897921,0.00337729,0.0101854,685,778,-13.1634,1.03175
-532,246,-13.1697,-1.37177,-0.00388672,-0.00255888,0.00294041,-0.000208366,-0.00623724,0.896432,0.00409047,0.0111795,692,778,-13.1697,1.37176
-525,246,-13.1661,-1.67487,-0.00443082,-0.00297017,0.0032926,-0.000327877,-0.00707312,0.894535,0.00461001,0.0133628,699,778,-13.1661,1.67487
-518,246,-13.2386,-1.93146,-0.00486124,-0.00371634,0.00360511,-0.000638508,-0.00793907,0.864135,0.00509324,0.0225848,706,778,-13.2387,1.93143
-511,246,-13.3616,-2.12854,-0.00502816,-0.00407541,0.00423265,-0.000292416,-0.00881115,0.841436,0.0057791,0.0456624,713,778,-13.3616,2.12854
-504,246,-13.3162,-2.22687,-0.00506819,-0.00418324,0.0049531,0.000347111,-0.00959853,0.829947,0.00651781,0.0465681,720,778,-13.3161,2.22684
-497,246,-13.1127,-2.47833,0,0,0,0,0,0,0,-1,727,778,-13.1127,2.47835
-490,246,-20.3568,0.299133,0,0,0,0,0,0,0,-1,734,778,-20.3568,-0.299138
-483,246,-20.6918,0.889282,0,0,0,0,0,0,0,-1,741,778,-20.6918,-0.889273
-476,246,-21.0726,0.749451,-0.00249867,-0.00227808,0.00810021,0.00571258,-0.0104893,0.792206,0.00948873,0.0432385,748,778,-21.0726,-0.749423
-469,246,-21.0018,0.61084,-0.000653865,-0.000532123,0.00887962,0.00828683,-0.00947282,0.788826,0.0102612,0.0375792,755,778,-21.0017,-0.610823
-462,246,-21.0356,0.690186,0.00191105,0.00176155,0.0092307,0.0110673,-0.0073947,0.781349,0.0107291,0.0431231,762,778,-21.0356,-0.690189
-455,246,0,0,0,0,0,0,0,0,0,-1,769,778,0,0
-448,246,0,0,0,0,0,0,0,0,0,-1,776,778,0,0
-441,246,0,0,0,0,0,0,0,0,0,-1,783,778,0,0
-434,246,0,0,0,0,0,0,0,0,0,-1,790,778,0,0
-427,246,0,0,0,0,0,0,0,0,0,-1,797,778,0,0
-420,246,0,0,0,0,0,0,0,0,0,-1,804,778,0,0
-413,246,0,0,0,0,0,0,0,0,0,-1,811,778,0,0
-406,246,0,0,0,0,0,0,0,0,0,-1,818,778,0,0
-399,246,0,0,0,0,0,0,0,0,0,-1,825,778,0,0
-392,246,0,0,0,0,0,0,0,0,0,-1,832,778,0,0
-385,246,0,0,0,0,0,0,0,0,0,-1,839,778,0,0
-378,246,0,0,0,0,0,0,0,0,0,-1,846,778,0,0
-371,246,0,0,0,0,0,0,0,0,0,-1,853,778,0,0
-364,246,0,0,0,0,0,0,0,0,0,-1,860,778,0,0
-357,246,0,0,0,0,0,0,0,0,0,-1,867,778,0,0
-350,246,0,0,0,0,0,0,0,0,0,-1,874,778,0,0
-343,246,0,0,0,0,0,0,0,0,0,-1,881,778,0,0
-336,246,0,0,0,0,0,0,0,0,0,-1,888,778,0,0
-329,246,0,0,0,0,0,0,0,0,0,-1,895,778,0,0
-322,246,0,0,0,0,0,0,0,0,0,-1,902,778,0,0
-315,246,0,0,0,0,0,0,0,0,0,-1,909,778,0,0
-308,246,0,0,0,0,0,0,0,0,0,-1,916,778,0,0
-301,246,0,0,0,0,0,0,0,0,0,-1,923,778,0,0
-294,246,0,0,0,0,0,0,0,0,0,-1,930,778,0,0
-287,246,0,0,0,0,0,0,0,0,0,-1,937,778,0,0
-280,246,0,0,0,0,0,0,0,0,0,-1,944,778,0,0
-273,246,0,0,0,0,0,0,0,0,0,-1,951,778,0,0
-266,246,0,0,0,0,0,0,0,0,0,-1,958,778,0,0
-259,246,0,0,0,0,0,0,0,0,0,-1,965,778,0,0
-252,246,0,0,0,0,0,0,0,0,0,-1,972,778,0,0
-245,246,0,0,0,0,0,0,0,0,0,-1,979,778,0,0
-238,246,0,0,0,0,0,0,0,0,0,-1,986,778,0,0
-231,246,0,0,0,0,0,0,0,0,0,-1,993,778,0,0
-224,246,0,0,0,0,0,0,0,0,0,-1,1000,778,0,0
-217,246,0,0,0,0,0,0,0,0,0,-1,1007,778,0,0
-210,246,0,0,0,0,0,0,0,0,0,-1,1014,778,0,0
-203,246,0,0,0,0,0,0,0,0,0,-1,1021,778,0,0
-196,246,0,0,0,0,0,0,0,0,0,-1,1028,778,0,0
-189,246,0,0,0,0,0,0,0,0,0,-1,1035,778,0,0
-182,246,0,0,0,0,0,0,0,0,0,-1,1042,778,0,0
-175,246,0,0,0,0,0,0,0,0,0,-1,1049,778,0,0
-168,246,0,0,0,0,0,0,0,0,0,-1,1056,778,0,0
-161,246,0,0,0,0,0,0,0,0,0,-1,1063,778,0,0
-154,246,0,0,0,0,0,0,0,0,0,-1,1070,778,0,0
-147,246,0,0,0,0,0,0,0,0,0,-1,1077,778,0,0
-140,246,0,0,0,0,0,0,0,0,0,-1,1084,778,0,0
-133,246,0,0,0,0,0,0,0,0,0,-1,1091,778,0,0
-126,246,0,0,0,0,0,0,0,0,0,-1,1098,778,0,0
-119,246,0,0,0,0,0,0,0,0,0,-1,1105,778,0,0
-112,246,0,0,0,0,0,0,0,0,0,-1,1112,778,0,0
-105,246,0,0,0,0,0,0,0,0,0,-1,1119,778,0,0
-98,246,0,0,0,0,0,0,0,0,0,-1,1126,778,0,0
-91,246,0,0,0,0,0,0,0,0,0,-1,1133,778,0,0
-84,246,0,0,0,0,0,0,0,0,0,-1,1140,778,0,0
-77,246,0,0,0,0,0,0,0,0,0,-1,1147,778,0,0
-70,246,0,0,0,0,0,0,0,0,0,-1,1154,778,0,0
-63,246,0,0,0,0,0,0,0,0,0,-1,1161,778,0,0
-56,246,0,0,0,0,0,0,0,0,0,-1,1168,778,0,0
-49,246,0,0,0,0,0,0,0,0,0,-1,1175,778,0,0
-42,246,0,0,0,0,0,0,0,0,0,-1,1182,778,0,0
-35,246,0,0,0,0,0,0,0,0,0,-1,1189,778,0,0
-28,246,0,0,0,0,0,0,0,0,0,-1,1196,778,0,0
-21,246,0,0,0,0,0,0,0,0,0,-1,1203,778,0,0
-14,246,0,0,0,0,0,0,0,0,0,-1,1210,778,0,0
-7,246,0,0,0,0,0,0,0,0,0,-1,1217,778,0,0
0,246,0,0,0,0,0,0,0,0,0,-1,1224,778,0,0
7,246,0,0,0,0,0,0,0,0,0,-1,1231,778,0,0
14,246,0,0,0,0,0,0,0,0,0,-1,1238,778,0,0
21,246,0,0,0,0,0,0,0,0,0,-1,1245,778,0,0
28,246,0,0,0,0,0,0,0,0,0,-1,1252,778,0,0
35,246,0,0,0,0,0,0,0,0,0,-1,1259,778,0,0
42,246,0,0,0,0,0,0,0,0,0,-1,1266,778,0,0
49,246,0,0,0,0,0,0,0,0,0,-1,1273,778,0,0
56,246,0,0,0,0,0,0,0,0,0,-1,1280,778,0,0
63,246,0,0,0,0,0,0,0,0,0,-1,1287,778,0,0
70,246,0,0,0,0,0,0,0,0,0,-1,1294,778,0,0
77,246,0,0,0,0,0,0,0,0,0,-1,1301,778,0,0
84,246,0,0,0,0,0,0,0,0,0,-1,1308,778,0,0
91,246,0,0,0,0,0,0,0,0,0,-1,1315,778,0,0
98,246,0,0,0,0,0,0,0,0,0,-1,1322,778,0,0
105,246,0,0,0,0,0,0,0,0,0,-1,1329,778,0,0
112,246,0,0,0,0,0,0,0,0,0,-1,1336,778,0,0
119,246,0,0,0,0,0,0,0,0,0,-1,1343,778,0,0
126,246,0,0,0,0,0,0,0,0,0,-1,1350,778,0,0
133,246,0,0,0,0,0,0,0,0,0,-1,1357,778,0,0
140,246,0,0,0,0,0,0,0,0,0,-1,1364,778,0,0
147,246,0,0,0,0,0,0,0,0,0,-1,1371,778,0,0
154,246,0,0,0,0,0,0,0,0,0,-1,1378,778,0,0
161,246,0,0,0,0,0,0,0,0,0,-1,1385,778,0,0
168,246,0,0,0,0,0,0,0,0,0,-1,1392,778,0,0
175,246,0,0,0,0,0,0,0,0,0,-1,1399,778,0,0
182,246,0,0,0,0,0,0,0,0,0,-1,1406,778,0,0
189,246,0,0,0,0,0,0,0,0,0,-1,1413,778,0,0
196,246,0,0,0,0,0,0,0,0,0,-1,1420,778,0,0
203,246,0,0,0,0,0,0,0,0,0,-1,1427,778,0,0
210,246,0,0,0,0,0,0,0,0,0,-1,1434,778,0,0
217,246,0,0,0,0,0,0,0,0,0,-1,1441,778,0,0
224,246,0,0,0,0,0,0,0,0,0,-1,1448,778,0,0
231,246,0,0,0,0,0,0,0,0,0,-1,1455,778,0,0
238,246,0,0,0,0,0,0,0,0,0,-1,1462,778,0,0
245,246,0,0,0,0,0,0,0,0,0,-1,1469,778,0,0
252,246,0,0,0,0,0,0,0,0,0,-1,1476,778,0,0
259,246,0,0,0,0,0,0,0,0,0,-1,1483,778,0,0
266,246,0,0,0,0,0,0,0,0,0,-1,1490,778,0,0
273,246,0,0,0,0,0,0,0,0,0,-1,1497,778,0,0
280,246,0,0,0,0,0,0,0,0,0,-1,1504,778,0,0
287,246,0,0,0,0,0,0,0,0,0,-1,1511,778,0,0
294,246,0,0,0,0,0,0,0,0,0,-1,1518,778,0,0
301,246,0,0,0,0,0,0,0,0,0,-1,1525,778,0,0
308,246,0,0,0,0,0,0,0,0,0,-1,1532,778,0,0
315,246,0,0,0,0,0,0,0,0,0,-1,1539,778,0,0
322,246,0,0,0,0,0,0,0,0,0,-1,1546,778,0,0
329,246,0,0,0,0,0,0,0,0,0,-1,1553,778,0,0
336,246,0,0,0,0,0,0,0,0,0,-1,1560,778,0,0
343,246,0,0,0,0,0,0,0,0,0,-1,1567,778,0,0
350,246,0,0,0,0,0,0,0,0,0,-1,1574,778,0,0
357,246,0,0,0,0,0,0,0,0,0,-1,1581,778,0,0
364,246,0,0,0,0,0,0,0,0,0,-1,1588,778,0,0
371,246,0,0,0,0,0,0,0,0,0,-1,1595,778,0,0
378,246,0,0,0,0,0,0,0,0,0,-1,1602,778,0,0
385,246,0,0,0,0,0,0,0,0,0,-1,1609,778,0,0
392,246,0,0,0,0,0,0,0,0,0,-1,1616,778,0,0
399,246,0,0,0,0,0,0,0,0,0,-1,1623,778,0,0
406,246,0,0,0,0,0,0,0,0,0,-1,1630,778,0,0
413,246,0,0,0,0,0,0,0,0,0,-1,1637,778,0,0
420,246,0,0,0,0,0,0,0,0,0,-1,1644,778,0,0
427,246,0,0,0,0,0,0,0,0,0,-1,1651,778,0,0
434,246,0,0,0,0,0,0,0,0,0,-1,1658,778,0,0
441,246,0,0,0,0,0,0,0,0,0,-1,1665,778,0,0
448,246,0,0,0,0,0,0,0,0,0,-1,1672,778,0,0
455,246,0,0,0,0,0,0,0,0,0,-1,1679,778,0,0
462,246,0,0,0,0,0,0,0,0,0,-1,1686,778,0,0
469,246,0,0,0,0,0,0,0,0,0,-1,1693,778,0,0
476,246,0,0,0,0,0,0,0,0,0,-1,1700,778,0,0
483,246,0,0,0,0,0,0,0,0,0,-1,1707,778,0,0
490,246,0,0,0,0,0,0,0,0,0,-1,1714,778,0,0
497,246,0,0,0,0,0,0,0,0,0,-1,1721,778,0,0
504,246,0,0,0,0,0,0,0,0,0,-1,1728,778,0,0
511,246,0,0,0,0,0,0,0,0,0,-1,1735,778,0,0
518,246,0,0,0,0,0,0,0,0,0,-1,1742,778,0,0
525,246,0,0,0,0,0,0,0,0,0,-1,1749,778,0,0
532,246,0,0,0,0,0,0,0,0,0,-1,1756,778,0,0
539,246,0,0,0,0,0,0,0,0,0,-1,1763,778,0,0
546,246,0,0,0,0,0,0,0,0,0,-1,1770,778,0,0
553,246,0,0,0,0,0,0,0,0,0,-1,1777,778,0,0
560,246,0,0,0,0,0,0,0,0,0,-1,1784,778,0,0
567,246,0,0,0,0,0,0,0,0,0,-1,1791,778,0,0
574,246,0,0,0,0,0,0,0,0,0,-1,1798,778,0,0
581,246,29.4829,2.56354,0.00272895,0.013355,-0.00504807,0.0153708,0.000713177,-1.19088,0.0100179,0.0346006,1805,778,29.483,-2.56355
588,246,29.4376,2.55621,-3.89391e-05,0.0125197,-0.00129288,0.0126514,-0.000170657,-1.46927,0.00849172,0.0402412,1812,778,29.4376,-2.5562
595,246,29.8351,2.46661,0,0,0,0,0,0,0,-1,1819,778,29.8351,-2.46663
602,246,29.4393,2.80316,-0.00508408,0.010092,0.0017317,0.0102871,-0.00527917,1.45861,0.00914091,0.0433684,1826,778,29.4393,-2.80314
609,246,29.255,3.11908,-0.00653533,0.00839628,0.00165727,0.00857801,-0.00671706,1.46158,0.00885237,0.0461945,1833,778,29.255,-3.11908
616,246,29.2456,3.23853,-0.0074841,0.00669534,0.00117794,0.00679253,-0.00758129,1.48847,0.00830289,0.0459258,1840,778,29.2457,-3.2385
623,246,29.3063,2.83044,-0.00794606,0.00507033,0.000716405,0.00510964,-0.00798537,1.51598,0.00762093,0.0408252,1847,778,29.3062,-2.83043
630,246,29.3296,2.60278,0,0,0,0,0,0,0,-1,1854,778,29.3295,-2.60279
637,246,28.2345,2.4433,0,0,0,0,0,0,0,-1,1861,778,28.2345,-2.4433
644,246,20.7216,0.0209351,0,0,0,0,0,0,0,-1,1868,778,20.7215,-0.0209328
651,246,20.6656,0.241943,-0.00692248,0.00040329,-0.00168637,0.000772845,-0.00729203,-1.35506,0.00513838,0.0377871,1875,778,20.6656,-0.241951
658,246,20.6653,0.592957,-0.0062873,-0.000406916,-0.00212963,0.000283326,-0.00697754,-1.25737,0.00474895,0.0218216,1882,778,20.6653,-0.592958
665,246,20.6267,0.945251,-0.00543719,-0.00102472,-0.00234855,-8.6634e-06,-0.00645325,-1.16248,0.00429928,0.0196712,1889,778,20.6267,-0.945236
672,246,20.6405,1.31451,-0.00378708,-0.00117721,-0.00206656,-3.80718e-05,-0.00492623,-1.06701,0.00327153,0.0193425,1896,778,20.6405,-1.31449
679,246,20.6669,1.63763,-0.00159398,-0.00127571,-0.00139007,-3.57004e-05,-0.00283399,-0.84239,0.00187754,0.0192704,1903,778,20.6668,-1.63761
686,246,20.6632,1.99609,0.000804284,-0.001081,-0.0009811,0.00122221,-0.00149892,-0.402693,0.00157375,0.021387,1910,778,20.6632,-1.99608
693,246,20.6423,2.30646,0.00330692,-0.000922519,-0.000297355,0.00332772,-0.000943322,-0.0698482,0.00259081,0.0175,1917,778,20.6423,-2.30643
700,246,20.6371,2.62189,0.00589497,-0.000741916,0.000594693,0.00594784,-0.000794782,0.088663,0.00425497,0.0147838,1924,778,20.637,-2.62187
707,246,20.6313,2.96362,0.00900884,-0.000553702,0.00147931,0.00923246,-0.000777321,0.150028,0.00642976,0.0131038,1931,778,20.6313,-2.96362
714,246,20.6077,3.30463,0.0127631,-0.000685497,0.00249155,0.0132099,-0.00113225,0.177422,0.00920725,0.0117536,1938,778,20.6076,-3.30465
721,246,20.6229,3.60339,0.017411,-0.000872472,0.00387688,0.0181991,-0.00166057,0.200548,0.0127224,0.0181597,1945,778,20.6229,-3.6034
728,246,20.8934,4.09473,0.0234254,-0.00106501,0.00587772,0.024763,-0.00240261,0.223761,0.017365,0.0370652,1952,778,20.8934,-4.09472
735,246,21.4636,4.68036,0,0,0,0,0,0,0,-1,1959,778,21.4636,-4.68038
742,246,22.7991,5.30328,0,0,0,0,0,0,0,-1,1966,778,22.799,-5.30329
749,246,23.8088,5.97626,0,0,0,0,0,0,0,-1,1973,778,23.8089,-5.97629
756,246,22.9113,9.36029,0,0,0,0,0,0,0,-1,1980,778,22.9112,-9.3603
763,246,0,0,0,0,0,0,0,0,0,-1,1987,778,0,0
770,246,0,0,0,0,0,0,0,0,0,-1,1994,778,0,0
777,246,0,0,0,0,0,0,0,0,0,-1,2001,778,0,0
784,246,0,0,0,0,0,0,0,0,0,-1,2008,778,0,0
791,246,0,0,0,0,0,0,0,0,0,-1,2015,778,0,0
798,246,0,0,0,0,0,0,0,0,0,-1,2022,778,0,0
805,246,0,0,0,0,0,0,0,0,0,-1,2029,778,0,0
812,246,0,0,0,0,0,0,0,0,0,-1,2036,778,0,0
-700,239,0,0,0,0,0,0,0,0,0,-1,524,785,0,0
-693,239,0,0,0,0,0,0,0,0,0,-1,531,785,0,0
-686,239,0,0,0,0,0,0,0,0,0,-1,538,785,0,0
-679,239,0,0,0,0,0,0,0,0,0,-1,545,785,0,0
-672,239,0,0,0,0,0,0,0,0,0,-1,552,785,0,0
-665,239,0,0,0,0,0,0,0,0,0,-1,559,785,0,0
-658,239,0,0,0,0,0,0,0,0,0,-1,566,785,0,0
-651,239,0,0,0,0,0,0,0,0,0,-1,573,785,0,0
-644,239,0,0,0,0,0,0,0,0,0,-1,580,785,0,0
-637,239,-18.9825,-0.611511,0.0493242,0.10014,-0.00114024,0.100166,0.0492986,-1.54837,0.057833,0.0460529,587,785,-18.9826,0.611488
-630,239,-18.149,0.0407104,0.0497079,0.103054,-0.00145523,0.103093,0.0496683,-1.54354,0.0595341,0.0490711,594,785,-18.149,-0.040707
-623,239,-17.0799,0.450928,0,0,0,0,0,0,0,-1,601,785,-17.0799,-0.450949
-616,239,-16.1481,0.88092,0.0409969,0.0863257,-0.00143576,0.0863712,0.0409515,-1.53916,0.0498887,0.0440981,608,785,-16.148,-0.880901
-609,239,-15.2545,1.3092,0.0350335,0.073523,-0.00110208,0.0735545,0.035002,-1.54219,0.0424832,0.0447227,615,785,-15.2545,-1.30922
-602,239,-14.1675,1.89423,0,0,0,0,0,0,0,-1,622,785,-14.1675,-1.89421
-595,239,-13.7753,1.53497,0.0232142,0.0473873,-0.000266183,0.0473902,0.0232113,-1.55979,0.0273626,0.0400711,629,785,-13.7753,-1.53499
-588,239,-13.3776,1.18756,0.0180884,0.0356002,0.000232094,0.0356032,0.0180853,1.55755,0.0205564,0.0185369,636,785,-13.3776,-1.18757
-581,239,-13.4457,0.852539,0.0130257,0.02669,0.000908942,0.0267502,0.0129655,1.50467,0.0154467,0.0113334,643,785,-13.4457,-0.852556
-574,239,-13.4415,0.512573,0.00837896,0.0180325,0.0013921,0.0182292,0.00818222,1.4304,0.010543,0.0124137,650,785,-13.4416,-0.512577
-567,239,-13.4689,0.19635,0.00479249,0.0105898,0.00186317,0.011137,0.00424534,1.28516,0.00649016,0.0135723,657,785,-13.4689,-0.196377
-560,239,-13.4742,-0.0747681,0.00155837,0.00228765,0.00136217,0.00333314,0.000512874,0.916177,0.0020724,0.014069,664,785,-13.4742,0.0747439
-553,239,-13.4635,-0.375671,-0.000515093,-0.000588378,0.00155498,0.00100368,-0.00210715,0.773618,0.00183332,0.0143913,671,785,-13.4635,0.375681
-546,239,-13.4749,-0.713257,-0.00179307,-0.000896079,0.00179434,0.00050497,-0.00319412,0.907864,0.00231616,0.0150451,678,785,-13.4749,0.713273
-539,239,-13.4672,-1.0376,-0.00334202,-0.001377,0.00253446,0.000358731,-0.00507775,0.97031,0.00351086,0.0153857,685,785,-13.4672,1.03759
-532,239,-13.4632,-1.36755,-0.00442508,-0.0019545,0.00289532,-4.19624e-05,-0.00633762,0.987032,0.00421116,0.013028,692,785,-13.4632,1.36758
-525,239,-13.4785,-1.62994,-0.00502204,-0.00221926,0.0031115,-0.000208129,-0.00703317,0.996987,0.00462097,0.0172481,699,785,-13.4785,1.62991
-518,239,-13.626,-1.7887,-0.00550694,-0.0028278,0.00326554,-0.000637752,-0.00769699,0.980038,0.00493251,0.0420076,706,785,-13.626,1.78871
-511,239,-13.7433,-1.98248,-0.00577472,-0.00312606,0.00366195,-0.000556332,-0.00834445,0.958904,0.00538711,0.044627,713,785,-13.7433,1.98249
-504,239,-13.9348,-2.10663,-0.00585569,-0.00328382,0.00409297,-0.000279536,-0.00885998,0.937606,0.00581571,0.0417142,720,785,-13.9348,2.10663
-497,239,-13.9291,-2.09308,0,0,0,0,0,0,0,-1,727,785,-13.9291,2.09306
-490,239,-20.5309,0.362915,-0.0051901,-0.00347154,0.00481874,0.000563937,-0.00922557,0.873631,0.00634672,0.0446617,734,785,-20.531,-0.362898
-483,239,-20.7722,0.821045,-0.00407037,-0.00327186,0.00521328,0.00155743,-0.00889966,0.823616,0.0065146,0.0461049,741,785,-20.7721,-0.821019
-476,239,-20.8903,0.907959,-0.00219416,-0.00261827,0.00551885,0.0031167,-0.00792914,0.766196,0.00657598,0.0399943,748,785,-20.8903,-0.90794
-469,239,-20.8335,0.851013,0.000422982,-0.0014043,0.00562723,0.00521026,-0.00619158,0.70492,0.00659097,0.0419424,755,785,-20.8335,-0.851002
-462,239,-20.9444,0.796997,0.00399643,0.000238172,0.00520829,0.00765422,-0.00341961,0.612268,0.00654744,0.0450997,762,785,-20.9444,-0.797005
-455,239,0,0,0,0,0,0,0,0,0,-1,769,785,0,0
-448,239,0,0,0,0,0,0,0,0,0,-1,776,785,0,0
-441,239,0,0,0,0,0,0,0,0,0,-1,783,785,0,0
-434,239,0,0,0,0,0,0,0,0,0,-1,790,785,0,0
-427,239,0,0,0,0,0,0,0,0,0,-1,797,785,0,0
-420,239,0,0,0,0,0,0,0,0,0,-1,804,785,0,0
-413,239,0,0,0,0,0,0,0,0,0,-1,811,785,0,0
-406,239,0,0,0,0,0,0,0,0,0,-1,818,785,0,0
-399,239,0,0,0,0,0,0,0,0,0,-1,825,785,0,0
-392,239,0,0,0,0,0,0,0,0,0,-1,832,785,0,0
-385,239,0,0,0,0,0,0,0,0,0,-1,839,785,0,0
-378,239,0,0,0,0,0,0,0,0,0,-1,846,785,0,0
-371,239,0,0,0,0,0,0,0,0,0,-1,853,785,0,0
-364,239,0,0,0,0,0,0,0,0,0,-1,860,785,0,0
-357,239,0,0,0,0,0,0,0,0,0,-1,867,785,0,0
-350,239,0,0,0,0,0,0,0,0,0,-1,874,785,0,0
-343,239,0,0,0,0,0,0,0,0,0,-1,881,785,0,0
-336,239,0,0,0,0,0,0,0,0,0,-1,888,785,0,0
-329,239,0,0,0,0,0,0,0,0,0,-1,895,785,0,0
-322,239,0,0,0,0,0,0,0,0,0,-1,902,785,0,0
-315,239,0,0,0,0,0,0,0,0,0,-1,909,785,0,0
-308,239,0,0,0,0,0,0,0,0,0,-1,916,785,0,0
-301,239,0,0,0,0,0,0,0,0,0,-1,923,785,0,0
-294,239,0,0,0,0,0,0,0,0,0,-1,930,785,0,0
-287,239,0,0,0,0,0,0,0,0,0,-1,937,785,0,0
-280,239,0,0,0,0,0,0,0,0,0,-1,944,785,0,0
-273,239,0,0,0,0,0,0,0,0,0,-1,951,785,0,0
-266,239,0,0,0,0,0,0,0,0,0,-1,958,785,0,0
-259,239,0,0,0,0,0,0,0,0,0,-1,965,785,0,0
-252,239,0,0,0,0,0,0,0,0,0,-1,972,785,0,0
-245,239,0,0,0,0,0,0,0,0,0,-1,979,785,0,0
-238,239,0,0,0,0,0,0,0,0,0,-1,986,785,0,0
-231,239,0,0,0,0,0,0,0,0,0,-1,993,785,0,0
-224,239,0,0,0,0,0,0,0,0,0,-1,1000,785,0,0
-217,239,0,0,0,0,0,0,0,0,0,-1,1007,785,0,0
-210,239,0,0,0,0,0,0,0,0,0,-1,1014,785,0,0
-203,239,0,0,0,0,0,0,0,0,0,-1,1021,785,0,0
-196,239,0,0,0,0,0,0,0,0,0,-1,1028,785,0,0
-189,239,0,0,0,0,0,0,0,0,0,-1,1035,785,0,0
-182,239,0,0,0,0,0,0,0,0,0,-1,1042,785,0,0
-175,239,0,0,0,0,0,0,0,0,0,-1,1049,785,0,0
-168,239,0,0,0,0,0,0,0,0,0,-1,1056,785,0,0
-161,239,0,0,0,0,0,0,0,0,0,-1,1063,785,0,0
-154,239,0,0,0,0,0,0,0,0,0,-1,1070,785,0,0
-147,239,0,0,0,0,0,0,0,0,0,-1,1077,785,0,0
-140,239,0,0,0,0,0,0,0,0,0,-1,1084,785,0,0
-133,239,0,0,0,0,0,0,0,0,0,-1,1091,785,0,0
-126,239,0,0,0,0,0,0,0,0,0,-1,1098,785,0,0
-119,239,0,0,0,0,0,0,0,0,0,-1,1105,785,0,0
-112,239,0,0,0,0,0,0,0,0,0,-1,1112,785,0,0
-105,239,0,0,0,0,0,0,0,0,0,-1,1119,785,0,0
-98,239,0,0,0,0,0,0,0,0,0,-1,1126,785,0,0
-91,239,0,0,0,0,0,0,0,0,0,-1,1133,785,0,0
-84,239,0,0,0,0,0,0,0,0,0,-1,1140,785,0,0
-77,239,0,0,0,0,0,0,0,0,0,-1,1147,785,0,0
-70,239,0,0,0,0,0,0,0,0,0,-1,1154,785,0,0
-63,239,0,0,0,0,0,0,0,0,0,-1,1161,785,0,0
-56,239,0,0,0,0,0,0,0,0,0,-1,1168,785,0,0
-49,239,0,0,0,0,0,0,0,0,0,-1,1175,785,0,0
-42,239,0,0,0,0,0,0,0,0,0,-1,1182,785,0,0
-35,239,0,0,0,0,0,0,0,0,0,-1,1189,785,0,0
-28,239,0,0,0,0,0,0,0,0,0,-1,1196,785,0,0
-21,239,0,0,0,0,0,0,0,0,0,-1,1203,785,0,0
-14,239,0,0,0,0,0,0,0,0,0,-1,1210,785,0,0
-7,239,0,0,0,0,0,0,0,0,0,-1,1217,785,0,0
0,239,0,0,0,0,0,0,0,0,0,-1,1224,785,0,0
7,239,0,0,0,0,0,0,0,0,0,-1,1231,785,0,0
14,239,0,0,0,0,0,0,0,0,0,-1,1238,785,0,0
21,239,0,0,0,0,0,0,0,0,0,-1,1245,785,0,0
28,239,0,0,0,0,0,0,0,0,0,-1,1252,785,0,0
35,239,0,0,0,0,0,0,0,0,0,-1,1259,785,0,0
42,239,0,0,0,0,0,0,0,0,0,-1,1266,785,0,0
49,239,0,0,0,0,0,0,0,0,0,-1,1273,785,0,0
56,239,0,0,0,0,0,0,0,0,0,-1,1280,785,0,0
63,239,0,0,0,0,0,0,0,0,0,-1,1287,785,0,0
70,239,0,0,0,0,0,0,0,0,0,-1,1294,785,0,0
77,239,0,0,0,0,0,0,0,0,0,-1,1301,785,0,0
84,239,0,0,0,0,0,0,0,0,0,-1,1308,785,0,0
91,239,0,0,0,0,0,0,0,0,0,-1,1315,785,0,0
98,239,0,0,0,0,0,0,0,0,0,-1,1322,785,0,0
105,239,0,0,0,0,0,0,0,0,0,-1,1329,785,0,0
112,239,0,0,0,0,0,0,0,0,0,-1,1336,785,0,0
119,239,0,0,0,0,0,0,0,0,0,-1,1343,785,0,0
126,239,0,0,0,0,0,0,0,0,0,-1,1350,785,0,0
133,239,0,0,0,0,0,0,0,0,0,-1,1357,785,0,0
140,239,0,0,0,0,0,0,0,0,0,-1,1364,785,0,0
147,239,0,0,0,0,0,0,0,0,0,-1,1371,785,0,0
154,239,0,0,0,0,0,0,0,0,0,-1,1378,785,0,0
161,239,0,0,0,0,0,0,0,0,0,-1,1385,785,0,0
168,239,0,0,0,0,0,0,0,0,0,-1,1392,785,0,0
175,239,0,0,0,0,0,0,0,0,0,-1,1399,785,0,0
182,239,0,0,0,0,0,0,0,0,0,-1,1406,785,0,0
189,239,0,0,0,0,0,0,0,0,0,-1,1413,785,0,0
196,239,0,0,0,0,0,0,0,0,0,-1,1420,785,0,0
203,239,0,0,0,0,0,0,0,0,0,-1,1427,785,0,0
210,239,0,0,0,0,0,0,0,0,0,-1,1434,785,0,0
217,239,0,0,0,0,0,0,0,0,0,-1,1441,785,0,0
224,239,0,0,0,0,0,0,0,0,0,-1,1448,785,0,0
231,239,0,0,0,0,0,0,0,0,0,-1,1455,785,0,0
238,239,0,0,0,0,0,0,0,0,0,-1,1462,785,0,0
245,239,0,0,0,0,0,0,0,0,0,-1,1469,785,0,0
252,239,0,0,0,0,0,0,0,0,0,-1,1476,785,0,0
259,239,0,0,0,0,0,0,0,0,0,-1,1483,785,0,0
266,239,0,0,0,0,0,0,0,0,0,-1,1490,785,0,0
273,239,0,0,0,0,0,0,0,0,0,-1,1497,785,0,0
280,239,0,0,0,0,0,0,0,0,0,-1,1504,785,0,0
287,239,0,0,0,0,0,0,0,0,0,-1,1511,785,0,0
294,239,0,0,0,0,0,0,0,0,0,-1,1518,785,0,0
301,239,0,0,0,0,0,0,0,0,0,-1,1525,785,0,0
308,239,0,0,0,0,0,0,0,0,0,-1,1532,785,0,0
315,239,0,0,0,0,0,0,0,0,0,-1,1539,785,0,0
322,239,0,0,0,0,0,0,0,0,0,-1,1546,785,0,0
329,239,0,0,0,0,0,0,0,0,0,-1,1553,785,0,0
336,239,0,0,0,0,0,0,0,0,0,-1,1560,785,0,0
343,239,0,0,0,0,0,0,0,0,0,-1,1567,785,0,0
350,239,0,0,0,0,0,0,0,0,0,-1,1574,785,0,0
357,239,0,0,0,0,0,0,0,0,0,-1,1581,785,0,0
364,239,0,0,0,0,0,0,0,0,0,-1,1588,785,0,0
371,239,0,0,0,0,0,0,0,0,0,-1,1595,785,0,0
378,239,0,0,0,0,0,0,0,0,0,-1,1602,785,0,0
385,239,0,0,0,0,0,0,0,0,0,-1,1609,785,0,0
392,239,0,0,0,0,0,0,0,0,0,-1,1616,785,0,0
399,239,0,0,0,0,0,0,0,0,0,-1,1623,785,0,0
406,239,0,0,0,0,0,0,0,0,0,-1,1630,785,0,0
413,239,0,0,0,0,0,0,0,0,0,-1,1637,785,0,0
420,239,0,0,0,0,0,0,0,0,0,-1,1644,785,0,0
427,239,0,0,0,0,0,0,0,0,0,-1,1651,785,0,0
434,239,0,0,0,0,0,0,0,0,0,-1,1658,785,0,0
441,239,0,0,0,0,0,0,0,0,0,-1,1665,785,0,0
448,239,0,0,0,0,0,0,0,0,0,-1,1672,785,0,0
455,239,0,0,0,0,0,0,0,0,0,-1,1679,785,0,0
462,239,0,0,0,0,0,0,0,0,0,-1,1686,785,0,0
469,239,0,0,0,0,0,0,0,0,0,-1,1693,785,0,0
476,239,0,0,0,0,0,0,0,0,0,-1,1700,785,0,0
483,239,0,0,0,0,0,0,0,0,0,-1,1707,785,0,0
490,239,0,0,0,0,0,0,0,0,0,-1,1714,785,0,0
497,239,0,0,0,0,0,0,0,0,0,-1,1721,785,0,0
504,239,0,0,0,0,0,0,0,0,0,-1,1728,785,0,0
511,239,0,0,0,0,0,0,0,0,0,-1,1735,785,0,0
518,239,0,0,0,0,0,0,0,0,0,-1,1742,785,0,0
525,239,0,0,0,0,0,0,0,0,0,-1,1749,785,0,0
532,239,0,0,0,0,0,0,0,0,0,-1,1756,785,0,0
539,239,0,0,0,0,0,0,0,0,0,-1,1763,785,0,0
546,239,0,0,0,0,0,0,0,0,0,-1,1770,785,0,0
553,239,0,0,0,0,0,0,0,0,0,-1,1777,785,0,0
560,239,0,0,0,0,0,0,0,0,0,-1,1784,785,0,0
567,239,0,0,0,0,0,0,0,0,0,-1,1791,785,0,0
574,239,0,0,0,0,0,0,0,0,0,-1,1798,785,0,0
581,239,29.4365,2.59808,0.00337043,0.010532,-0.00434101,0.0125785,0.00132392,-1.13026,0.00798102,0.0342164,1805,785,29.4365,-2.59808
588,239,29.2798,2.70911,0.00117984,0.0101691,-0.000986654,0.0102762,0.00107282,-1.46275,0.00652265,0.0371752,1812,785,29.2798,-2.70908
595,239,29.354,2.68213,-0.00194913,0.00980597,0.00109999,0.00990802,-0.00205117,1.47829,0.00738464,0.0354556,1819,785,29.354,-2.68211
602,239,29.3589,2.81384,-0.00446863,0.00885436,0.00187662,0.00911365,-0.00472791,1.4335,0.00812405,0.039131,1826,785,29.3588,-2.81383
609,239,29.2856,2.98199,-0.00635106,0.00749227,0.00168428,0.00769425,-0.00655303,1.45145,0.00823446,0.0492489,1833,785,29.2857,-2.98202
616,239,29.4016,2.76544,0,0,0,0,0,0,0,-1,1840,785,29.4016,-2.76545
623,239,29.6987,2.32092,-0.00833895,0.00447756,0.000490255,0.00449628,-0.00835768,1.53262,0.00753203,0.0421968,1847,785,29.6987,-2.32091
630,239,29.3269,2.72852,-0.00875933,0.00303154,9.21963e-05,0.00303226,-0.00876005,1.56298,0.00707094,0.0418229,1854,785,29.3269,-2.72849
637,239,29.0652,3.15723,0,0,0,0,0,0,0,-1,1861,785,29.0651,-3.15725
644,239,18.3466,0.735413,0,0,0,0,0,0,0,-1,1868,785,18.3465,-0.735414
651,239,20.9834,0.244934,0,0,0,0,0,0,0,-1,1875,785,20.9834,-0.244955
658,239,20.9744,0.62738,-0.00708188,-0.000639802,-0.00237909,0.000143549,-0.00786523,-1.25271,0.00529199,0.0232107,1882,785,20.9744,-0.62737
665,239,20.9946,0.979309,-0.00632724,-0.00126427,-0.0026316,-0.000144218,-0.00744729,-1.1684,0.00491749,0.0137403,1889,785,20.9946,-0.979293
672,239,20.9677,1.32147,-0.00479374,-0.00144693,-0.00241303,-0.000183842,-0.00605683,-1.08857,0.00397802,0.019832,1896,785,20.9677,-1.32149
679,239,20.9846,1.664,-0.00270891,-0.00154995,-0.00181072,-0.000228245,-0.00403062,-0.940261,0.00261432,0.0215527,1903,785,20.9846,-1.664
686,239,21.0092,2.01495,-0.000317192,-0.00132295,-0.00144517,0.000710096,-0.00235024,-0.617965,0.00184953,0.0223798,1910,785,21.0092,-2.01496
693,239,21.0085,2.30151,0.00217393,-0.00110289,-0.000734265,0.00233094,-0.0012599,-0.21066,0.00210369,0.0146206,1917,785,21.0086,-2.3015
700,239,20.986,2.62811,0.00458845,-0.000790887,0.000220351,0.00459746,-0.000799899,0.0408711,0.00336346,0.0111713,1924,785,20.986,-2.6281
707,239,20.9594,2.9635,0.00737516,-0.000457692,0.0010989,0.00752641,-0.000608941,0.136777,0.00523241,0.0108502,1931,785,20.9594,-2.96348
714,239,20.9492,3.2757,0.0104986,-0.000391672,0.00192654,0.0108293,-0.000722442,0.170033,0.00747202,0.0103569,1938,785,20.9492,-3.27571
721,239,20.915,3.57562,0.0141982,-0.000404319,0.00295832,0.0147748,-0.000980879,0.192481,0.0101926,0.0222646,1945,785,20.9151,-3.57563
728,239,20.858,3.88507,0.0187257,-0.000423285,0.00433417,0.019661,-0.00135859,0.21254,0.0135829,0.0397089,1952,785,20.858,-3.88509
735,239,20.9528,4.26569,0,0,0,0,0,0,0,-1,1959,785,20.9527,-4.26566
742,239,22.2998,5.42737,0,0,0,0,0,0,0,-1,1966,785,22.2998,-5.42738
749,239,23.0078,0.207275,0,0,0,0,0,0,0,-1,1973,785,23.0078,-0.207291
756,239,23.7603,1.96185,0,0,0,0,0,0,0,-1,1980,785,23.7603,-1.96185
763,239,0,0,0,0,0,0,0,0,0,-1,1987,785,0,0
770,239,0,0,0,0,0,0,0,0,0,-1,1994,785,0,0
777,239,0,0,0,0,0,0,0,0,0,-1,2001,785,0,0
784,239,0,0,0,0,0,0,0,0,0,-1,2008,785,0,0
791,239,0,0,0,0,0,0,0,0,0,-1,2015,785,0,0
798,239,0,0,0,0,0,0,0,0,0,-1,2022,785,0,0
805,239,0,0,0,0,0,0,0,0,0,-1,2029,785,0,0
812,239,0,0,0,0,0,0,0,0,0,-1,2036,785,0,0
-700,232,0,0,0,0,0,0,0,0,0,-1,524,792,0,0
-693,232,0,0,0,0,0,0,0,0,0,-1,531,792,0,0
-686,232,0,0,0,0,0,0,0,0,0,-1,538,792,0,0
-679,232,0,0,0,0,0,0,0,0,0,-1,545,792,0,0
-672,232,0,0,0,0,0,0,0,0,0,-1,552,792,0,0
-665,232,0,0,0,0,0,0,0,0,0,-1,559,792,0,0
-658,232,0,0,0,0,0,0,0,0,0,-1,566,792,0,0
-651,232,0,0,0,0,0,0,0,0,0,-1,573,792,0,0
-644,232,-19.8224,-0.826782,0,0,0,0,0,0,0,-1,580,792,-19.8224,0.826774
-637,232,-18.9519,-0.214722,0.0432914,0.0700774,-0.0120795,0.07472,0.0386488,-1.20386,0.0431482,0.0436965,587,792,-18.9519,0.214731
-630,232,-18.6063,-0.24939,0.0438427,0.073822,-0.0108389,0.0773303,0.0403344,-1.25777,0.0446605,0.0446723,594,792,-18.6063,0.249418
-623,232,-17.4579,0.104675,0,0,0,0,0,0,0,-1,601,792,-17.458,-0.104695
-616,232,-16.5405,0.525452,0.0366979,0.0644472,-0.00744411,0.066318,0.0348271,-1.32458,0.0383049,0.0449156,608,792,-16.5405,-0.525464
-609,232,-15.6395,0.9729,0.0315085,0.0557195,-0.00571289,0.0569998,0.0302282,-1.35033,0.032929,0.049209,615,792,-15.6395,-0.972918
-602,232,-13.8735,1.85742,0,0,0,0,0,0,0,-1,622,792,-13.8735,-1.85742
-595,232,-13.7871,1.52985,0.0210351,0.0367827,-0.002781,0.0372594,0.0205584,-1.40104,0.0215501,0.0356569,629,792,-13.7871,-1.52982
-588,232,-13.7466,1.19177,0.0164355,0.0276347,-0.00170556,0.0278887,0.0161815,-1.42297,0.0161705,0.0121253,636,792,-13.7467,-1.1918
-581,232,-13.7584,0.848999,0.0118117,0.0208273,-0.000358861,0.0208416,0.0117974,-1.53108,0.0120678,0.00842829,643,792,-13.7584,-0.849014
-574,232,-13.7625,0.538147,0.00746947,0.0140299,0.000785147,0.0141226,0.00737682,1.45333,0.0081564,0.00849154,650,792,-13.7625,-0.538152
-567,232,-13.7844,0.247314,0.00409095,0.00801774,0.0016841,0.00864107,0.00346762,1.21631,0.00502122,0.00945219,657,792,-13.7844,-0.247319
-560,232,-13.7947,-0.0460205,0.00109427,0.0015798,0.00146626,0.00282325,-0.000149183,0.867437,0.00193381,0.0125614,664,792,-13.7947,0.0460471
-553,232,-13.8068,-0.385315,-0.000957259,-0.000513465,0.00168294,0.000962147,-0.00243287,0.850945,0.00202049,0.0139121,671,792,-13.8068,0.385314
-546,232,-13.8068,-0.709656,-0.00241017,-0.000593765,0.00176576,0.000483664,-0.0034876,1.02293,0.00250192,0.0212236,678,792,-13.8068,0.709676
-539,232,-13.7827,-1.02594,-0.00399487,-0.000797273,0.00240318,0.000490353,-0.0052825,1.07892,0.00369597,0.0249019,685,792,-13.7827,1.02592
-532,232,-13.7911,-1.3313,-0.00511597,-0.0010718,0.00267504,0.000259421,-0.00644719,1.10903,0.00438716,0.0177413,692,792,-13.7912,1.33132
-525,232,-13.8771,-1.55994,-0.00574804,-0.00112484,0.00273838,0.00014717,-0.00702004,1.13594,0.00472985,0.0316508,699,792,-13.8772,1.55991
-518,232,-14.3335,-1.02643,0,0,0,0,0,0,0,-1,706,792,-14.3335,1.02641
-511,232,-14.4996,-1.57318,0,0,0,0,0,0,0,-1,713,792,-14.4996,1.57316
-504,232,-15.3544,-1.69373,0,0,0,0,0,0,0,-1,720,792,-15.3544,1.69374
-497,232,-20.7769,0.827942,-0.0065881,-0.00203551,0.00304859,-0.000507145,-0.00811646,1.10608,0.0052501,0.0445394,727,792,-20.7769,-0.827917
-490,232,-20.9733,0.564331,-0.00583303,-0.00235772,0.00305952,-0.000576832,-0.00761391,1.04366,0.00489501,0.0433774,734,792,-20.9733,-0.564312
-483,232,-20.9188,0.863892,-0.00428695,-0.00256344,0.00301755,-0.000287013,-0.00656338,0.924486,0.00428312,0.0415849,741,792,-20.9188,-0.863882
-476,232,-20.8321,0.846863,-0.00165821,-0.00247005,0.00279935,0.000764502,-0.00489276,0.713397,0.00354427,0.0331753,748,792,-20.8321,-0.846863
-469,232,-20.7715,0.880493,0.00196671,-0.00189802,0.00231694,0.00305134,-0.00298265,0.437828,0.0034838,0.0336542,755,792,-20.7716,-0.880473
-462,232,0,0,0,0,0,0,0,0,0,-1,762,792,0,0
-455,232,0,0,0,0,0,0,0,0,0,-1,769,792,0,0
-448,232,0,0,0,0,0,0,0,0,0,-1,776,792,0,0
-441,232,0,0,0,0,0,0,0,0,0,-1,783,792,0,0
-434,232,0,0,0,0,0,0,0,0,0,-1,790,792,0,0
-427,232,0,0,0,0,0,0,0,0,0,-1,797,792,0,0
-420,232,0,0,0,0,0,0,0,0,0,-1,804,792,0,0
-413,232,0,0,0,0,0,0,0,0,0,-1,811,792,0,0
-406,232,0,0,0,0,0,0,0,0,0,-1,818,792,0,0
-399,232,0,0,0,0,0,0,0,0,0,-1,825,792,0,0
-392,232,0,0,0,0,0,0,0,0,0,-1,832,792,0,0
-385,232,0,0,0,0,0,0,0,0,0,-1,839,792,0,0
-378,232,0,0,0,0,0,0,0,0,0,-1,846,792,0,0
-371,232,0,0,0,0,0,0,0,0,0,-1,853,792,0,0
-364,232,0,0,0,0,0,0,0,0,0,-1,860,792,0,0
-357,232,0,0,0,0,0,0,0,0,0,-1,867,792,0,0
-350,232,0,0,0,0,0,0,0,0,0,-1,874,792,0,0
-343,232,0,0,0,0,0,0,0,0,0,-1,881,792,0,0
-336,232,0,0,0,0,0,0,0,0,0,-1,888,792,0,0
-329,232,0,0,0,0,0,0,0,0,0,-1,895,792,0,0
-322,232,0,0,0,0,0,0,0,0,0,-1,902,792,0,0
-315,232,0,0,0,0,0,0,0,0,0,-1,909,792,0,0
-308,232,0,0,0,0,0,0,0,0,0,-1,916,792,0,0
-301,232,0,0,0,0,0,0,0,0,0,-1,923,792,0,0
-294,232,0,0,0,0,0,0,0,0,0,-1,930,792,0,0
-287,232,0,0,0,0,0,0,0,0,0,-1,937,792,0,0
-280,232,0,0,0,0,0,0,0,0,0,-1,944,792,0,0
-273,232,0,0,0,0,0,0,0,0,0,-1,951,792,0,0
-266,232,0,0,0,0,0,0,0,0,0,-1,958,792,0,0
-259,232,0,0,0,0,0,0,0,0,0,-1,965,792,0,0
-252,232,0,0,0,0,0,0,0,0,0,-1,972,792,0,0
-245,232,0,0,0,0,0,0,0,0,0,-1,979,792,0,0
-238,232,0,0,0,0,0,0,0,0,0,-1,986,792,0,0
-231,232,0,0,0,0,0,0,0,0,0,-1,993,792,0,0
-224,232,0,0,0,0,0,0,0,0,0,-1,1000,792,0,0
-217,232,0,0,0,0,0,0,0,0,0,-1,1007,792,0,0
-210,232,0,0,0,0,0,0,0,0,0,-1,1014,792,0,0
-203,232,0,0,0,0,0,0,0,0,0,-1,1021,792,0,0
-196,232,0,0,0,0,0,0,0,0,0,-1,1028,792,0,0
-189,232,0,0,0,0,0,0,0,0,0,-1,1035,792,0,0
-182,232,0,0,0,0,0,0,0,0,0,-1,1042,792,0,0
-175,232,0,0,0,0,0,0,0,0,0,-1,1049,792,0,0
-168,232,0,0,0,0,0,0,0,0,0,-1,1056,792,0,0
-161,232,0,0,0,0,0,0,0,0,0,-1,1063,792,0,0
-154,232,0,0,0,0,0,0,0,0,0,-1,1070,792,0,0
-147,232,0,0,0,0,0,0,0,0,0,-1,1077,792,0,0
-140,232,0,0,0,0,0,0,0,0,0,-1,1084,792,0,0
-133,232,0,0,0,0,0,0,0,0,0,-1,1091,792,0,0
-126,232,0,0,0,0,0,0,0,0,0,-1,1098,792,0,0
-119,232,0,0,0,0,0,0,0,0,0,-1,1105,792,0,0
-112,232,0,0,0,0,0,0,0,0,0,-1,1112,792,0,0
-105,232,0,0,0,0,0,0,0,0,0,-1,1119,792,0,0
-98,232,0,0,0,0,0,0,0,0,0,-1,1126,792,0,0
-91,232,0,0,0,0,0,0,0,0,0,-1,1133,792,0,0
-84,232,0,0,0,0,0,0,0,0,0,-1,1140,792,0,0
-77,232,0,0,0,0,0,0,0,0,0,-1,1147,792,0,0
-70,232,0,0,0,0,0,0,0,0,0,-1,1154,792,0,0
-63,232,0,0,0,0,0,0,0,0,0,-1,1161,792,0,0
-56,232,0,0,0,0,0,0,0,0,0,-1,1168,792,0,0
-49,232,0,0,0,0,0,0,0,0,0,-1,1175,792,0,0
-42,232,0,0,0,0,0,0,0,0,0,-1,1182,792,0,0
-35,232,0,0,0,0,0,0,0,0,0,-1,1189,792,0,0
-28,232,0,0,0,0,0,0,0,0,0,-1,1196,792,0,0
-21,232,0,0,0,0,0,0,0,0,0,-1,1203,792,0,0
-14,232,0,0,0,0,0,0,0,0,0,-1,1210,792,0,0
-7,232,0,0,0,0,0,0,0,0,0,-1,1217,792,0,0
0,232,0,0,0,0,0,0,0,0,0,-1,1224,792,0,0
7,232,0,0,0,0,0,0,0,0,0,-1,1231,792,0,0
14,232,0,0,0,0,0,0,0,0,0,-1,1238,792,0,0
21,232,0,0,0,0,0,0,0,0,0,-1,1245,792,0,0
28,232,0,0,0,0,0,0,0,0,0,-1,1252,792,0,0
35,232,0,0,0,0,0,0,0,0,0,-1,1259,792,0,0
42,232,0,0,0,0,0,0,0,0,0,-1,1266,792,0,0
49,232,0,0,0,0,0,0,0,0,0,-1,1273,792,0,0
56,232,0,0,0,0,0,0,0,0,0,-1,1280,792,0,0
63,232,0,0,0,0,0,0,0,0,0,-1,1287,792,0,0
70,232,0,0,0,0,0,0,0,0,0,-1,1294,792,0,0
77,232,0,0,0,0,0,0,0,0,0,-1,1301,792,0,0
84,232,0,0,0,0,0,0,0,0,0,-1,1308,792,0,0
91,232,0,0,0,0,0,0,0,0,0,-1,1315,792,0,0
98,232,0,0,0,0,0,0,0,0,0,-1,1322,792,0,0
105,232,0,0,0,0,0,0,0,0,0,-1,1329,792,0,0
112,232,0,0,0,0,0,0,0,0,0,-1,1336,792,0,0
119,232,0,0,0,0,0,0,0,0,0,-1,1343,792,0,0
126,232,0,0,0,0,0,0,0,0,0,-1,1350,792,0,0
133,232,0,0,0,0,0,0,0,0,0,-1,1357,792,0,0
140,232,0,0,0,0,0,0,0,0,0,-1,1364,792,0,0
147,232,0,0,0,0,0,0,0,0,0,-1,1371,792,0,0
154,232,0,0,0,0,0,0,0,0,0,-1,1378,792,0,0
161,232,0,0,0,0,0,0,0,0,0,-1,1385,792,0,0
168,232,0,0,0,0,0,0,0,0,0,-1,1392,792,0,0
175,232,0,0,0,0,0,0,0,0,0,-1,1399,792,0,0
182,232,0,0,0,0,0,0,0,0,0,-1,1406,792,0,0
189,232,0,0,0,0,0,0,0,0,0,-1,1413,792,0,0
196,232,0,0,0,0,0,0,0,0,0,-1,1420,792,0,0
203,232,0,0,0,0,0,0,0,0,0,-1,1427,792,0,0
210,232,0,0,0,0,0,0,0,0,0,-1,1434,792,0,0
217,232,0,0,0,0,0,0,0,0,0,-1,1441,792,0,0
224,232,0,0,0,0,0,0,0,0,0,-1,1448,792,0,0
231,232,0,0,0,0,0,0,0,0,0,-1,1455,792,0,0
238,232,0,0,0,0,0,0,0,0,0,-1,1462,792,0,0
245,232,0,0,0,0,0,0,0,0,0,-1,1469,792,0,0
252,232,0,0,0,0,0,0,0,0,0,-1,1476,792,0,0
259,232,0,0,0,0,0,0,0,0,0,-1,1483,792,0,0
266,232,0,0,0,0,0,0,0,0,0,-1,1490,792,0,0
273,232,0,0,0,0,0,0,0,0,0,-1,1497,792,0,0
280,232,0,0,0,0,0,0,0,0,0,-1,1504,792,0,0
287,232,0,0,0,0,0,0,0,0,0,-1,1511,792,0,0
294,232,0,0,0,0,0,0,0,0,0,-1,1518,792,0,0
301,232,0,0,0,0,0,0,0,0,0,-1,1525,792,0,0
308,232,0,0,0,0,0,0,0,0,0,-1,1532,792,0,0
315,232,0,0,0,0,0,0,0,0,0,-1,1539,792,0,0
322,232,0,0,0,0,0,0,0,0,0,-1,1546,792,0,0
329,232,0,0,0,0,0,0,0,0,0,-1,1553,792,0,0
336,232,0,0,0,0,0,0,0,0,0,-1,1560,792,0,0
343,232,0,0,0,0,0,0,0,0,0,-1,1567,792,0,0
350,232,0,0,0,0,0,0,0,0,0,-1,1574,792,0,0
357,232,0,0,0,0,0,0,0,0,0,-1,1581,792,0,0
364,232,0,0,0,0,0,0,0,0,0,-1,1588,792,0,0
371,232,0,0,0,0,0,0,0,0,0,-1,1595,792,0,0
378,232,0,0,0,0,0,0,0,0,0,-1,1602,792,0,0
385,232,0,0,0,0,0,0,0,0,0,-1,1609,792,0,0
392,232,0,0,0,0,0,0,0,0,0,-1,1616,792,0,0
399,232,0,0,0,0,0,0,0,0,0,-1,1623,792,0,0
406,232,0,0,0,0,0,0,0,0,0,-1,1630,792,0,0
413,232,0,0,0,0,0,0,0,0,0,-1,1637,792,0,0
420,232,0,0,0,0,0,0,0,0,0,-1,1644,792,0,0
427,232,0,0,0,0,0,0,0,0,0,-1,1651,792,0,0
434,232,0,0,0,0,0,0,0,0,0,-1,1658,792,0,0
441,232,0,0,0,0,0,0,0,0,0,-1,1665,792,0,0
448,232,0,0,0,0,0,0,0,0,0,-1,1672,792,0,0
455,232,0,0,0,0,0,0,0,0,0,-1,1679,792,0,0
462,232,0,0,0,0,0,0,0,0,0,-1,1686,792,0,0
469,232,0,0,0,0,0,0,0,0,0,-1,1693,792,0,0
476,232,0,0,0,0,0,0,0,0,0,-1,1700,792,0,0
483,232,0,0,0,0,0,0,0,0,0,-1,1707,792,0,0
490,232,0,0,0,0,0,0,0,0,0,-1,1714,792,0,0
497,232,0,0,0,0,0,0,0,0,0,-1,1721,792,0,0
504,232,0,0,0,0,0,0,0,0,0,-1,1728,792,0,0
511,232,0,0,0,0,0,0,0,0,0,-1,1735,792,0,0
518,232,0,0,0,0,0,0,0,0,0,-1,1742,792,0,0
525,232,0,0,0,0,0,0,0,0,0,-1,1749,792,0,0
532,232,0,0,0,0,0,0,0,0,0,-1,1756,792,0,0
539,232,0,0,0,0,0,0,0,0,0,-1,1763,792,0,0
546,232,0,0,0,0,0,0,0,0,0,-1,1770,792,0,0
553,232,0,0,0,0,0,0,0,0,0,-1,1777,792,0,0
560,232,0,0,0,0,0,0,0,0,0,-1,1784,792,0,0
567,232,0,0,0,0,0,0,0,0,0,-1,1791,792,0,0
574,232,0,0,0,0,0,0,0,0,0,-1,1798,792,0,0
581,232,0,0,0,0,0,0,0,0,0,-1,1805,792,0,0
588,232,29.3036,2.64325,0.00293749,0.00780607,-0.000949254,0.0079846,0.00275895,-1.38489,0.00468267,0.0371746,1812,792,29.3036,-2.64323
595,232,29.2676,2.6123,-0.000239747,0.00791789,0.00108703,0.00806026,-0.000382112,1.44057,0.0055053,0.0357108,1819,792,29.2675,-2.61229
602,232,29.2415,2.71967,-0.00313713,0.00741048,0.00190105,0.00774265,-0.00346931,1.39781,0.0066281,0.0340468,1826,792,29.2414,-2.71967
609,232,29.311,2.79407,-0.00553907,0.00643969,0.00165275,0.00666354,-0.00576292,1.43617,0.0071807,0.0389435,1833,792,29.3111,-2.79409
616,232,29.3959,2.74731,-0.00729432,0.00515101,0.000941881,0.00522189,-0.0073652,1.49569,0.00730219,0.0445555,1840,792,29.3959,-2.7473
623,232,29.449,2.64282,-0.00831076,0.00378884,0.000221178,0.00379288,-0.00831481,1.55252,0.00715104,0.0407624,1847,792,29.449,-2.64282
630,232,29.3409,2.80817,-0.00882397,0.00248616,-0.00034502,0.00249667,-0.00883448,-1.54033,0.0068747,0.0443027,1854,792,29.3409,-2.80814
637,232,28.7756,3.09528,-0.00871294,0.00149874,-0.00110796,0.00161757,-0.00883177,-1.46395,0.00649454,0.0486247,1861,792,28.7756,-3.09528
644,232,28.4209,3.14758,0,0,0,0,0,0,0,-1,1868,792,28.4209,-3.14761
651,232,21.4537,0.414612,0,0,0,0,0,0,0,-1,1875,792,21.4537,-0.414633
658,232,21.3992,0.691223,-0.00737457,-0.000861443,-0.00265346,8.27126e-05,-0.00831873,-1.22895,0.00557359,0.0288369,1882,792,21.3992,-0.691236
665,232,21.338,1.00024,-0.00669014,-0.00144555,-0.00291086,-0.000150001,-0.00798569,-1.15205,0.0052745,0.0122833,1889,792,21.338,-1.00026
672,232,21.2764,1.33575,-0.00531854,-0.00163924,-0.00274828,-0.00017172,-0.00678606,-1.08034,0.0044679,0.0187947,1896,792,21.2764,-1.33577
679,232,21.3108,1.67792,-0.00343487,-0.00174866,-0.00223521,-0.00020284,-0.0049807,-0.965744,0.00325496,0.0206158,1903,792,21.3108,-1.67791
686,232,21.3387,2.01453,-0.00118674,-0.00154201,-0.00192165,0.000565461,-0.00329421,-0.739309,0.00240687,0.0185847,1910,792,21.3388,-2.01455
693,232,21.3217,2.3139,0.00115532,-0.00131679,-0.00121494,0.00165244,-0.00181391,-0.388391,0.00200202,0.0104427,1917,792,21.3217,-2.31387
700,232,21.3025,2.6474,0.00329841,-0.000908077,-0.000211237,0.00330899,-0.000918658,-0.0500492,0.00256759,0.0118308,1924,792,21.3025,-2.6474
707,232,21.2865,2.97913,0.00572057,-0.000459484,0.000683723,0.00579531,-0.000534223,0.10888,0.00405337,0.0124759,1931,792,21.2864,-2.97914
714,232,21.2876,3.27527,0.00831904,-0.000208685,0.0014015,0.00854347,-0.000433111,0.158784,0.00584537,0.0137772,1938,792,21.2876,-3.27527
721,232,21.2628,3.54468,0.0116855,-0.000162579,0.00211434,0.0120515,-0.000528585,0.171408,0.00821622,0.021091,1945,792,21.2628,-3.54469
728,232,21.2491,3.77118,0.015515,-0.000107319,0.00300949,0.0160747,-0.000667014,0.183876,0.0109456,0.0392093,1952,792,21.2492,-3.7712
735,232,21.3744,4.06213,0,0,0,0,0,0,0,-1,1959,792,21.3744,-4.06215
742,232,21.5045,-0.94696,0,0,0,0,0,0,0,-1,1966,792,21.5045,0.946985
749,232,22.3296,0.791626,0,0,0,0,0,0,0,-1,1973,792,22.3296,-0.791621
756,232,22.9971,2.53088,0,0,0,0,0,0,0,-1,1980,792,22.9971,-2.53086
763,232,22.3608,4.4809,0,0,0,0,0,0,0,-1,1987,792,22.3608,-4.48088
770,232,0,0,0,0,0,0,0,0,0,-1,1994,792,0,0
777,232,0,0,0,0,0,0,0,0,0,-1,2001,792,0,0
784,232,0,0,0,0,0,0,0,0,0,-1,2008,792,0,0
791,232,0,0,0,0,0,0,0,0,0,-1,2015,792,0,0
798,232,0,0,0,0,0,0,0,0,0,-1,2022,792,0,0
805,232,0,0,0,0,0,0,0,0,0,-1,2029,792,0,0
812,232,0,0,0,0,0,0,0,0,0,-1,2036,792,0,0
-700,225,0,0,0,0,0,0,0,0,0,-1,524,799,0,0
-693,225,0,0,0,0,0,0,0,0,0,-1,531,799,0,0
-686,225,0,0,0,0,0,0,0,0,0,-1,538,799,0,0
-679,225,0,0,0,0,0,0,0,0,0,-1,545,799,0,0
-672,225,0,0,0,0,0,0,0,0,0,-1,552,799,0,0
-665,225,0,0,0,0,0,0,0,0,0,-1,559,799,0,0
-658,225,0,0,0,0,0,0,0,0,0,-1,566,799,0,0
-651,225,0,0,0,0,0,0,0,0,0,-1,573,799,0,0
-644,225,-20.1689,-0.151367,0,0,0,0,0,0,0,-1,580,799,-20.1689,0.151391
-637,225,-18.9512,0.218628,0.0369425,0.0457169,-0.0203277,0.0621254,0.0205339,-0.89168,0.0365485,0.0428015,587,799,-18.9512,-0.218652
-630,225,-19.0862,-0.927307,0.0377151,0.0497524,-0.0181045,0.0628124,0.024655,-0.945871,0.036543,0.0450643,594,799,-19.0862,0.927306
-623,225,-18.6,-0.710876,0.0356342,0.0491333,-0.0152955,0.0591022,0.0256653,-0.993186,0.0342209,0.0483115,601,799,-18.6,0.710891
-616,225,-16.8577,0.213074,0,0,0,0,0,0,0,-1,608,799,-16.8577,-0.213068
-609,225,-16.0357,0.800659,0,0,0,0,0,0,0,-1,615,799,-16.0357,-0.80064
-602,225,-14.1627,1.77069,0,0,0,0,0,0,0,-1,622,799,-14.1627,-1.77071
-595,225,-14.1068,1.45801,0.01845,0.0270758,-0.00487297,0.0292704,0.0162555,-1.14765,0.0169337,0.0296371,629,799,-14.1067,-1.45802
-588,225,-14.0694,1.14172,0.0142883,0.0202715,-0.00338141,0.0217947,0.0127651,-1.14755,0.0126446,0.0122749,636,799,-14.0694,-1.14174
-581,225,-14.0734,0.846558,0.0101557,0.0151625,-0.00150128,0.0155781,0.00974009,-1.30069,0.00908759,0.010099,643,799,-14.0733,-0.846531
-574,225,-14.0767,0.550537,0.00629919,0.0101994,0.000295914,0.0102217,0.00627686,1.4955,0.00595248,0.0082825,650,799,-14.0767,-0.550548
-567,225,-14.0897,0.255432,0.00327563,0.00558715,0.00154782,0.00636311,0.00249968,1.10609,0.00370176,0.0101252,657,799,-14.0897,-0.255409
-560,225,-14.1042,-0.0515747,0.00068157,0.00101001,0.00160535,0.00245952,-0.000767937,0.836369,0.00194682,0.0109591,664,799,-14.1042,0.0515538
-553,225,-14.1182,-0.372803,-0.00117844,-0.000251981,0.00187692,0.00121802,-0.00264844,0.906382,0.00228266,0.0114993,671,799,-14.1181,0.372786
-546,225,-14.1124,-0.682678,-0.00262134,1.26991e-05,0.00188187,0.00099263,-0.00360127,1.09071,0.00279119,0.0196915,678,799,-14.1124,0.682681
-539,225,-14.0761,-1.00745,-0.00410411,0.000153391,0.00242716,0.00125306,-0.00520378,1.14539,0.00395363,0.0262201,685,799,-14.0761,1.00745
-532,225,-14.1456,-1.27759,-0.0051768,0.000244826,0.00264464,0.00132118,-0.00625315,1.18427,0.00467185,0.0223594,692,799,-14.1456,1.27761
-525,225,-14.3607,-1.45746,0,0,0,0,0,0,0,-1,699,799,-14.3607,1.45747
-518,225,-14.3308,-0.966858,0,0,0,0,0,0,0,-1,706,799,-14.3308,0.966833
-511,225,-14.9169,-1.00195,0,0,0,0,0,0,0,-1,713,799,-14.9169,1.00198
-504,225,-20.352,1.54742,-0.00695601,0.000591421,0.00234475,0.00126054,-0.00762513,1.29282,0.00555151,0.0484626,720,799,-20.352,-1.54745
-497,225,-20.6373,1.05591,-0.00674425,0.000288017,0.00210411,0.0008695,-0.00732573,1.30117,0.00519795,0.0440057,727,799,-20.6373,-1.05589
-490,225,-20.9251,0.771912,0,0,0,0,0,0,0,-1,734,799,-20.9251,-0.771886
-483,225,-20.8663,0.868408,-0.00378341,-0.000642632,0.00121662,-0.000226492,-0.00419955,1.24123,0.00272734,0.0319065,741,799,-20.8663,-0.86842
-476,225,-20.8312,0.816345,-0.000410977,-0.000955654,0.000410107,-0.000191019,-0.00117561,0.492298,0.000728465,0.0295068,748,799,-20.8312,-0.816362
-469,225,-20.8731,0.880798,0.00417659,-0.000742086,-0.000619345,0.00425338,-0.000818873,-0.123352,0.00314429,0.0346813,755,799,-20.8731,-0.880777
-462,225,0,0,0,0,0,0,0,0,0,-1,762,799,0,0
-455,225,0,0,0,0,0,0,0,0,0,-1,769,799,0,0
-448,225,0,0,0,0,0,0,0,0,0,-1,776,799,0,0
-441,225,0,0,0,0,0,0,0,0,0,-1,783,799,0,0
-434,225,0,0,0,0,0,0,0,0,0,-1,790,799,0,0
-427,225,0,0,0,0,0,0,0,0,0,-1,797,799,0,0
-420,225,0,0,0,0,0,0,0,0,0,-1,804,799,0,0
-413,225,0,0,0,0,0,0,0,0,0,-1,811,799,0,0
-406,225,0,0,0,0,0,0,0,0,0,-1,818,799,0,0
-399,225,0,0,0,0,0,0,0,0,0,-1,825,799,0,0
-392,225,0,0,0,0,0,0,0,0,0,-1,832,799,0,0
-385,225,0,0,0,0,0,0,0,0,0,-1,839,799,0,0
-378,225,0,0,0,0,0,0,0,0,0,-1,846,799,0,0
-371,225,0,0,0,0,0,0,0,0,0,-1,853,799,0,0
-364,225,0,0,0,0,0,0,0,0,0,-1,860,799,0,0
-357,225,0,0,0,0,0,0,0,0,0,-1,867,799,0,0
-350,225,0,0,0,0,0,0,0,0,0,-1,874,799,0,0
-343,225,0,0,0,0,0,0,0,0,0,-1,881,799,0,0
-336,225,0,0,0,0,0,0,0,0,0,-1,888,799,0,0
-329,225,0,0,0,0,0,0,0,0,0,-1,895,799,0,0
-322,225,0,0,0,0,0,0,0,0,0,-1,902,799,0,0
-315,225,0,0,0,0,0,0,0,0,0,-1,909,799,0,0
-308,225,0,0,0,0,0,0,0,0,0,-1,916,799,0,0
-301,225,0,0,0,0,0,0,0,0,0,-1,923,799,0,0
-294,225,0,0,0,0,0,0,0,0,0,-1,930,799,0,0
-287,225,0,0,0,0,0,0,0,0,0,-1,937,799,0,0
-280,225,0,0,0,0,0,0,0,0,0,-1,944,799,0,0
-273,225,0,0,0,0,0,0,0,0,0,-1,951,799,0,0
-266,225,0,0,0,0,0,0,0,0,0,-1,958,799,0,0
-259,225,0,0,0,0,0,0,0,0,0,-1,965,799,0,0
-252,225,0,0,0,0,0,0,0,0,0,-1,972,799,0,0
-245,225,0,0,0,0,0,0,0,0,0,-1,979,799,0,0
-238,225,0,0,0,0,0,0,0,0,0,-1,986,799,0,0
-231,225,0,0,0,0,0,0,0,0,0,-1,993,799,0,0
-224,225,0,0,0,0,0,0,0,0,0,-1,1000,799,0,0
-217,225,0,0,0,0,0,0,0,0,0,-1,1007,799,0,0
-210,225,0,0,0,0,0,0,0,0,0,-1,1014,799,0,0
-203,225,0,0,0,0,0,0,0,0,0,-1,1021,799,0,0
-196,225,0,0,0,0,0,0,0,0,0,-1,1028,799,0,0
-189,225,0,0,0,0,0,0,0,0,0,-1,1035,799,0,0
-182,225,0,0,0,0,0,0,0,0,0,-1,1042,799,0,0
-175,225,0,0,0,0,0,0,0,0,0,-1,1049,799,0,0
-168,225,0,0,0,0,0,0,0,0,0,-1,1056,799,0,0
-161,225,0,0,0,0,0,0,0,0,0,-1,1063,799,0,0
-154,225,0,0,0,0,0,0,0,0,0,-1,1070,799,0,0
-147,225,0,0,0,0,0,0,0,0,0,-1,1077,799,0,0
-140,225,0,0,0,0,0,0,0,0,0,-1,1084,799,0,0
-133,225,0,0,0,0,0,0,0,0,0,-1,1091,799,0,0
-126,225,0,0,0,0,0,0,0,0,0,-1,1098,799,0,0
-119,225,0,0,0,0,0,0,0,0,0,-1,1105,799,0,0
-112,225,0,0,0,0,0,0,0,0,0,-1,1112,799,0,0
-105,225,0,0,0,0,0,0,0,0,0,-1,1119,799,0,0
-98,225,0,0,0,0,0,0,0,0,0,-1,1126,799,0,0
-91,225,0,0,0,0,0,0,0,0,0,-1,1133,799,0,0
-84,225,0,0,0,0,0,0,0,0,0,-1,1140,799,0,0
-77,225,0,0,0,0,0,0,0,0,0,-1,1147,799,0,0
-70,225,0,0,0,0,0,0,0,0,0,-1,1154,799,0,0
-63,225,0,0,0,0,0,0,0,0,0,-1,1161,799,0,0
-56,225,0,0,0,0,0,0,0,0,0,-1,1168,799,0,0
-49,225,0,0,0,0,0,0,0,0,0,-1,1175,799,0,0
-42,225,0,0,0,0,0,0,0,0,0,-1,1182,799,0,0
-35,225,0,0,0,0,0,0,0,0,0,-1,1189,799,0,0
-28,225,0,0,0,0,0,0,0,0,0,-1,1196,799,0,0
-21,225,0,0,0,0,0,0,0,0,0,-1,1203,799,0,0
-14,225,0,0,0,0,0,0,0,0,0,-1,1210,799,0,0
-7,225,0,0,0,0,0,0,0,0,0,-1,1217,799,0,0
0,225,0,0,0,0,0,0,0,0,0,-1,1224,799,0,0
7,225,0,0,0,0,0,0,0,0,0,-1,1231,799,0,0
14,225,0,0,0,0,0,0,0,0,0,-1,1238,799,0,0
21,225,0,0,0,0,0,0,0,0,0,-1,1245,799,0,0
28,225,0,0,0,0,0,0,0,0,0,-1,1252,799,0,0
35,225,0,0,0,0,0,0,0,0,0,-1,1259,799,0,0
42,225,0,0,0,0,0,0,0,0,0,-1,1266,799,0,0
49,225,0,0,0,0,0,0,0,0,0,-1,1273,799,0,0
56,225,0,0,0,0,0,0,0,0,0,-1,1280,799,0,0
63,225,0,0,0,0,0,0,0,0,0,-1,1287,799,0,0
70,225,0,0,0,0,0,0,0,0,0,-1,1294,799,0,0
77,225,0,0,0,0,0,0,0,0,0,-1,1301,799,0,0
84,225,0,0,0,0,0,0,0,0,0,-1,1308,799,0,0
91,225,0,0,0,0,0,0,0,0,0,-1,1315,799,0,0
98,225,0,0,0,0,0,0,0,0,0,-1,1322,799,0,0
105,225,0,0,0,0,0,0,0,0,0,-1,1329,799,0,0
112,225,0,0,0,0,0,0,0,0,0,-1,1336,799,0,0
119,225,0,0,0,0,0,0,0,0,0,-1,1343,799,0,0
126,225,0,0,0,0,0,0,0,0,0,-1,1350,799,0,0
133,225,0,0,0,0,0,0,0,0,0,-1,1357,799,0,0
140,225,0,0,0,0,0,0,0,0,0,-1,1364,799,0,0
147,225,0,0,0,0,0,0,0,0,0,-1,1371,799,0,0
154,225,0,0,0,0,0,0,0,0,0,-1,1378,799,0,0
161,225,0,0,0,0,0,0,0,0,0,-1,1385,799,0,0
168,225,0,0,0,0,0,0,0,0,0,-1,1392,799,0,0
175,225,0,0,0,0,0,0,0,0,0,-1,1399,799,0,0
182,225,0,0,0,0,0,0,0,0,0,-1,1406,799,0,0
189,225,0,0,0,0,0,0,0,0,0,-1,1413,799,0,0
196,225,0,0,0,0,0,0,0,0,0,-1,1420,799,0,0
203,225,0,0,0,0,0,0,0,0,0,-1,1427,799,0,0
210,225,0,0,0,0,0,0,0,0,0,-1,1434,799,0,0
217,225,0,0,0,0,0,0,0,0,0,-1,1441,799,0,0
224,225,0,0,0,0,0,0,0,0,0,-1,1448,799,0,0
231,225,0,0,0,0,0,0,0,0,0,-1,1455,799,0,0
238,225,0,0,0,0,0,0,0,0,0,-1,1462,799,0,0
245,225,0,0,0,0,0,0,0,0,0,-1,1469,799,0,0
252,225,0,0,0,0,0,0,0,0,0,-1,1476,799,0,0
259,225,0,0,0,0,0,0,0,0,0,-1,1483,799,0,0
266,225,0,0,0,0,0,0,0,0,0,-1,1490,799,0,0
273,225,0,0,0,0,0,0,0,0,0,-1,1497,799,0,0
280,225,0,0,0,0,0,0,0,0,0,-1,1504,799,0,0
287,225,0,0,0,0,0,0,0,0,0,-1,1511,799,0,0
294,225,0,0,0,0,0,0,0,0,0,-1,1518,799,0,0
301,225,0,0,0,0,0,0,0,0,0,-1,1525,799,0,0
308,225,0,0,0,0,0,0,0,0,0,-1,1532,799,0,0
315,225,0,0,0,0,0,0,0,0,0,-1,1539,799,0,0
322,225,0,0,0,0,0,0,0,0,0,-1,1546,799,0,0
329,225,0,0,0,0,0,0,0,0,0,-1,1553,799,0,0
336,225,0,0,0,0,0,0,0,0,0,-1,1560,799,0,0
343,225,0,0,0,0,0,0,0,0,0,-1,1567,799,0,0
350,225,0,0,0,0,0,0,0,0,0,-1,1574,799,0,0
357,225,0,0,0,0,0,0,0,0,0,-1,1581,799,0,0
364,225,0,0,0,0,0,0,0,0,0,-1,1588,799,0,0
371,225,0,0,0,0,0,0,0,0,0,-1,1595,799,0,0
378,225,0,0,0,0,0,0,0,0,0,-1,1602,799,0,0
385,225,0,0,0,0,0,0,0,0,0,-1,1609,799,0,0
392,225,0,0,0,0,0,0,0,0,0,-1,1616,799,0,0
399,225,0,0,0,0,0,0,0,0,0,-1,1623,799,0,0
406,225,0,0,0,0,0,0,0,0,0,-1,1630,799,0,0
413,225,0,0,0,0,0,0,0,0,0,-1,1637,799,0,0
420,225,0,0,0,0,0,0,0,0,0,-1,1644,799,0,0
427,225,0,0,0,0,0,0,0,0,0,-1,1651,799,0,0
434,225,0,0,0,0,0,0,0,0,0,-1,1658,799,0,0
441,225,0,0,0,0,0,0,0,0,0,-1,1665,799,0,0
448,225,0,0,0,0,0,0,0,0,0,-1,1672,799,0,0
455,225,0,0,0,0,0,0,0,0,0,-1,1679,799,0,0
462,225,0,0,0,0,0,0,0,0,0,-1,1686,799,0,0
469,225,0,0,0,0,0,0,0,0,0,-1,1693,799,0,0
476,225,0,0,0,0,0,0,0,0,0,-1,1700,799,0,0
483,225,0,0,0,0,0,0,0,0,0,-1,1707,799,0,0
490,225,0,0,0,0,0,0,0,0,0,-1,1714,799,0,0
497,225,0,0,0,0,0,0,0,0,0,-1,1721,799,0,0
504,225,0,0,0,0,0,0,0,0,0,-1,1728,799,0,0
511,225,0,0,0,0,0,0,0,0,0,-1,1735,799,0,0
518,225,0,0,0,0,0,0,0,0,0,-1,1742,799,0,0
525,225,0,0,0,0,0,0,0,0,0,-1,1749,799,0,0
532,225,0,0,0,0,0,0,0,0,0,-1,1756,799,0,0
539,225,0,0,0,0,0,0,0,0,0,-1,1763,799,0,0
546,225,0,0,0,0,0,0,0,0,0,-1,1770,799,0,0
553,225,0,0,0,0,0,0,0,0,0,-1,1777,799,0,0
560,225,0,0,0,0,0,0,0,0,0,-1,1784,799,0,0
567,225,0,0,0,0,0,0,0,0,0,-1,1791,799,0,0
574,225,0,0,0,0,0,0,0,0,0,-1,1798,799,0,0
581,225,0,0,0,0,0,0,0,0,0,-1,1805,799,0,0
588,225,29.4656,2.55933,0.0037009,0.00505895,1.97043e-05,0.00505924,0.00370062,1.55629,0.00302348,0.0369019,1812,799,29.4656,-2.55935
595,225,29.333,2.59814,0.00112547,0.00558609,0.00158692,0.00609304,0.000618513,1.26159,0.00387236,0.0344321,1819,799,29.333,-2.59812
602,225,29.3036,2.65405,-0.0016784,0.0055348,0.00225447,0.00618146,-0.00232505,1.29146,0.00507668,0.0315508,1826,799,29.3036,-2.65403
609,225,29.3677,2.71686,-0.00439171,0.00504797,0.00182018,0.00538678,-0.00473052,1.38676,0.00584532,0.0298167,1833,799,29.3677,-2.71685
616,225,29.3818,2.74011,-0.00653644,0.00405276,0.000922158,0.00413247,-0.00661615,1.48458,0.0062607,0.03571,1840,799,29.3818,-2.7401
623,225,29.4114,2.7243,-0.00790135,0.00288063,1.89026e-05,0.00288066,-0.00790138,1.56904,0.00644606,0.0384034,1847,799,29.4114,-2.7243
630,225,29.3887,2.78271,-0.00850034,0.00174737,-0.000809309,0.0018109,-0.00856386,-1.49247,0.00639886,0.042004,1854,799,29.3886,-2.78269
637,225,28.9608,3.20007,-0.00857795,0.000843882,-0.00154757,0.00109156,-0.00882563,-1.4121,0.00627932,0.0454796,1861,799,28.9609,-3.20007
644,225,23.8263,-0.0789795,0,0,0,0,0,0,0,-1,1868,799,23.8263,0.0790014
651,225,22.9321,0.486572,0,0,0,0,0,0,0,-1,1875,799,22.9321,-0.486544
658,225,22.0446,1.04376,-0.00746539,-0.00121074,-0.00288628,-8.23918e-05,-0.00859374,-1.19813,0.0057019,0.0411595,1882,799,22.0446,-1.04378
665,225,21.7227,1.0274,-0.00686046,-0.00171864,-0.00311391,-0.000251486,-0.00832762,-1.13048,0.00546985,0.0161293,1889,799,21.7226,-1.02741
672,225,21.6412,1.37122,-0.00567656,-0.00187915,-0.00298883,-0.000236924,-0.00731879,-1.06837,0.00480216,0.0186478,1896,799,21.6413,-1.37119
679,225,21.6345,1.71844,-0.00403618,-0.00195128,-0.00256527,-0.00022474,-0.00576271,-0.978391,0.00376913,0.0189621,1903,799,21.6345,-1.71845
686,225,21.6531,2.00708,-0.00197929,-0.00176576,-0.00232208,0.000452013,-0.00419705,-0.808371,0.00296023,0.0106982,1910,799,21.6531,-2.00707
693,225,21.646,2.328,0.000194823,-0.00155261,-0.00166019,0.00119717,-0.00255495,-0.543175,0.00221306,0.0099091,1917,799,21.6459,-2.32803
700,225,21.6263,2.65454,0.00211697,-0.00106131,-0.000648327,0.00224413,-0.00118847,-0.193681,0.00201281,0.010961,1924,799,21.6264,-2.65454
707,225,21.6084,2.98846,0.00430769,-0.000476587,0.000278768,0.00432387,-0.000492776,0.058006,0.0030601,0.0115888,1931,799,21.6084,-2.98849
714,225,21.6229,3.29712,0.00654528,-3.86568e-05,0.000902295,0.0066667,-0.000160073,0.13376,0.00449877,0.0134639,1938,799,21.6229,-3.29709
721,225,21.6458,3.59454,0.00953872,0.000157874,0.00143859,0.00975437,-5.77806e-05,0.148799,0.00652226,0.0157711,1945,799,21.6457,-3.59456
728,225,21.6122,3.80042,0.012758,0.000383804,0.00205666,0.0130909,5.09317e-05,0.16046,0.00871033,0.0276675,1952,799,21.6121,-3.80039
735,225,21.7108,4.05762,0,0,0,0,0,0,0,-1,1959,799,21.7109,-4.0576
742,225,21.4457,4.89777,0,0,0,0,0,0,0,-1,1966,799,21.4457,-4.89777
749,225,20.8344,5.46039,0,0,0,0,0,0,0,-1,1973,799,20.8344,-5.46038
756,225,21.9564,4.57703,0,0,0,0,0,0,0,-1,1980,799,21.9564,-4.57704
763,225,23.3566,4.89728,0,0,0,0,0,0,0,-1,1987,799,23.3566,-4.89728
770,225,0,0,0,0,0,0,0,0,0,-1,1994,799,0,0
777,225,0,0,0,0,0,0,0,0,0,-1,2001,799,0,0
784,225,0,0,0,0,0,0,0,0,0,-1,2008,799,0,0
791,225,0,0,0,0,0,0,0,0,0,-1,2015,799,0,0
798,225,0,0,0,0,0,0,0,0,0,-1,2022,799,0,0
805,225,0,0,0,0,0,0,0,0,0,-1,2029,799,0,0
812,225,0,0,0,0,0,0,0,0,0,-1,2036,799,0,0
-700,218,0,0,0,0,0,0,0,0,0,-1,524,806,0,0
-693,218,0,0,0,0,0,0,0,0,0,-1,531,806,0,0
-686,218,0,0,0,0,0,0,0,0,0,-1,538,806,0,0
-679,218,0,0,0,0,0,0,0,0,0,-1,545,806,0,0
-672,218,0,0,0,0,0,0,0,0,0,-1,552,806,0,0
-665,218,0,0,0,0,0,0,0,0,0,-1,559,806,0,0
-658,218,0,0,0,0,0,0,0,0,0,-1,566,806,0,0
-651,218,-16.3719,3.73816,0,0,0,0,0,0,0,-1,573,806,-16.3719,-3.73819
-644,218,-16.5038,4.39386,0,0,0,0,0,0,0,-1,580,806,-16.5038,-4.39385
-637,218,-17.1497,4.45813,0,0,0,0,0,0,0,-1,587,806,-17.1497,-4.45814
-630,218,-19.7495,-1.47906,0.0299501,0.0319278,-0.0235194,0.0544791,0.00739877,-0.806407,0.0341216,0.0465594,594,806,-19.7495,1.47909
-623,218,-19.0379,-1.2984,0.0286683,0.0324029,-0.0199936,0.0506163,0.010455,-0.83196,0.0308554,0.047805,601,806,-19.0379,1.29843
-616,218,-18.5932,-1.09332,0,0,0,0,0,0,0,-1,608,806,-18.5932,1.09335
-609,218,-14.2737,1.93622,0,0,0,0,0,0,0,-1,615,806,-14.2737,-1.93621
-602,218,-14.3648,1.70227,0.0186489,0.0233292,-0.00927932,0.0305589,0.0114192,-0.908917,0.0178299,0.0408192,622,806,-14.3648,-1.70226
-595,218,-14.4078,1.42499,0.0151571,0.019075,-0.0065443,0.0239472,0.0102848,-0.930823,0.0138717,0.0178082,629,806,-14.4078,-1.42499
-588,218,-14.3989,1.15173,0.0116935,0.0140987,-0.00467278,0.0177211,0.00807101,-0.911347,0.0102448,0.0115906,636,806,-14.3989,-1.15172
-581,218,-14.3938,0.865723,0.0082435,0.0103301,-0.00236192,0.0118689,0.00670472,-0.993371,0.00687172,0.0107856,643,806,-14.3938,-0.865753
-574,218,-14.4125,0.564392,0.00499985,0.00703025,-7.27328e-05,0.00703285,0.00499724,-1.53504,0.00417871,0.00984487,650,806,-14.4125,-0.564362
-567,218,-14.3959,0.25531,0.00248379,0.00382007,0.00144,0.00473938,0.00156448,1.00261,0.00278844,0.0161908,657,806,-14.3959,-0.255311
-560,218,-14.4173,-0.0363159,0.000369465,0.000891695,0.00168105,0.00233179,-0.00107063,0.862447,0.00200886,0.0157758,664,806,-14.4173,0.036294
-553,218,-14.403,-0.354126,-0.00123055,0.000363102,0.00193109,0.0016553,-0.00252275,0.981072,0.00242947,0.0161079,671,806,-14.403,0.354151
-546,218,-14.4346,-0.723999,-0.00255358,0.000978714,0.00185093,0.00177093,-0.0033458,1.16638,0.00300042,0.0149153,678,806,-14.4347,0.723974
-539,218,-14.438,-1.04443,-0.00387279,0.00142099,0.00226173,0.00225569,-0.00470749,1.21725,0.00410242,0.0237679,685,806,-14.4381,1.04445
-532,218,-14.4947,-1.19067,-0.00485446,0.00182095,0.00240814,0.002599,-0.00563251,1.25829,0.00485885,0.0285433,692,806,-14.4947,1.1907
-525,218,-14.6509,-1.28632,0,0,0,0,0,0,0,-1,699,806,-14.651,1.2863
-518,218,-19.8492,1.62396,0,0,0,0,0,0,0,-1,706,806,-19.8493,-1.62399
-511,218,-20.0593,1.54681,-0.00650784,0.00284748,0.00192998,0.00322999,-0.00689035,1.37514,0.00596902,0.0492455,713,806,-20.0593,-1.54683
-504,218,-20.3107,1.46704,-0.00665711,0.00307215,0.00168014,0.00335412,-0.00693908,1.40452,0.00606174,0.0470407,720,806,-20.3107,-1.46702
-497,218,-20.5648,1.07922,-0.00645013,0.00290327,0.00125392,0.00306845,-0.00661531,1.43982,0.00571456,0.0456999,727,806,-20.5648,-1.0792
-490,218,-20.8564,0.80658,-0.00530895,0.00248598,0.000601175,0.00253208,-0.00535505,1.49428,0.00464984,0.0329873,734,806,-20.8565,-0.806557
-483,218,-20.8422,0.81134,-0.00284821,0.00191658,-0.000355802,0.001943,-0.00287464,-1.49667,0.00279875,0.0313455,741,806,-20.8422,-0.811336
-476,218,-20.7976,0.787292,0.0011989,0.00149914,-0.00159874,0.00295479,-0.000256752,-0.832212,0.00206078,0.0348553,748,806,-20.7976,-0.787322
-469,218,0,0,0,0,0,0,0,0,0,-1,755,806,0,0
-462,218,0,0,0,0,0,0,0,0,0,-1,762,806,0,0
-455,218,0,0,0,0,0,0,0,0,0,-1,769,806,0,0
-448,218,0,0,0,0,0,0,0,0,0,-1,776,806,0,0
-441,218,0,0,0,0,0,0,0,0,0,-1,783,806,0,0
-434,218,0,0,0,0,0,0,0,0,0,-1,790,806,0,0
-427,218,0,0,0,0,0,0,0,0,0,-1,797,806,0,0
-420,218,0,0,0,0,0,0,0,0,0,-1,804,806,0,0
-413,218,0,0,0,0,0,0,0,0,0,-1,811,806,0,0
-406,218,0,0,0,0,0,0,0,0,0,-1,818,806,0,0
-399,218,0,0,0,0,0,0,0,0,0,-1,825,806,0,0
-392,218,0,0,0,0,0,0,0,0,0,-1,832,806,0,0
-385,218,0,0,0,0,0,0,0,0,0,-1,839,806,0,0
-378,218,0,0,0,0,0,0,0,0,0,-1,846,806,0,0
-371,218,0,0,0,0,0,0,0,0,0,-1,853,806,0,0
-364,218,0,0,0,0,0,0,0,0,0,-1,860,806,0,0
-357,218,0,0,0,0,0,0,0,0,0,-1,867,806,0,0
-350,218,0,0,0,0,0,0,0,0,0,-1,874,806,0,0
-343,218,0,0,0,0,0,0,0,0,0,-1,881,806,0,0
-336,218,0,0,0,0,0,0,0,0,0,-1,888,806,0,0
-329,218,0,0,0,0,0,0,0,0,0,-1,895,806,0,0
-322,218,0,0,0,0,0,0,0,0,0,-1,902,806,0,0
-315,218,0,0,0,0,0,0,0,0,0,-1,909,806,0,0
-308,218,0,0,0,0,0,0,0,0,0,-1,916,806,0,0
-301,218,0,0,0,0,0,0,0,0,0,-1,923,806,0,0
-294,218,0,0,0,0,0,0,0,0,0,-1,930,806,0,0
-287,218,0,0,0,0,0,0,0,0,0,-1,937,806,0,0
-280,218,0,0,0,0,0,0,0,0,0,-1,944,806,0,0
-273,218,0,0,0,0,0,0,0,0,0,-1,951,806,0,0
-266,218,0,0,0,0,0,0,0,0,0,-1,958,806,0,0
-259,218,0,0,0,0,0,0,0,0,0,-1,965,806,0,0
-252,218,0,0,0,0,0,0,0,0,0,-1,972,806,0,0
-245,218,0,0,0,0,0,0,0,0,0,-1,979,806,0,0
-238,218,0,0,0,0,0,0,0,0,0,-1,986,806,0,0
-231,218,0,0,0,0,0,0,0,0,0,-1,993,806,0,0
-224,218,0,0,0,0,0,0,0,0,0,-1,1000,806,0,0
-217,218,0,0,0,0,0,0,0,0,0,-1,1007,806,0,0
-210,218,0,0,0,0,0,0,0,0,0,-1,1014,806,0,0
-203,218,0,0,0,0,0,0,0,0,0,-1,1021,806,0,0
-196,218,0,0,0,0,0,0,0,0,0,-1,1028,806,0,0
-189,218,0,0,0,0,0,0,0,0,0,-1,1035,806,0,0
-182,218,0,0,0,0,0,0,0,0,0,-1,1042,806,0,0
-175,218,0,0,0,0,0,0,0,0,0,-1,1049,806,0,0
-168,218,0,0,0,0,0,0,0,0,0,-1,1056,806,0,0
-161,218,0,0,0,0,0,0,0,0,0,-1,1063,806,0,0
-154,218,0,0,0,0,0,0,0,0,0,-1,1070,806,0,0
-147,218,0,0,0,0,0,0,0,0,0,-1,1077,806,0,0
-140,218,0,0,0,0,0,0,0,0,0,-1,1084,806,0,0
-133,218,0,0,0,0,0,0,0,0,0,-1,1091,806,0,0
-126,218,0,0,0,0,0,0,0,0,0,-1,1098,806,0,0
-119,218,0,0,0,0,0,0,0,0,0,-1,1105,806,0,0
-112,218,0,0,0,0,0,0,0,0,0,-1,1112,806,0,0
-105,218,0,0,0,0,0,0,0,0,0,-1,1119,806,0,0
-98,218,0,0,0,0,0,0,0,0,0,-1,1126,806,0,0
-91,218,0,0,0,0,0,0,0,0,0,-1,1133,806,0,0
-84,218,0,0,0,0,0,0,0,0,0,-1,1140,806,0,0
-77,218,0,0,0,0,0,0,0,0,0,-1,1147,806,0,0
-70,218,0,0,0,0,0,0,0,0,0,-1,1154,806,0,0
-63,218,0,0,0,0,0,0,0,0,0,-1,1161,806,0,0
-56,218,0,0,0,0,0,0,0,0,0,-1,1168,806,0,0
-49,218,0,0,0,0,0,0,0,0,0,-1,1175,806,0,0
-42,218,0,0,0,0,0,0,0,0,0,-1,1182,806,0,0
-35,218,0,0,0,0,0,0,0,0,0,-1,1189,806,0,0
-28,218,0,0,0,0,0,0,0,0,0,-1,1196,806,0,0
-21,218,0,0,0,0,0,0,0,0,0,-1,1203,806,0,0
-14,218,0,0,0,0,0,0,0,0,0,-1,1210,806,0,0
-7,218,0,0,0,0,0,0,0,0,0,-1,1217,806,0,0
0,218,0,0,0,0,0,0,0,0,0,-1,1224,806,0,0
7,218,0,0,0,0,0,0,0,0,0,-1,1231,806,0,0
14,218,0,0,0,0,0,0,0,0,0,-1,1238,806,0,0
21,218,0,0,0,0,0,0,0,0,0,-1,1245,806,0,0
28,218,0,0,0,0,0,0,0,0,0,-1,1252,806,0,0
35,218,0,0,0,0,0,0,0,0,0,-1,1259,806,0,0
42,218,0,0,0,0,0,0,0,0,0,-1,1266,806,0,0
49,218,0,0,0,0,0,0,0,0,0,-1,1273,806,0,0
56,218,0,0,0,0,0,0,0,0,0,-1,1280,806,0,0
63,218,0,0,0,0,0,0,0,0,0,-1,1287,806,0,0
70,218,0,0,0,0,0,0,0,0,0,-1,1294,806,0,0
77,218,0,0,0,0,0,0,0,0,0,-1,1301,806,0,0
84,218,0,0,0,0,0,0,0,0,0,-1,1308,806,0,0
91,218,0,0,0,0,0,0,0,0,0,-1,1315,806,0,0
98,218,0,0,0,0,0,0,0,0,0,-1,1322,806,0,0
105,218,0,0,0,0,0,0,0,0,0,-1,1329,806,0,0
112,218,0,0,0,0,0,0,0,0,0,-1,1336,806,0,0
119,218,0,0,0,0,0,0,0,0,0,-1,1343,806,0,0
126,218,0,0,0,0,0,0,0,0,0,-1,1350,806,0,0
133,218,0,0,0,0,0,0,0,0,0,-1,1357,806,0,0
140,218,0,0,0,0,0,0,0,0,0,-1,1364,806,0,0
147,218,0,0,0,0,0,0,0,0,0,-1,1371,806,0,0
154,218,0,0,0,0,0,0,0,0,0,-1,1378,806,0,0
161,218,0,0,0,0,0,0,0,0,0,-1,1385,806,0,0
168,218,0,0,0,0,0,0,0,0,0,-1,1392,806,0,0
175,218,0,0,0,0,0,0,0,0,0,-1,1399,806,0,0
182,218,0,0,0,0,0,0,0,0,0,-1,1406,806,0,0
189,218,0,0,0,0,0,0,0,0,0,-1,1413,806,0,0
196,218,0,0,0,0,0,0,0,0,0,-1,1420,806,0,0
203,218,0,0,0,0,0,0,0,0,0,-1,1427,806,0,0
210,218,0,0,0,0,0,0,0,0,0,-1,1434,806,0,0
217,218,0,0,0,0,0,0,0,0,0,-1,1441,806,0,0
224,218,0,0,0,0,0,0,0,0,0,-1,1448,806,0,0
231,218,0,0,0,0,0,0,0,0,0,-1,1455,806,0,0
238,218,0,0,0,0,0,0,0,0,0,-1,1462,806,0,0
245,218,0,0,0,0,0,0,0,0,0,-1,1469,806,0,0
252,218,0,0,0,0,0,0,0,0,0,-1,1476,806,0,0
259,218,0,0,0,0,0,0,0,0,0,-1,1483,806,0,0
266,218,0,0,0,0,0,0,0,0,0,-1,1490,806,0,0
273,218,0,0,0,0,0,0,0,0,0,-1,1497,806,0,0
280,218,0,0,0,0,0,0,0,0,0,-1,1504,806,0,0
287,218,0,0,0,0,0,0,0,0,0,-1,1511,806,0,0
294,218,0,0,0,0,0,0,0,0,0,-1,1518,806,0,0
301,218,0,0,0,0,0,0,0,0,0,-1,1525,806,0,0
308,218,0,0,0,0,0,0,0,0,0,-1,1532,806,0,0
315,218,0,0,0,0,0,0,0,0,0,-1,1539,806,0,0
322,218,0,0,0,0,0,0,0,0,0,-1,1546,806,0,0
329,218,0,0,0,0,0,0,0,0,0,-1,1553,806,0,0
336,218,0,0,0,0,0,0,0,0,0,-1,1560,806,0,0
343,218,0,0,0,0,0,0,0,0,0,-1,1567,806,0,0
350,218,0,0,0,0,0,0,0,0,0,-1,1574,806,0,0
357,218,0,0,0,0,0,0,0,0,0,-1,1581,806,0,0
364,218,0,0,0,0,0,0,0,0,0,-1,1588,806,0,0
371,218,0,0,0,0,0,0,0,0,0,-1,1595,806,0,0
378,218,0,0,0,0,0,0,0,0,0,-1,1602,806,0,0
385,218,0,0,0,0,0,0,0,0,0,-1,1609,806,0,0
392,218,0,0,0,0,0,0,0,0,0,-1,1616,806,0,0
399,218,0,0,0,0,0,0,0,0,0,-1,1623,806,0,0
406,218,0,0,0,0,0,0,0,0,0,-1,1630,806,0,0
413,218,0,0,0,0,0,0,0,0,0,-1,1637,806,0,0
420,218,0,0,0,0,0,0,0,0,0,-1,1644,806,0,0
427,218,0,0,0,0,0,0,0,0,0,-1,1651,806,0,0
434,218,0,0,0,0,0,0,0,0,0,-1,1658,806,0,0
441,218,0,0,0,0,0,0,0,0,0,-1,1665,806,0,0
448,218,0,0,0,0,0,0,0,0,0,-1,1672,806,0,0
455,218,0,0,0,0,0,0,0,0,0,-1,1679,806,0,0
462,218,0,0,0,0,0,0,0,0,0,-1,1686,806,0,0
469,218,0,0,0,0,0,0,0,0,0,-1,1693,806,0,0
476,218,0,0,0,0,0,0,0,0,0,-1,1700,806,0,0
483,218,0,0,0,0,0,0,0,0,0,-1,1707,806,0,0
490,218,0,0,0,0,0,0,0,0,0,-1,1714,806,0,0
497,218,0,0,0,0,0,0,0,0,0,-1,1721,806,0,0
504,218,0,0,0,0,0,0,0,0,0,-1,1728,806,0,0
511,218,0,0,0,0,0,0,0,0,0,-1,1735,806,0,0
518,218,0,0,0,0,0,0,0,0,0,-1,1742,806,0,0
525,218,0,0,0,0,0,0,0,0,0,-1,1749,806,0,0
532,218,0,0,0,0,0,0,0,0,0,-1,1756,806,0,0
539,218,0,0,0,0,0,0,0,0,0,-1,1763,806,0,0
546,218,0,0,0,0,0,0,0,0,0,-1,1770,806,0,0
553,218,0,0,0,0,0,0,0,0,0,-1,1777,806,0,0
560,218,0,0,0,0,0,0,0,0,0,-1,1784,806,0,0
567,218,0,0,0,0,0,0,0,0,0,-1,1791,806,0,0
574,218,0,0,0,0,0,0,0,0,0,-1,1798,806,0,0
581,218,0,0,0,0,0,0,0,0,0,-1,1805,806,0,0
588,218,0,0,0,0,0,0,0,0,0,-1,1812,806,0,0
595,218,29.2993,2.66357,0.00419659,0.0031931,0.000773846,0.00461711,0.00277257,0.497782,0.00268358,0.0358825,1819,806,29.2994,-2.66356
602,218,29.3384,2.63379,0.00125191,0.00356404,0.00176736,0.00451985,0.000296098,1.07503,0.00291955,0.0314044,1826,806,29.3384,-2.63377
609,218,29.3762,2.70435,-0.00197673,0.00358255,0.00145114,0.00393854,-0.00233272,1.33023,0.00366007,0.0281742,1833,806,29.3762,-2.70437
616,218,29.3949,2.74609,-0.00468985,0.00292424,0.000598867,0.00297105,-0.00473666,1.49278,0.0044888,0.0308801,1840,806,29.3949,-2.74607
623,218,29.4053,2.67236,-0.00659106,0.00198443,-0.000358254,0.00199937,-0.006606,-1.52912,0.0052002,0.0376735,1847,806,29.4053,-2.67234
630,218,29.3893,2.76782,-0.00757696,0.00101928,-0.00123157,0.00119225,-0.00774993,-1.43127,0.00560645,0.0408516,1854,806,29.3893,-2.76783
637,218,29.1521,3.12408,-0.00790641,0.000224393,-0.0019386,0.000662951,-0.00834497,-1.34832,0.00579695,0.0448174,1861,806,29.1521,-3.12406
644,218,29.1776,3.03162,0,0,0,0,0,0,0,-1,1868,806,29.1776,-3.03163
651,218,23.368,0.924805,0,0,0,0,0,0,0,-1,1875,806,23.3681,-0.924817
658,218,22.5667,1.35406,0,0,0,0,0,0,0,-1,1882,806,22.5666,-1.35408
665,218,22.1616,1.12451,-0.00663501,-0.00191152,-0.0032162,-0.000283056,-0.00826348,-1.1021,0.0054171,0.0378628,1889,806,22.1616,-1.12449
672,218,22.0271,1.37646,-0.00566272,-0.00200373,-0.00310516,-0.000229188,-0.00743726,-1.05161,0.00488357,0.0134267,1896,806,22.0271,-1.37647
679,218,21.9984,1.70105,-0.00429033,-0.00203196,-0.00273915,-0.000198377,-0.00612392,-0.980904,0.00401812,0.0112304,1903,806,21.9984,-1.70108
686,218,21.9955,2.01624,-0.00251362,-0.00186685,-0.00254394,0.00037418,-0.00475465,-0.84862,0.00330157,0.0104751,1910,806,21.9955,-2.01622
693,218,21.9924,2.34259,-0.000578188,-0.0016946,-0.00195483,0.000896574,-0.00316936,-0.646323,0.00246669,0.0107159,1917,806,21.9925,-2.34261
700,218,21.9685,2.65674,0.00109345,-0.00117865,-0.00099195,0.00146557,-0.00155077,-0.358892,0.00174172,0.00898285,1924,806,21.9685,-2.65675
707,218,21.9409,2.97711,0.00300869,-0.000494441,-6.8641e-05,0.00301004,-0.000495785,-0.0195842,0.00219073,0.0075317,1931,806,21.9409,-2.97712
714,218,21.9537,3.30499,0.00488091,8.13272e-05,0.000439645,0.00492085,4.13877e-05,0.090596,0.00326686,0.0101329,1938,806,21.9537,-3.30499
721,218,21.9797,3.61768,0.00754853,0.000391777,0.000822557,0.00764185,0.000298453,0.112972,0.00499805,0.0125626,1945,806,21.9797,-3.61765
728,218,21.9878,3.92883,0.0102568,0.000737368,0.00121149,0.0104085,0.000585606,0.124619,0.0067523,0.0184552,1952,806,21.9878,-3.92883
735,218,22.144,4.29346,0.0135766,0.00100819,0.00150656,0.0137547,0.000830124,0.117649,0.00890598,0.0337141,1959,806,22.1441,-4.29346
742,218,22.3483,4.67194,0,0,0,0,0,0,0,-1,1966,806,22.3483,-4.67195
749,218,22.7003,4.69598,0,0,0,0,0,0,0,-1,1973,806,22.7004,-4.69601
756,218,22.9272,4.71753,0,0,0,0,0,0,0,-1,1980,806,22.9272,-4.71754
763,218,23.1135,4.65381,0,0,0,0,0,0,0,-1,1987,806,23.1135,-4.65383
770,218,0,0,0,0,0,0,0,0,0,-1,1994,806,0,0
777,218,0,0,0,0,0,0,0,0,0,-1,2001,806,0,0
784,218,0,0,0,0,0,0,0,0,0,-1,2008,806,0,0
791,218,0,0,0,0,0,0,0,0,0,-1,2015,806,0,0
798,218,0,0,0,0,0,0,0,0,0,-1,2022,806,0,0
805,218,0,0,0,0,0,0,0,0,0,-1,2029,806,0,0
812,218,0,0,0,0,0,0,0,0,0,-1,2036,806,0,0
-700,211,0,0,0,0,0,0,0,0,0,-1,524,813,0,0
-693,211,0,0,0,0,0,0,0,0,0,-1,531,813,0,0
-686,211,0,0,0,0,0,0,0,0,0,-1,538,813,0,0
-679,211,0,0,0,0,0,0,0,0,0,-1,545,813,0,0
-672,211,0,0,0,0,0,0,0,0,0,-1,552,813,0,0
-665,211,0,0,0,0,0,0,0,0,0,-1,559,813,0,0
-658,211,0,0,0,0,0,0,0,0,0,-1,566,813,0,0
-651,211,-15.7098,4.1615,0.00936636,0.00449304,-0.0234412,0.0304972,-0.0166378,-0.73361,0.0276027,0.0443567,573,813,-15.7099,-4.16149
-644,211,-15.9359,4.60052,0.0185874,0.0124246,-0.0285848,0.0442564,-0.0132444,-0.731706,0.0347703,0.0433721,580,813,-15.9359,-4.60054
-637,211,-16.5111,4.50281,0.0228579,0.0174593,-0.028682,0.0489673,-0.00865014,-0.73848,0.0358775,0.0440295,587,813,-16.5111,-4.50283
-630,211,-16.0509,3.53442,0.0240446,0.0201069,-0.0261877,0.0483374,-0.00418587,-0.747878,0.033707,0.0466096,594,813,-16.0509,-3.53445
-623,211,-19.5614,-1.89441,0.0231451,0.0208642,-0.0225367,0.0445701,-0.000560857,-0.760118,0.0299021,0.0449109,601,813,-19.5614,1.89439
-616,211,-14.5313,2.2746,0,0,0,0,0,0,0,-1,608,813,-14.5312,-2.27462
-609,211,-14.5864,1.98297,0.0181919,0.0183192,-0.0144274,0.0326831,0.00382797,-0.787604,0.0206315,0.0388588,615,813,-14.5864,-1.983
-602,211,-14.6459,1.70496,0.0150342,0.0157303,-0.0107164,0.0261044,0.00466021,-0.801632,0.0160763,0.020711,622,813,-14.6459,-1.70495
-595,211,-14.7024,1.44818,0.0121706,0.0129769,-0.00760008,0.0201845,0.00496301,-0.811897,0.0121449,0.0106939,629,813,-14.7024,-1.44816
-588,211,-14.7001,1.17474,0.00924452,0.00930203,-0.0055349,0.0148083,0.0037383,-0.787996,0.00889198,0.010516,636,813,-14.7001,-1.17476
-581,211,-14.7079,0.867798,0.00641897,0.00663397,-0.00294671,0.00947514,0.0035778,-0.80363,0.00552485,0.0113513,643,813,-14.7079,-0.867801
-574,211,-14.7334,0.528015,0.00380501,0.00468669,-0.000338813,0.00480185,0.00368985,-1.24316,0.00290246,0.0126486,650,813,-14.7334,-0.527985
-567,211,-14.7659,0.260681,0.00187736,0.00264486,0.00129519,0.00361196,0.00091026,0.929423,0.00216918,0.0185813,657,813,-14.7659,-0.260695
-560,211,-14.7449,0.00915527,0.000282856,0.000950431,0.00161301,0.00226382,-0.00103054,0.887426,0.00194592,0.0183341,664,813,-14.7449,-0.0091429
-553,211,-14.7161,-0.296631,-0.00102993,0.000906043,0.00177607,0.00196078,-0.00208466,1.0349,0.002336,0.0191429,671,813,-14.7161,0.296656
-546,211,-14.838,-0.547485,-0.00219375,0.00174097,0.0016171,0.00232028,-0.00277306,1.2268,0.00294451,0.0295339,678,813,-14.8379,0.547472
-539,211,-14.7615,-0.911011,-0.00332889,0.00234696,0.00188798,0.0029176,-0.00389952,1.27728,0.00394945,0.0221258,685,813,-14.7615,0.911008
-532,211,-14.7637,-1.04034,0,0,0,0,0,0,0,-1,692,813,-14.7637,1.04034
-525,211,-14.3009,2.3233,0,0,0,0,0,0,0,-1,699,813,-14.3009,-2.3233
-518,211,-20.4717,0.985474,0,0,0,0,0,0,0,-1,706,813,-20.4717,-0.985472
-511,211,-20.4285,1.10028,-0.00589955,0.00422374,0.00117317,0.00435792,-0.00603373,1.45692,0.00602557,0.0465354,713,813,-20.4285,-1.10025
-504,211,-20.4662,1.29309,-0.00609009,0.00449877,0.00078488,0.00455663,-0.00614796,1.49721,0.00620302,0.0489309,720,813,-20.4662,-1.29306
-497,211,-20.6273,1.02191,-0.00588596,0.00436214,0.000173796,0.00436509,-0.00588891,1.55384,0.0059419,0.0465537,727,813,-20.6273,-1.02192
-490,211,-20.8818,0.786194,-0.00454277,0.00387176,-0.000757273,0.00393937,-0.00461038,-1.48175,0.00494126,0.0335323,734,813,-20.8818,-0.786182
-483,211,-20.8391,0.829102,-0.00157721,0.00315107,-0.00205054,0.00391645,-0.00234259,-1.21356,0.00365154,0.0316452,741,813,-20.8391,-0.829095
-476,211,-20.7861,0.824829,0.00322319,0.00254733,-0.00335468,0.00625691,-0.000486391,-0.735201,0.0043425,0.0371333,748,813,-20.7861,-0.824841
-469,211,0,0,0,0,0,0,0,0,0,-1,755,813,0,0
-462,211,0,0,0,0,0,0,0,0,0,-1,762,813,0,0
-455,211,0,0,0,0,0,0,0,0,0,-1,769,813,0,0
-448,211,0,0,0,0,0,0,0,0,0,-1,776,813,0,0
-441,211,0,0,0,0,0,0,0,0,0,-1,783,813,0,0
-434,211,0,0,0,0,0,0,0,0,0,-1,790,813,0,0
-427,211,0,0,0,0,0,0,0,0,0,-1,797,813,0,0
-420,211,0,0,0,0,0,0,0,0,0,-1,804,813,0,0
-413,211,0,0,0,0,0,0,0,0,0,-1,811,813,0,0
-406,211,0,0,0,0,0,0,0,0,0,-1,818,813,0,0
-399,211,0,0,0,0,0,0,0,0,0,-1,825,813,0,0
-392,211,0,0,0,0,0,0,0,0,0,-1,832,813,0,0
-385,211,0,0,0,0,0,0,0,0,0,-1,839,813,0,0
-378,211,0,0,0,0,0,0,0,0,0,-1,846,813,0,0
-371,211,0,0,0,0,0,0,0,0,0,-1,853,813,0,0
-364,211,0,0,0,0,0,0,0,0,0,-1,860,813,0,0
-357,211,0,0,0,0,0,0,0,0,0,-1,867,813,0,0
-350,211,0,0,0,0,0,0,0,0,0,-1,874,813,0,0
-343,211,0,0,0,0,0,0,0,0,0,-1,881,813,0,0
-336,211,0,0,0,0,0,0,0,0,0,-1,888,813,0,0
-329,211,0,0,0,0,0,0,0,0,0,-1,895,813,0,0
-322,211,0,0,0,0,0,0,0,0,0,-1,902,813,0,0
-315,211,0,0,0,0,0,0,0,0,0,-1,909,813,0,0
-308,211,0,0,0,0,0,0,0,0,0,-1,916,813,0,0
-301,211,0,0,0,0,0,0,0,0,0,-1,923,813,0,0
-294,211,0,0,0,0,0,0,0,0,0,-1,930,813,0,0
-287,211,0,0,0,0,0,0,0,0,0,-1,937,813,0,0
-280,211,0,0,0,0,0,0,0,0,0,-1,944,813,0,0
-273,211,0,0,0,0,0,0,0,0,0,-1,951,813,0,0
-266,211,0,0,0,0,0,0,0,0,0,-1,958,813,0,0
-259,211,0,0,0,0,0,0,0,0,0,-1,965,813,0,0
-252,211,0,0,0,0,0,0,0,0,0,-1,972,813,0,0
-245,211,0,0,0,0,0,0,0,0,0,-1,979,813,0,0
-238,211,0,0,0,0,0,0,0,0,0,-1,986,813,0,0
-231,211,0,0,0,0,0,0,0,0,0,-1,993,813,0,0
-224,211,0,0,0,0,0,0,0,0,0,-1,1000,813,0,0
-217,211,0,0,0,0,0,0,0,0,0,-1,1007,813,0,0
-210,211,0,0,0,0,0,0,0,0,0,-1,1014,813,0,0
-203,211,0,0,0,0,0,0,0,0,0,-1,1021,813,0,0
-196,211,0,0,0,0,0,0,0,0,0,-1,1028,813,0,0
-189,211,0,0,0,0,0,0,0,0,0,-1,1035,813,0,0
-182,211,0,0,0,0,0,0,0,0,0,-1,1042,813,0,0
-175,211,0,0,0,0,0,0,0,0,0,-1,1049,813,0,0
-168,211,0,0,0,0,0,0,0,0,0,-1,1056,813,0,0
-161,211,0,0,0,0,0,0,0,0,0,-1,1063,813,0,0
-154,211,0,0,0,0,0,0,0,0,0,-1,1070,813,0,0
-147,211,0,0,0,0,0,0,0,0,0,-1,1077,813,0,0
-140,211,0,0,0,0,0,0,0,0,0,-1,1084,813,0,0
-133,211,0,0,0,0,0,0,0,0,0,-1,1091,813,0,0
-126,211,0,0,0,0,0,0,0,0,0,-1,1098,813,0,0
-119,211,0,0,0,0,0,0,0,0,0,-1,1105,813,0,0
-112,211,0,0,0,0,0,0,0,0,0,-1,1112,813,0,0
-105,211,0,0,0,0,0,0,0,0,0,-1,1119,813,0,0
-98,211,0,0,0,0,0,0,0,0,0,-1,1126,813,0,0
-91,211,0,0,0,0,0,0,0,0,0,-1,1133,813,0,0
-84,211,0,0,0,0,0,0,0,0,0,-1,1140,813,0,0
-77,211,0,0,0,0,0,0,0,0,0,-1,1147,813,0,0
-70,211,0,0,0,0,0,0,0,0,0,-1,1154,813,0,0
-63,211,0,0,0,0,0,0,0,0,0,-1,1161,813,0,0
-56,211,0,0,0,0,0,0,0,0,0,-1,1168,813,0,0
-49,211,0,0,0,0,0,0,0,0,0,-1,1175,813,0,0
-42,211,0,0,0,0,0,0,0,0,0,-1,1182,813,0,0
-35,211,0,0,0,0,0,0,0,0,0,-1,1189,813,0,0
-28,211,0,0,0,0,0,0,0,0,0,-1,1196,813,0,0
-21,211,0,0,0,0,0,0,0,0,0,-1,1203,813,0,0
-14,211,0,0,0,0,0,0,0,0,0,-1,1210,813,0,0
-7,211,0,0,0,0,0,0,0,0,0,-1,1217,813,0,0
0,211,0,0,0,0,0,0,0,0,0,-1,1224,813,0,0
7,211,0,0,0,0,0,0,0,0,0,-1,1231,813,0,0
14,211,0,0,0,0,0,0,0,0,0,-1,1238,813,0,0
21,211,0,0,0,0,0,0,0,0,0,-1,1245,813,0,0
28,211,0,0,0,0,0,0,0,0,0,-1,1252,813,0,0
35,211,0,0,0,0,0,0,0,0,0,-1,1259,813,0,0
42,211,0,0,0,0,0,0,0,0,0,-1,1266,813,0,0
49,211,0,0,0,0,0,0,0,0,0,-1,1273,813,0,0
56,211,0,0,0,0,0,0,0,0,0,-1,1280,813,0,0
63,211,0,0,0,0,0,0,0,0,0,-1,1287,813,0,0
70,211,0,0,0,0,0,0,0,0,0,-1,1294,813,0,0
77,211,0,0,0,0,0,0,0,0,0,-1,1301,813,0,0
84,211,0,0,0,0,0,0,0,0,0,-1,1308,813,0,0
91,211,0,0,0,0,0,0,0,0,0,-1,1315,813,0,0
98,211,0,0,0,0,0,0,0,0,0,-1,1322,813,0,0
105,211,0,0,0,0,0,0,0,0,0,-1,1329,813,0,0
112,211,0,0,0,0,0,0,0,0,0,-1,1336,813,0,0
119,211,0,0,0,0,0,0,0,0,0,-1,1343,813,0,0
126,211,0,0,0,0,0,0,0,0,0,-1,1350,813,0,0
133,211,0,0,0,0,0,0,0,0,0,-1,1357,813,0,0
140,211,0,0,0,0,0,0,0,0,0,-1,1364,813,0,0
147,211,0,0,0,0,0,0,0,0,0,-1,1371,813,0,0
154,211,0,0,0,0,0,0,0,0,0,-1,1378,813,0,0
161,211,0,0,0,0,0,0,0,0,0,-1,1385,813,0,0
168,211,0,0,0,0,0,0,0,0,0,-1,1392,813,0,0
175,211,0,0,0,0,0,0,0,0,0,-1,1399,813,0,0
182,211,0,0,0,0,0,0,0,0,0,-1,1406,813,0,0
189,211,0,0,0,0,0,0,0,0,0,-1,1413,813,0,0
196,211,0,0,0,0,0,0,0,0,0,-1,1420,813,0,0
203,211,0,0,0,0,0,0,0,0,0,-1,1427,813,0,0
210,211,0,0,0,0,0,0,0,0,0,-1,1434,813,0,0
217,211,0,0,0,0,0,0,0,0,0,-1,1441,813,0,0
224,211,0,0,0,0,0,0,0,0,0,-1,1448,813,0,0
231,211,0,0,0,0,0,0,0,0,0,-1,1455,813,0,0
238,211,0,0,0,0,0,0,0,0,0,-1,1462,813,0,0
245,211,0,0,0,0,0,0,0,0,0,-1,1469,813,0,0
252,211,0,0,0,0,0,0,0,0,0,-1,1476,813,0,0
259,211,0,0,0,0,0,0,0,0,0,-1,1483,813,0,0
266,211,0,0,0,0,0,0,0,0,0,-1,1490,813,0,0
273,211,0,0,0,0,0,0,0,0,0,-1,1497,813,0,0
280,211,0,0,0,0,0,0,0,0,0,-1,1504,813,0,0
287,211,0,0,0,0,0,0,0,0,0,-1,1511,813,0,0
294,211,0,0,0,0,0,0,0,0,0,-1,1518,813,0,0
301,211,0,0,0,0,0,0,0,0,0,-1,1525,813,0,0
308,211,0,0,0,0,0,0,0,0,0,-1,1532,813,0,0
315,211,0,0,0,0,0,0,0,0,0,-1,1539,813,0,0
322,211,0,0,0,0,0,0,0,0,0,-1,1546,813,0,0
329,211,0,0,0,0,0,0,0,0,0,-1,1553,813,0,0
336,211,0,0,0,0,0,0,0,0,0,-1,1560,813,0,0
343,211,0,0,0,0,0,0,0,0,0,-1,1567,813,0,0
350,211,0,0,0,0,0,0,0,0,0,-1,1574,813,0,0
357,211,0,0,0,0,0,0,0,0,0,-1,1581,813,0,0
364,211,0,0,0,0,0,0,0,0,0,-1,1588,813,0,0
371,211,0,0,0,0,0,0,0,0,0,-1,1595,813,0,0
378,211,0,0,0,0,0,0,0,0,0,-1,1602,813,0,0
385,211,0,0,0,0,0,0,0,0,0,-1,1609,813,0,0
392,211,0,0,0,0,0,0,0,0,0,-1,1616,813,0,0
399,211,0,0,0,0,0,0,0,0,0,-1,1623,813,0,0
406,211,0,0,0,0,0,0,0,0,0,-1,1630,813,0,0
413,211,0,0,0,0,0,0,0,0,0,-1,1637,813,0,0
420,211,0,0,0,0,0,0,0,0,0,-1,1644,813,0,0
427,211,0,0,0,0,0,0,0,0,0,-1,1651,813,0,0
434,211,0,0,0,0,0,0,0,0,0,-1,1658,813,0,0
441,211,0,0,0,0,0,0,0,0,0,-1,1665,813,0,0
448,211,0,0,0,0,0,0,0,0,0,-1,1672,813,0,0
455,211,0,0,0,0,0,0,0,0,0,-1,1679,813,0,0
462,211,0,0,0,0,0,0,0,0,0,-1,1686,813,0,0
469,211,0,0,0,0,0,0,0,0,0,-1,1693,813,0,0
476,211,0,0,0,0,0,0,0,0,0,-1,1700,813,0,0
483,211,0,0,0,0,0,0,0,0,0,-1,1707,813,0,0
490,211,0,0,0,0,0,0,0,0,0,-1,1714,813,0,0
497,211,0,0,0,0,0,0,0,0,0,-1,1721,813,0,0
504,211,0,0,0,0,0,0,0,0,0,-1,1728,813,0,0
511,211,0,0,0,0,0,0,0,0,0,-1,1735,813,0,0
518,211,0,0,0,0,0,0,0,0,0,-1,1742,813,0,0
525,211,0,0,0,0,0,0,0,0,0,-1,1749,813,0,0
532,211,0,0,0,0,0,0,0,0,0,-1,1756,813,0,0
539,211,0,0,0,0,0,0,0,0,0,-1,1763,813,0,0
546,211,0,0,0,0,0,0,0,0,0,-1,1770,813,0,0
553,211,0,0,0,0,0,0,0,0,0,-1,1777,813,0,0
560,211,0,0,0,0,0,0,0,0,0,-1,1784,813,0,0
567,211,0,0,0,0,0,0,0,0,0,-1,1791,813,0,0
574,211,0,0,0,0,0,0,0,0,0,-1,1798,813,0,0
581,211,0,0,0,0,0,0,0,0,0,-1,1805,813,0,0
588,211,0,0,0,0,0,0,0,0,0,-1,1812,813,0,0
595,211,29.3661,2.60052,0.00721848,0.00183722,-0.000256418,0.00723067,0.00182502,-0.0475066,0.00434189,0.0355048,1819,813,29.366,-2.60052
602,211,29.3076,2.66919,0.00417891,0.00243325,0.00106652,0.00468423,0.00192793,0.44247,0.0027185,0.0344069,1826,813,29.3076,-2.66922
609,211,29.3373,2.76959,0.000511434,0.00276991,0.00084774,0.00305271,0.000228638,1.24882,0.00196337,0.0357182,1833,813,29.3373,-2.76962
616,211,29.3816,2.71759,-0.00269774,0.00236129,7.71565e-05,0.00236247,-0.00269892,1.55555,0.00292435,0.0300436,1840,813,29.3815,-2.71757
623,211,29.3948,2.6626,-0.00511232,0.00162779,-0.000886128,0.00174235,-0.00522688,-1.44224,0.00418797,0.0321989,1847,813,29.3947,-2.66259
630,211,29.4348,2.6377,-0.00649458,0.000789209,-0.00175649,0.00119066,-0.00689603,-1.3461,0.00504133,0.0379469,1854,813,29.4348,-2.63771
637,211,29.3174,2.80927,-0.0071038,6.9548e-05,-0.00240884,0.000803376,-0.00783763,-1.27509,0.00551243,0.0416867,1861,813,29.3174,-2.8093
644,211,29.2749,2.61481,-0.00719181,-0.00058645,-0.00282823,0.000459042,-0.0082373,-1.21671,0.00565077,0.0408844,1868,813,29.2749,-2.61484
651,211,28.4922,2.13562,-0.00695755,-0.00111076,-0.00307612,0.000209523,-0.00827783,-1.16537,0.0055897,0.044706,1875,813,28.4922,-2.13563
658,211,27.7909,1.52234,0,0,0,0,0,0,0,-1,1882,813,27.7909,-1.52234
665,211,22.6279,1.21765,0,0,0,0,0,0,0,-1,1889,813,22.6279,-1.21764
672,211,22.2764,1.45093,-0.00551979,-0.00193962,-0.00316852,-9.04887e-05,-0.00736892,-1.04253,0.00488273,0.0227195,1896,813,22.2763,-1.45093
679,211,22.3064,1.69586,-0.00441285,-0.00200368,-0.00283303,-0.000129781,-0.00628674,-0.986415,0.00414858,0.0128807,1903,813,22.3064,-1.69583
686,211,22.3007,2.02826,-0.00288287,-0.00189813,-0.0026621,0.00031675,-0.00509775,-0.876843,0.00350885,0.0107182,1910,813,22.3007,-2.02824
693,211,22.2917,2.33508,-0.00120336,-0.0018087,-0.00215367,0.000668798,-0.00368086,-0.715587,0.00270455,0.0109385,1917,813,22.2917,-2.33506
700,211,22.2283,2.62793,0.000213556,-0.00134258,-0.00127493,0.000929087,-0.00205811,-0.511426,0.00176524,0.0126773,1924,813,22.2282,-2.62791
707,211,22.2493,2.98242,0.0018572,-0.000646329,-0.000389502,0.0019164,-0.000705528,-0.150833,0.00156666,0.0188011,1931,813,22.2492,-2.98245
714,211,22.2883,3.3476,0.00339573,-8.02889e-06,-7.23797e-06,0.00339574,-8.0443e-06,-0.00212645,0.00226652,0.0210877,1938,813,22.2883,-3.34759
721,211,22.3107,3.62799,0.00578869,0.000353688,0.000237004,0.005799,0.000343372,0.0434969,0.00375678,0.0157915,1945,813,22.3107,-3.62799
728,211,22.3181,3.92017,0.00810573,0.000747773,0.000446495,0.00813272,0.000720778,0.0603866,0.00519824,0.0141321,1952,813,22.3181,-3.92019
735,211,22.3568,4.20898,0.0109094,0.00104071,0.000516381,0.0109363,0.00101377,0.0521355,0.00697755,0.0235662,1959,813,22.3569,-4.20896
742,211,22.5778,4.47113,0.0145189,0.00125232,0.00038364,0.01453,0.00124124,0.0288856,0.00930055,0.0436993,1966,813,22.5778,-4.47113
749,211,22.7717,4.51923,0,0,0,0,0,0,0,-1,1973,813,22.7717,-4.51924
756,211,22.9148,4.47479,0.025641,0.000992567,-0.00124784,0.025704,0.000929557,-0.0504537,0.0168347,0.0466343,1980,813,22.9147,-4.47478
763,211,23.1356,4.32349,0,0,0,0,0,0,0,-1,1987,813,23.1357,-4.32348
770,211,23.2253,4.41656,0,0,0,0,0,0,0,-1,1994,813,23.2254,-4.41654
777,211,0,0,0,0,0,0,0,0,0,-1,2001,813,0,0
784,211,0,0,0,0,0,0,0,0,0,-1,2008,813,0,0
791,211,0,0,0,0,0,0,0,0,0,-1,2015,813,0,0
798,211,0,0,0,0,0,0,0,0,0,-1,2022,813,0,0
805,211,0,0,0,0,0,0,0,0,0,-1,2029,813,0,0
812,211,0,0,0,0,0,0,0,0,0,-1,2036,813,0,0
-700,204,0,0,0,0,0,0,0,0,0,-1,524,820,0,0
-693,204,0,0,0,0,0,0,0,0,0,-1,531,820,0,0
-686,204,0,0,0,0,0,0,0,0,0,-1,538,820,0,0
-679,204,0,0,0,0,0,0,0,0,0,-1,545,820,0,0
-672,204,0,0,0,0,0,0,0,0,0,-1,552,820,0,0
-665,204,0,0,0,0,0,0,0,0,0,-1,559,820,0,0
-658,204,0,0,0,0,0,0,0,0,0,-1,566,820,0,0
-651,204,-14.979,4.35193,0.00580011,0.00836211,-0.0173573,0.0244856,-0.0103234,-0.822232,0.0206439,0.0458672,573,820,-14.979,-4.35195
-644,204,-15.2588,4.91296,0.0129764,0.01001,-0.0251663,0.0367032,-0.0137167,-0.755964,0.0301014,0.0453111,580,820,-15.2588,-4.91298
-637,204,-15.8108,4.51459,0.0165272,0.0115408,-0.0269796,0.0411286,-0.0130606,-0.739324,0.0326551,0.0471467,587,820,-15.8108,-4.51457
-630,204,-15.7969,3.66473,0.0177108,0.0124887,-0.0255459,0.0407787,-0.0105793,-0.73447,0.0313138,0.0430054,594,820,-15.7969,-3.66473
-623,204,-16.1462,3.09497,0.0172387,0.0127589,-0.0224855,0.0375956,-0.00759804,-0.735754,0.0279429,0.0408602,601,820,-16.1462,-3.09496
-616,204,-15.0774,2.4386,0.0157692,0.0123315,-0.0187031,0.0328323,-0.00473162,-0.739576,0.0236239,0.0479465,608,820,-15.0774,-2.4386
-609,204,-14.95,2.03943,0.0136919,0.0112965,-0.0147783,0.027321,-0.00233261,-0.744964,0.0190392,0.0335015,615,820,-14.95,-2.03941
-602,204,-14.9663,1.70819,0.0113329,0.00976379,-0.0110581,0.0216343,-0.000537588,-0.749983,0.0146054,0.0150657,622,820,-14.9663,-1.70817
-595,204,-14.9986,1.427,0.0091405,0.00808632,-0.00784892,0.01648,0.000746806,-0.751871,0.0107464,0.0145074,629,820,-14.9986,-1.42701
-588,204,-15.001,1.14795,0.00680828,0.00542537,-0.00581482,0.0119726,0.000261034,-0.72622,0.00789617,0.0110809,636,820,-15.001,-1.14792
-581,204,-14.9964,0.848328,0.00468048,0.0036042,-0.00318227,0.00736979,0.000914892,-0.701638,0.0046384,0.0114391,643,820,-14.9964,-0.848323
-574,204,-15.0144,0.524963,0.00279419,0.00273808,-0.000512875,0.00327978,0.00225249,-0.758075,0.00193712,0.013103,650,820,-15.0144,-0.524963
-567,204,-15.0221,0.246277,0.00149363,0.0016356,0.00109785,0.00266475,0.000464468,0.817682,0.0016437,0.0126243,657,820,-15.0221,-0.246247
-560,204,-15.05,-0.027832,0.000393561,0.000745775,0.00140215,0.00198283,-0.000843498,0.84787,0.0016754,0.0110396,664,820,-15.0501,0.027835
-553,204,-15.0282,-0.277405,-0.000622007,0.000912979,0.00145361,0.00178927,-0.0014983,1.02829,0.00190056,0.0126259,671,820,-15.0282,0.277409
-546,204,-15.0462,-0.522278,-0.00158219,0.00184687,0.00126784,0.00226471,-0.00200003,1.25243,0.00246383,0.0209031,678,820,-15.0462,0.522253
-539,204,-15.0043,-0.86969,-0.00250664,0.00251718,0.00142438,0.00289292,-0.00288238,1.31288,0.00333437,0.0371822,685,820,-15.0043,0.869689
-532,204,-14.8641,-1.31586,0,0,0,0,0,0,0,-1,692,820,-14.8641,1.31589
-525,204,-21.2123,0.390991,0,0,0,0,0,0,0,-1,699,820,-21.2123,-0.390984
-518,204,-21.1431,0.478027,0,0,0,0,0,0,0,-1,706,820,-21.1431,-0.478045
-511,204,-20.742,0.930542,0,0,0,0,0,0,0,-1,713,820,-20.742,-0.93056
-504,204,-20.4971,1.17725,0,0,0,0,0,0,0,-1,720,820,-20.497,-1.17725
-497,204,-20.6951,0.97699,0,0,0,0,0,0,0,-1,727,820,-20.695,-0.977015
-490,204,-20.9977,0.654053,0,0,0,0,0,0,0,-1,734,820,-20.9977,-0.654048
-483,204,-20.8441,0.880066,0,0,0,0,0,0,0,-1,741,820,-20.8441,-0.88009
-476,204,0,0,0,0,0,0,0,0,0,-1,748,820,0,0
-469,204,0,0,0,0,0,0,0,0,0,-1,755,820,0,0
-462,204,0,0,0,0,0,0,0,0,0,-1,762,820,0,0
-455,204,0,0,0,0,0,0,0,0,0,-1,769,820,0,0
-448,204,0,0,0,0,0,0,0,0,0,-1,776,820,0,0
-441,204,0,0,0,0,0,0,0,0,0,-1,783,820,0,0
-434,204,0,0,0,0,0,0,0,0,0,-1,790,820,0,0
-427,204,0,0,0,0,0,0,0,0,0,-1,797,820,0,0
-420,204,0,0,0,0,0,0,0,0,0,-1,804,820,0,0
-413,204,0,0,0,0,0,0,0,0,0,-1,811,820,0,0
-406,204,0,0,0,0,0,0,0,0,0,-1,818,820,0,0
-399,204,0,0,0,0,0,0,0,0,0,-1,825,820,0,0
-392,204,0,0,0,0,0,0,0,0,0,-1,832,820,0,0
-385,204,0,0,0,0,0,0,0,0,0,-1,839,820,0,0
-378,204,0,0,0,0,0,0,0,0,0,-1,846,820,0,0
-371,204,0,0,0,0,0,0,0,0,0,-1,853,820,0,0
-364,204,0,0,0,0,0,0,0,0,0,-1,860,820,0,0
-357,204,0,0,0,0,0,0,0,0,0,-1,867,820,0,0
-350,204,0,0,0,0,0,0,0,0,0,-1,874,820,0,0
-343,204,0,0,0,0,0,0,0,0,0,-1,881,820,0,0
-336,204,0,0,0,0,0,0,0,0,0,-1,888,820,0,0
-329,204,0,0,0,0,0,0,0,0,0,-1,895,820,0,0
-322,204,0,0,0,0,0,0,0,0,0,-1,902,820,0,0
-315,204,0,0,0,0,0,0,0,0,0,-1,909,820,0,0
-308,204,0,0,0,0,0,0,0,0,0,-1,916,820,0,0
-301,204,0,0,0,0,0,0,0,0,0,-1,923,820,0,0
-294,204,0,0,0,0,0,0,0,0,0,-1,930,820,0,0
-287,204,0,0,0,0,0,0,0,0,0,-1,937,820,0,0
-280,204,0,0,0,0,0,0,0,0,0,-1,944,820,0,0
-273,204,0,0,0,0,0,0,0,0,0,-1,951,820,0,0
-266,204,0,0,0,0,0,0,0,0,0,-1,958,820,0,0
-259,204,0,0,0,0,0,0,0,0,0,-1,965,820,0,0
-252,204,0,0,0,0,0,0,0,0,0,-1,972,820,0,0
-245,204,0,0,0,0,0,0,0,0,0,-1,979,820,0,0
-238,204,0,0,0,0,0,0,0,0,0,-1,986,820,0,0
-231,204,0,0,0,0,0,0,0,0,0,-1,993,820,0,0
-224,204,0,0,0,0,0,0,0,0,0,-1,1000,820,0,0
-217,204,0,0,0,0,0,0,0,0,0,-1,1007,820,0,0
-210,204,0,0,0,0,0,0,0,0,0,-1,1014,820,0,0
-203,204,0,0,0,0,0,0,0,0,0,-1,1021,820,0,0
-196,204,0,0,0,0,0,0,0,0,0,-1,1028,820,0,0
-189,204,0,0,0,0,0,0,0,0,0,-1,1035,820,0,0
-182,204,0,0,0,0,0,0,0,0,0,-1,1042,820,0,0
-175,204,0,0,0,0,0,0,0,0,0,-1,1049,820,0,0
-168,204,0,0,0,0,0,0,0,0,0,-1,1056,820,0,0
-161,204,0,0,0,0,0,0,0,0,0,-1,1063,820,0,0
-154,204,0,0,0,0,0,0,0,0,0,-1,1070,820,0,0
-147,204,0,0,0,0,0,0,0,0,0,-1,1077,820,0,0
-140,204,0,0,0,0,0,0,0,0,0,-1,1084,820,0,0
-133,204,0,0,0,0,0,0,0,0,0,-1,1091,820,0,0
-126,204,0,0,0,0,0,0,0,0,0,-1,1098,820,0,0
-119,204,0,0,0,0,0,0,0,0,0,-1,1105,820,0,0
-112,204,0,0,0,0,0,0,0,0,0,-1,1112,820,0,0
-105,204,0,0,0,0,0,0,0,0,0,-1,1119,820,0,0
-98,204,0,0,0,0,0,0,0,0,0,-1,1126,820,0,0
-91,204,0,0,0,0,0,0,0,0,0,-1,1133,820,0,0
-84,204,0,0,0,0,0,0,0,0,0,-1,1140,820,0,0
-77,204,0,0,0,0,0,0,0,0,0,-1,1147,820,0,0
-70,204,0,0,0,0,0,0,0,0,0,-1,1154,820,0,0
-63,204,0,0,0,0,0,0,0,0,0,-1,1161,820,0,0
-56,204,0,0,0,0,0,0,0,0,0,-1,1168,820,0,0
-49,204,0,0,0,0,0,0,0,0,0,-1,1175,820,0,0
-42,204,0,0,0,0,0,0,0,0,0,-1,1182,820,0,0
-35,204,0,0,0,0,0,0,0,0,0,-1,1189,820,0,0
-28,204,0,0,0,0,0,0,0,0,0,-1,1196,820,0,0
-21,204,0,0,0,0,0,0,0,0,0,-1,1203,820,0,0
-14,204,0,0,0,0,0,0,0,0,0,-1,1210,820,0,0
-7,204,0,0,0,0,0,0,0,0,0,-1,1217,820,0,0
0,204,0,0,0,0,0,0,0,0,0,-1,1224,820,0,0
7,204,0,0,0,0,0,0,0,0,0,-1,1231,820,0,0
14,204,0,0,0,0,0,0,0,0,0,-1,1238,820,0,0
21,204,0,0,0,0,0,0,0,0,0,-1,1245,820,0,0
28,204,0,0,0,0,0,0,0,0,0,-1,1252,820,0,0
35,204,0,0,0,0,0,0,0,0,0,-1,1259,820,0,0
42,204,0,0,0,0,0,0,0,0,0,-1,1266,820,0,0
49,204,0,0,0,0,0,0,0,0,0,-1,1273,820,0,0
56,204,0,0,0,0,0,0,0,0,0,-1,1280,820,0,0
63,204,0,0,0,0,0,0,0,0,0,-1,1287,820,0,0
70,204,0,0,0,0,0,0,0,0,0,-1,1294,820,0,0
77,204,0,0,0,0,0,0,0,0,0,-1,1301,820,0,0
84,204,0,0,0,0,0,0,0,0,0,-1,1308,820,0,0
91,204,0,0,0,0,0,0,0,0,0,-1,1315,820,0,0
98,204,0,0,0,0,0,0,0,0,0,-1,1322,820,0,0
105,204,0,0,0,0,0,0,0,0,0,-1,1329,820,0,0
112,204,0,0,0,0,0,0,0,0,0,-1,1336,820,0,0
119,204,0,0,0,0,0,0,0,0,0,-1,1343,820,0,0
126,204,0,0,0,0,0,0,0,0,0,-1,1350,820,0,0
133,204,0,0,0,0,0,0,0,0,0,-1,1357,820,0,0
140,204,0,0,0,0,0,0,0,0,0,-1,1364,820,0,0
147,204,0,0,0,0,0,0,0,0,0,-1,1371,820,0,0
154,204,0,0,0,0,0,0,0,0,0,-1,1378,820,0,0
161,204,0,0,0,0,0,0,0,0,0,-1,1385,820,0,0
168,204,0,0,0,0,0,0,0,0,0,-1,1392,820,0,0
175,204,0,0,0,0,0,0,0,0,0,-1,1399,820,0,0
182,204,0,0,0,0,0,0,0,0,0,-1,1406,820,0,0
189,204,0,0,0,0,0,0,0,0,0,-1,1413,820,0,0
196,204,0,0,0,0,0,0,0,0,0,-1,1420,820,0,0
203,204,0,0,0,0,0,0,0,0,0,-1,1427,820,0,0
210,204,0,0,0,0,0,0,0,0,0,-1,1434,820,0,0
217,204,0,0,0,0,0,0,0,0,0,-1,1441,820,0,0
224,204,0,0,0,0,0,0,0,0,0,-1,1448,820,0,0
231,204,0,0,0,0,0,0,0,0,0,-1,1455,820,0,0
238,204,0,0,0,0,0,0,0,0,0,-1,1462,820,0,0
245,204,0,0,0,0,0,0,0,0,0,-1,1469,820,0,0
252,204,0,0,0,0,0,0,0,0,0,-1,1476,820,0,0
259,204,0,0,0,0,0,0,0,0,0,-1,1483,820,0,0
266,204,0,0,0,0,0,0,0,0,0,-1,1490,820,0,0
273,204,0,0,0,0,0,0,0,0,0,-1,1497,820,0,0
280,204,0,0,0,0,0,0,0,0,0,-1,1504,820,0,0
287,204,0,0,0,0,0,0,0,0,0,-1,1511,820,0,0
294,204,0,0,0,0,0,0,0,0,0,-1,1518,820,0,0
301,204,0,0,0,0,0,0,0,0,0,-1,1525,820,0,0
308,204,0,0,0,0,0,0,0,0,0,-1,1532,820,0,0
315,204,0,0,0,0,0,0,0,0,0,-1,1539,820,0,0
322,204,0,0,0,0,0,0,0,0,0,-1,1546,820,0,0
329,204,0,0,0,0,0,0,0,0,0,-1,1553,820,0,0
336,204,0,0,0,0,0,0,0,0,0,-1,1560,820,0,0
343,204,0,0,0,0,0,0,0,0,0,-1,1567,820,0,0
350,204,0,0,0,0,0,0,0,0,0,-1,1574,820,0,0
357,204,0,0,0,0,0,0,0,0,0,-1,1581,820,0,0
364,204,0,0,0,0,0,0,0,0,0,-1,1588,820,0,0
371,204,0,0,0,0,0,0,0,0,0,-1,1595,820,0,0
378,204,0,0,0,0,0,0,0,0,0,-1,1602,820,0,0
385,204,0,0,0,0,0,0,0,0,0,-1,1609,820,0,0
392,204,0,0,0,0,0,0,0,0,0,-1,1616,820,0,0
399,204,0,0,0,0,0,0,0,0,0,-1,1623,820,0,0
406,204,0,0,0,0,0,0,0,0,0,-1,1630,820,0,0
413,204,0,0,0,0,0,0,0,0,0,-1,1637,820,0,0
420,204,0,0,0,0,0,0,0,0,0,-1,1644,820,0,0
427,204,0,0,0,0,0,0,0,0,0,-1,1651,820,0,0
434,204,0,0,0,0,0,0,0,0,0,-1,1658,820,0,0
441,204,0,0,0,0,0,0,0,0,0,-1,1665,820,0,0
448,204,0,0,0,0,0,0,0,0,0,-1,1672,820,0,0
455,204,0,0,0,0,0,0,0,0,0,-1,1679,820,0,0
462,204,0,0,0,0,0,0,0,0,0,-1,1686,820,0,0
469,204,0,0,0,0,0,0,0,0,0,-1,1693,820,0,0
476,204,0,0,0,0,0,0,0,0,0,-1,1700,820,0,0
483,204,0,0,0,0,0,0,0,0,0,-1,1707,820,0,0
490,204,0,0,0,0,0,0,0,0,0,-1,1714,820,0,0
497,204,0,0,0,0,0,0,0,0,0,-1,1721,820,0,0
504,204,0,0,0,0,0,0,0,0,0,-1,1728,820,0,0
511,204,0,0,0,0,0,0,0,0,0,-1,1735,820,0,0
518,204,0,0,0,0,0,0,0,0,0,-1,1742,820,0,0
525,204,0,0,0,0,0,0,0,0,0,-1,1749,820,0,0
532,204,0,0,0,0,0,0,0,0,0,-1,1756,820,0,0
539,204,0,0,0,0,0,0,0,0,0,-1,1763,820,0,0
546,204,0,0,0,0,0,0,0,0,0,-1,1770,820,0,0
553,204,0,0,0,0,0,0,0,0,0,-1,1777,820,0,0
560,204,0,0,0,0,0,0,0,0,0,-1,1784,820,0,0
567,204,0,0,0,0,0,0,0,0,0,-1,1791,820,0,0
574,204,0,0,0,0,0,0,0,0,0,-1,1798,820,0,0
581,204,0,0,0,0,0,0,0,0,0,-1,1805,820,0,0
588,204,0,0,0,0,0,0,0,0,0,-1,1812,820,0,0
595,204,0,0,0,0,0,0,0,0,0,-1,1819,820,0,0
602,204,29.3199,2.73401,0.00671867,0.00254762,0.000379813,0.00675297,0.00251332,0.0900723,0.00394107,0.0360582,1826,820,29.32,-2.73401
609,204,29.3713,2.68823,0.00282288,0.00284044,0.000362911,0.00319468,0.00246864,0.797488,0.00193375,0.0374879,1833,820,29.3714,-2.68826
616,204,29.3973,2.65247,-0.000674427,0.00245803,-0.000216512,0.00247292,-0.000689321,-1.50211,0.00192009,0.034256,1840,820,29.3974,-2.65245
623,204,29.3429,2.68066,-0.00350313,0.00182189,-0.00107087,0.00202917,-0.00371041,-1.37959,0.0033608,0.0266167,1847,820,29.3429,-2.68063
630,204,29.369,2.66406,-0.00526884,0.00105209,-0.0018932,0.00157574,-0.0057925,-1.30094,0.00448025,0.0266207,1854,820,29.369,-2.66407
637,204,29.4093,2.66766,-0.006153,0.000358597,-0.00250318,0.00120964,-0.00700404,-1.24307,0.00512043,0.0336831,1861,820,29.4093,-2.66765
644,204,29.37,2.6026,-0.00640281,-0.000271671,-0.00285799,0.000853922,-0.0075284,-1.19561,0.00532644,0.0380579,1868,820,29.37,-2.60261
651,204,29.2056,1.79352,-0.0062679,-0.000779792,-0.00304494,0.000575115,-0.00762281,-1.15213,0.00528402,0.0400227,1875,820,29.2056,-1.79352
658,204,29.0293,1.27441,0,0,0,0,0,0,0,-1,1882,820,29.0293,-1.27442
665,204,21.8292,1.51099,0,0,0,0,0,0,0,-1,1889,820,21.8292,-1.51099
672,204,22.4425,1.42706,0,0,0,0,0,0,0,-1,1896,820,22.4425,-1.42709
679,204,22.5869,1.60767,-0.00430033,-0.00177253,-0.00269889,-5.62526e-05,-0.00601661,-1.00438,0.00399245,0.028305,1903,820,22.5869,-1.60767
686,204,22.6045,2.03394,-0.00303284,-0.00174717,-0.0025703,0.000259465,-0.00503947,-0.907935,0.00344939,0.0126403,1910,820,22.6045,-2.03391
693,204,22.5736,2.33972,-0.00164405,-0.00176269,-0.00217713,0.000474567,-0.0038813,-0.771779,0.00275936,0.0160422,1917,820,22.5736,-2.33972
700,204,22.6161,2.64349,-0.000517723,-0.00139386,-0.00142454,0.000534584,-0.00244617,-0.636229,0.00183512,0.0172215,1924,820,22.6161,-2.64352
707,204,22.5917,3.03247,0.000809183,-0.000743366,-0.000610623,0.00102056,-0.000954747,-0.33326,0.00114066,0.0150436,1931,820,22.5917,-3.03248
714,204,22.6041,3.41498,0.00196953,-9.04341e-05,-0.000358473,0.00203013,-0.000151033,-0.167463,0.00140647,0.0239482,1938,820,22.6042,-3.41495
721,204,22.5952,3.64569,0.00404269,0.000301828,-0.000221173,0.00405572,0.000288796,-0.0588504,0.00261287,0.0215824,1945,820,22.5953,-3.64568
728,204,22.5991,3.92529,0.00599841,0.000745947,-0.000122386,0.00600126,0.000743097,-0.0232839,0.00377759,0.0130278,1952,820,22.5991,-3.92531
735,204,22.599,4.21246,0.00838361,0.0010758,-0.000175644,0.00838783,0.00107158,-0.0240166,0.00527113,0.0151182,1959,820,22.599,-4.21245
742,204,22.6899,4.39227,0.0114952,0.0012839,-0.000448207,0.0115149,0.00126426,-0.0437809,0.00729178,0.0292197,1966,820,22.6899,-4.39224
749,204,22.8431,4.34247,0,0,0,0,0,0,0,-1,1973,820,22.8431,-4.34246
756,204,22.7358,4.11932,0,0,0,0,0,0,0,-1,1980,820,22.7359,-4.11931
763,204,22.2361,5.36444,0,0,0,0,0,0,0,-1,1987,820,22.2361,-5.36445
770,204,22.5393,7.83112,0,0,0,0,0,0,0,-1,1994,820,22.5392,-7.83111
777,204,0,0,0,0,0,0,0,0,0,-1,2001,820,0,0
784,204,0,0,0,0,0,0,0,0,0,-1,2008,820,0,0
791,204,0,0,0,0,0,0,0,0,0,-1,2015,820,0,0
798,204,0,0,0,0,0,0,0,0,0,-1,2022,820,0,0
805,204,0,0,0,0,0,0,0,0,0,-1,2029,820,0,0
812,204,0,0,0,0,0,0,0,0,0,-1,2036,820,0,0
-700,197,0,0,0,0,0,0,0,0,0,-1,524,827,0,0
-693,197,0,0,0,0,0,0,0,0,0,-1,531,827,0,0
-686,197,0,0,0,0,0,0,0,0,0,-1,538,827,0,0
-679,197,0,0,0,0,0,0,0,0,0,-1,545,827,0,0
-672,197,0,0,0,0,0,0,0,0,0,-1,552,827,0,0
-665,197,0,0,0,0,0,0,0,0,0,-1,559,827,0,0
-658,197,-22.4616,-2.66467,0,0,0,0,0,0,0,-1,566,827,-22.4616,2.66467
-651,197,-14.5361,5.80127,0,0,0,0,0,0,0,-1,573,827,-14.5361,-5.80125
-644,197,-14.8952,5.18823,0.0147104,0.00989097,-0.0153133,0.0278024,-0.00320102,-0.707358,0.0196889,0.0490836,580,827,-14.8952,-5.18825
-637,197,-15.2863,4.58923,0.0149121,0.00622703,-0.0206166,0.0316386,-0.0104994,-0.681599,0.0253283,0.0457299,587,827,-15.2862,-4.58924
-630,197,-15.6031,3.81744,0.0144177,0.00421434,-0.0215777,0.0314886,-0.0128566,-0.669313,0.0263452,0.0408837,594,827,-15.6032,-3.81744
-623,197,-15.1132,2.75153,0,0,0,0,0,0,0,-1,601,827,-15.1132,-2.75155
-616,197,-15.2075,2.33319,0.0117521,0.00256408,-0.0173406,0.0250969,-0.0107808,-0.65591,0.0212566,0.0459689,608,827,-15.2074,-2.33318
-609,197,-15.2338,1.97791,0.00993765,0.0021869,-0.0140504,0.0206373,-0.00851276,-0.650834,0.0173083,0.0321355,615,827,-15.2337,-1.97788
-602,197,-15.2883,1.69507,0.00788761,0.00186567,-0.0108265,0.016114,-0.00636075,-0.64977,0.0133769,0.0159408,622,827,-15.2882,-1.69505
-595,197,-15.3106,1.42865,0.00623168,0.00160075,-0.00768522,0.0119427,-0.00411024,-0.639079,0.00962886,0.017285,629,827,-15.3106,-1.42867
-588,197,-15.3177,1.13831,0.00439852,0.000406232,-0.00575701,0.00849563,-0.00369088,-0.618518,0.00721587,0.0175665,636,827,-15.3177,-1.13829
-581,197,-15.2946,0.842346,0.0028989,-0.00015701,-0.00318157,0.0049004,-0.00215851,-0.561536,0.00417669,0.0106692,643,827,-15.2946,-0.84236
-574,197,-15.299,0.539795,0.00165029,0.000340479,-0.000576897,0.00186814,0.000122624,-0.361077,0.00120663,0.012298,650,827,-15.299,-0.53978
-567,197,-15.3029,0.249207,0.000923496,0.000417479,0.000991071,0.00169334,-0.000352369,0.660424,0.00126285,0.013243,657,827,-15.3029,-0.249213
-560,197,-15.3217,0.00268555,0.000240803,0.000364542,0.00129051,0.00159467,-0.000989324,0.809351,0.00150545,0.0147753,664,827,-15.3217,-0.00266469
-553,197,-15.4132,-0.25647,-0.000501644,0.000668745,0.00129041,0.00150046,-0.00133335,0.998276,0.00163705,0.0177146,671,827,-15.4132,0.256442
-546,197,-15.3137,-0.533203,-0.0012306,0.00166111,0.00113606,0.00205404,-0.00162353,1.2378,0.00212809,0.0315806,678,827,-15.3137,0.533226
-539,197,-15.2321,-0.777832,0,0,0,0,0,0,0,-1,685,827,-15.232,0.777818
-532,197,-16.0519,0.0410156,0,0,0,0,0,0,0,-1,692,827,-16.0519,-0.0410415
-525,197,-20.8331,0.822998,0,0,0,0,0,0,0,-1,699,827,-20.8331,-0.822977
-518,197,-20.8615,0.776672,0,0,0,0,0,0,0,-1,706,827,-20.8615,-0.776684
-511,197,-20.8215,0.778687,-0.00394532,0.0052195,0.000519583,0.00524887,-0.00397468,1.51434,0.00534213,0.0460117,713,827,-20.8215,-0.778693
-504,197,-20.8171,0.7677,-0.00407141,0.00567157,4.8654e-05,0.00567181,-0.00407165,1.5658,0.00565062,0.039933,720,827,-20.8172,-0.767716
-497,197,-20.8569,0.812805,-0.00370864,0.0055878,-0.000684133,0.00563788,-0.00375872,-1.49773,0.00546117,0.0413114,727,827,-20.8569,-0.812775
-490,197,-20.8746,0.668823,-0.00192956,0.00478343,-0.0018473,0.0052582,-0.00240432,-1.31923,0.00452508,0.0395664,734,827,-20.8746,-0.668813
-483,197,-20.8537,0.810669,0,0,0,0,0,0,0,-1,741,827,-20.8537,-0.810654
-476,197,0,0,0,0,0,0,0,0,0,-1,748,827,0,0
-469,197,0,0,0,0,0,0,0,0,0,-1,755,827,0,0
-462,197,0,0,0,0,0,0,0,0,0,-1,762,827,0,0
-455,197,0,0,0,0,0,0,0,0,0,-1,769,827,0,0
-448,197,0,0,0,0,0,0,0,0,0,-1,776,827,0,0
-441,197,0,0,0,0,0,0,0,0,0,-1,783,827,0,0
-434,197,0,0,0,0,0,0,0,0,0,-1,790,827,0,0
-427,197,0,0,0,0,0,0,0,0,0,-1,797,827,0,0
-420,197,0,0,0,0,0,0,0,0,0,-1,804,827,0,0
-413,197,0,0,0,0,0,0,0,0,0,-1,811,827,0,0
-406,197,0,0,0,0,0,0,0,0,0,-1,818,827,0,0
-399,197,0,0,0,0,0,0,0,0,0,-1,825,827,0,0
-392,197,0,0,0,0,0,0,0,0,0,-1,832,827,0,0
-385,197,0,0,0,0,0,0,0,0,0,-1,839,827,0,0
-378,197,0,0,0,0,0,0,0,0,0,-1,846,827,0,0
-371,197,0,0,0,0,0,0,0,0,0,-1,853,827,0,0
-364,197,0,0,0,0,0,0,0,0,0,-1,860,827,0,0
-357,197,0,0,0,0,0,0,0,0,0,-1,867,827,0,0
-350,197,0,0,0,0,0,0,0,0,0,-1,874,827,0,0
-343,197,0,0,0,0,0,0,0,0,0,-1,881,827,0,0
-336,197,0,0,0,0,0,0,0,0,0,-1,888,827,0,0
-329,197,0,0,0,0,0,0,0,0,0,-1,895,827,0,0
-322,197,0,0,0,0,0,0,0,0,0,-1,902,827,0,0
-315,197,0,0,0,0,0,0,0,0,0,-1,909,827,0,0
-308,197,0,0,0,0,0,0,0,0,0,-1,916,827,0,0
-301,197,0,0,0,0,0,0,0,0,0,-1,923,827,0,0
-294,197,0,0,0,0,0,0,0,0,0,-1,930,827,0,0
-287,197,0,0,0,0,0,0,0,0,0,-1,937,827,0,0
-280,197,0,0,0,0,0,0,0,0,0,-1,944,827,0,0
-273,197,0,0,0,0,0,0,0,0,0,-1,951,827,0,0
-266,197,0,0,0,0,0,0,0,0,0,-1,958,827,0,0
-259,197,0,0,0,0,0,0,0,0,0,-1,965,827,0,0
-252,197,0,0,0,0,0,0,0,0,0,-1,972,827,0,0
-245,197,0,0,0,0,0,0,0,0,0,-1,979,827,0,0
-238,197,0,0,0,0,0,0,0,0,0,-1,986,827,0,0
-231,197,0,0,0,0,0,0,0,0,0,-1,993,827,0,0
-224,197,0,0,0,0,0,0,0,0,0,-1,1000,827,0,0
-217,197,0,0,0,0,0,0,0,0,0,-1,1007,827,0,0
-210,197,0,0,0,0,0,0,0,0,0,-1,1014,827,0,0
-203,197,0,0,0,0,0,0,0,0,0,-1,1021,827,0,0
-196,197,0,0,0,0,0,0,0,0,0,-1,1028,827,0,0
-189,197,0,0,0,0,0,0,0,0,0,-1,1035,827,0,0
-182,197,0,0,0,0,0,0,0,0,0,-1,1042,827,0,0
-175,197,0,0,0,0,0,0,0,0,0,-1,1049,827,0,0
-168,197,0,0,0,0,0,0,0,0,0,-1,1056,827,0,0
-161,197,0,0,0,0,0,0,0,0,0,-1,1063,827,0,0
-154,197,0,0,0,0,0,0,0,0,0,-1,1070,827,0,0
-147,197,0,0,0,0,0,0,0,0,0,-1,1077,827,0,0
-140,197,0,0,0,0,0,0,0,0,0,-1,1084,827,0,0
-133,197,0,0,0,0,0,0,0,0,0,-1,1091,827,0,0
-126,197,0,0,0,0,0,0,0,0,0,-1,1098,827,0,0
-119,197,0,0,0,0,0,0,0,0,0,-1,1105,827,0,0
-112,197,0,0,0,0,0,0,0,0,0,-1,1112,827,0,0
-105,197,0,0,0,0,0,0,0,0,0,-1,1119,827,0,0
-98,197,0,0,0,0,0,0,0,0,0,-1,1126,827,0,0
-91,197,0,0,0,0,0,0,0,0,0,-1,1133,827,0,0
-84,197,0,0,0,0,0,0,0,0,0,-1,1140,827,0,0
-77,197,0,0,0,0,0,0,0,0,0,-1,1147,827,0,0
-70,197,0,0,0,0,0,0,0,0,0,-1,1154,827,0,0
-63,197,0,0,0,0,0,0,0,0,0,-1,1161,827,0,0
-56,197,0,0,0,0,0,0,0,0,0,-1,1168,827,0,0
-49,197,0,0,0,0,0,0,0,0,0,-1,1175,827,0,0
-42,197,0,0,0,0,0,0,0,0,0,-1,1182,827,0,0
-35,197,0,0,0,0,0,0,0,0,0,-1,1189,827,0,0
-28,197,0,0,0,0,0,0,0,0,0,-1,1196,827,0,0
-21,197,0,0,0,0,0,0,0,0,0,-1,1203,827,0,0
-14,197,0,0,0,0,0,0,0,0,0,-1,1210,827,0,0
-7,197,0,0,0,0,0,0,0,0,0,-1,1217,827,0,0
0,197,0,0,0,0,0,0,0,0,0,-1,1224,827,0,0
7,197,0,0,0,0,0,0,0,0,0,-1,1231,827,0,0
14,197,0,0,0,0,0,0,0,0,0,-1,1238,827,0,0
21,197,0,0,0,0,0,0,0,0,0,-1,1245,827,0,0
28,197,0,0,0,0,0,0,0,0,0,-1,1252,827,0,0
35,197,0,0,0,0,0,0,0,0,0,-1,1259,827,0,0
42,197,0,0,0,0,0,0,0,0,0,-1,1266,827,0,0
49,197,0,0,0,0,0,0,0,0,0,-1,1273,827,0,0
56,197,0,0,0,0,0,0,0,0,0,-1,1280,827,0,0
63,197,0,0,0,0,0,0,0,0,0,-1,1287,827,0,0
70,197,0,0,0,0,0,0,0,0,0,-1,1294,827,0,0
77,197,0,0,0,0,0,0,0,0,0,-1,1301,827,0,0
84,197,0,0,0,0,0,0,0,0,0,-1,1308,827,0,0
91,197,0,0,0,0,0,0,0,0,0,-1,1315,827,0,0
98,197,0,0,0,0,0,0,0,0,0,-1,1322,827,0,0
105,197,0,0,0,0,0,0,0,0,0,-1,1329,827,0,0
112,197,0,0,0,0,0,0,0,0,0,-1,1336,827,0,0
119,197,0,0,0,0,0,0,0,0,0,-1,1343,827,0,0
126,197,0,0,0,0,0,0,0,0,0,-1,1350,827,0,0
133,197,0,0,0,0,0,0,0,0,0,-1,1357,827,0,0
140,197,0,0,0,0,0,0,0,0,0,-1,1364,827,0,0
147,197,0,0,0,0,0,0,0,0,0,-1,1371,827,0,0
154,197,0,0,0,0,0,0,0,0,0,-1,1378,827,0,0
161,197,0,0,0,0,0,0,0,0,0,-1,1385,827,0,0
168,197,0,0,0,0,0,0,0,0,0,-1,1392,827,0,0
175,197,0,0,0,0,0,0,0,0,0,-1,1399,827,0,0
182,197,0,0,0,0,0,0,0,0,0,-1,1406,827,0,0
189,197,0,0,0,0,0,0,0,0,0,-1,1413,827,0,0
196,197,0,0,0,0,0,0,0,0,0,-1,1420,827,0,0
203,197,0,0,0,0,0,0,0,0,0,-1,1427,827,0,0
210,197,0,0,0,0,0,0,0,0,0,-1,1434,827,0,0
217,197,0,0,0,0,0,0,0,0,0,-1,1441,827,0,0
224,197,0,0,0,0,0,0,0,0,0,-1,1448,827,0,0
231,197,0,0,0,0,0,0,0,0,0,-1,1455,827,0,0
238,197,0,0,0,0,0,0,0,0,0,-1,1462,827,0,0
245,197,0,0,0,0,0,0,0,0,0,-1,1469,827,0,0
252,197,0,0,0,0,0,0,0,0,0,-1,1476,827,0,0
259,197,0,0,0,0,0,0,0,0,0,-1,1483,827,0,0
266,197,0,0,0,0,0,0,0,0,0,-1,1490,827,0,0
273,197,0,0,0,0,0,0,0,0,0,-1,1497,827,0,0
280,197,0,0,0,0,0,0,0,0,0,-1,1504,827,0,0
287,197,0,0,0,0,0,0,0,0,0,-1,1511,827,0,0
294,197,0,0,0,0,0,0,0,0,0,-1,1518,827,0,0
301,197,0,0,0,0,0,0,0,0,0,-1,1525,827,0,0
308,197,0,0,0,0,0,0,0,0,0,-1,1532,827,0,0
315,197,0,0,0,0,0,0,0,0,0,-1,1539,827,0,0
322,197,0,0,0,0,0,0,0,0,0,-1,1546,827,0,0
329,197,0,0,0,0,0,0,0,0,0,-1,1553,827,0,0
336,197,0,0,0,0,0,0,0,0,0,-1,1560,827,0,0
343,197,0,0,0,0,0,0,0,0,0,-1,1567,827,0,0
350,197,0,0,0,0,0,0,0,0,0,-1,1574,827,0,0
357,197,0,0,0,0,0,0,0,0,0,-1,1581,827,0,0
364,197,0,0,0,0,0,0,0,0,0,-1,1588,827,0,0
371,197,0,0,0,0,0,0,0,0,0,-1,1595,827,0,0
378,197,0,0,0,0,0,0,0,0,0,-1,1602,827,0,0
385,197,0,0,0,0,0,0,0,0,0,-1,1609,827,0,0
392,197,0,0,0,0,0,0,0,0,0,-1,1616,827,0,0
399,197,0,0,0,0,0,0,0,0,0,-1,1623,827,0,0
406,197,0,0,0,0,0,0,0,0,0,-1,1630,827,0,0
413,197,0,0,0,0,0,0,0,0,0,-1,1637,827,0,0
420,197,0,0,0,0,0,0,0,0,0,-1,1644,827,0,0
427,197,0,0,0,0,0,0,0,0,0,-1,1651,827,0,0
434,197,0,0,0,0,0,0,0,0,0,-1,1658,827,0,0
441,197,0,0,0,0,0,0,0,0,0,-1,1665,827,0,0
448,197,0,0,0,0,0,0,0,0,0,-1,1672,827,0,0
455,197,0,0,0,0,0,0,0,0,0,-1,1679,827,0,0
462,197,0,0,0,0,0,0,0,0,0,-1,1686,827,0,0
469,197,0,0,0,0,0,0,0,0,0,-1,1693,827,0,0
476,197,0,0,0,0,0,0,0,0,0,-1,1700,827,0,0
483,197,0,0,0,0,0,0,0,0,0,-1,1707,827,0,0
490,197,0,0,0,0,0,0,0,0,0,-1,1714,827,0,0
497,197,0,0,0,0,0,0,0,0,0,-1,1721,827,0,0
504,197,0,0,0,0,0,0,0,0,0,-1,1728,827,0,0
511,197,0,0,0,0,0,0,0,0,0,-1,1735,827,0,0
518,197,0,0,0,0,0,0,0,0,0,-1,1742,827,0,0
525,197,0,0,0,0,0,0,0,0,0,-1,1749,827,0,0
532,197,0,0,0,0,0,0,0,0,0,-1,1756,827,0,0
539,197,0,0,0,0,0,0,0,0,0,-1,1763,827,0,0
546,197,0,0,0,0,0,0,0,0,0,-1,1770,827,0,0
553,197,0,0,0,0,0,0,0,0,0,-1,1777,827,0,0
560,197,0,0,0,0,0,0,0,0,0,-1,1784,827,0,0
567,197,0,0,0,0,0,0,0,0,0,-1,1791,827,0,0
574,197,0,0,0,0,0,0,0,0,0,-1,1798,827,0,0
581,197,0,0,0,0,0,0,0,0,0,-1,1805,827,0,0
588,197,0,0,0,0,0,0,0,0,0,-1,1812,827,0,0
595,197,0,0,0,0,0,0,0,0,0,-1,1819,827,0,0
602,197,29.2327,2.7489,0.00872693,0.00210924,-0.000291081,0.00873971,0.00209646,-0.0438724,0.00526857,0.03874,1826,827,29.2326,-2.74887
609,197,29.4244,2.55896,0.00485045,0.00249875,-3.14903e-05,0.00485087,0.00249833,-0.0133872,0.00280107,0.0384012,1833,827,29.4245,-2.55893
616,197,29.4198,2.55835,0.0013426,0.00223653,-0.000322208,0.00234056,0.00123857,-1.25849,0.00135209,0.0379301,1840,827,29.4197,-2.55834
623,197,29.3198,2.56763,-0.00169334,0.00175878,-0.000978655,0.00201692,-0.00195148,-1.3129,0.00229126,0.0339961,1847,827,29.3199,-2.56762
630,197,29.3496,2.62317,-0.0037687,0.00111225,-0.00170865,0.00165093,-0.00430738,-1.26539,0.00355217,0.0289297,1854,827,29.3496,-2.62318
637,197,29.3527,2.6814,-0.00491339,0.000482957,-0.00227316,0.00131287,-0.0057433,-1.22074,0.0043333,0.0270374,1861,827,29.3527,-2.6814
644,197,29.3123,2.72064,-0.00535035,-0.000103344,-0.00259056,0.000960128,-0.00641382,-1.18126,0.00462923,0.0324962,1868,827,29.3122,-2.72064
651,197,29.3213,2.72931,-0.00534293,-0.000585471,-0.00274867,0.000670842,-0.00659924,-1.14208,0.00463931,0.04221,1875,827,29.3213,-2.72934
658,197,29.3221,2.83801,0,0,0,0,0,0,0,-1,1882,827,29.3222,-2.83802
665,197,14.0618,1.80304,0,0,0,0,0,0,0,-1,1889,827,14.0617,-1.80303
672,197,23.0862,1.17194,0,0,0,0,0,0,0,-1,1896,827,23.0862,-1.17196
679,197,23.0145,1.70679,-0.00405528,-0.00153299,-0.00242369,-6.19669e-05,-0.0055263,-1.02529,0.00366372,0.036232,1903,827,23.0145,-1.70679
686,197,22.9233,2.0661,-0.00304281,-0.00155221,-0.0023386,0.000156983,-0.004752,-0.939657,0.0032216,0.0193744,1910,827,22.9233,-2.06613
693,197,22.8923,2.37805,-0.00195795,-0.00163618,-0.00206334,0.000272539,-0.00386667,-0.824306,0.00267326,0.0149771,1917,827,22.8923,-2.37805
700,197,22.9185,2.70917,-0.00114095,-0.00134748,-0.001469,0.000228405,-0.00271684,-0.750309,0.00189196,0.0213648,1924,827,22.9185,-2.70914
707,197,22.9463,3.01874,-0.000145589,-0.000738387,-0.00078438,0.000396525,-0.0012805,-0.604753,0.00101208,0.00951238,1931,827,22.9463,-3.01877
714,197,22.9204,3.33392,0.000642326,-8.33846e-05,-0.000710019,0.00107684,-0.000517895,-0.549174,0.00093938,0.0121065,1938,827,22.9204,-3.3339
721,197,22.8966,3.62482,0.00236169,0.000346643,-0.000715434,0.00258986,0.000118468,-0.308734,0.00168847,0.0122208,1945,827,22.8966,-3.62481
728,197,22.884,3.93091,0.00396775,0.000849162,-0.000753762,0.00414038,0.000676533,-0.22514,0.00256466,0.0104051,1952,827,22.8841,-3.93089
735,197,22.8904,4.22357,0.00600087,0.00123533,-0.000938269,0.00617895,0.00105726,-0.187563,0.00381602,0.0114084,1959,827,22.8904,-4.22359
742,197,22.8792,4.52325,0.00872503,0.00146036,-0.00134426,0.00896579,0.00121959,-0.177226,0.00561499,0.0207735,1966,827,22.8791,-4.52325
749,197,22.7594,4.76898,0.0126149,0.00144113,-0.00205531,0.012981,0.00107507,-0.176257,0.00831883,0.0436007,1973,827,22.7594,-4.76898
756,197,22.7101,5.14844,0.0183081,0.00101312,-0.0033207,0.0189238,0.000397447,-0.183321,0.0124855,0.0476131,1980,827,22.71,-5.14842
763,197,22.6747,5.44263,0.0264881,-4.69176e-05,-0.00546855,0.0275709,-0.00112974,-0.19548,0.0187685,0.0458146,1987,827,22.6747,-5.44262
770,197,22.6501,5.79401,0,0,0,0,0,0,0,-1,1994,827,22.6502,-5.79401
777,197,0,0,0,0,0,0,0,0,0,-1,2001,827,0,0
784,197,0,0,0,0,0,0,0,0,0,-1,2008,827,0,0
791,197,0,0,0,0,0,0,0,0,0,-1,2015,827,0,0
798,197,0,0,0,0,0,0,0,0,0,-1,2022,827,0,0
805,197,0,0,0,0,0,0,0,0,0,-1,2029,827,0,0
812,197,0,0,0,0,0,0,0,0,0,-1,2036,827,0,0
-700,190,0,0,0,0,0,0,0,0,0,-1,524,834,0,0
-693,190,0,0,0,0,0,0,0,0,0,-1,531,834,0,0
-686,190,0,0,0,0,0,0,0,0,0,-1,538,834,0,0
-679,190,0,0,0,0,0,0,0,0,0,-1,545,834,0,0
-672,190,0,0,0,0,0,0,0,0,0,-1,552,834,0,0
-665,190,0,0,0,0,0,0,0,0,0,-1,559,834,0,0
-658,190,-13.8921,5.67761,0,0,0,0,0,0,0,-1,566,834,-13.8921,-5.6776
-651,190,-14.2851,5.50543,0,0,0,0,0,0,0,-1,573,834,-14.2851,-5.50543
-644,190,-14.6862,5.20258,0.0240631,0.0154323,-0.000954382,0.0241673,0.015328,-0.108827,0.0141197,0.044561,580,834,-14.6862,-5.20259
-637,190,-15.1131,4.80011,0.0181026,0.00846348,-0.0106379,0.0249618,0.00160429,-0.572702,0.0161331,0.0420197,587,834,-15.1131,-4.80009
-630,190,-15.2508,4.20532,0.0140187,0.00399017,-0.0148823,0.0247088,-0.00669992,-0.622907,0.0191016,0.0415879,594,834,-15.2508,-4.20534
-623,190,-15.191,3.44476,0.010984,0.00128797,-0.015744,0.0226095,-0.0103375,-0.636041,0.0194569,0.0430819,601,834,-15.191,-3.44476
-616,190,-15.3445,2.58112,0.00861729,-0.000225197,-0.0145818,0.0194334,-0.0110413,-0.638202,0.0178155,0.0424294,608,834,-15.3445,-2.58114
-609,190,-15.5403,1.94879,0.00639404,-0.00099218,-0.0124644,0.0157009,-0.010299,-0.641372,0.0151187,0.023889,615,834,-15.5404,-1.94881
-602,190,-15.584,1.68494,0.00441871,-0.00131376,-0.0100326,0.0119865,-0.00888157,-0.646259,0.0120926,0.0157297,622,834,-15.584,-1.68491
-595,190,-15.6148,1.41205,0.00328797,-0.00124576,-0.00711386,0.0084874,-0.00644519,-0.631157,0.00864817,0.018139,629,834,-15.6148,-1.41205
-588,190,-15.617,1.13397,0.00199855,-0.00196475,-0.00536578,0.00573691,-0.00570311,-0.608511,0.00660491,0.0156808,636,834,-15.617,-1.13395
-581,190,-15.6041,0.858643,0.00116027,-0.00211468,-0.00293901,0.00288718,-0.00384159,-0.53124,0.00389786,0.0115666,643,834,-15.6041,-0.858665
-574,190,-15.5959,0.55658,0.000546,-0.00106589,-0.000459316,0.000667696,-0.00118759,-0.259,0.00108508,0.0111206,650,834,-15.5959,-0.556551
-567,190,-15.5676,0.249023,0.000399201,-0.000462199,0.00106648,0.00111866,-0.00118166,0.593487,0.00132826,0.0140141,657,834,-15.5676,-0.249029
-560,190,-15.6268,-0.00946045,0.00011199,-0.000145573,0.00134134,0.00133071,-0.0013643,0.73754,0.001556,0.0266506,664,834,-15.6268,0.00948195
-553,190,-15.8647,-0.341797,0,0,0,0,0,0,0,-1,671,834,-15.8648,0.341794
-546,190,-15.6468,-0.563843,-0.000899968,0.00132788,0.00113634,0.00180521,-0.0013773,1.17312,0.00184295,0.0469604,678,834,-15.6468,0.563833
-539,190,-15.8795,-0.766296,0,0,0,0,0,0,0,-1,685,834,-15.8795,0.766303
-532,190,-17.4314,-0.331055,0,0,0,0,0,0,0,-1,692,834,-17.4314,0.331043
-525,190,-20.3201,1.58643,0,0,0,0,0,0,0,-1,699,834,-20.3201,-1.58643
-518,190,-20.6802,0.966064,0,0,0,0,0,0,0,-1,706,834,-20.6802,-0.966044
-511,190,-20.798,0.717834,-0.00308417,0.00532836,0.000458736,0.0053533,-0.00310911,1.51648,0.00494271,0.0434914,713,834,-20.798,-0.717814
-504,190,-20.9487,0.660522,-0.00313391,0.00578264,5.1573e-05,0.00578293,-0.00313421,1.56501,0.00522347,0.0425088,720,834,-20.9487,-0.660516
-497,190,-20.934,0.541992,-0.00257352,0.00551329,-0.000536261,0.0055487,-0.00260893,-1.50487,0.00481067,0.0427495,727,834,-20.934,-0.541971
-490,190,-20.7725,0.562256,-0.000469249,0.00417797,-0.00136743,0.00455047,-0.000841752,-1.30484,0.00334967,0.0407466,734,834,-20.7725,-0.56228
-483,190,0,0,0,0,0,0,0,0,0,-1,741,834,0,0
-476,190,0,0,0,0,0,0,0,0,0,-1,748,834,0,0
-469,190,0,0,0,0,0,0,0,0,0,-1,755,834,0,0
-462,190,0,0,0,0,0,0,0,0,0,-1,762,834,0,0
-455,190,0,0,0,0,0,0,0,0,0,-1,769,834,0,0
-448,190,0,0,0,0,0,0,0,0,0,-1,776,834,0,0
-441,190,0,0,0,0,0,0,0,0,0,-1,783,834,0,0
-434,190,0,0,0,0,0,0,0,0,0,-1,790,834,0,0
-427,190,0,0,0,0,0,0,0,0,0,-1,797,834,0,0
-420,190,0,0,0,0,0,0,0,0,0,-1,804,834,0,0
-413,190,0,0,0,0,0,0,0,0,0,-1,811,834,0,0
-406,190,0,0,0,0,0,0,0,0,0,-1,818,834,0,0
-399,190,0,0,0,0,0,0,0,0,0,-1,825,834,0,0
-392,190,0,0,0,0,0,0,0,0,0,-1,832,834,0,0
-385,190,0,0,0,0,0,0,0,0,0,-1,839,834,0,0
-378,190,0,0,0,0,0,0,0,0,0,-1,846,834,0,0
-371,190,0,0,0,0,0,0,0,0,0,-1,853,834,0,0
-364,190,0,0,0,0,0,0,0,0,0,-1,860,834,0,0
-357,190,0,0,0,0,0,0,0,0,0,-1,867,834,0,0
-350,190,0,0,0,0,0,0,0,0,0,-1,874,834,0,0
-343,190,0,0,0,0,0,0,0,0,0,-1,881,834,0,0
-336,190,0,0,0,0,0,0,0,0,0,-1,888,834,0,0
-329,190,0,0,0,0,0,0,0,0,0,-1,895,834,0,0
-322,190,0,0,0,0,0,0,0,0,0,-1,902,834,0,0
-315,190,0,0,0,0,0,0,0,0,0,-1,909,834,0,0
-308,190,0,0,0,0,0,0,0,0,0,-1,916,834,0,0
-301,190,0,0,0,0,0,0,0,0,0,-1,923,834,0,0
-294,190,0,0,0,0,0,0,0,0,0,-1,930,834,0,0
-287,190,0,0,0,0,0,0,0,0,0,-1,937,834,0,0
-280,190,0,0,0,0,0,0,0,0,0,-1,944,834,0,0
-273,190,0,0,0,0,0,0,0,0,0,-1,951,834,0,0
-266,190,0,0,0,0,0,0,0,0,0,-1,958,834,0,0
-259,190,0,0,0,0,0,0,0,0,0,-1,965,834,0,0
-252,190,0,0,0,0,0,0,0,0,0,-1,972,834,0,0
-245,190,0,0,0,0,0,0,0,0,0,-1,979,834,0,0
-238,190,0,0,0,0,0,0,0,0,0,-1,986,834,0,0
-231,190,0,0,0,0,0,0,0,0,0,-1,993,834,0,0
-224,190,0,0,0,0,0,0,0,0,0,-1,1000,834,0,0
-217,190,0,0,0,0,0,0,0,0,0,-1,1007,834,0,0
-210,190,0,0,0,0,0,0,0,0,0,-1,1014,834,0,0
-203,190,0,0,0,0,0,0,0,0,0,-1,1021,834,0,0
-196,190,0,0,0,0,0,0,0,0,0,-1,1028,834,0,0
-189,190,0,0,0,0,0,0,0,0,0,-1,1035,834,0,0
-182,190,0,0,0,0,0,0,0,0,0,-1,1042,834,0,0
-175,190,0,0,0,0,0,0,0,0,0,-1,1049,834,0,0
-168,190,0,0,0,0,0,0,0,0,0,-1,1056,834,0,0
-161,190,0,0,0,0,0,0,0,0,0,-1,1063,834,0,0
-154,190,0,0,0,0,0,0,0,0,0,-1,1070,834,0,0
-147,190,0,0,0,0,0,0,0,0,0,-1,1077,834,0,0
-140,190,0,0,0,0,0,0,0,0,0,-1,1084,834,0,0
-133,190,0,0,0,0,0,0,0,0,0,-1,1091,834,0,0
-126,190,0,0,0,0,0,0,0,0,0,-1,1098,834,0,0
-119,190,0,0,0,0,0,0,0,0,0,-1,1105,834,0,0
-112,190,0,0,0,0,0,0,0,0,0,-1,1112,834,0,0
-105,190,0,0,0,0,0,0,0,0,0,-1,1119,834,0,0
-98,190,0,0,0,0,0,0,0,0,0,-1,1126,834,0,0
-91,190,0,0,0,0,0,0,0,0,0,-1,1133,834,0,0
-84,190,0,0,0,0,0,0,0,0,0,-1,1140,834,0,0
-77,190,0,0,0,0,0,0,0,0,0,-1,1147,834,0,0
-70,190,0,0,0,0,0,0,0,0,0,-1,1154,834,0,0
-63,190,0,0,0,0,0,0,0,0,0,-1,1161,834,0,0
-56,190,0,0,0,0,0,0,0,0,0,-1,1168,834,0,0
-49,190,0,0,0,0,0,0,0,0,0,-1,1175,834,0,0
-42,190,0,0,0,0,0,0,0,0,0,-1,1182,834,0,0
-35,190,0,0,0,0,0,0,0,0,0,-1,1189,834,0,0
-28,190,0,0,0,0,0,0,0,0,0,-1,1196,834,0,0
-21,190,0,0,0,0,0,0,0,0,0,-1,1203,834,0,0
-14,190,0,0,0,0,0,0,0,0,0,-1,1210,834,0,0
-7,190,0,0,0,0,0,0,0,0,0,-1,1217,834,0,0
0,190,0,0,0,0,0,0,0,0,0,-1,1224,834,0,0
7,190,0,0,0,0,0,0,0,0,0,-1,1231,834,0,0
14,190,0,0,0,0,0,0,0,0,0,-1,1238,834,0,0
21,190,0,0,0,0,0,0,0,0,0,-1,1245,834,0,0
28,190,0,0,0,0,0,0,0,0,0,-1,1252,834,0,0
35,190,0,0,0,0,0,0,0,0,0,-1,1259,834,0,0
42,190,0,0,0,0,0,0,0,0,0,-1,1266,834,0,0
49,190,0,0,0,0,0,0,0,0,0,-1,1273,834,0,0
56,190,0,0,0,0,0,0,0,0,0,-1,1280,834,0,0
63,190,0,0,0,0,0,0,0,0,0,-1,1287,834,0,0
70,190,0,0,0,0,0,0,0,0,0,-1,1294,834,0,0
77,190,0,0,0,0,0,0,0,0,0,-1,1301,834,0,0
84,190,0,0,0,0,0,0,0,0,0,-1,1308,834,0,0
91,190,0,0,0,0,0,0,0,0,0,-1,1315,834,0,0
98,190,0,0,0,0,0,0,0,0,0,-1,1322,834,0,0
105,190,0,0,0,0,0,0,0,0,0,-1,1329,834,0,0
112,190,0,0,0,0,0,0,0,0,0,-1,1336,834,0,0
119,190,0,0,0,0,0,0,0,0,0,-1,1343,834,0,0
126,190,0,0,0,0,0,0,0,0,0,-1,1350,834,0,0
133,190,0,0,0,0,0,0,0,0,0,-1,1357,834,0,0
140,190,0,0,0,0,0,0,0,0,0,-1,1364,834,0,0
147,190,0,0,0,0,0,0,0,0,0,-1,1371,834,0,0
154,190,0,0,0,0,0,0,0,0,0,-1,1378,834,0,0
161,190,0,0,0,0,0,0,0,0,0,-1,1385,834,0,0
168,190,0,0,0,0,0,0,0,0,0,-1,1392,834,0,0
175,190,0,0,0,0,0,0,0,0,0,-1,1399,834,0,0
182,190,0,0,0,0,0,0,0,0,0,-1,1406,834,0,0
189,190,0,0,0,0,0,0,0,0,0,-1,1413,834,0,0
196,190,0,0,0,0,0,0,0,0,0,-1,1420,834,0,0
203,190,0,0,0,0,0,0,0,0,0,-1,1427,834,0,0
210,190,0,0,0,0,0,0,0,0,0,-1,1434,834,0,0
217,190,0,0,0,0,0,0,0,0,0,-1,1441,834,0,0
224,190,0,0,0,0,0,0,0,0,0,-1,1448,834,0,0
231,190,0,0,0,0,0,0,0,0,0,-1,1455,834,0,0
238,190,0,0,0,0,0,0,0,0,0,-1,1462,834,0,0
245,190,0,0,0,0,0,0,0,0,0,-1,1469,834,0,0
252,190,0,0,0,0,0,0,0,0,0,-1,1476,834,0,0
259,190,0,0,0,0,0,0,0,0,0,-1,1483,834,0,0
266,190,0,0,0,0,0,0,0,0,0,-1,1490,834,0,0
273,190,0,0,0,0,0,0,0,0,0,-1,1497,834,0,0
280,190,0,0,0,0,0,0,0,0,0,-1,1504,834,0,0
287,190,0,0,0,0,0,0,0,0,0,-1,1511,834,0,0
294,190,0,0,0,0,0,0,0,0,0,-1,1518,834,0,0
301,190,0,0,0,0,0,0,0,0,0,-1,1525,834,0,0
308,190,0,0,0,0,0,0,0,0,0,-1,1532,834,0,0
315,190,0,0,0,0,0,0,0,0,0,-1,1539,834,0,0
322,190,0,0,0,0,0,0,0,0,0,-1,1546,834,0,0
329,190,0,0,0,0,0,0,0,0,0,-1,1553,834,0,0
336,190,0,0,0,0,0,0,0,0,0,-1,1560,834,0,0
343,190,0,0,0,0,0,0,0,0,0,-1,1567,834,0,0
350,190,0,0,0,0,0,0,0,0,0,-1,1574,834,0,0
357,190,0,0,0,0,0,0,0,0,0,-1,1581,834,0,0
364,190,0,0,0,0,0,0,0,0,0,-1,1588,834,0,0
371,190,0,0,0,0,0,0,0,0,0,-1,1595,834,0,0
378,190,0,0,0,0,0,0,0,0,0,-1,1602,834,0,0
385,190,0,0,0,0,0,0,0,0,0,-1,1609,834,0,0
392,190,0,0,0,0,0,0,0,0,0,-1,1616,834,0,0
399,190,0,0,0,0,0,0,0,0,0,-1,1623,834,0,0
406,190,0,0,0,0,0,0,0,0,0,-1,1630,834,0,0
413,190,0,0,0,0,0,0,0,0,0,-1,1637,834,0,0
420,190,0,0,0,0,0,0,0,0,0,-1,1644,834,0,0
427,190,0,0,0,0,0,0,0,0,0,-1,1651,834,0,0
434,190,0,0,0,0,0,0,0,0,0,-1,1658,834,0,0
441,190,0,0,0,0,0,0,0,0,0,-1,1665,834,0,0
448,190,0,0,0,0,0,0,0,0,0,-1,1672,834,0,0
455,190,0,0,0,0,0,0,0,0,0,-1,1679,834,0,0
462,190,0,0,0,0,0,0,0,0,0,-1,1686,834,0,0
469,190,0,0,0,0,0,0,0,0,0,-1,1693,834,0,0
476,190,0,0,0,0,0,0,0,0,0,-1,1700,834,0,0
483,190,0,0,0,0,0,0,0,0,0,-1,1707,834,0,0
490,190,0,0,0,0,0,0,0,0,0,-1,1714,834,0,0
497,190,0,0,0,0,0,0,0,0,0,-1,1721,834,0,0
504,190,0,0,0,0,0,0,0,0,0,-1,1728,834,0,0
511,190,0,0,0,0,0,0,0,0,0,-1,1735,834,0,0
518,190,0,0,0,0,0,0,0,0,0,-1,1742,834,0,0
525,190,0,0,0,0,0,0,0,0,0,-1,1749,834,0,0
532,190,0,0,0,0,0,0,0,0,0,-1,1756,834,0,0
539,190,0,0,0,0,0,0,0,0,0,-1,1763,834,0,0
546,190,0,0,0,0,0,0,0,0,0,-1,1770,834,0,0
553,190,0,0,0,0,0,0,0,0,0,-1,1777,834,0,0
560,190,0,0,0,0,0,0,0,0,0,-1,1784,834,0,0
567,190,0,0,0,0,0,0,0,0,0,-1,1791,834,0,0
574,190,0,0,0,0,0,0,0,0,0,-1,1798,834,0,0
581,190,0,0,0,0,0,0,0,0,0,-1,1805,834,0,0
588,190,0,0,0,0,0,0,0,0,0,-1,1812,834,0,0
595,190,0,0,0,0,0,0,0,0,0,-1,1819,834,0,0
602,190,29.1472,2.74017,0.0107974,0.00223399,-0.00112345,0.0109424,0.00208905,-0.128299,0.00670789,0.0424384,1826,834,29.1472,-2.74019
609,190,29.3972,2.5351,0.00675895,0.00243672,-0.000691057,0.00686675,0.00232892,-0.154746,0.00403232,0.0388227,1833,834,29.3972,-2.53508
616,190,29.3477,2.51447,0.00322289,0.00209162,-0.000687027,0.00354717,0.00176734,-0.441002,0.00204797,0.0383001,1840,834,29.3477,-2.51447
623,190,29.354,2.51123,3.4419e-05,0.00164004,-0.00104684,0.00215647,-0.000482008,-1.11251,0.00162236,0.037135,1847,834,29.354,-2.51123
630,190,29.3259,2.59607,-0.00231872,0.0010777,-0.00156211,0.00168689,-0.00292791,-1.19896,0.00269628,0.0386302,1854,834,29.3259,-2.59606
637,190,29.3446,2.65546,-0.00373094,0.000507652,-0.0020005,0.0013027,-0.00452599,-1.19251,0.00353256,0.0323089,1861,834,29.3446,-2.65545
644,190,29.3048,2.75403,-0.00437168,-2.75763e-05,-0.00223078,0.000913922,-0.00531318,-1.17143,0.00388278,0.0272875,1868,834,29.3049,-2.75402
651,190,29.2886,2.84546,-0.00450198,-0.000464683,-0.0023269,0.000597156,-0.00556382,-1.14269,0.00392344,0.0389972,1875,834,29.2885,-2.84544
658,190,29.4871,2.8053,0,0,0,0,0,0,0,-1,1882,834,29.4871,-2.80527
665,190,25.9916,3.05157,0,0,0,0,0,0,0,-1,1889,834,25.9916,-3.05156
672,190,23.6627,1.69824,0,0,0,0,0,0,0,-1,1896,834,23.6627,-1.69823
679,190,23.3915,1.98462,-0.00371608,-0.00124001,-0.00198198,-0.000141174,-0.00481491,-1.06457,0.00316393,0.043531,1903,834,23.3915,-1.98464
686,190,23.2057,2.1236,-0.00291001,-0.00125093,-0.00192045,1.14888e-05,-0.00417242,-0.98927,0.00278545,0.0171391,1910,834,23.2056,-2.12361
693,190,23.2155,2.3941,-0.00204833,-0.00136694,-0.00173783,6.3272e-05,-0.00347854,-0.882193,0.0023404,0.0128278,1917,834,23.2155,-2.39411
700,190,23.2034,2.69769,-0.0014162,-0.00116082,-0.00129287,1.06494e-05,-0.00258767,-0.83462,0.00172868,0.0113258,1924,834,23.2033,-2.69767
707,190,23.2277,3.00323,-0.000599983,-0.000643515,-0.000754358,0.000132923,-0.00137642,-0.770976,0.000964978,0.0134332,1931,834,23.2277,-3.00322
714,190,23.2405,3.31329,3.85273e-05,-8.45074e-05,-0.000834454,0.000813729,-0.000859709,-0.748604,0.000966281,0.011963,1938,834,23.2405,-3.3133
721,190,23.2186,3.62567,0.00159472,0.000283272,-0.000954771,0.00209725,-0.000219262,-0.484497,0.00147669,0.0107447,1945,834,23.2187,-3.62566
728,190,23.1881,3.9198,0.00305191,0.000746958,-0.00108829,0.00348455,0.000314321,-0.378382,0.00222567,0.0124741,1952,834,23.1881,-3.91978
735,190,23.2023,4.19434,0.00492779,0.00112422,-0.00134702,0.0053565,0.000695503,-0.308134,0.00336323,0.0121521,1959,834,23.2023,-4.19432
742,190,23.1653,4.55524,0.00743327,0.00132319,-0.00181564,0.00793207,0.00082439,-0.268112,0.0050358,0.0165941,1966,834,23.1652,-4.55521
749,190,23.1124,5.0022,0.0110175,0.00127735,-0.00255934,0.0116491,0.000645801,-0.241928,0.00755999,0.0405239,1973,834,23.1125,-5.00221
756,190,23.1394,5.23767,0.0163738,0.000848455,-0.00377943,0.0172449,-2.27112e-05,-0.226545,0.0115042,0.0483462,1980,834,23.1394,-5.23768
763,190,23.1272,5.48096,0.0241438,-0.000189935,-0.00580709,0.0254586,-0.00150472,-0.222657,0.0174955,0.0479212,1987,834,23.1272,-5.48096
770,190,23.1848,5.99109,0,0,0,0,0,0,0,-1,1994,834,23.1848,-5.99111
777,190,22.9968,7.18555,0,0,0,0,0,0,0,-1,2001,834,22.9968,-7.18552
784,190,0,0,0,0,0,0,0,0,0,-1,2008,834,0,0
791,190,0,0,0,0,0,0,0,0,0,-1,2015,834,0,0
798,190,0,0,0,0,0,0,0,0,0,-1,2022,834,0,0
805,190,0,0,0,0,0,0,0,0,0,-1,2029,834,0,0
812,190,0,0,0,0,0,0,0,0,0,-1,2036,834,0,0
-700,183,0,0,0,0,0,0,0,0,0,-1,524,841,0,0
-693,183,0,0,0,0,0,0,0,0,0,-1,531,841,0,0
-686,183,0,0,0,0,0,0,0,0,0,-1,538,841,0,0
-679,183,0,0,0,0,0,0,0,0,0,-1,545,841,0,0
-672,183,0,0,0,0,0,0,0,0,0,-1,552,841,0,0
-665,183,0,0,0,0,0,0,0,0,0,-1,559,841,0,0
-658,183,-17.9665,3.49194,0,0,0,0,0,0,0,-1,566,841,-17.9665,-3.49194
-651,183,-15.153,2.48755,0,0,0,0,0,0,0,-1,573,841,-15.153,-2.48756
-644,183,-15.4942,2.47003,0.0330519,0.0233533,0.00949357,0.038863,0.0175422,0.549273,0.0224729,0.0471997,580,841,-15.4942,-2.47002
-637,183,-14.8077,4.78595,0.0223889,0.0149032,-0.00179114,0.0227954,0.0144967,-0.22317,0.0133221,0.0441902,587,841,-14.8077,-4.78596
-630,183,-14.8098,4.43317,0.0151403,0.00889285,-0.00793891,0.0205479,0.00348521,-0.597967,0.0126973,0.0409695,594,841,-14.8097,-4.43319
-623,183,-14.8156,3.85004,0.0101988,0.00482223,-0.0105471,0.0183948,-0.0033738,-0.660613,0.0135288,0.0435478,601,841,-14.8156,-3.85001
-616,183,-15.9036,2.28693,0.00682569,0.00218813,-0.0108053,0.0155582,-0.00654439,-0.679703,0.0131099,0.0385924,608,841,-15.9036,-2.2869
-609,183,-15.8391,1.93787,0.00398103,0.000541578,-0.00985964,0.0122698,-0.0077472,-0.699057,0.0116547,0.0164594,615,841,-15.839,-1.93784
-602,183,-15.859,1.68646,0.00188848,-0.000570043,-0.0083447,0.00909398,-0.00777554,-0.712269,0.00974953,0.0111623,622,841,-15.859,-1.68644
-595,183,-15.8849,1.39716,0.00107877,-0.000948452,-0.00591757,0.00606891,-0.00593859,-0.700577,0.00693267,0.0106289,629,841,-15.8849,-1.39717
-588,183,-15.8777,1.12714,0.000171211,-0.00191439,-0.00457064,0.0038165,-0.00555968,-0.673242,0.00544443,0.0107529,636,841,-15.8777,-1.12712
-581,183,-15.8961,0.855957,-0.000102725,-0.00229405,-0.0024972,0.00152861,-0.00392538,-0.578666,0.00324863,0.0122841,643,841,-15.8961,-0.855987
-574,183,-15.8884,0.581665,-0.000217263,-0.00130981,-0.000348445,-0.000115595,-0.00141148,-0.283896,0.000904917,0.01234,650,841,-15.8884,-0.581671
-567,183,-15.8098,0.304871,6.16611e-05,-0.000683827,0.0010113,0.000766723,-0.00138889,0.608833,0.0012617,0.0249743,657,841,-15.8098,-0.30488
-560,183,-15.9673,0.0671387,0.000144058,-0.000350488,0.00124315,0.00116429,-0.00137072,0.687226,0.00146521,0.0291358,664,841,-15.9673,-0.0671674
-553,183,-16.1947,-0.364868,0,0,0,0,0,0,0,-1,671,841,-16.1947,0.364883
-546,183,-16.1223,-0.556824,0,0,0,0,0,0,0,-1,678,841,-16.1223,0.556841
-539,183,-16.4797,-0.951233,0,0,0,0,0,0,0,-1,685,841,-16.4797,0.951246
-532,183,-20.5794,1.16638,0,0,0,0,0,0,0,-1,692,841,-20.5794,-1.16639
-525,183,-20.504,1.25195,-0.000959932,0.003757,0.000569522,0.00382479,-0.00102772,1.45232,0.00295267,0.0498383,699,841,-20.504,-1.25197
-518,183,-20.7086,0.824341,0,0,0,0,0,0,0,-1,706,841,-20.7086,-0.824316
-511,183,-20.5016,0.78363,0,0,0,0,0,0,0,-1,713,841,-20.5016,-0.783623
-504,183,-20.6573,0.834595,0,0,0,0,0,0,0,-1,720,841,-20.6573,-0.834597
-497,183,-20.813,0.885559,0,0,0,0,0,0,0,-1,727,841,-20.8131,-0.885571
-490,183,-20.6924,0.620483,0,0,0,0,0,0,0,-1,734,841,-20.6924,-0.620481
-483,183,0,0,0,0,0,0,0,0,0,-1,741,841,0,0
-476,183,0,0,0,0,0,0,0,0,0,-1,748,841,0,0
-469,183,0,0,0,0,0,0,0,0,0,-1,755,841,0,0
-462,183,0,0,0,0,0,0,0,0,0,-1,762,841,0,0
-455,183,0,0,0,0,0,0,0,0,0,-1,769,841,0,0
-448,183,0,0,0,0,0,0,0,0,0,-1,776,841,0,0
-441,183,0,0,0,0,0,0,0,0,0,-1,783,841,0,0
-434,183,0,0,0,0,0,0,0,0,0,-1,790,841,0,0
-427,183,0,0,0,0,0,0,0,0,0,-1,797,841,0,0
-420,183,0,0,0,0,0,0,0,0,0,-1,804,841,0,0
-413,183,0,0,0,0,0,0,0,0,0,-1,811,841,0,0
-406,183,0,0,0,0,0,0,0,0,0,-1,818,841,0,0
-399,183,0,0,0,0,0,0,0,0,0,-1,825,841,0,0
-392,183,0,0,0,0,0,0,0,0,0,-1,832,841,0,0
-385,183,0,0,0,0,0,0,0,0,0,-1,839,841,0,0
-378,183,0,0,0,0,0,0,0,0,0,-1,846,841,0,0
-371,183,0,0,0,0,0,0,0,0,0,-1,853,841,0,0
-364,183,0,0,0,0,0,0,0,0,0,-1,860,841,0,0
-357,183,0,0,0,0,0,0,0,0,0,-1,867,841,0,0
-350,183,0,0,0,0,0,0,0,0,0,-1,874,841,0,0
-343,183,0,0,0,0,0,0,0,0,0,-1,881,841,0,0
-336,183,0,0,0,0,0,0,0,0,0,-1,888,841,0,0
-329,183,0,0,0,0,0,0,0,0,0,-1,895,841,0,0
-322,183,0,0,0,0,0,0,0,0,0,-1,902,841,0,0
-315,183,0,0,0,0,0,0,0,0,0,-1,909,841,0,0
-308,183,0,0,0,0,0,0,0,0,0,-1,916,841,0,0
-301,183,0,0,0,0,0,0,0,0,0,-1,923,841,0,0
-294,183,0,0,0,0,0,0,0,0,0,-1,930,841,0,0
-287,183,0,0,0,0,0,0,0,0,0,-1,937,841,0,0
-280,183,0,0,0,0,0,0,0,0,0,-1,944,841,0,0
-273,183,0,0,0,0,0,0,0,0,0,-1,951,841,0,0
-266,183,0,0,0,0,0,0,0,0,0,-1,958,841,0,0
-259,183,0,0,0,0,0,0,0,0,0,-1,965,841,0,0
-252,183,0,0,0,0,0,0,0,0,0,-1,972,841,0,0
-245,183,0,0,0,0,0,0,0,0,0,-1,979,841,0,0
-238,183,0,0,0,0,0,0,0,0,0,-1,986,841,0,0
-231,183,0,0,0,0,0,0,0,0,0,-1,993,841,0,0
-224,183,0,0,0,0,0,0,0,0,0,-1,1000,841,0,0
-217,183,0,0,0,0,0,0,0,0,0,-1,1007,841,0,0
-210,183,0,0,0,0,0,0,0,0,0,-1,1014,841,0,0
-203,183,0,0,0,0,0,0,0,0,0,-1,1021,841,0,0
-196,183,0,0,0,0,0,0,0,0,0,-1,1028,841,0,0
-189,183,0,0,0,0,0,0,0,0,0,-1,1035,841,0,0
-182,183,0,0,0,0,0,0,0,0,0,-1,1042,841,0,0
-175,183,0,0,0,0,0,0,0,0,0,-1,1049,841,0,0
-168,183,0,0,0,0,0,0,0,0,0,-1,1056,841,0,0
-161,183,0,0,0,0,0,0,0,0,0,-1,1063,841,0,0
-154,183,0,0,0,0,0,0,0,0,0,-1,1070,841,0,0
-147,183,0,0,0,0,0,0,0,0,0,-1,1077,841,0,0
-140,183,0,0,0,0,0,0,0,0,0,-1,1084,841,0,0
-133,183,0,0,0,0,0,0,0,0,0,-1,1091,841,0,0
-126,183,0,0,0,0,0,0,0,0,0,-1,1098,841,0,0
-119,183,0,0,0,0,0,0,0,0,0,-1,1105,841,0,0
-112,183,0,0,0,0,0,0,0,0,0,-1,1112,841,0,0
-105,183,0,0,0,0,0,0,0,0,0,-1,1119,841,0,0
-98,183,0,0,0,0,0,0,0,0,0,-1,1126,841,0,0
-91,183,0,0,0,0,0,0,0,0,0,-1,1133,841,0,0
-84,183,0,0,0,0,0,0,0,0,0,-1,1140,841,0,0
-77,183,0,0,0,0,0,0,0,0,0,-1,1147,841,0,0
-70,183,0,0,0,0,0,0,0,0,0,-1,1154,841,0,0
-63,183,0,0,0,0,0,0,0,0,0,-1,1161,841,0,0
-56,183,0,0,0,0,0,0,0,0,0,-1,1168,841,0,0
-49,183,0,0,0,0,0,0,0,0,0,-1,1175,841,0,0
-42,183,0,0,0,0,0,0,0,0,0,-1,1182,841,0,0
-35,183,0,0,0,0,0,0,0,0,0,-1,1189,841,0,0
-28,183,0,0,0,0,0,0,0,0,0,-1,1196,841,0,0
-21,183,0,0,0,0,0,0,0,0,0,-1,1203,841,0,0
-14,183,0,0,0,0,0,0,0,0,0,-1,1210,841,0,0
-7,183,0,0,0,0,0,0,0,0,0,-1,1217,841,0,0
0,183,0,0,0,0,0,0,0,0,0,-1,1224,841,0,0
7,183,0,0,0,0,0,0,0,0,0,-1,1231,841,0,0
14,183,0,0,0,0,0,0,0,0,0,-1,1238,841,0,0
21,183,0,0,0,0,0,0,0,0,0,-1,1245,841,0,0
28,183,0,0,0,0,0,0,0,0,0,-1,1252,841,0,0
35,183,0,0,0,0,0,0,0,0,0,-1,1259,841,0,0
42,183,0,0,0,0,0,0,0,0,0,-1,1266,841,0,0
49,183,0,0,0,0,0,0,0,0,0,-1,1273,841,0,0
56,183,0,0,0,0,0,0,0,0,0,-1,1280,841,0,0
63,183,0,0,0,0,0,0,0,0,0,-1,1287,841,0,0
70,183,0,0,0,0,0,0,0,0,0,-1,1294,841,0,0
77,183,0,0,0,0,0,0,0,0,0,-1,1301,841,0,0
84,183,0,0,0,0,0,0,0,0,0,-1,1308,841,0,0
91,183,0,0,0,0,0,0,0,0,0,-1,1315,841,0,0
98,183,0,0,0,0,0,0,0,0,0,-1,1322,841,0,0
105,183,0,0,0,0,0,0,0,0,0,-1,1329,841,0,0
112,183,0,0,0,0,0,0,0,0,0,-1,1336,841,0,0
119,183,0,0,0,0,0,0,0,0,0,-1,1343,841,0,0
126,183,0,0,0,0,0,0,0,0,0,-1,1350,841,0,0
133,183,0,0,0,0,0,0,0,0,0,-1,1357,841,0,0
140,183,0,0,0,0,0,0,0,0,0,-1,1364,841,0,0
147,183,0,0,0,0,0,0,0,0,0,-1,1371,841,0,0
154,183,0,0,0,0,0,0,0,0,0,-1,1378,841,0,0
161,183,0,0,0,0,0,0,0,0,0,-1,1385,841,0,0
168,183,0,0,0,0,0,0,0,0,0,-1,1392,841,0,0
175,183,0,0,0,0,0,0,0,0,0,-1,1399,841,0,0
182,183,0,0,0,0,0,0,0,0,0,-1,1406,841,0,0
189,183,0,0,0,0,0,0,0,0,0,-1,1413,841,0,0
196,183,0,0,0,0,0,0,0,0,0,-1,1420,841,0,0
203,183,0,0,0,0,0,0,0,0,0,-1,1427,841,0,0
210,183,0,0,0,0,0,0,0,0,0,-1,1434,841,0,0
217,183,0,0,0,0,0,0,0,0,0,-1,1441,841,0,0
224,183,0,0,0,0,0,0,0,0,0,-1,1448,841,0,0
231,183,0,0,0,0,0,0,0,0,0,-1,1455,841,0,0
238,183,0,0,0,0,0,0,0,0,0,-1,1462,841,0,0
245,183,0,0,0,0,0,0,0,0,0,-1,1469,841,0,0
252,183,0,0,0,0,0,0,0,0,0,-1,1476,841,0,0
259,183,0,0,0,0,0,0,0,0,0,-1,1483,841,0,0
266,183,0,0,0,0,0,0,0,0,0,-1,1490,841,0,0
273,183,0,0,0,0,0,0,0,0,0,-1,1497,841,0,0
280,183,0,0,0,0,0,0,0,0,0,-1,1504,841,0,0
287,183,0,0,0,0,0,0,0,0,0,-1,1511,841,0,0
294,183,0,0,0,0,0,0,0,0,0,-1,1518,841,0,0
301,183,0,0,0,0,0,0,0,0,0,-1,1525,841,0,0
308,183,0,0,0,0,0,0,0,0,0,-1,1532,841,0,0
315,183,0,0,0,0,0,0,0,0,0,-1,1539,841,0,0
322,183,0,0,0,0,0,0,0,0,0,-1,1546,841,0,0
329,183,0,0,0,0,0,0,0,0,0,-1,1553,841,0,0
336,183,0,0,0,0,0,0,0,0,0,-1,1560,841,0,0
343,183,0,0,0,0,0,0,0,0,0,-1,1567,841,0,0
350,183,0,0,0,0,0,0,0,0,0,-1,1574,841,0,0
357,183,0,0,0,0,0,0,0,0,0,-1,1581,841,0,0
364,183,0,0,0,0,0,0,0,0,0,-1,1588,841,0,0
371,183,0,0,0,0,0,0,0,0,0,-1,1595,841,0,0
378,183,0,0,0,0,0,0,0,0,0,-1,1602,841,0,0
385,183,0,0,0,0,0,0,0,0,0,-1,1609,841,0,0
392,183,0,0,0,0,0,0,0,0,0,-1,1616,841,0,0
399,183,0,0,0,0,0,0,0,0,0,-1,1623,841,0,0
406,183,0,0,0,0,0,0,0,0,0,-1,1630,841,0,0
413,183,0,0,0,0,0,0,0,0,0,-1,1637,841,0,0
420,183,0,0,0,0,0,0,0,0,0,-1,1644,841,0,0
427,183,0,0,0,0,0,0,0,0,0,-1,1651,841,0,0
434,183,0,0,0,0,0,0,0,0,0,-1,1658,841,0,0
441,183,0,0,0,0,0,0,0,0,0,-1,1665,841,0,0
448,183,0,0,0,0,0,0,0,0,0,-1,1672,841,0,0
455,183,0,0,0,0,0,0,0,0,0,-1,1679,841,0,0
462,183,0,0,0,0,0,0,0,0,0,-1,1686,841,0,0
469,183,0,0,0,0,0,0,0,0,0,-1,1693,841,0,0
476,183,0,0,0,0,0,0,0,0,0,-1,1700,841,0,0
483,183,0,0,0,0,0,0,0,0,0,-1,1707,841,0,0
490,183,0,0,0,0,0,0,0,0,0,-1,1714,841,0,0
497,183,0,0,0,0,0,0,0,0,0,-1,1721,841,0,0
504,183,0,0,0,0,0,0,0,0,0,-1,1728,841,0,0
511,183,0,0,0,0,0,0,0,0,0,-1,1735,841,0,0
518,183,0,0,0,0,0,0,0,0,0,-1,1742,841,0,0
525,183,0,0,0,0,0,0,0,0,0,-1,1749,841,0,0
532,183,0,0,0,0,0,0,0,0,0,-1,1756,841,0,0
539,183,0,0,0,0,0,0,0,0,0,-1,1763,841,0,0
546,183,0,0,0,0,0,0,0,0,0,-1,1770,841,0,0
553,183,0,0,0,0,0,0,0,0,0,-1,1777,841,0,0
560,183,0,0,0,0,0,0,0,0,0,-1,1784,841,0,0
567,183,0,0,0,0,0,0,0,0,0,-1,1791,841,0,0
574,183,0,0,0,0,0,0,0,0,0,-1,1798,841,0,0
581,183,0,0,0,0,0,0,0,0,0,-1,1805,841,0,0
588,183,0,0,0,0,0,0,0,0,0,-1,1812,841,0,0
595,183,0,0,0,0,0,0,0,0,0,-1,1819,841,0,0
602,183,0,0,0,0,0,0,0,0,0,-1,1826,841,0,0
609,183,29.2532,2.633,0.00810996,0.00208664,-0.00153127,0.00847689,0.00171971,-0.235191,0.00517418,0.037842,1833,841,29.2531,-2.633
616,183,29.2928,2.64868,0.00481489,0.00171482,-0.00139147,0.00534784,0.00118187,-0.365773,0.00324385,0.0363998,1840,841,29.2929,-2.6487
623,183,29.3268,2.63257,0.00175385,0.00136508,-0.00148703,0.00305914,5.97851e-05,-0.720407,0.00201979,0.0404427,1847,841,29.3268,-2.63259
630,183,29.2367,2.63464,-0.000681039,0.000977373,-0.00172622,0.00206322,-0.00176688,-1.0093,0.00221351,0.0392194,1854,841,29.2367,-2.63462
637,183,29.2379,2.66461,-0.00230678,0.000535044,-0.00194486,0.00152276,-0.00329449,-1.10088,0.00284325,0.0337916,1861,841,29.238,-2.66461
644,183,29.2008,2.7334,-0.00316051,9.63049e-05,-0.00201518,0.00105878,-0.00412298,-1.12522,0.00316125,0.0279648,1868,841,29.2008,-2.73341
651,183,29.306,2.70862,-0.00345078,-0.000270151,-0.00199765,0.000692907,-0.00441384,-1.12158,0.00319865,0.0250505,1875,841,29.306,-2.70864
658,183,29.5012,2.65723,-0.00360907,-0.000539986,-0.00192559,0.000387728,-0.00453678,-1.12183,0.0031617,0.0423773,1882,841,29.5012,-2.65724
665,183,29.6824,2.59631,0,0,0,0,0,0,0,-1,1889,841,29.6824,-2.59632
672,183,23.636,1.84906,0,0,0,0,0,0,0,-1,1896,841,23.636,-1.84907
679,183,23.6304,1.96735,-0.00318096,-0.000923393,-0.00147179,-0.000197365,-0.00390699,-1.11253,0.00254142,0.046379,1903,841,23.6304,-1.96735
686,183,23.6028,2.12219,-0.00257078,-0.000920105,-0.00139746,-0.000122457,-0.00336842,-1.05214,0.00220593,0.021048,1910,841,23.6028,-2.12222
693,183,23.5913,2.41718,-0.00189169,-0.00105094,-0.00129041,-0.000114162,-0.00282847,-0.942863,0.00184877,0.0165777,1917,841,23.5913,-2.41717
700,183,23.5391,2.73346,-0.00139426,-0.000933407,-0.000981353,-0.000155789,-0.00217187,-0.90071,0.00139888,0.0153017,1924,841,23.539,-2.73344
707,183,23.5299,3.01996,-0.000723269,-0.000532798,-0.00059136,-2.90542e-05,-0.00122701,-0.865235,0.000808498,0.0123896,1931,841,23.5299,-3.01996
714,183,23.5558,3.31061,-0.000182563,-8.5255e-05,-0.000778091,0.000645702,-0.00091352,-0.816622,0.000904633,0.0158486,1938,841,23.5558,-3.3106
721,183,23.5443,3.6153,0.0012029,0.00022306,-0.000949676,0.00178158,-0.00035562,-0.547262,0.0013223,0.0137224,1945,841,23.5444,-3.6153
728,183,23.4972,3.90509,0.00250206,0.000654836,-0.00111308,0.00302482,0.000132072,-0.439079,0.001974,0.0119274,1952,841,23.4972,-3.90506
735,183,23.498,4.17523,0.00419904,0.00104758,-0.00139293,0.00472645,0.000520173,-0.361949,0.00299268,0.0118273,1959,841,23.498,-4.17523
742,183,23.4968,4.49475,0.00643844,0.00128437,-0.00188194,0.00705245,0.00067035,-0.315378,0.00449488,0.0107783,1966,841,23.4968,-4.49475
749,183,23.4635,4.92285,0.00962505,0.00130416,-0.00263539,0.0103895,0.000539711,-0.282322,0.00675362,0.0304089,1973,841,23.4635,-4.92283
756,183,23.4664,5.3385,0.0144308,0.000986013,-0.00383285,0.0154467,-2.98936e-05,-0.259095,0.0103078,0.0470563,1980,841,23.4664,-5.33852
763,183,23.4512,5.76007,0,0,0,0,0,0,0,-1,1987,841,23.4511,-5.76009
770,183,23.448,6.50299,0.0316382,-0.00139966,-0.00879045,0.0338315,-0.00359294,-0.244515,0.0238424,0.04868,1994,841,23.448,-6.50297
777,183,24.5999,7.31122,0,0,0,0,0,0,0,-1,2001,841,24.5999,-7.31122
784,183,0,0,0,0,0,0,0,0,0,-1,2008,841,0,0
791,183,0,0,0,0,0,0,0,0,0,-1,2015,841,0,0
798,183,0,0,0,0,0,0,0,0,0,-1,2022,841,0,0
805,183,0,0,0,0,0,0,0,0,0,-1,2029,841,0,0
812,183,0,0,0,0,0,0,0,0,0,-1,2036,841,0,0
-700,176,0,0,0,0,0,0,0,0,0,-1,524,848,0,0
-693,176,0,0,0,0,0,0,0,0,0,-1,531,848,0,0
-686,176,0,0,0,0,0,0,0,0,0,-1,538,848,0,0
-679,176,0,0,0,0,0,0,0,0,0,-1,545,848,0,0
-672,176,0,0,0,0,0,0,0,0,0,-1,552,848,0,0
-665,176,-18.7303,3.20587,0,0,0,0,0,0,0,-1,559,848,-18.7303,-3.20587
-658,176,-18.0312,3.37195,0,0,0,0,0,0,0,-1,566,848,-18.0312,-3.37194
-651,176,-15.2787,2.52844,0,0,0,0,0,0,0,-1,573,848,-15.2787,-2.52846
-644,176,-15.5699,2.49542,0.0429747,0.0280552,0.0205187,0.0573476,0.0136823,0.611048,0.0345852,0.045619,580,848,-15.5699,-2.49541
-637,176,-14.3328,5.29633,0.0287952,0.0190102,0.00771652,0.0330395,0.0147659,0.502864,0.0191112,0.0442669,587,848,-14.3328,-5.29632
-630,176,-14.2529,4.60724,0.0188564,0.0122413,-0.000161678,0.0188603,0.0122373,-0.0244213,0.0110487,0.0447497,594,848,-14.2529,-4.60725
-623,176,-14.5764,4.21594,0,0,0,0,0,0,0,-1,601,848,-14.5763,-4.21597
-616,176,-16.1546,2.19617,0.00739957,0.0040366,-0.00615709,0.0121007,-0.000664488,-0.6521,0.00829747,0.0281083,608,848,-16.1546,-2.1962
-609,176,-16.1422,1.95575,0.0036685,0.00177089,-0.00646372,0.00925269,-0.0038133,-0.712524,0.00775848,0.0118145,615,848,-16.1422,-1.95574
-602,176,-16.1568,1.67871,0.00107855,8.03615e-05,-0.00602801,0.00662809,-0.00546918,-0.744094,0.00699503,0.0119219,622,848,-16.1568,-1.6787
-595,176,-16.1614,1.39587,0.000172909,-0.000714082,-0.00431724,0.00406937,-0.00461054,-0.734214,0.0050146,0.010922,629,848,-16.1614,-1.39587
-588,176,-16.155,1.11908,-0.000677449,-0.0018887,-0.00350224,0.00227114,-0.00483729,-0.699782,0.00419225,0.0110219,636,848,-16.1549,-1.1191
-581,176,-16.1697,0.872681,-0.000778379,-0.00243687,-0.00192939,0.000492417,-0.00370767,-0.582434,0.0026512,0.0105,643,848,-16.1697,-0.872678
-574,176,-16.1718,0.595886,-0.000704346,-0.00159059,-0.00020516,-0.000659157,-0.00163578,-0.2168,0.000950329,0.0135785,650,848,-16.1718,-0.595906
-567,176,-16.0988,0.413208,-0.000203348,-0.00103098,0.000983594,0.000449936,-0.00168426,0.586279,0.00129906,0.0331858,657,848,-16.0988,-0.413187
-560,176,-16.2679,0.108398,0.000150464,-0.000769342,0.00122839,0.00100222,-0.0016211,0.606278,0.00152856,0.0254462,664,848,-16.2679,-0.108424
-553,176,-16.1464,-0.292847,0.000205781,-0.000493798,0.00117939,0.00108616,-0.00137417,0.641237,0.00142371,0.0461661,671,848,-16.1465,0.292873
-546,176,-15.832,-0.760437,0,0,0,0,0,0,0,-1,678,848,-15.832,0.760453
-539,176,-20.823,0.650818,0,0,0,0,0,0,0,-1,685,848,-20.823,-0.650812
-532,176,-20.7601,0.768799,0.00016159,0.00226257,0.00096723,0.00264004,-0.000215877,1.19872,0.00183622,0.0452394,692,848,-20.7601,-0.768813
-525,176,-20.6257,1.00897,5.98068e-05,0.00318692,0.000808395,0.00338353,-0.000136811,1.33221,0.00230265,0.0460127,699,848,-20.6257,-1.00898
-518,176,-20.4963,1.05756,0,0,0,0,0,0,0,-1,706,848,-20.4963,-1.05755
-511,176,-20.5717,0.59906,-0.00031421,0.00488093,0.000353875,0.00490492,-0.000338204,1.5031,0.00338832,0.0380688,713,848,-20.5717,-0.599052
-504,176,-20.6823,0.476624,-0.000350286,0.00486377,4.30752e-05,0.00486413,-0.000350642,1.56254,0.00336573,0.0429391,720,848,-20.6823,-0.476605
-497,176,-20.7111,0.721741,0.000566303,0.00367969,-0.000401518,0.00373064,0.000515355,-1.44458,0.00233435,0.0446341,727,848,-20.7111,-0.721714
-490,176,-20.617,0.782898,0,0,0,0,0,0,0,-1,734,848,-20.617,-0.782913
-483,176,0,0,0,0,0,0,0,0,0,-1,741,848,0,0
-476,176,0,0,0,0,0,0,0,0,0,-1,748,848,0,0
-469,176,0,0,0,0,0,0,0,0,0,-1,755,848,0,0
-462,176,0,0,0,0,0,0,0,0,0,-1,762,848,0,0
-455,176,0,0,0,0,0,0,0,0,0,-1,769,848,0,0
-448,176,0,0,0,0,0,0,0,0,0,-1,776,848,0,0
-441,176,0,0,0,0,0,0,0,0,0,-1,783,848,0,0
-434,176,0,0,0,0,0,0,0,0,0,-1,790,848,0,0
-427,176,0,0,0,0,0,0,0,0,0,-1,797,848,0,0
-420,176,0,0,0,0,0,0,0,0,0,-1,804,848,0,0
-413,176,0,0,0,0,0,0,0,0,0,-1,811,848,0,0
-406,176,0,0,0,0,0,0,0,0,0,-1,818,848,0,0
-399,176,0,0,0,0,0,0,0,0,0,-1,825,848,0,0
-392,176,0,0,0,0,0,0,0,0,0,-1,832,848,0,0
-385,176,0,0,0,0,0,0,0,0,0,-1,839,848,0,0
-378,176,0,0,0,0,0,0,0,0,0,-1,846,848,0,0
-371,176,0,0,0,0,0,0,0,0,0,-1,853,848,0,0
-364,176,0,0,0,0,0,0,0,0,0,-1,860,848,0,0
-357,176,0,0,0,0,0,0,0,0,0,-1,867,848,0,0
-350,176,0,0,0,0,0,0,0,0,0,-1,874,848,0,0
-343,176,0,0,0,0,0,0,0,0,0,-1,881,848,0,0
-336,176,0,0,0,0,0,0,0,0,0,-1,888,848,0,0
-329,176,0,0,0,0,0,0,0,0,0,-1,895,848,0,0
-322,176,0,0,0,0,0,0,0,0,0,-1,902,848,0,0
-315,176,0,0,0,0,0,0,0,0,0,-1,909,848,0,0
-308,176,0,0,0,0,0,0,0,0,0,-1,916,848,0,0
-301,176,0,0,0,0,0,0,0,0,0,-1,923,848,0,0
-294,176,0,0,0,0,0,0,0,0,0,-1,930,848,0,0
-287,176,0,0,0,0,0,0,0,0,0,-1,937,848,0,0
-280,176,0,0,0,0,0,0,0,0,0,-1,944,848,0,0
-273,176,0,0,0,0,0,0,0,0,0,-1,951,848,0,0
-266,176,0,0,0,0,0,0,0,0,0,-1,958,848,0,0
-259,176,0,0,0,0,0,0,0,0,0,-1,965,848,0,0
-252,176,0,0,0,0,0,0,0,0,0,-1,972,848,0,0
-245,176,0,0,0,0,0,0,0,0,0,-1,979,848,0,0
-238,176,0,0,0,0,0,0,0,0,0,-1,986,848,0,0
-231,176,0,0,0,0,0,0,0,0,0,-1,993,848,0,0
-224,176,0,0,0,0,0,0,0,0,0,-1,1000,848,0,0
-217,176,0,0,0,0,0,0,0,0,0,-1,1007,848,0,0
-210,176,0,0,0,0,0,0,0,0,0,-1,1014,848,0,0
-203,176,0,0,0,0,0,0,0,0,0,-1,1021,848,0,0
-196,176,0,0,0,0,0,0,0,0,0,-1,1028,848,0,0
-189,176,0,0,0,0,0,0,0,0,0,-1,1035,848,0,0
-182,176,0,0,0,0,0,0,0,0,0,-1,1042,848,0,0
-175,176,0,0,0,0,0,0,0,0,0,-1,1049,848,0,0
-168,176,0,0,0,0,0,0,0,0,0,-1,1056,848,0,0
-161,176,0,0,0,0,0,0,0,0,0,-1,1063,848,0,0
-154,176,0,0,0,0,0,0,0,0,0,-1,1070,848,0,0
-147,176,0,0,0,0,0,0,0,0,0,-1,1077,848,0,0
-140,176,0,0,0,0,0,0,0,0,0,-1,1084,848,0,0
-133,176,0,0,0,0,0,0,0,0,0,-1,1091,848,0,0
-126,176,0,0,0,0,0,0,0,0,0,-1,1098,848,0,0
-119,176,0,0,0,0,0,0,0,0,0,-1,1105,848,0,0
-112,176,0,0,0,0,0,0,0,0,0,-1,1112,848,0,0
-105,176,0,0,0,0,0,0,0,0,0,-1,1119,848,0,0
-98,176,0,0,0,0,0,0,0,0,0,-1,1126,848,0,0
-91,176,0,0,0,0,0,0,0,0,0,-1,1133,848,0,0
-84,176,0,0,0,0,0,0,0,0,0,-1,1140,848,0,0
-77,176,0,0,0,0,0,0,0,0,0,-1,1147,848,0,0
-70,176,0,0,0,0,0,0,0,0,0,-1,1154,848,0,0
-63,176,0,0,0,0,0,0,0,0,0,-1,1161,848,0,0
-56,176,0,0,0,0,0,0,0,0,0,-1,1168,848,0,0
-49,176,0,0,0,0,0,0,0,0,0,-1,1175,848,0,0
-42,176,0,0,0,0,0,0,0,0,0,-1,1182,848,0,0
-35,176,0,0,0,0,0,0,0,0,0,-1,1189,848,0,0
-28,176,0,0,0,0,0,0,0,0,0,-1,1196,848,0,0
-21,176,0,0,0,0,0,0,0,0,0,-1,1203,848,0,0
-14,176,0,0,0,0,0,0,0,0,0,-1,1210,848,0,0
-7,176,0,0,0,0,0,0,0,0,0,-1,1217,848,0,0
0,176,0,0,0,0,0,0,0,0,0,-1,1224,848,0,0
7,176,0,0,0,0,0,0,0,0,0,-1,1231,848,0,0
14,176,0,0,0,0,0,0,0,0,0,-1,1238,848,0,0
21,176,0,0,0,0,0,0,0,0,0,-1,1245,848,0,0
28,176,0,0,0,0,0,0,0,0,0,-1,1252,848,0,0
35,176,0,0,0,0,0,0,0,0,0,-1,1259,848,0,0
42,176,0,0,0,0,0,0,0,0,0,-1,1266,848,0,0
49,176,0,0,0,0,0,0,0,0,0,-1,1273,848,0,0
56,176,0,0,0,0,0,0,0,0,0,-1,1280,848,0,0
63,176,0,0,0,0,0,0,0,0,0,-1,1287,848,0,0
70,176,0,0,0,0,0,0,0,0,0,-1,1294,848,0,0
77,176,0,0,0,0,0,0,0,0,0,-1,1301,848,0,0
84,176,0,0,0,0,0,0,0,0,0,-1,1308,848,0,0
91,176,0,0,0,0,0,0,0,0,0,-1,1315,848,0,0
98,176,0,0,0,0,0,0,0,0,0,-1,1322,848,0,0
105,176,0,0,0,0,0,0,0,0,0,-1,1329,848,0,0
112,176,0,0,0,0,0,0,0,0,0,-1,1336,848,0,0
119,176,0,0,0,0,0,0,0,0,0,-1,1343,848,0,0
126,176,0,0,0,0,0,0,0,0,0,-1,1350,848,0,0
133,176,0,0,0,0,0,0,0,0,0,-1,1357,848,0,0
140,176,0,0,0,0,0,0,0,0,0,-1,1364,848,0,0
147,176,0,0,0,0,0,0,0,0,0,-1,1371,848,0,0
154,176,0,0,0,0,0,0,0,0,0,-1,1378,848,0,0
161,176,0,0,0,0,0,0,0,0,0,-1,1385,848,0,0
168,176,0,0,0,0,0,0,0,0,0,-1,1392,848,0,0
175,176,0,0,0,0,0,0,0,0,0,-1,1399,848,0,0
182,176,0,0,0,0,0,0,0,0,0,-1,1406,848,0,0
189,176,0,0,0,0,0,0,0,0,0,-1,1413,848,0,0
196,176,0,0,0,0,0,0,0,0,0,-1,1420,848,0,0
203,176,0,0,0,0,0,0,0,0,0,-1,1427,848,0,0
210,176,0,0,0,0,0,0,0,0,0,-1,1434,848,0,0
217,176,0,0,0,0,0,0,0,0,0,-1,1441,848,0,0
224,176,0,0,0,0,0,0,0,0,0,-1,1448,848,0,0
231,176,0,0,0,0,0,0,0,0,0,-1,1455,848,0,0
238,176,0,0,0,0,0,0,0,0,0,-1,1462,848,0,0
245,176,0,0,0,0,0,0,0,0,0,-1,1469,848,0,0
252,176,0,0,0,0,0,0,0,0,0,-1,1476,848,0,0
259,176,0,0,0,0,0,0,0,0,0,-1,1483,848,0,0
266,176,0,0,0,0,0,0,0,0,0,-1,1490,848,0,0
273,176,0,0,0,0,0,0,0,0,0,-1,1497,848,0,0
280,176,0,0,0,0,0,0,0,0,0,-1,1504,848,0,0
287,176,0,0,0,0,0,0,0,0,0,-1,1511,848,0,0
294,176,0,0,0,0,0,0,0,0,0,-1,1518,848,0,0
301,176,0,0,0,0,0,0,0,0,0,-1,1525,848,0,0
308,176,0,0,0,0,0,0,0,0,0,-1,1532,848,0,0
315,176,0,0,0,0,0,0,0,0,0,-1,1539,848,0,0
322,176,0,0,0,0,0,0,0,0,0,-1,1546,848,0,0
329,176,0,0,0,0,0,0,0,0,0,-1,1553,848,0,0
336,176,0,0,0,0,0,0,0,0,0,-1,1560,848,0,0
343,176,0,0,0,0,0,0,0,0,0,-1,1567,848,0,0
350,176,0,0,0,0,0,0,0,0,0,-1,1574,848,0,0
357,176,0,0,0,0,0,0,0,0,0,-1,1581,848,0,0
364,176,0,0,0,0,0,0,0,0,0,-1,1588,848,0,0
371,176,0,0,0,0,0,0,0,0,0,-1,1595,848,0,0
378,176,0,0,0,0,0,0,0,0,0,-1,1602,848,0,0
385,176,0,0,0,0,0,0,0,0,0,-1,1609,848,0,0
392,176,0,0,0,0,0,0,0,0,0,-1,1616,848,0,0
399,176,0,0,0,0,0,0,0,0,0,-1,1623,848,0,0
406,176,0,0,0,0,0,0,0,0,0,-1,1630,848,0,0
413,176,0,0,0,0,0,0,0,0,0,-1,1637,848,0,0
420,176,0,0,0,0,0,0,0,0,0,-1,1644,848,0,0
427,176,0,0,0,0,0,0,0,0,0,-1,1651,848,0,0
434,176,0,0,0,0,0,0,0,0,0,-1,1658,848,0,0
441,176,0,0,0,0,0,0,0,0,0,-1,1665,848,0,0
448,176,0,0,0,0,0,0,0,0,0,-1,1672,848,0,0
455,176,0,0,0,0,0,0,0,0,0,-1,1679,848,0,0
462,176,0,0,0,0,0,0,0,0,0,-1,1686,848,0,0
469,176,0,0,0,0,0,0,0,0,0,-1,1693,848,0,0
476,176,0,0,0,0,0,0,0,0,0,-1,1700,848,0,0
483,176,0,0,0,0,0,0,0,0,0,-1,1707,848,0,0
490,176,0,0,0,0,0,0,0,0,0,-1,1714,848,0,0
497,176,0,0,0,0,0,0,0,0,0,-1,1721,848,0,0
504,176,0,0,0,0,0,0,0,0,0,-1,1728,848,0,0
511,176,0,0,0,0,0,0,0,0,0,-1,1735,848,0,0
518,176,0,0,0,0,0,0,0,0,0,-1,1742,848,0,0
525,176,0,0,0,0,0,0,0,0,0,-1,1749,848,0,0
532,176,0,0,0,0,0,0,0,0,0,-1,1756,848,0,0
539,176,0,0,0,0,0,0,0,0,0,-1,1763,848,0,0
546,176,0,0,0,0,0,0,0,0,0,-1,1770,848,0,0
553,176,0,0,0,0,0,0,0,0,0,-1,1777,848,0,0
560,176,0,0,0,0,0,0,0,0,0,-1,1784,848,0,0
567,176,0,0,0,0,0,0,0,0,0,-1,1791,848,0,0
574,176,0,0,0,0,0,0,0,0,0,-1,1798,848,0,0
581,176,0,0,0,0,0,0,0,0,0,-1,1805,848,0,0
588,176,0,0,0,0,0,0,0,0,0,-1,1812,848,0,0
595,176,0,0,0,0,0,0,0,0,0,-1,1819,848,0,0
602,176,0,0,0,0,0,0,0,0,0,-1,1826,848,0,0
609,176,29.2606,2.68542,0.00854535,0.00187094,-0.0022351,0.00922468,0.0011916,-0.295068,0.00579358,0.0363657,1833,848,29.2606,-2.68545
616,176,29.2732,2.72729,0.00556048,0.00152556,-0.00197773,0.00636818,0.000717851,-0.387727,0.00402755,0.0374695,1840,848,29.2732,-2.72732
623,176,29.3485,2.66431,0.00280013,0.00128598,-0.00180362,0.00399913,8.69804e-05,-0.586689,0.00263757,0.0429694,1847,848,29.3485,-2.66432
630,176,29.3274,2.62091,0.000526209,0.00109016,-0.00174238,0.00257323,-0.000956864,-0.865619,0.00210812,0.0390083,1854,848,29.3274,-2.62094
637,176,29.2559,2.69501,-0.00112089,0.000797921,-0.00173125,0.00181783,-0.0021408,-1.03842,0.00228805,0.0316113,1861,848,29.2558,-2.69501
644,176,29.2013,2.64294,-0.00209062,0.000461066,-0.00164809,0.00126944,-0.00289899,-1.11478,0.00246719,0.0312533,1868,848,29.2013,-2.64297
651,176,29.2997,2.62451,-0.00249567,0.000147247,-0.00153021,0.000847619,-0.00319604,-1.14156,0.00246235,0.0322285,1875,848,29.2997,-2.62453
658,176,29.3654,2.69281,-0.0027344,-0.000131376,-0.00142081,0.000493927,-0.00335971,-1.1562,0.0024213,0.0365048,1882,848,29.3654,-2.69283
665,176,29.4041,2.7619,0,0,0,0,0,0,0,-1,1889,848,29.4041,-2.76189
672,176,16.9304,2.80719,0,0,0,0,0,0,0,-1,1896,848,16.9305,-2.80719
679,176,24.1663,1.84039,0,0,0,0,0,0,0,-1,1903,848,24.1662,-1.84039
686,176,24.0328,2.16742,-0.00210304,-0.000592138,-0.00088343,-0.000185197,-0.00250998,-1.13913,0.00161513,0.0299574,1910,848,24.0328,-2.16741
693,176,23.9235,2.49634,-0.00160444,-0.000749559,-0.000828821,-0.000244449,-0.00210955,-1.02347,0.00133238,0.0150837,1917,848,23.9234,-2.49631
700,176,23.8423,2.78693,-0.00121263,-0.00071326,-0.0006367,-0.000279038,-0.00164685,-0.972261,0.00101772,0.0157992,1924,848,23.8423,-2.78694
707,176,23.8462,3.07281,-0.00068214,-0.000420593,-0.000400561,-0.000129999,-0.000972734,-0.943181,0.000609793,0.0127819,1931,848,23.8462,-3.07279
714,176,23.8618,3.33704,-0.000248419,-7.84808e-05,-0.00068748,0.000529261,-0.000856161,-0.846884,0.000807262,0.0117797,1938,848,23.8618,-3.33702
721,176,23.8508,3.61346,0.000907833,0.000205104,-0.000897868,0.00152064,-0.000407702,-0.598892,0.00117351,0.0115095,1945,848,23.8508,-3.61345
728,176,23.8044,3.91199,0.00197487,0.000649314,-0.0010758,0.00257567,4.85163e-05,-0.509319,0.00170117,0.013901,1952,848,23.8044,-3.91196
735,176,23.7926,4.19861,0.00341464,0.0011137,-0.00136527,0.00404954,0.000478799,-0.435286,0.00255509,0.0134283,1959,848,23.7926,-4.1986
742,176,23.8055,4.47729,0.0053192,0.00146951,-0.00186273,0.00607294,0.000715769,-0.3845,0.00383238,0.0156599,1966,848,23.8056,-4.47731
749,176,23.7979,4.78705,0.00802161,0.00164656,-0.00261402,0.00895639,0.000711778,-0.343432,0.00574837,0.0262828,1973,848,23.7979,-4.78704
756,176,24.0891,5.42548,0.012136,0.00155415,-0.00377074,0.0133422,0.000347973,-0.309593,0.0087811,0.0441312,1980,848,24.0891,-5.42546
763,176,24.4141,6.09406,0,0,0,0,0,0,0,-1,1987,848,24.4141,-6.09407
770,176,24.5001,6.8924,0,0,0,0,0,0,0,-1,1994,848,24.5002,-6.89239
777,176,24.901,7.57629,0,0,0,0,0,0,0,-1,2001,848,24.901,-7.57628
784,176,0,0,0,0,0,0,0,0,0,-1,2008,848,0,0
791,176,0,0,0,0,0,0,0,0,0,-1,2015,848,0,0
798,176,0,0,0,0,0,0,0,0,0,-1,2022,848,0,0
805,176,0,0,0,0,0,0,0,0,0,-1,2029,848,0,0
812,176,0,0,0,0,0,0,0,0,0,-1,2036,848,0,0
-700,169,0,0,0,0,0,0,0,0,0,-1,524,855,0,0
-693,169,0,0,0,0,0,0,0,0,0,-1,531,855,0,0
-686,169,0,0,0,0,0,0,0,0,0,-1,538,855,0,0
-679,169,0,0,0,0,0,0,0,0,0,-1,545,855,0,0
-672,169,0,0,0,0,0,0,0,0,0,-1,552,855,0,0
-665,169,-18.9331,3.28235,0,0,0,0,0,0,0,-1,559,855,-18.9331,-3.28237
-658,169,-18.1393,3.31091,0,0,0,0,0,0,0,-1,566,855,-18.1393,-3.31091
-651,169,-15.5712,2.39374,0,0,0,0,0,0,0,-1,573,855,-15.5712,-2.39374
-644,169,-15.8547,2.36121,0.052298,0.0307605,0.0302858,0.0736726,0.00938588,0.614584,0.0463046,0.0470085,580,855,-15.8547,-2.3612
-637,169,-16.1462,2.35889,0.0357458,0.0217495,0.0168097,0.0469558,0.0105394,0.588152,0.0284491,0.0455041,587,855,-16.1462,-2.35891
-630,169,-16.3898,2.70587,0,0,0,0,0,0,0,-1,594,855,-16.3898,-2.70585
-623,169,-16.4589,2.43884,0.0151272,0.00943257,0.00202765,0.0157754,0.00878438,0.309408,0.00912753,0.0383494,601,855,-16.4588,-2.43884
-616,169,-16.4255,2.1955,0.00925871,0.00559878,-0.00108566,0.00955652,0.00530097,-0.267727,0.00552845,0.0218084,608,855,-16.4255,-2.19552
-609,169,-16.435,1.96265,0.00447269,0.00284281,-0.00270572,0.00648353,0.000831969,-0.639123,0.00407345,0.0131603,615,855,-16.435,-1.96267
-602,169,-16.4421,1.68628,0.00117776,0.000616593,-0.00346622,0.00437474,-0.00258038,-0.745012,0.00405984,0.0126913,622,855,-16.4421,-1.68626
-595,169,-16.4426,1.39545,6.67539e-06,-0.000556912,-0.00258893,0.00232911,-0.00287934,-0.731189,0.00301269,0.0112943,629,855,-16.4426,-1.39547
-588,169,-16.4362,1.13562,-0.00086802,-0.00188449,-0.00232382,0.00100249,-0.003755,-0.67774,0.00289593,0.00936107,636,855,-16.4362,-1.1356
-581,169,-16.4489,0.891296,-0.000963142,-0.00258377,-0.00130531,-0.000237087,-0.00330983,-0.507617,0.00213192,0.0104677,643,855,-16.4489,-0.891295
-574,169,-16.537,0.610657,-0.000895895,-0.00194525,-1.52155e-05,-0.000895675,-0.00194547,-0.0144958,0.00112439,0.0155735,650,855,-16.537,-0.610627
-567,169,-16.4363,0.440308,-0.000338878,-0.00149337,0.000992835,0.000232325,-0.00206457,0.522079,0.00146,0.0292786,657,855,-16.4364,-0.440299
-560,169,-16.519,0.220825,0.000142394,-0.00135353,0.0012265,0.000831012,-0.00204215,0.51159,0.00170724,0.0301479,664,855,-16.519,-0.220799
-553,169,-16.4125,-0.243958,0.000359541,-0.00122628,0.00124188,0.00104005,-0.00190679,0.501282,0.00172572,0.04147,671,855,-16.4126,0.243969
-546,169,-16.0201,-0.80957,0,0,0,0,0,0,0,-1,678,855,-16.0201,0.809576
-539,169,-20.8107,0.767639,0,0,0,0,0,0,0,-1,685,855,-20.8106,-0.76767
-532,169,-20.8015,0.725708,0.000944772,0.00119786,0.00136908,0.00244624,-0.000303604,0.831482,0.00174087,0.0369857,692,855,-20.8014,-0.725696
-525,169,-20.7288,0.749939,0.0010417,0.00205262,0.00135437,0.00299278,0.000101547,0.963998,0.00196221,0.0429111,699,855,-20.7288,-0.749935
-518,169,-20.6085,0.761841,0.00102307,0.00293634,0.00131128,0.00360285,0.000356558,1.10054,0.00229231,0.0390324,706,855,-20.6085,-0.761823
-511,169,-20.5884,0.539368,0.00110929,0.00349451,0.00119841,0.00399261,0.000611185,1.17688,0.00248321,0.0401716,713,855,-20.5885,-0.539376
-504,169,-20.7504,0.29126,0.00103979,0.00305682,0.00104205,0.00349847,0.000598141,1.16992,0.00216071,0.0454682,720,855,-20.7504,-0.291241
-497,169,-20.7507,0.505798,0.00204597,0.00152421,0.000532993,0.0023785,0.00119167,0.557807,0.00137323,0.0447669,727,855,-20.7507,-0.505777
-490,169,0,0,0,0,0,0,0,0,0,-1,734,855,0,0
-483,169,0,0,0,0,0,0,0,0,0,-1,741,855,0,0
-476,169,0,0,0,0,0,0,0,0,0,-1,748,855,0,0
-469,169,0,0,0,0,0,0,0,0,0,-1,755,855,0,0
-462,169,0,0,0,0,0,0,0,0,0,-1,762,855,0,0
-455,169,0,0,0,0,0,0,0,0,0,-1,769,855,0,0
-448,169,0,0,0,0,0,0,0,0,0,-1,776,855,0,0
-441,169,0,0,0,0,0,0,0,0,0,-1,783,855,0,0
-434,169,0,0,0,0,0,0,0,0,0,-1,790,855,0,0
-427,169,0,0,0,0,0,0,0,0,0,-1,797,855,0,0
-420,169,0,0,0,0,0,0,0,0,0,-1,804,855,0,0
-413,169,0,0,0,0,0,0,0,0,0,-1,811,855,0,0
-406,169,0,0,0,0,0,0,0,0,0,-1,818,855,0,0
-399,169,0,0,0,0,0,0,0,0,0,-1,825,855,0,0
-392,169,0,0,0,0,0,0,0,0,0,-1,832,855,0,0
-385,169,0,0,0,0,0,0,0,0,0,-1,839,855,0,0
-378,169,0,0,0,0,0,0,0,0,0,-1,846,855,0,0
-371,169,0,0,0,0,0,0,0,0,0,-1,853,855,0,0
-364,169,0,0,0,0,0,0,0,0,0,-1,860,855,0,0
-357,169,0,0,0,0,0,0,0,0,0,-1,867,855,0,0
-350,169,0,0,0,0,0,0,0,0,0,-1,874,855,0,0
-343,169,0,0,0,0,0,0,0,0,0,-1,881,855,0,0
-336,169,0,0,0,0,0,0,0,0,0,-1,888,855,0,0
-329,169,0,0,0,0,0,0,0,0,0,-1,895,855,0,0
-322,169,0,0,0,0,0,0,0,0,0,-1,902,855,0,0
-315,169,0,0,0,0,0,0,0,0,0,-1,909,855,0,0
-308,169,0,0,0,0,0,0,0,0,0,-1,916,855,0,0
-301,169,0,0,0,0,0,0,0,0,0,-1,923,855,0,0
-294,169,0,0,0,0,0,0,0,0,0,-1,930,855,0,0
-287,169,0,0,0,0,0,0,0,0,0,-1,937,855,0,0
-280,169,0,0,0,0,0,0,0,0,0,-1,944,855,0,0
-273,169,0,0,0,0,0,0,0,0,0,-1,951,855,0,0
-266,169,0,0,0,0,0,0,0,0,0,-1,958,855,0,0
-259,169,0,0,0,0,0,0,0,0,0,-1,965,855,0,0
-252,169,0,0,0,0,0,0,0,0,0,-1,972,855,0,0
-245,169,0,0,0,0,0,0,0,0,0,-1,979,855,0,0
-238,169,0,0,0,0,0,0,0,0,0,-1,986,855,0,0
-231,169,0,0,0,0,0,0,0,0,0,-1,993,855,0,0
-224,169,0,0,0,0,0,0,0,0,0,-1,1000,855,0,0
-217,169,0,0,0,0,0,0,0,0,0,-1,1007,855,0,0
-210,169,0,0,0,0,0,0,0,0,0,-1,1014,855,0,0
-203,169,0,0,0,0,0,0,0,0,0,-1,1021,855,0,0
-196,169,0,0,0,0,0,0,0,0,0,-1,1028,855,0,0
-189,169,0,0,0,0,0,0,0,0,0,-1,1035,855,0,0
-182,169,0,0,0,0,0,0,0,0,0,-1,1042,855,0,0
-175,169,0,0,0,0,0,0,0,0,0,-1,1049,855,0,0
-168,169,0,0,0,0,0,0,0,0,0,-1,1056,855,0,0
-161,169,0,0,0,0,0,0,0,0,0,-1,1063,855,0,0
-154,169,0,0,0,0,0,0,0,0,0,-1,1070,855,0,0
-147,169,0,0,0,0,0,0,0,0,0,-1,1077,855,0,0
-140,169,0,0,0,0,0,0,0,0,0,-1,1084,855,0,0
-133,169,0,0,0,0,0,0,0,0,0,-1,1091,855,0,0
-126,169,0,0,0,0,0,0,0,0,0,-1,1098,855,0,0
-119,169,0,0,0,0,0,0,0,0,0,-1,1105,855,0,0
-112,169,0,0,0,0,0,0,0,0,0,-1,1112,855,0,0
-105,169,0,0,0,0,0,0,0,0,0,-1,1119,855,0,0
-98,169,0,0,0,0,0,0,0,0,0,-1,1126,855,0,0
-91,169,0,0,0,0,0,0,0,0,0,-1,1133,855,0,0
-84,169,0,0,0,0,0,0,0,0,0,-1,1140,855,0,0
-77,169,0,0,0,0,0,0,0,0,0,-1,1147,855,0,0
-70,169,0,0,0,0,0,0,0,0,0,-1,1154,855,0,0
-63,169,0,0,0,0,0,0,0,0,0,-1,1161,855,0,0
-56,169,0,0,0,0,0,0,0,0,0,-1,1168,855,0,0
-49,169,0,0,0,0,0,0,0,0,0,-1,1175,855,0,0
-42,169,0,0,0,0,0,0,0,0,0,-1,1182,855,0,0
-35,169,0,0,0,0,0,0,0,0,0,-1,1189,855,0,0
-28,169,0,0,0,0,0,0,0,0,0,-1,1196,855,0,0
-21,169,0,0,0,0,0,0,0,0,0,-1,1203,855,0,0
-14,169,0,0,0,0,0,0,0,0,0,-1,1210,855,0,0
-7,169,0,0,0,0,0,0,0,0,0,-1,1217,855,0,0
0,169,0,0,0,0,0,0,0,0,0,-1,1224,855,0,0
7,169,0,0,0,0,0,0,0,0,0,-1,1231,855,0,0
14,169,0,0,0,0,0,0,0,0,0,-1,1238,855,0,0
21,169,0,0,0,0,0,0,0,0,0,-1,1245,855,0,0
28,169,0,0,0,0,0,0,0,0,0,-1,1252,855,0,0
35,169,0,0,0,0,0,0,0,0,0,-1,1259,855,0,0
42,169,0,0,0,0,0,0,0,0,0,-1,1266,855,0,0
49,169,0,0,0,0,0,0,0,0,0,-1,1273,855,0,0
56,169,0,0,0,0,0,0,0,0,0,-1,1280,855,0,0
63,169,0,0,0,0,0,0,0,0,0,-1,1287,855,0,0
70,169,0,0,0,0,0,0,0,0,0,-1,1294,855,0,0
77,169,0,0,0,0,0,0,0,0,0,-1,1301,855,0,0
84,169,0,0,0,0,0,0,0,0,0,-1,1308,855,0,0
91,169,0,0,0,0,0,0,0,0,0,-1,1315,855,0,0
98,169,0,0,0,0,0,0,0,0,0,-1,1322,855,0,0
105,169,0,0,0,0,0,0,0,0,0,-1,1329,855,0,0
112,169,0,0,0,0,0,0,0,0,0,-1,1336,855,0,0
119,169,0,0,0,0,0,0,0,0,0,-1,1343,855,0,0
126,169,0,0,0,0,0,0,0,0,0,-1,1350,855,0,0
133,169,0,0,0,0,0,0,0,0,0,-1,1357,855,0,0
140,169,0,0,0,0,0,0,0,0,0,-1,1364,855,0,0
147,169,0,0,0,0,0,0,0,0,0,-1,1371,855,0,0
154,169,0,0,0,0,0,0,0,0,0,-1,1378,855,0,0
161,169,0,0,0,0,0,0,0,0,0,-1,1385,855,0,0
168,169,0,0,0,0,0,0,0,0,0,-1,1392,855,0,0
175,169,0,0,0,0,0,0,0,0,0,-1,1399,855,0,0
182,169,0,0,0,0,0,0,0,0,0,-1,1406,855,0,0
189,169,0,0,0,0,0,0,0,0,0,-1,1413,855,0,0
196,169,0,0,0,0,0,0,0,0,0,-1,1420,855,0,0
203,169,0,0,0,0,0,0,0,0,0,-1,1427,855,0,0
210,169,0,0,0,0,0,0,0,0,0,-1,1434,855,0,0
217,169,0,0,0,0,0,0,0,0,0,-1,1441,855,0,0
224,169,0,0,0,0,0,0,0,0,0,-1,1448,855,0,0
231,169,0,0,0,0,0,0,0,0,0,-1,1455,855,0,0
238,169,0,0,0,0,0,0,0,0,0,-1,1462,855,0,0
245,169,0,0,0,0,0,0,0,0,0,-1,1469,855,0,0
252,169,0,0,0,0,0,0,0,0,0,-1,1476,855,0,0
259,169,0,0,0,0,0,0,0,0,0,-1,1483,855,0,0
266,169,0,0,0,0,0,0,0,0,0,-1,1490,855,0,0
273,169,0,0,0,0,0,0,0,0,0,-1,1497,855,0,0
280,169,0,0,0,0,0,0,0,0,0,-1,1504,855,0,0
287,169,0,0,0,0,0,0,0,0,0,-1,1511,855,0,0
294,169,0,0,0,0,0,0,0,0,0,-1,1518,855,0,0
301,169,0,0,0,0,0,0,0,0,0,-1,1525,855,0,0
308,169,0,0,0,0,0,0,0,0,0,-1,1532,855,0,0
315,169,0,0,0,0,0,0,0,0,0,-1,1539,855,0,0
322,169,0,0,0,0,0,0,0,0,0,-1,1546,855,0,0
329,169,0,0,0,0,0,0,0,0,0,-1,1553,855,0,0
336,169,0,0,0,0,0,0,0,0,0,-1,1560,855,0,0
343,169,0,0,0,0,0,0,0,0,0,-1,1567,855,0,0
350,169,0,0,0,0,0,0,0,0,0,-1,1574,855,0,0
357,169,0,0,0,0,0,0,0,0,0,-1,1581,855,0,0
364,169,0,0,0,0,0,0,0,0,0,-1,1588,855,0,0
371,169,0,0,0,0,0,0,0,0,0,-1,1595,855,0,0
378,169,0,0,0,0,0,0,0,0,0,-1,1602,855,0,0
385,169,0,0,0,0,0,0,0,0,0,-1,1609,855,0,0
392,169,0,0,0,0,0,0,0,0,0,-1,1616,855,0,0
399,169,0,0,0,0,0,0,0,0,0,-1,1623,855,0,0
406,169,0,0,0,0,0,0,0,0,0,-1,1630,855,0,0
413,169,0,0,0,0,0,0,0,0,0,-1,1637,855,0,0
420,169,0,0,0,0,0,0,0,0,0,-1,1644,855,0,0
427,169,0,0,0,0,0,0,0,0,0,-1,1651,855,0,0
434,169,0,0,0,0,0,0,0,0,0,-1,1658,855,0,0
441,169,0,0,0,0,0,0,0,0,0,-1,1665,855,0,0
448,169,0,0,0,0,0,0,0,0,0,-1,1672,855,0,0
455,169,0,0,0,0,0,0,0,0,0,-1,1679,855,0,0
462,169,0,0,0,0,0,0,0,0,0,-1,1686,855,0,0
469,169,0,0,0,0,0,0,0,0,0,-1,1693,855,0,0
476,169,0,0,0,0,0,0,0,0,0,-1,1700,855,0,0
483,169,0,0,0,0,0,0,0,0,0,-1,1707,855,0,0
490,169,0,0,0,0,0,0,0,0,0,-1,1714,855,0,0
497,169,0,0,0,0,0,0,0,0,0,-1,1721,855,0,0
504,169,0,0,0,0,0,0,0,0,0,-1,1728,855,0,0
511,169,0,0,0,0,0,0,0,0,0,-1,1735,855,0,0
518,169,0,0,0,0,0,0,0,0,0,-1,1742,855,0,0
525,169,0,0,0,0,0,0,0,0,0,-1,1749,855,0,0
532,169,0,0,0,0,0,0,0,0,0,-1,1756,855,0,0
539,169,0,0,0,0,0,0,0,0,0,-1,1763,855,0,0
546,169,0,0,0,0,0,0,0,0,0,-1,1770,855,0,0
553,169,0,0,0,0,0,0,0,0,0,-1,1777,855,0,0
560,169,0,0,0,0,0,0,0,0,0,-1,1784,855,0,0
567,169,0,0,0,0,0,0,0,0,0,-1,1791,855,0,0
574,169,0,0,0,0,0,0,0,0,0,-1,1798,855,0,0
581,169,0,0,0,0,0,0,0,0,0,-1,1805,855,0,0
588,169,0,0,0,0,0,0,0,0,0,-1,1812,855,0,0
595,169,0,0,0,0,0,0,0,0,0,-1,1819,855,0,0
602,169,0,0,0,0,0,0,0,0,0,-1,1826,855,0,0
609,169,0,0,0,0,0,0,0,0,0,-1,1833,855,0,0
616,169,29.3175,3.00854,0.00617515,0.00138931,-0.00294091,0.00757368,-9.20845e-06,-0.443889,0.00505219,0.0414903,1840,855,29.3175,-3.00854
623,169,29.4197,3.11188,0.00361121,0.00108271,-0.00243916,0.00509429,-0.000400367,-0.546302,0.00353721,0.0453649,1847,855,29.4196,-3.11186
630,169,29.3904,2.70795,0.00153023,0.000979869,-0.00198592,0.00325994,-0.000749849,-0.716554,0.00246161,0.0424176,1854,855,29.3904,-2.70792
637,169,29.3431,2.70428,-6.36055e-05,0.000825019,-0.00165112,0.00209056,-0.00132915,-0.916834,0.00199062,0.0357498,1861,855,29.3431,-2.70431
644,169,29.2725,2.69861,-0.00109951,0.000609504,-0.00134232,0.00134622,-0.00183623,-1.06884,0.00184463,0.0370366,1868,855,29.2724,-2.69862
651,169,29.2551,2.65222,-0.001584,0.000374132,-0.00107836,0.000851576,-0.00206144,-1.15399,0.00172951,0.0377674,1875,855,29.2551,-2.6522
658,169,29.3114,2.69299,-0.00186059,0.000101857,-0.000916617,0.000463387,-0.00222212,-1.19511,0.00165761,0.0344182,1882,855,29.3114,-2.69298
665,169,29.2867,2.82202,-0.00196344,-6.45952e-05,-0.00078759,0.000219555,-0.00224759,-1.22455,0.00157668,0.0464723,1889,855,29.2868,-2.82201
672,169,29.2561,2.97833,0,0,0,0,0,0,0,-1,1896,855,29.2561,-2.97836
679,169,24.2732,1.83337,0,0,0,0,0,0,0,-1,1903,855,24.2732,-1.83338
686,169,24.2548,2.17206,-0.0015527,-0.000366321,-0.000400456,-0.000243802,-0.00167522,-1.27389,0.00104507,0.0299322,1910,855,24.2548,-2.17204
693,169,24.2267,2.51929,-0.00119255,-0.000525513,-0.000389343,-0.00034637,-0.0013717,-1.13956,0.000823653,0.0148557,1917,855,24.2266,-2.51929
700,169,24.2062,2.81799,-0.000891007,-0.000523824,-0.000306974,-0.000349731,-0.0010651,-1.0549,0.000626898,0.0132908,1924,855,24.2062,-2.81797
707,169,24.1722,3.06482,-0.000487797,-0.000299066,-0.000220855,-0.000153261,-0.000633601,-0.987295,0.000381711,0.0140317,1931,855,24.1722,-3.06482
714,169,24.1497,3.33252,-0.000173914,-5.10947e-05,-0.0006093,0.000499883,-0.000724891,-0.835622,0.00071109,0.0137219,1938,855,24.1497,-3.33249
721,169,24.1407,3.62988,0.000729632,0.000196696,-0.000864022,0.00136734,-0.000441015,-0.635824,0.00108876,0.0157307,1945,855,24.1408,-3.62986
728,169,24.1262,3.91583,0.00153481,0.000640841,-0.0010651,0.00224291,-6.72626e-05,-0.586727,0.00151819,0.0127181,1952,855,24.1262,-3.91583
735,169,24.101,4.20953,0.00262109,0.00120624,-0.00138852,0.00347201,0.000355317,-0.549796,0.00220579,0.0177136,1959,855,24.1009,-4.20954
742,169,24.1115,4.47113,0.00399373,0.00172103,-0.00186231,0.005039,0.000675749,-0.511462,0.00315828,0.0143461,1966,855,24.1115,-4.47112
749,169,24.1141,4.7146,0.00574227,0.00244688,-0.00258533,0.00716032,0.00102883,-0.501692,0.00447025,0.0238226,1973,855,24.1141,-4.71459
756,169,24.1527,4.95551,0.00840782,0.00308268,-0.00359916,0.0102222,0.00126829,-0.466935,0.00643385,0.0482143,1980,855,24.1527,-4.9555
763,169,25.2021,6.20074,0,0,0,0,0,0,0,-1,1987,855,25.2021,-6.20075
770,169,25.3882,7.40015,0,0,0,0,0,0,0,-1,1994,855,25.3882,-7.40017
777,169,23.0837,6.79272,0,0,0,0,0,0,0,-1,2001,855,23.0837,-6.79272
784,169,22.7676,7.02582,0,0,0,0,0,0,0,-1,2008,855,22.7676,-7.02583
791,169,0,0,0,0,0,0,0,0,0,-1,2015,855,0,0
798,169,0,0,0,0,0,0,0,0,0,-1,2022,855,0,0
805,169,0,0,0,0,0,0,0,0,0,-1,2029,855,0,0
812,169,0,0,0,0,0,0,0,0,0,-1,2036,855,0,0
-700,162,0,0,0,0,0,0,0,0,0,-1,524,862,0,0
-693,162,0,0,0,0,0,0,0,0,0,-1,531,862,0,0
-686,162,0,0,0,0,0,0,0,0,0,-1,538,862,0,0
-679,162,0,0,0,0,0,0,0,0,0,-1,545,862,0,0
-672,162,0,0,0,0,0,0,0,0,0,-1,552,862,0,0
-665,162,-17.6199,-5.48608,0,0,0,0,0,0,0,-1,559,862,-17.6199,5.48608
-658,162,-19.9698,2.61188,0,0,0,0,0,0,0,-1,566,862,-19.9698,-2.61188
-651,162,-16.0342,2.37378,0,0,0,0,0,0,0,-1,573,862,-16.0342,-2.37381
-644,162,-16.1151,2.47217,0.0589123,0.0330927,0.037926,0.0860655,0.00593953,0.621352,0.0555032,0.0477219,580,862,-16.1151,-2.47215
-637,162,-16.3298,2.49945,0.0407973,0.0240839,0.0240161,0.0578691,0.00701208,0.617968,0.0364675,0.0453614,587,862,-16.3298,-2.49944
-630,162,-16.5534,2.57318,0.0272591,0.0168629,0.0140895,0.0370788,0.00704317,0.608676,0.022738,0.0458408,594,862,-16.5534,-2.57317
-623,162,-16.6389,2.45996,0.0175187,0.0112795,0.00737225,0.0224042,0.00639399,0.585245,0.0133263,0.0341215,601,862,-16.6389,-2.45996
-616,162,-16.6724,2.19727,0.0107259,0.0070632,0.00317143,0.0125568,0.00523234,0.52356,0.00728311,0.0184347,608,862,-16.6724,-2.19726
-609,162,-16.7012,1.94043,0.00511293,0.00386847,0.000459169,0.00526401,0.00371739,0.317869,0.00312413,0.0119144,615,862,-16.7012,-1.94042
-602,162,-16.7155,1.6745,0.00127095,0.00114102,-0.0013104,0.00251799,-0.000106022,-0.760631,0.0017151,0.0108498,622,862,-16.7155,-1.67452
-595,162,-16.7148,1.41638,-5.46544e-05,-0.000355404,-0.00114701,0.000951793,-0.00136185,-0.720219,0.00134276,0.0101976,629,862,-16.7149,-1.41639
-588,162,-16.712,1.16345,-0.00092196,-0.00177048,-0.00133778,5.722e-05,-0.00274966,-0.631846,0.00185247,0.0105403,636,862,-16.712,-1.16343
-581,162,-16.7934,0.893066,-0.00102991,-0.00253343,-0.000782226,-0.000696764,-0.00286657,-0.402629,0.00172632,0.0150781,643,862,-16.7934,-0.89305
-574,162,-16.9232,0.601746,-0.000999271,-0.00213827,0.00010366,-0.000989914,-0.00214762,0.0900243,0.00124119,0.0213885,650,862,-16.9232,-0.601762
-567,162,-16.8577,0.39447,-0.000452527,-0.00177899,0.000925537,2.28778e-05,-0.0022544,0.474511,0.00151062,0.0336121,657,862,-16.8577,-0.394479
-560,162,-16.7758,-0.0157471,0.00012087,-0.00179093,0.00112427,0.000640685,-0.00231075,0.433082,0.00179264,0.0303323,664,862,-16.7758,0.0157667
-553,162,-16.6393,-0.376282,0.000446375,-0.00182061,0.00115138,0.000928579,-0.00230281,0.396613,0.00192106,0.0367851,671,862,-16.6393,0.376286
-546,162,-16.5009,-0.816772,0,0,0,0,0,0,0,-1,678,862,-16.5009,0.816777
-539,162,-20.7881,0.679443,0,0,0,0,0,0,0,-1,685,862,-20.7881,-0.679466
-532,162,-20.8218,0.594421,0.00157956,4.55158e-05,0.00142714,0.00243273,-0.00080766,0.538818,0.00194769,0.0358069,692,862,-20.8219,-0.594436
-525,162,-20.8453,0.485535,0.00188038,0.000719812,0.00150849,0.00291635,-0.000316159,0.601784,0.00205773,0.039379,699,862,-20.8453,-0.485524
-518,162,-20.8084,0.628174,0.00210707,0.00136174,0.00158938,0.00336689,0.000101918,0.670243,0.0022114,0.0409237,706,862,-20.8084,-0.628197
-511,162,-20.5875,0.530884,0.00238814,0.00160919,0.00164883,0.00369287,0.000304463,0.669418,0.00236696,0.0432585,713,862,-20.5875,-0.530882
-504,162,-20.5556,0.455383,0.00211371,0.000640658,0.00180135,0.00332329,-0.000568922,0.591331,0.00242749,0.0466239,720,862,-20.5556,-0.455366
-497,162,-20.6837,0.481689,0.00289836,-0.00103044,0.00156931,0.00344824,-0.00158031,0.337027,0.00296925,0.0452122,727,862,-20.6837,-0.481674
-490,162,0,0,0,0,0,0,0,0,0,-1,734,862,0,0
-483,162,0,0,0,0,0,0,0,0,0,-1,741,862,0,0
-476,162,0,0,0,0,0,0,0,0,0,-1,748,862,0,0
-469,162,0,0,0,0,0,0,0,0,0,-1,755,862,0,0
-462,162,0,0,0,0,0,0,0,0,0,-1,762,862,0,0
-455,162,0,0,0,0,0,0,0,0,0,-1,769,862,0,0
-448,162,0,0,0,0,0,0,0,0,0,-1,776,862,0,0
-441,162,0,0,0,0,0,0,0,0,0,-1,783,862,0,0
-434,162,0,0,0,0,0,0,0,0,0,-1,790,862,0,0
-427,162,0,0,0,0,0,0,0,0,0,-1,797,862,0,0
-420,162,0,0,0,0,0,0,0,0,0,-1,804,862,0,0
-413,162,0,0,0,0,0,0,0,0,0,-1,811,862,0,0
-406,162,0,0,0,0,0,0,0,0,0,-1,818,862,0,0
-399,162,0,0,0,0,0,0,0,0,0,-1,825,862,0,0
-392,162,0,0,0,0,0,0,0,0,0,-1,832,862,0,0
-385,162,0,0,0,0,0,0,0,0,0,-1,839,862,0,0
-378,162,0,0,0,0,0,0,0,0,0,-1,846,862,0,0
-371,162,0,0,0,0,0,0,0,0,0,-1,853,862,0,0
-364,162,0,0,0,0,0,0,0,0,0,-1,860,862,0,0
-357,162,0,0,0,0,0,0,0,0,0,-1,867,862,0,0
-350,162,0,0,0,0,0,0,0,0,0,-1,874,862,0,0
-343,162,0,0,0,0,0,0,0,0,0,-1,881,862,0,0
-336,162,0,0,0,0,0,0,0,0,0,-1,888,862,0,0
-329,162,0,0,0,0,0,0,0,0,0,-1,895,862,0,0
-322,162,0,0,0,0,0,0,0,0,0,-1,902,862,0,0
-315,162,0,0,0,0,0,0,0,0,0,-1,909,862,0,0
-308,162,0,0,0,0,0,0,0,0,0,-1,916,862,0,0
-301,162,0,0,0,0,0,0,0,0,0,-1,923,862,0,0
-294,162,0,0,0,0,0,0,0,0,0,-1,930,862,0,0
-287,162,0,0,0,0,0,0,0,0,0,-1,937,862,0,0
-280,162,0,0,0,0,0,0,0,0,0,-1,944,862,0,0
-273,162,0,0,0,0,0,0,0,0,0,-1,951,862,0,0
-266,162,0,0,0,0,0,0,0,0,0,-1,958,862,0,0
-259,162,0,0,0,0,0,0,0,0,0,-1,965,862,0,0
-252,162,0,0,0,0,0,0,0,0,0,-1,972,862,0,0
-245,162,0,0,0,0,0,0,0,0,0,-1,979,862,0,0
-238,162,0,0,0,0,0,0,0,0,0,-1,986,862,0,0
-231,162,0,0,0,0,0,0,0,0,0,-1,993,862,0,0
-224,162,0,0,0,0,0,0,0,0,0,-1,1000,862,0,0
-217,162,0,0,0,0,0,0,0,0,0,-1,1007,862,0,0
-210,162,0,0,0,0,0,0,0,0,0,-1,1014,862,0,0
-203,162,0,0,0,0,0,0,0,0,0,-1,1021,862,0,0
-196,162,0,0,0,0,0,0,0,0,0,-1,1028,862,0,0
-189,162,0,0,0,0,0,0,0,0,0,-1,1035,862,0,0
-182,162,0,0,0,0,0,0,0,0,0,-1,1042,862,0,0
-175,162,0,0,0,0,0,0,0,0,0,-1,1049,862,0,0
-168,162,0,0,0,0,0,0,0,0,0,-1,1056,862,0,0
-161,162,0,0,0,0,0,0,0,0,0,-1,1063,862,0,0
-154,162,0,0,0,0,0,0,0,0,0,-1,1070,862,0,0
-147,162,0,0,0,0,0,0,0,0,0,-1,1077,862,0,0
-140,162,0,0,0,0,0,0,0,0,0,-1,1084,862,0,0
-133,162,0,0,0,0,0,0,0,0,0,-1,1091,862,0,0
-126,162,0,0,0,0,0,0,0,0,0,-1,1098,862,0,0
-119,162,0,0,0,0,0,0,0,0,0,-1,1105,862,0,0
-112,162,0,0,0,0,0,0,0,0,0,-1,1112,862,0,0
-105,162,0,0,0,0,0,0,0,0,0,-1,1119,862,0,0
-98,162,0,0,0,0,0,0,0,0,0,-1,1126,862,0,0
-91,162,0,0,0,0,0,0,0,0,0,-1,1133,862,0,0
-84,162,0,0,0,0,0,0,0,0,0,-1,1140,862,0,0
-77,162,0,0,0,0,0,0,0,0,0,-1,1147,862,0,0
-70,162,0,0,0,0,0,0,0,0,0,-1,1154,862,0,0
-63,162,0,0,0,0,0,0,0,0,0,-1,1161,862,0,0
-56,162,0,0,0,0,0,0,0,0,0,-1,1168,862,0,0
-49,162,0,0,0,0,0,0,0,0,0,-1,1175,862,0,0
-42,162,0,0,0,0,0,0,0,0,0,-1,1182,862,0,0
-35,162,0,0,0,0,0,0,0,0,0,-1,1189,862,0,0
-28,162,0,0,0,0,0,0,0,0,0,-1,1196,862,0,0
-21,162,0,0,0,0,0,0,0,0,0,-1,1203,862,0,0
-14,162,0,0,0,0,0,0,0,0,0,-1,1210,862,0,0
-7,162,0,0,0,0,0,0,0,0,0,-1,1217,862,0,0
0,162,0,0,0,0,0,0,0,0,0,-1,1224,862,0,0
7,162,0,0,0,0,0,0,0,0,0,-1,1231,862,0,0
14,162,0,0,0,0,0,0,0,0,0,-1,1238,862,0,0
21,162,0,0,0,0,0,0,0,0,0,-1,1245,862,0,0
28,162,0,0,0,0,0,0,0,0,0,-1,1252,862,0,0
35,162,0,0,0,0,0,0,0,0,0,-1,1259,862,0,0
42,162,0,0,0,0,0,0,0,0,0,-1,1266,862,0,0
49,162,0,0,0,0,0,0,0,0,0,-1,1273,862,0,0
56,162,0,0,0,0,0,0,0,0,0,-1,1280,862,0,0
63,162,0,0,0,0,0,0,0,0,0,-1,1287,862,0,0
70,162,0,0,0,0,0,0,0,0,0,-1,1294,862,0,0
77,162,0,0,0,0,0,0,0,0,0,-1,1301,862,0,0
84,162,0,0,0,0,0,0,0,0,0,-1,1308,862,0,0
91,162,0,0,0,0,0,0,0,0,0,-1,1315,862,0,0
98,162,0,0,0,0,0,0,0,0,0,-1,1322,862,0,0
105,162,0,0,0,0,0,0,0,0,0,-1,1329,862,0,0
112,162,0,0,0,0,0,0,0,0,0,-1,1336,862,0,0
119,162,0,0,0,0,0,0,0,0,0,-1,1343,862,0,0
126,162,0,0,0,0,0,0,0,0,0,-1,1350,862,0,0
133,162,0,0,0,0,0,0,0,0,0,-1,1357,862,0,0
140,162,0,0,0,0,0,0,0,0,0,-1,1364,862,0,0
147,162,0,0,0,0,0,0,0,0,0,-1,1371,862,0,0
154,162,0,0,0,0,0,0,0,0,0,-1,1378,862,0,0
161,162,0,0,0,0,0,0,0,0,0,-1,1385,862,0,0
168,162,0,0,0,0,0,0,0,0,0,-1,1392,862,0,0
175,162,0,0,0,0,0,0,0,0,0,-1,1399,862,0,0
182,162,0,0,0,0,0,0,0,0,0,-1,1406,862,0,0
189,162,0,0,0,0,0,0,0,0,0,-1,1413,862,0,0
196,162,0,0,0,0,0,0,0,0,0,-1,1420,862,0,0
203,162,0,0,0,0,0,0,0,0,0,-1,1427,862,0,0
210,162,0,0,0,0,0,0,0,0,0,-1,1434,862,0,0
217,162,0,0,0,0,0,0,0,0,0,-1,1441,862,0,0
224,162,0,0,0,0,0,0,0,0,0,-1,1448,862,0,0
231,162,0,0,0,0,0,0,0,0,0,-1,1455,862,0,0
238,162,0,0,0,0,0,0,0,0,0,-1,1462,862,0,0
245,162,0,0,0,0,0,0,0,0,0,-1,1469,862,0,0
252,162,0,0,0,0,0,0,0,0,0,-1,1476,862,0,0
259,162,0,0,0,0,0,0,0,0,0,-1,1483,862,0,0
266,162,0,0,0,0,0,0,0,0,0,-1,1490,862,0,0
273,162,0,0,0,0,0,0,0,0,0,-1,1497,862,0,0
280,162,0,0,0,0,0,0,0,0,0,-1,1504,862,0,0
287,162,0,0,0,0,0,0,0,0,0,-1,1511,862,0,0
294,162,0,0,0,0,0,0,0,0,0,-1,1518,862,0,0
301,162,0,0,0,0,0,0,0,0,0,-1,1525,862,0,0
308,162,0,0,0,0,0,0,0,0,0,-1,1532,862,0,0
315,162,0,0,0,0,0,0,0,0,0,-1,1539,862,0,0
322,162,0,0,0,0,0,0,0,0,0,-1,1546,862,0,0
329,162,0,0,0,0,0,0,0,0,0,-1,1553,862,0,0
336,162,0,0,0,0,0,0,0,0,0,-1,1560,862,0,0
343,162,0,0,0,0,0,0,0,0,0,-1,1567,862,0,0
350,162,0,0,0,0,0,0,0,0,0,-1,1574,862,0,0
357,162,0,0,0,0,0,0,0,0,0,-1,1581,862,0,0
364,162,0,0,0,0,0,0,0,0,0,-1,1588,862,0,0
371,162,0,0,0,0,0,0,0,0,0,-1,1595,862,0,0
378,162,0,0,0,0,0,0,0,0,0,-1,1602,862,0,0
385,162,0,0,0,0,0,0,0,0,0,-1,1609,862,0,0
392,162,0,0,0,0,0,0,0,0,0,-1,1616,862,0,0
399,162,0,0,0,0,0,0,0,0,0,-1,1623,862,0,0
406,162,0,0,0,0,0,0,0,0,0,-1,1630,862,0,0
413,162,0,0,0,0,0,0,0,0,0,-1,1637,862,0,0
420,162,0,0,0,0,0,0,0,0,0,-1,1644,862,0,0
427,162,0,0,0,0,0,0,0,0,0,-1,1651,862,0,0
434,162,0,0,0,0,0,0,0,0,0,-1,1658,862,0,0
441,162,0,0,0,0,0,0,0,0,0,-1,1665,862,0,0
448,162,0,0,0,0,0,0,0,0,0,-1,1672,862,0,0
455,162,0,0,0,0,0,0,0,0,0,-1,1679,862,0,0
462,162,0,0,0,0,0,0,0,0,0,-1,1686,862,0,0
469,162,0,0,0,0,0,0,0,0,0,-1,1693,862,0,0
476,162,0,0,0,0,0,0,0,0,0,-1,1700,862,0,0
483,162,0,0,0,0,0,0,0,0,0,-1,1707,862,0,0
490,162,0,0,0,0,0,0,0,0,0,-1,1714,862,0,0
497,162,0,0,0,0,0,0,0,0,0,-1,1721,862,0,0
504,162,0,0,0,0,0,0,0,0,0,-1,1728,862,0,0
511,162,0,0,0,0,0,0,0,0,0,-1,1735,862,0,0
518,162,0,0,0,0,0,0,0,0,0,-1,1742,862,0,0
525,162,0,0,0,0,0,0,0,0,0,-1,1749,862,0,0
532,162,0,0,0,0,0,0,0,0,0,-1,1756,862,0,0
539,162,0,0,0,0,0,0,0,0,0,-1,1763,862,0,0
546,162,0,0,0,0,0,0,0,0,0,-1,1770,862,0,0
553,162,0,0,0,0,0,0,0,0,0,-1,1777,862,0,0
560,162,0,0,0,0,0,0,0,0,0,-1,1784,862,0,0
567,162,0,0,0,0,0,0,0,0,0,-1,1791,862,0,0
574,162,0,0,0,0,0,0,0,0,0,-1,1798,862,0,0
581,162,0,0,0,0,0,0,0,0,0,-1,1805,862,0,0
588,162,0,0,0,0,0,0,0,0,0,-1,1812,862,0,0
595,162,0,0,0,0,0,0,0,0,0,-1,1819,862,0,0
602,162,0,0,0,0,0,0,0,0,0,-1,1826,862,0,0
609,162,0,0,0,0,0,0,0,0,0,-1,1833,862,0,0
616,162,29.3579,3.21301,0.00660019,0.00143113,-0.00384481,0.0086484,-0.000617084,-0.489482,0.00598192,0.0475763,1840,862,29.3579,-3.21298
623,162,29.4772,2.94995,0.00416377,0.000788475,-0.00305899,0.00596977,-0.00101752,-0.533324,0.00435879,0.0454905,1847,862,29.4771,-2.94993
630,162,29.447,2.70282,0,0,0,0,0,0,0,-1,1854,862,29.447,-2.70282
637,162,29.4081,2.67474,0.000636133,0.000427642,-0.00168157,0.00221668,-0.00115291,-0.754441,0.00197748,0.039834,1861,862,29.4081,-2.67476
644,162,29.3657,2.56689,-0.000488131,0.000277897,-0.00116419,0.00112046,-0.00133069,-0.944319,0.00141691,0.0385015,1868,862,29.3657,-2.56688
651,162,29.3407,2.5459,-0.00107191,0.000124749,-0.000759499,0.00049329,-0.00144045,-1.11903,0.00116023,0.0347726,1875,862,29.3406,-2.54592
658,162,29.2899,2.71851,-0.00140059,-0.000103909,-0.000530706,8.56023e-05,-0.0015901,-1.22782,0.00108972,0.0342195,1882,862,29.2899,-2.71848
665,162,29.2712,2.75934,-0.00153991,-0.000218768,-0.00037237,-0.000121043,-0.00163764,-1.31414,0.00105373,0.0419463,1889,862,29.2713,-2.75936
672,162,29.209,2.84747,0,0,0,0,0,0,0,-1,1896,862,29.2089,-2.8475
679,162,24.6306,1.9187,0,0,0,0,0,0,0,-1,1903,862,24.6306,-1.91868
686,162,24.5494,2.24658,-0.0013169,-0.000419263,-5.6497e-06,-0.000419228,-0.00131693,-1.5645,0.000776878,0.0448518,1910,862,24.5494,-2.24656
693,162,24.4824,2.57428,-0.00103395,-0.000500004,-2.6192e-05,-0.000498723,-0.00103523,-1.5219,0.000597823,0.0187318,1917,862,24.4825,-2.57426
700,162,24.5227,2.83173,-0.000786318,-0.000465744,-2.70753e-05,-0.000463473,-0.000788589,-1.48713,0.000457622,0.0169297,1924,862,24.5227,-2.83173
707,162,24.4912,3.05243,-0.000472965,-0.000245539,-5.57157e-05,-0.000232623,-0.000485881,-1.343,0.000280608,0.0124192,1931,862,24.4913,-3.05244
714,162,24.443,3.33179,-0.000204629,-1.16746e-05,-0.00048934,0.000390608,-0.000606912,-0.882729,0.000580414,0.016144,1938,862,24.443,-3.33178
721,162,24.3715,3.67419,0.000495423,0.000202086,-0.000794501,0.00115668,-0.000459171,-0.694124,0.000961448,0.0287622,1945,862,24.3714,-3.67421
728,162,24.3759,3.93073,0.00105881,0.000620718,-0.00104554,0.001908,-0.000228471,-0.682138,0.0013546,0.0218849,1952,862,24.3758,-3.93072
735,162,24.4189,4.18903,0.00170185,0.00125185,-0.00139788,0.00289272,6.09796e-05,-0.705603,0.00190848,0.0108107,1959,862,24.419,-4.189
742,162,24.4237,4.46338,0.00245834,0.00192801,-0.00186557,0.0040775,0.00030885,-0.714803,0.00262145,0.0124251,1966,862,24.4238,-4.46338
749,162,24.3987,4.70886,0.00332173,0.00307333,-0.00263272,0.00583317,0.000561881,-0.761828,0.00371568,0.0167999,1973,862,24.3986,-4.70884
756,162,24.3372,4.83325,0.00464353,0.00426393,-0.00357123,0.00803,0.000877457,-0.758849,0.00508614,0.0388759,1980,862,24.3372,-4.83325
763,162,24.257,4.99097,0,0,0,0,0,0,0,-1,1987,862,24.257,-4.99097
770,162,24.1802,5.37335,0,0,0,0,0,0,0,-1,1994,862,24.1802,-5.37334
777,162,23.2972,6.45087,0,0,0,0,0,0,0,-1,2001,862,23.2973,-6.45089
784,162,22.9871,6.9187,0,0,0,0,0,0,0,-1,2008,862,22.987,-6.91869
791,162,0,0,0,0,0,0,0,0,0,-1,2015,862,0,0
798,162,0,0,0,0,0,0,0,0,0,-1,2022,862,0,0
805,162,0,0,0,0,0,0,0,0,0,-1,2029,862,0,0
812,162,0,0,0,0,0,0,0,0,0,-1,2036,862,0,0
-700,155,0,0,0,0,0,0,0,0,0,-1,524,869,0,0
-693,155,0,0,0,0,0,0,0,0,0,-1,531,869,0,0
-686,155,0,0,0,0,0,0,0,0,0,-1,538,869,0,0
-679,155,0,0,0,0,0,0,0,0,0,-1,545,869,0,0
-672,155,0,0,0,0,0,0,0,0,0,-1,552,869,0,0
-665,155,-21.6505,-0.0616455,0,0,0,0,0,0,0,-1,559,869,-21.6505,0.0616562
-658,155,-20.1608,2.49097,0,0,0,0,0,0,0,-1,566,869,-20.1607,-2.49094
-651,155,-15.9453,2.6264,0,0,0,0,0,0,0,-1,573,869,-15.9453,-2.6264
-644,155,-16.2235,2.57745,0.0644228,0.0345917,0.0449099,0.0968293,0.00218526,0.625068,0.0638369,0.047713,580,869,-16.2235,-2.57743
-637,155,-16.5494,2.5235,0.0457368,0.0258733,0.0309976,0.0683549,0.00325523,0.630363,0.0445245,0.0480601,587,869,-16.5494,-2.52348
-630,155,-16.7815,2.4472,0.0312812,0.0186937,0.0205323,0.0464627,0.00351218,0.63668,0.0298733,0.0447775,594,869,-16.7815,-2.44721
-623,155,-16.8964,2.48615,0.0206334,0.012957,0.0129166,0.03027,0.00332037,0.640977,0.0191693,0.0255658,601,869,-16.8964,-2.48614
-616,155,-16.9258,2.20135,0.0129075,0.00843823,0.00765034,0.0186429,0.00270284,0.643303,0.0116328,0.0132882,608,869,-16.9258,-2.20136
-609,155,-16.9653,1.94196,0.00637696,0.00496742,0.00393675,0.00967152,0.00167285,0.696825,0.00596872,0.0116234,615,869,-16.9653,-1.94194
-602,155,-16.9826,1.68524,0.00188505,0.00174543,0.00111091,0.00292834,0.000702135,0.75402,0.00176536,0.0111615,622,869,-16.9826,-1.68524
-595,155,-16.9897,1.41925,0.000240059,-6.06335e-05,0.000442315,0.000556882,-0.000377456,0.621571,0.000542746,0.0106606,629,869,-16.9897,-1.41927
-588,155,-16.9803,1.17212,-0.000750239,-0.00152927,-0.000257576,-0.000672777,-0.00160673,-0.292131,0.000931721,0.0118551,636,869,-16.9803,-1.17212
-581,155,-17.1043,0.955383,-0.000975144,-0.00232779,-0.000142437,-0.000960307,-0.00234263,-0.103785,0.00135981,0.0197364,643,869,-17.1043,-0.955409
-574,155,-17.2004,0.738831,-0.00108528,-0.00215636,0.000360055,-0.000975494,-0.00226614,0.295954,0.00131257,0.0262368,650,869,-17.2004,-0.738805
-567,155,-17.1154,0.368408,-0.000668248,-0.00194945,0.000906951,-0.000198475,-0.00241922,0.47792,0.00155089,0.0264537,657,869,-17.1154,-0.368421
-560,155,-17.0174,0.0284424,-7.11542e-05,-0.002075,0.00108196,0.000401538,-0.00254769,0.411894,0.00184691,0.0260609,664,869,-17.0174,-0.0284306
-553,155,-16.9149,-0.448547,0,0,0,0,0,0,0,-1,671,869,-16.9149,0.448535
-546,155,-20.7998,0.681885,0,0,0,0,0,0,0,-1,678,869,-20.7998,-0.681863
-539,155,-20.7864,0.693115,0.00113968,-0.00141423,0.00136718,0.0017335,-0.00200806,0.409754,0.00216213,0.0473421,685,869,-20.7864,-0.693086
-532,155,-20.7596,0.687622,0.00167431,-0.000983141,0.0014889,0.00234116,-0.00164999,0.421092,0.00231578,0.0363615,692,869,-20.7596,-0.687646
-525,155,-20.7574,0.720581,0.00211831,-0.000548753,0.00163705,0.00289624,-0.00132668,0.44361,0.0024936,0.0388223,699,869,-20.7574,-0.720551
-518,155,-20.7098,0.835693,0.00257011,-0.000209186,0.001804,0.00345763,-0.00109671,0.45721,0.0027447,0.0435534,706,869,-20.7098,-0.835666
-511,155,-20.5104,0.758667,0.00307761,-0.000314646,0.00199819,0.00400248,-0.00123952,0.433491,0.0031635,0.0429986,713,869,-20.5104,-0.75869
-504,155,-20.3962,0.651428,0.00267032,-0.00178598,0.00247107,0.00376946,-0.00288512,0.418524,0.00385331,0.0434039,720,869,-20.3963,-0.651435
-497,155,0,0,0,0,0,0,0,0,0,-1,727,869,0,0
-490,155,0,0,0,0,0,0,0,0,0,-1,734,869,0,0
-483,155,0,0,0,0,0,0,0,0,0,-1,741,869,0,0
-476,155,0,0,0,0,0,0,0,0,0,-1,748,869,0,0
-469,155,0,0,0,0,0,0,0,0,0,-1,755,869,0,0
-462,155,0,0,0,0,0,0,0,0,0,-1,762,869,0,0
-455,155,0,0,0,0,0,0,0,0,0,-1,769,869,0,0
-448,155,0,0,0,0,0,0,0,0,0,-1,776,869,0,0
-441,155,0,0,0,0,0,0,0,0,0,-1,783,869,0,0
-434,155,0,0,0,0,0,0,0,0,0,-1,790,869,0,0
-427,155,0,0,0,0,0,0,0,0,0,-1,797,869,0,0
-420,155,0,0,0,0,0,0,0,0,0,-1,804,869,0,0
-413,155,0,0,0,0,0,0,0,0,0,-1,811,869,0,0
-406,155,0,0,0,0,0,0,0,0,0,-1,818,869,0,0
-399,155,0,0,0,0,0,0,0,0,0,-1,825,869,0,0
-392,155,0,0,0,0,0,0,0,0,0,-1,832,869,0,0
-385,155,0,0,0,0,0,0,0,0,0,-1,839,869,0,0
-378,155,0,0,0,0,0,0,0,0,0,-1,846,869,0,0
-371,155,0,0,0,0,0,0,0,0,0,-1,853,869,0,0
-364,155,0,0,0,0,0,0,0,0,0,-1,860,869,0,0
-357,155,0,0,0,0,0,0,0,0,0,-1,867,869,0,0
-350,155,0,0,0,0,0,0,0,0,0,-1,874,869,0,0
-343,155,0,0,0,0,0,0,0,0,0,-1,881,869,0,0
-336,155,0,0,0,0,0,0,0,0,0,-1,888,869,0,0
-329,155,0,0,0,0,0,0,0,0,0,-1,895,869,0,0
-322,155,0,0,0,0,0,0,0,0,0,-1,902,869,0,0
-315,155,0,0,0,0,0,0,0,0,0,-1,909,869,0,0
-308,155,0,0,0,0,0,0,0,0,0,-1,916,869,0,0
-301,155,0,0,0,0,0,0,0,0,0,-1,923,869,0,0
-294,155,0,0,0,0,0,0,0,0,0,-1,930,869,0,0
-287,155,0,0,0,0,0,0,0,0,0,-1,937,869,0,0
-280,155,0,0,0,0,0,0,0,0,0,-1,944,869,0,0
-273,155,0,0,0,0,0,0,0,0,0,-1,951,869,0,0
-266,155,0,0,0,0,0,0,0,0,0,-1,958,869,0,0
-259,155,0,0,0,0,0,0,0,0,0,-1,965,869,0,0
-252,155,0,0,0,0,0,0,0,0,0,-1,972,869,0,0
-245,155,0,0,0,0,0,0,0,0,0,-1,979,869,0,0
-238,155,0,0,0,0,0,0,0,0,0,-1,986,869,0,0
-231,155,0,0,0,0,0,0,0,0,0,-1,993,869,0,0
-224,155,0,0,0,0,0,0,0,0,0,-1,1000,869,0,0
-217,155,0,0,0,0,0,0,0,0,0,-1,1007,869,0,0
-210,155,0,0,0,0,0,0,0,0,0,-1,1014,869,0,0
-203,155,0,0,0,0,0,0,0,0,0,-1,1021,869,0,0
-196,155,0,0,0,0,0,0,0,0,0,-1,1028,869,0,0
-189,155,0,0,0,0,0,0,0,0,0,-1,1035,869,0,0
-182,155,0,0,0,0,0,0,0,0,0,-1,1042,869,0,0
-175,155,0,0,0,0,0,0,0,0,0,-1,1049,869,0,0
-168,155,0,0,0,0,0,0,0,0,0,-1,1056,869,0,0
-161,155,0,0,0,0,0,0,0,0,0,-1,1063,869,0,0
-154,155,0,0,0,0,0,0,0,0,0,-1,1070,869,0,0
-147,155,0,0,0,0,0,0,0,0,0,-1,1077,869,0,0
-140,155,0,0,0,0,0,0,0,0,0,-1,1084,869,0,0
-133,155,0,0,0,0,0,0,0,0,0,-1,1091,869,0,0
-126,155,0,0,0,0,0,0,0,0,0,-1,1098,869,0,0
-119,155,0,0,0,0,0,0,0,0,0,-1,1105,869,0,0
-112,155,0,0,0,0,0,0,0,0,0,-1,1112,869,0,0
-105,155,0,0,0,0,0,0,0,0,0,-1,1119,869,0,0
-98,155,0,0,0,0,0,0,0,0,0,-1,1126,869,0,0
-91,155,0,0,0,0,0,0,0,0,0,-1,1133,869,0,0
-84,155,0,0,0,0,0,0,0,0,0,-1,1140,869,0,0
-77,155,0,0,0,0,0,0,0,0,0,-1,1147,869,0,0
-70,155,0,0,0,0,0,0,0,0,0,-1,1154,869,0,0
-63,155,0,0,0,0,0,0,0,0,0,-1,1161,869,0,0
-56,155,0,0,0,0,0,0,0,0,0,-1,1168,869,0,0
-49,155,0,0,0,0,0,0,0,0,0,-1,1175,869,0,0
-42,155,0,0,0,0,0,0,0,0,0,-1,1182,869,0,0
-35,155,0,0,0,0,0,0,0,0,0,-1,1189,869,0,0
-28,155,0,0,0,0,0,0,0,0,0,-1,1196,869,0,0
-21,155,0,0,0,0,0,0,0,0,0,-1,1203,869,0,0
-14,155,0,0,0,0,0,0,0,0,0,-1,1210,869,0,0
-7,155,0,0,0,0,0,0,0,0,0,-1,1217,869,0,0
0,155,0,0,0,0,0,0,0,0,0,-1,1224,869,0,0
7,155,0,0,0,0,0,0,0,0,0,-1,1231,869,0,0
14,155,0,0,0,0,0,0,0,0,0,-1,1238,869,0,0
21,155,0,0,0,0,0,0,0,0,0,-1,1245,869,0,0
28,155,0,0,0,0,0,0,0,0,0,-1,1252,869,0,0
35,155,0,0,0,0,0,0,0,0,0,-1,1259,869,0,0
42,155,0,0,0,0,0,0,0,0,0,-1,1266,869,0,0
49,155,0,0,0,0,0,0,0,0,0,-1,1273,869,0,0
56,155,0,0,0,0,0,0,0,0,0,-1,1280,869,0,0
63,155,0,0,0,0,0,0,0,0,0,-1,1287,869,0,0
70,155,0,0,0,0,0,0,0,0,0,-1,1294,869,0,0
77,155,0,0,0,0,0,0,0,0,0,-1,1301,869,0,0
84,155,0,0,0,0,0,0,0,0,0,-1,1308,869,0,0
91,155,0,0,0,0,0,0,0,0,0,-1,1315,869,0,0
98,155,0,0,0,0,0,0,0,0,0,-1,1322,869,0,0
105,155,0,0,0,0,0,0,0,0,0,-1,1329,869,0,0
112,155,0,0,0,0,0,0,0,0,0,-1,1336,869,0,0
119,155,0,0,0,0,0,0,0,0,0,-1,1343,869,0,0
126,155,0,0,0,0,0,0,0,0,0,-1,1350,869,0,0
133,155,0,0,0,0,0,0,0,0,0,-1,1357,869,0,0
140,155,0,0,0,0,0,0,0,0,0,-1,1364,869,0,0
147,155,0,0,0,0,0,0,0,0,0,-1,1371,869,0,0
154,155,0,0,0,0,0,0,0,0,0,-1,1378,869,0,0
161,155,0,0,0,0,0,0,0,0,0,-1,1385,869,0,0
168,155,0,0,0,0,0,0,0,0,0,-1,1392,869,0,0
175,155,0,0,0,0,0,0,0,0,0,-1,1399,869,0,0
182,155,0,0,0,0,0,0,0,0,0,-1,1406,869,0,0
189,155,0,0,0,0,0,0,0,0,0,-1,1413,869,0,0
196,155,0,0,0,0,0,0,0,0,0,-1,1420,869,0,0
203,155,0,0,0,0,0,0,0,0,0,-1,1427,869,0,0
210,155,0,0,0,0,0,0,0,0,0,-1,1434,869,0,0
217,155,0,0,0,0,0,0,0,0,0,-1,1441,869,0,0
224,155,0,0,0,0,0,0,0,0,0,-1,1448,869,0,0
231,155,0,0,0,0,0,0,0,0,0,-1,1455,869,0,0
238,155,0,0,0,0,0,0,0,0,0,-1,1462,869,0,0
245,155,0,0,0,0,0,0,0,0,0,-1,1469,869,0,0
252,155,0,0,0,0,0,0,0,0,0,-1,1476,869,0,0
259,155,0,0,0,0,0,0,0,0,0,-1,1483,869,0,0
266,155,0,0,0,0,0,0,0,0,0,-1,1490,869,0,0
273,155,0,0,0,0,0,0,0,0,0,-1,1497,869,0,0
280,155,0,0,0,0,0,0,0,0,0,-1,1504,869,0,0
287,155,0,0,0,0,0,0,0,0,0,-1,1511,869,0,0
294,155,0,0,0,0,0,0,0,0,0,-1,1518,869,0,0
301,155,0,0,0,0,0,0,0,0,0,-1,1525,869,0,0
308,155,0,0,0,0,0,0,0,0,0,-1,1532,869,0,0
315,155,0,0,0,0,0,0,0,0,0,-1,1539,869,0,0
322,155,0,0,0,0,0,0,0,0,0,-1,1546,869,0,0
329,155,0,0,0,0,0,0,0,0,0,-1,1553,869,0,0
336,155,0,0,0,0,0,0,0,0,0,-1,1560,869,0,0
343,155,0,0,0,0,0,0,0,0,0,-1,1567,869,0,0
350,155,0,0,0,0,0,0,0,0,0,-1,1574,869,0,0
357,155,0,0,0,0,0,0,0,0,0,-1,1581,869,0,0
364,155,0,0,0,0,0,0,0,0,0,-1,1588,869,0,0
371,155,0,0,0,0,0,0,0,0,0,-1,1595,869,0,0
378,155,0,0,0,0,0,0,0,0,0,-1,1602,869,0,0
385,155,0,0,0,0,0,0,0,0,0,-1,1609,869,0,0
392,155,0,0,0,0,0,0,0,0,0,-1,1616,869,0,0
399,155,0,0,0,0,0,0,0,0,0,-1,1623,869,0,0
406,155,0,0,0,0,0,0,0,0,0,-1,1630,869,0,0
413,155,0,0,0,0,0,0,0,0,0,-1,1637,869,0,0
420,155,0,0,0,0,0,0,0,0,0,-1,1644,869,0,0
427,155,0,0,0,0,0,0,0,0,0,-1,1651,869,0,0
434,155,0,0,0,0,0,0,0,0,0,-1,1658,869,0,0
441,155,0,0,0,0,0,0,0,0,0,-1,1665,869,0,0
448,155,0,0,0,0,0,0,0,0,0,-1,1672,869,0,0
455,155,0,0,0,0,0,0,0,0,0,-1,1679,869,0,0
462,155,0,0,0,0,0,0,0,0,0,-1,1686,869,0,0
469,155,0,0,0,0,0,0,0,0,0,-1,1693,869,0,0
476,155,0,0,0,0,0,0,0,0,0,-1,1700,869,0,0
483,155,0,0,0,0,0,0,0,0,0,-1,1707,869,0,0
490,155,0,0,0,0,0,0,0,0,0,-1,1714,869,0,0
497,155,0,0,0,0,0,0,0,0,0,-1,1721,869,0,0
504,155,0,0,0,0,0,0,0,0,0,-1,1728,869,0,0
511,155,0,0,0,0,0,0,0,0,0,-1,1735,869,0,0
518,155,0,0,0,0,0,0,0,0,0,-1,1742,869,0,0
525,155,0,0,0,0,0,0,0,0,0,-1,1749,869,0,0
532,155,0,0,0,0,0,0,0,0,0,-1,1756,869,0,0
539,155,0,0,0,0,0,0,0,0,0,-1,1763,869,0,0
546,155,0,0,0,0,0,0,0,0,0,-1,1770,869,0,0
553,155,0,0,0,0,0,0,0,0,0,-1,1777,869,0,0
560,155,0,0,0,0,0,0,0,0,0,-1,1784,869,0,0
567,155,0,0,0,0,0,0,0,0,0,-1,1791,869,0,0
574,155,0,0,0,0,0,0,0,0,0,-1,1798,869,0,0
581,155,0,0,0,0,0,0,0,0,0,-1,1805,869,0,0
588,155,0,0,0,0,0,0,0,0,0,-1,1812,869,0,0
595,155,0,0,0,0,0,0,0,0,0,-1,1819,869,0,0
602,155,0,0,0,0,0,0,0,0,0,-1,1826,869,0,0
609,155,0,0,0,0,0,0,0,0,0,-1,1833,869,0,0
616,155,29.5527,2.51105,0.00651661,0.00132915,-0.00517456,0.0097111,-0.00186534,-0.553076,0.00717711,0.0470452,1840,869,29.5527,-2.51104
623,155,29.4901,2.53894,0.0043221,0.000301472,-0.00380094,0.00661161,-0.00198804,-0.542149,0.00519871,0.0438985,1847,869,29.4902,-2.53896
630,155,29.4216,2.50531,0.00264003,-7.84189e-05,-0.00250646,0.00413209,-0.00157048,-0.536947,0.0034013,0.0410388,1854,869,29.4216,-2.50532
637,155,29.3448,2.59521,0.00124877,-0.000198552,-0.00149256,0.00218384,-0.00113363,-0.559673,0.00194707,0.0398805,1861,869,29.3449,-2.59519
644,155,29.3844,2.51038,0.000143738,-0.00026514,-0.00070071,0.000669223,-0.000790626,-0.643458,0.000843815,0.0388567,1868,869,29.3844,-2.51039
651,155,29.4156,2.50964,-0.00051433,-0.000302078,-0.000139608,-0.000232838,-0.00058357,-1.11039,0.000339209,0.0344535,1875,869,29.4156,-2.50967
658,155,29.3557,2.59454,-0.000902717,-0.00044794,0.000138218,-0.000409227,-0.000941429,1.29771,0.000545078,0.0275347,1882,869,29.3557,-2.59457
665,155,29.2686,2.70978,-0.00108374,-0.000478706,0.000282536,-0.000367286,-0.00119516,1.19517,0.000706899,0.0323366,1889,869,29.2685,-2.70975
672,155,29.2325,2.79932,-0.00116587,-0.000691057,0.000412745,-0.000452313,-0.00140462,1.04639,0.000827905,0.0444713,1896,869,29.2326,-2.79933
679,155,29.1693,2.87457,0,0,0,0,0,0,0,-1,1903,869,29.1693,-2.87458
686,155,24.7987,2.41412,0,0,0,0,0,0,0,-1,1910,869,24.7986,-2.41415
693,155,24.6984,2.56061,-0.000812037,-0.000502,0.000397415,-0.00023044,-0.0010836,0.971355,0.000659151,0.0267134,1917,869,24.6984,-2.56061
700,155,24.7904,2.84656,-0.000636452,-0.000428998,0.000295744,-0.000219318,-0.000846132,0.954062,0.000507047,0.0197475,1924,869,24.7904,-2.84655
707,155,24.8568,3.1535,-0.000455921,-0.00019926,0.000112731,-0.000156778,-0.000498403,1.21041,0.000294276,0.0147923,1931,869,24.8568,-3.15352
714,155,24.8097,3.35004,-0.000218748,1.33207e-05,-0.000350222,0.00026623,-0.000471658,-0.945365,0.000431488,0.0262908,1938,869,24.8097,-3.35001
721,155,24.6677,3.65265,0.000320042,0.000185546,-0.000685456,0.000941541,-0.000435953,-0.736501,0.000812957,0.0245364,1945,869,24.6677,-3.65266
728,155,24.6749,3.92218,0.000656462,0.0005417,-0.000981922,0.00158268,-0.000384516,-0.756213,0.00120394,0.0193689,1952,869,24.675,-3.92217
735,155,24.707,4.2113,0.00083137,0.00117201,-0.00135804,0.00237037,-0.000366987,-0.847781,0.00171571,0.0150977,1959,869,24.7071,-4.21132
742,155,24.7339,4.49536,0.000940531,0.00195381,-0.00182661,0.00334275,-0.000448401,-0.920681,0.00239201,0.0161352,1966,869,24.7339,-4.49533
749,155,24.694,4.74731,0.000914216,0.00333251,-0.00255283,0.00494807,-0.00070135,-1.00657,0.00355563,0.0136513,1973,869,24.694,-4.74732
756,155,24.6411,4.96313,0.00100826,0.00480959,-0.0033384,0.00675046,-0.00093261,-1.04418,0.00484121,0.0240631,1980,869,24.6411,-4.96314
763,155,24.5967,5.19965,0.000977136,0.00675177,-0.00443728,0.00915842,-0.00142951,-1.07383,0.00663366,0.0434013,1987,869,24.5967,-5.19964
770,155,24.457,5.46381,0,0,0,0,0,0,0,-1,1994,869,24.4571,-5.46381
777,155,24.4714,5.76581,0,0,0,0,0,0,0,-1,2001,869,24.4715,-5.76582
784,155,23.2045,6.70245,0,0,0,0,0,0,0,-1,2008,869,23.2045,-6.70245
791,155,0,0,0,0,0,0,0,0,0,-1,2015,869,0,0
798,155,0,0,0,0,0,0,0,0,0,-1,2022,869,0,0
805,155,0,0,0,0,0,0,0,0,0,-1,2029,869,0,0
812,155,0,0,0,0,0,0,0,0,0,-1,2036,869,0,0
-700,148,0,0,0,0,0,0,0,0,0,-1,524,876,0,0
-693,148,0,0,0,0,0,0,0,0,0,-1,531,876,0,0
-686,148,0,0,0,0,0,0,0,0,0,-1,538,876,0,0
-679,148,0,0,0,0,0,0,0,0,0,-1,545,876,0,0
-672,148,-23.6647,-2.1911,0,0,0,0,0,0,0,-1,552,876,-23.6648,2.19109
-665,148,-22.3866,0.00531006,0,0,0,0,0,0,0,-1,559,876,-22.3866,-0.00529799
-658,148,-20.2978,2.47821,0.132455,0.0547611,0.0895351,0.191208,-0.00399119,0.580716,0.128823,0.0453601,566,876,-20.2978,-2.4782
-651,148,-18.8843,4.99066,0,0,0,0,0,0,0,-1,573,876,-18.8843,-4.99065
-644,148,-16.4768,2.51587,0,0,0,0,0,0,0,-1,580,876,-16.4768,-2.51588
-637,148,-17.7156,2.59131,0,0,0,0,0,0,0,-1,587,876,-17.7157,-2.59128
-630,148,-17.4434,2.54871,0.0364318,0.0192374,0.0246727,0.0539622,0.0017069,0.617751,0.0354196,0.0440854,594,876,-17.4434,-2.54873
-623,148,-17.1207,2.49542,0.0241818,0.0136212,0.0164113,0.0361414,0.00166167,0.629755,0.0235599,0.0223735,601,876,-17.1207,-2.49545
-616,148,-17.1921,2.18878,0.0146742,0.00905226,0.0102623,0.0225035,0.00122294,0.651721,0.0146118,0.0116368,608,876,-17.1921,-2.18881
-609,148,-17.2292,1.9361,0.00691471,0.00557661,0.00597258,0.0122556,0.000235721,0.729621,0.00809297,0.0109947,615,876,-17.2292,-1.93609
-602,148,-17.2478,1.67877,0.00197488,0.00207157,0.00252702,0.0045507,-0.000504258,0.794963,0.00321509,0.0120731,622,876,-17.2478,-1.6788
-595,148,-17.255,1.41754,0.000109002,0.000118997,0.00136239,0.0014764,-0.0012484,0.787232,0.001575,0.0102282,629,876,-17.255,-1.41755
-588,148,-17.2729,1.14227,-0.000914664,-0.0013604,0.000411635,-0.000669435,-0.00160562,0.537283,0.000931263,0.014597,636,876,-17.2729,-1.14224
-581,148,-17.361,0.935791,-0.00118484,-0.00215622,0.000283129,-0.00110834,-0.00223272,0.26389,0.00128907,0.0260465,643,876,-17.3609,-0.935772
-574,148,-17.1968,0.729858,-0.00138204,-0.00214834,0.000564115,-0.00108326,-0.00244712,0.487082,0.00141594,0.0309236,650,876,-17.1968,-0.729857
-567,148,-17.2841,0.471313,-0.00101888,-0.00217036,0.000903301,-0.000523439,-0.0026658,0.501675,0.00163096,0.0371478,657,876,-17.284,-0.471303
-560,148,-17.2112,0.134399,-0.000377469,-0.00232,0.00108694,0.000108935,-0.0028064,0.420771,0.00190828,0.0425613,664,876,-17.2113,-0.134423
-553,148,-18.631,0.358704,0,0,0,0,0,0,0,-1,671,876,-18.631,-0.358722
-546,148,-20.2703,0.787537,0,0,0,0,0,0,0,-1,678,876,-20.2703,-0.787543
-539,148,-20.7379,0.754272,0.00083239,-0.0019463,0.00150248,0.00148944,-0.00260335,0.412251,0.00239197,0.0376087,685,876,-20.7379,-0.75427
-532,148,-20.7393,0.791931,0.00140162,-0.00164526,0.00171689,0.00217352,-0.00241716,0.422514,0.00265167,0.0361184,692,876,-20.7393,-0.791935
-525,148,-20.7048,0.85968,0.00188777,-0.00137939,0.00198286,0.0028233,-0.00231492,0.440841,0.00297139,0.0391976,699,876,-20.7048,-0.859705
-518,148,-20.6825,0.916077,0.00245936,-0.00127252,0.00228219,0.00354132,-0.00235448,0.442705,0.00342685,0.0446117,706,876,-20.6825,-0.916091
-511,148,-20.6135,1.01324,0.00310554,-0.00170445,0.00262144,0.00425807,-0.00285698,0.414217,0.00413433,0.041612,713,876,-20.6135,-1.01325
-504,148,-20.5315,0.868103,0.00257398,-0.00373235,0.00333318,0.00400912,-0.00516749,0.406572,0.00531217,0.0425248,720,876,-20.5315,-0.868132
-497,148,0,0,0,0,0,0,0,0,0,-1,727,876,0,0
-490,148,0,0,0,0,0,0,0,0,0,-1,734,876,0,0
-483,148,0,0,0,0,0,0,0,0,0,-1,741,876,0,0
-476,148,0,0,0,0,0,0,0,0,0,-1,748,876,0,0
-469,148,0,0,0,0,0,0,0,0,0,-1,755,876,0,0
-462,148,0,0,0,0,0,0,0,0,0,-1,762,876,0,0
-455,148,0,0,0,0,0,0,0,0,0,-1,769,876,0,0
-448,148,0,0,0,0,0,0,0,0,0,-1,776,876,0,0
-441,148,0,0,0,0,0,0,0,0,0,-1,783,876,0,0
-434,148,0,0,0,0,0,0,0,0,0,-1,790,876,0,0
-427,148,0,0,0,0,0,0,0,0,0,-1,797,876,0,0
-420,148,0,0,0,0,0,0,0,0,0,-1,804,876,0,0
-413,148,0,0,0,0,0,0,0,0,0,-1,811,876,0,0
-406,148,0,0,0,0,0,0,0,0,0,-1,818,876,0,0
-399,148,0,0,0,0,0,0,0,0,0,-1,825,876,0,0
-392,148,0,0,0,0,0,0,0,0,0,-1,832,876,0,0
-385,148,0,0,0,0,0,0,0,0,0,-1,839,876,0,0
-378,148,0,0,0,0,0,0,0,0,0,-1,846,876,0,0
-371,148,0,0,0,0,0,0,0,0,0,-1,853,876,0,0
-364,148,0,0,0,0,0,0,0,0,0,-1,860,876,0,0
-357,148,0,0,0,0,0,0,0,0,0,-1,867,876,0,0
-350,148,0,0,0,0,0,0,0,0,0,-1,874,876,0,0
-343,148,0,0,0,0,0,0,0,0,0,-1,881,876,0,0
-336,148,0,0,0,0,0,0,0,0,0,-1,888,876,0,0
-329,148,0,0,0,0,0,0,0,0,0,-1,895,876,0,0
-322,148,0,0,0,0,0,0,0,0,0,-1,902,876,0,0
-315,148,0,0,0,0,0,0,0,0,0,-1,909,876,0,0
-308,148,0,0,0,0,0,0,0,0,0,-1,916,876,0,0
-301,148,0,0,0,0,0,0,0,0,0,-1,923,876,0,0
-294,148,0,0,0,0,0,0,0,0,0,-1,930,876,0,0
-287,148,0,0,0,0,0,0,0,0,0,-1,937,876,0,0
-280,148,0,0,0,0,0,0,0,0,0,-1,944,876,0,0
-273,148,0,0,0,0,0,0,0,0,0,-1,951,876,0,0
-266,148,0,0,0,0,0,0,0,0,0,-1,958,876,0,0
-259,148,0,0,0,0,0,0,0,0,0,-1,965,876,0,0
-252,148,0,0,0,0,0,0,0,0,0,-1,972,876,0,0
-245,148,0,0,0,0,0,0,0,0,0,-1,979,876,0,0
-238,148,0,0,0,0,0,0,0,0,0,-1,986,876,0,0
-231,148,0,0,0,0,0,0,0,0,0,-1,993,876,0,0
-224,148,0,0,0,0,0,0,0,0,0,-1,1000,876,0,0
-217,148,0,0,0,0,0,0,0,0,0,-1,1007,876,0,0
-210,148,0,0,0,0,0,0,0,0,0,-1,1014,876,0,0
-203,148,0,0,0,0,0,0,0,0,0,-1,1021,876,0,0
-196,148,0,0,0,0,0,0,0,0,0,-1,1028,876,0,0
-189,148,0,0,0,0,0,0,0,0,0,-1,1035,876,0,0
-182,148,0,0,0,0,0,0,0,0,0,-1,1042,876,0,0
-175,148,0,0,0,0,0,0,0,0,0,-1,1049,876,0,0
-168,148,0,0,0,0,0,0,0,0,0,-1,1056,876,0,0
-161,148,0,0,0,0,0,0,0,0,0,-1,1063,876,0,0
-154,148,0,0,0,0,0,0,0,0,0,-1,1070,876,0,0
-147,148,0,0,0,0,0,0,0,0,0,-1,1077,876,0,0
-140,148,0,0,0,0,0,0,0,0,0,-1,1084,876,0,0
-133,148,0,0,0,0,0,0,0,0,0,-1,1091,876,0,0
-126,148,0,0,0,0,0,0,0,0,0,-1,1098,876,0,0
-119,148,0,0,0,0,0,0,0,0,0,-1,1105,876,0,0
-112,148,0,0,0,0,0,0,0,0,0,-1,1112,876,0,0
-105,148,0,0,0,0,0,0,0,0,0,-1,1119,876,0,0
-98,148,0,0,0,0,0,0,0,0,0,-1,1126,876,0,0
-91,148,0,0,0,0,0,0,0,0,0,-1,1133,876,0,0
-84,148,0,0,0,0,0,0,0,0,0,-1,1140,876,0,0
-77,148,0,0,0,0,0,0,0,0,0,-1,1147,876,0,0
-70,148,0,0,0,0,0,0,0,0,0,-1,1154,876,0,0
-63,148,0,0,0,0,0,0,0,0,0,-1,1161,876,0,0
-56,148,0,0,0,0,0,0,0,0,0,-1,1168,876,0,0
-49,148,0,0,0,0,0,0,0,0,0,-1,1175,876,0,0
-42,148,0,0,0,0,0,0,0,0,0,-1,1182,876,0,0
-35,148,0,0,0,0,0,0,0,0,0,-1,1189,876,0,0
-28,148,0,0,0,0,0,0,0,0,0,-1,1196,876,0,0
-21,148,0,0,0,0,0,0,0,0,0,-1,1203,876,0,0
-14,148,0,0,0,0,0,0,0,0,0,-1,1210,876,0,0
-7,148,0,0,0,0,0,0,0,0,0,-1,1217,876,0,0
0,148,0,0,0,0,0,0,0,0,0,-1,1224,876,0,0
7,148,0,0,0,0,0,0,0,0,0,-1,1231,876,0,0
14,148,0,0,0,0,0,0,0,0,0,-1,1238,876,0,0
21,148,0,0,0,0,0,0,0,0,0,-1,1245,876,0,0
28,148,0,0,0,0,0,0,0,0,0,-1,1252,876,0,0
35,148,0,0,0,0,0,0,0,0,0,-1,1259,876,0,0
42,148,0,0,0,0,0,0,0,0,0,-1,1266,876,0,0
49,148,0,0,0,0,0,0,0,0,0,-1,1273,876,0,0
56,148,0,0,0,0,0,0,0,0,0,-1,1280,876,0,0
63,148,0,0,0,0,0,0,0,0,0,-1,1287,876,0,0
70,148,0,0,0,0,0,0,0,0,0,-1,1294,876,0,0
77,148,0,0,0,0,0,0,0,0,0,-1,1301,876,0,0
84,148,0,0,0,0,0,0,0,0,0,-1,1308,876,0,0
91,148,0,0,0,0,0,0,0,0,0,-1,1315,876,0,0
98,148,0,0,0,0,0,0,0,0,0,-1,1322,876,0,0
105,148,0,0,0,0,0,0,0,0,0,-1,1329,876,0,0
112,148,0,0,0,0,0,0,0,0,0,-1,1336,876,0,0
119,148,0,0,0,0,0,0,0,0,0,-1,1343,876,0,0
126,148,0,0,0,0,0,0,0,0,0,-1,1350,876,0,0
133,148,0,0,0,0,0,0,0,0,0,-1,1357,876,0,0
140,148,0,0,0,0,0,0,0,0,0,-1,1364,876,0,0
147,148,0,0,0,0,0,0,0,0,0,-1,1371,876,0,0
154,148,0,0,0,0,0,0,0,0,0,-1,1378,876,0,0
161,148,0,0,0,0,0,0,0,0,0,-1,1385,876,0,0
168,148,0,0,0,0,0,0,0,0,0,-1,1392,876,0,0
175,148,0,0,0,0,0,0,0,0,0,-1,1399,876,0,0
182,148,0,0,0,0,0,0,0,0,0,-1,1406,876,0,0
189,148,0,0,0,0,0,0,0,0,0,-1,1413,876,0,0
196,148,0,0,0,0,0,0,0,0,0,-1,1420,876,0,0
203,148,0,0,0,0,0,0,0,0,0,-1,1427,876,0,0
210,148,0,0,0,0,0,0,0,0,0,-1,1434,876,0,0
217,148,0,0,0,0,0,0,0,0,0,-1,1441,876,0,0
224,148,0,0,0,0,0,0,0,0,0,-1,1448,876,0,0
231,148,0,0,0,0,0,0,0,0,0,-1,1455,876,0,0
238,148,0,0,0,0,0,0,0,0,0,-1,1462,876,0,0
245,148,0,0,0,0,0,0,0,0,0,-1,1469,876,0,0
252,148,0,0,0,0,0,0,0,0,0,-1,1476,876,0,0
259,148,0,0,0,0,0,0,0,0,0,-1,1483,876,0,0
266,148,0,0,0,0,0,0,0,0,0,-1,1490,876,0,0
273,148,0,0,0,0,0,0,0,0,0,-1,1497,876,0,0
280,148,0,0,0,0,0,0,0,0,0,-1,1504,876,0,0
287,148,0,0,0,0,0,0,0,0,0,-1,1511,876,0,0
294,148,0,0,0,0,0,0,0,0,0,-1,1518,876,0,0
301,148,0,0,0,0,0,0,0,0,0,-1,1525,876,0,0
308,148,0,0,0,0,0,0,0,0,0,-1,1532,876,0,0
315,148,0,0,0,0,0,0,0,0,0,-1,1539,876,0,0
322,148,0,0,0,0,0,0,0,0,0,-1,1546,876,0,0
329,148,0,0,0,0,0,0,0,0,0,-1,1553,876,0,0
336,148,0,0,0,0,0,0,0,0,0,-1,1560,876,0,0
343,148,0,0,0,0,0,0,0,0,0,-1,1567,876,0,0
350,148,0,0,0,0,0,0,0,0,0,-1,1574,876,0,0
357,148,0,0,0,0,0,0,0,0,0,-1,1581,876,0,0
364,148,0,0,0,0,0,0,0,0,0,-1,1588,876,0,0
371,148,0,0,0,0,0,0,0,0,0,-1,1595,876,0,0
378,148,0,0,0,0,0,0,0,0,0,-1,1602,876,0,0
385,148,0,0,0,0,0,0,0,0,0,-1,1609,876,0,0
392,148,0,0,0,0,0,0,0,0,0,-1,1616,876,0,0
399,148,0,0,0,0,0,0,0,0,0,-1,1623,876,0,0
406,148,0,0,0,0,0,0,0,0,0,-1,1630,876,0,0
413,148,0,0,0,0,0,0,0,0,0,-1,1637,876,0,0
420,148,0,0,0,0,0,0,0,0,0,-1,1644,876,0,0
427,148,0,0,0,0,0,0,0,0,0,-1,1651,876,0,0
434,148,0,0,0,0,0,0,0,0,0,-1,1658,876,0,0
441,148,0,0,0,0,0,0,0,0,0,-1,1665,876,0,0
448,148,0,0,0,0,0,0,0,0,0,-1,1672,876,0,0
455,148,0,0,0,0,0,0,0,0,0,-1,1679,876,0,0
462,148,0,0,0,0,0,0,0,0,0,-1,1686,876,0,0
469,148,0,0,0,0,0,0,0,0,0,-1,1693,876,0,0
476,148,0,0,0,0,0,0,0,0,0,-1,1700,876,0,0
483,148,0,0,0,0,0,0,0,0,0,-1,1707,876,0,0
490,148,0,0,0,0,0,0,0,0,0,-1,1714,876,0,0
497,148,0,0,0,0,0,0,0,0,0,-1,1721,876,0,0
504,148,0,0,0,0,0,0,0,0,0,-1,1728,876,0,0
511,148,0,0,0,0,0,0,0,0,0,-1,1735,876,0,0
518,148,0,0,0,0,0,0,0,0,0,-1,1742,876,0,0
525,148,0,0,0,0,0,0,0,0,0,-1,1749,876,0,0
532,148,0,0,0,0,0,0,0,0,0,-1,1756,876,0,0
539,148,0,0,0,0,0,0,0,0,0,-1,1763,876,0,0
546,148,0,0,0,0,0,0,0,0,0,-1,1770,876,0,0
553,148,0,0,0,0,0,0,0,0,0,-1,1777,876,0,0
560,148,0,0,0,0,0,0,0,0,0,-1,1784,876,0,0
567,148,0,0,0,0,0,0,0,0,0,-1,1791,876,0,0
574,148,0,0,0,0,0,0,0,0,0,-1,1798,876,0,0
581,148,0,0,0,0,0,0,0,0,0,-1,1805,876,0,0
588,148,0,0,0,0,0,0,0,0,0,-1,1812,876,0,0
595,148,0,0,0,0,0,0,0,0,0,-1,1819,876,0,0
602,148,0,0,0,0,0,0,0,0,0,-1,1826,876,0,0
609,148,0,0,0,0,0,0,0,0,0,-1,1833,876,0,0
616,148,0,0,0,0,0,0,0,0,0,-1,1840,876,0,0
623,148,29.4791,2.4856,0.00458444,-0.000463123,-0.0045127,0.00723114,-0.00310982,-0.530435,0.00612637,0.0396926,1847,876,29.4791,-2.48557
630,148,29.4058,2.4054,0.00288881,-0.000735464,-0.00284225,0.00444746,-0.00229412,-0.501605,0.00395789,0.0390795,1854,876,29.4057,-2.40542
637,148,29.256,2.55878,0.00148977,-0.000628442,-0.00154187,0.00230125,-0.00143991,-0.484459,0.00217896,0.0374881,1861,876,29.2559,-2.5588
644,148,29.3546,2.49609,0.000321046,-0.000465574,-0.000534585,0.000591418,-0.000735946,-0.468246,0.000767867,0.0390888,1868,876,29.3546,-2.49609
651,148,29.4553,2.45746,-0.000429031,-0.000313099,0.000171102,-0.000190411,-0.000551719,0.948722,0.000323589,0.0392816,1875,876,29.4553,-2.45746
658,148,29.3632,2.55829,-0.000845456,-0.000347589,0.000514762,-2.4729e-05,-0.00116832,1.01061,0.000770767,0.0326821,1882,876,29.3631,-2.55826
665,148,29.2458,2.72607,-0.00101429,-0.000321718,0.000662749,7.97612e-05,-0.00141576,1.02614,0.000971522,0.0239365,1889,876,29.2458,-2.72605
672,148,29.278,2.6933,-0.00105644,-0.000508091,0.000769161,3.42993e-05,-0.00159884,0.956608,0.00107751,0.0292538,1896,876,29.2779,-2.69329
679,148,29.2898,2.62604,0,0,0,0,0,0,0,-1,1903,876,29.2898,-2.62602
686,148,21.6195,2.40845,0,0,0,0,0,0,0,-1,1910,876,21.6196,-2.40846
693,148,24.8959,2.57538,0,0,0,0,0,0,0,-1,1917,876,24.8959,-2.57539
700,148,25.0759,2.88953,-0.000501974,-0.000252813,0.000497897,0.000135853,-0.00089064,0.907988,0.00064384,0.0206184,1924,876,25.0759,-2.88953
707,148,25.1804,3.25128,-0.000343375,-8.18149e-05,0.000226246,4.87302e-05,-0.00047392,1.04746,0.000333379,0.0175713,1931,876,25.1805,-3.25129
714,148,25.1302,3.41071,-0.000127722,9.72554e-05,-0.000233374,0.000243836,-0.000274303,-1.00997,0.00029932,0.0177524,1938,876,25.1302,-3.41073
721,148,24.9862,3.61865,0.000290072,0.000228273,-0.000564236,0.000824254,-0.000305909,-0.758044,0.000674988,0.0166221,1945,876,24.9863,-3.61867
728,148,24.9785,3.9184,0.000467723,0.000546634,-0.00086931,0.00137738,-0.000363026,-0.808076,0.00106019,0.0199375,1952,876,24.9786,-3.9184
735,148,25.0082,4.23859,0.000317838,0.00112432,-0.0011379,0.00192832,-0.000486159,-0.955681,0.00147456,0.0182941,1959,876,25.0082,-4.23859
742,148,25.0032,4.52039,-5.24996e-05,0.00191531,-0.00152583,0.00274696,-0.000884149,-1.07176,0.00218644,0.0187646,1966,876,25.0031,-4.52041
749,148,24.9751,4.76221,-0.000768531,0.00338888,-0.00207866,0.00424988,-0.00162953,-1.1781,0.00350505,0.015557,1973,876,24.9751,-4.7622
756,148,24.9305,4.99268,-0.00157211,0.00487917,-0.00254496,0.00576225,-0.0024552,-1.2368,0.00487073,0.0196852,1980,876,24.9305,-4.99266
763,148,24.9243,5.09473,-0.00274417,0.00677831,-0.00314428,0.00772284,-0.00368871,-1.27897,0.00672429,0.040961,1987,876,24.9243,-5.09474
770,148,24.7339,5.55426,0,0,0,0,0,0,0,-1,1994,876,24.7339,-5.55428
777,148,23.6108,5.93567,0,0,0,0,0,0,0,-1,2001,876,23.6108,-5.93566
784,148,23.4772,6.47485,0,0,0,0,0,0,0,-1,2008,876,23.4772,-6.47483
791,148,23.2214,6.95007,0,0,0,0,0,0,0,-1,2015,876,23.2214,-6.9501
798,148,0,0,0,0,0,0,0,0,0,-1,2022,876,0,0
805,148,0,0,0,0,0,0,0,0,0,-1,2029,876,0,0
812,148,0,0,0,0,0,0,0,0,0,-1,2036,876,0,0
-700,141,0,0,0,0,0,0,0,0,0,-1,524,883,0,0
-693,141,0,0,0,0,0,0,0,0,0,-1,531,883,0,0
-686,141,0,0,0,0,0,0,0,0,0,-1,538,883,0,0
-679,141,0,0,0,0,0,0,0,0,0,-1,545,883,0,0
-672,141,-23.4171,-2.2511,0,0,0,0,0,0,0,-1,552,883,-23.4171,2.25108
-665,141,-22.109,-0.0501099,0.170883,0.0619539,0.113493,0.242304,-0.00946696,0.561682,0.164782,0.0460426,559,883,-22.109,0.0501062
-658,141,-20.7372,2.51282,0.13424,0.0505556,0.0884306,0.190228,-0.00543232,0.564423,0.128668,0.0451986,566,883,-20.7372,-2.51283
-651,141,-19.722,1.6839,0,0,0,0,0,0,0,-1,573,883,-19.722,-1.6839
-644,141,-18.924,2.34473,0,0,0,0,0,0,0,-1,580,883,-18.9239,-2.34471
-637,141,-17.7396,3.15607,0,0,0,0,0,0,0,-1,587,883,-17.7396,-3.15605
-630,141,-17.5574,2.84674,0.038788,0.0177156,0.0259243,0.0562354,0.000268245,0.592383,0.0374012,0.0392748,594,883,-17.5575,-2.84675
-623,141,-17.3282,2.44318,0.0261461,0.0125008,0.0175818,0.0381826,0.000464208,0.600316,0.0253018,0.0224274,601,883,-17.3282,-2.4432
-616,141,-17.4626,2.15735,0.0159147,0.00821229,0.0111531,0.0238628,0.000264203,0.619156,0.0158212,0.0116892,608,883,-17.4626,-2.15734
-609,141,-17.4911,1.9162,0.00754854,0.00500781,0.006689,0.0130867,-0.000530389,0.691556,0.00890655,0.0124785,615,883,-17.4911,-1.91617
-602,141,-17.5074,1.67572,0.0022722,0.00162622,0.00304786,0.00501414,-0.00111572,0.732609,0.00377011,0.0124023,622,883,-17.5074,-1.67569
-595,141,-17.5141,1.42133,0.000118208,-0.000158439,0.00167994,0.00166551,-0.00170574,0.744322,0.00194644,0.0106467,629,883,-17.5141,-1.42134
-588,141,-17.6794,1.19818,-0.00102675,-0.00147751,0.000659724,-0.000554971,-0.00194929,0.6208,0.00115968,0.017716,636,883,-17.6794,-1.19819
-581,141,-17.6531,0.978821,-0.001425,-0.00214487,0.000446188,-0.00121166,-0.0023582,0.445996,0.00136168,0.025305,643,883,-17.6532,-0.978824
-574,141,-17.4333,0.803711,-0.00175764,-0.0022134,0.000603557,-0.00134038,-0.00263066,0.604889,0.00151891,0.0324675,650,883,-17.4333,-0.803709
-567,141,-17.4475,0.617615,-0.00150877,-0.00227015,0.000885156,-0.000925911,-0.00285301,0.582314,0.00168065,0.0342847,657,883,-17.4475,-0.617638
-560,141,-17.7077,0.632141,-0.000901941,-0.00243089,0.00108091,-0.00034249,-0.00299034,0.477609,0.00188977,0.0480153,664,883,-17.7077,-0.632145
-553,141,-18.5539,1.32825,0,0,0,0,0,0,0,-1,671,883,-18.5539,-1.32822
-546,141,-20.6966,0.750366,-0.000232891,-0.00243101,0.00139549,0.000444373,-0.00310827,0.451838,0.00223508,0.036216,678,883,-20.6966,-0.750392
-539,141,-20.7047,0.762939,0.000309754,-0.00223033,0.00162951,0.0011057,-0.00302628,0.454372,0.00247001,0.0282007,685,883,-20.7047,-0.762968
-532,141,-20.7372,0.788635,0.000925378,-0.00200416,0.00194552,0.00189589,-0.00297467,0.462723,0.00283492,0.0288573,692,883,-20.7372,-0.788642
-525,141,-20.7317,0.835693,0.00149919,-0.0018366,0.00234415,0.00270826,-0.00304567,0.476193,0.00332393,0.0389304,699,883,-20.7317,-0.835707
-518,141,-20.734,0.928406,0.00223967,-0.00188225,0.00279473,0.00365118,-0.00329376,0.46769,0.00401144,0.0445855,706,883,-20.734,-0.928412
-511,141,-20.7243,1.07758,0.00302216,-0.00250093,0.00332579,0.00458346,-0.00406223,0.438913,0.00499462,0.0414455,713,883,-20.7243,-1.07756
-504,141,-20.7399,1.03778,0.00237721,-0.00479918,0.00437572,0.00444781,-0.00686979,0.441982,0.0065839,0.0426834,720,883,-20.7399,-1.03778
-497,141,0,0,0,0,0,0,0,0,0,-1,727,883,0,0
-490,141,0,0,0,0,0,0,0,0,0,-1,734,883,0,0
-483,141,0,0,0,0,0,0,0,0,0,-1,741,883,0,0
-476,141,0,0,0,0,0,0,0,0,0,-1,748,883,0,0
-469,141,0,0,0,0,0,0,0,0,0,-1,755,883,0,0
-462,141,0,0,0,0,0,0,0,0,0,-1,762,883,0,0
-455,141,0,0,0,0,0,0,0,0,0,-1,769,883,0,0
-448,141,0,0,0,0,0,0,0,0,0,-1,776,883,0,0
-441,141,0,0,0,0,0,0,0,0,0,-1,783,883,0,0
-434,141,0,0,0,0,0,0,0,0,0,-1,790,883,0,0
-427,141,0,0,0,0,0,0,0,0,0,-1,797,883,0,0
-420,141,0,0,0,0,0,0,0,0,0,-1,804,883,0,0
-413,141,0,0,0,0,0,0,0,0,0,-1,811,883,0,0
-406,141,0,0,0,0,0,0,0,0,0,-1,818,883,0,0
-399,141,0,0,0,0,0,0,0,0,0,-1,825,883,0,0
-392,141,0,0,0,0,0,0,0,0,0,-1,832,883,0,0
-385,141,0,0,0,0,0,0,0,0,0,-1,839,883,0,0
-378,141,0,0,0,0,0,0,0,0,0,-1,846,883,0,0
-371,141,0,0,0,0,0,0,0,0,0,-1,853,883,0,0
-364,141,0,0,0,0,0,0,0,0,0,-1,860,883,0,0
-357,141,0,0,0,0,0,0,0,0,0,-1,867,883,0,0
-350,141,0,0,0,0,0,0,0,0,0,-1,874,883,0,0
-343,141,0,0,0,0,0,0,0,0,0,-1,881,883,0,0
-336,141,0,0,0,0,0,0,0,0,0,-1,888,883,0,0
-329,141,0,0,0,0,0,0,0,0,0,-1,895,883,0,0
-322,141,0,0,0,0,0,0,0,0,0,-1,902,883,0,0
-315,141,0,0,0,0,0,0,0,0,0,-1,909,883,0,0
-308,141,0,0,0,0,0,0,0,0,0,-1,916,883,0,0
-301,141,0,0,0,0,0,0,0,0,0,-1,923,883,0,0
-294,141,0,0,0,0,0,0,0,0,0,-1,930,883,0,0
-287,141,0,0,0,0,0,0,0,0,0,-1,937,883,0,0
-280,141,0,0,0,0,0,0,0,0,0,-1,944,883,0,0
-273,141,0,0,0,0,0,0,0,0,0,-1,951,883,0,0
-266,141,0,0,0,0,0,0,0,0,0,-1,958,883,0,0
-259,141,0,0,0,0,0,0,0,0,0,-1,965,883,0,0
-252,141,0,0,0,0,0,0,0,0,0,-1,972,883,0,0
-245,141,0,0,0,0,0,0,0,0,0,-1,979,883,0,0
-238,141,0,0,0,0,0,0,0,0,0,-1,986,883,0,0
-231,141,0,0,0,0,0,0,0,0,0,-1,993,883,0,0
-224,141,0,0,0,0,0,0,0,0,0,-1,1000,883,0,0
-217,141,0,0,0,0,0,0,0,0,0,-1,1007,883,0,0
-210,141,0,0,0,0,0,0,0,0,0,-1,1014,883,0,0
-203,141,0,0,0,0,0,0,0,0,0,-1,1021,883,0,0
-196,141,0,0,0,0,0,0,0,0,0,-1,1028,883,0,0
-189,141,0,0,0,0,0,0,0,0,0,-1,1035,883,0,0
-182,141,0,0,0,0,0,0,0,0,0,-1,1042,883,0,0
-175,141,0,0,0,0,0,0,0,0,0,-1,1049,883,0,0
-168,141,0,0,0,0,0,0,0,0,0,-1,1056,883,0,0
-161,141,0,0,0,0,0,0,0,0,0,-1,1063,883,0,0
-154,141,0,0,0,0,0,0,0,0,0,-1,1070,883,0,0
-147,141,0,0,0,0,0,0,0,0,0,-1,1077,883,0,0
-140,141,0,0,0,0,0,0,0,0,0,-1,1084,883,0,0
-133,141,0,0,0,0,0,0,0,0,0,-1,1091,883,0,0
-126,141,0,0,0,0,0,0,0,0,0,-1,1098,883,0,0
-119,141,0,0,0,0,0,0,0,0,0,-1,1105,883,0,0
-112,141,0,0,0,0,0,0,0,0,0,-1,1112,883,0,0
-105,141,0,0,0,0,0,0,0,0,0,-1,1119,883,0,0
-98,141,0,0,0,0,0,0,0,0,0,-1,1126,883,0,0
-91,141,0,0,0,0,0,0,0,0,0,-1,1133,883,0,0
-84,141,0,0,0,0,0,0,0,0,0,-1,1140,883,0,0
-77,141,0,0,0,0,0,0,0,0,0,-1,1147,883,0,0
-70,141,0,0,0,0,0,0,0,0,0,-1,1154,883,0,0
-63,141,0,0,0,0,0,0,0,0,0,-1,1161,883,0,0
-56,141,0,0,0,0,0,0,0,0,0,-1,1168,883,0,0
-49,141,0,0,0,0,0,0,0,0,0,-1,1175,883,0,0
-42,141,0,0,0,0,0,0,0,0,0,-1,1182,883,0,0
-35,141,0,0,0,0,0,0,0,0,0,-1,1189,883,0,0
-28,141,0,0,0,0,0,0,0,0,0,-1,1196,883,0,0
-21,141,0,0,0,0,0,0,0,0,0,-1,1203,883,0,0
-14,141,0,0,0,0,0,0,0,0,0,-1,1210,883,0,0
-7,141,0,0,0,0,0,0,0,0,0,-1,1217,883,0,0
0,141,0,0,0,0,0,0,0,0,0,-1,1224,883,0,0
7,141,0,0,0,0,0,0,0,0,0,-1,1231,883,0,0
14,141,0,0,0,0,0,0,0,0,0,-1,1238,883,0,0
21,141,0,0,0,0,0,0,0,0,0,-1,1245,883,0,0
28,141,0,0,0,0,0,0,0,0,0,-1,1252,883,0,0
35,141,0,0,0,0,0,0,0,0,0,-1,1259,883,0,0
42,141,0,0,0,0,0,0,0,0,0,-1,1266,883,0,0
49,141,0,0,0,0,0,0,0,0,0,-1,1273,883,0,0
56,141,0,0,0,0,0,0,0,0,0,-1,1280,883,0,0
63,141,0,0,0,0,0,0,0,0,0,-1,1287,883,0,0
70,141,0,0,0,0,0,0,0,0,0,-1,1294,883,0,0
77,141,0,0,0,0,0,0,0,0,0,-1,1301,883,0,0
84,141,0,0,0,0,0,0,0,0,0,-1,1308,883,0,0
91,141,0,0,0,0,0,0,0,0,0,-1,1315,883,0,0
98,141,0,0,0,0,0,0,0,0,0,-1,1322,883,0,0
105,141,0,0,0,0,0,0,0,0,0,-1,1329,883,0,0
112,141,0,0,0,0,0,0,0,0,0,-1,1336,883,0,0
119,141,0,0,0,0,0,0,0,0,0,-1,1343,883,0,0
126,141,0,0,0,0,0,0,0,0,0,-1,1350,883,0,0
133,141,0,0,0,0,0,0,0,0,0,-1,1357,883,0,0
140,141,0,0,0,0,0,0,0,0,0,-1,1364,883,0,0
147,141,0,0,0,0,0,0,0,0,0,-1,1371,883,0,0
154,141,0,0,0,0,0,0,0,0,0,-1,1378,883,0,0
161,141,0,0,0,0,0,0,0,0,0,-1,1385,883,0,0
168,141,0,0,0,0,0,0,0,0,0,-1,1392,883,0,0
175,141,0,0,0,0,0,0,0,0,0,-1,1399,883,0,0
182,141,0,0,0,0,0,0,0,0,0,-1,1406,883,0,0
189,141,0,0,0,0,0,0,0,0,0,-1,1413,883,0,0
196,141,0,0,0,0,0,0,0,0,0,-1,1420,883,0,0
203,141,0,0,0,0,0,0,0,0,0,-1,1427,883,0,0
210,141,0,0,0,0,0,0,0,0,0,-1,1434,883,0,0
217,141,0,0,0,0,0,0,0,0,0,-1,1441,883,0,0
224,141,0,0,0,0,0,0,0,0,0,-1,1448,883,0,0
231,141,0,0,0,0,0,0,0,0,0,-1,1455,883,0,0
238,141,0,0,0,0,0,0,0,0,0,-1,1462,883,0,0
245,141,0,0,0,0,0,0,0,0,0,-1,1469,883,0,0
252,141,0,0,0,0,0,0,0,0,0,-1,1476,883,0,0
259,141,0,0,0,0,0,0,0,0,0,-1,1483,883,0,0
266,141,0,0,0,0,0,0,0,0,0,-1,1490,883,0,0
273,141,0,0,0,0,0,0,0,0,0,-1,1497,883,0,0
280,141,0,0,0,0,0,0,0,0,0,-1,1504,883,0,0
287,141,0,0,0,0,0,0,0,0,0,-1,1511,883,0,0
294,141,0,0,0,0,0,0,0,0,0,-1,1518,883,0,0
301,141,0,0,0,0,0,0,0,0,0,-1,1525,883,0,0
308,141,0,0,0,0,0,0,0,0,0,-1,1532,883,0,0
315,141,0,0,0,0,0,0,0,0,0,-1,1539,883,0,0
322,141,0,0,0,0,0,0,0,0,0,-1,1546,883,0,0
329,141,0,0,0,0,0,0,0,0,0,-1,1553,883,0,0
336,141,0,0,0,0,0,0,0,0,0,-1,1560,883,0,0
343,141,0,0,0,0,0,0,0,0,0,-1,1567,883,0,0
350,141,0,0,0,0,0,0,0,0,0,-1,1574,883,0,0
357,141,0,0,0,0,0,0,0,0,0,-1,1581,883,0,0
364,141,0,0,0,0,0,0,0,0,0,-1,1588,883,0,0
371,141,0,0,0,0,0,0,0,0,0,-1,1595,883,0,0
378,141,0,0,0,0,0,0,0,0,0,-1,1602,883,0,0
385,141,0,0,0,0,0,0,0,0,0,-1,1609,883,0,0
392,141,0,0,0,0,0,0,0,0,0,-1,1616,883,0,0
399,141,0,0,0,0,0,0,0,0,0,-1,1623,883,0,0
406,141,0,0,0,0,0,0,0,0,0,-1,1630,883,0,0
413,141,0,0,0,0,0,0,0,0,0,-1,1637,883,0,0
420,141,0,0,0,0,0,0,0,0,0,-1,1644,883,0,0
427,141,0,0,0,0,0,0,0,0,0,-1,1651,883,0,0
434,141,0,0,0,0,0,0,0,0,0,-1,1658,883,0,0
441,141,0,0,0,0,0,0,0,0,0,-1,1665,883,0,0
448,141,0,0,0,0,0,0,0,0,0,-1,1672,883,0,0
455,141,0,0,0,0,0,0,0,0,0,-1,1679,883,0,0
462,141,0,0,0,0,0,0,0,0,0,-1,1686,883,0,0
469,141,0,0,0,0,0,0,0,0,0,-1,1693,883,0,0
476,141,0,0,0,0,0,0,0,0,0,-1,1700,883,0,0
483,141,0,0,0,0,0,0,0,0,0,-1,1707,883,0,0
490,141,0,0,0,0,0,0,0,0,0,-1,1714,883,0,0
497,141,0,0,0,0,0,0,0,0,0,-1,1721,883,0,0
504,141,0,0,0,0,0,0,0,0,0,-1,1728,883,0,0
511,141,0,0,0,0,0,0,0,0,0,-1,1735,883,0,0
518,141,0,0,0,0,0,0,0,0,0,-1,1742,883,0,0
525,141,0,0,0,0,0,0,0,0,0,-1,1749,883,0,0
532,141,0,0,0,0,0,0,0,0,0,-1,1756,883,0,0
539,141,0,0,0,0,0,0,0,0,0,-1,1763,883,0,0
546,141,0,0,0,0,0,0,0,0,0,-1,1770,883,0,0
553,141,0,0,0,0,0,0,0,0,0,-1,1777,883,0,0
560,141,0,0,0,0,0,0,0,0,0,-1,1784,883,0,0
567,141,0,0,0,0,0,0,0,0,0,-1,1791,883,0,0
574,141,0,0,0,0,0,0,0,0,0,-1,1798,883,0,0
581,141,0,0,0,0,0,0,0,0,0,-1,1805,883,0,0
588,141,0,0,0,0,0,0,0,0,0,-1,1812,883,0,0
595,141,0,0,0,0,0,0,0,0,0,-1,1819,883,0,0
602,141,0,0,0,0,0,0,0,0,0,-1,1826,883,0,0
609,141,0,0,0,0,0,0,0,0,0,-1,1833,883,0,0
616,141,0,0,0,0,0,0,0,0,0,-1,1840,883,0,0
623,141,29.2778,2.57684,0.0052662,-0.00127566,-0.00470329,0.00772414,-0.00373359,-0.481563,0.00674754,0.043533,1847,883,29.2778,-2.57684
630,141,29.3574,2.42987,0.00344765,-0.00141379,-0.00305567,0.00492148,-0.00288762,-0.449409,0.00455927,0.044129,1854,883,29.3574,-2.42986
637,141,29.3662,2.49689,0.00197089,-0.00103402,-0.00179665,0.00281051,-0.00187364,-0.43717,0.00272237,0.0418047,1861,883,29.3662,-2.49692
644,141,29.3633,2.59326,0.000702172,-0.000602498,-0.000780482,0.00106704,-0.000967361,-0.437299,0.00117503,0.0401164,1868,883,29.3633,-2.59327
651,141,29.4833,2.53394,-0.000175862,-0.000222107,-1.2034e-05,-0.000172917,-0.000225051,-0.239932,0.000136028,0.0390307,1875,883,29.4833,-2.53395
658,141,29.3734,2.63074,-0.000644532,-0.000109735,0.000405788,0.000108836,-0.000863103,1.07672,0.0006149,0.0374915,1882,883,29.3734,-2.63075
665,141,29.249,2.66449,-0.00081177,-2.98988e-05,0.000610872,0.000304421,-0.00114609,1.07004,0.000883198,0.0274362,1889,883,29.249,-2.66449
672,141,29.2438,2.69623,-0.000824121,-0.000195943,0.000753669,0.000306466,-0.00132653,0.982828,0.00100225,0.0222076,1896,883,29.2438,-2.69625
679,141,29.2017,2.74445,-0.00075257,-0.000129709,0.00080044,0.000417751,-0.00130003,0.970924,0.00103445,0.0325134,1903,883,29.2017,-2.74446
686,141,29.1444,2.86163,0,0,0,0,0,0,0,-1,1910,883,29.1444,-2.86164
693,141,25.1296,2.48071,0,0,0,0,0,0,0,-1,1917,883,25.1297,-2.48074
700,141,25.3406,2.85675,-0.000286485,-5.5321e-05,0.000553239,0.000394281,-0.000736087,0.888376,0.000662489,0.0196766,1924,883,25.3406,-2.85672
707,141,25.3528,3.16565,-0.000144839,3.75031e-05,0.000295383,0.000255465,-0.000362801,0.935087,0.000358744,0.0171031,1931,883,25.3527,-3.16563
714,141,25.2529,3.362,4.94816e-05,0.000184354,-0.000129741,0.000263138,-2.93028e-05,-1.02507,0.000185964,0.0178478,1938,883,25.253,-3.362
721,141,25.2543,3.62744,0.000357791,0.000269089,-0.000428786,0.000744514,-0.000117633,-0.733864,0.000539842,0.0125654,1945,883,25.2542,-3.62746
728,141,25.2903,3.88733,0.000386294,0.00055391,-0.00071649,0.00119148,-0.000251273,-0.843619,0.00088998,0.0149694,1952,883,25.2903,-3.88732
735,141,25.278,4.24054,0.000213362,0.00107836,-0.000867961,0.00161561,-0.000323887,-1.01654,0.0011997,0.0158573,1959,883,25.2779,-4.24053
742,141,25.2489,4.50677,-5.34179e-05,0.00182689,-0.0010867,0.00232368,-0.000550203,-1.14201,0.0017614,0.0163495,1966,883,25.2489,-4.50679
749,141,25.245,4.73474,-0.000929197,0.00329709,-0.00146158,0.00375331,-0.00138541,-1.26824,0.00307004,0.0126984,1973,883,25.245,-4.73476
756,141,25.2234,4.95721,-0.00175047,0.00470582,-0.0016143,0.00508695,-0.0021316,-1.33894,0.00428248,0.0180716,1980,883,25.2233,-4.9572
763,141,25.2069,5.14539,-0.00286173,0.00643587,-0.00178617,0.0067672,-0.00319307,-1.38738,0.00587268,0.0403286,1987,883,25.2069,-5.14536
770,141,25.1742,5.34808,0,0,0,0,0,0,0,-1,1994,883,25.1742,-5.34806
777,141,23.895,5.67352,0,0,0,0,0,0,0,-1,2001,883,23.8951,-5.67355
784,141,23.9133,6.22778,0,0,0,0,0,0,0,-1,2008,883,23.9133,-6.22778
791,141,24.2234,6.18573,0,0,0,0,0,0,0,-1,2015,883,24.2234,-6.18575
798,141,0,0,0,0,0,0,0,0,0,-1,2022,883,0,0
805,141,0,0,0,0,0,0,0,0,0,-1,2029,883,0,0
812,141,0,0,0,0,0,0,0,0,0,-1,2036,883,0,0
-700,134,0,0,0,0,0,0,0,0,0,-1,524,890,0,0
-693,134,0,0,0,0,0,0,0,0,0,-1,531,890,0,0
-686,134,0,0,0,0,0,0,0,0,0,-1,538,890,0,0
-679,134,0,0,0,0,0,0,0,0,0,-1,545,890,0,0
-672,134,-23.3145,-2.23798,0,0,0,0,0,0,0,-1,552,890,-23.3145,2.23799
-665,134,-21.7887,-0.117615,0.161515,0.0487179,0.106223,0.225384,-0.0151507,0.541351,0.155552,0.0436052,559,890,-21.7887,0.117604
-658,134,-20.6074,1.09802,0.129647,0.0403152,0.0841188,0.180223,-0.0102607,0.541333,0.123711,0.0430675,566,890,-20.6074,-1.09802
-651,134,-20.0417,1.27563,0.101251,0.0326382,0.0652572,0.14067,-0.00678067,0.543395,0.0961201,0.0444795,573,890,-20.0417,-1.27563
-644,134,-19.4237,1.76355,0.0768637,0.0257865,0.0494782,0.107006,-0.00435542,0.547153,0.0728323,0.0450916,580,890,-19.4237,-1.76355
-637,134,-18.0255,2.6311,0,0,0,0,0,0,0,-1,587,890,-18.0255,-2.6311
-630,134,-17.8106,2.51923,0.0401115,0.0148437,0.0263376,0.0566887,-0.00173343,0.561764,0.0383833,0.0437884,594,890,-17.8106,-2.5192
-623,134,-17.623,2.40454,0.0274571,0.0105596,0.0181656,0.0390426,-0.00102593,0.56773,0.026377,0.0215233,601,890,-17.623,-2.40456
-616,134,-17.7448,2.1582,0.0166559,0.0069639,0.0116436,0.0244217,-0.000801843,0.588203,0.0165549,0.0113475,608,890,-17.7448,-2.15823
-609,134,-17.7827,1.91229,0.0078178,0.0042354,0.00718808,0.0134345,-0.00138129,0.66329,0.00945047,0.0106621,615,890,-17.7827,-1.91227
-602,134,-17.7802,1.65912,0.00227987,0.00115449,0.00350407,0.00526614,-0.00183178,0.705787,0.00425488,0.0110946,622,890,-17.7801,-1.65911
-595,134,-17.7524,1.4527,-0.00014997,-0.00036432,0.0019976,0.00174332,-0.00225761,0.758598,0.0023163,0.0129552,629,890,-17.7525,-1.45272
-588,134,-17.9975,1.289,-0.00142004,-0.0014304,0.000930166,-0.00049504,-0.0023554,0.782612,0.00143402,0.0232936,636,890,-17.9975,-1.28901
-581,134,-17.9241,0.924683,-0.00191272,-0.00198093,0.000625905,-0.00131999,-0.00257366,0.75818,0.00148607,0.0314774,643,890,-17.9241,-0.924678
-574,134,-17.8174,0.477966,0,0,0,0,0,0,0,-1,650,890,-17.8174,-0.477939
-567,134,-17.6251,0.586853,0,0,0,0,0,0,0,-1,657,890,-17.6251,-0.586859
-560,134,-18.3967,1.21881,0,0,0,0,0,0,0,-1,664,890,-18.3967,-1.21881
-553,134,-20.7057,0.67749,0,0,0,0,0,0,0,-1,671,890,-20.7058,-0.677495
-546,134,-20.6924,0.731934,-0.00090328,-0.00222966,0.00131803,-9.09967e-05,-0.00304194,0.552309,0.00199832,0.0248193,678,890,-20.6924,-0.731934
-539,134,-20.7045,0.756348,-0.000338843,-0.00199276,0.00160079,0.000635969,-0.00296757,0.546981,0.00222093,0.0172831,685,890,-20.7045,-0.756322
-532,134,-20.7527,0.788391,0.000310007,-0.00172159,0.00200267,0.00153977,-0.00295135,0.550694,0.0026353,0.0231392,692,890,-20.7527,-0.788409
-525,134,-20.7723,0.823303,0.000941799,-0.00150584,0.00252165,0.00252092,-0.00308496,0.559479,0.00324201,0.0361205,699,890,-20.7723,-0.82331
-518,134,-20.7697,0.886292,0.00171365,-0.00153268,0.00312177,0.00360903,-0.00342806,0.545658,0.00406331,0.0439282,706,890,-20.7697,-0.8863
-511,134,-20.627,1.14972,0.00231248,-0.00208053,0.00382159,0.00452384,-0.00429188,0.524571,0.00509034,0.0439183,713,890,-20.627,-1.14971
-504,134,0,0,0,0,0,0,0,0,0,-1,720,890,0,0
-497,134,0,0,0,0,0,0,0,0,0,-1,727,890,0,0
-490,134,0,0,0,0,0,0,0,0,0,-1,734,890,0,0
-483,134,0,0,0,0,0,0,0,0,0,-1,741,890,0,0
-476,134,0,0,0,0,0,0,0,0,0,-1,748,890,0,0
-469,134,0,0,0,0,0,0,0,0,0,-1,755,890,0,0
-462,134,0,0,0,0,0,0,0,0,0,-1,762,890,0,0
-455,134,0,0,0,0,0,0,0,0,0,-1,769,890,0,0
-448,134,0,0,0,0,0,0,0,0,0,-1,776,890,0,0
-441,134,0,0,0,0,0,0,0,0,0,-1,783,890,0,0
-434,134,0,0,0,0,0,0,0,0,0,-1,790,890,0,0
-427,134,0,0,0,0,0,0,0,0,0,-1,797,890,0,0
-420,134,0,0,0,0,0,0,0,0,0,-1,804,890,0,0
-413,134,0,0,0,0,0,0,0,0,0,-1,811,890,0,0
-406,134,0,0,0,0,0,0,0,0,0,-1,818,890,0,0
-399,134,0,0,0,0,0,0,0,0,0,-1,825,890,0,0
-392,134,0,0,0,0,0,0,0,0,0,-1,832,890,0,0
-385,134,0,0,0,0,0,0,0,0,0,-1,839,890,0,0
-378,134,0,0,0,0,0,0,0,0,0,-1,846,890,0,0
-371,134,0,0,0,0,0,0,0,0,0,-1,853,890,0,0
-364,134,0,0,0,0,0,0,0,0,0,-1,860,890,0,0
-357,134,0,0,0,0,0,0,0,0,0,-1,867,890,0,0
-350,134,0,0,0,0,0,0,0,0,0,-1,874,890,0,0
-343,134,0,0,0,0,0,0,0,0,0,-1,881,890,0,0
-336,134,0,0,0,0,0,0,0,0,0,-1,888,890,0,0
-329,134,0,0,0,0,0,0,0,0,0,-1,895,890,0,0
-322,134,0,0,0,0,0,0,0,0,0,-1,902,890,0,0
-315,134,0,0,0,0,0,0,0,0,0,-1,909,890,0,0
-308,134,0,0,0,0,0,0,0,0,0,-1,916,890,0,0
-301,134,0,0,0,0,0,0,0,0,0,-1,923,890,0,0
-294,134,0,0,0,0,0,0,0,0,0,-1,930,890,0,0
-287,134,0,0,0,0,0,0,0,0,0,-1,937,890,0,0
-280,134,0,0,0,0,0,0,0,0,0,-1,944,890,0,0
-273,134,0,0,0,0,0,0,0,0,0,-1,951,890,0,0
-266,134,0,0,0,0,0,0,0,0,0,-1,958,890,0,0
-259,134,0,0,0,0,0,0,0,0,0,-1,965,890,0,0
-252,134,0,0,0,0,0,0,0,0,0,-1,972,890,0,0
-245,134,0,0,0,0,0,0,0,0,0,-1,979,890,0,0
-238,134,0,0,0,0,0,0,0,0,0,-1,986,890,0,0
-231,134,0,0,0,0,0,0,0,0,0,-1,993,890,0,0
-224,134,0,0,0,0,0,0,0,0,0,-1,1000,890,0,0
-217,134,0,0,0,0,0,0,0,0,0,-1,1007,890,0,0
-210,134,0,0,0,0,0,0,0,0,0,-1,1014,890,0,0
-203,134,0,0,0,0,0,0,0,0,0,-1,1021,890,0,0
-196,134,0,0,0,0,0,0,0,0,0,-1,1028,890,0,0
-189,134,0,0,0,0,0,0,0,0,0,-1,1035,890,0,0
-182,134,0,0,0,0,0,0,0,0,0,-1,1042,890,0,0
-175,134,0,0,0,0,0,0,0,0,0,-1,1049,890,0,0
-168,134,0,0,0,0,0,0,0,0,0,-1,1056,890,0,0
-161,134,0,0,0,0,0,0,0,0,0,-1,1063,890,0,0
-154,134,0,0,0,0,0,0,0,0,0,-1,1070,890,0,0
-147,134,0,0,0,0,0,0,0,0,0,-1,1077,890,0,0
-140,134,0,0,0,0,0,0,0,0,0,-1,1084,890,0,0
-133,134,0,0,0,0,0,0,0,0,0,-1,1091,890,0,0
-126,134,0,0,0,0,0,0,0,0,0,-1,1098,890,0,0
-119,134,0,0,0,0,0,0,0,0,0,-1,1105,890,0,0
-112,134,0,0,0,0,0,0,0,0,0,-1,1112,890,0,0
-105,134,0,0,0,0,0,0,0,0,0,-1,1119,890,0,0
-98,134,0,0,0,0,0,0,0,0,0,-1,1126,890,0,0
-91,134,0,0,0,0,0,0,0,0,0,-1,1133,890,0,0
-84,134,0,0,0,0,0,0,0,0,0,-1,1140,890,0,0
-77,134,0,0,0,0,0,0,0,0,0,-1,1147,890,0,0
-70,134,0,0,0,0,0,0,0,0,0,-1,1154,890,0,0
-63,134,0,0,0,0,0,0,0,0,0,-1,1161,890,0,0
-56,134,0,0,0,0,0,0,0,0,0,-1,1168,890,0,0
-49,134,0,0,0,0,0,0,0,0,0,-1,1175,890,0,0
-42,134,0,0,0,0,0,0,0,0,0,-1,1182,890,0,0
-35,134,0,0,0,0,0,0,0,0,0,-1,1189,890,0,0
-28,134,0,0,0,0,0,0,0,0,0,-1,1196,890,0,0
-21,134,0,0,0,0,0,0,0,0,0,-1,1203,890,0,0
-14,134,0,0,0,0,0,0,0,0,0,-1,1210,890,0,0
-7,134,0,0,0,0,0,0,0,0,0,-1,1217,890,0,0
0,134,0,0,0,0,0,0,0,0,0,-1,1224,890,0,0
7,134,0,0,0,0,0,0,0,0,0,-1,1231,890,0,0
14,134,0,0,0,0,0,0,0,0,0,-1,1238,890,0,0
21,134,0,0,0,0,0,0,0,0,0,-1,1245,890,0,0
28,134,0,0,0,0,0,0,0,0,0,-1,1252,890,0,0
35,134,0,0,0,0,0,0,0,0,0,-1,1259,890,0,0
42,134,0,0,0,0,0,0,0,0,0,-1,1266,890,0,0
49,134,0,0,0,0,0,0,0,0,0,-1,1273,890,0,0
56,134,0,0,0,0,0,0,0,0,0,-1,1280,890,0,0
63,134,0,0,0,0,0,0,0,0,0,-1,1287,890,0,0
70,134,0,0,0,0,0,0,0,0,0,-1,1294,890,0,0
77,134,0,0,0,0,0,0,0,0,0,-1,1301,890,0,0
84,134,0,0,0,0,0,0,0,0,0,-1,1308,890,0,0
91,134,0,0,0,0,0,0,0,0,0,-1,1315,890,0,0
98,134,0,0,0,0,0,0,0,0,0,-1,1322,890,0,0
105,134,0,0,0,0,0,0,0,0,0,-1,1329,890,0,0
112,134,0,0,0,0,0,0,0,0,0,-1,1336,890,0,0
119,134,0,0,0,0,0,0,0,0,0,-1,1343,890,0,0
126,134,0,0,0,0,0,0,0,0,0,-1,1350,890,0,0
133,134,0,0,0,0,0,0,0,0,0,-1,1357,890,0,0
140,134,0,0,0,0,0,0,0,0,0,-1,1364,890,0,0
147,134,0,0,0,0,0,0,0,0,0,-1,1371,890,0,0
154,134,0,0,0,0,0,0,0,0,0,-1,1378,890,0,0
161,134,0,0,0,0,0,0,0,0,0,-1,1385,890,0,0
168,134,0,0,0,0,0,0,0,0,0,-1,1392,890,0,0
175,134,0,0,0,0,0,0,0,0,0,-1,1399,890,0,0
182,134,0,0,0,0,0,0,0,0,0,-1,1406,890,0,0
189,134,0,0,0,0,0,0,0,0,0,-1,1413,890,0,0
196,134,0,0,0,0,0,0,0,0,0,-1,1420,890,0,0
203,134,0,0,0,0,0,0,0,0,0,-1,1427,890,0,0
210,134,0,0,0,0,0,0,0,0,0,-1,1434,890,0,0
217,134,0,0,0,0,0,0,0,0,0,-1,1441,890,0,0
224,134,0,0,0,0,0,0,0,0,0,-1,1448,890,0,0
231,134,0,0,0,0,0,0,0,0,0,-1,1455,890,0,0
238,134,0,0,0,0,0,0,0,0,0,-1,1462,890,0,0
245,134,0,0,0,0,0,0,0,0,0,-1,1469,890,0,0
252,134,0,0,0,0,0,0,0,0,0,-1,1476,890,0,0
259,134,0,0,0,0,0,0,0,0,0,-1,1483,890,0,0
266,134,0,0,0,0,0,0,0,0,0,-1,1490,890,0,0
273,134,0,0,0,0,0,0,0,0,0,-1,1497,890,0,0
280,134,0,0,0,0,0,0,0,0,0,-1,1504,890,0,0
287,134,0,0,0,0,0,0,0,0,0,-1,1511,890,0,0
294,134,0,0,0,0,0,0,0,0,0,-1,1518,890,0,0
301,134,0,0,0,0,0,0,0,0,0,-1,1525,890,0,0
308,134,0,0,0,0,0,0,0,0,0,-1,1532,890,0,0
315,134,0,0,0,0,0,0,0,0,0,-1,1539,890,0,0
322,134,0,0,0,0,0,0,0,0,0,-1,1546,890,0,0
329,134,0,0,0,0,0,0,0,0,0,-1,1553,890,0,0
336,134,0,0,0,0,0,0,0,0,0,-1,1560,890,0,0
343,134,0,0,0,0,0,0,0,0,0,-1,1567,890,0,0
350,134,0,0,0,0,0,0,0,0,0,-1,1574,890,0,0
357,134,0,0,0,0,0,0,0,0,0,-1,1581,890,0,0
364,134,0,0,0,0,0,0,0,0,0,-1,1588,890,0,0
371,134,0,0,0,0,0,0,0,0,0,-1,1595,890,0,0
378,134,0,0,0,0,0,0,0,0,0,-1,1602,890,0,0
385,134,0,0,0,0,0,0,0,0,0,-1,1609,890,0,0
392,134,0,0,0,0,0,0,0,0,0,-1,1616,890,0,0
399,134,0,0,0,0,0,0,0,0,0,-1,1623,890,0,0
406,134,0,0,0,0,0,0,0,0,0,-1,1630,890,0,0
413,134,0,0,0,0,0,0,0,0,0,-1,1637,890,0,0
420,134,0,0,0,0,0,0,0,0,0,-1,1644,890,0,0
427,134,0,0,0,0,0,0,0,0,0,-1,1651,890,0,0
434,134,0,0,0,0,0,0,0,0,0,-1,1658,890,0,0
441,134,0,0,0,0,0,0,0,0,0,-1,1665,890,0,0
448,134,0,0,0,0,0,0,0,0,0,-1,1672,890,0,0
455,134,0,0,0,0,0,0,0,0,0,-1,1679,890,0,0
462,134,0,0,0,0,0,0,0,0,0,-1,1686,890,0,0
469,134,0,0,0,0,0,0,0,0,0,-1,1693,890,0,0
476,134,0,0,0,0,0,0,0,0,0,-1,1700,890,0,0
483,134,0,0,0,0,0,0,0,0,0,-1,1707,890,0,0
490,134,0,0,0,0,0,0,0,0,0,-1,1714,890,0,0
497,134,0,0,0,0,0,0,0,0,0,-1,1721,890,0,0
504,134,0,0,0,0,0,0,0,0,0,-1,1728,890,0,0
511,134,0,0,0,0,0,0,0,0,0,-1,1735,890,0,0
518,134,0,0,0,0,0,0,0,0,0,-1,1742,890,0,0
525,134,0,0,0,0,0,0,0,0,0,-1,1749,890,0,0
532,134,0,0,0,0,0,0,0,0,0,-1,1756,890,0,0
539,134,0,0,0,0,0,0,0,0,0,-1,1763,890,0,0
546,134,0,0,0,0,0,0,0,0,0,-1,1770,890,0,0
553,134,0,0,0,0,0,0,0,0,0,-1,1777,890,0,0
560,134,0,0,0,0,0,0,0,0,0,-1,1784,890,0,0
567,134,0,0,0,0,0,0,0,0,0,-1,1791,890,0,0
574,134,0,0,0,0,0,0,0,0,0,-1,1798,890,0,0
581,134,0,0,0,0,0,0,0,0,0,-1,1805,890,0,0
588,134,0,0,0,0,0,0,0,0,0,-1,1812,890,0,0
595,134,0,0,0,0,0,0,0,0,0,-1,1819,890,0,0
602,134,0,0,0,0,0,0,0,0,0,-1,1826,890,0,0
609,134,0,0,0,0,0,0,0,0,0,-1,1833,890,0,0
616,134,0,0,0,0,0,0,0,0,0,-1,1840,890,0,0
623,134,29.1393,2.87805,0.00613817,-0.00145414,-0.0053269,0.00888317,-0.00419914,-0.475819,0.00771276,0.0469323,1847,890,29.1393,-2.87808
630,134,29.275,2.6665,0.00417104,-0.00166556,-0.00362257,0.00590456,-0.00339908,-0.446329,0.005436,0.0453005,1854,890,29.275,-2.6665
637,134,29.3868,2.57391,0.00262005,-0.00125425,-0.00234656,0.00372575,-0.00235995,-0.440341,0.00354295,0.0431368,1861,890,29.3868,-2.57389
644,134,29.3706,2.62622,0.00125792,-0.000757544,-0.00125677,0.00186109,-0.00136071,-0.447466,0.00186757,0.0387477,1868,890,29.3706,-2.62622
651,134,29.3666,2.56848,0.000236773,-0.000271293,-0.000353037,0.000417674,-0.000452194,-0.47353,0.000502351,0.0391441,1875,890,29.3666,-2.56849
658,134,29.3142,2.62463,-0.000323049,-4.25442e-05,0.000216869,7.54721e-05,-0.000441065,1.07243,0.000322161,0.0407769,1882,890,29.3143,-2.62465
665,134,29.267,2.6601,-0.000532247,9.19656e-05,0.000542918,0.000406094,-0.000846375,1.04627,0.000737856,0.0340121,1889,890,29.267,-2.66008
672,134,29.2476,2.66595,-0.000547318,-3.26012e-05,0.000775467,0.000527098,-0.00110702,0.945617,0.000963056,0.0231786,1896,890,29.2475,-2.66598
679,134,29.2441,2.65161,-0.000482197,2.2952e-05,0.000878839,0.000684791,-0.00114404,0.925325,0.00106691,0.01962,1903,890,29.2442,-2.65162
686,134,29.2463,2.66895,0,0,0,0,0,0,0,-1,1910,890,29.2464,-2.66896
693,134,25.5903,2.62323,0,0,0,0,0,0,0,-1,1917,890,25.5904,-2.62321
700,134,25.4562,2.75952,0,0,0,0,0,0,0,-1,1924,890,25.4562,-2.75955
707,134,25.14,2.87823,0,0,0,0,0,0,0,-1,1931,890,25.14,-2.87823
714,134,25.3796,3.26642,0.000128724,0.000241172,8.07371e-05,0.000283333,8.65627e-05,1.08955,0.000167656,0.0189073,1938,890,25.3796,-3.26639
721,134,25.5292,3.61194,0.000329795,0.000286556,-0.00019414,0.000503516,0.000112835,-0.729947,0.000305101,0.0156919,1945,890,25.5291,-3.61197
728,134,25.5718,3.89185,0.000232701,0.000520758,-0.000497637,0.00089479,-0.000141331,-0.926262,0.000648789,0.0151538,1952,890,25.5718,-3.89182
735,134,25.5449,4.1947,-9.68898e-05,0.000981951,-0.000631757,0.00127325,-0.000388186,-1.13876,0.00100357,0.0215616,1959,890,25.5449,-4.19471
742,134,25.516,4.49005,-0.00037522,0.00161159,-0.000615703,0.00178692,-0.000550551,-1.29337,0.00141106,0.0148321,1966,890,25.516,-4.49008
749,134,25.527,4.72858,-0.00123792,0.00299303,-0.000834382,0.00315163,-0.00139652,-1.38295,0.00269026,0.0112921,1973,890,25.527,-4.72859
756,134,25.4985,4.94305,-0.0021064,0.00426337,-0.000676245,0.00433437,-0.0021774,-1.46618,0.0038277,0.0148221,1980,890,25.4985,-4.94308
763,134,25.4728,5.13519,-0.00317899,0.00581697,-0.000442445,0.00583868,-0.0032007,-1.52177,0.00529245,0.0357637,1987,890,25.4727,-5.13521
770,134,25.4403,5.33435,0,0,0,0,0,0,0,-1,1994,890,25.4403,-5.33438
777,134,28.8785,2.85565,0,0,0,0,0,0,0,-1,2001,890,28.8786,-2.85567
784,134,29.1772,3.0224,0,0,0,0,0,0,0,-1,2008,890,29.1773,-3.02239
791,134,28.7186,4.99689,0,0,0,0,0,0,0,-1,2015,890,28.7187,-4.99688
798,134,0,0,0,0,0,0,0,0,0,-1,2022,890,0,0
805,134,0,0,0,0,0,0,0,0,0,-1,2029,890,0,0
812,134,0,0,0,0,0,0,0,0,0,-1,2036,890,0,0
-700,127,0,0,0,0,0,0,0,0,0,-1,524,897,0,0
-693,127,0,0,0,0,0,0,0,0,0,-1,531,897,0,0
-686,127,0,0,0,0,0,0,0,0,0,-1,538,897,0,0
-679,127,-19.0261,2.98425,0,0,0,0,0,0,0,-1,545,897,-19.0261,-2.98424
-672,127,-23.23,-2.01129,0,0,0,0,0,0,0,-1,552,897,-23.23,2.01127
-665,127,-21.7584,-0.481018,0,0,0,0,0,0,0,-1,559,897,-21.7583,0.481027
-658,127,-20.9283,0.40979,0,0,0,0,0,0,0,-1,566,897,-20.9283,-0.409772
-651,127,-20.3618,0.844238,0.0959848,0.0260804,0.0594211,0.129971,-0.00790597,0.519545,0.0893994,0.0467955,573,897,-20.3618,-0.844238
-644,127,-19.7448,1.29517,0.0737323,0.0207957,0.0454775,0.0998832,-0.00535513,0.521855,0.0684437,0.046046,580,897,-19.7448,-1.29515
-637,127,-18.9925,1.98163,0.0547188,0.016126,0.0339689,0.0744895,-0.00364469,0.527097,0.050918,0.0462605,587,897,-18.9925,-1.98165
-630,127,-18.1097,2.32544,0.0394089,0.0122683,0.0246854,0.0540081,-0.00233085,0.53408,0.036807,0.0357117,594,897,-18.1098,-2.32544
-623,127,-17.97,2.33893,0.0272086,0.00878415,0.0171308,0.0374471,-0.00145431,0.5387,0.0254633,0.0135728,601,897,-17.97,-2.33891
-616,127,-18.0143,2.13959,0.0162201,0.00576283,0.0109951,0.0231665,-0.00118359,0.563454,0.0158536,0.00948077,608,897,-18.0143,-2.13956
-609,127,-18.0374,1.88879,0.00729236,0.00353331,0.00691189,0.0125757,-0.00175005,0.652645,0.0090239,0.0124993,615,897,-18.0374,-1.88881
-602,127,-18.0228,1.65546,0.00183083,0.000779217,0.00348799,0.00483242,-0.00222238,0.710588,0.00416497,0.0136463,622,897,-18.0228,-1.65543
-595,127,-18.0001,1.47461,-0.000674823,-0.000476667,0.00203237,0.00145904,-0.00261053,0.809754,0.00238071,0.0171395,629,897,-18.0001,-1.47458
-588,127,-18.1133,1.26782,-0.00192269,-0.00129608,0.00106622,-0.000498083,-0.00272068,0.9283,0.00167267,0.0232452,636,897,-18.1133,-1.26783
-581,127,-18.173,0.945923,-0.00244791,-0.00171577,0.000727605,-0.00126734,-0.00289634,1.01847,0.00167655,0.0361499,643,897,-18.173,-0.945907
-574,127,-18.1742,0.74353,-0.00291525,-0.00186484,0.000644721,-0.00155847,-0.00322161,1.1272,0.00186032,0.0335529,650,897,-18.1742,-0.743513
-567,127,-17.6901,0.34613,0,0,0,0,0,0,0,-1,657,897,-17.6901,-0.346159
-560,127,-18.9678,1.21667,0,0,0,0,0,0,0,-1,664,897,-18.9677,-1.2167
-553,127,-20.8227,0.571228,0,0,0,0,0,0,0,-1,671,897,-20.8227,-0.571224
-546,127,-20.7014,0.695435,-0.00161064,-0.00181396,0.00117216,-0.000535735,-0.00288886,0.742143,0.0017745,0.0230863,678,897,-20.7014,-0.695458
-539,127,-20.6776,0.759277,-0.00100834,-0.00148955,0.00147383,0.000244397,-0.00274229,0.704486,0.00191487,0.0210558,685,897,-20.6776,-0.759296
-532,127,-20.6733,0.787842,-0.000322183,-0.00109844,0.00192377,0.00125222,-0.00267285,0.685857,0.00231509,0.0173696,692,897,-20.6734,-0.787817
-525,127,-20.7938,0.899658,0.000384166,-0.000720956,0.00250899,0.00240072,-0.00273751,0.677012,0.00296869,0.0338365,699,897,-20.7938,-0.89963
-518,127,-20.8644,0.976563,0.00114624,-0.00054803,0.00319036,0.00360001,-0.00300181,0.655628,0.00381677,0.0424408,706,897,-20.8644,-0.976582
-511,127,-20.6438,1.05811,0.00153559,-0.000760918,0.00395824,0.00450876,-0.00373409,0.644227,0.00476601,0.0414049,713,897,-20.6438,-1.0581
-504,127,0,0,0,0,0,0,0,0,0,-1,720,897,0,0
-497,127,0,0,0,0,0,0,0,0,0,-1,727,897,0,0
-490,127,0,0,0,0,0,0,0,0,0,-1,734,897,0,0
-483,127,0,0,0,0,0,0,0,0,0,-1,741,897,0,0
-476,127,0,0,0,0,0,0,0,0,0,-1,748,897,0,0
-469,127,0,0,0,0,0,0,0,0,0,-1,755,897,0,0
-462,127,0,0,0,0,0,0,0,0,0,-1,762,897,0,0
-455,127,0,0,0,0,0,0,0,0,0,-1,769,897,0,0
-448,127,0,0,0,0,0,0,0,0,0,-1,776,897,0,0
-441,127,0,0,0,0,0,0,0,0,0,-1,783,897,0,0
-434,127,0,0,0,0,0,0,0,0,0,-1,790,897,0,0
-427,127,0,0,0,0,0,0,0,0,0,-1,797,897,0,0
-420,127,0,0,0,0,0,0,0,0,0,-1,804,897,0,0
-413,127,0,0,0,0,0,0,0,0,0,-1,811,897,0,0
-406,127,0,0,0,0,0,0,0,0,0,-1,818,897,0,0
-399,127,0,0,0,0,0,0,0,0,0,-1,825,897,0,0
-392,127,0,0,0,0,0,0,0,0,0,-1,832,897,0,0
-385,127,0,0,0,0,0,0,0,0,0,-1,839,897,0,0
-378,127,0,0,0,0,0,0,0,0,0,-1,846,897,0,0
-371,127,0,0,0,0,0,0,0,0,0,-1,853,897,0,0
-364,127,0,0,0,0,0,0,0,0,0,-1,860,897,0,0
-357,127,0,0,0,0,0,0,0,0,0,-1,867,897,0,0
-350,127,0,0,0,0,0,0,0,0,0,-1,874,897,0,0
-343,127,0,0,0,0,0,0,0,0,0,-1,881,897,0,0
-336,127,0,0,0,0,0,0,0,0,0,-1,888,897,0,0
-329,127,0,0,0,0,0,0,0,0,0,-1,895,897,0,0
-322,127,0,0,0,0,0,0,0,0,0,-1,902,897,0,0
-315,127,0,0,0,0,0,0,0,0,0,-1,909,897,0,0
-308,127,0,0,0,0,0,0,0,0,0,-1,916,897,0,0
-301,127,0,0,0,0,0,0,0,0,0,-1,923,897,0,0
-294,127,0,0,0,0,0,0,0,0,0,-1,930,897,0,0
-287,127,0,0,0,0,0,0,0,0,0,-1,937,897,0,0
-280,127,0,0,0,0,0,0,0,0,0,-1,944,897,0,0
-273,127,0,0,0,0,0,0,0,0,0,-1,951,897,0,0
-266,127,0,0,0,0,0,0,0,0,0,-1,958,897,0,0
-259,127,0,0,0,0,0,0,0,0,0,-1,965,897,0,0
-252,127,0,0,0,0,0,0,0,0,0,-1,972,897,0,0
-245,127,0,0,0,0,0,0,0,0,0,-1,979,897,0,0
-238,127,0,0,0,0,0,0,0,0,0,-1,986,897,0,0
-231,127,0,0,0,0,0,0,0,0,0,-1,993,897,0,0
-224,127,0,0,0,0,0,0,0,0,0,-1,1000,897,0,0
-217,127,0,0,0,0,0,0,0,0,0,-1,1007,897,0,0
-210,127,0,0,0,0,0,0,0,0,0,-1,1014,897,0,0
-203,127,0,0,0,0,0,0,0,0,0,-1,1021,897,0,0
-196,127,0,0,0,0,0,0,0,0,0,-1,1028,897,0,0
-189,127,0,0,0,0,0,0,0,0,0,-1,1035,897,0,0
-182,127,0,0,0,0,0,0,0,0,0,-1,1042,897,0,0
-175,127,0,0,0,0,0,0,0,0,0,-1,1049,897,0,0
-168,127,0,0,0,0,0,0,0,0,0,-1,1056,897,0,0
-161,127,0,0,0,0,0,0,0,0,0,-1,1063,897,0,0
-154,127,0,0,0,0,0,0,0,0,0,-1,1070,897,0,0
-147,127,0,0,0,0,0,0,0,0,0,-1,1077,897,0,0
-140,127,0,0,0,0,0,0,0,0,0,-1,1084,897,0,0
-133,127,0,0,0,0,0,0,0,0,0,-1,1091,897,0,0
-126,127,0,0,0,0,0,0,0,0,0,-1,1098,897,0,0
-119,127,0,0,0,0,0,0,0,0,0,-1,1105,897,0,0
-112,127,0,0,0,0,0,0,0,0,0,-1,1112,897,0,0
-105,127,0,0,0,0,0,0,0,0,0,-1,1119,897,0,0
-98,127,0,0,0,0,0,0,0,0,0,-1,1126,897,0,0
-91,127,0,0,0,0,0,0,0,0,0,-1,1133,897,0,0
-84,127,0,0,0,0,0,0,0,0,0,-1,1140,897,0,0
-77,127,0,0,0,0,0,0,0,0,0,-1,1147,897,0,0
-70,127,0,0,0,0,0,0,0,0,0,-1,1154,897,0,0
-63,127,0,0,0,0,0,0,0,0,0,-1,1161,897,0,0
-56,127,0,0,0,0,0,0,0,0,0,-1,1168,897,0,0
-49,127,0,0,0,0,0,0,0,0,0,-1,1175,897,0,0
-42,127,0,0,0,0,0,0,0,0,0,-1,1182,897,0,0
-35,127,0,0,0,0,0,0,0,0,0,-1,1189,897,0,0
-28,127,0,0,0,0,0,0,0,0,0,-1,1196,897,0,0
-21,127,0,0,0,0,0,0,0,0,0,-1,1203,897,0,0
-14,127,0,0,0,0,0,0,0,0,0,-1,1210,897,0,0
-7,127,0,0,0,0,0,0,0,0,0,-1,1217,897,0,0
0,127,0,0,0,0,0,0,0,0,0,-1,1224,897,0,0
7,127,0,0,0,0,0,0,0,0,0,-1,1231,897,0,0
14,127,0,0,0,0,0,0,0,0,0,-1,1238,897,0,0
21,127,0,0,0,0,0,0,0,0,0,-1,1245,897,0,0
28,127,0,0,0,0,0,0,0,0,0,-1,1252,897,0,0
35,127,0,0,0,0,0,0,0,0,0,-1,1259,897,0,0
42,127,0,0,0,0,0,0,0,0,0,-1,1266,897,0,0
49,127,0,0,0,0,0,0,0,0,0,-1,1273,897,0,0
56,127,0,0,0,0,0,0,0,0,0,-1,1280,897,0,0
63,127,0,0,0,0,0,0,0,0,0,-1,1287,897,0,0
70,127,0,0,0,0,0,0,0,0,0,-1,1294,897,0,0
77,127,0,0,0,0,0,0,0,0,0,-1,1301,897,0,0
84,127,0,0,0,0,0,0,0,0,0,-1,1308,897,0,0
91,127,0,0,0,0,0,0,0,0,0,-1,1315,897,0,0
98,127,0,0,0,0,0,0,0,0,0,-1,1322,897,0,0
105,127,0,0,0,0,0,0,0,0,0,-1,1329,897,0,0
112,127,0,0,0,0,0,0,0,0,0,-1,1336,897,0,0
119,127,0,0,0,0,0,0,0,0,0,-1,1343,897,0,0
126,127,0,0,0,0,0,0,0,0,0,-1,1350,897,0,0
133,127,0,0,0,0,0,0,0,0,0,-1,1357,897,0,0
140,127,0,0,0,0,0,0,0,0,0,-1,1364,897,0,0
147,127,0,0,0,0,0,0,0,0,0,-1,1371,897,0,0
154,127,0,0,0,0,0,0,0,0,0,-1,1378,897,0,0
161,127,0,0,0,0,0,0,0,0,0,-1,1385,897,0,0
168,127,0,0,0,0,0,0,0,0,0,-1,1392,897,0,0
175,127,0,0,0,0,0,0,0,0,0,-1,1399,897,0,0
182,127,0,0,0,0,0,0,0,0,0,-1,1406,897,0,0
189,127,0,0,0,0,0,0,0,0,0,-1,1413,897,0,0
196,127,0,0,0,0,0,0,0,0,0,-1,1420,897,0,0
203,127,0,0,0,0,0,0,0,0,0,-1,1427,897,0,0
210,127,0,0,0,0,0,0,0,0,0,-1,1434,897,0,0
217,127,0,0,0,0,0,0,0,0,0,-1,1441,897,0,0
224,127,0,0,0,0,0,0,0,0,0,-1,1448,897,0,0
231,127,0,0,0,0,0,0,0,0,0,-1,1455,897,0,0
238,127,0,0,0,0,0,0,0,0,0,-1,1462,897,0,0
245,127,0,0,0,0,0,0,0,0,0,-1,1469,897,0,0
252,127,0,0,0,0,0,0,0,0,0,-1,1476,897,0,0
259,127,0,0,0,0,0,0,0,0,0,-1,1483,897,0,0
266,127,0,0,0,0,0,0,0,0,0,-1,1490,897,0,0
273,127,0,0,0,0,0,0,0,0,0,-1,1497,897,0,0
280,127,0,0,0,0,0,0,0,0,0,-1,1504,897,0,0
287,127,0,0,0,0,0,0,0,0,0,-1,1511,897,0,0
294,127,0,0,0,0,0,0,0,0,0,-1,1518,897,0,0
301,127,0,0,0,0,0,0,0,0,0,-1,1525,897,0,0
308,127,0,0,0,0,0,0,0,0,0,-1,1532,897,0,0
315,127,0,0,0,0,0,0,0,0,0,-1,1539,897,0,0
322,127,0,0,0,0,0,0,0,0,0,-1,1546,897,0,0
329,127,0,0,0,0,0,0,0,0,0,-1,1553,897,0,0
336,127,0,0,0,0,0,0,0,0,0,-1,1560,897,0,0
343,127,0,0,0,0,0,0,0,0,0,-1,1567,897,0,0
350,127,0,0,0,0,0,0,0,0,0,-1,1574,897,0,0
357,127,0,0,0,0,0,0,0,0,0,-1,1581,897,0,0
364,127,0,0,0,0,0,0,0,0,0,-1,1588,897,0,0
371,127,0,0,0,0,0,0,0,0,0,-1,1595,897,0,0
378,127,0,0,0,0,0,0,0,0,0,-1,1602,897,0,0
385,127,0,0,0,0,0,0,0,0,0,-1,1609,897,0,0
392,127,0,0,0,0,0,0,0,0,0,-1,1616,897,0,0
399,127,0,0,0,0,0,0,0,0,0,-1,1623,897,0,0
406,127,0,0,0,0,0,0,0,0,0,-1,1630,897,0,0
413,127,0,0,0,0,0,0,0,0,0,-1,1637,897,0,0
420,127,0,0,0,0,0,0,0,0,0,-1,1644,897,0,0
427,127,0,0,0,0,0,0,0,0,0,-1,1651,897,0,0
434,127,0,0,0,0,0,0,0,0,0,-1,1658,897,0,0
441,127,0,0,0,0,0,0,0,0,0,-1,1665,897,0,0
448,127,0,0,0,0,0,0,0,0,0,-1,1672,897,0,0
455,127,0,0,0,0,0,0,0,0,0,-1,1679,897,0,0
462,127,0,0,0,0,0,0,0,0,0,-1,1686,897,0,0
469,127,0,0,0,0,0,0,0,0,0,-1,1693,897,0,0
476,127,0,0,0,0,0,0,0,0,0,-1,1700,897,0,0
483,127,0,0,0,0,0,0,0,0,0,-1,1707,897,0,0
490,127,0,0,0,0,0,0,0,0,0,-1,1714,897,0,0
497,127,0,0,0,0,0,0,0,0,0,-1,1721,897,0,0
504,127,0,0,0,0,0,0,0,0,0,-1,1728,897,0,0
511,127,0,0,0,0,0,0,0,0,0,-1,1735,897,0,0
518,127,0,0,0,0,0,0,0,0,0,-1,1742,897,0,0
525,127,0,0,0,0,0,0,0,0,0,-1,1749,897,0,0
532,127,0,0,0,0,0,0,0,0,0,-1,1756,897,0,0
539,127,0,0,0,0,0,0,0,0,0,-1,1763,897,0,0
546,127,0,0,0,0,0,0,0,0,0,-1,1770,897,0,0
553,127,0,0,0,0,0,0,0,0,0,-1,1777,897,0,0
560,127,0,0,0,0,0,0,0,0,0,-1,1784,897,0,0
567,127,0,0,0,0,0,0,0,0,0,-1,1791,897,0,0
574,127,0,0,0,0,0,0,0,0,0,-1,1798,897,0,0
581,127,0,0,0,0,0,0,0,0,0,-1,1805,897,0,0
588,127,0,0,0,0,0,0,0,0,0,-1,1812,897,0,0
595,127,0,0,0,0,0,0,0,0,0,-1,1819,897,0,0
602,127,0,0,0,0,0,0,0,0,0,-1,1826,897,0,0
609,127,0,0,0,0,0,0,0,0,0,-1,1833,897,0,0
616,127,0,0,0,0,0,0,0,0,0,-1,1840,897,0,0
623,127,0,0,0,0,0,0,0,0,0,-1,1847,897,0,0
630,127,29.2872,2.75787,0.00523241,-0.00199635,-0.00459812,0.00746665,-0.0042306,-0.452308,0.00683901,0.0434112,1854,897,29.2872,-2.75789
637,127,29.4113,2.67175,0.00342465,-0.00160599,-0.00315432,0.00494375,-0.00312509,-0.448815,0.00469783,0.0406898,1861,897,29.4113,-2.67175
644,127,29.2848,2.67896,0.0018452,-0.00108823,-0.00189159,0.0027721,-0.00201513,-0.455623,0.0027754,0.0390331,1868,897,29.2847,-2.67896
651,127,29.2684,2.52563,0.00057893,-0.000521101,-0.000785534,0.000987862,-0.000930033,-0.479975,0.00110747,0.0414081,1875,897,29.2684,-2.52565
658,127,29.2657,2.61066,-0.000173878,-0.000157031,-5.59895e-06,-0.00015534,-0.000175569,-1.27748,0.00011092,0.0426456,1882,897,29.2658,-2.61063
665,127,29.2408,2.70062,-0.000477564,7.12282e-05,0.000480038,0.00034976,-0.000756096,1.04504,0.000652675,0.0387647,1889,897,29.2408,-2.70065
672,127,29.1948,2.66302,-0.000505674,2.40935e-05,0.000819552,0.000620504,-0.00110209,0.941702,0.00100741,0.0318587,1896,897,29.1948,-2.66301
679,127,29.2867,2.58118,-0.00044202,9.93548e-05,0.000992437,0.000857358,-0.00120002,0.918535,0.00119331,0.0249326,1903,897,29.2867,-2.58118
686,127,29.2653,2.64648,-0.000429025,0.000130858,0.00109919,0.000985196,-0.00128336,0.910087,0.00131352,0.0331102,1910,897,29.2653,-2.64649
693,127,26.2426,2.62531,0,0,0,0,0,0,0,-1,1917,897,26.2426,-2.62533
700,127,25.851,2.79419,0,0,0,0,0,0,0,-1,1924,897,25.8509,-2.79421
707,127,25.5746,2.98242,-6.75055e-05,0.000248517,0.000685829,0.000794302,-0.00061329,0.89862,0.00081491,0.0247169,1931,897,25.5746,-2.98245
714,127,25.6694,3.28723,8.5786e-05,0.000336714,0.000300975,0.000537328,-0.000114828,0.982876,0.000401999,0.0208242,1938,897,25.6694,-3.28725
721,127,25.8507,3.67743,0.000153007,0.000369105,5.53195e-05,0.000382443,0.000139669,1.3342,0.000223463,0.0149908,1945,897,25.8507,-3.67744
728,127,25.8389,3.89392,-5.87202e-05,0.000557646,-0.000271733,0.000660335,-0.000161409,-1.20948,0.000502739,0.0134916,1952,897,25.8389,-3.89391
735,127,25.7996,4.16046,-0.000520542,0.000938209,-0.000395219,0.0010384,-0.000620736,-1.32251,0.000967969,0.01943,1959,897,25.7996,-4.16046
742,127,25.7963,4.4566,-0.000939975,0.00146076,-0.000300698,0.00149785,-0.000977065,-1.44807,0.0014394,0.0177493,1966,897,25.7963,-4.45658
749,127,25.7931,4.6897,-0.0020557,0.00274934,-0.000400927,0.00278256,-0.00208893,-1.48812,0.00282204,0.0119543,1973,897,25.7931,-4.68969
756,127,25.7715,4.89648,-0.00331765,0.00393322,-2.90124e-05,0.00393333,-0.00331777,-1.5668,0.00419145,0.013326,1980,897,25.7715,-4.89649
763,127,25.7278,5.08813,-0.00484975,0.00540871,0.000488915,0.00543196,-0.004873,1.52328,0.00595249,0.022852,1987,897,25.7278,-5.08816
770,127,25.7754,5.28229,-0.006865,0.00737,0.00105124,0.00744722,-0.00694222,1.49748,0.00830945,0.0464762,1994,897,25.7754,-5.28231
777,127,25.9714,5.53265,0,0,0,0,0,0,0,-1,2001,897,25.9714,-5.53265
784,127,29.2657,4.48309,0,0,0,0,0,0,0,-1,2008,897,29.2657,-4.48311
791,127,28.8302,4.67694,0,0,0,0,0,0,0,-1,2015,897,28.8302,-4.67695
798,127,0,0,0,0,0,0,0,0,0,-1,2022,897,0,0
805,127,0,0,0,0,0,0,0,0,0,-1,2029,897,0,0
812,127,0,0,0,0,0,0,0,0,0,-1,2036,897,0,0
-700,120,0,0,0,0,0,0,0,0,0,-1,524,904,0,0
-693,120,0,0,0,0,0,0,0,0,0,-1,531,904,0,0
-686,120,0,0,0,0,0,0,0,0,0,-1,538,904,0,0
-679,120,-19.0994,2.4679,0,0,0,0,0,0,0,-1,545,904,-19.0994,-2.46792
-672,120,-22.7648,-1.53711,0,0,0,0,0,0,0,-1,552,904,-22.7648,1.53709
-665,120,-22.0812,-0.77832,0.139621,0.0286233,0.0840676,0.184857,-0.0166125,0.493652,0.129132,0.0460853,559,904,-22.0812,0.778349
-658,120,-21.4694,-0.0482788,0.114771,0.0239481,0.06721,0.150473,-0.0117538,0.488295,0.104454,0.0444293,566,904,-21.4694,0.0482774
-651,120,-20.7455,0.645386,0.0915164,0.0196629,0.0527546,0.119416,-0.00823646,0.486463,0.0824932,0.0457714,573,904,-20.7455,-0.645399
-644,120,-18.7866,2.29181,0,0,0,0,0,0,0,-1,580,904,-18.7866,-2.29179
-637,120,-18.5342,2.43738,0.0525597,0.0122753,0.030352,0.0688449,-0.00400987,0.492454,0.0472899,0.0433333,587,904,-18.5342,-2.43738
-630,120,-18.2852,2.47827,0.0380581,0.00948824,0.0220689,0.0500619,-0.00251554,0.498165,0.0342439,0.0238588,594,904,-18.2852,-2.47826
-623,120,-18.2544,2.30701,0.0260433,0.00678606,0.0152434,0.0344444,-0.00161503,0.503711,0.0235198,0.0106776,601,904,-18.2544,-2.30698
-616,120,-18.257,2.10455,0.0147049,0.00435764,0.00966942,0.0204978,-0.00143524,0.539752,0.0141678,0.00994854,608,904,-18.257,-2.10453
-609,120,-18.266,1.88544,0.00598113,0.00266712,0.00609251,0.0106379,-0.0019897,0.652622,0.00783981,0.012723,615,904,-18.266,-1.88543
-602,120,-18.2773,1.66968,0.000808748,0.000311457,0.00305985,0.00363004,-0.00250983,0.744857,0.00356447,0.0133753,622,904,-18.2773,-1.66969
-595,120,-18.2371,1.48035,-0.00164635,-0.00064501,0.00173662,0.000661676,-0.00295304,0.925743,0.00222233,0.0206737,629,904,-18.2371,-1.48034
-588,120,-18.2656,1.25513,-0.00277848,-0.00124214,0.000930902,-0.000803385,-0.00321723,1.13035,0.00193349,0.0269227,636,904,-18.2655,-1.25513
-581,120,-18.4252,1.04236,-0.00327159,-0.00141109,0.000653562,-0.00120446,-0.00347823,1.26457,0.00203954,0.0346309,643,904,-18.4252,-1.04237
-574,120,-18.2866,0.728516,-0.00375498,-0.00156437,0.000497594,-0.00145664,-0.00386271,1.35759,0.00225248,0.0270686,650,904,-18.2865,-0.728506
-567,120,-18.0982,0.151123,0,0,0,0,0,0,0,-1,657,904,-18.0982,-0.151135
-560,120,-20.7778,0.479248,0,0,0,0,0,0,0,-1,664,904,-20.7777,-0.479235
-553,120,-20.7303,0.691284,-0.00290013,-0.00158949,0.000751932,-0.00124739,-0.00324223,1.14382,0.00188841,0.0398427,671,904,-20.7303,-0.691262
-546,120,-20.7041,0.854309,-0.00243397,-0.00129831,0.000958615,-0.000751967,-0.00298031,1.05278,0.00178967,0.0323585,678,904,-20.7041,-0.854339
-539,120,-20.6958,0.800476,-0.00172888,-0.000908484,0.00127496,2.06373e-05,-0.002658,0.941036,0.00177892,0.0264645,685,904,-20.6958,-0.800473
-532,120,-20.6317,0.747192,-0.000898184,-0.000444296,0.00177332,0.00111654,-0.00245902,0.849041,0.0021123,0.0273679,692,904,-20.6317,-0.747188
-525,120,-20.7751,0.898132,2.49156e-05,1.06819e-05,0.00244472,0.00246253,-0.00242694,0.783943,0.00282296,0.0348784,699,904,-20.7751,-0.898113
-518,120,-20.988,0.984924,0.000874276,0.000239932,0.00328706,0.00385943,-0.00274523,0.737302,0.00383125,0.0389708,706,904,-20.988,-0.984923
-511,120,-20.8785,0.939453,0.00121416,0.000167519,0.00424312,0.00496611,-0.00358443,0.724041,0.0049581,0.0373427,713,904,-20.8785,-0.939433
-504,120,0,0,0,0,0,0,0,0,0,-1,720,904,0,0
-497,120,0,0,0,0,0,0,0,0,0,-1,727,904,0,0
-490,120,0,0,0,0,0,0,0,0,0,-1,734,904,0,0
-483,120,0,0,0,0,0,0,0,0,0,-1,741,904,0,0
-476,120,0,0,0,0,0,0,0,0,0,-1,748,904,0,0
-469,120,0,0,0,0,0,0,0,0,0,-1,755,904,0,0
-462,120,0,0,0,0,0,0,0,0,0,-1,762,904,0,0
-455,120,0,0,0,0,0,0,0,0,0,-1,769,904,0,0
-448,120,0,0,0,0,0,0,0,0,0,-1,776,904,0,0
-441,120,0,0,0,0,0,0,0,0,0,-1,783,904,0,0
-434,120,0,0,0,0,0,0,0,0,0,-1,790,904,0,0
-427,120,0,0,0,0,0,0,0,0,0,-1,797,904,0,0
-420,120,0,0,0,0,0,0,0,0,0,-1,804,904,0,0
-413,120,0,0,0,0,0,0,0,0,0,-1,811,904,0,0
-406,120,0,0,0,0,0,0,0,0,0,-1,818,904,0,0
-399,120,0,0,0,0,0,0,0,0,0,-1,825,904,0,0
-392,120,0,0,0,0,0,0,0,0,0,-1,832,904,0,0
-385,120,0,0,0,0,0,0,0,0,0,-1,839,904,0,0
-378,120,0,0,0,0,0,0,0,0,0,-1,846,904,0,0
-371,120,0,0,0,0,0,0,0,0,0,-1,853,904,0,0
-364,120,0,0,0,0,0,0,0,0,0,-1,860,904,0,0
-357,120,0,0,0,0,0,0,0,0,0,-1,867,904,0,0
-350,120,0,0,0,0,0,0,0,0,0,-1,874,904,0,0
-343,120,0,0,0,0,0,0,0,0,0,-1,881,904,0,0
-336,120,0,0,0,0,0,0,0,0,0,-1,888,904,0,0
-329,120,0,0,0,0,0,0,0,0,0,-1,895,904,0,0
-322,120,0,0,0,0,0,0,0,0,0,-1,902,904,0,0
-315,120,0,0,0,0,0,0,0,0,0,-1,909,904,0,0
-308,120,0,0,0,0,0,0,0,0,0,-1,916,904,0,0
-301,120,0,0,0,0,0,0,0,0,0,-1,923,904,0,0
-294,120,0,0,0,0,0,0,0,0,0,-1,930,904,0,0
-287,120,0,0,0,0,0,0,0,0,0,-1,937,904,0,0
-280,120,0,0,0,0,0,0,0,0,0,-1,944,904,0,0
-273,120,0,0,0,0,0,0,0,0,0,-1,951,904,0,0
-266,120,0,0,0,0,0,0,0,0,0,-1,958,904,0,0
-259,120,0,0,0,0,0,0,0,0,0,-1,965,904,0,0
-252,120,0,0,0,0,0,0,0,0,0,-1,972,904,0,0
-245,120,0,0,0,0,0,0,0,0,0,-1,979,904,0,0
-238,120,0,0,0,0,0,0,0,0,0,-1,986,904,0,0
-231,120,0,0,0,0,0,0,0,0,0,-1,993,904,0,0
-224,120,0,0,0,0,0,0,0,0,0,-1,1000,904,0,0
-217,120,0,0,0,0,0,0,0,0,0,-1,1007,904,0,0
-210,120,0,0,0,0,0,0,0,0,0,-1,1014,904,0,0
-203,120,0,0,0,0,0,0,0,0,0,-1,1021,904,0,0
-196,120,0,0,0,0,0,0,0,0,0,-1,1028,904,0,0
-189,120,0,0,0,0,0,0,0,0,0,-1,1035,904,0,0
-182,120,0,0,0,0,0,0,0,0,0,-1,1042,904,0,0
-175,120,0,0,0,0,0,0,0,0,0,-1,1049,904,0,0
-168,120,0,0,0,0,0,0,0,0,0,-1,1056,904,0,0
-161,120,0,0,0,0,0,0,0,0,0,-1,1063,904,0,0
-154,120,0,0,0,0,0,0,0,0,0,-1,1070,904,0,0
-147,120,0,0,0,0,0,0,0,0,0,-1,1077,904,0,0
-140,120,0,0,0,0,0,0,0,0,0,-1,1084,904,0,0
-133,120,0,0,0,0,0,0,0,0,0,-1,1091,904,0,0
-126,120,0,0,0,0,0,0,0,0,0,-1,1098,904,0,0
-119,120,0,0,0,0,0,0,0,0,0,-1,1105,904,0,0
-112,120,0,0,0,0,0,0,0,0,0,-1,1112,904,0,0
-105,120,0,0,0,0,0,0,0,0,0,-1,1119,904,0,0
-98,120,0,0,0,0,0,0,0,0,0,-1,1126,904,0,0
-91,120,0,0,0,0,0,0,0,0,0,-1,1133,904,0,0
-84,120,0,0,0,0,0,0,0,0,0,-1,1140,904,0,0
-77,120,0,0,0,0,0,0,0,0,0,-1,1147,904,0,0
-70,120,0,0,0,0,0,0,0,0,0,-1,1154,904,0,0
-63,120,0,0,0,0,0,0,0,0,0,-1,1161,904,0,0
-56,120,0,0,0,0,0,0,0,0,0,-1,1168,904,0,0
-49,120,0,0,0,0,0,0,0,0,0,-1,1175,904,0,0
-42,120,0,0,0,0,0,0,0,0,0,-1,1182,904,0,0
-35,120,0,0,0,0,0,0,0,0,0,-1,1189,904,0,0
-28,120,0,0,0,0,0,0,0,0,0,-1,1196,904,0,0
-21,120,0,0,0,0,0,0,0,0,0,-1,1203,904,0,0
-14,120,0,0,0,0,0,0,0,0,0,-1,1210,904,0,0
-7,120,0,0,0,0,0,0,0,0,0,-1,1217,904,0,0
0,120,0,0,0,0,0,0,0,0,0,-1,1224,904,0,0
7,120,0,0,0,0,0,0,0,0,0,-1,1231,904,0,0
14,120,0,0,0,0,0,0,0,0,0,-1,1238,904,0,0
21,120,0,0,0,0,0,0,0,0,0,-1,1245,904,0,0
28,120,0,0,0,0,0,0,0,0,0,-1,1252,904,0,0
35,120,0,0,0,0,0,0,0,0,0,-1,1259,904,0,0
42,120,0,0,0,0,0,0,0,0,0,-1,1266,904,0,0
49,120,0,0,0,0,0,0,0,0,0,-1,1273,904,0,0
56,120,0,0,0,0,0,0,0,0,0,-1,1280,904,0,0
63,120,0,0,0,0,0,0,0,0,0,-1,1287,904,0,0
70,120,0,0,0,0,0,0,0,0,0,-1,1294,904,0,0
77,120,0,0,0,0,0,0,0,0,0,-1,1301,904,0,0
84,120,0,0,0,0,0,0,0,0,0,-1,1308,904,0,0
91,120,0,0,0,0,0,0,0,0,0,-1,1315,904,0,0
98,120,0,0,0,0,0,0,0,0,0,-1,1322,904,0,0
105,120,0,0,0,0,0,0,0,0,0,-1,1329,904,0,0
112,120,0,0,0,0,0,0,0,0,0,-1,1336,904,0,0
119,120,0,0,0,0,0,0,0,0,0,-1,1343,904,0,0
126,120,0,0,0,0,0,0,0,0,0,-1,1350,904,0,0
133,120,0,0,0,0,0,0,0,0,0,-1,1357,904,0,0
140,120,0,0,0,0,0,0,0,0,0,-1,1364,904,0,0
147,120,0,0,0,0,0,0,0,0,0,-1,1371,904,0,0
154,120,0,0,0,0,0,0,0,0,0,-1,1378,904,0,0
161,120,0,0,0,0,0,0,0,0,0,-1,1385,904,0,0
168,120,0,0,0,0,0,0,0,0,0,-1,1392,904,0,0
175,120,0,0,0,0,0,0,0,0,0,-1,1399,904,0,0
182,120,0,0,0,0,0,0,0,0,0,-1,1406,904,0,0
189,120,0,0,0,0,0,0,0,0,0,-1,1413,904,0,0
196,120,0,0,0,0,0,0,0,0,0,-1,1420,904,0,0
203,120,0,0,0,0,0,0,0,0,0,-1,1427,904,0,0
210,120,0,0,0,0,0,0,0,0,0,-1,1434,904,0,0
217,120,0,0,0,0,0,0,0,0,0,-1,1441,904,0,0
224,120,0,0,0,0,0,0,0,0,0,-1,1448,904,0,0
231,120,0,0,0,0,0,0,0,0,0,-1,1455,904,0,0
238,120,0,0,0,0,0,0,0,0,0,-1,1462,904,0,0
245,120,0,0,0,0,0,0,0,0,0,-1,1469,904,0,0
252,120,0,0,0,0,0,0,0,0,0,-1,1476,904,0,0
259,120,0,0,0,0,0,0,0,0,0,-1,1483,904,0,0
266,120,0,0,0,0,0,0,0,0,0,-1,1490,904,0,0
273,120,0,0,0,0,0,0,0,0,0,-1,1497,904,0,0
280,120,0,0,0,0,0,0,0,0,0,-1,1504,904,0,0
287,120,0,0,0,0,0,0,0,0,0,-1,1511,904,0,0
294,120,0,0,0,0,0,0,0,0,0,-1,1518,904,0,0
301,120,0,0,0,0,0,0,0,0,0,-1,1525,904,0,0
308,120,0,0,0,0,0,0,0,0,0,-1,1532,904,0,0
315,120,0,0,0,0,0,0,0,0,0,-1,1539,904,0,0
322,120,0,0,0,0,0,0,0,0,0,-1,1546,904,0,0
329,120,0,0,0,0,0,0,0,0,0,-1,1553,904,0,0
336,120,0,0,0,0,0,0,0,0,0,-1,1560,904,0,0
343,120,0,0,0,0,0,0,0,0,0,-1,1567,904,0,0
350,120,0,0,0,0,0,0,0,0,0,-1,1574,904,0,0
357,120,0,0,0,0,0,0,0,0,0,-1,1581,904,0,0
364,120,0,0,0,0,0,0,0,0,0,-1,1588,904,0,0
371,120,0,0,0,0,0,0,0,0,0,-1,1595,904,0,0
378,120,0,0,0,0,0,0,0,0,0,-1,1602,904,0,0
385,120,0,0,0,0,0,0,0,0,0,-1,1609,904,0,0
392,120,0,0,0,0,0,0,0,0,0,-1,1616,904,0,0
399,120,0,0,0,0,0,0,0,0,0,-1,1623,904,0,0
406,120,0,0,0,0,0,0,0,0,0,-1,1630,904,0,0
413,120,0,0,0,0,0,0,0,0,0,-1,1637,904,0,0
420,120,0,0,0,0,0,0,0,0,0,-1,1644,904,0,0
427,120,0,0,0,0,0,0,0,0,0,-1,1651,904,0,0
434,120,0,0,0,0,0,0,0,0,0,-1,1658,904,0,0
441,120,0,0,0,0,0,0,0,0,0,-1,1665,904,0,0
448,120,0,0,0,0,0,0,0,0,0,-1,1672,904,0,0
455,120,0,0,0,0,0,0,0,0,0,-1,1679,904,0,0
462,120,0,0,0,0,0,0,0,0,0,-1,1686,904,0,0
469,120,0,0,0,0,0,0,0,0,0,-1,1693,904,0,0
476,120,0,0,0,0,0,0,0,0,0,-1,1700,904,0,0
483,120,0,0,0,0,0,0,0,0,0,-1,1707,904,0,0
490,120,0,0,0,0,0,0,0,0,0,-1,1714,904,0,0
497,120,0,0,0,0,0,0,0,0,0,-1,1721,904,0,0
504,120,0,0,0,0,0,0,0,0,0,-1,1728,904,0,0
511,120,0,0,0,0,0,0,0,0,0,-1,1735,904,0,0
518,120,0,0,0,0,0,0,0,0,0,-1,1742,904,0,0
525,120,0,0,0,0,0,0,0,0,0,-1,1749,904,0,0
532,120,0,0,0,0,0,0,0,0,0,-1,1756,904,0,0
539,120,0,0,0,0,0,0,0,0,0,-1,1763,904,0,0
546,120,0,0,0,0,0,0,0,0,0,-1,1770,904,0,0
553,120,0,0,0,0,0,0,0,0,0,-1,1777,904,0,0
560,120,0,0,0,0,0,0,0,0,0,-1,1784,904,0,0
567,120,0,0,0,0,0,0,0,0,0,-1,1791,904,0,0
574,120,0,0,0,0,0,0,0,0,0,-1,1798,904,0,0
581,120,0,0,0,0,0,0,0,0,0,-1,1805,904,0,0
588,120,0,0,0,0,0,0,0,0,0,-1,1812,904,0,0
595,120,0,0,0,0,0,0,0,0,0,-1,1819,904,0,0
602,120,0,0,0,0,0,0,0,0,0,-1,1826,904,0,0
609,120,0,0,0,0,0,0,0,0,0,-1,1833,904,0,0
616,120,0,0,0,0,0,0,0,0,0,-1,1840,904,0,0
623,120,0,0,0,0,0,0,0,0,0,-1,1847,904,0,0
630,120,29.2122,2.86902,0.00610344,-0.00200172,-0.0050677,0.0085397,-0.00443798,-0.448123,0.00761639,0.042418,1854,904,29.2122,-2.869
637,120,29.3722,2.62836,0.00414323,-0.00171892,-0.00361859,0.00586891,-0.0034446,-0.444992,0.00543754,0.0430886,1861,904,29.3722,-2.62838
644,120,29.3119,2.63184,0.00247427,-0.00125466,-0.00235352,0.00361235,-0.00239274,-0.450414,0.00349079,0.0419893,1868,904,29.3119,-2.63181
651,120,29.2123,2.61371,0.00106764,-0.0006745,-0.00119724,0.00167716,-0.00128402,-0.470903,0.00171465,0.0442973,1875,904,29.2123,-2.61368
658,120,29.2341,2.64545,0.000150964,-0.000210749,-0.000305197,0.000324866,-0.000384652,-0.517922,0.000410125,0.0428475,1882,904,29.2342,-2.64545
665,120,29.2599,2.70825,-0.000269069,0.000100531,0.000290706,0.000260203,-0.000428742,1.06852,0.00040171,0.0370986,1889,904,29.2599,-2.70827
672,120,29.2761,2.63422,-0.000363141,0.000126048,0.000714224,0.000636398,-0.000873491,0.95037,0.00087531,0.0345448,1896,904,29.2761,-2.63421
679,120,29.3129,2.52936,-0.000341312,0.000205987,0.00095478,0.000925558,-0.00106088,0.924962,0.00114776,0.0317509,1903,904,29.3129,-2.52936
686,120,29.2823,2.61725,-0.000374798,0.000235425,0.00110165,0.00107343,-0.00121281,0.920492,0.00132078,0.0202104,1910,904,29.2823,-2.61723
693,120,29.217,2.69855,0,0,0,0,0,0,0,-1,1917,904,29.217,-2.69858
700,120,26.0404,2.96704,0,0,0,0,0,0,0,-1,1924,904,26.0404,-2.96704
707,120,25.946,3.16858,-0.000203863,0.000361079,0.000751516,0.000881457,-0.000724241,0.965164,0.00092853,0.0250953,1931,904,25.9461,-3.16859
714,120,26.0981,3.46564,-0.000109089,0.000427731,0.000406541,0.000646475,-0.000327833,1.07716,0.000572457,0.0188071,1938,904,26.0981,-3.46565
721,120,26.1045,3.70453,-9.99801e-05,0.000434698,0.000192401,0.000496734,-0.000162017,1.25889,0.000396358,0.0148003,1945,904,26.1045,-3.70454
728,120,26.1066,3.96619,-0.000347788,0.000563152,-0.000138294,0.000583684,-0.00036832,-1.4234,0.000554309,0.0106553,1952,904,26.1066,-3.9662
735,120,26.0752,4.19861,-0.00073578,0.000835389,-0.000281051,0.000884151,-0.000784541,-1.39901,0.000963992,0.0124862,1959,904,26.0751,-4.19863
742,120,26.0509,4.45471,-0.000961918,0.00115047,-0.000174531,0.00116479,-0.000976241,-1.48891,0.00123772,0.0134306,1966,904,26.0509,-4.4547
749,120,26.0463,4.66577,-0.00185759,0.0021555,-0.000264315,0.00217284,-0.00187493,-1.50531,0.00233909,0.0106267,1973,904,26.0463,-4.66578
756,120,26.0432,4.86908,-0.0028846,0.00304376,0.000172415,0.00304877,-0.00288961,1.54175,0.00342894,0.011455,1980,904,26.0432,-4.86906
763,120,25.9685,5.07117,-0.00410945,0.00417209,0.000819025,0.00425232,-0.00418967,1.47316,0.00487403,0.0217486,1987,904,25.9685,-5.07119
770,120,26.0289,5.24951,-0.00566144,0.0055478,0.001564,0.00576193,-0.00587557,1.43473,0.00671902,0.0436264,1994,904,26.0289,-5.24953
777,120,26.2247,5.37885,0,0,0,0,0,0,0,-1,2001,904,26.2247,-5.37883
784,120,29.1884,4.11047,-0.0111899,0.0102433,0.00301484,0.0106593,-0.0116059,1.43368,0.0128587,0.0489495,2008,904,29.1883,-4.11045
791,120,28.9464,4.31891,-0.0159692,0.014301,0.00302315,0.0146,-0.0162682,1.47222,0.0178304,0.0447357,2015,904,28.9464,-4.3189
798,120,28.4897,4.52881,-0.0226093,0.0202626,0.00200279,0.0203559,-0.0227026,1.52422,0.0248722,0.044425,2022,904,28.4896,-4.52878
805,120,0,0,0,0,0,0,0,0,0,-1,2029,904,0,0
812,120,0,0,0,0,0,0,0,0,0,-1,2036,904,0,0
-700,113,0,0,0,0,0,0,0,0,0,-1,524,911,0,0
-693,113,0,0,0,0,0,0,0,0,0,-1,531,911,0,0
-686,113,0,0,0,0,0,0,0,0,0,-1,538,911,0,0
-679,113,-22.6438,-1.90607,0,0,0,0,0,0,0,-1,545,911,-22.6438,1.90607
-672,113,-23.031,-1.82819,0,0,0,0,0,0,0,-1,552,911,-23.031,1.82821
-665,113,-22.4232,-1.10925,0.13254,0.0178122,0.0764737,0.170774,-0.0204211,0.46361,0.121231,0.0492159,559,911,-22.4232,1.10923
-658,113,-21.8615,-0.421997,0.110322,0.015113,0.0613919,0.140404,-0.0149688,0.455612,0.0989701,0.0451968,566,911,-21.8615,0.421984
-651,113,-18.5322,2.66797,0,0,0,0,0,0,0,-1,573,911,-18.5322,-2.66799
-644,113,-18.6323,2.56427,0.0692979,0.0103188,0.0372684,0.0873327,-0.00771604,0.4507,0.0609568,0.0460469,580,911,-18.6323,-2.56426
-637,113,-18.5718,2.36206,0.0519784,0.00817444,0.0279806,0.0656096,-0.00545678,0.453329,0.0456675,0.0360302,587,911,-18.5718,-2.36205
-630,113,-18.4716,2.46484,0.0380487,0.00657929,0.0203172,0.0480117,-0.00338368,0.455915,0.0331932,0.0162665,594,911,-18.4716,-2.46485
-623,113,-18.4802,2.28369,0.0259901,0.00477529,0.0139603,0.0329157,-0.00215033,0.460518,0.0226946,0.0103503,601,911,-18.4802,-2.28372
-616,113,-18.4833,2.08813,0.0141829,0.00307285,0.00867933,0.0189327,-0.00167693,0.500731,0.0132163,0.00954111,608,911,-18.4833,-2.08816
-609,113,-18.4981,1.90662,0.0054728,0.00188808,0.00550133,0.00946638,-0.0021055,0.627918,0.00711734,0.010579,615,911,-18.4981,-1.90662
-602,113,-18.5035,1.68451,0.000354394,-6.1213e-05,0.00276728,0.00292167,-0.00262849,0.747922,0.00320587,0.0148492,622,911,-18.5036,-1.6845
-595,113,-18.5145,1.50372,-0.00233383,-0.000716322,0.00149545,0.000175059,-0.00322521,1.03328,0.0022108,0.0199779,629,911,-18.5144,-1.50372
-588,113,-18.4965,1.29504,-0.00362594,-0.00113281,0.000705775,-0.000946876,-0.00381187,1.31321,0.00229178,0.0219145,636,911,-18.4964,-1.29506
-581,113,-18.5301,1.07458,-0.00416092,-0.00110294,0.00047029,-0.00103225,-0.00423161,1.4216,0.00254768,0.022341,643,911,-18.5301,-1.07459
-574,113,-18.4109,0.726501,-0.00463008,-0.00123987,0.000326429,-0.00120873,-0.00466123,1.47567,0.00279316,0.0253595,650,911,-18.4109,-0.726486
-567,113,-18.6077,0.3479,0,0,0,0,0,0,0,-1,657,911,-18.6077,-0.347885
-560,113,-20.6682,0.548218,0,0,0,0,0,0,0,-1,664,911,-20.6682,-0.548191
-553,113,-20.6985,0.782715,-0.00380011,-0.00105369,0.000584721,-0.000934387,-0.00391942,1.36952,0.00236386,0.0364648,671,911,-20.6986,-0.782719
-546,113,-20.6707,0.953613,-0.00321017,-0.00069008,0.000824483,-0.000444308,-0.00345594,1.28109,0.00217106,0.0346375,678,911,-20.6707,-0.9536
-539,113,-20.6353,0.729675,-0.00234368,-0.000198216,0.0012148,0.000349699,-0.00289159,1.14708,0.00205424,0.0371101,685,911,-20.6352,-0.729658
-532,113,-20.6363,0.717346,-0.00129322,0.000390877,0.00182987,0.00156314,-0.00246549,1.00104,0.0023453,0.0372121,692,911,-20.6363,-0.717342
-525,113,-20.6724,0.965637,-0.000110708,0.000996122,0.0026673,0.00316681,-0.00228139,0.887688,0.00315934,0.0362882,699,911,-20.6724,-0.965644
-518,113,-20.8362,1.04132,0.000739467,0.00140719,0.00376681,0.00485491,-0.00270825,0.829599,0.00442483,0.0383587,706,911,-20.8362,-1.04133
-511,113,-20.9429,0.949768,0.000904596,0.00160051,0.00491437,0.00617923,-0.00367412,0.820741,0.00574979,0.037444,713,911,-20.9429,-0.949741
-504,113,0,0,0,0,0,0,0,0,0,-1,720,911,0,0
-497,113,0,0,0,0,0,0,0,0,0,-1,727,911,0,0
-490,113,0,0,0,0,0,0,0,0,0,-1,734,911,0,0
-483,113,0,0,0,0,0,0,0,0,0,-1,741,911,0,0
-476,113,0,0,0,0,0,0,0,0,0,-1,748,911,0,0
-469,113,0,0,0,0,0,0,0,0,0,-1,755,911,0,0
-462,113,0,0,0,0,0,0,0,0,0,-1,762,911,0,0
-455,113,0,0,0,0,0,0,0,0,0,-1,769,911,0,0
-448,113,0,0,0,0,0,0,0,0,0,-1,776,911,0,0
-441,113,0,0,0,0,0,0,0,0,0,-1,783,911,0,0
-434,113,0,0,0,0,0,0,0,0,0,-1,790,911,0,0
-427,113,0,0,0,0,0,0,0,0,0,-1,797,911,0,0
-420,113,0,0,0,0,0,0,0,0,0,-1,804,911,0,0
-413,113,0,0,0,0,0,0,0,0,0,-1,811,911,0,0
-406,113,0,0,0,0,0,0,0,0,0,-1,818,911,0,0
-399,113,0,0,0,0,0,0,0,0,0,-1,825,911,0,0
-392,113,0,0,0,0,0,0,0,0,0,-1,832,911,0,0
-385,113,0,0,0,0,0,0,0,0,0,-1,839,911,0,0
-378,113,0,0,0,0,0,0,0,0,0,-1,846,911,0,0
-371,113,0,0,0,0,0,0,0,0,0,-1,853,911,0,0
-364,113,0,0,0,0,0,0,0,0,0,-1,860,911,0,0
-357,113,0,0,0,0,0,0,0,0,0,-1,867,911,0,0
-350,113,0,0,0,0,0,0,0,0,0,-1,874,911,0,0
-343,113,0,0,0,0,0,0,0,0,0,-1,881,911,0,0
-336,113,0,0,0,0,0,0,0,0,0,-1,888,911,0,0
-329,113,0,0,0,0,0,0,0,0,0,-1,895,911,0,0
-322,113,0,0,0,0,0,0,0,0,0,-1,902,911,0,0
-315,113,0,0,0,0,0,0,0,0,0,-1,909,911,0,0
-308,113,0,0,0,0,0,0,0,0,0,-1,916,911,0,0
-301,113,0,0,0,0,0,0,0,0,0,-1,923,911,0,0
-294,113,0,0,0,0,0,0,0,0,0,-1,930,911,0,0
-287,113,0,0,0,0,0,0,0,0,0,-1,937,911,0,0
-280,113,0,0,0,0,0,0,0,0,0,-1,944,911,0,0
-273,113,0,0,0,0,0,0,0,0,0,-1,951,911,0,0
-266,113,0,0,0,0,0,0,0,0,0,-1,958,911,0,0
-259,113,0,0,0,0,0,0,0,0,0,-1,965,911,0,0
-252,113,0,0,0,0,0,0,0,0,0,-1,972,911,0,0
-245,113,0,0,0,0,0,0,0,0,0,-1,979,911,0,0
-238,113,0,0,0,0,0,0,0,0,0,-1,986,911,0,0
-231,113,0,0,0,0,0,0,0,0,0,-1,993,911,0,0
-224,113,0,0,0,0,0,0,0,0,0,-1,1000,911,0,0
-217,113,0,0,0,0,0,0,0,0,0,-1,1007,911,0,0
-210,113,0,0,0,0,0,0,0,0,0,-1,1014,911,0,0
-203,113,0,0,0,0,0,0,0,0,0,-1,1021,911,0,0
-196,113,0,0,0,0,0,0,0,0,0,-1,1028,911,0,0
-189,113,0,0,0,0,0,0,0,0,0,-1,1035,911,0,0
-182,113,0,0,0,0,0,0,0,0,0,-1,1042,911,0,0
-175,113,0,0,0,0,0,0,0,0,0,-1,1049,911,0,0
-168,113,0,0,0,0,0,0,0,0,0,-1,1056,911,0,0
-161,113,0,0,0,0,0,0,0,0,0,-1,1063,911,0,0
-154,113,0,0,0,0,0,0,0,0,0,-1,1070,911,0,0
-147,113,0,0,0,0,0,0,0,0,0,-1,1077,911,0,0
-140,113,0,0,0,0,0,0,0,0,0,-1,1084,911,0,0
-133,113,0,0,0,0,0,0,0,0,0,-1,1091,911,0,0
-126,113,0,0,0,0,0,0,0,0,0,-1,1098,911,0,0
-119,113,0,0,0,0,0,0,0,0,0,-1,1105,911,0,0
-112,113,0,0,0,0,0,0,0,0,0,-1,1112,911,0,0
-105,113,0,0,0,0,0,0,0,0,0,-1,1119,911,0,0
-98,113,0,0,0,0,0,0,0,0,0,-1,1126,911,0,0
-91,113,0,0,0,0,0,0,0,0,0,-1,1133,911,0,0
-84,113,0,0,0,0,0,0,0,0,0,-1,1140,911,0,0
-77,113,0,0,0,0,0,0,0,0,0,-1,1147,911,0,0
-70,113,0,0,0,0,0,0,0,0,0,-1,1154,911,0,0
-63,113,0,0,0,0,0,0,0,0,0,-1,1161,911,0,0
-56,113,0,0,0,0,0,0,0,0,0,-1,1168,911,0,0
-49,113,0,0,0,0,0,0,0,0,0,-1,1175,911,0,0
-42,113,0,0,0,0,0,0,0,0,0,-1,1182,911,0,0
-35,113,0,0,0,0,0,0,0,0,0,-1,1189,911,0,0
-28,113,0,0,0,0,0,0,0,0,0,-1,1196,911,0,0
-21,113,0,0,0,0,0,0,0,0,0,-1,1203,911,0,0
-14,113,0,0,0,0,0,0,0,0,0,-1,1210,911,0,0
-7,113,0,0,0,0,0,0,0,0,0,-1,1217,911,0,0
0,113,0,0,0,0,0,0,0,0,0,-1,1224,911,0,0
7,113,0,0,0,0,0,0,0,0,0,-1,1231,911,0,0
14,113,0,0,0,0,0,0,0,0,0,-1,1238,911,0,0
21,113,0,0,0,0,0,0,0,0,0,-1,1245,911,0,0
28,113,0,0,0,0,0,0,0,0,0,-1,1252,911,0,0
35,113,0,0,0,0,0,0,0,0,0,-1,1259,911,0,0
42,113,0,0,0,0,0,0,0,0,0,-1,1266,911,0,0
49,113,0,0,0,0,0,0,0,0,0,-1,1273,911,0,0
56,113,0,0,0,0,0,0,0,0,0,-1,1280,911,0,0
63,113,0,0,0,0,0,0,0,0,0,-1,1287,911,0,0
70,113,0,0,0,0,0,0,0,0,0,-1,1294,911,0,0
77,113,0,0,0,0,0,0,0,0,0,-1,1301,911,0,0
84,113,0,0,0,0,0,0,0,0,0,-1,1308,911,0,0
91,113,0,0,0,0,0,0,0,0,0,-1,1315,911,0,0
98,113,0,0,0,0,0,0,0,0,0,-1,1322,911,0,0
105,113,0,0,0,0,0,0,0,0,0,-1,1329,911,0,0
112,113,0,0,0,0,0,0,0,0,0,-1,1336,911,0,0
119,113,0,0,0,0,0,0,0,0,0,-1,1343,911,0,0
126,113,0,0,0,0,0,0,0,0,0,-1,1350,911,0,0
133,113,0,0,0,0,0,0,0,0,0,-1,1357,911,0,0
140,113,0,0,0,0,0,0,0,0,0,-1,1364,911,0,0
147,113,0,0,0,0,0,0,0,0,0,-1,1371,911,0,0
154,113,0,0,0,0,0,0,0,0,0,-1,1378,911,0,0
161,113,0,0,0,0,0,0,0,0,0,-1,1385,911,0,0
168,113,0,0,0,0,0,0,0,0,0,-1,1392,911,0,0
175,113,0,0,0,0,0,0,0,0,0,-1,1399,911,0,0
182,113,0,0,0,0,0,0,0,0,0,-1,1406,911,0,0
189,113,0,0,0,0,0,0,0,0,0,-1,1413,911,0,0
196,113,0,0,0,0,0,0,0,0,0,-1,1420,911,0,0
203,113,0,0,0,0,0,0,0,0,0,-1,1427,911,0,0
210,113,0,0,0,0,0,0,0,0,0,-1,1434,911,0,0
217,113,0,0,0,0,0,0,0,0,0,-1,1441,911,0,0
224,113,0,0,0,0,0,0,0,0,0,-1,1448,911,0,0
231,113,0,0,0,0,0,0,0,0,0,-1,1455,911,0,0
238,113,0,0,0,0,0,0,0,0,0,-1,1462,911,0,0
245,113,0,0,0,0,0,0,0,0,0,-1,1469,911,0,0
252,113,0,0,0,0,0,0,0,0,0,-1,1476,911,0,0
259,113,0,0,0,0,0,0,0,0,0,-1,1483,911,0,0
266,113,0,0,0,0,0,0,0,0,0,-1,1490,911,0,0
273,113,0,0,0,0,0,0,0,0,0,-1,1497,911,0,0
280,113,0,0,0,0,0,0,0,0,0,-1,1504,911,0,0
287,113,0,0,0,0,0,0,0,0,0,-1,1511,911,0,0
294,113,0,0,0,0,0,0,0,0,0,-1,1518,911,0,0
301,113,0,0,0,0,0,0,0,0,0,-1,1525,911,0,0
308,113,0,0,0,0,0,0,0,0,0,-1,1532,911,0,0
315,113,0,0,0,0,0,0,0,0,0,-1,1539,911,0,0
322,113,0,0,0,0,0,0,0,0,0,-1,1546,911,0,0
329,113,0,0,0,0,0,0,0,0,0,-1,1553,911,0,0
336,113,0,0,0,0,0,0,0,0,0,-1,1560,911,0,0
343,113,0,0,0,0,0,0,0,0,0,-1,1567,911,0,0
350,113,0,0,0,0,0,0,0,0,0,-1,1574,911,0,0
357,113,0,0,0,0,0,0,0,0,0,-1,1581,911,0,0
364,113,0,0,0,0,0,0,0,0,0,-1,1588,911,0,0
371,113,0,0,0,0,0,0,0,0,0,-1,1595,911,0,0
378,113,0,0,0,0,0,0,0,0,0,-1,1602,911,0,0
385,113,0,0,0,0,0,0,0,0,0,-1,1609,911,0,0
392,113,0,0,0,0,0,0,0,0,0,-1,1616,911,0,0
399,113,0,0,0,0,0,0,0,0,0,-1,1623,911,0,0
406,113,0,0,0,0,0,0,0,0,0,-1,1630,911,0,0
413,113,0,0,0,0,0,0,0,0,0,-1,1637,911,0,0
420,113,0,0,0,0,0,0,0,0,0,-1,1644,911,0,0
427,113,0,0,0,0,0,0,0,0,0,-1,1651,911,0,0
434,113,0,0,0,0,0,0,0,0,0,-1,1658,911,0,0
441,113,0,0,0,0,0,0,0,0,0,-1,1665,911,0,0
448,113,0,0,0,0,0,0,0,0,0,-1,1672,911,0,0
455,113,0,0,0,0,0,0,0,0,0,-1,1679,911,0,0
462,113,0,0,0,0,0,0,0,0,0,-1,1686,911,0,0
469,113,0,0,0,0,0,0,0,0,0,-1,1693,911,0,0
476,113,0,0,0,0,0,0,0,0,0,-1,1700,911,0,0
483,113,0,0,0,0,0,0,0,0,0,-1,1707,911,0,0
490,113,0,0,0,0,0,0,0,0,0,-1,1714,911,0,0
497,113,0,0,0,0,0,0,0,0,0,-1,1721,911,0,0
504,113,0,0,0,0,0,0,0,0,0,-1,1728,911,0,0
511,113,0,0,0,0,0,0,0,0,0,-1,1735,911,0,0
518,113,0,0,0,0,0,0,0,0,0,-1,1742,911,0,0
525,113,0,0,0,0,0,0,0,0,0,-1,1749,911,0,0
532,113,0,0,0,0,0,0,0,0,0,-1,1756,911,0,0
539,113,0,0,0,0,0,0,0,0,0,-1,1763,911,0,0
546,113,0,0,0,0,0,0,0,0,0,-1,1770,911,0,0
553,113,0,0,0,0,0,0,0,0,0,-1,1777,911,0,0
560,113,0,0,0,0,0,0,0,0,0,-1,1784,911,0,0
567,113,0,0,0,0,0,0,0,0,0,-1,1791,911,0,0
574,113,0,0,0,0,0,0,0,0,0,-1,1798,911,0,0
581,113,0,0,0,0,0,0,0,0,0,-1,1805,911,0,0
588,113,0,0,0,0,0,0,0,0,0,-1,1812,911,0,0
595,113,0,0,0,0,0,0,0,0,0,-1,1819,911,0,0
602,113,0,0,0,0,0,0,0,0,0,-1,1826,911,0,0
609,113,0,0,0,0,0,0,0,0,0,-1,1833,911,0,0
616,113,0,0,0,0,0,0,0,0,0,-1,1840,911,0,0
623,113,0,0,0,0,0,0,0,0,0,-1,1847,911,0,0
630,113,29.2596,2.78448,0.00685273,-0.00169273,-0.00550553,0.00954901,-0.00438901,-0.455406,0.00822888,0.0429957,1854,911,29.2597,-2.78449
637,113,29.381,2.59534,0.00483393,-0.00144438,-0.00405765,0.00682497,-0.00343541,-0.456169,0.00603062,0.0414525,1861,911,29.381,-2.59536
644,113,29.2332,2.83313,0.00313074,-0.00103379,-0.00281277,0.00454812,-0.00245117,-0.46677,0.00410105,0.0411414,1868,911,29.2332,-2.83316
651,113,29.2987,2.82367,0.00162498,-0.000503711,-0.00163709,0.00251329,-0.00139203,-0.49716,0.00228551,0.0440411,1875,911,29.2988,-2.82365
658,113,29.3789,2.76642,0.000535392,-2.19352e-05,-0.000639608,0.000954405,-0.000440947,-0.579958,0.000823587,0.0420958,1882,911,29.3789,-2.76642
665,113,29.4124,2.73163,-4.86867e-05,0.000303725,7.41111e-05,0.000318676,-6.36378e-05,1.37173,0.000236534,0.0347805,1889,911,29.4124,-2.73163
672,113,29.3448,2.68921,-0.000276749,0.000338402,0.00060555,0.000710012,-0.000648359,1.02038,0.000784525,0.0343238,1896,911,29.3448,-2.68918
679,113,29.2847,2.57141,-0.000354449,0.00038107,0.000935464,0.00101847,-0.000991846,0.972683,0.00116069,0.0317609,1903,911,29.2847,-2.57139
686,113,29.27,2.61432,-0.000456793,0.000362035,0.0011349,0.00115911,-0.00125387,0.958507,0.00139349,0.0252541,1910,911,29.27,-2.61432
693,113,29.1437,2.77332,-0.000445863,0.000383901,0.00120376,0.00124227,-0.00130423,0.951351,0.00147036,0.0393166,1917,911,29.1437,-2.77331
700,113,28.9612,2.91766,0,0,0,0,0,0,0,-1,1924,911,28.9611,-2.91768
707,113,26.2695,3.1687,0,0,0,0,0,0,0,-1,1931,911,26.2695,-3.16872
714,113,26.3044,3.39722,-0.000423124,0.000419993,0.00061207,0.000741631,-0.000744762,1.08696,0.00085817,0.0191858,1938,911,26.3044,-3.39721
721,113,26.3135,3.65643,-0.000460723,0.000407177,0.00044528,0.000594988,-0.000648534,1.17165,0.00071817,0.0181457,1945,911,26.3134,-3.65643
728,113,26.3563,3.97534,-0.000702398,0.00050335,0.000125862,0.000516348,-0.000715396,1.46789,0.000714236,0.0175469,1952,911,26.3563,-3.97532
735,113,26.3268,4.22229,-0.000956223,0.000732011,-2.21842e-05,0.000732302,-0.000956514,-1.55766,0.000977899,0.0155081,1959,911,26.3268,-4.22232
742,113,26.2906,4.42914,-0.000904437,0.000912934,0.000106796,0.000919188,-0.000910691,1.5123,0.00105648,0.0118223,1966,911,26.2907,-4.42914
749,113,26.3014,4.65509,-0.0014018,0.0016568,4.82792e-05,0.00165756,-0.00140256,1.55502,0.0017688,0.00934691,1973,911,26.3014,-4.6551
756,113,26.3057,4.87201,-0.00190759,0.00227709,0.000598614,0.00236103,-0.00199154,1.43147,0.00251598,0.0104676,1980,911,26.3056,-4.87201
763,113,26.2275,5.09412,-0.00257147,0.00307833,0.00143886,0.00342367,-0.0029168,1.33525,0.00366457,0.0198057,1987,911,26.2275,-5.0941
770,113,26.1946,5.38666,-0.00337251,0.00392856,0.00243339,0.00466526,-0.0041092,1.27682,0.00506933,0.0411676,1994,911,26.1945,-5.38667
777,113,26.2352,5.65289,0,0,0,0,0,0,0,-1,2001,911,26.2352,-5.6529
784,113,29.5804,3.83698,-0.00643122,0.00659451,0.00478564,0.00816371,-0.00800042,1.25395,0.00933252,0.0468439,2008,911,29.5805,-3.83698
791,113,28.9205,4.22101,-0.00917414,0.00884711,0.00560885,0.0104502,-0.0107772,1.29241,0.0122561,0.0434895,2015,911,28.9205,-4.22098
798,113,28.9497,3.78357,-0.013073,0.0121747,0.0057823,0.0134359,-0.0143343,1.35603,0.0160359,0.0438242,2022,911,28.9496,-3.78355
805,113,0,0,0,0,0,0,0,0,0,-1,2029,911,0,0
812,113,0,0,0,0,0,0,0,0,0,-1,2036,911,0,0
-700,106,0,0,0,0,0,0,0,0,0,-1,524,918,0,0
-693,106,0,0,0,0,0,0,0,0,0,-1,531,918,0,0
-686,106,0,0,0,0,0,0,0,0,0,-1,538,918,0,0
-679,106,-23.6077,-2.42773,0.158833,0.00997486,0.103193,0.211638,-0.0428303,0.472972,0.157325,0.0481883,545,918,-23.6078,2.42771
-672,106,-23.3195,-1.99945,0.143988,0.00899461,0.0855679,0.185476,-0.0324934,0.451458,0.135784,0.0459805,552,918,-23.3195,1.99947
-665,106,-22.9624,-1.51807,0.12486,0.00833333,0.0700471,0.157707,-0.0245144,0.43849,0.11419,0.0472078,559,918,-22.9624,1.51807
-658,106,-18.6977,2.55341,0,0,0,0,0,0,0,-1,566,918,-18.6977,-2.5534
-651,106,-18.6066,2.48328,0,0,0,0,0,0,0,-1,573,918,-18.6066,-2.48328
-644,106,-18.5927,2.50079,0.066433,0.00627423,0.0344296,0.082072,-0.00936476,0.426366,0.0580884,0.0436745,580,918,-18.5927,-2.50078
-637,106,-18.5755,2.62506,0.0500385,0.00534626,0.0258749,0.061881,-0.00649621,0.429224,0.0435811,0.0298041,587,918,-18.5755,-2.62507
-630,106,-18.6622,2.51892,0.0368346,0.00478718,0.0186873,0.0454274,-0.00380567,0.430992,0.0316299,0.0124248,594,918,-18.6622,-2.51891
-623,106,-18.7069,2.29596,0.0249827,0.00377002,0.0127306,0.0309463,-0.00219357,0.438087,0.0213996,0.0107539,601,918,-18.7069,-2.29593
-616,106,-18.7143,2.08057,0.013064,0.00263426,0.00772602,0.0171704,-0.00147215,0.488531,0.0119679,0.0110688,608,918,-18.7143,-2.08054
-609,106,-18.7252,1.8902,0.0046238,0.00178471,0.00493007,0.00833463,-0.00192611,0.645222,0.00629742,0.0111701,615,918,-18.7252,-1.89021
-602,106,-18.7449,1.68378,-0.000285663,0.00010731,0.00247214,0.00239076,-0.00256911,0.825055,0.0028642,0.0148372,622,918,-18.7449,-1.68377
-595,106,-18.8147,1.49225,-0.00306989,-0.000380811,0.00125935,0.000116866,-0.00356757,1.19445,0.00241827,0.0183135,629,918,-18.8147,-1.49225
-588,106,-18.7791,1.263,-0.00446953,-0.000748798,0.000489807,-0.000685399,-0.00453293,1.44208,0.00282137,0.0206323,636,918,-18.779,-1.26299
-581,106,-18.6747,1.01776,-0.00503418,-0.000714354,0.000268567,-0.000697721,-0.00505081,1.50894,0.00316041,0.0148364,643,918,-18.6748,-1.01779
-574,106,-18.7499,0.801392,-0.00549396,-0.000790274,0.000151161,-0.000785421,-0.00549881,1.5387,0.00343414,0.0279471,650,918,-18.7499,-0.801418
-567,106,-20.5817,0.523743,0,0,0,0,0,0,0,-1,657,918,-20.5817,-0.523728
-560,106,-20.6162,0.711975,-0.00518402,-0.000568396,0.000249579,-0.000554939,-0.00519748,1.51693,0.00329562,0.0416839,664,918,-20.6162,-0.711962
-553,106,-20.6798,0.890625,-0.00469901,-0.000337409,0.000411005,-0.000299017,-0.0047374,1.47766,0.00306346,0.0337225,671,918,-20.6798,-0.89065
-546,106,-20.5234,0.755005,-0.00396065,0.000123668,0.000699494,0.000240144,-0.00407712,1.4058,0.00280156,0.0373437,678,918,-20.5234,-0.755019
-539,106,-20.5001,0.487671,-0.00291796,0.000734917,0.00117215,0.00107869,-0.00326173,1.28551,0.00260946,0.0419448,685,918,-20.5001,-0.487686
-532,106,-20.543,0.529236,-0.00164461,0.00146652,0.00191479,0.00237798,-0.00255606,1.12653,0.00284929,0.0404156,692,918,-20.543,-0.529253
-525,106,-20.572,0.938293,-0.000286717,0.00225767,0.00293497,0.00418431,-0.00221336,0.989906,0.00375167,0.0382123,699,918,-20.572,-0.938306
-518,106,-20.7144,0.973511,0.00030791,0.00297159,0.0043487,0.00618782,-0.00290833,0.933994,0.00536423,0.0387755,706,918,-20.7144,-0.973498
-511,106,0,0,0,0,0,0,0,0,0,-1,713,918,0,0
-504,106,0,0,0,0,0,0,0,0,0,-1,720,918,0,0
-497,106,0,0,0,0,0,0,0,0,0,-1,727,918,0,0
-490,106,0,0,0,0,0,0,0,0,0,-1,734,918,0,0
-483,106,0,0,0,0,0,0,0,0,0,-1,741,918,0,0
-476,106,0,0,0,0,0,0,0,0,0,-1,748,918,0,0
-469,106,0,0,0,0,0,0,0,0,0,-1,755,918,0,0
-462,106,0,0,0,0,0,0,0,0,0,-1,762,918,0,0
-455,106,0,0,0,0,0,0,0,0,0,-1,769,918,0,0
-448,106,0,0,0,0,0,0,0,0,0,-1,776,918,0,0
-441,106,0,0,0,0,0,0,0,0,0,-1,783,918,0,0
-434,106,0,0,0,0,0,0,0,0,0,-1,790,918,0,0
-427,106,0,0,0,0,0,0,0,0,0,-1,797,918,0,0
-420,106,0,0,0,0,0,0,0,0,0,-1,804,918,0,0
-413,106,0,0,0,0,0,0,0,0,0,-1,811,918,0,0
-406,106,0,0,0,0,0,0,0,0,0,-1,818,918,0,0
-399,106,0,0,0,0,0,0,0,0,0,-1,825,918,0,0
-392,106,0,0,0,0,0,0,0,0,0,-1,832,918,0,0
-385,106,0,0,0,0,0,0,0,0,0,-1,839,918,0,0
-378,106,0,0,0,0,0,0,0,0,0,-1,846,918,0,0
-371,106,0,0,0,0,0,0,0,0,0,-1,853,918,0,0
-364,106,0,0,0,0,0,0,0,0,0,-1,860,918,0,0
-357,106,0,0,0,0,0,0,0,0,0,-1,867,918,0,0
-350,106,0,0,0,0,0,0,0,0,0,-1,874,918,0,0
-343,106,0,0,0,0,0,0,0,0,0,-1,881,918,0,0
-336,106,0,0,0,0,0,0,0,0,0,-1,888,918,0,0
-329,106,0,0,0,0,0,0,0,0,0,-1,895,918,0,0
-322,106,0,0,0,0,0,0,0,0,0,-1,902,918,0,0
-315,106,0,0,0,0,0,0,0,0,0,-1,909,918,0,0
-308,106,0,0,0,0,0,0,0,0,0,-1,916,918,0,0
-301,106,0,0,0,0,0,0,0,0,0,-1,923,918,0,0
-294,106,0,0,0,0,0,0,0,0,0,-1,930,918,0,0
-287,106,0,0,0,0,0,0,0,0,0,-1,937,918,0,0
-280,106,0,0,0,0,0,0,0,0,0,-1,944,918,0,0
-273,106,0,0,0,0,0,0,0,0,0,-1,951,918,0,0
-266,106,0,0,0,0,0,0,0,0,0,-1,958,918,0,0
-259,106,0,0,0,0,0,0,0,0,0,-1,965,918,0,0
-252,106,0,0,0,0,0,0,0,0,0,-1,972,918,0,0
-245,106,0,0,0,0,0,0,0,0,0,-1,979,918,0,0
-238,106,0,0,0,0,0,0,0,0,0,-1,986,918,0,0
-231,106,0,0,0,0,0,0,0,0,0,-1,993,918,0,0
-224,106,0,0,0,0,0,0,0,0,0,-1,1000,918,0,0
-217,106,0,0,0,0,0,0,0,0,0,-1,1007,918,0,0
-210,106,0,0,0,0,0,0,0,0,0,-1,1014,918,0,0
-203,106,0,0,0,0,0,0,0,0,0,-1,1021,918,0,0
-196,106,0,0,0,0,0,0,0,0,0,-1,1028,918,0,0
-189,106,0,0,0,0,0,0,0,0,0,-1,1035,918,0,0
-182,106,0,0,0,0,0,0,0,0,0,-1,1042,918,0,0
-175,106,0,0,0,0,0,0,0,0,0,-1,1049,918,0,0
-168,106,0,0,0,0,0,0,0,0,0,-1,1056,918,0,0
-161,106,0,0,0,0,0,0,0,0,0,-1,1063,918,0,0
-154,106,0,0,0,0,0,0,0,0,0,-1,1070,918,0,0
-147,106,0,0,0,0,0,0,0,0,0,-1,1077,918,0,0
-140,106,0,0,0,0,0,0,0,0,0,-1,1084,918,0,0
-133,106,0,0,0,0,0,0,0,0,0,-1,1091,918,0,0
-126,106,0,0,0,0,0,0,0,0,0,-1,1098,918,0,0
-119,106,0,0,0,0,0,0,0,0,0,-1,1105,918,0,0
-112,106,0,0,0,0,0,0,0,0,0,-1,1112,918,0,0
-105,106,0,0,0,0,0,0,0,0,0,-1,1119,918,0,0
-98,106,0,0,0,0,0,0,0,0,0,-1,1126,918,0,0
-91,106,0,0,0,0,0,0,0,0,0,-1,1133,918,0,0
-84,106,0,0,0,0,0,0,0,0,0,-1,1140,918,0,0
-77,106,0,0,0,0,0,0,0,0,0,-1,1147,918,0,0
-70,106,0,0,0,0,0,0,0,0,0,-1,1154,918,0,0
-63,106,0,0,0,0,0,0,0,0,0,-1,1161,918,0,0
-56,106,0,0,0,0,0,0,0,0,0,-1,1168,918,0,0
-49,106,0,0,0,0,0,0,0,0,0,-1,1175,918,0,0
-42,106,0,0,0,0,0,0,0,0,0,-1,1182,918,0,0
-35,106,0,0,0,0,0,0,0,0,0,-1,1189,918,0,0
-28,106,0,0,0,0,0,0,0,0,0,-1,1196,918,0,0
-21,106,0,0,0,0,0,0,0,0,0,-1,1203,918,0,0
-14,106,0,0,0,0,0,0,0,0,0,-1,1210,918,0,0
-7,106,0,0,0,0,0,0,0,0,0,-1,1217,918,0,0
0,106,0,0,0,0,0,0,0,0,0,-1,1224,918,0,0
7,106,0,0,0,0,0,0,0,0,0,-1,1231,918,0,0
14,106,0,0,0,0,0,0,0,0,0,-1,1238,918,0,0
21,106,0,0,0,0,0,0,0,0,0,-1,1245,918,0,0
28,106,0,0,0,0,0,0,0,0,0,-1,1252,918,0,0
35,106,0,0,0,0,0,0,0,0,0,-1,1259,918,0,0
42,106,0,0,0,0,0,0,0,0,0,-1,1266,918,0,0
49,106,0,0,0,0,0,0,0,0,0,-1,1273,918,0,0
56,106,0,0,0,0,0,0,0,0,0,-1,1280,918,0,0
63,106,0,0,0,0,0,0,0,0,0,-1,1287,918,0,0
70,106,0,0,0,0,0,0,0,0,0,-1,1294,918,0,0
77,106,0,0,0,0,0,0,0,0,0,-1,1301,918,0,0
84,106,0,0,0,0,0,0,0,0,0,-1,1308,918,0,0
91,106,0,0,0,0,0,0,0,0,0,-1,1315,918,0,0
98,106,0,0,0,0,0,0,0,0,0,-1,1322,918,0,0
105,106,0,0,0,0,0,0,0,0,0,-1,1329,918,0,0
112,106,0,0,0,0,0,0,0,0,0,-1,1336,918,0,0
119,106,0,0,0,0,0,0,0,0,0,-1,1343,918,0,0
126,106,0,0,0,0,0,0,0,0,0,-1,1350,918,0,0
133,106,0,0,0,0,0,0,0,0,0,-1,1357,918,0,0
140,106,0,0,0,0,0,0,0,0,0,-1,1364,918,0,0
147,106,0,0,0,0,0,0,0,0,0,-1,1371,918,0,0
154,106,0,0,0,0,0,0,0,0,0,-1,1378,918,0,0
161,106,0,0,0,0,0,0,0,0,0,-1,1385,918,0,0
168,106,0,0,0,0,0,0,0,0,0,-1,1392,918,0,0
175,106,0,0,0,0,0,0,0,0,0,-1,1399,918,0,0
182,106,0,0,0,0,0,0,0,0,0,-1,1406,918,0,0
189,106,0,0,0,0,0,0,0,0,0,-1,1413,918,0,0
196,106,0,0,0,0,0,0,0,0,0,-1,1420,918,0,0
203,106,0,0,0,0,0,0,0,0,0,-1,1427,918,0,0
210,106,0,0,0,0,0,0,0,0,0,-1,1434,918,0,0
217,106,0,0,0,0,0,0,0,0,0,-1,1441,918,0,0
224,106,0,0,0,0,0,0,0,0,0,-1,1448,918,0,0
231,106,0,0,0,0,0,0,0,0,0,-1,1455,918,0,0
238,106,0,0,0,0,0,0,0,0,0,-1,1462,918,0,0
245,106,0,0,0,0,0,0,0,0,0,-1,1469,918,0,0
252,106,0,0,0,0,0,0,0,0,0,-1,1476,918,0,0
259,106,0,0,0,0,0,0,0,0,0,-1,1483,918,0,0
266,106,0,0,0,0,0,0,0,0,0,-1,1490,918,0,0
273,106,0,0,0,0,0,0,0,0,0,-1,1497,918,0,0
280,106,0,0,0,0,0,0,0,0,0,-1,1504,918,0,0
287,106,0,0,0,0,0,0,0,0,0,-1,1511,918,0,0
294,106,0,0,0,0,0,0,0,0,0,-1,1518,918,0,0
301,106,0,0,0,0,0,0,0,0,0,-1,1525,918,0,0
308,106,0,0,0,0,0,0,0,0,0,-1,1532,918,0,0
315,106,0,0,0,0,0,0,0,0,0,-1,1539,918,0,0
322,106,0,0,0,0,0,0,0,0,0,-1,1546,918,0,0
329,106,0,0,0,0,0,0,0,0,0,-1,1553,918,0,0
336,106,0,0,0,0,0,0,0,0,0,-1,1560,918,0,0
343,106,0,0,0,0,0,0,0,0,0,-1,1567,918,0,0
350,106,0,0,0,0,0,0,0,0,0,-1,1574,918,0,0
357,106,0,0,0,0,0,0,0,0,0,-1,1581,918,0,0
364,106,0,0,0,0,0,0,0,0,0,-1,1588,918,0,0
371,106,0,0,0,0,0,0,0,0,0,-1,1595,918,0,0
378,106,0,0,0,0,0,0,0,0,0,-1,1602,918,0,0
385,106,0,0,0,0,0,0,0,0,0,-1,1609,918,0,0
392,106,0,0,0,0,0,0,0,0,0,-1,1616,918,0,0
399,106,0,0,0,0,0,0,0,0,0,-1,1623,918,0,0
406,106,0,0,0,0,0,0,0,0,0,-1,1630,918,0,0
413,106,0,0,0,0,0,0,0,0,0,-1,1637,918,0,0
420,106,0,0,0,0,0,0,0,0,0,-1,1644,918,0,0
427,106,0,0,0,0,0,0,0,0,0,-1,1651,918,0,0
434,106,0,0,0,0,0,0,0,0,0,-1,1658,918,0,0
441,106,0,0,0,0,0,0,0,0,0,-1,1665,918,0,0
448,106,0,0,0,0,0,0,0,0,0,-1,1672,918,0,0
455,106,0,0,0,0,0,0,0,0,0,-1,1679,918,0,0
462,106,0,0,0,0,0,0,0,0,0,-1,1686,918,0,0
469,106,0,0,0,0,0,0,0,0,0,-1,1693,918,0,0
476,106,0,0,0,0,0,0,0,0,0,-1,1700,918,0,0
483,106,0,0,0,0,0,0,0,0,0,-1,1707,918,0,0
490,106,0,0,0,0,0,0,0,0,0,-1,1714,918,0,0
497,106,0,0,0,0,0,0,0,0,0,-1,1721,918,0,0
504,106,0,0,0,0,0,0,0,0,0,-1,1728,918,0,0
511,106,0,0,0,0,0,0,0,0,0,-1,1735,918,0,0
518,106,0,0,0,0,0,0,0,0,0,-1,1742,918,0,0
525,106,0,0,0,0,0,0,0,0,0,-1,1749,918,0,0
532,106,0,0,0,0,0,0,0,0,0,-1,1756,918,0,0
539,106,0,0,0,0,0,0,0,0,0,-1,1763,918,0,0
546,106,0,0,0,0,0,0,0,0,0,-1,1770,918,0,0
553,106,0,0,0,0,0,0,0,0,0,-1,1777,918,0,0
560,106,0,0,0,0,0,0,0,0,0,-1,1784,918,0,0
567,106,0,0,0,0,0,0,0,0,0,-1,1791,918,0,0
574,106,0,0,0,0,0,0,0,0,0,-1,1798,918,0,0
581,106,0,0,0,0,0,0,0,0,0,-1,1805,918,0,0
588,106,0,0,0,0,0,0,0,0,0,-1,1812,918,0,0
595,106,0,0,0,0,0,0,0,0,0,-1,1819,918,0,0
602,106,0,0,0,0,0,0,0,0,0,-1,1826,918,0,0
609,106,0,0,0,0,0,0,0,0,0,-1,1833,918,0,0
616,106,0,0,0,0,0,0,0,0,0,-1,1840,918,0,0
623,106,0,0,0,0,0,0,0,0,0,-1,1847,918,0,0
630,106,29.2054,3.2724,0,0,0,0,0,0,0,-1,1854,918,29.2055,-3.27242
637,106,29.3025,2.84717,0.00532673,-0.00167476,-0.00458143,0.00759181,-0.00393984,-0.459161,0.00676817,0.041087,1861,918,29.3025,-2.84716
644,106,29.1936,2.82574,0.00367473,-0.000996381,-0.00335917,0.00543049,-0.00275213,-0.481623,0.00480786,0.040545,1868,918,29.1936,-2.82575
651,106,29.1786,2.88855,0.00216002,-0.000346098,-0.00215421,0.0033991,-0.00158518,-0.521978,0.00294051,0.0412763,1875,918,29.1786,-2.88854
658,106,29.2649,2.95129,0.000951161,0.000240753,-0.00102529,0.00168103,-0.000489115,-0.618646,0.00131442,0.0383881,1882,918,29.2649,-2.9513
665,106,29.292,2.8374,0.000206619,0.000629527,-0.000148656,0.000676552,0.000159594,-1.26442,0.000408368,0.0363794,1889,918,29.292,-2.83738
672,106,29.2026,2.74109,-0.000189229,0.000703862,0.000520327,0.000942986,-0.000428353,1.14002,0.000810114,0.0375463,1896,918,29.2027,-2.74107
679,106,29.1964,2.66052,-0.000402785,0.000709966,0.000974977,0.00127615,-0.000968966,1.04468,0.00130025,0.034049,1903,918,29.1965,-2.66054
686,106,29.2405,2.62445,-0.000590885,0.000626233,0.00124762,0.0014058,-0.00137045,1.01231,0.00160291,0.0288022,1910,918,29.2405,-2.62445
693,106,29.1104,2.84314,-0.000661739,0.000605137,0.00137286,0.00148365,-0.00154025,1.00154,0.00174595,0.0256109,1917,918,29.1103,-2.84313
700,106,29.028,3.05487,0,0,0,0,0,0,0,-1,1924,918,29.028,-3.05487
707,106,26.5203,3.12769,0,0,0,0,0,0,0,-1,1931,918,26.5203,-3.12766
714,106,26.5778,3.38379,-0.000810062,0.000530792,0.000907249,0.000988449,-0.00126772,1.1036,0.00130592,0.022566,1938,918,26.5777,-3.3838
721,106,26.5889,3.67493,-0.000910245,0.000489012,0.000775651,0.000833948,-0.00125518,1.15235,0.0012143,0.0201668,1945,918,26.5889,-3.67491
728,106,26.6471,3.97717,-0.00116259,0.000572121,0.000448842,0.000681374,-0.00127185,1.33203,0.00114474,0.0186517,1952,918,26.647,-3.97717
735,106,26.61,4.21545,-0.00129469,0.000798455,0.000258894,0.000830001,-0.00132623,1.44954,0.00125584,0.0161895,1959,918,26.61,-4.21547
742,106,26.5691,4.40186,-0.000996424,0.000912368,0.000386939,0.000987823,-0.00107188,1.37821,0.0011895,0.0113086,1966,918,26.5691,-4.40188
749,106,26.5597,4.64032,-0.00110055,0.00146269,0.000346866,0.0015088,-0.00114666,1.43864,0.00153788,0.00928029,1973,918,26.5597,-4.64031
756,106,26.5365,4.8548,-0.00104983,0.00188162,0.00095697,0.00216637,-0.00133457,1.28159,0.0020402,0.0096126,1980,918,26.5365,-4.85481
763,106,26.4875,5.08575,-0.00108707,0.00240699,0.00193958,0.00327035,-0.00195043,1.15201,0.00304616,0.0157731,1987,918,26.4876,-5.08576
770,106,26.4615,5.34882,-0.00108671,0.00283149,0.0031451,0.00457776,-0.00283297,1.06394,0.00431793,0.034116,1994,918,26.4615,-5.34881
777,106,29.6196,3.87103,0,0,0,0,0,0,0,-1,2001,918,29.6196,-3.87102
784,106,29.6187,3.63727,-0.00148596,0.00382815,0.00623527,0.00794889,-0.0056067,0.986813,0.00786517,0.0461158,2008,918,29.6187,-3.63726
791,106,29.1096,3.81934,-0.00209758,0.00462083,0.00772121,0.00968192,-0.00715867,0.990579,0.00975923,0.0438093,2015,918,29.1096,-3.81934
798,106,28.9829,3.8537,-0.00320267,0.00588123,0.00884037,0.0112782,-0.00859961,1.0227,0.0115111,0.0433485,2022,918,28.9828,-3.85369
805,106,0,0,0,0,0,0,0,0,0,-1,2029,918,0,0
812,106,0,0,0,0,0,0,0,0,0,-1,2036,918,0,0
-700,99,0,0,0,0,0,0,0,0,0,-1,524,925,0,0
-693,99,0,0,0,0,0,0,0,0,0,-1,531,925,0,0
-686,99,0,0,0,0,0,0,0,0,0,-1,538,925,0,0
-679,99,-24.6782,-2.76984,0.145764,-0.00515727,0.0934409,0.19041,-0.0498029,0.445726,0.146392,0.0460941,545,925,-24.6782,2.76986
-672,99,-24.2448,-2.36957,0.13286,-0.00312781,0.0777945,0.168187,-0.0384545,0.426261,0.1269,0.0476317,552,925,-24.2447,2.36957
-665,99,-19.6454,2.58759,0.115902,-0.00117911,0.0639151,0.144034,-0.0293112,0.41463,0.107138,0.0471005,559,925,-19.6454,-2.58756
-658,99,-19.3412,2.50854,0.0976644,0.000457544,0.0516492,0.119983,-0.021861,0.407885,0.0881836,0.0455836,566,925,-19.3413,-2.50853
-651,99,-18.985,2.15771,0.0795894,0.00167034,0.0408956,0.0971126,-0.0158528,0.404819,0.0706216,0.0464163,573,925,-18.985,-2.15771
-644,99,-18.5079,2.33167,0,0,0,0,0,0,0,-1,580,925,-18.5079,-2.33168
-637,99,-18.7751,2.62683,0.0473092,0.00279989,0.02373,0.0575873,-0.00747821,0.408735,0.0411116,0.0294073,587,925,-18.7752,-2.62682
-630,99,-18.8794,2.50159,0.0349569,0.00323386,0.0169497,0.0423092,-0.00411839,0.409275,0.0296743,0.0132131,594,925,-18.8794,-2.50159
-623,99,-18.9467,2.30389,0.0233642,0.00290075,0.0113992,0.0284501,-0.00218517,0.419659,0.0197355,0.00803296,601,925,-18.9467,-2.30389
-616,99,-18.9608,2.08929,0.0115518,0.00226517,0.00673885,0.0150922,-0.00127518,0.483733,0.0105123,0.00973925,608,925,-18.9608,-2.08928
-609,99,-18.9614,1.88647,0.00356627,0.00173255,0.00428908,0.0070354,-0.00173658,0.6801,0.00536366,0.0106899,615,925,-18.9614,-1.88649
-602,99,-18.9577,1.71063,-0.00103286,0.000359884,0.0020889,0.00186543,-0.0025384,0.946289,0.00255243,0.0122848,622,925,-18.9577,-1.71063
-595,99,-19.0179,1.52649,-0.00384024,5.26045e-05,0.000950638,0.000272348,-0.00405998,1.34363,0.00280185,0.0156567,629,925,-19.0179,-1.5265
-588,99,-18.9996,1.29877,-0.00530579,-0.000227771,0.000220243,-0.000218237,-0.00531532,1.52753,0.00347309,0.0159955,636,925,-18.9996,-1.29877
-581,99,-18.9067,1.0459,-0.00587114,-0.0001592,-7.92601e-06,-0.000159189,-0.00587115,-1.56941,0.00386213,0.0114768,643,925,-18.9067,-1.04593
-574,99,-19.1012,0.827209,-0.00629561,-0.000126734,-0.000112003,-0.000124701,-0.00629764,-1.55265,0.00415748,0.023758,650,925,-19.1012,-0.827185
-567,99,-19.6537,0.649231,0,0,0,0,0,0,0,-1,657,925,-19.6537,-0.649203
-560,99,-20.4994,0.735352,-0.00600572,0.000319492,-5.22534e-05,0.000319924,-0.00600615,-1.56254,0.00411489,0.0347983,664,925,-20.4994,-0.735363
-553,99,-20.5751,0.792847,-0.00542453,0.000693415,0.000108265,0.000695331,-0.00542645,1.55311,0.00387029,0.037729,671,925,-20.5751,-0.792859
-546,99,-20.5529,0.626038,-0.00451994,0.00126067,0.000402296,0.00128853,-0.00454781,1.50165,0.00354042,0.0423831,678,925,-20.5529,-0.626055
-539,99,-20.4805,0.405029,0,0,0,0,0,0,0,-1,685,925,-20.4804,-0.405043
-532,99,-20.6194,0.863525,-0.00179318,0.00276269,0.00165326,0.0032994,-0.0023299,1.25689,0.00326611,0.0417562,692,925,-20.6194,-0.863526
-525,99,-20.5329,0.862793,-0.000396284,0.00362688,0.00266537,0.00495456,-0.00172396,1.10865,0.00400339,0.0392748,699,925,-20.5329,-0.862764
-518,99,-20.6053,0.882019,-0.000371686,0.0045009,0.0041402,0.00686844,-0.00273922,1.05134,0.0057152,0.037545,706,925,-20.6053,-0.882035
-511,99,0,0,0,0,0,0,0,0,0,-1,713,925,0,0
-504,99,0,0,0,0,0,0,0,0,0,-1,720,925,0,0
-497,99,0,0,0,0,0,0,0,0,0,-1,727,925,0,0
-490,99,0,0,0,0,0,0,0,0,0,-1,734,925,0,0
-483,99,0,0,0,0,0,0,0,0,0,-1,741,925,0,0
-476,99,0,0,0,0,0,0,0,0,0,-1,748,925,0,0
-469,99,0,0,0,0,0,0,0,0,0,-1,755,925,0,0
-462,99,0,0,0,0,0,0,0,0,0,-1,762,925,0,0
-455,99,0,0,0,0,0,0,0,0,0,-1,769,925,0,0
-448,99,0,0,0,0,0,0,0,0,0,-1,776,925,0,0
-441,99,0,0,0,0,0,0,0,0,0,-1,783,925,0,0
-434,99,0,0,0,0,0,0,0,0,0,-1,790,925,0,0
-427,99,0,0,0,0,0,0,0,0,0,-1,797,925,0,0
-420,99,0,0,0,0,0,0,0,0,0,-1,804,925,0,0
-413,99,0,0,0,0,0,0,0,0,0,-1,811,925,0,0
-406,99,0,0,0,0,0,0,0,0,0,-1,818,925,0,0
-399,99,0,0,0,0,0,0,0,0,0,-1,825,925,0,0
-392,99,0,0,0,0,0,0,0,0,0,-1,832,925,0,0
-385,99,0,0,0,0,0,0,0,0,0,-1,839,925,0,0
-378,99,0,0,0,0,0,0,0,0,0,-1,846,925,0,0
-371,99,0,0,0,0,0,0,0,0,0,-1,853,925,0,0
-364,99,0,0,0,0,0,0,0,0,0,-1,860,925,0,0
-357,99,0,0,0,0,0,0,0,0,0,-1,867,925,0,0
-350,99,0,0,0,0,0,0,0,0,0,-1,874,925,0,0
-343,99,0,0,0,0,0,0,0,0,0,-1,881,925,0,0
-336,99,0,0,0,0,0,0,0,0,0,-1,888,925,0,0
-329,99,0,0,0,0,0,0,0,0,0,-1,895,925,0,0
-322,99,0,0,0,0,0,0,0,0,0,-1,902,925,0,0
-315,99,0,0,0,0,0,0,0,0,0,-1,909,925,0,0
-308,99,0,0,0,0,0,0,0,0,0,-1,916,925,0,0
-301,99,0,0,0,0,0,0,0,0,0,-1,923,925,0,0
-294,99,0,0,0,0,0,0,0,0,0,-1,930,925,0,0
-287,99,0,0,0,0,0,0,0,0,0,-1,937,925,0,0
-280,99,0,0,0,0,0,0,0,0,0,-1,944,925,0,0
-273,99,0,0,0,0,0,0,0,0,0,-1,951,925,0,0
-266,99,0,0,0,0,0,0,0,0,0,-1,958,925,0,0
-259,99,0,0,0,0,0,0,0,0,0,-1,965,925,0,0
-252,99,0,0,0,0,0,0,0,0,0,-1,972,925,0,0
-245,99,0,0,0,0,0,0,0,0,0,-1,979,925,0,0
-238,99,0,0,0,0,0,0,0,0,0,-1,986,925,0,0
-231,99,0,0,0,0,0,0,0,0,0,-1,993,925,0,0
-224,99,0,0,0,0,0,0,0,0,0,-1,1000,925,0,0
-217,99,0,0,0,0,0,0,0,0,0,-1,1007,925,0,0
-210,99,0,0,0,0,0,0,0,0,0,-1,1014,925,0,0
-203,99,0,0,0,0,0,0,0,0,0,-1,1021,925,0,0
-196,99,0,0,0,0,0,0,0,0,0,-1,1028,925,0,0
-189,99,0,0,0,0,0,0,0,0,0,-1,1035,925,0,0
-182,99,0,0,0,0,0,0,0,0,0,-1,1042,925,0,0
-175,99,0,0,0,0,0,0,0,0,0,-1,1049,925,0,0
-168,99,0,0,0,0,0,0,0,0,0,-1,1056,925,0,0
-161,99,0,0,0,0,0,0,0,0,0,-1,1063,925,0,0
-154,99,0,0,0,0,0,0,0,0,0,-1,1070,925,0,0
-147,99,0,0,0,0,0,0,0,0,0,-1,1077,925,0,0
-140,99,0,0,0,0,0,0,0,0,0,-1,1084,925,0,0
-133,99,0,0,0,0,0,0,0,0,0,-1,1091,925,0,0
-126,99,0,0,0,0,0,0,0,0,0,-1,1098,925,0,0
-119,99,0,0,0,0,0,0,0,0,0,-1,1105,925,0,0
-112,99,0,0,0,0,0,0,0,0,0,-1,1112,925,0,0
-105,99,0,0,0,0,0,0,0,0,0,-1,1119,925,0,0
-98,99,0,0,0,0,0,0,0,0,0,-1,1126,925,0,0
-91,99,0,0,0,0,0,0,0,0,0,-1,1133,925,0,0
-84,99,0,0,0,0,0,0,0,0,0,-1,1140,925,0,0
-77,99,0,0,0,0,0,0,0,0,0,-1,1147,925,0,0
-70,99,0,0,0,0,0,0,0,0,0,-1,1154,925,0,0
-63,99,0,0,0,0,0,0,0,0,0,-1,1161,925,0,0
-56,99,0,0,0,0,0,0,0,0,0,-1,1168,925,0,0
-49,99,0,0,0,0,0,0,0,0,0,-1,1175,925,0,0
-42,99,0,0,0,0,0,0,0,0,0,-1,1182,925,0,0
-35,99,0,0,0,0,0,0,0,0,0,-1,1189,925,0,0
-28,99,0,0,0,0,0,0,0,0,0,-1,1196,925,0,0
-21,99,0,0,0,0,0,0,0,0,0,-1,1203,925,0,0
-14,99,0,0,0,0,0,0,0,0,0,-1,1210,925,0,0
-7,99,0,0,0,0,0,0,0,0,0,-1,1217,925,0,0
0,99,0,0,0,0,0,0,0,0,0,-1,1224,925,0,0
7,99,0,0,0,0,0,0,0,0,0,-1,1231,925,0,0
14,99,0,0,0,0,0,0,0,0,0,-1,1238,925,0,0
21,99,0,0,0,0,0,0,0,0,0,-1,1245,925,0,0
28,99,0,0,0,0,0,0,0,0,0,-1,1252,925,0,0
35,99,0,0,0,0,0,0,0,0,0,-1,1259,925,0,0
42,99,0,0,0,0,0,0,0,0,0,-1,1266,925,0,0
49,99,0,0,0,0,0,0,0,0,0,-1,1273,925,0,0
56,99,0,0,0,0,0,0,0,0,0,-1,1280,925,0,0
63,99,0,0,0,0,0,0,0,0,0,-1,1287,925,0,0
70,99,0,0,0,0,0,0,0,0,0,-1,1294,925,0,0
77,99,0,0,0,0,0,0,0,0,0,-1,1301,925,0,0
84,99,0,0,0,0,0,0,0,0,0,-1,1308,925,0,0
91,99,0,0,0,0,0,0,0,0,0,-1,1315,925,0,0
98,99,0,0,0,0,0,0,0,0,0,-1,1322,925,0,0
105,99,0,0,0,0,0,0,0,0,0,-1,1329,925,0,0
112,99,0,0,0,0,0,0,0,0,0,-1,1336,925,0,0
119,99,0,0,0,0,0,0,0,0,0,-1,1343,925,0,0
126,99,0,0,0,0,0,0,0,0,0,-1,1350,925,0,0
133,99,0,0,0,0,0,0,0,0,0,-1,1357,925,0,0
140,99,0,0,0,0,0,0,0,0,0,-1,1364,925,0,0
147,99,0,0,0,0,0,0,0,0,0,-1,1371,925,0,0
154,99,0,0,0,0,0,0,0,0,0,-1,1378,925,0,0
161,99,0,0,0,0,0,0,0,0,0,-1,1385,925,0,0
168,99,0,0,0,0,0,0,0,0,0,-1,1392,925,0,0
175,99,0,0,0,0,0,0,0,0,0,-1,1399,925,0,0
182,99,0,0,0,0,0,0,0,0,0,-1,1406,925,0,0
189,99,0,0,0,0,0,0,0,0,0,-1,1413,925,0,0
196,99,0,0,0,0,0,0,0,0,0,-1,1420,925,0,0
203,99,0,0,0,0,0,0,0,0,0,-1,1427,925,0,0
210,99,0,0,0,0,0,0,0,0,0,-1,1434,925,0,0
217,99,0,0,0,0,0,0,0,0,0,-1,1441,925,0,0
224,99,0,0,0,0,0,0,0,0,0,-1,1448,925,0,0
231,99,0,0,0,0,0,0,0,0,0,-1,1455,925,0,0
238,99,0,0,0,0,0,0,0,0,0,-1,1462,925,0,0
245,99,0,0,0,0,0,0,0,0,0,-1,1469,925,0,0
252,99,0,0,0,0,0,0,0,0,0,-1,1476,925,0,0
259,99,0,0,0,0,0,0,0,0,0,-1,1483,925,0,0
266,99,0,0,0,0,0,0,0,0,0,-1,1490,925,0,0
273,99,0,0,0,0,0,0,0,0,0,-1,1497,925,0,0
280,99,0,0,0,0,0,0,0,0,0,-1,1504,925,0,0
287,99,0,0,0,0,0,0,0,0,0,-1,1511,925,0,0
294,99,0,0,0,0,0,0,0,0,0,-1,1518,925,0,0
301,99,0,0,0,0,0,0,0,0,0,-1,1525,925,0,0
308,99,0,0,0,0,0,0,0,0,0,-1,1532,925,0,0
315,99,0,0,0,0,0,0,0,0,0,-1,1539,925,0,0
322,99,0,0,0,0,0,0,0,0,0,-1,1546,925,0,0
329,99,0,0,0,0,0,0,0,0,0,-1,1553,925,0,0
336,99,0,0,0,0,0,0,0,0,0,-1,1560,925,0,0
343,99,0,0,0,0,0,0,0,0,0,-1,1567,925,0,0
350,99,0,0,0,0,0,0,0,0,0,-1,1574,925,0,0
357,99,0,0,0,0,0,0,0,0,0,-1,1581,925,0,0
364,99,0,0,0,0,0,0,0,0,0,-1,1588,925,0,0
371,99,0,0,0,0,0,0,0,0,0,-1,1595,925,0,0
378,99,0,0,0,0,0,0,0,0,0,-1,1602,925,0,0
385,99,0,0,0,0,0,0,0,0,0,-1,1609,925,0,0
392,99,0,0,0,0,0,0,0,0,0,-1,1616,925,0,0
399,99,0,0,0,0,0,0,0,0,0,-1,1623,925,0,0
406,99,0,0,0,0,0,0,0,0,0,-1,1630,925,0,0
413,99,0,0,0,0,0,0,0,0,0,-1,1637,925,0,0
420,99,0,0,0,0,0,0,0,0,0,-1,1644,925,0,0
427,99,0,0,0,0,0,0,0,0,0,-1,1651,925,0,0
434,99,0,0,0,0,0,0,0,0,0,-1,1658,925,0,0
441,99,0,0,0,0,0,0,0,0,0,-1,1665,925,0,0
448,99,0,0,0,0,0,0,0,0,0,-1,1672,925,0,0
455,99,0,0,0,0,0,0,0,0,0,-1,1679,925,0,0
462,99,0,0,0,0,0,0,0,0,0,-1,1686,925,0,0
469,99,0,0,0,0,0,0,0,0,0,-1,1693,925,0,0
476,99,0,0,0,0,0,0,0,0,0,-1,1700,925,0,0
483,99,0,0,0,0,0,0,0,0,0,-1,1707,925,0,0
490,99,0,0,0,0,0,0,0,0,0,-1,1714,925,0,0
497,99,0,0,0,0,0,0,0,0,0,-1,1721,925,0,0
504,99,0,0,0,0,0,0,0,0,0,-1,1728,925,0,0
511,99,0,0,0,0,0,0,0,0,0,-1,1735,925,0,0
518,99,0,0,0,0,0,0,0,0,0,-1,1742,925,0,0
525,99,0,0,0,0,0,0,0,0,0,-1,1749,925,0,0
532,99,0,0,0,0,0,0,0,0,0,-1,1756,925,0,0
539,99,0,0,0,0,0,0,0,0,0,-1,1763,925,0,0
546,99,0,0,0,0,0,0,0,0,0,-1,1770,925,0,0
553,99,0,0,0,0,0,0,0,0,0,-1,1777,925,0,0
560,99,0,0,0,0,0,0,0,0,0,-1,1784,925,0,0
567,99,0,0,0,0,0,0,0,0,0,-1,1791,925,0,0
574,99,0,0,0,0,0,0,0,0,0,-1,1798,925,0,0
581,99,0,0,0,0,0,0,0,0,0,-1,1805,925,0,0
588,99,0,0,0,0,0,0,0,0,0,-1,1812,925,0,0
595,99,0,0,0,0,0,0,0,0,0,-1,1819,925,0,0
602,99,0,0,0,0,0,0,0,0,0,-1,1826,925,0,0
609,99,0,0,0,0,0,0,0,0,0,-1,1833,925,0,0
616,99,0,0,0,0,0,0,0,0,0,-1,1840,925,0,0
623,99,0,0,0,0,0,0,0,0,0,-1,1847,925,0,0
630,99,0,0,0,0,0,0,0,0,0,-1,1854,925,0,0
637,99,29.2568,2.95062,0.00616534,-0.00215401,-0.00566637,0.00903494,-0.0050236,-0.468775,0.0082261,0.0437533,1861,925,29.2568,-2.95063
644,99,29.1852,2.81696,0.00442654,-0.00107251,-0.00429014,0.00677262,-0.00341859,-0.500424,0.00598917,0.0398753,1868,925,29.1852,-2.81696
651,99,29.1395,2.78168,0.00283643,-0.000256599,-0.00294598,0.00461715,-0.00203732,-0.543691,0.00393702,0.0388118,1875,925,29.1395,-2.7817
658,99,29.1367,2.8631,0.00146272,0.000434987,-0.00160677,0.00263579,-0.000738085,-0.630631,0.00204805,0.0389746,1882,925,29.1368,-2.86311
665,99,29.156,2.763,0.000491382,0.000927338,-0.000463787,0.00122182,0.000196903,-1.00508,0.00075749,0.0396047,1889,925,29.1561,-2.76299
672,99,29.2015,2.67603,-0.000129762,0.00110227,0.00042646,0.00123548,-0.000262975,1.26803,0.000923876,0.0382116,1896,925,29.2015,-2.67605
679,99,29.2338,2.56824,-0.000512998,0.00110932,0.00105652,0.00163015,-0.00103383,1.11279,0.00155084,0.035748,1903,925,29.2338,-2.56823
686,99,29.2073,2.61121,-0.00079909,0.00101412,0.00143144,0.0018019,-0.00158687,1.06769,0.00195782,0.0287713,1910,925,29.2072,-2.61118
693,99,29.1648,2.81995,-0.000948878,0.000978052,0.00163339,0.00191096,-0.00188178,1.05186,0.00218976,0.0239024,1917,925,29.1648,-2.81993
700,99,29.1365,3.01086,0,0,0,0,0,0,0,-1,1924,925,29.1364,-3.01089
707,99,26.9298,3.14386,0,0,0,0,0,0,0,-1,1931,925,26.9298,-3.14386
714,99,26.8895,3.43713,-0.0012227,0.000892948,0.00129499,0.00150724,-0.00183699,1.12787,0.00193392,0.0231619,1938,925,26.8895,-3.43714
721,99,26.819,3.66864,-0.00137996,0.000853926,0.00118329,0.00136417,-0.00189021,1.16368,0.00188708,0.022558,1945,925,26.819,-3.66863
728,99,26.881,3.94855,-0.00161779,0.00095439,0.000806096,0.00118613,-0.00184954,1.29086,0.00176654,0.0178516,1952,925,26.881,-3.94855
735,99,26.8597,4.20422,-0.00162132,0.00114451,0.000508548,0.00123505,-0.00171187,1.3946,0.00170881,0.0153536,1959,925,26.8598,-4.2042
742,99,26.8286,4.39966,-0.00112245,0.00115288,0.000574369,0.00128965,-0.00125922,1.33703,0.00147162,0.0126068,1966,925,26.8286,-4.39965
749,99,26.7997,4.62512,-0.00091698,0.00148629,0.000471371,0.00157543,-0.00100613,1.38388,0.0015025,0.0106618,1973,925,26.7997,-4.6251
756,99,26.7726,4.82452,-0.000405549,0.00166104,0.0010195,0.00207932,-0.000823835,1.18146,0.00172759,0.0108765,1980,925,26.7726,-4.82451
763,99,26.7557,5.02325,0.000125843,0.00187996,0.00201255,0.00319826,-0.00119245,0.990887,0.00262167,0.0127427,1987,925,26.7557,-5.02323
770,99,26.7329,5.2793,0.000839826,0.0019262,0.00332616,0.00475324,-0.00198721,0.866337,0.00399933,0.0253498,1994,925,26.7329,-5.2793
777,99,29.4836,3.91742,0,0,0,0,0,0,0,-1,2001,925,29.4837,-3.91741
784,99,29.4149,3.70715,0.00283111,0.00158404,0.00686707,0.0091029,-0.00468775,0.740122,0.00809691,0.0442788,2008,925,29.4149,-3.70714
791,99,29.3392,3.67804,0.00408481,0.00124859,0.00886048,0.0116399,-0.00630654,0.706047,0.0105128,0.0458728,2015,925,29.3393,-3.67805
798,99,29.0222,3.69452,0.00541094,0.000958042,0.0107529,0.0141655,-0.00779648,0.683313,0.0128562,0.0450005,2022,925,29.0222,-3.69455
805,99,0,0,0,0,0,0,0,0,0,-1,2029,925,0,0
812,99,0,0,0,0,0,0,0,0,0,-1,2036,925,0,0
-700,92,0,0,0,0,0,0,0,0,0,-1,524,932,0,0
-693,92,0,0,0,0,0,0,0,0,0,-1,531,932,0,0
-686,92,-20.2839,-3.2124,0,0,0,0,0,0,0,-1,538,932,-20.2838,3.21242
-679,92,-25.5333,-2.99158,0,0,0,0,0,0,0,-1,545,932,-25.5333,2.9916
-672,92,-20.533,2.50946,0,0,0,0,0,0,0,-1,552,932,-20.5329,-2.50943
-665,92,-20.2563,2.48145,0.104788,-0.00980551,0.0578761,0.128932,-0.0339493,0.395215,0.099226,0.0466166,559,932,-20.2563,-2.48146
-658,92,-19.9117,2.41382,0.088456,-0.006253,0.046797,0.107678,-0.0254748,0.389738,0.081613,0.0449643,566,932,-19.9117,-2.41385
-651,92,-19.4617,2.36328,0.0721291,-0.00338673,0.0370222,0.0872512,-0.0185089,0.38778,0.0652185,0.0455213,573,932,-19.4618,-2.36327
-644,92,-19.2205,2.55542,0.0566303,-0.00125961,0.0285457,0.0683384,-0.0129677,0.389227,0.0504402,0.0418504,580,932,-19.2205,-2.55542
-637,92,-19.0886,2.65076,0.0428372,0.000406462,0.0213388,0.0517122,-0.00846861,0.394149,0.0376168,0.0248366,587,932,-19.0886,-2.65076
-630,92,-19.111,2.45831,0.0315509,0.00178935,0.0149503,0.0377639,-0.00442368,0.393864,0.0267726,0.0116798,594,932,-19.111,-2.45833
-623,92,-19.1557,2.26721,0.0204564,0.00210443,0.00979317,0.0247007,-0.00213989,0.408961,0.0172248,0.00815868,601,932,-19.1557,-2.26721
-616,92,-19.1714,2.06598,0.00915084,0.00194262,0.0055534,0.0121671,-0.00107368,0.497565,0.00849197,0.00817359,608,932,-19.1715,-2.066
-609,92,-19.1854,1.88086,0.00198404,0.00168159,0.00345093,0.00528706,-0.00162143,0.763501,0.00417158,0.00865872,615,932,-19.1854,-1.88085
-602,92,-19.1611,1.6972,-0.00201184,0.000613998,0.00158306,0.00135773,-0.00275558,1.13159,0.0024201,0.00947958,622,932,-19.1611,-1.69723
-595,92,-19.1058,1.4765,-0.00467745,0.000494815,0.000493201,0.000541424,-0.00472406,1.47657,0.00334448,0.0163332,629,932,-19.1058,-1.47649
-588,92,-19.1069,1.29102,-0.00604714,0.000338332,-0.000225426,0.00034628,-0.00605509,-1.53555,0.00415696,0.0172033,636,932,-19.1069,-1.291
-581,92,-19.1258,1.08319,-0.00650181,0.000437403,-0.000490817,0.000471947,-0.00653636,-1.50053,0.0045231,0.0153523,643,932,-19.1258,-1.08321
-574,92,-19.4891,0.908508,-0.00678664,0.000547829,-0.000617856,0.000599513,-0.00683832,-1.48734,0.00477129,0.0306417,650,932,-19.4891,-0.908528
-567,92,-20.3216,1.22589,0,0,0,0,0,0,0,-1,657,932,-20.3216,-1.22587
-560,92,-20.4958,0.716003,-0.00635446,0.0011811,-0.000640845,0.00123521,-0.00640857,-1.48656,0.00473809,0.034456,664,932,-20.4958,-0.716028
-553,92,-20.6003,0.716248,-0.00560152,0.00165707,-0.000502398,0.00169168,-0.00563612,-1.50202,0.00443031,0.0392723,671,932,-20.6003,-0.716272
-546,92,-20.6827,0.657166,-0.00446704,0.00227582,-0.000217104,0.0022828,-0.00447403,-1.53864,0.00396885,0.0435939,678,932,-20.6827,-0.657145
-539,92,-20.7674,0.556763,-0.00297353,0.00299378,0.000273648,0.0030063,-0.00298605,1.52507,0.00345969,0.0423725,685,932,-20.7674,-0.55678
-532,92,-20.685,0.731934,-0.00124259,0.00377383,0.00101095,0.0039699,-0.00143867,1.37923,0.00323462,0.0410492,692,932,-20.685,-0.731947
-525,92,-20.6268,0.806335,0.000125455,0.00462066,0.00194102,0.00534278,-0.000596668,1.21463,0.00377649,0.0354036,699,932,-20.6268,-0.806343
-518,92,-20.7097,0.925415,-0.000519176,0.0055462,0.00333657,0.00702238,-0.00199536,1.15426,0.0054694,0.0357797,706,932,-20.7097,-0.925428
-511,92,0,0,0,0,0,0,0,0,0,-1,713,932,0,0
-504,92,0,0,0,0,0,0,0,0,0,-1,720,932,0,0
-497,92,0,0,0,0,0,0,0,0,0,-1,727,932,0,0
-490,92,0,0,0,0,0,0,0,0,0,-1,734,932,0,0
-483,92,0,0,0,0,0,0,0,0,0,-1,741,932,0,0
-476,92,0,0,0,0,0,0,0,0,0,-1,748,932,0,0
-469,92,0,0,0,0,0,0,0,0,0,-1,755,932,0,0
-462,92,0,0,0,0,0,0,0,0,0,-1,762,932,0,0
-455,92,0,0,0,0,0,0,0,0,0,-1,769,932,0,0
-448,92,0,0,0,0,0,0,0,0,0,-1,776,932,0,0
-441,92,0,0,0,0,0,0,0,0,0,-1,783,932,0,0
-434,92,0,0,0,0,0,0,0,0,0,-1,790,932,0,0
-427,92,0,0,0,0,0,0,0,0,0,-1,797,932,0,0
-420,92,0,0,0,0,0,0,0,0,0,-1,804,932,0,0
-413,92,0,0,0,0,0,0,0,0,0,-1,811,932,0,0
-406,92,0,0,0,0,0,0,0,0,0,-1,818,932,0,0
-399,92,0,0,0,0,0,0,0,0,0,-1,825,932,0,0
-392,92,0,0,0,0,0,0,0,0,0,-1,832,932,0,0
-385,92,0,0,0,0,0,0,0,0,0,-1,839,932,0,0
-378,92,0,0,0,0,0,0,0,0,0,-1,846,932,0,0
-371,92,0,0,0,0,0,0,0,0,0,-1,853,932,0,0
-364,92,0,0,0,0,0,0,0,0,0,-1,860,932,0,0
-357,92,0,0,0,0,0,0,0,0,0,-1,867,932,0,0
-350,92,0,0,0,0,0,0,0,0,0,-1,874,932,0,0
-343,92,0,0,0,0,0,0,0,0,0,-1,881,932,0,0
-336,92,0,0,0,0,0,0,0,0,0,-1,888,932,0,0
-329,92,0,0,0,0,0,0,0,0,0,-1,895,932,0,0
-322,92,0,0,0,0,0,0,0,0,0,-1,902,932,0,0
-315,92,0,0,0,0,0,0,0,0,0,-1,909,932,0,0
-308,92,0,0,0,0,0,0,0,0,0,-1,916,932,0,0
-301,92,0,0,0,0,0,0,0,0,0,-1,923,932,0,0
-294,92,0,0,0,0,0,0,0,0,0,-1,930,932,0,0
-287,92,0,0,0,0,0,0,0,0,0,-1,937,932,0,0
-280,92,0,0,0,0,0,0,0,0,0,-1,944,932,0,0
-273,92,0,0,0,0,0,0,0,0,0,-1,951,932,0,0
-266,92,0,0,0,0,0,0,0,0,0,-1,958,932,0,0
-259,92,0,0,0,0,0,0,0,0,0,-1,965,932,0,0
-252,92,0,0,0,0,0,0,0,0,0,-1,972,932,0,0
-245,92,0,0,0,0,0,0,0,0,0,-1,979,932,0,0
-238,92,0,0,0,0,0,0,0,0,0,-1,986,932,0,0
-231,92,0,0,0,0,0,0,0,0,0,-1,993,932,0,0
-224,92,0,0,0,0,0,0,0,0,0,-1,1000,932,0,0
-217,92,0,0,0,0,0,0,0,0,0,-1,1007,932,0,0
-210,92,0,0,0,0,0,0,0,0,0,-1,1014,932,0,0
-203,92,0,0,0,0,0,0,0,0,0,-1,1021,932,0,0
-196,92,0,0,0,0,0,0,0,0,0,-1,1028,932,0,0
-189,92,0,0,0,0,0,0,0,0,0,-1,1035,932,0,0
-182,92,0,0,0,0,0,0,0,0,0,-1,1042,932,0,0
-175,92,0,0,0,0,0,0,0,0,0,-1,1049,932,0,0
-168,92,0,0,0,0,0,0,0,0,0,-1,1056,932,0,0
-161,92,0,0,0,0,0,0,0,0,0,-1,1063,932,0,0
-154,92,0,0,0,0,0,0,0,0,0,-1,1070,932,0,0
-147,92,0,0,0,0,0,0,0,0,0,-1,1077,932,0,0
-140,92,0,0,0,0,0,0,0,0,0,-1,1084,932,0,0
-133,92,0,0,0,0,0,0,0,0,0,-1,1091,932,0,0
-126,92,0,0,0,0,0,0,0,0,0,-1,1098,932,0,0
-119,92,0,0,0,0,0,0,0,0,0,-1,1105,932,0,0
-112,92,0,0,0,0,0,0,0,0,0,-1,1112,932,0,0
-105,92,0,0,0,0,0,0,0,0,0,-1,1119,932,0,0
-98,92,0,0,0,0,0,0,0,0,0,-1,1126,932,0,0
-91,92,0,0,0,0,0,0,0,0,0,-1,1133,932,0,0
-84,92,0,0,0,0,0,0,0,0,0,-1,1140,932,0,0
-77,92,0,0,0,0,0,0,0,0,0,-1,1147,932,0,0
-70,92,0,0,0,0,0,0,0,0,0,-1,1154,932,0,0
-63,92,0,0,0,0,0,0,0,0,0,-1,1161,932,0,0
-56,92,0,0,0,0,0,0,0,0,0,-1,1168,932,0,0
-49,92,0,0,0,0,0,0,0,0,0,-1,1175,932,0,0
-42,92,0,0,0,0,0,0,0,0,0,-1,1182,932,0,0
-35,92,0,0,0,0,0,0,0,0,0,-1,1189,932,0,0
-28,92,0,0,0,0,0,0,0,0,0,-1,1196,932,0,0
-21,92,0,0,0,0,0,0,0,0,0,-1,1203,932,0,0
-14,92,0,0,0,0,0,0,0,0,0,-1,1210,932,0,0
-7,92,0,0,0,0,0,0,0,0,0,-1,1217,932,0,0
0,92,0,0,0,0,0,0,0,0,0,-1,1224,932,0,0
7,92,0,0,0,0,0,0,0,0,0,-1,1231,932,0,0
14,92,0,0,0,0,0,0,0,0,0,-1,1238,932,0,0
21,92,0,0,0,0,0,0,0,0,0,-1,1245,932,0,0
28,92,0,0,0,0,0,0,0,0,0,-1,1252,932,0,0
35,92,0,0,0,0,0,0,0,0,0,-1,1259,932,0,0
42,92,0,0,0,0,0,0,0,0,0,-1,1266,932,0,0
49,92,0,0,0,0,0,0,0,0,0,-1,1273,932,0,0
56,92,0,0,0,0,0,0,0,0,0,-1,1280,932,0,0
63,92,0,0,0,0,0,0,0,0,0,-1,1287,932,0,0
70,92,0,0,0,0,0,0,0,0,0,-1,1294,932,0,0
77,92,0,0,0,0,0,0,0,0,0,-1,1301,932,0,0
84,92,0,0,0,0,0,0,0,0,0,-1,1308,932,0,0
91,92,0,0,0,0,0,0,0,0,0,-1,1315,932,0,0
98,92,0,0,0,0,0,0,0,0,0,-1,1322,932,0,0
105,92,0,0,0,0,0,0,0,0,0,-1,1329,932,0,0
112,92,0,0,0,0,0,0,0,0,0,-1,1336,932,0,0
119,92,0,0,0,0,0,0,0,0,0,-1,1343,932,0,0
126,92,0,0,0,0,0,0,0,0,0,-1,1350,932,0,0
133,92,0,0,0,0,0,0,0,0,0,-1,1357,932,0,0
140,92,0,0,0,0,0,0,0,0,0,-1,1364,932,0,0
147,92,0,0,0,0,0,0,0,0,0,-1,1371,932,0,0
154,92,0,0,0,0,0,0,0,0,0,-1,1378,932,0,0
161,92,0,0,0,0,0,0,0,0,0,-1,1385,932,0,0
168,92,0,0,0,0,0,0,0,0,0,-1,1392,932,0,0
175,92,0,0,0,0,0,0,0,0,0,-1,1399,932,0,0
182,92,0,0,0,0,0,0,0,0,0,-1,1406,932,0,0
189,92,0,0,0,0,0,0,0,0,0,-1,1413,932,0,0
196,92,0,0,0,0,0,0,0,0,0,-1,1420,932,0,0
203,92,0,0,0,0,0,0,0,0,0,-1,1427,932,0,0
210,92,0,0,0,0,0,0,0,0,0,-1,1434,932,0,0
217,92,0,0,0,0,0,0,0,0,0,-1,1441,932,0,0
224,92,0,0,0,0,0,0,0,0,0,-1,1448,932,0,0
231,92,0,0,0,0,0,0,0,0,0,-1,1455,932,0,0
238,92,0,0,0,0,0,0,0,0,0,-1,1462,932,0,0
245,92,0,0,0,0,0,0,0,0,0,-1,1469,932,0,0
252,92,0,0,0,0,0,0,0,0,0,-1,1476,932,0,0
259,92,0,0,0,0,0,0,0,0,0,-1,1483,932,0,0
266,92,0,0,0,0,0,0,0,0,0,-1,1490,932,0,0
273,92,0,0,0,0,0,0,0,0,0,-1,1497,932,0,0
280,92,0,0,0,0,0,0,0,0,0,-1,1504,932,0,0
287,92,0,0,0,0,0,0,0,0,0,-1,1511,932,0,0
294,92,0,0,0,0,0,0,0,0,0,-1,1518,932,0,0
301,92,0,0,0,0,0,0,0,0,0,-1,1525,932,0,0
308,92,0,0,0,0,0,0,0,0,0,-1,1532,932,0,0
315,92,0,0,0,0,0,0,0,0,0,-1,1539,932,0,0
322,92,0,0,0,0,0,0,0,0,0,-1,1546,932,0,0
329,92,0,0,0,0,0,0,0,0,0,-1,1553,932,0,0
336,92,0,0,0,0,0,0,0,0,0,-1,1560,932,0,0
343,92,0,0,0,0,0,0,0,0,0,-1,1567,932,0,0
350,92,0,0,0,0,0,0,0,0,0,-1,1574,932,0,0
357,92,0,0,0,0,0,0,0,0,0,-1,1581,932,0,0
364,92,0,0,0,0,0,0,0,0,0,-1,1588,932,0,0
371,92,0,0,0,0,0,0,0,0,0,-1,1595,932,0,0
378,92,0,0,0,0,0,0,0,0,0,-1,1602,932,0,0
385,92,0,0,0,0,0,0,0,0,0,-1,1609,932,0,0
392,92,0,0,0,0,0,0,0,0,0,-1,1616,932,0,0
399,92,0,0,0,0,0,0,0,0,0,-1,1623,932,0,0
406,92,0,0,0,0,0,0,0,0,0,-1,1630,932,0,0
413,92,0,0,0,0,0,0,0,0,0,-1,1637,932,0,0
420,92,0,0,0,0,0,0,0,0,0,-1,1644,932,0,0
427,92,0,0,0,0,0,0,0,0,0,-1,1651,932,0,0
434,92,0,0,0,0,0,0,0,0,0,-1,1658,932,0,0
441,92,0,0,0,0,0,0,0,0,0,-1,1665,932,0,0
448,92,0,0,0,0,0,0,0,0,0,-1,1672,932,0,0
455,92,0,0,0,0,0,0,0,0,0,-1,1679,932,0,0
462,92,0,0,0,0,0,0,0,0,0,-1,1686,932,0,0
469,92,0,0,0,0,0,0,0,0,0,-1,1693,932,0,0
476,92,0,0,0,0,0,0,0,0,0,-1,1700,932,0,0
483,92,0,0,0,0,0,0,0,0,0,-1,1707,932,0,0
490,92,0,0,0,0,0,0,0,0,0,-1,1714,932,0,0
497,92,0,0,0,0,0,0,0,0,0,-1,1721,932,0,0
504,92,0,0,0,0,0,0,0,0,0,-1,1728,932,0,0
511,92,0,0,0,0,0,0,0,0,0,-1,1735,932,0,0
518,92,0,0,0,0,0,0,0,0,0,-1,1742,932,0,0
525,92,0,0,0,0,0,0,0,0,0,-1,1749,932,0,0
532,92,0,0,0,0,0,0,0,0,0,-1,1756,932,0,0
539,92,0,0,0,0,0,0,0,0,0,-1,1763,932,0,0
546,92,0,0,0,0,0,0,0,0,0,-1,1770,932,0,0
553,92,0,0,0,0,0,0,0,0,0,-1,1777,932,0,0
560,92,0,0,0,0,0,0,0,0,0,-1,1784,932,0,0
567,92,0,0,0,0,0,0,0,0,0,-1,1791,932,0,0
574,92,0,0,0,0,0,0,0,0,0,-1,1798,932,0,0
581,92,0,0,0,0,0,0,0,0,0,-1,1805,932,0,0
588,92,0,0,0,0,0,0,0,0,0,-1,1812,932,0,0
595,92,0,0,0,0,0,0,0,0,0,-1,1819,932,0,0
602,92,0,0,0,0,0,0,0,0,0,-1,1826,932,0,0
609,92,0,0,0,0,0,0,0,0,0,-1,1833,932,0,0
616,92,0,0,0,0,0,0,0,0,0,-1,1840,932,0,0
623,92,0,0,0,0,0,0,0,0,0,-1,1847,932,0,0
630,92,0,0,0,0,0,0,0,0,0,-1,1854,932,0,0
637,92,29.0341,2.77161,0.00691133,-0.00121409,-0.00681045,0.0107788,-0.00508157,-0.516462,0.00935184,0.0466606,1861,932,29.034,-2.7716
644,92,29.184,2.78143,0.00505901,-0.00039543,-0.00520684,0.00820962,-0.00354604,-0.544154,0.00696288,0.0394609,1868,932,29.184,-2.78146
651,92,29.2927,2.75806,0.00343176,0.000199108,-0.00370859,0.00586095,-0.00223008,-0.579893,0.0048256,0.0389391,1875,932,29.2927,-2.75804
658,92,29.161,2.78101,0.00195335,0.000737048,-0.00218238,0.00361073,-0.000920333,-0.649513,0.00276546,0.0437595,1882,932,29.161,-2.78102
665,92,29.1281,2.63776,0.000799137,0.00115912,-0.000791313,0.00179065,0.000167601,-0.897224,0.00114201,0.0425747,1889,932,29.128,-2.63774
672,92,29.2633,2.54889,-2.91533e-05,0.00131852,0.000322445,0.00139169,-0.000102329,1.34764,0.000963717,0.039449,1896,932,29.2633,-2.54891
679,92,29.2941,2.61072,-0.000597707,0.00131407,0.00112457,0.00183411,-0.00111775,1.13765,0.00172091,0.0364458,1903,932,29.294,-2.61071
686,92,29.2476,2.65814,-0.00099479,0.00121534,0.00160297,0.00205724,-0.00183669,1.08718,0.00224936,0.0287731,1910,932,29.2476,-2.65815
693,92,29.2466,2.68951,-0.00123028,0.00116241,0.00187525,0.00219043,-0.0022583,1.06933,0.00256858,0.025298,1917,932,29.2466,-2.68951
700,92,29.2692,2.80133,0,0,0,0,0,0,0,-1,1924,932,29.2691,-2.80131
707,92,26.9102,3.69269,0,0,0,0,0,0,0,-1,1931,932,26.9102,-3.6927
714,92,27.1646,3.44855,0,0,0,0,0,0,0,-1,1938,932,27.1645,-3.44852
721,92,27.1202,3.75586,-0.001868,0.00107358,0.00153245,0.00172685,-0.00252127,1.16783,0.00246691,0.0261836,1945,932,27.1202,-3.75586
728,92,27.0729,4.02228,-0.00208546,0.00122572,0.00110072,0.00155823,-0.00241798,1.27742,0.00231348,0.0197892,1952,932,27.0729,-4.02226
735,92,27.0588,4.23059,-0.00196578,0.00141571,0.000704398,0.00155658,-0.00210665,1.37342,0.0021229,0.0170727,1959,932,27.0588,-4.23057
742,92,27.0693,4.39606,-0.00130666,0.00134509,0.000707254,0.00152193,-0.0014835,1.32578,0.00173523,0.0183625,1966,932,27.0694,-4.39603
749,92,27.0398,4.59888,-0.00085163,0.00147388,0.000529986,0.00158896,-0.000966719,1.35696,0.00149003,0.015465,1973,932,27.0398,-4.59889
756,92,27.0131,4.80011,7.0812e-05,0.00145358,0.000958863,0.00194432,-0.000419934,1.09775,0.00145652,0.0137852,1980,932,27.0131,-4.80009
763,92,27.0135,5.01477,0.00113618,0.00140287,0.0018646,0.00313889,-0.000599839,0.821095,0.00231855,0.0153374,1987,932,27.0136,-5.01474
770,92,26.9596,5.27832,0.00250662,0.00111609,0.00317416,0.00506076,-0.00143806,0.677582,0.00394163,0.0238053,1994,932,26.9596,-5.27834
777,92,26.8429,5.54486,0.00426596,0.000591705,0.00481653,0.00758383,-0.00272617,0.603204,0.00616879,0.0425243,2001,932,26.8429,-5.54483
784,92,26.474,5.70807,0.00647256,-0.00026914,0.00683698,0.0107245,-0.00452108,0.55637,0.00904167,0.0470038,2008,932,26.474,-5.70809
791,92,29.462,4.35101,0.00919446,-0.00146508,0.00908666,0.0143991,-0.00666972,0.520163,0.012434,0.0412412,2015,932,29.4621,-4.351
798,92,28.7036,3.9104,0.0124228,-0.0029151,0.0114345,0.0185219,-0.00901423,0.490007,0.0162108,0.0409879,2022,932,28.7037,-3.91042
805,92,0,0,0,0,0,0,0,0,0,-1,2029,932,0,0
812,92,0,0,0,0,0,0,0,0,0,-1,2036,932,0,0
-700,85,0,0,0,0,0,0,0,0,0,-1,524,939,0,0
-693,85,0,0,0,0,0,0,0,0,0,-1,531,939,0,0
-686,85,-20.2037,-2.84027,0.122224,-0.0370442,0.0905478,0.163174,-0.077994,0.424719,0.142104,0.0465145,538,939,-20.2037,2.84024
-679,85,-20.329,-1.65002,0.119271,-0.0298117,0.0766927,0.151679,-0.0622198,0.399811,0.127044,0.0452495,545,939,-20.3291,1.65005
-672,85,-20.0522,-0.610046,0.108696,-0.0231201,0.0641532,0.134764,-0.0491876,0.385953,0.109968,0.0446449,552,939,-20.0522,0.610074
-665,85,-20.8115,2.38,0,0,0,0,0,0,0,-1,559,939,-20.8115,-2.38
-658,85,-20.6406,2.19989,0.0801889,-0.0120433,0.0426748,0.0969046,-0.028759,0.37333,0.0760247,0.0482248,566,939,-20.6405,-2.19986
-651,85,-20.0164,2.37054,0.0653013,-0.00781768,0.0336755,0.0784474,-0.0209637,0.37218,0.060509,0.0435765,573,939,-20.0164,-2.37057
-644,85,-19.187,2.70807,0.0511177,-0.00453395,0.0258513,0.061273,-0.0146893,0.374315,0.0465246,0.0333396,580,939,-19.187,-2.70808
-637,85,-19.2749,2.59137,0.038552,-0.00180657,0.0191809,0.0462135,-0.0094681,0.380019,0.0344021,0.017082,587,939,-19.2749,-2.59136
-630,85,-19.3345,2.39661,0.0282159,0.000425738,0.0130879,0.0334092,-0.00476759,0.377747,0.0240202,0.0105014,594,939,-19.3345,-2.39663
-623,85,-19.3707,2.21649,0.017625,0.00134074,0.0082686,0.0210873,-0.00212162,0.396553,0.0148162,0.00873946,601,939,-19.3707,-2.21652
-616,85,-19.3636,2.04767,0.0069492,0.00161665,0.00440589,0.00943276,-0.000866921,0.513295,0.0065965,0.00896693,608,939,-19.3637,-2.04765
-609,85,-19.3663,1.8728,0.000705721,0.00159676,0.00262951,0.00381823,-0.00151575,0.869316,0.00317377,0.0113796,615,939,-19.3663,-1.8728
-602,85,-19.38,1.69232,-0.00279256,0.000880486,0.000995911,0.00113314,-0.00304521,1.32235,0.00249515,0.0152036,622,939,-19.38,-1.69233
-595,85,-19.3364,1.52063,-0.00533705,0.000912015,-6.76788e-05,0.000912748,-0.00533779,-1.55997,0.00389856,0.0166632,629,939,-19.3364,-1.52064
-588,85,-19.3039,1.31989,-0.00664605,0.000855292,-0.000806294,0.000940979,-0.00673174,-1.46492,0.00483212,0.0152508,636,939,-19.3039,-1.31991
-581,85,-19.3223,1.13904,-0.00704472,0.000964023,-0.00112303,0.00111852,-0.00719922,-1.43408,0.00521248,0.0187852,643,939,-19.3223,-1.13905
-574,85,-19.7156,1.00635,-0.00724355,0.00114361,-0.00128719,0.00133671,-0.00743665,-1.42189,0.00545817,0.0347116,650,939,-19.7156,-1.00633
-567,85,-20.455,0.887024,-0.00721346,0.00146445,-0.00137805,0.00167803,-0.00742704,-1.41703,0.00559521,0.0428162,657,939,-20.455,-0.887004
-560,85,-20.5538,0.660889,-0.00664631,0.00186433,-0.00134105,0.00207064,-0.00685262,-1.41815,0.00539281,0.0319073,664,939,-20.5538,-0.660897
-553,85,-20.7501,0.665344,-0.00568585,0.00235957,-0.00118015,0.00252911,-0.00585539,-1.42811,0.00496615,0.0396328,671,939,-20.7501,-0.665342
-546,85,-20.7811,0.75824,-0.00427913,0.00293598,-0.000839441,0.00303236,-0.00437551,-1.45649,0.00430031,0.0427726,678,939,-20.7811,-0.758263
-539,85,-20.6653,0.775696,-0.00246774,0.00356433,-0.00026983,0.00357638,-0.00247978,-1.52618,0.00351558,0.0404029,685,939,-20.6653,-0.775681
-532,85,-20.5858,0.674805,-0.000412969,0.00422307,0.000526952,0.00428221,-0.00047211,1.45903,0.00302448,0.0389718,692,939,-20.5858,-0.674794
-525,85,-20.5766,0.603638,0.00097645,0.00496995,0.00146149,0.00544766,0.000498735,1.25488,0.00347747,0.0347976,699,939,-20.5766,-0.603622
-518,85,-20.7114,0.698669,-0.000249812,0.00592337,0.00282634,0.0070219,-0.00134834,1.20009,0.00518944,0.0359333,706,939,-20.7114,-0.698685
-511,85,0,0,0,0,0,0,0,0,0,-1,713,939,0,0
-504,85,0,0,0,0,0,0,0,0,0,-1,720,939,0,0
-497,85,0,0,0,0,0,0,0,0,0,-1,727,939,0,0
-490,85,0,0,0,0,0,0,0,0,0,-1,734,939,0,0
-483,85,0,0,0,0,0,0,0,0,0,-1,741,939,0,0
-476,85,0,0,0,0,0,0,0,0,0,-1,748,939,0,0
-469,85,0,0,0,0,0,0,0,0,0,-1,755,939,0,0
-462,85,0,0,0,0,0,0,0,0,0,-1,762,939,0,0
-455,85,0,0,0,0,0,0,0,0,0,-1,769,939,0,0
-448,85,0,0,0,0,0,0,0,0,0,-1,776,939,0,0
-441,85,0,0,0,0,0,0,0,0,0,-1,783,939,0,0
-434,85,0,0,0,0,0,0,0,0,0,-1,790,939,0,0
-427,85,0,0,0,0,0,0,0,0,0,-1,797,939,0,0
-420,85,0,0,0,0,0,0,0,0,0,-1,804,939,0,0
-413,85,0,0,0,0,0,0,0,0,0,-1,811,939,0,0
-406,85,0,0,0,0,0,0,0,0,0,-1,818,939,0,0
-399,85,0,0,0,0,0,0,0,0,0,-1,825,939,0,0
-392,85,0,0,0,0,0,0,0,0,0,-1,832,939,0,0
-385,85,0,0,0,0,0,0,0,0,0,-1,839,939,0,0
-378,85,0,0,0,0,0,0,0,0,0,-1,846,939,0,0
-371,85,0,0,0,0,0,0,0,0,0,-1,853,939,0,0
-364,85,0,0,0,0,0,0,0,0,0,-1,860,939,0,0
-357,85,0,0,0,0,0,0,0,0,0,-1,867,939,0,0
-350,85,0,0,0,0,0,0,0,0,0,-1,874,939,0,0
-343,85,0,0,0,0,0,0,0,0,0,-1,881,939,0,0
-336,85,0,0,0,0,0,0,0,0,0,-1,888,939,0,0
-329,85,0,0,0,0,0,0,0,0,0,-1,895,939,0,0
-322,85,0,0,0,0,0,0,0,0,0,-1,902,939,0,0
-315,85,0,0,0,0,0,0,0,0,0,-1,909,939,0,0
-308,85,0,0,0,0,0,0,0,0,0,-1,916,939,0,0
-301,85,0,0,0,0,0,0,0,0,0,-1,923,939,0,0
-294,85,0,0,0,0,0,0,0,0,0,-1,930,939,0,0
-287,85,0,0,0,0,0,0,0,0,0,-1,937,939,0,0
-280,85,0,0,0,0,0,0,0,0,0,-1,944,939,0,0
-273,85,0,0,0,0,0,0,0,0,0,-1,951,939,0,0
-266,85,0,0,0,0,0,0,0,0,0,-1,958,939,0,0
-259,85,0,0,0,0,0,0,0,0,0,-1,965,939,0,0
-252,85,0,0,0,0,0,0,0,0,0,-1,972,939,0,0
-245,85,0,0,0,0,0,0,0,0,0,-1,979,939,0,0
-238,85,0,0,0,0,0,0,0,0,0,-1,986,939,0,0
-231,85,0,0,0,0,0,0,0,0,0,-1,993,939,0,0
-224,85,0,0,0,0,0,0,0,0,0,-1,1000,939,0,0
-217,85,0,0,0,0,0,0,0,0,0,-1,1007,939,0,0
-210,85,0,0,0,0,0,0,0,0,0,-1,1014,939,0,0
-203,85,0,0,0,0,0,0,0,0,0,-1,1021,939,0,0
-196,85,0,0,0,0,0,0,0,0,0,-1,1028,939,0,0
-189,85,0,0,0,0,0,0,0,0,0,-1,1035,939,0,0
-182,85,0,0,0,0,0,0,0,0,0,-1,1042,939,0,0
-175,85,0,0,0,0,0,0,0,0,0,-1,1049,939,0,0
-168,85,0,0,0,0,0,0,0,0,0,-1,1056,939,0,0
-161,85,0,0,0,0,0,0,0,0,0,-1,1063,939,0,0
-154,85,0,0,0,0,0,0,0,0,0,-1,1070,939,0,0
-147,85,0,0,0,0,0,0,0,0,0,-1,1077,939,0,0
-140,85,0,0,0,0,0,0,0,0,0,-1,1084,939,0,0
-133,85,0,0,0,0,0,0,0,0,0,-1,1091,939,0,0
-126,85,0,0,0,0,0,0,0,0,0,-1,1098,939,0,0
-119,85,0,0,0,0,0,0,0,0,0,-1,1105,939,0,0
-112,85,0,0,0,0,0,0,0,0,0,-1,1112,939,0,0
-105,85,0,0,0,0,0,0,0,0,0,-1,1119,939,0,0
-98,85,0,0,0,0,0,0,0,0,0,-1,1126,939,0,0
-91,85,0,0,0,0,0,0,0,0,0,-1,1133,939,0,0
-84,85,0,0,0,0,0,0,0,0,0,-1,1140,939,0,0
-77,85,0,0,0,0,0,0,0,0,0,-1,1147,939,0,0
-70,85,0,0,0,0,0,0,0,0,0,-1,1154,939,0,0
-63,85,0,0,0,0,0,0,0,0,0,-1,1161,939,0,0
-56,85,0,0,0,0,0,0,0,0,0,-1,1168,939,0,0
-49,85,0,0,0,0,0,0,0,0,0,-1,1175,939,0,0
-42,85,0,0,0,0,0,0,0,0,0,-1,1182,939,0,0
-35,85,0,0,0,0,0,0,0,0,0,-1,1189,939,0,0
-28,85,0,0,0,0,0,0,0,0,0,-1,1196,939,0,0
-21,85,0,0,0,0,0,0,0,0,0,-1,1203,939,0,0
-14,85,0,0,0,0,0,0,0,0,0,-1,1210,939,0,0
-7,85,0,0,0,0,0,0,0,0,0,-1,1217,939,0,0
0,85,0,0,0,0,0,0,0,0,0,-1,1224,939,0,0
7,85,0,0,0,0,0,0,0,0,0,-1,1231,939,0,0
14,85,0,0,0,0,0,0,0,0,0,-1,1238,939,0,0
21,85,0,0,0,0,0,0,0,0,0,-1,1245,939,0,0
28,85,0,0,0,0,0,0,0,0,0,-1,1252,939,0,0
35,85,0,0,0,0,0,0,0,0,0,-1,1259,939,0,0
42,85,0,0,0,0,0,0,0,0,0,-1,1266,939,0,0
49,85,0,0,0,0,0,0,0,0,0,-1,1273,939,0,0
56,85,0,0,0,0,0,0,0,0,0,-1,1280,939,0,0
63,85,0,0,0,0,0,0,0,0,0,-1,1287,939,0,0
70,85,0,0,0,0,0,0,0,0,0,-1,1294,939,0,0
77,85,0,0,0,0,0,0,0,0,0,-1,1301,939,0,0
84,85,0,0,0,0,0,0,0,0,0,-1,1308,939,0,0
91,85,0,0,0,0,0,0,0,0,0,-1,1315,939,0,0
98,85,0,0,0,0,0,0,0,0,0,-1,1322,939,0,0
105,85,0,0,0,0,0,0,0,0,0,-1,1329,939,0,0
112,85,0,0,0,0,0,0,0,0,0,-1,1336,939,0,0
119,85,0,0,0,0,0,0,0,0,0,-1,1343,939,0,0
126,85,0,0,0,0,0,0,0,0,0,-1,1350,939,0,0
133,85,0,0,0,0,0,0,0,0,0,-1,1357,939,0,0
140,85,0,0,0,0,0,0,0,0,0,-1,1364,939,0,0
147,85,0,0,0,0,0,0,0,0,0,-1,1371,939,0,0
154,85,0,0,0,0,0,0,0,0,0,-1,1378,939,0,0
161,85,0,0,0,0,0,0,0,0,0,-1,1385,939,0,0
168,85,0,0,0,0,0,0,0,0,0,-1,1392,939,0,0
175,85,0,0,0,0,0,0,0,0,0,-1,1399,939,0,0
182,85,0,0,0,0,0,0,0,0,0,-1,1406,939,0,0
189,85,0,0,0,0,0,0,0,0,0,-1,1413,939,0,0
196,85,0,0,0,0,0,0,0,0,0,-1,1420,939,0,0
203,85,0,0,0,0,0,0,0,0,0,-1,1427,939,0,0
210,85,0,0,0,0,0,0,0,0,0,-1,1434,939,0,0
217,85,0,0,0,0,0,0,0,0,0,-1,1441,939,0,0
224,85,0,0,0,0,0,0,0,0,0,-1,1448,939,0,0
231,85,0,0,0,0,0,0,0,0,0,-1,1455,939,0,0
238,85,0,0,0,0,0,0,0,0,0,-1,1462,939,0,0
245,85,0,0,0,0,0,0,0,0,0,-1,1469,939,0,0
252,85,0,0,0,0,0,0,0,0,0,-1,1476,939,0,0
259,85,0,0,0,0,0,0,0,0,0,-1,1483,939,0,0
266,85,0,0,0,0,0,0,0,0,0,-1,1490,939,0,0
273,85,0,0,0,0,0,0,0,0,0,-1,1497,939,0,0
280,85,0,0,0,0,0,0,0,0,0,-1,1504,939,0,0
287,85,0,0,0,0,0,0,0,0,0,-1,1511,939,0,0
294,85,0,0,0,0,0,0,0,0,0,-1,1518,939,0,0
301,85,0,0,0,0,0,0,0,0,0,-1,1525,939,0,0
308,85,0,0,0,0,0,0,0,0,0,-1,1532,939,0,0
315,85,0,0,0,0,0,0,0,0,0,-1,1539,939,0,0
322,85,0,0,0,0,0,0,0,0,0,-1,1546,939,0,0
329,85,0,0,0,0,0,0,0,0,0,-1,1553,939,0,0
336,85,0,0,0,0,0,0,0,0,0,-1,1560,939,0,0
343,85,0,0,0,0,0,0,0,0,0,-1,1567,939,0,0
350,85,0,0,0,0,0,0,0,0,0,-1,1574,939,0,0
357,85,0,0,0,0,0,0,0,0,0,-1,1581,939,0,0
364,85,0,0,0,0,0,0,0,0,0,-1,1588,939,0,0
371,85,0,0,0,0,0,0,0,0,0,-1,1595,939,0,0
378,85,0,0,0,0,0,0,0,0,0,-1,1602,939,0,0
385,85,0,0,0,0,0,0,0,0,0,-1,1609,939,0,0
392,85,0,0,0,0,0,0,0,0,0,-1,1616,939,0,0
399,85,0,0,0,0,0,0,0,0,0,-1,1623,939,0,0
406,85,0,0,0,0,0,0,0,0,0,-1,1630,939,0,0
413,85,0,0,0,0,0,0,0,0,0,-1,1637,939,0,0
420,85,0,0,0,0,0,0,0,0,0,-1,1644,939,0,0
427,85,0,0,0,0,0,0,0,0,0,-1,1651,939,0,0
434,85,0,0,0,0,0,0,0,0,0,-1,1658,939,0,0
441,85,0,0,0,0,0,0,0,0,0,-1,1665,939,0,0
448,85,0,0,0,0,0,0,0,0,0,-1,1672,939,0,0
455,85,0,0,0,0,0,0,0,0,0,-1,1679,939,0,0
462,85,0,0,0,0,0,0,0,0,0,-1,1686,939,0,0
469,85,0,0,0,0,0,0,0,0,0,-1,1693,939,0,0
476,85,0,0,0,0,0,0,0,0,0,-1,1700,939,0,0
483,85,0,0,0,0,0,0,0,0,0,-1,1707,939,0,0
490,85,0,0,0,0,0,0,0,0,0,-1,1714,939,0,0
497,85,0,0,0,0,0,0,0,0,0,-1,1721,939,0,0
504,85,0,0,0,0,0,0,0,0,0,-1,1728,939,0,0
511,85,0,0,0,0,0,0,0,0,0,-1,1735,939,0,0
518,85,0,0,0,0,0,0,0,0,0,-1,1742,939,0,0
525,85,0,0,0,0,0,0,0,0,0,-1,1749,939,0,0
532,85,0,0,0,0,0,0,0,0,0,-1,1756,939,0,0
539,85,0,0,0,0,0,0,0,0,0,-1,1763,939,0,0
546,85,0,0,0,0,0,0,0,0,0,-1,1770,939,0,0
553,85,0,0,0,0,0,0,0,0,0,-1,1777,939,0,0
560,85,0,0,0,0,0,0,0,0,0,-1,1784,939,0,0
567,85,0,0,0,0,0,0,0,0,0,-1,1791,939,0,0
574,85,0,0,0,0,0,0,0,0,0,-1,1798,939,0,0
581,85,0,0,0,0,0,0,0,0,0,-1,1805,939,0,0
588,85,0,0,0,0,0,0,0,0,0,-1,1812,939,0,0
595,85,0,0,0,0,0,0,0,0,0,-1,1819,939,0,0
602,85,0,0,0,0,0,0,0,0,0,-1,1826,939,0,0
609,85,0,0,0,0,0,0,0,0,0,-1,1833,939,0,0
616,85,0,0,0,0,0,0,0,0,0,-1,1840,939,0,0
623,85,0,0,0,0,0,0,0,0,0,-1,1847,939,0,0
630,85,0,0,0,0,0,0,0,0,0,-1,1854,939,0,0
637,85,29.0485,2.89844,0.00731771,0.000129765,-0.00761681,0.0121459,-0.0046984,-0.564962,0.0100369,0.0495212,1861,939,29.0484,-2.89842
644,85,29.225,2.50256,0.00545454,0.000455293,-0.00581923,0.00928828,-0.00337845,-0.582541,0.00757382,0.041378,1868,939,29.225,-2.50254
651,85,29.3649,2.52905,0.00385623,0.000677009,-0.00422574,0.00678145,-0.00224821,-0.605499,0.00542786,0.04117,1875,939,29.3649,-2.52904
658,85,29.2238,2.7337,0.00236333,0.000940168,-0.00259795,0.00434538,-0.00104189,-0.651726,0.00329952,0.0425148,1882,939,29.2237,-2.73371
665,85,29.1824,2.52069,0.0011121,0.00118191,-0.00103497,0.00218257,0.000111443,-0.802252,0.00141936,0.0419188,1889,939,29.1824,-2.52072
672,85,29.3347,2.43201,0.000121929,0.00126153,0.000256501,0.0013166,6.6857e-05,1.3593,0.000856318,0.041238,1896,939,29.3348,-2.43198
679,85,29.3552,2.56592,-0.000612155,0.00121205,0.0012052,0.00181138,-0.00121149,1.10932,0.00175667,0.0369633,1903,939,29.3552,-2.56593
686,85,29.2804,2.67847,-0.0011172,0.00109754,0.00177554,0.00208273,-0.00210239,1.06422,0.00241629,0.0338039,1910,939,29.2804,-2.67847
693,85,29.2356,2.67499,-0.00144343,0.00102828,0.00211306,0.00224035,-0.00265551,1.05001,0.00283001,0.0312602,1917,939,29.2355,-2.67502
700,85,29.2263,2.78766,-0.0016995,0.000967383,0.00226036,0.00225831,-0.00299043,1.05189,0.00304017,0.036986,1924,939,29.2264,-2.78766
707,85,29.2202,2.8941,0,0,0,0,0,0,0,-1,1931,939,29.2203,-2.89413
714,85,27.3407,3.4754,0,0,0,0,0,0,0,-1,1938,939,27.3407,-3.47541
721,85,27.3232,3.76776,-0.00232883,0.00102926,0.00184773,0.00184687,-0.00314644,1.1542,0.00291525,0.0245961,1945,939,27.3233,-3.76774
728,85,27.2769,4.07111,-0.00254002,0.00125549,0.00136235,0.00169387,-0.00297839,1.25948,0.0027313,0.0189826,1952,939,27.2768,-4.0711
735,85,27.2557,4.24048,-0.00232769,0.00151674,0.000856284,0.00169884,-0.00250979,1.36126,0.00244484,0.0180401,1959,939,27.2558,-4.24048
742,85,27.2959,4.40509,-0.0015734,0.00142591,0.000804315,0.00162799,-0.00177548,1.32465,0.00196561,0.0158776,1966,939,27.2959,-4.40512
749,85,27.2701,4.60065,-0.000973048,0.00142186,0.000559516,0.00154613,-0.00109732,1.35224,0.00153351,0.0137921,1973,939,27.2701,-4.60066
756,85,27.2355,4.79694,0.000202414,0.00128912,0.000827697,0.00173588,-0.00024434,1.07585,0.00124671,0.0131258,1980,939,27.2354,-4.79691
763,85,27.2322,4.99762,0.0016442,0.00103989,0.00157572,0.00294648,-0.000262386,0.69067,0.00205737,0.0126006,1987,939,27.2322,-4.99763
770,85,27.182,5.22076,0.00349039,0.000488808,0.00281179,0.00517685,-0.00119765,0.540258,0.00391204,0.0176464,1994,939,27.1821,-5.22079
777,85,26.9811,5.46484,0.00582631,-0.000366267,0.00441558,0.00812301,-0.00266297,0.479626,0.0064878,0.0384783,2001,939,26.981,-5.46485
784,85,26.9001,5.56732,0.00874197,-0.00170225,0.00645853,0.0118255,-0.00478574,0.445429,0.00987339,0.0478465,2008,939,26.9001,-5.56732
791,85,26.6256,5.63623,0.0123627,-0.00356395,0.00885061,0.0163052,-0.00750642,0.41906,0.014057,0.049339,2015,939,26.6256,-5.63624
798,85,28.4189,4.28546,0.0167333,-0.00591019,0.0115086,0.0215556,-0.0107325,0.396791,0.0189875,0.0403311,2022,939,28.4189,-4.28549
805,85,28.376,4.44104,0.0217734,-0.00867953,0.0143552,0.0274734,-0.0143796,0.377978,0.0245548,0.0469068,2029,939,28.3759,-4.44101
812,85,0,0,0,0,0,0,0,0,0,-1,2036,939,0,0
-700,78,0,0,0,0,0,0,0,0,0,-1,524,946,0,0
-693,78,0,0,0,0,0,0,0,0,0,-1,531,946,0,0
-686,78,-20.0363,-2.48309,0.113865,-0.0485509,0.085192,0.150353,-0.0850391,0.404668,0.137637,0.0435096,538,946,-20.0363,2.48308
-679,78,-20.117,-1.08435,0.11003,-0.0391817,0.0723071,0.13932,-0.0684717,0.384875,0.122271,0.0441903,545,946,-20.117,1.08433
-672,78,-19.9462,0.212036,0.0998422,-0.0308411,0.0605299,0.12357,-0.0545691,0.373595,0.105389,0.0433923,552,946,-19.9462,-0.212031
-665,78,-19.4724,1.42816,0,0,0,0,0,0,0,-1,559,946,-19.4724,-1.42819
-658,78,-21.5438,2.23584,0,0,0,0,0,0,0,-1,566,946,-21.5438,-2.23583
-651,78,-20.5037,2.44617,0,0,0,0,0,0,0,-1,573,946,-20.5037,-2.44614
-644,78,-19.4636,2.65643,0,0,0,0,0,0,0,-1,580,946,-19.4636,-2.65645
-637,78,-19.4716,2.51563,0.0347444,-0.00404377,0.0176135,0.0415489,-0.0108483,0.368661,0.0319356,0.013698,587,946,-19.4716,-2.51561
-630,78,-19.5489,2.33649,0.025149,-0.00107817,0.0115913,0.0295376,-0.00546672,0.361929,0.0217442,0.0120928,594,946,-19.5489,-2.33648
-623,78,-19.5671,2.16034,0.0150053,0.000401937,0.00693899,0.0177765,-0.00236933,0.379968,0.0127146,0.0109041,601,946,-19.5672,-2.16036
-616,78,-19.5539,2.005,0.00499922,0.00109721,0.00333624,0.00691305,-0.000816622,0.520818,0.00490362,0.00995423,608,946,-19.5539,-2.00499
-609,78,-19.5248,1.86145,-0.000387026,0.00129071,0.00175846,0.00240014,-0.00149646,1.00796,0.00226978,0.0113665,615,946,-19.5248,-1.86142
-602,78,-19.5462,1.68097,-0.00345328,0.000923339,0.000278422,0.00094098,-0.00347092,1.50752,0.00268318,0.0156808,622,946,-19.5462,-1.68098
-595,78,-19.5274,1.49677,-0.0057657,0.00105993,-0.000676233,0.00112628,-0.00583205,-1.47299,0.00431276,0.0151163,629,946,-19.5274,-1.49674
-588,78,-19.5155,1.37671,-0.00693863,0.00103527,-0.0013659,0.00126276,-0.00716612,-1.40577,0.00524921,0.0128347,636,946,-19.5155,-1.37668
-581,78,-19.585,1.22803,-0.00728143,0.00109925,-0.00167993,0.00142345,-0.00760564,-1.38015,0.00560548,0.023791,643,946,-19.585,-1.22801
-574,78,-20.0184,1.02515,-0.00740927,0.00130251,-0.00183444,0.00167303,-0.00777979,-1.3715,0.00582485,0.0299843,650,946,-20.0184,-1.02515
-567,78,-20.5795,0.753662,-0.00729806,0.00162303,-0.00190165,0.00201148,-0.00768651,-1.3693,0.00591006,0.029524,657,946,-20.5795,-0.753649
-560,78,-20.5909,0.756836,-0.0066218,0.00199498,-0.00183016,0.00236759,-0.00699441,-1.36995,0.00562088,0.0300403,664,946,-20.5909,-0.756825
-553,78,-20.7088,0.729187,-0.00545237,0.00244145,-0.00159864,0.00275292,-0.00576383,-1.37838,0.00501853,0.0399499,671,946,-20.7088,-0.729195
-546,78,-20.7057,0.694763,-0.00377906,0.00294241,-0.00117222,0.00314098,-0.00397762,-1.40299,0.00411938,0.0428665,678,946,-20.7058,-0.694767
-539,78,-20.4864,0.774231,-0.00166784,0.00347316,-0.000519679,0.00352516,-0.00171985,-1.47106,0.00308742,0.0390862,685,946,-20.4864,-0.774242
-532,78,-20.411,0.701172,0.000651731,0.00403388,0.000300572,0.00406038,0.000625227,1.48284,0.00252445,0.0377995,692,946,-20.411,-0.701154
-525,78,-20.2706,0.806152,0,0,0,0,0,0,0,-1,699,946,-20.2706,-0.806141
-518,78,-20.5508,0.585693,0,0,0,0,0,0,0,-1,706,946,-20.5509,-0.585704
-511,78,0,0,0,0,0,0,0,0,0,-1,713,946,0,0
-504,78,0,0,0,0,0,0,0,0,0,-1,720,946,0,0
-497,78,0,0,0,0,0,0,0,0,0,-1,727,946,0,0
-490,78,0,0,0,0,0,0,0,0,0,-1,734,946,0,0
-483,78,0,0,0,0,0,0,0,0,0,-1,741,946,0,0
-476,78,0,0,0,0,0,0,0,0,0,-1,748,946,0,0
-469,78,0,0,0,0,0,0,0,0,0,-1,755,946,0,0
-462,78,0,0,0,0,0,0,0,0,0,-1,762,946,0,0
-455,78,0,0,0,0,0,0,0,0,0,-1,769,946,0,0
-448,78,0,0,0,0,0,0,0,0,0,-1,776,946,0,0
-441,78,0,0,0,0,0,0,0,0,0,-1,783,946,0,0
-434,78,0,0,0,0,0,0,0,0,0,-1,790,946,0,0
-427,78,0,0,0,0,0,0,0,0,0,-1,797,946,0,0
-420,78,0,0,0,0,0,0,0,0,0,-1,804,946,0,0
-413,78,0,0,0,0,0,0,0,0,0,-1,811,946,0,0
-406,78,0,0,0,0,0,0,0,0,0,-1,818,946,0,0
-399,78,0,0,0,0,0,0,0,0,0,-1,825,946,0,0
-392,78,0,0,0,0,0,0,0,0,0,-1,832,946,0,0
-385,78,0,0,0,0,0,0,0,0,0,-1,839,946,0,0
-378,78,0,0,0,0,0,0,0,0,0,-1,846,946,0,0
-371,78,0,0,0,0,0,0,0,0,0,-1,853,946,0,0
-364,78,0,0,0,0,0,0,0,0,0,-1,860,946,0,0
-357,78,0,0,0,0,0,0,0,0,0,-1,867,946,0,0
-350,78,0,0,0,0,0,0,0,0,0,-1,874,946,0,0
-343,78,0,0,0,0,0,0,0,0,0,-1,881,946,0,0
-336,78,0,0,0,0,0,0,0,0,0,-1,888,946,0,0
-329,78,0,0,0,0,0,0,0,0,0,-1,895,946,0,0
-322,78,0,0,0,0,0,0,0,0,0,-1,902,946,0,0
-315,78,0,0,0,0,0,0,0,0,0,-1,909,946,0,0
-308,78,0,0,0,0,0,0,0,0,0,-1,916,946,0,0
-301,78,0,0,0,0,0,0,0,0,0,-1,923,946,0,0
-294,78,0,0,0,0,0,0,0,0,0,-1,930,946,0,0
-287,78,0,0,0,0,0,0,0,0,0,-1,937,946,0,0
-280,78,0,0,0,0,0,0,0,0,0,-1,944,946,0,0
-273,78,0,0,0,0,0,0,0,0,0,-1,951,946,0,0
-266,78,0,0,0,0,0,0,0,0,0,-1,958,946,0,0
-259,78,0,0,0,0,0,0,0,0,0,-1,965,946,0,0
-252,78,0,0,0,0,0,0,0,0,0,-1,972,946,0,0
-245,78,0,0,0,0,0,0,0,0,0,-1,979,946,0,0
-238,78,0,0,0,0,0,0,0,0,0,-1,986,946,0,0
-231,78,0,0,0,0,0,0,0,0,0,-1,993,946,0,0
-224,78,0,0,0,0,0,0,0,0,0,-1,1000,946,0,0
-217,78,0,0,0,0,0,0,0,0,0,-1,1007,946,0,0
-210,78,0,0,0,0,0,0,0,0,0,-1,1014,946,0,0
-203,78,0,0,0,0,0,0,0,0,0,-1,1021,946,0,0
-196,78,0,0,0,0,0,0,0,0,0,-1,1028,946,0,0
-189,78,0,0,0,0,0,0,0,0,0,-1,1035,946,0,0
-182,78,0,0,0,0,0,0,0,0,0,-1,1042,946,0,0
-175,78,0,0,0,0,0,0,0,0,0,-1,1049,946,0,0
-168,78,0,0,0,0,0,0,0,0,0,-1,1056,946,0,0
-161,78,0,0,0,0,0,0,0,0,0,-1,1063,946,0,0
-154,78,0,0,0,0,0,0,0,0,0,-1,1070,946,0,0
-147,78,0,0,0,0,0,0,0,0,0,-1,1077,946,0,0
-140,78,0,0,0,0,0,0,0,0,0,-1,1084,946,0,0
-133,78,0,0,0,0,0,0,0,0,0,-1,1091,946,0,0
-126,78,0,0,0,0,0,0,0,0,0,-1,1098,946,0,0
-119,78,0,0,0,0,0,0,0,0,0,-1,1105,946,0,0
-112,78,0,0,0,0,0,0,0,0,0,-1,1112,946,0,0
-105,78,0,0,0,0,0,0,0,0,0,-1,1119,946,0,0
-98,78,0,0,0,0,0,0,0,0,0,-1,1126,946,0,0
-91,78,0,0,0,0,0,0,0,0,0,-1,1133,946,0,0
-84,78,0,0,0,0,0,0,0,0,0,-1,1140,946,0,0
-77,78,0,0,0,0,0,0,0,0,0,-1,1147,946,0,0
-70,78,0,0,0,0,0,0,0,0,0,-1,1154,946,0,0
-63,78,0,0,0,0,0,0,0,0,0,-1,1161,946,0,0
-56,78,0,0,0,0,0,0,0,0,0,-1,1168,946,0,0
-49,78,0,0,0,0,0,0,0,0,0,-1,1175,946,0,0
-42,78,0,0,0,0,0,0,0,0,0,-1,1182,946,0,0
-35,78,0,0,0,0,0,0,0,0,0,-1,1189,946,0,0
-28,78,0,0,0,0,0,0,0,0,0,-1,1196,946,0,0
-21,78,0,0,0,0,0,0,0,0,0,-1,1203,946,0,0
-14,78,0,0,0,0,0,0,0,0,0,-1,1210,946,0,0
-7,78,0,0,0,0,0,0,0,0,0,-1,1217,946,0,0
0,78,0,0,0,0,0,0,0,0,0,-1,1224,946,0,0
7,78,0,0,0,0,0,0,0,0,0,-1,1231,946,0,0
14,78,0,0,0,0,0,0,0,0,0,-1,1238,946,0,0
21,78,0,0,0,0,0,0,0,0,0,-1,1245,946,0,0
28,78,0,0,0,0,0,0,0,0,0,-1,1252,946,0,0
35,78,0,0,0,0,0,0,0,0,0,-1,1259,946,0,0
42,78,0,0,0,0,0,0,0,0,0,-1,1266,946,0,0
49,78,0,0,0,0,0,0,0,0,0,-1,1273,946,0,0
56,78,0,0,0,0,0,0,0,0,0,-1,1280,946,0,0
63,78,0,0,0,0,0,0,0,0,0,-1,1287,946,0,0
70,78,0,0,0,0,0,0,0,0,0,-1,1294,946,0,0
77,78,0,0,0,0,0,0,0,0,0,-1,1301,946,0,0
84,78,0,0,0,0,0,0,0,0,0,-1,1308,946,0,0
91,78,0,0,0,0,0,0,0,0,0,-1,1315,946,0,0
98,78,0,0,0,0,0,0,0,0,0,-1,1322,946,0,0
105,78,0,0,0,0,0,0,0,0,0,-1,1329,946,0,0
112,78,0,0,0,0,0,0,0,0,0,-1,1336,946,0,0
119,78,0,0,0,0,0,0,0,0,0,-1,1343,946,0,0
126,78,0,0,0,0,0,0,0,0,0,-1,1350,946,0,0
133,78,0,0,0,0,0,0,0,0,0,-1,1357,946,0,0
140,78,0,0,0,0,0,0,0,0,0,-1,1364,946,0,0
147,78,0,0,0,0,0,0,0,0,0,-1,1371,946,0,0
154,78,0,0,0,0,0,0,0,0,0,-1,1378,946,0,0
161,78,0,0,0,0,0,0,0,0,0,-1,1385,946,0,0
168,78,0,0,0,0,0,0,0,0,0,-1,1392,946,0,0
175,78,0,0,0,0,0,0,0,0,0,-1,1399,946,0,0
182,78,0,0,0,0,0,0,0,0,0,-1,1406,946,0,0
189,78,0,0,0,0,0,0,0,0,0,-1,1413,946,0,0
196,78,0,0,0,0,0,0,0,0,0,-1,1420,946,0,0
203,78,0,0,0,0,0,0,0,0,0,-1,1427,946,0,0
210,78,0,0,0,0,0,0,0,0,0,-1,1434,946,0,0
217,78,0,0,0,0,0,0,0,0,0,-1,1441,946,0,0
224,78,0,0,0,0,0,0,0,0,0,-1,1448,946,0,0
231,78,0,0,0,0,0,0,0,0,0,-1,1455,946,0,0
238,78,0,0,0,0,0,0,0,0,0,-1,1462,946,0,0
245,78,0,0,0,0,0,0,0,0,0,-1,1469,946,0,0
252,78,0,0,0,0,0,0,0,0,0,-1,1476,946,0,0
259,78,0,0,0,0,0,0,0,0,0,-1,1483,946,0,0
266,78,0,0,0,0,0,0,0,0,0,-1,1490,946,0,0
273,78,0,0,0,0,0,0,0,0,0,-1,1497,946,0,0
280,78,0,0,0,0,0,0,0,0,0,-1,1504,946,0,0
287,78,0,0,0,0,0,0,0,0,0,-1,1511,946,0,0
294,78,0,0,0,0,0,0,0,0,0,-1,1518,946,0,0
301,78,0,0,0,0,0,0,0,0,0,-1,1525,946,0,0
308,78,0,0,0,0,0,0,0,0,0,-1,1532,946,0,0
315,78,0,0,0,0,0,0,0,0,0,-1,1539,946,0,0
322,78,0,0,0,0,0,0,0,0,0,-1,1546,946,0,0
329,78,0,0,0,0,0,0,0,0,0,-1,1553,946,0,0
336,78,0,0,0,0,0,0,0,0,0,-1,1560,946,0,0
343,78,0,0,0,0,0,0,0,0,0,-1,1567,946,0,0
350,78,0,0,0,0,0,0,0,0,0,-1,1574,946,0,0
357,78,0,0,0,0,0,0,0,0,0,-1,1581,946,0,0
364,78,0,0,0,0,0,0,0,0,0,-1,1588,946,0,0
371,78,0,0,0,0,0,0,0,0,0,-1,1595,946,0,0
378,78,0,0,0,0,0,0,0,0,0,-1,1602,946,0,0
385,78,0,0,0,0,0,0,0,0,0,-1,1609,946,0,0
392,78,0,0,0,0,0,0,0,0,0,-1,1616,946,0,0
399,78,0,0,0,0,0,0,0,0,0,-1,1623,946,0,0
406,78,0,0,0,0,0,0,0,0,0,-1,1630,946,0,0
413,78,0,0,0,0,0,0,0,0,0,-1,1637,946,0,0
420,78,0,0,0,0,0,0,0,0,0,-1,1644,946,0,0
427,78,0,0,0,0,0,0,0,0,0,-1,1651,946,0,0
434,78,0,0,0,0,0,0,0,0,0,-1,1658,946,0,0
441,78,0,0,0,0,0,0,0,0,0,-1,1665,946,0,0
448,78,0,0,0,0,0,0,0,0,0,-1,1672,946,0,0
455,78,0,0,0,0,0,0,0,0,0,-1,1679,946,0,0
462,78,0,0,0,0,0,0,0,0,0,-1,1686,946,0,0
469,78,0,0,0,0,0,0,0,0,0,-1,1693,946,0,0
476,78,0,0,0,0,0,0,0,0,0,-1,1700,946,0,0
483,78,0,0,0,0,0,0,0,0,0,-1,1707,946,0,0
490,78,0,0,0,0,0,0,0,0,0,-1,1714,946,0,0
497,78,0,0,0,0,0,0,0,0,0,-1,1721,946,0,0
504,78,0,0,0,0,0,0,0,0,0,-1,1728,946,0,0
511,78,0,0,0,0,0,0,0,0,0,-1,1735,946,0,0
518,78,0,0,0,0,0,0,0,0,0,-1,1742,946,0,0
525,78,0,0,0,0,0,0,0,0,0,-1,1749,946,0,0
532,78,0,0,0,0,0,0,0,0,0,-1,1756,946,0,0
539,78,0,0,0,0,0,0,0,0,0,-1,1763,946,0,0
546,78,0,0,0,0,0,0,0,0,0,-1,1770,946,0,0
553,78,0,0,0,0,0,0,0,0,0,-1,1777,946,0,0
560,78,0,0,0,0,0,0,0,0,0,-1,1784,946,0,0
567,78,0,0,0,0,0,0,0,0,0,-1,1791,946,0,0
574,78,0,0,0,0,0,0,0,0,0,-1,1798,946,0,0
581,78,0,0,0,0,0,0,0,0,0,-1,1805,946,0,0
588,78,0,0,0,0,0,0,0,0,0,-1,1812,946,0,0
595,78,0,0,0,0,0,0,0,0,0,-1,1819,946,0,0
602,78,0,0,0,0,0,0,0,0,0,-1,1826,946,0,0
609,78,0,0,0,0,0,0,0,0,0,-1,1833,946,0,0
616,78,0,0,0,0,0,0,0,0,0,-1,1840,946,0,0
623,78,0,0,0,0,0,0,0,0,0,-1,1847,946,0,0
630,78,0,0,0,0,0,0,0,0,0,-1,1854,946,0,0
637,78,29.1315,2.99469,0.00761412,0.00171147,-0.00845114,0.0136144,-0.00428886,-0.617408,0.0107938,0.0466032,1861,946,29.1315,-2.99469
644,78,29.1808,2.40417,0.00572857,0.00147646,-0.00643566,0.0103803,-0.00317523,-0.625864,0.00818648,0.043538,1868,946,29.1807,-2.40418
651,78,29.2927,2.18085,0.00414645,0.00126009,-0.00474643,0.00766425,-0.00225772,-0.637811,0.00600525,0.0422293,1875,946,29.2928,-2.18084
658,78,29.2334,2.63678,0.00265398,0.00121152,-0.00303733,0.00505454,-0.00118904,-0.668829,0.0038281,0.0396094,1882,946,29.2334,-2.63679
665,78,29.2211,2.55939,0.00133309,0.00125668,-0.00132118,0.00261661,-2.68448e-05,-0.770943,0.00175343,0.0409796,1889,946,29.221,-2.55941
672,78,29.2245,2.50397,0.000196383,0.0012497,0.000151608,0.00127108,0.000174995,1.43065,0.000795499,0.0413879,1896,946,29.2244,-2.50396
679,78,29.2511,2.6106,-0.000700791,0.00117017,0.00126522,0.00180819,-0.00133881,1.10373,0.00182365,0.0377847,1903,946,29.2511,-2.61057
686,78,29.2552,2.61511,-0.00132314,0.00105552,0.00195725,0.00215646,-0.00242407,1.05841,0.00264607,0.0372598,1910,946,29.2552,-2.61513
693,78,29.2531,2.60413,-0.00174984,0.0009818,0.00238374,0.00236328,-0.00313133,1.04555,0.00318263,0.0348321,1917,946,29.253,-2.60412
700,78,29.1971,2.69714,-0.00208512,0.000931309,0.0025914,0.00242144,-0.00357525,1.04894,0.00348349,0.0280709,1924,946,29.1972,-2.69711
707,78,28.9381,3.11731,0,0,0,0,0,0,0,-1,1931,946,28.9381,-3.1173
714,78,27.4026,3.60046,0,0,0,0,0,0,0,-1,1938,946,27.4026,-3.60046
721,78,27.4667,3.79773,-0.00284223,0.00107897,0.00221246,0.00207454,-0.0038378,1.14796,0.00346372,0.0238058,1945,946,27.4667,-3.79773
728,78,27.5205,4.06793,-0.00302471,0.00136457,0.00166045,0.00192194,-0.00358208,1.24694,0.00322557,0.0207366,1952,946,27.5205,-4.06792
735,78,27.499,4.23334,-0.00274399,0.00168434,0.00103444,0.00191407,-0.00297371,1.35227,0.00284398,0.0154024,1959,946,27.499,-4.23332
742,78,27.519,4.41772,-0.0019792,0.00160742,0.000950294,0.00184365,-0.00221542,1.32715,0.00234678,0.0142167,1966,946,27.519,-4.41771
749,78,27.4856,4.61255,-0.00131398,0.00153988,0.0006503,0.00168107,-0.00145518,1.35699,0.00181228,0.0137015,1973,946,27.4856,-4.61254
756,78,27.4852,4.77368,-3.26395e-05,0.00136889,0.000752499,0.00169639,-0.000360138,1.16031,0.00126813,0.0144317,1980,946,27.4853,-4.77371
763,78,27.463,4.94629,0.00159544,0.00101713,0.0013016,0.00263962,-2.70506e-05,0.676097,0.00176883,0.0120473,1987,946,27.4631,-4.94627
770,78,27.427,5.13733,0.00371573,0.000324665,0.0024187,0.004974,-0.000933606,0.479697,0.00366704,0.0153486,1994,946,27.427,-5.13736
777,78,27.3378,5.34161,0.00638643,-0.000704382,0.00397172,0.00816498,-0.00248293,0.421025,0.00643272,0.0346678,2001,946,27.3378,-5.3416
784,78,27.281,5.52783,0.00972231,-0.00230426,0.00601494,0.0122143,-0.00479621,0.392768,0.0101275,0.0462514,2008,946,27.2809,-5.52783
791,78,27.0916,5.68512,0,0,0,0,0,0,0,-1,2015,946,27.0916,-5.68511
798,78,28.3418,4.35028,0.01914,-0.00750705,0.011422,0.0233657,-0.0117328,0.354353,0.0206318,0.0410636,2022,946,28.3418,-4.35031
805,78,28.4307,4.54388,0.0253246,-0.0110698,0.0147652,0.0305613,-0.0163066,0.340827,0.0274732,0.0465493,2029,946,28.4306,-4.54389
812,78,0,0,0,0,0,0,0,0,0,-1,2036,946,0,0
-700,71,0,0,0,0,0,0,0,0,0,-1,524,953,0,0
-693,71,0,0,0,0,0,0,0,0,0,-1,531,953,0,0
-686,71,-19.8619,-2.18134,0.105891,-0.0548225,0.080979,0.139617,-0.0885482,0.394628,0.132826,0.0424605,538,953,-19.8619,2.18133
-679,71,-19.9291,-0.888916,0.101307,-0.0439084,0.068832,0.128748,-0.0713492,0.379354,0.1171,0.0442787,545,953,-19.9291,0.888936
-672,71,-17.174,-0.367371,0.0914223,-0.0344852,0.0576194,0.11381,-0.0568729,0.370593,0.100355,0.0444969,552,953,-17.174,0.36734
-665,71,-22.6543,1.46741,0,0,0,0,0,0,0,-1,559,953,-22.6543,-1.46738
-658,71,-21.7803,1.88098,0,0,0,0,0,0,0,-1,566,953,-21.7802,-1.88097
-651,71,-20.7695,2.22577,0,0,0,0,0,0,0,-1,573,953,-20.7695,-2.2258
-644,71,-19.8026,2.50598,0,0,0,0,0,0,0,-1,580,953,-19.8026,-2.50596
-637,71,-19.6768,2.48999,0.0308352,-0.00463337,0.0162165,0.0371317,-0.0109299,0.370361,0.0290905,0.0141029,587,953,-19.6768,-2.49002
-630,71,-19.7318,2.32605,0.0218888,-0.0013436,0.0101982,0.0257303,-0.00518505,0.360242,0.0191177,0.0131044,594,953,-19.7318,-2.32607
-623,71,-19.7498,2.14893,0.012242,0.000433983,0.00567752,0.0145289,-0.00185295,0.382923,0.010359,0.0121866,601,953,-19.7498,-2.14894
-616,71,-19.7432,1.98206,0.00308835,0.0012958,0.00231441,0.00467397,-0.000289815,0.600662,0.00321694,0.0121222,608,953,-19.7432,-1.98205
-609,71,-19.7153,1.86206,-0.00145156,0.00146631,0.00083953,0.00169061,-0.00167587,1.30971,0.00194365,0.0138334,615,953,-19.7153,-1.86209
-602,71,-19.6714,1.70819,-0.00405585,0.00116412,-0.000532713,0.00121793,-0.00410966,-1.47013,0.00322338,0.0163695,622,953,-19.6714,-1.70818
-595,71,-19.6912,1.54797,-0.00603366,0.00131892,-0.00141037,0.00158017,-0.00629491,-1.38763,0.00481063,0.0168873,629,953,-19.6912,-1.54798
-588,71,-19.6977,1.41925,-0.00698544,0.00123897,-0.00208328,0.00173657,-0.00748303,-1.33634,0.0056571,0.0177839,636,953,-19.6977,-1.41925
-581,71,-19.858,1.18042,-0.00717341,0.00119241,-0.00241562,0.00183982,-0.00782081,-1.30894,0.00592317,0.0293153,643,953,-19.858,-1.18045
-574,71,-20.3325,0.935913,-0.00719314,0.00134692,-0.00257144,0.00206141,-0.00790764,-1.29978,0.00607659,0.0341179,650,953,-20.3325,-0.935911
-567,71,-20.5846,0.713623,-0.00698345,0.00159971,-0.00261873,0.0023356,-0.00771933,-1.29685,0.00607627,0.0202161,657,953,-20.5846,-0.7136
-560,71,-20.5792,0.74408,-0.00620141,0.00186771,-0.00251121,0.0025854,-0.00691909,-1.29242,0.00567437,0.0272723,664,953,-20.5792,-0.744097
-553,71,-20.5704,0.822144,-0.0048551,0.00218932,-0.00221608,0.00282848,-0.00549426,-1.29,0.00488661,0.0394964,671,953,-20.5703,-0.822114
-546,71,-20.583,0.809082,-0.0029664,0.00254086,-0.0017183,0.003033,-0.00345854,-1.29185,0.00375057,0.0427554,678,953,-20.583,-0.809096
-539,71,-20.547,0.628723,-0.000607443,0.00290766,-0.00101463,0.00317951,-0.000879288,-1.30902,0.0024656,0.0420171,685,953,-20.547,-0.62873
-532,71,-20.4745,0.660095,0.00191775,0.00332773,-0.000232325,0.00336502,0.00188045,-1.41163,0.00194727,0.043292,692,953,-20.4745,-0.660081
-525,71,-20.3998,0.712585,0.00322867,0.0040179,0.000415212,0.0041961,0.00305046,1.16538,0.00250445,0.043818,699,953,-20.3998,-0.71259
-518,71,0,0,0,0,0,0,0,0,0,-1,706,953,0,0
-511,71,0,0,0,0,0,0,0,0,0,-1,713,953,0,0
-504,71,0,0,0,0,0,0,0,0,0,-1,720,953,0,0
-497,71,0,0,0,0,0,0,0,0,0,-1,727,953,0,0
-490,71,0,0,0,0,0,0,0,0,0,-1,734,953,0,0
-483,71,0,0,0,0,0,0,0,0,0,-1,741,953,0,0
-476,71,0,0,0,0,0,0,0,0,0,-1,748,953,0,0
-469,71,0,0,0,0,0,0,0,0,0,-1,755,953,0,0
-462,71,0,0,0,0,0,0,0,0,0,-1,762,953,0,0
-455,71,0,0,0,0,0,0,0,0,0,-1,769,953,0,0
-448,71,0,0,0,0,0,0,0,0,0,-1,776,953,0,0
-441,71,0,0,0,0,0,0,0,0,0,-1,783,953,0,0
-434,71,0,0,0,0,0,0,0,0,0,-1,790,953,0,0
-427,71,0,0,0,0,0,0,0,0,0,-1,797,953,0,0
-420,71,0,0,0,0,0,0,0,0,0,-1,804,953,0,0
-413,71,0,0,0,0,0,0,0,0,0,-1,811,953,0,0
-406,71,0,0,0,0,0,0,0,0,0,-1,818,953,0,0
-399,71,0,0,0,0,0,0,0,0,0,-1,825,953,0,0
-392,71,0,0,0,0,0,0,0,0,0,-1,832,953,0,0
-385,71,0,0,0,0,0,0,0,0,0,-1,839,953,0,0
-378,71,0,0,0,0,0,0,0,0,0,-1,846,953,0,0
-371,71,0,0,0,0,0,0,0,0,0,-1,853,953,0,0
-364,71,0,0,0,0,0,0,0,0,0,-1,860,953,0,0
-357,71,0,0,0,0,0,0,0,0,0,-1,867,953,0,0
-350,71,0,0,0,0,0,0,0,0,0,-1,874,953,0,0
-343,71,0,0,0,0,0,0,0,0,0,-1,881,953,0,0
-336,71,0,0,0,0,0,0,0,0,0,-1,888,953,0,0
-329,71,0,0,0,0,0,0,0,0,0,-1,895,953,0,0
-322,71,0,0,0,0,0,0,0,0,0,-1,902,953,0,0
-315,71,0,0,0,0,0,0,0,0,0,-1,909,953,0,0
-308,71,0,0,0,0,0,0,0,0,0,-1,916,953,0,0
-301,71,0,0,0,0,0,0,0,0,0,-1,923,953,0,0
-294,71,0,0,0,0,0,0,0,0,0,-1,930,953,0,0
-287,71,0,0,0,0,0,0,0,0,0,-1,937,953,0,0
-280,71,0,0,0,0,0,0,0,0,0,-1,944,953,0,0
-273,71,0,0,0,0,0,0,0,0,0,-1,951,953,0,0
-266,71,0,0,0,0,0,0,0,0,0,-1,958,953,0,0
-259,71,0,0,0,0,0,0,0,0,0,-1,965,953,0,0
-252,71,0,0,0,0,0,0,0,0,0,-1,972,953,0,0
-245,71,0,0,0,0,0,0,0,0,0,-1,979,953,0,0
-238,71,0,0,0,0,0,0,0,0,0,-1,986,953,0,0
-231,71,0,0,0,0,0,0,0,0,0,-1,993,953,0,0
-224,71,0,0,0,0,0,0,0,0,0,-1,1000,953,0,0
-217,71,0,0,0,0,0,0,0,0,0,-1,1007,953,0,0
-210,71,0,0,0,0,0,0,0,0,0,-1,1014,953,0,0
-203,71,0,0,0,0,0,0,0,0,0,-1,1021,953,0,0
-196,71,0,0,0,0,0,0,0,0,0,-1,1028,953,0,0
-189,71,0,0,0,0,0,0,0,0,0,-1,1035,953,0,0
-182,71,0,0,0,0,0,0,0,0,0,-1,1042,953,0,0
-175,71,0,0,0,0,0,0,0,0,0,-1,1049,953,0,0
-168,71,0,0,0,0,0,0,0,0,0,-1,1056,953,0,0
-161,71,0,0,0,0,0,0,0,0,0,-1,1063,953,0,0
-154,71,0,0,0,0,0,0,0,0,0,-1,1070,953,0,0
-147,71,0,0,0,0,0,0,0,0,0,-1,1077,953,0,0
-140,71,0,0,0,0,0,0,0,0,0,-1,1084,953,0,0
-133,71,0,0,0,0,0,0,0,0,0,-1,1091,953,0,0
-126,71,0,0,0,0,0,0,0,0,0,-1,1098,953,0,0
-119,71,0,0,0,0,0,0,0,0,0,-1,1105,953,0,0
-112,71,0,0,0,0,0,0,0,0,0,-1,1112,953,0,0
-105,71,0,0,0,0,0,0,0,0,0,-1,1119,953,0,0
-98,71,0,0,0,0,0,0,0,0,0,-1,1126,953,0,0
-91,71,0,0,0,0,0,0,0,0,0,-1,1133,953,0,0
-84,71,0,0,0,0,0,0,0,0,0,-1,1140,953,0,0
-77,71,0,0,0,0,0,0,0,0,0,-1,1147,953,0,0
-70,71,0,0,0,0,0,0,0,0,0,-1,1154,953,0,0
-63,71,0,0,0,0,0,0,0,0,0,-1,1161,953,0,0
-56,71,0,0,0,0,0,0,0,0,0,-1,1168,953,0,0
-49,71,0,0,0,0,0,0,0,0,0,-1,1175,953,0,0
-42,71,0,0,0,0,0,0,0,0,0,-1,1182,953,0,0
-35,71,0,0,0,0,0,0,0,0,0,-1,1189,953,0,0
-28,71,0,0,0,0,0,0,0,0,0,-1,1196,953,0,0
-21,71,0,0,0,0,0,0,0,0,0,-1,1203,953,0,0
-14,71,0,0,0,0,0,0,0,0,0,-1,1210,953,0,0
-7,71,0,0,0,0,0,0,0,0,0,-1,1217,953,0,0
0,71,0,0,0,0,0,0,0,0,0,-1,1224,953,0,0
7,71,0,0,0,0,0,0,0,0,0,-1,1231,953,0,0
14,71,0,0,0,0,0,0,0,0,0,-1,1238,953,0,0
21,71,0,0,0,0,0,0,0,0,0,-1,1245,953,0,0
28,71,0,0,0,0,0,0,0,0,0,-1,1252,953,0,0
35,71,0,0,0,0,0,0,0,0,0,-1,1259,953,0,0
42,71,0,0,0,0,0,0,0,0,0,-1,1266,953,0,0
49,71,0,0,0,0,0,0,0,0,0,-1,1273,953,0,0
56,71,0,0,0,0,0,0,0,0,0,-1,1280,953,0,0
63,71,0,0,0,0,0,0,0,0,0,-1,1287,953,0,0
70,71,0,0,0,0,0,0,0,0,0,-1,1294,953,0,0
77,71,0,0,0,0,0,0,0,0,0,-1,1301,953,0,0
84,71,0,0,0,0,0,0,0,0,0,-1,1308,953,0,0
91,71,0,0,0,0,0,0,0,0,0,-1,1315,953,0,0
98,71,0,0,0,0,0,0,0,0,0,-1,1322,953,0,0
105,71,0,0,0,0,0,0,0,0,0,-1,1329,953,0,0
112,71,0,0,0,0,0,0,0,0,0,-1,1336,953,0,0
119,71,0,0,0,0,0,0,0,0,0,-1,1343,953,0,0
126,71,0,0,0,0,0,0,0,0,0,-1,1350,953,0,0
133,71,0,0,0,0,0,0,0,0,0,-1,1357,953,0,0
140,71,0,0,0,0,0,0,0,0,0,-1,1364,953,0,0
147,71,0,0,0,0,0,0,0,0,0,-1,1371,953,0,0
154,71,0,0,0,0,0,0,0,0,0,-1,1378,953,0,0
161,71,0,0,0,0,0,0,0,0,0,-1,1385,953,0,0
168,71,0,0,0,0,0,0,0,0,0,-1,1392,953,0,0
175,71,0,0,0,0,0,0,0,0,0,-1,1399,953,0,0
182,71,0,0,0,0,0,0,0,0,0,-1,1406,953,0,0
189,71,0,0,0,0,0,0,0,0,0,-1,1413,953,0,0
196,71,0,0,0,0,0,0,0,0,0,-1,1420,953,0,0
203,71,0,0,0,0,0,0,0,0,0,-1,1427,953,0,0
210,71,0,0,0,0,0,0,0,0,0,-1,1434,953,0,0
217,71,0,0,0,0,0,0,0,0,0,-1,1441,953,0,0
224,71,0,0,0,0,0,0,0,0,0,-1,1448,953,0,0
231,71,0,0,0,0,0,0,0,0,0,-1,1455,953,0,0
238,71,0,0,0,0,0,0,0,0,0,-1,1462,953,0,0
245,71,0,0,0,0,0,0,0,0,0,-1,1469,953,0,0
252,71,0,0,0,0,0,0,0,0,0,-1,1476,953,0,0
259,71,0,0,0,0,0,0,0,0,0,-1,1483,953,0,0
266,71,0,0,0,0,0,0,0,0,0,-1,1490,953,0,0
273,71,0,0,0,0,0,0,0,0,0,-1,1497,953,0,0
280,71,0,0,0,0,0,0,0,0,0,-1,1504,953,0,0
287,71,0,0,0,0,0,0,0,0,0,-1,1511,953,0,0
294,71,0,0,0,0,0,0,0,0,0,-1,1518,953,0,0
301,71,0,0,0,0,0,0,0,0,0,-1,1525,953,0,0
308,71,0,0,0,0,0,0,0,0,0,-1,1532,953,0,0
315,71,0,0,0,0,0,0,0,0,0,-1,1539,953,0,0
322,71,0,0,0,0,0,0,0,0,0,-1,1546,953,0,0
329,71,0,0,0,0,0,0,0,0,0,-1,1553,953,0,0
336,71,0,0,0,0,0,0,0,0,0,-1,1560,953,0,0
343,71,0,0,0,0,0,0,0,0,0,-1,1567,953,0,0
350,71,0,0,0,0,0,0,0,0,0,-1,1574,953,0,0
357,71,0,0,0,0,0,0,0,0,0,-1,1581,953,0,0
364,71,0,0,0,0,0,0,0,0,0,-1,1588,953,0,0
371,71,0,0,0,0,0,0,0,0,0,-1,1595,953,0,0
378,71,0,0,0,0,0,0,0,0,0,-1,1602,953,0,0
385,71,0,0,0,0,0,0,0,0,0,-1,1609,953,0,0
392,71,0,0,0,0,0,0,0,0,0,-1,1616,953,0,0
399,71,0,0,0,0,0,0,0,0,0,-1,1623,953,0,0
406,71,0,0,0,0,0,0,0,0,0,-1,1630,953,0,0
413,71,0,0,0,0,0,0,0,0,0,-1,1637,953,0,0
420,71,0,0,0,0,0,0,0,0,0,-1,1644,953,0,0
427,71,0,0,0,0,0,0,0,0,0,-1,1651,953,0,0
434,71,0,0,0,0,0,0,0,0,0,-1,1658,953,0,0
441,71,0,0,0,0,0,0,0,0,0,-1,1665,953,0,0
448,71,0,0,0,0,0,0,0,0,0,-1,1672,953,0,0
455,71,0,0,0,0,0,0,0,0,0,-1,1679,953,0,0
462,71,0,0,0,0,0,0,0,0,0,-1,1686,953,0,0
469,71,0,0,0,0,0,0,0,0,0,-1,1693,953,0,0
476,71,0,0,0,0,0,0,0,0,0,-1,1700,953,0,0
483,71,0,0,0,0,0,0,0,0,0,-1,1707,953,0,0
490,71,0,0,0,0,0,0,0,0,0,-1,1714,953,0,0
497,71,0,0,0,0,0,0,0,0,0,-1,1721,953,0,0
504,71,0,0,0,0,0,0,0,0,0,-1,1728,953,0,0
511,71,0,0,0,0,0,0,0,0,0,-1,1735,953,0,0
518,71,0,0,0,0,0,0,0,0,0,-1,1742,953,0,0
525,71,0,0,0,0,0,0,0,0,0,-1,1749,953,0,0
532,71,0,0,0,0,0,0,0,0,0,-1,1756,953,0,0
539,71,0,0,0,0,0,0,0,0,0,-1,1763,953,0,0
546,71,0,0,0,0,0,0,0,0,0,-1,1770,953,0,0
553,71,0,0,0,0,0,0,0,0,0,-1,1777,953,0,0
560,71,0,0,0,0,0,0,0,0,0,-1,1784,953,0,0
567,71,0,0,0,0,0,0,0,0,0,-1,1791,953,0,0
574,71,0,0,0,0,0,0,0,0,0,-1,1798,953,0,0
581,71,0,0,0,0,0,0,0,0,0,-1,1805,953,0,0
588,71,0,0,0,0,0,0,0,0,0,-1,1812,953,0,0
595,71,0,0,0,0,0,0,0,0,0,-1,1819,953,0,0
602,71,0,0,0,0,0,0,0,0,0,-1,1826,953,0,0
609,71,0,0,0,0,0,0,0,0,0,-1,1833,953,0,0
616,71,0,0,0,0,0,0,0,0,0,-1,1840,953,0,0
623,71,0,0,0,0,0,0,0,0,0,-1,1847,953,0,0
630,71,0,0,0,0,0,0,0,0,0,-1,1854,953,0,0
637,71,29.1743,2.80469,0.00798909,0.00308331,-0.00853682,0.0144184,-0.00334603,-0.645501,0.0109002,0.0419943,1861,953,29.1744,-2.80466
644,71,29.2142,2.84644,0.00602119,0.00255994,-0.00640087,0.0109213,-0.00234013,-0.653368,0.00817333,0.0435366,1868,953,29.2142,-2.84641
651,71,29.2808,2.71362,0.0044191,0.00206735,-0.00471669,0.00810428,-0.00161783,-0.663238,0.0060151,0.0419535,1875,953,29.2808,-2.71363
658,71,29.2843,2.57129,0.00292343,0.0017631,-0.00306086,0.00545862,-0.000772097,-0.691738,0.00392186,0.039141,1882,953,29.2843,-2.57129
665,71,29.2721,2.64453,0.00153815,0.00164287,-0.00133117,0.00292271,0.000258303,-0.805055,0.00186833,0.0397413,1889,953,29.2721,-2.64453
672,71,29.1461,2.58374,0.000245889,0.00158711,0.000234433,0.00162691,0.000206093,1.40265,0.00102285,0.0393709,1896,953,29.1461,-2.58375
679,71,29.1222,2.55981,-0.00083248,0.00152348,0.00146619,0.00222629,-0.00153528,1.12381,0.00218392,0.0383182,1903,953,29.1221,-2.55979
686,71,29.2174,2.50623,-0.00158558,0.00142468,0.00226385,0.00263808,-0.00279898,1.07877,0.00313955,0.0363712,1910,953,29.2174,-2.50623
693,71,29.2825,2.4469,-0.0021233,0.00135927,0.00276927,0.00288922,-0.00365324,1.06606,0.00378587,0.0346545,1917,953,29.2825,-2.44691
700,71,29.1903,2.53705,-0.0025394,0.00132358,0.0030292,0.00298468,-0.0042005,1.06921,0.00416812,0.0330852,1924,953,29.1903,-2.53703
707,71,29.1692,2.78754,0,0,0,0,0,0,0,-1,1931,953,29.1691,-2.78754
714,71,27.9261,3.68054,0,0,0,0,0,0,0,-1,1938,953,27.9262,-3.68057
721,71,27.7947,3.82825,-0.00345105,0.00150335,0.00270248,0.0026922,-0.0046399,1.15636,0.00428269,0.0340412,1945,953,27.7946,-3.82823
728,71,27.6949,4.08405,-0.00359953,0.00180706,0.00209561,0.0025242,-0.00431667,1.24108,0.00399452,0.0200828,1952,953,27.6949,-4.08407
735,71,27.7086,4.2511,-0.00328912,0.00214231,0.00135785,0.00246286,-0.00360967,1.33897,0.00352675,0.0147556,1959,953,27.7086,-4.25112
742,71,27.7095,4.41052,-0.00257485,0.00210312,0.00120484,0.00239519,-0.00286693,1.33296,0.00304215,0.0155208,1966,953,27.7094,-4.41053
749,71,27.6913,4.58923,-0.0018979,0.00198333,0.000835393,0.00215551,-0.00207007,1.36755,0.00243981,0.0167863,1973,953,27.6913,-4.58924
756,71,27.6929,4.75262,-0.000608518,0.00181475,0.000744914,0.00202542,-0.00081919,1.29518,0.00169084,0.0155741,1980,953,27.6928,-4.75264
763,71,27.6704,4.9292,0.00105763,0.0014382,0.00102927,0.00229463,0.000201204,0.876802,0.00146729,0.0131014,1987,953,27.6705,-4.9292
770,71,27.63,5.10468,0.00323794,0.000726926,0.00193747,0.00429113,-0.000326269,0.49791,0.00297548,0.0149173,1994,953,27.63,-5.10469
777,71,27.6274,5.25409,0.00598319,-0.000308656,0.00335454,0.00743615,-0.00176162,0.40874,0.00563715,0.0328153,2001,953,27.6275,-5.2541
784,71,27.8337,5.29657,0.0093942,-0.00193739,0.00532168,0.0115015,-0.00404473,0.377045,0.00931345,0.0446071,2008,953,27.8338,-5.29655
791,71,28.2715,4.34595,0.0137747,-0.00432348,0.00783798,0.0166972,-0.00724602,0.356902,0.0141781,0.0425411,2015,953,28.2714,-4.34597
798,71,28.1836,4.14954,0.0193357,-0.00752903,0.0109036,0.0232041,-0.0113974,0.340929,0.0203612,0.044043,2022,953,28.1836,-4.14954
805,71,28.094,3.9646,0,0,0,0,0,0,0,-1,2029,953,28.094,-3.96457
812,71,0,0,0,0,0,0,0,0,0,-1,2036,953,0,0
-700,64,0,0,0,0,0,0,0,0,0,-1,524,960,0,0
-693,64,0,0,0,0,0,0,0,0,0,-1,531,960,0,0
-686,64,-19.7952,-1.72772,0.0996248,-0.0579558,0.0786451,0.132158,-0.0904891,0.392238,0.129294,0.0453922,538,960,-19.7952,1.72773
-679,64,-19.5488,-0.550842,0.094137,-0.0461107,0.0668168,0.120873,-0.0728468,0.380627,0.112984,0.0446213,545,960,-19.5488,0.550825
-672,64,-17.9062,0.529907,0.0842793,-0.0361085,0.0558189,0.106177,-0.0580063,0.373852,0.0961417,0.0432879,552,960,-17.9062,-0.529928
-665,64,-17.3044,1.4234,0,0,0,0,0,0,0,-1,559,960,-17.3044,-1.42338
-658,64,-21.9025,1.22192,0,0,0,0,0,0,0,-1,566,960,-21.9025,-1.22192
-651,64,-20.8664,1.84351,0.048431,-0.0141735,0.0283298,0.0593473,-0.0250899,0.367796,0.0500694,0.0414926,573,960,-20.8664,-1.84348
-644,64,-19.795,2.55688,0.0370475,-0.00921004,0.021152,0.0452611,-0.0174237,0.370393,0.0373617,0.0308792,580,960,-19.795,-2.55687
-637,64,-19.8453,2.42755,0.0272884,-0.00467686,0.0149933,0.0332202,-0.0106087,0.376735,0.0264033,0.0150093,587,960,-19.8453,-2.42754
-630,64,-19.8906,2.29736,0.0188332,-0.00118836,0.00887886,0.0222034,-0.00455852,0.362773,0.0165326,0.0133773,594,960,-19.8906,-2.29734
-623,64,-19.9046,2.15387,0.00978187,0.000753004,0.00444965,0.0116062,-0.00107129,0.389086,0.00811813,0.0138835,601,960,-19.9046,-2.1539
-616,64,-19.9272,1.99445,0.00167044,0.00167343,0.00130935,0.00298128,0.000362589,0.785968,0.00187836,0.0167821,608,960,-19.9272,-1.99444
-609,64,-19.8834,1.87238,-0.00198513,0.00179773,-5.03499e-05,0.0017984,-0.0019858,-1.55749,0.0021857,0.015551,615,960,-19.8833,-1.87239
-602,64,-19.838,1.73694,-0.00413793,0.00151373,-0.00131544,0.0018049,-0.0044291,-1.35296,0.00370397,0.016612,622,960,-19.838,-1.73692
-595,64,-19.8601,1.60291,-0.00579832,0.00156573,-0.00212736,0.00213611,-0.00636871,-1.30884,0.00510893,0.0174181,629,960,-19.8601,-1.60292
-588,64,-19.8798,1.50281,-0.00661311,0.00133206,-0.00280664,0.00222349,-0.00750454,-1.26326,0.00588589,0.0251637,636,960,-19.8797,-1.50282
-581,64,-20.0762,1.26953,-0.00673573,0.00114335,-0.0031508,0.00224836,-0.00784074,-1.23349,0.00611596,0.0353091,643,960,-20.0762,-1.26955
-574,64,-20.4393,0.985291,-0.00669135,0.00116058,-0.00330272,0.00236503,-0.0078958,-1.2211,0.00620433,0.0379049,650,960,-20.4393,-0.985309
-567,64,-20.5425,0.701599,-0.00638634,0.00123174,-0.00329294,0.0024578,-0.0076124,-1.21437,0.00606261,0.0250997,657,960,-20.5425,-0.701598
-560,64,-20.5813,0.677063,-0.005514,0.00128832,-0.00310092,0.00248972,-0.00671541,-1.20117,0.00549808,0.0330819,664,960,-20.5813,-0.677046
-553,64,-20.5389,0.672729,-0.0040461,0.00137321,-0.00270795,0.00249438,-0.00516727,-1.17825,0.0045123,0.0371548,671,960,-20.5389,-0.672721
-546,64,-20.5236,0.647156,-0.00200989,0.00147849,-0.00211998,0.00247957,-0.00301097,-1.12963,0.00317491,0.0376577,678,960,-20.5236,-0.647167
-539,64,-20.7711,0.444214,0.000530384,0.00161707,-0.00138148,0.00255822,-0.000410758,-0.97276,0.0018576,0.0420123,685,960,-20.7711,-0.444218
-532,64,-20.6967,0.682434,0.00320345,0.00191098,-0.000714769,0.00352081,0.00159362,-0.417855,0.00203578,0.0429676,692,960,-20.6967,-0.682406
-525,64,-20.6078,0.875244,0.00448897,0.00267942,-0.000402971,0.00457466,0.00259374,-0.209503,0.00264907,0.0423214,699,960,-20.6079,-0.875229
-518,64,0,0,0,0,0,0,0,0,0,-1,706,960,0,0
-511,64,0,0,0,0,0,0,0,0,0,-1,713,960,0,0
-504,64,0,0,0,0,0,0,0,0,0,-1,720,960,0,0
-497,64,0,0,0,0,0,0,0,0,0,-1,727,960,0,0
-490,64,0,0,0,0,0,0,0,0,0,-1,734,960,0,0
-483,64,0,0,0,0,0,0,0,0,0,-1,741,960,0,0
-476,64,0,0,0,0,0,0,0,0,0,-1,748,960,0,0
-469,64,0,0,0,0,0,0,0,0,0,-1,755,960,0,0
-462,64,0,0,0,0,0,0,0,0,0,-1,762,960,0,0
-455,64,0,0,0,0,0,0,0,0,0,-1,769,960,0,0
-448,64,0,0,0,0,0,0,0,0,0,-1,776,960,0,0
-441,64,0,0,0,0,0,0,0,0,0,-1,783,960,0,0
-434,64,0,0,0,0,0,0,0,0,0,-1,790,960,0,0
-427,64,0,0,0,0,0,0,0,0,0,-1,797,960,0,0
-420,64,0,0,0,0,0,0,0,0,0,-1,804,960,0,0
-413,64,0,0,0,0,0,0,0,0,0,-1,811,960,0,0
-406,64,0,0,0,0,0,0,0,0,0,-1,818,960,0,0
-399,64,0,0,0,0,0,0,0,0,0,-1,825,960,0,0
-392,64,0,0,0,0,0,0,0,0,0,-1,832,960,0,0
-385,64,0,0,0,0,0,0,0,0,0,-1,839,960,0,0
-378,64,0,0,0,0,0,0,0,0,0,-1,846,960,0,0
-371,64,0,0,0,0,0,0,0,0,0,-1,853,960,0,0
-364,64,0,0,0,0,0,0,0,0,0,-1,860,960,0,0
-357,64,0,0,0,0,0,0,0,0,0,-1,867,960,0,0
-350,64,0,0,0,0,0,0,0,0,0,-1,874,960,0,0
-343,64,0,0,0,0,0,0,0,0,0,-1,881,960,0,0
-336,64,0,0,0,0,0,0,0,0,0,-1,888,960,0,0
-329,64,0,0,0,0,0,0,0,0,0,-1,895,960,0,0
-322,64,0,0,0,0,0,0,0,0,0,-1,902,960,0,0
-315,64,0,0,0,0,0,0,0,0,0,-1,909,960,0,0
-308,64,0,0,0,0,0,0,0,0,0,-1,916,960,0,0
-301,64,0,0,0,0,0,0,0,0,0,-1,923,960,0,0
-294,64,0,0,0,0,0,0,0,0,0,-1,930,960,0,0
-287,64,0,0,0,0,0,0,0,0,0,-1,937,960,0,0
-280,64,0,0,0,0,0,0,0,0,0,-1,944,960,0,0
-273,64,0,0,0,0,0,0,0,0,0,-1,951,960,0,0
-266,64,0,0,0,0,0,0,0,0,0,-1,958,960,0,0
-259,64,0,0,0,0,0,0,0,0,0,-1,965,960,0,0
-252,64,0,0,0,0,0,0,0,0,0,-1,972,960,0,0
-245,64,0,0,0,0,0,0,0,0,0,-1,979,960,0,0
-238,64,0,0,0,0,0,0,0,0,0,-1,986,960,0,0
-231,64,0,0,0,0,0,0,0,0,0,-1,993,960,0,0
-224,64,0,0,0,0,0,0,0,0,0,-1,1000,960,0,0
-217,64,0,0,0,0,0,0,0,0,0,-1,1007,960,0,0
-210,64,0,0,0,0,0,0,0,0,0,-1,1014,960,0,0
-203,64,0,0,0,0,0,0,0,0,0,-1,1021,960,0,0
-196,64,0,0,0,0,0,0,0,0,0,-1,1028,960,0,0
-189,64,0,0,0,0,0,0,0,0,0,-1,1035,960,0,0
-182,64,0,0,0,0,0,0,0,0,0,-1,1042,960,0,0
-175,64,0,0,0,0,0,0,0,0,0,-1,1049,960,0,0
-168,64,0,0,0,0,0,0,0,0,0,-1,1056,960,0,0
-161,64,0,0,0,0,0,0,0,0,0,-1,1063,960,0,0
-154,64,0,0,0,0,0,0,0,0,0,-1,1070,960,0,0
-147,64,0,0,0,0,0,0,0,0,0,-1,1077,960,0,0
-140,64,0,0,0,0,0,0,0,0,0,-1,1084,960,0,0
-133,64,0,0,0,0,0,0,0,0,0,-1,1091,960,0,0
-126,64,0,0,0,0,0,0,0,0,0,-1,1098,960,0,0
-119,64,0,0,0,0,0,0,0,0,0,-1,1105,960,0,0
-112,64,0,0,0,0,0,0,0,0,0,-1,1112,960,0,0
-105,64,0,0,0,0,0,0,0,0,0,-1,1119,960,0,0
-98,64,0,0,0,0,0,0,0,0,0,-1,1126,960,0,0
-91,64,0,0,0,0,0,0,0,0,0,-1,1133,960,0,0
-84,64,0,0,0,0,0,0,0,0,0,-1,1140,960,0,0
-77,64,0,0,0,0,0,0,0,0,0,-1,1147,960,0,0
-70,64,0,0,0,0,0,0,0,0,0,-1,1154,960,0,0
-63,64,0,0,0,0,0,0,0,0,0,-1,1161,960,0,0
-56,64,0,0,0,0,0,0,0,0,0,-1,1168,960,0,0
-49,64,0,0,0,0,0,0,0,0,0,-1,1175,960,0,0
-42,64,0,0,0,0,0,0,0,0,0,-1,1182,960,0,0
-35,64,0,0,0,0,0,0,0,0,0,-1,1189,960,0,0
-28,64,0,0,0,0,0,0,0,0,0,-1,1196,960,0,0
-21,64,0,0,0,0,0,0,0,0,0,-1,1203,960,0,0
-14,64,0,0,0,0,0,0,0,0,0,-1,1210,960,0,0
-7,64,0,0,0,0,0,0,0,0,0,-1,1217,960,0,0
0,64,0,0,0,0,0,0,0,0,0,-1,1224,960,0,0
7,64,0,0,0,0,0,0,0,0,0,-1,1231,960,0,0
14,64,0,0,0,0,0,0,0,0,0,-1,1238,960,0,0
21,64,0,0,0,0,0,0,0,0,0,-1,1245,960,0,0
28,64,0,0,0,0,0,0,0,0,0,-1,1252,960,0,0
35,64,0,0,0,0,0,0,0,0,0,-1,1259,960,0,0
42,64,0,0,0,0,0,0,0,0,0,-1,1266,960,0,0
49,64,0,0,0,0,0,0,0,0,0,-1,1273,960,0,0
56,64,0,0,0,0,0,0,0,0,0,-1,1280,960,0,0
63,64,0,0,0,0,0,0,0,0,0,-1,1287,960,0,0
70,64,0,0,0,0,0,0,0,0,0,-1,1294,960,0,0
77,64,0,0,0,0,0,0,0,0,0,-1,1301,960,0,0
84,64,0,0,0,0,0,0,0,0,0,-1,1308,960,0,0
91,64,0,0,0,0,0,0,0,0,0,-1,1315,960,0,0
98,64,0,0,0,0,0,0,0,0,0,-1,1322,960,0,0
105,64,0,0,0,0,0,0,0,0,0,-1,1329,960,0,0
112,64,0,0,0,0,0,0,0,0,0,-1,1336,960,0,0
119,64,0,0,0,0,0,0,0,0,0,-1,1343,960,0,0
126,64,0,0,0,0,0,0,0,0,0,-1,1350,960,0,0
133,64,0,0,0,0,0,0,0,0,0,-1,1357,960,0,0
140,64,0,0,0,0,0,0,0,0,0,-1,1364,960,0,0
147,64,0,0,0,0,0,0,0,0,0,-1,1371,960,0,0
154,64,0,0,0,0,0,0,0,0,0,-1,1378,960,0,0
161,64,0,0,0,0,0,0,0,0,0,-1,1385,960,0,0
168,64,0,0,0,0,0,0,0,0,0,-1,1392,960,0,0
175,64,0,0,0,0,0,0,0,0,0,-1,1399,960,0,0
182,64,0,0,0,0,0,0,0,0,0,-1,1406,960,0,0
189,64,0,0,0,0,0,0,0,0,0,-1,1413,960,0,0
196,64,0,0,0,0,0,0,0,0,0,-1,1420,960,0,0
203,64,0,0,0,0,0,0,0,0,0,-1,1427,960,0,0
210,64,0,0,0,0,0,0,0,0,0,-1,1434,960,0,0
217,64,0,0,0,0,0,0,0,0,0,-1,1441,960,0,0
224,64,0,0,0,0,0,0,0,0,0,-1,1448,960,0,0
231,64,0,0,0,0,0,0,0,0,0,-1,1455,960,0,0
238,64,0,0,0,0,0,0,0,0,0,-1,1462,960,0,0
245,64,0,0,0,0,0,0,0,0,0,-1,1469,960,0,0
252,64,0,0,0,0,0,0,0,0,0,-1,1476,960,0,0
259,64,0,0,0,0,0,0,0,0,0,-1,1483,960,0,0
266,64,0,0,0,0,0,0,0,0,0,-1,1490,960,0,0
273,64,0,0,0,0,0,0,0,0,0,-1,1497,960,0,0
280,64,0,0,0,0,0,0,0,0,0,-1,1504,960,0,0
287,64,0,0,0,0,0,0,0,0,0,-1,1511,960,0,0
294,64,0,0,0,0,0,0,0,0,0,-1,1518,960,0,0
301,64,0,0,0,0,0,0,0,0,0,-1,1525,960,0,0
308,64,0,0,0,0,0,0,0,0,0,-1,1532,960,0,0
315,64,0,0,0,0,0,0,0,0,0,-1,1539,960,0,0
322,64,0,0,0,0,0,0,0,0,0,-1,1546,960,0,0
329,64,0,0,0,0,0,0,0,0,0,-1,1553,960,0,0
336,64,0,0,0,0,0,0,0,0,0,-1,1560,960,0,0
343,64,0,0,0,0,0,0,0,0,0,-1,1567,960,0,0
350,64,0,0,0,0,0,0,0,0,0,-1,1574,960,0,0
357,64,0,0,0,0,0,0,0,0,0,-1,1581,960,0,0
364,64,0,0,0,0,0,0,0,0,0,-1,1588,960,0,0
371,64,0,0,0,0,0,0,0,0,0,-1,1595,960,0,0
378,64,0,0,0,0,0,0,0,0,0,-1,1602,960,0,0
385,64,0,0,0,0,0,0,0,0,0,-1,1609,960,0,0
392,64,0,0,0,0,0,0,0,0,0,-1,1616,960,0,0
399,64,0,0,0,0,0,0,0,0,0,-1,1623,960,0,0
406,64,0,0,0,0,0,0,0,0,0,-1,1630,960,0,0
413,64,0,0,0,0,0,0,0,0,0,-1,1637,960,0,0
420,64,0,0,0,0,0,0,0,0,0,-1,1644,960,0,0
427,64,0,0,0,0,0,0,0,0,0,-1,1651,960,0,0
434,64,0,0,0,0,0,0,0,0,0,-1,1658,960,0,0
441,64,0,0,0,0,0,0,0,0,0,-1,1665,960,0,0
448,64,0,0,0,0,0,0,0,0,0,-1,1672,960,0,0
455,64,0,0,0,0,0,0,0,0,0,-1,1679,960,0,0
462,64,0,0,0,0,0,0,0,0,0,-1,1686,960,0,0
469,64,0,0,0,0,0,0,0,0,0,-1,1693,960,0,0
476,64,0,0,0,0,0,0,0,0,0,-1,1700,960,0,0
483,64,0,0,0,0,0,0,0,0,0,-1,1707,960,0,0
490,64,0,0,0,0,0,0,0,0,0,-1,1714,960,0,0
497,64,0,0,0,0,0,0,0,0,0,-1,1721,960,0,0
504,64,0,0,0,0,0,0,0,0,0,-1,1728,960,0,0
511,64,0,0,0,0,0,0,0,0,0,-1,1735,960,0,0
518,64,0,0,0,0,0,0,0,0,0,-1,1742,960,0,0
525,64,0,0,0,0,0,0,0,0,0,-1,1749,960,0,0
532,64,0,0,0,0,0,0,0,0,0,-1,1756,960,0,0
539,64,0,0,0,0,0,0,0,0,0,-1,1763,960,0,0
546,64,0,0,0,0,0,0,0,0,0,-1,1770,960,0,0
553,64,0,0,0,0,0,0,0,0,0,-1,1777,960,0,0
560,64,0,0,0,0,0,0,0,0,0,-1,1784,960,0,0
567,64,0,0,0,0,0,0,0,0,0,-1,1791,960,0,0
574,64,0,0,0,0,0,0,0,0,0,-1,1798,960,0,0
581,64,0,0,0,0,0,0,0,0,0,-1,1805,960,0,0
588,64,0,0,0,0,0,0,0,0,0,-1,1812,960,0,0
595,64,0,0,0,0,0,0,0,0,0,-1,1819,960,0,0
602,64,0,0,0,0,0,0,0,0,0,-1,1826,960,0,0
609,64,0,0,0,0,0,0,0,0,0,-1,1833,960,0,0
616,64,0,0,0,0,0,0,0,0,0,-1,1840,960,0,0
623,64,0,0,0,0,0,0,0,0,0,-1,1847,960,0,0
630,64,0,0,0,0,0,0,0,0,0,-1,1854,960,0,0
637,64,0,0,0,0,0,0,0,0,0,-1,1861,960,0,0
644,64,29.2067,2.7807,0.00616009,0.00348323,-0.00594709,0.0109175,-0.00127418,-0.674714,0.00773811,0.0414446,1868,960,29.2067,-2.78072
651,64,29.2559,2.68024,0.00456859,0.00280571,-0.00432178,0.0080979,-0.000723598,-0.684801,0.00565525,0.0402983,1875,960,29.2559,-2.68026
658,64,29.238,2.70752,0.00311039,0.00231551,-0.00277779,0.00551903,-9.31241e-05,-0.714342,0.00371078,0.0372759,1882,960,29.2381,-2.70752
665,64,29.2577,2.77032,0.00171522,0.0020714,-0.00110921,0.00301673,0.000769892,-0.864997,0.00180995,0.0385767,1889,960,29.2577,-2.77034
672,64,29.2029,2.67426,0.000356278,0.00197039,0.000474007,0.00209929,0.000227374,1.30527,0.00133023,0.0420667,1896,960,29.2029,-2.67424
679,64,29.2111,2.52832,-0.000836509,0.00190744,0.00175811,0.00276555,-0.00169462,1.11673,0.0025997,0.041365,1903,960,29.2111,-2.52832
686,64,29.1787,2.47754,-0.00167636,0.00181491,0.00261214,0.00321101,-0.00307246,1.07996,0.00362806,0.0354236,1910,960,29.1787,-2.47755
693,64,29.1824,2.45276,-0.00228798,0.0017456,0.0031614,0.00347872,-0.00402111,1.06932,0.0043338,0.0325573,1917,960,29.1823,-2.45277
700,64,29.2375,2.53583,-0.00275796,0.00170336,0.00344486,0.00357671,-0.00463131,1.07272,0.00475192,0.028889,1924,960,29.2375,-2.53585
707,64,29.1317,2.95587,-0.00307393,0.00171684,0.00342253,0.00349896,-0.00485606,1.09072,0.00484494,0.035379,1931,960,29.1317,-2.95587
714,64,28.5388,3.75537,0,0,0,0,0,0,0,-1,1938,960,28.5388,-3.75539
721,64,28.0294,3.83136,-0.00378268,0.00191176,0.00310033,0.0032739,-0.00514482,1.15683,0.0049004,0.0341857,1945,960,28.0295,-3.83139
728,64,27.8688,4.10315,-0.00391149,0.002226,0.00242775,0.00307021,-0.00475569,1.23614,0.00455308,0.0163923,1952,960,27.8688,-4.10317
735,64,27.8618,4.27136,-0.00362049,0.0025439,0.00157318,0.00292217,-0.00399876,1.33483,0.00401188,0.0219626,1959,960,27.8618,-4.27138
742,64,27.8878,4.39703,-0.00301886,0.00251914,0.0013034,0.00281057,-0.00331029,1.35083,0.0035378,0.0200279,1966,960,27.8878,-4.39703
749,64,27.8524,4.58185,-0.0023726,0.00229839,0.0008534,0.00244943,-0.00252363,1.39563,0.0028713,0.0145343,1973,960,27.8525,-4.58183
756,64,27.8594,4.74341,-0.00116356,0.00210796,0.000568978,0.00220409,-0.00125969,1.40342,0.00202444,0.0141421,1980,960,27.8594,-4.74344
763,64,27.8641,4.90759,0.000431386,0.00165969,0.000577776,0.00188875,0.000202325,1.19335,0.00119744,0.0133012,1987,960,27.8641,-4.90762
770,64,27.811,5.06683,0.00256332,0.000855176,0.0012535,0.00322605,0.000192445,0.486348,0.00208951,0.0138115,1994,960,27.8111,-5.06685
777,64,27.7321,5.19659,0.00527233,-0.000301697,0.00250394,0.00623194,-0.0012613,0.365974,0.00463265,0.0307504,2001,960,27.7321,-5.19658
784,64,27.8735,4.82513,0.00861932,-0.00209492,0.0043375,0.0101551,-0.00363075,0.340305,0.00825106,0.0436368,2008,960,27.8735,-4.82516
791,64,27.8682,4.5108,0.0129821,-0.00473744,0.0067962,0.0152885,-0.00704387,0.327174,0.0131832,0.0469781,2015,960,27.8682,-4.51083
798,64,28.0959,4.37299,0.0186238,-0.00833238,0.00992714,0.0218851,-0.0115937,0.317415,0.019631,0.0464775,2022,960,28.0959,-4.37298
805,64,28.5952,4.3894,0.025618,-0.0129135,0.0139137,0.030117,-0.0174124,0.312735,0.0277659,0.0468772,2029,960,28.5953,-4.38941
812,64,0,0,0,0,0,0,0,0,0,-1,2036,960,0,0
-700,57,0,0,0,0,0,0,0,0,0,-1,524,967,0,0
-693,57,0,0,0,0,0,0,0,0,0,-1,531,967,0,0
-686,57,-19.9235,-1.23798,0.0946823,-0.0574202,0.0751769,0.125567,-0.0883052,0.389808,0.124102,0.0459312,538,967,-19.9235,1.238
-679,57,-19.2474,0.189453,0.0880106,-0.0454834,0.0638328,0.11362,-0.0710932,0.381542,0.107583,0.0425113,545,967,-19.2474,-0.189444
-672,57,-18.7787,1.52258,0.0779042,-0.0355041,0.0532533,0.0989899,-0.0565899,0.377012,0.0909292,0.0439684,552,967,-18.7787,-1.52259
-665,57,-18.5673,2.60071,0,0,0,0,0,0,0,-1,559,967,-18.5672,-2.60072
-658,57,-19.9443,2.21698,0,0,0,0,0,0,0,-1,566,967,-19.9443,-2.21701
-651,57,-19.994,2.27838,0.0433906,-0.0138129,0.0267682,0.0539628,-0.024385,0.376148,0.0462961,0.0453518,573,967,-19.994,-2.27836
-644,57,-19.9507,2.44226,0.0327584,-0.00888977,0.0198344,0.0406928,-0.0168241,0.380531,0.0341472,0.0312159,580,967,-19.9507,-2.44226
-637,57,-19.9782,2.36346,0.0237587,-0.00430299,0.0138803,0.0294643,-0.0100086,0.390002,0.0236945,0.0165802,587,967,-19.9782,-2.36348
-630,57,-20.0486,2.25031,0.015739,-0.000799537,0.00782918,0.0188573,-0.00391784,0.379034,0.0140606,0.0133951,594,967,-20.0486,-2.25031
-623,57,-20.0452,2.1402,0.00740677,0.00107489,0.0035056,0.00896443,-0.000482769,0.418133,0.00614353,0.0128506,601,967,-20.0452,-2.14017
-616,57,-20.0574,2.0105,0.00051685,0.00191655,0.000563436,0.00211517,0.00031823,1.23188,0.00131692,0.0142533,608,967,-20.0574,-2.01053
-609,57,-20.0548,1.8656,-0.00230902,0.00198771,-0.000740486,0.00211174,-0.00243305,-1.40483,0.00262612,0.0141532,615,967,-20.0548,-1.86558
-602,57,-20.0325,1.73468,-0.00404088,0.00171307,-0.00195316,0.00231342,-0.00464124,-1.27259,0.00408956,0.0113878,622,967,-20.0325,-1.7347
-595,57,-20.0356,1.6311,-0.00539664,0.00160318,-0.00272552,0.00253925,-0.0063327,-1.23997,0.00527599,0.0126746,629,967,-20.0357,-1.63113
-588,57,-20.073,1.54626,-0.0060055,0.00122065,-0.00339896,0.00256814,-0.007353,-1.19336,0.00594589,0.0190615,636,967,-20.073,-1.54624
-581,57,-20.2767,1.19885,-0.00603041,0.000902556,-0.00374999,0.00254283,-0.00767068,-1.15846,0.00613951,0.0302238,643,967,-20.2767,-1.19888
-574,57,-20.5323,0.709961,-0.00591068,0.000773943,-0.00389767,0.00256611,-0.00770285,-1.13982,0.00617108,0.0310129,650,967,-20.5323,-0.70994
-567,57,-20.5308,0.681885,-0.00549557,0.000652364,-0.00382543,0.00248586,-0.00732906,-1.12385,0.00589213,0.0303047,657,967,-20.5308,-0.681873
-560,57,-20.5778,0.659363,-0.00450598,0.000510212,-0.00355304,0.00235121,-0.00634698,-1.09274,0.00519553,0.0388194,664,967,-20.5778,-0.659389
-553,57,-20.5175,0.533264,-0.00290613,0.000386401,-0.00309238,0.00224342,-0.00476314,-1.03,0.00413152,0.0397111,671,967,-20.5175,-0.533234
-546,57,-20.4233,0.52771,-0.000700267,0.000297071,-0.00247393,0.00232209,-0.00272529,-0.88485,0.00291721,0.0383648,678,967,-20.4233,-0.527736
-539,57,-20.5072,0.557251,0.00207416,0.000297019,-0.00180044,0.00319336,-0.000822181,-0.556169,0.0024494,0.0410834,685,967,-20.5072,-0.557242
-532,57,-20.6212,0.730469,0.0049805,0.000599973,-0.0014114,0.00539587,0.000184606,-0.286214,0.00353732,0.0398443,692,967,-20.6211,-0.730447
-525,57,-20.7335,0.877136,0.00648141,0.00162605,-0.00163773,0.00698217,0.00112528,-0.29674,0.00432872,0.0399738,699,967,-20.7334,-0.877138
-518,57,0,0,0,0,0,0,0,0,0,-1,706,967,0,0
-511,57,0,0,0,0,0,0,0,0,0,-1,713,967,0,0
-504,57,0,0,0,0,0,0,0,0,0,-1,720,967,0,0
-497,57,0,0,0,0,0,0,0,0,0,-1,727,967,0,0
-490,57,0,0,0,0,0,0,0,0,0,-1,734,967,0,0
-483,57,0,0,0,0,0,0,0,0,0,-1,741,967,0,0
-476,57,0,0,0,0,0,0,0,0,0,-1,748,967,0,0
-469,57,0,0,0,0,0,0,0,0,0,-1,755,967,0,0
-462,57,0,0,0,0,0,0,0,0,0,-1,762,967,0,0
-455,57,0,0,0,0,0,0,0,0,0,-1,769,967,0,0
-448,57,0,0,0,0,0,0,0,0,0,-1,776,967,0,0
-441,57,0,0,0,0,0,0,0,0,0,-1,783,967,0,0
-434,57,0,0,0,0,0,0,0,0,0,-1,790,967,0,0
-427,57,0,0,0,0,0,0,0,0,0,-1,797,967,0,0
-420,57,0,0,0,0,0,0,0,0,0,-1,804,967,0,0
-413,57,0,0,0,0,0,0,0,0,0,-1,811,967,0,0
-406,57,0,0,0,0,0,0,0,0,0,-1,818,967,0,0
-399,57,0,0,0,0,0,0,0,0,0,-1,825,967,0,0
-392,57,0,0,0,0,0,0,0,0,0,-1,832,967,0,0
-385,57,0,0,0,0,0,0,0,0,0,-1,839,967,0,0
-378,57,0,0,0,0,0,0,0,0,0,-1,846,967,0,0
-371,57,0,0,0,0,0,0,0,0,0,-1,853,967,0,0
-364,57,0,0,0,0,0,0,0,0,0,-1,860,967,0,0
-357,57,0,0,0,0,0,0,0,0,0,-1,867,967,0,0
-350,57,0,0,0,0,0,0,0,0,0,-1,874,967,0,0
-343,57,0,0,0,0,0,0,0,0,0,-1,881,967,0,0
-336,57,0,0,0,0,0,0,0,0,0,-1,888,967,0,0
-329,57,0,0,0,0,0,0,0,0,0,-1,895,967,0,0
-322,57,0,0,0,0,0,0,0,0,0,-1,902,967,0,0
-315,57,0,0,0,0,0,0,0,0,0,-1,909,967,0,0
-308,57,0,0,0,0,0,0,0,0,0,-1,916,967,0,0
-301,57,0,0,0,0,0,0,0,0,0,-1,923,967,0,0
-294,57,0,0,0,0,0,0,0,0,0,-1,930,967,0,0
-287,57,0,0,0,0,0,0,0,0,0,-1,937,967,0,0
-280,57,0,0,0,0,0,0,0,0,0,-1,944,967,0,0
-273,57,0,0,0,0,0,0,0,0,0,-1,951,967,0,0
-266,57,0,0,0,0,0,0,0,0,0,-1,958,967,0,0
-259,57,0,0,0,0,0,0,0,0,0,-1,965,967,0,0
-252,57,0,0,0,0,0,0,0,0,0,-1,972,967,0,0
-245,57,0,0,0,0,0,0,0,0,0,-1,979,967,0,0
-238,57,0,0,0,0,0,0,0,0,0,-1,986,967,0,0
-231,57,0,0,0,0,0,0,0,0,0,-1,993,967,0,0
-224,57,0,0,0,0,0,0,0,0,0,-1,1000,967,0,0
-217,57,0,0,0,0,0,0,0,0,0,-1,1007,967,0,0
-210,57,0,0,0,0,0,0,0,0,0,-1,1014,967,0,0
-203,57,0,0,0,0,0,0,0,0,0,-1,1021,967,0,0
-196,57,0,0,0,0,0,0,0,0,0,-1,1028,967,0,0
-189,57,0,0,0,0,0,0,0,0,0,-1,1035,967,0,0
-182,57,0,0,0,0,0,0,0,0,0,-1,1042,967,0,0
-175,57,0,0,0,0,0,0,0,0,0,-1,1049,967,0,0
-168,57,0,0,0,0,0,0,0,0,0,-1,1056,967,0,0
-161,57,0,0,0,0,0,0,0,0,0,-1,1063,967,0,0
-154,57,0,0,0,0,0,0,0,0,0,-1,1070,967,0,0
-147,57,0,0,0,0,0,0,0,0,0,-1,1077,967,0,0
-140,57,0,0,0,0,0,0,0,0,0,-1,1084,967,0,0
-133,57,0,0,0,0,0,0,0,0,0,-1,1091,967,0,0
-126,57,0,0,0,0,0,0,0,0,0,-1,1098,967,0,0
-119,57,0,0,0,0,0,0,0,0,0,-1,1105,967,0,0
-112,57,0,0,0,0,0,0,0,0,0,-1,1112,967,0,0
-105,57,0,0,0,0,0,0,0,0,0,-1,1119,967,0,0
-98,57,0,0,0,0,0,0,0,0,0,-1,1126,967,0,0
-91,57,0,0,0,0,0,0,0,0,0,-1,1133,967,0,0
-84,57,0,0,0,0,0,0,0,0,0,-1,1140,967,0,0
-77,57,0,0,0,0,0,0,0,0,0,-1,1147,967,0,0
-70,57,0,0,0,0,0,0,0,0,0,-1,1154,967,0,0
-63,57,0,0,0,0,0,0,0,0,0,-1,1161,967,0,0
-56,57,0,0,0,0,0,0,0,0,0,-1,1168,967,0,0
-49,57,0,0,0,0,0,0,0,0,0,-1,1175,967,0,0
-42,57,0,0,0,0,0,0,0,0,0,-1,1182,967,0,0
-35,57,0,0,0,0,0,0,0,0,0,-1,1189,967,0,0
-28,57,0,0,0,0,0,0,0,0,0,-1,1196,967,0,0
-21,57,0,0,0,0,0,0,0,0,0,-1,1203,967,0,0
-14,57,0,0,0,0,0,0,0,0,0,-1,1210,967,0,0
-7,57,0,0,0,0,0,0,0,0,0,-1,1217,967,0,0
0,57,0,0,0,0,0,0,0,0,0,-1,1224,967,0,0
7,57,0,0,0,0,0,0,0,0,0,-1,1231,967,0,0
14,57,0,0,0,0,0,0,0,0,0,-1,1238,967,0,0
21,57,0,0,0,0,0,0,0,0,0,-1,1245,967,0,0
28,57,0,0,0,0,0,0,0,0,0,-1,1252,967,0,0
35,57,0,0,0,0,0,0,0,0,0,-1,1259,967,0,0
42,57,0,0,0,0,0,0,0,0,0,-1,1266,967,0,0
49,57,0,0,0,0,0,0,0,0,0,-1,1273,967,0,0
56,57,0,0,0,0,0,0,0,0,0,-1,1280,967,0,0
63,57,0,0,0,0,0,0,0,0,0,-1,1287,967,0,0
70,57,0,0,0,0,0,0,0,0,0,-1,1294,967,0,0
77,57,0,0,0,0,0,0,0,0,0,-1,1301,967,0,0
84,57,0,0,0,0,0,0,0,0,0,-1,1308,967,0,0
91,57,0,0,0,0,0,0,0,0,0,-1,1315,967,0,0
98,57,0,0,0,0,0,0,0,0,0,-1,1322,967,0,0
105,57,0,0,0,0,0,0,0,0,0,-1,1329,967,0,0
112,57,0,0,0,0,0,0,0,0,0,-1,1336,967,0,0
119,57,0,0,0,0,0,0,0,0,0,-1,1343,967,0,0
126,57,0,0,0,0,0,0,0,0,0,-1,1350,967,0,0
133,57,0,0,0,0,0,0,0,0,0,-1,1357,967,0,0
140,57,0,0,0,0,0,0,0,0,0,-1,1364,967,0,0
147,57,0,0,0,0,0,0,0,0,0,-1,1371,967,0,0
154,57,0,0,0,0,0,0,0,0,0,-1,1378,967,0,0
161,57,0,0,0,0,0,0,0,0,0,-1,1385,967,0,0
168,57,0,0,0,0,0,0,0,0,0,-1,1392,967,0,0
175,57,0,0,0,0,0,0,0,0,0,-1,1399,967,0,0
182,57,0,0,0,0,0,0,0,0,0,-1,1406,967,0,0
189,57,0,0,0,0,0,0,0,0,0,-1,1413,967,0,0
196,57,0,0,0,0,0,0,0,0,0,-1,1420,967,0,0
203,57,0,0,0,0,0,0,0,0,0,-1,1427,967,0,0
210,57,0,0,0,0,0,0,0,0,0,-1,1434,967,0,0
217,57,0,0,0,0,0,0,0,0,0,-1,1441,967,0,0
224,57,0,0,0,0,0,0,0,0,0,-1,1448,967,0,0
231,57,0,0,0,0,0,0,0,0,0,-1,1455,967,0,0
238,57,0,0,0,0,0,0,0,0,0,-1,1462,967,0,0
245,57,0,0,0,0,0,0,0,0,0,-1,1469,967,0,0
252,57,0,0,0,0,0,0,0,0,0,-1,1476,967,0,0
259,57,0,0,0,0,0,0,0,0,0,-1,1483,967,0,0
266,57,0,0,0,0,0,0,0,0,0,-1,1490,967,0,0
273,57,0,0,0,0,0,0,0,0,0,-1,1497,967,0,0
280,57,0,0,0,0,0,0,0,0,0,-1,1504,967,0,0
287,57,0,0,0,0,0,0,0,0,0,-1,1511,967,0,0
294,57,0,0,0,0,0,0,0,0,0,-1,1518,967,0,0
301,57,0,0,0,0,0,0,0,0,0,-1,1525,967,0,0
308,57,0,0,0,0,0,0,0,0,0,-1,1532,967,0,0
315,57,0,0,0,0,0,0,0,0,0,-1,1539,967,0,0
322,57,0,0,0,0,0,0,0,0,0,-1,1546,967,0,0
329,57,0,0,0,0,0,0,0,0,0,-1,1553,967,0,0
336,57,0,0,0,0,0,0,0,0,0,-1,1560,967,0,0
343,57,0,0,0,0,0,0,0,0,0,-1,1567,967,0,0
350,57,0,0,0,0,0,0,0,0,0,-1,1574,967,0,0
357,57,0,0,0,0,0,0,0,0,0,-1,1581,967,0,0
364,57,0,0,0,0,0,0,0,0,0,-1,1588,967,0,0
371,57,0,0,0,0,0,0,0,0,0,-1,1595,967,0,0
378,57,0,0,0,0,0,0,0,0,0,-1,1602,967,0,0
385,57,0,0,0,0,0,0,0,0,0,-1,1609,967,0,0
392,57,0,0,0,0,0,0,0,0,0,-1,1616,967,0,0
399,57,0,0,0,0,0,0,0,0,0,-1,1623,967,0,0
406,57,0,0,0,0,0,0,0,0,0,-1,1630,967,0,0
413,57,0,0,0,0,0,0,0,0,0,-1,1637,967,0,0
420,57,0,0,0,0,0,0,0,0,0,-1,1644,967,0,0
427,57,0,0,0,0,0,0,0,0,0,-1,1651,967,0,0
434,57,0,0,0,0,0,0,0,0,0,-1,1658,967,0,0
441,57,0,0,0,0,0,0,0,0,0,-1,1665,967,0,0
448,57,0,0,0,0,0,0,0,0,0,-1,1672,967,0,0
455,57,0,0,0,0,0,0,0,0,0,-1,1679,967,0,0
462,57,0,0,0,0,0,0,0,0,0,-1,1686,967,0,0
469,57,0,0,0,0,0,0,0,0,0,-1,1693,967,0,0
476,57,0,0,0,0,0,0,0,0,0,-1,1700,967,0,0
483,57,0,0,0,0,0,0,0,0,0,-1,1707,967,0,0
490,57,0,0,0,0,0,0,0,0,0,-1,1714,967,0,0
497,57,0,0,0,0,0,0,0,0,0,-1,1721,967,0,0
504,57,0,0,0,0,0,0,0,0,0,-1,1728,967,0,0
511,57,0,0,0,0,0,0,0,0,0,-1,1735,967,0,0
518,57,0,0,0,0,0,0,0,0,0,-1,1742,967,0,0
525,57,0,0,0,0,0,0,0,0,0,-1,1749,967,0,0
532,57,0,0,0,0,0,0,0,0,0,-1,1756,967,0,0
539,57,0,0,0,0,0,0,0,0,0,-1,1763,967,0,0
546,57,0,0,0,0,0,0,0,0,0,-1,1770,967,0,0
553,57,0,0,0,0,0,0,0,0,0,-1,1777,967,0,0
560,57,0,0,0,0,0,0,0,0,0,-1,1784,967,0,0
567,57,0,0,0,0,0,0,0,0,0,-1,1791,967,0,0
574,57,0,0,0,0,0,0,0,0,0,-1,1798,967,0,0
581,57,0,0,0,0,0,0,0,0,0,-1,1805,967,0,0
588,57,0,0,0,0,0,0,0,0,0,-1,1812,967,0,0
595,57,0,0,0,0,0,0,0,0,0,-1,1819,967,0,0
602,57,0,0,0,0,0,0,0,0,0,-1,1826,967,0,0
609,57,0,0,0,0,0,0,0,0,0,-1,1833,967,0,0
616,57,0,0,0,0,0,0,0,0,0,-1,1840,967,0,0
623,57,0,0,0,0,0,0,0,0,0,-1,1847,967,0,0
630,57,0,0,0,0,0,0,0,0,0,-1,1854,967,0,0
637,57,0,0,0,0,0,0,0,0,0,-1,1861,967,0,0
644,57,29.1957,2.80768,0.00659164,0.00391401,-0.00520431,0.0106266,-0.000120936,-0.659502,0.00712505,0.0401254,1868,967,29.1956,-2.80767
651,57,29.1962,2.63757,0.00492081,0.00310974,-0.00373562,0.00785908,0.000171473,-0.666489,0.00518317,0.0341262,1875,967,29.1962,-2.6376
658,57,29.1681,2.52179,0.00344189,0.00249781,-0.00238318,0.00539933,0.000540367,-0.687627,0.00343363,0.0342389,1882,967,29.1681,-2.52179
665,57,29.2139,2.47986,0.00204227,0.00217389,-0.00087158,0.00298214,0.00123402,-0.823079,0.00173025,0.0406344,1889,967,29.2138,-2.47986
672,57,29.36,2.40106,0.000656466,0.00205439,0.000644097,0.0023059,0.000404949,1.19851,0.00142164,0.0445848,1896,967,29.36,-2.40109
679,57,29.3246,2.53766,-0.000614876,0.00201133,0.00192749,0.00303049,-0.00163404,1.08441,0.002733,0.0433279,1903,967,29.3246,-2.53766
686,57,29.2083,2.63092,-0.00151943,0.00194046,0.00280945,0.00350987,-0.00308883,1.06136,0.00381235,0.0370405,1910,967,29.2083,-2.63091
693,57,29.1862,2.61829,-0.0021869,0.00187477,0.00339248,0.00379782,-0.00410995,1.0551,0.00456674,0.030727,1917,967,29.1862,-2.6183
700,57,29.2598,2.61975,-0.0027054,0.0018343,0.00369347,0.00389965,-0.00477076,1.06093,0.00501428,0.0245347,1924,967,29.2598,-2.61976
707,57,29.1659,2.94531,-0.00306675,0.00187587,0.00370117,0.00385496,-0.00504584,1.07976,0.00515419,0.0396254,1931,967,29.1659,-2.94533
714,57,28.8108,3.73578,0,0,0,0,0,0,0,-1,1938,967,28.8108,-3.73575
721,57,28.2222,3.84222,-0.00385887,0.00212886,0.00337401,0.00364577,-0.00537579,1.14828,0.00524043,0.0404767,1945,967,28.2221,-3.84223
728,57,28.0212,4.1543,-0.00399048,0.00246959,0.00267793,0.00343532,-0.0049562,1.22469,0.0048713,0.0198321,1952,967,28.0213,-4.15428
735,57,28.0436,4.32111,-0.00375379,0.00278308,0.00175152,0.00322281,-0.00419352,1.32482,0.00429403,0.0230311,1959,967,28.0435,-4.32111
742,57,28.0804,4.40631,-0.00333694,0.00278709,0.00139568,0.00309017,-0.00364002,1.35696,0.00389,0.0185027,1966,967,28.0805,-4.40632
749,57,28.0431,4.59509,-0.00282986,0.00255415,0.000909451,0.00270363,-0.00297933,1.4079,0.00328234,0.0151124,1973,967,28.043,-4.59511
756,57,28.0209,4.737,-0.00180657,0.00240389,0.000488418,0.0024598,-0.00186249,1.45681,0.00250341,0.0121213,1980,967,28.0208,-4.73702
763,57,28.0151,4.86121,-0.000447616,0.00197334,0.000284846,0.0020064,-0.000480679,1.45524,0.00152332,0.0115996,1987,967,28.0151,-4.86123
770,57,27.983,4.99878,0.00142516,0.00117975,0.000767575,0.00207978,0.000525137,0.706139,0.00124884,0.0110516,1994,967,27.983,-4.99877
777,57,27.8534,5.08197,0.00382331,2.44034e-05,0.00188486,0.00459979,-0.000752081,0.390772,0.00334552,0.0259916,2001,967,27.8534,-5.08199
784,57,27.6372,4.73834,0.00674421,-0.00176994,0.00362101,0.00807591,-0.00310164,0.352417,0.00666297,0.0426483,2008,967,27.6372,-4.73834
791,57,27.4307,4.49756,0.0106191,-0.00446293,0.00604877,0.0127453,-0.0065891,0.338015,0.0113498,0.0471205,2015,967,27.4307,-4.49758
798,57,27.7554,4.46356,0.0157453,-0.00818951,0.00925395,0.0189059,-0.01135,0.329112,0.0176489,0.0484936,2022,967,27.7554,-4.46357
805,57,28.1624,4.28754,0.0221888,-0.0129951,0.0134744,0.0267562,-0.0175625,0.326812,0.0257703,0.0483339,2029,967,28.1623,-4.28755
812,57,0,0,0,0,0,0,0,0,0,-1,2036,967,0,0
-700,50,0,0,0,0,0,0,0,0,0,-1,524,974,0,0
-693,50,-20.1203,-2.07855,0.0921805,-0.0698523,0.0827593,0.126978,-0.104649,0.39802,0.133937,0.047177,531,974,-20.1203,2.07857
-686,50,-20.047,-0.737915,0.091737,-0.0552364,0.0720132,0.12114,-0.084639,0.387636,0.119428,0.0465315,538,974,-20.047,0.737892
-679,50,-19.729,0.386841,0,0,0,0,0,0,0,-1,545,974,-19.729,-0.386838
-672,50,-19.2123,2.12512,0,0,0,0,0,0,0,-1,552,974,-19.2123,-2.12514
-665,50,-18.8732,3.0777,0,0,0,0,0,0,0,-1,559,974,-18.8732,-3.0777
-658,50,-19.6266,2.11627,0,0,0,0,0,0,0,-1,566,974,-19.6266,-2.11628
-651,50,-19.8381,2.18524,0.0391554,-0.0126101,0.0256181,0.0496897,-0.0231444,0.39013,0.0429717,0.0436598,573,974,-19.8382,-2.18526
-644,50,-20.0273,2.29486,0.0290895,-0.00789713,0.0188565,0.0370077,-0.0158153,0.39756,0.0313049,0.0286691,580,974,-20.0273,-2.29485
-637,50,-20.1276,2.28485,0.0207011,-0.00344254,0.0130258,0.0263888,-0.00913023,0.411696,0.0212986,0.0162217,587,974,-20.1276,-2.28483
-630,50,-20.1663,2.21057,0.0130424,-0.000109028,0.00702187,0.0160868,-0.00315342,0.409098,0.0119156,0.0107767,594,974,-20.1663,-2.21056
-623,50,-20.1555,2.11743,0.00546822,0.00155837,0.00276565,0.00690012,0.000126474,0.477742,0.00455851,0.0109374,601,974,-20.1555,-2.11745
-616,50,-20.1523,2.01013,-0.000177381,0.00220988,-8.13927e-05,0.00221265,-0.000180153,-1.53675,0.00153867,0.0106708,608,974,-20.1523,-2.01011
-609,50,-20.1686,1.86658,-0.00229094,0.0021316,-0.00152372,0.00260574,-0.00276508,-1.26912,0.0031013,0.00999256,615,974,-20.1686,-1.86659
-602,50,-20.1898,1.7442,-0.0036429,0.00184221,-0.00275328,0.0029858,-0.00478649,-1.17712,0.0045273,0.0111528,622,974,-20.1898,-1.74421
-595,50,-20.1733,1.64825,-0.00469223,0.00157892,-0.00350642,0.00314726,-0.00626057,-1.15021,0.00552987,0.0116892,629,974,-20.1734,-1.64827
-588,50,-20.2056,1.48871,-0.00508344,0.001063,-0.0041745,0.00317351,-0.00719395,-1.1027,0.00613385,0.0137611,636,974,-20.2056,-1.4887
-581,50,-20.4268,1.00763,-0.00500612,0.000632015,-0.0045381,0.00315537,-0.00752947,-1.06333,0.00633886,0.0233354,643,974,-20.4268,-1.00763
-574,50,-20.5381,0.604614,-0.00482066,0.00034682,-0.00469126,0.00311879,-0.00759263,-1.03711,0.00636151,0.0285907,650,974,-20.5382,-0.604624
-567,50,-20.5198,0.576477,-0.0043254,1.56885e-05,-0.00457423,0.00290823,-0.00721795,-1.00692,0.00602026,0.0338473,657,974,-20.5198,-0.5765
-560,50,-20.5638,0.555054,-0.00327571,-0.00035128,-0.00425163,0.00268255,-0.00630954,-0.951021,0.0053305,0.0397555,664,974,-20.5639,-0.555076
-553,50,-20.5775,0.46991,-0.00162837,-0.000712663,-0.00376776,0.00262496,-0.00496599,-0.845861,0.00445157,0.0417685,671,974,-20.5775,-0.469939
-546,50,-20.5057,0.687317,0.000638423,-0.00103547,-0.00319046,0.00309988,-0.00349693,-0.657124,0.00381097,0.0390465,678,974,-20.5058,-0.687325
-539,50,-20.5062,1.03918,0.00351868,-0.00122007,-0.00269603,0.00473853,-0.00243992,-0.424898,0.00421471,0.0429632,685,974,-20.5062,-1.03916
-532,50,-20.5177,0.815308,0.00652158,-0.000957268,-0.00276773,0.00743442,-0.00187011,-0.318583,0.00568316,0.0422925,692,974,-20.5177,-0.815329
-525,50,-20.6074,0.565613,0.00820676,0.000238172,-0.00378822,0.00972022,-0.00127528,-0.380089,0.00694438,0.0402441,699,974,-20.6073,-0.565622
-518,50,0,0,0,0,0,0,0,0,0,-1,706,974,0,0
-511,50,0,0,0,0,0,0,0,0,0,-1,713,974,0,0
-504,50,0,0,0,0,0,0,0,0,0,-1,720,974,0,0
-497,50,0,0,0,0,0,0,0,0,0,-1,727,974,0,0
-490,50,0,0,0,0,0,0,0,0,0,-1,734,974,0,0
-483,50,0,0,0,0,0,0,0,0,0,-1,741,974,0,0
-476,50,0,0,0,0,0,0,0,0,0,-1,748,974,0,0
-469,50,0,0,0,0,0,0,0,0,0,-1,755,974,0,0
-462,50,0,0,0,0,0,0,0,0,0,-1,762,974,0,0
-455,50,0,0,0,0,0,0,0,0,0,-1,769,974,0,0
-448,50,0,0,0,0,0,0,0,0,0,-1,776,974,0,0
-441,50,0,0,0,0,0,0,0,0,0,-1,783,974,0,0
-434,50,0,0,0,0,0,0,0,0,0,-1,790,974,0,0
-427,50,0,0,0,0,0,0,0,0,0,-1,797,974,0,0
-420,50,0,0,0,0,0,0,0,0,0,-1,804,974,0,0
-413,50,0,0,0,0,0,0,0,0,0,-1,811,974,0,0
-406,50,0,0,0,0,0,0,0,0,0,-1,818,974,0,0
-399,50,0,0,0,0,0,0,0,0,0,-1,825,974,0,0
-392,50,0,0,0,0,0,0,0,0,0,-1,832,974,0,0
-385,50,0,0,0,0,0,0,0,0,0,-1,839,974,0,0
-378,50,0,0,0,0,0,0,0,0,0,-1,846,974,0,0
-371,50,0,0,0,0,0,0,0,0,0,-1,853,974,0,0
-364,50,0,0,0,0,0,0,0,0,0,-1,860,974,0,0
-357,50,0,0,0,0,0,0,0,0,0,-1,867,974,0,0
-350,50,0,0,0,0,0,0,0,0,0,-1,874,974,0,0
-343,50,0,0,0,0,0,0,0,0,0,-1,881,974,0,0
-336,50,0,0,0,0,0,0,0,0,0,-1,888,974,0,0
-329,50,0,0,0,0,0,0,0,0,0,-1,895,974,0,0
-322,50,0,0,0,0,0,0,0,0,0,-1,902,974,0,0
-315,50,0,0,0,0,0,0,0,0,0,-1,909,974,0,0
-308,50,0,0,0,0,0,0,0,0,0,-1,916,974,0,0
-301,50,0,0,0,0,0,0,0,0,0,-1,923,974,0,0
-294,50,0,0,0,0,0,0,0,0,0,-1,930,974,0,0
-287,50,0,0,0,0,0,0,0,0,0,-1,937,974,0,0
-280,50,0,0,0,0,0,0,0,0,0,-1,944,974,0,0
-273,50,0,0,0,0,0,0,0,0,0,-1,951,974,0,0
-266,50,0,0,0,0,0,0,0,0,0,-1,958,974,0,0
-259,50,0,0,0,0,0,0,0,0,0,-1,965,974,0,0
-252,50,0,0,0,0,0,0,0,0,0,-1,972,974,0,0
-245,50,0,0,0,0,0,0,0,0,0,-1,979,974,0,0
-238,50,0,0,0,0,0,0,0,0,0,-1,986,974,0,0
-231,50,0,0,0,0,0,0,0,0,0,-1,993,974,0,0
-224,50,0,0,0,0,0,0,0,0,0,-1,1000,974,0,0
-217,50,0,0,0,0,0,0,0,0,0,-1,1007,974,0,0
-210,50,0,0,0,0,0,0,0,0,0,-1,1014,974,0,0
-203,50,0,0,0,0,0,0,0,0,0,-1,1021,974,0,0
-196,50,0,0,0,0,0,0,0,0,0,-1,1028,974,0,0
-189,50,0,0,0,0,0,0,0,0,0,-1,1035,974,0,0
-182,50,0,0,0,0,0,0,0,0,0,-1,1042,974,0,0
-175,50,0,0,0,0,0,0,0,0,0,-1,1049,974,0,0
-168,50,0,0,0,0,0,0,0,0,0,-1,1056,974,0,0
-161,50,0,0,0,0,0,0,0,0,0,-1,1063,974,0,0
-154,50,0,0,0,0,0,0,0,0,0,-1,1070,974,0,0
-147,50,0,0,0,0,0,0,0,0,0,-1,1077,974,0,0
-140,50,0,0,0,0,0,0,0,0,0,-1,1084,974,0,0
-133,50,0,0,0,0,0,0,0,0,0,-1,1091,974,0,0
-126,50,0,0,0,0,0,0,0,0,0,-1,1098,974,0,0
-119,50,0,0,0,0,0,0,0,0,0,-1,1105,974,0,0
-112,50,0,0,0,0,0,0,0,0,0,-1,1112,974,0,0
-105,50,0,0,0,0,0,0,0,0,0,-1,1119,974,0,0
-98,50,0,0,0,0,0,0,0,0,0,-1,1126,974,0,0
-91,50,0,0,0,0,0,0,0,0,0,-1,1133,974,0,0
-84,50,0,0,0,0,0,0,0,0,0,-1,1140,974,0,0
-77,50,0,0,0,0,0,0,0,0,0,-1,1147,974,0,0
-70,50,0,0,0,0,0,0,0,0,0,-1,1154,974,0,0
-63,50,0,0,0,0,0,0,0,0,0,-1,1161,974,0,0
-56,50,0,0,0,0,0,0,0,0,0,-1,1168,974,0,0
-49,50,0,0,0,0,0,0,0,0,0,-1,1175,974,0,0
-42,50,0,0,0,0,0,0,0,0,0,-1,1182,974,0,0
-35,50,0,0,0,0,0,0,0,0,0,-1,1189,974,0,0
-28,50,0,0,0,0,0,0,0,0,0,-1,1196,974,0,0
-21,50,0,0,0,0,0,0,0,0,0,-1,1203,974,0,0
-14,50,0,0,0,0,0,0,0,0,0,-1,1210,974,0,0
-7,50,0,0,0,0,0,0,0,0,0,-1,1217,974,0,0
0,50,0,0,0,0,0,0,0,0,0,-1,1224,974,0,0
7,50,0,0,0,0,0,0,0,0,0,-1,1231,974,0,0
14,50,0,0,0,0,0,0,0,0,0,-1,1238,974,0,0
21,50,0,0,0,0,0,0,0,0,0,-1,1245,974,0,0
28,50,0,0,0,0,0,0,0,0,0,-1,1252,974,0,0
35,50,0,0,0,0,0,0,0,0,0,-1,1259,974,0,0
42,50,0,0,0,0,0,0,0,0,0,-1,1266,974,0,0
49,50,0,0,0,0,0,0,0,0,0,-1,1273,974,0,0
56,50,0,0,0,0,0,0,0,0,0,-1,1280,974,0,0
63,50,0,0,0,0,0,0,0,0,0,-1,1287,974,0,0
70,50,0,0,0,0,0,0,0,0,0,-1,1294,974,0,0
77,50,0,0,0,0,0,0,0,0,0,-1,1301,974,0,0
84,50,0,0,0,0,0,0,0,0,0,-1,1308,974,0,0
91,50,0,0,0,0,0,0,0,0,0,-1,1315,974,0,0
98,50,0,0,0,0,0,0,0,0,0,-1,1322,974,0,0
105,50,0,0,0,0,0,0,0,0,0,-1,1329,974,0,0
112,50,0,0,0,0,0,0,0,0,0,-1,1336,974,0,0
119,50,0,0,0,0,0,0,0,0,0,-1,1343,974,0,0
126,50,0,0,0,0,0,0,0,0,0,-1,1350,974,0,0
133,50,0,0,0,0,0,0,0,0,0,-1,1357,974,0,0
140,50,0,0,0,0,0,0,0,0,0,-1,1364,974,0,0
147,50,0,0,0,0,0,0,0,0,0,-1,1371,974,0,0
154,50,0,0,0,0,0,0,0,0,0,-1,1378,974,0,0
161,50,0,0,0,0,0,0,0,0,0,-1,1385,974,0,0
168,50,0,0,0,0,0,0,0,0,0,-1,1392,974,0,0
175,50,0,0,0,0,0,0,0,0,0,-1,1399,974,0,0
182,50,0,0,0,0,0,0,0,0,0,-1,1406,974,0,0
189,50,0,0,0,0,0,0,0,0,0,-1,1413,974,0,0
196,50,0,0,0,0,0,0,0,0,0,-1,1420,974,0,0
203,50,0,0,0,0,0,0,0,0,0,-1,1427,974,0,0
210,50,0,0,0,0,0,0,0,0,0,-1,1434,974,0,0
217,50,0,0,0,0,0,0,0,0,0,-1,1441,974,0,0
224,50,0,0,0,0,0,0,0,0,0,-1,1448,974,0,0
231,50,0,0,0,0,0,0,0,0,0,-1,1455,974,0,0
238,50,0,0,0,0,0,0,0,0,0,-1,1462,974,0,0
245,50,0,0,0,0,0,0,0,0,0,-1,1469,974,0,0
252,50,0,0,0,0,0,0,0,0,0,-1,1476,974,0,0
259,50,0,0,0,0,0,0,0,0,0,-1,1483,974,0,0
266,50,0,0,0,0,0,0,0,0,0,-1,1490,974,0,0
273,50,0,0,0,0,0,0,0,0,0,-1,1497,974,0,0
280,50,0,0,0,0,0,0,0,0,0,-1,1504,974,0,0
287,50,0,0,0,0,0,0,0,0,0,-1,1511,974,0,0
294,50,0,0,0,0,0,0,0,0,0,-1,1518,974,0,0
301,50,0,0,0,0,0,0,0,0,0,-1,1525,974,0,0
308,50,0,0,0,0,0,0,0,0,0,-1,1532,974,0,0
315,50,0,0,0,0,0,0,0,0,0,-1,1539,974,0,0
322,50,0,0,0,0,0,0,0,0,0,-1,1546,974,0,0
329,50,0,0,0,0,0,0,0,0,0,-1,1553,974,0,0
336,50,0,0,0,0,0,0,0,0,0,-1,1560,974,0,0
343,50,0,0,0,0,0,0,0,0,0,-1,1567,974,0,0
350,50,0,0,0,0,0,0,0,0,0,-1,1574,974,0,0
357,50,0,0,0,0,0,0,0,0,0,-1,1581,974,0,0
364,50,0,0,0,0,0,0,0,0,0,-1,1588,974,0,0
371,50,0,0,0,0,0,0,0,0,0,-1,1595,974,0,0
378,50,0,0,0,0,0,0,0,0,0,-1,1602,974,0,0
385,50,0,0,0,0,0,0,0,0,0,-1,1609,974,0,0
392,50,0,0,0,0,0,0,0,0,0,-1,1616,974,0,0
399,50,0,0,0,0,0,0,0,0,0,-1,1623,974,0,0
406,50,0,0,0,0,0,0,0,0,0,-1,1630,974,0,0
413,50,0,0,0,0,0,0,0,0,0,-1,1637,974,0,0
420,50,0,0,0,0,0,0,0,0,0,-1,1644,974,0,0
427,50,0,0,0,0,0,0,0,0,0,-1,1651,974,0,0
434,50,0,0,0,0,0,0,0,0,0,-1,1658,974,0,0
441,50,0,0,0,0,0,0,0,0,0,-1,1665,974,0,0
448,50,0,0,0,0,0,0,0,0,0,-1,1672,974,0,0
455,50,0,0,0,0,0,0,0,0,0,-1,1679,974,0,0
462,50,0,0,0,0,0,0,0,0,0,-1,1686,974,0,0
469,50,0,0,0,0,0,0,0,0,0,-1,1693,974,0,0
476,50,0,0,0,0,0,0,0,0,0,-1,1700,974,0,0
483,50,0,0,0,0,0,0,0,0,0,-1,1707,974,0,0
490,50,0,0,0,0,0,0,0,0,0,-1,1714,974,0,0
497,50,0,0,0,0,0,0,0,0,0,-1,1721,974,0,0
504,50,0,0,0,0,0,0,0,0,0,-1,1728,974,0,0
511,50,0,0,0,0,0,0,0,0,0,-1,1735,974,0,0
518,50,0,0,0,0,0,0,0,0,0,-1,1742,974,0,0
525,50,0,0,0,0,0,0,0,0,0,-1,1749,974,0,0
532,50,0,0,0,0,0,0,0,0,0,-1,1756,974,0,0
539,50,0,0,0,0,0,0,0,0,0,-1,1763,974,0,0
546,50,0,0,0,0,0,0,0,0,0,-1,1770,974,0,0
553,50,0,0,0,0,0,0,0,0,0,-1,1777,974,0,0
560,50,0,0,0,0,0,0,0,0,0,-1,1784,974,0,0
567,50,0,0,0,0,0,0,0,0,0,-1,1791,974,0,0
574,50,0,0,0,0,0,0,0,0,0,-1,1798,974,0,0
581,50,0,0,0,0,0,0,0,0,0,-1,1805,974,0,0
588,50,0,0,0,0,0,0,0,0,0,-1,1812,974,0,0
595,50,0,0,0,0,0,0,0,0,0,-1,1819,974,0,0
602,50,0,0,0,0,0,0,0,0,0,-1,1826,974,0,0
609,50,0,0,0,0,0,0,0,0,0,-1,1833,974,0,0
616,50,0,0,0,0,0,0,0,0,0,-1,1840,974,0,0
623,50,0,0,0,0,0,0,0,0,0,-1,1847,974,0,0
630,50,0,0,0,0,0,0,0,0,0,-1,1854,974,0,0
637,50,0,0,0,0,0,0,0,0,0,-1,1861,974,0,0
644,50,29.142,2.80017,0.00699175,0.00401917,-0.00466374,0.0104003,0.000610612,-0.631141,0.00673923,0.0360254,1868,974,29.142,-2.80016
651,50,29.1005,2.61786,0.0051749,0.0030576,-0.00333593,0.00761613,0.000616367,-0.63175,0.00488495,0.03058,1875,974,29.1005,-2.61789
658,50,29.0913,2.43683,0.00363348,0.00231883,-0.00215465,0.00522884,0.000723475,-0.637346,0.00327151,0.0366406,1882,974,29.0913,-2.43681
665,50,29.3488,2.26654,0.0022067,0.00191952,-0.00078729,0.00286339,0.00126283,-0.695198,0.00165701,0.0410195,1889,974,29.3488,-2.26653
672,50,29.464,2.23322,0.000793183,0.00179762,0.000660682,0.00212529,0.000465507,1.11038,0.00129,0.041549,1896,974,29.4639,-2.23319
679,50,29.1997,2.5188,-0.000544839,0.00180361,0.00194651,0.00290265,-0.00164388,1.0568,0.00265826,0.0414589,1903,974,29.1997,-2.51881
686,50,29.1675,2.7132,-0.00149382,0.00178496,0.00285989,0.00344201,-0.00315088,1.04565,0.00380764,0.0404315,1910,974,29.1674,-2.71319
693,50,29.1969,2.69684,-0.00218728,0.00176422,0.00347285,0.00378401,-0.00420706,1.04402,0.0046158,0.0361222,1917,974,29.197,-2.69686
700,50,29.2175,2.63715,-0.00271622,0.00176119,0.00378949,0.00392385,-0.00487888,1.0522,0.00509222,0.0219999,1924,974,29.2175,-2.63716
707,50,29.1981,2.83356,-0.00309814,0.00187791,0.00384636,0.00397079,-0.00519102,1.07248,0.00530519,0.0328502,1931,974,29.1981,-2.83354
714,50,29.0865,3.31104,-0.00351737,0.00200502,0.00378528,0.00392918,-0.00544153,1.10051,0.00543362,0.0489496,1938,974,29.0866,-3.31103
721,50,28.1869,3.91687,0,0,0,0,0,0,0,-1,1945,974,28.1869,-3.91684
728,50,28.1591,4.15381,-0.00403153,0.00258434,0.00287852,0.00366141,-0.0051086,1.21275,0.0050863,0.0216276,1952,974,28.159,-4.15382
735,50,28.2067,4.29071,-0.00385451,0.00293717,0.0019377,0.00345111,-0.00436846,1.31153,0.00452497,0.0189094,1959,974,28.2067,-4.29069
742,50,28.2184,4.40759,-0.00361431,0.00304336,0.00149288,0.00336279,-0.00393374,1.36001,0.00421696,0.0157127,1966,974,28.2183,-4.40758
749,50,28.2035,4.5257,-0.00325758,0.0028927,0.000950193,0.00303615,-0.00340103,1.42095,0.0037185,0.0174278,1973,974,28.2035,-4.52567
756,50,28.1708,4.67487,-0.00244299,0.00286245,0.000396329,0.00289189,-0.00247243,1.49664,0.00310025,0.0132691,1980,974,28.1708,-4.67488
763,50,28.1626,4.81738,-0.00134448,0.00258152,-3.45257e-05,0.00258182,-0.00134479,-1.562,0.00230423,0.0120105,1987,974,28.1626,-4.81741
770,50,28.1312,4.93121,0.000211581,0.00198118,0.000184348,0.00200018,0.00019258,1.46809,0.00127412,0.0109319,1994,974,28.1312,-4.93122
777,50,28.0751,5.01013,0.00221763,0.00105713,0.00105337,0.00283999,0.000434764,0.533651,0.00176633,0.0221171,2001,974,28.075,-5.01011
784,50,27.8593,4.64856,0.00463055,-0.000451044,0.00253712,0.00568039,-0.00150088,0.392337,0.00437391,0.0378537,2008,974,27.8593,-4.64855
791,50,27.4829,4.32288,0,0,0,0,0,0,0,-1,2015,974,27.4829,-4.3229
798,50,27.1553,4.52942,0,0,0,0,0,0,0,-1,2022,974,27.1553,-4.52943
805,50,27.6304,4.29047,0,0,0,0,0,0,0,-1,2029,974,27.6303,-4.29045
812,50,0,0,0,0,0,0,0,0,0,-1,2036,974,0,0
-700,43,0,0,0,0,0,0,0,0,0,-1,524,981,0,0
-693,43,-19.9756,-0.96759,0.0892603,-0.0662715,0.0773521,0.12118,-0.0981909,0.391365,0.126885,0.0442518,531,981,-19.9756,0.96762
-686,43,-20.2172,-0.0618286,0.083756,-0.0526619,0.0673895,0.111431,-0.0803373,0.389678,0.111202,0.0438167,538,981,-20.2172,0.0618177
-679,43,-19.7508,1.12006,0.0739673,-0.0414864,0.0573531,0.0976147,-0.0651338,0.391075,0.0945846,0.0429666,545,981,-19.7508,-1.12003
-672,43,-19.7015,2.75854,0,0,0,0,0,0,0,-1,552,981,-19.7015,-2.75854
-665,43,-19.8199,2.26044,0,0,0,0,0,0,0,-1,559,981,-19.82,-2.26041
-658,43,-19.8744,2.22943,0,0,0,0,0,0,0,-1,566,981,-19.8744,-2.22945
-651,43,-19.9648,2.23486,0.0314397,-0.0116318,0.0235921,0.0418473,-0.0220393,0.415467,0.0374713,0.0392829,573,981,-19.9648,-2.23485
-644,43,-20.2132,2.31348,0.0227253,-0.00709065,0.0171815,0.0305649,-0.0149302,0.428064,0.0267786,0.0210743,580,981,-20.2132,-2.3135
-637,43,-20.2767,2.26263,0.0156028,-0.00272675,0.0116465,0.0212582,-0.00838206,0.452044,0.0176428,0.0144736,587,981,-20.2768,-2.26263
-630,43,-20.2653,2.17181,0.00879615,0.000439104,0.00581607,0.0117791,-0.00254385,0.473899,0.00882377,0.0122483,594,981,-20.2652,-2.17183
-623,43,-20.2674,2.07874,0.00260749,0.00190483,0.00174477,0.00403595,0.000476372,0.686047,0.00254674,0.0110451,601,981,-20.2674,-2.07871
-616,43,-20.2658,1.97351,-0.00110792,0.00238814,-0.000824859,0.00257298,-0.00129276,-1.35035,0.00227232,0.00956669,608,981,-20.2658,-1.97349
-609,43,-20.2784,1.862,-0.00218454,0.00221961,-0.00233017,0.0032236,-0.00318853,-1.16397,0.00370206,0.0113094,615,981,-20.2784,-1.86199
-602,43,-20.2894,1.75903,-0.00312999,0.00194354,-0.00355657,0.00377534,-0.00496179,-1.09518,0.00505986,0.0156149,622,981,-20.2894,-1.75904
-595,43,-20.2697,1.6651,-0.00384256,0.00153017,-0.00425412,0.00387511,-0.00618751,-1.06702,0.00586057,0.0138858,629,981,-20.2697,-1.66509
-588,43,-20.251,1.40985,-0.00401431,0.000902937,-0.00488723,0.00391514,-0.0070265,-1.01845,0.00640173,0.0143855,636,981,-20.251,-1.40982
-581,43,-20.4203,0.971985,-0.00384206,0.000354521,-0.00523317,0.0038944,-0.00738193,-0.976065,0.00661337,0.022217,643,981,-20.4204,-0.971971
-574,43,-20.5234,0.707642,-0.00360192,-9.69631e-05,-0.00534898,0.0037793,-0.00747818,-0.943702,0.00661542,0.0297786,650,981,-20.5234,-0.707627
-567,43,-20.4535,0.532104,-0.00306234,-0.000643346,-0.00515756,0.00344463,-0.00715032,-0.900572,0.00624047,0.0356465,657,981,-20.4535,-0.532097
-560,43,-20.4326,0.482361,-0.00200672,-0.00124649,-0.0047549,0.00314346,-0.00639667,-0.825284,0.00561373,0.0387482,664,981,-20.4326,-0.482335
-553,43,-20.4424,0.445801,-0.000392821,-0.00185941,-0.00422047,0.00315759,-0.00540982,-0.699383,0.00500304,0.0397125,671,981,-20.4424,-0.445809
-546,43,-20.5603,0.563049,0.00182398,-0.00243071,-0.00366021,0.00393016,-0.00453689,-0.522155,0.00489264,0.0413924,678,981,-20.5603,-0.563044
-539,43,-20.4986,0.733948,0.00466379,-0.00281042,-0.00332965,0.00593193,-0.00407856,-0.363901,0.00581249,0.0455645,685,981,-20.4986,-0.733961
-532,43,-20.3702,0.782288,0.00758708,-0.00258901,-0.00387314,0.00889352,-0.00389545,-0.325323,0.00756934,0.0462094,692,981,-20.3702,-0.782284
-525,43,-20.293,0.490723,0.00931104,-0.00122688,-0.00570019,0.0118044,-0.00372027,-0.412345,0.00935951,0.0443614,699,981,-20.2931,-0.490733
-518,43,0,0,0,0,0,0,0,0,0,-1,706,981,0,0
-511,43,0,0,0,0,0,0,0,0,0,-1,713,981,0,0
-504,43,0,0,0,0,0,0,0,0,0,-1,720,981,0,0
-497,43,0,0,0,0,0,0,0,0,0,-1,727,981,0,0
-490,43,0,0,0,0,0,0,0,0,0,-1,734,981,0,0
-483,43,0,0,0,0,0,0,0,0,0,-1,741,981,0,0
-476,43,0,0,0,0,0,0,0,0,0,-1,748,981,0,0
-469,43,0,0,0,0,0,0,0,0,0,-1,755,981,0,0
-462,43,0,0,0,0,0,0,0,0,0,-1,762,981,0,0
-455,43,0,0,0,0,0,0,0,0,0,-1,769,981,0,0
-448,43,0,0,0,0,0,0,0,0,0,-1,776,981,0,0
-441,43,0,0,0,0,0,0,0,0,0,-1,783,981,0,0
-434,43,0,0,0,0,0,0,0,0,0,-1,790,981,0,0
-427,43,0,0,0,0,0,0,0,0,0,-1,797,981,0,0
-420,43,0,0,0,0,0,0,0,0,0,-1,804,981,0,0
-413,43,0,0,0,0,0,0,0,0,0,-1,811,981,0,0
-406,43,0,0,0,0,0,0,0,0,0,-1,818,981,0,0
-399,43,0,0,0,0,0,0,0,0,0,-1,825,981,0,0
-392,43,0,0,0,0,0,0,0,0,0,-1,832,981,0,0
-385,43,0,0,0,0,0,0,0,0,0,-1,839,981,0,0
-378,43,0,0,0,0,0,0,0,0,0,-1,846,981,0,0
-371,43,0,0,0,0,0,0,0,0,0,-1,853,981,0,0
-364,43,0,0,0,0,0,0,0,0,0,-1,860,981,0,0
-357,43,0,0,0,0,0,0,0,0,0,-1,867,981,0,0
-350,43,0,0,0,0,0,0,0,0,0,-1,874,981,0,0
-343,43,0,0,0,0,0,0,0,0,0,-1,881,981,0,0
-336,43,0,0,0,0,0,0,0,0,0,-1,888,981,0,0
-329,43,0,0,0,0,0,0,0,0,0,-1,895,981,0,0
-322,43,0,0,0,0,0,0,0,0,0,-1,902,981,0,0
-315,43,0,0,0,0,0,0,0,0,0,-1,909,981,0,0
-308,43,0,0,0,0,0,0,0,0,0,-1,916,981,0,0
-301,43,0,0,0,0,0,0,0,0,0,-1,923,981,0,0
-294,43,0,0,0,0,0,0,0,0,0,-1,930,981,0,0
-287,43,0,0,0,0,0,0,0,0,0,-1,937,981,0,0
-280,43,0,0,0,0,0,0,0,0,0,-1,944,981,0,0
-273,43,0,0,0,0,0,0,0,0,0,-1,951,981,0,0
-266,43,0,0,0,0,0,0,0,0,0,-1,958,981,0,0
-259,43,0,0,0,0,0,0,0,0,0,-1,965,981,0,0
-252,43,0,0,0,0,0,0,0,0,0,-1,972,981,0,0
-245,43,0,0,0,0,0,0,0,0,0,-1,979,981,0,0
-238,43,0,0,0,0,0,0,0,0,0,-1,986,981,0,0
-231,43,0,0,0,0,0,0,0,0,0,-1,993,981,0,0
-224,43,0,0,0,0,0,0,0,0,0,-1,1000,981,0,0
-217,43,0,0,0,0,0,0,0,0,0,-1,1007,981,0,0
-210,43,0,0,0,0,0,0,0,0,0,-1,1014,981,0,0
-203,43,0,0,0,0,0,0,0,0,0,-1,1021,981,0,0
-196,43,0,0,0,0,0,0,0,0,0,-1,1028,981,0,0
-189,43,0,0,0,0,0,0,0,0,0,-1,1035,981,0,0
-182,43,0,0,0,0,0,0,0,0,0,-1,1042,981,0,0
-175,43,0,0,0,0,0,0,0,0,0,-1,1049,981,0,0
-168,43,0,0,0,0,0,0,0,0,0,-1,1056,981,0,0
-161,43,0,0,0,0,0,0,0,0,0,-1,1063,981,0,0
-154,43,0,0,0,0,0,0,0,0,0,-1,1070,981,0,0
-147,43,0,0,0,0,0,0,0,0,0,-1,1077,981,0,0
-140,43,0,0,0,0,0,0,0,0,0,-1,1084,981,0,0
-133,43,0,0,0,0,0,0,0,0,0,-1,1091,981,0,0
-126,43,0,0,0,0,0,0,0,0,0,-1,1098,981,0,0
-119,43,0,0,0,0,0,0,0,0,0,-1,1105,981,0,0
-112,43,0,0,0,0,0,0,0,0,0,-1,1112,981,0,0
-105,43,0,0,0,0,0,0,0,0,0,-1,1119,981,0,0
-98,43,0,0,0,0,0,0,0,0,0,-1,1126,981,0,0
-91,43,0,0,0,0,0,0,0,0,0,-1,1133,981,0,0
-84,43,0,0,0,0,0,0,0,0,0,-1,1140,981,0,0
-77,43,0,0,0,0,0,0,0,0,0,-1,1147,981,0,0
-70,43,0,0,0,0,0,0,0,0,0,-1,1154,981,0,0
-63,43,0,0,0,0,0,0,0,0,0,-1,1161,981,0,0
-56,43,0,0,0,0,0,0,0,0,0,-1,1168,981,0,0
-49,43,0,0,0,0,0,0,0,0,0,-1,1175,981,0,0
-42,43,0,0,0,0,0,0,0,0,0,-1,1182,981,0,0
-35,43,0,0,0,0,0,0,0,0,0,-1,1189,981,0,0
-28,43,0,0,0,0,0,0,0,0,0,-1,1196,981,0,0
-21,43,0,0,0,0,0,0,0,0,0,-1,1203,981,0,0
-14,43,0,0,0,0,0,0,0,0,0,-1,1210,981,0,0
-7,43,0,0,0,0,0,0,0,0,0,-1,1217,981,0,0
0,43,0,0,0,0,0,0,0,0,0,-1,1224,981,0,0
7,43,0,0,0,0,0,0,0,0,0,-1,1231,981,0,0
14,43,0,0,0,0,0,0,0,0,0,-1,1238,981,0,0
21,43,0,0,0,0,0,0,0,0,0,-1,1245,981,0,0
28,43,0,0,0,0,0,0,0,0,0,-1,1252,981,0,0
35,43,0,0,0,0,0,0,0,0,0,-1,1259,981,0,0
42,43,0,0,0,0,0,0,0,0,0,-1,1266,981,0,0
49,43,0,0,0,0,0,0,0,0,0,-1,1273,981,0,0
56,43,0,0,0,0,0,0,0,0,0,-1,1280,981,0,0
63,43,0,0,0,0,0,0,0,0,0,-1,1287,981,0,0
70,43,0,0,0,0,0,0,0,0,0,-1,1294,981,0,0
77,43,0,0,0,0,0,0,0,0,0,-1,1301,981,0,0
84,43,0,0,0,0,0,0,0,0,0,-1,1308,981,0,0
91,43,0,0,0,0,0,0,0,0,0,-1,1315,981,0,0
98,43,0,0,0,0,0,0,0,0,0,-1,1322,981,0,0
105,43,0,0,0,0,0,0,0,0,0,-1,1329,981,0,0
112,43,0,0,0,0,0,0,0,0,0,-1,1336,981,0,0
119,43,0,0,0,0,0,0,0,0,0,-1,1343,981,0,0
126,43,0,0,0,0,0,0,0,0,0,-1,1350,981,0,0
133,43,0,0,0,0,0,0,0,0,0,-1,1357,981,0,0
140,43,0,0,0,0,0,0,0,0,0,-1,1364,981,0,0
147,43,0,0,0,0,0,0,0,0,0,-1,1371,981,0,0
154,43,0,0,0,0,0,0,0,0,0,-1,1378,981,0,0
161,43,0,0,0,0,0,0,0,0,0,-1,1385,981,0,0
168,43,0,0,0,0,0,0,0,0,0,-1,1392,981,0,0
175,43,0,0,0,0,0,0,0,0,0,-1,1399,981,0,0
182,43,0,0,0,0,0,0,0,0,0,-1,1406,981,0,0
189,43,0,0,0,0,0,0,0,0,0,-1,1413,981,0,0
196,43,0,0,0,0,0,0,0,0,0,-1,1420,981,0,0
203,43,0,0,0,0,0,0,0,0,0,-1,1427,981,0,0
210,43,0,0,0,0,0,0,0,0,0,-1,1434,981,0,0
217,43,0,0,0,0,0,0,0,0,0,-1,1441,981,0,0
224,43,0,0,0,0,0,0,0,0,0,-1,1448,981,0,0
231,43,0,0,0,0,0,0,0,0,0,-1,1455,981,0,0
238,43,0,0,0,0,0,0,0,0,0,-1,1462,981,0,0
245,43,0,0,0,0,0,0,0,0,0,-1,1469,981,0,0
252,43,0,0,0,0,0,0,0,0,0,-1,1476,981,0,0
259,43,0,0,0,0,0,0,0,0,0,-1,1483,981,0,0
266,43,0,0,0,0,0,0,0,0,0,-1,1490,981,0,0
273,43,0,0,0,0,0,0,0,0,0,-1,1497,981,0,0
280,43,0,0,0,0,0,0,0,0,0,-1,1504,981,0,0
287,43,0,0,0,0,0,0,0,0,0,-1,1511,981,0,0
294,43,0,0,0,0,0,0,0,0,0,-1,1518,981,0,0
301,43,0,0,0,0,0,0,0,0,0,-1,1525,981,0,0
308,43,0,0,0,0,0,0,0,0,0,-1,1532,981,0,0
315,43,0,0,0,0,0,0,0,0,0,-1,1539,981,0,0
322,43,0,0,0,0,0,0,0,0,0,-1,1546,981,0,0
329,43,0,0,0,0,0,0,0,0,0,-1,1553,981,0,0
336,43,0,0,0,0,0,0,0,0,0,-1,1560,981,0,0
343,43,0,0,0,0,0,0,0,0,0,-1,1567,981,0,0
350,43,0,0,0,0,0,0,0,0,0,-1,1574,981,0,0
357,43,0,0,0,0,0,0,0,0,0,-1,1581,981,0,0
364,43,0,0,0,0,0,0,0,0,0,-1,1588,981,0,0
371,43,0,0,0,0,0,0,0,0,0,-1,1595,981,0,0
378,43,0,0,0,0,0,0,0,0,0,-1,1602,981,0,0
385,43,0,0,0,0,0,0,0,0,0,-1,1609,981,0,0
392,43,0,0,0,0,0,0,0,0,0,-1,1616,981,0,0
399,43,0,0,0,0,0,0,0,0,0,-1,1623,981,0,0
406,43,0,0,0,0,0,0,0,0,0,-1,1630,981,0,0
413,43,0,0,0,0,0,0,0,0,0,-1,1637,981,0,0
420,43,0,0,0,0,0,0,0,0,0,-1,1644,981,0,0
427,43,0,0,0,0,0,0,0,0,0,-1,1651,981,0,0
434,43,0,0,0,0,0,0,0,0,0,-1,1658,981,0,0
441,43,0,0,0,0,0,0,0,0,0,-1,1665,981,0,0
448,43,0,0,0,0,0,0,0,0,0,-1,1672,981,0,0
455,43,0,0,0,0,0,0,0,0,0,-1,1679,981,0,0
462,43,0,0,0,0,0,0,0,0,0,-1,1686,981,0,0
469,43,0,0,0,0,0,0,0,0,0,-1,1693,981,0,0
476,43,0,0,0,0,0,0,0,0,0,-1,1700,981,0,0
483,43,0,0,0,0,0,0,0,0,0,-1,1707,981,0,0
490,43,0,0,0,0,0,0,0,0,0,-1,1714,981,0,0
497,43,0,0,0,0,0,0,0,0,0,-1,1721,981,0,0
504,43,0,0,0,0,0,0,0,0,0,-1,1728,981,0,0
511,43,0,0,0,0,0,0,0,0,0,-1,1735,981,0,0
518,43,0,0,0,0,0,0,0,0,0,-1,1742,981,0,0
525,43,0,0,0,0,0,0,0,0,0,-1,1749,981,0,0
532,43,0,0,0,0,0,0,0,0,0,-1,1756,981,0,0
539,43,0,0,0,0,0,0,0,0,0,-1,1763,981,0,0
546,43,0,0,0,0,0,0,0,0,0,-1,1770,981,0,0
553,43,0,0,0,0,0,0,0,0,0,-1,1777,981,0,0
560,43,0,0,0,0,0,0,0,0,0,-1,1784,981,0,0
567,43,0,0,0,0,0,0,0,0,0,-1,1791,981,0,0
574,43,0,0,0,0,0,0,0,0,0,-1,1798,981,0,0
581,43,0,0,0,0,0,0,0,0,0,-1,1805,981,0,0
588,43,0,0,0,0,0,0,0,0,0,-1,1812,981,0,0
595,43,0,0,0,0,0,0,0,0,0,-1,1819,981,0,0
602,43,0,0,0,0,0,0,0,0,0,-1,1826,981,0,0
609,43,0,0,0,0,0,0,0,0,0,-1,1833,981,0,0
616,43,0,0,0,0,0,0,0,0,0,-1,1840,981,0,0
623,43,0,0,0,0,0,0,0,0,0,-1,1847,981,0,0
630,43,0,0,0,0,0,0,0,0,0,-1,1854,981,0,0
637,43,0,0,0,0,0,0,0,0,0,-1,1861,981,0,0
644,43,29.0876,2.68005,0.00741756,0.00380828,-0.00398197,0.00998474,0.0012411,-0.572641,0.00628378,0.0360804,1868,981,29.0876,-2.68003
651,43,29.0736,2.61548,0.00541279,0.00278413,-0.00275743,0.00715311,0.00104381,-0.563001,0.00446169,0.0354794,1875,981,29.0736,-2.61547
658,43,29.1656,2.50415,0.00378951,0.00199084,-0.00174022,0.00484904,0.000931312,-0.546902,0.00297131,0.0369973,1882,981,29.1656,-2.50414
665,43,29.4047,2.36731,0.00232125,0.00156163,-0.000540405,0.00260197,0.00128092,-0.479089,0.00150231,0.0384948,1889,981,29.4047,-2.36733
672,43,29.4336,2.43475,0.000893222,0.00146238,0.000794068,0.00202132,0.000334278,0.957458,0.0012511,0.0404448,1896,981,29.4336,-2.43476
679,43,29.1454,2.55591,-0.00048654,0.00153954,0.00203053,0.0027957,-0.00174271,1.01678,0.00264366,0.0412866,1903,981,29.1454,-2.55591
686,43,29.127,2.72003,-0.00145036,0.00158814,0.00292,0.00336047,-0.00322269,1.02527,0.00380107,0.0414177,1910,981,29.127,-2.72005
693,43,29.1578,2.7204,-0.00213713,0.00163406,0.00351633,0.00373846,-0.00424153,1.03151,0.0046103,0.0380815,1917,981,29.1579,-2.7204
700,43,29.2332,2.53583,-0.00265188,0.00166676,0.00381048,0.00388721,-0.00487233,1.04318,0.00506797,0.0328324,1924,981,29.2331,-2.53585
707,43,29.2499,2.63104,-0.00303413,0.00185425,0.00389507,0.0040085,-0.00518838,1.0656,0.00532437,0.028467,1931,981,29.2499,-2.63107
714,43,29.204,2.94208,-0.00347458,0.00203023,0.00386271,0.00402085,-0.0054652,1.09495,0.0054979,0.0351481,1938,981,29.204,-2.94205
721,43,28.5109,3.92468,0,0,0,0,0,0,0,-1,1945,981,28.5108,-3.9247
728,43,28.439,4.11957,-0.0039467,0.0026668,0.00296755,0.00380313,-0.00508303,1.2051,0.00514813,0.0204041,1952,981,28.439,-4.11958
735,43,28.3402,4.28723,-0.00388047,0.00308821,0.00203307,0.00363798,-0.00443023,1.3067,0.00466566,0.0141585,1959,981,28.3402,-4.28723
742,43,28.3429,4.39063,-0.00387082,0.00332907,0.00153568,0.00364293,-0.00418469,1.36919,0.00452289,0.0161566,1966,981,28.3429,-4.39065
749,43,28.3463,4.5033,-0.00372581,0.00331762,0.000942514,0.00344156,-0.00384975,1.44005,0.00421184,0.0183281,1973,981,28.3463,-4.50332
756,43,28.3365,4.62708,-0.00321025,0.00345147,0.000274859,0.00346279,-0.00322157,1.52963,0.00386005,0.0170518,1980,981,28.3366,-4.62706
763,43,28.3304,4.73785,-0.00247713,0.00339535,-0.000358931,0.00341721,-0.00249899,-1.50998,0.0034294,0.0178473,1987,981,28.3304,-4.73784
770,43,28.288,4.87677,-0.00139121,0.00309652,-0.00041086,0.00313383,-0.00142851,-1.48025,0.0026947,0.0153949,1994,981,28.288,-4.87674
777,43,28.2266,4.92963,3.56404e-05,0.00251761,0.000189263,0.00253196,2.12911e-05,1.49512,0.00168092,0.021101,2001,981,28.2266,-4.92961
784,43,28.2318,5.00946,0.00173917,0.00139863,0.00140629,0.00298546,0.000152342,0.725153,0.00194152,0.0407175,2008,981,28.2319,-5.00944
791,43,28.4307,4.99371,0.00425292,-0.000642949,0.00333114,0.00593886,-0.00232888,0.468526,0.00492272,0.0434678,2015,981,28.4306,-4.9937
798,43,28.48,4.8299,0.007936,-0.00385239,0.00611729,0.0105367,-0.00645306,0.401985,0.00990303,0.0437543,2022,981,28.4799,-4.82988
805,43,28.3711,5.27612,0,0,0,0,0,0,0,-1,2029,981,28.371,-5.27612
812,43,28.5698,5.19385,0,0,0,0,0,0,0,-1,2036,981,28.5699,-5.19385
-700,36,0,0,0,0,0,0,0,0,0,-1,524,988,0,0
-693,36,-20.6738,-0.191406,0,0,0,0,0,0,0,-1,531,988,-20.6738,0.191401
-686,36,-20.3873,0.482361,0.0818239,-0.0463646,0.0650455,0.109048,-0.0735884,0.396382,0.106105,0.0411304,538,988,-20.3873,-0.48233
-679,36,-19.8707,1.11145,0.070847,-0.036551,0.0555895,0.0944382,-0.0601422,0.401347,0.0899763,0.0424507,545,988,-19.8707,-1.11146
-672,36,-19.3489,1.6217,0,0,0,0,0,0,0,-1,552,988,-19.3489,-1.62168
-665,36,-19.9415,3.34216,0,0,0,0,0,0,0,-1,559,988,-19.9416,-3.34214
-658,36,-20.2162,2.28375,0,0,0,0,0,0,0,-1,566,988,-20.2163,-2.28378
-651,36,-20.291,2.27008,0.028152,-0.00997152,0.022818,0.0388226,-0.0206421,0.437425,0.0348627,0.0361807,573,988,-20.2909,-2.27005
-644,36,-20.3798,2.25385,0.0199036,-0.00591387,0.0164956,0.027941,-0.0139512,0.453391,0.0246319,0.0209852,580,988,-20.3798,-2.25383
-637,36,-20.3871,2.18542,0.0132287,-0.00191716,0.0110174,0.0190249,-0.00771332,0.484302,0.0158911,0.0152108,587,988,-20.3871,-2.18545
-630,36,-20.3697,2.13403,0.00675104,0.000928718,0.00525024,0.00984321,-0.00216345,0.532259,0.00738962,0.0119508,594,988,-20.3697,-2.13406
-623,36,-20.3854,2.05872,0.0013604,0.00203799,0.00113469,0.00288339,0.000515011,0.930475,0.00177566,0.0118789,601,988,-20.3854,-2.05872
-616,36,-20.3846,1.96436,-0.0014029,0.00236029,-0.00147475,0.00286936,-0.00191197,-1.23841,0.00277889,0.0102194,608,988,-20.3847,-1.96433
-609,36,-20.3831,1.89447,-0.00201982,0.00225878,-0.00307647,0.00386665,-0.00362768,-1.08921,0.00432759,0.0138995,615,988,-20.383,-1.89446
-602,36,-20.3757,1.81354,-0.00256989,0.00201864,-0.00435272,0.00464472,-0.00519597,-1.02794,0.0056845,0.0196405,622,988,-20.3757,-1.81353
-595,36,-20.3145,1.69482,-0.00295644,0.00147063,-0.00499402,0.00471969,-0.0062055,-0.994006,0.00632708,0.0200822,629,988,-20.3145,-1.69485
-588,36,-20.3326,1.32867,-0.00290746,0.000762871,-0.00556951,0.00479177,-0.00693637,-0.944548,0.00680888,0.0203623,636,988,-20.3327,-1.32867
-581,36,-20.4424,0.866699,-0.00263097,0.000113194,-0.00587015,0.00476949,-0.00728726,-0.900206,0.00701138,0.0263856,643,988,-20.4424,-0.866675
-574,36,-20.5104,0.778076,-0.00234083,-0.000474839,-0.00592172,0.00458694,-0.00740261,-0.863533,0.00698551,0.0294734,650,988,-20.5104,-0.778074
-567,36,-20.489,0.581848,-0.00177637,-0.00119196,-0.00563182,0.00415523,-0.00712356,-0.811317,0.00658656,0.0341475,657,988,-20.489,-0.581869
-560,36,-20.4356,0.498596,-0.000741898,-0.00197846,-0.00511466,0.00379171,-0.00651207,-0.725248,0.00601761,0.0393509,664,988,-20.4356,-0.498578
-553,36,-20.3873,0.486389,0.000810466,-0.00278681,-0.00448331,0.00384248,-0.00581883,-0.594634,0.00561673,0.0426721,671,988,-20.3872,-0.486393
-546,36,-20.4084,0.503845,0.00294764,-0.00355564,-0.00387649,0.00475568,-0.00536368,-0.436418,0.00584593,0.0451956,678,988,-20.4084,-0.503854
-539,36,-20.3792,0.45459,0.00571183,-0.00407606,-0.00364352,0.00691919,-0.00528341,-0.319984,0.00706624,0.0446599,685,988,-20.3791,-0.454573
-532,36,-20.0605,0.789673,0,0,0,0,0,0,0,-1,692,988,-20.0606,-0.789672
-525,36,-19.9847,0.480042,0,0,0,0,0,0,0,-1,699,988,-19.9847,-0.480026
-518,36,0,0,0,0,0,0,0,0,0,-1,706,988,0,0
-511,36,0,0,0,0,0,0,0,0,0,-1,713,988,0,0
-504,36,0,0,0,0,0,0,0,0,0,-1,720,988,0,0
-497,36,0,0,0,0,0,0,0,0,0,-1,727,988,0,0
-490,36,0,0,0,0,0,0,0,0,0,-1,734,988,0,0
-483,36,0,0,0,0,0,0,0,0,0,-1,741,988,0,0
-476,36,0,0,0,0,0,0,0,0,0,-1,748,988,0,0
-469,36,0,0,0,0,0,0,0,0,0,-1,755,988,0,0
-462,36,0,0,0,0,0,0,0,0,0,-1,762,988,0,0
-455,36,0,0,0,0,0,0,0,0,0,-1,769,988,0,0
-448,36,0,0,0,0,0,0,0,0,0,-1,776,988,0,0
-441,36,0,0,0,0,0,0,0,0,0,-1,783,988,0,0
-434,36,0,0,0,0,0,0,0,0,0,-1,790,988,0,0
-427,36,0,0,0,0,0,0,0,0,0,-1,797,988,0,0
-420,36,0,0,0,0,0,0,0,0,0,-1,804,988,0,0
-413,36,0,0,0,0,0,0,0,0,0,-1,811,988,0,0
-406,36,0,0,0,0,0,0,0,0,0,-1,818,988,0,0
-399,36,0,0,0,0,0,0,0,0,0,-1,825,988,0,0
-392,36,0,0,0,0,0,0,0,0,0,-1,832,988,0,0
-385,36,0,0,0,0,0,0,0,0,0,-1,839,988,0,0
-378,36,0,0,0,0,0,0,0,0,0,-1,846,988,0,0
-371,36,0,0,0,0,0,0,0,0,0,-1,853,988,0,0
-364,36,0,0,0,0,0,0,0,0,0,-1,860,988,0,0
-357,36,0,0,0,0,0,0,0,0,0,-1,867,988,0,0
-350,36,0,0,0,0,0,0,0,0,0,-1,874,988,0,0
-343,36,0,0,0,0,0,0,0,0,0,-1,881,988,0,0
-336,36,0,0,0,0,0,0,0,0,0,-1,888,988,0,0
-329,36,0,0,0,0,0,0,0,0,0,-1,895,988,0,0
-322,36,0,0,0,0,0,0,0,0,0,-1,902,988,0,0
-315,36,0,0,0,0,0,0,0,0,0,-1,909,988,0,0
-308,36,0,0,0,0,0,0,0,0,0,-1,916,988,0,0
-301,36,0,0,0,0,0,0,0,0,0,-1,923,988,0,0
-294,36,0,0,0,0,0,0,0,0,0,-1,930,988,0,0
-287,36,0,0,0,0,0,0,0,0,0,-1,937,988,0,0
-280,36,0,0,0,0,0,0,0,0,0,-1,944,988,0,0
-273,36,0,0,0,0,0,0,0,0,0,-1,951,988,0,0
-266,36,0,0,0,0,0,0,0,0,0,-1,958,988,0,0
-259,36,0,0,0,0,0,0,0,0,0,-1,965,988,0,0
-252,36,0,0,0,0,0,0,0,0,0,-1,972,988,0,0
-245,36,0,0,0,0,0,0,0,0,0,-1,979,988,0,0
-238,36,0,0,0,0,0,0,0,0,0,-1,986,988,0,0
-231,36,0,0,0,0,0,0,0,0,0,-1,993,988,0,0
-224,36,0,0,0,0,0,0,0,0,0,-1,1000,988,0,0
-217,36,0,0,0,0,0,0,0,0,0,-1,1007,988,0,0
-210,36,0,0,0,0,0,0,0,0,0,-1,1014,988,0,0
-203,36,0,0,0,0,0,0,0,0,0,-1,1021,988,0,0
-196,36,0,0,0,0,0,0,0,0,0,-1,1028,988,0,0
-189,36,0,0,0,0,0,0,0,0,0,-1,1035,988,0,0
-182,36,0,0,0,0,0,0,0,0,0,-1,1042,988,0,0
-175,36,0,0,0,0,0,0,0,0,0,-1,1049,988,0,0
-168,36,0,0,0,0,0,0,0,0,0,-1,1056,988,0,0
-161,36,0,0,0,0,0,0,0,0,0,-1,1063,988,0,0
-154,36,0,0,0,0,0,0,0,0,0,-1,1070,988,0,0
-147,36,0,0,0,0,0,0,0,0,0,-1,1077,988,0,0
-140,36,0,0,0,0,0,0,0,0,0,-1,1084,988,0,0
-133,36,0,0,0,0,0,0,0,0,0,-1,1091,988,0,0
-126,36,0,0,0,0,0,0,0,0,0,-1,1098,988,0,0
-119,36,0,0,0,0,0,0,0,0,0,-1,1105,988,0,0
-112,36,0,0,0,0,0,0,0,0,0,-1,1112,988,0,0
-105,36,0,0,0,0,0,0,0,0,0,-1,1119,988,0,0
-98,36,0,0,0,0,0,0,0,0,0,-1,1126,988,0,0
-91,36,0,0,0,0,0,0,0,0,0,-1,1133,988,0,0
-84,36,0,0,0,0,0,0,0,0,0,-1,1140,988,0,0
-77,36,0,0,0,0,0,0,0,0,0,-1,1147,988,0,0
-70,36,0,0,0,0,0,0,0,0,0,-1,1154,988,0,0
-63,36,0,0,0,0,0,0,0,0,0,-1,1161,988,0,0
-56,36,0,0,0,0,0,0,0,0,0,-1,1168,988,0,0
-49,36,0,0,0,0,0,0,0,0,0,-1,1175,988,0,0
-42,36,0,0,0,0,0,0,0,0,0,-1,1182,988,0,0
-35,36,0,0,0,0,0,0,0,0,0,-1,1189,988,0,0
-28,36,0,0,0,0,0,0,0,0,0,-1,1196,988,0,0
-21,36,0,0,0,0,0,0,0,0,0,-1,1203,988,0,0
-14,36,0,0,0,0,0,0,0,0,0,-1,1210,988,0,0
-7,36,0,0,0,0,0,0,0,0,0,-1,1217,988,0,0
0,36,0,0,0,0,0,0,0,0,0,-1,1224,988,0,0
7,36,0,0,0,0,0,0,0,0,0,-1,1231,988,0,0
14,36,0,0,0,0,0,0,0,0,0,-1,1238,988,0,0
21,36,0,0,0,0,0,0,0,0,0,-1,1245,988,0,0
28,36,0,0,0,0,0,0,0,0,0,-1,1252,988,0,0
35,36,0,0,0,0,0,0,0,0,0,-1,1259,988,0,0
42,36,0,0,0,0,0,0,0,0,0,-1,1266,988,0,0
49,36,0,0,0,0,0,0,0,0,0,-1,1273,988,0,0
56,36,0,0,0,0,0,0,0,0,0,-1,1280,988,0,0
63,36,0,0,0,0,0,0,0,0,0,-1,1287,988,0,0
70,36,0,0,0,0,0,0,0,0,0,-1,1294,988,0,0
77,36,0,0,0,0,0,0,0,0,0,-1,1301,988,0,0
84,36,0,0,0,0,0,0,0,0,0,-1,1308,988,0,0
91,36,0,0,0,0,0,0,0,0,0,-1,1315,988,0,0
98,36,0,0,0,0,0,0,0,0,0,-1,1322,988,0,0
105,36,0,0,0,0,0,0,0,0,0,-1,1329,988,0,0
112,36,0,0,0,0,0,0,0,0,0,-1,1336,988,0,0
119,36,0,0,0,0,0,0,0,0,0,-1,1343,988,0,0
126,36,0,0,0,0,0,0,0,0,0,-1,1350,988,0,0
133,36,0,0,0,0,0,0,0,0,0,-1,1357,988,0,0
140,36,0,0,0,0,0,0,0,0,0,-1,1364,988,0,0
147,36,0,0,0,0,0,0,0,0,0,-1,1371,988,0,0
154,36,0,0,0,0,0,0,0,0,0,-1,1378,988,0,0
161,36,0,0,0,0,0,0,0,0,0,-1,1385,988,0,0
168,36,0,0,0,0,0,0,0,0,0,-1,1392,988,0,0
175,36,0,0,0,0,0,0,0,0,0,-1,1399,988,0,0
182,36,0,0,0,0,0,0,0,0,0,-1,1406,988,0,0
189,36,0,0,0,0,0,0,0,0,0,-1,1413,988,0,0
196,36,0,0,0,0,0,0,0,0,0,-1,1420,988,0,0
203,36,0,0,0,0,0,0,0,0,0,-1,1427,988,0,0
210,36,0,0,0,0,0,0,0,0,0,-1,1434,988,0,0
217,36,0,0,0,0,0,0,0,0,0,-1,1441,988,0,0
224,36,0,0,0,0,0,0,0,0,0,-1,1448,988,0,0
231,36,0,0,0,0,0,0,0,0,0,-1,1455,988,0,0
238,36,0,0,0,0,0,0,0,0,0,-1,1462,988,0,0
245,36,0,0,0,0,0,0,0,0,0,-1,1469,988,0,0
252,36,0,0,0,0,0,0,0,0,0,-1,1476,988,0,0
259,36,0,0,0,0,0,0,0,0,0,-1,1483,988,0,0
266,36,0,0,0,0,0,0,0,0,0,-1,1490,988,0,0
273,36,0,0,0,0,0,0,0,0,0,-1,1497,988,0,0
280,36,0,0,0,0,0,0,0,0,0,-1,1504,988,0,0
287,36,0,0,0,0,0,0,0,0,0,-1,1511,988,0,0
294,36,0,0,0,0,0,0,0,0,0,-1,1518,988,0,0
301,36,0,0,0,0,0,0,0,0,0,-1,1525,988,0,0
308,36,0,0,0,0,0,0,0,0,0,-1,1532,988,0,0
315,36,0,0,0,0,0,0,0,0,0,-1,1539,988,0,0
322,36,0,0,0,0,0,0,0,0,0,-1,1546,988,0,0
329,36,0,0,0,0,0,0,0,0,0,-1,1553,988,0,0
336,36,0,0,0,0,0,0,0,0,0,-1,1560,988,0,0
343,36,0,0,0,0,0,0,0,0,0,-1,1567,988,0,0
350,36,0,0,0,0,0,0,0,0,0,-1,1574,988,0,0
357,36,0,0,0,0,0,0,0,0,0,-1,1581,988,0,0
364,36,0,0,0,0,0,0,0,0,0,-1,1588,988,0,0
371,36,0,0,0,0,0,0,0,0,0,-1,1595,988,0,0
378,36,0,0,0,0,0,0,0,0,0,-1,1602,988,0,0
385,36,0,0,0,0,0,0,0,0,0,-1,1609,988,0,0
392,36,0,0,0,0,0,0,0,0,0,-1,1616,988,0,0
399,36,0,0,0,0,0,0,0,0,0,-1,1623,988,0,0
406,36,0,0,0,0,0,0,0,0,0,-1,1630,988,0,0
413,36,0,0,0,0,0,0,0,0,0,-1,1637,988,0,0
420,36,0,0,0,0,0,0,0,0,0,-1,1644,988,0,0
427,36,0,0,0,0,0,0,0,0,0,-1,1651,988,0,0
434,36,0,0,0,0,0,0,0,0,0,-1,1658,988,0,0
441,36,0,0,0,0,0,0,0,0,0,-1,1665,988,0,0
448,36,0,0,0,0,0,0,0,0,0,-1,1672,988,0,0
455,36,0,0,0,0,0,0,0,0,0,-1,1679,988,0,0
462,36,0,0,0,0,0,0,0,0,0,-1,1686,988,0,0
469,36,0,0,0,0,0,0,0,0,0,-1,1693,988,0,0
476,36,0,0,0,0,0,0,0,0,0,-1,1700,988,0,0
483,36,0,0,0,0,0,0,0,0,0,-1,1707,988,0,0
490,36,0,0,0,0,0,0,0,0,0,-1,1714,988,0,0
497,36,0,0,0,0,0,0,0,0,0,-1,1721,988,0,0
504,36,0,0,0,0,0,0,0,0,0,-1,1728,988,0,0
511,36,0,0,0,0,0,0,0,0,0,-1,1735,988,0,0
518,36,0,0,0,0,0,0,0,0,0,-1,1742,988,0,0
525,36,0,0,0,0,0,0,0,0,0,-1,1749,988,0,0
532,36,0,0,0,0,0,0,0,0,0,-1,1756,988,0,0
539,36,0,0,0,0,0,0,0,0,0,-1,1763,988,0,0
546,36,0,0,0,0,0,0,0,0,0,-1,1770,988,0,0
553,36,0,0,0,0,0,0,0,0,0,-1,1777,988,0,0
560,36,0,0,0,0,0,0,0,0,0,-1,1784,988,0,0
567,36,0,0,0,0,0,0,0,0,0,-1,1791,988,0,0
574,36,0,0,0,0,0,0,0,0,0,-1,1798,988,0,0
581,36,0,0,0,0,0,0,0,0,0,-1,1805,988,0,0
588,36,0,0,0,0,0,0,0,0,0,-1,1812,988,0,0
595,36,0,0,0,0,0,0,0,0,0,-1,1819,988,0,0
602,36,0,0,0,0,0,0,0,0,0,-1,1826,988,0,0
609,36,0,0,0,0,0,0,0,0,0,-1,1833,988,0,0
616,36,0,0,0,0,0,0,0,0,0,-1,1840,988,0,0
623,36,0,0,0,0,0,0,0,0,0,-1,1847,988,0,0
630,36,0,0,0,0,0,0,0,0,0,-1,1854,988,0,0
637,36,0,0,0,0,0,0,0,0,0,-1,1861,988,0,0
644,36,29.0774,2.54565,0.00689819,0.00330713,-0.0034046,0.00895172,0.0012536,-0.542741,0.00559694,0.0407205,1868,988,29.0774,-2.54563
651,36,29.087,2.64795,0.00498059,0.00237436,-0.00219366,0.006229,0.00112596,-0.517387,0.00383288,0.0395242,1875,988,29.0871,-2.64797
658,36,29.2595,2.73163,0.00348022,0.00165421,-0.00129203,0.00414927,0.000985151,-0.477812,0.00250327,0.038806,1882,988,29.2595,-2.73164
665,36,29.4172,2.57788,0.00212306,0.00129501,-0.000245301,0.00219027,0.00122779,-0.267435,0.00126764,0.0406038,1889,988,29.4172,-2.5779
672,36,29.3601,2.7431,0.000803607,0.00127814,0.000953384,0.00202333,5.84073e-05,0.907353,0.00132985,0.0417178,1896,988,29.3601,-2.74313
679,36,29.2076,2.8407,-0.000518953,0.00145937,0.00210487,0.00279592,-0.0018555,1.00505,0.00270373,0.0403942,1903,988,29.2077,-2.8407
686,36,29.0552,2.79254,-0.00144145,0.00157911,0.00293683,0.00337124,-0.00323358,1.02289,0.00381357,0.0395388,1910,988,29.0552,-2.79255
693,36,29.04,2.67511,-0.00208082,0.0016752,0.0034916,0.00376181,-0.00416742,1.03214,0.00457994,0.0406658,1917,988,29.04,-2.67513
700,36,29.1481,2.60284,-0.00255956,0.00172676,0.00374752,0.00390066,-0.00473346,1.04514,0.00499264,0.0344845,1924,988,29.1481,-2.60285
707,36,29.2157,2.62201,-0.00291065,0.00194148,0.00384977,0.00406586,-0.00503502,1.06656,0.00526431,0.025062,1931,988,29.2157,-2.622
714,36,29.2024,2.91736,-0.00335094,0.00212745,0.00383423,0.00410041,-0.00532391,1.09556,0.0054564,0.0314155,1938,988,29.2024,-2.91733
721,36,28.8401,3.98029,0,0,0,0,0,0,0,-1,1945,988,28.8401,-3.98028
728,36,28.641,4.15332,-0.00379126,0.00276,0.00295848,0.00389825,-0.00492951,1.20351,0.00510829,0.0213843,1952,988,28.641,-4.15332
735,36,28.4756,4.32007,-0.00388724,0.00316413,0.00209877,0.00374152,-0.00446464,1.30233,0.00474396,0.018231,1959,988,28.4755,-4.32005
742,36,28.4596,4.40857,-0.00414717,0.00348938,0.0016009,0.0038114,-0.0044692,1.37229,0.00478583,0.0159281,1966,988,28.4596,-4.40856
749,36,28.5085,4.52942,-0.00424181,0.00376728,0.00106945,0.00390762,-0.00438216,1.44031,0.00478872,0.0176717,1973,988,28.5086,-4.52939
756,36,28.4824,4.61688,-0.00406533,0.00431724,0.000365002,0.0043331,-0.00408119,1.52736,0.00485872,0.0153322,1980,988,28.4824,-4.61686
763,36,28.4497,4.70697,-0.00366673,0.0049279,-0.00039762,0.00494625,-0.00368508,-1.52466,0.00500101,0.0154095,1987,988,28.4497,-4.70698
770,36,28.4066,4.81281,-0.00305751,0.0055849,-0.000643274,0.00563252,-0.00310513,-1.49691,0.00511454,0.0133203,1994,988,28.4066,-4.81283
777,36,28.3341,4.9071,-0.00207761,0.0063686,-0.000270287,0.00637725,-0.00208625,-1.53884,0.00509144,0.0216126,2001,988,28.3342,-4.90708
784,36,28.3032,4.99487,-0.000674393,0.00722135,0.000657189,0.00727568,-0.000728719,1.48832,0.00511071,0.0422531,2008,988,28.3032,-4.9949
791,36,28.457,5.11035,0.00187074,0.00800684,0.00217459,0.00869935,0.00117823,1.2625,0.00544945,0.0437433,2015,988,28.457,-5.11033
798,36,28.2656,5.28467,0.00621442,0.00886421,0.00434887,0.0120855,0.00299311,0.933258,0.00726774,0.0435164,2022,988,28.2655,-5.28465
805,36,28.1123,5.41278,0.0129258,0.0101794,0.00738445,0.0190637,0.00404158,0.693468,0.0115991,0.047492,2029,988,28.1123,-5.41275
812,36,28.0637,5.45355,0,0,0,0,0,0,0,-1,2036,988,28.0638,-5.45353
-700,29,0,0,0,0,0,0,0,0,0,-1,524,995,0,0
-693,29,-21.2187,0.299194,0,0,0,0,0,0,0,-1,531,995,-21.2187,-0.299218
-686,29,-20.4805,0.687622,0.0837622,-0.0377202,0.0600294,0.10842,-0.0623782,0.389752,0.0997976,0.0439782,538,995,-20.4805,-0.687649
-679,29,-19.9964,1.16925,0.0708576,-0.0293924,0.0514952,0.0925955,-0.0511302,0.399441,0.0841233,0.0449658,545,995,-19.9964,-1.16927
-672,29,-19.5322,1.6571,0,0,0,0,0,0,0,-1,552,995,-19.5322,-1.65713
-665,29,-19.3151,2.97711,0,0,0,0,0,0,0,-1,559,995,-19.3151,-2.97709
-658,29,-20.0483,2.24139,0,0,0,0,0,0,0,-1,566,995,-20.0483,-2.2414
-651,29,-20.2048,2.21704,0.0257868,-0.00720503,0.0209622,0.0359654,-0.0173836,0.452036,0.0314177,0.0373216,573,995,-20.2048,-2.21701
-644,29,-20.3706,2.16663,0.0176957,-0.00394162,0.0149987,0.0253704,-0.0116164,0.472957,0.0218409,0.0198519,580,995,-20.3706,-2.16665
-637,29,-20.4525,2.09192,0.011264,-0.000593218,0.00979396,0.016784,-0.00611319,0.513232,0.0136899,0.0129852,587,995,-20.4525,-2.09193
-630,29,-20.4637,2.08521,0.00493147,0.00162717,0.00437443,0.00795534,-0.00139671,0.604837,0.00582522,0.0100659,594,995,-20.4637,-2.0852
-623,29,-20.47,2.04944,0.000248187,0.00219052,0.000437297,0.00228444,0.000154275,1.35925,0.00147423,0.010176,601,995,-20.47,-2.04944
-616,29,-20.4724,1.97937,-0.00155005,0.00222804,-0.00211652,0.00317592,-0.00249793,-1.14973,0.00328359,0.0125511,608,995,-20.4724,-1.97935
-609,29,-20.4788,1.90894,-0.00177793,0.00217748,-0.00375954,0.00444777,-0.00404822,-1.02753,0.00490697,0.0181818,615,995,-20.4787,-1.90893
-602,29,-20.4464,1.81244,-0.00196276,0.00198225,-0.00504431,0.005426,-0.00540651,-0.971776,0.00625416,0.0198153,622,995,-20.4464,-1.81244
-595,29,-20.3246,1.6936,-0.00207351,0.00136271,-0.00563112,0.00553199,-0.00624279,-0.933467,0.0068023,0.0193756,629,995,-20.3246,-1.69359
-588,29,-20.3792,1.29272,-0.00185456,0.000635321,-0.00614033,0.00565564,-0.00687488,-0.885417,0.00724591,0.0256667,636,995,-20.3792,-1.29271
-581,29,-20.4485,0.912048,-0.00150146,-2.88431e-05,-0.00636812,0.0056454,-0.0071757,-0.842955,0.00741982,0.0386826,643,995,-20.4485,-0.912053
-574,29,-20.4727,0.767639,-0.00119671,-0.0006656,-0.00632132,0.00539574,-0.00725805,-0.806391,0.007332,0.0332423,650,995,-20.4727,-0.767613
-567,29,-20.4998,0.561462,-0.000658276,-0.0014407,-0.00589104,0.00485453,-0.00695351,-0.752243,0.00685318,0.0334555,657,995,-20.4998,-0.561434
-560,29,-20.54,0.427551,0.000283803,-0.00228021,-0.00520714,0.00436444,-0.00636084,-0.664698,0.0062279,0.0394503,664,995,-20.54,-0.427559
-553,29,-20.5132,0.405273,0.00169089,-0.00314867,-0.00440049,0.00429302,-0.00575081,-0.534019,0.00581913,0.0443125,671,995,-20.5132,-0.405304
-546,29,-20.5157,0.926392,0.00366424,-0.0039892,-0.00363132,0.00511296,-0.00543792,-0.379602,0.00609251,0.0434793,678,995,-20.5158,-0.926392
-539,29,-20.3434,0.447754,0.00627031,-0.00454039,-0.0033426,0.00722033,-0.00549042,-0.276915,0.00736117,0.041737,685,995,-20.3434,-0.447766
-532,29,-20.1432,0.753906,0.00897641,-0.00427329,-0.00450171,0.0103612,-0.00565806,-0.298424,0.00938064,0.0422123,692,995,-20.1432,-0.753912
-525,29,-20.2709,0.629517,0,0,0,0,0,0,0,-1,699,995,-20.2709,-0.629538
-518,29,0,0,0,0,0,0,0,0,0,-1,706,995,0,0
-511,29,0,0,0,0,0,0,0,0,0,-1,713,995,0,0
-504,29,0,0,0,0,0,0,0,0,0,-1,720,995,0,0
-497,29,0,0,0,0,0,0,0,0,0,-1,727,995,0,0
-490,29,0,0,0,0,0,0,0,0,0,-1,734,995,0,0
-483,29,0,0,0,0,0,0,0,0,0,-1,741,995,0,0
-476,29,0,0,0,0,0,0,0,0,0,-1,748,995,0,0
-469,29,0,0,0,0,0,0,0,0,0,-1,755,995,0,0
-462,29,0,0,0,0,0,0,0,0,0,-1,762,995,0,0
-455,29,0,0,0,0,0,0,0,0,0,-1,769,995,0,0
-448,29,0,0,0,0,0,0,0,0,0,-1,776,995,0,0
-441,29,0,0,0,0,0,0,0,0,0,-1,783,995,0,0
-434,29,0,0,0,0,0,0,0,0,0,-1,790,995,0,0
-427,29,0,0,0,0,0,0,0,0,0,-1,797,995,0,0
-420,29,0,0,0,0,0,0,0,0,0,-1,804,995,0,0
-413,29,0,0,0,0,0,0,0,0,0,-1,811,995,0,0
-406,29,0,0,0,0,0,0,0,0,0,-1,818,995,0,0
-399,29,0,0,0,0,0,0,0,0,0,-1,825,995,0,0
-392,29,0,0,0,0,0,0,0,0,0,-1,832,995,0,0
-385,29,0,0,0,0,0,0,0,0,0,-1,839,995,0,0
-378,29,0,0,0,0,0,0,0,0,0,-1,846,995,0,0
-371,29,0,0,0,0,0,0,0,0,0,-1,853,995,0,0
-364,29,0,0,0,0,0,0,0,0,0,-1,860,995,0,0
-357,29,0,0,0,0,0,0,0,0,0,-1,867,995,0,0
-350,29,0,0,0,0,0,0,0,0,0,-1,874,995,0,0
-343,29,0,0,0,0,0,0,0,0,0,-1,881,995,0,0
-336,29,0,0,0,0,0,0,0,0,0,-1,888,995,0,0
-329,29,0,0,0,0,0,0,0,0,0,-1,895,995,0,0
-322,29,0,0,0,0,0,0,0,0,0,-1,902,995,0,0
-315,29,0,0,0,0,0,0,0,0,0,-1,909,995,0,0
-308,29,0,0,0,0,0,0,0,0,0,-1,916,995,0,0
-301,29,0,0,0,0,0,0,0,0,0,-1,923,995,0,0
-294,29,0,0,0,0,0,0,0,0,0,-1,930,995,0,0
-287,29,0,0,0,0,0,0,0,0,0,-1,937,995,0,0
-280,29,0,0,0,0,0,0,0,0,0,-1,944,995,0,0
-273,29,0,0,0,0,0,0,0,0,0,-1,951,995,0,0
-266,29,0,0,0,0,0,0,0,0,0,-1,958,995,0,0
-259,29,0,0,0,0,0,0,0,0,0,-1,965,995,0,0
-252,29,0,0,0,0,0,0,0,0,0,-1,972,995,0,0
-245,29,0,0,0,0,0,0,0,0,0,-1,979,995,0,0
-238,29,0,0,0,0,0,0,0,0,0,-1,986,995,0,0
-231,29,0,0,0,0,0,0,0,0,0,-1,993,995,0,0
-224,29,0,0,0,0,0,0,0,0,0,-1,1000,995,0,0
-217,29,0,0,0,0,0,0,0,0,0,-1,1007,995,0,0
-210,29,0,0,0,0,0,0,0,0,0,-1,1014,995,0,0
-203,29,0,0,0,0,0,0,0,0,0,-1,1021,995,0,0
-196,29,0,0,0,0,0,0,0,0,0,-1,1028,995,0,0
-189,29,0,0,0,0,0,0,0,0,0,-1,1035,995,0,0
-182,29,0,0,0,0,0,0,0,0,0,-1,1042,995,0,0
-175,29,0,0,0,0,0,0,0,0,0,-1,1049,995,0,0
-168,29,0,0,0,0,0,0,0,0,0,-1,1056,995,0,0
-161,29,0,0,0,0,0,0,0,0,0,-1,1063,995,0,0
-154,29,0,0,0,0,0,0,0,0,0,-1,1070,995,0,0
-147,29,0,0,0,0,0,0,0,0,0,-1,1077,995,0,0
-140,29,0,0,0,0,0,0,0,0,0,-1,1084,995,0,0
-133,29,0,0,0,0,0,0,0,0,0,-1,1091,995,0,0
-126,29,0,0,0,0,0,0,0,0,0,-1,1098,995,0,0
-119,29,0,0,0,0,0,0,0,0,0,-1,1105,995,0,0
-112,29,0,0,0,0,0,0,0,0,0,-1,1112,995,0,0
-105,29,0,0,0,0,0,0,0,0,0,-1,1119,995,0,0
-98,29,0,0,0,0,0,0,0,0,0,-1,1126,995,0,0
-91,29,0,0,0,0,0,0,0,0,0,-1,1133,995,0,0
-84,29,0,0,0,0,0,0,0,0,0,-1,1140,995,0,0
-77,29,0,0,0,0,0,0,0,0,0,-1,1147,995,0,0
-70,29,0,0,0,0,0,0,0,0,0,-1,1154,995,0,0
-63,29,0,0,0,0,0,0,0,0,0,-1,1161,995,0,0
-56,29,0,0,0,0,0,0,0,0,0,-1,1168,995,0,0
-49,29,0,0,0,0,0,0,0,0,0,-1,1175,995,0,0
-42,29,0,0,0,0,0,0,0,0,0,-1,1182,995,0,0
-35,29,0,0,0,0,0,0,0,0,0,-1,1189,995,0,0
-28,29,0,0,0,0,0,0,0,0,0,-1,1196,995,0,0
-21,29,0,0,0,0,0,0,0,0,0,-1,1203,995,0,0
-14,29,0,0,0,0,0,0,0,0,0,-1,1210,995,0,0
-7,29,0,0,0,0,0,0,0,0,0,-1,1217,995,0,0
0,29,0,0,0,0,0,0,0,0,0,-1,1224,995,0,0
7,29,0,0,0,0,0,0,0,0,0,-1,1231,995,0,0
14,29,0,0,0,0,0,0,0,0,0,-1,1238,995,0,0
21,29,0,0,0,0,0,0,0,0,0,-1,1245,995,0,0
28,29,0,0,0,0,0,0,0,0,0,-1,1252,995,0,0
35,29,0,0,0,0,0,0,0,0,0,-1,1259,995,0,0
42,29,0,0,0,0,0,0,0,0,0,-1,1266,995,0,0
49,29,0,0,0,0,0,0,0,0,0,-1,1273,995,0,0
56,29,0,0,0,0,0,0,0,0,0,-1,1280,995,0,0
63,29,0,0,0,0,0,0,0,0,0,-1,1287,995,0,0
70,29,0,0,0,0,0,0,0,0,0,-1,1294,995,0,0
77,29,0,0,0,0,0,0,0,0,0,-1,1301,995,0,0
84,29,0,0,0,0,0,0,0,0,0,-1,1308,995,0,0
91,29,0,0,0,0,0,0,0,0,0,-1,1315,995,0,0
98,29,0,0,0,0,0,0,0,0,0,-1,1322,995,0,0
105,29,0,0,0,0,0,0,0,0,0,-1,1329,995,0,0
112,29,0,0,0,0,0,0,0,0,0,-1,1336,995,0,0
119,29,0,0,0,0,0,0,0,0,0,-1,1343,995,0,0
126,29,0,0,0,0,0,0,0,0,0,-1,1350,995,0,0
133,29,0,0,0,0,0,0,0,0,0,-1,1357,995,0,0
140,29,0,0,0,0,0,0,0,0,0,-1,1364,995,0,0
147,29,0,0,0,0,0,0,0,0,0,-1,1371,995,0,0
154,29,0,0,0,0,0,0,0,0,0,-1,1378,995,0,0
161,29,0,0,0,0,0,0,0,0,0,-1,1385,995,0,0
168,29,0,0,0,0,0,0,0,0,0,-1,1392,995,0,0
175,29,0,0,0,0,0,0,0,0,0,-1,1399,995,0,0
182,29,0,0,0,0,0,0,0,0,0,-1,1406,995,0,0
189,29,0,0,0,0,0,0,0,0,0,-1,1413,995,0,0
196,29,0,0,0,0,0,0,0,0,0,-1,1420,995,0,0
203,29,0,0,0,0,0,0,0,0,0,-1,1427,995,0,0
210,29,0,0,0,0,0,0,0,0,0,-1,1434,995,0,0
217,29,0,0,0,0,0,0,0,0,0,-1,1441,995,0,0
224,29,0,0,0,0,0,0,0,0,0,-1,1448,995,0,0
231,29,0,0,0,0,0,0,0,0,0,-1,1455,995,0,0
238,29,0,0,0,0,0,0,0,0,0,-1,1462,995,0,0
245,29,0,0,0,0,0,0,0,0,0,-1,1469,995,0,0
252,29,0,0,0,0,0,0,0,0,0,-1,1476,995,0,0
259,29,0,0,0,0,0,0,0,0,0,-1,1483,995,0,0
266,29,0,0,0,0,0,0,0,0,0,-1,1490,995,0,0
273,29,0,0,0,0,0,0,0,0,0,-1,1497,995,0,0
280,29,0,0,0,0,0,0,0,0,0,-1,1504,995,0,0
287,29,0,0,0,0,0,0,0,0,0,-1,1511,995,0,0
294,29,0,0,0,0,0,0,0,0,0,-1,1518,995,0,0
301,29,0,0,0,0,0,0,0,0,0,-1,1525,995,0,0
308,29,0,0,0,0,0,0,0,0,0,-1,1532,995,0,0
315,29,0,0,0,0,0,0,0,0,0,-1,1539,995,0,0
322,29,0,0,0,0,0,0,0,0,0,-1,1546,995,0,0
329,29,0,0,0,0,0,0,0,0,0,-1,1553,995,0,0
336,29,0,0,0,0,0,0,0,0,0,-1,1560,995,0,0
343,29,0,0,0,0,0,0,0,0,0,-1,1567,995,0,0
350,29,0,0,0,0,0,0,0,0,0,-1,1574,995,0,0
357,29,0,0,0,0,0,0,0,0,0,-1,1581,995,0,0
364,29,0,0,0,0,0,0,0,0,0,-1,1588,995,0,0
371,29,0,0,0,0,0,0,0,0,0,-1,1595,995,0,0
378,29,0,0,0,0,0,0,0,0,0,-1,1602,995,0,0
385,29,0,0,0,0,0,0,0,0,0,-1,1609,995,0,0
392,29,0,0,0,0,0,0,0,0,0,-1,1616,995,0,0
399,29,0,0,0,0,0,0,0,0,0,-1,1623,995,0,0
406,29,0,0,0,0,0,0,0,0,0,-1,1630,995,0,0
413,29,0,0,0,0,0,0,0,0,0,-1,1637,995,0,0
420,29,0,0,0,0,0,0,0,0,0,-1,1644,995,0,0
427,29,0,0,0,0,0,0,0,0,0,-1,1651,995,0,0
434,29,0,0,0,0,0,0,0,0,0,-1,1658,995,0,0
441,29,0,0,0,0,0,0,0,0,0,-1,1665,995,0,0
448,29,0,0,0,0,0,0,0,0,0,-1,1672,995,0,0
455,29,0,0,0,0,0,0,0,0,0,-1,1679,995,0,0
462,29,0,0,0,0,0,0,0,0,0,-1,1686,995,0,0
469,29,0,0,0,0,0,0,0,0,0,-1,1693,995,0,0
476,29,0,0,0,0,0,0,0,0,0,-1,1700,995,0,0
483,29,0,0,0,0,0,0,0,0,0,-1,1707,995,0,0
490,29,0,0,0,0,0,0,0,0,0,-1,1714,995,0,0
497,29,0,0,0,0,0,0,0,0,0,-1,1721,995,0,0
504,29,0,0,0,0,0,0,0,0,0,-1,1728,995,0,0
511,29,0,0,0,0,0,0,0,0,0,-1,1735,995,0,0
518,29,0,0,0,0,0,0,0,0,0,-1,1742,995,0,0
525,29,0,0,0,0,0,0,0,0,0,-1,1749,995,0,0
532,29,0,0,0,0,0,0,0,0,0,-1,1756,995,0,0
539,29,0,0,0,0,0,0,0,0,0,-1,1763,995,0,0
546,29,0,0,0,0,0,0,0,0,0,-1,1770,995,0,0
553,29,0,0,0,0,0,0,0,0,0,-1,1777,995,0,0
560,29,0,0,0,0,0,0,0,0,0,-1,1784,995,0,0
567,29,0,0,0,0,0,0,0,0,0,-1,1791,995,0,0
574,29,0,0,0,0,0,0,0,0,0,-1,1798,995,0,0
581,29,0,0,0,0,0,0,0,0,0,-1,1805,995,0,0
588,29,0,0,0,0,0,0,0,0,0,-1,1812,995,0,0
595,29,0,0,0,0,0,0,0,0,0,-1,1819,995,0,0
602,29,0,0,0,0,0,0,0,0,0,-1,1826,995,0,0
609,29,0,0,0,0,0,0,0,0,0,-1,1833,995,0,0
616,29,0,0,0,0,0,0,0,0,0,-1,1840,995,0,0
623,29,0,0,0,0,0,0,0,0,0,-1,1847,995,0,0
630,29,0,0,0,0,0,0,0,0,0,-1,1854,995,0,0
637,29,0,0,0,0,0,0,0,0,0,-1,1861,995,0,0
644,29,29.0916,2.47339,0,0,0,0,0,0,0,-1,1868,995,29.0916,-2.47337
651,29,29.0964,2.91284,0,0,0,0,0,0,0,-1,1875,995,29.0964,-2.91284
658,29,29.2622,2.85638,0.00307996,0.00123082,-0.000810664,0.00338503,0.000925756,-0.359924,0.00202009,0.0419596,1882,995,29.2622,-2.85641
665,29,29.3876,2.63953,0.00187164,0.00101973,1.0254e-05,0.00187177,0.00101961,0.0120341,0.0010821,0.0419084,1889,995,29.3876,-2.63954
672,29,29.2823,2.77655,0.000695315,0.00114151,0.00101618,0.00195879,-0.000121968,0.893456,0.00134836,0.0399114,1896,995,29.2824,-2.77657
679,29,29.1382,2.91827,-0.00053253,0.00145997,0.00204124,0.0027351,-0.00180766,1.01242,0.00264092,0.0384751,1903,995,29.1382,-2.91827
686,29,29.0624,2.89014,-0.00138808,0.00166212,0.00279781,0.0033235,-0.00304947,1.03494,0.00368057,0.0385577,1910,995,29.0623,-2.89012
693,29,29.087,2.75568,-0.0019667,0.00179952,0.0032984,0.00371451,-0.00388169,1.04478,0.00438602,0.0379852,1917,995,29.087,-2.75568
700,29,29.1422,2.66919,-0.00240224,0.00186005,0.00352634,0.0038492,-0.00439139,1.0572,0.00476114,0.0317399,1924,995,29.1422,-2.66916
707,29,29.1542,2.63904,-0.00270991,0.00207752,0.00365838,0.00405572,-0.0046881,1.0751,0.00505264,0.0210361,1931,995,29.1542,-2.63902
714,29,29.1636,2.99097,-0.0031326,0.00226431,0.00367521,0.00412533,-0.00499362,1.10206,0.00527278,0.0263555,1938,995,29.1636,-2.99095
721,29,28.9097,3.95166,0,0,0,0,0,0,0,-1,1945,995,28.9097,-3.95166
728,29,28.7114,4.16663,-0.00357156,0.00284879,0.00288557,0.00395506,-0.00467784,1.2047,0.00499002,0.0233273,1952,995,28.7115,-4.1666
735,29,28.5808,4.34253,-0.00368195,0.00317615,0.00217855,0.00380967,-0.00431548,1.2878,0.00469408,0.0152801,1959,995,28.5808,-4.34253
742,29,28.5851,4.42096,-0.00404481,0.00351614,0.00167802,0.00387182,-0.00440048,1.36193,0.00477926,0.0132192,1966,995,28.585,-4.42094
749,29,28.6022,4.52106,-0.00434508,0.00403884,0.00122074,0.00421297,-0.00451921,1.42911,0.00504256,0.0134971,1973,995,28.6021,-4.52107
756,29,28.5941,4.63226,-0.00442178,0.00502624,0.000512916,0.005054,-0.00444954,1.51672,0.00549057,0.0129337,1980,995,28.5941,-4.63227
763,29,28.5828,4.70508,-0.0043003,0.00632628,-0.000351583,0.0063379,-0.00431192,-1.53776,0.00618565,0.0128259,1987,995,28.5828,-4.70506
770,29,28.5199,4.76788,-0.00413903,0.00800478,-0.000813398,0.00805902,-0.00419327,-1.50421,0.00719027,0.0131767,1994,995,28.5199,-4.76789
777,29,28.4425,4.87109,-0.00370474,0.0102666,-0.000737657,0.0103055,-0.00374358,-1.51819,0.00840097,0.0203453,2001,995,28.4425,-4.87111
784,29,28.3931,4.97046,-0.00292158,0.013219,-0.000215941,0.0132219,-0.00292447,-1.55742,0.00993398,0.0425632,2008,995,28.393,-4.97049
791,29,27.9205,5.57031,-0.00107648,0.0169674,0.000730585,0.0169969,-0.00110602,1.5304,0.0117174,0.0469215,2015,995,27.9205,-5.57034
798,29,27.8994,5.94641,0,0,0,0,0,0,0,-1,2022,995,27.8994,-5.94643
805,29,28.2324,5.52692,0,0,0,0,0,0,0,-1,2029,995,28.2324,-5.52689
812,29,28.2561,5.45422,0,0,0,0,0,0,0,-1,2036,995,28.2561,-5.45424
-700,22,0,0,0,0,0,0,0,0,0,-1,524,1002,0,0
-693,22,-21.0882,0.418152,0,0,0,0,0,0,0,-1,531,1002,-21.0882,-0.418135
-686,22,-20.703,0.748901,0.0860658,-0.0288484,0.0538114,0.10733,-0.0501123,0.376323,0.0928785,0.0457477,538,1002,-20.703,-0.748927
-679,22,-20.1915,1.27679,0.0714268,-0.0221505,0.0465873,0.0906651,-0.0413887,0.391621,0.0779906,0.048645,545,1002,-20.1915,-1.27681
-672,22,-20.1242,1.98859,0,0,0,0,0,0,0,-1,552,1002,-20.1242,-1.98856
-665,22,-19.5916,2.63281,0,0,0,0,0,0,0,-1,559,1002,-19.5915,-2.6328
-658,22,-20.3108,2.29846,0,0,0,0,0,0,0,-1,566,1002,-20.3108,-2.29844
-651,22,-20.3228,2.24731,0.024165,-0.00466814,0.0191372,0.0337082,-0.0142113,0.462584,0.0284194,0.0398503,573,1002,-20.3227,-2.2473
-644,22,-20.3947,2.14581,0.0162327,-0.00221988,0.0136104,0.0234492,-0.00943641,0.487533,0.0195526,0.0206757,580,1002,-20.3946,-2.14579
-637,22,-20.5078,2.07544,0.0100226,0.000428324,0.0087009,0.0151612,-0.00471023,0.533463,0.01199,0.0144499,587,1002,-20.5077,-2.07544
-630,22,-20.5338,2.05487,0.00391669,0.00198036,0.0037265,0.00679874,-0.000901695,0.658305,0.00486102,0.0109032,594,1002,-20.5338,-2.05484
-623,22,-20.5522,2.02289,-0.0001513,0.00206975,9.33955e-07,0.00206975,-0.000151301,1.57038,0.00143293,0.00936314,601,1002,-20.5522,-2.02291
-616,22,-20.5393,1.95721,-0.0012405,0.00197586,-0.00259872,0.00342376,-0.0026884,-1.06248,0.00353736,0.014818,608,1002,-20.5393,-1.9572
-609,22,-20.562,1.88965,-0.00128077,0.00196534,-0.00433595,0.00497205,-0.00428748,-0.964488,0.00535086,0.0242842,615,1002,-20.562,-1.88967
-602,22,-20.5707,1.80481,-0.00128837,0.00181052,-0.0056772,0.00614592,-0.00562376,-0.918616,0.00679746,0.0241148,622,1002,-20.5707,-1.8048
-595,22,-20.4111,1.67133,-0.00127687,0.00115919,-0.00622779,0.00628694,-0.00640462,-0.881969,0.00732758,0.0218162,629,1002,-20.411,-1.67135
-588,22,-20.4064,1.31049,-0.000994888,0.000438562,-0.00667388,0.00643409,-0.00699042,-0.838889,0.00775286,0.0301857,636,1002,-20.4064,-1.3105
-581,22,-20.466,0.899902,-0.000624811,-0.000216266,-0.00683155,0.00641407,-0.00725515,-0.800344,0.0078969,0.0392645,643,1002,-20.466,-0.899888
-574,22,-20.4832,0.767456,-0.000371218,-0.000852971,-0.00667903,0.00607127,-0.00729546,-0.767374,0.00772807,0.033675,650,1002,-20.4831,-0.767438
-567,22,-20.4996,0.732056,4.70961e-05,-0.00160539,-0.00610466,0.00538118,-0.00693947,-0.718134,0.00713227,0.0341671,657,1002,-20.4996,-0.732072
-560,22,-20.4967,0.445007,0.000796108,-0.0024049,-0.00524978,0.00468393,-0.00629273,-0.637438,0.00636003,0.0403053,664,1002,-20.4967,-0.444992
-553,22,-20.4868,0.485107,0.00194185,-0.0032188,-0.0042618,0.0043436,-0.00562055,-0.513188,0.00576852,0.0434943,671,1002,-20.4867,-0.48513
-546,22,-20.7032,1.48834,0,0,0,0,0,0,0,-1,678,1002,-20.7032,-1.48832
-539,22,-20.4612,0.864441,0.00588974,-0.00441005,-0.00294265,0.00667117,-0.00519147,-0.259562,0.00686664,0.0413282,685,1002,-20.4612,-0.864434
-532,22,-20.3296,0.605713,0.00831257,-0.00393255,-0.0042601,0.00964884,-0.00526883,-0.303952,0.00873559,0.0417775,692,1002,-20.3296,-0.605736
-525,22,0,0,0,0,0,0,0,0,0,-1,699,1002,0,0
-518,22,0,0,0,0,0,0,0,0,0,-1,706,1002,0,0
-511,22,0,0,0,0,0,0,0,0,0,-1,713,1002,0,0
-504,22,0,0,0,0,0,0,0,0,0,-1,720,1002,0,0
-497,22,0,0,0,0,0,0,0,0,0,-1,727,1002,0,0
-490,22,0,0,0,0,0,0,0,0,0,-1,734,1002,0,0
-483,22,0,0,0,0,0,0,0,0,0,-1,741,1002,0,0
-476,22,0,0,0,0,0,0,0,0,0,-1,748,1002,0,0
-469,22,0,0,0,0,0,0,0,0,0,-1,755,1002,0,0
-462,22,0,0,0,0,0,0,0,0,0,-1,762,1002,0,0
-455,22,0,0,0,0,0,0,0,0,0,-1,769,1002,0,0
-448,22,0,0,0,0,0,0,0,0,0,-1,776,1002,0,0
-441,22,0,0,0,0,0,0,0,0,0,-1,783,1002,0,0
-434,22,0,0,0,0,0,0,0,0,0,-1,790,1002,0,0
-427,22,0,0,0,0,0,0,0,0,0,-1,797,1002,0,0
-420,22,0,0,0,0,0,0,0,0,0,-1,804,1002,0,0
-413,22,0,0,0,0,0,0,0,0,0,-1,811,1002,0,0
-406,22,0,0,0,0,0,0,0,0,0,-1,818,1002,0,0
-399,22,0,0,0,0,0,0,0,0,0,-1,825,1002,0,0
-392,22,0,0,0,0,0,0,0,0,0,-1,832,1002,0,0
-385,22,0,0,0,0,0,0,0,0,0,-1,839,1002,0,0
-378,22,0,0,0,0,0,0,0,0,0,-1,846,1002,0,0
-371,22,0,0,0,0,0,0,0,0,0,-1,853,1002,0,0
-364,22,0,0,0,0,0,0,0,0,0,-1,860,1002,0,0
-357,22,0,0,0,0,0,0,0,0,0,-1,867,1002,0,0
-350,22,0,0,0,0,0,0,0,0,0,-1,874,1002,0,0
-343,22,0,0,0,0,0,0,0,0,0,-1,881,1002,0,0
-336,22,0,0,0,0,0,0,0,0,0,-1,888,1002,0,0
-329,22,0,0,0,0,0,0,0,0,0,-1,895,1002,0,0
-322,22,0,0,0,0,0,0,0,0,0,-1,902,1002,0,0
-315,22,0,0,0,0,0,0,0,0,0,-1,909,1002,0,0
-308,22,0,0,0,0,0,0,0,0,0,-1,916,1002,0,0
-301,22,0,0,0,0,0,0,0,0,0,-1,923,1002,0,0
-294,22,0,0,0,0,0,0,0,0,0,-1,930,1002,0,0
-287,22,0,0,0,0,0,0,0,0,0,-1,937,1002,0,0
-280,22,0,0,0,0,0,0,0,0,0,-1,944,1002,0,0
-273,22,0,0,0,0,0,0,0,0,0,-1,951,1002,0,0
-266,22,0,0,0,0,0,0,0,0,0,-1,958,1002,0,0
-259,22,0,0,0,0,0,0,0,0,0,-1,965,1002,0,0
-252,22,0,0,0,0,0,0,0,0,0,-1,972,1002,0,0
-245,22,0,0,0,0,0,0,0,0,0,-1,979,1002,0,0
-238,22,0,0,0,0,0,0,0,0,0,-1,986,1002,0,0
-231,22,0,0,0,0,0,0,0,0,0,-1,993,1002,0,0
-224,22,0,0,0,0,0,0,0,0,0,-1,1000,1002,0,0
-217,22,0,0,0,0,0,0,0,0,0,-1,1007,1002,0,0
-210,22,0,0,0,0,0,0,0,0,0,-1,1014,1002,0,0
-203,22,0,0,0,0,0,0,0,0,0,-1,1021,1002,0,0
-196,22,0,0,0,0,0,0,0,0,0,-1,1028,1002,0,0
-189,22,0,0,0,0,0,0,0,0,0,-1,1035,1002,0,0
-182,22,0,0,0,0,0,0,0,0,0,-1,1042,1002,0,0
-175,22,0,0,0,0,0,0,0,0,0,-1,1049,1002,0,0
-168,22,0,0,0,0,0,0,0,0,0,-1,1056,1002,0,0
-161,22,0,0,0,0,0,0,0,0,0,-1,1063,1002,0,0
-154,22,0,0,0,0,0,0,0,0,0,-1,1070,1002,0,0
-147,22,0,0,0,0,0,0,0,0,0,-1,1077,1002,0,0
-140,22,0,0,0,0,0,0,0,0,0,-1,1084,1002,0,0
-133,22,0,0,0,0,0,0,0,0,0,-1,1091,1002,0,0
-126,22,0,0,0,0,0,0,0,0,0,-1,1098,1002,0,0
-119,22,0,0,0,0,0,0,0,0,0,-1,1105,1002,0,0
-112,22,0,0,0,0,0,0,0,0,0,-1,1112,1002,0,0
-105,22,0,0,0,0,0,0,0,0,0,-1,1119,1002,0,0
-98,22,0,0,0,0,0,0,0,0,0,-1,1126,1002,0,0
-91,22,0,0,0,0,0,0,0,0,0,-1,1133,1002,0,0
-84,22,0,0,0,0,0,0,0,0,0,-1,1140,1002,0,0
-77,22,0,0,0,0,0,0,0,0,0,-1,1147,1002,0,0
-70,22,0,0,0,0,0,0,0,0,0,-1,1154,1002,0,0
-63,22,0,0,0,0,0,0,0,0,0,-1,1161,1002,0,0
-56,22,0,0,0,0,0,0,0,0,0,-1,1168,1002,0,0
-49,22,0,0,0,0,0,0,0,0,0,-1,1175,1002,0,0
-42,22,0,0,0,0,0,0,0,0,0,-1,1182,1002,0,0
-35,22,0,0,0,0,0,0,0,0,0,-1,1189,1002,0,0
-28,22,0,0,0,0,0,0,0,0,0,-1,1196,1002,0,0
-21,22,0,0,0,0,0,0,0,0,0,-1,1203,1002,0,0
-14,22,0,0,0,0,0,0,0,0,0,-1,1210,1002,0,0
-7,22,0,0,0,0,0,0,0,0,0,-1,1217,1002,0,0
0,22,0,0,0,0,0,0,0,0,0,-1,1224,1002,0,0
7,22,0,0,0,0,0,0,0,0,0,-1,1231,1002,0,0
14,22,0,0,0,0,0,0,0,0,0,-1,1238,1002,0,0
21,22,0,0,0,0,0,0,0,0,0,-1,1245,1002,0,0
28,22,0,0,0,0,0,0,0,0,0,-1,1252,1002,0,0
35,22,0,0,0,0,0,0,0,0,0,-1,1259,1002,0,0
42,22,0,0,0,0,0,0,0,0,0,-1,1266,1002,0,0
49,22,0,0,0,0,0,0,0,0,0,-1,1273,1002,0,0
56,22,0,0,0,0,0,0,0,0,0,-1,1280,1002,0,0
63,22,0,0,0,0,0,0,0,0,0,-1,1287,1002,0,0
70,22,0,0,0,0,0,0,0,0,0,-1,1294,1002,0,0
77,22,0,0,0,0,0,0,0,0,0,-1,1301,1002,0,0
84,22,0,0,0,0,0,0,0,0,0,-1,1308,1002,0,0
91,22,0,0,0,0,0,0,0,0,0,-1,1315,1002,0,0
98,22,0,0,0,0,0,0,0,0,0,-1,1322,1002,0,0
105,22,0,0,0,0,0,0,0,0,0,-1,1329,1002,0,0
112,22,0,0,0,0,0,0,0,0,0,-1,1336,1002,0,0
119,22,0,0,0,0,0,0,0,0,0,-1,1343,1002,0,0
126,22,0,0,0,0,0,0,0,0,0,-1,1350,1002,0,0
133,22,0,0,0,0,0,0,0,0,0,-1,1357,1002,0,0
140,22,0,0,0,0,0,0,0,0,0,-1,1364,1002,0,0
147,22,0,0,0,0,0,0,0,0,0,-1,1371,1002,0,0
154,22,0,0,0,0,0,0,0,0,0,-1,1378,1002,0,0
161,22,0,0,0,0,0,0,0,0,0,-1,1385,1002,0,0
168,22,0,0,0,0,0,0,0,0,0,-1,1392,1002,0,0
175,22,0,0,0,0,0,0,0,0,0,-1,1399,1002,0,0
182,22,0,0,0,0,0,0,0,0,0,-1,1406,1002,0,0
189,22,0,0,0,0,0,0,0,0,0,-1,1413,1002,0,0
196,22,0,0,0,0,0,0,0,0,0,-1,1420,1002,0,0
203,22,0,0,0,0,0,0,0,0,0,-1,1427,1002,0,0
210,22,0,0,0,0,0,0,0,0,0,-1,1434,1002,0,0
217,22,0,0,0,0,0,0,0,0,0,-1,1441,1002,0,0
224,22,0,0,0,0,0,0,0,0,0,-1,1448,1002,0,0
231,22,0,0,0,0,0,0,0,0,0,-1,1455,1002,0,0
238,22,0,0,0,0,0,0,0,0,0,-1,1462,1002,0,0
245,22,0,0,0,0,0,0,0,0,0,-1,1469,1002,0,0
252,22,0,0,0,0,0,0,0,0,0,-1,1476,1002,0,0
259,22,0,0,0,0,0,0,0,0,0,-1,1483,1002,0,0
266,22,0,0,0,0,0,0,0,0,0,-1,1490,1002,0,0
273,22,0,0,0,0,0,0,0,0,0,-1,1497,1002,0,0
280,22,0,0,0,0,0,0,0,0,0,-1,1504,1002,0,0
287,22,0,0,0,0,0,0,0,0,0,-1,1511,1002,0,0
294,22,0,0,0,0,0,0,0,0,0,-1,1518,1002,0,0
301,22,0,0,0,0,0,0,0,0,0,-1,1525,1002,0,0
308,22,0,0,0,0,0,0,0,0,0,-1,1532,1002,0,0
315,22,0,0,0,0,0,0,0,0,0,-1,1539,1002,0,0
322,22,0,0,0,0,0,0,0,0,0,-1,1546,1002,0,0
329,22,0,0,0,0,0,0,0,0,0,-1,1553,1002,0,0
336,22,0,0,0,0,0,0,0,0,0,-1,1560,1002,0,0
343,22,0,0,0,0,0,0,0,0,0,-1,1567,1002,0,0
350,22,0,0,0,0,0,0,0,0,0,-1,1574,1002,0,0
357,22,0,0,0,0,0,0,0,0,0,-1,1581,1002,0,0
364,22,0,0,0,0,0,0,0,0,0,-1,1588,1002,0,0
371,22,0,0,0,0,0,0,0,0,0,-1,1595,1002,0,0
378,22,0,0,0,0,0,0,0,0,0,-1,1602,1002,0,0
385,22,0,0,0,0,0,0,0,0,0,-1,1609,1002,0,0
392,22,0,0,0,0,0,0,0,0,0,-1,1616,1002,0,0
399,22,0,0,0,0,0,0,0,0,0,-1,1623,1002,0,0
406,22,0,0,0,0,0,0,0,0,0,-1,1630,1002,0,0
413,22,0,0,0,0,0,0,0,0,0,-1,1637,1002,0,0
420,22,0,0,0,0,0,0,0,0,0,-1,1644,1002,0,0
427,22,0,0,0,0,0,0,0,0,0,-1,1651,1002,0,0
434,22,0,0,0,0,0,0,0,0,0,-1,1658,1002,0,0
441,22,0,0,0,0,0,0,0,0,0,-1,1665,1002,0,0
448,22,0,0,0,0,0,0,0,0,0,-1,1672,1002,0,0
455,22,0,0,0,0,0,0,0,0,0,-1,1679,1002,0,0
462,22,0,0,0,0,0,0,0,0,0,-1,1686,1002,0,0
469,22,0,0,0,0,0,0,0,0,0,-1,1693,1002,0,0
476,22,0,0,0,0,0,0,0,0,0,-1,1700,1002,0,0
483,22,0,0,0,0,0,0,0,0,0,-1,1707,1002,0,0
490,22,0,0,0,0,0,0,0,0,0,-1,1714,1002,0,0
497,22,0,0,0,0,0,0,0,0,0,-1,1721,1002,0,0
504,22,0,0,0,0,0,0,0,0,0,-1,1728,1002,0,0
511,22,0,0,0,0,0,0,0,0,0,-1,1735,1002,0,0
518,22,0,0,0,0,0,0,0,0,0,-1,1742,1002,0,0
525,22,0,0,0,0,0,0,0,0,0,-1,1749,1002,0,0
532,22,0,0,0,0,0,0,0,0,0,-1,1756,1002,0,0
539,22,0,0,0,0,0,0,0,0,0,-1,1763,1002,0,0
546,22,0,0,0,0,0,0,0,0,0,-1,1770,1002,0,0
553,22,0,0,0,0,0,0,0,0,0,-1,1777,1002,0,0
560,22,0,0,0,0,0,0,0,0,0,-1,1784,1002,0,0
567,22,0,0,0,0,0,0,0,0,0,-1,1791,1002,0,0
574,22,0,0,0,0,0,0,0,0,0,-1,1798,1002,0,0
581,22,0,0,0,0,0,0,0,0,0,-1,1805,1002,0,0
588,22,0,0,0,0,0,0,0,0,0,-1,1812,1002,0,0
595,22,0,0,0,0,0,0,0,0,0,-1,1819,1002,0,0
602,22,0,0,0,0,0,0,0,0,0,-1,1826,1002,0,0
609,22,0,0,0,0,0,0,0,0,0,-1,1833,1002,0,0
616,22,0,0,0,0,0,0,0,0,0,-1,1840,1002,0,0
623,22,0,0,0,0,0,0,0,0,0,-1,1847,1002,0,0
630,22,0,0,0,0,0,0,0,0,0,-1,1854,1002,0,0
637,22,0,0,0,0,0,0,0,0,0,-1,1861,1002,0,0
644,22,29.1366,2.39813,0.00574007,0.0022824,-0.00125217,0.0061459,0.00187657,-0.31342,0.00363687,0.039761,1868,1002,29.1365,-2.39815
651,22,29.0839,2.50854,0.00398219,0.00168087,-0.000600779,0.00412958,0.00153347,-0.240593,0.00241039,0.0435643,1875,1002,29.0838,-2.50853
658,22,29.2402,2.63629,0.00277929,0.00120961,-0.000264632,0.0028227,0.0011662,-0.162604,0.00163786,0.0418275,1882,1002,29.2403,-2.63628
665,22,29.3628,2.5827,0.00168955,0.00105997,0.000257613,0.00178153,0.000967993,0.342917,0.00102985,0.0396078,1889,1002,29.3628,-2.58267
672,22,29.2288,2.65302,0.00064023,0.00122048,0.00101574,0.00198672,-0.00012601,0.924509,0.00136842,0.0401759,1896,1002,29.2287,-2.65304
679,22,29.1169,2.77881,-0.000492311,0.0015784,0.00187238,0.00268262,-0.00159653,1.03796,0.00249695,0.0394368,1903,1002,29.117,-2.77883
686,22,29.2181,2.89935,-0.00128173,0.00178704,0.00253863,0.00321897,-0.00271365,1.05723,0.00342933,0.0381897,1910,1002,29.2181,-2.89937
693,22,29.2372,2.91821,-0.00180853,0.00191366,0.00298743,0.00357228,-0.00346715,1.06397,0.00406437,0.0356384,1917,1002,29.2372,-2.91819
700,22,29.2189,2.71887,-0.00220705,0.00193563,0.00319937,0.00367565,-0.00394706,1.07268,0.0044019,0.0304032,1924,1002,29.2189,-2.71889
707,22,29.1597,2.71539,-0.00247256,0.00210942,0.00335362,0.00387988,-0.00424302,1.08506,0.00469132,0.0258634,1931,1002,29.1597,-2.71539
714,22,29.3579,2.13861,0,0,0,0,0,0,0,-1,1938,1002,29.3579,-2.13859
721,22,29.0724,3.4707,-0.00324115,0.00251845,0.00322657,0.00396346,-0.00468617,1.14973,0.00499967,0.0349406,1945,1002,29.0724,-3.47068
728,22,28.6985,4.02441,-0.00332776,0.00282535,0.00275386,0.00387783,-0.00438024,1.20574,0.00477074,0.0315466,1952,1002,28.6985,-4.02439
735,22,28.6869,4.38251,-0.00345354,0.00310397,0.00220316,0.00377543,-0.004125,1.27497,0.0045628,0.0152975,1959,1002,28.6869,-4.3825
742,22,28.7157,4.44586,-0.00383437,0.00342603,0.00179676,0.00384635,-0.00425468,1.341,0.00467911,0.0159639,1966,1002,28.7156,-4.44587
749,22,28.6884,4.49878,-0.00424132,0.00416043,0.00143568,0.00439898,-0.00447988,1.40614,0.00512628,0.0117684,1973,1002,28.6884,-4.49878
756,22,28.676,4.57404,-0.00450076,0.00553971,0.000775826,0.0055993,-0.00456035,1.49413,0.00587589,0.0167391,1980,1002,28.676,-4.57402
763,22,28.6418,4.66901,-0.00453803,0.00748428,-8.74026e-05,0.00748492,-0.00453867,-1.56353,0.00701095,0.0192628,1987,1002,28.6418,-4.66899
770,22,28.6201,4.71362,-0.0046497,0.0101115,-0.000667011,0.0101416,-0.00467978,-1.52573,0.00874866,0.0122792,1994,1002,28.6202,-4.71361
777,22,28.514,4.79169,-0.00457807,0.0137183,-0.000811225,0.0137542,-0.00461397,-1.52657,0.0110339,0.0198986,2001,1002,28.5141,-4.79169
784,22,28.3586,4.86975,-0.00426315,0.018475,-0.000654072,0.0184938,-0.00428195,-1.54206,0.0139769,0.0430241,2008,1002,28.3586,-4.86976
791,22,28.0491,5.013,-0.00308204,0.0246759,-0.000278776,0.0246787,-0.00308483,-1.56075,0.0175713,0.0499064,2015,1002,28.049,-5.01297
798,22,28.0078,5.37207,0,0,0,0,0,0,0,-1,2022,1002,28.0079,-5.37205
805,22,28.2532,5.6402,0,0,0,0,0,0,0,-1,2029,1002,28.2531,-5.64017
812,22,28.2209,5.58392,0,0,0,0,0,0,0,-1,2036,1002,28.221,-5.58391
-700,15,0,0,0,0,0,0,0,0,0,-1,524,1009,0,0
-693,15,-22.2417,0.180908,0,0,0,0,0,0,0,-1,531,1009,-22.2417,-0.180885
-686,15,-21.4146,0.130066,0.0847304,-0.0202194,0.0479569,0.103343,-0.0388324,0.370222,0.0848551,0.045095,538,1009,-21.4146,-0.130053
-679,15,-20.3904,1.49207,0.0684499,-0.0152019,0.0421043,0.0859719,-0.0327239,0.394358,0.0707903,0.0492969,545,1009,-20.3904,-1.49207
-672,15,-20.2823,1.90741,0.0538964,-0.0109839,0.0357378,0.0697217,-0.0268092,0.416864,0.0575385,0.0460638,552,1009,-20.2823,-1.90739
-665,15,-20.6172,1.42242,0,0,0,0,0,0,0,-1,559,1009,-20.6172,-1.42243
-658,15,-20.4398,2.22314,0,0,0,0,0,0,0,-1,566,1009,-20.4398,-2.22317
-651,15,-20.4211,2.11548,0.0209263,-0.00243839,0.0176783,0.0304336,-0.0119456,0.493422,0.0252318,0.0391448,573,1009,-20.4211,-2.11548
-644,15,-20.4706,2.06909,0.013634,-0.00072838,0.012514,0.0208809,-0.00797528,0.524913,0.0172066,0.0231617,580,1009,-20.4706,-2.06908
-637,15,-20.5258,2.08081,0.00801069,0.0012883,0.00783039,0.0131708,-0.00387181,0.582666,0.0103162,0.0179049,587,1009,-20.5258,-2.0808
-630,15,-20.5519,2.02905,0.00249391,0.00228601,0.00320689,0.00559854,-0.000818616,0.769197,0.00403302,0.0123024,594,1009,-20.5519,-2.02905
-623,15,-20.5793,2.005,-0.000668654,0.00201604,-0.000371287,0.00206644,-0.000719057,-1.43587,0.00166974,0.00900972,601,1009,-20.5794,-2.00499
-616,15,-20.6147,1.96326,-0.000961039,0.00181547,-0.00300875,0.0037408,-0.00288636,-1.00155,0.00383678,0.0134381,608,1009,-20.6147,-1.96326
-609,15,-20.6194,1.9187,-0.000875717,0.00181791,-0.00481474,0.00547066,-0.00452847,-0.921776,0.00578154,0.0197986,615,1009,-20.6194,-1.91869
-602,15,-20.5743,1.841,-0.000756257,0.00165822,-0.00620145,0.00676884,-0.00586688,-0.881531,0.00730143,0.0201393,622,1009,-20.5743,-1.84103
-595,15,-20.4572,1.42877,-0.000648783,0.000972324,-0.00671264,0.00692317,-0.00659963,-0.845482,0.00780814,0.0280015,629,1009,-20.4572,-1.42874
-588,15,-20.4316,1.10815,-0.000328649,0.000246518,-0.0070993,0.00706406,-0.00714619,-0.805641,0.00820433,0.0331433,636,1009,-20.4316,-1.10814
-581,15,-20.4512,0.724487,3.62759e-05,-0.000423883,-0.0072019,0.00701177,-0.00739938,-0.76943,0.00832129,0.0364944,643,1009,-20.4512,-0.724505
-574,15,-20.4451,0.678467,0.000222255,-0.00108243,-0.00696613,0.00656653,-0.0074267,-0.738712,0.00808408,0.03314,650,1009,-20.4451,-0.67845
-567,15,-20.514,0.832825,0.000522188,-0.00184466,-0.00628334,0.00573258,-0.00705505,-0.692317,0.00739609,0.0348737,657,1009,-20.514,-0.832798
-560,15,-20.5369,1.0589,0.00110131,-0.00264395,-0.00530569,0.00485515,-0.00639779,-0.615749,0.0065172,0.0404152,664,1009,-20.5369,-1.05892
-553,15,-20.4592,1.02905,0.00203439,-0.00344956,-0.00419734,0.00430601,-0.00572117,-0.496065,0.00580838,0.0420042,671,1009,-20.4592,-1.02908
-546,15,-20.4689,0.971436,0.0034708,-0.00420303,-0.00315672,0.00460247,-0.0053347,-0.344222,0.00574242,0.0428548,678,1009,-20.469,-0.971431
-539,15,-20.4508,1.05243,0.00551302,-0.0045382,-0.0027908,0.00623591,-0.0052611,-0.253457,0.00664575,0.0417293,685,1009,-20.4508,-1.05245
-532,15,-20.4656,0.695068,0.00780793,-0.00391439,-0.00441219,0.00928302,-0.00538949,-0.32264,0.00857002,0.0405137,692,1009,-20.4656,-0.695076
-525,15,0,0,0,0,0,0,0,0,0,-1,699,1009,0,0
-518,15,0,0,0,0,0,0,0,0,0,-1,706,1009,0,0
-511,15,0,0,0,0,0,0,0,0,0,-1,713,1009,0,0
-504,15,0,0,0,0,0,0,0,0,0,-1,720,1009,0,0
-497,15,0,0,0,0,0,0,0,0,0,-1,727,1009,0,0
-490,15,0,0,0,0,0,0,0,0,0,-1,734,1009,0,0
-483,15,0,0,0,0,0,0,0,0,0,-1,741,1009,0,0
-476,15,0,0,0,0,0,0,0,0,0,-1,748,1009,0,0
-469,15,0,0,0,0,0,0,0,0,0,-1,755,1009,0,0
-462,15,0,0,0,0,0,0,0,0,0,-1,762,1009,0,0
-455,15,0,0,0,0,0,0,0,0,0,-1,769,1009,0,0
-448,15,0,0,0,0,0,0,0,0,0,-1,776,1009,0,0
-441,15,0,0,0,0,0,0,0,0,0,-1,783,1009,0,0
-434,15,0,0,0,0,0,0,0,0,0,-1,790,1009,0,0
-427,15,0,0,0,0,0,0,0,0,0,-1,797,1009,0,0
-420,15,0,0,0,0,0,0,0,0,0,-1,804,1009,0,0
-413,15,0,0,0,0,0,0,0,0,0,-1,811,1009,0,0
-406,15,0,0,0,0,0,0,0,0,0,-1,818,1009,0,0
-399,15,0,0,0,0,0,0,0,0,0,-1,825,1009,0,0
-392,15,0,0,0,0,0,0,0,0,0,-1,832,1009,0,0
-385,15,0,0,0,0,0,0,0,0,0,-1,839,1009,0,0
-378,15,0,0,0,0,0,0,0,0,0,-1,846,1009,0,0
-371,15,0,0,0,0,0,0,0,0,0,-1,853,1009,0,0
-364,15,0,0,0,0,0,0,0,0,0,-1,860,1009,0,0
-357,15,0,0,0,0,0,0,0,0,0,-1,867,1009,0,0
-350,15,0,0,0,0,0,0,0,0,0,-1,874,1009,0,0
-343,15,0,0,0,0,0,0,0,0,0,-1,881,1009,0,0
-336,15,0,0,0,0,0,0,0,0,0,-1,888,1009,0,0
-329,15,0,0,0,0,0,0,0,0,0,-1,895,1009,0,0
-322,15,0,0,0,0,0,0,0,0,0,-1,902,1009,0,0
-315,15,0,0,0,0,0,0,0,0,0,-1,909,1009,0,0
-308,15,0,0,0,0,0,0,0,0,0,-1,916,1009,0,0
-301,15,0,0,0,0,0,0,0,0,0,-1,923,1009,0,0
-294,15,0,0,0,0,0,0,0,0,0,-1,930,1009,0,0
-287,15,0,0,0,0,0,0,0,0,0,-1,937,1009,0,0
-280,15,0,0,0,0,0,0,0,0,0,-1,944,1009,0,0
-273,15,0,0,0,0,0,0,0,0,0,-1,951,1009,0,0
-266,15,0,0,0,0,0,0,0,0,0,-1,958,1009,0,0
-259,15,0,0,0,0,0,0,0,0,0,-1,965,1009,0,0
-252,15,0,0,0,0,0,0,0,0,0,-1,972,1009,0,0
-245,15,0,0,0,0,0,0,0,0,0,-1,979,1009,0,0
-238,15,0,0,0,0,0,0,0,0,0,-1,986,1009,0,0
-231,15,0,0,0,0,0,0,0,0,0,-1,993,1009,0,0
-224,15,0,0,0,0,0,0,0,0,0,-1,1000,1009,0,0
-217,15,0,0,0,0,0,0,0,0,0,-1,1007,1009,0,0
-210,15,0,0,0,0,0,0,0,0,0,-1,1014,1009,0,0
-203,15,0,0,0,0,0,0,0,0,0,-1,1021,1009,0,0
-196,15,0,0,0,0,0,0,0,0,0,-1,1028,1009,0,0
-189,15,0,0,0,0,0,0,0,0,0,-1,1035,1009,0,0
-182,15,0,0,0,0,0,0,0,0,0,-1,1042,1009,0,0
-175,15,0,0,0,0,0,0,0,0,0,-1,1049,1009,0,0
-168,15,0,0,0,0,0,0,0,0,0,-1,1056,1009,0,0
-161,15,0,0,0,0,0,0,0,0,0,-1,1063,1009,0,0
-154,15,0,0,0,0,0,0,0,0,0,-1,1070,1009,0,0
-147,15,0,0,0,0,0,0,0,0,0,-1,1077,1009,0,0
-140,15,0,0,0,0,0,0,0,0,0,-1,1084,1009,0,0
-133,15,0,0,0,0,0,0,0,0,0,-1,1091,1009,0,0
-126,15,0,0,0,0,0,0,0,0,0,-1,1098,1009,0,0
-119,15,0,0,0,0,0,0,0,0,0,-1,1105,1009,0,0
-112,15,0,0,0,0,0,0,0,0,0,-1,1112,1009,0,0
-105,15,0,0,0,0,0,0,0,0,0,-1,1119,1009,0,0
-98,15,0,0,0,0,0,0,0,0,0,-1,1126,1009,0,0
-91,15,0,0,0,0,0,0,0,0,0,-1,1133,1009,0,0
-84,15,0,0,0,0,0,0,0,0,0,-1,1140,1009,0,0
-77,15,0,0,0,0,0,0,0,0,0,-1,1147,1009,0,0
-70,15,0,0,0,0,0,0,0,0,0,-1,1154,1009,0,0
-63,15,0,0,0,0,0,0,0,0,0,-1,1161,1009,0,0
-56,15,0,0,0,0,0,0,0,0,0,-1,1168,1009,0,0
-49,15,0,0,0,0,0,0,0,0,0,-1,1175,1009,0,0
-42,15,0,0,0,0,0,0,0,0,0,-1,1182,1009,0,0
-35,15,0,0,0,0,0,0,0,0,0,-1,1189,1009,0,0
-28,15,0,0,0,0,0,0,0,0,0,-1,1196,1009,0,0
-21,15,0,0,0,0,0,0,0,0,0,-1,1203,1009,0,0
-14,15,0,0,0,0,0,0,0,0,0,-1,1210,1009,0,0
-7,15,0,0,0,0,0,0,0,0,0,-1,1217,1009,0,0
0,15,0,0,0,0,0,0,0,0,0,-1,1224,1009,0,0
7,15,0,0,0,0,0,0,0,0,0,-1,1231,1009,0,0
14,15,0,0,0,0,0,0,0,0,0,-1,1238,1009,0,0
21,15,0,0,0,0,0,0,0,0,0,-1,1245,1009,0,0
28,15,0,0,0,0,0,0,0,0,0,-1,1252,1009,0,0
35,15,0,0,0,0,0,0,0,0,0,-1,1259,1009,0,0
42,15,0,0,0,0,0,0,0,0,0,-1,1266,1009,0,0
49,15,0,0,0,0,0,0,0,0,0,-1,1273,1009,0,0
56,15,0,0,0,0,0,0,0,0,0,-1,1280,1009,0,0
63,15,0,0,0,0,0,0,0,0,0,-1,1287,1009,0,0
70,15,0,0,0,0,0,0,0,0,0,-1,1294,1009,0,0
77,15,0,0,0,0,0,0,0,0,0,-1,1301,1009,0,0
84,15,0,0,0,0,0,0,0,0,0,-1,1308,1009,0,0
91,15,0,0,0,0,0,0,0,0,0,-1,1315,1009,0,0
98,15,0,0,0,0,0,0,0,0,0,-1,1322,1009,0,0
105,15,0,0,0,0,0,0,0,0,0,-1,1329,1009,0,0
112,15,0,0,0,0,0,0,0,0,0,-1,1336,1009,0,0
119,15,0,0,0,0,0,0,0,0,0,-1,1343,1009,0,0
126,15,0,0,0,0,0,0,0,0,0,-1,1350,1009,0,0
133,15,0,0,0,0,0,0,0,0,0,-1,1357,1009,0,0
140,15,0,0,0,0,0,0,0,0,0,-1,1364,1009,0,0
147,15,0,0,0,0,0,0,0,0,0,-1,1371,1009,0,0
154,15,0,0,0,0,0,0,0,0,0,-1,1378,1009,0,0
161,15,0,0,0,0,0,0,0,0,0,-1,1385,1009,0,0
168,15,0,0,0,0,0,0,0,0,0,-1,1392,1009,0,0
175,15,0,0,0,0,0,0,0,0,0,-1,1399,1009,0,0
182,15,0,0,0,0,0,0,0,0,0,-1,1406,1009,0,0
189,15,0,0,0,0,0,0,0,0,0,-1,1413,1009,0,0
196,15,0,0,0,0,0,0,0,0,0,-1,1420,1009,0,0
203,15,0,0,0,0,0,0,0,0,0,-1,1427,1009,0,0
210,15,0,0,0,0,0,0,0,0,0,-1,1434,1009,0,0
217,15,0,0,0,0,0,0,0,0,0,-1,1441,1009,0,0
224,15,0,0,0,0,0,0,0,0,0,-1,1448,1009,0,0
231,15,0,0,0,0,0,0,0,0,0,-1,1455,1009,0,0
238,15,0,0,0,0,0,0,0,0,0,-1,1462,1009,0,0
245,15,0,0,0,0,0,0,0,0,0,-1,1469,1009,0,0
252,15,0,0,0,0,0,0,0,0,0,-1,1476,1009,0,0
259,15,0,0,0,0,0,0,0,0,0,-1,1483,1009,0,0
266,15,0,0,0,0,0,0,0,0,0,-1,1490,1009,0,0
273,15,0,0,0,0,0,0,0,0,0,-1,1497,1009,0,0
280,15,0,0,0,0,0,0,0,0,0,-1,1504,1009,0,0
287,15,0,0,0,0,0,0,0,0,0,-1,1511,1009,0,0
294,15,0,0,0,0,0,0,0,0,0,-1,1518,1009,0,0
301,15,0,0,0,0,0,0,0,0,0,-1,1525,1009,0,0
308,15,0,0,0,0,0,0,0,0,0,-1,1532,1009,0,0
315,15,0,0,0,0,0,0,0,0,0,-1,1539,1009,0,0
322,15,0,0,0,0,0,0,0,0,0,-1,1546,1009,0,0
329,15,0,0,0,0,0,0,0,0,0,-1,1553,1009,0,0
336,15,0,0,0,0,0,0,0,0,0,-1,1560,1009,0,0
343,15,0,0,0,0,0,0,0,0,0,-1,1567,1009,0,0
350,15,0,0,0,0,0,0,0,0,0,-1,1574,1009,0,0
357,15,0,0,0,0,0,0,0,0,0,-1,1581,1009,0,0
364,15,0,0,0,0,0,0,0,0,0,-1,1588,1009,0,0
371,15,0,0,0,0,0,0,0,0,0,-1,1595,1009,0,0
378,15,0,0,0,0,0,0,0,0,0,-1,1602,1009,0,0
385,15,0,0,0,0,0,0,0,0,0,-1,1609,1009,0,0
392,15,0,0,0,0,0,0,0,0,0,-1,1616,1009,0,0
399,15,0,0,0,0,0,0,0,0,0,-1,1623,1009,0,0
406,15,0,0,0,0,0,0,0,0,0,-1,1630,1009,0,0
413,15,0,0,0,0,0,0,0,0,0,-1,1637,1009,0,0
420,15,0,0,0,0,0,0,0,0,0,-1,1644,1009,0,0
427,15,0,0,0,0,0,0,0,0,0,-1,1651,1009,0,0
434,15,0,0,0,0,0,0,0,0,0,-1,1658,1009,0,0
441,15,0,0,0,0,0,0,0,0,0,-1,1665,1009,0,0
448,15,0,0,0,0,0,0,0,0,0,-1,1672,1009,0,0
455,15,0,0,0,0,0,0,0,0,0,-1,1679,1009,0,0
462,15,0,0,0,0,0,0,0,0,0,-1,1686,1009,0,0
469,15,0,0,0,0,0,0,0,0,0,-1,1693,1009,0,0
476,15,0,0,0,0,0,0,0,0,0,-1,1700,1009,0,0
483,15,0,0,0,0,0,0,0,0,0,-1,1707,1009,0,0
490,15,0,0,0,0,0,0,0,0,0,-1,1714,1009,0,0
497,15,0,0,0,0,0,0,0,0,0,-1,1721,1009,0,0
504,15,0,0,0,0,0,0,0,0,0,-1,1728,1009,0,0
511,15,0,0,0,0,0,0,0,0,0,-1,1735,1009,0,0
518,15,0,0,0,0,0,0,0,0,0,-1,1742,1009,0,0
525,15,0,0,0,0,0,0,0,0,0,-1,1749,1009,0,0
532,15,0,0,0,0,0,0,0,0,0,-1,1756,1009,0,0
539,15,0,0,0,0,0,0,0,0,0,-1,1763,1009,0,0
546,15,0,0,0,0,0,0,0,0,0,-1,1770,1009,0,0
553,15,0,0,0,0,0,0,0,0,0,-1,1777,1009,0,0
560,15,0,0,0,0,0,0,0,0,0,-1,1784,1009,0,0
567,15,0,0,0,0,0,0,0,0,0,-1,1791,1009,0,0
574,15,0,0,0,0,0,0,0,0,0,-1,1798,1009,0,0
581,15,0,0,0,0,0,0,0,0,0,-1,1805,1009,0,0
588,15,0,0,0,0,0,0,0,0,0,-1,1812,1009,0,0
595,15,0,0,0,0,0,0,0,0,0,-1,1819,1009,0,0
602,15,0,0,0,0,0,0,0,0,0,-1,1826,1009,0,0
609,15,0,0,0,0,0,0,0,0,0,-1,1833,1009,0,0
616,15,0,0,0,0,0,0,0,0,0,-1,1840,1009,0,0
623,15,0,0,0,0,0,0,0,0,0,-1,1847,1009,0,0
630,15,0,0,0,0,0,0,0,0,0,-1,1854,1009,0,0
637,15,0,0,0,0,0,0,0,0,0,-1,1861,1009,0,0
644,15,29.1079,2.32697,0.00526958,0.00198793,-0.000748218,0.00543212,0.00182539,-0.213917,0.00319195,0.0389898,1868,1009,29.1079,-2.32698
651,15,29.1388,2.33563,0.00359232,0.00159441,-0.000214382,0.00361506,0.00157166,-0.1057,0.00209307,0.0394787,1875,1009,29.1388,-2.33563
658,15,29.1859,2.35278,0.00252274,0.00125334,-8.16687e-06,0.00252279,0.00125328,-0.00643328,0.00145654,0.038867,1882,1009,29.1859,-2.35278
665,15,29.1649,2.36743,0.00153874,0.00117352,0.000349882,0.0017508,0.000961465,0.544884,0.00101245,0.038289,1889,1009,29.1649,-2.36744
672,15,29.114,2.4342,0.000613555,0.001343,0.000961547,0.00200667,-5.0117e-05,0.966669,0.0013548,0.0401617,1896,1009,29.114,-2.43423
679,15,29.1592,2.58997,-0.000399274,0.00168149,0.00171185,0.00264431,-0.00136209,1.05845,0.00235225,0.0411323,1903,1009,29.1592,-2.58994
686,15,29.2906,2.586,-0.00110432,0.00184041,0.00232607,0.00312095,-0.00238485,1.06756,0.00318823,0.0425528,1910,1009,29.2906,-2.58602
693,15,29.2671,2.65869,-0.00156549,0.00190683,0.00276534,0.00343584,-0.0030945,1.06571,0.00377201,0.0384296,1917,1009,29.267,-2.65867
700,15,29.2159,2.64362,-0.0019131,0.00185969,0.00298582,0.00350509,-0.0035585,1.06713,0.00407821,0.0299261,1924,1009,29.216,-2.64361
707,15,29.1881,2.70978,-0.0021229,0.00195803,0.00315478,0.00367471,-0.00383958,1.07245,0.00433873,0.0255773,1931,1009,29.1881,-2.7098
714,15,29.2673,1.96155,0,0,0,0,0,0,0,-1,1938,1009,29.2673,-1.96152
721,15,29.1428,3.22418,0,0,0,0,0,0,0,-1,1945,1009,29.1428,-3.2242
728,15,28.7875,4.28619,0,0,0,0,0,0,0,-1,1952,1009,28.7875,-4.2862
735,15,28.7548,4.39996,-0.00312784,0.00284518,0.0022858,0.00361954,-0.0039022,1.24416,0.0043437,0.0171734,1959,1009,28.7547,-4.39997
742,15,28.7705,4.49493,-0.00351043,0.00319193,0.00196016,0.0037231,-0.00404159,1.30617,0.0044842,0.0190071,1966,1009,28.7705,-4.49492
749,15,28.739,4.52277,-0.00399892,0.00413986,0.00169883,0.00448023,-0.00433929,1.37306,0.00509217,0.0115751,1973,1009,28.7391,-4.52275
756,15,28.7428,4.54108,-0.00439382,0.00590666,0.00111567,0.00602611,-0.00451328,1.46413,0.00610578,0.0124809,1980,1009,28.7428,-4.54105
763,15,28.7188,4.61139,-0.00455306,0.00847532,0.000323702,0.00848336,-0.0045611,1.54597,0.00764387,0.0124813,1987,1009,28.7187,-4.61137
770,15,28.6935,4.64185,-0.00487427,0.0120761,-0.000256197,0.0120799,-0.00487814,-1.55569,0.0100808,0.011452,1994,1009,28.6935,-4.64187
777,15,28.5948,4.68518,-0.00503058,0.0170225,-0.000466321,0.0170324,-0.00504043,-1.54966,0.013356,0.0202869,2001,1009,28.5948,-4.68516
784,15,28.4082,4.67456,-0.00493763,0.0234828,-0.000471546,0.0234906,-0.00494545,-1.55421,0.0175428,0.0383058,2008,1009,28.4082,-4.67453
791,15,28.1532,4.18799,-0.00405943,0.0319926,-0.00041311,0.0319973,-0.00406416,-1.55934,0.0228073,0.0458231,2015,1009,28.1532,-4.18796
798,15,27.9016,3.98004,0,0,0,0,0,0,0,-1,2022,1009,27.9016,-3.98007
805,15,28.0574,5.83392,0,0,0,0,0,0,0,-1,2029,1009,28.0573,-5.8339
812,15,28.0889,5.71832,0,0,0,0,0,0,0,-1,2036,1009,28.0888,-5.7183
-700,8,0,0,0,0,0,0,0,0,0,-1,524,1016,0,0
-693,8,-22.3562,0.758728,0.106251,-0.0146053,0.0421559,0.119502,-0.0278567,0.304564,0.0903958,0.0471116,531,1016,-22.3562,-0.758739
-686,8,-21.6791,0.90625,0.0860339,-0.0104628,0.0400496,0.10049,-0.0249191,0.346405,0.0766619,0.0449242,538,1016,-21.6791,-0.906224
-679,8,-20.6113,1.39166,0.0680921,-0.00713676,0.0358346,0.0824292,-0.0214739,0.380585,0.063336,0.0472337,545,1016,-20.6112,-1.39168
-672,8,-20.543,1.63452,0.0525367,-0.00445189,0.0308099,0.0660087,-0.017924,0.412213,0.0510406,0.0450002,552,1016,-20.543,-1.63452
-665,8,-20.5789,1.47821,0.0392221,-0.00231496,0.0255436,0.0513748,-0.0144676,0.44407,0.0399553,0.0449518,559,1016,-20.5788,-1.47824
-658,8,-20.4021,1.71851,0.0280322,-0.000689614,0.0203872,0.0386086,-0.0112661,0.478559,0.0302031,0.033609,566,1016,-20.4021,-1.7185
-651,8,-20.4167,1.87445,0.0190037,0.000427481,0.0155755,0.0278502,-0.00841905,0.51654,0.0219189,0.0221098,573,1016,-20.4167,-1.87448
-644,8,-20.3986,1.93256,0.0119775,0.0012489,0.0110085,0.0188592,-0.00563273,0.558685,0.0148118,0.0266406,580,1016,-20.3986,-1.93254
-637,8,-20.4646,1.99493,0.00666146,0.00251311,0.00669679,0.0115979,-0.00242337,0.63522,0.0086536,0.0226673,587,1016,-20.4646,-1.99496
-630,8,-20.5763,1.99506,0.00158142,0.00287382,0.00252091,0.00483003,-0.000374794,0.910864,0.00335195,0.015453,594,1016,-20.5763,-1.99506
-623,8,-20.5771,2.00391,-0.00104786,0.00215072,-0.000791139,0.0023357,-0.00123284,-1.3411,0.00209284,0.0130363,601,1016,-20.5771,-2.00389
-616,8,-20.6021,1.9707,-0.000940025,0.00173397,-0.00332774,0.00398326,-0.00318931,-0.976415,0.00414953,0.012342,608,1016,-20.602,-1.97073
-609,8,-20.6348,1.92499,-0.000704267,0.00171104,-0.00520683,0.00584843,-0.00484166,-0.899351,0.00618104,0.0148594,615,1016,-20.6348,-1.92497
-602,8,-20.6091,1.92712,-0.000452517,0.00153369,-0.00666546,0.00727963,-0.00619845,-0.85935,0.00778991,0.0211335,622,1016,-20.6091,-1.9271
-595,8,-20.4922,1.30597,0,0,0,0,0,0,0,-1,629,1016,-20.4922,-1.30595
-588,8,-20.4386,0.878357,0,0,0,0,0,0,0,-1,636,1016,-20.4386,-0.878387
-581,8,-20.3911,0.746216,0.000520321,-0.000508933,-0.00749833,0.00752167,-0.00751028,-0.751136,0.0086787,0.0294433,643,1016,-20.3911,-0.746216
-574,8,-20.3868,0.761719,0.000651344,-0.00114867,-0.00716734,0.00697496,-0.00747228,-0.72294,0.00834277,0.0369746,650,1016,-20.3868,-0.761741
-567,8,-20.3943,0.854797,0.000854105,-0.001878,-0.0063619,0.00599496,-0.00701886,-0.679642,0.00752128,0.0401555,657,1016,-20.3943,-0.854792
-560,8,-20.5679,1.27795,0.00129408,-0.00264749,-0.00523463,0.00491662,-0.00627003,-0.60536,0.00647435,0.0403351,664,1016,-20.5679,-1.27797
-553,8,-20.5999,1.05969,0,0,0,0,0,0,0,-1,671,1016,-20.5998,-1.05967
-546,8,-20.605,1.22736,0.00327658,-0.00419124,-0.00274785,0.0041787,-0.00509336,-0.317214,0.0053619,0.0411663,678,1016,-20.6051,-1.22733
-539,8,-20.5124,1.23846,0.00508574,-0.00452506,-0.00227656,0.00559773,-0.00503704,-0.221214,0.00614283,0.0422125,685,1016,-20.5124,-1.23845
-532,8,-20.3365,0.723938,0.00724905,-0.00396304,-0.00407632,0.00857439,-0.00528838,-0.314351,0.00807828,0.0415763,692,1016,-20.3365,-0.723932
-525,8,0,0,0,0,0,0,0,0,0,-1,699,1016,0,0
-518,8,0,0,0,0,0,0,0,0,0,-1,706,1016,0,0
-511,8,0,0,0,0,0,0,0,0,0,-1,713,1016,0,0
-504,8,0,0,0,0,0,0,0,0,0,-1,720,1016,0,0
-497,8,0,0,0,0,0,0,0,0,0,-1,727,1016,0,0
-490,8,0,0,0,0,0,0,0,0,0,-1,734,1016,0,0
-483,8,0,0,0,0,0,0,0,0,0,-1,741,1016,0,0
-476,8,0,0,0,0,0,0,0,0,0,-1,748,1016,0,0
-469,8,0,0,0,0,0,0,0,0,0,-1,755,1016,0,0
-462,8,0,0,0,0,0,0,0,0,0,-1,762,1016,0,0
-455,8,0,0,0,0,0,0,0,0,0,-1,769,1016,0,0
-448,8,0,0,0,0,0,0,0,0,0,-1,776,1016,0,0
-441,8,0,0,0,0,0,0,0,0,0,-1,783,1016,0,0
-434,8,0,0,0,0,0,0,0,0,0,-1,790,1016,0,0
-427,8,0,0,0,0,0,0,0,0,0,-1,797,1016,0,0
-420,8,0,0,0,0,0,0,0,0,0,-1,804,1016,0,0
-413,8,0,0,0,0,0,0,0,0,0,-1,811,1016,0,0
-406,8,0,0,0,0,0,0,0,0,0,-1,818,1016,0,0
-399,8,0,0,0,0,0,0,0,0,0,-1,825,1016,0,0
-392,8,0,0,0,0,0,0,0,0,0,-1,832,1016,0,0
-385,8,0,0,0,0,0,0,0,0,0,-1,839,1016,0,0
-378,8,0,0,0,0,0,0,0,0,0,-1,846,1016,0,0
-371,8,0,0,0,0,0,0,0,0,0,-1,853,1016,0,0
-364,8,0,0,0,0,0,0,0,0,0,-1,860,1016,0,0
-357,8,0,0,0,0,0,0,0,0,0,-1,867,1016,0,0
-350,8,0,0,0,0,0,0,0,0,0,-1,874,1016,0,0
-343,8,0,0,0,0,0,0,0,0,0,-1,881,1016,0,0
-336,8,0,0,0,0,0,0,0,0,0,-1,888,1016,0,0
-329,8,0,0,0,0,0,0,0,0,0,-1,895,1016,0,0
-322,8,0,0,0,0,0,0,0,0,0,-1,902,1016,0,0
-315,8,0,0,0,0,0,0,0,0,0,-1,909,1016,0,0
-308,8,0,0,0,0,0,0,0,0,0,-1,916,1016,0,0
-301,8,0,0,0,0,0,0,0,0,0,-1,923,1016,0,0
-294,8,0,0,0,0,0,0,0,0,0,-1,930,1016,0,0
-287,8,0,0,0,0,0,0,0,0,0,-1,937,1016,0,0
-280,8,0,0,0,0,0,0,0,0,0,-1,944,1016,0,0
-273,8,0,0,0,0,0,0,0,0,0,-1,951,1016,0,0
-266,8,0,0,0,0,0,0,0,0,0,-1,958,1016,0,0
-259,8,0,0,0,0,0,0,0,0,0,-1,965,1016,0,0
-252,8,0,0,0,0,0,0,0,0,0,-1,972,1016,0,0
-245,8,0,0,0,0,0,0,0,0,0,-1,979,1016,0,0
-238,8,0,0,0,0,0,0,0,0,0,-1,986,1016,0,0
-231,8,0,0,0,0,0,0,0,0,0,-1,993,1016,0,0
-224,8,0,0,0,0,0,0,0,0,0,-1,1000,1016,0,0
-217,8,0,0,0,0,0,0,0,0,0,-1,1007,1016,0,0
-210,8,0,0,0,0,0,0,0,0,0,-1,1014,1016,0,0
-203,8,0,0,0,0,0,0,0,0,0,-1,1021,1016,0,0
-196,8,0,0,0,0,0,0,0,0,0,-1,1028,1016,0,0
-189,8,0,0,0,0,0,0,0,0,0,-1,1035,1016,0,0
-182,8,0,0,0,0,0,0,0,0,0,-1,1042,1016,0,0
-175,8,0,0,0,0,0,0,0,0,0,-1,1049,1016,0,0
-168,8,0,0,0,0,0,0,0,0,0,-1,1056,1016,0,0
-161,8,0,0,0,0,0,0,0,0,0,-1,1063,1016,0,0
-154,8,0,0,0,0,0,0,0,0,0,-1,1070,1016,0,0
-147,8,0,0,0,0,0,0,0,0,0,-1,1077,1016,0,0
-140,8,0,0,0,0,0,0,0,0,0,-1,1084,1016,0,0
-133,8,0,0,0,0,0,0,0,0,0,-1,1091,1016,0,0
-126,8,0,0,0,0,0,0,0,0,0,-1,1098,1016,0,0
-119,8,0,0,0,0,0,0,0,0,0,-1,1105,1016,0,0
-112,8,0,0,0,0,0,0,0,0,0,-1,1112,1016,0,0
-105,8,0,0,0,0,0,0,0,0,0,-1,1119,1016,0,0
-98,8,0,0,0,0,0,0,0,0,0,-1,1126,1016,0,0
-91,8,0,0,0,0,0,0,0,0,0,-1,1133,1016,0,0
-84,8,0,0,0,0,0,0,0,0,0,-1,1140,1016,0,0
-77,8,0,0,0,0,0,0,0,0,0,-1,1147,1016,0,0
-70,8,0,0,0,0,0,0,0,0,0,-1,1154,1016,0,0
-63,8,0,0,0,0,0,0,0,0,0,-1,1161,1016,0,0
-56,8,0,0,0,0,0,0,0,0,0,-1,1168,1016,0,0
-49,8,0,0,0,0,0,0,0,0,0,-1,1175,1016,0,0
-42,8,0,0,0,0,0,0,0,0,0,-1,1182,1016,0,0
-35,8,0,0,0,0,0,0,0,0,0,-1,1189,1016,0,0
-28,8,0,0,0,0,0,0,0,0,0,-1,1196,1016,0,0
-21,8,0,0,0,0,0,0,0,0,0,-1,1203,1016,0,0
-14,8,0,0,0,0,0,0,0,0,0,-1,1210,1016,0,0
-7,8,0,0,0,0,0,0,0,0,0,-1,1217,1016,0,0
0,8,0,0,0,0,0,0,0,0,0,-1,1224,1016,0,0
7,8,0,0,0,0,0,0,0,0,0,-1,1231,1016,0,0
14,8,0,0,0,0,0,0,0,0,0,-1,1238,1016,0,0
21,8,0,0,0,0,0,0,0,0,0,-1,1245,1016,0,0
28,8,0,0,0,0,0,0,0,0,0,-1,1252,1016,0,0
35,8,0,0,0,0,0,0,0,0,0,-1,1259,1016,0,0
42,8,0,0,0,0,0,0,0,0,0,-1,1266,1016,0,0
49,8,0,0,0,0,0,0,0,0,0,-1,1273,1016,0,0
56,8,0,0,0,0,0,0,0,0,0,-1,1280,1016,0,0
63,8,0,0,0,0,0,0,0,0,0,-1,1287,1016,0,0
70,8,0,0,0,0,0,0,0,0,0,-1,1294,1016,0,0
77,8,0,0,0,0,0,0,0,0,0,-1,1301,1016,0,0
84,8,0,0,0,0,0,0,0,0,0,-1,1308,1016,0,0
91,8,0,0,0,0,0,0,0,0,0,-1,1315,1016,0,0
98,8,0,0,0,0,0,0,0,0,0,-1,1322,1016,0,0
105,8,0,0,0,0,0,0,0,0,0,-1,1329,1016,0,0
112,8,0,0,0,0,0,0,0,0,0,-1,1336,1016,0,0
119,8,0,0,0,0,0,0,0,0,0,-1,1343,1016,0,0
126,8,0,0,0,0,0,0,0,0,0,-1,1350,1016,0,0
133,8,0,0,0,0,0,0,0,0,0,-1,1357,1016,0,0
140,8,0,0,0,0,0,0,0,0,0,-1,1364,1016,0,0
147,8,0,0,0,0,0,0,0,0,0,-1,1371,1016,0,0
154,8,0,0,0,0,0,0,0,0,0,-1,1378,1016,0,0
161,8,0,0,0,0,0,0,0,0,0,-1,1385,1016,0,0
168,8,0,0,0,0,0,0,0,0,0,-1,1392,1016,0,0
175,8,0,0,0,0,0,0,0,0,0,-1,1399,1016,0,0
182,8,0,0,0,0,0,0,0,0,0,-1,1406,1016,0,0
189,8,0,0,0,0,0,0,0,0,0,-1,1413,1016,0,0
196,8,0,0,0,0,0,0,0,0,0,-1,1420,1016,0,0
203,8,0,0,0,0,0,0,0,0,0,-1,1427,1016,0,0
210,8,0,0,0,0,0,0,0,0,0,-1,1434,1016,0,0
217,8,0,0,0,0,0,0,0,0,0,-1,1441,1016,0,0
224,8,0,0,0,0,0,0,0,0,0,-1,1448,1016,0,0
231,8,0,0,0,0,0,0,0,0,0,-1,1455,1016,0,0
238,8,0,0,0,0,0,0,0,0,0,-1,1462,1016,0,0
245,8,0,0,0,0,0,0,0,0,0,-1,1469,1016,0,0
252,8,0,0,0,0,0,0,0,0,0,-1,1476,1016,0,0
259,8,0,0,0,0,0,0,0,0,0,-1,1483,1016,0,0
266,8,0,0,0,0,0,0,0,0,0,-1,1490,1016,0,0
273,8,0,0,0,0,0,0,0,0,0,-1,1497,1016,0,0
280,8,0,0,0,0,0,0,0,0,0,-1,1504,1016,0,0
287,8,0,0,0,0,0,0,0,0,0,-1,1511,1016,0,0
294,8,0,0,0,0,0,0,0,0,0,-1,1518,1016,0,0
301,8,0,0,0,0,0,0,0,0,0,-1,1525,1016,0,0
308,8,0,0,0,0,0,0,0,0,0,-1,1532,1016,0,0
315,8,0,0,0,0,0,0,0,0,0,-1,1539,1016,0,0
322,8,0,0,0,0,0,0,0,0,0,-1,1546,1016,0,0
329,8,0,0,0,0,0,0,0,0,0,-1,1553,1016,0,0
336,8,0,0,0,0,0,0,0,0,0,-1,1560,1016,0,0
343,8,0,0,0,0,0,0,0,0,0,-1,1567,1016,0,0
350,8,0,0,0,0,0,0,0,0,0,-1,1574,1016,0,0
357,8,0,0,0,0,0,0,0,0,0,-1,1581,1016,0,0
364,8,0,0,0,0,0,0,0,0,0,-1,1588,1016,0,0
371,8,0,0,0,0,0,0,0,0,0,-1,1595,1016,0,0
378,8,0,0,0,0,0,0,0,0,0,-1,1602,1016,0,0
385,8,0,0,0,0,0,0,0,0,0,-1,1609,1016,0,0
392,8,0,0,0,0,0,0,0,0,0,-1,1616,1016,0,0
399,8,0,0,0,0,0,0,0,0,0,-1,1623,1016,0,0
406,8,0,0,0,0,0,0,0,0,0,-1,1630,1016,0,0
413,8,0,0,0,0,0,0,0,0,0,-1,1637,1016,0,0
420,8,0,0,0,0,0,0,0,0,0,-1,1644,1016,0,0
427,8,0,0,0,0,0,0,0,0,0,-1,1651,1016,0,0
434,8,0,0,0,0,0,0,0,0,0,-1,1658,1016,0,0
441,8,0,0,0,0,0,0,0,0,0,-1,1665,1016,0,0
448,8,0,0,0,0,0,0,0,0,0,-1,1672,1016,0,0
455,8,0,0,0,0,0,0,0,0,0,-1,1679,1016,0,0
462,8,0,0,0,0,0,0,0,0,0,-1,1686,1016,0,0
469,8,0,0,0,0,0,0,0,0,0,-1,1693,1016,0,0
476,8,0,0,0,0,0,0,0,0,0,-1,1700,1016,0,0
483,8,0,0,0,0,0,0,0,0,0,-1,1707,1016,0,0
490,8,0,0,0,0,0,0,0,0,0,-1,1714,1016,0,0
497,8,0,0,0,0,0,0,0,0,0,-1,1721,1016,0,0
504,8,0,0,0,0,0,0,0,0,0,-1,1728,1016,0,0
511,8,0,0,0,0,0,0,0,0,0,-1,1735,1016,0,0
518,8,0,0,0,0,0,0,0,0,0,-1,1742,1016,0,0
525,8,0,0,0,0,0,0,0,0,0,-1,1749,1016,0,0
532,8,0,0,0,0,0,0,0,0,0,-1,1756,1016,0,0
539,8,0,0,0,0,0,0,0,0,0,-1,1763,1016,0,0
546,8,0,0,0,0,0,0,0,0,0,-1,1770,1016,0,0
553,8,0,0,0,0,0,0,0,0,0,-1,1777,1016,0,0
560,8,0,0,0,0,0,0,0,0,0,-1,1784,1016,0,0
567,8,0,0,0,0,0,0,0,0,0,-1,1791,1016,0,0
574,8,0,0,0,0,0,0,0,0,0,-1,1798,1016,0,0
581,8,0,0,0,0,0,0,0,0,0,-1,1805,1016,0,0
588,8,0,0,0,0,0,0,0,0,0,-1,1812,1016,0,0
595,8,0,0,0,0,0,0,0,0,0,-1,1819,1016,0,0
602,8,0,0,0,0,0,0,0,0,0,-1,1826,1016,0,0
609,8,0,0,0,0,0,0,0,0,0,-1,1833,1016,0,0
616,8,0,0,0,0,0,0,0,0,0,-1,1840,1016,0,0
623,8,0,0,0,0,0,0,0,0,0,-1,1847,1016,0,0
630,8,0,0,0,0,0,0,0,0,0,-1,1854,1016,0,0
637,8,0,0,0,0,0,0,0,0,0,-1,1861,1016,0,0
644,8,28.9318,2.2702,0.00437832,0.00105764,-0.000296982,0.00440467,0.00103129,-0.0884984,0.00266017,0.0431134,1868,1016,28.9317,-2.27019
651,8,29.1281,2.3468,0.00294028,0.00088078,0.000139439,0.00294967,0.000871382,0.067296,0.00174987,0.0391506,1875,1016,29.1281,-2.34679
658,8,29.1439,2.40259,0.0020791,0.000753849,0.000242283,0.002122,0.000710944,0.175271,0.00124717,0.0377112,1882,1016,29.1439,-2.40256
665,8,29.1168,2.48248,0.00125812,0.000843206,0.000433075,0.00153086,0.000570463,0.562032,0.00089335,0.0382607,1889,1016,29.1168,-2.48247
672,8,29.1062,2.49719,0.000499157,0.0011258,0.000905335,0.0017705,-0.000145542,0.951988,0.00123171,0.0394064,1896,1016,29.1062,-2.4972
679,8,29.1305,2.4502,-0.00034532,0.00153436,0.00155294,0.00240971,-0.00122067,1.05752,0.00213314,0.0390444,1903,1016,29.1305,-2.45019
686,8,29.2312,2.39478,-0.000935018,0.00170603,0.00211701,0.00288061,-0.00210959,1.06425,0.00289254,0.0406476,1910,1016,29.2312,-2.39475
693,8,29.2203,2.52539,-0.00131483,0.00174707,0.00255447,0.00319423,-0.00276199,1.05536,0.00344184,0.0391197,1917,1016,29.2203,-2.52541
700,8,29.214,2.60986,-0.00160039,0.00167468,0.00279227,0.00327416,-0.00319987,1.0506,0.00373787,0.0310987,1924,1016,29.214,-2.60987
707,8,29.1963,2.63055,-0.00174702,0.00172933,0.00298461,0.00344502,-0.00346271,1.04908,0.00398818,0.0232619,1931,1016,29.1963,-2.63053
714,8,29.2092,1.93524,0,0,0,0,0,0,0,-1,1938,1016,29.2092,-1.93523
721,8,29.2494,3.11121,0,0,0,0,0,0,0,-1,1945,1016,29.2493,-3.11122
728,8,28.7438,4.34668,0,0,0,0,0,0,0,-1,1952,1016,28.7438,-4.34669
735,8,28.7369,4.40082,-0.00273129,0.00255726,0.00235152,0.0034516,-0.00362564,1.20736,0.00408646,0.0224707,1959,1016,28.7369,-4.40083
742,8,28.7909,4.42493,-0.00308058,0.00292317,0.00206,0.00356202,-0.00371943,1.27008,0.00420427,0.0234083,1966,1016,28.7909,-4.42491
749,8,28.8049,4.50348,-0.00363155,0.00410491,0.00181984,0.00451161,-0.00403825,1.35093,0.00493878,0.0166399,1973,1016,28.805,-4.50348
756,8,28.7871,4.52051,-0.00415615,0.00624028,0.00123919,0.00638594,-0.00430181,1.45379,0.00620956,0.0149183,1980,1016,28.7871,-4.52052
763,8,28.7881,4.56158,-0.00443564,0.00943444,0.000416184,0.00944692,-0.00444812,1.54083,0.00819352,0.0137161,1987,1016,28.7881,-4.56158
770,8,28.7648,4.55585,-0.00499118,0.0140096,-0.000347291,0.014016,-0.00499752,-1.55253,0.0113816,0.0140625,1994,1016,28.7647,-4.55587
777,8,28.6705,4.62781,-0.00546997,0.0202661,-0.000835619,0.0202932,-0.00549707,-1.53837,0.0156856,0.0179942,2001,1016,28.6705,-4.62783
784,8,28.5765,4.71704,-0.00578672,0.0282597,-0.00123301,0.0283043,-0.00583131,-1.53464,0.0210838,0.0352353,2008,1016,28.5766,-4.71704
791,8,28.4788,4.80878,-0.00557428,0.0387535,-0.00174581,0.0388221,-0.00564293,-1.53149,0.0279529,0.0492322,2015,1016,28.4788,-4.80879
798,8,29.4548,4.37787,0,0,0,0,0,0,0,-1,2022,1016,29.4549,-4.37787
805,8,27.0469,3.97186,0,0,0,0,0,0,0,-1,2029,1016,27.047,-3.97189
812,8,26.8174,3.59021,0,0,0,0,0,0,0,-1,2036,1016,26.8174,-3.59023
-700,1,0,0,0,0,0,0,0,0,0,-1,524,1023,0,0
-693,1,-22.4473,0.885925,0.108661,-0.00361076,0.0319527,0.117118,-0.0120675,0.258733,0.0823962,0.0423867,531,1023,-22.4473,-0.885896
-686,1,-21.9002,1.16272,0.0869684,-0.00135328,0.031922,0.0972978,-0.0116827,0.312951,0.0690895,0.0454832,538,1023,-21.9002,-1.1627
-679,1,-21.1899,1.07697,0.0680973,0.000280236,0.0294115,0.0790756,-0.010698,0.357248,0.0566209,0.0476531,545,1023,-21.1899,-1.07697
-672,1,-20.9413,1.24866,0.0519886,0.00145092,0.0258055,0.0628367,-0.00939722,0.397952,0.0453493,0.0442859,552,1023,-20.9413,-1.24867
-665,1,-20.5566,1.56885,0.0384131,0.00224948,0.0217285,0.0485993,-0.00793673,0.438373,0.0353434,0.0418967,559,1023,-20.5566,-1.56885
-658,1,-20.5273,1.75592,0.02718,0.00271417,0.0175628,0.0363503,-0.00645612,0.481204,0.0266476,0.0296361,566,1023,-20.5273,-1.75591
-651,1,-20.4895,1.90295,0.0182524,0.00285282,0.0135631,0.0261489,-0.00504367,0.527232,0.0193344,0.0170402,573,1023,-20.4895,-1.90293
-644,1,-20.3868,2.01013,0.0113769,0.00286736,0.00962722,0.0176476,-0.0034034,0.577329,0.0130483,0.0261845,580,1023,-20.3868,-2.01015
-637,1,-20.4774,1.95105,0.00625349,0.00343918,0.00568039,0.0106984,-0.00100575,0.663981,0.00749008,0.02212,587,1023,-20.4774,-1.95106
-630,1,-20.6149,1.9389,0.00153458,0.00321339,0.00195136,0.00449823,0.000249746,0.988517,0.00291913,0.0200871,594,1023,-20.6149,-1.93891
-623,1,-20.5804,1.98834,-0.00083806,0.00211338,-0.00111613,0.00248793,-0.00121261,-1.24703,0.00217839,0.012531,601,1023,-20.5804,-1.98834
-616,1,-20.6157,1.95825,-0.000635693,0.00156313,-0.00359612,0.00422414,-0.00329671,-0.933747,0.00435315,0.0139472,608,1023,-20.6158,-1.95827
-609,1,-20.6005,1.96918,-0.000383463,0.001513,-0.00554816,0.00619337,-0.00506384,-0.870035,0.00651025,0.0153645,615,1023,-20.6005,-1.96917
-602,1,-20.5356,1.96759,-0.000116814,0.00134338,-0.00708369,0.0077345,-0.00650793,-0.836751,0.00823303,0.0133149,622,1023,-20.5357,-1.96762
-595,1,-20.4952,1.91943,0.000113353,0.000677095,-0.00760716,0.0080076,-0.00721715,-0.803916,0.00879397,0.021913,629,1023,-20.4952,-1.91943
-588,1,-20.488,1.35388,0.000451693,0.000128981,-0.00785891,0.00815091,-0.00757023,-0.775134,0.00907867,0.0302771,636,1023,-20.488,-1.35388
-581,1,-20.4237,0.825256,0.000769463,-0.000424797,-0.00779557,0.00799074,-0.00764607,-0.747173,0.00902865,0.0274914,643,1023,-20.4237,-0.82527
-574,1,-20.3616,0.891785,0.000850584,-0.000951316,-0.00735104,0.00735568,-0.00745641,-0.724422,0.00855183,0.0367878,650,1023,-20.3616,-0.891784
-567,1,-20.3336,0.908569,0.000959904,-0.00152406,-0.00639213,0.00622959,-0.00679375,-0.689445,0.00752138,0.0419093,657,1023,-20.3335,-0.908579
-560,1,-20.556,0.849915,0.00127296,-0.00213279,-0.00505458,0.0049038,-0.00576364,-0.622921,0.00616551,0.0404597,664,1023,-20.556,-0.849916
-553,1,-20.7495,0.957275,0,0,0,0,0,0,0,-1,671,1023,-20.7494,-0.95727
-546,1,-20.5433,1.57941,0,0,0,0,0,0,0,-1,678,1023,-20.5433,-1.57944
-539,1,-20.4438,1.09491,0.00458798,-0.00375888,-0.00115121,0.00474385,-0.00391474,-0.134575,0.00500667,0.0430956,685,1023,-20.4438,-1.09489
-532,1,-20.3043,0.641357,0.00673176,-0.00341124,-0.0028433,0.00747443,-0.00415391,-0.255489,0.00680425,0.0414453,692,1023,-20.3043,-0.641348
-525,1,0,0,0,0,0,0,0,0,0,-1,699,1023,0,0
-518,1,0,0,0,0,0,0,0,0,0,-1,706,1023,0,0
-511,1,0,0,0,0,0,0,0,0,0,-1,713,1023,0,0
-504,1,0,0,0,0,0,0,0,0,0,-1,720,1023,0,0
-497,1,0,0,0,0,0,0,0,0,0,-1,727,1023,0,0
-490,1,0,0,0,0,0,0,0,0,0,-1,734,1023,0,0
-483,1,0,0,0,0,0,0,0,0,0,-1,741,1023,0,0
-476,1,0,0,0,0,0,0,0,0,0,-1,748,1023,0,0
-469,1,0,0,0,0,0,0,0,0,0,-1,755,1023,0,0
-462,1,0,0,0,0,0,0,0,0,0,-1,762,1023,0,0
-455,1,0,0,0,0,0,0,0,0,0,-1,769,1023,0,0
-448,1,0,0,0,0,0,0,0,0,0,-1,776,1023,0,0
-441,1,0,0,0,0,0,0,0,0,0,-1,783,1023,0,0
-434,1,0,0,0,0,0,0,0,0,0,-1,790,1023,0,0
-427,1,0,0,0,0,0,0,0,0,0,-1,797,1023,0,0
-420,1,0,0,0,0,0,0,0,0,0,-1,804,1023,0,0
-413,1,0,0,0,0,0,0,0,0,0,-1,811,1023,0,0
-406,1,0,0,0,0,0,0,0,0,0,-1,818,1023,0,0
-399,1,0,0,0,0,0,0,0,0,0,-1,825,1023,0,0
-392,1,0,0,0,0,0,0,0,0,0,-1,832,1023,0,0
-385,1,0,0,0,0,0,0,0,0,0,-1,839,1023,0,0
-378,1,0,0,0,0,0,0,0,0,0,-1,846,1023,0,0
-371,1,0,0,0,0,0,0,0,0,0,-1,853,1023,0,0
-364,1,0,0,0,0,0,0,0,0,0,-1,860,1023,0,0
-357,1,0,0,0,0,0,0,0,0,0,-1,867,1023,0,0
-350,1,0,0,0,0,0,0,0,0,0,-1,874,1023,0,0
-343,1,0,0,0,0,0,0,0,0,0,-1,881,1023,0,0
-336,1,0,0,0,0,0,0,0,0,0,-1,888,1023,0,0
-329,1,0,0,0,0,0,0,0,0,0,-1,895,1023,0,0
-322,1,0,0,0,0,0,0,0,0,0,-1,902,1023,0,0
-315,1,0,0,0,0,0,0,0,0,0,-1,909,1023,0,0
-308,1,0,0,0,0,0,0,0,0,0,-1,916,1023,0,0
-301,1,0,0,0,0,0,0,0,0,0,-1,923,1023,0,0
-294,1,0,0,0,0,0,0,0,0,0,-1,930,1023,0,0
-287,1,0,0,0,0,0,0,0,0,0,-1,937,1023,0,0
-280,1,0,0,0,0,0,0,0,0,0,-1,944,1023,0,0
-273,1,0,0,0,0,0,0,0,0,0,-1,951,1023,0,0
-266,1,0,0,0,0,0,0,0,0,0,-1,958,1023,0,0
-259,1,0,0,0,0,0,0,0,0,0,-1,965,1023,0,0
-252,1,0,0,0,0,0,0,0,0,0,-1,972,1023,0,0
-245,1,0,0,0,0,0,0,0,0,0,-1,979,1023,0,0
-238,1,0,0,0,0,0,0,0,0,0,-1,986,1023,0,0
-231,1,0,0,0,0,0,0,0,0,0,-1,993,1023,0,0
-224,1,0,0,0,0,0,0,0,0,0,-1,1000,1023,0,0
-217,1,0,0,0,0,0,0,0,0,0,-1,1007,1023,0,0
-210,1,0,0,0,0,0,0,0,0,0,-1,1014,1023,0,0
-203,1,0,0,0,0,0,0,0,0,0,-1,1021,1023,0,0
-196,1,0,0,0,0,0,0,0,0,0,-1,1028,1023,0,0
-189,1,0,0,0,0,0,0,0,0,0,-1,1035,1023,0,0
-182,1,0,0,0,0,0,0,0,0,0,-1,1042,1023,0,0
-175,1,0,0,0,0,0,0,0,0,0,-1,1049,1023,0,0
-168,1,0,0,0,0,0,0,0,0,0,-1,1056,1023,0,0
-161,1,0,0,0,0,0,0,0,0,0,-1,1063,1023,0,0
-154,1,0,0,0,0,0,0,0,0,0,-1,1070,1023,0,0
-147,1,0,0,0,0,0,0,0,0,0,-1,1077,1023,0,0
-140,1,0,0,0,0,0,0,0,0,0,-1,1084,1023,0,0
-133,1,0,0,0,0,0,0,0,0,0,-1,1091,1023,0,0
-126,1,0,0,0,0,0,0,0,0,0,-1,1098,1023,0,0
-119,1,0,0,0,0,0,0,0,0,0,-1,1105,1023,0,0
-112,1,0,0,0,0,0,0,0,0,0,-1,1112,1023,0,0
-105,1,0,0,0,0,0,0,0,0,0,-1,1119,1023,0,0
-98,1,0,0,0,0,0,0,0,0,0,-1,1126,1023,0,0
-91,1,0,0,0,0,0,0,0,0,0,-1,1133,1023,0,0
-84,1,0,0,0,0,0,0,0,0,0,-1,1140,1023,0,0
-77,1,0,0,0,0,0,0,0,0,0,-1,1147,1023,0,0
-70,1,0,0,0,0,0,0,0,0,0,-1,1154,1023,0,0
-63,1,0,0,0,0,0,0,0,0,0,-1,1161,1023,0,0
-56,1,0,0,0,0,0,0,0,0,0,-1,1168,1023,0,0
-49,1,0,0,0,0,0,0,0,0,0,-1,1175,1023,0,0
-42,1,0,0,0,0,0,0,0,0,0,-1,1182,1023,0,0
-35,1,0,0,0,0,0,0,0,0,0,-1,1189,1023,0,0
-28,1,0,0,0,0,0,0,0,0,0,-1,1196,1023,0,0
-21,1,0,0,0,0,0,0,0,0,0,-1,1203,1023,0,0
-14,1,0,0,0,0,0,0,0,0,0,-1,1210,1023,0,0
-7,1,0,0,0,0,0,0,0,0,0,-1,1217,1023,0,0
0,1,0,0,0,0,0,0,0,0,0,-1,1224,1023,0,0
7,1,0,0,0,0,0,0,0,0,0,-1,1231,1023,0,0
14,1,0,0,0,0,0,0,0,0,0,-1,1238,1023,0,0
21,1,0,0,0,0,0,0,0,0,0,-1,1245,1023,0,0
28,1,0,0,0,0,0,0,0,0,0,-1,1252,1023,0,0
35,1,0,0,0,0,0,0,0,0,0,-1,1259,1023,0,0
42,1,0,0,0,0,0,0,0,0,0,-1,1266,1023,0,0
49,1,0,0,0,0,0,0,0,0,0,-1,1273,1023,0,0
56,1,0,0,0,0,0,0,0,0,0,-1,1280,1023,0,0
63,1,0,0,0,0,0,0,0,0,0,-1,1287,1023,0,0
70,1,0,0,0,0,0,0,0,0,0,-1,1294,1023,0,0
77,1,0,0,0,0,0,0,0,0,0,-1,1301,1023,0,0
84,1,0,0,0,0,0,0,0,0,0,-1,1308,1023,0,0
91,1,0,0,0,0,0,0,0,0,0,-1,1315,1023,0,0
98,1,0,0,0,0,0,0,0,0,0,-1,1322,1023,0,0
105,1,0,0,0,0,0,0,0,0,0,-1,1329,1023,0,0
112,1,0,0,0,0,0,0,0,0,0,-1,1336,1023,0,0
119,1,0,0,0,0,0,0,0,0,0,-1,1343,1023,0,0
126,1,0,0,0,0,0,0,0,0,0,-1,1350,1023,0,0
133,1,0,0,0,0,0,0,0,0,0,-1,1357,1023,0,0
140,1,0,0,0,0,0,0,0,0,0,-1,1364,1023,0,0
147,1,0,0,0,0,0,0,0,0,0,-1,1371,1023,0,0
154,1,0,0,0,0,0,0,0,0,0,-1,1378,1023,0,0
161,1,0,0,0,0,0,0,0,0,0,-1,1385,1023,0,0
168,1,0,0,0,0,0,0,0,0,0,-1,1392,1023,0,0
175,1,0,0,0,0,0,0,0,0,0,-1,1399,1023,0,0
182,1,0,0,0,0,0,0,0,0,0,-1,1406,1023,0,0
189,1,0,0,0,0,0,0,0,0,0,-1,1413,1023,0,0
196,1,0,0,0,0,0,0,0,0,0,-1,1420,1023,0,0
203,1,0,0,0,0,0,0,0,0,0,-1,1427,1023,0,0
210,1,0,0,0,0,0,0,0,0,0,-1,1434,1023,0,0
217,1,0,0,0,0,0,0,0,0,0,-1,1441,1023,0,0
224,1,0,0,0,0,0,0,0,0,0,-1,1448,1023,0,0
231,1,0,0,0,0,0,0,0,0,0,-1,1455,1023,0,0
238,1,0,0,0,0,0,0,0,0,0,-1,1462,1023,0,0
245,1,0,0,0,0,0,0,0,0,0,-1,1469,1023,0,0
252,1,0,0,0,0,0,0,0,0,0,-1,1476,1023,0,0
259,1,0,0,0,0,0,0,0,0,0,-1,1483,1023,0,0
266,1,0,0,0,0,0,0,0,0,0,-1,1490,1023,0,0
273,1,0,0,0,0,0,0,0,0,0,-1,1497,1023,0,0
280,1,0,0,0,0,0,0,0,0,0,-1,1504,1023,0,0
287,1,0,0,0,0,0,0,0,0,0,-1,1511,1023,0,0
294,1,0,0,0,0,0,0,0,0,0,-1,1518,1023,0,0
301,1,0,0,0,0,0,0,0,0,0,-1,1525,1023,0,0
308,1,0,0,0,0,0,0,0,0,0,-1,1532,1023,0,0
315,1,0,0,0,0,0,0,0,0,0,-1,1539,1023,0,0
322,1,0,0,0,0,0,0,0,0,0,-1,1546,1023,0,0
329,1,0,0,0,0,0,0,0,0,0,-1,1553,1023,0,0
336,1,0,0,0,0,0,0,0,0,0,-1,1560,1023,0,0
343,1,0,0,0,0,0,0,0,0,0,-1,1567,1023,0,0
350,1,0,0,0,0,0,0,0,0,0,-1,1574,1023,0,0
357,1,0,0,0,0,0,0,0,0,0,-1,1581,1023,0,0
364,1,0,0,0,0,0,0,0,0,0,-1,1588,1023,0,0
371,1,0,0,0,0,0,0,0,0,0,-1,1595,1023,0,0
378,1,0,0,0,0,0,0,0,0,0,-1,1602,1023,0,0
385,1,0,0,0,0,0,0,0,0,0,-1,1609,1023,0,0
392,1,0,0,0,0,0,0,0,0,0,-1,1616,1023,0,0
399,1,0,0,0,0,0,0,0,0,0,-1,1623,1023,0,0
406,1,0,0,0,0,0,0,0,0,0,-1,1630,1023,0,0
413,1,0,0,0,0,0,0,0,0,0,-1,1637,1023,0,0
420,1,0,0,0,0,0,0,0,0,0,-1,1644,1023,0,0
427,1,0,0,0,0,0,0,0,0,0,-1,1651,1023,0,0
434,1,0,0,0,0,0,0,0,0,0,-1,1658,1023,0,0
441,1,0,0,0,0,0,0,0,0,0,-1,1665,1023,0,0
448,1,0,0,0,0,0,0,0,0,0,-1,1672,1023,0,0
455,1,0,0,0,0,0,0,0,0,0,-1,1679,1023,0,0
462,1,0,0,0,0,0,0,0,0,0,-1,1686,1023,0,0
469,1,0,0,0,0,0,0,0,0,0,-1,1693,1023,0,0
476,1,0,0,0,0,0,0,0,0,0,-1,1700,1023,0,0
483,1,0,0,0,0,0,0,0,0,0,-1,1707,1023,0,0
490,1,0,0,0,0,0,0,0,0,0,-1,1714,1023,0,0
497,1,0,0,0,0,0,0,0,0,0,-1,1721,1023,0,0
504,1,0,0,0,0,0,0,0,0,0,-1,1728,1023,0,0
511,1,0,0,0,0,0,0,0,0,0,-1,1735,1023,0,0
518,1,0,0,0,0,0,0,0,0,0,-1,1742,1023,0,0
525,1,0,0,0,0,0,0,0,0,0,-1,1749,1023,0,0
532,1,0,0,0,0,0,0,0,0,0,-1,1756,1023,0,0
539,1,0,0,0,0,0,0,0,0,0,-1,1763,1023,0,0
546,1,0,0,0,0,0,0,0,0,0,-1,1770,1023,0,0
553,1,0,0,0,0,0,0,0,0,0,-1,1777,1023,0,0
560,1,0,0,0,0,0,0,0,0,0,-1,1784,1023,0,0
567,1,0,0,0,0,0,0,0,0,0,-1,1791,1023,0,0
574,1,0,0,0,0,0,0,0,0,0,-1,1798,1023,0,0
581,1,0,0,0,0,0,0,0,0,0,-1,1805,1023,0,0
588,1,0,0,0,0,0,0,0,0,0,-1,1812,1023,0,0
595,1,0,0,0,0,0,0,0,0,0,-1,1819,1023,0,0
602,1,0,0,0,0,0,0,0,0,0,-1,1826,1023,0,0
609,1,0,0,0,0,0,0,0,0,0,-1,1833,1023,0,0
616,1,0,0,0,0,0,0,0,0,0,-1,1840,1023,0,0
623,1,0,0,0,0,0,0,0,0,0,-1,1847,1023,0,0
630,1,0,0,0,0,0,0,0,0,0,-1,1854,1023,0,0
637,1,0,0,0,0,0,0,0,0,0,-1,1861,1023,0,0
644,1,0,0,0,0,0,0,0,0,0,-1,1868,1023,0,0
651,1,29.2,2.6286,0.0020235,9.07186e-05,0.000544968,0.00216657,-5.23505e-05,0.256734,0.00146214,0.0389976,1875,1023,29.2,-2.62861
658,1,29.1986,2.55109,0.00143196,0.000175523,0.000472121,0.00158959,1.78947e-05,0.322237,0.00105381,0.0407713,1882,1023,29.1986,-2.55108
665,1,29.2856,2.47101,0.000831879,0.00043066,0.00046574,0.00113838,0.000124162,0.58204,0.000721103,0.0423052,1889,1023,29.2856,-2.47099
672,1,29.1862,2.63403,0.000287368,0.000834457,0.000769517,0.0013776,-0.000255778,0.956171,0.00101447,0.0403619,1896,1023,29.1861,-2.63404
679,1,29.1147,2.52338,-0.000332183,0.00132694,0.00128301,0.00202521,-0.00103045,1.07238,0.00179508,0.0375832,1903,1023,29.1147,-2.5234
686,1,29.1033,2.31146,0,0,0,0,0,0,0,-1,1910,1023,29.1032,-2.31143
693,1,29.2527,2.62482,-0.00106367,0.00156431,0.00219811,0.00281123,-0.00231059,1.05479,0.00296179,0.0361648,1917,1023,29.2527,-2.6248
700,1,29.2543,2.69666,-0.00127712,0.0014801,0.00244429,0.00290776,-0.00270478,1.04217,0.00324111,0.0310686,1924,1023,29.2542,-2.69667
707,1,29.1835,2.61932,-0.00135933,0.00150451,0.00264674,0.00308185,-0.00293666,1.03336,0.00347513,0.0231493,1931,1023,29.1834,-2.61932
714,1,29.2751,2.00824,0,0,0,0,0,0,0,-1,1938,1023,29.2752,-2.00827
721,1,29.1685,3.19769,0,0,0,0,0,0,0,-1,1945,1023,29.1685,-3.19766
728,1,28.6793,4.47601,0,0,0,0,0,0,0,-1,1952,1023,28.6793,-4.47602
735,1,28.7179,4.45416,-0.00228235,0.00228476,0.00227156,0.00322217,-0.00321976,1.17941,0.00371925,0.0207183,1959,1023,28.7179,-4.45416
742,1,28.798,4.45404,-0.00255135,0.00263312,0.00201671,0.00332522,-0.00324344,1.24021,0.00379252,0.0221013,1966,1023,28.798,-4.45407
749,1,28.7866,4.49158,-0.00313156,0.00400366,0.00180058,0.00443229,-0.00356019,1.3371,0.00462361,0.0190572,1973,1023,28.7866,-4.49158
756,1,28.7899,4.53455,-0.00373871,0.00640788,0.00124344,0.00655804,-0.00388887,1.45062,0.0060968,0.0147563,1980,1023,28.79,-4.53454
763,1,28.7788,4.5351,-0.00405621,0.0100012,0.00038894,0.010012,-0.00406696,1.54316,0.00836656,0.014126,1987,1023,28.7788,-4.53513
770,1,28.7772,4.53223,-0.00470951,0.0152477,-0.000541287,0.0152624,-0.00472418,-1.5437,0.0120621,0.0130862,1994,1023,28.7772,-4.53222
777,1,28.6989,4.56317,-0.00537803,0.0224086,-0.00131816,0.022471,-0.00544042,-1.5235,0.0170854,0.0150895,2001,1023,28.6989,-4.56316
784,1,28.6272,4.61176,-0.00598529,0.0313502,-0.00212213,0.0314704,-0.00610552,-1.5142,0.0232838,0.0337427,2008,1023,28.6272,-4.61175
791,1,28.9008,4.36603,-0.00634418,0.0429583,-0.00320563,0.0431659,-0.00655174,-1.50614,0.0311914,0.0450543,2015,1023,28.9008,-4.36602
798,1,29.1162,4.43561,0,0,0,0,0,0,0,-1,2022,1023,29.1161,-4.43558
805,1,29.2957,4.63068,0,0,0,0,0,0,0,-1,2029,1023,29.2958,-4.63069
812,1,26.8794,3.9743,0,0,0,0,0,0,0,-1,2036,1023,26.8793,-3.9743
-700,-6,0,0,0,0,0,0,0,0,0,-1,524,1030,0,0
-693,-6,-22.6265,1.3335,0.113537,0.00682615,0.0229071,0.118246,0.00211662,0.202767,0.0781349,0.0401243,531,1030,-22.6265,-1.33346
-686,-6,-22.1419,1.49951,0.0903136,0.00696274,0.0246954,0.097081,0.000195365,0.267467,0.0646556,0.0422478,538,1030,-22.1419,-1.49955
-679,-6,-21.8251,1.37048,0,0,0,0,0,0,0,-1,545,1030,-21.8251,-1.37053
-672,-6,-20.6088,1.51196,0,0,0,0,0,0,0,-1,552,1030,-20.6088,-1.51195
-665,-6,-20.5762,1.68225,0.0391546,0.00589561,0.0184538,0.0473663,-0.00231602,0.418675,0.0323771,0.0447272,559,1030,-20.5762,-1.6822
-658,-6,-20.7654,2.30188,0.0275968,0.00529576,0.0151866,0.0352869,-0.00239431,0.468731,0.0243619,0.037546,566,1030,-20.7654,-2.30184
-651,-6,-20.5587,1.93445,0.0185109,0.00459591,0.0119091,0.025346,-0.00223912,0.521031,0.017691,0.0365575,573,1030,-20.5587,-1.93446
-644,-6,-20.4311,1.97034,0.0115328,0.00395256,0.00853416,0.0170806,-0.00159526,0.576426,0.0119543,0.0423142,580,1030,-20.4311,-1.97036
-637,-6,-20.5072,1.99133,0.00641163,0.00387086,0.00489544,0.0101988,8.36635e-05,0.658447,0.00677151,0.0250151,587,1030,-20.5072,-1.99135
-630,-6,-20.5767,1.92139,0.00185338,0.00318782,0.00153507,0.0041944,0.000846799,0.990406,0.0025611,0.0160143,594,1030,-20.5767,-1.9214
-623,-6,-20.565,1.94092,-0.000536595,0.0019234,-0.00136101,0.00252786,-0.00114106,-1.15284,0.0021681,0.0136453,601,1030,-20.565,-1.94086
-616,-6,-20.5725,1.9519,-0.000430509,0.00135003,-0.00384202,0.00440357,-0.00348406,-0.899248,0.00456423,0.0137652,608,1030,-20.5725,-1.95192
-609,-6,-20.5337,1.97437,-0.000214641,0.00125309,-0.00582628,0.00639154,-0.00535309,-0.848047,0.00678959,0.0152754,615,1030,-20.5337,-1.97437
-602,-6,-20.5253,2.00964,2.16765e-05,0.00110486,-0.00741572,0.00799874,-0.00687221,-0.82185,0.00859395,0.0127872,622,1030,-20.5253,-2.00966
-595,-6,-20.4523,2.01599,0.000187944,0.000528928,-0.00798267,0.00834293,-0.00762606,-0.796075,0.0092228,0.0163067,629,1030,-20.4523,-2.01593
-588,-6,-20.4445,1.3175,0.000454379,0.000104603,-0.00821298,0.00849433,-0.00793535,-0.774753,0.00948751,0.0198412,636,1030,-20.4445,-1.31754
-581,-6,-20.458,0.794312,0.000719176,-0.000327396,-0.00807179,0.00828463,-0.00789285,-0.753029,0.00934098,0.0231627,643,1030,-20.458,-0.794271
-574,-6,-20.4614,0.81189,0.000745507,-0.000698716,-0.00751344,0.00757145,-0.00752466,-0.737491,0.00871576,0.0310063,650,1030,-20.4614,-0.811921
-567,-6,-20.5093,0.769043,0.000765803,-0.00107173,-0.00639896,0.00631162,-0.00661755,-0.714095,0.00746536,0.0401212,657,1030,-20.5093,-0.769037
-560,-6,-20.5983,0.753906,0.000951154,-0.00147718,-0.00482369,0.00471114,-0.00523716,-0.662105,0.00574633,0.0409177,664,1030,-20.5983,-0.753961
-553,-6,-20.4954,0.470337,0,0,0,0,0,0,0,-1,671,1030,-20.4954,-0.470289
-546,-6,-20.424,0.91333,0.00225731,-0.002508,-0.00092761,0.00243151,-0.0026822,-0.185632,0.00295359,0.0434715,678,1030,-20.424,-0.913278
-539,-6,-20.3088,1.17627,0.00365006,-0.00281506,0.00042651,0.00367808,-0.00284307,0.0655921,0.00377526,0.0435368,685,1030,-20.3089,-1.17627
-532,-6,-20.3002,0.906616,0.00555313,-0.00277342,-0.000851935,0.0056394,-0.00285969,-0.100922,0.00499367,0.0398178,692,1030,-20.3003,-0.906602
-525,-6,0,0,0,0,0,0,0,0,0,-1,699,1030,0,0
-518,-6,0,0,0,0,0,0,0,0,0,-1,706,1030,0,0
-511,-6,0,0,0,0,0,0,0,0,0,-1,713,1030,0,0
-504,-6,0,0,0,0,0,0,0,0,0,-1,720,1030,0,0
-497,-6,0,0,0,0,0,0,0,0,0,-1,727,1030,0,0
-490,-6,0,0,0,0,0,0,0,0,0,-1,734,1030,0,0
-483,-6,0,0,0,0,0,0,0,0,0,-1,741,1030,0,0
-476,-6,0,0,0,0,0,0,0,0,0,-1,748,1030,0,0
-469,-6,0,0,0,0,0,0,0,0,0,-1,755,1030,0,0
-462,-6,0,0,0,0,0,0,0,0,0,-1,762,1030,0,0
-455,-6,0,0,0,0,0,0,0,0,0,-1,769,1030,0,0
-448,-6,0,0,0,0,0,0,0,0,0,-1,776,1030,0,0
-441,-6,0,0,0,0,0,0,0,0,0,-1,783,1030,0,0
-434,-6,0,0,0,0,0,0,0,0,0,-1,790,1030,0,0
-427,-6,0,0,0,0,0,0,0,0,0,-1,797,1030,0,0
-420,-6,0,0,0,0,0,0,0,0,0,-1,804,1030,0,0
-413,-6,0,0,0,0,0,0,0,0,0,-1,811,1030,0,0
-406,-6,0,0,0,0,0,0,0,0,0,-1,818,1030,0,0
-399,-6,0,0,0,0,0,0,0,0,0,-1,825,1030,0,0
-392,-6,0,0,0,0,0,0,0,0,0,-1,832,1030,0,0
-385,-6,0,0,0,0,0,0,0,0,0,-1,839,1030,0,0
-378,-6,0,0,0,0,0,0,0,0,0,-1,846,1030,0,0
-371,-6,0,0,0,0,0,0,0,0,0,-1,853,1030,0,0
-364,-6,0,0,0,0,0,0,0,0,0,-1,860,1030,0,0
-357,-6,0,0,0,0,0,0,0,0,0,-1,867,1030,0,0
-350,-6,0,0,0,0,0,0,0,0,0,-1,874,1030,0,0
-343,-6,0,0,0,0,0,0,0,0,0,-1,881,1030,0,0
-336,-6,0,0,0,0,0,0,0,0,0,-1,888,1030,0,0
-329,-6,0,0,0,0,0,0,0,0,0,-1,895,1030,0,0
-322,-6,0,0,0,0,0,0,0,0,0,-1,902,1030,0,0
-315,-6,0,0,0,0,0,0,0,0,0,-1,909,1030,0,0
-308,-6,0,0,0,0,0,0,0,0,0,-1,916,1030,0,0
-301,-6,0,0,0,0,0,0,0,0,0,-1,923,1030,0,0
-294,-6,0,0,0,0,0,0,0,0,0,-1,930,1030,0,0
-287,-6,0,0,0,0,0,0,0,0,0,-1,937,1030,0,0
-280,-6,0,0,0,0,0,0,0,0,0,-1,944,1030,0,0
-273,-6,0,0,0,0,0,0,0,0,0,-1,951,1030,0,0
-266,-6,0,0,0,0,0,0,0,0,0,-1,958,1030,0,0
-259,-6,0,0,0,0,0,0,0,0,0,-1,965,1030,0,0
-252,-6,0,0,0,0,0,0,0,0,0,-1,972,1030,0,0
-245,-6,0,0,0,0,0,0,0,0,0,-1,979,1030,0,0
-238,-6,0,0,0,0,0,0,0,0,0,-1,986,1030,0,0
-231,-6,0,0,0,0,0,0,0,0,0,-1,993,1030,0,0
-224,-6,0,0,0,0,0,0,0,0,0,-1,1000,1030,0,0
-217,-6,0,0,0,0,0,0,0,0,0,-1,1007,1030,0,0
-210,-6,0,0,0,0,0,0,0,0,0,-1,1014,1030,0,0
-203,-6,0,0,0,0,0,0,0,0,0,-1,1021,1030,0,0
-196,-6,0,0,0,0,0,0,0,0,0,-1,1028,1030,0,0
-189,-6,0,0,0,0,0,0,0,0,0,-1,1035,1030,0,0
-182,-6,0,0,0,0,0,0,0,0,0,-1,1042,1030,0,0
-175,-6,0,0,0,0,0,0,0,0,0,-1,1049,1030,0,0
-168,-6,0,0,0,0,0,0,0,0,0,-1,1056,1030,0,0
-161,-6,0,0,0,0,0,0,0,0,0,-1,1063,1030,0,0
-154,-6,0,0,0,0,0,0,0,0,0,-1,1070,1030,0,0
-147,-6,0,0,0,0,0,0,0,0,0,-1,1077,1030,0,0
-140,-6,0,0,0,0,0,0,0,0,0,-1,1084,1030,0,0
-133,-6,0,0,0,0,0,0,0,0,0,-1,1091,1030,0,0
-126,-6,0,0,0,0,0,0,0,0,0,-1,1098,1030,0,0
-119,-6,0,0,0,0,0,0,0,0,0,-1,1105,1030,0,0
-112,-6,0,0,0,0,0,0,0,0,0,-1,1112,1030,0,0
-105,-6,0,0,0,0,0,0,0,0,0,-1,1119,1030,0,0
-98,-6,0,0,0,0,0,0,0,0,0,-1,1126,1030,0,0
-91,-6,0,0,0,0,0,0,0,0,0,-1,1133,1030,0,0
-84,-6,0,0,0,0,0,0,0,0,0,-1,1140,1030,0,0
-77,-6,0,0,0,0,0,0,0,0,0,-1,1147,1030,0,0
-70,-6,0,0,0,0,0,0,0,0,0,-1,1154,1030,0,0
-63,-6,0,0,0,0,0,0,0,0,0,-1,1161,1030,0,0
-56,-6,0,0,0,0,0,0,0,0,0,-1,1168,1030,0,0
-49,-6,0,0,0,0,0,0,0,0,0,-1,1175,1030,0,0
-42,-6,0,0,0,0,0,0,0,0,0,-1,1182,1030,0,0
-35,-6,0,0,0,0,0,0,0,0,0,-1,1189,1030,0,0
-28,-6,0,0,0,0,0,0,0,0,0,-1,1196,1030,0,0
-21,-6,0,0,0,0,0,0,0,0,0,-1,1203,1030,0,0
-14,-6,0,0,0,0,0,0,0,0,0,-1,1210,1030,0,0
-7,-6,0,0,0,0,0,0,0,0,0,-1,1217,1030,0,0
0,-6,0,0,0,0,0,0,0,0,0,-1,1224,1030,0,0
7,-6,0,0,0,0,0,0,0,0,0,-1,1231,1030,0,0
14,-6,0,0,0,0,0,0,0,0,0,-1,1238,1030,0,0
21,-6,0,0,0,0,0,0,0,0,0,-1,1245,1030,0,0
28,-6,0,0,0,0,0,0,0,0,0,-1,1252,1030,0,0
35,-6,0,0,0,0,0,0,0,0,0,-1,1259,1030,0,0
42,-6,0,0,0,0,0,0,0,0,0,-1,1266,1030,0,0
49,-6,0,0,0,0,0,0,0,0,0,-1,1273,1030,0,0
56,-6,0,0,0,0,0,0,0,0,0,-1,1280,1030,0,0
63,-6,0,0,0,0,0,0,0,0,0,-1,1287,1030,0,0
70,-6,0,0,0,0,0,0,0,0,0,-1,1294,1030,0,0
77,-6,0,0,0,0,0,0,0,0,0,-1,1301,1030,0,0
84,-6,0,0,0,0,0,0,0,0,0,-1,1308,1030,0,0
91,-6,0,0,0,0,0,0,0,0,0,-1,1315,1030,0,0
98,-6,0,0,0,0,0,0,0,0,0,-1,1322,1030,0,0
105,-6,0,0,0,0,0,0,0,0,0,-1,1329,1030,0,0
112,-6,0,0,0,0,0,0,0,0,0,-1,1336,1030,0,0
119,-6,0,0,0,0,0,0,0,0,0,-1,1343,1030,0,0
126,-6,0,0,0,0,0,0,0,0,0,-1,1350,1030,0,0
133,-6,0,0,0,0,0,0,0,0,0,-1,1357,1030,0,0
140,-6,0,0,0,0,0,0,0,0,0,-1,1364,1030,0,0
147,-6,0,0,0,0,0,0,0,0,0,-1,1371,1030,0,0
154,-6,0,0,0,0,0,0,0,0,0,-1,1378,1030,0,0
161,-6,0,0,0,0,0,0,0,0,0,-1,1385,1030,0,0
168,-6,0,0,0,0,0,0,0,0,0,-1,1392,1030,0,0
175,-6,0,0,0,0,0,0,0,0,0,-1,1399,1030,0,0
182,-6,0,0,0,0,0,0,0,0,0,-1,1406,1030,0,0
189,-6,0,0,0,0,0,0,0,0,0,-1,1413,1030,0,0
196,-6,0,0,0,0,0,0,0,0,0,-1,1420,1030,0,0
203,-6,0,0,0,0,0,0,0,0,0,-1,1427,1030,0,0
210,-6,0,0,0,0,0,0,0,0,0,-1,1434,1030,0,0
217,-6,0,0,0,0,0,0,0,0,0,-1,1441,1030,0,0
224,-6,0,0,0,0,0,0,0,0,0,-1,1448,1030,0,0
231,-6,0,0,0,0,0,0,0,0,0,-1,1455,1030,0,0
238,-6,0,0,0,0,0,0,0,0,0,-1,1462,1030,0,0
245,-6,0,0,0,0,0,0,0,0,0,-1,1469,1030,0,0
252,-6,0,0,0,0,0,0,0,0,0,-1,1476,1030,0,0
259,-6,0,0,0,0,0,0,0,0,0,-1,1483,1030,0,0
266,-6,0,0,0,0,0,0,0,0,0,-1,1490,1030,0,0
273,-6,0,0,0,0,0,0,0,0,0,-1,1497,1030,0,0
280,-6,0,0,0,0,0,0,0,0,0,-1,1504,1030,0,0
287,-6,0,0,0,0,0,0,0,0,0,-1,1511,1030,0,0
294,-6,0,0,0,0,0,0,0,0,0,-1,1518,1030,0,0
301,-6,0,0,0,0,0,0,0,0,0,-1,1525,1030,0,0
308,-6,0,0,0,0,0,0,0,0,0,-1,1532,1030,0,0
315,-6,0,0,0,0,0,0,0,0,0,-1,1539,1030,0,0
322,-6,0,0,0,0,0,0,0,0,0,-1,1546,1030,0,0
329,-6,0,0,0,0,0,0,0,0,0,-1,1553,1030,0,0
336,-6,0,0,0,0,0,0,0,0,0,-1,1560,1030,0,0
343,-6,0,0,0,0,0,0,0,0,0,-1,1567,1030,0,0
350,-6,0,0,0,0,0,0,0,0,0,-1,1574,1030,0,0
357,-6,0,0,0,0,0,0,0,0,0,-1,1581,1030,0,0
364,-6,0,0,0,0,0,0,0,0,0,-1,1588,1030,0,0
371,-6,0,0,0,0,0,0,0,0,0,-1,1595,1030,0,0
378,-6,0,0,0,0,0,0,0,0,0,-1,1602,1030,0,0
385,-6,0,0,0,0,0,0,0,0,0,-1,1609,1030,0,0
392,-6,0,0,0,0,0,0,0,0,0,-1,1616,1030,0,0
399,-6,0,0,0,0,0,0,0,0,0,-1,1623,1030,0,0
406,-6,0,0,0,0,0,0,0,0,0,-1,1630,1030,0,0
413,-6,0,0,0,0,0,0,0,0,0,-1,1637,1030,0,0
420,-6,0,0,0,0,0,0,0,0,0,-1,1644,1030,0,0
427,-6,0,0,0,0,0,0,0,0,0,-1,1651,1030,0,0
434,-6,0,0,0,0,0,0,0,0,0,-1,1658,1030,0,0
441,-6,0,0,0,0,0,0,0,0,0,-1,1665,1030,0,0
448,-6,0,0,0,0,0,0,0,0,0,-1,1672,1030,0,0
455,-6,0,0,0,0,0,0,0,0,0,-1,1679,1030,0,0
462,-6,0,0,0,0,0,0,0,0,0,-1,1686,1030,0,0
469,-6,0,0,0,0,0,0,0,0,0,-1,1693,1030,0,0
476,-6,0,0,0,0,0,0,0,0,0,-1,1700,1030,0,0
483,-6,0,0,0,0,0,0,0,0,0,-1,1707,1030,0,0
490,-6,0,0,0,0,0,0,0,0,0,-1,1714,1030,0,0
497,-6,0,0,0,0,0,0,0,0,0,-1,1721,1030,0,0
504,-6,0,0,0,0,0,0,0,0,0,-1,1728,1030,0,0
511,-6,0,0,0,0,0,0,0,0,0,-1,1735,1030,0,0
518,-6,0,0,0,0,0,0,0,0,0,-1,1742,1030,0,0
525,-6,0,0,0,0,0,0,0,0,0,-1,1749,1030,0,0
532,-6,0,0,0,0,0,0,0,0,0,-1,1756,1030,0,0
539,-6,0,0,0,0,0,0,0,0,0,-1,1763,1030,0,0
546,-6,0,0,0,0,0,0,0,0,0,-1,1770,1030,0,0
553,-6,0,0,0,0,0,0,0,0,0,-1,1777,1030,0,0
560,-6,0,0,0,0,0,0,0,0,0,-1,1784,1030,0,0
567,-6,0,0,0,0,0,0,0,0,0,-1,1791,1030,0,0
574,-6,0,0,0,0,0,0,0,0,0,-1,1798,1030,0,0
581,-6,0,0,0,0,0,0,0,0,0,-1,1805,1030,0,0
588,-6,0,0,0,0,0,0,0,0,0,-1,1812,1030,0,0
595,-6,0,0,0,0,0,0,0,0,0,-1,1819,1030,0,0
602,-6,0,0,0,0,0,0,0,0,0,-1,1826,1030,0,0
609,-6,0,0,0,0,0,0,0,0,0,-1,1833,1030,0,0
616,-6,0,0,0,0,0,0,0,0,0,-1,1840,1030,0,0
623,-6,0,0,0,0,0,0,0,0,0,-1,1847,1030,0,0
630,-6,0,0,0,0,0,0,0,0,0,-1,1854,1030,0,0
637,-6,0,0,0,0,0,0,0,0,0,-1,1861,1030,0,0
644,-6,0,0,0,0,0,0,0,0,0,-1,1868,1030,0,0
651,-6,29.2332,2.88916,0.00128525,-9.86734e-05,0.000979628,0.00179266,-0.000606079,0.47791,0.00144028,0.0381134,1875,1030,29.2331,-2.8892
658,-6,29.2168,2.59497,0.000913277,0.000148521,0.000675544,0.00130715,-0.000245356,0.527865,0.00096369,0.0416732,1882,1030,29.2169,-2.59493
665,-6,29.431,2.25806,0.000487277,0.00048283,0.000458247,0.000943306,2.68016e-05,0.782972,0.00062013,0.0455849,1889,1030,29.4311,-2.25811
672,-6,29.3419,2.58044,0.000111772,0.000870709,0.00058791,0.00119098,-0.000208498,1.07198,0.000871836,0.0421943,1896,1030,29.3419,-2.58041
679,-6,29.1606,2.84448,-0.000332292,0.00128193,0.000974271,0.00173998,-0.000790342,1.13132,0.00149478,0.0420259,1903,1030,29.1607,-2.8445
686,-6,29.0745,2.74402,-0.00067469,0.00138435,0.00141115,0.00210162,-0.00139196,1.10054,0.00203084,0.0384916,1910,1030,29.0744,-2.74399
693,-6,29.0824,2.71082,-0.000888978,0.00132134,0.00182455,0.00234934,-0.00191698,1.0577,0.00246737,0.0354934,1917,1030,29.0824,-2.71084
700,-6,29.2589,2.6748,-0.00104933,0.00116878,0.00209489,0.00243008,-0.00231062,1.02885,0.00273734,0.0300866,1924,1030,29.259,-2.67483
707,-6,29.1937,2.58569,-0.00108959,0.00112733,0.00231643,0.00258685,-0.00254911,1.00856,0.00296528,0.0253557,1931,1030,29.1938,-2.58566
714,-6,29.135,2.33887,0,0,0,0,0,0,0,-1,1938,1030,29.135,-2.33888
721,-6,28.9965,3.47839,0,0,0,0,0,0,0,-1,1945,1030,28.9965,-3.47843
728,-6,28.698,4.37573,0,0,0,0,0,0,0,-1,1952,1030,28.6981,-4.37577
735,-6,28.7544,4.4458,-0.00197501,0.00181784,0.00223578,0.00285316,-0.00301033,1.13713,0.0033857,0.0203424,1959,1030,28.7544,-4.44584
742,-6,28.813,4.45618,-0.00214957,0.00219277,0.00204979,0.0030075,-0.0029643,1.19247,0.00344785,0.0179261,1966,1030,28.8129,-4.45614
749,-6,28.774,4.50623,-0.00270735,0.00373072,0.00189006,0.00424458,-0.00322121,1.30534,0.00432385,0.0157546,1973,1030,28.774,-4.50623
756,-6,28.7964,4.47449,-0.00329081,0.00632335,0.00139774,0.00652243,-0.0034899,1.42931,0.00586834,0.0151557,1980,1030,28.7964,-4.47448
763,-6,28.7815,4.45764,-0.00351252,0.0101593,0.000591897,0.0101849,-0.00353809,1.52761,0.00822693,0.0142544,1987,1030,28.7815,-4.45769
770,-6,28.7637,4.47168,-0.00401973,0.0157927,-0.000356413,0.0157991,-0.00402614,-1.55281,0.0121002,0.0124157,1994,1030,28.7636,-4.47169
777,-6,28.6963,4.4928,-0.00450256,0.0234454,-0.00123336,0.0234997,-0.00455688,-1.52678,0.0173856,0.0144698,2001,1030,28.6963,-4.49278
784,-6,28.6232,4.45605,-0.00489175,0.0328583,-0.00218483,0.0329843,-0.00501778,-1.51318,0.0238388,0.0348047,2008,1030,28.6231,-4.45601
791,-6,28.6309,4.29028,0,0,0,0,0,0,0,-1,2015,1030,28.6309,-4.29033
798,-6,28.7773,4.49329,0,0,0,0,0,0,0,-1,2022,1030,28.7773,-4.49329
805,-6,28.3625,7.45581,0,0,0,0,0,0,0,-1,2029,1030,28.3626,-7.4558
812,-6,29.6563,5.41565,0,0,0,0,0,0,0,-1,2036,1030,29.6563,-5.41568
-700,-13,0,0,0,0,0,0,0,0,0,-1,524,1037,0,0
-693,-13,-22.4723,2.07214,0,0,0,0,0,0,0,-1,531,1037,-22.4723,-2.07218
-686,-13,-21.2496,0.0169678,0,0,0,0,0,0,0,-1,538,1037,-21.2497,-0.0169633
-679,-13,-20.9118,0.403442,0.0727544,0.0115885,0.018282,0.0778022,0.0065407,0.269394,0.0498312,0.0459542,545,1037,-20.9118,-0.403453
-672,-13,-20.786,0.994263,0,0,0,0,0,0,0,-1,552,1037,-20.786,-0.994259
-665,-13,-20.7971,1.771,0.0397373,0.00840372,0.0151186,0.0458425,0.00229852,0.383796,0.029825,0.0481046,559,1037,-20.7971,-1.77096
-658,-13,-20.7883,2.93323,0.0277525,0.00699614,0.0126986,0.0337743,0.000974279,0.442807,0.0221986,0.0478227,566,1037,-20.7882,-2.93323
-651,-13,-20.575,1.97534,0,0,0,0,0,0,0,-1,573,1037,-20.575,-1.97531
-644,-13,-20.441,1.80933,0.0113907,0.00456139,0.00735286,0.0160831,-0.000131022,0.568018,0.010766,0.0303277,580,1037,-20.4411,-1.8093
-637,-13,-20.481,1.86707,0.00626195,0.00398677,0.00404053,0.00932198,0.000926743,0.648178,0.00592993,0.0205905,587,1037,-20.481,-1.86712
-630,-13,-20.5334,1.88391,0.00189737,0.00295433,0.00102061,0.00357517,0.00127653,1.02429,0.00209205,0.0130521,594,1037,-20.5334,-1.88397
-623,-13,-20.5292,1.93359,-0.00051281,0.00161509,-0.00167061,0.00253177,-0.00142949,-1.06894,0.00231637,0.0120504,601,1037,-20.5292,-1.93358
-616,-13,-20.5008,1.96069,-0.000544031,0.0010289,-0.00411239,0.00442935,-0.00394448,-0.879879,0.00483734,0.0111343,608,1037,-20.5008,-1.96075
-609,-13,-20.4611,1.96777,-0.00032979,0.0008788,-0.00608739,0.00639182,-0.00584281,-0.834871,0.00706604,0.0154052,615,1037,-20.4611,-1.96782
-602,-13,-20.4797,2.00635,-7.56602e-05,0.000770311,-0.00774176,0.00810063,-0.00740598,-0.812689,0.00895574,0.0116636,622,1037,-20.4798,-2.0064
-595,-13,-20.4373,2.00195,3.76854e-05,0.000250366,-0.00836439,0.00850909,-0.00822104,-0.791755,0.00965962,0.0217655,629,1037,-20.4373,-2.00197
-588,-13,-20.2698,1.24963,0.000233848,-0.000119591,-0.00858366,0.00864261,-0.00852835,-0.775106,0.00991373,0.0266331,636,1037,-20.2698,-1.24966
-581,-13,-20.4328,0.719727,0.000444131,-0.000491983,-0.0083896,0.00837872,-0.00842657,-0.757532,0.00970255,0.0233544,643,1037,-20.4328,-0.719687
-574,-13,-20.4464,0.727417,0.000425249,-0.000753158,-0.00773226,0.00759073,-0.00791863,-0.747371,0.008955,0.031946,650,1037,-20.4464,-0.727447
-567,-13,-20.5141,0.803589,0.000380186,-0.000987767,-0.00646798,0.00620025,-0.00680783,-0.73272,0.00751295,0.0398904,657,1037,-20.5141,-0.80363
-560,-13,-20.555,0.849365,0.000458809,-0.00125184,-0.00465445,0.00433587,-0.00512891,-0.694529,0.00547088,0.0434984,664,1037,-20.555,-0.84937
-553,-13,-20.4687,0.713257,0.000738436,-0.00160647,-0.00242603,0.00226047,-0.00312851,-0.560307,0.00312475,0.0433206,671,1037,-20.4687,-0.713314
-546,-13,-20.4599,0.758057,0.00135783,-0.00212512,5.46611e-05,0.00135868,-0.00212597,0.0156888,0.00202806,0.041338,678,1037,-20.4599,-0.758033
-539,-13,-20.31,1.08752,0.00239781,-0.00251445,0.00193726,0.00306986,-0.0031865,0.33392,0.00361233,0.0399675,685,1037,-20.31,-1.0875
-532,-13,-20.3085,1.198,0.00376393,-0.00290395,0.00106155,0.00392885,-0.00306888,0.154128,0.0040503,0.0413543,692,1037,-20.3085,-1.19805
-525,-13,0,0,0,0,0,0,0,0,0,-1,699,1037,0,0
-518,-13,0,0,0,0,0,0,0,0,0,-1,706,1037,0,0
-511,-13,0,0,0,0,0,0,0,0,0,-1,713,1037,0,0
-504,-13,0,0,0,0,0,0,0,0,0,-1,720,1037,0,0
-497,-13,0,0,0,0,0,0,0,0,0,-1,727,1037,0,0
-490,-13,0,0,0,0,0,0,0,0,0,-1,734,1037,0,0
-483,-13,0,0,0,0,0,0,0,0,0,-1,741,1037,0,0
-476,-13,0,0,0,0,0,0,0,0,0,-1,748,1037,0,0
-469,-13,0,0,0,0,0,0,0,0,0,-1,755,1037,0,0
-462,-13,0,0,0,0,0,0,0,0,0,-1,762,1037,0,0
-455,-13,0,0,0,0,0,0,0,0,0,-1,769,1037,0,0
-448,-13,0,0,0,0,0,0,0,0,0,-1,776,1037,0,0
-441,-13,0,0,0,0,0,0,0,0,0,-1,783,1037,0,0
-434,-13,0,0,0,0,0,0,0,0,0,-1,790,1037,0,0
-427,-13,0,0,0,0,0,0,0,0,0,-1,797,1037,0,0
-420,-13,0,0,0,0,0,0,0,0,0,-1,804,1037,0,0
-413,-13,0,0,0,0,0,0,0,0,0,-1,811,1037,0,0
-406,-13,0,0,0,0,0,0,0,0,0,-1,818,1037,0,0
-399,-13,0,0,0,0,0,0,0,0,0,-1,825,1037,0,0
-392,-13,0,0,0,0,0,0,0,0,0,-1,832,1037,0,0
-385,-13,0,0,0,0,0,0,0,0,0,-1,839,1037,0,0
-378,-13,0,0,0,0,0,0,0,0,0,-1,846,1037,0,0
-371,-13,0,0,0,0,0,0,0,0,0,-1,853,1037,0,0
-364,-13,0,0,0,0,0,0,0,0,0,-1,860,1037,0,0
-357,-13,0,0,0,0,0,0,0,0,0,-1,867,1037,0,0
-350,-13,0,0,0,0,0,0,0,0,0,-1,874,1037,0,0
-343,-13,0,0,0,0,0,0,0,0,0,-1,881,1037,0,0
-336,-13,0,0,0,0,0,0,0,0,0,-1,888,1037,0,0
-329,-13,0,0,0,0,0,0,0,0,0,-1,895,1037,0,0
-322,-13,0,0,0,0,0,0,0,0,0,-1,902,1037,0,0
-315,-13,0,0,0,0,0,0,0,0,0,-1,909,1037,0,0
-308,-13,0,0,0,0,0,0,0,0,0,-1,916,1037,0,0
-301,-13,0,0,0,0,0,0,0,0,0,-1,923,1037,0,0
-294,-13,0,0,0,0,0,0,0,0,0,-1,930,1037,0,0
-287,-13,0,0,0,0,0,0,0,0,0,-1,937,1037,0,0
-280,-13,0,0,0,0,0,0,0,0,0,-1,944,1037,0,0
-273,-13,0,0,0,0,0,0,0,0,0,-1,951,1037,0,0
-266,-13,0,0,0,0,0,0,0,0,0,-1,958,1037,0,0
-259,-13,0,0,0,0,0,0,0,0,0,-1,965,1037,0,0
-252,-13,0,0,0,0,0,0,0,0,0,-1,972,1037,0,0
-245,-13,0,0,0,0,0,0,0,0,0,-1,979,1037,0,0
-238,-13,0,0,0,0,0,0,0,0,0,-1,986,1037,0,0
-231,-13,0,0,0,0,0,0,0,0,0,-1,993,1037,0,0
-224,-13,0,0,0,0,0,0,0,0,0,-1,1000,1037,0,0
-217,-13,0,0,0,0,0,0,0,0,0,-1,1007,1037,0,0
-210,-13,0,0,0,0,0,0,0,0,0,-1,1014,1037,0,0
-203,-13,0,0,0,0,0,0,0,0,0,-1,1021,1037,0,0
-196,-13,0,0,0,0,0,0,0,0,0,-1,1028,1037,0,0
-189,-13,0,0,0,0,0,0,0,0,0,-1,1035,1037,0,0
-182,-13,0,0,0,0,0,0,0,0,0,-1,1042,1037,0,0
-175,-13,0,0,0,0,0,0,0,0,0,-1,1049,1037,0,0
-168,-13,0,0,0,0,0,0,0,0,0,-1,1056,1037,0,0
-161,-13,0,0,0,0,0,0,0,0,0,-1,1063,1037,0,0
-154,-13,0,0,0,0,0,0,0,0,0,-1,1070,1037,0,0
-147,-13,0,0,0,0,0,0,0,0,0,-1,1077,1037,0,0
-140,-13,0,0,0,0,0,0,0,0,0,-1,1084,1037,0,0
-133,-13,0,0,0,0,0,0,0,0,0,-1,1091,1037,0,0
-126,-13,0,0,0,0,0,0,0,0,0,-1,1098,1037,0,0
-119,-13,0,0,0,0,0,0,0,0,0,-1,1105,1037,0,0
-112,-13,0,0,0,0,0,0,0,0,0,-1,1112,1037,0,0
-105,-13,0,0,0,0,0,0,0,0,0,-1,1119,1037,0,0
-98,-13,0,0,0,0,0,0,0,0,0,-1,1126,1037,0,0
-91,-13,0,0,0,0,0,0,0,0,0,-1,1133,1037,0,0
-84,-13,0,0,0,0,0,0,0,0,0,-1,1140,1037,0,0
-77,-13,0,0,0,0,0,0,0,0,0,-1,1147,1037,0,0
-70,-13,0,0,0,0,0,0,0,0,0,-1,1154,1037,0,0
-63,-13,0,0,0,0,0,0,0,0,0,-1,1161,1037,0,0
-56,-13,0,0,0,0,0,0,0,0,0,-1,1168,1037,0,0
-49,-13,0,0,0,0,0,0,0,0,0,-1,1175,1037,0,0
-42,-13,0,0,0,0,0,0,0,0,0,-1,1182,1037,0,0
-35,-13,0,0,0,0,0,0,0,0,0,-1,1189,1037,0,0
-28,-13,0,0,0,0,0,0,0,0,0,-1,1196,1037,0,0
-21,-13,0,0,0,0,0,0,0,0,0,-1,1203,1037,0,0
-14,-13,0,0,0,0,0,0,0,0,0,-1,1210,1037,0,0
-7,-13,0,0,0,0,0,0,0,0,0,-1,1217,1037,0,0
0,-13,0,0,0,0,0,0,0,0,0,-1,1224,1037,0,0
7,-13,0,0,0,0,0,0,0,0,0,-1,1231,1037,0,0
14,-13,0,0,0,0,0,0,0,0,0,-1,1238,1037,0,0
21,-13,0,0,0,0,0,0,0,0,0,-1,1245,1037,0,0
28,-13,0,0,0,0,0,0,0,0,0,-1,1252,1037,0,0
35,-13,0,0,0,0,0,0,0,0,0,-1,1259,1037,0,0
42,-13,0,0,0,0,0,0,0,0,0,-1,1266,1037,0,0
49,-13,0,0,0,0,0,0,0,0,0,-1,1273,1037,0,0
56,-13,0,0,0,0,0,0,0,0,0,-1,1280,1037,0,0
63,-13,0,0,0,0,0,0,0,0,0,-1,1287,1037,0,0
70,-13,0,0,0,0,0,0,0,0,0,-1,1294,1037,0,0
77,-13,0,0,0,0,0,0,0,0,0,-1,1301,1037,0,0
84,-13,0,0,0,0,0,0,0,0,0,-1,1308,1037,0,0
91,-13,0,0,0,0,0,0,0,0,0,-1,1315,1037,0,0
98,-13,0,0,0,0,0,0,0,0,0,-1,1322,1037,0,0
105,-13,0,0,0,0,0,0,0,0,0,-1,1329,1037,0,0
112,-13,0,0,0,0,0,0,0,0,0,-1,1336,1037,0,0
119,-13,0,0,0,0,0,0,0,0,0,-1,1343,1037,0,0
126,-13,0,0,0,0,0,0,0,0,0,-1,1350,1037,0,0
133,-13,0,0,0,0,0,0,0,0,0,-1,1357,1037,0,0
140,-13,0,0,0,0,0,0,0,0,0,-1,1364,1037,0,0
147,-13,0,0,0,0,0,0,0,0,0,-1,1371,1037,0,0
154,-13,0,0,0,0,0,0,0,0,0,-1,1378,1037,0,0
161,-13,0,0,0,0,0,0,0,0,0,-1,1385,1037,0,0
168,-13,0,0,0,0,0,0,0,0,0,-1,1392,1037,0,0
175,-13,0,0,0,0,0,0,0,0,0,-1,1399,1037,0,0
182,-13,0,0,0,0,0,0,0,0,0,-1,1406,1037,0,0
189,-13,0,0,0,0,0,0,0,0,0,-1,1413,1037,0,0
196,-13,0,0,0,0,0,0,0,0,0,-1,1420,1037,0,0
203,-13,0,0,0,0,0,0,0,0,0,-1,1427,1037,0,0
210,-13,0,0,0,0,0,0,0,0,0,-1,1434,1037,0,0
217,-13,0,0,0,0,0,0,0,0,0,-1,1441,1037,0,0
224,-13,0,0,0,0,0,0,0,0,0,-1,1448,1037,0,0
231,-13,0,0,0,0,0,0,0,0,0,-1,1455,1037,0,0
238,-13,0,0,0,0,0,0,0,0,0,-1,1462,1037,0,0
245,-13,0,0,0,0,0,0,0,0,0,-1,1469,1037,0,0
252,-13,0,0,0,0,0,0,0,0,0,-1,1476,1037,0,0
259,-13,0,0,0,0,0,0,0,0,0,-1,1483,1037,0,0
266,-13,0,0,0,0,0,0,0,0,0,-1,1490,1037,0,0
273,-13,0,0,0,0,0,0,0,0,0,-1,1497,1037,0,0
280,-13,0,0,0,0,0,0,0,0,0,-1,1504,1037,0,0
287,-13,0,0,0,0,0,0,0,0,0,-1,1511,1037,0,0
294,-13,0,0,0,0,0,0,0,0,0,-1,1518,1037,0,0
301,-13,0,0,0,0,0,0,0,0,0,-1,1525,1037,0,0
308,-13,0,0,0,0,0,0,0,0,0,-1,1532,1037,0,0
315,-13,0,0,0,0,0,0,0,0,0,-1,1539,1037,0,0
322,-13,0,0,0,0,0,0,0,0,0,-1,1546,1037,0,0
329,-13,0,0,0,0,0,0,0,0,0,-1,1553,1037,0,0
336,-13,0,0,0,0,0,0,0,0,0,-1,1560,1037,0,0
343,-13,0,0,0,0,0,0,0,0,0,-1,1567,1037,0,0
350,-13,0,0,0,0,0,0,0,0,0,-1,1574,1037,0,0
357,-13,0,0,0,0,0,0,0,0,0,-1,1581,1037,0,0
364,-13,0,0,0,0,0,0,0,0,0,-1,1588,1037,0,0
371,-13,0,0,0,0,0,0,0,0,0,-1,1595,1037,0,0
378,-13,0,0,0,0,0,0,0,0,0,-1,1602,1037,0,0
385,-13,0,0,0,0,0,0,0,0,0,-1,1609,1037,0,0
392,-13,0,0,0,0,0,0,0,0,0,-1,1616,1037,0,0
399,-13,0,0,0,0,0,0,0,0,0,-1,1623,1037,0,0
406,-13,0,0,0,0,0,0,0,0,0,-1,1630,1037,0,0
413,-13,0,0,0,0,0,0,0,0,0,-1,1637,1037,0,0
420,-13,0,0,0,0,0,0,0,0,0,-1,1644,1037,0,0
427,-13,0,0,0,0,0,0,0,0,0,-1,1651,1037,0,0
434,-13,0,0,0,0,0,0,0,0,0,-1,1658,1037,0,0
441,-13,0,0,0,0,0,0,0,0,0,-1,1665,1037,0,0
448,-13,0,0,0,0,0,0,0,0,0,-1,1672,1037,0,0
455,-13,0,0,0,0,0,0,0,0,0,-1,1679,1037,0,0
462,-13,0,0,0,0,0,0,0,0,0,-1,1686,1037,0,0
469,-13,0,0,0,0,0,0,0,0,0,-1,1693,1037,0,0
476,-13,0,0,0,0,0,0,0,0,0,-1,1700,1037,0,0
483,-13,0,0,0,0,0,0,0,0,0,-1,1707,1037,0,0
490,-13,0,0,0,0,0,0,0,0,0,-1,1714,1037,0,0
497,-13,0,0,0,0,0,0,0,0,0,-1,1721,1037,0,0
504,-13,0,0,0,0,0,0,0,0,0,-1,1728,1037,0,0
511,-13,0,0,0,0,0,0,0,0,0,-1,1735,1037,0,0
518,-13,0,0,0,0,0,0,0,0,0,-1,1742,1037,0,0
525,-13,0,0,0,0,0,0,0,0,0,-1,1749,1037,0,0
532,-13,0,0,0,0,0,0,0,0,0,-1,1756,1037,0,0
539,-13,0,0,0,0,0,0,0,0,0,-1,1763,1037,0,0
546,-13,0,0,0,0,0,0,0,0,0,-1,1770,1037,0,0
553,-13,0,0,0,0,0,0,0,0,0,-1,1777,1037,0,0
560,-13,0,0,0,0,0,0,0,0,0,-1,1784,1037,0,0
567,-13,0,0,0,0,0,0,0,0,0,-1,1791,1037,0,0
574,-13,0,0,0,0,0,0,0,0,0,-1,1798,1037,0,0
581,-13,0,0,0,0,0,0,0,0,0,-1,1805,1037,0,0
588,-13,0,0,0,0,0,0,0,0,0,-1,1812,1037,0,0
595,-13,0,0,0,0,0,0,0,0,0,-1,1819,1037,0,0
602,-13,0,0,0,0,0,0,0,0,0,-1,1826,1037,0,0
609,-13,0,0,0,0,0,0,0,0,0,-1,1833,1037,0,0
616,-13,0,0,0,0,0,0,0,0,0,-1,1840,1037,0,0
623,-13,0,0,0,0,0,0,0,0,0,-1,1847,1037,0,0
630,-13,0,0,0,0,0,0,0,0,0,-1,1854,1037,0,0
637,-13,0,0,0,0,0,0,0,0,0,-1,1861,1037,0,0
644,-13,0,0,0,0,0,0,0,0,0,-1,1868,1037,0,0
651,-13,29.2664,2.8999,0.000650236,0.000245949,0.00149992,0.00196157,-0.00106539,0.718417,0.00177296,0.0397906,1875,1037,29.2664,-2.89985
658,-13,29.033,2.57983,0.00048802,0.000614351,0.00101281,0.00156597,-0.000463594,0.816541,0.00122803,0.0423841,1882,1037,29.0329,-2.57985
665,-13,29.1602,2.38953,0.000219774,0.00096833,0.000627267,0.0013245,-0.000136392,1.05439,0.000931795,0.0440891,1889,1037,29.1601,-2.38954
672,-13,29.3044,2.54028,-1.81258e-05,0.0013073,0.000619362,0.00155167,-0.000262495,1.195,0.00113213,0.0386582,1896,1037,29.3044,-2.54024
679,-13,29.1744,2.77502,-0.000304581,0.00159994,0.000900413,0.00195823,-0.00066287,1.19209,0.00157369,0.0385822,1903,1037,29.1744,-2.77501
686,-13,29.0819,2.79675,-0.00055215,0.00157347,0.00127887,0.00217352,-0.00115219,1.13209,0.00195005,0.0406222,1910,1037,29.0819,-2.79679
693,-13,29.1079,2.7998,-0.000708344,0.00138454,0.00167119,0.00230988,-0.00163368,1.06512,0.00228795,0.0392945,1917,1037,29.108,-2.79978
700,-13,29.2236,2.69043,-0.000821383,0.00114525,0.00195367,0.00234911,-0.00202525,1.01855,0.00252784,0.0351839,1924,1037,29.2236,-2.6904
707,-13,29.2117,2.58069,-0.000826608,0.00101542,0.00217803,0.00245916,-0.00227035,0.985429,0.00273131,0.0296766,1931,1037,29.2117,-2.58063
714,-13,29.161,2.74097,-0.00102364,0.000990696,0.00233142,0.00252319,-0.00255614,0.98929,0.00293257,0.0249307,1938,1037,29.1609,-2.74095
721,-13,28.8514,3.64221,0,0,0,0,0,0,0,-1,1945,1037,28.8514,-3.64226
728,-13,28.5459,4.52148,0,0,0,0,0,0,0,-1,1952,1037,28.5459,-4.52147
735,-13,28.8223,4.49243,-0.00171587,0.00149988,0.00223675,0.00264669,-0.00286268,1.09703,0.00318165,0.0199337,1959,1037,28.8223,-4.49245
742,-13,28.7917,4.50574,-0.00181757,0.00191401,0.00208001,0.00284244,-0.00274599,1.15098,0.00322664,0.0135625,1966,1037,28.7917,-4.50568
749,-13,28.7925,4.49231,-0.00235126,0.00358269,0.00193494,0.00415788,-0.00292646,1.28185,0.00411069,0.0186266,1973,1037,28.7925,-4.49233
756,-13,28.7917,4.46387,-0.0029135,0.00626607,0.00144375,0.00648779,-0.00313522,1.41842,0.00566712,0.0149414,1980,1037,28.7918,-4.4639
763,-13,28.8005,4.46362,-0.00305368,0.0101902,0.000603508,0.0102177,-0.00308112,1.52535,0.00803814,0.0159018,1987,1037,28.8005,-4.46362
770,-13,28.7679,4.45789,-0.00342807,0.0159418,-0.000447297,0.0159522,-0.00343839,-1.54772,0.011947,0.0140114,1994,1037,28.768,-4.45792
777,-13,28.7029,4.40149,-0.00373293,0.0238119,-0.0015108,0.0238945,-0.00381554,-1.51617,0.017342,0.0121331,2001,1037,28.7028,-4.40155
784,-13,28.7168,4.35156,-0.00390356,0.0333893,-0.00268705,0.033582,-0.00409617,-1.49924,0.0238708,0.0281547,2008,1037,28.7168,-4.35156
791,-13,28.886,4.43994,-0.00386708,0.0454715,-0.00425827,0.0458363,-0.00423191,-1.48533,0.0320614,0.0446767,2015,1037,28.886,-4.43997
798,-13,28.9946,5.97144,-0.00333594,0.0608298,-0.00645495,0.0614727,-0.00397885,-1.47152,0.0423704,0.0453722,2022,1037,28.9947,-5.97148
805,-13,28.6829,6.05322,-0.00197967,0.0801867,-0.00955291,0.0812828,-0.0030757,-1.45656,0.0552423,0.0411784,2029,1037,28.6828,-6.05325
812,-13,29.25,4.69812,0.000414195,0.10425,-0.0139381,0.106088,-0.00142419,-1.43966,0.0712048,0.043997,2036,1037,29.2501,-4.69812
-700,-20,-24.1516,-0.135254,0,0,0,0,0,0,0,-1,524,1044,-24.1516,0.135225
-693,-20,-22.9921,0.230347,0,0,0,0,0,0,0,-1,531,1044,-22.9921,-0.230364
-686,-20,-21.7433,0.19519,0.095334,0.0181119,0.0119103,0.0971292,0.0163167,0.149604,0.0600574,0.0461251,538,1044,-21.7434,-0.195244
-679,-20,-20.68,-0.169189,0.0725321,0.0151987,0.0134453,0.0755285,0.0122022,0.219279,0.046818,0.0452777,545,1044,-20.68,0.169221
-672,-20,-20.8531,0.919067,0,0,0,0,0,0,0,-1,552,1044,-20.8532,-0.919102
-665,-20,-20.8928,1.79285,0,0,0,0,0,0,0,-1,559,1044,-20.8928,-1.79285
-658,-20,-20.9633,2.58862,0,0,0,0,0,0,0,-1,566,1044,-20.9633,-2.58864
-651,-20,-20.4282,1.50366,0.0174039,0.00660487,0.00861719,0.0221735,0.00183528,0.505524,0.0142101,0.0402894,573,1044,-20.4282,-1.50366
-644,-20,-20.3772,1.64197,0.0105029,0.00512041,0.00636451,0.0147218,0.000901521,0.585374,0.00952822,0.0271477,580,1044,-20.3772,-1.64198
-637,-20,-20.4197,1.74097,0.00559501,0.00420648,0.0033186,0.00829119,0.0015103,0.682283,0.00509914,0.0172456,587,1044,-20.4197,-1.74095
-630,-20,-20.4548,1.8573,0.00154631,0.00287777,0.000531217,0.00306374,0.00136034,1.23405,0.00177254,0.0139361,594,1044,-20.4549,-1.85727
-623,-20,-20.4686,1.922,-0.00077604,0.00146564,-0.00203632,0.00266921,-0.00197961,-1.03698,0.00269382,0.0132285,601,1044,-20.4685,-1.92195
-616,-20,-20.458,1.96143,-0.000965526,0.000822336,-0.00444438,0.0044618,-0.00460499,-0.884643,0.00523493,0.0122787,608,1044,-20.458,-1.96137
-609,-20,-20.4535,1.99829,-0.000713159,0.000590464,-0.0064174,0.00638907,-0.00651177,-0.836009,0.00744841,0.013761,615,1044,-20.4535,-1.99825
-602,-20,-20.442,2.01892,-0.000398287,0.000438135,-0.0081508,0.00818145,-0.0081416,-0.81103,0.00942413,0.0114984,622,1044,-20.442,-2.01895
-595,-20,-20.3298,2.22083,0,0,0,0,0,0,0,-1,629,1044,-20.3298,-2.22082
-588,-20,-20.3983,1.28613,-0.000188531,-0.000322681,-0.00907187,0.00881651,-0.00932772,-0.781701,0.010477,0.0232212,636,1044,-20.3983,-1.2861
-581,-20,-20.4395,0.683105,-2.6776e-07,-0.000626845,-0.00884593,0.00853792,-0.00916503,-0.767698,0.0102229,0.0303883,643,1044,-20.4395,-0.683138
-574,-20,-20.427,0.688477,-1.61374e-05,-0.000765707,-0.00814138,0.00775908,-0.00854093,-0.762397,0.00941442,0.0347139,650,1044,-20.427,-0.688431
-567,-20,-20.4497,0.754028,-5.28192e-05,-0.000834452,-0.00676311,0.00633075,-0.00721802,-0.756537,0.00782798,0.0421789,657,1044,-20.4497,-0.753984
-560,-20,-20.2866,0.664307,2.27412e-05,-0.000893219,-0.00475083,0.00433762,-0.0052081,-0.737347,0.00551885,0.0454642,664,1044,-20.2865,-0.664265
-553,-20,-20.2773,0.739502,0.000272264,-0.0010159,-0.00222584,0.00194533,-0.00268897,-0.644562,0.00268707,0.0432291,671,1044,-20.2773,-0.739534
-546,-20,-20.4155,0.802612,0.000804749,-0.00130124,0.000665594,0.000997473,-0.00149396,0.281843,0.00144792,0.0411416,678,1044,-20.4155,-0.802598
-539,-20,-20.5757,0.826538,0.00167018,-0.001547,0.00301158,0.00347585,-0.00335267,0.540107,0.00394266,0.041475,685,1044,-20.5757,-0.826489
-532,-20,-20.5438,1.13184,0.00264325,-0.00200094,0.00251653,0.00374534,-0.00310303,0.41278,0.0039597,0.0437997,692,1044,-20.5437,-1.1318
-525,-20,0,0,0,0,0,0,0,0,0,-1,699,1044,0,0
-518,-20,0,0,0,0,0,0,0,0,0,-1,706,1044,0,0
-511,-20,0,0,0,0,0,0,0,0,0,-1,713,1044,0,0
-504,-20,0,0,0,0,0,0,0,0,0,-1,720,1044,0,0
-497,-20,0,0,0,0,0,0,0,0,0,-1,727,1044,0,0
-490,-20,0,0,0,0,0,0,0,0,0,-1,734,1044,0,0
-483,-20,0,0,0,0,0,0,0,0,0,-1,741,1044,0,0
-476,-20,0,0,0,0,0,0,0,0,0,-1,748,1044,0,0
-469,-20,0,0,0,0,0,0,0,0,0,-1,755,1044,0,0
-462,-20,0,0,0,0,0,0,0,0,0,-1,762,1044,0,0
-455,-20,0,0,0,0,0,0,0,0,0,-1,769,1044,0,0
-448,-20,0,0,0,0,0,0,0,0,0,-1,776,1044,0,0
-441,-20,0,0,0,0,0,0,0,0,0,-1,783,1044,0,0
-434,-20,0,0,0,0,0,0,0,0,0,-1,790,1044,0,0
-427,-20,0,0,0,0,0,0,0,0,0,-1,797,1044,0,0
-420,-20,0,0,0,0,0,0,0,0,0,-1,804,1044,0,0
-413,-20,0,0,0,0,0,0,0,0,0,-1,811,1044,0,0
-406,-20,0,0,0,0,0,0,0,0,0,-1,818,1044,0,0
-399,-20,0,0,0,0,0,0,0,0,0,-1,825,1044,0,0
-392,-20,0,0,0,0,0,0,0,0,0,-1,832,1044,0,0
-385,-20,0,0,0,0,0,0,0,0,0,-1,839,1044,0,0
-378,-20,0,0,0,0,0,0,0,0,0,-1,846,1044,0,0
-371,-20,0,0,0,0,0,0,0,0,0,-1,853,1044,0,0
-364,-20,0,0,0,0,0,0,0,0,0,-1,860,1044,0,0
-357,-20,0,0,0,0,0,0,0,0,0,-1,867,1044,0,0
-350,-20,0,0,0,0,0,0,0,0,0,-1,874,1044,0,0
-343,-20,0,0,0,0,0,0,0,0,0,-1,881,1044,0,0
-336,-20,0,0,0,0,0,0,0,0,0,-1,888,1044,0,0
-329,-20,0,0,0,0,0,0,0,0,0,-1,895,1044,0,0
-322,-20,0,0,0,0,0,0,0,0,0,-1,902,1044,0,0
-315,-20,0,0,0,0,0,0,0,0,0,-1,909,1044,0,0
-308,-20,0,0,0,0,0,0,0,0,0,-1,916,1044,0,0
-301,-20,0,0,0,0,0,0,0,0,0,-1,923,1044,0,0
-294,-20,0,0,0,0,0,0,0,0,0,-1,930,1044,0,0
-287,-20,0,0,0,0,0,0,0,0,0,-1,937,1044,0,0
-280,-20,0,0,0,0,0,0,0,0,0,-1,944,1044,0,0
-273,-20,0,0,0,0,0,0,0,0,0,-1,951,1044,0,0
-266,-20,0,0,0,0,0,0,0,0,0,-1,958,1044,0,0
-259,-20,0,0,0,0,0,0,0,0,0,-1,965,1044,0,0
-252,-20,0,0,0,0,0,0,0,0,0,-1,972,1044,0,0
-245,-20,0,0,0,0,0,0,0,0,0,-1,979,1044,0,0
-238,-20,0,0,0,0,0,0,0,0,0,-1,986,1044,0,0
-231,-20,0,0,0,0,0,0,0,0,0,-1,993,1044,0,0
-224,-20,0,0,0,0,0,0,0,0,0,-1,1000,1044,0,0
-217,-20,0,0,0,0,0,0,0,0,0,-1,1007,1044,0,0
-210,-20,0,0,0,0,0,0,0,0,0,-1,1014,1044,0,0
-203,-20,0,0,0,0,0,0,0,0,0,-1,1021,1044,0,0
-196,-20,0,0,0,0,0,0,0,0,0,-1,1028,1044,0,0
-189,-20,0,0,0,0,0,0,0,0,0,-1,1035,1044,0,0
-182,-20,0,0,0,0,0,0,0,0,0,-1,1042,1044,0,0
-175,-20,0,0,0,0,0,0,0,0,0,-1,1049,1044,0,0
-168,-20,0,0,0,0,0,0,0,0,0,-1,1056,1044,0,0
-161,-20,0,0,0,0,0,0,0,0,0,-1,1063,1044,0,0
-154,-20,0,0,0,0,0,0,0,0,0,-1,1070,1044,0,0
-147,-20,0,0,0,0,0,0,0,0,0,-1,1077,1044,0,0
-140,-20,0,0,0,0,0,0,0,0,0,-1,1084,1044,0,0
-133,-20,0,0,0,0,0,0,0,0,0,-1,1091,1044,0,0
-126,-20,0,0,0,0,0,0,0,0,0,-1,1098,1044,0,0
-119,-20,0,0,0,0,0,0,0,0,0,-1,1105,1044,0,0
-112,-20,0,0,0,0,0,0,0,0,0,-1,1112,1044,0,0
-105,-20,0,0,0,0,0,0,0,0,0,-1,1119,1044,0,0
-98,-20,0,0,0,0,0,0,0,0,0,-1,1126,1044,0,0
-91,-20,0,0,0,0,0,0,0,0,0,-1,1133,1044,0,0
-84,-20,0,0,0,0,0,0,0,0,0,-1,1140,1044,0,0
-77,-20,0,0,0,0,0,0,0,0,0,-1,1147,1044,0,0
-70,-20,0,0,0,0,0,0,0,0,0,-1,1154,1044,0,0
-63,-20,0,0,0,0,0,0,0,0,0,-1,1161,1044,0,0
-56,-20,0,0,0,0,0,0,0,0,0,-1,1168,1044,0,0
-49,-20,0,0,0,0,0,0,0,0,0,-1,1175,1044,0,0
-42,-20,0,0,0,0,0,0,0,0,0,-1,1182,1044,0,0
-35,-20,0,0,0,0,0,0,0,0,0,-1,1189,1044,0,0
-28,-20,0,0,0,0,0,0,0,0,0,-1,1196,1044,0,0
-21,-20,0,0,0,0,0,0,0,0,0,-1,1203,1044,0,0
-14,-20,0,0,0,0,0,0,0,0,0,-1,1210,1044,0,0
-7,-20,0,0,0,0,0,0,0,0,0,-1,1217,1044,0,0
0,-20,0,0,0,0,0,0,0,0,0,-1,1224,1044,0,0
7,-20,0,0,0,0,0,0,0,0,0,-1,1231,1044,0,0
14,-20,0,0,0,0,0,0,0,0,0,-1,1238,1044,0,0
21,-20,0,0,0,0,0,0,0,0,0,-1,1245,1044,0,0
28,-20,0,0,0,0,0,0,0,0,0,-1,1252,1044,0,0
35,-20,0,0,0,0,0,0,0,0,0,-1,1259,1044,0,0
42,-20,0,0,0,0,0,0,0,0,0,-1,1266,1044,0,0
49,-20,0,0,0,0,0,0,0,0,0,-1,1273,1044,0,0
56,-20,0,0,0,0,0,0,0,0,0,-1,1280,1044,0,0
63,-20,0,0,0,0,0,0,0,0,0,-1,1287,1044,0,0
70,-20,0,0,0,0,0,0,0,0,0,-1,1294,1044,0,0
77,-20,0,0,0,0,0,0,0,0,0,-1,1301,1044,0,0
84,-20,0,0,0,0,0,0,0,0,0,-1,1308,1044,0,0
91,-20,0,0,0,0,0,0,0,0,0,-1,1315,1044,0,0
98,-20,0,0,0,0,0,0,0,0,0,-1,1322,1044,0,0
105,-20,0,0,0,0,0,0,0,0,0,-1,1329,1044,0,0
112,-20,0,0,0,0,0,0,0,0,0,-1,1336,1044,0,0
119,-20,0,0,0,0,0,0,0,0,0,-1,1343,1044,0,0
126,-20,0,0,0,0,0,0,0,0,0,-1,1350,1044,0,0
133,-20,0,0,0,0,0,0,0,0,0,-1,1357,1044,0,0
140,-20,0,0,0,0,0,0,0,0,0,-1,1364,1044,0,0
147,-20,0,0,0,0,0,0,0,0,0,-1,1371,1044,0,0
154,-20,0,0,0,0,0,0,0,0,0,-1,1378,1044,0,0
161,-20,0,0,0,0,0,0,0,0,0,-1,1385,1044,0,0
168,-20,0,0,0,0,0,0,0,0,0,-1,1392,1044,0,0
175,-20,0,0,0,0,0,0,0,0,0,-1,1399,1044,0,0
182,-20,0,0,0,0,0,0,0,0,0,-1,1406,1044,0,0
189,-20,0,0,0,0,0,0,0,0,0,-1,1413,1044,0,0
196,-20,0,0,0,0,0,0,0,0,0,-1,1420,1044,0,0
203,-20,0,0,0,0,0,0,0,0,0,-1,1427,1044,0,0
210,-20,0,0,0,0,0,0,0,0,0,-1,1434,1044,0,0
217,-20,0,0,0,0,0,0,0,0,0,-1,1441,1044,0,0
224,-20,0,0,0,0,0,0,0,0,0,-1,1448,1044,0,0
231,-20,0,0,0,0,0,0,0,0,0,-1,1455,1044,0,0
238,-20,0,0,0,0,0,0,0,0,0,-1,1462,1044,0,0
245,-20,0,0,0,0,0,0,0,0,0,-1,1469,1044,0,0
252,-20,0,0,0,0,0,0,0,0,0,-1,1476,1044,0,0
259,-20,0,0,0,0,0,0,0,0,0,-1,1483,1044,0,0
266,-20,0,0,0,0,0,0,0,0,0,-1,1490,1044,0,0
273,-20,0,0,0,0,0,0,0,0,0,-1,1497,1044,0,0
280,-20,0,0,0,0,0,0,0,0,0,-1,1504,1044,0,0
287,-20,0,0,0,0,0,0,0,0,0,-1,1511,1044,0,0
294,-20,0,0,0,0,0,0,0,0,0,-1,1518,1044,0,0
301,-20,0,0,0,0,0,0,0,0,0,-1,1525,1044,0,0
308,-20,0,0,0,0,0,0,0,0,0,-1,1532,1044,0,0
315,-20,0,0,0,0,0,0,0,0,0,-1,1539,1044,0,0
322,-20,0,0,0,0,0,0,0,0,0,-1,1546,1044,0,0
329,-20,0,0,0,0,0,0,0,0,0,-1,1553,1044,0,0
336,-20,0,0,0,0,0,0,0,0,0,-1,1560,1044,0,0
343,-20,0,0,0,0,0,0,0,0,0,-1,1567,1044,0,0
350,-20,0,0,0,0,0,0,0,0,0,-1,1574,1044,0,0
357,-20,0,0,0,0,0,0,0,0,0,-1,1581,1044,0,0
364,-20,0,0,0,0,0,0,0,0,0,-1,1588,1044,0,0
371,-20,0,0,0,0,0,0,0,0,0,-1,1595,1044,0,0
378,-20,0,0,0,0,0,0,0,0,0,-1,1602,1044,0,0
385,-20,0,0,0,0,0,0,0,0,0,-1,1609,1044,0,0
392,-20,0,0,0,0,0,0,0,0,0,-1,1616,1044,0,0
399,-20,0,0,0,0,0,0,0,0,0,-1,1623,1044,0,0
406,-20,0,0,0,0,0,0,0,0,0,-1,1630,1044,0,0
413,-20,0,0,0,0,0,0,0,0,0,-1,1637,1044,0,0
420,-20,0,0,0,0,0,0,0,0,0,-1,1644,1044,0,0
427,-20,0,0,0,0,0,0,0,0,0,-1,1651,1044,0,0
434,-20,0,0,0,0,0,0,0,0,0,-1,1658,1044,0,0
441,-20,0,0,0,0,0,0,0,0,0,-1,1665,1044,0,0
448,-20,0,0,0,0,0,0,0,0,0,-1,1672,1044,0,0
455,-20,0,0,0,0,0,0,0,0,0,-1,1679,1044,0,0
462,-20,0,0,0,0,0,0,0,0,0,-1,1686,1044,0,0
469,-20,0,0,0,0,0,0,0,0,0,-1,1693,1044,0,0
476,-20,0,0,0,0,0,0,0,0,0,-1,1700,1044,0,0
483,-20,0,0,0,0,0,0,0,0,0,-1,1707,1044,0,0
490,-20,0,0,0,0,0,0,0,0,0,-1,1714,1044,0,0
497,-20,0,0,0,0,0,0,0,0,0,-1,1721,1044,0,0
504,-20,0,0,0,0,0,0,0,0,0,-1,1728,1044,0,0
511,-20,0,0,0,0,0,0,0,0,0,-1,1735,1044,0,0
518,-20,0,0,0,0,0,0,0,0,0,-1,1742,1044,0,0
525,-20,0,0,0,0,0,0,0,0,0,-1,1749,1044,0,0
532,-20,0,0,0,0,0,0,0,0,0,-1,1756,1044,0,0
539,-20,0,0,0,0,0,0,0,0,0,-1,1763,1044,0,0
546,-20,0,0,0,0,0,0,0,0,0,-1,1770,1044,0,0
553,-20,0,0,0,0,0,0,0,0,0,-1,1777,1044,0,0
560,-20,0,0,0,0,0,0,0,0,0,-1,1784,1044,0,0
567,-20,0,0,0,0,0,0,0,0,0,-1,1791,1044,0,0
574,-20,0,0,0,0,0,0,0,0,0,-1,1798,1044,0,0
581,-20,0,0,0,0,0,0,0,0,0,-1,1805,1044,0,0
588,-20,0,0,0,0,0,0,0,0,0,-1,1812,1044,0,0
595,-20,0,0,0,0,0,0,0,0,0,-1,1819,1044,0,0
602,-20,0,0,0,0,0,0,0,0,0,-1,1826,1044,0,0
609,-20,0,0,0,0,0,0,0,0,0,-1,1833,1044,0,0
616,-20,0,0,0,0,0,0,0,0,0,-1,1840,1044,0,0
623,-20,0,0,0,0,0,0,0,0,0,-1,1847,1044,0,0
630,-20,0,0,0,0,0,0,0,0,0,-1,1854,1044,0,0
637,-20,0,0,0,0,0,0,0,0,0,-1,1861,1044,0,0
644,-20,0,0,0,0,0,0,0,0,0,-1,1868,1044,0,0
651,-20,29.2208,2.80981,3.57362e-05,0.000764835,0.00180044,0.00223727,-0.00143669,0.885287,0.00213788,0.0404909,1875,1044,29.2208,-2.80979
658,-20,29.0824,2.63257,0.000108222,0.00116961,0.00119482,0.00194629,-0.000668456,0.994393,0.00156856,0.0424345,1882,1044,29.0824,-2.63251
665,-20,29.0707,2.62329,1.52829e-05,0.00149849,0.000698032,0.00177533,-0.000261555,1.19323,0.00127968,0.0411651,1889,1044,29.0707,-2.62328
672,-20,29.2329,2.6095,-8.00613e-05,0.00179663,0.000598747,0.00197138,-0.000254815,1.28682,0.00140691,0.0267479,1896,1044,29.2329,-2.60945
679,-20,29.1949,2.53406,-0.000207215,0.00200202,0.000805346,0.00226443,-0.000469624,1.25581,0.00168808,0.0282425,1903,1044,29.1949,-2.53406
686,-20,29.1946,2.55688,-0.000359482,0.00188255,0.00114726,0.00236556,-0.00084249,1.17231,0.00192049,0.0381817,1910,1044,29.1946,-2.5569
693,-20,29.0425,2.74561,-0.000467747,0.00160118,0.00152542,0.00240981,-0.00127638,1.08335,0.0021615,0.043487,1917,1044,29.0425,-2.74558
700,-20,29.1763,2.64307,-0.00054296,0.00129021,0.00182381,0.00241481,-0.00166755,1.01825,0.00237008,0.0392106,1924,1044,29.1763,-2.64302
707,-20,29.2257,2.56262,-0.000520102,0.0010837,0.00204975,0.00248283,-0.00191923,0.971855,0.00254846,0.0301847,1931,1044,29.2256,-2.56262
714,-20,29.1862,2.68591,-0.000692504,0.000990258,0.00221004,0.00251366,-0.00221591,0.967281,0.00273242,0.0225923,1938,1044,29.1861,-2.68592
721,-20,29.1625,2.7959,0,0,0,0,0,0,0,-1,1945,1044,29.1624,-2.79587
728,-20,28.9342,4.43286,0,0,0,0,0,0,0,-1,1952,1044,28.9342,-4.43284
735,-20,28.8138,4.49011,-0.00143425,0.0013381,0.00222168,0.00257058,-0.00266673,1.06431,0.00302393,0.0185824,1959,1044,28.8139,-4.49017
742,-20,28.7552,4.49878,-0.00147718,0.00174774,0.00206151,0.0027525,-0.00248195,1.11729,0.00302346,0.017003,1966,1044,28.7552,-4.49883
749,-20,28.7797,4.48059,-0.00195679,0.00345159,0.00191496,0.00406096,-0.00256616,1.26271,0.00385848,0.0186883,1973,1044,28.7796,-4.48059
756,-20,28.7787,4.46484,-0.00248765,0.0061283,0.00141706,0.00635538,-0.00271472,1.4119,0.0053754,0.014278,1980,1044,28.7787,-4.46482
763,-20,28.7534,4.44287,-0.00255999,0.00999532,0.000539389,0.0100185,-0.00258312,1.52794,0.00768608,0.017286,1987,1044,28.7535,-4.44291
770,-20,28.7253,4.46729,-0.00280272,0.0156268,-0.000603896,0.0156466,-0.00282249,-1.53808,0.0114881,0.0155904,1994,1044,28.7253,-4.46723
777,-20,28.6669,4.38843,-0.00293493,0.0234903,-0.00184749,0.0236188,-0.00306347,-1.50133,0.0168601,0.0125,2001,1044,28.6669,-4.38843
784,-20,28.7201,4.39282,-0.00290942,0.0330233,-0.00323419,0.0333121,-0.0031982,-1.48174,0.0233473,0.0178039,2008,1044,28.72,-4.39281
791,-20,28.8412,4.45593,-0.00269541,0.0449729,-0.00505944,0.0455039,-0.0032265,-1.46621,0.0314667,0.0351468,2015,1044,28.8412,-4.45591
798,-20,28.8086,4.526,-0.00205547,0.0601456,-0.00757681,0.0610553,-0.00296511,-1.45131,0.041727,0.0410206,2022,1044,28.8085,-4.52597
805,-20,28.5986,4.67041,-0.000692608,0.0792424,-0.0110396,0.080739,-0.00218923,-1.43605,0.0545704,0.0388902,2029,1044,28.5986,-4.67045
812,-20,28.5532,3.79041,0.00153458,0.102925,-0.0158124,0.105334,-0.000874233,-1.41962,0.0705157,0.0430364,2036,1044,28.5533,-3.79035
-700,-27,-23.2423,-1.24609,0,0,0,0,0,0,0,-1,524,1051,-23.2423,1.24612
-693,-27,-22.1443,-0.290649,0,0,0,0,0,0,0,-1,531,1051,-22.1443,0.290684
-686,-27,-21.0977,-0.509766,0.0969977,0.0204939,0.0100528,0.0982966,0.019195,0.128496,0.0601623,0.0478447,538,1051,-21.0977,0.509718
-679,-27,-20.049,-0.693726,0.0732098,0.0173013,0.0116753,0.07555,0.0149611,0.197818,0.0461944,0.0464422,545,1051,-20.049,0.693703
-672,-27,-18.9905,-0.876953,0,0,0,0,0,0,0,-1,552,1051,-18.9905,0.877004
-665,-27,-20.9429,1.7937,0,0,0,0,0,0,0,-1,559,1051,-20.9429,-1.79368
-658,-27,-20.0806,1.47949,0.0262188,0.0094929,0.00972816,0.0306846,0.00502713,0.430359,0.0190036,0.0463257,566,1051,-20.0806,-1.47944
-651,-27,-20.2003,1.58984,0.0171078,0.00747079,0.00806443,0.0216836,0.002895,0.516107,0.0135939,0.0352889,573,1051,-20.2002,-1.58979
-644,-27,-20.3161,1.62988,0.0102718,0.00572315,0.00608873,0.0144971,0.00149785,0.606657,0.00920616,0.0171793,580,1051,-20.3161,-1.62993
-637,-27,-20.3517,1.68457,0.00543897,0.0045064,0.00311458,0.00812197,0.00182339,0.711094,0.00492078,0.0139479,587,1051,-20.3517,-1.68451
-630,-27,-20.4095,1.84338,0.0014923,0.0029774,0.000314148,0.00304112,0.00142858,1.37068,0.00175686,0.0181929,594,1051,-20.4095,-1.84338
-623,-27,-20.4014,1.9209,-0.000864518,0.00149539,-0.00225376,0.00285939,-0.00222852,-1.02655,0.00294503,0.0157569,601,1051,-20.4014,-1.92092
-616,-27,-20.378,1.98828,-0.00126637,0.000789184,-0.00469647,0.00456902,-0.00504621,-0.89312,0.00555363,0.0132725,608,1051,-20.378,-1.98833
-609,-27,-20.3978,2.04736,-0.00108383,0.000445226,-0.00670778,0.0064319,-0.00707051,-0.842142,0.00779853,0.0134641,615,1051,-20.3977,-2.04733
-602,-27,-20.3788,2.1145,-0.000848609,0.000209425,-0.00858025,0.00827695,-0.00891613,-0.816187,0.00992872,0.0114128,622,1051,-20.3788,-2.11447
-595,-27,-20.4073,2.42114,0,0,0,0,0,0,0,-1,629,1051,-20.4074,-2.42117
-588,-27,-20.4141,1.40417,-0.000798538,-0.000402584,-0.00967166,0.00907312,-0.0102742,-0.795632,0.0111774,0.0205595,636,1051,-20.4141,-1.40423
-581,-27,-20.3558,0.700073,-0.000628932,-0.000635304,-0.009444,0.00881188,-0.0100761,-0.785229,0.0109131,0.0244116,643,1051,-20.3558,-0.700013
-574,-27,-20.3635,0.685303,-0.000626692,-0.00064451,-0.00872324,0.00808765,-0.00935885,-0.784887,0.0100816,0.0348585,650,1051,-20.3635,-0.685302
-567,-27,-20.3667,0.707642,-0.000617456,-0.000548324,-0.00726302,0.00668021,-0.00784599,-0.787778,0.00839571,0.0427519,657,1051,-20.3667,-0.707599
-560,-27,-20.173,0.517578,-0.000487434,-0.00041212,-0.00508491,0.00463527,-0.00553483,-0.789101,0.00587936,0.0472627,664,1051,-20.173,-0.517634
-553,-27,-20.1238,0.397461,-0.000187175,-0.000326481,-0.00229482,0.00203905,-0.0025527,-0.770227,0.00265657,0.0444082,671,1051,-20.1238,-0.397492
-546,-27,-20.3419,0.543457,0.000366656,-0.000424486,0.000974593,0.0010229,-0.00108073,0.592614,0.00121468,0.0430681,678,1051,-20.3418,-0.543478
-539,-27,-20.6772,0.641602,0.00117945,-0.00059016,0.00371498,0.00411354,-0.00352425,0.66849,0.00441405,0.0448714,685,1051,-20.6773,-0.641593
-532,-27,-20.7111,0.890625,0.00186342,-0.00118207,0.00344295,0.00410533,-0.00342398,0.577191,0.00435298,0.0451902,692,1051,-20.7111,-0.890611
-525,-27,0,0,0,0,0,0,0,0,0,-1,699,1051,0,0
-518,-27,0,0,0,0,0,0,0,0,0,-1,706,1051,0,0
-511,-27,0,0,0,0,0,0,0,0,0,-1,713,1051,0,0
-504,-27,0,0,0,0,0,0,0,0,0,-1,720,1051,0,0
-497,-27,0,0,0,0,0,0,0,0,0,-1,727,1051,0,0
-490,-27,0,0,0,0,0,0,0,0,0,-1,734,1051,0,0
-483,-27,0,0,0,0,0,0,0,0,0,-1,741,1051,0,0
-476,-27,0,0,0,0,0,0,0,0,0,-1,748,1051,0,0
-469,-27,0,0,0,0,0,0,0,0,0,-1,755,1051,0,0
-462,-27,0,0,0,0,0,0,0,0,0,-1,762,1051,0,0
-455,-27,0,0,0,0,0,0,0,0,0,-1,769,1051,0,0
-448,-27,0,0,0,0,0,0,0,0,0,-1,776,1051,0,0
-441,-27,0,0,0,0,0,0,0,0,0,-1,783,1051,0,0
-434,-27,0,0,0,0,0,0,0,0,0,-1,790,1051,0,0
-427,-27,0,0,0,0,0,0,0,0,0,-1,797,1051,0,0
-420,-27,0,0,0,0,0,0,0,0,0,-1,804,1051,0,0
-413,-27,0,0,0,0,0,0,0,0,0,-1,811,1051,0,0
-406,-27,0,0,0,0,0,0,0,0,0,-1,818,1051,0,0
-399,-27,0,0,0,0,0,0,0,0,0,-1,825,1051,0,0
-392,-27,0,0,0,0,0,0,0,0,0,-1,832,1051,0,0
-385,-27,0,0,0,0,0,0,0,0,0,-1,839,1051,0,0
-378,-27,0,0,0,0,0,0,0,0,0,-1,846,1051,0,0
-371,-27,0,0,0,0,0,0,0,0,0,-1,853,1051,0,0
-364,-27,0,0,0,0,0,0,0,0,0,-1,860,1051,0,0
-357,-27,0,0,0,0,0,0,0,0,0,-1,867,1051,0,0
-350,-27,0,0,0,0,0,0,0,0,0,-1,874,1051,0,0
-343,-27,0,0,0,0,0,0,0,0,0,-1,881,1051,0,0
-336,-27,0,0,0,0,0,0,0,0,0,-1,888,1051,0,0
-329,-27,0,0,0,0,0,0,0,0,0,-1,895,1051,0,0
-322,-27,0,0,0,0,0,0,0,0,0,-1,902,1051,0,0
-315,-27,0,0,0,0,0,0,0,0,0,-1,909,1051,0,0
-308,-27,0,0,0,0,0,0,0,0,0,-1,916,1051,0,0
-301,-27,0,0,0,0,0,0,0,0,0,-1,923,1051,0,0
-294,-27,0,0,0,0,0,0,0,0,0,-1,930,1051,0,0
-287,-27,0,0,0,0,0,0,0,0,0,-1,937,1051,0,0
-280,-27,0,0,0,0,0,0,0,0,0,-1,944,1051,0,0
-273,-27,0,0,0,0,0,0,0,0,0,-1,951,1051,0,0
-266,-27,0,0,0,0,0,0,0,0,0,-1,958,1051,0,0
-259,-27,0,0,0,0,0,0,0,0,0,-1,965,1051,0,0
-252,-27,0,0,0,0,0,0,0,0,0,-1,972,1051,0,0
-245,-27,0,0,0,0,0,0,0,0,0,-1,979,1051,0,0
-238,-27,0,0,0,0,0,0,0,0,0,-1,986,1051,0,0
-231,-27,0,0,0,0,0,0,0,0,0,-1,993,1051,0,0
-224,-27,0,0,0,0,0,0,0,0,0,-1,1000,1051,0,0
-217,-27,0,0,0,0,0,0,0,0,0,-1,1007,1051,0,0
-210,-27,0,0,0,0,0,0,0,0,0,-1,1014,1051,0,0
-203,-27,0,0,0,0,0,0,0,0,0,-1,1021,1051,0,0
-196,-27,0,0,0,0,0,0,0,0,0,-1,1028,1051,0,0
-189,-27,0,0,0,0,0,0,0,0,0,-1,1035,1051,0,0
-182,-27,0,0,0,0,0,0,0,0,0,-1,1042,1051,0,0
-175,-27,0,0,0,0,0,0,0,0,0,-1,1049,1051,0,0
-168,-27,0,0,0,0,0,0,0,0,0,-1,1056,1051,0,0
-161,-27,0,0,0,0,0,0,0,0,0,-1,1063,1051,0,0
-154,-27,0,0,0,0,0,0,0,0,0,-1,1070,1051,0,0
-147,-27,0,0,0,0,0,0,0,0,0,-1,1077,1051,0,0
-140,-27,0,0,0,0,0,0,0,0,0,-1,1084,1051,0,0
-133,-27,0,0,0,0,0,0,0,0,0,-1,1091,1051,0,0
-126,-27,0,0,0,0,0,0,0,0,0,-1,1098,1051,0,0
-119,-27,0,0,0,0,0,0,0,0,0,-1,1105,1051,0,0
-112,-27,0,0,0,0,0,0,0,0,0,-1,1112,1051,0,0
-105,-27,0,0,0,0,0,0,0,0,0,-1,1119,1051,0,0
-98,-27,0,0,0,0,0,0,0,0,0,-1,1126,1051,0,0
-91,-27,0,0,0,0,0,0,0,0,0,-1,1133,1051,0,0
-84,-27,0,0,0,0,0,0,0,0,0,-1,1140,1051,0,0
-77,-27,0,0,0,0,0,0,0,0,0,-1,1147,1051,0,0
-70,-27,0,0,0,0,0,0,0,0,0,-1,1154,1051,0,0
-63,-27,0,0,0,0,0,0,0,0,0,-1,1161,1051,0,0
-56,-27,0,0,0,0,0,0,0,0,0,-1,1168,1051,0,0
-49,-27,0,0,0,0,0,0,0,0,0,-1,1175,1051,0,0
-42,-27,0,0,0,0,0,0,0,0,0,-1,1182,1051,0,0
-35,-27,0,0,0,0,0,0,0,0,0,-1,1189,1051,0,0
-28,-27,0,0,0,0,0,0,0,0,0,-1,1196,1051,0,0
-21,-27,0,0,0,0,0,0,0,0,0,-1,1203,1051,0,0
-14,-27,0,0,0,0,0,0,0,0,0,-1,1210,1051,0,0
-7,-27,0,0,0,0,0,0,0,0,0,-1,1217,1051,0,0
0,-27,0,0,0,0,0,0,0,0,0,-1,1224,1051,0,0
7,-27,0,0,0,0,0,0,0,0,0,-1,1231,1051,0,0
14,-27,0,0,0,0,0,0,0,0,0,-1,1238,1051,0,0
21,-27,0,0,0,0,0,0,0,0,0,-1,1245,1051,0,0
28,-27,0,0,0,0,0,0,0,0,0,-1,1252,1051,0,0
35,-27,0,0,0,0,0,0,0,0,0,-1,1259,1051,0,0
42,-27,0,0,0,0,0,0,0,0,0,-1,1266,1051,0,0
49,-27,0,0,0,0,0,0,0,0,0,-1,1273,1051,0,0
56,-27,0,0,0,0,0,0,0,0,0,-1,1280,1051,0,0
63,-27,0,0,0,0,0,0,0,0,0,-1,1287,1051,0,0
70,-27,0,0,0,0,0,0,0,0,0,-1,1294,1051,0,0
77,-27,0,0,0,0,0,0,0,0,0,-1,1301,1051,0,0
84,-27,0,0,0,0,0,0,0,0,0,-1,1308,1051,0,0
91,-27,0,0,0,0,0,0,0,0,0,-1,1315,1051,0,0
98,-27,0,0,0,0,0,0,0,0,0,-1,1322,1051,0,0
105,-27,0,0,0,0,0,0,0,0,0,-1,1329,1051,0,0
112,-27,0,0,0,0,0,0,0,0,0,-1,1336,1051,0,0
119,-27,0,0,0,0,0,0,0,0,0,-1,1343,1051,0,0
126,-27,0,0,0,0,0,0,0,0,0,-1,1350,1051,0,0
133,-27,0,0,0,0,0,0,0,0,0,-1,1357,1051,0,0
140,-27,0,0,0,0,0,0,0,0,0,-1,1364,1051,0,0
147,-27,0,0,0,0,0,0,0,0,0,-1,1371,1051,0,0
154,-27,0,0,0,0,0,0,0,0,0,-1,1378,1051,0,0
161,-27,0,0,0,0,0,0,0,0,0,-1,1385,1051,0,0
168,-27,0,0,0,0,0,0,0,0,0,-1,1392,1051,0,0
175,-27,0,0,0,0,0,0,0,0,0,-1,1399,1051,0,0
182,-27,0,0,0,0,0,0,0,0,0,-1,1406,1051,0,0
189,-27,0,0,0,0,0,0,0,0,0,-1,1413,1051,0,0
196,-27,0,0,0,0,0,0,0,0,0,-1,1420,1051,0,0
203,-27,0,0,0,0,0,0,0,0,0,-1,1427,1051,0,0
210,-27,0,0,0,0,0,0,0,0,0,-1,1434,1051,0,0
217,-27,0,0,0,0,0,0,0,0,0,-1,1441,1051,0,0
224,-27,0,0,0,0,0,0,0,0,0,-1,1448,1051,0,0
231,-27,0,0,0,0,0,0,0,0,0,-1,1455,1051,0,0
238,-27,0,0,0,0,0,0,0,0,0,-1,1462,1051,0,0
245,-27,0,0,0,0,0,0,0,0,0,-1,1469,1051,0,0
252,-27,0,0,0,0,0,0,0,0,0,-1,1476,1051,0,0
259,-27,0,0,0,0,0,0,0,0,0,-1,1483,1051,0,0
266,-27,0,0,0,0,0,0,0,0,0,-1,1490,1051,0,0
273,-27,0,0,0,0,0,0,0,0,0,-1,1497,1051,0,0
280,-27,0,0,0,0,0,0,0,0,0,-1,1504,1051,0,0
287,-27,0,0,0,0,0,0,0,0,0,-1,1511,1051,0,0
294,-27,0,0,0,0,0,0,0,0,0,-1,1518,1051,0,0
301,-27,0,0,0,0,0,0,0,0,0,-1,1525,1051,0,0
308,-27,0,0,0,0,0,0,0,0,0,-1,1532,1051,0,0
315,-27,0,0,0,0,0,0,0,0,0,-1,1539,1051,0,0
322,-27,0,0,0,0,0,0,0,0,0,-1,1546,1051,0,0
329,-27,0,0,0,0,0,0,0,0,0,-1,1553,1051,0,0
336,-27,0,0,0,0,0,0,0,0,0,-1,1560,1051,0,0
343,-27,0,0,0,0,0,0,0,0,0,-1,1567,1051,0,0
350,-27,0,0,0,0,0,0,0,0,0,-1,1574,1051,0,0
357,-27,0,0,0,0,0,0,0,0,0,-1,1581,1051,0,0
364,-27,0,0,0,0,0,0,0,0,0,-1,1588,1051,0,0
371,-27,0,0,0,0,0,0,0,0,0,-1,1595,1051,0,0
378,-27,0,0,0,0,0,0,0,0,0,-1,1602,1051,0,0
385,-27,0,0,0,0,0,0,0,0,0,-1,1609,1051,0,0
392,-27,0,0,0,0,0,0,0,0,0,-1,1616,1051,0,0
399,-27,0,0,0,0,0,0,0,0,0,-1,1623,1051,0,0
406,-27,0,0,0,0,0,0,0,0,0,-1,1630,1051,0,0
413,-27,0,0,0,0,0,0,0,0,0,-1,1637,1051,0,0
420,-27,0,0,0,0,0,0,0,0,0,-1,1644,1051,0,0
427,-27,0,0,0,0,0,0,0,0,0,-1,1651,1051,0,0
434,-27,0,0,0,0,0,0,0,0,0,-1,1658,1051,0,0
441,-27,0,0,0,0,0,0,0,0,0,-1,1665,1051,0,0
448,-27,0,0,0,0,0,0,0,0,0,-1,1672,1051,0,0
455,-27,0,0,0,0,0,0,0,0,0,-1,1679,1051,0,0
462,-27,0,0,0,0,0,0,0,0,0,-1,1686,1051,0,0
469,-27,0,0,0,0,0,0,0,0,0,-1,1693,1051,0,0
476,-27,0,0,0,0,0,0,0,0,0,-1,1700,1051,0,0
483,-27,0,0,0,0,0,0,0,0,0,-1,1707,1051,0,0
490,-27,0,0,0,0,0,0,0,0,0,-1,1714,1051,0,0
497,-27,0,0,0,0,0,0,0,0,0,-1,1721,1051,0,0
504,-27,0,0,0,0,0,0,0,0,0,-1,1728,1051,0,0
511,-27,0,0,0,0,0,0,0,0,0,-1,1735,1051,0,0
518,-27,0,0,0,0,0,0,0,0,0,-1,1742,1051,0,0
525,-27,0,0,0,0,0,0,0,0,0,-1,1749,1051,0,0
532,-27,0,0,0,0,0,0,0,0,0,-1,1756,1051,0,0
539,-27,0,0,0,0,0,0,0,0,0,-1,1763,1051,0,0
546,-27,0,0,0,0,0,0,0,0,0,-1,1770,1051,0,0
553,-27,0,0,0,0,0,0,0,0,0,-1,1777,1051,0,0
560,-27,0,0,0,0,0,0,0,0,0,-1,1784,1051,0,0
567,-27,0,0,0,0,0,0,0,0,0,-1,1791,1051,0,0
574,-27,0,0,0,0,0,0,0,0,0,-1,1798,1051,0,0
581,-27,0,0,0,0,0,0,0,0,0,-1,1805,1051,0,0
588,-27,0,0,0,0,0,0,0,0,0,-1,1812,1051,0,0
595,-27,0,0,0,0,0,0,0,0,0,-1,1819,1051,0,0
602,-27,0,0,0,0,0,0,0,0,0,-1,1826,1051,0,0
609,-27,0,0,0,0,0,0,0,0,0,-1,1833,1051,0,0
616,-27,0,0,0,0,0,0,0,0,0,-1,1840,1051,0,0
623,-27,0,0,0,0,0,0,0,0,0,-1,1847,1051,0,0
630,-27,0,0,0,0,0,0,0,0,0,-1,1854,1051,0,0
637,-27,0,0,0,0,0,0,0,0,0,-1,1861,1051,0,0
644,-27,0,0,0,0,0,0,0,0,0,-1,1868,1051,0,0
651,-27,29.1333,2.6427,1.24725e-05,0.00151842,0.00216871,0.00306115,-0.00153026,0.952487,0.00269952,0.0401786,1875,1051,29.1333,-2.64269
658,-27,29.1327,2.88306,0.000131119,0.00173998,0.00142109,0.00256853,-0.000697425,1.04295,0.00198607,0.04238,1882,1051,29.1327,-2.88309
665,-27,29.1105,2.83545,8.71332e-05,0.00191425,0.00081338,0.00222387,-0.000222491,1.20707,0.00156204,0.0391478,1889,1051,29.1104,-2.83542
672,-27,29.1061,2.67688,1.55866e-05,0.00206965,0.000649777,0.00225794,-0.000172703,1.28875,0.00156604,0.0302885,1896,1051,29.1061,-2.67694
679,-27,29.0884,2.57031,-0.000120764,0.00208325,0.00087251,0.00238683,-0.000424351,1.23595,0.00174991,0.0280792,1903,1051,29.0884,-2.57029
686,-27,29.1017,2.53516,-0.000317215,0.0018173,0.00126427,0.00240456,-0.00090447,1.13595,0.00197482,0.0388159,1910,1051,29.1016,-2.53511
693,-27,29.0814,2.52673,-0.000467073,0.00142364,0.00170104,0.00242437,-0.0014678,1.03902,0.00226965,0.0426238,1917,1051,29.0814,-2.52678
700,-27,29.2096,2.573,-0.000572316,0.00103302,0.00205927,0.00244053,-0.00197982,0.971232,0.00255671,0.0395627,1924,1051,29.2096,-2.57304
707,-27,29.1854,2.53125,-0.000578366,0.000761227,0.00231173,0.00249824,-0.00231538,0.926406,0.00277981,0.0249926,1931,1051,29.1854,-2.53127
714,-27,29.153,2.61438,-0.000758566,0.000617304,0.00249198,0.00251456,-0.00265582,0.920074,0.00298549,0.018246,1938,1051,29.153,-2.61436
721,-27,29.1517,2.73584,0,0,0,0,0,0,0,-1,1945,1051,29.1517,-2.73586
728,-27,28.9421,4.45593,0,0,0,0,0,0,0,-1,1952,1051,28.9421,-4.45593
735,-27,28.77,4.51404,-0.00151985,0.000892559,0.00259168,0.00254498,-0.00317227,1.0032,0.00330747,0.020297,1959,1051,28.77,-4.51398
742,-27,28.6964,4.52576,-0.00145346,0.00129134,0.00237582,0.00266266,-0.00282478,1.04731,0.00316863,0.0166119,1966,1051,28.6964,-4.52576
749,-27,28.7255,4.4928,-0.00181695,0.00297211,0.00216399,0.00380506,-0.0026499,1.20336,0.00374661,0.0120514,1973,1051,28.7255,-4.49282
756,-27,28.7321,4.45374,-0.00224518,0.00552372,0.00158843,0.00583594,-0.00255741,1.37671,0.0049676,0.0113937,1980,1051,28.732,-4.45379
763,-27,28.7188,4.38965,-0.00217663,0.00911357,0.000607284,0.00914614,-0.0022092,1.51721,0.00695184,0.0141982,1987,1051,28.7188,-4.38966
770,-27,28.675,4.33838,-0.00219559,0.0142202,-0.000672307,0.0142477,-0.00222307,-1.52993,0.0103196,0.015296,1994,1051,28.675,-4.33842
777,-27,28.639,4.34326,-0.00206936,0.0213644,-0.00211888,0.0215545,-0.0022594,-1.48134,0.0151789,0.0150564,2001,1051,28.6391,-4.34326
784,-27,28.6554,4.375,-0.00182147,0.0298831,-0.00365357,0.0302987,-0.00223705,-1.45754,0.0209846,0.0232016,2008,1051,28.6554,-4.37504
791,-27,28.712,4.36951,-0.00141817,0.0403362,-0.005627,0.0410812,-0.0021632,-1.43916,0.0281363,0.0415088,2015,1051,28.7121,-4.36949
798,-27,28.5225,4.02405,-0.000650631,0.0533647,-0.00831013,0.0546142,-0.00190022,-1.42155,0.0370591,0.0441703,2022,1051,28.5225,-4.02406
805,-27,28.1118,3.50647,0.000699265,0.0694134,-0.0119374,0.0714282,-0.00131548,-1.4036,0.0480633,0.0420228,2029,1051,28.1119,-3.50642
812,-27,27.7817,2.96411,0.00270831,0.0888124,-0.0168316,0.0919856,-0.000464968,-1.38445,0.0614793,0.0422291,2036,1051,27.7818,-2.9641
-700,-34,-20.0575,-2.98157,0,0,0,0,0,0,0,-1,524,1058,-20.0575,2.98158
-693,-34,-21.3153,-0.784424,0,0,0,0,0,0,0,-1,531,1058,-21.3153,0.784423
-686,-34,-20.238,-1.1897,0,0,0,0,0,0,0,-1,538,1058,-20.238,1.18973
-679,-34,-19.4708,-1.24854,0,0,0,0,0,0,0,-1,545,1058,-19.4708,1.2485
-672,-34,-18.34,-1.44897,0,0,0,0,0,0,0,-1,552,1058,-18.34,1.44899
-665,-34,-19.7993,1.4259,0,0,0,0,0,0,0,-1,559,1058,-19.7993,-1.42591
-658,-34,-19.9039,1.55286,0.025831,0.0100239,0.0089382,0.0298588,0.00599612,0.423379,0.0182387,0.0431419,566,1058,-19.9039,-1.55281
-651,-34,-20.0842,1.59766,0.0167989,0.0078823,0.0075647,0.0211213,0.00355986,0.519121,0.013057,0.0279594,573,1058,-20.0842,-1.59769
-644,-34,-20.2603,1.57654,0.0100683,0.00600114,0.00586484,0.0142421,0.00182732,0.618514,0.00894805,0.0137858,580,1058,-20.2603,-1.57649
-637,-34,-20.304,1.64355,0.00527667,0.00456373,0.00296381,0.00790537,0.00193503,0.725549,0.00475825,0.0146884,587,1058,-20.304,-1.64354
-630,-34,-20.3097,1.7771,0.00141296,0.00291524,0.000138826,0.00292796,0.00140023,1.47942,0.00169099,0.0155248,594,1058,-20.3097,-1.77707
-623,-34,-20.2872,1.88416,-0.00103131,0.00139431,-0.00248441,0.00294614,-0.00258313,-1.01247,0.00319462,0.0118118,601,1058,-20.2873,-1.88415
-616,-34,-20.2697,2.01489,-0.00171042,0.000621089,-0.00496107,0.00455152,-0.00564086,-0.900795,0.00589577,0.018257,608,1058,-20.2697,-2.01492
-609,-34,-20.2856,2.08704,-0.00164564,0.000190149,-0.00699798,0.00633018,-0.00778567,-0.850609,0.00816421,0.0178527,615,1058,-20.2856,-2.08702
-602,-34,-20.3071,2.13428,-0.0015376,-7.79815e-05,-0.00898646,0.00820826,-0.00982384,-0.825915,0.0104248,0.0141129,622,1058,-20.307,-2.13423
-595,-34,-20.394,2.37183,0,0,0,0,0,0,0,-1,629,1058,-20.394,-2.37182
-588,-34,-20.3991,1.41162,-0.0016506,-0.000637814,-0.0102563,0.00912457,-0.011413,-0.810065,0.0118819,0.0259575,636,1058,-20.3991,-1.41161
-581,-34,-20.3272,0.732056,-0.00149624,-0.000816662,-0.0100178,0.00886713,-0.01118,-0.802351,0.0115999,0.0259687,643,1058,-20.3272,-0.732071
-574,-34,-20.262,0.784912,-0.00144289,-0.000722537,-0.0092704,0.00819468,-0.0103601,-0.804815,0.0107369,0.0381022,650,1058,-20.262,-0.784867
-567,-34,-20.2446,0.781738,-0.00132321,-0.000489186,-0.00770909,0.00681416,-0.00862656,-0.812419,0.00893515,0.0422876,657,1058,-20.2446,-0.781749
-560,-34,-20.2718,0.684326,-0.0010418,-0.000189692,-0.00533557,0.00473681,-0.0059683,-0.825239,0.00619421,0.0430618,664,1058,-20.2718,-0.684309
-553,-34,-20.453,0.734497,-0.000564059,6.50331e-05,-0.00223704,0.00200953,-0.00250856,-0.855244,0.00261382,0.0461095,671,1058,-20.453,-0.734509
-546,-34,-20.3753,0.535034,0.000163078,0.000108054,0.00146889,0.00160472,-0.00133358,0.776034,0.00169883,0.046178,678,1058,-20.3753,-0.535062
-539,-34,-20.4246,0.630127,0.00104739,-4.41716e-05,0.00464369,0.00517726,-0.00417405,0.726901,0.00540933,0.0436161,685,1058,-20.4246,-0.630179
-532,-34,-20.4559,0.792725,0.00145513,-0.000884516,0.00462641,0.00505732,-0.00448671,0.661565,0.00551353,0.0441671,692,1058,-20.4558,-0.792699
-525,-34,0,0,0,0,0,0,0,0,0,-1,699,1058,0,0
-518,-34,0,0,0,0,0,0,0,0,0,-1,706,1058,0,0
-511,-34,0,0,0,0,0,0,0,0,0,-1,713,1058,0,0
-504,-34,0,0,0,0,0,0,0,0,0,-1,720,1058,0,0
-497,-34,0,0,0,0,0,0,0,0,0,-1,727,1058,0,0
-490,-34,0,0,0,0,0,0,0,0,0,-1,734,1058,0,0
-483,-34,0,0,0,0,0,0,0,0,0,-1,741,1058,0,0
-476,-34,0,0,0,0,0,0,0,0,0,-1,748,1058,0,0
-469,-34,0,0,0,0,0,0,0,0,0,-1,755,1058,0,0
-462,-34,0,0,0,0,0,0,0,0,0,-1,762,1058,0,0
-455,-34,0,0,0,0,0,0,0,0,0,-1,769,1058,0,0
-448,-34,0,0,0,0,0,0,0,0,0,-1,776,1058,0,0
-441,-34,0,0,0,0,0,0,0,0,0,-1,783,1058,0,0
-434,-34,0,0,0,0,0,0,0,0,0,-1,790,1058,0,0
-427,-34,0,0,0,0,0,0,0,0,0,-1,797,1058,0,0
-420,-34,0,0,0,0,0,0,0,0,0,-1,804,1058,0,0
-413,-34,0,0,0,0,0,0,0,0,0,-1,811,1058,0,0
-406,-34,0,0,0,0,0,0,0,0,0,-1,818,1058,0,0
-399,-34,0,0,0,0,0,0,0,0,0,-1,825,1058,0,0
-392,-34,0,0,0,0,0,0,0,0,0,-1,832,1058,0,0
-385,-34,0,0,0,0,0,0,0,0,0,-1,839,1058,0,0
-378,-34,0,0,0,0,0,0,0,0,0,-1,846,1058,0,0
-371,-34,0,0,0,0,0,0,0,0,0,-1,853,1058,0,0
-364,-34,0,0,0,0,0,0,0,0,0,-1,860,1058,0,0
-357,-34,0,0,0,0,0,0,0,0,0,-1,867,1058,0,0
-350,-34,0,0,0,0,0,0,0,0,0,-1,874,1058,0,0
-343,-34,0,0,0,0,0,0,0,0,0,-1,881,1058,0,0
-336,-34,0,0,0,0,0,0,0,0,0,-1,888,1058,0,0
-329,-34,0,0,0,0,0,0,0,0,0,-1,895,1058,0,0
-322,-34,0,0,0,0,0,0,0,0,0,-1,902,1058,0,0
-315,-34,0,0,0,0,0,0,0,0,0,-1,909,1058,0,0
-308,-34,0,0,0,0,0,0,0,0,0,-1,916,1058,0,0
-301,-34,0,0,0,0,0,0,0,0,0,-1,923,1058,0,0
-294,-34,0,0,0,0,0,0,0,0,0,-1,930,1058,0,0
-287,-34,0,0,0,0,0,0,0,0,0,-1,937,1058,0,0
-280,-34,0,0,0,0,0,0,0,0,0,-1,944,1058,0,0
-273,-34,0,0,0,0,0,0,0,0,0,-1,951,1058,0,0
-266,-34,0,0,0,0,0,0,0,0,0,-1,958,1058,0,0
-259,-34,0,0,0,0,0,0,0,0,0,-1,965,1058,0,0
-252,-34,0,0,0,0,0,0,0,0,0,-1,972,1058,0,0
-245,-34,0,0,0,0,0,0,0,0,0,-1,979,1058,0,0
-238,-34,0,0,0,0,0,0,0,0,0,-1,986,1058,0,0
-231,-34,0,0,0,0,0,0,0,0,0,-1,993,1058,0,0
-224,-34,0,0,0,0,0,0,0,0,0,-1,1000,1058,0,0
-217,-34,0,0,0,0,0,0,0,0,0,-1,1007,1058,0,0
-210,-34,0,0,0,0,0,0,0,0,0,-1,1014,1058,0,0
-203,-34,0,0,0,0,0,0,0,0,0,-1,1021,1058,0,0
-196,-34,0,0,0,0,0,0,0,0,0,-1,1028,1058,0,0
-189,-34,0,0,0,0,0,0,0,0,0,-1,1035,1058,0,0
-182,-34,0,0,0,0,0,0,0,0,0,-1,1042,1058,0,0
-175,-34,0,0,0,0,0,0,0,0,0,-1,1049,1058,0,0
-168,-34,0,0,0,0,0,0,0,0,0,-1,1056,1058,0,0
-161,-34,0,0,0,0,0,0,0,0,0,-1,1063,1058,0,0
-154,-34,0,0,0,0,0,0,0,0,0,-1,1070,1058,0,0
-147,-34,0,0,0,0,0,0,0,0,0,-1,1077,1058,0,0
-140,-34,0,0,0,0,0,0,0,0,0,-1,1084,1058,0,0
-133,-34,0,0,0,0,0,0,0,0,0,-1,1091,1058,0,0
-126,-34,0,0,0,0,0,0,0,0,0,-1,1098,1058,0,0
-119,-34,0,0,0,0,0,0,0,0,0,-1,1105,1058,0,0
-112,-34,0,0,0,0,0,0,0,0,0,-1,1112,1058,0,0
-105,-34,0,0,0,0,0,0,0,0,0,-1,1119,1058,0,0
-98,-34,0,0,0,0,0,0,0,0,0,-1,1126,1058,0,0
-91,-34,0,0,0,0,0,0,0,0,0,-1,1133,1058,0,0
-84,-34,0,0,0,0,0,0,0,0,0,-1,1140,1058,0,0
-77,-34,0,0,0,0,0,0,0,0,0,-1,1147,1058,0,0
-70,-34,0,0,0,0,0,0,0,0,0,-1,1154,1058,0,0
-63,-34,0,0,0,0,0,0,0,0,0,-1,1161,1058,0,0
-56,-34,0,0,0,0,0,0,0,0,0,-1,1168,1058,0,0
-49,-34,0,0,0,0,0,0,0,0,0,-1,1175,1058,0,0
-42,-34,0,0,0,0,0,0,0,0,0,-1,1182,1058,0,0
-35,-34,0,0,0,0,0,0,0,0,0,-1,1189,1058,0,0
-28,-34,0,0,0,0,0,0,0,0,0,-1,1196,1058,0,0
-21,-34,0,0,0,0,0,0,0,0,0,-1,1203,1058,0,0
-14,-34,0,0,0,0,0,0,0,0,0,-1,1210,1058,0,0
-7,-34,0,0,0,0,0,0,0,0,0,-1,1217,1058,0,0
0,-34,0,0,0,0,0,0,0,0,0,-1,1224,1058,0,0
7,-34,0,0,0,0,0,0,0,0,0,-1,1231,1058,0,0
14,-34,0,0,0,0,0,0,0,0,0,-1,1238,1058,0,0
21,-34,0,0,0,0,0,0,0,0,0,-1,1245,1058,0,0
28,-34,0,0,0,0,0,0,0,0,0,-1,1252,1058,0,0
35,-34,0,0,0,0,0,0,0,0,0,-1,1259,1058,0,0
42,-34,0,0,0,0,0,0,0,0,0,-1,1266,1058,0,0
49,-34,0,0,0,0,0,0,0,0,0,-1,1273,1058,0,0
56,-34,0,0,0,0,0,0,0,0,0,-1,1280,1058,0,0
63,-34,0,0,0,0,0,0,0,0,0,-1,1287,1058,0,0
70,-34,0,0,0,0,0,0,0,0,0,-1,1294,1058,0,0
77,-34,0,0,0,0,0,0,0,0,0,-1,1301,1058,0,0
84,-34,0,0,0,0,0,0,0,0,0,-1,1308,1058,0,0
91,-34,0,0,0,0,0,0,0,0,0,-1,1315,1058,0,0
98,-34,0,0,0,0,0,0,0,0,0,-1,1322,1058,0,0
105,-34,0,0,0,0,0,0,0,0,0,-1,1329,1058,0,0
112,-34,0,0,0,0,0,0,0,0,0,-1,1336,1058,0,0
119,-34,0,0,0,0,0,0,0,0,0,-1,1343,1058,0,0
126,-34,0,0,0,0,0,0,0,0,0,-1,1350,1058,0,0
133,-34,0,0,0,0,0,0,0,0,0,-1,1357,1058,0,0
140,-34,0,0,0,0,0,0,0,0,0,-1,1364,1058,0,0
147,-34,0,0,0,0,0,0,0,0,0,-1,1371,1058,0,0
154,-34,0,0,0,0,0,0,0,0,0,-1,1378,1058,0,0
161,-34,0,0,0,0,0,0,0,0,0,-1,1385,1058,0,0
168,-34,0,0,0,0,0,0,0,0,0,-1,1392,1058,0,0
175,-34,0,0,0,0,0,0,0,0,0,-1,1399,1058,0,0
182,-34,0,0,0,0,0,0,0,0,0,-1,1406,1058,0,0
189,-34,0,0,0,0,0,0,0,0,0,-1,1413,1058,0,0
196,-34,0,0,0,0,0,0,0,0,0,-1,1420,1058,0,0
203,-34,0,0,0,0,0,0,0,0,0,-1,1427,1058,0,0
210,-34,0,0,0,0,0,0,0,0,0,-1,1434,1058,0,0
217,-34,0,0,0,0,0,0,0,0,0,-1,1441,1058,0,0
224,-34,0,0,0,0,0,0,0,0,0,-1,1448,1058,0,0
231,-34,0,0,0,0,0,0,0,0,0,-1,1455,1058,0,0
238,-34,0,0,0,0,0,0,0,0,0,-1,1462,1058,0,0
245,-34,0,0,0,0,0,0,0,0,0,-1,1469,1058,0,0
252,-34,0,0,0,0,0,0,0,0,0,-1,1476,1058,0,0
259,-34,0,0,0,0,0,0,0,0,0,-1,1483,1058,0,0
266,-34,0,0,0,0,0,0,0,0,0,-1,1490,1058,0,0
273,-34,0,0,0,0,0,0,0,0,0,-1,1497,1058,0,0
280,-34,0,0,0,0,0,0,0,0,0,-1,1504,1058,0,0
287,-34,0,0,0,0,0,0,0,0,0,-1,1511,1058,0,0
294,-34,0,0,0,0,0,0,0,0,0,-1,1518,1058,0,0
301,-34,0,0,0,0,0,0,0,0,0,-1,1525,1058,0,0
308,-34,0,0,0,0,0,0,0,0,0,-1,1532,1058,0,0
315,-34,0,0,0,0,0,0,0,0,0,-1,1539,1058,0,0
322,-34,0,0,0,0,0,0,0,0,0,-1,1546,1058,0,0
329,-34,0,0,0,0,0,0,0,0,0,-1,1553,1058,0,0
336,-34,0,0,0,0,0,0,0,0,0,-1,1560,1058,0,0
343,-34,0,0,0,0,0,0,0,0,0,-1,1567,1058,0,0
350,-34,0,0,0,0,0,0,0,0,0,-1,1574,1058,0,0
357,-34,0,0,0,0,0,0,0,0,0,-1,1581,1058,0,0
364,-34,0,0,0,0,0,0,0,0,0,-1,1588,1058,0,0
371,-34,0,0,0,0,0,0,0,0,0,-1,1595,1058,0,0
378,-34,0,0,0,0,0,0,0,0,0,-1,1602,1058,0,0
385,-34,0,0,0,0,0,0,0,0,0,-1,1609,1058,0,0
392,-34,0,0,0,0,0,0,0,0,0,-1,1616,1058,0,0
399,-34,0,0,0,0,0,0,0,0,0,-1,1623,1058,0,0
406,-34,0,0,0,0,0,0,0,0,0,-1,1630,1058,0,0
413,-34,0,0,0,0,0,0,0,0,0,-1,1637,1058,0,0
420,-34,0,0,0,0,0,0,0,0,0,-1,1644,1058,0,0
427,-34,0,0,0,0,0,0,0,0,0,-1,1651,1058,0,0
434,-34,0,0,0,0,0,0,0,0,0,-1,1658,1058,0,0
441,-34,0,0,0,0,0,0,0,0,0,-1,1665,1058,0,0
448,-34,0,0,0,0,0,0,0,0,0,-1,1672,1058,0,0
455,-34,0,0,0,0,0,0,0,0,0,-1,1679,1058,0,0
462,-34,0,0,0,0,0,0,0,0,0,-1,1686,1058,0,0
469,-34,0,0,0,0,0,0,0,0,0,-1,1693,1058,0,0
476,-34,0,0,0,0,0,0,0,0,0,-1,1700,1058,0,0
483,-34,0,0,0,0,0,0,0,0,0,-1,1707,1058,0,0
490,-34,0,0,0,0,0,0,0,0,0,-1,1714,1058,0,0
497,-34,0,0,0,0,0,0,0,0,0,-1,1721,1058,0,0
504,-34,0,0,0,0,0,0,0,0,0,-1,1728,1058,0,0
511,-34,0,0,0,0,0,0,0,0,0,-1,1735,1058,0,0
518,-34,0,0,0,0,0,0,0,0,0,-1,1742,1058,0,0
525,-34,0,0,0,0,0,0,0,0,0,-1,1749,1058,0,0
532,-34,0,0,0,0,0,0,0,0,0,-1,1756,1058,0,0
539,-34,0,0,0,0,0,0,0,0,0,-1,1763,1058,0,0
546,-34,0,0,0,0,0,0,0,0,0,-1,1770,1058,0,0
553,-34,0,0,0,0,0,0,0,0,0,-1,1777,1058,0,0
560,-34,0,0,0,0,0,0,0,0,0,-1,1784,1058,0,0
567,-34,0,0,0,0,0,0,0,0,0,-1,1791,1058,0,0
574,-34,0,0,0,0,0,0,0,0,0,-1,1798,1058,0,0
581,-34,0,0,0,0,0,0,0,0,0,-1,1805,1058,0,0
588,-34,0,0,0,0,0,0,0,0,0,-1,1812,1058,0,0
595,-34,0,0,0,0,0,0,0,0,0,-1,1819,1058,0,0
602,-34,0,0,0,0,0,0,0,0,0,-1,1826,1058,0,0
609,-34,0,0,0,0,0,0,0,0,0,-1,1833,1058,0,0
616,-34,0,0,0,0,0,0,0,0,0,-1,1840,1058,0,0
623,-34,0,0,0,0,0,0,0,0,0,-1,1847,1058,0,0
630,-34,0,0,0,0,0,0,0,0,0,-1,1854,1058,0,0
637,-34,0,0,0,0,0,0,0,0,0,-1,1861,1058,0,0
644,-34,0,0,0,0,0,0,0,0,0,-1,1868,1058,0,0
651,-34,29.1057,2.49365,0.000161283,0.00155826,0.00188212,0.00286732,-0.00114778,0.96308,0.00238793,0.0395415,1875,1058,29.1057,-2.49371
658,-34,29.0957,2.7406,0.000209991,0.00171258,0.00123834,0.0024097,-0.000487138,1.05806,0.00179107,0.0413135,1882,1058,29.0957,-2.74055
665,-34,29.0837,2.84326,0.000161847,0.00181199,0.000685789,0.00205979,-8.59519e-05,1.22406,0.00140272,0.0403485,1889,1058,29.0837,-2.84331
672,-34,29.1777,2.74036,9.66962e-05,0.00187706,0.000573516,0.00204581,-7.20576e-05,1.28463,0.00138852,0.0371452,1896,1058,29.1777,-2.7404
679,-34,29.1975,2.53259,-4.61814e-05,0.00169688,0.00087562,0.00206077,-0.000410077,1.17693,0.00152898,0.0354236,1903,1058,29.1975,-2.53263
686,-34,29.1742,2.44019,-0.000268173,0.00128044,0.00133175,0.00204663,-0.00103436,1.04872,0.00181053,0.0401351,1910,1058,29.1742,-2.44022
693,-34,29.2137,2.43884,-0.000429473,0.000780704,0.00182294,0.00209636,-0.00174513,0.945641,0.00222097,0.0409638,1917,1058,29.2137,-2.43884
700,-34,29.2175,2.60388,-0.000539342,0.000331377,0.00223469,0.00217272,-0.00238068,0.881603,0.00262982,0.0394668,1924,1058,29.2175,-2.60383
707,-34,29.1138,2.60852,-0.000554327,2.42744e-05,0.00250078,0.00225244,-0.00278249,0.842984,0.00291228,0.026596,1931,1058,29.1137,-2.60853
714,-34,29.1177,2.64368,-0.000733253,-0.000141453,0.00269015,0.00226902,-0.00314373,0.840175,0.00313862,0.0179793,1938,1058,29.1176,-2.64363
721,-34,29.1899,3.0238,-0.00115088,-0.000142945,0.00280699,0.00220496,-0.00349879,0.874222,0.00332118,0.0310186,1945,1058,29.1899,-3.02375
728,-34,28.7587,4.57825,0,0,0,0,0,0,0,-1,1952,1058,28.7587,-4.57821
735,-34,28.6764,4.57202,-0.00150172,0.000179959,0.00282851,0.00228996,-0.00361173,0.929875,0.00343571,0.0160455,1959,1058,28.6763,-4.57201
742,-34,28.6365,4.53931,-0.00137024,0.000599616,0.00259494,0.00239026,-0.00316088,0.966779,0.00321523,0.0149305,1966,1058,28.6365,-4.53935
749,-34,28.6646,4.49622,-0.00168434,0.00227088,0.00235392,0.00336766,-0.00278112,1.13477,0.00355538,0.0117703,1973,1058,28.6646,-4.49622
756,-34,28.6948,4.43054,-0.00209932,0.00471108,0.00177455,0.00514573,-0.00253397,1.33059,0.00451853,0.00903457,1980,1058,28.6948,-4.43048
763,-34,28.6757,4.36133,-0.00200546,0.00798183,0.000771186,0.00804103,-0.00206466,1.49418,0.00616524,0.0109121,1987,1058,28.6757,-4.36137
770,-34,28.6287,4.29529,-0.00195978,0.0125364,-0.000510265,0.0125544,-0.00197772,-1.53565,0.00910075,0.0157168,1994,1058,28.6286,-4.29529
777,-34,28.579,4.28064,-0.00176054,0.0188535,-0.00197795,0.0190416,-0.00194861,-1.476,0.0133913,0.0162534,2001,1058,28.579,-4.28059
784,-34,28.5203,4.26501,-0.00147067,0.0261671,-0.00348365,0.0265995,-0.00190301,-1.44732,0.0184001,0.0321353,2008,1058,28.5203,-4.26505
791,-34,28.5979,4.27283,-0.00106375,0.0349353,-0.00541316,0.0357316,-0.00186011,-1.42473,0.0244647,0.045685,2015,1058,28.5979,-4.27281
798,-34,28.7104,4.24585,0,0,0,0,0,0,0,-1,2022,1058,28.7104,-4.24583
805,-34,28.3765,3.30286,0,0,0,0,0,0,0,-1,2029,1058,28.3764,-3.30289
812,-34,28.1868,3.08765,0,0,0,0,0,0,0,-1,2036,1058,28.1867,-3.08761
-700,-41,-16.4062,1.00708,0,0,0,0,0,0,0,-1,524,1065,-16.4062,-1.00714
-693,-41,-17.0052,1.13086,0,0,0,0,0,0,0,-1,531,1065,-17.0052,-1.13083
-686,-41,-19.005,-1.90222,0,0,0,0,0,0,0,-1,538,1065,-19.005,1.90222
-679,-41,-20.3594,-0.280396,0.0774815,0.0185711,0.00785424,0.0785107,0.0175419,0.130294,0.0475835,0.0438108,545,1065,-20.3594,0.280443
-672,-41,-20.1676,0.0976563,0.0560574,0.0153021,0.00863939,0.0578132,0.0135463,0.200496,0.0349139,0.0418149,552,1065,-20.1676,-0.0976799
-665,-41,-20.244,0.573364,0.0393911,0.0124346,0.00859246,0.041897,0.00992868,0.283771,0.0252803,0.0394983,559,1065,-20.2439,-0.573379
-658,-41,-20.0734,1.12073,0.0267152,0.00994989,0.00793325,0.029874,0.00679108,0.378931,0.0180825,0.0380667,566,1065,-20.0734,-1.12074
-651,-41,-20.0618,1.46265,0.0173843,0.00779149,0.00687501,0.0209707,0.00420509,0.480823,0.0128109,0.026827,573,1065,-20.0618,-1.46266
-644,-41,-20.1826,1.54626,0.0104697,0.0058856,0.00548858,0.0141256,0.00222972,0.587603,0.00876884,0.0145049,580,1065,-20.1825,-1.54628
-637,-41,-20.2093,1.62842,0.00549878,0.00432712,0.00275689,0.0077314,0.0020945,0.680708,0.00461726,0.0156222,587,1065,-20.2093,-1.62846
-630,-41,-20.2126,1.7439,0.00159519,0.00263721,-4.07549e-05,0.0026388,0.0015936,-1.53176,0.00153444,0.0123476,594,1065,-20.2126,-1.74391
-623,-41,-20.1791,1.86548,-0.00115446,0.00114673,-0.00265064,0.00288573,-0.00289346,-0.990167,0.00333661,0.0106608,601,1065,-20.1791,-1.86551
-616,-41,-20.1747,1.99182,-0.00208853,0.000348378,-0.0051009,0.00437433,-0.00611448,-0.902636,0.00608343,0.0140469,608,1065,-20.1748,-1.99181
-609,-41,-20.1736,2.08228,-0.00212816,-0.00013466,-0.00710839,0.00604652,-0.00830935,-0.855055,0.00832261,0.0185462,615,1065,-20.1736,-2.08231
-602,-41,-20.1914,2.15979,-0.00213839,-0.000405059,-0.00914276,0.00791202,-0.0104555,-0.832653,0.0106383,0.012116,622,1065,-20.1914,-2.15981
-595,-41,-20.2743,2.23804,0,0,0,0,0,0,0,-1,629,1065,-20.2743,-2.238
-588,-41,-20.35,1.40881,-0.00236873,-0.000903432,-0.0105918,0.00898105,-0.0122532,-0.819929,0.012308,0.0274269,636,1065,-20.35,-1.40876
-581,-41,-20.3757,0.663452,-0.00220987,-0.00102905,-0.0103637,0.00876099,-0.0119999,-0.813852,0.0120348,0.0345303,643,1065,-20.3757,-0.663442
-574,-41,-20.3593,0.692627,-0.00208394,-0.000853464,-0.00963945,0.00819036,-0.0111278,-0.817267,0.0111962,0.0372677,650,1065,-20.3593,-0.692585
-567,-41,-20.3674,0.760132,-0.00182935,-0.000500916,-0.00805182,0.00691404,-0.0092443,-0.826551,0.0093613,0.0430406,657,1065,-20.3674,-0.760107
-560,-41,-20.392,0.898926,-0.00136835,-4.65396e-05,-0.00557432,0.00490592,-0.00632081,-0.844404,0.00649889,0.0408888,664,1065,-20.392,-0.898897
-553,-41,-20.2771,0.883545,-0.000681657,0.000385116,-0.00226489,0.00217857,-0.00247512,-0.901042,0.00268863,0.0439583,671,1065,-20.2771,-0.883504
-546,-41,-20.2743,0.634521,0.000247848,0.00060345,0.00178733,0.0022218,-0.0013705,0.834975,0.00209333,0.0444295,678,1065,-20.2743,-0.634481
-539,-41,-20.3098,0.716431,0.00121998,0.000522298,0.00532826,0.0062108,-0.00446853,0.75271,0.006193,0.041744,685,1065,-20.3097,-0.716376
-532,-41,-20.3419,0.894653,0.00137378,-0.000466567,0.00559323,0.00612202,-0.00521482,0.703871,0.00655231,0.0408715,692,1065,-20.3419,-0.894594
-525,-41,0,0,0,0,0,0,0,0,0,-1,699,1065,0,0
-518,-41,0,0,0,0,0,0,0,0,0,-1,706,1065,0,0
-511,-41,0,0,0,0,0,0,0,0,0,-1,713,1065,0,0
-504,-41,0,0,0,0,0,0,0,0,0,-1,720,1065,0,0
-497,-41,0,0,0,0,0,0,0,0,0,-1,727,1065,0,0
-490,-41,0,0,0,0,0,0,0,0,0,-1,734,1065,0,0
-483,-41,0,0,0,0,0,0,0,0,0,-1,741,1065,0,0
-476,-41,0,0,0,0,0,0,0,0,0,-1,748,1065,0,0
-469,-41,0,0,0,0,0,0,0,0,0,-1,755,1065,0,0
-462,-41,0,0,0,0,0,0,0,0,0,-1,762,1065,0,0
-455,-41,0,0,0,0,0,0,0,0,0,-1,769,1065,0,0
-448,-41,0,0,0,0,0,0,0,0,0,-1,776,1065,0,0
-441,-41,0,0,0,0,0,0,0,0,0,-1,783,1065,0,0
-434,-41,0,0,0,0,0,0,0,0,0,-1,790,1065,0,0
-427,-41,0,0,0,0,0,0,0,0,0,-1,797,1065,0,0
-420,-41,0,0,0,0,0,0,0,0,0,-1,804,1065,0,0
-413,-41,0,0,0,0,0,0,0,0,0,-1,811,1065,0,0
-406,-41,0,0,0,0,0,0,0,0,0,-1,818,1065,0,0
-399,-41,0,0,0,0,0,0,0,0,0,-1,825,1065,0,0
-392,-41,0,0,0,0,0,0,0,0,0,-1,832,1065,0,0
-385,-41,0,0,0,0,0,0,0,0,0,-1,839,1065,0,0
-378,-41,0,0,0,0,0,0,0,0,0,-1,846,1065,0,0
-371,-41,0,0,0,0,0,0,0,0,0,-1,853,1065,0,0
-364,-41,0,0,0,0,0,0,0,0,0,-1,860,1065,0,0
-357,-41,0,0,0,0,0,0,0,0,0,-1,867,1065,0,0
-350,-41,0,0,0,0,0,0,0,0,0,-1,874,1065,0,0
-343,-41,0,0,0,0,0,0,0,0,0,-1,881,1065,0,0
-336,-41,0,0,0,0,0,0,0,0,0,-1,888,1065,0,0
-329,-41,0,0,0,0,0,0,0,0,0,-1,895,1065,0,0
-322,-41,0,0,0,0,0,0,0,0,0,-1,902,1065,0,0
-315,-41,0,0,0,0,0,0,0,0,0,-1,909,1065,0,0
-308,-41,0,0,0,0,0,0,0,0,0,-1,916,1065,0,0
-301,-41,0,0,0,0,0,0,0,0,0,-1,923,1065,0,0
-294,-41,0,0,0,0,0,0,0,0,0,-1,930,1065,0,0
-287,-41,0,0,0,0,0,0,0,0,0,-1,937,1065,0,0
-280,-41,0,0,0,0,0,0,0,0,0,-1,944,1065,0,0
-273,-41,0,0,0,0,0,0,0,0,0,-1,951,1065,0,0
-266,-41,0,0,0,0,0,0,0,0,0,-1,958,1065,0,0
-259,-41,0,0,0,0,0,0,0,0,0,-1,965,1065,0,0
-252,-41,0,0,0,0,0,0,0,0,0,-1,972,1065,0,0
-245,-41,0,0,0,0,0,0,0,0,0,-1,979,1065,0,0
-238,-41,0,0,0,0,0,0,0,0,0,-1,986,1065,0,0
-231,-41,0,0,0,0,0,0,0,0,0,-1,993,1065,0,0
-224,-41,0,0,0,0,0,0,0,0,0,-1,1000,1065,0,0
-217,-41,0,0,0,0,0,0,0,0,0,-1,1007,1065,0,0
-210,-41,0,0,0,0,0,0,0,0,0,-1,1014,1065,0,0
-203,-41,0,0,0,0,0,0,0,0,0,-1,1021,1065,0,0
-196,-41,0,0,0,0,0,0,0,0,0,-1,1028,1065,0,0
-189,-41,0,0,0,0,0,0,0,0,0,-1,1035,1065,0,0
-182,-41,0,0,0,0,0,0,0,0,0,-1,1042,1065,0,0
-175,-41,0,0,0,0,0,0,0,0,0,-1,1049,1065,0,0
-168,-41,0,0,0,0,0,0,0,0,0,-1,1056,1065,0,0
-161,-41,0,0,0,0,0,0,0,0,0,-1,1063,1065,0,0
-154,-41,0,0,0,0,0,0,0,0,0,-1,1070,1065,0,0
-147,-41,0,0,0,0,0,0,0,0,0,-1,1077,1065,0,0
-140,-41,0,0,0,0,0,0,0,0,0,-1,1084,1065,0,0
-133,-41,0,0,0,0,0,0,0,0,0,-1,1091,1065,0,0
-126,-41,0,0,0,0,0,0,0,0,0,-1,1098,1065,0,0
-119,-41,0,0,0,0,0,0,0,0,0,-1,1105,1065,0,0
-112,-41,0,0,0,0,0,0,0,0,0,-1,1112,1065,0,0
-105,-41,0,0,0,0,0,0,0,0,0,-1,1119,1065,0,0
-98,-41,0,0,0,0,0,0,0,0,0,-1,1126,1065,0,0
-91,-41,0,0,0,0,0,0,0,0,0,-1,1133,1065,0,0
-84,-41,0,0,0,0,0,0,0,0,0,-1,1140,1065,0,0
-77,-41,0,0,0,0,0,0,0,0,0,-1,1147,1065,0,0
-70,-41,0,0,0,0,0,0,0,0,0,-1,1154,1065,0,0
-63,-41,0,0,0,0,0,0,0,0,0,-1,1161,1065,0,0
-56,-41,0,0,0,0,0,0,0,0,0,-1,1168,1065,0,0
-49,-41,0,0,0,0,0,0,0,0,0,-1,1175,1065,0,0
-42,-41,0,0,0,0,0,0,0,0,0,-1,1182,1065,0,0
-35,-41,0,0,0,0,0,0,0,0,0,-1,1189,1065,0,0
-28,-41,0,0,0,0,0,0,0,0,0,-1,1196,1065,0,0
-21,-41,0,0,0,0,0,0,0,0,0,-1,1203,1065,0,0
-14,-41,0,0,0,0,0,0,0,0,0,-1,1210,1065,0,0
-7,-41,0,0,0,0,0,0,0,0,0,-1,1217,1065,0,0
0,-41,0,0,0,0,0,0,0,0,0,-1,1224,1065,0,0
7,-41,0,0,0,0,0,0,0,0,0,-1,1231,1065,0,0
14,-41,0,0,0,0,0,0,0,0,0,-1,1238,1065,0,0
21,-41,0,0,0,0,0,0,0,0,0,-1,1245,1065,0,0
28,-41,0,0,0,0,0,0,0,0,0,-1,1252,1065,0,0
35,-41,0,0,0,0,0,0,0,0,0,-1,1259,1065,0,0
42,-41,0,0,0,0,0,0,0,0,0,-1,1266,1065,0,0
49,-41,0,0,0,0,0,0,0,0,0,-1,1273,1065,0,0
56,-41,0,0,0,0,0,0,0,0,0,-1,1280,1065,0,0
63,-41,0,0,0,0,0,0,0,0,0,-1,1287,1065,0,0
70,-41,0,0,0,0,0,0,0,0,0,-1,1294,1065,0,0
77,-41,0,0,0,0,0,0,0,0,0,-1,1301,1065,0,0
84,-41,0,0,0,0,0,0,0,0,0,-1,1308,1065,0,0
91,-41,0,0,0,0,0,0,0,0,0,-1,1315,1065,0,0
98,-41,0,0,0,0,0,0,0,0,0,-1,1322,1065,0,0
105,-41,0,0,0,0,0,0,0,0,0,-1,1329,1065,0,0
112,-41,0,0,0,0,0,0,0,0,0,-1,1336,1065,0,0
119,-41,0,0,0,0,0,0,0,0,0,-1,1343,1065,0,0
126,-41,0,0,0,0,0,0,0,0,0,-1,1350,1065,0,0
133,-41,0,0,0,0,0,0,0,0,0,-1,1357,1065,0,0
140,-41,0,0,0,0,0,0,0,0,0,-1,1364,1065,0,0
147,-41,0,0,0,0,0,0,0,0,0,-1,1371,1065,0,0
154,-41,0,0,0,0,0,0,0,0,0,-1,1378,1065,0,0
161,-41,0,0,0,0,0,0,0,0,0,-1,1385,1065,0,0
168,-41,0,0,0,0,0,0,0,0,0,-1,1392,1065,0,0
175,-41,0,0,0,0,0,0,0,0,0,-1,1399,1065,0,0
182,-41,0,0,0,0,0,0,0,0,0,-1,1406,1065,0,0
189,-41,0,0,0,0,0,0,0,0,0,-1,1413,1065,0,0
196,-41,0,0,0,0,0,0,0,0,0,-1,1420,1065,0,0
203,-41,0,0,0,0,0,0,0,0,0,-1,1427,1065,0,0
210,-41,0,0,0,0,0,0,0,0,0,-1,1434,1065,0,0
217,-41,0,0,0,0,0,0,0,0,0,-1,1441,1065,0,0
224,-41,0,0,0,0,0,0,0,0,0,-1,1448,1065,0,0
231,-41,0,0,0,0,0,0,0,0,0,-1,1455,1065,0,0
238,-41,0,0,0,0,0,0,0,0,0,-1,1462,1065,0,0
245,-41,0,0,0,0,0,0,0,0,0,-1,1469,1065,0,0
252,-41,0,0,0,0,0,0,0,0,0,-1,1476,1065,0,0
259,-41,0,0,0,0,0,0,0,0,0,-1,1483,1065,0,0
266,-41,0,0,0,0,0,0,0,0,0,-1,1490,1065,0,0
273,-41,0,0,0,0,0,0,0,0,0,-1,1497,1065,0,0
280,-41,0,0,0,0,0,0,0,0,0,-1,1504,1065,0,0
287,-41,0,0,0,0,0,0,0,0,0,-1,1511,1065,0,0
294,-41,0,0,0,0,0,0,0,0,0,-1,1518,1065,0,0
301,-41,0,0,0,0,0,0,0,0,0,-1,1525,1065,0,0
308,-41,0,0,0,0,0,0,0,0,0,-1,1532,1065,0,0
315,-41,0,0,0,0,0,0,0,0,0,-1,1539,1065,0,0
322,-41,0,0,0,0,0,0,0,0,0,-1,1546,1065,0,0
329,-41,0,0,0,0,0,0,0,0,0,-1,1553,1065,0,0
336,-41,0,0,0,0,0,0,0,0,0,-1,1560,1065,0,0
343,-41,0,0,0,0,0,0,0,0,0,-1,1567,1065,0,0
350,-41,0,0,0,0,0,0,0,0,0,-1,1574,1065,0,0
357,-41,0,0,0,0,0,0,0,0,0,-1,1581,1065,0,0
364,-41,0,0,0,0,0,0,0,0,0,-1,1588,1065,0,0
371,-41,0,0,0,0,0,0,0,0,0,-1,1595,1065,0,0
378,-41,0,0,0,0,0,0,0,0,0,-1,1602,1065,0,0
385,-41,0,0,0,0,0,0,0,0,0,-1,1609,1065,0,0
392,-41,0,0,0,0,0,0,0,0,0,-1,1616,1065,0,0
399,-41,0,0,0,0,0,0,0,0,0,-1,1623,1065,0,0
406,-41,0,0,0,0,0,0,0,0,0,-1,1630,1065,0,0
413,-41,0,0,0,0,0,0,0,0,0,-1,1637,1065,0,0
420,-41,0,0,0,0,0,0,0,0,0,-1,1644,1065,0,0
427,-41,0,0,0,0,0,0,0,0,0,-1,1651,1065,0,0
434,-41,0,0,0,0,0,0,0,0,0,-1,1658,1065,0,0
441,-41,0,0,0,0,0,0,0,0,0,-1,1665,1065,0,0
448,-41,0,0,0,0,0,0,0,0,0,-1,1672,1065,0,0
455,-41,0,0,0,0,0,0,0,0,0,-1,1679,1065,0,0
462,-41,0,0,0,0,0,0,0,0,0,-1,1686,1065,0,0
469,-41,0,0,0,0,0,0,0,0,0,-1,1693,1065,0,0
476,-41,0,0,0,0,0,0,0,0,0,-1,1700,1065,0,0
483,-41,0,0,0,0,0,0,0,0,0,-1,1707,1065,0,0
490,-41,0,0,0,0,0,0,0,0,0,-1,1714,1065,0,0
497,-41,0,0,0,0,0,0,0,0,0,-1,1721,1065,0,0
504,-41,0,0,0,0,0,0,0,0,0,-1,1728,1065,0,0
511,-41,0,0,0,0,0,0,0,0,0,-1,1735,1065,0,0
518,-41,0,0,0,0,0,0,0,0,0,-1,1742,1065,0,0
525,-41,0,0,0,0,0,0,0,0,0,-1,1749,1065,0,0
532,-41,0,0,0,0,0,0,0,0,0,-1,1756,1065,0,0
539,-41,0,0,0,0,0,0,0,0,0,-1,1763,1065,0,0
546,-41,0,0,0,0,0,0,0,0,0,-1,1770,1065,0,0
553,-41,0,0,0,0,0,0,0,0,0,-1,1777,1065,0,0
560,-41,0,0,0,0,0,0,0,0,0,-1,1784,1065,0,0
567,-41,0,0,0,0,0,0,0,0,0,-1,1791,1065,0,0
574,-41,0,0,0,0,0,0,0,0,0,-1,1798,1065,0,0
581,-41,0,0,0,0,0,0,0,0,0,-1,1805,1065,0,0
588,-41,0,0,0,0,0,0,0,0,0,-1,1812,1065,0,0
595,-41,0,0,0,0,0,0,0,0,0,-1,1819,1065,0,0
602,-41,0,0,0,0,0,0,0,0,0,-1,1826,1065,0,0
609,-41,0,0,0,0,0,0,0,0,0,-1,1833,1065,0,0
616,-41,0,0,0,0,0,0,0,0,0,-1,1840,1065,0,0
623,-41,0,0,0,0,0,0,0,0,0,-1,1847,1065,0,0
630,-41,0,0,0,0,0,0,0,0,0,-1,1854,1065,0,0
637,-41,0,0,0,0,0,0,0,0,0,-1,1861,1065,0,0
644,-41,0,0,0,0,0,0,0,0,0,-1,1868,1065,0,0
651,-41,29.1346,2.43884,0.00055116,0.00115936,0.00179658,0.00267739,-0.000966873,0.869236,0.0021799,0.0367103,1875,1065,29.1347,-2.43884
658,-41,29.0062,2.64502,0.000443046,0.00138852,0.00123326,0.00223654,-0.000404981,0.968421,0.00164275,0.0411657,1882,1065,29.0062,-2.64501
665,-41,29.1426,2.86365,0.00032244,0.00149588,0.000709518,0.00182984,-1.15237e-05,1.13087,0.00122375,0.041796,1889,1065,29.1426,-2.86361
672,-41,29.2646,2.73279,0.000208553,0.00154675,0.000604394,0.00177931,-2.40052e-05,1.20348,0.00119429,0.0378275,1896,1065,29.2646,-2.73276
679,-41,29.2111,2.61084,-4.98098e-05,0.00127665,0.000951986,0.00177366,-0.000546817,1.08965,0.00140075,0.0377927,1903,1065,29.2111,-2.61087
686,-41,29.1804,2.49243,-0.000389466,0.000786205,0.00144754,0.00176071,-0.00136397,0.978272,0.00180888,0.041823,1910,1065,29.1805,-2.49249
693,-41,28.8584,2.93066,0,0,0,0,0,0,0,-1,1917,1065,28.8584,-2.93067
700,-41,29.1827,2.69897,-0.000813579,-0.000234944,0.00243232,0.00192521,-0.00297373,0.844593,0.00284992,0.0393326,1924,1065,29.1828,-2.69901
707,-41,29.134,2.58521,-0.000887578,-0.000555224,0.00272517,0.00200883,-0.00345163,0.81585,0.00318907,0.0278504,1931,1065,29.134,-2.5852
714,-41,29.1447,2.61475,-0.00110106,-0.00073543,0.00294171,0.00202913,-0.00386563,0.816431,0.00345796,0.0168319,1938,1065,29.1446,-2.61478
721,-41,29.1779,3.26904,-0.00152152,-0.000749256,0.00308982,0.00197847,-0.00424924,0.84756,0.00367438,0.0416784,1945,1065,29.1778,-3.26909
728,-41,28.6907,4.62891,0,0,0,0,0,0,0,-1,1952,1065,28.6907,-4.62892
735,-41,28.6205,4.58997,-0.00186285,-0.000347212,0.00311737,0.00210313,-0.00431319,0.904634,0.003777,0.0168615,1959,1065,28.6205,-4.58997
742,-41,28.5861,4.54395,-0.00169266,0.00019325,0.00288449,0.002285,-0.00378441,0.943375,0.00353964,0.0146473,1966,1065,28.586,-4.544
749,-41,28.5973,4.50122,-0.00194251,0.00187449,0.00262875,0.00321448,-0.0032825,1.09938,0.0037511,0.013351,1973,1065,28.5972,-4.50125
756,-41,28.6121,4.43774,-0.00233405,0.00424126,0.00205695,0.00483171,-0.00292451,1.29126,0.00452295,0.0121866,1980,1065,28.612,-4.43771
763,-41,28.5939,4.34436,-0.00224497,0.00730728,0.00104469,0.0074202,-0.00235788,1.46313,0.00589218,0.0106298,1987,1065,28.5938,-4.34431
770,-41,28.5658,4.28552,-0.00219355,0.0114958,-0.000220842,0.0114993,-0.00219711,-1.55467,0.00849383,0.0121703,1994,1065,28.5658,-4.28552
777,-41,28.5187,4.22559,-0.00201125,0.017199,-0.00168265,0.0173453,-0.00215752,-1.48408,0.0123457,0.0139929,2001,1065,28.5187,-4.22554
784,-41,28.4468,4.12378,-0.00183005,0.0236187,-0.00311996,0.0239956,-0.00220697,-1.45057,0.0167812,0.0247785,2008,1065,28.4468,-4.12376
791,-41,28.4818,3.79492,-0.00159669,0.0311485,-0.00494507,0.0318789,-0.00232718,-1.42414,0.0220693,0.0431238,2015,1065,28.4818,-3.79487
798,-41,28.5022,3.36548,-0.00111266,0.0401093,-0.00744148,0.0414115,-0.00241487,-1.39756,0.0284468,0.0458198,2022,1065,28.5023,-3.36544
805,-41,28.2944,3.13696,-0.000200604,0.0506037,-0.0108363,0.0528185,-0.00241536,-1.36919,0.0360444,0.0470026,2029,1065,28.2944,-3.13693
812,-41,28.1018,2.89661,0,0,0,0,0,0,0,-1,2036,1065,28.1019,-2.89666
-700,-48,-24.6539,-3.5625,0,0,0,0,0,0,0,-1,524,1072,-24.6539,3.56246
-693,-48,-17.4731,0.651245,0,0,0,0,0,0,0,-1,531,1072,-17.4731,-0.651269
-686,-48,-20.1949,-1.06946,0,0,0,0,0,0,0,-1,538,1072,-20.1949,1.06949
-679,-48,-19.9233,-0.536377,0.0801783,0.01823,0.00842226,0.0813029,0.0171054,0.132747,0.0494954,0.0448819,545,1072,-19.9233,0.536358
-672,-48,-19.8063,-0.0275879,0.0575468,0.0149291,0.00881119,0.0592967,0.0131793,0.196045,0.0359525,0.0434296,552,1072,-19.8063,0.0275896
-665,-48,-19.8907,0.456787,0.0401658,0.012073,0.00855999,0.0425685,0.00967029,0.273655,0.0257677,0.0452704,559,1072,-19.8907,-0.456755
-658,-48,-19.9406,0.864136,0.0271091,0.00962553,0.00781634,0.030094,0.00664068,0.364782,0.0182562,0.0464905,566,1072,-19.9406,-0.864077
-651,-48,-19.9721,1.25757,0.0176015,0.00752055,0.00674486,0.0209812,0.00414085,0.46451,0.0128319,0.0319168,573,1072,-19.9721,-1.25751
-644,-48,-20.038,1.53284,0.0106457,0.0056663,0.00540745,0.0141091,0.00220293,0.569654,0.00876453,0.016682,580,1072,-20.038,-1.53278
-637,-48,-20.0552,1.59143,0.00563039,0.00406282,0.00273829,0.00769486,0.00199835,0.646009,0.00461049,0.0168461,587,1072,-20.0552,-1.59138
-630,-48,-20.0416,1.72998,0.00167049,0.00239603,-0.00016425,0.00243148,0.00163504,-1.35822,0.00143138,0.01741,594,1072,-20.0416,-1.73003
-623,-48,-20.0685,1.85803,-0.00126027,0.00100515,-0.00282416,0.00291529,-0.00317041,-0.976116,0.00351461,0.0104819,601,1072,-20.0685,-1.85801
-616,-48,-20.0662,1.96021,-0.00242277,0.000204927,-0.00527015,0.00432253,-0.00654038,-0.907558,0.00631513,0.00921787,608,1072,-20.0662,-1.96023
-609,-48,-20.046,2.06531,-0.00253253,-0.000336907,-0.0072671,0.00591483,-0.00878427,-0.860364,0.00854026,0.0101597,615,1072,-20.046,-2.06526
-602,-48,-20.0649,2.1825,-0.00262897,-0.000630075,-0.00931322,0.00773717,-0.0109962,-0.838851,0.0108702,0.0111859,622,1072,-20.0649,-2.18245
-595,-48,-20.1857,2.29297,0,0,0,0,0,0,0,-1,629,1072,-20.1858,-2.29303
-588,-48,-20.2563,1.51379,-0.0029625,-0.00116856,-0.010918,0.00888924,-0.0130203,-0.826384,0.0127242,0.0358783,636,1072,-20.2563,-1.51373
-581,-48,-20.3738,0.653931,-0.00281371,-0.00129902,-0.0106972,0.0086676,-0.0127803,-0.820738,0.0124586,0.0397343,643,1072,-20.3738,-0.653906
-574,-48,-20.3365,0.598022,-0.00262581,-0.00114798,-0.00999044,0.00813084,-0.0119046,-0.822312,0.0116357,0.0397995,650,1072,-20.3365,-0.597975
-567,-48,-20.3125,0.6604,-0.00225109,-0.000819752,-0.00838219,0.00687727,-0.00994811,-0.827985,0.00976792,0.0412561,657,1072,-20.3125,-0.660461
-560,-48,-20.3221,0.848755,-0.00163716,-0.000383252,-0.0058217,0.00484516,-0.00686557,-0.839038,0.00679465,0.0399819,664,1072,-20.3222,-0.848701
-553,-48,-20.2621,0.952881,-0.00078472,3.92506e-05,-0.00233557,0.00199889,-0.00274436,-0.872698,0.00274977,0.041307,671,1072,-20.2621,-0.952833
-546,-48,-20.2928,0.782959,0.00028952,0.000266177,0.00200968,0.00228756,-0.00173186,0.782494,0.002328,0.0424308,678,1072,-20.2928,-0.782995
-539,-48,-20.3629,0.774536,0.00129835,0.000193709,0.00590204,0.00667386,-0.0051818,0.738743,0.00686291,0.04106,685,1072,-20.3629,-0.774494
-532,-48,-20.3919,0.940186,0.00109657,-0.000892043,0.00649711,0.00667501,-0.00647049,0.709468,0.00758986,0.0396629,692,1072,-20.3919,-0.940183
-525,-48,0,0,0,0,0,0,0,0,0,-1,699,1072,0,0
-518,-48,0,0,0,0,0,0,0,0,0,-1,706,1072,0,0
-511,-48,0,0,0,0,0,0,0,0,0,-1,713,1072,0,0
-504,-48,0,0,0,0,0,0,0,0,0,-1,720,1072,0,0
-497,-48,0,0,0,0,0,0,0,0,0,-1,727,1072,0,0
-490,-48,0,0,0,0,0,0,0,0,0,-1,734,1072,0,0
-483,-48,0,0,0,0,0,0,0,0,0,-1,741,1072,0,0
-476,-48,0,0,0,0,0,0,0,0,0,-1,748,1072,0,0
-469,-48,0,0,0,0,0,0,0,0,0,-1,755,1072,0,0
-462,-48,0,0,0,0,0,0,0,0,0,-1,762,1072,0,0
-455,-48,0,0,0,0,0,0,0,0,0,-1,769,1072,0,0
-448,-48,0,0,0,0,0,0,0,0,0,-1,776,1072,0,0
-441,-48,0,0,0,0,0,0,0,0,0,-1,783,1072,0,0
-434,-48,0,0,0,0,0,0,0,0,0,-1,790,1072,0,0
-427,-48,0,0,0,0,0,0,0,0,0,-1,797,1072,0,0
-420,-48,0,0,0,0,0,0,0,0,0,-1,804,1072,0,0
-413,-48,0,0,0,0,0,0,0,0,0,-1,811,1072,0,0
-406,-48,0,0,0,0,0,0,0,0,0,-1,818,1072,0,0
-399,-48,0,0,0,0,0,0,0,0,0,-1,825,1072,0,0
-392,-48,0,0,0,0,0,0,0,0,0,-1,832,1072,0,0
-385,-48,0,0,0,0,0,0,0,0,0,-1,839,1072,0,0
-378,-48,0,0,0,0,0,0,0,0,0,-1,846,1072,0,0
-371,-48,0,0,0,0,0,0,0,0,0,-1,853,1072,0,0
-364,-48,0,0,0,0,0,0,0,0,0,-1,860,1072,0,0
-357,-48,0,0,0,0,0,0,0,0,0,-1,867,1072,0,0
-350,-48,0,0,0,0,0,0,0,0,0,-1,874,1072,0,0
-343,-48,0,0,0,0,0,0,0,0,0,-1,881,1072,0,0
-336,-48,0,0,0,0,0,0,0,0,0,-1,888,1072,0,0
-329,-48,0,0,0,0,0,0,0,0,0,-1,895,1072,0,0
-322,-48,0,0,0,0,0,0,0,0,0,-1,902,1072,0,0
-315,-48,0,0,0,0,0,0,0,0,0,-1,909,1072,0,0
-308,-48,0,0,0,0,0,0,0,0,0,-1,916,1072,0,0
-301,-48,0,0,0,0,0,0,0,0,0,-1,923,1072,0,0
-294,-48,0,0,0,0,0,0,0,0,0,-1,930,1072,0,0
-287,-48,0,0,0,0,0,0,0,0,0,-1,937,1072,0,0
-280,-48,0,0,0,0,0,0,0,0,0,-1,944,1072,0,0
-273,-48,0,0,0,0,0,0,0,0,0,-1,951,1072,0,0
-266,-48,0,0,0,0,0,0,0,0,0,-1,958,1072,0,0
-259,-48,0,0,0,0,0,0,0,0,0,-1,965,1072,0,0
-252,-48,0,0,0,0,0,0,0,0,0,-1,972,1072,0,0
-245,-48,0,0,0,0,0,0,0,0,0,-1,979,1072,0,0
-238,-48,0,0,0,0,0,0,0,0,0,-1,986,1072,0,0
-231,-48,0,0,0,0,0,0,0,0,0,-1,993,1072,0,0
-224,-48,0,0,0,0,0,0,0,0,0,-1,1000,1072,0,0
-217,-48,0,0,0,0,0,0,0,0,0,-1,1007,1072,0,0
-210,-48,0,0,0,0,0,0,0,0,0,-1,1014,1072,0,0
-203,-48,0,0,0,0,0,0,0,0,0,-1,1021,1072,0,0
-196,-48,0,0,0,0,0,0,0,0,0,-1,1028,1072,0,0
-189,-48,0,0,0,0,0,0,0,0,0,-1,1035,1072,0,0
-182,-48,0,0,0,0,0,0,0,0,0,-1,1042,1072,0,0
-175,-48,0,0,0,0,0,0,0,0,0,-1,1049,1072,0,0
-168,-48,0,0,0,0,0,0,0,0,0,-1,1056,1072,0,0
-161,-48,0,0,0,0,0,0,0,0,0,-1,1063,1072,0,0
-154,-48,0,0,0,0,0,0,0,0,0,-1,1070,1072,0,0
-147,-48,0,0,0,0,0,0,0,0,0,-1,1077,1072,0,0
-140,-48,0,0,0,0,0,0,0,0,0,-1,1084,1072,0,0
-133,-48,0,0,0,0,0,0,0,0,0,-1,1091,1072,0,0
-126,-48,0,0,0,0,0,0,0,0,0,-1,1098,1072,0,0
-119,-48,0,0,0,0,0,0,0,0,0,-1,1105,1072,0,0
-112,-48,0,0,0,0,0,0,0,0,0,-1,1112,1072,0,0
-105,-48,0,0,0,0,0,0,0,0,0,-1,1119,1072,0,0
-98,-48,0,0,0,0,0,0,0,0,0,-1,1126,1072,0,0
-91,-48,0,0,0,0,0,0,0,0,0,-1,1133,1072,0,0
-84,-48,0,0,0,0,0,0,0,0,0,-1,1140,1072,0,0
-77,-48,0,0,0,0,0,0,0,0,0,-1,1147,1072,0,0
-70,-48,0,0,0,0,0,0,0,0,0,-1,1154,1072,0,0
-63,-48,0,0,0,0,0,0,0,0,0,-1,1161,1072,0,0
-56,-48,0,0,0,0,0,0,0,0,0,-1,1168,1072,0,0
-49,-48,0,0,0,0,0,0,0,0,0,-1,1175,1072,0,0
-42,-48,0,0,0,0,0,0,0,0,0,-1,1182,1072,0,0
-35,-48,0,0,0,0,0,0,0,0,0,-1,1189,1072,0,0
-28,-48,0,0,0,0,0,0,0,0,0,-1,1196,1072,0,0
-21,-48,0,0,0,0,0,0,0,0,0,-1,1203,1072,0,0
-14,-48,0,0,0,0,0,0,0,0,0,-1,1210,1072,0,0
-7,-48,0,0,0,0,0,0,0,0,0,-1,1217,1072,0,0
0,-48,0,0,0,0,0,0,0,0,0,-1,1224,1072,0,0
7,-48,0,0,0,0,0,0,0,0,0,-1,1231,1072,0,0
14,-48,0,0,0,0,0,0,0,0,0,-1,1238,1072,0,0
21,-48,0,0,0,0,0,0,0,0,0,-1,1245,1072,0,0
28,-48,0,0,0,0,0,0,0,0,0,-1,1252,1072,0,0
35,-48,0,0,0,0,0,0,0,0,0,-1,1259,1072,0,0
42,-48,0,0,0,0,0,0,0,0,0,-1,1266,1072,0,0
49,-48,0,0,0,0,0,0,0,0,0,-1,1273,1072,0,0
56,-48,0,0,0,0,0,0,0,0,0,-1,1280,1072,0,0
63,-48,0,0,0,0,0,0,0,0,0,-1,1287,1072,0,0
70,-48,0,0,0,0,0,0,0,0,0,-1,1294,1072,0,0
77,-48,0,0,0,0,0,0,0,0,0,-1,1301,1072,0,0
84,-48,0,0,0,0,0,0,0,0,0,-1,1308,1072,0,0
91,-48,0,0,0,0,0,0,0,0,0,-1,1315,1072,0,0
98,-48,0,0,0,0,0,0,0,0,0,-1,1322,1072,0,0
105,-48,0,0,0,0,0,0,0,0,0,-1,1329,1072,0,0
112,-48,0,0,0,0,0,0,0,0,0,-1,1336,1072,0,0
119,-48,0,0,0,0,0,0,0,0,0,-1,1343,1072,0,0
126,-48,0,0,0,0,0,0,0,0,0,-1,1350,1072,0,0
133,-48,0,0,0,0,0,0,0,0,0,-1,1357,1072,0,0
140,-48,0,0,0,0,0,0,0,0,0,-1,1364,1072,0,0
147,-48,0,0,0,0,0,0,0,0,0,-1,1371,1072,0,0
154,-48,0,0,0,0,0,0,0,0,0,-1,1378,1072,0,0
161,-48,0,0,0,0,0,0,0,0,0,-1,1385,1072,0,0
168,-48,0,0,0,0,0,0,0,0,0,-1,1392,1072,0,0
175,-48,0,0,0,0,0,0,0,0,0,-1,1399,1072,0,0
182,-48,0,0,0,0,0,0,0,0,0,-1,1406,1072,0,0
189,-48,0,0,0,0,0,0,0,0,0,-1,1413,1072,0,0
196,-48,0,0,0,0,0,0,0,0,0,-1,1420,1072,0,0
203,-48,0,0,0,0,0,0,0,0,0,-1,1427,1072,0,0
210,-48,0,0,0,0,0,0,0,0,0,-1,1434,1072,0,0
217,-48,0,0,0,0,0,0,0,0,0,-1,1441,1072,0,0
224,-48,0,0,0,0,0,0,0,0,0,-1,1448,1072,0,0
231,-48,0,0,0,0,0,0,0,0,0,-1,1455,1072,0,0
238,-48,0,0,0,0,0,0,0,0,0,-1,1462,1072,0,0
245,-48,0,0,0,0,0,0,0,0,0,-1,1469,1072,0,0
252,-48,0,0,0,0,0,0,0,0,0,-1,1476,1072,0,0
259,-48,0,0,0,0,0,0,0,0,0,-1,1483,1072,0,0
266,-48,0,0,0,0,0,0,0,0,0,-1,1490,1072,0,0
273,-48,0,0,0,0,0,0,0,0,0,-1,1497,1072,0,0
280,-48,0,0,0,0,0,0,0,0,0,-1,1504,1072,0,0
287,-48,0,0,0,0,0,0,0,0,0,-1,1511,1072,0,0
294,-48,0,0,0,0,0,0,0,0,0,-1,1518,1072,0,0
301,-48,0,0,0,0,0,0,0,0,0,-1,1525,1072,0,0
308,-48,0,0,0,0,0,0,0,0,0,-1,1532,1072,0,0
315,-48,0,0,0,0,0,0,0,0,0,-1,1539,1072,0,0
322,-48,0,0,0,0,0,0,0,0,0,-1,1546,1072,0,0
329,-48,0,0,0,0,0,0,0,0,0,-1,1553,1072,0,0
336,-48,0,0,0,0,0,0,0,0,0,-1,1560,1072,0,0
343,-48,0,0,0,0,0,0,0,0,0,-1,1567,1072,0,0
350,-48,0,0,0,0,0,0,0,0,0,-1,1574,1072,0,0
357,-48,0,0,0,0,0,0,0,0,0,-1,1581,1072,0,0
364,-48,0,0,0,0,0,0,0,0,0,-1,1588,1072,0,0
371,-48,0,0,0,0,0,0,0,0,0,-1,1595,1072,0,0
378,-48,0,0,0,0,0,0,0,0,0,-1,1602,1072,0,0
385,-48,0,0,0,0,0,0,0,0,0,-1,1609,1072,0,0
392,-48,0,0,0,0,0,0,0,0,0,-1,1616,1072,0,0
399,-48,0,0,0,0,0,0,0,0,0,-1,1623,1072,0,0
406,-48,0,0,0,0,0,0,0,0,0,-1,1630,1072,0,0
413,-48,0,0,0,0,0,0,0,0,0,-1,1637,1072,0,0
420,-48,0,0,0,0,0,0,0,0,0,-1,1644,1072,0,0
427,-48,0,0,0,0,0,0,0,0,0,-1,1651,1072,0,0
434,-48,0,0,0,0,0,0,0,0,0,-1,1658,1072,0,0
441,-48,0,0,0,0,0,0,0,0,0,-1,1665,1072,0,0
448,-48,0,0,0,0,0,0,0,0,0,-1,1672,1072,0,0
455,-48,0,0,0,0,0,0,0,0,0,-1,1679,1072,0,0
462,-48,0,0,0,0,0,0,0,0,0,-1,1686,1072,0,0
469,-48,0,0,0,0,0,0,0,0,0,-1,1693,1072,0,0
476,-48,0,0,0,0,0,0,0,0,0,-1,1700,1072,0,0
483,-48,0,0,0,0,0,0,0,0,0,-1,1707,1072,0,0
490,-48,0,0,0,0,0,0,0,0,0,-1,1714,1072,0,0
497,-48,0,0,0,0,0,0,0,0,0,-1,1721,1072,0,0
504,-48,0,0,0,0,0,0,0,0,0,-1,1728,1072,0,0
511,-48,0,0,0,0,0,0,0,0,0,-1,1735,1072,0,0
518,-48,0,0,0,0,0,0,0,0,0,-1,1742,1072,0,0
525,-48,0,0,0,0,0,0,0,0,0,-1,1749,1072,0,0
532,-48,0,0,0,0,0,0,0,0,0,-1,1756,1072,0,0
539,-48,0,0,0,0,0,0,0,0,0,-1,1763,1072,0,0
546,-48,0,0,0,0,0,0,0,0,0,-1,1770,1072,0,0
553,-48,0,0,0,0,0,0,0,0,0,-1,1777,1072,0,0
560,-48,0,0,0,0,0,0,0,0,0,-1,1784,1072,0,0
567,-48,0,0,0,0,0,0,0,0,0,-1,1791,1072,0,0
574,-48,0,0,0,0,0,0,0,0,0,-1,1798,1072,0,0
581,-48,0,0,0,0,0,0,0,0,0,-1,1805,1072,0,0
588,-48,0,0,0,0,0,0,0,0,0,-1,1812,1072,0,0
595,-48,0,0,0,0,0,0,0,0,0,-1,1819,1072,0,0
602,-48,0,0,0,0,0,0,0,0,0,-1,1826,1072,0,0
609,-48,0,0,0,0,0,0,0,0,0,-1,1833,1072,0,0
616,-48,0,0,0,0,0,0,0,0,0,-1,1840,1072,0,0
623,-48,0,0,0,0,0,0,0,0,0,-1,1847,1072,0,0
630,-48,0,0,0,0,0,0,0,0,0,-1,1854,1072,0,0
637,-48,0,0,0,0,0,0,0,0,0,-1,1861,1072,0,0
644,-48,0,0,0,0,0,0,0,0,0,-1,1868,1072,0,0
651,-48,29.1555,2.45752,0.000850401,0.000690891,0.00173629,0.00250877,-0.000967476,0.762447,0.00207172,0.0334281,1875,1072,29.1555,-2.45753
658,-48,29.0172,2.62891,0.000641326,0.00112618,0.00129065,0.00219698,-0.000429468,0.878233,0.00162681,0.0402106,1882,1072,29.0172,-2.62891
665,-48,29.0375,2.74866,0.000473543,0.00134743,0.000826386,0.00184528,-2.43036e-05,1.02859,0.00123837,0.0446092,1889,1072,29.0374,-2.74869
672,-48,29.2491,2.75122,0.000321273,0.00145141,0.000736949,0.001815,-4.23103e-05,1.11247,0.00122434,0.0422153,1896,1072,29.2492,-2.75121
679,-48,29.2084,2.63818,-7.07853e-05,0.00116777,0.00112591,0.00183348,-0.000736488,1.03683,0.00152816,0.0390312,1903,1072,29.2084,-2.63823
686,-48,29.0461,2.57507,-0.000550322,0.000646719,0.00164713,0.00180071,-0.00170431,0.959666,0.00202388,0.0382253,1910,1072,29.0461,-2.57513
693,-48,28.8907,2.67102,-0.00091506,5.26468e-05,0.00218454,0.00180628,-0.00266869,0.894384,0.00259957,0.0391899,1917,1072,28.8907,-2.67102
700,-48,29.0321,2.755,-0.00118314,-0.0004474,0.00267048,0.00188043,-0.00351097,0.853845,0.00315982,0.0355866,1924,1072,29.0321,-2.75497
707,-48,29.1661,2.59302,-0.00134216,-0.000802307,0.00297832,0.0019183,-0.00406276,0.83059,0.00352638,0.0260806,1931,1072,29.1662,-2.59307
714,-48,29.1697,2.60242,-0.00161093,-0.00102089,0.00321025,0.00190787,-0.00453969,0.83122,0.00382447,0.0275276,1938,1072,29.1697,-2.60238
721,-48,29.1777,2.6803,0,0,0,0,0,0,0,-1,1945,1072,29.1778,-2.68033
728,-48,28.6289,4.71741,0,0,0,0,0,0,0,-1,1952,1072,28.6289,-4.71743
735,-48,28.5597,4.65796,-0.00239791,-0.000678387,0.00333243,0.00190341,-0.00497971,0.911644,0.00410414,0.0180695,1959,1072,28.5596,-4.65793
742,-48,28.494,4.56226,-0.00223436,-0.000122038,0.00303859,0.00203871,-0.00439511,0.952658,0.0037967,0.0148345,1966,1072,28.494,-4.56221
749,-48,28.5348,4.47534,-0.00241727,0.00146921,0.00273521,0.0028812,-0.00382926,1.09425,0.00388715,0.0134984,1973,1072,28.5347,-4.47531
756,-48,28.5288,4.41162,-0.00276048,0.00375835,0.00215909,0.0044086,-0.00341073,1.27827,0.00452673,0.0119865,1980,1072,28.5288,-4.41165
763,-48,28.4977,4.33374,-0.00265206,0.00663062,0.00111528,0.00676274,-0.00278417,1.45289,0.00566921,0.0118183,1987,1072,28.4977,-4.33377
770,-48,28.5039,4.25708,-0.00255773,0.0105037,-0.000155081,0.0105055,-0.00255958,-1.55893,0.00799465,0.0130479,1994,1072,28.5039,-4.25702
777,-48,28.4492,4.16895,-0.00232748,0.0156944,-0.00160332,0.0158359,-0.002469,-1.48275,0.0114692,0.0112776,2001,1072,28.4492,-4.16895
784,-48,28.3577,4.07324,-0.00217032,0.0214289,-0.00292933,0.021787,-0.00252849,-1.44913,0.0154367,0.0226481,2008,1072,28.3576,-4.07322
791,-48,28.5143,3.63477,-0.00198718,0.0281025,-0.00455346,0.0287765,-0.00266116,-1.42385,0.0201301,0.0393316,2015,1072,28.5143,-3.6348
798,-48,28.6245,2.89575,-0.00154349,0.0359687,-0.00674128,0.0371434,-0.00271817,-1.39828,0.0257162,0.0465597,2022,1072,28.6246,-2.89571
805,-48,28.0305,3.13416,-0.000646267,0.0451019,-0.00967296,0.0470631,-0.00260744,-1.37076,0.0322797,0.0449281,2029,1072,28.0305,-3.13419
812,-48,27.8923,3.0437,0.000727822,0.0554232,-0.0135772,0.0586081,-0.00245703,-1.34039,0.0399163,0.0437497,2036,1072,27.8924,-3.0437
-700,-55,-23.7901,-3.63379,0,0,0,0,0,0,0,-1,524,1079,-23.7901,3.63382
-693,-55,-21.7804,-1.39453,0,0,0,0,0,0,0,-1,531,1079,-21.7804,1.3945
-686,-55,-21.0555,-0.986816,0,0,0,0,0,0,0,-1,538,1079,-21.0555,0.986873
-679,-55,-20.2613,-0.572388,0.0910128,0.0177265,0.00761194,0.0917951,0.0169442,0.102409,0.0564035,0.044996,545,1079,-20.2613,0.572424
-672,-55,-19.4966,-0.0394287,0.0650796,0.0144159,0.00815443,0.0663598,0.0131358,0.155715,0.0405763,0.0443034,552,1079,-19.4966,0.0394214
-665,-55,-19.4765,0.402832,0.0452906,0.0116362,0.00803125,0.0471089,0.0098179,0.222653,0.0286987,0.0475347,559,1079,-19.4765,-0.402834
-658,-55,-19.9227,0.623535,0,0,0,0,0,0,0,-1,566,1079,-19.9227,-0.623514
-651,-55,-19.9333,1.04688,0.0198443,0.00729292,0.0064467,0.0225655,0.0045717,0.39942,0.013775,0.0379174,573,1079,-19.9333,-1.04685
-644,-55,-19.934,1.46338,0.0120847,0.00552827,0.00523917,0.0149867,0.00262623,0.505842,0.009241,0.0184082,580,1079,-19.934,-1.4634
-637,-55,-19.9454,1.55603,0.0064804,0.00389659,0.00272707,0.0082061,0.00217089,0.564192,0.00490977,0.0150289,587,1079,-19.9455,-1.55605
-630,-55,-19.9127,1.71448,0.00198277,0.00228263,-0.000178579,0.00236587,0.00189953,-1.1346,0.00144707,0.0171181,594,1079,-19.9126,-1.7145
-623,-55,-19.9509,1.8689,-0.00138547,0.000939787,-0.00283672,0.00284289,-0.00328857,-0.979882,0.00354312,0.0153452,601,1079,-19.9509,-1.86892
-616,-55,-19.9615,1.96423,-0.00275086,0.000115921,-0.00523629,0.00411147,-0.00674641,-0.918996,0.00633003,0.0129607,608,1079,-19.9615,-1.96418
-609,-55,-19.9488,2.09961,-0.00296334,-0.000481153,-0.0071697,0.00555407,-0.00899857,-0.8711,0.00848006,0.0131868,615,1079,-19.9488,-2.09959
-602,-55,-19.9371,2.2179,-0.00318768,-0.000796493,-0.00917412,0.00725961,-0.0112438,-0.850194,0.0107652,0.0134449,622,1079,-19.9371,-2.21788
-595,-55,-19.8301,2.37671,0,0,0,0,0,0,0,-1,629,1079,-19.8301,-2.37674
-588,-55,-19.9979,1.52673,-0.00362867,-0.00138884,-0.0107857,0.00833492,-0.0133524,-0.837129,0.0126324,0.0393916,636,1079,-19.9979,-1.52678
-581,-55,-20.393,0.702148,-0.00346776,-0.00151908,-0.0105729,0.00812425,-0.0131111,-0.831346,0.0123724,0.0453992,643,1079,-20.393,-0.702103
-574,-55,-20.3479,0.65332,-0.00318677,-0.00137755,-0.00988214,0.00764129,-0.0122056,-0.831041,0.0115592,0.0418311,650,1079,-20.3479,-0.65331
-567,-55,-20.2792,0.479736,-0.00265804,-0.00106535,-0.0083003,0.00647671,-0.0102001,-0.833223,0.00970803,0.039853,657,1079,-20.2792,-0.47976
-560,-55,-20.2826,0.678833,-0.00181996,-0.000631372,-0.00574865,0.00455362,-0.00700496,-0.836905,0.00672319,0.0410554,664,1079,-20.2826,-0.678788
-553,-55,-20.2812,0.687988,-0.000676094,-0.000182199,-0.00222645,0.00181095,-0.00266925,-0.84063,0.00260242,0.0424654,671,1079,-20.2812,-0.688005
-546,-55,-20.3361,0.687134,0.000759913,0.000121466,0.00222696,0.00269042,-0.00180904,0.714211,0.00261432,0.0402747,678,1079,-20.336,-0.687089
-539,-55,-20.3762,0.65979,0.00208487,0.000172579,0.00631372,0.00751443,-0.00525698,0.71025,0.00741187,0.038064,685,1079,-20.3761,-0.659847
-532,-55,-20.4446,0.379517,0,0,0,0,0,0,0,-1,692,1079,-20.4446,-0.379559
-525,-55,0,0,0,0,0,0,0,0,0,-1,699,1079,0,0
-518,-55,0,0,0,0,0,0,0,0,0,-1,706,1079,0,0
-511,-55,0,0,0,0,0,0,0,0,0,-1,713,1079,0,0
-504,-55,0,0,0,0,0,0,0,0,0,-1,720,1079,0,0
-497,-55,0,0,0,0,0,0,0,0,0,-1,727,1079,0,0
-490,-55,0,0,0,0,0,0,0,0,0,-1,734,1079,0,0
-483,-55,0,0,0,0,0,0,0,0,0,-1,741,1079,0,0
-476,-55,0,0,0,0,0,0,0,0,0,-1,748,1079,0,0
-469,-55,0,0,0,0,0,0,0,0,0,-1,755,1079,0,0
-462,-55,0,0,0,0,0,0,0,0,0,-1,762,1079,0,0
-455,-55,0,0,0,0,0,0,0,0,0,-1,769,1079,0,0
-448,-55,0,0,0,0,0,0,0,0,0,-1,776,1079,0,0
-441,-55,0,0,0,0,0,0,0,0,0,-1,783,1079,0,0
-434,-55,0,0,0,0,0,0,0,0,0,-1,790,1079,0,0
-427,-55,0,0,0,0,0,0,0,0,0,-1,797,1079,0,0
-420,-55,0,0,0,0,0,0,0,0,0,-1,804,1079,0,0
-413,-55,0,0,0,0,0,0,0,0,0,-1,811,1079,0,0
-406,-55,0,0,0,0,0,0,0,0,0,-1,818,1079,0,0
-399,-55,0,0,0,0,0,0,0,0,0,-1,825,1079,0,0
-392,-55,0,0,0,0,0,0,0,0,0,-1,832,1079,0,0
-385,-55,0,0,0,0,0,0,0,0,0,-1,839,1079,0,0
-378,-55,0,0,0,0,0,0,0,0,0,-1,846,1079,0,0
-371,-55,0,0,0,0,0,0,0,0,0,-1,853,1079,0,0
-364,-55,0,0,0,0,0,0,0,0,0,-1,860,1079,0,0
-357,-55,0,0,0,0,0,0,0,0,0,-1,867,1079,0,0
-350,-55,0,0,0,0,0,0,0,0,0,-1,874,1079,0,0
-343,-55,0,0,0,0,0,0,0,0,0,-1,881,1079,0,0
-336,-55,0,0,0,0,0,0,0,0,0,-1,888,1079,0,0
-329,-55,0,0,0,0,0,0,0,0,0,-1,895,1079,0,0
-322,-55,0,0,0,0,0,0,0,0,0,-1,902,1079,0,0
-315,-55,0,0,0,0,0,0,0,0,0,-1,909,1079,0,0
-308,-55,0,0,0,0,0,0,0,0,0,-1,916,1079,0,0
-301,-55,0,0,0,0,0,0,0,0,0,-1,923,1079,0,0
-294,-55,0,0,0,0,0,0,0,0,0,-1,930,1079,0,0
-287,-55,0,0,0,0,0,0,0,0,0,-1,937,1079,0,0
-280,-55,0,0,0,0,0,0,0,0,0,-1,944,1079,0,0
-273,-55,0,0,0,0,0,0,0,0,0,-1,951,1079,0,0
-266,-55,0,0,0,0,0,0,0,0,0,-1,958,1079,0,0
-259,-55,0,0,0,0,0,0,0,0,0,-1,965,1079,0,0
-252,-55,0,0,0,0,0,0,0,0,0,-1,972,1079,0,0
-245,-55,0,0,0,0,0,0,0,0,0,-1,979,1079,0,0
-238,-55,0,0,0,0,0,0,0,0,0,-1,986,1079,0,0
-231,-55,0,0,0,0,0,0,0,0,0,-1,993,1079,0,0
-224,-55,0,0,0,0,0,0,0,0,0,-1,1000,1079,0,0
-217,-55,0,0,0,0,0,0,0,0,0,-1,1007,1079,0,0
-210,-55,0,0,0,0,0,0,0,0,0,-1,1014,1079,0,0
-203,-55,0,0,0,0,0,0,0,0,0,-1,1021,1079,0,0
-196,-55,0,0,0,0,0,0,0,0,0,-1,1028,1079,0,0
-189,-55,0,0,0,0,0,0,0,0,0,-1,1035,1079,0,0
-182,-55,0,0,0,0,0,0,0,0,0,-1,1042,1079,0,0
-175,-55,0,0,0,0,0,0,0,0,0,-1,1049,1079,0,0
-168,-55,0,0,0,0,0,0,0,0,0,-1,1056,1079,0,0
-161,-55,0,0,0,0,0,0,0,0,0,-1,1063,1079,0,0
-154,-55,0,0,0,0,0,0,0,0,0,-1,1070,1079,0,0
-147,-55,0,0,0,0,0,0,0,0,0,-1,1077,1079,0,0
-140,-55,0,0,0,0,0,0,0,0,0,-1,1084,1079,0,0
-133,-55,0,0,0,0,0,0,0,0,0,-1,1091,1079,0,0
-126,-55,0,0,0,0,0,0,0,0,0,-1,1098,1079,0,0
-119,-55,0,0,0,0,0,0,0,0,0,-1,1105,1079,0,0
-112,-55,0,0,0,0,0,0,0,0,0,-1,1112,1079,0,0
-105,-55,0,0,0,0,0,0,0,0,0,-1,1119,1079,0,0
-98,-55,0,0,0,0,0,0,0,0,0,-1,1126,1079,0,0
-91,-55,0,0,0,0,0,0,0,0,0,-1,1133,1079,0,0
-84,-55,0,0,0,0,0,0,0,0,0,-1,1140,1079,0,0
-77,-55,0,0,0,0,0,0,0,0,0,-1,1147,1079,0,0
-70,-55,0,0,0,0,0,0,0,0,0,-1,1154,1079,0,0
-63,-55,0,0,0,0,0,0,0,0,0,-1,1161,1079,0,0
-56,-55,0,0,0,0,0,0,0,0,0,-1,1168,1079,0,0
-49,-55,0,0,0,0,0,0,0,0,0,-1,1175,1079,0,0
-42,-55,0,0,0,0,0,0,0,0,0,-1,1182,1079,0,0
-35,-55,0,0,0,0,0,0,0,0,0,-1,1189,1079,0,0
-28,-55,0,0,0,0,0,0,0,0,0,-1,1196,1079,0,0
-21,-55,0,0,0,0,0,0,0,0,0,-1,1203,1079,0,0
-14,-55,0,0,0,0,0,0,0,0,0,-1,1210,1079,0,0
-7,-55,0,0,0,0,0,0,0,0,0,-1,1217,1079,0,0
0,-55,0,0,0,0,0,0,0,0,0,-1,1224,1079,0,0
7,-55,0,0,0,0,0,0,0,0,0,-1,1231,1079,0,0
14,-55,0,0,0,0,0,0,0,0,0,-1,1238,1079,0,0
21,-55,0,0,0,0,0,0,0,0,0,-1,1245,1079,0,0
28,-55,0,0,0,0,0,0,0,0,0,-1,1252,1079,0,0
35,-55,0,0,0,0,0,0,0,0,0,-1,1259,1079,0,0
42,-55,0,0,0,0,0,0,0,0,0,-1,1266,1079,0,0
49,-55,0,0,0,0,0,0,0,0,0,-1,1273,1079,0,0
56,-55,0,0,0,0,0,0,0,0,0,-1,1280,1079,0,0
63,-55,0,0,0,0,0,0,0,0,0,-1,1287,1079,0,0
70,-55,0,0,0,0,0,0,0,0,0,-1,1294,1079,0,0
77,-55,0,0,0,0,0,0,0,0,0,-1,1301,1079,0,0
84,-55,0,0,0,0,0,0,0,0,0,-1,1308,1079,0,0
91,-55,0,0,0,0,0,0,0,0,0,-1,1315,1079,0,0
98,-55,0,0,0,0,0,0,0,0,0,-1,1322,1079,0,0
105,-55,0,0,0,0,0,0,0,0,0,-1,1329,1079,0,0
112,-55,0,0,0,0,0,0,0,0,0,-1,1336,1079,0,0
119,-55,0,0,0,0,0,0,0,0,0,-1,1343,1079,0,0
126,-55,0,0,0,0,0,0,0,0,0,-1,1350,1079,0,0
133,-55,0,0,0,0,0,0,0,0,0,-1,1357,1079,0,0
140,-55,0,0,0,0,0,0,0,0,0,-1,1364,1079,0,0
147,-55,0,0,0,0,0,0,0,0,0,-1,1371,1079,0,0
154,-55,0,0,0,0,0,0,0,0,0,-1,1378,1079,0,0
161,-55,0,0,0,0,0,0,0,0,0,-1,1385,1079,0,0
168,-55,0,0,0,0,0,0,0,0,0,-1,1392,1079,0,0
175,-55,0,0,0,0,0,0,0,0,0,-1,1399,1079,0,0
182,-55,0,0,0,0,0,0,0,0,0,-1,1406,1079,0,0
189,-55,0,0,0,0,0,0,0,0,0,-1,1413,1079,0,0
196,-55,0,0,0,0,0,0,0,0,0,-1,1420,1079,0,0
203,-55,0,0,0,0,0,0,0,0,0,-1,1427,1079,0,0
210,-55,0,0,0,0,0,0,0,0,0,-1,1434,1079,0,0
217,-55,0,0,0,0,0,0,0,0,0,-1,1441,1079,0,0
224,-55,0,0,0,0,0,0,0,0,0,-1,1448,1079,0,0
231,-55,0,0,0,0,0,0,0,0,0,-1,1455,1079,0,0
238,-55,0,0,0,0,0,0,0,0,0,-1,1462,1079,0,0
245,-55,0,0,0,0,0,0,0,0,0,-1,1469,1079,0,0
252,-55,0,0,0,0,0,0,0,0,0,-1,1476,1079,0,0
259,-55,0,0,0,0,0,0,0,0,0,-1,1483,1079,0,0
266,-55,0,0,0,0,0,0,0,0,0,-1,1490,1079,0,0
273,-55,0,0,0,0,0,0,0,0,0,-1,1497,1079,0,0
280,-55,0,0,0,0,0,0,0,0,0,-1,1504,1079,0,0
287,-55,0,0,0,0,0,0,0,0,0,-1,1511,1079,0,0
294,-55,0,0,0,0,0,0,0,0,0,-1,1518,1079,0,0
301,-55,0,0,0,0,0,0,0,0,0,-1,1525,1079,0,0
308,-55,0,0,0,0,0,0,0,0,0,-1,1532,1079,0,0
315,-55,0,0,0,0,0,0,0,0,0,-1,1539,1079,0,0
322,-55,0,0,0,0,0,0,0,0,0,-1,1546,1079,0,0
329,-55,0,0,0,0,0,0,0,0,0,-1,1553,1079,0,0
336,-55,0,0,0,0,0,0,0,0,0,-1,1560,1079,0,0
343,-55,0,0,0,0,0,0,0,0,0,-1,1567,1079,0,0
350,-55,0,0,0,0,0,0,0,0,0,-1,1574,1079,0,0
357,-55,0,0,0,0,0,0,0,0,0,-1,1581,1079,0,0
364,-55,0,0,0,0,0,0,0,0,0,-1,1588,1079,0,0
371,-55,0,0,0,0,0,0,0,0,0,-1,1595,1079,0,0
378,-55,0,0,0,0,0,0,0,0,0,-1,1602,1079,0,0
385,-55,0,0,0,0,0,0,0,0,0,-1,1609,1079,0,0
392,-55,0,0,0,0,0,0,0,0,0,-1,1616,1079,0,0
399,-55,0,0,0,0,0,0,0,0,0,-1,1623,1079,0,0
406,-55,0,0,0,0,0,0,0,0,0,-1,1630,1079,0,0
413,-55,0,0,0,0,0,0,0,0,0,-1,1637,1079,0,0
420,-55,0,0,0,0,0,0,0,0,0,-1,1644,1079,0,0
427,-55,0,0,0,0,0,0,0,0,0,-1,1651,1079,0,0
434,-55,0,0,0,0,0,0,0,0,0,-1,1658,1079,0,0
441,-55,0,0,0,0,0,0,0,0,0,-1,1665,1079,0,0
448,-55,0,0,0,0,0,0,0,0,0,-1,1672,1079,0,0
455,-55,0,0,0,0,0,0,0,0,0,-1,1679,1079,0,0
462,-55,0,0,0,0,0,0,0,0,0,-1,1686,1079,0,0
469,-55,0,0,0,0,0,0,0,0,0,-1,1693,1079,0,0
476,-55,0,0,0,0,0,0,0,0,0,-1,1700,1079,0,0
483,-55,0,0,0,0,0,0,0,0,0,-1,1707,1079,0,0
490,-55,0,0,0,0,0,0,0,0,0,-1,1714,1079,0,0
497,-55,0,0,0,0,0,0,0,0,0,-1,1721,1079,0,0
504,-55,0,0,0,0,0,0,0,0,0,-1,1728,1079,0,0
511,-55,0,0,0,0,0,0,0,0,0,-1,1735,1079,0,0
518,-55,0,0,0,0,0,0,0,0,0,-1,1742,1079,0,0
525,-55,0,0,0,0,0,0,0,0,0,-1,1749,1079,0,0
532,-55,0,0,0,0,0,0,0,0,0,-1,1756,1079,0,0
539,-55,0,0,0,0,0,0,0,0,0,-1,1763,1079,0,0
546,-55,0,0,0,0,0,0,0,0,0,-1,1770,1079,0,0
553,-55,0,0,0,0,0,0,0,0,0,-1,1777,1079,0,0
560,-55,0,0,0,0,0,0,0,0,0,-1,1784,1079,0,0
567,-55,0,0,0,0,0,0,0,0,0,-1,1791,1079,0,0
574,-55,0,0,0,0,0,0,0,0,0,-1,1798,1079,0,0
581,-55,0,0,0,0,0,0,0,0,0,-1,1805,1079,0,0
588,-55,0,0,0,0,0,0,0,0,0,-1,1812,1079,0,0
595,-55,0,0,0,0,0,0,0,0,0,-1,1819,1079,0,0
602,-55,0,0,0,0,0,0,0,0,0,-1,1826,1079,0,0
609,-55,0,0,0,0,0,0,0,0,0,-1,1833,1079,0,0
616,-55,0,0,0,0,0,0,0,0,0,-1,1840,1079,0,0
623,-55,0,0,0,0,0,0,0,0,0,-1,1847,1079,0,0
630,-55,0,0,0,0,0,0,0,0,0,-1,1854,1079,0,0
637,-55,0,0,0,0,0,0,0,0,0,-1,1861,1079,0,0
644,-55,0,0,0,0,0,0,0,0,0,-1,1868,1079,0,0
651,-55,29.1525,2.56702,0.0018122,-0.000101111,0.00175807,0.00285705,-0.00114596,0.536228,0.00238048,0.0348359,1875,1079,29.1525,-2.56702
658,-55,29.1868,2.62561,0.00133765,0.000563521,0.0013874,0.00239097,-0.000489792,0.649364,0.00177985,0.0360549,1882,1079,29.1868,-2.62564
665,-55,29.132,2.60791,0.00104195,0.000981011,0.000950056,0.00196203,6.09377e-05,0.769367,0.00128819,0.0411703,1889,1079,29.132,-2.60794
672,-55,29.3414,2.64746,0.000680748,0.00117653,0.000968579,0.00192844,-7.11586e-05,0.910675,0.00130999,0.041644,1896,1079,29.3414,-2.64751
679,-55,29.3762,2.60767,-1.13091e-05,0.000942316,0.00152031,0.00205883,-0.00112782,0.937354,0.00186581,0.0368395,1903,1079,29.3762,-2.60767
686,-55,29.21,2.57178,-0.000761249,0.000442033,0.0021715,0.0020937,-0.00241291,0.920539,0.00260407,0.035892,1910,1079,29.2099,-2.57181
693,-55,29.0089,2.6814,-0.00134683,-0.000152522,0.00280366,0.00211687,-0.00361623,0.890326,0.00334752,0.0371712,1917,1079,29.0089,-2.68137
700,-55,29.0477,2.65283,-0.0017967,-0.000656897,0.00335278,0.00217408,-0.00462768,0.869583,0.00401126,0.0320949,1924,1079,29.0477,-2.65281
707,-55,29.1722,2.57568,-0.00209122,-0.00103052,0.00369614,0.00217312,-0.00529486,0.856656,0.00443543,0.0229781,1931,1079,29.1722,-2.5757
714,-55,29.1735,2.6532,-0.00243477,-0.00127372,0.00394057,0.00212885,-0.00583735,0.858532,0.00476252,0.0332606,1938,1079,29.1735,-2.65321
721,-55,29.2103,2.79285,0,0,0,0,0,0,0,-1,1945,1079,29.2104,-2.79286
728,-55,28.5073,4.76648,0,0,0,0,0,0,0,-1,1952,1079,28.5073,-4.76646
735,-55,28.4288,4.66394,-0.00323299,-0.00101812,0.00395219,0.00197886,-0.00622997,0.921999,0.00494668,0.0170935,1959,1079,28.4288,-4.66396
742,-55,28.4244,4.55981,-0.00307106,-0.000561625,0.00349954,0.00190133,-0.00553402,0.957529,0.00446032,0.0164169,1966,1079,28.4245,-4.55986
749,-55,28.4652,4.45361,-0.00315566,0.000878355,0.00307561,0.00253935,-0.00481666,1.07562,0.0043143,0.0125902,1973,1079,28.4652,-4.45367
756,-55,28.4288,4.38696,-0.0034164,0.00300943,0.00240653,0.00381076,-0.00421773,1.24936,0.00463724,0.0110223,1980,1079,28.4288,-4.38693
763,-55,28.3959,4.3291,-0.00325399,0.0056155,0.00123459,0.00578414,-0.00342263,1.43504,0.0053735,0.0133547,1987,1079,28.3959,-4.3291
770,-55,28.3958,4.22595,-0.00306255,0.00906613,-0.000178557,0.00906875,-0.00306518,-1.55608,0.00728576,0.0148396,1994,1079,28.3958,-4.22591
777,-55,28.3615,4.14038,-0.00281167,0.013624,-0.00169271,0.0137965,-0.00298419,-1.46923,0.010337,0.0121994,2001,1079,28.3615,-4.1404
784,-55,28.2864,4.06848,-0.00273769,0.0185925,-0.00298414,0.0190022,-0.00314731,-1.43438,0.013837,0.0273283,2008,1079,28.2864,-4.06847
791,-55,28.182,3.90161,-0.00267342,0.0244093,-0.00449924,0.0251372,-0.00340131,-1.4104,0.0179993,0.0426182,2015,1079,28.182,-3.90165
798,-55,28.1147,3.64063,0,0,0,0,0,0,0,-1,2022,1079,28.1147,-3.64064
805,-55,28.3157,3.42139,-0.00152762,0.0393482,-0.00908237,0.0412754,-0.00345482,-1.36171,0.0287378,0.0465451,2029,1079,28.3156,-3.42134
812,-55,28.5039,3.59814,-0.000197916,0.0485559,-0.012434,0.051544,-0.00318592,-1.33496,0.0354723,0.0447045,2036,1079,28.5038,-3.59814
-700,-62,-23.1146,-3.61719,0,0,0,0,0,0,0,-1,524,1086,-23.1146,3.61721
-693,-62,-22.6837,-2.64258,0,0,0,0,0,0,0,-1,531,1086,-22.6836,2.64253
-686,-62,-21.2846,-0.881104,0,0,0,0,0,0,0,-1,538,1086,-21.2846,0.881084
-679,-62,-20.4067,-0.387573,0.104997,0.0175688,0.00576918,0.105376,0.0171898,0.0656085,0.0652796,0.0456585,545,1086,-20.4067,0.3876
-672,-62,-19.2679,0.126343,0.0755836,0.0140811,0.00682857,0.0763326,0.013332,0.109256,0.0470779,0.0431994,552,1086,-19.2679,-0.126401
-665,-62,-18.6874,0.193604,0.0528993,0.0112951,0.00708318,0.0540722,0.0101222,0.164095,0.0331926,0.0453094,559,1086,-18.6874,-0.19361
-658,-62,-19.6553,0.23584,0.0358392,0.0090145,0.00674095,0.0374379,0.0074158,0.23286,0.0228906,0.0493087,566,1086,-19.6553,-0.235899
-651,-62,-19.8447,1.02698,0.0234342,0.00708977,0.00599923,0.0253998,0.00512414,0.316624,0.0155099,0.0379017,573,1086,-19.8447,-1.02693
-644,-62,-19.8056,1.38843,0.0144139,0.00539574,0.00497864,0.0166219,0.00318777,0.417425,0.0101863,0.0123286,580,1086,-19.8056,-1.38847
-637,-62,-19.803,1.54102,0.00789064,0.00373448,0.00267764,0.00920198,0.00242314,0.455403,0.00550759,0.0111012,587,1086,-19.803,-1.54098
-630,-62,-19.8228,1.70532,0.00260015,0.0021812,-0.000136385,0.00264063,0.00214071,-0.288568,0.00161971,0.0132316,594,1086,-19.8227,-1.70527
-623,-62,-19.8359,1.86694,-0.0013311,0.000859837,-0.00273621,0.00271173,-0.00318299,-0.975806,0.00340694,0.0142571,601,1086,-19.836,-1.86689
-616,-62,-19.8328,1.99133,-0.00288684,-1.45627e-05,-0.00509262,0.00384054,-0.00674195,-0.922831,0.00618588,0.0130974,608,1086,-19.8328,-1.99133
-609,-62,-19.8249,2.13342,-0.00322595,-0.000632558,-0.00694112,0.00513195,-0.00899045,-0.877741,0.00825439,0.0134134,615,1086,-19.8249,-2.13345
-602,-62,-19.7842,2.25256,-0.00356348,-0.000967436,-0.008875,0.00670396,-0.0112349,-0.858011,0.0104665,0.014853,622,1086,-19.7842,-2.25258
-595,-62,-19.6332,2.50354,0,0,0,0,0,0,0,-1,629,1086,-19.6332,-2.50357
-588,-62,-19.9094,1.76758,-0.0040831,-0.00159312,-0.0104957,0.00773114,-0.0134074,-0.844432,0.0123501,0.0379174,636,1086,-19.9094,-1.76761
-581,-62,-20.4046,0.99292,-0.00389404,-0.00170989,-0.0102998,0.00755561,-0.0131595,-0.838215,0.0121049,0.0442139,643,1086,-20.4046,-0.992907
-574,-62,-20.4175,0.695923,-0.00353781,-0.00156661,-0.00965675,0.0071547,-0.0122591,-0.836254,0.011337,0.0348895,650,1086,-20.4175,-0.695973
-567,-62,-20.397,0.474609,-0.00289989,-0.00125489,-0.00817304,0.00613693,-0.0102917,-0.835547,0.00958566,0.0375865,657,1086,-20.397,-0.474649
-560,-62,-20.3238,0.466187,-0.0019013,-0.000800997,-0.00575436,0.00442945,-0.00713175,-0.833056,0.00673537,0.0414418,664,1086,-20.3238,-0.466228
-553,-62,-20.3038,0.643188,-0.000546619,-0.000290218,-0.00238047,0.0019655,-0.00280234,-0.8123,0.00276681,0.0399786,671,1086,-20.3038,-0.643151
-546,-62,-20.3284,0.692993,0.00117828,0.000137532,0.001937,0.00266359,-0.00134778,0.654172,0.00235713,0.0331529,678,1086,-20.3284,-0.692947
-539,-62,-20.2797,0.777954,0.00281562,0.000349856,0.00601142,0.00771928,-0.00455381,0.684256,0.007164,0.0357906,685,1086,-20.2797,-0.778013
-532,-62,-20.2712,0.645142,0.00285776,-0.000394371,0.00695108,0.00837043,-0.00590704,0.670499,0.0082839,0.0410245,692,1086,-20.2713,-0.645157
-525,-62,0,0,0,0,0,0,0,0,0,-1,699,1086,0,0
-518,-62,0,0,0,0,0,0,0,0,0,-1,706,1086,0,0
-511,-62,0,0,0,0,0,0,0,0,0,-1,713,1086,0,0
-504,-62,0,0,0,0,0,0,0,0,0,-1,720,1086,0,0
-497,-62,0,0,0,0,0,0,0,0,0,-1,727,1086,0,0
-490,-62,0,0,0,0,0,0,0,0,0,-1,734,1086,0,0
-483,-62,0,0,0,0,0,0,0,0,0,-1,741,1086,0,0
-476,-62,0,0,0,0,0,0,0,0,0,-1,748,1086,0,0
-469,-62,0,0,0,0,0,0,0,0,0,-1,755,1086,0,0
-462,-62,0,0,0,0,0,0,0,0,0,-1,762,1086,0,0
-455,-62,0,0,0,0,0,0,0,0,0,-1,769,1086,0,0
-448,-62,0,0,0,0,0,0,0,0,0,-1,776,1086,0,0
-441,-62,0,0,0,0,0,0,0,0,0,-1,783,1086,0,0
-434,-62,0,0,0,0,0,0,0,0,0,-1,790,1086,0,0
-427,-62,0,0,0,0,0,0,0,0,0,-1,797,1086,0,0
-420,-62,0,0,0,0,0,0,0,0,0,-1,804,1086,0,0
-413,-62,0,0,0,0,0,0,0,0,0,-1,811,1086,0,0
-406,-62,0,0,0,0,0,0,0,0,0,-1,818,1086,0,0
-399,-62,0,0,0,0,0,0,0,0,0,-1,825,1086,0,0
-392,-62,0,0,0,0,0,0,0,0,0,-1,832,1086,0,0
-385,-62,0,0,0,0,0,0,0,0,0,-1,839,1086,0,0
-378,-62,0,0,0,0,0,0,0,0,0,-1,846,1086,0,0
-371,-62,0,0,0,0,0,0,0,0,0,-1,853,1086,0,0
-364,-62,0,0,0,0,0,0,0,0,0,-1,860,1086,0,0
-357,-62,0,0,0,0,0,0,0,0,0,-1,867,1086,0,0
-350,-62,0,0,0,0,0,0,0,0,0,-1,874,1086,0,0
-343,-62,0,0,0,0,0,0,0,0,0,-1,881,1086,0,0
-336,-62,0,0,0,0,0,0,0,0,0,-1,888,1086,0,0
-329,-62,0,0,0,0,0,0,0,0,0,-1,895,1086,0,0
-322,-62,0,0,0,0,0,0,0,0,0,-1,902,1086,0,0
-315,-62,0,0,0,0,0,0,0,0,0,-1,909,1086,0,0
-308,-62,0,0,0,0,0,0,0,0,0,-1,916,1086,0,0
-301,-62,0,0,0,0,0,0,0,0,0,-1,923,1086,0,0
-294,-62,0,0,0,0,0,0,0,0,0,-1,930,1086,0,0
-287,-62,0,0,0,0,0,0,0,0,0,-1,937,1086,0,0
-280,-62,0,0,0,0,0,0,0,0,0,-1,944,1086,0,0
-273,-62,0,0,0,0,0,0,0,0,0,-1,951,1086,0,0
-266,-62,0,0,0,0,0,0,0,0,0,-1,958,1086,0,0
-259,-62,0,0,0,0,0,0,0,0,0,-1,965,1086,0,0
-252,-62,0,0,0,0,0,0,0,0,0,-1,972,1086,0,0
-245,-62,0,0,0,0,0,0,0,0,0,-1,979,1086,0,0
-238,-62,0,0,0,0,0,0,0,0,0,-1,986,1086,0,0
-231,-62,0,0,0,0,0,0,0,0,0,-1,993,1086,0,0
-224,-62,0,0,0,0,0,0,0,0,0,-1,1000,1086,0,0
-217,-62,0,0,0,0,0,0,0,0,0,-1,1007,1086,0,0
-210,-62,0,0,0,0,0,0,0,0,0,-1,1014,1086,0,0
-203,-62,0,0,0,0,0,0,0,0,0,-1,1021,1086,0,0
-196,-62,0,0,0,0,0,0,0,0,0,-1,1028,1086,0,0
-189,-62,0,0,0,0,0,0,0,0,0,-1,1035,1086,0,0
-182,-62,0,0,0,0,0,0,0,0,0,-1,1042,1086,0,0
-175,-62,0,0,0,0,0,0,0,0,0,-1,1049,1086,0,0
-168,-62,0,0,0,0,0,0,0,0,0,-1,1056,1086,0,0
-161,-62,0,0,0,0,0,0,0,0,0,-1,1063,1086,0,0
-154,-62,0,0,0,0,0,0,0,0,0,-1,1070,1086,0,0
-147,-62,0,0,0,0,0,0,0,0,0,-1,1077,1086,0,0
-140,-62,0,0,0,0,0,0,0,0,0,-1,1084,1086,0,0
-133,-62,0,0,0,0,0,0,0,0,0,-1,1091,1086,0,0
-126,-62,0,0,0,0,0,0,0,0,0,-1,1098,1086,0,0
-119,-62,0,0,0,0,0,0,0,0,0,-1,1105,1086,0,0
-112,-62,0,0,0,0,0,0,0,0,0,-1,1112,1086,0,0
-105,-62,0,0,0,0,0,0,0,0,0,-1,1119,1086,0,0
-98,-62,0,0,0,0,0,0,0,0,0,-1,1126,1086,0,0
-91,-62,0,0,0,0,0,0,0,0,0,-1,1133,1086,0,0
-84,-62,0,0,0,0,0,0,0,0,0,-1,1140,1086,0,0
-77,-62,0,0,0,0,0,0,0,0,0,-1,1147,1086,0,0
-70,-62,0,0,0,0,0,0,0,0,0,-1,1154,1086,0,0
-63,-62,0,0,0,0,0,0,0,0,0,-1,1161,1086,0,0
-56,-62,0,0,0,0,0,0,0,0,0,-1,1168,1086,0,0
-49,-62,0,0,0,0,0,0,0,0,0,-1,1175,1086,0,0
-42,-62,0,0,0,0,0,0,0,0,0,-1,1182,1086,0,0
-35,-62,0,0,0,0,0,0,0,0,0,-1,1189,1086,0,0
-28,-62,0,0,0,0,0,0,0,0,0,-1,1196,1086,0,0
-21,-62,0,0,0,0,0,0,0,0,0,-1,1203,1086,0,0
-14,-62,0,0,0,0,0,0,0,0,0,-1,1210,1086,0,0
-7,-62,0,0,0,0,0,0,0,0,0,-1,1217,1086,0,0
0,-62,0,0,0,0,0,0,0,0,0,-1,1224,1086,0,0
7,-62,0,0,0,0,0,0,0,0,0,-1,1231,1086,0,0
14,-62,0,0,0,0,0,0,0,0,0,-1,1238,1086,0,0
21,-62,0,0,0,0,0,0,0,0,0,-1,1245,1086,0,0
28,-62,0,0,0,0,0,0,0,0,0,-1,1252,1086,0,0
35,-62,0,0,0,0,0,0,0,0,0,-1,1259,1086,0,0
42,-62,0,0,0,0,0,0,0,0,0,-1,1266,1086,0,0
49,-62,0,0,0,0,0,0,0,0,0,-1,1273,1086,0,0
56,-62,0,0,0,0,0,0,0,0,0,-1,1280,1086,0,0
63,-62,0,0,0,0,0,0,0,0,0,-1,1287,1086,0,0
70,-62,0,0,0,0,0,0,0,0,0,-1,1294,1086,0,0
77,-62,0,0,0,0,0,0,0,0,0,-1,1301,1086,0,0
84,-62,0,0,0,0,0,0,0,0,0,-1,1308,1086,0,0
91,-62,0,0,0,0,0,0,0,0,0,-1,1315,1086,0,0
98,-62,0,0,0,0,0,0,0,0,0,-1,1322,1086,0,0
105,-62,0,0,0,0,0,0,0,0,0,-1,1329,1086,0,0
112,-62,0,0,0,0,0,0,0,0,0,-1,1336,1086,0,0
119,-62,0,0,0,0,0,0,0,0,0,-1,1343,1086,0,0
126,-62,0,0,0,0,0,0,0,0,0,-1,1350,1086,0,0
133,-62,0,0,0,0,0,0,0,0,0,-1,1357,1086,0,0
140,-62,0,0,0,0,0,0,0,0,0,-1,1364,1086,0,0
147,-62,0,0,0,0,0,0,0,0,0,-1,1371,1086,0,0
154,-62,0,0,0,0,0,0,0,0,0,-1,1378,1086,0,0
161,-62,0,0,0,0,0,0,0,0,0,-1,1385,1086,0,0
168,-62,0,0,0,0,0,0,0,0,0,-1,1392,1086,0,0
175,-62,0,0,0,0,0,0,0,0,0,-1,1399,1086,0,0
182,-62,0,0,0,0,0,0,0,0,0,-1,1406,1086,0,0
189,-62,0,0,0,0,0,0,0,0,0,-1,1413,1086,0,0
196,-62,0,0,0,0,0,0,0,0,0,-1,1420,1086,0,0
203,-62,0,0,0,0,0,0,0,0,0,-1,1427,1086,0,0
210,-62,0,0,0,0,0,0,0,0,0,-1,1434,1086,0,0
217,-62,0,0,0,0,0,0,0,0,0,-1,1441,1086,0,0
224,-62,0,0,0,0,0,0,0,0,0,-1,1448,1086,0,0
231,-62,0,0,0,0,0,0,0,0,0,-1,1455,1086,0,0
238,-62,0,0,0,0,0,0,0,0,0,-1,1462,1086,0,0
245,-62,0,0,0,0,0,0,0,0,0,-1,1469,1086,0,0
252,-62,0,0,0,0,0,0,0,0,0,-1,1476,1086,0,0
259,-62,0,0,0,0,0,0,0,0,0,-1,1483,1086,0,0
266,-62,0,0,0,0,0,0,0,0,0,-1,1490,1086,0,0
273,-62,0,0,0,0,0,0,0,0,0,-1,1497,1086,0,0
280,-62,0,0,0,0,0,0,0,0,0,-1,1504,1086,0,0
287,-62,0,0,0,0,0,0,0,0,0,-1,1511,1086,0,0
294,-62,0,0,0,0,0,0,0,0,0,-1,1518,1086,0,0
301,-62,0,0,0,0,0,0,0,0,0,-1,1525,1086,0,0
308,-62,0,0,0,0,0,0,0,0,0,-1,1532,1086,0,0
315,-62,0,0,0,0,0,0,0,0,0,-1,1539,1086,0,0
322,-62,0,0,0,0,0,0,0,0,0,-1,1546,1086,0,0
329,-62,0,0,0,0,0,0,0,0,0,-1,1553,1086,0,0
336,-62,0,0,0,0,0,0,0,0,0,-1,1560,1086,0,0
343,-62,0,0,0,0,0,0,0,0,0,-1,1567,1086,0,0
350,-62,0,0,0,0,0,0,0,0,0,-1,1574,1086,0,0
357,-62,0,0,0,0,0,0,0,0,0,-1,1581,1086,0,0
364,-62,0,0,0,0,0,0,0,0,0,-1,1588,1086,0,0
371,-62,0,0,0,0,0,0,0,0,0,-1,1595,1086,0,0
378,-62,0,0,0,0,0,0,0,0,0,-1,1602,1086,0,0
385,-62,0,0,0,0,0,0,0,0,0,-1,1609,1086,0,0
392,-62,0,0,0,0,0,0,0,0,0,-1,1616,1086,0,0
399,-62,0,0,0,0,0,0,0,0,0,-1,1623,1086,0,0
406,-62,0,0,0,0,0,0,0,0,0,-1,1630,1086,0,0
413,-62,0,0,0,0,0,0,0,0,0,-1,1637,1086,0,0
420,-62,0,0,0,0,0,0,0,0,0,-1,1644,1086,0,0
427,-62,0,0,0,0,0,0,0,0,0,-1,1651,1086,0,0
434,-62,0,0,0,0,0,0,0,0,0,-1,1658,1086,0,0
441,-62,0,0,0,0,0,0,0,0,0,-1,1665,1086,0,0
448,-62,0,0,0,0,0,0,0,0,0,-1,1672,1086,0,0
455,-62,0,0,0,0,0,0,0,0,0,-1,1679,1086,0,0
462,-62,0,0,0,0,0,0,0,0,0,-1,1686,1086,0,0
469,-62,0,0,0,0,0,0,0,0,0,-1,1693,1086,0,0
476,-62,0,0,0,0,0,0,0,0,0,-1,1700,1086,0,0
483,-62,0,0,0,0,0,0,0,0,0,-1,1707,1086,0,0
490,-62,0,0,0,0,0,0,0,0,0,-1,1714,1086,0,0
497,-62,0,0,0,0,0,0,0,0,0,-1,1721,1086,0,0
504,-62,0,0,0,0,0,0,0,0,0,-1,1728,1086,0,0
511,-62,0,0,0,0,0,0,0,0,0,-1,1735,1086,0,0
518,-62,0,0,0,0,0,0,0,0,0,-1,1742,1086,0,0
525,-62,0,0,0,0,0,0,0,0,0,-1,1749,1086,0,0
532,-62,0,0,0,0,0,0,0,0,0,-1,1756,1086,0,0
539,-62,0,0,0,0,0,0,0,0,0,-1,1763,1086,0,0
546,-62,0,0,0,0,0,0,0,0,0,-1,1770,1086,0,0
553,-62,0,0,0,0,0,0,0,0,0,-1,1777,1086,0,0
560,-62,0,0,0,0,0,0,0,0,0,-1,1784,1086,0,0
567,-62,0,0,0,0,0,0,0,0,0,-1,1791,1086,0,0
574,-62,0,0,0,0,0,0,0,0,0,-1,1798,1086,0,0
581,-62,0,0,0,0,0,0,0,0,0,-1,1805,1086,0,0
588,-62,0,0,0,0,0,0,0,0,0,-1,1812,1086,0,0
595,-62,0,0,0,0,0,0,0,0,0,-1,1819,1086,0,0
602,-62,0,0,0,0,0,0,0,0,0,-1,1826,1086,0,0
609,-62,0,0,0,0,0,0,0,0,0,-1,1833,1086,0,0
616,-62,0,0,0,0,0,0,0,0,0,-1,1840,1086,0,0
623,-62,0,0,0,0,0,0,0,0,0,-1,1847,1086,0,0
630,-62,0,0,0,0,0,0,0,0,0,-1,1854,1086,0,0
637,-62,0,0,0,0,0,0,0,0,0,-1,1861,1086,0,0
644,-62,0,0,0,0,0,0,0,0,0,-1,1868,1086,0,0
651,-62,29.0828,2.51099,0.00225741,-0.00127864,0.00147759,0.00279356,-0.00181479,0.348075,0.00268056,0.0391128,1875,1086,29.0828,-2.51095
658,-62,29.1743,2.48901,0.00169087,-0.00051081,0.00119099,0.00221185,-0.00103179,0.412356,0.00191358,0.0387223,1882,1086,29.1743,-2.48895
665,-62,29.1924,2.46655,0.00137592,4.70945e-05,0.00080319,0.00175389,-0.000330874,0.43984,0.00129373,0.0396032,1889,1086,29.1924,-2.46651
672,-62,29.1632,2.44922,0.000840547,0.000309544,0.00100197,0.00161159,-0.000461504,0.655885,0.0012568,0.038965,1896,1086,29.1632,-2.44923
679,-62,29.2095,2.52429,-0.000126562,0.00015374,0.00178055,0.00179965,-0.00177247,0.824673,0.00206239,0.0368429,1903,1086,29.2094,-2.52432
686,-62,29.2408,2.68652,-0.00112398,-0.000265585,0.00261751,0.00195768,-0.00334725,0.866661,0.00309763,0.0373545,1910,1086,29.2408,-2.68652
693,-62,29.0684,2.75537,-0.00191608,-0.000782928,0.0033901,0.00208761,-0.00478662,0.868196,0.00406953,0.037179,1917,1086,29.0684,-2.75541
700,-62,29.0789,2.578,-0.00253142,-0.00121177,0.00403926,0.00222121,-0.00596439,0.866359,0.00488789,0.0299312,1924,1086,29.0788,-2.578
707,-62,29.1233,2.5625,-0.00295737,-0.00153511,0.00444168,0.002252,-0.00674449,0.864776,0.00540569,0.019743,1931,1086,29.1232,-2.56254
714,-62,29.1558,2.57312,-0.00337287,-0.00174209,0.00471436,0.00222688,-0.00734184,0.87103,0.00578161,0.0290633,1938,1086,29.1557,-2.57311
721,-62,29.2307,2.6792,0,0,0,0,0,0,0,-1,1945,1086,29.2307,-2.6792
728,-62,28.4011,4.81274,0,0,0,0,0,0,0,-1,1952,1086,28.4011,-4.8127
735,-62,28.3635,4.66821,-0.00410584,-0.00141103,0.00466298,0.00209532,-0.00761219,0.926046,0.00589861,0.0187069,1959,1086,28.3635,-4.66817
742,-62,28.3293,4.5918,-0.00389496,-0.000952497,0.00407209,0.00190599,-0.00675344,0.958749,0.00525415,0.0171639,1966,1086,28.3293,-4.59182
749,-62,28.3091,4.44495,-0.00383772,0.000385222,0.00353634,0.00239249,-0.00584499,1.05453,0.00489317,0.0146979,1973,1086,28.3091,-4.44499
756,-62,28.2753,4.3988,-0.00397696,0.00257642,0.00286609,0.00365302,-0.00505356,1.21147,0.00504838,0.0137306,1980,1086,28.2752,-4.39886
763,-62,28.2844,4.30847,-0.00373496,0.00525064,0.0017311,0.00557261,-0.00405692,1.38691,0.00558252,0.0138988,1987,1086,28.2844,-4.30852
770,-62,28.2903,4.18408,-0.00342527,0.00872936,0.000382259,0.00874137,-0.00343728,1.53939,0.00725022,0.0113956,1994,1086,28.2903,-4.18403
777,-62,28.2395,4.06665,-0.00318006,0.0133359,-0.000857453,0.0133803,-0.00322446,-1.51907,0.0101669,0.0129453,2001,1086,28.2395,-4.06665
784,-62,28.1724,3.9458,-0.00325421,0.0184637,-0.00168687,0.018594,-0.00338445,-1.49374,0.0136646,0.0263377,2008,1086,28.1724,-3.94585
791,-62,28.0873,3.83081,-0.00341455,0.0246404,-0.00255772,0.0248717,-0.00364583,-1.48062,0.0179204,0.0430093,2015,1086,28.0873,-3.83081
798,-62,28.2283,3.74329,-0.00336556,0.0321932,-0.00365317,0.0325646,-0.00373699,-1.46947,0.0230566,0.0428987,2022,1086,28.2283,-3.74327
805,-62,28.6221,3.6709,-0.00292076,0.0413504,-0.00502765,0.0419142,-0.00348455,-1.45913,0.0291738,0.0443279,2029,1086,28.6222,-3.67085
812,-62,29.0137,3.65247,-0.00206696,0.0522923,-0.00671639,0.0531098,-0.00288452,-1.44967,0.0364062,0.0483465,2036,1086,29.0138,-3.65248
-700,-69,-22.5086,-3.64417,0,0,0,0,0,0,0,-1,524,1093,-22.5087,3.64412
-693,-69,-21.8356,-2.87012,0,0,0,0,0,0,0,-1,531,1093,-21.8356,2.87008
-686,-69,-20.8883,-1.9707,0,0,0,0,0,0,0,-1,538,1093,-20.8883,1.9707
-679,-69,-19.7584,-0.878784,0,0,0,0,0,0,0,-1,545,1093,-19.7584,0.878807
-672,-69,-18.6671,-0.158813,0.0849362,0.0114488,0.0049948,0.0852742,0.0111109,0.067554,0.0535316,0.0451292,552,1093,-18.6671,0.158859
-665,-69,-17.6534,0.402588,0.0597271,0.00939838,0.00549434,0.0603199,0.00880555,0.107482,0.0376232,0.0468826,559,1093,-17.6534,-0.402593
-658,-69,-19.7292,0.96167,0.0405921,0.00766951,0.00543974,0.0414676,0.00679399,0.159579,0.0256817,0.0499061,566,1093,-19.7292,-0.961696
-651,-69,-19.66,1.16821,0.0266084,0.00615749,0.00498425,0.0277585,0.00500741,0.226773,0.0170829,0.0337474,573,1093,-19.6601,-1.16818
-644,-69,-19.6384,1.38318,0.0164839,0.00477276,0.00424242,0.0178593,0.00339744,0.313493,0.0109508,0.00963234,580,1093,-19.6384,-1.38322
-637,-69,-19.6486,1.56262,0.00915785,0.00333058,0.00230585,0.00995988,0.00252854,0.334737,0.00597806,0.0116823,587,1093,-19.6486,-1.56261
-630,-69,-19.6609,1.69141,0.0031998,0.00195571,-0.000291756,0.00326482,0.00189068,-0.219282,0.00189279,0.0134385,594,1093,-19.661,-1.69135
-623,-69,-19.6601,1.8457,-0.00115337,0.000710591,-0.00274296,0.00267558,-0.00311836,-0.949165,0.00334838,0.0124632,601,1093,-19.6601,-1.84575
-616,-69,-19.6481,1.95935,-0.00281197,-0.000178523,-0.0049819,0.00365773,-0.00664822,-0.914595,0.00603306,0.0132881,608,1093,-19.6481,-1.9594
-609,-69,-19.646,2.08472,-0.00324388,-0.000796876,-0.0066428,0.00473416,-0.00877492,-0.87647,0.00791492,0.0129051,615,1093,-19.646,-2.0847
-602,-69,-19.6356,2.26624,-0.00366608,-0.00113233,-0.00843478,0.00613018,-0.0109286,-0.859939,0.00997792,0.0162338,622,1093,-19.6356,-2.26626
-595,-69,-19.5037,2.67334,0,0,0,0,0,0,0,-1,629,1093,-19.5036,-2.67338
-588,-69,-19.8434,1.99597,-0.00421408,-0.00179346,-0.00996996,0.00703939,-0.0130469,-0.8458,0.0117685,0.0352387,636,1093,-19.8435,-1.99593
-581,-69,-20.2715,1.19861,-0.00399353,-0.00192582,-0.00977607,0.00687091,-0.0127903,-0.838079,0.0115216,0.0414429,643,1093,-20.2715,-1.19866
-574,-69,-20.3818,0.723633,-0.00358808,-0.00181676,-0.00917793,0.00651815,-0.011923,-0.833499,0.0107983,0.0312274,650,1093,-20.3818,-0.723602
-567,-69,-20.3782,0.709106,-0.00290763,-0.00155583,-0.00781361,0.00561106,-0.0100745,-0.828542,0.00917748,0.037895,657,1093,-20.3782,-0.709135
-560,-69,-20.3787,0.659546,-0.0018609,-0.00115332,-0.00559494,0.004099,-0.00711322,-0.816973,0.00655089,0.0424426,664,1093,-20.3787,-0.659553
-553,-69,-20.3454,0.717407,-0.000456549,-0.00068458,-0.00250221,0.00193425,-0.00307537,-0.762631,0.00291721,0.0409895,671,1093,-20.3454,-0.717373
-546,-69,-20.3104,0.793579,0.00135202,-0.000269725,0.00146308,0.00221391,-0.00113161,0.532358,0.00196494,0.0347245,678,1093,-20.3103,-0.793572
-539,-69,-20.2653,0.863403,0.0031436,-6.49658e-05,0.0052814,0.007059,-0.00398036,0.637946,0.00645567,0.0369472,685,1093,-20.2653,-0.863448
-532,-69,-20.0849,0.898804,0.00336231,-0.000783664,0.00607692,0.00771008,-0.00513144,0.621025,0.00746371,0.0428882,692,1093,-20.0849,-0.898761
-525,-69,0,0,0,0,0,0,0,0,0,-1,699,1093,0,0
-518,-69,0,0,0,0,0,0,0,0,0,-1,706,1093,0,0
-511,-69,0,0,0,0,0,0,0,0,0,-1,713,1093,0,0
-504,-69,0,0,0,0,0,0,0,0,0,-1,720,1093,0,0
-497,-69,0,0,0,0,0,0,0,0,0,-1,727,1093,0,0
-490,-69,0,0,0,0,0,0,0,0,0,-1,734,1093,0,0
-483,-69,0,0,0,0,0,0,0,0,0,-1,741,1093,0,0
-476,-69,0,0,0,0,0,0,0,0,0,-1,748,1093,0,0
-469,-69,0,0,0,0,0,0,0,0,0,-1,755,1093,0,0
-462,-69,0,0,0,0,0,0,0,0,0,-1,762,1093,0,0
-455,-69,0,0,0,0,0,0,0,0,0,-1,769,1093,0,0
-448,-69,0,0,0,0,0,0,0,0,0,-1,776,1093,0,0
-441,-69,0,0,0,0,0,0,0,0,0,-1,783,1093,0,0
-434,-69,0,0,0,0,0,0,0,0,0,-1,790,1093,0,0
-427,-69,0,0,0,0,0,0,0,0,0,-1,797,1093,0,0
-420,-69,0,0,0,0,0,0,0,0,0,-1,804,1093,0,0
-413,-69,0,0,0,0,0,0,0,0,0,-1,811,1093,0,0
-406,-69,0,0,0,0,0,0,0,0,0,-1,818,1093,0,0
-399,-69,0,0,0,0,0,0,0,0,0,-1,825,1093,0,0
-392,-69,0,0,0,0,0,0,0,0,0,-1,832,1093,0,0
-385,-69,0,0,0,0,0,0,0,0,0,-1,839,1093,0,0
-378,-69,0,0,0,0,0,0,0,0,0,-1,846,1093,0,0
-371,-69,0,0,0,0,0,0,0,0,0,-1,853,1093,0,0
-364,-69,0,0,0,0,0,0,0,0,0,-1,860,1093,0,0
-357,-69,0,0,0,0,0,0,0,0,0,-1,867,1093,0,0
-350,-69,0,0,0,0,0,0,0,0,0,-1,874,1093,0,0
-343,-69,0,0,0,0,0,0,0,0,0,-1,881,1093,0,0
-336,-69,0,0,0,0,0,0,0,0,0,-1,888,1093,0,0
-329,-69,0,0,0,0,0,0,0,0,0,-1,895,1093,0,0
-322,-69,0,0,0,0,0,0,0,0,0,-1,902,1093,0,0
-315,-69,0,0,0,0,0,0,0,0,0,-1,909,1093,0,0
-308,-69,0,0,0,0,0,0,0,0,0,-1,916,1093,0,0
-301,-69,0,0,0,0,0,0,0,0,0,-1,923,1093,0,0
-294,-69,0,0,0,0,0,0,0,0,0,-1,930,1093,0,0
-287,-69,0,0,0,0,0,0,0,0,0,-1,937,1093,0,0
-280,-69,0,0,0,0,0,0,0,0,0,-1,944,1093,0,0
-273,-69,0,0,0,0,0,0,0,0,0,-1,951,1093,0,0
-266,-69,0,0,0,0,0,0,0,0,0,-1,958,1093,0,0
-259,-69,0,0,0,0,0,0,0,0,0,-1,965,1093,0,0
-252,-69,0,0,0,0,0,0,0,0,0,-1,972,1093,0,0
-245,-69,0,0,0,0,0,0,0,0,0,-1,979,1093,0,0
-238,-69,0,0,0,0,0,0,0,0,0,-1,986,1093,0,0
-231,-69,0,0,0,0,0,0,0,0,0,-1,993,1093,0,0
-224,-69,0,0,0,0,0,0,0,0,0,-1,1000,1093,0,0
-217,-69,0,0,0,0,0,0,0,0,0,-1,1007,1093,0,0
-210,-69,0,0,0,0,0,0,0,0,0,-1,1014,1093,0,0
-203,-69,0,0,0,0,0,0,0,0,0,-1,1021,1093,0,0
-196,-69,0,0,0,0,0,0,0,0,0,-1,1028,1093,0,0
-189,-69,0,0,0,0,0,0,0,0,0,-1,1035,1093,0,0
-182,-69,0,0,0,0,0,0,0,0,0,-1,1042,1093,0,0
-175,-69,0,0,0,0,0,0,0,0,0,-1,1049,1093,0,0
-168,-69,0,0,0,0,0,0,0,0,0,-1,1056,1093,0,0
-161,-69,0,0,0,0,0,0,0,0,0,-1,1063,1093,0,0
-154,-69,0,0,0,0,0,0,0,0,0,-1,1070,1093,0,0
-147,-69,0,0,0,0,0,0,0,0,0,-1,1077,1093,0,0
-140,-69,0,0,0,0,0,0,0,0,0,-1,1084,1093,0,0
-133,-69,0,0,0,0,0,0,0,0,0,-1,1091,1093,0,0
-126,-69,0,0,0,0,0,0,0,0,0,-1,1098,1093,0,0
-119,-69,0,0,0,0,0,0,0,0,0,-1,1105,1093,0,0
-112,-69,0,0,0,0,0,0,0,0,0,-1,1112,1093,0,0
-105,-69,0,0,0,0,0,0,0,0,0,-1,1119,1093,0,0
-98,-69,0,0,0,0,0,0,0,0,0,-1,1126,1093,0,0
-91,-69,0,0,0,0,0,0,0,0,0,-1,1133,1093,0,0
-84,-69,0,0,0,0,0,0,0,0,0,-1,1140,1093,0,0
-77,-69,0,0,0,0,0,0,0,0,0,-1,1147,1093,0,0
-70,-69,0,0,0,0,0,0,0,0,0,-1,1154,1093,0,0
-63,-69,0,0,0,0,0,0,0,0,0,-1,1161,1093,0,0
-56,-69,0,0,0,0,0,0,0,0,0,-1,1168,1093,0,0
-49,-69,0,0,0,0,0,0,0,0,0,-1,1175,1093,0,0
-42,-69,0,0,0,0,0,0,0,0,0,-1,1182,1093,0,0
-35,-69,0,0,0,0,0,0,0,0,0,-1,1189,1093,0,0
-28,-69,0,0,0,0,0,0,0,0,0,-1,1196,1093,0,0
-21,-69,0,0,0,0,0,0,0,0,0,-1,1203,1093,0,0
-14,-69,0,0,0,0,0,0,0,0,0,-1,1210,1093,0,0
-7,-69,0,0,0,0,0,0,0,0,0,-1,1217,1093,0,0
0,-69,0,0,0,0,0,0,0,0,0,-1,1224,1093,0,0
7,-69,0,0,0,0,0,0,0,0,0,-1,1231,1093,0,0
14,-69,0,0,0,0,0,0,0,0,0,-1,1238,1093,0,0
21,-69,0,0,0,0,0,0,0,0,0,-1,1245,1093,0,0
28,-69,0,0,0,0,0,0,0,0,0,-1,1252,1093,0,0
35,-69,0,0,0,0,0,0,0,0,0,-1,1259,1093,0,0
42,-69,0,0,0,0,0,0,0,0,0,-1,1266,1093,0,0
49,-69,0,0,0,0,0,0,0,0,0,-1,1273,1093,0,0
56,-69,0,0,0,0,0,0,0,0,0,-1,1280,1093,0,0
63,-69,0,0,0,0,0,0,0,0,0,-1,1287,1093,0,0
70,-69,0,0,0,0,0,0,0,0,0,-1,1294,1093,0,0
77,-69,0,0,0,0,0,0,0,0,0,-1,1301,1093,0,0
84,-69,0,0,0,0,0,0,0,0,0,-1,1308,1093,0,0
91,-69,0,0,0,0,0,0,0,0,0,-1,1315,1093,0,0
98,-69,0,0,0,0,0,0,0,0,0,-1,1322,1093,0,0
105,-69,0,0,0,0,0,0,0,0,0,-1,1329,1093,0,0
112,-69,0,0,0,0,0,0,0,0,0,-1,1336,1093,0,0
119,-69,0,0,0,0,0,0,0,0,0,-1,1343,1093,0,0
126,-69,0,0,0,0,0,0,0,0,0,-1,1350,1093,0,0
133,-69,0,0,0,0,0,0,0,0,0,-1,1357,1093,0,0
140,-69,0,0,0,0,0,0,0,0,0,-1,1364,1093,0,0
147,-69,0,0,0,0,0,0,0,0,0,-1,1371,1093,0,0
154,-69,0,0,0,0,0,0,0,0,0,-1,1378,1093,0,0
161,-69,0,0,0,0,0,0,0,0,0,-1,1385,1093,0,0
168,-69,0,0,0,0,0,0,0,0,0,-1,1392,1093,0,0
175,-69,0,0,0,0,0,0,0,0,0,-1,1399,1093,0,0
182,-69,0,0,0,0,0,0,0,0,0,-1,1406,1093,0,0
189,-69,0,0,0,0,0,0,0,0,0,-1,1413,1093,0,0
196,-69,0,0,0,0,0,0,0,0,0,-1,1420,1093,0,0
203,-69,0,0,0,0,0,0,0,0,0,-1,1427,1093,0,0
210,-69,0,0,0,0,0,0,0,0,0,-1,1434,1093,0,0
217,-69,0,0,0,0,0,0,0,0,0,-1,1441,1093,0,0
224,-69,0,0,0,0,0,0,0,0,0,-1,1448,1093,0,0
231,-69,0,0,0,0,0,0,0,0,0,-1,1455,1093,0,0
238,-69,0,0,0,0,0,0,0,0,0,-1,1462,1093,0,0
245,-69,0,0,0,0,0,0,0,0,0,-1,1469,1093,0,0
252,-69,0,0,0,0,0,0,0,0,0,-1,1476,1093,0,0
259,-69,0,0,0,0,0,0,0,0,0,-1,1483,1093,0,0
266,-69,0,0,0,0,0,0,0,0,0,-1,1490,1093,0,0
273,-69,0,0,0,0,0,0,0,0,0,-1,1497,1093,0,0
280,-69,0,0,0,0,0,0,0,0,0,-1,1504,1093,0,0
287,-69,0,0,0,0,0,0,0,0,0,-1,1511,1093,0,0
294,-69,0,0,0,0,0,0,0,0,0,-1,1518,1093,0,0
301,-69,0,0,0,0,0,0,0,0,0,-1,1525,1093,0,0
308,-69,0,0,0,0,0,0,0,0,0,-1,1532,1093,0,0
315,-69,0,0,0,0,0,0,0,0,0,-1,1539,1093,0,0
322,-69,0,0,0,0,0,0,0,0,0,-1,1546,1093,0,0
329,-69,0,0,0,0,0,0,0,0,0,-1,1553,1093,0,0
336,-69,0,0,0,0,0,0,0,0,0,-1,1560,1093,0,0
343,-69,0,0,0,0,0,0,0,0,0,-1,1567,1093,0,0
350,-69,0,0,0,0,0,0,0,0,0,-1,1574,1093,0,0
357,-69,0,0,0,0,0,0,0,0,0,-1,1581,1093,0,0
364,-69,0,0,0,0,0,0,0,0,0,-1,1588,1093,0,0
371,-69,0,0,0,0,0,0,0,0,0,-1,1595,1093,0,0
378,-69,0,0,0,0,0,0,0,0,0,-1,1602,1093,0,0
385,-69,0,0,0,0,0,0,0,0,0,-1,1609,1093,0,0
392,-69,0,0,0,0,0,0,0,0,0,-1,1616,1093,0,0
399,-69,0,0,0,0,0,0,0,0,0,-1,1623,1093,0,0
406,-69,0,0,0,0,0,0,0,0,0,-1,1630,1093,0,0
413,-69,0,0,0,0,0,0,0,0,0,-1,1637,1093,0,0
420,-69,0,0,0,0,0,0,0,0,0,-1,1644,1093,0,0
427,-69,0,0,0,0,0,0,0,0,0,-1,1651,1093,0,0
434,-69,0,0,0,0,0,0,0,0,0,-1,1658,1093,0,0
441,-69,0,0,0,0,0,0,0,0,0,-1,1665,1093,0,0
448,-69,0,0,0,0,0,0,0,0,0,-1,1672,1093,0,0
455,-69,0,0,0,0,0,0,0,0,0,-1,1679,1093,0,0
462,-69,0,0,0,0,0,0,0,0,0,-1,1686,1093,0,0
469,-69,0,0,0,0,0,0,0,0,0,-1,1693,1093,0,0
476,-69,0,0,0,0,0,0,0,0,0,-1,1700,1093,0,0
483,-69,0,0,0,0,0,0,0,0,0,-1,1707,1093,0,0
490,-69,0,0,0,0,0,0,0,0,0,-1,1714,1093,0,0
497,-69,0,0,0,0,0,0,0,0,0,-1,1721,1093,0,0
504,-69,0,0,0,0,0,0,0,0,0,-1,1728,1093,0,0
511,-69,0,0,0,0,0,0,0,0,0,-1,1735,1093,0,0
518,-69,0,0,0,0,0,0,0,0,0,-1,1742,1093,0,0
525,-69,0,0,0,0,0,0,0,0,0,-1,1749,1093,0,0
532,-69,0,0,0,0,0,0,0,0,0,-1,1756,1093,0,0
539,-69,0,0,0,0,0,0,0,0,0,-1,1763,1093,0,0
546,-69,0,0,0,0,0,0,0,0,0,-1,1770,1093,0,0
553,-69,0,0,0,0,0,0,0,0,0,-1,1777,1093,0,0
560,-69,0,0,0,0,0,0,0,0,0,-1,1784,1093,0,0
567,-69,0,0,0,0,0,0,0,0,0,-1,1791,1093,0,0
574,-69,0,0,0,0,0,0,0,0,0,-1,1798,1093,0,0
581,-69,0,0,0,0,0,0,0,0,0,-1,1805,1093,0,0
588,-69,0,0,0,0,0,0,0,0,0,-1,1812,1093,0,0
595,-69,0,0,0,0,0,0,0,0,0,-1,1819,1093,0,0
602,-69,0,0,0,0,0,0,0,0,0,-1,1826,1093,0,0
609,-69,0,0,0,0,0,0,0,0,0,-1,1833,1093,0,0
616,-69,0,0,0,0,0,0,0,0,0,-1,1840,1093,0,0
623,-69,0,0,0,0,0,0,0,0,0,-1,1847,1093,0,0
630,-69,0,0,0,0,0,0,0,0,0,-1,1854,1093,0,0
637,-69,0,0,0,0,0,0,0,0,0,-1,1861,1093,0,0
644,-69,0,0,0,0,0,0,0,0,0,-1,1868,1093,0,0
651,-69,29.0084,2.50293,0.00244954,-0.00183443,0.000732506,0.00257132,-0.00195621,0.164754,0.002622,0.0394346,1875,1093,29.0084,-2.50294
658,-69,29.0671,2.46619,0.00185507,-0.00120984,0.000634092,0.00198107,-0.00133585,0.196162,0.00192706,0.0415327,1882,1093,29.0671,-2.46618
665,-69,29.1007,2.43701,0.00152964,-0.00071466,0.000392207,0.00159621,-0.000781227,0.168121,0.00139924,0.0409448,1889,1093,29.1008,-2.43696
672,-69,28.9542,2.38647,0.000860647,-0.000531896,0.000799852,0.00122483,-0.000896076,0.42726,0.0012294,0.0369621,1896,1093,28.9542,-2.38647
679,-69,28.9395,2.42542,-0.000296799,-0.000711655,0.00177958,0.0012874,-0.00229585,0.72738,0.00209592,0.036344,1903,1093,28.9394,-2.42545
686,-69,29.1097,2.63757,-0.00144796,-0.00110074,0.00276434,0.00149544,-0.00404414,0.816758,0.00330919,0.0376446,1910,1093,29.1097,-2.63752
693,-69,29.0818,2.63647,-0.00236878,-0.00155481,0.00364664,0.00170749,-0.00563107,0.840971,0.00443418,0.0353106,1917,1093,29.0818,-2.63651
700,-69,29.0789,2.51904,-0.00308399,-0.00190796,0.00437766,0.001921,-0.00691296,0.852159,0.00536487,0.0276427,1924,1093,29.0789,-2.51909
707,-69,29.0907,2.50684,-0.0036168,-0.00216001,0.00484266,0.00200873,-0.00778554,0.860045,0.0059736,0.0194229,1931,1093,29.0907,-2.50678
714,-69,29.1426,2.48792,-0.00409884,-0.00231057,0.00514838,0.00202074,-0.00843015,0.871377,0.0064009,0.0244294,1938,1093,29.1425,-2.48786
721,-69,28.8412,3.57617,0,0,0,0,0,0,0,-1,1945,1093,28.8412,-3.5762
728,-69,28.0817,4.88831,0,0,0,0,0,0,0,-1,1952,1093,28.0817,-4.88835
735,-69,28.2272,4.74463,-0.00474567,-0.00178093,0.00510567,0.00205322,-0.00857982,0.926683,0.00651307,0.0213462,1959,1093,28.2272,-4.74463
742,-69,28.2095,4.63293,-0.0045323,-0.00129525,0.0043834,0.00175889,-0.00758644,0.962254,0.00573456,0.0170415,1966,1093,28.2095,-4.63293
749,-69,28.1223,4.47583,-0.00438386,-0.000122877,0.00372638,0.00203906,-0.00654579,1.04509,0.00517912,0.0189254,1973,1093,28.1224,-4.47579
756,-69,28.16,4.39246,-0.00445781,0.00211322,0.00311328,0.00335397,-0.00569856,1.19155,0.00528459,0.0153868,1980,1093,28.1601,-4.39242
763,-69,28.1504,4.27856,-0.00423729,0.00489413,0.00211676,0.00536095,-0.00470412,1.35373,0.00581519,0.0153156,1987,1093,28.1504,-4.27862
770,-69,28.137,4.17004,-0.00395528,0.00844908,0.000948395,0.00852117,-0.00402737,1.49493,0.00739814,0.0148442,1994,1093,28.1369,-4.17
777,-69,28.1001,4.03406,-0.00387022,0.0131639,0.000123363,0.0131648,-0.00387112,1.56355,0.010312,0.0191264,2001,1093,28.1001,-4.03403
784,-69,28.0679,3.8877,-0.004251,0.0185709,-8.50187e-05,0.0185712,-0.00425132,-1.56707,0.0140145,0.0324683,2008,1093,28.0678,-3.88765
791,-69,28.0176,3.78638,-0.00481342,0.0252779,-8.71244e-05,0.0252781,-0.00481368,-1.5679,0.0186647,0.0445083,2015,1093,28.0176,-3.78641
798,-69,28.2517,3.97693,-0.0052579,0.0337165,3.894e-05,0.0337166,-0.00525794,1.5698,0.0244198,0.0423938,2022,1093,28.2517,-3.97688
805,-69,28.8191,3.98096,0,0,0,0,0,0,0,-1,2029,1093,28.8191,-3.98092
812,-69,29.5032,3.92078,0,0,0,0,0,0,0,-1,2036,1093,29.5031,-3.92081
-700,-76,0,0,0,0,0,0,0,0,0,-1,524,1100,0,0
-693,-76,-21.2455,-3.05396,0,0,0,0,0,0,0,-1,531,1100,-21.2455,3.05394
-686,-76,-20.2956,-2.1167,0.172253,0.0121732,0.00153093,0.172267,0.0121586,0.00956238,0.111014,0.0486473,538,1100,-20.2956,2.11666
-679,-76,-19.5793,-1.31152,0,0,0,0,0,0,0,-1,545,1100,-19.5793,1.3115
-672,-76,-18.0137,-0.416016,0,0,0,0,0,0,0,-1,552,1100,-18.0137,0.415982
-665,-76,-16.8209,0.609863,0,0,0,0,0,0,0,-1,559,1100,-16.8209,-0.609879
-658,-76,-19.8984,0.130249,0.0453116,0.00584587,0.00531836,0.0460157,0.00514173,0.131631,0.029115,0.0472873,566,1100,-19.8985,-0.130295
-651,-76,-19.4443,1.1875,0.0296744,0.00480041,0.00494121,0.03062,0.00385479,0.189088,0.0192574,0.0294479,573,1100,-19.4444,-1.18752
-644,-76,-19.4302,1.38318,0.0184825,0.00380507,0.00424514,0.0196219,0.0026657,0.262215,0.0122894,0.0107682,580,1100,-19.4302,-1.38313
-637,-76,-19.4694,1.52307,0.0104473,0.00269054,0.00250694,0.011187,0.00195084,0.286917,0.00690023,0.0137129,587,1100,-19.4694,-1.52306
-630,-76,-19.4911,1.67102,0.00390662,0.00161829,-2.73461e-06,0.00390662,0.00161828,-0.00119502,0.00226652,0.0143066,594,1100,-19.4911,-1.67108
-623,-76,-19.4855,1.83447,-0.000791506,0.000497768,-0.00239971,0.00233791,-0.00263165,-0.916616,0.00287085,0.0133081,601,1100,-19.4855,-1.83452
-616,-76,-19.4847,1.96948,-0.00248087,-0.000330827,-0.00459054,0.00330888,-0.00612058,-0.900417,0.00552419,0.0125032,608,1100,-19.4847,-1.96948
-609,-76,-19.4797,2.12903,-0.00298958,-0.000899987,-0.00616752,0.00431061,-0.00820017,-0.869303,0.00733854,0.0132241,615,1100,-19.4797,-2.12901
-602,-76,-19.4628,2.30762,-0.00349252,-0.00119128,-0.00782072,0.00556301,-0.0102468,-0.858436,0.00926037,0.0165821,622,1100,-19.4628,-2.30765
-595,-76,-19.3092,2.80066,0,0,0,0,0,0,0,-1,629,1100,-19.3092,-2.80063
-588,-76,-19.6963,2.0354,-0.00402184,-0.00185712,-0.00919379,0.0063178,-0.0121968,-0.843992,0.0108675,0.0383048,636,1100,-19.6963,-2.03538
-581,-76,-20.0884,0.969849,-0.0037741,-0.0020077,-0.00898478,0.00613719,-0.011919,-0.83439,0.0106014,0.0414674,643,1100,-20.0884,-0.96986
-574,-76,-20.2981,0.582642,-0.00332796,-0.00193459,-0.00842641,0.00582389,-0.0110864,-0.826644,0.00991952,0.0357617,650,1100,-20.2981,-0.582637
-567,-76,-20.3048,0.776733,-0.00264347,-0.00173148,-0.00719264,0.0050196,-0.00939455,-0.817055,0.00844882,0.0406241,657,1100,-20.3048,-0.776775
-560,-76,-20.3762,0.851196,-0.00159781,-0.00139931,-0.00521553,0.00371791,-0.00671503,-0.794912,0.00610575,0.0430744,664,1100,-20.3762,-0.851236
-553,-76,-20.3512,0.837769,-0.00019326,-0.00100679,-0.00248875,0.00192175,-0.0031218,-0.704394,0.00293924,0.044899,671,1100,-20.3512,-0.837745
-546,-76,-20.314,0.748535,0.00166733,-0.000653891,0.000985423,0.00202925,-0.0010158,0.351972,0.00179022,0.0400891,678,1100,-20.314,-0.748483
-539,-76,-20.2874,0.691895,0.00370586,-0.000515195,0.00439074,0.00646698,-0.00327631,0.561363,0.00572495,0.0391746,685,1100,-20.2874,-0.691882
-532,-76,-20.0918,0.779297,0.00444089,-0.00126407,0.00494065,0.00729338,-0.00411656,0.523599,0.0066721,0.0428071,692,1100,-20.0918,-0.779306
-525,-76,0,0,0,0,0,0,0,0,0,-1,699,1100,0,0
-518,-76,0,0,0,0,0,0,0,0,0,-1,706,1100,0,0
-511,-76,0,0,0,0,0,0,0,0,0,-1,713,1100,0,0
-504,-76,0,0,0,0,0,0,0,0,0,-1,720,1100,0,0
-497,-76,0,0,0,0,0,0,0,0,0,-1,727,1100,0,0
-490,-76,0,0,0,0,0,0,0,0,0,-1,734,1100,0,0
-483,-76,0,0,0,0,0,0,0,0,0,-1,741,1100,0,0
-476,-76,0,0,0,0,0,0,0,0,0,-1,748,1100,0,0
-469,-76,0,0,0,0,0,0,0,0,0,-1,755,1100,0,0
-462,-76,0,0,0,0,0,0,0,0,0,-1,762,1100,0,0
-455,-76,0,0,0,0,0,0,0,0,0,-1,769,1100,0,0
-448,-76,0,0,0,0,0,0,0,0,0,-1,776,1100,0,0
-441,-76,0,0,0,0,0,0,0,0,0,-1,783,1100,0,0
-434,-76,0,0,0,0,0,0,0,0,0,-1,790,1100,0,0
-427,-76,0,0,0,0,0,0,0,0,0,-1,797,1100,0,0
-420,-76,0,0,0,0,0,0,0,0,0,-1,804,1100,0,0
-413,-76,0,0,0,0,0,0,0,0,0,-1,811,1100,0,0
-406,-76,0,0,0,0,0,0,0,0,0,-1,818,1100,0,0
-399,-76,0,0,0,0,0,0,0,0,0,-1,825,1100,0,0
-392,-76,0,0,0,0,0,0,0,0,0,-1,832,1100,0,0
-385,-76,0,0,0,0,0,0,0,0,0,-1,839,1100,0,0
-378,-76,0,0,0,0,0,0,0,0,0,-1,846,1100,0,0
-371,-76,0,0,0,0,0,0,0,0,0,-1,853,1100,0,0
-364,-76,0,0,0,0,0,0,0,0,0,-1,860,1100,0,0
-357,-76,0,0,0,0,0,0,0,0,0,-1,867,1100,0,0
-350,-76,0,0,0,0,0,0,0,0,0,-1,874,1100,0,0
-343,-76,0,0,0,0,0,0,0,0,0,-1,881,1100,0,0
-336,-76,0,0,0,0,0,0,0,0,0,-1,888,1100,0,0
-329,-76,0,0,0,0,0,0,0,0,0,-1,895,1100,0,0
-322,-76,0,0,0,0,0,0,0,0,0,-1,902,1100,0,0
-315,-76,0,0,0,0,0,0,0,0,0,-1,909,1100,0,0
-308,-76,0,0,0,0,0,0,0,0,0,-1,916,1100,0,0
-301,-76,0,0,0,0,0,0,0,0,0,-1,923,1100,0,0
-294,-76,0,0,0,0,0,0,0,0,0,-1,930,1100,0,0
-287,-76,0,0,0,0,0,0,0,0,0,-1,937,1100,0,0
-280,-76,0,0,0,0,0,0,0,0,0,-1,944,1100,0,0
-273,-76,0,0,0,0,0,0,0,0,0,-1,951,1100,0,0
-266,-76,0,0,0,0,0,0,0,0,0,-1,958,1100,0,0
-259,-76,0,0,0,0,0,0,0,0,0,-1,965,1100,0,0
-252,-76,0,0,0,0,0,0,0,0,0,-1,972,1100,0,0
-245,-76,0,0,0,0,0,0,0,0,0,-1,979,1100,0,0
-238,-76,0,0,0,0,0,0,0,0,0,-1,986,1100,0,0
-231,-76,0,0,0,0,0,0,0,0,0,-1,993,1100,0,0
-224,-76,0,0,0,0,0,0,0,0,0,-1,1000,1100,0,0
-217,-76,0,0,0,0,0,0,0,0,0,-1,1007,1100,0,0
-210,-76,0,0,0,0,0,0,0,0,0,-1,1014,1100,0,0
-203,-76,0,0,0,0,0,0,0,0,0,-1,1021,1100,0,0
-196,-76,0,0,0,0,0,0,0,0,0,-1,1028,1100,0,0
-189,-76,0,0,0,0,0,0,0,0,0,-1,1035,1100,0,0
-182,-76,0,0,0,0,0,0,0,0,0,-1,1042,1100,0,0
-175,-76,0,0,0,0,0,0,0,0,0,-1,1049,1100,0,0
-168,-76,0,0,0,0,0,0,0,0,0,-1,1056,1100,0,0
-161,-76,0,0,0,0,0,0,0,0,0,-1,1063,1100,0,0
-154,-76,0,0,0,0,0,0,0,0,0,-1,1070,1100,0,0
-147,-76,0,0,0,0,0,0,0,0,0,-1,1077,1100,0,0
-140,-76,0,0,0,0,0,0,0,0,0,-1,1084,1100,0,0
-133,-76,0,0,0,0,0,0,0,0,0,-1,1091,1100,0,0
-126,-76,0,0,0,0,0,0,0,0,0,-1,1098,1100,0,0
-119,-76,0,0,0,0,0,0,0,0,0,-1,1105,1100,0,0
-112,-76,0,0,0,0,0,0,0,0,0,-1,1112,1100,0,0
-105,-76,0,0,0,0,0,0,0,0,0,-1,1119,1100,0,0
-98,-76,0,0,0,0,0,0,0,0,0,-1,1126,1100,0,0
-91,-76,0,0,0,0,0,0,0,0,0,-1,1133,1100,0,0
-84,-76,0,0,0,0,0,0,0,0,0,-1,1140,1100,0,0
-77,-76,0,0,0,0,0,0,0,0,0,-1,1147,1100,0,0
-70,-76,0,0,0,0,0,0,0,0,0,-1,1154,1100,0,0
-63,-76,0,0,0,0,0,0,0,0,0,-1,1161,1100,0,0
-56,-76,0,0,0,0,0,0,0,0,0,-1,1168,1100,0,0
-49,-76,0,0,0,0,0,0,0,0,0,-1,1175,1100,0,0
-42,-76,0,0,0,0,0,0,0,0,0,-1,1182,1100,0,0
-35,-76,0,0,0,0,0,0,0,0,0,-1,1189,1100,0,0
-28,-76,0,0,0,0,0,0,0,0,0,-1,1196,1100,0,0
-21,-76,0,0,0,0,0,0,0,0,0,-1,1203,1100,0,0
-14,-76,0,0,0,0,0,0,0,0,0,-1,1210,1100,0,0
-7,-76,0,0,0,0,0,0,0,0,0,-1,1217,1100,0,0
0,-76,0,0,0,0,0,0,0,0,0,-1,1224,1100,0,0
7,-76,0,0,0,0,0,0,0,0,0,-1,1231,1100,0,0
14,-76,0,0,0,0,0,0,0,0,0,-1,1238,1100,0,0
21,-76,0,0,0,0,0,0,0,0,0,-1,1245,1100,0,0
28,-76,0,0,0,0,0,0,0,0,0,-1,1252,1100,0,0
35,-76,0,0,0,0,0,0,0,0,0,-1,1259,1100,0,0
42,-76,0,0,0,0,0,0,0,0,0,-1,1266,1100,0,0
49,-76,0,0,0,0,0,0,0,0,0,-1,1273,1100,0,0
56,-76,0,0,0,0,0,0,0,0,0,-1,1280,1100,0,0
63,-76,0,0,0,0,0,0,0,0,0,-1,1287,1100,0,0
70,-76,0,0,0,0,0,0,0,0,0,-1,1294,1100,0,0
77,-76,0,0,0,0,0,0,0,0,0,-1,1301,1100,0,0
84,-76,0,0,0,0,0,0,0,0,0,-1,1308,1100,0,0
91,-76,0,0,0,0,0,0,0,0,0,-1,1315,1100,0,0
98,-76,0,0,0,0,0,0,0,0,0,-1,1322,1100,0,0
105,-76,0,0,0,0,0,0,0,0,0,-1,1329,1100,0,0
112,-76,0,0,0,0,0,0,0,0,0,-1,1336,1100,0,0
119,-76,0,0,0,0,0,0,0,0,0,-1,1343,1100,0,0
126,-76,0,0,0,0,0,0,0,0,0,-1,1350,1100,0,0
133,-76,0,0,0,0,0,0,0,0,0,-1,1357,1100,0,0
140,-76,0,0,0,0,0,0,0,0,0,-1,1364,1100,0,0
147,-76,0,0,0,0,0,0,0,0,0,-1,1371,1100,0,0
154,-76,0,0,0,0,0,0,0,0,0,-1,1378,1100,0,0
161,-76,0,0,0,0,0,0,0,0,0,-1,1385,1100,0,0
168,-76,0,0,0,0,0,0,0,0,0,-1,1392,1100,0,0
175,-76,0,0,0,0,0,0,0,0,0,-1,1399,1100,0,0
182,-76,0,0,0,0,0,0,0,0,0,-1,1406,1100,0,0
189,-76,0,0,0,0,0,0,0,0,0,-1,1413,1100,0,0
196,-76,0,0,0,0,0,0,0,0,0,-1,1420,1100,0,0
203,-76,0,0,0,0,0,0,0,0,0,-1,1427,1100,0,0
210,-76,0,0,0,0,0,0,0,0,0,-1,1434,1100,0,0
217,-76,0,0,0,0,0,0,0,0,0,-1,1441,1100,0,0
224,-76,0,0,0,0,0,0,0,0,0,-1,1448,1100,0,0
231,-76,0,0,0,0,0,0,0,0,0,-1,1455,1100,0,0
238,-76,0,0,0,0,0,0,0,0,0,-1,1462,1100,0,0
245,-76,0,0,0,0,0,0,0,0,0,-1,1469,1100,0,0
252,-76,0,0,0,0,0,0,0,0,0,-1,1476,1100,0,0
259,-76,0,0,0,0,0,0,0,0,0,-1,1483,1100,0,0
266,-76,0,0,0,0,0,0,0,0,0,-1,1490,1100,0,0
273,-76,0,0,0,0,0,0,0,0,0,-1,1497,1100,0,0
280,-76,0,0,0,0,0,0,0,0,0,-1,1504,1100,0,0
287,-76,0,0,0,0,0,0,0,0,0,-1,1511,1100,0,0
294,-76,0,0,0,0,0,0,0,0,0,-1,1518,1100,0,0
301,-76,0,0,0,0,0,0,0,0,0,-1,1525,1100,0,0
308,-76,0,0,0,0,0,0,0,0,0,-1,1532,1100,0,0
315,-76,0,0,0,0,0,0,0,0,0,-1,1539,1100,0,0
322,-76,0,0,0,0,0,0,0,0,0,-1,1546,1100,0,0
329,-76,0,0,0,0,0,0,0,0,0,-1,1553,1100,0,0
336,-76,0,0,0,0,0,0,0,0,0,-1,1560,1100,0,0
343,-76,0,0,0,0,0,0,0,0,0,-1,1567,1100,0,0
350,-76,0,0,0,0,0,0,0,0,0,-1,1574,1100,0,0
357,-76,0,0,0,0,0,0,0,0,0,-1,1581,1100,0,0
364,-76,0,0,0,0,0,0,0,0,0,-1,1588,1100,0,0
371,-76,0,0,0,0,0,0,0,0,0,-1,1595,1100,0,0
378,-76,0,0,0,0,0,0,0,0,0,-1,1602,1100,0,0
385,-76,0,0,0,0,0,0,0,0,0,-1,1609,1100,0,0
392,-76,0,0,0,0,0,0,0,0,0,-1,1616,1100,0,0
399,-76,0,0,0,0,0,0,0,0,0,-1,1623,1100,0,0
406,-76,0,0,0,0,0,0,0,0,0,-1,1630,1100,0,0
413,-76,0,0,0,0,0,0,0,0,0,-1,1637,1100,0,0
420,-76,0,0,0,0,0,0,0,0,0,-1,1644,1100,0,0
427,-76,0,0,0,0,0,0,0,0,0,-1,1651,1100,0,0
434,-76,0,0,0,0,0,0,0,0,0,-1,1658,1100,0,0
441,-76,0,0,0,0,0,0,0,0,0,-1,1665,1100,0,0
448,-76,0,0,0,0,0,0,0,0,0,-1,1672,1100,0,0
455,-76,0,0,0,0,0,0,0,0,0,-1,1679,1100,0,0
462,-76,0,0,0,0,0,0,0,0,0,-1,1686,1100,0,0
469,-76,0,0,0,0,0,0,0,0,0,-1,1693,1100,0,0
476,-76,0,0,0,0,0,0,0,0,0,-1,1700,1100,0,0
483,-76,0,0,0,0,0,0,0,0,0,-1,1707,1100,0,0
490,-76,0,0,0,0,0,0,0,0,0,-1,1714,1100,0,0
497,-76,0,0,0,0,0,0,0,0,0,-1,1721,1100,0,0
504,-76,0,0,0,0,0,0,0,0,0,-1,1728,1100,0,0
511,-76,0,0,0,0,0,0,0,0,0,-1,1735,1100,0,0
518,-76,0,0,0,0,0,0,0,0,0,-1,1742,1100,0,0
525,-76,0,0,0,0,0,0,0,0,0,-1,1749,1100,0,0
532,-76,0,0,0,0,0,0,0,0,0,-1,1756,1100,0,0
539,-76,0,0,0,0,0,0,0,0,0,-1,1763,1100,0,0
546,-76,0,0,0,0,0,0,0,0,0,-1,1770,1100,0,0
553,-76,0,0,0,0,0,0,0,0,0,-1,1777,1100,0,0
560,-76,0,0,0,0,0,0,0,0,0,-1,1784,1100,0,0
567,-76,0,0,0,0,0,0,0,0,0,-1,1791,1100,0,0
574,-76,0,0,0,0,0,0,0,0,0,-1,1798,1100,0,0
581,-76,0,0,0,0,0,0,0,0,0,-1,1805,1100,0,0
588,-76,0,0,0,0,0,0,0,0,0,-1,1812,1100,0,0
595,-76,0,0,0,0,0,0,0,0,0,-1,1819,1100,0,0
602,-76,0,0,0,0,0,0,0,0,0,-1,1826,1100,0,0
609,-76,0,0,0,0,0,0,0,0,0,-1,1833,1100,0,0
616,-76,0,0,0,0,0,0,0,0,0,-1,1840,1100,0,0
623,-76,0,0,0,0,0,0,0,0,0,-1,1847,1100,0,0
630,-76,0,0,0,0,0,0,0,0,0,-1,1854,1100,0,0
637,-76,0,0,0,0,0,0,0,0,0,-1,1861,1100,0,0
644,-76,0,0,0,0,0,0,0,0,0,-1,1868,1100,0,0
651,-76,28.9886,2.42249,0.00234452,-0.00205446,-2.42709e-05,0.00234465,-0.00205459,-0.00551717,0.00254174,0.0393178,1875,1100,28.9886,-2.42243
658,-76,29.0767,2.39417,0.00182507,-0.00162764,8.98924e-05,0.00182741,-0.00162998,0.0260118,0.00199721,0.0416052,1882,1100,29.0767,-2.39416
665,-76,29.1427,2.39587,0.00154692,-0.00125164,6.76683e-06,0.00154694,-0.00125165,0.00241795,0.00161876,0.0369447,1889,1100,29.1427,-2.39589
672,-76,29.0841,2.38696,0.000778795,-0.00119743,0.000633826,0.000964608,-0.00138324,0.285171,0.0013627,0.0344271,1896,1100,29.0841,-2.38701
679,-76,29.0815,2.43933,-0.000518807,-0.00143707,0.00179198,0.000871925,-0.00282781,0.659988,0.00223332,0.0362678,1903,1100,29.0816,-2.43936
686,-76,29.1658,2.51404,-0.00178304,-0.001821,0.00289828,0.00109633,-0.00470036,0.782124,0.00355581,0.0370812,1910,1100,29.1658,-2.51398
693,-76,29.0947,2.57422,-0.00280853,-0.002228,0.00387293,0.00136553,-0.00640205,0.822802,0.00478856,0.0365241,1917,1100,29.0948,-2.57417
700,-76,29.0693,2.54248,-0.00360608,-0.00252473,0.00466945,0.00163525,-0.00776606,0.843036,0.00579981,0.029966,1924,1100,29.0693,-2.54248
707,-76,29.1007,2.55432,-0.00422382,-0.00271174,0.00519769,0.00178461,-0.00872016,0.85762,0.00649061,0.0210611,1931,1100,29.1007,-2.55431
714,-76,29.0554,2.98889,0,0,0,0,0,0,0,-1,1938,1100,29.0554,-2.98893
721,-76,28.6589,4.00208,-0.00515407,-0.00270175,0.00571625,0.00191837,-0.00977419,0.891049,0.00724079,0.0426909,1945,1100,28.6589,-4.00204
728,-76,28.2096,4.80103,-0.00532621,-0.00248649,0.00572688,0.00199392,-0.00980662,0.906912,0.00729381,0.0306213,1952,1100,28.2096,-4.80106
735,-76,27.8794,4.78442,-0.00532087,-0.0020893,0.00548178,0.00200987,-0.00942004,0.928718,0.00704619,0.0242145,1959,1100,27.8794,-4.7844
742,-76,28.0549,4.65344,-0.00508413,-0.00158611,0.0046787,0.0016598,-0.00833004,0.964268,0.00618136,0.0170376,1966,1100,28.055,-4.65347
749,-76,28.0044,4.48486,-0.00483546,-0.000486433,0.00396445,0.00186071,-0.0071826,1.03625,0.00551429,0.0178263,1973,1100,28.0044,-4.48484
756,-76,28.03,4.3772,-0.00479819,0.00187086,0.00340735,0.00330384,-0.00623117,1.1727,0.00559085,0.0155985,1980,1100,28.0301,-4.37717
763,-76,28.0107,4.2478,-0.00450476,0.00487192,0.00254468,0.00551799,-0.00515083,1.32216,0.00616086,0.0154068,1987,1100,28.0107,-4.2478
770,-76,28.0006,4.125,-0.00417418,0.00865824,0.00157426,0.00884855,-0.00436448,1.45049,0.0077736,0.014477,1994,1100,28.0006,-4.125
777,-76,27.991,4.0343,-0.0041616,0.0136667,0.0011506,0.0137406,-0.00423556,1.50661,0.0108514,0.0177419,2001,1100,27.9909,-4.03427
784,-76,27.9829,3.91895,-0.00470962,0.0196272,0.00149569,0.0197188,-0.0048012,1.50965,0.0150045,0.0322605,2008,1100,27.9829,-3.91893
791,-76,27.924,3.92859,-0.00548054,0.0272422,0.00223972,0.0273947,-0.00563313,1.50277,0.0204018,0.0430645,2015,1100,27.9239,-3.9286
798,-76,28.0374,3.88977,-0.00616062,0.0370336,0.00337148,0.0372952,-0.00642219,1.49337,0.0272575,0.0408552,2022,1100,28.0374,-3.88977
805,-76,29.3308,4.25171,0,0,0,0,0,0,0,-1,2029,1100,29.3309,-4.25168
812,-76,29.9089,4.21436,0,0,0,0,0,0,0,-1,2036,1100,29.909,-4.2143
-700,-83,0,0,0,0,0,0,0,0,0,-1,524,1107,0,0
-693,-83,-22.9113,-2.71033,0,0,0,0,0,0,0,-1,531,1107,-22.9113,2.71028
-686,-83,-21.0288,-1.76843,0,0,0,0,0,0,0,-1,538,1107,-21.0288,1.76843
-679,-83,-19.0513,-1.19568,0,0,0,0,0,0,0,-1,545,1107,-19.0513,1.19564
-672,-83,-17.2773,-0.460327,0,0,0,0,0,0,0,-1,552,1107,-17.2773,0.460276
-665,-83,-15.6722,0.465088,0,0,0,0,0,0,0,-1,559,1107,-15.6722,-0.465122
-658,-83,-19.7911,0.125366,0.0497056,0.00614553,0.00314243,0.0499311,0.00592,0.0716458,0.0315,0.0410381,566,1107,-19.7911,-0.125321
-651,-83,-19.3165,0.937744,0.0328065,0.0048642,0.00339572,0.0332133,0.00445745,0.119215,0.0208161,0.0307516,573,1107,-19.3165,-0.937721
-644,-83,-19.2418,1.30334,0.0207042,0.0037363,0.00319662,0.0212864,0.00315406,0.180168,0.0132652,0.0150299,580,1107,-19.2418,-1.30336
-637,-83,-19.2828,1.4917,0.01203,0.00258873,0.00200827,0.0124395,0.0021793,0.201114,0.00767045,0.0116232,587,1107,-19.2828,-1.49167
-630,-83,-19.3282,1.6803,0.00488359,0.00157952,-8.27073e-05,0.00488566,0.00157745,-0.0250111,0.00287913,0.0157876,594,1107,-19.3282,-1.68028
-623,-83,-19.324,1.82568,-0.000176929,0.000465313,-0.00219777,0.0023653,-0.00207691,-0.857941,0.00256651,0.0147095,601,1107,-19.3241,-1.82567
-616,-83,-19.3176,1.97668,-0.00191389,-0.000440217,-0.00413614,0.0030242,-0.00537831,-0.873546,0.00491425,0.0123494,608,1107,-19.3177,-1.97667
-609,-83,-19.322,2.15759,-0.00253888,-0.000913794,-0.00554143,0.00387435,-0.00732703,-0.858195,0.00656873,0.0128104,615,1107,-19.322,-2.15757
-602,-83,-19.3232,2.34448,-0.00313331,-0.00117181,-0.00700126,0.00491706,-0.00922219,-0.854986,0.00828847,0.0146148,622,1107,-19.3232,-2.34449
-595,-83,-19.0728,2.73035,0,0,0,0,0,0,0,-1,629,1107,-19.0727,-2.73037
-588,-83,-19.5602,2.02588,-0.00366863,-0.00181449,-0.00814672,0.00545775,-0.0109409,-0.842053,0.00964254,0.0426908,636,1107,-19.5602,-2.02593
-581,-83,-20.1329,0.944824,-0.00340014,-0.0019612,-0.00792075,0.00527269,-0.010634,-0.830691,0.00935601,0.04692,643,1107,-20.133,-0.944813
-574,-83,-20.2672,0.491333,-0.00293774,-0.00190286,-0.00741734,0.00501507,-0.00985567,-0.820222,0.00873593,0.0350576,650,1107,-20.2672,-0.491297
-567,-83,-20.2703,0.640137,-0.00227867,-0.00173421,-0.00634451,0.00434391,-0.00835679,-0.806839,0.00745376,0.0403785,657,1107,-20.2703,-0.640146
-560,-83,-20.3125,0.905151,-0.00128261,-0.00143892,-0.00465239,0.00329228,-0.00601381,-0.777,0.00544892,0.0423991,664,1107,-20.3125,-0.905162
-553,-83,-20.2819,0.820923,6.1497e-05,-0.00106709,-0.00234369,0.00190787,-0.00291347,-0.667261,0.00280371,0.042947,671,1107,-20.2819,-0.820946
-546,-83,-20.2619,0.748169,0.00188943,-0.000695226,0.000584175,0.00201533,-0.000821127,0.212272,0.00168532,0.0395489,678,1107,-20.2619,-0.748119
-539,-83,-20.192,0.755371,0.00409772,-0.000494014,0.00355123,0.00603059,-0.00242689,0.498443,0.00502852,0.0412368,685,1107,-20.192,-0.755419
-532,-83,-20.1625,0.873535,0.00538765,-0.00108863,0.0040188,0.00731055,-0.00301153,0.44628,0.00612932,0.0449097,692,1107,-20.1625,-0.873519
-525,-83,0,0,0,0,0,0,0,0,0,-1,699,1107,0,0
-518,-83,0,0,0,0,0,0,0,0,0,-1,706,1107,0,0
-511,-83,0,0,0,0,0,0,0,0,0,-1,713,1107,0,0
-504,-83,0,0,0,0,0,0,0,0,0,-1,720,1107,0,0
-497,-83,0,0,0,0,0,0,0,0,0,-1,727,1107,0,0
-490,-83,0,0,0,0,0,0,0,0,0,-1,734,1107,0,0
-483,-83,0,0,0,0,0,0,0,0,0,-1,741,1107,0,0
-476,-83,0,0,0,0,0,0,0,0,0,-1,748,1107,0,0
-469,-83,0,0,0,0,0,0,0,0,0,-1,755,1107,0,0
-462,-83,0,0,0,0,0,0,0,0,0,-1,762,1107,0,0
-455,-83,0,0,0,0,0,0,0,0,0,-1,769,1107,0,0
-448,-83,0,0,0,0,0,0,0,0,0,-1,776,1107,0,0
-441,-83,0,0,0,0,0,0,0,0,0,-1,783,1107,0,0
-434,-83,0,0,0,0,0,0,0,0,0,-1,790,1107,0,0
-427,-83,0,0,0,0,0,0,0,0,0,-1,797,1107,0,0
-420,-83,0,0,0,0,0,0,0,0,0,-1,804,1107,0,0
-413,-83,0,0,0,0,0,0,0,0,0,-1,811,1107,0,0
-406,-83,0,0,0,0,0,0,0,0,0,-1,818,1107,0,0
-399,-83,0,0,0,0,0,0,0,0,0,-1,825,1107,0,0
-392,-83,0,0,0,0,0,0,0,0,0,-1,832,1107,0,0
-385,-83,0,0,0,0,0,0,0,0,0,-1,839,1107,0,0
-378,-83,0,0,0,0,0,0,0,0,0,-1,846,1107,0,0
-371,-83,0,0,0,0,0,0,0,0,0,-1,853,1107,0,0
-364,-83,0,0,0,0,0,0,0,0,0,-1,860,1107,0,0
-357,-83,0,0,0,0,0,0,0,0,0,-1,867,1107,0,0
-350,-83,0,0,0,0,0,0,0,0,0,-1,874,1107,0,0
-343,-83,0,0,0,0,0,0,0,0,0,-1,881,1107,0,0
-336,-83,0,0,0,0,0,0,0,0,0,-1,888,1107,0,0
-329,-83,0,0,0,0,0,0,0,0,0,-1,895,1107,0,0
-322,-83,0,0,0,0,0,0,0,0,0,-1,902,1107,0,0
-315,-83,0,0,0,0,0,0,0,0,0,-1,909,1107,0,0
-308,-83,0,0,0,0,0,0,0,0,0,-1,916,1107,0,0
-301,-83,0,0,0,0,0,0,0,0,0,-1,923,1107,0,0
-294,-83,0,0,0,0,0,0,0,0,0,-1,930,1107,0,0
-287,-83,0,0,0,0,0,0,0,0,0,-1,937,1107,0,0
-280,-83,0,0,0,0,0,0,0,0,0,-1,944,1107,0,0
-273,-83,0,0,0,0,0,0,0,0,0,-1,951,1107,0,0
-266,-83,0,0,0,0,0,0,0,0,0,-1,958,1107,0,0
-259,-83,0,0,0,0,0,0,0,0,0,-1,965,1107,0,0
-252,-83,0,0,0,0,0,0,0,0,0,-1,972,1107,0,0
-245,-83,0,0,0,0,0,0,0,0,0,-1,979,1107,0,0
-238,-83,0,0,0,0,0,0,0,0,0,-1,986,1107,0,0
-231,-83,0,0,0,0,0,0,0,0,0,-1,993,1107,0,0
-224,-83,0,0,0,0,0,0,0,0,0,-1,1000,1107,0,0
-217,-83,0,0,0,0,0,0,0,0,0,-1,1007,1107,0,0
-210,-83,0,0,0,0,0,0,0,0,0,-1,1014,1107,0,0
-203,-83,0,0,0,0,0,0,0,0,0,-1,1021,1107,0,0
-196,-83,0,0,0,0,0,0,0,0,0,-1,1028,1107,0,0
-189,-83,0,0,0,0,0,0,0,0,0,-1,1035,1107,0,0
-182,-83,0,0,0,0,0,0,0,0,0,-1,1042,1107,0,0
-175,-83,0,0,0,0,0,0,0,0,0,-1,1049,1107,0,0
-168,-83,0,0,0,0,0,0,0,0,0,-1,1056,1107,0,0
-161,-83,0,0,0,0,0,0,0,0,0,-1,1063,1107,0,0
-154,-83,0,0,0,0,0,0,0,0,0,-1,1070,1107,0,0
-147,-83,0,0,0,0,0,0,0,0,0,-1,1077,1107,0,0
-140,-83,0,0,0,0,0,0,0,0,0,-1,1084,1107,0,0
-133,-83,0,0,0,0,0,0,0,0,0,-1,1091,1107,0,0
-126,-83,0,0,0,0,0,0,0,0,0,-1,1098,1107,0,0
-119,-83,0,0,0,0,0,0,0,0,0,-1,1105,1107,0,0
-112,-83,0,0,0,0,0,0,0,0,0,-1,1112,1107,0,0
-105,-83,0,0,0,0,0,0,0,0,0,-1,1119,1107,0,0
-98,-83,0,0,0,0,0,0,0,0,0,-1,1126,1107,0,0
-91,-83,0,0,0,0,0,0,0,0,0,-1,1133,1107,0,0
-84,-83,0,0,0,0,0,0,0,0,0,-1,1140,1107,0,0
-77,-83,0,0,0,0,0,0,0,0,0,-1,1147,1107,0,0
-70,-83,0,0,0,0,0,0,0,0,0,-1,1154,1107,0,0
-63,-83,0,0,0,0,0,0,0,0,0,-1,1161,1107,0,0
-56,-83,0,0,0,0,0,0,0,0,0,-1,1168,1107,0,0
-49,-83,0,0,0,0,0,0,0,0,0,-1,1175,1107,0,0
-42,-83,0,0,0,0,0,0,0,0,0,-1,1182,1107,0,0
-35,-83,0,0,0,0,0,0,0,0,0,-1,1189,1107,0,0
-28,-83,0,0,0,0,0,0,0,0,0,-1,1196,1107,0,0
-21,-83,0,0,0,0,0,0,0,0,0,-1,1203,1107,0,0
-14,-83,0,0,0,0,0,0,0,0,0,-1,1210,1107,0,0
-7,-83,0,0,0,0,0,0,0,0,0,-1,1217,1107,0,0
0,-83,0,0,0,0,0,0,0,0,0,-1,1224,1107,0,0
7,-83,0,0,0,0,0,0,0,0,0,-1,1231,1107,0,0
14,-83,0,0,0,0,0,0,0,0,0,-1,1238,1107,0,0
21,-83,0,0,0,0,0,0,0,0,0,-1,1245,1107,0,0
28,-83,0,0,0,0,0,0,0,0,0,-1,1252,1107,0,0
35,-83,0,0,0,0,0,0,0,0,0,-1,1259,1107,0,0
42,-83,0,0,0,0,0,0,0,0,0,-1,1266,1107,0,0
49,-83,0,0,0,0,0,0,0,0,0,-1,1273,1107,0,0
56,-83,0,0,0,0,0,0,0,0,0,-1,1280,1107,0,0
63,-83,0,0,0,0,0,0,0,0,0,-1,1287,1107,0,0
70,-83,0,0,0,0,0,0,0,0,0,-1,1294,1107,0,0
77,-83,0,0,0,0,0,0,0,0,0,-1,1301,1107,0,0
84,-83,0,0,0,0,0,0,0,0,0,-1,1308,1107,0,0
91,-83,0,0,0,0,0,0,0,0,0,-1,1315,1107,0,0
98,-83,0,0,0,0,0,0,0,0,0,-1,1322,1107,0,0
105,-83,0,0,0,0,0,0,0,0,0,-1,1329,1107,0,0
112,-83,0,0,0,0,0,0,0,0,0,-1,1336,1107,0,0
119,-83,0,0,0,0,0,0,0,0,0,-1,1343,1107,0,0
126,-83,0,0,0,0,0,0,0,0,0,-1,1350,1107,0,0
133,-83,0,0,0,0,0,0,0,0,0,-1,1357,1107,0,0
140,-83,0,0,0,0,0,0,0,0,0,-1,1364,1107,0,0
147,-83,0,0,0,0,0,0,0,0,0,-1,1371,1107,0,0
154,-83,0,0,0,0,0,0,0,0,0,-1,1378,1107,0,0
161,-83,0,0,0,0,0,0,0,0,0,-1,1385,1107,0,0
168,-83,0,0,0,0,0,0,0,0,0,-1,1392,1107,0,0
175,-83,0,0,0,0,0,0,0,0,0,-1,1399,1107,0,0
182,-83,0,0,0,0,0,0,0,0,0,-1,1406,1107,0,0
189,-83,0,0,0,0,0,0,0,0,0,-1,1413,1107,0,0
196,-83,0,0,0,0,0,0,0,0,0,-1,1420,1107,0,0
203,-83,0,0,0,0,0,0,0,0,0,-1,1427,1107,0,0
210,-83,0,0,0,0,0,0,0,0,0,-1,1434,1107,0,0
217,-83,0,0,0,0,0,0,0,0,0,-1,1441,1107,0,0
224,-83,0,0,0,0,0,0,0,0,0,-1,1448,1107,0,0
231,-83,0,0,0,0,0,0,0,0,0,-1,1455,1107,0,0
238,-83,0,0,0,0,0,0,0,0,0,-1,1462,1107,0,0
245,-83,0,0,0,0,0,0,0,0,0,-1,1469,1107,0,0
252,-83,0,0,0,0,0,0,0,0,0,-1,1476,1107,0,0
259,-83,0,0,0,0,0,0,0,0,0,-1,1483,1107,0,0
266,-83,0,0,0,0,0,0,0,0,0,-1,1490,1107,0,0
273,-83,0,0,0,0,0,0,0,0,0,-1,1497,1107,0,0
280,-83,0,0,0,0,0,0,0,0,0,-1,1504,1107,0,0
287,-83,0,0,0,0,0,0,0,0,0,-1,1511,1107,0,0
294,-83,0,0,0,0,0,0,0,0,0,-1,1518,1107,0,0
301,-83,0,0,0,0,0,0,0,0,0,-1,1525,1107,0,0
308,-83,0,0,0,0,0,0,0,0,0,-1,1532,1107,0,0
315,-83,0,0,0,0,0,0,0,0,0,-1,1539,1107,0,0
322,-83,0,0,0,0,0,0,0,0,0,-1,1546,1107,0,0
329,-83,0,0,0,0,0,0,0,0,0,-1,1553,1107,0,0
336,-83,0,0,0,0,0,0,0,0,0,-1,1560,1107,0,0
343,-83,0,0,0,0,0,0,0,0,0,-1,1567,1107,0,0
350,-83,0,0,0,0,0,0,0,0,0,-1,1574,1107,0,0
357,-83,0,0,0,0,0,0,0,0,0,-1,1581,1107,0,0
364,-83,0,0,0,0,0,0,0,0,0,-1,1588,1107,0,0
371,-83,0,0,0,0,0,0,0,0,0,-1,1595,1107,0,0
378,-83,0,0,0,0,0,0,0,0,0,-1,1602,1107,0,0
385,-83,0,0,0,0,0,0,0,0,0,-1,1609,1107,0,0
392,-83,0,0,0,0,0,0,0,0,0,-1,1616,1107,0,0
399,-83,0,0,0,0,0,0,0,0,0,-1,1623,1107,0,0
406,-83,0,0,0,0,0,0,0,0,0,-1,1630,1107,0,0
413,-83,0,0,0,0,0,0,0,0,0,-1,1637,1107,0,0
420,-83,0,0,0,0,0,0,0,0,0,-1,1644,1107,0,0
427,-83,0,0,0,0,0,0,0,0,0,-1,1651,1107,0,0
434,-83,0,0,0,0,0,0,0,0,0,-1,1658,1107,0,0
441,-83,0,0,0,0,0,0,0,0,0,-1,1665,1107,0,0
448,-83,0,0,0,0,0,0,0,0,0,-1,1672,1107,0,0
455,-83,0,0,0,0,0,0,0,0,0,-1,1679,1107,0,0
462,-83,0,0,0,0,0,0,0,0,0,-1,1686,1107,0,0
469,-83,0,0,0,0,0,0,0,0,0,-1,1693,1107,0,0
476,-83,0,0,0,0,0,0,0,0,0,-1,1700,1107,0,0
483,-83,0,0,0,0,0,0,0,0,0,-1,1707,1107,0,0
490,-83,0,0,0,0,0,0,0,0,0,-1,1714,1107,0,0
497,-83,0,0,0,0,0,0,0,0,0,-1,1721,1107,0,0
504,-83,0,0,0,0,0,0,0,0,0,-1,1728,1107,0,0
511,-83,0,0,0,0,0,0,0,0,0,-1,1735,1107,0,0
518,-83,0,0,0,0,0,0,0,0,0,-1,1742,1107,0,0
525,-83,0,0,0,0,0,0,0,0,0,-1,1749,1107,0,0
532,-83,0,0,0,0,0,0,0,0,0,-1,1756,1107,0,0
539,-83,0,0,0,0,0,0,0,0,0,-1,1763,1107,0,0
546,-83,0,0,0,0,0,0,0,0,0,-1,1770,1107,0,0
553,-83,0,0,0,0,0,0,0,0,0,-1,1777,1107,0,0
560,-83,0,0,0,0,0,0,0,0,0,-1,1784,1107,0,0
567,-83,0,0,0,0,0,0,0,0,0,-1,1791,1107,0,0
574,-83,0,0,0,0,0,0,0,0,0,-1,1798,1107,0,0
581,-83,0,0,0,0,0,0,0,0,0,-1,1805,1107,0,0
588,-83,0,0,0,0,0,0,0,0,0,-1,1812,1107,0,0
595,-83,0,0,0,0,0,0,0,0,0,-1,1819,1107,0,0
602,-83,0,0,0,0,0,0,0,0,0,-1,1826,1107,0,0
609,-83,0,0,0,0,0,0,0,0,0,-1,1833,1107,0,0
616,-83,0,0,0,0,0,0,0,0,0,-1,1840,1107,0,0
623,-83,0,0,0,0,0,0,0,0,0,-1,1847,1107,0,0
630,-83,0,0,0,0,0,0,0,0,0,-1,1854,1107,0,0
637,-83,0,0,0,0,0,0,0,0,0,-1,1861,1107,0,0
644,-83,29.0776,2.55591,0.00227773,-0.00322406,-0.00165552,0.00273747,-0.0036838,-0.270876,0.00372072,0.0359832,1868,1107,29.0776,-2.55593
651,-83,29.0829,2.38916,0.00169154,-0.00292383,-0.000904868,0.00186261,-0.00309489,-0.186843,0.00289154,0.040024,1875,1107,29.0829,-2.38912
658,-83,29.1031,2.2041,0.00142998,-0.00248687,-0.00055775,0.00150786,-0.00256475,-0.138725,0.00237756,0.0441406,1882,1107,29.1032,-2.20414
665,-83,29.1738,2.29468,0.00132018,-0.00204819,-0.000456338,0.0013809,-0.00210892,-0.132301,0.00202941,0.0390707,1889,1107,29.1738,-2.29466
672,-83,29.2062,2.40869,0.000499296,-0.00199723,0.000434277,0.000572682,-0.00207062,0.167403,0.00160572,0.0365233,1896,1107,29.2061,-2.40866
679,-83,29.1449,2.48511,-0.000892027,-0.00219767,0.0017814,0.000352407,-0.0034421,0.609765,0.00242077,0.0380313,1903,1107,29.1449,-2.48505
686,-83,29.1107,2.58691,-0.00224566,-0.00251451,0.00301808,0.000640984,-0.00540116,0.763143,0.00383235,0.0361429,1910,1107,29.1107,-2.58686
693,-83,29.0822,2.59607,-0.00336433,-0.00284022,0.00409288,0.000998988,-0.00720354,0.817368,0.00516764,0.0359355,1917,1107,29.0821,-2.59607
700,-83,29.1003,2.60156,-0.0042207,-0.00306171,0.00495933,0.00135186,-0.00863427,0.843559,0.00625568,0.0315191,1924,1107,29.1003,-2.60162
707,-83,29.1215,2.57056,-0.00490288,-0.0031788,0.00556417,0.00158971,-0.00967139,0.862251,0.0070376,0.0227384,1931,1107,29.1214,-2.57052
714,-83,28.9491,3.41162,0,0,0,0,0,0,0,-1,1938,1107,28.9491,-3.41165
721,-83,28.2162,4.45081,-0.00588996,-0.00302221,0.00611771,0.00182741,-0.0107396,0.900511,0.00784018,0.0324464,1945,1107,28.2162,-4.45078
728,-83,27.8661,4.88672,-0.00601807,-0.00275235,0.00611875,0.00194767,-0.0107181,0.915791,0.00787531,0.024413,1952,1107,27.8661,-4.88671
735,-83,27.7423,4.76233,-0.00593668,-0.00232686,0.00586852,0.00200804,-0.0102716,0.934586,0.00760594,0.0258726,1959,1107,27.7423,-4.76228
742,-83,27.8678,4.65759,-0.00562621,-0.00182809,0.00498616,0.00160841,-0.00906271,0.96735,0.00664317,0.0161541,1966,1107,27.8678,-4.65756
749,-83,27.9016,4.52417,-0.00523676,-0.000747422,0.00421699,0.0017851,-0.00776928,1.02997,0.0058658,0.0138665,1973,1107,27.9016,-4.5242
756,-83,27.9209,4.38318,-0.00504716,0.00185422,0.00374778,0.00349795,-0.00669089,1.15747,0.00597804,0.0154999,1980,1107,27.9209,-4.38312
763,-83,27.8983,4.23621,-0.00462808,0.00526267,0.00306421,0.00613503,-0.00550044,1.29344,0.00672107,0.0115253,1987,1107,27.8983,-4.23623
770,-83,27.8806,4.11475,-0.00419179,0.00951962,0.00235161,0.00991173,-0.00458389,1.40558,0.00855541,0.0126772,1994,1107,27.8806,-4.11474
777,-83,27.8573,4.00146,-0.00422846,0.0151229,0.00242386,0.0154219,-0.00452744,1.44807,0.0120767,0.0149526,2001,1107,27.8573,-4.00146
784,-83,27.8042,3.95447,-0.00490957,0.0220973,0.00343806,0.0225281,-0.00534038,1.44614,0.0170795,0.0247477,2008,1107,27.8042,-3.95442
791,-83,27.8319,3.97327,0,0,0,0,0,0,0,-1,2015,1107,27.8319,-3.9733
798,-83,27.6318,3.48413,-0.00672275,0.0432853,0.00743194,0.0443664,-0.00780388,1.42634,0.0324928,0.0427743,2022,1107,27.6317,-3.48417
805,-83,27.3027,3.33398,-0.00747903,0.0586704,0.0106668,0.0603479,-0.00915654,1.41481,0.0436058,0.044431,2029,1107,27.3028,-3.334
812,-83,30.334,4.40454,0,0,0,0,0,0,0,-1,2036,1107,30.334,-4.40448
-700,-90,0,0,0,0,0,0,0,0,0,-1,524,1114,0,0
-693,-90,-21.6383,-3.10681,0,0,0,0,0,0,0,-1,531,1114,-21.6383,3.1068
-686,-90,-19.9105,-2.25256,0,0,0,0,0,0,0,-1,538,1114,-19.9105,2.25262
-679,-90,-18.1022,-1.39648,0.141517,0.0165295,-0.00585102,0.14179,0.0162562,-0.0466768,0.089601,0.0458972,545,1114,-18.1022,1.39652
-672,-90,-16.2606,-0.51123,0,0,0,0,0,0,0,-1,552,1114,-16.2606,0.511252
-665,-90,-14.451,0.400513,0,0,0,0,0,0,0,-1,559,1114,-14.451,-0.400534
-658,-90,-19.4735,0.522705,0.0512421,0.00803487,0.001291,0.0512807,0.00799633,0.0298437,0.031858,0.0429951,566,1114,-19.4735,-0.52267
-651,-90,-19.0964,0.898926,0.0339998,0.00605033,0.0020504,0.0341494,0.00590071,0.0728413,0.0210765,0.0311235,573,1114,-19.0964,-0.898875
-644,-90,-19.0971,1.21643,0.0216574,0.00441668,0.00224127,0.021944,0.00413009,0.127183,0.0134655,0.0138039,580,1114,-19.0971,-1.21639
-637,-90,-19.0994,1.47522,0.0128597,0.00294472,0.00151156,0.0130851,0.0027194,0.147975,0.00797303,0.0117485,587,1114,-19.0994,-1.47524
-630,-90,-19.1093,1.65601,0.00539386,0.00173538,-9.48812e-05,0.00539631,0.00173292,-0.0259114,0.00318132,0.0108996,594,1114,-19.1093,-1.65602
-623,-90,-19.1175,1.81836,0.000188726,0.000492261,-0.00188422,0.00223082,-0.00154983,-0.825585,0.00219453,0.00871594,601,1114,-19.1175,-1.81831
-616,-90,-19.1375,2.00781,-0.00133477,-0.000515652,-0.00361159,0.00270953,-0.00455996,-0.841858,0.00424212,0.00867531,608,1114,-19.1374,-2.00782
-609,-90,-19.1465,2.17517,-0.0019248,-0.000962289,-0.0048381,0.00341843,-0.00630552,-0.834971,0.00569601,0.0124952,615,1114,-19.1466,-2.17521
-602,-90,-19.1846,2.3302,-0.0025742,-0.00116705,-0.00604487,0.00421505,-0.00795631,-0.843334,0.00713694,0.0127329,622,1114,-19.1847,-2.33023
-595,-90,-18.7297,2.71497,0,0,0,0,0,0,0,-1,629,1114,-18.7297,-2.71495
-588,-90,-19.3044,2.29382,0,0,0,0,0,0,0,-1,636,1114,-19.3044,-2.29379
-581,-90,-20.381,0.781982,0,0,0,0,0,0,0,-1,643,1114,-20.381,-0.781933
-574,-90,-20.3263,0.658813,-0.00242832,-0.00175877,-0.00621771,0.00413317,-0.00832026,-0.812293,0.0073242,0.0336966,650,1114,-20.3263,-0.658765
-567,-90,-20.2928,0.637451,-0.00185607,-0.00156666,-0.00529993,0.00359055,-0.00701327,-0.799046,0.00622752,0.0362243,657,1114,-20.2928,-0.637409
-560,-90,-20.256,0.77478,-0.00100575,-0.00123492,-0.00388748,0.00276883,-0.0050095,-0.770665,0.00455251,0.0399126,664,1114,-20.2561,-0.774757
-553,-90,-20.1926,0.816406,0.000139832,-0.000793026,-0.00198943,0.00171678,-0.00236997,-0.670251,0.00236951,0.0383202,671,1114,-20.1926,-0.816401
-546,-90,-20.1332,0.777466,0.00172739,-0.000294794,0.000407919,0.00180657,-0.000373979,0.191736,0.00134647,0.038557,678,1114,-20.1332,-0.77744
-539,-90,-20.0992,0.723877,0.00383319,0.000114183,0.00294176,0.00545387,-0.0015065,0.503552,0.0042285,0.0409347,685,1114,-20.0992,-0.723917
-532,-90,-20.2665,0.950073,0.00545315,-0.000133556,0.00343159,0.00708457,-0.00176498,0.443785,0.00540824,0.0426016,692,1114,-20.2666,-0.950047
-525,-90,0,0,0,0,0,0,0,0,0,-1,699,1114,0,0
-518,-90,0,0,0,0,0,0,0,0,0,-1,706,1114,0,0
-511,-90,0,0,0,0,0,0,0,0,0,-1,713,1114,0,0
-504,-90,0,0,0,0,0,0,0,0,0,-1,720,1114,0,0
-497,-90,0,0,0,0,0,0,0,0,0,-1,727,1114,0,0
-490,-90,0,0,0,0,0,0,0,0,0,-1,734,1114,0,0
-483,-90,0,0,0,0,0,0,0,0,0,-1,741,1114,0,0
-476,-90,0,0,0,0,0,0,0,0,0,-1,748,1114,0,0
-469,-90,0,0,0,0,0,0,0,0,0,-1,755,1114,0,0
-462,-90,0,0,0,0,0,0,0,0,0,-1,762,1114,0,0
-455,-90,0,0,0,0,0,0,0,0,0,-1,769,1114,0,0
-448,-90,0,0,0,0,0,0,0,0,0,-1,776,1114,0,0
-441,-90,0,0,0,0,0,0,0,0,0,-1,783,1114,0,0
-434,-90,0,0,0,0,0,0,0,0,0,-1,790,1114,0,0
-427,-90,0,0,0,0,0,0,0,0,0,-1,797,1114,0,0
-420,-90,0,0,0,0,0,0,0,0,0,-1,804,1114,0,0
-413,-90,0,0,0,0,0,0,0,0,0,-1,811,1114,0,0
-406,-90,0,0,0,0,0,0,0,0,0,-1,818,1114,0,0
-399,-90,0,0,0,0,0,0,0,0,0,-1,825,1114,0,0
-392,-90,0,0,0,0,0,0,0,0,0,-1,832,1114,0,0
-385,-90,0,0,0,0,0,0,0,0,0,-1,839,1114,0,0
-378,-90,0,0,0,0,0,0,0,0,0,-1,846,1114,0,0
-371,-90,0,0,0,0,0,0,0,0,0,-1,853,1114,0,0
-364,-90,0,0,0,0,0,0,0,0,0,-1,860,1114,0,0
-357,-90,0,0,0,0,0,0,0,0,0,-1,867,1114,0,0
-350,-90,0,0,0,0,0,0,0,0,0,-1,874,1114,0,0
-343,-90,0,0,0,0,0,0,0,0,0,-1,881,1114,0,0
-336,-90,0,0,0,0,0,0,0,0,0,-1,888,1114,0,0
-329,-90,0,0,0,0,0,0,0,0,0,-1,895,1114,0,0
-322,-90,0,0,0,0,0,0,0,0,0,-1,902,1114,0,0
-315,-90,0,0,0,0,0,0,0,0,0,-1,909,1114,0,0
-308,-90,0,0,0,0,0,0,0,0,0,-1,916,1114,0,0
-301,-90,0,0,0,0,0,0,0,0,0,-1,923,1114,0,0
-294,-90,0,0,0,0,0,0,0,0,0,-1,930,1114,0,0
-287,-90,0,0,0,0,0,0,0,0,0,-1,937,1114,0,0
-280,-90,0,0,0,0,0,0,0,0,0,-1,944,1114,0,0
-273,-90,0,0,0,0,0,0,0,0,0,-1,951,1114,0,0
-266,-90,0,0,0,0,0,0,0,0,0,-1,958,1114,0,0
-259,-90,0,0,0,0,0,0,0,0,0,-1,965,1114,0,0
-252,-90,0,0,0,0,0,0,0,0,0,-1,972,1114,0,0
-245,-90,0,0,0,0,0,0,0,0,0,-1,979,1114,0,0
-238,-90,0,0,0,0,0,0,0,0,0,-1,986,1114,0,0
-231,-90,0,0,0,0,0,0,0,0,0,-1,993,1114,0,0
-224,-90,0,0,0,0,0,0,0,0,0,-1,1000,1114,0,0
-217,-90,0,0,0,0,0,0,0,0,0,-1,1007,1114,0,0
-210,-90,0,0,0,0,0,0,0,0,0,-1,1014,1114,0,0
-203,-90,0,0,0,0,0,0,0,0,0,-1,1021,1114,0,0
-196,-90,0,0,0,0,0,0,0,0,0,-1,1028,1114,0,0
-189,-90,0,0,0,0,0,0,0,0,0,-1,1035,1114,0,0
-182,-90,0,0,0,0,0,0,0,0,0,-1,1042,1114,0,0
-175,-90,0,0,0,0,0,0,0,0,0,-1,1049,1114,0,0
-168,-90,0,0,0,0,0,0,0,0,0,-1,1056,1114,0,0
-161,-90,0,0,0,0,0,0,0,0,0,-1,1063,1114,0,0
-154,-90,0,0,0,0,0,0,0,0,0,-1,1070,1114,0,0
-147,-90,0,0,0,0,0,0,0,0,0,-1,1077,1114,0,0
-140,-90,0,0,0,0,0,0,0,0,0,-1,1084,1114,0,0
-133,-90,0,0,0,0,0,0,0,0,0,-1,1091,1114,0,0
-126,-90,0,0,0,0,0,0,0,0,0,-1,1098,1114,0,0
-119,-90,0,0,0,0,0,0,0,0,0,-1,1105,1114,0,0
-112,-90,0,0,0,0,0,0,0,0,0,-1,1112,1114,0,0
-105,-90,0,0,0,0,0,0,0,0,0,-1,1119,1114,0,0
-98,-90,0,0,0,0,0,0,0,0,0,-1,1126,1114,0,0
-91,-90,0,0,0,0,0,0,0,0,0,-1,1133,1114,0,0
-84,-90,0,0,0,0,0,0,0,0,0,-1,1140,1114,0,0
-77,-90,0,0,0,0,0,0,0,0,0,-1,1147,1114,0,0
-70,-90,0,0,0,0,0,0,0,0,0,-1,1154,1114,0,0
-63,-90,0,0,0,0,0,0,0,0,0,-1,1161,1114,0,0
-56,-90,0,0,0,0,0,0,0,0,0,-1,1168,1114,0,0
-49,-90,0,0,0,0,0,0,0,0,0,-1,1175,1114,0,0
-42,-90,0,0,0,0,0,0,0,0,0,-1,1182,1114,0,0
-35,-90,0,0,0,0,0,0,0,0,0,-1,1189,1114,0,0
-28,-90,0,0,0,0,0,0,0,0,0,-1,1196,1114,0,0
-21,-90,0,0,0,0,0,0,0,0,0,-1,1203,1114,0,0
-14,-90,0,0,0,0,0,0,0,0,0,-1,1210,1114,0,0
-7,-90,0,0,0,0,0,0,0,0,0,-1,1217,1114,0,0
0,-90,0,0,0,0,0,0,0,0,0,-1,1224,1114,0,0
7,-90,0,0,0,0,0,0,0,0,0,-1,1231,1114,0,0
14,-90,0,0,0,0,0,0,0,0,0,-1,1238,1114,0,0
21,-90,0,0,0,0,0,0,0,0,0,-1,1245,1114,0,0
28,-90,0,0,0,0,0,0,0,0,0,-1,1252,1114,0,0
35,-90,0,0,0,0,0,0,0,0,0,-1,1259,1114,0,0
42,-90,0,0,0,0,0,0,0,0,0,-1,1266,1114,0,0
49,-90,0,0,0,0,0,0,0,0,0,-1,1273,1114,0,0
56,-90,0,0,0,0,0,0,0,0,0,-1,1280,1114,0,0
63,-90,0,0,0,0,0,0,0,0,0,-1,1287,1114,0,0
70,-90,0,0,0,0,0,0,0,0,0,-1,1294,1114,0,0
77,-90,0,0,0,0,0,0,0,0,0,-1,1301,1114,0,0
84,-90,0,0,0,0,0,0,0,0,0,-1,1308,1114,0,0
91,-90,0,0,0,0,0,0,0,0,0,-1,1315,1114,0,0
98,-90,0,0,0,0,0,0,0,0,0,-1,1322,1114,0,0
105,-90,0,0,0,0,0,0,0,0,0,-1,1329,1114,0,0
112,-90,0,0,0,0,0,0,0,0,0,-1,1336,1114,0,0
119,-90,0,0,0,0,0,0,0,0,0,-1,1343,1114,0,0
126,-90,0,0,0,0,0,0,0,0,0,-1,1350,1114,0,0
133,-90,0,0,0,0,0,0,0,0,0,-1,1357,1114,0,0
140,-90,0,0,0,0,0,0,0,0,0,-1,1364,1114,0,0
147,-90,0,0,0,0,0,0,0,0,0,-1,1371,1114,0,0
154,-90,0,0,0,0,0,0,0,0,0,-1,1378,1114,0,0
161,-90,0,0,0,0,0,0,0,0,0,-1,1385,1114,0,0
168,-90,0,0,0,0,0,0,0,0,0,-1,1392,1114,0,0
175,-90,0,0,0,0,0,0,0,0,0,-1,1399,1114,0,0
182,-90,0,0,0,0,0,0,0,0,0,-1,1406,1114,0,0
189,-90,0,0,0,0,0,0,0,0,0,-1,1413,1114,0,0
196,-90,0,0,0,0,0,0,0,0,0,-1,1420,1114,0,0
203,-90,0,0,0,0,0,0,0,0,0,-1,1427,1114,0,0
210,-90,0,0,0,0,0,0,0,0,0,-1,1434,1114,0,0
217,-90,0,0,0,0,0,0,0,0,0,-1,1441,1114,0,0
224,-90,0,0,0,0,0,0,0,0,0,-1,1448,1114,0,0
231,-90,0,0,0,0,0,0,0,0,0,-1,1455,1114,0,0
238,-90,0,0,0,0,0,0,0,0,0,-1,1462,1114,0,0
245,-90,0,0,0,0,0,0,0,0,0,-1,1469,1114,0,0
252,-90,0,0,0,0,0,0,0,0,0,-1,1476,1114,0,0
259,-90,0,0,0,0,0,0,0,0,0,-1,1483,1114,0,0
266,-90,0,0,0,0,0,0,0,0,0,-1,1490,1114,0,0
273,-90,0,0,0,0,0,0,0,0,0,-1,1497,1114,0,0
280,-90,0,0,0,0,0,0,0,0,0,-1,1504,1114,0,0
287,-90,0,0,0,0,0,0,0,0,0,-1,1511,1114,0,0
294,-90,0,0,0,0,0,0,0,0,0,-1,1518,1114,0,0
301,-90,0,0,0,0,0,0,0,0,0,-1,1525,1114,0,0
308,-90,0,0,0,0,0,0,0,0,0,-1,1532,1114,0,0
315,-90,0,0,0,0,0,0,0,0,0,-1,1539,1114,0,0
322,-90,0,0,0,0,0,0,0,0,0,-1,1546,1114,0,0
329,-90,0,0,0,0,0,0,0,0,0,-1,1553,1114,0,0
336,-90,0,0,0,0,0,0,0,0,0,-1,1560,1114,0,0
343,-90,0,0,0,0,0,0,0,0,0,-1,1567,1114,0,0
350,-90,0,0,0,0,0,0,0,0,0,-1,1574,1114,0,0
357,-90,0,0,0,0,0,0,0,0,0,-1,1581,1114,0,0
364,-90,0,0,0,0,0,0,0,0,0,-1,1588,1114,0,0
371,-90,0,0,0,0,0,0,0,0,0,-1,1595,1114,0,0
378,-90,0,0,0,0,0,0,0,0,0,-1,1602,1114,0,0
385,-90,0,0,0,0,0,0,0,0,0,-1,1609,1114,0,0
392,-90,0,0,0,0,0,0,0,0,0,-1,1616,1114,0,0
399,-90,0,0,0,0,0,0,0,0,0,-1,1623,1114,0,0
406,-90,0,0,0,0,0,0,0,0,0,-1,1630,1114,0,0
413,-90,0,0,0,0,0,0,0,0,0,-1,1637,1114,0,0
420,-90,0,0,0,0,0,0,0,0,0,-1,1644,1114,0,0
427,-90,0,0,0,0,0,0,0,0,0,-1,1651,1114,0,0
434,-90,0,0,0,0,0,0,0,0,0,-1,1658,1114,0,0
441,-90,0,0,0,0,0,0,0,0,0,-1,1665,1114,0,0
448,-90,0,0,0,0,0,0,0,0,0,-1,1672,1114,0,0
455,-90,0,0,0,0,0,0,0,0,0,-1,1679,1114,0,0
462,-90,0,0,0,0,0,0,0,0,0,-1,1686,1114,0,0
469,-90,0,0,0,0,0,0,0,0,0,-1,1693,1114,0,0
476,-90,0,0,0,0,0,0,0,0,0,-1,1700,1114,0,0
483,-90,0,0,0,0,0,0,0,0,0,-1,1707,1114,0,0
490,-90,0,0,0,0,0,0,0,0,0,-1,1714,1114,0,0
497,-90,0,0,0,0,0,0,0,0,0,-1,1721,1114,0,0
504,-90,0,0,0,0,0,0,0,0,0,-1,1728,1114,0,0
511,-90,0,0,0,0,0,0,0,0,0,-1,1735,1114,0,0
518,-90,0,0,0,0,0,0,0,0,0,-1,1742,1114,0,0
525,-90,0,0,0,0,0,0,0,0,0,-1,1749,1114,0,0
532,-90,0,0,0,0,0,0,0,0,0,-1,1756,1114,0,0
539,-90,0,0,0,0,0,0,0,0,0,-1,1763,1114,0,0
546,-90,0,0,0,0,0,0,0,0,0,-1,1770,1114,0,0
553,-90,0,0,0,0,0,0,0,0,0,-1,1777,1114,0,0
560,-90,0,0,0,0,0,0,0,0,0,-1,1784,1114,0,0
567,-90,0,0,0,0,0,0,0,0,0,-1,1791,1114,0,0
574,-90,0,0,0,0,0,0,0,0,0,-1,1798,1114,0,0
581,-90,0,0,0,0,0,0,0,0,0,-1,1805,1114,0,0
588,-90,0,0,0,0,0,0,0,0,0,-1,1812,1114,0,0
595,-90,0,0,0,0,0,0,0,0,0,-1,1819,1114,0,0
602,-90,0,0,0,0,0,0,0,0,0,-1,1826,1114,0,0
609,-90,0,0,0,0,0,0,0,0,0,-1,1833,1114,0,0
616,-90,0,0,0,0,0,0,0,0,0,-1,1840,1114,0,0
623,-90,0,0,0,0,0,0,0,0,0,-1,1847,1114,0,0
630,-90,0,0,0,0,0,0,0,0,0,-1,1854,1114,0,0
637,-90,0,0,0,0,0,0,0,0,0,-1,1861,1114,0,0
644,-90,29.0944,2.58447,0.000928457,-0.00421279,-0.00279428,0.00215469,-0.00543902,-0.413531,0.00451885,0.0355751,1868,1114,29.0944,-2.5845
651,-90,29.175,2.55725,0.000769917,-0.00390708,-0.00178836,0.00137536,-0.00451252,-0.326436,0.00355658,0.0383622,1875,1114,29.175,-2.55725
658,-90,29.0808,2.28723,0.000924233,-0.00340404,-0.00131705,0.0012935,-0.0037733,-0.273353,0.00303986,0.0437654,1882,1114,29.0808,-2.28726
665,-90,29.2069,2.31885,0.000915101,-0.00288123,-0.000942488,0.00113621,-0.00310234,-0.230432,0.00253337,0.0435465,1889,1114,29.207,-2.31888
672,-90,29.1837,2.35815,-4.15626e-05,-0.00278018,0.000291484,-1.08822e-05,-0.00281086,0.10487,0.00187029,0.0426818,1896,1114,29.1837,-2.3582
679,-90,29.0674,2.62903,-0.00157472,-0.00288623,0.00187277,-0.000246217,-0.00421474,0.616993,0.00273145,0.0395321,1903,1114,29.0673,-2.62905
686,-90,29.0974,2.68945,-0.00305518,-0.00309467,0.0032755,0.000200635,-0.00635049,0.782384,0.0043021,0.0353811,1910,1114,29.0974,-2.6895
693,-90,29.085,2.58362,-0.00428422,-0.00331202,0.00446351,0.000691784,-0.00828802,0.839637,0.00576978,0.0355658,1917,1114,29.085,-2.58359
700,-90,29.1315,2.573,-0.0051931,-0.00344481,0.00540163,0.00115294,-0.00979086,0.865618,0.00694353,0.0309375,1924,1114,29.1315,-2.57296
707,-90,29.1327,2.52295,-0.00592026,-0.0034861,0.00606628,0.00148398,-0.0108903,0.884399,0.00780208,0.021993,1931,1114,29.1327,-2.523
714,-90,29.0245,4.55261,0,0,0,0,0,0,0,-1,1938,1114,29.0246,-4.55263
721,-90,28.0532,4.92529,-0.00690307,-0.00314972,0.00661637,0.00185097,-0.0119038,0.923589,0.00861934,0.0333909,1945,1114,28.0532,-4.92525
728,-90,27.7593,4.97571,-0.00694332,-0.00283271,0.00659045,0.00201549,-0.0117915,0.93655,0.00861182,0.0201399,1952,1114,27.7593,-4.97566
735,-90,27.6907,4.81775,-0.00672518,-0.00240405,0.00631434,0.00210913,-0.0112384,0.950238,0.00828526,0.0224974,1959,1114,27.6907,-4.8177
742,-90,27.7058,4.6499,-0.00627752,-0.00193965,0.00533214,0.0016478,-0.00986497,0.978561,0.00718914,0.0202963,1966,1114,27.7058,-4.64986
749,-90,27.8129,4.46802,-0.0057058,-0.000884999,0.00447844,0.00179051,-0.0083813,1.03228,0.00627017,0.0159777,1973,1114,27.8129,-4.46796
756,-90,27.8311,4.34888,-0.00533731,0.00198998,0.00405625,0.00379218,-0.00713951,1.15269,0.00640928,0.0156962,1980,1114,27.831,-4.34886
763,-90,27.7808,4.2207,-0.00475391,0.00592569,0.00353716,0.00699097,-0.00581919,1.27827,0.00740625,0.012034,1987,1114,27.7808,-4.22066
770,-90,27.7401,4.0918,-0.00427064,0.0107493,0.00311756,0.0113707,-0.00489202,1.37406,0.00963443,0.0139628,1994,1114,27.7401,-4.09174
777,-90,27.7004,3.98071,-0.00447144,0.0171187,0.00373162,0.0177455,-0.00509822,1.40439,0.0138462,0.0132297,2001,1114,27.7004,-3.98069
784,-90,27.6019,3.84717,-0.00542217,0.0254051,0.0054548,0.0263418,-0.00635892,1.40073,0.0200204,0.0259461,2008,1114,27.6019,-3.84717
791,-90,27.3418,3.56213,-0.00671948,0.0366168,0.00808973,0.0380777,-0.00818037,1.39214,0.0285059,0.040425,2015,1114,27.3418,-3.56216
798,-90,27.1731,3.14978,-0.00808977,0.0515312,0.0118014,0.0537822,-0.0103408,1.38232,0.0397526,0.0437826,2022,1114,27.173,-3.14975
805,-90,26.6338,2.51831,-0.00953698,0.0708864,0.0168837,0.0742871,-0.0129377,1.37204,0.054353,0.0437344,2029,1114,26.6339,-2.51827
812,-90,26.3513,2.2843,-0.0110629,0.095446,0.0236795,0.100473,-0.0160901,1.3616,0.0729395,0.0459542,2036,1114,26.3513,-2.28435
-700,-97,0,0,0,0,0,0,0,0,0,-1,524,1121,0,0
-693,-97,-19.1033,0.7323,0,0,0,0,0,0,0,-1,531,1121,-19.1033,-0.732267
-686,-97,-18.7455,-2.49609,0,0,0,0,0,0,0,-1,538,1121,-18.7455,2.49615
-679,-97,-17.1431,-1.5885,0,0,0,0,0,0,0,-1,545,1121,-17.143,1.58849
-672,-97,-15.0341,-0.766968,0,0,0,0,0,0,0,-1,552,1121,-15.0341,0.767021
-665,-97,-18.8738,0.506348,0,0,0,0,0,0,0,-1,559,1121,-18.8739,-0.506354
-658,-97,-18.8805,0.75769,0.0504425,0.00924249,-0.00169958,0.0505125,0.0091725,-0.0411587,0.0310721,0.0460169,566,1121,-18.8805,-0.757724
-651,-97,-18.908,0.993896,0.0333759,0.00686403,-0.000210294,0.0333776,0.00686236,-0.0079314,0.0203536,0.0307421,573,1121,-18.908,-0.993919
-644,-97,-18.9102,1.24316,0.0212305,0.00493259,0.000587544,0.0212517,0.00491144,0.035988,0.0128475,0.0110326,580,1121,-18.9101,-1.24317
-637,-97,-18.9063,1.45886,0.0127304,0.0032598,0.000477546,0.0127544,0.00323578,0.0502542,0.00765577,0.0117101,587,1121,-18.9062,-1.45884
-630,-97,-18.9104,1.62659,0.00539414,0.00192144,-0.000461525,0.00545443,0.00186115,-0.129897,0.00320161,0.00941605,594,1121,-18.9104,-1.62653
-623,-97,-18.9272,1.82727,0.000414177,0.000604698,-0.00175433,0.00226635,-0.00124748,-0.812522,0.00205694,0.0103115,601,1121,-18.9272,-1.82733
-616,-97,-18.9474,2.02344,-0.000684872,-0.000460619,-0.00311559,0.00254487,-0.00369036,-0.803385,0.0036201,0.0128461,608,1121,-18.9475,-2.02343
-609,-97,-18.9828,2.21436,-0.00110664,-0.000922315,-0.00403883,0.0030254,-0.00505436,-0.796806,0.00471362,0.016735,615,1121,-18.9829,-2.21436
-602,-97,-19.0007,2.32227,-0.00168909,-0.00108188,-0.00493801,0.00356185,-0.00633282,-0.816101,0.00578688,0.0155437,622,1121,-19.0007,-2.32232
-595,-97,-18.9235,2.51111,-0.00218506,-0.00139587,-0.00546661,0.00369037,-0.0072713,-0.821427,0.0064403,0.0172153,629,1121,-18.9235,-2.51114
-588,-97,-18.9711,2.58899,-0.00222661,-0.00157008,-0.00554603,0.00365739,-0.00745407,-0.814958,0.00653885,0.0335621,636,1121,-18.9711,-2.58904
-581,-97,-20.42,0.815552,0,0,0,0,0,0,0,-1,643,1121,-20.42,-0.815593
-574,-97,-20.3377,0.737061,-0.00160545,-0.00147893,-0.00490815,0.00336636,-0.00645075,-0.791842,0.0057604,0.0405725,650,1121,-20.3377,-0.737108
-567,-97,-20.2799,0.5802,-0.00118006,-0.00124727,-0.00415933,0.0029458,-0.00537313,-0.781358,0.00487061,0.0376541,657,1121,-20.2799,-0.58026
-560,-97,-20.1957,0.714966,-0.000559208,-0.00086529,-0.00304371,0.00233531,-0.00375981,-0.760279,0.00355091,0.0396813,664,1121,-20.1957,-0.715001
-553,-97,-20.1428,0.839355,0.000280766,-0.000351072,-0.00158295,0.00157901,-0.00164932,-0.686904,0.00186402,0.0416307,671,1121,-20.1428,-0.839322
-546,-97,-20.1454,0.79187,0.00150563,0.000264416,0.000231702,0.00154747,0.000222573,0.17866,0.000966043,0.0421721,678,1121,-20.1454,-0.791858
-539,-97,-20.1182,0.650757,0.003353,0.000863654,0.00219966,0.00463571,-0.000419063,0.527933,0.00323921,0.03988,685,1121,-20.1182,-0.650727
-532,-97,-20.2489,0.774048,0.00523266,0.000958911,0.00257218,0.00643979,-0.000248217,0.438788,0.00437828,0.0377694,692,1121,-20.2489,-0.774019
-525,-97,0,0,0,0,0,0,0,0,0,-1,699,1121,0,0
-518,-97,0,0,0,0,0,0,0,0,0,-1,706,1121,0,0
-511,-97,0,0,0,0,0,0,0,0,0,-1,713,1121,0,0
-504,-97,0,0,0,0,0,0,0,0,0,-1,720,1121,0,0
-497,-97,0,0,0,0,0,0,0,0,0,-1,727,1121,0,0
-490,-97,0,0,0,0,0,0,0,0,0,-1,734,1121,0,0
-483,-97,0,0,0,0,0,0,0,0,0,-1,741,1121,0,0
-476,-97,0,0,0,0,0,0,0,0,0,-1,748,1121,0,0
-469,-97,0,0,0,0,0,0,0,0,0,-1,755,1121,0,0
-462,-97,0,0,0,0,0,0,0,0,0,-1,762,1121,0,0
-455,-97,0,0,0,0,0,0,0,0,0,-1,769,1121,0,0
-448,-97,0,0,0,0,0,0,0,0,0,-1,776,1121,0,0
-441,-97,0,0,0,0,0,0,0,0,0,-1,783,1121,0,0
-434,-97,0,0,0,0,0,0,0,0,0,-1,790,1121,0,0
-427,-97,0,0,0,0,0,0,0,0,0,-1,797,1121,0,0
-420,-97,0,0,0,0,0,0,0,0,0,-1,804,1121,0,0
-413,-97,0,0,0,0,0,0,0,0,0,-1,811,1121,0,0
-406,-97,0,0,0,0,0,0,0,0,0,-1,818,1121,0,0
-399,-97,0,0,0,0,0,0,0,0,0,-1,825,1121,0,0
-392,-97,0,0,0,0,0,0,0,0,0,-1,832,1121,0,0
-385,-97,0,0,0,0,0,0,0,0,0,-1,839,1121,0,0
-378,-97,0,0,0,0,0,0,0,0,0,-1,846,1121,0,0
-371,-97,0,0,0,0,0,0,0,0,0,-1,853,1121,0,0
-364,-97,0,0,0,0,0,0,0,0,0,-1,860,1121,0,0
-357,-97,0,0,0,0,0,0,0,0,0,-1,867,1121,0,0
-350,-97,0,0,0,0,0,0,0,0,0,-1,874,1121,0,0
-343,-97,0,0,0,0,0,0,0,0,0,-1,881,1121,0,0
-336,-97,0,0,0,0,0,0,0,0,0,-1,888,1121,0,0
-329,-97,0,0,0,0,0,0,0,0,0,-1,895,1121,0,0
-322,-97,0,0,0,0,0,0,0,0,0,-1,902,1121,0,0
-315,-97,0,0,0,0,0,0,0,0,0,-1,909,1121,0,0
-308,-97,0,0,0,0,0,0,0,0,0,-1,916,1121,0,0
-301,-97,0,0,0,0,0,0,0,0,0,-1,923,1121,0,0
-294,-97,0,0,0,0,0,0,0,0,0,-1,930,1121,0,0
-287,-97,0,0,0,0,0,0,0,0,0,-1,937,1121,0,0
-280,-97,0,0,0,0,0,0,0,0,0,-1,944,1121,0,0
-273,-97,0,0,0,0,0,0,0,0,0,-1,951,1121,0,0
-266,-97,0,0,0,0,0,0,0,0,0,-1,958,1121,0,0
-259,-97,0,0,0,0,0,0,0,0,0,-1,965,1121,0,0
-252,-97,0,0,0,0,0,0,0,0,0,-1,972,1121,0,0
-245,-97,0,0,0,0,0,0,0,0,0,-1,979,1121,0,0
-238,-97,0,0,0,0,0,0,0,0,0,-1,986,1121,0,0
-231,-97,0,0,0,0,0,0,0,0,0,-1,993,1121,0,0
-224,-97,0,0,0,0,0,0,0,0,0,-1,1000,1121,0,0
-217,-97,0,0,0,0,0,0,0,0,0,-1,1007,1121,0,0
-210,-97,0,0,0,0,0,0,0,0,0,-1,1014,1121,0,0
-203,-97,0,0,0,0,0,0,0,0,0,-1,1021,1121,0,0
-196,-97,0,0,0,0,0,0,0,0,0,-1,1028,1121,0,0
-189,-97,0,0,0,0,0,0,0,0,0,-1,1035,1121,0,0
-182,-97,0,0,0,0,0,0,0,0,0,-1,1042,1121,0,0
-175,-97,0,0,0,0,0,0,0,0,0,-1,1049,1121,0,0
-168,-97,0,0,0,0,0,0,0,0,0,-1,1056,1121,0,0
-161,-97,0,0,0,0,0,0,0,0,0,-1,1063,1121,0,0
-154,-97,0,0,0,0,0,0,0,0,0,-1,1070,1121,0,0
-147,-97,0,0,0,0,0,0,0,0,0,-1,1077,1121,0,0
-140,-97,0,0,0,0,0,0,0,0,0,-1,1084,1121,0,0
-133,-97,0,0,0,0,0,0,0,0,0,-1,1091,1121,0,0
-126,-97,0,0,0,0,0,0,0,0,0,-1,1098,1121,0,0
-119,-97,0,0,0,0,0,0,0,0,0,-1,1105,1121,0,0
-112,-97,0,0,0,0,0,0,0,0,0,-1,1112,1121,0,0
-105,-97,0,0,0,0,0,0,0,0,0,-1,1119,1121,0,0
-98,-97,0,0,0,0,0,0,0,0,0,-1,1126,1121,0,0
-91,-97,0,0,0,0,0,0,0,0,0,-1,1133,1121,0,0
-84,-97,0,0,0,0,0,0,0,0,0,-1,1140,1121,0,0
-77,-97,0,0,0,0,0,0,0,0,0,-1,1147,1121,0,0
-70,-97,0,0,0,0,0,0,0,0,0,-1,1154,1121,0,0
-63,-97,0,0,0,0,0,0,0,0,0,-1,1161,1121,0,0
-56,-97,0,0,0,0,0,0,0,0,0,-1,1168,1121,0,0
-49,-97,0,0,0,0,0,0,0,0,0,-1,1175,1121,0,0
-42,-97,0,0,0,0,0,0,0,0,0,-1,1182,1121,0,0
-35,-97,0,0,0,0,0,0,0,0,0,-1,1189,1121,0,0
-28,-97,0,0,0,0,0,0,0,0,0,-1,1196,1121,0,0
-21,-97,0,0,0,0,0,0,0,0,0,-1,1203,1121,0,0
-14,-97,0,0,0,0,0,0,0,0,0,-1,1210,1121,0,0
-7,-97,0,0,0,0,0,0,0,0,0,-1,1217,1121,0,0
0,-97,0,0,0,0,0,0,0,0,0,-1,1224,1121,0,0
7,-97,0,0,0,0,0,0,0,0,0,-1,1231,1121,0,0
14,-97,0,0,0,0,0,0,0,0,0,-1,1238,1121,0,0
21,-97,0,0,0,0,0,0,0,0,0,-1,1245,1121,0,0
28,-97,0,0,0,0,0,0,0,0,0,-1,1252,1121,0,0
35,-97,0,0,0,0,0,0,0,0,0,-1,1259,1121,0,0
42,-97,0,0,0,0,0,0,0,0,0,-1,1266,1121,0,0
49,-97,0,0,0,0,0,0,0,0,0,-1,1273,1121,0,0
56,-97,0,0,0,0,0,0,0,0,0,-1,1280,1121,0,0
63,-97,0,0,0,0,0,0,0,0,0,-1,1287,1121,0,0
70,-97,0,0,0,0,0,0,0,0,0,-1,1294,1121,0,0
77,-97,0,0,0,0,0,0,0,0,0,-1,1301,1121,0,0
84,-97,0,0,0,0,0,0,0,0,0,-1,1308,1121,0,0
91,-97,0,0,0,0,0,0,0,0,0,-1,1315,1121,0,0
98,-97,0,0,0,0,0,0,0,0,0,-1,1322,1121,0,0
105,-97,0,0,0,0,0,0,0,0,0,-1,1329,1121,0,0
112,-97,0,0,0,0,0,0,0,0,0,-1,1336,1121,0,0
119,-97,0,0,0,0,0,0,0,0,0,-1,1343,1121,0,0
126,-97,0,0,0,0,0,0,0,0,0,-1,1350,1121,0,0
133,-97,0,0,0,0,0,0,0,0,0,-1,1357,1121,0,0
140,-97,0,0,0,0,0,0,0,0,0,-1,1364,1121,0,0
147,-97,0,0,0,0,0,0,0,0,0,-1,1371,1121,0,0
154,-97,0,0,0,0,0,0,0,0,0,-1,1378,1121,0,0
161,-97,0,0,0,0,0,0,0,0,0,-1,1385,1121,0,0
168,-97,0,0,0,0,0,0,0,0,0,-1,1392,1121,0,0
175,-97,0,0,0,0,0,0,0,0,0,-1,1399,1121,0,0
182,-97,0,0,0,0,0,0,0,0,0,-1,1406,1121,0,0
189,-97,0,0,0,0,0,0,0,0,0,-1,1413,1121,0,0
196,-97,0,0,0,0,0,0,0,0,0,-1,1420,1121,0,0
203,-97,0,0,0,0,0,0,0,0,0,-1,1427,1121,0,0
210,-97,0,0,0,0,0,0,0,0,0,-1,1434,1121,0,0
217,-97,0,0,0,0,0,0,0,0,0,-1,1441,1121,0,0
224,-97,0,0,0,0,0,0,0,0,0,-1,1448,1121,0,0
231,-97,0,0,0,0,0,0,0,0,0,-1,1455,1121,0,0
238,-97,0,0,0,0,0,0,0,0,0,-1,1462,1121,0,0
245,-97,0,0,0,0,0,0,0,0,0,-1,1469,1121,0,0
252,-97,0,0,0,0,0,0,0,0,0,-1,1476,1121,0,0
259,-97,0,0,0,0,0,0,0,0,0,-1,1483,1121,0,0
266,-97,0,0,0,0,0,0,0,0,0,-1,1490,1121,0,0
273,-97,0,0,0,0,0,0,0,0,0,-1,1497,1121,0,0
280,-97,0,0,0,0,0,0,0,0,0,-1,1504,1121,0,0
287,-97,0,0,0,0,0,0,0,0,0,-1,1511,1121,0,0
294,-97,0,0,0,0,0,0,0,0,0,-1,1518,1121,0,0
301,-97,0,0,0,0,0,0,0,0,0,-1,1525,1121,0,0
308,-97,0,0,0,0,0,0,0,0,0,-1,1532,1121,0,0
315,-97,0,0,0,0,0,0,0,0,0,-1,1539,1121,0,0
322,-97,0,0,0,0,0,0,0,0,0,-1,1546,1121,0,0
329,-97,0,0,0,0,0,0,0,0,0,-1,1553,1121,0,0
336,-97,0,0,0,0,0,0,0,0,0,-1,1560,1121,0,0
343,-97,0,0,0,0,0,0,0,0,0,-1,1567,1121,0,0
350,-97,0,0,0,0,0,0,0,0,0,-1,1574,1121,0,0
357,-97,0,0,0,0,0,0,0,0,0,-1,1581,1121,0,0
364,-97,0,0,0,0,0,0,0,0,0,-1,1588,1121,0,0
371,-97,0,0,0,0,0,0,0,0,0,-1,1595,1121,0,0
378,-97,0,0,0,0,0,0,0,0,0,-1,1602,1121,0,0
385,-97,0,0,0,0,0,0,0,0,0,-1,1609,1121,0,0
392,-97,0,0,0,0,0,0,0,0,0,-1,1616,1121,0,0
399,-97,0,0,0,0,0,0,0,0,0,-1,1623,1121,0,0
406,-97,0,0,0,0,0,0,0,0,0,-1,1630,1121,0,0
413,-97,0,0,0,0,0,0,0,0,0,-1,1637,1121,0,0
420,-97,0,0,0,0,0,0,0,0,0,-1,1644,1121,0,0
427,-97,0,0,0,0,0,0,0,0,0,-1,1651,1121,0,0
434,-97,0,0,0,0,0,0,0,0,0,-1,1658,1121,0,0
441,-97,0,0,0,0,0,0,0,0,0,-1,1665,1121,0,0
448,-97,0,0,0,0,0,0,0,0,0,-1,1672,1121,0,0
455,-97,0,0,0,0,0,0,0,0,0,-1,1679,1121,0,0
462,-97,0,0,0,0,0,0,0,0,0,-1,1686,1121,0,0
469,-97,0,0,0,0,0,0,0,0,0,-1,1693,1121,0,0
476,-97,0,0,0,0,0,0,0,0,0,-1,1700,1121,0,0
483,-97,0,0,0,0,0,0,0,0,0,-1,1707,1121,0,0
490,-97,0,0,0,0,0,0,0,0,0,-1,1714,1121,0,0
497,-97,0,0,0,0,0,0,0,0,0,-1,1721,1121,0,0
504,-97,0,0,0,0,0,0,0,0,0,-1,1728,1121,0,0
511,-97,0,0,0,0,0,0,0,0,0,-1,1735,1121,0,0
518,-97,0,0,0,0,0,0,0,0,0,-1,1742,1121,0,0
525,-97,0,0,0,0,0,0,0,0,0,-1,1749,1121,0,0
532,-97,0,0,0,0,0,0,0,0,0,-1,1756,1121,0,0
539,-97,0,0,0,0,0,0,0,0,0,-1,1763,1121,0,0
546,-97,0,0,0,0,0,0,0,0,0,-1,1770,1121,0,0
553,-97,0,0,0,0,0,0,0,0,0,-1,1777,1121,0,0
560,-97,0,0,0,0,0,0,0,0,0,-1,1784,1121,0,0
567,-97,0,0,0,0,0,0,0,0,0,-1,1791,1121,0,0
574,-97,0,0,0,0,0,0,0,0,0,-1,1798,1121,0,0
581,-97,0,0,0,0,0,0,0,0,0,-1,1805,1121,0,0
588,-97,0,0,0,0,0,0,0,0,0,-1,1812,1121,0,0
595,-97,0,0,0,0,0,0,0,0,0,-1,1819,1121,0,0
602,-97,0,0,0,0,0,0,0,0,0,-1,1826,1121,0,0
609,-97,0,0,0,0,0,0,0,0,0,-1,1833,1121,0,0
616,-97,0,0,0,0,0,0,0,0,0,-1,1840,1121,0,0
623,-97,0,0,0,0,0,0,0,0,0,-1,1847,1121,0,0
630,-97,0,0,0,0,0,0,0,0,0,-1,1854,1121,0,0
637,-97,0,0,0,0,0,0,0,0,0,-1,1861,1121,0,0
644,-97,28.9805,2.7262,-0.000297529,-0.0037504,-0.00314302,0.001562,-0.00560994,-0.534248,0.00435502,0.037341,1868,1121,28.9805,-2.72615
651,-97,29.0459,2.76123,-0.000109112,-0.00374981,-0.00221402,0.000936818,-0.00479574,-0.441335,0.00355087,0.0374761,1875,1121,29.0458,-2.76122
658,-97,29.0587,2.68542,0.000410999,-0.00341529,-0.00182766,0.0011437,-0.00414798,-0.381276,0.00321509,0.0416323,1882,1121,29.0588,-2.68537
665,-97,29.1523,2.61304,0.000428417,-0.0030267,-0.00127117,0.000845694,-0.00344398,-0.317181,0.00262372,0.0431439,1889,1121,29.1523,-2.613
672,-97,29.1061,2.55298,-0.000668514,-0.00302148,0.000199881,-0.000651655,-0.00303834,0.0841449,0.00184707,0.0438425,1896,1121,29.1061,-2.55302
679,-97,29.01,2.64771,-0.00230614,-0.00313962,0.00192011,-0.00075806,-0.00468769,0.678536,0.00290559,0.0431011,1903,1121,29.01,-2.64768
686,-97,29.0276,2.66833,-0.00388619,-0.00331473,0.00344018,-0.00014843,-0.00705249,0.826832,0.00465297,0.0374064,1910,1121,29.0276,-2.6683
693,-97,29.0928,2.60449,-0.00520063,-0.00348969,0.00470474,0.000436726,-0.00912704,0.875331,0.00623537,0.0341687,1917,1121,29.0928,-2.60451
700,-97,29.12,2.55066,-0.00613778,-0.00358127,0.00569895,0.000981019,-0.0107001,0.895721,0.00748185,0.0266304,1924,1121,29.12,-2.55063
707,-97,29.1294,2.52673,-0.00689318,-0.00358681,0.0064125,0.00138218,-0.0118622,0.911554,0.0084068,0.0197007,1931,1121,29.1294,-2.52674
714,-97,28.859,4.73047,0,0,0,0,0,0,0,-1,1938,1121,28.8591,-4.73052
721,-97,27.9421,4.97437,-0.00783029,-0.00311772,0.00695676,0.00187096,-0.012819,0.948686,0.00923304,0.0390564,1945,1121,27.9421,-4.97432
728,-97,27.675,4.99023,-0.00777824,-0.00276684,0.00692093,0.00208802,-0.0126331,0.959081,0.00919742,0.0192717,1952,1121,27.675,-4.99021
735,-97,27.6238,4.81775,-0.0074023,-0.00233335,0.00664369,0.00224288,-0.0119785,0.967621,0.0088288,0.01923,1959,1121,27.6238,-4.81776
742,-97,27.5997,4.6405,-0.00678015,-0.00190241,0.00559512,0.00176228,-0.0104448,0.990928,0.00761889,0.0155795,1966,1121,27.5997,-4.64049
749,-97,27.6371,4.47485,-0.00598794,-0.000934368,0.0046764,0.00185423,-0.00877654,1.03309,0.00655708,0.0187946,1973,1121,27.637,-4.47487
756,-97,27.653,4.31897,-0.00536498,0.0021305,0.00429202,0.00408073,-0.00731522,1.1443,0.00666721,0.0153624,1980,1121,27.653,-4.31896
763,-97,27.6108,4.18481,-0.00453901,0.0064682,0.00393757,0.00773173,-0.00580254,1.26029,0.00784043,0.0117569,1987,1121,27.6108,-4.18487
770,-97,27.5787,4.05835,-0.00393597,0.0116355,0.00380614,0.012516,-0.00481652,1.34345,0.0103308,0.0101085,1994,1121,27.5787,-4.05841
777,-97,27.5699,3.91284,-0.00418354,0.0185052,0.00487977,0.0195102,-0.00518854,1.36768,0.0150377,0.0137504,2001,1121,27.57,-3.91281
784,-97,27.4181,3.6604,-0.00521248,0.0277383,0.00716105,0.0292273,-0.00670148,1.36579,0.0220607,0.0331899,2008,1121,27.4181,-3.66045
791,-97,27.1575,2.96655,-0.00663455,0.0404406,0.010549,0.0426964,-0.00889036,1.36013,0.0318441,0.0412868,2015,1121,27.1575,-2.96654
798,-97,26.9333,2.33899,0,0,0,0,0,0,0,-1,2022,1121,26.9333,-2.33895
805,-97,26.0156,1.57349,-0.0100853,0.0798806,0.0218193,0.0848932,-0.0150978,1.34499,0.0622414,0.0416967,2029,1121,26.0155,-1.57346
812,-97,26.0679,1.4646,-0.0122606,0.108591,0.0305765,0.115886,-0.0195563,1.33657,0.0845337,0.0497483,2036,1121,26.0679,-1.46455
-700,-104,0,0,0,0,0,0,0,0,0,-1,524,1128,0,0
-693,-104,-19.6789,-3.34998,0,0,0,0,0,0,0,-1,531,1128,-19.6789,3.34996
-686,-104,-17.7237,-2.72888,0.181639,0.0264621,-0.0246082,0.185448,0.0226532,-0.153564,0.116816,0.049713,538,1128,-17.7237,2.72883
-679,-104,-16.0786,-1.91162,0.134943,0.021712,-0.017631,0.137624,0.0190302,-0.15095,0.08611,0.0480591,545,1128,-16.0786,1.91162
-672,-104,-14.0844,-1.2804,0,0,0,0,0,0,0,-1,552,1128,-14.0844,1.28034
-665,-104,-19.2498,1.68506,0,0,0,0,0,0,0,-1,559,1128,-19.2498,-1.68509
-658,-104,-18.8127,0.799805,0,0,0,0,0,0,0,-1,566,1128,-18.8127,-0.799854
-651,-104,-18.7677,0.999146,0.0307466,0.00768806,-0.00227935,0.0309698,0.0074649,-0.0975921,0.0186627,0.0360922,573,1128,-18.7677,-0.999181
-644,-104,-18.7269,1.22217,0.0193603,0.00553087,-0.0009442,0.0194245,0.0054667,-0.0678548,0.0115664,0.014179,580,1128,-18.7268,-1.22222
-637,-104,-18.7135,1.44189,0.011599,0.00369179,-0.000524996,0.0116337,0.00365708,-0.0660085,0.00686931,0.0100163,587,1128,-18.7135,-1.4419
-630,-104,-18.7329,1.61438,0.00481754,0.00221782,-0.000847776,0.00506957,0.00196579,-0.288962,0.00295139,0.0120702,594,1128,-18.7329,-1.61437
-623,-104,-18.7427,1.82251,0.000365788,0.000816409,-0.00161727,0.00222398,-0.00104179,-0.85461,0.00192623,0.014316,601,1128,-18.7427,-1.82252
-616,-104,-18.8258,2.04883,-0.000209254,-0.000319277,-0.00258089,0.00231721,-0.00284574,-0.774742,0.00298603,0.0163859,608,1128,-18.8258,-2.04889
-609,-104,-18.8823,2.16174,-0.000367175,-0.000831105,-0.00323439,0.00264356,-0.00384184,-0.7496,0.00376559,0.02054,615,1128,-18.8823,-2.16176
-602,-104,-18.7875,2.3512,-0.000796525,-0.00102755,-0.00385901,0.0029487,-0.00477278,-0.770436,0.00449927,0.018132,622,1128,-18.7876,-2.35115
-595,-104,-18.7058,2.58875,-0.00121395,-0.00135087,-0.00421768,0.00293582,-0.00550064,-0.777283,0.00494526,0.0166673,629,1128,-18.7058,-2.58878
-588,-104,-18.7952,2.66577,-0.00123304,-0.00152466,-0.00425368,0.00287732,-0.00563503,-0.768266,0.00499984,0.0395689,636,1128,-18.7952,-2.66575
-581,-104,-19.1234,2.42773,0,0,0,0,0,0,0,-1,643,1128,-19.1234,-2.42773
-574,-104,-20.2539,0.687378,0,0,0,0,0,0,0,-1,650,1128,-20.2539,-0.687387
-567,-104,-20.1315,0.490234,-0.000194095,-0.00110627,-0.00319732,0.0025795,-0.00387987,-0.714553,0.00375443,0.0375753,657,1128,-20.1315,-0.490252
-560,-104,-20.0694,0.513916,0.000291254,-0.000697167,-0.00239861,0.00224604,-0.00265196,-0.6838,0.0028311,0.0402769,664,1128,-20.0694,-0.513926
-553,-104,-20.2296,0.621582,0.000918965,-0.000128119,-0.00139809,0.00188833,-0.00109748,-0.606246,0.0017439,0.0446433,671,1128,-20.2295,-0.621553
-546,-104,-20.34,0.762939,0.00185101,0.000596006,-0.00020032,0.00188221,0.000564808,-0.154504,0.00111527,0.045515,678,1128,-20.34,-0.762888
-539,-104,-20.3139,0.990845,0.00339239,0.00137966,0.00110763,0.00388256,0.000889493,0.416631,0.0023487,0.0414367,685,1128,-20.3139,-0.990853
-532,-104,-20.2983,0.723022,0.00541372,0.00184842,0.00124024,0.00580271,0.00145942,0.303926,0.00348538,0.0396172,692,1128,-20.2983,-0.723015
-525,-104,-20.11,0.784668,0.00724199,0.00277408,0.000252391,0.0072562,0.00275987,0.0562512,0.00422917,0.03767,699,1128,-20.11,-0.784638
-518,-104,0,0,0,0,0,0,0,0,0,-1,706,1128,0,0
-511,-104,0,0,0,0,0,0,0,0,0,-1,713,1128,0,0
-504,-104,0,0,0,0,0,0,0,0,0,-1,720,1128,0,0
-497,-104,0,0,0,0,0,0,0,0,0,-1,727,1128,0,0
-490,-104,0,0,0,0,0,0,0,0,0,-1,734,1128,0,0
-483,-104,0,0,0,0,0,0,0,0,0,-1,741,1128,0,0
-476,-104,0,0,0,0,0,0,0,0,0,-1,748,1128,0,0
-469,-104,0,0,0,0,0,0,0,0,0,-1,755,1128,0,0
-462,-104,0,0,0,0,0,0,0,0,0,-1,762,1128,0,0
-455,-104,0,0,0,0,0,0,0,0,0,-1,769,1128,0,0
-448,-104,0,0,0,0,0,0,0,0,0,-1,776,1128,0,0
-441,-104,0,0,0,0,0,0,0,0,0,-1,783,1128,0,0
-434,-104,0,0,0,0,0,0,0,0,0,-1,790,1128,0,0
-427,-104,0,0,0,0,0,0,0,0,0,-1,797,1128,0,0
-420,-104,0,0,0,0,0,0,0,0,0,-1,804,1128,0,0
-413,-104,0,0,0,0,0,0,0,0,0,-1,811,1128,0,0
-406,-104,0,0,0,0,0,0,0,0,0,-1,818,1128,0,0
-399,-104,0,0,0,0,0,0,0,0,0,-1,825,1128,0,0
-392,-104,0,0,0,0,0,0,0,0,0,-1,832,1128,0,0
-385,-104,0,0,0,0,0,0,0,0,0,-1,839,1128,0,0
-378,-104,0,0,0,0,0,0,0,0,0,-1,846,1128,0,0
-371,-104,0,0,0,0,0,0,0,0,0,-1,853,1128,0,0
-364,-104,0,0,0,0,0,0,0,0,0,-1,860,1128,0,0
-357,-104,0,0,0,0,0,0,0,0,0,-1,867,1128,0,0
-350,-104,0,0,0,0,0,0,0,0,0,-1,874,1128,0,0
-343,-104,0,0,0,0,0,0,0,0,0,-1,881,1128,0,0
-336,-104,0,0,0,0,0,0,0,0,0,-1,888,1128,0,0
-329,-104,0,0,0,0,0,0,0,0,0,-1,895,1128,0,0
-322,-104,0,0,0,0,0,0,0,0,0,-1,902,1128,0,0
-315,-104,0,0,0,0,0,0,0,0,0,-1,909,1128,0,0
-308,-104,0,0,0,0,0,0,0,0,0,-1,916,1128,0,0
-301,-104,0,0,0,0,0,0,0,0,0,-1,923,1128,0,0
-294,-104,0,0,0,0,0,0,0,0,0,-1,930,1128,0,0
-287,-104,0,0,0,0,0,0,0,0,0,-1,937,1128,0,0
-280,-104,0,0,0,0,0,0,0,0,0,-1,944,1128,0,0
-273,-104,0,0,0,0,0,0,0,0,0,-1,951,1128,0,0
-266,-104,0,0,0,0,0,0,0,0,0,-1,958,1128,0,0
-259,-104,0,0,0,0,0,0,0,0,0,-1,965,1128,0,0
-252,-104,0,0,0,0,0,0,0,0,0,-1,972,1128,0,0
-245,-104,0,0,0,0,0,0,0,0,0,-1,979,1128,0,0
-238,-104,0,0,0,0,0,0,0,0,0,-1,986,1128,0,0
-231,-104,0,0,0,0,0,0,0,0,0,-1,993,1128,0,0
-224,-104,0,0,0,0,0,0,0,0,0,-1,1000,1128,0,0
-217,-104,0,0,0,0,0,0,0,0,0,-1,1007,1128,0,0
-210,-104,0,0,0,0,0,0,0,0,0,-1,1014,1128,0,0
-203,-104,0,0,0,0,0,0,0,0,0,-1,1021,1128,0,0
-196,-104,0,0,0,0,0,0,0,0,0,-1,1028,1128,0,0
-189,-104,0,0,0,0,0,0,0,0,0,-1,1035,1128,0,0
-182,-104,0,0,0,0,0,0,0,0,0,-1,1042,1128,0,0
-175,-104,0,0,0,0,0,0,0,0,0,-1,1049,1128,0,0
-168,-104,0,0,0,0,0,0,0,0,0,-1,1056,1128,0,0
-161,-104,0,0,0,0,0,0,0,0,0,-1,1063,1128,0,0
-154,-104,0,0,0,0,0,0,0,0,0,-1,1070,1128,0,0
-147,-104,0,0,0,0,0,0,0,0,0,-1,1077,1128,0,0
-140,-104,0,0,0,0,0,0,0,0,0,-1,1084,1128,0,0
-133,-104,0,0,0,0,0,0,0,0,0,-1,1091,1128,0,0
-126,-104,0,0,0,0,0,0,0,0,0,-1,1098,1128,0,0
-119,-104,0,0,0,0,0,0,0,0,0,-1,1105,1128,0,0
-112,-104,0,0,0,0,0,0,0,0,0,-1,1112,1128,0,0
-105,-104,0,0,0,0,0,0,0,0,0,-1,1119,1128,0,0
-98,-104,0,0,0,0,0,0,0,0,0,-1,1126,1128,0,0
-91,-104,0,0,0,0,0,0,0,0,0,-1,1133,1128,0,0
-84,-104,0,0,0,0,0,0,0,0,0,-1,1140,1128,0,0
-77,-104,0,0,0,0,0,0,0,0,0,-1,1147,1128,0,0
-70,-104,0,0,0,0,0,0,0,0,0,-1,1154,1128,0,0
-63,-104,0,0,0,0,0,0,0,0,0,-1,1161,1128,0,0
-56,-104,0,0,0,0,0,0,0,0,0,-1,1168,1128,0,0
-49,-104,0,0,0,0,0,0,0,0,0,-1,1175,1128,0,0
-42,-104,0,0,0,0,0,0,0,0,0,-1,1182,1128,0,0
-35,-104,0,0,0,0,0,0,0,0,0,-1,1189,1128,0,0
-28,-104,0,0,0,0,0,0,0,0,0,-1,1196,1128,0,0
-21,-104,0,0,0,0,0,0,0,0,0,-1,1203,1128,0,0
-14,-104,0,0,0,0,0,0,0,0,0,-1,1210,1128,0,0
-7,-104,0,0,0,0,0,0,0,0,0,-1,1217,1128,0,0
0,-104,0,0,0,0,0,0,0,0,0,-1,1224,1128,0,0
7,-104,0,0,0,0,0,0,0,0,0,-1,1231,1128,0,0
14,-104,0,0,0,0,0,0,0,0,0,-1,1238,1128,0,0
21,-104,0,0,0,0,0,0,0,0,0,-1,1245,1128,0,0
28,-104,0,0,0,0,0,0,0,0,0,-1,1252,1128,0,0
35,-104,0,0,0,0,0,0,0,0,0,-1,1259,1128,0,0
42,-104,0,0,0,0,0,0,0,0,0,-1,1266,1128,0,0
49,-104,0,0,0,0,0,0,0,0,0,-1,1273,1128,0,0
56,-104,0,0,0,0,0,0,0,0,0,-1,1280,1128,0,0
63,-104,0,0,0,0,0,0,0,0,0,-1,1287,1128,0,0
70,-104,0,0,0,0,0,0,0,0,0,-1,1294,1128,0,0
77,-104,0,0,0,0,0,0,0,0,0,-1,1301,1128,0,0
84,-104,0,0,0,0,0,0,0,0,0,-1,1308,1128,0,0
91,-104,0,0,0,0,0,0,0,0,0,-1,1315,1128,0,0
98,-104,0,0,0,0,0,0,0,0,0,-1,1322,1128,0,0
105,-104,0,0,0,0,0,0,0,0,0,-1,1329,1128,0,0
112,-104,0,0,0,0,0,0,0,0,0,-1,1336,1128,0,0
119,-104,0,0,0,0,0,0,0,0,0,-1,1343,1128,0,0
126,-104,0,0,0,0,0,0,0,0,0,-1,1350,1128,0,0
133,-104,0,0,0,0,0,0,0,0,0,-1,1357,1128,0,0
140,-104,0,0,0,0,0,0,0,0,0,-1,1364,1128,0,0
147,-104,0,0,0,0,0,0,0,0,0,-1,1371,1128,0,0
154,-104,0,0,0,0,0,0,0,0,0,-1,1378,1128,0,0
161,-104,0,0,0,0,0,0,0,0,0,-1,1385,1128,0,0
168,-104,0,0,0,0,0,0,0,0,0,-1,1392,1128,0,0
175,-104,0,0,0,0,0,0,0,0,0,-1,1399,1128,0,0
182,-104,0,0,0,0,0,0,0,0,0,-1,1406,1128,0,0
189,-104,0,0,0,0,0,0,0,0,0,-1,1413,1128,0,0
196,-104,0,0,0,0,0,0,0,0,0,-1,1420,1128,0,0
203,-104,0,0,0,0,0,0,0,0,0,-1,1427,1128,0,0
210,-104,0,0,0,0,0,0,0,0,0,-1,1434,1128,0,0
217,-104,0,0,0,0,0,0,0,0,0,-1,1441,1128,0,0
224,-104,0,0,0,0,0,0,0,0,0,-1,1448,1128,0,0
231,-104,0,0,0,0,0,0,0,0,0,-1,1455,1128,0,0
238,-104,0,0,0,0,0,0,0,0,0,-1,1462,1128,0,0
245,-104,0,0,0,0,0,0,0,0,0,-1,1469,1128,0,0
252,-104,0,0,0,0,0,0,0,0,0,-1,1476,1128,0,0
259,-104,0,0,0,0,0,0,0,0,0,-1,1483,1128,0,0
266,-104,0,0,0,0,0,0,0,0,0,-1,1490,1128,0,0
273,-104,0,0,0,0,0,0,0,0,0,-1,1497,1128,0,0
280,-104,0,0,0,0,0,0,0,0,0,-1,1504,1128,0,0
287,-104,0,0,0,0,0,0,0,0,0,-1,1511,1128,0,0
294,-104,0,0,0,0,0,0,0,0,0,-1,1518,1128,0,0
301,-104,0,0,0,0,0,0,0,0,0,-1,1525,1128,0,0
308,-104,0,0,0,0,0,0,0,0,0,-1,1532,1128,0,0
315,-104,0,0,0,0,0,0,0,0,0,-1,1539,1128,0,0
322,-104,0,0,0,0,0,0,0,0,0,-1,1546,1128,0,0
329,-104,0,0,0,0,0,0,0,0,0,-1,1553,1128,0,0
336,-104,0,0,0,0,0,0,0,0,0,-1,1560,1128,0,0
343,-104,0,0,0,0,0,0,0,0,0,-1,1567,1128,0,0
350,-104,0,0,0,0,0,0,0,0,0,-1,1574,1128,0,0
357,-104,0,0,0,0,0,0,0,0,0,-1,1581,1128,0,0
364,-104,0,0,0,0,0,0,0,0,0,-1,1588,1128,0,0
371,-104,0,0,0,0,0,0,0,0,0,-1,1595,1128,0,0
378,-104,0,0,0,0,0,0,0,0,0,-1,1602,1128,0,0
385,-104,0,0,0,0,0,0,0,0,0,-1,1609,1128,0,0
392,-104,0,0,0,0,0,0,0,0,0,-1,1616,1128,0,0
399,-104,0,0,0,0,0,0,0,0,0,-1,1623,1128,0,0
406,-104,0,0,0,0,0,0,0,0,0,-1,1630,1128,0,0
413,-104,0,0,0,0,0,0,0,0,0,-1,1637,1128,0,0
420,-104,0,0,0,0,0,0,0,0,0,-1,1644,1128,0,0
427,-104,0,0,0,0,0,0,0,0,0,-1,1651,1128,0,0
434,-104,0,0,0,0,0,0,0,0,0,-1,1658,1128,0,0
441,-104,0,0,0,0,0,0,0,0,0,-1,1665,1128,0,0
448,-104,0,0,0,0,0,0,0,0,0,-1,1672,1128,0,0
455,-104,0,0,0,0,0,0,0,0,0,-1,1679,1128,0,0
462,-104,0,0,0,0,0,0,0,0,0,-1,1686,1128,0,0
469,-104,0,0,0,0,0,0,0,0,0,-1,1693,1128,0,0
476,-104,0,0,0,0,0,0,0,0,0,-1,1700,1128,0,0
483,-104,0,0,0,0,0,0,0,0,0,-1,1707,1128,0,0
490,-104,0,0,0,0,0,0,0,0,0,-1,1714,1128,0,0
497,-104,0,0,0,0,0,0,0,0,0,-1,1721,1128,0,0
504,-104,0,0,0,0,0,0,0,0,0,-1,1728,1128,0,0
511,-104,0,0,0,0,0,0,0,0,0,-1,1735,1128,0,0
518,-104,0,0,0,0,0,0,0,0,0,-1,1742,1128,0,0
525,-104,0,0,0,0,0,0,0,0,0,-1,1749,1128,0,0
532,-104,0,0,0,0,0,0,0,0,0,-1,1756,1128,0,0
539,-104,0,0,0,0,0,0,0,0,0,-1,1763,1128,0,0
546,-104,0,0,0,0,0,0,0,0,0,-1,1770,1128,0,0
553,-104,0,0,0,0,0,0,0,0,0,-1,1777,1128,0,0
560,-104,0,0,0,0,0,0,0,0,0,-1,1784,1128,0,0
567,-104,0,0,0,0,0,0,0,0,0,-1,1791,1128,0,0
574,-104,0,0,0,0,0,0,0,0,0,-1,1798,1128,0,0
581,-104,0,0,0,0,0,0,0,0,0,-1,1805,1128,0,0
588,-104,0,0,0,0,0,0,0,0,0,-1,1812,1128,0,0
595,-104,0,0,0,0,0,0,0,0,0,-1,1819,1128,0,0
602,-104,0,0,0,0,0,0,0,0,0,-1,1826,1128,0,0
609,-104,0,0,0,0,0,0,0,0,0,-1,1833,1128,0,0
616,-104,0,0,0,0,0,0,0,0,0,-1,1840,1128,0,0
623,-104,0,0,0,0,0,0,0,0,0,-1,1847,1128,0,0
630,-104,0,0,0,0,0,0,0,0,0,-1,1854,1128,0,0
637,-104,0,0,0,0,0,0,0,0,0,-1,1861,1128,0,0
644,-104,28.8962,2.90149,-0.00150918,-0.00254684,-0.00285791,0.000876609,-0.00493263,-0.695605,0.00361621,0.0376236,1868,1128,28.8962,-2.90143
651,-104,28.9469,2.93994,-0.000944494,-0.00292127,-0.00215373,0.00043682,-0.00430258,-0.570276,0.00302453,0.0397221,1875,1128,28.9469,-2.93992
658,-104,28.9877,2.94617,-0.000130465,-0.0028537,-0.00193323,0.000872529,-0.00385669,-0.478588,0.00290597,0.0447731,1882,1128,28.9877,-2.94618
665,-104,29.0995,2.79578,-7.97342e-05,-0.00269749,-0.00132159,0.00047143,-0.00324865,-0.395115,0.0023388,0.0442025,1889,1128,29.0995,-2.79581
672,-104,29.1044,2.51917,-0.00122274,-0.00286152,0.000235546,-0.00118956,-0.0028947,0.139959,0.00168007,0.0435634,1896,1128,29.1044,-2.51912
679,-104,29.0327,2.42078,-0.00285917,-0.00305705,0.00197101,-0.000984614,-0.0049316,0.760321,0.00301363,0.0437971,1903,1128,29.0327,-2.42073
686,-104,28.998,2.50427,-0.00445233,-0.00325759,0.00352339,-0.000281286,-0.00742863,0.869372,0.00486137,0.0405573,1910,1128,28.9981,-2.50423
693,-104,29.0522,2.59668,-0.005775,-0.00343514,0.00480607,0.000341344,-0.00955149,0.90479,0.00648444,0.0342441,1917,1128,29.0523,-2.59662
700,-104,29.1241,2.5426,-0.00668965,-0.00352493,0.00582592,0.000929698,-0.0111443,0.918003,0.00775801,0.0249906,1924,1128,29.1242,-2.54256
707,-104,29.1483,2.65662,0,0,0,0,0,0,0,-1,1931,1128,29.1483,-2.65659
714,-104,28.4351,3.88794,-0.00805512,-0.0034306,0.00698911,0.00161882,-0.0131045,0.945149,0.00932293,0.0494875,1938,1128,28.4351,-3.88788
721,-104,27.6047,5.08398,-0.00834957,-0.002993,0.00714364,0.00195792,-0.0133005,0.964748,0.00958652,0.033618,1945,1128,27.6047,-5.08401
728,-104,27.5555,4.94202,-0.00822799,-0.00262324,0.00713379,0.00223887,-0.0130901,0.972553,0.0095608,0.0215431,1952,1128,27.5555,-4.94196
735,-104,27.536,4.77869,-0.00770771,-0.00217502,0.00687556,0.00246985,-0.0123526,0.976661,0.00916988,0.0205322,1959,1128,27.536,-4.77864
742,-104,27.4688,4.63538,-0.00691816,-0.00172068,0.00578539,0.00202283,-0.0106617,0.996488,0.00786921,0.0141235,1966,1128,27.4687,-4.6354
749,-104,27.4608,4.48999,-0.00590833,-0.000796016,0.00476628,0.00205628,-0.00876062,1.03153,0.00663295,0.0172214,1973,1128,27.4608,-4.49005
756,-104,27.4578,4.32544,-0.00504484,0.00244216,0.00430836,0.00440618,-0.00700886,1.14308,0.00664733,0.0166234,1980,1128,27.4578,-4.32543
763,-104,27.4362,4.16821,-0.00400496,0.00716209,0.00403872,0.00846964,-0.00531251,1.25769,0.00802642,0.0145551,1987,1128,27.4362,-4.16823
770,-104,27.4209,4.03723,-0.0032893,0.0126111,0.00400696,0.0135638,-0.00424199,1.33737,0.0107395,0.0126377,1994,1128,27.4209,-4.03719
777,-104,27.4099,3.90552,-0.00351168,0.0199136,0.00523546,0.0210304,-0.00462854,1.36062,0.0157909,0.0200572,2001,1128,27.4099,-3.90547
784,-104,27.2351,3.59326,-0.00450536,0.0299412,0.00766201,0.0315686,-0.00613275,1.36151,0.0233599,0.0390625,2008,1128,27.2351,-3.59326
791,-104,27.4774,4.72583,-0.00593718,0.0437989,0.0112378,0.0462202,-0.00835848,1.35858,0.0339444,0.0450233,2015,1128,27.4774,-4.72588
798,-104,24.8315,-0.259644,0,0,0,0,0,0,0,-1,2022,1128,24.8315,0.259651
805,-104,24.8381,0.122559,0,0,0,0,0,0,0,-1,2029,1128,24.8381,-0.122572
812,-104,25.7739,0.662964,0,0,0,0,0,0,0,-1,2036,1128,25.7739,-0.662953
-700,-111,0,0,0,0,0,0,0,0,0,-1,524,1135,0,0
-693,-111,-18.2996,-3.2677,0,0,0,0,0,0,0,-1,531,1135,-18.2996,3.26775
-686,-111,-16.5471,-2.79053,0.162552,0.0298201,-0.0324889,0.170078,0.0222945,-0.227623,0.106733,0.0491269,538,1135,-16.5471,2.79055
-679,-111,-15.0251,-2.15112,0.118261,0.024551,-0.0238752,0.123993,0.0188188,-0.235631,0.0771581,0.0456603,545,1135,-15.0251,2.15117
-672,-111,-13.1058,-1.68713,0,0,0,0,0,0,0,-1,552,1135,-13.1058,1.68711
-665,-111,-20.1811,0.669067,0,0,0,0,0,0,0,-1,559,1135,-20.1811,-0.669041
-658,-111,-18.6808,0.734131,0,0,0,0,0,0,0,-1,566,1135,-18.6809,-0.734163
-651,-111,-18.5579,0.943726,0.0245639,0.00893914,-0.00445687,0.0257458,0.00775724,-0.259218,0.0152506,0.0383798,573,1135,-18.5579,-0.943693
-644,-111,-18.4764,1.20032,0.0150887,0.00648997,-0.00252434,0.015775,0.00580368,-0.265456,0.00921304,0.0226133,580,1135,-18.4764,-1.20031
-637,-111,-18.5197,1.43079,0.00889781,0.00442485,-0.00155717,0.00938652,0.00393615,-0.304105,0.00544276,0.00897127,587,1135,-18.5197,-1.43083
-630,-111,-18.5261,1.61792,0.00335164,0.0027641,-0.00127819,0.00436938,0.00174636,-0.672444,0.00253953,0.0155805,594,1135,-18.5261,-1.61794
-623,-111,-18.54,1.80896,-2.45509e-05,0.00123112,-0.00150987,0.00223848,-0.00103191,-0.982434,0.00193052,0.0142816,601,1135,-18.5399,-1.80902
-616,-111,-18.6066,1.98035,0.000192854,2.20962e-05,-0.00203191,0.00214118,-0.00192623,-0.764401,0.00234942,0.0144628,608,1135,-18.6066,-1.98038
-609,-111,-18.7063,2.1687,0.000380523,-0.000571481,-0.00241666,0.00236762,-0.00255858,-0.68816,0.00284485,0.0195871,615,1135,-18.7063,-2.16873
-602,-111,-18.6522,2.38086,0.000118845,-0.000841557,-0.00276197,0.00244205,-0.00316476,-0.699328,0.00324605,0.0198798,622,1135,-18.6523,-2.38086
-595,-111,-18.5786,2.62256,-0.00022782,-0.00118176,-0.00296715,0.00230045,-0.00371003,-0.705705,0.00350182,0.013525,629,1135,-18.5786,-2.62262
-588,-111,-18.5332,2.73486,-0.000231958,-0.00136167,-0.00299493,0.00225091,-0.00384455,-0.692191,0.00355908,0.0431909,636,1135,-18.5332,-2.73489
-581,-111,-18.5388,2.54761,0,0,0,0,0,0,0,-1,643,1135,-18.5388,-2.54759
-574,-111,-20.2617,0.661133,0,0,0,0,0,0,0,-1,650,1135,-20.2617,-0.661078
-567,-111,-20.1199,0.457397,0.000722607,-0.000922587,-0.00227761,0.00232161,-0.00252159,-0.612104,0.00279702,0.0393965,657,1135,-20.1199,-0.457354
-560,-111,-20.04,0.421143,0.00104405,-0.000534752,-0.00176549,0.00218858,-0.00167928,-0.575166,0.00223956,0.0401951,664,1135,-20.04,-0.42117
-553,-111,-20.1818,0.536011,0.00144023,2.69074e-05,-0.00115522,0.00208779,-0.00062065,-0.510905,0.00163841,0.0431365,671,1135,-20.1818,-0.535972
-546,-111,-20.2344,0.695679,0.00206061,0.000775027,-0.000450067,0.00220251,0.000633126,-0.305422,0.00130936,0.0414291,678,1135,-20.2344,-0.695681
-539,-111,-20.356,0.669556,0.00322426,0.00164439,0.000353715,0.00329983,0.00156881,0.210502,0.00190593,0.0415951,685,1135,-20.356,-0.669535
-532,-111,-20.3184,0.586792,0.00517954,0.00236449,0.000395939,0.00523417,0.00230986,0.137108,0.00302888,0.0401618,692,1135,-20.3184,-0.586731
-525,-111,-20.1942,0.665405,0.00719588,0.00358975,-0.000309745,0.00722229,0.00356334,-0.0850638,0.00416991,0.0367734,699,1135,-20.1942,-0.66538
-518,-111,0,0,0,0,0,0,0,0,0,-1,706,1135,0,0
-511,-111,0,0,0,0,0,0,0,0,0,-1,713,1135,0,0
-504,-111,0,0,0,0,0,0,0,0,0,-1,720,1135,0,0
-497,-111,0,0,0,0,0,0,0,0,0,-1,727,1135,0,0
-490,-111,0,0,0,0,0,0,0,0,0,-1,734,1135,0,0
-483,-111,0,0,0,0,0,0,0,0,0,-1,741,1135,0,0
-476,-111,0,0,0,0,0,0,0,0,0,-1,748,1135,0,0
-469,-111,0,0,0,0,0,0,0,0,0,-1,755,1135,0,0
-462,-111,0,0,0,0,0,0,0,0,0,-1,762,1135,0,0
-455,-111,0,0,0,0,0,0,0,0,0,-1,769,1135,0,0
-448,-111,0,0,0,0,0,0,0,0,0,-1,776,1135,0,0
-441,-111,0,0,0,0,0,0,0,0,0,-1,783,1135,0,0
-434,-111,0,0,0,0,0,0,0,0,0,-1,790,1135,0,0
-427,-111,0,0,0,0,0,0,0,0,0,-1,797,1135,0,0
-420,-111,0,0,0,0,0,0,0,0,0,-1,804,1135,0,0
-413,-111,0,0,0,0,0,0,0,0,0,-1,811,1135,0,0
-406,-111,0,0,0,0,0,0,0,0,0,-1,818,1135,0,0
-399,-111,0,0,0,0,0,0,0,0,0,-1,825,1135,0,0
-392,-111,0,0,0,0,0,0,0,0,0,-1,832,1135,0,0
-385,-111,0,0,0,0,0,0,0,0,0,-1,839,1135,0,0
-378,-111,0,0,0,0,0,0,0,0,0,-1,846,1135,0,0
-371,-111,0,0,0,0,0,0,0,0,0,-1,853,1135,0,0
-364,-111,0,0,0,0,0,0,0,0,0,-1,860,1135,0,0
-357,-111,0,0,0,0,0,0,0,0,0,-1,867,1135,0,0
-350,-111,0,0,0,0,0,0,0,0,0,-1,874,1135,0,0
-343,-111,0,0,0,0,0,0,0,0,0,-1,881,1135,0,0
-336,-111,0,0,0,0,0,0,0,0,0,-1,888,1135,0,0
-329,-111,0,0,0,0,0,0,0,0,0,-1,895,1135,0,0
-322,-111,0,0,0,0,0,0,0,0,0,-1,902,1135,0,0
-315,-111,0,0,0,0,0,0,0,0,0,-1,909,1135,0,0
-308,-111,0,0,0,0,0,0,0,0,0,-1,916,1135,0,0
-301,-111,0,0,0,0,0,0,0,0,0,-1,923,1135,0,0
-294,-111,0,0,0,0,0,0,0,0,0,-1,930,1135,0,0
-287,-111,0,0,0,0,0,0,0,0,0,-1,937,1135,0,0
-280,-111,0,0,0,0,0,0,0,0,0,-1,944,1135,0,0
-273,-111,0,0,0,0,0,0,0,0,0,-1,951,1135,0,0
-266,-111,0,0,0,0,0,0,0,0,0,-1,958,1135,0,0
-259,-111,0,0,0,0,0,0,0,0,0,-1,965,1135,0,0
-252,-111,0,0,0,0,0,0,0,0,0,-1,972,1135,0,0
-245,-111,0,0,0,0,0,0,0,0,0,-1,979,1135,0,0
-238,-111,0,0,0,0,0,0,0,0,0,-1,986,1135,0,0
-231,-111,0,0,0,0,0,0,0,0,0,-1,993,1135,0,0
-224,-111,0,0,0,0,0,0,0,0,0,-1,1000,1135,0,0
-217,-111,0,0,0,0,0,0,0,0,0,-1,1007,1135,0,0
-210,-111,0,0,0,0,0,0,0,0,0,-1,1014,1135,0,0
-203,-111,0,0,0,0,0,0,0,0,0,-1,1021,1135,0,0
-196,-111,0,0,0,0,0,0,0,0,0,-1,1028,1135,0,0
-189,-111,0,0,0,0,0,0,0,0,0,-1,1035,1135,0,0
-182,-111,0,0,0,0,0,0,0,0,0,-1,1042,1135,0,0
-175,-111,0,0,0,0,0,0,0,0,0,-1,1049,1135,0,0
-168,-111,0,0,0,0,0,0,0,0,0,-1,1056,1135,0,0
-161,-111,0,0,0,0,0,0,0,0,0,-1,1063,1135,0,0
-154,-111,0,0,0,0,0,0,0,0,0,-1,1070,1135,0,0
-147,-111,0,0,0,0,0,0,0,0,0,-1,1077,1135,0,0
-140,-111,0,0,0,0,0,0,0,0,0,-1,1084,1135,0,0
-133,-111,0,0,0,0,0,0,0,0,0,-1,1091,1135,0,0
-126,-111,0,0,0,0,0,0,0,0,0,-1,1098,1135,0,0
-119,-111,0,0,0,0,0,0,0,0,0,-1,1105,1135,0,0
-112,-111,0,0,0,0,0,0,0,0,0,-1,1112,1135,0,0
-105,-111,0,0,0,0,0,0,0,0,0,-1,1119,1135,0,0
-98,-111,0,0,0,0,0,0,0,0,0,-1,1126,1135,0,0
-91,-111,0,0,0,0,0,0,0,0,0,-1,1133,1135,0,0
-84,-111,0,0,0,0,0,0,0,0,0,-1,1140,1135,0,0
-77,-111,0,0,0,0,0,0,0,0,0,-1,1147,1135,0,0
-70,-111,0,0,0,0,0,0,0,0,0,-1,1154,1135,0,0
-63,-111,0,0,0,0,0,0,0,0,0,-1,1161,1135,0,0
-56,-111,0,0,0,0,0,0,0,0,0,-1,1168,1135,0,0
-49,-111,0,0,0,0,0,0,0,0,0,-1,1175,1135,0,0
-42,-111,0,0,0,0,0,0,0,0,0,-1,1182,1135,0,0
-35,-111,0,0,0,0,0,0,0,0,0,-1,1189,1135,0,0
-28,-111,0,0,0,0,0,0,0,0,0,-1,1196,1135,0,0
-21,-111,0,0,0,0,0,0,0,0,0,-1,1203,1135,0,0
-14,-111,0,0,0,0,0,0,0,0,0,-1,1210,1135,0,0
-7,-111,0,0,0,0,0,0,0,0,0,-1,1217,1135,0,0
0,-111,0,0,0,0,0,0,0,0,0,-1,1224,1135,0,0
7,-111,0,0,0,0,0,0,0,0,0,-1,1231,1135,0,0
14,-111,0,0,0,0,0,0,0,0,0,-1,1238,1135,0,0
21,-111,0,0,0,0,0,0,0,0,0,-1,1245,1135,0,0
28,-111,0,0,0,0,0,0,0,0,0,-1,1252,1135,0,0
35,-111,0,0,0,0,0,0,0,0,0,-1,1259,1135,0,0
42,-111,0,0,0,0,0,0,0,0,0,-1,1266,1135,0,0
49,-111,0,0,0,0,0,0,0,0,0,-1,1273,1135,0,0
56,-111,0,0,0,0,0,0,0,0,0,-1,1280,1135,0,0
63,-111,0,0,0,0,0,0,0,0,0,-1,1287,1135,0,0
70,-111,0,0,0,0,0,0,0,0,0,-1,1294,1135,0,0
77,-111,0,0,0,0,0,0,0,0,0,-1,1301,1135,0,0
84,-111,0,0,0,0,0,0,0,0,0,-1,1308,1135,0,0
91,-111,0,0,0,0,0,0,0,0,0,-1,1315,1135,0,0
98,-111,0,0,0,0,0,0,0,0,0,-1,1322,1135,0,0
105,-111,0,0,0,0,0,0,0,0,0,-1,1329,1135,0,0
112,-111,0,0,0,0,0,0,0,0,0,-1,1336,1135,0,0
119,-111,0,0,0,0,0,0,0,0,0,-1,1343,1135,0,0
126,-111,0,0,0,0,0,0,0,0,0,-1,1350,1135,0,0
133,-111,0,0,0,0,0,0,0,0,0,-1,1357,1135,0,0
140,-111,0,0,0,0,0,0,0,0,0,-1,1364,1135,0,0
147,-111,0,0,0,0,0,0,0,0,0,-1,1371,1135,0,0
154,-111,0,0,0,0,0,0,0,0,0,-1,1378,1135,0,0
161,-111,0,0,0,0,0,0,0,0,0,-1,1385,1135,0,0
168,-111,0,0,0,0,0,0,0,0,0,-1,1392,1135,0,0
175,-111,0,0,0,0,0,0,0,0,0,-1,1399,1135,0,0
182,-111,0,0,0,0,0,0,0,0,0,-1,1406,1135,0,0
189,-111,0,0,0,0,0,0,0,0,0,-1,1413,1135,0,0
196,-111,0,0,0,0,0,0,0,0,0,-1,1420,1135,0,0
203,-111,0,0,0,0,0,0,0,0,0,-1,1427,1135,0,0
210,-111,0,0,0,0,0,0,0,0,0,-1,1434,1135,0,0
217,-111,0,0,0,0,0,0,0,0,0,-1,1441,1135,0,0
224,-111,0,0,0,0,0,0,0,0,0,-1,1448,1135,0,0
231,-111,0,0,0,0,0,0,0,0,0,-1,1455,1135,0,0
238,-111,0,0,0,0,0,0,0,0,0,-1,1462,1135,0,0
245,-111,0,0,0,0,0,0,0,0,0,-1,1469,1135,0,0
252,-111,0,0,0,0,0,0,0,0,0,-1,1476,1135,0,0
259,-111,0,0,0,0,0,0,0,0,0,-1,1483,1135,0,0
266,-111,0,0,0,0,0,0,0,0,0,-1,1490,1135,0,0
273,-111,0,0,0,0,0,0,0,0,0,-1,1497,1135,0,0
280,-111,0,0,0,0,0,0,0,0,0,-1,1504,1135,0,0
287,-111,0,0,0,0,0,0,0,0,0,-1,1511,1135,0,0
294,-111,0,0,0,0,0,0,0,0,0,-1,1518,1135,0,0
301,-111,0,0,0,0,0,0,0,0,0,-1,1525,1135,0,0
308,-111,0,0,0,0,0,0,0,0,0,-1,1532,1135,0,0
315,-111,0,0,0,0,0,0,0,0,0,-1,1539,1135,0,0
322,-111,0,0,0,0,0,0,0,0,0,-1,1546,1135,0,0
329,-111,0,0,0,0,0,0,0,0,0,-1,1553,1135,0,0
336,-111,0,0,0,0,0,0,0,0,0,-1,1560,1135,0,0
343,-111,0,0,0,0,0,0,0,0,0,-1,1567,1135,0,0
350,-111,0,0,0,0,0,0,0,0,0,-1,1574,1135,0,0
357,-111,0,0,0,0,0,0,0,0,0,-1,1581,1135,0,0
364,-111,0,0,0,0,0,0,0,0,0,-1,1588,1135,0,0
371,-111,0,0,0,0,0,0,0,0,0,-1,1595,1135,0,0
378,-111,0,0,0,0,0,0,0,0,0,-1,1602,1135,0,0
385,-111,0,0,0,0,0,0,0,0,0,-1,1609,1135,0,0
392,-111,0,0,0,0,0,0,0,0,0,-1,1616,1135,0,0
399,-111,0,0,0,0,0,0,0,0,0,-1,1623,1135,0,0
406,-111,0,0,0,0,0,0,0,0,0,-1,1630,1135,0,0
413,-111,0,0,0,0,0,0,0,0,0,-1,1637,1135,0,0
420,-111,0,0,0,0,0,0,0,0,0,-1,1644,1135,0,0
427,-111,0,0,0,0,0,0,0,0,0,-1,1651,1135,0,0
434,-111,0,0,0,0,0,0,0,0,0,-1,1658,1135,0,0
441,-111,0,0,0,0,0,0,0,0,0,-1,1665,1135,0,0
448,-111,0,0,0,0,0,0,0,0,0,-1,1672,1135,0,0
455,-111,0,0,0,0,0,0,0,0,0,-1,1679,1135,0,0
462,-111,0,0,0,0,0,0,0,0,0,-1,1686,1135,0,0
469,-111,0,0,0,0,0,0,0,0,0,-1,1693,1135,0,0
476,-111,0,0,0,0,0,0,0,0,0,-1,1700,1135,0,0
483,-111,0,0,0,0,0,0,0,0,0,-1,1707,1135,0,0
490,-111,0,0,0,0,0,0,0,0,0,-1,1714,1135,0,0
497,-111,0,0,0,0,0,0,0,0,0,-1,1721,1135,0,0
504,-111,0,0,0,0,0,0,0,0,0,-1,1728,1135,0,0
511,-111,0,0,0,0,0,0,0,0,0,-1,1735,1135,0,0
518,-111,0,0,0,0,0,0,0,0,0,-1,1742,1135,0,0
525,-111,0,0,0,0,0,0,0,0,0,-1,1749,1135,0,0
532,-111,0,0,0,0,0,0,0,0,0,-1,1756,1135,0,0
539,-111,0,0,0,0,0,0,0,0,0,-1,1763,1135,0,0
546,-111,0,0,0,0,0,0,0,0,0,-1,1770,1135,0,0
553,-111,0,0,0,0,0,0,0,0,0,-1,1777,1135,0,0
560,-111,0,0,0,0,0,0,0,0,0,-1,1784,1135,0,0
567,-111,0,0,0,0,0,0,0,0,0,-1,1791,1135,0,0
574,-111,0,0,0,0,0,0,0,0,0,-1,1798,1135,0,0
581,-111,0,0,0,0,0,0,0,0,0,-1,1805,1135,0,0
588,-111,0,0,0,0,0,0,0,0,0,-1,1812,1135,0,0
595,-111,0,0,0,0,0,0,0,0,0,-1,1819,1135,0,0
602,-111,0,0,0,0,0,0,0,0,0,-1,1826,1135,0,0
609,-111,0,0,0,0,0,0,0,0,0,-1,1833,1135,0,0
616,-111,0,0,0,0,0,0,0,0,0,-1,1840,1135,0,0
623,-111,0,0,0,0,0,0,0,0,0,-1,1847,1135,0,0
630,-111,0,0,0,0,0,0,0,0,0,-1,1854,1135,0,0
637,-111,0,0,0,0,0,0,0,0,0,-1,1861,1135,0,0
644,-111,29.0564,3.00916,-0.00290985,-0.00188681,-0.00210504,-0.000232029,-0.00456463,-0.904586,0.00296877,0.039112,1868,1135,29.0564,-3.00911
651,-111,28.9031,3.06213,-0.00193028,-0.00241445,-0.00172854,-0.00042696,-0.00391777,-0.715825,0.0024818,0.0419828,1875,1135,28.9031,-3.06216
658,-111,28.9745,3.078,-0.000791143,-0.00246887,-0.00174127,0.000302789,-0.0035628,-0.560926,0.0024823,0.0457006,1882,1135,28.9744,-3.07803
665,-111,29.097,3.04626,-0.000685069,-0.002464,-0.00114023,-0.000128412,-0.00302066,-0.454161,0.00197236,0.0456647,1889,1135,29.097,-3.04626
672,-111,29.0754,2.7616,-0.00182579,-0.00272615,0.000403389,-0.0016715,-0.00288044,0.365318,0.00167015,0.0442639,1896,1135,29.0755,-2.76155
679,-111,29.067,2.37476,-0.00342671,-0.00295715,0.00207955,-0.00109916,-0.00528469,0.84161,0.0032199,0.0430568,1903,1135,29.067,-2.37471
686,-111,29.0234,2.44019,-0.0050126,-0.00317067,0.00360236,-0.000373413,-0.00780986,0.910545,0.00508667,0.0381069,1910,1135,29.0234,-2.44022
693,-111,29.0178,2.60742,-0.00631323,-0.00333025,0.00484172,0.000244503,-0.00988799,0.934811,0.00667498,0.0337731,1917,1135,29.0179,-2.60746
700,-111,29.1158,2.56812,-0.00718969,-0.00343072,0.00585004,0.000834341,-0.0114548,0.940829,0.00792926,0.0256401,1924,1135,29.1159,-2.56806
707,-111,28.9391,2.88391,0,0,0,0,0,0,0,-1,1931,1135,28.939,-2.8839
714,-111,28.0613,4.07495,-0.00850689,-0.00332661,0.00700748,0.00155409,-0.0133876,0.962423,0.00948563,0.0358658,1938,1135,28.0612,-4.07497
721,-111,27.3674,5.11072,-0.00878043,-0.00286349,0.00715944,0.00192466,-0.0135686,0.981326,0.00975079,0.0151358,1945,1135,27.3674,-5.11077
728,-111,27.348,4.9436,-0.00860569,-0.00247839,0.00718807,0.00227169,-0.0133558,0.986847,0.00974969,0.017885,1952,1135,27.348,-4.94355
735,-111,27.3468,4.77087,-0.00794972,-0.00202182,0.00695597,0.00257535,-0.0125469,0.9868,0.00934213,0.0172024,1959,1135,27.3468,-4.77082
742,-111,27.33,4.64941,-0.0069817,-0.00153231,0.00581366,0.00216348,-0.0106775,1.00453,0.00793837,0.0113818,1966,1135,27.33,-4.64945
749,-111,27.303,4.50171,-0.00578101,-0.000605552,0.00465519,0.0021328,-0.00851936,1.03907,0.00650806,0.014742,1973,1135,27.303,-4.50167
756,-111,27.2739,4.33057,-0.00472501,0.00274337,0.00400084,0.00448192,-0.00646356,1.16087,0.0063538,0.0163678,1980,1135,27.2739,-4.3306
763,-111,27.2708,4.16113,-0.00352785,0.00769748,0.00363674,0.00877271,-0.00460308,1.28333,0.00784659,0.0135659,1987,1135,27.2707,-4.16107
770,-111,27.2749,4.01575,-0.00278101,0.0133138,0.00347801,0.0140332,-0.00350043,1.36682,0.0107146,0.011524,1994,1135,27.2749,-4.01572
777,-111,27.2202,3.90344,-0.00305173,0.0208739,0.00452541,0.0217012,-0.00387908,1.38997,0.0159188,0.0232748,2001,1135,27.2202,-3.90341
784,-111,27.2948,4.05823,-0.00410315,0.0313934,0.00664368,0.0325961,-0.00530586,1.39171,0.0236982,0.0383217,2008,1135,27.2948,-4.05823
791,-111,27.3765,4.44678,-0.00569585,0.0459283,0.00983763,0.0477394,-0.00750699,1.38873,0.0346011,0.0433451,2015,1135,27.3764,-4.44682
798,-111,27.3181,4.88013,0,0,0,0,0,0,0,-1,2022,1135,27.3182,-4.88014
805,-111,23.7,-1.27185,-0.0104185,0.0910999,0.0209977,0.0952715,-0.0145902,1.37468,0.0688946,0.0468053,2029,1135,23.6999,1.27187
812,-111,23.4819,-1.01501,-0.0139294,0.124142,0.0301748,0.130449,-0.0202359,1.36476,0.0944367,0.0456301,2036,1135,23.482,1.01501
-700,-118,0,0,0,0,0,0,0,0,0,-1,524,1142,0,0
-693,-118,-18.226,-1.13855,0,0,0,0,0,0,0,-1,531,1142,-18.226,1.13852
-686,-118,-14.9984,-2.93506,0,0,0,0,0,0,0,-1,538,1142,-14.9983,2.9351
-679,-118,-13.4376,-1.73376,0,0,0,0,0,0,0,-1,545,1142,-13.4375,1.73376
-672,-118,-11.8874,-1.42249,0,0,0,0,0,0,0,-1,552,1142,-11.8874,1.42253
-665,-118,-19.6885,0.647095,0.0387496,0.0155718,-0.0163125,0.0471707,0.00715068,-0.476553,0.0293553,0.0463366,559,1142,-19.6885,-0.64709
-658,-118,-19.4876,0.130371,0,0,0,0,0,0,0,-1,566,1142,-19.4876,-0.130424
-651,-118,-18.23,0.782349,0.0143888,0.00952167,-0.00697003,0.0193379,0.00457259,-0.61744,0.0116703,0.0372407,573,1142,-18.2301,-0.78231
-644,-118,-18.2148,1.18213,0.00809215,0.00709504,-0.00421355,0.0118365,0.00335065,-0.726511,0.00704495,0.0241364,580,1142,-18.2148,-1.18209
-637,-118,-18.2958,1.42358,0.00436447,0.00500297,-0.00258279,0.00728617,0.00208127,-0.84689,0.00433361,0.0144037,587,1142,-18.2959,-1.42355
-630,-118,-18.3059,1.61633,0.000852296,0.00331034,-0.00161054,0.00410723,5.54018e-05,-1.11132,0.00271987,0.0198632,594,1142,-18.3059,-1.61634
-623,-118,-18.3199,1.80237,-0.000919944,0.00173133,-0.00126681,0.0022393,-0.00142791,-1.18944,0.00213447,0.0169967,601,1142,-18.3199,-1.80237
-616,-118,-18.335,1.97046,7.21732e-05,0.000458246,-0.00144342,0.00172148,-0.00119106,-0.851872,0.00169082,0.0147234,608,1142,-18.335,-1.97047
-609,-118,-18.4089,2.1106,0.000558942,-0.000220029,-0.00166175,0.00187624,-0.00153733,-0.670285,0.00197406,0.0197207,615,1142,-18.4089,-2.11056
-602,-118,-18.395,2.40356,0.000320169,-0.000543898,-0.00187641,0.00181364,-0.00203737,-0.672248,0.00222463,0.0187733,622,1142,-18.3949,-2.40359
-595,-118,-18.4476,2.57312,-6.38251e-05,-0.000871849,-0.00209137,0.0016622,-0.00259788,-0.689983,0.00247925,0.0161922,629,1142,-18.4475,-2.57315
-588,-118,-18.2504,2.75952,-0.000159976,-0.00104426,-0.00222727,0.00166861,-0.00287284,-0.687415,0.00265256,0.0324665,636,1142,-18.2504,-2.75952
-581,-118,-18.1107,2.79602,0,0,0,0,0,0,0,-1,643,1142,-18.1107,-2.79599
-574,-118,-20.328,0.900513,0,0,0,0,0,0,0,-1,650,1142,-20.328,-0.900486
-567,-118,-20.2259,0.661621,0.000478265,-0.000564604,-0.00192684,0.00195298,-0.00203932,-0.653255,0.00230514,0.0449363,657,1142,-20.2259,-0.661566
-560,-118,-20.0741,0.514404,0.000666442,-0.000191459,-0.00164888,0.00194125,-0.00146627,-0.658145,0.00197369,0.0383611,664,1142,-20.0741,-0.514364
-553,-118,-19.9905,0.661987,0.00097574,0.000355135,-0.00130627,0.00200805,-0.000677179,-0.668785,0.00161254,0.0403948,671,1142,-19.9906,-0.662028
-546,-118,-20.1586,0.769165,0.00157852,0.00109321,-0.000882364,0.00225099,0.000420743,-0.651212,0.00138193,0.041757,678,1142,-20.1586,-0.769177
-539,-118,-20.2698,0.835449,0.00279783,0.00198643,-0.000295474,0.00289402,0.00189023,-0.314737,0.00169679,0.0415468,685,1142,-20.2698,-0.835414
-532,-118,-20.3442,0.758423,0.0052137,0.0028677,2.70304e-06,0.00521371,0.00286769,0.00115219,0.00301515,0.0392335,692,1142,-20.3442,-0.758426
-525,-118,-20.2726,0.61145,0.00786853,0.00423433,-9.41685e-05,0.00787097,0.00423189,-0.0258886,0.0045486,0.0393989,699,1142,-20.2726,-0.611497
-518,-118,0,0,0,0,0,0,0,0,0,-1,706,1142,0,0
-511,-118,0,0,0,0,0,0,0,0,0,-1,713,1142,0,0
-504,-118,0,0,0,0,0,0,0,0,0,-1,720,1142,0,0
-497,-118,0,0,0,0,0,0,0,0,0,-1,727,1142,0,0
-490,-118,0,0,0,0,0,0,0,0,0,-1,734,1142,0,0
-483,-118,0,0,0,0,0,0,0,0,0,-1,741,1142,0,0
-476,-118,0,0,0,0,0,0,0,0,0,-1,748,1142,0,0
-469,-118,0,0,0,0,0,0,0,0,0,-1,755,1142,0,0
-462,-118,0,0,0,0,0,0,0,0,0,-1,762,1142,0,0
-455,-118,0,0,0,0,0,0,0,0,0,-1,769,1142,0,0
-448,-118,0,0,0,0,0,0,0,0,0,-1,776,1142,0,0
-441,-118,0,0,0,0,0,0,0,0,0,-1,783,1142,0,0
-434,-118,0,0,0,0,0,0,0,0,0,-1,790,1142,0,0
-427,-118,0,0,0,0,0,0,0,0,0,-1,797,1142,0,0
-420,-118,0,0,0,0,0,0,0,0,0,-1,804,1142,0,0
-413,-118,0,0,0,0,0,0,0,0,0,-1,811,1142,0,0
-406,-118,0,0,0,0,0,0,0,0,0,-1,818,1142,0,0
-399,-118,0,0,0,0,0,0,0,0,0,-1,825,1142,0,0
-392,-118,0,0,0,0,0,0,0,0,0,-1,832,1142,0,0
-385,-118,0,0,0,0,0,0,0,0,0,-1,839,1142,0,0
-378,-118,0,0,0,0,0,0,0,0,0,-1,846,1142,0,0
-371,-118,0,0,0,0,0,0,0,0,0,-1,853,1142,0,0
-364,-118,0,0,0,0,0,0,0,0,0,-1,860,1142,0,0
-357,-118,0,0,0,0,0,0,0,0,0,-1,867,1142,0,0
-350,-118,0,0,0,0,0,0,0,0,0,-1,874,1142,0,0
-343,-118,0,0,0,0,0,0,0,0,0,-1,881,1142,0,0
-336,-118,0,0,0,0,0,0,0,0,0,-1,888,1142,0,0
-329,-118,0,0,0,0,0,0,0,0,0,-1,895,1142,0,0
-322,-118,0,0,0,0,0,0,0,0,0,-1,902,1142,0,0
-315,-118,0,0,0,0,0,0,0,0,0,-1,909,1142,0,0
-308,-118,0,0,0,0,0,0,0,0,0,-1,916,1142,0,0
-301,-118,0,0,0,0,0,0,0,0,0,-1,923,1142,0,0
-294,-118,0,0,0,0,0,0,0,0,0,-1,930,1142,0,0
-287,-118,0,0,0,0,0,0,0,0,0,-1,937,1142,0,0
-280,-118,0,0,0,0,0,0,0,0,0,-1,944,1142,0,0
-273,-118,0,0,0,0,0,0,0,0,0,-1,951,1142,0,0
-266,-118,0,0,0,0,0,0,0,0,0,-1,958,1142,0,0
-259,-118,0,0,0,0,0,0,0,0,0,-1,965,1142,0,0
-252,-118,0,0,0,0,0,0,0,0,0,-1,972,1142,0,0
-245,-118,0,0,0,0,0,0,0,0,0,-1,979,1142,0,0
-238,-118,0,0,0,0,0,0,0,0,0,-1,986,1142,0,0
-231,-118,0,0,0,0,0,0,0,0,0,-1,993,1142,0,0
-224,-118,0,0,0,0,0,0,0,0,0,-1,1000,1142,0,0
-217,-118,0,0,0,0,0,0,0,0,0,-1,1007,1142,0,0
-210,-118,0,0,0,0,0,0,0,0,0,-1,1014,1142,0,0
-203,-118,0,0,0,0,0,0,0,0,0,-1,1021,1142,0,0
-196,-118,0,0,0,0,0,0,0,0,0,-1,1028,1142,0,0
-189,-118,0,0,0,0,0,0,0,0,0,-1,1035,1142,0,0
-182,-118,0,0,0,0,0,0,0,0,0,-1,1042,1142,0,0
-175,-118,0,0,0,0,0,0,0,0,0,-1,1049,1142,0,0
-168,-118,0,0,0,0,0,0,0,0,0,-1,1056,1142,0,0
-161,-118,0,0,0,0,0,0,0,0,0,-1,1063,1142,0,0
-154,-118,0,0,0,0,0,0,0,0,0,-1,1070,1142,0,0
-147,-118,0,0,0,0,0,0,0,0,0,-1,1077,1142,0,0
-140,-118,0,0,0,0,0,0,0,0,0,-1,1084,1142,0,0
-133,-118,0,0,0,0,0,0,0,0,0,-1,1091,1142,0,0
-126,-118,0,0,0,0,0,0,0,0,0,-1,1098,1142,0,0
-119,-118,0,0,0,0,0,0,0,0,0,-1,1105,1142,0,0
-112,-118,0,0,0,0,0,0,0,0,0,-1,1112,1142,0,0
-105,-118,0,0,0,0,0,0,0,0,0,-1,1119,1142,0,0
-98,-118,0,0,0,0,0,0,0,0,0,-1,1126,1142,0,0
-91,-118,0,0,0,0,0,0,0,0,0,-1,1133,1142,0,0
-84,-118,0,0,0,0,0,0,0,0,0,-1,1140,1142,0,0
-77,-118,0,0,0,0,0,0,0,0,0,-1,1147,1142,0,0
-70,-118,0,0,0,0,0,0,0,0,0,-1,1154,1142,0,0
-63,-118,0,0,0,0,0,0,0,0,0,-1,1161,1142,0,0
-56,-118,0,0,0,0,0,0,0,0,0,-1,1168,1142,0,0
-49,-118,0,0,0,0,0,0,0,0,0,-1,1175,1142,0,0
-42,-118,0,0,0,0,0,0,0,0,0,-1,1182,1142,0,0
-35,-118,0,0,0,0,0,0,0,0,0,-1,1189,1142,0,0
-28,-118,0,0,0,0,0,0,0,0,0,-1,1196,1142,0,0
-21,-118,0,0,0,0,0,0,0,0,0,-1,1203,1142,0,0
-14,-118,0,0,0,0,0,0,0,0,0,-1,1210,1142,0,0
-7,-118,0,0,0,0,0,0,0,0,0,-1,1217,1142,0,0
0,-118,0,0,0,0,0,0,0,0,0,-1,1224,1142,0,0
7,-118,0,0,0,0,0,0,0,0,0,-1,1231,1142,0,0
14,-118,0,0,0,0,0,0,0,0,0,-1,1238,1142,0,0
21,-118,0,0,0,0,0,0,0,0,0,-1,1245,1142,0,0
28,-118,0,0,0,0,0,0,0,0,0,-1,1252,1142,0,0
35,-118,0,0,0,0,0,0,0,0,0,-1,1259,1142,0,0
42,-118,0,0,0,0,0,0,0,0,0,-1,1266,1142,0,0
49,-118,0,0,0,0,0,0,0,0,0,-1,1273,1142,0,0
56,-118,0,0,0,0,0,0,0,0,0,-1,1280,1142,0,0
63,-118,0,0,0,0,0,0,0,0,0,-1,1287,1142,0,0
70,-118,0,0,0,0,0,0,0,0,0,-1,1294,1142,0,0
77,-118,0,0,0,0,0,0,0,0,0,-1,1301,1142,0,0
84,-118,0,0,0,0,0,0,0,0,0,-1,1308,1142,0,0
91,-118,0,0,0,0,0,0,0,0,0,-1,1315,1142,0,0
98,-118,0,0,0,0,0,0,0,0,0,-1,1322,1142,0,0
105,-118,0,0,0,0,0,0,0,0,0,-1,1329,1142,0,0
112,-118,0,0,0,0,0,0,0,0,0,-1,1336,1142,0,0
119,-118,0,0,0,0,0,0,0,0,0,-1,1343,1142,0,0
126,-118,0,0,0,0,0,0,0,0,0,-1,1350,1142,0,0
133,-118,0,0,0,0,0,0,0,0,0,-1,1357,1142,0,0
140,-118,0,0,0,0,0,0,0,0,0,-1,1364,1142,0,0
147,-118,0,0,0,0,0,0,0,0,0,-1,1371,1142,0,0
154,-118,0,0,0,0,0,0,0,0,0,-1,1378,1142,0,0
161,-118,0,0,0,0,0,0,0,0,0,-1,1385,1142,0,0
168,-118,0,0,0,0,0,0,0,0,0,-1,1392,1142,0,0
175,-118,0,0,0,0,0,0,0,0,0,-1,1399,1142,0,0
182,-118,0,0,0,0,0,0,0,0,0,-1,1406,1142,0,0
189,-118,0,0,0,0,0,0,0,0,0,-1,1413,1142,0,0
196,-118,0,0,0,0,0,0,0,0,0,-1,1420,1142,0,0
203,-118,0,0,0,0,0,0,0,0,0,-1,1427,1142,0,0
210,-118,0,0,0,0,0,0,0,0,0,-1,1434,1142,0,0
217,-118,0,0,0,0,0,0,0,0,0,-1,1441,1142,0,0
224,-118,0,0,0,0,0,0,0,0,0,-1,1448,1142,0,0
231,-118,0,0,0,0,0,0,0,0,0,-1,1455,1142,0,0
238,-118,0,0,0,0,0,0,0,0,0,-1,1462,1142,0,0
245,-118,0,0,0,0,0,0,0,0,0,-1,1469,1142,0,0
252,-118,0,0,0,0,0,0,0,0,0,-1,1476,1142,0,0
259,-118,0,0,0,0,0,0,0,0,0,-1,1483,1142,0,0
266,-118,0,0,0,0,0,0,0,0,0,-1,1490,1142,0,0
273,-118,0,0,0,0,0,0,0,0,0,-1,1497,1142,0,0
280,-118,0,0,0,0,0,0,0,0,0,-1,1504,1142,0,0
287,-118,0,0,0,0,0,0,0,0,0,-1,1511,1142,0,0
294,-118,0,0,0,0,0,0,0,0,0,-1,1518,1142,0,0
301,-118,0,0,0,0,0,0,0,0,0,-1,1525,1142,0,0
308,-118,0,0,0,0,0,0,0,0,0,-1,1532,1142,0,0
315,-118,0,0,0,0,0,0,0,0,0,-1,1539,1142,0,0
322,-118,0,0,0,0,0,0,0,0,0,-1,1546,1142,0,0
329,-118,0,0,0,0,0,0,0,0,0,-1,1553,1142,0,0
336,-118,0,0,0,0,0,0,0,0,0,-1,1560,1142,0,0
343,-118,0,0,0,0,0,0,0,0,0,-1,1567,1142,0,0
350,-118,0,0,0,0,0,0,0,0,0,-1,1574,1142,0,0
357,-118,0,0,0,0,0,0,0,0,0,-1,1581,1142,0,0
364,-118,0,0,0,0,0,0,0,0,0,-1,1588,1142,0,0
371,-118,0,0,0,0,0,0,0,0,0,-1,1595,1142,0,0
378,-118,0,0,0,0,0,0,0,0,0,-1,1602,1142,0,0
385,-118,0,0,0,0,0,0,0,0,0,-1,1609,1142,0,0
392,-118,0,0,0,0,0,0,0,0,0,-1,1616,1142,0,0
399,-118,0,0,0,0,0,0,0,0,0,-1,1623,1142,0,0
406,-118,0,0,0,0,0,0,0,0,0,-1,1630,1142,0,0
413,-118,0,0,0,0,0,0,0,0,0,-1,1637,1142,0,0
420,-118,0,0,0,0,0,0,0,0,0,-1,1644,1142,0,0
427,-118,0,0,0,0,0,0,0,0,0,-1,1651,1142,0,0
434,-118,0,0,0,0,0,0,0,0,0,-1,1658,1142,0,0
441,-118,0,0,0,0,0,0,0,0,0,-1,1665,1142,0,0
448,-118,0,0,0,0,0,0,0,0,0,-1,1672,1142,0,0
455,-118,0,0,0,0,0,0,0,0,0,-1,1679,1142,0,0
462,-118,0,0,0,0,0,0,0,0,0,-1,1686,1142,0,0
469,-118,0,0,0,0,0,0,0,0,0,-1,1693,1142,0,0
476,-118,0,0,0,0,0,0,0,0,0,-1,1700,1142,0,0
483,-118,0,0,0,0,0,0,0,0,0,-1,1707,1142,0,0
490,-118,0,0,0,0,0,0,0,0,0,-1,1714,1142,0,0
497,-118,0,0,0,0,0,0,0,0,0,-1,1721,1142,0,0
504,-118,0,0,0,0,0,0,0,0,0,-1,1728,1142,0,0
511,-118,0,0,0,0,0,0,0,0,0,-1,1735,1142,0,0
518,-118,0,0,0,0,0,0,0,0,0,-1,1742,1142,0,0
525,-118,0,0,0,0,0,0,0,0,0,-1,1749,1142,0,0
532,-118,0,0,0,0,0,0,0,0,0,-1,1756,1142,0,0
539,-118,0,0,0,0,0,0,0,0,0,-1,1763,1142,0,0
546,-118,0,0,0,0,0,0,0,0,0,-1,1770,1142,0,0
553,-118,0,0,0,0,0,0,0,0,0,-1,1777,1142,0,0
560,-118,0,0,0,0,0,0,0,0,0,-1,1784,1142,0,0
567,-118,0,0,0,0,0,0,0,0,0,-1,1791,1142,0,0
574,-118,0,0,0,0,0,0,0,0,0,-1,1798,1142,0,0
581,-118,0,0,0,0,0,0,0,0,0,-1,1805,1142,0,0
588,-118,0,0,0,0,0,0,0,0,0,-1,1812,1142,0,0
595,-118,0,0,0,0,0,0,0,0,0,-1,1819,1142,0,0
602,-118,0,0,0,0,0,0,0,0,0,-1,1826,1142,0,0
609,-118,0,0,0,0,0,0,0,0,0,-1,1833,1142,0,0
616,-118,0,0,0,0,0,0,0,0,0,-1,1840,1142,0,0
623,-118,0,0,0,0,0,0,0,0,0,-1,1847,1142,0,0
630,-118,0,0,0,0,0,0,0,0,0,-1,1854,1142,0,0
637,-118,0,0,0,0,0,0,0,0,0,-1,1861,1142,0,0
644,-118,29.1947,3.12878,-0.00375702,-0.00177046,-0.00163048,-0.000854534,-0.00467294,-1.05898,0.00287313,0.0418105,1868,1142,29.1947,-3.12878
651,-118,28.927,2.896,-0.00256962,-0.00217234,-0.0014935,-0.000864328,-0.00387763,-0.851512,0.00235056,0.0422569,1875,1142,28.927,-2.89605
658,-118,28.9546,2.91406,-0.00126073,-0.00217773,-0.00166687,9.54617e-06,-0.00344801,-0.651184,0.00230186,0.0427534,1882,1142,28.9546,-2.91402
665,-118,29.0978,3.28003,0,0,0,0,0,0,0,-1,1889,1142,29.0977,-3.28001
672,-118,29.043,2.99426,-0.00235553,-0.00250977,0.000446943,-0.00197911,-0.0028862,0.699966,0.00170423,0.0470929,1896,1142,29.0429,-2.99429
679,-118,29.0265,2.78918,-0.00391588,-0.00274572,0.0020264,-0.00122163,-0.00543997,0.92594,0.00329579,0.040453,1903,1142,29.0265,-2.78918
686,-118,29.0417,2.65637,-0.00547523,-0.00296348,0.00348045,-0.000519252,-0.00791945,0.958546,0.00511534,0.0328255,1910,1142,29.0417,-2.65634
693,-118,29.0492,2.6593,-0.00672668,-0.00308674,0.00464436,8.1514e-05,-0.00989493,0.972136,0.00662396,0.0315374,1917,1142,29.0492,-2.65929
700,-118,29.0967,2.60144,-0.00754589,-0.00321688,0.00561789,0.000639062,-0.0114018,0.969278,0.00782294,0.0194497,1924,1142,29.0966,-2.60143
707,-118,29.1624,2.62683,0,0,0,0,0,0,0,-1,1931,1142,29.1624,-2.62681
714,-118,27.299,5.29407,0,0,0,0,0,0,0,-1,1938,1142,27.2989,-5.29406
721,-118,27.1826,5.15588,-0.00903207,-0.00268831,0.00689614,0.00173044,-0.0134508,1.00095,0.00959617,0.0117143,1945,1142,27.1827,-5.15592
728,-118,27.1631,4.97803,-0.00882092,-0.00231378,0.00698331,0.0021367,-0.0132714,1.0034,0.0096391,0.0154964,1952,1142,27.1631,-4.97802
735,-118,27.152,4.80896,-0.00804218,-0.00184974,0.00679886,0.00252472,-0.0124166,0.999067,0.00923509,0.0150505,1959,1142,27.152,-4.80891
742,-118,27.2065,4.66443,-0.00690595,-0.0013376,0.00567189,0.00219661,-0.0104402,1.01356,0.00779615,0.0203261,1966,1142,27.2066,-4.66449
749,-118,27.1547,4.47949,-0.00552951,-0.000410231,0.00442976,0.00214623,-0.00808597,1.04738,0.00623052,0.0205734,1973,1142,27.1546,-4.47949
756,-118,27.1091,4.33276,-0.00430367,0.00294091,0.00364413,0.00445678,-0.00581954,1.17659,0.0059504,0.0177961,1980,1142,27.1092,-4.33274
763,-118,27.1292,4.16321,-0.0029964,0.0079661,0.00325136,0.00885788,-0.00388817,1.3031,0.00754309,0.00999591,1987,1142,27.1291,-4.16317
770,-118,27.1083,4.0116,-0.00227517,0.0135957,0.00309061,0.0141763,-0.00285578,1.3851,0.0105326,0.0117815,1994,1142,27.1082,-4.01162
777,-118,27.0653,3.89844,-0.0026179,0.0212773,0.00406851,0.0219511,-0.00329162,1.40669,0.0158456,0.0238773,2001,1142,27.0653,-3.8984
784,-118,27.2029,4.06299,-0.00375352,0.0321195,0.00600373,0.0330976,-0.00473164,1.4093,0.0237996,0.0404049,2008,1142,27.2028,-4.06297
791,-118,27.3613,4.32324,0,0,0,0,0,0,0,-1,2015,1142,27.3613,-4.32325
798,-118,22.7178,-2.88306,0,0,0,0,0,0,0,-1,2022,1142,22.7178,2.88311
805,-118,22.5874,-2.53589,-0.0112194,0.0939215,0.0196793,0.0974842,-0.014782,1.3917,0.0704358,0.0493357,2029,1142,22.5875,2.53589
812,-118,22.4946,-2.11853,-0.0155992,0.128116,0.0286966,0.133634,-0.0211174,1.38082,0.0968984,0.0497646,2036,1142,22.4946,2.11854
-700,-125,0,0,0,0,0,0,0,0,0,-1,524,1149,0,0
-693,-125,-15.3512,-2.15967,0,0,0,0,0,0,0,-1,531,1149,-15.3512,2.15963
-686,-125,-13.8501,-1.5282,0,0,0,0,0,0,0,-1,538,1149,-13.8501,1.52823
-679,-125,-12.152,-1.06653,0,0,0,0,0,0,0,-1,545,1149,-12.152,1.06647
-672,-125,-10.5247,-0.677612,0,0,0,0,0,0,0,-1,552,1149,-10.5247,0.67757
-665,-125,-19.1873,0.620483,0,0,0,0,0,0,0,-1,559,1149,-19.1873,-0.620498
-658,-125,-18.2147,0.16626,0,0,0,0,0,0,0,-1,566,1149,-18.2147,-0.166252
-651,-125,-18.1162,0.671631,0.00590017,0.00914855,-0.00827918,0.0159613,-0.000912628,-0.882257,0.0109578,0.0376022,573,1149,-18.1162,-0.67164
-644,-125,-18.0461,1.19556,0.00241946,0.00701709,-0.00502486,0.010244,-0.000807461,-0.99993,0.00711379,0.0252268,580,1149,-18.0462,-1.19555
-637,-125,-18.0795,1.40393,0.000774981,0.00509853,-0.00297605,0.00661509,-0.000741579,-1.09951,0.00467689,0.0134148,587,1149,-18.0796,-1.40395
-630,-125,-18.0803,1.59424,-0.000945065,0.0035095,-0.00153518,0.00398731,-0.00142288,-1.26906,0.00323843,0.0150384,594,1149,-18.0803,-1.59418
-623,-125,-18.086,1.81812,-0.00144298,0.00199282,-0.000817813,0.00217755,-0.0016277,-1.34864,0.0022046,0.0135454,601,1149,-18.086,-1.81815
-616,-125,-18.0947,2.00049,0.000161941,0.000658847,-0.000740603,0.00119156,-0.000370773,-0.947236,0.000942594,0.0134986,608,1149,-18.0947,-2.00049
-609,-125,-18.1746,2.13416,0.000871211,-0.000114053,-0.00084539,0.00135703,-0.000599874,-0.521587,0.00115767,0.0202217,615,1149,-18.1746,-2.13415
-602,-125,-18.2105,2.41052,0.000681345,-0.00045273,-0.000951011,0.00122154,-0.00099292,-0.51657,0.00128079,0.0184563,622,1149,-18.2105,-2.41048
-595,-125,-18.1977,2.63953,0.000291863,-0.000767089,-0.00119218,0.00106686,-0.00154208,-0.57642,0.00151458,0.0176459,629,1149,-18.1977,-2.63955
-588,-125,-17.9897,2.83899,0.000131743,-0.000934999,-0.00143489,0.00112919,-0.00193244,-0.607454,0.0017878,0.0262344,636,1149,-17.9898,-2.83905
-581,-125,-17.7965,3.00684,0,0,0,0,0,0,0,-1,643,1149,-17.7965,-3.00683
-574,-125,-20.3058,0.906372,0,0,0,0,0,0,0,-1,650,1149,-20.3059,-0.906389
-567,-125,-20.2313,0.72937,0.000612857,-0.000430368,-0.00144885,0.00163113,-0.00144864,-0.612612,0.00177915,0.0395903,657,1149,-20.2312,-0.729355
-560,-125,-20.1096,0.629517,0.000692194,-7.24574e-05,-0.00136946,0.0017317,-0.00111196,-0.649274,0.00165473,0.0378721,664,1149,-20.1096,-0.629456
-553,-125,-20.2544,0.723877,0.000885292,0.000437909,-0.00127344,0.00195454,-0.000631335,-0.698456,0.00155674,0.0404584,671,1149,-20.2544,-0.723929
-546,-125,-20.3913,0.812134,0.00136371,0.00110219,-0.00114081,0.00238124,8.46672e-05,-0.728336,0.00156003,0.0418982,678,1149,-20.3913,-0.812118
-539,-125,-20.4307,0.935303,0.00239238,0.00186222,-0.000849339,0.00301705,0.00123756,-0.634136,0.00175124,0.0405671,685,1149,-20.4307,-0.935351
-532,-125,-20.4396,0.86792,0.00475662,0.0025781,-0.00053846,0.00488244,0.00245227,-0.229553,0.00281889,0.0373032,692,1149,-20.4396,-0.867976
-525,-125,-20.2395,0.657349,0.00767572,0.0035895,-0.000262117,0.00769246,0.00357275,-0.0637981,0.00444499,0.0388394,699,1149,-20.2395,-0.657393
-518,-125,0,0,0,0,0,0,0,0,0,-1,706,1149,0,0
-511,-125,0,0,0,0,0,0,0,0,0,-1,713,1149,0,0
-504,-125,0,0,0,0,0,0,0,0,0,-1,720,1149,0,0
-497,-125,0,0,0,0,0,0,0,0,0,-1,727,1149,0,0
-490,-125,0,0,0,0,0,0,0,0,0,-1,734,1149,0,0
-483,-125,0,0,0,0,0,0,0,0,0,-1,741,1149,0,0
-476,-125,0,0,0,0,0,0,0,0,0,-1,748,1149,0,0
-469,-125,0,0,0,0,0,0,0,0,0,-1,755,1149,0,0
-462,-125,0,0,0,0,0,0,0,0,0,-1,762,1149,0,0
-455,-125,0,0,0,0,0,0,0,0,0,-1,769,1149,0,0
-448,-125,0,0,0,0,0,0,0,0,0,-1,776,1149,0,0
-441,-125,0,0,0,0,0,0,0,0,0,-1,783,1149,0,0
-434,-125,0,0,0,0,0,0,0,0,0,-1,790,1149,0,0
-427,-125,0,0,0,0,0,0,0,0,0,-1,797,1149,0,0
-420,-125,0,0,0,0,0,0,0,0,0,-1,804,1149,0,0
-413,-125,0,0,0,0,0,0,0,0,0,-1,811,1149,0,0
-406,-125,0,0,0,0,0,0,0,0,0,-1,818,1149,0,0
-399,-125,0,0,0,0,0,0,0,0,0,-1,825,1149,0,0
-392,-125,0,0,0,0,0,0,0,0,0,-1,832,1149,0,0
-385,-125,0,0,0,0,0,0,0,0,0,-1,839,1149,0,0
-378,-125,0,0,0,0,0,0,0,0,0,-1,846,1149,0,0
-371,-125,0,0,0,0,0,0,0,0,0,-1,853,1149,0,0
-364,-125,0,0,0,0,0,0,0,0,0,-1,860,1149,0,0
-357,-125,0,0,0,0,0,0,0,0,0,-1,867,1149,0,0
-350,-125,0,0,0,0,0,0,0,0,0,-1,874,1149,0,0
-343,-125,0,0,0,0,0,0,0,0,0,-1,881,1149,0,0
-336,-125,0,0,0,0,0,0,0,0,0,-1,888,1149,0,0
-329,-125,0,0,0,0,0,0,0,0,0,-1,895,1149,0,0
-322,-125,0,0,0,0,0,0,0,0,0,-1,902,1149,0,0
-315,-125,0,0,0,0,0,0,0,0,0,-1,909,1149,0,0
-308,-125,0,0,0,0,0,0,0,0,0,-1,916,1149,0,0
-301,-125,0,0,0,0,0,0,0,0,0,-1,923,1149,0,0
-294,-125,0,0,0,0,0,0,0,0,0,-1,930,1149,0,0
-287,-125,0,0,0,0,0,0,0,0,0,-1,937,1149,0,0
-280,-125,0,0,0,0,0,0,0,0,0,-1,944,1149,0,0
-273,-125,0,0,0,0,0,0,0,0,0,-1,951,1149,0,0
-266,-125,0,0,0,0,0,0,0,0,0,-1,958,1149,0,0
-259,-125,0,0,0,0,0,0,0,0,0,-1,965,1149,0,0
-252,-125,0,0,0,0,0,0,0,0,0,-1,972,1149,0,0
-245,-125,0,0,0,0,0,0,0,0,0,-1,979,1149,0,0
-238,-125,0,0,0,0,0,0,0,0,0,-1,986,1149,0,0
-231,-125,0,0,0,0,0,0,0,0,0,-1,993,1149,0,0
-224,-125,0,0,0,0,0,0,0,0,0,-1,1000,1149,0,0
-217,-125,0,0,0,0,0,0,0,0,0,-1,1007,1149,0,0
-210,-125,0,0,0,0,0,0,0,0,0,-1,1014,1149,0,0
-203,-125,0,0,0,0,0,0,0,0,0,-1,1021,1149,0,0
-196,-125,0,0,0,0,0,0,0,0,0,-1,1028,1149,0,0
-189,-125,0,0,0,0,0,0,0,0,0,-1,1035,1149,0,0
-182,-125,0,0,0,0,0,0,0,0,0,-1,1042,1149,0,0
-175,-125,0,0,0,0,0,0,0,0,0,-1,1049,1149,0,0
-168,-125,0,0,0,0,0,0,0,0,0,-1,1056,1149,0,0
-161,-125,0,0,0,0,0,0,0,0,0,-1,1063,1149,0,0
-154,-125,0,0,0,0,0,0,0,0,0,-1,1070,1149,0,0
-147,-125,0,0,0,0,0,0,0,0,0,-1,1077,1149,0,0
-140,-125,0,0,0,0,0,0,0,0,0,-1,1084,1149,0,0
-133,-125,0,0,0,0,0,0,0,0,0,-1,1091,1149,0,0
-126,-125,0,0,0,0,0,0,0,0,0,-1,1098,1149,0,0
-119,-125,0,0,0,0,0,0,0,0,0,-1,1105,1149,0,0
-112,-125,0,0,0,0,0,0,0,0,0,-1,1112,1149,0,0
-105,-125,0,0,0,0,0,0,0,0,0,-1,1119,1149,0,0
-98,-125,0,0,0,0,0,0,0,0,0,-1,1126,1149,0,0
-91,-125,0,0,0,0,0,0,0,0,0,-1,1133,1149,0,0
-84,-125,0,0,0,0,0,0,0,0,0,-1,1140,1149,0,0
-77,-125,0,0,0,0,0,0,0,0,0,-1,1147,1149,0,0
-70,-125,0,0,0,0,0,0,0,0,0,-1,1154,1149,0,0
-63,-125,0,0,0,0,0,0,0,0,0,-1,1161,1149,0,0
-56,-125,0,0,0,0,0,0,0,0,0,-1,1168,1149,0,0
-49,-125,0,0,0,0,0,0,0,0,0,-1,1175,1149,0,0
-42,-125,0,0,0,0,0,0,0,0,0,-1,1182,1149,0,0
-35,-125,0,0,0,0,0,0,0,0,0,-1,1189,1149,0,0
-28,-125,0,0,0,0,0,0,0,0,0,-1,1196,1149,0,0
-21,-125,0,0,0,0,0,0,0,0,0,-1,1203,1149,0,0
-14,-125,0,0,0,0,0,0,0,0,0,-1,1210,1149,0,0
-7,-125,0,0,0,0,0,0,0,0,0,-1,1217,1149,0,0
0,-125,0,0,0,0,0,0,0,0,0,-1,1224,1149,0,0
7,-125,0,0,0,0,0,0,0,0,0,-1,1231,1149,0,0
14,-125,0,0,0,0,0,0,0,0,0,-1,1238,1149,0,0
21,-125,0,0,0,0,0,0,0,0,0,-1,1245,1149,0,0
28,-125,0,0,0,0,0,0,0,0,0,-1,1252,1149,0,0
35,-125,0,0,0,0,0,0,0,0,0,-1,1259,1149,0,0
42,-125,0,0,0,0,0,0,0,0,0,-1,1266,1149,0,0
49,-125,0,0,0,0,0,0,0,0,0,-1,1273,1149,0,0
56,-125,0,0,0,0,0,0,0,0,0,-1,1280,1149,0,0
63,-125,0,0,0,0,0,0,0,0,0,-1,1287,1149,0,0
70,-125,0,0,0,0,0,0,0,0,0,-1,1294,1149,0,0
77,-125,0,0,0,0,0,0,0,0,0,-1,1301,1149,0,0
84,-125,0,0,0,0,0,0,0,0,0,-1,1308,1149,0,0
91,-125,0,0,0,0,0,0,0,0,0,-1,1315,1149,0,0
98,-125,0,0,0,0,0,0,0,0,0,-1,1322,1149,0,0
105,-125,0,0,0,0,0,0,0,0,0,-1,1329,1149,0,0
112,-125,0,0,0,0,0,0,0,0,0,-1,1336,1149,0,0
119,-125,0,0,0,0,0,0,0,0,0,-1,1343,1149,0,0
126,-125,0,0,0,0,0,0,0,0,0,-1,1350,1149,0,0
133,-125,0,0,0,0,0,0,0,0,0,-1,1357,1149,0,0
140,-125,0,0,0,0,0,0,0,0,0,-1,1364,1149,0,0
147,-125,0,0,0,0,0,0,0,0,0,-1,1371,1149,0,0
154,-125,0,0,0,0,0,0,0,0,0,-1,1378,1149,0,0
161,-125,0,0,0,0,0,0,0,0,0,-1,1385,1149,0,0
168,-125,0,0,0,0,0,0,0,0,0,-1,1392,1149,0,0
175,-125,0,0,0,0,0,0,0,0,0,-1,1399,1149,0,0
182,-125,0,0,0,0,0,0,0,0,0,-1,1406,1149,0,0
189,-125,0,0,0,0,0,0,0,0,0,-1,1413,1149,0,0
196,-125,0,0,0,0,0,0,0,0,0,-1,1420,1149,0,0
203,-125,0,0,0,0,0,0,0,0,0,-1,1427,1149,0,0
210,-125,0,0,0,0,0,0,0,0,0,-1,1434,1149,0,0
217,-125,0,0,0,0,0,0,0,0,0,-1,1441,1149,0,0
224,-125,0,0,0,0,0,0,0,0,0,-1,1448,1149,0,0
231,-125,0,0,0,0,0,0,0,0,0,-1,1455,1149,0,0
238,-125,0,0,0,0,0,0,0,0,0,-1,1462,1149,0,0
245,-125,0,0,0,0,0,0,0,0,0,-1,1469,1149,0,0
252,-125,0,0,0,0,0,0,0,0,0,-1,1476,1149,0,0
259,-125,0,0,0,0,0,0,0,0,0,-1,1483,1149,0,0
266,-125,0,0,0,0,0,0,0,0,0,-1,1490,1149,0,0
273,-125,0,0,0,0,0,0,0,0,0,-1,1497,1149,0,0
280,-125,0,0,0,0,0,0,0,0,0,-1,1504,1149,0,0
287,-125,0,0,0,0,0,0,0,0,0,-1,1511,1149,0,0
294,-125,0,0,0,0,0,0,0,0,0,-1,1518,1149,0,0
301,-125,0,0,0,0,0,0,0,0,0,-1,1525,1149,0,0
308,-125,0,0,0,0,0,0,0,0,0,-1,1532,1149,0,0
315,-125,0,0,0,0,0,0,0,0,0,-1,1539,1149,0,0
322,-125,0,0,0,0,0,0,0,0,0,-1,1546,1149,0,0
329,-125,0,0,0,0,0,0,0,0,0,-1,1553,1149,0,0
336,-125,0,0,0,0,0,0,0,0,0,-1,1560,1149,0,0
343,-125,0,0,0,0,0,0,0,0,0,-1,1567,1149,0,0
350,-125,0,0,0,0,0,0,0,0,0,-1,1574,1149,0,0
357,-125,0,0,0,0,0,0,0,0,0,-1,1581,1149,0,0
364,-125,0,0,0,0,0,0,0,0,0,-1,1588,1149,0,0
371,-125,0,0,0,0,0,0,0,0,0,-1,1595,1149,0,0
378,-125,0,0,0,0,0,0,0,0,0,-1,1602,1149,0,0
385,-125,0,0,0,0,0,0,0,0,0,-1,1609,1149,0,0
392,-125,0,0,0,0,0,0,0,0,0,-1,1616,1149,0,0
399,-125,0,0,0,0,0,0,0,0,0,-1,1623,1149,0,0
406,-125,0,0,0,0,0,0,0,0,0,-1,1630,1149,0,0
413,-125,0,0,0,0,0,0,0,0,0,-1,1637,1149,0,0
420,-125,0,0,0,0,0,0,0,0,0,-1,1644,1149,0,0
427,-125,0,0,0,0,0,0,0,0,0,-1,1651,1149,0,0
434,-125,0,0,0,0,0,0,0,0,0,-1,1658,1149,0,0
441,-125,0,0,0,0,0,0,0,0,0,-1,1665,1149,0,0
448,-125,0,0,0,0,0,0,0,0,0,-1,1672,1149,0,0
455,-125,0,0,0,0,0,0,0,0,0,-1,1679,1149,0,0
462,-125,0,0,0,0,0,0,0,0,0,-1,1686,1149,0,0
469,-125,0,0,0,0,0,0,0,0,0,-1,1693,1149,0,0
476,-125,0,0,0,0,0,0,0,0,0,-1,1700,1149,0,0
483,-125,0,0,0,0,0,0,0,0,0,-1,1707,1149,0,0
490,-125,0,0,0,0,0,0,0,0,0,-1,1714,1149,0,0
497,-125,0,0,0,0,0,0,0,0,0,-1,1721,1149,0,0
504,-125,0,0,0,0,0,0,0,0,0,-1,1728,1149,0,0
511,-125,0,0,0,0,0,0,0,0,0,-1,1735,1149,0,0
518,-125,0,0,0,0,0,0,0,0,0,-1,1742,1149,0,0
525,-125,0,0,0,0,0,0,0,0,0,-1,1749,1149,0,0
532,-125,0,0,0,0,0,0,0,0,0,-1,1756,1149,0,0
539,-125,0,0,0,0,0,0,0,0,0,-1,1763,1149,0,0
546,-125,0,0,0,0,0,0,0,0,0,-1,1770,1149,0,0
553,-125,0,0,0,0,0,0,0,0,0,-1,1777,1149,0,0
560,-125,0,0,0,0,0,0,0,0,0,-1,1784,1149,0,0
567,-125,0,0,0,0,0,0,0,0,0,-1,1791,1149,0,0
574,-125,0,0,0,0,0,0,0,0,0,-1,1798,1149,0,0
581,-125,0,0,0,0,0,0,0,0,0,-1,1805,1149,0,0
588,-125,0,0,0,0,0,0,0,0,0,-1,1812,1149,0,0
595,-125,0,0,0,0,0,0,0,0,0,-1,1819,1149,0,0
602,-125,0,0,0,0,0,0,0,0,0,-1,1826,1149,0,0
609,-125,0,0,0,0,0,0,0,0,0,-1,1833,1149,0,0
616,-125,0,0,0,0,0,0,0,0,0,-1,1840,1149,0,0
623,-125,0,0,0,0,0,0,0,0,0,-1,1847,1149,0,0
630,-125,0,0,0,0,0,0,0,0,0,-1,1854,1149,0,0
637,-125,0,0,0,0,0,0,0,0,0,-1,1861,1149,0,0
644,-125,29.1442,2.73828,-0.00416325,-0.00112338,-0.000896894,-0.000878489,-0.00440814,-1.30425,0.00269411,0.0415514,1868,1149,29.1442,-2.73833
651,-125,29.0908,2.53345,-0.0028608,-0.00143513,-0.000997393,-0.000922026,-0.00337391,-1.09566,0.00201357,0.040422,1875,1149,29.0909,-2.53342
658,-125,28.9666,2.54297,-0.00148677,-0.00142968,-0.00132798,-0.00012994,-0.0027865,-0.796144,0.00181591,0.0413746,1882,1149,28.9665,-2.54294
665,-125,28.8588,2.69983,-0.00150882,-0.00151889,-0.000748742,-0.000765095,-0.00226261,-0.782035,0.00132894,0.0441953,1889,1149,28.8588,-2.6998
672,-125,29.0261,2.82922,-0.00263857,-0.00180954,0.000584559,-0.00150744,-0.00294066,1.0938,0.00169797,0.0458363,1896,1149,29.0261,-2.8292
679,-125,29.0294,2.8291,-0.00415135,-0.00205846,0.00200292,-0.000845094,-0.00536471,1.02613,0.0033307,0.0384388,1903,1149,29.0295,-2.8291
686,-125,29.0658,2.80273,-0.00567331,-0.00229696,0.00332312,-0.000257798,-0.00771248,1.02041,0.00505791,0.0339948,1910,1149,29.0658,-2.80278
693,-125,29.0853,2.6748,-0.00685913,-0.00242651,0.0043582,0.000246549,-0.00953219,1.02063,0.00643855,0.0299143,1917,1149,29.0853,-2.67484
700,-125,29.0864,2.61096,-0.00763599,-0.00260145,0.00525831,0.000711071,-0.0109485,1.00864,0.0075472,0.0136456,1924,1149,29.0864,-2.61101
707,-125,29.1536,2.61731,0,0,0,0,0,0,0,-1,1931,1149,29.1536,-2.61732
714,-125,27.7106,4.70752,0,0,0,0,0,0,0,-1,1938,1149,27.7106,-4.70756
721,-125,26.9562,5.16638,-0.0090565,-0.00225376,0.0064512,0.00163783,-0.0129481,1.028,0.00922659,0.0206176,1945,1149,26.9562,-5.16639
728,-125,26.9459,5.01416,-0.0088264,-0.00193033,0.00658934,0.00205859,-0.0128153,1.02644,0.00930595,0.015416,1952,1149,26.9459,-5.01421
735,-125,26.9481,4.84888,-0.007962,-0.00148276,0.00644524,0.00249124,-0.011936,1.01828,0.00890467,0.0178385,1959,1149,26.9481,-4.8489
742,-125,26.9817,4.67151,-0.00668506,-0.000949664,0.00536194,0.00226327,-0.00989799,1.03096,0.00746829,0.022858,1966,1149,26.9817,-4.67154
749,-125,26.9438,4.4978,-0.0051446,-3.74519e-05,0.00405661,0.00220239,-0.00738444,1.06631,0.00579823,0.0260931,1973,1149,26.9438,-4.49779
756,-125,26.9303,4.3457,-0.00372276,0.00318536,0.00307945,0.00435877,-0.00489618,1.20673,0.00534635,0.0204549,1980,1149,26.9303,-4.34567
763,-125,26.9465,4.16821,-0.00223466,0.00800617,0.0025155,0.0085907,-0.00281918,1.34248,0.00686267,0.0114342,1987,1149,26.9466,-4.16819
770,-125,26.9491,3.98877,-0.00140661,0.013388,0.00214499,0.0136927,-0.00171132,1.42968,0.00974914,0.0128173,1994,1149,26.9491,-3.98883
777,-125,26.9286,3.88049,-0.00158326,0.0207871,0.00270619,0.0211098,-0.00190597,1.4521,0.0147496,0.0235965,2001,1149,26.9286,-3.88052
784,-125,26.9755,4.02136,-0.00248255,0.0312729,0.0039571,0.0317306,-0.00294022,1.45565,0.0221988,0.0426203,2008,1149,26.9755,-4.02137
791,-125,27.0665,4.18787,0,0,0,0,0,0,0,-1,2015,1149,27.0665,-4.18791
798,-125,22.4064,-4.02686,0,0,0,0,0,0,0,-1,2022,1149,22.4064,4.02684
805,-125,21.7849,-3.47925,0,0,0,0,0,0,0,-1,2029,1149,21.7848,3.47922
812,-125,21.5105,-2.94385,0,0,0,0,0,0,0,-1,2036,1149,21.5105,2.94387
-700,-132,0,0,0,0,0,0,0,0,0,-1,524,1156,0,0
-693,-132,-17.0923,-0.222778,0,0,0,0,0,0,0,-1,531,1156,-17.0924,0.22276
-686,-132,-12.8237,-0.958862,0,0,0,0,0,0,0,-1,538,1156,-12.8237,0.958857
-679,-132,-10.8331,-0.589355,0,0,0,0,0,0,0,-1,545,1156,-10.8331,0.589392
-672,-132,-19.0098,0.684326,0.010025,0.0129996,-0.0321644,0.0437111,-0.0206865,-0.808502,0.0379638,0.043972,552,1156,-19.0098,-0.684298
-665,-132,-18.8259,0.907715,0.00116294,0.011416,-0.0227671,0.0296267,-0.0170477,-0.896138,0.0272717,0.0462223,559,1156,-18.826,-0.907744
-658,-132,-18.6974,1.05908,0,0,0,0,0,0,0,-1,566,1156,-18.6974,-1.0591
-651,-132,-18.2302,1.11621,-0.00491166,0.00804623,-0.0100787,0.0135488,-0.0104142,-1.07106,0.0138744,0.039233,573,1156,-18.2302,-1.11621
-644,-132,-17.88,1.20789,-0.00489225,0.00638937,-0.00619094,0.00912391,-0.00762679,-1.15487,0.00968389,0.0217828,580,1156,-17.88,-1.20788
-637,-132,-17.8505,1.37231,-0.00395905,0.00479404,-0.00361104,0.00609145,-0.00525646,-1.22587,0.00655763,0.0115992,587,1156,-17.8505,-1.37237
-630,-132,-17.8503,1.57068,-0.00345615,0.0034216,-0.00161796,0.00378321,-0.00381776,-1.35092,0.00438843,0.00949189,594,1156,-17.8504,-1.57067
-623,-132,-17.874,1.81152,-0.00249488,0.00211407,-0.000565057,0.00218234,-0.00256315,-1.45057,0.00274275,0.0141237,601,1156,-17.874,-1.8115
-616,-132,-17.8632,2.00098,-0.000310574,0.000748707,-0.00025519,0.00080698,-0.000368846,-1.3463,0.000694395,0.0195232,608,1156,-17.8632,-2.00099
-609,-132,-17.8367,2.17224,0.000648073,-0.000108986,-0.000283549,0.000742496,-0.00020341,-0.321456,0.000574923,0.0179522,615,1156,-17.8367,-2.17229
-602,-132,-17.9449,2.36206,0.000528283,-0.00046227,-0.000334635,0.000630735,-0.000564722,-0.297099,0.000690548,0.0168371,622,1156,-17.9449,-2.36202
-595,-132,-17.9793,2.63123,0.000117162,-0.000770702,-0.00061171,0.000429051,-0.00108259,-0.471507,0.000899524,0.0213132,629,1156,-17.9793,-2.63119
-588,-132,-17.8558,2.91602,-0.000125327,-0.000945587,-0.000985109,0.000531616,-0.00160253,-0.588146,0.00128282,0.0202222,636,1156,-17.8558,-2.91601
-581,-132,-17.6089,3.22888,0,0,0,0,0,0,0,-1,643,1156,-17.6089,-3.22884
-574,-132,-20.1779,0.740234,0,0,0,0,0,0,0,-1,650,1156,-20.1779,-0.740281
-567,-132,-20.2183,0.679199,0.000214277,-0.000524553,-0.00127424,0.00117157,-0.00148185,-0.644311,0.00153544,0.0358838,657,1156,-20.2183,-0.679167
-560,-132,-20.2614,0.626953,0.000246169,-0.000217479,-0.0013277,0.00136214,-0.00133345,-0.698967,0.00155632,0.0346232,664,1156,-20.2614,-0.626898
-553,-132,-20.3766,0.775757,0.000434194,0.000217604,-0.00137245,0.00170262,-0.00105082,-0.746027,0.00160448,0.0389165,671,1156,-20.3766,-0.775731
-546,-132,-20.3452,0.773926,0.000964291,0.000771211,-0.00137481,0.00224595,-0.000510447,-0.750346,0.00169329,0.0402361,678,1156,-20.3451,-0.773918
-539,-132,-20.2902,0.865601,0.00202925,0.00135906,-0.00117649,0.00291744,0.000470871,-0.646657,0.00180855,0.0402164,685,1156,-20.2901,-0.865572
-532,-132,-20.2451,0.714844,0.00450871,0.00185187,-0.000669362,0.00466782,0.00169276,-0.233373,0.00272865,0.0382853,692,1156,-20.2451,-0.714795
-525,-132,-20.2316,0.632935,0.00772551,0.00249438,9.60917e-05,0.00772727,0.00249262,0.018361,0.00455401,0.0366687,699,1156,-20.2316,-0.632907
-518,-132,0,0,0,0,0,0,0,0,0,-1,706,1156,0,0
-511,-132,0,0,0,0,0,0,0,0,0,-1,713,1156,0,0
-504,-132,0,0,0,0,0,0,0,0,0,-1,720,1156,0,0
-497,-132,0,0,0,0,0,0,0,0,0,-1,727,1156,0,0
-490,-132,0,0,0,0,0,0,0,0,0,-1,734,1156,0,0
-483,-132,0,0,0,0,0,0,0,0,0,-1,741,1156,0,0
-476,-132,0,0,0,0,0,0,0,0,0,-1,748,1156,0,0
-469,-132,0,0,0,0,0,0,0,0,0,-1,755,1156,0,0
-462,-132,0,0,0,0,0,0,0,0,0,-1,762,1156,0,0
-455,-132,0,0,0,0,0,0,0,0,0,-1,769,1156,0,0
-448,-132,0,0,0,0,0,0,0,0,0,-1,776,1156,0,0
-441,-132,0,0,0,0,0,0,0,0,0,-1,783,1156,0,0
-434,-132,0,0,0,0,0,0,0,0,0,-1,790,1156,0,0
-427,-132,0,0,0,0,0,0,0,0,0,-1,797,1156,0,0
-420,-132,0,0,0,0,0,0,0,0,0,-1,804,1156,0,0
-413,-132,0,0,0,0,0,0,0,0,0,-1,811,1156,0,0
-406,-132,0,0,0,0,0,0,0,0,0,-1,818,1156,0,0
-399,-132,0,0,0,0,0,0,0,0,0,-1,825,1156,0,0
-392,-132,0,0,0,0,0,0,0,0,0,-1,832,1156,0,0
-385,-132,0,0,0,0,0,0,0,0,0,-1,839,1156,0,0
-378,-132,0,0,0,0,0,0,0,0,0,-1,846,1156,0,0
-371,-132,0,0,0,0,0,0,0,0,0,-1,853,1156,0,0
-364,-132,0,0,0,0,0,0,0,0,0,-1,860,1156,0,0
-357,-132,0,0,0,0,0,0,0,0,0,-1,867,1156,0,0
-350,-132,0,0,0,0,0,0,0,0,0,-1,874,1156,0,0
-343,-132,0,0,0,0,0,0,0,0,0,-1,881,1156,0,0
-336,-132,0,0,0,0,0,0,0,0,0,-1,888,1156,0,0
-329,-132,0,0,0,0,0,0,0,0,0,-1,895,1156,0,0
-322,-132,0,0,0,0,0,0,0,0,0,-1,902,1156,0,0
-315,-132,0,0,0,0,0,0,0,0,0,-1,909,1156,0,0
-308,-132,0,0,0,0,0,0,0,0,0,-1,916,1156,0,0
-301,-132,0,0,0,0,0,0,0,0,0,-1,923,1156,0,0
-294,-132,0,0,0,0,0,0,0,0,0,-1,930,1156,0,0
-287,-132,0,0,0,0,0,0,0,0,0,-1,937,1156,0,0
-280,-132,0,0,0,0,0,0,0,0,0,-1,944,1156,0,0
-273,-132,0,0,0,0,0,0,0,0,0,-1,951,1156,0,0
-266,-132,0,0,0,0,0,0,0,0,0,-1,958,1156,0,0
-259,-132,0,0,0,0,0,0,0,0,0,-1,965,1156,0,0
-252,-132,0,0,0,0,0,0,0,0,0,-1,972,1156,0,0
-245,-132,0,0,0,0,0,0,0,0,0,-1,979,1156,0,0
-238,-132,0,0,0,0,0,0,0,0,0,-1,986,1156,0,0
-231,-132,0,0,0,0,0,0,0,0,0,-1,993,1156,0,0
-224,-132,0,0,0,0,0,0,0,0,0,-1,1000,1156,0,0
-217,-132,0,0,0,0,0,0,0,0,0,-1,1007,1156,0,0
-210,-132,0,0,0,0,0,0,0,0,0,-1,1014,1156,0,0
-203,-132,0,0,0,0,0,0,0,0,0,-1,1021,1156,0,0
-196,-132,0,0,0,0,0,0,0,0,0,-1,1028,1156,0,0
-189,-132,0,0,0,0,0,0,0,0,0,-1,1035,1156,0,0
-182,-132,0,0,0,0,0,0,0,0,0,-1,1042,1156,0,0
-175,-132,0,0,0,0,0,0,0,0,0,-1,1049,1156,0,0
-168,-132,0,0,0,0,0,0,0,0,0,-1,1056,1156,0,0
-161,-132,0,0,0,0,0,0,0,0,0,-1,1063,1156,0,0
-154,-132,0,0,0,0,0,0,0,0,0,-1,1070,1156,0,0
-147,-132,0,0,0,0,0,0,0,0,0,-1,1077,1156,0,0
-140,-132,0,0,0,0,0,0,0,0,0,-1,1084,1156,0,0
-133,-132,0,0,0,0,0,0,0,0,0,-1,1091,1156,0,0
-126,-132,0,0,0,0,0,0,0,0,0,-1,1098,1156,0,0
-119,-132,0,0,0,0,0,0,0,0,0,-1,1105,1156,0,0
-112,-132,0,0,0,0,0,0,0,0,0,-1,1112,1156,0,0
-105,-132,0,0,0,0,0,0,0,0,0,-1,1119,1156,0,0
-98,-132,0,0,0,0,0,0,0,0,0,-1,1126,1156,0,0
-91,-132,0,0,0,0,0,0,0,0,0,-1,1133,1156,0,0
-84,-132,0,0,0,0,0,0,0,0,0,-1,1140,1156,0,0
-77,-132,0,0,0,0,0,0,0,0,0,-1,1147,1156,0,0
-70,-132,0,0,0,0,0,0,0,0,0,-1,1154,1156,0,0
-63,-132,0,0,0,0,0,0,0,0,0,-1,1161,1156,0,0
-56,-132,0,0,0,0,0,0,0,0,0,-1,1168,1156,0,0
-49,-132,0,0,0,0,0,0,0,0,0,-1,1175,1156,0,0
-42,-132,0,0,0,0,0,0,0,0,0,-1,1182,1156,0,0
-35,-132,0,0,0,0,0,0,0,0,0,-1,1189,1156,0,0
-28,-132,0,0,0,0,0,0,0,0,0,-1,1196,1156,0,0
-21,-132,0,0,0,0,0,0,0,0,0,-1,1203,1156,0,0
-14,-132,0,0,0,0,0,0,0,0,0,-1,1210,1156,0,0
-7,-132,0,0,0,0,0,0,0,0,0,-1,1217,1156,0,0
0,-132,0,0,0,0,0,0,0,0,0,-1,1224,1156,0,0
7,-132,0,0,0,0,0,0,0,0,0,-1,1231,1156,0,0
14,-132,0,0,0,0,0,0,0,0,0,-1,1238,1156,0,0
21,-132,0,0,0,0,0,0,0,0,0,-1,1245,1156,0,0
28,-132,0,0,0,0,0,0,0,0,0,-1,1252,1156,0,0
35,-132,0,0,0,0,0,0,0,0,0,-1,1259,1156,0,0
42,-132,0,0,0,0,0,0,0,0,0,-1,1266,1156,0,0
49,-132,0,0,0,0,0,0,0,0,0,-1,1273,1156,0,0
56,-132,0,0,0,0,0,0,0,0,0,-1,1280,1156,0,0
63,-132,0,0,0,0,0,0,0,0,0,-1,1287,1156,0,0
70,-132,0,0,0,0,0,0,0,0,0,-1,1294,1156,0,0
77,-132,0,0,0,0,0,0,0,0,0,-1,1301,1156,0,0
84,-132,0,0,0,0,0,0,0,0,0,-1,1308,1156,0,0
91,-132,0,0,0,0,0,0,0,0,0,-1,1315,1156,0,0
98,-132,0,0,0,0,0,0,0,0,0,-1,1322,1156,0,0
105,-132,0,0,0,0,0,0,0,0,0,-1,1329,1156,0,0
112,-132,0,0,0,0,0,0,0,0,0,-1,1336,1156,0,0
119,-132,0,0,0,0,0,0,0,0,0,-1,1343,1156,0,0
126,-132,0,0,0,0,0,0,0,0,0,-1,1350,1156,0,0
133,-132,0,0,0,0,0,0,0,0,0,-1,1357,1156,0,0
140,-132,0,0,0,0,0,0,0,0,0,-1,1364,1156,0,0
147,-132,0,0,0,0,0,0,0,0,0,-1,1371,1156,0,0
154,-132,0,0,0,0,0,0,0,0,0,-1,1378,1156,0,0
161,-132,0,0,0,0,0,0,0,0,0,-1,1385,1156,0,0
168,-132,0,0,0,0,0,0,0,0,0,-1,1392,1156,0,0
175,-132,0,0,0,0,0,0,0,0,0,-1,1399,1156,0,0
182,-132,0,0,0,0,0,0,0,0,0,-1,1406,1156,0,0
189,-132,0,0,0,0,0,0,0,0,0,-1,1413,1156,0,0
196,-132,0,0,0,0,0,0,0,0,0,-1,1420,1156,0,0
203,-132,0,0,0,0,0,0,0,0,0,-1,1427,1156,0,0
210,-132,0,0,0,0,0,0,0,0,0,-1,1434,1156,0,0
217,-132,0,0,0,0,0,0,0,0,0,-1,1441,1156,0,0
224,-132,0,0,0,0,0,0,0,0,0,-1,1448,1156,0,0
231,-132,0,0,0,0,0,0,0,0,0,-1,1455,1156,0,0
238,-132,0,0,0,0,0,0,0,0,0,-1,1462,1156,0,0
245,-132,0,0,0,0,0,0,0,0,0,-1,1469,1156,0,0
252,-132,0,0,0,0,0,0,0,0,0,-1,1476,1156,0,0
259,-132,0,0,0,0,0,0,0,0,0,-1,1483,1156,0,0
266,-132,0,0,0,0,0,0,0,0,0,-1,1490,1156,0,0
273,-132,0,0,0,0,0,0,0,0,0,-1,1497,1156,0,0
280,-132,0,0,0,0,0,0,0,0,0,-1,1504,1156,0,0
287,-132,0,0,0,0,0,0,0,0,0,-1,1511,1156,0,0
294,-132,0,0,0,0,0,0,0,0,0,-1,1518,1156,0,0
301,-132,0,0,0,0,0,0,0,0,0,-1,1525,1156,0,0
308,-132,0,0,0,0,0,0,0,0,0,-1,1532,1156,0,0
315,-132,0,0,0,0,0,0,0,0,0,-1,1539,1156,0,0
322,-132,0,0,0,0,0,0,0,0,0,-1,1546,1156,0,0
329,-132,0,0,0,0,0,0,0,0,0,-1,1553,1156,0,0
336,-132,0,0,0,0,0,0,0,0,0,-1,1560,1156,0,0
343,-132,0,0,0,0,0,0,0,0,0,-1,1567,1156,0,0
350,-132,0,0,0,0,0,0,0,0,0,-1,1574,1156,0,0
357,-132,0,0,0,0,0,0,0,0,0,-1,1581,1156,0,0
364,-132,0,0,0,0,0,0,0,0,0,-1,1588,1156,0,0
371,-132,0,0,0,0,0,0,0,0,0,-1,1595,1156,0,0
378,-132,0,0,0,0,0,0,0,0,0,-1,1602,1156,0,0
385,-132,0,0,0,0,0,0,0,0,0,-1,1609,1156,0,0
392,-132,0,0,0,0,0,0,0,0,0,-1,1616,1156,0,0
399,-132,0,0,0,0,0,0,0,0,0,-1,1623,1156,0,0
406,-132,0,0,0,0,0,0,0,0,0,-1,1630,1156,0,0
413,-132,0,0,0,0,0,0,0,0,0,-1,1637,1156,0,0
420,-132,0,0,0,0,0,0,0,0,0,-1,1644,1156,0,0
427,-132,0,0,0,0,0,0,0,0,0,-1,1651,1156,0,0
434,-132,0,0,0,0,0,0,0,0,0,-1,1658,1156,0,0
441,-132,0,0,0,0,0,0,0,0,0,-1,1665,1156,0,0
448,-132,0,0,0,0,0,0,0,0,0,-1,1672,1156,0,0
455,-132,0,0,0,0,0,0,0,0,0,-1,1679,1156,0,0
462,-132,0,0,0,0,0,0,0,0,0,-1,1686,1156,0,0
469,-132,0,0,0,0,0,0,0,0,0,-1,1693,1156,0,0
476,-132,0,0,0,0,0,0,0,0,0,-1,1700,1156,0,0
483,-132,0,0,0,0,0,0,0,0,0,-1,1707,1156,0,0
490,-132,0,0,0,0,0,0,0,0,0,-1,1714,1156,0,0
497,-132,0,0,0,0,0,0,0,0,0,-1,1721,1156,0,0
504,-132,0,0,0,0,0,0,0,0,0,-1,1728,1156,0,0
511,-132,0,0,0,0,0,0,0,0,0,-1,1735,1156,0,0
518,-132,0,0,0,0,0,0,0,0,0,-1,1742,1156,0,0
525,-132,0,0,0,0,0,0,0,0,0,-1,1749,1156,0,0
532,-132,0,0,0,0,0,0,0,0,0,-1,1756,1156,0,0
539,-132,0,0,0,0,0,0,0,0,0,-1,1763,1156,0,0
546,-132,0,0,0,0,0,0,0,0,0,-1,1770,1156,0,0
553,-132,0,0,0,0,0,0,0,0,0,-1,1777,1156,0,0
560,-132,0,0,0,0,0,0,0,0,0,-1,1784,1156,0,0
567,-132,0,0,0,0,0,0,0,0,0,-1,1791,1156,0,0
574,-132,0,0,0,0,0,0,0,0,0,-1,1798,1156,0,0
581,-132,0,0,0,0,0,0,0,0,0,-1,1805,1156,0,0
588,-132,0,0,0,0,0,0,0,0,0,-1,1812,1156,0,0
595,-132,0,0,0,0,0,0,0,0,0,-1,1819,1156,0,0
602,-132,0,0,0,0,0,0,0,0,0,-1,1826,1156,0,0
609,-132,0,0,0,0,0,0,0,0,0,-1,1833,1156,0,0
616,-132,0,0,0,0,0,0,0,0,0,-1,1840,1156,0,0
623,-132,0,0,0,0,0,0,0,0,0,-1,1847,1156,0,0
630,-132,0,0,0,0,0,0,0,0,0,-1,1854,1156,0,0
637,-132,0,0,0,0,0,0,0,0,0,-1,1861,1156,0,0
644,-132,29.1736,2.53308,-0.00423569,-0.00077631,-0.000195763,-0.000765268,-0.00424673,-1.51445,0.00261368,0.0425525,1868,1156,29.1736,-2.53304
651,-132,29.0493,2.40222,-0.00293036,-0.000831483,-0.000453078,-0.000737855,-0.00302398,-1.36702,0.00182058,0.0398059,1875,1156,29.0493,-2.40227
658,-132,28.9337,2.40967,-0.00159063,-0.00067944,-0.00088863,-0.000136421,-0.00213365,-1.02227,0.00137921,0.0391669,1882,1156,28.9338,-2.40971
665,-132,28.8766,2.74963,-0.00171954,-0.000691254,-0.000355279,-0.000580444,-0.00183035,-1.26846,0.00108006,0.0401502,1889,1156,28.8766,-2.74964
672,-132,29.0791,2.90247,-0.00279647,-0.000885476,0.000767852,-0.000615179,-0.00306677,1.23233,0.00187343,0.0412028,1896,1156,29.0792,-2.90249
679,-132,29.1362,2.81836,-0.00421712,-0.00109237,0.00196347,-0.000145517,-0.00516398,1.12146,0.00339519,0.0405361,1903,1156,29.1362,-2.81841
686,-132,29.0906,2.74829,-0.00565356,-0.00132202,0.00309184,0.000287126,-0.00726271,1.09092,0.0049403,0.0371137,1910,1156,29.0905,-2.74828
693,-132,29.0854,2.66846,-0.0067491,-0.00145637,0.00395513,0.00065608,-0.00886155,1.08024,0.00613809,0.0276552,1917,1156,29.0854,-2.6684
700,-132,29.0822,2.55591,-0.00747446,-0.00168014,0.00474507,0.000982308,-0.0101369,1.05947,0.00710803,0.0282389,1924,1156,29.0821,-2.55586
707,-132,27.9469,4.50342,0,0,0,0,0,0,0,-1,1931,1156,27.9469,-4.50342
714,-132,27.1407,5.05994,-0.00858752,-0.00179726,0.0056266,0.00137918,-0.011764,1.05686,0.00834046,0.041085,1938,1156,27.1408,-5.05993
721,-132,26.7501,5.17432,-0.00879271,-0.00156237,0.00576207,0.00162472,-0.0119798,1.06556,0.00857955,0.0258516,1945,1156,26.7501,-5.17436
728,-132,26.7665,5.01208,-0.00855687,-0.00131037,0.00590524,0.00199457,-0.0118618,1.06056,0.00864973,0.01611,1952,1156,26.7664,-5.0121
735,-132,26.7433,4.86267,-0.007658,-0.000919284,0.00577629,0.00239852,-0.0109758,1.04943,0.00823399,0.018147,1959,1156,26.7433,-4.86269
742,-132,26.7461,4.64783,-0.00629644,-0.000401266,0.00474953,0.00224099,-0.0089387,1.06311,0.0068298,0.0190117,1966,1156,26.7461,-4.64788
749,-132,26.7632,4.48047,-0.00462783,0.000466575,0.00340812,0.0021742,-0.00633545,1.10631,0.0051051,0.0219513,1973,1156,26.7632,-4.48042
756,-132,26.7789,4.3186,-0.00304803,0.00348554,0.00221479,0.00416555,-0.00372804,1.2729,0.0045597,0.0206722,1980,1156,26.7789,-4.31859
763,-132,26.7614,4.16418,-0.00141569,0.00796792,0.0014096,0.0081751,-0.00162286,1.42487,0.00606384,0.0127651,1987,1156,26.7613,-4.16413
770,-132,26.7733,4.01501,-0.000481808,0.0129872,0.00072227,0.0130258,-0.000520429,1.51738,0.00886246,0.0125737,1994,1156,26.7733,-4.01499
777,-132,26.7773,3.82935,-0.000438596,0.019953,0.000662589,0.0199745,-0.000460102,1.53835,0.0134723,0.0208224,2001,1156,26.7774,-3.82931
784,-132,26.7715,3.70007,-0.00103166,0.0298201,0.000939688,0.0298487,-0.00106025,1.54038,0.0202618,0.0433357,2008,1156,26.7715,-3.70013
791,-132,26.8043,3.59363,0,0,0,0,0,0,0,-1,2015,1156,26.8043,-3.59359
798,-132,21.7843,-5.0376,0,0,0,0,0,0,0,-1,2022,1156,21.7842,5.03766
805,-132,21.074,-4.63599,0,0,0,0,0,0,0,-1,2029,1156,21.0739,4.63597
812,-132,25.6082,3.65771,0,0,0,0,0,0,0,-1,2036,1156,25.6081,-3.65766
-700,-139,0,0,0,0,0,0,0,0,0,-1,524,1163,0,0
-693,-139,-16.1605,0.536255,0,0,0,0,0,0,0,-1,531,1163,-16.1604,-0.536216
-686,-139,-16.4272,-1.16235,0,0,0,0,0,0,0,-1,538,1163,-16.4272,1.16234
-679,-139,-16.873,-0.871094,0,0,0,0,0,0,0,-1,545,1163,-16.873,0.87111
-672,-139,-17.2488,-0.559692,-0.0223709,0.0084311,-0.035742,0.031949,-0.0458888,-0.988824,0.0451792,0.043932,552,1163,-17.2488,0.559669
-665,-139,-18.4554,1.14978,-0.0232889,0.00824626,-0.0256508,0.0225882,-0.0376308,-1.06098,0.0351271,0.0465967,559,1163,-18.4554,-1.14973
-658,-139,-17.6995,0.717651,0,0,0,0,0,0,0,-1,566,1163,-17.6995,-0.717642
-651,-139,-17.9736,1.13831,-0.0175478,0.00674472,-0.011658,0.0114342,-0.0222373,-1.18835,0.0197709,0.0389781,573,1163,-17.9736,-1.13829
-644,-139,-17.6509,1.19458,-0.0135245,0.00564412,-0.00723233,0.00806671,-0.0159471,-1.24758,0.014111,0.0215264,580,1163,-17.6509,-1.19456
-637,-139,-17.6189,1.37915,-0.00962877,0.00442408,-0.00417004,0.00556832,-0.010773,-1.30299,0.00959286,0.0119844,587,1163,-17.6189,-1.37915
-630,-139,-17.6272,1.57288,-0.00671997,0.00334579,-0.00177837,0.00365075,-0.00702493,-1.40097,0.00626538,0.0102762,594,1163,-17.6272,-1.57289
-623,-139,-17.6503,1.78992,-0.0038409,0.0023373,-0.000359921,0.0023582,-0.0038618,-1.5128,0.00362592,0.0157109,601,1163,-17.6504,-1.78995
-616,-139,-17.6358,1.97302,-0.000960978,0.000969074,0.000173585,0.000984562,-0.000976466,1.48181,0.0011322,0.0169149,608,1163,-17.6358,-1.97303
-609,-139,-17.5662,2.20435,0.000233444,4.58196e-05,0.000120143,0.000292062,-1.27992e-05,0.453926,0.000199112,0.0256262,615,1163,-17.5662,-2.20429
-602,-139,-17.7354,2.43335,0.000157449,-0.00031654,3.25025e-05,0.000159668,-0.000318758,0.0681472,0.000281264,0.0202511,622,1163,-17.7354,-2.4333
-595,-139,-17.7773,2.66394,-0.000274522,-0.000599305,-0.00031296,-8.43305e-05,-0.000789497,-0.546076,0.000500595,0.0202403,629,1163,-17.7774,-2.66395
-588,-139,-17.6807,2.92883,-0.000552358,-0.000760033,-0.000808533,0.000158978,-0.00147137,-0.721534,0.00103797,0.0209787,636,1163,-17.6807,-2.92889
-581,-139,-17.3489,3.28906,0,0,0,0,0,0,0,-1,643,1163,-17.3489,-3.28909
-574,-139,-19.9316,0.439819,0,0,0,0,0,0,0,-1,650,1163,-19.9316,-0.439817
-567,-139,-20.1683,0.59375,-0.000318769,-0.000426066,-0.00134111,0.000969763,-0.0017146,-0.765407,0.00156958,0.0454803,657,1163,-20.1682,-0.593706
-560,-139,-20.2551,0.811279,-0.000312893,-0.000182061,-0.00149021,0.00124417,-0.00173912,-0.807333,0.00173029,0.0356529,664,1163,-20.255,-0.811323
-553,-139,-20.3981,1.21704,-9.50483e-05,0.000161792,-0.00162263,0.00166108,-0.00159434,-0.824887,0.00187965,0.0399212,671,1163,-20.3981,-1.21698
-546,-139,-20.2806,1.12207,0.000547749,0.000588944,-0.00168771,0.00225618,-0.00111949,-0.7915,0.00198543,0.0401433,678,1163,-20.2806,-1.1221
-539,-139,-20.1363,0.769653,0.0017466,0.00100762,-0.00150437,0.00292619,-0.00017197,-0.664977,0.00201057,0.0401431,685,1163,-20.1363,-0.769653
-532,-139,-20.163,0.638306,0.00440621,0.00133487,-0.000816189,0.00460963,0.00113145,-0.24426,0.00277395,0.0379437,692,1163,-20.1631,-0.63827
-525,-139,-20.2386,0.707031,0.00800735,0.00180185,0.000331915,0.00802505,0.00178415,0.0532847,0.0048656,0.0353775,699,1163,-20.2386,-0.707025
-518,-139,0,0,0,0,0,0,0,0,0,-1,706,1163,0,0
-511,-139,0,0,0,0,0,0,0,0,0,-1,713,1163,0,0
-504,-139,0,0,0,0,0,0,0,0,0,-1,720,1163,0,0
-497,-139,0,0,0,0,0,0,0,0,0,-1,727,1163,0,0
-490,-139,0,0,0,0,0,0,0,0,0,-1,734,1163,0,0
-483,-139,0,0,0,0,0,0,0,0,0,-1,741,1163,0,0
-476,-139,0,0,0,0,0,0,0,0,0,-1,748,1163,0,0
-469,-139,0,0,0,0,0,0,0,0,0,-1,755,1163,0,0
-462,-139,0,0,0,0,0,0,0,0,0,-1,762,1163,0,0
-455,-139,0,0,0,0,0,0,0,0,0,-1,769,1163,0,0
-448,-139,0,0,0,0,0,0,0,0,0,-1,776,1163,0,0
-441,-139,0,0,0,0,0,0,0,0,0,-1,783,1163,0,0
-434,-139,0,0,0,0,0,0,0,0,0,-1,790,1163,0,0
-427,-139,0,0,0,0,0,0,0,0,0,-1,797,1163,0,0
-420,-139,0,0,0,0,0,0,0,0,0,-1,804,1163,0,0
-413,-139,0,0,0,0,0,0,0,0,0,-1,811,1163,0,0
-406,-139,0,0,0,0,0,0,0,0,0,-1,818,1163,0,0
-399,-139,0,0,0,0,0,0,0,0,0,-1,825,1163,0,0
-392,-139,0,0,0,0,0,0,0,0,0,-1,832,1163,0,0
-385,-139,0,0,0,0,0,0,0,0,0,-1,839,1163,0,0
-378,-139,0,0,0,0,0,0,0,0,0,-1,846,1163,0,0
-371,-139,0,0,0,0,0,0,0,0,0,-1,853,1163,0,0
-364,-139,0,0,0,0,0,0,0,0,0,-1,860,1163,0,0
-357,-139,0,0,0,0,0,0,0,0,0,-1,867,1163,0,0
-350,-139,0,0,0,0,0,0,0,0,0,-1,874,1163,0,0
-343,-139,0,0,0,0,0,0,0,0,0,-1,881,1163,0,0
-336,-139,0,0,0,0,0,0,0,0,0,-1,888,1163,0,0
-329,-139,0,0,0,0,0,0,0,0,0,-1,895,1163,0,0
-322,-139,0,0,0,0,0,0,0,0,0,-1,902,1163,0,0
-315,-139,0,0,0,0,0,0,0,0,0,-1,909,1163,0,0
-308,-139,0,0,0,0,0,0,0,0,0,-1,916,1163,0,0
-301,-139,0,0,0,0,0,0,0,0,0,-1,923,1163,0,0
-294,-139,0,0,0,0,0,0,0,0,0,-1,930,1163,0,0
-287,-139,0,0,0,0,0,0,0,0,0,-1,937,1163,0,0
-280,-139,0,0,0,0,0,0,0,0,0,-1,944,1163,0,0
-273,-139,0,0,0,0,0,0,0,0,0,-1,951,1163,0,0
-266,-139,0,0,0,0,0,0,0,0,0,-1,958,1163,0,0
-259,-139,0,0,0,0,0,0,0,0,0,-1,965,1163,0,0
-252,-139,0,0,0,0,0,0,0,0,0,-1,972,1163,0,0
-245,-139,0,0,0,0,0,0,0,0,0,-1,979,1163,0,0
-238,-139,0,0,0,0,0,0,0,0,0,-1,986,1163,0,0
-231,-139,0,0,0,0,0,0,0,0,0,-1,993,1163,0,0
-224,-139,0,0,0,0,0,0,0,0,0,-1,1000,1163,0,0
-217,-139,0,0,0,0,0,0,0,0,0,-1,1007,1163,0,0
-210,-139,0,0,0,0,0,0,0,0,0,-1,1014,1163,0,0
-203,-139,0,0,0,0,0,0,0,0,0,-1,1021,1163,0,0
-196,-139,0,0,0,0,0,0,0,0,0,-1,1028,1163,0,0
-189,-139,0,0,0,0,0,0,0,0,0,-1,1035,1163,0,0
-182,-139,0,0,0,0,0,0,0,0,0,-1,1042,1163,0,0
-175,-139,0,0,0,0,0,0,0,0,0,-1,1049,1163,0,0
-168,-139,0,0,0,0,0,0,0,0,0,-1,1056,1163,0,0
-161,-139,0,0,0,0,0,0,0,0,0,-1,1063,1163,0,0
-154,-139,0,0,0,0,0,0,0,0,0,-1,1070,1163,0,0
-147,-139,0,0,0,0,0,0,0,0,0,-1,1077,1163,0,0
-140,-139,0,0,0,0,0,0,0,0,0,-1,1084,1163,0,0
-133,-139,0,0,0,0,0,0,0,0,0,-1,1091,1163,0,0
-126,-139,0,0,0,0,0,0,0,0,0,-1,1098,1163,0,0
-119,-139,0,0,0,0,0,0,0,0,0,-1,1105,1163,0,0
-112,-139,0,0,0,0,0,0,0,0,0,-1,1112,1163,0,0
-105,-139,0,0,0,0,0,0,0,0,0,-1,1119,1163,0,0
-98,-139,0,0,0,0,0,0,0,0,0,-1,1126,1163,0,0
-91,-139,0,0,0,0,0,0,0,0,0,-1,1133,1163,0,0
-84,-139,0,0,0,0,0,0,0,0,0,-1,1140,1163,0,0
-77,-139,0,0,0,0,0,0,0,0,0,-1,1147,1163,0,0
-70,-139,0,0,0,0,0,0,0,0,0,-1,1154,1163,0,0
-63,-139,0,0,0,0,0,0,0,0,0,-1,1161,1163,0,0
-56,-139,0,0,0,0,0,0,0,0,0,-1,1168,1163,0,0
-49,-139,0,0,0,0,0,0,0,0,0,-1,1175,1163,0,0
-42,-139,0,0,0,0,0,0,0,0,0,-1,1182,1163,0,0
-35,-139,0,0,0,0,0,0,0,0,0,-1,1189,1163,0,0
-28,-139,0,0,0,0,0,0,0,0,0,-1,1196,1163,0,0
-21,-139,0,0,0,0,0,0,0,0,0,-1,1203,1163,0,0
-14,-139,0,0,0,0,0,0,0,0,0,-1,1210,1163,0,0
-7,-139,0,0,0,0,0,0,0,0,0,-1,1217,1163,0,0
0,-139,0,0,0,0,0,0,0,0,0,-1,1224,1163,0,0
7,-139,0,0,0,0,0,0,0,0,0,-1,1231,1163,0,0
14,-139,0,0,0,0,0,0,0,0,0,-1,1238,1163,0,0
21,-139,0,0,0,0,0,0,0,0,0,-1,1245,1163,0,0
28,-139,0,0,0,0,0,0,0,0,0,-1,1252,1163,0,0
35,-139,0,0,0,0,0,0,0,0,0,-1,1259,1163,0,0
42,-139,0,0,0,0,0,0,0,0,0,-1,1266,1163,0,0
49,-139,0,0,0,0,0,0,0,0,0,-1,1273,1163,0,0
56,-139,0,0,0,0,0,0,0,0,0,-1,1280,1163,0,0
63,-139,0,0,0,0,0,0,0,0,0,-1,1287,1163,0,0
70,-139,0,0,0,0,0,0,0,0,0,-1,1294,1163,0,0
77,-139,0,0,0,0,0,0,0,0,0,-1,1301,1163,0,0
84,-139,0,0,0,0,0,0,0,0,0,-1,1308,1163,0,0
91,-139,0,0,0,0,0,0,0,0,0,-1,1315,1163,0,0
98,-139,0,0,0,0,0,0,0,0,0,-1,1322,1163,0,0
105,-139,0,0,0,0,0,0,0,0,0,-1,1329,1163,0,0
112,-139,0,0,0,0,0,0,0,0,0,-1,1336,1163,0,0
119,-139,0,0,0,0,0,0,0,0,0,-1,1343,1163,0,0
126,-139,0,0,0,0,0,0,0,0,0,-1,1350,1163,0,0
133,-139,0,0,0,0,0,0,0,0,0,-1,1357,1163,0,0
140,-139,0,0,0,0,0,0,0,0,0,-1,1364,1163,0,0
147,-139,0,0,0,0,0,0,0,0,0,-1,1371,1163,0,0
154,-139,0,0,0,0,0,0,0,0,0,-1,1378,1163,0,0
161,-139,0,0,0,0,0,0,0,0,0,-1,1385,1163,0,0
168,-139,0,0,0,0,0,0,0,0,0,-1,1392,1163,0,0
175,-139,0,0,0,0,0,0,0,0,0,-1,1399,1163,0,0
182,-139,0,0,0,0,0,0,0,0,0,-1,1406,1163,0,0
189,-139,0,0,0,0,0,0,0,0,0,-1,1413,1163,0,0
196,-139,0,0,0,0,0,0,0,0,0,-1,1420,1163,0,0
203,-139,0,0,0,0,0,0,0,0,0,-1,1427,1163,0,0
210,-139,0,0,0,0,0,0,0,0,0,-1,1434,1163,0,0
217,-139,0,0,0,0,0,0,0,0,0,-1,1441,1163,0,0
224,-139,0,0,0,0,0,0,0,0,0,-1,1448,1163,0,0
231,-139,0,0,0,0,0,0,0,0,0,-1,1455,1163,0,0
238,-139,0,0,0,0,0,0,0,0,0,-1,1462,1163,0,0
245,-139,0,0,0,0,0,0,0,0,0,-1,1469,1163,0,0
252,-139,0,0,0,0,0,0,0,0,0,-1,1476,1163,0,0
259,-139,0,0,0,0,0,0,0,0,0,-1,1483,1163,0,0
266,-139,0,0,0,0,0,0,0,0,0,-1,1490,1163,0,0
273,-139,0,0,0,0,0,0,0,0,0,-1,1497,1163,0,0
280,-139,0,0,0,0,0,0,0,0,0,-1,1504,1163,0,0
287,-139,0,0,0,0,0,0,0,0,0,-1,1511,1163,0,0
294,-139,0,0,0,0,0,0,0,0,0,-1,1518,1163,0,0
301,-139,0,0,0,0,0,0,0,0,0,-1,1525,1163,0,0
308,-139,0,0,0,0,0,0,0,0,0,-1,1532,1163,0,0
315,-139,0,0,0,0,0,0,0,0,0,-1,1539,1163,0,0
322,-139,0,0,0,0,0,0,0,0,0,-1,1546,1163,0,0
329,-139,0,0,0,0,0,0,0,0,0,-1,1553,1163,0,0
336,-139,0,0,0,0,0,0,0,0,0,-1,1560,1163,0,0
343,-139,0,0,0,0,0,0,0,0,0,-1,1567,1163,0,0
350,-139,0,0,0,0,0,0,0,0,0,-1,1574,1163,0,0
357,-139,0,0,0,0,0,0,0,0,0,-1,1581,1163,0,0
364,-139,0,0,0,0,0,0,0,0,0,-1,1588,1163,0,0
371,-139,0,0,0,0,0,0,0,0,0,-1,1595,1163,0,0
378,-139,0,0,0,0,0,0,0,0,0,-1,1602,1163,0,0
385,-139,0,0,0,0,0,0,0,0,0,-1,1609,1163,0,0
392,-139,0,0,0,0,0,0,0,0,0,-1,1616,1163,0,0
399,-139,0,0,0,0,0,0,0,0,0,-1,1623,1163,0,0
406,-139,0,0,0,0,0,0,0,0,0,-1,1630,1163,0,0
413,-139,0,0,0,0,0,0,0,0,0,-1,1637,1163,0,0
420,-139,0,0,0,0,0,0,0,0,0,-1,1644,1163,0,0
427,-139,0,0,0,0,0,0,0,0,0,-1,1651,1163,0,0
434,-139,0,0,0,0,0,0,0,0,0,-1,1658,1163,0,0
441,-139,0,0,0,0,0,0,0,0,0,-1,1665,1163,0,0
448,-139,0,0,0,0,0,0,0,0,0,-1,1672,1163,0,0
455,-139,0,0,0,0,0,0,0,0,0,-1,1679,1163,0,0
462,-139,0,0,0,0,0,0,0,0,0,-1,1686,1163,0,0
469,-139,0,0,0,0,0,0,0,0,0,-1,1693,1163,0,0
476,-139,0,0,0,0,0,0,0,0,0,-1,1700,1163,0,0
483,-139,0,0,0,0,0,0,0,0,0,-1,1707,1163,0,0
490,-139,0,0,0,0,0,0,0,0,0,-1,1714,1163,0,0
497,-139,0,0,0,0,0,0,0,0,0,-1,1721,1163,0,0
504,-139,0,0,0,0,0,0,0,0,0,-1,1728,1163,0,0
511,-139,0,0,0,0,0,0,0,0,0,-1,1735,1163,0,0
518,-139,0,0,0,0,0,0,0,0,0,-1,1742,1163,0,0
525,-139,0,0,0,0,0,0,0,0,0,-1,1749,1163,0,0
532,-139,0,0,0,0,0,0,0,0,0,-1,1756,1163,0,0
539,-139,0,0,0,0,0,0,0,0,0,-1,1763,1163,0,0
546,-139,0,0,0,0,0,0,0,0,0,-1,1770,1163,0,0
553,-139,0,0,0,0,0,0,0,0,0,-1,1777,1163,0,0
560,-139,0,0,0,0,0,0,0,0,0,-1,1784,1163,0,0
567,-139,0,0,0,0,0,0,0,0,0,-1,1791,1163,0,0
574,-139,0,0,0,0,0,0,0,0,0,-1,1798,1163,0,0
581,-139,0,0,0,0,0,0,0,0,0,-1,1805,1163,0,0
588,-139,0,0,0,0,0,0,0,0,0,-1,1812,1163,0,0
595,-139,0,0,0,0,0,0,0,0,0,-1,1819,1163,0,0
602,-139,0,0,0,0,0,0,0,0,0,-1,1826,1163,0,0
609,-139,0,0,0,0,0,0,0,0,0,-1,1833,1163,0,0
616,-139,0,0,0,0,0,0,0,0,0,-1,1840,1163,0,0
623,-139,0,0,0,0,0,0,0,0,0,-1,1847,1163,0,0
630,-139,0,0,0,0,0,0,0,0,0,-1,1854,1163,0,0
637,-139,0,0,0,0,0,0,0,0,0,-1,1861,1163,0,0
644,-139,29.1868,2.6521,-0.00387105,-0.000712322,0.000406426,-0.000660867,-0.0039225,1.44486,0.00242492,0.0387308,1868,1163,29.1868,-2.65213
651,-139,29.0728,2.56104,-0.00265233,-0.000397005,1.75471e-05,-0.000396868,-0.00265247,1.56302,0.00165199,0.0380545,1875,1163,29.0728,-2.56106
658,-139,29.0065,2.44556,-0.00143892,9.62859e-07,-0.000516888,0.000167299,-0.00160526,-1.25946,0.00113008,0.038123,1882,1163,29.0065,-2.44555
665,-139,29.0459,2.74756,-0.00168665,0.000131887,-5.84002e-05,0.00013376,-0.00168852,-1.53873,0.00117281,0.0374068,1889,1163,29.0459,-2.74761
672,-139,29.0859,2.81934,-0.00271119,5.0579e-05,0.000864164,0.000298688,-0.0029593,1.29121,0.00207959,0.0374496,1896,1163,29.0859,-2.81928
679,-139,29.1715,2.58374,-0.00406319,-0.000126325,0.0018833,0.000629493,-0.00481901,1.18915,0.00344175,0.0354884,1903,1163,29.1716,-2.58376
686,-139,29.1017,2.65845,-0.0054376,-0.000362498,0.00287346,0.000933479,-0.00673358,1.1471,0.00483037,0.0318815,1910,1163,29.1017,-2.65847
693,-139,29.098,2.65125,-0.00646011,-0.000518156,0.00361102,0.00118699,-0.00816526,1.12963,0.00587925,0.0203958,1917,1163,29.098,-2.65126
700,-139,28.9376,3.38049,0,0,0,0,0,0,0,-1,1924,1163,28.9376,-3.38051
707,-139,27.7333,4.35291,-0.00776828,-0.000993806,0.00485775,0.00154104,-0.0103031,1.08985,0.00743586,0.0376424,1931,1163,27.7332,-4.35295
714,-139,26.6129,5.45313,-0.00825314,-0.00106427,0.00510199,0.00158231,-0.0108997,1.09227,0.00784727,0.0372692,1938,1163,26.6129,-5.45318
721,-139,26.5873,5.16077,-0.00842479,-0.000978117,0.00523711,0.00172432,-0.0111272,1.09442,0.00805468,0.0249512,1945,1163,26.5873,-5.16072
728,-139,26.5848,5.00354,-0.00813785,-0.000823074,0.00537178,0.0020182,-0.0109791,1.08428,0.00807664,0.0236817,1952,1163,26.5848,-5.0036
735,-139,26.5427,4.89514,-0.00720233,-0.000514813,0.00523592,0.00235396,-0.0100711,1.06956,0.00762089,0.0180239,1959,1163,26.5428,-4.89519
742,-139,26.5596,4.64734,-0.00572739,-4.47975e-05,0.00422659,0.00220675,-0.00797893,1.08132,0.00618747,0.0212257,1966,1163,26.5596,-4.64731
749,-139,26.5641,4.47058,-0.00382303,0.000783743,0.00278289,0.00209284,-0.00513214,1.1311,0.00429261,0.0184937,1973,1163,26.5641,-4.4706
756,-139,26.547,4.32007,-0.00193322,0.0034848,0.0012337,0.00375249,-0.00220091,1.35713,0.00347589,0.0103776,1980,1163,26.5469,-4.32008
763,-139,26.5359,4.14429,5.83434e-06,0.00748151,1.74706e-05,0.00748155,5.79352e-06,1.56846,0.00498577,0.0106166,1987,1163,26.5359,-4.14424
770,-139,26.5461,3.97485,0.00126414,0.0119633,-0.00118723,0.0120934,0.00113398,-1.4616,0.00771212,0.0119921,1994,1163,26.5461,-3.9748
777,-139,26.5647,3.8291,0.00178037,0.0182533,-0.00212777,0.0185237,0.00150996,-1.44439,0.0118778,0.0220033,2001,1163,26.5647,-3.82912
784,-139,26.5992,3.66382,0.00171031,0.0271765,-0.00311285,0.0275514,0.00133533,-1.45091,0.0179391,0.0416302,2008,1163,26.5992,-3.66388
791,-139,26.6298,3.47974,0,0,0,0,0,0,0,-1,2015,1163,26.6297,-3.47968
798,-139,26.7578,3.17432,0,0,0,0,0,0,0,-1,2022,1163,26.7577,-3.17432
805,-139,25.1672,3.31677,0,0,0,0,0,0,0,-1,2029,1163,25.1673,-3.31682
812,-139,0,0,0,0,0,0,0,0,0,-1,2036,1163,0,0
-700,-146,0,0,0,0,0,0,0,0,0,-1,524,1170,0,0
-693,-146,-15.2552,1.50244,0,0,0,0,0,0,0,-1,531,1170,-15.2552,-1.50239
-686,-146,-16.0611,1.12781,0,0,0,0,0,0,0,-1,538,1170,-16.0611,-1.12786
-679,-146,-15.785,-0.465576,0,0,0,0,0,0,0,-1,545,1170,-15.7849,0.465565
-672,-146,-16.3436,-0.140503,-0.0525758,0.00301887,-0.0378988,0.0222217,-0.0717786,-1.10181,0.0567294,0.045879,552,1170,-16.3436,0.140483
-665,-146,-16.9291,0.193848,-0.0458782,0.0043092,-0.0272138,0.0162328,-0.0578018,-1.15784,0.0449337,0.0455545,559,1170,-16.9291,-0.193845
-658,-146,-17.3716,0.598633,-0.0375452,0.00490171,-0.018747,0.0119958,-0.0446393,-1.20904,0.0344613,0.0455357,566,1170,-17.3716,-0.598624
-651,-146,-17.3741,0.865234,-0.0290703,0.00492518,-0.0122575,0.0088838,-0.0330289,-1.25841,0.0255016,0.0367142,573,1170,-17.3741,-0.865237
-644,-146,-17.3796,1.1333,-0.0213953,0.00450286,-0.00749559,0.00651581,-0.0234083,-1.30843,0.0181711,0.0195675,580,1170,-17.3796,-1.13325
-637,-146,-17.3955,1.36279,-0.014868,0.00375956,-0.00418967,0.0046585,-0.0157669,-1.35944,0.0123603,0.0110293,587,1170,-17.3955,-1.36282
-630,-146,-17.4089,1.57141,-0.00991178,0.00306502,-0.00164663,0.0032707,-0.0101175,-1.44653,0.00805955,0.010713,594,1170,-17.4089,-1.57146
-623,-146,-17.4258,1.78796,-0.00541399,0.00244156,-0.000160149,0.00244482,-0.00541726,-1.55042,0.00464605,0.0122746,601,1170,-17.4258,-1.78799
-616,-146,-17.4418,2.00098,-0.00201121,0.00115414,0.000375701,0.00119812,-0.00205519,1.45426,0.00189991,0.0181005,608,1170,-17.4418,-2.00093
-609,-146,-17.3574,2.26367,-0.000672151,0.000190982,0.000144727,0.000214603,-0.000695771,1.40901,0.000549532,0.0185929,615,1170,-17.3573,-2.26365
-602,-146,-17.2274,2.48621,0,0,0,0,0,0,0,-1,622,1170,-17.2274,-2.48622
-595,-146,-17.6071,2.67664,-0.00129914,-0.000409215,-0.000618349,-9.23729e-05,-0.00161598,-1.09728,0.00104789,0.0207503,629,1170,-17.6071,-2.67665
-588,-146,-17.5021,2.94702,-0.00160686,-0.00052533,-0.00126749,0.000311928,-0.00244412,-0.987029,0.00174272,0.0230928,636,1170,-17.5021,-2.94699
-581,-146,-17.363,3.26782,-0.00159934,-0.000428053,-0.00177828,0.000858533,-0.00288593,-0.944471,0.00226503,0.0461079,643,1170,-17.3629,-3.26782
-574,-146,-17.382,3.50232,0,0,0,0,0,0,0,-1,650,1170,-17.382,-3.50237
-567,-146,-20.1636,0.465576,0,0,0,0,0,0,0,-1,657,1170,-20.1636,-0.465579
-560,-146,-20.2226,0.755981,-0.00130092,-7.1788e-05,-0.00218746,0.0015858,-0.0029585,-0.922342,0.00266325,0.0384197,664,1170,-20.2226,-0.75598
-553,-146,-20.2395,0.959106,-0.000936177,0.000187358,-0.0023154,0.00200817,-0.00275698,-0.90441,0.00276246,0.0385435,671,1170,-20.2395,-0.959045
-546,-146,-20.1877,0.96228,-2.35801e-05,0.000489386,-0.00230955,0.00255665,-0.00209084,-0.840698,0.00268772,0.0416776,678,1170,-20.1878,-0.962259
-539,-146,-20.2489,0.764038,0.00151889,0.000735793,-0.00197623,0.00314199,-0.000887306,-0.6876,0.0024447,0.0402519,685,1170,-20.2489,-0.76403
-532,-146,-20.3347,0.645996,0.00453343,0.000853219,-0.00101882,0.00479665,0.000589998,-0.25283,0.00302037,0.03725,692,1170,-20.3347,-0.646046
-525,-146,-20.244,0.71582,0.00863913,0.00104979,0.000471931,0.00866836,0.00102056,0.0618657,0.00547055,0.039446,699,1170,-20.244,-0.715855
-518,-146,0,0,0,0,0,0,0,0,0,-1,706,1170,0,0
-511,-146,0,0,0,0,0,0,0,0,0,-1,713,1170,0,0
-504,-146,0,0,0,0,0,0,0,0,0,-1,720,1170,0,0
-497,-146,0,0,0,0,0,0,0,0,0,-1,727,1170,0,0
-490,-146,0,0,0,0,0,0,0,0,0,-1,734,1170,0,0
-483,-146,0,0,0,0,0,0,0,0,0,-1,741,1170,0,0
-476,-146,0,0,0,0,0,0,0,0,0,-1,748,1170,0,0
-469,-146,0,0,0,0,0,0,0,0,0,-1,755,1170,0,0
-462,-146,0,0,0,0,0,0,0,0,0,-1,762,1170,0,0
-455,-146,0,0,0,0,0,0,0,0,0,-1,769,1170,0,0
-448,-146,0,0,0,0,0,0,0,0,0,-1,776,1170,0,0
-441,-146,0,0,0,0,0,0,0,0,0,-1,783,1170,0,0
-434,-146,0,0,0,0,0,0,0,0,0,-1,790,1170,0,0
-427,-146,0,0,0,0,0,0,0,0,0,-1,797,1170,0,0
-420,-146,0,0,0,0,0,0,0,0,0,-1,804,1170,0,0
-413,-146,0,0,0,0,0,0,0,0,0,-1,811,1170,0,0
-406,-146,0,0,0,0,0,0,0,0,0,-1,818,1170,0,0
-399,-146,0,0,0,0,0,0,0,0,0,-1,825,1170,0,0
-392,-146,0,0,0,0,0,0,0,0,0,-1,832,1170,0,0
-385,-146,0,0,0,0,0,0,0,0,0,-1,839,1170,0,0
-378,-146,0,0,0,0,0,0,0,0,0,-1,846,1170,0,0
-371,-146,0,0,0,0,0,0,0,0,0,-1,853,1170,0,0
-364,-146,0,0,0,0,0,0,0,0,0,-1,860,1170,0,0
-357,-146,0,0,0,0,0,0,0,0,0,-1,867,1170,0,0
-350,-146,0,0,0,0,0,0,0,0,0,-1,874,1170,0,0
-343,-146,0,0,0,0,0,0,0,0,0,-1,881,1170,0,0
-336,-146,0,0,0,0,0,0,0,0,0,-1,888,1170,0,0
-329,-146,0,0,0,0,0,0,0,0,0,-1,895,1170,0,0
-322,-146,0,0,0,0,0,0,0,0,0,-1,902,1170,0,0
-315,-146,0,0,0,0,0,0,0,0,0,-1,909,1170,0,0
-308,-146,0,0,0,0,0,0,0,0,0,-1,916,1170,0,0
-301,-146,0,0,0,0,0,0,0,0,0,-1,923,1170,0,0
-294,-146,0,0,0,0,0,0,0,0,0,-1,930,1170,0,0
-287,-146,0,0,0,0,0,0,0,0,0,-1,937,1170,0,0
-280,-146,0,0,0,0,0,0,0,0,0,-1,944,1170,0,0
-273,-146,0,0,0,0,0,0,0,0,0,-1,951,1170,0,0
-266,-146,0,0,0,0,0,0,0,0,0,-1,958,1170,0,0
-259,-146,0,0,0,0,0,0,0,0,0,-1,965,1170,0,0
-252,-146,0,0,0,0,0,0,0,0,0,-1,972,1170,0,0
-245,-146,0,0,0,0,0,0,0,0,0,-1,979,1170,0,0
-238,-146,0,0,0,0,0,0,0,0,0,-1,986,1170,0,0
-231,-146,0,0,0,0,0,0,0,0,0,-1,993,1170,0,0
-224,-146,0,0,0,0,0,0,0,0,0,-1,1000,1170,0,0
-217,-146,0,0,0,0,0,0,0,0,0,-1,1007,1170,0,0
-210,-146,0,0,0,0,0,0,0,0,0,-1,1014,1170,0,0
-203,-146,0,0,0,0,0,0,0,0,0,-1,1021,1170,0,0
-196,-146,0,0,0,0,0,0,0,0,0,-1,1028,1170,0,0
-189,-146,0,0,0,0,0,0,0,0,0,-1,1035,1170,0,0
-182,-146,0,0,0,0,0,0,0,0,0,-1,1042,1170,0,0
-175,-146,0,0,0,0,0,0,0,0,0,-1,1049,1170,0,0
-168,-146,0,0,0,0,0,0,0,0,0,-1,1056,1170,0,0
-161,-146,0,0,0,0,0,0,0,0,0,-1,1063,1170,0,0
-154,-146,0,0,0,0,0,0,0,0,0,-1,1070,1170,0,0
-147,-146,0,0,0,0,0,0,0,0,0,-1,1077,1170,0,0
-140,-146,0,0,0,0,0,0,0,0,0,-1,1084,1170,0,0
-133,-146,0,0,0,0,0,0,0,0,0,-1,1091,1170,0,0
-126,-146,0,0,0,0,0,0,0,0,0,-1,1098,1170,0,0
-119,-146,0,0,0,0,0,0,0,0,0,-1,1105,1170,0,0
-112,-146,0,0,0,0,0,0,0,0,0,-1,1112,1170,0,0
-105,-146,0,0,0,0,0,0,0,0,0,-1,1119,1170,0,0
-98,-146,0,0,0,0,0,0,0,0,0,-1,1126,1170,0,0
-91,-146,0,0,0,0,0,0,0,0,0,-1,1133,1170,0,0
-84,-146,0,0,0,0,0,0,0,0,0,-1,1140,1170,0,0
-77,-146,0,0,0,0,0,0,0,0,0,-1,1147,1170,0,0
-70,-146,0,0,0,0,0,0,0,0,0,-1,1154,1170,0,0
-63,-146,0,0,0,0,0,0,0,0,0,-1,1161,1170,0,0
-56,-146,0,0,0,0,0,0,0,0,0,-1,1168,1170,0,0
-49,-146,0,0,0,0,0,0,0,0,0,-1,1175,1170,0,0
-42,-146,0,0,0,0,0,0,0,0,0,-1,1182,1170,0,0
-35,-146,0,0,0,0,0,0,0,0,0,-1,1189,1170,0,0
-28,-146,0,0,0,0,0,0,0,0,0,-1,1196,1170,0,0
-21,-146,0,0,0,0,0,0,0,0,0,-1,1203,1170,0,0
-14,-146,0,0,0,0,0,0,0,0,0,-1,1210,1170,0,0
-7,-146,0,0,0,0,0,0,0,0,0,-1,1217,1170,0,0
0,-146,0,0,0,0,0,0,0,0,0,-1,1224,1170,0,0
7,-146,0,0,0,0,0,0,0,0,0,-1,1231,1170,0,0
14,-146,0,0,0,0,0,0,0,0,0,-1,1238,1170,0,0
21,-146,0,0,0,0,0,0,0,0,0,-1,1245,1170,0,0
28,-146,0,0,0,0,0,0,0,0,0,-1,1252,1170,0,0
35,-146,0,0,0,0,0,0,0,0,0,-1,1259,1170,0,0
42,-146,0,0,0,0,0,0,0,0,0,-1,1266,1170,0,0
49,-146,0,0,0,0,0,0,0,0,0,-1,1273,1170,0,0
56,-146,0,0,0,0,0,0,0,0,0,-1,1280,1170,0,0
63,-146,0,0,0,0,0,0,0,0,0,-1,1287,1170,0,0
70,-146,0,0,0,0,0,0,0,0,0,-1,1294,1170,0,0
77,-146,0,0,0,0,0,0,0,0,0,-1,1301,1170,0,0
84,-146,0,0,0,0,0,0,0,0,0,-1,1308,1170,0,0
91,-146,0,0,0,0,0,0,0,0,0,-1,1315,1170,0,0
98,-146,0,0,0,0,0,0,0,0,0,-1,1322,1170,0,0
105,-146,0,0,0,0,0,0,0,0,0,-1,1329,1170,0,0
112,-146,0,0,0,0,0,0,0,0,0,-1,1336,1170,0,0
119,-146,0,0,0,0,0,0,0,0,0,-1,1343,1170,0,0
126,-146,0,0,0,0,0,0,0,0,0,-1,1350,1170,0,0
133,-146,0,0,0,0,0,0,0,0,0,-1,1357,1170,0,0
140,-146,0,0,0,0,0,0,0,0,0,-1,1364,1170,0,0
147,-146,0,0,0,0,0,0,0,0,0,-1,1371,1170,0,0
154,-146,0,0,0,0,0,0,0,0,0,-1,1378,1170,0,0
161,-146,0,0,0,0,0,0,0,0,0,-1,1385,1170,0,0
168,-146,0,0,0,0,0,0,0,0,0,-1,1392,1170,0,0
175,-146,0,0,0,0,0,0,0,0,0,-1,1399,1170,0,0
182,-146,0,0,0,0,0,0,0,0,0,-1,1406,1170,0,0
189,-146,0,0,0,0,0,0,0,0,0,-1,1413,1170,0,0
196,-146,0,0,0,0,0,0,0,0,0,-1,1420,1170,0,0
203,-146,0,0,0,0,0,0,0,0,0,-1,1427,1170,0,0
210,-146,0,0,0,0,0,0,0,0,0,-1,1434,1170,0,0
217,-146,0,0,0,0,0,0,0,0,0,-1,1441,1170,0,0
224,-146,0,0,0,0,0,0,0,0,0,-1,1448,1170,0,0
231,-146,0,0,0,0,0,0,0,0,0,-1,1455,1170,0,0
238,-146,0,0,0,0,0,0,0,0,0,-1,1462,1170,0,0
245,-146,0,0,0,0,0,0,0,0,0,-1,1469,1170,0,0
252,-146,0,0,0,0,0,0,0,0,0,-1,1476,1170,0,0
259,-146,0,0,0,0,0,0,0,0,0,-1,1483,1170,0,0
266,-146,0,0,0,0,0,0,0,0,0,-1,1490,1170,0,0
273,-146,0,0,0,0,0,0,0,0,0,-1,1497,1170,0,0
280,-146,0,0,0,0,0,0,0,0,0,-1,1504,1170,0,0
287,-146,0,0,0,0,0,0,0,0,0,-1,1511,1170,0,0
294,-146,0,0,0,0,0,0,0,0,0,-1,1518,1170,0,0
301,-146,0,0,0,0,0,0,0,0,0,-1,1525,1170,0,0
308,-146,0,0,0,0,0,0,0,0,0,-1,1532,1170,0,0
315,-146,0,0,0,0,0,0,0,0,0,-1,1539,1170,0,0
322,-146,0,0,0,0,0,0,0,0,0,-1,1546,1170,0,0
329,-146,0,0,0,0,0,0,0,0,0,-1,1553,1170,0,0
336,-146,0,0,0,0,0,0,0,0,0,-1,1560,1170,0,0
343,-146,0,0,0,0,0,0,0,0,0,-1,1567,1170,0,0
350,-146,0,0,0,0,0,0,0,0,0,-1,1574,1170,0,0
357,-146,0,0,0,0,0,0,0,0,0,-1,1581,1170,0,0
364,-146,0,0,0,0,0,0,0,0,0,-1,1588,1170,0,0
371,-146,0,0,0,0,0,0,0,0,0,-1,1595,1170,0,0
378,-146,0,0,0,0,0,0,0,0,0,-1,1602,1170,0,0
385,-146,0,0,0,0,0,0,0,0,0,-1,1609,1170,0,0
392,-146,0,0,0,0,0,0,0,0,0,-1,1616,1170,0,0
399,-146,0,0,0,0,0,0,0,0,0,-1,1623,1170,0,0
406,-146,0,0,0,0,0,0,0,0,0,-1,1630,1170,0,0
413,-146,0,0,0,0,0,0,0,0,0,-1,1637,1170,0,0
420,-146,0,0,0,0,0,0,0,0,0,-1,1644,1170,0,0
427,-146,0,0,0,0,0,0,0,0,0,-1,1651,1170,0,0
434,-146,0,0,0,0,0,0,0,0,0,-1,1658,1170,0,0
441,-146,0,0,0,0,0,0,0,0,0,-1,1665,1170,0,0
448,-146,0,0,0,0,0,0,0,0,0,-1,1672,1170,0,0
455,-146,0,0,0,0,0,0,0,0,0,-1,1679,1170,0,0
462,-146,0,0,0,0,0,0,0,0,0,-1,1686,1170,0,0
469,-146,0,0,0,0,0,0,0,0,0,-1,1693,1170,0,0
476,-146,0,0,0,0,0,0,0,0,0,-1,1700,1170,0,0
483,-146,0,0,0,0,0,0,0,0,0,-1,1707,1170,0,0
490,-146,0,0,0,0,0,0,0,0,0,-1,1714,1170,0,0
497,-146,0,0,0,0,0,0,0,0,0,-1,1721,1170,0,0
504,-146,0,0,0,0,0,0,0,0,0,-1,1728,1170,0,0
511,-146,0,0,0,0,0,0,0,0,0,-1,1735,1170,0,0
518,-146,0,0,0,0,0,0,0,0,0,-1,1742,1170,0,0
525,-146,0,0,0,0,0,0,0,0,0,-1,1749,1170,0,0
532,-146,0,0,0,0,0,0,0,0,0,-1,1756,1170,0,0
539,-146,0,0,0,0,0,0,0,0,0,-1,1763,1170,0,0
546,-146,0,0,0,0,0,0,0,0,0,-1,1770,1170,0,0
553,-146,0,0,0,0,0,0,0,0,0,-1,1777,1170,0,0
560,-146,0,0,0,0,0,0,0,0,0,-1,1784,1170,0,0
567,-146,0,0,0,0,0,0,0,0,0,-1,1791,1170,0,0
574,-146,0,0,0,0,0,0,0,0,0,-1,1798,1170,0,0
581,-146,0,0,0,0,0,0,0,0,0,-1,1805,1170,0,0
588,-146,0,0,0,0,0,0,0,0,0,-1,1812,1170,0,0
595,-146,0,0,0,0,0,0,0,0,0,-1,1819,1170,0,0
602,-146,0,0,0,0,0,0,0,0,0,-1,1826,1170,0,0
609,-146,0,0,0,0,0,0,0,0,0,-1,1833,1170,0,0
616,-146,0,0,0,0,0,0,0,0,0,-1,1840,1170,0,0
623,-146,0,0,0,0,0,0,0,0,0,-1,1847,1170,0,0
630,-146,0,0,0,0,0,0,0,0,0,-1,1854,1170,0,0
637,-146,29.2043,2.55994,-0.00479315,-0.00144855,0.000798001,-0.00126791,-0.00497379,1.34818,0.0029844,0.0382458,1861,1170,29.2044,-2.55994
644,-146,29.2437,2.67249,-0.00348901,-0.000724925,0.000604198,-0.000598625,-0.00361531,1.36473,0.00223752,0.0360218,1868,1170,29.2437,-2.67247
651,-146,29.1509,2.67358,-0.00232074,-2.94707e-05,0.000164029,-1.77877e-05,-0.00233242,1.49969,0.00154905,0.0350071,1875,1170,29.1509,-2.67359
658,-146,29.16,2.62341,-0.00125999,0.000611064,-0.000368707,0.0006811,-0.00133003,-1.38308,0.0011811,0.0373211,1882,1170,29.1601,-2.62336
665,-146,29.1182,2.78638,-0.00158884,0.0008981,4.55766e-05,0.000898935,-0.00158967,1.55248,0.00145513,0.0401381,1889,1170,29.1181,-2.78639
672,-146,29.0245,2.83252,-0.00252424,0.000911109,0.000806798,0.00109115,-0.00270429,1.35124,0.00225631,0.0388806,1896,1170,29.0246,-2.83252
679,-146,29.0841,2.61206,-0.0037869,0.000748848,0.00169358,0.00131143,-0.00434948,1.25008,0.00342162,0.0320737,1903,1170,29.0841,-2.61201
686,-146,29.0494,2.5708,-0.00505807,0.000507494,0.00256553,0.00150966,-0.00606024,1.1984,0.00462623,0.0219928,1910,1170,29.0495,-2.57077
693,-146,29.0846,2.54028,-0.005978,0.000342781,0.00320136,0.00168092,-0.00731614,1.17488,0.00552366,0.0136518,1917,1170,29.0846,-2.54032
700,-146,28.6627,3.45203,0,0,0,0,0,0,0,-1,1924,1170,28.6627,-3.45197
707,-146,27.3933,4.54126,-0.00724755,-0.000252427,0.00433738,0.00182189,-0.00932186,1.12471,0.00690249,0.0442819,1931,1170,27.3933,-4.54124
714,-146,26.4708,5.43591,-0.00773533,-0.000419904,0.00457142,0.00177702,-0.00993226,1.12281,0.00728643,0.0378909,1938,1170,26.4708,-5.43597
721,-146,26.5027,5.18091,-0.00786368,-0.000516375,0.0047351,0.00180305,-0.0101831,1.11531,0.00746271,0.047251,1945,1170,26.5027,-5.1809
728,-146,26.5729,4.92065,-0.0075082,-0.000492781,0.00489309,0.00202,-0.010021,1.09638,0.00744589,0.0316392,1952,1170,26.5729,-4.92071
735,-146,26.3751,4.89221,-0.006511,-0.000276767,0.00474716,0.0022852,-0.00907296,1.07591,0.00693699,0.0173823,1959,1170,26.3751,-4.89216
742,-146,26.3763,4.68701,-0.00487659,0.000101502,0.00374481,0.002109,-0.00688409,1.07871,0.00543066,0.0166392,1966,1170,26.3763,-4.68706
749,-146,26.3531,4.51404,-0.00270186,0.00084786,0.00221314,0.00190992,-0.00376392,1.12337,0.00333358,0.0154898,1973,1170,26.3532,-4.51402
756,-146,26.3446,4.31409,-0.000459622,0.00317701,0.000341508,0.0032088,-0.000491415,1.47797,0.00232041,0.0118504,1980,1170,26.3445,-4.3141
763,-146,26.3331,4.12207,0.0018729,0.00651798,-0.00126296,0.00683916,0.00155172,-1.32177,0.00414029,0.0110673,1987,1170,26.3332,-4.12206
770,-146,26.3324,3.94092,0.00357575,0.0103361,-0.0029821,0.0114635,0.00244832,-1.20934,0.00697106,0.0113302,1994,1170,26.3324,-3.94092
777,-146,26.3325,3.81543,0.00471197,0.015784,-0.00481221,0.0175832,0.00291282,-1.21301,0.0108819,0.0195346,2001,1170,26.3325,-3.81544
784,-146,26.4191,3.65161,0.00527373,0.0235597,-0.00705192,0.0259633,0.00287012,-1.2423,0.0164359,0.0396788,2008,1170,26.419,-3.65167
791,-146,26.5724,3.43469,0.00495033,0.0343479,-0.00964648,0.0372306,0.00206762,-1.28041,0.0241607,0.0456435,2015,1170,26.5724,-3.43473
798,-146,26.6455,3.28833,0.00369998,0.0489711,-0.0125721,0.0522281,0.000442954,-1.3173,0.034672,0.0437032,2022,1170,26.6455,-3.28836
805,-146,26.7046,3.16138,0,0,0,0,0,0,0,-1,2029,1170,26.7047,-3.16142
812,-146,0,0,0,0,0,0,0,0,0,-1,2036,1170,0,0
-700,-153,0,0,0,0,0,0,0,0,0,-1,524,1177,0,0
-693,-153,0,0,0,0,0,0,0,0,0,-1,531,1177,0,0
-686,-153,-15.2269,1.83838,0,0,0,0,0,0,0,-1,538,1177,-15.2269,-1.83835
-679,-153,-14.961,-0.0546875,0,0,0,0,0,0,0,-1,545,1177,-14.961,0.0546528
-672,-153,-15.5604,0.259766,-0.0749483,-0.00315693,-0.0396339,0.0144203,-0.0925255,-1.15337,0.0670097,0.0480258,552,1177,-15.5604,-0.259708
-665,-153,-16.1103,0.483765,-0.062032,-0.000213929,-0.0284369,0.0108774,-0.0731232,-1.19891,0.0527498,0.0451472,559,1177,-16.1103,-0.483752
-658,-153,-17.0629,0.492188,-0.0489945,0.00168499,-0.0195177,0.0083303,-0.0556398,-1.24263,0.040159,0.0480057,566,1177,-17.0629,-0.492184
-651,-153,-17.094,0.698242,-0.037016,0.0027089,-0.012655,0.00639782,-0.0407049,-1.28716,0.0295014,0.0452651,573,1177,-17.094,-0.698248
-644,-153,-17.1094,1.04675,-0.0267868,0.00303317,-0.00761703,0.00486615,-0.0286198,-1.33464,0.0208917,0.0275215,580,1177,-17.1095,-1.0467
-637,-153,-17.1376,1.31787,-0.0184422,0.002835,-0.00412394,0.00360634,-0.0192136,-1.38589,0.014165,0.0116889,587,1177,-17.1376,-1.31788
-630,-153,-17.1548,1.55603,-0.0120812,0.00256326,-0.00148848,0.00271302,-0.012231,-1.47052,0.00919274,0.0104512,594,1177,-17.1548,-1.556
-623,-153,-17.1772,1.77954,-0.00660174,0.00234155,2.72632e-05,0.00234164,-0.00660182,1.56775,0.00535522,0.00964495,601,1177,-17.1772,-1.77959
-616,-153,-17.2003,2.01196,-0.00287391,0.001181,0.00052278,0.00124731,-0.00294022,1.44462,0.00248266,0.0120905,608,1177,-17.2003,-2.01198
-609,-153,-17.1653,2.23218,-0.00152004,0.000206619,9.07108e-05,0.000211372,-0.00152479,1.51845,0.00109381,0.0178021,615,1177,-17.1653,-2.23219
-602,-153,-17.1589,2.44421,-0.00177689,-0.000154431,-0.00038074,-6.95265e-05,-0.0018618,-1.35139,0.00121868,0.0364784,622,1177,-17.1589,-2.44423
-595,-153,-17.3741,2.68115,-0.00234628,-0.000342416,-0.00101542,8.21652e-05,-0.00277086,-1.17475,0.00187523,0.0319837,629,1177,-17.3742,-2.68117
-588,-153,-17.3874,2.9502,-0.00269421,-0.00035912,-0.00179634,0.000615762,-0.0036691,-1.07357,0.00267505,0.0204045,636,1177,-17.3874,-2.95022
-581,-153,-17.1778,3.15076,-0.00273043,-0.000272059,-0.00239724,0.00119276,-0.00419525,-1.0223,0.0032678,0.0260063,643,1177,-17.1778,-3.15071
-574,-153,-17.2142,3.2616,0,0,0,0,0,0,0,-1,650,1177,-17.2142,-3.26155
-567,-153,-20.3053,0.859741,0,0,0,0,0,0,0,-1,657,1177,-20.3053,-0.859779
-560,-153,-20.2351,0.789795,-0.00231492,3.41658e-05,-0.00286738,0.00195824,-0.004239,-0.979785,0.00365785,0.0416479,664,1177,-20.2351,-0.789793
-553,-153,-20.108,0.619385,-0.00181794,0.000259521,-0.00297269,0.00236974,-0.00392816,-0.953479,0.00367301,0.0379247,671,1177,-20.108,-0.619343
-546,-153,-20.2225,1.04236,0,0,0,0,0,0,0,-1,678,1177,-20.2225,-1.04231
-539,-153,-20.3834,0.777344,0.0012052,0.000616569,-0.0023822,0.0033112,-0.00148943,-0.723936,0.00283739,0.0406345,685,1177,-20.3834,-0.777338
-532,-153,-20.3311,0.560791,0.00456322,0.000551353,-0.00115626,0.00487261,0.000241967,-0.26145,0.00317083,0.0400771,692,1177,-20.331,-0.560805
-525,-153,-20.033,0.468262,0.00918215,0.000380902,0.000686311,0.00923535,0.000327705,0.0773556,0.00605062,0.0426079,699,1177,-20.033,-0.468237
-518,-153,0,0,0,0,0,0,0,0,0,-1,706,1177,0,0
-511,-153,0,0,0,0,0,0,0,0,0,-1,713,1177,0,0
-504,-153,0,0,0,0,0,0,0,0,0,-1,720,1177,0,0
-497,-153,0,0,0,0,0,0,0,0,0,-1,727,1177,0,0
-490,-153,0,0,0,0,0,0,0,0,0,-1,734,1177,0,0
-483,-153,0,0,0,0,0,0,0,0,0,-1,741,1177,0,0
-476,-153,0,0,0,0,0,0,0,0,0,-1,748,1177,0,0
-469,-153,0,0,0,0,0,0,0,0,0,-1,755,1177,0,0
-462,-153,0,0,0,0,0,0,0,0,0,-1,762,1177,0,0
-455,-153,0,0,0,0,0,0,0,0,0,-1,769,1177,0,0
-448,-153,0,0,0,0,0,0,0,0,0,-1,776,1177,0,0
-441,-153,0,0,0,0,0,0,0,0,0,-1,783,1177,0,0
-434,-153,0,0,0,0,0,0,0,0,0,-1,790,1177,0,0
-427,-153,0,0,0,0,0,0,0,0,0,-1,797,1177,0,0
-420,-153,0,0,0,0,0,0,0,0,0,-1,804,1177,0,0
-413,-153,0,0,0,0,0,0,0,0,0,-1,811,1177,0,0
-406,-153,0,0,0,0,0,0,0,0,0,-1,818,1177,0,0
-399,-153,0,0,0,0,0,0,0,0,0,-1,825,1177,0,0
-392,-153,0,0,0,0,0,0,0,0,0,-1,832,1177,0,0
-385,-153,0,0,0,0,0,0,0,0,0,-1,839,1177,0,0
-378,-153,0,0,0,0,0,0,0,0,0,-1,846,1177,0,0
-371,-153,0,0,0,0,0,0,0,0,0,-1,853,1177,0,0
-364,-153,0,0,0,0,0,0,0,0,0,-1,860,1177,0,0
-357,-153,0,0,0,0,0,0,0,0,0,-1,867,1177,0,0
-350,-153,0,0,0,0,0,0,0,0,0,-1,874,1177,0,0
-343,-153,0,0,0,0,0,0,0,0,0,-1,881,1177,0,0
-336,-153,0,0,0,0,0,0,0,0,0,-1,888,1177,0,0
-329,-153,0,0,0,0,0,0,0,0,0,-1,895,1177,0,0
-322,-153,0,0,0,0,0,0,0,0,0,-1,902,1177,0,0
-315,-153,0,0,0,0,0,0,0,0,0,-1,909,1177,0,0
-308,-153,0,0,0,0,0,0,0,0,0,-1,916,1177,0,0
-301,-153,0,0,0,0,0,0,0,0,0,-1,923,1177,0,0
-294,-153,0,0,0,0,0,0,0,0,0,-1,930,1177,0,0
-287,-153,0,0,0,0,0,0,0,0,0,-1,937,1177,0,0
-280,-153,0,0,0,0,0,0,0,0,0,-1,944,1177,0,0
-273,-153,0,0,0,0,0,0,0,0,0,-1,951,1177,0,0
-266,-153,0,0,0,0,0,0,0,0,0,-1,958,1177,0,0
-259,-153,0,0,0,0,0,0,0,0,0,-1,965,1177,0,0
-252,-153,0,0,0,0,0,0,0,0,0,-1,972,1177,0,0
-245,-153,0,0,0,0,0,0,0,0,0,-1,979,1177,0,0
-238,-153,0,0,0,0,0,0,0,0,0,-1,986,1177,0,0
-231,-153,0,0,0,0,0,0,0,0,0,-1,993,1177,0,0
-224,-153,0,0,0,0,0,0,0,0,0,-1,1000,1177,0,0
-217,-153,0,0,0,0,0,0,0,0,0,-1,1007,1177,0,0
-210,-153,0,0,0,0,0,0,0,0,0,-1,1014,1177,0,0
-203,-153,0,0,0,0,0,0,0,0,0,-1,1021,1177,0,0
-196,-153,0,0,0,0,0,0,0,0,0,-1,1028,1177,0,0
-189,-153,0,0,0,0,0,0,0,0,0,-1,1035,1177,0,0
-182,-153,0,0,0,0,0,0,0,0,0,-1,1042,1177,0,0
-175,-153,0,0,0,0,0,0,0,0,0,-1,1049,1177,0,0
-168,-153,0,0,0,0,0,0,0,0,0,-1,1056,1177,0,0
-161,-153,0,0,0,0,0,0,0,0,0,-1,1063,1177,0,0
-154,-153,0,0,0,0,0,0,0,0,0,-1,1070,1177,0,0
-147,-153,0,0,0,0,0,0,0,0,0,-1,1077,1177,0,0
-140,-153,0,0,0,0,0,0,0,0,0,-1,1084,1177,0,0
-133,-153,0,0,0,0,0,0,0,0,0,-1,1091,1177,0,0
-126,-153,0,0,0,0,0,0,0,0,0,-1,1098,1177,0,0
-119,-153,0,0,0,0,0,0,0,0,0,-1,1105,1177,0,0
-112,-153,0,0,0,0,0,0,0,0,0,-1,1112,1177,0,0
-105,-153,0,0,0,0,0,0,0,0,0,-1,1119,1177,0,0
-98,-153,0,0,0,0,0,0,0,0,0,-1,1126,1177,0,0
-91,-153,0,0,0,0,0,0,0,0,0,-1,1133,1177,0,0
-84,-153,0,0,0,0,0,0,0,0,0,-1,1140,1177,0,0
-77,-153,0,0,0,0,0,0,0,0,0,-1,1147,1177,0,0
-70,-153,0,0,0,0,0,0,0,0,0,-1,1154,1177,0,0
-63,-153,0,0,0,0,0,0,0,0,0,-1,1161,1177,0,0
-56,-153,0,0,0,0,0,0,0,0,0,-1,1168,1177,0,0
-49,-153,0,0,0,0,0,0,0,0,0,-1,1175,1177,0,0
-42,-153,0,0,0,0,0,0,0,0,0,-1,1182,1177,0,0
-35,-153,0,0,0,0,0,0,0,0,0,-1,1189,1177,0,0
-28,-153,0,0,0,0,0,0,0,0,0,-1,1196,1177,0,0
-21,-153,0,0,0,0,0,0,0,0,0,-1,1203,1177,0,0
-14,-153,0,0,0,0,0,0,0,0,0,-1,1210,1177,0,0
-7,-153,0,0,0,0,0,0,0,0,0,-1,1217,1177,0,0
0,-153,0,0,0,0,0,0,0,0,0,-1,1224,1177,0,0
7,-153,0,0,0,0,0,0,0,0,0,-1,1231,1177,0,0
14,-153,0,0,0,0,0,0,0,0,0,-1,1238,1177,0,0
21,-153,0,0,0,0,0,0,0,0,0,-1,1245,1177,0,0
28,-153,0,0,0,0,0,0,0,0,0,-1,1252,1177,0,0
35,-153,0,0,0,0,0,0,0,0,0,-1,1259,1177,0,0
42,-153,0,0,0,0,0,0,0,0,0,-1,1266,1177,0,0
49,-153,0,0,0,0,0,0,0,0,0,-1,1273,1177,0,0
56,-153,0,0,0,0,0,0,0,0,0,-1,1280,1177,0,0
63,-153,0,0,0,0,0,0,0,0,0,-1,1287,1177,0,0
70,-153,0,0,0,0,0,0,0,0,0,-1,1294,1177,0,0
77,-153,0,0,0,0,0,0,0,0,0,-1,1301,1177,0,0
84,-153,0,0,0,0,0,0,0,0,0,-1,1308,1177,0,0
91,-153,0,0,0,0,0,0,0,0,0,-1,1315,1177,0,0
98,-153,0,0,0,0,0,0,0,0,0,-1,1322,1177,0,0
105,-153,0,0,0,0,0,0,0,0,0,-1,1329,1177,0,0
112,-153,0,0,0,0,0,0,0,0,0,-1,1336,1177,0,0
119,-153,0,0,0,0,0,0,0,0,0,-1,1343,1177,0,0
126,-153,0,0,0,0,0,0,0,0,0,-1,1350,1177,0,0
133,-153,0,0,0,0,0,0,0,0,0,-1,1357,1177,0,0
140,-153,0,0,0,0,0,0,0,0,0,-1,1364,1177,0,0
147,-153,0,0,0,0,0,0,0,0,0,-1,1371,1177,0,0
154,-153,0,0,0,0,0,0,0,0,0,-1,1378,1177,0,0
161,-153,0,0,0,0,0,0,0,0,0,-1,1385,1177,0,0
168,-153,0,0,0,0,0,0,0,0,0,-1,1392,1177,0,0
175,-153,0,0,0,0,0,0,0,0,0,-1,1399,1177,0,0
182,-153,0,0,0,0,0,0,0,0,0,-1,1406,1177,0,0
189,-153,0,0,0,0,0,0,0,0,0,-1,1413,1177,0,0
196,-153,0,0,0,0,0,0,0,0,0,-1,1420,1177,0,0
203,-153,0,0,0,0,0,0,0,0,0,-1,1427,1177,0,0
210,-153,0,0,0,0,0,0,0,0,0,-1,1434,1177,0,0
217,-153,0,0,0,0,0,0,0,0,0,-1,1441,1177,0,0
224,-153,0,0,0,0,0,0,0,0,0,-1,1448,1177,0,0
231,-153,0,0,0,0,0,0,0,0,0,-1,1455,1177,0,0
238,-153,0,0,0,0,0,0,0,0,0,-1,1462,1177,0,0
245,-153,0,0,0,0,0,0,0,0,0,-1,1469,1177,0,0
252,-153,0,0,0,0,0,0,0,0,0,-1,1476,1177,0,0
259,-153,0,0,0,0,0,0,0,0,0,-1,1483,1177,0,0
266,-153,0,0,0,0,0,0,0,0,0,-1,1490,1177,0,0
273,-153,0,0,0,0,0,0,0,0,0,-1,1497,1177,0,0
280,-153,0,0,0,0,0,0,0,0,0,-1,1504,1177,0,0
287,-153,0,0,0,0,0,0,0,0,0,-1,1511,1177,0,0
294,-153,0,0,0,0,0,0,0,0,0,-1,1518,1177,0,0
301,-153,0,0,0,0,0,0,0,0,0,-1,1525,1177,0,0
308,-153,0,0,0,0,0,0,0,0,0,-1,1532,1177,0,0
315,-153,0,0,0,0,0,0,0,0,0,-1,1539,1177,0,0
322,-153,0,0,0,0,0,0,0,0,0,-1,1546,1177,0,0
329,-153,0,0,0,0,0,0,0,0,0,-1,1553,1177,0,0
336,-153,0,0,0,0,0,0,0,0,0,-1,1560,1177,0,0
343,-153,0,0,0,0,0,0,0,0,0,-1,1567,1177,0,0
350,-153,0,0,0,0,0,0,0,0,0,-1,1574,1177,0,0
357,-153,0,0,0,0,0,0,0,0,0,-1,1581,1177,0,0
364,-153,0,0,0,0,0,0,0,0,0,-1,1588,1177,0,0
371,-153,0,0,0,0,0,0,0,0,0,-1,1595,1177,0,0
378,-153,0,0,0,0,0,0,0,0,0,-1,1602,1177,0,0
385,-153,0,0,0,0,0,0,0,0,0,-1,1609,1177,0,0
392,-153,0,0,0,0,0,0,0,0,0,-1,1616,1177,0,0
399,-153,0,0,0,0,0,0,0,0,0,-1,1623,1177,0,0
406,-153,0,0,0,0,0,0,0,0,0,-1,1630,1177,0,0
413,-153,0,0,0,0,0,0,0,0,0,-1,1637,1177,0,0
420,-153,0,0,0,0,0,0,0,0,0,-1,1644,1177,0,0
427,-153,0,0,0,0,0,0,0,0,0,-1,1651,1177,0,0
434,-153,0,0,0,0,0,0,0,0,0,-1,1658,1177,0,0
441,-153,0,0,0,0,0,0,0,0,0,-1,1665,1177,0,0
448,-153,0,0,0,0,0,0,0,0,0,-1,1672,1177,0,0
455,-153,0,0,0,0,0,0,0,0,0,-1,1679,1177,0,0
462,-153,0,0,0,0,0,0,0,0,0,-1,1686,1177,0,0
469,-153,0,0,0,0,0,0,0,0,0,-1,1693,1177,0,0
476,-153,0,0,0,0,0,0,0,0,0,-1,1700,1177,0,0
483,-153,0,0,0,0,0,0,0,0,0,-1,1707,1177,0,0
490,-153,0,0,0,0,0,0,0,0,0,-1,1714,1177,0,0
497,-153,0,0,0,0,0,0,0,0,0,-1,1721,1177,0,0
504,-153,0,0,0,0,0,0,0,0,0,-1,1728,1177,0,0
511,-153,0,0,0,0,0,0,0,0,0,-1,1735,1177,0,0
518,-153,0,0,0,0,0,0,0,0,0,-1,1742,1177,0,0
525,-153,0,0,0,0,0,0,0,0,0,-1,1749,1177,0,0
532,-153,0,0,0,0,0,0,0,0,0,-1,1756,1177,0,0
539,-153,0,0,0,0,0,0,0,0,0,-1,1763,1177,0,0
546,-153,0,0,0,0,0,0,0,0,0,-1,1770,1177,0,0
553,-153,0,0,0,0,0,0,0,0,0,-1,1777,1177,0,0
560,-153,0,0,0,0,0,0,0,0,0,-1,1784,1177,0,0
567,-153,0,0,0,0,0,0,0,0,0,-1,1791,1177,0,0
574,-153,0,0,0,0,0,0,0,0,0,-1,1798,1177,0,0
581,-153,0,0,0,0,0,0,0,0,0,-1,1805,1177,0,0
588,-153,0,0,0,0,0,0,0,0,0,-1,1812,1177,0,0
595,-153,0,0,0,0,0,0,0,0,0,-1,1819,1177,0,0
602,-153,0,0,0,0,0,0,0,0,0,-1,1826,1177,0,0
609,-153,0,0,0,0,0,0,0,0,0,-1,1833,1177,0,0
616,-153,0,0,0,0,0,0,0,0,0,-1,1840,1177,0,0
623,-153,0,0,0,0,0,0,0,0,0,-1,1847,1177,0,0
630,-153,0,0,0,0,0,0,0,0,0,-1,1854,1177,0,0
637,-153,29.1498,2.43384,-0.00390744,-0.00152548,0.000980592,-0.00117374,-0.00425918,1.22639,0.00254027,0.0400409,1861,1177,29.1498,-2.43379
644,-153,29.1329,2.52319,-0.00281382,-0.000498401,0.000702448,-0.00030196,-0.00301026,1.29811,0.00191414,0.0377646,1868,1177,29.1329,-2.52324
651,-153,29.175,2.54749,-0.00178094,0.000425423,0.000183775,0.000440625,-0.00179615,1.48826,0.00136816,0.03143,1875,1177,29.175,-2.54753
658,-153,29.1842,2.51794,-0.000949178,0.00119939,-0.000353013,0.00125591,-0.00100569,-1.41205,0.0013084,0.0354751,1882,1177,29.1842,-2.51789
665,-153,29.1099,2.74597,-0.00132261,0.00157757,-3.03691e-05,0.00157789,-0.00132293,-1.56033,0.00167694,0.0389119,1889,1177,29.1099,-2.74603
672,-153,29.075,2.67993,-0.00214408,0.00162125,0.000558114,0.00170224,-0.00222507,1.4267,0.00227412,0.0376034,1896,1177,29.0749,-2.67997
679,-153,29.0739,2.54944,-0.00329595,0.00143948,0.00131477,0.00178003,-0.0036365,1.31735,0.00318787,0.0295371,1903,1177,29.0738,-2.54942
686,-153,29.0697,2.58948,-0.00444298,0.00117204,0.00206259,0.00184826,-0.0051192,1.25399,0.0041678,0.0172573,1910,1177,29.0697,-2.58952
693,-153,29.092,2.48193,-0.00525443,0.000995172,0.00261382,0.00194424,-0.0062035,1.2225,0.00491368,0.0243239,1917,1177,29.0921,-2.48195
700,-153,29.0907,2.28711,0,0,0,0,0,0,0,-1,1924,1177,29.0906,-2.28706
707,-153,26.0715,5.66077,0,0,0,0,0,0,0,-1,1931,1177,26.0715,-5.66071
714,-153,26.3304,5.27148,-0.00696837,6.03763e-05,0.00391393,0.0018062,-0.00871419,1.15123,0.00649578,0.0416169,1938,1177,26.3304,-5.2715
721,-153,26.3462,5.13831,-0.00708727,-0.000215052,0.00412981,0.00172119,-0.00902351,1.13238,0.00666392,0.031914,1945,1177,26.3461,-5.13825
728,-153,26.4768,4.92004,-0.00671611,-0.000292733,0.00433,0.00188667,-0.00889551,1.10449,0.00664906,0.0389278,1952,1177,26.4768,-4.92
735,-153,26.1625,4.86047,-0.00570471,-0.000134306,0.00418838,0.0021104,-0.00794941,1.07882,0.00612547,0.0184474,1959,1177,26.1625,-4.86051
742,-153,26.1653,4.69507,-0.00398118,0.000246404,0.00323784,0.00199935,-0.00573413,1.07458,0.00463524,0.0139826,1966,1177,26.1653,-4.69508
749,-153,26.1726,4.50269,-0.0016546,0.00102308,0.00167513,0.00182866,-0.00246018,1.12254,0.0024851,0.0154046,1973,1177,26.1726,-4.50268
756,-153,26.1675,4.30701,0.00075366,0.00308655,-0.000457293,0.00317298,0.000667224,-1.38398,0.00193171,0.011011,1980,1177,26.1675,-4.30706
763,-153,26.1558,4.13037,0.00325256,0.0059105,-0.00240834,0.00733221,0.00183085,-1.03752,0.00440652,0.0107602,1987,1177,26.1557,-4.13035
770,-153,26.1506,3.92383,0.00520464,0.00922778,-0.00466628,0.0122976,0.00213481,-0.988905,0.00758757,0.00977181,1994,1177,26.1506,-3.92387
777,-153,26.1437,3.7417,0.00673352,0.0139564,-0.00749041,0.0186605,0.00202938,-1.01003,0.0118221,0.0198393,2001,1177,26.1437,-3.74165
784,-153,26.2604,3.52649,0.00762905,0.0206271,-0.0111982,0.0270756,0.00118058,-1.04833,0.01767,0.0416979,2008,1177,26.2603,-3.52652
791,-153,26.693,3.39917,0.00748473,0.0298185,-0.0158876,0.0380711,-0.000767859,-1.09172,0.0256405,0.0444186,2015,1177,26.6929,-3.39917
798,-153,26.8345,3.30188,0.00623143,0.0422352,-0.0217363,0.0524562,-0.00398964,-1.13125,0.0363737,0.0434995,2022,1177,26.8345,-3.30189
805,-153,26.5632,2.69897,0.00289037,0.0586451,-0.0285317,0.0706576,-0.00912214,-1.1723,0.0504216,0.0431662,2029,1177,26.5631,-2.69903
812,-153,0,0,0,0,0,0,0,0,0,-1,2036,1177,0,0
-700,-160,0,0,0,0,0,0,0,0,0,-1,524,1184,0,0
-693,-160,0,0,0,0,0,0,0,0,0,-1,531,1184,0,0
-686,-160,-13.0553,1.2417,0,0,0,0,0,0,0,-1,538,1184,-13.0553,-1.24167
-679,-160,-14.1677,0.637207,0,0,0,0,0,0,0,-1,545,1184,-14.1677,-0.637214
-672,-160,-14.8019,0.735352,-0.0919863,-0.0087837,-0.0397272,0.00713819,-0.107908,-1.18962,0.0744324,0.0463084,552,1184,-14.802,-0.735368
-665,-160,-16.8461,0.23291,-0.0736881,-0.00452945,-0.0283444,0.00560294,-0.0838204,-1.22748,0.0578385,0.0447415,559,1184,-16.8461,-0.232958
-658,-160,-16.7764,0.331909,-0.0569579,-0.00154768,-0.0193249,0.00452625,-0.0630318,-1.26627,0.0436083,0.0498773,566,1184,-16.7764,-0.331944
-651,-160,-16.7996,0.53833,0,0,0,0,0,0,0,-1,573,1184,-16.7996,-0.538363
-644,-160,-16.7076,0.806519,-0.0304106,0.00141511,-0.00733305,0.00302346,-0.0320189,-1.35489,0.0224218,0.0371032,580,1184,-16.7076,-0.806472
-637,-160,-16.8715,1.29663,-0.0208327,0.00178945,-0.003831,0.00242061,-0.0214639,-1.40751,0.0151806,0.0141283,587,1184,-16.8715,-1.29669
-630,-160,-16.9318,1.52673,-0.013396,0.00196613,-0.00123252,0.00206439,-0.0134942,-1.49124,0.00975736,0.00868336,594,1184,-16.9318,-1.52676
-623,-160,-16.9703,1.74292,-0.0072867,0.00216389,0.000220931,0.00216905,-0.00729186,1.54744,0.00572296,0.0111044,601,1184,-16.9703,-1.74296
-616,-160,-16.9834,1.97913,-0.00350242,0.00116233,0.000657376,0.0012532,-0.00359329,1.43344,0.00290481,0.009831,608,1184,-16.9834,-1.97907
-609,-160,-16.9568,2.245,-0.0022306,0.000196323,8.51041e-06,0.000196353,-0.00223063,1.56729,0.00155667,0.0123674,615,1184,-16.9569,-2.24499
-602,-160,-16.9289,2.52979,-0.00262972,-0.000190188,-0.000676426,-1.51847e-05,-0.00280472,-1.31763,0.00186477,0.0238762,622,1184,-16.9289,-2.52983
-595,-160,-16.96,2.83496,-0.00325371,-0.000300234,-0.00145212,0.000294114,-0.00384805,-1.1823,0.00266881,0.0325449,629,1184,-16.96,-2.83494
-588,-160,-17.1012,3.19263,0,0,0,0,0,0,0,-1,636,1184,-17.1012,-3.19265
-581,-160,-16.971,3.20288,0,0,0,0,0,0,0,-1,643,1184,-16.971,-3.20287
-574,-160,-17.1544,3.44653,0,0,0,0,0,0,0,-1,650,1184,-17.1543,-3.4465
-567,-160,-20.2493,0.778809,0,0,0,0,0,0,0,-1,657,1184,-20.2493,-0.778771
-560,-160,-20.1882,0.722534,-0.0032166,0.00011055,-0.00342778,0.00225711,-0.00536317,-1.01132,0.00451975,0.0415927,664,1184,-20.1882,-0.722587
-553,-160,-20.1517,0.708374,-0.00262675,0.000319704,-0.00347513,0.00262099,-0.00492803,-0.985882,0.00442575,0.0399146,671,1184,-20.1517,-0.708402
-546,-160,-20.1349,0.758057,-0.00133365,0.00049229,-0.00327088,0.00297522,-0.00381659,-0.921495,0.00393127,0.0397971,678,1184,-20.1349,-0.758082
-539,-160,-20.3057,0.571167,0.00066881,0.000483329,-0.00263036,0.00320807,-0.00205593,-0.767777,0.00306334,0.0402014,685,1184,-20.3057,-0.571186
-532,-160,-20.1207,0.294189,0.00406174,0.000166335,-0.00123588,0.00442075,-0.00019268,-0.282712,0.00301345,0.0416369,692,1184,-20.1207,-0.294222
-525,-160,-19.9093,0.270142,0.00876486,-0.000563071,0.000831326,0.00883837,-0.000636581,0.088196,0.00611549,0.043321,699,1184,-19.9093,-0.270107
-518,-160,-20.0201,0.535156,0.0121496,-0.0014016,0.00256661,0.0126194,-0.00187143,0.18105,0.0091011,0.040018,706,1184,-20.0201,-0.535201
-511,-160,0,0,0,0,0,0,0,0,0,-1,713,1184,0,0
-504,-160,0,0,0,0,0,0,0,0,0,-1,720,1184,0,0
-497,-160,0,0,0,0,0,0,0,0,0,-1,727,1184,0,0
-490,-160,0,0,0,0,0,0,0,0,0,-1,734,1184,0,0
-483,-160,0,0,0,0,0,0,0,0,0,-1,741,1184,0,0
-476,-160,0,0,0,0,0,0,0,0,0,-1,748,1184,0,0
-469,-160,0,0,0,0,0,0,0,0,0,-1,755,1184,0,0
-462,-160,0,0,0,0,0,0,0,0,0,-1,762,1184,0,0
-455,-160,0,0,0,0,0,0,0,0,0,-1,769,1184,0,0
-448,-160,0,0,0,0,0,0,0,0,0,-1,776,1184,0,0
-441,-160,0,0,0,0,0,0,0,0,0,-1,783,1184,0,0
-434,-160,0,0,0,0,0,0,0,0,0,-1,790,1184,0,0
-427,-160,0,0,0,0,0,0,0,0,0,-1,797,1184,0,0
-420,-160,0,0,0,0,0,0,0,0,0,-1,804,1184,0,0
-413,-160,0,0,0,0,0,0,0,0,0,-1,811,1184,0,0
-406,-160,0,0,0,0,0,0,0,0,0,-1,818,1184,0,0
-399,-160,0,0,0,0,0,0,0,0,0,-1,825,1184,0,0
-392,-160,0,0,0,0,0,0,0,0,0,-1,832,1184,0,0
-385,-160,0,0,0,0,0,0,0,0,0,-1,839,1184,0,0
-378,-160,0,0,0,0,0,0,0,0,0,-1,846,1184,0,0
-371,-160,0,0,0,0,0,0,0,0,0,-1,853,1184,0,0
-364,-160,0,0,0,0,0,0,0,0,0,-1,860,1184,0,0
-357,-160,0,0,0,0,0,0,0,0,0,-1,867,1184,0,0
-350,-160,0,0,0,0,0,0,0,0,0,-1,874,1184,0,0
-343,-160,0,0,0,0,0,0,0,0,0,-1,881,1184,0,0
-336,-160,0,0,0,0,0,0,0,0,0,-1,888,1184,0,0
-329,-160,0,0,0,0,0,0,0,0,0,-1,895,1184,0,0
-322,-160,0,0,0,0,0,0,0,0,0,-1,902,1184,0,0
-315,-160,0,0,0,0,0,0,0,0,0,-1,909,1184,0,0
-308,-160,0,0,0,0,0,0,0,0,0,-1,916,1184,0,0
-301,-160,0,0,0,0,0,0,0,0,0,-1,923,1184,0,0
-294,-160,0,0,0,0,0,0,0,0,0,-1,930,1184,0,0
-287,-160,0,0,0,0,0,0,0,0,0,-1,937,1184,0,0
-280,-160,0,0,0,0,0,0,0,0,0,-1,944,1184,0,0
-273,-160,0,0,0,0,0,0,0,0,0,-1,951,1184,0,0
-266,-160,0,0,0,0,0,0,0,0,0,-1,958,1184,0,0
-259,-160,0,0,0,0,0,0,0,0,0,-1,965,1184,0,0
-252,-160,0,0,0,0,0,0,0,0,0,-1,972,1184,0,0
-245,-160,0,0,0,0,0,0,0,0,0,-1,979,1184,0,0
-238,-160,0,0,0,0,0,0,0,0,0,-1,986,1184,0,0
-231,-160,0,0,0,0,0,0,0,0,0,-1,993,1184,0,0
-224,-160,0,0,0,0,0,0,0,0,0,-1,1000,1184,0,0
-217,-160,0,0,0,0,0,0,0,0,0,-1,1007,1184,0,0
-210,-160,0,0,0,0,0,0,0,0,0,-1,1014,1184,0,0
-203,-160,0,0,0,0,0,0,0,0,0,-1,1021,1184,0,0
-196,-160,0,0,0,0,0,0,0,0,0,-1,1028,1184,0,0
-189,-160,0,0,0,0,0,0,0,0,0,-1,1035,1184,0,0
-182,-160,0,0,0,0,0,0,0,0,0,-1,1042,1184,0,0
-175,-160,0,0,0,0,0,0,0,0,0,-1,1049,1184,0,0
-168,-160,0,0,0,0,0,0,0,0,0,-1,1056,1184,0,0
-161,-160,0,0,0,0,0,0,0,0,0,-1,1063,1184,0,0
-154,-160,0,0,0,0,0,0,0,0,0,-1,1070,1184,0,0
-147,-160,0,0,0,0,0,0,0,0,0,-1,1077,1184,0,0
-140,-160,0,0,0,0,0,0,0,0,0,-1,1084,1184,0,0
-133,-160,0,0,0,0,0,0,0,0,0,-1,1091,1184,0,0
-126,-160,0,0,0,0,0,0,0,0,0,-1,1098,1184,0,0
-119,-160,0,0,0,0,0,0,0,0,0,-1,1105,1184,0,0
-112,-160,0,0,0,0,0,0,0,0,0,-1,1112,1184,0,0
-105,-160,0,0,0,0,0,0,0,0,0,-1,1119,1184,0,0
-98,-160,0,0,0,0,0,0,0,0,0,-1,1126,1184,0,0
-91,-160,0,0,0,0,0,0,0,0,0,-1,1133,1184,0,0
-84,-160,0,0,0,0,0,0,0,0,0,-1,1140,1184,0,0
-77,-160,0,0,0,0,0,0,0,0,0,-1,1147,1184,0,0
-70,-160,0,0,0,0,0,0,0,0,0,-1,1154,1184,0,0
-63,-160,0,0,0,0,0,0,0,0,0,-1,1161,1184,0,0
-56,-160,0,0,0,0,0,0,0,0,0,-1,1168,1184,0,0
-49,-160,0,0,0,0,0,0,0,0,0,-1,1175,1184,0,0
-42,-160,0,0,0,0,0,0,0,0,0,-1,1182,1184,0,0
-35,-160,0,0,0,0,0,0,0,0,0,-1,1189,1184,0,0
-28,-160,0,0,0,0,0,0,0,0,0,-1,1196,1184,0,0
-21,-160,0,0,0,0,0,0,0,0,0,-1,1203,1184,0,0
-14,-160,0,0,0,0,0,0,0,0,0,-1,1210,1184,0,0
-7,-160,0,0,0,0,0,0,0,0,0,-1,1217,1184,0,0
0,-160,0,0,0,0,0,0,0,0,0,-1,1224,1184,0,0
7,-160,0,0,0,0,0,0,0,0,0,-1,1231,1184,0,0
14,-160,0,0,0,0,0,0,0,0,0,-1,1238,1184,0,0
21,-160,0,0,0,0,0,0,0,0,0,-1,1245,1184,0,0
28,-160,0,0,0,0,0,0,0,0,0,-1,1252,1184,0,0
35,-160,0,0,0,0,0,0,0,0,0,-1,1259,1184,0,0
42,-160,0,0,0,0,0,0,0,0,0,-1,1266,1184,0,0
49,-160,0,0,0,0,0,0,0,0,0,-1,1273,1184,0,0
56,-160,0,0,0,0,0,0,0,0,0,-1,1280,1184,0,0
63,-160,0,0,0,0,0,0,0,0,0,-1,1287,1184,0,0
70,-160,0,0,0,0,0,0,0,0,0,-1,1294,1184,0,0
77,-160,0,0,0,0,0,0,0,0,0,-1,1301,1184,0,0
84,-160,0,0,0,0,0,0,0,0,0,-1,1308,1184,0,0
91,-160,0,0,0,0,0,0,0,0,0,-1,1315,1184,0,0
98,-160,0,0,0,0,0,0,0,0,0,-1,1322,1184,0,0
105,-160,0,0,0,0,0,0,0,0,0,-1,1329,1184,0,0
112,-160,0,0,0,0,0,0,0,0,0,-1,1336,1184,0,0
119,-160,0,0,0,0,0,0,0,0,0,-1,1343,1184,0,0
126,-160,0,0,0,0,0,0,0,0,0,-1,1350,1184,0,0
133,-160,0,0,0,0,0,0,0,0,0,-1,1357,1184,0,0
140,-160,0,0,0,0,0,0,0,0,0,-1,1364,1184,0,0
147,-160,0,0,0,0,0,0,0,0,0,-1,1371,1184,0,0
154,-160,0,0,0,0,0,0,0,0,0,-1,1378,1184,0,0
161,-160,0,0,0,0,0,0,0,0,0,-1,1385,1184,0,0
168,-160,0,0,0,0,0,0,0,0,0,-1,1392,1184,0,0
175,-160,0,0,0,0,0,0,0,0,0,-1,1399,1184,0,0
182,-160,0,0,0,0,0,0,0,0,0,-1,1406,1184,0,0
189,-160,0,0,0,0,0,0,0,0,0,-1,1413,1184,0,0
196,-160,0,0,0,0,0,0,0,0,0,-1,1420,1184,0,0
203,-160,0,0,0,0,0,0,0,0,0,-1,1427,1184,0,0
210,-160,0,0,0,0,0,0,0,0,0,-1,1434,1184,0,0
217,-160,0,0,0,0,0,0,0,0,0,-1,1441,1184,0,0
224,-160,0,0,0,0,0,0,0,0,0,-1,1448,1184,0,0
231,-160,0,0,0,0,0,0,0,0,0,-1,1455,1184,0,0
238,-160,0,0,0,0,0,0,0,0,0,-1,1462,1184,0,0
245,-160,0,0,0,0,0,0,0,0,0,-1,1469,1184,0,0
252,-160,0,0,0,0,0,0,0,0,0,-1,1476,1184,0,0
259,-160,0,0,0,0,0,0,0,0,0,-1,1483,1184,0,0
266,-160,0,0,0,0,0,0,0,0,0,-1,1490,1184,0,0
273,-160,0,0,0,0,0,0,0,0,0,-1,1497,1184,0,0
280,-160,0,0,0,0,0,0,0,0,0,-1,1504,1184,0,0
287,-160,0,0,0,0,0,0,0,0,0,-1,1511,1184,0,0
294,-160,0,0,0,0,0,0,0,0,0,-1,1518,1184,0,0
301,-160,0,0,0,0,0,0,0,0,0,-1,1525,1184,0,0
308,-160,0,0,0,0,0,0,0,0,0,-1,1532,1184,0,0
315,-160,0,0,0,0,0,0,0,0,0,-1,1539,1184,0,0
322,-160,0,0,0,0,0,0,0,0,0,-1,1546,1184,0,0
329,-160,0,0,0,0,0,0,0,0,0,-1,1553,1184,0,0
336,-160,0,0,0,0,0,0,0,0,0,-1,1560,1184,0,0
343,-160,0,0,0,0,0,0,0,0,0,-1,1567,1184,0,0
350,-160,0,0,0,0,0,0,0,0,0,-1,1574,1184,0,0
357,-160,0,0,0,0,0,0,0,0,0,-1,1581,1184,0,0
364,-160,0,0,0,0,0,0,0,0,0,-1,1588,1184,0,0
371,-160,0,0,0,0,0,0,0,0,0,-1,1595,1184,0,0
378,-160,0,0,0,0,0,0,0,0,0,-1,1602,1184,0,0
385,-160,0,0,0,0,0,0,0,0,0,-1,1609,1184,0,0
392,-160,0,0,0,0,0,0,0,0,0,-1,1616,1184,0,0
399,-160,0,0,0,0,0,0,0,0,0,-1,1623,1184,0,0
406,-160,0,0,0,0,0,0,0,0,0,-1,1630,1184,0,0
413,-160,0,0,0,0,0,0,0,0,0,-1,1637,1184,0,0
420,-160,0,0,0,0,0,0,0,0,0,-1,1644,1184,0,0
427,-160,0,0,0,0,0,0,0,0,0,-1,1651,1184,0,0
434,-160,0,0,0,0,0,0,0,0,0,-1,1658,1184,0,0
441,-160,0,0,0,0,0,0,0,0,0,-1,1665,1184,0,0
448,-160,0,0,0,0,0,0,0,0,0,-1,1672,1184,0,0
455,-160,0,0,0,0,0,0,0,0,0,-1,1679,1184,0,0
462,-160,0,0,0,0,0,0,0,0,0,-1,1686,1184,0,0
469,-160,0,0,0,0,0,0,0,0,0,-1,1693,1184,0,0
476,-160,0,0,0,0,0,0,0,0,0,-1,1700,1184,0,0
483,-160,0,0,0,0,0,0,0,0,0,-1,1707,1184,0,0
490,-160,0,0,0,0,0,0,0,0,0,-1,1714,1184,0,0
497,-160,0,0,0,0,0,0,0,0,0,-1,1721,1184,0,0
504,-160,0,0,0,0,0,0,0,0,0,-1,1728,1184,0,0
511,-160,0,0,0,0,0,0,0,0,0,-1,1735,1184,0,0
518,-160,0,0,0,0,0,0,0,0,0,-1,1742,1184,0,0
525,-160,0,0,0,0,0,0,0,0,0,-1,1749,1184,0,0
532,-160,0,0,0,0,0,0,0,0,0,-1,1756,1184,0,0
539,-160,0,0,0,0,0,0,0,0,0,-1,1763,1184,0,0
546,-160,0,0,0,0,0,0,0,0,0,-1,1770,1184,0,0
553,-160,0,0,0,0,0,0,0,0,0,-1,1777,1184,0,0
560,-160,0,0,0,0,0,0,0,0,0,-1,1784,1184,0,0
567,-160,0,0,0,0,0,0,0,0,0,-1,1791,1184,0,0
574,-160,0,0,0,0,0,0,0,0,0,-1,1798,1184,0,0
581,-160,0,0,0,0,0,0,0,0,0,-1,1805,1184,0,0
588,-160,0,0,0,0,0,0,0,0,0,-1,1812,1184,0,0
595,-160,0,0,0,0,0,0,0,0,0,-1,1819,1184,0,0
602,-160,0,0,0,0,0,0,0,0,0,-1,1826,1184,0,0
609,-160,0,0,0,0,0,0,0,0,0,-1,1833,1184,0,0
616,-160,0,0,0,0,0,0,0,0,0,-1,1840,1184,0,0
623,-160,0,0,0,0,0,0,0,0,0,-1,1847,1184,0,0
630,-160,0,0,0,0,0,0,0,0,0,-1,1854,1184,0,0
637,-160,29.0507,2.37952,-0.00309327,-0.00160602,0.00120661,-0.000932288,-0.003767,1.06155,0.00226544,0.0426389,1861,1184,29.0507,-2.37947
644,-160,28.9503,2.48608,-0.00205911,-0.000403645,0.000837793,-5.36512e-05,-0.0024091,1.17508,0.00158849,0.0428955,1868,1184,28.9504,-2.48611
651,-160,29.0601,2.52344,-0.00105262,0.000696234,0.00020619,0.000720215,-0.0010766,1.45501,0.00104417,0.0394822,1875,1184,29.0601,-2.52339
658,-160,29.0453,2.59338,-0.000353495,0.00158474,-0.000371204,0.0016534,-0.000422155,-1.3879,0.00126666,0.0404352,1882,1184,29.0452,-2.59343
665,-160,29.068,2.69128,-0.000626019,0.00205044,-0.000246546,0.00207296,-0.00064854,-1.4797,0.00164143,0.0391364,1889,1184,29.0681,-2.69126
672,-160,29.1322,2.64331,-0.00126752,0.00211729,9.89054e-05,0.00212018,-0.0012704,1.54161,0.00197794,0.0344791,1896,1184,29.1322,-2.64327
679,-160,29.1074,2.52222,-0.00227472,0.00192788,0.000677444,0.00203438,-0.00238122,1.41486,0.00255197,0.0251211,1903,1184,29.1074,-2.52218
686,-160,29.0906,2.58557,-0.00328718,0.00164537,0.00126238,0.00194968,-0.00359149,1.33425,0.00324566,0.0152513,1910,1184,29.0906,-2.5856
693,-160,29.0765,2.44458,-0.00401322,0.00146623,0.00170818,0.00195512,-0.00450211,1.29204,0.00382354,0.0390901,1917,1184,29.0766,-2.44463
700,-160,29.0734,2.23792,0,0,0,0,0,0,0,-1,1924,1184,29.0734,-2.23792
707,-160,24.5115,6.27405,0,0,0,0,0,0,0,-1,1931,1184,24.5115,-6.27401
714,-160,26.0256,5.2323,0,0,0,0,0,0,0,-1,1938,1184,26.0256,-5.23224
721,-160,26.2178,5.03088,-0.00588319,4.09471e-05,0.00315802,0.00140865,-0.0072509,1.16209,0.00536548,0.0259885,1945,1184,26.2178,-5.0309
728,-160,26.2236,4.95313,-0.00555358,-0.000116182,0.00341982,0.00153393,-0.00720369,1.12124,0.00538707,0.0237245,1952,1184,26.2236,-4.95311
735,-160,26.0033,4.87366,-0.00458245,1.26688e-05,0.00330592,0.00174101,-0.00631079,1.08907,0.00489191,0.0144736,1959,1184,26.0033,-4.87363
742,-160,26.0005,4.65344,-0.00285377,0.00041083,0.00250115,0.00176519,-0.00420814,1.07451,0.00354354,0.015027,1966,1184,26.0005,-4.65344
749,-160,25.9962,4.46289,-0.000459091,0.00123636,0.00102375,0.00171781,-0.000940539,1.13121,0.00155651,0.0166712,1973,1184,25.9962,-4.4629
756,-160,25.9755,4.30615,0.00203062,0.00320772,-0.00114775,0.00390902,0.00132932,-1.02231,0.00229504,0.0109173,1980,1184,25.9755,-4.30611
763,-160,25.9592,4.11023,0.00464209,0.00578259,-0.00323433,0.00849656,0.00192812,-0.872658,0.00514357,0.0116084,1987,1184,25.9592,-4.11021
770,-160,25.929,3.8822,0.00688293,0.00889794,-0.00586033,0.0138367,0.00194413,-0.870526,0.00864959,0.0184564,1994,1184,25.929,-3.88219
777,-160,25.9321,3.69287,0.00888401,0.0132928,-0.00946646,0.0208082,0.00136869,-0.899792,0.0134391,0.0327555,2001,1184,25.9322,-3.69289
784,-160,25.9602,3.47559,0,0,0,0,0,0,0,-1,2008,1184,25.9602,-3.47555
791,-160,27.2301,3.23425,0.0104759,0.027519,-0.0208558,0.041527,-0.00353209,-0.979345,0.028934,0.0437121,2015,1184,27.2301,-3.2342
798,-160,27.2664,3.06421,0.00962053,0.0383102,-0.0294358,0.0567105,-0.00877975,-1.01213,0.0410478,0.043618,2022,1184,27.2663,-3.06415
805,-160,27.1355,2.37769,0.0064723,0.0521969,-0.040222,0.0756001,-0.0169309,-1.04383,0.0568898,0.0466303,2029,1184,27.1355,-2.37765
812,-160,0,0,0,0,0,0,0,0,0,-1,2036,1184,0,0
-700,-167,0,0,0,0,0,0,0,0,0,-1,524,1191,0,0
-693,-167,0,0,0,0,0,0,0,0,0,-1,531,1191,0,0
-686,-167,-11.7767,1.54541,-0.151102,-0.0291532,-0.0701927,0.00285034,-0.183106,-1.14302,0.123032,0.0483142,538,1191,-11.7767,-1.54543
-679,-167,-12.5687,1.43445,-0.123777,-0.019829,-0.0523137,0.00193997,-0.145546,-1.17647,0.0976835,0.0461666,545,1191,-12.5687,-1.43441
-672,-167,-13.5989,1.31738,-0.0993761,-0.0129185,-0.0382013,0.00154207,-0.113837,-1.20893,0.0764104,0.047161,552,1191,-13.5989,-1.31732
-665,-167,-16.4855,0.0610352,-0.077978,-0.0077969,-0.0269692,0.00136956,-0.0871445,-1.24316,0.0585582,0.0463584,559,1191,-16.4855,-0.0609852
-658,-167,-15.594,-0.627563,0,0,0,0,0,0,0,-1,566,1191,-15.594,0.627583
-651,-167,-16.0746,-0.0373535,-0.0439547,-0.00155589,-0.0113715,0.00130143,-0.046812,-1.32462,0.0316507,0.0479651,573,1191,-16.0746,0.0373379
-644,-167,-16.4491,0.747437,-0.0313816,3.76029e-05,-0.00645468,0.00131195,-0.032656,-1.37587,0.0222209,0.0379172,580,1191,-16.4491,-0.747439
-637,-167,-16.6247,1.2948,-0.0214888,0.000874654,-0.00308718,0.001293,-0.0219072,-1.43611,0.0150543,0.0161741,587,1191,-16.6247,-1.29479
-630,-167,-16.6945,1.50598,-0.0137183,0.00142559,-0.000629823,0.00145174,-0.0137445,-1.5293,0.00968324,0.00850483,594,1191,-16.6944,-1.50596
-623,-167,-16.7178,1.72498,-0.00748804,0.00197143,0.000675864,0.00201948,-0.00753609,1.49983,0.0058153,0.0106721,601,1191,-16.7178,-1.72499
-616,-167,-16.7246,1.97632,-0.003897,0.00116052,0.0010049,0.00135287,-0.00408935,1.38167,0.00327179,0.0139351,608,1191,-16.7246,-1.97627
-609,-167,-16.731,2.23694,-0.00283634,0.000252646,0.000111314,0.000256652,-0.00284034,1.53482,0.00198465,0.0133259,615,1191,-16.731,-2.23689
-602,-167,-16.7267,2.46887,-0.00342663,-0.000107964,-0.000801706,7.55583e-05,-0.00361016,-1.34576,0.00243235,0.0145276,622,1191,-16.7267,-2.46888
-595,-167,-16.736,2.71118,-0.00414308,-0.000138923,-0.0017147,0.000495001,-0.00477701,-1.21668,0.00336184,0.0238584,629,1191,-16.736,-2.71112
-588,-167,-16.7953,2.95789,-0.00455336,6.69511e-05,-0.00262708,0.00125514,-0.00574154,-1.14605,0.00430747,0.0243512,636,1191,-16.7953,-2.95794
-581,-167,-16.8025,3.08972,0,0,0,0,0,0,0,-1,643,1191,-16.8025,-3.08978
-574,-167,-16.9545,2.30688,0,0,0,0,0,0,0,-1,650,1191,-16.9544,-2.30683
-567,-167,-18.7039,1.54736,-0.00438276,0.000182,-0.00350861,0.00208526,-0.00628602,-1.07376,0.00503191,0.0462452,657,1191,-18.7039,-1.54735
-560,-167,-20.1194,0.674805,-0.00417003,0.000354979,-0.00364154,0.00237964,-0.00619469,-1.06337,0.00511112,0.0422368,664,1191,-20.1195,-0.674837
-553,-167,-20.1132,0.655396,-0.00352612,0.000552524,-0.00358845,0.00264065,-0.00561424,-1.04379,0.00486795,0.0380619,671,1191,-20.1132,-0.655441
-546,-167,-20.1256,0.755127,-0.00216951,0.000670354,-0.00327257,0.00281776,-0.00431692,-0.990086,0.00414941,0.0349651,678,1191,-20.1256,-0.755116
-539,-167,-20.0955,0.722168,-0.000101434,0.000549909,-0.00253757,0.00278262,-0.00233414,-0.849219,0.00295794,0.0373497,685,1191,-20.0955,-0.722222
-532,-167,-20.0396,0.416748,0.00324461,6.60596e-06,-0.00110901,0.00358803,-0.000336809,-0.300293,0.00251183,0.0417508,692,1191,-20.0396,-0.416719
-525,-167,-20.0549,0.301636,0.00798216,-0.0012209,0.00101317,0.00809238,-0.00133112,0.108361,0.00588899,0.043099,699,1191,-20.0549,-0.301617
-518,-167,-20.1342,0.516357,0.0115435,-0.00290728,0.0027591,0.0120524,-0.00341616,0.182387,0.00938326,0.0419502,706,1191,-20.1342,-0.51632
-511,-167,0,0,0,0,0,0,0,0,0,-1,713,1191,0,0
-504,-167,0,0,0,0,0,0,0,0,0,-1,720,1191,0,0
-497,-167,0,0,0,0,0,0,0,0,0,-1,727,1191,0,0
-490,-167,0,0,0,0,0,0,0,0,0,-1,734,1191,0,0
-483,-167,0,0,0,0,0,0,0,0,0,-1,741,1191,0,0
-476,-167,0,0,0,0,0,0,0,0,0,-1,748,1191,0,0
-469,-167,0,0,0,0,0,0,0,0,0,-1,755,1191,0,0
-462,-167,0,0,0,0,0,0,0,0,0,-1,762,1191,0,0
-455,-167,0,0,0,0,0,0,0,0,0,-1,769,1191,0,0
-448,-167,0,0,0,0,0,0,0,0,0,-1,776,1191,0,0
-441,-167,0,0,0,0,0,0,0,0,0,-1,783,1191,0,0
-434,-167,0,0,0,0,0,0,0,0,0,-1,790,1191,0,0
-427,-167,0,0,0,0,0,0,0,0,0,-1,797,1191,0,0
-420,-167,0,0,0,0,0,0,0,0,0,-1,804,1191,0,0
-413,-167,0,0,0,0,0,0,0,0,0,-1,811,1191,0,0
-406,-167,0,0,0,0,0,0,0,0,0,-1,818,1191,0,0
-399,-167,0,0,0,0,0,0,0,0,0,-1,825,1191,0,0
-392,-167,0,0,0,0,0,0,0,0,0,-1,832,1191,0,0
-385,-167,0,0,0,0,0,0,0,0,0,-1,839,1191,0,0
-378,-167,0,0,0,0,0,0,0,0,0,-1,846,1191,0,0
-371,-167,0,0,0,0,0,0,0,0,0,-1,853,1191,0,0
-364,-167,0,0,0,0,0,0,0,0,0,-1,860,1191,0,0
-357,-167,0,0,0,0,0,0,0,0,0,-1,867,1191,0,0
-350,-167,0,0,0,0,0,0,0,0,0,-1,874,1191,0,0
-343,-167,0,0,0,0,0,0,0,0,0,-1,881,1191,0,0
-336,-167,0,0,0,0,0,0,0,0,0,-1,888,1191,0,0
-329,-167,0,0,0,0,0,0,0,0,0,-1,895,1191,0,0
-322,-167,0,0,0,0,0,0,0,0,0,-1,902,1191,0,0
-315,-167,0,0,0,0,0,0,0,0,0,-1,909,1191,0,0
-308,-167,0,0,0,0,0,0,0,0,0,-1,916,1191,0,0
-301,-167,0,0,0,0,0,0,0,0,0,-1,923,1191,0,0
-294,-167,0,0,0,0,0,0,0,0,0,-1,930,1191,0,0
-287,-167,0,0,0,0,0,0,0,0,0,-1,937,1191,0,0
-280,-167,0,0,0,0,0,0,0,0,0,-1,944,1191,0,0
-273,-167,0,0,0,0,0,0,0,0,0,-1,951,1191,0,0
-266,-167,0,0,0,0,0,0,0,0,0,-1,958,1191,0,0
-259,-167,0,0,0,0,0,0,0,0,0,-1,965,1191,0,0
-252,-167,0,0,0,0,0,0,0,0,0,-1,972,1191,0,0
-245,-167,0,0,0,0,0,0,0,0,0,-1,979,1191,0,0
-238,-167,0,0,0,0,0,0,0,0,0,-1,986,1191,0,0
-231,-167,0,0,0,0,0,0,0,0,0,-1,993,1191,0,0
-224,-167,0,0,0,0,0,0,0,0,0,-1,1000,1191,0,0
-217,-167,0,0,0,0,0,0,0,0,0,-1,1007,1191,0,0
-210,-167,0,0,0,0,0,0,0,0,0,-1,1014,1191,0,0
-203,-167,0,0,0,0,0,0,0,0,0,-1,1021,1191,0,0
-196,-167,0,0,0,0,0,0,0,0,0,-1,1028,1191,0,0
-189,-167,0,0,0,0,0,0,0,0,0,-1,1035,1191,0,0
-182,-167,0,0,0,0,0,0,0,0,0,-1,1042,1191,0,0
-175,-167,0,0,0,0,0,0,0,0,0,-1,1049,1191,0,0
-168,-167,0,0,0,0,0,0,0,0,0,-1,1056,1191,0,0
-161,-167,0,0,0,0,0,0,0,0,0,-1,1063,1191,0,0
-154,-167,0,0,0,0,0,0,0,0,0,-1,1070,1191,0,0
-147,-167,0,0,0,0,0,0,0,0,0,-1,1077,1191,0,0
-140,-167,0,0,0,0,0,0,0,0,0,-1,1084,1191,0,0
-133,-167,0,0,0,0,0,0,0,0,0,-1,1091,1191,0,0
-126,-167,0,0,0,0,0,0,0,0,0,-1,1098,1191,0,0
-119,-167,0,0,0,0,0,0,0,0,0,-1,1105,1191,0,0
-112,-167,0,0,0,0,0,0,0,0,0,-1,1112,1191,0,0
-105,-167,0,0,0,0,0,0,0,0,0,-1,1119,1191,0,0
-98,-167,0,0,0,0,0,0,0,0,0,-1,1126,1191,0,0
-91,-167,0,0,0,0,0,0,0,0,0,-1,1133,1191,0,0
-84,-167,0,0,0,0,0,0,0,0,0,-1,1140,1191,0,0
-77,-167,0,0,0,0,0,0,0,0,0,-1,1147,1191,0,0
-70,-167,0,0,0,0,0,0,0,0,0,-1,1154,1191,0,0
-63,-167,0,0,0,0,0,0,0,0,0,-1,1161,1191,0,0
-56,-167,0,0,0,0,0,0,0,0,0,-1,1168,1191,0,0
-49,-167,0,0,0,0,0,0,0,0,0,-1,1175,1191,0,0
-42,-167,0,0,0,0,0,0,0,0,0,-1,1182,1191,0,0
-35,-167,0,0,0,0,0,0,0,0,0,-1,1189,1191,0,0
-28,-167,0,0,0,0,0,0,0,0,0,-1,1196,1191,0,0
-21,-167,0,0,0,0,0,0,0,0,0,-1,1203,1191,0,0
-14,-167,0,0,0,0,0,0,0,0,0,-1,1210,1191,0,0
-7,-167,0,0,0,0,0,0,0,0,0,-1,1217,1191,0,0
0,-167,0,0,0,0,0,0,0,0,0,-1,1224,1191,0,0
7,-167,0,0,0,0,0,0,0,0,0,-1,1231,1191,0,0
14,-167,0,0,0,0,0,0,0,0,0,-1,1238,1191,0,0
21,-167,0,0,0,0,0,0,0,0,0,-1,1245,1191,0,0
28,-167,0,0,0,0,0,0,0,0,0,-1,1252,1191,0,0
35,-167,0,0,0,0,0,0,0,0,0,-1,1259,1191,0,0
42,-167,0,0,0,0,0,0,0,0,0,-1,1266,1191,0,0
49,-167,0,0,0,0,0,0,0,0,0,-1,1273,1191,0,0
56,-167,0,0,0,0,0,0,0,0,0,-1,1280,1191,0,0
63,-167,0,0,0,0,0,0,0,0,0,-1,1287,1191,0,0
70,-167,0,0,0,0,0,0,0,0,0,-1,1294,1191,0,0
77,-167,0,0,0,0,0,0,0,0,0,-1,1301,1191,0,0
84,-167,0,0,0,0,0,0,0,0,0,-1,1308,1191,0,0
91,-167,0,0,0,0,0,0,0,0,0,-1,1315,1191,0,0
98,-167,0,0,0,0,0,0,0,0,0,-1,1322,1191,0,0
105,-167,0,0,0,0,0,0,0,0,0,-1,1329,1191,0,0
112,-167,0,0,0,0,0,0,0,0,0,-1,1336,1191,0,0
119,-167,0,0,0,0,0,0,0,0,0,-1,1343,1191,0,0
126,-167,0,0,0,0,0,0,0,0,0,-1,1350,1191,0,0
133,-167,0,0,0,0,0,0,0,0,0,-1,1357,1191,0,0
140,-167,0,0,0,0,0,0,0,0,0,-1,1364,1191,0,0
147,-167,0,0,0,0,0,0,0,0,0,-1,1371,1191,0,0
154,-167,0,0,0,0,0,0,0,0,0,-1,1378,1191,0,0
161,-167,0,0,0,0,0,0,0,0,0,-1,1385,1191,0,0
168,-167,0,0,0,0,0,0,0,0,0,-1,1392,1191,0,0
175,-167,0,0,0,0,0,0,0,0,0,-1,1399,1191,0,0
182,-167,0,0,0,0,0,0,0,0,0,-1,1406,1191,0,0
189,-167,0,0,0,0,0,0,0,0,0,-1,1413,1191,0,0
196,-167,0,0,0,0,0,0,0,0,0,-1,1420,1191,0,0
203,-167,0,0,0,0,0,0,0,0,0,-1,1427,1191,0,0
210,-167,0,0,0,0,0,0,0,0,0,-1,1434,1191,0,0
217,-167,0,0,0,0,0,0,0,0,0,-1,1441,1191,0,0
224,-167,0,0,0,0,0,0,0,0,0,-1,1448,1191,0,0
231,-167,0,0,0,0,0,0,0,0,0,-1,1455,1191,0,0
238,-167,0,0,0,0,0,0,0,0,0,-1,1462,1191,0,0
245,-167,0,0,0,0,0,0,0,0,0,-1,1469,1191,0,0
252,-167,0,0,0,0,0,0,0,0,0,-1,1476,1191,0,0
259,-167,0,0,0,0,0,0,0,0,0,-1,1483,1191,0,0
266,-167,0,0,0,0,0,0,0,0,0,-1,1490,1191,0,0
273,-167,0,0,0,0,0,0,0,0,0,-1,1497,1191,0,0
280,-167,0,0,0,0,0,0,0,0,0,-1,1504,1191,0,0
287,-167,0,0,0,0,0,0,0,0,0,-1,1511,1191,0,0
294,-167,0,0,0,0,0,0,0,0,0,-1,1518,1191,0,0
301,-167,0,0,0,0,0,0,0,0,0,-1,1525,1191,0,0
308,-167,0,0,0,0,0,0,0,0,0,-1,1532,1191,0,0
315,-167,0,0,0,0,0,0,0,0,0,-1,1539,1191,0,0
322,-167,0,0,0,0,0,0,0,0,0,-1,1546,1191,0,0
329,-167,0,0,0,0,0,0,0,0,0,-1,1553,1191,0,0
336,-167,0,0,0,0,0,0,0,0,0,-1,1560,1191,0,0
343,-167,0,0,0,0,0,0,0,0,0,-1,1567,1191,0,0
350,-167,0,0,0,0,0,0,0,0,0,-1,1574,1191,0,0
357,-167,0,0,0,0,0,0,0,0,0,-1,1581,1191,0,0
364,-167,0,0,0,0,0,0,0,0,0,-1,1588,1191,0,0
371,-167,0,0,0,0,0,0,0,0,0,-1,1595,1191,0,0
378,-167,0,0,0,0,0,0,0,0,0,-1,1602,1191,0,0
385,-167,0,0,0,0,0,0,0,0,0,-1,1609,1191,0,0
392,-167,0,0,0,0,0,0,0,0,0,-1,1616,1191,0,0
399,-167,0,0,0,0,0,0,0,0,0,-1,1623,1191,0,0
406,-167,0,0,0,0,0,0,0,0,0,-1,1630,1191,0,0
413,-167,0,0,0,0,0,0,0,0,0,-1,1637,1191,0,0
420,-167,0,0,0,0,0,0,0,0,0,-1,1644,1191,0,0
427,-167,0,0,0,0,0,0,0,0,0,-1,1651,1191,0,0
434,-167,0,0,0,0,0,0,0,0,0,-1,1658,1191,0,0
441,-167,0,0,0,0,0,0,0,0,0,-1,1665,1191,0,0
448,-167,0,0,0,0,0,0,0,0,0,-1,1672,1191,0,0
455,-167,0,0,0,0,0,0,0,0,0,-1,1679,1191,0,0
462,-167,0,0,0,0,0,0,0,0,0,-1,1686,1191,0,0
469,-167,0,0,0,0,0,0,0,0,0,-1,1693,1191,0,0
476,-167,0,0,0,0,0,0,0,0,0,-1,1700,1191,0,0
483,-167,0,0,0,0,0,0,0,0,0,-1,1707,1191,0,0
490,-167,0,0,0,0,0,0,0,0,0,-1,1714,1191,0,0
497,-167,0,0,0,0,0,0,0,0,0,-1,1721,1191,0,0
504,-167,0,0,0,0,0,0,0,0,0,-1,1728,1191,0,0
511,-167,0,0,0,0,0,0,0,0,0,-1,1735,1191,0,0
518,-167,0,0,0,0,0,0,0,0,0,-1,1742,1191,0,0
525,-167,0,0,0,0,0,0,0,0,0,-1,1749,1191,0,0
532,-167,0,0,0,0,0,0,0,0,0,-1,1756,1191,0,0
539,-167,0,0,0,0,0,0,0,0,0,-1,1763,1191,0,0
546,-167,0,0,0,0,0,0,0,0,0,-1,1770,1191,0,0
553,-167,0,0,0,0,0,0,0,0,0,-1,1777,1191,0,0
560,-167,0,0,0,0,0,0,0,0,0,-1,1784,1191,0,0
567,-167,0,0,0,0,0,0,0,0,0,-1,1791,1191,0,0
574,-167,0,0,0,0,0,0,0,0,0,-1,1798,1191,0,0
581,-167,0,0,0,0,0,0,0,0,0,-1,1805,1191,0,0
588,-167,0,0,0,0,0,0,0,0,0,-1,1812,1191,0,0
595,-167,0,0,0,0,0,0,0,0,0,-1,1819,1191,0,0
602,-167,0,0,0,0,0,0,0,0,0,-1,1826,1191,0,0
609,-167,0,0,0,0,0,0,0,0,0,-1,1833,1191,0,0
616,-167,0,0,0,0,0,0,0,0,0,-1,1840,1191,0,0
623,-167,0,0,0,0,0,0,0,0,0,-1,1847,1191,0,0
630,-167,0,0,0,0,0,0,0,0,0,-1,1854,1191,0,0
637,-167,28.9147,2.84802,-0.00221644,-0.00214878,0.00100336,-0.00117868,-0.00318653,0.802249,0.00186039,0.0450453,1861,1191,28.9147,-2.84803
644,-167,28.9554,2.55054,-0.00115636,-0.000649198,0.000727826,-0.000132041,-0.00167351,0.953025,0.00107437,0.0443306,1868,1191,28.9555,-2.55053
651,-167,28.9919,2.50415,-0.000104556,0.000761053,0.000158843,0.000789281,-0.000132784,1.39492,0.000575577,0.0409249,1875,1191,28.992,-2.50414
658,-167,29.0117,2.78992,0.000538692,0.00187991,-0.000315759,0.00195053,0.000468072,-1.35077,0.00117581,0.0432508,1882,1191,29.0117,-2.78996
665,-167,28.9884,2.82385,0,0,0,0,0,0,0,-1,1889,1191,28.9884,-2.82385
672,-167,29.0593,2.75818,-0.000110213,0.00262267,-9.2423e-05,0.0026258,-0.000113335,-1.53703,0.00178951,0.0287786,1896,1191,29.0593,-2.75813
679,-167,29.0732,2.56506,-0.00100851,0.00244936,0.000348368,0.00248411,-0.00104326,1.47138,0.00209239,0.0203866,1903,1191,29.0732,-2.56504
686,-167,29.0732,2.60315,-0.00193119,0.00216837,0.000788769,0.00231489,-0.00207772,1.38713,0.00253731,0.0267177,1910,1191,29.0732,-2.60316
693,-167,29.0372,2.40833,0,0,0,0,0,0,0,-1,1917,1191,29.0372,-2.40837
700,-167,28.0459,2.70508,0,0,0,0,0,0,0,-1,1924,1191,28.0459,-2.70513
707,-167,25.7086,6.14185,0,0,0,0,0,0,0,-1,1931,1191,25.7087,-6.14185
714,-167,26.0342,5.54236,-0.00444488,0.000926885,0.00211444,0.00165931,-0.00517731,1.23734,0.00411764,0.0392903,1938,1191,26.0341,-5.54239
721,-167,26.1223,5.08447,-0.00466666,0.000392843,0.00240492,0.00135355,-0.00562736,1.19074,0.00427479,0.0334039,1945,1191,26.1223,-5.08449
728,-167,25.9708,5.03125,-0.00442238,0.000124821,0.0026472,0.00134077,-0.00563832,1.14021,0.00427645,0.0244635,1952,1191,25.9708,-5.03126
735,-167,25.8068,4.91248,-0.00347186,0.00019183,0.00255831,0.00150651,-0.00478654,1.0961,0.00379424,0.0137389,1959,1191,25.8068,-4.9125
742,-167,25.7821,4.69653,-0.0017242,0.000528997,0.00180761,0.00153234,-0.00272755,1.06407,0.00249151,0.0152246,1966,1191,25.7821,-4.69654
749,-167,25.7725,4.48584,0.000767019,0.00134146,0.000361952,0.0015163,0.000592173,1.12079,0.000882403,0.0146134,1973,1191,25.7724,-4.48583
756,-167,25.7688,4.30127,0.00341957,0.0029894,-0.00195267,0.00516896,0.00124001,-0.730544,0.003116,0.0106136,1980,1191,25.7688,-4.30125
763,-167,25.734,4.07642,0.00628954,0.00498967,-0.00438957,0.010077,0.00120218,-0.711901,0.0063553,0.0116503,1987,1191,25.734,-4.07635
770,-167,25.6898,3.94116,0.00901175,0.00752628,-0.00764573,0.0159507,0.00058729,-0.736978,0.0104436,0.023874,1994,1191,25.6898,-3.94121
777,-167,25.7451,3.69482,0.011702,0.0110384,-0.0123489,0.0237235,-0.000983167,-0.771966,0.0161534,0.0426001,2001,1191,25.7451,-3.69483
784,-167,25.795,3.41772,0,0,0,0,0,0,0,-1,2008,1191,25.7951,-3.41773
791,-167,27.986,3.02747,0,0,0,0,0,0,0,-1,2015,1191,27.9859,-3.02752
798,-167,27.6509,2.94043,0,0,0,0,0,0,0,-1,2022,1191,27.6509,-2.94043
805,-167,27.6248,2.08398,0,0,0,0,0,0,0,-1,2029,1191,27.6247,-2.08394
812,-167,0,0,0,0,0,0,0,0,0,-1,2036,1191,0,0
-700,-174,0,0,0,0,0,0,0,0,0,-1,524,1198,0,0
-693,-174,0,0,0,0,0,0,0,0,0,-1,531,1198,0,0
-686,-174,-10.5273,1.85608,-0.145508,-0.033414,-0.0672389,-0.00192624,-0.176996,-1.13283,0.11736,0.0462894,538,1198,-10.5273,-1.85605
-679,-174,-11.1813,2.14075,-0.118028,-0.0239318,-0.0494774,-0.00270449,-0.139256,-1.16552,0.0919488,0.0440319,545,1198,-11.1813,-2.1407
-672,-174,-12.3691,1.69788,0,0,0,0,0,0,0,-1,552,1198,-12.3691,-1.69788
-665,-174,-15.8593,0.0731201,0,0,0,0,0,0,0,-1,559,1198,-15.8593,-0.073086
-658,-174,-16.7675,-0.44519,0,0,0,0,0,0,0,-1,566,1198,-16.7675,0.445184
-651,-174,-16.6194,0.0582275,-0.0410965,-0.0040262,-0.0097222,-0.00163116,-0.0434916,-1.32926,0.0284663,0.0475388,573,1198,-16.6194,-0.0582036
-644,-174,-16.436,0.632568,-0.0292917,-0.00191448,-0.00511163,-0.00099122,-0.0302149,-1.3921,0.0198212,0.0411531,580,1198,-16.4359,-0.63252
-637,-174,-16.3522,1.21912,0,0,0,0,0,0,0,-1,587,1198,-16.3522,-1.21911
-630,-174,-16.4208,1.50183,-0.0128222,0.000403447,0.000202036,0.000406533,-0.0128253,1.55553,0.00868887,0.0117554,594,1198,-16.4208,-1.50177
-623,-174,-16.4539,1.73914,-0.00695425,0.00138291,0.00130887,0.00158356,-0.0071549,1.41868,0.0053761,0.0128658,601,1198,-16.4539,-1.73912
-616,-174,-16.4594,1.99915,-0.00380912,0.000886349,0.00146452,0.00130568,-0.00422846,1.29193,0.00334037,0.0185893,608,1198,-16.4594,-1.99915
-609,-174,-16.4759,2.25476,-0.00309461,0.000200629,0.000243199,0.000218481,-0.00311246,1.49752,0.0021515,0.0213198,615,1198,-16.4759,-2.25479
-602,-174,-16.4891,2.4928,-0.00393153,-7.24076e-05,-0.000921604,0.000136386,-0.00414033,-1.348,0.00280678,0.0146208,622,1198,-16.4891,-2.49285
-595,-174,-16.5156,2.73853,-0.00477099,1.31159e-05,-0.00196751,0.000718324,-0.0054762,-1.22663,0.00391228,0.0156029,629,1198,-16.5156,-2.73856
-588,-174,-16.6546,2.90723,-0.00525125,0.000371622,-0.00291384,0.00160921,-0.00648884,-1.16916,0.00495027,0.0203568,636,1198,-16.6546,-2.90717
-581,-174,-16.591,3.1582,-0.00556323,0.000423902,-0.0035841,0.00210015,-0.00723948,-1.13333,0.00565783,0.0245813,643,1198,-16.591,-3.15825
-574,-174,-16.7236,3.52258,0,0,0,0,0,0,0,-1,650,1198,-16.7236,-3.52257
-567,-174,-18.1782,1.78308,0,0,0,0,0,0,0,-1,657,1198,-18.1782,-1.78306
-560,-174,-20.0475,0.460815,0,0,0,0,0,0,0,-1,664,1198,-20.0475,-0.460799
-553,-174,-20.0718,0.590576,-0.00417206,0.000946138,-0.00367023,0.00286137,-0.00608728,-1.08984,0.00527722,0.0376737,671,1198,-20.0718,-0.590547
-546,-174,-20.0963,0.723999,-0.00279415,0.00106226,-0.00326262,0.00292387,-0.00465576,-1.05229,0.00441401,0.0297157,678,1198,-20.0963,-0.724005
-539,-174,-20.0925,0.725464,-0.00071542,0.000920631,-0.00247085,0.00270534,-0.00250013,-0.945255,0.00300616,0.0328916,685,1198,-20.0924,-0.725487
-532,-174,-20.1528,0.421143,0.00251868,0.0003008,-0.00105637,0.00294129,-0.000121818,-0.380563,0.0020027,0.0430377,692,1198,-20.1528,-0.421173
-525,-174,-20.2054,0.501953,0.00717,-0.00117643,0.00104958,0.00729996,-0.00130639,0.123197,0.00535548,0.0443545,699,1198,-20.2054,-0.501919
-518,-174,-20.1349,0.688232,0.0110408,-0.00346211,0.00282476,0.0115716,-0.00399287,0.18573,0.00933447,0.0433991,706,1198,-20.1349,-0.688219
-511,-174,0,0,0,0,0,0,0,0,0,-1,713,1198,0,0
-504,-174,0,0,0,0,0,0,0,0,0,-1,720,1198,0,0
-497,-174,0,0,0,0,0,0,0,0,0,-1,727,1198,0,0
-490,-174,0,0,0,0,0,0,0,0,0,-1,734,1198,0,0
-483,-174,0,0,0,0,0,0,0,0,0,-1,741,1198,0,0
-476,-174,0,0,0,0,0,0,0,0,0,-1,748,1198,0,0
-469,-174,0,0,0,0,0,0,0,0,0,-1,755,1198,0,0
-462,-174,0,0,0,0,0,0,0,0,0,-1,762,1198,0,0
-455,-174,0,0,0,0,0,0,0,0,0,-1,769,1198,0,0
-448,-174,0,0,0,0,0,0,0,0,0,-1,776,1198,0,0
-441,-174,0,0,0,0,0,0,0,0,0,-1,783,1198,0,0
-434,-174,0,0,0,0,0,0,0,0,0,-1,790,1198,0,0
-427,-174,0,0,0,0,0,0,0,0,0,-1,797,1198,0,0
-420,-174,0,0,0,0,0,0,0,0,0,-1,804,1198,0,0
-413,-174,0,0,0,0,0,0,0,0,0,-1,811,1198,0,0
-406,-174,0,0,0,0,0,0,0,0,0,-1,818,1198,0,0
-399,-174,0,0,0,0,0,0,0,0,0,-1,825,1198,0,0
-392,-174,0,0,0,0,0,0,0,0,0,-1,832,1198,0,0
-385,-174,0,0,0,0,0,0,0,0,0,-1,839,1198,0,0
-378,-174,0,0,0,0,0,0,0,0,0,-1,846,1198,0,0
-371,-174,0,0,0,0,0,0,0,0,0,-1,853,1198,0,0
-364,-174,0,0,0,0,0,0,0,0,0,-1,860,1198,0,0
-357,-174,0,0,0,0,0,0,0,0,0,-1,867,1198,0,0
-350,-174,0,0,0,0,0,0,0,0,0,-1,874,1198,0,0
-343,-174,0,0,0,0,0,0,0,0,0,-1,881,1198,0,0
-336,-174,0,0,0,0,0,0,0,0,0,-1,888,1198,0,0
-329,-174,0,0,0,0,0,0,0,0,0,-1,895,1198,0,0
-322,-174,0,0,0,0,0,0,0,0,0,-1,902,1198,0,0
-315,-174,0,0,0,0,0,0,0,0,0,-1,909,1198,0,0
-308,-174,0,0,0,0,0,0,0,0,0,-1,916,1198,0,0
-301,-174,0,0,0,0,0,0,0,0,0,-1,923,1198,0,0
-294,-174,0,0,0,0,0,0,0,0,0,-1,930,1198,0,0
-287,-174,0,0,0,0,0,0,0,0,0,-1,937,1198,0,0
-280,-174,0,0,0,0,0,0,0,0,0,-1,944,1198,0,0
-273,-174,0,0,0,0,0,0,0,0,0,-1,951,1198,0,0
-266,-174,0,0,0,0,0,0,0,0,0,-1,958,1198,0,0
-259,-174,0,0,0,0,0,0,0,0,0,-1,965,1198,0,0
-252,-174,0,0,0,0,0,0,0,0,0,-1,972,1198,0,0
-245,-174,0,0,0,0,0,0,0,0,0,-1,979,1198,0,0
-238,-174,0,0,0,0,0,0,0,0,0,-1,986,1198,0,0
-231,-174,0,0,0,0,0,0,0,0,0,-1,993,1198,0,0
-224,-174,0,0,0,0,0,0,0,0,0,-1,1000,1198,0,0
-217,-174,0,0,0,0,0,0,0,0,0,-1,1007,1198,0,0
-210,-174,0,0,0,0,0,0,0,0,0,-1,1014,1198,0,0
-203,-174,0,0,0,0,0,0,0,0,0,-1,1021,1198,0,0
-196,-174,0,0,0,0,0,0,0,0,0,-1,1028,1198,0,0
-189,-174,0,0,0,0,0,0,0,0,0,-1,1035,1198,0,0
-182,-174,0,0,0,0,0,0,0,0,0,-1,1042,1198,0,0
-175,-174,0,0,0,0,0,0,0,0,0,-1,1049,1198,0,0
-168,-174,0,0,0,0,0,0,0,0,0,-1,1056,1198,0,0
-161,-174,0,0,0,0,0,0,0,0,0,-1,1063,1198,0,0
-154,-174,0,0,0,0,0,0,0,0,0,-1,1070,1198,0,0
-147,-174,0,0,0,0,0,0,0,0,0,-1,1077,1198,0,0
-140,-174,0,0,0,0,0,0,0,0,0,-1,1084,1198,0,0
-133,-174,0,0,0,0,0,0,0,0,0,-1,1091,1198,0,0
-126,-174,0,0,0,0,0,0,0,0,0,-1,1098,1198,0,0
-119,-174,0,0,0,0,0,0,0,0,0,-1,1105,1198,0,0
-112,-174,0,0,0,0,0,0,0,0,0,-1,1112,1198,0,0
-105,-174,0,0,0,0,0,0,0,0,0,-1,1119,1198,0,0
-98,-174,0,0,0,0,0,0,0,0,0,-1,1126,1198,0,0
-91,-174,0,0,0,0,0,0,0,0,0,-1,1133,1198,0,0
-84,-174,0,0,0,0,0,0,0,0,0,-1,1140,1198,0,0
-77,-174,0,0,0,0,0,0,0,0,0,-1,1147,1198,0,0
-70,-174,0,0,0,0,0,0,0,0,0,-1,1154,1198,0,0
-63,-174,0,0,0,0,0,0,0,0,0,-1,1161,1198,0,0
-56,-174,0,0,0,0,0,0,0,0,0,-1,1168,1198,0,0
-49,-174,0,0,0,0,0,0,0,0,0,-1,1175,1198,0,0
-42,-174,0,0,0,0,0,0,0,0,0,-1,1182,1198,0,0
-35,-174,0,0,0,0,0,0,0,0,0,-1,1189,1198,0,0
-28,-174,0,0,0,0,0,0,0,0,0,-1,1196,1198,0,0
-21,-174,0,0,0,0,0,0,0,0,0,-1,1203,1198,0,0
-14,-174,0,0,0,0,0,0,0,0,0,-1,1210,1198,0,0
-7,-174,0,0,0,0,0,0,0,0,0,-1,1217,1198,0,0
0,-174,0,0,0,0,0,0,0,0,0,-1,1224,1198,0,0
7,-174,0,0,0,0,0,0,0,0,0,-1,1231,1198,0,0
14,-174,0,0,0,0,0,0,0,0,0,-1,1238,1198,0,0
21,-174,0,0,0,0,0,0,0,0,0,-1,1245,1198,0,0
28,-174,0,0,0,0,0,0,0,0,0,-1,1252,1198,0,0
35,-174,0,0,0,0,0,0,0,0,0,-1,1259,1198,0,0
42,-174,0,0,0,0,0,0,0,0,0,-1,1266,1198,0,0
49,-174,0,0,0,0,0,0,0,0,0,-1,1273,1198,0,0
56,-174,0,0,0,0,0,0,0,0,0,-1,1280,1198,0,0
63,-174,0,0,0,0,0,0,0,0,0,-1,1287,1198,0,0
70,-174,0,0,0,0,0,0,0,0,0,-1,1294,1198,0,0
77,-174,0,0,0,0,0,0,0,0,0,-1,1301,1198,0,0
84,-174,0,0,0,0,0,0,0,0,0,-1,1308,1198,0,0
91,-174,0,0,0,0,0,0,0,0,0,-1,1315,1198,0,0
98,-174,0,0,0,0,0,0,0,0,0,-1,1322,1198,0,0
105,-174,0,0,0,0,0,0,0,0,0,-1,1329,1198,0,0
112,-174,0,0,0,0,0,0,0,0,0,-1,1336,1198,0,0
119,-174,0,0,0,0,0,0,0,0,0,-1,1343,1198,0,0
126,-174,0,0,0,0,0,0,0,0,0,-1,1350,1198,0,0
133,-174,0,0,0,0,0,0,0,0,0,-1,1357,1198,0,0
140,-174,0,0,0,0,0,0,0,0,0,-1,1364,1198,0,0
147,-174,0,0,0,0,0,0,0,0,0,-1,1371,1198,0,0
154,-174,0,0,0,0,0,0,0,0,0,-1,1378,1198,0,0
161,-174,0,0,0,0,0,0,0,0,0,-1,1385,1198,0,0
168,-174,0,0,0,0,0,0,0,0,0,-1,1392,1198,0,0
175,-174,0,0,0,0,0,0,0,0,0,-1,1399,1198,0,0
182,-174,0,0,0,0,0,0,0,0,0,-1,1406,1198,0,0
189,-174,0,0,0,0,0,0,0,0,0,-1,1413,1198,0,0
196,-174,0,0,0,0,0,0,0,0,0,-1,1420,1198,0,0
203,-174,0,0,0,0,0,0,0,0,0,-1,1427,1198,0,0
210,-174,0,0,0,0,0,0,0,0,0,-1,1434,1198,0,0
217,-174,0,0,0,0,0,0,0,0,0,-1,1441,1198,0,0
224,-174,0,0,0,0,0,0,0,0,0,-1,1448,1198,0,0
231,-174,0,0,0,0,0,0,0,0,0,-1,1455,1198,0,0
238,-174,0,0,0,0,0,0,0,0,0,-1,1462,1198,0,0
245,-174,0,0,0,0,0,0,0,0,0,-1,1469,1198,0,0
252,-174,0,0,0,0,0,0,0,0,0,-1,1476,1198,0,0
259,-174,0,0,0,0,0,0,0,0,0,-1,1483,1198,0,0
266,-174,0,0,0,0,0,0,0,0,0,-1,1490,1198,0,0
273,-174,0,0,0,0,0,0,0,0,0,-1,1497,1198,0,0
280,-174,0,0,0,0,0,0,0,0,0,-1,1504,1198,0,0
287,-174,0,0,0,0,0,0,0,0,0,-1,1511,1198,0,0
294,-174,0,0,0,0,0,0,0,0,0,-1,1518,1198,0,0
301,-174,0,0,0,0,0,0,0,0,0,-1,1525,1198,0,0
308,-174,0,0,0,0,0,0,0,0,0,-1,1532,1198,0,0
315,-174,0,0,0,0,0,0,0,0,0,-1,1539,1198,0,0
322,-174,0,0,0,0,0,0,0,0,0,-1,1546,1198,0,0
329,-174,0,0,0,0,0,0,0,0,0,-1,1553,1198,0,0
336,-174,0,0,0,0,0,0,0,0,0,-1,1560,1198,0,0
343,-174,0,0,0,0,0,0,0,0,0,-1,1567,1198,0,0
350,-174,0,0,0,0,0,0,0,0,0,-1,1574,1198,0,0
357,-174,0,0,0,0,0,0,0,0,0,-1,1581,1198,0,0
364,-174,0,0,0,0,0,0,0,0,0,-1,1588,1198,0,0
371,-174,0,0,0,0,0,0,0,0,0,-1,1595,1198,0,0
378,-174,0,0,0,0,0,0,0,0,0,-1,1602,1198,0,0
385,-174,0,0,0,0,0,0,0,0,0,-1,1609,1198,0,0
392,-174,0,0,0,0,0,0,0,0,0,-1,1616,1198,0,0
399,-174,0,0,0,0,0,0,0,0,0,-1,1623,1198,0,0
406,-174,0,0,0,0,0,0,0,0,0,-1,1630,1198,0,0
413,-174,0,0,0,0,0,0,0,0,0,-1,1637,1198,0,0
420,-174,0,0,0,0,0,0,0,0,0,-1,1644,1198,0,0
427,-174,0,0,0,0,0,0,0,0,0,-1,1651,1198,0,0
434,-174,0,0,0,0,0,0,0,0,0,-1,1658,1198,0,0
441,-174,0,0,0,0,0,0,0,0,0,-1,1665,1198,0,0
448,-174,0,0,0,0,0,0,0,0,0,-1,1672,1198,0,0
455,-174,0,0,0,0,0,0,0,0,0,-1,1679,1198,0,0
462,-174,0,0,0,0,0,0,0,0,0,-1,1686,1198,0,0
469,-174,0,0,0,0,0,0,0,0,0,-1,1693,1198,0,0
476,-174,0,0,0,0,0,0,0,0,0,-1,1700,1198,0,0
483,-174,0,0,0,0,0,0,0,0,0,-1,1707,1198,0,0
490,-174,0,0,0,0,0,0,0,0,0,-1,1714,1198,0,0
497,-174,0,0,0,0,0,0,0,0,0,-1,1721,1198,0,0
504,-174,0,0,0,0,0,0,0,0,0,-1,1728,1198,0,0
511,-174,0,0,0,0,0,0,0,0,0,-1,1735,1198,0,0
518,-174,0,0,0,0,0,0,0,0,0,-1,1742,1198,0,0
525,-174,0,0,0,0,0,0,0,0,0,-1,1749,1198,0,0
532,-174,0,0,0,0,0,0,0,0,0,-1,1756,1198,0,0
539,-174,0,0,0,0,0,0,0,0,0,-1,1763,1198,0,0
546,-174,0,0,0,0,0,0,0,0,0,-1,1770,1198,0,0
553,-174,0,0,0,0,0,0,0,0,0,-1,1777,1198,0,0
560,-174,0,0,0,0,0,0,0,0,0,-1,1784,1198,0,0
567,-174,0,0,0,0,0,0,0,0,0,-1,1791,1198,0,0
574,-174,0,0,0,0,0,0,0,0,0,-1,1798,1198,0,0
581,-174,0,0,0,0,0,0,0,0,0,-1,1805,1198,0,0
588,-174,0,0,0,0,0,0,0,0,0,-1,1812,1198,0,0
595,-174,0,0,0,0,0,0,0,0,0,-1,1819,1198,0,0
602,-174,0,0,0,0,0,0,0,0,0,-1,1826,1198,0,0
609,-174,0,0,0,0,0,0,0,0,0,-1,1833,1198,0,0
616,-174,0,0,0,0,0,0,0,0,0,-1,1840,1198,0,0
623,-174,0,0,0,0,0,0,0,0,0,-1,1847,1198,0,0
630,-174,0,0,0,0,0,0,0,0,0,-1,1854,1198,0,0
637,-174,28.9095,2.98083,0,0,0,0,0,0,0,-1,1861,1198,28.9096,-2.98086
644,-174,28.9102,2.62878,-0.000127169,-0.00116153,0.000504923,7.8438e-05,-0.00136714,0.386702,0.000938667,0.0428286,1868,1198,28.9102,-2.62876
651,-174,28.9895,2.56018,0.000487929,0.000585534,6.37361e-05,0.000617006,0.000456457,1.11213,0.000369632,0.0401835,1875,1198,28.9895,-2.56021
658,-174,28.933,2.73169,0.000778292,0.00193495,-0.000258289,0.00199,0.000723235,-1.36078,0.00116313,0.0404156,1882,1198,28.933,-2.73174
665,-174,29.0953,2.91589,0.000583944,0.0026872,-0.000218986,0.00270976,0.000561386,-1.46815,0.0016515,0.0362063,1889,1198,29.0953,-2.91594
672,-174,29.0232,2.72534,0.000123302,0.00285738,-4.54891e-05,0.00285814,0.000122546,-1.55416,0.00186592,0.0266061,1896,1198,29.0232,-2.72537
679,-174,29.0381,2.60608,-0.0006341,0.00270857,0.000337255,0.00274226,-0.000667788,1.47124,0.0020867,0.0204899,1903,1198,29.0381,-2.60607
686,-174,29.0922,2.60718,-0.00141608,0.00244393,0.000699965,0.00256694,-0.00153909,1.39684,0.00239525,0.0459189,1910,1198,29.0921,-2.6072
693,-174,29.1271,2.64355,0,0,0,0,0,0,0,-1,1917,1198,29.127,-2.64352
700,-174,25.4004,6.11792,0,0,0,0,0,0,0,-1,1924,1198,25.4004,-6.11797
707,-174,25.7346,5.81494,-0.00313838,0.00160069,0.00161812,0.00210047,-0.00363816,1.27122,0.00335262,0.0499105,1931,1198,25.7346,-5.81489
714,-174,25.9205,5.52258,-0.00363836,0.00125001,0.00183257,0.00186071,-0.00424906,1.24912,0.0036162,0.0314412,1938,1198,25.9205,-5.52257
721,-174,25.8802,5.21375,-0.00379481,0.000636417,0.00211892,0.00148654,-0.00464493,1.18925,0.00369324,0.0265257,1945,1198,25.8803,-5.21375
728,-174,25.6274,5.1073,-0.00349917,0.000290922,0.00231046,0.00138409,-0.00459234,1.12887,0.00361242,0.017942,1952,1198,25.6274,-5.10736
735,-174,25.5828,4.92273,-0.00253918,0.000306555,0.00218857,0.00149412,-0.00372675,1.07363,0.00310479,0.0116775,1959,1198,25.5827,-4.92268
742,-174,25.5767,4.68787,-0.000730609,0.000611815,0.00143747,0.00152706,-0.00164585,1.00382,0.00183231,0.0199762,1966,1198,25.5766,-4.68792
749,-174,25.5779,4.48206,0.00187605,0.00140798,-3.80223e-06,0.00187608,0.00140795,-0.00812257,0.00112755,0.0182656,1973,1198,25.5779,-4.48203
756,-174,25.5459,4.26563,0.00471669,0.00279635,-0.00239372,0.00633563,0.00117741,-0.594663,0.00389112,0.0108036,1980,1198,25.5459,-4.26561
763,-174,25.5037,4.04736,0.00789069,0.00432697,-0.00509607,0.0115074,0.000710225,-0.617215,0.00744618,0.0128902,1987,1198,25.5037,-4.04738
770,-174,25.5352,3.93384,0.0111469,0.00637273,-0.00880587,0.0178835,-0.000363868,-0.65304,0.0120455,0.025126,1994,1198,25.5352,-3.9338
777,-174,25.6301,3.73096,0.0145342,0.00910832,-0.0143155,0.0263916,-0.00274904,-0.691753,0.0185787,0.0448841,2001,1198,25.6301,-3.73097
784,-174,25.7397,3.5127,0,0,0,0,0,0,0,-1,2008,1198,25.7398,-3.51264
791,-174,28.5791,2.59497,0,0,0,0,0,0,0,-1,2015,1198,28.5791,-2.59496
798,-174,28.9001,2.62671,0,0,0,0,0,0,0,-1,2022,1198,28.9001,-2.6267
805,-174,29.165,2.61877,0,0,0,0,0,0,0,-1,2029,1198,29.1649,-2.61883
812,-174,0,0,0,0,0,0,0,0,0,-1,2036,1198,0,0
-700,-181,0,0,0,0,0,0,0,0,0,-1,524,1205,0,0
-693,-181,0,0,0,0,0,0,0,0,0,-1,531,1205,0,0
-686,-181,-9.34216,2.18408,-0.134479,-0.0375255,-0.0590404,-0.00961021,-0.162395,-1.12913,0.105206,0.0472699,538,1205,-9.34218,-2.18406
-679,-181,-10.0043,2.95129,-0.107871,-0.0283906,-0.0421677,-0.0101877,-0.126074,-1.16328,0.0808676,0.0460124,545,1205,-10.0042,-2.95133
-672,-181,-10.9894,3.44092,0,0,0,0,0,0,0,-1,552,1205,-10.9894,-3.4409
-665,-181,-15.709,-1.38599,0,0,0,0,0,0,0,-1,559,1205,-15.709,1.38593
-658,-181,-15.6086,-0.808838,0,0,0,0,0,0,0,-1,566,1205,-15.6086,0.808789
-651,-181,-16.403,0.0708008,0,0,0,0,0,0,0,-1,573,1205,-16.403,-0.0708301
-644,-181,-16.1804,0.563599,-0.0250137,-0.00420451,-0.00265072,-0.00387216,-0.025346,-1.44607,0.0157659,0.0404452,580,1205,-16.1804,-0.563604
-637,-181,-16.1344,1.21338,-0.0168154,-0.00226806,-0.000237531,-0.00226418,-0.0168193,-1.55447,0.0105395,0.0232284,587,1205,-16.1344,-1.21339
-630,-181,-16.1711,1.49878,-0.0104841,-0.000805584,0.0014388,-0.000596223,-0.0106935,1.4263,0.00693879,0.0120485,594,1205,-16.1711,-1.49874
-623,-181,-16.2147,1.73376,-0.00533306,0.000603808,0.00213373,0.00129111,-0.00602036,1.25918,0.00450603,0.014052,601,1205,-16.2147,-1.73378
-616,-181,-16.2103,1.99963,-0.00286385,0.000537112,0.00190668,0.00139144,-0.00371818,1.14955,0.00305029,0.0143465,608,1205,-16.2103,-1.99963
-609,-181,-16.2151,2.26563,-0.00263023,0.000153496,0.00042867,0.000218012,-0.00269475,1.42141,0.0018734,0.0141322,615,1205,-16.2151,-2.2656
-602,-181,-16.2263,2.51587,-0.0037174,-5.27564e-05,-0.000927949,0.000168819,-0.00393897,-1.33641,0.00268402,0.0123698,622,1205,-16.2262,-2.51582
-595,-181,-16.2712,2.7395,-0.00464543,8.20895e-05,-0.0020494,0.000846809,-0.00541015,-1.21365,0.00391965,0.0146999,629,1205,-16.2712,-2.7395
-588,-181,-16.3431,3.01709,-0.00515854,0.000547428,-0.00296757,0.001811,-0.00642211,-1.16825,0.00499571,0.0175925,636,1205,-16.3431,-3.01707
-581,-181,-16.2886,3.31372,-0.00556673,0.000580135,-0.00357557,0.00222165,-0.00720824,-1.14041,0.00569244,0.0198977,643,1205,-16.2886,-3.31373
-574,-181,-16.6932,3.4281,-0.0055294,0.000604144,-0.00372048,0.00235889,-0.00728415,-1.13009,0.00580443,0.0487644,650,1205,-16.6933,-3.42815
-567,-181,-17.4585,3.47009,0,0,0,0,0,0,0,-1,657,1205,-17.4585,-3.4701
-560,-181,-20.0398,0.553101,0,0,0,0,0,0,0,-1,664,1205,-20.0398,-0.553064
-553,-181,-20.0612,0.620483,-0.00409755,0.00110098,-0.00338011,0.00276567,-0.00576224,-1.11317,0.00502389,0.0415651,671,1205,-20.0612,-0.620524
-546,-181,-20.0831,0.668213,-0.00286813,0.00121452,-0.00292189,0.00273752,-0.00439114,-1.0903,0.00415248,0.03268,678,1205,-20.0831,-0.668234
-539,-181,-20.0549,0.723022,-0.00109226,0.00105853,-0.00216983,0.00240484,-0.00243857,-1.01546,0.00279637,0.0345088,685,1205,-20.0549,-0.723006
-532,-181,-20.2488,0.502808,0.00152659,0.000401878,-0.000939399,0.00205909,-0.000130625,-0.515692,0.00141828,0.0416879,692,1205,-20.2488,-0.502821
-525,-181,-20.3269,0.672363,0.00527988,-0.00121617,0.000856285,0.00539086,-0.00132714,0.128884,0.00410837,0.0433907,699,1205,-20.3269,-0.67239
-518,-181,-20.217,0.999756,0.00855245,-0.00409549,0.00236909,0.00898164,-0.00452469,0.179219,0.00793814,0.0413075,706,1205,-20.217,-0.999783
-511,-181,0,0,0,0,0,0,0,0,0,-1,713,1205,0,0
-504,-181,0,0,0,0,0,0,0,0,0,-1,720,1205,0,0
-497,-181,0,0,0,0,0,0,0,0,0,-1,727,1205,0,0
-490,-181,0,0,0,0,0,0,0,0,0,-1,734,1205,0,0
-483,-181,0,0,0,0,0,0,0,0,0,-1,741,1205,0,0
-476,-181,0,0,0,0,0,0,0,0,0,-1,748,1205,0,0
-469,-181,0,0,0,0,0,0,0,0,0,-1,755,1205,0,0
-462,-181,0,0,0,0,0,0,0,0,0,-1,762,1205,0,0
-455,-181,0,0,0,0,0,0,0,0,0,-1,769,1205,0,0
-448,-181,0,0,0,0,0,0,0,0,0,-1,776,1205,0,0
-441,-181,0,0,0,0,0,0,0,0,0,-1,783,1205,0,0
-434,-181,0,0,0,0,0,0,0,0,0,-1,790,1205,0,0
-427,-181,0,0,0,0,0,0,0,0,0,-1,797,1205,0,0
-420,-181,0,0,0,0,0,0,0,0,0,-1,804,1205,0,0
-413,-181,0,0,0,0,0,0,0,0,0,-1,811,1205,0,0
-406,-181,0,0,0,0,0,0,0,0,0,-1,818,1205,0,0
-399,-181,0,0,0,0,0,0,0,0,0,-1,825,1205,0,0
-392,-181,0,0,0,0,0,0,0,0,0,-1,832,1205,0,0
-385,-181,0,0,0,0,0,0,0,0,0,-1,839,1205,0,0
-378,-181,0,0,0,0,0,0,0,0,0,-1,846,1205,0,0
-371,-181,0,0,0,0,0,0,0,0,0,-1,853,1205,0,0
-364,-181,0,0,0,0,0,0,0,0,0,-1,860,1205,0,0
-357,-181,0,0,0,0,0,0,0,0,0,-1,867,1205,0,0
-350,-181,0,0,0,0,0,0,0,0,0,-1,874,1205,0,0
-343,-181,0,0,0,0,0,0,0,0,0,-1,881,1205,0,0
-336,-181,0,0,0,0,0,0,0,0,0,-1,888,1205,0,0
-329,-181,0,0,0,0,0,0,0,0,0,-1,895,1205,0,0
-322,-181,0,0,0,0,0,0,0,0,0,-1,902,1205,0,0
-315,-181,0,0,0,0,0,0,0,0,0,-1,909,1205,0,0
-308,-181,0,0,0,0,0,0,0,0,0,-1,916,1205,0,0
-301,-181,0,0,0,0,0,0,0,0,0,-1,923,1205,0,0
-294,-181,0,0,0,0,0,0,0,0,0,-1,930,1205,0,0
-287,-181,0,0,0,0,0,0,0,0,0,-1,937,1205,0,0
-280,-181,0,0,0,0,0,0,0,0,0,-1,944,1205,0,0
-273,-181,0,0,0,0,0,0,0,0,0,-1,951,1205,0,0
-266,-181,0,0,0,0,0,0,0,0,0,-1,958,1205,0,0
-259,-181,0,0,0,0,0,0,0,0,0,-1,965,1205,0,0
-252,-181,0,0,0,0,0,0,0,0,0,-1,972,1205,0,0
-245,-181,0,0,0,0,0,0,0,0,0,-1,979,1205,0,0
-238,-181,0,0,0,0,0,0,0,0,0,-1,986,1205,0,0
-231,-181,0,0,0,0,0,0,0,0,0,-1,993,1205,0,0
-224,-181,0,0,0,0,0,0,0,0,0,-1,1000,1205,0,0
-217,-181,0,0,0,0,0,0,0,0,0,-1,1007,1205,0,0
-210,-181,0,0,0,0,0,0,0,0,0,-1,1014,1205,0,0
-203,-181,0,0,0,0,0,0,0,0,0,-1,1021,1205,0,0
-196,-181,0,0,0,0,0,0,0,0,0,-1,1028,1205,0,0
-189,-181,0,0,0,0,0,0,0,0,0,-1,1035,1205,0,0
-182,-181,0,0,0,0,0,0,0,0,0,-1,1042,1205,0,0
-175,-181,0,0,0,0,0,0,0,0,0,-1,1049,1205,0,0
-168,-181,0,0,0,0,0,0,0,0,0,-1,1056,1205,0,0
-161,-181,0,0,0,0,0,0,0,0,0,-1,1063,1205,0,0
-154,-181,0,0,0,0,0,0,0,0,0,-1,1070,1205,0,0
-147,-181,0,0,0,0,0,0,0,0,0,-1,1077,1205,0,0
-140,-181,0,0,0,0,0,0,0,0,0,-1,1084,1205,0,0
-133,-181,0,0,0,0,0,0,0,0,0,-1,1091,1205,0,0
-126,-181,0,0,0,0,0,0,0,0,0,-1,1098,1205,0,0
-119,-181,0,0,0,0,0,0,0,0,0,-1,1105,1205,0,0
-112,-181,0,0,0,0,0,0,0,0,0,-1,1112,1205,0,0
-105,-181,0,0,0,0,0,0,0,0,0,-1,1119,1205,0,0
-98,-181,0,0,0,0,0,0,0,0,0,-1,1126,1205,0,0
-91,-181,0,0,0,0,0,0,0,0,0,-1,1133,1205,0,0
-84,-181,0,0,0,0,0,0,0,0,0,-1,1140,1205,0,0
-77,-181,0,0,0,0,0,0,0,0,0,-1,1147,1205,0,0
-70,-181,0,0,0,0,0,0,0,0,0,-1,1154,1205,0,0
-63,-181,0,0,0,0,0,0,0,0,0,-1,1161,1205,0,0
-56,-181,0,0,0,0,0,0,0,0,0,-1,1168,1205,0,0
-49,-181,0,0,0,0,0,0,0,0,0,-1,1175,1205,0,0
-42,-181,0,0,0,0,0,0,0,0,0,-1,1182,1205,0,0
-35,-181,0,0,0,0,0,0,0,0,0,-1,1189,1205,0,0
-28,-181,0,0,0,0,0,0,0,0,0,-1,1196,1205,0,0
-21,-181,0,0,0,0,0,0,0,0,0,-1,1203,1205,0,0
-14,-181,0,0,0,0,0,0,0,0,0,-1,1210,1205,0,0
-7,-181,0,0,0,0,0,0,0,0,0,-1,1217,1205,0,0
0,-181,0,0,0,0,0,0,0,0,0,-1,1224,1205,0,0
7,-181,0,0,0,0,0,0,0,0,0,-1,1231,1205,0,0
14,-181,0,0,0,0,0,0,0,0,0,-1,1238,1205,0,0
21,-181,0,0,0,0,0,0,0,0,0,-1,1245,1205,0,0
28,-181,0,0,0,0,0,0,0,0,0,-1,1252,1205,0,0
35,-181,0,0,0,0,0,0,0,0,0,-1,1259,1205,0,0
42,-181,0,0,0,0,0,0,0,0,0,-1,1266,1205,0,0
49,-181,0,0,0,0,0,0,0,0,0,-1,1273,1205,0,0
56,-181,0,0,0,0,0,0,0,0,0,-1,1280,1205,0,0
63,-181,0,0,0,0,0,0,0,0,0,-1,1287,1205,0,0
70,-181,0,0,0,0,0,0,0,0,0,-1,1294,1205,0,0
77,-181,0,0,0,0,0,0,0,0,0,-1,1301,1205,0,0
84,-181,0,0,0,0,0,0,0,0,0,-1,1308,1205,0,0
91,-181,0,0,0,0,0,0,0,0,0,-1,1315,1205,0,0
98,-181,0,0,0,0,0,0,0,0,0,-1,1322,1205,0,0
105,-181,0,0,0,0,0,0,0,0,0,-1,1329,1205,0,0
112,-181,0,0,0,0,0,0,0,0,0,-1,1336,1205,0,0
119,-181,0,0,0,0,0,0,0,0,0,-1,1343,1205,0,0
126,-181,0,0,0,0,0,0,0,0,0,-1,1350,1205,0,0
133,-181,0,0,0,0,0,0,0,0,0,-1,1357,1205,0,0
140,-181,0,0,0,0,0,0,0,0,0,-1,1364,1205,0,0
147,-181,0,0,0,0,0,0,0,0,0,-1,1371,1205,0,0
154,-181,0,0,0,0,0,0,0,0,0,-1,1378,1205,0,0
161,-181,0,0,0,0,0,0,0,0,0,-1,1385,1205,0,0
168,-181,0,0,0,0,0,0,0,0,0,-1,1392,1205,0,0
175,-181,0,0,0,0,0,0,0,0,0,-1,1399,1205,0,0
182,-181,0,0,0,0,0,0,0,0,0,-1,1406,1205,0,0
189,-181,0,0,0,0,0,0,0,0,0,-1,1413,1205,0,0
196,-181,0,0,0,0,0,0,0,0,0,-1,1420,1205,0,0
203,-181,0,0,0,0,0,0,0,0,0,-1,1427,1205,0,0
210,-181,0,0,0,0,0,0,0,0,0,-1,1434,1205,0,0
217,-181,0,0,0,0,0,0,0,0,0,-1,1441,1205,0,0
224,-181,0,0,0,0,0,0,0,0,0,-1,1448,1205,0,0
231,-181,0,0,0,0,0,0,0,0,0,-1,1455,1205,0,0
238,-181,0,0,0,0,0,0,0,0,0,-1,1462,1205,0,0
245,-181,0,0,0,0,0,0,0,0,0,-1,1469,1205,0,0
252,-181,0,0,0,0,0,0,0,0,0,-1,1476,1205,0,0
259,-181,0,0,0,0,0,0,0,0,0,-1,1483,1205,0,0
266,-181,0,0,0,0,0,0,0,0,0,-1,1490,1205,0,0
273,-181,0,0,0,0,0,0,0,0,0,-1,1497,1205,0,0
280,-181,0,0,0,0,0,0,0,0,0,-1,1504,1205,0,0
287,-181,0,0,0,0,0,0,0,0,0,-1,1511,1205,0,0
294,-181,0,0,0,0,0,0,0,0,0,-1,1518,1205,0,0
301,-181,0,0,0,0,0,0,0,0,0,-1,1525,1205,0,0
308,-181,0,0,0,0,0,0,0,0,0,-1,1532,1205,0,0
315,-181,0,0,0,0,0,0,0,0,0,-1,1539,1205,0,0
322,-181,0,0,0,0,0,0,0,0,0,-1,1546,1205,0,0
329,-181,0,0,0,0,0,0,0,0,0,-1,1553,1205,0,0
336,-181,0,0,0,0,0,0,0,0,0,-1,1560,1205,0,0
343,-181,0,0,0,0,0,0,0,0,0,-1,1567,1205,0,0
350,-181,0,0,0,0,0,0,0,0,0,-1,1574,1205,0,0
357,-181,0,0,0,0,0,0,0,0,0,-1,1581,1205,0,0
364,-181,0,0,0,0,0,0,0,0,0,-1,1588,1205,0,0
371,-181,0,0,0,0,0,0,0,0,0,-1,1595,1205,0,0
378,-181,0,0,0,0,0,0,0,0,0,-1,1602,1205,0,0
385,-181,0,0,0,0,0,0,0,0,0,-1,1609,1205,0,0
392,-181,0,0,0,0,0,0,0,0,0,-1,1616,1205,0,0
399,-181,0,0,0,0,0,0,0,0,0,-1,1623,1205,0,0
406,-181,0,0,0,0,0,0,0,0,0,-1,1630,1205,0,0
413,-181,0,0,0,0,0,0,0,0,0,-1,1637,1205,0,0
420,-181,0,0,0,0,0,0,0,0,0,-1,1644,1205,0,0
427,-181,0,0,0,0,0,0,0,0,0,-1,1651,1205,0,0
434,-181,0,0,0,0,0,0,0,0,0,-1,1658,1205,0,0
441,-181,0,0,0,0,0,0,0,0,0,-1,1665,1205,0,0
448,-181,0,0,0,0,0,0,0,0,0,-1,1672,1205,0,0
455,-181,0,0,0,0,0,0,0,0,0,-1,1679,1205,0,0
462,-181,0,0,0,0,0,0,0,0,0,-1,1686,1205,0,0
469,-181,0,0,0,0,0,0,0,0,0,-1,1693,1205,0,0
476,-181,0,0,0,0,0,0,0,0,0,-1,1700,1205,0,0
483,-181,0,0,0,0,0,0,0,0,0,-1,1707,1205,0,0
490,-181,0,0,0,0,0,0,0,0,0,-1,1714,1205,0,0
497,-181,0,0,0,0,0,0,0,0,0,-1,1721,1205,0,0
504,-181,0,0,0,0,0,0,0,0,0,-1,1728,1205,0,0
511,-181,0,0,0,0,0,0,0,0,0,-1,1735,1205,0,0
518,-181,0,0,0,0,0,0,0,0,0,-1,1742,1205,0,0
525,-181,0,0,0,0,0,0,0,0,0,-1,1749,1205,0,0
532,-181,0,0,0,0,0,0,0,0,0,-1,1756,1205,0,0
539,-181,0,0,0,0,0,0,0,0,0,-1,1763,1205,0,0
546,-181,0,0,0,0,0,0,0,0,0,-1,1770,1205,0,0
553,-181,0,0,0,0,0,0,0,0,0,-1,1777,1205,0,0
560,-181,0,0,0,0,0,0,0,0,0,-1,1784,1205,0,0
567,-181,0,0,0,0,0,0,0,0,0,-1,1791,1205,0,0
574,-181,0,0,0,0,0,0,0,0,0,-1,1798,1205,0,0
581,-181,0,0,0,0,0,0,0,0,0,-1,1805,1205,0,0
588,-181,0,0,0,0,0,0,0,0,0,-1,1812,1205,0,0
595,-181,0,0,0,0,0,0,0,0,0,-1,1819,1205,0,0
602,-181,0,0,0,0,0,0,0,0,0,-1,1826,1205,0,0
609,-181,0,0,0,0,0,0,0,0,0,-1,1833,1205,0,0
616,-181,0,0,0,0,0,0,0,0,0,-1,1840,1205,0,0
623,-181,0,0,0,0,0,0,0,0,0,-1,1847,1205,0,0
630,-181,28.9941,2.66736,-0.000397601,-0.00470795,-0.000183983,-0.000389762,-0.00471579,-0.0425809,0.00302233,0.0397612,1854,1205,28.9941,-2.66735
637,-181,28.9889,2.63257,-4.46446e-05,-0.00302776,0.000150918,-3.70289e-05,-0.00303538,0.0504191,0.00201135,0.0395698,1861,1205,28.9889,-2.63261
644,-181,28.9717,2.64795,0.000356651,-0.00112074,7.73594e-05,0.000360691,-0.00112478,0.0521719,0.000894659,0.0399987,1868,1205,28.9717,-2.648
651,-181,29,2.68481,0.000827752,0.00074987,-0.000209382,0.00100178,0.000575839,-0.693459,0.000580534,0.0392532,1875,1205,29,-2.68477
658,-181,29.0629,2.69971,0.00103946,0.00209767,-0.000374825,0.00221698,0.000920152,-1.26262,0.00128612,0.0353807,1882,1205,29.0628,-2.69968
665,-181,29.0258,2.73108,0.000931661,0.00280911,-0.000301512,0.00285634,0.000884428,-1.4154,0.00168848,0.0326871,1889,1205,29.0257,-2.73102
672,-181,29.0157,2.64526,0.000582686,0.00292657,-0.000124202,0.00293314,0.000576123,-1.518,0.00179448,0.0240465,1896,1205,29.0158,-2.64527
679,-181,29.0563,2.57617,-2.18508e-05,0.00275821,0.000222183,0.00277585,-3.94959e-05,1.49155,0.00186387,0.0266239,1903,1205,29.0562,-2.57621
686,-181,29.1006,2.51453,-0.000677897,0.00249626,0.000530511,0.00258257,-0.000764217,1.4095,0.00202511,0.0466617,1910,1205,29.1006,-2.51452
693,-181,29.1697,2.45032,0,0,0,0,0,0,0,-1,1917,1205,29.1697,-2.4503
700,-181,25.7391,5.72351,0,0,0,0,0,0,0,-1,1924,1205,25.7391,-5.72356
707,-181,25.7102,5.59155,-0.00221016,0.00169051,0.00131259,0.00209106,-0.00261072,1.27461,0.00272009,0.0399519,1931,1205,25.7102,-5.59158
714,-181,25.7374,5.43201,-0.00269541,0.00132756,0.00153329,0.00184531,-0.00321317,1.24514,0.00295589,0.0282741,1938,1205,25.7374,-5.43206
721,-181,25.5754,5.27173,-0.0028131,0.000660002,0.00180545,0.00142849,-0.00358159,1.16837,0.00298028,0.0197703,1945,1205,25.5754,-5.27175
728,-181,25.3691,5.13281,-0.00250212,0.000294625,0.00198221,0.00132207,-0.00352957,1.09259,0.00289613,0.0119873,1952,1205,25.3691,-5.1328
735,-181,25.3773,4.91064,-0.00152632,0.00031807,0.00183541,0.00144993,-0.00265819,1.0182,0.00240578,0.0114288,1959,1205,25.3774,-4.91065
742,-181,25.3705,4.69739,0.00032997,0.000626237,0.00110818,0.00159614,-0.000639934,0.851841,0.00132976,0.0169952,1966,1205,25.3704,-4.69736
749,-181,25.3571,4.4707,0.00301463,0.00140119,-0.000264078,0.00305675,0.00135907,-0.158177,0.00176842,0.0157128,1973,1205,25.3571,-4.47071
756,-181,25.3408,4.24731,0.00600934,0.00269734,-0.00250173,0.0073535,0.00135318,-0.493035,0.00451932,0.0115589,1980,1205,25.3408,-4.24731
763,-181,25.3096,4.04456,0.00947726,0.00414125,-0.0050854,0.012552,0.00106648,-0.543816,0.00803615,0.0121976,1987,1205,25.3096,-4.04459
770,-181,25.3375,3.85754,0.013278,0.00610491,-0.00874858,0.0191467,0.000236249,-0.590867,0.0126864,0.0266513,1994,1205,25.3375,-3.85755
777,-181,25.3989,3.4613,0.0173429,0.00871861,-0.0142263,0.0278963,-0.00183473,-0.638244,0.0192383,0.0478652,2001,1205,25.3989,-3.46133
784,-181,25.5182,3.06787,0,0,0,0,0,0,0,-1,2008,1205,25.5182,-3.06787
791,-181,29.1497,2.17114,0,0,0,0,0,0,0,-1,2015,1205,29.1496,-2.17115
798,-181,29.4812,2.21704,0,0,0,0,0,0,0,-1,2022,1205,29.4811,-2.21709
805,-181,0,0,0,0,0,0,0,0,0,-1,2029,1205,0,0
812,-181,0,0,0,0,0,0,0,0,0,-1,2036,1205,0,0
-700,-188,0,0,0,0,0,0,0,0,0,-1,524,1212,0,0
-693,-188,0,0,0,0,0,0,0,0,0,-1,531,1212,0,0
-686,-188,0,0,0,0,0,0,0,0,0,-1,538,1212,0,0
-679,-188,-9.14221,3.60315,-0.0932697,-0.0339859,-0.0329269,-0.0193241,-0.107932,-1.15187,0.0664562,0.0477445,545,1212,-9.14223,-3.60313
-672,-188,-15.2263,2.14099,-0.07237,-0.0263028,-0.0215768,-0.0177753,-0.0808976,-1.19442,0.0490913,0.0484418,552,1212,-15.2262,-2.14096
-665,-188,-15.4138,-1.07947,0,0,0,0,0,0,0,-1,559,1212,-15.4138,1.07951
-658,-188,-15.3231,-0.504028,0,0,0,0,0,0,0,-1,566,1212,-15.3231,0.504067
-651,-188,-15.3504,0.00146484,0,0,0,0,0,0,0,-1,573,1212,-15.3504,-0.00145263
-644,-188,-15.6599,0.551758,-0.0193578,-0.00673156,0.00037762,-0.00672028,-0.0193691,1.54092,0.011356,0.0387435,580,1212,-15.6599,-0.551718
-637,-188,-15.9059,1.24438,-0.0125371,-0.00411246,0.00197535,-0.00367229,-0.0129772,1.35155,0.00772407,0.0202725,587,1212,-15.9059,-1.24444
-630,-188,-15.9366,1.50671,-0.00737784,-0.00211085,0.00299067,-0.000759444,-0.00872924,1.14639,0.00558359,0.00952585,594,1212,-15.9366,-1.50666
-623,-188,-15.9402,1.75586,-0.00313877,-0.000284181,0.00319434,0.00178724,-0.00521019,0.995501,0.004198,0.0104081,601,1212,-15.9402,-1.75584
-616,-188,-15.9303,2.00928,-0.00153613,0.000236157,0.00245927,0.00196407,-0.00326404,0.958321,0.00304939,0.010724,608,1212,-15.9303,-2.00932
-609,-188,-15.9227,2.26746,-0.00183179,0.000140103,0.000732216,0.000382257,-0.00207395,1.25141,0.00152609,0.013411,615,1212,-15.9227,-2.26746
-602,-188,-15.9383,2.54688,-0.00310855,-1.3815e-06,-0.000779624,0.000183262,-0.0032932,-1.33824,0.00225903,0.0163782,622,1212,-15.9383,-2.54691
-595,-188,-15.957,2.79211,-0.00407909,0.000192395,-0.00194263,0.000943726,-0.00483042,-1.20176,0.0035766,0.0128166,629,1212,-15.957,-2.79207
-588,-188,-15.9789,3.0415,-0.00461474,0.000766203,-0.00277834,0.00194327,-0.00579181,-1.17006,0.00464645,0.0133047,636,1212,-15.9789,-3.04156
-581,-188,-16.017,3.28967,-0.00509025,0.000801442,-0.00326964,0.00225657,-0.00654538,-1.15207,0.00527906,0.0141158,643,1212,-16.017,-3.28964
-574,-188,-16.2141,3.35352,-0.00505733,0.000861261,-0.00335004,0.00237189,-0.00656795,-1.14717,0.00534758,0.0385682,650,1212,-16.2141,-3.35349
-567,-188,-16.4174,3.35364,0,0,0,0,0,0,0,-1,657,1212,-16.4174,-3.35365
-560,-188,-20.0227,0.585571,0,0,0,0,0,0,0,-1,664,1212,-20.0227,-0.585599
-553,-188,-20.0376,0.61377,-0.00353515,0.00142633,-0.00278176,0.00267282,-0.00478164,-1.14953,0.00436086,0.0477644,671,1212,-20.0376,-0.613796
-546,-188,-20.0969,0.688232,-0.00253073,0.00157111,-0.00234551,0.0026359,-0.00359553,-1.14464,0.00361191,0.039244,678,1212,-20.0969,-0.688252
-539,-188,-20.103,0.827759,-0.0011543,0.00144802,-0.00173017,0.00231169,-0.00201797,-1.1078,0.00250165,0.0323484,685,1212,-20.103,-0.827733
-532,-188,-20.0516,0.884888,0.000751806,0.000834903,-0.000836651,0.00163104,-4.43275e-05,-0.810208,0.00110243,0.038963,692,1212,-20.0516,-0.884889
-525,-188,-20.3286,0.78418,0.00347172,-0.000750386,0.000402354,0.00350972,-0.000788387,0.0941677,0.00264211,0.0396322,699,1212,-20.3286,-0.784238
-518,-188,-20.1487,0.95813,0.00593441,-0.00396481,0.00130865,0.00610449,-0.00413489,0.12924,0.00594805,0.0394703,706,1212,-20.1487,-0.958113
-511,-188,-20.0093,0.980225,0,0,0,0,0,0,0,-1,713,1212,-20.0093,-0.980248
-504,-188,0,0,0,0,0,0,0,0,0,-1,720,1212,0,0
-497,-188,0,0,0,0,0,0,0,0,0,-1,727,1212,0,0
-490,-188,0,0,0,0,0,0,0,0,0,-1,734,1212,0,0
-483,-188,0,0,0,0,0,0,0,0,0,-1,741,1212,0,0
-476,-188,0,0,0,0,0,0,0,0,0,-1,748,1212,0,0
-469,-188,0,0,0,0,0,0,0,0,0,-1,755,1212,0,0
-462,-188,0,0,0,0,0,0,0,0,0,-1,762,1212,0,0
-455,-188,0,0,0,0,0,0,0,0,0,-1,769,1212,0,0
-448,-188,0,0,0,0,0,0,0,0,0,-1,776,1212,0,0
-441,-188,0,0,0,0,0,0,0,0,0,-1,783,1212,0,0
-434,-188,0,0,0,0,0,0,0,0,0,-1,790,1212,0,0
-427,-188,0,0,0,0,0,0,0,0,0,-1,797,1212,0,0
-420,-188,0,0,0,0,0,0,0,0,0,-1,804,1212,0,0
-413,-188,0,0,0,0,0,0,0,0,0,-1,811,1212,0,0
-406,-188,0,0,0,0,0,0,0,0,0,-1,818,1212,0,0
-399,-188,0,0,0,0,0,0,0,0,0,-1,825,1212,0,0
-392,-188,0,0,0,0,0,0,0,0,0,-1,832,1212,0,0
-385,-188,0,0,0,0,0,0,0,0,0,-1,839,1212,0,0
-378,-188,0,0,0,0,0,0,0,0,0,-1,846,1212,0,0
-371,-188,0,0,0,0,0,0,0,0,0,-1,853,1212,0,0
-364,-188,0,0,0,0,0,0,0,0,0,-1,860,1212,0,0
-357,-188,0,0,0,0,0,0,0,0,0,-1,867,1212,0,0
-350,-188,0,0,0,0,0,0,0,0,0,-1,874,1212,0,0
-343,-188,0,0,0,0,0,0,0,0,0,-1,881,1212,0,0
-336,-188,0,0,0,0,0,0,0,0,0,-1,888,1212,0,0
-329,-188,0,0,0,0,0,0,0,0,0,-1,895,1212,0,0
-322,-188,0,0,0,0,0,0,0,0,0,-1,902,1212,0,0
-315,-188,0,0,0,0,0,0,0,0,0,-1,909,1212,0,0
-308,-188,0,0,0,0,0,0,0,0,0,-1,916,1212,0,0
-301,-188,0,0,0,0,0,0,0,0,0,-1,923,1212,0,0
-294,-188,0,0,0,0,0,0,0,0,0,-1,930,1212,0,0
-287,-188,0,0,0,0,0,0,0,0,0,-1,937,1212,0,0
-280,-188,0,0,0,0,0,0,0,0,0,-1,944,1212,0,0
-273,-188,0,0,0,0,0,0,0,0,0,-1,951,1212,0,0
-266,-188,0,0,0,0,0,0,0,0,0,-1,958,1212,0,0
-259,-188,0,0,0,0,0,0,0,0,0,-1,965,1212,0,0
-252,-188,0,0,0,0,0,0,0,0,0,-1,972,1212,0,0
-245,-188,0,0,0,0,0,0,0,0,0,-1,979,1212,0,0
-238,-188,0,0,0,0,0,0,0,0,0,-1,986,1212,0,0
-231,-188,0,0,0,0,0,0,0,0,0,-1,993,1212,0,0
-224,-188,0,0,0,0,0,0,0,0,0,-1,1000,1212,0,0
-217,-188,0,0,0,0,0,0,0,0,0,-1,1007,1212,0,0
-210,-188,0,0,0,0,0,0,0,0,0,-1,1014,1212,0,0
-203,-188,0,0,0,0,0,0,0,0,0,-1,1021,1212,0,0
-196,-188,0,0,0,0,0,0,0,0,0,-1,1028,1212,0,0
-189,-188,0,0,0,0,0,0,0,0,0,-1,1035,1212,0,0
-182,-188,0,0,0,0,0,0,0,0,0,-1,1042,1212,0,0
-175,-188,0,0,0,0,0,0,0,0,0,-1,1049,1212,0,0
-168,-188,0,0,0,0,0,0,0,0,0,-1,1056,1212,0,0
-161,-188,0,0,0,0,0,0,0,0,0,-1,1063,1212,0,0
-154,-188,0,0,0,0,0,0,0,0,0,-1,1070,1212,0,0
-147,-188,0,0,0,0,0,0,0,0,0,-1,1077,1212,0,0
-140,-188,0,0,0,0,0,0,0,0,0,-1,1084,1212,0,0
-133,-188,0,0,0,0,0,0,0,0,0,-1,1091,1212,0,0
-126,-188,0,0,0,0,0,0,0,0,0,-1,1098,1212,0,0
-119,-188,0,0,0,0,0,0,0,0,0,-1,1105,1212,0,0
-112,-188,0,0,0,0,0,0,0,0,0,-1,1112,1212,0,0
-105,-188,0,0,0,0,0,0,0,0,0,-1,1119,1212,0,0
-98,-188,0,0,0,0,0,0,0,0,0,-1,1126,1212,0,0
-91,-188,0,0,0,0,0,0,0,0,0,-1,1133,1212,0,0
-84,-188,0,0,0,0,0,0,0,0,0,-1,1140,1212,0,0
-77,-188,0,0,0,0,0,0,0,0,0,-1,1147,1212,0,0
-70,-188,0,0,0,0,0,0,0,0,0,-1,1154,1212,0,0
-63,-188,0,0,0,0,0,0,0,0,0,-1,1161,1212,0,0
-56,-188,0,0,0,0,0,0,0,0,0,-1,1168,1212,0,0
-49,-188,0,0,0,0,0,0,0,0,0,-1,1175,1212,0,0
-42,-188,0,0,0,0,0,0,0,0,0,-1,1182,1212,0,0
-35,-188,0,0,0,0,0,0,0,0,0,-1,1189,1212,0,0
-28,-188,0,0,0,0,0,0,0,0,0,-1,1196,1212,0,0
-21,-188,0,0,0,0,0,0,0,0,0,-1,1203,1212,0,0
-14,-188,0,0,0,0,0,0,0,0,0,-1,1210,1212,0,0
-7,-188,0,0,0,0,0,0,0,0,0,-1,1217,1212,0,0
0,-188,0,0,0,0,0,0,0,0,0,-1,1224,1212,0,0
7,-188,0,0,0,0,0,0,0,0,0,-1,1231,1212,0,0
14,-188,0,0,0,0,0,0,0,0,0,-1,1238,1212,0,0
21,-188,0,0,0,0,0,0,0,0,0,-1,1245,1212,0,0
28,-188,0,0,0,0,0,0,0,0,0,-1,1252,1212,0,0
35,-188,0,0,0,0,0,0,0,0,0,-1,1259,1212,0,0
42,-188,0,0,0,0,0,0,0,0,0,-1,1266,1212,0,0
49,-188,0,0,0,0,0,0,0,0,0,-1,1273,1212,0,0
56,-188,0,0,0,0,0,0,0,0,0,-1,1280,1212,0,0
63,-188,0,0,0,0,0,0,0,0,0,-1,1287,1212,0,0
70,-188,0,0,0,0,0,0,0,0,0,-1,1294,1212,0,0
77,-188,0,0,0,0,0,0,0,0,0,-1,1301,1212,0,0
84,-188,0,0,0,0,0,0,0,0,0,-1,1308,1212,0,0
91,-188,0,0,0,0,0,0,0,0,0,-1,1315,1212,0,0
98,-188,0,0,0,0,0,0,0,0,0,-1,1322,1212,0,0
105,-188,0,0,0,0,0,0,0,0,0,-1,1329,1212,0,0
112,-188,0,0,0,0,0,0,0,0,0,-1,1336,1212,0,0
119,-188,0,0,0,0,0,0,0,0,0,-1,1343,1212,0,0
126,-188,0,0,0,0,0,0,0,0,0,-1,1350,1212,0,0
133,-188,0,0,0,0,0,0,0,0,0,-1,1357,1212,0,0
140,-188,0,0,0,0,0,0,0,0,0,-1,1364,1212,0,0
147,-188,0,0,0,0,0,0,0,0,0,-1,1371,1212,0,0
154,-188,0,0,0,0,0,0,0,0,0,-1,1378,1212,0,0
161,-188,0,0,0,0,0,0,0,0,0,-1,1385,1212,0,0
168,-188,0,0,0,0,0,0,0,0,0,-1,1392,1212,0,0
175,-188,0,0,0,0,0,0,0,0,0,-1,1399,1212,0,0
182,-188,0,0,0,0,0,0,0,0,0,-1,1406,1212,0,0
189,-188,0,0,0,0,0,0,0,0,0,-1,1413,1212,0,0
196,-188,0,0,0,0,0,0,0,0,0,-1,1420,1212,0,0
203,-188,0,0,0,0,0,0,0,0,0,-1,1427,1212,0,0
210,-188,0,0,0,0,0,0,0,0,0,-1,1434,1212,0,0
217,-188,0,0,0,0,0,0,0,0,0,-1,1441,1212,0,0
224,-188,0,0,0,0,0,0,0,0,0,-1,1448,1212,0,0
231,-188,0,0,0,0,0,0,0,0,0,-1,1455,1212,0,0
238,-188,0,0,0,0,0,0,0,0,0,-1,1462,1212,0,0
245,-188,0,0,0,0,0,0,0,0,0,-1,1469,1212,0,0
252,-188,0,0,0,0,0,0,0,0,0,-1,1476,1212,0,0
259,-188,0,0,0,0,0,0,0,0,0,-1,1483,1212,0,0
266,-188,0,0,0,0,0,0,0,0,0,-1,1490,1212,0,0
273,-188,0,0,0,0,0,0,0,0,0,-1,1497,1212,0,0
280,-188,0,0,0,0,0,0,0,0,0,-1,1504,1212,0,0
287,-188,0,0,0,0,0,0,0,0,0,-1,1511,1212,0,0
294,-188,0,0,0,0,0,0,0,0,0,-1,1518,1212,0,0
301,-188,0,0,0,0,0,0,0,0,0,-1,1525,1212,0,0
308,-188,0,0,0,0,0,0,0,0,0,-1,1532,1212,0,0
315,-188,0,0,0,0,0,0,0,0,0,-1,1539,1212,0,0
322,-188,0,0,0,0,0,0,0,0,0,-1,1546,1212,0,0
329,-188,0,0,0,0,0,0,0,0,0,-1,1553,1212,0,0
336,-188,0,0,0,0,0,0,0,0,0,-1,1560,1212,0,0
343,-188,0,0,0,0,0,0,0,0,0,-1,1567,1212,0,0
350,-188,0,0,0,0,0,0,0,0,0,-1,1574,1212,0,0
357,-188,0,0,0,0,0,0,0,0,0,-1,1581,1212,0,0
364,-188,0,0,0,0,0,0,0,0,0,-1,1588,1212,0,0
371,-188,0,0,0,0,0,0,0,0,0,-1,1595,1212,0,0
378,-188,0,0,0,0,0,0,0,0,0,-1,1602,1212,0,0
385,-188,0,0,0,0,0,0,0,0,0,-1,1609,1212,0,0
392,-188,0,0,0,0,0,0,0,0,0,-1,1616,1212,0,0
399,-188,0,0,0,0,0,0,0,0,0,-1,1623,1212,0,0
406,-188,0,0,0,0,0,0,0,0,0,-1,1630,1212,0,0
413,-188,0,0,0,0,0,0,0,0,0,-1,1637,1212,0,0
420,-188,0,0,0,0,0,0,0,0,0,-1,1644,1212,0,0
427,-188,0,0,0,0,0,0,0,0,0,-1,1651,1212,0,0
434,-188,0,0,0,0,0,0,0,0,0,-1,1658,1212,0,0
441,-188,0,0,0,0,0,0,0,0,0,-1,1665,1212,0,0
448,-188,0,0,0,0,0,0,0,0,0,-1,1672,1212,0,0
455,-188,0,0,0,0,0,0,0,0,0,-1,1679,1212,0,0
462,-188,0,0,0,0,0,0,0,0,0,-1,1686,1212,0,0
469,-188,0,0,0,0,0,0,0,0,0,-1,1693,1212,0,0
476,-188,0,0,0,0,0,0,0,0,0,-1,1700,1212,0,0
483,-188,0,0,0,0,0,0,0,0,0,-1,1707,1212,0,0
490,-188,0,0,0,0,0,0,0,0,0,-1,1714,1212,0,0
497,-188,0,0,0,0,0,0,0,0,0,-1,1721,1212,0,0
504,-188,0,0,0,0,0,0,0,0,0,-1,1728,1212,0,0
511,-188,0,0,0,0,0,0,0,0,0,-1,1735,1212,0,0
518,-188,0,0,0,0,0,0,0,0,0,-1,1742,1212,0,0
525,-188,0,0,0,0,0,0,0,0,0,-1,1749,1212,0,0
532,-188,0,0,0,0,0,0,0,0,0,-1,1756,1212,0,0
539,-188,0,0,0,0,0,0,0,0,0,-1,1763,1212,0,0
546,-188,0,0,0,0,0,0,0,0,0,-1,1770,1212,0,0
553,-188,0,0,0,0,0,0,0,0,0,-1,1777,1212,0,0
560,-188,0,0,0,0,0,0,0,0,0,-1,1784,1212,0,0
567,-188,0,0,0,0,0,0,0,0,0,-1,1791,1212,0,0
574,-188,0,0,0,0,0,0,0,0,0,-1,1798,1212,0,0
581,-188,0,0,0,0,0,0,0,0,0,-1,1805,1212,0,0
588,-188,0,0,0,0,0,0,0,0,0,-1,1812,1212,0,0
595,-188,0,0,0,0,0,0,0,0,0,-1,1819,1212,0,0
602,-188,0,0,0,0,0,0,0,0,0,-1,1826,1212,0,0
609,-188,0,0,0,0,0,0,0,0,0,-1,1833,1212,0,0
616,-188,0,0,0,0,0,0,0,0,0,-1,1840,1212,0,0
623,-188,0,0,0,0,0,0,0,0,0,-1,1847,1212,0,0
630,-188,28.9818,2.6792,0.00112427,-0.00361891,-0.000564874,0.00119062,-0.00368525,-0.116913,0.00293533,0.0433167,1854,1212,28.9818,-2.67921
637,-188,29.0453,2.55566,0.000812078,-0.00211372,-0.000266994,0.000836243,-0.00213789,-0.0902617,0.00177108,0.042524,1861,1212,29.0453,-2.55566
644,-188,29.0524,2.49402,0.000586834,-0.000286405,-0.000315456,0.000688869,-0.000388441,-0.312833,0.000629995,0.0365115,1868,1212,29.0524,-2.49405
651,-188,29.02,2.64087,0.000555603,0.00140269,-0.000516299,0.00164695,0.00031135,-1.12891,0.0010103,0.0309384,1875,1212,29.02,-2.64085
658,-188,29.002,2.6853,0.000527606,0.00250224,-0.000589137,0.00266465,0.000365194,-1.3018,0.00166808,0.0300103,1882,1212,29.002,-2.68534
665,-188,28.9856,2.60059,0.000480447,0.00304517,-0.000517419,0.00314562,0.000379995,-1.37904,0.00198259,0.0281734,1889,1212,28.9856,-2.60054
672,-188,29.031,2.57813,0.000293058,0.00303197,-0.000344933,0.00307474,0.000250285,-1.44742,0.0019717,0.0239482,1896,1212,29.031,-2.57812
679,-188,29.0543,2.47913,-7.44109e-05,0.00281056,-3.08133e-05,0.00281089,-7.47399e-05,-1.56012,0.00189933,0.0449766,1903,1212,29.0543,-2.47914
686,-188,29.1184,2.3468,-0.000509947,0.0025373,0.000237037,0.00255563,-0.000528275,1.49363,0.00190443,0.0418869,1910,1212,29.1185,-2.34675
693,-188,29.2137,2.2218,0,0,0,0,0,0,0,-1,1917,1212,29.2138,-2.22177
700,-188,25.5778,5.79114,0,0,0,0,0,0,0,-1,1924,1212,25.5778,-5.79116
707,-188,25.3494,5.64917,-0.0015442,0.00169779,0.000918008,0.00193968,-0.00178609,1.31315,0.00215169,0.0216482,1931,1212,25.3494,-5.64919
714,-188,25.3245,5.53516,-0.00181867,0.00134217,0.00115462,0.00171901,-0.00219551,1.25532,0.00226562,0.0176576,1938,1212,25.3244,-5.53514
721,-188,25.2032,5.36572,-0.00170281,0.000639952,0.00143271,0.00131919,-0.00238205,1.12809,0.00216608,0.0147443,1945,1212,25.2032,-5.36566
728,-188,25.1444,5.14844,-0.00139591,0.000267645,0.00158553,0.00122633,-0.00235459,1.02697,0.00210138,0.00958003,1952,1212,25.1444,-5.14843
735,-188,25.1251,4.9303,-0.000427938,0.000314305,0.00144586,0.00143591,-0.00154954,0.911026,0.00172407,0.0131972,1959,1212,25.1252,-4.93024
742,-188,25.1139,4.69153,0.00141152,0.000608116,0.000799579,0.00190463,0.000115006,0.552618,0.00123321,0.0146361,1966,1212,25.1138,-4.69149
749,-188,25.1162,4.46069,0.00408205,0.00130859,-0.000414708,0.00414273,0.00124791,-0.145295,0.002454,0.0133702,1973,1212,25.1162,-4.46074
756,-188,25.1008,4.25122,0.00716593,0.00244435,-0.00240828,0.00817754,0.00143273,-0.397678,0.00504243,0.012037,1980,1212,25.1008,-4.25124
763,-188,25.1,4.05432,0.0109067,0.00373592,-0.00479391,0.0133077,0.00133493,-0.464319,0.00846198,0.0140442,1987,1212,25.1,-4.05436
770,-188,25.1069,3.8197,0.0152582,0.00556451,-0.00830756,0.0200294,0.000793286,-0.521326,0.0130965,0.0230452,1994,1212,25.1069,-3.81967
777,-188,25.7698,3.19202,0.0200308,0.00795658,-0.0135917,0.0288658,-0.000878446,-0.576398,0.0195433,0.0449273,2001,1212,25.7698,-3.19199
784,-188,26.4104,2.57861,0,0,0,0,0,0,0,-1,2008,1212,26.4104,-2.57857
791,-188,25.5492,1.02454,0,0,0,0,0,0,0,-1,2015,1212,25.5492,-1.02448
798,-188,25.8425,1.73572,0,0,0,0,0,0,0,-1,2022,1212,25.8425,-1.73577
805,-188,0,0,0,0,0,0,0,0,0,-1,2029,1212,0,0
812,-188,0,0,0,0,0,0,0,0,0,-1,2036,1212,0,0
-700,-195,0,0,0,0,0,0,0,0,0,-1,524,1219,0,0
-693,-195,0,0,0,0,0,0,0,0,0,-1,531,1219,0,0
-686,-195,0,0,0,0,0,0,0,0,0,-1,538,1219,0,0
-679,-195,-15.7991,1.98938,0,0,0,0,0,0,0,-1,545,1219,-15.7991,-1.98943
-672,-195,-15.7883,1.83789,0,0,0,0,0,0,0,-1,552,1219,-15.7883,-1.83789
-665,-195,-15.7775,1.6864,0,0,0,0,0,0,0,-1,559,1219,-15.7775,-1.68634
-658,-195,-14.8401,1.72107,0,0,0,0,0,0,0,-1,566,1219,-14.8401,-1.72109
-651,-195,-15.0676,1.42163,0,0,0,0,0,0,0,-1,573,1219,-15.0676,-1.42167
-644,-195,-15.2686,0.861572,-0.0109201,-0.00988757,0.00345673,-0.00690875,-0.0138989,0.859524,0.00802458,0.0402738,580,1219,-15.2685,-0.86155
-637,-195,-15.5912,1.26208,-0.00610411,-0.0066139,0.0042909,-0.00206054,-0.0106575,0.755731,0.00652745,0.0212076,587,1219,-15.5912,-1.26209
-630,-195,-15.6688,1.49292,-0.00264859,-0.0040266,0.00463122,0.00134459,-0.00801979,0.711553,0.00584649,0.00748642,594,1219,-15.6688,-1.49287
-623,-195,-15.6718,1.75378,0.000203916,-0.00174723,0.00432519,0.00366219,-0.00520551,0.674476,0.00514555,0.00752591,601,1219,-15.6717,-1.75375
-616,-195,-15.6583,2.0155,0.000506639,-0.000570007,0.0031549,0.00316882,-0.00323218,0.700897,0.00369568,0.00968507,608,1219,-15.6583,-2.0155
-609,-195,-15.6641,2.28516,-0.000600117,-9.02246e-05,0.00118111,0.000863141,-0.00155348,0.891694,0.00141409,0.0176295,615,1219,-15.664,-2.28518
-602,-195,-15.6895,2.51501,-0.00215314,-6.25315e-05,-0.000501347,5.14787e-05,-0.00226715,-1.34719,0.00152888,0.021478,622,1219,-15.6895,-2.51501
-595,-195,-15.7189,2.79785,-0.00323873,0.000238933,-0.00172075,0.00094643,-0.00394623,-1.18071,0.00299654,0.0156232,629,1219,-15.7189,-2.79781
-588,-195,-15.7096,3.04333,-0.00383719,0.000920137,-0.00247389,0.00197341,-0.00489046,-1.16829,0.0040804,0.00995802,636,1219,-15.7096,-3.04334
-581,-195,-15.7693,3.2157,-0.00435194,0.000982719,-0.00284042,0.00221188,-0.0055811,-1.16239,0.00463733,0.0153423,643,1219,-15.7694,-3.21565
-574,-195,-15.9768,3.14575,-0.00428855,0.00110504,-0.00284711,0.00232983,-0.00551333,-1.16454,0.00465092,0.0336002,650,1219,-15.9768,-3.14575
-567,-195,-16.1608,3.04077,0,0,0,0,0,0,0,-1,657,1219,-16.1608,-3.04073
-560,-195,-17.2854,0.244507,0,0,0,0,0,0,0,-1,664,1219,-17.2854,-0.244526
-553,-195,-20.0276,0.591187,0,0,0,0,0,0,0,-1,671,1219,-20.0276,-0.591131
-546,-195,-20.0894,0.837891,-0.00211297,0.00193615,-0.00175624,0.00259174,-0.00276856,-1.21352,0.00309534,0.0446207,678,1219,-20.0894,-0.837864
-539,-195,-20.1227,0.877563,-0.00117348,0.00189526,-0.00130995,0.00237838,-0.0016566,-1.21747,0.00234198,0.0347922,685,1219,-20.1227,-0.877519
-532,-195,-20.1602,0.820435,3.30952e-05,0.00142696,-0.00075878,0.0017603,-0.000300244,-1.15687,0.00128536,0.0325394,692,1219,-20.1602,-0.820483
-525,-195,-20.152,0.832275,0.00178445,9.2382e-05,-5.94001e-05,0.00178653,9.02994e-05,-0.0350476,0.00116209,0.0356423,699,1219,-20.152,-0.832245
-518,-195,-19.9749,0.677612,0.00346157,-0.00297961,0.000227173,0.00346957,-0.00298761,0.0352105,0.00373152,0.0368998,706,1219,-19.9749,-0.677573
-511,-195,-19.6661,0.451416,0,0,0,0,0,0,0,-1,713,1219,-19.6661,-0.451425
-504,-195,0,0,0,0,0,0,0,0,0,-1,720,1219,0,0
-497,-195,0,0,0,0,0,0,0,0,0,-1,727,1219,0,0
-490,-195,0,0,0,0,0,0,0,0,0,-1,734,1219,0,0
-483,-195,0,0,0,0,0,0,0,0,0,-1,741,1219,0,0
-476,-195,0,0,0,0,0,0,0,0,0,-1,748,1219,0,0
-469,-195,0,0,0,0,0,0,0,0,0,-1,755,1219,0,0
-462,-195,0,0,0,0,0,0,0,0,0,-1,762,1219,0,0
-455,-195,0,0,0,0,0,0,0,0,0,-1,769,1219,0,0
-448,-195,0,0,0,0,0,0,0,0,0,-1,776,1219,0,0
-441,-195,0,0,0,0,0,0,0,0,0,-1,783,1219,0,0
-434,-195,0,0,0,0,0,0,0,0,0,-1,790,1219,0,0
-427,-195,0,0,0,0,0,0,0,0,0,-1,797,1219,0,0
-420,-195,0,0,0,0,0,0,0,0,0,-1,804,1219,0,0
-413,-195,0,0,0,0,0,0,0,0,0,-1,811,1219,0,0
-406,-195,0,0,0,0,0,0,0,0,0,-1,818,1219,0,0
-399,-195,0,0,0,0,0,0,0,0,0,-1,825,1219,0,0
-392,-195,0,0,0,0,0,0,0,0,0,-1,832,1219,0,0
-385,-195,0,0,0,0,0,0,0,0,0,-1,839,1219,0,0
-378,-195,0,0,0,0,0,0,0,0,0,-1,846,1219,0,0
-371,-195,0,0,0,0,0,0,0,0,0,-1,853,1219,0,0
-364,-195,0,0,0,0,0,0,0,0,0,-1,860,1219,0,0
-357,-195,0,0,0,0,0,0,0,0,0,-1,867,1219,0,0
-350,-195,0,0,0,0,0,0,0,0,0,-1,874,1219,0,0
-343,-195,0,0,0,0,0,0,0,0,0,-1,881,1219,0,0
-336,-195,0,0,0,0,0,0,0,0,0,-1,888,1219,0,0
-329,-195,0,0,0,0,0,0,0,0,0,-1,895,1219,0,0
-322,-195,0,0,0,0,0,0,0,0,0,-1,902,1219,0,0
-315,-195,0,0,0,0,0,0,0,0,0,-1,909,1219,0,0
-308,-195,0,0,0,0,0,0,0,0,0,-1,916,1219,0,0
-301,-195,0,0,0,0,0,0,0,0,0,-1,923,1219,0,0
-294,-195,0,0,0,0,0,0,0,0,0,-1,930,1219,0,0
-287,-195,0,0,0,0,0,0,0,0,0,-1,937,1219,0,0
-280,-195,0,0,0,0,0,0,0,0,0,-1,944,1219,0,0
-273,-195,0,0,0,0,0,0,0,0,0,-1,951,1219,0,0
-266,-195,0,0,0,0,0,0,0,0,0,-1,958,1219,0,0
-259,-195,0,0,0,0,0,0,0,0,0,-1,965,1219,0,0
-252,-195,0,0,0,0,0,0,0,0,0,-1,972,1219,0,0
-245,-195,0,0,0,0,0,0,0,0,0,-1,979,1219,0,0
-238,-195,0,0,0,0,0,0,0,0,0,-1,986,1219,0,0
-231,-195,0,0,0,0,0,0,0,0,0,-1,993,1219,0,0
-224,-195,0,0,0,0,0,0,0,0,0,-1,1000,1219,0,0
-217,-195,0,0,0,0,0,0,0,0,0,-1,1007,1219,0,0
-210,-195,0,0,0,0,0,0,0,0,0,-1,1014,1219,0,0
-203,-195,0,0,0,0,0,0,0,0,0,-1,1021,1219,0,0
-196,-195,0,0,0,0,0,0,0,0,0,-1,1028,1219,0,0
-189,-195,0,0,0,0,0,0,0,0,0,-1,1035,1219,0,0
-182,-195,0,0,0,0,0,0,0,0,0,-1,1042,1219,0,0
-175,-195,0,0,0,0,0,0,0,0,0,-1,1049,1219,0,0
-168,-195,0,0,0,0,0,0,0,0,0,-1,1056,1219,0,0
-161,-195,0,0,0,0,0,0,0,0,0,-1,1063,1219,0,0
-154,-195,0,0,0,0,0,0,0,0,0,-1,1070,1219,0,0
-147,-195,0,0,0,0,0,0,0,0,0,-1,1077,1219,0,0
-140,-195,0,0,0,0,0,0,0,0,0,-1,1084,1219,0,0
-133,-195,0,0,0,0,0,0,0,0,0,-1,1091,1219,0,0
-126,-195,0,0,0,0,0,0,0,0,0,-1,1098,1219,0,0
-119,-195,0,0,0,0,0,0,0,0,0,-1,1105,1219,0,0
-112,-195,0,0,0,0,0,0,0,0,0,-1,1112,1219,0,0
-105,-195,0,0,0,0,0,0,0,0,0,-1,1119,1219,0,0
-98,-195,0,0,0,0,0,0,0,0,0,-1,1126,1219,0,0
-91,-195,0,0,0,0,0,0,0,0,0,-1,1133,1219,0,0
-84,-195,0,0,0,0,0,0,0,0,0,-1,1140,1219,0,0
-77,-195,0,0,0,0,0,0,0,0,0,-1,1147,1219,0,0
-70,-195,0,0,0,0,0,0,0,0,0,-1,1154,1219,0,0
-63,-195,0,0,0,0,0,0,0,0,0,-1,1161,1219,0,0
-56,-195,0,0,0,0,0,0,0,0,0,-1,1168,1219,0,0
-49,-195,0,0,0,0,0,0,0,0,0,-1,1175,1219,0,0
-42,-195,0,0,0,0,0,0,0,0,0,-1,1182,1219,0,0
-35,-195,0,0,0,0,0,0,0,0,0,-1,1189,1219,0,0
-28,-195,0,0,0,0,0,0,0,0,0,-1,1196,1219,0,0
-21,-195,0,0,0,0,0,0,0,0,0,-1,1203,1219,0,0
-14,-195,0,0,0,0,0,0,0,0,0,-1,1210,1219,0,0
-7,-195,0,0,0,0,0,0,0,0,0,-1,1217,1219,0,0
0,-195,0,0,0,0,0,0,0,0,0,-1,1224,1219,0,0
7,-195,0,0,0,0,0,0,0,0,0,-1,1231,1219,0,0
14,-195,0,0,0,0,0,0,0,0,0,-1,1238,1219,0,0
21,-195,0,0,0,0,0,0,0,0,0,-1,1245,1219,0,0
28,-195,0,0,0,0,0,0,0,0,0,-1,1252,1219,0,0
35,-195,0,0,0,0,0,0,0,0,0,-1,1259,1219,0,0
42,-195,0,0,0,0,0,0,0,0,0,-1,1266,1219,0,0
49,-195,0,0,0,0,0,0,0,0,0,-1,1273,1219,0,0
56,-195,0,0,0,0,0,0,0,0,0,-1,1280,1219,0,0
63,-195,0,0,0,0,0,0,0,0,0,-1,1287,1219,0,0
70,-195,0,0,0,0,0,0,0,0,0,-1,1294,1219,0,0
77,-195,0,0,0,0,0,0,0,0,0,-1,1301,1219,0,0
84,-195,0,0,0,0,0,0,0,0,0,-1,1308,1219,0,0
91,-195,0,0,0,0,0,0,0,0,0,-1,1315,1219,0,0
98,-195,0,0,0,0,0,0,0,0,0,-1,1322,1219,0,0
105,-195,0,0,0,0,0,0,0,0,0,-1,1329,1219,0,0
112,-195,0,0,0,0,0,0,0,0,0,-1,1336,1219,0,0
119,-195,0,0,0,0,0,0,0,0,0,-1,1343,1219,0,0
126,-195,0,0,0,0,0,0,0,0,0,-1,1350,1219,0,0
133,-195,0,0,0,0,0,0,0,0,0,-1,1357,1219,0,0
140,-195,0,0,0,0,0,0,0,0,0,-1,1364,1219,0,0
147,-195,0,0,0,0,0,0,0,0,0,-1,1371,1219,0,0
154,-195,0,0,0,0,0,0,0,0,0,-1,1378,1219,0,0
161,-195,0,0,0,0,0,0,0,0,0,-1,1385,1219,0,0
168,-195,0,0,0,0,0,0,0,0,0,-1,1392,1219,0,0
175,-195,0,0,0,0,0,0,0,0,0,-1,1399,1219,0,0
182,-195,0,0,0,0,0,0,0,0,0,-1,1406,1219,0,0
189,-195,0,0,0,0,0,0,0,0,0,-1,1413,1219,0,0
196,-195,0,0,0,0,0,0,0,0,0,-1,1420,1219,0,0
203,-195,0,0,0,0,0,0,0,0,0,-1,1427,1219,0,0
210,-195,0,0,0,0,0,0,0,0,0,-1,1434,1219,0,0
217,-195,0,0,0,0,0,0,0,0,0,-1,1441,1219,0,0
224,-195,0,0,0,0,0,0,0,0,0,-1,1448,1219,0,0
231,-195,0,0,0,0,0,0,0,0,0,-1,1455,1219,0,0
238,-195,0,0,0,0,0,0,0,0,0,-1,1462,1219,0,0
245,-195,0,0,0,0,0,0,0,0,0,-1,1469,1219,0,0
252,-195,0,0,0,0,0,0,0,0,0,-1,1476,1219,0,0
259,-195,0,0,0,0,0,0,0,0,0,-1,1483,1219,0,0
266,-195,0,0,0,0,0,0,0,0,0,-1,1490,1219,0,0
273,-195,0,0,0,0,0,0,0,0,0,-1,1497,1219,0,0
280,-195,0,0,0,0,0,0,0,0,0,-1,1504,1219,0,0
287,-195,0,0,0,0,0,0,0,0,0,-1,1511,1219,0,0
294,-195,0,0,0,0,0,0,0,0,0,-1,1518,1219,0,0
301,-195,0,0,0,0,0,0,0,0,0,-1,1525,1219,0,0
308,-195,0,0,0,0,0,0,0,0,0,-1,1532,1219,0,0
315,-195,0,0,0,0,0,0,0,0,0,-1,1539,1219,0,0
322,-195,0,0,0,0,0,0,0,0,0,-1,1546,1219,0,0
329,-195,0,0,0,0,0,0,0,0,0,-1,1553,1219,0,0
336,-195,0,0,0,0,0,0,0,0,0,-1,1560,1219,0,0
343,-195,0,0,0,0,0,0,0,0,0,-1,1567,1219,0,0
350,-195,0,0,0,0,0,0,0,0,0,-1,1574,1219,0,0
357,-195,0,0,0,0,0,0,0,0,0,-1,1581,1219,0,0
364,-195,0,0,0,0,0,0,0,0,0,-1,1588,1219,0,0
371,-195,0,0,0,0,0,0,0,0,0,-1,1595,1219,0,0
378,-195,0,0,0,0,0,0,0,0,0,-1,1602,1219,0,0
385,-195,0,0,0,0,0,0,0,0,0,-1,1609,1219,0,0
392,-195,0,0,0,0,0,0,0,0,0,-1,1616,1219,0,0
399,-195,0,0,0,0,0,0,0,0,0,-1,1623,1219,0,0
406,-195,0,0,0,0,0,0,0,0,0,-1,1630,1219,0,0
413,-195,0,0,0,0,0,0,0,0,0,-1,1637,1219,0,0
420,-195,0,0,0,0,0,0,0,0,0,-1,1644,1219,0,0
427,-195,0,0,0,0,0,0,0,0,0,-1,1651,1219,0,0
434,-195,0,0,0,0,0,0,0,0,0,-1,1658,1219,0,0
441,-195,0,0,0,0,0,0,0,0,0,-1,1665,1219,0,0
448,-195,0,0,0,0,0,0,0,0,0,-1,1672,1219,0,0
455,-195,0,0,0,0,0,0,0,0,0,-1,1679,1219,0,0
462,-195,0,0,0,0,0,0,0,0,0,-1,1686,1219,0,0
469,-195,0,0,0,0,0,0,0,0,0,-1,1693,1219,0,0
476,-195,0,0,0,0,0,0,0,0,0,-1,1700,1219,0,0
483,-195,0,0,0,0,0,0,0,0,0,-1,1707,1219,0,0
490,-195,0,0,0,0,0,0,0,0,0,-1,1714,1219,0,0
497,-195,0,0,0,0,0,0,0,0,0,-1,1721,1219,0,0
504,-195,0,0,0,0,0,0,0,0,0,-1,1728,1219,0,0
511,-195,0,0,0,0,0,0,0,0,0,-1,1735,1219,0,0
518,-195,0,0,0,0,0,0,0,0,0,-1,1742,1219,0,0
525,-195,0,0,0,0,0,0,0,0,0,-1,1749,1219,0,0
532,-195,0,0,0,0,0,0,0,0,0,-1,1756,1219,0,0
539,-195,0,0,0,0,0,0,0,0,0,-1,1763,1219,0,0
546,-195,0,0,0,0,0,0,0,0,0,-1,1770,1219,0,0
553,-195,0,0,0,0,0,0,0,0,0,-1,1777,1219,0,0
560,-195,0,0,0,0,0,0,0,0,0,-1,1784,1219,0,0
567,-195,0,0,0,0,0,0,0,0,0,-1,1791,1219,0,0
574,-195,0,0,0,0,0,0,0,0,0,-1,1798,1219,0,0
581,-195,0,0,0,0,0,0,0,0,0,-1,1805,1219,0,0
588,-195,0,0,0,0,0,0,0,0,0,-1,1812,1219,0,0
595,-195,0,0,0,0,0,0,0,0,0,-1,1819,1219,0,0
602,-195,0,0,0,0,0,0,0,0,0,-1,1826,1219,0,0
609,-195,0,0,0,0,0,0,0,0,0,-1,1833,1219,0,0
616,-195,0,0,0,0,0,0,0,0,0,-1,1840,1219,0,0
623,-195,0,0,0,0,0,0,0,0,0,-1,1847,1219,0,0
630,-195,29.145,2.74255,0.00160086,-0.00212779,-0.000812837,0.00177036,-0.00229728,-0.205574,0.00235501,0.0412234,1854,1219,29.145,-2.7425
637,-195,29.1201,2.68298,0.00093073,-0.000667998,-0.000531023,0.00109104,-0.000828305,-0.293184,0.00111159,0.0401465,1861,1219,29.1201,-2.68292
644,-195,29.0703,2.61328,0.000334314,0.00102947,-0.000492767,0.00128491,7.88746e-05,-1.09255,0.000831561,0.0352024,1868,1219,29.0703,-2.6133
651,-195,29.0433,2.6311,7.59048e-05,0.00240867,-0.000580892,0.00254531,-6.07416e-05,-1.33976,0.00171748,0.0265387,1875,1219,29.0433,-2.63115
658,-195,29.0436,2.65967,0.00010631,0.00317388,-0.000637776,0.00330119,-2.10049e-05,-1.37376,0.00220783,0.0229754,1882,1219,29.0436,-2.65962
665,-195,29.0526,2.62268,0.000255834,0.00345434,-0.00061352,0.00356798,0.00014219,-1.38764,0.0023327,0.0214516,1889,1219,29.0527,-2.62274
672,-195,29.0665,2.47595,0.000267455,0.0032729,-0.000487145,0.00334989,0.000190468,-1.41405,0.00217255,0.0329936,1896,1219,29.0666,-2.47592
679,-195,29.0664,2.34424,0,0,0,0,0,0,0,-1,1903,1219,29.0664,-2.34428
686,-195,29.1121,2.20679,0,0,0,0,0,0,0,-1,1910,1219,29.1121,-2.2068
693,-195,24.4368,5.68298,0,0,0,0,0,0,0,-1,1917,1219,24.4368,-5.68293
700,-195,24.9834,6.15942,0,0,0,0,0,0,0,-1,1924,1219,24.9834,-6.15945
707,-195,24.9431,5.85339,-0.000578814,0.00165048,0.000430106,0.00173059,-0.000658918,1.38666,0.00142508,0.0234195,1931,1219,24.9431,-5.85343
714,-195,24.9138,5.57813,-0.000682761,0.00125924,0.000649244,0.0014563,-0.000879819,1.27611,0.00136238,0.0220746,1938,1219,24.9138,-5.57818
721,-195,24.9164,5.37805,-0.000435881,0.000536758,0.000911863,0.00108388,-0.000983002,1.03037,0.00119379,0.0123225,1945,1219,24.9164,-5.37801
728,-195,24.9125,5.15747,-0.000147042,0.000164524,0.00105858,0.00107872,-0.00106124,0.858455,0.00123552,0.0103594,1952,1219,24.9125,-5.15753
735,-195,24.8856,4.93408,0.000765584,0.000225237,0.00100022,0.00153148,-0.000540656,0.653489,0.0012411,0.0128876,1959,1219,24.8856,-4.93403
742,-195,24.8855,4.70032,0.0025132,0.000482047,0.000510519,0.00263429,0.00036095,0.232899,0.0016491,0.0144919,1966,1219,24.8854,-4.70037
749,-195,24.8843,4.4679,0.00508105,0.00106735,-0.000469718,0.00513529,0.00101311,-0.114959,0.00314077,0.0138209,1973,1219,24.8842,-4.46785
756,-195,24.8623,4.25928,0.00820705,0.00199279,-0.00216411,0.00888642,0.00131341,-0.304186,0.00553863,0.012797,1980,1219,24.8623,-4.25922
763,-195,24.8666,4.04919,0.0122501,0.00307512,-0.00434486,0.013981,0.00134415,-0.379122,0.00890651,0.0143417,1987,1219,24.8666,-4.04917
770,-195,24.9354,3.81787,0.017177,0.00464006,-0.00765269,0.0208008,0.00101624,-0.442252,0.0135412,0.0267589,1994,1219,24.9355,-3.81782
777,-195,25.7712,3.46033,0.0226582,0.00665794,-0.0126073,0.0295895,-0.000273324,-0.502675,0.0198181,0.0432648,2001,1219,25.7712,-3.4603
784,-195,26.3877,3.06848,0,0,0,0,0,0,0,-1,2008,1219,26.3876,-3.06848
791,-195,26.7745,2.53967,0,0,0,0,0,0,0,-1,2015,1219,26.7745,-2.53968
798,-195,26.9534,1.8501,0,0,0,0,0,0,0,-1,2022,1219,26.9534,-1.85014
805,-195,0,0,0,0,0,0,0,0,0,-1,2029,1219,0,0
812,-195,0,0,0,0,0,0,0,0,0,-1,2036,1219,0,0
-700,-202,0,0,0,0,0,0,0,0,0,-1,524,1226,0,0
-693,-202,0,0,0,0,0,0,0,0,0,-1,531,1226,0,0
-686,-202,0,0,0,0,0,0,0,0,0,-1,538,1226,0,0
-679,-202,-16.0255,1.91516,0,0,0,0,0,0,0,-1,545,1226,-16.0254,-1.91512
-672,-202,-15.9617,1.80542,0,0,0,0,0,0,0,-1,552,1226,-15.9617,-1.80538
-665,-202,-15.3593,1.97937,0,0,0,0,0,0,0,-1,559,1226,-15.3592,-1.97941
-658,-202,-15.2032,1.54065,-0.00867244,-0.020752,0.00242143,-0.00820512,-0.0212193,0.190647,0.0123554,0.0441679,566,1226,-15.2033,-1.54063
-651,-202,-15.175,1.31702,-0.000760318,-0.0155129,0.00418768,0.00034551,-0.0166187,0.258174,0.0111961,0.0467721,573,1226,-15.175,-1.317
-644,-202,-15.3289,1.30713,0.00438406,-0.0110521,0.00490437,0.00581047,-0.0124785,0.283036,0.0107905,0.0424658,580,1226,-15.3289,-1.30708
-637,-202,-15.302,1.25586,0.00716754,-0.00740067,0.00485209,0.00863563,-0.00886876,0.293812,0.0101065,0.0334254,587,1226,-15.302,-1.25588
-630,-202,-15.3627,1.47937,0.00837359,-0.0045371,0.00459413,0.00984147,-0.00600498,0.30926,0.0092379,0.0132209,594,1226,-15.3627,-1.47934
-623,-202,-15.3994,1.74304,0.0090209,-0.0021539,0.00396485,0.0102847,-0.00341771,0.308572,0.00823559,0.00745535,601,1226,-15.3994,-1.74305
-616,-202,-15.412,2.01111,0.00710157,-0.000717207,0.00260612,0.0078906,-0.00150624,0.293989,0.00582773,0.00822077,608,1226,-15.412,-2.01113
-609,-202,-15.3902,2.26184,0.0038946,5.09763e-05,0.000781907,0.00404758,-0.000101998,0.193203,0.00273302,0.0202387,615,1226,-15.3902,-2.2618
-602,-202,-15.4293,2.48608,0.00081035,4.12983e-05,-0.000642261,0.0011744,-0.000322747,-0.515664,0.0009098,0.0203093,622,1226,-15.4293,-2.48611
-595,-202,-15.4611,2.78503,-0.00120794,0.000275802,-0.00165639,0.00134887,-0.00228101,-0.995945,0.00211862,0.0163571,629,1226,-15.4611,-2.78504
-588,-202,-15.4149,3.06799,-0.00241012,0.000843625,-0.00211981,0.00188889,-0.00345538,-1.11269,0.00312939,0.0085172,636,1226,-15.4149,-3.06803
-581,-202,-15.4056,3.2301,-0.00340249,0.00094825,-0.00226929,0.00191643,-0.00437067,-1.16753,0.00372091,0.0202479,643,1226,-15.4055,-3.23012
-574,-202,-15.6138,3.2218,-0.00328975,0.00113933,-0.00219343,0.00204173,-0.00419215,-1.18049,0.00366982,0.0304723,650,1226,-15.6138,-3.2218
-567,-202,-15.8001,3.20508,0,0,0,0,0,0,0,-1,657,1226,-15.8001,-3.20503
-560,-202,-10.929,2.73096,0,0,0,0,0,0,0,-1,664,1226,-10.929,-2.73092
-553,-202,-20.1044,0.836182,0,0,0,0,0,0,0,-1,671,1226,-20.1044,-0.83621
-546,-202,-20.0582,0.766968,-0.00134539,0.00209579,-0.00102758,0.00237928,-0.00162889,-1.30161,0.0023276,0.0460317,678,1226,-20.0582,-0.766956
-539,-202,-20.0353,0.724121,-0.000786972,0.00213505,-0.00071974,0.00230272,-0.000954635,-1.34193,0.00193357,0.0392853,685,1226,-20.0353,-0.724112
-532,-202,-20.1259,0.775635,-0.000191629,0.00181055,-0.000438373,0.00190232,-0.000283403,-1.36442,0.00137247,0.0281765,692,1226,-20.1258,-0.775629
-525,-202,-20.1865,0.820923,0.000666066,0.000759615,-0.000161309,0.000880794,0.000544887,-0.926513,0.000513276,0.0331253,699,1226,-20.1865,-0.820918
-518,-202,-19.8765,0.567261,0.00142514,-0.00191472,-0.000342283,0.00145986,-0.00194944,-0.101084,0.00197511,0.0396405,706,1226,-19.8765,-0.567283
-511,-202,-19.478,0.149658,0,0,0,0,0,0,0,-1,713,1226,-19.478,-0.149614
-504,-202,0,0,0,0,0,0,0,0,0,-1,720,1226,0,0
-497,-202,0,0,0,0,0,0,0,0,0,-1,727,1226,0,0
-490,-202,0,0,0,0,0,0,0,0,0,-1,734,1226,0,0
-483,-202,0,0,0,0,0,0,0,0,0,-1,741,1226,0,0
-476,-202,0,0,0,0,0,0,0,0,0,-1,748,1226,0,0
-469,-202,0,0,0,0,0,0,0,0,0,-1,755,1226,0,0
-462,-202,0,0,0,0,0,0,0,0,0,-1,762,1226,0,0
-455,-202,0,0,0,0,0,0,0,0,0,-1,769,1226,0,0
-448,-202,0,0,0,0,0,0,0,0,0,-1,776,1226,0,0
-441,-202,0,0,0,0,0,0,0,0,0,-1,783,1226,0,0
-434,-202,0,0,0,0,0,0,0,0,0,-1,790,1226,0,0
-427,-202,0,0,0,0,0,0,0,0,0,-1,797,1226,0,0
-420,-202,0,0,0,0,0,0,0,0,0,-1,804,1226,0,0
-413,-202,0,0,0,0,0,0,0,0,0,-1,811,1226,0,0
-406,-202,0,0,0,0,0,0,0,0,0,-1,818,1226,0,0
-399,-202,0,0,0,0,0,0,0,0,0,-1,825,1226,0,0
-392,-202,0,0,0,0,0,0,0,0,0,-1,832,1226,0,0
-385,-202,0,0,0,0,0,0,0,0,0,-1,839,1226,0,0
-378,-202,0,0,0,0,0,0,0,0,0,-1,846,1226,0,0
-371,-202,0,0,0,0,0,0,0,0,0,-1,853,1226,0,0
-364,-202,0,0,0,0,0,0,0,0,0,-1,860,1226,0,0
-357,-202,0,0,0,0,0,0,0,0,0,-1,867,1226,0,0
-350,-202,0,0,0,0,0,0,0,0,0,-1,874,1226,0,0
-343,-202,0,0,0,0,0,0,0,0,0,-1,881,1226,0,0
-336,-202,0,0,0,0,0,0,0,0,0,-1,888,1226,0,0
-329,-202,0,0,0,0,0,0,0,0,0,-1,895,1226,0,0
-322,-202,0,0,0,0,0,0,0,0,0,-1,902,1226,0,0
-315,-202,0,0,0,0,0,0,0,0,0,-1,909,1226,0,0
-308,-202,0,0,0,0,0,0,0,0,0,-1,916,1226,0,0
-301,-202,0,0,0,0,0,0,0,0,0,-1,923,1226,0,0
-294,-202,0,0,0,0,0,0,0,0,0,-1,930,1226,0,0
-287,-202,0,0,0,0,0,0,0,0,0,-1,937,1226,0,0
-280,-202,0,0,0,0,0,0,0,0,0,-1,944,1226,0,0
-273,-202,0,0,0,0,0,0,0,0,0,-1,951,1226,0,0
-266,-202,0,0,0,0,0,0,0,0,0,-1,958,1226,0,0
-259,-202,0,0,0,0,0,0,0,0,0,-1,965,1226,0,0
-252,-202,0,0,0,0,0,0,0,0,0,-1,972,1226,0,0
-245,-202,0,0,0,0,0,0,0,0,0,-1,979,1226,0,0
-238,-202,0,0,0,0,0,0,0,0,0,-1,986,1226,0,0
-231,-202,0,0,0,0,0,0,0,0,0,-1,993,1226,0,0
-224,-202,0,0,0,0,0,0,0,0,0,-1,1000,1226,0,0
-217,-202,0,0,0,0,0,0,0,0,0,-1,1007,1226,0,0
-210,-202,0,0,0,0,0,0,0,0,0,-1,1014,1226,0,0
-203,-202,0,0,0,0,0,0,0,0,0,-1,1021,1226,0,0
-196,-202,0,0,0,0,0,0,0,0,0,-1,1028,1226,0,0
-189,-202,0,0,0,0,0,0,0,0,0,-1,1035,1226,0,0
-182,-202,0,0,0,0,0,0,0,0,0,-1,1042,1226,0,0
-175,-202,0,0,0,0,0,0,0,0,0,-1,1049,1226,0,0
-168,-202,0,0,0,0,0,0,0,0,0,-1,1056,1226,0,0
-161,-202,0,0,0,0,0,0,0,0,0,-1,1063,1226,0,0
-154,-202,0,0,0,0,0,0,0,0,0,-1,1070,1226,0,0
-147,-202,0,0,0,0,0,0,0,0,0,-1,1077,1226,0,0
-140,-202,0,0,0,0,0,0,0,0,0,-1,1084,1226,0,0
-133,-202,0,0,0,0,0,0,0,0,0,-1,1091,1226,0,0
-126,-202,0,0,0,0,0,0,0,0,0,-1,1098,1226,0,0
-119,-202,0,0,0,0,0,0,0,0,0,-1,1105,1226,0,0
-112,-202,0,0,0,0,0,0,0,0,0,-1,1112,1226,0,0
-105,-202,0,0,0,0,0,0,0,0,0,-1,1119,1226,0,0
-98,-202,0,0,0,0,0,0,0,0,0,-1,1126,1226,0,0
-91,-202,0,0,0,0,0,0,0,0,0,-1,1133,1226,0,0
-84,-202,0,0,0,0,0,0,0,0,0,-1,1140,1226,0,0
-77,-202,0,0,0,0,0,0,0,0,0,-1,1147,1226,0,0
-70,-202,0,0,0,0,0,0,0,0,0,-1,1154,1226,0,0
-63,-202,0,0,0,0,0,0,0,0,0,-1,1161,1226,0,0
-56,-202,0,0,0,0,0,0,0,0,0,-1,1168,1226,0,0
-49,-202,0,0,0,0,0,0,0,0,0,-1,1175,1226,0,0
-42,-202,0,0,0,0,0,0,0,0,0,-1,1182,1226,0,0
-35,-202,0,0,0,0,0,0,0,0,0,-1,1189,1226,0,0
-28,-202,0,0,0,0,0,0,0,0,0,-1,1196,1226,0,0
-21,-202,0,0,0,0,0,0,0,0,0,-1,1203,1226,0,0
-14,-202,0,0,0,0,0,0,0,0,0,-1,1210,1226,0,0
-7,-202,0,0,0,0,0,0,0,0,0,-1,1217,1226,0,0
0,-202,0,0,0,0,0,0,0,0,0,-1,1224,1226,0,0
7,-202,0,0,0,0,0,0,0,0,0,-1,1231,1226,0,0
14,-202,0,0,0,0,0,0,0,0,0,-1,1238,1226,0,0
21,-202,0,0,0,0,0,0,0,0,0,-1,1245,1226,0,0
28,-202,0,0,0,0,0,0,0,0,0,-1,1252,1226,0,0
35,-202,0,0,0,0,0,0,0,0,0,-1,1259,1226,0,0
42,-202,0,0,0,0,0,0,0,0,0,-1,1266,1226,0,0
49,-202,0,0,0,0,0,0,0,0,0,-1,1273,1226,0,0
56,-202,0,0,0,0,0,0,0,0,0,-1,1280,1226,0,0
63,-202,0,0,0,0,0,0,0,0,0,-1,1287,1226,0,0
70,-202,0,0,0,0,0,0,0,0,0,-1,1294,1226,0,0
77,-202,0,0,0,0,0,0,0,0,0,-1,1301,1226,0,0
84,-202,0,0,0,0,0,0,0,0,0,-1,1308,1226,0,0
91,-202,0,0,0,0,0,0,0,0,0,-1,1315,1226,0,0
98,-202,0,0,0,0,0,0,0,0,0,-1,1322,1226,0,0
105,-202,0,0,0,0,0,0,0,0,0,-1,1329,1226,0,0
112,-202,0,0,0,0,0,0,0,0,0,-1,1336,1226,0,0
119,-202,0,0,0,0,0,0,0,0,0,-1,1343,1226,0,0
126,-202,0,0,0,0,0,0,0,0,0,-1,1350,1226,0,0
133,-202,0,0,0,0,0,0,0,0,0,-1,1357,1226,0,0
140,-202,0,0,0,0,0,0,0,0,0,-1,1364,1226,0,0
147,-202,0,0,0,0,0,0,0,0,0,-1,1371,1226,0,0
154,-202,0,0,0,0,0,0,0,0,0,-1,1378,1226,0,0
161,-202,0,0,0,0,0,0,0,0,0,-1,1385,1226,0,0
168,-202,0,0,0,0,0,0,0,0,0,-1,1392,1226,0,0
175,-202,0,0,0,0,0,0,0,0,0,-1,1399,1226,0,0
182,-202,0,0,0,0,0,0,0,0,0,-1,1406,1226,0,0
189,-202,0,0,0,0,0,0,0,0,0,-1,1413,1226,0,0
196,-202,0,0,0,0,0,0,0,0,0,-1,1420,1226,0,0
203,-202,0,0,0,0,0,0,0,0,0,-1,1427,1226,0,0
210,-202,0,0,0,0,0,0,0,0,0,-1,1434,1226,0,0
217,-202,0,0,0,0,0,0,0,0,0,-1,1441,1226,0,0
224,-202,0,0,0,0,0,0,0,0,0,-1,1448,1226,0,0
231,-202,0,0,0,0,0,0,0,0,0,-1,1455,1226,0,0
238,-202,0,0,0,0,0,0,0,0,0,-1,1462,1226,0,0
245,-202,0,0,0,0,0,0,0,0,0,-1,1469,1226,0,0
252,-202,0,0,0,0,0,0,0,0,0,-1,1476,1226,0,0
259,-202,0,0,0,0,0,0,0,0,0,-1,1483,1226,0,0
266,-202,0,0,0,0,0,0,0,0,0,-1,1490,1226,0,0
273,-202,0,0,0,0,0,0,0,0,0,-1,1497,1226,0,0
280,-202,0,0,0,0,0,0,0,0,0,-1,1504,1226,0,0
287,-202,0,0,0,0,0,0,0,0,0,-1,1511,1226,0,0
294,-202,0,0,0,0,0,0,0,0,0,-1,1518,1226,0,0
301,-202,0,0,0,0,0,0,0,0,0,-1,1525,1226,0,0
308,-202,0,0,0,0,0,0,0,0,0,-1,1532,1226,0,0
315,-202,0,0,0,0,0,0,0,0,0,-1,1539,1226,0,0
322,-202,0,0,0,0,0,0,0,0,0,-1,1546,1226,0,0
329,-202,0,0,0,0,0,0,0,0,0,-1,1553,1226,0,0
336,-202,0,0,0,0,0,0,0,0,0,-1,1560,1226,0,0
343,-202,0,0,0,0,0,0,0,0,0,-1,1567,1226,0,0
350,-202,0,0,0,0,0,0,0,0,0,-1,1574,1226,0,0
357,-202,0,0,0,0,0,0,0,0,0,-1,1581,1226,0,0
364,-202,0,0,0,0,0,0,0,0,0,-1,1588,1226,0,0
371,-202,0,0,0,0,0,0,0,0,0,-1,1595,1226,0,0
378,-202,0,0,0,0,0,0,0,0,0,-1,1602,1226,0,0
385,-202,0,0,0,0,0,0,0,0,0,-1,1609,1226,0,0
392,-202,0,0,0,0,0,0,0,0,0,-1,1616,1226,0,0
399,-202,0,0,0,0,0,0,0,0,0,-1,1623,1226,0,0
406,-202,0,0,0,0,0,0,0,0,0,-1,1630,1226,0,0
413,-202,0,0,0,0,0,0,0,0,0,-1,1637,1226,0,0
420,-202,0,0,0,0,0,0,0,0,0,-1,1644,1226,0,0
427,-202,0,0,0,0,0,0,0,0,0,-1,1651,1226,0,0
434,-202,0,0,0,0,0,0,0,0,0,-1,1658,1226,0,0
441,-202,0,0,0,0,0,0,0,0,0,-1,1665,1226,0,0
448,-202,0,0,0,0,0,0,0,0,0,-1,1672,1226,0,0
455,-202,0,0,0,0,0,0,0,0,0,-1,1679,1226,0,0
462,-202,0,0,0,0,0,0,0,0,0,-1,1686,1226,0,0
469,-202,0,0,0,0,0,0,0,0,0,-1,1693,1226,0,0
476,-202,0,0,0,0,0,0,0,0,0,-1,1700,1226,0,0
483,-202,0,0,0,0,0,0,0,0,0,-1,1707,1226,0,0
490,-202,0,0,0,0,0,0,0,0,0,-1,1714,1226,0,0
497,-202,0,0,0,0,0,0,0,0,0,-1,1721,1226,0,0
504,-202,0,0,0,0,0,0,0,0,0,-1,1728,1226,0,0
511,-202,0,0,0,0,0,0,0,0,0,-1,1735,1226,0,0
518,-202,0,0,0,0,0,0,0,0,0,-1,1742,1226,0,0
525,-202,0,0,0,0,0,0,0,0,0,-1,1749,1226,0,0
532,-202,0,0,0,0,0,0,0,0,0,-1,1756,1226,0,0
539,-202,0,0,0,0,0,0,0,0,0,-1,1763,1226,0,0
546,-202,0,0,0,0,0,0,0,0,0,-1,1770,1226,0,0
553,-202,0,0,0,0,0,0,0,0,0,-1,1777,1226,0,0
560,-202,0,0,0,0,0,0,0,0,0,-1,1784,1226,0,0
567,-202,0,0,0,0,0,0,0,0,0,-1,1791,1226,0,0
574,-202,0,0,0,0,0,0,0,0,0,-1,1798,1226,0,0
581,-202,0,0,0,0,0,0,0,0,0,-1,1805,1226,0,0
588,-202,0,0,0,0,0,0,0,0,0,-1,1812,1226,0,0
595,-202,0,0,0,0,0,0,0,0,0,-1,1819,1226,0,0
602,-202,0,0,0,0,0,0,0,0,0,-1,1826,1226,0,0
609,-202,0,0,0,0,0,0,0,0,0,-1,1833,1226,0,0
616,-202,0,0,0,0,0,0,0,0,0,-1,1840,1226,0,0
623,-202,0,0,0,0,0,0,0,0,0,-1,1847,1226,0,0
630,-202,29.0896,2.80457,0.00143892,-0.00128013,-0.0013755,0.00201338,-0.00185459,-0.395619,0.0022338,0.0376128,1854,1226,29.0896,-2.80452
637,-202,29.1635,2.82617,0.000409847,0.000498224,-0.0007453,0.00120064,-0.000292573,-0.815008,0.000913704,0.0359896,1861,1226,29.1635,-2.82616
644,-202,29.1368,2.75415,-0.00048183,0.00226644,-0.00033866,0.00230756,-0.000522947,-1.44998,0.0017391,0.0321495,1868,1226,29.1369,-2.75409
651,-202,29.0823,2.63904,-0.000829541,0.00343265,-0.000192274,0.00344131,-0.000838197,-1.52581,0.00261871,0.025984,1875,1226,29.0823,-2.63906
658,-202,29.0492,2.6261,-0.000671083,0.0039112,-0.000206572,0.0039205,-0.000680377,-1.52584,0.00286749,0.0222262,1882,1226,29.0492,-2.62611
665,-202,29.0743,2.56067,-0.000327957,0.00392424,-0.000221729,0.00393578,-0.000339487,-1.51884,0.00274402,0.0207348,1889,1226,29.0744,-2.56071
672,-202,29.1056,2.41589,-0.000121916,0.00357622,-0.0001639,0.00358347,-0.000129166,-1.52659,0.00243318,0.0418088,1896,1226,29.1056,-2.41584
679,-202,29.083,2.21582,0,0,0,0,0,0,0,-1,1903,1226,29.083,-2.21585
686,-202,29.1455,2.14221,0,0,0,0,0,0,0,-1,1910,1226,29.1455,-2.14226
693,-202,24.6332,6.42065,0,0,0,0,0,0,0,-1,1917,1226,24.6331,-6.42059
700,-202,24.6062,6.10925,0.000128747,0.00194014,0.000186385,0.00195911,0.000109767,1.46932,0.00127107,0.0374763,1924,1226,24.6063,-6.1093
707,-202,24.6293,5.77002,7.48027e-05,0.00148654,0.000217298,0.00151923,4.21128e-05,1.42148,0.000999081,0.0305079,1931,1226,24.6292,-5.76996
714,-202,24.6677,5.56372,0.000145835,0.00107116,0.000420316,0.00123357,-1.65801e-05,1.20206,0.000827964,0.0177213,1938,1226,24.6678,-5.56374
721,-202,24.6923,5.36072,0.000529243,0.000349063,0.000653528,0.00109886,-0.000220555,0.716904,0.000816088,0.0122843,1945,1226,24.6923,-5.36072
728,-202,24.6862,5.13757,0.000812016,6.73038e-07,0.000769803,0.0012765,-0.000463808,0.542899,0.00104064,0.0101063,1952,1226,24.6861,-5.1376
735,-202,24.6724,4.91028,0.00167293,8.86865e-05,0.000774222,0.00198845,-0.000226837,0.386986,0.00140735,0.0105187,1959,1226,24.6724,-4.91033
742,-202,24.6653,4.69312,0.00331389,0.000344381,0.000432465,0.00337559,0.000282681,0.141715,0.00216233,0.0105254,1966,1226,24.6653,-4.69317
749,-202,24.6431,4.46936,0.00576346,0.000863627,-0.000303645,0.0057822,0.000844881,-0.0616561,0.00360632,0.0108543,1973,1226,24.6431,-4.46931
756,-202,24.6334,4.23755,0.00891558,0.00164128,-0.00168827,0.00928831,0.00126855,-0.217289,0.00581566,0.0109818,1980,1226,24.6335,-4.23751
763,-202,24.642,4.03735,0.0132346,0.00258022,-0.00361753,0.0143468,0.00146805,-0.298269,0.00911469,0.0152895,1987,1226,24.6419,-4.03733
770,-202,24.7526,4.07568,0.0187134,0.00392234,-0.00663174,0.0212514,0.00138441,-0.3655,0.0137294,0.0396006,1994,1226,24.7525,-4.07563
777,-202,24.8916,4.14136,0,0,0,0,0,0,0,-1,2001,1226,24.8915,-4.14132
784,-202,26.6563,3.09766,0,0,0,0,0,0,0,-1,2008,1226,26.6562,-3.09763
791,-202,26.5737,3.59583,0,0,0,0,0,0,0,-1,2015,1226,26.5737,-3.59582
798,-202,28.033,1.97632,0,0,0,0,0,0,0,-1,2022,1226,28.0329,-1.97636
805,-202,0,0,0,0,0,0,0,0,0,-1,2029,1226,0,0
812,-202,0,0,0,0,0,0,0,0,0,-1,2036,1226,0,0
-700,-209,0,0,0,0,0,0,0,0,0,-1,524,1233,0,0
-693,-209,0,0,0,0,0,0,0,0,0,-1,531,1233,0,0
-686,-209,0,0,0,0,0,0,0,0,0,-1,538,1233,0,0
-679,-209,-16.2904,1.79224,-0.0283494,-0.0434646,0.000907882,-0.0282951,-0.0435189,0.0597777,0.0255007,0.0470845,545,1233,-16.2904,-1.7922
-672,-209,-16.1258,1.71362,-0.011775,-0.0356629,0.004353,-0.0110065,-0.0364314,0.174746,0.0215758,0.0481298,552,1233,-16.1258,-1.71357
-665,-209,-15.6597,1.43616,0.000957956,-0.0283668,0.00648144,0.00232662,-0.0297354,0.20811,0.0206429,0.0432151,559,1233,-15.6597,-1.43611
-658,-209,-15.5036,1.38586,0.00978562,-0.0218053,0.00741458,0.0114393,-0.023459,0.219439,0.0205431,0.0450972,566,1233,-15.5036,-1.38581
-651,-209,-15.3228,1.24451,0.0153658,-0.0160556,0.00744603,0.017041,-0.0177308,0.221294,0.0200768,0.0474021,573,1233,-15.3228,-1.24451
-644,-209,-15.3387,1.06677,0,0,0,0,0,0,0,-1,580,1233,-15.3387,-1.06683
-637,-209,-15.2092,1.22961,0.0186365,-0.00722402,0.00586755,0.0199055,-0.00849304,0.212998,0.0168314,0.0413705,587,1233,-15.2092,-1.22963
-630,-209,-15.0555,1.43457,0.0176033,-0.00420168,0.00496027,0.0186786,-0.00527703,0.213488,0.0145343,0.0219438,594,1233,-15.0556,-1.43453
-623,-209,-15.1195,1.71875,0.0162261,-0.00186159,0.00395675,0.0170538,-0.00268927,0.206209,0.0123635,0.010764,601,1233,-15.1195,-1.71875
-616,-209,-15.1438,2.01501,0.0125542,-0.000277421,0.00233985,0.0129676,-0.000690777,0.174855,0.00888427,0.0121014,608,1233,-15.1438,-2.015
-609,-209,-15.1497,2.29175,0.00778247,0.000587997,0.000657965,0.00784215,0.000528318,0.0904543,0.0050612,0.0136813,615,1233,-15.1497,-2.29178
-602,-209,-15.1497,2.5481,0.00349833,0.000458056,-0.00050661,0.00358052,0.00037586,-0.160845,0.00227211,0.0151035,622,1233,-15.1497,-2.54806
-595,-209,-15.1392,2.79053,0.000736879,0.000565234,-0.00130201,0.00195589,-0.000653774,-0.752488,0.00156796,0.0118364,629,1233,-15.1392,-2.79055
-588,-209,-15.1207,3.05603,-0.000999554,0.000917218,-0.00147958,0.00172169,-0.00180403,-1.07279,0.00203576,0.0135472,636,1233,-15.1207,-3.05597
-581,-209,-15.0165,3.36133,-0.00227761,0.00105549,-0.00145318,0.00160007,-0.0028222,-1.21224,0.00258549,0.0210121,643,1233,-15.0165,-3.36137
-574,-209,-15.2354,3.52197,-0.0021786,0.00130793,-0.00127318,0.00172335,-0.00259403,-1.2554,0.00250948,0.0290867,650,1233,-15.2354,-3.52196
-567,-209,-15.4471,3.54492,0,0,0,0,0,0,0,-1,657,1233,-15.4471,-3.54492
-560,-209,-13.9294,4.16626,0,0,0,0,0,0,0,-1,664,1233,-13.9294,-4.16621
-553,-209,-20.4316,0.498535,0,0,0,0,0,0,0,-1,671,1233,-20.4316,-0.498493
-546,-209,-20.1415,0.375732,-0.000654593,0.00229708,-0.000117841,0.00230178,-0.00065929,-1.53096,0.0017951,0.0461736,678,1233,-20.1415,-0.375717
-539,-209,-20.0035,0.437866,-0.00048124,0.00238979,4.22656e-05,0.00239041,-0.000481862,1.55608,0.00177615,0.039905,685,1233,-20.0035,-0.437879
-532,-209,-20.0153,0.742188,-0.000450091,0.00218518,8.81872e-05,0.00218812,-0.000453039,1.53738,0.00163087,0.0308132,692,1233,-20.0153,-0.74213
-525,-209,-20.1158,0.802856,-0.000412738,0.00141183,3.8961e-05,0.00141266,-0.00041357,1.54946,0.00110572,0.0322184,699,1233,-20.1158,-0.802833
-518,-209,-20.009,0.571777,-0.000581047,-0.000682038,-0.000432882,-0.000195725,-0.00106736,-0.727336,0.000656136,0.0439126,706,1233,-20.009,-0.571745
-511,-209,-19.972,0.517334,-5.01537e-05,-0.00445133,-0.000916201,0.000132955,-0.00463444,-0.197258,0.00313489,0.047236,713,1233,-19.972,-0.517318
-504,-209,0,0,0,0,0,0,0,0,0,-1,720,1233,0,0
-497,-209,0,0,0,0,0,0,0,0,0,-1,727,1233,0,0
-490,-209,0,0,0,0,0,0,0,0,0,-1,734,1233,0,0
-483,-209,0,0,0,0,0,0,0,0,0,-1,741,1233,0,0
-476,-209,0,0,0,0,0,0,0,0,0,-1,748,1233,0,0
-469,-209,0,0,0,0,0,0,0,0,0,-1,755,1233,0,0
-462,-209,0,0,0,0,0,0,0,0,0,-1,762,1233,0,0
-455,-209,0,0,0,0,0,0,0,0,0,-1,769,1233,0,0
-448,-209,0,0,0,0,0,0,0,0,0,-1,776,1233,0,0
-441,-209,0,0,0,0,0,0,0,0,0,-1,783,1233,0,0
-434,-209,0,0,0,0,0,0,0,0,0,-1,790,1233,0,0
-427,-209,0,0,0,0,0,0,0,0,0,-1,797,1233,0,0
-420,-209,0,0,0,0,0,0,0,0,0,-1,804,1233,0,0
-413,-209,0,0,0,0,0,0,0,0,0,-1,811,1233,0,0
-406,-209,0,0,0,0,0,0,0,0,0,-1,818,1233,0,0
-399,-209,0,0,0,0,0,0,0,0,0,-1,825,1233,0,0
-392,-209,0,0,0,0,0,0,0,0,0,-1,832,1233,0,0
-385,-209,0,0,0,0,0,0,0,0,0,-1,839,1233,0,0
-378,-209,0,0,0,0,0,0,0,0,0,-1,846,1233,0,0
-371,-209,0,0,0,0,0,0,0,0,0,-1,853,1233,0,0
-364,-209,0,0,0,0,0,0,0,0,0,-1,860,1233,0,0
-357,-209,0,0,0,0,0,0,0,0,0,-1,867,1233,0,0
-350,-209,0,0,0,0,0,0,0,0,0,-1,874,1233,0,0
-343,-209,0,0,0,0,0,0,0,0,0,-1,881,1233,0,0
-336,-209,0,0,0,0,0,0,0,0,0,-1,888,1233,0,0
-329,-209,0,0,0,0,0,0,0,0,0,-1,895,1233,0,0
-322,-209,0,0,0,0,0,0,0,0,0,-1,902,1233,0,0
-315,-209,0,0,0,0,0,0,0,0,0,-1,909,1233,0,0
-308,-209,0,0,0,0,0,0,0,0,0,-1,916,1233,0,0
-301,-209,0,0,0,0,0,0,0,0,0,-1,923,1233,0,0
-294,-209,0,0,0,0,0,0,0,0,0,-1,930,1233,0,0
-287,-209,0,0,0,0,0,0,0,0,0,-1,937,1233,0,0
-280,-209,0,0,0,0,0,0,0,0,0,-1,944,1233,0,0
-273,-209,0,0,0,0,0,0,0,0,0,-1,951,1233,0,0
-266,-209,0,0,0,0,0,0,0,0,0,-1,958,1233,0,0
-259,-209,0,0,0,0,0,0,0,0,0,-1,965,1233,0,0
-252,-209,0,0,0,0,0,0,0,0,0,-1,972,1233,0,0
-245,-209,0,0,0,0,0,0,0,0,0,-1,979,1233,0,0
-238,-209,0,0,0,0,0,0,0,0,0,-1,986,1233,0,0
-231,-209,0,0,0,0,0,0,0,0,0,-1,993,1233,0,0
-224,-209,0,0,0,0,0,0,0,0,0,-1,1000,1233,0,0
-217,-209,0,0,0,0,0,0,0,0,0,-1,1007,1233,0,0
-210,-209,0,0,0,0,0,0,0,0,0,-1,1014,1233,0,0
-203,-209,0,0,0,0,0,0,0,0,0,-1,1021,1233,0,0
-196,-209,0,0,0,0,0,0,0,0,0,-1,1028,1233,0,0
-189,-209,0,0,0,0,0,0,0,0,0,-1,1035,1233,0,0
-182,-209,0,0,0,0,0,0,0,0,0,-1,1042,1233,0,0
-175,-209,0,0,0,0,0,0,0,0,0,-1,1049,1233,0,0
-168,-209,0,0,0,0,0,0,0,0,0,-1,1056,1233,0,0
-161,-209,0,0,0,0,0,0,0,0,0,-1,1063,1233,0,0
-154,-209,0,0,0,0,0,0,0,0,0,-1,1070,1233,0,0
-147,-209,0,0,0,0,0,0,0,0,0,-1,1077,1233,0,0
-140,-209,0,0,0,0,0,0,0,0,0,-1,1084,1233,0,0
-133,-209,0,0,0,0,0,0,0,0,0,-1,1091,1233,0,0
-126,-209,0,0,0,0,0,0,0,0,0,-1,1098,1233,0,0
-119,-209,0,0,0,0,0,0,0,0,0,-1,1105,1233,0,0
-112,-209,0,0,0,0,0,0,0,0,0,-1,1112,1233,0,0
-105,-209,0,0,0,0,0,0,0,0,0,-1,1119,1233,0,0
-98,-209,0,0,0,0,0,0,0,0,0,-1,1126,1233,0,0
-91,-209,0,0,0,0,0,0,0,0,0,-1,1133,1233,0,0
-84,-209,0,0,0,0,0,0,0,0,0,-1,1140,1233,0,0
-77,-209,0,0,0,0,0,0,0,0,0,-1,1147,1233,0,0
-70,-209,0,0,0,0,0,0,0,0,0,-1,1154,1233,0,0
-63,-209,0,0,0,0,0,0,0,0,0,-1,1161,1233,0,0
-56,-209,0,0,0,0,0,0,0,0,0,-1,1168,1233,0,0
-49,-209,0,0,0,0,0,0,0,0,0,-1,1175,1233,0,0
-42,-209,0,0,0,0,0,0,0,0,0,-1,1182,1233,0,0
-35,-209,0,0,0,0,0,0,0,0,0,-1,1189,1233,0,0
-28,-209,0,0,0,0,0,0,0,0,0,-1,1196,1233,0,0
-21,-209,0,0,0,0,0,0,0,0,0,-1,1203,1233,0,0
-14,-209,0,0,0,0,0,0,0,0,0,-1,1210,1233,0,0
-7,-209,0,0,0,0,0,0,0,0,0,-1,1217,1233,0,0
0,-209,0,0,0,0,0,0,0,0,0,-1,1224,1233,0,0
7,-209,0,0,0,0,0,0,0,0,0,-1,1231,1233,0,0
14,-209,0,0,0,0,0,0,0,0,0,-1,1238,1233,0,0
21,-209,0,0,0,0,0,0,0,0,0,-1,1245,1233,0,0
28,-209,0,0,0,0,0,0,0,0,0,-1,1252,1233,0,0
35,-209,0,0,0,0,0,0,0,0,0,-1,1259,1233,0,0
42,-209,0,0,0,0,0,0,0,0,0,-1,1266,1233,0,0
49,-209,0,0,0,0,0,0,0,0,0,-1,1273,1233,0,0
56,-209,0,0,0,0,0,0,0,0,0,-1,1280,1233,0,0
63,-209,0,0,0,0,0,0,0,0,0,-1,1287,1233,0,0
70,-209,0,0,0,0,0,0,0,0,0,-1,1294,1233,0,0
77,-209,0,0,0,0,0,0,0,0,0,-1,1301,1233,0,0
84,-209,0,0,0,0,0,0,0,0,0,-1,1308,1233,0,0
91,-209,0,0,0,0,0,0,0,0,0,-1,1315,1233,0,0
98,-209,0,0,0,0,0,0,0,0,0,-1,1322,1233,0,0
105,-209,0,0,0,0,0,0,0,0,0,-1,1329,1233,0,0
112,-209,0,0,0,0,0,0,0,0,0,-1,1336,1233,0,0
119,-209,0,0,0,0,0,0,0,0,0,-1,1343,1233,0,0
126,-209,0,0,0,0,0,0,0,0,0,-1,1350,1233,0,0
133,-209,0,0,0,0,0,0,0,0,0,-1,1357,1233,0,0
140,-209,0,0,0,0,0,0,0,0,0,-1,1364,1233,0,0
147,-209,0,0,0,0,0,0,0,0,0,-1,1371,1233,0,0
154,-209,0,0,0,0,0,0,0,0,0,-1,1378,1233,0,0
161,-209,0,0,0,0,0,0,0,0,0,-1,1385,1233,0,0
168,-209,0,0,0,0,0,0,0,0,0,-1,1392,1233,0,0
175,-209,0,0,0,0,0,0,0,0,0,-1,1399,1233,0,0
182,-209,0,0,0,0,0,0,0,0,0,-1,1406,1233,0,0
189,-209,0,0,0,0,0,0,0,0,0,-1,1413,1233,0,0
196,-209,0,0,0,0,0,0,0,0,0,-1,1420,1233,0,0
203,-209,0,0,0,0,0,0,0,0,0,-1,1427,1233,0,0
210,-209,0,0,0,0,0,0,0,0,0,-1,1434,1233,0,0
217,-209,0,0,0,0,0,0,0,0,0,-1,1441,1233,0,0
224,-209,0,0,0,0,0,0,0,0,0,-1,1448,1233,0,0
231,-209,0,0,0,0,0,0,0,0,0,-1,1455,1233,0,0
238,-209,0,0,0,0,0,0,0,0,0,-1,1462,1233,0,0
245,-209,0,0,0,0,0,0,0,0,0,-1,1469,1233,0,0
252,-209,0,0,0,0,0,0,0,0,0,-1,1476,1233,0,0
259,-209,0,0,0,0,0,0,0,0,0,-1,1483,1233,0,0
266,-209,0,0,0,0,0,0,0,0,0,-1,1490,1233,0,0
273,-209,0,0,0,0,0,0,0,0,0,-1,1497,1233,0,0
280,-209,0,0,0,0,0,0,0,0,0,-1,1504,1233,0,0
287,-209,0,0,0,0,0,0,0,0,0,-1,1511,1233,0,0
294,-209,0,0,0,0,0,0,0,0,0,-1,1518,1233,0,0
301,-209,0,0,0,0,0,0,0,0,0,-1,1525,1233,0,0
308,-209,0,0,0,0,0,0,0,0,0,-1,1532,1233,0,0
315,-209,0,0,0,0,0,0,0,0,0,-1,1539,1233,0,0
322,-209,0,0,0,0,0,0,0,0,0,-1,1546,1233,0,0
329,-209,0,0,0,0,0,0,0,0,0,-1,1553,1233,0,0
336,-209,0,0,0,0,0,0,0,0,0,-1,1560,1233,0,0
343,-209,0,0,0,0,0,0,0,0,0,-1,1567,1233,0,0
350,-209,0,0,0,0,0,0,0,0,0,-1,1574,1233,0,0
357,-209,0,0,0,0,0,0,0,0,0,-1,1581,1233,0,0
364,-209,0,0,0,0,0,0,0,0,0,-1,1588,1233,0,0
371,-209,0,0,0,0,0,0,0,0,0,-1,1595,1233,0,0
378,-209,0,0,0,0,0,0,0,0,0,-1,1602,1233,0,0
385,-209,0,0,0,0,0,0,0,0,0,-1,1609,1233,0,0
392,-209,0,0,0,0,0,0,0,0,0,-1,1616,1233,0,0
399,-209,0,0,0,0,0,0,0,0,0,-1,1623,1233,0,0
406,-209,0,0,0,0,0,0,0,0,0,-1,1630,1233,0,0
413,-209,0,0,0,0,0,0,0,0,0,-1,1637,1233,0,0
420,-209,0,0,0,0,0,0,0,0,0,-1,1644,1233,0,0
427,-209,0,0,0,0,0,0,0,0,0,-1,1651,1233,0,0
434,-209,0,0,0,0,0,0,0,0,0,-1,1658,1233,0,0
441,-209,0,0,0,0,0,0,0,0,0,-1,1665,1233,0,0
448,-209,0,0,0,0,0,0,0,0,0,-1,1672,1233,0,0
455,-209,0,0,0,0,0,0,0,0,0,-1,1679,1233,0,0
462,-209,0,0,0,0,0,0,0,0,0,-1,1686,1233,0,0
469,-209,0,0,0,0,0,0,0,0,0,-1,1693,1233,0,0
476,-209,0,0,0,0,0,0,0,0,0,-1,1700,1233,0,0
483,-209,0,0,0,0,0,0,0,0,0,-1,1707,1233,0,0
490,-209,0,0,0,0,0,0,0,0,0,-1,1714,1233,0,0
497,-209,0,0,0,0,0,0,0,0,0,-1,1721,1233,0,0
504,-209,0,0,0,0,0,0,0,0,0,-1,1728,1233,0,0
511,-209,0,0,0,0,0,0,0,0,0,-1,1735,1233,0,0
518,-209,0,0,0,0,0,0,0,0,0,-1,1742,1233,0,0
525,-209,0,0,0,0,0,0,0,0,0,-1,1749,1233,0,0
532,-209,0,0,0,0,0,0,0,0,0,-1,1756,1233,0,0
539,-209,0,0,0,0,0,0,0,0,0,-1,1763,1233,0,0
546,-209,0,0,0,0,0,0,0,0,0,-1,1770,1233,0,0
553,-209,0,0,0,0,0,0,0,0,0,-1,1777,1233,0,0
560,-209,0,0,0,0,0,0,0,0,0,-1,1784,1233,0,0
567,-209,0,0,0,0,0,0,0,0,0,-1,1791,1233,0,0
574,-209,0,0,0,0,0,0,0,0,0,-1,1798,1233,0,0
581,-209,0,0,0,0,0,0,0,0,0,-1,1805,1233,0,0
588,-209,0,0,0,0,0,0,0,0,0,-1,1812,1233,0,0
595,-209,0,0,0,0,0,0,0,0,0,-1,1819,1233,0,0
602,-209,0,0,0,0,0,0,0,0,0,-1,1826,1233,0,0
609,-209,0,0,0,0,0,0,0,0,0,-1,1833,1233,0,0
616,-209,0,0,0,0,0,0,0,0,0,-1,1840,1233,0,0
623,-209,28.9464,2.62585,0.00211396,-0.00225416,-0.00317025,0.00377965,-0.00391985,-0.483771,0.00444556,0.0337511,1847,1233,28.9464,-2.62581
630,-209,28.9075,2.58801,0.000734347,-0.000192668,-0.00186469,0.00219227,-0.00165059,-0.663581,0.00222601,0.0366641,1854,1233,28.9075,-2.58806
637,-209,29.0325,2.63,-0.000815613,0.00191206,-0.000726757,0.00209361,-0.000997165,-1.326,0.0018215,0.0362261,1861,1233,29.0325,-2.62996
644,-209,29.1334,2.64233,-0.00198073,0.00366953,0.000109309,0.00367165,-0.00198285,1.55146,0.0033128,0.0305009,1868,1233,29.1335,-2.64232
651,-209,29.0486,2.58142,-0.00231201,0.00454985,0.000459499,0.00458049,-0.00234264,1.50423,0.00406608,0.023224,1875,1233,29.0486,-2.58139
658,-209,29.0372,2.58484,-0.0020426,0.00469579,0.000516092,0.00473509,-0.0020819,1.4948,0.00403393,0.0204634,1882,1233,29.0372,-2.58485
665,-209,29.1338,2.54114,-0.00155153,0.00442544,0.000492764,0.00446579,-0.00159188,1.48909,0.00362622,0.0348568,1889,1233,29.1338,-2.54114
672,-209,29.4369,2.34326,-0.00116323,0.00389847,0.000490259,0.00394552,-0.00121028,1.47512,0.0031132,0.0489782,1896,1233,29.4369,-2.3433
679,-209,29.7789,2.30017,0,0,0,0,0,0,0,-1,1903,1233,29.7789,-2.30011
686,-209,28.9886,2.96887,0,0,0,0,0,0,0,-1,1910,1233,28.9886,-2.96884
693,-209,24.3326,6.56213,0,0,0,0,0,0,0,-1,1917,1233,24.3326,-6.56218
700,-209,24.3451,6.16589,-3.09806e-05,0.00174903,0.000464066,0.00186276,-0.000144701,1.33048,0.00129277,0.0317071,1924,1233,24.3451,-6.16595
707,-209,24.3966,5.81946,8.69074e-05,0.00121147,0.000361038,0.00131741,-1.90241e-05,1.2854,0.00088468,0.0250625,1931,1233,24.3966,-5.81943
714,-209,24.4247,5.60498,0.00033832,0.000794359,0.000560213,0.00117118,-3.85005e-05,0.978671,0.000793931,0.0144647,1938,1233,24.4247,-5.60502
721,-209,24.4424,5.3739,0.000908255,0.00011175,0.000732206,0.00134351,-0.000323502,0.536321,0.00102074,0.012047,1945,1233,24.4423,-5.37395
728,-209,24.464,5.14282,0.00125968,-0.000167593,0.000763909,0.00159143,-0.000499344,0.409705,0.0012608,0.0113816,1952,1233,24.464,-5.1428
735,-209,24.4558,4.9176,0.00215097,-1.44129e-05,0.000752991,0.00238707,-0.000250515,0.303843,0.00168112,0.0122371,1959,1233,24.4558,-4.91759
742,-209,24.4384,4.69409,0.00374568,0.000266175,0.000483379,0.00381158,0.000200271,0.135504,0.002477,0.0108981,1966,1233,24.4383,-4.69413
749,-209,24.4232,4.46667,0.00614196,0.000726045,-6.27272e-05,0.00614269,0.000725319,-0.0115799,0.00387604,0.0104181,1973,1233,24.4232,-4.46669
756,-209,24.4117,4.23572,0.00942526,0.00129765,-0.00105672,0.0095604,0.0011625,-0.127199,0.00602361,0.0109829,1980,1233,24.4117,-4.23574
763,-209,24.3828,4.05994,0.0140297,0.00197126,-0.00254094,0.0145432,0.00145771,-0.199425,0.00924797,0.0181643,1987,1233,24.3828,-4.05997
770,-209,24.5179,4.20007,0.0201331,0.00283789,-0.00486789,0.0214091,0.00156192,-0.256353,0.0137816,0.0449162,1994,1233,24.518,-4.20012
777,-209,24.6605,4.32153,0,0,0,0,0,0,0,-1,2001,1233,24.6606,-4.32154
784,-209,25.6029,4.47339,0,0,0,0,0,0,0,-1,2008,1233,25.6029,-4.47344
791,-209,25.8767,3.54944,0,0,0,0,0,0,0,-1,2015,1233,25.8767,-3.54941
798,-209,26.5842,2.755,0,0,0,0,0,0,0,-1,2022,1233,26.5842,-2.75505
805,-209,0,0,0,0,0,0,0,0,0,-1,2029,1233,0,0
812,-209,0,0,0,0,0,0,0,0,0,-1,2036,1233,0,0
-700,-216,0,0,0,0,0,0,0,0,0,-1,524,1240,0,0
-693,-216,0,0,0,0,0,0,0,0,0,-1,531,1240,0,0
-686,-216,0,0,0,0,0,0,0,0,0,-1,538,1240,0,0
-679,-216,-16.6097,1.6969,-0.000416528,-0.0479321,0.0158156,0.00436627,-0.0527149,0.293667,0.0366854,0.0473219,545,1240,-16.6097,-1.69695
-672,-216,-16.3592,1.64575,0.0148695,-0.0394854,0.0153867,0.0189229,-0.0435387,0.257581,0.0369839,0.048573,552,1240,-16.3592,-1.64572
-665,-216,-16.0236,1.57117,0.025367,-0.0314488,0.0143357,0.0287792,-0.0348611,0.233675,0.0367986,0.0446507,559,1240,-16.0236,-1.57113
-658,-216,-15.5618,1.5376,0.0313902,-0.0242063,0.0127466,0.0341733,-0.0269893,0.214966,0.0353933,0.0451781,566,1240,-15.5617,-1.53754
-651,-216,-15.408,1.47937,0.0339839,-0.0178611,0.0108398,0.0361591,-0.0200362,0.198031,0.0328865,0.0459875,573,1240,-15.408,-1.47938
-644,-216,-14.9315,0.0921631,0,0,0,0,0,0,0,-1,580,1240,-14.9315,-0.0921964
-637,-216,-14.9244,0.670044,0.0314887,-0.00812053,0.00686399,0.0326445,-0.00927629,0.166815,0.0254255,0.0436904,587,1240,-14.9244,-0.67008
-630,-216,-14.8798,1.32263,0.0278694,-0.00479499,0.00529007,0.0287047,-0.00563036,0.15662,0.0212632,0.0277822,594,1240,-14.8797,-1.32266
-623,-216,-14.8456,1.70349,0.0241761,-0.00234444,0.00391142,0.0247409,-0.00290929,0.143419,0.0175443,0.0127531,601,1240,-14.8456,-1.70354
-616,-216,-14.8694,2.02014,0.0185784,-0.000440408,0.00201759,0.0187901,-0.000652086,0.104534,0.0127496,0.0139621,608,1240,-14.8694,-2.02009
-609,-216,-14.8803,2.29248,0.012254,0.000712116,0.000475436,0.0122735,0.000692565,0.0410995,0.00796156,0.0131559,615,1240,-14.8803,-2.2925
-602,-216,-14.8793,2.52783,0.00674134,0.000655648,-0.000394035,0.00676674,0.000630241,-0.0643895,0.00431645,0.0123306,622,1240,-14.8792,-2.52785
-595,-216,-14.8502,2.75342,0.00304681,0.00074598,-0.000938236,0.00338089,0.000411895,-0.34208,0.00212995,0.017176,629,1240,-14.8502,-2.7534
-588,-216,-14.8695,3.05457,0.000612404,0.00095141,-0.000811034,0.00161046,-4.66501e-05,-0.888414,0.00108953,0.0196461,636,1240,-14.8695,-3.05457
-581,-216,-14.8676,3.3811,-0.000955928,0.00116726,-0.000621421,0.00133576,-0.00112443,-1.306,0.00142214,0.0201314,643,1240,-14.8676,-3.38105
-574,-216,-14.8548,3.7804,-0.00085592,0.00153044,-0.000373831,0.00158763,-0.000913111,-1.41899,0.00146121,0.0293292,650,1240,-14.8548,-3.78044
-567,-216,-15.1081,4.17773,0,0,0,0,0,0,0,-1,657,1240,-15.1081,-4.17769
-560,-216,-15.4521,4.6792,0,0,0,0,0,0,0,-1,664,1240,-15.4521,-4.67924
-553,-216,-15.4026,0.929321,0,0,0,0,0,0,0,-1,671,1240,-15.4026,-0.929335
-546,-216,-19.9315,-0.341553,0,0,0,0,0,0,0,-1,678,1240,-19.9315,0.341508
-539,-216,-19.746,0.0697021,-2.21304e-05,0.00265007,0.000621375,0.0027875,-0.000159553,1.35314,0.00191373,0.0417299,685,1240,-19.746,-0.0696741
-532,-216,-19.8643,0.682495,-0.000422564,0.00251549,0.000478045,0.00259131,-0.000498389,1.41349,0.00191541,0.0420185,692,1240,-19.8643,-0.682535
-525,-216,-20.038,0.820313,-0.00100756,0.00197157,0.000157232,0.00197985,-0.00101583,1.51821,0.00175916,0.0405645,699,1240,-20.0379,-0.820271
-518,-216,-20.0488,0.715454,-0.00192267,0.000535562,-0.000602831,0.000675435,-0.00206254,-1.3428,0.00164701,0.044542,706,1240,-20.0488,-0.715428
-511,-216,-19.9768,0.602783,-0.00236907,-0.00242296,-0.00164718,-0.000748615,-0.00404342,-0.777219,0.00248396,0.0450789,713,1240,-19.9768,-0.602841
-504,-216,-19.9894,0.762085,0.00112423,-0.00757432,-0.00133374,0.00132413,-0.00777423,-0.148777,0.00567592,0.0418008,720,1240,-19.9895,-0.762087
-497,-216,0,0,0,0,0,0,0,0,0,-1,727,1240,0,0
-490,-216,0,0,0,0,0,0,0,0,0,-1,734,1240,0,0
-483,-216,0,0,0,0,0,0,0,0,0,-1,741,1240,0,0
-476,-216,0,0,0,0,0,0,0,0,0,-1,748,1240,0,0
-469,-216,0,0,0,0,0,0,0,0,0,-1,755,1240,0,0
-462,-216,0,0,0,0,0,0,0,0,0,-1,762,1240,0,0
-455,-216,0,0,0,0,0,0,0,0,0,-1,769,1240,0,0
-448,-216,0,0,0,0,0,0,0,0,0,-1,776,1240,0,0
-441,-216,0,0,0,0,0,0,0,0,0,-1,783,1240,0,0
-434,-216,0,0,0,0,0,0,0,0,0,-1,790,1240,0,0
-427,-216,0,0,0,0,0,0,0,0,0,-1,797,1240,0,0
-420,-216,0,0,0,0,0,0,0,0,0,-1,804,1240,0,0
-413,-216,0,0,0,0,0,0,0,0,0,-1,811,1240,0,0
-406,-216,0,0,0,0,0,0,0,0,0,-1,818,1240,0,0
-399,-216,0,0,0,0,0,0,0,0,0,-1,825,1240,0,0
-392,-216,0,0,0,0,0,0,0,0,0,-1,832,1240,0,0
-385,-216,0,0,0,0,0,0,0,0,0,-1,839,1240,0,0
-378,-216,0,0,0,0,0,0,0,0,0,-1,846,1240,0,0
-371,-216,0,0,0,0,0,0,0,0,0,-1,853,1240,0,0
-364,-216,0,0,0,0,0,0,0,0,0,-1,860,1240,0,0
-357,-216,0,0,0,0,0,0,0,0,0,-1,867,1240,0,0
-350,-216,0,0,0,0,0,0,0,0,0,-1,874,1240,0,0
-343,-216,0,0,0,0,0,0,0,0,0,-1,881,1240,0,0
-336,-216,0,0,0,0,0,0,0,0,0,-1,888,1240,0,0
-329,-216,0,0,0,0,0,0,0,0,0,-1,895,1240,0,0
-322,-216,0,0,0,0,0,0,0,0,0,-1,902,1240,0,0
-315,-216,0,0,0,0,0,0,0,0,0,-1,909,1240,0,0
-308,-216,0,0,0,0,0,0,0,0,0,-1,916,1240,0,0
-301,-216,0,0,0,0,0,0,0,0,0,-1,923,1240,0,0
-294,-216,0,0,0,0,0,0,0,0,0,-1,930,1240,0,0
-287,-216,0,0,0,0,0,0,0,0,0,-1,937,1240,0,0
-280,-216,0,0,0,0,0,0,0,0,0,-1,944,1240,0,0
-273,-216,0,0,0,0,0,0,0,0,0,-1,951,1240,0,0
-266,-216,0,0,0,0,0,0,0,0,0,-1,958,1240,0,0
-259,-216,0,0,0,0,0,0,0,0,0,-1,965,1240,0,0
-252,-216,0,0,0,0,0,0,0,0,0,-1,972,1240,0,0
-245,-216,0,0,0,0,0,0,0,0,0,-1,979,1240,0,0
-238,-216,0,0,0,0,0,0,0,0,0,-1,986,1240,0,0
-231,-216,0,0,0,0,0,0,0,0,0,-1,993,1240,0,0
-224,-216,0,0,0,0,0,0,0,0,0,-1,1000,1240,0,0
-217,-216,0,0,0,0,0,0,0,0,0,-1,1007,1240,0,0
-210,-216,0,0,0,0,0,0,0,0,0,-1,1014,1240,0,0
-203,-216,0,0,0,0,0,0,0,0,0,-1,1021,1240,0,0
-196,-216,0,0,0,0,0,0,0,0,0,-1,1028,1240,0,0
-189,-216,0,0,0,0,0,0,0,0,0,-1,1035,1240,0,0
-182,-216,0,0,0,0,0,0,0,0,0,-1,1042,1240,0,0
-175,-216,0,0,0,0,0,0,0,0,0,-1,1049,1240,0,0
-168,-216,0,0,0,0,0,0,0,0,0,-1,1056,1240,0,0
-161,-216,0,0,0,0,0,0,0,0,0,-1,1063,1240,0,0
-154,-216,0,0,0,0,0,0,0,0,0,-1,1070,1240,0,0
-147,-216,0,0,0,0,0,0,0,0,0,-1,1077,1240,0,0
-140,-216,0,0,0,0,0,0,0,0,0,-1,1084,1240,0,0
-133,-216,0,0,0,0,0,0,0,0,0,-1,1091,1240,0,0
-126,-216,0,0,0,0,0,0,0,0,0,-1,1098,1240,0,0
-119,-216,0,0,0,0,0,0,0,0,0,-1,1105,1240,0,0
-112,-216,0,0,0,0,0,0,0,0,0,-1,1112,1240,0,0
-105,-216,0,0,0,0,0,0,0,0,0,-1,1119,1240,0,0
-98,-216,0,0,0,0,0,0,0,0,0,-1,1126,1240,0,0
-91,-216,0,0,0,0,0,0,0,0,0,-1,1133,1240,0,0
-84,-216,0,0,0,0,0,0,0,0,0,-1,1140,1240,0,0
-77,-216,0,0,0,0,0,0,0,0,0,-1,1147,1240,0,0
-70,-216,0,0,0,0,0,0,0,0,0,-1,1154,1240,0,0
-63,-216,0,0,0,0,0,0,0,0,0,-1,1161,1240,0,0
-56,-216,0,0,0,0,0,0,0,0,0,-1,1168,1240,0,0
-49,-216,0,0,0,0,0,0,0,0,0,-1,1175,1240,0,0
-42,-216,0,0,0,0,0,0,0,0,0,-1,1182,1240,0,0
-35,-216,0,0,0,0,0,0,0,0,0,-1,1189,1240,0,0
-28,-216,0,0,0,0,0,0,0,0,0,-1,1196,1240,0,0
-21,-216,0,0,0,0,0,0,0,0,0,-1,1203,1240,0,0
-14,-216,0,0,0,0,0,0,0,0,0,-1,1210,1240,0,0
-7,-216,0,0,0,0,0,0,0,0,0,-1,1217,1240,0,0
0,-216,0,0,0,0,0,0,0,0,0,-1,1224,1240,0,0
7,-216,0,0,0,0,0,0,0,0,0,-1,1231,1240,0,0
14,-216,0,0,0,0,0,0,0,0,0,-1,1238,1240,0,0
21,-216,0,0,0,0,0,0,0,0,0,-1,1245,1240,0,0
28,-216,0,0,0,0,0,0,0,0,0,-1,1252,1240,0,0
35,-216,0,0,0,0,0,0,0,0,0,-1,1259,1240,0,0
42,-216,0,0,0,0,0,0,0,0,0,-1,1266,1240,0,0
49,-216,0,0,0,0,0,0,0,0,0,-1,1273,1240,0,0
56,-216,0,0,0,0,0,0,0,0,0,-1,1280,1240,0,0
63,-216,0,0,0,0,0,0,0,0,0,-1,1287,1240,0,0
70,-216,0,0,0,0,0,0,0,0,0,-1,1294,1240,0,0
77,-216,0,0,0,0,0,0,0,0,0,-1,1301,1240,0,0
84,-216,0,0,0,0,0,0,0,0,0,-1,1308,1240,0,0
91,-216,0,0,0,0,0,0,0,0,0,-1,1315,1240,0,0
98,-216,0,0,0,0,0,0,0,0,0,-1,1322,1240,0,0
105,-216,0,0,0,0,0,0,0,0,0,-1,1329,1240,0,0
112,-216,0,0,0,0,0,0,0,0,0,-1,1336,1240,0,0
119,-216,0,0,0,0,0,0,0,0,0,-1,1343,1240,0,0
126,-216,0,0,0,0,0,0,0,0,0,-1,1350,1240,0,0
133,-216,0,0,0,0,0,0,0,0,0,-1,1357,1240,0,0
140,-216,0,0,0,0,0,0,0,0,0,-1,1364,1240,0,0
147,-216,0,0,0,0,0,0,0,0,0,-1,1371,1240,0,0
154,-216,0,0,0,0,0,0,0,0,0,-1,1378,1240,0,0
161,-216,0,0,0,0,0,0,0,0,0,-1,1385,1240,0,0
168,-216,0,0,0,0,0,0,0,0,0,-1,1392,1240,0,0
175,-216,0,0,0,0,0,0,0,0,0,-1,1399,1240,0,0
182,-216,0,0,0,0,0,0,0,0,0,-1,1406,1240,0,0
189,-216,0,0,0,0,0,0,0,0,0,-1,1413,1240,0,0
196,-216,0,0,0,0,0,0,0,0,0,-1,1420,1240,0,0
203,-216,0,0,0,0,0,0,0,0,0,-1,1427,1240,0,0
210,-216,0,0,0,0,0,0,0,0,0,-1,1434,1240,0,0
217,-216,0,0,0,0,0,0,0,0,0,-1,1441,1240,0,0
224,-216,0,0,0,0,0,0,0,0,0,-1,1448,1240,0,0
231,-216,0,0,0,0,0,0,0,0,0,-1,1455,1240,0,0
238,-216,0,0,0,0,0,0,0,0,0,-1,1462,1240,0,0
245,-216,0,0,0,0,0,0,0,0,0,-1,1469,1240,0,0
252,-216,0,0,0,0,0,0,0,0,0,-1,1476,1240,0,0
259,-216,0,0,0,0,0,0,0,0,0,-1,1483,1240,0,0
266,-216,0,0,0,0,0,0,0,0,0,-1,1490,1240,0,0
273,-216,0,0,0,0,0,0,0,0,0,-1,1497,1240,0,0
280,-216,0,0,0,0,0,0,0,0,0,-1,1504,1240,0,0
287,-216,0,0,0,0,0,0,0,0,0,-1,1511,1240,0,0
294,-216,0,0,0,0,0,0,0,0,0,-1,1518,1240,0,0
301,-216,0,0,0,0,0,0,0,0,0,-1,1525,1240,0,0
308,-216,0,0,0,0,0,0,0,0,0,-1,1532,1240,0,0
315,-216,0,0,0,0,0,0,0,0,0,-1,1539,1240,0,0
322,-216,0,0,0,0,0,0,0,0,0,-1,1546,1240,0,0
329,-216,0,0,0,0,0,0,0,0,0,-1,1553,1240,0,0
336,-216,0,0,0,0,0,0,0,0,0,-1,1560,1240,0,0
343,-216,0,0,0,0,0,0,0,0,0,-1,1567,1240,0,0
350,-216,0,0,0,0,0,0,0,0,0,-1,1574,1240,0,0
357,-216,0,0,0,0,0,0,0,0,0,-1,1581,1240,0,0
364,-216,0,0,0,0,0,0,0,0,0,-1,1588,1240,0,0
371,-216,0,0,0,0,0,0,0,0,0,-1,1595,1240,0,0
378,-216,0,0,0,0,0,0,0,0,0,-1,1602,1240,0,0
385,-216,0,0,0,0,0,0,0,0,0,-1,1609,1240,0,0
392,-216,0,0,0,0,0,0,0,0,0,-1,1616,1240,0,0
399,-216,0,0,0,0,0,0,0,0,0,-1,1623,1240,0,0
406,-216,0,0,0,0,0,0,0,0,0,-1,1630,1240,0,0
413,-216,0,0,0,0,0,0,0,0,0,-1,1637,1240,0,0
420,-216,0,0,0,0,0,0,0,0,0,-1,1644,1240,0,0
427,-216,0,0,0,0,0,0,0,0,0,-1,1651,1240,0,0
434,-216,0,0,0,0,0,0,0,0,0,-1,1658,1240,0,0
441,-216,0,0,0,0,0,0,0,0,0,-1,1665,1240,0,0
448,-216,0,0,0,0,0,0,0,0,0,-1,1672,1240,0,0
455,-216,0,0,0,0,0,0,0,0,0,-1,1679,1240,0,0
462,-216,0,0,0,0,0,0,0,0,0,-1,1686,1240,0,0
469,-216,0,0,0,0,0,0,0,0,0,-1,1693,1240,0,0
476,-216,0,0,0,0,0,0,0,0,0,-1,1700,1240,0,0
483,-216,0,0,0,0,0,0,0,0,0,-1,1707,1240,0,0
490,-216,0,0,0,0,0,0,0,0,0,-1,1714,1240,0,0
497,-216,0,0,0,0,0,0,0,0,0,-1,1721,1240,0,0
504,-216,0,0,0,0,0,0,0,0,0,-1,1728,1240,0,0
511,-216,0,0,0,0,0,0,0,0,0,-1,1735,1240,0,0
518,-216,0,0,0,0,0,0,0,0,0,-1,1742,1240,0,0
525,-216,0,0,0,0,0,0,0,0,0,-1,1749,1240,0,0
532,-216,0,0,0,0,0,0,0,0,0,-1,1756,1240,0,0
539,-216,0,0,0,0,0,0,0,0,0,-1,1763,1240,0,0
546,-216,0,0,0,0,0,0,0,0,0,-1,1770,1240,0,0
553,-216,0,0,0,0,0,0,0,0,0,-1,1777,1240,0,0
560,-216,0,0,0,0,0,0,0,0,0,-1,1784,1240,0,0
567,-216,0,0,0,0,0,0,0,0,0,-1,1791,1240,0,0
574,-216,0,0,0,0,0,0,0,0,0,-1,1798,1240,0,0
581,-216,0,0,0,0,0,0,0,0,0,-1,1805,1240,0,0
588,-216,0,0,0,0,0,0,0,0,0,-1,1812,1240,0,0
595,-216,0,0,0,0,0,0,0,0,0,-1,1819,1240,0,0
602,-216,0,0,0,0,0,0,0,0,0,-1,1826,1240,0,0
609,-216,0,0,0,0,0,0,0,0,0,-1,1833,1240,0,0
616,-216,0,0,0,0,0,0,0,0,0,-1,1840,1240,0,0
623,-216,29.0116,2.63037,0.00186521,-0.000507371,-0.00344169,0.00431932,-0.00296148,-0.619433,0.00422787,0.0377861,1847,1240,29.0117,-2.63037
630,-216,28.9434,2.60132,-0.000281689,0.00169711,-0.00189158,0.00284242,-0.001427,-1.02636,0.0025097,0.0364337,1854,1240,28.9433,-2.60131
637,-216,29.0244,2.63281,-0.00256169,0.00390668,-0.000395365,0.00393075,-0.00258577,-1.50998,0.00378893,0.0317186,1861,1240,29.0244,-2.63276
644,-216,29.0773,2.60559,-0.00397668,0.00540695,0.000682861,0.00545638,-0.00402611,1.49853,0.00549544,0.0262371,1868,1240,29.0773,-2.60563
651,-216,29.0364,2.57751,-0.00422171,0.00588134,0.00110487,0.00600076,-0.00434113,1.46313,0.00599646,0.0211367,1875,1240,29.0363,-2.57755
658,-216,29.0543,2.60938,-0.00380338,0.00566739,0.00117937,0.00581204,-0.00394804,1.44875,0.00566914,0.0286765,1882,1240,29.0544,-2.60932
665,-216,29.1342,2.5387,-0.00313449,0.00513921,0.0011347,0.005292,-0.00328728,1.43694,0.00499813,0.0410156,1889,1240,29.1342,-2.53872
672,-216,29.5511,2.41492,-0.00252635,0.00444331,0.00107247,0.00460461,-0.00268765,1.42152,0.0042584,0.0437886,1896,1240,29.5511,-2.41488
679,-216,30.2351,2.43018,0,0,0,0,0,0,0,-1,1903,1240,30.2351,-2.43022
686,-216,21.5172,6.19458,0,0,0,0,0,0,0,-1,1910,1240,21.5172,-6.19453
693,-216,24.2069,6.42505,0,0,0,0,0,0,0,-1,1917,1240,24.2069,-6.42501
700,-216,24.1714,6.18652,-0.00027478,0.00173185,0.000683398,0.00194248,-0.000485415,1.27182,0.00148351,0.0260901,1924,1240,24.1713,-6.18658
707,-216,24.1818,5.86572,7.75375e-05,0.00114007,0.000448214,0.00130389,-8.6278e-05,1.22039,0.0008994,0.0195697,1931,1240,24.1818,-5.86572
714,-216,24.2163,5.61731,0.000575387,0.000733831,0.000615433,0.00127512,3.40985e-05,0.849409,0.000838945,0.0140471,1938,1240,24.2164,-5.61734
721,-216,24.2201,5.40967,0.00139503,0.000125588,0.000699957,0.00170519,-0.000184578,0.417119,0.00120305,0.0131654,1945,1240,24.2202,-5.40971
728,-216,24.2407,5.16821,0.00188194,-6.06623e-05,0.000637625,0.00207253,-0.000251252,0.290453,0.0014726,0.0109712,1952,1240,24.2408,-5.1682
735,-216,24.2391,4.93054,0.0028833,0.000183054,0.000582067,0.00300343,6.29268e-05,0.203522,0.00198164,0.0100713,1959,1240,24.2392,-4.93053
742,-216,24.1975,4.71875,0.00454324,0.000504381,0.000360087,0.00457509,0.000472528,0.0882283,0.00290539,0.0108351,1966,1240,24.1975,-4.71876
749,-216,24.2068,4.46252,0.00699763,0.000912135,-2.50071e-05,0.00699773,0.000912032,-0.00410921,0.00439282,0.00916974,1973,1240,24.2068,-4.46248
756,-216,24.1877,4.22668,0.0104769,0.00129535,-0.000640534,0.0105213,0.00125088,-0.069316,0.00663667,0.00955289,1980,1240,24.1877,-4.22666
763,-216,24.1552,4.0426,0.0154227,0.00166681,-0.00159873,0.0156061,0.00148345,-0.114194,0.00994652,0.0161894,1987,1240,24.1551,-4.04265
770,-216,24.3519,3.9856,0.0222655,0.00195167,-0.00297445,0.022692,0.00152509,-0.142442,0.0146461,0.0387092,1994,1240,24.3519,-3.98564
777,-216,24.5939,3.91565,0,0,0,0,0,0,0,-1,2001,1240,24.5938,-3.91565
784,-216,24.8131,4.78357,0,0,0,0,0,0,0,-1,2008,1240,24.8131,-4.78357
791,-216,25.0714,3.76318,0,0,0,0,0,0,0,-1,2015,1240,25.0714,-3.76314
798,-216,0,0,0,0,0,0,0,0,0,-1,2022,1240,0,0
805,-216,0,0,0,0,0,0,0,0,0,-1,2029,1240,0,0
812,-216,0,0,0,0,0,0,0,0,0,-1,2036,1240,0,0
-700,-223,0,0,0,0,0,0,0,0,0,-1,524,1247,0,0
-693,-223,0,0,0,0,0,0,0,0,0,-1,531,1247,0,0
-686,-223,0,0,0,0,0,0,0,0,0,-1,538,1247,0,0
-679,-223,0,0,0,0,0,0,0,0,0,-1,545,1247,0,0
-672,-223,-16.5333,1.69556,0.0422638,-0.0438931,0.0278198,0.0504659,-0.0520952,0.286706,0.0592162,0.0475127,552,1247,-16.5333,-1.6956
-665,-223,-16.0735,1.27356,0.0513799,-0.0347389,0.0228704,0.0570767,-0.0404357,0.244123,0.0565714,0.0488653,559,1247,-16.0735,-1.27351
-658,-223,-15.7146,1.88354,0.0547951,-0.0266296,0.0183353,0.0587333,-0.0305678,0.211577,0.0524059,0.0446584,566,1247,-15.7146,-1.8835
-651,-223,-15.6376,1.87012,0.0543087,-0.0196239,0.0142639,0.0569652,-0.0222804,0.18413,0.0471907,0.047319,573,1247,-15.6376,-1.87007
-644,-223,-15.611,1.80347,0,0,0,0,0,0,0,-1,580,1247,-15.611,-1.80352
-637,-223,-14.7685,0.518311,0,0,0,0,0,0,0,-1,587,1247,-14.7685,-0.518287
-630,-223,-14.971,1.21863,0.0389859,-0.00543485,0.00548187,0.0396524,-0.00610135,0.12099,0.0286858,0.0351103,594,1247,-14.971,-1.21861
-623,-223,-14.5898,1.67993,0.0326656,-0.00291032,0.0037268,0.0330518,-0.00329654,0.103262,0.0232116,0.0209253,601,1247,-14.5899,-1.67991
-616,-223,-14.6083,2.01428,0.0251087,-0.000703141,0.00164683,0.0252133,-0.000807786,0.0634583,0.0170845,0.0159422,608,1247,-14.6083,-2.01433
-609,-223,-14.5988,2.27148,0.0171343,0.000707365,0.000250386,0.0171381,0.00070355,0.0152377,0.0111983,0.0117111,615,1247,-14.5988,-2.27151
-602,-223,-14.6023,2.50513,0.0103897,0.000751994,-0.000240261,0.0103957,0.000746008,-0.0249086,0.00669567,0.0139539,622,1247,-14.6023,-2.50519
-595,-223,-14.5676,2.78992,0.00575784,0.000881574,-0.000444369,0.00579801,0.00084141,-0.0901395,0.00361763,0.0195232,629,1247,-14.5677,-2.78991
-588,-223,-14.6194,3.11621,0.00265182,0.000961497,2.83568e-05,0.0026523,0.000961022,0.0167696,0.00155053,0.0215584,636,1247,-14.6194,-3.11618
-581,-223,-14.6769,3.41333,0.000961166,0.00128836,0.000374559,0.00153349,0.000716035,0.991297,0.000886006,0.0211717,643,1247,-14.6769,-3.41335
-574,-223,-14.5679,3.6853,0.0011343,0.00179797,0.000682259,0.00222481,0.000707457,1.01174,0.00131256,0.020191,650,1247,-14.5679,-3.68532
-567,-223,-14.552,4.19775,0,0,0,0,0,0,0,-1,657,1247,-14.552,-4.1978
-560,-223,-14.0965,4.41809,0,0,0,0,0,0,0,-1,664,1247,-14.0965,-4.41815
-553,-223,-11.4025,4.14722,0,0,0,0,0,0,0,-1,671,1247,-11.4025,-4.14719
-546,-223,-19.7952,1.43457,0,0,0,0,0,0,0,-1,678,1247,-19.7952,-1.43459
-539,-223,-19.2052,0.629028,0,0,0,0,0,0,0,-1,685,1247,-19.2052,-0.629047
-532,-223,-19.5163,0.694214,0,0,0,0,0,0,0,-1,692,1247,-19.5163,-0.694189
-525,-223,-20.0019,0.670776,0,0,0,0,0,0,0,-1,699,1247,-20.0019,-0.670725
-518,-223,-20.1131,0.806396,0,0,0,0,0,0,0,-1,706,1247,-20.1131,-0.80636
-511,-223,-20.01,0.726929,-0.00466184,-0.000547666,-0.00193714,0.000220866,-0.00543037,-1.19311,0.00369607,0.0420384,713,1247,-20.01,-0.726897
-504,-223,-20.0021,0.721313,-0.00279348,-0.00417391,-0.0023644,-0.00102062,-0.00594678,-0.643384,0.0036719,0.0393436,720,1247,-20.0021,-0.721282
-497,-223,0,0,0,0,0,0,0,0,0,-1,727,1247,0,0
-490,-223,0,0,0,0,0,0,0,0,0,-1,734,1247,0,0
-483,-223,0,0,0,0,0,0,0,0,0,-1,741,1247,0,0
-476,-223,0,0,0,0,0,0,0,0,0,-1,748,1247,0,0
-469,-223,0,0,0,0,0,0,0,0,0,-1,755,1247,0,0
-462,-223,0,0,0,0,0,0,0,0,0,-1,762,1247,0,0
-455,-223,0,0,0,0,0,0,0,0,0,-1,769,1247,0,0
-448,-223,0,0,0,0,0,0,0,0,0,-1,776,1247,0,0
-441,-223,0,0,0,0,0,0,0,0,0,-1,783,1247,0,0
-434,-223,0,0,0,0,0,0,0,0,0,-1,790,1247,0,0
-427,-223,0,0,0,0,0,0,0,0,0,-1,797,1247,0,0
-420,-223,0,0,0,0,0,0,0,0,0,-1,804,1247,0,0
-413,-223,0,0,0,0,0,0,0,0,0,-1,811,1247,0,0
-406,-223,0,0,0,0,0,0,0,0,0,-1,818,1247,0,0
-399,-223,0,0,0,0,0,0,0,0,0,-1,825,1247,0,0
-392,-223,0,0,0,0,0,0,0,0,0,-1,832,1247,0,0
-385,-223,0,0,0,0,0,0,0,0,0,-1,839,1247,0,0
-378,-223,0,0,0,0,0,0,0,0,0,-1,846,1247,0,0
-371,-223,0,0,0,0,0,0,0,0,0,-1,853,1247,0,0
-364,-223,0,0,0,0,0,0,0,0,0,-1,860,1247,0,0
-357,-223,0,0,0,0,0,0,0,0,0,-1,867,1247,0,0
-350,-223,0,0,0,0,0,0,0,0,0,-1,874,1247,0,0
-343,-223,0,0,0,0,0,0,0,0,0,-1,881,1247,0,0
-336,-223,0,0,0,0,0,0,0,0,0,-1,888,1247,0,0
-329,-223,0,0,0,0,0,0,0,0,0,-1,895,1247,0,0
-322,-223,0,0,0,0,0,0,0,0,0,-1,902,1247,0,0
-315,-223,0,0,0,0,0,0,0,0,0,-1,909,1247,0,0
-308,-223,0,0,0,0,0,0,0,0,0,-1,916,1247,0,0
-301,-223,0,0,0,0,0,0,0,0,0,-1,923,1247,0,0
-294,-223,0,0,0,0,0,0,0,0,0,-1,930,1247,0,0
-287,-223,0,0,0,0,0,0,0,0,0,-1,937,1247,0,0
-280,-223,0,0,0,0,0,0,0,0,0,-1,944,1247,0,0
-273,-223,0,0,0,0,0,0,0,0,0,-1,951,1247,0,0
-266,-223,0,0,0,0,0,0,0,0,0,-1,958,1247,0,0
-259,-223,0,0,0,0,0,0,0,0,0,-1,965,1247,0,0
-252,-223,0,0,0,0,0,0,0,0,0,-1,972,1247,0,0
-245,-223,0,0,0,0,0,0,0,0,0,-1,979,1247,0,0
-238,-223,0,0,0,0,0,0,0,0,0,-1,986,1247,0,0
-231,-223,0,0,0,0,0,0,0,0,0,-1,993,1247,0,0
-224,-223,0,0,0,0,0,0,0,0,0,-1,1000,1247,0,0
-217,-223,0,0,0,0,0,0,0,0,0,-1,1007,1247,0,0
-210,-223,0,0,0,0,0,0,0,0,0,-1,1014,1247,0,0
-203,-223,0,0,0,0,0,0,0,0,0,-1,1021,1247,0,0
-196,-223,0,0,0,0,0,0,0,0,0,-1,1028,1247,0,0
-189,-223,0,0,0,0,0,0,0,0,0,-1,1035,1247,0,0
-182,-223,0,0,0,0,0,0,0,0,0,-1,1042,1247,0,0
-175,-223,0,0,0,0,0,0,0,0,0,-1,1049,1247,0,0
-168,-223,0,0,0,0,0,0,0,0,0,-1,1056,1247,0,0
-161,-223,0,0,0,0,0,0,0,0,0,-1,1063,1247,0,0
-154,-223,0,0,0,0,0,0,0,0,0,-1,1070,1247,0,0
-147,-223,0,0,0,0,0,0,0,0,0,-1,1077,1247,0,0
-140,-223,0,0,0,0,0,0,0,0,0,-1,1084,1247,0,0
-133,-223,0,0,0,0,0,0,0,0,0,-1,1091,1247,0,0
-126,-223,0,0,0,0,0,0,0,0,0,-1,1098,1247,0,0
-119,-223,0,0,0,0,0,0,0,0,0,-1,1105,1247,0,0
-112,-223,0,0,0,0,0,0,0,0,0,-1,1112,1247,0,0
-105,-223,0,0,0,0,0,0,0,0,0,-1,1119,1247,0,0
-98,-223,0,0,0,0,0,0,0,0,0,-1,1126,1247,0,0
-91,-223,0,0,0,0,0,0,0,0,0,-1,1133,1247,0,0
-84,-223,0,0,0,0,0,0,0,0,0,-1,1140,1247,0,0
-77,-223,0,0,0,0,0,0,0,0,0,-1,1147,1247,0,0
-70,-223,0,0,0,0,0,0,0,0,0,-1,1154,1247,0,0
-63,-223,0,0,0,0,0,0,0,0,0,-1,1161,1247,0,0
-56,-223,0,0,0,0,0,0,0,0,0,-1,1168,1247,0,0
-49,-223,0,0,0,0,0,0,0,0,0,-1,1175,1247,0,0
-42,-223,0,0,0,0,0,0,0,0,0,-1,1182,1247,0,0
-35,-223,0,0,0,0,0,0,0,0,0,-1,1189,1247,0,0
-28,-223,0,0,0,0,0,0,0,0,0,-1,1196,1247,0,0
-21,-223,0,0,0,0,0,0,0,0,0,-1,1203,1247,0,0
-14,-223,0,0,0,0,0,0,0,0,0,-1,1210,1247,0,0
-7,-223,0,0,0,0,0,0,0,0,0,-1,1217,1247,0,0
0,-223,0,0,0,0,0,0,0,0,0,-1,1224,1247,0,0
7,-223,0,0,0,0,0,0,0,0,0,-1,1231,1247,0,0
14,-223,0,0,0,0,0,0,0,0,0,-1,1238,1247,0,0
21,-223,0,0,0,0,0,0,0,0,0,-1,1245,1247,0,0
28,-223,0,0,0,0,0,0,0,0,0,-1,1252,1247,0,0
35,-223,0,0,0,0,0,0,0,0,0,-1,1259,1247,0,0
42,-223,0,0,0,0,0,0,0,0,0,-1,1266,1247,0,0
49,-223,0,0,0,0,0,0,0,0,0,-1,1273,1247,0,0
56,-223,0,0,0,0,0,0,0,0,0,-1,1280,1247,0,0
63,-223,0,0,0,0,0,0,0,0,0,-1,1287,1247,0,0
70,-223,0,0,0,0,0,0,0,0,0,-1,1294,1247,0,0
77,-223,0,0,0,0,0,0,0,0,0,-1,1301,1247,0,0
84,-223,0,0,0,0,0,0,0,0,0,-1,1308,1247,0,0
91,-223,0,0,0,0,0,0,0,0,0,-1,1315,1247,0,0
98,-223,0,0,0,0,0,0,0,0,0,-1,1322,1247,0,0
105,-223,0,0,0,0,0,0,0,0,0,-1,1329,1247,0,0
112,-223,0,0,0,0,0,0,0,0,0,-1,1336,1247,0,0
119,-223,0,0,0,0,0,0,0,0,0,-1,1343,1247,0,0
126,-223,0,0,0,0,0,0,0,0,0,-1,1350,1247,0,0
133,-223,0,0,0,0,0,0,0,0,0,-1,1357,1247,0,0
140,-223,0,0,0,0,0,0,0,0,0,-1,1364,1247,0,0
147,-223,0,0,0,0,0,0,0,0,0,-1,1371,1247,0,0
154,-223,0,0,0,0,0,0,0,0,0,-1,1378,1247,0,0
161,-223,0,0,0,0,0,0,0,0,0,-1,1385,1247,0,0
168,-223,0,0,0,0,0,0,0,0,0,-1,1392,1247,0,0
175,-223,0,0,0,0,0,0,0,0,0,-1,1399,1247,0,0
182,-223,0,0,0,0,0,0,0,0,0,-1,1406,1247,0,0
189,-223,0,0,0,0,0,0,0,0,0,-1,1413,1247,0,0
196,-223,0,0,0,0,0,0,0,0,0,-1,1420,1247,0,0
203,-223,0,0,0,0,0,0,0,0,0,-1,1427,1247,0,0
210,-223,0,0,0,0,0,0,0,0,0,-1,1434,1247,0,0
217,-223,0,0,0,0,0,0,0,0,0,-1,1441,1247,0,0
224,-223,0,0,0,0,0,0,0,0,0,-1,1448,1247,0,0
231,-223,0,0,0,0,0,0,0,0,0,-1,1455,1247,0,0
238,-223,0,0,0,0,0,0,0,0,0,-1,1462,1247,0,0
245,-223,0,0,0,0,0,0,0,0,0,-1,1469,1247,0,0
252,-223,0,0,0,0,0,0,0,0,0,-1,1476,1247,0,0
259,-223,0,0,0,0,0,0,0,0,0,-1,1483,1247,0,0
266,-223,0,0,0,0,0,0,0,0,0,-1,1490,1247,0,0
273,-223,0,0,0,0,0,0,0,0,0,-1,1497,1247,0,0
280,-223,0,0,0,0,0,0,0,0,0,-1,1504,1247,0,0
287,-223,0,0,0,0,0,0,0,0,0,-1,1511,1247,0,0
294,-223,0,0,0,0,0,0,0,0,0,-1,1518,1247,0,0
301,-223,0,0,0,0,0,0,0,0,0,-1,1525,1247,0,0
308,-223,0,0,0,0,0,0,0,0,0,-1,1532,1247,0,0
315,-223,0,0,0,0,0,0,0,0,0,-1,1539,1247,0,0
322,-223,0,0,0,0,0,0,0,0,0,-1,1546,1247,0,0
329,-223,0,0,0,0,0,0,0,0,0,-1,1553,1247,0,0
336,-223,0,0,0,0,0,0,0,0,0,-1,1560,1247,0,0
343,-223,0,0,0,0,0,0,0,0,0,-1,1567,1247,0,0
350,-223,0,0,0,0,0,0,0,0,0,-1,1574,1247,0,0
357,-223,0,0,0,0,0,0,0,0,0,-1,1581,1247,0,0
364,-223,0,0,0,0,0,0,0,0,0,-1,1588,1247,0,0
371,-223,0,0,0,0,0,0,0,0,0,-1,1595,1247,0,0
378,-223,0,0,0,0,0,0,0,0,0,-1,1602,1247,0,0
385,-223,0,0,0,0,0,0,0,0,0,-1,1609,1247,0,0
392,-223,0,0,0,0,0,0,0,0,0,-1,1616,1247,0,0
399,-223,0,0,0,0,0,0,0,0,0,-1,1623,1247,0,0
406,-223,0,0,0,0,0,0,0,0,0,-1,1630,1247,0,0
413,-223,0,0,0,0,0,0,0,0,0,-1,1637,1247,0,0
420,-223,0,0,0,0,0,0,0,0,0,-1,1644,1247,0,0
427,-223,0,0,0,0,0,0,0,0,0,-1,1651,1247,0,0
434,-223,0,0,0,0,0,0,0,0,0,-1,1658,1247,0,0
441,-223,0,0,0,0,0,0,0,0,0,-1,1665,1247,0,0
448,-223,0,0,0,0,0,0,0,0,0,-1,1672,1247,0,0
455,-223,0,0,0,0,0,0,0,0,0,-1,1679,1247,0,0
462,-223,0,0,0,0,0,0,0,0,0,-1,1686,1247,0,0
469,-223,0,0,0,0,0,0,0,0,0,-1,1693,1247,0,0
476,-223,0,0,0,0,0,0,0,0,0,-1,1700,1247,0,0
483,-223,0,0,0,0,0,0,0,0,0,-1,1707,1247,0,0
490,-223,0,0,0,0,0,0,0,0,0,-1,1714,1247,0,0
497,-223,0,0,0,0,0,0,0,0,0,-1,1721,1247,0,0
504,-223,0,0,0,0,0,0,0,0,0,-1,1728,1247,0,0
511,-223,0,0,0,0,0,0,0,0,0,-1,1735,1247,0,0
518,-223,0,0,0,0,0,0,0,0,0,-1,1742,1247,0,0
525,-223,0,0,0,0,0,0,0,0,0,-1,1749,1247,0,0
532,-223,0,0,0,0,0,0,0,0,0,-1,1756,1247,0,0
539,-223,0,0,0,0,0,0,0,0,0,-1,1763,1247,0,0
546,-223,0,0,0,0,0,0,0,0,0,-1,1770,1247,0,0
553,-223,0,0,0,0,0,0,0,0,0,-1,1777,1247,0,0
560,-223,0,0,0,0,0,0,0,0,0,-1,1784,1247,0,0
567,-223,0,0,0,0,0,0,0,0,0,-1,1791,1247,0,0
574,-223,0,0,0,0,0,0,0,0,0,-1,1798,1247,0,0
581,-223,0,0,0,0,0,0,0,0,0,-1,1805,1247,0,0
588,-223,0,0,0,0,0,0,0,0,0,-1,1812,1247,0,0
595,-223,0,0,0,0,0,0,0,0,0,-1,1819,1247,0,0
602,-223,0,0,0,0,0,0,0,0,0,-1,1826,1247,0,0
609,-223,0,0,0,0,0,0,0,0,0,-1,1833,1247,0,0
616,-223,0,0,0,0,0,0,0,0,0,-1,1840,1247,0,0
623,-223,29.0114,2.65295,0.000910792,0.00215028,-0.00278771,0.0043863,-0.00132523,-0.894776,0.00345181,0.0377886,1847,1247,29.0114,-2.65291
630,-223,28.9071,2.57214,-0.00246258,0.0046561,-0.00106034,0.00481068,-0.00261716,-1.42603,0.00435035,0.034439,1854,1247,28.9071,-2.5722
637,-223,29.0316,2.55969,-0.00551669,0.0067367,0.000592048,0.00676524,-0.00554522,1.52263,0.00711908,0.0268844,1861,1247,29.0317,-2.55967
644,-223,29.0813,2.61755,-0.00694222,0.00765833,0.00167423,0.00784786,-0.00713174,1.45808,0.00865177,0.0216711,1868,1247,29.0813,-2.61753
651,-223,29.0314,2.57715,-0.00687895,0.00752095,0.00201728,0.00779821,-0.00715621,1.43421,0.00863659,0.0262959,1875,1247,29.0314,-2.5772
658,-223,29.0079,2.573,-0.00615482,0.00683464,0.00202553,0.00714317,-0.00646335,1.41964,0.00785899,0.0466083,1882,1247,29.0079,-2.57299
665,-223,28.5374,2.50159,-0.00518523,0.00596114,0.00191765,0.00628183,-0.00550592,1.4051,0.00681058,0.044394,1889,1247,28.5373,-2.50155
672,-223,27.9236,2.37122,-0.00427126,0.0050394,0.00177091,0.00536486,-0.00459672,1.38905,0.00575701,0.0432138,1896,1247,27.9235,-2.3712
679,-223,27.6504,2.27148,0,0,0,0,0,0,0,-1,1903,1247,27.6504,-2.27144
686,-223,23.774,6.45483,0,0,0,0,0,0,0,-1,1910,1247,23.7741,-6.45485
693,-223,23.9059,6.33484,-0.00128196,0.00246385,0.00134005,0.00289388,-0.00171199,1.26027,0.00268823,0.0321678,1917,1247,23.9059,-6.33489
700,-223,23.9961,6.13159,-0.000561617,0.00159808,0.0009497,0.00195629,-0.000919823,1.21012,0.00169608,0.0147463,1924,1247,23.9962,-6.13164
707,-223,23.9702,5.86926,-1.58217e-05,0.000967483,0.000577116,0.00123398,-0.000282315,1.1382,0.000931133,0.0128872,1931,1247,23.9702,-5.86929
714,-223,23.9827,5.63354,0.00070796,0.000635839,0.000709249,0.00138207,-3.82658e-05,0.759999,0.000934393,0.0109643,1938,1247,23.9826,-5.63352
721,-223,23.9865,5.40564,0.00173256,0.000135758,0.000702391,0.00199755,-0.00012923,0.360756,0.0013768,0.014665,1945,1247,23.9865,-5.4056
728,-223,23.9783,5.17029,0.00232559,6.00308e-05,0.000553451,0.00245356,-6.79428e-05,0.227234,0.00165882,0.0159565,1952,1247,23.9783,-5.17028
735,-223,23.9757,4.94299,0.00337047,0.000375465,0.000445514,0.00343533,0.000310599,0.144583,0.00219403,0.0130526,1959,1247,23.9757,-4.94297
742,-223,23.9326,4.72205,0.00501974,0.000717488,0.000202525,0.00502925,0.000707975,0.0469358,0.00314353,0.0112031,1966,1247,23.9326,-4.72206
749,-223,23.9424,4.44678,0.00742346,0.00109945,-0.000172466,0.00742816,0.00109475,-0.0272446,0.00463053,0.0100446,1973,1247,23.9424,-4.44679
756,-223,23.9385,4.2124,0.0108495,0.00144099,-0.000775803,0.010913,0.00137745,-0.081722,0.00686244,0.0113645,1980,1247,23.9385,-4.21242
763,-223,23.932,4.00024,0.0157068,0.00173282,-0.0016995,0.0159105,0.0015291,-0.119302,0.0101359,0.0154866,1987,1247,23.932,-4.00023
770,-223,23.9993,3.73975,0.0223426,0.00188853,-0.00294583,0.0227584,0.00147272,-0.140226,0.014706,0.0386656,1994,1247,23.9993,-3.73969
777,-223,24.0699,3.47375,0,0,0,0,0,0,0,-1,2001,1247,24.07,-3.47375
784,-223,23.8892,5.17322,0,0,0,0,0,0,0,-1,2008,1247,23.8892,-5.1732
791,-223,24.1783,4.22375,0,0,0,0,0,0,0,-1,2015,1247,24.1783,-4.22381
798,-223,0,0,0,0,0,0,0,0,0,-1,2022,1247,0,0
805,-223,0,0,0,0,0,0,0,0,0,-1,2029,1247,0,0
812,-223,0,0,0,0,0,0,0,0,0,-1,2036,1247,0,0
-700,-230,0,0,0,0,0,0,0,0,0,-1,524,1254,0,0
-693,-230,0,0,0,0,0,0,0,0,0,-1,531,1254,0,0
-686,-230,0,0,0,0,0,0,0,0,0,-1,538,1254,0,0
-679,-230,0,0,0,0,0,0,0,0,0,-1,545,1254,0,0
-672,-230,-16.6752,1.5946,0.0699478,-0.0490966,0.0367497,0.0803787,-0.0595275,0.276562,0.0810733,0.0494476,552,1254,-16.6752,-1.59458
-665,-230,-17.3157,2.88623,0.0775245,-0.0381029,0.02803,0.0839611,-0.0445395,0.22572,0.0753446,0.0425533,559,1254,-17.3157,-2.88617
-658,-230,-16.5342,2.52161,0.0781297,-0.0286548,0.0209818,0.0821044,-0.0326295,0.187218,0.0682637,0.0446829,566,1254,-16.5342,-2.52164
-651,-230,-16.2072,2.20886,0.0744505,-0.0207222,0.0152883,0.0768461,-0.0231177,0.155429,0.060429,0.0461517,573,1254,-16.2072,-2.20886
-644,-230,-15.7944,0.328979,0,0,0,0,0,0,0,-1,580,1254,-15.7944,-0.329027
-637,-230,-15.3079,0.700195,0.0593932,-0.00910127,0.00730613,0.0601638,-0.00987193,0.105092,0.0437725,0.0481987,587,1254,-15.3079,-0.700158
-630,-230,-14.7592,1.17139,0.0499033,-0.00525341,0.00474702,0.0503089,-0.00565897,0.085229,0.0355759,0.0401626,594,1254,-14.7592,-1.17138
-623,-230,-14.2727,1.64905,0.0409565,-0.0026659,0.00294741,0.0411547,-0.00286414,0.0671596,0.0284393,0.0267278,601,1254,-14.2727,-1.64911
-616,-230,-14.3223,1.9906,0.0316447,-0.000222053,0.000911877,0.0316707,-0.000248127,0.0285842,0.021197,0.016897,608,1254,-14.3222,-1.99058
-609,-230,-14.3207,2.27869,0.022158,0.00129121,-0.000233248,0.0221606,0.0012886,-0.0111761,0.0143635,0.012303,615,1254,-14.3207,-2.27866
-602,-230,-14.3027,2.53369,0.0139718,0.00130758,-0.000388753,0.0139837,0.00129566,-0.0306586,0.00892199,0.0113157,622,1254,-14.3027,-2.53373
-595,-230,-14.3158,2.84277,0.00815267,0.00137803,-0.000346,0.0081703,0.0013604,-0.0508963,0.00505479,0.0179035,629,1254,-14.3158,-2.84279
-588,-230,-14.3427,3.16492,0.00399926,0.00112091,0.000409192,0.0040563,0.00106387,0.138507,0.00242853,0.0256989,636,1254,-14.3427,-3.16496
-581,-230,-14.3796,3.45129,0.00190019,0.00142203,0.000810789,0.00250641,0.000815805,0.642026,0.00147616,0.0239875,643,1254,-14.3797,-3.4513
-574,-230,-14.3142,3.67261,0.00207397,0.00196191,0.00112693,0.00314627,0.000889619,0.760559,0.00187278,0.0173336,650,1254,-14.3142,-3.67255
-567,-230,-14.1212,4.00269,0.00239644,0.00237279,0.0012612,0.00364587,0.00112336,0.780711,0.00215599,0.0271142,657,1254,-14.1212,-4.00264
-560,-230,-13.7887,4.43347,0.00225034,0.00246664,0.00143599,0.00379856,0.000918434,0.822984,0.0022885,0.0450521,664,1254,-13.7887,-4.43348
-553,-230,-13.1016,4.85168,0,0,0,0,0,0,0,-1,671,1254,-13.1016,-4.85174
-546,-230,-14.6507,0.34375,0,0,0,0,0,0,0,-1,678,1254,-14.6507,-0.343751
-539,-230,-18.5783,-0.517212,0,0,0,0,0,0,0,-1,685,1254,-18.5783,0.517179
-532,-230,-19.1626,0.330933,0,0,0,0,0,0,0,-1,692,1254,-19.1626,-0.330927
-525,-230,-19.7469,1.17908,0,0,0,0,0,0,0,-1,699,1254,-19.7469,-1.17903
-518,-230,-19.9246,0.676514,-0.00454634,0.0014422,-0.000783143,0.00154292,-0.00464706,-1.44289,0.00372056,0.0480779,706,1254,-19.9245,-0.676458
-511,-230,-20.0306,0.694946,-0.006643,0.000272125,-0.00196844,0.000793191,-0.00716407,-1.31202,0.0050612,0.0402147,713,1254,-20.0307,-0.694909
-504,-230,-20.1412,0.714966,-0.00690395,-0.0016391,-0.00279887,-0.000429215,-0.00811384,-1.16278,0.00527198,0.0370171,720,1254,-20.1412,-0.715022
-497,-230,0,0,0,0,0,0,0,0,0,-1,727,1254,0,0
-490,-230,0,0,0,0,0,0,0,0,0,-1,734,1254,0,0
-483,-230,0,0,0,0,0,0,0,0,0,-1,741,1254,0,0
-476,-230,0,0,0,0,0,0,0,0,0,-1,748,1254,0,0
-469,-230,0,0,0,0,0,0,0,0,0,-1,755,1254,0,0
-462,-230,0,0,0,0,0,0,0,0,0,-1,762,1254,0,0
-455,-230,0,0,0,0,0,0,0,0,0,-1,769,1254,0,0
-448,-230,0,0,0,0,0,0,0,0,0,-1,776,1254,0,0
-441,-230,0,0,0,0,0,0,0,0,0,-1,783,1254,0,0
-434,-230,0,0,0,0,0,0,0,0,0,-1,790,1254,0,0
-427,-230,0,0,0,0,0,0,0,0,0,-1,797,1254,0,0
-420,-230,0,0,0,0,0,0,0,0,0,-1,804,1254,0,0
-413,-230,0,0,0,0,0,0,0,0,0,-1,811,1254,0,0
-406,-230,0,0,0,0,0,0,0,0,0,-1,818,1254,0,0
-399,-230,0,0,0,0,0,0,0,0,0,-1,825,1254,0,0
-392,-230,0,0,0,0,0,0,0,0,0,-1,832,1254,0,0
-385,-230,0,0,0,0,0,0,0,0,0,-1,839,1254,0,0
-378,-230,0,0,0,0,0,0,0,0,0,-1,846,1254,0,0
-371,-230,0,0,0,0,0,0,0,0,0,-1,853,1254,0,0
-364,-230,0,0,0,0,0,0,0,0,0,-1,860,1254,0,0
-357,-230,0,0,0,0,0,0,0,0,0,-1,867,1254,0,0
-350,-230,0,0,0,0,0,0,0,0,0,-1,874,1254,0,0
-343,-230,0,0,0,0,0,0,0,0,0,-1,881,1254,0,0
-336,-230,0,0,0,0,0,0,0,0,0,-1,888,1254,0,0
-329,-230,0,0,0,0,0,0,0,0,0,-1,895,1254,0,0
-322,-230,0,0,0,0,0,0,0,0,0,-1,902,1254,0,0
-315,-230,0,0,0,0,0,0,0,0,0,-1,909,1254,0,0
-308,-230,0,0,0,0,0,0,0,0,0,-1,916,1254,0,0
-301,-230,0,0,0,0,0,0,0,0,0,-1,923,1254,0,0
-294,-230,0,0,0,0,0,0,0,0,0,-1,930,1254,0,0
-287,-230,0,0,0,0,0,0,0,0,0,-1,937,1254,0,0
-280,-230,0,0,0,0,0,0,0,0,0,-1,944,1254,0,0
-273,-230,0,0,0,0,0,0,0,0,0,-1,951,1254,0,0
-266,-230,0,0,0,0,0,0,0,0,0,-1,958,1254,0,0
-259,-230,0,0,0,0,0,0,0,0,0,-1,965,1254,0,0
-252,-230,0,0,0,0,0,0,0,0,0,-1,972,1254,0,0
-245,-230,0,0,0,0,0,0,0,0,0,-1,979,1254,0,0
-238,-230,0,0,0,0,0,0,0,0,0,-1,986,1254,0,0
-231,-230,0,0,0,0,0,0,0,0,0,-1,993,1254,0,0
-224,-230,0,0,0,0,0,0,0,0,0,-1,1000,1254,0,0
-217,-230,0,0,0,0,0,0,0,0,0,-1,1007,1254,0,0
-210,-230,0,0,0,0,0,0,0,0,0,-1,1014,1254,0,0
-203,-230,0,0,0,0,0,0,0,0,0,-1,1021,1254,0,0
-196,-230,0,0,0,0,0,0,0,0,0,-1,1028,1254,0,0
-189,-230,0,0,0,0,0,0,0,0,0,-1,1035,1254,0,0
-182,-230,0,0,0,0,0,0,0,0,0,-1,1042,1254,0,0
-175,-230,0,0,0,0,0,0,0,0,0,-1,1049,1254,0,0
-168,-230,0,0,0,0,0,0,0,0,0,-1,1056,1254,0,0
-161,-230,0,0,0,0,0,0,0,0,0,-1,1063,1254,0,0
-154,-230,0,0,0,0,0,0,0,0,0,-1,1070,1254,0,0
-147,-230,0,0,0,0,0,0,0,0,0,-1,1077,1254,0,0
-140,-230,0,0,0,0,0,0,0,0,0,-1,1084,1254,0,0
-133,-230,0,0,0,0,0,0,0,0,0,-1,1091,1254,0,0
-126,-230,0,0,0,0,0,0,0,0,0,-1,1098,1254,0,0
-119,-230,0,0,0,0,0,0,0,0,0,-1,1105,1254,0,0
-112,-230,0,0,0,0,0,0,0,0,0,-1,1112,1254,0,0
-105,-230,0,0,0,0,0,0,0,0,0,-1,1119,1254,0,0
-98,-230,0,0,0,0,0,0,0,0,0,-1,1126,1254,0,0
-91,-230,0,0,0,0,0,0,0,0,0,-1,1133,1254,0,0
-84,-230,0,0,0,0,0,0,0,0,0,-1,1140,1254,0,0
-77,-230,0,0,0,0,0,0,0,0,0,-1,1147,1254,0,0
-70,-230,0,0,0,0,0,0,0,0,0,-1,1154,1254,0,0
-63,-230,0,0,0,0,0,0,0,0,0,-1,1161,1254,0,0
-56,-230,0,0,0,0,0,0,0,0,0,-1,1168,1254,0,0
-49,-230,0,0,0,0,0,0,0,0,0,-1,1175,1254,0,0
-42,-230,0,0,0,0,0,0,0,0,0,-1,1182,1254,0,0
-35,-230,0,0,0,0,0,0,0,0,0,-1,1189,1254,0,0
-28,-230,0,0,0,0,0,0,0,0,0,-1,1196,1254,0,0
-21,-230,0,0,0,0,0,0,0,0,0,-1,1203,1254,0,0
-14,-230,0,0,0,0,0,0,0,0,0,-1,1210,1254,0,0
-7,-230,0,0,0,0,0,0,0,0,0,-1,1217,1254,0,0
0,-230,0,0,0,0,0,0,0,0,0,-1,1224,1254,0,0
7,-230,0,0,0,0,0,0,0,0,0,-1,1231,1254,0,0
14,-230,0,0,0,0,0,0,0,0,0,-1,1238,1254,0,0
21,-230,0,0,0,0,0,0,0,0,0,-1,1245,1254,0,0
28,-230,0,0,0,0,0,0,0,0,0,-1,1252,1254,0,0
35,-230,0,0,0,0,0,0,0,0,0,-1,1259,1254,0,0
42,-230,0,0,0,0,0,0,0,0,0,-1,1266,1254,0,0
49,-230,0,0,0,0,0,0,0,0,0,-1,1273,1254,0,0
56,-230,0,0,0,0,0,0,0,0,0,-1,1280,1254,0,0
63,-230,0,0,0,0,0,0,0,0,0,-1,1287,1254,0,0
70,-230,0,0,0,0,0,0,0,0,0,-1,1294,1254,0,0
77,-230,0,0,0,0,0,0,0,0,0,-1,1301,1254,0,0
84,-230,0,0,0,0,0,0,0,0,0,-1,1308,1254,0,0
91,-230,0,0,0,0,0,0,0,0,0,-1,1315,1254,0,0
98,-230,0,0,0,0,0,0,0,0,0,-1,1322,1254,0,0
105,-230,0,0,0,0,0,0,0,0,0,-1,1329,1254,0,0
112,-230,0,0,0,0,0,0,0,0,0,-1,1336,1254,0,0
119,-230,0,0,0,0,0,0,0,0,0,-1,1343,1254,0,0
126,-230,0,0,0,0,0,0,0,0,0,-1,1350,1254,0,0
133,-230,0,0,0,0,0,0,0,0,0,-1,1357,1254,0,0
140,-230,0,0,0,0,0,0,0,0,0,-1,1364,1254,0,0
147,-230,0,0,0,0,0,0,0,0,0,-1,1371,1254,0,0
154,-230,0,0,0,0,0,0,0,0,0,-1,1378,1254,0,0
161,-230,0,0,0,0,0,0,0,0,0,-1,1385,1254,0,0
168,-230,0,0,0,0,0,0,0,0,0,-1,1392,1254,0,0
175,-230,0,0,0,0,0,0,0,0,0,-1,1399,1254,0,0
182,-230,0,0,0,0,0,0,0,0,0,-1,1406,1254,0,0
189,-230,0,0,0,0,0,0,0,0,0,-1,1413,1254,0,0
196,-230,0,0,0,0,0,0,0,0,0,-1,1420,1254,0,0
203,-230,0,0,0,0,0,0,0,0,0,-1,1427,1254,0,0
210,-230,0,0,0,0,0,0,0,0,0,-1,1434,1254,0,0
217,-230,0,0,0,0,0,0,0,0,0,-1,1441,1254,0,0
224,-230,0,0,0,0,0,0,0,0,0,-1,1448,1254,0,0
231,-230,0,0,0,0,0,0,0,0,0,-1,1455,1254,0,0
238,-230,0,0,0,0,0,0,0,0,0,-1,1462,1254,0,0
245,-230,0,0,0,0,0,0,0,0,0,-1,1469,1254,0,0
252,-230,0,0,0,0,0,0,0,0,0,-1,1476,1254,0,0
259,-230,0,0,0,0,0,0,0,0,0,-1,1483,1254,0,0
266,-230,0,0,0,0,0,0,0,0,0,-1,1490,1254,0,0
273,-230,0,0,0,0,0,0,0,0,0,-1,1497,1254,0,0
280,-230,0,0,0,0,0,0,0,0,0,-1,1504,1254,0,0
287,-230,0,0,0,0,0,0,0,0,0,-1,1511,1254,0,0
294,-230,0,0,0,0,0,0,0,0,0,-1,1518,1254,0,0
301,-230,0,0,0,0,0,0,0,0,0,-1,1525,1254,0,0
308,-230,0,0,0,0,0,0,0,0,0,-1,1532,1254,0,0
315,-230,0,0,0,0,0,0,0,0,0,-1,1539,1254,0,0
322,-230,0,0,0,0,0,0,0,0,0,-1,1546,1254,0,0
329,-230,0,0,0,0,0,0,0,0,0,-1,1553,1254,0,0
336,-230,0,0,0,0,0,0,0,0,0,-1,1560,1254,0,0
343,-230,0,0,0,0,0,0,0,0,0,-1,1567,1254,0,0
350,-230,0,0,0,0,0,0,0,0,0,-1,1574,1254,0,0
357,-230,0,0,0,0,0,0,0,0,0,-1,1581,1254,0,0
364,-230,0,0,0,0,0,0,0,0,0,-1,1588,1254,0,0
371,-230,0,0,0,0,0,0,0,0,0,-1,1595,1254,0,0
378,-230,0,0,0,0,0,0,0,0,0,-1,1602,1254,0,0
385,-230,0,0,0,0,0,0,0,0,0,-1,1609,1254,0,0
392,-230,0,0,0,0,0,0,0,0,0,-1,1616,1254,0,0
399,-230,0,0,0,0,0,0,0,0,0,-1,1623,1254,0,0
406,-230,0,0,0,0,0,0,0,0,0,-1,1630,1254,0,0
413,-230,0,0,0,0,0,0,0,0,0,-1,1637,1254,0,0
420,-230,0,0,0,0,0,0,0,0,0,-1,1644,1254,0,0
427,-230,0,0,0,0,0,0,0,0,0,-1,1651,1254,0,0
434,-230,0,0,0,0,0,0,0,0,0,-1,1658,1254,0,0
441,-230,0,0,0,0,0,0,0,0,0,-1,1665,1254,0,0
448,-230,0,0,0,0,0,0,0,0,0,-1,1672,1254,0,0
455,-230,0,0,0,0,0,0,0,0,0,-1,1679,1254,0,0
462,-230,0,0,0,0,0,0,0,0,0,-1,1686,1254,0,0
469,-230,0,0,0,0,0,0,0,0,0,-1,1693,1254,0,0
476,-230,0,0,0,0,0,0,0,0,0,-1,1700,1254,0,0
483,-230,0,0,0,0,0,0,0,0,0,-1,1707,1254,0,0
490,-230,0,0,0,0,0,0,0,0,0,-1,1714,1254,0,0
497,-230,0,0,0,0,0,0,0,0,0,-1,1721,1254,0,0
504,-230,0,0,0,0,0,0,0,0,0,-1,1728,1254,0,0
511,-230,0,0,0,0,0,0,0,0,0,-1,1735,1254,0,0
518,-230,0,0,0,0,0,0,0,0,0,-1,1742,1254,0,0
525,-230,0,0,0,0,0,0,0,0,0,-1,1749,1254,0,0
532,-230,0,0,0,0,0,0,0,0,0,-1,1756,1254,0,0
539,-230,0,0,0,0,0,0,0,0,0,-1,1763,1254,0,0
546,-230,0,0,0,0,0,0,0,0,0,-1,1770,1254,0,0
553,-230,0,0,0,0,0,0,0,0,0,-1,1777,1254,0,0
560,-230,0,0,0,0,0,0,0,0,0,-1,1784,1254,0,0
567,-230,0,0,0,0,0,0,0,0,0,-1,1791,1254,0,0
574,-230,0,0,0,0,0,0,0,0,0,-1,1798,1254,0,0
581,-230,0,0,0,0,0,0,0,0,0,-1,1805,1254,0,0
588,-230,0,0,0,0,0,0,0,0,0,-1,1812,1254,0,0
595,-230,0,0,0,0,0,0,0,0,0,-1,1819,1254,0,0
602,-230,0,0,0,0,0,0,0,0,0,-1,1826,1254,0,0
609,-230,0,0,0,0,0,0,0,0,0,-1,1833,1254,0,0
616,-230,29.0582,2.6012,0.00372285,0.00101573,-0.00523746,0.00777883,-0.00304025,-0.658945,0.00644301,0.0380185,1840,1254,29.0582,-2.60114
623,-230,28.9904,2.49402,-0.00161456,0.00475723,-0.00258047,0.00567118,-0.00252851,-1.2304,0.00484861,0.0346639,1847,1254,28.9903,-2.49398
630,-230,28.9834,2.48621,-0.00601626,0.00789521,9.21127e-07,0.00789521,-0.00601626,1.57073,0.00805617,0.0303505,1854,1254,28.9833,-2.48625
637,-230,29.0626,2.58545,-0.00936317,0.00993325,0.00217317,0.010175,-0.00960488,1.46002,0.0114215,0.0251214,1861,1254,29.0627,-2.58545
644,-230,29.033,2.57422,-0.0103709,0.0102507,0.00332036,0.0107722,-0.0108924,1.41503,0.0125081,0.019601,1868,1254,29.0329,-2.57417
651,-230,29.0066,2.56384,-0.00979168,0.00947882,0.0035295,0.0101049,-0.0104178,1.39523,0.0118492,0.0399629,1875,1254,29.0066,-2.56383
658,-230,28.9865,2.56641,0,0,0,0,0,0,0,-1,1882,1254,28.9865,-2.56642
665,-230,28.1479,2.28235,-0.00736254,0.00697766,0.00312668,0.00762973,-0.00801462,1.36519,0.00903318,0.0498559,1889,1254,28.1479,-2.28233
672,-230,28.037,2.34424,-0.00615031,0.00574433,0.00280741,0.00637365,-0.00677963,1.35028,0.00759525,0.0489994,1896,1254,28.0369,-2.3443
679,-230,27.9967,2.37708,0,0,0,0,0,0,0,-1,1903,1254,27.9967,-2.3771
686,-230,23.5039,6.4375,0,0,0,0,0,0,0,-1,1910,1254,23.5039,-6.4375
693,-230,23.6249,6.31714,-0.00190678,0.00231499,0.0018549,0.00301417,-0.00260596,1.21033,0.00324764,0.0284681,1917,1254,23.6249,-6.31709
700,-230,23.7396,6.1521,-0.000925964,0.00122076,0.00118759,0.00174817,-0.00145338,1.15286,0.00185102,0.0112245,1924,1254,23.7396,-6.15216
707,-230,23.7241,5.90417,-0.000196564,0.00055631,0.000658516,0.00093839,-0.000578644,1.04505,0.000884031,0.00914316,1931,1254,23.7241,-5.90414
714,-230,23.7212,5.64099,0.000751337,0.000351423,0.000738331,0.00131631,-0.000213548,0.653159,0.000956699,0.012193,1938,1254,23.7212,-5.64104
721,-230,23.7372,5.39026,0.00196869,8.49521e-06,0.000652458,0.002166,-0.000188816,0.293669,0.00151088,0.0125211,1945,1254,23.7372,-5.3903
728,-230,23.7306,5.16467,0.00267991,7.01502e-05,0.000431395,0.00274937,6.89295e-07,0.159645,0.00183269,0.0136947,1952,1254,23.7306,-5.16472
735,-230,23.7164,4.9408,0.0038001,0.0004682,0.000266281,0.00382125,0.000447054,0.0792481,0.00241233,0.0139989,1959,1254,23.7164,-4.94082
742,-230,23.6936,4.69275,0.00547161,0.000838763,-1.64504e-05,0.00547167,0.000838705,-0.00355076,0.00340284,0.010801,1966,1254,23.6936,-4.69272
749,-230,23.6892,4.43408,0.00787332,0.00120143,-0.000418618,0.00789949,0.00117527,-0.0624173,0.00492157,0.010409,1973,1254,23.6893,-4.43403
756,-230,23.6887,4.20471,0.0112873,0.00150101,-0.00106538,0.0114019,0.00138637,-0.107192,0.00718387,0.0131865,1980,1254,23.6888,-4.20476
763,-230,23.7012,3.94446,0.016029,0.00166029,-0.00200518,0.0163036,0.00138571,-0.136088,0.0104379,0.0277253,1987,1254,23.7012,-3.94446
770,-230,23.8153,3.63245,0.0224474,0.00163137,-0.00325247,0.0229438,0.00113502,-0.151441,0.0149319,0.0449297,1994,1254,23.8153,-3.63239
777,-230,23.9192,3.34595,0,0,0,0,0,0,0,-1,2001,1254,23.9192,-3.34592
784,-230,22.9126,5.56836,0,0,0,0,0,0,0,-1,2008,1254,22.9126,-5.56837
791,-230,23.2279,4.55115,0,0,0,0,0,0,0,-1,2015,1254,23.2279,-4.55112
798,-230,0,0,0,0,0,0,0,0,0,-1,2022,1254,0,0
805,-230,0,0,0,0,0,0,0,0,0,-1,2029,1254,0,0
812,-230,0,0,0,0,0,0,0,0,0,-1,2036,1254,0,0
-700,-237,0,0,0,0,0,0,0,0,0,-1,524,1261,0,0
-693,-237,0,0,0,0,0,0,0,0,0,-1,531,1261,0,0
-686,-237,0,0,0,0,0,0,0,0,0,-1,538,1261,0,0
-679,-237,0,0,0,0,0,0,0,0,0,-1,545,1261,0,0
-672,-237,-19.2868,3.9032,0.0988216,-0.0548956,0.0428972,0.109982,-0.0660564,0.254532,0.102685,0.0462416,552,1261,-19.2868,-3.90324
-665,-237,-18.3959,3.49585,0.105163,-0.0415496,0.030913,0.111411,-0.0477971,0.199412,0.0943327,0.0449669,559,1261,-18.396,-3.49581
-658,-237,-17.3647,3.13989,0,0,0,0,0,0,0,-1,566,1261,-17.3647,-3.13994
-651,-237,-17.0602,2.33105,0,0,0,0,0,0,0,-1,573,1261,-17.0602,-2.33108
-644,-237,-15.4252,0.40918,0,0,0,0,0,0,0,-1,580,1261,-15.4252,-0.409185
-637,-237,-14.9427,0.606689,0.0741881,-0.00910548,0.00625884,0.0746558,-0.00957317,0.0745838,0.0532492,0.0496248,587,1261,-14.9427,-0.606744
-630,-237,-14.528,1.17847,0.0615229,-0.0050705,0.003673,0.0617248,-0.00527248,0.0549336,0.0430152,0.0435114,594,1261,-14.528,-1.1785
-623,-237,-14.0929,1.6842,0,0,0,0,0,0,0,-1,601,1261,-14.0929,-1.68419
-616,-237,-14.0062,1.99329,0.0384849,0.00018572,6.17204e-05,0.038485,0.000185622,0.00161153,0.025595,0.0144718,608,1261,-14.0062,-1.99329
-609,-237,-14.0255,2.27429,0.0273656,0.00175053,-0.000816322,0.0273916,0.00172454,-0.0318258,0.0177142,0.0164775,615,1261,-14.0254,-2.27432
-602,-237,-14.0115,2.55786,0.0177135,0.00172759,-0.000620212,0.0177375,0.00170356,-0.0387199,0.0113,0.0121433,622,1261,-14.0115,-2.55792
-595,-237,-14.0503,2.84875,0.0107079,0.00176995,-0.000353525,0.0107219,0.00175599,-0.0394711,0.00664043,0.0153678,629,1261,-14.0503,-2.84881
-588,-237,-14.0432,3.1311,0.00541146,0.00114045,0.000736109,0.00553476,0.00101714,0.165973,0.00340187,0.0269013,636,1261,-14.0432,-3.13111
-581,-237,-14.0413,3.42041,0.00282222,0.00144394,0.00123018,0.00354313,0.00072303,0.530079,0.00216177,0.0244551,643,1261,-14.0413,-3.42045
-574,-237,-14.037,3.69421,0.003023,0.00198063,0.00156193,0.0041484,0.000855229,0.624368,0.00252919,0.0144572,650,1261,-14.0371,-3.69415
-567,-237,-13.9715,3.99805,0.00316218,0.00243207,0.00164593,0.00448305,0.00111119,0.676268,0.00269575,0.0177144,657,1261,-13.9715,-3.99808
-560,-237,-13.6678,4.42847,0.00280417,0.00254614,0.00175265,0.00443255,0.000917767,0.748659,0.00270158,0.0368731,664,1261,-13.6678,-4.42853
-553,-237,-13.3433,4.7627,0,0,0,0,0,0,0,-1,671,1261,-13.3433,-4.76265
-546,-237,-11.192,1.14014,0,0,0,0,0,0,0,-1,678,1261,-11.192,-1.14011
-539,-237,-16.512,1.53455,0,0,0,0,0,0,0,-1,685,1261,-16.512,-1.53457
-532,-237,-18.8003,0.179565,0,0,0,0,0,0,0,-1,692,1261,-18.8003,-0.179535
-525,-237,-19.8159,0.980957,0,0,0,0,0,0,0,-1,699,1261,-19.8158,-0.980973
-518,-237,-19.8698,0.763794,-0.00602065,0.000999389,-0.00100026,0.00113913,-0.00616039,-1.43199,0.00453458,0.0494888,706,1261,-19.8697,-0.763734
-511,-237,-19.9859,0.722656,-0.00850719,6.64643e-05,-0.00206474,0.000537794,-0.00897852,-1.34637,0.00617276,0.0420113,713,1261,-19.9859,-0.72271
-504,-237,-20.1297,0.872681,-0.0099525,-0.001067,-0.00286964,-0.000220816,-0.0107987,-1.28405,0.00712666,0.0415125,720,1261,-20.1297,-0.872668
-497,-237,-20.1543,0.871582,-0.0106242,-0.00211503,-0.0036802,-0.000744192,-0.0119951,-1.21423,0.00776055,0.0474104,727,1261,-20.1543,-0.871558
-490,-237,0,0,0,0,0,0,0,0,0,-1,734,1261,0,0
-483,-237,0,0,0,0,0,0,0,0,0,-1,741,1261,0,0
-476,-237,0,0,0,0,0,0,0,0,0,-1,748,1261,0,0
-469,-237,0,0,0,0,0,0,0,0,0,-1,755,1261,0,0
-462,-237,0,0,0,0,0,0,0,0,0,-1,762,1261,0,0
-455,-237,0,0,0,0,0,0,0,0,0,-1,769,1261,0,0
-448,-237,0,0,0,0,0,0,0,0,0,-1,776,1261,0,0
-441,-237,0,0,0,0,0,0,0,0,0,-1,783,1261,0,0
-434,-237,0,0,0,0,0,0,0,0,0,-1,790,1261,0,0
-427,-237,0,0,0,0,0,0,0,0,0,-1,797,1261,0,0
-420,-237,0,0,0,0,0,0,0,0,0,-1,804,1261,0,0
-413,-237,0,0,0,0,0,0,0,0,0,-1,811,1261,0,0
-406,-237,0,0,0,0,0,0,0,0,0,-1,818,1261,0,0
-399,-237,0,0,0,0,0,0,0,0,0,-1,825,1261,0,0
-392,-237,0,0,0,0,0,0,0,0,0,-1,832,1261,0,0
-385,-237,0,0,0,0,0,0,0,0,0,-1,839,1261,0,0
-378,-237,0,0,0,0,0,0,0,0,0,-1,846,1261,0,0
-371,-237,0,0,0,0,0,0,0,0,0,-1,853,1261,0,0
-364,-237,0,0,0,0,0,0,0,0,0,-1,860,1261,0,0
-357,-237,0,0,0,0,0,0,0,0,0,-1,867,1261,0,0
-350,-237,0,0,0,0,0,0,0,0,0,-1,874,1261,0,0
-343,-237,0,0,0,0,0,0,0,0,0,-1,881,1261,0,0
-336,-237,0,0,0,0,0,0,0,0,0,-1,888,1261,0,0
-329,-237,0,0,0,0,0,0,0,0,0,-1,895,1261,0,0
-322,-237,0,0,0,0,0,0,0,0,0,-1,902,1261,0,0
-315,-237,0,0,0,0,0,0,0,0,0,-1,909,1261,0,0
-308,-237,0,0,0,0,0,0,0,0,0,-1,916,1261,0,0
-301,-237,0,0,0,0,0,0,0,0,0,-1,923,1261,0,0
-294,-237,0,0,0,0,0,0,0,0,0,-1,930,1261,0,0
-287,-237,0,0,0,0,0,0,0,0,0,-1,937,1261,0,0
-280,-237,0,0,0,0,0,0,0,0,0,-1,944,1261,0,0
-273,-237,0,0,0,0,0,0,0,0,0,-1,951,1261,0,0
-266,-237,0,0,0,0,0,0,0,0,0,-1,958,1261,0,0
-259,-237,0,0,0,0,0,0,0,0,0,-1,965,1261,0,0
-252,-237,0,0,0,0,0,0,0,0,0,-1,972,1261,0,0
-245,-237,0,0,0,0,0,0,0,0,0,-1,979,1261,0,0
-238,-237,0,0,0,0,0,0,0,0,0,-1,986,1261,0,0
-231,-237,0,0,0,0,0,0,0,0,0,-1,993,1261,0,0
-224,-237,0,0,0,0,0,0,0,0,0,-1,1000,1261,0,0
-217,-237,0,0,0,0,0,0,0,0,0,-1,1007,1261,0,0
-210,-237,0,0,0,0,0,0,0,0,0,-1,1014,1261,0,0
-203,-237,0,0,0,0,0,0,0,0,0,-1,1021,1261,0,0
-196,-237,0,0,0,0,0,0,0,0,0,-1,1028,1261,0,0
-189,-237,0,0,0,0,0,0,0,0,0,-1,1035,1261,0,0
-182,-237,0,0,0,0,0,0,0,0,0,-1,1042,1261,0,0
-175,-237,0,0,0,0,0,0,0,0,0,-1,1049,1261,0,0
-168,-237,0,0,0,0,0,0,0,0,0,-1,1056,1261,0,0
-161,-237,0,0,0,0,0,0,0,0,0,-1,1063,1261,0,0
-154,-237,0,0,0,0,0,0,0,0,0,-1,1070,1261,0,0
-147,-237,0,0,0,0,0,0,0,0,0,-1,1077,1261,0,0
-140,-237,0,0,0,0,0,0,0,0,0,-1,1084,1261,0,0
-133,-237,0,0,0,0,0,0,0,0,0,-1,1091,1261,0,0
-126,-237,0,0,0,0,0,0,0,0,0,-1,1098,1261,0,0
-119,-237,0,0,0,0,0,0,0,0,0,-1,1105,1261,0,0
-112,-237,0,0,0,0,0,0,0,0,0,-1,1112,1261,0,0
-105,-237,0,0,0,0,0,0,0,0,0,-1,1119,1261,0,0
-98,-237,0,0,0,0,0,0,0,0,0,-1,1126,1261,0,0
-91,-237,0,0,0,0,0,0,0,0,0,-1,1133,1261,0,0
-84,-237,0,0,0,0,0,0,0,0,0,-1,1140,1261,0,0
-77,-237,0,0,0,0,0,0,0,0,0,-1,1147,1261,0,0
-70,-237,0,0,0,0,0,0,0,0,0,-1,1154,1261,0,0
-63,-237,0,0,0,0,0,0,0,0,0,-1,1161,1261,0,0
-56,-237,0,0,0,0,0,0,0,0,0,-1,1168,1261,0,0
-49,-237,0,0,0,0,0,0,0,0,0,-1,1175,1261,0,0
-42,-237,0,0,0,0,0,0,0,0,0,-1,1182,1261,0,0
-35,-237,0,0,0,0,0,0,0,0,0,-1,1189,1261,0,0
-28,-237,0,0,0,0,0,0,0,0,0,-1,1196,1261,0,0
-21,-237,0,0,0,0,0,0,0,0,0,-1,1203,1261,0,0
-14,-237,0,0,0,0,0,0,0,0,0,-1,1210,1261,0,0
-7,-237,0,0,0,0,0,0,0,0,0,-1,1217,1261,0,0
0,-237,0,0,0,0,0,0,0,0,0,-1,1224,1261,0,0
7,-237,0,0,0,0,0,0,0,0,0,-1,1231,1261,0,0
14,-237,0,0,0,0,0,0,0,0,0,-1,1238,1261,0,0
21,-237,0,0,0,0,0,0,0,0,0,-1,1245,1261,0,0
28,-237,0,0,0,0,0,0,0,0,0,-1,1252,1261,0,0
35,-237,0,0,0,0,0,0,0,0,0,-1,1259,1261,0,0
42,-237,0,0,0,0,0,0,0,0,0,-1,1266,1261,0,0
49,-237,0,0,0,0,0,0,0,0,0,-1,1273,1261,0,0
56,-237,0,0,0,0,0,0,0,0,0,-1,1280,1261,0,0
63,-237,0,0,0,0,0,0,0,0,0,-1,1287,1261,0,0
70,-237,0,0,0,0,0,0,0,0,0,-1,1294,1261,0,0
77,-237,0,0,0,0,0,0,0,0,0,-1,1301,1261,0,0
84,-237,0,0,0,0,0,0,0,0,0,-1,1308,1261,0,0
91,-237,0,0,0,0,0,0,0,0,0,-1,1315,1261,0,0
98,-237,0,0,0,0,0,0,0,0,0,-1,1322,1261,0,0
105,-237,0,0,0,0,0,0,0,0,0,-1,1329,1261,0,0
112,-237,0,0,0,0,0,0,0,0,0,-1,1336,1261,0,0
119,-237,0,0,0,0,0,0,0,0,0,-1,1343,1261,0,0
126,-237,0,0,0,0,0,0,0,0,0,-1,1350,1261,0,0
133,-237,0,0,0,0,0,0,0,0,0,-1,1357,1261,0,0
140,-237,0,0,0,0,0,0,0,0,0,-1,1364,1261,0,0
147,-237,0,0,0,0,0,0,0,0,0,-1,1371,1261,0,0
154,-237,0,0,0,0,0,0,0,0,0,-1,1378,1261,0,0
161,-237,0,0,0,0,0,0,0,0,0,-1,1385,1261,0,0
168,-237,0,0,0,0,0,0,0,0,0,-1,1392,1261,0,0
175,-237,0,0,0,0,0,0,0,0,0,-1,1399,1261,0,0
182,-237,0,0,0,0,0,0,0,0,0,-1,1406,1261,0,0
189,-237,0,0,0,0,0,0,0,0,0,-1,1413,1261,0,0
196,-237,0,0,0,0,0,0,0,0,0,-1,1420,1261,0,0
203,-237,0,0,0,0,0,0,0,0,0,-1,1427,1261,0,0
210,-237,0,0,0,0,0,0,0,0,0,-1,1434,1261,0,0
217,-237,0,0,0,0,0,0,0,0,0,-1,1441,1261,0,0
224,-237,0,0,0,0,0,0,0,0,0,-1,1448,1261,0,0
231,-237,0,0,0,0,0,0,0,0,0,-1,1455,1261,0,0
238,-237,0,0,0,0,0,0,0,0,0,-1,1462,1261,0,0
245,-237,0,0,0,0,0,0,0,0,0,-1,1469,1261,0,0
252,-237,0,0,0,0,0,0,0,0,0,-1,1476,1261,0,0
259,-237,0,0,0,0,0,0,0,0,0,-1,1483,1261,0,0
266,-237,0,0,0,0,0,0,0,0,0,-1,1490,1261,0,0
273,-237,0,0,0,0,0,0,0,0,0,-1,1497,1261,0,0
280,-237,0,0,0,0,0,0,0,0,0,-1,1504,1261,0,0
287,-237,0,0,0,0,0,0,0,0,0,-1,1511,1261,0,0
294,-237,0,0,0,0,0,0,0,0,0,-1,1518,1261,0,0
301,-237,0,0,0,0,0,0,0,0,0,-1,1525,1261,0,0
308,-237,0,0,0,0,0,0,0,0,0,-1,1532,1261,0,0
315,-237,0,0,0,0,0,0,0,0,0,-1,1539,1261,0,0
322,-237,0,0,0,0,0,0,0,0,0,-1,1546,1261,0,0
329,-237,0,0,0,0,0,0,0,0,0,-1,1553,1261,0,0
336,-237,0,0,0,0,0,0,0,0,0,-1,1560,1261,0,0
343,-237,0,0,0,0,0,0,0,0,0,-1,1567,1261,0,0
350,-237,0,0,0,0,0,0,0,0,0,-1,1574,1261,0,0
357,-237,0,0,0,0,0,0,0,0,0,-1,1581,1261,0,0
364,-237,0,0,0,0,0,0,0,0,0,-1,1588,1261,0,0
371,-237,0,0,0,0,0,0,0,0,0,-1,1595,1261,0,0
378,-237,0,0,0,0,0,0,0,0,0,-1,1602,1261,0,0
385,-237,0,0,0,0,0,0,0,0,0,-1,1609,1261,0,0
392,-237,0,0,0,0,0,0,0,0,0,-1,1616,1261,0,0
399,-237,0,0,0,0,0,0,0,0,0,-1,1623,1261,0,0
406,-237,0,0,0,0,0,0,0,0,0,-1,1630,1261,0,0
413,-237,0,0,0,0,0,0,0,0,0,-1,1637,1261,0,0
420,-237,0,0,0,0,0,0,0,0,0,-1,1644,1261,0,0
427,-237,0,0,0,0,0,0,0,0,0,-1,1651,1261,0,0
434,-237,0,0,0,0,0,0,0,0,0,-1,1658,1261,0,0
441,-237,0,0,0,0,0,0,0,0,0,-1,1665,1261,0,0
448,-237,0,0,0,0,0,0,0,0,0,-1,1672,1261,0,0
455,-237,0,0,0,0,0,0,0,0,0,-1,1679,1261,0,0
462,-237,0,0,0,0,0,0,0,0,0,-1,1686,1261,0,0
469,-237,0,0,0,0,0,0,0,0,0,-1,1693,1261,0,0
476,-237,0,0,0,0,0,0,0,0,0,-1,1700,1261,0,0
483,-237,0,0,0,0,0,0,0,0,0,-1,1707,1261,0,0
490,-237,0,0,0,0,0,0,0,0,0,-1,1714,1261,0,0
497,-237,0,0,0,0,0,0,0,0,0,-1,1721,1261,0,0
504,-237,0,0,0,0,0,0,0,0,0,-1,1728,1261,0,0
511,-237,0,0,0,0,0,0,0,0,0,-1,1735,1261,0,0
518,-237,0,0,0,0,0,0,0,0,0,-1,1742,1261,0,0
525,-237,0,0,0,0,0,0,0,0,0,-1,1749,1261,0,0
532,-237,0,0,0,0,0,0,0,0,0,-1,1756,1261,0,0
539,-237,0,0,0,0,0,0,0,0,0,-1,1763,1261,0,0
546,-237,0,0,0,0,0,0,0,0,0,-1,1770,1261,0,0
553,-237,0,0,0,0,0,0,0,0,0,-1,1777,1261,0,0
560,-237,0,0,0,0,0,0,0,0,0,-1,1784,1261,0,0
567,-237,0,0,0,0,0,0,0,0,0,-1,1791,1261,0,0
574,-237,0,0,0,0,0,0,0,0,0,-1,1798,1261,0,0
581,-237,0,0,0,0,0,0,0,0,0,-1,1805,1261,0,0
588,-237,0,0,0,0,0,0,0,0,0,-1,1812,1261,0,0
595,-237,0,0,0,0,0,0,0,0,0,-1,1819,1261,0,0
602,-237,0,0,0,0,0,0,0,0,0,-1,1826,1261,0,0
609,-237,0,0,0,0,0,0,0,0,0,-1,1833,1261,0,0
616,-237,29.0219,2.49573,0.00198242,0.00293205,-0.0064572,0.00893187,-0.0040174,-0.822098,0.00765363,0.0361991,1840,1261,29.0218,-2.49577
623,-237,29.0281,2.55127,-0.00474003,0.00757786,-0.00252118,0.00807391,-0.00523608,-1.37652,0.00774253,0.0310272,1847,1261,29.028,-2.55131
630,-237,29.0483,2.62402,-0.0103145,0.0112907,0.00111654,0.0113483,-0.0103721,1.5193,0.0125445,0.0262981,1854,1261,29.0483,-2.62405
637,-237,28.9934,2.59521,-0.0137345,0.0130934,0.0037875,0.0136178,-0.0142589,1.4332,0.0160961,0.0208552,1861,1261,28.9934,-2.59524
644,-237,28.8944,2.46887,-0.01416,0.0127812,0.00494188,0.0136591,-0.0150379,1.39499,0.0165746,0.0391243,1868,1261,28.8944,-2.46881
651,-237,29.0535,2.5199,-0.0130409,0.0114756,0.00503644,0.0124699,-0.0140352,1.37588,0.0153116,0.0472559,1875,1261,29.0535,-2.5199
658,-237,29.2034,2.6261,-0.011466,0.0098564,0.00479719,0.010886,-0.0124955,1.35938,0.01351,0.0460195,1882,1261,29.2034,-2.62606
665,-237,27.9612,2.13684,-0.00976543,0.00820142,0.00436291,0.00920484,-0.0107688,1.34474,0.0115436,0.0487984,1889,1261,27.9612,-2.13685
672,-237,27.9316,2.23901,0,0,0,0,0,0,0,-1,1896,1261,27.9317,-2.23897
679,-237,23.1501,7.37488,0,0,0,0,0,0,0,-1,1903,1261,23.1502,-7.37493
686,-237,23.7048,6.79712,0,0,0,0,0,0,0,-1,1910,1261,23.7048,-6.7971
693,-237,23.4413,6.37659,-0.00249994,0.00229484,0.00233039,0.00324083,-0.00344593,1.18518,0.00386121,0.0281983,1917,1261,23.4413,-6.37657
700,-237,23.4712,6.15894,-0.00122376,0.000957415,0.00131409,0.00157452,-0.00184087,1.13176,0.00197387,0.0107453,1924,1261,23.4712,-6.15896
707,-237,23.4709,5.92859,-0.000281765,0.000293683,0.00060266,0.00067378,-0.000661861,1.00811,0.000771143,0.00885426,1931,1261,23.4709,-5.92856
714,-237,23.4617,5.65186,0.000888324,0.000232273,0.000599022,0.00124325,-0.000122657,0.534898,0.0008726,0.0124926,1938,1261,23.4617,-5.65191
721,-237,23.4465,5.40137,0.00226885,6.06597e-05,0.000438329,0.00235268,-2.31669e-05,0.18896,0.00157623,0.014407,1945,1261,23.4465,-5.40136
728,-237,23.4717,5.15393,0.00314155,0.000249176,0.00017723,0.00315237,0.000238357,0.0609709,0.0020268,0.0144227,1952,1261,23.4717,-5.15389
735,-237,23.4624,4.91858,0.0043504,0.00072227,-2.33394e-05,0.00435055,0.00072212,-0.00643254,0.00269214,0.0198089,1959,1261,23.4624,-4.91862
742,-237,23.4675,4.69434,0.00607107,0.00112148,-0.00032782,0.00609269,0.00109986,-0.0658484,0.00374934,0.014658,1966,1261,23.4676,-4.69434
749,-237,23.4445,4.44336,0.00853294,0.00147074,-0.000747976,0.00861129,0.00139239,-0.10437,0.00533762,0.00988424,1973,1261,23.4445,-4.44331
756,-237,23.4279,4.18872,0.0120085,0.00173022,-0.00142728,0.0122031,0.00153571,-0.13545,0.00767486,0.0144165,1980,1261,23.4279,-4.18877
763,-237,23.4177,3.91345,0.0167553,0.00176955,-0.00239841,0.0171297,0.00139505,-0.154894,0.0109844,0.031163,1987,1261,23.4177,-3.91351
770,-237,23.5558,3.55139,0.0231295,0.00154048,-0.00368854,0.0237423,0.000927678,-0.164633,0.0155282,0.0448146,1994,1261,23.5558,-3.55141
777,-237,23.6432,3.17603,0,0,0,0,0,0,0,-1,2001,1261,23.6432,-3.17603
784,-237,22.2477,4.27905,0,0,0,0,0,0,0,-1,2008,1261,22.2476,-4.27905
791,-237,27.4911,5.61902,0,0,0,0,0,0,0,-1,2015,1261,27.4911,-5.61904
798,-237,0,0,0,0,0,0,0,0,0,-1,2022,1261,0,0
805,-237,0,0,0,0,0,0,0,0,0,-1,2029,1261,0,0
812,-237,0,0,0,0,0,0,0,0,0,-1,2036,1261,0,0
-700,-244,0,0,0,0,0,0,0,0,0,-1,524,1268,0,0
-693,-244,0,0,0,0,0,0,0,0,0,-1,531,1268,0,0
-686,-244,0,0,0,0,0,0,0,0,0,-1,538,1268,0,0
-679,-244,0,0,0,0,0,0,0,0,0,-1,545,1268,0,0
-672,-244,-20.1773,4.48914,0.12833,-0.061036,0.0468608,0.139292,-0.0719977,0.229789,0.124033,0.0471946,552,1268,-20.1773,-4.48912
-665,-244,-19.2831,4.02673,0.133716,-0.045037,0.0322072,0.139342,-0.050663,0.172935,0.113612,0.0473406,559,1268,-19.2831,-4.02675
-658,-244,-18.6033,3.49402,0,0,0,0,0,0,0,-1,566,1268,-18.6033,-3.49398
-651,-244,-18.0389,3.03552,0.118495,-0.022503,0.0141707,0.119906,-0.0239131,0.0991805,0.0889856,0.0449891,573,1268,-18.039,-3.0355
-644,-244,-17.5092,2.31653,0.104762,-0.0148607,0.00877848,0.105403,-0.0155015,0.0728645,0.0759647,0.0455817,580,1268,-17.5091,-2.31648
-637,-244,-14.5873,0.679199,0,0,0,0,0,0,0,-1,587,1268,-14.5873,-0.679159
-630,-244,-14.4504,1.29956,0,0,0,0,0,0,0,-1,594,1268,-14.4504,-1.2995
-623,-244,-13.7559,1.69641,0.0582983,-0.00216223,0.000997376,0.0583148,-0.00217868,0.0164903,0.0396227,0.0332694,601,1268,-13.7559,-1.69641
-616,-244,-13.7115,2.00098,0.0449038,0.000595479,-0.000884786,0.0449215,0.00057782,-0.0199582,0.0297569,0.0170073,608,1268,-13.7115,-2.001
-609,-244,-13.7029,2.26672,0.0321122,0.00213267,-0.00147853,0.032185,0.00205993,-0.0491587,0.020804,0.0149853,615,1268,-13.7029,-2.26669
-602,-244,-13.7266,2.55957,0.0210764,0.00202961,-0.00095456,0.0211241,0.00198189,-0.0499498,0.0134708,0.0157516,622,1268,-13.7266,-2.55952
-595,-244,-13.7717,2.84863,0.0129771,0.00204467,-0.000500195,0.013,0.00202183,-0.0456262,0.00807748,0.0162617,629,1268,-13.7717,-2.84865
-588,-244,-13.7574,3.12842,0.00650369,0.00101325,0.00089291,0.00664525,0.000871687,0.157234,0.00417008,0.0200572,636,1268,-13.7574,-3.12843
-581,-244,-13.7426,3.40967,0.00328696,0.00131121,0.00145609,0.00405866,0.00053951,0.487343,0.00254507,0.0171714,643,1268,-13.7425,-3.40967
-574,-244,-13.7478,3.69714,0.00358444,0.00178369,0.00183111,0.00472457,0.00064357,0.556901,0.00295861,0.0126087,650,1268,-13.7478,-3.69716
-567,-244,-13.7474,4.00366,0.00364459,0.00220773,0.001944,0.00499867,0.000853651,0.6084,0.00308749,0.0102038,657,1268,-13.7474,-4.0036
-560,-244,-13.6875,4.31494,0.00316122,0.00236385,0.00202332,0.00482476,0.000700312,0.688122,0.00301035,0.0220463,664,1268,-13.6875,-4.31492
-553,-244,-13.5741,4.64966,0,0,0,0,0,0,0,-1,671,1268,-13.5741,-4.64971
-546,-244,-11.2686,4.41772,0,0,0,0,0,0,0,-1,678,1268,-11.2686,-4.41767
-539,-244,-12.8706,0.3302,0,0,0,0,0,0,0,-1,685,1268,-12.8706,-0.330156
-532,-244,-18.1502,0.816528,0,0,0,0,0,0,0,-1,692,1268,-18.1502,-0.816514
-525,-244,-19.5333,0.432739,0,0,0,0,0,0,0,-1,699,1268,-19.5333,-0.432764
-518,-244,-19.7012,0.634644,-0.00745061,0.000303418,-0.00134323,0.000529511,-0.00767671,-1.40404,0.00530313,0.0473206,706,1268,-19.7012,-0.634588
-511,-244,-19.9013,0.741699,-0.010193,-0.000623154,-0.00237711,-6.52182e-05,-0.0107509,-1.34026,0.00714564,0.0492367,713,1268,-19.9013,-0.741639
-504,-244,-19.918,0.734375,-0.0120879,-0.00144902,-0.00298186,-0.000670268,-0.0128666,-1.31534,0.00836328,0.0457841,720,1268,-19.918,-0.734393
-497,-244,-20.0304,0.801758,-0.0139714,-0.00169748,-0.00382803,-0.000601453,-0.0150674,-1.29194,0.0098506,0.0470067,727,1268,-20.0304,-0.801711
-490,-244,0,0,0,0,0,0,0,0,0,-1,734,1268,0,0
-483,-244,0,0,0,0,0,0,0,0,0,-1,741,1268,0,0
-476,-244,0,0,0,0,0,0,0,0,0,-1,748,1268,0,0
-469,-244,0,0,0,0,0,0,0,0,0,-1,755,1268,0,0
-462,-244,0,0,0,0,0,0,0,0,0,-1,762,1268,0,0
-455,-244,0,0,0,0,0,0,0,0,0,-1,769,1268,0,0
-448,-244,0,0,0,0,0,0,0,0,0,-1,776,1268,0,0
-441,-244,0,0,0,0,0,0,0,0,0,-1,783,1268,0,0
-434,-244,0,0,0,0,0,0,0,0,0,-1,790,1268,0,0
-427,-244,0,0,0,0,0,0,0,0,0,-1,797,1268,0,0
-420,-244,0,0,0,0,0,0,0,0,0,-1,804,1268,0,0
-413,-244,0,0,0,0,0,0,0,0,0,-1,811,1268,0,0
-406,-244,0,0,0,0,0,0,0,0,0,-1,818,1268,0,0
-399,-244,0,0,0,0,0,0,0,0,0,-1,825,1268,0,0
-392,-244,0,0,0,0,0,0,0,0,0,-1,832,1268,0,0
-385,-244,0,0,0,0,0,0,0,0,0,-1,839,1268,0,0
-378,-244,0,0,0,0,0,0,0,0,0,-1,846,1268,0,0
-371,-244,0,0,0,0,0,0,0,0,0,-1,853,1268,0,0
-364,-244,0,0,0,0,0,0,0,0,0,-1,860,1268,0,0
-357,-244,0,0,0,0,0,0,0,0,0,-1,867,1268,0,0
-350,-244,0,0,0,0,0,0,0,0,0,-1,874,1268,0,0
-343,-244,0,0,0,0,0,0,0,0,0,-1,881,1268,0,0
-336,-244,0,0,0,0,0,0,0,0,0,-1,888,1268,0,0
-329,-244,0,0,0,0,0,0,0,0,0,-1,895,1268,0,0
-322,-244,0,0,0,0,0,0,0,0,0,-1,902,1268,0,0
-315,-244,0,0,0,0,0,0,0,0,0,-1,909,1268,0,0
-308,-244,0,0,0,0,0,0,0,0,0,-1,916,1268,0,0
-301,-244,0,0,0,0,0,0,0,0,0,-1,923,1268,0,0
-294,-244,0,0,0,0,0,0,0,0,0,-1,930,1268,0,0
-287,-244,0,0,0,0,0,0,0,0,0,-1,937,1268,0,0
-280,-244,0,0,0,0,0,0,0,0,0,-1,944,1268,0,0
-273,-244,0,0,0,0,0,0,0,0,0,-1,951,1268,0,0
-266,-244,0,0,0,0,0,0,0,0,0,-1,958,1268,0,0
-259,-244,0,0,0,0,0,0,0,0,0,-1,965,1268,0,0
-252,-244,0,0,0,0,0,0,0,0,0,-1,972,1268,0,0
-245,-244,0,0,0,0,0,0,0,0,0,-1,979,1268,0,0
-238,-244,0,0,0,0,0,0,0,0,0,-1,986,1268,0,0
-231,-244,0,0,0,0,0,0,0,0,0,-1,993,1268,0,0
-224,-244,0,0,0,0,0,0,0,0,0,-1,1000,1268,0,0
-217,-244,0,0,0,0,0,0,0,0,0,-1,1007,1268,0,0
-210,-244,0,0,0,0,0,0,0,0,0,-1,1014,1268,0,0
-203,-244,0,0,0,0,0,0,0,0,0,-1,1021,1268,0,0
-196,-244,0,0,0,0,0,0,0,0,0,-1,1028,1268,0,0
-189,-244,0,0,0,0,0,0,0,0,0,-1,1035,1268,0,0
-182,-244,0,0,0,0,0,0,0,0,0,-1,1042,1268,0,0
-175,-244,0,0,0,0,0,0,0,0,0,-1,1049,1268,0,0
-168,-244,0,0,0,0,0,0,0,0,0,-1,1056,1268,0,0
-161,-244,0,0,0,0,0,0,0,0,0,-1,1063,1268,0,0
-154,-244,0,0,0,0,0,0,0,0,0,-1,1070,1268,0,0
-147,-244,0,0,0,0,0,0,0,0,0,-1,1077,1268,0,0
-140,-244,0,0,0,0,0,0,0,0,0,-1,1084,1268,0,0
-133,-244,0,0,0,0,0,0,0,0,0,-1,1091,1268,0,0
-126,-244,0,0,0,0,0,0,0,0,0,-1,1098,1268,0,0
-119,-244,0,0,0,0,0,0,0,0,0,-1,1105,1268,0,0
-112,-244,0,0,0,0,0,0,0,0,0,-1,1112,1268,0,0
-105,-244,0,0,0,0,0,0,0,0,0,-1,1119,1268,0,0
-98,-244,0,0,0,0,0,0,0,0,0,-1,1126,1268,0,0
-91,-244,0,0,0,0,0,0,0,0,0,-1,1133,1268,0,0
-84,-244,0,0,0,0,0,0,0,0,0,-1,1140,1268,0,0
-77,-244,0,0,0,0,0,0,0,0,0,-1,1147,1268,0,0
-70,-244,0,0,0,0,0,0,0,0,0,-1,1154,1268,0,0
-63,-244,0,0,0,0,0,0,0,0,0,-1,1161,1268,0,0
-56,-244,0,0,0,0,0,0,0,0,0,-1,1168,1268,0,0
-49,-244,0,0,0,0,0,0,0,0,0,-1,1175,1268,0,0
-42,-244,0,0,0,0,0,0,0,0,0,-1,1182,1268,0,0
-35,-244,0,0,0,0,0,0,0,0,0,-1,1189,1268,0,0
-28,-244,0,0,0,0,0,0,0,0,0,-1,1196,1268,0,0
-21,-244,0,0,0,0,0,0,0,0,0,-1,1203,1268,0,0
-14,-244,0,0,0,0,0,0,0,0,0,-1,1210,1268,0,0
-7,-244,0,0,0,0,0,0,0,0,0,-1,1217,1268,0,0
0,-244,0,0,0,0,0,0,0,0,0,-1,1224,1268,0,0
7,-244,0,0,0,0,0,0,0,0,0,-1,1231,1268,0,0
14,-244,0,0,0,0,0,0,0,0,0,-1,1238,1268,0,0
21,-244,0,0,0,0,0,0,0,0,0,-1,1245,1268,0,0
28,-244,0,0,0,0,0,0,0,0,0,-1,1252,1268,0,0
35,-244,0,0,0,0,0,0,0,0,0,-1,1259,1268,0,0
42,-244,0,0,0,0,0,0,0,0,0,-1,1266,1268,0,0
49,-244,0,0,0,0,0,0,0,0,0,-1,1273,1268,0,0
56,-244,0,0,0,0,0,0,0,0,0,-1,1280,1268,0,0
63,-244,0,0,0,0,0,0,0,0,0,-1,1287,1268,0,0
70,-244,0,0,0,0,0,0,0,0,0,-1,1294,1268,0,0
77,-244,0,0,0,0,0,0,0,0,0,-1,1301,1268,0,0
84,-244,0,0,0,0,0,0,0,0,0,-1,1308,1268,0,0
91,-244,0,0,0,0,0,0,0,0,0,-1,1315,1268,0,0
98,-244,0,0,0,0,0,0,0,0,0,-1,1322,1268,0,0
105,-244,0,0,0,0,0,0,0,0,0,-1,1329,1268,0,0
112,-244,0,0,0,0,0,0,0,0,0,-1,1336,1268,0,0
119,-244,0,0,0,0,0,0,0,0,0,-1,1343,1268,0,0
126,-244,0,0,0,0,0,0,0,0,0,-1,1350,1268,0,0
133,-244,0,0,0,0,0,0,0,0,0,-1,1357,1268,0,0
140,-244,0,0,0,0,0,0,0,0,0,-1,1364,1268,0,0
147,-244,0,0,0,0,0,0,0,0,0,-1,1371,1268,0,0
154,-244,0,0,0,0,0,0,0,0,0,-1,1378,1268,0,0
161,-244,0,0,0,0,0,0,0,0,0,-1,1385,1268,0,0
168,-244,0,0,0,0,0,0,0,0,0,-1,1392,1268,0,0
175,-244,0,0,0,0,0,0,0,0,0,-1,1399,1268,0,0
182,-244,0,0,0,0,0,0,0,0,0,-1,1406,1268,0,0
189,-244,0,0,0,0,0,0,0,0,0,-1,1413,1268,0,0
196,-244,0,0,0,0,0,0,0,0,0,-1,1420,1268,0,0
203,-244,0,0,0,0,0,0,0,0,0,-1,1427,1268,0,0
210,-244,0,0,0,0,0,0,0,0,0,-1,1434,1268,0,0
217,-244,0,0,0,0,0,0,0,0,0,-1,1441,1268,0,0
224,-244,0,0,0,0,0,0,0,0,0,-1,1448,1268,0,0
231,-244,0,0,0,0,0,0,0,0,0,-1,1455,1268,0,0
238,-244,0,0,0,0,0,0,0,0,0,-1,1462,1268,0,0
245,-244,0,0,0,0,0,0,0,0,0,-1,1469,1268,0,0
252,-244,0,0,0,0,0,0,0,0,0,-1,1476,1268,0,0
259,-244,0,0,0,0,0,0,0,0,0,-1,1483,1268,0,0
266,-244,0,0,0,0,0,0,0,0,0,-1,1490,1268,0,0
273,-244,0,0,0,0,0,0,0,0,0,-1,1497,1268,0,0
280,-244,0,0,0,0,0,0,0,0,0,-1,1504,1268,0,0
287,-244,0,0,0,0,0,0,0,0,0,-1,1511,1268,0,0
294,-244,0,0,0,0,0,0,0,0,0,-1,1518,1268,0,0
301,-244,0,0,0,0,0,0,0,0,0,-1,1525,1268,0,0
308,-244,0,0,0,0,0,0,0,0,0,-1,1532,1268,0,0
315,-244,0,0,0,0,0,0,0,0,0,-1,1539,1268,0,0
322,-244,0,0,0,0,0,0,0,0,0,-1,1546,1268,0,0
329,-244,0,0,0,0,0,0,0,0,0,-1,1553,1268,0,0
336,-244,0,0,0,0,0,0,0,0,0,-1,1560,1268,0,0
343,-244,0,0,0,0,0,0,0,0,0,-1,1567,1268,0,0
350,-244,0,0,0,0,0,0,0,0,0,-1,1574,1268,0,0
357,-244,0,0,0,0,0,0,0,0,0,-1,1581,1268,0,0
364,-244,0,0,0,0,0,0,0,0,0,-1,1588,1268,0,0
371,-244,0,0,0,0,0,0,0,0,0,-1,1595,1268,0,0
378,-244,0,0,0,0,0,0,0,0,0,-1,1602,1268,0,0
385,-244,0,0,0,0,0,0,0,0,0,-1,1609,1268,0,0
392,-244,0,0,0,0,0,0,0,0,0,-1,1616,1268,0,0
399,-244,0,0,0,0,0,0,0,0,0,-1,1623,1268,0,0
406,-244,0,0,0,0,0,0,0,0,0,-1,1630,1268,0,0
413,-244,0,0,0,0,0,0,0,0,0,-1,1637,1268,0,0
420,-244,0,0,0,0,0,0,0,0,0,-1,1644,1268,0,0
427,-244,0,0,0,0,0,0,0,0,0,-1,1651,1268,0,0
434,-244,0,0,0,0,0,0,0,0,0,-1,1658,1268,0,0
441,-244,0,0,0,0,0,0,0,0,0,-1,1665,1268,0,0
448,-244,0,0,0,0,0,0,0,0,0,-1,1672,1268,0,0
455,-244,0,0,0,0,0,0,0,0,0,-1,1679,1268,0,0
462,-244,0,0,0,0,0,0,0,0,0,-1,1686,1268,0,0
469,-244,0,0,0,0,0,0,0,0,0,-1,1693,1268,0,0
476,-244,0,0,0,0,0,0,0,0,0,-1,1700,1268,0,0
483,-244,0,0,0,0,0,0,0,0,0,-1,1707,1268,0,0
490,-244,0,0,0,0,0,0,0,0,0,-1,1714,1268,0,0
497,-244,0,0,0,0,0,0,0,0,0,-1,1721,1268,0,0
504,-244,0,0,0,0,0,0,0,0,0,-1,1728,1268,0,0
511,-244,0,0,0,0,0,0,0,0,0,-1,1735,1268,0,0
518,-244,0,0,0,0,0,0,0,0,0,-1,1742,1268,0,0
525,-244,0,0,0,0,0,0,0,0,0,-1,1749,1268,0,0
532,-244,0,0,0,0,0,0,0,0,0,-1,1756,1268,0,0
539,-244,0,0,0,0,0,0,0,0,0,-1,1763,1268,0,0
546,-244,0,0,0,0,0,0,0,0,0,-1,1770,1268,0,0
553,-244,0,0,0,0,0,0,0,0,0,-1,1777,1268,0,0
560,-244,0,0,0,0,0,0,0,0,0,-1,1784,1268,0,0
567,-244,0,0,0,0,0,0,0,0,0,-1,1791,1268,0,0
574,-244,0,0,0,0,0,0,0,0,0,-1,1798,1268,0,0
581,-244,0,0,0,0,0,0,0,0,0,-1,1805,1268,0,0
588,-244,0,0,0,0,0,0,0,0,0,-1,1812,1268,0,0
595,-244,0,0,0,0,0,0,0,0,0,-1,1819,1268,0,0
602,-244,0,0,0,0,0,0,0,0,0,-1,1826,1268,0,0
609,-244,0,0,0,0,0,0,0,0,0,-1,1833,1268,0,0
616,-244,29.0105,2.4729,-0.00117241,0.00871398,-0.00671076,0.0121056,-0.00456405,-1.10284,0.00994713,0.0330194,1840,1268,29.0105,-2.47289
623,-244,29.0441,2.60449,-0.00896716,0.0129032,-0.00185798,0.0130599,-0.00912388,-1.48665,0.0128749,0.0250266,1847,1268,29.044,-2.60454
630,-244,29.0398,2.66565,-0.0150907,0.0156962,0.0024948,0.0158971,-0.0152916,1.49046,0.0180079,0.0238518,1854,1268,29.0398,-2.6656
637,-244,28.9408,2.53137,-0.0179429,0.0160917,0.00532581,0.0169057,-0.0187568,1.41914,0.020599,0.0388594,1861,1268,28.9408,-2.53141
644,-244,28.7799,2.32874,-0.0176614,0.0146961,0.00638936,0.015912,-0.0188774,1.38274,0.02011,0.0452165,1868,1268,28.7799,-2.32874
651,-244,29.0338,2.43762,0,0,0,0,0,0,0,-1,1875,1268,29.0338,-2.43761
658,-244,29.2272,2.81567,0,0,0,0,0,0,0,-1,1882,1268,29.2272,-2.81563
665,-244,27.8351,2.02307,0,0,0,0,0,0,0,-1,1889,1268,27.835,-2.02306
672,-244,26.2083,4.599,0,0,0,0,0,0,0,-1,1896,1268,26.2082,-4.599
679,-244,23.2031,6.68726,0,0,0,0,0,0,0,-1,1903,1268,23.2032,-6.68727
686,-244,23.2643,6.70825,-0.00561218,0.00364038,0.00388312,0.00505406,-0.00702585,1.22165,0.00700524,0.0400264,1910,1268,23.2643,-6.70819
693,-244,23.1919,6.47644,-0.00326998,0.00199156,0.00293034,0.00329879,-0.0045772,1.15119,0.00456713,0.0157979,1917,1268,23.1919,-6.4765
700,-244,23.1979,6.18433,-0.00170233,0.000556306,0.0015669,0.00135845,-0.00250447,1.09765,0.00226274,0.00861926,1924,1268,23.1979,-6.18437
707,-244,23.2084,5.93738,-0.000504302,3.17074e-05,0.000628823,0.000447256,-0.000919851,0.986842,0.000804866,0.00858349,1931,1268,23.2084,-5.93743
714,-244,23.228,5.67651,0.000965827,0.000234302,0.000435879,0.00116907,3.10541e-05,0.436321,0.000769241,0.0107527,1938,1268,23.228,-5.67654
721,-244,23.2023,5.42432,0.00252286,0.000269552,0.000150673,0.00253289,0.000259521,0.0664729,0.00160908,0.0138003,1945,1268,23.2022,-5.4243
728,-244,23.2107,5.16467,0.00351861,0.000605894,-0.000156627,0.00352701,0.000597495,-0.0535676,0.00217964,0.0182785,1952,1268,23.2107,-5.16468
735,-244,23.203,4.90857,0.0048054,0.00116303,-0.000414716,0.00485202,0.00111641,-0.11195,0.00293422,0.0239952,1959,1268,23.203,-4.90854
742,-244,23.2346,4.70276,0.00657062,0.00162423,-0.000767716,0.00668704,0.00150781,-0.150492,0.00405009,0.0152658,1966,1268,23.2346,-4.70271
749,-244,23.1887,4.44885,0.00907145,0.00202948,-0.0012427,0.00928431,0.00181661,-0.169647,0.00568165,0.0182509,1973,1268,23.1887,-4.44888
756,-244,23.1195,4.2168,0.0125475,0.00235538,-0.00199334,0.0129235,0.0019794,-0.186429,0.00803751,0.0249512,1980,1268,23.1195,-4.21678
763,-244,23.2789,4.0238,0.0171957,0.00247814,-0.00306963,0.0178102,0.00186357,-0.197597,0.0113036,0.0414693,1987,1268,23.2789,-4.02376
770,-244,23.5068,3.76733,0.0233319,0.00230096,-0.00448967,0.0242502,0.00138261,-0.201764,0.0157262,0.0488585,1994,1268,23.5069,-3.76733
777,-244,23.488,3.38855,0,0,0,0,0,0,0,-1,2001,1268,23.4881,-3.38858
784,-244,19.744,7.35754,0,0,0,0,0,0,0,-1,2008,1268,19.7441,-7.35757
791,-244,0,0,0,0,0,0,0,0,0,-1,2015,1268,0,0
798,-244,0,0,0,0,0,0,0,0,0,-1,2022,1268,0,0
805,-244,0,0,0,0,0,0,0,0,0,-1,2029,1268,0,0
812,-244,0,0,0,0,0,0,0,0,0,-1,2036,1268,0,0
-700,-251,0,0,0,0,0,0,0,0,0,-1,524,1275,0,0
-693,-251,0,0,0,0,0,0,0,0,0,-1,531,1275,0,0
-686,-251,0,0,0,0,0,0,0,0,0,-1,538,1275,0,0
-679,-251,0,0,0,0,0,0,0,0,0,-1,545,1275,0,0
-672,-251,0,0,0,0,0,0,0,0,0,-1,552,1275,0,0
-665,-251,-20.1684,4.66565,0,0,0,0,0,0,0,-1,559,1275,-20.1684,-4.6657
-658,-251,-19.2746,4.26807,0,0,0,0,0,0,0,-1,566,1275,-19.2746,-4.26802
-651,-251,-19.3429,3.84595,0.136752,-0.0231235,0.0113656,0.137556,-0.0239274,0.070617,0.100632,0.0469364,573,1275,-19.3429,-3.84598
-644,-251,-18.8923,3.12195,0.119926,-0.0150068,0.00630332,0.12022,-0.0153006,0.0465792,0.0857035,0.0461355,580,1275,-18.8923,-3.1219
-637,-251,-13.4771,0.470947,0.101625,-0.00899804,0.00295883,0.101704,-0.00907712,0.0267215,0.0710222,0.0477888,587,1275,-13.4771,-0.470916
-630,-251,-12.6831,0.95166,0,0,0,0,0,0,0,-1,594,1275,-12.6831,-0.951675
-623,-251,-13.5314,1.69348,0.0654422,-0.00190042,-0.00022524,0.065443,-0.00190118,-0.00334463,0.044276,0.0394785,601,1275,-13.5314,-1.69342
-616,-251,-13.381,1.96057,0.0502506,0.000897064,-0.00183228,0.0503185,0.000829134,-0.0370577,0.0332727,0.0205423,608,1275,-13.381,-1.9606
-609,-251,-13.4246,2.24365,0.0358884,0.0023688,-0.00214281,0.0360248,0.00223237,-0.0635822,0.0233081,0.0199436,615,1275,-13.4246,-2.24362
-602,-251,-13.4543,2.54724,0.023725,0.00220277,-0.001339,0.023808,0.00211978,-0.0618965,0.0152147,0.0149706,622,1275,-13.4543,-2.54724
-595,-251,-13.4382,2.82849,0.0147845,0.00222303,-0.000735203,0.0148274,0.00218014,-0.0582633,0.00924429,0.01322,629,1275,-13.4382,-2.82846
-588,-251,-13.4359,3.10144,0.00729004,0.000816288,0.000936806,0.00742287,0.00068345,0.14086,0.00473723,0.0150248,636,1275,-13.4358,-3.10146
-581,-251,-13.4398,3.41052,0.00330468,0.00109939,0.00152404,0.00408314,0.000320938,0.472235,0.00262167,0.0139018,643,1275,-13.4398,-3.41048
-574,-251,-13.4332,3.72803,0.00363903,0.00139429,0.00193723,0.00475554,0.000277784,0.522843,0.00308194,0.0125331,650,1275,-13.4332,-3.72807
-567,-251,-13.442,4.01782,0.00364173,0.00168549,0.00213127,0.00500861,0.000318608,0.570267,0.0032381,0.0108874,657,1275,-13.442,-4.01779
-560,-251,-13.4153,4.34387,0.00305806,0.00182598,0.00219578,0.00472258,0.000161457,0.648636,0.00309597,0.0197356,664,1275,-13.4154,-4.34387
-553,-251,-13.3206,4.65747,0,0,0,0,0,0,0,-1,671,1275,-13.3206,-4.6575
-546,-251,-12.995,4.5675,0,0,0,0,0,0,0,-1,678,1275,-12.995,-4.56745
-539,-251,-10.7916,0.366333,0,0,0,0,0,0,0,-1,685,1275,-10.7916,-0.366282
-532,-251,-10.7391,-0.00769043,0,0,0,0,0,0,0,-1,692,1275,-10.7391,0.00773227
-525,-251,-19.496,0.577637,0,0,0,0,0,0,0,-1,699,1275,-19.496,-0.577667
-518,-251,-19.6193,0.834229,0,0,0,0,0,0,0,-1,706,1275,-19.6193,-0.834219
-511,-251,-19.8583,0.798096,0,0,0,0,0,0,0,-1,713,1275,-19.8584,-0.798061
-504,-251,-19.7488,0.495361,0,0,0,0,0,0,0,-1,720,1275,-19.7488,-0.495305
-497,-251,-19.9448,0.731934,0,0,0,0,0,0,0,-1,727,1275,-19.9448,-0.731886
-490,-251,0,0,0,0,0,0,0,0,0,-1,734,1275,0,0
-483,-251,0,0,0,0,0,0,0,0,0,-1,741,1275,0,0
-476,-251,0,0,0,0,0,0,0,0,0,-1,748,1275,0,0
-469,-251,0,0,0,0,0,0,0,0,0,-1,755,1275,0,0
-462,-251,0,0,0,0,0,0,0,0,0,-1,762,1275,0,0
-455,-251,0,0,0,0,0,0,0,0,0,-1,769,1275,0,0
-448,-251,0,0,0,0,0,0,0,0,0,-1,776,1275,0,0
-441,-251,0,0,0,0,0,0,0,0,0,-1,783,1275,0,0
-434,-251,0,0,0,0,0,0,0,0,0,-1,790,1275,0,0
-427,-251,0,0,0,0,0,0,0,0,0,-1,797,1275,0,0
-420,-251,0,0,0,0,0,0,0,0,0,-1,804,1275,0,0
-413,-251,0,0,0,0,0,0,0,0,0,-1,811,1275,0,0
-406,-251,0,0,0,0,0,0,0,0,0,-1,818,1275,0,0
-399,-251,0,0,0,0,0,0,0,0,0,-1,825,1275,0,0
-392,-251,0,0,0,0,0,0,0,0,0,-1,832,1275,0,0
-385,-251,0,0,0,0,0,0,0,0,0,-1,839,1275,0,0
-378,-251,0,0,0,0,0,0,0,0,0,-1,846,1275,0,0
-371,-251,0,0,0,0,0,0,0,0,0,-1,853,1275,0,0
-364,-251,0,0,0,0,0,0,0,0,0,-1,860,1275,0,0
-357,-251,0,0,0,0,0,0,0,0,0,-1,867,1275,0,0
-350,-251,0,0,0,0,0,0,0,0,0,-1,874,1275,0,0
-343,-251,0,0,0,0,0,0,0,0,0,-1,881,1275,0,0
-336,-251,0,0,0,0,0,0,0,0,0,-1,888,1275,0,0
-329,-251,0,0,0,0,0,0,0,0,0,-1,895,1275,0,0
-322,-251,0,0,0,0,0,0,0,0,0,-1,902,1275,0,0
-315,-251,0,0,0,0,0,0,0,0,0,-1,909,1275,0,0
-308,-251,0,0,0,0,0,0,0,0,0,-1,916,1275,0,0
-301,-251,0,0,0,0,0,0,0,0,0,-1,923,1275,0,0
-294,-251,0,0,0,0,0,0,0,0,0,-1,930,1275,0,0
-287,-251,0,0,0,0,0,0,0,0,0,-1,937,1275,0,0
-280,-251,0,0,0,0,0,0,0,0,0,-1,944,1275,0,0
-273,-251,0,0,0,0,0,0,0,0,0,-1,951,1275,0,0
-266,-251,0,0,0,0,0,0,0,0,0,-1,958,1275,0,0
-259,-251,0,0,0,0,0,0,0,0,0,-1,965,1275,0,0
-252,-251,0,0,0,0,0,0,0,0,0,-1,972,1275,0,0
-245,-251,0,0,0,0,0,0,0,0,0,-1,979,1275,0,0
-238,-251,0,0,0,0,0,0,0,0,0,-1,986,1275,0,0
-231,-251,0,0,0,0,0,0,0,0,0,-1,993,1275,0,0
-224,-251,0,0,0,0,0,0,0,0,0,-1,1000,1275,0,0
-217,-251,0,0,0,0,0,0,0,0,0,-1,1007,1275,0,0
-210,-251,0,0,0,0,0,0,0,0,0,-1,1014,1275,0,0
-203,-251,0,0,0,0,0,0,0,0,0,-1,1021,1275,0,0
-196,-251,0,0,0,0,0,0,0,0,0,-1,1028,1275,0,0
-189,-251,0,0,0,0,0,0,0,0,0,-1,1035,1275,0,0
-182,-251,0,0,0,0,0,0,0,0,0,-1,1042,1275,0,0
-175,-251,0,0,0,0,0,0,0,0,0,-1,1049,1275,0,0
-168,-251,0,0,0,0,0,0,0,0,0,-1,1056,1275,0,0
-161,-251,0,0,0,0,0,0,0,0,0,-1,1063,1275,0,0
-154,-251,0,0,0,0,0,0,0,0,0,-1,1070,1275,0,0
-147,-251,0,0,0,0,0,0,0,0,0,-1,1077,1275,0,0
-140,-251,0,0,0,0,0,0,0,0,0,-1,1084,1275,0,0
-133,-251,0,0,0,0,0,0,0,0,0,-1,1091,1275,0,0
-126,-251,0,0,0,0,0,0,0,0,0,-1,1098,1275,0,0
-119,-251,0,0,0,0,0,0,0,0,0,-1,1105,1275,0,0
-112,-251,0,0,0,0,0,0,0,0,0,-1,1112,1275,0,0
-105,-251,0,0,0,0,0,0,0,0,0,-1,1119,1275,0,0
-98,-251,0,0,0,0,0,0,0,0,0,-1,1126,1275,0,0
-91,-251,0,0,0,0,0,0,0,0,0,-1,1133,1275,0,0
-84,-251,0,0,0,0,0,0,0,0,0,-1,1140,1275,0,0
-77,-251,0,0,0,0,0,0,0,0,0,-1,1147,1275,0,0
-70,-251,0,0,0,0,0,0,0,0,0,-1,1154,1275,0,0
-63,-251,0,0,0,0,0,0,0,0,0,-1,1161,1275,0,0
-56,-251,0,0,0,0,0,0,0,0,0,-1,1168,1275,0,0
-49,-251,0,0,0,0,0,0,0,0,0,-1,1175,1275,0,0
-42,-251,0,0,0,0,0,0,0,0,0,-1,1182,1275,0,0
-35,-251,0,0,0,0,0,0,0,0,0,-1,1189,1275,0,0
-28,-251,0,0,0,0,0,0,0,0,0,-1,1196,1275,0,0
-21,-251,0,0,0,0,0,0,0,0,0,-1,1203,1275,0,0
-14,-251,0,0,0,0,0,0,0,0,0,-1,1210,1275,0,0
-7,-251,0,0,0,0,0,0,0,0,0,-1,1217,1275,0,0
0,-251,0,0,0,0,0,0,0,0,0,-1,1224,1275,0,0
7,-251,0,0,0,0,0,0,0,0,0,-1,1231,1275,0,0
14,-251,0,0,0,0,0,0,0,0,0,-1,1238,1275,0,0
21,-251,0,0,0,0,0,0,0,0,0,-1,1245,1275,0,0
28,-251,0,0,0,0,0,0,0,0,0,-1,1252,1275,0,0
35,-251,0,0,0,0,0,0,0,0,0,-1,1259,1275,0,0
42,-251,0,0,0,0,0,0,0,0,0,-1,1266,1275,0,0
49,-251,0,0,0,0,0,0,0,0,0,-1,1273,1275,0,0
56,-251,0,0,0,0,0,0,0,0,0,-1,1280,1275,0,0
63,-251,0,0,0,0,0,0,0,0,0,-1,1287,1275,0,0
70,-251,0,0,0,0,0,0,0,0,0,-1,1294,1275,0,0
77,-251,0,0,0,0,0,0,0,0,0,-1,1301,1275,0,0
84,-251,0,0,0,0,0,0,0,0,0,-1,1308,1275,0,0
91,-251,0,0,0,0,0,0,0,0,0,-1,1315,1275,0,0
98,-251,0,0,0,0,0,0,0,0,0,-1,1322,1275,0,0
105,-251,0,0,0,0,0,0,0,0,0,-1,1329,1275,0,0
112,-251,0,0,0,0,0,0,0,0,0,-1,1336,1275,0,0
119,-251,0,0,0,0,0,0,0,0,0,-1,1343,1275,0,0
126,-251,0,0,0,0,0,0,0,0,0,-1,1350,1275,0,0
133,-251,0,0,0,0,0,0,0,0,0,-1,1357,1275,0,0
140,-251,0,0,0,0,0,0,0,0,0,-1,1364,1275,0,0
147,-251,0,0,0,0,0,0,0,0,0,-1,1371,1275,0,0
154,-251,0,0,0,0,0,0,0,0,0,-1,1378,1275,0,0
161,-251,0,0,0,0,0,0,0,0,0,-1,1385,1275,0,0
168,-251,0,0,0,0,0,0,0,0,0,-1,1392,1275,0,0
175,-251,0,0,0,0,0,0,0,0,0,-1,1399,1275,0,0
182,-251,0,0,0,0,0,0,0,0,0,-1,1406,1275,0,0
189,-251,0,0,0,0,0,0,0,0,0,-1,1413,1275,0,0
196,-251,0,0,0,0,0,0,0,0,0,-1,1420,1275,0,0
203,-251,0,0,0,0,0,0,0,0,0,-1,1427,1275,0,0
210,-251,0,0,0,0,0,0,0,0,0,-1,1434,1275,0,0
217,-251,0,0,0,0,0,0,0,0,0,-1,1441,1275,0,0
224,-251,0,0,0,0,0,0,0,0,0,-1,1448,1275,0,0
231,-251,0,0,0,0,0,0,0,0,0,-1,1455,1275,0,0
238,-251,0,0,0,0,0,0,0,0,0,-1,1462,1275,0,0
245,-251,0,0,0,0,0,0,0,0,0,-1,1469,1275,0,0
252,-251,0,0,0,0,0,0,0,0,0,-1,1476,1275,0,0
259,-251,0,0,0,0,0,0,0,0,0,-1,1483,1275,0,0
266,-251,0,0,0,0,0,0,0,0,0,-1,1490,1275,0,0
273,-251,0,0,0,0,0,0,0,0,0,-1,1497,1275,0,0
280,-251,0,0,0,0,0,0,0,0,0,-1,1504,1275,0,0
287,-251,0,0,0,0,0,0,0,0,0,-1,1511,1275,0,0
294,-251,0,0,0,0,0,0,0,0,0,-1,1518,1275,0,0
301,-251,0,0,0,0,0,0,0,0,0,-1,1525,1275,0,0
308,-251,0,0,0,0,0,0,0,0,0,-1,1532,1275,0,0
315,-251,0,0,0,0,0,0,0,0,0,-1,1539,1275,0,0
322,-251,0,0,0,0,0,0,0,0,0,-1,1546,1275,0,0
329,-251,0,0,0,0,0,0,0,0,0,-1,1553,1275,0,0
336,-251,0,0,0,0,0,0,0,0,0,-1,1560,1275,0,0
343,-251,0,0,0,0,0,0,0,0,0,-1,1567,1275,0,0
350,-251,0,0,0,0,0,0,0,0,0,-1,1574,1275,0,0
357,-251,0,0,0,0,0,0,0,0,0,-1,1581,1275,0,0
364,-251,0,0,0,0,0,0,0,0,0,-1,1588,1275,0,0
371,-251,0,0,0,0,0,0,0,0,0,-1,1595,1275,0,0
378,-251,0,0,0,0,0,0,0,0,0,-1,1602,1275,0,0
385,-251,0,0,0,0,0,0,0,0,0,-1,1609,1275,0,0
392,-251,0,0,0,0,0,0,0,0,0,-1,1616,1275,0,0
399,-251,0,0,0,0,0,0,0,0,0,-1,1623,1275,0,0
406,-251,0,0,0,0,0,0,0,0,0,-1,1630,1275,0,0
413,-251,0,0,0,0,0,0,0,0,0,-1,1637,1275,0,0
420,-251,0,0,0,0,0,0,0,0,0,-1,1644,1275,0,0
427,-251,0,0,0,0,0,0,0,0,0,-1,1651,1275,0,0
434,-251,0,0,0,0,0,0,0,0,0,-1,1658,1275,0,0
441,-251,0,0,0,0,0,0,0,0,0,-1,1665,1275,0,0
448,-251,0,0,0,0,0,0,0,0,0,-1,1672,1275,0,0
455,-251,0,0,0,0,0,0,0,0,0,-1,1679,1275,0,0
462,-251,0,0,0,0,0,0,0,0,0,-1,1686,1275,0,0
469,-251,0,0,0,0,0,0,0,0,0,-1,1693,1275,0,0
476,-251,0,0,0,0,0,0,0,0,0,-1,1700,1275,0,0
483,-251,0,0,0,0,0,0,0,0,0,-1,1707,1275,0,0
490,-251,0,0,0,0,0,0,0,0,0,-1,1714,1275,0,0
497,-251,0,0,0,0,0,0,0,0,0,-1,1721,1275,0,0
504,-251,0,0,0,0,0,0,0,0,0,-1,1728,1275,0,0
511,-251,0,0,0,0,0,0,0,0,0,-1,1735,1275,0,0
518,-251,0,0,0,0,0,0,0,0,0,-1,1742,1275,0,0
525,-251,0,0,0,0,0,0,0,0,0,-1,1749,1275,0,0
532,-251,0,0,0,0,0,0,0,0,0,-1,1756,1275,0,0
539,-251,0,0,0,0,0,0,0,0,0,-1,1763,1275,0,0
546,-251,0,0,0,0,0,0,0,0,0,-1,1770,1275,0,0
553,-251,0,0,0,0,0,0,0,0,0,-1,1777,1275,0,0
560,-251,0,0,0,0,0,0,0,0,0,-1,1784,1275,0,0
567,-251,0,0,0,0,0,0,0,0,0,-1,1791,1275,0,0
574,-251,0,0,0,0,0,0,0,0,0,-1,1798,1275,0,0
581,-251,0,0,0,0,0,0,0,0,0,-1,1805,1275,0,0
588,-251,0,0,0,0,0,0,0,0,0,-1,1812,1275,0,0
595,-251,0,0,0,0,0,0,0,0,0,-1,1819,1275,0,0
602,-251,0,0,0,0,0,0,0,0,0,-1,1826,1275,0,0
609,-251,29.1146,2.57642,0.00284243,0.012483,-0.0118479,0.0204536,-0.00512821,-0.978595,0.0156282,0.0299085,1833,1275,29.1146,-2.57644
616,-251,29.0653,2.58142,-0.00602509,0.0167959,-0.00581854,0.0181938,-0.00742299,-1.33502,0.0152194,0.0254236,1840,1275,29.0653,-2.58137
623,-251,29.037,2.6001,-0.0142524,0.0196046,-0.00027282,0.0196068,-0.0142546,-1.56274,0.0196311,0.0211028,1847,1275,29.037,-2.60015
630,-251,28.9501,2.51538,-0.0199925,0.0205341,0.00434546,0.0209949,-0.0204532,1.46517,0.0239307,0.0312595,1854,1275,28.95,-2.5154
637,-251,28.7047,2.18372,-0.0217519,0.0191981,0.00694392,0.0203435,-0.0228973,1.40731,0.0249796,0.0388237,1861,1275,28.7047,-2.18366
644,-251,28.5417,2.1394,-0.0206963,0.0167292,0.00775929,0.0182741,-0.0222412,1.37426,0.0234289,0.0450538,1868,1275,28.5418,-2.13935
651,-251,28.5095,2.48364,-0.018745,0.014035,0.00767956,0.015745,-0.0204549,1.35171,0.0209589,0.0470414,1875,1275,28.5095,-2.48365
658,-251,28.5698,2.86401,0,0,0,0,0,0,0,-1,1882,1275,28.5698,-2.86397
665,-251,26.3168,4.08484,0,0,0,0,0,0,0,-1,1889,1275,26.3168,-4.08479
672,-251,26.0721,4.53064,0,0,0,0,0,0,0,-1,1896,1275,26.0721,-4.53063
679,-251,22.7804,6.87097,0,0,0,0,0,0,0,-1,1903,1275,22.7804,-6.87091
686,-251,22.8934,6.70789,-0.00658921,0.00344121,0.0046543,0.00526813,-0.00841614,1.19675,0.00797,0.0364219,1910,1275,22.8935,-6.70792
693,-251,22.9711,6.46606,-0.00379649,0.00161979,0.00344237,0.0032916,-0.0054683,1.11869,0.00510931,0.0109163,1917,1275,22.971,-6.46601
700,-251,22.9664,6.19666,-0.00199128,0.000112192,0.00177048,0.00111976,-0.00299885,1.05341,0.00245899,0.00892726,1924,1275,22.9664,-6.19663
707,-251,22.9705,5.92822,-0.000600935,-0.000233482,0.000678002,0.000285246,-0.00111966,0.917712,0.000857487,0.00953232,1931,1275,22.9704,-5.92823
714,-251,22.9818,5.67761,0.00104958,0.000217594,0.00033723,0.0011691,9.8074e-05,0.340604,0.000748853,0.0113161,1938,1275,22.9818,-5.67762
721,-251,22.9443,5.4342,0.00266652,0.000432495,-3.20889e-05,0.00266698,0.000432034,-0.0143597,0.00165291,0.0136094,1945,1275,22.9444,-5.43423
728,-251,22.9349,5.17517,0.00374814,0.00091084,-0.000386447,0.00379983,0.000859146,-0.132976,0.00230094,0.0146813,1952,1275,22.935,-5.17521
735,-251,22.9598,4.91321,0.00511179,0.00155885,-0.000725833,0.00525435,0.00141629,-0.193941,0.00313917,0.0140272,1959,1275,22.9598,-4.91324
742,-251,22.9941,4.69482,0.00696663,0.00214262,-0.001188,0.00724332,0.00186593,-0.22883,0.00434265,0.0141219,1966,1275,22.9942,-4.69485
749,-251,22.8965,4.47815,0.00959063,0.00271199,-0.00182641,0.0100455,0.00225712,-0.244085,0.00608578,0.0226417,1973,1275,22.8964,-4.47811
756,-251,22.9437,4.37146,0.0131926,0.00326875,-0.00281415,0.013935,0.00252628,-0.257958,0.00857292,0.0378287,1980,1275,22.9438,-4.37152
763,-251,23.2168,4.12085,0,0,0,0,0,0,0,-1,1987,1275,23.2168,-4.12089
770,-251,23.473,3.98352,0,0,0,0,0,0,0,-1,1994,1275,23.473,-3.98348
777,-251,20.9109,6.20703,0,0,0,0,0,0,0,-1,2001,1275,20.9109,-6.20699
784,-251,20.0607,6.33337,0,0,0,0,0,0,0,-1,2008,1275,20.0607,-6.33332
791,-251,0,0,0,0,0,0,0,0,0,-1,2015,1275,0,0
798,-251,0,0,0,0,0,0,0,0,0,-1,2022,1275,0,0
805,-251,0,0,0,0,0,0,0,0,0,-1,2029,1275,0,0
812,-251,0,0,0,0,0,0,0,0,0,-1,2036,1275,0,0
-700,-258,0,0,0,0,0,0,0,0,0,-1,524,1282,0,0
-693,-258,0,0,0,0,0,0,0,0,0,-1,531,1282,0,0
-686,-258,0,0,0,0,0,0,0,0,0,-1,538,1282,0,0
-679,-258,0,0,0,0,0,0,0,0,0,-1,545,1282,0,0
-672,-258,0,0,0,0,0,0,0,0,0,-1,552,1282,0,0
-665,-258,-20.9875,5.29199,0,0,0,0,0,0,0,-1,559,1282,-20.9876,-5.29203
-658,-258,-16.6597,-3.63855,0,0,0,0,0,0,0,-1,566,1282,-16.6597,3.63852
-651,-258,-20.7238,4.44031,0,0,0,0,0,0,0,-1,573,1282,-20.7238,-4.44035
-644,-258,-14.2918,-0.0113525,0.13304,-0.0153447,0.00374589,0.133134,-0.0154392,0.0252231,0.0943247,0.0467908,580,1282,-14.2918,0.0114003
-637,-258,-13.2764,0.747925,0.112249,-0.00914883,0.00099972,0.112257,-0.00915706,0.00823432,0.0780698,0.0456754,587,1282,-13.2764,-0.747956
-630,-258,-13.0062,1.86792,0,0,0,0,0,0,0,-1,594,1282,-13.0062,-1.86797
-623,-258,-13.19,1.70288,0.0716337,-0.00181394,-0.00130919,0.071657,-0.00183727,-0.0178172,0.0483954,0.0480984,601,1282,-13.19,-1.70285
-616,-258,-13.0429,1.93762,0.0547685,0.0010708,-0.00264459,0.0548984,0.000940876,-0.0490912,0.0362894,0.033931,608,1282,-13.0429,-1.93768
-609,-258,-13.0939,2.2395,0.0389133,0.00251772,-0.00270429,0.0391131,0.00231788,-0.0737628,0.0253382,0.0173029,615,1282,-13.0939,-2.23953
-602,-258,-13.1238,2.55273,0.0257292,0.00235876,-0.00168483,0.0258501,0.00223792,-0.071599,0.016538,0.01357,622,1282,-13.1238,-2.55268
-595,-258,-13.1179,2.83313,0.0160943,0.00241977,-0.000987128,0.0161652,0.00234888,-0.071692,0.0100854,0.0118833,629,1282,-13.1179,-2.8331
-588,-258,-13.1241,3.11963,0.00780524,0.000724102,0.000870674,0.00791073,0.000618618,0.120564,0.00508018,0.0131294,636,1282,-13.1241,-3.11966
-581,-258,-13.1476,3.42004,0.00311671,0.00102023,0.00144425,0.00385303,0.000283904,0.471482,0.00247948,0.014751,643,1282,-13.1476,-3.42005
-574,-258,-13.1252,3.72217,0.00348955,0.00106351,0.00187867,0.00451278,4.0279e-05,0.498731,0.00299519,0.0144731,650,1282,-13.1252,-3.72212
-567,-258,-13.1171,4.01465,0.00351589,0.00114777,0.00216392,0.00479852,-0.000134856,0.535059,0.0032449,0.0141439,657,1282,-13.1171,-4.0146
-560,-258,-13.1194,4.30408,0.00298401,0.00118102,0.00225484,0.00451089,-0.000345858,0.595229,0.00312892,0.0257656,664,1282,-13.1194,-4.30409
-553,-258,-13.0883,4.57642,0,0,0,0,0,0,0,-1,671,1282,-13.0883,-4.57643
-546,-258,-13.342,5.11938,0,0,0,0,0,0,0,-1,678,1282,-13.342,-5.11941
-539,-258,-10.2228,4.05823,0,0,0,0,0,0,0,-1,685,1282,-10.2228,-4.05823
-532,-258,-10.2173,-0.353882,0,0,0,0,0,0,0,-1,692,1282,-10.2173,0.353836
-525,-258,-18.6293,0.796143,0,0,0,0,0,0,0,-1,699,1282,-18.6293,-0.796176
-518,-258,-19.6824,0.870117,0,0,0,0,0,0,0,-1,706,1282,-19.6824,-0.870062
-511,-258,-18.2831,0.217041,0,0,0,0,0,0,0,-1,713,1282,-18.2831,-0.21701
-504,-258,-18.0952,-0.0755615,0,0,0,0,0,0,0,-1,720,1282,-18.0952,0.0755398
-497,-258,-17.8047,0.730469,0,0,0,0,0,0,0,-1,727,1282,-17.8048,-0.730489
-490,-258,-15.4346,0.632935,0,0,0,0,0,0,0,-1,734,1282,-15.4346,-0.632917
-483,-258,0,0,0,0,0,0,0,0,0,-1,741,1282,0,0
-476,-258,0,0,0,0,0,0,0,0,0,-1,748,1282,0,0
-469,-258,0,0,0,0,0,0,0,0,0,-1,755,1282,0,0
-462,-258,0,0,0,0,0,0,0,0,0,-1,762,1282,0,0
-455,-258,0,0,0,0,0,0,0,0,0,-1,769,1282,0,0
-448,-258,0,0,0,0,0,0,0,0,0,-1,776,1282,0,0
-441,-258,0,0,0,0,0,0,0,0,0,-1,783,1282,0,0
-434,-258,0,0,0,0,0,0,0,0,0,-1,790,1282,0,0
-427,-258,0,0,0,0,0,0,0,0,0,-1,797,1282,0,0
-420,-258,0,0,0,0,0,0,0,0,0,-1,804,1282,0,0
-413,-258,0,0,0,0,0,0,0,0,0,-1,811,1282,0,0
-406,-258,0,0,0,0,0,0,0,0,0,-1,818,1282,0,0
-399,-258,0,0,0,0,0,0,0,0,0,-1,825,1282,0,0
-392,-258,0,0,0,0,0,0,0,0,0,-1,832,1282,0,0
-385,-258,0,0,0,0,0,0,0,0,0,-1,839,1282,0,0
-378,-258,0,0,0,0,0,0,0,0,0,-1,846,1282,0,0
-371,-258,0,0,0,0,0,0,0,0,0,-1,853,1282,0,0
-364,-258,0,0,0,0,0,0,0,0,0,-1,860,1282,0,0
-357,-258,0,0,0,0,0,0,0,0,0,-1,867,1282,0,0
-350,-258,0,0,0,0,0,0,0,0,0,-1,874,1282,0,0
-343,-258,0,0,0,0,0,0,0,0,0,-1,881,1282,0,0
-336,-258,0,0,0,0,0,0,0,0,0,-1,888,1282,0,0
-329,-258,0,0,0,0,0,0,0,0,0,-1,895,1282,0,0
-322,-258,0,0,0,0,0,0,0,0,0,-1,902,1282,0,0
-315,-258,0,0,0,0,0,0,0,0,0,-1,909,1282,0,0
-308,-258,0,0,0,0,0,0,0,0,0,-1,916,1282,0,0
-301,-258,0,0,0,0,0,0,0,0,0,-1,923,1282,0,0
-294,-258,0,0,0,0,0,0,0,0,0,-1,930,1282,0,0
-287,-258,0,0,0,0,0,0,0,0,0,-1,937,1282,0,0
-280,-258,0,0,0,0,0,0,0,0,0,-1,944,1282,0,0
-273,-258,0,0,0,0,0,0,0,0,0,-1,951,1282,0,0
-266,-258,0,0,0,0,0,0,0,0,0,-1,958,1282,0,0
-259,-258,0,0,0,0,0,0,0,0,0,-1,965,1282,0,0
-252,-258,0,0,0,0,0,0,0,0,0,-1,972,1282,0,0
-245,-258,0,0,0,0,0,0,0,0,0,-1,979,1282,0,0
-238,-258,0,0,0,0,0,0,0,0,0,-1,986,1282,0,0
-231,-258,0,0,0,0,0,0,0,0,0,-1,993,1282,0,0
-224,-258,0,0,0,0,0,0,0,0,0,-1,1000,1282,0,0
-217,-258,0,0,0,0,0,0,0,0,0,-1,1007,1282,0,0
-210,-258,0,0,0,0,0,0,0,0,0,-1,1014,1282,0,0
-203,-258,0,0,0,0,0,0,0,0,0,-1,1021,1282,0,0
-196,-258,0,0,0,0,0,0,0,0,0,-1,1028,1282,0,0
-189,-258,0,0,0,0,0,0,0,0,0,-1,1035,1282,0,0
-182,-258,0,0,0,0,0,0,0,0,0,-1,1042,1282,0,0
-175,-258,0,0,0,0,0,0,0,0,0,-1,1049,1282,0,0
-168,-258,0,0,0,0,0,0,0,0,0,-1,1056,1282,0,0
-161,-258,0,0,0,0,0,0,0,0,0,-1,1063,1282,0,0
-154,-258,0,0,0,0,0,0,0,0,0,-1,1070,1282,0,0
-147,-258,0,0,0,0,0,0,0,0,0,-1,1077,1282,0,0
-140,-258,0,0,0,0,0,0,0,0,0,-1,1084,1282,0,0
-133,-258,0,0,0,0,0,0,0,0,0,-1,1091,1282,0,0
-126,-258,0,0,0,0,0,0,0,0,0,-1,1098,1282,0,0
-119,-258,0,0,0,0,0,0,0,0,0,-1,1105,1282,0,0
-112,-258,0,0,0,0,0,0,0,0,0,-1,1112,1282,0,0
-105,-258,0,0,0,0,0,0,0,0,0,-1,1119,1282,0,0
-98,-258,0,0,0,0,0,0,0,0,0,-1,1126,1282,0,0
-91,-258,0,0,0,0,0,0,0,0,0,-1,1133,1282,0,0
-84,-258,0,0,0,0,0,0,0,0,0,-1,1140,1282,0,0
-77,-258,0,0,0,0,0,0,0,0,0,-1,1147,1282,0,0
-70,-258,0,0,0,0,0,0,0,0,0,-1,1154,1282,0,0
-63,-258,0,0,0,0,0,0,0,0,0,-1,1161,1282,0,0
-56,-258,0,0,0,0,0,0,0,0,0,-1,1168,1282,0,0
-49,-258,0,0,0,0,0,0,0,0,0,-1,1175,1282,0,0
-42,-258,0,0,0,0,0,0,0,0,0,-1,1182,1282,0,0
-35,-258,0,0,0,0,0,0,0,0,0,-1,1189,1282,0,0
-28,-258,0,0,0,0,0,0,0,0,0,-1,1196,1282,0,0
-21,-258,0,0,0,0,0,0,0,0,0,-1,1203,1282,0,0
-14,-258,0,0,0,0,0,0,0,0,0,-1,1210,1282,0,0
-7,-258,0,0,0,0,0,0,0,0,0,-1,1217,1282,0,0
0,-258,0,0,0,0,0,0,0,0,0,-1,1224,1282,0,0
7,-258,0,0,0,0,0,0,0,0,0,-1,1231,1282,0,0
14,-258,0,0,0,0,0,0,0,0,0,-1,1238,1282,0,0
21,-258,0,0,0,0,0,0,0,0,0,-1,1245,1282,0,0
28,-258,0,0,0,0,0,0,0,0,0,-1,1252,1282,0,0
35,-258,0,0,0,0,0,0,0,0,0,-1,1259,1282,0,0
42,-258,0,0,0,0,0,0,0,0,0,-1,1266,1282,0,0
49,-258,0,0,0,0,0,0,0,0,0,-1,1273,1282,0,0
56,-258,0,0,0,0,0,0,0,0,0,-1,1280,1282,0,0
63,-258,0,0,0,0,0,0,0,0,0,-1,1287,1282,0,0
70,-258,0,0,0,0,0,0,0,0,0,-1,1294,1282,0,0
77,-258,0,0,0,0,0,0,0,0,0,-1,1301,1282,0,0
84,-258,0,0,0,0,0,0,0,0,0,-1,1308,1282,0,0
91,-258,0,0,0,0,0,0,0,0,0,-1,1315,1282,0,0
98,-258,0,0,0,0,0,0,0,0,0,-1,1322,1282,0,0
105,-258,0,0,0,0,0,0,0,0,0,-1,1329,1282,0,0
112,-258,0,0,0,0,0,0,0,0,0,-1,1336,1282,0,0
119,-258,0,0,0,0,0,0,0,0,0,-1,1343,1282,0,0
126,-258,0,0,0,0,0,0,0,0,0,-1,1350,1282,0,0
133,-258,0,0,0,0,0,0,0,0,0,-1,1357,1282,0,0
140,-258,0,0,0,0,0,0,0,0,0,-1,1364,1282,0,0
147,-258,0,0,0,0,0,0,0,0,0,-1,1371,1282,0,0
154,-258,0,0,0,0,0,0,0,0,0,-1,1378,1282,0,0
161,-258,0,0,0,0,0,0,0,0,0,-1,1385,1282,0,0
168,-258,0,0,0,0,0,0,0,0,0,-1,1392,1282,0,0
175,-258,0,0,0,0,0,0,0,0,0,-1,1399,1282,0,0
182,-258,0,0,0,0,0,0,0,0,0,-1,1406,1282,0,0
189,-258,0,0,0,0,0,0,0,0,0,-1,1413,1282,0,0
196,-258,0,0,0,0,0,0,0,0,0,-1,1420,1282,0,0
203,-258,0,0,0,0,0,0,0,0,0,-1,1427,1282,0,0
210,-258,0,0,0,0,0,0,0,0,0,-1,1434,1282,0,0
217,-258,0,0,0,0,0,0,0,0,0,-1,1441,1282,0,0
224,-258,0,0,0,0,0,0,0,0,0,-1,1448,1282,0,0
231,-258,0,0,0,0,0,0,0,0,0,-1,1455,1282,0,0
238,-258,0,0,0,0,0,0,0,0,0,-1,1462,1282,0,0
245,-258,0,0,0,0,0,0,0,0,0,-1,1469,1282,0,0
252,-258,0,0,0,0,0,0,0,0,0,-1,1476,1282,0,0
259,-258,0,0,0,0,0,0,0,0,0,-1,1483,1282,0,0
266,-258,0,0,0,0,0,0,0,0,0,-1,1490,1282,0,0
273,-258,0,0,0,0,0,0,0,0,0,-1,1497,1282,0,0
280,-258,0,0,0,0,0,0,0,0,0,-1,1504,1282,0,0
287,-258,0,0,0,0,0,0,0,0,0,-1,1511,1282,0,0
294,-258,0,0,0,0,0,0,0,0,0,-1,1518,1282,0,0
301,-258,0,0,0,0,0,0,0,0,0,-1,1525,1282,0,0
308,-258,0,0,0,0,0,0,0,0,0,-1,1532,1282,0,0
315,-258,0,0,0,0,0,0,0,0,0,-1,1539,1282,0,0
322,-258,0,0,0,0,0,0,0,0,0,-1,1546,1282,0,0
329,-258,0,0,0,0,0,0,0,0,0,-1,1553,1282,0,0
336,-258,0,0,0,0,0,0,0,0,0,-1,1560,1282,0,0
343,-258,0,0,0,0,0,0,0,0,0,-1,1567,1282,0,0
350,-258,0,0,0,0,0,0,0,0,0,-1,1574,1282,0,0
357,-258,0,0,0,0,0,0,0,0,0,-1,1581,1282,0,0
364,-258,0,0,0,0,0,0,0,0,0,-1,1588,1282,0,0
371,-258,0,0,0,0,0,0,0,0,0,-1,1595,1282,0,0
378,-258,0,0,0,0,0,0,0,0,0,-1,1602,1282,0,0
385,-258,0,0,0,0,0,0,0,0,0,-1,1609,1282,0,0
392,-258,0,0,0,0,0,0,0,0,0,-1,1616,1282,0,0
399,-258,0,0,0,0,0,0,0,0,0,-1,1623,1282,0,0
406,-258,0,0,0,0,0,0,0,0,0,-1,1630,1282,0,0
413,-258,0,0,0,0,0,0,0,0,0,-1,1637,1282,0,0
420,-258,0,0,0,0,0,0,0,0,0,-1,1644,1282,0,0
427,-258,0,0,0,0,0,0,0,0,0,-1,1651,1282,0,0
434,-258,0,0,0,0,0,0,0,0,0,-1,1658,1282,0,0
441,-258,0,0,0,0,0,0,0,0,0,-1,1665,1282,0,0
448,-258,0,0,0,0,0,0,0,0,0,-1,1672,1282,0,0
455,-258,0,0,0,0,0,0,0,0,0,-1,1679,1282,0,0
462,-258,0,0,0,0,0,0,0,0,0,-1,1686,1282,0,0
469,-258,0,0,0,0,0,0,0,0,0,-1,1693,1282,0,0
476,-258,0,0,0,0,0,0,0,0,0,-1,1700,1282,0,0
483,-258,0,0,0,0,0,0,0,0,0,-1,1707,1282,0,0
490,-258,0,0,0,0,0,0,0,0,0,-1,1714,1282,0,0
497,-258,0,0,0,0,0,0,0,0,0,-1,1721,1282,0,0
504,-258,0,0,0,0,0,0,0,0,0,-1,1728,1282,0,0
511,-258,0,0,0,0,0,0,0,0,0,-1,1735,1282,0,0
518,-258,0,0,0,0,0,0,0,0,0,-1,1742,1282,0,0
525,-258,0,0,0,0,0,0,0,0,0,-1,1749,1282,0,0
532,-258,0,0,0,0,0,0,0,0,0,-1,1756,1282,0,0
539,-258,0,0,0,0,0,0,0,0,0,-1,1763,1282,0,0
546,-258,0,0,0,0,0,0,0,0,0,-1,1770,1282,0,0
553,-258,0,0,0,0,0,0,0,0,0,-1,1777,1282,0,0
560,-258,0,0,0,0,0,0,0,0,0,-1,1784,1282,0,0
567,-258,0,0,0,0,0,0,0,0,0,-1,1791,1282,0,0
574,-258,0,0,0,0,0,0,0,0,0,-1,1798,1282,0,0
581,-258,0,0,0,0,0,0,0,0,0,-1,1805,1282,0,0
588,-258,0,0,0,0,0,0,0,0,0,-1,1812,1282,0,0
595,-258,0,0,0,0,0,0,0,0,0,-1,1819,1282,0,0
602,-258,0,0,0,0,0,0,0,0,0,-1,1826,1282,0,0
609,-258,29.0922,2.6449,-0.00141963,0.0192637,-0.0117821,0.024599,-0.00675492,-1.14559,0.0190544,0.0251829,1833,1282,29.0921,-2.6449
616,-258,29.0366,2.66711,-0.0112841,0.0229969,-0.00498971,0.0237084,-0.0119956,-1.42916,0.0209802,0.0233745,1840,1282,29.0367,-2.66709
623,-258,28.9659,2.59827,-0.019482,0.0246712,0.00113083,0.0247002,-0.0195109,1.54521,0.0255838,0.0324767,1847,1282,28.966,-2.59825
630,-258,28.828,2.30103,-0.0243081,0.024034,0.00578576,0.0247168,-0.0249909,1.45332,0.0286989,0.0418069,1854,1282,28.828,-2.30107
637,-258,28.1906,1.71973,-0.0249312,0.0215074,0.00809918,0.0228794,-0.0263032,1.40299,0.0284185,0.041403,1861,1282,28.1906,-1.71968
644,-258,28.0581,1.88843,-0.0232185,0.0183492,0.00872918,0.0201079,-0.0249772,1.37198,0.0260805,0.0446703,1868,1282,28.0581,-1.88847
651,-258,27.9257,2.2384,-0.0209415,0.0151695,0.00861083,0.0171177,-0.0228897,1.34829,0.0231783,0.0481472,1875,1282,27.9256,-2.23837
658,-258,27.6754,2.37915,0,0,0,0,0,0,0,-1,1882,1282,27.6754,-2.37921
665,-258,26.1241,4.44897,0,0,0,0,0,0,0,-1,1889,1282,26.1241,-4.44898
672,-258,22.703,2.80957,0,0,0,0,0,0,0,-1,1896,1282,22.703,-2.80962
679,-258,22.4845,7.08252,0,0,0,0,0,0,0,-1,1903,1282,22.4845,-7.0825
686,-258,22.6299,6.77026,-0.00731853,0.00321272,0.00537221,0.00546956,-0.00957537,1.17309,0.00879335,0.0377176,1910,1282,22.6299,-6.77029
693,-258,22.7355,6.45715,-0.00411808,0.00126804,0.0039101,0.00332277,-0.00617281,1.08696,0.00556398,0.01104,1917,1282,22.7354,-6.45717
700,-258,22.7214,6.18616,-0.00212095,-0.000254664,0.00197015,0.000992158,-0.00336777,1.00657,0.00263882,0.0095608,1924,1282,22.7214,-6.18619
707,-258,22.7296,5.91809,-0.000576019,-0.000411444,0.00077272,0.000283358,-0.00127082,0.838443,0.000955772,0.0100436,1931,1282,22.7296,-5.91812
714,-258,22.7152,5.67627,0.00121152,0.000227412,0.000305285,0.00129853,0.000140401,0.277654,0.000822888,0.00996231,1938,1282,22.7152,-5.67632
721,-258,22.6956,5.42114,0.00291861,0.000610744,-0.000159162,0.00292954,0.000599819,-0.0685324,0.00178696,0.0122299,1945,1282,22.6955,-5.42114
728,-258,22.6818,5.18079,0.00423594,0.00119537,-0.000599402,0.00434984,0.00108147,-0.187778,0.00261504,0.0112703,1952,1282,22.6817,-5.18075
735,-258,22.7023,4.93005,0.00585059,0.00192663,-0.00106789,0.00612239,0.00165483,-0.249225,0.00365699,0.0132249,1959,1282,22.7023,-4.93008
742,-258,22.7355,4.69409,0.00804095,0.0026344,-0.00171568,0.00853943,0.00213592,-0.28276,0.00513136,0.0153681,1966,1282,22.7355,-4.6941
749,-258,22.7256,4.47095,0.0111312,0.00336842,-0.00263878,0.0119432,0.00255637,-0.298539,0.00726159,0.0294724,1973,1282,22.7256,-4.4709
756,-258,22.7906,4.46716,0.0153052,0.00415312,-0.00401415,0.0165998,0.00285852,-0.311977,0.0102475,0.0411192,1980,1282,22.7907,-4.4672
763,-258,23.1034,4.33362,0,0,0,0,0,0,0,-1,1987,1282,23.1034,-4.33361
770,-258,21.7976,4.19788,0,0,0,0,0,0,0,-1,1994,1282,21.7977,-4.19784
777,-258,21.137,5.59802,0,0,0,0,0,0,0,-1,2001,1282,21.1369,-5.59802
784,-258,20.5061,5.66003,0,0,0,0,0,0,0,-1,2008,1282,20.5061,-5.66004
791,-258,0,0,0,0,0,0,0,0,0,-1,2015,1282,0,0
798,-258,0,0,0,0,0,0,0,0,0,-1,2022,1282,0,0
805,-258,0,0,0,0,0,0,0,0,0,-1,2029,1282,0,0
812,-258,0,0,0,0,0,0,0,0,0,-1,2036,1282,0,0
-700,-265,0,0,0,0,0,0,0,0,0,-1,524,1289,0,0
-693,-265,0,0,0,0,0,0,0,0,0,-1,531,1289,0,0
-686,-265,0,0,0,0,0,0,0,0,0,-1,538,1289,0,0
-679,-265,0,0,0,0,0,0,0,0,0,-1,545,1289,0,0
-672,-265,0,0,0,0,0,0,0,0,0,-1,552,1289,0,0
-665,-265,-16.6589,-4.56702,0,0,0,0,0,0,0,-1,559,1289,-16.6589,4.56702
-658,-265,-16.1748,-3.79993,0,0,0,0,0,0,0,-1,566,1289,-16.1748,3.79989
-651,-265,-14.7495,-0.156982,0,0,0,0,0,0,0,-1,573,1289,-14.7495,0.156943
-644,-265,-14.0339,0.5625,0.14266,-0.0159842,0.00169676,0.142678,-0.0160023,0.0106938,0.100877,0.0475788,580,1289,-14.0339,-0.56253
-637,-265,-13.125,1.09656,0.120052,-0.0096639,-0.000522694,0.120054,-0.00966601,-0.00402945,0.0834447,0.0445678,587,1289,-13.125,-1.09655
-630,-265,-12.7128,1.57263,0,0,0,0,0,0,0,-1,594,1289,-12.7127,-1.57262
-623,-265,-12.577,1.52417,0.0757013,-0.00205633,-0.00219713,0.0757634,-0.00211836,-0.0282261,0.0512296,0.0443142,601,1289,-12.577,-1.52412
-616,-265,-12.6526,1.73767,0.0572599,0.0009325,-0.00331575,0.0574544,0.000737987,-0.0585959,0.0380594,0.0396371,608,1289,-12.6526,-1.73771
-609,-265,-12.7964,2.2406,0.0401318,0.00235303,-0.00317,0.0403959,0.00208888,-0.0831351,0.026262,0.017752,615,1289,-12.7964,-2.24066
-602,-265,-12.8383,2.55151,0.0263404,0.00224961,-0.0020339,0.0265109,0.0020791,-0.0836375,0.0170233,0.0139698,622,1289,-12.8382,-2.5515
-595,-265,-12.8344,2.8584,0.0163822,0.00239438,-0.00131216,0.0165043,0.00227236,-0.0927293,0.010329,0.0120568,629,1289,-12.8344,-2.85845
-588,-265,-12.8228,3.15247,0.00770929,0.000615481,0.000605372,0.00776058,0.000564191,0.0845236,0.00499628,0.0105277,636,1289,-12.8227,-3.15249
-581,-265,-12.8434,3.44312,0.00257111,0.000982428,0.00111412,0.00314507,0.000408468,0.475707,0.00197469,0.0126277,643,1289,-12.8434,-3.44313
-574,-265,-12.8538,3.75256,0.00301693,0.000791182,0.00152272,0.0037901,1.80077e-05,0.469834,0.00252075,0.0142056,650,1289,-12.8537,-3.75259
-567,-265,-12.8607,4.03149,0.00320925,0.000660382,0.00185557,0.00418589,-0.000316255,0.484487,0.00290176,0.0205083,657,1289,-12.8606,-4.03145
-560,-265,-12.8872,4.34265,0.00290448,0.000573035,0.0020189,0.00407004,-0.000592527,0.523579,0.0029309,0.0227134,664,1289,-12.8872,-4.34267
-553,-265,-12.7856,4.70544,0.00193515,0.000631662,0.00184722,0.00324223,-0.000675421,0.615804,0.00241828,0.0326027,671,1289,-12.7856,-4.70543
-546,-265,-12.7784,5.10278,0.000431922,0.000718135,0.00129685,0.00187975,-0.000729689,0.840351,0.00155457,0.0475698,678,1289,-12.7784,-5.10274
-539,-265,-12.8897,5.52991,0,0,0,0,0,0,0,-1,685,1289,-12.8897,-5.52991
-532,-265,-8.53998,3.41467,0,0,0,0,0,0,0,-1,692,1289,-8.53996,-3.41473
-525,-265,-12.1317,0.514648,0,0,0,0,0,0,0,-1,699,1289,-12.1317,-0.514634
-518,-265,-17.8846,0.0792236,0,0,0,0,0,0,0,-1,706,1289,-17.8846,-0.0792412
-511,-265,-17.7984,-0.252441,0,0,0,0,0,0,0,-1,713,1289,-17.7984,0.252417
-504,-265,-17.726,-0.352051,0,0,0,0,0,0,0,-1,720,1289,-17.726,0.352099
-497,-265,-17.6355,-0.266357,0,0,0,0,0,0,0,-1,727,1289,-17.6355,0.266337
-490,-265,-15.1696,0.492676,0,0,0,0,0,0,0,-1,734,1289,-15.1696,-0.492688
-483,-265,0,0,0,0,0,0,0,0,0,-1,741,1289,0,0
-476,-265,0,0,0,0,0,0,0,0,0,-1,748,1289,0,0
-469,-265,0,0,0,0,0,0,0,0,0,-1,755,1289,0,0
-462,-265,0,0,0,0,0,0,0,0,0,-1,762,1289,0,0
-455,-265,0,0,0,0,0,0,0,0,0,-1,769,1289,0,0
-448,-265,0,0,0,0,0,0,0,0,0,-1,776,1289,0,0
-441,-265,0,0,0,0,0,0,0,0,0,-1,783,1289,0,0
-434,-265,0,0,0,0,0,0,0,0,0,-1,790,1289,0,0
-427,-265,0,0,0,0,0,0,0,0,0,-1,797,1289,0,0
-420,-265,0,0,0,0,0,0,0,0,0,-1,804,1289,0,0
-413,-265,0,0,0,0,0,0,0,0,0,-1,811,1289,0,0
-406,-265,0,0,0,0,0,0,0,0,0,-1,818,1289,0,0
-399,-265,0,0,0,0,0,0,0,0,0,-1,825,1289,0,0
-392,-265,0,0,0,0,0,0,0,0,0,-1,832,1289,0,0
-385,-265,0,0,0,0,0,0,0,0,0,-1,839,1289,0,0
-378,-265,0,0,0,0,0,0,0,0,0,-1,846,1289,0,0
-371,-265,0,0,0,0,0,0,0,0,0,-1,853,1289,0,0
-364,-265,0,0,0,0,0,0,0,0,0,-1,860,1289,0,0
-357,-265,0,0,0,0,0,0,0,0,0,-1,867,1289,0,0
-350,-265,0,0,0,0,0,0,0,0,0,-1,874,1289,0,0
-343,-265,0,0,0,0,0,0,0,0,0,-1,881,1289,0,0
-336,-265,0,0,0,0,0,0,0,0,0,-1,888,1289,0,0
-329,-265,0,0,0,0,0,0,0,0,0,-1,895,1289,0,0
-322,-265,0,0,0,0,0,0,0,0,0,-1,902,1289,0,0
-315,-265,0,0,0,0,0,0,0,0,0,-1,909,1289,0,0
-308,-265,0,0,0,0,0,0,0,0,0,-1,916,1289,0,0
-301,-265,0,0,0,0,0,0,0,0,0,-1,923,1289,0,0
-294,-265,0,0,0,0,0,0,0,0,0,-1,930,1289,0,0
-287,-265,0,0,0,0,0,0,0,0,0,-1,937,1289,0,0
-280,-265,0,0,0,0,0,0,0,0,0,-1,944,1289,0,0
-273,-265,0,0,0,0,0,0,0,0,0,-1,951,1289,0,0
-266,-265,0,0,0,0,0,0,0,0,0,-1,958,1289,0,0
-259,-265,0,0,0,0,0,0,0,0,0,-1,965,1289,0,0
-252,-265,0,0,0,0,0,0,0,0,0,-1,972,1289,0,0
-245,-265,0,0,0,0,0,0,0,0,0,-1,979,1289,0,0
-238,-265,0,0,0,0,0,0,0,0,0,-1,986,1289,0,0
-231,-265,0,0,0,0,0,0,0,0,0,-1,993,1289,0,0
-224,-265,0,0,0,0,0,0,0,0,0,-1,1000,1289,0,0
-217,-265,0,0,0,0,0,0,0,0,0,-1,1007,1289,0,0
-210,-265,0,0,0,0,0,0,0,0,0,-1,1014,1289,0,0
-203,-265,0,0,0,0,0,0,0,0,0,-1,1021,1289,0,0
-196,-265,0,0,0,0,0,0,0,0,0,-1,1028,1289,0,0
-189,-265,0,0,0,0,0,0,0,0,0,-1,1035,1289,0,0
-182,-265,0,0,0,0,0,0,0,0,0,-1,1042,1289,0,0
-175,-265,0,0,0,0,0,0,0,0,0,-1,1049,1289,0,0
-168,-265,0,0,0,0,0,0,0,0,0,-1,1056,1289,0,0
-161,-265,0,0,0,0,0,0,0,0,0,-1,1063,1289,0,0
-154,-265,0,0,0,0,0,0,0,0,0,-1,1070,1289,0,0
-147,-265,0,0,0,0,0,0,0,0,0,-1,1077,1289,0,0
-140,-265,0,0,0,0,0,0,0,0,0,-1,1084,1289,0,0
-133,-265,0,0,0,0,0,0,0,0,0,-1,1091,1289,0,0
-126,-265,0,0,0,0,0,0,0,0,0,-1,1098,1289,0,0
-119,-265,0,0,0,0,0,0,0,0,0,-1,1105,1289,0,0
-112,-265,0,0,0,0,0,0,0,0,0,-1,1112,1289,0,0
-105,-265,0,0,0,0,0,0,0,0,0,-1,1119,1289,0,0
-98,-265,0,0,0,0,0,0,0,0,0,-1,1126,1289,0,0
-91,-265,0,0,0,0,0,0,0,0,0,-1,1133,1289,0,0
-84,-265,0,0,0,0,0,0,0,0,0,-1,1140,1289,0,0
-77,-265,0,0,0,0,0,0,0,0,0,-1,1147,1289,0,0
-70,-265,0,0,0,0,0,0,0,0,0,-1,1154,1289,0,0
-63,-265,0,0,0,0,0,0,0,0,0,-1,1161,1289,0,0
-56,-265,0,0,0,0,0,0,0,0,0,-1,1168,1289,0,0
-49,-265,0,0,0,0,0,0,0,0,0,-1,1175,1289,0,0
-42,-265,0,0,0,0,0,0,0,0,0,-1,1182,1289,0,0
-35,-265,0,0,0,0,0,0,0,0,0,-1,1189,1289,0,0
-28,-265,0,0,0,0,0,0,0,0,0,-1,1196,1289,0,0
-21,-265,0,0,0,0,0,0,0,0,0,-1,1203,1289,0,0
-14,-265,0,0,0,0,0,0,0,0,0,-1,1210,1289,0,0
-7,-265,0,0,0,0,0,0,0,0,0,-1,1217,1289,0,0
0,-265,0,0,0,0,0,0,0,0,0,-1,1224,1289,0,0
7,-265,0,0,0,0,0,0,0,0,0,-1,1231,1289,0,0
14,-265,0,0,0,0,0,0,0,0,0,-1,1238,1289,0,0
21,-265,0,0,0,0,0,0,0,0,0,-1,1245,1289,0,0
28,-265,0,0,0,0,0,0,0,0,0,-1,1252,1289,0,0
35,-265,0,0,0,0,0,0,0,0,0,-1,1259,1289,0,0
42,-265,0,0,0,0,0,0,0,0,0,-1,1266,1289,0,0
49,-265,0,0,0,0,0,0,0,0,0,-1,1273,1289,0,0
56,-265,0,0,0,0,0,0,0,0,0,-1,1280,1289,0,0
63,-265,0,0,0,0,0,0,0,0,0,-1,1287,1289,0,0
70,-265,0,0,0,0,0,0,0,0,0,-1,1294,1289,0,0
77,-265,0,0,0,0,0,0,0,0,0,-1,1301,1289,0,0
84,-265,0,0,0,0,0,0,0,0,0,-1,1308,1289,0,0
91,-265,0,0,0,0,0,0,0,0,0,-1,1315,1289,0,0
98,-265,0,0,0,0,0,0,0,0,0,-1,1322,1289,0,0
105,-265,0,0,0,0,0,0,0,0,0,-1,1329,1289,0,0
112,-265,0,0,0,0,0,0,0,0,0,-1,1336,1289,0,0
119,-265,0,0,0,0,0,0,0,0,0,-1,1343,1289,0,0
126,-265,0,0,0,0,0,0,0,0,0,-1,1350,1289,0,0
133,-265,0,0,0,0,0,0,0,0,0,-1,1357,1289,0,0
140,-265,0,0,0,0,0,0,0,0,0,-1,1364,1289,0,0
147,-265,0,0,0,0,0,0,0,0,0,-1,1371,1289,0,0
154,-265,0,0,0,0,0,0,0,0,0,-1,1378,1289,0,0
161,-265,0,0,0,0,0,0,0,0,0,-1,1385,1289,0,0
168,-265,0,0,0,0,0,0,0,0,0,-1,1392,1289,0,0
175,-265,0,0,0,0,0,0,0,0,0,-1,1399,1289,0,0
182,-265,0,0,0,0,0,0,0,0,0,-1,1406,1289,0,0
189,-265,0,0,0,0,0,0,0,0,0,-1,1413,1289,0,0
196,-265,0,0,0,0,0,0,0,0,0,-1,1420,1289,0,0
203,-265,0,0,0,0,0,0,0,0,0,-1,1427,1289,0,0
210,-265,0,0,0,0,0,0,0,0,0,-1,1434,1289,0,0
217,-265,0,0,0,0,0,0,0,0,0,-1,1441,1289,0,0
224,-265,0,0,0,0,0,0,0,0,0,-1,1448,1289,0,0
231,-265,0,0,0,0,0,0,0,0,0,-1,1455,1289,0,0
238,-265,0,0,0,0,0,0,0,0,0,-1,1462,1289,0,0
245,-265,0,0,0,0,0,0,0,0,0,-1,1469,1289,0,0
252,-265,0,0,0,0,0,0,0,0,0,-1,1476,1289,0,0
259,-265,0,0,0,0,0,0,0,0,0,-1,1483,1289,0,0
266,-265,0,0,0,0,0,0,0,0,0,-1,1490,1289,0,0
273,-265,0,0,0,0,0,0,0,0,0,-1,1497,1289,0,0
280,-265,0,0,0,0,0,0,0,0,0,-1,1504,1289,0,0
287,-265,0,0,0,0,0,0,0,0,0,-1,1511,1289,0,0
294,-265,0,0,0,0,0,0,0,0,0,-1,1518,1289,0,0
301,-265,0,0,0,0,0,0,0,0,0,-1,1525,1289,0,0
308,-265,0,0,0,0,0,0,0,0,0,-1,1532,1289,0,0
315,-265,0,0,0,0,0,0,0,0,0,-1,1539,1289,0,0
322,-265,0,0,0,0,0,0,0,0,0,-1,1546,1289,0,0
329,-265,0,0,0,0,0,0,0,0,0,-1,1553,1289,0,0
336,-265,0,0,0,0,0,0,0,0,0,-1,1560,1289,0,0
343,-265,0,0,0,0,0,0,0,0,0,-1,1567,1289,0,0
350,-265,0,0,0,0,0,0,0,0,0,-1,1574,1289,0,0
357,-265,0,0,0,0,0,0,0,0,0,-1,1581,1289,0,0
364,-265,0,0,0,0,0,0,0,0,0,-1,1588,1289,0,0
371,-265,0,0,0,0,0,0,0,0,0,-1,1595,1289,0,0
378,-265,0,0,0,0,0,0,0,0,0,-1,1602,1289,0,0
385,-265,0,0,0,0,0,0,0,0,0,-1,1609,1289,0,0
392,-265,0,0,0,0,0,0,0,0,0,-1,1616,1289,0,0
399,-265,0,0,0,0,0,0,0,0,0,-1,1623,1289,0,0
406,-265,0,0,0,0,0,0,0,0,0,-1,1630,1289,0,0
413,-265,0,0,0,0,0,0,0,0,0,-1,1637,1289,0,0
420,-265,0,0,0,0,0,0,0,0,0,-1,1644,1289,0,0
427,-265,0,0,0,0,0,0,0,0,0,-1,1651,1289,0,0
434,-265,0,0,0,0,0,0,0,0,0,-1,1658,1289,0,0
441,-265,0,0,0,0,0,0,0,0,0,-1,1665,1289,0,0
448,-265,0,0,0,0,0,0,0,0,0,-1,1672,1289,0,0
455,-265,0,0,0,0,0,0,0,0,0,-1,1679,1289,0,0
462,-265,0,0,0,0,0,0,0,0,0,-1,1686,1289,0,0
469,-265,0,0,0,0,0,0,0,0,0,-1,1693,1289,0,0
476,-265,0,0,0,0,0,0,0,0,0,-1,1700,1289,0,0
483,-265,0,0,0,0,0,0,0,0,0,-1,1707,1289,0,0
490,-265,0,0,0,0,0,0,0,0,0,-1,1714,1289,0,0
497,-265,0,0,0,0,0,0,0,0,0,-1,1721,1289,0,0
504,-265,0,0,0,0,0,0,0,0,0,-1,1728,1289,0,0
511,-265,0,0,0,0,0,0,0,0,0,-1,1735,1289,0,0
518,-265,0,0,0,0,0,0,0,0,0,-1,1742,1289,0,0
525,-265,0,0,0,0,0,0,0,0,0,-1,1749,1289,0,0
532,-265,0,0,0,0,0,0,0,0,0,-1,1756,1289,0,0
539,-265,0,0,0,0,0,0,0,0,0,-1,1763,1289,0,0
546,-265,0,0,0,0,0,0,0,0,0,-1,1770,1289,0,0
553,-265,0,0,0,0,0,0,0,0,0,-1,1777,1289,0,0
560,-265,0,0,0,0,0,0,0,0,0,-1,1784,1289,0,0
567,-265,0,0,0,0,0,0,0,0,0,-1,1791,1289,0,0
574,-265,0,0,0,0,0,0,0,0,0,-1,1798,1289,0,0
581,-265,0,0,0,0,0,0,0,0,0,-1,1805,1289,0,0
588,-265,0,0,0,0,0,0,0,0,0,-1,1812,1289,0,0
595,-265,0,0,0,0,0,0,0,0,0,-1,1819,1289,0,0
602,-265,28.9385,2.64905,0.00547552,0.0231252,-0.0189135,0.0351714,-0.00657064,-1.00368,0.0259169,0.0265641,1826,1289,28.9385,-2.64903
609,-265,29.0062,2.59814,-0.0065638,0.0284149,-0.0119212,0.0320914,-0.0102403,-1.27165,0.0255025,0.0284553,1833,1289,29.0062,-2.59816
616,-265,28.9821,2.61316,-0.0168137,0.0301202,-0.00453157,0.0305538,-0.0172472,-1.47542,0.0279521,0.0337385,1840,1289,28.982,-2.61313
623,-265,29.0099,2.47021,-0.0243969,0.0295655,0.00192823,0.0296343,-0.0244657,1.53512,0.0312821,0.0453923,1847,1289,29.0099,-2.47024
630,-265,28.8252,2.24939,-0.0280319,0.02689,0.00648561,0.0276455,-0.0287874,1.45483,0.0325838,0.0466187,1854,1289,28.8251,-2.24939
637,-265,27.8069,1.59668,-0.0277432,0.0232042,0.0086409,0.0246298,-0.0291688,1.40728,0.0310975,0.0451819,1861,1289,27.8069,-1.59673
644,-265,27.7369,1.62146,-0.0256235,0.0193746,0.00929283,0.0212182,-0.0274671,1.37495,0.0281856,0.0439273,1868,1289,27.7369,-1.62148
651,-265,27.7135,1.71265,0,0,0,0,0,0,0,-1,1875,1289,27.7135,-1.71262
658,-265,26.1385,3.27917,0,0,0,0,0,0,0,-1,1882,1289,26.1385,-3.27922
665,-265,25.0533,3.27246,0,0,0,0,0,0,0,-1,1889,1289,25.0534,-3.27242
672,-265,20.0045,6.62671,0,0,0,0,0,0,0,-1,1896,1289,20.0045,-6.62668
679,-265,22.3533,7.03101,0,0,0,0,0,0,0,-1,1903,1289,22.3533,-7.03104
686,-265,22.4194,6.73816,-0.00828958,0.00272044,0.00604994,0.00539509,-0.0109642,1.15453,0.00962576,0.0217773,1910,1289,22.4194,-6.73822
693,-265,22.458,6.46094,-0.00471423,0.000787946,0.0043347,0.00317087,-0.00709715,1.06816,0.00607099,0.0103121,1917,1289,22.458,-6.46097
700,-265,22.446,6.1958,-0.00249983,-0.000595853,0.00219209,0.000842045,-0.00393773,0.990251,0.00294622,0.0108723,1924,1289,22.446,-6.19579
707,-265,22.4528,5.93372,-0.00077898,-0.000497106,0.000930512,0.000303082,-0.00157917,0.860558,0.001167,0.00998018,1931,1289,22.4527,-5.93369
714,-265,22.4401,5.68359,0.00113019,0.000343305,0.000323278,0.00124597,0.000227526,0.343907,0.000766149,0.00956981,1938,1289,22.44,-5.68364
721,-265,22.4249,5.43896,0.00286426,0.000855396,-0.000219006,0.00288786,0.000831797,-0.10734,0.00171652,0.00986093,1945,1289,22.4249,-5.43902
728,-265,22.4186,5.19751,0.00431233,0.00151546,-0.000719381,0.00448652,0.00134127,-0.237557,0.00265917,0.0121994,1952,1289,22.4186,-5.19754
735,-265,22.4343,4.9447,0.00608334,0.00230111,-0.0013029,0.00648872,0.00189574,-0.301638,0.00385264,0.0153892,1959,1289,22.4343,-4.94469
742,-265,22.4739,4.68103,0.0085523,0.00311202,-0.00213752,0.00929166,0.00237265,-0.333015,0.00557449,0.0199902,1966,1289,22.4739,-4.68103
749,-265,22.5599,4.38098,0.012071,0.00398698,-0.00336255,0.0132868,0.00277118,-0.346945,0.00809386,0.0435397,1973,1289,22.5599,-4.38098
756,-265,23.072,4.14941,0.0167953,0.00496545,-0.0051434,0.0187188,0.00304196,-0.357871,0.011599,0.045179,1980,1289,23.072,-4.14945
763,-265,23.9409,3.849,0,0,0,0,0,0,0,-1,1987,1289,23.9409,-3.84897
770,-265,22.0446,3.71472,0,0,0,0,0,0,0,-1,1994,1289,22.0445,-3.71476
777,-265,21.4039,5.01367,0,0,0,0,0,0,0,-1,2001,1289,21.404,-5.01371
784,-265,0,0,0,0,0,0,0,0,0,-1,2008,1289,0,0
791,-265,0,0,0,0,0,0,0,0,0,-1,2015,1289,0,0
798,-265,0,0,0,0,0,0,0,0,0,-1,2022,1289,0,0
805,-265,0,0,0,0,0,0,0,0,0,-1,2029,1289,0,0
812,-265,0,0,0,0,0,0,0,0,0,-1,2036,1289,0,0
-700,-272,0,0,0,0,0,0,0,0,0,-1,524,1296,0,0
-693,-272,0,0,0,0,0,0,0,0,0,-1,531,1296,0,0
-686,-272,0,0,0,0,0,0,0,0,0,-1,538,1296,0,0
-679,-272,0,0,0,0,0,0,0,0,0,-1,545,1296,0,0
-672,-272,0,0,0,0,0,0,0,0,0,-1,552,1296,0,0
-665,-272,0,0,0,0,0,0,0,0,0,-1,559,1296,0,0
-658,-272,-9.84241,4.88525,0,0,0,0,0,0,0,-1,566,1296,-9.84238,-4.88525
-651,-272,-14.2095,0.324951,0,0,0,0,0,0,0,-1,573,1296,-14.2095,-0.324921
-644,-272,-13.615,1.09766,0.146636,-0.0167924,0.0012229,0.146645,-0.0168015,0.00748225,0.103818,0.0484826,580,1296,-13.615,-1.09768
-637,-272,-13.2073,1.62085,0.124206,-0.0104099,-0.000853019,0.124211,-0.0104153,-0.00633635,0.0864886,0.0489229,587,1296,-13.2073,-1.62082
-630,-272,-12.4193,1.27722,0,0,0,0,0,0,0,-1,594,1296,-12.4192,-1.27727
-623,-272,-12.259,1.59375,0,0,0,0,0,0,0,-1,601,1296,-12.259,-1.5937
-616,-272,-12.3796,2.02844,0.0584588,0.000657328,-0.00357802,0.0586794,0.000436684,-0.0615886,0.0389749,0.036721,608,1296,-12.3796,-2.02849
-609,-272,-12.501,2.38281,0.040364,0.00208133,-0.00336322,0.0406572,0.00178811,-0.0869647,0.0265288,0.0211595,615,1296,-12.501,-2.38287
-602,-272,-12.541,2.56287,0.026232,0.0020039,-0.00222164,0.026434,0.00180187,-0.0906894,0.0170538,0.0136853,622,1296,-12.5409,-2.56291
-595,-272,-12.5278,2.85889,0.0161366,0.00219707,-0.00153571,0.0163038,0.00202989,-0.108436,0.0102597,0.0112279,629,1296,-12.5277,-2.85893
-588,-272,-12.5152,3.15588,0.00735653,0.000476652,0.000322666,0.00737163,0.000461552,0.0467632,0.00476802,0.00983173,636,1296,-12.5152,-3.15593
-581,-272,-12.547,3.45166,0.00200381,0.000984484,0.000707934,0.00236646,0.000621837,0.473409,0.00141661,0.00922498,643,1296,-12.547,-3.45166
-574,-272,-12.5734,3.74902,0.00250306,0.000671488,0.00100505,0.00294698,0.000227572,0.415918,0.00189336,0.0142188,650,1296,-12.5734,-3.74907
-567,-272,-12.5855,4.03638,0.00288887,0.000433262,0.0012897,0.00344174,-0.000119613,0.404989,0.00233539,0.0207955,657,1296,-12.5855,-4.03636
-560,-272,-12.5973,4.36267,0.0029204,0.000295393,0.00143214,0.0035505,-0.000334701,0.414479,0.00248609,0.0203054,664,1296,-12.5973,-4.36272
-553,-272,-12.531,4.66638,0.00232733,0.000297387,0.00129221,0.00295552,-0.000330797,0.452493,0.00208936,0.0155676,671,1296,-12.531,-4.66637
-546,-272,-12.4463,5.02356,0.00103011,0.000367431,0.000778193,0.00154456,-0.000147025,0.584133,0.00108205,0.0248472,678,1296,-12.4463,-5.02354
-539,-272,-12.3739,5.28674,0,0,0,0,0,0,0,-1,685,1296,-12.3739,-5.28678
-532,-272,-10.5572,4.53943,0,0,0,0,0,0,0,-1,692,1296,-10.5572,-4.53943
-525,-272,-11.9599,0.0393066,0,0,0,0,0,0,0,-1,699,1296,-11.9599,-0.0393577
-518,-272,-18.3687,-0.643799,0,0,0,0,0,0,0,-1,706,1296,-18.3687,0.643849
-511,-272,-17.3409,-0.513916,0,0,0,0,0,0,0,-1,713,1296,-17.3409,0.513948
-504,-272,-16.313,-0.384033,0,0,0,0,0,0,0,-1,720,1296,-16.313,0.384047
-497,-272,-19.2225,1.71301,0,0,0,0,0,0,0,-1,727,1296,-19.2225,-1.71302
-490,-272,-20.1948,2.4032,0,0,0,0,0,0,0,-1,734,1296,-20.1948,-2.40322
-483,-272,-15.3736,0.792603,0,0,0,0,0,0,0,-1,741,1296,-15.3736,-0.79263
-476,-272,0,0,0,0,0,0,0,0,0,-1,748,1296,0,0
-469,-272,0,0,0,0,0,0,0,0,0,-1,755,1296,0,0
-462,-272,0,0,0,0,0,0,0,0,0,-1,762,1296,0,0
-455,-272,0,0,0,0,0,0,0,0,0,-1,769,1296,0,0
-448,-272,0,0,0,0,0,0,0,0,0,-1,776,1296,0,0
-441,-272,0,0,0,0,0,0,0,0,0,-1,783,1296,0,0
-434,-272,0,0,0,0,0,0,0,0,0,-1,790,1296,0,0
-427,-272,0,0,0,0,0,0,0,0,0,-1,797,1296,0,0
-420,-272,0,0,0,0,0,0,0,0,0,-1,804,1296,0,0
-413,-272,0,0,0,0,0,0,0,0,0,-1,811,1296,0,0
-406,-272,0,0,0,0,0,0,0,0,0,-1,818,1296,0,0
-399,-272,0,0,0,0,0,0,0,0,0,-1,825,1296,0,0
-392,-272,0,0,0,0,0,0,0,0,0,-1,832,1296,0,0
-385,-272,0,0,0,0,0,0,0,0,0,-1,839,1296,0,0
-378,-272,0,0,0,0,0,0,0,0,0,-1,846,1296,0,0
-371,-272,0,0,0,0,0,0,0,0,0,-1,853,1296,0,0
-364,-272,0,0,0,0,0,0,0,0,0,-1,860,1296,0,0
-357,-272,0,0,0,0,0,0,0,0,0,-1,867,1296,0,0
-350,-272,0,0,0,0,0,0,0,0,0,-1,874,1296,0,0
-343,-272,0,0,0,0,0,0,0,0,0,-1,881,1296,0,0
-336,-272,0,0,0,0,0,0,0,0,0,-1,888,1296,0,0
-329,-272,0,0,0,0,0,0,0,0,0,-1,895,1296,0,0
-322,-272,0,0,0,0,0,0,0,0,0,-1,902,1296,0,0
-315,-272,0,0,0,0,0,0,0,0,0,-1,909,1296,0,0
-308,-272,0,0,0,0,0,0,0,0,0,-1,916,1296,0,0
-301,-272,0,0,0,0,0,0,0,0,0,-1,923,1296,0,0
-294,-272,0,0,0,0,0,0,0,0,0,-1,930,1296,0,0
-287,-272,0,0,0,0,0,0,0,0,0,-1,937,1296,0,0
-280,-272,0,0,0,0,0,0,0,0,0,-1,944,1296,0,0
-273,-272,0,0,0,0,0,0,0,0,0,-1,951,1296,0,0
-266,-272,0,0,0,0,0,0,0,0,0,-1,958,1296,0,0
-259,-272,0,0,0,0,0,0,0,0,0,-1,965,1296,0,0
-252,-272,0,0,0,0,0,0,0,0,0,-1,972,1296,0,0
-245,-272,0,0,0,0,0,0,0,0,0,-1,979,1296,0,0
-238,-272,0,0,0,0,0,0,0,0,0,-1,986,1296,0,0
-231,-272,0,0,0,0,0,0,0,0,0,-1,993,1296,0,0
-224,-272,0,0,0,0,0,0,0,0,0,-1,1000,1296,0,0
-217,-272,0,0,0,0,0,0,0,0,0,-1,1007,1296,0,0
-210,-272,0,0,0,0,0,0,0,0,0,-1,1014,1296,0,0
-203,-272,0,0,0,0,0,0,0,0,0,-1,1021,1296,0,0
-196,-272,0,0,0,0,0,0,0,0,0,-1,1028,1296,0,0
-189,-272,0,0,0,0,0,0,0,0,0,-1,1035,1296,0,0
-182,-272,0,0,0,0,0,0,0,0,0,-1,1042,1296,0,0
-175,-272,0,0,0,0,0,0,0,0,0,-1,1049,1296,0,0
-168,-272,0,0,0,0,0,0,0,0,0,-1,1056,1296,0,0
-161,-272,0,0,0,0,0,0,0,0,0,-1,1063,1296,0,0
-154,-272,0,0,0,0,0,0,0,0,0,-1,1070,1296,0,0
-147,-272,0,0,0,0,0,0,0,0,0,-1,1077,1296,0,0
-140,-272,0,0,0,0,0,0,0,0,0,-1,1084,1296,0,0
-133,-272,0,0,0,0,0,0,0,0,0,-1,1091,1296,0,0
-126,-272,0,0,0,0,0,0,0,0,0,-1,1098,1296,0,0
-119,-272,0,0,0,0,0,0,0,0,0,-1,1105,1296,0,0
-112,-272,0,0,0,0,0,0,0,0,0,-1,1112,1296,0,0
-105,-272,0,0,0,0,0,0,0,0,0,-1,1119,1296,0,0
-98,-272,0,0,0,0,0,0,0,0,0,-1,1126,1296,0,0
-91,-272,0,0,0,0,0,0,0,0,0,-1,1133,1296,0,0
-84,-272,0,0,0,0,0,0,0,0,0,-1,1140,1296,0,0
-77,-272,0,0,0,0,0,0,0,0,0,-1,1147,1296,0,0
-70,-272,0,0,0,0,0,0,0,0,0,-1,1154,1296,0,0
-63,-272,0,0,0,0,0,0,0,0,0,-1,1161,1296,0,0
-56,-272,0,0,0,0,0,0,0,0,0,-1,1168,1296,0,0
-49,-272,0,0,0,0,0,0,0,0,0,-1,1175,1296,0,0
-42,-272,0,0,0,0,0,0,0,0,0,-1,1182,1296,0,0
-35,-272,0,0,0,0,0,0,0,0,0,-1,1189,1296,0,0
-28,-272,0,0,0,0,0,0,0,0,0,-1,1196,1296,0,0
-21,-272,0,0,0,0,0,0,0,0,0,-1,1203,1296,0,0
-14,-272,0,0,0,0,0,0,0,0,0,-1,1210,1296,0,0
-7,-272,0,0,0,0,0,0,0,0,0,-1,1217,1296,0,0
0,-272,0,0,0,0,0,0,0,0,0,-1,1224,1296,0,0
7,-272,0,0,0,0,0,0,0,0,0,-1,1231,1296,0,0
14,-272,0,0,0,0,0,0,0,0,0,-1,1238,1296,0,0
21,-272,0,0,0,0,0,0,0,0,0,-1,1245,1296,0,0
28,-272,0,0,0,0,0,0,0,0,0,-1,1252,1296,0,0
35,-272,0,0,0,0,0,0,0,0,0,-1,1259,1296,0,0
42,-272,0,0,0,0,0,0,0,0,0,-1,1266,1296,0,0
49,-272,0,0,0,0,0,0,0,0,0,-1,1273,1296,0,0
56,-272,0,0,0,0,0,0,0,0,0,-1,1280,1296,0,0
63,-272,0,0,0,0,0,0,0,0,0,-1,1287,1296,0,0
70,-272,0,0,0,0,0,0,0,0,0,-1,1294,1296,0,0
77,-272,0,0,0,0,0,0,0,0,0,-1,1301,1296,0,0
84,-272,0,0,0,0,0,0,0,0,0,-1,1308,1296,0,0
91,-272,0,0,0,0,0,0,0,0,0,-1,1315,1296,0,0
98,-272,0,0,0,0,0,0,0,0,0,-1,1322,1296,0,0
105,-272,0,0,0,0,0,0,0,0,0,-1,1329,1296,0,0
112,-272,0,0,0,0,0,0,0,0,0,-1,1336,1296,0,0
119,-272,0,0,0,0,0,0,0,0,0,-1,1343,1296,0,0
126,-272,0,0,0,0,0,0,0,0,0,-1,1350,1296,0,0
133,-272,0,0,0,0,0,0,0,0,0,-1,1357,1296,0,0
140,-272,0,0,0,0,0,0,0,0,0,-1,1364,1296,0,0
147,-272,0,0,0,0,0,0,0,0,0,-1,1371,1296,0,0
154,-272,0,0,0,0,0,0,0,0,0,-1,1378,1296,0,0
161,-272,0,0,0,0,0,0,0,0,0,-1,1385,1296,0,0
168,-272,0,0,0,0,0,0,0,0,0,-1,1392,1296,0,0
175,-272,0,0,0,0,0,0,0,0,0,-1,1399,1296,0,0
182,-272,0,0,0,0,0,0,0,0,0,-1,1406,1296,0,0
189,-272,0,0,0,0,0,0,0,0,0,-1,1413,1296,0,0
196,-272,0,0,0,0,0,0,0,0,0,-1,1420,1296,0,0
203,-272,0,0,0,0,0,0,0,0,0,-1,1427,1296,0,0
210,-272,0,0,0,0,0,0,0,0,0,-1,1434,1296,0,0
217,-272,0,0,0,0,0,0,0,0,0,-1,1441,1296,0,0
224,-272,0,0,0,0,0,0,0,0,0,-1,1448,1296,0,0
231,-272,0,0,0,0,0,0,0,0,0,-1,1455,1296,0,0
238,-272,0,0,0,0,0,0,0,0,0,-1,1462,1296,0,0
245,-272,0,0,0,0,0,0,0,0,0,-1,1469,1296,0,0
252,-272,0,0,0,0,0,0,0,0,0,-1,1476,1296,0,0
259,-272,0,0,0,0,0,0,0,0,0,-1,1483,1296,0,0
266,-272,0,0,0,0,0,0,0,0,0,-1,1490,1296,0,0
273,-272,0,0,0,0,0,0,0,0,0,-1,1497,1296,0,0
280,-272,0,0,0,0,0,0,0,0,0,-1,1504,1296,0,0
287,-272,0,0,0,0,0,0,0,0,0,-1,1511,1296,0,0
294,-272,0,0,0,0,0,0,0,0,0,-1,1518,1296,0,0
301,-272,0,0,0,0,0,0,0,0,0,-1,1525,1296,0,0
308,-272,0,0,0,0,0,0,0,0,0,-1,1532,1296,0,0
315,-272,0,0,0,0,0,0,0,0,0,-1,1539,1296,0,0
322,-272,0,0,0,0,0,0,0,0,0,-1,1546,1296,0,0
329,-272,0,0,0,0,0,0,0,0,0,-1,1553,1296,0,0
336,-272,0,0,0,0,0,0,0,0,0,-1,1560,1296,0,0
343,-272,0,0,0,0,0,0,0,0,0,-1,1567,1296,0,0
350,-272,0,0,0,0,0,0,0,0,0,-1,1574,1296,0,0
357,-272,0,0,0,0,0,0,0,0,0,-1,1581,1296,0,0
364,-272,0,0,0,0,0,0,0,0,0,-1,1588,1296,0,0
371,-272,0,0,0,0,0,0,0,0,0,-1,1595,1296,0,0
378,-272,0,0,0,0,0,0,0,0,0,-1,1602,1296,0,0
385,-272,0,0,0,0,0,0,0,0,0,-1,1609,1296,0,0
392,-272,0,0,0,0,0,0,0,0,0,-1,1616,1296,0,0
399,-272,0,0,0,0,0,0,0,0,0,-1,1623,1296,0,0
406,-272,0,0,0,0,0,0,0,0,0,-1,1630,1296,0,0
413,-272,0,0,0,0,0,0,0,0,0,-1,1637,1296,0,0
420,-272,0,0,0,0,0,0,0,0,0,-1,1644,1296,0,0
427,-272,0,0,0,0,0,0,0,0,0,-1,1651,1296,0,0
434,-272,0,0,0,0,0,0,0,0,0,-1,1658,1296,0,0
441,-272,0,0,0,0,0,0,0,0,0,-1,1665,1296,0,0
448,-272,0,0,0,0,0,0,0,0,0,-1,1672,1296,0,0
455,-272,0,0,0,0,0,0,0,0,0,-1,1679,1296,0,0
462,-272,0,0,0,0,0,0,0,0,0,-1,1686,1296,0,0
469,-272,0,0,0,0,0,0,0,0,0,-1,1693,1296,0,0
476,-272,0,0,0,0,0,0,0,0,0,-1,1700,1296,0,0
483,-272,0,0,0,0,0,0,0,0,0,-1,1707,1296,0,0
490,-272,0,0,0,0,0,0,0,0,0,-1,1714,1296,0,0
497,-272,0,0,0,0,0,0,0,0,0,-1,1721,1296,0,0
504,-272,0,0,0,0,0,0,0,0,0,-1,1728,1296,0,0
511,-272,0,0,0,0,0,0,0,0,0,-1,1735,1296,0,0
518,-272,0,0,0,0,0,0,0,0,0,-1,1742,1296,0,0
525,-272,0,0,0,0,0,0,0,0,0,-1,1749,1296,0,0
532,-272,0,0,0,0,0,0,0,0,0,-1,1756,1296,0,0
539,-272,0,0,0,0,0,0,0,0,0,-1,1763,1296,0,0
546,-272,0,0,0,0,0,0,0,0,0,-1,1770,1296,0,0
553,-272,0,0,0,0,0,0,0,0,0,-1,1777,1296,0,0
560,-272,0,0,0,0,0,0,0,0,0,-1,1784,1296,0,0
567,-272,0,0,0,0,0,0,0,0,0,-1,1791,1296,0,0
574,-272,0,0,0,0,0,0,0,0,0,-1,1798,1296,0,0
581,-272,0,0,0,0,0,0,0,0,0,-1,1805,1296,0,0
588,-272,0,0,0,0,0,0,0,0,0,-1,1812,1296,0,0
595,-272,0,0,0,0,0,0,0,0,0,-1,1819,1296,0,0
602,-272,28.9106,2.59412,0.00045005,0.0343824,-0.0191315,0.042987,-0.00815455,-1.14814,0.0317275,0.0309354,1826,1296,28.9106,-2.59417
609,-272,28.947,2.52527,-0.0121469,0.0380074,-0.0115146,0.0405246,-0.0146641,-1.35557,0.0330087,0.0374289,1833,1296,28.947,-2.52531
616,-272,28.88,2.38098,-0.0220234,0.0372263,-0.00377745,0.0374661,-0.0222633,-1.50738,0.0348551,0.0421719,1840,1296,28.88,-2.38096
623,-272,28.8706,2.33008,-0.0283808,0.0342011,0.00255714,0.0343054,-0.0284851,1.53003,0.036304,0.0443928,1847,1296,28.8706,-2.33009
630,-272,28.7662,2.42749,-0.030695,0.0296217,0.0067061,0.0303583,-0.0314316,1.46139,0.0356762,0.0452526,1854,1296,28.7663,-2.42744
637,-272,27.3944,1.50476,-0.0297318,0.024918,0.00865857,0.0262571,-0.0310708,1.41736,0.0331371,0.0482464,1861,1296,27.3944,-1.50473
644,-272,27.4048,1.24011,0,0,0,0,0,0,0,-1,1868,1296,27.4048,-1.2401
651,-272,26.7401,2.297,0,0,0,0,0,0,0,-1,1875,1296,26.7402,-2.29697
658,-272,25.1674,2.55176,0,0,0,0,0,0,0,-1,1882,1296,25.1674,-2.5517
665,-272,22.0238,4.14417,0,0,0,0,0,0,0,-1,1889,1296,22.0238,-4.14421
672,-272,21.7565,6.77686,0,0,0,0,0,0,0,-1,1896,1296,21.7565,-6.7769
679,-272,22.1165,6.85742,-0.0139398,0.00485876,0.00790793,0.00774288,-0.0168239,1.22108,0.014503,0.0440205,1903,1296,22.1165,-6.85739
686,-272,22.1924,6.74792,-0.00899515,0.00203503,0.00616502,0.00479181,-0.0117519,1.1503,0.00982926,0.0154794,1910,1296,22.1924,-6.74792
693,-272,22.2017,6.47729,-0.0051477,0.000197144,0.00424367,0.00253976,-0.00749032,1.0664,0.0060214,0.0113354,1917,1296,22.2017,-6.47725
700,-272,22.1888,6.20447,-0.00275432,-0.000954127,0.00205834,0.000392314,-0.00410076,0.991516,0.00287355,0.010867,1924,1296,22.1889,-6.20441
707,-272,22.1948,5.94629,-0.000902277,-0.000583095,0.000886854,0.000158413,-0.00164379,0.874421,0.0011523,0.0104197,1931,1296,22.1948,-5.94632
714,-272,22.1857,5.69348,0.0010429,0.000426757,0.00026431,0.00114075,0.000328913,0.354545,0.000677997,0.0107543,1938,1296,22.1857,-5.69345
721,-272,22.1689,5.44653,0.00273276,0.00103541,-0.000256815,0.00277077,0.000997407,-0.146923,0.00162048,0.0122695,1945,1296,22.1689,-5.44652
728,-272,22.1721,5.18091,0.00423716,0.00175737,-0.000763145,0.0044532,0.00154133,-0.275866,0.00261133,0.0136475,1952,1296,22.1721,-5.1809
735,-272,22.201,4.92725,0.00612968,0.00258409,-0.00143577,0.00663816,0.00207561,-0.340371,0.00392117,0.0131981,1959,1296,22.201,-4.92722
742,-272,22.1361,4.58838,0.00886297,0.00349917,-0.00243498,0.00980346,0.00255868,-0.36859,0.00587162,0.025673,1966,1296,22.1362,-4.58838
749,-272,22.2518,4.23193,0.012797,0.00452378,-0.003941,0.0143738,0.00294699,-0.380592,0.00876691,0.0483387,1973,1296,22.2519,-4.23187
756,-272,22.55,3.94604,0,0,0,0,0,0,0,-1,1980,1296,22.5501,-3.94599
763,-272,21.7705,4.10876,0,0,0,0,0,0,0,-1,1987,1296,21.7705,-4.10874
770,-272,21.3555,4.46741,0,0,0,0,0,0,0,-1,1994,1296,21.3554,-4.46741
777,-272,21.6844,4.51648,0,0,0,0,0,0,0,-1,2001,1296,21.6844,-4.51649
784,-272,0,0,0,0,0,0,0,0,0,-1,2008,1296,0,0
791,-272,0,0,0,0,0,0,0,0,0,-1,2015,1296,0,0
798,-272,0,0,0,0,0,0,0,0,0,-1,2022,1296,0,0
805,-272,0,0,0,0,0,0,0,0,0,-1,2029,1296,0,0
812,-272,0,0,0,0,0,0,0,0,0,-1,2036,1296,0,0
-700,-279,0,0,0,0,0,0,0,0,0,-1,524,1303,0,0
-693,-279,0,0,0,0,0,0,0,0,0,-1,531,1303,0,0
-686,-279,0,0,0,0,0,0,0,0,0,-1,538,1303,0,0
-679,-279,0,0,0,0,0,0,0,0,0,-1,545,1303,0,0
-672,-279,0,0,0,0,0,0,0,0,0,-1,552,1303,0,0
-665,-279,0,0,0,0,0,0,0,0,0,-1,559,1303,0,0
-658,-279,-10.4498,3.26331,0,0,0,0,0,0,0,-1,566,1303,-10.4499,-3.26331
-651,-279,-14.6314,1.07971,0,0,0,0,0,0,0,-1,573,1303,-14.6314,-1.0797
-644,-279,-13.9363,1.80115,0,0,0,0,0,0,0,-1,580,1303,-13.9363,-1.80112
-637,-279,-13.1563,1.9613,0,0,0,0,0,0,0,-1,587,1303,-13.1563,-1.96132
-630,-279,-11.0365,2.64819,0,0,0,0,0,0,0,-1,594,1303,-11.0365,-2.64817
-623,-279,-12.7756,2.24329,0,0,0,0,0,0,0,-1,601,1303,-12.7756,-2.24334
-616,-279,-12.647,2.14941,0.0581493,0.000501515,-0.00364374,0.0583787,0.000272116,-0.0628735,0.0388287,0.0413862,608,1303,-12.6469,-2.14939
-609,-279,-12.4084,2.25842,0.0393378,0.00184708,-0.00334039,0.0396331,0.00155178,-0.0881736,0.0259203,0.0337683,615,1303,-12.4084,-2.25841
-602,-279,-12.2069,2.5741,0.0251249,0.00176813,-0.00220816,0.0253318,0.0015612,-0.0934371,0.0163923,0.0127029,622,1303,-12.2069,-2.57404
-595,-279,-12.2153,2.86328,0.0151192,0.00196014,-0.00157991,0.0153062,0.00177311,-0.117832,0.00966746,0.00992587,629,1303,-12.2153,-2.86325
-588,-279,-12.203,3.16296,0.0065454,0.00038438,0.000140427,0.00654859,0.000381181,0.022777,0.00424438,0.0101936,636,1303,-12.203,-3.16298
-581,-279,-12.2401,3.44409,0.00128319,0.00097006,0.00041037,0.00156584,0.000687401,0.603163,0.000906281,0.0109898,643,1303,-12.24,-3.44415
-574,-279,-12.261,3.73083,0.0017556,0.000624143,0.000645641,0.0020483,0.000331443,0.425636,0.00126956,0.0109902,650,1303,-12.261,-3.73084
-567,-279,-12.2532,4.03345,0.00216473,0.000335324,0.000894571,0.00252946,-2.94013e-05,0.387135,0.00169619,0.0148783,657,1303,-12.2532,-4.03343
-560,-279,-12.2504,4.3656,0.00236116,0.0001696,0.00100136,0.00274978,-0.000219026,0.370203,0.00191039,0.0154326,664,1303,-12.2504,-4.36564
-553,-279,-12.2559,4.68994,0.00211005,0.000128334,0.000914677,0.00246769,-0.0002293,0.37272,0.00172664,0.0113591,671,1303,-12.2559,-4.68994
-546,-279,-12.2547,4.9989,0.00118031,0.000146442,0.000496537,0.00138015,-5.34015e-05,0.382638,0.000938409,0.0151726,678,1303,-12.2547,-4.99892
-539,-279,-12.202,5.33032,-0.000277994,6.31538e-05,-0.000220854,0.000171636,-0.000386476,-1.11422,0.000330088,0.0470665,685,1303,-12.202,-5.33027
-532,-279,-12.1152,5.66443,0,0,0,0,0,0,0,-1,692,1303,-12.1153,-5.66442
-525,-279,-11.7063,-0.539185,0,0,0,0,0,0,0,-1,699,1303,-11.7063,0.539166
-518,-279,-16.8138,1.11963,0,0,0,0,0,0,0,-1,706,1303,-16.8138,-1.11968
-511,-279,-17.1615,-0.527344,0,0,0,0,0,0,0,-1,713,1303,-17.1615,0.527398
-504,-279,-18.3766,1.04578,0,0,0,0,0,0,0,-1,720,1303,-18.3767,-1.04577
-497,-279,-19.0046,2.08911,0,0,0,0,0,0,0,-1,727,1303,-19.0046,-2.08905
-490,-279,-20.0176,2.55188,0,0,0,0,0,0,0,-1,734,1303,-20.0176,-2.55183
-483,-279,-20.8064,2.99792,0,0,0,0,0,0,0,-1,741,1303,-20.8064,-2.99797
-476,-279,0,0,0,0,0,0,0,0,0,-1,748,1303,0,0
-469,-279,0,0,0,0,0,0,0,0,0,-1,755,1303,0,0
-462,-279,0,0,0,0,0,0,0,0,0,-1,762,1303,0,0
-455,-279,0,0,0,0,0,0,0,0,0,-1,769,1303,0,0
-448,-279,0,0,0,0,0,0,0,0,0,-1,776,1303,0,0
-441,-279,0,0,0,0,0,0,0,0,0,-1,783,1303,0,0
-434,-279,0,0,0,0,0,0,0,0,0,-1,790,1303,0,0
-427,-279,0,0,0,0,0,0,0,0,0,-1,797,1303,0,0
-420,-279,0,0,0,0,0,0,0,0,0,-1,804,1303,0,0
-413,-279,0,0,0,0,0,0,0,0,0,-1,811,1303,0,0
-406,-279,0,0,0,0,0,0,0,0,0,-1,818,1303,0,0
-399,-279,0,0,0,0,0,0,0,0,0,-1,825,1303,0,0
-392,-279,0,0,0,0,0,0,0,0,0,-1,832,1303,0,0
-385,-279,0,0,0,0,0,0,0,0,0,-1,839,1303,0,0
-378,-279,0,0,0,0,0,0,0,0,0,-1,846,1303,0,0
-371,-279,0,0,0,0,0,0,0,0,0,-1,853,1303,0,0
-364,-279,0,0,0,0,0,0,0,0,0,-1,860,1303,0,0
-357,-279,0,0,0,0,0,0,0,0,0,-1,867,1303,0,0
-350,-279,0,0,0,0,0,0,0,0,0,-1,874,1303,0,0
-343,-279,0,0,0,0,0,0,0,0,0,-1,881,1303,0,0
-336,-279,0,0,0,0,0,0,0,0,0,-1,888,1303,0,0
-329,-279,0,0,0,0,0,0,0,0,0,-1,895,1303,0,0
-322,-279,0,0,0,0,0,0,0,0,0,-1,902,1303,0,0
-315,-279,0,0,0,0,0,0,0,0,0,-1,909,1303,0,0
-308,-279,0,0,0,0,0,0,0,0,0,-1,916,1303,0,0
-301,-279,0,0,0,0,0,0,0,0,0,-1,923,1303,0,0
-294,-279,0,0,0,0,0,0,0,0,0,-1,930,1303,0,0
-287,-279,0,0,0,0,0,0,0,0,0,-1,937,1303,0,0
-280,-279,0,0,0,0,0,0,0,0,0,-1,944,1303,0,0
-273,-279,0,0,0,0,0,0,0,0,0,-1,951,1303,0,0
-266,-279,0,0,0,0,0,0,0,0,0,-1,958,1303,0,0
-259,-279,0,0,0,0,0,0,0,0,0,-1,965,1303,0,0
-252,-279,0,0,0,0,0,0,0,0,0,-1,972,1303,0,0
-245,-279,0,0,0,0,0,0,0,0,0,-1,979,1303,0,0
-238,-279,0,0,0,0,0,0,0,0,0,-1,986,1303,0,0
-231,-279,0,0,0,0,0,0,0,0,0,-1,993,1303,0,0
-224,-279,0,0,0,0,0,0,0,0,0,-1,1000,1303,0,0
-217,-279,0,0,0,0,0,0,0,0,0,-1,1007,1303,0,0
-210,-279,0,0,0,0,0,0,0,0,0,-1,1014,1303,0,0
-203,-279,0,0,0,0,0,0,0,0,0,-1,1021,1303,0,0
-196,-279,0,0,0,0,0,0,0,0,0,-1,1028,1303,0,0
-189,-279,0,0,0,0,0,0,0,0,0,-1,1035,1303,0,0
-182,-279,0,0,0,0,0,0,0,0,0,-1,1042,1303,0,0
-175,-279,0,0,0,0,0,0,0,0,0,-1,1049,1303,0,0
-168,-279,0,0,0,0,0,0,0,0,0,-1,1056,1303,0,0
-161,-279,0,0,0,0,0,0,0,0,0,-1,1063,1303,0,0
-154,-279,0,0,0,0,0,0,0,0,0,-1,1070,1303,0,0
-147,-279,0,0,0,0,0,0,0,0,0,-1,1077,1303,0,0
-140,-279,0,0,0,0,0,0,0,0,0,-1,1084,1303,0,0
-133,-279,0,0,0,0,0,0,0,0,0,-1,1091,1303,0,0
-126,-279,0,0,0,0,0,0,0,0,0,-1,1098,1303,0,0
-119,-279,0,0,0,0,0,0,0,0,0,-1,1105,1303,0,0
-112,-279,0,0,0,0,0,0,0,0,0,-1,1112,1303,0,0
-105,-279,0,0,0,0,0,0,0,0,0,-1,1119,1303,0,0
-98,-279,0,0,0,0,0,0,0,0,0,-1,1126,1303,0,0
-91,-279,0,0,0,0,0,0,0,0,0,-1,1133,1303,0,0
-84,-279,0,0,0,0,0,0,0,0,0,-1,1140,1303,0,0
-77,-279,0,0,0,0,0,0,0,0,0,-1,1147,1303,0,0
-70,-279,0,0,0,0,0,0,0,0,0,-1,1154,1303,0,0
-63,-279,0,0,0,0,0,0,0,0,0,-1,1161,1303,0,0
-56,-279,0,0,0,0,0,0,0,0,0,-1,1168,1303,0,0
-49,-279,0,0,0,0,0,0,0,0,0,-1,1175,1303,0,0
-42,-279,0,0,0,0,0,0,0,0,0,-1,1182,1303,0,0
-35,-279,0,0,0,0,0,0,0,0,0,-1,1189,1303,0,0
-28,-279,0,0,0,0,0,0,0,0,0,-1,1196,1303,0,0
-21,-279,0,0,0,0,0,0,0,0,0,-1,1203,1303,0,0
-14,-279,0,0,0,0,0,0,0,0,0,-1,1210,1303,0,0
-7,-279,0,0,0,0,0,0,0,0,0,-1,1217,1303,0,0
0,-279,0,0,0,0,0,0,0,0,0,-1,1224,1303,0,0
7,-279,0,0,0,0,0,0,0,0,0,-1,1231,1303,0,0
14,-279,0,0,0,0,0,0,0,0,0,-1,1238,1303,0,0
21,-279,0,0,0,0,0,0,0,0,0,-1,1245,1303,0,0
28,-279,0,0,0,0,0,0,0,0,0,-1,1252,1303,0,0
35,-279,0,0,0,0,0,0,0,0,0,-1,1259,1303,0,0
42,-279,0,0,0,0,0,0,0,0,0,-1,1266,1303,0,0
49,-279,0,0,0,0,0,0,0,0,0,-1,1273,1303,0,0
56,-279,0,0,0,0,0,0,0,0,0,-1,1280,1303,0,0
63,-279,0,0,0,0,0,0,0,0,0,-1,1287,1303,0,0
70,-279,0,0,0,0,0,0,0,0,0,-1,1294,1303,0,0
77,-279,0,0,0,0,0,0,0,0,0,-1,1301,1303,0,0
84,-279,0,0,0,0,0,0,0,0,0,-1,1308,1303,0,0
91,-279,0,0,0,0,0,0,0,0,0,-1,1315,1303,0,0
98,-279,0,0,0,0,0,0,0,0,0,-1,1322,1303,0,0
105,-279,0,0,0,0,0,0,0,0,0,-1,1329,1303,0,0
112,-279,0,0,0,0,0,0,0,0,0,-1,1336,1303,0,0
119,-279,0,0,0,0,0,0,0,0,0,-1,1343,1303,0,0
126,-279,0,0,0,0,0,0,0,0,0,-1,1350,1303,0,0
133,-279,0,0,0,0,0,0,0,0,0,-1,1357,1303,0,0
140,-279,0,0,0,0,0,0,0,0,0,-1,1364,1303,0,0
147,-279,0,0,0,0,0,0,0,0,0,-1,1371,1303,0,0
154,-279,0,0,0,0,0,0,0,0,0,-1,1378,1303,0,0
161,-279,0,0,0,0,0,0,0,0,0,-1,1385,1303,0,0
168,-279,0,0,0,0,0,0,0,0,0,-1,1392,1303,0,0
175,-279,0,0,0,0,0,0,0,0,0,-1,1399,1303,0,0
182,-279,0,0,0,0,0,0,0,0,0,-1,1406,1303,0,0
189,-279,0,0,0,0,0,0,0,0,0,-1,1413,1303,0,0
196,-279,0,0,0,0,0,0,0,0,0,-1,1420,1303,0,0
203,-279,0,0,0,0,0,0,0,0,0,-1,1427,1303,0,0
210,-279,0,0,0,0,0,0,0,0,0,-1,1434,1303,0,0
217,-279,0,0,0,0,0,0,0,0,0,-1,1441,1303,0,0
224,-279,0,0,0,0,0,0,0,0,0,-1,1448,1303,0,0
231,-279,0,0,0,0,0,0,0,0,0,-1,1455,1303,0,0
238,-279,0,0,0,0,0,0,0,0,0,-1,1462,1303,0,0
245,-279,0,0,0,0,0,0,0,0,0,-1,1469,1303,0,0
252,-279,0,0,0,0,0,0,0,0,0,-1,1476,1303,0,0
259,-279,0,0,0,0,0,0,0,0,0,-1,1483,1303,0,0
266,-279,0,0,0,0,0,0,0,0,0,-1,1490,1303,0,0
273,-279,0,0,0,0,0,0,0,0,0,-1,1497,1303,0,0
280,-279,0,0,0,0,0,0,0,0,0,-1,1504,1303,0,0
287,-279,0,0,0,0,0,0,0,0,0,-1,1511,1303,0,0
294,-279,0,0,0,0,0,0,0,0,0,-1,1518,1303,0,0
301,-279,0,0,0,0,0,0,0,0,0,-1,1525,1303,0,0
308,-279,0,0,0,0,0,0,0,0,0,-1,1532,1303,0,0
315,-279,0,0,0,0,0,0,0,0,0,-1,1539,1303,0,0
322,-279,0,0,0,0,0,0,0,0,0,-1,1546,1303,0,0
329,-279,0,0,0,0,0,0,0,0,0,-1,1553,1303,0,0
336,-279,0,0,0,0,0,0,0,0,0,-1,1560,1303,0,0
343,-279,0,0,0,0,0,0,0,0,0,-1,1567,1303,0,0
350,-279,0,0,0,0,0,0,0,0,0,-1,1574,1303,0,0
357,-279,0,0,0,0,0,0,0,0,0,-1,1581,1303,0,0
364,-279,0,0,0,0,0,0,0,0,0,-1,1588,1303,0,0
371,-279,0,0,0,0,0,0,0,0,0,-1,1595,1303,0,0
378,-279,0,0,0,0,0,0,0,0,0,-1,1602,1303,0,0
385,-279,0,0,0,0,0,0,0,0,0,-1,1609,1303,0,0
392,-279,0,0,0,0,0,0,0,0,0,-1,1616,1303,0,0
399,-279,0,0,0,0,0,0,0,0,0,-1,1623,1303,0,0
406,-279,0,0,0,0,0,0,0,0,0,-1,1630,1303,0,0
413,-279,0,0,0,0,0,0,0,0,0,-1,1637,1303,0,0
420,-279,0,0,0,0,0,0,0,0,0,-1,1644,1303,0,0
427,-279,0,0,0,0,0,0,0,0,0,-1,1651,1303,0,0
434,-279,0,0,0,0,0,0,0,0,0,-1,1658,1303,0,0
441,-279,0,0,0,0,0,0,0,0,0,-1,1665,1303,0,0
448,-279,0,0,0,0,0,0,0,0,0,-1,1672,1303,0,0
455,-279,0,0,0,0,0,0,0,0,0,-1,1679,1303,0,0
462,-279,0,0,0,0,0,0,0,0,0,-1,1686,1303,0,0
469,-279,0,0,0,0,0,0,0,0,0,-1,1693,1303,0,0
476,-279,0,0,0,0,0,0,0,0,0,-1,1700,1303,0,0
483,-279,0,0,0,0,0,0,0,0,0,-1,1707,1303,0,0
490,-279,0,0,0,0,0,0,0,0,0,-1,1714,1303,0,0
497,-279,0,0,0,0,0,0,0,0,0,-1,1721,1303,0,0
504,-279,0,0,0,0,0,0,0,0,0,-1,1728,1303,0,0
511,-279,0,0,0,0,0,0,0,0,0,-1,1735,1303,0,0
518,-279,0,0,0,0,0,0,0,0,0,-1,1742,1303,0,0
525,-279,0,0,0,0,0,0,0,0,0,-1,1749,1303,0,0
532,-279,0,0,0,0,0,0,0,0,0,-1,1756,1303,0,0
539,-279,0,0,0,0,0,0,0,0,0,-1,1763,1303,0,0
546,-279,0,0,0,0,0,0,0,0,0,-1,1770,1303,0,0
553,-279,0,0,0,0,0,0,0,0,0,-1,1777,1303,0,0
560,-279,0,0,0,0,0,0,0,0,0,-1,1784,1303,0,0
567,-279,0,0,0,0,0,0,0,0,0,-1,1791,1303,0,0
574,-279,0,0,0,0,0,0,0,0,0,-1,1798,1303,0,0
581,-279,0,0,0,0,0,0,0,0,0,-1,1805,1303,0,0
588,-279,0,0,0,0,0,0,0,0,0,-1,1812,1303,0,0
595,-279,0,0,0,0,0,0,0,0,0,-1,1819,1303,0,0
602,-279,28.9159,2.52478,-0.00580605,0.0465288,-0.0191424,0.0527831,-0.0120603,-1.25501,0.0398223,0.043933,1826,1303,28.9159,-2.52478
609,-279,28.7721,2.17236,-0.0179484,0.0475279,-0.0112378,0.0494029,-0.0198235,-1.40547,0.0411661,0.0499115,1833,1303,28.7722,-2.1724
616,-279,28.6478,1.93079,-0.0262913,0.0436945,-0.00363619,0.0438829,-0.0264797,-1.51903,0.041036,0.0467554,1840,1303,28.6478,-1.93074
623,-279,28.7938,1.72144,-0.0307387,0.0381789,0.00226131,0.038253,-0.0308129,1.53803,0.0399522,0.0474997,1847,1303,28.7938,-1.72139
630,-279,26.7919,1.29602,-0.031645,0.0319735,0.00602801,0.0325396,-0.0322112,1.47715,0.037384,0.046597,1854,1303,26.7919,-1.29597
637,-279,26.7646,1.47522,-0.0301212,0.0263241,0.00796386,0.0274262,-0.0312233,1.43328,0.033885,0.0470112,1861,1303,26.7646,-1.47521
644,-279,26.4432,1.69556,-0.0277406,0.0210767,0.00894215,0.0226631,-0.0293271,1.39521,0.0300986,0.0495142,1868,1303,26.4432,-1.69552
651,-279,26.1683,2.25403,0,0,0,0,0,0,0,-1,1875,1303,26.1683,-2.25403
658,-279,21.5076,7.65649,0,0,0,0,0,0,0,-1,1882,1303,21.5076,-7.65648
665,-279,18.9794,6.09607,0,0,0,0,0,0,0,-1,1889,1303,18.9793,-6.09601
672,-279,21.84,7.04321,0,0,0,0,0,0,0,-1,1896,1303,21.84,-7.04324
679,-279,21.9403,7.08032,-0.0137525,0.00405486,0.00817338,0.00723753,-0.0169351,1.19947,0.0143256,0.0426148,1903,1303,21.9404,-7.08034
686,-279,21.922,6.76831,-0.00843325,0.00116311,0.00611566,0.00413821,-0.0114083,1.11803,0.00929719,0.0207364,1910,1303,21.922,-6.76837
693,-279,21.9335,6.48914,-0.00459506,-0.000452672,0.00404381,0.00201951,-0.00706724,1.02207,0.00550945,0.015487,1917,1303,21.9334,-6.48913
700,-279,21.9448,6.224,-0.00231098,-0.00126348,0.00191169,0.000194905,-0.00376936,0.919103,0.00258033,0.0104121,1924,1303,21.9449,-6.224
707,-279,21.9314,5.9718,-0.000639436,-0.000609247,0.000869708,0.000245497,-0.00149418,0.794075,0.00108723,0.00858918,1931,1303,21.9314,-5.97181
714,-279,21.9064,5.69434,0.00108271,0.000541496,0.000274689,0.0011977,0.00042651,0.39644,0.000700972,0.0101084,1938,1303,21.9064,-5.69438
721,-279,21.9143,5.42175,0.00258701,0.00124382,-0.000181309,0.00261105,0.00121977,-0.131841,0.00150858,0.01263,1945,1303,21.9144,-5.42179
728,-279,21.9309,5.16003,0.00408512,0.00203746,-0.000658275,0.00427848,0.0018441,-0.285702,0.00247801,0.0133773,1952,1303,21.9309,-5.16006
735,-279,21.9401,4.91992,0.00609004,0.00292735,-0.00136373,0.00659685,0.00242054,-0.35582,0.0038534,0.0126696,1959,1303,21.9401,-4.91987
742,-279,21.8333,4.61511,0.00909756,0.0039947,-0.00246511,0.0100939,0.00299837,-0.384096,0.0059856,0.0272146,1966,1303,21.8333,-4.61507
749,-279,22.014,4.33643,0.013424,0.00523068,-0.0041807,0.0151806,0.00347406,-0.397775,0.00918409,0.0484777,1973,1303,22.014,-4.33637
756,-279,22.3336,4.0531,0,0,0,0,0,0,0,-1,1980,1303,22.3336,-4.05308
763,-279,20.7946,4.18896,0,0,0,0,0,0,0,-1,1987,1303,20.7945,-4.18899
770,-279,21.1072,3.85291,0,0,0,0,0,0,0,-1,1994,1303,21.1071,-3.85294
777,-279,21.6755,2.86829,0,0,0,0,0,0,0,-1,2001,1303,21.6755,-2.86834
784,-279,0,0,0,0,0,0,0,0,0,-1,2008,1303,0,0
791,-279,0,0,0,0,0,0,0,0,0,-1,2015,1303,0,0
798,-279,0,0,0,0,0,0,0,0,0,-1,2022,1303,0,0
805,-279,0,0,0,0,0,0,0,0,0,-1,2029,1303,0,0
812,-279,0,0,0,0,0,0,0,0,0,-1,2036,1303,0,0
-700,-286,0,0,0,0,0,0,0,0,0,-1,524,1310,0,0
-693,-286,0,0,0,0,0,0,0,0,0,-1,531,1310,0,0
-686,-286,0,0,0,0,0,0,0,0,0,-1,538,1310,0,0
-679,-286,0,0,0,0,0,0,0,0,0,-1,545,1310,0,0
-672,-286,0,0,0,0,0,0,0,0,0,-1,552,1310,0,0
-665,-286,0,0,0,0,0,0,0,0,0,-1,559,1310,0,0
-658,-286,-11.329,1.85474,0,0,0,0,0,0,0,-1,566,1310,-11.3291,-1.85469
-651,-286,-15.2455,1.05713,0,0,0,0,0,0,0,-1,573,1310,-15.2455,-1.05713
-644,-286,-14.2851,2.04138,0,0,0,0,0,0,0,-1,580,1310,-14.2851,-2.04138
-637,-286,-13.3246,3.02563,0,0,0,0,0,0,0,-1,587,1310,-13.3247,-3.02563
-630,-286,-11.3279,1.78235,0,0,0,0,0,0,0,-1,594,1310,-11.3279,-1.78235
-623,-286,-12.8702,1.36121,0,0,0,0,0,0,0,-1,601,1310,-12.8702,-1.36117
-616,-286,-12.5761,1.31775,0,0,0,0,0,0,0,-1,608,1310,-12.5761,-1.31773
-609,-286,-12.1708,2.02283,0,0,0,0,0,0,0,-1,615,1310,-12.1708,-2.02286
-602,-286,-11.9144,2.50598,0.0235182,0.00137602,-0.00208522,0.0237128,0.00118135,-0.0930838,0.0154299,0.0158652,622,1310,-11.9144,-2.50598
-595,-286,-11.9318,2.86047,0.0136893,0.00162088,-0.00153404,0.0138813,0.00142893,-0.124475,0.00881655,0.0113906,629,1310,-11.9318,-2.86047
-588,-286,-11.9238,3.14941,0.00547898,0.000274163,-1.37103e-05,0.00547902,0.000274127,-0.00263413,0.00356482,0.0119421,636,1310,-11.9238,-3.14943
-581,-286,-11.9161,3.4342,0.000600986,0.000917445,0.000141378,0.000971405,0.000547026,1.20619,0.000562329,0.0127903,643,1310,-11.9161,-3.43424
-574,-286,-11.9315,3.7334,0.00102123,0.000561866,0.000299683,0.00116912,0.000413972,0.458437,0.000684506,0.0131854,650,1310,-11.9315,-3.73337
-567,-286,-11.9302,4.04749,0.00140692,0.00026122,0.000486138,0.00158539,8.27466e-05,0.35185,0.00103045,0.0128501,657,1310,-11.9302,-4.04749
-560,-286,-11.944,4.38208,0.00169781,7.42989e-05,0.000527643,0.00185423,-8.21158e-05,0.288188,0.00126441,0.0126673,664,1310,-11.944,-4.38204
-553,-286,-11.9453,4.70288,0.00178121,3.45937e-05,0.000448915,0.00188984,-7.40304e-05,0.237407,0.00128528,0.00946462,671,1310,-11.9453,-4.70292
-546,-286,-11.9368,5.026,0.00134862,3.49849e-05,0.000110194,0.0013578,2.58056e-05,0.0831105,0.000896721,0.0134715,678,1310,-11.9368,-5.026
-539,-286,-11.9719,5.36658,0.000509816,-2.07058e-05,-0.000540006,0.000846195,-0.000357084,-0.557099,0.000713588,0.0346898,685,1310,-11.9719,-5.36654
-532,-286,-11.9601,5.70593,0,0,0,0,0,0,0,-1,692,1310,-11.9601,-5.70593
-525,-286,-11.4528,-1.11768,0,0,0,0,0,0,0,-1,699,1310,-11.4528,1.11769
-518,-286,-11.0701,1.37329,0,0,0,0,0,0,0,-1,706,1310,-11.0701,-1.37332
-511,-286,-17.7545,-0.0791016,0,0,0,0,0,0,0,-1,713,1310,-17.7544,0.0791606
-504,-286,-18.0455,1.29602,0,0,0,0,0,0,0,-1,720,1310,-18.0455,-1.29601
-497,-286,-18.3367,2.67114,0,0,0,0,0,0,0,-1,727,1310,-18.3366,-2.67118
-490,-286,-19.5795,2.47266,0,0,0,0,0,0,0,-1,734,1310,-19.5795,-2.4727
-483,-286,-19.7277,2.74744,0,0,0,0,0,0,0,-1,741,1310,-19.7277,-2.74747
-476,-286,-20.0391,3.06177,0,0,0,0,0,0,0,-1,748,1310,-20.0391,-3.06178
-469,-286,0,0,0,0,0,0,0,0,0,-1,755,1310,0,0
-462,-286,0,0,0,0,0,0,0,0,0,-1,762,1310,0,0
-455,-286,0,0,0,0,0,0,0,0,0,-1,769,1310,0,0
-448,-286,0,0,0,0,0,0,0,0,0,-1,776,1310,0,0
-441,-286,0,0,0,0,0,0,0,0,0,-1,783,1310,0,0
-434,-286,0,0,0,0,0,0,0,0,0,-1,790,1310,0,0
-427,-286,0,0,0,0,0,0,0,0,0,-1,797,1310,0,0
-420,-286,0,0,0,0,0,0,0,0,0,-1,804,1310,0,0
-413,-286,0,0,0,0,0,0,0,0,0,-1,811,1310,0,0
-406,-286,0,0,0,0,0,0,0,0,0,-1,818,1310,0,0
-399,-286,0,0,0,0,0,0,0,0,0,-1,825,1310,0,0
-392,-286,0,0,0,0,0,0,0,0,0,-1,832,1310,0,0
-385,-286,0,0,0,0,0,0,0,0,0,-1,839,1310,0,0
-378,-286,0,0,0,0,0,0,0,0,0,-1,846,1310,0,0
-371,-286,0,0,0,0,0,0,0,0,0,-1,853,1310,0,0
-364,-286,0,0,0,0,0,0,0,0,0,-1,860,1310,0,0
-357,-286,0,0,0,0,0,0,0,0,0,-1,867,1310,0,0
-350,-286,0,0,0,0,0,0,0,0,0,-1,874,1310,0,0
-343,-286,0,0,0,0,0,0,0,0,0,-1,881,1310,0,0
-336,-286,0,0,0,0,0,0,0,0,0,-1,888,1310,0,0
-329,-286,0,0,0,0,0,0,0,0,0,-1,895,1310,0,0
-322,-286,0,0,0,0,0,0,0,0,0,-1,902,1310,0,0
-315,-286,0,0,0,0,0,0,0,0,0,-1,909,1310,0,0
-308,-286,0,0,0,0,0,0,0,0,0,-1,916,1310,0,0
-301,-286,0,0,0,0,0,0,0,0,0,-1,923,1310,0,0
-294,-286,0,0,0,0,0,0,0,0,0,-1,930,1310,0,0
-287,-286,0,0,0,0,0,0,0,0,0,-1,937,1310,0,0
-280,-286,0,0,0,0,0,0,0,0,0,-1,944,1310,0,0
-273,-286,0,0,0,0,0,0,0,0,0,-1,951,1310,0,0
-266,-286,0,0,0,0,0,0,0,0,0,-1,958,1310,0,0
-259,-286,0,0,0,0,0,0,0,0,0,-1,965,1310,0,0
-252,-286,0,0,0,0,0,0,0,0,0,-1,972,1310,0,0
-245,-286,0,0,0,0,0,0,0,0,0,-1,979,1310,0,0
-238,-286,0,0,0,0,0,0,0,0,0,-1,986,1310,0,0
-231,-286,0,0,0,0,0,0,0,0,0,-1,993,1310,0,0
-224,-286,0,0,0,0,0,0,0,0,0,-1,1000,1310,0,0
-217,-286,0,0,0,0,0,0,0,0,0,-1,1007,1310,0,0
-210,-286,0,0,0,0,0,0,0,0,0,-1,1014,1310,0,0
-203,-286,0,0,0,0,0,0,0,0,0,-1,1021,1310,0,0
-196,-286,0,0,0,0,0,0,0,0,0,-1,1028,1310,0,0
-189,-286,0,0,0,0,0,0,0,0,0,-1,1035,1310,0,0
-182,-286,0,0,0,0,0,0,0,0,0,-1,1042,1310,0,0
-175,-286,0,0,0,0,0,0,0,0,0,-1,1049,1310,0,0
-168,-286,0,0,0,0,0,0,0,0,0,-1,1056,1310,0,0
-161,-286,0,0,0,0,0,0,0,0,0,-1,1063,1310,0,0
-154,-286,0,0,0,0,0,0,0,0,0,-1,1070,1310,0,0
-147,-286,0,0,0,0,0,0,0,0,0,-1,1077,1310,0,0
-140,-286,0,0,0,0,0,0,0,0,0,-1,1084,1310,0,0
-133,-286,0,0,0,0,0,0,0,0,0,-1,1091,1310,0,0
-126,-286,0,0,0,0,0,0,0,0,0,-1,1098,1310,0,0
-119,-286,0,0,0,0,0,0,0,0,0,-1,1105,1310,0,0
-112,-286,0,0,0,0,0,0,0,0,0,-1,1112,1310,0,0
-105,-286,0,0,0,0,0,0,0,0,0,-1,1119,1310,0,0
-98,-286,0,0,0,0,0,0,0,0,0,-1,1126,1310,0,0
-91,-286,0,0,0,0,0,0,0,0,0,-1,1133,1310,0,0
-84,-286,0,0,0,0,0,0,0,0,0,-1,1140,1310,0,0
-77,-286,0,0,0,0,0,0,0,0,0,-1,1147,1310,0,0
-70,-286,0,0,0,0,0,0,0,0,0,-1,1154,1310,0,0
-63,-286,0,0,0,0,0,0,0,0,0,-1,1161,1310,0,0
-56,-286,0,0,0,0,0,0,0,0,0,-1,1168,1310,0,0
-49,-286,0,0,0,0,0,0,0,0,0,-1,1175,1310,0,0
-42,-286,0,0,0,0,0,0,0,0,0,-1,1182,1310,0,0
-35,-286,0,0,0,0,0,0,0,0,0,-1,1189,1310,0,0
-28,-286,0,0,0,0,0,0,0,0,0,-1,1196,1310,0,0
-21,-286,0,0,0,0,0,0,0,0,0,-1,1203,1310,0,0
-14,-286,0,0,0,0,0,0,0,0,0,-1,1210,1310,0,0
-7,-286,0,0,0,0,0,0,0,0,0,-1,1217,1310,0,0
0,-286,0,0,0,0,0,0,0,0,0,-1,1224,1310,0,0
7,-286,0,0,0,0,0,0,0,0,0,-1,1231,1310,0,0
14,-286,0,0,0,0,0,0,0,0,0,-1,1238,1310,0,0
21,-286,0,0,0,0,0,0,0,0,0,-1,1245,1310,0,0
28,-286,0,0,0,0,0,0,0,0,0,-1,1252,1310,0,0
35,-286,0,0,0,0,0,0,0,0,0,-1,1259,1310,0,0
42,-286,0,0,0,0,0,0,0,0,0,-1,1266,1310,0,0
49,-286,0,0,0,0,0,0,0,0,0,-1,1273,1310,0,0
56,-286,0,0,0,0,0,0,0,0,0,-1,1280,1310,0,0
63,-286,0,0,0,0,0,0,0,0,0,-1,1287,1310,0,0
70,-286,0,0,0,0,0,0,0,0,0,-1,1294,1310,0,0
77,-286,0,0,0,0,0,0,0,0,0,-1,1301,1310,0,0
84,-286,0,0,0,0,0,0,0,0,0,-1,1308,1310,0,0
91,-286,0,0,0,0,0,0,0,0,0,-1,1315,1310,0,0
98,-286,0,0,0,0,0,0,0,0,0,-1,1322,1310,0,0
105,-286,0,0,0,0,0,0,0,0,0,-1,1329,1310,0,0
112,-286,0,0,0,0,0,0,0,0,0,-1,1336,1310,0,0
119,-286,0,0,0,0,0,0,0,0,0,-1,1343,1310,0,0
126,-286,0,0,0,0,0,0,0,0,0,-1,1350,1310,0,0
133,-286,0,0,0,0,0,0,0,0,0,-1,1357,1310,0,0
140,-286,0,0,0,0,0,0,0,0,0,-1,1364,1310,0,0
147,-286,0,0,0,0,0,0,0,0,0,-1,1371,1310,0,0
154,-286,0,0,0,0,0,0,0,0,0,-1,1378,1310,0,0
161,-286,0,0,0,0,0,0,0,0,0,-1,1385,1310,0,0
168,-286,0,0,0,0,0,0,0,0,0,-1,1392,1310,0,0
175,-286,0,0,0,0,0,0,0,0,0,-1,1399,1310,0,0
182,-286,0,0,0,0,0,0,0,0,0,-1,1406,1310,0,0
189,-286,0,0,0,0,0,0,0,0,0,-1,1413,1310,0,0
196,-286,0,0,0,0,0,0,0,0,0,-1,1420,1310,0,0
203,-286,0,0,0,0,0,0,0,0,0,-1,1427,1310,0,0
210,-286,0,0,0,0,0,0,0,0,0,-1,1434,1310,0,0
217,-286,0,0,0,0,0,0,0,0,0,-1,1441,1310,0,0
224,-286,0,0,0,0,0,0,0,0,0,-1,1448,1310,0,0
231,-286,0,0,0,0,0,0,0,0,0,-1,1455,1310,0,0
238,-286,0,0,0,0,0,0,0,0,0,-1,1462,1310,0,0
245,-286,0,0,0,0,0,0,0,0,0,-1,1469,1310,0,0
252,-286,0,0,0,0,0,0,0,0,0,-1,1476,1310,0,0
259,-286,0,0,0,0,0,0,0,0,0,-1,1483,1310,0,0
266,-286,0,0,0,0,0,0,0,0,0,-1,1490,1310,0,0
273,-286,0,0,0,0,0,0,0,0,0,-1,1497,1310,0,0
280,-286,0,0,0,0,0,0,0,0,0,-1,1504,1310,0,0
287,-286,0,0,0,0,0,0,0,0,0,-1,1511,1310,0,0
294,-286,0,0,0,0,0,0,0,0,0,-1,1518,1310,0,0
301,-286,0,0,0,0,0,0,0,0,0,-1,1525,1310,0,0
308,-286,0,0,0,0,0,0,0,0,0,-1,1532,1310,0,0
315,-286,0,0,0,0,0,0,0,0,0,-1,1539,1310,0,0
322,-286,0,0,0,0,0,0,0,0,0,-1,1546,1310,0,0
329,-286,0,0,0,0,0,0,0,0,0,-1,1553,1310,0,0
336,-286,0,0,0,0,0,0,0,0,0,-1,1560,1310,0,0
343,-286,0,0,0,0,0,0,0,0,0,-1,1567,1310,0,0
350,-286,0,0,0,0,0,0,0,0,0,-1,1574,1310,0,0
357,-286,0,0,0,0,0,0,0,0,0,-1,1581,1310,0,0
364,-286,0,0,0,0,0,0,0,0,0,-1,1588,1310,0,0
371,-286,0,0,0,0,0,0,0,0,0,-1,1595,1310,0,0
378,-286,0,0,0,0,0,0,0,0,0,-1,1602,1310,0,0
385,-286,0,0,0,0,0,0,0,0,0,-1,1609,1310,0,0
392,-286,0,0,0,0,0,0,0,0,0,-1,1616,1310,0,0
399,-286,0,0,0,0,0,0,0,0,0,-1,1623,1310,0,0
406,-286,0,0,0,0,0,0,0,0,0,-1,1630,1310,0,0
413,-286,0,0,0,0,0,0,0,0,0,-1,1637,1310,0,0
420,-286,0,0,0,0,0,0,0,0,0,-1,1644,1310,0,0
427,-286,0,0,0,0,0,0,0,0,0,-1,1651,1310,0,0
434,-286,0,0,0,0,0,0,0,0,0,-1,1658,1310,0,0
441,-286,0,0,0,0,0,0,0,0,0,-1,1665,1310,0,0
448,-286,0,0,0,0,0,0,0,0,0,-1,1672,1310,0,0
455,-286,0,0,0,0,0,0,0,0,0,-1,1679,1310,0,0
462,-286,0,0,0,0,0,0,0,0,0,-1,1686,1310,0,0
469,-286,0,0,0,0,0,0,0,0,0,-1,1693,1310,0,0
476,-286,0,0,0,0,0,0,0,0,0,-1,1700,1310,0,0
483,-286,0,0,0,0,0,0,0,0,0,-1,1707,1310,0,0
490,-286,0,0,0,0,0,0,0,0,0,-1,1714,1310,0,0
497,-286,0,0,0,0,0,0,0,0,0,-1,1721,1310,0,0
504,-286,0,0,0,0,0,0,0,0,0,-1,1728,1310,0,0
511,-286,0,0,0,0,0,0,0,0,0,-1,1735,1310,0,0
518,-286,0,0,0,0,0,0,0,0,0,-1,1742,1310,0,0
525,-286,0,0,0,0,0,0,0,0,0,-1,1749,1310,0,0
532,-286,0,0,0,0,0,0,0,0,0,-1,1756,1310,0,0
539,-286,0,0,0,0,0,0,0,0,0,-1,1763,1310,0,0
546,-286,0,0,0,0,0,0,0,0,0,-1,1770,1310,0,0
553,-286,0,0,0,0,0,0,0,0,0,-1,1777,1310,0,0
560,-286,0,0,0,0,0,0,0,0,0,-1,1784,1310,0,0
567,-286,0,0,0,0,0,0,0,0,0,-1,1791,1310,0,0
574,-286,0,0,0,0,0,0,0,0,0,-1,1798,1310,0,0
581,-286,0,0,0,0,0,0,0,0,0,-1,1805,1310,0,0
588,-286,0,0,0,0,0,0,0,0,0,-1,1812,1310,0,0
595,-286,29.0217,2.62366,-0.000679217,0.0622405,-0.0253736,0.0711977,-0.00963646,-1.23144,0.0509818,0.0387989,1819,1310,29.0217,-2.62363
602,-286,29.1522,2.46777,-0.0129241,0.0580236,-0.0187805,0.0626883,-0.0175887,-1.32734,0.048725,0.046009,1826,1310,29.1522,-2.46773
609,-286,28.5953,1.75928,-0.0235101,0.0551545,-0.0108651,0.0566276,-0.0249832,-1.43604,0.0482843,0.0472775,1833,1310,28.5954,-1.75922
616,-286,28.4449,1.44995,-0.0294288,0.0481951,-0.00389244,0.0483898,-0.0296235,-1.52082,0.0454733,0.045871,1840,1310,28.445,-1.44997
623,-286,28.5566,1.27991,-0.031869,0.0407032,0.00133313,0.0407277,-0.0318934,1.55243,0.0420311,0.0458483,1847,1310,28.5566,-1.27993
630,-286,26.0262,0.99231,-0.0317094,0.0334287,0.00476781,0.0337759,-0.0320565,1.49812,0.0380127,0.0439556,1854,1310,26.0262,-0.992297
637,-286,26.0037,1.15894,-0.0299664,0.0270925,0.00682378,0.0278972,-0.0307711,1.45341,0.0338857,0.0442698,1861,1310,26.0036,-1.15894
644,-286,25.6433,1.33862,-0.0277482,0.0212103,0.00819423,0.0225454,-0.0290833,1.40929,0.0298874,0.0440792,1868,1310,25.6433,-1.33858
651,-286,25.2507,1.88245,0,0,0,0,0,0,0,-1,1875,1310,25.2508,-1.88245
658,-286,22.9241,7.34473,0,0,0,0,0,0,0,-1,1882,1310,22.924,-7.34477
665,-286,22.203,7.60522,0,0,0,0,0,0,0,-1,1889,1310,22.203,-7.60528
672,-286,21.8955,7.41772,-0.0187385,0.00601746,0.00982408,0.00944223,-0.0221633,1.23536,0.0187337,0.0445942,1896,1310,21.8955,-7.41778
679,-286,21.6031,7.11084,-0.0137614,0.00298524,0.00832295,0.00641801,-0.0171942,1.17961,0.0140978,0.028584,1903,1310,21.6031,-7.1108
686,-286,21.6588,6.78992,-0.0082839,0.000252235,0.00601768,0.00336176,-0.0113934,1.09385,0.00892969,0.0210724,1910,1310,21.6588,-6.78986
693,-286,21.6539,6.4989,-0.00457011,-0.00097671,0.00388682,0.00150859,-0.0070554,1.0019,0.00527881,0.0160236,1917,1310,21.6539,-6.49894
700,-286,21.6675,6.22717,-0.00232638,-0.00134961,0.00189507,0.000118994,-0.00379498,0.911511,0.00257057,0.0109401,1924,1310,21.6674,-6.22712
707,-286,21.6616,5.9801,-0.000705351,-0.000447531,0.00097639,0.000408422,-0.0015613,0.851032,0.0012004,0.00851304,1931,1310,21.6616,-5.98005
714,-286,21.6375,5.70813,0.000903146,0.000772235,0.000418294,0.00126108,0.000414306,0.707787,0.000742216,0.00866499,1938,1310,21.6375,-5.70815
721,-286,21.6459,5.42432,0.00227837,0.00154526,4.20427e-05,0.00228077,0.00154286,0.0570992,0.00134386,0.0111581,1945,1310,21.6458,-5.42435
728,-286,21.6412,5.1604,0.00373651,0.00242059,-0.0003692,0.00383302,0.00232408,-0.255673,0.00222961,0.0138495,1952,1310,21.6413,-5.16042
735,-286,21.6429,4.91528,0.00579947,0.00339803,-0.0010605,0.00620074,0.00299675,-0.361734,0.00358067,0.0161944,1959,1310,21.643,-4.91529
742,-286,21.6144,4.6322,0.00901602,0.0046634,-0.0022062,0.00993868,0.00374074,-0.396109,0.00579626,0.032951,1966,1310,21.6144,-4.63215
749,-286,21.8245,4.20898,0.0136591,0.00619677,-0.00407106,0.0154502,0.00440569,-0.414468,0.00919055,0.0447732,1973,1310,21.8244,-4.20898
756,-286,22.2332,3.78955,0,0,0,0,0,0,0,-1,1980,1310,22.2331,-3.7896
763,-286,20.6671,3.99683,0,0,0,0,0,0,0,-1,1987,1310,20.6671,-3.99683
770,-286,23.9147,4.45679,0,0,0,0,0,0,0,-1,1994,1310,23.9146,-4.45675
777,-286,0,0,0,0,0,0,0,0,0,-1,2001,1310,0,0
784,-286,0,0,0,0,0,0,0,0,0,-1,2008,1310,0,0
791,-286,0,0,0,0,0,0,0,0,0,-1,2015,1310,0,0
798,-286,0,0,0,0,0,0,0,0,0,-1,2022,1310,0,0
805,-286,0,0,0,0,0,0,0,0,0,-1,2029,1310,0,0
812,-286,0,0,0,0,0,0,0,0,0,-1,2036,1310,0,0
-700,-293,0,0,0,0,0,0,0,0,0,-1,524,1317,0,0
-693,-293,0,0,0,0,0,0,0,0,0,-1,531,1317,0,0
-686,-293,0,0,0,0,0,0,0,0,0,-1,538,1317,0,0
-679,-293,0,0,0,0,0,0,0,0,0,-1,545,1317,0,0
-672,-293,0,0,0,0,0,0,0,0,0,-1,552,1317,0,0
-665,-293,0,0,0,0,0,0,0,0,0,-1,559,1317,0,0
-658,-293,0,0,0,0,0,0,0,0,0,-1,566,1317,0,0
-651,-293,-11.7092,0.624146,0,0,0,0,0,0,0,-1,573,1317,-11.7092,-0.624137
-644,-293,-14.5168,2.3512,0,0,0,0,0,0,0,-1,580,1317,-14.5168,-2.35117
-637,-293,-11.2083,1.04382,0,0,0,0,0,0,0,-1,587,1317,-11.2083,-1.04381
-630,-293,-11.4158,1.08972,0,0,0,0,0,0,0,-1,594,1317,-11.4158,-1.08977
-623,-293,-11.7189,0.970581,0,0,0,0,0,0,0,-1,601,1317,-11.7189,-0.970591
-616,-293,-12.4449,0.509155,0,0,0,0,0,0,0,-1,608,1317,-12.4449,-0.509121
-609,-293,-11.4506,2.04614,0,0,0,0,0,0,0,-1,615,1317,-11.4506,-2.04614
-602,-293,-11.5251,2.4137,0.0214701,0.000941908,-0.00181953,0.0216301,0.000781881,-0.0877243,0.0141666,0.0337579,622,1317,-11.5251,-2.41367
-595,-293,-11.648,2.8252,0.0120818,0.00128252,-0.00140777,0.0122623,0.00110203,-0.127519,0.0078334,0.0164584,629,1317,-11.648,-2.82514
-588,-293,-11.6324,3.13464,0.00448602,0.000204964,-0.000114111,0.00448906,0.000201924,-0.0266296,0.00292772,0.0157322,636,1317,-11.6324,-3.13459
-581,-293,-11.6144,3.44153,0.00023134,0.000850425,-2.8641e-05,0.000851747,0.000230017,-1.52466,0.000508796,0.017385,643,1317,-11.6144,-3.44153
-574,-293,-11.6091,3.76819,0.00064541,0.000480933,8.12478e-05,0.000678775,0.000447567,0.38967,0.000398472,0.0159309,650,1317,-11.6091,-3.7682
-567,-293,-11.6428,4.08777,0.00101424,0.000149288,0.000214409,0.00106448,9.90563e-05,0.230128,0.000679045,0.0158082,657,1317,-11.6427,-4.0878
-560,-293,-11.6491,4.40771,0.00136635,-8.29763e-05,0.000202382,0.00139408,-0.000110706,0.136169,0.000968399,0.0158578,664,1317,-11.6491,-4.40769
-553,-293,-11.6215,4.7052,0.00166846,-0.000194218,0.000142982,0.00167937,-0.00020513,0.0761667,0.00119385,0.0104615,671,1317,-11.6214,-4.70523
-546,-293,-11.6152,5.02722,0.00166122,-0.000321175,-7.16569e-05,0.0016638,-0.000323762,-0.0360839,0.00123139,0.0105328,678,1317,-11.6152,-5.02718
-539,-293,-11.6195,5.34277,0.0013884,-0.000512367,-0.000580264,0.00155154,-0.000675507,-0.274073,0.00131853,0.0287777,685,1317,-11.6195,-5.34282
-532,-293,-11.6218,5.60132,0,0,0,0,0,0,0,-1,692,1317,-11.6218,-5.60135
-525,-293,-8.20642,3.62256,0,0,0,0,0,0,0,-1,699,1317,-8.20639,-3.6226
-518,-293,-10.1053,0.314209,0,0,0,0,0,0,0,-1,706,1317,-10.1053,-0.314234
-511,-293,-11.6276,0.235352,0,0,0,0,0,0,0,-1,713,1317,-11.6276,-0.235372
-504,-293,-17.9086,1.25427,0,0,0,0,0,0,0,-1,720,1317,-17.9086,-1.25423
-497,-293,-18.8006,1.62122,0,0,0,0,0,0,0,-1,727,1317,-18.8006,-1.62119
-490,-293,-18.8961,1.99255,0,0,0,0,0,0,0,-1,734,1317,-18.8961,-1.99251
-483,-293,-19.0831,2.35498,0,0,0,0,0,0,0,-1,741,1317,-19.0831,-2.35497
-476,-293,-19.5228,2.61243,0,0,0,0,0,0,0,-1,748,1317,-19.5228,-2.61237
-469,-293,0,0,0,0,0,0,0,0,0,-1,755,1317,0,0
-462,-293,0,0,0,0,0,0,0,0,0,-1,762,1317,0,0
-455,-293,0,0,0,0,0,0,0,0,0,-1,769,1317,0,0
-448,-293,0,0,0,0,0,0,0,0,0,-1,776,1317,0,0
-441,-293,0,0,0,0,0,0,0,0,0,-1,783,1317,0,0
-434,-293,0,0,0,0,0,0,0,0,0,-1,790,1317,0,0
-427,-293,0,0,0,0,0,0,0,0,0,-1,797,1317,0,0
-420,-293,0,0,0,0,0,0,0,0,0,-1,804,1317,0,0
-413,-293,0,0,0,0,0,0,0,0,0,-1,811,1317,0,0
-406,-293,0,0,0,0,0,0,0,0,0,-1,818,1317,0,0
-399,-293,0,0,0,0,0,0,0,0,0,-1,825,1317,0,0
-392,-293,0,0,0,0,0,0,0,0,0,-1,832,1317,0,0
-385,-293,0,0,0,0,0,0,0,0,0,-1,839,1317,0,0
-378,-293,0,0,0,0,0,0,0,0,0,-1,846,1317,0,0
-371,-293,0,0,0,0,0,0,0,0,0,-1,853,1317,0,0
-364,-293,0,0,0,0,0,0,0,0,0,-1,860,1317,0,0
-357,-293,0,0,0,0,0,0,0,0,0,-1,867,1317,0,0
-350,-293,0,0,0,0,0,0,0,0,0,-1,874,1317,0,0
-343,-293,0,0,0,0,0,0,0,0,0,-1,881,1317,0,0
-336,-293,0,0,0,0,0,0,0,0,0,-1,888,1317,0,0
-329,-293,0,0,0,0,0,0,0,0,0,-1,895,1317,0,0
-322,-293,0,0,0,0,0,0,0,0,0,-1,902,1317,0,0
-315,-293,0,0,0,0,0,0,0,0,0,-1,909,1317,0,0
-308,-293,0,0,0,0,0,0,0,0,0,-1,916,1317,0,0
-301,-293,0,0,0,0,0,0,0,0,0,-1,923,1317,0,0
-294,-293,0,0,0,0,0,0,0,0,0,-1,930,1317,0,0
-287,-293,0,0,0,0,0,0,0,0,0,-1,937,1317,0,0
-280,-293,0,0,0,0,0,0,0,0,0,-1,944,1317,0,0
-273,-293,0,0,0,0,0,0,0,0,0,-1,951,1317,0,0
-266,-293,0,0,0,0,0,0,0,0,0,-1,958,1317,0,0
-259,-293,0,0,0,0,0,0,0,0,0,-1,965,1317,0,0
-252,-293,0,0,0,0,0,0,0,0,0,-1,972,1317,0,0
-245,-293,0,0,0,0,0,0,0,0,0,-1,979,1317,0,0
-238,-293,0,0,0,0,0,0,0,0,0,-1,986,1317,0,0
-231,-293,0,0,0,0,0,0,0,0,0,-1,993,1317,0,0
-224,-293,0,0,0,0,0,0,0,0,0,-1,1000,1317,0,0
-217,-293,0,0,0,0,0,0,0,0,0,-1,1007,1317,0,0
-210,-293,0,0,0,0,0,0,0,0,0,-1,1014,1317,0,0
-203,-293,0,0,0,0,0,0,0,0,0,-1,1021,1317,0,0
-196,-293,0,0,0,0,0,0,0,0,0,-1,1028,1317,0,0
-189,-293,0,0,0,0,0,0,0,0,0,-1,1035,1317,0,0
-182,-293,0,0,0,0,0,0,0,0,0,-1,1042,1317,0,0
-175,-293,0,0,0,0,0,0,0,0,0,-1,1049,1317,0,0
-168,-293,0,0,0,0,0,0,0,0,0,-1,1056,1317,0,0
-161,-293,0,0,0,0,0,0,0,0,0,-1,1063,1317,0,0
-154,-293,0,0,0,0,0,0,0,0,0,-1,1070,1317,0,0
-147,-293,0,0,0,0,0,0,0,0,0,-1,1077,1317,0,0
-140,-293,0,0,0,0,0,0,0,0,0,-1,1084,1317,0,0
-133,-293,0,0,0,0,0,0,0,0,0,-1,1091,1317,0,0
-126,-293,0,0,0,0,0,0,0,0,0,-1,1098,1317,0,0
-119,-293,0,0,0,0,0,0,0,0,0,-1,1105,1317,0,0
-112,-293,0,0,0,0,0,0,0,0,0,-1,1112,1317,0,0
-105,-293,0,0,0,0,0,0,0,0,0,-1,1119,1317,0,0
-98,-293,0,0,0,0,0,0,0,0,0,-1,1126,1317,0,0
-91,-293,0,0,0,0,0,0,0,0,0,-1,1133,1317,0,0
-84,-293,0,0,0,0,0,0,0,0,0,-1,1140,1317,0,0
-77,-293,0,0,0,0,0,0,0,0,0,-1,1147,1317,0,0
-70,-293,0,0,0,0,0,0,0,0,0,-1,1154,1317,0,0
-63,-293,0,0,0,0,0,0,0,0,0,-1,1161,1317,0,0
-56,-293,0,0,0,0,0,0,0,0,0,-1,1168,1317,0,0
-49,-293,0,0,0,0,0,0,0,0,0,-1,1175,1317,0,0
-42,-293,0,0,0,0,0,0,0,0,0,-1,1182,1317,0,0
-35,-293,0,0,0,0,0,0,0,0,0,-1,1189,1317,0,0
-28,-293,0,0,0,0,0,0,0,0,0,-1,1196,1317,0,0
-21,-293,0,0,0,0,0,0,0,0,0,-1,1203,1317,0,0
-14,-293,0,0,0,0,0,0,0,0,0,-1,1210,1317,0,0
-7,-293,0,0,0,0,0,0,0,0,0,-1,1217,1317,0,0
0,-293,0,0,0,0,0,0,0,0,0,-1,1224,1317,0,0
7,-293,0,0,0,0,0,0,0,0,0,-1,1231,1317,0,0
14,-293,0,0,0,0,0,0,0,0,0,-1,1238,1317,0,0
21,-293,0,0,0,0,0,0,0,0,0,-1,1245,1317,0,0
28,-293,0,0,0,0,0,0,0,0,0,-1,1252,1317,0,0
35,-293,0,0,0,0,0,0,0,0,0,-1,1259,1317,0,0
42,-293,0,0,0,0,0,0,0,0,0,-1,1266,1317,0,0
49,-293,0,0,0,0,0,0,0,0,0,-1,1273,1317,0,0
56,-293,0,0,0,0,0,0,0,0,0,-1,1280,1317,0,0
63,-293,0,0,0,0,0,0,0,0,0,-1,1287,1317,0,0
70,-293,0,0,0,0,0,0,0,0,0,-1,1294,1317,0,0
77,-293,0,0,0,0,0,0,0,0,0,-1,1301,1317,0,0
84,-293,0,0,0,0,0,0,0,0,0,-1,1308,1317,0,0
91,-293,0,0,0,0,0,0,0,0,0,-1,1315,1317,0,0
98,-293,0,0,0,0,0,0,0,0,0,-1,1322,1317,0,0
105,-293,0,0,0,0,0,0,0,0,0,-1,1329,1317,0,0
112,-293,0,0,0,0,0,0,0,0,0,-1,1336,1317,0,0
119,-293,0,0,0,0,0,0,0,0,0,-1,1343,1317,0,0
126,-293,0,0,0,0,0,0,0,0,0,-1,1350,1317,0,0
133,-293,0,0,0,0,0,0,0,0,0,-1,1357,1317,0,0
140,-293,0,0,0,0,0,0,0,0,0,-1,1364,1317,0,0
147,-293,0,0,0,0,0,0,0,0,0,-1,1371,1317,0,0
154,-293,0,0,0,0,0,0,0,0,0,-1,1378,1317,0,0
161,-293,0,0,0,0,0,0,0,0,0,-1,1385,1317,0,0
168,-293,0,0,0,0,0,0,0,0,0,-1,1392,1317,0,0
175,-293,0,0,0,0,0,0,0,0,0,-1,1399,1317,0,0
182,-293,0,0,0,0,0,0,0,0,0,-1,1406,1317,0,0
189,-293,0,0,0,0,0,0,0,0,0,-1,1413,1317,0,0
196,-293,0,0,0,0,0,0,0,0,0,-1,1420,1317,0,0
203,-293,0,0,0,0,0,0,0,0,0,-1,1427,1317,0,0
210,-293,0,0,0,0,0,0,0,0,0,-1,1434,1317,0,0
217,-293,0,0,0,0,0,0,0,0,0,-1,1441,1317,0,0
224,-293,0,0,0,0,0,0,0,0,0,-1,1448,1317,0,0
231,-293,0,0,0,0,0,0,0,0,0,-1,1455,1317,0,0
238,-293,0,0,0,0,0,0,0,0,0,-1,1462,1317,0,0
245,-293,0,0,0,0,0,0,0,0,0,-1,1469,1317,0,0
252,-293,0,0,0,0,0,0,0,0,0,-1,1476,1317,0,0
259,-293,0,0,0,0,0,0,0,0,0,-1,1483,1317,0,0
266,-293,0,0,0,0,0,0,0,0,0,-1,1490,1317,0,0
273,-293,0,0,0,0,0,0,0,0,0,-1,1497,1317,0,0
280,-293,0,0,0,0,0,0,0,0,0,-1,1504,1317,0,0
287,-293,0,0,0,0,0,0,0,0,0,-1,1511,1317,0,0
294,-293,0,0,0,0,0,0,0,0,0,-1,1518,1317,0,0
301,-293,0,0,0,0,0,0,0,0,0,-1,1525,1317,0,0
308,-293,0,0,0,0,0,0,0,0,0,-1,1532,1317,0,0
315,-293,0,0,0,0,0,0,0,0,0,-1,1539,1317,0,0
322,-293,0,0,0,0,0,0,0,0,0,-1,1546,1317,0,0
329,-293,0,0,0,0,0,0,0,0,0,-1,1553,1317,0,0
336,-293,0,0,0,0,0,0,0,0,0,-1,1560,1317,0,0
343,-293,0,0,0,0,0,0,0,0,0,-1,1567,1317,0,0
350,-293,0,0,0,0,0,0,0,0,0,-1,1574,1317,0,0
357,-293,0,0,0,0,0,0,0,0,0,-1,1581,1317,0,0
364,-293,0,0,0,0,0,0,0,0,0,-1,1588,1317,0,0
371,-293,0,0,0,0,0,0,0,0,0,-1,1595,1317,0,0
378,-293,0,0,0,0,0,0,0,0,0,-1,1602,1317,0,0
385,-293,0,0,0,0,0,0,0,0,0,-1,1609,1317,0,0
392,-293,0,0,0,0,0,0,0,0,0,-1,1616,1317,0,0
399,-293,0,0,0,0,0,0,0,0,0,-1,1623,1317,0,0
406,-293,0,0,0,0,0,0,0,0,0,-1,1630,1317,0,0
413,-293,0,0,0,0,0,0,0,0,0,-1,1637,1317,0,0
420,-293,0,0,0,0,0,0,0,0,0,-1,1644,1317,0,0
427,-293,0,0,0,0,0,0,0,0,0,-1,1651,1317,0,0
434,-293,0,0,0,0,0,0,0,0,0,-1,1658,1317,0,0
441,-293,0,0,0,0,0,0,0,0,0,-1,1665,1317,0,0
448,-293,0,0,0,0,0,0,0,0,0,-1,1672,1317,0,0
455,-293,0,0,0,0,0,0,0,0,0,-1,1679,1317,0,0
462,-293,0,0,0,0,0,0,0,0,0,-1,1686,1317,0,0
469,-293,0,0,0,0,0,0,0,0,0,-1,1693,1317,0,0
476,-293,0,0,0,0,0,0,0,0,0,-1,1700,1317,0,0
483,-293,0,0,0,0,0,0,0,0,0,-1,1707,1317,0,0
490,-293,0,0,0,0,0,0,0,0,0,-1,1714,1317,0,0
497,-293,0,0,0,0,0,0,0,0,0,-1,1721,1317,0,0
504,-293,0,0,0,0,0,0,0,0,0,-1,1728,1317,0,0
511,-293,0,0,0,0,0,0,0,0,0,-1,1735,1317,0,0
518,-293,0,0,0,0,0,0,0,0,0,-1,1742,1317,0,0
525,-293,0,0,0,0,0,0,0,0,0,-1,1749,1317,0,0
532,-293,0,0,0,0,0,0,0,0,0,-1,1756,1317,0,0
539,-293,0,0,0,0,0,0,0,0,0,-1,1763,1317,0,0
546,-293,0,0,0,0,0,0,0,0,0,-1,1770,1317,0,0
553,-293,0,0,0,0,0,0,0,0,0,-1,1777,1317,0,0
560,-293,0,0,0,0,0,0,0,0,0,-1,1784,1317,0,0
567,-293,0,0,0,0,0,0,0,0,0,-1,1791,1317,0,0
574,-293,0,0,0,0,0,0,0,0,0,-1,1798,1317,0,0
581,-293,0,0,0,0,0,0,0,0,0,-1,1805,1317,0,0
588,-293,0,0,0,0,0,0,0,0,0,-1,1812,1317,0,0
595,-293,29.1405,2.60718,-0.00989821,0.0734478,-0.023867,0.0797985,-0.0162489,-1.31074,0.0593613,0.0451086,1819,1317,29.1406,-2.60713
602,-293,29.5098,2.40942,-0.0203382,0.0676598,-0.0177569,0.0711078,-0.0237862,-1.379,0.0570126,0.0466226,1826,1317,29.5098,-2.40942
609,-293,28.5027,1.41638,-0.0275922,0.0606419,-0.0108192,0.0619492,-0.0288994,-1.45055,0.0535959,0.0479899,1833,1317,28.5027,-1.41644
616,-293,28.4142,1.03516,-0.0305749,0.0512649,-0.00497421,0.0515661,-0.0308761,-1.51031,0.0480951,0.0433957,1840,1317,28.4142,-1.03515
623,-293,28.6064,0.625,0,0,0,0,0,0,0,-1,1847,1317,28.6065,-0.625001
630,-293,25.4348,0.516846,0,0,0,0,0,0,0,-1,1854,1317,25.4349,-0.516838
637,-293,25.4058,0.67334,0,0,0,0,0,0,0,-1,1861,1317,25.4057,-0.673398
644,-293,24.4565,0.520752,0,0,0,0,0,0,0,-1,1868,1317,24.4566,-0.520709
651,-293,22.7675,7.42896,0,0,0,0,0,0,0,-1,1875,1317,22.7674,-7.42901
658,-293,22.3334,7.42981,-0.0225217,0.0107285,0.00959624,0.0132992,-0.0250925,1.30905,0.0225113,0.0435305,1882,1317,22.3333,-7.42978
665,-293,21.8367,7.3822,-0.0201008,0.0082337,0.0103123,0.0115894,-0.0234565,1.25619,0.0206168,0.0454268,1889,1317,21.8367,-7.38222
672,-293,21.4138,7.34399,-0.0179278,0.00492783,0.0100885,0.00874379,-0.0217438,1.20918,0.0181276,0.0211917,1896,1317,21.4139,-7.34399
679,-293,21.3923,7.0636,-0.0126016,0.00192163,0.00834406,0.0057214,-0.0164014,1.14347,0.0132594,0.012738,1903,1317,21.3924,-7.06356
686,-293,21.4102,6.77661,-0.00729461,-0.000483156,0.00587091,0.00289835,-0.0106761,1.04823,0.00825491,0.0155429,1910,1317,21.4102,-6.77662
693,-293,21.3947,6.50977,-0.00399528,-0.00127061,0.00374577,0.00135287,-0.00661876,0.959812,0.00492579,0.0126814,1917,1317,21.3947,-6.50982
700,-293,21.3917,6.22803,-0.00200843,-0.00124477,0.00194083,0.000351438,-0.00360464,0.882525,0.00252839,0.0111195,1924,1317,21.3918,-6.22803
707,-293,21.379,5.97766,-0.000632124,-0.000220339,0.00114169,0.000733877,-0.00158634,0.874609,0.00136938,0.0113835,1931,1317,21.379,-5.9777
714,-293,21.361,5.7113,0.000691404,0.000966689,0.000638734,0.00148244,0.00017565,0.891522,0.00093526,0.00810068,1938,1317,21.3609,-5.71134
721,-293,21.3794,5.43213,0.00184625,0.0017694,0.000368607,0.00217843,0.00143722,0.733465,0.00127893,0.00938202,1945,1317,21.3794,-5.43218
728,-293,21.3669,5.14087,0.00316513,0.00272797,5.90378e-05,0.00317297,0.00272013,0.131899,0.00198169,0.0112554,1952,1317,21.367,-5.14087
735,-293,21.3627,4.85645,0.00518709,0.00381835,-0.00057617,0.00539734,0.00360811,-0.349885,0.00317459,0.0182,1959,1317,21.3627,-4.85644
742,-293,21.3741,4.56274,0.00849314,0.00534974,-0.00170424,0.00923978,0.00460311,-0.412918,0.0053346,0.0351933,1966,1317,21.3741,-4.56278
749,-293,21.5933,4.05786,0.0133806,0.00734712,-0.0036362,0.0150885,0.00563917,-0.439121,0.00880347,0.0424244,1973,1317,21.5933,-4.05783
756,-293,22.0808,3.36084,0,0,0,0,0,0,0,-1,1980,1317,22.0808,-3.36079
763,-293,26.6713,4.74097,0,0,0,0,0,0,0,-1,1987,1317,26.6713,-4.74098
770,-293,24.1349,4.69153,0,0,0,0,0,0,0,-1,1994,1317,24.1348,-4.69159
777,-293,0,0,0,0,0,0,0,0,0,-1,2001,1317,0,0
784,-293,0,0,0,0,0,0,0,0,0,-1,2008,1317,0,0
791,-293,0,0,0,0,0,0,0,0,0,-1,2015,1317,0,0
798,-293,0,0,0,0,0,0,0,0,0,-1,2022,1317,0,0
805,-293,0,0,0,0,0,0,0,0,0,-1,2029,1317,0,0
812,-293,0,0,0,0,0,0,0,0,0,-1,2036,1317,0,0
-700,-300,0,0,0,0,0,0,0,0,0,-1,524,1324,0,0
-693,-300,0,0,0,0,0,0,0,0,0,-1,531,1324,0,0
-686,-300,0,0,0,0,0,0,0,0,0,-1,538,1324,0,0
-679,-300,0,0,0,0,0,0,0,0,0,-1,545,1324,0,0
-672,-300,0,0,0,0,0,0,0,0,0,-1,552,1324,0,0
-665,-300,0,0,0,0,0,0,0,0,0,-1,559,1324,0,0
-658,-300,0,0,0,0,0,0,0,0,0,-1,566,1324,0,0
-651,-300,-10.6113,1.42542,0,0,0,0,0,0,0,-1,573,1324,-10.6113,-1.42536
-644,-300,-10.8319,1.00647,0,0,0,0,0,0,0,-1,580,1324,-10.8319,-1.00642
-637,-300,-11.2341,0.356812,0,0,0,0,0,0,0,-1,587,1324,-11.2342,-0.356829
-630,-300,-11.3566,0.395752,0,0,0,0,0,0,0,-1,594,1324,-11.3566,-0.395698
-623,-300,-11.0955,0.18457,0,0,0,0,0,0,0,-1,601,1324,-11.0955,-0.184518
-616,-300,-9.85022,-1.79883,0,0,0,0,0,0,0,-1,608,1324,-9.8502,1.79881
-609,-300,-11.2162,2.17847,0,0,0,0,0,0,0,-1,615,1324,-11.2163,-2.17844
-602,-300,-11.1212,2.53479,0.0183686,0.000829772,-0.00213333,0.0186244,0.000574015,-0.119317,0.0122294,0.0428871,622,1324,-11.1212,-2.53474
-595,-300,-11.3446,2.83386,0.0096996,0.00089477,-0.00156008,0.00996785,0.000626522,-0.17028,0.00644655,0.0229028,629,1324,-11.3446,-2.83385
-588,-300,-11.2916,3.16394,0.00305819,-3.8672e-05,-0.000345257,0.00309621,-7.66965e-05,-0.109692,0.00209018,0.0203815,636,1324,-11.2916,-3.16395
-581,-300,-11.3024,3.49219,-0.000389734,0.000611929,-0.000253481,0.000672422,-0.000450227,-1.33653,0.00065238,0.0206197,643,1324,-11.3024,-3.49219
-574,-300,-11.3022,3.81067,0.000156517,0.000296721,-0.000130243,0.000374529,7.87083e-05,-1.03228,0.000228024,0.0160033,650,1324,-11.3022,-3.81068
-567,-300,-11.3334,4.08899,0.000699414,9.8514e-06,1.4578e-05,0.000699722,9.54335e-06,0.0211283,0.000463333,0.0164357,657,1324,-11.3335,-4.08904
-560,-300,-11.3398,4.40698,0.00127904,-0.000200108,1.54975e-05,0.0012792,-0.00020027,0.0104758,0.000926796,0.0149619,664,1324,-11.3398,-4.40692
-553,-300,-11.3085,4.71021,0.00190003,-0.000353828,1.80921e-05,0.00190017,-0.000353973,0.0080265,0.00139977,0.0100029,671,1324,-11.3086,-4.71022
-546,-300,-11.316,5.0271,0.00246035,-0.000569856,-8.10525e-05,0.00246251,-0.000572022,-0.0267227,0.00186188,0.00889902,678,1324,-11.3161,-5.02716
-539,-300,-11.2913,5.35706,0.00297863,-0.00090846,-0.000427183,0.00302502,-0.000954853,-0.108178,0.00239916,0.0175509,685,1324,-11.2913,-5.35704
-532,-300,-11.5498,5.49524,0.00376397,-0.00120465,-0.000856638,0.00390752,-0.00134819,-0.166026,0.00315203,0.0478227,692,1324,-11.5498,-5.49523
-525,-300,-11.806,5.46216,0,0,0,0,0,0,0,-1,699,1324,-11.806,-5.46221
-518,-300,-9.8349,-0.537109,0,0,0,0,0,0,0,-1,706,1324,-9.83487,0.537068
-511,-300,-12.8644,0.081665,0,0,0,0,0,0,0,-1,713,1324,-12.8644,-0.0817016
-504,-300,-13.4829,-0.165527,0,0,0,0,0,0,0,-1,720,1324,-13.4829,0.165544
-497,-300,-18.1063,0.956543,0,0,0,0,0,0,0,-1,727,1324,-18.1063,-0.9565
-490,-300,-18.2293,1.53625,0,0,0,0,0,0,0,-1,734,1324,-18.2293,-1.53626
-483,-300,-18.3522,1.61084,0,0,0,0,0,0,0,-1,741,1324,-18.3522,-1.6108
-476,-300,-18.7489,1.96387,0,0,0,0,0,0,0,-1,748,1324,-18.7489,-1.96387
-469,-300,0,0,0,0,0,0,0,0,0,-1,755,1324,0,0
-462,-300,0,0,0,0,0,0,0,0,0,-1,762,1324,0,0
-455,-300,0,0,0,0,0,0,0,0,0,-1,769,1324,0,0
-448,-300,0,0,0,0,0,0,0,0,0,-1,776,1324,0,0
-441,-300,0,0,0,0,0,0,0,0,0,-1,783,1324,0,0
-434,-300,0,0,0,0,0,0,0,0,0,-1,790,1324,0,0
-427,-300,0,0,0,0,0,0,0,0,0,-1,797,1324,0,0
-420,-300,0,0,0,0,0,0,0,0,0,-1,804,1324,0,0
-413,-300,0,0,0,0,0,0,0,0,0,-1,811,1324,0,0
-406,-300,0,0,0,0,0,0,0,0,0,-1,818,1324,0,0
-399,-300,0,0,0,0,0,0,0,0,0,-1,825,1324,0,0
-392,-300,0,0,0,0,0,0,0,0,0,-1,832,1324,0,0
-385,-300,0,0,0,0,0,0,0,0,0,-1,839,1324,0,0
-378,-300,0,0,0,0,0,0,0,0,0,-1,846,1324,0,0
-371,-300,0,0,0,0,0,0,0,0,0,-1,853,1324,0,0
-364,-300,0,0,0,0,0,0,0,0,0,-1,860,1324,0,0
-357,-300,0,0,0,0,0,0,0,0,0,-1,867,1324,0,0
-350,-300,0,0,0,0,0,0,0,0,0,-1,874,1324,0,0
-343,-300,0,0,0,0,0,0,0,0,0,-1,881,1324,0,0
-336,-300,0,0,0,0,0,0,0,0,0,-1,888,1324,0,0
-329,-300,0,0,0,0,0,0,0,0,0,-1,895,1324,0,0
-322,-300,0,0,0,0,0,0,0,0,0,-1,902,1324,0,0
-315,-300,0,0,0,0,0,0,0,0,0,-1,909,1324,0,0
-308,-300,0,0,0,0,0,0,0,0,0,-1,916,1324,0,0
-301,-300,0,0,0,0,0,0,0,0,0,-1,923,1324,0,0
-294,-300,0,0,0,0,0,0,0,0,0,-1,930,1324,0,0
-287,-300,0,0,0,0,0,0,0,0,0,-1,937,1324,0,0
-280,-300,0,0,0,0,0,0,0,0,0,-1,944,1324,0,0
-273,-300,0,0,0,0,0,0,0,0,0,-1,951,1324,0,0
-266,-300,0,0,0,0,0,0,0,0,0,-1,958,1324,0,0
-259,-300,0,0,0,0,0,0,0,0,0,-1,965,1324,0,0
-252,-300,0,0,0,0,0,0,0,0,0,-1,972,1324,0,0
-245,-300,0,0,0,0,0,0,0,0,0,-1,979,1324,0,0
-238,-300,0,0,0,0,0,0,0,0,0,-1,986,1324,0,0
-231,-300,0,0,0,0,0,0,0,0,0,-1,993,1324,0,0
-224,-300,0,0,0,0,0,0,0,0,0,-1,1000,1324,0,0
-217,-300,0,0,0,0,0,0,0,0,0,-1,1007,1324,0,0
-210,-300,0,0,0,0,0,0,0,0,0,-1,1014,1324,0,0
-203,-300,0,0,0,0,0,0,0,0,0,-1,1021,1324,0,0
-196,-300,0,0,0,0,0,0,0,0,0,-1,1028,1324,0,0
-189,-300,0,0,0,0,0,0,0,0,0,-1,1035,1324,0,0
-182,-300,0,0,0,0,0,0,0,0,0,-1,1042,1324,0,0
-175,-300,0,0,0,0,0,0,0,0,0,-1,1049,1324,0,0
-168,-300,0,0,0,0,0,0,0,0,0,-1,1056,1324,0,0
-161,-300,0,0,0,0,0,0,0,0,0,-1,1063,1324,0,0
-154,-300,0,0,0,0,0,0,0,0,0,-1,1070,1324,0,0
-147,-300,0,0,0,0,0,0,0,0,0,-1,1077,1324,0,0
-140,-300,0,0,0,0,0,0,0,0,0,-1,1084,1324,0,0
-133,-300,0,0,0,0,0,0,0,0,0,-1,1091,1324,0,0
-126,-300,0,0,0,0,0,0,0,0,0,-1,1098,1324,0,0
-119,-300,0,0,0,0,0,0,0,0,0,-1,1105,1324,0,0
-112,-300,0,0,0,0,0,0,0,0,0,-1,1112,1324,0,0
-105,-300,0,0,0,0,0,0,0,0,0,-1,1119,1324,0,0
-98,-300,0,0,0,0,0,0,0,0,0,-1,1126,1324,0,0
-91,-300,0,0,0,0,0,0,0,0,0,-1,1133,1324,0,0
-84,-300,0,0,0,0,0,0,0,0,0,-1,1140,1324,0,0
-77,-300,0,0,0,0,0,0,0,0,0,-1,1147,1324,0,0
-70,-300,0,0,0,0,0,0,0,0,0,-1,1154,1324,0,0
-63,-300,0,0,0,0,0,0,0,0,0,-1,1161,1324,0,0
-56,-300,0,0,0,0,0,0,0,0,0,-1,1168,1324,0,0
-49,-300,0,0,0,0,0,0,0,0,0,-1,1175,1324,0,0
-42,-300,0,0,0,0,0,0,0,0,0,-1,1182,1324,0,0
-35,-300,0,0,0,0,0,0,0,0,0,-1,1189,1324,0,0
-28,-300,0,0,0,0,0,0,0,0,0,-1,1196,1324,0,0
-21,-300,0,0,0,0,0,0,0,0,0,-1,1203,1324,0,0
-14,-300,0,0,0,0,0,0,0,0,0,-1,1210,1324,0,0
-7,-300,0,0,0,0,0,0,0,0,0,-1,1217,1324,0,0
0,-300,0,0,0,0,0,0,0,0,0,-1,1224,1324,0,0
7,-300,0,0,0,0,0,0,0,0,0,-1,1231,1324,0,0
14,-300,0,0,0,0,0,0,0,0,0,-1,1238,1324,0,0
21,-300,0,0,0,0,0,0,0,0,0,-1,1245,1324,0,0
28,-300,0,0,0,0,0,0,0,0,0,-1,1252,1324,0,0
35,-300,0,0,0,0,0,0,0,0,0,-1,1259,1324,0,0
42,-300,0,0,0,0,0,0,0,0,0,-1,1266,1324,0,0
49,-300,0,0,0,0,0,0,0,0,0,-1,1273,1324,0,0
56,-300,0,0,0,0,0,0,0,0,0,-1,1280,1324,0,0
63,-300,0,0,0,0,0,0,0,0,0,-1,1287,1324,0,0
70,-300,0,0,0,0,0,0,0,0,0,-1,1294,1324,0,0
77,-300,0,0,0,0,0,0,0,0,0,-1,1301,1324,0,0
84,-300,0,0,0,0,0,0,0,0,0,-1,1308,1324,0,0
91,-300,0,0,0,0,0,0,0,0,0,-1,1315,1324,0,0
98,-300,0,0,0,0,0,0,0,0,0,-1,1322,1324,0,0
105,-300,0,0,0,0,0,0,0,0,0,-1,1329,1324,0,0
112,-300,0,0,0,0,0,0,0,0,0,-1,1336,1324,0,0
119,-300,0,0,0,0,0,0,0,0,0,-1,1343,1324,0,0
126,-300,0,0,0,0,0,0,0,0,0,-1,1350,1324,0,0
133,-300,0,0,0,0,0,0,0,0,0,-1,1357,1324,0,0
140,-300,0,0,0,0,0,0,0,0,0,-1,1364,1324,0,0
147,-300,0,0,0,0,0,0,0,0,0,-1,1371,1324,0,0
154,-300,0,0,0,0,0,0,0,0,0,-1,1378,1324,0,0
161,-300,0,0,0,0,0,0,0,0,0,-1,1385,1324,0,0
168,-300,0,0,0,0,0,0,0,0,0,-1,1392,1324,0,0
175,-300,0,0,0,0,0,0,0,0,0,-1,1399,1324,0,0
182,-300,0,0,0,0,0,0,0,0,0,-1,1406,1324,0,0
189,-300,0,0,0,0,0,0,0,0,0,-1,1413,1324,0,0
196,-300,0,0,0,0,0,0,0,0,0,-1,1420,1324,0,0
203,-300,0,0,0,0,0,0,0,0,0,-1,1427,1324,0,0
210,-300,0,0,0,0,0,0,0,0,0,-1,1434,1324,0,0
217,-300,0,0,0,0,0,0,0,0,0,-1,1441,1324,0,0
224,-300,0,0,0,0,0,0,0,0,0,-1,1448,1324,0,0
231,-300,0,0,0,0,0,0,0,0,0,-1,1455,1324,0,0
238,-300,0,0,0,0,0,0,0,0,0,-1,1462,1324,0,0
245,-300,0,0,0,0,0,0,0,0,0,-1,1469,1324,0,0
252,-300,0,0,0,0,0,0,0,0,0,-1,1476,1324,0,0
259,-300,0,0,0,0,0,0,0,0,0,-1,1483,1324,0,0
266,-300,0,0,0,0,0,0,0,0,0,-1,1490,1324,0,0
273,-300,0,0,0,0,0,0,0,0,0,-1,1497,1324,0,0
280,-300,0,0,0,0,0,0,0,0,0,-1,1504,1324,0,0
287,-300,0,0,0,0,0,0,0,0,0,-1,1511,1324,0,0
294,-300,0,0,0,0,0,0,0,0,0,-1,1518,1324,0,0
301,-300,0,0,0,0,0,0,0,0,0,-1,1525,1324,0,0
308,-300,0,0,0,0,0,0,0,0,0,-1,1532,1324,0,0
315,-300,0,0,0,0,0,0,0,0,0,-1,1539,1324,0,0
322,-300,0,0,0,0,0,0,0,0,0,-1,1546,1324,0,0
329,-300,0,0,0,0,0,0,0,0,0,-1,1553,1324,0,0
336,-300,0,0,0,0,0,0,0,0,0,-1,1560,1324,0,0
343,-300,0,0,0,0,0,0,0,0,0,-1,1567,1324,0,0
350,-300,0,0,0,0,0,0,0,0,0,-1,1574,1324,0,0
357,-300,0,0,0,0,0,0,0,0,0,-1,1581,1324,0,0
364,-300,0,0,0,0,0,0,0,0,0,-1,1588,1324,0,0
371,-300,0,0,0,0,0,0,0,0,0,-1,1595,1324,0,0
378,-300,0,0,0,0,0,0,0,0,0,-1,1602,1324,0,0
385,-300,0,0,0,0,0,0,0,0,0,-1,1609,1324,0,0
392,-300,0,0,0,0,0,0,0,0,0,-1,1616,1324,0,0
399,-300,0,0,0,0,0,0,0,0,0,-1,1623,1324,0,0
406,-300,0,0,0,0,0,0,0,0,0,-1,1630,1324,0,0
413,-300,0,0,0,0,0,0,0,0,0,-1,1637,1324,0,0
420,-300,0,0,0,0,0,0,0,0,0,-1,1644,1324,0,0
427,-300,0,0,0,0,0,0,0,0,0,-1,1651,1324,0,0
434,-300,0,0,0,0,0,0,0,0,0,-1,1658,1324,0,0
441,-300,0,0,0,0,0,0,0,0,0,-1,1665,1324,0,0
448,-300,0,0,0,0,0,0,0,0,0,-1,1672,1324,0,0
455,-300,0,0,0,0,0,0,0,0,0,-1,1679,1324,0,0
462,-300,0,0,0,0,0,0,0,0,0,-1,1686,1324,0,0
469,-300,0,0,0,0,0,0,0,0,0,-1,1693,1324,0,0
476,-300,0,0,0,0,0,0,0,0,0,-1,1700,1324,0,0
483,-300,0,0,0,0,0,0,0,0,0,-1,1707,1324,0,0
490,-300,0,0,0,0,0,0,0,0,0,-1,1714,1324,0,0
497,-300,0,0,0,0,0,0,0,0,0,-1,1721,1324,0,0
504,-300,0,0,0,0,0,0,0,0,0,-1,1728,1324,0,0
511,-300,0,0,0,0,0,0,0,0,0,-1,1735,1324,0,0
518,-300,0,0,0,0,0,0,0,0,0,-1,1742,1324,0,0
525,-300,0,0,0,0,0,0,0,0,0,-1,1749,1324,0,0
532,-300,0,0,0,0,0,0,0,0,0,-1,1756,1324,0,0
539,-300,0,0,0,0,0,0,0,0,0,-1,1763,1324,0,0
546,-300,0,0,0,0,0,0,0,0,0,-1,1770,1324,0,0
553,-300,0,0,0,0,0,0,0,0,0,-1,1777,1324,0,0
560,-300,0,0,0,0,0,0,0,0,0,-1,1784,1324,0,0
567,-300,0,0,0,0,0,0,0,0,0,-1,1791,1324,0,0
574,-300,0,0,0,0,0,0,0,0,0,-1,1798,1324,0,0
581,-300,0,0,0,0,0,0,0,0,0,-1,1805,1324,0,0
588,-300,29.0778,2.06433,0,0,0,0,0,0,0,-1,1812,1324,29.0778,-2.06428
595,-300,28.9833,1.41345,-0.0188435,0.0796701,-0.0215151,0.0841639,-0.0233374,-1.36489,0.0652938,0.04309,1819,1324,28.9833,-1.4135
602,-300,28.7681,0.999023,-0.0267521,0.0729843,-0.0164746,0.0756352,-0.029403,-1.41126,0.0625713,0.0497882,1826,1324,28.7681,-0.998984
609,-300,28.2544,1.14124,-0.030083,0.063123,-0.0110388,0.0644125,-0.0313726,-1.4545,0.0563876,0.0458216,1833,1324,28.2544,-1.14126
616,-300,28.2611,0.869141,-0.0303458,0.0530965,-0.006723,0.0536347,-0.030884,-1.49091,0.0493827,0.0425376,1840,1324,28.2611,-0.869113
623,-300,28.4755,0.654541,0,0,0,0,0,0,0,-1,1847,1324,28.4755,-0.654494
630,-300,28.6632,0.403198,0,0,0,0,0,0,0,-1,1854,1324,28.6632,-0.403228
637,-300,26.0989,2.27869,0,0,0,0,0,0,0,-1,1861,1324,26.0988,-2.27872
644,-300,22.9836,3.44934,0,0,0,0,0,0,0,-1,1868,1324,22.9836,-3.4493
651,-300,21.9877,8.03857,0,0,0,0,0,0,0,-1,1875,1324,21.9877,-8.03862
658,-300,21.5552,7.93054,-0.021499,0.00911432,0.00880862,0.0114679,-0.0238526,1.3097,0.020806,0.0441712,1882,1324,21.5552,-7.93057
665,-300,21.2384,7.63733,-0.0192319,0.00666136,0.00982981,0.00997021,-0.0225407,1.2461,0.0192322,0.0377538,1889,1324,21.2384,-7.63729
672,-300,21.0994,7.38745,-0.0169266,0.0033025,0.00960244,0.00713468,-0.0207587,1.19108,0.0167323,0.0124388,1896,1324,21.0994,-7.38749
679,-300,21.1265,7.0752,-0.0115564,0.000641532,0.0076782,0.00434828,-0.0152632,1.12103,0.0118929,0.0110388,1903,1324,21.1265,-7.07516
686,-300,21.135,6.7948,-0.00670571,-0.0011451,0.00527043,0.00203342,-0.00988423,1.02811,0.0073615,0.0119552,1910,1324,21.135,-6.79478
693,-300,21.1102,6.53015,-0.0038346,-0.00142349,0.00335946,0.000940171,-0.00619826,0.957669,0.00447858,0.0110905,1917,1324,21.1103,-6.53018
700,-300,21.1122,6.23547,-0.00202666,-0.00104422,0.00187412,0.00040199,-0.00347287,0.913568,0.00246021,0.0122467,1924,1324,21.1122,-6.23544
707,-300,21.0973,5.94763,-0.000790243,3.02764e-05,0.00126376,0.000948704,-0.00170867,0.942348,0.00155501,0.0088509,1931,1324,21.0973,-5.94769
714,-300,21.1061,5.69739,0.000304117,0.00116087,0.000902593,0.00173159,-0.000266595,1.00696,0.00125275,0.0106877,1938,1324,21.106,-5.69737
721,-300,21.1167,5.43103,0.00117911,0.00201777,0.000791198,0.00249389,0.000702989,1.02907,0.00148481,0.0120826,1945,1324,21.1167,-5.43106
728,-300,21.1191,5.13062,0.00222434,0.00311489,0.000622595,0.00343506,0.00190418,1.09582,0.00198713,0.011154,1952,1324,21.1191,-5.13064
735,-300,21.0144,4.96008,0.00404112,0.00440717,8.59047e-05,0.00442633,0.00402196,1.35138,0.00282576,0.0216159,1959,1324,21.0145,-4.96012
742,-300,21.2074,4.63745,0,0,0,0,0,0,0,-1,1966,1324,21.2073,-4.63746
749,-300,21.5526,3.9198,0,0,0,0,0,0,0,-1,1973,1324,21.5526,-3.91979
756,-300,22.0143,3.1908,0,0,0,0,0,0,0,-1,1980,1324,22.0143,-3.19076
763,-300,22.6136,5.1571,0,0,0,0,0,0,0,-1,1987,1324,22.6136,-5.15706
770,-300,24.859,4.77979,0,0,0,0,0,0,0,-1,1994,1324,24.859,-4.77972
777,-300,0,0,0,0,0,0,0,0,0,-1,2001,1324,0,0
784,-300,0,0,0,0,0,0,0,0,0,-1,2008,1324,0,0
791,-300,0,0,0,0,0,0,0,0,0,-1,2015,1324,0,0
798,-300,0,0,0,0,0,0,0,0,0,-1,2022,1324,0,0
805,-300,0,0,0,0,0,0,0,0,0,-1,2029,1324,0,0
812,-300,0,0,0,0,0,0,0,0,0,-1,2036,1324,0,0
-700,-307,0,0,0,0,0,0,0,0,0,-1,524,1331,0,0
-693,-307,0,0,0,0,0,0,0,0,0,-1,531,1331,0,0
-686,-307,0,0,0,0,0,0,0,0,0,-1,538,1331,0,0
-679,-307,0,0,0,0,0,0,0,0,0,-1,545,1331,0,0
-672,-307,0,0,0,0,0,0,0,0,0,-1,552,1331,0,0
-665,-307,0,0,0,0,0,0,0,0,0,-1,559,1331,0,0
-658,-307,0,0,0,0,0,0,0,0,0,-1,566,1331,0,0
-651,-307,-10.3561,0.239624,0,0,0,0,0,0,0,-1,573,1331,-10.3561,-0.239604
-644,-307,-10.5945,-0.283569,0,0,0,0,0,0,0,-1,580,1331,-10.5945,0.283579
-637,-307,-11.2653,-0.424316,0,0,0,0,0,0,0,-1,587,1331,-11.2653,0.424281
-630,-307,-10.9397,-0.361328,0,0,0,0,0,0,0,-1,594,1331,-10.9397,0.36137
-623,-307,-10.0809,-1.50073,0,0,0,0,0,0,0,-1,601,1331,-10.0809,1.50075
-616,-307,-9.23279,-3.02185,0,0,0,0,0,0,0,-1,608,1331,-9.23278,3.02184
-609,-307,-7.97198,-4.56897,0,0,0,0,0,0,0,-1,615,1331,-7.972,4.56896
-602,-307,-11.0269,2.52942,0,0,0,0,0,0,0,-1,622,1331,-11.0269,-2.52946
-595,-307,-11.063,2.86755,0.00234943,-0.000649997,-0.000518706,0.0024366,-0.000737166,-0.166496,0.00191794,0.0258695,629,1331,-11.0631,-2.86751
-588,-307,-10.9823,3.19617,-0.000320935,-0.000410319,-0.000496552,0.000132932,-0.000864186,-0.740517,0.000625164,0.0192012,636,1331,-10.9823,-3.19617
-581,-307,-10.982,3.50012,-0.000965796,0.000216303,-0.000671759,0.000520016,-0.00126951,-1.14618,0.00106296,0.0170256,643,1331,-10.982,-3.50013
-574,-307,-10.9924,3.78442,-0.000298224,1.27084e-05,-0.000469269,0.000351593,-0.000637109,-0.945355,0.000578707,0.0138748,650,1331,-10.9924,-3.78446
-567,-307,-11.0097,4.08521,0.000378208,-0.000172295,-0.000251239,0.000475628,-0.000269716,-0.36991,0.000435764,0.0134857,657,1331,-11.0097,-4.08522
-560,-307,-10.9996,4.4093,0.0010849,-0.000308784,-0.000162405,0.00110358,-0.000327458,-0.114486,0.000865764,0.0137964,664,1331,-10.9996,-4.40935
-553,-307,-10.9938,4.72925,0.00183312,-0.000402825,-7.13036e-05,0.00183539,-0.000405097,-0.0318465,0.00137861,0.0105895,671,1331,-10.9938,-4.72923
-546,-307,-11.0067,5.04102,0.00259827,-0.000551625,-5.02821e-05,0.00259907,-0.000552427,-0.0159577,0.00194321,0.0103206,678,1331,-11.0067,-5.04102
-539,-307,-10.9906,5.37537,0.00337752,-0.000804668,-0.000211119,0.00338815,-0.000815298,-0.0503101,0.00257394,0.0138486,685,1331,-10.9906,-5.37535
-532,-307,-10.9399,5.58972,0.00445628,-0.00102115,-0.000398202,0.00448508,-0.00104995,-0.0721926,0.0033946,0.0430479,692,1331,-10.9399,-5.58967
-525,-307,-11.1241,5.78418,0,0,0,0,0,0,0,-1,699,1331,-11.1242,-5.78412
-518,-307,-9.77777,-1.56653,0,0,0,0,0,0,0,-1,706,1331,-9.77777,1.56651
-511,-307,-12.5226,0.26709,0,0,0,0,0,0,0,-1,713,1331,-12.5226,-0.267038
-504,-307,-12.5913,-0.308105,0,0,0,0,0,0,0,-1,720,1331,-12.5913,0.308124
-497,-307,-13.8586,-0.115845,0,0,0,0,0,0,0,-1,727,1331,-13.8587,0.115861
-490,-307,-17.9429,0.982178,0,0,0,0,0,0,0,-1,734,1331,-17.9429,-0.982198
-483,-307,-18.1066,0.927612,0,0,0,0,0,0,0,-1,741,1331,-18.1066,-0.927609
-476,-307,-18.1288,1.1228,0,0,0,0,0,0,0,-1,748,1331,-18.1289,-1.12286
-469,-307,-18.2028,0.798584,0,0,0,0,0,0,0,-1,755,1331,-18.2027,-0.798546
-462,-307,0,0,0,0,0,0,0,0,0,-1,762,1331,0,0
-455,-307,0,0,0,0,0,0,0,0,0,-1,769,1331,0,0
-448,-307,0,0,0,0,0,0,0,0,0,-1,776,1331,0,0
-441,-307,0,0,0,0,0,0,0,0,0,-1,783,1331,0,0
-434,-307,0,0,0,0,0,0,0,0,0,-1,790,1331,0,0
-427,-307,0,0,0,0,0,0,0,0,0,-1,797,1331,0,0
-420,-307,0,0,0,0,0,0,0,0,0,-1,804,1331,0,0
-413,-307,0,0,0,0,0,0,0,0,0,-1,811,1331,0,0
-406,-307,0,0,0,0,0,0,0,0,0,-1,818,1331,0,0
-399,-307,0,0,0,0,0,0,0,0,0,-1,825,1331,0,0
-392,-307,0,0,0,0,0,0,0,0,0,-1,832,1331,0,0
-385,-307,0,0,0,0,0,0,0,0,0,-1,839,1331,0,0
-378,-307,0,0,0,0,0,0,0,0,0,-1,846,1331,0,0
-371,-307,0,0,0,0,0,0,0,0,0,-1,853,1331,0,0
-364,-307,0,0,0,0,0,0,0,0,0,-1,860,1331,0,0
-357,-307,0,0,0,0,0,0,0,0,0,-1,867,1331,0,0
-350,-307,0,0,0,0,0,0,0,0,0,-1,874,1331,0,0
-343,-307,0,0,0,0,0,0,0,0,0,-1,881,1331,0,0
-336,-307,0,0,0,0,0,0,0,0,0,-1,888,1331,0,0
-329,-307,0,0,0,0,0,0,0,0,0,-1,895,1331,0,0
-322,-307,0,0,0,0,0,0,0,0,0,-1,902,1331,0,0
-315,-307,0,0,0,0,0,0,0,0,0,-1,909,1331,0,0
-308,-307,0,0,0,0,0,0,0,0,0,-1,916,1331,0,0
-301,-307,0,0,0,0,0,0,0,0,0,-1,923,1331,0,0
-294,-307,0,0,0,0,0,0,0,0,0,-1,930,1331,0,0
-287,-307,0,0,0,0,0,0,0,0,0,-1,937,1331,0,0
-280,-307,0,0,0,0,0,0,0,0,0,-1,944,1331,0,0
-273,-307,0,0,0,0,0,0,0,0,0,-1,951,1331,0,0
-266,-307,0,0,0,0,0,0,0,0,0,-1,958,1331,0,0
-259,-307,0,0,0,0,0,0,0,0,0,-1,965,1331,0,0
-252,-307,0,0,0,0,0,0,0,0,0,-1,972,1331,0,0
-245,-307,0,0,0,0,0,0,0,0,0,-1,979,1331,0,0
-238,-307,0,0,0,0,0,0,0,0,0,-1,986,1331,0,0
-231,-307,0,0,0,0,0,0,0,0,0,-1,993,1331,0,0
-224,-307,0,0,0,0,0,0,0,0,0,-1,1000,1331,0,0
-217,-307,0,0,0,0,0,0,0,0,0,-1,1007,1331,0,0
-210,-307,0,0,0,0,0,0,0,0,0,-1,1014,1331,0,0
-203,-307,0,0,0,0,0,0,0,0,0,-1,1021,1331,0,0
-196,-307,0,0,0,0,0,0,0,0,0,-1,1028,1331,0,0
-189,-307,0,0,0,0,0,0,0,0,0,-1,1035,1331,0,0
-182,-307,0,0,0,0,0,0,0,0,0,-1,1042,1331,0,0
-175,-307,0,0,0,0,0,0,0,0,0,-1,1049,1331,0,0
-168,-307,0,0,0,0,0,0,0,0,0,-1,1056,1331,0,0
-161,-307,0,0,0,0,0,0,0,0,0,-1,1063,1331,0,0
-154,-307,0,0,0,0,0,0,0,0,0,-1,1070,1331,0,0
-147,-307,0,0,0,0,0,0,0,0,0,-1,1077,1331,0,0
-140,-307,0,0,0,0,0,0,0,0,0,-1,1084,1331,0,0
-133,-307,0,0,0,0,0,0,0,0,0,-1,1091,1331,0,0
-126,-307,0,0,0,0,0,0,0,0,0,-1,1098,1331,0,0
-119,-307,0,0,0,0,0,0,0,0,0,-1,1105,1331,0,0
-112,-307,0,0,0,0,0,0,0,0,0,-1,1112,1331,0,0
-105,-307,0,0,0,0,0,0,0,0,0,-1,1119,1331,0,0
-98,-307,0,0,0,0,0,0,0,0,0,-1,1126,1331,0,0
-91,-307,0,0,0,0,0,0,0,0,0,-1,1133,1331,0,0
-84,-307,0,0,0,0,0,0,0,0,0,-1,1140,1331,0,0
-77,-307,0,0,0,0,0,0,0,0,0,-1,1147,1331,0,0
-70,-307,0,0,0,0,0,0,0,0,0,-1,1154,1331,0,0
-63,-307,0,0,0,0,0,0,0,0,0,-1,1161,1331,0,0
-56,-307,0,0,0,0,0,0,0,0,0,-1,1168,1331,0,0
-49,-307,0,0,0,0,0,0,0,0,0,-1,1175,1331,0,0
-42,-307,0,0,0,0,0,0,0,0,0,-1,1182,1331,0,0
-35,-307,0,0,0,0,0,0,0,0,0,-1,1189,1331,0,0
-28,-307,0,0,0,0,0,0,0,0,0,-1,1196,1331,0,0
-21,-307,0,0,0,0,0,0,0,0,0,-1,1203,1331,0,0
-14,-307,0,0,0,0,0,0,0,0,0,-1,1210,1331,0,0
-7,-307,0,0,0,0,0,0,0,0,0,-1,1217,1331,0,0
0,-307,0,0,0,0,0,0,0,0,0,-1,1224,1331,0,0
7,-307,0,0,0,0,0,0,0,0,0,-1,1231,1331,0,0
14,-307,0,0,0,0,0,0,0,0,0,-1,1238,1331,0,0
21,-307,0,0,0,0,0,0,0,0,0,-1,1245,1331,0,0
28,-307,0,0,0,0,0,0,0,0,0,-1,1252,1331,0,0
35,-307,0,0,0,0,0,0,0,0,0,-1,1259,1331,0,0
42,-307,0,0,0,0,0,0,0,0,0,-1,1266,1331,0,0
49,-307,0,0,0,0,0,0,0,0,0,-1,1273,1331,0,0
56,-307,0,0,0,0,0,0,0,0,0,-1,1280,1331,0,0
63,-307,0,0,0,0,0,0,0,0,0,-1,1287,1331,0,0
70,-307,0,0,0,0,0,0,0,0,0,-1,1294,1331,0,0
77,-307,0,0,0,0,0,0,0,0,0,-1,1301,1331,0,0
84,-307,0,0,0,0,0,0,0,0,0,-1,1308,1331,0,0
91,-307,0,0,0,0,0,0,0,0,0,-1,1315,1331,0,0
98,-307,0,0,0,0,0,0,0,0,0,-1,1322,1331,0,0
105,-307,0,0,0,0,0,0,0,0,0,-1,1329,1331,0,0
112,-307,0,0,0,0,0,0,0,0,0,-1,1336,1331,0,0
119,-307,0,0,0,0,0,0,0,0,0,-1,1343,1331,0,0
126,-307,0,0,0,0,0,0,0,0,0,-1,1350,1331,0,0
133,-307,0,0,0,0,0,0,0,0,0,-1,1357,1331,0,0
140,-307,0,0,0,0,0,0,0,0,0,-1,1364,1331,0,0
147,-307,0,0,0,0,0,0,0,0,0,-1,1371,1331,0,0
154,-307,0,0,0,0,0,0,0,0,0,-1,1378,1331,0,0
161,-307,0,0,0,0,0,0,0,0,0,-1,1385,1331,0,0
168,-307,0,0,0,0,0,0,0,0,0,-1,1392,1331,0,0
175,-307,0,0,0,0,0,0,0,0,0,-1,1399,1331,0,0
182,-307,0,0,0,0,0,0,0,0,0,-1,1406,1331,0,0
189,-307,0,0,0,0,0,0,0,0,0,-1,1413,1331,0,0
196,-307,0,0,0,0,0,0,0,0,0,-1,1420,1331,0,0
203,-307,0,0,0,0,0,0,0,0,0,-1,1427,1331,0,0
210,-307,0,0,0,0,0,0,0,0,0,-1,1434,1331,0,0
217,-307,0,0,0,0,0,0,0,0,0,-1,1441,1331,0,0
224,-307,0,0,0,0,0,0,0,0,0,-1,1448,1331,0,0
231,-307,0,0,0,0,0,0,0,0,0,-1,1455,1331,0,0
238,-307,0,0,0,0,0,0,0,0,0,-1,1462,1331,0,0
245,-307,0,0,0,0,0,0,0,0,0,-1,1469,1331,0,0
252,-307,0,0,0,0,0,0,0,0,0,-1,1476,1331,0,0
259,-307,0,0,0,0,0,0,0,0,0,-1,1483,1331,0,0
266,-307,0,0,0,0,0,0,0,0,0,-1,1490,1331,0,0
273,-307,0,0,0,0,0,0,0,0,0,-1,1497,1331,0,0
280,-307,0,0,0,0,0,0,0,0,0,-1,1504,1331,0,0
287,-307,0,0,0,0,0,0,0,0,0,-1,1511,1331,0,0
294,-307,0,0,0,0,0,0,0,0,0,-1,1518,1331,0,0
301,-307,0,0,0,0,0,0,0,0,0,-1,1525,1331,0,0
308,-307,0,0,0,0,0,0,0,0,0,-1,1532,1331,0,0
315,-307,0,0,0,0,0,0,0,0,0,-1,1539,1331,0,0
322,-307,0,0,0,0,0,0,0,0,0,-1,1546,1331,0,0
329,-307,0,0,0,0,0,0,0,0,0,-1,1553,1331,0,0
336,-307,0,0,0,0,0,0,0,0,0,-1,1560,1331,0,0
343,-307,0,0,0,0,0,0,0,0,0,-1,1567,1331,0,0
350,-307,0,0,0,0,0,0,0,0,0,-1,1574,1331,0,0
357,-307,0,0,0,0,0,0,0,0,0,-1,1581,1331,0,0
364,-307,0,0,0,0,0,0,0,0,0,-1,1588,1331,0,0
371,-307,0,0,0,0,0,0,0,0,0,-1,1595,1331,0,0
378,-307,0,0,0,0,0,0,0,0,0,-1,1602,1331,0,0
385,-307,0,0,0,0,0,0,0,0,0,-1,1609,1331,0,0
392,-307,0,0,0,0,0,0,0,0,0,-1,1616,1331,0,0
399,-307,0,0,0,0,0,0,0,0,0,-1,1623,1331,0,0
406,-307,0,0,0,0,0,0,0,0,0,-1,1630,1331,0,0
413,-307,0,0,0,0,0,0,0,0,0,-1,1637,1331,0,0
420,-307,0,0,0,0,0,0,0,0,0,-1,1644,1331,0,0
427,-307,0,0,0,0,0,0,0,0,0,-1,1651,1331,0,0
434,-307,0,0,0,0,0,0,0,0,0,-1,1658,1331,0,0
441,-307,0,0,0,0,0,0,0,0,0,-1,1665,1331,0,0
448,-307,0,0,0,0,0,0,0,0,0,-1,1672,1331,0,0
455,-307,0,0,0,0,0,0,0,0,0,-1,1679,1331,0,0
462,-307,0,0,0,0,0,0,0,0,0,-1,1686,1331,0,0
469,-307,0,0,0,0,0,0,0,0,0,-1,1693,1331,0,0
476,-307,0,0,0,0,0,0,0,0,0,-1,1700,1331,0,0
483,-307,0,0,0,0,0,0,0,0,0,-1,1707,1331,0,0
490,-307,0,0,0,0,0,0,0,0,0,-1,1714,1331,0,0
497,-307,0,0,0,0,0,0,0,0,0,-1,1721,1331,0,0
504,-307,0,0,0,0,0,0,0,0,0,-1,1728,1331,0,0
511,-307,0,0,0,0,0,0,0,0,0,-1,1735,1331,0,0
518,-307,0,0,0,0,0,0,0,0,0,-1,1742,1331,0,0
525,-307,0,0,0,0,0,0,0,0,0,-1,1749,1331,0,0
532,-307,0,0,0,0,0,0,0,0,0,-1,1756,1331,0,0
539,-307,0,0,0,0,0,0,0,0,0,-1,1763,1331,0,0
546,-307,0,0,0,0,0,0,0,0,0,-1,1770,1331,0,0
553,-307,0,0,0,0,0,0,0,0,0,-1,1777,1331,0,0
560,-307,0,0,0,0,0,0,0,0,0,-1,1784,1331,0,0
567,-307,0,0,0,0,0,0,0,0,0,-1,1791,1331,0,0
574,-307,0,0,0,0,0,0,0,0,0,-1,1798,1331,0,0
581,-307,0,0,0,0,0,0,0,0,0,-1,1805,1331,0,0
588,-307,29.9852,5.48523,0,0,0,0,0,0,0,-1,1812,1331,29.9852,-5.48519
595,-307,28.9426,0.92627,0,0,0,0,0,0,0,-1,1819,1331,28.9427,-0.926297
602,-307,28.5273,0.887329,0,0,0,0,0,0,0,-1,1826,1331,28.5273,-0.887363
609,-307,27.8724,1.26489,-0.0299556,0.0616742,-0.0112609,0.0630378,-0.0313192,-1.45029,0.0554936,0.0454472,1833,1331,27.8724,-1.26489
616,-307,28.0414,0.709717,-0.0286372,0.0529068,-0.00846351,0.053776,-0.0295064,-1.46846,0.0487589,0.0444847,1840,1331,28.0414,-0.70973
623,-307,28.282,0.404297,0,0,0,0,0,0,0,-1,1847,1331,28.282,-0.404318
630,-307,24.9091,2.8457,0,0,0,0,0,0,0,-1,1854,1331,24.909,-2.84566
637,-307,24.6407,4.09106,0,0,0,0,0,0,0,-1,1861,1331,24.6407,-4.09103
644,-307,22.6885,5.80408,0,0,0,0,0,0,0,-1,1868,1331,22.6884,-5.80408
651,-307,17.5013,5.80078,0,0,0,0,0,0,0,-1,1875,1331,17.5014,-5.80072
658,-307,21.2371,7.64099,0,0,0,0,0,0,0,-1,1882,1331,21.2371,-7.64097
665,-307,20.882,7.60779,-0.0176125,0.00477564,0.00865113,0.00772899,-0.0205659,1.24182,0.0168871,0.0233684,1889,1331,20.8819,-7.60775
672,-307,20.848,7.35754,-0.015252,0.00150966,0.00839359,0.00499014,-0.0187325,1.17772,0.014442,0.00988678,1896,1331,20.848,-7.35757
679,-307,20.8418,7.08569,-0.0101472,-0.000593195,0.00648327,0.00268292,-0.0134233,1.1029,0.00996429,0.00946621,1903,1331,20.8418,-7.08575
686,-307,20.8347,6.81555,-0.00594338,-0.00166231,0.00436734,0.00106085,-0.00866655,1.01326,0.00616183,0.00904693,1910,1331,20.8347,-6.81558
693,-307,20.8374,6.53894,-0.00354316,-0.00145147,0.00283423,0.000523719,-0.00551835,0.962151,0.00386531,0.0108257,1917,1331,20.8374,-6.53895
700,-307,20.8459,6.23584,-0.00197472,-0.000780741,0.00176219,0.000482834,-0.00323829,0.948719,0.00233649,0.0122564,1924,1331,20.8459,-6.23585
707,-307,20.8243,5.94788,-0.000922723,0.000338588,0.00136817,0.00121446,-0.00179859,1.00136,0.00175045,0.0132384,1931,1331,20.8244,-5.94791
714,-307,20.8284,5.71692,-9.6483e-05,0.0013681,0.0011899,0.00203299,-0.00076137,1.06124,0.00166808,0.0120468,1938,1331,20.8283,-5.71687
721,-307,20.8711,5.44812,0.000487211,0.00222083,0.00125716,0.00288104,-0.000173003,1.08722,0.00198088,0.0145568,1945,1331,20.8711,-5.44814
728,-307,20.8302,5.23792,0.00123296,0.00339636,0.00126165,0.00397654,0.000652778,1.13978,0.00246244,0.0264004,1952,1331,20.8303,-5.23795
735,-307,20.646,4.99695,0.00279578,0.00477398,0.000874556,0.00510517,0.00246459,1.20879,0.00294806,0.0378633,1959,1331,20.646,-4.99695
742,-307,21.379,4.59973,0,0,0,0,0,0,0,-1,1966,1331,21.3791,-4.59968
749,-307,21.9658,3.45691,0,0,0,0,0,0,0,-1,1973,1331,21.9658,-3.45693
756,-307,22.4415,2.98438,0,0,0,0,0,0,0,-1,1980,1331,22.4415,-2.98441
763,-307,18.7522,3.55298,0,0,0,0,0,0,0,-1,1987,1331,18.7522,-3.55301
770,-307,0,0,0,0,0,0,0,0,0,-1,1994,1331,0,0
777,-307,0,0,0,0,0,0,0,0,0,-1,2001,1331,0,0
784,-307,0,0,0,0,0,0,0,0,0,-1,2008,1331,0,0
791,-307,0,0,0,0,0,0,0,0,0,-1,2015,1331,0,0
798,-307,0,0,0,0,0,0,0,0,0,-1,2022,1331,0,0
805,-307,0,0,0,0,0,0,0,0,0,-1,2029,1331,0,0
812,-307,0,0,0,0,0,0,0,0,0,-1,2036,1331,0,0
-700,-314,0,0,0,0,0,0,0,0,0,-1,524,1338,0,0
-693,-314,0,0,0,0,0,0,0,0,0,-1,531,1338,0,0
-686,-314,0,0,0,0,0,0,0,0,0,-1,538,1338,0,0
-679,-314,0,0,0,0,0,0,0,0,0,-1,545,1338,0,0
-672,-314,0,0,0,0,0,0,0,0,0,-1,552,1338,0,0
-665,-314,0,0,0,0,0,0,0,0,0,-1,559,1338,0,0
-658,-314,0,0,0,0,0,0,0,0,0,-1,566,1338,0,0
-651,-314,0,0,0,0,0,0,0,0,0,-1,573,1338,0,0
-644,-314,-11.1809,0.362549,0,0,0,0,0,0,0,-1,580,1338,-11.1809,-0.362497
-637,-314,-10.923,-0.298828,0,0,0,0,0,0,0,-1,587,1338,-10.923,0.298879
-630,-314,-10.475,-1.20361,0,0,0,0,0,0,0,-1,594,1338,-10.475,1.2036
-623,-314,-9.83771,-2.10156,0,0,0,0,0,0,0,-1,601,1338,-9.83769,2.10162
-616,-314,-8.61536,-4.24487,0,0,0,0,0,0,0,-1,608,1338,-8.61537,4.24486
-609,-314,-9.4361,2.86292,0,0,0,0,0,0,0,-1,615,1338,-9.43612,-2.86286
-602,-314,-10.0922,2.75928,0,0,0,0,0,0,0,-1,622,1338,-10.0922,-2.75925
-595,-314,-10.5422,2.9248,-0.000384894,-0.00249662,-0.000769093,-0.000134483,-0.00274703,-0.314768,0.00178821,0.0493455,629,1338,-10.5422,-2.92479
-588,-314,-10.7131,3.13916,-0.00162719,-0.00082412,-0.00112809,-2.82302e-05,-0.00242308,-0.956377,0.00160606,0.0203123,636,1338,-10.7131,-3.13918
-581,-314,-10.6737,3.46912,-0.00154543,-0.000199467,-0.00104147,0.000367534,-0.00211243,-1.07224,0.00154544,0.0130946,643,1338,-10.6737,-3.46918
-574,-314,-10.6857,3.76929,-0.000746526,-0.000274327,-0.000778248,0.000302847,-0.0013237,-0.932673,0.000998838,0.0131439,650,1338,-10.6857,-3.76928
-567,-314,-10.696,4.08801,6.15735e-05,-0.000341532,-0.000508234,0.000406761,-0.00068672,-0.596623,0.000638181,0.0144447,657,1338,-10.696,-4.08807
-560,-314,-10.6776,4.42761,0.000881229,-0.000399469,-0.000331218,0.000961818,-0.000480058,-0.238675,0.000847815,0.0149564,664,1338,-10.6776,-4.42756
-553,-314,-10.6848,4.74622,0.00173695,-0.000442107,-0.000151659,0.00174745,-0.000452611,-0.0691539,0.00134154,0.0165586,671,1338,-10.6848,-4.74619
-546,-314,-10.686,5.0636,0.00265412,-0.000532055,-2.15131e-05,0.00265427,-0.0005322,-0.00675161,0.00197101,0.0176423,678,1338,-10.6861,-5.06357
-539,-314,-10.6848,5.37708,0.00360816,-0.000709054,-2.08603e-05,0.00360826,-0.000709155,-0.00483174,0.00267343,0.016868,685,1338,-10.6848,-5.37707
-532,-314,-10.514,5.73303,0.00484218,-0.000856093,-2.09439e-05,0.00484226,-0.00085617,-0.00367542,0.00354816,0.0382268,692,1338,-10.514,-5.73307
-525,-314,-10.563,5.99133,0,0,0,0,0,0,0,-1,699,1338,-10.563,-5.99134
-518,-314,-8.52753,4.70032,0,0,0,0,0,0,0,-1,706,1338,-8.52755,-4.70034
-511,-314,-11.8597,0.384888,0,0,0,0,0,0,0,-1,713,1338,-11.8597,-0.384927
-504,-314,-11.4322,-0.187378,0,0,0,0,0,0,0,-1,720,1338,-11.4322,0.187381
-497,-314,-11.0047,-0.759644,0,0,0,0,0,0,0,-1,727,1338,-11.0047,0.759689
-490,-314,-18.5143,0.471069,0,0,0,0,0,0,0,-1,734,1338,-18.5143,-0.47103
-483,-314,-17.8528,0.577271,0,0,0,0,0,0,0,-1,741,1338,-17.8528,-0.577327
-476,-314,-17.714,0.665405,0,0,0,0,0,0,0,-1,748,1338,-17.714,-0.665388
-469,-314,-17.7246,0.794678,0,0,0,0,0,0,0,-1,755,1338,-17.7246,-0.794645
-462,-314,0,0,0,0,0,0,0,0,0,-1,762,1338,0,0
-455,-314,0,0,0,0,0,0,0,0,0,-1,769,1338,0,0
-448,-314,0,0,0,0,0,0,0,0,0,-1,776,1338,0,0
-441,-314,0,0,0,0,0,0,0,0,0,-1,783,1338,0,0
-434,-314,0,0,0,0,0,0,0,0,0,-1,790,1338,0,0
-427,-314,0,0,0,0,0,0,0,0,0,-1,797,1338,0,0
-420,-314,0,0,0,0,0,0,0,0,0,-1,804,1338,0,0
-413,-314,0,0,0,0,0,0,0,0,0,-1,811,1338,0,0
-406,-314,0,0,0,0,0,0,0,0,0,-1,818,1338,0,0
-399,-314,0,0,0,0,0,0,0,0,0,-1,825,1338,0,0
-392,-314,0,0,0,0,0,0,0,0,0,-1,832,1338,0,0
-385,-314,0,0,0,0,0,0,0,0,0,-1,839,1338,0,0
-378,-314,0,0,0,0,0,0,0,0,0,-1,846,1338,0,0
-371,-314,0,0,0,0,0,0,0,0,0,-1,853,1338,0,0
-364,-314,0,0,0,0,0,0,0,0,0,-1,860,1338,0,0
-357,-314,0,0,0,0,0,0,0,0,0,-1,867,1338,0,0
-350,-314,0,0,0,0,0,0,0,0,0,-1,874,1338,0,0
-343,-314,0,0,0,0,0,0,0,0,0,-1,881,1338,0,0
-336,-314,0,0,0,0,0,0,0,0,0,-1,888,1338,0,0
-329,-314,0,0,0,0,0,0,0,0,0,-1,895,1338,0,0
-322,-314,0,0,0,0,0,0,0,0,0,-1,902,1338,0,0
-315,-314,0,0,0,0,0,0,0,0,0,-1,909,1338,0,0
-308,-314,0,0,0,0,0,0,0,0,0,-1,916,1338,0,0
-301,-314,0,0,0,0,0,0,0,0,0,-1,923,1338,0,0
-294,-314,0,0,0,0,0,0,0,0,0,-1,930,1338,0,0
-287,-314,0,0,0,0,0,0,0,0,0,-1,937,1338,0,0
-280,-314,0,0,0,0,0,0,0,0,0,-1,944,1338,0,0
-273,-314,0,0,0,0,0,0,0,0,0,-1,951,1338,0,0
-266,-314,0,0,0,0,0,0,0,0,0,-1,958,1338,0,0
-259,-314,0,0,0,0,0,0,0,0,0,-1,965,1338,0,0
-252,-314,0,0,0,0,0,0,0,0,0,-1,972,1338,0,0
-245,-314,0,0,0,0,0,0,0,0,0,-1,979,1338,0,0
-238,-314,0,0,0,0,0,0,0,0,0,-1,986,1338,0,0
-231,-314,0,0,0,0,0,0,0,0,0,-1,993,1338,0,0
-224,-314,0,0,0,0,0,0,0,0,0,-1,1000,1338,0,0
-217,-314,0,0,0,0,0,0,0,0,0,-1,1007,1338,0,0
-210,-314,0,0,0,0,0,0,0,0,0,-1,1014,1338,0,0
-203,-314,0,0,0,0,0,0,0,0,0,-1,1021,1338,0,0
-196,-314,0,0,0,0,0,0,0,0,0,-1,1028,1338,0,0
-189,-314,0,0,0,0,0,0,0,0,0,-1,1035,1338,0,0
-182,-314,0,0,0,0,0,0,0,0,0,-1,1042,1338,0,0
-175,-314,0,0,0,0,0,0,0,0,0,-1,1049,1338,0,0
-168,-314,0,0,0,0,0,0,0,0,0,-1,1056,1338,0,0
-161,-314,0,0,0,0,0,0,0,0,0,-1,1063,1338,0,0
-154,-314,0,0,0,0,0,0,0,0,0,-1,1070,1338,0,0
-147,-314,0,0,0,0,0,0,0,0,0,-1,1077,1338,0,0
-140,-314,0,0,0,0,0,0,0,0,0,-1,1084,1338,0,0
-133,-314,0,0,0,0,0,0,0,0,0,-1,1091,1338,0,0
-126,-314,0,0,0,0,0,0,0,0,0,-1,1098,1338,0,0
-119,-314,0,0,0,0,0,0,0,0,0,-1,1105,1338,0,0
-112,-314,0,0,0,0,0,0,0,0,0,-1,1112,1338,0,0
-105,-314,0,0,0,0,0,0,0,0,0,-1,1119,1338,0,0
-98,-314,0,0,0,0,0,0,0,0,0,-1,1126,1338,0,0
-91,-314,0,0,0,0,0,0,0,0,0,-1,1133,1338,0,0
-84,-314,0,0,0,0,0,0,0,0,0,-1,1140,1338,0,0
-77,-314,0,0,0,0,0,0,0,0,0,-1,1147,1338,0,0
-70,-314,0,0,0,0,0,0,0,0,0,-1,1154,1338,0,0
-63,-314,0,0,0,0,0,0,0,0,0,-1,1161,1338,0,0
-56,-314,0,0,0,0,0,0,0,0,0,-1,1168,1338,0,0
-49,-314,0,0,0,0,0,0,0,0,0,-1,1175,1338,0,0
-42,-314,0,0,0,0,0,0,0,0,0,-1,1182,1338,0,0
-35,-314,0,0,0,0,0,0,0,0,0,-1,1189,1338,0,0
-28,-314,0,0,0,0,0,0,0,0,0,-1,1196,1338,0,0
-21,-314,0,0,0,0,0,0,0,0,0,-1,1203,1338,0,0
-14,-314,0,0,0,0,0,0,0,0,0,-1,1210,1338,0,0
-7,-314,0,0,0,0,0,0,0,0,0,-1,1217,1338,0,0
0,-314,0,0,0,0,0,0,0,0,0,-1,1224,1338,0,0
7,-314,0,0,0,0,0,0,0,0,0,-1,1231,1338,0,0
14,-314,0,0,0,0,0,0,0,0,0,-1,1238,1338,0,0
21,-314,0,0,0,0,0,0,0,0,0,-1,1245,1338,0,0
28,-314,0,0,0,0,0,0,0,0,0,-1,1252,1338,0,0
35,-314,0,0,0,0,0,0,0,0,0,-1,1259,1338,0,0
42,-314,0,0,0,0,0,0,0,0,0,-1,1266,1338,0,0
49,-314,0,0,0,0,0,0,0,0,0,-1,1273,1338,0,0
56,-314,0,0,0,0,0,0,0,0,0,-1,1280,1338,0,0
63,-314,0,0,0,0,0,0,0,0,0,-1,1287,1338,0,0
70,-314,0,0,0,0,0,0,0,0,0,-1,1294,1338,0,0
77,-314,0,0,0,0,0,0,0,0,0,-1,1301,1338,0,0
84,-314,0,0,0,0,0,0,0,0,0,-1,1308,1338,0,0
91,-314,0,0,0,0,0,0,0,0,0,-1,1315,1338,0,0
98,-314,0,0,0,0,0,0,0,0,0,-1,1322,1338,0,0
105,-314,0,0,0,0,0,0,0,0,0,-1,1329,1338,0,0
112,-314,0,0,0,0,0,0,0,0,0,-1,1336,1338,0,0
119,-314,0,0,0,0,0,0,0,0,0,-1,1343,1338,0,0
126,-314,0,0,0,0,0,0,0,0,0,-1,1350,1338,0,0
133,-314,0,0,0,0,0,0,0,0,0,-1,1357,1338,0,0
140,-314,0,0,0,0,0,0,0,0,0,-1,1364,1338,0,0
147,-314,0,0,0,0,0,0,0,0,0,-1,1371,1338,0,0
154,-314,0,0,0,0,0,0,0,0,0,-1,1378,1338,0,0
161,-314,0,0,0,0,0,0,0,0,0,-1,1385,1338,0,0
168,-314,0,0,0,0,0,0,0,0,0,-1,1392,1338,0,0
175,-314,0,0,0,0,0,0,0,0,0,-1,1399,1338,0,0
182,-314,0,0,0,0,0,0,0,0,0,-1,1406,1338,0,0
189,-314,0,0,0,0,0,0,0,0,0,-1,1413,1338,0,0
196,-314,0,0,0,0,0,0,0,0,0,-1,1420,1338,0,0
203,-314,0,0,0,0,0,0,0,0,0,-1,1427,1338,0,0
210,-314,0,0,0,0,0,0,0,0,0,-1,1434,1338,0,0
217,-314,0,0,0,0,0,0,0,0,0,-1,1441,1338,0,0
224,-314,0,0,0,0,0,0,0,0,0,-1,1448,1338,0,0
231,-314,0,0,0,0,0,0,0,0,0,-1,1455,1338,0,0
238,-314,0,0,0,0,0,0,0,0,0,-1,1462,1338,0,0
245,-314,0,0,0,0,0,0,0,0,0,-1,1469,1338,0,0
252,-314,0,0,0,0,0,0,0,0,0,-1,1476,1338,0,0
259,-314,0,0,0,0,0,0,0,0,0,-1,1483,1338,0,0
266,-314,0,0,0,0,0,0,0,0,0,-1,1490,1338,0,0
273,-314,0,0,0,0,0,0,0,0,0,-1,1497,1338,0,0
280,-314,0,0,0,0,0,0,0,0,0,-1,1504,1338,0,0
287,-314,0,0,0,0,0,0,0,0,0,-1,1511,1338,0,0
294,-314,0,0,0,0,0,0,0,0,0,-1,1518,1338,0,0
301,-314,0,0,0,0,0,0,0,0,0,-1,1525,1338,0,0
308,-314,0,0,0,0,0,0,0,0,0,-1,1532,1338,0,0
315,-314,0,0,0,0,0,0,0,0,0,-1,1539,1338,0,0
322,-314,0,0,0,0,0,0,0,0,0,-1,1546,1338,0,0
329,-314,0,0,0,0,0,0,0,0,0,-1,1553,1338,0,0
336,-314,0,0,0,0,0,0,0,0,0,-1,1560,1338,0,0
343,-314,0,0,0,0,0,0,0,0,0,-1,1567,1338,0,0
350,-314,0,0,0,0,0,0,0,0,0,-1,1574,1338,0,0
357,-314,0,0,0,0,0,0,0,0,0,-1,1581,1338,0,0
364,-314,0,0,0,0,0,0,0,0,0,-1,1588,1338,0,0
371,-314,0,0,0,0,0,0,0,0,0,-1,1595,1338,0,0
378,-314,0,0,0,0,0,0,0,0,0,-1,1602,1338,0,0
385,-314,0,0,0,0,0,0,0,0,0,-1,1609,1338,0,0
392,-314,0,0,0,0,0,0,0,0,0,-1,1616,1338,0,0
399,-314,0,0,0,0,0,0,0,0,0,-1,1623,1338,0,0
406,-314,0,0,0,0,0,0,0,0,0,-1,1630,1338,0,0
413,-314,0,0,0,0,0,0,0,0,0,-1,1637,1338,0,0
420,-314,0,0,0,0,0,0,0,0,0,-1,1644,1338,0,0
427,-314,0,0,0,0,0,0,0,0,0,-1,1651,1338,0,0
434,-314,0,0,0,0,0,0,0,0,0,-1,1658,1338,0,0
441,-314,0,0,0,0,0,0,0,0,0,-1,1665,1338,0,0
448,-314,0,0,0,0,0,0,0,0,0,-1,1672,1338,0,0
455,-314,0,0,0,0,0,0,0,0,0,-1,1679,1338,0,0
462,-314,0,0,0,0,0,0,0,0,0,-1,1686,1338,0,0
469,-314,0,0,0,0,0,0,0,0,0,-1,1693,1338,0,0
476,-314,0,0,0,0,0,0,0,0,0,-1,1700,1338,0,0
483,-314,0,0,0,0,0,0,0,0,0,-1,1707,1338,0,0
490,-314,0,0,0,0,0,0,0,0,0,-1,1714,1338,0,0
497,-314,0,0,0,0,0,0,0,0,0,-1,1721,1338,0,0
504,-314,0,0,0,0,0,0,0,0,0,-1,1728,1338,0,0
511,-314,0,0,0,0,0,0,0,0,0,-1,1735,1338,0,0
518,-314,0,0,0,0,0,0,0,0,0,-1,1742,1338,0,0
525,-314,0,0,0,0,0,0,0,0,0,-1,1749,1338,0,0
532,-314,0,0,0,0,0,0,0,0,0,-1,1756,1338,0,0
539,-314,0,0,0,0,0,0,0,0,0,-1,1763,1338,0,0
546,-314,0,0,0,0,0,0,0,0,0,-1,1770,1338,0,0
553,-314,0,0,0,0,0,0,0,0,0,-1,1777,1338,0,0
560,-314,0,0,0,0,0,0,0,0,0,-1,1784,1338,0,0
567,-314,0,0,0,0,0,0,0,0,0,-1,1791,1338,0,0
574,-314,0,0,0,0,0,0,0,0,0,-1,1798,1338,0,0
581,-314,29.7341,5.54968,0,0,0,0,0,0,0,-1,1805,1338,29.7342,-5.54964
588,-314,29.3533,4.5564,-0.0228076,0.0802468,-0.0156756,0.0825785,-0.0251392,-1.42313,0.0650714,0.0463897,1812,1338,29.3533,-4.55643
595,-314,29.0562,3.56323,-0.0280559,0.0727142,-0.0149649,0.0748896,-0.0302314,-1.42644,0.0624905,0.0424998,1819,1338,29.0561,-3.56327
602,-314,28.0145,2.01086,0,0,0,0,0,0,0,-1,1826,1338,28.0145,-2.01087
609,-314,27.7981,1.54639,-0.0277548,0.0562904,-0.0103491,0.057546,-0.0290104,-1.45006,0.0508706,0.0434554,1833,1338,27.7981,-1.54642
616,-314,27.5623,0.696655,-0.0261661,0.0497924,-0.0088173,0.0508025,-0.0271762,-1.45674,0.0457047,0.046533,1840,1338,27.5622,-0.696662
623,-314,27.703,0.3125,0,0,0,0,0,0,0,-1,1847,1338,27.703,-0.312479
630,-314,24.6292,4.76587,0,0,0,0,0,0,0,-1,1854,1338,24.6292,-4.76588
637,-314,22.1349,5.16418,0,0,0,0,0,0,0,-1,1861,1338,22.1349,-5.16414
644,-314,18.7517,6.2605,0,0,0,0,0,0,0,-1,1868,1338,18.7517,-6.26053
651,-314,21.0901,7.45789,0,0,0,0,0,0,0,-1,1875,1338,21.09,-7.45788
658,-314,20.8395,7.60022,-0.0170814,0.00529895,0.00624654,0.00692437,-0.0187068,1.31623,0.0153105,0.0480411,1882,1338,20.8395,-7.60024
665,-314,20.5474,7.64941,-0.0149627,0.00283044,0.00739935,0.00550536,-0.0176377,1.22391,0.0139602,0.0188944,1889,1338,20.5474,-7.64946
672,-314,20.573,7.38171,-0.0126462,-6.66681e-05,0.0070552,0.00309539,-0.0158083,1.14945,0.0117079,0.0121102,1896,1338,20.5729,-7.38176
679,-314,20.5684,7.09558,-0.00818696,-0.00144107,0.00525059,0.00142661,-0.0110546,1.0709,0.00788842,0.0099428,1903,1338,20.5684,-7.09563
686,-314,20.5497,6.81287,-0.00483168,-0.00182821,0.00349552,0.000474509,-0.00713439,0.988286,0.00492206,0.0110195,1910,1338,20.5496,-6.81281
693,-314,20.5376,6.53162,-0.00298705,-0.00123859,0.00234622,0.000390983,-0.00461662,0.963736,0.00321601,0.0111425,1917,1338,20.5376,-6.53166
700,-314,20.5482,6.23889,-0.00171669,-0.000378133,0.00162936,0.000714056,-0.00280887,0.980272,0.00215049,0.0127164,1924,1338,20.5482,-6.23895
707,-314,20.5475,5.96973,-0.000889938,0.000702115,0.00141222,0.0015272,-0.00171503,1.04204,0.00187295,0.0127216,1931,1338,20.5475,-5.96976
714,-314,20.5444,5.7301,-0.000391085,0.0015854,0.00145174,0.00235334,-0.00115902,1.08424,0.00206657,0.0108616,1938,1338,20.5444,-5.73016
721,-314,20.5876,5.46179,-0.000165784,0.00240028,0.00173862,0.00327803,-0.00104353,1.10327,0.00260386,0.0170181,1945,1338,20.5877,-5.4618
728,-314,20.3932,5.26917,0.000200389,0.00360238,0.00197813,0.00451029,-0.00070752,1.14051,0.00326833,0.0389278,1952,1338,20.3932,-5.2692
735,-314,20.152,4.9718,0.00138761,0.00499142,0.00184334,0.00576726,0.00061177,1.17241,0.00365801,0.0457111,1959,1338,20.1519,-4.97185
742,-314,20.0089,4.64722,0,0,0,0,0,0,0,-1,1966,1338,20.0089,-4.64727
749,-314,22.3523,2.9126,0,0,0,0,0,0,0,-1,1973,1338,22.3522,-2.91254
756,-314,19.1267,4.38147,0,0,0,0,0,0,0,-1,1980,1338,19.1267,-4.38142
763,-314,19.2207,4.07239,0,0,0,0,0,0,0,-1,1987,1338,19.2206,-4.07239
770,-314,0,0,0,0,0,0,0,0,0,-1,1994,1338,0,0
777,-314,0,0,0,0,0,0,0,0,0,-1,2001,1338,0,0
784,-314,0,0,0,0,0,0,0,0,0,-1,2008,1338,0,0
791,-314,0,0,0,0,0,0,0,0,0,-1,2015,1338,0,0
798,-314,0,0,0,0,0,0,0,0,0,-1,2022,1338,0,0
805,-314,0,0,0,0,0,0,0,0,0,-1,2029,1338,0,0
812,-314,0,0,0,0,0,0,0,0,0,-1,2036,1338,0,0
-700,-321,0,0,0,0,0,0,0,0,0,-1,524,1345,0,0
-693,-321,0,0,0,0,0,0,0,0,0,-1,531,1345,0,0
-686,-321,0,0,0,0,0,0,0,0,0,-1,538,1345,0,0
-679,-321,0,0,0,0,0,0,0,0,0,-1,545,1345,0,0
-672,-321,0,0,0,0,0,0,0,0,0,-1,552,1345,0,0
-665,-321,0,0,0,0,0,0,0,0,0,-1,559,1345,0,0
-658,-321,0,0,0,0,0,0,0,0,0,-1,566,1345,0,0
-651,-321,0,0,0,0,0,0,0,0,0,-1,573,1345,0,0
-644,-321,-10.9585,-1.48376,0,0,0,0,0,0,0,-1,580,1345,-10.9585,1.48374
-637,-321,-10.814,-2.07434,0,0,0,0,0,0,0,-1,587,1345,-10.814,2.07436
-630,-321,-10.0249,-2.10986,0,0,0,0,0,0,0,-1,594,1345,-10.0249,2.10981
-623,-321,-9.99817,1.0387,0,0,0,0,0,0,0,-1,601,1345,-9.99816,-1.03866
-616,-321,-9.65332,0.607422,0,0,0,0,0,0,0,-1,608,1345,-9.65334,-0.607424
-609,-321,-7.95209,1.14758,0,0,0,0,0,0,0,-1,615,1345,-7.95208,-1.14757
-602,-321,-8.85791,2.50049,0,0,0,0,0,0,0,-1,622,1345,-8.85791,-2.50048
-595,-321,-10.0439,3.0094,0,0,0,0,0,0,0,-1,629,1345,-10.0439,-3.00942
-588,-321,-10.4225,3.0896,-0.00289981,-0.00108692,-0.00182873,4.76858e-05,-0.00403442,-1.01549,0.00270565,0.0276534,636,1345,-10.4225,-3.08959
-581,-321,-10.3763,3.47217,-0.00228474,-0.000550702,-0.00148579,0.000302538,-0.00313798,-1.04951,0.00219978,0.012421,643,1345,-10.3764,-3.47218
-574,-321,-10.3763,3.78662,-0.00138336,-0.000529457,-0.00115513,0.000275102,-0.00218792,-0.962418,0.00155843,0.0154065,650,1345,-10.3763,-3.78663
-567,-321,-10.3831,4.06567,-0.000464575,-0.00049431,-0.000832897,0.000353587,-0.00131247,-0.776474,0.00101361,0.0222232,657,1345,-10.3831,-4.06569
-560,-321,-10.3789,4.4104,0.000491688,-0.000507097,-0.000558774,0.00074171,-0.000757118,-0.420729,0.000865364,0.0251147,664,1345,-10.3789,-4.41036
-553,-321,-10.3782,4.703,0.00150744,-0.000509429,-0.000278733,0.00154525,-0.000547241,-0.134835,0.00125307,0.0248749,671,1345,-10.3783,-4.70294
-546,-321,-10.3555,5.03577,0.00261482,-0.00054855,-4.27585e-05,0.00261539,-0.000549128,-0.0135135,0.00195255,0.0256235,678,1345,-10.3555,-5.03581
-539,-321,-10.3787,5.37231,0.00377915,-0.000656882,0.000110403,0.00378189,-0.000659628,0.0248673,0.00276747,0.0237664,685,1345,-10.3787,-5.37229
-532,-321,-10.2905,5.72754,0.00519221,-0.000746064,0.000274239,0.00520485,-0.000758702,0.0460508,0.00374848,0.0222844,692,1345,-10.2905,-5.72755
-525,-321,-10.3997,6.08167,0,0,0,0,0,0,0,-1,699,1345,-10.3997,-6.08164
-518,-321,-10.3564,6.75696,0,0,0,0,0,0,0,-1,706,1345,-10.3564,-6.75694
-511,-321,-9.3302,5.29297,0,0,0,0,0,0,0,-1,713,1345,-9.33023,-5.29294
-504,-321,-10.4713,0.0145264,0,0,0,0,0,0,0,-1,720,1345,-10.4713,-0.0145296
-497,-321,-9.96771,0.313599,0,0,0,0,0,0,0,-1,727,1345,-9.96769,-0.313618
-490,-321,-10.7631,0.973511,0,0,0,0,0,0,0,-1,734,1345,-10.7631,-0.97353
-483,-321,-17.5908,0.2323,0,0,0,0,0,0,0,-1,741,1345,-17.5908,-0.232355
-476,-321,-17.2915,0.297363,0,0,0,0,0,0,0,-1,748,1345,-17.2915,-0.297342
-469,-321,-17.2441,0.478027,0,0,0,0,0,0,0,-1,755,1345,-17.2441,-0.477994
-462,-321,-17.1672,0.526489,0,0,0,0,0,0,0,-1,762,1345,-17.1672,-0.526533
-455,-321,0,0,0,0,0,0,0,0,0,-1,769,1345,0,0
-448,-321,0,0,0,0,0,0,0,0,0,-1,776,1345,0,0
-441,-321,0,0,0,0,0,0,0,0,0,-1,783,1345,0,0
-434,-321,0,0,0,0,0,0,0,0,0,-1,790,1345,0,0
-427,-321,0,0,0,0,0,0,0,0,0,-1,797,1345,0,0
-420,-321,0,0,0,0,0,0,0,0,0,-1,804,1345,0,0
-413,-321,0,0,0,0,0,0,0,0,0,-1,811,1345,0,0
-406,-321,0,0,0,0,0,0,0,0,0,-1,818,1345,0,0
-399,-321,0,0,0,0,0,0,0,0,0,-1,825,1345,0,0
-392,-321,0,0,0,0,0,0,0,0,0,-1,832,1345,0,0
-385,-321,0,0,0,0,0,0,0,0,0,-1,839,1345,0,0
-378,-321,0,0,0,0,0,0,0,0,0,-1,846,1345,0,0
-371,-321,0,0,0,0,0,0,0,0,0,-1,853,1345,0,0
-364,-321,0,0,0,0,0,0,0,0,0,-1,860,1345,0,0
-357,-321,0,0,0,0,0,0,0,0,0,-1,867,1345,0,0
-350,-321,0,0,0,0,0,0,0,0,0,-1,874,1345,0,0
-343,-321,0,0,0,0,0,0,0,0,0,-1,881,1345,0,0
-336,-321,0,0,0,0,0,0,0,0,0,-1,888,1345,0,0
-329,-321,0,0,0,0,0,0,0,0,0,-1,895,1345,0,0
-322,-321,0,0,0,0,0,0,0,0,0,-1,902,1345,0,0
-315,-321,0,0,0,0,0,0,0,0,0,-1,909,1345,0,0
-308,-321,0,0,0,0,0,0,0,0,0,-1,916,1345,0,0
-301,-321,0,0,0,0,0,0,0,0,0,-1,923,1345,0,0
-294,-321,0,0,0,0,0,0,0,0,0,-1,930,1345,0,0
-287,-321,0,0,0,0,0,0,0,0,0,-1,937,1345,0,0
-280,-321,0,0,0,0,0,0,0,0,0,-1,944,1345,0,0
-273,-321,0,0,0,0,0,0,0,0,0,-1,951,1345,0,0
-266,-321,0,0,0,0,0,0,0,0,0,-1,958,1345,0,0
-259,-321,0,0,0,0,0,0,0,0,0,-1,965,1345,0,0
-252,-321,0,0,0,0,0,0,0,0,0,-1,972,1345,0,0
-245,-321,0,0,0,0,0,0,0,0,0,-1,979,1345,0,0
-238,-321,0,0,0,0,0,0,0,0,0,-1,986,1345,0,0
-231,-321,0,0,0,0,0,0,0,0,0,-1,993,1345,0,0
-224,-321,0,0,0,0,0,0,0,0,0,-1,1000,1345,0,0
-217,-321,0,0,0,0,0,0,0,0,0,-1,1007,1345,0,0
-210,-321,0,0,0,0,0,0,0,0,0,-1,1014,1345,0,0
-203,-321,0,0,0,0,0,0,0,0,0,-1,1021,1345,0,0
-196,-321,0,0,0,0,0,0,0,0,0,-1,1028,1345,0,0
-189,-321,0,0,0,0,0,0,0,0,0,-1,1035,1345,0,0
-182,-321,0,0,0,0,0,0,0,0,0,-1,1042,1345,0,0
-175,-321,0,0,0,0,0,0,0,0,0,-1,1049,1345,0,0
-168,-321,0,0,0,0,0,0,0,0,0,-1,1056,1345,0,0
-161,-321,0,0,0,0,0,0,0,0,0,-1,1063,1345,0,0
-154,-321,0,0,0,0,0,0,0,0,0,-1,1070,1345,0,0
-147,-321,0,0,0,0,0,0,0,0,0,-1,1077,1345,0,0
-140,-321,0,0,0,0,0,0,0,0,0,-1,1084,1345,0,0
-133,-321,0,0,0,0,0,0,0,0,0,-1,1091,1345,0,0
-126,-321,0,0,0,0,0,0,0,0,0,-1,1098,1345,0,0
-119,-321,0,0,0,0,0,0,0,0,0,-1,1105,1345,0,0
-112,-321,0,0,0,0,0,0,0,0,0,-1,1112,1345,0,0
-105,-321,0,0,0,0,0,0,0,0,0,-1,1119,1345,0,0
-98,-321,0,0,0,0,0,0,0,0,0,-1,1126,1345,0,0
-91,-321,0,0,0,0,0,0,0,0,0,-1,1133,1345,0,0
-84,-321,0,0,0,0,0,0,0,0,0,-1,1140,1345,0,0
-77,-321,0,0,0,0,0,0,0,0,0,-1,1147,1345,0,0
-70,-321,0,0,0,0,0,0,0,0,0,-1,1154,1345,0,0
-63,-321,0,0,0,0,0,0,0,0,0,-1,1161,1345,0,0
-56,-321,0,0,0,0,0,0,0,0,0,-1,1168,1345,0,0
-49,-321,0,0,0,0,0,0,0,0,0,-1,1175,1345,0,0
-42,-321,0,0,0,0,0,0,0,0,0,-1,1182,1345,0,0
-35,-321,0,0,0,0,0,0,0,0,0,-1,1189,1345,0,0
-28,-321,0,0,0,0,0,0,0,0,0,-1,1196,1345,0,0
-21,-321,0,0,0,0,0,0,0,0,0,-1,1203,1345,0,0
-14,-321,0,0,0,0,0,0,0,0,0,-1,1210,1345,0,0
-7,-321,0,0,0,0,0,0,0,0,0,-1,1217,1345,0,0
0,-321,0,0,0,0,0,0,0,0,0,-1,1224,1345,0,0
7,-321,0,0,0,0,0,0,0,0,0,-1,1231,1345,0,0
14,-321,0,0,0,0,0,0,0,0,0,-1,1238,1345,0,0
21,-321,0,0,0,0,0,0,0,0,0,-1,1245,1345,0,0
28,-321,0,0,0,0,0,0,0,0,0,-1,1252,1345,0,0
35,-321,0,0,0,0,0,0,0,0,0,-1,1259,1345,0,0
42,-321,0,0,0,0,0,0,0,0,0,-1,1266,1345,0,0
49,-321,0,0,0,0,0,0,0,0,0,-1,1273,1345,0,0
56,-321,0,0,0,0,0,0,0,0,0,-1,1280,1345,0,0
63,-321,0,0,0,0,0,0,0,0,0,-1,1287,1345,0,0
70,-321,0,0,0,0,0,0,0,0,0,-1,1294,1345,0,0
77,-321,0,0,0,0,0,0,0,0,0,-1,1301,1345,0,0
84,-321,0,0,0,0,0,0,0,0,0,-1,1308,1345,0,0
91,-321,0,0,0,0,0,0,0,0,0,-1,1315,1345,0,0
98,-321,0,0,0,0,0,0,0,0,0,-1,1322,1345,0,0
105,-321,0,0,0,0,0,0,0,0,0,-1,1329,1345,0,0
112,-321,0,0,0,0,0,0,0,0,0,-1,1336,1345,0,0
119,-321,0,0,0,0,0,0,0,0,0,-1,1343,1345,0,0
126,-321,0,0,0,0,0,0,0,0,0,-1,1350,1345,0,0
133,-321,0,0,0,0,0,0,0,0,0,-1,1357,1345,0,0
140,-321,0,0,0,0,0,0,0,0,0,-1,1364,1345,0,0
147,-321,0,0,0,0,0,0,0,0,0,-1,1371,1345,0,0
154,-321,0,0,0,0,0,0,0,0,0,-1,1378,1345,0,0
161,-321,0,0,0,0,0,0,0,0,0,-1,1385,1345,0,0
168,-321,0,0,0,0,0,0,0,0,0,-1,1392,1345,0,0
175,-321,0,0,0,0,0,0,0,0,0,-1,1399,1345,0,0
182,-321,0,0,0,0,0,0,0,0,0,-1,1406,1345,0,0
189,-321,0,0,0,0,0,0,0,0,0,-1,1413,1345,0,0
196,-321,0,0,0,0,0,0,0,0,0,-1,1420,1345,0,0
203,-321,0,0,0,0,0,0,0,0,0,-1,1427,1345,0,0
210,-321,0,0,0,0,0,0,0,0,0,-1,1434,1345,0,0
217,-321,0,0,0,0,0,0,0,0,0,-1,1441,1345,0,0
224,-321,0,0,0,0,0,0,0,0,0,-1,1448,1345,0,0
231,-321,0,0,0,0,0,0,0,0,0,-1,1455,1345,0,0
238,-321,0,0,0,0,0,0,0,0,0,-1,1462,1345,0,0
245,-321,0,0,0,0,0,0,0,0,0,-1,1469,1345,0,0
252,-321,0,0,0,0,0,0,0,0,0,-1,1476,1345,0,0
259,-321,0,0,0,0,0,0,0,0,0,-1,1483,1345,0,0
266,-321,0,0,0,0,0,0,0,0,0,-1,1490,1345,0,0
273,-321,0,0,0,0,0,0,0,0,0,-1,1497,1345,0,0
280,-321,0,0,0,0,0,0,0,0,0,-1,1504,1345,0,0
287,-321,0,0,0,0,0,0,0,0,0,-1,1511,1345,0,0
294,-321,0,0,0,0,0,0,0,0,0,-1,1518,1345,0,0
301,-321,0,0,0,0,0,0,0,0,0,-1,1525,1345,0,0
308,-321,0,0,0,0,0,0,0,0,0,-1,1532,1345,0,0
315,-321,0,0,0,0,0,0,0,0,0,-1,1539,1345,0,0
322,-321,0,0,0,0,0,0,0,0,0,-1,1546,1345,0,0
329,-321,0,0,0,0,0,0,0,0,0,-1,1553,1345,0,0
336,-321,0,0,0,0,0,0,0,0,0,-1,1560,1345,0,0
343,-321,0,0,0,0,0,0,0,0,0,-1,1567,1345,0,0
350,-321,0,0,0,0,0,0,0,0,0,-1,1574,1345,0,0
357,-321,0,0,0,0,0,0,0,0,0,-1,1581,1345,0,0
364,-321,0,0,0,0,0,0,0,0,0,-1,1588,1345,0,0
371,-321,0,0,0,0,0,0,0,0,0,-1,1595,1345,0,0
378,-321,0,0,0,0,0,0,0,0,0,-1,1602,1345,0,0
385,-321,0,0,0,0,0,0,0,0,0,-1,1609,1345,0,0
392,-321,0,0,0,0,0,0,0,0,0,-1,1616,1345,0,0
399,-321,0,0,0,0,0,0,0,0,0,-1,1623,1345,0,0
406,-321,0,0,0,0,0,0,0,0,0,-1,1630,1345,0,0
413,-321,0,0,0,0,0,0,0,0,0,-1,1637,1345,0,0
420,-321,0,0,0,0,0,0,0,0,0,-1,1644,1345,0,0
427,-321,0,0,0,0,0,0,0,0,0,-1,1651,1345,0,0
434,-321,0,0,0,0,0,0,0,0,0,-1,1658,1345,0,0
441,-321,0,0,0,0,0,0,0,0,0,-1,1665,1345,0,0
448,-321,0,0,0,0,0,0,0,0,0,-1,1672,1345,0,0
455,-321,0,0,0,0,0,0,0,0,0,-1,1679,1345,0,0
462,-321,0,0,0,0,0,0,0,0,0,-1,1686,1345,0,0
469,-321,0,0,0,0,0,0,0,0,0,-1,1693,1345,0,0
476,-321,0,0,0,0,0,0,0,0,0,-1,1700,1345,0,0
483,-321,0,0,0,0,0,0,0,0,0,-1,1707,1345,0,0
490,-321,0,0,0,0,0,0,0,0,0,-1,1714,1345,0,0
497,-321,0,0,0,0,0,0,0,0,0,-1,1721,1345,0,0
504,-321,0,0,0,0,0,0,0,0,0,-1,1728,1345,0,0
511,-321,0,0,0,0,0,0,0,0,0,-1,1735,1345,0,0
518,-321,0,0,0,0,0,0,0,0,0,-1,1742,1345,0,0
525,-321,0,0,0,0,0,0,0,0,0,-1,1749,1345,0,0
532,-321,0,0,0,0,0,0,0,0,0,-1,1756,1345,0,0
539,-321,0,0,0,0,0,0,0,0,0,-1,1763,1345,0,0
546,-321,0,0,0,0,0,0,0,0,0,-1,1770,1345,0,0
553,-321,0,0,0,0,0,0,0,0,0,-1,1777,1345,0,0
560,-321,0,0,0,0,0,0,0,0,0,-1,1784,1345,0,0
567,-321,0,0,0,0,0,0,0,0,0,-1,1791,1345,0,0
574,-321,0,0,0,0,0,0,0,0,0,-1,1798,1345,0,0
581,-321,29.0758,4.33447,0,0,0,0,0,0,0,-1,1805,1345,29.0758,-4.33446
588,-321,28.7274,3.52222,-0.0252642,0.0733548,-0.0126934,0.0749624,-0.0268718,-1.44482,0.0609401,0.0465478,1812,1345,28.7274,-3.52221
595,-321,28.4993,2.73828,-0.0270362,0.0656495,-0.0122363,0.0672377,-0.0286244,-1.44172,0.056823,0.0440412,1819,1345,28.4993,-2.73832
602,-321,28.0593,1.90564,0,0,0,0,0,0,0,-1,1826,1345,28.0593,-1.90568
609,-321,27.5884,1.64563,0,0,0,0,0,0,0,-1,1833,1345,27.5883,-1.64567
616,-321,27.0126,0.492188,0,0,0,0,0,0,0,-1,1840,1345,27.0126,-0.492244
623,-321,24.8608,2.73926,0,0,0,0,0,0,0,-1,1847,1345,24.8608,-2.73922
630,-321,23.6674,4.34106,0,0,0,0,0,0,0,-1,1854,1345,23.6674,-4.34112
637,-321,21.7925,6.79224,0,0,0,0,0,0,0,-1,1861,1345,21.7925,-6.7922
644,-321,16.8844,6.71973,0,0,0,0,0,0,0,-1,1868,1345,16.8844,-6.71971
651,-321,20.8617,7.82251,0,0,0,0,0,0,0,-1,1875,1345,20.8618,-7.82246
658,-321,20.4193,7.88538,-0.0138953,0.00355675,0.00523162,0.00500487,-0.0153434,1.30076,0.0122431,0.0382255,1882,1345,20.4193,-7.88541
665,-321,20.2599,7.68237,-0.011784,0.00132413,0.00626227,0.00383493,-0.0142948,1.18948,0.0110326,0.0179632,1889,1345,20.2599,-7.68232
672,-321,20.2831,7.38892,-0.00960552,-0.000972916,0.00579757,0.00193866,-0.0125171,1.10538,0.00906036,0.0131789,1896,1345,20.283,-7.3889
679,-321,20.3026,7.09436,-0.00603361,-0.00167083,0.00415891,0.000844053,-0.0085485,1.02693,0.00600017,0.0115605,1903,1345,20.3026,-7.09436
686,-321,20.2749,6.81665,-0.00356226,-0.00158893,0.00275477,0.000350544,-0.00550173,0.957363,0.00379008,0.0113215,1910,1345,20.2749,-6.81663
693,-321,20.2621,6.54297,-0.00223335,-0.00082165,0.00192053,0.000518635,-0.00357364,0.9615,0.00257279,0.0113843,1917,1345,20.2621,-6.54302
700,-321,20.2708,6.25049,-0.00128734,9.1918e-05,0.00147077,0.00102672,-0.00222214,1.00462,0.00191759,0.012081,1924,1345,20.2708,-6.25049
707,-321,20.278,5.98657,-0.000770461,0.00105691,0.00143009,0.00184028,-0.00155382,1.06967,0.00196191,0.0137833,1931,1345,20.278,-5.98653
714,-321,20.2683,5.72095,-0.000702029,0.00175228,0.00173791,0.00265262,-0.00160237,1.09281,0.00248144,0.0119461,1938,1345,20.2684,-5.72096
721,-321,20.2683,5.41064,-0.000991077,0.00249111,0.00231606,0.00364752,-0.00214749,1.10771,0.0033829,0.023825,1945,1345,20.2683,-5.41062
728,-321,20.025,5.31274,-0.00124723,0.0036566,0.00290687,0.00500755,-0.00259818,1.13575,0.00446401,0.0403513,1952,1345,20.025,-5.31279
735,-321,19.8054,5.03271,0,0,0,0,0,0,0,-1,1959,1345,19.8054,-5.03277
742,-321,19.7231,5.32007,0,0,0,0,0,0,0,-1,1966,1345,19.7232,-5.32002
749,-321,19.6262,5.13025,0,0,0,0,0,0,0,-1,1973,1345,19.6262,-5.1303
756,-321,19.6251,4.98315,0,0,0,0,0,0,0,-1,1980,1345,19.6251,-4.98311
763,-321,19.6747,4.61438,0,0,0,0,0,0,0,-1,1987,1345,19.6747,-4.61436
770,-321,0,0,0,0,0,0,0,0,0,-1,1994,1345,0,0
777,-321,0,0,0,0,0,0,0,0,0,-1,2001,1345,0,0
784,-321,0,0,0,0,0,0,0,0,0,-1,2008,1345,0,0
791,-321,0,0,0,0,0,0,0,0,0,-1,2015,1345,0,0
798,-321,0,0,0,0,0,0,0,0,0,-1,2022,1345,0,0
805,-321,0,0,0,0,0,0,0,0,0,-1,2029,1345,0,0
812,-321,0,0,0,0,0,0,0,0,0,-1,2036,1345,0,0
-700,-328,0,0,0,0,0,0,0,0,0,-1,524,1352,0,0
-693,-328,0,0,0,0,0,0,0,0,0,-1,531,1352,0,0
-686,-328,0,0,0,0,0,0,0,0,0,-1,538,1352,0,0
-679,-328,0,0,0,0,0,0,0,0,0,-1,545,1352,0,0
-672,-328,0,0,0,0,0,0,0,0,0,-1,552,1352,0,0
-665,-328,0,0,0,0,0,0,0,0,0,-1,559,1352,0,0
-658,-328,0,0,0,0,0,0,0,0,0,-1,566,1352,0,0
-651,-328,0,0,0,0,0,0,0,0,0,-1,573,1352,0,0
-644,-328,0,0,0,0,0,0,0,0,0,-1,580,1352,0,0
-637,-328,-12.1504,1.49731,0,0,0,0,0,0,0,-1,587,1352,-12.1504,-1.49727
-630,-328,-11.0827,0.858765,0,0,0,0,0,0,0,-1,594,1352,-11.0827,-0.858818
-623,-328,-9.66785,0.774292,0,0,0,0,0,0,0,-1,601,1352,-9.66784,-0.774266
-616,-328,-8.22198,-0.25708,0,0,0,0,0,0,0,-1,608,1352,-8.22201,0.257067
-609,-328,-7.87439,0.192871,0,0,0,0,0,0,0,-1,615,1352,-7.87441,-0.192822
-602,-328,-7.63062,1.31665,0,0,0,0,0,0,0,-1,622,1352,-7.63064,-1.3166
-595,-328,-9.42639,2.93494,0,0,0,0,0,0,0,-1,629,1352,-9.42638,-2.93499
-588,-328,-10.1881,2.8877,0,0,0,0,0,0,0,-1,636,1352,-10.1881,-2.88775
-581,-328,-10.0687,3.46692,-0.00309247,-0.000443395,-0.002037,0.000661834,-0.0041977,-1.07367,0.00304316,0.0179859,643,1352,-10.0687,-3.46694
-574,-328,-10.0488,3.78967,-0.00208899,-0.000453283,-0.00156241,0.000492385,-0.00303466,-1.02652,0.00220563,0.0148229,650,1352,-10.0488,-3.78967
-567,-328,-10.0643,4.09204,-0.00106536,-0.000426537,-0.00112612,0.000424594,-0.00191649,-0.923588,0.00144021,0.020088,657,1352,-10.0643,-4.092
-560,-328,-10.0385,4.44617,1.56543e-06,-0.000458214,-0.000735638,0.000542398,-0.000999046,-0.633954,0.000902876,0.0274638,664,1352,-10.0385,-4.44615
-553,-328,-10.0377,4.75793,0.00116413,-0.000456073,-0.000359964,0.0012405,-0.000532447,-0.20907,0.00105047,0.0290195,671,1352,-10.0377,-4.75788
-546,-328,-10.0656,5.06372,0.00248028,-0.000492057,5.03112e-06,0.00248029,-0.000492066,0.00169264,0.00183962,0.0282839,678,1352,-10.0656,-5.06369
-539,-328,-10.1049,5.37769,0.00386098,-0.000582341,0.000323863,0.00388446,-0.000605823,0.0723778,0.00281341,0.023489,685,1352,-10.1049,-5.37764
-532,-328,-10.0896,5.71765,0.00548275,-0.000677896,0.000667605,0.00555427,-0.000749411,0.106716,0.00397626,0.0162948,692,1352,-10.0896,-5.71767
-525,-328,-10.0384,6.104,0.00736813,-0.00103181,0.000980566,0.00748107,-0.00114476,0.114681,0.0054095,0.0174543,699,1352,-10.0384,-6.10398
-518,-328,-10.1057,6.38318,0,0,0,0,0,0,0,-1,706,1352,-10.1057,-6.38317
-511,-328,-9.39868,7.16113,0,0,0,0,0,0,0,-1,713,1352,-9.39869,-7.16113
-504,-328,-8.60626,-0.905762,0,0,0,0,0,0,0,-1,720,1352,-8.60623,0.905787
-497,-328,-9.29102,-0.0517578,0,0,0,0,0,0,0,-1,727,1352,-9.29104,0.0518175
-490,-328,-10.0663,0.882813,0,0,0,0,0,0,0,-1,734,1352,-10.0663,-0.882795
-483,-328,-10.8181,1.72375,0,0,0,0,0,0,0,-1,741,1352,-10.8181,-1.72374
-476,-328,-16.8951,-0.150757,0,0,0,0,0,0,0,-1,748,1352,-16.8951,0.150795
-469,-328,-16.8412,0.00158691,0,0,0,0,0,0,0,-1,755,1352,-16.8412,-0.00161515
-462,-328,-16.3546,-0.203491,0,0,0,0,0,0,0,-1,762,1352,-16.3545,0.203532
-455,-328,0,0,0,0,0,0,0,0,0,-1,769,1352,0,0
-448,-328,0,0,0,0,0,0,0,0,0,-1,776,1352,0,0
-441,-328,0,0,0,0,0,0,0,0,0,-1,783,1352,0,0
-434,-328,0,0,0,0,0,0,0,0,0,-1,790,1352,0,0
-427,-328,0,0,0,0,0,0,0,0,0,-1,797,1352,0,0
-420,-328,0,0,0,0,0,0,0,0,0,-1,804,1352,0,0
-413,-328,0,0,0,0,0,0,0,0,0,-1,811,1352,0,0
-406,-328,0,0,0,0,0,0,0,0,0,-1,818,1352,0,0
-399,-328,0,0,0,0,0,0,0,0,0,-1,825,1352,0,0
-392,-328,0,0,0,0,0,0,0,0,0,-1,832,1352,0,0
-385,-328,0,0,0,0,0,0,0,0,0,-1,839,1352,0,0
-378,-328,0,0,0,0,0,0,0,0,0,-1,846,1352,0,0
-371,-328,0,0,0,0,0,0,0,0,0,-1,853,1352,0,0
-364,-328,0,0,0,0,0,0,0,0,0,-1,860,1352,0,0
-357,-328,0,0,0,0,0,0,0,0,0,-1,867,1352,0,0
-350,-328,0,0,0,0,0,0,0,0,0,-1,874,1352,0,0
-343,-328,0,0,0,0,0,0,0,0,0,-1,881,1352,0,0
-336,-328,0,0,0,0,0,0,0,0,0,-1,888,1352,0,0
-329,-328,0,0,0,0,0,0,0,0,0,-1,895,1352,0,0
-322,-328,0,0,0,0,0,0,0,0,0,-1,902,1352,0,0
-315,-328,0,0,0,0,0,0,0,0,0,-1,909,1352,0,0
-308,-328,0,0,0,0,0,0,0,0,0,-1,916,1352,0,0
-301,-328,0,0,0,0,0,0,0,0,0,-1,923,1352,0,0
-294,-328,0,0,0,0,0,0,0,0,0,-1,930,1352,0,0
-287,-328,0,0,0,0,0,0,0,0,0,-1,937,1352,0,0
-280,-328,0,0,0,0,0,0,0,0,0,-1,944,1352,0,0
-273,-328,0,0,0,0,0,0,0,0,0,-1,951,1352,0,0
-266,-328,0,0,0,0,0,0,0,0,0,-1,958,1352,0,0
-259,-328,0,0,0,0,0,0,0,0,0,-1,965,1352,0,0
-252,-328,0,0,0,0,0,0,0,0,0,-1,972,1352,0,0
-245,-328,0,0,0,0,0,0,0,0,0,-1,979,1352,0,0
-238,-328,0,0,0,0,0,0,0,0,0,-1,986,1352,0,0
-231,-328,0,0,0,0,0,0,0,0,0,-1,993,1352,0,0
-224,-328,0,0,0,0,0,0,0,0,0,-1,1000,1352,0,0
-217,-328,0,0,0,0,0,0,0,0,0,-1,1007,1352,0,0
-210,-328,0,0,0,0,0,0,0,0,0,-1,1014,1352,0,0
-203,-328,0,0,0,0,0,0,0,0,0,-1,1021,1352,0,0
-196,-328,0,0,0,0,0,0,0,0,0,-1,1028,1352,0,0
-189,-328,0,0,0,0,0,0,0,0,0,-1,1035,1352,0,0
-182,-328,0,0,0,0,0,0,0,0,0,-1,1042,1352,0,0
-175,-328,0,0,0,0,0,0,0,0,0,-1,1049,1352,0,0
-168,-328,0,0,0,0,0,0,0,0,0,-1,1056,1352,0,0
-161,-328,0,0,0,0,0,0,0,0,0,-1,1063,1352,0,0
-154,-328,0,0,0,0,0,0,0,0,0,-1,1070,1352,0,0
-147,-328,0,0,0,0,0,0,0,0,0,-1,1077,1352,0,0
-140,-328,0,0,0,0,0,0,0,0,0,-1,1084,1352,0,0
-133,-328,0,0,0,0,0,0,0,0,0,-1,1091,1352,0,0
-126,-328,0,0,0,0,0,0,0,0,0,-1,1098,1352,0,0
-119,-328,0,0,0,0,0,0,0,0,0,-1,1105,1352,0,0
-112,-328,0,0,0,0,0,0,0,0,0,-1,1112,1352,0,0
-105,-328,0,0,0,0,0,0,0,0,0,-1,1119,1352,0,0
-98,-328,0,0,0,0,0,0,0,0,0,-1,1126,1352,0,0
-91,-328,0,0,0,0,0,0,0,0,0,-1,1133,1352,0,0
-84,-328,0,0,0,0,0,0,0,0,0,-1,1140,1352,0,0
-77,-328,0,0,0,0,0,0,0,0,0,-1,1147,1352,0,0
-70,-328,0,0,0,0,0,0,0,0,0,-1,1154,1352,0,0
-63,-328,0,0,0,0,0,0,0,0,0,-1,1161,1352,0,0
-56,-328,0,0,0,0,0,0,0,0,0,-1,1168,1352,0,0
-49,-328,0,0,0,0,0,0,0,0,0,-1,1175,1352,0,0
-42,-328,0,0,0,0,0,0,0,0,0,-1,1182,1352,0,0
-35,-328,0,0,0,0,0,0,0,0,0,-1,1189,1352,0,0
-28,-328,0,0,0,0,0,0,0,0,0,-1,1196,1352,0,0
-21,-328,0,0,0,0,0,0,0,0,0,-1,1203,1352,0,0
-14,-328,0,0,0,0,0,0,0,0,0,-1,1210,1352,0,0
-7,-328,0,0,0,0,0,0,0,0,0,-1,1217,1352,0,0
0,-328,0,0,0,0,0,0,0,0,0,-1,1224,1352,0,0
7,-328,0,0,0,0,0,0,0,0,0,-1,1231,1352,0,0
14,-328,0,0,0,0,0,0,0,0,0,-1,1238,1352,0,0
21,-328,0,0,0,0,0,0,0,0,0,-1,1245,1352,0,0
28,-328,0,0,0,0,0,0,0,0,0,-1,1252,1352,0,0
35,-328,0,0,0,0,0,0,0,0,0,-1,1259,1352,0,0
42,-328,0,0,0,0,0,0,0,0,0,-1,1266,1352,0,0
49,-328,0,0,0,0,0,0,0,0,0,-1,1273,1352,0,0
56,-328,0,0,0,0,0,0,0,0,0,-1,1280,1352,0,0
63,-328,0,0,0,0,0,0,0,0,0,-1,1287,1352,0,0
70,-328,0,0,0,0,0,0,0,0,0,-1,1294,1352,0,0
77,-328,0,0,0,0,0,0,0,0,0,-1,1301,1352,0,0
84,-328,0,0,0,0,0,0,0,0,0,-1,1308,1352,0,0
91,-328,0,0,0,0,0,0,0,0,0,-1,1315,1352,0,0
98,-328,0,0,0,0,0,0,0,0,0,-1,1322,1352,0,0
105,-328,0,0,0,0,0,0,0,0,0,-1,1329,1352,0,0
112,-328,0,0,0,0,0,0,0,0,0,-1,1336,1352,0,0
119,-328,0,0,0,0,0,0,0,0,0,-1,1343,1352,0,0
126,-328,0,0,0,0,0,0,0,0,0,-1,1350,1352,0,0
133,-328,0,0,0,0,0,0,0,0,0,-1,1357,1352,0,0
140,-328,0,0,0,0,0,0,0,0,0,-1,1364,1352,0,0
147,-328,0,0,0,0,0,0,0,0,0,-1,1371,1352,0,0
154,-328,0,0,0,0,0,0,0,0,0,-1,1378,1352,0,0
161,-328,0,0,0,0,0,0,0,0,0,-1,1385,1352,0,0
168,-328,0,0,0,0,0,0,0,0,0,-1,1392,1352,0,0
175,-328,0,0,0,0,0,0,0,0,0,-1,1399,1352,0,0
182,-328,0,0,0,0,0,0,0,0,0,-1,1406,1352,0,0
189,-328,0,0,0,0,0,0,0,0,0,-1,1413,1352,0,0
196,-328,0,0,0,0,0,0,0,0,0,-1,1420,1352,0,0
203,-328,0,0,0,0,0,0,0,0,0,-1,1427,1352,0,0
210,-328,0,0,0,0,0,0,0,0,0,-1,1434,1352,0,0
217,-328,0,0,0,0,0,0,0,0,0,-1,1441,1352,0,0
224,-328,0,0,0,0,0,0,0,0,0,-1,1448,1352,0,0
231,-328,0,0,0,0,0,0,0,0,0,-1,1455,1352,0,0
238,-328,0,0,0,0,0,0,0,0,0,-1,1462,1352,0,0
245,-328,0,0,0,0,0,0,0,0,0,-1,1469,1352,0,0
252,-328,0,0,0,0,0,0,0,0,0,-1,1476,1352,0,0
259,-328,0,0,0,0,0,0,0,0,0,-1,1483,1352,0,0
266,-328,0,0,0,0,0,0,0,0,0,-1,1490,1352,0,0
273,-328,0,0,0,0,0,0,0,0,0,-1,1497,1352,0,0
280,-328,0,0,0,0,0,0,0,0,0,-1,1504,1352,0,0
287,-328,0,0,0,0,0,0,0,0,0,-1,1511,1352,0,0
294,-328,0,0,0,0,0,0,0,0,0,-1,1518,1352,0,0
301,-328,0,0,0,0,0,0,0,0,0,-1,1525,1352,0,0
308,-328,0,0,0,0,0,0,0,0,0,-1,1532,1352,0,0
315,-328,0,0,0,0,0,0,0,0,0,-1,1539,1352,0,0
322,-328,0,0,0,0,0,0,0,0,0,-1,1546,1352,0,0
329,-328,0,0,0,0,0,0,0,0,0,-1,1553,1352,0,0
336,-328,0,0,0,0,0,0,0,0,0,-1,1560,1352,0,0
343,-328,0,0,0,0,0,0,0,0,0,-1,1567,1352,0,0
350,-328,0,0,0,0,0,0,0,0,0,-1,1574,1352,0,0
357,-328,0,0,0,0,0,0,0,0,0,-1,1581,1352,0,0
364,-328,0,0,0,0,0,0,0,0,0,-1,1588,1352,0,0
371,-328,0,0,0,0,0,0,0,0,0,-1,1595,1352,0,0
378,-328,0,0,0,0,0,0,0,0,0,-1,1602,1352,0,0
385,-328,0,0,0,0,0,0,0,0,0,-1,1609,1352,0,0
392,-328,0,0,0,0,0,0,0,0,0,-1,1616,1352,0,0
399,-328,0,0,0,0,0,0,0,0,0,-1,1623,1352,0,0
406,-328,0,0,0,0,0,0,0,0,0,-1,1630,1352,0,0
413,-328,0,0,0,0,0,0,0,0,0,-1,1637,1352,0,0
420,-328,0,0,0,0,0,0,0,0,0,-1,1644,1352,0,0
427,-328,0,0,0,0,0,0,0,0,0,-1,1651,1352,0,0
434,-328,0,0,0,0,0,0,0,0,0,-1,1658,1352,0,0
441,-328,0,0,0,0,0,0,0,0,0,-1,1665,1352,0,0
448,-328,0,0,0,0,0,0,0,0,0,-1,1672,1352,0,0
455,-328,0,0,0,0,0,0,0,0,0,-1,1679,1352,0,0
462,-328,0,0,0,0,0,0,0,0,0,-1,1686,1352,0,0
469,-328,0,0,0,0,0,0,0,0,0,-1,1693,1352,0,0
476,-328,0,0,0,0,0,0,0,0,0,-1,1700,1352,0,0
483,-328,0,0,0,0,0,0,0,0,0,-1,1707,1352,0,0
490,-328,0,0,0,0,0,0,0,0,0,-1,1714,1352,0,0
497,-328,0,0,0,0,0,0,0,0,0,-1,1721,1352,0,0
504,-328,0,0,0,0,0,0,0,0,0,-1,1728,1352,0,0
511,-328,0,0,0,0,0,0,0,0,0,-1,1735,1352,0,0
518,-328,0,0,0,0,0,0,0,0,0,-1,1742,1352,0,0
525,-328,0,0,0,0,0,0,0,0,0,-1,1749,1352,0,0
532,-328,0,0,0,0,0,0,0,0,0,-1,1756,1352,0,0
539,-328,0,0,0,0,0,0,0,0,0,-1,1763,1352,0,0
546,-328,0,0,0,0,0,0,0,0,0,-1,1770,1352,0,0
553,-328,0,0,0,0,0,0,0,0,0,-1,1777,1352,0,0
560,-328,0,0,0,0,0,0,0,0,0,-1,1784,1352,0,0
567,-328,0,0,0,0,0,0,0,0,0,-1,1791,1352,0,0
574,-328,29.5146,3.83105,0,0,0,0,0,0,0,-1,1798,1352,29.5147,-3.831
581,-328,28.7427,3.43384,-0.0217532,0.0724433,-0.00930628,0.073354,-0.0226638,-1.47326,0.0579537,0.0446443,1805,1352,28.7427,-3.43379
588,-328,28.1919,2.73206,-0.0250278,0.0627589,-0.0104562,0.0639871,-0.026256,-1.45387,0.0535984,0.0470451,1812,1352,28.1919,-2.73206
595,-328,28.0027,2.06714,-0.0243493,0.0575447,-0.0105317,0.0588774,-0.025682,-1.44492,0.0500586,0.043874,1819,1352,28.0027,-2.06711
602,-328,27.5795,1.20996,0,0,0,0,0,0,0,-1,1826,1352,27.5795,-1.21
609,-328,27.1257,1.86755,0,0,0,0,0,0,0,-1,1833,1352,27.1258,-1.8676
616,-328,26.1639,2.11218,0,0,0,0,0,0,0,-1,1840,1352,26.1639,-2.11213
623,-328,23.8899,4.09094,0,0,0,0,0,0,0,-1,1847,1352,23.8898,-4.09091
630,-328,22.0211,5.026,0,0,0,0,0,0,0,-1,1854,1352,22.0212,-5.02603
637,-328,21.15,5.53699,0,0,0,0,0,0,0,-1,1861,1352,21.15,-5.53704
644,-328,16.9579,6.3396,0,0,0,0,0,0,0,-1,1868,1352,16.9579,-6.33959
651,-328,20.1829,8.23767,0,0,0,0,0,0,0,-1,1875,1352,20.1828,-8.23768
658,-328,20.031,7.96667,-0.0100758,0.00144844,0.00409534,0.00275554,-0.0113829,1.26185,0.00865461,0.0281866,1882,1352,20.031,-7.96668
665,-328,20.0042,7.67334,-0.00820758,-0.00012761,0.00493007,0.00220634,-0.0105415,1.12865,0.00786695,0.0138352,1889,1352,20.0041,-7.67333
672,-328,19.9844,7.39673,-0.00648934,-0.00151842,0.00443072,0.00107635,-0.00908412,1.04101,0.00644489,0.0116731,1896,1352,19.9843,-7.39678
679,-328,20.0161,7.10706,-0.00400508,-0.00155032,0.0031084,0.000564251,-0.00611965,0.973432,0.00428026,0.0139535,1903,1352,20.0161,-7.1071
686,-328,20.0093,6.81458,-0.00237931,-0.0011056,0.00210049,0.00045246,-0.00393736,0.932591,0.00278799,0.013061,1910,1352,20.0093,-6.81455
693,-328,19.9911,6.53918,-0.00150943,-0.000320752,0.00153398,0.000730005,-0.00256018,0.970218,0.00199515,0.00863419,1917,1352,19.991,-6.53914
700,-328,19.9899,6.25952,-0.000821591,0.000550491,0.00131668,0.00134914,-0.00162024,1.02557,0.00171675,0.0129886,1924,1352,19.9899,-6.25949
707,-328,19.9874,5.98633,-0.000485132,0.00142879,0.00141702,0.00218172,-0.00123806,1.08239,0.00199931,0.0154773,1931,1352,19.9874,-5.98637
714,-328,20.0059,5.71545,-0.000720837,0.00196892,0.00197271,0.00301157,-0.00176348,1.08458,0.00278809,0.0144347,1938,1352,20.0058,-5.71549
721,-328,19.9063,5.474,-0.00133581,0.002712,0.00280535,0.00414731,-0.00277112,1.09789,0.00402061,0.0336386,1945,1352,19.9062,-5.47403
728,-328,19.8995,5.28577,-0.00193695,0.00398063,0.00368993,0.00575154,-0.00370786,1.12333,0.00550371,0.0427824,1952,1352,19.8995,-5.28573
735,-328,20.0305,5.40125,0,0,0,0,0,0,0,-1,1959,1352,20.0306,-5.40127
742,-328,19.8988,5.73962,0,0,0,0,0,0,0,-1,1966,1352,19.8988,-5.73964
749,-328,20.0669,5.66321,0,0,0,0,0,0,0,-1,1973,1352,20.0669,-5.66319
756,-328,19.9543,5.50464,0,0,0,0,0,0,0,-1,1980,1352,19.9543,-5.50463
763,-328,0,0,0,0,0,0,0,0,0,-1,1987,1352,0,0
770,-328,0,0,0,0,0,0,0,0,0,-1,1994,1352,0,0
777,-328,0,0,0,0,0,0,0,0,0,-1,2001,1352,0,0
784,-328,0,0,0,0,0,0,0,0,0,-1,2008,1352,0,0
791,-328,0,0,0,0,0,0,0,0,0,-1,2015,1352,0,0
798,-328,0,0,0,0,0,0,0,0,0,-1,2022,1352,0,0
805,-328,0,0,0,0,0,0,0,0,0,-1,2029,1352,0,0
812,-328,0,0,0,0,0,0,0,0,0,-1,2036,1352,0,0
-700,-335,0,0,0,0,0,0,0,0,0,-1,524,1359,0,0
-693,-335,0,0,0,0,0,0,0,0,0,-1,531,1359,0,0
-686,-335,0,0,0,0,0,0,0,0,0,-1,538,1359,0,0
-679,-335,0,0,0,0,0,0,0,0,0,-1,545,1359,0,0
-672,-335,0,0,0,0,0,0,0,0,0,-1,552,1359,0,0
-665,-335,0,0,0,0,0,0,0,0,0,-1,559,1359,0,0
-658,-335,0,0,0,0,0,0,0,0,0,-1,566,1359,0,0
-651,-335,0,0,0,0,0,0,0,0,0,-1,573,1359,0,0
-644,-335,0,0,0,0,0,0,0,0,0,-1,580,1359,0,0
-637,-335,-9.64746,3.53809,0,0,0,0,0,0,0,-1,587,1359,-9.64744,-3.53803
-630,-335,-6.07397,-2.99902,0,0,0,0,0,0,0,-1,594,1359,-6.07397,2.99902
-623,-335,-8.43304,1.09509,0,0,0,0,0,0,0,-1,601,1359,-8.43301,-1.09507
-616,-335,-7.80927,-0.485352,0,0,0,0,0,0,0,-1,608,1359,-7.80926,0.485291
-609,-335,-7.12256,-2.03601,0,0,0,0,0,0,0,-1,615,1359,-7.12253,2.03601
-602,-335,-9.39935,2.25146,0,0,0,0,0,0,0,-1,622,1359,-9.39935,-2.25145
-595,-335,-9.35175,2.95618,0,0,0,0,0,0,0,-1,629,1359,-9.35176,-2.95614
-588,-335,-9.79034,3.07874,0,0,0,0,0,0,0,-1,636,1359,-9.79037,-3.07871
-581,-335,-9.72675,3.53223,-0.00433494,-0.00102198,-0.00212177,1.33493e-05,-0.00537027,-1.11683,0.00358464,0.0272138,643,1359,-9.72673,-3.53224
-574,-335,-9.73914,3.79456,-0.00300937,-0.000825443,-0.00159054,1.18966e-05,-0.00384671,-1.08621,0.00256845,0.0116722,650,1359,-9.73911,-3.79461
-567,-335,-9.73755,4.11206,-0.00177145,-0.000653585,-0.00113293,5.07894e-05,-0.00247583,-1.01455,0.00166774,0.0159126,657,1359,-9.73758,-4.112
-560,-335,-9.68152,4.45056,-0.00052055,-0.000543872,-0.000726635,0.000194517,-0.00125894,-0.777375,0.000911081,0.0249181,664,1359,-9.68149,-4.45056
-553,-335,-9.73944,4.78625,0.000785855,-0.000473628,-0.000341649,0.000872561,-0.000560335,-0.248542,0.000833804,0.0283712,671,1359,-9.73942,-4.78629
-546,-335,-9.78235,5.099,0.00222444,-0.000444991,5.97607e-05,0.00222578,-0.000446329,0.0223721,0.00165284,0.0267403,678,1359,-9.78235,-5.09905
-539,-335,-9.77606,5.39124,0.00371943,-0.0004552,0.000445675,0.00376647,-0.00050225,0.105179,0.00269405,0.0213105,685,1359,-9.77608,-5.39122
-532,-335,-9.7796,5.73059,0.00541415,-0.000481894,0.000865665,0.00553862,-0.000606365,0.142807,0.00391024,0.0158619,692,1359,-9.77959,-5.73065
-525,-335,-9.70874,6.08667,0.00735609,-0.000689639,0.00131588,0.00756583,-0.000899382,0.158065,0.00536885,0.0114768,699,1359,-9.70873,-6.08663
-518,-335,-9.68134,6.38269,0.00976452,-0.000638775,0.00185627,0.0100858,-0.000960066,0.171387,0.00706567,0.0264039,706,1359,-9.68133,-6.3827
-511,-335,-9.66248,6.66296,0,0,0,0,0,0,0,-1,713,1359,-9.66245,-6.66293
-504,-335,-9.35767,5.99695,0,0,0,0,0,0,0,-1,720,1359,-9.35767,-5.99694
-497,-335,-8.75024,-0.650513,0,0,0,0,0,0,0,-1,727,1359,-8.75024,0.650521
-490,-335,-9.51971,0.417603,0,0,0,0,0,0,0,-1,734,1359,-9.51974,-0.41765
-483,-335,-10.2883,1.29224,0,0,0,0,0,0,0,-1,741,1359,-10.2883,-1.2922
-476,-335,-11.9938,-0.173462,0,0,0,0,0,0,0,-1,748,1359,-11.9938,0.173429
-469,-335,-12.8704,-0.204102,0,0,0,0,0,0,0,-1,755,1359,-12.8704,0.204117
-462,-335,-13.486,0.0218506,0,0,0,0,0,0,0,-1,762,1359,-13.4859,-0.0217908
-455,-335,-14.1504,0.549561,0,0,0,0,0,0,0,-1,769,1359,-14.1504,-0.549583
-448,-335,0,0,0,0,0,0,0,0,0,-1,776,1359,0,0
-441,-335,0,0,0,0,0,0,0,0,0,-1,783,1359,0,0
-434,-335,0,0,0,0,0,0,0,0,0,-1,790,1359,0,0
-427,-335,0,0,0,0,0,0,0,0,0,-1,797,1359,0,0
-420,-335,0,0,0,0,0,0,0,0,0,-1,804,1359,0,0
-413,-335,0,0,0,0,0,0,0,0,0,-1,811,1359,0,0
-406,-335,0,0,0,0,0,0,0,0,0,-1,818,1359,0,0
-399,-335,0,0,0,0,0,0,0,0,0,-1,825,1359,0,0
-392,-335,0,0,0,0,0,0,0,0,0,-1,832,1359,0,0
-385,-335,0,0,0,0,0,0,0,0,0,-1,839,1359,0,0
-378,-335,0,0,0,0,0,0,0,0,0,-1,846,1359,0,0
-371,-335,0,0,0,0,0,0,0,0,0,-1,853,1359,0,0
-364,-335,0,0,0,0,0,0,0,0,0,-1,860,1359,0,0
-357,-335,0,0,0,0,0,0,0,0,0,-1,867,1359,0,0
-350,-335,0,0,0,0,0,0,0,0,0,-1,874,1359,0,0
-343,-335,0,0,0,0,0,0,0,0,0,-1,881,1359,0,0
-336,-335,0,0,0,0,0,0,0,0,0,-1,888,1359,0,0
-329,-335,0,0,0,0,0,0,0,0,0,-1,895,1359,0,0
-322,-335,0,0,0,0,0,0,0,0,0,-1,902,1359,0,0
-315,-335,0,0,0,0,0,0,0,0,0,-1,909,1359,0,0
-308,-335,0,0,0,0,0,0,0,0,0,-1,916,1359,0,0
-301,-335,0,0,0,0,0,0,0,0,0,-1,923,1359,0,0
-294,-335,0,0,0,0,0,0,0,0,0,-1,930,1359,0,0
-287,-335,0,0,0,0,0,0,0,0,0,-1,937,1359,0,0
-280,-335,0,0,0,0,0,0,0,0,0,-1,944,1359,0,0
-273,-335,0,0,0,0,0,0,0,0,0,-1,951,1359,0,0
-266,-335,0,0,0,0,0,0,0,0,0,-1,958,1359,0,0
-259,-335,0,0,0,0,0,0,0,0,0,-1,965,1359,0,0
-252,-335,0,0,0,0,0,0,0,0,0,-1,972,1359,0,0
-245,-335,0,0,0,0,0,0,0,0,0,-1,979,1359,0,0
-238,-335,0,0,0,0,0,0,0,0,0,-1,986,1359,0,0
-231,-335,0,0,0,0,0,0,0,0,0,-1,993,1359,0,0
-224,-335,0,0,0,0,0,0,0,0,0,-1,1000,1359,0,0
-217,-335,0,0,0,0,0,0,0,0,0,-1,1007,1359,0,0
-210,-335,0,0,0,0,0,0,0,0,0,-1,1014,1359,0,0
-203,-335,0,0,0,0,0,0,0,0,0,-1,1021,1359,0,0
-196,-335,0,0,0,0,0,0,0,0,0,-1,1028,1359,0,0
-189,-335,0,0,0,0,0,0,0,0,0,-1,1035,1359,0,0
-182,-335,0,0,0,0,0,0,0,0,0,-1,1042,1359,0,0
-175,-335,0,0,0,0,0,0,0,0,0,-1,1049,1359,0,0
-168,-335,0,0,0,0,0,0,0,0,0,-1,1056,1359,0,0
-161,-335,0,0,0,0,0,0,0,0,0,-1,1063,1359,0,0
-154,-335,0,0,0,0,0,0,0,0,0,-1,1070,1359,0,0
-147,-335,0,0,0,0,0,0,0,0,0,-1,1077,1359,0,0
-140,-335,0,0,0,0,0,0,0,0,0,-1,1084,1359,0,0
-133,-335,0,0,0,0,0,0,0,0,0,-1,1091,1359,0,0
-126,-335,0,0,0,0,0,0,0,0,0,-1,1098,1359,0,0
-119,-335,0,0,0,0,0,0,0,0,0,-1,1105,1359,0,0
-112,-335,0,0,0,0,0,0,0,0,0,-1,1112,1359,0,0
-105,-335,0,0,0,0,0,0,0,0,0,-1,1119,1359,0,0
-98,-335,0,0,0,0,0,0,0,0,0,-1,1126,1359,0,0
-91,-335,0,0,0,0,0,0,0,0,0,-1,1133,1359,0,0
-84,-335,0,0,0,0,0,0,0,0,0,-1,1140,1359,0,0
-77,-335,0,0,0,0,0,0,0,0,0,-1,1147,1359,0,0
-70,-335,0,0,0,0,0,0,0,0,0,-1,1154,1359,0,0
-63,-335,0,0,0,0,0,0,0,0,0,-1,1161,1359,0,0
-56,-335,0,0,0,0,0,0,0,0,0,-1,1168,1359,0,0
-49,-335,0,0,0,0,0,0,0,0,0,-1,1175,1359,0,0
-42,-335,0,0,0,0,0,0,0,0,0,-1,1182,1359,0,0
-35,-335,0,0,0,0,0,0,0,0,0,-1,1189,1359,0,0
-28,-335,0,0,0,0,0,0,0,0,0,-1,1196,1359,0,0
-21,-335,0,0,0,0,0,0,0,0,0,-1,1203,1359,0,0
-14,-335,0,0,0,0,0,0,0,0,0,-1,1210,1359,0,0
-7,-335,0,0,0,0,0,0,0,0,0,-1,1217,1359,0,0
0,-335,0,0,0,0,0,0,0,0,0,-1,1224,1359,0,0
7,-335,0,0,0,0,0,0,0,0,0,-1,1231,1359,0,0
14,-335,0,0,0,0,0,0,0,0,0,-1,1238,1359,0,0
21,-335,0,0,0,0,0,0,0,0,0,-1,1245,1359,0,0
28,-335,0,0,0,0,0,0,0,0,0,-1,1252,1359,0,0
35,-335,0,0,0,0,0,0,0,0,0,-1,1259,1359,0,0
42,-335,0,0,0,0,0,0,0,0,0,-1,1266,1359,0,0
49,-335,0,0,0,0,0,0,0,0,0,-1,1273,1359,0,0
56,-335,0,0,0,0,0,0,0,0,0,-1,1280,1359,0,0
63,-335,0,0,0,0,0,0,0,0,0,-1,1287,1359,0,0
70,-335,0,0,0,0,0,0,0,0,0,-1,1294,1359,0,0
77,-335,0,0,0,0,0,0,0,0,0,-1,1301,1359,0,0
84,-335,0,0,0,0,0,0,0,0,0,-1,1308,1359,0,0
91,-335,0,0,0,0,0,0,0,0,0,-1,1315,1359,0,0
98,-335,0,0,0,0,0,0,0,0,0,-1,1322,1359,0,0
105,-335,0,0,0,0,0,0,0,0,0,-1,1329,1359,0,0
112,-335,0,0,0,0,0,0,0,0,0,-1,1336,1359,0,0
119,-335,0,0,0,0,0,0,0,0,0,-1,1343,1359,0,0
126,-335,0,0,0,0,0,0,0,0,0,-1,1350,1359,0,0
133,-335,0,0,0,0,0,0,0,0,0,-1,1357,1359,0,0
140,-335,0,0,0,0,0,0,0,0,0,-1,1364,1359,0,0
147,-335,0,0,0,0,0,0,0,0,0,-1,1371,1359,0,0
154,-335,0,0,0,0,0,0,0,0,0,-1,1378,1359,0,0
161,-335,0,0,0,0,0,0,0,0,0,-1,1385,1359,0,0
168,-335,0,0,0,0,0,0,0,0,0,-1,1392,1359,0,0
175,-335,0,0,0,0,0,0,0,0,0,-1,1399,1359,0,0
182,-335,0,0,0,0,0,0,0,0,0,-1,1406,1359,0,0
189,-335,0,0,0,0,0,0,0,0,0,-1,1413,1359,0,0
196,-335,0,0,0,0,0,0,0,0,0,-1,1420,1359,0,0
203,-335,0,0,0,0,0,0,0,0,0,-1,1427,1359,0,0
210,-335,0,0,0,0,0,0,0,0,0,-1,1434,1359,0,0
217,-335,0,0,0,0,0,0,0,0,0,-1,1441,1359,0,0
224,-335,0,0,0,0,0,0,0,0,0,-1,1448,1359,0,0
231,-335,0,0,0,0,0,0,0,0,0,-1,1455,1359,0,0
238,-335,0,0,0,0,0,0,0,0,0,-1,1462,1359,0,0
245,-335,0,0,0,0,0,0,0,0,0,-1,1469,1359,0,0
252,-335,0,0,0,0,0,0,0,0,0,-1,1476,1359,0,0
259,-335,0,0,0,0,0,0,0,0,0,-1,1483,1359,0,0
266,-335,0,0,0,0,0,0,0,0,0,-1,1490,1359,0,0
273,-335,0,0,0,0,0,0,0,0,0,-1,1497,1359,0,0
280,-335,0,0,0,0,0,0,0,0,0,-1,1504,1359,0,0
287,-335,0,0,0,0,0,0,0,0,0,-1,1511,1359,0,0
294,-335,0,0,0,0,0,0,0,0,0,-1,1518,1359,0,0
301,-335,0,0,0,0,0,0,0,0,0,-1,1525,1359,0,0
308,-335,0,0,0,0,0,0,0,0,0,-1,1532,1359,0,0
315,-335,0,0,0,0,0,0,0,0,0,-1,1539,1359,0,0
322,-335,0,0,0,0,0,0,0,0,0,-1,1546,1359,0,0
329,-335,0,0,0,0,0,0,0,0,0,-1,1553,1359,0,0
336,-335,0,0,0,0,0,0,0,0,0,-1,1560,1359,0,0
343,-335,0,0,0,0,0,0,0,0,0,-1,1567,1359,0,0
350,-335,0,0,0,0,0,0,0,0,0,-1,1574,1359,0,0
357,-335,0,0,0,0,0,0,0,0,0,-1,1581,1359,0,0
364,-335,0,0,0,0,0,0,0,0,0,-1,1588,1359,0,0
371,-335,0,0,0,0,0,0,0,0,0,-1,1595,1359,0,0
378,-335,0,0,0,0,0,0,0,0,0,-1,1602,1359,0,0
385,-335,0,0,0,0,0,0,0,0,0,-1,1609,1359,0,0
392,-335,0,0,0,0,0,0,0,0,0,-1,1616,1359,0,0
399,-335,0,0,0,0,0,0,0,0,0,-1,1623,1359,0,0
406,-335,0,0,0,0,0,0,0,0,0,-1,1630,1359,0,0
413,-335,0,0,0,0,0,0,0,0,0,-1,1637,1359,0,0
420,-335,0,0,0,0,0,0,0,0,0,-1,1644,1359,0,0
427,-335,0,0,0,0,0,0,0,0,0,-1,1651,1359,0,0
434,-335,0,0,0,0,0,0,0,0,0,-1,1658,1359,0,0
441,-335,0,0,0,0,0,0,0,0,0,-1,1665,1359,0,0
448,-335,0,0,0,0,0,0,0,0,0,-1,1672,1359,0,0
455,-335,0,0,0,0,0,0,0,0,0,-1,1679,1359,0,0
462,-335,0,0,0,0,0,0,0,0,0,-1,1686,1359,0,0
469,-335,0,0,0,0,0,0,0,0,0,-1,1693,1359,0,0
476,-335,0,0,0,0,0,0,0,0,0,-1,1700,1359,0,0
483,-335,0,0,0,0,0,0,0,0,0,-1,1707,1359,0,0
490,-335,0,0,0,0,0,0,0,0,0,-1,1714,1359,0,0
497,-335,0,0,0,0,0,0,0,0,0,-1,1721,1359,0,0
504,-335,0,0,0,0,0,0,0,0,0,-1,1728,1359,0,0
511,-335,0,0,0,0,0,0,0,0,0,-1,1735,1359,0,0
518,-335,0,0,0,0,0,0,0,0,0,-1,1742,1359,0,0
525,-335,0,0,0,0,0,0,0,0,0,-1,1749,1359,0,0
532,-335,0,0,0,0,0,0,0,0,0,-1,1756,1359,0,0
539,-335,0,0,0,0,0,0,0,0,0,-1,1763,1359,0,0
546,-335,0,0,0,0,0,0,0,0,0,-1,1770,1359,0,0
553,-335,0,0,0,0,0,0,0,0,0,-1,1777,1359,0,0
560,-335,0,0,0,0,0,0,0,0,0,-1,1784,1359,0,0
567,-335,0,0,0,0,0,0,0,0,0,-1,1791,1359,0,0
574,-335,28.7924,2.85168,0,0,0,0,0,0,0,-1,1798,1359,28.7923,-2.85166
581,-335,27.994,2.56213,0,0,0,0,0,0,0,-1,1805,1359,27.994,-2.56214
588,-335,30.4574,0.046875,0,0,0,0,0,0,0,-1,1812,1359,30.4574,-0.0469056
595,-335,29.146,0.806274,-0.0202875,0.0491657,-0.00909959,0.0503381,-0.0214599,-1.44266,0.0425556,0.0470203,1819,1359,29.1461,-0.806286
602,-335,28.005,1.50598,0,0,0,0,0,0,0,-1,1826,1359,28.005,-1.50593
609,-335,26.9071,2.15308,0,0,0,0,0,0,0,-1,1833,1359,26.9071,-2.15312
616,-335,25.7706,2.74597,0,0,0,0,0,0,0,-1,1840,1359,25.7707,-2.74594
623,-335,20.203,1.89709,0,0,0,0,0,0,0,-1,1847,1359,20.2031,-1.89712
630,-335,19.1707,1.00952,0,0,0,0,0,0,0,-1,1854,1359,19.1707,-1.00953
637,-335,18.2009,6.65454,0,0,0,0,0,0,0,-1,1861,1359,18.2009,-6.6546
644,-335,19.9352,8.43286,0,0,0,0,0,0,0,-1,1868,1359,19.9352,-8.43285
651,-335,19.7902,8.21167,-0.00775477,0.00240353,0.00102389,0.0025057,-0.00785694,1.47134,0.00624312,0.0316576,1875,1359,19.7901,-8.21167
658,-335,19.6893,8.01794,-0.0064505,-0.00123269,0.00215025,-0.000460773,-0.00722242,1.22614,0.00466894,0.017712,1882,1359,19.6893,-8.0179
665,-335,19.7161,7.69788,-0.00505101,-0.00176583,0.00297389,-1.10415e-05,-0.00680579,1.03772,0.00453352,0.0141612,1889,1359,19.7161,-7.6979
672,-335,19.6942,7.41199,-0.00386184,-0.00209732,0.00273687,-0.00010402,-0.00585514,0.941319,0.00386922,0.0163763,1896,1359,19.6942,-7.412
679,-335,19.7112,7.14063,-0.00234625,-0.00147925,0.00194689,8.18156e-05,-0.00390732,0.894943,0.00263258,0.0142579,1903,1359,19.7112,-7.14057
686,-335,19.7235,6.83545,-0.00130708,-0.000725886,0.00142459,0.000437446,-0.00247041,0.886011,0.00181046,0.0116646,1910,1359,19.7235,-6.83541
693,-335,19.6962,6.53223,-0.000703962,9.53697e-05,0.00115821,0.000920931,-0.00152952,0.951537,0.00142924,0.00971098,1917,1359,19.6962,-6.53218
700,-335,19.6791,6.26624,-0.00023983,0.000934823,0.00111076,0.00160398,-0.000908984,1.02859,0.00146924,0.0103081,1924,1359,19.679,-6.26625
707,-335,19.6827,5.99414,-7.27963e-05,0.0017634,0.00131468,0.00244882,-0.000758221,1.0902,0.00193544,0.0135695,1931,1359,19.6827,-5.99416
714,-335,19.734,5.67371,-0.000597681,0.00220613,0.00207568,0.00330898,-0.00170053,1.08241,0.00294151,0.0249404,1938,1359,19.734,-5.67366
721,-335,19.4906,5.39746,-0.0015283,0.00301999,0.00312463,0.00461043,-0.00311874,1.09997,0.00449006,0.0442774,1945,1359,19.4906,-5.39742
728,-335,19.5823,5.1449,-0.00247972,0.00446236,0.00428596,0.00650654,-0.00452389,1.12576,0.00640262,0.0454617,1952,1359,19.5823,-5.14494
735,-335,19.7557,4.9104,0,0,0,0,0,0,0,-1,1959,1359,19.7557,-4.91045
742,-335,19.8624,4.72229,0,0,0,0,0,0,0,-1,1966,1359,19.8624,-4.72225
749,-335,20.5887,6.05322,0,0,0,0,0,0,0,-1,1973,1359,20.5887,-6.05322
756,-335,20.7832,6.00452,0,0,0,0,0,0,0,-1,1980,1359,20.7832,-6.00447
763,-335,0,0,0,0,0,0,0,0,0,-1,1987,1359,0,0
770,-335,0,0,0,0,0,0,0,0,0,-1,1994,1359,0,0
777,-335,0,0,0,0,0,0,0,0,0,-1,2001,1359,0,0
784,-335,0,0,0,0,0,0,0,0,0,-1,2008,1359,0,0
791,-335,0,0,0,0,0,0,0,0,0,-1,2015,1359,0,0
798,-335,0,0,0,0,0,0,0,0,0,-1,2022,1359,0,0
805,-335,0,0,0,0,0,0,0,0,0,-1,2029,1359,0,0
812,-335,0,0,0,0,0,0,0,0,0,-1,2036,1359,0,0
-700,-342,0,0,0,0,0,0,0,0,0,-1,524,1366,0,0
-693,-342,0,0,0,0,0,0,0,0,0,-1,531,1366,0,0
-686,-342,0,0,0,0,0,0,0,0,0,-1,538,1366,0,0
-679,-342,0,0,0,0,0,0,0,0,0,-1,545,1366,0,0
-672,-342,0,0,0,0,0,0,0,0,0,-1,552,1366,0,0
-665,-342,0,0,0,0,0,0,0,0,0,-1,559,1366,0,0
-658,-342,0,0,0,0,0,0,0,0,0,-1,566,1366,0,0
-651,-342,0,0,0,0,0,0,0,0,0,-1,573,1366,0,0
-644,-342,0,0,0,0,0,0,0,0,0,-1,580,1366,0,0
-637,-342,-8.67786,-4.58557,0,0,0,0,0,0,0,-1,587,1366,-8.67788,4.5856
-630,-342,-8.60132,2.71777,0,0,0,0,0,0,0,-1,594,1366,-8.60135,-2.71779
-623,-342,-8.41168,0.662476,0,0,0,0,0,0,0,-1,601,1366,-8.41168,-0.662442
-616,-342,-6.625,-1.28015,0,0,0,0,0,0,0,-1,608,1366,-6.62499,1.28011
-609,-342,-7.83154,0.674561,0,0,0,0,0,0,0,-1,615,1366,-7.83155,-0.674598
-602,-342,-9.65765,2.25195,0,0,0,0,0,0,0,-1,622,1366,-9.65767,-2.25192
-595,-342,-9.47687,3.00671,0,0,0,0,0,0,0,-1,629,1366,-9.47686,-3.00668
-588,-342,-9.19946,3.33899,0,0,0,0,0,0,0,-1,636,1366,-9.19943,-3.33896
-581,-342,-9.23993,3.28723,0,0,0,0,0,0,0,-1,643,1366,-9.2399,-3.2872
-574,-342,-9.45441,3.79858,-0.00305464,-0.00194709,-0.00183774,-0.000581507,-0.00442023,-0.931739,0.00277338,0.0116563,650,1366,-9.45441,-3.79864
-567,-342,-9.40656,4.1405,-0.00184783,-0.00154603,-0.00134914,-0.000339375,-0.00305449,-0.84109,0.00193316,0.0155775,657,1366,-9.40657,-4.14046
-560,-342,-9.42993,4.45776,-0.000649507,-0.00121383,-0.000913136,2.4069e-05,-0.0018874,-0.635551,0.00126637,0.0251463,664,1366,-9.42991,-4.45778
-553,-342,-9.49792,4.72412,0.000621136,-0.000914377,-0.000477713,0.000757625,-0.00105087,-0.278298,0.0010487,0.0284632,671,1366,-9.49795,-4.72413
-546,-342,-9.44843,5.02612,0.00203251,-0.000648383,2.06629e-06,0.00203251,-0.000648384,0.000770747,0.00161512,0.0286833,678,1366,-9.44842,-5.02609
-539,-342,-9.42786,5.40527,0.00350451,-0.000418583,0.000493014,0.00356552,-0.000479591,0.123119,0.00255194,0.0246111,685,1366,-9.42787,-5.40533
-532,-342,-9.44812,5.76709,0.00514666,-0.000225925,0.00101971,0.00533369,-0.000412953,0.181397,0.00370113,0.0194261,692,1366,-9.44814,-5.76713
-525,-342,-9.39307,6.09851,0.00701154,-0.000144703,0.00161707,0.00735998,-0.000493142,0.21223,0.00507902,0.0129812,699,1366,-9.39306,-6.09853
-518,-342,-9.34668,6.42749,0.00928432,0.000231405,0.00238498,0.0098742,-0.000358479,0.242467,0.00670549,0.0190176,706,1366,-9.34668,-6.42747
-511,-342,-9.38531,6.72876,0,0,0,0,0,0,0,-1,713,1366,-9.38533,-6.72873
-504,-342,-8.95709,6.5719,0,0,0,0,0,0,0,-1,720,1366,-8.95707,-6.57192
-497,-342,-8.26587,-0.943604,0,0,0,0,0,0,0,-1,727,1366,-8.26586,0.943543
-490,-342,-9.07153,-0.0227051,0,0,0,0,0,0,0,-1,734,1366,-9.07155,0.0227087
-483,-342,-9.87726,0.898071,0,0,0,0,0,0,0,-1,741,1366,-9.87724,-0.898125
-476,-342,-11.6371,-0.736328,0,0,0,0,0,0,0,-1,748,1366,-11.6371,0.736281
-469,-342,-12.6245,-0.987549,0,0,0,0,0,0,0,-1,755,1366,-12.6245,0.987553
-462,-342,-13.0912,-0.533203,0,0,0,0,0,0,0,-1,762,1366,-13.0912,0.533224
-455,-342,-13.7612,0.122925,0,0,0,0,0,0,0,-1,769,1366,-13.7612,-0.122896
-448,-342,-14.5278,0.826904,0,0,0,0,0,0,0,-1,776,1366,-14.5277,-0.826861
-441,-342,0,0,0,0,0,0,0,0,0,-1,783,1366,0,0
-434,-342,0,0,0,0,0,0,0,0,0,-1,790,1366,0,0
-427,-342,0,0,0,0,0,0,0,0,0,-1,797,1366,0,0
-420,-342,0,0,0,0,0,0,0,0,0,-1,804,1366,0,0
-413,-342,0,0,0,0,0,0,0,0,0,-1,811,1366,0,0
-406,-342,0,0,0,0,0,0,0,0,0,-1,818,1366,0,0
-399,-342,0,0,0,0,0,0,0,0,0,-1,825,1366,0,0
-392,-342,0,0,0,0,0,0,0,0,0,-1,832,1366,0,0
-385,-342,0,0,0,0,0,0,0,0,0,-1,839,1366,0,0
-378,-342,0,0,0,0,0,0,0,0,0,-1,846,1366,0,0
-371,-342,0,0,0,0,0,0,0,0,0,-1,853,1366,0,0
-364,-342,0,0,0,0,0,0,0,0,0,-1,860,1366,0,0
-357,-342,0,0,0,0,0,0,0,0,0,-1,867,1366,0,0
-350,-342,0,0,0,0,0,0,0,0,0,-1,874,1366,0,0
-343,-342,0,0,0,0,0,0,0,0,0,-1,881,1366,0,0
-336,-342,0,0,0,0,0,0,0,0,0,-1,888,1366,0,0
-329,-342,0,0,0,0,0,0,0,0,0,-1,895,1366,0,0
-322,-342,0,0,0,0,0,0,0,0,0,-1,902,1366,0,0
-315,-342,0,0,0,0,0,0,0,0,0,-1,909,1366,0,0
-308,-342,0,0,0,0,0,0,0,0,0,-1,916,1366,0,0
-301,-342,0,0,0,0,0,0,0,0,0,-1,923,1366,0,0
-294,-342,0,0,0,0,0,0,0,0,0,-1,930,1366,0,0
-287,-342,0,0,0,0,0,0,0,0,0,-1,937,1366,0,0
-280,-342,0,0,0,0,0,0,0,0,0,-1,944,1366,0,0
-273,-342,0,0,0,0,0,0,0,0,0,-1,951,1366,0,0
-266,-342,0,0,0,0,0,0,0,0,0,-1,958,1366,0,0
-259,-342,0,0,0,0,0,0,0,0,0,-1,965,1366,0,0
-252,-342,0,0,0,0,0,0,0,0,0,-1,972,1366,0,0
-245,-342,0,0,0,0,0,0,0,0,0,-1,979,1366,0,0
-238,-342,0,0,0,0,0,0,0,0,0,-1,986,1366,0,0
-231,-342,0,0,0,0,0,0,0,0,0,-1,993,1366,0,0
-224,-342,0,0,0,0,0,0,0,0,0,-1,1000,1366,0,0
-217,-342,0,0,0,0,0,0,0,0,0,-1,1007,1366,0,0
-210,-342,0,0,0,0,0,0,0,0,0,-1,1014,1366,0,0
-203,-342,0,0,0,0,0,0,0,0,0,-1,1021,1366,0,0
-196,-342,0,0,0,0,0,0,0,0,0,-1,1028,1366,0,0
-189,-342,0,0,0,0,0,0,0,0,0,-1,1035,1366,0,0
-182,-342,0,0,0,0,0,0,0,0,0,-1,1042,1366,0,0
-175,-342,0,0,0,0,0,0,0,0,0,-1,1049,1366,0,0
-168,-342,0,0,0,0,0,0,0,0,0,-1,1056,1366,0,0
-161,-342,0,0,0,0,0,0,0,0,0,-1,1063,1366,0,0
-154,-342,0,0,0,0,0,0,0,0,0,-1,1070,1366,0,0
-147,-342,0,0,0,0,0,0,0,0,0,-1,1077,1366,0,0
-140,-342,0,0,0,0,0,0,0,0,0,-1,1084,1366,0,0
-133,-342,0,0,0,0,0,0,0,0,0,-1,1091,1366,0,0
-126,-342,0,0,0,0,0,0,0,0,0,-1,1098,1366,0,0
-119,-342,0,0,0,0,0,0,0,0,0,-1,1105,1366,0,0
-112,-342,0,0,0,0,0,0,0,0,0,-1,1112,1366,0,0
-105,-342,0,0,0,0,0,0,0,0,0,-1,1119,1366,0,0
-98,-342,0,0,0,0,0,0,0,0,0,-1,1126,1366,0,0
-91,-342,0,0,0,0,0,0,0,0,0,-1,1133,1366,0,0
-84,-342,0,0,0,0,0,0,0,0,0,-1,1140,1366,0,0
-77,-342,0,0,0,0,0,0,0,0,0,-1,1147,1366,0,0
-70,-342,0,0,0,0,0,0,0,0,0,-1,1154,1366,0,0
-63,-342,0,0,0,0,0,0,0,0,0,-1,1161,1366,0,0
-56,-342,0,0,0,0,0,0,0,0,0,-1,1168,1366,0,0
-49,-342,0,0,0,0,0,0,0,0,0,-1,1175,1366,0,0
-42,-342,0,0,0,0,0,0,0,0,0,-1,1182,1366,0,0
-35,-342,0,0,0,0,0,0,0,0,0,-1,1189,1366,0,0
-28,-342,0,0,0,0,0,0,0,0,0,-1,1196,1366,0,0
-21,-342,0,0,0,0,0,0,0,0,0,-1,1203,1366,0,0
-14,-342,0,0,0,0,0,0,0,0,0,-1,1210,1366,0,0
-7,-342,0,0,0,0,0,0,0,0,0,-1,1217,1366,0,0
0,-342,0,0,0,0,0,0,0,0,0,-1,1224,1366,0,0
7,-342,0,0,0,0,0,0,0,0,0,-1,1231,1366,0,0
14,-342,0,0,0,0,0,0,0,0,0,-1,1238,1366,0,0
21,-342,0,0,0,0,0,0,0,0,0,-1,1245,1366,0,0
28,-342,0,0,0,0,0,0,0,0,0,-1,1252,1366,0,0
35,-342,0,0,0,0,0,0,0,0,0,-1,1259,1366,0,0
42,-342,0,0,0,0,0,0,0,0,0,-1,1266,1366,0,0
49,-342,0,0,0,0,0,0,0,0,0,-1,1273,1366,0,0
56,-342,0,0,0,0,0,0,0,0,0,-1,1280,1366,0,0
63,-342,0,0,0,0,0,0,0,0,0,-1,1287,1366,0,0
70,-342,0,0,0,0,0,0,0,0,0,-1,1294,1366,0,0
77,-342,0,0,0,0,0,0,0,0,0,-1,1301,1366,0,0
84,-342,0,0,0,0,0,0,0,0,0,-1,1308,1366,0,0
91,-342,0,0,0,0,0,0,0,0,0,-1,1315,1366,0,0
98,-342,0,0,0,0,0,0,0,0,0,-1,1322,1366,0,0
105,-342,0,0,0,0,0,0,0,0,0,-1,1329,1366,0,0
112,-342,0,0,0,0,0,0,0,0,0,-1,1336,1366,0,0
119,-342,0,0,0,0,0,0,0,0,0,-1,1343,1366,0,0
126,-342,0,0,0,0,0,0,0,0,0,-1,1350,1366,0,0
133,-342,0,0,0,0,0,0,0,0,0,-1,1357,1366,0,0
140,-342,0,0,0,0,0,0,0,0,0,-1,1364,1366,0,0
147,-342,0,0,0,0,0,0,0,0,0,-1,1371,1366,0,0
154,-342,0,0,0,0,0,0,0,0,0,-1,1378,1366,0,0
161,-342,0,0,0,0,0,0,0,0,0,-1,1385,1366,0,0
168,-342,0,0,0,0,0,0,0,0,0,-1,1392,1366,0,0
175,-342,0,0,0,0,0,0,0,0,0,-1,1399,1366,0,0
182,-342,0,0,0,0,0,0,0,0,0,-1,1406,1366,0,0
189,-342,0,0,0,0,0,0,0,0,0,-1,1413,1366,0,0
196,-342,0,0,0,0,0,0,0,0,0,-1,1420,1366,0,0
203,-342,0,0,0,0,0,0,0,0,0,-1,1427,1366,0,0
210,-342,0,0,0,0,0,0,0,0,0,-1,1434,1366,0,0
217,-342,0,0,0,0,0,0,0,0,0,-1,1441,1366,0,0
224,-342,0,0,0,0,0,0,0,0,0,-1,1448,1366,0,0
231,-342,0,0,0,0,0,0,0,0,0,-1,1455,1366,0,0
238,-342,0,0,0,0,0,0,0,0,0,-1,1462,1366,0,0
245,-342,0,0,0,0,0,0,0,0,0,-1,1469,1366,0,0
252,-342,0,0,0,0,0,0,0,0,0,-1,1476,1366,0,0
259,-342,0,0,0,0,0,0,0,0,0,-1,1483,1366,0,0
266,-342,0,0,0,0,0,0,0,0,0,-1,1490,1366,0,0
273,-342,0,0,0,0,0,0,0,0,0,-1,1497,1366,0,0
280,-342,0,0,0,0,0,0,0,0,0,-1,1504,1366,0,0
287,-342,0,0,0,0,0,0,0,0,0,-1,1511,1366,0,0
294,-342,0,0,0,0,0,0,0,0,0,-1,1518,1366,0,0
301,-342,0,0,0,0,0,0,0,0,0,-1,1525,1366,0,0
308,-342,0,0,0,0,0,0,0,0,0,-1,1532,1366,0,0
315,-342,0,0,0,0,0,0,0,0,0,-1,1539,1366,0,0
322,-342,0,0,0,0,0,0,0,0,0,-1,1546,1366,0,0
329,-342,0,0,0,0,0,0,0,0,0,-1,1553,1366,0,0
336,-342,0,0,0,0,0,0,0,0,0,-1,1560,1366,0,0
343,-342,0,0,0,0,0,0,0,0,0,-1,1567,1366,0,0
350,-342,0,0,0,0,0,0,0,0,0,-1,1574,1366,0,0
357,-342,0,0,0,0,0,0,0,0,0,-1,1581,1366,0,0
364,-342,0,0,0,0,0,0,0,0,0,-1,1588,1366,0,0
371,-342,0,0,0,0,0,0,0,0,0,-1,1595,1366,0,0
378,-342,0,0,0,0,0,0,0,0,0,-1,1602,1366,0,0
385,-342,0,0,0,0,0,0,0,0,0,-1,1609,1366,0,0
392,-342,0,0,0,0,0,0,0,0,0,-1,1616,1366,0,0
399,-342,0,0,0,0,0,0,0,0,0,-1,1623,1366,0,0
406,-342,0,0,0,0,0,0,0,0,0,-1,1630,1366,0,0
413,-342,0,0,0,0,0,0,0,0,0,-1,1637,1366,0,0
420,-342,0,0,0,0,0,0,0,0,0,-1,1644,1366,0,0
427,-342,0,0,0,0,0,0,0,0,0,-1,1651,1366,0,0
434,-342,0,0,0,0,0,0,0,0,0,-1,1658,1366,0,0
441,-342,0,0,0,0,0,0,0,0,0,-1,1665,1366,0,0
448,-342,0,0,0,0,0,0,0,0,0,-1,1672,1366,0,0
455,-342,0,0,0,0,0,0,0,0,0,-1,1679,1366,0,0
462,-342,0,0,0,0,0,0,0,0,0,-1,1686,1366,0,0
469,-342,0,0,0,0,0,0,0,0,0,-1,1693,1366,0,0
476,-342,0,0,0,0,0,0,0,0,0,-1,1700,1366,0,0
483,-342,0,0,0,0,0,0,0,0,0,-1,1707,1366,0,0
490,-342,0,0,0,0,0,0,0,0,0,-1,1714,1366,0,0
497,-342,0,0,0,0,0,0,0,0,0,-1,1721,1366,0,0
504,-342,0,0,0,0,0,0,0,0,0,-1,1728,1366,0,0
511,-342,0,0,0,0,0,0,0,0,0,-1,1735,1366,0,0
518,-342,0,0,0,0,0,0,0,0,0,-1,1742,1366,0,0
525,-342,0,0,0,0,0,0,0,0,0,-1,1749,1366,0,0
532,-342,0,0,0,0,0,0,0,0,0,-1,1756,1366,0,0
539,-342,0,0,0,0,0,0,0,0,0,-1,1763,1366,0,0
546,-342,0,0,0,0,0,0,0,0,0,-1,1770,1366,0,0
553,-342,0,0,0,0,0,0,0,0,0,-1,1777,1366,0,0
560,-342,0,0,0,0,0,0,0,0,0,-1,1784,1366,0,0
567,-342,28.3505,2.30115,-0.0161997,0.0598777,0.000285091,0.0598787,-0.0162008,1.56705,0.0462746,0.0446943,1791,1366,28.3504,-2.30121
574,-342,27.6493,2.21936,0,0,0,0,0,0,0,-1,1798,1366,27.6493,-2.2194
581,-342,27.0762,2.03662,0,0,0,0,0,0,0,-1,1805,1366,27.0761,-2.0366
588,-342,30.5975,0.437622,0,0,0,0,0,0,0,-1,1812,1366,30.5976,-0.437607
595,-342,29.0925,1.11487,0,0,0,0,0,0,0,-1,1819,1366,29.0925,-1.11484
602,-342,27.7095,1.81958,0,0,0,0,0,0,0,-1,1826,1366,27.7094,-1.81954
609,-342,26.5105,2.71521,0,0,0,0,0,0,0,-1,1833,1366,26.5105,-2.71527
616,-342,25.3981,4.00623,0,0,0,0,0,0,0,-1,1840,1366,25.398,-4.00622
623,-342,19.4404,2.64111,0,0,0,0,0,0,0,-1,1847,1366,19.4405,-2.64116
630,-342,17.3431,0.773071,0,0,0,0,0,0,0,-1,1854,1366,17.3432,-0.773095
637,-342,16.196,6.76172,0,0,0,0,0,0,0,-1,1861,1366,16.1961,-6.76174
644,-342,19.3385,8.60876,0,0,0,0,0,0,0,-1,1868,1366,19.3385,-8.60872
651,-342,19.4323,8.36743,-0.00302138,-0.000935904,-0.000251085,-0.000906101,-0.00305118,-1.45265,0.00180936,0.0272565,1875,1366,19.4322,-8.36738
658,-342,19.4019,8.01746,-0.00255087,-0.0031026,0.00068933,-0.00208426,-0.00356921,0.595064,0.00207035,0.0192958,1882,1366,19.4019,-8.01743
665,-342,19.4166,7.69836,-0.00200425,-0.00266549,0.00148006,-0.000818329,-0.00385141,0.675511,0.00234296,0.0155704,1889,1366,19.4166,-7.69839
672,-342,19.4185,7.42065,-0.00153575,-0.00222592,0.00150241,-0.000339303,-0.00342237,0.672513,0.00217731,0.0125246,1896,1366,19.4184,-7.42066
679,-342,19.4052,7.14587,-0.000910995,-0.00128555,0.00116361,8.03063e-05,-0.00227686,0.705608,0.00154537,0.0124635,1903,1366,19.4051,-7.14584
686,-342,19.4224,6.86963,-0.000372434,-0.000440938,0.000979515,0.000573429,-0.0013868,0.767921,0.00116376,0.0105183,1910,1366,19.4224,-6.86959
693,-342,19.4069,6.55347,-2.77697e-05,0.000362701,0.000933366,0.00112103,-0.000786101,0.888498,0.00110673,0.0118769,1917,1366,19.4068,-6.55343
700,-342,19.394,6.27502,0.00023117,0.00113106,0.00101285,0.00178941,-0.000427182,0.994423,0.00135792,0.0137452,1924,1366,19.394,-6.27506
707,-342,19.3947,5.9884,0.000201921,0.00191954,0.00132744,0.00264176,-0.0005203,1.07252,0.00195779,0.0134053,1931,1366,19.3946,-5.98839
714,-342,19.4248,5.73022,-0.000635109,0.00229524,0.00230149,0.00355836,-0.00189823,1.06885,0.0031986,0.0405105,1938,1366,19.4248,-5.73028
721,-342,19.1469,5.14832,0,0,0,0,0,0,0,-1,1945,1366,19.1468,-5.14837
728,-342,19.2255,4.69336,0,0,0,0,0,0,0,-1,1952,1366,19.2254,-4.6933
735,-342,19.481,4.41968,0,0,0,0,0,0,0,-1,1959,1366,19.4809,-4.41962
742,-342,19.309,2.66943,0,0,0,0,0,0,0,-1,1966,1366,19.3089,-2.66948
749,-342,21.0934,6.47729,0,0,0,0,0,0,0,-1,1973,1366,21.0934,-6.4773
756,-342,0,0,0,0,0,0,0,0,0,-1,1980,1366,0,0
763,-342,0,0,0,0,0,0,0,0,0,-1,1987,1366,0,0
770,-342,0,0,0,0,0,0,0,0,0,-1,1994,1366,0,0
777,-342,0,0,0,0,0,0,0,0,0,-1,2001,1366,0,0
784,-342,0,0,0,0,0,0,0,0,0,-1,2008,1366,0,0
791,-342,0,0,0,0,0,0,0,0,0,-1,2015,1366,0,0
798,-342,0,0,0,0,0,0,0,0,0,-1,2022,1366,0,0
805,-342,0,0,0,0,0,0,0,0,0,-1,2029,1366,0,0
812,-342,0,0,0,0,0,0,0,0,0,-1,2036,1366,0,0
-700,-349,0,0,0,0,0,0,0,0,0,-1,524,1373,0,0
-693,-349,0,0,0,0,0,0,0,0,0,-1,531,1373,0,0
-686,-349,0,0,0,0,0,0,0,0,0,-1,538,1373,0,0
-679,-349,0,0,0,0,0,0,0,0,0,-1,545,1373,0,0
-672,-349,0,0,0,0,0,0,0,0,0,-1,552,1373,0,0
-665,-349,0,0,0,0,0,0,0,0,0,-1,559,1373,0,0
-658,-349,0,0,0,0,0,0,0,0,0,-1,566,1373,0,0
-651,-349,0,0,0,0,0,0,0,0,0,-1,573,1373,0,0
-644,-349,0,0,0,0,0,0,0,0,0,-1,580,1373,0,0
-637,-349,0,0,0,0,0,0,0,0,0,-1,587,1373,0,0
-630,-349,-7.64117,-5.06177,0,0,0,0,0,0,0,-1,594,1373,-7.64118,5.0618
-623,-349,-8.63507,0.51123,0,0,0,0,0,0,0,-1,601,1373,-8.63505,-0.511275
-616,-349,-5.2066,-0.188232,0,0,0,0,0,0,0,-1,608,1373,-5.20659,0.188211
-609,-349,-7.12073,1.37048,0,0,0,0,0,0,0,-1,615,1373,-7.12072,-1.37044
-602,-349,-9.00623,3.39587,0,0,0,0,0,0,0,-1,622,1373,-9.0062,-3.39591
-595,-349,-9.50568,2.96912,0,0,0,0,0,0,0,-1,629,1373,-9.50569,-2.96906
-588,-349,-8.60046,3.56042,0,0,0,0,0,0,0,-1,636,1373,-8.60046,-3.56047
-581,-349,-8.78613,3.70154,-0.00219673,-0.00405658,-0.00242727,-0.000527345,-0.00572596,-0.602465,0.00365423,0.0487869,643,1373,-8.78615,-3.70156
-574,-349,-9.08014,3.7782,-0.00137693,-0.00340651,-0.00192636,-0.000214412,-0.00456903,-0.542973,0.00297712,0.0249712,650,1373,-9.08015,-3.7782
-567,-349,-9.10626,4.16467,-0.000628984,-0.00275098,-0.00148313,0.000133583,-0.00351354,-0.474912,0.00238814,0.0167833,657,1373,-9.10625,-4.16467
-560,-349,-9.12665,4.49597,0.000145125,-0.00216678,-0.00107712,0.000569179,-0.00259083,-0.375056,0.00194491,0.0222764,664,1373,-9.12667,-4.49596
-553,-349,-9.14508,4.73987,0.00104436,-0.00160534,-0.000637363,0.0011897,-0.00175068,-0.2242,0.0017079,0.028081,671,1373,-9.14509,-4.73984
-546,-349,-9.1319,5.05347,0.00211291,-0.00107833,-0.000118667,0.00211731,-0.00108273,-0.0371169,0.00187946,0.0301321,678,1373,-9.13189,-5.05348
-539,-349,-9.15277,5.43726,0.00329199,-0.000586243,0.000443201,0.003342,-0.000636247,0.112349,0.00246758,0.0249244,685,1373,-9.15277,-5.43726
-532,-349,-9.11536,5.77222,0.00467016,-0.000147247,0.00106632,0.00489564,-0.000372723,0.208382,0.00339483,0.0184405,692,1373,-9.11537,-5.77223
-525,-349,-9.07983,6.10254,0.00627827,0.00021216,0.00178858,0.00676636,-0.000275928,0.266405,0.00460564,0.0131204,699,1373,-9.07986,-6.1025
-518,-349,-9.07593,6.45007,0.00839401,0.000802125,0.00277469,0.00929999,-0.000103856,0.315603,0.0062349,0.0142865,706,1373,-9.07595,-6.4501
-511,-349,-8.90741,6.79736,0.0113752,0.000607008,0.00413172,0.0127779,-0.000795613,0.327269,0.00879578,0.0452566,713,1373,-8.90743,-6.79738
-504,-349,-8.74408,7.02979,0,0,0,0,0,0,0,-1,720,1373,-8.74408,-7.02983
-497,-349,-7.9339,5.58789,0,0,0,0,0,0,0,-1,727,1373,-7.93388,-5.58785
-490,-349,-8.73969,-0.503784,0,0,0,0,0,0,0,-1,734,1373,-8.73966,0.503752
-483,-349,-5.66974,3.7395,0,0,0,0,0,0,0,-1,741,1373,-5.66975,-3.73949
-476,-349,-10.8496,1.15759,0,0,0,0,0,0,0,-1,748,1373,-10.8496,-1.15756
-469,-349,-12.3314,-1.74878,0,0,0,0,0,0,0,-1,755,1373,-12.3314,1.74882
-462,-349,-12.6559,-0.995361,0,0,0,0,0,0,0,-1,762,1373,-12.656,0.995351
-455,-349,-13.2897,-0.234253,0,0,0,0,0,0,0,-1,769,1373,-13.2897,0.234261
-448,-349,-14.045,0.712891,0,0,0,0,0,0,0,-1,776,1373,-14.045,-0.712838
-441,-349,0,0,0,0,0,0,0,0,0,-1,783,1373,0,0
-434,-349,0,0,0,0,0,0,0,0,0,-1,790,1373,0,0
-427,-349,0,0,0,0,0,0,0,0,0,-1,797,1373,0,0
-420,-349,0,0,0,0,0,0,0,0,0,-1,804,1373,0,0
-413,-349,0,0,0,0,0,0,0,0,0,-1,811,1373,0,0
-406,-349,0,0,0,0,0,0,0,0,0,-1,818,1373,0,0
-399,-349,0,0,0,0,0,0,0,0,0,-1,825,1373,0,0
-392,-349,0,0,0,0,0,0,0,0,0,-1,832,1373,0,0
-385,-349,0,0,0,0,0,0,0,0,0,-1,839,1373,0,0
-378,-349,0,0,0,0,0,0,0,0,0,-1,846,1373,0,0
-371,-349,0,0,0,0,0,0,0,0,0,-1,853,1373,0,0
-364,-349,0,0,0,0,0,0,0,0,0,-1,860,1373,0,0
-357,-349,0,0,0,0,0,0,0,0,0,-1,867,1373,0,0
-350,-349,0,0,0,0,0,0,0,0,0,-1,874,1373,0,0
-343,-349,0,0,0,0,0,0,0,0,0,-1,881,1373,0,0
-336,-349,0,0,0,0,0,0,0,0,0,-1,888,1373,0,0
-329,-349,0,0,0,0,0,0,0,0,0,-1,895,1373,0,0
-322,-349,0,0,0,0,0,0,0,0,0,-1,902,1373,0,0
-315,-349,0,0,0,0,0,0,0,0,0,-1,909,1373,0,0
-308,-349,0,0,0,0,0,0,0,0,0,-1,916,1373,0,0
-301,-349,0,0,0,0,0,0,0,0,0,-1,923,1373,0,0
-294,-349,0,0,0,0,0,0,0,0,0,-1,930,1373,0,0
-287,-349,0,0,0,0,0,0,0,0,0,-1,937,1373,0,0
-280,-349,0,0,0,0,0,0,0,0,0,-1,944,1373,0,0
-273,-349,0,0,0,0,0,0,0,0,0,-1,951,1373,0,0
-266,-349,0,0,0,0,0,0,0,0,0,-1,958,1373,0,0
-259,-349,0,0,0,0,0,0,0,0,0,-1,965,1373,0,0
-252,-349,0,0,0,0,0,0,0,0,0,-1,972,1373,0,0
-245,-349,0,0,0,0,0,0,0,0,0,-1,979,1373,0,0
-238,-349,0,0,0,0,0,0,0,0,0,-1,986,1373,0,0
-231,-349,0,0,0,0,0,0,0,0,0,-1,993,1373,0,0
-224,-349,0,0,0,0,0,0,0,0,0,-1,1000,1373,0,0
-217,-349,0,0,0,0,0,0,0,0,0,-1,1007,1373,0,0
-210,-349,0,0,0,0,0,0,0,0,0,-1,1014,1373,0,0
-203,-349,0,0,0,0,0,0,0,0,0,-1,1021,1373,0,0
-196,-349,0,0,0,0,0,0,0,0,0,-1,1028,1373,0,0
-189,-349,0,0,0,0,0,0,0,0,0,-1,1035,1373,0,0
-182,-349,0,0,0,0,0,0,0,0,0,-1,1042,1373,0,0
-175,-349,0,0,0,0,0,0,0,0,0,-1,1049,1373,0,0
-168,-349,0,0,0,0,0,0,0,0,0,-1,1056,1373,0,0
-161,-349,0,0,0,0,0,0,0,0,0,-1,1063,1373,0,0
-154,-349,0,0,0,0,0,0,0,0,0,-1,1070,1373,0,0
-147,-349,0,0,0,0,0,0,0,0,0,-1,1077,1373,0,0
-140,-349,0,0,0,0,0,0,0,0,0,-1,1084,1373,0,0
-133,-349,0,0,0,0,0,0,0,0,0,-1,1091,1373,0,0
-126,-349,0,0,0,0,0,0,0,0,0,-1,1098,1373,0,0
-119,-349,0,0,0,0,0,0,0,0,0,-1,1105,1373,0,0
-112,-349,0,0,0,0,0,0,0,0,0,-1,1112,1373,0,0
-105,-349,0,0,0,0,0,0,0,0,0,-1,1119,1373,0,0
-98,-349,0,0,0,0,0,0,0,0,0,-1,1126,1373,0,0
-91,-349,0,0,0,0,0,0,0,0,0,-1,1133,1373,0,0
-84,-349,0,0,0,0,0,0,0,0,0,-1,1140,1373,0,0
-77,-349,0,0,0,0,0,0,0,0,0,-1,1147,1373,0,0
-70,-349,0,0,0,0,0,0,0,0,0,-1,1154,1373,0,0
-63,-349,0,0,0,0,0,0,0,0,0,-1,1161,1373,0,0
-56,-349,0,0,0,0,0,0,0,0,0,-1,1168,1373,0,0
-49,-349,0,0,0,0,0,0,0,0,0,-1,1175,1373,0,0
-42,-349,0,0,0,0,0,0,0,0,0,-1,1182,1373,0,0
-35,-349,0,0,0,0,0,0,0,0,0,-1,1189,1373,0,0
-28,-349,0,0,0,0,0,0,0,0,0,-1,1196,1373,0,0
-21,-349,0,0,0,0,0,0,0,0,0,-1,1203,1373,0,0
-14,-349,0,0,0,0,0,0,0,0,0,-1,1210,1373,0,0
-7,-349,0,0,0,0,0,0,0,0,0,-1,1217,1373,0,0
0,-349,0,0,0,0,0,0,0,0,0,-1,1224,1373,0,0
7,-349,0,0,0,0,0,0,0,0,0,-1,1231,1373,0,0
14,-349,0,0,0,0,0,0,0,0,0,-1,1238,1373,0,0
21,-349,0,0,0,0,0,0,0,0,0,-1,1245,1373,0,0
28,-349,0,0,0,0,0,0,0,0,0,-1,1252,1373,0,0
35,-349,0,0,0,0,0,0,0,0,0,-1,1259,1373,0,0
42,-349,0,0,0,0,0,0,0,0,0,-1,1266,1373,0,0
49,-349,0,0,0,0,0,0,0,0,0,-1,1273,1373,0,0
56,-349,0,0,0,0,0,0,0,0,0,-1,1280,1373,0,0
63,-349,0,0,0,0,0,0,0,0,0,-1,1287,1373,0,0
70,-349,0,0,0,0,0,0,0,0,0,-1,1294,1373,0,0
77,-349,0,0,0,0,0,0,0,0,0,-1,1301,1373,0,0
84,-349,0,0,0,0,0,0,0,0,0,-1,1308,1373,0,0
91,-349,0,0,0,0,0,0,0,0,0,-1,1315,1373,0,0
98,-349,0,0,0,0,0,0,0,0,0,-1,1322,1373,0,0
105,-349,0,0,0,0,0,0,0,0,0,-1,1329,1373,0,0
112,-349,0,0,0,0,0,0,0,0,0,-1,1336,1373,0,0
119,-349,0,0,0,0,0,0,0,0,0,-1,1343,1373,0,0
126,-349,0,0,0,0,0,0,0,0,0,-1,1350,1373,0,0
133,-349,0,0,0,0,0,0,0,0,0,-1,1357,1373,0,0
140,-349,0,0,0,0,0,0,0,0,0,-1,1364,1373,0,0
147,-349,0,0,0,0,0,0,0,0,0,-1,1371,1373,0,0
154,-349,0,0,0,0,0,0,0,0,0,-1,1378,1373,0,0
161,-349,0,0,0,0,0,0,0,0,0,-1,1385,1373,0,0
168,-349,0,0,0,0,0,0,0,0,0,-1,1392,1373,0,0
175,-349,0,0,0,0,0,0,0,0,0,-1,1399,1373,0,0
182,-349,0,0,0,0,0,0,0,0,0,-1,1406,1373,0,0
189,-349,0,0,0,0,0,0,0,0,0,-1,1413,1373,0,0
196,-349,0,0,0,0,0,0,0,0,0,-1,1420,1373,0,0
203,-349,0,0,0,0,0,0,0,0,0,-1,1427,1373,0,0
210,-349,0,0,0,0,0,0,0,0,0,-1,1434,1373,0,0
217,-349,0,0,0,0,0,0,0,0,0,-1,1441,1373,0,0
224,-349,0,0,0,0,0,0,0,0,0,-1,1448,1373,0,0
231,-349,0,0,0,0,0,0,0,0,0,-1,1455,1373,0,0
238,-349,0,0,0,0,0,0,0,0,0,-1,1462,1373,0,0
245,-349,0,0,0,0,0,0,0,0,0,-1,1469,1373,0,0
252,-349,0,0,0,0,0,0,0,0,0,-1,1476,1373,0,0
259,-349,0,0,0,0,0,0,0,0,0,-1,1483,1373,0,0
266,-349,0,0,0,0,0,0,0,0,0,-1,1490,1373,0,0
273,-349,0,0,0,0,0,0,0,0,0,-1,1497,1373,0,0
280,-349,0,0,0,0,0,0,0,0,0,-1,1504,1373,0,0
287,-349,0,0,0,0,0,0,0,0,0,-1,1511,1373,0,0
294,-349,0,0,0,0,0,0,0,0,0,-1,1518,1373,0,0
301,-349,0,0,0,0,0,0,0,0,0,-1,1525,1373,0,0
308,-349,0,0,0,0,0,0,0,0,0,-1,1532,1373,0,0
315,-349,0,0,0,0,0,0,0,0,0,-1,1539,1373,0,0
322,-349,0,0,0,0,0,0,0,0,0,-1,1546,1373,0,0
329,-349,0,0,0,0,0,0,0,0,0,-1,1553,1373,0,0
336,-349,0,0,0,0,0,0,0,0,0,-1,1560,1373,0,0
343,-349,0,0,0,0,0,0,0,0,0,-1,1567,1373,0,0
350,-349,0,0,0,0,0,0,0,0,0,-1,1574,1373,0,0
357,-349,0,0,0,0,0,0,0,0,0,-1,1581,1373,0,0
364,-349,0,0,0,0,0,0,0,0,0,-1,1588,1373,0,0
371,-349,0,0,0,0,0,0,0,0,0,-1,1595,1373,0,0
378,-349,0,0,0,0,0,0,0,0,0,-1,1602,1373,0,0
385,-349,0,0,0,0,0,0,0,0,0,-1,1609,1373,0,0
392,-349,0,0,0,0,0,0,0,0,0,-1,1616,1373,0,0
399,-349,0,0,0,0,0,0,0,0,0,-1,1623,1373,0,0
406,-349,0,0,0,0,0,0,0,0,0,-1,1630,1373,0,0
413,-349,0,0,0,0,0,0,0,0,0,-1,1637,1373,0,0
420,-349,0,0,0,0,0,0,0,0,0,-1,1644,1373,0,0
427,-349,0,0,0,0,0,0,0,0,0,-1,1651,1373,0,0
434,-349,0,0,0,0,0,0,0,0,0,-1,1658,1373,0,0
441,-349,0,0,0,0,0,0,0,0,0,-1,1665,1373,0,0
448,-349,0,0,0,0,0,0,0,0,0,-1,1672,1373,0,0
455,-349,0,0,0,0,0,0,0,0,0,-1,1679,1373,0,0
462,-349,0,0,0,0,0,0,0,0,0,-1,1686,1373,0,0
469,-349,0,0,0,0,0,0,0,0,0,-1,1693,1373,0,0
476,-349,0,0,0,0,0,0,0,0,0,-1,1700,1373,0,0
483,-349,0,0,0,0,0,0,0,0,0,-1,1707,1373,0,0
490,-349,0,0,0,0,0,0,0,0,0,-1,1714,1373,0,0
497,-349,0,0,0,0,0,0,0,0,0,-1,1721,1373,0,0
504,-349,0,0,0,0,0,0,0,0,0,-1,1728,1373,0,0
511,-349,0,0,0,0,0,0,0,0,0,-1,1735,1373,0,0
518,-349,0,0,0,0,0,0,0,0,0,-1,1742,1373,0,0
525,-349,0,0,0,0,0,0,0,0,0,-1,1749,1373,0,0
532,-349,0,0,0,0,0,0,0,0,0,-1,1756,1373,0,0
539,-349,0,0,0,0,0,0,0,0,0,-1,1763,1373,0,0
546,-349,0,0,0,0,0,0,0,0,0,-1,1770,1373,0,0
553,-349,0,0,0,0,0,0,0,0,0,-1,1777,1373,0,0
560,-349,27.923,2.35205,-0.00648389,0.0375616,0.00536229,0.0382051,-0.00712732,1.45138,0.0281482,0.0444307,1784,1373,27.9229,-2.35201
567,-349,27.6387,1.99731,-0.00705813,0.0343256,0.00331183,0.034589,-0.0073215,1.49144,0.0258478,0.0443182,1791,1373,27.6387,-1.99736
574,-349,26.5557,1.61719,0,0,0,0,0,0,0,-1,1798,1373,26.5557,-1.61715
581,-349,26.2068,1.54663,0,0,0,0,0,0,0,-1,1805,1373,26.2068,-1.5466
588,-349,25.8578,1.47607,0,0,0,0,0,0,0,-1,1812,1373,25.8578,-1.47604
595,-349,28.7612,1.5022,0,0,0,0,0,0,0,-1,1819,1373,28.7613,-1.50221
602,-349,23.7833,1.97021,0,0,0,0,0,0,0,-1,1826,1373,23.7833,-1.97021
609,-349,25.9697,3.4812,0,0,0,0,0,0,0,-1,1833,1373,25.9697,-3.48119
616,-349,20.7064,3.54407,0,0,0,0,0,0,0,-1,1840,1373,20.7064,-3.54402
623,-349,18.8478,2.75769,0,0,0,0,0,0,0,-1,1847,1373,18.8478,-2.75774
630,-349,15.4948,6.47644,0,0,0,0,0,0,0,-1,1854,1373,15.4947,-6.4765
637,-349,16.5161,6.92639,0,0,0,0,0,0,0,-1,1861,1373,16.5161,-6.92636
644,-349,19.2081,8.59253,0,0,0,0,0,0,0,-1,1868,1373,19.2081,-8.59254
651,-349,19.2114,8.29456,-0.00038966,-0.0016926,-0.000382695,-0.000285572,-0.00179669,-0.265563,0.00111486,0.0262688,1875,1373,19.2114,-8.2945
658,-349,19.1028,8.00842,-0.000326418,-0.00239094,0.000117152,-0.000319792,-0.00239756,0.0565034,0.00150316,0.0251808,1882,1373,19.1028,-8.00838
665,-349,19.1371,7.71252,-0.000197035,-0.00176648,0.000614521,1.49497e-05,-0.00197846,0.332178,0.00132399,0.0183275,1889,1373,19.137,-7.71254
672,-349,19.126,7.42346,-3.30016e-05,-0.0013172,0.000701814,0.000276127,-0.00162633,0.414902,0.00118701,0.0134977,1896,1373,19.126,-7.42343
679,-349,19.1105,7.1405,0.000200275,-0.000651712,0.000635682,0.000539502,-0.000990939,0.490198,0.000896322,0.0131463,1903,1373,19.1105,-7.14046
686,-349,19.1525,6.89221,0.000423789,-3.23556e-05,0.00066329,0.000897123,-0.000505689,0.619805,0.000820357,0.0126601,1910,1373,19.1525,-6.89217
693,-349,19.1431,6.59229,0.000536509,0.000575648,0.000797536,0.00135385,-0.000241698,0.797664,0.00099299,0.0163057,1917,1373,19.1431,-6.59227
700,-349,19.1315,6.30371,0.000585923,0.00121676,0.00105659,0.00200401,-0.00020133,0.930449,0.00140792,0.018154,1924,1373,19.1314,-6.30371
707,-349,19.1598,5.98462,0.000320882,0.00190408,0.00154829,0.0028514,-0.000626436,1.02171,0.00214052,0.027552,1931,1373,19.1598,-5.98458
714,-349,19.1063,5.75525,-0.000734836,0.00229526,0.00271782,0.00389179,-0.00233136,1.03967,0.0036304,0.0469546,1938,1373,19.1063,-5.75526
721,-349,18.8112,5.31873,0,0,0,0,0,0,0,-1,1945,1373,18.8112,-5.31868
728,-349,18.6333,3.73218,0,0,0,0,0,0,0,-1,1952,1373,18.6333,-3.73214
735,-349,18.1918,3.39954,0,0,0,0,0,0,0,-1,1959,1373,18.1918,-3.3995
742,-349,20.7345,2.07483,0,0,0,0,0,0,0,-1,1966,1373,20.7345,-2.07485
749,-349,21.9037,1.45789,0,0,0,0,0,0,0,-1,1973,1373,21.9037,-1.45788
756,-349,0,0,0,0,0,0,0,0,0,-1,1980,1373,0,0
763,-349,0,0,0,0,0,0,0,0,0,-1,1987,1373,0,0
770,-349,0,0,0,0,0,0,0,0,0,-1,1994,1373,0,0
777,-349,0,0,0,0,0,0,0,0,0,-1,2001,1373,0,0
784,-349,0,0,0,0,0,0,0,0,0,-1,2008,1373,0,0
791,-349,0,0,0,0,0,0,0,0,0,-1,2015,1373,0,0
798,-349,0,0,0,0,0,0,0,0,0,-1,2022,1373,0,0
805,-349,0,0,0,0,0,0,0,0,0,-1,2029,1373,0,0
812,-349,0,0,0,0,0,0,0,0,0,-1,2036,1373,0,0
-700,-356,0,0,0,0,0,0,0,0,0,-1,524,1380,0,0
-693,-356,0,0,0,0,0,0,0,0,0,-1,531,1380,0,0
-686,-356,0,0,0,0,0,0,0,0,0,-1,538,1380,0,0
-679,-356,0,0,0,0,0,0,0,0,0,-1,545,1380,0,0
-672,-356,0,0,0,0,0,0,0,0,0,-1,552,1380,0,0
-665,-356,0,0,0,0,0,0,0,0,0,-1,559,1380,0,0
-658,-356,0,0,0,0,0,0,0,0,0,-1,566,1380,0,0
-651,-356,0,0,0,0,0,0,0,0,0,-1,573,1380,0,0
-644,-356,0,0,0,0,0,0,0,0,0,-1,580,1380,0,0
-637,-356,0,0,0,0,0,0,0,0,0,-1,587,1380,0,0
-630,-356,-8.23126,-5.01917,0,0,0,0,0,0,0,-1,594,1380,-8.23124,5.0192
-623,-356,-0.263855,-0.675781,0,0,0,0,0,0,0,-1,601,1380,-0.263835,0.675841
-616,-356,-8.26532,-3.43945,0,0,0,0,0,0,0,-1,608,1380,-8.2653,3.43948
-609,-356,-4.88483,0.734497,0,0,0,0,0,0,0,-1,615,1380,-4.88485,-0.734532
-602,-356,-9.06635,2.4021,0,0,0,0,0,0,0,-1,622,1380,-9.06634,-2.40206
-595,-356,-8.45703,3.61853,0,0,0,0,0,0,0,-1,629,1380,-8.45706,-3.61848
-588,-356,-8.7243,3.45776,0,0,0,0,0,0,0,-1,636,1380,-8.72427,-3.45774
-581,-356,-8.60828,3.8219,-0.000736525,-0.00514733,-0.0022832,0.000232472,-0.00611633,-0.401365,0.00415721,0.0468198,643,1380,-8.60831,-3.82191
-574,-356,-8.59381,3.92603,-0.000302198,-0.00444365,-0.00188378,0.000426456,-0.0051723,-0.369079,0.00359879,0.0343201,650,1380,-8.59383,-3.92603
-567,-356,-8.7998,4.10706,0.000133285,-0.00365862,-0.00150622,0.000658765,-0.0041841,-0.335671,0.00303293,0.0174083,657,1380,-8.79982,-4.10705
-560,-356,-8.76349,4.47595,0.000636206,-0.00292155,-0.00114503,0.000972867,-0.00325821,-0.285961,0.00255884,0.0187184,664,1380,-8.76347,-4.47591
-553,-356,-8.77075,4.76794,0.00132312,-0.00218788,-0.000712506,0.0014622,-0.00232697,-0.192778,0.00220659,0.0213189,671,1380,-8.77076,-4.76792
-546,-356,-8.82129,5.0791,0.002199,-0.00149221,-0.000171366,0.00220694,-0.00150015,-0.0462926,0.00215321,0.0222255,678,1380,-8.82127,-5.07914
-539,-356,-8.81671,5.43579,0.00323369,-0.000825456,0.000444474,0.00328179,-0.000873555,0.107798,0.00252983,0.0158602,685,1380,-8.8167,-5.43578
-532,-356,-8.78943,5.75867,0.00448532,-0.000224044,0.00114134,0.00474735,-0.000486075,0.225671,0.00333874,0.0159664,692,1380,-8.78942,-5.75864
-525,-356,-8.78046,6.08911,0.00593842,0.000270702,0.00192141,0.00652839,-0.000319265,0.297911,0.00446249,0.0125763,699,1380,-8.78045,-6.08911
-518,-356,-8.77234,6.43628,0.00770418,0.000817001,0.00286325,0.00873904,-0.000217857,0.346819,0.00589998,0.0110293,706,1380,-8.77232,-6.4363
-511,-356,-8.61542,6.81323,0.00984205,0.000279131,0.00379464,0.0111648,-0.00104364,0.335418,0.00781436,0.030988,713,1380,-8.61544,-6.81325
-504,-356,-8.44348,7.26599,0,0,0,0,0,0,0,-1,720,1380,-8.44349,-7.26597
-497,-356,-5.68604,4.96387,0,0,0,0,0,0,0,-1,727,1380,-5.68605,-4.96385
-490,-356,-7.95288,5.5625,0,0,0,0,0,0,0,-1,734,1380,-7.95285,-5.56246
-483,-356,-7.2627,4.07446,0,0,0,0,0,0,0,-1,741,1380,-7.2627,-4.07441
-476,-356,-5.1936,4.16016,0,0,0,0,0,0,0,-1,748,1380,-5.1936,-4.16012
-469,-356,-10.0883,0.536011,0,0,0,0,0,0,0,-1,755,1380,-10.0883,-0.535989
-462,-356,-12.3481,-0.215698,0,0,0,0,0,0,0,-1,762,1380,-12.3481,0.215641
-455,-356,-13.1367,-0.264648,0,0,0,0,0,0,0,-1,769,1380,-13.1367,0.264647
-448,-356,-13.9116,-0.310181,0,0,0,0,0,0,0,-1,776,1380,-13.9115,0.310207
-441,-356,-13.1602,3.05603,0,0,0,0,0,0,0,-1,783,1380,-13.1602,-3.05609
-434,-356,0,0,0,0,0,0,0,0,0,-1,790,1380,0,0
-427,-356,0,0,0,0,0,0,0,0,0,-1,797,1380,0,0
-420,-356,0,0,0,0,0,0,0,0,0,-1,804,1380,0,0
-413,-356,0,0,0,0,0,0,0,0,0,-1,811,1380,0,0
-406,-356,0,0,0,0,0,0,0,0,0,-1,818,1380,0,0
-399,-356,0,0,0,0,0,0,0,0,0,-1,825,1380,0,0
-392,-356,0,0,0,0,0,0,0,0,0,-1,832,1380,0,0
-385,-356,0,0,0,0,0,0,0,0,0,-1,839,1380,0,0
-378,-356,0,0,0,0,0,0,0,0,0,-1,846,1380,0,0
-371,-356,0,0,0,0,0,0,0,0,0,-1,853,1380,0,0
-364,-356,0,0,0,0,0,0,0,0,0,-1,860,1380,0,0
-357,-356,0,0,0,0,0,0,0,0,0,-1,867,1380,0,0
-350,-356,0,0,0,0,0,0,0,0,0,-1,874,1380,0,0
-343,-356,0,0,0,0,0,0,0,0,0,-1,881,1380,0,0
-336,-356,0,0,0,0,0,0,0,0,0,-1,888,1380,0,0
-329,-356,0,0,0,0,0,0,0,0,0,-1,895,1380,0,0
-322,-356,0,0,0,0,0,0,0,0,0,-1,902,1380,0,0
-315,-356,0,0,0,0,0,0,0,0,0,-1,909,1380,0,0
-308,-356,0,0,0,0,0,0,0,0,0,-1,916,1380,0,0
-301,-356,0,0,0,0,0,0,0,0,0,-1,923,1380,0,0
-294,-356,0,0,0,0,0,0,0,0,0,-1,930,1380,0,0
-287,-356,0,0,0,0,0,0,0,0,0,-1,937,1380,0,0
-280,-356,0,0,0,0,0,0,0,0,0,-1,944,1380,0,0
-273,-356,0,0,0,0,0,0,0,0,0,-1,951,1380,0,0
-266,-356,0,0,0,0,0,0,0,0,0,-1,958,1380,0,0
-259,-356,0,0,0,0,0,0,0,0,0,-1,965,1380,0,0
-252,-356,0,0,0,0,0,0,0,0,0,-1,972,1380,0,0
-245,-356,0,0,0,0,0,0,0,0,0,-1,979,1380,0,0
-238,-356,0,0,0,0,0,0,0,0,0,-1,986,1380,0,0
-231,-356,0,0,0,0,0,0,0,0,0,-1,993,1380,0,0
-224,-356,0,0,0,0,0,0,0,0,0,-1,1000,1380,0,0
-217,-356,0,0,0,0,0,0,0,0,0,-1,1007,1380,0,0
-210,-356,0,0,0,0,0,0,0,0,0,-1,1014,1380,0,0
-203,-356,0,0,0,0,0,0,0,0,0,-1,1021,1380,0,0
-196,-356,0,0,0,0,0,0,0,0,0,-1,1028,1380,0,0
-189,-356,0,0,0,0,0,0,0,0,0,-1,1035,1380,0,0
-182,-356,0,0,0,0,0,0,0,0,0,-1,1042,1380,0,0
-175,-356,0,0,0,0,0,0,0,0,0,-1,1049,1380,0,0
-168,-356,0,0,0,0,0,0,0,0,0,-1,1056,1380,0,0
-161,-356,0,0,0,0,0,0,0,0,0,-1,1063,1380,0,0
-154,-356,0,0,0,0,0,0,0,0,0,-1,1070,1380,0,0
-147,-356,0,0,0,0,0,0,0,0,0,-1,1077,1380,0,0
-140,-356,0,0,0,0,0,0,0,0,0,-1,1084,1380,0,0
-133,-356,0,0,0,0,0,0,0,0,0,-1,1091,1380,0,0
-126,-356,0,0,0,0,0,0,0,0,0,-1,1098,1380,0,0
-119,-356,0,0,0,0,0,0,0,0,0,-1,1105,1380,0,0
-112,-356,0,0,0,0,0,0,0,0,0,-1,1112,1380,0,0
-105,-356,0,0,0,0,0,0,0,0,0,-1,1119,1380,0,0
-98,-356,0,0,0,0,0,0,0,0,0,-1,1126,1380,0,0
-91,-356,0,0,0,0,0,0,0,0,0,-1,1133,1380,0,0
-84,-356,0,0,0,0,0,0,0,0,0,-1,1140,1380,0,0
-77,-356,0,0,0,0,0,0,0,0,0,-1,1147,1380,0,0
-70,-356,0,0,0,0,0,0,0,0,0,-1,1154,1380,0,0
-63,-356,0,0,0,0,0,0,0,0,0,-1,1161,1380,0,0
-56,-356,0,0,0,0,0,0,0,0,0,-1,1168,1380,0,0
-49,-356,0,0,0,0,0,0,0,0,0,-1,1175,1380,0,0
-42,-356,0,0,0,0,0,0,0,0,0,-1,1182,1380,0,0
-35,-356,0,0,0,0,0,0,0,0,0,-1,1189,1380,0,0
-28,-356,0,0,0,0,0,0,0,0,0,-1,1196,1380,0,0
-21,-356,0,0,0,0,0,0,0,0,0,-1,1203,1380,0,0
-14,-356,0,0,0,0,0,0,0,0,0,-1,1210,1380,0,0
-7,-356,0,0,0,0,0,0,0,0,0,-1,1217,1380,0,0
0,-356,0,0,0,0,0,0,0,0,0,-1,1224,1380,0,0
7,-356,0,0,0,0,0,0,0,0,0,-1,1231,1380,0,0
14,-356,0,0,0,0,0,0,0,0,0,-1,1238,1380,0,0
21,-356,0,0,0,0,0,0,0,0,0,-1,1245,1380,0,0
28,-356,0,0,0,0,0,0,0,0,0,-1,1252,1380,0,0
35,-356,0,0,0,0,0,0,0,0,0,-1,1259,1380,0,0
42,-356,0,0,0,0,0,0,0,0,0,-1,1266,1380,0,0
49,-356,0,0,0,0,0,0,0,0,0,-1,1273,1380,0,0
56,-356,0,0,0,0,0,0,0,0,0,-1,1280,1380,0,0
63,-356,0,0,0,0,0,0,0,0,0,-1,1287,1380,0,0
70,-356,0,0,0,0,0,0,0,0,0,-1,1294,1380,0,0
77,-356,0,0,0,0,0,0,0,0,0,-1,1301,1380,0,0
84,-356,0,0,0,0,0,0,0,0,0,-1,1308,1380,0,0
91,-356,0,0,0,0,0,0,0,0,0,-1,1315,1380,0,0
98,-356,0,0,0,0,0,0,0,0,0,-1,1322,1380,0,0
105,-356,0,0,0,0,0,0,0,0,0,-1,1329,1380,0,0
112,-356,0,0,0,0,0,0,0,0,0,-1,1336,1380,0,0
119,-356,0,0,0,0,0,0,0,0,0,-1,1343,1380,0,0
126,-356,0,0,0,0,0,0,0,0,0,-1,1350,1380,0,0
133,-356,0,0,0,0,0,0,0,0,0,-1,1357,1380,0,0
140,-356,0,0,0,0,0,0,0,0,0,-1,1364,1380,0,0
147,-356,0,0,0,0,0,0,0,0,0,-1,1371,1380,0,0
154,-356,0,0,0,0,0,0,0,0,0,-1,1378,1380,0,0
161,-356,0,0,0,0,0,0,0,0,0,-1,1385,1380,0,0
168,-356,0,0,0,0,0,0,0,0,0,-1,1392,1380,0,0
175,-356,0,0,0,0,0,0,0,0,0,-1,1399,1380,0,0
182,-356,0,0,0,0,0,0,0,0,0,-1,1406,1380,0,0
189,-356,0,0,0,0,0,0,0,0,0,-1,1413,1380,0,0
196,-356,0,0,0,0,0,0,0,0,0,-1,1420,1380,0,0
203,-356,0,0,0,0,0,0,0,0,0,-1,1427,1380,0,0
210,-356,0,0,0,0,0,0,0,0,0,-1,1434,1380,0,0
217,-356,0,0,0,0,0,0,0,0,0,-1,1441,1380,0,0
224,-356,0,0,0,0,0,0,0,0,0,-1,1448,1380,0,0
231,-356,0,0,0,0,0,0,0,0,0,-1,1455,1380,0,0
238,-356,0,0,0,0,0,0,0,0,0,-1,1462,1380,0,0
245,-356,0,0,0,0,0,0,0,0,0,-1,1469,1380,0,0
252,-356,0,0,0,0,0,0,0,0,0,-1,1476,1380,0,0
259,-356,0,0,0,0,0,0,0,0,0,-1,1483,1380,0,0
266,-356,0,0,0,0,0,0,0,0,0,-1,1490,1380,0,0
273,-356,0,0,0,0,0,0,0,0,0,-1,1497,1380,0,0
280,-356,0,0,0,0,0,0,0,0,0,-1,1504,1380,0,0
287,-356,0,0,0,0,0,0,0,0,0,-1,1511,1380,0,0
294,-356,0,0,0,0,0,0,0,0,0,-1,1518,1380,0,0
301,-356,0,0,0,0,0,0,0,0,0,-1,1525,1380,0,0
308,-356,0,0,0,0,0,0,0,0,0,-1,1532,1380,0,0
315,-356,0,0,0,0,0,0,0,0,0,-1,1539,1380,0,0
322,-356,0,0,0,0,0,0,0,0,0,-1,1546,1380,0,0
329,-356,0,0,0,0,0,0,0,0,0,-1,1553,1380,0,0
336,-356,0,0,0,0,0,0,0,0,0,-1,1560,1380,0,0
343,-356,0,0,0,0,0,0,0,0,0,-1,1567,1380,0,0
350,-356,0,0,0,0,0,0,0,0,0,-1,1574,1380,0,0
357,-356,0,0,0,0,0,0,0,0,0,-1,1581,1380,0,0
364,-356,0,0,0,0,0,0,0,0,0,-1,1588,1380,0,0
371,-356,0,0,0,0,0,0,0,0,0,-1,1595,1380,0,0
378,-356,0,0,0,0,0,0,0,0,0,-1,1602,1380,0,0
385,-356,0,0,0,0,0,0,0,0,0,-1,1609,1380,0,0
392,-356,0,0,0,0,0,0,0,0,0,-1,1616,1380,0,0
399,-356,0,0,0,0,0,0,0,0,0,-1,1623,1380,0,0
406,-356,0,0,0,0,0,0,0,0,0,-1,1630,1380,0,0
413,-356,0,0,0,0,0,0,0,0,0,-1,1637,1380,0,0
420,-356,0,0,0,0,0,0,0,0,0,-1,1644,1380,0,0
427,-356,0,0,0,0,0,0,0,0,0,-1,1651,1380,0,0
434,-356,0,0,0,0,0,0,0,0,0,-1,1658,1380,0,0
441,-356,0,0,0,0,0,0,0,0,0,-1,1665,1380,0,0
448,-356,0,0,0,0,0,0,0,0,0,-1,1672,1380,0,0
455,-356,0,0,0,0,0,0,0,0,0,-1,1679,1380,0,0
462,-356,0,0,0,0,0,0,0,0,0,-1,1686,1380,0,0
469,-356,0,0,0,0,0,0,0,0,0,-1,1693,1380,0,0
476,-356,0,0,0,0,0,0,0,0,0,-1,1700,1380,0,0
483,-356,0,0,0,0,0,0,0,0,0,-1,1707,1380,0,0
490,-356,0,0,0,0,0,0,0,0,0,-1,1714,1380,0,0
497,-356,0,0,0,0,0,0,0,0,0,-1,1721,1380,0,0
504,-356,0,0,0,0,0,0,0,0,0,-1,1728,1380,0,0
511,-356,0,0,0,0,0,0,0,0,0,-1,1735,1380,0,0
518,-356,0,0,0,0,0,0,0,0,0,-1,1742,1380,0,0
525,-356,0,0,0,0,0,0,0,0,0,-1,1749,1380,0,0
532,-356,0,0,0,0,0,0,0,0,0,-1,1756,1380,0,0
539,-356,0,0,0,0,0,0,0,0,0,-1,1763,1380,0,0
546,-356,0,0,0,0,0,0,0,0,0,-1,1770,1380,0,0
553,-356,0,0,0,0,0,0,0,0,0,-1,1777,1380,0,0
560,-356,27.4741,2.35632,0.0118182,0.0113788,0.00965423,0.0212552,0.00194178,0.774021,0.0135693,0.0457183,1784,1380,27.4741,-2.35628
567,-356,27.629,2.0238,0.00572998,0.0128819,0.0073075,0.0174415,0.0011704,1.01295,0.0112578,0.0433205,1791,1380,27.629,-2.02379
574,-356,27.6868,1.91602,-0.00120482,0.0167046,0.00433033,0.0176966,-0.00219689,1.34558,0.0125941,0.0430855,1798,1380,27.6868,-1.91596
581,-356,25.3553,0.976563,0,0,0,0,0,0,0,-1,1805,1380,25.3553,-0.976557
588,-356,26.4154,2.92017,0,0,0,0,0,0,0,-1,1812,1380,26.4154,-2.92022
595,-356,26.1548,2.41577,0,0,0,0,0,0,0,-1,1819,1380,26.1548,-2.4158
602,-356,26.4584,4.25854,0,0,0,0,0,0,0,-1,1826,1380,26.4584,-4.25854
609,-356,24.8436,4.71606,0,0,0,0,0,0,0,-1,1833,1380,24.8437,-4.716
616,-356,20.2087,3.72729,0,0,0,0,0,0,0,-1,1840,1380,20.2088,-3.72729
623,-356,16.1803,1.07532,0,0,0,0,0,0,0,-1,1847,1380,16.1803,-1.07529
630,-356,16.4138,6.91553,0,0,0,0,0,0,0,-1,1854,1380,16.4138,-6.9155
637,-356,18.7842,9.27368,0,0,0,0,0,0,0,-1,1861,1380,18.7841,-9.27365
644,-356,18.8157,8.73926,-0.00188424,0.003569,-0.00301471,0.00490723,-0.00322247,-1.15303,0.00472716,0.0360013,1868,1380,18.8156,-8.73922
651,-356,18.8923,8.29578,0.00109506,-0.00214838,-0.000905727,0.00133084,-0.00238416,-0.254672,0.00217341,0.0158877,1875,1380,18.8923,-8.29582
658,-356,18.8706,7.9823,0.000830555,-0.00159097,-0.00029492,0.000865956,-0.00162638,-0.119464,0.0014611,0.0139054,1882,1380,18.8706,-7.98231
665,-356,18.8699,7.72791,0.000749966,-0.00103645,0.000154896,0.000763297,-0.00104978,0.0858535,0.00105113,0.0133771,1889,1380,18.8699,-7.72787
672,-356,18.8256,7.46924,0.000739762,-0.000663611,0.000311645,0.000805856,-0.000729705,0.208984,0.00088692,0.0137821,1896,1380,18.8256,-7.46929
679,-356,18.829,7.17444,0.00076151,-0.000195774,0.000392869,0.000902097,-0.00033636,0.343648,0.000739473,0.0157758,1903,1380,18.829,-7.17442
686,-356,18.8451,6.88062,0.000829551,0.000252747,0.000521015,0.00113666,-5.43615e-05,0.53262,0.000776528,0.0154726,1910,1380,18.8451,-6.88065
693,-356,18.8618,6.61072,0.000891759,0.000702307,0.000720427,0.00152366,7.04051e-05,0.72003,0.000993138,0.0144466,1917,1380,18.8618,-6.6107
700,-356,18.8673,6.28882,0.000963978,0.00128513,0.00100604,0.00214333,0.00010578,0.864536,0.00139496,0.0197708,1924,1380,18.8674,-6.28881
707,-356,18.9464,5.83691,0,0,0,0,0,0,0,-1,1931,1380,18.9464,-5.83689
714,-356,18.8025,5.20215,0,0,0,0,0,0,0,-1,1938,1380,18.8025,-5.20219
721,-356,17.2948,4.1958,0,0,0,0,0,0,0,-1,1945,1380,17.2948,-4.19584
728,-356,19.1846,2.31519,0,0,0,0,0,0,0,-1,1952,1380,19.1846,-2.31514
735,-356,20.0731,2.50842,0,0,0,0,0,0,0,-1,1959,1380,20.0731,-2.50844
742,-356,21.0111,2.43762,0,0,0,0,0,0,0,-1,1966,1380,21.0112,-2.43762
749,-356,22.1411,1.83276,0,0,0,0,0,0,0,-1,1973,1380,22.1411,-1.83275
756,-356,0,0,0,0,0,0,0,0,0,-1,1980,1380,0,0
763,-356,0,0,0,0,0,0,0,0,0,-1,1987,1380,0,0
770,-356,0,0,0,0,0,0,0,0,0,-1,1994,1380,0,0
777,-356,0,0,0,0,0,0,0,0,0,-1,2001,1380,0,0
784,-356,0,0,0,0,0,0,0,0,0,-1,2008,1380,0,0
791,-356,0,0,0,0,0,0,0,0,0,-1,2015,1380,0,0
798,-356,0,0,0,0,0,0,0,0,0,-1,2022,1380,0,0
805,-356,0,0,0,0,0,0,0,0,0,-1,2029,1380,0,0
812,-356,0,0,0,0,0,0,0,0,0,-1,2036,1380,0,0
-700,-363,0,0,0,0,0,0,0,0,0,-1,524,1387,0,0
-693,-363,0,0,0,0,0,0,0,0,0,-1,531,1387,0,0
-686,-363,0,0,0,0,0,0,0,0,0,-1,538,1387,0,0
-679,-363,0,0,0,0,0,0,0,0,0,-1,545,1387,0,0
-672,-363,0,0,0,0,0,0,0,0,0,-1,552,1387,0,0
-665,-363,0,0,0,0,0,0,0,0,0,-1,559,1387,0,0
-658,-363,0,0,0,0,0,0,0,0,0,-1,566,1387,0,0
-651,-363,0,0,0,0,0,0,0,0,0,-1,573,1387,0,0
-644,-363,0,0,0,0,0,0,0,0,0,-1,580,1387,0,0
-637,-363,0,0,0,0,0,0,0,0,0,-1,587,1387,0,0
-630,-363,0,0,0,0,0,0,0,0,0,-1,594,1387,0,0
-623,-363,-9.67566,-5.91846,0,0,0,0,0,0,0,-1,601,1387,-9.67563,5.91847
-616,-363,-9.02985,-2.98083,0,0,0,0,0,0,0,-1,608,1387,-9.02987,2.98079
-609,-363,-4.90265,0.195679,0,0,0,0,0,0,0,-1,615,1387,-4.90263,-0.195721
-602,-363,-9.65009,3.5321,0,0,0,0,0,0,0,-1,622,1387,-9.65007,-3.53211
-595,-363,-7.42413,3.23181,0,0,0,0,0,0,0,-1,629,1387,-7.42415,-3.23179
-588,-363,-8.3053,3.63562,0,0,0,0,0,0,0,-1,636,1387,-8.30529,-3.63562
-581,-363,-8.27795,3.92346,0,0,0,0,0,0,0,-1,643,1387,-8.27797,-3.92352
-574,-363,-8.41327,3.73816,0,0,0,0,0,0,0,-1,650,1387,-8.41329,-3.73815
-567,-363,-8.45197,4.14026,0.0011005,-0.00501116,-0.00151661,0.00145615,-0.00536681,-0.230342,0.00414932,0.0263993,657,1387,-8.45197,-4.14028
-560,-363,-8.44037,4.43494,0.00118701,-0.00402807,-0.00129493,0.00149085,-0.00433191,-0.230466,0.00349261,0.0127789,664,1387,-8.44036,-4.43495
-553,-363,-8.44995,4.78699,0.00152322,-0.00305613,-0.000938538,0.00170811,-0.00324102,-0.194506,0.00290271,0.0130876,671,1387,-8.44995,-4.78704
-546,-363,-8.45715,5.09705,0.00209409,-0.00213469,-0.000426329,0.00213664,-0.00217725,-0.099482,0.00249066,0.0128627,678,1387,-8.45715,-5.09707
-539,-363,-8.43195,5.41919,0.00287796,-0.00126392,0.000198738,0.00288748,-0.00127343,0.047836,0.00246181,0.0151229,685,1387,-8.43195,-5.41918
-532,-363,-8.46637,5.76892,0.00391746,-0.000475501,0.000944006,0.00411173,-0.000669767,0.202956,0.00298952,0.0144699,692,1387,-8.46636,-5.76896
-525,-363,-8.46234,6.08643,0.00518174,0.000180707,0.0017796,0.00575036,-0.000387908,0.309266,0.0039692,0.011859,699,1387,-8.46235,-6.08647
-518,-363,-8.45105,6.42651,0.0066547,0.000721099,0.00269943,0.00769898,-0.000323189,0.369123,0.00524371,0.00969281,706,1387,-8.45107,-6.42652
-511,-363,-8.40039,6.7804,0.00828375,0.000109417,0.0034059,0.00951684,-0.00112367,0.347364,0.00675036,0.0179743,713,1387,-8.4004,-6.78045
-504,-363,-8.17871,7.1637,0,0,0,0,0,0,0,-1,720,1387,-8.17868,-7.16372
-497,-363,-7.18842,7.29944,0,0,0,0,0,0,0,-1,727,1387,-7.18839,-7.29945
-490,-363,-5.42413,4.6958,0,0,0,0,0,0,0,-1,734,1387,-5.42412,-4.69583
-483,-363,-6.28375,4.1394,0,0,0,0,0,0,0,-1,741,1387,-6.28374,-4.13944
-476,-363,-5.83807,4.31018,0,0,0,0,0,0,0,-1,748,1387,-5.8381,-4.31013
-469,-363,-10.7125,0.697754,0,0,0,0,0,0,0,-1,755,1387,-10.7125,-0.697811
-462,-363,-9.55951,-0.0830078,0,0,0,0,0,0,0,-1,762,1387,-9.55949,0.0830163
-455,-363,-13.1008,-0.290894,0,0,0,0,0,0,0,-1,769,1387,-13.1008,0.290921
-448,-363,-11.7324,2.46606,0,0,0,0,0,0,0,-1,776,1387,-11.7324,-2.46605
-441,-363,-12.4464,2.5354,0,0,0,0,0,0,0,-1,783,1387,-12.4463,-2.53537
-434,-363,-13.6918,2.14661,0,0,0,0,0,0,0,-1,790,1387,-13.6918,-2.14662
-427,-363,0,0,0,0,0,0,0,0,0,-1,797,1387,0,0
-420,-363,0,0,0,0,0,0,0,0,0,-1,804,1387,0,0
-413,-363,0,0,0,0,0,0,0,0,0,-1,811,1387,0,0
-406,-363,0,0,0,0,0,0,0,0,0,-1,818,1387,0,0
-399,-363,0,0,0,0,0,0,0,0,0,-1,825,1387,0,0
-392,-363,0,0,0,0,0,0,0,0,0,-1,832,1387,0,0
-385,-363,0,0,0,0,0,0,0,0,0,-1,839,1387,0,0
-378,-363,0,0,0,0,0,0,0,0,0,-1,846,1387,0,0
-371,-363,0,0,0,0,0,0,0,0,0,-1,853,1387,0,0
-364,-363,0,0,0,0,0,0,0,0,0,-1,860,1387,0,0
-357,-363,0,0,0,0,0,0,0,0,0,-1,867,1387,0,0
-350,-363,0,0,0,0,0,0,0,0,0,-1,874,1387,0,0
-343,-363,0,0,0,0,0,0,0,0,0,-1,881,1387,0,0
-336,-363,0,0,0,0,0,0,0,0,0,-1,888,1387,0,0
-329,-363,0,0,0,0,0,0,0,0,0,-1,895,1387,0,0
-322,-363,0,0,0,0,0,0,0,0,0,-1,902,1387,0,0
-315,-363,0,0,0,0,0,0,0,0,0,-1,909,1387,0,0
-308,-363,0,0,0,0,0,0,0,0,0,-1,916,1387,0,0
-301,-363,0,0,0,0,0,0,0,0,0,-1,923,1387,0,0
-294,-363,0,0,0,0,0,0,0,0,0,-1,930,1387,0,0
-287,-363,0,0,0,0,0,0,0,0,0,-1,937,1387,0,0
-280,-363,0,0,0,0,0,0,0,0,0,-1,944,1387,0,0
-273,-363,0,0,0,0,0,0,0,0,0,-1,951,1387,0,0
-266,-363,0,0,0,0,0,0,0,0,0,-1,958,1387,0,0
-259,-363,0,0,0,0,0,0,0,0,0,-1,965,1387,0,0
-252,-363,0,0,0,0,0,0,0,0,0,-1,972,1387,0,0
-245,-363,0,0,0,0,0,0,0,0,0,-1,979,1387,0,0
-238,-363,0,0,0,0,0,0,0,0,0,-1,986,1387,0,0
-231,-363,0,0,0,0,0,0,0,0,0,-1,993,1387,0,0
-224,-363,0,0,0,0,0,0,0,0,0,-1,1000,1387,0,0
-217,-363,0,0,0,0,0,0,0,0,0,-1,1007,1387,0,0
-210,-363,0,0,0,0,0,0,0,0,0,-1,1014,1387,0,0
-203,-363,0,0,0,0,0,0,0,0,0,-1,1021,1387,0,0
-196,-363,0,0,0,0,0,0,0,0,0,-1,1028,1387,0,0
-189,-363,0,0,0,0,0,0,0,0,0,-1,1035,1387,0,0
-182,-363,0,0,0,0,0,0,0,0,0,-1,1042,1387,0,0
-175,-363,0,0,0,0,0,0,0,0,0,-1,1049,1387,0,0
-168,-363,0,0,0,0,0,0,0,0,0,-1,1056,1387,0,0
-161,-363,0,0,0,0,0,0,0,0,0,-1,1063,1387,0,0
-154,-363,0,0,0,0,0,0,0,0,0,-1,1070,1387,0,0
-147,-363,0,0,0,0,0,0,0,0,0,-1,1077,1387,0,0
-140,-363,0,0,0,0,0,0,0,0,0,-1,1084,1387,0,0
-133,-363,0,0,0,0,0,0,0,0,0,-1,1091,1387,0,0
-126,-363,0,0,0,0,0,0,0,0,0,-1,1098,1387,0,0
-119,-363,0,0,0,0,0,0,0,0,0,-1,1105,1387,0,0
-112,-363,0,0,0,0,0,0,0,0,0,-1,1112,1387,0,0
-105,-363,0,0,0,0,0,0,0,0,0,-1,1119,1387,0,0
-98,-363,0,0,0,0,0,0,0,0,0,-1,1126,1387,0,0
-91,-363,0,0,0,0,0,0,0,0,0,-1,1133,1387,0,0
-84,-363,0,0,0,0,0,0,0,0,0,-1,1140,1387,0,0
-77,-363,0,0,0,0,0,0,0,0,0,-1,1147,1387,0,0
-70,-363,0,0,0,0,0,0,0,0,0,-1,1154,1387,0,0
-63,-363,0,0,0,0,0,0,0,0,0,-1,1161,1387,0,0
-56,-363,0,0,0,0,0,0,0,0,0,-1,1168,1387,0,0
-49,-363,0,0,0,0,0,0,0,0,0,-1,1175,1387,0,0
-42,-363,0,0,0,0,0,0,0,0,0,-1,1182,1387,0,0
-35,-363,0,0,0,0,0,0,0,0,0,-1,1189,1387,0,0
-28,-363,0,0,0,0,0,0,0,0,0,-1,1196,1387,0,0
-21,-363,0,0,0,0,0,0,0,0,0,-1,1203,1387,0,0
-14,-363,0,0,0,0,0,0,0,0,0,-1,1210,1387,0,0
-7,-363,0,0,0,0,0,0,0,0,0,-1,1217,1387,0,0
0,-363,0,0,0,0,0,0,0,0,0,-1,1224,1387,0,0
7,-363,0,0,0,0,0,0,0,0,0,-1,1231,1387,0,0
14,-363,0,0,0,0,0,0,0,0,0,-1,1238,1387,0,0
21,-363,0,0,0,0,0,0,0,0,0,-1,1245,1387,0,0
28,-363,0,0,0,0,0,0,0,0,0,-1,1252,1387,0,0
35,-363,0,0,0,0,0,0,0,0,0,-1,1259,1387,0,0
42,-363,0,0,0,0,0,0,0,0,0,-1,1266,1387,0,0
49,-363,0,0,0,0,0,0,0,0,0,-1,1273,1387,0,0
56,-363,0,0,0,0,0,0,0,0,0,-1,1280,1387,0,0
63,-363,0,0,0,0,0,0,0,0,0,-1,1287,1387,0,0
70,-363,0,0,0,0,0,0,0,0,0,-1,1294,1387,0,0
77,-363,0,0,0,0,0,0,0,0,0,-1,1301,1387,0,0
84,-363,0,0,0,0,0,0,0,0,0,-1,1308,1387,0,0
91,-363,0,0,0,0,0,0,0,0,0,-1,1315,1387,0,0
98,-363,0,0,0,0,0,0,0,0,0,-1,1322,1387,0,0
105,-363,0,0,0,0,0,0,0,0,0,-1,1329,1387,0,0
112,-363,0,0,0,0,0,0,0,0,0,-1,1336,1387,0,0
119,-363,0,0,0,0,0,0,0,0,0,-1,1343,1387,0,0
126,-363,0,0,0,0,0,0,0,0,0,-1,1350,1387,0,0
133,-363,0,0,0,0,0,0,0,0,0,-1,1357,1387,0,0
140,-363,0,0,0,0,0,0,0,0,0,-1,1364,1387,0,0
147,-363,0,0,0,0,0,0,0,0,0,-1,1371,1387,0,0
154,-363,0,0,0,0,0,0,0,0,0,-1,1378,1387,0,0
161,-363,0,0,0,0,0,0,0,0,0,-1,1385,1387,0,0
168,-363,0,0,0,0,0,0,0,0,0,-1,1392,1387,0,0
175,-363,0,0,0,0,0,0,0,0,0,-1,1399,1387,0,0
182,-363,0,0,0,0,0,0,0,0,0,-1,1406,1387,0,0
189,-363,0,0,0,0,0,0,0,0,0,-1,1413,1387,0,0
196,-363,0,0,0,0,0,0,0,0,0,-1,1420,1387,0,0
203,-363,0,0,0,0,0,0,0,0,0,-1,1427,1387,0,0
210,-363,0,0,0,0,0,0,0,0,0,-1,1434,1387,0,0
217,-363,0,0,0,0,0,0,0,0,0,-1,1441,1387,0,0
224,-363,0,0,0,0,0,0,0,0,0,-1,1448,1387,0,0
231,-363,0,0,0,0,0,0,0,0,0,-1,1455,1387,0,0
238,-363,0,0,0,0,0,0,0,0,0,-1,1462,1387,0,0
245,-363,0,0,0,0,0,0,0,0,0,-1,1469,1387,0,0
252,-363,0,0,0,0,0,0,0,0,0,-1,1476,1387,0,0
259,-363,0,0,0,0,0,0,0,0,0,-1,1483,1387,0,0
266,-363,0,0,0,0,0,0,0,0,0,-1,1490,1387,0,0
273,-363,0,0,0,0,0,0,0,0,0,-1,1497,1387,0,0
280,-363,0,0,0,0,0,0,0,0,0,-1,1504,1387,0,0
287,-363,0,0,0,0,0,0,0,0,0,-1,1511,1387,0,0
294,-363,0,0,0,0,0,0,0,0,0,-1,1518,1387,0,0
301,-363,0,0,0,0,0,0,0,0,0,-1,1525,1387,0,0
308,-363,0,0,0,0,0,0,0,0,0,-1,1532,1387,0,0
315,-363,0,0,0,0,0,0,0,0,0,-1,1539,1387,0,0
322,-363,0,0,0,0,0,0,0,0,0,-1,1546,1387,0,0
329,-363,0,0,0,0,0,0,0,0,0,-1,1553,1387,0,0
336,-363,0,0,0,0,0,0,0,0,0,-1,1560,1387,0,0
343,-363,0,0,0,0,0,0,0,0,0,-1,1567,1387,0,0
350,-363,0,0,0,0,0,0,0,0,0,-1,1574,1387,0,0
357,-363,0,0,0,0,0,0,0,0,0,-1,1581,1387,0,0
364,-363,0,0,0,0,0,0,0,0,0,-1,1588,1387,0,0
371,-363,0,0,0,0,0,0,0,0,0,-1,1595,1387,0,0
378,-363,0,0,0,0,0,0,0,0,0,-1,1602,1387,0,0
385,-363,0,0,0,0,0,0,0,0,0,-1,1609,1387,0,0
392,-363,0,0,0,0,0,0,0,0,0,-1,1616,1387,0,0
399,-363,0,0,0,0,0,0,0,0,0,-1,1623,1387,0,0
406,-363,0,0,0,0,0,0,0,0,0,-1,1630,1387,0,0
413,-363,0,0,0,0,0,0,0,0,0,-1,1637,1387,0,0
420,-363,0,0,0,0,0,0,0,0,0,-1,1644,1387,0,0
427,-363,0,0,0,0,0,0,0,0,0,-1,1651,1387,0,0
434,-363,0,0,0,0,0,0,0,0,0,-1,1658,1387,0,0
441,-363,0,0,0,0,0,0,0,0,0,-1,1665,1387,0,0
448,-363,0,0,0,0,0,0,0,0,0,-1,1672,1387,0,0
455,-363,0,0,0,0,0,0,0,0,0,-1,1679,1387,0,0
462,-363,0,0,0,0,0,0,0,0,0,-1,1686,1387,0,0
469,-363,0,0,0,0,0,0,0,0,0,-1,1693,1387,0,0
476,-363,0,0,0,0,0,0,0,0,0,-1,1700,1387,0,0
483,-363,0,0,0,0,0,0,0,0,0,-1,1707,1387,0,0
490,-363,0,0,0,0,0,0,0,0,0,-1,1714,1387,0,0
497,-363,0,0,0,0,0,0,0,0,0,-1,1721,1387,0,0
504,-363,0,0,0,0,0,0,0,0,0,-1,1728,1387,0,0
511,-363,0,0,0,0,0,0,0,0,0,-1,1735,1387,0,0
518,-363,0,0,0,0,0,0,0,0,0,-1,1742,1387,0,0
525,-363,0,0,0,0,0,0,0,0,0,-1,1749,1387,0,0
532,-363,0,0,0,0,0,0,0,0,0,-1,1756,1387,0,0
539,-363,0,0,0,0,0,0,0,0,0,-1,1763,1387,0,0
546,-363,0,0,0,0,0,0,0,0,0,-1,1770,1387,0,0
553,-363,26.4719,2.09753,0,0,0,0,0,0,0,-1,1777,1387,26.472,-2.09757
560,-363,27.1924,2.3584,0.0312019,-0.00809855,0.0139772,0.0356658,-0.0125625,0.309134,0.02889,0.04639,1784,1387,27.1924,-2.35836
567,-363,27.807,2.3446,0.0133046,-0.00173755,0.0123675,0.0202584,-0.00869135,0.51221,0.0171531,0.0446526,1791,1387,27.807,-2.34464
574,-363,27.5302,2.14966,2.58722e-05,0.005732,0.00941735,0.012719,-0.0069611,0.932482,0.0115233,0.0399421,1798,1387,27.5301,-2.1497
581,-363,27.4109,1.98157,-0.00944216,0.0135509,0.00588899,0.0149714,-0.0108627,1.3341,0.0149781,0.0400873,1805,1387,27.4109,-1.98154
588,-363,27.2375,1.81982,0,0,0,0,0,0,0,-1,1812,1387,27.2375,-1.81978
595,-363,26.0861,3.62463,0,0,0,0,0,0,0,-1,1819,1387,26.086,-3.62466
602,-363,25.7437,5.33667,0,0,0,0,0,0,0,-1,1826,1387,25.7437,-5.33667
609,-363,17.3979,1.55103,0,0,0,0,0,0,0,-1,1833,1387,17.3979,-1.55098
616,-363,16.229,1.08704,0,0,0,0,0,0,0,-1,1840,1387,16.229,-1.08706
623,-363,15.7283,7.16663,0,0,0,0,0,0,0,-1,1847,1387,15.7282,-7.16665
630,-363,18.2355,9.05591,0,0,0,0,0,0,0,-1,1854,1387,18.2355,-9.05595
637,-363,18.321,8.82349,-0.00588378,0.0085529,-0.00311266,0.00919542,-0.0065263,-1.36723,0.00912044,0.0496863,1861,1387,18.321,-8.82354
644,-363,18.5555,8.63245,-0.00232018,0.00198984,-0.00158469,0.00250977,-0.00284011,-1.25377,0.00309072,0.0128943,1868,1387,18.5556,-8.63249
651,-363,18.5786,8.29614,0.000966943,-0.00165793,-0.000565254,0.00108349,-0.00177448,-0.20334,0.00166605,0.0109917,1875,1387,18.5786,-8.29614
658,-363,18.5756,7.9939,0.00116184,-0.00117519,-0.00028973,0.00119722,-0.00121057,-0.121523,0.00139015,0.0113303,1882,1387,18.5756,-7.99384
665,-363,18.5568,7.7439,0.00116618,-0.000750738,4.46803e-07,0.00116618,-0.000750738,0.000233084,0.00111536,0.0113696,1889,1387,18.5568,-7.74395
672,-363,18.5427,7.48303,0.00112566,-0.000400157,0.000166639,0.00114365,-0.000418144,0.107524,0.000933566,0.012941,1896,1387,18.5427,-7.48305
679,-363,18.5482,7.18799,0.00111541,-1.91388e-06,0.000309694,0.00119551,-8.20115e-05,0.253089,0.0008257,0.0146162,1903,1387,18.5482,-7.18801
686,-363,18.5543,6.88806,0.00111679,0.000372097,0.000476975,0.00134954,0.000139343,0.453985,0.000857033,0.0144462,1910,1387,18.5543,-6.88809
693,-363,18.5568,6.57776,0.0012228,0.000731869,0.000684484,0.0017045,0.000250167,0.613236,0.0010628,0.0135062,1917,1387,18.5568,-6.57779
700,-363,18.6514,6.23438,0.00136699,0.00131529,0.000951531,0.00229302,0.000389256,0.771818,0.00141687,0.0202257,1924,1387,18.6514,-6.2344
707,-363,18.8029,5.91943,0,0,0,0,0,0,0,-1,1931,1387,18.8029,-5.91945
714,-363,16.5782,5.3147,0,0,0,0,0,0,0,-1,1938,1387,16.5783,-5.31472
721,-363,14.4045,4.51685,0,0,0,0,0,0,0,-1,1945,1387,14.4045,-4.51685
728,-363,19.9756,0.853027,0,0,0,0,0,0,0,-1,1952,1387,19.9756,-0.853059
735,-363,21.4297,1.2981,0,0,0,0,0,0,0,-1,1959,1387,21.4297,-1.29811
742,-363,21.3621,2.79663,0,0,0,0,0,0,0,-1,1966,1387,21.362,-2.7966
749,-363,0,0,0,0,0,0,0,0,0,-1,1973,1387,0,0
756,-363,0,0,0,0,0,0,0,0,0,-1,1980,1387,0,0
763,-363,0,0,0,0,0,0,0,0,0,-1,1987,1387,0,0
770,-363,0,0,0,0,0,0,0,0,0,-1,1994,1387,0,0
777,-363,0,0,0,0,0,0,0,0,0,-1,2001,1387,0,0
784,-363,0,0,0,0,0,0,0,0,0,-1,2008,1387,0,0
791,-363,0,0,0,0,0,0,0,0,0,-1,2015,1387,0,0
798,-363,0,0,0,0,0,0,0,0,0,-1,2022,1387,0,0
805,-363,0,0,0,0,0,0,0,0,0,-1,2029,1387,0,0
812,-363,0,0,0,0,0,0,0,0,0,-1,2036,1387,0,0
-700,-370,0,0,0,0,0,0,0,0,0,-1,524,1394,0,0
-693,-370,0,0,0,0,0,0,0,0,0,-1,531,1394,0,0
-686,-370,0,0,0,0,0,0,0,0,0,-1,538,1394,0,0
-679,-370,0,0,0,0,0,0,0,0,0,-1,545,1394,0,0
-672,-370,0,0,0,0,0,0,0,0,0,-1,552,1394,0,0
-665,-370,0,0,0,0,0,0,0,0,0,-1,559,1394,0,0
-658,-370,0,0,0,0,0,0,0,0,0,-1,566,1394,0,0
-651,-370,0,0,0,0,0,0,0,0,0,-1,573,1394,0,0
-644,-370,0,0,0,0,0,0,0,0,0,-1,580,1394,0,0
-637,-370,0,0,0,0,0,0,0,0,0,-1,587,1394,0,0
-630,-370,0,0,0,0,0,0,0,0,0,-1,594,1394,0,0
-623,-370,-10.1758,-7.10486,0,0,0,0,0,0,0,-1,601,1394,-10.1758,7.10483
-616,-370,-8.85925,-1.61475,0,0,0,0,0,0,0,-1,608,1394,-8.85925,1.61476
-609,-370,-5.39325,0.0421143,0,0,0,0,0,0,0,-1,615,1394,-5.39328,-0.0421372
-602,-370,-10.5386,4.50964,0,0,0,0,0,0,0,-1,622,1394,-10.5386,-4.50963
-595,-370,-7.53284,5.44214,0,0,0,0,0,0,0,-1,629,1394,-7.53284,-5.44216
-588,-370,-7.75159,2.92334,0,0,0,0,0,0,0,-1,636,1394,-7.75158,-2.92338
-581,-370,-7.79224,3.46655,0,0,0,0,0,0,0,-1,643,1394,-7.79225,-3.46651
-574,-370,-7.89655,3.87915,0.00395318,-0.00807364,-0.00109012,0.0040512,-0.00817165,-0.0896673,0.00718928,0.0386988,650,1394,-7.89655,-3.87912
-567,-370,-7.99359,4.19482,0.00299792,-0.00671355,-0.00129233,0.00316695,-0.00688258,-0.130058,0.00593282,0.0321736,657,1394,-7.99358,-4.19488
-560,-370,-8.13568,4.42505,0.00233074,-0.00542089,-0.0013282,0.002552,-0.00564215,-0.165073,0.00484173,0.0177288,664,1394,-8.13571,-4.42511
-553,-370,-8.11975,4.78894,0.00207816,-0.00416593,-0.00113526,0.00227816,-0.00436594,-0.174382,0.00389859,0.010721,671,1394,-8.11972,-4.78894
-546,-370,-8.08093,5.10974,0.00216939,-0.00298729,-0.000729472,0.00227059,-0.00308849,-0.137859,0.00310606,0.0139692,678,1394,-8.08093,-5.10973
-539,-370,-8.08093,5.47668,0.00256585,-0.00189705,-0.000170106,0.00257232,-0.00190353,-0.0380421,0.00259373,0.0180374,685,1394,-8.08091,-5.4767
-532,-370,-8.12622,5.83411,0.00331012,-0.000917178,0.000554845,0.00338173,-0.00098879,0.128357,0.00264639,0.0208516,692,1394,-8.12622,-5.83407
-525,-370,-8.12256,6.1134,0.00434025,-0.000104424,0.00138048,0.00473411,-0.00049829,0.277926,0.0033346,0.0149564,699,1394,-8.12257,-6.11339
-518,-370,-8.12018,6.41467,0.00553257,0.000447689,0.00221734,0.00636365,-0.000383385,0.358601,0.00437583,0.0107181,706,1394,-8.1202,-6.41472
-511,-370,-8.09314,6.74768,0.00673816,-7.27215e-05,0.00269872,0.00767785,-0.00101241,0.335067,0.00548725,0.0135422,713,1394,-8.09311,-6.74768
-504,-370,-7.99933,7.11682,0.00794942,-0.00113064,0.00283184,0.0087602,-0.00194142,0.278849,0.00658339,0.0316043,720,1394,-7.99931,-7.11682
-497,-370,-7.88226,7.45996,0,0,0,0,0,0,0,-1,727,1394,-7.88224,-7.45999
-490,-370,-5.30695,4.5271,0,0,0,0,0,0,0,-1,734,1394,-5.30698,-4.52704
-483,-370,-6.02997,4.59253,0,0,0,0,0,0,0,-1,741,1394,-6.02994,-4.5925
-476,-370,-6.75293,4.65796,0,0,0,0,0,0,0,-1,748,1394,-6.7529,-4.65795
-469,-370,-10.584,1.14294,0,0,0,0,0,0,0,-1,755,1394,-10.584,-1.14293
-462,-370,-9.54462,0.387207,0,0,0,0,0,0,0,-1,762,1394,-9.5446,-0.387176
-455,-370,-8.50525,-0.36853,0,0,0,0,0,0,0,-1,769,1394,-8.50523,0.368582
-448,-370,-10.9543,2.28833,0,0,0,0,0,0,0,-1,776,1394,-10.9543,-2.28835
-441,-370,-11.8699,1.8313,0,0,0,0,0,0,0,-1,783,1394,-11.8699,-1.83127
-434,-370,-12.7855,1.37415,0,0,0,0,0,0,0,-1,790,1394,-12.7855,-1.37419
-427,-370,0,0,0,0,0,0,0,0,0,-1,797,1394,0,0
-420,-370,0,0,0,0,0,0,0,0,0,-1,804,1394,0,0
-413,-370,0,0,0,0,0,0,0,0,0,-1,811,1394,0,0
-406,-370,0,0,0,0,0,0,0,0,0,-1,818,1394,0,0
-399,-370,0,0,0,0,0,0,0,0,0,-1,825,1394,0,0
-392,-370,0,0,0,0,0,0,0,0,0,-1,832,1394,0,0
-385,-370,0,0,0,0,0,0,0,0,0,-1,839,1394,0,0
-378,-370,0,0,0,0,0,0,0,0,0,-1,846,1394,0,0
-371,-370,0,0,0,0,0,0,0,0,0,-1,853,1394,0,0
-364,-370,0,0,0,0,0,0,0,0,0,-1,860,1394,0,0
-357,-370,0,0,0,0,0,0,0,0,0,-1,867,1394,0,0
-350,-370,0,0,0,0,0,0,0,0,0,-1,874,1394,0,0
-343,-370,0,0,0,0,0,0,0,0,0,-1,881,1394,0,0
-336,-370,0,0,0,0,0,0,0,0,0,-1,888,1394,0,0
-329,-370,0,0,0,0,0,0,0,0,0,-1,895,1394,0,0
-322,-370,0,0,0,0,0,0,0,0,0,-1,902,1394,0,0
-315,-370,0,0,0,0,0,0,0,0,0,-1,909,1394,0,0
-308,-370,0,0,0,0,0,0,0,0,0,-1,916,1394,0,0
-301,-370,0,0,0,0,0,0,0,0,0,-1,923,1394,0,0
-294,-370,0,0,0,0,0,0,0,0,0,-1,930,1394,0,0
-287,-370,0,0,0,0,0,0,0,0,0,-1,937,1394,0,0
-280,-370,0,0,0,0,0,0,0,0,0,-1,944,1394,0,0
-273,-370,0,0,0,0,0,0,0,0,0,-1,951,1394,0,0
-266,-370,0,0,0,0,0,0,0,0,0,-1,958,1394,0,0
-259,-370,0,0,0,0,0,0,0,0,0,-1,965,1394,0,0
-252,-370,0,0,0,0,0,0,0,0,0,-1,972,1394,0,0
-245,-370,0,0,0,0,0,0,0,0,0,-1,979,1394,0,0
-238,-370,0,0,0,0,0,0,0,0,0,-1,986,1394,0,0
-231,-370,0,0,0,0,0,0,0,0,0,-1,993,1394,0,0
-224,-370,0,0,0,0,0,0,0,0,0,-1,1000,1394,0,0
-217,-370,0,0,0,0,0,0,0,0,0,-1,1007,1394,0,0
-210,-370,0,0,0,0,0,0,0,0,0,-1,1014,1394,0,0
-203,-370,0,0,0,0,0,0,0,0,0,-1,1021,1394,0,0
-196,-370,0,0,0,0,0,0,0,0,0,-1,1028,1394,0,0
-189,-370,0,0,0,0,0,0,0,0,0,-1,1035,1394,0,0
-182,-370,0,0,0,0,0,0,0,0,0,-1,1042,1394,0,0
-175,-370,0,0,0,0,0,0,0,0,0,-1,1049,1394,0,0
-168,-370,0,0,0,0,0,0,0,0,0,-1,1056,1394,0,0
-161,-370,0,0,0,0,0,0,0,0,0,-1,1063,1394,0,0
-154,-370,0,0,0,0,0,0,0,0,0,-1,1070,1394,0,0
-147,-370,0,0,0,0,0,0,0,0,0,-1,1077,1394,0,0
-140,-370,0,0,0,0,0,0,0,0,0,-1,1084,1394,0,0
-133,-370,0,0,0,0,0,0,0,0,0,-1,1091,1394,0,0
-126,-370,0,0,0,0,0,0,0,0,0,-1,1098,1394,0,0
-119,-370,0,0,0,0,0,0,0,0,0,-1,1105,1394,0,0
-112,-370,0,0,0,0,0,0,0,0,0,-1,1112,1394,0,0
-105,-370,0,0,0,0,0,0,0,0,0,-1,1119,1394,0,0
-98,-370,0,0,0,0,0,0,0,0,0,-1,1126,1394,0,0
-91,-370,0,0,0,0,0,0,0,0,0,-1,1133,1394,0,0
-84,-370,0,0,0,0,0,0,0,0,0,-1,1140,1394,0,0
-77,-370,0,0,0,0,0,0,0,0,0,-1,1147,1394,0,0
-70,-370,0,0,0,0,0,0,0,0,0,-1,1154,1394,0,0
-63,-370,0,0,0,0,0,0,0,0,0,-1,1161,1394,0,0
-56,-370,0,0,0,0,0,0,0,0,0,-1,1168,1394,0,0
-49,-370,0,0,0,0,0,0,0,0,0,-1,1175,1394,0,0
-42,-370,0,0,0,0,0,0,0,0,0,-1,1182,1394,0,0
-35,-370,0,0,0,0,0,0,0,0,0,-1,1189,1394,0,0
-28,-370,0,0,0,0,0,0,0,0,0,-1,1196,1394,0,0
-21,-370,0,0,0,0,0,0,0,0,0,-1,1203,1394,0,0
-14,-370,0,0,0,0,0,0,0,0,0,-1,1210,1394,0,0
-7,-370,0,0,0,0,0,0,0,0,0,-1,1217,1394,0,0
0,-370,0,0,0,0,0,0,0,0,0,-1,1224,1394,0,0
7,-370,0,0,0,0,0,0,0,0,0,-1,1231,1394,0,0
14,-370,0,0,0,0,0,0,0,0,0,-1,1238,1394,0,0
21,-370,0,0,0,0,0,0,0,0,0,-1,1245,1394,0,0
28,-370,0,0,0,0,0,0,0,0,0,-1,1252,1394,0,0
35,-370,0,0,0,0,0,0,0,0,0,-1,1259,1394,0,0
42,-370,0,0,0,0,0,0,0,0,0,-1,1266,1394,0,0
49,-370,0,0,0,0,0,0,0,0,0,-1,1273,1394,0,0
56,-370,0,0,0,0,0,0,0,0,0,-1,1280,1394,0,0
63,-370,0,0,0,0,0,0,0,0,0,-1,1287,1394,0,0
70,-370,0,0,0,0,0,0,0,0,0,-1,1294,1394,0,0
77,-370,0,0,0,0,0,0,0,0,0,-1,1301,1394,0,0
84,-370,0,0,0,0,0,0,0,0,0,-1,1308,1394,0,0
91,-370,0,0,0,0,0,0,0,0,0,-1,1315,1394,0,0
98,-370,0,0,0,0,0,0,0,0,0,-1,1322,1394,0,0
105,-370,0,0,0,0,0,0,0,0,0,-1,1329,1394,0,0
112,-370,0,0,0,0,0,0,0,0,0,-1,1336,1394,0,0
119,-370,0,0,0,0,0,0,0,0,0,-1,1343,1394,0,0
126,-370,0,0,0,0,0,0,0,0,0,-1,1350,1394,0,0
133,-370,0,0,0,0,0,0,0,0,0,-1,1357,1394,0,0
140,-370,0,0,0,0,0,0,0,0,0,-1,1364,1394,0,0
147,-370,0,0,0,0,0,0,0,0,0,-1,1371,1394,0,0
154,-370,0,0,0,0,0,0,0,0,0,-1,1378,1394,0,0
161,-370,0,0,0,0,0,0,0,0,0,-1,1385,1394,0,0
168,-370,0,0,0,0,0,0,0,0,0,-1,1392,1394,0,0
175,-370,0,0,0,0,0,0,0,0,0,-1,1399,1394,0,0
182,-370,0,0,0,0,0,0,0,0,0,-1,1406,1394,0,0
189,-370,0,0,0,0,0,0,0,0,0,-1,1413,1394,0,0
196,-370,0,0,0,0,0,0,0,0,0,-1,1420,1394,0,0
203,-370,0,0,0,0,0,0,0,0,0,-1,1427,1394,0,0
210,-370,0,0,0,0,0,0,0,0,0,-1,1434,1394,0,0
217,-370,0,0,0,0,0,0,0,0,0,-1,1441,1394,0,0
224,-370,0,0,0,0,0,0,0,0,0,-1,1448,1394,0,0
231,-370,0,0,0,0,0,0,0,0,0,-1,1455,1394,0,0
238,-370,0,0,0,0,0,0,0,0,0,-1,1462,1394,0,0
245,-370,0,0,0,0,0,0,0,0,0,-1,1469,1394,0,0
252,-370,0,0,0,0,0,0,0,0,0,-1,1476,1394,0,0
259,-370,0,0,0,0,0,0,0,0,0,-1,1483,1394,0,0
266,-370,0,0,0,0,0,0,0,0,0,-1,1490,1394,0,0
273,-370,0,0,0,0,0,0,0,0,0,-1,1497,1394,0,0
280,-370,0,0,0,0,0,0,0,0,0,-1,1504,1394,0,0
287,-370,0,0,0,0,0,0,0,0,0,-1,1511,1394,0,0
294,-370,0,0,0,0,0,0,0,0,0,-1,1518,1394,0,0
301,-370,0,0,0,0,0,0,0,0,0,-1,1525,1394,0,0
308,-370,0,0,0,0,0,0,0,0,0,-1,1532,1394,0,0
315,-370,0,0,0,0,0,0,0,0,0,-1,1539,1394,0,0
322,-370,0,0,0,0,0,0,0,0,0,-1,1546,1394,0,0
329,-370,0,0,0,0,0,0,0,0,0,-1,1553,1394,0,0
336,-370,0,0,0,0,0,0,0,0,0,-1,1560,1394,0,0
343,-370,0,0,0,0,0,0,0,0,0,-1,1567,1394,0,0
350,-370,0,0,0,0,0,0,0,0,0,-1,1574,1394,0,0
357,-370,0,0,0,0,0,0,0,0,0,-1,1581,1394,0,0
364,-370,0,0,0,0,0,0,0,0,0,-1,1588,1394,0,0
371,-370,0,0,0,0,0,0,0,0,0,-1,1595,1394,0,0
378,-370,0,0,0,0,0,0,0,0,0,-1,1602,1394,0,0
385,-370,0,0,0,0,0,0,0,0,0,-1,1609,1394,0,0
392,-370,0,0,0,0,0,0,0,0,0,-1,1616,1394,0,0
399,-370,0,0,0,0,0,0,0,0,0,-1,1623,1394,0,0
406,-370,0,0,0,0,0,0,0,0,0,-1,1630,1394,0,0
413,-370,0,0,0,0,0,0,0,0,0,-1,1637,1394,0,0
420,-370,0,0,0,0,0,0,0,0,0,-1,1644,1394,0,0
427,-370,0,0,0,0,0,0,0,0,0,-1,1651,1394,0,0
434,-370,0,0,0,0,0,0,0,0,0,-1,1658,1394,0,0
441,-370,0,0,0,0,0,0,0,0,0,-1,1665,1394,0,0
448,-370,0,0,0,0,0,0,0,0,0,-1,1672,1394,0,0
455,-370,0,0,0,0,0,0,0,0,0,-1,1679,1394,0,0
462,-370,0,0,0,0,0,0,0,0,0,-1,1686,1394,0,0
469,-370,0,0,0,0,0,0,0,0,0,-1,1693,1394,0,0
476,-370,0,0,0,0,0,0,0,0,0,-1,1700,1394,0,0
483,-370,0,0,0,0,0,0,0,0,0,-1,1707,1394,0,0
490,-370,0,0,0,0,0,0,0,0,0,-1,1714,1394,0,0
497,-370,0,0,0,0,0,0,0,0,0,-1,1721,1394,0,0
504,-370,0,0,0,0,0,0,0,0,0,-1,1728,1394,0,0
511,-370,0,0,0,0,0,0,0,0,0,-1,1735,1394,0,0
518,-370,0,0,0,0,0,0,0,0,0,-1,1742,1394,0,0
525,-370,0,0,0,0,0,0,0,0,0,-1,1749,1394,0,0
532,-370,0,0,0,0,0,0,0,0,0,-1,1756,1394,0,0
539,-370,0,0,0,0,0,0,0,0,0,-1,1763,1394,0,0
546,-370,27.4949,2.81201,0,0,0,0,0,0,0,-1,1770,1394,27.4948,-2.81198
553,-370,26.5985,1.99329,0,0,0,0,0,0,0,-1,1777,1394,26.5985,-1.99327
560,-370,27.1606,2.1084,0.0435104,-0.0196925,0.0180118,0.0482831,-0.0244652,0.259022,0.042745,0.0454753,1784,1394,27.1606,-2.10838
567,-370,27.619,2.3833,0.0206993,-0.0129956,0.0161293,0.0271754,-0.0194718,0.381812,0.0270539,0.0448964,1791,1394,27.619,-2.38327
574,-370,28.0094,2.6936,0,0,0,0,0,0,0,-1,1798,1394,28.0094,-2.69357
581,-370,26.7473,2.29626,0,0,0,0,0,0,0,-1,1805,1394,26.7473,-2.29625
588,-370,26.3444,2.43835,0,0,0,0,0,0,0,-1,1812,1394,26.3443,-2.43835
595,-370,25.793,4.5271,0,0,0,0,0,0,0,-1,1819,1394,25.793,-4.52711
602,-370,25.1077,5.34937,0,0,0,0,0,0,0,-1,1826,1394,25.1077,-5.34932
609,-370,16.712,0.993286,0,0,0,0,0,0,0,-1,1833,1394,16.7121,-0.99323
616,-370,16.7764,7.23315,0,0,0,0,0,0,0,-1,1840,1394,16.7764,-7.23313
623,-370,17.6625,8.94263,0,0,0,0,0,0,0,-1,1847,1394,17.6624,-8.94258
630,-370,17.8752,9.4646,0,0,0,0,0,0,0,-1,1854,1394,17.8753,-9.46457
637,-370,18.1023,9.00476,-0.00442094,0.00420708,-0.000801114,0.00428083,-0.0044947,-1.47899,0.00506705,0.0384709,1861,1394,18.1023,-9.00474
644,-370,18.2759,8.60376,-0.00118415,0.000636974,-0.000481908,0.000756635,-0.00130381,-1.32741,0.0012035,0.0118835,1868,1394,18.2759,-8.60375
651,-370,18.2927,8.30334,0.00165687,-0.00101164,-0.000423738,0.00172254,-0.00107731,-0.153755,0.00163074,0.0120586,1875,1394,18.2927,-8.30333
658,-370,18.2885,8.02637,0.00177541,-0.000680894,-0.000327131,0.00181823,-0.000723715,-0.130158,0.00151226,0.0117822,1882,1394,18.2884,-8.02642
665,-370,18.2555,7.73901,0.00152739,-0.000417222,-0.000106537,0.00153321,-0.000423042,-0.0545682,0.00118852,0.0124943,1889,1394,18.2554,-7.73904
672,-370,18.2389,7.45178,0.00129705,-0.000171102,0.000142461,0.00131075,-0.000184798,0.0958423,0.000941497,0.0142583,1896,1394,18.2389,-7.45179
679,-370,18.2736,7.16895,0.0011742,0.000100359,0.000405319,0.00131001,-3.54516e-05,0.323315,0.000885392,0.0141881,1903,1394,18.2736,-7.16898
686,-370,18.2715,6.87878,0.00112868,0.000332343,0.000670996,0.00151075,-4.97276e-05,0.517622,0.00102415,0.0137305,1910,1394,18.2715,-6.87882
693,-370,18.2675,6.56152,0.00131298,0.000516858,0.00094042,0.00193612,-0.000106277,0.585191,0.00132759,0.0119618,1917,1394,18.2675,-6.56152
700,-370,18.3755,6.19275,0.00165563,0.00100621,0.00124111,0.00261381,4.80392e-05,0.657452,0.00172675,0.0225548,1924,1394,18.3754,-6.19271
707,-370,18.5792,5.74512,0,0,0,0,0,0,0,-1,1931,1394,18.5793,-5.74511
714,-370,16.9116,5.93018,0,0,0,0,0,0,0,-1,1938,1394,16.9116,-5.93014
721,-370,17.2007,4.69153,0,0,0,0,0,0,0,-1,1945,1394,17.2007,-4.69158
728,-370,20.5315,-0.313354,0,0,0,0,0,0,0,-1,1952,1394,20.5315,0.313332
735,-370,22.3652,0.233398,0,0,0,0,0,0,0,-1,1959,1394,22.3652,-0.233355
742,-370,24.1989,0.780029,0,0,0,0,0,0,0,-1,1966,1394,24.1989,-0.780041
749,-370,0,0,0,0,0,0,0,0,0,-1,1973,1394,0,0
756,-370,0,0,0,0,0,0,0,0,0,-1,1980,1394,0,0
763,-370,0,0,0,0,0,0,0,0,0,-1,1987,1394,0,0
770,-370,0,0,0,0,0,0,0,0,0,-1,1994,1394,0,0
777,-370,0,0,0,0,0,0,0,0,0,-1,2001,1394,0,0
784,-370,0,0,0,0,0,0,0,0,0,-1,2008,1394,0,0
791,-370,0,0,0,0,0,0,0,0,0,-1,2015,1394,0,0
798,-370,0,0,0,0,0,0,0,0,0,-1,2022,1394,0,0
805,-370,0,0,0,0,0,0,0,0,0,-1,2029,1394,0,0
812,-370,0,0,0,0,0,0,0,0,0,-1,2036,1394,0,0
-700,-377,0,0,0,0,0,0,0,0,0,-1,524,1401,0,0
-693,-377,0,0,0,0,0,0,0,0,0,-1,531,1401,0,0
-686,-377,0,0,0,0,0,0,0,0,0,-1,538,1401,0,0
-679,-377,0,0,0,0,0,0,0,0,0,-1,545,1401,0,0
-672,-377,0,0,0,0,0,0,0,0,0,-1,552,1401,0,0
-665,-377,0,0,0,0,0,0,0,0,0,-1,559,1401,0,0
-658,-377,0,0,0,0,0,0,0,0,0,-1,566,1401,0,0
-651,-377,0,0,0,0,0,0,0,0,0,-1,573,1401,0,0
-644,-377,0,0,0,0,0,0,0,0,0,-1,580,1401,0,0
-637,-377,0,0,0,0,0,0,0,0,0,-1,587,1401,0,0
-630,-377,0,0,0,0,0,0,0,0,0,-1,594,1401,0,0
-623,-377,0,0,0,0,0,0,0,0,0,-1,601,1401,0,0
-616,-377,-9.43915,-2.4906,0,0,0,0,0,0,0,-1,608,1401,-9.43915,2.49062
-609,-377,-7.2821,-1.35278,0,0,0,0,0,0,0,-1,615,1401,-7.28208,1.35279
-602,-377,-14.9736,3.98279,0,0,0,0,0,0,0,-1,622,1401,-14.9737,-3.98276
-595,-377,-6.9082,1.18201,0,0,0,0,0,0,0,-1,629,1401,-6.90822,-1.18204
-588,-377,-7.26331,3.08801,0,0,0,0,0,0,0,-1,636,1401,-7.26329,-3.08807
-581,-377,-7.54626,3.35168,0,0,0,0,0,0,0,-1,643,1401,-7.54624,-3.35173
-574,-377,-7.61823,3.82166,0.00724031,-0.0104981,-0.000585581,0.00725962,-0.0105174,-0.0329641,0.0103209,0.043963,650,1401,-7.61825,-3.82171
-567,-377,-7.63116,4.20947,0.00516152,-0.00864346,-0.00114435,0.00525574,-0.00873768,-0.0821467,0.00816205,0.0320454,657,1401,-7.63115,-4.20944
-560,-377,-7.84406,4.48792,0.0036089,-0.00692223,-0.00142609,0.0037986,-0.00711193,-0.132244,0.00639529,0.0280389,664,1401,-7.84403,-4.48796
-553,-377,-7.77557,4.77478,0.00268753,-0.00531585,-0.00139214,0.00292276,-0.00555109,-0.167396,0.00497021,0.0130597,671,1401,-7.77555,-4.77475
-546,-377,-7.78125,5.13977,0.00225888,-0.00384993,-0.00109789,0.0024502,-0.00404125,-0.172531,0.00378518,0.0162153,678,1401,-7.78123,-5.13975
-539,-377,-7.7843,5.45935,0.00227817,-0.00254377,-0.000598897,0.00235145,-0.00261704,-0.121739,0.00286992,0.02142,685,1401,-7.78432,-5.45931
-532,-377,-7.79364,5.7887,0.00274718,-0.00140157,9.21287e-05,0.00274922,-0.00140362,0.0221918,0.00243924,0.0190844,692,1401,-7.79365,-5.78872
-525,-377,-7.75,6.11987,0.00356792,-0.000487913,0.000885804,0.00375294,-0.000672934,0.205913,0.00275382,0.0177376,699,1401,-7.74999,-6.11984
-518,-377,-7.78418,6.42114,0.0045191,2.30775e-05,0.0016175,0.00504054,-0.00049836,0.311855,0.0035382,0.0116666,706,1401,-7.78419,-6.4212
-511,-377,-7.78619,6.74402,0.00541614,-0.000384092,0.00194079,0.00600563,-0.000973578,0.29488,0.00436463,0.0112898,713,1401,-7.78621,-6.74401
-504,-377,-7.7832,7.09802,0.00624496,-0.00143385,0.00184573,0.00666557,-0.00185446,0.224058,0.00517386,0.0127471,720,1401,-7.78322,-7.098
-497,-377,-7.47485,7.4657,0.00612795,-0.00351155,0.000474721,0.00615127,-0.00353487,0.0490891,0.0056599,0.0348283,727,1401,-7.47486,-7.46566
-490,-377,-7.03778,7.95337,0,0,0,0,0,0,0,-1,734,1401,-7.0378,-7.95335
-483,-377,-5.6524,5.07324,0,0,0,0,0,0,0,-1,741,1401,-5.6524,-5.07325
-476,-377,-6.11682,5.10535,0,0,0,0,0,0,0,-1,748,1401,-6.11681,-5.10537
-469,-377,-10.3211,1.9281,0,0,0,0,0,0,0,-1,755,1401,-10.3211,-1.92808
-462,-377,-9.2204,1.0022,0,0,0,0,0,0,0,-1,762,1401,-9.22039,-1.00218
-455,-377,-8.11969,0.0762939,0,0,0,0,0,0,0,-1,769,1401,-8.11968,-0.0762759
-448,-377,-9.05334,0.877319,0,0,0,0,0,0,0,-1,776,1401,-9.05332,-0.877324
-441,-377,-11.212,0.763428,0,0,0,0,0,0,0,-1,783,1401,-11.212,-0.763415
-434,-377,-11.0984,0.996216,0,0,0,0,0,0,0,-1,790,1401,-11.0984,-0.996265
-427,-377,-11.1733,1.25732,0,0,0,0,0,0,0,-1,797,1401,-11.1733,-1.25732
-420,-377,0,0,0,0,0,0,0,0,0,-1,804,1401,0,0
-413,-377,0,0,0,0,0,0,0,0,0,-1,811,1401,0,0
-406,-377,0,0,0,0,0,0,0,0,0,-1,818,1401,0,0
-399,-377,0,0,0,0,0,0,0,0,0,-1,825,1401,0,0
-392,-377,0,0,0,0,0,0,0,0,0,-1,832,1401,0,0
-385,-377,0,0,0,0,0,0,0,0,0,-1,839,1401,0,0
-378,-377,0,0,0,0,0,0,0,0,0,-1,846,1401,0,0
-371,-377,0,0,0,0,0,0,0,0,0,-1,853,1401,0,0
-364,-377,0,0,0,0,0,0,0,0,0,-1,860,1401,0,0
-357,-377,0,0,0,0,0,0,0,0,0,-1,867,1401,0,0
-350,-377,0,0,0,0,0,0,0,0,0,-1,874,1401,0,0
-343,-377,0,0,0,0,0,0,0,0,0,-1,881,1401,0,0
-336,-377,0,0,0,0,0,0,0,0,0,-1,888,1401,0,0
-329,-377,0,0,0,0,0,0,0,0,0,-1,895,1401,0,0
-322,-377,0,0,0,0,0,0,0,0,0,-1,902,1401,0,0
-315,-377,0,0,0,0,0,0,0,0,0,-1,909,1401,0,0
-308,-377,0,0,0,0,0,0,0,0,0,-1,916,1401,0,0
-301,-377,0,0,0,0,0,0,0,0,0,-1,923,1401,0,0
-294,-377,0,0,0,0,0,0,0,0,0,-1,930,1401,0,0
-287,-377,0,0,0,0,0,0,0,0,0,-1,937,1401,0,0
-280,-377,0,0,0,0,0,0,0,0,0,-1,944,1401,0,0
-273,-377,0,0,0,0,0,0,0,0,0,-1,951,1401,0,0
-266,-377,0,0,0,0,0,0,0,0,0,-1,958,1401,0,0
-259,-377,0,0,0,0,0,0,0,0,0,-1,965,1401,0,0
-252,-377,0,0,0,0,0,0,0,0,0,-1,972,1401,0,0
-245,-377,0,0,0,0,0,0,0,0,0,-1,979,1401,0,0
-238,-377,0,0,0,0,0,0,0,0,0,-1,986,1401,0,0
-231,-377,0,0,0,0,0,0,0,0,0,-1,993,1401,0,0
-224,-377,0,0,0,0,0,0,0,0,0,-1,1000,1401,0,0
-217,-377,0,0,0,0,0,0,0,0,0,-1,1007,1401,0,0
-210,-377,0,0,0,0,0,0,0,0,0,-1,1014,1401,0,0
-203,-377,0,0,0,0,0,0,0,0,0,-1,1021,1401,0,0
-196,-377,0,0,0,0,0,0,0,0,0,-1,1028,1401,0,0
-189,-377,0,0,0,0,0,0,0,0,0,-1,1035,1401,0,0
-182,-377,0,0,0,0,0,0,0,0,0,-1,1042,1401,0,0
-175,-377,0,0,0,0,0,0,0,0,0,-1,1049,1401,0,0
-168,-377,0,0,0,0,0,0,0,0,0,-1,1056,1401,0,0
-161,-377,0,0,0,0,0,0,0,0,0,-1,1063,1401,0,0
-154,-377,0,0,0,0,0,0,0,0,0,-1,1070,1401,0,0
-147,-377,0,0,0,0,0,0,0,0,0,-1,1077,1401,0,0
-140,-377,0,0,0,0,0,0,0,0,0,-1,1084,1401,0,0
-133,-377,0,0,0,0,0,0,0,0,0,-1,1091,1401,0,0
-126,-377,0,0,0,0,0,0,0,0,0,-1,1098,1401,0,0
-119,-377,0,0,0,0,0,0,0,0,0,-1,1105,1401,0,0
-112,-377,0,0,0,0,0,0,0,0,0,-1,1112,1401,0,0
-105,-377,0,0,0,0,0,0,0,0,0,-1,1119,1401,0,0
-98,-377,0,0,0,0,0,0,0,0,0,-1,1126,1401,0,0
-91,-377,0,0,0,0,0,0,0,0,0,-1,1133,1401,0,0
-84,-377,0,0,0,0,0,0,0,0,0,-1,1140,1401,0,0
-77,-377,0,0,0,0,0,0,0,0,0,-1,1147,1401,0,0
-70,-377,0,0,0,0,0,0,0,0,0,-1,1154,1401,0,0
-63,-377,0,0,0,0,0,0,0,0,0,-1,1161,1401,0,0
-56,-377,0,0,0,0,0,0,0,0,0,-1,1168,1401,0,0
-49,-377,0,0,0,0,0,0,0,0,0,-1,1175,1401,0,0
-42,-377,0,0,0,0,0,0,0,0,0,-1,1182,1401,0,0
-35,-377,0,0,0,0,0,0,0,0,0,-1,1189,1401,0,0
-28,-377,0,0,0,0,0,0,0,0,0,-1,1196,1401,0,0
-21,-377,0,0,0,0,0,0,0,0,0,-1,1203,1401,0,0
-14,-377,0,0,0,0,0,0,0,0,0,-1,1210,1401,0,0
-7,-377,0,0,0,0,0,0,0,0,0,-1,1217,1401,0,0
0,-377,0,0,0,0,0,0,0,0,0,-1,1224,1401,0,0
7,-377,0,0,0,0,0,0,0,0,0,-1,1231,1401,0,0
14,-377,0,0,0,0,0,0,0,0,0,-1,1238,1401,0,0
21,-377,0,0,0,0,0,0,0,0,0,-1,1245,1401,0,0
28,-377,0,0,0,0,0,0,0,0,0,-1,1252,1401,0,0
35,-377,0,0,0,0,0,0,0,0,0,-1,1259,1401,0,0
42,-377,0,0,0,0,0,0,0,0,0,-1,1266,1401,0,0
49,-377,0,0,0,0,0,0,0,0,0,-1,1273,1401,0,0
56,-377,0,0,0,0,0,0,0,0,0,-1,1280,1401,0,0
63,-377,0,0,0,0,0,0,0,0,0,-1,1287,1401,0,0
70,-377,0,0,0,0,0,0,0,0,0,-1,1294,1401,0,0
77,-377,0,0,0,0,0,0,0,0,0,-1,1301,1401,0,0
84,-377,0,0,0,0,0,0,0,0,0,-1,1308,1401,0,0
91,-377,0,0,0,0,0,0,0,0,0,-1,1315,1401,0,0
98,-377,0,0,0,0,0,0,0,0,0,-1,1322,1401,0,0
105,-377,0,0,0,0,0,0,0,0,0,-1,1329,1401,0,0
112,-377,0,0,0,0,0,0,0,0,0,-1,1336,1401,0,0
119,-377,0,0,0,0,0,0,0,0,0,-1,1343,1401,0,0
126,-377,0,0,0,0,0,0,0,0,0,-1,1350,1401,0,0
133,-377,0,0,0,0,0,0,0,0,0,-1,1357,1401,0,0
140,-377,0,0,0,0,0,0,0,0,0,-1,1364,1401,0,0
147,-377,0,0,0,0,0,0,0,0,0,-1,1371,1401,0,0
154,-377,0,0,0,0,0,0,0,0,0,-1,1378,1401,0,0
161,-377,0,0,0,0,0,0,0,0,0,-1,1385,1401,0,0
168,-377,0,0,0,0,0,0,0,0,0,-1,1392,1401,0,0
175,-377,0,0,0,0,0,0,0,0,0,-1,1399,1401,0,0
182,-377,0,0,0,0,0,0,0,0,0,-1,1406,1401,0,0
189,-377,0,0,0,0,0,0,0,0,0,-1,1413,1401,0,0
196,-377,0,0,0,0,0,0,0,0,0,-1,1420,1401,0,0
203,-377,0,0,0,0,0,0,0,0,0,-1,1427,1401,0,0
210,-377,0,0,0,0,0,0,0,0,0,-1,1434,1401,0,0
217,-377,0,0,0,0,0,0,0,0,0,-1,1441,1401,0,0
224,-377,0,0,0,0,0,0,0,0,0,-1,1448,1401,0,0
231,-377,0,0,0,0,0,0,0,0,0,-1,1455,1401,0,0
238,-377,0,0,0,0,0,0,0,0,0,-1,1462,1401,0,0
245,-377,0,0,0,0,0,0,0,0,0,-1,1469,1401,0,0
252,-377,0,0,0,0,0,0,0,0,0,-1,1476,1401,0,0
259,-377,0,0,0,0,0,0,0,0,0,-1,1483,1401,0,0
266,-377,0,0,0,0,0,0,0,0,0,-1,1490,1401,0,0
273,-377,0,0,0,0,0,0,0,0,0,-1,1497,1401,0,0
280,-377,0,0,0,0,0,0,0,0,0,-1,1504,1401,0,0
287,-377,0,0,0,0,0,0,0,0,0,-1,1511,1401,0,0
294,-377,0,0,0,0,0,0,0,0,0,-1,1518,1401,0,0
301,-377,0,0,0,0,0,0,0,0,0,-1,1525,1401,0,0
308,-377,0,0,0,0,0,0,0,0,0,-1,1532,1401,0,0
315,-377,0,0,0,0,0,0,0,0,0,-1,1539,1401,0,0
322,-377,0,0,0,0,0,0,0,0,0,-1,1546,1401,0,0
329,-377,0,0,0,0,0,0,0,0,0,-1,1553,1401,0,0
336,-377,0,0,0,0,0,0,0,0,0,-1,1560,1401,0,0
343,-377,0,0,0,0,0,0,0,0,0,-1,1567,1401,0,0
350,-377,0,0,0,0,0,0,0,0,0,-1,1574,1401,0,0
357,-377,0,0,0,0,0,0,0,0,0,-1,1581,1401,0,0
364,-377,0,0,0,0,0,0,0,0,0,-1,1588,1401,0,0
371,-377,0,0,0,0,0,0,0,0,0,-1,1595,1401,0,0
378,-377,0,0,0,0,0,0,0,0,0,-1,1602,1401,0,0
385,-377,0,0,0,0,0,0,0,0,0,-1,1609,1401,0,0
392,-377,0,0,0,0,0,0,0,0,0,-1,1616,1401,0,0
399,-377,0,0,0,0,0,0,0,0,0,-1,1623,1401,0,0
406,-377,0,0,0,0,0,0,0,0,0,-1,1630,1401,0,0
413,-377,0,0,0,0,0,0,0,0,0,-1,1637,1401,0,0
420,-377,0,0,0,0,0,0,0,0,0,-1,1644,1401,0,0
427,-377,0,0,0,0,0,0,0,0,0,-1,1651,1401,0,0
434,-377,0,0,0,0,0,0,0,0,0,-1,1658,1401,0,0
441,-377,0,0,0,0,0,0,0,0,0,-1,1665,1401,0,0
448,-377,0,0,0,0,0,0,0,0,0,-1,1672,1401,0,0
455,-377,0,0,0,0,0,0,0,0,0,-1,1679,1401,0,0
462,-377,0,0,0,0,0,0,0,0,0,-1,1686,1401,0,0
469,-377,0,0,0,0,0,0,0,0,0,-1,1693,1401,0,0
476,-377,0,0,0,0,0,0,0,0,0,-1,1700,1401,0,0
483,-377,0,0,0,0,0,0,0,0,0,-1,1707,1401,0,0
490,-377,0,0,0,0,0,0,0,0,0,-1,1714,1401,0,0
497,-377,0,0,0,0,0,0,0,0,0,-1,1721,1401,0,0
504,-377,0,0,0,0,0,0,0,0,0,-1,1728,1401,0,0
511,-377,0,0,0,0,0,0,0,0,0,-1,1735,1401,0,0
518,-377,0,0,0,0,0,0,0,0,0,-1,1742,1401,0,0
525,-377,0,0,0,0,0,0,0,0,0,-1,1749,1401,0,0
532,-377,0,0,0,0,0,0,0,0,0,-1,1756,1401,0,0
539,-377,0,0,0,0,0,0,0,0,0,-1,1763,1401,0,0
546,-377,27.8485,2.34094,0,0,0,0,0,0,0,-1,1770,1401,27.8486,-2.34091
553,-377,27.2189,2.42493,0,0,0,0,0,0,0,-1,1777,1401,27.2188,-2.42498
560,-377,26.9808,1.78674,0,0,0,0,0,0,0,-1,1784,1401,26.9808,-1.78676
567,-377,27.4503,2.03894,0,0,0,0,0,0,0,-1,1791,1401,27.4503,-2.03893
574,-377,27.812,2.3855,0,0,0,0,0,0,0,-1,1798,1401,27.812,-2.38552
581,-377,26.3328,2.77588,0,0,0,0,0,0,0,-1,1805,1401,26.3328,-2.77582
588,-377,25.882,4.35217,0,0,0,0,0,0,0,-1,1812,1401,25.8819,-4.3522
595,-377,25.5392,5.11804,0,0,0,0,0,0,0,-1,1819,1401,25.5392,-5.11808
602,-377,24.816,5.79126,0,0,0,0,0,0,0,-1,1826,1401,24.816,-5.79124
609,-377,15.0223,4.76135,0,0,0,0,0,0,0,-1,1833,1401,15.0224,-4.76129
616,-377,14.1842,5.78992,0,0,0,0,0,0,0,-1,1840,1401,14.1842,-5.78987
623,-377,15.8248,8.76721,0,0,0,0,0,0,0,-1,1847,1401,15.8248,-8.76725
630,-377,17.7705,9.40576,0,0,0,0,0,0,0,-1,1854,1401,17.7705,-9.40571
637,-377,17.9177,8.94971,-0.00351082,0.00058158,0.000339688,0.000609584,-0.00353883,1.48854,0.00258647,0.0191966,1861,1401,17.9177,-8.94968
644,-377,17.9692,8.61475,-0.00081546,-0.000419861,3.25468e-05,-0.000417201,-0.00081812,1.48925,0.000472373,0.0112329,1868,1401,17.9692,-8.61472
651,-377,17.9919,8.30298,0.00155966,-0.000687397,-0.0003659,0.00161774,-0.000745477,-0.157419,0.00139504,0.0122861,1875,1401,17.992,-8.30294
658,-377,17.9958,8.01697,0.00180329,-0.000412036,-0.00029822,0.00184274,-0.000451479,-0.131499,0.0014034,0.0135459,1882,1401,17.9958,-8.01697
665,-377,17.9747,7.67932,0.00155741,-0.000202578,-5.64881e-05,0.00155923,-0.000204389,-0.0320517,0.00111388,0.0160824,1889,1401,17.9747,-7.67932
672,-377,17.9591,7.39441,0.00130653,-1.72641e-05,0.000224167,0.00134346,-5.41937e-05,0.163274,0.000914241,0.0168013,1896,1401,17.9591,-7.39439
679,-377,17.9387,7.1626,0.00117598,0.00017057,0.000524566,0.00139983,-5.32793e-05,0.403338,0.000951477,0.0172322,1903,1401,17.9387,-7.16265
686,-377,17.9449,6.8905,0.00111749,0.000301258,0.000841518,0.00164463,-0.000225886,0.55962,0.00117895,0.0142637,1910,1401,17.9449,-6.89052
693,-377,17.9926,6.56653,0.00141292,0.000327324,0.00113411,0.00212744,-0.000387192,0.562203,0.00156342,0.0127739,1917,1401,17.9926,-6.5665
700,-377,17.9528,6.245,0.00196269,0.00071342,0.0014558,0.0029222,-0.000246097,0.582744,0.00203513,0.0327715,1924,1401,17.9527,-6.24503
707,-377,17.9958,5.80652,0,0,0,0,0,0,0,-1,1931,1401,17.9958,-5.8065
714,-377,16.5369,5.45959,0,0,0,0,0,0,0,-1,1938,1401,16.5369,-5.4596
721,-377,17.0913,5.42529,0,0,0,0,0,0,0,-1,1945,1401,17.0914,-5.42529
728,-377,14.5396,2.79724,0,0,0,0,0,0,0,-1,1952,1401,14.5396,-2.7972
735,-377,23.2977,-0.991089,0,0,0,0,0,0,0,-1,1959,1401,23.2978,0.991076
742,-377,0,0,0,0,0,0,0,0,0,-1,1966,1401,0,0
749,-377,0,0,0,0,0,0,0,0,0,-1,1973,1401,0,0
756,-377,0,0,0,0,0,0,0,0,0,-1,1980,1401,0,0
763,-377,0,0,0,0,0,0,0,0,0,-1,1987,1401,0,0
770,-377,0,0,0,0,0,0,0,0,0,-1,1994,1401,0,0
777,-377,0,0,0,0,0,0,0,0,0,-1,2001,1401,0,0
784,-377,0,0,0,0,0,0,0,0,0,-1,2008,1401,0,0
791,-377,0,0,0,0,0,0,0,0,0,-1,2015,1401,0,0
798,-377,0,0,0,0,0,0,0,0,0,-1,2022,1401,0,0
805,-377,0,0,0,0,0,0,0,0,0,-1,2029,1401,0,0
812,-377,0,0,0,0,0,0,0,0,0,-1,2036,1401,0,0
-700,-384,0,0,0,0,0,0,0,0,0,-1,524,1408,0,0
-693,-384,0,0,0,0,0,0,0,0,0,-1,531,1408,0,0
-686,-384,0,0,0,0,0,0,0,0,0,-1,538,1408,0,0
-679,-384,0,0,0,0,0,0,0,0,0,-1,545,1408,0,0
-672,-384,0,0,0,0,0,0,0,0,0,-1,552,1408,0,0
-665,-384,0,0,0,0,0,0,0,0,0,-1,559,1408,0,0
-658,-384,0,0,0,0,0,0,0,0,0,-1,566,1408,0,0
-651,-384,0,0,0,0,0,0,0,0,0,-1,573,1408,0,0
-644,-384,0,0,0,0,0,0,0,0,0,-1,580,1408,0,0
-637,-384,0,0,0,0,0,0,0,0,0,-1,587,1408,0,0
-630,-384,0,0,0,0,0,0,0,0,0,-1,594,1408,0,0
-623,-384,0,0,0,0,0,0,0,0,0,-1,601,1408,0,0
-616,-384,-10.019,-3.36646,0,0,0,0,0,0,0,-1,608,1408,-10.019,3.36648
-609,-384,-7.72357,-2.3418,0,0,0,0,0,0,0,-1,615,1408,-7.72358,2.34182
-602,-384,-11.7632,-2.85156,0,0,0,0,0,0,0,-1,622,1408,-11.7632,2.85157
-595,-384,-8.71198,0.210815,0,0,0,0,0,0,0,-1,629,1408,-8.71196,-0.210818
-588,-384,-5.66071,3.27319,0,0,0,0,0,0,0,-1,636,1408,-5.6607,-3.27321
-581,-384,-7.2981,2.94128,0,0,0,0,0,0,0,-1,643,1408,-7.29808,-2.94132
-574,-384,-7.36359,3.47925,0.0115593,-0.0130955,0.000287982,0.0115627,-0.0130989,0.0116784,0.0142476,0.0490359,650,1408,-7.3636,-3.47923
-567,-384,-7.29333,4.0448,0.00794479,-0.0105059,-0.000665625,0.00796877,-0.0105299,-0.0360135,0.0107143,0.0396164,657,1408,-7.29333,-4.04479
-560,-384,-7.35602,4.46826,0.00525716,-0.00820433,-0.00120873,0.00536483,-0.00831201,-0.0888448,0.0079572,0.0366563,664,1408,-7.356,-4.46826
-553,-384,-7.44647,4.78394,0.00352422,-0.00617093,-0.00134642,0.00370773,-0.00635444,-0.135461,0.00587601,0.0224421,671,1408,-7.44646,-4.78393
-546,-384,-7.46118,5.15356,0.00249232,-0.0044006,-0.00118961,0.00269185,-0.00460013,-0.166182,0.00425781,0.0145391,678,1408,-7.46118,-5.15358
-539,-384,-7.48071,5.47046,0.00209381,-0.00290845,-0.000786783,0.00221464,-0.00302928,-0.152385,0.00303973,0.0165706,685,1408,-7.4807,-5.47043
-532,-384,-7.4649,5.76282,0.00225686,-0.0016698,-0.00018825,0.00226586,-0.00167881,-0.0477953,0.00228585,0.021221,692,1408,-7.46489,-5.76282
-525,-384,-7.45874,6.11243,0.00284625,-0.000732167,0.000506488,0.00291656,-0.000802474,0.137931,0.00225987,0.0194555,699,1408,-7.45873,-6.11248
-518,-384,-7.47498,6.44861,0.0035286,-0.000323769,0.00106143,0.00380169,-0.000596862,0.251826,0.00275505,0.0117594,706,1408,-7.47497,-6.44858
-511,-384,-7.49286,6.77905,0.00413346,-0.00065412,0.00119415,0.00441479,-0.000935443,0.231365,0.00329951,0.00996277,713,1408,-7.49284,-6.77906
-504,-384,-7.48029,7.12866,0.00469151,-0.00167997,0.000898106,0.00481568,-0.00180414,0.137392,0.00395159,0.0111064,720,1408,-7.48029,-7.12862
-497,-384,-7.43951,7.50269,0.0044195,-0.00377834,-0.000744672,0.0044866,-0.00384544,-0.0898575,0.00481525,0.0205426,727,1408,-7.43952,-7.50264
-490,-384,-7.17969,7.94739,0,0,0,0,0,0,0,-1,734,1408,-7.1797,-7.94744
-483,-384,-6.26471,7.61194,0,0,0,0,0,0,0,-1,741,1408,-6.26469,-7.61191
-476,-384,-6.02734,5.67761,0,0,0,0,0,0,0,-1,748,1408,-6.02736,-5.6776
-469,-384,-10.206,2.63721,0,0,0,0,0,0,0,-1,755,1408,-10.206,-2.6372
-462,-384,-9.04291,1.43542,0,0,0,0,0,0,0,-1,762,1408,-9.04293,-1.43545
-455,-384,-7.87988,0.233765,0,0,0,0,0,0,0,-1,769,1408,-7.87986,-0.233709
-448,-384,-9.35529,7.19226,0,0,0,0,0,0,0,-1,776,1408,-9.35531,-7.19226
-441,-384,-10.4697,1.79004,0,0,0,0,0,0,0,-1,783,1408,-10.4697,-1.79003
-434,-384,-10.6449,0.552246,0,0,0,0,0,0,0,-1,790,1408,-10.6449,-0.552216
-427,-384,-10.968,1.10583,0,0,0,0,0,0,0,-1,797,1408,-10.968,-1.10588
-420,-384,-12.5607,4.54858,0,0,0,0,0,0,0,-1,804,1408,-12.5607,-4.54859
-413,-384,0,0,0,0,0,0,0,0,0,-1,811,1408,0,0
-406,-384,0,0,0,0,0,0,0,0,0,-1,818,1408,0,0
-399,-384,0,0,0,0,0,0,0,0,0,-1,825,1408,0,0
-392,-384,0,0,0,0,0,0,0,0,0,-1,832,1408,0,0
-385,-384,0,0,0,0,0,0,0,0,0,-1,839,1408,0,0
-378,-384,0,0,0,0,0,0,0,0,0,-1,846,1408,0,0
-371,-384,0,0,0,0,0,0,0,0,0,-1,853,1408,0,0
-364,-384,0,0,0,0,0,0,0,0,0,-1,860,1408,0,0
-357,-384,0,0,0,0,0,0,0,0,0,-1,867,1408,0,0
-350,-384,0,0,0,0,0,0,0,0,0,-1,874,1408,0,0
-343,-384,0,0,0,0,0,0,0,0,0,-1,881,1408,0,0
-336,-384,0,0,0,0,0,0,0,0,0,-1,888,1408,0,0
-329,-384,0,0,0,0,0,0,0,0,0,-1,895,1408,0,0
-322,-384,0,0,0,0,0,0,0,0,0,-1,902,1408,0,0
-315,-384,0,0,0,0,0,0,0,0,0,-1,909,1408,0,0
-308,-384,0,0,0,0,0,0,0,0,0,-1,916,1408,0,0
-301,-384,0,0,0,0,0,0,0,0,0,-1,923,1408,0,0
-294,-384,0,0,0,0,0,0,0,0,0,-1,930,1408,0,0
-287,-384,0,0,0,0,0,0,0,0,0,-1,937,1408,0,0
-280,-384,0,0,0,0,0,0,0,0,0,-1,944,1408,0,0
-273,-384,0,0,0,0,0,0,0,0,0,-1,951,1408,0,0
-266,-384,0,0,0,0,0,0,0,0,0,-1,958,1408,0,0
-259,-384,0,0,0,0,0,0,0,0,0,-1,965,1408,0,0
-252,-384,0,0,0,0,0,0,0,0,0,-1,972,1408,0,0
-245,-384,0,0,0,0,0,0,0,0,0,-1,979,1408,0,0
-238,-384,0,0,0,0,0,0,0,0,0,-1,986,1408,0,0
-231,-384,0,0,0,0,0,0,0,0,0,-1,993,1408,0,0
-224,-384,0,0,0,0,0,0,0,0,0,-1,1000,1408,0,0
-217,-384,0,0,0,0,0,0,0,0,0,-1,1007,1408,0,0
-210,-384,0,0,0,0,0,0,0,0,0,-1,1014,1408,0,0
-203,-384,0,0,0,0,0,0,0,0,0,-1,1021,1408,0,0
-196,-384,0,0,0,0,0,0,0,0,0,-1,1028,1408,0,0
-189,-384,0,0,0,0,0,0,0,0,0,-1,1035,1408,0,0
-182,-384,0,0,0,0,0,0,0,0,0,-1,1042,1408,0,0
-175,-384,0,0,0,0,0,0,0,0,0,-1,1049,1408,0,0
-168,-384,0,0,0,0,0,0,0,0,0,-1,1056,1408,0,0
-161,-384,0,0,0,0,0,0,0,0,0,-1,1063,1408,0,0
-154,-384,0,0,0,0,0,0,0,0,0,-1,1070,1408,0,0
-147,-384,0,0,0,0,0,0,0,0,0,-1,1077,1408,0,0
-140,-384,0,0,0,0,0,0,0,0,0,-1,1084,1408,0,0
-133,-384,0,0,0,0,0,0,0,0,0,-1,1091,1408,0,0
-126,-384,0,0,0,0,0,0,0,0,0,-1,1098,1408,0,0
-119,-384,0,0,0,0,0,0,0,0,0,-1,1105,1408,0,0
-112,-384,0,0,0,0,0,0,0,0,0,-1,1112,1408,0,0
-105,-384,0,0,0,0,0,0,0,0,0,-1,1119,1408,0,0
-98,-384,0,0,0,0,0,0,0,0,0,-1,1126,1408,0,0
-91,-384,0,0,0,0,0,0,0,0,0,-1,1133,1408,0,0
-84,-384,0,0,0,0,0,0,0,0,0,-1,1140,1408,0,0
-77,-384,0,0,0,0,0,0,0,0,0,-1,1147,1408,0,0
-70,-384,0,0,0,0,0,0,0,0,0,-1,1154,1408,0,0
-63,-384,0,0,0,0,0,0,0,0,0,-1,1161,1408,0,0
-56,-384,0,0,0,0,0,0,0,0,0,-1,1168,1408,0,0
-49,-384,0,0,0,0,0,0,0,0,0,-1,1175,1408,0,0
-42,-384,0,0,0,0,0,0,0,0,0,-1,1182,1408,0,0
-35,-384,0,0,0,0,0,0,0,0,0,-1,1189,1408,0,0
-28,-384,0,0,0,0,0,0,0,0,0,-1,1196,1408,0,0
-21,-384,0,0,0,0,0,0,0,0,0,-1,1203,1408,0,0
-14,-384,0,0,0,0,0,0,0,0,0,-1,1210,1408,0,0
-7,-384,0,0,0,0,0,0,0,0,0,-1,1217,1408,0,0
0,-384,0,0,0,0,0,0,0,0,0,-1,1224,1408,0,0
7,-384,0,0,0,0,0,0,0,0,0,-1,1231,1408,0,0
14,-384,0,0,0,0,0,0,0,0,0,-1,1238,1408,0,0
21,-384,0,0,0,0,0,0,0,0,0,-1,1245,1408,0,0
28,-384,0,0,0,0,0,0,0,0,0,-1,1252,1408,0,0
35,-384,0,0,0,0,0,0,0,0,0,-1,1259,1408,0,0
42,-384,0,0,0,0,0,0,0,0,0,-1,1266,1408,0,0
49,-384,0,0,0,0,0,0,0,0,0,-1,1273,1408,0,0
56,-384,0,0,0,0,0,0,0,0,0,-1,1280,1408,0,0
63,-384,0,0,0,0,0,0,0,0,0,-1,1287,1408,0,0
70,-384,0,0,0,0,0,0,0,0,0,-1,1294,1408,0,0
77,-384,0,0,0,0,0,0,0,0,0,-1,1301,1408,0,0
84,-384,0,0,0,0,0,0,0,0,0,-1,1308,1408,0,0
91,-384,0,0,0,0,0,0,0,0,0,-1,1315,1408,0,0
98,-384,0,0,0,0,0,0,0,0,0,-1,1322,1408,0,0
105,-384,0,0,0,0,0,0,0,0,0,-1,1329,1408,0,0
112,-384,0,0,0,0,0,0,0,0,0,-1,1336,1408,0,0
119,-384,0,0,0,0,0,0,0,0,0,-1,1343,1408,0,0
126,-384,0,0,0,0,0,0,0,0,0,-1,1350,1408,0,0
133,-384,0,0,0,0,0,0,0,0,0,-1,1357,1408,0,0
140,-384,0,0,0,0,0,0,0,0,0,-1,1364,1408,0,0
147,-384,0,0,0,0,0,0,0,0,0,-1,1371,1408,0,0
154,-384,0,0,0,0,0,0,0,0,0,-1,1378,1408,0,0
161,-384,0,0,0,0,0,0,0,0,0,-1,1385,1408,0,0
168,-384,0,0,0,0,0,0,0,0,0,-1,1392,1408,0,0
175,-384,0,0,0,0,0,0,0,0,0,-1,1399,1408,0,0
182,-384,0,0,0,0,0,0,0,0,0,-1,1406,1408,0,0
189,-384,0,0,0,0,0,0,0,0,0,-1,1413,1408,0,0
196,-384,0,0,0,0,0,0,0,0,0,-1,1420,1408,0,0
203,-384,0,0,0,0,0,0,0,0,0,-1,1427,1408,0,0
210,-384,0,0,0,0,0,0,0,0,0,-1,1434,1408,0,0
217,-384,0,0,0,0,0,0,0,0,0,-1,1441,1408,0,0
224,-384,0,0,0,0,0,0,0,0,0,-1,1448,1408,0,0
231,-384,0,0,0,0,0,0,0,0,0,-1,1455,1408,0,0
238,-384,0,0,0,0,0,0,0,0,0,-1,1462,1408,0,0
245,-384,0,0,0,0,0,0,0,0,0,-1,1469,1408,0,0
252,-384,0,0,0,0,0,0,0,0,0,-1,1476,1408,0,0
259,-384,0,0,0,0,0,0,0,0,0,-1,1483,1408,0,0
266,-384,0,0,0,0,0,0,0,0,0,-1,1490,1408,0,0
273,-384,0,0,0,0,0,0,0,0,0,-1,1497,1408,0,0
280,-384,0,0,0,0,0,0,0,0,0,-1,1504,1408,0,0
287,-384,0,0,0,0,0,0,0,0,0,-1,1511,1408,0,0
294,-384,0,0,0,0,0,0,0,0,0,-1,1518,1408,0,0
301,-384,0,0,0,0,0,0,0,0,0,-1,1525,1408,0,0
308,-384,0,0,0,0,0,0,0,0,0,-1,1532,1408,0,0
315,-384,0,0,0,0,0,0,0,0,0,-1,1539,1408,0,0
322,-384,0,0,0,0,0,0,0,0,0,-1,1546,1408,0,0
329,-384,0,0,0,0,0,0,0,0,0,-1,1553,1408,0,0
336,-384,0,0,0,0,0,0,0,0,0,-1,1560,1408,0,0
343,-384,0,0,0,0,0,0,0,0,0,-1,1567,1408,0,0
350,-384,0,0,0,0,0,0,0,0,0,-1,1574,1408,0,0
357,-384,0,0,0,0,0,0,0,0,0,-1,1581,1408,0,0
364,-384,0,0,0,0,0,0,0,0,0,-1,1588,1408,0,0
371,-384,0,0,0,0,0,0,0,0,0,-1,1595,1408,0,0
378,-384,0,0,0,0,0,0,0,0,0,-1,1602,1408,0,0
385,-384,0,0,0,0,0,0,0,0,0,-1,1609,1408,0,0
392,-384,0,0,0,0,0,0,0,0,0,-1,1616,1408,0,0
399,-384,0,0,0,0,0,0,0,0,0,-1,1623,1408,0,0
406,-384,0,0,0,0,0,0,0,0,0,-1,1630,1408,0,0
413,-384,0,0,0,0,0,0,0,0,0,-1,1637,1408,0,0
420,-384,0,0,0,0,0,0,0,0,0,-1,1644,1408,0,0
427,-384,0,0,0,0,0,0,0,0,0,-1,1651,1408,0,0
434,-384,0,0,0,0,0,0,0,0,0,-1,1658,1408,0,0
441,-384,0,0,0,0,0,0,0,0,0,-1,1665,1408,0,0
448,-384,0,0,0,0,0,0,0,0,0,-1,1672,1408,0,0
455,-384,0,0,0,0,0,0,0,0,0,-1,1679,1408,0,0
462,-384,0,0,0,0,0,0,0,0,0,-1,1686,1408,0,0
469,-384,0,0,0,0,0,0,0,0,0,-1,1693,1408,0,0
476,-384,0,0,0,0,0,0,0,0,0,-1,1700,1408,0,0
483,-384,0,0,0,0,0,0,0,0,0,-1,1707,1408,0,0
490,-384,0,0,0,0,0,0,0,0,0,-1,1714,1408,0,0
497,-384,0,0,0,0,0,0,0,0,0,-1,1721,1408,0,0
504,-384,0,0,0,0,0,0,0,0,0,-1,1728,1408,0,0
511,-384,0,0,0,0,0,0,0,0,0,-1,1735,1408,0,0
518,-384,0,0,0,0,0,0,0,0,0,-1,1742,1408,0,0
525,-384,0,0,0,0,0,0,0,0,0,-1,1749,1408,0,0
532,-384,0,0,0,0,0,0,0,0,0,-1,1756,1408,0,0
539,-384,27.6886,2.85803,0,0,0,0,0,0,0,-1,1763,1408,27.6886,-2.85807
546,-384,27.5044,2.9425,0,0,0,0,0,0,0,-1,1770,1408,27.5044,-2.94255
553,-384,27.3052,2.78394,0,0,0,0,0,0,0,-1,1777,1408,27.3051,-2.78394
560,-384,26.833,3.19812,0,0,0,0,0,0,0,-1,1784,1408,26.833,-3.19816
567,-384,27.1617,1.78625,0,0,0,0,0,0,0,-1,1791,1408,27.1617,-1.78622
574,-384,25.8635,3.7915,0,0,0,0,0,0,0,-1,1798,1408,25.8636,-3.79148
581,-384,25.819,3.91846,0,0,0,0,0,0,0,-1,1805,1408,25.8189,-3.91848
588,-384,23.3721,4.25439,0,0,0,0,0,0,0,-1,1812,1408,23.3721,-4.25442
595,-384,24.981,5.59595,0,0,0,0,0,0,0,-1,1819,1408,24.981,-5.59598
602,-384,20.6605,4.17261,0,0,0,0,0,0,0,-1,1826,1408,20.6606,-4.17265
609,-384,14.158,5.49475,0,0,0,0,0,0,0,-1,1833,1408,14.158,-5.49474
616,-384,14.7997,7.6908,0,0,0,0,0,0,0,-1,1840,1408,14.7996,-7.69079
623,-384,16.4293,9.58899,0,0,0,0,0,0,0,-1,1847,1408,16.4294,-9.58901
630,-384,17.6719,9.29138,0,0,0,0,0,0,0,-1,1854,1408,17.6719,-9.29142
637,-384,17.6738,8.94702,-0.00326224,-0.00177678,0.00136421,-0.00096622,-0.0040728,1.03468,0.00245728,0.0168142,1861,1408,17.6738,-8.94706
644,-384,17.655,8.65723,-0.000949681,-0.00115332,0.000562181,-0.000480171,-0.00162283,0.695814,0.00096261,0.0152333,1868,1408,17.655,-8.65717
651,-384,17.6729,8.33862,0.00119934,-0.000517368,-0.000202131,0.00122282,-0.000540846,-0.115636,0.00104332,0.0145592,1875,1408,17.6729,-8.33861
658,-384,17.6857,8.01965,0.00156228,-0.000275599,-0.000163078,0.00157663,-0.000289957,-0.0878173,0.00115989,0.0149349,1882,1408,17.6857,-8.01964
665,-384,17.6956,7.71289,0.00135685,-0.000100934,8.50626e-05,0.0013618,-0.000105881,0.0580877,0.00094514,0.0167118,1889,1408,17.6956,-7.7129
672,-384,17.7112,7.41882,0.00111552,3.76674e-05,0.000384,0.00123833,-8.51439e-05,0.309541,0.000855352,0.0146748,1896,1408,17.7112,-7.41887
679,-384,17.6733,7.1355,0.000957429,0.000136868,0.000724129,0.00137943,-0.000285133,0.527655,0.00102793,0.0144287,1903,1408,17.6733,-7.13548
686,-384,17.6536,6.8667,0.000857423,0.000155845,0.00110112,0.00166228,-0.000649014,0.631194,0.00137651,0.0117681,1910,1408,17.6536,-6.8667
693,-384,17.6927,6.57178,0.00118722,-1.20449e-05,0.0014369,0.00214458,-0.000969408,0.587728,0.00184004,0.01851,1917,1408,17.6927,-6.5718
700,-384,17.4867,6.03027,0,0,0,0,0,0,0,-1,1924,1408,17.4867,-6.03029
707,-384,17.0566,6.62842,0,0,0,0,0,0,0,-1,1931,1408,17.0567,-6.62848
714,-384,16.038,5.0282,0,0,0,0,0,0,0,-1,1938,1408,16.038,-5.02819
721,-384,13.8843,2.8717,0,0,0,0,0,0,0,-1,1945,1408,13.8843,-2.87171
728,-384,15.4409,6.25745,0,0,0,0,0,0,0,-1,1952,1408,15.4409,-6.2574
735,-384,16.7598,6.71289,0,0,0,0,0,0,0,-1,1959,1408,16.7598,-6.71287
742,-384,0,0,0,0,0,0,0,0,0,-1,1966,1408,0,0
749,-384,0,0,0,0,0,0,0,0,0,-1,1973,1408,0,0
756,-384,0,0,0,0,0,0,0,0,0,-1,1980,1408,0,0
763,-384,0,0,0,0,0,0,0,0,0,-1,1987,1408,0,0
770,-384,0,0,0,0,0,0,0,0,0,-1,1994,1408,0,0
777,-384,0,0,0,0,0,0,0,0,0,-1,2001,1408,0,0
784,-384,0,0,0,0,0,0,0,0,0,-1,2008,1408,0,0
791,-384,0,0,0,0,0,0,0,0,0,-1,2015,1408,0,0
798,-384,0,0,0,0,0,0,0,0,0,-1,2022,1408,0,0
805,-384,0,0,0,0,0,0,0,0,0,-1,2029,1408,0,0
812,-384,0,0,0,0,0,0,0,0,0,-1,2036,1408,0,0
-700,-391,0,0,0,0,0,0,0,0,0,-1,524,1415,0,0
-693,-391,0,0,0,0,0,0,0,0,0,-1,531,1415,0,0
-686,-391,0,0,0,0,0,0,0,0,0,-1,538,1415,0,0
-679,-391,0,0,0,0,0,0,0,0,0,-1,545,1415,0,0
-672,-391,0,0,0,0,0,0,0,0,0,-1,552,1415,0,0
-665,-391,0,0,0,0,0,0,0,0,0,-1,559,1415,0,0
-658,-391,0,0,0,0,0,0,0,0,0,-1,566,1415,0,0
-651,-391,0,0,0,0,0,0,0,0,0,-1,573,1415,0,0
-644,-391,0,0,0,0,0,0,0,0,0,-1,580,1415,0,0
-637,-391,0,0,0,0,0,0,0,0,0,-1,587,1415,0,0
-630,-391,0,0,0,0,0,0,0,0,0,-1,594,1415,0,0
-623,-391,0,0,0,0,0,0,0,0,0,-1,601,1415,0,0
-616,-391,0,0,0,0,0,0,0,0,0,-1,608,1415,0,0
-609,-391,-7.71753,-3.69763,0,0,0,0,0,0,0,-1,615,1415,-7.71751,3.69759
-602,-391,-13.9493,-4.12805,0,0,0,0,0,0,0,-1,622,1415,-13.9493,4.12803
-595,-391,-10.5076,-0.861816,0,0,0,0,0,0,0,-1,629,1415,-10.5076,0.861847
-588,-391,-7.06592,2.4043,0,0,0,0,0,0,0,-1,636,1415,-7.06589,-2.40433
-581,-391,-8.34491,2.92615,0,0,0,0,0,0,0,-1,643,1415,-8.3449,-2.92618
-574,-391,-7.03809,3.21082,0,0,0,0,0,0,0,-1,650,1415,-7.03806,-3.21081
-567,-391,-7.40692,4.78833,0.0110987,-0.0125143,-0.000125884,0.0110993,-0.012515,-0.00533093,0.0136419,0.0448056,657,1415,-7.4069,-4.78828
-560,-391,-7.00269,4.86047,0.00703019,-0.00949349,-0.000938725,0.00708335,-0.00954665,-0.0565683,0.00963638,0.041673,664,1415,-7.00267,-4.86052
-553,-391,-7.08246,4.77783,0.004356,-0.0069499,-0.00124044,0.0044905,-0.00708439,-0.108004,0.00673847,0.0342896,671,1415,-7.08249,-4.77788
-546,-391,-7.14636,5.14197,0.0026619,-0.00482804,-0.0012102,0.00285258,-0.00501872,-0.15628,0.0046015,0.013278,678,1415,-7.14634,-5.14196
-539,-391,-7.12848,5.47498,0.00184043,-0.00313189,-0.00088682,0.00199386,-0.00328532,-0.171317,0.00307819,0.0149663,685,1415,-7.12847,-5.47497
-532,-391,-7.11243,5.79041,0.00171071,-0.00179181,-0.000368022,0.00174896,-0.00183006,-0.103567,0.00206653,0.0259095,692,1415,-7.1124,-5.79037
-525,-391,-7.11334,6.13843,0.00209129,-0.000827386,0.000240797,0.00211102,-0.000847119,0.0817656,0.00175908,0.0225119,699,1415,-7.11335,-6.13843
-518,-391,-7.16455,6.47168,0.00254467,-0.000480485,0.000652754,0.00267951,-0.000615323,0.203703,0.00202289,0.0132567,706,1415,-7.16458,-6.47164
-511,-391,-7.16199,6.79602,0.00291365,-0.00070205,0.000650604,0.00302716,-0.000815555,0.172723,0.00233786,0.012065,713,1415,-7.16202,-6.79603
-504,-391,-7.15051,7.14832,0.00325905,-0.00165257,0.00025416,0.00327217,-0.00166568,0.051563,0.00290073,0.0106071,720,1415,-7.15053,-7.14826
-497,-391,-7.1543,7.47339,0.0028473,-0.00369779,-0.00143475,0.00314799,-0.00399848,-0.206591,0.00413575,0.0107756,727,1415,-7.15429,-7.47334
-490,-391,-7.0976,7.83313,0.00186701,-0.00603933,-0.00420538,0.00368556,-0.00785788,-0.408151,0.00680818,0.0263438,734,1415,-7.0976,-7.83312
-483,-391,-6.97107,8.2854,0,0,0,0,0,0,0,-1,741,1415,-6.97107,-8.28538
-476,-391,-6.05731,6.85303,0,0,0,0,0,0,0,-1,748,1415,-6.05728,-6.85304
-469,-391,-3.88953,5.0979,0,0,0,0,0,0,0,-1,755,1415,-3.88955,-5.09794
-462,-391,-8.67688,2.03125,0,0,0,0,0,0,0,-1,762,1415,-8.67685,-2.03121
-455,-391,-8.65576,6.46997,0,0,0,0,0,0,0,-1,769,1415,-8.65579,-6.46999
-448,-391,-8.39618,4.38403,0,0,0,0,0,0,0,-1,776,1415,-8.39617,-4.38405
-441,-391,-9.77704,2.5946,0,0,0,0,0,0,0,-1,783,1415,-9.77702,-2.5946
-434,-391,-11.5403,2.12878,0,0,0,0,0,0,0,-1,790,1415,-11.5403,-2.12881
-427,-391,-10.5311,2.50403,0,0,0,0,0,0,0,-1,797,1415,-10.5311,-2.504
-420,-391,-14.7087,1.24365,0,0,0,0,0,0,0,-1,804,1415,-14.7088,-1.24365
-413,-391,0,0,0,0,0,0,0,0,0,-1,811,1415,0,0
-406,-391,0,0,0,0,0,0,0,0,0,-1,818,1415,0,0
-399,-391,0,0,0,0,0,0,0,0,0,-1,825,1415,0,0
-392,-391,0,0,0,0,0,0,0,0,0,-1,832,1415,0,0
-385,-391,0,0,0,0,0,0,0,0,0,-1,839,1415,0,0
-378,-391,0,0,0,0,0,0,0,0,0,-1,846,1415,0,0
-371,-391,0,0,0,0,0,0,0,0,0,-1,853,1415,0,0
-364,-391,0,0,0,0,0,0,0,0,0,-1,860,1415,0,0
-357,-391,0,0,0,0,0,0,0,0,0,-1,867,1415,0,0
-350,-391,0,0,0,0,0,0,0,0,0,-1,874,1415,0,0
-343,-391,0,0,0,0,0,0,0,0,0,-1,881,1415,0,0
-336,-391,0,0,0,0,0,0,0,0,0,-1,888,1415,0,0
-329,-391,0,0,0,0,0,0,0,0,0,-1,895,1415,0,0
-322,-391,0,0,0,0,0,0,0,0,0,-1,902,1415,0,0
-315,-391,0,0,0,0,0,0,0,0,0,-1,909,1415,0,0
-308,-391,0,0,0,0,0,0,0,0,0,-1,916,1415,0,0
-301,-391,0,0,0,0,0,0,0,0,0,-1,923,1415,0,0
-294,-391,0,0,0,0,0,0,0,0,0,-1,930,1415,0,0
-287,-391,0,0,0,0,0,0,0,0,0,-1,937,1415,0,0
-280,-391,0,0,0,0,0,0,0,0,0,-1,944,1415,0,0
-273,-391,0,0,0,0,0,0,0,0,0,-1,951,1415,0,0
-266,-391,0,0,0,0,0,0,0,0,0,-1,958,1415,0,0
-259,-391,0,0,0,0,0,0,0,0,0,-1,965,1415,0,0
-252,-391,0,0,0,0,0,0,0,0,0,-1,972,1415,0,0
-245,-391,0,0,0,0,0,0,0,0,0,-1,979,1415,0,0
-238,-391,0,0,0,0,0,0,0,0,0,-1,986,1415,0,0
-231,-391,0,0,0,0,0,0,0,0,0,-1,993,1415,0,0
-224,-391,0,0,0,0,0,0,0,0,0,-1,1000,1415,0,0
-217,-391,0,0,0,0,0,0,0,0,0,-1,1007,1415,0,0
-210,-391,0,0,0,0,0,0,0,0,0,-1,1014,1415,0,0
-203,-391,0,0,0,0,0,0,0,0,0,-1,1021,1415,0,0
-196,-391,0,0,0,0,0,0,0,0,0,-1,1028,1415,0,0
-189,-391,0,0,0,0,0,0,0,0,0,-1,1035,1415,0,0
-182,-391,0,0,0,0,0,0,0,0,0,-1,1042,1415,0,0
-175,-391,0,0,0,0,0,0,0,0,0,-1,1049,1415,0,0
-168,-391,0,0,0,0,0,0,0,0,0,-1,1056,1415,0,0
-161,-391,0,0,0,0,0,0,0,0,0,-1,1063,1415,0,0
-154,-391,0,0,0,0,0,0,0,0,0,-1,1070,1415,0,0
-147,-391,0,0,0,0,0,0,0,0,0,-1,1077,1415,0,0
-140,-391,0,0,0,0,0,0,0,0,0,-1,1084,1415,0,0
-133,-391,0,0,0,0,0,0,0,0,0,-1,1091,1415,0,0
-126,-391,0,0,0,0,0,0,0,0,0,-1,1098,1415,0,0
-119,-391,0,0,0,0,0,0,0,0,0,-1,1105,1415,0,0
-112,-391,0,0,0,0,0,0,0,0,0,-1,1112,1415,0,0
-105,-391,0,0,0,0,0,0,0,0,0,-1,1119,1415,0,0
-98,-391,0,0,0,0,0,0,0,0,0,-1,1126,1415,0,0
-91,-391,0,0,0,0,0,0,0,0,0,-1,1133,1415,0,0
-84,-391,0,0,0,0,0,0,0,0,0,-1,1140,1415,0,0
-77,-391,0,0,0,0,0,0,0,0,0,-1,1147,1415,0,0
-70,-391,0,0,0,0,0,0,0,0,0,-1,1154,1415,0,0
-63,-391,0,0,0,0,0,0,0,0,0,-1,1161,1415,0,0
-56,-391,0,0,0,0,0,0,0,0,0,-1,1168,1415,0,0
-49,-391,0,0,0,0,0,0,0,0,0,-1,1175,1415,0,0
-42,-391,0,0,0,0,0,0,0,0,0,-1,1182,1415,0,0
-35,-391,0,0,0,0,0,0,0,0,0,-1,1189,1415,0,0
-28,-391,0,0,0,0,0,0,0,0,0,-1,1196,1415,0,0
-21,-391,0,0,0,0,0,0,0,0,0,-1,1203,1415,0,0
-14,-391,0,0,0,0,0,0,0,0,0,-1,1210,1415,0,0
-7,-391,0,0,0,0,0,0,0,0,0,-1,1217,1415,0,0
0,-391,0,0,0,0,0,0,0,0,0,-1,1224,1415,0,0
7,-391,0,0,0,0,0,0,0,0,0,-1,1231,1415,0,0
14,-391,0,0,0,0,0,0,0,0,0,-1,1238,1415,0,0
21,-391,0,0,0,0,0,0,0,0,0,-1,1245,1415,0,0
28,-391,0,0,0,0,0,0,0,0,0,-1,1252,1415,0,0
35,-391,0,0,0,0,0,0,0,0,0,-1,1259,1415,0,0
42,-391,0,0,0,0,0,0,0,0,0,-1,1266,1415,0,0
49,-391,0,0,0,0,0,0,0,0,0,-1,1273,1415,0,0
56,-391,0,0,0,0,0,0,0,0,0,-1,1280,1415,0,0
63,-391,0,0,0,0,0,0,0,0,0,-1,1287,1415,0,0
70,-391,0,0,0,0,0,0,0,0,0,-1,1294,1415,0,0
77,-391,0,0,0,0,0,0,0,0,0,-1,1301,1415,0,0
84,-391,0,0,0,0,0,0,0,0,0,-1,1308,1415,0,0
91,-391,0,0,0,0,0,0,0,0,0,-1,1315,1415,0,0
98,-391,0,0,0,0,0,0,0,0,0,-1,1322,1415,0,0
105,-391,0,0,0,0,0,0,0,0,0,-1,1329,1415,0,0
112,-391,0,0,0,0,0,0,0,0,0,-1,1336,1415,0,0
119,-391,0,0,0,0,0,0,0,0,0,-1,1343,1415,0,0
126,-391,0,0,0,0,0,0,0,0,0,-1,1350,1415,0,0
133,-391,0,0,0,0,0,0,0,0,0,-1,1357,1415,0,0
140,-391,0,0,0,0,0,0,0,0,0,-1,1364,1415,0,0
147,-391,0,0,0,0,0,0,0,0,0,-1,1371,1415,0,0
154,-391,0,0,0,0,0,0,0,0,0,-1,1378,1415,0,0
161,-391,0,0,0,0,0,0,0,0,0,-1,1385,1415,0,0
168,-391,0,0,0,0,0,0,0,0,0,-1,1392,1415,0,0
175,-391,0,0,0,0,0,0,0,0,0,-1,1399,1415,0,0
182,-391,0,0,0,0,0,0,0,0,0,-1,1406,1415,0,0
189,-391,0,0,0,0,0,0,0,0,0,-1,1413,1415,0,0
196,-391,0,0,0,0,0,0,0,0,0,-1,1420,1415,0,0
203,-391,0,0,0,0,0,0,0,0,0,-1,1427,1415,0,0
210,-391,0,0,0,0,0,0,0,0,0,-1,1434,1415,0,0
217,-391,0,0,0,0,0,0,0,0,0,-1,1441,1415,0,0
224,-391,0,0,0,0,0,0,0,0,0,-1,1448,1415,0,0
231,-391,0,0,0,0,0,0,0,0,0,-1,1455,1415,0,0
238,-391,0,0,0,0,0,0,0,0,0,-1,1462,1415,0,0
245,-391,0,0,0,0,0,0,0,0,0,-1,1469,1415,0,0
252,-391,0,0,0,0,0,0,0,0,0,-1,1476,1415,0,0
259,-391,0,0,0,0,0,0,0,0,0,-1,1483,1415,0,0
266,-391,0,0,0,0,0,0,0,0,0,-1,1490,1415,0,0
273,-391,0,0,0,0,0,0,0,0,0,-1,1497,1415,0,0
280,-391,0,0,0,0,0,0,0,0,0,-1,1504,1415,0,0
287,-391,0,0,0,0,0,0,0,0,0,-1,1511,1415,0,0
294,-391,0,0,0,0,0,0,0,0,0,-1,1518,1415,0,0
301,-391,0,0,0,0,0,0,0,0,0,-1,1525,1415,0,0
308,-391,0,0,0,0,0,0,0,0,0,-1,1532,1415,0,0
315,-391,0,0,0,0,0,0,0,0,0,-1,1539,1415,0,0
322,-391,0,0,0,0,0,0,0,0,0,-1,1546,1415,0,0
329,-391,0,0,0,0,0,0,0,0,0,-1,1553,1415,0,0
336,-391,0,0,0,0,0,0,0,0,0,-1,1560,1415,0,0
343,-391,0,0,0,0,0,0,0,0,0,-1,1567,1415,0,0
350,-391,0,0,0,0,0,0,0,0,0,-1,1574,1415,0,0
357,-391,0,0,0,0,0,0,0,0,0,-1,1581,1415,0,0
364,-391,0,0,0,0,0,0,0,0,0,-1,1588,1415,0,0
371,-391,0,0,0,0,0,0,0,0,0,-1,1595,1415,0,0
378,-391,0,0,0,0,0,0,0,0,0,-1,1602,1415,0,0
385,-391,0,0,0,0,0,0,0,0,0,-1,1609,1415,0,0
392,-391,0,0,0,0,0,0,0,0,0,-1,1616,1415,0,0
399,-391,0,0,0,0,0,0,0,0,0,-1,1623,1415,0,0
406,-391,0,0,0,0,0,0,0,0,0,-1,1630,1415,0,0
413,-391,0,0,0,0,0,0,0,0,0,-1,1637,1415,0,0
420,-391,0,0,0,0,0,0,0,0,0,-1,1644,1415,0,0
427,-391,0,0,0,0,0,0,0,0,0,-1,1651,1415,0,0
434,-391,0,0,0,0,0,0,0,0,0,-1,1658,1415,0,0
441,-391,0,0,0,0,0,0,0,0,0,-1,1665,1415,0,0
448,-391,0,0,0,0,0,0,0,0,0,-1,1672,1415,0,0
455,-391,0,0,0,0,0,0,0,0,0,-1,1679,1415,0,0
462,-391,0,0,0,0,0,0,0,0,0,-1,1686,1415,0,0
469,-391,0,0,0,0,0,0,0,0,0,-1,1693,1415,0,0
476,-391,0,0,0,0,0,0,0,0,0,-1,1700,1415,0,0
483,-391,0,0,0,0,0,0,0,0,0,-1,1707,1415,0,0
490,-391,0,0,0,0,0,0,0,0,0,-1,1714,1415,0,0
497,-391,0,0,0,0,0,0,0,0,0,-1,1721,1415,0,0
504,-391,0,0,0,0,0,0,0,0,0,-1,1728,1415,0,0
511,-391,0,0,0,0,0,0,0,0,0,-1,1735,1415,0,0
518,-391,0,0,0,0,0,0,0,0,0,-1,1742,1415,0,0
525,-391,0,0,0,0,0,0,0,0,0,-1,1749,1415,0,0
532,-391,28.5959,3.02356,0,0,0,0,0,0,0,-1,1756,1415,28.596,-3.02358
539,-391,27.5881,3.25012,0,0,0,0,0,0,0,-1,1763,1415,27.5882,-3.25016
546,-391,27.2837,3.28064,0,0,0,0,0,0,0,-1,1770,1415,27.2837,-3.28064
553,-391,26.9457,3.30493,0,0,0,0,0,0,0,-1,1777,1415,26.9457,-3.30499
560,-391,26.7034,3.61926,0,0,0,0,0,0,0,-1,1784,1415,26.7034,-3.61932
567,-391,26.2407,4.14771,0,0,0,0,0,0,0,-1,1791,1415,26.2407,-4.14771
574,-391,25.1616,4.44055,0,0,0,0,0,0,0,-1,1798,1415,25.1616,-4.44054
581,-391,23.1665,4.65967,0,0,0,0,0,0,0,-1,1805,1415,23.1665,-4.65972
588,-391,24.2717,5.47986,0,0,0,0,0,0,0,-1,1812,1415,24.2717,-5.47982
595,-391,21.4221,6.3075,0,0,0,0,0,0,0,-1,1819,1415,21.4221,-6.3075
602,-391,15.1635,5.69849,0,0,0,0,0,0,0,-1,1826,1415,15.1635,-5.69847
609,-391,14.8285,7.50476,0,0,0,0,0,0,0,-1,1833,1415,14.8285,-7.50479
616,-391,17.2808,9.80945,0,0,0,0,0,0,0,-1,1840,1415,17.2808,-9.8095
623,-391,17.334,9.49951,0,0,0,0,0,0,0,-1,1847,1415,17.334,-9.4995
630,-391,17.4048,9.19788,-0.00592681,-0.00369374,0.00306972,-0.00154381,-0.00807675,0.959823,0.00495079,0.0220139,1854,1415,17.4048,-9.19783
637,-391,17.3784,8.94287,-0.00281813,-0.00203583,0.00140138,-0.000972039,-0.00388192,0.921495,0.00233246,0.0151763,1861,1415,17.3784,-8.94293
644,-391,17.3613,8.64294,-0.000887838,-0.00118922,0.000652094,-0.00036925,-0.00170781,0.671848,0.00103759,0.0156678,1868,1415,17.3613,-8.64296
651,-391,17.371,8.35559,0.000890719,-0.000317698,-6.2618e-05,0.000893955,-0.000320934,-0.0516338,0.000726959,0.0168439,1875,1415,17.371,-8.35562
658,-391,17.3955,8.06848,0.00130675,-0.00013625,-1.01461e-05,0.00130683,-0.000136322,-0.00703077,0.000920031,0.0168037,1882,1415,17.3955,-8.0685
665,-391,17.4093,7.75061,0.00111359,-1.70779e-05,0.000275,0.00117693,-8.04153e-05,0.22637,0.000812749,0.0141986,1889,1415,17.4093,-7.75057
672,-391,17.4154,7.44141,0.000851568,4.1841e-05,0.000629921,0.00119551,-0.000302105,0.499778,0.000914498,0.0123512,1896,1415,17.4155,-7.44143
679,-391,17.3953,7.15588,0.000602925,1.05448e-05,0.00104455,0.00139247,-0.000779,0.647246,0.00127027,0.0110729,1903,1415,17.3952,-7.15586
686,-391,17.3811,6.875,0.000393599,-0.000135853,0.00152714,0.00167879,-0.00142104,0.699577,0.00179175,0.0140154,1910,1415,17.3811,-6.875
693,-391,17.3546,6.67456,0.000635215,-0.00059652,0.00196676,0.00208028,-0.00204159,0.633665,0.0023798,0.0318128,1917,1415,17.3546,-6.67453
700,-391,17.3739,6.45654,0,0,0,0,0,0,0,-1,1924,1415,17.3739,-6.45653
707,-391,12.9524,5.96851,0,0,0,0,0,0,0,-1,1931,1415,12.9524,-5.96849
714,-391,15.6875,7.67896,0,0,0,0,0,0,0,-1,1938,1415,15.6875,-7.67893
721,-391,14.1808,8.08435,0,0,0,0,0,0,0,-1,1945,1415,14.1808,-8.08439
728,-391,13.8102,7.28174,0,0,0,0,0,0,0,-1,1952,1415,13.8102,-7.28174
735,-391,0,0,0,0,0,0,0,0,0,-1,1959,1415,0,0
742,-391,0,0,0,0,0,0,0,0,0,-1,1966,1415,0,0
749,-391,0,0,0,0,0,0,0,0,0,-1,1973,1415,0,0
756,-391,0,0,0,0,0,0,0,0,0,-1,1980,1415,0,0
763,-391,0,0,0,0,0,0,0,0,0,-1,1987,1415,0,0
770,-391,0,0,0,0,0,0,0,0,0,-1,1994,1415,0,0
777,-391,0,0,0,0,0,0,0,0,0,-1,2001,1415,0,0
784,-391,0,0,0,0,0,0,0,0,0,-1,2008,1415,0,0
791,-391,0,0,0,0,0,0,0,0,0,-1,2015,1415,0,0
798,-391,0,0,0,0,0,0,0,0,0,-1,2022,1415,0,0
805,-391,0,0,0,0,0,0,0,0,0,-1,2029,1415,0,0
812,-391,0,0,0,0,0,0,0,0,0,-1,2036,1415,0,0
-700,-398,0,0,0,0,0,0,0,0,0,-1,524,1422,0,0
-693,-398,0,0,0,0,0,0,0,0,0,-1,531,1422,0,0
-686,-398,0,0,0,0,0,0,0,0,0,-1,538,1422,0,0
-679,-398,0,0,0,0,0,0,0,0,0,-1,545,1422,0,0
-672,-398,0,0,0,0,0,0,0,0,0,-1,552,1422,0,0
-665,-398,0,0,0,0,0,0,0,0,0,-1,559,1422,0,0
-658,-398,0,0,0,0,0,0,0,0,0,-1,566,1422,0,0
-651,-398,0,0,0,0,0,0,0,0,0,-1,573,1422,0,0
-644,-398,0,0,0,0,0,0,0,0,0,-1,580,1422,0,0
-637,-398,0,0,0,0,0,0,0,0,0,-1,587,1422,0,0
-630,-398,0,0,0,0,0,0,0,0,0,-1,594,1422,0,0
-623,-398,0,0,0,0,0,0,0,0,0,-1,601,1422,0,0
-616,-398,0,0,0,0,0,0,0,0,0,-1,608,1422,0,0
-609,-398,-7.47125,-4.05322,0,0,0,0,0,0,0,-1,615,1422,-7.47128,4.05317
-602,-398,-4.58868,-2.77026,0,0,0,0,0,0,0,-1,622,1422,-4.58869,2.77023
-595,-398,-12.2224,-1.82007,0,0,0,0,0,0,0,-1,629,1422,-12.2224,1.82006
-588,-398,-8.56049,1.85718,0,0,0,0,0,0,0,-1,636,1422,-8.5605,-1.85718
-581,-398,-8.62354,4.84009,0,0,0,0,0,0,0,-1,643,1422,-8.62351,-4.84014
-574,-398,-7.85406,5.14832,0.0221846,-0.017995,0.00289755,0.0223925,-0.0182029,0.071621,0.0234793,0.0484074,650,1422,-7.85406,-5.14835
-567,-398,-7.36163,5.19421,0.0146661,-0.0134691,0.00116606,0.0147144,-0.0135174,0.0413504,0.0163045,0.0462214,657,1422,-7.36165,-5.19415
-560,-398,-7.02771,5.11584,0.00909508,-0.00964808,7.77772e-05,0.00909541,-0.0096484,0.00414954,0.0108233,0.0438365,664,1422,-7.0277,-5.11583
-553,-398,-6.72876,4.94788,0.00542741,-0.00660635,-0.000416592,0.00544181,-0.00662076,-0.0345634,0.00697541,0.0416004,671,1422,-6.72873,-4.94787
-546,-398,-6.81299,5.13916,0.00305249,-0.00421851,-0.000573718,0.00309748,-0.0042635,-0.0782595,0.0042676,0.0197413,678,1422,-6.81301,-5.13921
-539,-398,-6.78137,5.48828,0.00179596,-0.00245634,-0.000412585,0.00183562,-0.002496,-0.0958352,0.00251053,0.0129247,685,1422,-6.78135,-5.48831
-532,-398,-6.7796,5.81616,0.00134142,-0.00118332,-8.16972e-05,0.00134406,-0.00118596,-0.0323135,0.00146166,0.0219808,692,1422,-6.7796,-5.81615
-525,-398,-6.76733,6.15051,0.00147486,-0.000364977,0.000327453,0.00153141,-0.000421519,0.170986,0.00118667,0.0204438,699,1422,-6.76736,-6.15053
-518,-398,-6.78748,6.48645,0.00167351,-0.000201709,0.00050968,0.00180309,-0.000331286,0.248956,0.00132635,0.0167914,706,1422,-6.78745,-6.48642
-511,-398,-6.79498,6.79211,0.00179642,-0.000447139,0.000316706,0.00184027,-0.000490989,0.137582,0.00141911,0.0128979,713,1422,-6.79499,-6.79209
-504,-398,-6.80286,7.15454,0.00191522,-0.00144809,-0.000248946,0.00193355,-0.00146642,-0.0734843,0.00196914,0.0126703,720,1422,-6.80287,-7.15454
-497,-398,-6.81873,7.47742,0.00139762,-0.00348768,-0.00200884,0.00211756,-0.00420762,-0.344126,0.00371771,0.00996121,727,1422,-6.8187,-7.47748
-490,-398,-6.81952,7.79272,0.000484222,-0.00567521,-0.00473878,0.00305612,-0.0082471,-0.497247,0.00675142,0.012695,734,1422,-6.81949,-7.79278
-483,-398,-6.68329,8.21289,-0.00160579,-0.00874204,-0.00851606,0.00405944,-0.0144073,-0.587015,0.0112058,0.0308186,741,1422,-6.68329,-8.21293
-476,-398,-6.66583,8.45593,0,0,0,0,0,0,0,-1,748,1422,-6.66584,-8.45597
-469,-398,-6.70148,8.38794,0,0,0,0,0,0,0,-1,755,1422,-6.70148,-8.38788
-462,-398,-7.63391,8.08569,0,0,0,0,0,0,0,-1,762,1422,-7.63394,-8.08571
-455,-398,-8.08331,6.75024,0,0,0,0,0,0,0,-1,769,1422,-8.08333,-6.75022
-448,-398,-7.4505,5.25293,0,0,0,0,0,0,0,-1,776,1422,-7.4505,-5.25291
-441,-398,-7.61639,3.32141,0,0,0,0,0,0,0,-1,783,1422,-7.61637,-3.32145
-434,-398,-10.7618,3.297,0,0,0,0,0,0,0,-1,790,1422,-10.7618,-3.29704
-427,-398,-11.9061,2.24939,0,0,0,0,0,0,0,-1,797,1422,-11.9061,-2.24941
-420,-398,-13.467,2.32788,0,0,0,0,0,0,0,-1,804,1422,-13.467,-2.32787
-413,-398,-14.7983,2.15515,0,0,0,0,0,0,0,-1,811,1422,-14.7983,-2.15516
-406,-398,0,0,0,0,0,0,0,0,0,-1,818,1422,0,0
-399,-398,0,0,0,0,0,0,0,0,0,-1,825,1422,0,0
-392,-398,0,0,0,0,0,0,0,0,0,-1,832,1422,0,0
-385,-398,0,0,0,0,0,0,0,0,0,-1,839,1422,0,0
-378,-398,0,0,0,0,0,0,0,0,0,-1,846,1422,0,0
-371,-398,0,0,0,0,0,0,0,0,0,-1,853,1422,0,0
-364,-398,0,0,0,0,0,0,0,0,0,-1,860,1422,0,0
-357,-398,0,0,0,0,0,0,0,0,0,-1,867,1422,0,0
-350,-398,0,0,0,0,0,0,0,0,0,-1,874,1422,0,0
-343,-398,0,0,0,0,0,0,0,0,0,-1,881,1422,0,0
-336,-398,0,0,0,0,0,0,0,0,0,-1,888,1422,0,0
-329,-398,0,0,0,0,0,0,0,0,0,-1,895,1422,0,0
-322,-398,0,0,0,0,0,0,0,0,0,-1,902,1422,0,0
-315,-398,0,0,0,0,0,0,0,0,0,-1,909,1422,0,0
-308,-398,0,0,0,0,0,0,0,0,0,-1,916,1422,0,0
-301,-398,0,0,0,0,0,0,0,0,0,-1,923,1422,0,0
-294,-398,0,0,0,0,0,0,0,0,0,-1,930,1422,0,0
-287,-398,0,0,0,0,0,0,0,0,0,-1,937,1422,0,0
-280,-398,0,0,0,0,0,0,0,0,0,-1,944,1422,0,0
-273,-398,0,0,0,0,0,0,0,0,0,-1,951,1422,0,0
-266,-398,0,0,0,0,0,0,0,0,0,-1,958,1422,0,0
-259,-398,0,0,0,0,0,0,0,0,0,-1,965,1422,0,0
-252,-398,0,0,0,0,0,0,0,0,0,-1,972,1422,0,0
-245,-398,0,0,0,0,0,0,0,0,0,-1,979,1422,0,0
-238,-398,0,0,0,0,0,0,0,0,0,-1,986,1422,0,0
-231,-398,0,0,0,0,0,0,0,0,0,-1,993,1422,0,0
-224,-398,0,0,0,0,0,0,0,0,0,-1,1000,1422,0,0
-217,-398,0,0,0,0,0,0,0,0,0,-1,1007,1422,0,0
-210,-398,0,0,0,0,0,0,0,0,0,-1,1014,1422,0,0
-203,-398,0,0,0,0,0,0,0,0,0,-1,1021,1422,0,0
-196,-398,0,0,0,0,0,0,0,0,0,-1,1028,1422,0,0
-189,-398,0,0,0,0,0,0,0,0,0,-1,1035,1422,0,0
-182,-398,0,0,0,0,0,0,0,0,0,-1,1042,1422,0,0
-175,-398,0,0,0,0,0,0,0,0,0,-1,1049,1422,0,0
-168,-398,0,0,0,0,0,0,0,0,0,-1,1056,1422,0,0
-161,-398,0,0,0,0,0,0,0,0,0,-1,1063,1422,0,0
-154,-398,0,0,0,0,0,0,0,0,0,-1,1070,1422,0,0
-147,-398,0,0,0,0,0,0,0,0,0,-1,1077,1422,0,0
-140,-398,0,0,0,0,0,0,0,0,0,-1,1084,1422,0,0
-133,-398,0,0,0,0,0,0,0,0,0,-1,1091,1422,0,0
-126,-398,0,0,0,0,0,0,0,0,0,-1,1098,1422,0,0
-119,-398,0,0,0,0,0,0,0,0,0,-1,1105,1422,0,0
-112,-398,0,0,0,0,0,0,0,0,0,-1,1112,1422,0,0
-105,-398,0,0,0,0,0,0,0,0,0,-1,1119,1422,0,0
-98,-398,0,0,0,0,0,0,0,0,0,-1,1126,1422,0,0
-91,-398,0,0,0,0,0,0,0,0,0,-1,1133,1422,0,0
-84,-398,0,0,0,0,0,0,0,0,0,-1,1140,1422,0,0
-77,-398,0,0,0,0,0,0,0,0,0,-1,1147,1422,0,0
-70,-398,0,0,0,0,0,0,0,0,0,-1,1154,1422,0,0
-63,-398,0,0,0,0,0,0,0,0,0,-1,1161,1422,0,0
-56,-398,0,0,0,0,0,0,0,0,0,-1,1168,1422,0,0
-49,-398,0,0,0,0,0,0,0,0,0,-1,1175,1422,0,0
-42,-398,0,0,0,0,0,0,0,0,0,-1,1182,1422,0,0
-35,-398,0,0,0,0,0,0,0,0,0,-1,1189,1422,0,0
-28,-398,0,0,0,0,0,0,0,0,0,-1,1196,1422,0,0
-21,-398,0,0,0,0,0,0,0,0,0,-1,1203,1422,0,0
-14,-398,0,0,0,0,0,0,0,0,0,-1,1210,1422,0,0
-7,-398,0,0,0,0,0,0,0,0,0,-1,1217,1422,0,0
0,-398,0,0,0,0,0,0,0,0,0,-1,1224,1422,0,0
7,-398,0,0,0,0,0,0,0,0,0,-1,1231,1422,0,0
14,-398,0,0,0,0,0,0,0,0,0,-1,1238,1422,0,0
21,-398,0,0,0,0,0,0,0,0,0,-1,1245,1422,0,0
28,-398,0,0,0,0,0,0,0,0,0,-1,1252,1422,0,0
35,-398,0,0,0,0,0,0,0,0,0,-1,1259,1422,0,0
42,-398,0,0,0,0,0,0,0,0,0,-1,1266,1422,0,0
49,-398,0,0,0,0,0,0,0,0,0,-1,1273,1422,0,0
56,-398,0,0,0,0,0,0,0,0,0,-1,1280,1422,0,0
63,-398,0,0,0,0,0,0,0,0,0,-1,1287,1422,0,0
70,-398,0,0,0,0,0,0,0,0,0,-1,1294,1422,0,0
77,-398,0,0,0,0,0,0,0,0,0,-1,1301,1422,0,0
84,-398,0,0,0,0,0,0,0,0,0,-1,1308,1422,0,0
91,-398,0,0,0,0,0,0,0,0,0,-1,1315,1422,0,0
98,-398,0,0,0,0,0,0,0,0,0,-1,1322,1422,0,0
105,-398,0,0,0,0,0,0,0,0,0,-1,1329,1422,0,0
112,-398,0,0,0,0,0,0,0,0,0,-1,1336,1422,0,0
119,-398,0,0,0,0,0,0,0,0,0,-1,1343,1422,0,0
126,-398,0,0,0,0,0,0,0,0,0,-1,1350,1422,0,0
133,-398,0,0,0,0,0,0,0,0,0,-1,1357,1422,0,0
140,-398,0,0,0,0,0,0,0,0,0,-1,1364,1422,0,0
147,-398,0,0,0,0,0,0,0,0,0,-1,1371,1422,0,0
154,-398,0,0,0,0,0,0,0,0,0,-1,1378,1422,0,0
161,-398,0,0,0,0,0,0,0,0,0,-1,1385,1422,0,0
168,-398,0,0,0,0,0,0,0,0,0,-1,1392,1422,0,0
175,-398,0,0,0,0,0,0,0,0,0,-1,1399,1422,0,0
182,-398,0,0,0,0,0,0,0,0,0,-1,1406,1422,0,0
189,-398,0,0,0,0,0,0,0,0,0,-1,1413,1422,0,0
196,-398,0,0,0,0,0,0,0,0,0,-1,1420,1422,0,0
203,-398,0,0,0,0,0,0,0,0,0,-1,1427,1422,0,0
210,-398,0,0,0,0,0,0,0,0,0,-1,1434,1422,0,0
217,-398,0,0,0,0,0,0,0,0,0,-1,1441,1422,0,0
224,-398,0,0,0,0,0,0,0,0,0,-1,1448,1422,0,0
231,-398,0,0,0,0,0,0,0,0,0,-1,1455,1422,0,0
238,-398,0,0,0,0,0,0,0,0,0,-1,1462,1422,0,0
245,-398,0,0,0,0,0,0,0,0,0,-1,1469,1422,0,0
252,-398,0,0,0,0,0,0,0,0,0,-1,1476,1422,0,0
259,-398,0,0,0,0,0,0,0,0,0,-1,1483,1422,0,0
266,-398,0,0,0,0,0,0,0,0,0,-1,1490,1422,0,0
273,-398,0,0,0,0,0,0,0,0,0,-1,1497,1422,0,0
280,-398,0,0,0,0,0,0,0,0,0,-1,1504,1422,0,0
287,-398,0,0,0,0,0,0,0,0,0,-1,1511,1422,0,0
294,-398,0,0,0,0,0,0,0,0,0,-1,1518,1422,0,0
301,-398,0,0,0,0,0,0,0,0,0,-1,1525,1422,0,0
308,-398,0,0,0,0,0,0,0,0,0,-1,1532,1422,0,0
315,-398,0,0,0,0,0,0,0,0,0,-1,1539,1422,0,0
322,-398,0,0,0,0,0,0,0,0,0,-1,1546,1422,0,0
329,-398,0,0,0,0,0,0,0,0,0,-1,1553,1422,0,0
336,-398,0,0,0,0,0,0,0,0,0,-1,1560,1422,0,0
343,-398,0,0,0,0,0,0,0,0,0,-1,1567,1422,0,0
350,-398,0,0,0,0,0,0,0,0,0,-1,1574,1422,0,0
357,-398,0,0,0,0,0,0,0,0,0,-1,1581,1422,0,0
364,-398,0,0,0,0,0,0,0,0,0,-1,1588,1422,0,0
371,-398,0,0,0,0,0,0,0,0,0,-1,1595,1422,0,0
378,-398,0,0,0,0,0,0,0,0,0,-1,1602,1422,0,0
385,-398,0,0,0,0,0,0,0,0,0,-1,1609,1422,0,0
392,-398,0,0,0,0,0,0,0,0,0,-1,1616,1422,0,0
399,-398,0,0,0,0,0,0,0,0,0,-1,1623,1422,0,0
406,-398,0,0,0,0,0,0,0,0,0,-1,1630,1422,0,0
413,-398,0,0,0,0,0,0,0,0,0,-1,1637,1422,0,0
420,-398,0,0,0,0,0,0,0,0,0,-1,1644,1422,0,0
427,-398,0,0,0,0,0,0,0,0,0,-1,1651,1422,0,0
434,-398,0,0,0,0,0,0,0,0,0,-1,1658,1422,0,0
441,-398,0,0,0,0,0,0,0,0,0,-1,1665,1422,0,0
448,-398,0,0,0,0,0,0,0,0,0,-1,1672,1422,0,0
455,-398,0,0,0,0,0,0,0,0,0,-1,1679,1422,0,0
462,-398,0,0,0,0,0,0,0,0,0,-1,1686,1422,0,0
469,-398,0,0,0,0,0,0,0,0,0,-1,1693,1422,0,0
476,-398,0,0,0,0,0,0,0,0,0,-1,1700,1422,0,0
483,-398,0,0,0,0,0,0,0,0,0,-1,1707,1422,0,0
490,-398,0,0,0,0,0,0,0,0,0,-1,1714,1422,0,0
497,-398,0,0,0,0,0,0,0,0,0,-1,1721,1422,0,0
504,-398,0,0,0,0,0,0,0,0,0,-1,1728,1422,0,0
511,-398,0,0,0,0,0,0,0,0,0,-1,1735,1422,0,0
518,-398,0,0,0,0,0,0,0,0,0,-1,1742,1422,0,0
525,-398,0,0,0,0,0,0,0,0,0,-1,1749,1422,0,0
532,-398,28.4558,3.84094,0,0,0,0,0,0,0,-1,1756,1422,28.4558,-3.8409
539,-398,27.0594,3.33887,0,0,0,0,0,0,0,-1,1763,1422,27.0595,-3.3389
546,-398,26.7062,3.30359,0,0,0,0,0,0,0,-1,1770,1422,26.7062,-3.30357
553,-398,26.7064,3.46057,0,0,0,0,0,0,0,-1,1777,1422,26.7065,-3.46055
560,-398,26.3011,3.81934,0,0,0,0,0,0,0,-1,1784,1422,26.3011,-3.8193
567,-398,26.1638,4.68823,0,0,0,0,0,0,0,-1,1791,1422,26.1638,-4.68827
574,-398,23.2596,4.76233,0,0,0,0,0,0,0,-1,1798,1422,23.2596,-4.76239
581,-398,24.282,5.854,0,0,0,0,0,0,0,-1,1805,1422,24.282,-5.85402
588,-398,22.8197,6.58459,0,0,0,0,0,0,0,-1,1812,1422,22.8197,-6.58459
595,-398,20.782,7.18933,0,0,0,0,0,0,0,-1,1819,1422,20.782,-7.18929
602,-398,18.9205,8.24561,0,0,0,0,0,0,0,-1,1826,1422,18.9205,-8.24562
609,-398,17.1841,10.264,0,0,0,0,0,0,0,-1,1833,1422,17.1841,-10.264
616,-398,17.1598,9.83569,-0.0120161,-0.00687891,0.00656991,-0.00239333,-0.0165017,0.971744,0.0102965,0.0308466,1840,1422,17.1598,-9.83571
623,-398,17.1152,9.52661,-0.0100794,-0.00528019,0.00483745,-0.00227989,-0.0130797,1.01564,0.00806795,0.0145399,1847,1422,17.1152,-9.5266
630,-398,17.0978,9.23462,-0.00608562,-0.00314975,0.00299785,-0.00127973,-0.00795565,1.01307,0.00493283,0.0117087,1854,1422,17.0978,-9.23465
637,-398,17.0804,8.94299,-0.0031602,-0.00176958,0.00156738,-0.000750203,-0.00417958,0.994164,0.00257303,0.0128611,1861,1422,17.0804,-8.94301
644,-398,17.0211,8.62585,-0.00127367,-0.00105034,0.000853927,-0.000300805,-0.0020232,0.850413,0.00126055,0.0182291,1868,1422,17.0211,-8.62582
651,-398,17.047,8.37268,0.000444605,-0.000286595,0.000171685,0.00048291,-0.0003249,0.219516,0.000469354,0.0266115,1875,1422,17.047,-8.37266
658,-398,17.0927,8.12463,0.000808246,-0.000154623,0.00024305,0.000866119,-0.000212496,0.233759,0.000659752,0.022807,1882,1422,17.0927,-8.12462
665,-398,17.1029,7.77991,0.000557583,-6.74985e-05,0.000548031,0.00087593,-0.000385845,0.526251,0.000746579,0.0159446,1889,1422,17.1029,-7.77987
672,-398,17.0831,7.46313,0.000210546,-4.2853e-05,0.000954003,0.00104623,-0.000878533,0.71938,0.00111266,0.0133669,1896,1422,17.0831,-7.46319
679,-398,17.0709,7.17102,-0.000145966,-0.000105432,0.00144287,0.00131731,-0.00156871,0.792421,0.00166835,0.0118072,1903,1422,17.0709,-7.17106
686,-398,17.095,6.86865,-0.000506391,-0.0002984,0.0020484,0.00164864,-0.00245343,0.810761,0.00238348,0.0214254,1910,1422,17.095,-6.86865
693,-398,17.098,6.62085,0,0,0,0,0,0,0,-1,1917,1422,17.0981,-6.62081
700,-398,14.0787,6.53918,0,0,0,0,0,0,0,-1,1924,1422,14.0787,-6.53921
707,-398,10.9731,5.479,0,0,0,0,0,0,0,-1,1931,1422,10.9732,-5.47896
714,-398,11.7313,6.17346,0,0,0,0,0,0,0,-1,1938,1422,11.7313,-6.17348
721,-398,13.9371,8.05103,0,0,0,0,0,0,0,-1,1945,1422,13.9372,-8.05102
728,-398,14.786,7.0282,0,0,0,0,0,0,0,-1,1952,1422,14.786,-7.0282
735,-398,0,0,0,0,0,0,0,0,0,-1,1959,1422,0,0
742,-398,0,0,0,0,0,0,0,0,0,-1,1966,1422,0,0
749,-398,0,0,0,0,0,0,0,0,0,-1,1973,1422,0,0
756,-398,0,0,0,0,0,0,0,0,0,-1,1980,1422,0,0
763,-398,0,0,0,0,0,0,0,0,0,-1,1987,1422,0,0
770,-398,0,0,0,0,0,0,0,0,0,-1,1994,1422,0,0
777,-398,0,0,0,0,0,0,0,0,0,-1,2001,1422,0,0
784,-398,0,0,0,0,0,0,0,0,0,-1,2008,1422,0,0
791,-398,0,0,0,0,0,0,0,0,0,-1,2015,1422,0,0
798,-398,0,0,0,0,0,0,0,0,0,-1,2022,1422,0,0
805,-398,0,0,0,0,0,0,0,0,0,-1,2029,1422,0,0
812,-398,0,0,0,0,0,0,0,0,0,-1,2036,1422,0,0
-700,-405,0,0,0,0,0,0,0,0,0,-1,524,1429,0,0
-693,-405,0,0,0,0,0,0,0,0,0,-1,531,1429,0,0
-686,-405,0,0,0,0,0,0,0,0,0,-1,538,1429,0,0
-679,-405,0,0,0,0,0,0,0,0,0,-1,545,1429,0,0
-672,-405,0,0,0,0,0,0,0,0,0,-1,552,1429,0,0
-665,-405,0,0,0,0,0,0,0,0,0,-1,559,1429,0,0
-658,-405,0,0,0,0,0,0,0,0,0,-1,566,1429,0,0
-651,-405,0,0,0,0,0,0,0,0,0,-1,573,1429,0,0
-644,-405,0,0,0,0,0,0,0,0,0,-1,580,1429,0,0
-637,-405,0,0,0,0,0,0,0,0,0,-1,587,1429,0,0
-630,-405,0,0,0,0,0,0,0,0,0,-1,594,1429,0,0
-623,-405,0,0,0,0,0,0,0,0,0,-1,601,1429,0,0
-616,-405,0,0,0,0,0,0,0,0,0,-1,608,1429,0,0
-609,-405,0,0,0,0,0,0,0,0,0,-1,615,1429,0,0
-602,-405,-5.80988,-3.46594,0,0,0,0,0,0,0,-1,622,1429,-5.80987,3.46592
-595,-405,-9.35413,2.01477,0,0,0,0,0,0,0,-1,629,1429,-9.35411,-2.01476
-588,-405,-7.35693,0.507202,0,0,0,0,0,0,0,-1,636,1429,-7.35696,-0.507187
-581,-405,-9.62579,4.36987,0,0,0,0,0,0,0,-1,643,1429,-9.62577,-4.36986
-574,-405,-8.04688,5.31116,0,0,0,0,0,0,0,-1,650,1429,-8.04688,-5.31112
-567,-405,-7.06879,5.56921,0,0,0,0,0,0,0,-1,657,1429,-7.06879,-5.5692
-560,-405,-6.85944,5.24927,0,0,0,0,0,0,0,-1,664,1429,-6.85942,-5.24926
-553,-405,-6.53296,4.92053,0,0,0,0,0,0,0,-1,671,1429,-6.53294,-4.92053
-546,-405,-6.45294,5.12988,0.00500256,-0.00184104,0.00162781,0.00537002,-0.0022085,0.222017,0.00450058,0.0302937,678,1429,-6.45295,-5.12994
-539,-405,-6.45026,5.46985,0.00306476,-0.000277491,0.00141566,0.00358378,-0.000796516,0.351413,0.00269423,0.011554,685,1429,-6.45026,-5.46991
-532,-405,-6.45923,5.81189,0.00203543,0.000653987,0.00132948,0.00284291,-0.000153498,0.545819,0.00194846,0.0157013,692,1429,-6.45922,-5.81189
-525,-405,-6.45721,6.16235,0.00166171,0.00106295,0.00131256,0.0027086,1.60579e-05,0.673272,0.0018004,0.0155193,699,1429,-6.4572,-6.16235
-518,-405,-6.4444,6.48999,0.00141103,0.000843451,0.00108157,0.00224542,9.06247e-06,0.657096,0.00149394,0.015267,706,1429,-6.44439,-6.48998
-511,-405,-6.47906,6.78894,0.00115154,0.000368652,0.000557789,0.00144153,7.8658e-05,0.47944,0.000935905,0.0152562,713,1429,-6.47904,-6.78895
-504,-405,-6.48602,7.14014,0.00091987,-0.000852716,-0.000313932,0.000973826,-0.000906672,-0.170209,0.00108594,0.0169373,720,1429,-6.48601,-7.14011
-497,-405,-6.46832,7.49084,0.0002151,-0.00299514,-0.00224221,0.0013675,-0.00414754,-0.474751,0.00331622,0.0141877,727,1429,-6.46831,-7.49083
-490,-405,-6.48901,7.81213,-0.000678644,-0.00512116,-0.00496404,0.00253846,-0.00833826,-0.575025,0.00657053,0.012381,734,1429,-6.48899,-7.81208
-483,-405,-6.44666,8.17371,-0.00249854,-0.00804782,-0.00858563,0.00374966,-0.014296,-0.629109,0.0109958,0.0133297,741,1429,-6.44665,-8.17375
-476,-405,-6.41162,8.46765,-0.00508706,-0.0117606,-0.0134767,0.0054598,-0.0223075,-0.664041,0.0169866,0.0332195,748,1429,-6.41162,-8.46767
-469,-405,-6.58167,8.59424,-0.00875835,-0.0165924,-0.0203335,0.00803195,-0.0333827,-0.690244,0.02536,0.0433395,755,1429,-6.58165,-8.59419
-462,-405,-6.98914,8.49011,-0.0140857,-0.0233632,-0.0299564,0.011589,-0.0490378,-0.708583,0.0371622,0.0467025,762,1429,-6.98913,-8.49008
-455,-405,-7.17743,8.52979,0,0,0,0,0,0,0,-1,769,1429,-7.17744,-8.52974
-448,-405,-8.4649,6.82813,0,0,0,0,0,0,0,-1,776,1429,-8.46492,-6.82817
-441,-405,-6.6712,4.23767,0,0,0,0,0,0,0,-1,783,1429,-6.67121,-4.23764
-434,-405,-9.62549,3.94189,0,0,0,0,0,0,0,-1,790,1429,-9.62546,-3.94191
-427,-405,-10.9764,3.73926,0,0,0,0,0,0,0,-1,797,1429,-10.9764,-3.73923
-420,-405,-12.1187,3.68506,0,0,0,0,0,0,0,-1,804,1429,-12.1187,-3.68512
-413,-405,-13.5353,3.75659,0,0,0,0,0,0,0,-1,811,1429,-13.5353,-3.75655
-406,-405,-14.7374,3.99817,0,0,0,0,0,0,0,-1,818,1429,-14.7374,-3.99814
-399,-405,0,0,0,0,0,0,0,0,0,-1,825,1429,0,0
-392,-405,0,0,0,0,0,0,0,0,0,-1,832,1429,0,0
-385,-405,0,0,0,0,0,0,0,0,0,-1,839,1429,0,0
-378,-405,0,0,0,0,0,0,0,0,0,-1,846,1429,0,0
-371,-405,0,0,0,0,0,0,0,0,0,-1,853,1429,0,0
-364,-405,0,0,0,0,0,0,0,0,0,-1,860,1429,0,0
-357,-405,0,0,0,0,0,0,0,0,0,-1,867,1429,0,0
-350,-405,0,0,0,0,0,0,0,0,0,-1,874,1429,0,0
-343,-405,0,0,0,0,0,0,0,0,0,-1,881,1429,0,0
-336,-405,0,0,0,0,0,0,0,0,0,-1,888,1429,0,0
-329,-405,0,0,0,0,0,0,0,0,0,-1,895,1429,0,0
-322,-405,0,0,0,0,0,0,0,0,0,-1,902,1429,0,0
-315,-405,0,0,0,0,0,0,0,0,0,-1,909,1429,0,0
-308,-405,0,0,0,0,0,0,0,0,0,-1,916,1429,0,0
-301,-405,0,0,0,0,0,0,0,0,0,-1,923,1429,0,0
-294,-405,0,0,0,0,0,0,0,0,0,-1,930,1429,0,0
-287,-405,0,0,0,0,0,0,0,0,0,-1,937,1429,0,0
-280,-405,0,0,0,0,0,0,0,0,0,-1,944,1429,0,0
-273,-405,0,0,0,0,0,0,0,0,0,-1,951,1429,0,0
-266,-405,0,0,0,0,0,0,0,0,0,-1,958,1429,0,0
-259,-405,0,0,0,0,0,0,0,0,0,-1,965,1429,0,0
-252,-405,0,0,0,0,0,0,0,0,0,-1,972,1429,0,0
-245,-405,0,0,0,0,0,0,0,0,0,-1,979,1429,0,0
-238,-405,0,0,0,0,0,0,0,0,0,-1,986,1429,0,0
-231,-405,0,0,0,0,0,0,0,0,0,-1,993,1429,0,0
-224,-405,0,0,0,0,0,0,0,0,0,-1,1000,1429,0,0
-217,-405,0,0,0,0,0,0,0,0,0,-1,1007,1429,0,0
-210,-405,0,0,0,0,0,0,0,0,0,-1,1014,1429,0,0
-203,-405,0,0,0,0,0,0,0,0,0,-1,1021,1429,0,0
-196,-405,0,0,0,0,0,0,0,0,0,-1,1028,1429,0,0
-189,-405,0,0,0,0,0,0,0,0,0,-1,1035,1429,0,0
-182,-405,0,0,0,0,0,0,0,0,0,-1,1042,1429,0,0
-175,-405,0,0,0,0,0,0,0,0,0,-1,1049,1429,0,0
-168,-405,0,0,0,0,0,0,0,0,0,-1,1056,1429,0,0
-161,-405,0,0,0,0,0,0,0,0,0,-1,1063,1429,0,0
-154,-405,0,0,0,0,0,0,0,0,0,-1,1070,1429,0,0
-147,-405,0,0,0,0,0,0,0,0,0,-1,1077,1429,0,0
-140,-405,0,0,0,0,0,0,0,0,0,-1,1084,1429,0,0
-133,-405,0,0,0,0,0,0,0,0,0,-1,1091,1429,0,0
-126,-405,0,0,0,0,0,0,0,0,0,-1,1098,1429,0,0
-119,-405,0,0,0,0,0,0,0,0,0,-1,1105,1429,0,0
-112,-405,0,0,0,0,0,0,0,0,0,-1,1112,1429,0,0
-105,-405,0,0,0,0,0,0,0,0,0,-1,1119,1429,0,0
-98,-405,0,0,0,0,0,0,0,0,0,-1,1126,1429,0,0
-91,-405,0,0,0,0,0,0,0,0,0,-1,1133,1429,0,0
-84,-405,0,0,0,0,0,0,0,0,0,-1,1140,1429,0,0
-77,-405,0,0,0,0,0,0,0,0,0,-1,1147,1429,0,0
-70,-405,0,0,0,0,0,0,0,0,0,-1,1154,1429,0,0
-63,-405,0,0,0,0,0,0,0,0,0,-1,1161,1429,0,0
-56,-405,0,0,0,0,0,0,0,0,0,-1,1168,1429,0,0
-49,-405,0,0,0,0,0,0,0,0,0,-1,1175,1429,0,0
-42,-405,0,0,0,0,0,0,0,0,0,-1,1182,1429,0,0
-35,-405,0,0,0,0,0,0,0,0,0,-1,1189,1429,0,0
-28,-405,0,0,0,0,0,0,0,0,0,-1,1196,1429,0,0
-21,-405,0,0,0,0,0,0,0,0,0,-1,1203,1429,0,0
-14,-405,0,0,0,0,0,0,0,0,0,-1,1210,1429,0,0
-7,-405,0,0,0,0,0,0,0,0,0,-1,1217,1429,0,0
0,-405,0,0,0,0,0,0,0,0,0,-1,1224,1429,0,0
7,-405,0,0,0,0,0,0,0,0,0,-1,1231,1429,0,0
14,-405,0,0,0,0,0,0,0,0,0,-1,1238,1429,0,0
21,-405,0,0,0,0,0,0,0,0,0,-1,1245,1429,0,0
28,-405,0,0,0,0,0,0,0,0,0,-1,1252,1429,0,0
35,-405,0,0,0,0,0,0,0,0,0,-1,1259,1429,0,0
42,-405,0,0,0,0,0,0,0,0,0,-1,1266,1429,0,0
49,-405,0,0,0,0,0,0,0,0,0,-1,1273,1429,0,0
56,-405,0,0,0,0,0,0,0,0,0,-1,1280,1429,0,0
63,-405,0,0,0,0,0,0,0,0,0,-1,1287,1429,0,0
70,-405,0,0,0,0,0,0,0,0,0,-1,1294,1429,0,0
77,-405,0,0,0,0,0,0,0,0,0,-1,1301,1429,0,0
84,-405,0,0,0,0,0,0,0,0,0,-1,1308,1429,0,0
91,-405,0,0,0,0,0,0,0,0,0,-1,1315,1429,0,0
98,-405,0,0,0,0,0,0,0,0,0,-1,1322,1429,0,0
105,-405,0,0,0,0,0,0,0,0,0,-1,1329,1429,0,0
112,-405,0,0,0,0,0,0,0,0,0,-1,1336,1429,0,0
119,-405,0,0,0,0,0,0,0,0,0,-1,1343,1429,0,0
126,-405,0,0,0,0,0,0,0,0,0,-1,1350,1429,0,0
133,-405,0,0,0,0,0,0,0,0,0,-1,1357,1429,0,0
140,-405,0,0,0,0,0,0,0,0,0,-1,1364,1429,0,0
147,-405,0,0,0,0,0,0,0,0,0,-1,1371,1429,0,0
154,-405,0,0,0,0,0,0,0,0,0,-1,1378,1429,0,0
161,-405,0,0,0,0,0,0,0,0,0,-1,1385,1429,0,0
168,-405,0,0,0,0,0,0,0,0,0,-1,1392,1429,0,0
175,-405,0,0,0,0,0,0,0,0,0,-1,1399,1429,0,0
182,-405,0,0,0,0,0,0,0,0,0,-1,1406,1429,0,0
189,-405,0,0,0,0,0,0,0,0,0,-1,1413,1429,0,0
196,-405,0,0,0,0,0,0,0,0,0,-1,1420,1429,0,0
203,-405,0,0,0,0,0,0,0,0,0,-1,1427,1429,0,0
210,-405,0,0,0,0,0,0,0,0,0,-1,1434,1429,0,0
217,-405,0,0,0,0,0,0,0,0,0,-1,1441,1429,0,0
224,-405,0,0,0,0,0,0,0,0,0,-1,1448,1429,0,0
231,-405,0,0,0,0,0,0,0,0,0,-1,1455,1429,0,0
238,-405,0,0,0,0,0,0,0,0,0,-1,1462,1429,0,0
245,-405,0,0,0,0,0,0,0,0,0,-1,1469,1429,0,0
252,-405,0,0,0,0,0,0,0,0,0,-1,1476,1429,0,0
259,-405,0,0,0,0,0,0,0,0,0,-1,1483,1429,0,0
266,-405,0,0,0,0,0,0,0,0,0,-1,1490,1429,0,0
273,-405,0,0,0,0,0,0,0,0,0,-1,1497,1429,0,0
280,-405,0,0,0,0,0,0,0,0,0,-1,1504,1429,0,0
287,-405,0,0,0,0,0,0,0,0,0,-1,1511,1429,0,0
294,-405,0,0,0,0,0,0,0,0,0,-1,1518,1429,0,0
301,-405,0,0,0,0,0,0,0,0,0,-1,1525,1429,0,0
308,-405,0,0,0,0,0,0,0,0,0,-1,1532,1429,0,0
315,-405,0,0,0,0,0,0,0,0,0,-1,1539,1429,0,0
322,-405,0,0,0,0,0,0,0,0,0,-1,1546,1429,0,0
329,-405,0,0,0,0,0,0,0,0,0,-1,1553,1429,0,0
336,-405,0,0,0,0,0,0,0,0,0,-1,1560,1429,0,0
343,-405,0,0,0,0,0,0,0,0,0,-1,1567,1429,0,0
350,-405,0,0,0,0,0,0,0,0,0,-1,1574,1429,0,0
357,-405,0,0,0,0,0,0,0,0,0,-1,1581,1429,0,0
364,-405,0,0,0,0,0,0,0,0,0,-1,1588,1429,0,0
371,-405,0,0,0,0,0,0,0,0,0,-1,1595,1429,0,0
378,-405,0,0,0,0,0,0,0,0,0,-1,1602,1429,0,0
385,-405,0,0,0,0,0,0,0,0,0,-1,1609,1429,0,0
392,-405,0,0,0,0,0,0,0,0,0,-1,1616,1429,0,0
399,-405,0,0,0,0,0,0,0,0,0,-1,1623,1429,0,0
406,-405,0,0,0,0,0,0,0,0,0,-1,1630,1429,0,0
413,-405,0,0,0,0,0,0,0,0,0,-1,1637,1429,0,0
420,-405,0,0,0,0,0,0,0,0,0,-1,1644,1429,0,0
427,-405,0,0,0,0,0,0,0,0,0,-1,1651,1429,0,0
434,-405,0,0,0,0,0,0,0,0,0,-1,1658,1429,0,0
441,-405,0,0,0,0,0,0,0,0,0,-1,1665,1429,0,0
448,-405,0,0,0,0,0,0,0,0,0,-1,1672,1429,0,0
455,-405,0,0,0,0,0,0,0,0,0,-1,1679,1429,0,0
462,-405,0,0,0,0,0,0,0,0,0,-1,1686,1429,0,0
469,-405,0,0,0,0,0,0,0,0,0,-1,1693,1429,0,0
476,-405,0,0,0,0,0,0,0,0,0,-1,1700,1429,0,0
483,-405,0,0,0,0,0,0,0,0,0,-1,1707,1429,0,0
490,-405,0,0,0,0,0,0,0,0,0,-1,1714,1429,0,0
497,-405,0,0,0,0,0,0,0,0,0,-1,1721,1429,0,0
504,-405,0,0,0,0,0,0,0,0,0,-1,1728,1429,0,0
511,-405,0,0,0,0,0,0,0,0,0,-1,1735,1429,0,0
518,-405,0,0,0,0,0,0,0,0,0,-1,1742,1429,0,0
525,-405,31.1563,-1.40942,0,0,0,0,0,0,0,-1,1749,1429,31.1563,1.40937
532,-405,28.156,4.8783,0,0,0,0,0,0,0,-1,1756,1429,28.1561,-4.87833
539,-405,26.5133,3.02454,0,0,0,0,0,0,0,-1,1763,1429,26.5133,-3.0246
546,-405,25.9543,2.81738,0,0,0,0,0,0,0,-1,1770,1429,25.9543,-2.81741
553,-405,26.5223,3.22119,0,0,0,0,0,0,0,-1,1777,1429,26.5223,-3.22122
560,-405,25.8997,4.08606,0,0,0,0,0,0,0,-1,1784,1429,25.8996,-4.08612
567,-405,23.1583,4.31091,0,0,0,0,0,0,0,-1,1791,1429,23.1583,-4.31092
574,-405,21.9927,5.33142,0,0,0,0,0,0,0,-1,1798,1429,21.9927,-5.33147
581,-405,22.7858,6.95618,0,0,0,0,0,0,0,-1,1805,1429,22.7858,-6.95619
588,-405,21.2274,7.8905,0,0,0,0,0,0,0,-1,1812,1429,21.2274,-7.8905
595,-405,19.6091,8.64746,0,0,0,0,0,0,0,-1,1819,1429,19.6092,-8.6474
602,-405,17.3528,10.3903,0,0,0,0,0,0,0,-1,1826,1429,17.3528,-10.3902
609,-405,16.854,10.1577,-0.0133734,-0.00702562,0.00837809,-0.00124039,-0.0191586,0.966462,0.0123797,0.0286473,1833,1429,16.8541,-10.1578
616,-405,16.8044,9.89063,-0.012488,-0.00604392,0.00638136,-0.00211731,-0.0164146,1.01918,0.01031,0.0121149,1840,1429,16.8045,-9.89063
623,-405,16.806,9.55908,-0.00967491,-0.00425837,0.00445325,-0.00175452,-0.0121788,1.0586,0.00760212,0.00993058,1847,1429,16.806,-9.55904
630,-405,16.8016,9.25037,-0.00590492,-0.00263094,0.00279849,-0.00102582,-0.00751004,1.05004,0.0047022,0.0105856,1854,1429,16.8016,-9.25039
637,-405,16.7733,8.95825,-0.00316364,-0.00155111,0.00158471,-0.000579353,-0.0041354,1.02072,0.00258554,0.0109862,1861,1429,16.7733,-8.95829
644,-405,16.7032,8.70227,-0.00129796,-0.000994454,0.000926704,-0.000207159,-0.00208525,0.866554,0.00132652,0.0268535,1868,1429,16.7033,-8.70222
651,-405,16.6964,8.42249,0.000328375,-0.000406872,0.000333875,0.00045736,-0.000535857,0.368663,0.000574031,0.0305956,1875,1429,16.6965,-8.42247
658,-405,16.7477,8.11414,0.00065846,-0.000345322,0.000444734,0.000827153,-0.000514015,0.362546,0.000781328,0.0242156,1882,1429,16.7477,-8.11408
665,-405,16.7832,7.77612,0.000411484,-0.000307429,0.000774393,0.00090578,-0.000801725,0.568107,0.000986438,0.0196075,1889,1429,16.7832,-7.77609
672,-405,16.7772,7.47168,1.70922e-05,-0.000327024,0.00123864,0.00109557,-0.0014055,0.716386,0.00144769,0.0225616,1896,1429,16.7773,-7.47172
679,-405,16.7957,7.16357,-0.000432156,-0.000424494,0.001814,0.00138568,-0.00224233,0.786454,0.00211401,0.0208202,1903,1429,16.7957,-7.16361
686,-405,16.7072,6.8512,-0.000959132,-0.000663496,0.00257608,0.001769,-0.00339163,0.814057,0.00302819,0.0390513,1910,1429,16.7071,-6.85122
693,-405,16.5596,6.68127,0,0,0,0,0,0,0,-1,1917,1429,16.5596,-6.68127
700,-405,9.1958,4.02026,0,0,0,0,0,0,0,-1,1924,1429,9.19579,-4.02025
707,-405,7.40308,3.83191,0,0,0,0,0,0,0,-1,1931,1429,7.40311,-3.83194
714,-405,7.33252,3.47388,0,0,0,0,0,0,0,-1,1938,1429,7.33255,-3.47383
721,-405,9.23523,0.993896,0,0,0,0,0,0,0,-1,1945,1429,9.23523,-0.993884
728,-405,0,0,0,0,0,0,0,0,0,-1,1952,1429,0,0
735,-405,0,0,0,0,0,0,0,0,0,-1,1959,1429,0,0
742,-405,0,0,0,0,0,0,0,0,0,-1,1966,1429,0,0
749,-405,0,0,0,0,0,0,0,0,0,-1,1973,1429,0,0
756,-405,0,0,0,0,0,0,0,0,0,-1,1980,1429,0,0
763,-405,0,0,0,0,0,0,0,0,0,-1,1987,1429,0,0
770,-405,0,0,0,0,0,0,0,0,0,-1,1994,1429,0,0
777,-405,0,0,0,0,0,0,0,0,0,-1,2001,1429,0,0
784,-405,0,0,0,0,0,0,0,0,0,-1,2008,1429,0,0
791,-405,0,0,0,0,0,0,0,0,0,-1,2015,1429,0,0
798,-405,0,0,0,0,0,0,0,0,0,-1,2022,1429,0,0
805,-405,0,0,0,0,0,0,0,0,0,-1,2029,1429,0,0
812,-405,0,0,0,0,0,0,0,0,0,-1,2036,1429,0,0
-700,-412,0,0,0,0,0,0,0,0,0,-1,524,1436,0,0
-693,-412,0,0,0,0,0,0,0,0,0,-1,531,1436,0,0
-686,-412,0,0,0,0,0,0,0,0,0,-1,538,1436,0,0
-679,-412,0,0,0,0,0,0,0,0,0,-1,545,1436,0,0
-672,-412,0,0,0,0,0,0,0,0,0,-1,552,1436,0,0
-665,-412,0,0,0,0,0,0,0,0,0,-1,559,1436,0,0
-658,-412,0,0,0,0,0,0,0,0,0,-1,566,1436,0,0
-651,-412,0,0,0,0,0,0,0,0,0,-1,573,1436,0,0
-644,-412,0,0,0,0,0,0,0,0,0,-1,580,1436,0,0
-637,-412,0,0,0,0,0,0,0,0,0,-1,587,1436,0,0
-630,-412,0,0,0,0,0,0,0,0,0,-1,594,1436,0,0
-623,-412,0,0,0,0,0,0,0,0,0,-1,601,1436,0,0
-616,-412,0,0,0,0,0,0,0,0,0,-1,608,1436,0,0
-609,-412,0,0,0,0,0,0,0,0,0,-1,615,1436,0,0
-602,-412,-3.72766,-3.50012,0,0,0,0,0,0,0,-1,622,1436,-3.72764,3.50017
-595,-412,-10.3706,0.65564,0,0,0,0,0,0,0,-1,629,1436,-10.3706,-0.655672
-588,-412,-8.17957,1.94934,0,0,0,0,0,0,0,-1,636,1436,-8.17956,-1.94939
-581,-412,-6.60065,-0.0554199,0,0,0,0,0,0,0,-1,643,1436,-6.60063,0.0554733
-574,-412,-8.34131,5.25012,0,0,0,0,0,0,0,-1,650,1436,-8.34129,-5.25012
-567,-412,-7.50354,3.65454,0,0,0,0,0,0,0,-1,657,1436,-7.50356,-3.65452
-560,-412,-5.93738,4.18628,0,0,0,0,0,0,0,-1,664,1436,-5.93738,-4.18629
-553,-412,-5.73102,5.1543,0,0,0,0,0,0,0,-1,671,1436,-5.73101,-5.15424
-546,-412,-5.88416,5.27026,0.00632815,0.00113425,0.00398925,0.00849127,-0.00102887,0.496864,0.00603312,0.0444339,678,1436,-5.88415,-5.27023
-539,-412,-6.10254,5.42786,0.00381509,0.00235375,0.00333677,0.00650026,-0.000331417,0.677611,0.00444809,0.0193725,685,1436,-6.10255,-5.4278
-532,-412,-6.11676,5.81335,0.00235192,0.00285445,0.00281587,0.00543024,-0.000223873,0.829896,0.00369705,0.0131953,692,1436,-6.11674,-5.81338
-525,-412,-6.12347,6.16333,0.00167309,0.00282646,0.00240658,0.00472448,-0.000224941,0.902995,0.00322725,0.0151409,699,1436,-6.12347,-6.16328
-518,-412,-6.11444,6.49475,0.00117672,0.00224777,0.00184648,0.00363481,-0.000210325,0.926539,0.00249627,0.0165859,706,1436,-6.11442,-6.4947
-511,-412,-6.13666,6.8064,0.000763118,0.00155722,0.0011109,0.0023399,-1.9557e-05,0.957031,0.00156649,0.019256,713,1436,-6.13667,-6.80643
-504,-412,-6.15033,7.16748,0.00041574,0.00015868,6.58365e-05,0.000431621,0.000142799,0.23669,0.000253905,0.0184564,720,1436,-6.15035,-7.16744
-497,-412,-6.14587,7.51123,-0.000285525,-0.00202802,-0.00190474,0.000937772,-0.00325131,-0.570899,0.00253854,0.0141422,727,1436,-6.14585,-7.51124
-490,-412,-6.15503,7.82581,-0.00102942,-0.00407624,-0.0045261,0.00222277,-0.00732843,-0.623062,0.00577104,0.0132231,734,1436,-6.15505,-7.82581
-483,-412,-6.15173,8.14941,-0.0024635,-0.00683552,-0.00790045,0.00354779,-0.0128468,-0.650428,0.00996004,0.00918805,741,1436,-6.15175,-8.14939
-476,-412,-6.06152,8.5791,-0.00452772,-0.0103349,-0.0124231,0.00532656,-0.0201892,-0.670596,0.0155423,0.0176989,748,1436,-6.0615,-8.57913
-469,-412,-6.11658,8.84192,-0.00734728,-0.0145265,-0.0184615,0.00787039,-0.0297442,-0.689378,0.0229081,0.0305797,755,1436,-6.11659,-8.84193
-462,-412,-6.30701,8.9613,-0.0113389,-0.0201769,-0.0267725,0.0113768,-0.0428927,-0.703607,0.0330467,0.0414696,762,1436,-6.30702,-8.96128
-455,-412,-6.46588,9.16443,0,0,0,0,0,0,0,-1,769,1436,-6.4659,-9.16439
-448,-412,-7.04028,8.39465,0,0,0,0,0,0,0,-1,776,1436,-7.04027,-8.3947
-441,-412,-8.2616,8.87683,0,0,0,0,0,0,0,-1,783,1436,-8.26158,-8.87682
-434,-412,-10.6305,8.03577,0,0,0,0,0,0,0,-1,790,1436,-10.6305,-8.0358
-427,-412,-10.0004,5.15271,0,0,0,0,0,0,0,-1,797,1436,-10.0004,-5.15266
-420,-412,-10.4468,4.9043,0,0,0,0,0,0,0,-1,804,1436,-10.4468,-4.90429
-413,-412,-11.5704,4.97766,0,0,0,0,0,0,0,-1,811,1436,-11.5704,-4.97771
-406,-412,-13.1968,5.70093,0,0,0,0,0,0,0,-1,818,1436,-13.1968,-5.70096
-399,-412,-10.5506,0.771973,0,0,0,0,0,0,0,-1,825,1436,-10.5506,-0.771954
-392,-412,0,0,0,0,0,0,0,0,0,-1,832,1436,0,0
-385,-412,0,0,0,0,0,0,0,0,0,-1,839,1436,0,0
-378,-412,0,0,0,0,0,0,0,0,0,-1,846,1436,0,0
-371,-412,0,0,0,0,0,0,0,0,0,-1,853,1436,0,0
-364,-412,0,0,0,0,0,0,0,0,0,-1,860,1436,0,0
-357,-412,0,0,0,0,0,0,0,0,0,-1,867,1436,0,0
-350,-412,0,0,0,0,0,0,0,0,0,-1,874,1436,0,0
-343,-412,0,0,0,0,0,0,0,0,0,-1,881,1436,0,0
-336,-412,0,0,0,0,0,0,0,0,0,-1,888,1436,0,0
-329,-412,0,0,0,0,0,0,0,0,0,-1,895,1436,0,0
-322,-412,0,0,0,0,0,0,0,0,0,-1,902,1436,0,0
-315,-412,0,0,0,0,0,0,0,0,0,-1,909,1436,0,0
-308,-412,0,0,0,0,0,0,0,0,0,-1,916,1436,0,0
-301,-412,0,0,0,0,0,0,0,0,0,-1,923,1436,0,0
-294,-412,0,0,0,0,0,0,0,0,0,-1,930,1436,0,0
-287,-412,0,0,0,0,0,0,0,0,0,-1,937,1436,0,0
-280,-412,0,0,0,0,0,0,0,0,0,-1,944,1436,0,0
-273,-412,0,0,0,0,0,0,0,0,0,-1,951,1436,0,0
-266,-412,0,0,0,0,0,0,0,0,0,-1,958,1436,0,0
-259,-412,0,0,0,0,0,0,0,0,0,-1,965,1436,0,0
-252,-412,0,0,0,0,0,0,0,0,0,-1,972,1436,0,0
-245,-412,0,0,0,0,0,0,0,0,0,-1,979,1436,0,0
-238,-412,0,0,0,0,0,0,0,0,0,-1,986,1436,0,0
-231,-412,0,0,0,0,0,0,0,0,0,-1,993,1436,0,0
-224,-412,0,0,0,0,0,0,0,0,0,-1,1000,1436,0,0
-217,-412,0,0,0,0,0,0,0,0,0,-1,1007,1436,0,0
-210,-412,0,0,0,0,0,0,0,0,0,-1,1014,1436,0,0
-203,-412,0,0,0,0,0,0,0,0,0,-1,1021,1436,0,0
-196,-412,0,0,0,0,0,0,0,0,0,-1,1028,1436,0,0
-189,-412,0,0,0,0,0,0,0,0,0,-1,1035,1436,0,0
-182,-412,0,0,0,0,0,0,0,0,0,-1,1042,1436,0,0
-175,-412,0,0,0,0,0,0,0,0,0,-1,1049,1436,0,0
-168,-412,0,0,0,0,0,0,0,0,0,-1,1056,1436,0,0
-161,-412,0,0,0,0,0,0,0,0,0,-1,1063,1436,0,0
-154,-412,0,0,0,0,0,0,0,0,0,-1,1070,1436,0,0
-147,-412,0,0,0,0,0,0,0,0,0,-1,1077,1436,0,0
-140,-412,0,0,0,0,0,0,0,0,0,-1,1084,1436,0,0
-133,-412,0,0,0,0,0,0,0,0,0,-1,1091,1436,0,0
-126,-412,0,0,0,0,0,0,0,0,0,-1,1098,1436,0,0
-119,-412,0,0,0,0,0,0,0,0,0,-1,1105,1436,0,0
-112,-412,0,0,0,0,0,0,0,0,0,-1,1112,1436,0,0
-105,-412,0,0,0,0,0,0,0,0,0,-1,1119,1436,0,0
-98,-412,0,0,0,0,0,0,0,0,0,-1,1126,1436,0,0
-91,-412,0,0,0,0,0,0,0,0,0,-1,1133,1436,0,0
-84,-412,0,0,0,0,0,0,0,0,0,-1,1140,1436,0,0
-77,-412,0,0,0,0,0,0,0,0,0,-1,1147,1436,0,0
-70,-412,0,0,0,0,0,0,0,0,0,-1,1154,1436,0,0
-63,-412,0,0,0,0,0,0,0,0,0,-1,1161,1436,0,0
-56,-412,0,0,0,0,0,0,0,0,0,-1,1168,1436,0,0
-49,-412,0,0,0,0,0,0,0,0,0,-1,1175,1436,0,0
-42,-412,0,0,0,0,0,0,0,0,0,-1,1182,1436,0,0
-35,-412,0,0,0,0,0,0,0,0,0,-1,1189,1436,0,0
-28,-412,0,0,0,0,0,0,0,0,0,-1,1196,1436,0,0
-21,-412,0,0,0,0,0,0,0,0,0,-1,1203,1436,0,0
-14,-412,0,0,0,0,0,0,0,0,0,-1,1210,1436,0,0
-7,-412,0,0,0,0,0,0,0,0,0,-1,1217,1436,0,0
0,-412,0,0,0,0,0,0,0,0,0,-1,1224,1436,0,0
7,-412,0,0,0,0,0,0,0,0,0,-1,1231,1436,0,0
14,-412,0,0,0,0,0,0,0,0,0,-1,1238,1436,0,0
21,-412,0,0,0,0,0,0,0,0,0,-1,1245,1436,0,0
28,-412,0,0,0,0,0,0,0,0,0,-1,1252,1436,0,0
35,-412,0,0,0,0,0,0,0,0,0,-1,1259,1436,0,0
42,-412,0,0,0,0,0,0,0,0,0,-1,1266,1436,0,0
49,-412,0,0,0,0,0,0,0,0,0,-1,1273,1436,0,0
56,-412,0,0,0,0,0,0,0,0,0,-1,1280,1436,0,0
63,-412,0,0,0,0,0,0,0,0,0,-1,1287,1436,0,0
70,-412,0,0,0,0,0,0,0,0,0,-1,1294,1436,0,0
77,-412,0,0,0,0,0,0,0,0,0,-1,1301,1436,0,0
84,-412,0,0,0,0,0,0,0,0,0,-1,1308,1436,0,0
91,-412,0,0,0,0,0,0,0,0,0,-1,1315,1436,0,0
98,-412,0,0,0,0,0,0,0,0,0,-1,1322,1436,0,0
105,-412,0,0,0,0,0,0,0,0,0,-1,1329,1436,0,0
112,-412,0,0,0,0,0,0,0,0,0,-1,1336,1436,0,0
119,-412,0,0,0,0,0,0,0,0,0,-1,1343,1436,0,0
126,-412,0,0,0,0,0,0,0,0,0,-1,1350,1436,0,0
133,-412,0,0,0,0,0,0,0,0,0,-1,1357,1436,0,0
140,-412,0,0,0,0,0,0,0,0,0,-1,1364,1436,0,0
147,-412,0,0,0,0,0,0,0,0,0,-1,1371,1436,0,0
154,-412,0,0,0,0,0,0,0,0,0,-1,1378,1436,0,0
161,-412,0,0,0,0,0,0,0,0,0,-1,1385,1436,0,0
168,-412,0,0,0,0,0,0,0,0,0,-1,1392,1436,0,0
175,-412,0,0,0,0,0,0,0,0,0,-1,1399,1436,0,0
182,-412,0,0,0,0,0,0,0,0,0,-1,1406,1436,0,0
189,-412,0,0,0,0,0,0,0,0,0,-1,1413,1436,0,0
196,-412,0,0,0,0,0,0,0,0,0,-1,1420,1436,0,0
203,-412,0,0,0,0,0,0,0,0,0,-1,1427,1436,0,0
210,-412,0,0,0,0,0,0,0,0,0,-1,1434,1436,0,0
217,-412,0,0,0,0,0,0,0,0,0,-1,1441,1436,0,0
224,-412,0,0,0,0,0,0,0,0,0,-1,1448,1436,0,0
231,-412,0,0,0,0,0,0,0,0,0,-1,1455,1436,0,0
238,-412,0,0,0,0,0,0,0,0,0,-1,1462,1436,0,0
245,-412,0,0,0,0,0,0,0,0,0,-1,1469,1436,0,0
252,-412,0,0,0,0,0,0,0,0,0,-1,1476,1436,0,0
259,-412,0,0,0,0,0,0,0,0,0,-1,1483,1436,0,0
266,-412,0,0,0,0,0,0,0,0,0,-1,1490,1436,0,0
273,-412,0,0,0,0,0,0,0,0,0,-1,1497,1436,0,0
280,-412,0,0,0,0,0,0,0,0,0,-1,1504,1436,0,0
287,-412,0,0,0,0,0,0,0,0,0,-1,1511,1436,0,0
294,-412,0,0,0,0,0,0,0,0,0,-1,1518,1436,0,0
301,-412,0,0,0,0,0,0,0,0,0,-1,1525,1436,0,0
308,-412,0,0,0,0,0,0,0,0,0,-1,1532,1436,0,0
315,-412,0,0,0,0,0,0,0,0,0,-1,1539,1436,0,0
322,-412,0,0,0,0,0,0,0,0,0,-1,1546,1436,0,0
329,-412,0,0,0,0,0,0,0,0,0,-1,1553,1436,0,0
336,-412,0,0,0,0,0,0,0,0,0,-1,1560,1436,0,0
343,-412,0,0,0,0,0,0,0,0,0,-1,1567,1436,0,0
350,-412,0,0,0,0,0,0,0,0,0,-1,1574,1436,0,0
357,-412,0,0,0,0,0,0,0,0,0,-1,1581,1436,0,0
364,-412,0,0,0,0,0,0,0,0,0,-1,1588,1436,0,0
371,-412,0,0,0,0,0,0,0,0,0,-1,1595,1436,0,0
378,-412,0,0,0,0,0,0,0,0,0,-1,1602,1436,0,0
385,-412,0,0,0,0,0,0,0,0,0,-1,1609,1436,0,0
392,-412,0,0,0,0,0,0,0,0,0,-1,1616,1436,0,0
399,-412,0,0,0,0,0,0,0,0,0,-1,1623,1436,0,0
406,-412,0,0,0,0,0,0,0,0,0,-1,1630,1436,0,0
413,-412,0,0,0,0,0,0,0,0,0,-1,1637,1436,0,0
420,-412,0,0,0,0,0,0,0,0,0,-1,1644,1436,0,0
427,-412,0,0,0,0,0,0,0,0,0,-1,1651,1436,0,0
434,-412,0,0,0,0,0,0,0,0,0,-1,1658,1436,0,0
441,-412,0,0,0,0,0,0,0,0,0,-1,1665,1436,0,0
448,-412,0,0,0,0,0,0,0,0,0,-1,1672,1436,0,0
455,-412,0,0,0,0,0,0,0,0,0,-1,1679,1436,0,0
462,-412,0,0,0,0,0,0,0,0,0,-1,1686,1436,0,0
469,-412,0,0,0,0,0,0,0,0,0,-1,1693,1436,0,0
476,-412,0,0,0,0,0,0,0,0,0,-1,1700,1436,0,0
483,-412,0,0,0,0,0,0,0,0,0,-1,1707,1436,0,0
490,-412,0,0,0,0,0,0,0,0,0,-1,1714,1436,0,0
497,-412,0,0,0,0,0,0,0,0,0,-1,1721,1436,0,0
504,-412,0,0,0,0,0,0,0,0,0,-1,1728,1436,0,0
511,-412,0,0,0,0,0,0,0,0,0,-1,1735,1436,0,0
518,-412,30.1038,-2.43384,0,0,0,0,0,0,0,-1,1742,1436,30.1038,2.43383
525,-412,29.5283,-1.42493,0,0,0,0,0,0,0,-1,1749,1436,29.5283,1.42495
532,-412,28.8533,-0.386597,0,0,0,0,0,0,0,-1,1756,1436,28.8533,0.386632
539,-412,25.8654,2.74683,0,0,0,0,0,0,0,-1,1763,1436,25.8654,-2.74685
546,-412,25.4265,2.4342,0,0,0,0,0,0,0,-1,1770,1436,25.4265,-2.4342
553,-412,26.1508,3.28455,0,0,0,0,0,0,0,-1,1777,1436,26.1507,-3.28452
560,-412,23.3356,4.03918,0,0,0,0,0,0,0,-1,1784,1436,23.3356,-4.03924
567,-412,22.1183,5.15259,0,0,0,0,0,0,0,-1,1791,1436,22.1182,-5.15259
574,-412,20.8632,5.87646,0,0,0,0,0,0,0,-1,1798,1436,20.8632,-5.87643
581,-412,19.4615,7.02441,0,0,0,0,0,0,0,-1,1805,1436,19.4616,-7.02438
588,-412,19.5596,9.82031,0,0,0,0,0,0,0,-1,1812,1436,19.5596,-9.82037
595,-412,18.2902,10.0548,-0.0195462,-0.00993968,0.0137697,-0.0001595,-0.0293264,0.953213,0.019498,0.0477125,1819,1436,18.2901,-10.0548
602,-412,16.8501,10.4541,-0.0179177,-0.00810679,0.0109148,-0.00104575,-0.0249788,0.996589,0.0163151,0.0302352,1826,1436,16.8501,-10.4542
609,-412,16.5414,10.1779,-0.0149998,-0.00612824,0.00821745,-0.00122577,-0.0199022,1.03289,0.012879,0.0101433,1833,1436,16.5414,-10.1779
616,-412,16.5085,9.87146,-0.0124757,-0.00489166,0.00599756,-0.00158791,-0.0157795,1.0673,0.0100323,0.00821265,1840,1436,16.5086,-9.87141
623,-412,16.4971,9.56653,-0.00899959,-0.00338513,0.00400905,-0.00129818,-0.0110865,1.09084,0.00699856,0.00926196,1847,1436,16.497,-9.56648
630,-412,16.4993,9.25159,-0.00540155,-0.00222552,0.00256093,-0.000800204,-0.00682687,1.06293,0.00430935,0.0114564,1854,1436,16.4992,-9.25156
637,-412,16.4906,8.96985,-0.00278826,-0.00140811,0.00155185,-0.000399821,-0.00379654,0.994609,0.00240884,0.0129606,1861,1436,16.4906,-8.96985
644,-412,16.4874,8.67505,-0.00086315,-0.00102332,0.000973147,3.31994e-05,-0.00191967,0.744342,0.00129099,0.0133222,1868,1436,16.4874,-8.67508
651,-412,16.4775,8.35486,0.000737543,-0.00065946,0.000518629,0.00090903,-0.000830947,0.319338,0.00100491,0.0247668,1875,1436,16.4776,-8.35484
658,-412,16.4862,8.04504,0.00115675,-0.000695872,0.000680072,0.00137959,-0.000918713,0.316647,0.00133579,0.0170058,1882,1436,16.4863,-8.0451
665,-412,16.4603,7.76282,0.00107795,-0.000746953,0.0010386,0.00154798,-0.00121699,0.424984,0.00160016,0.021814,1889,1436,16.4603,-7.76284
672,-412,16.4991,7.47192,0.000805228,-0.00085498,0.00155884,0.00174121,-0.00179096,0.540738,0.00203936,0.0260197,1896,1436,16.4991,-7.47187
679,-412,16.5441,7.16675,0.00039787,-0.00103858,0.0022208,0.0020137,-0.0026544,0.629003,0.00270358,0.0352988,1903,1436,16.5441,-7.16678
686,-412,16.467,6.78577,0,0,0,0,0,0,0,-1,1910,1436,16.467,-6.78574
693,-412,11.9346,6.02344,0,0,0,0,0,0,0,-1,1917,1436,11.9346,-6.02343
700,-412,8.82764,5.8844,0,0,0,0,0,0,0,-1,1924,1436,8.82761,-5.88444
707,-412,6.59998,1.68994,0,0,0,0,0,0,0,-1,1931,1436,6.60002,-1.68995
714,-412,4.77283,-2.39832,0,0,0,0,0,0,0,-1,1938,1436,4.77288,2.39835
721,-412,0,0,0,0,0,0,0,0,0,-1,1945,1436,0,0
728,-412,0,0,0,0,0,0,0,0,0,-1,1952,1436,0,0
735,-412,0,0,0,0,0,0,0,0,0,-1,1959,1436,0,0
742,-412,0,0,0,0,0,0,0,0,0,-1,1966,1436,0,0
749,-412,0,0,0,0,0,0,0,0,0,-1,1973,1436,0,0
756,-412,0,0,0,0,0,0,0,0,0,-1,1980,1436,0,0
763,-412,0,0,0,0,0,0,0,0,0,-1,1987,1436,0,0
770,-412,0,0,0,0,0,0,0,0,0,-1,1994,1436,0,0
777,-412,0,0,0,0,0,0,0,0,0,-1,2001,1436,0,0
784,-412,0,0,0,0,0,0,0,0,0,-1,2008,1436,0,0
791,-412,0,0,0,0,0,0,0,0,0,-1,2015,1436,0,0
798,-412,0,0,0,0,0,0,0,0,0,-1,2022,1436,0,0
805,-412,0,0,0,0,0,0,0,0,0,-1,2029,1436,0,0
812,-412,0,0,0,0,0,0,0,0,0,-1,2036,1436,0,0
-700,-419,0,0,0,0,0,0,0,0,0,-1,524,1443,0,0
-693,-419,0,0,0,0,0,0,0,0,0,-1,531,1443,0,0
-686,-419,0,0,0,0,0,0,0,0,0,-1,538,1443,0,0
-679,-419,0,0,0,0,0,0,0,0,0,-1,545,1443,0,0
-672,-419,0,0,0,0,0,0,0,0,0,-1,552,1443,0,0
-665,-419,0,0,0,0,0,0,0,0,0,-1,559,1443,0,0
-658,-419,0,0,0,0,0,0,0,0,0,-1,566,1443,0,0
-651,-419,0,0,0,0,0,0,0,0,0,-1,573,1443,0,0
-644,-419,0,0,0,0,0,0,0,0,0,-1,580,1443,0,0
-637,-419,0,0,0,0,0,0,0,0,0,-1,587,1443,0,0
-630,-419,0,0,0,0,0,0,0,0,0,-1,594,1443,0,0
-623,-419,0,0,0,0,0,0,0,0,0,-1,601,1443,0,0
-616,-419,0,0,0,0,0,0,0,0,0,-1,608,1443,0,0
-609,-419,0,0,0,0,0,0,0,0,0,-1,615,1443,0,0
-602,-419,0,0,0,0,0,0,0,0,0,-1,622,1443,0,0
-595,-419,-11.4904,-0.622681,0,0,0,0,0,0,0,-1,629,1443,-11.4903,0.622714
-588,-419,-9.09369,0.742432,0,0,0,0,0,0,0,-1,636,1443,-9.09366,-0.742482
-581,-419,-6.39172,2.14673,0,0,0,0,0,0,0,-1,643,1443,-6.39175,-2.14668
-574,-419,-4.09772,3.54773,0,0,0,0,0,0,0,-1,650,1443,-4.09772,-3.54767
-567,-419,-6.14038,3.22498,0,0,0,0,0,0,0,-1,657,1443,-6.14037,-3.22497
-560,-419,-4.47314,5.34546,0,0,0,0,0,0,0,-1,664,1443,-4.47314,-5.34548
-553,-419,-4.77576,5.81921,0,0,0,0,0,0,0,-1,671,1443,-4.77577,-5.81927
-546,-419,-5.48901,5.09167,0,0,0,0,0,0,0,-1,678,1443,-5.48904,-5.09173
-539,-419,-5.58936,5.46777,0.00825065,0.00680382,0.00724875,0.014812,0.000242479,0.735663,0.00979483,0.0400866,685,1443,-5.58934,-5.46779
-532,-419,-5.78784,5.81152,0.00570391,0.00647425,0.00592579,0.0120274,0.000150781,0.817852,0.00796847,0.0176648,692,1443,-5.78785,-5.81158
-525,-419,-5.77008,6.17969,0.00410159,0.00568648,0.00479699,0.00975604,3.20291e-05,0.867257,0.00649338,0.0129193,699,1443,-5.77011,-6.17963
-518,-419,-5.76898,6.50684,0.00283211,0.0045042,0.00364428,0.0074071,-7.07952e-05,0.898153,0.00496184,0.0172791,706,1443,-5.76899,-6.50682
-511,-419,-5.78918,6.83997,0.00180944,0.00334687,0.00245477,0.00515048,5.83706e-06,0.937137,0.00343171,0.0196614,713,1443,-5.78919,-6.83998
-504,-419,-5.81525,7.17419,0.000953897,0.0016075,0.0010521,0.00238238,0.000179015,0.935984,0.00153207,0.0186791,720,1443,-5.81522,-7.17421
-497,-419,-5.81732,7.50916,-4.76064e-05,-0.00071706,-0.00107884,0.000747241,-0.00151191,-0.634974,0.00132899,0.0133162,727,1443,-5.81732,-7.50913
-490,-419,-5.82446,7.82178,-0.000887896,-0.00277842,-0.00368796,0.00197401,-0.00564033,-0.659943,0.00456285,0.0116235,734,1443,-5.82448,-7.82175
-483,-419,-5.81824,8.15271,-0.00214475,-0.00543607,-0.00687035,0.00327428,-0.0108551,-0.667848,0.00854002,0.0096092,741,1443,-5.81824,-8.15266
-476,-419,-5.80627,8.49902,-0.00377603,-0.00876076,-0.0110314,0.00504102,-0.0175778,-0.674296,0.0137113,0.00992159,748,1443,-5.8063,-8.49897
-469,-419,-5.76337,8.89063,-0.00569786,-0.0124046,-0.0161952,0.0074875,-0.02559,-0.683311,0.0200279,0.0157108,755,1443,-5.76335,-8.89067
-462,-419,-5.73413,9.15698,-0.00852441,-0.0171873,-0.0231809,0.0107263,-0.0364379,-0.693037,0.0285472,0.0335526,762,1443,-5.73414,-9.15703
-455,-419,-6.10046,8.98853,-0.0122018,-0.0234355,-0.0324294,0.0150935,-0.0507309,-0.699648,0.0398171,0.0474444,769,1443,-6.10045,-8.9885
-448,-419,-6.60321,8.53076,-0.0167214,-0.0314428,-0.044208,0.0207345,-0.0688986,-0.702904,0.0541829,0.0491758,776,1443,-6.60324,-8.53078
-441,-419,-7.16888,8.03345,0,0,0,0,0,0,0,-1,783,1443,-7.16889,-8.03342
-434,-419,-7.78229,8.85327,0,0,0,0,0,0,0,-1,790,1443,-7.78229,-8.85325
-427,-419,-8.23193,7.89404,0,0,0,0,0,0,0,-1,797,1443,-8.23193,-7.89404
-420,-419,-8.74091,6.36597,0,0,0,0,0,0,0,-1,804,1443,-8.74089,-6.366
-413,-419,-9.88391,6.53955,0,0,0,0,0,0,0,-1,811,1443,-9.8839,-6.53955
-406,-419,-10.3372,2.75195,0,0,0,0,0,0,0,-1,818,1443,-10.3372,-2.75201
-399,-419,-11.5999,1.40002,0,0,0,0,0,0,0,-1,825,1443,-11.5999,-1.39998
-392,-419,0,0,0,0,0,0,0,0,0,-1,832,1443,0,0
-385,-419,0,0,0,0,0,0,0,0,0,-1,839,1443,0,0
-378,-419,0,0,0,0,0,0,0,0,0,-1,846,1443,0,0
-371,-419,0,0,0,0,0,0,0,0,0,-1,853,1443,0,0
-364,-419,0,0,0,0,0,0,0,0,0,-1,860,1443,0,0
-357,-419,0,0,0,0,0,0,0,0,0,-1,867,1443,0,0
-350,-419,0,0,0,0,0,0,0,0,0,-1,874,1443,0,0
-343,-419,0,0,0,0,0,0,0,0,0,-1,881,1443,0,0
-336,-419,0,0,0,0,0,0,0,0,0,-1,888,1443,0,0
-329,-419,0,0,0,0,0,0,0,0,0,-1,895,1443,0,0
-322,-419,0,0,0,0,0,0,0,0,0,-1,902,1443,0,0
-315,-419,0,0,0,0,0,0,0,0,0,-1,909,1443,0,0
-308,-419,0,0,0,0,0,0,0,0,0,-1,916,1443,0,0
-301,-419,0,0,0,0,0,0,0,0,0,-1,923,1443,0,0
-294,-419,0,0,0,0,0,0,0,0,0,-1,930,1443,0,0
-287,-419,0,0,0,0,0,0,0,0,0,-1,937,1443,0,0
-280,-419,0,0,0,0,0,0,0,0,0,-1,944,1443,0,0
-273,-419,0,0,0,0,0,0,0,0,0,-1,951,1443,0,0
-266,-419,0,0,0,0,0,0,0,0,0,-1,958,1443,0,0
-259,-419,0,0,0,0,0,0,0,0,0,-1,965,1443,0,0
-252,-419,0,0,0,0,0,0,0,0,0,-1,972,1443,0,0
-245,-419,0,0,0,0,0,0,0,0,0,-1,979,1443,0,0
-238,-419,0,0,0,0,0,0,0,0,0,-1,986,1443,0,0
-231,-419,0,0,0,0,0,0,0,0,0,-1,993,1443,0,0
-224,-419,0,0,0,0,0,0,0,0,0,-1,1000,1443,0,0
-217,-419,0,0,0,0,0,0,0,0,0,-1,1007,1443,0,0
-210,-419,0,0,0,0,0,0,0,0,0,-1,1014,1443,0,0
-203,-419,0,0,0,0,0,0,0,0,0,-1,1021,1443,0,0
-196,-419,0,0,0,0,0,0,0,0,0,-1,1028,1443,0,0
-189,-419,0,0,0,0,0,0,0,0,0,-1,1035,1443,0,0
-182,-419,0,0,0,0,0,0,0,0,0,-1,1042,1443,0,0
-175,-419,0,0,0,0,0,0,0,0,0,-1,1049,1443,0,0
-168,-419,0,0,0,0,0,0,0,0,0,-1,1056,1443,0,0
-161,-419,0,0,0,0,0,0,0,0,0,-1,1063,1443,0,0
-154,-419,0,0,0,0,0,0,0,0,0,-1,1070,1443,0,0
-147,-419,0,0,0,0,0,0,0,0,0,-1,1077,1443,0,0
-140,-419,0,0,0,0,0,0,0,0,0,-1,1084,1443,0,0
-133,-419,0,0,0,0,0,0,0,0,0,-1,1091,1443,0,0
-126,-419,0,0,0,0,0,0,0,0,0,-1,1098,1443,0,0
-119,-419,0,0,0,0,0,0,0,0,0,-1,1105,1443,0,0
-112,-419,0,0,0,0,0,0,0,0,0,-1,1112,1443,0,0
-105,-419,0,0,0,0,0,0,0,0,0,-1,1119,1443,0,0
-98,-419,0,0,0,0,0,0,0,0,0,-1,1126,1443,0,0
-91,-419,0,0,0,0,0,0,0,0,0,-1,1133,1443,0,0
-84,-419,0,0,0,0,0,0,0,0,0,-1,1140,1443,0,0
-77,-419,0,0,0,0,0,0,0,0,0,-1,1147,1443,0,0
-70,-419,0,0,0,0,0,0,0,0,0,-1,1154,1443,0,0
-63,-419,0,0,0,0,0,0,0,0,0,-1,1161,1443,0,0
-56,-419,0,0,0,0,0,0,0,0,0,-1,1168,1443,0,0
-49,-419,0,0,0,0,0,0,0,0,0,-1,1175,1443,0,0
-42,-419,0,0,0,0,0,0,0,0,0,-1,1182,1443,0,0
-35,-419,0,0,0,0,0,0,0,0,0,-1,1189,1443,0,0
-28,-419,0,0,0,0,0,0,0,0,0,-1,1196,1443,0,0
-21,-419,0,0,0,0,0,0,0,0,0,-1,1203,1443,0,0
-14,-419,0,0,0,0,0,0,0,0,0,-1,1210,1443,0,0
-7,-419,0,0,0,0,0,0,0,0,0,-1,1217,1443,0,0
0,-419,0,0,0,0,0,0,0,0,0,-1,1224,1443,0,0
7,-419,0,0,0,0,0,0,0,0,0,-1,1231,1443,0,0
14,-419,0,0,0,0,0,0,0,0,0,-1,1238,1443,0,0
21,-419,0,0,0,0,0,0,0,0,0,-1,1245,1443,0,0
28,-419,0,0,0,0,0,0,0,0,0,-1,1252,1443,0,0
35,-419,0,0,0,0,0,0,0,0,0,-1,1259,1443,0,0
42,-419,0,0,0,0,0,0,0,0,0,-1,1266,1443,0,0
49,-419,0,0,0,0,0,0,0,0,0,-1,1273,1443,0,0
56,-419,0,0,0,0,0,0,0,0,0,-1,1280,1443,0,0
63,-419,0,0,0,0,0,0,0,0,0,-1,1287,1443,0,0
70,-419,0,0,0,0,0,0,0,0,0,-1,1294,1443,0,0
77,-419,0,0,0,0,0,0,0,0,0,-1,1301,1443,0,0
84,-419,0,0,0,0,0,0,0,0,0,-1,1308,1443,0,0
91,-419,0,0,0,0,0,0,0,0,0,-1,1315,1443,0,0
98,-419,0,0,0,0,0,0,0,0,0,-1,1322,1443,0,0
105,-419,0,0,0,0,0,0,0,0,0,-1,1329,1443,0,0
112,-419,0,0,0,0,0,0,0,0,0,-1,1336,1443,0,0
119,-419,0,0,0,0,0,0,0,0,0,-1,1343,1443,0,0
126,-419,0,0,0,0,0,0,0,0,0,-1,1350,1443,0,0
133,-419,0,0,0,0,0,0,0,0,0,-1,1357,1443,0,0
140,-419,0,0,0,0,0,0,0,0,0,-1,1364,1443,0,0
147,-419,0,0,0,0,0,0,0,0,0,-1,1371,1443,0,0
154,-419,0,0,0,0,0,0,0,0,0,-1,1378,1443,0,0
161,-419,0,0,0,0,0,0,0,0,0,-1,1385,1443,0,0
168,-419,0,0,0,0,0,0,0,0,0,-1,1392,1443,0,0
175,-419,0,0,0,0,0,0,0,0,0,-1,1399,1443,0,0
182,-419,0,0,0,0,0,0,0,0,0,-1,1406,1443,0,0
189,-419,0,0,0,0,0,0,0,0,0,-1,1413,1443,0,0
196,-419,0,0,0,0,0,0,0,0,0,-1,1420,1443,0,0
203,-419,0,0,0,0,0,0,0,0,0,-1,1427,1443,0,0
210,-419,0,0,0,0,0,0,0,0,0,-1,1434,1443,0,0
217,-419,0,0,0,0,0,0,0,0,0,-1,1441,1443,0,0
224,-419,0,0,0,0,0,0,0,0,0,-1,1448,1443,0,0
231,-419,0,0,0,0,0,0,0,0,0,-1,1455,1443,0,0
238,-419,0,0,0,0,0,0,0,0,0,-1,1462,1443,0,0
245,-419,0,0,0,0,0,0,0,0,0,-1,1469,1443,0,0
252,-419,0,0,0,0,0,0,0,0,0,-1,1476,1443,0,0
259,-419,0,0,0,0,0,0,0,0,0,-1,1483,1443,0,0
266,-419,0,0,0,0,0,0,0,0,0,-1,1490,1443,0,0
273,-419,0,0,0,0,0,0,0,0,0,-1,1497,1443,0,0
280,-419,0,0,0,0,0,0,0,0,0,-1,1504,1443,0,0
287,-419,0,0,0,0,0,0,0,0,0,-1,1511,1443,0,0
294,-419,0,0,0,0,0,0,0,0,0,-1,1518,1443,0,0
301,-419,0,0,0,0,0,0,0,0,0,-1,1525,1443,0,0
308,-419,0,0,0,0,0,0,0,0,0,-1,1532,1443,0,0
315,-419,0,0,0,0,0,0,0,0,0,-1,1539,1443,0,0
322,-419,0,0,0,0,0,0,0,0,0,-1,1546,1443,0,0
329,-419,0,0,0,0,0,0,0,0,0,-1,1553,1443,0,0
336,-419,0,0,0,0,0,0,0,0,0,-1,1560,1443,0,0
343,-419,0,0,0,0,0,0,0,0,0,-1,1567,1443,0,0
350,-419,0,0,0,0,0,0,0,0,0,-1,1574,1443,0,0
357,-419,0,0,0,0,0,0,0,0,0,-1,1581,1443,0,0
364,-419,0,0,0,0,0,0,0,0,0,-1,1588,1443,0,0
371,-419,0,0,0,0,0,0,0,0,0,-1,1595,1443,0,0
378,-419,0,0,0,0,0,0,0,0,0,-1,1602,1443,0,0
385,-419,0,0,0,0,0,0,0,0,0,-1,1609,1443,0,0
392,-419,0,0,0,0,0,0,0,0,0,-1,1616,1443,0,0
399,-419,0,0,0,0,0,0,0,0,0,-1,1623,1443,0,0
406,-419,0,0,0,0,0,0,0,0,0,-1,1630,1443,0,0
413,-419,0,0,0,0,0,0,0,0,0,-1,1637,1443,0,0
420,-419,0,0,0,0,0,0,0,0,0,-1,1644,1443,0,0
427,-419,0,0,0,0,0,0,0,0,0,-1,1651,1443,0,0
434,-419,0,0,0,0,0,0,0,0,0,-1,1658,1443,0,0
441,-419,0,0,0,0,0,0,0,0,0,-1,1665,1443,0,0
448,-419,0,0,0,0,0,0,0,0,0,-1,1672,1443,0,0
455,-419,0,0,0,0,0,0,0,0,0,-1,1679,1443,0,0
462,-419,0,0,0,0,0,0,0,0,0,-1,1686,1443,0,0
469,-419,0,0,0,0,0,0,0,0,0,-1,1693,1443,0,0
476,-419,0,0,0,0,0,0,0,0,0,-1,1700,1443,0,0
483,-419,0,0,0,0,0,0,0,0,0,-1,1707,1443,0,0
490,-419,0,0,0,0,0,0,0,0,0,-1,1714,1443,0,0
497,-419,0,0,0,0,0,0,0,0,0,-1,1721,1443,0,0
504,-419,0,0,0,0,0,0,0,0,0,-1,1728,1443,0,0
511,-419,20.3005,3.7959,0,0,0,0,0,0,0,-1,1735,1443,20.3005,-3.79584
518,-419,21.3154,2.03027,0,0,0,0,0,0,0,-1,1742,1443,21.3155,-2.03029
525,-419,28.3439,-1.24475,0,0,0,0,0,0,0,-1,1749,1443,28.3438,1.24471
532,-419,27.5902,-0.272583,0,0,0,0,0,0,0,-1,1756,1443,27.5902,0.272526
539,-419,26.5278,1.60583,0,0,0,0,0,0,0,-1,1763,1443,26.5279,-1.60579
546,-419,24.9509,2.77539,0,0,0,0,0,0,0,-1,1770,1443,24.9509,-2.77537
553,-419,24.118,3.75525,0,0,0,0,0,0,0,-1,1777,1443,24.1181,-3.75526
560,-419,11.8199,8.26343,0,0,0,0,0,0,0,-1,1784,1443,11.82,-8.26341
567,-419,13.156,11.5431,0,0,0,0,0,0,0,-1,1791,1443,13.156,-11.5431
574,-419,19.5886,6.46155,0,0,0,0,0,0,0,-1,1798,1443,19.5886,-6.46157
581,-419,18.2771,8.85547,0,0,0,0,0,0,0,-1,1805,1443,18.2771,-8.85546
588,-419,17.8425,11.6071,0,0,0,0,0,0,0,-1,1812,1443,17.8425,-11.607
595,-419,17.0587,11.031,-0.0237397,-0.00914003,0.0134474,-0.00113891,-0.0317408,1.03406,0.0207913,0.046186,1819,1443,17.0587,-11.031
602,-419,16.2529,10.5066,-0.0194404,-0.00691903,0.00999491,-0.00138589,-0.0249735,1.0652,0.0162068,0.016698,1826,1443,16.2529,-10.5066
609,-419,16.2197,10.188,-0.0151096,-0.00493103,0.0072342,-0.0011753,-0.0188654,1.09194,0.012204,0.0109863,1833,1443,16.2198,-10.188
616,-419,16.1996,9.90063,-0.0113986,-0.00368001,0.00512849,-0.00112093,-0.0139577,1.10795,0.00895489,0.0117397,1840,1443,16.1996,-9.90068
623,-419,16.1956,9.58838,-0.00777673,-0.00250896,0.00334687,-0.000883867,-0.00940182,1.11877,0.00599502,0.00961152,1847,1443,16.1955,-9.58842
630,-419,16.2117,9.26929,-0.00454241,-0.00175019,0.00215315,-0.00058014,-0.00571246,1.07302,0.00363041,0.0116035,1854,1443,16.2117,-9.26924
637,-419,16.2113,8.98511,-0.00210365,-0.001213,0.00136922,-0.000218501,-0.00309814,0.942623,0.00199658,0.0120741,1861,1443,16.2113,-8.98508
644,-419,16.2048,8.70874,-0.000216117,-0.00101237,0.000902861,0.0003725,-0.00160099,0.577742,0.00121075,0.0105151,1868,1443,16.2049,-8.70878
651,-419,16.2068,8.41248,0.00121782,-0.000921425,0.000654468,0.00140216,-0.00110576,0.27455,0.00145132,0.0112428,1875,1443,16.2068,-8.41243
658,-419,16.1941,8.08398,0.00162965,-0.00110039,0.000917816,0.00190952,-0.00138026,0.295975,0.00190753,0.0126851,1882,1443,16.1941,-8.08394
665,-419,16.1794,7.7699,0.00168248,-0.00130249,0.00135794,0.00220779,-0.0018278,0.369115,0.00233339,0.0194471,1889,1443,16.1794,-7.76992
672,-419,16.207,7.41663,0.00152386,-0.00157671,0.00199845,0.00250284,-0.00255569,0.45551,0.0029206,0.0255888,1896,1443,16.207,-7.41668
679,-419,16.0507,7.25879,0.00116631,-0.00193481,0.00282446,0.00283783,-0.00360633,0.53437,0.00372935,0.049081,1903,1443,16.0506,-7.25874
686,-419,15.7267,7.26367,0,0,0,0,0,0,0,-1,1910,1443,15.7266,-7.26371
693,-419,8.76086,5.60535,0,0,0,0,0,0,0,-1,1917,1443,8.76091,-5.6054
700,-419,11.0498,4.85156,0,0,0,0,0,0,0,-1,1924,1443,11.0498,-4.85153
707,-419,9.5752,1.80042,0,0,0,0,0,0,0,-1,1931,1443,9.57523,-1.80037
714,-419,5.77576,-1.25061,0,0,0,0,0,0,0,-1,1938,1443,5.7757,1.25056
721,-419,0,0,0,0,0,0,0,0,0,-1,1945,1443,0,0
728,-419,0,0,0,0,0,0,0,0,0,-1,1952,1443,0,0
735,-419,0,0,0,0,0,0,0,0,0,-1,1959,1443,0,0
742,-419,0,0,0,0,0,0,0,0,0,-1,1966,1443,0,0
749,-419,0,0,0,0,0,0,0,0,0,-1,1973,1443,0,0
756,-419,0,0,0,0,0,0,0,0,0,-1,1980,1443,0,0
763,-419,0,0,0,0,0,0,0,0,0,-1,1987,1443,0,0
770,-419,0,0,0,0,0,0,0,0,0,-1,1994,1443,0,0
777,-419,0,0,0,0,0,0,0,0,0,-1,2001,1443,0,0
784,-419,0,0,0,0,0,0,0,0,0,-1,2008,1443,0,0
791,-419,0,0,0,0,0,0,0,0,0,-1,2015,1443,0,0
798,-419,0,0,0,0,0,0,0,0,0,-1,2022,1443,0,0
805,-419,0,0,0,0,0,0,0,0,0,-1,2029,1443,0,0
812,-419,0,0,0,0,0,0,0,0,0,-1,2036,1443,0,0
-700,-426,0,0,0,0,0,0,0,0,0,-1,524,1450,0,0
-693,-426,0,0,0,0,0,0,0,0,0,-1,531,1450,0,0
-686,-426,0,0,0,0,0,0,0,0,0,-1,538,1450,0,0
-679,-426,0,0,0,0,0,0,0,0,0,-1,545,1450,0,0
-672,-426,0,0,0,0,0,0,0,0,0,-1,552,1450,0,0
-665,-426,0,0,0,0,0,0,0,0,0,-1,559,1450,0,0
-658,-426,0,0,0,0,0,0,0,0,0,-1,566,1450,0,0
-651,-426,0,0,0,0,0,0,0,0,0,-1,573,1450,0,0
-644,-426,0,0,0,0,0,0,0,0,0,-1,580,1450,0,0
-637,-426,0,0,0,0,0,0,0,0,0,-1,587,1450,0,0
-630,-426,0,0,0,0,0,0,0,0,0,-1,594,1450,0,0
-623,-426,0,0,0,0,0,0,0,0,0,-1,601,1450,0,0
-616,-426,0,0,0,0,0,0,0,0,0,-1,608,1450,0,0
-609,-426,0,0,0,0,0,0,0,0,0,-1,615,1450,0,0
-602,-426,0,0,0,0,0,0,0,0,0,-1,622,1450,0,0
-595,-426,0,0,0,0,0,0,0,0,0,-1,629,1450,0,0
-588,-426,-10.184,-0.554321,0,0,0,0,0,0,0,-1,636,1450,-10.184,0.554321
-581,-426,-7.3349,1.48157,0,0,0,0,0,0,0,-1,643,1450,-7.33491,-1.48152
-574,-426,-5.02856,2.89319,0,0,0,0,0,0,0,-1,650,1450,-5.02858,-2.89319
-567,-426,-3.04797,1.72644,0,0,0,0,0,0,0,-1,657,1450,-3.04797,-1.72639
-560,-426,-5.55682,3.44397,0,0,0,0,0,0,0,-1,664,1450,-5.55684,-3.44399
-553,-426,-4.27478,6.38855,0,0,0,0,0,0,0,-1,671,1450,-4.27476,-6.38849
-546,-426,-5.06848,5.14832,0,0,0,0,0,0,0,-1,678,1450,-5.06845,-5.14826
-539,-426,-5.14423,5.54163,0.0163765,0.0126217,0.013103,0.0277358,0.00126226,0.714242,0.0180845,0.0444335,685,1450,-5.14422,-5.54162
-532,-426,-5.36182,5.83228,0.0119238,0.0111493,0.0105546,0.0220982,0.00097484,0.767061,0.0144182,0.0315185,692,1450,-5.36182,-5.83225
-525,-426,-5.45087,6.15808,0.00874503,0.0093366,0.00835592,0.017402,0.00067966,0.80309,0.0113815,0.0154402,699,1450,-5.45086,-6.15805
-518,-426,-5.4259,6.51758,0.00618908,0.00734294,0.00633554,0.0131278,0.000404251,0.830804,0.00862025,0.0161007,706,1450,-5.42587,-6.51752
-511,-426,-5.45679,6.8429,0.00416154,0.00552549,0.00447279,0.009368,0.000319037,0.861052,0.00614175,0.0155691,713,1450,-5.45682,-6.84287
-504,-426,-5.49701,7.16626,0.00251351,0.00333137,0.00256792,0.00552271,0.000322163,0.864358,0.00357926,0.0149807,720,1450,-5.49703,-7.16629
-497,-426,-5.49023,7.48279,0.000997038,0.000805677,0.000186582,0.00111104,0.000691673,0.548478,0.00064785,0.0124277,727,1450,-5.49024,-7.48283
-490,-426,-5.49597,7.82202,-0.000126935,-0.00133813,-0.00247591,0.00181637,-0.00328143,-0.665456,0.00298346,0.0122309,734,1450,-5.49596,-7.82202
-483,-426,-5.49225,8.15552,-0.00137975,-0.00394234,-0.00552602,0.00301157,-0.00833366,-0.671478,0.00678616,0.0113997,741,1450,-5.49222,-8.15557
-476,-426,-5.48138,8.49243,-0.00284654,-0.00718855,-0.00941619,0.00464568,-0.0146808,-0.672098,0.0116487,0.00867425,748,1450,-5.48136,-8.49238
-469,-426,-5.48541,8.81335,-0.00415951,-0.0104153,-0.0138487,0.00691017,-0.021485,-0.674331,0.0170987,0.00731967,755,1450,-5.4854,-8.81337
-462,-426,-5.38727,9.21667,-0.00599476,-0.0145322,-0.0196453,0.00984026,-0.0303673,-0.678416,0.0242012,0.0189793,762,1450,-5.38725,-9.21671
-455,-426,-5.50079,9.30408,-0.00835534,-0.0198367,-0.0271772,0.0136808,-0.0418729,-0.681312,0.0334223,0.0423245,769,1450,-5.5008,-9.30406
-448,-426,-5.77655,9.14355,-0.0112268,-0.0267508,-0.0367217,0.0185443,-0.0565219,-0.681245,0.0451505,0.0487422,776,1450,-5.77652,-9.14357
-441,-426,-5.84558,9.09546,-0.0145666,-0.0355257,-0.0486735,0.0247427,-0.074835,-0.679365,0.0598669,0.0472597,783,1450,-5.8456,-9.09548
-434,-426,-5.73358,9.0321,0,0,0,0,0,0,0,-1,790,1450,-5.73356,-9.03205
-427,-426,-4.58551,8.85742,0,0,0,0,0,0,0,-1,797,1450,-4.58551,-8.85737
-420,-426,-5.33765,7.95044,0,0,0,0,0,0,0,-1,804,1450,-5.33766,-7.95041
-413,-426,-10.1148,5.0415,0,0,0,0,0,0,0,-1,811,1450,-10.1148,-5.04152
-406,-426,-11.4199,3.6438,0,0,0,0,0,0,0,-1,818,1450,-11.4198,-3.64382
-399,-426,-12.7595,2.29004,0,0,0,0,0,0,0,-1,825,1450,-12.7595,-2.29003
-392,-426,-12.4147,0.537354,0,0,0,0,0,0,0,-1,832,1450,-12.4147,-0.53731
-385,-426,0,0,0,0,0,0,0,0,0,-1,839,1450,0,0
-378,-426,0,0,0,0,0,0,0,0,0,-1,846,1450,0,0
-371,-426,0,0,0,0,0,0,0,0,0,-1,853,1450,0,0
-364,-426,0,0,0,0,0,0,0,0,0,-1,860,1450,0,0
-357,-426,0,0,0,0,0,0,0,0,0,-1,867,1450,0,0
-350,-426,0,0,0,0,0,0,0,0,0,-1,874,1450,0,0
-343,-426,0,0,0,0,0,0,0,0,0,-1,881,1450,0,0
-336,-426,0,0,0,0,0,0,0,0,0,-1,888,1450,0,0
-329,-426,0,0,0,0,0,0,0,0,0,-1,895,1450,0,0
-322,-426,0,0,0,0,0,0,0,0,0,-1,902,1450,0,0
-315,-426,0,0,0,0,0,0,0,0,0,-1,909,1450,0,0
-308,-426,0,0,0,0,0,0,0,0,0,-1,916,1450,0,0
-301,-426,0,0,0,0,0,0,0,0,0,-1,923,1450,0,0
-294,-426,0,0,0,0,0,0,0,0,0,-1,930,1450,0,0
-287,-426,0,0,0,0,0,0,0,0,0,-1,937,1450,0,0
-280,-426,0,0,0,0,0,0,0,0,0,-1,944,1450,0,0
-273,-426,0,0,0,0,0,0,0,0,0,-1,951,1450,0,0
-266,-426,0,0,0,0,0,0,0,0,0,-1,958,1450,0,0
-259,-426,0,0,0,0,0,0,0,0,0,-1,965,1450,0,0
-252,-426,0,0,0,0,0,0,0,0,0,-1,972,1450,0,0
-245,-426,0,0,0,0,0,0,0,0,0,-1,979,1450,0,0
-238,-426,0,0,0,0,0,0,0,0,0,-1,986,1450,0,0
-231,-426,0,0,0,0,0,0,0,0,0,-1,993,1450,0,0
-224,-426,0,0,0,0,0,0,0,0,0,-1,1000,1450,0,0
-217,-426,0,0,0,0,0,0,0,0,0,-1,1007,1450,0,0
-210,-426,0,0,0,0,0,0,0,0,0,-1,1014,1450,0,0
-203,-426,0,0,0,0,0,0,0,0,0,-1,1021,1450,0,0
-196,-426,0,0,0,0,0,0,0,0,0,-1,1028,1450,0,0
-189,-426,0,0,0,0,0,0,0,0,0,-1,1035,1450,0,0
-182,-426,0,0,0,0,0,0,0,0,0,-1,1042,1450,0,0
-175,-426,0,0,0,0,0,0,0,0,0,-1,1049,1450,0,0
-168,-426,0,0,0,0,0,0,0,0,0,-1,1056,1450,0,0
-161,-426,0,0,0,0,0,0,0,0,0,-1,1063,1450,0,0
-154,-426,0,0,0,0,0,0,0,0,0,-1,1070,1450,0,0
-147,-426,0,0,0,0,0,0,0,0,0,-1,1077,1450,0,0
-140,-426,0,0,0,0,0,0,0,0,0,-1,1084,1450,0,0
-133,-426,0,0,0,0,0,0,0,0,0,-1,1091,1450,0,0
-126,-426,0,0,0,0,0,0,0,0,0,-1,1098,1450,0,0
-119,-426,0,0,0,0,0,0,0,0,0,-1,1105,1450,0,0
-112,-426,0,0,0,0,0,0,0,0,0,-1,1112,1450,0,0
-105,-426,0,0,0,0,0,0,0,0,0,-1,1119,1450,0,0
-98,-426,0,0,0,0,0,0,0,0,0,-1,1126,1450,0,0
-91,-426,0,0,0,0,0,0,0,0,0,-1,1133,1450,0,0
-84,-426,0,0,0,0,0,0,0,0,0,-1,1140,1450,0,0
-77,-426,0,0,0,0,0,0,0,0,0,-1,1147,1450,0,0
-70,-426,0,0,0,0,0,0,0,0,0,-1,1154,1450,0,0
-63,-426,0,0,0,0,0,0,0,0,0,-1,1161,1450,0,0
-56,-426,0,0,0,0,0,0,0,0,0,-1,1168,1450,0,0
-49,-426,0,0,0,0,0,0,0,0,0,-1,1175,1450,0,0
-42,-426,0,0,0,0,0,0,0,0,0,-1,1182,1450,0,0
-35,-426,0,0,0,0,0,0,0,0,0,-1,1189,1450,0,0
-28,-426,0,0,0,0,0,0,0,0,0,-1,1196,1450,0,0
-21,-426,0,0,0,0,0,0,0,0,0,-1,1203,1450,0,0
-14,-426,0,0,0,0,0,0,0,0,0,-1,1210,1450,0,0
-7,-426,0,0,0,0,0,0,0,0,0,-1,1217,1450,0,0
0,-426,0,0,0,0,0,0,0,0,0,-1,1224,1450,0,0
7,-426,0,0,0,0,0,0,0,0,0,-1,1231,1450,0,0
14,-426,0,0,0,0,0,0,0,0,0,-1,1238,1450,0,0
21,-426,0,0,0,0,0,0,0,0,0,-1,1245,1450,0,0
28,-426,0,0,0,0,0,0,0,0,0,-1,1252,1450,0,0
35,-426,0,0,0,0,0,0,0,0,0,-1,1259,1450,0,0
42,-426,0,0,0,0,0,0,0,0,0,-1,1266,1450,0,0
49,-426,0,0,0,0,0,0,0,0,0,-1,1273,1450,0,0
56,-426,0,0,0,0,0,0,0,0,0,-1,1280,1450,0,0
63,-426,0,0,0,0,0,0,0,0,0,-1,1287,1450,0,0
70,-426,0,0,0,0,0,0,0,0,0,-1,1294,1450,0,0
77,-426,0,0,0,0,0,0,0,0,0,-1,1301,1450,0,0
84,-426,0,0,0,0,0,0,0,0,0,-1,1308,1450,0,0
91,-426,0,0,0,0,0,0,0,0,0,-1,1315,1450,0,0
98,-426,0,0,0,0,0,0,0,0,0,-1,1322,1450,0,0
105,-426,0,0,0,0,0,0,0,0,0,-1,1329,1450,0,0
112,-426,0,0,0,0,0,0,0,0,0,-1,1336,1450,0,0
119,-426,0,0,0,0,0,0,0,0,0,-1,1343,1450,0,0
126,-426,0,0,0,0,0,0,0,0,0,-1,1350,1450,0,0
133,-426,0,0,0,0,0,0,0,0,0,-1,1357,1450,0,0
140,-426,0,0,0,0,0,0,0,0,0,-1,1364,1450,0,0
147,-426,0,0,0,0,0,0,0,0,0,-1,1371,1450,0,0
154,-426,0,0,0,0,0,0,0,0,0,-1,1378,1450,0,0
161,-426,0,0,0,0,0,0,0,0,0,-1,1385,1450,0,0
168,-426,0,0,0,0,0,0,0,0,0,-1,1392,1450,0,0
175,-426,0,0,0,0,0,0,0,0,0,-1,1399,1450,0,0
182,-426,0,0,0,0,0,0,0,0,0,-1,1406,1450,0,0
189,-426,0,0,0,0,0,0,0,0,0,-1,1413,1450,0,0
196,-426,0,0,0,0,0,0,0,0,0,-1,1420,1450,0,0
203,-426,0,0,0,0,0,0,0,0,0,-1,1427,1450,0,0
210,-426,0,0,0,0,0,0,0,0,0,-1,1434,1450,0,0
217,-426,0,0,0,0,0,0,0,0,0,-1,1441,1450,0,0
224,-426,0,0,0,0,0,0,0,0,0,-1,1448,1450,0,0
231,-426,0,0,0,0,0,0,0,0,0,-1,1455,1450,0,0
238,-426,0,0,0,0,0,0,0,0,0,-1,1462,1450,0,0
245,-426,0,0,0,0,0,0,0,0,0,-1,1469,1450,0,0
252,-426,0,0,0,0,0,0,0,0,0,-1,1476,1450,0,0
259,-426,0,0,0,0,0,0,0,0,0,-1,1483,1450,0,0
266,-426,0,0,0,0,0,0,0,0,0,-1,1490,1450,0,0
273,-426,0,0,0,0,0,0,0,0,0,-1,1497,1450,0,0
280,-426,0,0,0,0,0,0,0,0,0,-1,1504,1450,0,0
287,-426,0,0,0,0,0,0,0,0,0,-1,1511,1450,0,0
294,-426,0,0,0,0,0,0,0,0,0,-1,1518,1450,0,0
301,-426,0,0,0,0,0,0,0,0,0,-1,1525,1450,0,0
308,-426,0,0,0,0,0,0,0,0,0,-1,1532,1450,0,0
315,-426,0,0,0,0,0,0,0,0,0,-1,1539,1450,0,0
322,-426,0,0,0,0,0,0,0,0,0,-1,1546,1450,0,0
329,-426,0,0,0,0,0,0,0,0,0,-1,1553,1450,0,0
336,-426,0,0,0,0,0,0,0,0,0,-1,1560,1450,0,0
343,-426,0,0,0,0,0,0,0,0,0,-1,1567,1450,0,0
350,-426,0,0,0,0,0,0,0,0,0,-1,1574,1450,0,0
357,-426,0,0,0,0,0,0,0,0,0,-1,1581,1450,0,0
364,-426,0,0,0,0,0,0,0,0,0,-1,1588,1450,0,0
371,-426,0,0,0,0,0,0,0,0,0,-1,1595,1450,0,0
378,-426,0,0,0,0,0,0,0,0,0,-1,1602,1450,0,0
385,-426,0,0,0,0,0,0,0,0,0,-1,1609,1450,0,0
392,-426,0,0,0,0,0,0,0,0,0,-1,1616,1450,0,0
399,-426,0,0,0,0,0,0,0,0,0,-1,1623,1450,0,0
406,-426,0,0,0,0,0,0,0,0,0,-1,1630,1450,0,0
413,-426,0,0,0,0,0,0,0,0,0,-1,1637,1450,0,0
420,-426,0,0,0,0,0,0,0,0,0,-1,1644,1450,0,0
427,-426,0,0,0,0,0,0,0,0,0,-1,1651,1450,0,0
434,-426,0,0,0,0,0,0,0,0,0,-1,1658,1450,0,0
441,-426,0,0,0,0,0,0,0,0,0,-1,1665,1450,0,0
448,-426,0,0,0,0,0,0,0,0,0,-1,1672,1450,0,0
455,-426,0,0,0,0,0,0,0,0,0,-1,1679,1450,0,0
462,-426,0,0,0,0,0,0,0,0,0,-1,1686,1450,0,0
469,-426,0,0,0,0,0,0,0,0,0,-1,1693,1450,0,0
476,-426,0,0,0,0,0,0,0,0,0,-1,1700,1450,0,0
483,-426,0,0,0,0,0,0,0,0,0,-1,1707,1450,0,0
490,-426,0,0,0,0,0,0,0,0,0,-1,1714,1450,0,0
497,-426,0,0,0,0,0,0,0,0,0,-1,1721,1450,0,0
504,-426,20.6873,3.38367,0,0,0,0,0,0,0,-1,1728,1450,20.6873,-3.38361
511,-426,19.6676,3.53748,0,0,0,0,0,0,0,-1,1735,1450,19.6676,-3.53749
518,-426,18.6853,3.32288,0,0,0,0,0,0,0,-1,1742,1450,18.6853,-3.3229
525,-426,18.9552,2.71033,0,0,0,0,0,0,0,-1,1749,1450,18.9552,-2.71034
532,-426,19.4333,2.70764,0,0,0,0,0,0,0,-1,1756,1450,19.4334,-2.70764
539,-426,25.1482,2.56287,0,0,0,0,0,0,0,-1,1763,1450,25.1482,-2.56286
546,-426,24.1136,3.75659,0,0,0,0,0,0,0,-1,1770,1450,24.1136,-3.7566
553,-426,23.0791,4.95032,0,0,0,0,0,0,0,-1,1777,1450,23.0791,-4.95034
560,-426,12.9688,11.8289,0,0,0,0,0,0,0,-1,1784,1450,12.9688,-11.8288
567,-426,13.6388,11.5623,0,0,0,0,0,0,0,-1,1791,1450,13.6388,-11.5623
574,-426,14.3943,11.0286,0,0,0,0,0,0,0,-1,1798,1450,14.3942,-11.0285
581,-426,15.5364,10.6245,0,0,0,0,0,0,0,-1,1805,1450,15.5364,-10.6245
588,-426,16.0955,11.3451,0,0,0,0,0,0,0,-1,1812,1450,16.0954,-11.3451
595,-426,15.99,10.7849,-0.0226254,-0.00896472,0.010843,-0.0029801,-0.0286101,1.06647,0.0181617,0.031424,1819,1450,15.99,-10.7849
602,-426,15.9009,10.4652,-0.0174617,-0.00628284,0.00800525,-0.00210878,-0.0216358,1.09016,0.0137748,0.015333,1826,1450,15.9008,-10.4653
609,-426,15.9165,10.1757,-0.0130586,-0.00429175,0.00582627,-0.00138409,-0.0159662,1.1079,0.0102141,0.0117975,1833,1450,15.9164,-10.1757
616,-426,15.9073,9.89319,-0.00928205,-0.00301003,0.00416359,-0.000933546,-0.0113585,1.10817,0.00728115,0.0141181,1840,1450,15.9074,-9.89319
623,-426,15.8984,9.58936,-0.00594064,-0.00201447,0.00275146,-0.000597578,-0.00735753,1.09525,0.00471846,0.0119467,1847,1450,15.8984,-9.58936
630,-426,15.9126,9.29309,-0.00317408,-0.0015207,0.0018041,-0.000362899,-0.00433187,1.00024,0.00277487,0.0123693,1854,1450,15.9125,-9.29312
637,-426,15.9126,9.00366,-0.000963356,-0.00120258,0.001171,9.41282e-05,-0.00226006,0.734502,0.00153905,0.0123334,1861,1450,15.9126,-9.00371
644,-426,15.8875,8.71533,0.000855718,-0.00118932,0.000802321,0.00113292,-0.00146652,0.332655,0.0015049,0.0122114,1868,1450,15.8875,-8.71528
651,-426,15.8748,8.41846,0.00208742,-0.00138544,0.000753772,0.00224397,-0.00154198,0.204774,0.00219831,0.0122961,1875,1450,15.8748,-8.41848
658,-426,15.8959,8.07849,0.00249531,-0.00171888,0.00109192,0.00276143,-0.001985,0.239054,0.00275255,0.0122435,1882,1450,15.8958,-8.07854
665,-426,15.9288,7.69116,0.00273216,-0.00208694,0.00157809,0.00320294,-0.00255772,0.289917,0.00333286,0.0195211,1889,1450,15.9288,-7.69113
672,-426,16.0104,7.41089,0,0,0,0,0,0,0,-1,1896,1450,16.0104,-7.41088
679,-426,15.5212,7.34351,0,0,0,0,0,0,0,-1,1903,1450,15.5212,-7.34347
686,-426,13.5326,8.03711,0,0,0,0,0,0,0,-1,1910,1450,13.5326,-8.03717
693,-426,11.8607,6.45215,0,0,0,0,0,0,0,-1,1917,1450,11.8607,-6.45215
700,-426,9.24304,2.95447,0,0,0,0,0,0,0,-1,1924,1450,9.24305,-2.95442
707,-426,8.44519,-1.21448,0,0,0,0,0,0,0,-1,1931,1450,8.44514,1.21454
714,-426,0,0,0,0,0,0,0,0,0,-1,1938,1450,0,0
721,-426,0,0,0,0,0,0,0,0,0,-1,1945,1450,0,0
728,-426,0,0,0,0,0,0,0,0,0,-1,1952,1450,0,0
735,-426,0,0,0,0,0,0,0,0,0,-1,1959,1450,0,0
742,-426,0,0,0,0,0,0,0,0,0,-1,1966,1450,0,0
749,-426,0,0,0,0,0,0,0,0,0,-1,1973,1450,0,0
756,-426,0,0,0,0,0,0,0,0,0,-1,1980,1450,0,0
763,-426,0,0,0,0,0,0,0,0,0,-1,1987,1450,0,0
770,-426,0,0,0,0,0,0,0,0,0,-1,1994,1450,0,0
777,-426,0,0,0,0,0,0,0,0,0,-1,2001,1450,0,0
784,-426,0,0,0,0,0,0,0,0,0,-1,2008,1450,0,0
791,-426,0,0,0,0,0,0,0,0,0,-1,2015,1450,0,0
798,-426,0,0,0,0,0,0,0,0,0,-1,2022,1450,0,0
805,-426,0,0,0,0,0,0,0,0,0,-1,2029,1450,0,0
812,-426,0,0,0,0,0,0,0,0,0,-1,2036,1450,0,0
-700,-433,0,0,0,0,0,0,0,0,0,-1,524,1457,0,0
-693,-433,0,0,0,0,0,0,0,0,0,-1,531,1457,0,0
-686,-433,0,0,0,0,0,0,0,0,0,-1,538,1457,0,0
-679,-433,0,0,0,0,0,0,0,0,0,-1,545,1457,0,0
-672,-433,0,0,0,0,0,0,0,0,0,-1,552,1457,0,0
-665,-433,0,0,0,0,0,0,0,0,0,-1,559,1457,0,0
-658,-433,0,0,0,0,0,0,0,0,0,-1,566,1457,0,0
-651,-433,0,0,0,0,0,0,0,0,0,-1,573,1457,0,0
-644,-433,0,0,0,0,0,0,0,0,0,-1,580,1457,0,0
-637,-433,0,0,0,0,0,0,0,0,0,-1,587,1457,0,0
-630,-433,0,0,0,0,0,0,0,0,0,-1,594,1457,0,0
-623,-433,0,0,0,0,0,0,0,0,0,-1,601,1457,0,0
-616,-433,0,0,0,0,0,0,0,0,0,-1,608,1457,0,0
-609,-433,0,0,0,0,0,0,0,0,0,-1,615,1457,0,0
-602,-433,0,0,0,0,0,0,0,0,0,-1,622,1457,0,0
-595,-433,0,0,0,0,0,0,0,0,0,-1,629,1457,0,0
-588,-433,-10.3756,-0.467041,0,0,0,0,0,0,0,-1,636,1457,-10.3756,0.467081
-581,-433,-8.12201,0.884033,0,0,0,0,0,0,0,-1,643,1457,-8.12204,-0.884056
-574,-433,-5.86847,2.23523,0,0,0,0,0,0,0,-1,650,1457,-5.86844,-2.23519
-567,-433,-5.42255,1.16833,0,0,0,0,0,0,0,-1,657,1457,-5.42254,-1.1683
-560,-433,-6.84027,1.86414,0,0,0,0,0,0,0,-1,664,1457,-6.84026,-1.86412
-553,-433,-5.74017,1.79163,0,0,0,0,0,0,0,-1,671,1457,-5.74015,-1.79166
-546,-433,-4.94708,4.57507,0,0,0,0,0,0,0,-1,678,1457,-4.9471,-4.57508
-539,-433,-4.92896,5.19629,0.025143,0.0193919,0.0198341,0.0423089,0.002226,0.713409,0.027494,0.0469776,685,1457,-4.92898,-5.19625
-532,-433,-4.93024,5.82043,0.0185461,0.0164656,0.0157583,0.0332984,0.00171327,0.752441,0.0216505,0.0356577,692,1457,-4.93024,-5.82041
-525,-433,-5.07874,6.21252,0.0136719,0.0133843,0.0122762,0.0258052,0.00125111,0.779542,0.0168019,0.0244054,699,1457,-5.07872,-6.21259
-518,-433,-5.08417,6.53186,0.00979023,0.0104106,0.00925026,0.0193559,0.000844956,0.802158,0.0126317,0.0170055,706,1457,-5.08417,-6.53187
-511,-433,-5.12177,6.86292,0.00675507,0.00781099,0.00663829,0.0139423,0.000623781,0.825081,0.00909406,0.0166431,713,1457,-5.12174,-6.86286
-504,-433,-5.14014,7.17505,0.00435673,0.00510937,0.00421103,0.00896086,0.000505236,0.829962,0.00581282,0.0130334,720,1457,-5.14013,-7.17501
-497,-433,-5.13452,7.50928,0.00235621,0.00236362,0.00159628,0.00395621,0.00076363,0.786559,0.00242337,0.0130196,727,1457,-5.13453,-7.50931
-490,-433,-5.15961,7.82629,0.000938044,0.000112165,-0.00110593,0.00170561,-0.000655405,-0.606721,0.00140737,0.0145522,734,1457,-5.15963,-7.82632
-483,-433,-5.15894,8.16882,-0.000359039,-0.00244608,-0.0040272,0.00275764,-0.00556276,-0.658627,0.00489394,0.0146835,741,1457,-5.15895,-8.16881
-476,-433,-5.14746,8.51965,-0.00185504,-0.00566649,-0.00770445,0.00417588,-0.0116974,-0.664155,0.00950122,0.00939096,748,1457,-5.14745,-8.51961
-469,-433,-5.15845,8.84705,-0.00287817,-0.00854247,-0.0114961,0.00612951,-0.0175501,-0.664624,0.0141916,0.00955907,755,1457,-5.15844,-8.84707
-462,-433,-5.18384,9.17261,-0.0039641,-0.0120886,-0.0162286,0.00870294,-0.0247557,-0.662761,0.0200447,0.00971491,762,1457,-5.18386,-9.17266
-455,-433,-4.96606,9.59448,-0.00536065,-0.0165872,-0.0222595,0.0119824,-0.0339302,-0.661886,0.0274987,0.0316502,769,1457,-4.96609,-9.59453
-448,-433,-5.02197,9.34216,-0.00696934,-0.0225219,-0.0298667,0.0161168,-0.045608,-0.658043,0.0369679,0.0443846,776,1457,-5.02197,-9.34211
-441,-433,-4.81122,9.00024,-0.00878501,-0.0301346,-0.039308,0.0212718,-0.0601915,-0.652812,0.0487893,0.0480489,783,1457,-4.81121,-9.0002
-434,-433,-4.62231,9.03235,0,0,0,0,0,0,0,-1,790,1457,-4.62232,-9.0323
-427,-433,-4.19769,9.38147,0,0,0,0,0,0,0,-1,797,1457,-4.19771,-9.3815
-420,-433,-3.83643,9.38379,0,0,0,0,0,0,0,-1,804,1457,-3.83645,-9.38383
-413,-433,-3.63074,5.5813,0,0,0,0,0,0,0,-1,811,1457,-3.63072,-5.58129
-406,-433,-12.3472,4.69373,0,0,0,0,0,0,0,-1,818,1457,-12.3472,-4.69374
-399,-433,-12.055,2.83594,0,0,0,0,0,0,0,-1,825,1457,-12.055,-2.83594
-392,-433,-12.9772,1.6228,0,0,0,0,0,0,0,-1,832,1457,-12.9772,-1.62282
-385,-433,-13.7999,0.514771,0,0,0,0,0,0,0,-1,839,1457,-13.7999,-0.514788
-378,-433,0,0,0,0,0,0,0,0,0,-1,846,1457,0,0
-371,-433,0,0,0,0,0,0,0,0,0,-1,853,1457,0,0
-364,-433,0,0,0,0,0,0,0,0,0,-1,860,1457,0,0
-357,-433,0,0,0,0,0,0,0,0,0,-1,867,1457,0,0
-350,-433,0,0,0,0,0,0,0,0,0,-1,874,1457,0,0
-343,-433,0,0,0,0,0,0,0,0,0,-1,881,1457,0,0
-336,-433,0,0,0,0,0,0,0,0,0,-1,888,1457,0,0
-329,-433,0,0,0,0,0,0,0,0,0,-1,895,1457,0,0
-322,-433,0,0,0,0,0,0,0,0,0,-1,902,1457,0,0
-315,-433,0,0,0,0,0,0,0,0,0,-1,909,1457,0,0
-308,-433,0,0,0,0,0,0,0,0,0,-1,916,1457,0,0
-301,-433,0,0,0,0,0,0,0,0,0,-1,923,1457,0,0
-294,-433,0,0,0,0,0,0,0,0,0,-1,930,1457,0,0
-287,-433,0,0,0,0,0,0,0,0,0,-1,937,1457,0,0
-280,-433,0,0,0,0,0,0,0,0,0,-1,944,1457,0,0
-273,-433,0,0,0,0,0,0,0,0,0,-1,951,1457,0,0
-266,-433,0,0,0,0,0,0,0,0,0,-1,958,1457,0,0
-259,-433,0,0,0,0,0,0,0,0,0,-1,965,1457,0,0
-252,-433,0,0,0,0,0,0,0,0,0,-1,972,1457,0,0
-245,-433,0,0,0,0,0,0,0,0,0,-1,979,1457,0,0
-238,-433,0,0,0,0,0,0,0,0,0,-1,986,1457,0,0
-231,-433,0,0,0,0,0,0,0,0,0,-1,993,1457,0,0
-224,-433,0,0,0,0,0,0,0,0,0,-1,1000,1457,0,0
-217,-433,0,0,0,0,0,0,0,0,0,-1,1007,1457,0,0
-210,-433,0,0,0,0,0,0,0,0,0,-1,1014,1457,0,0
-203,-433,0,0,0,0,0,0,0,0,0,-1,1021,1457,0,0
-196,-433,0,0,0,0,0,0,0,0,0,-1,1028,1457,0,0
-189,-433,0,0,0,0,0,0,0,0,0,-1,1035,1457,0,0
-182,-433,0,0,0,0,0,0,0,0,0,-1,1042,1457,0,0
-175,-433,0,0,0,0,0,0,0,0,0,-1,1049,1457,0,0
-168,-433,0,0,0,0,0,0,0,0,0,-1,1056,1457,0,0
-161,-433,0,0,0,0,0,0,0,0,0,-1,1063,1457,0,0
-154,-433,0,0,0,0,0,0,0,0,0,-1,1070,1457,0,0
-147,-433,0,0,0,0,0,0,0,0,0,-1,1077,1457,0,0
-140,-433,0,0,0,0,0,0,0,0,0,-1,1084,1457,0,0
-133,-433,0,0,0,0,0,0,0,0,0,-1,1091,1457,0,0
-126,-433,0,0,0,0,0,0,0,0,0,-1,1098,1457,0,0
-119,-433,0,0,0,0,0,0,0,0,0,-1,1105,1457,0,0
-112,-433,0,0,0,0,0,0,0,0,0,-1,1112,1457,0,0
-105,-433,0,0,0,0,0,0,0,0,0,-1,1119,1457,0,0
-98,-433,0,0,0,0,0,0,0,0,0,-1,1126,1457,0,0
-91,-433,0,0,0,0,0,0,0,0,0,-1,1133,1457,0,0
-84,-433,0,0,0,0,0,0,0,0,0,-1,1140,1457,0,0
-77,-433,0,0,0,0,0,0,0,0,0,-1,1147,1457,0,0
-70,-433,0,0,0,0,0,0,0,0,0,-1,1154,1457,0,0
-63,-433,0,0,0,0,0,0,0,0,0,-1,1161,1457,0,0
-56,-433,0,0,0,0,0,0,0,0,0,-1,1168,1457,0,0
-49,-433,0,0,0,0,0,0,0,0,0,-1,1175,1457,0,0
-42,-433,0,0,0,0,0,0,0,0,0,-1,1182,1457,0,0
-35,-433,0,0,0,0,0,0,0,0,0,-1,1189,1457,0,0
-28,-433,0,0,0,0,0,0,0,0,0,-1,1196,1457,0,0
-21,-433,0,0,0,0,0,0,0,0,0,-1,1203,1457,0,0
-14,-433,0,0,0,0,0,0,0,0,0,-1,1210,1457,0,0
-7,-433,0,0,0,0,0,0,0,0,0,-1,1217,1457,0,0
0,-433,0,0,0,0,0,0,0,0,0,-1,1224,1457,0,0
7,-433,0,0,0,0,0,0,0,0,0,-1,1231,1457,0,0
14,-433,0,0,0,0,0,0,0,0,0,-1,1238,1457,0,0
21,-433,0,0,0,0,0,0,0,0,0,-1,1245,1457,0,0
28,-433,0,0,0,0,0,0,0,0,0,-1,1252,1457,0,0
35,-433,0,0,0,0,0,0,0,0,0,-1,1259,1457,0,0
42,-433,0,0,0,0,0,0,0,0,0,-1,1266,1457,0,0
49,-433,0,0,0,0,0,0,0,0,0,-1,1273,1457,0,0
56,-433,0,0,0,0,0,0,0,0,0,-1,1280,1457,0,0
63,-433,0,0,0,0,0,0,0,0,0,-1,1287,1457,0,0
70,-433,0,0,0,0,0,0,0,0,0,-1,1294,1457,0,0
77,-433,0,0,0,0,0,0,0,0,0,-1,1301,1457,0,0
84,-433,0,0,0,0,0,0,0,0,0,-1,1308,1457,0,0
91,-433,0,0,0,0,0,0,0,0,0,-1,1315,1457,0,0
98,-433,0,0,0,0,0,0,0,0,0,-1,1322,1457,0,0
105,-433,0,0,0,0,0,0,0,0,0,-1,1329,1457,0,0
112,-433,0,0,0,0,0,0,0,0,0,-1,1336,1457,0,0
119,-433,0,0,0,0,0,0,0,0,0,-1,1343,1457,0,0
126,-433,0,0,0,0,0,0,0,0,0,-1,1350,1457,0,0
133,-433,0,0,0,0,0,0,0,0,0,-1,1357,1457,0,0
140,-433,0,0,0,0,0,0,0,0,0,-1,1364,1457,0,0
147,-433,0,0,0,0,0,0,0,0,0,-1,1371,1457,0,0
154,-433,0,0,0,0,0,0,0,0,0,-1,1378,1457,0,0
161,-433,0,0,0,0,0,0,0,0,0,-1,1385,1457,0,0
168,-433,0,0,0,0,0,0,0,0,0,-1,1392,1457,0,0
175,-433,0,0,0,0,0,0,0,0,0,-1,1399,1457,0,0
182,-433,0,0,0,0,0,0,0,0,0,-1,1406,1457,0,0
189,-433,0,0,0,0,0,0,0,0,0,-1,1413,1457,0,0
196,-433,0,0,0,0,0,0,0,0,0,-1,1420,1457,0,0
203,-433,0,0,0,0,0,0,0,0,0,-1,1427,1457,0,0
210,-433,0,0,0,0,0,0,0,0,0,-1,1434,1457,0,0
217,-433,0,0,0,0,0,0,0,0,0,-1,1441,1457,0,0
224,-433,0,0,0,0,0,0,0,0,0,-1,1448,1457,0,0
231,-433,0,0,0,0,0,0,0,0,0,-1,1455,1457,0,0
238,-433,0,0,0,0,0,0,0,0,0,-1,1462,1457,0,0
245,-433,0,0,0,0,0,0,0,0,0,-1,1469,1457,0,0
252,-433,0,0,0,0,0,0,0,0,0,-1,1476,1457,0,0
259,-433,0,0,0,0,0,0,0,0,0,-1,1483,1457,0,0
266,-433,0,0,0,0,0,0,0,0,0,-1,1490,1457,0,0
273,-433,0,0,0,0,0,0,0,0,0,-1,1497,1457,0,0
280,-433,0,0,0,0,0,0,0,0,0,-1,1504,1457,0,0
287,-433,0,0,0,0,0,0,0,0,0,-1,1511,1457,0,0
294,-433,0,0,0,0,0,0,0,0,0,-1,1518,1457,0,0
301,-433,0,0,0,0,0,0,0,0,0,-1,1525,1457,0,0
308,-433,0,0,0,0,0,0,0,0,0,-1,1532,1457,0,0
315,-433,0,0,0,0,0,0,0,0,0,-1,1539,1457,0,0
322,-433,0,0,0,0,0,0,0,0,0,-1,1546,1457,0,0
329,-433,0,0,0,0,0,0,0,0,0,-1,1553,1457,0,0
336,-433,0,0,0,0,0,0,0,0,0,-1,1560,1457,0,0
343,-433,0,0,0,0,0,0,0,0,0,-1,1567,1457,0,0
350,-433,0,0,0,0,0,0,0,0,0,-1,1574,1457,0,0
357,-433,0,0,0,0,0,0,0,0,0,-1,1581,1457,0,0
364,-433,0,0,0,0,0,0,0,0,0,-1,1588,1457,0,0
371,-433,0,0,0,0,0,0,0,0,0,-1,1595,1457,0,0
378,-433,0,0,0,0,0,0,0,0,0,-1,1602,1457,0,0
385,-433,0,0,0,0,0,0,0,0,0,-1,1609,1457,0,0
392,-433,0,0,0,0,0,0,0,0,0,-1,1616,1457,0,0
399,-433,0,0,0,0,0,0,0,0,0,-1,1623,1457,0,0
406,-433,0,0,0,0,0,0,0,0,0,-1,1630,1457,0,0
413,-433,0,0,0,0,0,0,0,0,0,-1,1637,1457,0,0
420,-433,0,0,0,0,0,0,0,0,0,-1,1644,1457,0,0
427,-433,0,0,0,0,0,0,0,0,0,-1,1651,1457,0,0
434,-433,0,0,0,0,0,0,0,0,0,-1,1658,1457,0,0
441,-433,0,0,0,0,0,0,0,0,0,-1,1665,1457,0,0
448,-433,0,0,0,0,0,0,0,0,0,-1,1672,1457,0,0
455,-433,0,0,0,0,0,0,0,0,0,-1,1679,1457,0,0
462,-433,0,0,0,0,0,0,0,0,0,-1,1686,1457,0,0
469,-433,0,0,0,0,0,0,0,0,0,-1,1693,1457,0,0
476,-433,0,0,0,0,0,0,0,0,0,-1,1700,1457,0,0
483,-433,0,0,0,0,0,0,0,0,0,-1,1707,1457,0,0
490,-433,0,0,0,0,0,0,0,0,0,-1,1714,1457,0,0
497,-433,0,0,0,0,0,0,0,0,0,-1,1721,1457,0,0
504,-433,19.9058,3.03662,0,0,0,0,0,0,0,-1,1728,1457,19.9058,-3.03656
511,-433,19.0145,3.07837,0,0,0,0,0,0,0,-1,1735,1457,19.0146,-3.07834
518,-433,18.071,3.06433,0,0,0,0,0,0,0,-1,1742,1457,18.071,-3.06432
525,-433,17.2048,3.37085,0,0,0,0,0,0,0,-1,1749,1457,17.2049,-3.37083
532,-433,16.5637,3.36646,0,0,0,0,0,0,0,-1,1756,1457,16.5637,-3.36643
539,-433,15.9193,3.30396,0,0,0,0,0,0,0,-1,1763,1457,15.9193,-3.30394
546,-433,23.1903,4.81775,0,0,0,0,0,0,0,-1,1770,1457,23.1903,-4.81775
553,-433,13.9674,11.5781,0,0,0,0,0,0,0,-1,1777,1457,13.9674,-11.5781
560,-433,13.9855,11.7341,0,0,0,0,0,0,0,-1,1784,1457,13.9855,-11.7341
567,-433,13.9264,11.3364,0,0,0,0,0,0,0,-1,1791,1457,13.9263,-11.3364
574,-433,14.6343,11.3125,0,0,0,0,0,0,0,-1,1798,1457,14.6342,-11.3125
581,-433,15.4233,11.1111,0,0,0,0,0,0,0,-1,1805,1457,15.4234,-11.111
588,-433,15.6017,11.2344,0,0,0,0,0,0,0,-1,1812,1457,15.6017,-11.2343
595,-433,15.5967,10.8064,-0.0164947,-0.00683631,0.00822134,-0.00213074,-0.0212002,1.05095,0.0134795,0.026227,1819,1457,15.5966,-10.8064
602,-433,15.6083,10.4879,-0.0128586,-0.00479447,0.00613259,-0.00148717,-0.0161659,1.07621,0.0103173,0.0201787,1826,1457,15.6083,-10.4879
609,-433,15.6327,10.1837,-0.00958659,-0.00334706,0.0045056,-0.000986553,-0.0119471,1.08821,0.0076571,0.0156378,1833,1457,15.6327,-10.1837
616,-433,15.6178,9.88867,-0.00663843,-0.00239866,0.00323786,-0.000648446,-0.00838864,1.07524,0.0053893,0.0133886,1840,1457,15.6178,-9.88867
623,-433,15.5872,9.57605,-0.00389225,-0.00168441,0.0021297,-0.000389523,-0.00518713,1.02451,0.00333584,0.0109808,1847,1457,15.5872,-9.57599
630,-433,15.5863,9.29761,-0.00152126,-0.00143383,0.00142134,-5.55306e-05,-0.00289956,0.800771,0.0019148,0.0136106,1854,1457,15.5863,-9.29758
637,-433,15.589,9.02319,0.000490465,-0.00134299,0.00095514,0.000897627,-0.00175015,0.402959,0.00155488,0.0141894,1861,1457,15.589,-9.02316
644,-433,15.5691,8.7356,0.00226024,-0.00152509,0.000703843,0.00238688,-0.00165172,0.178016,0.00234453,0.0156347,1868,1457,15.5691,-8.73555
651,-433,15.5735,8.40601,0.00334873,-0.00201989,0.000869341,0.00348599,-0.00215715,0.1566,0.00328804,0.0123424,1875,1457,15.5735,-8.40601
658,-433,15.5778,8.05884,0.00383024,-0.00254051,0.00128736,0.00408055,-0.00279082,0.192038,0.00399041,0.0164999,1882,1457,15.5777,-8.05888
665,-433,15.7256,7.58972,0,0,0,0,0,0,0,-1,1889,1457,15.7256,-7.58977
672,-433,15.3237,7.87744,0,0,0,0,0,0,0,-1,1896,1457,15.3237,-7.87748
679,-433,14.6172,8.03528,0,0,0,0,0,0,0,-1,1903,1457,14.6172,-8.03524
686,-433,13.6356,8.61694,0,0,0,0,0,0,0,-1,1910,1457,13.6356,-8.61694
693,-433,13.4081,8.39624,0,0,0,0,0,0,0,-1,1917,1457,13.4081,-8.39624
700,-433,7.16809,-1.5166,0,0,0,0,0,0,0,-1,1924,1457,7.16806,1.51656
707,-433,8.68359,-2.82202,0,0,0,0,0,0,0,-1,1931,1457,8.68359,2.82197
714,-433,0,0,0,0,0,0,0,0,0,-1,1938,1457,0,0
721,-433,0,0,0,0,0,0,0,0,0,-1,1945,1457,0,0
728,-433,0,0,0,0,0,0,0,0,0,-1,1952,1457,0,0
735,-433,0,0,0,0,0,0,0,0,0,-1,1959,1457,0,0
742,-433,0,0,0,0,0,0,0,0,0,-1,1966,1457,0,0
749,-433,0,0,0,0,0,0,0,0,0,-1,1973,1457,0,0
756,-433,0,0,0,0,0,0,0,0,0,-1,1980,1457,0,0
763,-433,0,0,0,0,0,0,0,0,0,-1,1987,1457,0,0
770,-433,0,0,0,0,0,0,0,0,0,-1,1994,1457,0,0
777,-433,0,0,0,0,0,0,0,0,0,-1,2001,1457,0,0
784,-433,0,0,0,0,0,0,0,0,0,-1,2008,1457,0,0
791,-433,0,0,0,0,0,0,0,0,0,-1,2015,1457,0,0
798,-433,0,0,0,0,0,0,0,0,0,-1,2022,1457,0,0
805,-433,0,0,0,0,0,0,0,0,0,-1,2029,1457,0,0
812,-433,0,0,0,0,0,0,0,0,0,-1,2036,1457,0,0
-700,-440,0,0,0,0,0,0,0,0,0,-1,524,1464,0,0
-693,-440,0,0,0,0,0,0,0,0,0,-1,531,1464,0,0
-686,-440,0,0,0,0,0,0,0,0,0,-1,538,1464,0,0
-679,-440,0,0,0,0,0,0,0,0,0,-1,545,1464,0,0
-672,-440,0,0,0,0,0,0,0,0,0,-1,552,1464,0,0
-665,-440,0,0,0,0,0,0,0,0,0,-1,559,1464,0,0
-658,-440,0,0,0,0,0,0,0,0,0,-1,566,1464,0,0
-651,-440,0,0,0,0,0,0,0,0,0,-1,573,1464,0,0
-644,-440,0,0,0,0,0,0,0,0,0,-1,580,1464,0,0
-637,-440,0,0,0,0,0,0,0,0,0,-1,587,1464,0,0
-630,-440,0,0,0,0,0,0,0,0,0,-1,594,1464,0,0
-623,-440,0,0,0,0,0,0,0,0,0,-1,601,1464,0,0
-616,-440,0,0,0,0,0,0,0,0,0,-1,608,1464,0,0
-609,-440,0,0,0,0,0,0,0,0,0,-1,615,1464,0,0
-602,-440,0,0,0,0,0,0,0,0,0,-1,622,1464,0,0
-595,-440,0,0,0,0,0,0,0,0,0,-1,629,1464,0,0
-588,-440,0,0,0,0,0,0,0,0,0,-1,636,1464,0,0
-581,-440,-8.97278,0.254517,0,0,0,0,0,0,0,-1,643,1464,-8.97276,-0.254526
-574,-440,-7.00818,-0.918579,0,0,0,0,0,0,0,-1,650,1464,-7.00817,0.918538
-567,-440,-6.12152,-0.0766602,0,0,0,0,0,0,0,-1,657,1464,-6.12151,0.0767097
-560,-440,-5.46747,0.82251,0,0,0,0,0,0,0,-1,664,1464,-5.46748,-0.822551
-553,-440,-6.84729,0.0831299,0,0,0,0,0,0,0,-1,671,1464,-6.84732,-0.083136
-546,-440,-5.63446,-0.153198,0,0,0,0,0,0,0,-1,678,1464,-5.63447,0.153147
-539,-440,-4.72571,4.99194,0,0,0,0,0,0,0,-1,685,1464,-4.72568,-4.99192
-532,-440,-4.71741,5.63586,0.0274433,0.0229302,0.0220088,0.047311,0.00306256,0.734312,0.030571,0.0422695,692,1464,-4.71742,-5.6359
-525,-440,-4.80103,6.21399,0.0203184,0.0180755,0.0169203,0.0361544,0.00223947,0.752307,0.0233922,0.0261049,699,1464,-4.80103,-6.21401
-518,-440,-4.80743,6.48669,0.0146945,0.0137755,0.0126502,0.0268936,0.0015764,0.767244,0.0174274,0.0162989,706,1464,-4.80744,-6.48667
-511,-440,-4.79199,6.84583,0.0103386,0.0101189,0.00912285,0.0193523,0.00110523,0.779379,0.0125493,0.0160941,713,1464,-4.79201,-6.84582
-504,-440,-4.79083,7.18848,0.00696585,0.0067838,0.00606655,0.0129421,0.000807598,0.777896,0.00837183,0.0186918,720,1464,-4.79081,-7.18848
-497,-440,-4.80414,7.52832,0.00430896,0.00375672,0.00316062,0.0072055,0.000860184,0.741827,0.00454416,0.0213949,727,1464,-4.80413,-7.52835
-490,-440,-4.81842,7.80725,0.00246008,0.00135887,0.00038523,0.00258147,0.00123748,0.305243,0.00149083,0.0215915,734,1464,-4.81845,-7.80724
-483,-440,-4.81702,8.15088,0.000993879,-0.00115255,-0.00243137,0.00257837,-0.00273703,-0.577558,0.0030693,0.0184841,741,1464,-4.81704,-8.15084
-476,-440,-4.82489,8.50574,-0.000681464,-0.00434021,-0.00592509,0.00369024,-0.00871191,-0.635666,0.00735343,0.0121012,748,1464,-4.82492,-8.50568
-469,-440,-4.83252,8.85083,-0.00158541,-0.00687933,-0.00915586,0.00529843,-0.0137632,-0.644685,0.0113612,0.0117626,755,1464,-4.83254,-8.85086
-462,-440,-4.8576,9.18066,-0.00209469,-0.00988163,-0.01295,0.00753452,-0.0195108,-0.63937,0.0161169,0.0134791,762,1464,-4.8576,-9.18063
-455,-440,-4.77264,9.55408,-0.00278476,-0.0136266,-0.0176914,0.0102976,-0.026709,-0.636732,0.022055,0.0210911,769,1464,-4.77263,-9.5541
-448,-440,-4.49139,9.97803,0,0,0,0,0,0,0,-1,776,1464,-4.49136,-9.97806
-441,-440,-4.77484,9.40393,0,0,0,0,0,0,0,-1,783,1464,-4.77487,-9.40395
-434,-440,-4.94073,9.31323,0,0,0,0,0,0,0,-1,790,1464,-4.94075,-9.31321
-427,-440,-3.7644,10.0846,0,0,0,0,0,0,0,-1,797,1464,-3.76441,-10.0846
-420,-440,-3.84052,9.66321,0,0,0,0,0,0,0,-1,804,1464,-3.84054,-9.66322
-413,-440,-3.46796,5.72278,0,0,0,0,0,0,0,-1,811,1464,-3.46797,-5.72276
-406,-440,-5.2887,5.20264,0,0,0,0,0,0,0,-1,818,1464,-5.2887,-5.20261
-399,-440,-12.7318,3.94421,0,0,0,0,0,0,0,-1,825,1464,-12.7318,-3.94419
-392,-440,-13.5565,2.51855,0,0,0,0,0,0,0,-1,832,1464,-13.5565,-2.51861
-385,-440,-14.6741,1.39795,0,0,0,0,0,0,0,-1,839,1464,-14.6741,-1.39801
-378,-440,-15.8063,0.293457,0,0,0,0,0,0,0,-1,846,1464,-15.8063,-0.293412
-371,-440,0,0,0,0,0,0,0,0,0,-1,853,1464,0,0
-364,-440,0,0,0,0,0,0,0,0,0,-1,860,1464,0,0
-357,-440,0,0,0,0,0,0,0,0,0,-1,867,1464,0,0
-350,-440,0,0,0,0,0,0,0,0,0,-1,874,1464,0,0
-343,-440,0,0,0,0,0,0,0,0,0,-1,881,1464,0,0
-336,-440,0,0,0,0,0,0,0,0,0,-1,888,1464,0,0
-329,-440,0,0,0,0,0,0,0,0,0,-1,895,1464,0,0
-322,-440,0,0,0,0,0,0,0,0,0,-1,902,1464,0,0
-315,-440,0,0,0,0,0,0,0,0,0,-1,909,1464,0,0
-308,-440,0,0,0,0,0,0,0,0,0,-1,916,1464,0,0
-301,-440,0,0,0,0,0,0,0,0,0,-1,923,1464,0,0
-294,-440,0,0,0,0,0,0,0,0,0,-1,930,1464,0,0
-287,-440,0,0,0,0,0,0,0,0,0,-1,937,1464,0,0
-280,-440,0,0,0,0,0,0,0,0,0,-1,944,1464,0,0
-273,-440,0,0,0,0,0,0,0,0,0,-1,951,1464,0,0
-266,-440,0,0,0,0,0,0,0,0,0,-1,958,1464,0,0
-259,-440,0,0,0,0,0,0,0,0,0,-1,965,1464,0,0
-252,-440,0,0,0,0,0,0,0,0,0,-1,972,1464,0,0
-245,-440,0,0,0,0,0,0,0,0,0,-1,979,1464,0,0
-238,-440,0,0,0,0,0,0,0,0,0,-1,986,1464,0,0
-231,-440,0,0,0,0,0,0,0,0,0,-1,993,1464,0,0
-224,-440,0,0,0,0,0,0,0,0,0,-1,1000,1464,0,0
-217,-440,0,0,0,0,0,0,0,0,0,-1,1007,1464,0,0
-210,-440,0,0,0,0,0,0,0,0,0,-1,1014,1464,0,0
-203,-440,0,0,0,0,0,0,0,0,0,-1,1021,1464,0,0
-196,-440,0,0,0,0,0,0,0,0,0,-1,1028,1464,0,0
-189,-440,0,0,0,0,0,0,0,0,0,-1,1035,1464,0,0
-182,-440,0,0,0,0,0,0,0,0,0,-1,1042,1464,0,0
-175,-440,0,0,0,0,0,0,0,0,0,-1,1049,1464,0,0
-168,-440,0,0,0,0,0,0,0,0,0,-1,1056,1464,0,0
-161,-440,0,0,0,0,0,0,0,0,0,-1,1063,1464,0,0
-154,-440,0,0,0,0,0,0,0,0,0,-1,1070,1464,0,0
-147,-440,0,0,0,0,0,0,0,0,0,-1,1077,1464,0,0
-140,-440,0,0,0,0,0,0,0,0,0,-1,1084,1464,0,0
-133,-440,0,0,0,0,0,0,0,0,0,-1,1091,1464,0,0
-126,-440,0,0,0,0,0,0,0,0,0,-1,1098,1464,0,0
-119,-440,0,0,0,0,0,0,0,0,0,-1,1105,1464,0,0
-112,-440,0,0,0,0,0,0,0,0,0,-1,1112,1464,0,0
-105,-440,0,0,0,0,0,0,0,0,0,-1,1119,1464,0,0
-98,-440,0,0,0,0,0,0,0,0,0,-1,1126,1464,0,0
-91,-440,0,0,0,0,0,0,0,0,0,-1,1133,1464,0,0
-84,-440,0,0,0,0,0,0,0,0,0,-1,1140,1464,0,0
-77,-440,0,0,0,0,0,0,0,0,0,-1,1147,1464,0,0
-70,-440,0,0,0,0,0,0,0,0,0,-1,1154,1464,0,0
-63,-440,0,0,0,0,0,0,0,0,0,-1,1161,1464,0,0
-56,-440,0,0,0,0,0,0,0,0,0,-1,1168,1464,0,0
-49,-440,0,0,0,0,0,0,0,0,0,-1,1175,1464,0,0
-42,-440,0,0,0,0,0,0,0,0,0,-1,1182,1464,0,0
-35,-440,0,0,0,0,0,0,0,0,0,-1,1189,1464,0,0
-28,-440,0,0,0,0,0,0,0,0,0,-1,1196,1464,0,0
-21,-440,0,0,0,0,0,0,0,0,0,-1,1203,1464,0,0
-14,-440,0,0,0,0,0,0,0,0,0,-1,1210,1464,0,0
-7,-440,0,0,0,0,0,0,0,0,0,-1,1217,1464,0,0
0,-440,0,0,0,0,0,0,0,0,0,-1,1224,1464,0,0
7,-440,0,0,0,0,0,0,0,0,0,-1,1231,1464,0,0
14,-440,0,0,0,0,0,0,0,0,0,-1,1238,1464,0,0
21,-440,0,0,0,0,0,0,0,0,0,-1,1245,1464,0,0
28,-440,0,0,0,0,0,0,0,0,0,-1,1252,1464,0,0
35,-440,0,0,0,0,0,0,0,0,0,-1,1259,1464,0,0
42,-440,0,0,0,0,0,0,0,0,0,-1,1266,1464,0,0
49,-440,0,0,0,0,0,0,0,0,0,-1,1273,1464,0,0
56,-440,0,0,0,0,0,0,0,0,0,-1,1280,1464,0,0
63,-440,0,0,0,0,0,0,0,0,0,-1,1287,1464,0,0
70,-440,0,0,0,0,0,0,0,0,0,-1,1294,1464,0,0
77,-440,0,0,0,0,0,0,0,0,0,-1,1301,1464,0,0
84,-440,0,0,0,0,0,0,0,0,0,-1,1308,1464,0,0
91,-440,0,0,0,0,0,0,0,0,0,-1,1315,1464,0,0
98,-440,0,0,0,0,0,0,0,0,0,-1,1322,1464,0,0
105,-440,0,0,0,0,0,0,0,0,0,-1,1329,1464,0,0
112,-440,0,0,0,0,0,0,0,0,0,-1,1336,1464,0,0
119,-440,0,0,0,0,0,0,0,0,0,-1,1343,1464,0,0
126,-440,0,0,0,0,0,0,0,0,0,-1,1350,1464,0,0
133,-440,0,0,0,0,0,0,0,0,0,-1,1357,1464,0,0
140,-440,0,0,0,0,0,0,0,0,0,-1,1364,1464,0,0
147,-440,0,0,0,0,0,0,0,0,0,-1,1371,1464,0,0
154,-440,0,0,0,0,0,0,0,0,0,-1,1378,1464,0,0
161,-440,0,0,0,0,0,0,0,0,0,-1,1385,1464,0,0
168,-440,0,0,0,0,0,0,0,0,0,-1,1392,1464,0,0
175,-440,0,0,0,0,0,0,0,0,0,-1,1399,1464,0,0
182,-440,0,0,0,0,0,0,0,0,0,-1,1406,1464,0,0
189,-440,0,0,0,0,0,0,0,0,0,-1,1413,1464,0,0
196,-440,0,0,0,0,0,0,0,0,0,-1,1420,1464,0,0
203,-440,0,0,0,0,0,0,0,0,0,-1,1427,1464,0,0
210,-440,0,0,0,0,0,0,0,0,0,-1,1434,1464,0,0
217,-440,0,0,0,0,0,0,0,0,0,-1,1441,1464,0,0
224,-440,0,0,0,0,0,0,0,0,0,-1,1448,1464,0,0
231,-440,0,0,0,0,0,0,0,0,0,-1,1455,1464,0,0
238,-440,0,0,0,0,0,0,0,0,0,-1,1462,1464,0,0
245,-440,0,0,0,0,0,0,0,0,0,-1,1469,1464,0,0
252,-440,0,0,0,0,0,0,0,0,0,-1,1476,1464,0,0
259,-440,0,0,0,0,0,0,0,0,0,-1,1483,1464,0,0
266,-440,0,0,0,0,0,0,0,0,0,-1,1490,1464,0,0
273,-440,0,0,0,0,0,0,0,0,0,-1,1497,1464,0,0
280,-440,0,0,0,0,0,0,0,0,0,-1,1504,1464,0,0
287,-440,0,0,0,0,0,0,0,0,0,-1,1511,1464,0,0
294,-440,0,0,0,0,0,0,0,0,0,-1,1518,1464,0,0
301,-440,0,0,0,0,0,0,0,0,0,-1,1525,1464,0,0
308,-440,0,0,0,0,0,0,0,0,0,-1,1532,1464,0,0
315,-440,0,0,0,0,0,0,0,0,0,-1,1539,1464,0,0
322,-440,0,0,0,0,0,0,0,0,0,-1,1546,1464,0,0
329,-440,0,0,0,0,0,0,0,0,0,-1,1553,1464,0,0
336,-440,0,0,0,0,0,0,0,0,0,-1,1560,1464,0,0
343,-440,0,0,0,0,0,0,0,0,0,-1,1567,1464,0,0
350,-440,0,0,0,0,0,0,0,0,0,-1,1574,1464,0,0
357,-440,0,0,0,0,0,0,0,0,0,-1,1581,1464,0,0
364,-440,0,0,0,0,0,0,0,0,0,-1,1588,1464,0,0
371,-440,0,0,0,0,0,0,0,0,0,-1,1595,1464,0,0
378,-440,0,0,0,0,0,0,0,0,0,-1,1602,1464,0,0
385,-440,0,0,0,0,0,0,0,0,0,-1,1609,1464,0,0
392,-440,0,0,0,0,0,0,0,0,0,-1,1616,1464,0,0
399,-440,0,0,0,0,0,0,0,0,0,-1,1623,1464,0,0
406,-440,0,0,0,0,0,0,0,0,0,-1,1630,1464,0,0
413,-440,0,0,0,0,0,0,0,0,0,-1,1637,1464,0,0
420,-440,0,0,0,0,0,0,0,0,0,-1,1644,1464,0,0
427,-440,0,0,0,0,0,0,0,0,0,-1,1651,1464,0,0
434,-440,0,0,0,0,0,0,0,0,0,-1,1658,1464,0,0
441,-440,0,0,0,0,0,0,0,0,0,-1,1665,1464,0,0
448,-440,0,0,0,0,0,0,0,0,0,-1,1672,1464,0,0
455,-440,0,0,0,0,0,0,0,0,0,-1,1679,1464,0,0
462,-440,0,0,0,0,0,0,0,0,0,-1,1686,1464,0,0
469,-440,0,0,0,0,0,0,0,0,0,-1,1693,1464,0,0
476,-440,0,0,0,0,0,0,0,0,0,-1,1700,1464,0,0
483,-440,0,0,0,0,0,0,0,0,0,-1,1707,1464,0,0
490,-440,0,0,0,0,0,0,0,0,0,-1,1714,1464,0,0
497,-440,16.965,-0.528442,0,0,0,0,0,0,0,-1,1721,1464,16.965,0.528492
504,-440,15.8052,0.670166,0,0,0,0,0,0,0,-1,1728,1464,15.8052,-0.670145
511,-440,17.5754,2.77832,0,0,0,0,0,0,0,-1,1735,1464,17.5754,-2.77826
518,-440,16.9017,3.07861,0,0,0,0,0,0,0,-1,1742,1464,16.9018,-3.07859
525,-440,18.4495,12.0867,0,0,0,0,0,0,0,-1,1749,1464,18.4495,-12.0867
532,-440,15.4319,3.64392,0,0,0,0,0,0,0,-1,1756,1464,15.4318,-3.64391
539,-440,14.8214,3.41321,0,0,0,0,0,0,0,-1,1763,1464,14.8214,-3.4132
546,-440,14.8651,10.7683,0,0,0,0,0,0,0,-1,1770,1464,14.8651,-10.7683
553,-440,15.1213,11.4121,0,0,0,0,0,0,0,-1,1777,1464,15.1213,-11.4121
560,-440,14.9557,11.5443,0,0,0,0,0,0,0,-1,1784,1464,14.9556,-11.5443
567,-440,15.6853,11.2018,0,0,0,0,0,0,0,-1,1791,1464,15.6853,-11.2018
574,-440,14.9016,11.4719,0,0,0,0,0,0,0,-1,1798,1464,14.9016,-11.4719
581,-440,15.2463,11.28,-0.0179925,-0.0100468,0.0104568,-0.00283362,-0.0252058,0.966941,0.0159435,0.0491511,1805,1464,15.2463,-11.2801
588,-440,15.2644,11.1119,-0.0144647,-0.00724896,0.00789231,-0.00217896,-0.0195347,0.999784,0.012361,0.0406527,1812,1464,15.2645,-11.1119
595,-440,15.2703,10.8119,-0.0115137,-0.00516116,0.00603221,-0.00152009,-0.0151548,1.02773,0.00963655,0.0208367,1819,1464,15.2702,-10.8119
602,-440,15.311,10.496,-0.0089539,-0.00361353,0.00452879,-0.00102635,-0.0115411,1.05177,0.00737578,0.0191995,1826,1464,15.311,-10.4959
609,-440,15.3079,10.1936,-0.00648733,-0.00259245,0.00334474,-0.000669517,-0.00841026,1.04903,0.00539753,0.0164828,1833,1464,15.3078,-10.1936
616,-440,15.292,9.90027,-0.00417871,-0.00191743,0.00241999,-0.000376991,-0.00571916,1.00393,0.00369353,0.0171297,1840,1464,15.292,-9.90021
623,-440,15.2903,9.57446,-0.00190209,-0.00145735,0.00159601,-6.82906e-05,-0.00329115,0.854616,0.00217169,0.0133736,1847,1464,15.2903,-9.5745
630,-440,15.2816,9.26062,0.000165952,-0.00142769,0.00111566,0.000740126,-0.00200187,0.475297,0.00163801,0.011124,1854,1464,15.2817,-9.26067
637,-440,15.2832,9.02319,0.00204965,-0.00156888,0.00082272,0.00222792,-0.00174715,0.213389,0.0023006,0.0149001,1861,1464,15.2832,-9.02313
644,-440,15.2815,8.73242,0.00382943,-0.00195249,0.000695909,0.00391201,-0.00203507,0.118112,0.00349008,0.0141998,1868,1464,15.2815,-8.73246
651,-440,15.3138,8.39197,0.00487372,-0.0027658,0.00108405,0.00502457,-0.00291665,0.138265,0.00463839,0.0137743,1875,1464,15.3139,-8.39202
658,-440,15.2573,8.1344,0.00554797,-0.00354003,0.00159371,0.00581935,-0.00381141,0.168662,0.00560046,0.0248348,1882,1464,15.2574,-8.13439
665,-440,15.3505,7.91541,0,0,0,0,0,0,0,-1,1889,1464,15.3505,-7.91537
672,-440,14.853,8.05652,0,0,0,0,0,0,0,-1,1896,1464,14.8531,-8.05651
679,-440,14.3743,8.04651,0,0,0,0,0,0,0,-1,1903,1464,14.3743,-8.0465
686,-440,13.8065,8.06152,0,0,0,0,0,0,0,-1,1910,1464,13.8065,-8.0615
693,-440,9.88635,2.89795,0,0,0,0,0,0,0,-1,1917,1464,9.88638,-2.89798
700,-440,7.07825,-2.62061,0,0,0,0,0,0,0,-1,1924,1464,7.07829,2.62057
707,-440,0,0,0,0,0,0,0,0,0,-1,1931,1464,0,0
714,-440,0,0,0,0,0,0,0,0,0,-1,1938,1464,0,0
721,-440,0,0,0,0,0,0,0,0,0,-1,1945,1464,0,0
728,-440,0,0,0,0,0,0,0,0,0,-1,1952,1464,0,0
735,-440,0,0,0,0,0,0,0,0,0,-1,1959,1464,0,0
742,-440,0,0,0,0,0,0,0,0,0,-1,1966,1464,0,0
749,-440,0,0,0,0,0,0,0,0,0,-1,1973,1464,0,0
756,-440,0,0,0,0,0,0,0,0,0,-1,1980,1464,0,0
763,-440,0,0,0,0,0,0,0,0,0,-1,1987,1464,0,0
770,-440,0,0,0,0,0,0,0,0,0,-1,1994,1464,0,0
777,-440,0,0,0,0,0,0,0,0,0,-1,2001,1464,0,0
784,-440,0,0,0,0,0,0,0,0,0,-1,2008,1464,0,0
791,-440,0,0,0,0,0,0,0,0,0,-1,2015,1464,0,0
798,-440,0,0,0,0,0,0,0,0,0,-1,2022,1464,0,0
805,-440,0,0,0,0,0,0,0,0,0,-1,2029,1464,0,0
812,-440,0,0,0,0,0,0,0,0,0,-1,2036,1464,0,0
-700,-447,0,0,0,0,0,0,0,0,0,-1,524,1471,0,0
-693,-447,0,0,0,0,0,0,0,0,0,-1,531,1471,0,0
-686,-447,0,0,0,0,0,0,0,0,0,-1,538,1471,0,0
-679,-447,0,0,0,0,0,0,0,0,0,-1,545,1471,0,0
-672,-447,0,0,0,0,0,0,0,0,0,-1,552,1471,0,0
-665,-447,0,0,0,0,0,0,0,0,0,-1,559,1471,0,0
-658,-447,0,0,0,0,0,0,0,0,0,-1,566,1471,0,0
-651,-447,0,0,0,0,0,0,0,0,0,-1,573,1471,0,0
-644,-447,0,0,0,0,0,0,0,0,0,-1,580,1471,0,0
-637,-447,0,0,0,0,0,0,0,0,0,-1,587,1471,0,0
-630,-447,0,0,0,0,0,0,0,0,0,-1,594,1471,0,0
-623,-447,0,0,0,0,0,0,0,0,0,-1,601,1471,0,0
-616,-447,0,0,0,0,0,0,0,0,0,-1,608,1471,0,0
-609,-447,0,0,0,0,0,0,0,0,0,-1,615,1471,0,0
-602,-447,0,0,0,0,0,0,0,0,0,-1,622,1471,0,0
-595,-447,0,0,0,0,0,0,0,0,0,-1,629,1471,0,0
-588,-447,0,0,0,0,0,0,0,0,0,-1,636,1471,0,0
-581,-447,-7.06482,-1.50476,0,0,0,0,0,0,0,-1,643,1471,-7.0648,1.50474
-574,-447,-6.88092,-0.00585938,0,0,0,0,0,0,0,-1,650,1471,-6.88095,0.00589852
-567,-447,-6.8205,-1.32178,0,0,0,0,0,0,0,-1,657,1471,-6.82047,1.32172
-560,-447,-8.85748,2.80774,0,0,0,0,0,0,0,-1,664,1471,-8.85748,-2.80775
-553,-447,-7.60486,3.26794,0,0,0,0,0,0,0,-1,671,1471,-7.60487,-3.26799
-546,-447,-3.94501,1.8656,0,0,0,0,0,0,0,-1,678,1471,-3.945,-1.86554
-539,-447,-4.71075,4.34424,0,0,0,0,0,0,0,-1,685,1471,-4.71076,-4.34424
-532,-447,-4.55652,5.2594,0.0390453,0.0319961,0.029315,0.0650469,0.00599453,0.725569,0.0415109,0.0495916,692,1471,-4.55655,-5.25936
-525,-447,-4.3197,6.24365,0.0291937,0.0246026,0.0223402,0.049356,0.0044403,0.734201,0.0315283,0.0364154,699,1471,-4.31969,-6.2437
-518,-447,-4.4527,6.46619,0.021366,0.0184001,0.0166191,0.0365681,0.00319793,0.7409,0.0233858,0.0292429,706,1471,-4.45271,-6.46615
-511,-447,-4.46588,6.8175,0.0153013,0.0132641,0.0119971,0.0263229,0.00224243,0.743049,0.016851,0.0166906,713,1471,-4.46589,-6.81756
-504,-447,-4.4718,7.19104,0.0105973,0.00899525,0.00818476,0.0180201,0.0015724,0.73662,0.0115251,0.0197825,720,1471,-4.47179,-7.19102
-497,-447,-4.49628,7.54358,0.00695805,0.0054286,0.00486095,0.0111141,0.00127259,0.707378,0.00702371,0.0251118,727,1471,-4.49629,-7.54363
-490,-447,-4.44788,7.82654,0.00440779,0.00268367,0.00191054,0.00564176,0.00144971,0.573467,0.00338311,0.0251612,734,1471,-4.44786,-7.82659
-483,-447,-4.48212,8.14954,0.00253379,6.87428e-05,-0.000884414,0.00281827,-0.000215738,-0.311208,0.00195473,0.0215209,741,1471,-4.48211,-8.14954
-476,-447,-4.50037,8.49915,0.000491459,-0.00316813,-0.00425457,0.00329302,-0.00596969,-0.582316,0.00542175,0.0133841,748,1471,-4.50034,-8.49916
-469,-447,-4.50403,8.85254,-0.000533328,-0.00550231,-0.00705175,0.0044588,-0.0104944,-0.616027,0.00886458,0.0118837,755,1471,-4.50405,-8.85258
-462,-447,-4.51233,9.18384,-0.000698481,-0.00806085,-0.0100569,0.00632981,-0.0150891,-0.609954,0.0127062,0.0121026,762,1471,-4.51231,-9.18384
-455,-447,-4.54083,9.52075,-0.000910032,-0.0111269,-0.0137058,0.00860839,-0.0206453,-0.607013,0.0173597,0.0144076,769,1471,-4.54082,-9.52073
-448,-447,-4.43896,9.88025,-0.00104112,-0.0151492,-0.0182033,0.0114271,-0.0276174,-0.60055,0.0231794,0.023804,776,1471,-4.43896,-9.88027
-441,-447,-4.4646,10.1625,-0.00104862,-0.0205601,-0.0236714,0.0147986,-0.0364073,-0.589937,0.0304285,0.033944,783,1471,-4.46458,-10.1625
-434,-447,-4.43414,9.91492,-0.000986284,-0.0274885,-0.0303963,0.0189217,-0.0473965,-0.579846,0.0394478,0.0412584,790,1471,-4.43417,-9.91491
-427,-447,-4.82971,9.19641,-0.000849034,-0.0362489,-0.0382835,0.0236282,-0.0607261,-0.568865,0.0502474,0.041548,797,1471,-4.82974,-9.19636
-420,-447,-5.17096,8.78601,0,0,0,0,0,0,0,-1,804,1471,-5.17094,-8.78597
-413,-447,-4.27393,6.59705,0,0,0,0,0,0,0,-1,811,1471,-4.27392,-6.59707
-406,-447,-1.04279,6.18591,0,0,0,0,0,0,0,-1,818,1471,-1.04276,-6.18586
-399,-447,0.0134888,0.687622,0,0,0,0,0,0,0,-1,825,1471,0.0134841,-0.68767
-392,-447,-14.0646,3.76147,0,0,0,0,0,0,0,-1,832,1471,-14.0646,-3.7615
-385,-447,-15.1695,2.61865,0,0,0,0,0,0,0,-1,839,1471,-15.1695,-2.61871
-378,-447,-15.9424,1.49316,0,0,0,0,0,0,0,-1,846,1471,-15.9424,-1.49313
-371,-447,-17.3655,0.73291,0,0,0,0,0,0,0,-1,853,1471,-17.3655,-0.732946
-364,-447,0,0,0,0,0,0,0,0,0,-1,860,1471,0,0
-357,-447,0,0,0,0,0,0,0,0,0,-1,867,1471,0,0
-350,-447,0,0,0,0,0,0,0,0,0,-1,874,1471,0,0
-343,-447,0,0,0,0,0,0,0,0,0,-1,881,1471,0,0
-336,-447,0,0,0,0,0,0,0,0,0,-1,888,1471,0,0
-329,-447,0,0,0,0,0,0,0,0,0,-1,895,1471,0,0
-322,-447,0,0,0,0,0,0,0,0,0,-1,902,1471,0,0
-315,-447,0,0,0,0,0,0,0,0,0,-1,909,1471,0,0
-308,-447,0,0,0,0,0,0,0,0,0,-1,916,1471,0,0
-301,-447,0,0,0,0,0,0,0,0,0,-1,923,1471,0,0
-294,-447,0,0,0,0,0,0,0,0,0,-1,930,1471,0,0
-287,-447,0,0,0,0,0,0,0,0,0,-1,937,1471,0,0
-280,-447,0,0,0,0,0,0,0,0,0,-1,944,1471,0,0
-273,-447,0,0,0,0,0,0,0,0,0,-1,951,1471,0,0
-266,-447,0,0,0,0,0,0,0,0,0,-1,958,1471,0,0
-259,-447,0,0,0,0,0,0,0,0,0,-1,965,1471,0,0
-252,-447,0,0,0,0,0,0,0,0,0,-1,972,1471,0,0
-245,-447,0,0,0,0,0,0,0,0,0,-1,979,1471,0,0
-238,-447,0,0,0,0,0,0,0,0,0,-1,986,1471,0,0
-231,-447,0,0,0,0,0,0,0,0,0,-1,993,1471,0,0
-224,-447,0,0,0,0,0,0,0,0,0,-1,1000,1471,0,0
-217,-447,0,0,0,0,0,0,0,0,0,-1,1007,1471,0,0
-210,-447,0,0,0,0,0,0,0,0,0,-1,1014,1471,0,0
-203,-447,0,0,0,0,0,0,0,0,0,-1,1021,1471,0,0
-196,-447,0,0,0,0,0,0,0,0,0,-1,1028,1471,0,0
-189,-447,0,0,0,0,0,0,0,0,0,-1,1035,1471,0,0
-182,-447,0,0,0,0,0,0,0,0,0,-1,1042,1471,0,0
-175,-447,0,0,0,0,0,0,0,0,0,-1,1049,1471,0,0
-168,-447,0,0,0,0,0,0,0,0,0,-1,1056,1471,0,0
-161,-447,0,0,0,0,0,0,0,0,0,-1,1063,1471,0,0
-154,-447,0,0,0,0,0,0,0,0,0,-1,1070,1471,0,0
-147,-447,0,0,0,0,0,0,0,0,0,-1,1077,1471,0,0
-140,-447,0,0,0,0,0,0,0,0,0,-1,1084,1471,0,0
-133,-447,0,0,0,0,0,0,0,0,0,-1,1091,1471,0,0
-126,-447,0,0,0,0,0,0,0,0,0,-1,1098,1471,0,0
-119,-447,0,0,0,0,0,0,0,0,0,-1,1105,1471,0,0
-112,-447,0,0,0,0,0,0,0,0,0,-1,1112,1471,0,0
-105,-447,0,0,0,0,0,0,0,0,0,-1,1119,1471,0,0
-98,-447,0,0,0,0,0,0,0,0,0,-1,1126,1471,0,0
-91,-447,0,0,0,0,0,0,0,0,0,-1,1133,1471,0,0
-84,-447,0,0,0,0,0,0,0,0,0,-1,1140,1471,0,0
-77,-447,0,0,0,0,0,0,0,0,0,-1,1147,1471,0,0
-70,-447,0,0,0,0,0,0,0,0,0,-1,1154,1471,0,0
-63,-447,0,0,0,0,0,0,0,0,0,-1,1161,1471,0,0
-56,-447,0,0,0,0,0,0,0,0,0,-1,1168,1471,0,0
-49,-447,0,0,0,0,0,0,0,0,0,-1,1175,1471,0,0
-42,-447,0,0,0,0,0,0,0,0,0,-1,1182,1471,0,0
-35,-447,0,0,0,0,0,0,0,0,0,-1,1189,1471,0,0
-28,-447,0,0,0,0,0,0,0,0,0,-1,1196,1471,0,0
-21,-447,0,0,0,0,0,0,0,0,0,-1,1203,1471,0,0
-14,-447,0,0,0,0,0,0,0,0,0,-1,1210,1471,0,0
-7,-447,0,0,0,0,0,0,0,0,0,-1,1217,1471,0,0
0,-447,0,0,0,0,0,0,0,0,0,-1,1224,1471,0,0
7,-447,0,0,0,0,0,0,0,0,0,-1,1231,1471,0,0
14,-447,0,0,0,0,0,0,0,0,0,-1,1238,1471,0,0
21,-447,0,0,0,0,0,0,0,0,0,-1,1245,1471,0,0
28,-447,0,0,0,0,0,0,0,0,0,-1,1252,1471,0,0
35,-447,0,0,0,0,0,0,0,0,0,-1,1259,1471,0,0
42,-447,0,0,0,0,0,0,0,0,0,-1,1266,1471,0,0
49,-447,0,0,0,0,0,0,0,0,0,-1,1273,1471,0,0
56,-447,0,0,0,0,0,0,0,0,0,-1,1280,1471,0,0
63,-447,0,0,0,0,0,0,0,0,0,-1,1287,1471,0,0
70,-447,0,0,0,0,0,0,0,0,0,-1,1294,1471,0,0
77,-447,0,0,0,0,0,0,0,0,0,-1,1301,1471,0,0
84,-447,0,0,0,0,0,0,0,0,0,-1,1308,1471,0,0
91,-447,0,0,0,0,0,0,0,0,0,-1,1315,1471,0,0
98,-447,0,0,0,0,0,0,0,0,0,-1,1322,1471,0,0
105,-447,0,0,0,0,0,0,0,0,0,-1,1329,1471,0,0
112,-447,0,0,0,0,0,0,0,0,0,-1,1336,1471,0,0
119,-447,0,0,0,0,0,0,0,0,0,-1,1343,1471,0,0
126,-447,0,0,0,0,0,0,0,0,0,-1,1350,1471,0,0
133,-447,0,0,0,0,0,0,0,0,0,-1,1357,1471,0,0
140,-447,0,0,0,0,0,0,0,0,0,-1,1364,1471,0,0
147,-447,0,0,0,0,0,0,0,0,0,-1,1371,1471,0,0
154,-447,0,0,0,0,0,0,0,0,0,-1,1378,1471,0,0
161,-447,0,0,0,0,0,0,0,0,0,-1,1385,1471,0,0
168,-447,0,0,0,0,0,0,0,0,0,-1,1392,1471,0,0
175,-447,0,0,0,0,0,0,0,0,0,-1,1399,1471,0,0
182,-447,0,0,0,0,0,0,0,0,0,-1,1406,1471,0,0
189,-447,0,0,0,0,0,0,0,0,0,-1,1413,1471,0,0
196,-447,0,0,0,0,0,0,0,0,0,-1,1420,1471,0,0
203,-447,0,0,0,0,0,0,0,0,0,-1,1427,1471,0,0
210,-447,0,0,0,0,0,0,0,0,0,-1,1434,1471,0,0
217,-447,0,0,0,0,0,0,0,0,0,-1,1441,1471,0,0
224,-447,0,0,0,0,0,0,0,0,0,-1,1448,1471,0,0
231,-447,0,0,0,0,0,0,0,0,0,-1,1455,1471,0,0
238,-447,0,0,0,0,0,0,0,0,0,-1,1462,1471,0,0
245,-447,0,0,0,0,0,0,0,0,0,-1,1469,1471,0,0
252,-447,0,0,0,0,0,0,0,0,0,-1,1476,1471,0,0
259,-447,0,0,0,0,0,0,0,0,0,-1,1483,1471,0,0
266,-447,0,0,0,0,0,0,0,0,0,-1,1490,1471,0,0
273,-447,0,0,0,0,0,0,0,0,0,-1,1497,1471,0,0
280,-447,0,0,0,0,0,0,0,0,0,-1,1504,1471,0,0
287,-447,0,0,0,0,0,0,0,0,0,-1,1511,1471,0,0
294,-447,0,0,0,0,0,0,0,0,0,-1,1518,1471,0,0
301,-447,0,0,0,0,0,0,0,0,0,-1,1525,1471,0,0
308,-447,0,0,0,0,0,0,0,0,0,-1,1532,1471,0,0
315,-447,0,0,0,0,0,0,0,0,0,-1,1539,1471,0,0
322,-447,0,0,0,0,0,0,0,0,0,-1,1546,1471,0,0
329,-447,0,0,0,0,0,0,0,0,0,-1,1553,1471,0,0
336,-447,0,0,0,0,0,0,0,0,0,-1,1560,1471,0,0
343,-447,0,0,0,0,0,0,0,0,0,-1,1567,1471,0,0
350,-447,0,0,0,0,0,0,0,0,0,-1,1574,1471,0,0
357,-447,0,0,0,0,0,0,0,0,0,-1,1581,1471,0,0
364,-447,0,0,0,0,0,0,0,0,0,-1,1588,1471,0,0
371,-447,0,0,0,0,0,0,0,0,0,-1,1595,1471,0,0
378,-447,0,0,0,0,0,0,0,0,0,-1,1602,1471,0,0
385,-447,0,0,0,0,0,0,0,0,0,-1,1609,1471,0,0
392,-447,0,0,0,0,0,0,0,0,0,-1,1616,1471,0,0
399,-447,0,0,0,0,0,0,0,0,0,-1,1623,1471,0,0
406,-447,0,0,0,0,0,0,0,0,0,-1,1630,1471,0,0
413,-447,0,0,0,0,0,0,0,0,0,-1,1637,1471,0,0
420,-447,0,0,0,0,0,0,0,0,0,-1,1644,1471,0,0
427,-447,0,0,0,0,0,0,0,0,0,-1,1651,1471,0,0
434,-447,0,0,0,0,0,0,0,0,0,-1,1658,1471,0,0
441,-447,0,0,0,0,0,0,0,0,0,-1,1665,1471,0,0
448,-447,0,0,0,0,0,0,0,0,0,-1,1672,1471,0,0
455,-447,0,0,0,0,0,0,0,0,0,-1,1679,1471,0,0
462,-447,0,0,0,0,0,0,0,0,0,-1,1686,1471,0,0
469,-447,0,0,0,0,0,0,0,0,0,-1,1693,1471,0,0
476,-447,0,0,0,0,0,0,0,0,0,-1,1700,1471,0,0
483,-447,0,0,0,0,0,0,0,0,0,-1,1707,1471,0,0
490,-447,18.2214,-0.810303,0,0,0,0,0,0,0,-1,1714,1471,18.2215,0.810307
497,-447,17.0237,0.352417,0,0,0,0,0,0,0,-1,1721,1471,17.0237,-0.352442
504,-447,15.8998,1.53479,0,0,0,0,0,0,0,-1,1728,1471,15.8997,-1.53478
511,-447,14.7201,2.76111,0,0,0,0,0,0,0,-1,1735,1471,14.7201,-2.76107
518,-447,17.7618,13.2864,0,0,0,0,0,0,0,-1,1742,1471,17.7619,-13.2863
525,-447,17.1191,11.9014,0,0,0,0,0,0,0,-1,1749,1471,17.1191,-11.9013
532,-447,16.3959,10.0455,0,0,0,0,0,0,0,-1,1756,1471,16.3959,-10.0456
539,-447,14.1699,10.0204,0,0,0,0,0,0,0,-1,1763,1471,14.1699,-10.0204
546,-447,16.3715,11.8046,0,0,0,0,0,0,0,-1,1770,1471,16.3714,-11.8046
553,-447,15.9614,11.6818,0,0,0,0,0,0,0,-1,1777,1471,15.9614,-11.6818
560,-447,15.6787,12.0798,0,0,0,0,0,0,0,-1,1784,1471,15.6787,-12.0799
567,-447,15.4128,11.6919,-0.0232245,-0.0126757,0.014113,-0.0028837,-0.0330165,0.964226,0.0211155,0.0496443,1791,1471,15.4129,-11.6919
574,-447,15.1577,11.5897,-0.015089,-0.0107631,0.010134,-0.00256378,-0.0232883,0.890539,0.0147454,0.0415161,1798,1471,15.1577,-11.5897
581,-447,14.9623,11.5074,-0.0123851,-0.00783267,0.00781381,-0.0019703,-0.0182475,0.92713,0.0115643,0.0233478,1805,1471,14.9622,-11.5074
588,-447,15.024,11.116,-0.00978435,-0.00553332,0.0057516,-0.00152705,-0.0137906,0.962391,0.00872936,0.0157676,1812,1471,15.0241,-11.116
595,-447,15.0033,10.7987,-0.0076879,-0.00387782,0.00434661,-0.00103711,-0.0105286,0.991932,0.00670018,0.0121992,1819,1471,15.0034,-10.7987
602,-447,14.9844,10.4803,-0.00587287,-0.00269499,0.00326109,-0.000656329,-0.00791153,1.01209,0.00506976,0.011354,1826,1471,14.9844,-10.4804
609,-447,14.9786,10.175,-0.00395977,-0.00199939,0.00239103,-0.000395437,-0.00556373,0.979923,0.00358462,0.012582,1833,1471,14.9786,-10.175
616,-447,15.0044,9.88086,-0.00212475,-0.0015502,0.00172852,-8.525e-05,-0.0035897,0.867744,0.00236523,0.0135556,1840,1471,15.0044,-9.88089
623,-447,15.0023,9.58606,-0.000200436,-0.00132092,0.00114096,0.000510409,-0.00203176,0.557176,0.00155286,0.0149488,1847,1471,15.0023,-9.58612
630,-447,14.988,9.28247,0.00165889,-0.00149063,0.000851576,0.00187439,-0.00170613,0.247863,0.00206798,0.0093867,1854,1471,14.988,-9.28241
637,-447,14.9938,8.98389,0.00350794,-0.00186518,0.000710926,0.00360041,-0.00195766,0.129347,0.00325534,0.00977901,1861,1471,14.9937,-8.98391
644,-447,15.0087,8.69373,0.00541409,-0.0024572,0.000691879,0.00547444,-0.00251755,0.08701,0.00471827,0.0104915,1868,1471,15.0086,-8.69372
651,-447,15.0576,8.38953,0.00660618,-0.00360228,0.00128068,0.00676439,-0.0037605,0.122916,0.00615849,0.0299002,1875,1471,15.0576,-8.38954
658,-447,14.8137,8.26904,0.00770822,-0.00469264,0.00187492,0.0079855,-0.00496992,0.146822,0.00754705,0.0404699,1882,1471,14.8137,-8.26902
665,-447,14.676,7.91162,0,0,0,0,0,0,0,-1,1889,1471,14.6761,-7.91167
672,-447,14.3824,8.2356,0,0,0,0,0,0,0,-1,1896,1471,14.3824,-8.23554
679,-447,14.1313,8.05774,0,0,0,0,0,0,0,-1,1903,1471,14.1313,-8.05776
686,-447,9.81079,4.30859,0,0,0,0,0,0,0,-1,1910,1471,9.8108,-4.30864
693,-447,10.48,2.08643,0,0,0,0,0,0,0,-1,1917,1471,10.48,-2.08642
700,-447,0,0,0,0,0,0,0,0,0,-1,1924,1471,0,0
707,-447,0,0,0,0,0,0,0,0,0,-1,1931,1471,0,0
714,-447,0,0,0,0,0,0,0,0,0,-1,1938,1471,0,0
721,-447,0,0,0,0,0,0,0,0,0,-1,1945,1471,0,0
728,-447,0,0,0,0,0,0,0,0,0,-1,1952,1471,0,0
735,-447,0,0,0,0,0,0,0,0,0,-1,1959,1471,0,0
742,-447,0,0,0,0,0,0,0,0,0,-1,1966,1471,0,0
749,-447,0,0,0,0,0,0,0,0,0,-1,1973,1471,0,0
756,-447,0,0,0,0,0,0,0,0,0,-1,1980,1471,0,0
763,-447,0,0,0,0,0,0,0,0,0,-1,1987,1471,0,0
770,-447,0,0,0,0,0,0,0,0,0,-1,1994,1471,0,0
777,-447,0,0,0,0,0,0,0,0,0,-1,2001,1471,0,0
784,-447,0,0,0,0,0,0,0,0,0,-1,2008,1471,0,0
791,-447,0,0,0,0,0,0,0,0,0,-1,2015,1471,0,0
798,-447,0,0,0,0,0,0,0,0,0,-1,2022,1471,0,0
805,-447,0,0,0,0,0,0,0,0,0,-1,2029,1471,0,0
812,-447,0,0,0,0,0,0,0,0,0,-1,2036,1471,0,0
-700,-454,0,0,0,0,0,0,0,0,0,-1,524,1478,0,0
-693,-454,0,0,0,0,0,0,0,0,0,-1,531,1478,0,0
-686,-454,0,0,0,0,0,0,0,0,0,-1,538,1478,0,0
-679,-454,0,0,0,0,0,0,0,0,0,-1,545,1478,0,0
-672,-454,0,0,0,0,0,0,0,0,0,-1,552,1478,0,0
-665,-454,0,0,0,0,0,0,0,0,0,-1,559,1478,0,0
-658,-454,0,0,0,0,0,0,0,0,0,-1,566,1478,0,0
-651,-454,0,0,0,0,0,0,0,0,0,-1,573,1478,0,0
-644,-454,0,0,0,0,0,0,0,0,0,-1,580,1478,0,0
-637,-454,0,0,0,0,0,0,0,0,0,-1,587,1478,0,0
-630,-454,0,0,0,0,0,0,0,0,0,-1,594,1478,0,0
-623,-454,0,0,0,0,0,0,0,0,0,-1,601,1478,0,0
-616,-454,0,0,0,0,0,0,0,0,0,-1,608,1478,0,0
-609,-454,0,0,0,0,0,0,0,0,0,-1,615,1478,0,0
-602,-454,0,0,0,0,0,0,0,0,0,-1,622,1478,0,0
-595,-454,0,0,0,0,0,0,0,0,0,-1,629,1478,0,0
-588,-454,0,0,0,0,0,0,0,0,0,-1,636,1478,0,0
-581,-454,0,0,0,0,0,0,0,0,0,-1,643,1478,0,0
-574,-454,-8.4881,-0.465942,0,0,0,0,0,0,0,-1,650,1478,-8.4881,0.465885
-567,-454,-8.10046,0.922974,0,0,0,0,0,0,0,-1,657,1478,-8.10047,-0.923034
-560,-454,-10.656,3.51172,0,0,0,0,0,0,0,-1,664,1478,-10.656,-3.51176
-553,-454,-9.01129,3.95251,0,0,0,0,0,0,0,-1,671,1478,-9.0113,-3.95256
-546,-454,-9.61896,6.05237,0,0,0,0,0,0,0,-1,678,1478,-9.61897,-6.05239
-539,-454,-6.09534,3.85156,0,0,0,0,0,0,0,-1,685,1478,-6.09536,-3.85161
-532,-454,-4.79565,4.38403,0.0531265,0.0431943,0.0375289,0.0860164,0.0103043,0.719617,0.0542368,0.0476292,692,1478,-4.79563,-4.38406
-525,-454,-4.05713,5.62708,0.0401133,0.0324962,0.0282487,0.0648091,0.00780044,0.718392,0.0408549,0.043555,699,1478,-4.05714,-5.62711
-518,-454,-4.07642,6.70984,0.0296614,0.0238692,0.0208183,0.047784,0.00574655,0.716285,0.0301238,0.0347101,706,1478,-4.07643,-6.70979
-511,-454,-4.17755,6.80908,0.0214152,0.0170348,0.014947,0.0343316,0.00411842,0.712651,0.0216459,0.0218549,713,1478,-4.17758,-6.80911
-504,-454,-4.14508,7.16968,0.0150087,0.0116449,0.0102897,0.023753,0.0029006,0.704386,0.0149625,0.015203,720,1478,-4.14509,-7.16964
-497,-454,-4.13373,7.53101,0.0100822,0.00736377,0.00646673,0.015331,0.00211497,0.681811,0.00959373,0.0192514,727,1478,-4.13373,-7.531
-490,-454,-4.1283,7.86389,0.00657236,0.00413498,0.00327973,0.0088525,0.00185484,0.607512,0.00539083,0.0186148,734,1478,-4.12828,-7.86385
-483,-454,-4.15582,8.19141,0.00408631,0.00131047,0.000464326,0.00416192,0.00123486,0.161421,0.00246821,0.016103,741,1478,-4.15581,-8.19143
-476,-454,-4.18158,8.52271,0.00154824,-0.00201723,-0.00280787,0.0030915,-0.0035605,-0.502553,0.00384371,0.0127697,748,1478,-4.18159,-8.52276
-469,-454,-4.1828,8.85437,0.000239271,-0.00426756,-0.00526114,0.00370927,-0.00773756,-0.583061,0.00674386,0.00928482,755,1478,-4.18277,-8.85433
-462,-454,-4.18359,9.1709,0.000249976,-0.006526,-0.00763324,0.00521332,-0.0114893,-0.576536,0.0098676,0.0100345,762,1478,-4.18362,-9.17093
-455,-454,-4.18933,9.50232,0.000377999,-0.00902674,-0.0103694,0.00706149,-0.0157102,-0.572525,0.0134596,0.0113211,769,1478,-4.18933,-9.50236
-448,-454,-4.19513,9.8479,0.00069887,-0.012178,-0.0136165,0.00932242,-0.0208016,-0.564556,0.0178081,0.0131235,776,1478,-4.19516,-9.84787
-441,-454,-4.01373,10.2233,0.00123919,-0.0164419,-0.0175185,0.0120214,-0.0272241,-0.551721,0.0232182,0.0241604,783,1478,-4.01376,-10.2233
-434,-454,-3.9093,10.3904,0.00194088,-0.0219302,-0.0223636,0.0153546,-0.0353439,-0.540275,0.0300196,0.0334094,790,1478,-3.90932,-10.3904
-427,-454,-4.00873,10.0751,0.00280497,-0.0288036,-0.0280331,0.0191819,-0.0451805,-0.52872,0.0381568,0.0447016,797,1478,-4.00874,-10.0751
-420,-454,-4.06256,9.99451,0,0,0,0,0,0,0,-1,804,1478,-4.06255,-9.99449
-413,-454,-5.41223,10.3733,0,0,0,0,0,0,0,-1,811,1478,-5.41225,-10.3733
-406,-454,-2.38208,10.0308,0,0,0,0,0,0,0,-1,818,1478,-2.38209,-10.0308
-399,-454,-1.21033,6.95447,0,0,0,0,0,0,0,-1,825,1478,-1.21035,-6.95452
-392,-454,0.0967407,0.985474,0,0,0,0,0,0,0,-1,832,1478,0.0967364,-0.985529
-385,-454,2.38629,3.297,0,0,0,0,0,0,0,-1,839,1478,2.38629,-3.29702
-378,-454,-15.9756,2.83997,0,0,0,0,0,0,0,-1,846,1478,-15.9756,-2.83994
-371,-454,-17.2753,2.01453,0,0,0,0,0,0,0,-1,853,1478,-17.2753,-2.01455
-364,-454,1.08124,0.819458,0,0,0,0,0,0,0,-1,860,1478,1.08124,-0.819513
-357,-454,0,0,0,0,0,0,0,0,0,-1,867,1478,0,0
-350,-454,0,0,0,0,0,0,0,0,0,-1,874,1478,0,0
-343,-454,0,0,0,0,0,0,0,0,0,-1,881,1478,0,0
-336,-454,0,0,0,0,0,0,0,0,0,-1,888,1478,0,0
-329,-454,0,0,0,0,0,0,0,0,0,-1,895,1478,0,0
-322,-454,0,0,0,0,0,0,0,0,0,-1,902,1478,0,0
-315,-454,0,0,0,0,0,0,0,0,0,-1,909,1478,0,0
-308,-454,0,0,0,0,0,0,0,0,0,-1,916,1478,0,0
-301,-454,0,0,0,0,0,0,0,0,0,-1,923,1478,0,0
-294,-454,0,0,0,0,0,0,0,0,0,-1,930,1478,0,0
-287,-454,0,0,0,0,0,0,0,0,0,-1,937,1478,0,0
-280,-454,0,0,0,0,0,0,0,0,0,-1,944,1478,0,0
-273,-454,0,0,0,0,0,0,0,0,0,-1,951,1478,0,0
-266,-454,0,0,0,0,0,0,0,0,0,-1,958,1478,0,0
-259,-454,0,0,0,0,0,0,0,0,0,-1,965,1478,0,0
-252,-454,0,0,0,0,0,0,0,0,0,-1,972,1478,0,0
-245,-454,0,0,0,0,0,0,0,0,0,-1,979,1478,0,0
-238,-454,0,0,0,0,0,0,0,0,0,-1,986,1478,0,0
-231,-454,0,0,0,0,0,0,0,0,0,-1,993,1478,0,0
-224,-454,0,0,0,0,0,0,0,0,0,-1,1000,1478,0,0
-217,-454,0,0,0,0,0,0,0,0,0,-1,1007,1478,0,0
-210,-454,0,0,0,0,0,0,0,0,0,-1,1014,1478,0,0
-203,-454,0,0,0,0,0,0,0,0,0,-1,1021,1478,0,0
-196,-454,0,0,0,0,0,0,0,0,0,-1,1028,1478,0,0
-189,-454,0,0,0,0,0,0,0,0,0,-1,1035,1478,0,0
-182,-454,0,0,0,0,0,0,0,0,0,-1,1042,1478,0,0
-175,-454,0,0,0,0,0,0,0,0,0,-1,1049,1478,0,0
-168,-454,0,0,0,0,0,0,0,0,0,-1,1056,1478,0,0
-161,-454,0,0,0,0,0,0,0,0,0,-1,1063,1478,0,0
-154,-454,0,0,0,0,0,0,0,0,0,-1,1070,1478,0,0
-147,-454,0,0,0,0,0,0,0,0,0,-1,1077,1478,0,0
-140,-454,0,0,0,0,0,0,0,0,0,-1,1084,1478,0,0
-133,-454,0,0,0,0,0,0,0,0,0,-1,1091,1478,0,0
-126,-454,0,0,0,0,0,0,0,0,0,-1,1098,1478,0,0
-119,-454,0,0,0,0,0,0,0,0,0,-1,1105,1478,0,0
-112,-454,0,0,0,0,0,0,0,0,0,-1,1112,1478,0,0
-105,-454,0,0,0,0,0,0,0,0,0,-1,1119,1478,0,0
-98,-454,0,0,0,0,0,0,0,0,0,-1,1126,1478,0,0
-91,-454,0,0,0,0,0,0,0,0,0,-1,1133,1478,0,0
-84,-454,0,0,0,0,0,0,0,0,0,-1,1140,1478,0,0
-77,-454,0,0,0,0,0,0,0,0,0,-1,1147,1478,0,0
-70,-454,0,0,0,0,0,0,0,0,0,-1,1154,1478,0,0
-63,-454,0,0,0,0,0,0,0,0,0,-1,1161,1478,0,0
-56,-454,0,0,0,0,0,0,0,0,0,-1,1168,1478,0,0
-49,-454,0,0,0,0,0,0,0,0,0,-1,1175,1478,0,0
-42,-454,0,0,0,0,0,0,0,0,0,-1,1182,1478,0,0
-35,-454,0,0,0,0,0,0,0,0,0,-1,1189,1478,0,0
-28,-454,0,0,0,0,0,0,0,0,0,-1,1196,1478,0,0
-21,-454,0,0,0,0,0,0,0,0,0,-1,1203,1478,0,0
-14,-454,0,0,0,0,0,0,0,0,0,-1,1210,1478,0,0
-7,-454,0,0,0,0,0,0,0,0,0,-1,1217,1478,0,0
0,-454,0,0,0,0,0,0,0,0,0,-1,1224,1478,0,0
7,-454,0,0,0,0,0,0,0,0,0,-1,1231,1478,0,0
14,-454,0,0,0,0,0,0,0,0,0,-1,1238,1478,0,0
21,-454,0,0,0,0,0,0,0,0,0,-1,1245,1478,0,0
28,-454,0,0,0,0,0,0,0,0,0,-1,1252,1478,0,0
35,-454,0,0,0,0,0,0,0,0,0,-1,1259,1478,0,0
42,-454,0,0,0,0,0,0,0,0,0,-1,1266,1478,0,0
49,-454,0,0,0,0,0,0,0,0,0,-1,1273,1478,0,0
56,-454,0,0,0,0,0,0,0,0,0,-1,1280,1478,0,0
63,-454,0,0,0,0,0,0,0,0,0,-1,1287,1478,0,0
70,-454,0,0,0,0,0,0,0,0,0,-1,1294,1478,0,0
77,-454,0,0,0,0,0,0,0,0,0,-1,1301,1478,0,0
84,-454,0,0,0,0,0,0,0,0,0,-1,1308,1478,0,0
91,-454,0,0,0,0,0,0,0,0,0,-1,1315,1478,0,0
98,-454,0,0,0,0,0,0,0,0,0,-1,1322,1478,0,0
105,-454,0,0,0,0,0,0,0,0,0,-1,1329,1478,0,0
112,-454,0,0,0,0,0,0,0,0,0,-1,1336,1478,0,0
119,-454,0,0,0,0,0,0,0,0,0,-1,1343,1478,0,0
126,-454,0,0,0,0,0,0,0,0,0,-1,1350,1478,0,0
133,-454,0,0,0,0,0,0,0,0,0,-1,1357,1478,0,0
140,-454,0,0,0,0,0,0,0,0,0,-1,1364,1478,0,0
147,-454,0,0,0,0,0,0,0,0,0,-1,1371,1478,0,0
154,-454,0,0,0,0,0,0,0,0,0,-1,1378,1478,0,0
161,-454,0,0,0,0,0,0,0,0,0,-1,1385,1478,0,0
168,-454,0,0,0,0,0,0,0,0,0,-1,1392,1478,0,0
175,-454,0,0,0,0,0,0,0,0,0,-1,1399,1478,0,0
182,-454,0,0,0,0,0,0,0,0,0,-1,1406,1478,0,0
189,-454,0,0,0,0,0,0,0,0,0,-1,1413,1478,0,0
196,-454,0,0,0,0,0,0,0,0,0,-1,1420,1478,0,0
203,-454,0,0,0,0,0,0,0,0,0,-1,1427,1478,0,0
210,-454,0,0,0,0,0,0,0,0,0,-1,1434,1478,0,0
217,-454,0,0,0,0,0,0,0,0,0,-1,1441,1478,0,0
224,-454,0,0,0,0,0,0,0,0,0,-1,1448,1478,0,0
231,-454,0,0,0,0,0,0,0,0,0,-1,1455,1478,0,0
238,-454,0,0,0,0,0,0,0,0,0,-1,1462,1478,0,0
245,-454,0,0,0,0,0,0,0,0,0,-1,1469,1478,0,0
252,-454,0,0,0,0,0,0,0,0,0,-1,1476,1478,0,0
259,-454,0,0,0,0,0,0,0,0,0,-1,1483,1478,0,0
266,-454,0,0,0,0,0,0,0,0,0,-1,1490,1478,0,0
273,-454,0,0,0,0,0,0,0,0,0,-1,1497,1478,0,0
280,-454,0,0,0,0,0,0,0,0,0,-1,1504,1478,0,0
287,-454,0,0,0,0,0,0,0,0,0,-1,1511,1478,0,0
294,-454,0,0,0,0,0,0,0,0,0,-1,1518,1478,0,0
301,-454,0,0,0,0,0,0,0,0,0,-1,1525,1478,0,0
308,-454,0,0,0,0,0,0,0,0,0,-1,1532,1478,0,0
315,-454,0,0,0,0,0,0,0,0,0,-1,1539,1478,0,0
322,-454,0,0,0,0,0,0,0,0,0,-1,1546,1478,0,0
329,-454,0,0,0,0,0,0,0,0,0,-1,1553,1478,0,0
336,-454,0,0,0,0,0,0,0,0,0,-1,1560,1478,0,0
343,-454,0,0,0,0,0,0,0,0,0,-1,1567,1478,0,0
350,-454,0,0,0,0,0,0,0,0,0,-1,1574,1478,0,0
357,-454,0,0,0,0,0,0,0,0,0,-1,1581,1478,0,0
364,-454,0,0,0,0,0,0,0,0,0,-1,1588,1478,0,0
371,-454,0,0,0,0,0,0,0,0,0,-1,1595,1478,0,0
378,-454,0,0,0,0,0,0,0,0,0,-1,1602,1478,0,0
385,-454,0,0,0,0,0,0,0,0,0,-1,1609,1478,0,0
392,-454,0,0,0,0,0,0,0,0,0,-1,1616,1478,0,0
399,-454,0,0,0,0,0,0,0,0,0,-1,1623,1478,0,0
406,-454,0,0,0,0,0,0,0,0,0,-1,1630,1478,0,0
413,-454,0,0,0,0,0,0,0,0,0,-1,1637,1478,0,0
420,-454,0,0,0,0,0,0,0,0,0,-1,1644,1478,0,0
427,-454,0,0,0,0,0,0,0,0,0,-1,1651,1478,0,0
434,-454,0,0,0,0,0,0,0,0,0,-1,1658,1478,0,0
441,-454,0,0,0,0,0,0,0,0,0,-1,1665,1478,0,0
448,-454,0,0,0,0,0,0,0,0,0,-1,1672,1478,0,0
455,-454,0,0,0,0,0,0,0,0,0,-1,1679,1478,0,0
462,-454,0,0,0,0,0,0,0,0,0,-1,1686,1478,0,0
469,-454,0,0,0,0,0,0,0,0,0,-1,1693,1478,0,0
476,-454,0,0,0,0,0,0,0,0,0,-1,1700,1478,0,0
483,-454,14.2399,3.97498,0,0,0,0,0,0,0,-1,1707,1478,14.2399,-3.97502
490,-454,18.1821,-0.175781,0,0,0,0,0,0,0,-1,1714,1478,18.1821,0.175822
497,-454,16.8854,1.01208,0,0,0,0,0,0,0,-1,1721,1478,16.8854,-1.01209
504,-454,15.587,2.05994,0,0,0,0,0,0,0,-1,1728,1478,15.5871,-2.05998
511,-454,17.0273,14.5258,0,0,0,0,0,0,0,-1,1735,1478,17.0273,-14.5258
518,-454,16.4158,13.1039,0,0,0,0,0,0,0,-1,1742,1478,16.4157,-13.1038
525,-454,15.7842,11.6628,0,0,0,0,0,0,0,-1,1749,1478,15.7841,-11.6629
532,-454,15.1094,10.2476,0,0,0,0,0,0,0,-1,1756,1478,15.1094,-10.2475
539,-454,13.7905,10.9373,0,0,0,0,0,0,0,-1,1763,1478,13.7906,-10.9372
546,-454,16.2002,13.2458,0,0,0,0,0,0,0,-1,1770,1478,16.2002,-13.2459
553,-454,15.6747,12.1868,0,0,0,0,0,0,0,-1,1777,1478,15.6747,-12.1868
560,-454,14.8175,12.4758,0,0,0,0,0,0,0,-1,1784,1478,14.8174,-12.4759
567,-454,14.8562,12.0406,-0.0179148,-0.00980109,0.0111645,-0.00197924,-0.0257366,0.959666,0.0165375,0.0409526,1791,1478,14.8562,-12.0406
574,-454,14.7408,11.6748,-0.0105473,-0.00847751,0.00776136,-0.00168234,-0.0173424,0.851676,0.0110436,0.0199284,1798,1478,14.7409,-11.6748
581,-454,14.7227,11.3778,-0.00846382,-0.00611347,0.00589505,-0.0012776,-0.0132997,0.883783,0.00847276,0.0128313,1805,1478,14.7227,-11.3778
588,-454,14.7483,11.0869,-0.00643315,-0.00420688,0.00417663,-0.000997599,-0.00964243,0.915629,0.0061229,0.0117018,1812,1478,14.7482,-11.0869
595,-454,14.7129,10.8054,-0.00490112,-0.00288329,0.00308354,-0.0006478,-0.00713661,0.943505,0.00455718,0.0111374,1819,1478,14.7129,-10.8054
602,-454,14.6996,10.495,-0.00359338,-0.00198249,0.00228805,-0.000362252,-0.00521362,0.954636,0.00336151,0.00880063,1826,1478,14.6996,-10.495
609,-454,14.6992,10.1952,-0.00204982,-0.00154468,0.00163137,-0.000146446,-0.00344806,0.862198,0.00225148,0.0103896,1833,1478,14.6992,-10.1952
616,-454,14.7144,9.88977,-0.000549831,-0.00129152,0.0011546,0.00029202,-0.00213337,0.630008,0.00152891,0.0129241,1840,1478,14.7144,-9.88974
623,-454,14.7159,9.60461,0.00113011,-0.00127589,0.000749153,0.00134431,-0.00149008,0.278485,0.00163716,0.0117762,1847,1478,14.716,-9.60464
630,-454,14.6989,9.30469,0.00287369,-0.0016348,0.000605219,0.00295353,-0.00171463,0.131147,0.00272661,0.0114158,1854,1478,14.6989,-9.30472
637,-454,14.6786,9.0083,0.00478001,-0.00225551,0.000586962,0.00482864,-0.00230415,0.0826667,0.00420321,0.0104079,1861,1478,14.6786,-9.00832
644,-454,14.7528,8.69458,0.00690944,-0.0031091,0.000674802,0.00695469,-0.00315435,0.0669523,0.00597234,0.0195169,1868,1478,14.7528,-8.69452
651,-454,14.5789,8.5354,0.00843749,-0.00466188,0.00145702,0.00859759,-0.00482199,0.109446,0.00784935,0.0394498,1875,1478,14.5789,-8.53534
658,-454,14.8468,8.39221,0.0101992,-0.00624541,0.00217364,0.0104816,-0.00652787,0.129223,0.00990848,0.0425018,1882,1478,14.8468,-8.39217
665,-454,15.4073,8.27893,0,0,0,0,0,0,0,-1,1889,1478,15.4073,-8.27888
672,-454,14.3157,5.82593,0,0,0,0,0,0,0,-1,1896,1478,14.3157,-5.82587
679,-454,14.2161,5.45007,0,0,0,0,0,0,0,-1,1903,1478,14.2161,-5.45013
686,-454,10.3767,2.12842,0,0,0,0,0,0,0,-1,1910,1478,10.3767,-2.12839
693,-454,11.1857,1.48486,0,0,0,0,0,0,0,-1,1917,1478,11.1857,-1.48487
700,-454,0,0,0,0,0,0,0,0,0,-1,1924,1478,0,0
707,-454,0,0,0,0,0,0,0,0,0,-1,1931,1478,0,0
714,-454,0,0,0,0,0,0,0,0,0,-1,1938,1478,0,0
721,-454,0,0,0,0,0,0,0,0,0,-1,1945,1478,0,0
728,-454,0,0,0,0,0,0,0,0,0,-1,1952,1478,0,0
735,-454,0,0,0,0,0,0,0,0,0,-1,1959,1478,0,0
742,-454,0,0,0,0,0,0,0,0,0,-1,1966,1478,0,0
749,-454,0,0,0,0,0,0,0,0,0,-1,1973,1478,0,0
756,-454,0,0,0,0,0,0,0,0,0,-1,1980,1478,0,0
763,-454,0,0,0,0,0,0,0,0,0,-1,1987,1478,0,0
770,-454,0,0,0,0,0,0,0,0,0,-1,1994,1478,0,0
777,-454,0,0,0,0,0,0,0,0,0,-1,2001,1478,0,0
784,-454,0,0,0,0,0,0,0,0,0,-1,2008,1478,0,0
791,-454,0,0,0,0,0,0,0,0,0,-1,2015,1478,0,0
798,-454,0,0,0,0,0,0,0,0,0,-1,2022,1478,0,0
805,-454,0,0,0,0,0,0,0,0,0,-1,2029,1478,0,0
812,-454,0,0,0,0,0,0,0,0,0,-1,2036,1478,0,0
-700,-461,0,0,0,0,0,0,0,0,0,-1,524,1485,0,0
-693,-461,0,0,0,0,0,0,0,0,0,-1,531,1485,0,0
-686,-461,0,0,0,0,0,0,0,0,0,-1,538,1485,0,0
-679,-461,0,0,0,0,0,0,0,0,0,-1,545,1485,0,0
-672,-461,0,0,0,0,0,0,0,0,0,-1,552,1485,0,0
-665,-461,0,0,0,0,0,0,0,0,0,-1,559,1485,0,0
-658,-461,0,0,0,0,0,0,0,0,0,-1,566,1485,0,0
-651,-461,0,0,0,0,0,0,0,0,0,-1,573,1485,0,0
-644,-461,0,0,0,0,0,0,0,0,0,-1,580,1485,0,0
-637,-461,0,0,0,0,0,0,0,0,0,-1,587,1485,0,0
-630,-461,0,0,0,0,0,0,0,0,0,-1,594,1485,0,0
-623,-461,0,0,0,0,0,0,0,0,0,-1,601,1485,0,0
-616,-461,0,0,0,0,0,0,0,0,0,-1,608,1485,0,0
-609,-461,0,0,0,0,0,0,0,0,0,-1,615,1485,0,0
-602,-461,0,0,0,0,0,0,0,0,0,-1,622,1485,0,0
-595,-461,0,0,0,0,0,0,0,0,0,-1,629,1485,0,0
-588,-461,0,0,0,0,0,0,0,0,0,-1,636,1485,0,0
-581,-461,0,0,0,0,0,0,0,0,0,-1,643,1485,0,0
-574,-461,0,0,0,0,0,0,0,0,0,-1,650,1485,0,0
-567,-461,-9.69031,0.513306,0,0,0,0,0,0,0,-1,657,1485,-9.69032,-0.513305
-560,-461,-7.28815,1.54004,0,0,0,0,0,0,0,-1,664,1485,-7.28817,-1.54005
-553,-461,-11.9607,5.27783,0,0,0,0,0,0,0,-1,671,1485,-11.9607,-5.27778
-546,-461,-9.99127,3.01428,0,0,0,0,0,0,0,-1,678,1485,-9.99128,-3.01425
-539,-461,-6.29749,3.2168,0,0,0,0,0,0,0,-1,685,1485,-6.29748,-3.21685
-532,-461,-4.99286,3.77307,0,0,0,0,0,0,0,-1,692,1485,-4.99285,-3.7731
-525,-461,-3.54614,5.08948,0,0,0,0,0,0,0,-1,699,1485,-3.54613,-5.08948
-518,-461,-3.77911,6.32349,0.0385598,0.0283888,0.0247252,0.0587171,0.00823153,0.683972,0.0367098,0.0385915,706,1485,-3.77909,-6.32351
-511,-461,-3.77362,6.92358,0.02767,0.0201508,0.0176126,0.0419198,0.00590095,0.680247,0.026202,0.0244086,713,1485,-3.77361,-6.92358
-504,-461,-3.84998,7.18848,0.0193148,0.0137856,0.012114,0.0289757,0.00412466,0.673212,0.0180996,0.0131979,720,1485,-3.84997,-7.18849
-497,-461,-3.80389,7.57141,0.0130168,0.00889413,0.00781777,0.0190404,0.00287049,0.656497,0.0118532,0.0106361,727,1485,-3.8039,-7.57137
-490,-461,-3.82129,7.88452,0.00853757,0.00526327,0.00440434,0.0115992,0.00220165,0.607455,0.0071134,0.0122022,734,1485,-3.82128,-7.88458
-483,-461,-3.83368,8.20093,0.00547314,0.0023353,0.00159625,0.00614242,0.00166602,0.397015,0.00366797,0.0126487,741,1485,-3.83366,-8.20093
-476,-461,-3.85364,8.54871,0.00250895,-0.000959058,-0.0015437,0.00309654,-0.00154664,-0.363701,0.00273007,0.0111666,748,1485,-3.85365,-8.54869
-469,-461,-3.86713,8.88025,0.000954612,-0.00307191,-0.00368697,0.00314218,-0.00525948,-0.535496,0.00490178,0.0123029,755,1485,-3.86712,-8.88022
-462,-461,-3.8504,9.17163,0.0010881,-0.00504307,-0.00552261,0.00433892,-0.0082939,-0.532024,0.00741175,0.0166784,762,1485,-3.8504,-9.17168
-455,-461,-3.85535,9.50195,0.00143197,-0.00704971,-0.00752848,0.00583189,-0.0114496,-0.528897,0.0101517,0.0207441,769,1485,-3.85536,-9.50192
-448,-461,-3.83685,9.84753,0.00205205,-0.0094547,-0.00979808,0.00766105,-0.0150637,-0.519923,0.0133502,0.0178066,776,1485,-3.83683,-9.84752
-441,-461,-3.8064,10.1895,0.00292792,-0.0126774,-0.0124634,0.00982963,-0.0195791,-0.505723,0.0172874,0.014518,783,1485,-3.8064,-10.1895
-434,-461,-3.60071,10.4669,0.00396795,-0.016859,-0.015846,0.0125159,-0.025407,-0.4947,0.0223125,0.019788,790,1485,-3.60071,-10.4669
-427,-461,-3.52094,10.6256,0.00516618,-0.0220245,-0.0198242,0.015609,-0.0324673,-0.484834,0.02832,0.0321041,797,1485,-3.52091,-10.6257
-420,-461,-3.27863,10.8464,0,0,0,0,0,0,0,-1,804,1485,-3.27863,-10.8465
-413,-461,-3.76422,10.543,0,0,0,0,0,0,0,-1,811,1485,-3.76423,-10.543
-406,-461,-3.74152,9.38831,0,0,0,0,0,0,0,-1,818,1485,-3.74152,-9.38832
-399,-461,-1.93439,9.82849,0,0,0,0,0,0,0,-1,825,1485,-1.9344,-9.82846
-392,-461,-0.357544,5.55225,0,0,0,0,0,0,0,-1,832,1485,-0.357536,-5.55228
-385,-461,1.71509,3.35254,0,0,0,0,0,0,0,-1,839,1485,1.71511,-3.35255
-378,-461,1.95996,3.01111,0,0,0,0,0,0,0,-1,846,1485,1.95993,-3.01111
-371,-461,0.702881,2.33459,0,0,0,0,0,0,0,-1,853,1485,0.702859,-2.33459
-364,-461,-1.93097,2.56458,0,0,0,0,0,0,0,-1,860,1485,-1.93095,-2.56456
-357,-461,-2.41516,3.49487,0,0,0,0,0,0,0,-1,867,1485,-2.41517,-3.49487
-350,-461,0,0,0,0,0,0,0,0,0,-1,874,1485,0,0
-343,-461,0,0,0,0,0,0,0,0,0,-1,881,1485,0,0
-336,-461,0,0,0,0,0,0,0,0,0,-1,888,1485,0,0
-329,-461,0,0,0,0,0,0,0,0,0,-1,895,1485,0,0
-322,-461,0,0,0,0,0,0,0,0,0,-1,902,1485,0,0
-315,-461,0,0,0,0,0,0,0,0,0,-1,909,1485,0,0
-308,-461,0,0,0,0,0,0,0,0,0,-1,916,1485,0,0
-301,-461,0,0,0,0,0,0,0,0,0,-1,923,1485,0,0
-294,-461,0,0,0,0,0,0,0,0,0,-1,930,1485,0,0
-287,-461,0,0,0,0,0,0,0,0,0,-1,937,1485,0,0
-280,-461,0,0,0,0,0,0,0,0,0,-1,944,1485,0,0
-273,-461,0,0,0,0,0,0,0,0,0,-1,951,1485,0,0
-266,-461,0,0,0,0,0,0,0,0,0,-1,958,1485,0,0
-259,-461,0,0,0,0,0,0,0,0,0,-1,965,1485,0,0
-252,-461,0,0,0,0,0,0,0,0,0,-1,972,1485,0,0
-245,-461,0,0,0,0,0,0,0,0,0,-1,979,1485,0,0
-238,-461,0,0,0,0,0,0,0,0,0,-1,986,1485,0,0
-231,-461,0,0,0,0,0,0,0,0,0,-1,993,1485,0,0
-224,-461,0,0,0,0,0,0,0,0,0,-1,1000,1485,0,0
-217,-461,0,0,0,0,0,0,0,0,0,-1,1007,1485,0,0
-210,-461,0,0,0,0,0,0,0,0,0,-1,1014,1485,0,0
-203,-461,0,0,0,0,0,0,0,0,0,-1,1021,1485,0,0
-196,-461,0,0,0,0,0,0,0,0,0,-1,1028,1485,0,0
-189,-461,0,0,0,0,0,0,0,0,0,-1,1035,1485,0,0
-182,-461,0,0,0,0,0,0,0,0,0,-1,1042,1485,0,0
-175,-461,0,0,0,0,0,0,0,0,0,-1,1049,1485,0,0
-168,-461,0,0,0,0,0,0,0,0,0,-1,1056,1485,0,0
-161,-461,0,0,0,0,0,0,0,0,0,-1,1063,1485,0,0
-154,-461,0,0,0,0,0,0,0,0,0,-1,1070,1485,0,0
-147,-461,0,0,0,0,0,0,0,0,0,-1,1077,1485,0,0
-140,-461,0,0,0,0,0,0,0,0,0,-1,1084,1485,0,0
-133,-461,0,0,0,0,0,0,0,0,0,-1,1091,1485,0,0
-126,-461,0,0,0,0,0,0,0,0,0,-1,1098,1485,0,0
-119,-461,0,0,0,0,0,0,0,0,0,-1,1105,1485,0,0
-112,-461,0,0,0,0,0,0,0,0,0,-1,1112,1485,0,0
-105,-461,0,0,0,0,0,0,0,0,0,-1,1119,1485,0,0
-98,-461,0,0,0,0,0,0,0,0,0,-1,1126,1485,0,0
-91,-461,0,0,0,0,0,0,0,0,0,-1,1133,1485,0,0
-84,-461,0,0,0,0,0,0,0,0,0,-1,1140,1485,0,0
-77,-461,0,0,0,0,0,0,0,0,0,-1,1147,1485,0,0
-70,-461,0,0,0,0,0,0,0,0,0,-1,1154,1485,0,0
-63,-461,0,0,0,0,0,0,0,0,0,-1,1161,1485,0,0
-56,-461,0,0,0,0,0,0,0,0,0,-1,1168,1485,0,0
-49,-461,0,0,0,0,0,0,0,0,0,-1,1175,1485,0,0
-42,-461,0,0,0,0,0,0,0,0,0,-1,1182,1485,0,0
-35,-461,0,0,0,0,0,0,0,0,0,-1,1189,1485,0,0
-28,-461,0,0,0,0,0,0,0,0,0,-1,1196,1485,0,0
-21,-461,0,0,0,0,0,0,0,0,0,-1,1203,1485,0,0
-14,-461,0,0,0,0,0,0,0,0,0,-1,1210,1485,0,0
-7,-461,0,0,0,0,0,0,0,0,0,-1,1217,1485,0,0
0,-461,0,0,0,0,0,0,0,0,0,-1,1224,1485,0,0
7,-461,0,0,0,0,0,0,0,0,0,-1,1231,1485,0,0
14,-461,0,0,0,0,0,0,0,0,0,-1,1238,1485,0,0
21,-461,0,0,0,0,0,0,0,0,0,-1,1245,1485,0,0
28,-461,0,0,0,0,0,0,0,0,0,-1,1252,1485,0,0
35,-461,0,0,0,0,0,0,0,0,0,-1,1259,1485,0,0
42,-461,0,0,0,0,0,0,0,0,0,-1,1266,1485,0,0
49,-461,0,0,0,0,0,0,0,0,0,-1,1273,1485,0,0
56,-461,0,0,0,0,0,0,0,0,0,-1,1280,1485,0,0
63,-461,0,0,0,0,0,0,0,0,0,-1,1287,1485,0,0
70,-461,0,0,0,0,0,0,0,0,0,-1,1294,1485,0,0
77,-461,0,0,0,0,0,0,0,0,0,-1,1301,1485,0,0
84,-461,0,0,0,0,0,0,0,0,0,-1,1308,1485,0,0
91,-461,0,0,0,0,0,0,0,0,0,-1,1315,1485,0,0
98,-461,0,0,0,0,0,0,0,0,0,-1,1322,1485,0,0
105,-461,0,0,0,0,0,0,0,0,0,-1,1329,1485,0,0
112,-461,0,0,0,0,0,0,0,0,0,-1,1336,1485,0,0
119,-461,0,0,0,0,0,0,0,0,0,-1,1343,1485,0,0
126,-461,0,0,0,0,0,0,0,0,0,-1,1350,1485,0,0
133,-461,0,0,0,0,0,0,0,0,0,-1,1357,1485,0,0
140,-461,0,0,0,0,0,0,0,0,0,-1,1364,1485,0,0
147,-461,0,0,0,0,0,0,0,0,0,-1,1371,1485,0,0
154,-461,0,0,0,0,0,0,0,0,0,-1,1378,1485,0,0
161,-461,0,0,0,0,0,0,0,0,0,-1,1385,1485,0,0
168,-461,0,0,0,0,0,0,0,0,0,-1,1392,1485,0,0
175,-461,0,0,0,0,0,0,0,0,0,-1,1399,1485,0,0
182,-461,0,0,0,0,0,0,0,0,0,-1,1406,1485,0,0
189,-461,0,0,0,0,0,0,0,0,0,-1,1413,1485,0,0
196,-461,0,0,0,0,0,0,0,0,0,-1,1420,1485,0,0
203,-461,0,0,0,0,0,0,0,0,0,-1,1427,1485,0,0
210,-461,0,0,0,0,0,0,0,0,0,-1,1434,1485,0,0
217,-461,0,0,0,0,0,0,0,0,0,-1,1441,1485,0,0
224,-461,0,0,0,0,0,0,0,0,0,-1,1448,1485,0,0
231,-461,0,0,0,0,0,0,0,0,0,-1,1455,1485,0,0
238,-461,0,0,0,0,0,0,0,0,0,-1,1462,1485,0,0
245,-461,0,0,0,0,0,0,0,0,0,-1,1469,1485,0,0
252,-461,0,0,0,0,0,0,0,0,0,-1,1476,1485,0,0
259,-461,0,0,0,0,0,0,0,0,0,-1,1483,1485,0,0
266,-461,0,0,0,0,0,0,0,0,0,-1,1490,1485,0,0
273,-461,0,0,0,0,0,0,0,0,0,-1,1497,1485,0,0
280,-461,0,0,0,0,0,0,0,0,0,-1,1504,1485,0,0
287,-461,0,0,0,0,0,0,0,0,0,-1,1511,1485,0,0
294,-461,0,0,0,0,0,0,0,0,0,-1,1518,1485,0,0
301,-461,0,0,0,0,0,0,0,0,0,-1,1525,1485,0,0
308,-461,0,0,0,0,0,0,0,0,0,-1,1532,1485,0,0
315,-461,0,0,0,0,0,0,0,0,0,-1,1539,1485,0,0
322,-461,0,0,0,0,0,0,0,0,0,-1,1546,1485,0,0
329,-461,0,0,0,0,0,0,0,0,0,-1,1553,1485,0,0
336,-461,0,0,0,0,0,0,0,0,0,-1,1560,1485,0,0
343,-461,0,0,0,0,0,0,0,0,0,-1,1567,1485,0,0
350,-461,0,0,0,0,0,0,0,0,0,-1,1574,1485,0,0
357,-461,0,0,0,0,0,0,0,0,0,-1,1581,1485,0,0
364,-461,0,0,0,0,0,0,0,0,0,-1,1588,1485,0,0
371,-461,0,0,0,0,0,0,0,0,0,-1,1595,1485,0,0
378,-461,0,0,0,0,0,0,0,0,0,-1,1602,1485,0,0
385,-461,0,0,0,0,0,0,0,0,0,-1,1609,1485,0,0
392,-461,0,0,0,0,0,0,0,0,0,-1,1616,1485,0,0
399,-461,0,0,0,0,0,0,0,0,0,-1,1623,1485,0,0
406,-461,0,0,0,0,0,0,0,0,0,-1,1630,1485,0,0
413,-461,0,0,0,0,0,0,0,0,0,-1,1637,1485,0,0
420,-461,0,0,0,0,0,0,0,0,0,-1,1644,1485,0,0
427,-461,0,0,0,0,0,0,0,0,0,-1,1651,1485,0,0
434,-461,0,0,0,0,0,0,0,0,0,-1,1658,1485,0,0
441,-461,0,0,0,0,0,0,0,0,0,-1,1665,1485,0,0
448,-461,0,0,0,0,0,0,0,0,0,-1,1672,1485,0,0
455,-461,0,0,0,0,0,0,0,0,0,-1,1679,1485,0,0
462,-461,0,0,0,0,0,0,0,0,0,-1,1686,1485,0,0
469,-461,0,0,0,0,0,0,0,0,0,-1,1693,1485,0,0
476,-461,14.1906,0.690552,0,0,0,0,0,0,0,-1,1700,1485,14.1906,-0.690525
483,-461,10.6361,3.09106,0,0,0,0,0,0,0,-1,1707,1485,10.6361,-3.091
490,-461,17.9972,0.665894,0,0,0,0,0,0,0,-1,1714,1485,17.9972,-0.665876
497,-461,16.6829,1.87732,0,0,0,0,0,0,0,-1,1721,1485,16.6828,-1.87736
504,-461,15.3884,3.09216,0,0,0,0,0,0,0,-1,1728,1485,15.3885,-3.09212
511,-461,15.4292,14.3512,0,0,0,0,0,0,0,-1,1735,1485,15.4292,-14.3512
518,-461,14.8081,10.0085,0,0,0,0,0,0,0,-1,1742,1485,14.8081,-10.0086
525,-461,14.0022,10.8033,0,0,0,0,0,0,0,-1,1749,1485,14.0022,-10.8033
532,-461,15.6981,12.5398,0,0,0,0,0,0,0,-1,1756,1485,15.6982,-12.5398
539,-461,15.3541,15.2061,0,0,0,0,0,0,0,-1,1763,1485,15.3542,-15.206
546,-461,15.3583,13.6624,0,0,0,0,0,0,0,-1,1770,1485,15.3583,-13.6623
553,-461,14.3386,12.347,0,0,0,0,0,0,0,-1,1777,1485,14.3386,-12.347
560,-461,14.2571,12.1582,-0.0259243,-0.00901314,0.0136187,-0.00143862,-0.0334989,1.06322,0.0218688,0.0426769,1784,1485,14.2571,-12.1582
567,-461,14.4481,11.9445,-0.0141771,-0.00772986,0.00908992,-0.00130889,-0.0205981,0.955799,0.0133172,0.0187722,1791,1485,14.4481,-11.9444
574,-461,14.4492,11.6748,-0.00750758,-0.00679177,0.00606436,-0.00107476,-0.0132246,0.814873,0.00848087,0.0168617,1798,1485,14.4492,-11.6748
581,-461,14.4506,11.3832,-0.0057828,-0.00484632,0.00447971,-0.000810453,-0.00981867,0.837472,0.00629305,0.013988,1805,1485,14.4506,-11.3831
588,-461,14.427,11.1045,-0.004089,-0.00321135,0.00297176,-0.000646188,-0.00665417,0.858701,0.00423717,0.0103475,1812,1485,14.427,-11.1045
595,-461,14.4128,10.8094,-0.00288951,-0.00211151,0.00207105,-0.000393247,-0.00460777,0.878231,0.00294952,0.00827728,1819,1485,14.4129,-10.8094
602,-461,14.4175,10.504,-0.00188372,-0.00140071,0.00146343,-0.000158991,-0.00312543,0.867175,0.0020327,0.00919754,1826,1485,14.4175,-10.5041
609,-461,14.42,10.2024,-0.000552626,-0.00113944,0.00094938,0.000147653,-0.00183972,0.635528,0.00127854,0.0109262,1833,1485,14.4201,-10.2023
616,-461,14.4259,9.90027,0.000750832,-0.00103253,0.000602638,0.000935379,-0.00121707,0.297165,0.00124626,0.0132436,1840,1485,14.4259,-9.90021
623,-461,14.421,9.6123,0.00229669,-0.00119941,0.000350567,0.00233149,-0.00123421,0.098961,0.0020909,0.0136803,1847,1485,14.421,-9.61229
630,-461,14.4098,9.32312,0.00402492,-0.00173056,0.000337824,0.00404468,-0.00175032,0.0584288,0.00343204,0.0126227,1854,1485,14.4098,-9.32307
637,-461,14.41,9.02441,0.00611116,-0.00260551,0.000439077,0.00613322,-0.00262757,0.0502028,0.00519127,0.0128096,1861,1485,14.41,-9.02446
644,-461,14.4736,8.78589,0.00860306,-0.0037514,0.000643092,0.00863645,-0.00378479,0.0518665,0.00735149,0.0276241,1868,1485,14.4736,-8.78593
651,-461,14.2845,8.62109,0.010732,-0.00575618,0.0016083,0.0108875,-0.00591159,0.0963322,0.00983974,0.0347547,1875,1485,14.2846,-8.62113
658,-461,14.8649,8.53101,0.0135573,-0.00796828,0.00244515,0.0138316,-0.00824254,0.111697,0.01288,0.0409165,1882,1485,14.8649,-8.53097
665,-461,15.5272,8.47595,0,0,0,0,0,0,0,-1,1889,1485,15.5272,-8.47592
672,-461,14.4877,6.89429,0,0,0,0,0,0,0,-1,1896,1485,14.4876,-6.89431
679,-461,10.0535,2.16321,0,0,0,0,0,0,0,-1,1903,1485,10.0535,-2.16317
686,-461,10.8195,1.84192,0,0,0,0,0,0,0,-1,1910,1485,10.8194,-1.84195
693,-461,0,0,0,0,0,0,0,0,0,-1,1917,1485,0,0
700,-461,0,0,0,0,0,0,0,0,0,-1,1924,1485,0,0
707,-461,0,0,0,0,0,0,0,0,0,-1,1931,1485,0,0
714,-461,0,0,0,0,0,0,0,0,0,-1,1938,1485,0,0
721,-461,0,0,0,0,0,0,0,0,0,-1,1945,1485,0,0
728,-461,0,0,0,0,0,0,0,0,0,-1,1952,1485,0,0
735,-461,0,0,0,0,0,0,0,0,0,-1,1959,1485,0,0
742,-461,0,0,0,0,0,0,0,0,0,-1,1966,1485,0,0
749,-461,0,0,0,0,0,0,0,0,0,-1,1973,1485,0,0
756,-461,0,0,0,0,0,0,0,0,0,-1,1980,1485,0,0
763,-461,0,0,0,0,0,0,0,0,0,-1,1987,1485,0,0
770,-461,0,0,0,0,0,0,0,0,0,-1,1994,1485,0,0
777,-461,0,0,0,0,0,0,0,0,0,-1,2001,1485,0,0
784,-461,0,0,0,0,0,0,0,0,0,-1,2008,1485,0,0
791,-461,0,0,0,0,0,0,0,0,0,-1,2015,1485,0,0
798,-461,0,0,0,0,0,0,0,0,0,-1,2022,1485,0,0
805,-461,0,0,0,0,0,0,0,0,0,-1,2029,1485,0,0
812,-461,0,0,0,0,0,0,0,0,0,-1,2036,1485,0,0
-700,-468,0,0,0,0,0,0,0,0,0,-1,524,1492,0,0
-693,-468,0,0,0,0,0,0,0,0,0,-1,531,1492,0,0
-686,-468,0,0,0,0,0,0,0,0,0,-1,538,1492,0,0
-679,-468,0,0,0,0,0,0,0,0,0,-1,545,1492,0,0
-672,-468,0,0,0,0,0,0,0,0,0,-1,552,1492,0,0
-665,-468,0,0,0,0,0,0,0,0,0,-1,559,1492,0,0
-658,-468,0,0,0,0,0,0,0,0,0,-1,566,1492,0,0
-651,-468,0,0,0,0,0,0,0,0,0,-1,573,1492,0,0
-644,-468,0,0,0,0,0,0,0,0,0,-1,580,1492,0,0
-637,-468,0,0,0,0,0,0,0,0,0,-1,587,1492,0,0
-630,-468,0,0,0,0,0,0,0,0,0,-1,594,1492,0,0
-623,-468,0,0,0,0,0,0,0,0,0,-1,601,1492,0,0
-616,-468,0,0,0,0,0,0,0,0,0,-1,608,1492,0,0
-609,-468,0,0,0,0,0,0,0,0,0,-1,615,1492,0,0
-602,-468,0,0,0,0,0,0,0,0,0,-1,622,1492,0,0
-595,-468,0,0,0,0,0,0,0,0,0,-1,629,1492,0,0
-588,-468,0,0,0,0,0,0,0,0,0,-1,636,1492,0,0
-581,-468,0,0,0,0,0,0,0,0,0,-1,643,1492,0,0
-574,-468,0,0,0,0,0,0,0,0,0,-1,650,1492,0,0
-567,-468,-11.2603,1.8042,0,0,0,0,0,0,0,-1,657,1492,-11.2603,-1.80424
-560,-468,-8.77441,2.23694,0,0,0,0,0,0,0,-1,664,1492,-8.77443,-2.23692
-553,-468,-5.94061,9.26318,0,0,0,0,0,0,0,-1,671,1492,-5.94062,-9.26322
-546,-468,-10.47,5.43237,0,0,0,0,0,0,0,-1,678,1492,-10.47,-5.4324
-539,-468,-6.60461,2.51782,0,0,0,0,0,0,0,-1,685,1492,-6.6046,-2.51784
-532,-468,-5.25757,3.14075,0.0874494,0.0609012,0.0526015,0.128426,0.0199248,0.661802,0.079809,0.0456086,692,1492,-5.25755,-3.14071
-525,-468,-4.17096,3.77551,0.0659094,0.0456799,0.0393017,0.0963771,0.0152122,0.65945,0.0598288,0.043831,699,1492,-4.17095,-3.77555
-518,-468,-3.2312,4.47668,0,0,0,0,0,0,0,-1,706,1492,-3.23118,-4.47665
-511,-468,-3.39917,6.77979,0.0345786,0.0235897,0.020273,0.0500885,0.00807974,0.653065,0.0310515,0.0372431,713,1492,-3.39917,-6.77984
-504,-468,-3.4632,7.2196,0.0239681,0.0160978,0.013879,0.034459,0.00560683,0.647257,0.0213506,0.0194497,720,1492,-3.46317,-7.21963
-497,-468,-3.48822,7.5603,0.0160391,0.0104477,0.00903513,0.0227012,0.00378564,0.635359,0.0140434,0.0108015,727,1492,-3.48821,-7.56031
-490,-468,-3.47919,7.90552,0.0103594,0.00628658,0.00531293,0.0140128,0.00263317,0.602387,0.00859961,0.00784983,734,1492,-3.47918,-7.90553
-483,-468,-3.49841,8.21704,0.00654548,0.00315414,0.00244132,0.00782224,0.00187738,0.481861,0.0047153,0.00871884,741,1492,-3.49842,-8.21703
-476,-468,-3.50653,8.54712,0.00306615,-0.000137565,-0.000600664,0.00317506,-0.000246481,-0.179376,0.00220347,0.00938798,748,1492,-3.50652,-8.54717
-469,-468,-3.50677,8.88879,0.00115242,-0.00219408,-0.00252697,0.0025099,-0.00355156,-0.492961,0.00351677,0.0127636,755,1492,-3.50675,-8.88882
-462,-468,-3.50262,9.20532,0.00127209,-0.00396531,-0.00395896,0.00340007,-0.00609329,-0.493203,0.00555403,0.0217777,762,1492,-3.50263,-9.20528
-455,-468,-3.52301,9.49951,0.00171992,-0.00556488,-0.00540431,0.00459471,-0.00843966,-0.488874,0.00763375,0.0225524,769,1492,-3.52304,-9.49955
-448,-468,-3.52924,9.8396,0.00252969,-0.00733647,-0.00692324,0.00609758,-0.0109044,-0.475852,0.00994598,0.0137164,776,1492,-3.52923,-9.83964
-441,-468,-3.52252,10.1755,0.00362634,-0.00966501,-0.00865426,0.00789219,-0.0139309,-0.457966,0.0127593,0.0120166,783,1492,-3.5225,-10.1755
-434,-468,-3.47687,10.5162,0.00491731,-0.0126736,-0.01083,0.0100735,-0.0178298,-0.444349,0.0163161,0.012456,790,1492,-3.47685,-10.5162
-427,-468,-3.42621,10.8195,0.00636797,-0.0163951,-0.0134628,0.0126156,-0.0226427,-0.434488,0.020629,0.0201695,797,1492,-3.4262,-10.8194
-420,-468,-3.36346,11.0669,0.0079236,-0.0206801,-0.016382,0.0153683,-0.0281248,-0.426544,0.0254682,0.0354313,804,1492,-3.36346,-11.0669
-413,-468,-3.16876,11.3397,0,0,0,0,0,0,0,-1,811,1492,-3.16875,-11.3397
-406,-468,-2.2356,9.396,0,0,0,0,0,0,0,-1,818,1492,-2.2356,-9.396
-399,-468,-0.940369,8.1936,0,0,0,0,0,0,0,-1,825,1492,-0.940365,-8.19357
-392,-468,-0.35144,8.14673,0,0,0,0,0,0,0,-1,832,1492,-0.351449,-8.14674
-385,-468,0.465759,5.35864,0,0,0,0,0,0,0,-1,839,1492,0.465732,-5.35864
-378,-468,1.99835,3.25391,0,0,0,0,0,0,0,-1,846,1492,1.99837,-3.2539
-371,-468,-0.31842,3.1532,0,0,0,0,0,0,0,-1,853,1492,-0.318441,-3.15324
-364,-468,-0.966736,2.14563,0,0,0,0,0,0,0,-1,860,1492,-0.966735,-2.14557
-357,-468,-3.06787,3.22742,0,0,0,0,0,0,0,-1,867,1492,-3.06784,-3.2274
-350,-468,-3.18658,4.12659,0,0,0,0,0,0,0,-1,874,1492,-3.18659,-4.12658
-343,-468,0,0,0,0,0,0,0,0,0,-1,881,1492,0,0
-336,-468,0,0,0,0,0,0,0,0,0,-1,888,1492,0,0
-329,-468,0,0,0,0,0,0,0,0,0,-1,895,1492,0,0
-322,-468,0,0,0,0,0,0,0,0,0,-1,902,1492,0,0
-315,-468,0,0,0,0,0,0,0,0,0,-1,909,1492,0,0
-308,-468,0,0,0,0,0,0,0,0,0,-1,916,1492,0,0
-301,-468,0,0,0,0,0,0,0,0,0,-1,923,1492,0,0
-294,-468,0,0,0,0,0,0,0,0,0,-1,930,1492,0,0
-287,-468,0,0,0,0,0,0,0,0,0,-1,937,1492,0,0
-280,-468,0,0,0,0,0,0,0,0,0,-1,944,1492,0,0
-273,-468,0,0,0,0,0,0,0,0,0,-1,951,1492,0,0
-266,-468,0,0,0,0,0,0,0,0,0,-1,958,1492,0,0
-259,-468,0,0,0,0,0,0,0,0,0,-1,965,1492,0,0
-252,-468,0,0,0,0,0,0,0,0,0,-1,972,1492,0,0
-245,-468,0,0,0,0,0,0,0,0,0,-1,979,1492,0,0
-238,-468,0,0,0,0,0,0,0,0,0,-1,986,1492,0,0
-231,-468,0,0,0,0,0,0,0,0,0,-1,993,1492,0,0
-224,-468,0,0,0,0,0,0,0,0,0,-1,1000,1492,0,0
-217,-468,0,0,0,0,0,0,0,0,0,-1,1007,1492,0,0
-210,-468,0,0,0,0,0,0,0,0,0,-1,1014,1492,0,0
-203,-468,0,0,0,0,0,0,0,0,0,-1,1021,1492,0,0
-196,-468,0,0,0,0,0,0,0,0,0,-1,1028,1492,0,0
-189,-468,0,0,0,0,0,0,0,0,0,-1,1035,1492,0,0
-182,-468,0,0,0,0,0,0,0,0,0,-1,1042,1492,0,0
-175,-468,0,0,0,0,0,0,0,0,0,-1,1049,1492,0,0
-168,-468,0,0,0,0,0,0,0,0,0,-1,1056,1492,0,0
-161,-468,0,0,0,0,0,0,0,0,0,-1,1063,1492,0,0
-154,-468,0,0,0,0,0,0,0,0,0,-1,1070,1492,0,0
-147,-468,0,0,0,0,0,0,0,0,0,-1,1077,1492,0,0
-140,-468,0,0,0,0,0,0,0,0,0,-1,1084,1492,0,0
-133,-468,0,0,0,0,0,0,0,0,0,-1,1091,1492,0,0
-126,-468,0,0,0,0,0,0,0,0,0,-1,1098,1492,0,0
-119,-468,0,0,0,0,0,0,0,0,0,-1,1105,1492,0,0
-112,-468,0,0,0,0,0,0,0,0,0,-1,1112,1492,0,0
-105,-468,0,0,0,0,0,0,0,0,0,-1,1119,1492,0,0
-98,-468,0,0,0,0,0,0,0,0,0,-1,1126,1492,0,0
-91,-468,0,0,0,0,0,0,0,0,0,-1,1133,1492,0,0
-84,-468,0,0,0,0,0,0,0,0,0,-1,1140,1492,0,0
-77,-468,0,0,0,0,0,0,0,0,0,-1,1147,1492,0,0
-70,-468,0,0,0,0,0,0,0,0,0,-1,1154,1492,0,0
-63,-468,0,0,0,0,0,0,0,0,0,-1,1161,1492,0,0
-56,-468,0,0,0,0,0,0,0,0,0,-1,1168,1492,0,0
-49,-468,0,0,0,0,0,0,0,0,0,-1,1175,1492,0,0
-42,-468,0,0,0,0,0,0,0,0,0,-1,1182,1492,0,0
-35,-468,0,0,0,0,0,0,0,0,0,-1,1189,1492,0,0
-28,-468,0,0,0,0,0,0,0,0,0,-1,1196,1492,0,0
-21,-468,0,0,0,0,0,0,0,0,0,-1,1203,1492,0,0
-14,-468,0,0,0,0,0,0,0,0,0,-1,1210,1492,0,0
-7,-468,0,0,0,0,0,0,0,0,0,-1,1217,1492,0,0
0,-468,0,0,0,0,0,0,0,0,0,-1,1224,1492,0,0
7,-468,0,0,0,0,0,0,0,0,0,-1,1231,1492,0,0
14,-468,0,0,0,0,0,0,0,0,0,-1,1238,1492,0,0
21,-468,0,0,0,0,0,0,0,0,0,-1,1245,1492,0,0
28,-468,0,0,0,0,0,0,0,0,0,-1,1252,1492,0,0
35,-468,0,0,0,0,0,0,0,0,0,-1,1259,1492,0,0
42,-468,0,0,0,0,0,0,0,0,0,-1,1266,1492,0,0
49,-468,0,0,0,0,0,0,0,0,0,-1,1273,1492,0,0
56,-468,0,0,0,0,0,0,0,0,0,-1,1280,1492,0,0
63,-468,0,0,0,0,0,0,0,0,0,-1,1287,1492,0,0
70,-468,0,0,0,0,0,0,0,0,0,-1,1294,1492,0,0
77,-468,0,0,0,0,0,0,0,0,0,-1,1301,1492,0,0
84,-468,0,0,0,0,0,0,0,0,0,-1,1308,1492,0,0
91,-468,0,0,0,0,0,0,0,0,0,-1,1315,1492,0,0
98,-468,0,0,0,0,0,0,0,0,0,-1,1322,1492,0,0
105,-468,0,0,0,0,0,0,0,0,0,-1,1329,1492,0,0
112,-468,0,0,0,0,0,0,0,0,0,-1,1336,1492,0,0
119,-468,0,0,0,0,0,0,0,0,0,-1,1343,1492,0,0
126,-468,0,0,0,0,0,0,0,0,0,-1,1350,1492,0,0
133,-468,0,0,0,0,0,0,0,0,0,-1,1357,1492,0,0
140,-468,0,0,0,0,0,0,0,0,0,-1,1364,1492,0,0
147,-468,0,0,0,0,0,0,0,0,0,-1,1371,1492,0,0
154,-468,0,0,0,0,0,0,0,0,0,-1,1378,1492,0,0
161,-468,0,0,0,0,0,0,0,0,0,-1,1385,1492,0,0
168,-468,0,0,0,0,0,0,0,0,0,-1,1392,1492,0,0
175,-468,0,0,0,0,0,0,0,0,0,-1,1399,1492,0,0
182,-468,0,0,0,0,0,0,0,0,0,-1,1406,1492,0,0
189,-468,0,0,0,0,0,0,0,0,0,-1,1413,1492,0,0
196,-468,0,0,0,0,0,0,0,0,0,-1,1420,1492,0,0
203,-468,0,0,0,0,0,0,0,0,0,-1,1427,1492,0,0
210,-468,0,0,0,0,0,0,0,0,0,-1,1434,1492,0,0
217,-468,0,0,0,0,0,0,0,0,0,-1,1441,1492,0,0
224,-468,0,0,0,0,0,0,0,0,0,-1,1448,1492,0,0
231,-468,0,0,0,0,0,0,0,0,0,-1,1455,1492,0,0
238,-468,0,0,0,0,0,0,0,0,0,-1,1462,1492,0,0
245,-468,0,0,0,0,0,0,0,0,0,-1,1469,1492,0,0
252,-468,0,0,0,0,0,0,0,0,0,-1,1476,1492,0,0
259,-468,0,0,0,0,0,0,0,0,0,-1,1483,1492,0,0
266,-468,0,0,0,0,0,0,0,0,0,-1,1490,1492,0,0
273,-468,0,0,0,0,0,0,0,0,0,-1,1497,1492,0,0
280,-468,0,0,0,0,0,0,0,0,0,-1,1504,1492,0,0
287,-468,0,0,0,0,0,0,0,0,0,-1,1511,1492,0,0
294,-468,0,0,0,0,0,0,0,0,0,-1,1518,1492,0,0
301,-468,0,0,0,0,0,0,0,0,0,-1,1525,1492,0,0
308,-468,0,0,0,0,0,0,0,0,0,-1,1532,1492,0,0
315,-468,0,0,0,0,0,0,0,0,0,-1,1539,1492,0,0
322,-468,0,0,0,0,0,0,0,0,0,-1,1546,1492,0,0
329,-468,0,0,0,0,0,0,0,0,0,-1,1553,1492,0,0
336,-468,0,0,0,0,0,0,0,0,0,-1,1560,1492,0,0
343,-468,0,0,0,0,0,0,0,0,0,-1,1567,1492,0,0
350,-468,0,0,0,0,0,0,0,0,0,-1,1574,1492,0,0
357,-468,0,0,0,0,0,0,0,0,0,-1,1581,1492,0,0
364,-468,0,0,0,0,0,0,0,0,0,-1,1588,1492,0,0
371,-468,0,0,0,0,0,0,0,0,0,-1,1595,1492,0,0
378,-468,0,0,0,0,0,0,0,0,0,-1,1602,1492,0,0
385,-468,0,0,0,0,0,0,0,0,0,-1,1609,1492,0,0
392,-468,0,0,0,0,0,0,0,0,0,-1,1616,1492,0,0
399,-468,0,0,0,0,0,0,0,0,0,-1,1623,1492,0,0
406,-468,0,0,0,0,0,0,0,0,0,-1,1630,1492,0,0
413,-468,0,0,0,0,0,0,0,0,0,-1,1637,1492,0,0
420,-468,0,0,0,0,0,0,0,0,0,-1,1644,1492,0,0
427,-468,0,0,0,0,0,0,0,0,0,-1,1651,1492,0,0
434,-468,0,0,0,0,0,0,0,0,0,-1,1658,1492,0,0
441,-468,0,0,0,0,0,0,0,0,0,-1,1665,1492,0,0
448,-468,0,0,0,0,0,0,0,0,0,-1,1672,1492,0,0
455,-468,0,0,0,0,0,0,0,0,0,-1,1679,1492,0,0
462,-468,0,0,0,0,0,0,0,0,0,-1,1686,1492,0,0
469,-468,15.6879,1.2677,0,0,0,0,0,0,0,-1,1693,1492,15.6879,-1.26772
476,-468,14.9318,1.61865,0,0,0,0,0,0,0,-1,1700,1492,14.9318,-1.61869
483,-468,11.265,4.64795,0,0,0,0,0,0,0,-1,1707,1492,11.265,-4.64798
490,-468,12.1316,3.51624,0,0,0,0,0,0,0,-1,1714,1492,12.1316,-3.51628
497,-468,16.5355,3.14587,0,0,0,0,0,0,0,-1,1721,1492,16.5356,-3.14583
504,-468,15.0642,4.10437,0,0,0,0,0,0,0,-1,1728,1492,15.0643,-4.10431
511,-468,15.6877,9.4801,0,0,0,0,0,0,0,-1,1735,1492,15.6878,-9.48007
518,-468,13.759,11.0887,0,0,0,0,0,0,0,-1,1742,1492,13.759,-11.0887
525,-468,15.1826,12.7356,0,0,0,0,0,0,0,-1,1749,1492,15.1826,-12.7356
532,-468,15.1664,12.6842,0,0,0,0,0,0,0,-1,1756,1492,15.1663,-12.6842
539,-468,14.2665,12.6499,0,0,0,0,0,0,0,-1,1763,1492,14.2665,-12.65
546,-468,14.2611,12.5542,0,0,0,0,0,0,0,-1,1770,1492,14.2611,-12.5542
553,-468,14.2565,12.38,-0.0333337,-0.00798629,0.0157898,-0.000413015,-0.040907,1.12358,0.0271347,0.0371918,1777,1492,14.2565,-12.38
560,-468,14.1564,12.2524,-0.0210325,-0.00675156,0.011055,-0.000731472,-0.0270526,1.07214,0.0177963,0.0254171,1784,1492,14.1564,-12.2524
567,-468,14.1238,11.9987,-0.0105142,-0.00568487,0.00699731,-0.000697318,-0.0155018,0.951544,0.0101101,0.0153693,1791,1492,14.1238,-11.9986
574,-468,14.1516,11.6836,-0.004429,-0.00502074,0.00430994,-0.000404793,-0.00904495,0.751128,0.00589967,0.0138676,1798,1492,14.1516,-11.6836
581,-468,14.1671,11.3972,-0.0029597,-0.00343447,0.00295887,-0.000228709,-0.00616546,0.745369,0.00403623,0.0143264,1805,1492,14.1671,-11.3972
588,-468,14.1326,11.1158,-0.00156359,-0.00206367,0.00165115,-0.000143661,-0.0034836,0.710252,0.00227603,0.0118204,1812,1492,14.1326,-11.1158
595,-468,14.1229,10.8057,-0.000695833,-0.00121062,0.000953031,3.39521e-05,-0.0019404,0.653507,0.00130507,0.00964415,1819,1492,14.1229,-10.8056
602,-468,14.1296,10.4965,-4.64656e-05,-0.000734537,0.000564424,0.00027051,-0.00105151,0.511698,0.000806445,0.00879947,1826,1492,14.1297,-10.4965
609,-468,14.1073,10.201,0.000951554,-0.000699427,0.000253694,0.000989658,-0.000737531,0.149082,0.00100073,0.00991697,1833,1492,14.1073,-10.2011
616,-468,14.11,9.9165,0.00190653,-0.000813099,0.000109388,0.00191092,-0.000817491,0.0401352,0.00161687,0.0102553,1840,1492,14.11,-9.91654
623,-468,14.1045,9.62207,0.00312088,-0.00124516,0.000101839,0.00312325,-0.00124754,0.0233084,0.00259978,0.0109847,1847,1492,14.1045,-9.62212
630,-468,14.1104,9.30737,0.00460931,-0.00202411,0.000307184,0.0046235,-0.00203831,0.0461767,0.00394155,0.0106593,1854,1492,14.1103,-9.30741
637,-468,14.1364,8.99377,0.00663574,-0.00321718,0.000618589,0.00667442,-0.00325586,0.0624555,0.0058454,0.013861,1861,1492,14.1364,-8.99379
644,-468,14.2037,8.81189,0.00931062,-0.00471963,0.00100915,0.00938283,-0.00479184,0.0714368,0.00832561,0.0406068,1868,1492,14.2038,-8.81186
651,-468,14.3848,8.54248,0,0,0,0,0,0,0,-1,1875,1492,14.3847,-8.54249
658,-468,14.771,8.66565,0,0,0,0,0,0,0,-1,1882,1492,14.771,-8.66569
665,-468,15.4673,8.59546,0,0,0,0,0,0,0,-1,1889,1492,15.4672,-8.59548
672,-468,9.96814,3.61133,0,0,0,0,0,0,0,-1,1896,1492,9.96817,-3.61139
679,-468,11.2191,1.91968,0,0,0,0,0,0,0,-1,1903,1492,11.2191,-1.91965
686,-468,11.9252,1.42285,0,0,0,0,0,0,0,-1,1910,1492,11.9252,-1.42291
693,-468,0,0,0,0,0,0,0,0,0,-1,1917,1492,0,0
700,-468,0,0,0,0,0,0,0,0,0,-1,1924,1492,0,0
707,-468,0,0,0,0,0,0,0,0,0,-1,1931,1492,0,0
714,-468,0,0,0,0,0,0,0,0,0,-1,1938,1492,0,0
721,-468,0,0,0,0,0,0,0,0,0,-1,1945,1492,0,0
728,-468,0,0,0,0,0,0,0,0,0,-1,1952,1492,0,0
735,-468,0,0,0,0,0,0,0,0,0,-1,1959,1492,0,0
742,-468,0,0,0,0,0,0,0,0,0,-1,1966,1492,0,0
749,-468,0,0,0,0,0,0,0,0,0,-1,1973,1492,0,0
756,-468,0,0,0,0,0,0,0,0,0,-1,1980,1492,0,0
763,-468,0,0,0,0,0,0,0,0,0,-1,1987,1492,0,0
770,-468,0,0,0,0,0,0,0,0,0,-1,1994,1492,0,0
777,-468,0,0,0,0,0,0,0,0,0,-1,2001,1492,0,0
784,-468,0,0,0,0,0,0,0,0,0,-1,2008,1492,0,0
791,-468,0,0,0,0,0,0,0,0,0,-1,2015,1492,0,0
798,-468,0,0,0,0,0,0,0,0,0,-1,2022,1492,0,0
805,-468,0,0,0,0,0,0,0,0,0,-1,2029,1492,0,0
812,-468,0,0,0,0,0,0,0,0,0,-1,2036,1492,0,0
-700,-475,0,0,0,0,0,0,0,0,0,-1,524,1499,0,0
-693,-475,0,0,0,0,0,0,0,0,0,-1,531,1499,0,0
-686,-475,0,0,0,0,0,0,0,0,0,-1,538,1499,0,0
-679,-475,0,0,0,0,0,0,0,0,0,-1,545,1499,0,0
-672,-475,0,0,0,0,0,0,0,0,0,-1,552,1499,0,0
-665,-475,0,0,0,0,0,0,0,0,0,-1,559,1499,0,0
-658,-475,0,0,0,0,0,0,0,0,0,-1,566,1499,0,0
-651,-475,0,0,0,0,0,0,0,0,0,-1,573,1499,0,0
-644,-475,0,0,0,0,0,0,0,0,0,-1,580,1499,0,0
-637,-475,0,0,0,0,0,0,0,0,0,-1,587,1499,0,0
-630,-475,0,0,0,0,0,0,0,0,0,-1,594,1499,0,0
-623,-475,0,0,0,0,0,0,0,0,0,-1,601,1499,0,0
-616,-475,0,0,0,0,0,0,0,0,0,-1,608,1499,0,0
-609,-475,0,0,0,0,0,0,0,0,0,-1,615,1499,0,0
-602,-475,0,0,0,0,0,0,0,0,0,-1,622,1499,0,0
-595,-475,0,0,0,0,0,0,0,0,0,-1,629,1499,0,0
-588,-475,0,0,0,0,0,0,0,0,0,-1,636,1499,0,0
-581,-475,0,0,0,0,0,0,0,0,0,-1,643,1499,0,0
-574,-475,0,0,0,0,0,0,0,0,0,-1,650,1499,0,0
-567,-475,0,0,0,0,0,0,0,0,0,-1,657,1499,0,0
-560,-475,-9.42731,9.29517,0,0,0,0,0,0,0,-1,664,1499,-9.42731,-9.29519
-553,-475,-8.15131,8.78369,0,0,0,0,0,0,0,-1,671,1499,-8.15131,-8.78367
-546,-475,-8.41254,8.20654,0,0,0,0,0,0,0,-1,678,1499,-8.41251,-8.20655
-539,-475,-6.99493,1.24988,0,0,0,0,0,0,0,-1,685,1499,-6.99495,-1.2499
-532,-475,-5.64191,2.60474,0.104429,0.0694472,0.0581939,0.147704,0.0261727,0.63941,0.0910084,0.0474975,692,1499,-5.64194,-2.60475
-525,-475,-4.48663,3.54761,0.0788938,0.0523217,0.0436019,0.111189,0.0200265,0.637511,0.0684343,0.0432335,699,1499,-4.48661,-3.54763
-518,-475,-3.36462,3.58862,0,0,0,0,0,0,0,-1,706,1499,-3.3646,-3.5886
-511,-475,-2.27448,3.67712,0,0,0,0,0,0,0,-1,713,1499,-2.27445,-3.6771
-504,-475,-3.13531,7.2865,0.0284202,0.018385,0.0153284,0.0395313,0.00727389,0.627226,0.0242953,0.0307064,720,1499,-3.13534,-7.28647
-497,-475,-3.15466,7.60535,0.0188011,0.0118661,0.00998246,0.0259012,0.00476606,0.618237,0.0159184,0.0174249,727,1499,-3.15466,-7.60531
-490,-475,-3.15326,7.90051,0.0119214,0.00713135,0.00602168,0.0160069,0.00304589,0.596121,0.00981479,0.00903413,734,1499,-3.15329,-7.90048
-483,-475,-3.15662,8.25269,0.00733329,0.00373592,0.00310504,0.00912299,0.00194622,0.522876,0.00554823,0.00846901,741,1499,-3.15664,-8.25275
-476,-475,-3.15857,8.56116,0.00340469,0.000467366,0.000203841,0.00341877,0.000453287,0.0689564,0.00214412,0.00956662,748,1499,-3.15856,-8.5611
-469,-475,-3.15112,8.87512,0.00118686,-0.00154005,-0.00150828,0.00185661,-0.0022098,-0.417894,0.00235069,0.0118677,755,1499,-3.15114,-8.87513
-462,-475,-3.14728,9.21021,0.0012914,-0.00311843,-0.00258661,0.00248534,-0.00431237,-0.432446,0.00397163,0.0168865,762,1499,-3.14726,-9.2102
-455,-475,-3.19135,9.54199,0.00185456,-0.00432413,-0.00355965,0.00347851,-0.00594808,-0.428007,0.00550435,0.0155172,769,1499,-3.19137,-9.54193
-448,-475,-3.22314,9.86133,0.00285278,-0.00550701,-0.00446881,0.00479186,-0.00744609,-0.409395,0.00712076,0.0132712,776,1499,-3.22315,-9.86132
-441,-475,-3.20782,10.1958,0.00412862,-0.00703463,-0.00548505,0.00637262,-0.00927862,-0.388336,0.00908802,0.015928,783,1499,-3.20783,-10.1958
-434,-475,-3.19647,10.5114,0.00557616,-0.00903882,-0.00676407,0.00822619,-0.0116888,-0.3734,0.0115557,0.0104042,790,1499,-3.19646,-10.5113
-427,-475,-3.15466,10.8774,0.00712784,-0.0114646,-0.0083558,0.0103312,-0.0146679,-0.366087,0.0145054,0.0163009,797,1499,-3.15467,-10.8775
-420,-475,-3.08105,11.1915,0.00870443,-0.0142523,-0.0101147,0.0125251,-0.018073,-0.361163,0.0177623,0.027627,804,1499,-3.08105,-11.1916
-413,-475,-2.8559,11.1281,0.0104398,-0.0173083,-0.0118848,0.0148342,-0.0217028,-0.354162,0.0212185,0.049817,811,1499,-2.85587,-11.1281
-406,-475,-2.36285,11.2203,0,0,0,0,0,0,0,-1,818,1499,-2.36283,-11.2203
-399,-475,-1.39667,6.1615,0,0,0,0,0,0,0,-1,825,1499,-1.39664,-6.16155
-392,-475,0.217163,8.61389,0,0,0,0,0,0,0,-1,832,1499,0.217167,-8.6139
-385,-475,1.18372,2.73999,0,0,0,0,0,0,0,-1,839,1499,1.18372,-2.73995
-378,-475,1.31409,2.90149,0,0,0,0,0,0,0,-1,846,1499,1.31411,-2.90151
-371,-475,2.3476,3.31116,0,0,0,0,0,0,0,-1,853,1499,2.34761,-3.31121
-364,-475,1.04462,9.05823,0,0,0,0,0,0,0,-1,860,1499,1.04461,-9.05825
-357,-475,-0.262756,7.97205,0,0,0,0,0,0,0,-1,867,1499,-0.262784,-7.97205
-350,-475,-2.77173,4.35486,0,0,0,0,0,0,0,-1,874,1499,-2.77175,-4.35491
-343,-475,-6.81641,-1.95203,0,0,0,0,0,0,0,-1,881,1499,-6.81643,1.95198
-336,-475,0,0,0,0,0,0,0,0,0,-1,888,1499,0,0
-329,-475,0,0,0,0,0,0,0,0,0,-1,895,1499,0,0
-322,-475,0,0,0,0,0,0,0,0,0,-1,902,1499,0,0
-315,-475,0,0,0,0,0,0,0,0,0,-1,909,1499,0,0
-308,-475,0,0,0,0,0,0,0,0,0,-1,916,1499,0,0
-301,-475,0,0,0,0,0,0,0,0,0,-1,923,1499,0,0
-294,-475,0,0,0,0,0,0,0,0,0,-1,930,1499,0,0
-287,-475,0,0,0,0,0,0,0,0,0,-1,937,1499,0,0
-280,-475,0,0,0,0,0,0,0,0,0,-1,944,1499,0,0
-273,-475,0,0,0,0,0,0,0,0,0,-1,951,1499,0,0
-266,-475,0,0,0,0,0,0,0,0,0,-1,958,1499,0,0
-259,-475,0,0,0,0,0,0,0,0,0,-1,965,1499,0,0
-252,-475,0,0,0,0,0,0,0,0,0,-1,972,1499,0,0
-245,-475,0,0,0,0,0,0,0,0,0,-1,979,1499,0,0
-238,-475,0,0,0,0,0,0,0,0,0,-1,986,1499,0,0
-231,-475,0,0,0,0,0,0,0,0,0,-1,993,1499,0,0
-224,-475,0,0,0,0,0,0,0,0,0,-1,1000,1499,0,0
-217,-475,0,0,0,0,0,0,0,0,0,-1,1007,1499,0,0
-210,-475,0,0,0,0,0,0,0,0,0,-1,1014,1499,0,0
-203,-475,0,0,0,0,0,0,0,0,0,-1,1021,1499,0,0
-196,-475,0,0,0,0,0,0,0,0,0,-1,1028,1499,0,0
-189,-475,0,0,0,0,0,0,0,0,0,-1,1035,1499,0,0
-182,-475,0,0,0,0,0,0,0,0,0,-1,1042,1499,0,0
-175,-475,0,0,0,0,0,0,0,0,0,-1,1049,1499,0,0
-168,-475,0,0,0,0,0,0,0,0,0,-1,1056,1499,0,0
-161,-475,0,0,0,0,0,0,0,0,0,-1,1063,1499,0,0
-154,-475,0,0,0,0,0,0,0,0,0,-1,1070,1499,0,0
-147,-475,0,0,0,0,0,0,0,0,0,-1,1077,1499,0,0
-140,-475,0,0,0,0,0,0,0,0,0,-1,1084,1499,0,0
-133,-475,0,0,0,0,0,0,0,0,0,-1,1091,1499,0,0
-126,-475,0,0,0,0,0,0,0,0,0,-1,1098,1499,0,0
-119,-475,0,0,0,0,0,0,0,0,0,-1,1105,1499,0,0
-112,-475,0,0,0,0,0,0,0,0,0,-1,1112,1499,0,0
-105,-475,0,0,0,0,0,0,0,0,0,-1,1119,1499,0,0
-98,-475,0,0,0,0,0,0,0,0,0,-1,1126,1499,0,0
-91,-475,0,0,0,0,0,0,0,0,0,-1,1133,1499,0,0
-84,-475,0,0,0,0,0,0,0,0,0,-1,1140,1499,0,0
-77,-475,0,0,0,0,0,0,0,0,0,-1,1147,1499,0,0
-70,-475,0,0,0,0,0,0,0,0,0,-1,1154,1499,0,0
-63,-475,0,0,0,0,0,0,0,0,0,-1,1161,1499,0,0
-56,-475,0,0,0,0,0,0,0,0,0,-1,1168,1499,0,0
-49,-475,0,0,0,0,0,0,0,0,0,-1,1175,1499,0,0
-42,-475,0,0,0,0,0,0,0,0,0,-1,1182,1499,0,0
-35,-475,0,0,0,0,0,0,0,0,0,-1,1189,1499,0,0
-28,-475,0,0,0,0,0,0,0,0,0,-1,1196,1499,0,0
-21,-475,0,0,0,0,0,0,0,0,0,-1,1203,1499,0,0
-14,-475,0,0,0,0,0,0,0,0,0,-1,1210,1499,0,0
-7,-475,0,0,0,0,0,0,0,0,0,-1,1217,1499,0,0
0,-475,0,0,0,0,0,0,0,0,0,-1,1224,1499,0,0
7,-475,0,0,0,0,0,0,0,0,0,-1,1231,1499,0,0
14,-475,0,0,0,0,0,0,0,0,0,-1,1238,1499,0,0
21,-475,0,0,0,0,0,0,0,0,0,-1,1245,1499,0,0
28,-475,0,0,0,0,0,0,0,0,0,-1,1252,1499,0,0
35,-475,0,0,0,0,0,0,0,0,0,-1,1259,1499,0,0
42,-475,0,0,0,0,0,0,0,0,0,-1,1266,1499,0,0
49,-475,0,0,0,0,0,0,0,0,0,-1,1273,1499,0,0
56,-475,0,0,0,0,0,0,0,0,0,-1,1280,1499,0,0
63,-475,0,0,0,0,0,0,0,0,0,-1,1287,1499,0,0
70,-475,0,0,0,0,0,0,0,0,0,-1,1294,1499,0,0
77,-475,0,0,0,0,0,0,0,0,0,-1,1301,1499,0,0
84,-475,0,0,0,0,0,0,0,0,0,-1,1308,1499,0,0
91,-475,0,0,0,0,0,0,0,0,0,-1,1315,1499,0,0
98,-475,0,0,0,0,0,0,0,0,0,-1,1322,1499,0,0
105,-475,0,0,0,0,0,0,0,0,0,-1,1329,1499,0,0
112,-475,0,0,0,0,0,0,0,0,0,-1,1336,1499,0,0
119,-475,0,0,0,0,0,0,0,0,0,-1,1343,1499,0,0
126,-475,0,0,0,0,0,0,0,0,0,-1,1350,1499,0,0
133,-475,0,0,0,0,0,0,0,0,0,-1,1357,1499,0,0
140,-475,0,0,0,0,0,0,0,0,0,-1,1364,1499,0,0
147,-475,0,0,0,0,0,0,0,0,0,-1,1371,1499,0,0
154,-475,0,0,0,0,0,0,0,0,0,-1,1378,1499,0,0
161,-475,0,0,0,0,0,0,0,0,0,-1,1385,1499,0,0
168,-475,0,0,0,0,0,0,0,0,0,-1,1392,1499,0,0
175,-475,0,0,0,0,0,0,0,0,0,-1,1399,1499,0,0
182,-475,0,0,0,0,0,0,0,0,0,-1,1406,1499,0,0
189,-475,0,0,0,0,0,0,0,0,0,-1,1413,1499,0,0
196,-475,0,0,0,0,0,0,0,0,0,-1,1420,1499,0,0
203,-475,0,0,0,0,0,0,0,0,0,-1,1427,1499,0,0
210,-475,0,0,0,0,0,0,0,0,0,-1,1434,1499,0,0
217,-475,0,0,0,0,0,0,0,0,0,-1,1441,1499,0,0
224,-475,0,0,0,0,0,0,0,0,0,-1,1448,1499,0,0
231,-475,0,0,0,0,0,0,0,0,0,-1,1455,1499,0,0
238,-475,0,0,0,0,0,0,0,0,0,-1,1462,1499,0,0
245,-475,0,0,0,0,0,0,0,0,0,-1,1469,1499,0,0
252,-475,0,0,0,0,0,0,0,0,0,-1,1476,1499,0,0
259,-475,0,0,0,0,0,0,0,0,0,-1,1483,1499,0,0
266,-475,0,0,0,0,0,0,0,0,0,-1,1490,1499,0,0
273,-475,0,0,0,0,0,0,0,0,0,-1,1497,1499,0,0
280,-475,0,0,0,0,0,0,0,0,0,-1,1504,1499,0,0
287,-475,0,0,0,0,0,0,0,0,0,-1,1511,1499,0,0
294,-475,0,0,0,0,0,0,0,0,0,-1,1518,1499,0,0
301,-475,0,0,0,0,0,0,0,0,0,-1,1525,1499,0,0
308,-475,0,0,0,0,0,0,0,0,0,-1,1532,1499,0,0
315,-475,0,0,0,0,0,0,0,0,0,-1,1539,1499,0,0
322,-475,0,0,0,0,0,0,0,0,0,-1,1546,1499,0,0
329,-475,0,0,0,0,0,0,0,0,0,-1,1553,1499,0,0
336,-475,0,0,0,0,0,0,0,0,0,-1,1560,1499,0,0
343,-475,0,0,0,0,0,0,0,0,0,-1,1567,1499,0,0
350,-475,0,0,0,0,0,0,0,0,0,-1,1574,1499,0,0
357,-475,0,0,0,0,0,0,0,0,0,-1,1581,1499,0,0
364,-475,0,0,0,0,0,0,0,0,0,-1,1588,1499,0,0
371,-475,0,0,0,0,0,0,0,0,0,-1,1595,1499,0,0
378,-475,0,0,0,0,0,0,0,0,0,-1,1602,1499,0,0
385,-475,0,0,0,0,0,0,0,0,0,-1,1609,1499,0,0
392,-475,0,0,0,0,0,0,0,0,0,-1,1616,1499,0,0
399,-475,0,0,0,0,0,0,0,0,0,-1,1623,1499,0,0
406,-475,0,0,0,0,0,0,0,0,0,-1,1630,1499,0,0
413,-475,0,0,0,0,0,0,0,0,0,-1,1637,1499,0,0
420,-475,0,0,0,0,0,0,0,0,0,-1,1644,1499,0,0
427,-475,0,0,0,0,0,0,0,0,0,-1,1651,1499,0,0
434,-475,0,0,0,0,0,0,0,0,0,-1,1658,1499,0,0
441,-475,0,0,0,0,0,0,0,0,0,-1,1665,1499,0,0
448,-475,0,0,0,0,0,0,0,0,0,-1,1672,1499,0,0
455,-475,0,0,0,0,0,0,0,0,0,-1,1679,1499,0,0
462,-475,12.6372,0.275391,0,0,0,0,0,0,0,-1,1686,1499,12.6372,-0.27536
469,-475,15.6437,2.28296,0,0,0,0,0,0,0,-1,1693,1499,15.6437,-2.28293
476,-475,15.3302,2.71436,0,0,0,0,0,0,0,-1,1700,1499,15.3303,-2.7143
483,-475,10.7461,5.91479,0,0,0,0,0,0,0,-1,1707,1499,10.7461,-5.91476
490,-475,11.9305,4.4364,0,0,0,0,0,0,0,-1,1714,1499,11.9305,-4.43644
497,-475,15.3451,4.3479,0,0,0,0,0,0,0,-1,1721,1499,15.3451,-4.34789
504,-475,16.9646,7.71265,0,0,0,0,0,0,0,-1,1728,1499,16.9646,-7.71265
511,-475,19.6172,13.4172,0,0,0,0,0,0,0,-1,1735,1499,19.6172,-13.4173
518,-475,17.1322,14.2107,0,0,0,0,0,0,0,-1,1742,1499,17.1322,-14.2107
525,-475,14.934,12.5544,0,0,0,0,0,0,0,-1,1749,1499,14.9339,-12.5545
532,-475,14.0492,12.8966,0,0,0,0,0,0,0,-1,1756,1499,14.0491,-12.8966
539,-475,13.9814,12.7731,-0.0647422,-0.00684756,0.0258763,0.00303203,-0.0746218,1.20608,0.0507887,0.0472671,1763,1499,13.9814,-12.7731
546,-475,13.9161,12.6351,-0.0434897,-0.00696682,0.0188439,0.00101242,-0.0514689,1.17025,0.034655,0.037754,1770,1499,13.9161,-12.6351
553,-475,13.9674,12.5262,-0.028298,-0.00654121,0.013463,-0.000110893,-0.0347283,1.1252,0.0231153,0.0216415,1777,1499,13.9674,-12.5263
560,-475,13.7787,12.3241,-0.0177076,-0.00539031,0.00931329,-0.000383551,-0.0227144,1.07753,0.0150167,0.0167521,1784,1499,13.7787,-12.324
567,-475,13.8579,11.9752,-0.00847827,-0.0044857,0.00572903,-0.000415112,-0.0125489,0.953045,0.00823102,0.0126677,1791,1499,13.8579,-11.9752
574,-475,13.8502,11.6779,-0.00299096,-0.00396716,0.00335088,-9.28217e-05,-0.0068653,0.713076,0.00454624,0.0126288,1798,1499,13.8502,-11.6779
581,-475,13.8528,11.4001,-0.00165022,-0.00262782,0.00216677,8.22027e-05,-0.00436024,0.67446,0.00293461,0.0113357,1805,1499,13.8528,-11.4002
588,-475,13.8367,11.1195,-0.000419924,-0.00142638,0.000992974,0.000190058,-0.00203636,0.550866,0.00142516,0.010022,1812,1499,13.8366,-11.1195
595,-475,13.8502,10.8167,0.000289563,-0.000709212,0.000392595,0.000425406,-0.000845056,0.333121,0.000746721,0.011067,1819,1499,13.8502,-10.8167
602,-475,13.8567,10.5081,0.000786479,-0.000341701,8.83005e-05,0.000793349,-0.00034857,0.0776381,0.000675752,0.0127181,1826,1499,13.8567,-10.5081
609,-475,13.823,10.2064,0.00164006,-0.000397552,-0.000148124,0.00165077,-0.000408263,-0.072189,0.00125887,0.0121019,1833,1499,13.823,-10.2064
616,-475,13.8058,9.93726,0.00246122,-0.000607673,-0.000232718,0.00247877,-0.00062522,-0.0752576,0.00189561,0.0119718,1840,1499,13.8058,-9.93727
623,-475,13.7959,9.63245,0.00356367,-0.00118469,-0.000140083,0.0035678,-0.00118882,-0.0294672,0.00285843,0.0115285,1847,1499,13.7959,-9.6325
630,-475,13.8198,9.32886,0.00506267,-0.00209811,0.000123789,0.00506481,-0.00210025,0.0172802,0.00425314,0.0150284,1854,1499,13.8198,-9.32889
637,-475,13.886,9.00684,0.00727985,-0.00351621,0.000501747,0.00730311,-0.00353948,0.0463419,0.00638444,0.0283072,1861,1499,13.886,-9.00684
644,-475,14.0057,8.66626,0,0,0,0,0,0,0,-1,1868,1499,14.0058,-8.66628
651,-475,11.7965,7.57593,0,0,0,0,0,0,0,-1,1875,1499,11.7965,-7.5759
658,-475,14.6708,8.80322,0,0,0,0,0,0,0,-1,1882,1499,14.6708,-8.8032
665,-475,9.33435,5.43335,0,0,0,0,0,0,0,-1,1889,1499,9.33439,-5.43332
672,-475,9.38635,1.10474,0,0,0,0,0,0,0,-1,1896,1499,9.38629,-1.10475
679,-475,12.2594,1.31079,0,0,0,0,0,0,0,-1,1903,1499,12.2594,-1.31077
686,-475,0,0,0,0,0,0,0,0,0,-1,1910,1499,0,0
693,-475,0,0,0,0,0,0,0,0,0,-1,1917,1499,0,0
700,-475,0,0,0,0,0,0,0,0,0,-1,1924,1499,0,0
707,-475,0,0,0,0,0,0,0,0,0,-1,1931,1499,0,0
714,-475,0,0,0,0,0,0,0,0,0,-1,1938,1499,0,0
721,-475,0,0,0,0,0,0,0,0,0,-1,1945,1499,0,0
728,-475,0,0,0,0,0,0,0,0,0,-1,1952,1499,0,0
735,-475,0,0,0,0,0,0,0,0,0,-1,1959,1499,0,0
742,-475,0,0,0,0,0,0,0,0,0,-1,1966,1499,0,0
749,-475,0,0,0,0,0,0,0,0,0,-1,1973,1499,0,0
756,-475,0,0,0,0,0,0,0,0,0,-1,1980,1499,0,0
763,-475,0,0,0,0,0,0,0,0,0,-1,1987,1499,0,0
770,-475,0,0,0,0,0,0,0,0,0,-1,1994,1499,0,0
777,-475,0,0,0,0,0,0,0,0,0,-1,2001,1499,0,0
784,-475,0,0,0,0,0,0,0,0,0,-1,2008,1499,0,0
791,-475,0,0,0,0,0,0,0,0,0,-1,2015,1499,0,0
798,-475,0,0,0,0,0,0,0,0,0,-1,2022,1499,0,0
805,-475,0,0,0,0,0,0,0,0,0,-1,2029,1499,0,0
812,-475,0,0,0,0,0,0,0,0,0,-1,2036,1499,0,0
-700,-482,0,0,0,0,0,0,0,0,0,-1,524,1506,0,0
-693,-482,0,0,0,0,0,0,0,0,0,-1,531,1506,0,0
-686,-482,0,0,0,0,0,0,0,0,0,-1,538,1506,0,0
-679,-482,0,0,0,0,0,0,0,0,0,-1,545,1506,0,0
-672,-482,0,0,0,0,0,0,0,0,0,-1,552,1506,0,0
-665,-482,0,0,0,0,0,0,0,0,0,-1,559,1506,0,0
-658,-482,0,0,0,0,0,0,0,0,0,-1,566,1506,0,0
-651,-482,0,0,0,0,0,0,0,0,0,-1,573,1506,0,0
-644,-482,0,0,0,0,0,0,0,0,0,-1,580,1506,0,0
-637,-482,0,0,0,0,0,0,0,0,0,-1,587,1506,0,0
-630,-482,0,0,0,0,0,0,0,0,0,-1,594,1506,0,0
-623,-482,0,0,0,0,0,0,0,0,0,-1,601,1506,0,0
-616,-482,0,0,0,0,0,0,0,0,0,-1,608,1506,0,0
-609,-482,0,0,0,0,0,0,0,0,0,-1,615,1506,0,0
-602,-482,0,0,0,0,0,0,0,0,0,-1,622,1506,0,0
-595,-482,0,0,0,0,0,0,0,0,0,-1,629,1506,0,0
-588,-482,0,0,0,0,0,0,0,0,0,-1,636,1506,0,0
-581,-482,0,0,0,0,0,0,0,0,0,-1,643,1506,0,0
-574,-482,0,0,0,0,0,0,0,0,0,-1,650,1506,0,0
-567,-482,0,0,0,0,0,0,0,0,0,-1,657,1506,0,0
-560,-482,0,0,0,0,0,0,0,0,0,-1,664,1506,0,0
-553,-482,-9.06055,9.34314,0,0,0,0,0,0,0,-1,671,1506,-9.06056,-9.34312
-546,-482,-4.08624,8.34241,0,0,0,0,0,0,0,-1,678,1506,-4.08624,-8.3424
-539,-482,-2.54572,4.26294,0,0,0,0,0,0,0,-1,685,1506,-2.54573,-4.2629
-532,-482,-6.06183,2.42151,0,0,0,0,0,0,0,-1,692,1506,-6.06181,-2.42156
-525,-482,-4.81378,3.48291,0,0,0,0,0,0,0,-1,699,1506,-4.81377,-3.48295
-518,-482,-3.86029,3.59265,0,0,0,0,0,0,0,-1,706,1506,-3.8603,-3.59267
-511,-482,-3.0918,6.80591,0,0,0,0,0,0,0,-1,713,1506,-3.09178,-6.80586
-504,-482,-2.97076,7.26794,0.0330718,0.0209051,0.0165357,0.0446077,0.00936924,0.609135,0.0271595,0.0445622,720,1506,-2.97076,-7.26791
-497,-482,-2.77869,7.59387,0.0217407,0.0134728,0.0106888,0.0290671,0.00614641,0.600879,0.0176889,0.0268385,727,1506,-2.77866,-7.59385
-490,-482,-2.84961,7.88452,0.0135669,0.00810382,0.006435,0.0178261,0.00384461,0.584682,0.0108324,0.0164949,734,1506,-2.8496,-7.8845
-483,-482,-2.83405,8.24243,0.00807733,0.0043699,0.00343012,0.0101226,0.00232464,0.537668,0.00612243,0.0084793,741,1506,-2.83403,-8.24239
-476,-482,-2.82806,8.5636,0.00361937,0.00107141,0.000642754,0.00377233,0.00091845,0.23363,0.0022715,0.00940208,748,1506,-2.82809,-8.5636
-469,-482,-2.84131,8.88196,0.000979685,-0.000989492,-0.000916043,0.00133992,-0.00134973,-0.374674,0.00155287,0.0109312,755,1506,-2.84129,-8.88196
-462,-482,-2.85522,9.2218,0.000901777,-0.00249067,-0.00173126,0.00162928,-0.00321817,-0.397811,0.00284835,0.0121748,762,1506,-2.85523,-9.22181
-455,-482,-2.86633,9.55261,0.00143305,-0.00344491,-0.00234036,0.00237429,-0.00438616,-0.382383,0.00396034,0.0131067,769,1506,-2.86633,-9.55263
-448,-482,-2.8728,9.88403,0.00248577,-0.00422583,-0.00276739,0.00347967,-0.00521973,-0.344798,0.00505598,0.0133476,776,1506,-2.87279,-9.88403
-441,-482,-2.87427,10.2172,0.00379953,-0.00519334,-0.00323182,0.00484048,-0.00623429,-0.3116,0.00641087,0.0122894,783,1506,-2.87427,-10.2171
-434,-482,-2.87372,10.5476,0.00524728,-0.00651975,-0.0038369,0.00638783,-0.0076603,-0.28894,0.00812177,0.0151376,790,1506,-2.87371,-10.5476
-427,-482,-2.87231,10.8605,0.00678767,-0.00807502,-0.00464355,0.00811917,-0.00940652,-0.279249,0.0101276,0.0175955,797,1506,-2.87233,-10.8604
-420,-482,-2.80511,11.3278,0.00830178,-0.00979656,-0.00553617,0.00986094,-0.0113557,-0.274521,0.0122596,0.0293273,804,1506,-2.80514,-11.3277
-413,-482,-2.62805,11.4613,0.0099349,-0.0116313,-0.00637157,0.0116767,-0.0133731,-0.266845,0.0144735,0.0464518,811,1506,-2.62808,-11.4613
-406,-482,-2.45441,11.7534,0,0,0,0,0,0,0,-1,818,1506,-2.45441,-11.7535
-399,-482,-1.3822,9.22595,0,0,0,0,0,0,0,-1,825,1506,-1.38221,-9.22598
-392,-482,-1.06836,9.22729,0,0,0,0,0,0,0,-1,832,1506,-1.06835,-9.2273
-385,-482,0.0647583,8.90649,0,0,0,0,0,0,0,-1,839,1506,0.0647778,-8.90644
-378,-482,0.215698,5.96948,0,0,0,0,0,0,0,-1,846,1506,0.215681,-5.9695
-371,-482,-0.10907,8.10437,0,0,0,0,0,0,0,-1,853,1506,-0.109063,-8.10433
-364,-482,-0.154968,10.5032,0,0,0,0,0,0,0,-1,860,1506,-0.154976,-10.5032
-357,-482,2.14807,4.60144,0,0,0,0,0,0,0,-1,867,1506,2.14807,-4.60144
-350,-482,-7.5813,-1.45935,0,0,0,0,0,0,0,-1,874,1506,-7.58133,1.45937
-343,-482,-7.19983,-1.26416,0,0,0,0,0,0,0,-1,881,1506,-7.19981,1.26414
-336,-482,-6.78491,-1.18127,0,0,0,0,0,0,0,-1,888,1506,-6.78488,1.18125
-329,-482,0,0,0,0,0,0,0,0,0,-1,895,1506,0,0
-322,-482,0,0,0,0,0,0,0,0,0,-1,902,1506,0,0
-315,-482,0,0,0,0,0,0,0,0,0,-1,909,1506,0,0
-308,-482,0,0,0,0,0,0,0,0,0,-1,916,1506,0,0
-301,-482,0,0,0,0,0,0,0,0,0,-1,923,1506,0,0
-294,-482,0,0,0,0,0,0,0,0,0,-1,930,1506,0,0
-287,-482,0,0,0,0,0,0,0,0,0,-1,937,1506,0,0
-280,-482,0,0,0,0,0,0,0,0,0,-1,944,1506,0,0
-273,-482,0,0,0,0,0,0,0,0,0,-1,951,1506,0,0
-266,-482,0,0,0,0,0,0,0,0,0,-1,958,1506,0,0
-259,-482,0,0,0,0,0,0,0,0,0,-1,965,1506,0,0
-252,-482,0,0,0,0,0,0,0,0,0,-1,972,1506,0,0
-245,-482,0,0,0,0,0,0,0,0,0,-1,979,1506,0,0
-238,-482,0,0,0,0,0,0,0,0,0,-1,986,1506,0,0
-231,-482,0,0,0,0,0,0,0,0,0,-1,993,1506,0,0
-224,-482,0,0,0,0,0,0,0,0,0,-1,1000,1506,0,0
-217,-482,0,0,0,0,0,0,0,0,0,-1,1007,1506,0,0
-210,-482,0,0,0,0,0,0,0,0,0,-1,1014,1506,0,0
-203,-482,0,0,0,0,0,0,0,0,0,-1,1021,1506,0,0
-196,-482,0,0,0,0,0,0,0,0,0,-1,1028,1506,0,0
-189,-482,0,0,0,0,0,0,0,0,0,-1,1035,1506,0,0
-182,-482,0,0,0,0,0,0,0,0,0,-1,1042,1506,0,0
-175,-482,0,0,0,0,0,0,0,0,0,-1,1049,1506,0,0
-168,-482,0,0,0,0,0,0,0,0,0,-1,1056,1506,0,0
-161,-482,0,0,0,0,0,0,0,0,0,-1,1063,1506,0,0
-154,-482,0,0,0,0,0,0,0,0,0,-1,1070,1506,0,0
-147,-482,0,0,0,0,0,0,0,0,0,-1,1077,1506,0,0
-140,-482,0,0,0,0,0,0,0,0,0,-1,1084,1506,0,0
-133,-482,0,0,0,0,0,0,0,0,0,-1,1091,1506,0,0
-126,-482,0,0,0,0,0,0,0,0,0,-1,1098,1506,0,0
-119,-482,0,0,0,0,0,0,0,0,0,-1,1105,1506,0,0
-112,-482,0,0,0,0,0,0,0,0,0,-1,1112,1506,0,0
-105,-482,0,0,0,0,0,0,0,0,0,-1,1119,1506,0,0
-98,-482,0,0,0,0,0,0,0,0,0,-1,1126,1506,0,0
-91,-482,0,0,0,0,0,0,0,0,0,-1,1133,1506,0,0
-84,-482,0,0,0,0,0,0,0,0,0,-1,1140,1506,0,0
-77,-482,0,0,0,0,0,0,0,0,0,-1,1147,1506,0,0
-70,-482,0,0,0,0,0,0,0,0,0,-1,1154,1506,0,0
-63,-482,0,0,0,0,0,0,0,0,0,-1,1161,1506,0,0
-56,-482,0,0,0,0,0,0,0,0,0,-1,1168,1506,0,0
-49,-482,0,0,0,0,0,0,0,0,0,-1,1175,1506,0,0
-42,-482,0,0,0,0,0,0,0,0,0,-1,1182,1506,0,0
-35,-482,0,0,0,0,0,0,0,0,0,-1,1189,1506,0,0
-28,-482,0,0,0,0,0,0,0,0,0,-1,1196,1506,0,0
-21,-482,0,0,0,0,0,0,0,0,0,-1,1203,1506,0,0
-14,-482,0,0,0,0,0,0,0,0,0,-1,1210,1506,0,0
-7,-482,0,0,0,0,0,0,0,0,0,-1,1217,1506,0,0
0,-482,0,0,0,0,0,0,0,0,0,-1,1224,1506,0,0
7,-482,0,0,0,0,0,0,0,0,0,-1,1231,1506,0,0
14,-482,0,0,0,0,0,0,0,0,0,-1,1238,1506,0,0
21,-482,0,0,0,0,0,0,0,0,0,-1,1245,1506,0,0
28,-482,0,0,0,0,0,0,0,0,0,-1,1252,1506,0,0
35,-482,0,0,0,0,0,0,0,0,0,-1,1259,1506,0,0
42,-482,0,0,0,0,0,0,0,0,0,-1,1266,1506,0,0
49,-482,0,0,0,0,0,0,0,0,0,-1,1273,1506,0,0
56,-482,0,0,0,0,0,0,0,0,0,-1,1280,1506,0,0
63,-482,0,0,0,0,0,0,0,0,0,-1,1287,1506,0,0
70,-482,0,0,0,0,0,0,0,0,0,-1,1294,1506,0,0
77,-482,0,0,0,0,0,0,0,0,0,-1,1301,1506,0,0
84,-482,0,0,0,0,0,0,0,0,0,-1,1308,1506,0,0
91,-482,0,0,0,0,0,0,0,0,0,-1,1315,1506,0,0
98,-482,0,0,0,0,0,0,0,0,0,-1,1322,1506,0,0
105,-482,0,0,0,0,0,0,0,0,0,-1,1329,1506,0,0
112,-482,0,0,0,0,0,0,0,0,0,-1,1336,1506,0,0
119,-482,0,0,0,0,0,0,0,0,0,-1,1343,1506,0,0
126,-482,0,0,0,0,0,0,0,0,0,-1,1350,1506,0,0
133,-482,0,0,0,0,0,0,0,0,0,-1,1357,1506,0,0
140,-482,0,0,0,0,0,0,0,0,0,-1,1364,1506,0,0
147,-482,0,0,0,0,0,0,0,0,0,-1,1371,1506,0,0
154,-482,0,0,0,0,0,0,0,0,0,-1,1378,1506,0,0
161,-482,0,0,0,0,0,0,0,0,0,-1,1385,1506,0,0
168,-482,0,0,0,0,0,0,0,0,0,-1,1392,1506,0,0
175,-482,0,0,0,0,0,0,0,0,0,-1,1399,1506,0,0
182,-482,0,0,0,0,0,0,0,0,0,-1,1406,1506,0,0
189,-482,0,0,0,0,0,0,0,0,0,-1,1413,1506,0,0
196,-482,0,0,0,0,0,0,0,0,0,-1,1420,1506,0,0
203,-482,0,0,0,0,0,0,0,0,0,-1,1427,1506,0,0
210,-482,0,0,0,0,0,0,0,0,0,-1,1434,1506,0,0
217,-482,0,0,0,0,0,0,0,0,0,-1,1441,1506,0,0
224,-482,0,0,0,0,0,0,0,0,0,-1,1448,1506,0,0
231,-482,0,0,0,0,0,0,0,0,0,-1,1455,1506,0,0
238,-482,0,0,0,0,0,0,0,0,0,-1,1462,1506,0,0
245,-482,0,0,0,0,0,0,0,0,0,-1,1469,1506,0,0
252,-482,0,0,0,0,0,0,0,0,0,-1,1476,1506,0,0
259,-482,0,0,0,0,0,0,0,0,0,-1,1483,1506,0,0
266,-482,0,0,0,0,0,0,0,0,0,-1,1490,1506,0,0
273,-482,0,0,0,0,0,0,0,0,0,-1,1497,1506,0,0
280,-482,0,0,0,0,0,0,0,0,0,-1,1504,1506,0,0
287,-482,0,0,0,0,0,0,0,0,0,-1,1511,1506,0,0
294,-482,0,0,0,0,0,0,0,0,0,-1,1518,1506,0,0
301,-482,0,0,0,0,0,0,0,0,0,-1,1525,1506,0,0
308,-482,0,0,0,0,0,0,0,0,0,-1,1532,1506,0,0
315,-482,0,0,0,0,0,0,0,0,0,-1,1539,1506,0,0
322,-482,0,0,0,0,0,0,0,0,0,-1,1546,1506,0,0
329,-482,0,0,0,0,0,0,0,0,0,-1,1553,1506,0,0
336,-482,0,0,0,0,0,0,0,0,0,-1,1560,1506,0,0
343,-482,0,0,0,0,0,0,0,0,0,-1,1567,1506,0,0
350,-482,0,0,0,0,0,0,0,0,0,-1,1574,1506,0,0
357,-482,0,0,0,0,0,0,0,0,0,-1,1581,1506,0,0
364,-482,0,0,0,0,0,0,0,0,0,-1,1588,1506,0,0
371,-482,0,0,0,0,0,0,0,0,0,-1,1595,1506,0,0
378,-482,0,0,0,0,0,0,0,0,0,-1,1602,1506,0,0
385,-482,0,0,0,0,0,0,0,0,0,-1,1609,1506,0,0
392,-482,0,0,0,0,0,0,0,0,0,-1,1616,1506,0,0
399,-482,0,0,0,0,0,0,0,0,0,-1,1623,1506,0,0
406,-482,0,0,0,0,0,0,0,0,0,-1,1630,1506,0,0
413,-482,0,0,0,0,0,0,0,0,0,-1,1637,1506,0,0
420,-482,0,0,0,0,0,0,0,0,0,-1,1644,1506,0,0
427,-482,0,0,0,0,0,0,0,0,0,-1,1651,1506,0,0
434,-482,0,0,0,0,0,0,0,0,0,-1,1658,1506,0,0
441,-482,0,0,0,0,0,0,0,0,0,-1,1665,1506,0,0
448,-482,4.24146,1.55383,0,0,0,0,0,0,0,-1,1672,1506,4.24149,-1.55381
455,-482,12.4122,1.09729,0,0,0,0,0,0,0,-1,1679,1506,12.4122,-1.09734
462,-482,15.0673,3.13135,0,0,0,0,0,0,0,-1,1686,1506,15.0672,-3.13134
469,-482,15.3793,3.46301,0,0,0,0,0,0,0,-1,1693,1506,15.3793,-3.46307
476,-482,8.69751,9.18738,0,0,0,0,0,0,0,-1,1700,1506,8.69753,-9.18739
483,-482,10.0902,7.17432,0,0,0,0,0,0,0,-1,1707,1506,10.0902,-7.1743
490,-482,11.6289,5.4928,0,0,0,0,0,0,0,-1,1714,1506,11.6289,-5.49283
497,-482,15.9539,7.40222,0,0,0,0,0,0,0,-1,1721,1506,15.9538,-7.40219
504,-482,20.8204,12.5548,0,0,0,0,0,0,0,-1,1728,1506,20.8204,-12.5548
511,-482,18.7787,13.3008,-0.186643,0.0024773,0.0604406,0.0201433,-0.204308,1.28643,0.143392,0.043883,1735,1506,18.7787,-13.3007
518,-482,16.3425,13.9844,-0.143334,-0.00147498,0.04882,0.0137024,-0.158511,1.26938,0.110525,0.0469134,1742,1506,16.3426,-13.9844
525,-482,15.0012,12.47,0,0,0,0,0,0,0,-1,1749,1506,15.0012,-12.4699
532,-482,14.5112,12.756,-0.0773088,-0.0055392,0.0294351,0.00498879,-0.0878368,1.22731,0.0602896,0.0442593,1756,1506,14.5112,-12.7559
539,-482,13.7212,12.9469,-0.0540114,-0.00608667,0.021933,0.0024356,-0.0625337,1.20019,0.0425243,0.0333015,1763,1506,13.7212,-12.9469
546,-482,13.6094,12.8499,-0.0364945,-0.00593098,0.0158865,0.000830682,-0.0432562,1.1684,0.0291183,0.0171512,1770,1506,13.6094,-12.8499
553,-482,13.5638,12.5568,-0.0238304,-0.00545202,0.0113198,-6.10948e-05,-0.0292213,1.12634,0.0194606,0.0149096,1777,1506,13.5638,-12.5567
560,-482,13.5272,12.2784,-0.0149343,-0.00434642,0.00773782,-0.000264878,-0.0190158,1.08541,0.0125899,0.0119517,1784,1506,13.5272,-12.2785
567,-482,13.5709,11.9717,-0.0070713,-0.00354812,0.0046165,-0.000368527,-0.0102509,0.967664,0.00671446,0.0133791,1791,1506,13.5709,-11.9717
574,-482,13.5675,11.7003,-0.00228923,-0.00310284,0.00253292,-0.000130649,-0.00526141,0.705775,0.00346488,0.0126326,1798,1506,13.5676,-11.7003
581,-482,13.5496,11.411,-0.00108595,-0.00196316,0.00149171,3.03042e-05,-0.00307941,0.642414,0.00206312,0.00971177,1805,1506,13.5495,-11.4111
588,-482,13.5392,11.1145,-1.46249e-05,-0.000900085,0.00044874,0.000173024,-0.00108773,0.39607,0.000789178,0.0106882,1812,1506,13.5392,-11.1145
595,-482,13.5542,10.8153,0.000595574,-0.000267424,-7.84681e-05,0.00060265,-0.0002745,-0.0899422,0.000518101,0.0166332,1819,1506,13.5542,-10.8153
602,-482,13.5801,10.5039,0.00103989,5.47438e-05,-0.000334214,0.00114257,-4.79373e-05,-0.298078,0.000778183,0.0209289,1826,1506,13.58,-10.5039
609,-482,13.5491,10.226,0.00185299,-1.2055e-05,-0.000523571,0.00198992,-0.000148983,-0.255798,0.00137896,0.0164367,1833,1506,13.5491,-10.226
616,-482,13.5184,9.93628,0.00268106,-0.000235601,-0.000582276,0.00279301,-0.000347548,-0.189941,0.00198801,0.0117403,1840,1506,13.5184,-9.93623
623,-482,13.5067,9.6449,0.00380757,-0.000842545,-0.000423036,0.00384574,-0.000880717,-0.0899889,0.00290229,0.0114836,1847,1506,13.5067,-9.64484
630,-482,13.5946,9.3772,0.00539462,-0.00179118,-8.61511e-05,0.00539566,-0.00179221,-0.0119868,0.00432025,0.0240555,1854,1506,13.5946,-9.37717
637,-482,13.6094,9.05725,0,0,0,0,0,0,0,-1,1861,1506,13.6093,-9.05723
644,-482,12.8159,9.18286,0,0,0,0,0,0,0,-1,1868,1506,12.816,-9.18284
651,-482,4.03845,7.05273,0,0,0,0,0,0,0,-1,1875,1506,4.03843,-7.05279
658,-482,10.0278,5.87903,0,0,0,0,0,0,0,-1,1882,1506,10.0279,-5.87902
665,-482,8.15198,3.22229,0,0,0,0,0,0,0,-1,1889,1506,8.15199,-3.22232
672,-482,9.87415,1.3147,0,0,0,0,0,0,0,-1,1896,1506,9.87416,-1.31473
679,-482,0,0,0,0,0,0,0,0,0,-1,1903,1506,0,0
686,-482,0,0,0,0,0,0,0,0,0,-1,1910,1506,0,0
693,-482,0,0,0,0,0,0,0,0,0,-1,1917,1506,0,0
700,-482,0,0,0,0,0,0,0,0,0,-1,1924,1506,0,0
707,-482,0,0,0,0,0,0,0,0,0,-1,1931,1506,0,0
714,-482,0,0,0,0,0,0,0,0,0,-1,1938,1506,0,0
721,-482,0,0,0,0,0,0,0,0,0,-1,1945,1506,0,0
728,-482,0,0,0,0,0,0,0,0,0,-1,1952,1506,0,0
735,-482,0,0,0,0,0,0,0,0,0,-1,1959,1506,0,0
742,-482,0,0,0,0,0,0,0,0,0,-1,1966,1506,0,0
749,-482,0,0,0,0,0,0,0,0,0,-1,1973,1506,0,0
756,-482,0,0,0,0,0,0,0,0,0,-1,1980,1506,0,0
763,-482,0,0,0,0,0,0,0,0,0,-1,1987,1506,0,0
770,-482,0,0,0,0,0,0,0,0,0,-1,1994,1506,0,0
777,-482,0,0,0,0,0,0,0,0,0,-1,2001,1506,0,0
784,-482,0,0,0,0,0,0,0,0,0,-1,2008,1506,0,0
791,-482,0,0,0,0,0,0,0,0,0,-1,2015,1506,0,0
798,-482,0,0,0,0,0,0,0,0,0,-1,2022,1506,0,0
805,-482,0,0,0,0,0,0,0,0,0,-1,2029,1506,0,0
812,-482,0,0,0,0,0,0,0,0,0,-1,2036,1506,0,0
-700,-489,0,0,0,0,0,0,0,0,0,-1,524,1513,0,0
-693,-489,0,0,0,0,0,0,0,0,0,-1,531,1513,0,0
-686,-489,0,0,0,0,0,0,0,0,0,-1,538,1513,0,0
-679,-489,0,0,0,0,0,0,0,0,0,-1,545,1513,0,0
-672,-489,0,0,0,0,0,0,0,0,0,-1,552,1513,0,0
-665,-489,0,0,0,0,0,0,0,0,0,-1,559,1513,0,0
-658,-489,0,0,0,0,0,0,0,0,0,-1,566,1513,0,0
-651,-489,0,0,0,0,0,0,0,0,0,-1,573,1513,0,0
-644,-489,0,0,0,0,0,0,0,0,0,-1,580,1513,0,0
-637,-489,0,0,0,0,0,0,0,0,0,-1,587,1513,0,0
-630,-489,0,0,0,0,0,0,0,0,0,-1,594,1513,0,0
-623,-489,0,0,0,0,0,0,0,0,0,-1,601,1513,0,0
-616,-489,0,0,0,0,0,0,0,0,0,-1,608,1513,0,0
-609,-489,0,0,0,0,0,0,0,0,0,-1,615,1513,0,0
-602,-489,0,0,0,0,0,0,0,0,0,-1,622,1513,0,0
-595,-489,0,0,0,0,0,0,0,0,0,-1,629,1513,0,0
-588,-489,0,0,0,0,0,0,0,0,0,-1,636,1513,0,0
-581,-489,0,0,0,0,0,0,0,0,0,-1,643,1513,0,0
-574,-489,0,0,0,0,0,0,0,0,0,-1,650,1513,0,0
-567,-489,0,0,0,0,0,0,0,0,0,-1,657,1513,0,0
-560,-489,0,0,0,0,0,0,0,0,0,-1,664,1513,0,0
-553,-489,-9.42206,8.5116,0,0,0,0,0,0,0,-1,671,1513,-9.42205,-8.51158
-546,-489,-7.80951,8.18506,0,0,0,0,0,0,0,-1,678,1513,-7.8095,-8.18503
-539,-489,-4.03766,5.96765,0,0,0,0,0,0,0,-1,685,1513,-4.03766,-5.96763
-532,-489,-3.57196,6.35364,0,0,0,0,0,0,0,-1,692,1513,-3.57194,-6.35362
-525,-489,-5.16827,3.36072,0,0,0,0,0,0,0,-1,699,1513,-5.16826,-3.36067
-518,-489,-3.10107,6.82373,0,0,0,0,0,0,0,-1,706,1513,-3.10108,-6.82376
-511,-489,-2.55609,7.19202,0,0,0,0,0,0,0,-1,713,1513,-2.55608,-7.19206
-504,-489,-2.62854,7.38696,0.03724,0.0238636,0.0173259,0.0491238,0.0119798,0.601198,0.029576,0.0461781,720,1513,-2.62851,-7.38692
-497,-489,-2.48065,7.73169,0.0243234,0.0156063,0.011088,0.0318787,0.00805101,0.59813,0.0191418,0.0381847,727,1513,-2.48063,-7.73168
-490,-489,-2.47986,7.94141,0.0148976,0.00961898,0.00659078,0.0193579,0.00515869,0.594949,0.0115754,0.0236961,734,1513,-2.47988,-7.94142
-483,-489,-2.53534,8.2323,0.00849032,0.00555663,0.00352198,0.0108387,0.00320825,0.588081,0.006429,0.0110761,741,1513,-2.53535,-8.23233
-476,-489,-2.51648,8.56201,0.00349514,0.00222857,0.000853691,0.00392479,0.00179891,0.466275,0.0022686,0.00918095,748,1513,-2.51649,-8.56199
-469,-489,-2.52985,8.87549,0.0003771,6.73626e-05,-0.000602763,0.000844572,-0.000400109,-0.659652,0.000733731,0.0102262,755,1513,-2.52986,-8.87545
-462,-489,-2.53857,9.22693,1.5179e-05,-0.00142246,-0.00125153,0.000739628,-0.00214691,-0.524724,0.00173131,0.0154973,762,1513,-2.5386,-9.2269
-455,-489,-2.54431,9.56006,0.000440948,-0.00223622,-0.0016231,0.00120623,-0.0030015,-0.440585,0.00250196,0.0202125,769,1513,-2.54432,-9.56012
-448,-489,-2.57202,9.86108,0.00149216,-0.00277947,-0.0017199,0.00209856,-0.00338588,-0.338972,0.00319538,0.0169804,776,1513,-2.57202,-9.86108
-441,-489,-2.5575,10.2228,0.00279034,-0.0034071,-0.00182168,0.00328614,-0.0039029,-0.265731,0.00415568,0.0137159,783,1513,-2.5575,-10.2228
-434,-489,-2.55774,10.558,0.00419324,-0.00433276,-0.00198349,0.00463209,-0.00477161,-0.217744,0.00542942,0.0172488,790,1513,-2.55777,-10.558
-427,-489,-2.55188,10.8655,0.0056903,-0.00539524,-0.00228674,0.00614349,-0.00584842,-0.195645,0.00692423,0.0198313,797,1513,-2.55186,-10.8654
-420,-489,-2.56555,11.2708,0.00712459,-0.00653242,-0.00265685,0.00762325,-0.00703108,-0.185529,0.00846298,0.0193814,804,1513,-2.56555,-11.2707
-413,-489,-2.27612,11.5277,0.00860838,-0.00764566,-0.00292328,0.00911814,-0.00815542,-0.172644,0.00997806,0.0367896,811,1513,-2.27613,-11.5276
-406,-489,-2.11249,12.0742,0,0,0,0,0,0,0,-1,818,1513,-2.11251,-12.0742
-399,-489,-1.41241,9.10718,0,0,0,0,0,0,0,-1,825,1513,-1.41244,-9.10722
-392,-489,-1.0368,9.30469,0,0,0,0,0,0,0,-1,832,1513,-1.03682,-9.30466
-385,-489,-1.75165,10.6559,0,0,0,0,0,0,0,-1,839,1513,-1.75165,-10.6559
-378,-489,-0.401428,9.87048,0,0,0,0,0,0,0,-1,846,1513,-0.401415,-9.87047
-371,-489,-1.11633,10.6606,0,0,0,0,0,0,0,-1,853,1513,-1.11633,-10.6606
-364,-489,-0.503113,8.98486,0,0,0,0,0,0,0,-1,860,1513,-0.503097,-8.98482
-357,-489,-0.609924,10.9606,0,0,0,0,0,0,0,-1,867,1513,-0.609947,-10.9605
-350,-489,-7.94659,-0.358887,0,0,0,0,0,0,0,-1,874,1513,-7.94657,0.358912
-343,-489,-7.49323,-0.437866,0,0,0,0,0,0,0,-1,881,1513,-7.49322,0.437823
-336,-489,-7.02332,-0.53125,0,0,0,0,0,0,0,-1,888,1513,-7.0233,0.531295
-329,-489,-6.70221,-0.242432,0,0,0,0,0,0,0,-1,895,1513,-6.70221,0.2424
-322,-489,0,0,0,0,0,0,0,0,0,-1,902,1513,0,0
-315,-489,0,0,0,0,0,0,0,0,0,-1,909,1513,0,0
-308,-489,0,0,0,0,0,0,0,0,0,-1,916,1513,0,0
-301,-489,0,0,0,0,0,0,0,0,0,-1,923,1513,0,0
-294,-489,0,0,0,0,0,0,0,0,0,-1,930,1513,0,0
-287,-489,0,0,0,0,0,0,0,0,0,-1,937,1513,0,0
-280,-489,0,0,0,0,0,0,0,0,0,-1,944,1513,0,0
-273,-489,0,0,0,0,0,0,0,0,0,-1,951,1513,0,0
-266,-489,0,0,0,0,0,0,0,0,0,-1,958,1513,0,0
-259,-489,0,0,0,0,0,0,0,0,0,-1,965,1513,0,0
-252,-489,0,0,0,0,0,0,0,0,0,-1,972,1513,0,0
-245,-489,0,0,0,0,0,0,0,0,0,-1,979,1513,0,0
-238,-489,0,0,0,0,0,0,0,0,0,-1,986,1513,0,0
-231,-489,0,0,0,0,0,0,0,0,0,-1,993,1513,0,0
-224,-489,0,0,0,0,0,0,0,0,0,-1,1000,1513,0,0
-217,-489,0,0,0,0,0,0,0,0,0,-1,1007,1513,0,0
-210,-489,0,0,0,0,0,0,0,0,0,-1,1014,1513,0,0
-203,-489,0,0,0,0,0,0,0,0,0,-1,1021,1513,0,0
-196,-489,0,0,0,0,0,0,0,0,0,-1,1028,1513,0,0
-189,-489,0,0,0,0,0,0,0,0,0,-1,1035,1513,0,0
-182,-489,0,0,0,0,0,0,0,0,0,-1,1042,1513,0,0
-175,-489,0,0,0,0,0,0,0,0,0,-1,1049,1513,0,0
-168,-489,0,0,0,0,0,0,0,0,0,-1,1056,1513,0,0
-161,-489,0,0,0,0,0,0,0,0,0,-1,1063,1513,0,0
-154,-489,0,0,0,0,0,0,0,0,0,-1,1070,1513,0,0
-147,-489,0,0,0,0,0,0,0,0,0,-1,1077,1513,0,0
-140,-489,0,0,0,0,0,0,0,0,0,-1,1084,1513,0,0
-133,-489,0,0,0,0,0,0,0,0,0,-1,1091,1513,0,0
-126,-489,0,0,0,0,0,0,0,0,0,-1,1098,1513,0,0
-119,-489,0,0,0,0,0,0,0,0,0,-1,1105,1513,0,0
-112,-489,0,0,0,0,0,0,0,0,0,-1,1112,1513,0,0
-105,-489,0,0,0,0,0,0,0,0,0,-1,1119,1513,0,0
-98,-489,0,0,0,0,0,0,0,0,0,-1,1126,1513,0,0
-91,-489,0,0,0,0,0,0,0,0,0,-1,1133,1513,0,0
-84,-489,0,0,0,0,0,0,0,0,0,-1,1140,1513,0,0
-77,-489,0,0,0,0,0,0,0,0,0,-1,1147,1513,0,0
-70,-489,0,0,0,0,0,0,0,0,0,-1,1154,1513,0,0
-63,-489,0,0,0,0,0,0,0,0,0,-1,1161,1513,0,0
-56,-489,0,0,0,0,0,0,0,0,0,-1,1168,1513,0,0
-49,-489,0,0,0,0,0,0,0,0,0,-1,1175,1513,0,0
-42,-489,0,0,0,0,0,0,0,0,0,-1,1182,1513,0,0
-35,-489,0,0,0,0,0,0,0,0,0,-1,1189,1513,0,0
-28,-489,0,0,0,0,0,0,0,0,0,-1,1196,1513,0,0
-21,-489,0,0,0,0,0,0,0,0,0,-1,1203,1513,0,0
-14,-489,0,0,0,0,0,0,0,0,0,-1,1210,1513,0,0
-7,-489,0,0,0,0,0,0,0,0,0,-1,1217,1513,0,0
0,-489,0,0,0,0,0,0,0,0,0,-1,1224,1513,0,0
7,-489,0,0,0,0,0,0,0,0,0,-1,1231,1513,0,0
14,-489,0,0,0,0,0,0,0,0,0,-1,1238,1513,0,0
21,-489,0,0,0,0,0,0,0,0,0,-1,1245,1513,0,0
28,-489,0,0,0,0,0,0,0,0,0,-1,1252,1513,0,0
35,-489,0,0,0,0,0,0,0,0,0,-1,1259,1513,0,0
42,-489,0,0,0,0,0,0,0,0,0,-1,1266,1513,0,0
49,-489,0,0,0,0,0,0,0,0,0,-1,1273,1513,0,0
56,-489,0,0,0,0,0,0,0,0,0,-1,1280,1513,0,0
63,-489,0,0,0,0,0,0,0,0,0,-1,1287,1513,0,0
70,-489,0,0,0,0,0,0,0,0,0,-1,1294,1513,0,0
77,-489,0,0,0,0,0,0,0,0,0,-1,1301,1513,0,0
84,-489,0,0,0,0,0,0,0,0,0,-1,1308,1513,0,0
91,-489,0,0,0,0,0,0,0,0,0,-1,1315,1513,0,0
98,-489,0,0,0,0,0,0,0,0,0,-1,1322,1513,0,0
105,-489,0,0,0,0,0,0,0,0,0,-1,1329,1513,0,0
112,-489,0,0,0,0,0,0,0,0,0,-1,1336,1513,0,0
119,-489,0,0,0,0,0,0,0,0,0,-1,1343,1513,0,0
126,-489,0,0,0,0,0,0,0,0,0,-1,1350,1513,0,0
133,-489,0,0,0,0,0,0,0,0,0,-1,1357,1513,0,0
140,-489,0,0,0,0,0,0,0,0,0,-1,1364,1513,0,0
147,-489,0,0,0,0,0,0,0,0,0,-1,1371,1513,0,0
154,-489,0,0,0,0,0,0,0,0,0,-1,1378,1513,0,0
161,-489,0,0,0,0,0,0,0,0,0,-1,1385,1513,0,0
168,-489,0,0,0,0,0,0,0,0,0,-1,1392,1513,0,0
175,-489,0,0,0,0,0,0,0,0,0,-1,1399,1513,0,0
182,-489,0,0,0,0,0,0,0,0,0,-1,1406,1513,0,0
189,-489,0,0,0,0,0,0,0,0,0,-1,1413,1513,0,0
196,-489,0,0,0,0,0,0,0,0,0,-1,1420,1513,0,0
203,-489,0,0,0,0,0,0,0,0,0,-1,1427,1513,0,0
210,-489,0,0,0,0,0,0,0,0,0,-1,1434,1513,0,0
217,-489,0,0,0,0,0,0,0,0,0,-1,1441,1513,0,0
224,-489,0,0,0,0,0,0,0,0,0,-1,1448,1513,0,0
231,-489,0,0,0,0,0,0,0,0,0,-1,1455,1513,0,0
238,-489,0,0,0,0,0,0,0,0,0,-1,1462,1513,0,0
245,-489,0,0,0,0,0,0,0,0,0,-1,1469,1513,0,0
252,-489,0,0,0,0,0,0,0,0,0,-1,1476,1513,0,0
259,-489,0,0,0,0,0,0,0,0,0,-1,1483,1513,0,0
266,-489,0,0,0,0,0,0,0,0,0,-1,1490,1513,0,0
273,-489,0,0,0,0,0,0,0,0,0,-1,1497,1513,0,0
280,-489,0,0,0,0,0,0,0,0,0,-1,1504,1513,0,0
287,-489,0,0,0,0,0,0,0,0,0,-1,1511,1513,0,0
294,-489,0,0,0,0,0,0,0,0,0,-1,1518,1513,0,0
301,-489,0,0,0,0,0,0,0,0,0,-1,1525,1513,0,0
308,-489,0,0,0,0,0,0,0,0,0,-1,1532,1513,0,0
315,-489,0,0,0,0,0,0,0,0,0,-1,1539,1513,0,0
322,-489,0,0,0,0,0,0,0,0,0,-1,1546,1513,0,0
329,-489,0,0,0,0,0,0,0,0,0,-1,1553,1513,0,0
336,-489,0,0,0,0,0,0,0,0,0,-1,1560,1513,0,0
343,-489,0,0,0,0,0,0,0,0,0,-1,1567,1513,0,0
350,-489,0,0,0,0,0,0,0,0,0,-1,1574,1513,0,0
357,-489,0,0,0,0,0,0,0,0,0,-1,1581,1513,0,0
364,-489,0,0,0,0,0,0,0,0,0,-1,1588,1513,0,0
371,-489,0,0,0,0,0,0,0,0,0,-1,1595,1513,0,0
378,-489,0,0,0,0,0,0,0,0,0,-1,1602,1513,0,0
385,-489,0,0,0,0,0,0,0,0,0,-1,1609,1513,0,0
392,-489,0,0,0,0,0,0,0,0,0,-1,1616,1513,0,0
399,-489,0,0,0,0,0,0,0,0,0,-1,1623,1513,0,0
406,-489,0,0,0,0,0,0,0,0,0,-1,1630,1513,0,0
413,-489,0,0,0,0,0,0,0,0,0,-1,1637,1513,0,0
420,-489,0,0,0,0,0,0,0,0,0,-1,1644,1513,0,0
427,-489,0,0,0,0,0,0,0,0,0,-1,1651,1513,0,0
434,-489,0,0,0,0,0,0,0,0,0,-1,1658,1513,0,0
441,-489,11.4602,2.56787,0,0,0,0,0,0,0,-1,1665,1513,11.4602,-2.56786
448,-489,12.4425,1.72351,0,0,0,0,0,0,0,-1,1672,1513,12.4425,-1.72349
455,-489,12.5575,1.37463,0,0,0,0,0,0,0,-1,1679,1513,12.5575,-1.37469
462,-489,14.9784,3.84888,0,0,0,0,0,0,0,-1,1686,1513,14.9784,-3.84892
469,-489,15.1367,4.53101,0,0,0,0,0,0,0,-1,1693,1513,15.1368,-4.531
476,-489,15.5536,5.09338,0,0,0,0,0,0,0,-1,1700,1513,15.5536,-5.09339
483,-489,8.96912,8.37805,0,0,0,0,0,0,0,-1,1707,1513,8.96909,-8.37809
490,-489,10.5366,7.49561,0,0,0,0,0,0,0,-1,1714,1513,10.5367,-7.49558
497,-489,14.6051,11.8397,0,0,0,0,0,0,0,-1,1721,1513,14.6051,-11.8397
504,-489,20.2466,12.879,0,0,0,0,0,0,0,-1,1728,1513,20.2466,-12.8791
511,-489,18.0238,13.197,-0.14796,-0.00244674,0.0502272,0.0132064,-0.163614,1.26869,0.113734,0.0485143,1735,1513,18.0238,-13.197
518,-489,15.7201,13.4818,-0.114318,-0.00405895,0.0405083,0.00922345,-0.1276,1.25395,0.0883019,0.0490321,1742,1513,15.7201,-13.4818
525,-489,13.6624,13.3402,0,0,0,0,0,0,0,-1,1749,1513,13.6624,-13.3402
532,-489,13.5601,13.14,-0.0624273,-0.00548493,0.0244179,0.00355181,-0.0714641,1.21634,0.0488697,0.040748,1756,1513,13.5601,-13.14
539,-489,13.3134,13.1251,-0.04396,-0.00539178,0.0182108,0.00184788,-0.0511997,1.19241,0.0347655,0.0182684,1763,1513,13.3134,-13.1251
546,-489,13.25,12.9106,-0.0299806,-0.00493119,0.0131924,0.000734946,-0.0356468,1.16512,0.0240132,0.01175,1770,1513,13.25,-12.9106
553,-489,13.2563,12.6099,-0.0195834,-0.00438531,0.00936561,7.63424e-05,-0.024045,1.12622,0.0160555,0.013988,1777,1513,13.2563,-12.6099
560,-489,13.2644,12.2896,-0.0122246,-0.00330342,0.00630386,-4.15994e-05,-0.0154864,1.0933,0.0103104,0.0133274,1784,1513,13.2644,-12.2895
567,-489,13.2621,11.9969,-0.00569034,-0.00257275,0.00362598,-0.000184703,-0.00807839,0.988403,0.00532509,0.0143934,1791,1513,13.262,-11.997
574,-489,13.2314,11.7365,-0.00166607,-0.00215301,0.00183368,-5.97641e-05,-0.00375932,0.719396,0.00248653,0.0139697,1798,1513,13.2314,-11.7364
581,-489,13.2578,11.4387,-0.000603431,-0.00119487,0.000919521,6.67537e-05,-0.00186505,0.629821,0.00126621,0.0102388,1805,1513,13.2578,-11.4387
588,-489,13.252,11.1265,0.000294112,-0.000285226,7.57468e-06,0.000294211,-0.000285325,0.0130718,0.000334608,0.0122206,1812,1513,13.252,-11.1265
595,-489,13.2546,10.8477,0.000802643,0.000251731,-0.000470332,0.00107225,-1.78713e-05,-0.520493,0.000720861,0.0187116,1819,1513,13.2547,-10.8476
602,-489,13.2684,10.5439,0.00120389,0.000516661,-0.00071529,0.00165382,6.6733e-05,-0.561481,0.00108099,0.0252874,1826,1513,13.2684,-10.5439
609,-489,13.2489,10.2467,0.00197413,0.000437396,-0.00090214,0.00239077,2.07545e-05,-0.432654,0.00158697,0.018005,1833,1513,13.2489,-10.2467
616,-489,13.2336,9.93481,0.00281653,0.000211723,-0.00100261,0.00315774,-0.000129491,-0.328031,0.00214963,0.0112072,1840,1513,13.2336,-9.93484
623,-489,13.2316,9.64282,0.0039677,-0.000390708,-0.000858363,0.00413066,-0.000553665,-0.187613,0.00295566,0.0172426,1847,1513,13.2316,-9.64288
630,-489,13.3163,9.46008,0.00561404,-0.00132029,-0.000543206,0.00565633,-0.00136259,-0.077704,0.0042977,0.0435089,1854,1513,13.3163,-9.46013
637,-489,13.3411,9.35925,0,0,0,0,0,0,0,-1,1861,1513,13.3411,-9.35924
644,-489,9.67578,8.45874,0,0,0,0,0,0,0,-1,1868,1513,9.67576,-8.45879
651,-489,6.13818,6.85095,0,0,0,0,0,0,0,-1,1875,1513,6.13823,-6.85097
658,-489,5.43848,7.75513,0,0,0,0,0,0,0,-1,1882,1513,5.43844,-7.75509
665,-489,5.48438,8.59912,0,0,0,0,0,0,0,-1,1889,1513,5.48434,-8.59907
672,-489,0,0,0,0,0,0,0,0,0,-1,1896,1513,0,0
679,-489,0,0,0,0,0,0,0,0,0,-1,1903,1513,0,0
686,-489,0,0,0,0,0,0,0,0,0,-1,1910,1513,0,0
693,-489,0,0,0,0,0,0,0,0,0,-1,1917,1513,0,0
700,-489,0,0,0,0,0,0,0,0,0,-1,1924,1513,0,0
707,-489,0,0,0,0,0,0,0,0,0,-1,1931,1513,0,0
714,-489,0,0,0,0,0,0,0,0,0,-1,1938,1513,0,0
721,-489,0,0,0,0,0,0,0,0,0,-1,1945,1513,0,0
728,-489,0,0,0,0,0,0,0,0,0,-1,1952,1513,0,0
735,-489,0,0,0,0,0,0,0,0,0,-1,1959,1513,0,0
742,-489,0,0,0,0,0,0,0,0,0,-1,1966,1513,0,0
749,-489,0,0,0,0,0,0,0,0,0,-1,1973,1513,0,0
756,-489,0,0,0,0,0,0,0,0,0,-1,1980,1513,0,0
763,-489,0,0,0,0,0,0,0,0,0,-1,1987,1513,0,0
770,-489,0,0,0,0,0,0,0,0,0,-1,1994,1513,0,0
777,-489,0,0,0,0,0,0,0,0,0,-1,2001,1513,0,0
784,-489,0,0,0,0,0,0,0,0,0,-1,2008,1513,0,0
791,-489,0,0,0,0,0,0,0,0,0,-1,2015,1513,0,0
798,-489,0,0,0,0,0,0,0,0,0,-1,2022,1513,0,0
805,-489,0,0,0,0,0,0,0,0,0,-1,2029,1513,0,0
812,-489,0,0,0,0,0,0,0,0,0,-1,2036,1513,0,0
-700,-496,0,0,0,0,0,0,0,0,0,-1,524,1520,0,0
-693,-496,0,0,0,0,0,0,0,0,0,-1,531,1520,0,0
-686,-496,0,0,0,0,0,0,0,0,0,-1,538,1520,0,0
-679,-496,0,0,0,0,0,0,0,0,0,-1,545,1520,0,0
-672,-496,0,0,0,0,0,0,0,0,0,-1,552,1520,0,0
-665,-496,0,0,0,0,0,0,0,0,0,-1,559,1520,0,0
-658,-496,0,0,0,0,0,0,0,0,0,-1,566,1520,0,0
-651,-496,0,0,0,0,0,0,0,0,0,-1,573,1520,0,0
-644,-496,0,0,0,0,0,0,0,0,0,-1,580,1520,0,0
-637,-496,0,0,0,0,0,0,0,0,0,-1,587,1520,0,0
-630,-496,0,0,0,0,0,0,0,0,0,-1,594,1520,0,0
-623,-496,0,0,0,0,0,0,0,0,0,-1,601,1520,0,0
-616,-496,0,0,0,0,0,0,0,0,0,-1,608,1520,0,0
-609,-496,0,0,0,0,0,0,0,0,0,-1,615,1520,0,0
-602,-496,0,0,0,0,0,0,0,0,0,-1,622,1520,0,0
-595,-496,0,0,0,0,0,0,0,0,0,-1,629,1520,0,0
-588,-496,0,0,0,0,0,0,0,0,0,-1,636,1520,0,0
-581,-496,0,0,0,0,0,0,0,0,0,-1,643,1520,0,0
-574,-496,0,0,0,0,0,0,0,0,0,-1,650,1520,0,0
-567,-496,0,0,0,0,0,0,0,0,0,-1,657,1520,0,0
-560,-496,0,0,0,0,0,0,0,0,0,-1,664,1520,0,0
-553,-496,0,0,0,0,0,0,0,0,0,-1,671,1520,0,0
-546,-496,-8.09711,7.94836,0,0,0,0,0,0,0,-1,678,1520,-8.09712,-7.94842
-539,-496,-4.26093,4.82874,0,0,0,0,0,0,0,-1,685,1520,-4.26095,-4.82876
-532,-496,-3.79547,5.23181,0,0,0,0,0,0,0,-1,692,1520,-3.79546,-5.23176
-525,-496,-3.57361,5.65051,0.110159,0.0718925,0.0491969,0.143812,0.0382391,0.599944,0.08601,0.0477039,699,1520,-3.57359,-5.65048
-518,-496,-2.89246,6.03882,0.0819912,0.0536131,0.0364849,0.106949,0.0286552,0.599947,0.0639255,0.0491509,706,1520,-2.89247,-6.03881
-511,-496,-2.39545,6.6283,0.0589841,0.0392401,0.0262154,0.0771246,0.0210996,0.605323,0.0460247,0.0476079,713,1520,-2.39546,-6.62834
-504,-496,-2.21674,7.19836,0.0405682,0.0277031,0.0179757,0.0532276,0.0150437,0.613575,0.0316842,0.0494988,720,1520,-2.21674,-7.19837
-497,-496,-2.39343,8.01245,0.0262949,0.018783,0.0115899,0.0347223,0.0103556,0.628703,0.0205838,0.046055,727,1520,-2.39345,-8.01241
-490,-496,-2.13654,8.16833,0.0157838,0.0122484,0.00694998,0.0211874,0.00684487,0.660865,0.0124852,0.0383379,734,1520,-2.13651,-8.16835
-483,-496,-2.17334,8.30701,0.00862484,0.00784301,0.00380281,0.0120568,0.00441108,0.73418,0.00704399,0.0211246,741,1520,-2.17335,-8.30705
-476,-496,-2.21558,8.57581,0.00321611,0.00446583,0.00121319,0.00520563,0.00247632,1.02321,0.00300665,0.0108992,748,1520,-2.21556,-8.57586
-469,-496,-2.22101,8.91492,-0.000293827,0.00214417,-0.000222969,0.00216439,-0.000314051,-1.48034,0.0015582,0.00969612,755,1520,-2.22103,-8.91488
-462,-496,-2.21698,9.23254,-0.000911084,0.000576701,-0.00083822,0.000953517,-0.0012879,-1.14832,0.00129887,0.0151583,762,1520,-2.21697,-9.23253
-455,-496,-2.21155,9.55005,-0.000554872,-0.000253765,-0.00114055,0.000746128,-0.00155476,-0.851019,0.00135549,0.0213126,769,1520,-2.21154,-9.54999
-448,-496,-2.2262,9.88464,0.000518641,-0.000783467,-0.00110355,0.00114888,-0.0014137,-0.518895,0.00148214,0.0189783,776,1520,-2.22622,-9.88464
-441,-496,-2.22461,10.2163,0.0018075,-0.00135605,-0.00106324,0.00213164,-0.00168018,-0.295904,0.00220589,0.0140603,783,1520,-2.2246,-10.2163
-434,-496,-2.22809,10.5256,0.00315603,-0.00220037,-0.00102492,0.00334544,-0.00238978,-0.182748,0.00332652,0.0136875,790,1520,-2.22807,-10.5257
-427,-496,-2.23724,10.8685,0.00459206,-0.00313865,-0.00108799,0.00474226,-0.00328885,-0.137187,0.00466201,0.0180289,797,1520,-2.23725,-10.8685
-420,-496,-2.23865,11.1873,0.00592891,-0.00411595,-0.00122774,0.00607679,-0.00426383,-0.119875,0.00600067,0.0184861,804,1520,-2.23867,-11.1872
-413,-496,-2.19269,11.541,0.00724591,-0.00497558,-0.00125405,0.00737326,-0.00510293,-0.101205,0.00724278,0.0200706,811,1520,-2.19271,-11.541
-406,-496,-2.10522,11.9996,0,0,0,0,0,0,0,-1,818,1520,-2.10522,-11.9996
-399,-496,-1.84259,12.4871,0,0,0,0,0,0,0,-1,825,1520,-1.84258,-12.487
-392,-496,-1.49786,12.387,0,0,0,0,0,0,0,-1,832,1520,-1.49788,-12.387
-385,-496,-1.72437,11.4985,0,0,0,0,0,0,0,-1,839,1520,-1.72436,-11.4985
-378,-496,-1.45532,14.0719,0,0,0,0,0,0,0,-1,846,1520,-1.45533,-14.0719
-371,-496,0.0877075,12.5299,0,0,0,0,0,0,0,-1,853,1520,0.0876896,-12.5299
-364,-496,0.0881348,10.6422,0,0,0,0,0,0,0,-1,860,1520,0.0881368,-10.6423
-357,-496,0.323792,7.56812,0,0,0,0,0,0,0,-1,867,1520,0.323782,-7.56806
-350,-496,2.1535,7.18945,0,0,0,0,0,0,0,-1,874,1520,2.15348,-7.1894
-343,-496,-7.56244,0.335327,0,0,0,0,0,0,0,-1,881,1520,-7.56242,-0.335322
-336,-496,-3.99249,6.02222,0,0,0,0,0,0,0,-1,888,1520,-3.99246,-6.0222
-329,-496,-6.93689,-0.100342,0,0,0,0,0,0,0,-1,895,1520,-6.93686,0.1003
-322,-496,-6.17505,0.494385,0,0,0,0,0,0,0,-1,902,1520,-6.17507,-0.49437
-315,-496,-5.46338,1.0459,0,0,0,0,0,0,0,-1,909,1520,-5.46338,-1.04587
-308,-496,0,0,0,0,0,0,0,0,0,-1,916,1520,0,0
-301,-496,0,0,0,0,0,0,0,0,0,-1,923,1520,0,0
-294,-496,0,0,0,0,0,0,0,0,0,-1,930,1520,0,0
-287,-496,0,0,0,0,0,0,0,0,0,-1,937,1520,0,0
-280,-496,0,0,0,0,0,0,0,0,0,-1,944,1520,0,0
-273,-496,0,0,0,0,0,0,0,0,0,-1,951,1520,0,0
-266,-496,0,0,0,0,0,0,0,0,0,-1,958,1520,0,0
-259,-496,0,0,0,0,0,0,0,0,0,-1,965,1520,0,0
-252,-496,0,0,0,0,0,0,0,0,0,-1,972,1520,0,0
-245,-496,0,0,0,0,0,0,0,0,0,-1,979,1520,0,0
-238,-496,0,0,0,0,0,0,0,0,0,-1,986,1520,0,0
-231,-496,0,0,0,0,0,0,0,0,0,-1,993,1520,0,0
-224,-496,0,0,0,0,0,0,0,0,0,-1,1000,1520,0,0
-217,-496,0,0,0,0,0,0,0,0,0,-1,1007,1520,0,0
-210,-496,0,0,0,0,0,0,0,0,0,-1,1014,1520,0,0
-203,-496,0,0,0,0,0,0,0,0,0,-1,1021,1520,0,0
-196,-496,0,0,0,0,0,0,0,0,0,-1,1028,1520,0,0
-189,-496,0,0,0,0,0,0,0,0,0,-1,1035,1520,0,0
-182,-496,0,0,0,0,0,0,0,0,0,-1,1042,1520,0,0
-175,-496,0,0,0,0,0,0,0,0,0,-1,1049,1520,0,0
-168,-496,0,0,0,0,0,0,0,0,0,-1,1056,1520,0,0
-161,-496,0,0,0,0,0,0,0,0,0,-1,1063,1520,0,0
-154,-496,0,0,0,0,0,0,0,0,0,-1,1070,1520,0,0
-147,-496,0,0,0,0,0,0,0,0,0,-1,1077,1520,0,0
-140,-496,0,0,0,0,0,0,0,0,0,-1,1084,1520,0,0
-133,-496,0,0,0,0,0,0,0,0,0,-1,1091,1520,0,0
-126,-496,0,0,0,0,0,0,0,0,0,-1,1098,1520,0,0
-119,-496,0,0,0,0,0,0,0,0,0,-1,1105,1520,0,0
-112,-496,0,0,0,0,0,0,0,0,0,-1,1112,1520,0,0
-105,-496,0,0,0,0,0,0,0,0,0,-1,1119,1520,0,0
-98,-496,0,0,0,0,0,0,0,0,0,-1,1126,1520,0,0
-91,-496,0,0,0,0,0,0,0,0,0,-1,1133,1520,0,0
-84,-496,0,0,0,0,0,0,0,0,0,-1,1140,1520,0,0
-77,-496,0,0,0,0,0,0,0,0,0,-1,1147,1520,0,0
-70,-496,0,0,0,0,0,0,0,0,0,-1,1154,1520,0,0
-63,-496,0,0,0,0,0,0,0,0,0,-1,1161,1520,0,0
-56,-496,0,0,0,0,0,0,0,0,0,-1,1168,1520,0,0
-49,-496,0,0,0,0,0,0,0,0,0,-1,1175,1520,0,0
-42,-496,0,0,0,0,0,0,0,0,0,-1,1182,1520,0,0
-35,-496,0,0,0,0,0,0,0,0,0,-1,1189,1520,0,0
-28,-496,0,0,0,0,0,0,0,0,0,-1,1196,1520,0,0
-21,-496,0,0,0,0,0,0,0,0,0,-1,1203,1520,0,0
-14,-496,0,0,0,0,0,0,0,0,0,-1,1210,1520,0,0
-7,-496,0,0,0,0,0,0,0,0,0,-1,1217,1520,0,0
0,-496,0,0,0,0,0,0,0,0,0,-1,1224,1520,0,0
7,-496,0,0,0,0,0,0,0,0,0,-1,1231,1520,0,0
14,-496,0,0,0,0,0,0,0,0,0,-1,1238,1520,0,0
21,-496,0,0,0,0,0,0,0,0,0,-1,1245,1520,0,0
28,-496,0,0,0,0,0,0,0,0,0,-1,1252,1520,0,0
35,-496,0,0,0,0,0,0,0,0,0,-1,1259,1520,0,0
42,-496,0,0,0,0,0,0,0,0,0,-1,1266,1520,0,0
49,-496,0,0,0,0,0,0,0,0,0,-1,1273,1520,0,0
56,-496,0,0,0,0,0,0,0,0,0,-1,1280,1520,0,0
63,-496,0,0,0,0,0,0,0,0,0,-1,1287,1520,0,0
70,-496,0,0,0,0,0,0,0,0,0,-1,1294,1520,0,0
77,-496,0,0,0,0,0,0,0,0,0,-1,1301,1520,0,0
84,-496,0,0,0,0,0,0,0,0,0,-1,1308,1520,0,0
91,-496,0,0,0,0,0,0,0,0,0,-1,1315,1520,0,0
98,-496,0,0,0,0,0,0,0,0,0,-1,1322,1520,0,0
105,-496,0,0,0,0,0,0,0,0,0,-1,1329,1520,0,0
112,-496,0,0,0,0,0,0,0,0,0,-1,1336,1520,0,0
119,-496,0,0,0,0,0,0,0,0,0,-1,1343,1520,0,0
126,-496,0,0,0,0,0,0,0,0,0,-1,1350,1520,0,0
133,-496,0,0,0,0,0,0,0,0,0,-1,1357,1520,0,0
140,-496,0,0,0,0,0,0,0,0,0,-1,1364,1520,0,0
147,-496,0,0,0,0,0,0,0,0,0,-1,1371,1520,0,0
154,-496,0,0,0,0,0,0,0,0,0,-1,1378,1520,0,0
161,-496,0,0,0,0,0,0,0,0,0,-1,1385,1520,0,0
168,-496,0,0,0,0,0,0,0,0,0,-1,1392,1520,0,0
175,-496,0,0,0,0,0,0,0,0,0,-1,1399,1520,0,0
182,-496,0,0,0,0,0,0,0,0,0,-1,1406,1520,0,0
189,-496,0,0,0,0,0,0,0,0,0,-1,1413,1520,0,0
196,-496,0,0,0,0,0,0,0,0,0,-1,1420,1520,0,0
203,-496,0,0,0,0,0,0,0,0,0,-1,1427,1520,0,0
210,-496,0,0,0,0,0,0,0,0,0,-1,1434,1520,0,0
217,-496,0,0,0,0,0,0,0,0,0,-1,1441,1520,0,0
224,-496,0,0,0,0,0,0,0,0,0,-1,1448,1520,0,0
231,-496,0,0,0,0,0,0,0,0,0,-1,1455,1520,0,0
238,-496,0,0,0,0,0,0,0,0,0,-1,1462,1520,0,0
245,-496,0,0,0,0,0,0,0,0,0,-1,1469,1520,0,0
252,-496,0,0,0,0,0,0,0,0,0,-1,1476,1520,0,0
259,-496,0,0,0,0,0,0,0,0,0,-1,1483,1520,0,0
266,-496,0,0,0,0,0,0,0,0,0,-1,1490,1520,0,0
273,-496,0,0,0,0,0,0,0,0,0,-1,1497,1520,0,0
280,-496,0,0,0,0,0,0,0,0,0,-1,1504,1520,0,0
287,-496,0,0,0,0,0,0,0,0,0,-1,1511,1520,0,0
294,-496,0,0,0,0,0,0,0,0,0,-1,1518,1520,0,0
301,-496,0,0,0,0,0,0,0,0,0,-1,1525,1520,0,0
308,-496,0,0,0,0,0,0,0,0,0,-1,1532,1520,0,0
315,-496,0,0,0,0,0,0,0,0,0,-1,1539,1520,0,0
322,-496,0,0,0,0,0,0,0,0,0,-1,1546,1520,0,0
329,-496,0,0,0,0,0,0,0,0,0,-1,1553,1520,0,0
336,-496,0,0,0,0,0,0,0,0,0,-1,1560,1520,0,0
343,-496,0,0,0,0,0,0,0,0,0,-1,1567,1520,0,0
350,-496,0,0,0,0,0,0,0,0,0,-1,1574,1520,0,0
357,-496,0,0,0,0,0,0,0,0,0,-1,1581,1520,0,0
364,-496,0,0,0,0,0,0,0,0,0,-1,1588,1520,0,0
371,-496,0,0,0,0,0,0,0,0,0,-1,1595,1520,0,0
378,-496,0,0,0,0,0,0,0,0,0,-1,1602,1520,0,0
385,-496,0,0,0,0,0,0,0,0,0,-1,1609,1520,0,0
392,-496,0,0,0,0,0,0,0,0,0,-1,1616,1520,0,0
399,-496,0,0,0,0,0,0,0,0,0,-1,1623,1520,0,0
406,-496,0,0,0,0,0,0,0,0,0,-1,1630,1520,0,0
413,-496,0,0,0,0,0,0,0,0,0,-1,1637,1520,0,0
420,-496,0,0,0,0,0,0,0,0,0,-1,1644,1520,0,0
427,-496,0,0,0,0,0,0,0,0,0,-1,1651,1520,0,0
434,-496,11.0457,3.37732,0,0,0,0,0,0,0,-1,1658,1520,11.0456,-3.37736
441,-496,11.788,2.75488,0,0,0,0,0,0,0,-1,1665,1520,11.7879,-2.75485
448,-496,12.2146,2.18494,0,0,0,0,0,0,0,-1,1672,1520,12.2146,-2.18489
455,-496,12.3489,1.65173,0,0,0,0,0,0,0,-1,1679,1520,12.3489,-1.65178
462,-496,12.1912,1.32361,0,0,0,0,0,0,0,-1,1686,1520,12.1911,-1.32357
469,-496,14.8138,5.77954,0,0,0,0,0,0,0,-1,1693,1520,14.8138,-5.77958
476,-496,15.2449,6.27942,0,0,0,0,0,0,0,-1,1700,1520,15.2449,-6.27936
483,-496,9.19812,6.88367,0,0,0,0,0,0,0,-1,1707,1520,9.19812,-6.88361
490,-496,10.2123,7.97144,0,0,0,0,0,0,0,-1,1714,1520,10.2122,-7.97145
497,-496,13.9297,12.2981,0,0,0,0,0,0,0,-1,1721,1520,13.9297,-12.2982
504,-496,15.5032,12.9093,0,0,0,0,0,0,0,-1,1728,1520,15.5031,-12.9093
511,-496,17.2974,13.0005,0,0,0,0,0,0,0,-1,1735,1520,17.2973,-13.0005
518,-496,13.8381,13.6958,0,0,0,0,0,0,0,-1,1742,1520,13.8382,-13.6958
525,-496,12.7599,13.679,0,0,0,0,0,0,0,-1,1749,1520,12.7599,-13.6789
532,-496,12.9655,13.4436,-0.0493139,-0.00521127,0.0198889,0.00243299,-0.0569582,1.20385,0.0388085,0.0300917,1756,1520,12.9655,-13.4436
539,-496,12.9747,13.2057,-0.0350905,-0.00467876,0.0148562,0.00137393,-0.0411432,1.18391,0.0278981,0.0132992,1763,1520,12.9747,-13.2057
546,-496,12.9241,12.8978,-0.0240829,-0.00399031,0.0107269,0.000660124,-0.0287334,1.16172,0.0193794,0.00999304,1770,1520,12.9241,-12.8979
553,-496,12.9624,12.5884,-0.0156486,-0.00338002,0.00753974,0.000205622,-0.0192343,1.12689,0.0128919,0.0150598,1777,1520,12.9624,-12.5884
560,-496,12.9731,12.3195,-0.00965434,-0.00231161,0.00494171,0.000173272,-0.0121392,1.10488,0.00815119,0.0149888,1784,1520,12.9732,-12.3194
567,-496,12.9648,12.0133,-0.00437901,-0.00162204,0.00268475,1.74372e-05,-0.00601849,1.02257,0.00401815,0.0120418,1791,1520,12.9649,-12.0133
574,-496,12.9432,11.7208,-0.00113805,-0.00118341,0.00117896,1.84451e-05,-0.00233991,0.775781,0.00156613,0.0120159,1798,1520,12.9432,-11.7208
581,-496,12.9608,11.436,-0.000215058,-0.000373761,0.000382254,9.59937e-05,-0.000684813,0.683057,0.000491673,0.0125836,1805,1520,12.9608,-11.436
588,-496,12.9635,11.1426,0.000507474,0.000385592,-0.000391341,0.000842591,5.04758e-05,-0.708157,0.000545681,0.0144072,1812,1520,12.9636,-11.1426
595,-496,12.9387,10.8583,0.000915823,0.00083254,-0.000830139,0.00170536,4.29981e-05,-0.760338,0.00112285,0.0158978,1819,1520,12.9387,-10.8583
602,-496,12.9348,10.5359,0.00128232,0.00105109,-0.0010871,0.00225994,7.34738e-05,-0.732422,0.00148274,0.0180572,1826,1520,12.9348,-10.5359
609,-496,12.951,10.229,0.00199868,0.000985383,-0.00130438,0.00289135,9.27121e-05,-0.600155,0.00189742,0.0152692,1833,1520,12.951,-10.229
616,-496,12.967,9.89441,0.00285738,0.000773449,-0.00149211,0.00363532,-4.49526e-06,-0.4806,0.00242505,0.0165056,1840,1520,12.967,-9.89442
623,-496,12.8906,9.59216,0.00404165,0.000229425,-0.0014369,0.00452257,-0.000251497,-0.322976,0.00310228,0.0303394,1847,1520,12.8906,-9.59216
630,-496,13.0676,9.32556,0,0,0,0,0,0,0,-1,1854,1520,13.0676,-9.32559
637,-496,12.0918,9.79541,0,0,0,0,0,0,0,-1,1861,1520,12.0917,-9.79537
644,-496,12.4537,10.087,0,0,0,0,0,0,0,-1,1868,1520,12.4537,-10.0871
651,-496,8.18506,5.47803,0,0,0,0,0,0,0,-1,1875,1520,8.18505,-5.47806
658,-496,7.79993,4.02563,0,0,0,0,0,0,0,-1,1882,1520,7.79997,-4.02568
665,-496,5.47583,7.90625,0,0,0,0,0,0,0,-1,1889,1520,5.47581,-7.90628
672,-496,0,0,0,0,0,0,0,0,0,-1,1896,1520,0,0
679,-496,0,0,0,0,0,0,0,0,0,-1,1903,1520,0,0
686,-496,0,0,0,0,0,0,0,0,0,-1,1910,1520,0,0
693,-496,0,0,0,0,0,0,0,0,0,-1,1917,1520,0,0
700,-496,0,0,0,0,0,0,0,0,0,-1,1924,1520,0,0
707,-496,0,0,0,0,0,0,0,0,0,-1,1931,1520,0,0
714,-496,0,0,0,0,0,0,0,0,0,-1,1938,1520,0,0
721,-496,0,0,0,0,0,0,0,0,0,-1,1945,1520,0,0
728,-496,0,0,0,0,0,0,0,0,0,-1,1952,1520,0,0
735,-496,0,0,0,0,0,0,0,0,0,-1,1959,1520,0,0
742,-496,0,0,0,0,0,0,0,0,0,-1,1966,1520,0,0
749,-496,0,0,0,0,0,0,0,0,0,-1,1973,1520,0,0
756,-496,0,0,0,0,0,0,0,0,0,-1,1980,1520,0,0
763,-496,0,0,0,0,0,0,0,0,0,-1,1987,1520,0,0
770,-496,0,0,0,0,0,0,0,0,0,-1,1994,1520,0,0
777,-496,0,0,0,0,0,0,0,0,0,-1,2001,1520,0,0
784,-496,0,0,0,0,0,0,0,0,0,-1,2008,1520,0,0
791,-496,0,0,0,0,0,0,0,0,0,-1,2015,1520,0,0
798,-496,0,0,0,0,0,0,0,0,0,-1,2022,1520,0,0
805,-496,0,0,0,0,0,0,0,0,0,-1,2029,1520,0,0
812,-496,0,0,0,0,0,0,0,0,0,-1,2036,1520,0,0
-700,-503,0,0,0,0,0,0,0,0,0,-1,524,1527,0,0
-693,-503,0,0,0,0,0,0,0,0,0,-1,531,1527,0,0
-686,-503,0,0,0,0,0,0,0,0,0,-1,538,1527,0,0
-679,-503,0,0,0,0,0,0,0,0,0,-1,545,1527,0,0
-672,-503,0,0,0,0,0,0,0,0,0,-1,552,1527,0,0
-665,-503,0,0,0,0,0,0,0,0,0,-1,559,1527,0,0
-658,-503,0,0,0,0,0,0,0,0,0,-1,566,1527,0,0
-651,-503,0,0,0,0,0,0,0,0,0,-1,573,1527,0,0
-644,-503,0,0,0,0,0,0,0,0,0,-1,580,1527,0,0
-637,-503,0,0,0,0,0,0,0,0,0,-1,587,1527,0,0
-630,-503,0,0,0,0,0,0,0,0,0,-1,594,1527,0,0
-623,-503,0,0,0,0,0,0,0,0,0,-1,601,1527,0,0
-616,-503,0,0,0,0,0,0,0,0,0,-1,608,1527,0,0
-609,-503,0,0,0,0,0,0,0,0,0,-1,615,1527,0,0
-602,-503,0,0,0,0,0,0,0,0,0,-1,622,1527,0,0
-595,-503,0,0,0,0,0,0,0,0,0,-1,629,1527,0,0
-588,-503,0,0,0,0,0,0,0,0,0,-1,636,1527,0,0
-581,-503,0,0,0,0,0,0,0,0,0,-1,643,1527,0,0
-574,-503,0,0,0,0,0,0,0,0,0,-1,650,1527,0,0
-567,-503,0,0,0,0,0,0,0,0,0,-1,657,1527,0,0
-560,-503,0,0,0,0,0,0,0,0,0,-1,664,1527,0,0
-553,-503,0,0,0,0,0,0,0,0,0,-1,671,1527,0,0
-546,-503,0,0,0,0,0,0,0,0,0,-1,678,1527,0,0
-539,-503,3.50177,4.26428,0,0,0,0,0,0,0,-1,685,1527,3.50177,-4.26424
-532,-503,-3.82953,4.00415,0,0,0,0,0,0,0,-1,692,1527,-3.8295,-4.00421
-525,-503,-3.59369,5.18848,0.114798,0.0780964,0.0478765,0.14772,0.0451741,0.602389,0.0874039,0.0475926,699,1527,-3.59372,-5.18853
-518,-503,-2.90955,5.35535,0.0860121,0.0586645,0.0359513,0.110802,0.0338745,0.603675,0.0655616,0.04874,706,1527,-2.90955,-5.35529
-511,-503,-2.3197,6.2074,0.0622505,0.0439061,0.026201,0.0808384,0.0253182,0.61703,0.0477455,0.0478541,713,1527,-2.31969,-6.2074
-504,-503,-1.89209,7.04163,0,0,0,0,0,0,0,-1,720,1527,-1.89209,-7.04159
-497,-503,-1.59503,7.98242,0,0,0,0,0,0,0,-1,727,1527,-1.59506,-7.98247
-490,-503,-1.52692,8.12952,0.0163027,0.0159076,0.00754191,0.0236497,0.00856068,0.772305,0.0138265,0.0499319,734,1527,-1.52689,-8.12948
-483,-503,-1.66241,8.33862,0.00847741,0.0111022,0.0043516,0.014335,0.00524461,0.931856,0.00837502,0.0410565,741,1527,-1.66244,-8.3386
-476,-503,-1.81604,8.64185,0.00275576,0.00762051,0.00189334,0.00827054,0.00210574,1.24008,0.00496299,0.0198079,748,1527,-1.81606,-8.64184
-469,-503,-1.89233,8.92908,-0.00105077,0.00514044,0.000564172,0.00519143,-0.00110176,1.48066,0.0038807,0.010099,755,1527,-1.89233,-8.92912
-462,-503,-1.8916,9.25879,-0.00185079,0.00348055,5.24635e-05,0.00348107,-0.0018513,1.56096,0.00312621,0.0114113,762,1527,-1.8916,-9.25885
-455,-503,-1.85663,9.56604,-0.00147583,0.0026011,-0.000120452,0.00260465,-0.00147939,-1.54129,0.00238757,0.0171435,769,1527,-1.85662,-9.56606
-448,-503,-1.86768,9.90161,-0.000306389,0.00200811,7.0707e-05,0.00201027,-0.000308547,1.54028,0.00145398,0.0167256,776,1527,-1.86767,-9.90163
-441,-503,-1.89667,10.231,0.00103462,0.00137087,0.000236305,0.00149276,0.000912732,1.0946,0.00086895,0.0137274,783,1527,-1.8967,-10.2309
-434,-503,-1.91772,10.5283,0.00238133,0.000472328,0.000409142,0.00246532,0.000388335,0.202477,0.00153061,0.0111706,790,1527,-1.91775,-10.5283
-427,-503,-1.95715,10.8652,0.00380361,-0.000499558,0.000480864,0.00385669,-0.000552638,0.10994,0.00277375,0.0169979,797,1527,-1.95718,-10.8652
-420,-503,-1.90076,11.1931,0.0050966,-0.00149549,0.000436227,0.00512534,-0.00152423,0.0657919,0.00402241,0.0186983,804,1527,-1.90077,-11.1931
-413,-503,-1.88306,11.5166,0.00630718,-0.0022961,0.000479568,0.00633383,-0.00232274,0.0555132,0.00517363,0.015407,811,1527,-1.88303,-11.5166
-406,-503,-1.8952,11.8344,0.00746429,-0.0023379,0.000611153,0.00750225,-0.00237586,0.0620284,0.00595363,0.0178511,818,1527,-1.8952,-11.8344
-399,-503,-1.78595,12.2495,0.00857223,-0.00155185,0.000980455,0.0086663,-0.00164592,0.0956594,0.00639715,0.0272111,825,1527,-1.78598,-12.2495
-392,-503,-1.54535,12.7911,0,0,0,0,0,0,0,-1,832,1527,-1.54533,-12.7911
-385,-503,-1.86676,13.0614,0,0,0,0,0,0,0,-1,839,1527,-1.86678,-13.0614
-378,-503,-1.4198,13.49,0,0,0,0,0,0,0,-1,846,1527,-1.4198,-13.49
-371,-503,-1.20972,14.1068,0,0,0,0,0,0,0,-1,853,1527,-1.20973,-14.1069
-364,-503,0.181396,12.3768,0,0,0,0,0,0,0,-1,860,1527,0.18138,-12.3768
-357,-503,0.558533,9.25452,0,0,0,0,0,0,0,-1,867,1527,0.558542,-9.25446
-350,-503,0.219971,6.84827,0,0,0,0,0,0,0,-1,874,1527,0.21996,-6.84831
-343,-503,-3.5802,4.43274,0,0,0,0,0,0,0,-1,881,1527,-3.58018,-4.43276
-336,-503,-3.2384,6.40637,0,0,0,0,0,0,0,-1,888,1527,-3.2384,-6.40643
-329,-503,-1.70691,11.886,0,0,0,0,0,0,0,-1,895,1527,-1.70689,-11.886
-322,-503,-3.31317,8.81519,0,0,0,0,0,0,0,-1,902,1527,-3.31315,-8.81524
-315,-503,-3.90265,7.73853,0,0,0,0,0,0,0,-1,909,1527,-3.90264,-7.73854
-308,-503,-3.55066,7.57544,0,0,0,0,0,0,0,-1,916,1527,-3.55063,-7.5754
-301,-503,0,0,0,0,0,0,0,0,0,-1,923,1527,0,0
-294,-503,0,0,0,0,0,0,0,0,0,-1,930,1527,0,0
-287,-503,0,0,0,0,0,0,0,0,0,-1,937,1527,0,0
-280,-503,0,0,0,0,0,0,0,0,0,-1,944,1527,0,0
-273,-503,0,0,0,0,0,0,0,0,0,-1,951,1527,0,0
-266,-503,0,0,0,0,0,0,0,0,0,-1,958,1527,0,0
-259,-503,0,0,0,0,0,0,0,0,0,-1,965,1527,0,0
-252,-503,0,0,0,0,0,0,0,0,0,-1,972,1527,0,0
-245,-503,0,0,0,0,0,0,0,0,0,-1,979,1527,0,0
-238,-503,0,0,0,0,0,0,0,0,0,-1,986,1527,0,0
-231,-503,0,0,0,0,0,0,0,0,0,-1,993,1527,0,0
-224,-503,0,0,0,0,0,0,0,0,0,-1,1000,1527,0,0
-217,-503,0,0,0,0,0,0,0,0,0,-1,1007,1527,0,0
-210,-503,0,0,0,0,0,0,0,0,0,-1,1014,1527,0,0
-203,-503,0,0,0,0,0,0,0,0,0,-1,1021,1527,0,0
-196,-503,0,0,0,0,0,0,0,0,0,-1,1028,1527,0,0
-189,-503,0,0,0,0,0,0,0,0,0,-1,1035,1527,0,0
-182,-503,0,0,0,0,0,0,0,0,0,-1,1042,1527,0,0
-175,-503,0,0,0,0,0,0,0,0,0,-1,1049,1527,0,0
-168,-503,0,0,0,0,0,0,0,0,0,-1,1056,1527,0,0
-161,-503,0,0,0,0,0,0,0,0,0,-1,1063,1527,0,0
-154,-503,0,0,0,0,0,0,0,0,0,-1,1070,1527,0,0
-147,-503,0,0,0,0,0,0,0,0,0,-1,1077,1527,0,0
-140,-503,0,0,0,0,0,0,0,0,0,-1,1084,1527,0,0
-133,-503,0,0,0,0,0,0,0,0,0,-1,1091,1527,0,0
-126,-503,0,0,0,0,0,0,0,0,0,-1,1098,1527,0,0
-119,-503,0,0,0,0,0,0,0,0,0,-1,1105,1527,0,0
-112,-503,0,0,0,0,0,0,0,0,0,-1,1112,1527,0,0
-105,-503,0,0,0,0,0,0,0,0,0,-1,1119,1527,0,0
-98,-503,0,0,0,0,0,0,0,0,0,-1,1126,1527,0,0
-91,-503,0,0,0,0,0,0,0,0,0,-1,1133,1527,0,0
-84,-503,0,0,0,0,0,0,0,0,0,-1,1140,1527,0,0
-77,-503,0,0,0,0,0,0,0,0,0,-1,1147,1527,0,0
-70,-503,0,0,0,0,0,0,0,0,0,-1,1154,1527,0,0
-63,-503,0,0,0,0,0,0,0,0,0,-1,1161,1527,0,0
-56,-503,0,0,0,0,0,0,0,0,0,-1,1168,1527,0,0
-49,-503,0,0,0,0,0,0,0,0,0,-1,1175,1527,0,0
-42,-503,0,0,0,0,0,0,0,0,0,-1,1182,1527,0,0
-35,-503,0,0,0,0,0,0,0,0,0,-1,1189,1527,0,0
-28,-503,0,0,0,0,0,0,0,0,0,-1,1196,1527,0,0
-21,-503,0,0,0,0,0,0,0,0,0,-1,1203,1527,0,0
-14,-503,0,0,0,0,0,0,0,0,0,-1,1210,1527,0,0
-7,-503,0,0,0,0,0,0,0,0,0,-1,1217,1527,0,0
0,-503,0,0,0,0,0,0,0,0,0,-1,1224,1527,0,0
7,-503,0,0,0,0,0,0,0,0,0,-1,1231,1527,0,0
14,-503,0,0,0,0,0,0,0,0,0,-1,1238,1527,0,0
21,-503,0,0,0,0,0,0,0,0,0,-1,1245,1527,0,0
28,-503,0,0,0,0,0,0,0,0,0,-1,1252,1527,0,0
35,-503,0,0,0,0,0,0,0,0,0,-1,1259,1527,0,0
42,-503,0,0,0,0,0,0,0,0,0,-1,1266,1527,0,0
49,-503,0,0,0,0,0,0,0,0,0,-1,1273,1527,0,0
56,-503,0,0,0,0,0,0,0,0,0,-1,1280,1527,0,0
63,-503,0,0,0,0,0,0,0,0,0,-1,1287,1527,0,0
70,-503,0,0,0,0,0,0,0,0,0,-1,1294,1527,0,0
77,-503,0,0,0,0,0,0,0,0,0,-1,1301,1527,0,0
84,-503,0,0,0,0,0,0,0,0,0,-1,1308,1527,0,0
91,-503,0,0,0,0,0,0,0,0,0,-1,1315,1527,0,0
98,-503,0,0,0,0,0,0,0,0,0,-1,1322,1527,0,0
105,-503,0,0,0,0,0,0,0,0,0,-1,1329,1527,0,0
112,-503,0,0,0,0,0,0,0,0,0,-1,1336,1527,0,0
119,-503,0,0,0,0,0,0,0,0,0,-1,1343,1527,0,0
126,-503,0,0,0,0,0,0,0,0,0,-1,1350,1527,0,0
133,-503,0,0,0,0,0,0,0,0,0,-1,1357,1527,0,0
140,-503,0,0,0,0,0,0,0,0,0,-1,1364,1527,0,0
147,-503,0,0,0,0,0,0,0,0,0,-1,1371,1527,0,0
154,-503,0,0,0,0,0,0,0,0,0,-1,1378,1527,0,0
161,-503,0,0,0,0,0,0,0,0,0,-1,1385,1527,0,0
168,-503,0,0,0,0,0,0,0,0,0,-1,1392,1527,0,0
175,-503,0,0,0,0,0,0,0,0,0,-1,1399,1527,0,0
182,-503,0,0,0,0,0,0,0,0,0,-1,1406,1527,0,0
189,-503,0,0,0,0,0,0,0,0,0,-1,1413,1527,0,0
196,-503,0,0,0,0,0,0,0,0,0,-1,1420,1527,0,0
203,-503,0,0,0,0,0,0,0,0,0,-1,1427,1527,0,0
210,-503,0,0,0,0,0,0,0,0,0,-1,1434,1527,0,0
217,-503,0,0,0,0,0,0,0,0,0,-1,1441,1527,0,0
224,-503,0,0,0,0,0,0,0,0,0,-1,1448,1527,0,0
231,-503,0,0,0,0,0,0,0,0,0,-1,1455,1527,0,0
238,-503,0,0,0,0,0,0,0,0,0,-1,1462,1527,0,0
245,-503,0,0,0,0,0,0,0,0,0,-1,1469,1527,0,0
252,-503,0,0,0,0,0,0,0,0,0,-1,1476,1527,0,0
259,-503,0,0,0,0,0,0,0,0,0,-1,1483,1527,0,0
266,-503,0,0,0,0,0,0,0,0,0,-1,1490,1527,0,0
273,-503,0,0,0,0,0,0,0,0,0,-1,1497,1527,0,0
280,-503,0,0,0,0,0,0,0,0,0,-1,1504,1527,0,0
287,-503,0,0,0,0,0,0,0,0,0,-1,1511,1527,0,0
294,-503,0,0,0,0,0,0,0,0,0,-1,1518,1527,0,0
301,-503,0,0,0,0,0,0,0,0,0,-1,1525,1527,0,0
308,-503,0,0,0,0,0,0,0,0,0,-1,1532,1527,0,0
315,-503,0,0,0,0,0,0,0,0,0,-1,1539,1527,0,0
322,-503,0,0,0,0,0,0,0,0,0,-1,1546,1527,0,0
329,-503,0,0,0,0,0,0,0,0,0,-1,1553,1527,0,0
336,-503,0,0,0,0,0,0,0,0,0,-1,1560,1527,0,0
343,-503,0,0,0,0,0,0,0,0,0,-1,1567,1527,0,0
350,-503,0,0,0,0,0,0,0,0,0,-1,1574,1527,0,0
357,-503,0,0,0,0,0,0,0,0,0,-1,1581,1527,0,0
364,-503,0,0,0,0,0,0,0,0,0,-1,1588,1527,0,0
371,-503,0,0,0,0,0,0,0,0,0,-1,1595,1527,0,0
378,-503,0,0,0,0,0,0,0,0,0,-1,1602,1527,0,0
385,-503,0,0,0,0,0,0,0,0,0,-1,1609,1527,0,0
392,-503,0,0,0,0,0,0,0,0,0,-1,1616,1527,0,0
399,-503,0,0,0,0,0,0,0,0,0,-1,1623,1527,0,0
406,-503,0,0,0,0,0,0,0,0,0,-1,1630,1527,0,0
413,-503,0,0,0,0,0,0,0,0,0,-1,1637,1527,0,0
420,-503,0,0,0,0,0,0,0,0,0,-1,1644,1527,0,0
427,-503,10.5968,4.9856,0,0,0,0,0,0,0,-1,1651,1527,10.5969,-4.98563
434,-503,11.4329,3.97217,0,0,0,0,0,0,0,-1,1658,1527,11.4328,-3.97222
441,-503,12.0957,2.96509,0,0,0,0,0,0,0,-1,1665,1527,12.0957,-2.96512
448,-503,12.3259,2.53894,0,0,0,0,0,0,0,-1,1672,1527,12.326,-2.53895
455,-503,12.1669,2.18762,0,0,0,0,0,0,0,-1,1679,1527,12.1668,-2.18767
462,-503,11.59,2.60791,0,0,0,0,0,0,0,-1,1686,1527,11.5899,-2.60794
469,-503,11.1625,1.61853,0,0,0,0,0,0,0,-1,1693,1527,11.1625,-1.61856
476,-503,9.07703,5.81042,0,0,0,0,0,0,0,-1,1700,1527,9.07699,-5.81047
483,-503,9.74414,6.92432,0,0,0,0,0,0,0,-1,1707,1527,9.74417,-6.9243
490,-503,10.5033,10.1071,0,0,0,0,0,0,0,-1,1714,1527,10.5032,-10.107
497,-503,14.4149,13.3627,0,0,0,0,0,0,0,-1,1721,1527,14.4149,-13.3627
504,-503,14.5126,13.2924,0,0,0,0,0,0,0,-1,1728,1527,14.5125,-13.2923
511,-503,13.7365,14.3053,0,0,0,0,0,0,0,-1,1735,1527,13.7365,-14.3053
518,-503,13.3298,13.8724,-0.0676003,-0.00687518,0.0266898,0.00318785,-0.0776633,1.21024,0.0528702,0.0475477,1742,1527,13.3299,-13.8725
525,-503,12.7588,13.6759,-0.0516317,-0.00552122,0.0208201,0.00248836,-0.0596412,1.20355,0.0406157,0.0432733,1749,1527,12.7588,-13.6759
532,-503,12.6497,13.5035,-0.0381866,-0.00466946,0.015915,0.00168338,-0.0445395,1.191,0.0302697,0.0147125,1756,1527,12.6496,-13.5035
539,-503,12.6694,13.2075,-0.0272407,-0.00387354,0.0118116,0.00105675,-0.032171,1.17537,0.0218081,0.0118106,1763,1527,12.6694,-13.2075
546,-503,12.6486,12.9032,-0.0185916,-0.00303954,0.00839574,0.000627992,-0.0222591,1.15895,0.0150531,0.0116858,1770,1527,12.6485,-12.9032
553,-503,12.6638,12.6072,-0.0117902,-0.00239621,0.00574373,0.000326503,-0.0145129,1.12814,0.00978594,0.0144864,1777,1527,12.6638,-12.6072
560,-503,12.6677,12.3148,-0.00697437,-0.00136729,0.0035544,0.000356159,-0.00869781,1.11932,0.00592083,0.0138709,1784,1527,12.6677,-12.3149
567,-503,12.6714,12.0134,-0.00287544,-0.00072283,0.00169792,0.00021118,-0.00380945,1.06788,0.00261287,0.0116584,1791,1527,12.6714,-12.0134
574,-503,12.6644,11.7191,-0.00044295,-0.000249162,0.000480056,0.000143681,-0.000835792,0.884979,0.000610748,0.0119965,1798,1527,12.6644,-11.7191
581,-503,12.6427,11.4296,0.000294874,0.00043443,-0.000190911,0.000567916,0.000161389,-0.960606,0.000337915,0.012687,1805,1527,12.6427,-11.4295
588,-503,12.6266,11.1489,0.000778048,0.00105319,-0.000798078,0.00172547,0.000105771,-0.870748,0.00111673,0.0151364,1812,1527,12.6266,-11.1489
595,-503,12.6205,10.8523,0.00100302,0.00143371,-0.0011837,0.00242149,1.52375e-05,-0.875377,0.00160927,0.0117162,1819,1527,12.6204,-10.8522
602,-503,12.6677,10.531,0.00125063,0.00164614,-0.00146357,0.00292525,-2.84836e-05,-0.852552,0.00195973,0.0148923,1826,1527,12.6677,-10.5311
609,-503,12.7163,10.1931,0.00185169,0.00164558,-0.00171872,0.00347044,2.68347e-05,-0.755454,0.00230473,0.0236789,1833,1527,12.7164,-10.1932
616,-503,12.6117,10.053,0.00266987,0.00151794,-0.0020306,0.0042046,-1.67983e-05,-0.647206,0.00280868,0.0225297,1840,1527,12.6117,-10.0529
623,-503,12.5328,9.53906,0.00397086,0.0012554,-0.00222066,0.00521597,1.02967e-05,-0.511015,0.00347388,0.0371377,1847,1527,12.5328,-9.53905
630,-503,12.4742,9.03027,0,0,0,0,0,0,0,-1,1854,1527,12.4742,-9.03032
637,-503,14.5564,9.20496,0,0,0,0,0,0,0,-1,1861,1527,14.5564,-9.2049
644,-503,11.4802,7.57214,0,0,0,0,0,0,0,-1,1868,1527,11.4802,-7.57215
651,-503,11.5718,6.5448,0,0,0,0,0,0,0,-1,1875,1527,11.5718,-6.54476
658,-503,8.25635,3.10498,0,0,0,0,0,0,0,-1,1882,1527,8.2563,-3.10493
665,-503,0,0,0,0,0,0,0,0,0,-1,1889,1527,0,0
672,-503,0,0,0,0,0,0,0,0,0,-1,1896,1527,0,0
679,-503,0,0,0,0,0,0,0,0,0,-1,1903,1527,0,0
686,-503,0,0,0,0,0,0,0,0,0,-1,1910,1527,0,0
693,-503,0,0,0,0,0,0,0,0,0,-1,1917,1527,0,0
700,-503,0,0,0,0,0,0,0,0,0,-1,1924,1527,0,0
707,-503,0,0,0,0,0,0,0,0,0,-1,1931,1527,0,0
714,-503,0,0,0,0,0,0,0,0,0,-1,1938,1527,0,0
721,-503,0,0,0,0,0,0,0,0,0,-1,1945,1527,0,0
728,-503,0,0,0,0,0,0,0,0,0,-1,1952,1527,0,0
735,-503,0,0,0,0,0,0,0,0,0,-1,1959,1527,0,0
742,-503,0,0,0,0,0,0,0,0,0,-1,1966,1527,0,0
749,-503,0,0,0,0,0,0,0,0,0,-1,1973,1527,0,0
756,-503,0,0,0,0,0,0,0,0,0,-1,1980,1527,0,0
763,-503,0,0,0,0,0,0,0,0,0,-1,1987,1527,0,0
770,-503,0,0,0,0,0,0,0,0,0,-1,1994,1527,0,0
777,-503,0,0,0,0,0,0,0,0,0,-1,2001,1527,0,0
784,-503,0,0,0,0,0,0,0,0,0,-1,2008,1527,0,0
791,-503,0,0,0,0,0,0,0,0,0,-1,2015,1527,0,0
798,-503,0,0,0,0,0,0,0,0,0,-1,2022,1527,0,0
805,-503,0,0,0,0,0,0,0,0,0,-1,2029,1527,0,0
812,-503,0,0,0,0,0,0,0,0,0,-1,2036,1527,0,0
-700,-510,0,0,0,0,0,0,0,0,0,-1,524,1534,0,0
-693,-510,0,0,0,0,0,0,0,0,0,-1,531,1534,0,0
-686,-510,0,0,0,0,0,0,0,0,0,-1,538,1534,0,0
-679,-510,0,0,0,0,0,0,0,0,0,-1,545,1534,0,0
-672,-510,0,0,0,0,0,0,0,0,0,-1,552,1534,0,0
-665,-510,0,0,0,0,0,0,0,0,0,-1,559,1534,0,0
-658,-510,0,0,0,0,0,0,0,0,0,-1,566,1534,0,0
-651,-510,0,0,0,0,0,0,0,0,0,-1,573,1534,0,0
-644,-510,0,0,0,0,0,0,0,0,0,-1,580,1534,0,0
-637,-510,0,0,0,0,0,0,0,0,0,-1,587,1534,0,0
-630,-510,0,0,0,0,0,0,0,0,0,-1,594,1534,0,0
-623,-510,0,0,0,0,0,0,0,0,0,-1,601,1534,0,0
-616,-510,0,0,0,0,0,0,0,0,0,-1,608,1534,0,0
-609,-510,0,0,0,0,0,0,0,0,0,-1,615,1534,0,0
-602,-510,0,0,0,0,0,0,0,0,0,-1,622,1534,0,0
-595,-510,0,0,0,0,0,0,0,0,0,-1,629,1534,0,0
-588,-510,0,0,0,0,0,0,0,0,0,-1,636,1534,0,0
-581,-510,0,0,0,0,0,0,0,0,0,-1,643,1534,0,0
-574,-510,0,0,0,0,0,0,0,0,0,-1,650,1534,0,0
-567,-510,0,0,0,0,0,0,0,0,0,-1,657,1534,0,0
-560,-510,0,0,0,0,0,0,0,0,0,-1,664,1534,0,0
-553,-510,0,0,0,0,0,0,0,0,0,-1,671,1534,0,0
-546,-510,0,0,0,0,0,0,0,0,0,-1,678,1534,0,0
-539,-510,0,0,0,0,0,0,0,0,0,-1,685,1534,0,0
-532,-510,-4.01874,4.18665,0,0,0,0,0,0,0,-1,692,1534,-4.01874,-4.18659
-525,-510,-3.59058,4.5896,0,0,0,0,0,0,0,-1,699,1534,-3.59056,-4.58955
-518,-510,-2.80609,4.6427,0,0,0,0,0,0,0,-1,706,1534,-2.80608,-4.64264
-511,-510,-2.29102,5.66711,0,0,0,0,0,0,0,-1,713,1534,-2.29099,-5.66706
-504,-510,-0.332153,3.54688,0,0,0,0,0,0,0,-1,720,1534,-0.332171,-3.54682
-497,-510,-1.26733,8.1178,0,0,0,0,0,0,0,-1,727,1534,-1.26734,-8.1178
-490,-510,-1.14087,8.30042,0.0164766,0.0206558,0.00831868,0.0271433,0.00998908,0.90845,0.0158521,0.0458104,734,1534,-1.14087,-8.30038
-483,-510,-1.15253,8.44678,0.00830404,0.0153289,0.00518302,0.0180775,0.0055554,1.08319,0.0106923,0.0412613,741,1534,-1.15255,-8.4468
-476,-510,-1.36127,8.60876,0.0024892,0.0115798,0.00288848,0.01242,0.00164905,1.28774,0.00778871,0.0297829,748,1534,-1.36127,-8.60872
-469,-510,-1.54944,8.93689,-0.00150306,0.00879785,0.00167563,0.00906357,-0.00176877,1.41353,0.00671013,0.0121633,755,1534,-1.54943,-8.93688
-462,-510,-1.57202,9.24707,-0.0024529,0.00690195,0.00122075,0.00705863,-0.00260957,1.44315,0.00577559,0.0107728,762,1534,-1.57202,-9.24706
-455,-510,-1.5838,9.58826,-0.00207995,0.00579879,0.00107442,0.00594268,-0.00222384,1.43766,0.00487517,0.0134003,769,1534,-1.58378,-9.58822
-448,-510,-1.57977,9.94238,-0.000890836,0.00496111,0.00128427,0.00523055,-0.00116028,1.364,0.00393128,0.013243,776,1534,-1.57976,-9.94244
-441,-510,-1.58759,10.2662,0.000381793,0.00407323,0.00141175,0.00455124,-9.62187e-05,1.24432,0.00306674,0.0140707,783,1534,-1.5876,-10.2663
-434,-510,-1.61664,10.5585,0.0015861,0.00296252,0.00153577,0.00395723,0.000591384,0.996043,0.00246479,0.0143399,790,1534,-1.61664,-10.5585
-427,-510,-1.62256,10.8403,0.00282767,0.00181209,0.00153786,0.00393941,0.000700353,0.625939,0.00242674,0.0215598,797,1534,-1.62254,-10.8403
-420,-510,-1.59332,11.1791,0.00388803,0.000668433,0.00136728,0.00439032,0.000166145,0.352058,0.0028731,0.0222192,804,1534,-1.59333,-11.1791
-413,-510,-1.58783,11.5139,0.00480334,-0.000197486,0.00125103,0.00509884,-0.000492986,0.231955,0.0035749,0.011045,811,1534,-1.5878,-11.5139
-406,-510,-1.60608,11.8131,0.00560781,-0.000407921,0.00121704,0.0058447,-0.000644811,0.192241,0.00412823,0.010137,818,1534,-1.60605,-11.8131
-399,-510,-1.60742,12.1147,0.00634883,0.000223418,0.00140317,0.00665496,-8.27133e-05,0.214805,0.00446447,0.0119294,825,1534,-1.60743,-12.1148
-392,-510,-1.48163,12.562,0.00715365,0.00163575,0.00182354,0.00770182,0.00108757,0.292018,0.00481316,0.0288374,832,1534,-1.48161,-12.562
-385,-510,-1.53815,12.8997,0.00856284,0.00410319,0.00296064,0.0100394,0.0026266,0.462639,0.00601183,0.0478509,839,1534,-1.53815,-12.8997
-378,-510,-1.63403,12.6716,0,0,0,0,0,0,0,-1,846,1534,-1.63402,-12.6716
-371,-510,-1.5697,12.6581,0,0,0,0,0,0,0,-1,853,1534,-1.56968,-12.6581
-364,-510,-0.481873,13.3893,0,0,0,0,0,0,0,-1,860,1534,-0.481867,-13.3893
-357,-510,-0.254395,8.89575,0,0,0,0,0,0,0,-1,867,1534,-0.254397,-8.89569
-350,-510,0.471191,6.06458,0,0,0,0,0,0,0,-1,874,1534,0.47118,-6.06453
-343,-510,-2.94617,5.00989,0,0,0,0,0,0,0,-1,881,1534,-2.94615,-5.00992
-336,-510,-1.92963,11.3776,0,0,0,0,0,0,0,-1,888,1534,-1.92962,-11.3775
-329,-510,-1.71991,15.4904,0,0,0,0,0,0,0,-1,895,1534,-1.71993,-15.4904
-322,-510,-0.251526,11.973,0,0,0,0,0,0,0,-1,902,1534,-0.251497,-11.9731
-315,-510,-1.73047,10.9796,0,0,0,0,0,0,0,-1,909,1534,-1.73049,-10.9796
-308,-510,-2.05328,9.72034,0,0,0,0,0,0,0,-1,916,1534,-2.05327,-9.72036
-301,-510,-1.90485,11.145,0,0,0,0,0,0,0,-1,923,1534,-1.90486,-11.1451
-294,-510,0,0,0,0,0,0,0,0,0,-1,930,1534,0,0
-287,-510,0,0,0,0,0,0,0,0,0,-1,937,1534,0,0
-280,-510,0,0,0,0,0,0,0,0,0,-1,944,1534,0,0
-273,-510,0,0,0,0,0,0,0,0,0,-1,951,1534,0,0
-266,-510,0,0,0,0,0,0,0,0,0,-1,958,1534,0,0
-259,-510,0,0,0,0,0,0,0,0,0,-1,965,1534,0,0
-252,-510,0,0,0,0,0,0,0,0,0,-1,972,1534,0,0
-245,-510,0,0,0,0,0,0,0,0,0,-1,979,1534,0,0
-238,-510,0,0,0,0,0,0,0,0,0,-1,986,1534,0,0
-231,-510,0,0,0,0,0,0,0,0,0,-1,993,1534,0,0
-224,-510,0,0,0,0,0,0,0,0,0,-1,1000,1534,0,0
-217,-510,0,0,0,0,0,0,0,0,0,-1,1007,1534,0,0
-210,-510,0,0,0,0,0,0,0,0,0,-1,1014,1534,0,0
-203,-510,0,0,0,0,0,0,0,0,0,-1,1021,1534,0,0
-196,-510,0,0,0,0,0,0,0,0,0,-1,1028,1534,0,0
-189,-510,0,0,0,0,0,0,0,0,0,-1,1035,1534,0,0
-182,-510,0,0,0,0,0,0,0,0,0,-1,1042,1534,0,0
-175,-510,0,0,0,0,0,0,0,0,0,-1,1049,1534,0,0
-168,-510,0,0,0,0,0,0,0,0,0,-1,1056,1534,0,0
-161,-510,0,0,0,0,0,0,0,0,0,-1,1063,1534,0,0
-154,-510,0,0,0,0,0,0,0,0,0,-1,1070,1534,0,0
-147,-510,0,0,0,0,0,0,0,0,0,-1,1077,1534,0,0
-140,-510,0,0,0,0,0,0,0,0,0,-1,1084,1534,0,0
-133,-510,0,0,0,0,0,0,0,0,0,-1,1091,1534,0,0
-126,-510,0,0,0,0,0,0,0,0,0,-1,1098,1534,0,0
-119,-510,0,0,0,0,0,0,0,0,0,-1,1105,1534,0,0
-112,-510,0,0,0,0,0,0,0,0,0,-1,1112,1534,0,0
-105,-510,0,0,0,0,0,0,0,0,0,-1,1119,1534,0,0
-98,-510,0,0,0,0,0,0,0,0,0,-1,1126,1534,0,0
-91,-510,0,0,0,0,0,0,0,0,0,-1,1133,1534,0,0
-84,-510,0,0,0,0,0,0,0,0,0,-1,1140,1534,0,0
-77,-510,0,0,0,0,0,0,0,0,0,-1,1147,1534,0,0
-70,-510,0,0,0,0,0,0,0,0,0,-1,1154,1534,0,0
-63,-510,0,0,0,0,0,0,0,0,0,-1,1161,1534,0,0
-56,-510,0,0,0,0,0,0,0,0,0,-1,1168,1534,0,0
-49,-510,0,0,0,0,0,0,0,0,0,-1,1175,1534,0,0
-42,-510,0,0,0,0,0,0,0,0,0,-1,1182,1534,0,0
-35,-510,0,0,0,0,0,0,0,0,0,-1,1189,1534,0,0
-28,-510,0,0,0,0,0,0,0,0,0,-1,1196,1534,0,0
-21,-510,0,0,0,0,0,0,0,0,0,-1,1203,1534,0,0
-14,-510,0,0,0,0,0,0,0,0,0,-1,1210,1534,0,0
-7,-510,0,0,0,0,0,0,0,0,0,-1,1217,1534,0,0
0,-510,0,0,0,0,0,0,0,0,0,-1,1224,1534,0,0
7,-510,0,0,0,0,0,0,0,0,0,-1,1231,1534,0,0
14,-510,0,0,0,0,0,0,0,0,0,-1,1238,1534,0,0
21,-510,0,0,0,0,0,0,0,0,0,-1,1245,1534,0,0
28,-510,0,0,0,0,0,0,0,0,0,-1,1252,1534,0,0
35,-510,0,0,0,0,0,0,0,0,0,-1,1259,1534,0,0
42,-510,0,0,0,0,0,0,0,0,0,-1,1266,1534,0,0
49,-510,0,0,0,0,0,0,0,0,0,-1,1273,1534,0,0
56,-510,0,0,0,0,0,0,0,0,0,-1,1280,1534,0,0
63,-510,0,0,0,0,0,0,0,0,0,-1,1287,1534,0,0
70,-510,0,0,0,0,0,0,0,0,0,-1,1294,1534,0,0
77,-510,0,0,0,0,0,0,0,0,0,-1,1301,1534,0,0
84,-510,0,0,0,0,0,0,0,0,0,-1,1308,1534,0,0
91,-510,0,0,0,0,0,0,0,0,0,-1,1315,1534,0,0
98,-510,0,0,0,0,0,0,0,0,0,-1,1322,1534,0,0
105,-510,0,0,0,0,0,0,0,0,0,-1,1329,1534,0,0
112,-510,0,0,0,0,0,0,0,0,0,-1,1336,1534,0,0
119,-510,0,0,0,0,0,0,0,0,0,-1,1343,1534,0,0
126,-510,0,0,0,0,0,0,0,0,0,-1,1350,1534,0,0
133,-510,0,0,0,0,0,0,0,0,0,-1,1357,1534,0,0
140,-510,0,0,0,0,0,0,0,0,0,-1,1364,1534,0,0
147,-510,0,0,0,0,0,0,0,0,0,-1,1371,1534,0,0
154,-510,0,0,0,0,0,0,0,0,0,-1,1378,1534,0,0
161,-510,0,0,0,0,0,0,0,0,0,-1,1385,1534,0,0
168,-510,0,0,0,0,0,0,0,0,0,-1,1392,1534,0,0
175,-510,0,0,0,0,0,0,0,0,0,-1,1399,1534,0,0
182,-510,0,0,0,0,0,0,0,0,0,-1,1406,1534,0,0
189,-510,0,0,0,0,0,0,0,0,0,-1,1413,1534,0,0
196,-510,0,0,0,0,0,0,0,0,0,-1,1420,1534,0,0
203,-510,0,0,0,0,0,0,0,0,0,-1,1427,1534,0,0
210,-510,0,0,0,0,0,0,0,0,0,-1,1434,1534,0,0
217,-510,0,0,0,0,0,0,0,0,0,-1,1441,1534,0,0
224,-510,0,0,0,0,0,0,0,0,0,-1,1448,1534,0,0
231,-510,0,0,0,0,0,0,0,0,0,-1,1455,1534,0,0
238,-510,0,0,0,0,0,0,0,0,0,-1,1462,1534,0,0
245,-510,0,0,0,0,0,0,0,0,0,-1,1469,1534,0,0
252,-510,0,0,0,0,0,0,0,0,0,-1,1476,1534,0,0
259,-510,0,0,0,0,0,0,0,0,0,-1,1483,1534,0,0
266,-510,0,0,0,0,0,0,0,0,0,-1,1490,1534,0,0
273,-510,0,0,0,0,0,0,0,0,0,-1,1497,1534,0,0
280,-510,0,0,0,0,0,0,0,0,0,-1,1504,1534,0,0
287,-510,0,0,0,0,0,0,0,0,0,-1,1511,1534,0,0
294,-510,0,0,0,0,0,0,0,0,0,-1,1518,1534,0,0
301,-510,0,0,0,0,0,0,0,0,0,-1,1525,1534,0,0
308,-510,0,0,0,0,0,0,0,0,0,-1,1532,1534,0,0
315,-510,0,0,0,0,0,0,0,0,0,-1,1539,1534,0,0
322,-510,0,0,0,0,0,0,0,0,0,-1,1546,1534,0,0
329,-510,0,0,0,0,0,0,0,0,0,-1,1553,1534,0,0
336,-510,0,0,0,0,0,0,0,0,0,-1,1560,1534,0,0
343,-510,0,0,0,0,0,0,0,0,0,-1,1567,1534,0,0
350,-510,0,0,0,0,0,0,0,0,0,-1,1574,1534,0,0
357,-510,0,0,0,0,0,0,0,0,0,-1,1581,1534,0,0
364,-510,0,0,0,0,0,0,0,0,0,-1,1588,1534,0,0
371,-510,0,0,0,0,0,0,0,0,0,-1,1595,1534,0,0
378,-510,0,0,0,0,0,0,0,0,0,-1,1602,1534,0,0
385,-510,0,0,0,0,0,0,0,0,0,-1,1609,1534,0,0
392,-510,0,0,0,0,0,0,0,0,0,-1,1616,1534,0,0
399,-510,0,0,0,0,0,0,0,0,0,-1,1623,1534,0,0
406,-510,0,0,0,0,0,0,0,0,0,-1,1630,1534,0,0
413,-510,0,0,0,0,0,0,0,0,0,-1,1637,1534,0,0
420,-510,13.1918,5.99402,0,0,0,0,0,0,0,-1,1644,1534,13.1917,-5.994
427,-510,10.9799,5.12341,0,0,0,0,0,0,0,-1,1651,1534,10.9798,-5.12337
434,-510,11.8219,4.07898,0,0,0,0,0,0,0,-1,1658,1534,11.8219,-4.07895
441,-510,12.6812,3.02991,0,0,0,0,0,0,0,-1,1665,1534,12.6811,-3.0299
448,-510,13.2379,2.2804,0,0,0,0,0,0,0,-1,1672,1534,13.2379,-2.28037
455,-510,9.76892,2.20642,0,0,0,0,0,0,0,-1,1679,1534,9.76894,-2.20647
462,-510,9.84692,2.49182,0,0,0,0,0,0,0,-1,1686,1534,9.84695,-2.49185
469,-510,16.6072,7.26941,0,0,0,0,0,0,0,-1,1693,1534,16.6072,-7.26945
476,-510,15.9199,7.8645,0,0,0,0,0,0,0,-1,1700,1534,15.9199,-7.86455
483,-510,13.0833,8.10938,0,0,0,0,0,0,0,-1,1707,1534,13.0833,-8.10932
490,-510,14.4258,14.8333,0,0,0,0,0,0,0,-1,1714,1534,14.4258,-14.8333
497,-510,14.1373,14.6119,-0.0919393,-0.0143858,0.0391255,0.00192326,-0.108248,1.17586,0.0728151,0.0451218,1721,1534,14.1374,-14.6119
504,-510,13.3164,13.8644,-0.0778605,-0.0114443,0.0322737,0.00165496,-0.0909597,1.18523,0.0611989,0.0432564,1728,1534,13.3164,-13.8644
511,-510,13.0945,13.9216,-0.0634343,-0.00893763,0.0264084,0.00175976,-0.0741317,1.18592,0.050018,0.0431984,1735,1534,13.0945,-13.9216
518,-510,12.6631,13.9913,-0.0501972,-0.00695065,0.0211072,0.00164329,-0.0587911,1.18414,0.0397532,0.0407318,1742,1534,12.6631,-13.9914
525,-510,12.3789,13.8203,-0.0385471,-0.00517017,0.0163714,0.0015193,-0.0452366,1.18289,0.0306767,0.0241662,1749,1534,12.3789,-13.8203
532,-510,12.4033,13.4697,-0.0285528,-0.00408418,0.012431,0.00112304,-0.0337601,1.17411,0.0228902,0.0125281,1756,1534,12.4033,-13.4697
539,-510,12.412,13.1609,-0.0203007,-0.00315478,0.00912252,0.000790876,-0.0242464,1.16257,0.0164342,0.0125467,1763,1534,12.412,-13.1609
546,-510,12.3739,12.9072,-0.0136389,-0.0022485,0.00633003,0.000571258,-0.0164587,1.15173,0.0111678,0.0127324,1770,1534,12.3739,-12.9072
553,-510,12.3619,12.609,-0.00827911,-0.00159756,0.00415733,0.000394977,-0.0102716,1.12386,0.00698314,0.0137111,1777,1534,12.3619,-12.6091
560,-510,12.3606,12.3094,-0.00451135,-0.000626621,0.00233987,0.000472031,-0.00561,1.13182,0.00390686,0.0134015,1784,1534,12.3606,-12.3094
567,-510,12.3712,12.0182,-0.00150585,-1.08743e-05,0.000856021,0.000378084,-0.00189481,1.14431,0.00140628,0.0125936,1791,1534,12.3712,-12.0182
574,-510,12.3639,11.7205,0.000124775,0.000546185,-0.000101519,0.000569367,0.000101593,-1.3463,0.000350654,0.0134836,1798,1534,12.3639,-11.7204
581,-510,12.3486,11.4518,0.000699978,0.00116959,-0.000689693,0.00166335,0.000206216,-0.949468,0.00104695,0.0112498,1805,1534,12.3486,-11.4518
588,-510,12.3451,11.1556,0.00097363,0.0017133,-0.00116272,0.00256358,0.000123342,-0.939376,0.00166946,0.0113177,1812,1534,12.3451,-11.1556
595,-510,12.4152,10.8035,0.00105217,0.00211766,-0.00154434,0.00321856,-4.87313e-05,-0.951491,0.00216213,0.0137221,1819,1534,12.4151,-10.8035
602,-510,12.3929,10.4736,0.00118026,0.00241906,-0.00190711,0.00380484,-0.000205515,-0.942417,0.00260776,0.0328412,1826,1534,12.3929,-10.4737
609,-510,12.3246,10.3441,0.00152275,0.00261055,-0.00224459,0.0043762,-0.0002429,-0.904265,0.00300171,0.0415785,1833,1534,12.3245,-10.3441
616,-510,12.42,10.0341,0.0021812,0.00269471,-0.00274756,0.00519749,-0.000321578,-0.831987,0.00357701,0.0463931,1840,1534,12.4201,-10.034
623,-510,12.3456,9.63123,0,0,0,0,0,0,0,-1,1847,1534,12.3455,-9.63124
630,-510,12.7377,9.59253,0,0,0,0,0,0,0,-1,1854,1534,12.7376,-9.59259
637,-510,11.0155,7.38464,0,0,0,0,0,0,0,-1,1861,1534,11.0155,-7.38463
644,-510,11.5809,7.17126,0,0,0,0,0,0,0,-1,1868,1534,11.5809,-7.17123
651,-510,8.70471,3.5061,0,0,0,0,0,0,0,-1,1875,1534,8.70475,-3.50611
658,-510,0,0,0,0,0,0,0,0,0,-1,1882,1534,0,0
665,-510,0,0,0,0,0,0,0,0,0,-1,1889,1534,0,0
672,-510,0,0,0,0,0,0,0,0,0,-1,1896,1534,0,0
679,-510,0,0,0,0,0,0,0,0,0,-1,1903,1534,0,0
686,-510,0,0,0,0,0,0,0,0,0,-1,1910,1534,0,0
693,-510,0,0,0,0,0,0,0,0,0,-1,1917,1534,0,0
700,-510,0,0,0,0,0,0,0,0,0,-1,1924,1534,0,0
707,-510,0,0,0,0,0,0,0,0,0,-1,1931,1534,0,0
714,-510,0,0,0,0,0,0,0,0,0,-1,1938,1534,0,0
721,-510,0,0,0,0,0,0,0,0,0,-1,1945,1534,0,0
728,-510,0,0,0,0,0,0,0,0,0,-1,1952,1534,0,0
735,-510,0,0,0,0,0,0,0,0,0,-1,1959,1534,0,0
742,-510,0,0,0,0,0,0,0,0,0,-1,1966,1534,0,0
749,-510,0,0,0,0,0,0,0,0,0,-1,1973,1534,0,0
756,-510,0,0,0,0,0,0,0,0,0,-1,1980,1534,0,0
763,-510,0,0,0,0,0,0,0,0,0,-1,1987,1534,0,0
770,-510,0,0,0,0,0,0,0,0,0,-1,1994,1534,0,0
777,-510,0,0,0,0,0,0,0,0,0,-1,2001,1534,0,0
784,-510,0,0,0,0,0,0,0,0,0,-1,2008,1534,0,0
791,-510,0,0,0,0,0,0,0,0,0,-1,2015,1534,0,0
798,-510,0,0,0,0,0,0,0,0,0,-1,2022,1534,0,0
805,-510,0,0,0,0,0,0,0,0,0,-1,2029,1534,0,0
812,-510,0,0,0,0,0,0,0,0,0,-1,2036,1534,0,0
-700,-517,0,0,0,0,0,0,0,0,0,-1,524,1541,0,0
-693,-517,0,0,0,0,0,0,0,0,0,-1,531,1541,0,0
-686,-517,0,0,0,0,0,0,0,0,0,-1,538,1541,0,0
-679,-517,0,0,0,0,0,0,0,0,0,-1,545,1541,0,0
-672,-517,0,0,0,0,0,0,0,0,0,-1,552,1541,0,0
-665,-517,0,0,0,0,0,0,0,0,0,-1,559,1541,0,0
-658,-517,0,0,0,0,0,0,0,0,0,-1,566,1541,0,0
-651,-517,0,0,0,0,0,0,0,0,0,-1,573,1541,0,0
-644,-517,0,0,0,0,0,0,0,0,0,-1,580,1541,0,0
-637,-517,0,0,0,0,0,0,0,0,0,-1,587,1541,0,0
-630,-517,0,0,0,0,0,0,0,0,0,-1,594,1541,0,0
-623,-517,0,0,0,0,0,0,0,0,0,-1,601,1541,0,0
-616,-517,0,0,0,0,0,0,0,0,0,-1,608,1541,0,0
-609,-517,0,0,0,0,0,0,0,0,0,-1,615,1541,0,0
-602,-517,0,0,0,0,0,0,0,0,0,-1,622,1541,0,0
-595,-517,0,0,0,0,0,0,0,0,0,-1,629,1541,0,0
-588,-517,0,0,0,0,0,0,0,0,0,-1,636,1541,0,0
-581,-517,0,0,0,0,0,0,0,0,0,-1,643,1541,0,0
-574,-517,0,0,0,0,0,0,0,0,0,-1,650,1541,0,0
-567,-517,0,0,0,0,0,0,0,0,0,-1,657,1541,0,0
-560,-517,0,0,0,0,0,0,0,0,0,-1,664,1541,0,0
-553,-517,0,0,0,0,0,0,0,0,0,-1,671,1541,0,0
-546,-517,0,0,0,0,0,0,0,0,0,-1,678,1541,0,0
-539,-517,0,0,0,0,0,0,0,0,0,-1,685,1541,0,0
-532,-517,0,0,0,0,0,0,0,0,0,-1,692,1541,0,0
-525,-517,-3.62708,3.76343,0,0,0,0,0,0,0,-1,699,1541,-3.62707,-3.76339
-518,-517,-2.71826,4.89087,0,0,0,0,0,0,0,-1,706,1541,-2.71826,-4.89084
-511,-517,-2.72321,2.45251,0,0,0,0,0,0,0,-1,713,1541,-2.72323,-2.45249
-504,-517,-0.883362,4.79858,0,0,0,0,0,0,0,-1,720,1541,-0.88337,-4.79854
-497,-517,-1.92352,6.87708,0,0,0,0,0,0,0,-1,727,1541,-1.92353,-6.87706
-490,-517,-0.820251,8.51855,0,0,0,0,0,0,0,-1,734,1541,-0.82024,-8.51853
-483,-517,-0.795959,8.5105,0.0079982,0.0216924,0.00676981,0.024474,0.00521653,1.18093,0.0148851,0.0416146,741,1541,-0.795931,-8.51053
-476,-517,-0.947632,8.57617,0.00212032,0.0172516,0.00449036,0.0184838,0.000888109,1.30298,0.0120374,0.0357963,748,1541,-0.947626,-8.57616
-469,-517,-1.16028,8.9386,-0.00201939,0.0137669,0.00323227,0.0144031,-0.00265556,1.37646,0.0105987,0.0158433,755,1541,-1.16028,-8.93857
-462,-517,-1.25043,9.24805,-0.00304947,0.0113913,0.00271928,0.0118864,-0.00354455,1.39071,0.00933293,0.016085,762,1541,-1.25041,-9.248
-455,-517,-1.26239,9.60229,-0.0026366,0.00979267,0.002488,0.0102722,-0.00311613,1.38039,0.00808944,0.0135631,769,1541,-1.2624,-9.60234
-448,-517,-1.26221,9.95605,-0.00141381,0.00841162,0.00257373,0.00904498,-0.00204716,1.32951,0.00681563,0.013613,776,1541,-1.2622,-9.95606
-441,-517,-1.28833,10.2572,-0.000185907,0.00698857,0.00253126,0.00779172,-0.000989061,1.26355,0.0055536,0.0120087,783,1541,-1.28835,-10.2572
-434,-517,-1.28699,10.5497,0.000913467,0.0054332,0.00248954,0.00653559,-0.000188925,1.15394,0.00442138,0.0140438,790,1541,-1.28699,-10.5497
-427,-517,-1.27893,10.8712,0.00201768,0.00391878,0.00233038,0.00548501,0.000451448,0.979046,0.00351587,0.0132008,797,1541,-1.2789,-10.8712
-420,-517,-1.28278,11.2217,0.00289609,0.00248608,0.00197146,0.00467317,0.000708997,0.733592,0.00290807,0.0194368,804,1541,-1.28279,-11.2216
-413,-517,-1.29706,11.4958,0.00357707,0.00144039,0.00166579,0.00448767,0.000529787,0.500265,0.00283175,0.0105647,811,1541,-1.29709,-11.4958
-406,-517,-1.30835,11.8076,0.00410431,0.00092803,0.00145579,0.00467059,0.000361755,0.370972,0.00300042,0.010649,818,1541,-1.30833,-11.8076
-399,-517,-1.29346,12.1367,0.00454597,0.00126217,0.00144672,0.00509241,0.00071573,0.361144,0.0031833,0.0103716,825,1541,-1.29345,-12.1367
-392,-517,-1.27008,12.4644,0.0050683,0.00242247,0.00167896,0.00588291,0.00160786,0.451727,0.00351093,0.0127193,832,1541,-1.27006,-12.4643
-385,-517,-1.21667,12.9388,0.00615725,0.00458142,0.0025787,0.00806572,0.00267295,0.637129,0.00474418,0.0240148,839,1541,-1.21665,-12.9388
-378,-517,-1.1463,13.4824,0,0,0,0,0,0,0,-1,846,1541,-1.14632,-13.4825
-371,-517,-0.639954,12.4957,0,0,0,0,0,0,0,-1,853,1541,-0.639955,-12.4958
-364,-517,-1.26245,12.6289,0,0,0,0,0,0,0,-1,860,1541,-1.26243,-12.6289
-357,-517,-1.23889,12.979,0,0,0,0,0,0,0,-1,867,1541,-1.23891,-12.979
-350,-517,0.722412,10.0829,0,0,0,0,0,0,0,-1,874,1541,0.722399,-10.0828
-343,-517,-2.56708,6.12415,0,0,0,0,0,0,0,-1,881,1541,-2.56708,-6.12418
-336,-517,-1.68445,14.682,0,0,0,0,0,0,0,-1,888,1541,-1.68444,-14.682
-329,-517,-1.24451,14.97,0,0,0,0,0,0,0,-1,895,1541,-1.24454,-14.9699
-322,-517,-0.804626,15.2579,0,0,0,0,0,0,0,-1,902,1541,-0.804628,-15.2579
-315,-517,-0.987976,7.29749,0,0,0,0,0,0,0,-1,909,1541,-0.987993,-7.29743
-308,-517,3.27911,17.621,0,0,0,0,0,0,0,-1,916,1541,3.27913,-17.621
-301,-517,-1.69141,8.87488,0,0,0,0,0,0,0,-1,923,1541,-1.69141,-8.87485
-294,-517,-1.72583,9.92566,0,0,0,0,0,0,0,-1,930,1541,-1.72584,-9.92571
-287,-517,-3.09045,12.1472,0,0,0,0,0,0,0,-1,937,1541,-3.09043,-12.1472
-280,-517,0,0,0,0,0,0,0,0,0,-1,944,1541,0,0
-273,-517,0,0,0,0,0,0,0,0,0,-1,951,1541,0,0
-266,-517,0,0,0,0,0,0,0,0,0,-1,958,1541,0,0
-259,-517,0,0,0,0,0,0,0,0,0,-1,965,1541,0,0
-252,-517,0,0,0,0,0,0,0,0,0,-1,972,1541,0,0
-245,-517,0,0,0,0,0,0,0,0,0,-1,979,1541,0,0
-238,-517,0,0,0,0,0,0,0,0,0,-1,986,1541,0,0
-231,-517,0,0,0,0,0,0,0,0,0,-1,993,1541,0,0
-224,-517,0,0,0,0,0,0,0,0,0,-1,1000,1541,0,0
-217,-517,0,0,0,0,0,0,0,0,0,-1,1007,1541,0,0
-210,-517,0,0,0,0,0,0,0,0,0,-1,1014,1541,0,0
-203,-517,0,0,0,0,0,0,0,0,0,-1,1021,1541,0,0
-196,-517,0,0,0,0,0,0,0,0,0,-1,1028,1541,0,0
-189,-517,0,0,0,0,0,0,0,0,0,-1,1035,1541,0,0
-182,-517,0,0,0,0,0,0,0,0,0,-1,1042,1541,0,0
-175,-517,0,0,0,0,0,0,0,0,0,-1,1049,1541,0,0
-168,-517,0,0,0,0,0,0,0,0,0,-1,1056,1541,0,0
-161,-517,0,0,0,0,0,0,0,0,0,-1,1063,1541,0,0
-154,-517,0,0,0,0,0,0,0,0,0,-1,1070,1541,0,0
-147,-517,0,0,0,0,0,0,0,0,0,-1,1077,1541,0,0
-140,-517,0,0,0,0,0,0,0,0,0,-1,1084,1541,0,0
-133,-517,0,0,0,0,0,0,0,0,0,-1,1091,1541,0,0
-126,-517,0,0,0,0,0,0,0,0,0,-1,1098,1541,0,0
-119,-517,0,0,0,0,0,0,0,0,0,-1,1105,1541,0,0
-112,-517,0,0,0,0,0,0,0,0,0,-1,1112,1541,0,0
-105,-517,0,0,0,0,0,0,0,0,0,-1,1119,1541,0,0
-98,-517,0,0,0,0,0,0,0,0,0,-1,1126,1541,0,0
-91,-517,0,0,0,0,0,0,0,0,0,-1,1133,1541,0,0
-84,-517,0,0,0,0,0,0,0,0,0,-1,1140,1541,0,0
-77,-517,0,0,0,0,0,0,0,0,0,-1,1147,1541,0,0
-70,-517,0,0,0,0,0,0,0,0,0,-1,1154,1541,0,0
-63,-517,0,0,0,0,0,0,0,0,0,-1,1161,1541,0,0
-56,-517,0,0,0,0,0,0,0,0,0,-1,1168,1541,0,0
-49,-517,0,0,0,0,0,0,0,0,0,-1,1175,1541,0,0
-42,-517,0,0,0,0,0,0,0,0,0,-1,1182,1541,0,0
-35,-517,0,0,0,0,0,0,0,0,0,-1,1189,1541,0,0
-28,-517,0,0,0,0,0,0,0,0,0,-1,1196,1541,0,0
-21,-517,0,0,0,0,0,0,0,0,0,-1,1203,1541,0,0
-14,-517,0,0,0,0,0,0,0,0,0,-1,1210,1541,0,0
-7,-517,0,0,0,0,0,0,0,0,0,-1,1217,1541,0,0
0,-517,0,0,0,0,0,0,0,0,0,-1,1224,1541,0,0
7,-517,0,0,0,0,0,0,0,0,0,-1,1231,1541,0,0
14,-517,0,0,0,0,0,0,0,0,0,-1,1238,1541,0,0
21,-517,0,0,0,0,0,0,0,0,0,-1,1245,1541,0,0
28,-517,0,0,0,0,0,0,0,0,0,-1,1252,1541,0,0
35,-517,0,0,0,0,0,0,0,0,0,-1,1259,1541,0,0
42,-517,0,0,0,0,0,0,0,0,0,-1,1266,1541,0,0
49,-517,0,0,0,0,0,0,0,0,0,-1,1273,1541,0,0
56,-517,0,0,0,0,0,0,0,0,0,-1,1280,1541,0,0
63,-517,0,0,0,0,0,0,0,0,0,-1,1287,1541,0,0
70,-517,0,0,0,0,0,0,0,0,0,-1,1294,1541,0,0
77,-517,0,0,0,0,0,0,0,0,0,-1,1301,1541,0,0
84,-517,0,0,0,0,0,0,0,0,0,-1,1308,1541,0,0
91,-517,0,0,0,0,0,0,0,0,0,-1,1315,1541,0,0
98,-517,0,0,0,0,0,0,0,0,0,-1,1322,1541,0,0
105,-517,0,0,0,0,0,0,0,0,0,-1,1329,1541,0,0
112,-517,0,0,0,0,0,0,0,0,0,-1,1336,1541,0,0
119,-517,0,0,0,0,0,0,0,0,0,-1,1343,1541,0,0
126,-517,0,0,0,0,0,0,0,0,0,-1,1350,1541,0,0
133,-517,0,0,0,0,0,0,0,0,0,-1,1357,1541,0,0
140,-517,0,0,0,0,0,0,0,0,0,-1,1364,1541,0,0
147,-517,0,0,0,0,0,0,0,0,0,-1,1371,1541,0,0
154,-517,0,0,0,0,0,0,0,0,0,-1,1378,1541,0,0
161,-517,0,0,0,0,0,0,0,0,0,-1,1385,1541,0,0
168,-517,0,0,0,0,0,0,0,0,0,-1,1392,1541,0,0
175,-517,0,0,0,0,0,0,0,0,0,-1,1399,1541,0,0
182,-517,0,0,0,0,0,0,0,0,0,-1,1406,1541,0,0
189,-517,0,0,0,0,0,0,0,0,0,-1,1413,1541,0,0
196,-517,0,0,0,0,0,0,0,0,0,-1,1420,1541,0,0
203,-517,0,0,0,0,0,0,0,0,0,-1,1427,1541,0,0
210,-517,0,0,0,0,0,0,0,0,0,-1,1434,1541,0,0
217,-517,0,0,0,0,0,0,0,0,0,-1,1441,1541,0,0
224,-517,0,0,0,0,0,0,0,0,0,-1,1448,1541,0,0
231,-517,0,0,0,0,0,0,0,0,0,-1,1455,1541,0,0
238,-517,0,0,0,0,0,0,0,0,0,-1,1462,1541,0,0
245,-517,0,0,0,0,0,0,0,0,0,-1,1469,1541,0,0
252,-517,0,0,0,0,0,0,0,0,0,-1,1476,1541,0,0
259,-517,0,0,0,0,0,0,0,0,0,-1,1483,1541,0,0
266,-517,0,0,0,0,0,0,0,0,0,-1,1490,1541,0,0
273,-517,0,0,0,0,0,0,0,0,0,-1,1497,1541,0,0
280,-517,0,0,0,0,0,0,0,0,0,-1,1504,1541,0,0
287,-517,0,0,0,0,0,0,0,0,0,-1,1511,1541,0,0
294,-517,0,0,0,0,0,0,0,0,0,-1,1518,1541,0,0
301,-517,0,0,0,0,0,0,0,0,0,-1,1525,1541,0,0
308,-517,0,0,0,0,0,0,0,0,0,-1,1532,1541,0,0
315,-517,0,0,0,0,0,0,0,0,0,-1,1539,1541,0,0
322,-517,0,0,0,0,0,0,0,0,0,-1,1546,1541,0,0
329,-517,0,0,0,0,0,0,0,0,0,-1,1553,1541,0,0
336,-517,0,0,0,0,0,0,0,0,0,-1,1560,1541,0,0
343,-517,0,0,0,0,0,0,0,0,0,-1,1567,1541,0,0
350,-517,0,0,0,0,0,0,0,0,0,-1,1574,1541,0,0
357,-517,0,0,0,0,0,0,0,0,0,-1,1581,1541,0,0
364,-517,0,0,0,0,0,0,0,0,0,-1,1588,1541,0,0
371,-517,0,0,0,0,0,0,0,0,0,-1,1595,1541,0,0
378,-517,0,0,0,0,0,0,0,0,0,-1,1602,1541,0,0
385,-517,0,0,0,0,0,0,0,0,0,-1,1609,1541,0,0
392,-517,0,0,0,0,0,0,0,0,0,-1,1616,1541,0,0
399,-517,0,0,0,0,0,0,0,0,0,-1,1623,1541,0,0
406,-517,13.1395,7.01978,0,0,0,0,0,0,0,-1,1630,1541,13.1396,-7.01981
413,-517,12.2695,6.3324,0,0,0,0,0,0,0,-1,1637,1541,12.2696,-6.33243
420,-517,12.4789,6.20337,0,0,0,0,0,0,0,-1,1644,1541,12.4789,-6.20333
427,-517,11.647,4.66516,0,0,0,0,0,0,0,-1,1651,1541,11.647,-4.66519
434,-517,12.3719,3.92773,0,0,0,0,0,0,0,-1,1658,1541,12.3719,-3.92776
441,-517,13.146,3.14124,0,0,0,0,0,0,0,-1,1665,1541,13.146,-3.14121
448,-517,13.8861,2.36682,0,0,0,0,0,0,0,-1,1672,1541,13.8861,-2.36684
455,-517,13.6012,4.06335,0,0,0,0,0,0,0,-1,1679,1541,13.6012,-4.06335
462,-517,14.8956,7.0752,0,0,0,0,0,0,0,-1,1686,1541,14.8956,-7.07525
469,-517,13.6292,6.87744,0,0,0,0,0,0,0,-1,1693,1541,13.6292,-6.87739
476,-517,13.1489,8.24768,0,0,0,0,0,0,0,-1,1700,1541,13.1489,-8.2477
483,-517,12.7778,10.7142,0,0,0,0,0,0,0,-1,1707,1541,12.7779,-10.7143
490,-517,13.697,14.7542,0,0,0,0,0,0,0,-1,1714,1541,13.6971,-14.7541
497,-517,13.2498,14.6255,-0.0651245,-0.0144232,0.0309222,0.000211585,-0.0797593,1.12875,0.0532435,0.0436236,1721,1541,13.2497,-14.6255
504,-517,12.7317,14.48,-0.0555587,-0.0112655,0.0251395,9.11541e-05,-0.0669153,1.14649,0.0446406,0.0399899,1728,1541,12.7317,-14.4799
511,-517,12.3466,14.5709,-0.0455969,-0.00860358,0.0205159,0.000522776,-0.0547232,1.15224,0.0366576,0.0483077,1735,1541,12.3466,-14.5709
518,-517,12.0233,14.1447,-0.0362904,-0.00647294,0.0163259,0.000727301,-0.0434906,1.15543,0.0292392,0.0353029,1742,1541,12.0233,-14.1447
525,-517,12.0482,13.7583,-0.027934,-0.00454656,0.0125526,0.00091519,-0.0333958,1.16039,0.0225751,0.013737,1749,1541,12.0482,-13.7583
532,-517,12.126,13.4336,-0.0206247,-0.00338566,0.00942604,0.00076769,-0.0247781,1.15577,0.0167805,0.0102718,1756,1541,12.126,-13.4335
539,-517,12.1328,13.1482,-0.0145047,-0.00243188,0.00680081,0.000625076,-0.0175616,1.14836,0.0119216,0.0116388,1763,1541,12.1329,-13.1482
546,-517,12.1127,12.887,-0.00944455,-0.00152187,0.00455561,0.000553823,-0.0115202,1.14327,0.00787127,0.0129061,1770,1541,12.1126,-12.887
553,-517,12.0983,12.6158,-0.00530082,-0.000889343,0.0028132,0.000479748,-0.00666991,1.11787,0.00461484,0.0160752,1777,1541,12.0983,-12.6159
560,-517,12.0735,12.3271,-0.00240304,-7.47916e-06,0.0013379,0.000590472,-0.00300099,1.1505,0.00222377,0.0152517,1784,1541,12.0735,-12.3271
567,-517,12.0929,12.0541,-0.000318564,0.000574548,0.00019907,0.00061691,-0.000360927,1.36112,0.000570966,0.0126746,1791,1541,12.0928,-12.0541
574,-517,12.1036,11.7396,0.000600544,0.00122983,-0.000519653,0.00152268,0.000307701,-1.05762,0.000929681,0.0136304,1798,1541,12.1037,-11.7396
581,-517,12.0848,11.4463,0.00105835,0.00183175,-0.0010475,0.00256165,0.000328458,-0.962221,0.00160949,0.0140103,1805,1541,12.0849,-11.4463
588,-517,12.0924,11.1604,0.00118765,0.00233671,-0.00140658,0.00328157,0.00024279,-0.979288,0.00211144,0.0149003,1812,1541,12.0924,-11.1604
595,-517,12.1168,10.8772,0.00116731,0.0028165,-0.00180626,0.00397748,6.32904e-06,-0.999529,0.00264955,0.0254903,1819,1541,12.1168,-10.8772
602,-517,11.9703,10.448,0,0,0,0,0,0,0,-1,1826,1541,11.9704,-10.4479
609,-517,12.91,9.94836,0,0,0,0,0,0,0,-1,1833,1541,12.91,-9.94837
616,-517,12.2909,9.89001,0,0,0,0,0,0,0,-1,1840,1541,12.2909,-9.89004
623,-517,12.7413,8.25098,0,0,0,0,0,0,0,-1,1847,1541,12.7413,-8.25096
630,-517,11.7035,7.47815,0,0,0,0,0,0,0,-1,1854,1541,11.7035,-7.47812
637,-517,11.5172,5.79822,0,0,0,0,0,0,0,-1,1861,1541,11.5173,-5.79825
644,-517,11.4232,3.30579,0,0,0,0,0,0,0,-1,1868,1541,11.4232,-3.30574
651,-517,0,0,0,0,0,0,0,0,0,-1,1875,1541,0,0
658,-517,0,0,0,0,0,0,0,0,0,-1,1882,1541,0,0
665,-517,0,0,0,0,0,0,0,0,0,-1,1889,1541,0,0
672,-517,0,0,0,0,0,0,0,0,0,-1,1896,1541,0,0
679,-517,0,0,0,0,0,0,0,0,0,-1,1903,1541,0,0
686,-517,0,0,0,0,0,0,0,0,0,-1,1910,1541,0,0
693,-517,0,0,0,0,0,0,0,0,0,-1,1917,1541,0,0
700,-517,0,0,0,0,0,0,0,0,0,-1,1924,1541,0,0
707,-517,0,0,0,0,0,0,0,0,0,-1,1931,1541,0,0
714,-517,0,0,0,0,0,0,0,0,0,-1,1938,1541,0,0
721,-517,0,0,0,0,0,0,0,0,0,-1,1945,1541,0,0
728,-517,0,0,0,0,0,0,0,0,0,-1,1952,1541,0,0
735,-517,0,0,0,0,0,0,0,0,0,-1,1959,1541,0,0
742,-517,0,0,0,0,0,0,0,0,0,-1,1966,1541,0,0
749,-517,0,0,0,0,0,0,0,0,0,-1,1973,1541,0,0
756,-517,0,0,0,0,0,0,0,0,0,-1,1980,1541,0,0
763,-517,0,0,0,0,0,0,0,0,0,-1,1987,1541,0,0
770,-517,0,0,0,0,0,0,0,0,0,-1,1994,1541,0,0
777,-517,0,0,0,0,0,0,0,0,0,-1,2001,1541,0,0
784,-517,0,0,0,0,0,0,0,0,0,-1,2008,1541,0,0
791,-517,0,0,0,0,0,0,0,0,0,-1,2015,1541,0,0
798,-517,0,0,0,0,0,0,0,0,0,-1,2022,1541,0,0
805,-517,0,0,0,0,0,0,0,0,0,-1,2029,1541,0,0
812,-517,0,0,0,0,0,0,0,0,0,-1,2036,1541,0,0
-700,-524,0,0,0,0,0,0,0,0,0,-1,524,1548,0,0
-693,-524,0,0,0,0,0,0,0,0,0,-1,531,1548,0,0
-686,-524,0,0,0,0,0,0,0,0,0,-1,538,1548,0,0
-679,-524,0,0,0,0,0,0,0,0,0,-1,545,1548,0,0
-672,-524,0,0,0,0,0,0,0,0,0,-1,552,1548,0,0
-665,-524,0,0,0,0,0,0,0,0,0,-1,559,1548,0,0
-658,-524,0,0,0,0,0,0,0,0,0,-1,566,1548,0,0
-651,-524,0,0,0,0,0,0,0,0,0,-1,573,1548,0,0
-644,-524,0,0,0,0,0,0,0,0,0,-1,580,1548,0,0
-637,-524,0,0,0,0,0,0,0,0,0,-1,587,1548,0,0
-630,-524,0,0,0,0,0,0,0,0,0,-1,594,1548,0,0
-623,-524,0,0,0,0,0,0,0,0,0,-1,601,1548,0,0
-616,-524,0,0,0,0,0,0,0,0,0,-1,608,1548,0,0
-609,-524,0,0,0,0,0,0,0,0,0,-1,615,1548,0,0
-602,-524,0,0,0,0,0,0,0,0,0,-1,622,1548,0,0
-595,-524,0,0,0,0,0,0,0,0,0,-1,629,1548,0,0
-588,-524,0,0,0,0,0,0,0,0,0,-1,636,1548,0,0
-581,-524,0,0,0,0,0,0,0,0,0,-1,643,1548,0,0
-574,-524,0,0,0,0,0,0,0,0,0,-1,650,1548,0,0
-567,-524,0,0,0,0,0,0,0,0,0,-1,657,1548,0,0
-560,-524,0,0,0,0,0,0,0,0,0,-1,664,1548,0,0
-553,-524,0,0,0,0,0,0,0,0,0,-1,671,1548,0,0
-546,-524,0,0,0,0,0,0,0,0,0,-1,678,1548,0,0
-539,-524,0,0,0,0,0,0,0,0,0,-1,685,1548,0,0
-532,-524,0,0,0,0,0,0,0,0,0,-1,692,1548,0,0
-525,-524,-0.215515,3.97131,0,0,0,0,0,0,0,-1,699,1548,-0.215501,-3.97136
-518,-524,-0.806274,4.35632,0,0,0,0,0,0,0,-1,706,1548,-0.806259,-4.35633
-511,-524,-1.08301,4.29004,0,0,0,0,0,0,0,-1,713,1548,-1.08301,-4.29006
-504,-524,-1.28821,3.98145,0,0,0,0,0,0,0,-1,720,1548,-1.28822,-3.98151
-497,-524,-1.87958,8.23486,0,0,0,0,0,0,0,-1,727,1548,-1.8796,-8.23486
-490,-524,-0.348511,8.43994,0,0,0,0,0,0,0,-1,734,1548,-0.348493,-8.43991
-483,-524,-0.490845,8.49292,0.00706043,0.0307946,0.00916511,0.0339218,0.00393329,1.24198,0.0214241,0.0474675,741,1548,-0.49087,-8.49296
-476,-524,-0.763367,8.68201,0.00155934,0.0255141,0.00703615,0.0274279,-0.000354465,1.30522,0.0184046,0.0457687,748,1548,-0.763346,-8.68205
-469,-524,-0.884033,9.04993,-0.00239784,0.0210743,0.00575128,0.0224078,-0.0037313,1.34297,0.016325,0.0337791,755,1548,-0.88405,-9.0499
-462,-524,-0.884521,9.35303,-0.00343801,0.017759,0.00501617,0.0188862,-0.00456513,1.34977,0.0143565,0.0261062,762,1548,-0.88452,-9.35301
-455,-524,-0.960327,9.6283,-0.00294137,0.0153226,0.00458882,0.0164107,-0.00402949,1.33797,0.012502,0.0186592,769,1548,-0.960337,-9.62831
-448,-524,-0.947205,9.95337,-0.00168054,0.0130226,0.00440911,0.0142434,-0.00290136,1.30068,0.010596,0.0130572,776,1548,-0.947192,-9.95333
-441,-524,-0.96405,10.2456,-0.000500537,0.0107142,0.00405656,0.0120277,-0.00181403,1.25766,0.00868651,0.0112101,783,1548,-0.964074,-10.2456
-434,-524,-0.957764,10.5415,0.000499265,0.00841562,0.0037178,0.00988784,-0.000972956,1.19375,0.00693899,0.0130077,790,1548,-0.957791,-10.5415
-427,-524,-0.953247,10.875,0.00148073,0.00629426,0.00329387,0.00796696,-0.000191974,1.10091,0.00537644,0.0126808,797,1548,-0.953245,-10.875
-420,-524,-0.962463,11.2084,0.00221586,0.00436865,0.00268013,0.00618046,0.000404054,0.97635,0.00399244,0.0104591,804,1548,-0.962477,-11.2084
-413,-524,-0.974121,11.5259,0.00273525,0.00296592,0.00215372,0.00500739,0.000693776,0.812148,0.00313271,0.0103475,811,1548,-0.974111,-11.5259
-406,-524,-0.980103,11.8344,0.00310551,0.00198287,0.00176134,0.00439281,0.000695569,0.631142,0.00272642,0.01118,818,1548,-0.980081,-11.8343
-399,-524,-0.976807,12.1433,0.00339756,0.00186587,0.00156012,0.00436967,0.000893762,0.557232,0.00266561,0.00929441,825,1548,-0.976833,-12.1433
-392,-524,-0.964539,12.4467,0.00379499,0.00265176,0.00161518,0.00493672,0.00151004,0.615325,0.00292094,0.0101227,832,1548,-0.964528,-12.4467
-385,-524,-0.973938,12.7769,0.00467146,0.00439307,0.00225625,0.00679281,0.00227172,0.754592,0.00399286,0.0127896,839,1548,-0.973949,-12.7769
-378,-524,-0.929626,13.2338,0.00554511,0.00537695,0.00256449,0.0080269,0.00289516,0.769011,0.00469391,0.0307539,846,1548,-0.929628,-13.2337
-371,-524,-0.858887,13.6737,0,0,0,0,0,0,0,-1,853,1548,-0.858879,-13.6737
-364,-524,-0.680969,13.8036,0,0,0,0,0,0,0,-1,860,1548,-0.680996,-13.8035
-357,-524,-1.00153,13.0575,0,0,0,0,0,0,0,-1,867,1548,-1.00154,-13.0575
-350,-524,-1.18591,11.6433,0,0,0,0,0,0,0,-1,874,1548,-1.18592,-11.6433
-343,-524,-1.2887,6.94836,0,0,0,0,0,0,0,-1,881,1548,-1.28868,-6.94831
-336,-524,-1.2804,14.3673,0,0,0,0,0,0,0,-1,888,1548,-1.28038,-14.3672
-329,-524,-0.890564,14.5449,0,0,0,0,0,0,0,-1,895,1548,-0.890581,-14.5449
-322,-524,4.08545,16.8832,0,0,0,0,0,0,0,-1,902,1548,4.08546,-16.8832
-315,-524,2.60687,16.2994,0,0,0,0,0,0,0,-1,909,1548,2.60687,-16.2994
-308,-524,3.4917,15.3413,0,0,0,0,0,0,0,-1,916,1548,3.4917,-15.3413
-301,-524,2.72394,17.7618,0,0,0,0,0,0,0,-1,923,1548,2.72396,-17.7619
-294,-524,-1.52515,9.05408,0,0,0,0,0,0,0,-1,930,1548,-1.52512,-9.05411
-287,-524,-0.962219,10.3199,0,0,0,0,0,0,0,-1,937,1548,-0.962241,-10.32
-280,-524,-1.36255,10.3859,0,0,0,0,0,0,0,-1,944,1548,-1.36253,-10.3859
-273,-524,0,0,0,0,0,0,0,0,0,-1,951,1548,0,0
-266,-524,0,0,0,0,0,0,0,0,0,-1,958,1548,0,0
-259,-524,0,0,0,0,0,0,0,0,0,-1,965,1548,0,0
-252,-524,0,0,0,0,0,0,0,0,0,-1,972,1548,0,0
-245,-524,0,0,0,0,0,0,0,0,0,-1,979,1548,0,0
-238,-524,0,0,0,0,0,0,0,0,0,-1,986,1548,0,0
-231,-524,0,0,0,0,0,0,0,0,0,-1,993,1548,0,0
-224,-524,0,0,0,0,0,0,0,0,0,-1,1000,1548,0,0
-217,-524,0,0,0,0,0,0,0,0,0,-1,1007,1548,0,0
-210,-524,0,0,0,0,0,0,0,0,0,-1,1014,1548,0,0
-203,-524,0,0,0,0,0,0,0,0,0,-1,1021,1548,0,0
-196,-524,0,0,0,0,0,0,0,0,0,-1,1028,1548,0,0
-189,-524,0,0,0,0,0,0,0,0,0,-1,1035,1548,0,0
-182,-524,0,0,0,0,0,0,0,0,0,-1,1042,1548,0,0
-175,-524,0,0,0,0,0,0,0,0,0,-1,1049,1548,0,0
-168,-524,0,0,0,0,0,0,0,0,0,-1,1056,1548,0,0
-161,-524,0,0,0,0,0,0,0,0,0,-1,1063,1548,0,0
-154,-524,0,0,0,0,0,0,0,0,0,-1,1070,1548,0,0
-147,-524,0,0,0,0,0,0,0,0,0,-1,1077,1548,0,0
-140,-524,0,0,0,0,0,0,0,0,0,-1,1084,1548,0,0
-133,-524,0,0,0,0,0,0,0,0,0,-1,1091,1548,0,0
-126,-524,0,0,0,0,0,0,0,0,0,-1,1098,1548,0,0
-119,-524,0,0,0,0,0,0,0,0,0,-1,1105,1548,0,0
-112,-524,0,0,0,0,0,0,0,0,0,-1,1112,1548,0,0
-105,-524,0,0,0,0,0,0,0,0,0,-1,1119,1548,0,0
-98,-524,0,0,0,0,0,0,0,0,0,-1,1126,1548,0,0
-91,-524,0,0,0,0,0,0,0,0,0,-1,1133,1548,0,0
-84,-524,0,0,0,0,0,0,0,0,0,-1,1140,1548,0,0
-77,-524,0,0,0,0,0,0,0,0,0,-1,1147,1548,0,0
-70,-524,0,0,0,0,0,0,0,0,0,-1,1154,1548,0,0
-63,-524,0,0,0,0,0,0,0,0,0,-1,1161,1548,0,0
-56,-524,0,0,0,0,0,0,0,0,0,-1,1168,1548,0,0
-49,-524,0,0,0,0,0,0,0,0,0,-1,1175,1548,0,0
-42,-524,0,0,0,0,0,0,0,0,0,-1,1182,1548,0,0
-35,-524,0,0,0,0,0,0,0,0,0,-1,1189,1548,0,0
-28,-524,0,0,0,0,0,0,0,0,0,-1,1196,1548,0,0
-21,-524,0,0,0,0,0,0,0,0,0,-1,1203,1548,0,0
-14,-524,0,0,0,0,0,0,0,0,0,-1,1210,1548,0,0
-7,-524,0,0,0,0,0,0,0,0,0,-1,1217,1548,0,0
0,-524,0,0,0,0,0,0,0,0,0,-1,1224,1548,0,0
7,-524,0,0,0,0,0,0,0,0,0,-1,1231,1548,0,0
14,-524,0,0,0,0,0,0,0,0,0,-1,1238,1548,0,0
21,-524,0,0,0,0,0,0,0,0,0,-1,1245,1548,0,0
28,-524,0,0,0,0,0,0,0,0,0,-1,1252,1548,0,0
35,-524,0,0,0,0,0,0,0,0,0,-1,1259,1548,0,0
42,-524,0,0,0,0,0,0,0,0,0,-1,1266,1548,0,0
49,-524,0,0,0,0,0,0,0,0,0,-1,1273,1548,0,0
56,-524,0,0,0,0,0,0,0,0,0,-1,1280,1548,0,0
63,-524,0,0,0,0,0,0,0,0,0,-1,1287,1548,0,0
70,-524,0,0,0,0,0,0,0,0,0,-1,1294,1548,0,0
77,-524,0,0,0,0,0,0,0,0,0,-1,1301,1548,0,0
84,-524,0,0,0,0,0,0,0,0,0,-1,1308,1548,0,0
91,-524,0,0,0,0,0,0,0,0,0,-1,1315,1548,0,0
98,-524,0,0,0,0,0,0,0,0,0,-1,1322,1548,0,0
105,-524,0,0,0,0,0,0,0,0,0,-1,1329,1548,0,0
112,-524,0,0,0,0,0,0,0,0,0,-1,1336,1548,0,0
119,-524,0,0,0,0,0,0,0,0,0,-1,1343,1548,0,0
126,-524,0,0,0,0,0,0,0,0,0,-1,1350,1548,0,0
133,-524,0,0,0,0,0,0,0,0,0,-1,1357,1548,0,0
140,-524,0,0,0,0,0,0,0,0,0,-1,1364,1548,0,0
147,-524,0,0,0,0,0,0,0,0,0,-1,1371,1548,0,0
154,-524,0,0,0,0,0,0,0,0,0,-1,1378,1548,0,0
161,-524,0,0,0,0,0,0,0,0,0,-1,1385,1548,0,0
168,-524,0,0,0,0,0,0,0,0,0,-1,1392,1548,0,0
175,-524,0,0,0,0,0,0,0,0,0,-1,1399,1548,0,0
182,-524,0,0,0,0,0,0,0,0,0,-1,1406,1548,0,0
189,-524,0,0,0,0,0,0,0,0,0,-1,1413,1548,0,0
196,-524,0,0,0,0,0,0,0,0,0,-1,1420,1548,0,0
203,-524,0,0,0,0,0,0,0,0,0,-1,1427,1548,0,0
210,-524,0,0,0,0,0,0,0,0,0,-1,1434,1548,0,0
217,-524,0,0,0,0,0,0,0,0,0,-1,1441,1548,0,0
224,-524,0,0,0,0,0,0,0,0,0,-1,1448,1548,0,0
231,-524,0,0,0,0,0,0,0,0,0,-1,1455,1548,0,0
238,-524,0,0,0,0,0,0,0,0,0,-1,1462,1548,0,0
245,-524,0,0,0,0,0,0,0,0,0,-1,1469,1548,0,0
252,-524,0,0,0,0,0,0,0,0,0,-1,1476,1548,0,0
259,-524,0,0,0,0,0,0,0,0,0,-1,1483,1548,0,0
266,-524,0,0,0,0,0,0,0,0,0,-1,1490,1548,0,0
273,-524,0,0,0,0,0,0,0,0,0,-1,1497,1548,0,0
280,-524,0,0,0,0,0,0,0,0,0,-1,1504,1548,0,0
287,-524,0,0,0,0,0,0,0,0,0,-1,1511,1548,0,0
294,-524,0,0,0,0,0,0,0,0,0,-1,1518,1548,0,0
301,-524,0,0,0,0,0,0,0,0,0,-1,1525,1548,0,0
308,-524,0,0,0,0,0,0,0,0,0,-1,1532,1548,0,0
315,-524,0,0,0,0,0,0,0,0,0,-1,1539,1548,0,0
322,-524,0,0,0,0,0,0,0,0,0,-1,1546,1548,0,0
329,-524,0,0,0,0,0,0,0,0,0,-1,1553,1548,0,0
336,-524,0,0,0,0,0,0,0,0,0,-1,1560,1548,0,0
343,-524,0,0,0,0,0,0,0,0,0,-1,1567,1548,0,0
350,-524,0,0,0,0,0,0,0,0,0,-1,1574,1548,0,0
357,-524,0,0,0,0,0,0,0,0,0,-1,1581,1548,0,0
364,-524,0,0,0,0,0,0,0,0,0,-1,1588,1548,0,0
371,-524,0,0,0,0,0,0,0,0,0,-1,1595,1548,0,0
378,-524,0,0,0,0,0,0,0,0,0,-1,1602,1548,0,0
385,-524,0,0,0,0,0,0,0,0,0,-1,1609,1548,0,0
392,-524,0,0,0,0,0,0,0,0,0,-1,1616,1548,0,0
399,-524,8.81848,5.05774,0,0,0,0,0,0,0,-1,1623,1548,8.81843,-5.05769
406,-524,8.64294,6.06799,0,0,0,0,0,0,0,-1,1630,1548,8.6429,-6.06805
413,-524,11.677,6.41858,0,0,0,0,0,0,0,-1,1637,1548,11.677,-6.41864
420,-524,11.4913,6.36401,0,0,0,0,0,0,0,-1,1644,1548,11.4913,-6.36402
427,-524,7.68335,6.17249,0,0,0,0,0,0,0,-1,1651,1548,7.68341,-6.17245
434,-524,10.432,11.6801,0,0,0,0,0,0,0,-1,1658,1548,10.432,-11.68
441,-524,8.78552,4.12305,0,0,0,0,0,0,0,-1,1665,1548,8.78553,-4.12301
448,-524,14.1854,4.78674,0,0,0,0,0,0,0,-1,1672,1548,14.1854,-4.78674
455,-524,12.4784,3.65576,0,0,0,0,0,0,0,-1,1679,1548,12.4784,-3.65572
462,-524,14.7551,9.29395,0,0,0,0,0,0,0,-1,1686,1548,14.7552,-9.29397
469,-524,13.0463,8.39771,0,0,0,0,0,0,0,-1,1693,1548,13.0462,-8.39775
476,-524,13.632,12.3571,0,0,0,0,0,0,0,-1,1700,1548,13.632,-12.357
483,-524,12.538,12.2845,0,0,0,0,0,0,0,-1,1707,1548,12.538,-12.2845
490,-524,12.6531,14.4175,0,0,0,0,0,0,0,-1,1714,1548,12.653,-14.4174
497,-524,11.7346,14.8781,0,0,0,0,0,0,0,-1,1721,1548,11.7347,-14.8781
504,-524,11.8059,14.4995,-0.0386238,-0.0102427,0.0192486,-0.000519255,-0.0483473,1.10304,0.0320599,0.0236766,1728,1548,11.806,-14.4995
511,-524,11.7532,14.3378,-0.0318292,-0.00770051,0.0156351,-1.63168e-05,-0.0395134,1.114,0.0263368,0.0217944,1735,1548,11.7532,-14.3378
518,-524,11.8193,13.9965,-0.0253941,-0.00564975,0.0123623,0.000298519,-0.0313424,1.12233,0.0209951,0.0169285,1742,1548,11.8193,-13.9964
525,-524,11.8239,13.7437,-0.0195051,-0.00375868,0.00938572,0.0006188,-0.0238825,1.13439,0.0161319,0.013659,1749,1548,11.8239,-13.7436
532,-524,11.8387,13.4502,-0.0142664,-0.00264291,0.00693982,0.000597272,-0.0175066,1.13398,0.0118752,0.00978323,1756,1548,11.8387,-13.4502
539,-524,11.8353,13.16,-0.00982336,-0.00175005,0.0048941,0.000557336,-0.0121307,1.13024,0.0082792,0.010143,1763,1548,11.8354,-13.16
546,-524,11.8136,12.9113,-0.00606008,-0.000897234,0.0031291,0.000577823,-0.00753514,1.13029,0.00522669,0.0131907,1770,1548,11.8135,-12.9113
553,-524,11.8192,12.629,-0.00297022,-0.000311248,0.00177642,0.000578097,-0.00385956,1.10664,0.00278581,0.0218738,1777,1548,11.8192,-12.629
560,-524,11.8027,12.2969,-0.00083753,0.000441944,0.000627338,0.000698207,-0.00109379,1.18299,0.00104298,0.0281062,1784,1548,11.8027,-12.2969
567,-524,11.7938,12.0492,0.000437153,0.000964692,-0.000182925,0.00102191,0.000379931,-1.26762,0.000596434,0.0166752,1791,1548,11.7939,-12.0493
574,-524,11.8138,11.7452,0.000671078,0.00169955,-0.000667122,0.00202763,0.000343002,-1.11375,0.00125317,0.0125906,1798,1548,11.8138,-11.7452
581,-524,11.8196,11.4486,0.000954834,0.00229855,-0.00113304,0.00294395,0.000309434,-1.05302,0.00186805,0.013337,1805,1548,11.8196,-11.4486
588,-524,11.8519,11.146,0.000909154,0.0027919,-0.00138536,0.00352546,0.000175594,-1.08382,0.00229401,0.016503,1812,1548,11.8519,-11.146
595,-524,11.8519,10.8683,0.000699743,0.00338732,-0.00181184,0.00429931,-0.000212241,-1.10447,0.00293951,0.0219827,1819,1548,11.852,-10.8683
602,-524,12.0604,10.405,0,0,0,0,0,0,0,-1,1826,1548,12.0605,-10.405
609,-524,13.3553,9.4375,0,0,0,0,0,0,0,-1,1833,1548,13.3554,-9.43754
616,-524,11.6941,8.65515,0,0,0,0,0,0,0,-1,1840,1548,11.6941,-8.65514
623,-524,9.38452,5.15356,0,0,0,0,0,0,0,-1,1847,1548,9.38456,-5.15359
630,-524,11.0541,3.57434,0,0,0,0,0,0,0,-1,1854,1548,11.0541,-3.57438
637,-524,11.6067,3.20728,0,0,0,0,0,0,0,-1,1861,1548,11.6067,-3.20724
644,-524,12.2134,0.727173,0,0,0,0,0,0,0,-1,1868,1548,12.2134,-0.727222
651,-524,0,0,0,0,0,0,0,0,0,-1,1875,1548,0,0
658,-524,0,0,0,0,0,0,0,0,0,-1,1882,1548,0,0
665,-524,0,0,0,0,0,0,0,0,0,-1,1889,1548,0,0
672,-524,0,0,0,0,0,0,0,0,0,-1,1896,1548,0,0
679,-524,0,0,0,0,0,0,0,0,0,-1,1903,1548,0,0
686,-524,0,0,0,0,0,0,0,0,0,-1,1910,1548,0,0
693,-524,0,0,0,0,0,0,0,0,0,-1,1917,1548,0,0
700,-524,0,0,0,0,0,0,0,0,0,-1,1924,1548,0,0
707,-524,0,0,0,0,0,0,0,0,0,-1,1931,1548,0,0
714,-524,0,0,0,0,0,0,0,0,0,-1,1938,1548,0,0
721,-524,0,0,0,0,0,0,0,0,0,-1,1945,1548,0,0
728,-524,0,0,0,0,0,0,0,0,0,-1,1952,1548,0,0
735,-524,0,0,0,0,0,0,0,0,0,-1,1959,1548,0,0
742,-524,0,0,0,0,0,0,0,0,0,-1,1966,1548,0,0
749,-524,0,0,0,0,0,0,0,0,0,-1,1973,1548,0,0
756,-524,0,0,0,0,0,0,0,0,0,-1,1980,1548,0,0
763,-524,0,0,0,0,0,0,0,0,0,-1,1987,1548,0,0
770,-524,0,0,0,0,0,0,0,0,0,-1,1994,1548,0,0
777,-524,0,0,0,0,0,0,0,0,0,-1,2001,1548,0,0
784,-524,0,0,0,0,0,0,0,0,0,-1,2008,1548,0,0
791,-524,0,0,0,0,0,0,0,0,0,-1,2015,1548,0,0
798,-524,0,0,0,0,0,0,0,0,0,-1,2022,1548,0,0
805,-524,0,0,0,0,0,0,0,0,0,-1,2029,1548,0,0
812,-524,0,0,0,0,0,0,0,0,0,-1,2036,1548,0,0
-700,-531,0,0,0,0,0,0,0,0,0,-1,524,1555,0,0
-693,-531,0,0,0,0,0,0,0,0,0,-1,531,1555,0,0
-686,-531,0,0,0,0,0,0,0,0,0,-1,538,1555,0,0
-679,-531,0,0,0,0,0,0,0,0,0,-1,545,1555,0,0
-672,-531,0,0,0,0,0,0,0,0,0,-1,552,1555,0,0
-665,-531,0,0,0,0,0,0,0,0,0,-1,559,1555,0,0
-658,-531,0,0,0,0,0,0,0,0,0,-1,566,1555,0,0
-651,-531,0,0,0,0,0,0,0,0,0,-1,573,1555,0,0
-644,-531,0,0,0,0,0,0,0,0,0,-1,580,1555,0,0
-637,-531,0,0,0,0,0,0,0,0,0,-1,587,1555,0,0
-630,-531,0,0,0,0,0,0,0,0,0,-1,594,1555,0,0
-623,-531,0,0,0,0,0,0,0,0,0,-1,601,1555,0,0
-616,-531,0,0,0,0,0,0,0,0,0,-1,608,1555,0,0
-609,-531,0,0,0,0,0,0,0,0,0,-1,615,1555,0,0
-602,-531,0,0,0,0,0,0,0,0,0,-1,622,1555,0,0
-595,-531,0,0,0,0,0,0,0,0,0,-1,629,1555,0,0
-588,-531,0,0,0,0,0,0,0,0,0,-1,636,1555,0,0
-581,-531,0,0,0,0,0,0,0,0,0,-1,643,1555,0,0
-574,-531,0,0,0,0,0,0,0,0,0,-1,650,1555,0,0
-567,-531,0,0,0,0,0,0,0,0,0,-1,657,1555,0,0
-560,-531,0,0,0,0,0,0,0,0,0,-1,664,1555,0,0
-553,-531,0,0,0,0,0,0,0,0,0,-1,671,1555,0,0
-546,-531,0,0,0,0,0,0,0,0,0,-1,678,1555,0,0
-539,-531,0,0,0,0,0,0,0,0,0,-1,685,1555,0,0
-532,-531,0,0,0,0,0,0,0,0,0,-1,692,1555,0,0
-525,-531,0,0,0,0,0,0,0,0,0,-1,699,1555,0,0
-518,-531,-1.63983,4.03821,0,0,0,0,0,0,0,-1,706,1555,-1.63982,-4.03821
-511,-531,-2.9682,8.07483,0,0,0,0,0,0,0,-1,713,1555,-2.9682,-8.07479
-504,-531,-2.95978,0.557861,0,0,0,0,0,0,0,-1,720,1555,-2.95978,-0.557917
-497,-531,-2.46039,8.07422,0,0,0,0,0,0,0,-1,727,1555,-2.46039,-8.07423
-490,-531,-2.10461,8.25159,0,0,0,0,0,0,0,-1,734,1555,-2.10463,-8.25158
-483,-531,-0.312744,8.18433,0,0,0,0,0,0,0,-1,741,1555,-0.312759,-8.18434
-476,-531,-0.587585,8.82373,0,0,0,0,0,0,0,-1,748,1555,-0.587589,-8.82374
-469,-531,-0.635315,9.14844,-0.002359,0.0313379,0.00958712,0.0338746,-0.00489568,1.31213,0.0243794,0.0439386,755,1555,-0.635328,-9.14846
-462,-531,-0.597046,9.44055,-0.00327699,0.0265437,0.00847442,0.0287837,-0.00551699,1.31238,0.021268,0.0402829,762,1555,-0.597038,-9.44051
-455,-531,-0.621094,9.69934,-0.00267472,0.0227009,0.00769216,0.0248505,-0.00482436,1.29829,0.0183873,0.0307735,769,1555,-0.621093,-9.69935
-448,-531,-0.590027,9.94641,-0.001417,0.0189954,0.00708586,0.021214,-0.00363561,1.26736,0.0154974,0.0145934,776,1555,-0.590033,-9.94646
-441,-531,-0.647461,10.2454,-0.000339333,0.0153962,0.00627289,0.0175908,-0.00253392,1.23425,0.0126567,0.012182,783,1555,-0.647467,-10.2453
-434,-531,-0.651001,10.578,0.000505877,0.0120268,0.00549909,0.0142302,-0.00169751,1.1897,0.0101003,0.0119768,790,1555,-0.651014,-10.578
-427,-531,-0.633911,10.9034,0.00130207,0.00906098,0.00469988,0.0112757,-0.000912651,1.13043,0.00783908,0.0131568,797,1555,-0.633895,-10.9035
-420,-531,-0.651123,11.2341,0.00183636,0.00647148,0.00375166,0.00856369,-0.000255841,1.06208,0.00579629,0.0115908,804,1555,-0.651127,-11.2341
-413,-531,-0.671265,11.5509,0.00215508,0.00457757,0.00294226,0.00654814,0.000184501,0.980662,0.00430525,0.0101667,811,1555,-0.671251,-11.5508
-406,-531,-0.665955,11.8428,0.00235125,0.00302906,0.00231786,0.00503266,0.000347653,0.857991,0.00324544,0.0113212,818,1555,-0.665971,-11.8428
-399,-531,-0.663025,12.144,0.0024814,0.00238061,0.00187433,0.00430602,0.000555997,0.771958,0.00270447,0.0130093,825,1555,-0.662995,-12.144
-392,-531,-0.652344,12.4502,0.0027392,0.00272742,0.00169794,0.00443126,0.00103537,0.783664,0.00267665,0.0161122,832,1555,-0.652332,-12.4502
-385,-531,-0.673645,12.7665,0.00338013,0.00398671,0.0020107,0.00571687,0.00164997,0.860252,0.00339754,0.0137713,839,1555,-0.673659,-12.7665
-378,-531,-0.69104,13.0472,0.004072,0.00476219,0.00219691,0.00664095,0.00219325,0.863302,0.0039071,0.0131146,846,1555,-0.691056,-13.0473
-371,-531,-0.628723,13.421,0.00492631,0.0059921,0.00260809,0.00812118,0.00279723,0.886173,0.00476381,0.0216898,853,1555,-0.628695,-13.421
-364,-531,-0.557739,13.7498,0.00383618,0.00775048,0.00383554,0.0100993,0.00148731,1.02131,0.00629596,0.0461393,860,1555,-0.557722,-13.7497
-357,-531,-0.543884,13.9419,0,0,0,0,0,0,0,-1,867,1555,-0.543874,-13.9419
-350,-531,-0.782288,14.4884,0,0,0,0,0,0,0,-1,874,1555,-0.782294,-14.4884
-343,-531,-0.793152,14.9941,0,0,0,0,0,0,0,-1,881,1555,-0.793134,-14.9941
-336,-531,-0.414856,15.3519,0,0,0,0,0,0,0,-1,888,1555,-0.41483,-15.3519
-329,-531,4.40118,17.317,0,0,0,0,0,0,0,-1,895,1555,4.40117,-17.3171
-322,-531,3.65765,16.7769,0,0,0,0,0,0,0,-1,902,1555,3.65767,-16.7769
-315,-531,2.90259,16.536,0,0,0,0,0,0,0,-1,909,1555,2.90262,-16.536
-308,-531,2.6795,15.7117,0,0,0,0,0,0,0,-1,916,1555,2.67952,-15.7116
-301,-531,2.01031,15.2048,0,0,0,0,0,0,0,-1,923,1555,2.01033,-15.2049
-294,-531,-1.3244,8.1825,0,0,0,0,0,0,0,-1,930,1555,-1.3244,-8.18251
-287,-531,-1.78192,10.1661,0,0,0,0,0,0,0,-1,937,1555,-1.78192,-10.1661
-280,-531,-2.14508,10.3945,0,0,0,0,0,0,0,-1,944,1555,-2.14506,-10.3945
-273,-531,-2.50818,10.6229,0,0,0,0,0,0,0,-1,951,1555,-2.5082,-10.6229
-266,-531,-4.97742,17.9215,0,0,0,0,0,0,0,-1,958,1555,-4.97744,-17.9215
-259,-531,0,0,0,0,0,0,0,0,0,-1,965,1555,0,0
-252,-531,0,0,0,0,0,0,0,0,0,-1,972,1555,0,0
-245,-531,0,0,0,0,0,0,0,0,0,-1,979,1555,0,0
-238,-531,0,0,0,0,0,0,0,0,0,-1,986,1555,0,0
-231,-531,0,0,0,0,0,0,0,0,0,-1,993,1555,0,0
-224,-531,0,0,0,0,0,0,0,0,0,-1,1000,1555,0,0
-217,-531,0,0,0,0,0,0,0,0,0,-1,1007,1555,0,0
-210,-531,0,0,0,0,0,0,0,0,0,-1,1014,1555,0,0
-203,-531,0,0,0,0,0,0,0,0,0,-1,1021,1555,0,0
-196,-531,0,0,0,0,0,0,0,0,0,-1,1028,1555,0,0
-189,-531,0,0,0,0,0,0,0,0,0,-1,1035,1555,0,0
-182,-531,0,0,0,0,0,0,0,0,0,-1,1042,1555,0,0
-175,-531,0,0,0,0,0,0,0,0,0,-1,1049,1555,0,0
-168,-531,0,0,0,0,0,0,0,0,0,-1,1056,1555,0,0
-161,-531,0,0,0,0,0,0,0,0,0,-1,1063,1555,0,0
-154,-531,0,0,0,0,0,0,0,0,0,-1,1070,1555,0,0
-147,-531,0,0,0,0,0,0,0,0,0,-1,1077,1555,0,0
-140,-531,0,0,0,0,0,0,0,0,0,-1,1084,1555,0,0
-133,-531,0,0,0,0,0,0,0,0,0,-1,1091,1555,0,0
-126,-531,0,0,0,0,0,0,0,0,0,-1,1098,1555,0,0
-119,-531,0,0,0,0,0,0,0,0,0,-1,1105,1555,0,0
-112,-531,0,0,0,0,0,0,0,0,0,-1,1112,1555,0,0
-105,-531,0,0,0,0,0,0,0,0,0,-1,1119,1555,0,0
-98,-531,0,0,0,0,0,0,0,0,0,-1,1126,1555,0,0
-91,-531,0,0,0,0,0,0,0,0,0,-1,1133,1555,0,0
-84,-531,0,0,0,0,0,0,0,0,0,-1,1140,1555,0,0
-77,-531,0,0,0,0,0,0,0,0,0,-1,1147,1555,0,0
-70,-531,0,0,0,0,0,0,0,0,0,-1,1154,1555,0,0
-63,-531,0,0,0,0,0,0,0,0,0,-1,1161,1555,0,0
-56,-531,0,0,0,0,0,0,0,0,0,-1,1168,1555,0,0
-49,-531,0,0,0,0,0,0,0,0,0,-1,1175,1555,0,0
-42,-531,0,0,0,0,0,0,0,0,0,-1,1182,1555,0,0
-35,-531,0,0,0,0,0,0,0,0,0,-1,1189,1555,0,0
-28,-531,0,0,0,0,0,0,0,0,0,-1,1196,1555,0,0
-21,-531,0,0,0,0,0,0,0,0,0,-1,1203,1555,0,0
-14,-531,0,0,0,0,0,0,0,0,0,-1,1210,1555,0,0
-7,-531,0,0,0,0,0,0,0,0,0,-1,1217,1555,0,0
0,-531,0,0,0,0,0,0,0,0,0,-1,1224,1555,0,0
7,-531,0,0,0,0,0,0,0,0,0,-1,1231,1555,0,0
14,-531,0,0,0,0,0,0,0,0,0,-1,1238,1555,0,0
21,-531,0,0,0,0,0,0,0,0,0,-1,1245,1555,0,0
28,-531,0,0,0,0,0,0,0,0,0,-1,1252,1555,0,0
35,-531,0,0,0,0,0,0,0,0,0,-1,1259,1555,0,0
42,-531,0,0,0,0,0,0,0,0,0,-1,1266,1555,0,0
49,-531,0,0,0,0,0,0,0,0,0,-1,1273,1555,0,0
56,-531,0,0,0,0,0,0,0,0,0,-1,1280,1555,0,0
63,-531,0,0,0,0,0,0,0,0,0,-1,1287,1555,0,0
70,-531,0,0,0,0,0,0,0,0,0,-1,1294,1555,0,0
77,-531,0,0,0,0,0,0,0,0,0,-1,1301,1555,0,0
84,-531,0,0,0,0,0,0,0,0,0,-1,1308,1555,0,0
91,-531,0,0,0,0,0,0,0,0,0,-1,1315,1555,0,0
98,-531,0,0,0,0,0,0,0,0,0,-1,1322,1555,0,0
105,-531,0,0,0,0,0,0,0,0,0,-1,1329,1555,0,0
112,-531,0,0,0,0,0,0,0,0,0,-1,1336,1555,0,0
119,-531,0,0,0,0,0,0,0,0,0,-1,1343,1555,0,0
126,-531,0,0,0,0,0,0,0,0,0,-1,1350,1555,0,0
133,-531,0,0,0,0,0,0,0,0,0,-1,1357,1555,0,0
140,-531,0,0,0,0,0,0,0,0,0,-1,1364,1555,0,0
147,-531,0,0,0,0,0,0,0,0,0,-1,1371,1555,0,0
154,-531,0,0,0,0,0,0,0,0,0,-1,1378,1555,0,0
161,-531,0,0,0,0,0,0,0,0,0,-1,1385,1555,0,0
168,-531,0,0,0,0,0,0,0,0,0,-1,1392,1555,0,0
175,-531,0,0,0,0,0,0,0,0,0,-1,1399,1555,0,0
182,-531,0,0,0,0,0,0,0,0,0,-1,1406,1555,0,0
189,-531,0,0,0,0,0,0,0,0,0,-1,1413,1555,0,0
196,-531,0,0,0,0,0,0,0,0,0,-1,1420,1555,0,0
203,-531,0,0,0,0,0,0,0,0,0,-1,1427,1555,0,0
210,-531,0,0,0,0,0,0,0,0,0,-1,1434,1555,0,0
217,-531,0,0,0,0,0,0,0,0,0,-1,1441,1555,0,0
224,-531,0,0,0,0,0,0,0,0,0,-1,1448,1555,0,0
231,-531,0,0,0,0,0,0,0,0,0,-1,1455,1555,0,0
238,-531,0,0,0,0,0,0,0,0,0,-1,1462,1555,0,0
245,-531,0,0,0,0,0,0,0,0,0,-1,1469,1555,0,0
252,-531,0,0,0,0,0,0,0,0,0,-1,1476,1555,0,0
259,-531,0,0,0,0,0,0,0,0,0,-1,1483,1555,0,0
266,-531,0,0,0,0,0,0,0,0,0,-1,1490,1555,0,0
273,-531,0,0,0,0,0,0,0,0,0,-1,1497,1555,0,0
280,-531,0,0,0,0,0,0,0,0,0,-1,1504,1555,0,0
287,-531,0,0,0,0,0,0,0,0,0,-1,1511,1555,0,0
294,-531,0,0,0,0,0,0,0,0,0,-1,1518,1555,0,0
301,-531,0,0,0,0,0,0,0,0,0,-1,1525,1555,0,0
308,-531,0,0,0,0,0,0,0,0,0,-1,1532,1555,0,0
315,-531,0,0,0,0,0,0,0,0,0,-1,1539,1555,0,0
322,-531,0,0,0,0,0,0,0,0,0,-1,1546,1555,0,0
329,-531,0,0,0,0,0,0,0,0,0,-1,1553,1555,0,0
336,-531,0,0,0,0,0,0,0,0,0,-1,1560,1555,0,0
343,-531,0,0,0,0,0,0,0,0,0,-1,1567,1555,0,0
350,-531,0,0,0,0,0,0,0,0,0,-1,1574,1555,0,0
357,-531,0,0,0,0,0,0,0,0,0,-1,1581,1555,0,0
364,-531,0,0,0,0,0,0,0,0,0,-1,1588,1555,0,0
371,-531,0,0,0,0,0,0,0,0,0,-1,1595,1555,0,0
378,-531,0,0,0,0,0,0,0,0,0,-1,1602,1555,0,0
385,-531,3.48169,1.78625,0,0,0,0,0,0,0,-1,1609,1555,3.48165,-1.78624
392,-531,10.8781,9.09204,0,0,0,0,0,0,0,-1,1616,1555,10.8781,-9.09205
399,-531,8.26306,5.29602,0,0,0,0,0,0,0,-1,1623,1555,8.26302,-5.29607
406,-531,8.26147,5.42712,0,0,0,0,0,0,0,-1,1630,1555,8.26145,-5.42716
413,-531,8.20618,5.75012,0,0,0,0,0,0,0,-1,1637,1555,8.20619,-5.75017
420,-531,7.64868,7.09558,0,0,0,0,0,0,0,-1,1644,1555,7.64867,-7.09564
427,-531,9.93054,11.8412,0,0,0,0,0,0,0,-1,1651,1555,9.93059,-11.8412
434,-531,10.244,11.7072,0,0,0,0,0,0,0,-1,1658,1555,10.244,-11.7071
441,-531,11.4528,12.9397,0,0,0,0,0,0,0,-1,1665,1555,11.4528,-12.9397
448,-531,8.70752,11.1261,0,0,0,0,0,0,0,-1,1672,1555,8.70751,-11.126
455,-531,14.4877,9.67065,0,0,0,0,0,0,0,-1,1679,1555,14.4876,-9.67066
462,-531,14.4513,11.5122,0,0,0,0,0,0,0,-1,1686,1555,14.4513,-11.5122
469,-531,13.7798,12.8618,0,0,0,0,0,0,0,-1,1693,1555,13.7798,-12.8619
476,-531,12.8657,13.4321,0,0,0,0,0,0,0,-1,1700,1555,12.8658,-13.4322
483,-531,12.3009,14.582,0,0,0,0,0,0,0,-1,1707,1555,12.3009,-14.582
490,-531,11.9565,14.6906,-0.0348821,-0.0149033,0.0227674,-3.02214e-05,-0.0497551,0.992132,0.03316,0.0413501,1714,1555,11.9566,-14.6906
497,-531,11.484,14.859,-0.0306294,-0.0115192,0.018585,-0.000176908,-0.0419717,1.02284,0.0279224,0.0241668,1721,1555,11.484,-14.859
504,-531,11.4916,14.613,-0.0266535,-0.00886064,0.0147037,-0.000571504,-0.0349427,1.05746,0.023107,0.0140826,1728,1555,11.4915,-14.613
511,-531,11.5145,14.3015,-0.0219312,-0.00653256,0.0118154,-0.000129248,-0.0283345,1.07416,0.0188467,0.0126944,1735,1555,11.5146,-14.3015
518,-531,11.5327,14.0151,-0.0173922,-0.00463826,0.00920255,0.000180881,-0.0222113,1.08839,0.0148682,0.0131745,1742,1555,11.5327,-14.0152
525,-531,11.5396,13.756,-0.0131482,-0.00287117,0.00680728,0.000519281,-0.0165387,1.1087,0.0112029,0.0130573,1749,1555,11.5396,-13.756
532,-531,11.5631,13.4561,-0.00932422,-0.00185283,0.00485927,0.000540738,-0.0117178,1.1131,0.0079982,0.0104006,1756,1555,11.5631,-13.4561
539,-531,11.5497,13.1743,-0.00605573,-0.00106301,0.00324969,0.000538469,-0.00765721,1.11292,0.00529343,0.0119488,1763,1555,11.5497,-13.1743
546,-531,11.5175,12.9078,-0.00324006,-0.000308683,0.00187363,0.000604433,-0.00415318,1.11732,0.00299069,0.0149939,1770,1555,11.5174,-12.9078
553,-531,11.535,12.6077,-0.000985195,0.000209678,0.000854634,0.000654993,-0.00143051,1.09044,0.0012315,0.0287785,1777,1555,11.535,-12.6077
560,-531,11.4662,12.3304,0.000532654,0.00079654,1.41584e-05,0.000797297,0.000531896,1.51735,0.000468813,0.0317813,1784,1555,11.4662,-12.3304
567,-531,11.4635,12.066,0.00112687,0.00122864,-0.000466894,0.00164741,0.000708094,-0.839676,0.000954251,0.0184469,1791,1555,11.4635,-12.066
574,-531,11.4991,11.7417,0.000725761,0.00201729,-0.000694156,0.00231961,0.000423441,-1.16005,0.00142637,0.0123636,1798,1555,11.4992,-11.7417
581,-531,11.5374,11.4285,0.000815794,0.0026274,-0.00106796,0.00312196,0.000321236,-1.13711,0.00198292,0.0116093,1805,1555,11.5373,-11.4285
588,-531,11.5474,11.0969,0.000569962,0.00314623,-0.00116245,0.0035932,0.000122995,-1.20372,0.00235554,0.0178588,1812,1555,11.5474,-11.0969
595,-531,11.4711,10.7352,0.000158023,0.00395207,-0.00156978,0.00451734,-0.000407253,-1.22515,0.00315608,0.036562,1819,1555,11.4711,-10.7352
602,-531,11.5558,10.2694,0,0,0,0,0,0,0,-1,1826,1555,11.5558,-10.2695
609,-531,10.9072,8.50903,0,0,0,0,0,0,0,-1,1833,1555,10.9073,-8.50902
616,-531,10.5723,7.17859,0,0,0,0,0,0,0,-1,1840,1555,10.5723,-7.17855
623,-531,10.0674,5.08984,0,0,0,0,0,0,0,-1,1847,1555,10.0674,-5.08981
630,-531,11.672,3.18909,0,0,0,0,0,0,0,-1,1854,1555,11.672,-3.18904
637,-531,13.2546,1.38965,0,0,0,0,0,0,0,-1,1861,1555,13.2547,-1.3896
644,-531,0,0,0,0,0,0,0,0,0,-1,1868,1555,0,0
651,-531,0,0,0,0,0,0,0,0,0,-1,1875,1555,0,0
658,-531,0,0,0,0,0,0,0,0,0,-1,1882,1555,0,0
665,-531,0,0,0,0,0,0,0,0,0,-1,1889,1555,0,0
672,-531,0,0,0,0,0,0,0,0,0,-1,1896,1555,0,0
679,-531,0,0,0,0,0,0,0,0,0,-1,1903,1555,0,0
686,-531,0,0,0,0,0,0,0,0,0,-1,1910,1555,0,0
693,-531,0,0,0,0,0,0,0,0,0,-1,1917,1555,0,0
700,-531,0,0,0,0,0,0,0,0,0,-1,1924,1555,0,0
707,-531,0,0,0,0,0,0,0,0,0,-1,1931,1555,0,0
714,-531,0,0,0,0,0,0,0,0,0,-1,1938,1555,0,0
721,-531,0,0,0,0,0,0,0,0,0,-1,1945,1555,0,0
728,-531,0,0,0,0,0,0,0,0,0,-1,1952,1555,0,0
735,-531,0,0,0,0,0,0,0,0,0,-1,1959,1555,0,0
742,-531,0,0,0,0,0,0,0,0,0,-1,1966,1555,0,0
749,-531,0,0,0,0,0,0,0,0,0,-1,1973,1555,0,0
756,-531,0,0,0,0,0,0,0,0,0,-1,1980,1555,0,0
763,-531,0,0,0,0,0,0,0,0,0,-1,1987,1555,0,0
770,-531,0,0,0,0,0,0,0,0,0,-1,1994,1555,0,0
777,-531,0,0,0,0,0,0,0,0,0,-1,2001,1555,0,0
784,-531,0,0,0,0,0,0,0,0,0,-1,2008,1555,0,0
791,-531,0,0,0,0,0,0,0,0,0,-1,2015,1555,0,0
798,-531,0,0,0,0,0,0,0,0,0,-1,2022,1555,0,0
805,-531,0,0,0,0,0,0,0,0,0,-1,2029,1555,0,0
812,-531,0,0,0,0,0,0,0,0,0,-1,2036,1555,0,0
-700,-538,0,0,0,0,0,0,0,0,0,-1,524,1562,0,0
-693,-538,0,0,0,0,0,0,0,0,0,-1,531,1562,0,0
-686,-538,0,0,0,0,0,0,0,0,0,-1,538,1562,0,0
-679,-538,0,0,0,0,0,0,0,0,0,-1,545,1562,0,0
-672,-538,0,0,0,0,0,0,0,0,0,-1,552,1562,0,0
-665,-538,0,0,0,0,0,0,0,0,0,-1,559,1562,0,0
-658,-538,0,0,0,0,0,0,0,0,0,-1,566,1562,0,0
-651,-538,0,0,0,0,0,0,0,0,0,-1,573,1562,0,0
-644,-538,0,0,0,0,0,0,0,0,0,-1,580,1562,0,0
-637,-538,0,0,0,0,0,0,0,0,0,-1,587,1562,0,0
-630,-538,0,0,0,0,0,0,0,0,0,-1,594,1562,0,0
-623,-538,0,0,0,0,0,0,0,0,0,-1,601,1562,0,0
-616,-538,0,0,0,0,0,0,0,0,0,-1,608,1562,0,0
-609,-538,0,0,0,0,0,0,0,0,0,-1,615,1562,0,0
-602,-538,0,0,0,0,0,0,0,0,0,-1,622,1562,0,0
-595,-538,0,0,0,0,0,0,0,0,0,-1,629,1562,0,0
-588,-538,0,0,0,0,0,0,0,0,0,-1,636,1562,0,0
-581,-538,0,0,0,0,0,0,0,0,0,-1,643,1562,0,0
-574,-538,0,0,0,0,0,0,0,0,0,-1,650,1562,0,0
-567,-538,0,0,0,0,0,0,0,0,0,-1,657,1562,0,0
-560,-538,0,0,0,0,0,0,0,0,0,-1,664,1562,0,0
-553,-538,0,0,0,0,0,0,0,0,0,-1,671,1562,0,0
-546,-538,0,0,0,0,0,0,0,0,0,-1,678,1562,0,0
-539,-538,0,0,0,0,0,0,0,0,0,-1,685,1562,0,0
-532,-538,0,0,0,0,0,0,0,0,0,-1,692,1562,0,0
-525,-538,0,0,0,0,0,0,0,0,0,-1,699,1562,0,0
-518,-538,0,0,0,0,0,0,0,0,0,-1,706,1562,0,0
-511,-538,-2.6582,-1.54321,0,0,0,0,0,0,0,-1,713,1562,-2.65821,1.54327
-504,-538,-2.66455,-0.71167,0,0,0,0,0,0,0,-1,720,1562,-2.66456,0.711667
-497,-538,-0.763855,6.77747,0,0,0,0,0,0,0,-1,727,1562,-0.76385,-6.77743
-490,-538,-2.70453,8.01465,0,0,0,0,0,0,0,-1,734,1562,-2.70451,-8.0147
-483,-538,-2.15729,9.01233,0,0,0,0,0,0,0,-1,741,1562,-2.15728,-9.01234
-476,-538,-1.79938,9.23694,0,0,0,0,0,0,0,-1,748,1562,-1.79936,-9.23699
-469,-538,-0.437744,9.22192,0,0,0,0,0,0,0,-1,755,1562,-0.437758,-9.22188
-462,-538,-0.0795898,9.05383,-0.0024095,0.0383745,0.0135458,0.0424635,-0.00649855,1.27763,0.0307053,0.0445656,762,1562,-0.0795757,-9.05379
-455,-538,-0.135498,9.474,-0.00170107,0.0324112,0.0121537,0.0362984,-0.00558832,1.26124,0.0262607,0.0388463,769,1562,-0.135502,-9.474
-448,-538,-0.234741,9.97644,-0.000490005,0.0265826,0.0108021,0.0303644,-0.00427183,1.23403,0.0218068,0.0177759,776,1562,-0.234719,-9.97642
-441,-538,-0.30481,10.3292,0.000417976,0.0211367,0.00925047,0.0246657,-0.00311106,1.20634,0.0175729,0.0179193,783,1562,-0.304804,-10.3292
-434,-538,-0.335632,10.5975,0.00104106,0.0162577,0.00779908,0.0195449,-0.00224613,1.17191,0.0138395,0.0120515,790,1562,-0.335604,-10.5975
-427,-538,-0.319153,10.9139,0.00159815,0.0121343,0.00643625,0.0151835,-0.0014511,1.12836,0.0106391,0.0131947,797,1562,-0.319175,-10.9139
-420,-538,-0.370117,11.2321,0.00189348,0.00865314,0.00501067,0.0113173,-0.000770704,1.08211,0.00781447,0.016954,804,1562,-0.370114,-11.232
-413,-538,-0.381409,11.5496,0.00199358,0.00608712,0.00380614,0.00836192,-0.000281212,1.0321,0.00567068,0.0171242,811,1562,-0.38143,-11.5496
-406,-538,-0.353638,11.847,0.00202298,0.00385222,0.00286782,0.00594774,-7.25291e-05,0.939762,0.00398956,0.013943,818,1562,-0.353627,-11.8471
-399,-538,-0.340698,12.1586,0.00200905,0.00258637,0.00212558,0.0044428,0.000152624,0.852887,0.00291232,0.012934,825,1562,-0.340718,-12.1586
-392,-538,-0.338867,12.4573,0.00213786,0.00244061,0.00168538,0.00398139,0.000597075,0.830185,0.00247932,0.0138596,832,1562,-0.338857,-12.4573
-385,-538,-0.361694,12.7684,0.00254036,0.00318029,0.00164993,0.004541,0.00117965,0.881173,0.00272074,0.0119464,839,1562,-0.361692,-12.7684
-378,-538,-0.369812,13.0753,0.00307858,0.00376179,0.00172216,0.0051759,0.00166447,0.883306,0.00305106,0.00986323,846,1562,-0.369825,-13.0753
-371,-538,-0.389954,13.3549,0.00379149,0.00470061,0.00197862,0.00627621,0.00221589,0.898307,0.00367536,0.0113098,853,1562,-0.389973,-13.3549
-364,-538,-0.354126,13.7,0.00301149,0.00611656,0.00300429,0.00794576,0.00118229,1.02389,0.00495036,0.0124143,860,1562,-0.354132,-13.6999
-357,-538,-0.318359,14.0276,0.0021327,0.00819967,0.0043342,0.0104565,-0.000124121,1.09073,0.00701273,0.0245396,867,1562,-0.318373,-14.0276
-350,-538,-0.397705,14.264,0.0015229,0.0103967,0.00556483,0.0130769,-0.00115731,1.12195,0.00912822,0.0357944,874,1562,-0.397675,-14.2641
-343,-538,-0.404846,14.6962,0.000500799,0.0131561,0.0074809,0.0166266,-0.00296966,1.13644,0.0121954,0.0469624,881,1562,-0.404825,-14.6962
-336,-538,-0.151855,15.1112,-0.00165648,0.0162863,0.00979965,0.0206009,-0.00597114,1.15605,0.0160978,0.0466453,888,1562,-0.151841,-15.1113
-329,-538,0.0101929,15.5243,0,0,0,0,0,0,0,-1,895,1562,0.0102035,-15.5243
-322,-538,3.27509,16.9401,0,0,0,0,0,0,0,-1,902,1562,3.27507,-16.9401
-315,-538,2.45172,16.6761,-0.013372,0.0298159,0.0220916,0.0391143,-0.0226704,1.1724,0.0360901,0.0459203,909,1562,2.45172,-16.6762
-308,-538,1.88416,16.1573,0,0,0,0,0,0,0,-1,916,1562,1.88413,-16.1573
-301,-538,1.31744,15.8439,0,0,0,0,0,0,0,-1,923,1562,1.31742,-15.8439
-294,-538,1.23138,14.0757,0,0,0,0,0,0,0,-1,930,1562,1.23137,-14.0757
-287,-538,-2.60419,10.2361,0,0,0,0,0,0,0,-1,937,1562,-2.6042,-10.2361
-280,-538,-2.93475,10.5106,0,0,0,0,0,0,0,-1,944,1562,-2.93475,-10.5106
-273,-538,-3.26532,10.785,0,0,0,0,0,0,0,-1,951,1562,-3.26531,-10.785
-266,-538,-5.03412,15.9951,0,0,0,0,0,0,0,-1,958,1562,-5.03409,-15.9951
-259,-538,-5.89642,16.5184,0,0,0,0,0,0,0,-1,965,1562,-5.89644,-16.5184
-252,-538,0,0,0,0,0,0,0,0,0,-1,972,1562,0,0
-245,-538,0,0,0,0,0,0,0,0,0,-1,979,1562,0,0
-238,-538,0,0,0,0,0,0,0,0,0,-1,986,1562,0,0
-231,-538,0,0,0,0,0,0,0,0,0,-1,993,1562,0,0
-224,-538,0,0,0,0,0,0,0,0,0,-1,1000,1562,0,0
-217,-538,0,0,0,0,0,0,0,0,0,-1,1007,1562,0,0
-210,-538,0,0,0,0,0,0,0,0,0,-1,1014,1562,0,0
-203,-538,0,0,0,0,0,0,0,0,0,-1,1021,1562,0,0
-196,-538,0,0,0,0,0,0,0,0,0,-1,1028,1562,0,0
-189,-538,0,0,0,0,0,0,0,0,0,-1,1035,1562,0,0
-182,-538,0,0,0,0,0,0,0,0,0,-1,1042,1562,0,0
-175,-538,0,0,0,0,0,0,0,0,0,-1,1049,1562,0,0
-168,-538,0,0,0,0,0,0,0,0,0,-1,1056,1562,0,0
-161,-538,0,0,0,0,0,0,0,0,0,-1,1063,1562,0,0
-154,-538,0,0,0,0,0,0,0,0,0,-1,1070,1562,0,0
-147,-538,0,0,0,0,0,0,0,0,0,-1,1077,1562,0,0
-140,-538,0,0,0,0,0,0,0,0,0,-1,1084,1562,0,0
-133,-538,0,0,0,0,0,0,0,0,0,-1,1091,1562,0,0
-126,-538,0,0,0,0,0,0,0,0,0,-1,1098,1562,0,0
-119,-538,0,0,0,0,0,0,0,0,0,-1,1105,1562,0,0
-112,-538,0,0,0,0,0,0,0,0,0,-1,1112,1562,0,0
-105,-538,0,0,0,0,0,0,0,0,0,-1,1119,1562,0,0
-98,-538,0,0,0,0,0,0,0,0,0,-1,1126,1562,0,0
-91,-538,0,0,0,0,0,0,0,0,0,-1,1133,1562,0,0
-84,-538,0,0,0,0,0,0,0,0,0,-1,1140,1562,0,0
-77,-538,0,0,0,0,0,0,0,0,0,-1,1147,1562,0,0
-70,-538,0,0,0,0,0,0,0,0,0,-1,1154,1562,0,0
-63,-538,0,0,0,0,0,0,0,0,0,-1,1161,1562,0,0
-56,-538,0,0,0,0,0,0,0,0,0,-1,1168,1562,0,0
-49,-538,0,0,0,0,0,0,0,0,0,-1,1175,1562,0,0
-42,-538,0,0,0,0,0,0,0,0,0,-1,1182,1562,0,0
-35,-538,0,0,0,0,0,0,0,0,0,-1,1189,1562,0,0
-28,-538,0,0,0,0,0,0,0,0,0,-1,1196,1562,0,0
-21,-538,0,0,0,0,0,0,0,0,0,-1,1203,1562,0,0
-14,-538,0,0,0,0,0,0,0,0,0,-1,1210,1562,0,0
-7,-538,0,0,0,0,0,0,0,0,0,-1,1217,1562,0,0
0,-538,0,0,0,0,0,0,0,0,0,-1,1224,1562,0,0
7,-538,0,0,0,0,0,0,0,0,0,-1,1231,1562,0,0
14,-538,0,0,0,0,0,0,0,0,0,-1,1238,1562,0,0
21,-538,0,0,0,0,0,0,0,0,0,-1,1245,1562,0,0
28,-538,0,0,0,0,0,0,0,0,0,-1,1252,1562,0,0
35,-538,0,0,0,0,0,0,0,0,0,-1,1259,1562,0,0
42,-538,0,0,0,0,0,0,0,0,0,-1,1266,1562,0,0
49,-538,0,0,0,0,0,0,0,0,0,-1,1273,1562,0,0
56,-538,0,0,0,0,0,0,0,0,0,-1,1280,1562,0,0
63,-538,0,0,0,0,0,0,0,0,0,-1,1287,1562,0,0
70,-538,0,0,0,0,0,0,0,0,0,-1,1294,1562,0,0
77,-538,0,0,0,0,0,0,0,0,0,-1,1301,1562,0,0
84,-538,0,0,0,0,0,0,0,0,0,-1,1308,1562,0,0
91,-538,0,0,0,0,0,0,0,0,0,-1,1315,1562,0,0
98,-538,0,0,0,0,0,0,0,0,0,-1,1322,1562,0,0
105,-538,0,0,0,0,0,0,0,0,0,-1,1329,1562,0,0
112,-538,0,0,0,0,0,0,0,0,0,-1,1336,1562,0,0
119,-538,0,0,0,0,0,0,0,0,0,-1,1343,1562,0,0
126,-538,0,0,0,0,0,0,0,0,0,-1,1350,1562,0,0
133,-538,0,0,0,0,0,0,0,0,0,-1,1357,1562,0,0
140,-538,0,0,0,0,0,0,0,0,0,-1,1364,1562,0,0
147,-538,0,0,0,0,0,0,0,0,0,-1,1371,1562,0,0
154,-538,0,0,0,0,0,0,0,0,0,-1,1378,1562,0,0
161,-538,0,0,0,0,0,0,0,0,0,-1,1385,1562,0,0
168,-538,0,0,0,0,0,0,0,0,0,-1,1392,1562,0,0
175,-538,0,0,0,0,0,0,0,0,0,-1,1399,1562,0,0
182,-538,0,0,0,0,0,0,0,0,0,-1,1406,1562,0,0
189,-538,0,0,0,0,0,0,0,0,0,-1,1413,1562,0,0
196,-538,0,0,0,0,0,0,0,0,0,-1,1420,1562,0,0
203,-538,0,0,0,0,0,0,0,0,0,-1,1427,1562,0,0
210,-538,0,0,0,0,0,0,0,0,0,-1,1434,1562,0,0
217,-538,0,0,0,0,0,0,0,0,0,-1,1441,1562,0,0
224,-538,0,0,0,0,0,0,0,0,0,-1,1448,1562,0,0
231,-538,0,0,0,0,0,0,0,0,0,-1,1455,1562,0,0
238,-538,0,0,0,0,0,0,0,0,0,-1,1462,1562,0,0
245,-538,0,0,0,0,0,0,0,0,0,-1,1469,1562,0,0
252,-538,0,0,0,0,0,0,0,0,0,-1,1476,1562,0,0
259,-538,0,0,0,0,0,0,0,0,0,-1,1483,1562,0,0
266,-538,0,0,0,0,0,0,0,0,0,-1,1490,1562,0,0
273,-538,0,0,0,0,0,0,0,0,0,-1,1497,1562,0,0
280,-538,0,0,0,0,0,0,0,0,0,-1,1504,1562,0,0
287,-538,0,0,0,0,0,0,0,0,0,-1,1511,1562,0,0
294,-538,0,0,0,0,0,0,0,0,0,-1,1518,1562,0,0
301,-538,0,0,0,0,0,0,0,0,0,-1,1525,1562,0,0
308,-538,0,0,0,0,0,0,0,0,0,-1,1532,1562,0,0
315,-538,0,0,0,0,0,0,0,0,0,-1,1539,1562,0,0
322,-538,0,0,0,0,0,0,0,0,0,-1,1546,1562,0,0
329,-538,0,0,0,0,0,0,0,0,0,-1,1553,1562,0,0
336,-538,0,0,0,0,0,0,0,0,0,-1,1560,1562,0,0
343,-538,0,0,0,0,0,0,0,0,0,-1,1567,1562,0,0
350,-538,0,0,0,0,0,0,0,0,0,-1,1574,1562,0,0
357,-538,0,0,0,0,0,0,0,0,0,-1,1581,1562,0,0
364,-538,0,0,0,0,0,0,0,0,0,-1,1588,1562,0,0
371,-538,0,0,0,0,0,0,0,0,0,-1,1595,1562,0,0
378,-538,9.65479,5.82434,0,0,0,0,0,0,0,-1,1602,1562,9.6548,-5.82439
385,-538,10.5449,7.9502,0,0,0,0,0,0,0,-1,1609,1562,10.5449,-7.95014
392,-538,8.20361,7.07214,0,0,0,0,0,0,0,-1,1616,1562,8.20362,-7.07211
399,-538,7.85425,4.70508,0,0,0,0,0,0,0,-1,1623,1562,7.85425,-4.70512
406,-538,7.77734,4.96094,0,0,0,0,0,0,0,-1,1630,1562,7.77729,-4.96097
413,-538,13.0446,13.1765,0,0,0,0,0,0,0,-1,1637,1562,13.0446,-13.1765
420,-538,9.96216,12.7653,0,0,0,0,0,0,0,-1,1644,1562,9.96221,-12.7653
427,-538,10.1732,14.5863,0,0,0,0,0,0,0,-1,1651,1562,10.1732,-14.5863
434,-538,9.64331,14.7745,0,0,0,0,0,0,0,-1,1658,1562,9.64326,-14.7746
441,-538,10.8445,16.9141,0,0,0,0,0,0,0,-1,1665,1562,10.8445,-16.9141
448,-538,11.9348,13.1129,0,0,0,0,0,0,0,-1,1672,1562,11.9348,-13.1129
455,-538,13.9756,12.0598,0,0,0,0,0,0,0,-1,1679,1562,13.9756,-12.0598
462,-538,12.4088,14.4028,0,0,0,0,0,0,0,-1,1686,1562,12.4088,-14.4028
469,-538,12.0378,14.3892,0,0,0,0,0,0,0,-1,1693,1562,12.0378,-14.3892
476,-538,11.3577,15.2122,0,0,0,0,0,0,0,-1,1700,1562,11.3577,-15.2122
483,-538,11.4517,15.1266,-0.0225345,-0.0164854,0.0205764,0.00128749,-0.0403074,0.858371,0.0273109,0.0374156,1707,1562,11.4517,-15.1266
490,-538,11.2439,15.0811,-0.0204127,-0.0131342,0.0167665,0.000383386,-0.0339303,0.892268,0.0227491,0.0185569,1714,1562,11.2439,-15.081
497,-538,11.2375,14.8623,-0.0178557,-0.0101994,0.0134481,-4.51915e-05,-0.0280099,0.924062,0.0186582,0.0118634,1721,1562,11.2375,-14.8623
504,-538,11.2544,14.5803,-0.0155481,-0.00783289,0.0103341,-0.000659859,-0.0227211,0.964033,0.0149323,0.00919131,1728,1562,11.2544,-14.5803
511,-538,11.241,14.2986,-0.0125169,-0.00567636,0.00808723,-0.000315889,-0.0178774,0.985454,0.0118144,0.00898772,1735,1562,11.241,-14.2985
518,-538,11.248,14.0256,-0.00963056,-0.00388498,0.00608738,-2.6566e-05,-0.013489,1.00587,0.00898381,0.00984101,1742,1562,11.248,-14.0256
525,-538,11.2449,13.7439,-0.00692443,-0.00220247,0.00427317,0.000318575,-0.00944548,1.03778,0.00640582,0.0113008,1749,1562,11.2449,-13.7439
532,-538,11.25,13.4624,-0.00454498,-0.00122292,0.0028639,0.000426782,-0.00619468,1.04819,0.00427915,0.0125914,1756,1562,11.25,-13.4624
539,-538,11.2495,13.191,-0.00256521,-0.000487068,0.0017575,0.000515543,-0.00356782,1.05237,0.0025677,0.0154357,1763,1562,11.2495,-13.1911
546,-538,11.2568,12.9034,-0.000889773,0.000192859,0.000868368,0.000674815,-0.00137173,1.06411,0.00120419,0.016586,1770,1562,11.2568,-12.9034
553,-538,11.2749,12.6105,0.000282366,0.000675525,0.000291945,0.000830905,0.000126987,1.0817,0.000516834,0.025715,1777,1562,11.2749,-12.6105
560,-538,11.2317,12.3685,0.000943548,0.00109209,-0.000119038,0.00115812,0.00087751,-1.06431,0.000697618,0.0274083,1784,1562,11.2316,-12.3685
567,-538,11.1705,12.0779,0.000929848,0.00139268,-0.000236555,0.00149219,0.000830338,-1.1726,0.000863342,0.0203209,1791,1562,11.1705,-12.0779
574,-538,11.2202,11.7336,0.00014801,0.0020818,-0.000232201,0.00210929,0.000120519,-1.45295,0.00136779,0.0133129,1798,1562,11.2202,-11.7337
581,-538,11.2755,11.4244,-0.000109748,0.00269659,-0.00044919,0.00276673,-0.000179893,-1.41589,0.00190728,0.0154677,1805,1562,11.2755,-11.4245
588,-538,11.2002,11.1119,-0.000359273,0.00327252,-0.000548824,0.00335365,-0.000440397,-1.42404,0.00239609,0.0329245,1812,1562,11.2002,-11.1119
595,-538,11.1395,10.7574,0,0,0,0,0,0,0,-1,1819,1562,11.1396,-10.7574
602,-538,10.314,8.94238,0,0,0,0,0,0,0,-1,1826,1562,10.314,-8.94238
609,-538,10.1046,7.05713,0,0,0,0,0,0,0,-1,1833,1562,10.1046,-7.05719
616,-538,9.92249,5.43506,0,0,0,0,0,0,0,-1,1840,1562,9.92254,-5.43507
623,-538,11.1711,4.31604,0,0,0,0,0,0,0,-1,1847,1562,11.1711,-4.316
630,-538,12.6112,2.61633,0,0,0,0,0,0,0,-1,1854,1562,12.6112,-2.61637
637,-538,0,0,0,0,0,0,0,0,0,-1,1861,1562,0,0
644,-538,0,0,0,0,0,0,0,0,0,-1,1868,1562,0,0
651,-538,0,0,0,0,0,0,0,0,0,-1,1875,1562,0,0
658,-538,0,0,0,0,0,0,0,0,0,-1,1882,1562,0,0
665,-538,0,0,0,0,0,0,0,0,0,-1,1889,1562,0,0
672,-538,0,0,0,0,0,0,0,0,0,-1,1896,1562,0,0
679,-538,0,0,0,0,0,0,0,0,0,-1,1903,1562,0,0
686,-538,0,0,0,0,0,0,0,0,0,-1,1910,1562,0,0
693,-538,0,0,0,0,0,0,0,0,0,-1,1917,1562,0,0
700,-538,0,0,0,0,0,0,0,0,0,-1,1924,1562,0,0
707,-538,0,0,0,0,0,0,0,0,0,-1,1931,1562,0,0
714,-538,0,0,0,0,0,0,0,0,0,-1,1938,1562,0,0
721,-538,0,0,0,0,0,0,0,0,0,-1,1945,1562,0,0
728,-538,0,0,0,0,0,0,0,0,0,-1,1952,1562,0,0
735,-538,0,0,0,0,0,0,0,0,0,-1,1959,1562,0,0
742,-538,0,0,0,0,0,0,0,0,0,-1,1966,1562,0,0
749,-538,0,0,0,0,0,0,0,0,0,-1,1973,1562,0,0
756,-538,0,0,0,0,0,0,0,0,0,-1,1980,1562,0,0
763,-538,0,0,0,0,0,0,0,0,0,-1,1987,1562,0,0
770,-538,0,0,0,0,0,0,0,0,0,-1,1994,1562,0,0
777,-538,0,0,0,0,0,0,0,0,0,-1,2001,1562,0,0
784,-538,0,0,0,0,0,0,0,0,0,-1,2008,1562,0,0
791,-538,0,0,0,0,0,0,0,0,0,-1,2015,1562,0,0
798,-538,0,0,0,0,0,0,0,0,0,-1,2022,1562,0,0
805,-538,0,0,0,0,0,0,0,0,0,-1,2029,1562,0,0
812,-538,0,0,0,0,0,0,0,0,0,-1,2036,1562,0,0
-700,-545,0,0,0,0,0,0,0,0,0,-1,524,1569,0,0
-693,-545,0,0,0,0,0,0,0,0,0,-1,531,1569,0,0
-686,-545,0,0,0,0,0,0,0,0,0,-1,538,1569,0,0
-679,-545,0,0,0,0,0,0,0,0,0,-1,545,1569,0,0
-672,-545,0,0,0,0,0,0,0,0,0,-1,552,1569,0,0
-665,-545,0,0,0,0,0,0,0,0,0,-1,559,1569,0,0
-658,-545,0,0,0,0,0,0,0,0,0,-1,566,1569,0,0
-651,-545,0,0,0,0,0,0,0,0,0,-1,573,1569,0,0
-644,-545,0,0,0,0,0,0,0,0,0,-1,580,1569,0,0
-637,-545,0,0,0,0,0,0,0,0,0,-1,587,1569,0,0
-630,-545,0,0,0,0,0,0,0,0,0,-1,594,1569,0,0
-623,-545,0,0,0,0,0,0,0,0,0,-1,601,1569,0,0
-616,-545,0,0,0,0,0,0,0,0,0,-1,608,1569,0,0
-609,-545,0,0,0,0,0,0,0,0,0,-1,615,1569,0,0
-602,-545,0,0,0,0,0,0,0,0,0,-1,622,1569,0,0
-595,-545,0,0,0,0,0,0,0,0,0,-1,629,1569,0,0
-588,-545,0,0,0,0,0,0,0,0,0,-1,636,1569,0,0
-581,-545,0,0,0,0,0,0,0,0,0,-1,643,1569,0,0
-574,-545,0,0,0,0,0,0,0,0,0,-1,650,1569,0,0
-567,-545,0,0,0,0,0,0,0,0,0,-1,657,1569,0,0
-560,-545,0,0,0,0,0,0,0,0,0,-1,664,1569,0,0
-553,-545,0,0,0,0,0,0,0,0,0,-1,671,1569,0,0
-546,-545,0,0,0,0,0,0,0,0,0,-1,678,1569,0,0
-539,-545,0,0,0,0,0,0,0,0,0,-1,685,1569,0,0
-532,-545,0,0,0,0,0,0,0,0,0,-1,692,1569,0,0
-525,-545,0,0,0,0,0,0,0,0,0,-1,699,1569,0,0
-518,-545,0,0,0,0,0,0,0,0,0,-1,706,1569,0,0
-511,-545,0,0,0,0,0,0,0,0,0,-1,713,1569,0,0
-504,-545,-3.55237,-2.5354,0,0,0,0,0,0,0,-1,720,1569,-3.55236,2.53545
-497,-545,2.26575,5.69214,0,0,0,0,0,0,0,-1,727,1569,2.26573,-5.6922
-490,-545,-2.17334,7.81396,0,0,0,0,0,0,0,-1,734,1569,-2.17334,-7.81399
-483,-545,-1.40808,7.85449,0,0,0,0,0,0,0,-1,741,1569,-1.40805,-7.85451
-476,-545,-1.73456,8.59119,0,0,0,0,0,0,0,-1,748,1569,-1.73457,-8.59125
-469,-545,0.430786,7.12268,0,0,0,0,0,0,0,-1,755,1569,0.430807,-7.12269
-462,-545,0.272644,8.13306,-0.000313122,0.0540157,0.0207203,0.0610161,-0.00731353,1.24498,0.0433215,0.0474285,762,1569,0.272634,-8.13309
-455,-545,0.189392,8.77551,0.000380583,0.0448354,0.0183019,0.0514006,-0.00618465,1.22637,0.0365037,0.0423649,769,1569,0.189417,-8.77548
-448,-545,0.193359,9.66711,0.00136017,0.0360063,0.0158053,0.0421331,-0.00476664,1.20099,0.0298049,0.0299245,776,1569,0.193367,-9.66707
-441,-545,0.0789795,10.3392,0.00189527,0.0279967,0.0131455,0.0334697,-0.00357764,1.17629,0.0235962,0.0214174,783,1569,0.0789553,-10.3392
-434,-545,-0.0506592,10.6135,0.00212079,0.0210916,0.0107046,0.0259087,-0.00269632,1.14794,0.0182378,0.0172272,790,1569,-0.0506353,-10.6135
-427,-545,-0.0239868,10.9164,0.00229704,0.0154779,0.00855601,0.0196874,-0.00191248,1.11357,0.0138067,0.0174441,797,1569,-0.0239854,-10.9164
-420,-545,-0.0269775,11.2229,0.0022527,0.0108943,0.00650051,0.014379,-0.00123202,1.07871,0.0100219,0.0239372,804,1569,-0.0269804,-11.2229
-413,-545,-0.0369263,11.5292,0.00206226,0.00750971,0.00478784,0.0102944,-0.000722377,1.04401,0.00711593,0.0233274,811,1569,-0.0369041,-11.5292
-406,-545,-0.0357056,11.8297,0.00188567,0.00453036,0.00346184,0.00691381,-0.00049778,0.967835,0.00478377,0.0168352,818,1569,-0.0356821,-11.8297
-399,-545,-0.0288696,12.1498,0.00170964,0.00263329,0.00237839,0.00459428,-0.000251346,0.881292,0.00314998,0.0115945,825,1569,-0.0288538,-12.1498
-392,-545,-0.0296021,12.4546,0.00170248,0.00201105,0.00166174,0.00352566,0.000187878,0.831689,0.00229038,0.0118213,832,1569,-0.0296147,-12.4546
-385,-545,-0.0460815,12.7758,0.00187469,0.00227066,0.00129136,0.00337912,0.00076623,0.861463,0.00204574,0.0103362,839,1569,-0.0460541,-12.7758
-378,-545,-0.0668335,13.0891,0.00229901,0.00271923,0.00127626,0.00380256,0.00121568,0.866981,0.00224249,0.0120136,846,1569,-0.0668104,-13.0892
-371,-545,-0.0751953,13.3927,0.00291481,0.00344302,0.00141704,0.00462035,0.00173748,0.87753,0.00269475,0.0147286,853,1569,-0.0751689,-13.3928
-364,-545,-0.0715332,13.6788,0.00240191,0.00463294,0.00228991,0.00606459,0.000970258,1.01205,0.00376159,0.00967029,860,1569,-0.0715076,-13.6788
-357,-545,-0.0266113,14.0215,0.00184488,0.00633451,0.00345545,0.0082103,-3.09078e-05,1.07346,0.00548386,0.0118297,867,1569,-0.0266056,-14.0215
-350,-545,-0.0122681,14.2955,0.00154305,0.00813906,0.00448926,0.0104115,-0.000729423,1.1022,0.0071965,0.017141,874,1569,-0.0122695,-14.2956
-343,-545,-0.000427246,14.5469,0.00107617,0.0104359,0.00619162,0.0135173,-0.00200523,1.10901,0.00974895,0.0263269,881,1569,-0.000436429,-14.5469
-336,-545,0.00598145,14.7324,-0.000295726,0.0130412,0.00821799,0.0169559,-0.00421045,1.12624,0.0129378,0.0363103,888,1569,0.00595667,-14.7324
-329,-545,0.00866699,14.9181,-0.00215866,0.016371,0.0110094,0.0214952,-0.00728284,1.13518,0.0172772,0.0480942,895,1569,0.00865797,-14.9181
-322,-545,0.0708008,15.1931,0,0,0,0,0,0,0,-1,902,1569,0.0708205,-15.1931
-315,-545,1.84412,16.5216,0,0,0,0,0,0,0,-1,909,1569,1.8441,-16.5216
-308,-545,1.29962,16.8386,0,0,0,0,0,0,0,-1,916,1569,1.29961,-16.8386
-301,-545,1.52191,17.5009,0,0,0,0,0,0,0,-1,923,1569,1.52192,-17.5008
-294,-545,-2.69287,8.42102,0,0,0,0,0,0,0,-1,930,1569,-2.69287,-8.42097
-287,-545,-3.47784,9.96021,0,0,0,0,0,0,0,-1,937,1569,-3.47785,-9.96021
-280,-545,-3.7879,10.5448,0,0,0,0,0,0,0,-1,944,1569,-3.78793,-10.5448
-273,-545,-5.10333,12.864,0,0,0,0,0,0,0,-1,951,1569,-5.10331,-12.864
-266,-545,-5.78955,13.3704,0,0,0,0,0,0,0,-1,958,1569,-5.78952,-13.3703
-259,-545,-6.32184,13.8101,0,0,0,0,0,0,0,-1,965,1569,-6.32182,-13.81
-252,-545,0.369263,7.54053,0,0,0,0,0,0,0,-1,972,1569,0.369276,-7.54056
-245,-545,-0.236633,6.65564,0,0,0,0,0,0,0,-1,979,1569,-0.236605,-6.65566
-238,-545,0,0,0,0,0,0,0,0,0,-1,986,1569,0,0
-231,-545,0,0,0,0,0,0,0,0,0,-1,993,1569,0,0
-224,-545,0,0,0,0,0,0,0,0,0,-1,1000,1569,0,0
-217,-545,0,0,0,0,0,0,0,0,0,-1,1007,1569,0,0
-210,-545,0,0,0,0,0,0,0,0,0,-1,1014,1569,0,0
-203,-545,0,0,0,0,0,0,0,0,0,-1,1021,1569,0,0
-196,-545,0,0,0,0,0,0,0,0,0,-1,1028,1569,0,0
-189,-545,0,0,0,0,0,0,0,0,0,-1,1035,1569,0,0
-182,-545,0,0,0,0,0,0,0,0,0,-1,1042,1569,0,0
-175,-545,0,0,0,0,0,0,0,0,0,-1,1049,1569,0,0
-168,-545,0,0,0,0,0,0,0,0,0,-1,1056,1569,0,0
-161,-545,0,0,0,0,0,0,0,0,0,-1,1063,1569,0,0
-154,-545,0,0,0,0,0,0,0,0,0,-1,1070,1569,0,0
-147,-545,0,0,0,0,0,0,0,0,0,-1,1077,1569,0,0
-140,-545,0,0,0,0,0,0,0,0,0,-1,1084,1569,0,0
-133,-545,0,0,0,0,0,0,0,0,0,-1,1091,1569,0,0
-126,-545,0,0,0,0,0,0,0,0,0,-1,1098,1569,0,0
-119,-545,0,0,0,0,0,0,0,0,0,-1,1105,1569,0,0
-112,-545,0,0,0,0,0,0,0,0,0,-1,1112,1569,0,0
-105,-545,0,0,0,0,0,0,0,0,0,-1,1119,1569,0,0
-98,-545,0,0,0,0,0,0,0,0,0,-1,1126,1569,0,0
-91,-545,0,0,0,0,0,0,0,0,0,-1,1133,1569,0,0
-84,-545,0,0,0,0,0,0,0,0,0,-1,1140,1569,0,0
-77,-545,0,0,0,0,0,0,0,0,0,-1,1147,1569,0,0
-70,-545,0,0,0,0,0,0,0,0,0,-1,1154,1569,0,0
-63,-545,0,0,0,0,0,0,0,0,0,-1,1161,1569,0,0
-56,-545,0,0,0,0,0,0,0,0,0,-1,1168,1569,0,0
-49,-545,0,0,0,0,0,0,0,0,0,-1,1175,1569,0,0
-42,-545,0,0,0,0,0,0,0,0,0,-1,1182,1569,0,0
-35,-545,0,0,0,0,0,0,0,0,0,-1,1189,1569,0,0
-28,-545,0,0,0,0,0,0,0,0,0,-1,1196,1569,0,0
-21,-545,0,0,0,0,0,0,0,0,0,-1,1203,1569,0,0
-14,-545,0,0,0,0,0,0,0,0,0,-1,1210,1569,0,0
-7,-545,0,0,0,0,0,0,0,0,0,-1,1217,1569,0,0
0,-545,0,0,0,0,0,0,0,0,0,-1,1224,1569,0,0
7,-545,0,0,0,0,0,0,0,0,0,-1,1231,1569,0,0
14,-545,0,0,0,0,0,0,0,0,0,-1,1238,1569,0,0
21,-545,0,0,0,0,0,0,0,0,0,-1,1245,1569,0,0
28,-545,0,0,0,0,0,0,0,0,0,-1,1252,1569,0,0
35,-545,0,0,0,0,0,0,0,0,0,-1,1259,1569,0,0
42,-545,0,0,0,0,0,0,0,0,0,-1,1266,1569,0,0
49,-545,0,0,0,0,0,0,0,0,0,-1,1273,1569,0,0
56,-545,0,0,0,0,0,0,0,0,0,-1,1280,1569,0,0
63,-545,0,0,0,0,0,0,0,0,0,-1,1287,1569,0,0
70,-545,0,0,0,0,0,0,0,0,0,-1,1294,1569,0,0
77,-545,0,0,0,0,0,0,0,0,0,-1,1301,1569,0,0
84,-545,0,0,0,0,0,0,0,0,0,-1,1308,1569,0,0
91,-545,0,0,0,0,0,0,0,0,0,-1,1315,1569,0,0
98,-545,0,0,0,0,0,0,0,0,0,-1,1322,1569,0,0
105,-545,0,0,0,0,0,0,0,0,0,-1,1329,1569,0,0
112,-545,0,0,0,0,0,0,0,0,0,-1,1336,1569,0,0
119,-545,0,0,0,0,0,0,0,0,0,-1,1343,1569,0,0
126,-545,0,0,0,0,0,0,0,0,0,-1,1350,1569,0,0
133,-545,0,0,0,0,0,0,0,0,0,-1,1357,1569,0,0
140,-545,0,0,0,0,0,0,0,0,0,-1,1364,1569,0,0
147,-545,0,0,0,0,0,0,0,0,0,-1,1371,1569,0,0
154,-545,0,0,0,0,0,0,0,0,0,-1,1378,1569,0,0
161,-545,0,0,0,0,0,0,0,0,0,-1,1385,1569,0,0
168,-545,0,0,0,0,0,0,0,0,0,-1,1392,1569,0,0
175,-545,0,0,0,0,0,0,0,0,0,-1,1399,1569,0,0
182,-545,0,0,0,0,0,0,0,0,0,-1,1406,1569,0,0
189,-545,0,0,0,0,0,0,0,0,0,-1,1413,1569,0,0
196,-545,0,0,0,0,0,0,0,0,0,-1,1420,1569,0,0
203,-545,0,0,0,0,0,0,0,0,0,-1,1427,1569,0,0
210,-545,0,0,0,0,0,0,0,0,0,-1,1434,1569,0,0
217,-545,0,0,0,0,0,0,0,0,0,-1,1441,1569,0,0
224,-545,0,0,0,0,0,0,0,0,0,-1,1448,1569,0,0
231,-545,0,0,0,0,0,0,0,0,0,-1,1455,1569,0,0
238,-545,0,0,0,0,0,0,0,0,0,-1,1462,1569,0,0
245,-545,0,0,0,0,0,0,0,0,0,-1,1469,1569,0,0
252,-545,0,0,0,0,0,0,0,0,0,-1,1476,1569,0,0
259,-545,0,0,0,0,0,0,0,0,0,-1,1483,1569,0,0
266,-545,0,0,0,0,0,0,0,0,0,-1,1490,1569,0,0
273,-545,0,0,0,0,0,0,0,0,0,-1,1497,1569,0,0
280,-545,0,0,0,0,0,0,0,0,0,-1,1504,1569,0,0
287,-545,0,0,0,0,0,0,0,0,0,-1,1511,1569,0,0
294,-545,0,0,0,0,0,0,0,0,0,-1,1518,1569,0,0
301,-545,0,0,0,0,0,0,0,0,0,-1,1525,1569,0,0
308,-545,0,0,0,0,0,0,0,0,0,-1,1532,1569,0,0
315,-545,0,0,0,0,0,0,0,0,0,-1,1539,1569,0,0
322,-545,0,0,0,0,0,0,0,0,0,-1,1546,1569,0,0
329,-545,0,0,0,0,0,0,0,0,0,-1,1553,1569,0,0
336,-545,0,0,0,0,0,0,0,0,0,-1,1560,1569,0,0
343,-545,0,0,0,0,0,0,0,0,0,-1,1567,1569,0,0
350,-545,0,0,0,0,0,0,0,0,0,-1,1574,1569,0,0
357,-545,0,0,0,0,0,0,0,0,0,-1,1581,1569,0,0
364,-545,7.19495,4.88098,0,0,0,0,0,0,0,-1,1588,1569,7.19497,-4.88095
371,-545,7.82324,3.84302,0,0,0,0,0,0,0,-1,1595,1569,7.82324,-3.84307
378,-545,7.65674,5.52673,0,0,0,0,0,0,0,-1,1602,1569,7.6567,-5.52667
385,-545,8.58447,1.16125,0,0,0,0,0,0,0,-1,1609,1569,8.5845,-1.1612
392,-545,12.5654,3.89526,0,0,0,0,0,0,0,-1,1616,1569,12.5655,-3.89532
399,-545,11.5869,5.6333,0,0,0,0,0,0,0,-1,1623,1569,11.5869,-5.63326
406,-545,11.234,6.36414,0,0,0,0,0,0,0,-1,1630,1569,11.234,-6.3641
413,-545,12.1521,13.4817,0,0,0,0,0,0,0,-1,1637,1569,12.1521,-13.4817
420,-545,11.1954,13.6047,0,0,0,0,0,0,0,-1,1644,1569,11.1954,-13.6047
427,-545,9.61072,14.9135,0,0,0,0,0,0,0,-1,1651,1569,9.61076,-14.9134
434,-545,9.21277,15.9408,0,0,0,0,0,0,0,-1,1658,1569,9.21275,-15.9408
441,-545,10.4657,16.3927,0,0,0,0,0,0,0,-1,1665,1569,10.4657,-16.3927
448,-545,11.6223,16.844,0,0,0,0,0,0,0,-1,1672,1569,11.6223,-16.844
455,-545,12.5392,17.6627,0,0,0,0,0,0,0,-1,1679,1569,12.5391,-17.6627
462,-545,11.4917,15.0461,0,0,0,0,0,0,0,-1,1686,1569,11.4917,-15.0462
469,-545,11.3193,14.9999,-0.0143041,-0.0200533,0.0234624,0.00645916,-0.0408166,0.724441,0.0296,0.0484888,1693,1569,11.3193,-14.9998
476,-545,11.0248,15.3962,-0.0138988,-0.0163445,0.0191006,0.00401801,-0.0342613,0.75343,0.0242912,0.0464604,1700,1569,11.0248,-15.3963
483,-545,11.019,15.3947,-0.0127971,-0.0134881,0.0155054,0.0023666,-0.0286519,0.774259,0.019937,0.0190563,1707,1569,11.019,-15.3946
490,-545,10.9644,15.1372,-0.0114678,-0.0108201,0.0124872,0.00134744,-0.0236353,0.798362,0.0162247,0.0122719,1714,1569,10.9643,-15.1372
497,-545,10.9708,14.8743,-0.00985858,-0.00843078,0.00981137,0.000692626,-0.018982,0.821715,0.0128917,0.0166449,1721,1569,10.9708,-14.8743
504,-545,11.0206,14.5995,-0.00851391,-0.00644451,0.00728206,-0.000124007,-0.0148344,0.85597,0.00984853,0.0151319,1728,1569,11.0206,-14.5995
511,-545,10.9976,14.3052,-0.00658061,-0.00453973,0.00547257,6.72787e-06,-0.0111271,0.877572,0.00742029,0.0104946,1735,1569,10.9975,-14.3052
518,-545,10.9844,14.0327,-0.00478966,-0.00291654,0.00387732,0.000135729,-0.00784193,0.903903,0.00527378,0.0121637,1742,1569,10.9843,-14.0328
525,-545,10.9763,13.7559,-0.00313036,-0.00139279,0.00245913,0.000346505,-0.00486965,0.955199,0.00336788,0.0132578,1749,1569,10.9763,-13.7559
532,-545,10.9578,13.4648,-0.00175551,-0.000481442,0.00141041,0.000429123,-0.00266607,0.997517,0.00193634,0.0134951,1756,1569,10.9578,-13.4648
539,-545,10.9413,13.1854,-0.00068952,0.000189873,0.000656244,0.000540107,-0.00103975,1.08056,0.000927213,0.0162683,1763,1569,10.9413,-13.1855
546,-545,10.9604,12.9187,0.000141243,0.000785134,0.000144987,0.000816275,0.000110102,1.35922,0.000511449,0.018341,1770,1569,10.9605,-12.9187
553,-545,10.9917,12.6168,0.000475704,0.00124503,-7.39882e-05,0.00125208,0.000468653,-1.47578,0.000730465,0.0263638,1777,1569,10.9916,-12.6168
560,-545,10.9943,12.2413,0.000470774,0.00149226,-9.27857e-05,0.00150062,0.000462415,-1.48094,0.000887385,0.0264092,1784,1569,10.9943,-12.2414
567,-545,10.8496,12.0803,0.000244627,0.00163993,0.000113246,0.00164906,0.000235495,1.49034,0.00102989,0.0475116,1791,1569,10.8496,-12.0803
574,-545,10.8005,11.777,-0.000516439,0.00211364,0.000347877,0.00215887,-0.000561674,1.44149,0.00165849,0.0403341,1798,1569,10.8006,-11.777
581,-545,11.0831,11.386,0,0,0,0,0,0,0,-1,1805,1569,11.0831,-11.386
588,-545,10.8762,11.0935,0,0,0,0,0,0,0,-1,1812,1569,10.8762,-11.0935
595,-545,10.2859,9.11218,0,0,0,0,0,0,0,-1,1819,1569,10.2858,-9.11215
602,-545,8.82117,6.32214,0,0,0,0,0,0,0,-1,1826,1569,8.82121,-6.32217
609,-545,10.2406,5.22351,0,0,0,0,0,0,0,-1,1833,1569,10.2406,-5.22353
616,-545,11.701,3.93188,0,0,0,0,0,0,0,-1,1840,1569,11.701,-3.93191
623,-545,13.2139,2.32043,0,0,0,0,0,0,0,-1,1847,1569,13.2139,-2.32042
630,-545,0,0,0,0,0,0,0,0,0,-1,1854,1569,0,0
637,-545,0,0,0,0,0,0,0,0,0,-1,1861,1569,0,0
644,-545,0,0,0,0,0,0,0,0,0,-1,1868,1569,0,0
651,-545,0,0,0,0,0,0,0,0,0,-1,1875,1569,0,0
658,-545,0,0,0,0,0,0,0,0,0,-1,1882,1569,0,0
665,-545,0,0,0,0,0,0,0,0,0,-1,1889,1569,0,0
672,-545,0,0,0,0,0,0,0,0,0,-1,1896,1569,0,0
679,-545,0,0,0,0,0,0,0,0,0,-1,1903,1569,0,0
686,-545,0,0,0,0,0,0,0,0,0,-1,1910,1569,0,0
693,-545,0,0,0,0,0,0,0,0,0,-1,1917,1569,0,0
700,-545,0,0,0,0,0,0,0,0,0,-1,1924,1569,0,0
707,-545,0,0,0,0,0,0,0,0,0,-1,1931,1569,0,0
714,-545,0,0,0,0,0,0,0,0,0,-1,1938,1569,0,0
721,-545,0,0,0,0,0,0,0,0,0,-1,1945,1569,0,0
728,-545,0,0,0,0,0,0,0,0,0,-1,1952,1569,0,0
735,-545,0,0,0,0,0,0,0,0,0,-1,1959,1569,0,0
742,-545,0,0,0,0,0,0,0,0,0,-1,1966,1569,0,0
749,-545,0,0,0,0,0,0,0,0,0,-1,1973,1569,0,0
756,-545,0,0,0,0,0,0,0,0,0,-1,1980,1569,0,0
763,-545,0,0,0,0,0,0,0,0,0,-1,1987,1569,0,0
770,-545,0,0,0,0,0,0,0,0,0,-1,1994,1569,0,0
777,-545,0,0,0,0,0,0,0,0,0,-1,2001,1569,0,0
784,-545,0,0,0,0,0,0,0,0,0,-1,2008,1569,0,0
791,-545,0,0,0,0,0,0,0,0,0,-1,2015,1569,0,0
798,-545,0,0,0,0,0,0,0,0,0,-1,2022,1569,0,0
805,-545,0,0,0,0,0,0,0,0,0,-1,2029,1569,0,0
812,-545,0,0,0,0,0,0,0,0,0,-1,2036,1569,0,0
-700,-552,0,0,0,0,0,0,0,0,0,-1,524,1576,0,0
-693,-552,0,0,0,0,0,0,0,0,0,-1,531,1576,0,0
-686,-552,0,0,0,0,0,0,0,0,0,-1,538,1576,0,0
-679,-552,0,0,0,0,0,0,0,0,0,-1,545,1576,0,0
-672,-552,0,0,0,0,0,0,0,0,0,-1,552,1576,0,0
-665,-552,0,0,0,0,0,0,0,0,0,-1,559,1576,0,0
-658,-552,0,0,0,0,0,0,0,0,0,-1,566,1576,0,0
-651,-552,0,0,0,0,0,0,0,0,0,-1,573,1576,0,0
-644,-552,0,0,0,0,0,0,0,0,0,-1,580,1576,0,0
-637,-552,0,0,0,0,0,0,0,0,0,-1,587,1576,0,0
-630,-552,0,0,0,0,0,0,0,0,0,-1,594,1576,0,0
-623,-552,0,0,0,0,0,0,0,0,0,-1,601,1576,0,0
-616,-552,0,0,0,0,0,0,0,0,0,-1,608,1576,0,0
-609,-552,0,0,0,0,0,0,0,0,0,-1,615,1576,0,0
-602,-552,0,0,0,0,0,0,0,0,0,-1,622,1576,0,0
-595,-552,0,0,0,0,0,0,0,0,0,-1,629,1576,0,0
-588,-552,0,0,0,0,0,0,0,0,0,-1,636,1576,0,0
-581,-552,0,0,0,0,0,0,0,0,0,-1,643,1576,0,0
-574,-552,0,0,0,0,0,0,0,0,0,-1,650,1576,0,0
-567,-552,0,0,0,0,0,0,0,0,0,-1,657,1576,0,0
-560,-552,0,0,0,0,0,0,0,0,0,-1,664,1576,0,0
-553,-552,0,0,0,0,0,0,0,0,0,-1,671,1576,0,0
-546,-552,0,0,0,0,0,0,0,0,0,-1,678,1576,0,0
-539,-552,0,0,0,0,0,0,0,0,0,-1,685,1576,0,0
-532,-552,0,0,0,0,0,0,0,0,0,-1,692,1576,0,0
-525,-552,0,0,0,0,0,0,0,0,0,-1,699,1576,0,0
-518,-552,0,0,0,0,0,0,0,0,0,-1,706,1576,0,0
-511,-552,0,0,0,0,0,0,0,0,0,-1,713,1576,0,0
-504,-552,0,0,0,0,0,0,0,0,0,-1,720,1576,0,0
-497,-552,1.51282,3.96924,0,0,0,0,0,0,0,-1,727,1576,1.5128,-3.96924
-490,-552,-3.82312,6.32104,0,0,0,0,0,0,0,-1,734,1576,-3.82314,-6.3211
-483,-552,-3.50586,6.47986,0,0,0,0,0,0,0,-1,741,1576,-3.50587,-6.47983
-476,-552,-2.87323,5.8656,0,0,0,0,0,0,0,-1,748,1576,-2.87322,-5.86563
-469,-552,-1.40491,7.9895,0,0,0,0,0,0,0,-1,755,1576,-1.40491,-7.98947
-462,-552,0.258972,6.98975,0,0,0,0,0,0,0,-1,762,1576,0.258987,-6.98975
-455,-552,0.555359,7.92358,0.00356058,0.0599486,0.0263728,0.0703607,-0.00685149,1.19478,0.0493497,0.04928,769,1576,0.555386,-7.9236
-448,-552,0.5271,8.8302,0.00405574,0.0470466,0.0222001,0.0564526,-0.00535026,1.17003,0.0395394,0.0432664,776,1576,0.527116,-8.8302
-441,-552,0.297974,10.0553,0.00401679,0.0357062,0.017939,0.0437961,-0.00407307,1.14714,0.0306455,0.037548,783,1576,0.297989,-10.0553
-434,-552,0.343018,10.6455,0.00369555,0.0263401,0.0141198,0.0331166,-0.00308086,1.12334,0.023173,0.0241018,790,1576,0.343013,-10.6455
-427,-552,0.256714,10.8837,0.00337085,0.0189932,0.0109458,0.0246291,-0.00226507,1.0953,0.0172242,0.019252,797,1576,0.256694,-10.8836
-420,-552,0.309448,11.2349,0.0029248,0.0131705,0.00812977,0.0176568,-0.00156156,1.06654,0.0123248,0.0199756,804,1576,0.309421,-11.2349
-413,-552,0.300903,11.5349,0.00240961,0.0089059,0.00582324,0.0123256,-0.00101012,1.0398,0.00857365,0.0171961,811,1576,0.300874,-11.5349
-406,-552,0.249512,11.8448,0.00200769,0.00520002,0.0040672,0.00797305,-0.000765337,0.972388,0.00558797,0.0130168,818,1576,0.249517,-11.8449
-399,-552,0.259644,12.1621,0.00164975,0.00271979,0.00263218,0.00487078,-0.000501239,0.885663,0.00342651,0.0135697,825,1576,0.259625,-12.1621
-392,-552,0.249084,12.4589,0.0014749,0.00167415,0.00164936,0.00322689,-7.78423e-05,0.815563,0.00217767,0.0149646,832,1576,0.249098,-12.4588
-385,-552,0.234741,12.7714,0.00139344,0.00150962,0.00097636,0.00242962,0.000473444,0.815111,0.00148726,0.0142475,839,1576,0.234713,-12.7714
-378,-552,0.232666,13.0704,0.00168611,0.00185201,0.000891933,0.00266484,0.000873279,0.831763,0.0015687,0.0154786,846,1576,0.232649,-13.0705
-371,-552,0.233887,13.3975,0.00219338,0.00239327,0.000941937,0.00324055,0.0013461,0.838254,0.00187984,0.0188079,853,1576,0.233877,-13.3975
-364,-552,0.237061,13.7136,0.00187192,0.00337264,0.00167261,0.0044555,0.000789067,0.996249,0.00274537,0.0149076,860,1576,0.237038,-13.7136
-357,-552,0.253113,13.9779,0.00152255,0.00475714,0.00268847,0.00627728,2.41213e-06,1.05618,0.00418405,0.00990761,867,1576,0.253134,-13.9779
-350,-552,0.258728,14.2708,0.00146467,0.00621816,0.00354398,0.00810858,-0.000425756,1.08077,0.00555308,0.00936057,874,1576,0.258756,-14.2707
-343,-552,0.241211,14.5433,0.00138613,0.00809335,0.00501187,0.0107701,-0.00129065,1.08025,0.00764669,0.0103234,881,1576,0.2412,-14.5433
-336,-552,0.296753,14.7576,0.000621827,0.0102017,0.00671921,0.0136635,-0.00283999,1.09505,0.0101885,0.0173042,888,1576,0.296768,-14.7576
-329,-552,0.335083,15.0317,-0.000450385,0.012935,0.00893875,0.0174089,-0.00492431,1.10674,0.013549,0.0368517,895,1576,0.335065,-15.0317
-322,-552,0.518494,15.4865,0,0,0,0,0,0,0,-1,902,1576,0.518479,-15.4864
-315,-552,1.23517,16.0717,-0.00366458,0.0193174,0.0143746,0.0262294,-0.0105766,1.12258,0.0218811,0.048093,909,1576,1.23517,-16.0717
-308,-552,0.73114,16.7487,-0.00547981,0.0229696,0.017231,0.0310888,-0.013599,1.13046,0.026451,0.0464537,916,1576,0.731168,-16.7487
-301,-552,0.126221,17.4729,0,0,0,0,0,0,0,-1,923,1576,0.126214,-17.4729
-294,-552,0.842163,13.7863,0,0,0,0,0,0,0,-1,930,1576,0.842149,-13.7863
-287,-552,-0.663757,13.3474,0,0,0,0,0,0,0,-1,937,1576,-0.663744,-13.3474
-280,-552,-5.47241,8.96765,0,0,0,0,0,0,0,-1,944,1576,-5.47239,-8.96766
-273,-552,1.64587,10.6685,0,0,0,0,0,0,0,-1,951,1576,1.6459,-10.6685
-266,-552,-1.32678,8.05688,0,0,0,0,0,0,0,-1,958,1576,-1.32677,-8.05683
-259,-552,-5.54321,8.31213,0,0,0,0,0,0,0,-1,965,1576,-5.54324,-8.31214
-252,-552,-1.93445,7.81543,0,0,0,0,0,0,0,-1,972,1576,-1.93445,-7.81546
-245,-552,-2.53613,6.92212,0,0,0,0,0,0,0,-1,979,1576,-2.53614,-6.92216
-238,-552,-6.5365,2.81885,0,0,0,0,0,0,0,-1,986,1576,-6.53649,-2.8188
-231,-552,-4.32239,4.34583,0,0,0,0,0,0,0,-1,993,1576,-4.32239,-4.34587
-224,-552,0,0,0,0,0,0,0,0,0,-1,1000,1576,0,0
-217,-552,0,0,0,0,0,0,0,0,0,-1,1007,1576,0,0
-210,-552,0,0,0,0,0,0,0,0,0,-1,1014,1576,0,0
-203,-552,0,0,0,0,0,0,0,0,0,-1,1021,1576,0,0
-196,-552,0,0,0,0,0,0,0,0,0,-1,1028,1576,0,0
-189,-552,0,0,0,0,0,0,0,0,0,-1,1035,1576,0,0
-182,-552,0,0,0,0,0,0,0,0,0,-1,1042,1576,0,0
-175,-552,0,0,0,0,0,0,0,0,0,-1,1049,1576,0,0
-168,-552,0,0,0,0,0,0,0,0,0,-1,1056,1576,0,0
-161,-552,0,0,0,0,0,0,0,0,0,-1,1063,1576,0,0
-154,-552,0,0,0,0,0,0,0,0,0,-1,1070,1576,0,0
-147,-552,0,0,0,0,0,0,0,0,0,-1,1077,1576,0,0
-140,-552,0,0,0,0,0,0,0,0,0,-1,1084,1576,0,0
-133,-552,0,0,0,0,0,0,0,0,0,-1,1091,1576,0,0
-126,-552,0,0,0,0,0,0,0,0,0,-1,1098,1576,0,0
-119,-552,0,0,0,0,0,0,0,0,0,-1,1105,1576,0,0
-112,-552,0,0,0,0,0,0,0,0,0,-1,1112,1576,0,0
-105,-552,0,0,0,0,0,0,0,0,0,-1,1119,1576,0,0
-98,-552,0,0,0,0,0,0,0,0,0,-1,1126,1576,0,0
-91,-552,0,0,0,0,0,0,0,0,0,-1,1133,1576,0,0
-84,-552,0,0,0,0,0,0,0,0,0,-1,1140,1576,0,0
-77,-552,0,0,0,0,0,0,0,0,0,-1,1147,1576,0,0
-70,-552,0,0,0,0,0,0,0,0,0,-1,1154,1576,0,0
-63,-552,0,0,0,0,0,0,0,0,0,-1,1161,1576,0,0
-56,-552,0,0,0,0,0,0,0,0,0,-1,1168,1576,0,0
-49,-552,0,0,0,0,0,0,0,0,0,-1,1175,1576,0,0
-42,-552,0,0,0,0,0,0,0,0,0,-1,1182,1576,0,0
-35,-552,0,0,0,0,0,0,0,0,0,-1,1189,1576,0,0
-28,-552,0,0,0,0,0,0,0,0,0,-1,1196,1576,0,0
-21,-552,0,0,0,0,0,0,0,0,0,-1,1203,1576,0,0
-14,-552,0,0,0,0,0,0,0,0,0,-1,1210,1576,0,0
-7,-552,0,0,0,0,0,0,0,0,0,-1,1217,1576,0,0
0,-552,0,0,0,0,0,0,0,0,0,-1,1224,1576,0,0
7,-552,0,0,0,0,0,0,0,0,0,-1,1231,1576,0,0
14,-552,0,0,0,0,0,0,0,0,0,-1,1238,1576,0,0
21,-552,0,0,0,0,0,0,0,0,0,-1,1245,1576,0,0
28,-552,0,0,0,0,0,0,0,0,0,-1,1252,1576,0,0
35,-552,0,0,0,0,0,0,0,0,0,-1,1259,1576,0,0
42,-552,0,0,0,0,0,0,0,0,0,-1,1266,1576,0,0
49,-552,0,0,0,0,0,0,0,0,0,-1,1273,1576,0,0
56,-552,0,0,0,0,0,0,0,0,0,-1,1280,1576,0,0
63,-552,0,0,0,0,0,0,0,0,0,-1,1287,1576,0,0
70,-552,0,0,0,0,0,0,0,0,0,-1,1294,1576,0,0
77,-552,0,0,0,0,0,0,0,0,0,-1,1301,1576,0,0
84,-552,0,0,0,0,0,0,0,0,0,-1,1308,1576,0,0
91,-552,0,0,0,0,0,0,0,0,0,-1,1315,1576,0,0
98,-552,0,0,0,0,0,0,0,0,0,-1,1322,1576,0,0
105,-552,0,0,0,0,0,0,0,0,0,-1,1329,1576,0,0
112,-552,0,0,0,0,0,0,0,0,0,-1,1336,1576,0,0
119,-552,0,0,0,0,0,0,0,0,0,-1,1343,1576,0,0
126,-552,0,0,0,0,0,0,0,0,0,-1,1350,1576,0,0
133,-552,0,0,0,0,0,0,0,0,0,-1,1357,1576,0,0
140,-552,0,0,0,0,0,0,0,0,0,-1,1364,1576,0,0
147,-552,0,0,0,0,0,0,0,0,0,-1,1371,1576,0,0
154,-552,0,0,0,0,0,0,0,0,0,-1,1378,1576,0,0
161,-552,0,0,0,0,0,0,0,0,0,-1,1385,1576,0,0
168,-552,0,0,0,0,0,0,0,0,0,-1,1392,1576,0,0
175,-552,0,0,0,0,0,0,0,0,0,-1,1399,1576,0,0
182,-552,0,0,0,0,0,0,0,0,0,-1,1406,1576,0,0
189,-552,0,0,0,0,0,0,0,0,0,-1,1413,1576,0,0
196,-552,0,0,0,0,0,0,0,0,0,-1,1420,1576,0,0
203,-552,0,0,0,0,0,0,0,0,0,-1,1427,1576,0,0
210,-552,0,0,0,0,0,0,0,0,0,-1,1434,1576,0,0
217,-552,0,0,0,0,0,0,0,0,0,-1,1441,1576,0,0
224,-552,0,0,0,0,0,0,0,0,0,-1,1448,1576,0,0
231,-552,0,0,0,0,0,0,0,0,0,-1,1455,1576,0,0
238,-552,0,0,0,0,0,0,0,0,0,-1,1462,1576,0,0
245,-552,0,0,0,0,0,0,0,0,0,-1,1469,1576,0,0
252,-552,0,0,0,0,0,0,0,0,0,-1,1476,1576,0,0
259,-552,0,0,0,0,0,0,0,0,0,-1,1483,1576,0,0
266,-552,0,0,0,0,0,0,0,0,0,-1,1490,1576,0,0
273,-552,0,0,0,0,0,0,0,0,0,-1,1497,1576,0,0
280,-552,0,0,0,0,0,0,0,0,0,-1,1504,1576,0,0
287,-552,0,0,0,0,0,0,0,0,0,-1,1511,1576,0,0
294,-552,0,0,0,0,0,0,0,0,0,-1,1518,1576,0,0
301,-552,0,0,0,0,0,0,0,0,0,-1,1525,1576,0,0
308,-552,0,0,0,0,0,0,0,0,0,-1,1532,1576,0,0
315,-552,0,0,0,0,0,0,0,0,0,-1,1539,1576,0,0
322,-552,0,0,0,0,0,0,0,0,0,-1,1546,1576,0,0
329,-552,0,0,0,0,0,0,0,0,0,-1,1553,1576,0,0
336,-552,0,0,0,0,0,0,0,0,0,-1,1560,1576,0,0
343,-552,0,0,0,0,0,0,0,0,0,-1,1567,1576,0,0
350,-552,4.97876,4.09888,0,0,0,0,0,0,0,-1,1574,1576,4.97875,-4.09883
357,-552,5.18469,4.10706,0,0,0,0,0,0,0,-1,1581,1576,5.1847,-4.10702
364,-552,5.80872,5.07031,0,0,0,0,0,0,0,-1,1588,1576,5.80874,-5.07037
371,-552,7.10657,5.64783,0,0,0,0,0,0,0,-1,1595,1576,7.10651,-5.64786
378,-552,6.44446,4.91492,0,0,0,0,0,0,0,-1,1602,1576,6.44448,-4.91496
385,-552,12.8276,3.16504,0,0,0,0,0,0,0,-1,1609,1576,12.8276,-3.16503
392,-552,12.1301,4.3363,0,0,0,0,0,0,0,-1,1616,1576,12.1302,-4.33631
399,-552,11.3486,5.6012,0,0,0,0,0,0,0,-1,1623,1576,11.3486,-5.60115
406,-552,10.7863,6.42542,0,0,0,0,0,0,0,-1,1630,1576,10.7863,-6.42536
413,-552,8.39307,10.365,0,0,0,0,0,0,0,-1,1637,1576,8.3931,-10.365
420,-552,10.2306,12.7225,0,0,0,0,0,0,0,-1,1644,1576,10.2305,-12.7226
427,-552,9.73267,14.783,0,0,0,0,0,0,0,-1,1651,1576,9.73269,-14.783
434,-552,8.83325,15.5182,0,0,0,0,0,0,0,-1,1658,1576,8.83321,-15.5182
441,-552,10.0629,15.9956,0,0,0,0,0,0,0,-1,1665,1576,10.0628,-15.9956
448,-552,11.0648,16.5406,-0.00681957,-0.024111,0.0309314,0.0166517,-0.0475823,0.64912,0.038492,0.0446192,1672,1576,11.0648,-16.5406
455,-552,11.6908,16.9659,0,0,0,0,0,0,0,-1,1679,1576,11.6909,-16.9659
462,-552,12.2095,17.1046,0,0,0,0,0,0,0,-1,1686,1576,12.2095,-17.1046
469,-552,10.7573,15.8225,-0.00952162,-0.0150872,0.0176762,0.00558948,-0.0301983,0.707323,0.0222309,0.0438592,1693,1576,10.7573,-15.8225
476,-552,10.6681,15.6893,-0.00923233,-0.0121539,0.0143346,0.00371573,-0.0251019,0.734621,0.0181008,0.0219479,1700,1576,10.6681,-15.6893
483,-552,10.7275,15.384,-0.00852335,-0.0100132,0.0116002,0.00235583,-0.0208924,0.753334,0.0147762,0.0157528,1707,1576,10.7276,-15.384
490,-552,10.6923,15.1407,-0.00760194,-0.00799607,0.00926051,0.0014636,-0.0170616,0.77476,0.0118923,0.015074,1714,1576,10.6923,-15.1408
497,-552,10.7084,14.88,-0.00645655,-0.00617297,0.00713419,0.000820841,-0.0134504,0.795334,0.00925266,0.0237284,1721,1576,10.7083,-14.88
504,-552,10.7322,14.6067,-0.00553337,-0.00463283,0.00512748,6.41118e-05,-0.0102303,0.829193,0.00684168,0.0237853,1728,1576,10.7322,-14.6067
511,-552,10.7283,14.3033,-0.00410434,-0.00310501,0.00367514,0.000104276,-0.00731363,0.852964,0.00491088,0.016216,1735,1576,10.7283,-14.3034
518,-552,10.7255,14.0332,-0.00276959,-0.00179099,0.00239342,0.000162632,-0.00472321,0.886227,0.00320439,0.0139721,1742,1576,10.7255,-14.0332
525,-552,10.7047,13.7637,-0.00151895,-0.000593666,0.00128277,0.000307336,-0.00241995,0.958468,0.0017249,0.0134499,1749,1576,10.7047,-13.7636
532,-552,10.6962,13.4656,-0.000487021,0.000112228,0.000481489,0.000379707,-0.0007545,1.06372,0.000666646,0.0140504,1756,1576,10.6961,-13.4656
539,-552,10.6691,13.1659,0.000276892,0.000608269,-4.05427e-05,0.000613157,0.000272003,-1.45081,0.000354756,0.0175949,1763,1576,10.6691,-13.1659
546,-552,10.6869,12.927,0.000793766,0.00102763,-0.00028571,0.00121941,0.000601986,-0.979635,0.000704047,0.0217887,1770,1576,10.6869,-12.927
553,-552,10.7424,12.6167,0.000781546,0.00140536,-0.000262174,0.00150091,0.000685996,-1.22131,0.000867617,0.0258486,1777,1576,10.7425,-12.6167
560,-552,10.7971,12.2444,0,0,0,0,0,0,0,-1,1784,1576,10.7972,-12.2444
567,-552,10.7836,11.8213,0,0,0,0,0,0,0,-1,1791,1576,10.7835,-11.8213
574,-552,10.767,11.6785,0,0,0,0,0,0,0,-1,1798,1576,10.7669,-11.6785
581,-552,9.74841,9.98645,0,0,0,0,0,0,0,-1,1805,1576,9.74847,-9.9864
588,-552,10.5619,9.34924,0,0,0,0,0,0,0,-1,1812,1576,10.5619,-9.34921
595,-552,5.36194,6.62744,0,0,0,0,0,0,0,-1,1819,1576,5.36193,-6.62742
602,-552,10.6863,4.31616,0,0,0,0,0,0,0,-1,1826,1576,10.6862,-4.31619
609,-552,12.146,3.18286,0,0,0,0,0,0,0,-1,1833,1576,12.1459,-3.18281
616,-552,13.8762,2.08167,0,0,0,0,0,0,0,-1,1840,1576,13.8763,-2.08167
623,-552,0,0,0,0,0,0,0,0,0,-1,1847,1576,0,0
630,-552,0,0,0,0,0,0,0,0,0,-1,1854,1576,0,0
637,-552,0,0,0,0,0,0,0,0,0,-1,1861,1576,0,0
644,-552,0,0,0,0,0,0,0,0,0,-1,1868,1576,0,0
651,-552,0,0,0,0,0,0,0,0,0,-1,1875,1576,0,0
658,-552,0,0,0,0,0,0,0,0,0,-1,1882,1576,0,0
665,-552,0,0,0,0,0,0,0,0,0,-1,1889,1576,0,0
672,-552,0,0,0,0,0,0,0,0,0,-1,1896,1576,0,0
679,-552,0,0,0,0,0,0,0,0,0,-1,1903,1576,0,0
686,-552,0,0,0,0,0,0,0,0,0,-1,1910,1576,0,0
693,-552,0,0,0,0,0,0,0,0,0,-1,1917,1576,0,0
700,-552,0,0,0,0,0,0,0,0,0,-1,1924,1576,0,0
707,-552,0,0,0,0,0,0,0,0,0,-1,1931,1576,0,0
714,-552,0,0,0,0,0,0,0,0,0,-1,1938,1576,0,0
721,-552,0,0,0,0,0,0,0,0,0,-1,1945,1576,0,0
728,-552,0,0,0,0,0,0,0,0,0,-1,1952,1576,0,0
735,-552,0,0,0,0,0,0,0,0,0,-1,1959,1576,0,0
742,-552,0,0,0,0,0,0,0,0,0,-1,1966,1576,0,0
749,-552,0,0,0,0,0,0,0,0,0,-1,1973,1576,0,0
756,-552,0,0,0,0,0,0,0,0,0,-1,1980,1576,0,0
763,-552,0,0,0,0,0,0,0,0,0,-1,1987,1576,0,0
770,-552,0,0,0,0,0,0,0,0,0,-1,1994,1576,0,0
777,-552,0,0,0,0,0,0,0,0,0,-1,2001,1576,0,0
784,-552,0,0,0,0,0,0,0,0,0,-1,2008,1576,0,0
791,-552,0,0,0,0,0,0,0,0,0,-1,2015,1576,0,0
798,-552,0,0,0,0,0,0,0,0,0,-1,2022,1576,0,0
805,-552,0,0,0,0,0,0,0,0,0,-1,2029,1576,0,0
812,-552,0,0,0,0,0,0,0,0,0,-1,2036,1576,0,0
-700,-559,0,0,0,0,0,0,0,0,0,-1,524,1583,0,0
-693,-559,0,0,0,0,0,0,0,0,0,-1,531,1583,0,0
-686,-559,0,0,0,0,0,0,0,0,0,-1,538,1583,0,0
-679,-559,0,0,0,0,0,0,0,0,0,-1,545,1583,0,0
-672,-559,0,0,0,0,0,0,0,0,0,-1,552,1583,0,0
-665,-559,0,0,0,0,0,0,0,0,0,-1,559,1583,0,0
-658,-559,0,0,0,0,0,0,0,0,0,-1,566,1583,0,0
-651,-559,0,0,0,0,0,0,0,0,0,-1,573,1583,0,0
-644,-559,0,0,0,0,0,0,0,0,0,-1,580,1583,0,0
-637,-559,0,0,0,0,0,0,0,0,0,-1,587,1583,0,0
-630,-559,0,0,0,0,0,0,0,0,0,-1,594,1583,0,0
-623,-559,0,0,0,0,0,0,0,0,0,-1,601,1583,0,0
-616,-559,0,0,0,0,0,0,0,0,0,-1,608,1583,0,0
-609,-559,0,0,0,0,0,0,0,0,0,-1,615,1583,0,0
-602,-559,0,0,0,0,0,0,0,0,0,-1,622,1583,0,0
-595,-559,0,0,0,0,0,0,0,0,0,-1,629,1583,0,0
-588,-559,0,0,0,0,0,0,0,0,0,-1,636,1583,0,0
-581,-559,0,0,0,0,0,0,0,0,0,-1,643,1583,0,0
-574,-559,0,0,0,0,0,0,0,0,0,-1,650,1583,0,0
-567,-559,0,0,0,0,0,0,0,0,0,-1,657,1583,0,0
-560,-559,0,0,0,0,0,0,0,0,0,-1,664,1583,0,0
-553,-559,0,0,0,0,0,0,0,0,0,-1,671,1583,0,0
-546,-559,0,0,0,0,0,0,0,0,0,-1,678,1583,0,0
-539,-559,0,0,0,0,0,0,0,0,0,-1,685,1583,0,0
-532,-559,0,0,0,0,0,0,0,0,0,-1,692,1583,0,0
-525,-559,0,0,0,0,0,0,0,0,0,-1,699,1583,0,0
-518,-559,0,0,0,0,0,0,0,0,0,-1,706,1583,0,0
-511,-559,0,0,0,0,0,0,0,0,0,-1,713,1583,0,0
-504,-559,0,0,0,0,0,0,0,0,0,-1,720,1583,0,0
-497,-559,0,0,0,0,0,0,0,0,0,-1,727,1583,0,0
-490,-559,-5.49835,4.47424,0,0,0,0,0,0,0,-1,734,1583,-5.49833,-4.4743
-483,-559,-5.24078,4.74561,0,0,0,0,0,0,0,-1,741,1583,-5.24079,-4.74563
-476,-559,-4.98022,4.99316,0,0,0,0,0,0,0,-1,748,1583,-4.98024,-4.99321
-469,-559,-4.6424,5.38062,0,0,0,0,0,0,0,-1,755,1583,-4.64237,-5.38058
-462,-559,-0.161865,6.49438,0,0,0,0,0,0,0,-1,762,1583,-0.161835,-6.49444
-455,-559,1.08826,7.02527,0,0,0,0,0,0,0,-1,769,1583,1.08823,-7.02529
-448,-559,-0.134399,8.24158,0,0,0,0,0,0,0,-1,776,1583,-0.134371,-8.24154
-441,-559,0.199402,9.21191,0.00715666,0.0445871,0.0239102,0.0562357,-0.00449187,1.11746,0.0390739,0.0444539,783,1583,0.199394,-9.21189
-434,-559,0.777161,10.5907,0.00595005,0.0321623,0.0182545,0.0415283,-0.00341597,1.09674,0.0288916,0.0368259,790,1583,0.777143,-10.5907
-427,-559,0.625366,11.0022,0.00491234,0.0227354,0.0137668,0.0302233,-0.00257553,1.07264,0.0210599,0.0263294,797,1583,0.625337,-11.0022
-420,-559,0.554688,11.2343,0.0039456,0.0154477,0.00997928,0.0212145,-0.00182117,1.0468,0.0147875,0.0276989,804,1583,0.554674,-11.2343
-413,-559,0.569641,11.547,0.00301352,0.0101963,0.00695214,0.0144299,-0.00122006,1.02381,0.0100513,0.0129478,811,1583,0.569649,-11.547
-406,-559,0.562317,11.8656,0.00232636,0.00576851,0.00470913,0.00906122,-0.000966348,0.960596,0.00638734,0.00953804,818,1583,0.562341,-11.8656
-399,-559,0.5672,12.1718,0.00175139,0.00273763,0.00290295,0.00518904,-0.000700025,0.86953,0.00371475,0.0123723,825,1583,0.567214,-12.1718
-392,-559,0.531921,12.4548,0.00138242,0.00132151,0.00165867,0.00301092,-0.000306981,0.776219,0.00211704,0.015503,832,1583,0.531916,-12.4549
-385,-559,0.52887,12.7596,0.0010361,0.000799268,0.00071012,0.00163761,0.000197756,0.702782,0.00103215,0.0166056,839,1583,0.528854,-12.7597
-378,-559,0.555969,13.0731,0.00118094,0.00108589,0.000567864,0.00170326,0.000563562,0.743651,0.00100195,0.0153758,846,1583,0.555939,-13.0732
-371,-559,0.514954,13.4263,0.00156569,0.00151018,0.000543326,0.00208197,0.000993903,0.759877,0.00120244,0.0219543,853,1583,0.514956,-13.4263
-364,-559,0.537109,13.7075,0.00138274,0.0023344,0.00114048,0.00309434,0.000622809,0.983028,0.00188981,0.0195913,860,1583,0.537119,-13.7076
-357,-559,0.546936,13.9694,0.00117722,0.0034753,0.00200596,0.00463801,1.45137e-05,1.04549,0.00308718,0.011805,867,1583,0.546911,-13.9694
-350,-559,0.549072,14.2416,0.00126442,0.00467412,0.00271607,0.00617607,-0.000237533,1.06566,0.0041988,0.00992875,874,1583,0.549056,-14.2416
-343,-559,0.533325,14.5352,0.00141623,0.00621564,0.00397092,0.00845563,-0.000823764,1.05719,0.00593078,0.0108236,881,1583,0.533323,-14.5352
-336,-559,0.50708,14.8044,0.00103226,0.00788148,0.00535847,0.0108162,-0.00190247,1.06974,0.00792148,0.0130785,888,1583,0.507093,-14.8045
-329,-559,0.587524,15.1611,0.000495242,0.0100716,0.00708473,0.0138344,-0.00326761,1.08256,0.0104833,0.020031,895,1583,0.587519,-15.1611
-322,-559,0.793091,15.5398,-0.000331703,0.0123816,0.00890757,0.0169681,-0.00491816,1.0953,0.0132591,0.0464451,902,1583,0.793063,-15.5398
-315,-559,0.842651,15.8402,-0.00120536,0.0149882,0.0110284,0.020573,-0.00679009,1.10205,0.0164526,0.0411329,909,1583,0.84268,-15.8402
-308,-559,0.726135,16.5363,-0.00214767,0.0176822,0.0129575,0.0240829,-0.00854843,1.11197,0.0195384,0.0389365,916,1583,0.72613,-16.5363
-301,-559,0.482361,17.2733,0,0,0,0,0,0,0,-1,923,1583,0.482359,-17.2733
-294,-559,1.59875,16.9091,0,0,0,0,0,0,0,-1,930,1583,1.59877,-16.909
-287,-559,-0.11792,15.4912,0,0,0,0,0,0,0,-1,937,1583,-0.117939,-15.4912
-280,-559,0.191467,13.5093,0,0,0,0,0,0,0,-1,944,1583,0.191441,-13.5093
-273,-559,2.12836,10.3059,0,0,0,0,0,0,0,-1,951,1583,2.12839,-10.3059
-266,-559,-0.597046,6.68933,0,0,0,0,0,0,0,-1,958,1583,-0.597031,-6.68937
-259,-559,-7.00311,8.62756,0,0,0,0,0,0,0,-1,965,1583,-7.00312,-8.6275
-252,-559,-9.4483,2.87805,0,0,0,0,0,0,0,-1,972,1583,-9.44829,-2.87805
-245,-559,-4.80804,7.1803,0,0,0,0,0,0,0,-1,979,1583,-4.80804,-7.18027
-238,-559,-8.45764,2.54858,0,0,0,0,0,0,0,-1,986,1583,-8.45763,-2.54862
-231,-559,-5.86914,4.34021,0,0,0,0,0,0,0,-1,993,1583,-5.86914,-4.34019
-224,-559,-3.30505,6.22864,0,0,0,0,0,0,0,-1,1000,1583,-3.30505,-6.22859
-217,-559,0,0,0,0,0,0,0,0,0,-1,1007,1583,0,0
-210,-559,0,0,0,0,0,0,0,0,0,-1,1014,1583,0,0
-203,-559,0,0,0,0,0,0,0,0,0,-1,1021,1583,0,0
-196,-559,0,0,0,0,0,0,0,0,0,-1,1028,1583,0,0
-189,-559,0,0,0,0,0,0,0,0,0,-1,1035,1583,0,0
-182,-559,0,0,0,0,0,0,0,0,0,-1,1042,1583,0,0
-175,-559,0,0,0,0,0,0,0,0,0,-1,1049,1583,0,0
-168,-559,0,0,0,0,0,0,0,0,0,-1,1056,1583,0,0
-161,-559,0,0,0,0,0,0,0,0,0,-1,1063,1583,0,0
-154,-559,0,0,0,0,0,0,0,0,0,-1,1070,1583,0,0
-147,-559,0,0,0,0,0,0,0,0,0,-1,1077,1583,0,0
-140,-559,0,0,0,0,0,0,0,0,0,-1,1084,1583,0,0
-133,-559,0,0,0,0,0,0,0,0,0,-1,1091,1583,0,0
-126,-559,0,0,0,0,0,0,0,0,0,-1,1098,1583,0,0
-119,-559,0,0,0,0,0,0,0,0,0,-1,1105,1583,0,0
-112,-559,0,0,0,0,0,0,0,0,0,-1,1112,1583,0,0
-105,-559,0,0,0,0,0,0,0,0,0,-1,1119,1583,0,0
-98,-559,0,0,0,0,0,0,0,0,0,-1,1126,1583,0,0
-91,-559,0,0,0,0,0,0,0,0,0,-1,1133,1583,0,0
-84,-559,0,0,0,0,0,0,0,0,0,-1,1140,1583,0,0
-77,-559,0,0,0,0,0,0,0,0,0,-1,1147,1583,0,0
-70,-559,0,0,0,0,0,0,0,0,0,-1,1154,1583,0,0
-63,-559,0,0,0,0,0,0,0,0,0,-1,1161,1583,0,0
-56,-559,0,0,0,0,0,0,0,0,0,-1,1168,1583,0,0
-49,-559,0,0,0,0,0,0,0,0,0,-1,1175,1583,0,0
-42,-559,0,0,0,0,0,0,0,0,0,-1,1182,1583,0,0
-35,-559,0,0,0,0,0,0,0,0,0,-1,1189,1583,0,0
-28,-559,0,0,0,0,0,0,0,0,0,-1,1196,1583,0,0
-21,-559,0,0,0,0,0,0,0,0,0,-1,1203,1583,0,0
-14,-559,0,0,0,0,0,0,0,0,0,-1,1210,1583,0,0
-7,-559,0,0,0,0,0,0,0,0,0,-1,1217,1583,0,0
0,-559,0,0,0,0,0,0,0,0,0,-1,1224,1583,0,0
7,-559,0,0,0,0,0,0,0,0,0,-1,1231,1583,0,0
14,-559,0,0,0,0,0,0,0,0,0,-1,1238,1583,0,0
21,-559,0,0,0,0,0,0,0,0,0,-1,1245,1583,0,0
28,-559,0,0,0,0,0,0,0,0,0,-1,1252,1583,0,0
35,-559,0,0,0,0,0,0,0,0,0,-1,1259,1583,0,0
42,-559,0,0,0,0,0,0,0,0,0,-1,1266,1583,0,0
49,-559,0,0,0,0,0,0,0,0,0,-1,1273,1583,0,0
56,-559,0,0,0,0,0,0,0,0,0,-1,1280,1583,0,0
63,-559,0,0,0,0,0,0,0,0,0,-1,1287,1583,0,0
70,-559,0,0,0,0,0,0,0,0,0,-1,1294,1583,0,0
77,-559,0,0,0,0,0,0,0,0,0,-1,1301,1583,0,0
84,-559,0,0,0,0,0,0,0,0,0,-1,1308,1583,0,0
91,-559,0,0,0,0,0,0,0,0,0,-1,1315,1583,0,0
98,-559,0,0,0,0,0,0,0,0,0,-1,1322,1583,0,0
105,-559,0,0,0,0,0,0,0,0,0,-1,1329,1583,0,0
112,-559,0,0,0,0,0,0,0,0,0,-1,1336,1583,0,0
119,-559,0,0,0,0,0,0,0,0,0,-1,1343,1583,0,0
126,-559,0,0,0,0,0,0,0,0,0,-1,1350,1583,0,0
133,-559,0,0,0,0,0,0,0,0,0,-1,1357,1583,0,0
140,-559,0,0,0,0,0,0,0,0,0,-1,1364,1583,0,0
147,-559,0,0,0,0,0,0,0,0,0,-1,1371,1583,0,0
154,-559,0,0,0,0,0,0,0,0,0,-1,1378,1583,0,0
161,-559,0,0,0,0,0,0,0,0,0,-1,1385,1583,0,0
168,-559,0,0,0,0,0,0,0,0,0,-1,1392,1583,0,0
175,-559,0,0,0,0,0,0,0,0,0,-1,1399,1583,0,0
182,-559,0,0,0,0,0,0,0,0,0,-1,1406,1583,0,0
189,-559,0,0,0,0,0,0,0,0,0,-1,1413,1583,0,0
196,-559,0,0,0,0,0,0,0,0,0,-1,1420,1583,0,0
203,-559,0,0,0,0,0,0,0,0,0,-1,1427,1583,0,0
210,-559,0,0,0,0,0,0,0,0,0,-1,1434,1583,0,0
217,-559,0,0,0,0,0,0,0,0,0,-1,1441,1583,0,0
224,-559,0,0,0,0,0,0,0,0,0,-1,1448,1583,0,0
231,-559,0,0,0,0,0,0,0,0,0,-1,1455,1583,0,0
238,-559,0,0,0,0,0,0,0,0,0,-1,1462,1583,0,0
245,-559,0,0,0,0,0,0,0,0,0,-1,1469,1583,0,0
252,-559,0,0,0,0,0,0,0,0,0,-1,1476,1583,0,0
259,-559,0,0,0,0,0,0,0,0,0,-1,1483,1583,0,0
266,-559,0,0,0,0,0,0,0,0,0,-1,1490,1583,0,0
273,-559,0,0,0,0,0,0,0,0,0,-1,1497,1583,0,0
280,-559,0,0,0,0,0,0,0,0,0,-1,1504,1583,0,0
287,-559,0,0,0,0,0,0,0,0,0,-1,1511,1583,0,0
294,-559,0,0,0,0,0,0,0,0,0,-1,1518,1583,0,0
301,-559,0,0,0,0,0,0,0,0,0,-1,1525,1583,0,0
308,-559,0,0,0,0,0,0,0,0,0,-1,1532,1583,0,0
315,-559,0,0,0,0,0,0,0,0,0,-1,1539,1583,0,0
322,-559,0,0,0,0,0,0,0,0,0,-1,1546,1583,0,0
329,-559,0,0,0,0,0,0,0,0,0,-1,1553,1583,0,0
336,-559,5.97668,3.09827,0,0,0,0,0,0,0,-1,1560,1583,5.97667,-3.09824
343,-559,5.44824,2.88696,0,0,0,0,0,0,0,-1,1567,1583,5.44819,-2.88693
350,-559,4.69775,3.27051,0,0,0,0,0,0,0,-1,1574,1583,4.69771,-3.27048
357,-559,3.88025,3.60999,0,0,0,0,0,0,0,-1,1581,1583,3.88027,-3.60998
364,-559,5.00928,5.32605,0,0,0,0,0,0,0,-1,1588,1583,5.00928,-5.32607
371,-559,1.84436,2.52441,0,0,0,0,0,0,0,-1,1595,1583,1.84441,-2.52447
378,-559,6.34753,1.53137,0,0,0,0,0,0,0,-1,1602,1583,6.34752,-1.53139
385,-559,6.95911,1.48181,0,0,0,0,0,0,0,-1,1609,1583,6.95916,-1.48175
392,-559,11.6949,4.77734,0,0,0,0,0,0,0,-1,1616,1583,11.6949,-4.77731
399,-559,11.1104,5.56909,0,0,0,0,0,0,0,-1,1623,1583,11.1103,-5.56905
406,-559,10.3385,6.48657,0,0,0,0,0,0,0,-1,1630,1583,10.3385,-6.48661
413,-559,9.76147,6.97571,0,0,0,0,0,0,0,-1,1637,1583,9.76143,-6.97574
420,-559,7.77124,10.5851,0,0,0,0,0,0,0,-1,1644,1583,7.77128,-10.585
427,-559,10.1022,12.5565,0,0,0,0,0,0,0,-1,1651,1583,10.1021,-12.5565
434,-559,9.62769,14.6309,0,0,0,0,0,0,0,-1,1658,1583,9.62771,-14.6309
441,-559,10.3553,16.2911,0,0,0,0,0,0,0,-1,1665,1583,10.3554,-16.2911
448,-559,10.5411,16.2911,0,0,0,0,0,0,0,-1,1672,1583,10.5411,-16.2912
455,-559,10.5121,16.3795,0,0,0,0,0,0,0,-1,1679,1583,10.5121,-16.3795
462,-559,10.4949,16.0605,-0.00624671,-0.0134088,0.0159076,0.00647793,-0.0261334,0.674686,0.0199356,0.0476709,1686,1583,10.4949,-16.0605
469,-559,10.3805,15.9766,-0.00619675,-0.0111471,0.0130355,0.00459653,-0.0219404,0.691576,0.0163756,0.0235919,1693,1583,10.3805,-15.9765
476,-559,10.3998,15.6802,-0.00587764,-0.00887668,0.0105016,0.00323095,-0.0179853,0.714483,0.0131996,0.0107438,1700,1583,10.3998,-15.6802
483,-559,10.4392,15.3845,-0.00531611,-0.00727167,0.0084065,0.00216928,-0.0147571,0.727502,0.0106351,0.0116762,1707,1583,10.4392,-15.3846
490,-559,10.427,15.13,-0.00458821,-0.00575318,0.00658072,0.00143576,-0.0117771,0.741257,0.00837116,0.015353,1714,1583,10.427,-15.13
497,-559,10.4131,14.8612,-0.00370117,-0.00436199,0.0048764,0.000855999,-0.00891916,0.751571,0.006251,0.0196826,1721,1583,10.4131,-14.8612
504,-559,10.4203,14.5924,-0.00301468,-0.00316443,0.00330149,0.000212784,-0.00639189,0.774061,0.00433393,0.0238582,1728,1583,10.4203,-14.5924
511,-559,10.4187,14.3073,-0.00194234,-0.00194078,0.00213502,0.00019346,-0.00407658,0.78558,0.00278445,0.0202802,1735,1583,10.4186,-14.3072
518,-559,10.4479,14.0359,-0.000967949,-0.000877639,0.00111266,0.000190778,-0.00203637,0.805678,0.00142543,0.0129975,1742,1583,10.4479,-14.0359
525,-559,10.4443,13.7657,-9.28347e-05,2.74e-05,0.000278538,0.000252234,-0.000317669,0.891684,0.000329756,0.0112236,1749,1583,10.4443,-13.7657
532,-559,10.4318,13.4735,0.000578818,0.000565608,-0.000291757,0.000864045,0.000280381,-0.774081,0.000508997,0.0133425,1756,1583,10.4318,-13.4736
539,-559,10.417,13.1913,0.000968833,0.000916144,-0.000580816,0.0015239,0.000361075,-0.762735,0.000919519,0.0182461,1763,1583,10.4169,-13.1913
546,-559,10.4038,12.9159,0.00104339,0.00117237,-0.00053462,0.00164638,0.000569387,-0.845424,0.000965479,0.0167064,1770,1583,10.4038,-12.9159
553,-559,10.5338,12.5763,0.00053669,0.00148254,-0.000232427,0.00153657,0.000482662,-1.3424,0.000907344,0.0249782,1777,1583,10.5338,-12.5763
560,-559,10.5356,12.1963,0,0,0,0,0,0,0,-1,1784,1583,10.5356,-12.1963
567,-559,9.41101,10.62,0,0,0,0,0,0,0,-1,1791,1583,9.41101,-10.62
574,-559,10.5109,10.7317,0,0,0,0,0,0,0,-1,1798,1583,10.5108,-10.7317
581,-559,5.97095,5.96179,0,0,0,0,0,0,0,-1,1805,1583,5.97093,-5.96181
588,-559,5.79102,5.89954,0,0,0,0,0,0,0,-1,1812,1583,5.79098,-5.89949
595,-559,5.79089,6.24231,0,0,0,0,0,0,0,-1,1819,1583,5.7909,-6.24227
602,-559,12.478,2.35669,0,0,0,0,0,0,0,-1,1826,1583,12.4781,-2.35675
609,-559,14.0479,1.22681,0,0,0,0,0,0,0,-1,1833,1583,14.0479,-1.22681
616,-559,0,0,0,0,0,0,0,0,0,-1,1840,1583,0,0
623,-559,0,0,0,0,0,0,0,0,0,-1,1847,1583,0,0
630,-559,0,0,0,0,0,0,0,0,0,-1,1854,1583,0,0
637,-559,0,0,0,0,0,0,0,0,0,-1,1861,1583,0,0
644,-559,0,0,0,0,0,0,0,0,0,-1,1868,1583,0,0
651,-559,0,0,0,0,0,0,0,0,0,-1,1875,1583,0,0
658,-559,0,0,0,0,0,0,0,0,0,-1,1882,1583,0,0
665,-559,0,0,0,0,0,0,0,0,0,-1,1889,1583,0,0
672,-559,0,0,0,0,0,0,0,0,0,-1,1896,1583,0,0
679,-559,0,0,0,0,0,0,0,0,0,-1,1903,1583,0,0
686,-559,0,0,0,0,0,0,0,0,0,-1,1910,1583,0,0
693,-559,0,0,0,0,0,0,0,0,0,-1,1917,1583,0,0
700,-559,0,0,0,0,0,0,0,0,0,-1,1924,1583,0,0
707,-559,0,0,0,0,0,0,0,0,0,-1,1931,1583,0,0
714,-559,0,0,0,0,0,0,0,0,0,-1,1938,1583,0,0
721,-559,0,0,0,0,0,0,0,0,0,-1,1945,1583,0,0
728,-559,0,0,0,0,0,0,0,0,0,-1,1952,1583,0,0
735,-559,0,0,0,0,0,0,0,0,0,-1,1959,1583,0,0
742,-559,0,0,0,0,0,0,0,0,0,-1,1966,1583,0,0
749,-559,0,0,0,0,0,0,0,0,0,-1,1973,1583,0,0
756,-559,0,0,0,0,0,0,0,0,0,-1,1980,1583,0,0
763,-559,0,0,0,0,0,0,0,0,0,-1,1987,1583,0,0
770,-559,0,0,0,0,0,0,0,0,0,-1,1994,1583,0,0
777,-559,0,0,0,0,0,0,0,0,0,-1,2001,1583,0,0
784,-559,0,0,0,0,0,0,0,0,0,-1,2008,1583,0,0
791,-559,0,0,0,0,0,0,0,0,0,-1,2015,1583,0,0
798,-559,0,0,0,0,0,0,0,0,0,-1,2022,1583,0,0
805,-559,0,0,0,0,0,0,0,0,0,-1,2029,1583,0,0
812,-559,0,0,0,0,0,0,0,0,0,-1,2036,1583,0,0
-700,-566,0,0,0,0,0,0,0,0,0,-1,524,1590,0,0
-693,-566,0,0,0,0,0,0,0,0,0,-1,531,1590,0,0
-686,-566,0,0,0,0,0,0,0,0,0,-1,538,1590,0,0
-679,-566,0,0,0,0,0,0,0,0,0,-1,545,1590,0,0
-672,-566,0,0,0,0,0,0,0,0,0,-1,552,1590,0,0
-665,-566,0,0,0,0,0,0,0,0,0,-1,559,1590,0,0
-658,-566,0,0,0,0,0,0,0,0,0,-1,566,1590,0,0
-651,-566,0,0,0,0,0,0,0,0,0,-1,573,1590,0,0
-644,-566,0,0,0,0,0,0,0,0,0,-1,580,1590,0,0
-637,-566,0,0,0,0,0,0,0,0,0,-1,587,1590,0,0
-630,-566,0,0,0,0,0,0,0,0,0,-1,594,1590,0,0
-623,-566,0,0,0,0,0,0,0,0,0,-1,601,1590,0,0
-616,-566,0,0,0,0,0,0,0,0,0,-1,608,1590,0,0
-609,-566,0,0,0,0,0,0,0,0,0,-1,615,1590,0,0
-602,-566,0,0,0,0,0,0,0,0,0,-1,622,1590,0,0
-595,-566,0,0,0,0,0,0,0,0,0,-1,629,1590,0,0
-588,-566,0,0,0,0,0,0,0,0,0,-1,636,1590,0,0
-581,-566,0,0,0,0,0,0,0,0,0,-1,643,1590,0,0
-574,-566,0,0,0,0,0,0,0,0,0,-1,650,1590,0,0
-567,-566,0,0,0,0,0,0,0,0,0,-1,657,1590,0,0
-560,-566,0,0,0,0,0,0,0,0,0,-1,664,1590,0,0
-553,-566,0,0,0,0,0,0,0,0,0,-1,671,1590,0,0
-546,-566,0,0,0,0,0,0,0,0,0,-1,678,1590,0,0
-539,-566,0,0,0,0,0,0,0,0,0,-1,685,1590,0,0
-532,-566,0,0,0,0,0,0,0,0,0,-1,692,1590,0,0
-525,-566,0,0,0,0,0,0,0,0,0,-1,699,1590,0,0
-518,-566,0,0,0,0,0,0,0,0,0,-1,706,1590,0,0
-511,-566,0,0,0,0,0,0,0,0,0,-1,713,1590,0,0
-504,-566,0,0,0,0,0,0,0,0,0,-1,720,1590,0,0
-497,-566,0,0,0,0,0,0,0,0,0,-1,727,1590,0,0
-490,-566,0,0,0,0,0,0,0,0,0,-1,734,1590,0,0
-483,-566,-7.17084,2.78613,0,0,0,0,0,0,0,-1,741,1590,-7.17083,-2.78618
-476,-566,-7.13971,2.87183,0,0,0,0,0,0,0,-1,748,1590,-7.13971,-2.87184
-469,-566,-6.43829,3.2998,0,0,0,0,0,0,0,-1,755,1590,-6.43829,-3.2998
-462,-566,-0.459106,3.89343,0,0,0,0,0,0,0,-1,762,1590,-0.459095,-3.89341
-455,-566,0.280212,4.74023,0,0,0,0,0,0,0,-1,769,1590,0.280207,-4.74023
-448,-566,0.436951,5.51306,0,0,0,0,0,0,0,-1,776,1590,0.436971,-5.51301
-441,-566,0.351013,8.60754,0,0,0,0,0,0,0,-1,783,1590,0.350987,-8.6075
-434,-566,1.15369,10.5758,0,0,0,0,0,0,0,-1,790,1590,1.1537,-10.5758
-427,-566,0.521912,10.8436,0.00678479,0.0266608,0.0168407,0.0362771,-0.00283159,1.05196,0.0251817,0.0435415,797,1590,0.521929,-10.8436
-420,-566,0.744202,11.4138,0.00513825,0.0177309,0.0119002,0.0248978,-0.00202865,1.02872,0.0173144,0.0419891,804,1590,0.744184,-11.4139
-413,-566,0.85907,11.5822,0.00368589,0.0114125,0.00805749,0.016485,-0.0013866,1.00894,0.0114801,0.020071,811,1590,0.859076,-11.5822
-406,-566,0.874695,11.8634,0.00266147,0.00628436,0.00529475,0.010069,-0.00112314,0.950217,0.00711662,0.0101544,818,1590,0.874713,-11.8634
-399,-566,0.877258,12.158,0.00184222,0.00277023,0.00312935,0.00546979,-0.000857339,0.858999,0.00396334,0.00956867,825,1590,0.877251,-12.158
-392,-566,0.846741,12.464,0.00128088,0.00105185,0.00166553,0.00283582,-0.000503092,0.751074,0.00207864,0.0118719,832,1590,0.846715,-12.4639
-385,-566,0.859375,12.7959,0.000700169,0.000235554,0.000502085,0.00102109,-8.53614e-05,0.568722,0.000710888,0.0152274,839,1590,0.85938,-12.796
-378,-566,0.86377,13.1157,0.000720772,0.000480177,0.000322394,0.000944581,0.000256368,0.60683,0.000564032,0.0158859,846,1590,0.863756,-13.1157
-371,-566,0.802795,13.4023,0.0010096,0.000801128,0.00024158,0.00116847,0.000642255,0.581729,0.000675725,0.0219264,853,1590,0.802799,-13.4024
-364,-566,0.831177,13.7017,0.000960989,0.00148247,0.000711838,0.00197982,0.00046364,0.960955,0.00119568,0.021618,860,1590,0.831148,-13.7017
-357,-566,0.82959,13.9553,0.000899575,0.00240259,0.00143152,0.00326787,3.4294e-05,1.02711,0.00216724,0.0174416,867,1590,0.829609,-13.9553
-350,-566,0.820862,14.2452,0.00109181,0.00338512,0.00201143,0.00455377,-7.68504e-05,1.04446,0.00306179,0.0211584,874,1590,0.820888,-14.2452
-343,-566,0.844482,14.5439,0.00137645,0.00463924,0.0030521,0.00646859,-0.000452898,1.03084,0.00447101,0.0260885,881,1590,0.844465,-14.544
-336,-566,0.765869,14.824,0.00125577,0.00596495,0.00417067,0.00839978,-0.00117906,1.04237,0.00603141,0.0240169,888,1590,0.765868,-14.824
-329,-566,0.841309,15.0734,0.00105998,0.00772616,0.0054835,0.0108101,-0.00202395,1.05848,0.00796754,0.0154954,895,1590,0.841329,-15.0733
-322,-566,0.910706,15.4211,0.000663449,0.00954182,0.00679159,0.0132163,-0.00301106,1.07486,0.00996735,0.0194623,902,1590,0.91069,-15.4211
-315,-566,0.83844,15.6464,0.000247661,0.0115125,0.00826086,0.0158784,-0.00411822,1.08461,0.0121924,0.0336874,909,1590,0.838415,-15.6464
-308,-566,0.753906,16.0043,-0.000193526,0.0134234,0.00947,0.0182784,-0.00504852,1.09706,0.0141714,0.038861,916,1590,0.753911,-16.0043
-301,-566,0.854919,16.3662,-0.000403852,0.0150044,0.0106209,0.0204211,-0.0058206,1.09917,0.0159132,0.047523,923,1590,0.854896,-16.3662
-294,-566,1.49512,16.7094,-0.000382433,0.0155532,0.0115218,0.0215939,-0.00642315,1.08791,0.0169477,0.0498265,930,1590,1.4951,-16.7093
-287,-566,1.00354,16.7781,0,0,0,0,0,0,0,-1,937,1590,1.00355,-16.7781
-280,-566,0.936462,16.7036,0,0,0,0,0,0,0,-1,944,1590,0.936476,-16.7036
-273,-566,0.49762,11.2427,0,0,0,0,0,0,0,-1,951,1590,0.497591,-11.2426
-266,-566,0.392151,6.90295,0,0,0,0,0,0,0,-1,958,1590,0.392151,-6.90294
-259,-566,0.343628,6.47437,0,0,0,0,0,0,0,-1,965,1590,0.34363,-6.47438
-252,-566,-7.68311,1.01343,0,0,0,0,0,0,0,-1,972,1590,-7.68308,-1.01348
-245,-566,-11.1835,1.97522,0,0,0,0,0,0,0,-1,979,1590,-11.1835,-1.97527
-238,-566,-10.4883,2.40491,0,0,0,0,0,0,0,-1,986,1590,-10.4883,-2.40487
-231,-566,-7.41827,4.22803,0,0,0,0,0,0,0,-1,993,1590,-7.41827,-4.22803
-224,-566,-4.67188,6.30859,0,0,0,0,0,0,0,-1,1000,1590,-4.67185,-6.30853
-217,-566,-2.82867,7.52527,0,0,0,0,0,0,0,-1,1007,1590,-2.82869,-7.52531
-210,-566,-1.03436,8.67737,0,0,0,0,0,0,0,-1,1014,1590,-1.03439,-8.67733
-203,-566,0,0,0,0,0,0,0,0,0,-1,1021,1590,0,0
-196,-566,0,0,0,0,0,0,0,0,0,-1,1028,1590,0,0
-189,-566,0,0,0,0,0,0,0,0,0,-1,1035,1590,0,0
-182,-566,0,0,0,0,0,0,0,0,0,-1,1042,1590,0,0
-175,-566,0,0,0,0,0,0,0,0,0,-1,1049,1590,0,0
-168,-566,0,0,0,0,0,0,0,0,0,-1,1056,1590,0,0
-161,-566,0,0,0,0,0,0,0,0,0,-1,1063,1590,0,0
-154,-566,0,0,0,0,0,0,0,0,0,-1,1070,1590,0,0
-147,-566,0,0,0,0,0,0,0,0,0,-1,1077,1590,0,0
-140,-566,0,0,0,0,0,0,0,0,0,-1,1084,1590,0,0
-133,-566,0,0,0,0,0,0,0,0,0,-1,1091,1590,0,0
-126,-566,0,0,0,0,0,0,0,0,0,-1,1098,1590,0,0
-119,-566,0,0,0,0,0,0,0,0,0,-1,1105,1590,0,0
-112,-566,0,0,0,0,0,0,0,0,0,-1,1112,1590,0,0
-105,-566,0,0,0,0,0,0,0,0,0,-1,1119,1590,0,0
-98,-566,0,0,0,0,0,0,0,0,0,-1,1126,1590,0,0
-91,-566,0,0,0,0,0,0,0,0,0,-1,1133,1590,0,0
-84,-566,0,0,0,0,0,0,0,0,0,-1,1140,1590,0,0
-77,-566,0,0,0,0,0,0,0,0,0,-1,1147,1590,0,0
-70,-566,0,0,0,0,0,0,0,0,0,-1,1154,1590,0,0
-63,-566,0,0,0,0,0,0,0,0,0,-1,1161,1590,0,0
-56,-566,0,0,0,0,0,0,0,0,0,-1,1168,1590,0,0
-49,-566,0,0,0,0,0,0,0,0,0,-1,1175,1590,0,0
-42,-566,0,0,0,0,0,0,0,0,0,-1,1182,1590,0,0
-35,-566,0,0,0,0,0,0,0,0,0,-1,1189,1590,0,0
-28,-566,0,0,0,0,0,0,0,0,0,-1,1196,1590,0,0
-21,-566,0,0,0,0,0,0,0,0,0,-1,1203,1590,0,0
-14,-566,0,0,0,0,0,0,0,0,0,-1,1210,1590,0,0
-7,-566,0,0,0,0,0,0,0,0,0,-1,1217,1590,0,0
0,-566,0,0,0,0,0,0,0,0,0,-1,1224,1590,0,0
7,-566,0,0,0,0,0,0,0,0,0,-1,1231,1590,0,0
14,-566,0,0,0,0,0,0,0,0,0,-1,1238,1590,0,0
21,-566,0,0,0,0,0,0,0,0,0,-1,1245,1590,0,0
28,-566,0,0,0,0,0,0,0,0,0,-1,1252,1590,0,0
35,-566,0,0,0,0,0,0,0,0,0,-1,1259,1590,0,0
42,-566,0,0,0,0,0,0,0,0,0,-1,1266,1590,0,0
49,-566,0,0,0,0,0,0,0,0,0,-1,1273,1590,0,0
56,-566,0,0,0,0,0,0,0,0,0,-1,1280,1590,0,0
63,-566,0,0,0,0,0,0,0,0,0,-1,1287,1590,0,0
70,-566,0,0,0,0,0,0,0,0,0,-1,1294,1590,0,0
77,-566,0,0,0,0,0,0,0,0,0,-1,1301,1590,0,0
84,-566,0,0,0,0,0,0,0,0,0,-1,1308,1590,0,0
91,-566,0,0,0,0,0,0,0,0,0,-1,1315,1590,0,0
98,-566,0,0,0,0,0,0,0,0,0,-1,1322,1590,0,0
105,-566,0,0,0,0,0,0,0,0,0,-1,1329,1590,0,0
112,-566,0,0,0,0,0,0,0,0,0,-1,1336,1590,0,0
119,-566,0,0,0,0,0,0,0,0,0,-1,1343,1590,0,0
126,-566,0,0,0,0,0,0,0,0,0,-1,1350,1590,0,0
133,-566,0,0,0,0,0,0,0,0,0,-1,1357,1590,0,0
140,-566,0,0,0,0,0,0,0,0,0,-1,1364,1590,0,0
147,-566,0,0,0,0,0,0,0,0,0,-1,1371,1590,0,0
154,-566,0,0,0,0,0,0,0,0,0,-1,1378,1590,0,0
161,-566,0,0,0,0,0,0,0,0,0,-1,1385,1590,0,0
168,-566,0,0,0,0,0,0,0,0,0,-1,1392,1590,0,0
175,-566,0,0,0,0,0,0,0,0,0,-1,1399,1590,0,0
182,-566,0,0,0,0,0,0,0,0,0,-1,1406,1590,0,0
189,-566,0,0,0,0,0,0,0,0,0,-1,1413,1590,0,0
196,-566,0,0,0,0,0,0,0,0,0,-1,1420,1590,0,0
203,-566,0,0,0,0,0,0,0,0,0,-1,1427,1590,0,0
210,-566,0,0,0,0,0,0,0,0,0,-1,1434,1590,0,0
217,-566,0,0,0,0,0,0,0,0,0,-1,1441,1590,0,0
224,-566,0,0,0,0,0,0,0,0,0,-1,1448,1590,0,0
231,-566,0,0,0,0,0,0,0,0,0,-1,1455,1590,0,0
238,-566,0,0,0,0,0,0,0,0,0,-1,1462,1590,0,0
245,-566,0,0,0,0,0,0,0,0,0,-1,1469,1590,0,0
252,-566,0,0,0,0,0,0,0,0,0,-1,1476,1590,0,0
259,-566,0,0,0,0,0,0,0,0,0,-1,1483,1590,0,0
266,-566,0,0,0,0,0,0,0,0,0,-1,1490,1590,0,0
273,-566,0,0,0,0,0,0,0,0,0,-1,1497,1590,0,0
280,-566,0,0,0,0,0,0,0,0,0,-1,1504,1590,0,0
287,-566,0,0,0,0,0,0,0,0,0,-1,1511,1590,0,0
294,-566,0,0,0,0,0,0,0,0,0,-1,1518,1590,0,0
301,-566,0,0,0,0,0,0,0,0,0,-1,1525,1590,0,0
308,-566,0,0,0,0,0,0,0,0,0,-1,1532,1590,0,0
315,-566,0,0,0,0,0,0,0,0,0,-1,1539,1590,0,0
322,-566,6.07983,4.44873,0,0,0,0,0,0,0,-1,1546,1590,6.07983,-4.44873
329,-566,5.77026,3.47534,0,0,0,0,0,0,0,-1,1553,1590,5.77026,-3.47535
336,-566,5.41138,2.62915,0,0,0,0,0,0,0,-1,1560,1590,5.41138,-2.62909
343,-566,4.81873,1.79089,0,0,0,0,0,0,0,-1,1567,1590,4.81878,-1.79095
350,-566,4.41663,2.44214,0,0,0,0,0,0,0,-1,1574,1590,4.41666,-2.44214
357,-566,6.34058,5.18579,0,0,0,0,0,0,0,-1,1581,1590,6.34059,-5.1858
364,-566,6.06262,4.20251,0,0,0,0,0,0,0,-1,1588,1590,6.06259,-4.20246
371,-566,5.78455,3.21912,0,0,0,0,0,0,0,-1,1595,1590,5.7846,-3.21912
378,-566,5.7439,0.695557,0,0,0,0,0,0,0,-1,1602,1590,5.74392,-0.695531
385,-566,5.67615,-0.573975,0,0,0,0,0,0,0,-1,1609,1590,5.67612,0.573956
392,-566,5.78638,1.82434,0,0,0,0,0,0,0,-1,1616,1590,5.78637,-1.82439
399,-566,5.36621,1.7373,0,0,0,0,0,0,0,-1,1623,1590,5.36627,-1.7373
406,-566,4.30359,5.26868,0,0,0,0,0,0,0,-1,1630,1590,4.30364,-5.26867
413,-566,4.27124,5.79492,0,0,0,0,0,0,0,-1,1637,1590,4.27123,-5.7949
420,-566,7.19812,8.25146,0,0,0,0,0,0,0,-1,1644,1590,7.19817,-8.25149
427,-566,10.455,10.6842,0,0,0,0,0,0,0,-1,1651,1590,10.455,-10.6842
434,-566,9.18567,14.3304,0,0,0,0,0,0,0,-1,1658,1590,9.18571,-14.3305
441,-566,10.4128,16.943,0,0,0,0,0,0,0,-1,1665,1590,10.4129,-16.943
448,-566,10.3252,16.4443,-0.00382627,-0.0139916,0.0168764,0.00871622,-0.0265341,0.639133,0.0212007,0.0404108,1672,1590,10.3252,-16.4443
455,-566,10.1224,16.453,-0.00381677,-0.0117986,0.0141962,0.00693879,-0.0225542,0.648371,0.0178056,0.0336629,1679,1590,10.1224,-16.453
462,-566,10.1213,16.241,-0.00372171,-0.0096891,0.0116867,0.00535616,-0.018767,0.660414,0.0146273,0.0201695,1686,1590,10.1214,-16.241
469,-566,10.1272,15.9016,-0.00346797,-0.00791008,0.00945308,0.00402147,-0.0153995,0.670013,0.0118368,0.0133302,1693,1590,10.1272,-15.9016
476,-566,10.1527,15.6461,-0.00312101,-0.00610615,0.00745221,0.00298663,-0.0122138,0.686563,0.00929934,0.00986436,1700,1590,10.1527,-15.6461
483,-566,10.1578,15.3892,-0.0026442,-0.0048395,0.00577108,0.00213269,-0.00961639,0.691421,0.00722748,0.0098899,1707,1590,10.1578,-15.3891
490,-566,10.142,15.1105,-0.00206081,-0.00367225,0.00428474,0.00149331,-0.00722637,0.692462,0.00538482,0.0105977,1714,1590,10.142,-15.1105
497,-566,10.1649,14.8376,-0.00139435,-0.00260823,0.00286764,0.000929874,-0.00493246,0.681112,0.00363809,0.0144226,1721,1590,10.1649,-14.8376
504,-566,10.1713,14.5789,-0.000924893,-0.00169609,0.00162616,0.000360756,-0.00298174,0.668987,0.00211834,0.0195995,1728,1590,10.1713,-14.5788
511,-566,10.172,14.3186,-0.000203953,-0.000764355,0.0006783,0.000249742,-0.00121805,0.589527,0.000906818,0.0188838,1735,1590,10.172,-14.3186
518,-566,10.1575,14.0426,0.000393988,2.3803e-05,-0.000121119,0.000430095,-1.23038e-05,-0.289722,0.000290918,0.0116174,1742,1590,10.1575,-14.0426
525,-566,10.1492,13.7588,0.000852095,0.000573025,-0.00068108,0.00140779,1.73333e-05,-0.68436,0.0009328,0.010515,1749,1590,10.1492,-13.7588
532,-566,10.1431,13.4824,0.00111161,0.000864718,-0.000992752,0.00198856,-1.2235e-05,-0.723542,0.0013298,0.0130745,1756,1590,10.1431,-13.4824
539,-566,10.1393,13.1846,0.00105764,0.000984106,-0.000990041,0.0020116,3.01485e-05,-0.766839,0.00133113,0.0185216,1763,1590,10.1393,-13.1845
546,-566,10.1836,12.8357,0.000604944,0.000993226,-0.000563716,0.0013953,0.000202875,-0.951235,0.000870488,0.0221922,1770,1590,10.1836,-12.8357
553,-566,10.2012,12.6744,-0.000219615,0.00112458,0.000131626,0.00113735,-0.000232383,1.4741,0.000846397,0.0368799,1777,1590,10.2012,-12.6744
560,-566,9.95667,12.4337,0,0,0,0,0,0,0,-1,1784,1590,9.95669,-12.4337
567,-566,9.58167,12.2573,0,0,0,0,0,0,0,-1,1791,1590,9.58163,-12.2574
574,-566,7.99548,3.14514,0,0,0,0,0,0,0,-1,1798,1590,7.99543,-3.14511
581,-566,2.54102,5.1311,0,0,0,0,0,0,0,-1,1805,1590,2.54099,-5.13111
588,-566,-1.91321,8.39197,0,0,0,0,0,0,0,-1,1812,1590,-1.91316,-8.39199
595,-566,9.0271,4.66467,0,0,0,0,0,0,0,-1,1819,1590,9.02705,-4.66468
602,-566,9.953,3.54895,0,0,0,0,0,0,0,-1,1826,1590,9.953,-3.54898
609,-566,0,0,0,0,0,0,0,0,0,-1,1833,1590,0,0
616,-566,0,0,0,0,0,0,0,0,0,-1,1840,1590,0,0
623,-566,0,0,0,0,0,0,0,0,0,-1,1847,1590,0,0
630,-566,0,0,0,0,0,0,0,0,0,-1,1854,1590,0,0
637,-566,0,0,0,0,0,0,0,0,0,-1,1861,1590,0,0
644,-566,0,0,0,0,0,0,0,0,0,-1,1868,1590,0,0
651,-566,0,0,0,0,0,0,0,0,0,-1,1875,1590,0,0
658,-566,0,0,0,0,0,0,0,0,0,-1,1882,1590,0,0
665,-566,0,0,0,0,0,0,0,0,0,-1,1889,1590,0,0
672,-566,0,0,0,0,0,0,0,0,0,-1,1896,1590,0,0
679,-566,0,0,0,0,0,0,0,0,0,-1,1903,1590,0,0
686,-566,0,0,0,0,0,0,0,0,0,-1,1910,1590,0,0
693,-566,0,0,0,0,0,0,0,0,0,-1,1917,1590,0,0
700,-566,0,0,0,0,0,0,0,0,0,-1,1924,1590,0,0
707,-566,0,0,0,0,0,0,0,0,0,-1,1931,1590,0,0
714,-566,0,0,0,0,0,0,0,0,0,-1,1938,1590,0,0
721,-566,0,0,0,0,0,0,0,0,0,-1,1945,1590,0,0
728,-566,0,0,0,0,0,0,0,0,0,-1,1952,1590,0,0
735,-566,0,0,0,0,0,0,0,0,0,-1,1959,1590,0,0
742,-566,0,0,0,0,0,0,0,0,0,-1,1966,1590,0,0
749,-566,0,0,0,0,0,0,0,0,0,-1,1973,1590,0,0
756,-566,0,0,0,0,0,0,0,0,0,-1,1980,1590,0,0
763,-566,0,0,0,0,0,0,0,0,0,-1,1987,1590,0,0
770,-566,0,0,0,0,0,0,0,0,0,-1,1994,1590,0,0
777,-566,0,0,0,0,0,0,0,0,0,-1,2001,1590,0,0
784,-566,0,0,0,0,0,0,0,0,0,-1,2008,1590,0,0
791,-566,0,0,0,0,0,0,0,0,0,-1,2015,1590,0,0
798,-566,0,0,0,0,0,0,0,0,0,-1,2022,1590,0,0
805,-566,0,0,0,0,0,0,0,0,0,-1,2029,1590,0,0
812,-566,0,0,0,0,0,0,0,0,0,-1,2036,1590,0,0
-700,-573,0,0,0,0,0,0,0,0,0,-1,524,1597,0,0
-693,-573,0,0,0,0,0,0,0,0,0,-1,531,1597,0,0
-686,-573,0,0,0,0,0,0,0,0,0,-1,538,1597,0,0
-679,-573,0,0,0,0,0,0,0,0,0,-1,545,1597,0,0
-672,-573,0,0,0,0,0,0,0,0,0,-1,552,1597,0,0
-665,-573,0,0,0,0,0,0,0,0,0,-1,559,1597,0,0
-658,-573,0,0,0,0,0,0,0,0,0,-1,566,1597,0,0
-651,-573,0,0,0,0,0,0,0,0,0,-1,573,1597,0,0
-644,-573,0,0,0,0,0,0,0,0,0,-1,580,1597,0,0
-637,-573,0,0,0,0,0,0,0,0,0,-1,587,1597,0,0
-630,-573,0,0,0,0,0,0,0,0,0,-1,594,1597,0,0
-623,-573,0,0,0,0,0,0,0,0,0,-1,601,1597,0,0
-616,-573,0,0,0,0,0,0,0,0,0,-1,608,1597,0,0
-609,-573,0,0,0,0,0,0,0,0,0,-1,615,1597,0,0
-602,-573,0,0,0,0,0,0,0,0,0,-1,622,1597,0,0
-595,-573,0,0,0,0,0,0,0,0,0,-1,629,1597,0,0
-588,-573,0,0,0,0,0,0,0,0,0,-1,636,1597,0,0
-581,-573,0,0,0,0,0,0,0,0,0,-1,643,1597,0,0
-574,-573,0,0,0,0,0,0,0,0,0,-1,650,1597,0,0
-567,-573,0,0,0,0,0,0,0,0,0,-1,657,1597,0,0
-560,-573,0,0,0,0,0,0,0,0,0,-1,664,1597,0,0
-553,-573,0,0,0,0,0,0,0,0,0,-1,671,1597,0,0
-546,-573,0,0,0,0,0,0,0,0,0,-1,678,1597,0,0
-539,-573,0,0,0,0,0,0,0,0,0,-1,685,1597,0,0
-532,-573,0,0,0,0,0,0,0,0,0,-1,692,1597,0,0
-525,-573,0,0,0,0,0,0,0,0,0,-1,699,1597,0,0
-518,-573,0,0,0,0,0,0,0,0,0,-1,706,1597,0,0
-511,-573,0,0,0,0,0,0,0,0,0,-1,713,1597,0,0
-504,-573,0,0,0,0,0,0,0,0,0,-1,720,1597,0,0
-497,-573,0,0,0,0,0,0,0,0,0,-1,727,1597,0,0
-490,-573,0,0,0,0,0,0,0,0,0,-1,734,1597,0,0
-483,-573,0,0,0,0,0,0,0,0,0,-1,741,1597,0,0
-476,-573,-9.3327,0.972778,0,0,0,0,0,0,0,-1,748,1597,-9.33268,-0.972776
-469,-573,-1.41681,1.13379,0,0,0,0,0,0,0,-1,755,1597,-1.41681,-1.13382
-462,-573,-0.748535,2.02588,0,0,0,0,0,0,0,-1,762,1597,-0.748533,-2.02584
-455,-573,-0.112976,2.70703,0,0,0,0,0,0,0,-1,769,1597,-0.112988,-2.70697
-448,-573,-1.26172,3.33252,0,0,0,0,0,0,0,-1,776,1597,-1.26173,-3.33248
-441,-573,0.108582,5.06726,0,0,0,0,0,0,0,-1,783,1597,0.108584,-5.06721
-434,-573,1.61768,7.05444,0,0,0,0,0,0,0,-1,790,1597,1.61767,-7.05446
-427,-573,0.313843,10.6809,0,0,0,0,0,0,0,-1,797,1597,0.313825,-10.6809
-420,-573,1.0451,11.3145,0,0,0,0,0,0,0,-1,804,1597,1.04512,-11.3144
-413,-573,1.22131,11.6011,0.00444267,0.0124313,0.00908167,0.0183582,-0.00148427,0.992577,0.0127624,0.0444837,811,1597,1.22128,-11.6011
-406,-573,1.16327,11.8521,0.003015,0.0066715,0.00577595,0.0109016,-0.00121514,0.938673,0.00770482,0.0203954,818,1597,1.16328,-11.8521
-399,-573,1.17383,12.1897,0.00189777,0.00276368,0.00325245,0.00561186,-0.000950413,0.851567,0.00409497,0.0107519,825,1597,1.17381,-12.1897
-392,-573,1.17529,12.4972,0.00112213,0.000814063,0.001585,0.00256056,-0.000624371,0.73696,0.0019488,0.0107461,832,1597,1.1753,-12.4972
-385,-573,1.15594,12.788,0.000322381,-0.000233598,0.000246496,0.000415926,-0.000327143,0.362712,0.000430031,0.0138886,839,1597,1.15596,-12.788
-378,-573,1.13818,13.0923,0.000219087,-2.60849e-05,3.14121e-05,0.000223048,-3.00455e-05,0.125424,0.000159659,0.015721,846,1597,1.13815,-13.0923
-371,-573,1.15057,13.3984,0.000415608,0.000198347,-9.70122e-05,0.000452621,0.000161334,-0.36448,0.000264887,0.0165207,853,1597,1.15055,-13.3984
-364,-573,1.15308,13.6891,0.000487355,0.000742385,0.000248687,0.000894343,0.000335397,1.0223,0.000521698,0.0191421,860,1597,1.15307,-13.6891
-357,-573,1.14069,13.9633,0.000559155,0.00145437,0.000831412,0.00195101,6.25174e-05,1.03233,0.00128034,0.0217795,867,1597,1.1407,-13.9633
-350,-573,1.12134,14.2606,0.000826249,0.0022493,0.00130957,0.00302816,4.73866e-05,1.03425,0.00200316,0.018061,874,1597,1.12135,-14.2606
-343,-573,1.15436,14.538,0.00118083,0.00325443,0.00215726,0.0046111,-0.00017585,1.00941,0.00313433,0.0212728,881,1597,1.15439,-14.5379
-336,-573,1.11523,14.8491,0.00124461,0.00430309,0.00305049,0.0061862,-0.000638494,1.01775,0.0043526,0.0159287,888,1597,1.11524,-14.8491
-329,-573,1.12769,15.1315,0.0012945,0.00573509,0.00407051,0.00815147,-0.00112188,1.03507,0.00584428,0.0163215,895,1597,1.12768,-15.1315
-322,-573,1.15186,15.4237,0.00117141,0.00715669,0.00498393,0.00997743,-0.00164934,1.05578,0.00726408,0.0129677,902,1597,1.15187,-15.4237
-315,-573,1.26166,15.762,0.00101634,0.00864242,0.00596655,0.0119103,-0.00225151,1.06972,0.00878736,0.0226708,909,1597,1.26167,-15.7619
-308,-573,1.25293,15.8801,0.000853819,0.00997161,0.0066682,0.0134904,-0.00266493,1.08524,0.0100009,0.0345394,916,1597,1.25294,-15.8801
-301,-573,1.34357,16.0867,0.000911474,0.0109409,0.00730601,0.0147876,-0.00293526,1.08616,0.0109685,0.0350476,923,1597,1.34355,-16.0867
-294,-573,1.32715,16.4108,0.0011435,0.0109413,0.00772008,0.0151856,-0.00310084,1.06812,0.0113001,0.0366893,930,1597,1.32714,-16.4108
-287,-573,1.19843,16.7333,0.00131804,0.0106401,0.00784588,0.015105,-0.00314688,1.05342,0.0112664,0.0444434,937,1597,1.19841,-16.7332
-280,-573,1.10687,17.0643,0,0,0,0,0,0,0,-1,944,1597,1.10687,-17.0644
-273,-573,-0.225037,10.6533,0,0,0,0,0,0,0,-1,951,1597,-0.225018,-10.6533
-266,-573,1.31116,7.1814,0,0,0,0,0,0,0,-1,958,1597,1.31118,-7.18142
-259,-573,1.2514,6.70959,0,0,0,0,0,0,0,-1,965,1597,1.25137,-6.70965
-252,-573,2.07874,5.27161,0,0,0,0,0,0,0,-1,972,1597,2.07875,-5.27157
-245,-573,-10.2592,1.09827,0,0,0,0,0,0,0,-1,979,1597,-10.2592,-1.09823
-238,-573,-11.5463,4.44141,0,0,0,0,0,0,0,-1,986,1597,-11.5463,-4.44146
-231,-573,-9.23431,4.14539,0,0,0,0,0,0,0,-1,993,1597,-9.23431,-4.14534
-224,-573,-6.70044,7.40857,0,0,0,0,0,0,0,-1,1000,1597,-6.70045,-7.40851
-217,-573,-4.25824,8.59119,0,0,0,0,0,0,0,-1,1007,1597,-4.25824,-8.59122
-210,-573,-2.39661,9.73914,0,0,0,0,0,0,0,-1,1014,1597,-2.39658,-9.73915
-203,-573,-0.557373,10.9005,0,0,0,0,0,0,0,-1,1021,1597,-0.557387,-10.9006
-196,-573,-1.65344,9.02246,0,0,0,0,0,0,0,-1,1028,1597,-1.65349,-9.02241
-189,-573,-6.12915,6.66882,0,0,0,0,0,0,0,-1,1035,1597,-6.12913,-6.66884
-182,-573,0,0,0,0,0,0,0,0,0,-1,1042,1597,0,0
-175,-573,0,0,0,0,0,0,0,0,0,-1,1049,1597,0,0
-168,-573,0,0,0,0,0,0,0,0,0,-1,1056,1597,0,0
-161,-573,0,0,0,0,0,0,0,0,0,-1,1063,1597,0,0
-154,-573,0,0,0,0,0,0,0,0,0,-1,1070,1597,0,0
-147,-573,0,0,0,0,0,0,0,0,0,-1,1077,1597,0,0
-140,-573,0,0,0,0,0,0,0,0,0,-1,1084,1597,0,0
-133,-573,0,0,0,0,0,0,0,0,0,-1,1091,1597,0,0
-126,-573,0,0,0,0,0,0,0,0,0,-1,1098,1597,0,0
-119,-573,0,0,0,0,0,0,0,0,0,-1,1105,1597,0,0
-112,-573,0,0,0,0,0,0,0,0,0,-1,1112,1597,0,0
-105,-573,0,0,0,0,0,0,0,0,0,-1,1119,1597,0,0
-98,-573,0,0,0,0,0,0,0,0,0,-1,1126,1597,0,0
-91,-573,0,0,0,0,0,0,0,0,0,-1,1133,1597,0,0
-84,-573,0,0,0,0,0,0,0,0,0,-1,1140,1597,0,0
-77,-573,0,0,0,0,0,0,0,0,0,-1,1147,1597,0,0
-70,-573,0,0,0,0,0,0,0,0,0,-1,1154,1597,0,0
-63,-573,0,0,0,0,0,0,0,0,0,-1,1161,1597,0,0
-56,-573,0,0,0,0,0,0,0,0,0,-1,1168,1597,0,0
-49,-573,0,0,0,0,0,0,0,0,0,-1,1175,1597,0,0
-42,-573,0,0,0,0,0,0,0,0,0,-1,1182,1597,0,0
-35,-573,0,0,0,0,0,0,0,0,0,-1,1189,1597,0,0
-28,-573,0,0,0,0,0,0,0,0,0,-1,1196,1597,0,0
-21,-573,0,0,0,0,0,0,0,0,0,-1,1203,1597,0,0
-14,-573,0,0,0,0,0,0,0,0,0,-1,1210,1597,0,0
-7,-573,0,0,0,0,0,0,0,0,0,-1,1217,1597,0,0
0,-573,0,0,0,0,0,0,0,0,0,-1,1224,1597,0,0
7,-573,0,0,0,0,0,0,0,0,0,-1,1231,1597,0,0
14,-573,0,0,0,0,0,0,0,0,0,-1,1238,1597,0,0
21,-573,0,0,0,0,0,0,0,0,0,-1,1245,1597,0,0
28,-573,0,0,0,0,0,0,0,0,0,-1,1252,1597,0,0
35,-573,0,0,0,0,0,0,0,0,0,-1,1259,1597,0,0
42,-573,0,0,0,0,0,0,0,0,0,-1,1266,1597,0,0
49,-573,0,0,0,0,0,0,0,0,0,-1,1273,1597,0,0
56,-573,0,0,0,0,0,0,0,0,0,-1,1280,1597,0,0
63,-573,0,0,0,0,0,0,0,0,0,-1,1287,1597,0,0
70,-573,0,0,0,0,0,0,0,0,0,-1,1294,1597,0,0
77,-573,0,0,0,0,0,0,0,0,0,-1,1301,1597,0,0
84,-573,0,0,0,0,0,0,0,0,0,-1,1308,1597,0,0
91,-573,0,0,0,0,0,0,0,0,0,-1,1315,1597,0,0
98,-573,0,0,0,0,0,0,0,0,0,-1,1322,1597,0,0
105,-573,0,0,0,0,0,0,0,0,0,-1,1329,1597,0,0
112,-573,0,0,0,0,0,0,0,0,0,-1,1336,1597,0,0
119,-573,0,0,0,0,0,0,0,0,0,-1,1343,1597,0,0
126,-573,0,0,0,0,0,0,0,0,0,-1,1350,1597,0,0
133,-573,0,0,0,0,0,0,0,0,0,-1,1357,1597,0,0
140,-573,0,0,0,0,0,0,0,0,0,-1,1364,1597,0,0
147,-573,0,0,0,0,0,0,0,0,0,-1,1371,1597,0,0
154,-573,0,0,0,0,0,0,0,0,0,-1,1378,1597,0,0
161,-573,0,0,0,0,0,0,0,0,0,-1,1385,1597,0,0
168,-573,0,0,0,0,0,0,0,0,0,-1,1392,1597,0,0
175,-573,0,0,0,0,0,0,0,0,0,-1,1399,1597,0,0
182,-573,0,0,0,0,0,0,0,0,0,-1,1406,1597,0,0
189,-573,0,0,0,0,0,0,0,0,0,-1,1413,1597,0,0
196,-573,0,0,0,0,0,0,0,0,0,-1,1420,1597,0,0
203,-573,0,0,0,0,0,0,0,0,0,-1,1427,1597,0,0
210,-573,0,0,0,0,0,0,0,0,0,-1,1434,1597,0,0
217,-573,0,0,0,0,0,0,0,0,0,-1,1441,1597,0,0
224,-573,0,0,0,0,0,0,0,0,0,-1,1448,1597,0,0
231,-573,0,0,0,0,0,0,0,0,0,-1,1455,1597,0,0
238,-573,0,0,0,0,0,0,0,0,0,-1,1462,1597,0,0
245,-573,0,0,0,0,0,0,0,0,0,-1,1469,1597,0,0
252,-573,0,0,0,0,0,0,0,0,0,-1,1476,1597,0,0
259,-573,0,0,0,0,0,0,0,0,0,-1,1483,1597,0,0
266,-573,0,0,0,0,0,0,0,0,0,-1,1490,1597,0,0
273,-573,0,0,0,0,0,0,0,0,0,-1,1497,1597,0,0
280,-573,0,0,0,0,0,0,0,0,0,-1,1504,1597,0,0
287,-573,0,0,0,0,0,0,0,0,0,-1,1511,1597,0,0
294,-573,0,0,0,0,0,0,0,0,0,-1,1518,1597,0,0
301,-573,0,0,0,0,0,0,0,0,0,-1,1525,1597,0,0
308,-573,5.93042,9.71143,0,0,0,0,0,0,0,-1,1532,1597,5.93046,-9.71144
315,-573,4.34204,11.719,0,0,0,0,0,0,0,-1,1539,1597,4.34205,-11.719
322,-573,10.3269,7.77563,0,0,0,0,0,0,0,-1,1546,1597,10.327,-7.77565
329,-573,4.99573,3.80273,0,0,0,0,0,0,0,-1,1553,1597,4.9957,-3.80273
336,-573,4.85693,2.53455,0,0,0,0,0,0,0,-1,1560,1597,4.8569,-2.53459
343,-573,5.5946,2.15894,0,0,0,0,0,0,0,-1,1567,1597,5.59456,-2.1589
350,-573,2.53748,1.56433,0,0,0,0,0,0,0,-1,1574,1597,2.53753,-1.5643
357,-573,7.40247,4.03613,0,0,0,0,0,0,0,-1,1581,1597,7.40244,-4.03614
364,-573,7.14551,3.02087,0,0,0,0,0,0,0,-1,1588,1597,7.14556,-3.02084
371,-573,6.88867,2.00549,0,0,0,0,0,0,0,-1,1595,1597,6.88868,-2.00553
378,-573,8.62012,6.09106,0,0,0,0,0,0,0,-1,1602,1597,8.62012,-6.09103
385,-573,6.54346,-0.951904,0,0,0,0,0,0,0,-1,1609,1597,6.54349,0.951901
392,-573,6.41833,-2.18225,0,0,0,0,0,0,0,-1,1616,1597,6.41831,2.18228
399,-573,4.26282,4.73657,0,0,0,0,0,0,0,-1,1623,1597,4.26285,-4.73652
406,-573,6.82715,10.823,0,0,0,0,0,0,0,-1,1630,1597,6.82719,-10.823
413,-573,8.90552,13.1737,0,0,0,0,0,0,0,-1,1637,1597,8.90553,-13.1737
420,-573,10.1813,16.5613,0,0,0,0,0,0,0,-1,1644,1597,10.1812,-16.5613
427,-573,10.1947,16.8522,0,0,0,0,0,0,0,-1,1651,1597,10.1947,-16.8522
434,-573,10.1024,16.8705,0,0,0,0,0,0,0,-1,1658,1597,10.1024,-16.8705
441,-573,10.0286,16.8507,-0.00368787,-0.0125384,0.0145469,0.00709201,-0.0233183,0.637743,0.0183716,0.0370269,1665,1597,10.0285,-16.8507
448,-573,9.89075,16.7634,-0.00318962,-0.0104886,0.0122402,0.00593354,-0.0196117,0.640516,0.0154372,0.0253519,1672,1597,9.89078,-16.7634
455,-573,9.87329,16.4537,-0.00280067,-0.00870571,0.0101832,0.00484943,-0.0163558,0.644297,0.0128296,0.019095,1679,1597,9.87333,-16.4538
462,-573,9.91187,16.1279,-0.00241801,-0.00702906,0.00821695,0.00381074,-0.0132578,0.648624,0.0103454,0.0185412,1686,1597,9.91182,-16.1279
469,-573,9.90637,15.8827,-0.00196419,-0.00563469,0.00645581,0.00291217,-0.010511,0.646912,0.00815333,0.0154203,1693,1597,9.90643,-15.8826
476,-573,9.91589,15.6362,-0.00149005,-0.00420664,0.00482881,0.00216786,-0.00786456,0.648296,0.00609554,0.0135617,1700,1597,9.91593,-15.6362
483,-573,9.91846,15.3777,-0.000943876,-0.00316249,0.00342864,0.00155045,-0.00565682,0.628942,0.00438046,0.0110985,1707,1597,9.91848,-15.3777
490,-573,9.90491,15.1099,-0.000341634,-0.00223713,0.00218754,0.00109464,-0.0036734,0.58098,0.00288392,0.010013,1714,1597,9.90491,-15.1098
497,-573,9.91272,14.8524,0.000268513,-0.00138499,0.000991421,0.000732666,-0.00184914,0.43786,0.00153636,0.0148864,1721,1597,9.91275,-14.8525
504,-573,9.91235,14.5746,0.000670655,-0.00064563,3.61429e-05,0.000671647,-0.000646621,0.0274307,0.000761148,0.0178,1728,1597,9.91234,-14.5746
511,-573,9.92456,14.3058,0.00119876,0.000125231,-0.000730248,0.0015683,-0.000244303,-0.468467,0.00113576,0.0197054,1735,1597,9.92457,-14.3058
518,-573,9.88281,14.0581,0.00155687,0.000777785,-0.00133591,0.00255887,-0.000224221,-0.643536,0.00178536,0.0142698,1742,1597,9.88277,-14.0582
525,-573,9.88354,13.775,0.00170513,0.00111483,-0.00164298,0.00307926,-0.000259304,-0.696524,0.00214451,0.0155572,1749,1597,9.88354,-13.775
532,-573,9.88049,13.4855,0.00164282,0.00131963,-0.00171711,0.00320592,-0.000243475,-0.738482,0.00222289,0.0149682,1756,1597,9.88045,-13.4854
539,-573,9.82959,13.2188,0.00120249,0.00136933,-0.00143739,0.00272572,-0.000153895,-0.814383,0.00187055,0.0246165,1763,1597,9.82957,-13.2188
546,-573,9.92102,12.9291,0.000191446,0.00128698,-0.000640081,0.00158168,-0.000103255,-1.13932,0.0010905,0.0403616,1770,1597,9.92106,-12.9291
553,-573,9.5625,12.767,-0.00104045,0.00124147,0.000399998,0.00130955,-0.00110853,1.4022,0.00139769,0.0475945,1777,1597,9.56246,-12.767
560,-573,9.27039,12.5782,0,0,0,0,0,0,0,-1,1784,1597,9.27033,-12.5783
567,-573,4.99597,2.77759,0,0,0,0,0,0,0,-1,1791,1597,4.99596,-2.7776
574,-573,0.83374,5.7041,0,0,0,0,0,0,0,-1,1798,1597,0.833718,-5.70405
581,-573,-0.224854,7.41602,0,0,0,0,0,0,0,-1,1805,1597,-0.224904,-7.41596
588,-573,-0.134033,7.67065,0,0,0,0,0,0,0,-1,1812,1597,-0.134037,-7.67063
595,-573,-0.0825195,8.35083,0,0,0,0,0,0,0,-1,1819,1597,-0.0824684,-8.35088
602,-573,0,0,0,0,0,0,0,0,0,-1,1826,1597,0,0
609,-573,0,0,0,0,0,0,0,0,0,-1,1833,1597,0,0
616,-573,0,0,0,0,0,0,0,0,0,-1,1840,1597,0,0
623,-573,0,0,0,0,0,0,0,0,0,-1,1847,1597,0,0
630,-573,0,0,0,0,0,0,0,0,0,-1,1854,1597,0,0
637,-573,0,0,0,0,0,0,0,0,0,-1,1861,1597,0,0
644,-573,0,0,0,0,0,0,0,0,0,-1,1868,1597,0,0
651,-573,0,0,0,0,0,0,0,0,0,-1,1875,1597,0,0
658,-573,0,0,0,0,0,0,0,0,0,-1,1882,1597,0,0
665,-573,0,0,0,0,0,0,0,0,0,-1,1889,1597,0,0
672,-573,0,0,0,0,0,0,0,0,0,-1,1896,1597,0,0
679,-573,0,0,0,0,0,0,0,0,0,-1,1903,1597,0,0
686,-573,0,0,0,0,0,0,0,0,0,-1,1910,1597,0,0
693,-573,0,0,0,0,0,0,0,0,0,-1,1917,1597,0,0
700,-573,0,0,0,0,0,0,0,0,0,-1,1924,1597,0,0
707,-573,0,0,0,0,0,0,0,0,0,-1,1931,1597,0,0
714,-573,0,0,0,0,0,0,0,0,0,-1,1938,1597,0,0
721,-573,0,0,0,0,0,0,0,0,0,-1,1945,1597,0,0
728,-573,0,0,0,0,0,0,0,0,0,-1,1952,1597,0,0
735,-573,0,0,0,0,0,0,0,0,0,-1,1959,1597,0,0
742,-573,0,0,0,0,0,0,0,0,0,-1,1966,1597,0,0
749,-573,0,0,0,0,0,0,0,0,0,-1,1973,1597,0,0
756,-573,0,0,0,0,0,0,0,0,0,-1,1980,1597,0,0
763,-573,0,0,0,0,0,0,0,0,0,-1,1987,1597,0,0
770,-573,0,0,0,0,0,0,0,0,0,-1,1994,1597,0,0
777,-573,0,0,0,0,0,0,0,0,0,-1,2001,1597,0,0
784,-573,0,0,0,0,0,0,0,0,0,-1,2008,1597,0,0
791,-573,0,0,0,0,0,0,0,0,0,-1,2015,1597,0,0
798,-573,0,0,0,0,0,0,0,0,0,-1,2022,1597,0,0
805,-573,0,0,0,0,0,0,0,0,0,-1,2029,1597,0,0
812,-573,0,0,0,0,0,0,0,0,0,-1,2036,1597,0,0
-700,-580,0,0,0,0,0,0,0,0,0,-1,524,1604,0,0
-693,-580,0,0,0,0,0,0,0,0,0,-1,531,1604,0,0
-686,-580,0,0,0,0,0,0,0,0,0,-1,538,1604,0,0
-679,-580,0,0,0,0,0,0,0,0,0,-1,545,1604,0,0
-672,-580,0,0,0,0,0,0,0,0,0,-1,552,1604,0,0
-665,-580,0,0,0,0,0,0,0,0,0,-1,559,1604,0,0
-658,-580,0,0,0,0,0,0,0,0,0,-1,566,1604,0,0
-651,-580,0,0,0,0,0,0,0,0,0,-1,573,1604,0,0
-644,-580,0,0,0,0,0,0,0,0,0,-1,580,1604,0,0
-637,-580,0,0,0,0,0,0,0,0,0,-1,587,1604,0,0
-630,-580,0,0,0,0,0,0,0,0,0,-1,594,1604,0,0
-623,-580,0,0,0,0,0,0,0,0,0,-1,601,1604,0,0
-616,-580,0,0,0,0,0,0,0,0,0,-1,608,1604,0,0
-609,-580,0,0,0,0,0,0,0,0,0,-1,615,1604,0,0
-602,-580,0,0,0,0,0,0,0,0,0,-1,622,1604,0,0
-595,-580,0,0,0,0,0,0,0,0,0,-1,629,1604,0,0
-588,-580,0,0,0,0,0,0,0,0,0,-1,636,1604,0,0
-581,-580,0,0,0,0,0,0,0,0,0,-1,643,1604,0,0
-574,-580,0,0,0,0,0,0,0,0,0,-1,650,1604,0,0
-567,-580,0,0,0,0,0,0,0,0,0,-1,657,1604,0,0
-560,-580,0,0,0,0,0,0,0,0,0,-1,664,1604,0,0
-553,-580,0,0,0,0,0,0,0,0,0,-1,671,1604,0,0
-546,-580,0,0,0,0,0,0,0,0,0,-1,678,1604,0,0
-539,-580,0,0,0,0,0,0,0,0,0,-1,685,1604,0,0
-532,-580,0,0,0,0,0,0,0,0,0,-1,692,1604,0,0
-525,-580,0,0,0,0,0,0,0,0,0,-1,699,1604,0,0
-518,-580,0,0,0,0,0,0,0,0,0,-1,706,1604,0,0
-511,-580,0,0,0,0,0,0,0,0,0,-1,713,1604,0,0
-504,-580,0,0,0,0,0,0,0,0,0,-1,720,1604,0,0
-497,-580,0,0,0,0,0,0,0,0,0,-1,727,1604,0,0
-490,-580,0,0,0,0,0,0,0,0,0,-1,734,1604,0,0
-483,-580,0,0,0,0,0,0,0,0,0,-1,741,1604,0,0
-476,-580,0,0,0,0,0,0,0,0,0,-1,748,1604,0,0
-469,-580,-1.69189,-0.38916,0,0,0,0,0,0,0,-1,755,1604,-1.69192,0.389188
-462,-580,-0.859863,0.675293,0,0,0,0,0,0,0,-1,762,1604,-0.859834,-0.675245
-455,-580,-0.730164,0.651978,0,0,0,0,0,0,0,-1,769,1604,-0.730153,-0.651957
-448,-580,-3.31891,2.07544,0,0,0,0,0,0,0,-1,776,1604,-3.3189,-2.07539
-441,-580,-1.63843,3.9469,0,0,0,0,0,0,0,-1,783,1604,-1.63842,-3.94695
-434,-580,0.23291,5.97876,0,0,0,0,0,0,0,-1,790,1604,0.232901,-5.97878
-427,-580,1.62756,8.05493,0,0,0,0,0,0,0,-1,797,1604,1.62758,-8.05488
-420,-580,0.986572,11.2383,0,0,0,0,0,0,0,-1,804,1604,0.986544,-11.2382
-413,-580,1.52539,11.6825,0,0,0,0,0,0,0,-1,811,1604,1.52539,-11.6825
-406,-580,1.42456,11.9235,0.00330847,0.00704353,0.00607611,0.0115326,-0.00118063,0.934494,0.00811065,0.0429876,818,1604,1.42456,-11.9235
-399,-580,1.46405,12.2159,0.00189233,0.00279657,0.00323868,0.00561454,-0.000925631,0.85475,0.00408666,0.0190692,825,1604,1.46405,-12.216
-392,-580,1.46265,12.5173,0.00093485,0.000664664,0.00142742,0.00223356,-0.000634046,0.738218,0.00173935,0.0121031,832,1604,1.46267,-12.5173
-385,-580,1.46503,12.7955,-2.68562e-05,-0.000573834,-9.63718e-06,-2.66864e-05,-0.000574004,-0.0176117,0.000374091,0.0121712,839,1604,1.46503,-12.7956
-378,-580,1.44183,13.0907,-0.000229355,-0.000421436,-0.000239806,-6.70724e-05,-0.000583719,-0.594934,0.000368827,0.0151886,846,1604,1.44186,-13.0907
-371,-580,1.4361,13.4335,-0.000110277,-0.00029745,-0.000400697,0.000207617,-0.000615344,-0.670675,0.000494193,0.0141419,853,1604,1.43612,-13.4335
-364,-580,1.45624,13.7266,6.43885e-05,0.000108495,-0.00017047,0.000258333,-8.54487e-05,-0.849725,0.000206679,0.0203198,860,1604,1.45621,-13.7265
-357,-580,1.45618,13.9752,0.000247,0.000620769,0.000286975,0.000776346,9.14225e-05,1.07402,0.000489942,0.0142083,867,1604,1.45617,-13.9752
-350,-580,1.44012,14.2894,0.000547838,0.00125066,0.000682183,0.00166663,0.000131876,1.02324,0.00106984,0.0112748,874,1604,1.44013,-14.2894
-343,-580,1.4278,14.5599,0.000914649,0.00204516,0.00135686,0.0029498,1.00165e-05,0.982762,0.0019632,0.0110647,881,1604,1.42781,-14.56
-336,-580,1.38367,14.8096,0.00108811,0.00287145,0.00206117,0.00422555,-0.000265993,0.989546,0.00290976,0.0183779,888,1604,1.38368,-14.8096
-329,-580,1.41833,15.1305,0.00128076,0.00404037,0.00285474,0.00583128,-0.000510148,1.01051,0.00406824,0.0180129,895,1604,1.41836,-15.1305
-322,-580,1.42102,15.4402,0.00132177,0.0051695,0.00349162,0.0072322,-0.000740933,1.0372,0.00508646,0.0192874,902,1604,1.42104,-15.4401
-315,-580,1.46075,15.714,0.00129667,0.00629927,0.00413006,0.00862641,-0.00103047,1.05767,0.0061234,0.0162345,909,1604,1.46075,-15.7139
-308,-580,1.50391,16.0227,0.00127548,0.0072126,0.00449413,0.00963009,-0.00114201,1.07727,0.00683262,0.0203488,916,1604,1.50392,-16.0227
-301,-580,1.55078,16.2147,0.0014643,0.00776776,0.00480172,0.0103597,-0.00112766,1.07582,0.00731141,0.0201695,923,1604,1.55079,-16.2147
-294,-580,1.51349,16.4138,0.00181564,0.00744615,0.00492406,0.0103029,-0.00104114,1.04509,0.00724067,0.0227772,930,1604,1.51346,-16.4138
-287,-580,1.45111,16.7157,0.00213529,0.00696577,0.00483161,0.00995218,-0.000851128,1.01718,0.00693593,0.0400095,937,1604,1.45109,-16.7157
-280,-580,1.4339,17.4363,0,0,0,0,0,0,0,-1,944,1604,1.43387,-17.4363
-273,-580,1.09747,17.2249,0,0,0,0,0,0,0,-1,951,1604,1.09747,-17.2248
-266,-580,0.494202,8.78955,0,0,0,0,0,0,0,-1,958,1604,0.494174,-8.78958
-259,-580,1.31091,9.11536,0,0,0,0,0,0,0,-1,965,1604,1.31092,-9.11539
-252,-580,1.07629,7.74097,0,0,0,0,0,0,0,-1,972,1604,1.07627,-7.74101
-245,-580,3.80304,9.16028,0,0,0,0,0,0,0,-1,979,1604,3.80306,-9.16034
-238,-580,-10.3588,1.57556,0,0,0,0,0,0,0,-1,986,1604,-10.3588,-1.5755
-231,-580,-10.576,6.43787,0,0,0,0,0,0,0,-1,993,1604,-10.576,-6.43783
-224,-580,-8.27435,7.58972,0,0,0,0,0,0,0,-1,1000,1604,-8.27435,-7.5897
-217,-580,-5.85632,9.51221,0,0,0,0,0,0,0,-1,1007,1604,-5.85632,-9.5122
-210,-580,-3.6684,11.1569,0,0,0,0,0,0,0,-1,1014,1604,-3.66839,-11.1569
-203,-580,-1.92474,12.7845,0,0,0,0,0,0,0,-1,1021,1604,-1.92477,-12.7845
-196,-580,-2.28552,10.3289,0,0,0,0,0,0,0,-1,1028,1604,-2.28552,-10.3288
-189,-580,-4.58252,7.59058,0,0,0,0,0,0,0,-1,1035,1604,-4.58256,-7.59057
-182,-580,-5.45874,7.65942,0,0,0,0,0,0,0,-1,1042,1604,-5.45876,-7.65939
-175,-580,-6.38977,7.55005,0,0,0,0,0,0,0,-1,1049,1604,-6.38981,-7.5501
-168,-580,0,0,0,0,0,0,0,0,0,-1,1056,1604,0,0
-161,-580,0,0,0,0,0,0,0,0,0,-1,1063,1604,0,0
-154,-580,0,0,0,0,0,0,0,0,0,-1,1070,1604,0,0
-147,-580,0,0,0,0,0,0,0,0,0,-1,1077,1604,0,0
-140,-580,0,0,0,0,0,0,0,0,0,-1,1084,1604,0,0
-133,-580,0,0,0,0,0,0,0,0,0,-1,1091,1604,0,0
-126,-580,0,0,0,0,0,0,0,0,0,-1,1098,1604,0,0
-119,-580,0,0,0,0,0,0,0,0,0,-1,1105,1604,0,0
-112,-580,0,0,0,0,0,0,0,0,0,-1,1112,1604,0,0
-105,-580,0,0,0,0,0,0,0,0,0,-1,1119,1604,0,0
-98,-580,0,0,0,0,0,0,0,0,0,-1,1126,1604,0,0
-91,-580,0,0,0,0,0,0,0,0,0,-1,1133,1604,0,0
-84,-580,0,0,0,0,0,0,0,0,0,-1,1140,1604,0,0
-77,-580,0,0,0,0,0,0,0,0,0,-1,1147,1604,0,0
-70,-580,0,0,0,0,0,0,0,0,0,-1,1154,1604,0,0
-63,-580,0,0,0,0,0,0,0,0,0,-1,1161,1604,0,0
-56,-580,0,0,0,0,0,0,0,0,0,-1,1168,1604,0,0
-49,-580,0,0,0,0,0,0,0,0,0,-1,1175,1604,0,0
-42,-580,0,0,0,0,0,0,0,0,0,-1,1182,1604,0,0
-35,-580,0,0,0,0,0,0,0,0,0,-1,1189,1604,0,0
-28,-580,0,0,0,0,0,0,0,0,0,-1,1196,1604,0,0
-21,-580,0,0,0,0,0,0,0,0,0,-1,1203,1604,0,0
-14,-580,0,0,0,0,0,0,0,0,0,-1,1210,1604,0,0
-7,-580,0,0,0,0,0,0,0,0,0,-1,1217,1604,0,0
0,-580,0,0,0,0,0,0,0,0,0,-1,1224,1604,0,0
7,-580,0,0,0,0,0,0,0,0,0,-1,1231,1604,0,0
14,-580,0,0,0,0,0,0,0,0,0,-1,1238,1604,0,0
21,-580,0,0,0,0,0,0,0,0,0,-1,1245,1604,0,0
28,-580,0,0,0,0,0,0,0,0,0,-1,1252,1604,0,0
35,-580,0,0,0,0,0,0,0,0,0,-1,1259,1604,0,0
42,-580,0,0,0,0,0,0,0,0,0,-1,1266,1604,0,0
49,-580,0,0,0,0,0,0,0,0,0,-1,1273,1604,0,0
56,-580,0,0,0,0,0,0,0,0,0,-1,1280,1604,0,0
63,-580,0,0,0,0,0,0,0,0,0,-1,1287,1604,0,0
70,-580,0,0,0,0,0,0,0,0,0,-1,1294,1604,0,0
77,-580,0,0,0,0,0,0,0,0,0,-1,1301,1604,0,0
84,-580,0,0,0,0,0,0,0,0,0,-1,1308,1604,0,0
91,-580,0,0,0,0,0,0,0,0,0,-1,1315,1604,0,0
98,-580,0,0,0,0,0,0,0,0,0,-1,1322,1604,0,0
105,-580,0,0,0,0,0,0,0,0,0,-1,1329,1604,0,0
112,-580,0,0,0,0,0,0,0,0,0,-1,1336,1604,0,0
119,-580,0,0,0,0,0,0,0,0,0,-1,1343,1604,0,0
126,-580,0,0,0,0,0,0,0,0,0,-1,1350,1604,0,0
133,-580,0,0,0,0,0,0,0,0,0,-1,1357,1604,0,0
140,-580,0,0,0,0,0,0,0,0,0,-1,1364,1604,0,0
147,-580,0,0,0,0,0,0,0,0,0,-1,1371,1604,0,0
154,-580,0,0,0,0,0,0,0,0,0,-1,1378,1604,0,0
161,-580,0,0,0,0,0,0,0,0,0,-1,1385,1604,0,0
168,-580,0,0,0,0,0,0,0,0,0,-1,1392,1604,0,0
175,-580,0,0,0,0,0,0,0,0,0,-1,1399,1604,0,0
182,-580,0,0,0,0,0,0,0,0,0,-1,1406,1604,0,0
189,-580,0,0,0,0,0,0,0,0,0,-1,1413,1604,0,0
196,-580,0,0,0,0,0,0,0,0,0,-1,1420,1604,0,0
203,-580,0,0,0,0,0,0,0,0,0,-1,1427,1604,0,0
210,-580,0,0,0,0,0,0,0,0,0,-1,1434,1604,0,0
217,-580,0,0,0,0,0,0,0,0,0,-1,1441,1604,0,0
224,-580,0,0,0,0,0,0,0,0,0,-1,1448,1604,0,0
231,-580,0,0,0,0,0,0,0,0,0,-1,1455,1604,0,0
238,-580,0,0,0,0,0,0,0,0,0,-1,1462,1604,0,0
245,-580,0,0,0,0,0,0,0,0,0,-1,1469,1604,0,0
252,-580,0,0,0,0,0,0,0,0,0,-1,1476,1604,0,0
259,-580,0,0,0,0,0,0,0,0,0,-1,1483,1604,0,0
266,-580,0,0,0,0,0,0,0,0,0,-1,1490,1604,0,0
273,-580,0,0,0,0,0,0,0,0,0,-1,1497,1604,0,0
280,-580,0,0,0,0,0,0,0,0,0,-1,1504,1604,0,0
287,-580,0,0,0,0,0,0,0,0,0,-1,1511,1604,0,0
294,-580,4.0437,0.177368,0,0,0,0,0,0,0,-1,1518,1604,4.04369,-0.177371
301,-580,7.55164,8.05798,0,0,0,0,0,0,0,-1,1525,1604,7.55158,-8.05802
308,-580,5.9126,9.99341,0,0,0,0,0,0,0,-1,1532,1604,5.91255,-9.99337
315,-580,4.27356,11.9287,0,0,0,0,0,0,0,-1,1539,1604,4.27352,-11.9287
322,-580,10.2366,7.50281,0,0,0,0,0,0,0,-1,1546,1604,10.2366,-7.50282
329,-580,10.5962,8.69641,0,0,0,0,0,0,0,-1,1553,1604,10.5962,-8.69642
336,-580,3.66431,1.58862,0,0,0,0,0,0,0,-1,1560,1604,3.6643,-1.58864
343,-580,3.32227,1.39636,0,0,0,0,0,0,0,-1,1567,1604,3.32222,-1.39633
350,-580,8.71277,4.0564,0,0,0,0,0,0,0,-1,1574,1604,8.71271,-4.05638
357,-580,8.52332,3.08154,0,0,0,0,0,0,0,-1,1581,1604,8.52332,-3.08157
364,-580,8.25818,2.07605,0,0,0,0,0,0,0,-1,1588,1604,8.25812,-2.07608
371,-580,7.42114,7.14282,0,0,0,0,0,0,0,-1,1595,1604,7.42119,-7.14281
378,-580,7.9718,6.6731,0,0,0,0,0,0,0,-1,1602,1604,7.9718,-6.67307
385,-580,8.52246,6.20337,0,0,0,0,0,0,0,-1,1609,1604,8.52241,-6.20334
392,-580,6.5498,-2.15625,0,0,0,0,0,0,0,-1,1616,1604,6.54984,2.15626
399,-580,6.52625,10.7247,0,0,0,0,0,0,0,-1,1623,1604,6.52628,-10.7248
406,-580,10.1326,17.582,0,0,0,0,0,0,0,-1,1630,1604,10.1326,-17.5821
413,-580,9.96118,16.9119,0,0,0,0,0,0,0,-1,1637,1604,9.96113,-16.9119
420,-580,9.85022,17.0457,-0.0056493,-0.0143955,0.0162861,0.00684066,-0.0268854,0.654234,0.0205863,0.0454257,1644,1604,9.85027,-17.0457
427,-580,9.77722,17.1848,-0.00450413,-0.0126168,0.0143071,0.0063106,-0.0234315,0.647264,0.0180951,0.0419039,1651,1604,9.77722,-17.1848
434,-580,9.63892,17.0549,-0.00375753,-0.0108183,0.0124004,0.00560525,-0.0201811,0.646718,0.0156605,0.030202,1658,1604,9.63896,-17.0549
441,-580,9.61877,16.8698,-0.00319781,-0.00922976,0.0105589,0.00476744,-0.017195,0.646286,0.0133395,0.0125206,1665,1604,9.61872,-16.8698
448,-580,9.63123,16.6406,-0.00256344,-0.00761992,0.00877783,0.004043,-0.0142264,0.645181,0.0110806,0.0122204,1672,1604,9.63127,-16.6406
455,-580,9.67468,16.405,-0.00208241,-0.00622513,0.00717074,0.00331015,-0.0116177,0.644794,0.00905253,0.017993,1679,1604,9.6747,-16.405
462,-580,9.62146,16.1376,-0.0016232,-0.00495508,0.00560858,0.00256163,-0.00913991,0.641031,0.00710283,0.0215557,1686,1604,9.62147,-16.1375
469,-580,9.6344,15.8735,-0.00110735,-0.0039028,0.00418887,0.00191084,-0.00692099,0.624369,0.00536558,0.0192067,1693,1604,9.63439,-15.8736
476,-580,9.65869,15.6166,-0.000578332,-0.00282048,0.00283659,0.00135068,-0.00474949,0.597209,0.00369967,0.0139075,1700,1604,9.65872,-15.6166
483,-580,9.64526,15.3634,2.45029e-06,-0.0019653,0.00163831,0.000929613,-0.00289247,0.514989,0.00230163,0.0116991,1707,1604,9.6452,-15.3634
490,-580,9.62329,15.1252,0.000630034,-0.00124572,0.000570214,0.000789771,-0.00140546,0.273134,0.00128393,0.0135788,1714,1604,9.62325,-15.1253
497,-580,9.62732,14.8606,0.00124139,-0.000559223,-0.000476082,0.00135952,-0.00067735,-0.24321,0.00119777,0.0108719,1721,1604,9.62727,-14.8606
504,-580,9.62695,14.589,0.00167818,6.15499e-05,-0.00123027,0.00234192,-0.000602189,-0.494751,0.00179598,0.0166918,1728,1604,9.62695,-14.589
511,-580,9.62732,14.3278,0.00217835,0.000754201,-0.00191853,0.00351269,-0.000580136,-0.607699,0.0025572,0.01762,1735,1604,9.62729,-14.3278
518,-580,9.6272,14.0537,0.00250566,0.00137195,-0.00244955,0.00445308,-0.000575477,-0.671694,0.00317796,0.0154405,1742,1604,9.62722,-14.0538
525,-580,9.5968,13.7728,0.00258573,0.00163713,-0.00263997,0.00479367,-0.000570806,-0.696515,0.00340205,0.0162408,1749,1604,9.59684,-13.7729
532,-580,9.58752,13.5,0.00244139,0.00193784,-0.00261541,0.00481712,-0.000437883,-0.737413,0.00336688,0.0200235,1756,1604,9.5875,-13.5
539,-580,9.66443,13.2213,0,0,0,0,0,0,0,-1,1763,1604,9.66439,-13.2214
546,-580,9.78186,12.9559,0,0,0,0,0,0,0,-1,1770,1604,9.78188,-12.9559
553,-580,8.90662,12.7758,0,0,0,0,0,0,0,-1,1777,1604,8.90666,-12.7757
560,-580,7.09021,6.49438,0,0,0,0,0,0,0,-1,1784,1604,7.09016,-6.4944
567,-580,3.87708,4.0647,0,0,0,0,0,0,0,-1,1791,1604,3.87711,-4.06471
574,-580,2.31653,5.62952,0,0,0,0,0,0,0,-1,1798,1604,2.31654,-5.62947
581,-580,1.60876,6.67664,0,0,0,0,0,0,0,-1,1805,1604,1.60873,-6.67667
588,-580,1.38684,7.14441,0,0,0,0,0,0,0,-1,1812,1604,1.38689,-7.14443
595,-580,0,0,0,0,0,0,0,0,0,-1,1819,1604,0,0
602,-580,0,0,0,0,0,0,0,0,0,-1,1826,1604,0,0
609,-580,0,0,0,0,0,0,0,0,0,-1,1833,1604,0,0
616,-580,0,0,0,0,0,0,0,0,0,-1,1840,1604,0,0
623,-580,0,0,0,0,0,0,0,0,0,-1,1847,1604,0,0
630,-580,0,0,0,0,0,0,0,0,0,-1,1854,1604,0,0
637,-580,0,0,0,0,0,0,0,0,0,-1,1861,1604,0,0
644,-580,0,0,0,0,0,0,0,0,0,-1,1868,1604,0,0
651,-580,0,0,0,0,0,0,0,0,0,-1,1875,1604,0,0
658,-580,0,0,0,0,0,0,0,0,0,-1,1882,1604,0,0
665,-580,0,0,0,0,0,0,0,0,0,-1,1889,1604,0,0
672,-580,0,0,0,0,0,0,0,0,0,-1,1896,1604,0,0
679,-580,0,0,0,0,0,0,0,0,0,-1,1903,1604,0,0
686,-580,0,0,0,0,0,0,0,0,0,-1,1910,1604,0,0
693,-580,0,0,0,0,0,0,0,0,0,-1,1917,1604,0,0
700,-580,0,0,0,0,0,0,0,0,0,-1,1924,1604,0,0
707,-580,0,0,0,0,0,0,0,0,0,-1,1931,1604,0,0
714,-580,0,0,0,0,0,0,0,0,0,-1,1938,1604,0,0
721,-580,0,0,0,0,0,0,0,0,0,-1,1945,1604,0,0
728,-580,0,0,0,0,0,0,0,0,0,-1,1952,1604,0,0
735,-580,0,0,0,0,0,0,0,0,0,-1,1959,1604,0,0
742,-580,0,0,0,0,0,0,0,0,0,-1,1966,1604,0,0
749,-580,0,0,0,0,0,0,0,0,0,-1,1973,1604,0,0
756,-580,0,0,0,0,0,0,0,0,0,-1,1980,1604,0,0
763,-580,0,0,0,0,0,0,0,0,0,-1,1987,1604,0,0
770,-580,0,0,0,0,0,0,0,0,0,-1,1994,1604,0,0
777,-580,0,0,0,0,0,0,0,0,0,-1,2001,1604,0,0
784,-580,0,0,0,0,0,0,0,0,0,-1,2008,1604,0,0
791,-580,0,0,0,0,0,0,0,0,0,-1,2015,1604,0,0
798,-580,0,0,0,0,0,0,0,0,0,-1,2022,1604,0,0
805,-580,0,0,0,0,0,0,0,0,0,-1,2029,1604,0,0
812,-580,0,0,0,0,0,0,0,0,0,-1,2036,1604,0,0
-700,-587,0,0,0,0,0,0,0,0,0,-1,524,1611,0,0
-693,-587,0,0,0,0,0,0,0,0,0,-1,531,1611,0,0
-686,-587,0,0,0,0,0,0,0,0,0,-1,538,1611,0,0
-679,-587,0,0,0,0,0,0,0,0,0,-1,545,1611,0,0
-672,-587,0,0,0,0,0,0,0,0,0,-1,552,1611,0,0
-665,-587,0,0,0,0,0,0,0,0,0,-1,559,1611,0,0
-658,-587,0,0,0,0,0,0,0,0,0,-1,566,1611,0,0
-651,-587,0,0,0,0,0,0,0,0,0,-1,573,1611,0,0
-644,-587,0,0,0,0,0,0,0,0,0,-1,580,1611,0,0
-637,-587,0,0,0,0,0,0,0,0,0,-1,587,1611,0,0
-630,-587,0,0,0,0,0,0,0,0,0,-1,594,1611,0,0
-623,-587,0,0,0,0,0,0,0,0,0,-1,601,1611,0,0
-616,-587,0,0,0,0,0,0,0,0,0,-1,608,1611,0,0
-609,-587,0,0,0,0,0,0,0,0,0,-1,615,1611,0,0
-602,-587,0,0,0,0,0,0,0,0,0,-1,622,1611,0,0
-595,-587,0,0,0,0,0,0,0,0,0,-1,629,1611,0,0
-588,-587,0,0,0,0,0,0,0,0,0,-1,636,1611,0,0
-581,-587,0,0,0,0,0,0,0,0,0,-1,643,1611,0,0
-574,-587,0,0,0,0,0,0,0,0,0,-1,650,1611,0,0
-567,-587,0,0,0,0,0,0,0,0,0,-1,657,1611,0,0
-560,-587,0,0,0,0,0,0,0,0,0,-1,664,1611,0,0
-553,-587,0,0,0,0,0,0,0,0,0,-1,671,1611,0,0
-546,-587,0,0,0,0,0,0,0,0,0,-1,678,1611,0,0
-539,-587,0,0,0,0,0,0,0,0,0,-1,685,1611,0,0
-532,-587,0,0,0,0,0,0,0,0,0,-1,692,1611,0,0
-525,-587,0,0,0,0,0,0,0,0,0,-1,699,1611,0,0
-518,-587,0,0,0,0,0,0,0,0,0,-1,706,1611,0,0
-511,-587,0,0,0,0,0,0,0,0,0,-1,713,1611,0,0
-504,-587,0,0,0,0,0,0,0,0,0,-1,720,1611,0,0
-497,-587,0,0,0,0,0,0,0,0,0,-1,727,1611,0,0
-490,-587,0,0,0,0,0,0,0,0,0,-1,734,1611,0,0
-483,-587,0,0,0,0,0,0,0,0,0,-1,741,1611,0,0
-476,-587,0,0,0,0,0,0,0,0,0,-1,748,1611,0,0
-469,-587,0,0,0,0,0,0,0,0,0,-1,755,1611,0,0
-462,-587,-0.714355,-0.418457,0,0,0,0,0,0,0,-1,762,1611,-0.714359,0.418483
-455,-587,-0.619812,-0.522461,0,0,0,0,0,0,0,-1,769,1611,-0.619802,0.522515
-448,-587,-0.461731,-0.686523,0,0,0,0,0,0,0,-1,776,1611,-0.461739,0.686559
-441,-587,-3.56555,2.72253,0,0,0,0,0,0,0,-1,783,1611,-3.56555,-2.72259
-434,-587,-1.77319,4.76318,0,0,0,0,0,0,0,-1,790,1611,-1.77318,-4.76323
-427,-587,0.0346069,6.92944,0,0,0,0,0,0,0,-1,797,1611,0.034587,-6.92941
-420,-587,-0.647156,10.1157,0,0,0,0,0,0,0,-1,804,1611,-0.647128,-10.1158
-413,-587,1.71667,9.65393,0,0,0,0,0,0,0,-1,811,1611,1.71667,-9.65397
-406,-587,1.66345,11.8678,0,0,0,0,0,0,0,-1,818,1611,1.66348,-11.8678
-399,-587,1.75104,12.1969,0.00184244,0.00280919,0.0029996,0.00536411,-0.000712483,0.865285,0.00383569,0.0399317,825,1611,1.75102,-12.1969
-392,-587,1.79596,12.4607,0.000715398,0.000564912,0.00112666,0.00176932,-0.000489014,0.752056,0.00137192,0.0279772,832,1611,1.79596,-12.4607
-385,-587,1.72748,12.78,-0.000349143,-0.000800827,-0.000305866,-0.000194776,-0.000955193,-0.46739,0.000582822,0.0158773,839,1611,1.72745,-12.78
-378,-587,1.71082,13.1047,-0.000632392,-0.000699593,-0.000514906,-0.000149992,-0.00118199,-0.752817,0.000743062,0.0128771,846,1611,1.7108,-13.1048
-371,-587,1.68915,13.4445,-0.00058367,-0.000670095,-0.000682701,5.71843e-05,-0.00131095,-0.753792,0.000893638,0.0139901,853,1611,1.68915,-13.4444
-364,-587,1.71552,13.745,-0.000330172,-0.000398665,-0.000546537,0.00018319,-0.000912027,-0.754108,0.000677389,0.0180831,860,1611,1.71549,-13.745
-357,-587,1.72241,13.9636,-6.25402e-05,-7.13579e-05,-0.000193313,0.000126415,-0.000260313,-0.773997,0.000227694,0.0172363,867,1611,1.72244,-13.9636
-350,-587,1.71448,14.2825,0.000241445,0.000415541,0.000142232,0.000495248,0.000161738,1.06,0.000291608,0.00971713,874,1611,1.7145,-14.2825
-343,-587,1.698,14.5728,0.000586928,0.00103135,0.000670028,0.00151505,0.000103224,0.945512,0.000977445,0.0116755,881,1611,1.69803,-14.5728
-336,-587,1.6759,14.8248,0.000828588,0.00168423,0.00122811,0.00255691,-4.40904e-05,0.953002,0.00171949,0.0122018,888,1611,1.6759,-14.8248
-329,-587,1.68024,15.1147,0.0011054,0.00263774,0.00185566,0.00387918,-0.000136035,0.98118,0.00263263,0.0147594,895,1611,1.68022,-15.1148
-322,-587,1.70984,15.4082,0.00124481,0.00354618,0.00230469,0.00497147,-0.000180482,1.01693,0.00337608,0.0175482,902,1611,1.70983,-15.4083
-315,-587,1.69788,15.6606,0.00128601,0.00443327,0.00271779,0.00600013,-0.000280854,1.04782,0.00409692,0.0143284,909,1611,1.69785,-15.6607
-308,-587,1.69904,15.9421,0.0013394,0.00506249,0.0028771,0.00662776,-0.000225871,1.07254,0.00449569,0.0143114,916,1611,1.69903,-15.9422
-301,-587,1.74768,16.2012,0.00158591,0.00534956,0.0029888,0.00699961,-6.41425e-05,1.06636,0.00468793,0.0136161,923,1611,1.74767,-16.2011
-294,-587,1.80756,16.4919,0.0019844,0.00486917,0.00296639,0.00672526,0.00012831,1.01169,0.00444136,0.0162797,930,1611,1.80756,-16.492
-287,-587,1.78882,16.8086,0.00236584,0.00431472,0.00278844,0.00629407,0.000386485,0.953493,0.00407334,0.0258256,937,1611,1.78881,-16.8086
-280,-587,1.73212,17.167,0.00293585,0.00299811,0.00236008,0.00532727,0.00060669,0.791993,0.00336755,0.037684,944,1611,1.73214,-17.167
-273,-587,1.58142,17.1393,0.00368666,0.00119084,0.00177715,0.00461028,0.000267219,0.479299,0.00298843,0.0478734,951,1611,1.5814,-17.1393
-266,-587,1.67548,17.2596,0,0,0,0,0,0,0,-1,958,1611,1.67548,-17.2597
-259,-587,1.5058,17.4086,0,0,0,0,0,0,0,-1,965,1611,1.50583,-17.4086
-252,-587,1.30188,10.3103,0,0,0,0,0,0,0,-1,972,1611,1.30188,-10.3104
-245,-587,2.97797,12.0387,0,0,0,0,0,0,0,-1,979,1611,2.97798,-12.0387
-238,-587,2.87799,9.53821,0,0,0,0,0,0,0,-1,986,1611,2.87797,-9.53823
-231,-587,2.49548,9.14465,0,0,0,0,0,0,0,-1,993,1611,2.49551,-9.14468
-224,-587,-9.72528,9.21069,0,0,0,0,0,0,0,-1,1000,1611,-9.72529,-9.21072
-217,-587,-7.07495,10.7847,0,0,0,0,0,0,0,-1,1007,1611,-7.07495,-10.7847
-210,-587,-4.72308,12.5889,0,0,0,0,0,0,0,-1,1014,1611,-4.72307,-12.5888
-203,-587,-3.2583,13.7289,0,0,0,0,0,0,0,-1,1021,1611,-3.25828,-13.7289
-196,-587,-1.953,14.8145,0,0,0,0,0,0,0,-1,1028,1611,-1.95302,-14.8144
-189,-587,-3.04138,8.66638,0,0,0,0,0,0,0,-1,1035,1611,-3.04136,-8.66635
-182,-587,-3.97095,9.7146,0,0,0,0,0,0,0,-1,1042,1611,-3.97093,-9.71461
-175,-587,-4.80969,8.37878,0,0,0,0,0,0,0,-1,1049,1611,-4.80964,-8.37883
-168,-587,-5.91394,8.72546,0,0,0,0,0,0,0,-1,1056,1611,-5.91398,-8.72542
-161,-587,-7.06946,8.88501,0,0,0,0,0,0,0,-1,1063,1611,-7.06947,-8.885
-154,-587,-2.24731,6.56519,0,0,0,0,0,0,0,-1,1070,1611,-2.24728,-6.56517
-147,-587,0,0,0,0,0,0,0,0,0,-1,1077,1611,0,0
-140,-587,0,0,0,0,0,0,0,0,0,-1,1084,1611,0,0
-133,-587,0,0,0,0,0,0,0,0,0,-1,1091,1611,0,0
-126,-587,0,0,0,0,0,0,0,0,0,-1,1098,1611,0,0
-119,-587,0,0,0,0,0,0,0,0,0,-1,1105,1611,0,0
-112,-587,0,0,0,0,0,0,0,0,0,-1,1112,1611,0,0
-105,-587,0,0,0,0,0,0,0,0,0,-1,1119,1611,0,0
-98,-587,0,0,0,0,0,0,0,0,0,-1,1126,1611,0,0
-91,-587,0,0,0,0,0,0,0,0,0,-1,1133,1611,0,0
-84,-587,0,0,0,0,0,0,0,0,0,-1,1140,1611,0,0
-77,-587,0,0,0,0,0,0,0,0,0,-1,1147,1611,0,0
-70,-587,0,0,0,0,0,0,0,0,0,-1,1154,1611,0,0
-63,-587,0,0,0,0,0,0,0,0,0,-1,1161,1611,0,0
-56,-587,0,0,0,0,0,0,0,0,0,-1,1168,1611,0,0
-49,-587,0,0,0,0,0,0,0,0,0,-1,1175,1611,0,0
-42,-587,0,0,0,0,0,0,0,0,0,-1,1182,1611,0,0
-35,-587,0,0,0,0,0,0,0,0,0,-1,1189,1611,0,0
-28,-587,0,0,0,0,0,0,0,0,0,-1,1196,1611,0,0
-21,-587,0,0,0,0,0,0,0,0,0,-1,1203,1611,0,0
-14,-587,0,0,0,0,0,0,0,0,0,-1,1210,1611,0,0
-7,-587,0,0,0,0,0,0,0,0,0,-1,1217,1611,0,0
0,-587,0,0,0,0,0,0,0,0,0,-1,1224,1611,0,0
7,-587,0,0,0,0,0,0,0,0,0,-1,1231,1611,0,0
14,-587,0,0,0,0,0,0,0,0,0,-1,1238,1611,0,0
21,-587,0,0,0,0,0,0,0,0,0,-1,1245,1611,0,0
28,-587,0,0,0,0,0,0,0,0,0,-1,1252,1611,0,0
35,-587,0,0,0,0,0,0,0,0,0,-1,1259,1611,0,0
42,-587,0,0,0,0,0,0,0,0,0,-1,1266,1611,0,0
49,-587,0,0,0,0,0,0,0,0,0,-1,1273,1611,0,0
56,-587,0,0,0,0,0,0,0,0,0,-1,1280,1611,0,0
63,-587,0,0,0,0,0,0,0,0,0,-1,1287,1611,0,0
70,-587,0,0,0,0,0,0,0,0,0,-1,1294,1611,0,0
77,-587,0,0,0,0,0,0,0,0,0,-1,1301,1611,0,0
84,-587,0,0,0,0,0,0,0,0,0,-1,1308,1611,0,0
91,-587,0,0,0,0,0,0,0,0,0,-1,1315,1611,0,0
98,-587,0,0,0,0,0,0,0,0,0,-1,1322,1611,0,0
105,-587,0,0,0,0,0,0,0,0,0,-1,1329,1611,0,0
112,-587,0,0,0,0,0,0,0,0,0,-1,1336,1611,0,0
119,-587,0,0,0,0,0,0,0,0,0,-1,1343,1611,0,0
126,-587,0,0,0,0,0,0,0,0,0,-1,1350,1611,0,0
133,-587,0,0,0,0,0,0,0,0,0,-1,1357,1611,0,0
140,-587,0,0,0,0,0,0,0,0,0,-1,1364,1611,0,0
147,-587,0,0,0,0,0,0,0,0,0,-1,1371,1611,0,0
154,-587,0,0,0,0,0,0,0,0,0,-1,1378,1611,0,0
161,-587,0,0,0,0,0,0,0,0,0,-1,1385,1611,0,0
168,-587,0,0,0,0,0,0,0,0,0,-1,1392,1611,0,0
175,-587,0,0,0,0,0,0,0,0,0,-1,1399,1611,0,0
182,-587,0,0,0,0,0,0,0,0,0,-1,1406,1611,0,0
189,-587,0,0,0,0,0,0,0,0,0,-1,1413,1611,0,0
196,-587,0,0,0,0,0,0,0,0,0,-1,1420,1611,0,0
203,-587,0,0,0,0,0,0,0,0,0,-1,1427,1611,0,0
210,-587,0,0,0,0,0,0,0,0,0,-1,1434,1611,0,0
217,-587,0,0,0,0,0,0,0,0,0,-1,1441,1611,0,0
224,-587,0,0,0,0,0,0,0,0,0,-1,1448,1611,0,0
231,-587,0,0,0,0,0,0,0,0,0,-1,1455,1611,0,0
238,-587,0,0,0,0,0,0,0,0,0,-1,1462,1611,0,0
245,-587,0,0,0,0,0,0,0,0,0,-1,1469,1611,0,0
252,-587,0,0,0,0,0,0,0,0,0,-1,1476,1611,0,0
259,-587,0,0,0,0,0,0,0,0,0,-1,1483,1611,0,0
266,-587,0,0,0,0,0,0,0,0,0,-1,1490,1611,0,0
273,-587,10.2936,6.35083,0,0,0,0,0,0,0,-1,1497,1611,10.2936,-6.35087
280,-587,2.09204,1.1217,0,0,0,0,0,0,0,-1,1504,1611,2.092,-1.12176
287,-587,3.2865,0.671509,0,0,0,0,0,0,0,-1,1511,1611,3.28656,-0.671538
294,-587,4.24646,1.58765,0,0,0,0,0,0,0,-1,1518,1611,4.24648,-1.58761
301,-587,7.60474,8.37085,0,0,0,0,0,0,0,-1,1525,1611,7.60478,-8.37084
308,-587,5.99316,10.2291,0,0,0,0,0,0,0,-1,1532,1611,5.99315,-10.2291
315,-587,4.34558,12.3289,0,0,0,0,0,0,0,-1,1539,1611,4.34556,-12.3288
322,-587,10.4526,6.38245,0,0,0,0,0,0,0,-1,1546,1611,10.4526,-6.38245
329,-587,10.7738,8.42444,0,0,0,0,0,0,0,-1,1553,1611,10.7738,-8.42438
336,-587,7.5531,5.96619,0,0,0,0,0,0,0,-1,1560,1611,7.55311,-5.96617
343,-587,9.57495,4.38391,0,0,0,0,0,0,0,-1,1567,1611,9.57494,-4.38397
350,-587,9.50378,3.45093,0,0,0,0,0,0,0,-1,1574,1611,9.50376,-3.4509
357,-587,9.40027,2.50806,0,0,0,0,0,0,0,-1,1581,1611,9.40022,-2.50803
364,-587,9.26477,1.34131,0,0,0,0,0,0,0,-1,1588,1611,9.26479,-1.34126
371,-587,6.98926,7.87561,0,0,0,0,0,0,0,-1,1595,1611,6.98928,-7.87564
378,-587,9.25146,13.8358,0,0,0,0,0,0,0,-1,1602,1611,9.2515,-13.8359
385,-587,7.17224,7.03772,0,0,0,0,0,0,0,-1,1609,1611,7.1722,-7.03778
392,-587,5.3916,8.21436,0,0,0,0,0,0,0,-1,1616,1611,5.39157,-8.21437
399,-587,9.52698,17.9065,0,0,0,0,0,0,0,-1,1623,1611,9.52697,-17.9065
406,-587,9.71057,17.7677,-0.00706782,-0.0118904,0.0147683,0.00548471,-0.0244429,0.704475,0.0183981,0.0471849,1630,1611,9.7106,-17.7677
413,-587,9.6051,17.5962,-0.00581892,-0.0111835,0.0133101,0.00507649,-0.022079,0.685968,0.0166711,0.037555,1637,1611,9.60508,-17.5962
420,-587,9.49023,17.6455,-0.00482871,-0.0104547,0.0119131,0.00459905,-0.0198824,0.66946,0.0150245,0.0353095,1644,1611,9.49028,-17.6455
427,-587,9.49561,17.4229,-0.0039174,-0.00917909,0.0104363,0.00421451,-0.017311,0.661927,0.0131722,0.0277663,1651,1611,9.49561,-17.4229
434,-587,9.38123,17.146,-0.00330457,-0.00788805,0.00904693,0.00373637,-0.014929,0.661349,0.011404,0.0148199,1658,1611,9.38126,-17.146
441,-587,9.35852,16.8977,-0.00258118,-0.00665491,0.00752138,0.00317426,-0.0124103,0.653165,0.00950991,0.0150826,1665,1611,9.35858,-16.8977
448,-587,9.38806,16.6567,-0.00180822,-0.00541539,0.00606175,0.00271257,-0.00993618,0.640801,0.00768948,0.0150326,1672,1611,9.38801,-16.6567
455,-587,9.39551,16.4011,-0.00121247,-0.00434836,0.00476291,0.00223394,-0.00779478,0.626386,0.00607955,0.0140739,1679,1611,9.39554,-16.4011
462,-587,9.36548,16.1322,-0.000616026,-0.00339873,0.00345967,0.00172159,-0.00573634,0.594213,0.004509,0.0164572,1686,1611,9.36547,-16.1322
469,-587,9.37329,15.891,4.33477e-05,-0.00261921,0.00223828,0.00131634,-0.0038922,0.517113,0.00312733,0.0152354,1693,1611,9.37328,-15.891
476,-587,9.39429,15.6472,0.000703976,-0.00182304,0.00104095,0.00107755,-0.00219661,0.34456,0.00192679,0.010244,1700,1611,9.39424,-15.6473
483,-587,9.3623,15.3817,0.00138323,-0.00109834,-6.04041e-05,0.0013847,-0.00109981,-0.0243218,0.00143758,0.0124494,1707,1611,9.36225,-15.3817
490,-587,9.36035,15.1271,0.00208208,-0.000521005,-0.00104652,0.00245063,-0.000889558,-0.338607,0.00199743,0.0149199,1714,1611,9.36033,-15.1271
497,-587,9.36279,14.8615,0.00271691,5.70339e-05,-0.00201175,0.00379858,-0.00102464,-0.493333,0.00293419,0.0117377,1721,1611,9.36277,-14.8614
504,-587,9.33313,14.6062,0.00317929,0.000598228,-0.00263977,0.0048271,-0.00104959,-0.558043,0.00361903,0.0116076,1728,1611,9.33315,-14.6062
511,-587,9.33325,14.3419,0.0036305,0.0012551,-0.00329998,0.00595,-0.0010644,-0.61266,0.00436495,0.0135764,1735,1611,9.3333,-14.3419
518,-587,9.37073,14.0538,0.00388071,0.0018719,-0.00380621,0.00681281,-0.0010602,-0.656396,0.0049334,0.0130579,1742,1611,9.37076,-14.0539
525,-587,9.36487,13.7661,0.00382647,0.00211541,-0.00393493,0.0069978,-0.00105592,-0.678354,0.00505408,0.0157553,1749,1611,9.36493,-13.7661
532,-587,9.45874,13.536,0.00345762,0.00257117,-0.00382691,0.00686688,-0.000838096,-0.727746,0.00488133,0.0319567,1756,1611,9.4588,-13.5361
539,-587,9.62329,13.2357,0,0,0,0,0,0,0,-1,1763,1611,9.62324,-13.2358
546,-587,9.57629,12.9152,0,0,0,0,0,0,0,-1,1770,1611,9.57624,-12.9152
553,-587,7.5813,8.45068,0,0,0,0,0,0,0,-1,1777,1611,7.58125,-8.45068
560,-587,4.21179,5.23547,0,0,0,0,0,0,0,-1,1784,1611,4.21185,-5.23553
567,-587,4.03711,5.46387,0,0,0,0,0,0,0,-1,1791,1611,4.03715,-5.46382
574,-587,3.83142,5.68884,0,0,0,0,0,0,0,-1,1798,1611,3.83141,-5.68881
581,-587,3.47168,6.00977,0,0,0,0,0,0,0,-1,1805,1611,3.47167,-6.00983
588,-587,0,0,0,0,0,0,0,0,0,-1,1812,1611,0,0
595,-587,0,0,0,0,0,0,0,0,0,-1,1819,1611,0,0
602,-587,0,0,0,0,0,0,0,0,0,-1,1826,1611,0,0
609,-587,0,0,0,0,0,0,0,0,0,-1,1833,1611,0,0
616,-587,0,0,0,0,0,0,0,0,0,-1,1840,1611,0,0
623,-587,0,0,0,0,0,0,0,0,0,-1,1847,1611,0,0
630,-587,0,0,0,0,0,0,0,0,0,-1,1854,1611,0,0
637,-587,0,0,0,0,0,0,0,0,0,-1,1861,1611,0,0
644,-587,0,0,0,0,0,0,0,0,0,-1,1868,1611,0,0
651,-587,0,0,0,0,0,0,0,0,0,-1,1875,1611,0,0
658,-587,0,0,0,0,0,0,0,0,0,-1,1882,1611,0,0
665,-587,0,0,0,0,0,0,0,0,0,-1,1889,1611,0,0
672,-587,0,0,0,0,0,0,0,0,0,-1,1896,1611,0,0
679,-587,0,0,0,0,0,0,0,0,0,-1,1903,1611,0,0
686,-587,0,0,0,0,0,0,0,0,0,-1,1910,1611,0,0
693,-587,0,0,0,0,0,0,0,0,0,-1,1917,1611,0,0
700,-587,0,0,0,0,0,0,0,0,0,-1,1924,1611,0,0
707,-587,0,0,0,0,0,0,0,0,0,-1,1931,1611,0,0
714,-587,0,0,0,0,0,0,0,0,0,-1,1938,1611,0,0
721,-587,0,0,0,0,0,0,0,0,0,-1,1945,1611,0,0
728,-587,0,0,0,0,0,0,0,0,0,-1,1952,1611,0,0
735,-587,0,0,0,0,0,0,0,0,0,-1,1959,1611,0,0
742,-587,0,0,0,0,0,0,0,0,0,-1,1966,1611,0,0
749,-587,0,0,0,0,0,0,0,0,0,-1,1973,1611,0,0
756,-587,0,0,0,0,0,0,0,0,0,-1,1980,1611,0,0
763,-587,0,0,0,0,0,0,0,0,0,-1,1987,1611,0,0
770,-587,0,0,0,0,0,0,0,0,0,-1,1994,1611,0,0
777,-587,0,0,0,0,0,0,0,0,0,-1,2001,1611,0,0
784,-587,0,0,0,0,0,0,0,0,0,-1,2008,1611,0,0
791,-587,0,0,0,0,0,0,0,0,0,-1,2015,1611,0,0
798,-587,0,0,0,0,0,0,0,0,0,-1,2022,1611,0,0
805,-587,0,0,0,0,0,0,0,0,0,-1,2029,1611,0,0
812,-587,0,0,0,0,0,0,0,0,0,-1,2036,1611,0,0
-700,-594,0,0,0,0,0,0,0,0,0,-1,524,1618,0,0
-693,-594,0,0,0,0,0,0,0,0,0,-1,531,1618,0,0
-686,-594,0,0,0,0,0,0,0,0,0,-1,538,1618,0,0
-679,-594,0,0,0,0,0,0,0,0,0,-1,545,1618,0,0
-672,-594,0,0,0,0,0,0,0,0,0,-1,552,1618,0,0
-665,-594,0,0,0,0,0,0,0,0,0,-1,559,1618,0,0
-658,-594,0,0,0,0,0,0,0,0,0,-1,566,1618,0,0
-651,-594,0,0,0,0,0,0,0,0,0,-1,573,1618,0,0
-644,-594,0,0,0,0,0,0,0,0,0,-1,580,1618,0,0
-637,-594,0,0,0,0,0,0,0,0,0,-1,587,1618,0,0
-630,-594,0,0,0,0,0,0,0,0,0,-1,594,1618,0,0
-623,-594,0,0,0,0,0,0,0,0,0,-1,601,1618,0,0
-616,-594,0,0,0,0,0,0,0,0,0,-1,608,1618,0,0
-609,-594,0,0,0,0,0,0,0,0,0,-1,615,1618,0,0
-602,-594,0,0,0,0,0,0,0,0,0,-1,622,1618,0,0
-595,-594,0,0,0,0,0,0,0,0,0,-1,629,1618,0,0
-588,-594,0,0,0,0,0,0,0,0,0,-1,636,1618,0,0
-581,-594,0,0,0,0,0,0,0,0,0,-1,643,1618,0,0
-574,-594,0,0,0,0,0,0,0,0,0,-1,650,1618,0,0
-567,-594,0,0,0,0,0,0,0,0,0,-1,657,1618,0,0
-560,-594,0,0,0,0,0,0,0,0,0,-1,664,1618,0,0
-553,-594,0,0,0,0,0,0,0,0,0,-1,671,1618,0,0
-546,-594,0,0,0,0,0,0,0,0,0,-1,678,1618,0,0
-539,-594,0,0,0,0,0,0,0,0,0,-1,685,1618,0,0
-532,-594,0,0,0,0,0,0,0,0,0,-1,692,1618,0,0
-525,-594,0,0,0,0,0,0,0,0,0,-1,699,1618,0,0
-518,-594,0,0,0,0,0,0,0,0,0,-1,706,1618,0,0
-511,-594,0,0,0,0,0,0,0,0,0,-1,713,1618,0,0
-504,-594,0,0,0,0,0,0,0,0,0,-1,720,1618,0,0
-497,-594,0,0,0,0,0,0,0,0,0,-1,727,1618,0,0
-490,-594,0,0,0,0,0,0,0,0,0,-1,734,1618,0,0
-483,-594,0,0,0,0,0,0,0,0,0,-1,741,1618,0,0
-476,-594,0,0,0,0,0,0,0,0,0,-1,748,1618,0,0
-469,-594,0,0,0,0,0,0,0,0,0,-1,755,1618,0,0
-462,-594,0,0,0,0,0,0,0,0,0,-1,762,1618,0,0
-455,-594,-0.509216,-1.58411,0,0,0,0,0,0,0,-1,769,1618,-0.509245,1.58415
-448,-594,-7.71887,-0.0559082,0,0,0,0,0,0,0,-1,776,1618,-7.71885,0.055939
-441,-594,-5.78473,1.18298,0,0,0,0,0,0,0,-1,783,1618,-5.78474,-1.18295
-434,-594,-3.93628,3.06213,0,0,0,0,0,0,0,-1,790,1618,-3.93631,-3.06208
-427,-594,-3.97693,6.77759,0,0,0,0,0,0,0,-1,797,1618,-3.97695,-6.77764
-420,-594,-2.53046,7.71606,0,0,0,0,0,0,0,-1,804,1618,-2.53047,-7.71609
-413,-594,-0.860413,8.00391,0,0,0,0,0,0,0,-1,811,1618,-0.860423,-8.00389
-406,-594,1.74683,11.7155,0,0,0,0,0,0,0,-1,818,1618,1.7468,-11.7154
-399,-594,2.25189,12.181,0,0,0,0,0,0,0,-1,825,1618,2.2519,-12.181
-392,-594,2.19409,12.478,0.00038504,0.000450429,0.000561933,0.000980617,-0.000145148,0.814456,0.000707111,0.0438652,832,1618,2.19407,-12.478
-385,-594,2.1059,12.8226,-0.000628522,-0.0008609,-0.000715216,-2.01187e-05,-0.0014693,-0.704875,0.000972898,0.0269837,839,1618,2.10592,-12.8226
-378,-594,1.99683,13.1112,-0.000969679,-0.000812514,-0.000850513,-3.6961e-05,-0.00174523,-0.831465,0.00115137,0.0117154,846,1618,1.99681,-13.1113
-371,-594,1.99634,13.4346,-0.000989883,-0.000896949,-0.000992598,5.02698e-05,-0.0019371,-0.808788,0.00130848,0.0121095,853,1618,1.99634,-13.4346
-364,-594,2.00159,13.7174,-0.000733337,-0.000779225,-0.000920749,0.000164754,-0.00167732,-0.772941,0.00117698,0.0110411,860,1618,2.00157,-13.7174
-357,-594,2.00012,13.9968,-0.000400735,-0.000658473,-0.000639168,0.000122426,-0.00118163,-0.685922,0.000831574,0.0102977,867,1618,2.00013,-13.9969
-350,-594,1.98969,14.3102,-0.000111747,-0.000331943,-0.000331755,0.000127702,-0.000571392,-0.625184,0.000429865,0.0140855,874,1618,1.9897,-14.3102
-343,-594,1.96686,14.6235,0.000207571,0.000101229,8.42939e-05,0.000254063,5.47379e-05,0.504026,0.000154398,0.0154871,881,1618,1.96683,-14.6235
-336,-594,1.94031,14.8654,0.000510888,0.000593941,0.000541603,0.00109561,9.22143e-06,0.82366,0.000727351,0.0135375,888,1618,1.94028,-14.8653
-329,-594,1.95398,15.124,0.000869263,0.0013565,0.00106538,0.00220576,2.00075e-05,0.897801,0.00146388,0.0133991,895,1618,1.95395,-15.124
-322,-594,1.98846,15.4075,0.00110784,0.00209519,0.00140639,0.00309203,0.000110992,0.954191,0.00202537,0.0156504,902,1618,1.98846,-15.4075
-315,-594,1.99298,15.65,0.00121735,0.00282516,0.00168843,0.0038913,0.000151213,1.00758,0.00254529,0.016559,909,1618,1.99299,-15.65
-308,-594,1.98883,15.9229,0.00134667,0.0032898,0.00174914,0.00431909,0.000317384,1.03891,0.00277965,0.0151681,916,1618,1.98885,-15.9228
-301,-594,1.98267,16.1909,0.00164858,0.00343882,0.00176016,0.00451839,0.000569007,1.02063,0.00284164,0.0119262,923,1618,1.98269,-16.191
-294,-594,2.00641,16.4408,0.00208413,0.00294145,0.00168446,0.00425094,0.000774644,0.909993,0.00261429,0.0114485,930,1618,2.00639,-16.4408
-287,-594,1.99213,16.7053,0.00251308,0.00243407,0.00150452,0.00397862,0.000968533,0.772273,0.00239574,0.0132877,937,1618,1.99214,-16.7054
-280,-594,2.02454,16.9905,0.00311281,0.0013427,0.00116909,0.00369407,0.000761438,0.4614,0.00225222,0.0165215,944,1618,2.02451,-16.9905
-273,-594,2.04114,17.2069,0.00378576,-0.000222388,0.000701388,0.00390495,-0.00034158,0.168329,0.00272431,0.0270985,951,1618,2.04113,-17.2069
-266,-594,1.96283,17.3563,0.00444517,-0.00273383,0.000126342,0.00444739,-0.00273605,0.0175916,0.00418641,0.0390785,958,1618,1.96284,-17.3563
-259,-594,1.89764,17.4806,0.006628,-0.00606463,-0.00116687,0.00673438,-0.00617101,-0.0909173,0.0074533,0.0480479,965,1618,1.89762,-17.4806
-252,-594,2.45612,17.4885,0,0,0,0,0,0,0,-1,972,1618,2.45612,-17.4886
-245,-594,2.59979,17.437,0,0,0,0,0,0,0,-1,979,1618,2.59978,-17.437
-238,-594,2.48499,13.0104,0,0,0,0,0,0,0,-1,986,1618,2.48501,-13.0104
-231,-594,1.93774,9.35388,0,0,0,0,0,0,0,-1,993,1618,1.93776,-9.35393
-224,-594,1.81824,8.62744,0,0,0,0,0,0,0,-1,1000,1618,1.81822,-8.62745
-217,-594,-8.24066,12.0752,0,0,0,0,0,0,0,-1,1007,1618,-8.24068,-12.0751
-210,-594,-5.61438,14.2119,0,0,0,0,0,0,0,-1,1014,1618,-5.6144,-14.212
-203,-594,-3.94507,15.5768,0,0,0,0,0,0,0,-1,1021,1618,-3.94506,-15.5768
-196,-594,2.78613,10.5815,0,0,0,0,0,0,0,-1,1028,1618,2.78612,-10.5815
-189,-594,2.60913,9.48865,0,0,0,0,0,0,0,-1,1035,1618,2.6091,-9.48871
-182,-594,1.2395,9.38806,0,0,0,0,0,0,0,-1,1042,1618,1.23951,-9.38804
-175,-594,0.234863,8.73792,0,0,0,0,0,0,0,-1,1049,1618,0.234812,-8.73786
-168,-594,-0.495483,8.46289,0,0,0,0,0,0,0,-1,1056,1618,-0.495513,-8.46285
-161,-594,-1.39734,8.28699,0,0,0,0,0,0,0,-1,1063,1618,-1.39729,-8.28699
-154,-594,-0.000854492,7.68445,0,0,0,0,0,0,0,-1,1070,1618,-0.000805755,-7.6845
-147,-594,0.348267,9.3385,0,0,0,0,0,0,0,-1,1077,1618,0.348237,-9.33849
-140,-594,0.675171,11.5884,0,0,0,0,0,0,0,-1,1084,1618,0.675204,-11.5884
-133,-594,0,0,0,0,0,0,0,0,0,-1,1091,1618,0,0
-126,-594,0,0,0,0,0,0,0,0,0,-1,1098,1618,0,0
-119,-594,0,0,0,0,0,0,0,0,0,-1,1105,1618,0,0
-112,-594,0,0,0,0,0,0,0,0,0,-1,1112,1618,0,0
-105,-594,0,0,0,0,0,0,0,0,0,-1,1119,1618,0,0
-98,-594,0,0,0,0,0,0,0,0,0,-1,1126,1618,0,0
-91,-594,0,0,0,0,0,0,0,0,0,-1,1133,1618,0,0
-84,-594,0,0,0,0,0,0,0,0,0,-1,1140,1618,0,0
-77,-594,0,0,0,0,0,0,0,0,0,-1,1147,1618,0,0
-70,-594,0,0,0,0,0,0,0,0,0,-1,1154,1618,0,0
-63,-594,0,0,0,0,0,0,0,0,0,-1,1161,1618,0,0
-56,-594,0,0,0,0,0,0,0,0,0,-1,1168,1618,0,0
-49,-594,0,0,0,0,0,0,0,0,0,-1,1175,1618,0,0
-42,-594,0,0,0,0,0,0,0,0,0,-1,1182,1618,0,0
-35,-594,0,0,0,0,0,0,0,0,0,-1,1189,1618,0,0
-28,-594,0,0,0,0,0,0,0,0,0,-1,1196,1618,0,0
-21,-594,0,0,0,0,0,0,0,0,0,-1,1203,1618,0,0
-14,-594,0,0,0,0,0,0,0,0,0,-1,1210,1618,0,0
-7,-594,0,0,0,0,0,0,0,0,0,-1,1217,1618,0,0
0,-594,0,0,0,0,0,0,0,0,0,-1,1224,1618,0,0
7,-594,0,0,0,0,0,0,0,0,0,-1,1231,1618,0,0
14,-594,0,0,0,0,0,0,0,0,0,-1,1238,1618,0,0
21,-594,0,0,0,0,0,0,0,0,0,-1,1245,1618,0,0
28,-594,0,0,0,0,0,0,0,0,0,-1,1252,1618,0,0
35,-594,0,0,0,0,0,0,0,0,0,-1,1259,1618,0,0
42,-594,0,0,0,0,0,0,0,0,0,-1,1266,1618,0,0
49,-594,0,0,0,0,0,0,0,0,0,-1,1273,1618,0,0
56,-594,0,0,0,0,0,0,0,0,0,-1,1280,1618,0,0
63,-594,0,0,0,0,0,0,0,0,0,-1,1287,1618,0,0
70,-594,0,0,0,0,0,0,0,0,0,-1,1294,1618,0,0
77,-594,0,0,0,0,0,0,0,0,0,-1,1301,1618,0,0
84,-594,0,0,0,0,0,0,0,0,0,-1,1308,1618,0,0
91,-594,0,0,0,0,0,0,0,0,0,-1,1315,1618,0,0
98,-594,0,0,0,0,0,0,0,0,0,-1,1322,1618,0,0
105,-594,0,0,0,0,0,0,0,0,0,-1,1329,1618,0,0
112,-594,0,0,0,0,0,0,0,0,0,-1,1336,1618,0,0
119,-594,0,0,0,0,0,0,0,0,0,-1,1343,1618,0,0
126,-594,0,0,0,0,0,0,0,0,0,-1,1350,1618,0,0
133,-594,0,0,0,0,0,0,0,0,0,-1,1357,1618,0,0
140,-594,0,0,0,0,0,0,0,0,0,-1,1364,1618,0,0
147,-594,0,0,0,0,0,0,0,0,0,-1,1371,1618,0,0
154,-594,0,0,0,0,0,0,0,0,0,-1,1378,1618,0,0
161,-594,0,0,0,0,0,0,0,0,0,-1,1385,1618,0,0
168,-594,0,0,0,0,0,0,0,0,0,-1,1392,1618,0,0
175,-594,0,0,0,0,0,0,0,0,0,-1,1399,1618,0,0
182,-594,0,0,0,0,0,0,0,0,0,-1,1406,1618,0,0
189,-594,0,0,0,0,0,0,0,0,0,-1,1413,1618,0,0
196,-594,0,0,0,0,0,0,0,0,0,-1,1420,1618,0,0
203,-594,0,0,0,0,0,0,0,0,0,-1,1427,1618,0,0
210,-594,0,0,0,0,0,0,0,0,0,-1,1434,1618,0,0
217,-594,0,0,0,0,0,0,0,0,0,-1,1441,1618,0,0
224,-594,0,0,0,0,0,0,0,0,0,-1,1448,1618,0,0
231,-594,0,0,0,0,0,0,0,0,0,-1,1455,1618,0,0
238,-594,0,0,0,0,0,0,0,0,0,-1,1462,1618,0,0
245,-594,0,0,0,0,0,0,0,0,0,-1,1469,1618,0,0
252,-594,3.03674,1.20996,0,0,0,0,0,0,0,-1,1476,1618,3.0368,-1.20999
259,-594,4.79834,1.53113,0,0,0,0,0,0,0,-1,1483,1618,4.79837,-1.53118
266,-594,3.71606,2.68152,0,0,0,0,0,0,0,-1,1490,1618,3.71609,-2.68149
273,-594,9.7655,6.33557,0,0,0,0,0,0,0,-1,1497,1618,9.76555,-6.33554
280,-594,3.13281,0.911255,0,0,0,0,0,0,0,-1,1504,1618,3.13277,-0.911207
287,-594,4.42749,1.51563,0,0,0,0,0,0,0,-1,1511,1618,4.42747,-1.51564
294,-594,5.36475,3.34937,0,0,0,0,0,0,0,-1,1518,1618,5.36475,-3.3494
301,-594,7.97144,9.04333,0,0,0,0,0,0,0,-1,1525,1618,7.9714,-9.04328
308,-594,6.30347,10.4633,0,0,0,0,0,0,0,-1,1532,1618,6.30351,-10.4633
315,-594,4.62012,11.934,0,0,0,0,0,0,0,-1,1539,1618,4.62006,-11.934
322,-594,2.91528,13.3134,0,0,0,0,0,0,0,-1,1546,1618,2.91523,-13.3133
329,-594,4.19861,9.77258,0,0,0,0,0,0,0,-1,1553,1618,4.19865,-9.77264
336,-594,10.1353,4.66528,0,0,0,0,0,0,0,-1,1560,1618,10.1353,-4.66533
343,-594,10.5729,3.71228,0,0,0,0,0,0,0,-1,1567,1618,10.5729,-3.71232
350,-594,10.219,2.98792,0,0,0,0,0,0,0,-1,1574,1618,10.219,-2.98797
357,-594,9.83154,1.96326,0,0,0,0,0,0,0,-1,1581,1618,9.8315,-1.96321
364,-594,9.74939,0.700562,0,0,0,0,0,0,0,-1,1588,1618,9.74939,-0.700615
371,-594,8.54297,14.3988,0,0,0,0,0,0,0,-1,1595,1618,8.54296,-14.3989
378,-594,8.9137,16.3073,0,0,0,0,0,0,0,-1,1602,1618,8.91369,-16.3072
385,-594,9.73145,18.7067,0,0,0,0,0,0,0,-1,1609,1618,9.7315,-18.7067
392,-594,9.65015,18.1885,0,0,0,0,0,0,0,-1,1616,1618,9.65016,-18.1884
399,-594,9.19531,18.1401,-0.00639781,-0.00778872,0.0118104,0.00473763,-0.0189242,0.75599,0.0144564,0.04699,1623,1618,9.19535,-18.1401
406,-594,9.24316,17.9475,-0.00547256,-0.00801859,0.0108298,0.0041588,-0.01765,0.726893,0.0133703,0.0274914,1630,1618,9.24316,-17.9475
413,-594,9.18152,17.7778,-0.00458062,-0.00782911,0.00971234,0.00364236,-0.0160521,0.702547,0.0120996,0.0222903,1637,1618,9.18147,-17.7778
420,-594,9.1781,17.5363,-0.0038408,-0.00734932,0.00862179,0.00320338,-0.0143935,0.685034,0.0108227,0.0196137,1644,1618,9.17812,-17.5362
427,-594,9.15747,17.3826,-0.00312019,-0.00657374,0.00752483,0.00287345,-0.0125674,0.672612,0.00948233,0.0129754,1651,1618,9.15751,-17.3825
434,-594,9.12195,17.1327,-0.00252426,-0.00570785,0.00644554,0.00252314,-0.0107552,0.66434,0.00814258,0.0157349,1658,1618,9.12195,-17.1327
441,-594,9.1178,16.8942,-0.00180799,-0.00484562,0.00523096,0.00212019,-0.0087738,0.644108,0.00666923,0.0147314,1665,1618,9.11785,-16.8941
448,-594,9.15918,16.6591,-0.00100634,-0.00392305,0.00403656,0.00182724,-0.00675662,0.612051,0.00522118,0.0159063,1672,1618,9.15913,-16.659
455,-594,9.13306,16.3916,-0.000349645,-0.00315742,0.00299563,0.00155474,-0.00506181,0.566272,0.00399494,0.0123778,1679,1618,9.13307,-16.3916
462,-594,9.11987,16.1361,0.000339022,-0.00249108,0.00191234,0.00130292,-0.00345499,0.466876,0.0028391,0.0132514,1686,1618,9.11989,-16.1361
469,-594,9.12317,15.9034,0.00110937,-0.00195307,0.000860746,0.00133471,-0.00217842,0.256054,0.00204771,0.0119296,1693,1618,9.12319,-15.9035
476,-594,9.12085,15.6661,0.00189364,-0.00141055,-0.000212718,0.00190728,-0.00142419,-0.064026,0.00193015,0.0124298,1700,1618,9.12083,-15.6661
483,-594,9.1106,15.4045,0.00268926,-0.000786475,-0.00126401,0.00310033,-0.00119754,-0.314419,0.00256115,0.0149325,1707,1618,9.11065,-15.4045
490,-594,9.10449,15.1321,0.00350182,-0.000303842,-0.00223907,0.00453739,-0.00133941,-0.4332,0.00355649,0.0126212,1714,1618,9.1045,-15.132
497,-594,9.10535,14.8683,0.00423986,0.000225495,-0.00321104,0.00601944,-0.00155409,-0.506067,0.00461898,0.00929156,1721,1618,9.10532,-14.8683
504,-594,9.09778,14.6002,0.00483024,0.00074768,-0.00384221,0.00713975,-0.00156184,-0.541221,0.00535689,0.00960089,1728,1618,9.09783,-14.6002
511,-594,9.11279,14.3345,0.0053703,0.00143364,-0.00461394,0.00841821,-0.00161428,-0.583783,0.00622045,0.0123006,1735,1618,9.11283,-14.3345
518,-594,9.13098,14.0646,0.00567335,0.00215095,-0.00527396,0.00947241,-0.00164811,-0.624248,0.00692994,0.015643,1742,1618,9.13097,-14.0646
525,-594,9.1814,13.8116,0.00558553,0.00255183,-0.00553129,0.00980419,-0.00166683,-0.651573,0.00715673,0.0267739,1749,1618,9.18136,-13.8116
532,-594,9.22473,13.1565,0.00508844,0.00336475,-0.00551751,0.00981101,-0.00135782,-0.707923,0.00703708,0.0439614,1756,1618,9.22471,-13.1565
539,-594,9.08911,12.557,0,0,0,0,0,0,0,-1,1763,1618,9.0891,-12.557
546,-594,7.48645,8.54785,0,0,0,0,0,0,0,-1,1770,1618,7.48639,-8.54789
553,-594,3.69714,5.68762,0,0,0,0,0,0,0,-1,1777,1618,3.69715,-5.68764
560,-594,6.06616,4.44482,0,0,0,0,0,0,0,-1,1784,1618,6.06621,-4.44477
567,-594,5.97266,4.73303,0,0,0,0,0,0,0,-1,1791,1618,5.97271,-4.73309
574,-594,5.9906,4.96326,0,0,0,0,0,0,0,-1,1798,1618,5.99065,-4.96326
581,-594,0,0,0,0,0,0,0,0,0,-1,1805,1618,0,0
588,-594,0,0,0,0,0,0,0,0,0,-1,1812,1618,0,0
595,-594,0,0,0,0,0,0,0,0,0,-1,1819,1618,0,0
602,-594,0,0,0,0,0,0,0,0,0,-1,1826,1618,0,0
609,-594,0,0,0,0,0,0,0,0,0,-1,1833,1618,0,0
616,-594,0,0,0,0,0,0,0,0,0,-1,1840,1618,0,0
623,-594,0,0,0,0,0,0,0,0,0,-1,1847,1618,0,0
630,-594,0,0,0,0,0,0,0,0,0,-1,1854,1618,0,0
637,-594,0,0,0,0,0,0,0,0,0,-1,1861,1618,0,0
644,-594,0,0,0,0,0,0,0,0,0,-1,1868,1618,0,0
651,-594,0,0,0,0,0,0,0,0,0,-1,1875,1618,0,0
658,-594,0,0,0,0,0,0,0,0,0,-1,1882,1618,0,0
665,-594,0,0,0,0,0,0,0,0,0,-1,1889,1618,0,0
672,-594,0,0,0,0,0,0,0,0,0,-1,1896,1618,0,0
679,-594,0,0,0,0,0,0,0,0,0,-1,1903,1618,0,0
686,-594,0,0,0,0,0,0,0,0,0,-1,1910,1618,0,0
693,-594,0,0,0,0,0,0,0,0,0,-1,1917,1618,0,0
700,-594,0,0,0,0,0,0,0,0,0,-1,1924,1618,0,0
707,-594,0,0,0,0,0,0,0,0,0,-1,1931,1618,0,0
714,-594,0,0,0,0,0,0,0,0,0,-1,1938,1618,0,0
721,-594,0,0,0,0,0,0,0,0,0,-1,1945,1618,0,0
728,-594,0,0,0,0,0,0,0,0,0,-1,1952,1618,0,0
735,-594,0,0,0,0,0,0,0,0,0,-1,1959,1618,0,0
742,-594,0,0,0,0,0,0,0,0,0,-1,1966,1618,0,0
749,-594,0,0,0,0,0,0,0,0,0,-1,1973,1618,0,0
756,-594,0,0,0,0,0,0,0,0,0,-1,1980,1618,0,0
763,-594,0,0,0,0,0,0,0,0,0,-1,1987,1618,0,0
770,-594,0,0,0,0,0,0,0,0,0,-1,1994,1618,0,0
777,-594,0,0,0,0,0,0,0,0,0,-1,2001,1618,0,0
784,-594,0,0,0,0,0,0,0,0,0,-1,2008,1618,0,0
791,-594,0,0,0,0,0,0,0,0,0,-1,2015,1618,0,0
798,-594,0,0,0,0,0,0,0,0,0,-1,2022,1618,0,0
805,-594,0,0,0,0,0,0,0,0,0,-1,2029,1618,0,0
812,-594,0,0,0,0,0,0,0,0,0,-1,2036,1618,0,0
-700,-601,0,0,0,0,0,0,0,0,0,-1,524,1625,0,0
-693,-601,0,0,0,0,0,0,0,0,0,-1,531,1625,0,0
-686,-601,0,0,0,0,0,0,0,0,0,-1,538,1625,0,0
-679,-601,0,0,0,0,0,0,0,0,0,-1,545,1625,0,0
-672,-601,0,0,0,0,0,0,0,0,0,-1,552,1625,0,0
-665,-601,0,0,0,0,0,0,0,0,0,-1,559,1625,0,0
-658,-601,0,0,0,0,0,0,0,0,0,-1,566,1625,0,0
-651,-601,0,0,0,0,0,0,0,0,0,-1,573,1625,0,0
-644,-601,0,0,0,0,0,0,0,0,0,-1,580,1625,0,0
-637,-601,0,0,0,0,0,0,0,0,0,-1,587,1625,0,0
-630,-601,0,0,0,0,0,0,0,0,0,-1,594,1625,0,0
-623,-601,0,0,0,0,0,0,0,0,0,-1,601,1625,0,0
-616,-601,0,0,0,0,0,0,0,0,0,-1,608,1625,0,0
-609,-601,0,0,0,0,0,0,0,0,0,-1,615,1625,0,0
-602,-601,0,0,0,0,0,0,0,0,0,-1,622,1625,0,0
-595,-601,0,0,0,0,0,0,0,0,0,-1,629,1625,0,0
-588,-601,0,0,0,0,0,0,0,0,0,-1,636,1625,0,0
-581,-601,0,0,0,0,0,0,0,0,0,-1,643,1625,0,0
-574,-601,0,0,0,0,0,0,0,0,0,-1,650,1625,0,0
-567,-601,0,0,0,0,0,0,0,0,0,-1,657,1625,0,0
-560,-601,0,0,0,0,0,0,0,0,0,-1,664,1625,0,0
-553,-601,0,0,0,0,0,0,0,0,0,-1,671,1625,0,0
-546,-601,0,0,0,0,0,0,0,0,0,-1,678,1625,0,0
-539,-601,0,0,0,0,0,0,0,0,0,-1,685,1625,0,0
-532,-601,0,0,0,0,0,0,0,0,0,-1,692,1625,0,0
-525,-601,0,0,0,0,0,0,0,0,0,-1,699,1625,0,0
-518,-601,0,0,0,0,0,0,0,0,0,-1,706,1625,0,0
-511,-601,0,0,0,0,0,0,0,0,0,-1,713,1625,0,0
-504,-601,0,0,0,0,0,0,0,0,0,-1,720,1625,0,0
-497,-601,0,0,0,0,0,0,0,0,0,-1,727,1625,0,0
-490,-601,0,0,0,0,0,0,0,0,0,-1,734,1625,0,0
-483,-601,0,0,0,0,0,0,0,0,0,-1,741,1625,0,0
-476,-601,0,0,0,0,0,0,0,0,0,-1,748,1625,0,0
-469,-601,0,0,0,0,0,0,0,0,0,-1,755,1625,0,0
-462,-601,0,0,0,0,0,0,0,0,0,-1,762,1625,0,0
-455,-601,0,0,0,0,0,0,0,0,0,-1,769,1625,0,0
-448,-601,-7.07623,2.7616,0,0,0,0,0,0,0,-1,776,1625,-7.07626,-2.76161
-441,-601,-6.06689,3.33447,0,0,0,0,0,0,0,-1,783,1625,-6.06691,-3.33448
-434,-601,-5.02655,3.8468,0,0,0,0,0,0,0,-1,790,1625,-5.02657,-3.84674
-427,-601,-5.78601,4.2406,0,0,0,0,0,0,0,-1,797,1625,-5.786,-4.24058
-420,-601,-5.5191,5.60364,0,0,0,0,0,0,0,-1,804,1625,-5.51907,-5.60368
-413,-601,-4.30756,5.86047,0,0,0,0,0,0,0,-1,811,1625,-4.30757,-5.86046
-406,-601,-1.67493,7.20422,0,0,0,0,0,0,0,-1,818,1625,-1.67493,-7.20428
-399,-601,2.57819,12.0142,0,0,0,0,0,0,0,-1,825,1625,2.57818,-12.0141
-392,-601,2.55261,12.4414,-3.41723e-05,0.000236442,-0.000410307,0.000533176,-0.000330907,-0.944668,0.000503414,0.0496613,832,1625,2.5526,-12.4414
-385,-601,2.60309,12.8572,-0.00098285,-0.000937394,-0.00142138,0.000461443,-0.00238169,-0.793393,0.00176186,0.041553,839,1625,2.60308,-12.8572
-378,-601,2.41309,13.1218,-0.00135891,-0.000972341,-0.00144833,0.000295548,-0.0026268,-0.851732,0.00185757,0.0298232,846,1625,2.41311,-13.1218
-371,-601,2.29352,13.4192,-0.00148916,-0.00116938,-0.00150184,0.000181059,-0.0028396,-0.83843,0.00195622,0.016243,853,1625,2.29353,-13.4192
-364,-601,2.28583,13.7104,-0.00121241,-0.00121445,-0.00143972,0.000226289,-0.00265316,-0.785044,0.00184882,0.0113868,860,1625,2.28583,-13.7104
-357,-601,2.26929,14.0221,-0.000829475,-0.00124799,-0.00116002,0.000140011,-0.00221747,-0.696163,0.00152713,0.0100726,867,1625,2.26928,-14.022
-350,-601,2.28503,14.3698,-0.000575986,-0.00102325,-0.000812118,4.27284e-05,-0.00164196,-0.651044,0.00110916,0.0201467,874,1625,2.28501,-14.3697
-343,-601,2.24622,14.6866,-0.000303659,-0.000705912,-0.000446136,-1.54098e-05,-0.000994162,-0.57363,0.000657698,0.0214978,881,1625,2.2462,-14.6867
-336,-601,2.21027,14.9089,2.55191e-05,-0.000304146,-3.1957e-05,2.85884e-05,-0.000307215,-0.09575,0.000214974,0.0175597,888,1625,2.21024,-14.9089
-329,-601,2.22394,15.1472,0.000413089,0.000333326,0.000448033,0.000823012,-7.65965e-05,0.741008,0.000575907,0.0141306,895,1625,2.22393,-15.1472
-322,-601,2.22717,15.403,0.000693984,0.000976659,0.000746432,0.00159502,7.56264e-05,0.878966,0.00103905,0.0119872,902,1625,2.22715,-15.403
-315,-601,2.25555,15.6538,0.000815824,0.00162203,0.000960152,0.00226026,0.000177588,0.98414,0.00145127,0.0126225,909,1625,2.25555,-15.6538
-308,-601,2.25385,15.9116,0.000971294,0.00200241,0.000984186,0.0025979,0.000375806,1.02667,0.00162125,0.01184,916,1625,2.25386,-15.9116
-301,-601,2.25024,16.1841,0.00128787,0.00210606,0.000956196,0.00273699,0.000656927,0.987533,0.00164987,0.010258,923,1625,2.25025,-16.1841
-294,-601,2.24011,16.4479,0.00173235,0.00169007,0.000886112,0.00259757,0.000824845,0.77347,0.00153263,0.0101097,930,1625,2.24009,-16.4479
-287,-601,2.22552,16.7231,0.00216126,0.00128677,0.000750041,0.0025922,0.000855832,0.521502,0.00152512,0.00977537,937,1625,2.22553,-16.7232
-280,-601,2.2464,16.9856,0.00272854,0.000425355,0.000513118,0.00283769,0.000316211,0.209583,0.00179569,0.00972604,944,1625,2.24641,-16.9856
-273,-601,2.25952,17.2385,0.0033566,-0.000835752,0.000174822,0.00336388,-0.000843029,0.0416039,0.00257011,0.0103932,951,1625,2.25955,-17.2385
-266,-601,2.27545,17.4806,0.00388922,-0.00278365,-0.000186382,0.00389442,-0.00278885,-0.0279023,0.00387615,0.0136421,958,1625,2.27547,-17.4806
-259,-601,2.34015,17.6162,0.0056466,-0.00532571,-0.00105208,0.00574657,-0.00542568,-0.094735,0.00645119,0.0245574,965,1625,2.34014,-17.6162
-252,-601,2.55811,17.6299,0.0074763,-0.00843724,-0.00167633,0.00765096,-0.00861191,-0.103822,0.00939484,0.0420313,972,1625,2.55811,-17.6298
-245,-601,2.76776,17.6843,0.00905625,-0.0127789,-0.000144291,0.00905721,-0.0127799,-0.00660779,0.0126686,0.0465634,979,1625,2.76779,-17.6843
-238,-601,2.96313,17.7881,0,0,0,0,0,0,0,-1,986,1625,2.96316,-17.7881
-231,-601,2.66772,13.7051,0,0,0,0,0,0,0,-1,993,1625,2.6677,-13.7051
-224,-601,-0.0305176,9.13684,0,0,0,0,0,0,0,-1,1000,1625,-0.030498,-9.13681
-217,-601,3.39429,10.3898,0,0,0,0,0,0,0,-1,1007,1625,3.39431,-10.3898
-210,-601,-6.53699,15.7931,0,0,0,0,0,0,0,-1,1014,1625,-6.53697,-15.7931
-203,-601,2.69348,15.9099,0,0,0,0,0,0,0,-1,1021,1625,2.69351,-15.91
-196,-601,2.66992,16.1815,0,0,0,0,0,0,0,-1,1028,1625,2.66995,-16.1815
-189,-601,2.849,16.6105,0,0,0,0,0,0,0,-1,1035,1625,2.84902,-16.6104
-182,-601,1.82153,13.9752,0,0,0,0,0,0,0,-1,1042,1625,1.82155,-13.9752
-175,-601,0.544922,9.28687,0,0,0,0,0,0,0,-1,1049,1625,0.544879,-9.28685
-168,-601,-0.247559,8.97461,0,0,0,0,0,0,0,-1,1056,1625,-0.247598,-8.97466
-161,-601,-1.16833,8.80078,0,0,0,0,0,0,0,-1,1063,1625,-1.16837,-8.80081
-154,-601,1.12756,7.94861,0,0,0,0,0,0,0,-1,1070,1625,1.12762,-7.94855
-147,-601,1.35352,9.55432,0,0,0,0,0,0,0,-1,1077,1625,1.35351,-9.55429
-140,-601,1.72437,11.1498,0,0,0,0,0,0,0,-1,1084,1625,1.72432,-11.1498
-133,-601,2.13281,12.8347,0,0,0,0,0,0,0,-1,1091,1625,2.13287,-12.8348
-126,-601,3.09534,15.427,0,0,0,0,0,0,0,-1,1098,1625,3.0953,-15.4271
-119,-601,1.22485,9.43457,0,0,0,0,0,0,0,-1,1105,1625,1.22489,-9.43456
-112,-601,0,0,0,0,0,0,0,0,0,-1,1112,1625,0,0
-105,-601,0,0,0,0,0,0,0,0,0,-1,1119,1625,0,0
-98,-601,0,0,0,0,0,0,0,0,0,-1,1126,1625,0,0
-91,-601,0,0,0,0,0,0,0,0,0,-1,1133,1625,0,0
-84,-601,0,0,0,0,0,0,0,0,0,-1,1140,1625,0,0
-77,-601,0,0,0,0,0,0,0,0,0,-1,1147,1625,0,0
-70,-601,0,0,0,0,0,0,0,0,0,-1,1154,1625,0,0
-63,-601,0,0,0,0,0,0,0,0,0,-1,1161,1625,0,0
-56,-601,0,0,0,0,0,0,0,0,0,-1,1168,1625,0,0
-49,-601,0,0,0,0,0,0,0,0,0,-1,1175,1625,0,0
-42,-601,0,0,0,0,0,0,0,0,0,-1,1182,1625,0,0
-35,-601,0,0,0,0,0,0,0,0,0,-1,1189,1625,0,0
-28,-601,0,0,0,0,0,0,0,0,0,-1,1196,1625,0,0
-21,-601,0,0,0,0,0,0,0,0,0,-1,1203,1625,0,0
-14,-601,0,0,0,0,0,0,0,0,0,-1,1210,1625,0,0
-7,-601,0,0,0,0,0,0,0,0,0,-1,1217,1625,0,0
0,-601,0,0,0,0,0,0,0,0,0,-1,1224,1625,0,0
7,-601,0,0,0,0,0,0,0,0,0,-1,1231,1625,0,0
14,-601,0,0,0,0,0,0,0,0,0,-1,1238,1625,0,0
21,-601,0,0,0,0,0,0,0,0,0,-1,1245,1625,0,0
28,-601,0,0,0,0,0,0,0,0,0,-1,1252,1625,0,0
35,-601,0,0,0,0,0,0,0,0,0,-1,1259,1625,0,0
42,-601,0,0,0,0,0,0,0,0,0,-1,1266,1625,0,0
49,-601,0,0,0,0,0,0,0,0,0,-1,1273,1625,0,0
56,-601,0,0,0,0,0,0,0,0,0,-1,1280,1625,0,0
63,-601,0,0,0,0,0,0,0,0,0,-1,1287,1625,0,0
70,-601,0,0,0,0,0,0,0,0,0,-1,1294,1625,0,0
77,-601,0,0,0,0,0,0,0,0,0,-1,1301,1625,0,0
84,-601,0,0,0,0,0,0,0,0,0,-1,1308,1625,0,0
91,-601,0,0,0,0,0,0,0,0,0,-1,1315,1625,0,0
98,-601,0,0,0,0,0,0,0,0,0,-1,1322,1625,0,0
105,-601,0,0,0,0,0,0,0,0,0,-1,1329,1625,0,0
112,-601,0,0,0,0,0,0,0,0,0,-1,1336,1625,0,0
119,-601,0,0,0,0,0,0,0,0,0,-1,1343,1625,0,0
126,-601,0,0,0,0,0,0,0,0,0,-1,1350,1625,0,0
133,-601,0,0,0,0,0,0,0,0,0,-1,1357,1625,0,0
140,-601,0,0,0,0,0,0,0,0,0,-1,1364,1625,0,0
147,-601,0,0,0,0,0,0,0,0,0,-1,1371,1625,0,0
154,-601,0,0,0,0,0,0,0,0,0,-1,1378,1625,0,0
161,-601,0,0,0,0,0,0,0,0,0,-1,1385,1625,0,0
168,-601,0,0,0,0,0,0,0,0,0,-1,1392,1625,0,0
175,-601,0,0,0,0,0,0,0,0,0,-1,1399,1625,0,0
182,-601,0,0,0,0,0,0,0,0,0,-1,1406,1625,0,0
189,-601,0,0,0,0,0,0,0,0,0,-1,1413,1625,0,0
196,-601,0,0,0,0,0,0,0,0,0,-1,1420,1625,0,0
203,-601,0,0,0,0,0,0,0,0,0,-1,1427,1625,0,0
210,-601,0,0,0,0,0,0,0,0,0,-1,1434,1625,0,0
217,-601,0,0,0,0,0,0,0,0,0,-1,1441,1625,0,0
224,-601,0,0,0,0,0,0,0,0,0,-1,1448,1625,0,0
231,-601,-0.0371094,0.525879,0,0,0,0,0,0,0,-1,1455,1625,-0.0371518,-0.525824
238,-601,2.03369,-1.32861,0,0,0,0,0,0,0,-1,1462,1625,2.03364,1.32858
245,-601,2.71375,2.44983,0,0,0,0,0,0,0,-1,1469,1625,2.71371,-2.44979
252,-601,4.66943,2.28381,0,0,0,0,0,0,0,-1,1476,1625,4.66947,-2.28376
259,-601,6.42712,2.61987,0,0,0,0,0,0,0,-1,1483,1625,6.42711,-2.61985
266,-601,6.75317,1.68701,0,0,0,0,0,0,0,-1,1490,1625,6.75323,-1.687
273,-601,5.4314,2.92053,0,0,0,0,0,0,0,-1,1497,1625,5.43144,-2.92051
280,-601,4.64722,1.17786,0,0,0,0,0,0,0,-1,1504,1625,4.64722,-1.1779
287,-601,5.32532,2.6217,0,0,0,0,0,0,0,-1,1511,1625,5.32535,-2.62171
294,-601,5.97693,4.22693,0,0,0,0,0,0,0,-1,1518,1625,5.97697,-4.22694
301,-601,7.28162,9.50024,0,0,0,0,0,0,0,-1,1525,1625,7.28162,-9.50025
308,-601,6.53528,10.3927,0,0,0,0,0,0,0,-1,1532,1625,6.53529,-10.3927
315,-601,4.88013,11.7184,0,0,0,0,0,0,0,-1,1539,1625,4.88015,-11.7184
322,-601,3.38098,12.7864,0,0,0,0,0,0,0,-1,1546,1625,3.38104,-12.7864
329,-601,1.8772,13.8768,0,0,0,0,0,0,0,-1,1553,1625,1.87716,-13.8768
336,-601,4.67847,9.53308,0,0,0,0,0,0,0,-1,1560,1625,4.67848,-9.53309
343,-601,11.1404,3.14575,0,0,0,0,0,0,0,-1,1567,1625,11.1404,-3.1458
350,-601,10.9462,2.37769,0,0,0,0,0,0,0,-1,1574,1625,10.9461,-2.37764
357,-601,10.7518,1.6095,0,0,0,0,0,0,0,-1,1581,1625,10.7518,-1.60948
364,-601,5.33643,9.74426,0,0,0,0,0,0,0,-1,1588,1625,5.33637,-9.74429
371,-601,8.46387,16.2725,0,0,0,0,0,0,0,-1,1595,1625,8.46385,-16.2725
378,-601,9.20715,18.9772,0,0,0,0,0,0,0,-1,1602,1625,9.20711,-18.9772
385,-601,9.36987,18.733,-0.00563281,-0.00159718,0.0086668,0.00528361,-0.0125136,0.899771,0.0105541,0.0459599,1609,1625,9.36984,-18.7331
392,-601,9.25403,18.3807,-0.00537647,-0.00372014,0.00876216,0.00425291,-0.0133495,0.832516,0.0106055,0.0431095,1616,1625,9.25406,-18.3807
399,-601,8.8501,18.2006,-0.00461948,-0.00466701,0.00855125,0.00390804,-0.0131945,0.784008,0.010348,0.0215533,1623,1625,8.85013,-18.2005
406,-601,8.901,17.9872,-0.00402178,-0.00515015,0.00787709,0.0033113,-0.0124832,0.749648,0.00961784,0.0143592,1630,1625,8.90106,-17.9872
413,-601,8.89392,17.7897,-0.00341508,-0.00532091,0.00709861,0.00279429,-0.0115303,0.718677,0.00876798,0.0125628,1637,1625,8.8939,-17.7897
420,-601,8.86804,17.6069,-0.00282586,-0.00502816,0.00623706,0.0024065,-0.0102605,0.698024,0.00776778,0.0101329,1644,1625,8.86799,-17.6069
427,-601,8.88586,17.3826,-0.00221718,-0.0046199,0.00538341,0.00209729,-0.00893436,0.675617,0.0067646,0.0142926,1651,1625,8.88592,-17.3826
434,-601,8.89099,17.1331,-0.00166632,-0.00405726,0.00448043,0.00177538,-0.00749896,0.655025,0.00568428,0.0158249,1658,1625,8.89101,-17.1331
441,-601,8.90613,16.8885,-0.000984845,-0.00347641,0.00346706,0.00145345,-0.00591471,0.612921,0.00450644,0.0166382,1665,1625,8.90619,-16.8885
448,-601,8.91162,16.6532,-0.000171319,-0.0027687,0.00240215,0.00126072,-0.00420075,0.537585,0.00330196,0.0136758,1672,1625,8.91162,-16.6533
455,-601,8.90417,16.395,0.000533822,-0.00222802,0.00149387,0.00118725,-0.00288145,0.412334,0.002416,0.0125635,1679,1625,8.90417,-16.395
462,-601,8.88367,16.1438,0.00131195,-0.00179314,0.000528544,0.00139946,-0.00188065,0.164065,0.00190055,0.0110719,1686,1625,8.88368,-16.1438
469,-601,8.87793,15.9098,0.00220039,-0.00147534,-0.000433395,0.0022508,-0.00152575,-0.115792,0.00219375,0.0110967,1693,1625,8.87788,-15.9097
476,-601,8.86084,15.6693,0.00313428,-0.00119289,-0.00143841,0.0035688,-0.0016274,-0.293365,0.00306903,0.0136711,1700,1625,8.8608,-15.6693
483,-601,8.84131,15.4054,0.00409393,-0.000704342,-0.00247885,0.00514452,-0.00175493,-0.40087,0.00414053,0.0171521,1707,1625,8.84133,-15.4054
490,-601,8.84351,15.1378,0.00508948,-0.000354822,-0.00348122,0.0067865,-0.00205184,-0.453579,0.0053413,0.0119458,1714,1625,8.84349,-15.1378
497,-601,8.85645,14.8729,0.00603565,0.000101091,-0.00449911,0.00845787,-0.00232113,-0.493877,0.00655083,0.00886924,1721,1625,8.85643,-14.873
504,-601,8.89063,14.5992,0.00688631,0.000589957,-0.00520261,0.0098191,-0.00234283,-0.513312,0.00745082,0.0137344,1728,1625,8.8906,-14.5993
511,-601,8.89026,14.3778,0.00761612,0.00129631,-0.00613493,0.0113571,-0.00244468,-0.547584,0.00850425,0.0245225,1735,1625,8.89027,-14.3778
518,-601,8.93079,14.1219,0.00810795,0.00213673,-0.00703505,0.0127647,-0.00252003,-0.584721,0.00946234,0.0364538,1742,1625,8.93083,-14.122
525,-601,9.01978,13.8246,0.008274,0.00312423,-0.00774564,0.0138615,-0.0024633,-0.624929,0.0101621,0.0470183,1749,1625,9.01979,-13.8245
532,-601,9.11316,13.5988,0,0,0,0,0,0,0,-1,1756,1625,9.11311,-13.5988
539,-601,7.77112,11.4299,0,0,0,0,0,0,0,-1,1763,1625,7.77116,-11.4299
546,-601,6.56873,3.62354,0,0,0,0,0,0,0,-1,1770,1625,6.56867,-3.62352
553,-601,7.03015,4.25049,0,0,0,0,0,0,0,-1,1777,1625,7.03011,-4.25048
560,-601,7.50745,4.83374,0,0,0,0,0,0,0,-1,1784,1625,7.50744,-4.83376
567,-601,7.82043,3.83301,0,0,0,0,0,0,0,-1,1791,1625,7.82041,-3.83303
574,-601,0,0,0,0,0,0,0,0,0,-1,1798,1625,0,0
581,-601,0,0,0,0,0,0,0,0,0,-1,1805,1625,0,0
588,-601,0,0,0,0,0,0,0,0,0,-1,1812,1625,0,0
595,-601,0,0,0,0,0,0,0,0,0,-1,1819,1625,0,0
602,-601,0,0,0,0,0,0,0,0,0,-1,1826,1625,0,0
609,-601,0,0,0,0,0,0,0,0,0,-1,1833,1625,0,0
616,-601,0,0,0,0,0,0,0,0,0,-1,1840,1625,0,0
623,-601,0,0,0,0,0,0,0,0,0,-1,1847,1625,0,0
630,-601,0,0,0,0,0,0,0,0,0,-1,1854,1625,0,0
637,-601,0,0,0,0,0,0,0,0,0,-1,1861,1625,0,0
644,-601,0,0,0,0,0,0,0,0,0,-1,1868,1625,0,0
651,-601,0,0,0,0,0,0,0,0,0,-1,1875,1625,0,0
658,-601,0,0,0,0,0,0,0,0,0,-1,1882,1625,0,0
665,-601,0,0,0,0,0,0,0,0,0,-1,1889,1625,0,0
672,-601,0,0,0,0,0,0,0,0,0,-1,1896,1625,0,0
679,-601,0,0,0,0,0,0,0,0,0,-1,1903,1625,0,0
686,-601,0,0,0,0,0,0,0,0,0,-1,1910,1625,0,0
693,-601,0,0,0,0,0,0,0,0,0,-1,1917,1625,0,0
700,-601,0,0,0,0,0,0,0,0,0,-1,1924,1625,0,0
707,-601,0,0,0,0,0,0,0,0,0,-1,1931,1625,0,0
714,-601,0,0,0,0,0,0,0,0,0,-1,1938,1625,0,0
721,-601,0,0,0,0,0,0,0,0,0,-1,1945,1625,0,0
728,-601,0,0,0,0,0,0,0,0,0,-1,1952,1625,0,0
735,-601,0,0,0,0,0,0,0,0,0,-1,1959,1625,0,0
742,-601,0,0,0,0,0,0,0,0,0,-1,1966,1625,0,0
749,-601,0,0,0,0,0,0,0,0,0,-1,1973,1625,0,0
756,-601,0,0,0,0,0,0,0,0,0,-1,1980,1625,0,0
763,-601,0,0,0,0,0,0,0,0,0,-1,1987,1625,0,0
770,-601,0,0,0,0,0,0,0,0,0,-1,1994,1625,0,0
777,-601,0,0,0,0,0,0,0,0,0,-1,2001,1625,0,0
784,-601,0,0,0,0,0,0,0,0,0,-1,2008,1625,0,0
791,-601,0,0,0,0,0,0,0,0,0,-1,2015,1625,0,0
798,-601,0,0,0,0,0,0,0,0,0,-1,2022,1625,0,0
805,-601,0,0,0,0,0,0,0,0,0,-1,2029,1625,0,0
812,-601,0,0,0,0,0,0,0,0,0,-1,2036,1625,0,0
-700,-608,0,0,0,0,0,0,0,0,0,-1,524,1632,0,0
-693,-608,0,0,0,0,0,0,0,0,0,-1,531,1632,0,0
-686,-608,0,0,0,0,0,0,0,0,0,-1,538,1632,0,0
-679,-608,0,0,0,0,0,0,0,0,0,-1,545,1632,0,0
-672,-608,0,0,0,0,0,0,0,0,0,-1,552,1632,0,0
-665,-608,0,0,0,0,0,0,0,0,0,-1,559,1632,0,0
-658,-608,0,0,0,0,0,0,0,0,0,-1,566,1632,0,0
-651,-608,0,0,0,0,0,0,0,0,0,-1,573,1632,0,0
-644,-608,0,0,0,0,0,0,0,0,0,-1,580,1632,0,0
-637,-608,0,0,0,0,0,0,0,0,0,-1,587,1632,0,0
-630,-608,0,0,0,0,0,0,0,0,0,-1,594,1632,0,0
-623,-608,0,0,0,0,0,0,0,0,0,-1,601,1632,0,0
-616,-608,0,0,0,0,0,0,0,0,0,-1,608,1632,0,0
-609,-608,0,0,0,0,0,0,0,0,0,-1,615,1632,0,0
-602,-608,0,0,0,0,0,0,0,0,0,-1,622,1632,0,0
-595,-608,0,0,0,0,0,0,0,0,0,-1,629,1632,0,0
-588,-608,0,0,0,0,0,0,0,0,0,-1,636,1632,0,0
-581,-608,0,0,0,0,0,0,0,0,0,-1,643,1632,0,0
-574,-608,0,0,0,0,0,0,0,0,0,-1,650,1632,0,0
-567,-608,0,0,0,0,0,0,0,0,0,-1,657,1632,0,0
-560,-608,0,0,0,0,0,0,0,0,0,-1,664,1632,0,0
-553,-608,0,0,0,0,0,0,0,0,0,-1,671,1632,0,0
-546,-608,0,0,0,0,0,0,0,0,0,-1,678,1632,0,0
-539,-608,0,0,0,0,0,0,0,0,0,-1,685,1632,0,0
-532,-608,0,0,0,0,0,0,0,0,0,-1,692,1632,0,0
-525,-608,0,0,0,0,0,0,0,0,0,-1,699,1632,0,0
-518,-608,0,0,0,0,0,0,0,0,0,-1,706,1632,0,0
-511,-608,0,0,0,0,0,0,0,0,0,-1,713,1632,0,0
-504,-608,0,0,0,0,0,0,0,0,0,-1,720,1632,0,0
-497,-608,0,0,0,0,0,0,0,0,0,-1,727,1632,0,0
-490,-608,0,0,0,0,0,0,0,0,0,-1,734,1632,0,0
-483,-608,0,0,0,0,0,0,0,0,0,-1,741,1632,0,0
-476,-608,0,0,0,0,0,0,0,0,0,-1,748,1632,0,0
-469,-608,0,0,0,0,0,0,0,0,0,-1,755,1632,0,0
-462,-608,0,0,0,0,0,0,0,0,0,-1,762,1632,0,0
-455,-608,0,0,0,0,0,0,0,0,0,-1,769,1632,0,0
-448,-608,0,0,0,0,0,0,0,0,0,-1,776,1632,0,0
-441,-608,-7.34601,2.78052,0,0,0,0,0,0,0,-1,783,1632,-7.346,-2.78056
-434,-608,-6.34558,3.27405,0,0,0,0,0,0,0,-1,790,1632,-6.34555,-3.27406
-427,-608,-7.74335,4.17688,0,0,0,0,0,0,0,-1,797,1632,-7.74334,-4.17693
-420,-608,-6.82794,4.34839,0,0,0,0,0,0,0,-1,804,1632,-6.82794,-4.34838
-413,-608,-5.41919,5.66138,0,0,0,0,0,0,0,-1,811,1632,-5.41917,-5.66133
-406,-608,-4.79681,4.98999,0,0,0,0,0,0,0,-1,818,1632,-4.79684,-4.98997
-399,-608,-2.60645,6.34167,0,0,0,0,0,0,0,-1,825,1632,-2.60643,-6.34169
-392,-608,2.95483,12.4976,0,0,0,0,0,0,0,-1,832,1632,2.95482,-12.4976
-385,-608,3.24042,12.7885,0,0,0,0,0,0,0,-1,839,1632,3.24041,-12.7885
-378,-608,2.30823,13.5222,0,0,0,0,0,0,0,-1,846,1632,2.30823,-13.5222
-371,-608,2.42816,13.5754,-0.00191561,-0.001629,-0.00212652,0.000359046,-0.00390365,-0.819042,0.00272999,0.0465476,853,1632,2.42818,-13.5754
-364,-608,2.57001,13.6194,-0.00186598,-0.0017619,-0.00196981,0.00015656,-0.00378444,-0.798604,0.00257673,0.0211797,860,1632,2.56999,-13.6194
-357,-608,2.52966,13.9647,-0.0015716,-0.00186874,-0.00166753,-4.60334e-05,-0.00339431,-0.740968,0.00224769,0.0163657,867,1632,2.52964,-13.9648
-350,-608,2.55884,14.3271,-0.00133023,-0.00171105,-0.00130756,-0.000199284,-0.002842,-0.713095,0.00183185,0.0199806,874,1632,2.55886,-14.3271
-343,-608,2.54138,14.6394,-0.00104046,-0.00147204,-0.00102965,-0.000204228,-0.00230827,-0.682104,0.00147549,0.0231623,881,1632,2.54135,-14.6394
-336,-608,2.5246,14.9076,-0.000618122,-0.00113531,-0.000704858,-0.00012592,-0.00162751,-0.609584,0.00104557,0.0152335,888,1632,2.52459,-14.9076
-329,-608,2.48608,15.1799,-0.000125377,-0.000608149,-0.000306074,2.30428e-05,-0.000756568,-0.451507,0.000512233,0.0134967,895,1632,2.48609,-15.1799
-322,-608,2.47046,15.4341,0.000277917,-4.08701e-05,-6.78507e-05,0.000291758,-5.47106e-05,-0.201223,0.000215074,0.0135484,902,1632,2.47043,-15.434
-315,-608,2.52185,15.6619,0.000489841,0.000540928,8.68539e-05,0.000605916,0.000424852,0.928415,0.00035914,0.0126229,909,1632,2.52184,-15.6618
-308,-608,2.52209,15.9175,0.000731048,0.000867829,0.000106184,0.000925741,0.000673137,1.0715,0.000552553,0.0132204,916,1632,2.52208,-15.9175
-301,-608,2.51147,16.1862,0.0010994,0.000966122,8.86157e-05,0.00114363,0.000921884,0.463014,0.000700309,0.0112182,923,1632,2.51147,-16.1862
-294,-608,2.50366,16.4498,0.00157061,0.000671267,8.36296e-05,0.00157832,0.000663557,0.0919397,0.000915081,0.01074,930,1632,2.50365,-16.4498
-287,-608,2.48389,16.7079,0.00200594,0.000390479,4.81531e-05,0.00200737,0.000389045,0.0297724,0.00122926,0.0104593,937,1632,2.48389,-16.7079
-280,-608,2.50079,16.9553,0.00253678,-0.000247834,-5.19769e-05,0.00253775,-0.000248804,-0.0186571,0.00178057,0.00842654,944,1632,2.50081,-16.9554
-273,-608,2.50452,17.2102,0.00310495,-0.0011804,-0.00022243,0.00311646,-0.00119192,-0.0517195,0.00256884,0.00858586,951,1632,2.5045,-17.2102
-266,-608,2.52576,17.4779,0.00353686,-0.00260821,-0.000388911,0.00356138,-0.00263272,-0.0629534,0.00358954,0.0086651,958,1632,2.52578,-17.4779
-259,-608,2.55115,17.6978,0.0048511,-0.00443012,-0.000891458,0.00493595,-0.00451497,-0.0948936,0.00545829,0.011053,965,1632,2.55113,-17.6978
-252,-608,2.57642,17.8898,0.00614249,-0.00653768,-0.00119828,0.00625473,-0.00664993,-0.0933989,0.00745167,0.0239658,972,1632,2.57642,-17.8897
-245,-608,2.79767,18.2333,0.00754158,-0.00982783,0.000126078,0.0075425,-0.00982875,0.00725811,0.0100582,0.0364618,979,1632,2.79765,-18.2333
-238,-608,2.83289,18.4666,0.00917128,-0.0137695,0.00190161,0.00932784,-0.013926,0.082145,0.0135128,0.0464911,986,1632,2.83287,-18.4665
-231,-608,2.91809,18.7744,0,0,0,0,0,0,0,-1,993,1632,2.91808,-18.7745
-224,-608,2.51642,15.3452,0,0,0,0,0,0,0,-1,1000,1632,2.5164,-15.3452
-217,-608,1.04419,12.8451,0,0,0,0,0,0,0,-1,1007,1632,1.04418,-12.8451
-210,-608,2.75903,15.9414,0,0,0,0,0,0,0,-1,1014,1632,2.75903,-15.9414
-203,-608,2.76776,16.217,0,0,0,0,0,0,0,-1,1021,1632,2.76773,-16.217
-196,-608,3.70288,18.3846,0,0,0,0,0,0,0,-1,1028,1632,3.7029,-18.3846
-189,-608,3.87598,18.2383,0,0,0,0,0,0,0,-1,1035,1632,3.87601,-18.2383
-182,-608,2.89221,16.7092,0,0,0,0,0,0,0,-1,1042,1632,2.89224,-16.7093
-175,-608,0.219116,15.1643,0,0,0,0,0,0,0,-1,1049,1632,0.219173,-15.1644
-168,-608,0.000366211,9.48645,0,0,0,0,0,0,0,-1,1056,1632,0.000317105,-9.48648
-161,-608,2.27832,15.4423,0,0,0,0,0,0,0,-1,1063,1632,2.27826,-15.4423
-154,-608,1.3999,16.4037,0,0,0,0,0,0,0,-1,1070,1632,1.39987,-16.4037
-147,-608,2.4386,9.50317,0,0,0,0,0,0,0,-1,1077,1632,2.43858,-9.50313
-140,-608,2.60132,10.8401,0,0,0,0,0,0,0,-1,1084,1632,2.60134,-10.8401
-133,-608,3.2312,12.4738,0,0,0,0,0,0,0,-1,1091,1632,3.23116,-12.4738
-126,-608,3.76465,13.9644,0,0,0,0,0,0,0,-1,1098,1632,3.76466,-13.9644
-119,-608,4.28906,15.4196,0,0,0,0,0,0,0,-1,1105,1632,4.28911,-15.4195
-112,-608,0.745117,10.5587,0,0,0,0,0,0,0,-1,1112,1632,0.745145,-10.5587
-105,-608,-0.252319,1.42419,0,0,0,0,0,0,0,-1,1119,1632,-0.252331,-1.42418
-98,-608,-2.8595,3.0863,0,0,0,0,0,0,0,-1,1126,1632,-2.85948,-3.08625
-91,-608,-3.71948,1.73608,0,0,0,0,0,0,0,-1,1133,1632,-3.7195,-1.73607
-84,-608,0,0,0,0,0,0,0,0,0,-1,1140,1632,0,0
-77,-608,0,0,0,0,0,0,0,0,0,-1,1147,1632,0,0
-70,-608,0,0,0,0,0,0,0,0,0,-1,1154,1632,0,0
-63,-608,0,0,0,0,0,0,0,0,0,-1,1161,1632,0,0
-56,-608,0,0,0,0,0,0,0,0,0,-1,1168,1632,0,0
-49,-608,0,0,0,0,0,0,0,0,0,-1,1175,1632,0,0
-42,-608,0,0,0,0,0,0,0,0,0,-1,1182,1632,0,0
-35,-608,0,0,0,0,0,0,0,0,0,-1,1189,1632,0,0
-28,-608,0,0,0,0,0,0,0,0,0,-1,1196,1632,0,0
-21,-608,0,0,0,0,0,0,0,0,0,-1,1203,1632,0,0
-14,-608,0,0,0,0,0,0,0,0,0,-1,1210,1632,0,0
-7,-608,0,0,0,0,0,0,0,0,0,-1,1217,1632,0,0
0,-608,0,0,0,0,0,0,0,0,0,-1,1224,1632,0,0
7,-608,0,0,0,0,0,0,0,0,0,-1,1231,1632,0,0
14,-608,0,0,0,0,0,0,0,0,0,-1,1238,1632,0,0
21,-608,0,0,0,0,0,0,0,0,0,-1,1245,1632,0,0
28,-608,0,0,0,0,0,0,0,0,0,-1,1252,1632,0,0
35,-608,0,0,0,0,0,0,0,0,0,-1,1259,1632,0,0
42,-608,0,0,0,0,0,0,0,0,0,-1,1266,1632,0,0
49,-608,0,0,0,0,0,0,0,0,0,-1,1273,1632,0,0
56,-608,0,0,0,0,0,0,0,0,0,-1,1280,1632,0,0
63,-608,0,0,0,0,0,0,0,0,0,-1,1287,1632,0,0
70,-608,0,0,0,0,0,0,0,0,0,-1,1294,1632,0,0
77,-608,0,0,0,0,0,0,0,0,0,-1,1301,1632,0,0
84,-608,0,0,0,0,0,0,0,0,0,-1,1308,1632,0,0
91,-608,0,0,0,0,0,0,0,0,0,-1,1315,1632,0,0
98,-608,0,0,0,0,0,0,0,0,0,-1,1322,1632,0,0
105,-608,0,0,0,0,0,0,0,0,0,-1,1329,1632,0,0
112,-608,0,0,0,0,0,0,0,0,0,-1,1336,1632,0,0
119,-608,0,0,0,0,0,0,0,0,0,-1,1343,1632,0,0
126,-608,0,0,0,0,0,0,0,0,0,-1,1350,1632,0,0
133,-608,0,0,0,0,0,0,0,0,0,-1,1357,1632,0,0
140,-608,0,0,0,0,0,0,0,0,0,-1,1364,1632,0,0
147,-608,0,0,0,0,0,0,0,0,0,-1,1371,1632,0,0
154,-608,0,0,0,0,0,0,0,0,0,-1,1378,1632,0,0
161,-608,0,0,0,0,0,0,0,0,0,-1,1385,1632,0,0
168,-608,0,0,0,0,0,0,0,0,0,-1,1392,1632,0,0
175,-608,0,0,0,0,0,0,0,0,0,-1,1399,1632,0,0
182,-608,0,0,0,0,0,0,0,0,0,-1,1406,1632,0,0
189,-608,0,0,0,0,0,0,0,0,0,-1,1413,1632,0,0
196,-608,0,0,0,0,0,0,0,0,0,-1,1420,1632,0,0
203,-608,0,0,0,0,0,0,0,0,0,-1,1427,1632,0,0
210,-608,5.7157,-0.333008,0,0,0,0,0,0,0,-1,1434,1632,5.71566,0.333004
217,-608,4.49402,-0.831787,0,0,0,0,0,0,0,-1,1441,1632,4.49396,0.831738
224,-608,4.18018,-1.11792,0,0,0,0,0,0,0,-1,1448,1632,4.1802,1.11796
231,-608,0.361816,0.825195,0,0,0,0,0,0,0,-1,1455,1632,0.36185,-0.825226
238,-608,2.85388,-0.28833,0,0,0,0,0,0,0,-1,1462,1632,2.85391,0.288282
245,-608,3.87537,4.02173,0,0,0,0,0,0,0,-1,1469,1632,3.87538,-4.02168
252,-608,5.66956,3.5282,0,0,0,0,0,0,0,-1,1476,1632,5.6696,-3.52815
259,-608,7.47437,3.07178,0,0,0,0,0,0,0,-1,1483,1632,7.4744,-3.07172
266,-608,9.46936,2.34766,0,0,0,0,0,0,0,-1,1490,1632,9.46932,-2.34764
273,-608,6.03003,3.34241,0,0,0,0,0,0,0,-1,1497,1632,6.02997,-3.34245
280,-608,5.72461,2.0769,0,0,0,0,0,0,0,-1,1504,1632,5.72457,-2.07688
287,-608,6.20581,3.59338,0,0,0,0,0,0,0,-1,1511,1632,6.20585,-3.59341
294,-608,6.94922,5.17151,0,0,0,0,0,0,0,-1,1518,1632,6.94925,-5.17151
301,-608,7.60083,6.68018,0,0,0,0,0,0,0,-1,1525,1632,7.60086,-6.68013
308,-608,7.64746,9.93848,0,0,0,0,0,0,0,-1,1532,1632,7.64745,-9.93842
315,-608,5.30688,11.2054,0,0,0,0,0,0,0,-1,1539,1632,5.30694,-11.2054
322,-608,5.32617,13.7581,0,0,0,0,0,0,0,-1,1546,1632,5.32613,-13.758
329,-608,7.12231,13.9607,0,0,0,0,0,0,0,-1,1553,1632,7.12231,-13.9607
336,-608,5.48633,7.82446,0,0,0,0,0,0,0,-1,1560,1632,5.48634,-7.82446
343,-608,5.47192,5.61047,0,0,0,0,0,0,0,-1,1567,1632,5.47192,-5.61045
350,-608,11.6957,1.71387,0,0,0,0,0,0,0,-1,1574,1632,11.6957,-1.71388
357,-608,3.77002,5.10046,0,0,0,0,0,0,0,-1,1581,1632,3.77002,-5.10043
364,-608,5.6925,11.2163,0,0,0,0,0,0,0,-1,1588,1632,5.69255,-11.2163
371,-608,8.71631,19.6899,0,0,0,0,0,0,0,-1,1595,1632,8.71634,-19.69
378,-608,8.71838,19.0249,-0.00364681,0.00365529,0.00585134,0.00690123,-0.00689275,1.06433,0.00796395,0.0411759,1602,1632,8.71838,-19.0249
385,-608,8.82129,18.7157,-0.00388678,0.000244738,0.00630587,0.00481459,-0.00845664,0.943686,0.00775773,0.0322988,1609,1632,8.82133,-18.7157
392,-608,8.65967,18.5046,-0.0037598,-0.00165952,0.00643239,0.00380789,-0.00922721,0.866313,0.00773958,0.0220043,1616,1632,8.65972,-18.5046
399,-608,8.64417,18.2625,-0.00349604,-0.00270195,0.0061624,0.00307618,-0.00927417,0.817569,0.00742375,0.00968382,1623,1632,8.6442,-18.2625
406,-608,8.64709,18.0435,-0.00313303,-0.0032853,0.00563194,0.00242329,-0.00884162,0.778639,0.00684665,0.00900845,1630,1632,8.64708,-18.0435
413,-608,8.61792,17.8285,-0.00272783,-0.00364229,0.00503432,0.00186998,-0.00824009,0.740111,0.00621127,0.0100878,1637,1632,8.61797,-17.8285
420,-608,8.58606,17.6008,-0.00228762,-0.00356832,0.00436158,0.00148037,-0.0073363,0.712511,0.00545174,0.0167616,1644,1632,8.58603,-17.6008
427,-608,8.61072,17.365,-0.001759,-0.00347522,0.00369949,0.0011806,-0.00641481,0.671437,0.00471955,0.0186715,1651,1632,8.61073,-17.365
434,-608,8.62878,17.1431,-0.00119678,-0.00317818,0.00292541,0.000901134,-0.00527609,0.622133,0.00385306,0.0158275,1658,1632,8.62874,-17.143
441,-608,8.63477,16.9016,-0.00049641,-0.00286157,0.0020869,0.000719681,-0.00407767,0.527622,0.00298737,0.0136925,1665,1632,8.63477,-16.9016
448,-608,8.65759,16.6603,0.000401636,-0.00236066,0.00113599,0.000808793,-0.00276782,0.344154,0.00216575,0.0154866,1672,1632,8.65757,-16.6602
455,-608,8.66907,16.41,0.00125035,-0.00203997,0.000346031,0.00128635,-0.00207597,0.103656,0.00195899,0.0119781,1679,1632,8.66904,-16.4101
462,-608,8.65015,16.1516,0.00223693,-0.00181702,-0.000520398,0.00230266,-0.00188276,-0.125654,0.00242051,0.0106175,1686,1632,8.65012,-16.1516
469,-608,8.62341,15.903,0.00338754,-0.00167906,-0.00142801,0.0037623,-0.00205382,-0.256648,0.00340589,0.00870266,1693,1632,8.62347,-15.903
476,-608,8.60339,15.6533,0.00463274,-0.00159563,-0.00241925,0.00546202,-0.00242491,-0.330232,0.0046647,0.00904841,1700,1632,8.60345,-15.6533
483,-608,8.60999,15.4008,0.00593059,-0.00116704,-0.00353679,0.00739206,-0.00262851,-0.39185,0.00599932,0.00880786,1707,1632,8.60995,-15.4008
490,-608,8.62878,15.1385,0.00729391,-0.00083268,-0.00469057,0.0094364,-0.00297517,-0.428466,0.00748249,0.00879894,1714,1632,8.6288,-15.1386
497,-608,8.64331,14.8632,0.00864269,-0.000321401,-0.00590042,0.0115704,-0.00324906,-0.460585,0.00899437,0.0146159,1721,1632,8.64334,-14.8631
504,-608,8.62756,14.6317,0.00978311,0.00021072,-0.00694768,0.0134336,-0.00343978,-0.483782,0.0102957,0.0321413,1728,1632,8.62761,-14.6317
511,-608,8.7168,14.4493,0.0108855,0.00111406,-0.00823693,0.0155767,-0.00357713,-0.517715,0.0117596,0.0462223,1735,1632,8.71681,-14.4493
518,-608,8.75598,14.2465,0,0,0,0,0,0,0,-1,1742,1632,8.75595,-14.2465
525,-608,8.83545,13.8232,0,0,0,0,0,0,0,-1,1749,1632,8.8355,-13.8233
532,-608,8.27917,11.6693,0,0,0,0,0,0,0,-1,1756,1632,8.27919,-11.6694
539,-608,9.40796,1.43457,0,0,0,0,0,0,0,-1,1763,1632,9.40801,-1.43463
546,-608,9.94031,2.1134,0,0,0,0,0,0,0,-1,1770,1632,9.94031,-2.11346
553,-608,10.363,2.81335,0,0,0,0,0,0,0,-1,1777,1632,10.3631,-2.81333
560,-608,9.23999,4.5636,0,0,0,0,0,0,0,-1,1784,1632,9.24,-4.56354
567,-608,0,0,0,0,0,0,0,0,0,-1,1791,1632,0,0
574,-608,0,0,0,0,0,0,0,0,0,-1,1798,1632,0,0
581,-608,0,0,0,0,0,0,0,0,0,-1,1805,1632,0,0
588,-608,0,0,0,0,0,0,0,0,0,-1,1812,1632,0,0
595,-608,0,0,0,0,0,0,0,0,0,-1,1819,1632,0,0
602,-608,0,0,0,0,0,0,0,0,0,-1,1826,1632,0,0
609,-608,0,0,0,0,0,0,0,0,0,-1,1833,1632,0,0
616,-608,0,0,0,0,0,0,0,0,0,-1,1840,1632,0,0
623,-608,0,0,0,0,0,0,0,0,0,-1,1847,1632,0,0
630,-608,0,0,0,0,0,0,0,0,0,-1,1854,1632,0,0
637,-608,0,0,0,0,0,0,0,0,0,-1,1861,1632,0,0
644,-608,0,0,0,0,0,0,0,0,0,-1,1868,1632,0,0
651,-608,0,0,0,0,0,0,0,0,0,-1,1875,1632,0,0
658,-608,0,0,0,0,0,0,0,0,0,-1,1882,1632,0,0
665,-608,0,0,0,0,0,0,0,0,0,-1,1889,1632,0,0
672,-608,0,0,0,0,0,0,0,0,0,-1,1896,1632,0,0
679,-608,0,0,0,0,0,0,0,0,0,-1,1903,1632,0,0
686,-608,0,0,0,0,0,0,0,0,0,-1,1910,1632,0,0
693,-608,0,0,0,0,0,0,0,0,0,-1,1917,1632,0,0
700,-608,0,0,0,0,0,0,0,0,0,-1,1924,1632,0,0
707,-608,0,0,0,0,0,0,0,0,0,-1,1931,1632,0,0
714,-608,0,0,0,0,0,0,0,0,0,-1,1938,1632,0,0
721,-608,0,0,0,0,0,0,0,0,0,-1,1945,1632,0,0
728,-608,0,0,0,0,0,0,0,0,0,-1,1952,1632,0,0
735,-608,0,0,0,0,0,0,0,0,0,-1,1959,1632,0,0
742,-608,0,0,0,0,0,0,0,0,0,-1,1966,1632,0,0
749,-608,0,0,0,0,0,0,0,0,0,-1,1973,1632,0,0
756,-608,0,0,0,0,0,0,0,0,0,-1,1980,1632,0,0
763,-608,0,0,0,0,0,0,0,0,0,-1,1987,1632,0,0
770,-608,0,0,0,0,0,0,0,0,0,-1,1994,1632,0,0
777,-608,0,0,0,0,0,0,0,0,0,-1,2001,1632,0,0
784,-608,0,0,0,0,0,0,0,0,0,-1,2008,1632,0,0
791,-608,0,0,0,0,0,0,0,0,0,-1,2015,1632,0,0
798,-608,0,0,0,0,0,0,0,0,0,-1,2022,1632,0,0
805,-608,0,0,0,0,0,0,0,0,0,-1,2029,1632,0,0
812,-608,0,0,0,0,0,0,0,0,0,-1,2036,1632,0,0
-700,-615,0,0,0,0,0,0,0,0,0,-1,524,1639,0,0
-693,-615,0,0,0,0,0,0,0,0,0,-1,531,1639,0,0
-686,-615,0,0,0,0,0,0,0,0,0,-1,538,1639,0,0
-679,-615,0,0,0,0,0,0,0,0,0,-1,545,1639,0,0
-672,-615,0,0,0,0,0,0,0,0,0,-1,552,1639,0,0
-665,-615,0,0,0,0,0,0,0,0,0,-1,559,1639,0,0
-658,-615,0,0,0,0,0,0,0,0,0,-1,566,1639,0,0
-651,-615,0,0,0,0,0,0,0,0,0,-1,573,1639,0,0
-644,-615,0,0,0,0,0,0,0,0,0,-1,580,1639,0,0
-637,-615,0,0,0,0,0,0,0,0,0,-1,587,1639,0,0
-630,-615,0,0,0,0,0,0,0,0,0,-1,594,1639,0,0
-623,-615,0,0,0,0,0,0,0,0,0,-1,601,1639,0,0
-616,-615,0,0,0,0,0,0,0,0,0,-1,608,1639,0,0
-609,-615,0,0,0,0,0,0,0,0,0,-1,615,1639,0,0
-602,-615,0,0,0,0,0,0,0,0,0,-1,622,1639,0,0
-595,-615,0,0,0,0,0,0,0,0,0,-1,629,1639,0,0
-588,-615,0,0,0,0,0,0,0,0,0,-1,636,1639,0,0
-581,-615,0,0,0,0,0,0,0,0,0,-1,643,1639,0,0
-574,-615,0,0,0,0,0,0,0,0,0,-1,650,1639,0,0
-567,-615,0,0,0,0,0,0,0,0,0,-1,657,1639,0,0
-560,-615,0,0,0,0,0,0,0,0,0,-1,664,1639,0,0
-553,-615,0,0,0,0,0,0,0,0,0,-1,671,1639,0,0
-546,-615,0,0,0,0,0,0,0,0,0,-1,678,1639,0,0
-539,-615,0,0,0,0,0,0,0,0,0,-1,685,1639,0,0
-532,-615,0,0,0,0,0,0,0,0,0,-1,692,1639,0,0
-525,-615,0,0,0,0,0,0,0,0,0,-1,699,1639,0,0
-518,-615,0,0,0,0,0,0,0,0,0,-1,706,1639,0,0
-511,-615,0,0,0,0,0,0,0,0,0,-1,713,1639,0,0
-504,-615,0,0,0,0,0,0,0,0,0,-1,720,1639,0,0
-497,-615,0,0,0,0,0,0,0,0,0,-1,727,1639,0,0
-490,-615,0,0,0,0,0,0,0,0,0,-1,734,1639,0,0
-483,-615,0,0,0,0,0,0,0,0,0,-1,741,1639,0,0
-476,-615,0,0,0,0,0,0,0,0,0,-1,748,1639,0,0
-469,-615,0,0,0,0,0,0,0,0,0,-1,755,1639,0,0
-462,-615,0,0,0,0,0,0,0,0,0,-1,762,1639,0,0
-455,-615,0,0,0,0,0,0,0,0,0,-1,769,1639,0,0
-448,-615,0,0,0,0,0,0,0,0,0,-1,776,1639,0,0
-441,-615,0,0,0,0,0,0,0,0,0,-1,783,1639,0,0
-434,-615,-7.64508,2.98596,0,0,0,0,0,0,0,-1,790,1639,-7.64505,-2.98594
-427,-615,-9.0011,2.89404,0,0,0,0,0,0,0,-1,797,1639,-9.00107,-2.89399
-420,-615,-8.07568,3.0752,0,0,0,0,0,0,0,-1,804,1639,-8.07569,-3.07514
-413,-615,-7.09149,3.396,0,0,0,0,0,0,0,-1,811,1639,-7.09147,-3.39599
-406,-615,-6.21368,3.7312,0,0,0,0,0,0,0,-1,818,1639,-6.21366,-3.73114
-399,-615,-4.84875,3.91907,0,0,0,0,0,0,0,-1,825,1639,-4.84877,-3.91901
-392,-615,1.7395,13.3127,0,0,0,0,0,0,0,-1,832,1639,1.73953,-13.3128
-385,-615,3.74487,12.644,0,0,0,0,0,0,0,-1,839,1639,3.74485,-12.6441
-378,-615,2.80731,13.6726,0,0,0,0,0,0,0,-1,846,1639,2.80732,-13.6726
-371,-615,2.54419,13.7837,0,0,0,0,0,0,0,-1,853,1639,2.54418,-13.7837
-364,-615,2.76306,13.738,0,0,0,0,0,0,0,-1,860,1639,2.76307,-13.7381
-357,-615,2.7561,13.9418,0,0,0,0,0,0,0,-1,867,1639,2.75613,-13.9418
-350,-615,2.82294,14.3982,-0.00192327,-0.00230764,-0.00188102,-0.000224646,-0.00400627,-0.734489,0.0025992,0.032203,874,1639,2.82295,-14.3982
-343,-615,2.78223,14.5914,-0.00164159,-0.00213696,-0.00166207,-0.000208858,-0.0035697,-0.711432,0.00231332,0.0192919,881,1639,2.78224,-14.5914
-336,-615,2.80573,14.8729,-0.0011985,-0.00186224,-0.00141312,-7.88034e-05,-0.00298194,-0.670064,0.00196222,0.0102777,888,1639,2.80573,-14.8729
-329,-615,2.7627,15.1522,-0.000695956,-0.00144095,-0.00107133,6.57878e-05,-0.00220269,-0.618088,0.00149087,0.0103199,895,1639,2.7627,-15.1522
-322,-615,2.758,15.4329,-0.000262316,-0.000937296,-0.000849984,0.000314727,-0.00151434,-0.596416,0.00112919,0.010679,902,1639,2.75802,-15.4329
-315,-615,2.80096,15.6874,-3.78822e-05,-0.000401356,-0.000698079,0.000501729,-0.000940967,-0.658056,0.000845711,0.0124387,909,1639,2.80098,-15.6873
-308,-615,2.77557,15.9326,0.000228013,-9.68407e-05,-0.000620254,0.000706755,-0.000575583,-0.657338,0.000741648,0.0185974,916,1639,2.7756,-15.9326
-301,-615,2.77612,16.1884,0.000596449,3.24013e-05,-0.000567257,0.000947921,-0.000319071,-0.554707,0.000760939,0.0127752,923,1639,2.77611,-16.1884
-294,-615,2.78015,16.4496,0.00106119,-0.000116506,-0.000465795,0.00122314,-0.000278462,-0.334624,0.000922368,0.010443,930,1639,2.78015,-16.4496
-287,-615,2.75116,16.7,0.00148273,-0.000265728,-0.000374473,0.00155955,-0.000342555,-0.202351,0.00117071,0.00811612,937,1639,2.75114,-16.6999
-280,-615,2.75952,16.9442,0.00196568,-0.00068668,-0.00032769,0.00200556,-0.000726565,-0.121121,0.00163399,0.00905195,944,1639,2.75953,-16.9442
-273,-615,2.77081,17.2057,0.00248053,-0.00131192,-0.000335221,0.00250993,-0.00134132,-0.0874878,0.00225738,0.00984539,951,1639,2.77079,-17.2057
-266,-615,2.77582,17.4519,0.00284925,-0.0022973,-0.000337956,0.00287135,-0.0023194,-0.0652927,0.00300252,0.00991711,958,1639,2.77584,-17.4519
-259,-615,2.7934,17.6833,0.00392622,-0.00354386,-0.00062592,0.00397831,-0.00359594,-0.0830189,0.00437485,0.0105073,965,1639,2.79337,-17.6834
-252,-615,2.80188,17.9192,0.00491727,-0.00491392,-0.000788396,0.00498009,-0.00497674,-0.0795161,0.00574858,0.0113947,972,1639,2.80188,-17.9192
-245,-615,2.81134,18.1494,0.00606972,-0.00735252,0.000305581,0.00607667,-0.00735947,0.022751,0.00776914,0.017851,979,1639,2.81134,-18.1494
-238,-615,2.86816,18.3823,0.00752905,-0.0102564,0.0018522,0.00771989,-0.0104472,0.102673,0.0105281,0.0270903,986,1639,2.86814,-18.3823
-231,-615,2.97333,18.5698,0.00966457,-0.0133469,0.003574,0.0102069,-0.0138892,0.150589,0.0139659,0.0410469,993,1639,2.97332,-18.5698
-224,-615,2.97943,18.7617,0,0,0,0,0,0,0,-1,1000,1639,2.97944,-18.7617
-217,-615,3.02612,18.6125,0,0,0,0,0,0,0,-1,1007,1639,3.02611,-18.6125
-210,-615,2.48901,18.9324,0,0,0,0,0,0,0,-1,1014,1639,2.48902,-18.9323
-203,-615,5.44824,18.4501,0,0,0,0,0,0,0,-1,1021,1639,5.44823,-18.45
-196,-615,5.00403,18.5319,0,0,0,0,0,0,0,-1,1028,1639,5.00403,-18.5319
-189,-615,3.98645,18.7723,0,0,0,0,0,0,0,-1,1035,1639,3.98646,-18.7724
-182,-615,3.00952,19.4254,0,0,0,0,0,0,0,-1,1042,1639,3.00952,-19.4255
-175,-615,-0.609985,13.8434,0,0,0,0,0,0,0,-1,1049,1639,-0.610016,-13.8434
-168,-615,3.85754,15.472,0,0,0,0,0,0,0,-1,1056,1639,3.85757,-15.472
-161,-615,2.84497,16.0234,0,0,0,0,0,0,0,-1,1063,1639,2.84495,-16.0234
-154,-615,0.585327,18.823,0,0,0,0,0,0,0,-1,1070,1639,0.585319,-18.823
-147,-615,1.52502,17.3442,0,0,0,0,0,0,0,-1,1077,1639,1.52501,-17.3442
-140,-615,3.73401,10.2349,0,0,0,0,0,0,0,-1,1084,1639,3.73402,-10.2348
-133,-615,2.6178,17.45,0,0,0,0,0,0,0,-1,1091,1639,2.61776,-17.4499
-126,-615,4.43408,12.5017,0,0,0,0,0,0,0,-1,1098,1639,4.43403,-12.5018
-119,-615,4.82983,13.9279,0,0,0,0,0,0,0,-1,1105,1639,4.82986,-13.9278
-112,-615,3.65698,14.4874,0,0,0,0,0,0,0,-1,1112,1639,3.65695,-14.4875
-105,-615,0.958496,2.45398,0,0,0,0,0,0,0,-1,1119,1639,0.958452,-2.45398
-98,-615,-0.647705,2.12109,0,0,0,0,0,0,0,-1,1126,1639,-0.647756,-2.12105
-91,-615,-3.07983,2.97375,0,0,0,0,0,0,0,-1,1133,1639,-3.07989,-2.97376
-84,-615,-2.46509,0.703247,0,0,0,0,0,0,0,-1,1140,1639,-2.46505,-0.703273
-77,-615,-3.17859,1.23755,0,0,0,0,0,0,0,-1,1147,1639,-3.17865,-1.23752
-70,-615,-4.03943,1.43335,0,0,0,0,0,0,0,-1,1154,1639,-4.03942,-1.43339
-63,-615,-4.8877,1.45544,0,0,0,0,0,0,0,-1,1161,1639,-4.88766,-1.45549
-56,-615,0,0,0,0,0,0,0,0,0,-1,1168,1639,0,0
-49,-615,0,0,0,0,0,0,0,0,0,-1,1175,1639,0,0
-42,-615,0,0,0,0,0,0,0,0,0,-1,1182,1639,0,0
-35,-615,0,0,0,0,0,0,0,0,0,-1,1189,1639,0,0
-28,-615,0,0,0,0,0,0,0,0,0,-1,1196,1639,0,0
-21,-615,0,0,0,0,0,0,0,0,0,-1,1203,1639,0,0
-14,-615,0,0,0,0,0,0,0,0,0,-1,1210,1639,0,0
-7,-615,0,0,0,0,0,0,0,0,0,-1,1217,1639,0,0
0,-615,0,0,0,0,0,0,0,0,0,-1,1224,1639,0,0
7,-615,0,0,0,0,0,0,0,0,0,-1,1231,1639,0,0
14,-615,0,0,0,0,0,0,0,0,0,-1,1238,1639,0,0
21,-615,0,0,0,0,0,0,0,0,0,-1,1245,1639,0,0
28,-615,0,0,0,0,0,0,0,0,0,-1,1252,1639,0,0
35,-615,0,0,0,0,0,0,0,0,0,-1,1259,1639,0,0
42,-615,0,0,0,0,0,0,0,0,0,-1,1266,1639,0,0
49,-615,0,0,0,0,0,0,0,0,0,-1,1273,1639,0,0
56,-615,0,0,0,0,0,0,0,0,0,-1,1280,1639,0,0
63,-615,0,0,0,0,0,0,0,0,0,-1,1287,1639,0,0
70,-615,0,0,0,0,0,0,0,0,0,-1,1294,1639,0,0
77,-615,0,0,0,0,0,0,0,0,0,-1,1301,1639,0,0
84,-615,0,0,0,0,0,0,0,0,0,-1,1308,1639,0,0
91,-615,0,0,0,0,0,0,0,0,0,-1,1315,1639,0,0
98,-615,0,0,0,0,0,0,0,0,0,-1,1322,1639,0,0
105,-615,0,0,0,0,0,0,0,0,0,-1,1329,1639,0,0
112,-615,0,0,0,0,0,0,0,0,0,-1,1336,1639,0,0
119,-615,0,0,0,0,0,0,0,0,0,-1,1343,1639,0,0
126,-615,0,0,0,0,0,0,0,0,0,-1,1350,1639,0,0
133,-615,0,0,0,0,0,0,0,0,0,-1,1357,1639,0,0
140,-615,0,0,0,0,0,0,0,0,0,-1,1364,1639,0,0
147,-615,0,0,0,0,0,0,0,0,0,-1,1371,1639,0,0
154,-615,0,0,0,0,0,0,0,0,0,-1,1378,1639,0,0
161,-615,0,0,0,0,0,0,0,0,0,-1,1385,1639,0,0
168,-615,0,0,0,0,0,0,0,0,0,-1,1392,1639,0,0
175,-615,5.39648,-2.00879,0,0,0,0,0,0,0,-1,1399,1639,5.3965,2.00881
182,-615,5.65393,-1.51025,0,0,0,0,0,0,0,-1,1406,1639,5.65388,1.51028
189,-615,5.58972,-1.35608,0,0,0,0,0,0,0,-1,1413,1639,5.58967,1.35607
196,-615,5.49915,-0.693604,0,0,0,0,0,0,0,-1,1420,1639,5.4991,0.693602
203,-615,5.33411,-0.226685,0,0,0,0,0,0,0,-1,1427,1639,5.33414,0.226689
210,-615,5.60278,0.108276,0,0,0,0,0,0,0,-1,1434,1639,5.60284,-0.10831
217,-615,6.26331,-0.307373,0,0,0,0,0,0,0,-1,1441,1639,6.26331,0.307372
224,-615,5.45422,-0.333984,0,0,0,0,0,0,0,-1,1448,1639,5.45422,0.333992
231,-615,4.92542,1.80298,0,0,0,0,0,0,0,-1,1455,1639,4.92537,-1.80297
238,-615,4.76355,1.96729,0,0,0,0,0,0,0,-1,1462,1639,4.76357,-1.96734
245,-615,4.08643,3.15906,0,0,0,0,0,0,0,-1,1469,1639,4.08638,-3.159
252,-615,6.37805,3.73889,0,0,0,0,0,0,0,-1,1476,1639,6.37806,-3.73891
259,-615,8.35974,3.16443,0,0,0,0,0,0,0,-1,1483,1639,8.35975,-3.16444
266,-615,10.3414,2.58997,0,0,0,0,0,0,0,-1,1490,1639,10.3414,-2.58996
273,-615,6.57043,1.84766,0,0,0,0,0,0,0,-1,1497,1639,6.5704,-1.84771
280,-615,7.10449,3.23438,0,0,0,0,0,0,0,-1,1504,1639,7.10447,-3.23435
287,-615,7.35779,4.68542,0,0,0,0,0,0,0,-1,1511,1639,7.35776,-4.68546
294,-615,7.63733,6.29114,0,0,0,0,0,0,0,-1,1518,1639,7.63735,-6.29109
301,-615,8.47925,11.452,0,0,0,0,0,0,0,-1,1525,1639,8.47922,-11.452
308,-615,6.8114,10.9059,0,0,0,0,0,0,0,-1,1532,1639,6.81137,-10.9058
315,-615,5.1427,14.7251,0,0,0,0,0,0,0,-1,1539,1639,5.14269,-14.7251
322,-615,7.17981,17.6864,0,0,0,0,0,0,0,-1,1546,1639,7.17985,-17.6864
329,-615,7.62134,20.4354,0,0,0,0,0,0,0,-1,1553,1639,7.62139,-20.4354
336,-615,6.45007,14.1138,0,0,0,0,0,0,0,-1,1560,1639,6.45011,-14.1138
343,-615,2.40491,6.50134,0,0,0,0,0,0,0,-1,1567,1639,2.40489,-6.50137
350,-615,6.4458,15.4594,0,0,0,0,0,0,0,-1,1574,1639,6.44578,-15.4593
357,-615,8.42371,19.8698,0,0,0,0,0,0,0,-1,1581,1639,8.42369,-19.8697
364,-615,8.39441,19.5961,0,0,0,0,0,0,0,-1,1588,1639,8.39438,-19.5961
371,-615,8.4679,19.3644,-0.00185485,0.00668421,0.00341281,0.00788059,-0.00305123,1.23363,0.00651355,0.0461163,1595,1639,8.46788,-19.3644
378,-615,8.39551,18.9409,-0.00242276,0.00400028,0.00409016,0.00598907,-0.00441155,1.11822,0.00602778,0.0197674,1602,1639,8.39554,-18.941
385,-615,8.37793,18.7053,-0.00264916,0.00121948,0.00446361,0.00414987,-0.00557955,0.98986,0.00563746,0.011649,1609,1639,8.37792,-18.7053
392,-615,8.39307,18.4757,-0.00257528,-0.000395388,0.00457621,0.00321889,-0.00618955,0.902308,0.00552148,0.00988267,1616,1639,8.39301,-18.4757
399,-615,8.40259,18.2722,-0.00239659,-0.00128827,0.00437728,0.00256978,-0.00625464,0.848363,0.00524076,0.0104471,1623,1639,8.40258,-18.2722
406,-615,8.39771,18.0448,-0.00213735,-0.00184716,0.003975,0.00198539,-0.0059699,0.803641,0.00478117,0.0110213,1630,1639,8.39766,-18.0448
413,-615,8.39893,17.8375,-0.00181461,-0.0022615,0.00354056,0.00150955,-0.00558566,0.753885,0.00431587,0.0120579,1637,1639,8.39893,-17.8376
420,-615,8.38892,17.6122,-0.0014396,-0.00239129,0.0030608,0.00118212,-0.00501301,0.708283,0.00379787,0.0133205,1644,1639,8.38895,-17.6122
427,-615,8.39221,17.3678,-0.00092418,-0.00257917,0.00257471,0.00095274,-0.00445609,0.629915,0.00333399,0.0153227,1651,1639,8.39225,-17.3678
434,-615,8.4115,17.1472,-0.000301819,-0.00252505,0.00190073,0.000788486,-0.00361535,0.520801,0.00271155,0.0145354,1658,1639,8.41144,-17.1472
441,-615,8.41553,16.9001,0.000430759,-0.00248706,0.00121309,0.000869219,-0.00292552,0.34683,0.00229561,0.0144128,1665,1639,8.41557,-16.9001
448,-615,8.41016,16.6606,0.00140704,-0.00222945,0.000336918,0.00143799,-0.0022604,0.09161,0.0021528,0.0158641,1672,1639,8.41014,-16.6607
455,-615,8.39856,16.4421,0.00238618,-0.00218084,-0.000398279,0.00242065,-0.00221531,-0.0863392,0.00267745,0.0150793,1679,1639,8.39851,-16.4421
462,-615,8.39209,16.1847,0.00357052,-0.00222099,-0.00124112,0.00382528,-0.00247576,-0.202458,0.00366561,0.0140839,1686,1639,8.39215,-16.1847
469,-615,8.37878,15.9198,0.00497642,-0.00229638,-0.00218808,0.00558397,-0.00290393,-0.27084,0.00498125,0.0121748,1693,1639,8.37875,-15.9198
476,-615,8.36951,15.6608,0.0065481,-0.00242454,-0.00327908,0.00761871,-0.00349514,-0.315584,0.00656215,0.0109977,1700,1639,8.36952,-15.6608
483,-615,8.40466,15.3894,0.00824392,-0.00204908,-0.0045998,0.00999993,-0.00380508,-0.364682,0.00823347,0.0152027,1707,1639,8.40469,-15.3894
490,-615,8.40454,15.1249,0.0100688,-0.00167613,-0.0060522,0.0126293,-0.00423663,-0.400234,0.0101315,0.0183458,1714,1639,8.40458,-15.1249
497,-615,8.3645,14.9003,0.0119695,-0.00101889,-0.00761225,0.0154813,-0.00453075,-0.432247,0.0121168,0.027813,1721,1639,8.36444,-14.9003
504,-615,8.21472,14.6473,0,0,0,0,0,0,0,-1,1728,1639,8.21468,-14.6473
511,-615,8.5625,14.4531,0,0,0,0,0,0,0,-1,1735,1639,8.56247,-14.4531
518,-615,9.95337,10.1685,0,0,0,0,0,0,0,-1,1742,1639,9.95332,-10.1685
525,-615,4.37524,3.90491,0,0,0,0,0,0,0,-1,1749,1639,4.37518,-3.90495
532,-615,7.3645,0.848145,0,0,0,0,0,0,0,-1,1756,1639,7.36451,-0.848093
539,-615,12.8112,-0.0476074,0,0,0,0,0,0,0,-1,1763,1639,12.8111,0.0475553
546,-615,8.33813,2.94556,0,0,0,0,0,0,0,-1,1770,1639,8.33813,-2.9455
553,-615,5.82532,-2.04199,0,0,0,0,0,0,0,-1,1777,1639,5.82534,2.04195
560,-615,0,0,0,0,0,0,0,0,0,-1,1784,1639,0,0
567,-615,0,0,0,0,0,0,0,0,0,-1,1791,1639,0,0
574,-615,0,0,0,0,0,0,0,0,0,-1,1798,1639,0,0
581,-615,0,0,0,0,0,0,0,0,0,-1,1805,1639,0,0
588,-615,0,0,0,0,0,0,0,0,0,-1,1812,1639,0,0
595,-615,0,0,0,0,0,0,0,0,0,-1,1819,1639,0,0
602,-615,0,0,0,0,0,0,0,0,0,-1,1826,1639,0,0
609,-615,0,0,0,0,0,0,0,0,0,-1,1833,1639,0,0
616,-615,0,0,0,0,0,0,0,0,0,-1,1840,1639,0,0
623,-615,0,0,0,0,0,0,0,0,0,-1,1847,1639,0,0
630,-615,0,0,0,0,0,0,0,0,0,-1,1854,1639,0,0
637,-615,0,0,0,0,0,0,0,0,0,-1,1861,1639,0,0
644,-615,0,0,0,0,0,0,0,0,0,-1,1868,1639,0,0
651,-615,0,0,0,0,0,0,0,0,0,-1,1875,1639,0,0
658,-615,0,0,0,0,0,0,0,0,0,-1,1882,1639,0,0
665,-615,0,0,0,0,0,0,0,0,0,-1,1889,1639,0,0
672,-615,0,0,0,0,0,0,0,0,0,-1,1896,1639,0,0
679,-615,0,0,0,0,0,0,0,0,0,-1,1903,1639,0,0
686,-615,0,0,0,0,0,0,0,0,0,-1,1910,1639,0,0
693,-615,0,0,0,0,0,0,0,0,0,-1,1917,1639,0,0
700,-615,0,0,0,0,0,0,0,0,0,-1,1924,1639,0,0
707,-615,0,0,0,0,0,0,0,0,0,-1,1931,1639,0,0
714,-615,0,0,0,0,0,0,0,0,0,-1,1938,1639,0,0
721,-615,0,0,0,0,0,0,0,0,0,-1,1945,1639,0,0
728,-615,0,0,0,0,0,0,0,0,0,-1,1952,1639,0,0
735,-615,0,0,0,0,0,0,0,0,0,-1,1959,1639,0,0
742,-615,0,0,0,0,0,0,0,0,0,-1,1966,1639,0,0
749,-615,0,0,0,0,0,0,0,0,0,-1,1973,1639,0,0
756,-615,0,0,0,0,0,0,0,0,0,-1,1980,1639,0,0
763,-615,0,0,0,0,0,0,0,0,0,-1,1987,1639,0,0
770,-615,0,0,0,0,0,0,0,0,0,-1,1994,1639,0,0
777,-615,0,0,0,0,0,0,0,0,0,-1,2001,1639,0,0
784,-615,0,0,0,0,0,0,0,0,0,-1,2008,1639,0,0
791,-615,0,0,0,0,0,0,0,0,0,-1,2015,1639,0,0
798,-615,0,0,0,0,0,0,0,0,0,-1,2022,1639,0,0
805,-615,0,0,0,0,0,0,0,0,0,-1,2029,1639,0,0
812,-615,0,0,0,0,0,0,0,0,0,-1,2036,1639,0,0
-700,-622,0,0,0,0,0,0,0,0,0,-1,524,1646,0,0
-693,-622,0,0,0,0,0,0,0,0,0,-1,531,1646,0,0
-686,-622,0,0,0,0,0,0,0,0,0,-1,538,1646,0,0
-679,-622,0,0,0,0,0,0,0,0,0,-1,545,1646,0,0
-672,-622,0,0,0,0,0,0,0,0,0,-1,552,1646,0,0
-665,-622,0,0,0,0,0,0,0,0,0,-1,559,1646,0,0
-658,-622,0,0,0,0,0,0,0,0,0,-1,566,1646,0,0
-651,-622,0,0,0,0,0,0,0,0,0,-1,573,1646,0,0
-644,-622,0,0,0,0,0,0,0,0,0,-1,580,1646,0,0
-637,-622,0,0,0,0,0,0,0,0,0,-1,587,1646,0,0
-630,-622,0,0,0,0,0,0,0,0,0,-1,594,1646,0,0
-623,-622,0,0,0,0,0,0,0,0,0,-1,601,1646,0,0
-616,-622,0,0,0,0,0,0,0,0,0,-1,608,1646,0,0
-609,-622,0,0,0,0,0,0,0,0,0,-1,615,1646,0,0
-602,-622,0,0,0,0,0,0,0,0,0,-1,622,1646,0,0
-595,-622,0,0,0,0,0,0,0,0,0,-1,629,1646,0,0
-588,-622,0,0,0,0,0,0,0,0,0,-1,636,1646,0,0
-581,-622,0,0,0,0,0,0,0,0,0,-1,643,1646,0,0
-574,-622,0,0,0,0,0,0,0,0,0,-1,650,1646,0,0
-567,-622,0,0,0,0,0,0,0,0,0,-1,657,1646,0,0
-560,-622,0,0,0,0,0,0,0,0,0,-1,664,1646,0,0
-553,-622,0,0,0,0,0,0,0,0,0,-1,671,1646,0,0
-546,-622,0,0,0,0,0,0,0,0,0,-1,678,1646,0,0
-539,-622,0,0,0,0,0,0,0,0,0,-1,685,1646,0,0
-532,-622,0,0,0,0,0,0,0,0,0,-1,692,1646,0,0
-525,-622,0,0,0,0,0,0,0,0,0,-1,699,1646,0,0
-518,-622,0,0,0,0,0,0,0,0,0,-1,706,1646,0,0
-511,-622,0,0,0,0,0,0,0,0,0,-1,713,1646,0,0
-504,-622,0,0,0,0,0,0,0,0,0,-1,720,1646,0,0
-497,-622,0,0,0,0,0,0,0,0,0,-1,727,1646,0,0
-490,-622,0,0,0,0,0,0,0,0,0,-1,734,1646,0,0
-483,-622,0,0,0,0,0,0,0,0,0,-1,741,1646,0,0
-476,-622,0,0,0,0,0,0,0,0,0,-1,748,1646,0,0
-469,-622,0,0,0,0,0,0,0,0,0,-1,755,1646,0,0
-462,-622,0,0,0,0,0,0,0,0,0,-1,762,1646,0,0
-455,-622,0,0,0,0,0,0,0,0,0,-1,769,1646,0,0
-448,-622,0,0,0,0,0,0,0,0,0,-1,776,1646,0,0
-441,-622,0,0,0,0,0,0,0,0,0,-1,783,1646,0,0
-434,-622,0,0,0,0,0,0,0,0,0,-1,790,1646,0,0
-427,-622,-7.62891,3.48096,0,0,0,0,0,0,0,-1,797,1646,-7.62892,-3.48092
-420,-622,-9.35791,1.77185,0,0,0,0,0,0,0,-1,804,1646,-9.35789,-1.77183
-413,-622,-8.46075,1.96777,0,0,0,0,0,0,0,-1,811,1646,-8.46074,-1.96774
-406,-622,-4.44318,2.16858,0,0,0,0,0,0,0,-1,818,1646,-4.44315,-2.16859
-399,-622,-7.06976,1.51001,0,0,0,0,0,0,0,-1,825,1646,-7.06976,-1.51005
-392,-622,3.89551,5.85376,0,0,0,0,0,0,0,-1,832,1646,3.8955,-5.85379
-385,-622,2.00543,14.0448,0,0,0,0,0,0,0,-1,839,1646,2.00544,-14.0448
-378,-622,2.1734,14.2626,0,0,0,0,0,0,0,-1,846,1646,2.17341,-14.2625
-371,-622,2.58832,13.0819,0,0,0,0,0,0,0,-1,853,1646,2.58829,-13.0819
-364,-622,2.78119,13.6486,0,0,0,0,0,0,0,-1,860,1646,2.78121,-13.6486
-357,-622,3.22052,14.1827,0,0,0,0,0,0,0,-1,867,1646,3.2205,-14.1828
-350,-622,3.11304,14.4792,-0.0025866,-0.00290739,-0.0027615,1.91575e-05,-0.00551315,-0.756389,0.00368184,0.0458729,874,1646,3.11307,-14.4793
-343,-622,3.01788,14.6399,-0.00212191,-0.00270324,-0.002398,2.98303e-06,-0.00482813,-0.725087,0.00321975,0.0264934,881,1646,3.01786,-14.6399
-336,-622,3.05603,14.8683,-0.00166092,-0.00245735,-0.0021025,8.07513e-05,-0.00419901,-0.691806,0.00282664,0.00940185,888,1646,3.05604,-14.8683
-329,-622,3.03723,15.1418,-0.00119145,-0.00211635,-0.00171603,0.000123353,-0.00343115,-0.65378,0.00232964,0.00881632,895,1646,3.03721,-15.1418
-322,-622,3.03345,15.4257,-0.000794751,-0.0016602,-0.00141338,0.00025066,-0.00270561,-0.636847,0.00189284,0.00995486,902,1646,3.03347,-15.4257
-315,-622,3.04663,15.6938,-0.000631499,-0.00115987,-0.00119665,0.000329782,-0.00212115,-0.676756,0.00153587,0.0129829,909,1646,3.04662,-15.6938
-308,-622,3.03516,15.9363,-0.000418467,-0.000867973,-0.00103032,0.000411331,-0.00169777,-0.678011,0.00129099,0.01361,916,1646,3.03513,-15.9363
-301,-622,3.03156,16.1798,-0.000111192,-0.000697041,-0.000908042,0.000550003,-0.00135824,-0.629373,0.00113419,0.0134155,923,1646,3.03157,-16.1798
-294,-622,3.026,16.4503,0.000307145,-0.000706306,-0.000731453,0.000690248,-0.00108941,-0.482471,0.00103606,0.0100532,930,1646,3.026,-16.4503
-287,-622,3.01007,16.699,0.000696626,-0.000741976,-0.000562019,0.000890155,-0.000935505,-0.331629,0.00105415,0.00808504,937,1646,3.01006,-16.699
-280,-622,3.00714,16.9463,0.00113359,-0.000980768,-0.000434015,0.00121921,-0.00106639,-0.19478,0.00132058,0.00926137,944,1646,3.00715,-16.9463
-273,-622,3.03839,17.1879,0.00161488,-0.00136047,-0.000350483,0.00165561,-0.00140119,-0.115686,0.00176688,0.0130944,951,1646,3.03839,-17.1879
-266,-622,3.01764,17.4363,0.00197522,-0.00201047,-0.000267196,0.00199305,-0.0020283,-0.0666414,0.00232176,0.01217,958,1646,3.01764,-17.4363
-259,-622,3.01923,17.6863,0.00290585,-0.0028361,-0.000428377,0.00293764,-0.00286788,-0.0740583,0.0033519,0.0111931,965,1646,3.0192,-17.6863
-252,-622,3.03699,17.9258,0.00372715,-0.00369885,-0.000509531,0.00376195,-0.00373365,-0.0681885,0.0043276,0.0117451,972,1646,3.037,-17.9258
-245,-622,3.04822,18.153,0.00474288,-0.00545381,0.000364881,0.00475592,-0.00546685,0.0357234,0.00590688,0.00880992,979,1646,3.0482,-18.153
-238,-622,3.05255,18.3834,0.00606244,-0.00752061,0.00165767,0.00626181,-0.00771998,0.119699,0.00808701,0.0094711,986,1646,3.05257,-18.3834
-231,-622,3.09851,18.6317,0.00772946,-0.00980827,0.00296827,0.00821822,-0.010297,0.163197,0.0107122,0.0141973,993,1646,3.09854,-18.6318
-224,-622,3.15881,18.8038,0.00931044,-0.0123668,0.0048571,0.010349,-0.0134054,0.210648,0.0137524,0.0241875,1000,1646,3.15882,-18.8038
-217,-622,3.13336,18.8265,0.0110891,-0.0147869,0.00760003,0.0131562,-0.016854,0.265558,0.0173702,0.0383847,1007,1646,3.13336,-18.8266
-210,-622,2.7616,19.0494,0.0132307,-0.0162981,0.00873418,0.0156207,-0.0186881,0.267099,0.0198346,0.0494129,1014,1646,2.76161,-19.0494
-203,-622,4.43213,18.699,0,0,0,0,0,0,0,-1,1021,1646,4.43216,-18.699
-196,-622,4.41699,18.7546,0.0182145,-0.0176828,0.0099778,0.0208015,-0.0202698,0.253684,0.0237132,0.0446376,1028,1646,4.41697,-18.7546
-189,-622,4.31067,19.2206,0.0205242,-0.0171761,0.00973203,0.0228882,-0.0195401,0.238295,0.0245214,0.0474677,1035,1646,4.31069,-19.2206
-182,-622,4.20837,19.7803,0,0,0,0,0,0,0,-1,1042,1646,4.20834,-19.7803
-175,-622,2.56091,11.0195,0,0,0,0,0,0,0,-1,1049,1646,2.56095,-11.0195
-168,-622,4.13916,16.1655,0,0,0,0,0,0,0,-1,1056,1646,4.13918,-16.1655
-161,-622,3.07678,20.7483,0,0,0,0,0,0,0,-1,1063,1646,3.07674,-20.7483
-154,-622,3.35767,21.0092,0,0,0,0,0,0,0,-1,1070,1646,3.35766,-21.0091
-147,-622,1.18347,18.4009,0,0,0,0,0,0,0,-1,1077,1646,1.18343,-18.4009
-140,-622,3.27515,16.0353,0,0,0,0,0,0,0,-1,1084,1646,3.27519,-16.0353
-133,-622,3.09644,17.677,0,0,0,0,0,0,0,-1,1091,1646,3.09638,-17.677
-126,-622,3.5061,19.5251,0,0,0,0,0,0,0,-1,1098,1646,3.50616,-19.5252
-119,-622,4.06384,13.1715,0,0,0,0,0,0,0,-1,1105,1646,4.06379,-13.1716
-112,-622,4.33276,14.6605,0,0,0,0,0,0,0,-1,1112,1646,4.33281,-14.6605
-105,-622,0.306519,4.38159,0,0,0,0,0,0,0,-1,1119,1646,0.306536,-4.38159
-98,-622,-0.510376,3.5033,0,0,0,0,0,0,0,-1,1126,1646,-0.510393,-3.50324
-91,-622,-1.146,0.975952,0,0,0,0,0,0,0,-1,1133,1646,-1.14599,-0.97597
-84,-622,-2.04895,1.31787,0,0,0,0,0,0,0,-1,1140,1646,-2.0489,-1.31781
-77,-622,-1.80627,0.332275,0,0,0,0,0,0,0,-1,1147,1646,-1.80622,-0.33223
-70,-622,-3.65588,2.28149,0,0,0,0,0,0,0,-1,1154,1646,-3.65589,-2.28155
-63,-622,-2.49683,1.27087,0,0,0,0,0,0,0,-1,1161,1646,-2.49679,-1.27093
-56,-622,-2.44238,-0.575562,0,0,0,0,0,0,0,-1,1168,1646,-2.44242,0.575508
-49,-622,-2.41089,1.38818,0,0,0,0,0,0,0,-1,1175,1646,-2.41088,-1.38815
-42,-622,-2.71497,2.85242,0,0,0,0,0,0,0,-1,1182,1646,-2.71491,-2.85247
-35,-622,-3.0177,4.25842,0,0,0,0,0,0,0,-1,1189,1646,-3.01773,-4.25838
-28,-622,-0.896606,0.678833,0,0,0,0,0,0,0,-1,1196,1646,-0.89661,-0.678835
-21,-622,-4.38635,19.0129,0,0,0,0,0,0,0,-1,1203,1646,-4.38639,-19.0129
-14,-622,0.722412,20.2871,0,0,0,0,0,0,0,-1,1210,1646,0.722419,-20.2871
-7,-622,1.54626,21.3672,0,0,0,0,0,0,0,-1,1217,1646,1.54625,-21.3672
0,-622,0,0,0,0,0,0,0,0,0,-1,1224,1646,0,0
7,-622,0,0,0,0,0,0,0,0,0,-1,1231,1646,0,0
14,-622,0,0,0,0,0,0,0,0,0,-1,1238,1646,0,0
21,-622,0,0,0,0,0,0,0,0,0,-1,1245,1646,0,0
28,-622,0,0,0,0,0,0,0,0,0,-1,1252,1646,0,0
35,-622,0,0,0,0,0,0,0,0,0,-1,1259,1646,0,0
42,-622,0,0,0,0,0,0,0,0,0,-1,1266,1646,0,0
49,-622,0,0,0,0,0,0,0,0,0,-1,1273,1646,0,0
56,-622,0,0,0,0,0,0,0,0,0,-1,1280,1646,0,0
63,-622,0,0,0,0,0,0,0,0,0,-1,1287,1646,0,0
70,-622,0,0,0,0,0,0,0,0,0,-1,1294,1646,0,0
77,-622,0,0,0,0,0,0,0,0,0,-1,1301,1646,0,0
84,-622,0,0,0,0,0,0,0,0,0,-1,1308,1646,0,0
91,-622,0,0,0,0,0,0,0,0,0,-1,1315,1646,0,0
98,-622,0,0,0,0,0,0,0,0,0,-1,1322,1646,0,0
105,-622,0,0,0,0,0,0,0,0,0,-1,1329,1646,0,0
112,-622,0,0,0,0,0,0,0,0,0,-1,1336,1646,0,0
119,-622,0,0,0,0,0,0,0,0,0,-1,1343,1646,0,0
126,-622,5.13696,22.5143,0,0,0,0,0,0,0,-1,1350,1646,5.13702,-22.5143
133,-622,5.39404,22.4541,0,0,0,0,0,0,0,-1,1357,1646,5.39404,-22.4541
140,-622,5.06433,21.6443,0,0,0,0,0,0,0,-1,1364,1646,5.06438,-21.6443
147,-622,4.55127,24.7928,0,0,0,0,0,0,0,-1,1371,1646,4.55126,-24.7929
154,-622,3.94763,24.6411,0,0,0,0,0,0,0,-1,1378,1646,3.94758,-24.6411
161,-622,10.6884,6.46448,0,0,0,0,0,0,0,-1,1385,1646,10.6883,-6.46442
168,-622,12.2402,5.18091,0,0,0,0,0,0,0,-1,1392,1646,12.2403,-5.1809
175,-622,5.64355,-1.77075,0,0,0,0,0,0,0,-1,1399,1646,5.64351,1.77077
182,-622,5.88586,-1.32251,0,0,0,0,0,0,0,-1,1406,1646,5.88587,1.32256
189,-622,5.97986,-1.18005,0,0,0,0,0,0,0,-1,1413,1646,5.97986,1.18003
196,-622,5.85022,-0.244507,0,0,0,0,0,0,0,-1,1420,1646,5.85026,0.244478
203,-622,5.25159,0.138794,0,0,0,0,0,0,0,-1,1427,1646,5.25162,-0.138822
210,-622,6.66833,0.0397949,0,0,0,0,0,0,0,-1,1434,1646,6.6684,-0.0398278
217,-622,6.12061,0.0506592,0,0,0,0,0,0,0,-1,1441,1646,6.12058,-0.0507181
224,-622,5.57275,0.0616455,0,0,0,0,0,0,0,-1,1448,1646,5.57276,-0.0616084
231,-622,5.31348,1.3949,0,0,0,0,0,0,0,-1,1455,1646,5.31342,-1.39495
238,-622,3.76477,2.90686,0,0,0,0,0,0,0,-1,1462,1646,3.7648,-2.90686
245,-622,5.13794,2.67993,0,0,0,0,0,0,0,-1,1469,1646,5.13796,-2.67992
252,-622,6.66528,2.53992,0,0,0,0,0,0,0,-1,1476,1646,6.66522,-2.53991
259,-622,8.93787,3.31458,0,0,0,0,0,0,0,-1,1483,1646,8.93791,-3.31454
266,-622,5.72644,3.11926,0,0,0,0,0,0,0,-1,1490,1646,5.72647,-3.1192
273,-622,7.28076,3.61218,0,0,0,0,0,0,0,-1,1497,1646,7.28071,-3.61212
280,-622,8.43127,4.4447,0,0,0,0,0,0,0,-1,1504,1646,8.43123,-4.44467
287,-622,8.60315,5.94617,0,0,0,0,0,0,0,-1,1511,1646,8.60319,-5.94622
294,-622,7.62756,11.5143,0,0,0,0,0,0,0,-1,1518,1646,7.62762,-11.5143
301,-622,7.36548,11.6569,0,0,0,0,0,0,0,-1,1525,1646,7.36549,-11.6569
308,-622,7.10339,11.7994,0,0,0,0,0,0,0,-1,1532,1646,7.10335,-11.7995
315,-622,8.28687,16.5842,0,0,0,0,0,0,0,-1,1539,1646,8.28689,-16.5843
322,-622,7.43689,20.5786,0,0,0,0,0,0,0,-1,1546,1646,7.43685,-20.5786
329,-622,8.05273,21.3618,0,0,0,0,0,0,0,-1,1553,1646,8.05268,-21.3618
336,-622,8.03516,20.7654,0,0,0,0,0,0,0,-1,1560,1646,8.03519,-20.7654
343,-622,8.20569,19.9036,0,0,0,0,0,0,0,-1,1567,1646,8.2057,-19.9035
350,-622,8.26599,19.6779,0,0,0,0,0,0,0,-1,1574,1646,8.26597,-19.6779
357,-622,8.18225,19.6951,0.000333141,0.0115339,0.000529209,0.0115588,0.000308192,1.52369,0.00760523,0.0476889,1581,1646,8.18229,-19.6951
364,-622,8.16785,19.4059,-0.00040955,0.00870147,0.00151654,0.00894727,-0.000655349,1.41011,0.00619486,0.0351369,1588,1646,8.16786,-19.4059
371,-622,8.21399,19.1254,-0.00101222,0.00593238,0.00226531,0.00660598,-0.00168582,1.28177,0.00506041,0.0188005,1595,1646,8.214,-19.1254
378,-622,8.15601,18.9156,-0.00149539,0.00388362,0.00276708,0.00505289,-0.00266466,1.17099,0.00452629,0.0101069,1602,1646,8.15598,-18.9157
385,-622,8.13318,18.6849,-0.00168558,0.00164274,0.00304869,0.0034519,-0.00349474,1.03523,0.00401067,0.00904991,1609,1646,8.13322,-18.6849
392,-622,8.13696,18.4875,-0.00163965,0.000294154,0.00312756,0.00260086,-0.00394636,0.935316,0.00380656,0.0104261,1616,1646,8.13696,-18.4875
399,-622,8.14429,18.2698,-0.00150676,-0.000437034,0.00295644,0.00203254,-0.00397633,0.874888,0.00352921,0.0106425,1623,1646,8.14433,-18.2698
406,-622,8.15381,18.036,-0.00131404,-0.000934986,0.00263727,0.00151956,-0.00376858,0.821269,0.0031438,0.0140098,1630,1646,8.15385,-18.036
413,-622,8.16895,17.8308,-0.00106124,-0.00135805,0.00233767,0.00113273,-0.00355202,0.753699,0.0028224,0.0153304,1637,1646,8.16891,-17.8308
420,-622,8.17017,17.6171,-0.000733292,-0.0016329,0.00202017,0.000886542,-0.00325273,0.675857,0.0025166,0.015315,1644,1646,8.17012,-17.6171
427,-622,8.17383,17.364,-0.000205481,-0.0020405,0.00167457,0.000786466,-0.00303245,0.534781,0.00232849,0.0128445,1651,1646,8.17386,-17.3641
434,-622,8.19775,17.1177,0.00050436,-0.00219119,0.00107752,0.000882145,-0.00256897,0.337213,0.00207032,0.0134985,1658,1646,8.1978,-17.1177
441,-622,8.18909,16.8781,0.00129402,-0.00241704,0.000535136,0.00136964,-0.00249266,0.140391,0.00226111,0.0146803,1665,1646,8.18912,-16.8781
448,-622,8.16626,16.6661,0.00238132,-0.00240894,-0.000262618,0.00239567,-0.00242329,-0.0546053,0.00278225,0.0132451,1672,1646,8.16624,-16.6661
455,-622,8.14526,16.4205,0.00353964,-0.00265281,-0.000948687,0.00368172,-0.00279488,-0.14866,0.00375093,0.0150463,1679,1646,8.14531,-16.4205
462,-622,8.14978,16.1758,0.00499817,-0.0030113,-0.00178102,0.00537635,-0.00338949,-0.209231,0.0051041,0.0166157,1686,1646,8.14981,-16.1757
469,-622,8.12927,15.92,0.00677643,-0.00334363,-0.00280217,0.00750052,-0.00406772,-0.252872,0.00677624,0.0179888,1693,1646,8.12933,-15.92
476,-622,8.14722,15.6678,0.00883697,-0.00371739,-0.00405327,0.0100319,-0.00491229,-0.286678,0.00879516,0.0177858,1700,1646,8.14723,-15.6678
483,-622,8.15222,15.42,0.0111389,-0.0034239,-0.00568126,0.013093,-0.00537806,-0.331289,0.01097,0.0240863,1707,1646,8.15227,-15.42
490,-622,8.2196,15.1536,0.0136738,-0.00299875,-0.00758683,0.0166093,-0.00593427,-0.369183,0.0134932,0.0315364,1714,1646,8.21966,-15.1535
497,-622,8.62842,14.7968,0.0164467,-0.00212545,-0.00971109,0.020597,-0.00627575,-0.403883,0.0162328,0.0445889,1721,1646,8.62841,-14.7968
504,-622,8.93384,14.438,0,0,0,0,0,0,0,-1,1728,1646,8.93386,-14.438
511,-622,5.29004,4.14587,0,0,0,0,0,0,0,-1,1735,1646,5.29008,-4.14589
518,-622,5.6001,1.55359,0,0,0,0,0,0,0,-1,1742,1646,5.60015,-1.5536
525,-622,5.83093,2.01807,0,0,0,0,0,0,0,-1,1749,1646,5.83097,-2.01802
532,-622,5.44202,0.57373,0,0,0,0,0,0,0,-1,1756,1646,5.44196,-0.573705
539,-622,9.32129,1.06116,0,0,0,0,0,0,0,-1,1763,1646,9.32131,-1.0612
546,-622,6.50977,-3.45618,0,0,0,0,0,0,0,-1,1770,1646,6.50981,3.4562
553,-622,0,0,0,0,0,0,0,0,0,-1,1777,1646,0,0
560,-622,0,0,0,0,0,0,0,0,0,-1,1784,1646,0,0
567,-622,0,0,0,0,0,0,0,0,0,-1,1791,1646,0,0
574,-622,0,0,0,0,0,0,0,0,0,-1,1798,1646,0,0
581,-622,0,0,0,0,0,0,0,0,0,-1,1805,1646,0,0
588,-622,0,0,0,0,0,0,0,0,0,-1,1812,1646,0,0
595,-622,0,0,0,0,0,0,0,0,0,-1,1819,1646,0,0
602,-622,0,0,0,0,0,0,0,0,0,-1,1826,1646,0,0
609,-622,0,0,0,0,0,0,0,0,0,-1,1833,1646,0,0
616,-622,0,0,0,0,0,0,0,0,0,-1,1840,1646,0,0
623,-622,0,0,0,0,0,0,0,0,0,-1,1847,1646,0,0
630,-622,0,0,0,0,0,0,0,0,0,-1,1854,1646,0,0
637,-622,0,0,0,0,0,0,0,0,0,-1,1861,1646,0,0
644,-622,0,0,0,0,0,0,0,0,0,-1,1868,1646,0,0
651,-622,0,0,0,0,0,0,0,0,0,-1,1875,1646,0,0
658,-622,0,0,0,0,0,0,0,0,0,-1,1882,1646,0,0
665,-622,0,0,0,0,0,0,0,0,0,-1,1889,1646,0,0
672,-622,0,0,0,0,0,0,0,0,0,-1,1896,1646,0,0
679,-622,0,0,0,0,0,0,0,0,0,-1,1903,1646,0,0
686,-622,0,0,0,0,0,0,0,0,0,-1,1910,1646,0,0
693,-622,0,0,0,0,0,0,0,0,0,-1,1917,1646,0,0
700,-622,0,0,0,0,0,0,0,0,0,-1,1924,1646,0,0
707,-622,0,0,0,0,0,0,0,0,0,-1,1931,1646,0,0
714,-622,0,0,0,0,0,0,0,0,0,-1,1938,1646,0,0
721,-622,0,0,0,0,0,0,0,0,0,-1,1945,1646,0,0
728,-622,0,0,0,0,0,0,0,0,0,-1,1952,1646,0,0
735,-622,0,0,0,0,0,0,0,0,0,-1,1959,1646,0,0
742,-622,0,0,0,0,0,0,0,0,0,-1,1966,1646,0,0
749,-622,0,0,0,0,0,0,0,0,0,-1,1973,1646,0,0
756,-622,0,0,0,0,0,0,0,0,0,-1,1980,1646,0,0
763,-622,0,0,0,0,0,0,0,0,0,-1,1987,1646,0,0
770,-622,0,0,0,0,0,0,0,0,0,-1,1994,1646,0,0
777,-622,0,0,0,0,0,0,0,0,0,-1,2001,1646,0,0
784,-622,0,0,0,0,0,0,0,0,0,-1,2008,1646,0,0
791,-622,0,0,0,0,0,0,0,0,0,-1,2015,1646,0,0
798,-622,0,0,0,0,0,0,0,0,0,-1,2022,1646,0,0
805,-622,0,0,0,0,0,0,0,0,0,-1,2029,1646,0,0
812,-622,0,0,0,0,0,0,0,0,0,-1,2036,1646,0,0
-700,-629,0,0,0,0,0,0,0,0,0,-1,524,1653,0,0
-693,-629,0,0,0,0,0,0,0,0,0,-1,531,1653,0,0
-686,-629,0,0,0,0,0,0,0,0,0,-1,538,1653,0,0
-679,-629,0,0,0,0,0,0,0,0,0,-1,545,1653,0,0
-672,-629,0,0,0,0,0,0,0,0,0,-1,552,1653,0,0
-665,-629,0,0,0,0,0,0,0,0,0,-1,559,1653,0,0
-658,-629,0,0,0,0,0,0,0,0,0,-1,566,1653,0,0
-651,-629,0,0,0,0,0,0,0,0,0,-1,573,1653,0,0
-644,-629,0,0,0,0,0,0,0,0,0,-1,580,1653,0,0
-637,-629,0,0,0,0,0,0,0,0,0,-1,587,1653,0,0
-630,-629,0,0,0,0,0,0,0,0,0,-1,594,1653,0,0
-623,-629,0,0,0,0,0,0,0,0,0,-1,601,1653,0,0
-616,-629,0,0,0,0,0,0,0,0,0,-1,608,1653,0,0
-609,-629,0,0,0,0,0,0,0,0,0,-1,615,1653,0,0
-602,-629,0,0,0,0,0,0,0,0,0,-1,622,1653,0,0
-595,-629,0,0,0,0,0,0,0,0,0,-1,629,1653,0,0
-588,-629,0,0,0,0,0,0,0,0,0,-1,636,1653,0,0
-581,-629,0,0,0,0,0,0,0,0,0,-1,643,1653,0,0
-574,-629,0,0,0,0,0,0,0,0,0,-1,650,1653,0,0
-567,-629,0,0,0,0,0,0,0,0,0,-1,657,1653,0,0
-560,-629,0,0,0,0,0,0,0,0,0,-1,664,1653,0,0
-553,-629,0,0,0,0,0,0,0,0,0,-1,671,1653,0,0
-546,-629,0,0,0,0,0,0,0,0,0,-1,678,1653,0,0
-539,-629,0,0,0,0,0,0,0,0,0,-1,685,1653,0,0
-532,-629,0,0,0,0,0,0,0,0,0,-1,692,1653,0,0
-525,-629,0,0,0,0,0,0,0,0,0,-1,699,1653,0,0
-518,-629,0,0,0,0,0,0,0,0,0,-1,706,1653,0,0
-511,-629,0,0,0,0,0,0,0,0,0,-1,713,1653,0,0
-504,-629,0,0,0,0,0,0,0,0,0,-1,720,1653,0,0
-497,-629,0,0,0,0,0,0,0,0,0,-1,727,1653,0,0
-490,-629,0,0,0,0,0,0,0,0,0,-1,734,1653,0,0
-483,-629,0,0,0,0,0,0,0,0,0,-1,741,1653,0,0
-476,-629,0,0,0,0,0,0,0,0,0,-1,748,1653,0,0
-469,-629,0,0,0,0,0,0,0,0,0,-1,755,1653,0,0
-462,-629,0,0,0,0,0,0,0,0,0,-1,762,1653,0,0
-455,-629,0,0,0,0,0,0,0,0,0,-1,769,1653,0,0
-448,-629,0,0,0,0,0,0,0,0,0,-1,776,1653,0,0
-441,-629,0,0,0,0,0,0,0,0,0,-1,783,1653,0,0
-434,-629,0,0,0,0,0,0,0,0,0,-1,790,1653,0,0
-427,-629,0,0,0,0,0,0,0,0,0,-1,797,1653,0,0
-420,-629,-3.87103,3.37634,0,0,0,0,0,0,0,-1,804,1653,-3.87101,-3.37633
-413,-629,-5.69751,1.33582,0,0,0,0,0,0,0,-1,811,1653,-5.69754,-1.3358
-406,-629,2.85406,6.01501,0,0,0,0,0,0,0,-1,818,1653,2.85405,-6.01507
-399,-629,-0.455627,10.8687,0,0,0,0,0,0,0,-1,825,1653,-0.455625,-10.8687
-392,-629,1.15369,11.1295,0,0,0,0,0,0,0,-1,832,1653,1.1537,-11.1295
-385,-629,1.81976,11.6935,0,0,0,0,0,0,0,-1,839,1653,1.81975,-11.6935
-378,-629,2.19452,14.7941,0,0,0,0,0,0,0,-1,846,1653,2.19451,-14.7941
-371,-629,2.28833,13.5138,0,0,0,0,0,0,0,-1,853,1653,2.28832,-13.5138
-364,-629,3.67151,14.2393,0,0,0,0,0,0,0,-1,860,1653,3.67151,-14.2392
-357,-629,3.48041,14.2607,0,0,0,0,0,0,0,-1,867,1653,3.48038,-14.2607
-350,-629,3.24615,14.3967,0,0,0,0,0,0,0,-1,874,1653,3.24616,-14.3968
-343,-629,3.31592,14.676,-0.00287288,-0.00368351,-0.00362241,0.000366822,-0.00692321,-0.729684,0.00474248,0.0434914,881,1653,3.31591,-14.6761
-336,-629,3.30713,14.8849,-0.00238015,-0.00332389,-0.00317147,0.00035436,-0.0060584,-0.711547,0.00416208,0.0176284,888,1653,3.30713,-14.8849
-329,-629,3.32544,15.1472,-0.00193722,-0.00289075,-0.00265088,0.000279433,-0.0051074,-0.696423,0.00350179,0.011708,895,1653,3.32545,-15.1472
-322,-629,3.31342,15.4119,-0.00150349,-0.00232287,-0.00215931,0.000284656,-0.00411102,-0.691646,0.00284032,0.0119063,902,1653,3.31339,-15.4118
-315,-629,3.27917,15.6799,-0.00128698,-0.00169968,-0.00178689,0.00030544,-0.0032921,-0.727913,0.00230331,0.0148055,909,1653,3.27916,-15.6799
-308,-629,3.26904,15.9541,-0.00102063,-0.00129376,-0.00146168,0.000310846,-0.00262524,-0.738817,0.00186244,0.0120672,916,1653,3.26906,-15.9541
-301,-629,3.28741,16.2217,-0.000684265,-0.000984396,-0.00122395,0.000398787,-0.00206745,-0.724399,0.00152867,0.0109507,923,1653,3.28743,-16.2217
-294,-629,3.28552,16.4652,-0.000245525,-0.00080281,-0.000949304,0.000465185,-0.00151352,-0.642646,0.00119466,0.0112628,930,1653,3.28554,-16.4652
-287,-629,3.27661,16.7145,0.00016277,-0.000709398,-0.000693507,0.000545906,-0.00109253,-0.504731,0.000963342,0.00898755,937,1653,3.27661,-16.7144
-280,-629,3.27258,16.968,0.000586978,-0.000783978,-0.000492119,0.000745337,-0.000942337,-0.311326,0.000976589,0.00997223,944,1653,3.27261,-16.9681
-273,-629,3.27142,17.2059,0.00105386,-0.000982469,-0.000340197,0.00110919,-0.0010378,-0.161233,0.00123979,0.0131393,951,1653,3.2714,-17.2059
-266,-629,3.26093,17.4452,0.00143515,-0.00140224,-0.000202075,0.00144947,-0.00141656,-0.0707427,0.00165474,0.0128141,958,1653,3.26091,-17.4451
-259,-629,3.25293,17.6964,0.00225039,-0.00195233,-0.000262186,0.00226669,-0.00196863,-0.0620641,0.00244728,0.0141986,965,1653,3.25293,-17.6964
-252,-629,3.25983,17.9357,0.00292835,-0.00254886,-0.00029296,0.00294397,-0.00256449,-0.0532845,0.00318283,0.0115612,972,1653,3.25982,-17.9357
-245,-629,3.28394,18.1571,0.00375262,-0.00387523,0.000388654,0.00377237,-0.00389498,0.0507767,0.00442694,0.00845293,979,1653,3.28392,-18.1571
-238,-629,3.29022,18.3868,0.00479157,-0.00541367,0.00140603,0.00498174,-0.00560384,0.134439,0.00611511,0.00973969,986,1653,3.29022,-18.3869
-231,-629,3.27917,18.6084,0.00607503,-0.00711138,0.00240659,0.00650052,-0.00753687,0.174992,0.00811185,0.0109407,993,1653,3.27915,-18.6084
-224,-629,3.34644,18.8652,0.00727487,-0.00896069,0.00378573,0.00811422,-0.00980004,0.218184,0.0103581,0.0116109,1000,1653,3.34642,-18.8653
-217,-629,3.32068,19.0352,0.0086089,-0.0106454,0.00576796,0.0102046,-0.012241,0.269892,0.0129767,0.0187475,1007,1653,3.32066,-19.0351
-210,-629,3.19873,19.2678,0.0103227,-0.0115637,0.00652209,0.0121188,-0.0133598,0.268735,0.0147159,0.0385863,1014,1653,3.19871,-19.2678
-203,-629,3.46252,19.7402,0,0,0,0,0,0,0,-1,1021,1653,3.46254,-19.7402
-196,-629,3.6554,19.2061,0.0144088,-0.0122877,0.00719428,0.0162241,-0.014103,0.247167,0.0175236,0.0470607,1028,1653,3.65545,-19.206
-189,-629,3.95398,19.5389,0.0162614,-0.0117566,0.00692659,0.0178802,-0.0133754,0.229595,0.0181078,0.044399,1035,1653,3.95402,-19.539
-182,-629,4.13977,19.8835,0,0,0,0,0,0,0,-1,1042,1653,4.13973,-19.8836
-175,-629,3.29102,19.1411,0,0,0,0,0,0,0,-1,1049,1653,3.29096,-19.1411
-168,-629,3.57275,21.4128,0,0,0,0,0,0,0,-1,1056,1653,3.57276,-21.4129
-161,-629,3.45056,21.119,0.0269468,-0.00253,-0.00409207,0.0275043,-0.00308753,-0.135413,0.0194473,0.0482188,1063,1653,3.45056,-21.119
-154,-629,3.68774,20.9447,0.0284819,0.00127147,-0.00826374,0.030795,-0.00104158,-0.27292,0.0208858,0.0467535,1070,1653,3.68769,-20.9447
-147,-629,3.99756,20.8602,0,0,0,0,0,0,0,-1,1077,1653,3.99754,-20.8602
-140,-629,2.34851,19.2911,0,0,0,0,0,0,0,-1,1084,1653,2.34853,-19.2911
-133,-629,3.41248,17.6686,0,0,0,0,0,0,0,-1,1091,1653,3.41243,-17.6686
-126,-629,4.01025,19.5328,0,0,0,0,0,0,0,-1,1098,1653,4.01022,-19.5328
-119,-629,4.94177,13.5525,0,0,0,0,0,0,0,-1,1105,1653,4.94172,-13.5525
-112,-629,5.63123,15.9187,0,0,0,0,0,0,0,-1,1112,1653,5.63118,-15.9187
-105,-629,2.15881,4.38342,0,0,0,0,0,0,0,-1,1119,1653,2.15878,-4.38347
-98,-629,0.825806,4.19385,0,0,0,0,0,0,0,-1,1126,1653,0.825779,-4.1939
-91,-629,-0.452271,3.64465,0,0,0,0,0,0,0,-1,1133,1653,-0.452278,-3.6446
-84,-629,-2.6084,0.466797,0,0,0,0,0,0,0,-1,1140,1653,-2.6084,-0.466786
-77,-629,-3.50903,2.10706,0,0,0,0,0,0,0,-1,1147,1653,-3.509,-2.10707
-70,-629,-1.20886,2.52502,0,0,0,0,0,0,0,-1,1154,1653,-1.20886,-2.525
-63,-629,-0.960693,4.30212,0,0,0,0,0,0,0,-1,1161,1653,-0.960691,-4.30215
-56,-629,-1.31934,5.64343,0,0,0,0,0,0,0,-1,1168,1653,-1.31928,-5.6434
-49,-629,-2.15662,2.57458,0,0,0,0,0,0,0,-1,1175,1653,-2.15656,-2.57459
-42,-629,-2.46326,3.91467,0,0,0,0,0,0,0,-1,1182,1653,-2.4633,-3.91466
-35,-629,-2.67261,5.24292,0,0,0,0,0,0,0,-1,1189,1653,-2.67257,-5.24298
-28,-629,-0.402954,-0.866577,0,0,0,0,0,0,0,-1,1196,1653,-0.402943,0.866612
-21,-629,10.063,9.59705,0,0,0,0,0,0,0,-1,1203,1653,10.063,-9.59708
-14,-629,1.43225,20.6775,0,0,0,0,0,0,0,-1,1210,1653,1.43219,-20.6775
-7,-629,2.21143,21.5793,0.112444,-0.0404414,0.00965543,0.113051,-0.0410488,0.062822,0.0921503,0.0456722,1217,1653,2.21143,-21.5794
0,-629,2.92798,22.7081,0.102774,0.0026102,0.0060014,0.103133,0.00225191,0.0596313,0.0680169,0.0467515,1224,1653,2.92796,-22.7081
7,-629,3.38245,23.7175,0.101812,0.042063,-0.00450167,0.10215,0.0417258,-0.07478,0.0593046,0.0468148,1231,1653,3.38243,-23.7175
14,-629,3.89087,24.6284,0.103909,0.0732129,-0.0161064,0.110809,0.0663129,-0.40475,0.0643877,0.0454371,1238,1653,3.89083,-24.6284
21,-629,2.24365,34.4155,0,0,0,0,0,0,0,-1,1245,1653,2.24364,-34.4155
28,-629,3.21204,33.5685,0.0902195,0.121738,-0.0329133,0.142471,0.0694872,-1.00868,0.0822637,0.0492923,1252,1653,3.21198,-33.5685
35,-629,4.13037,32.754,0.0734605,0.13465,-0.0388977,0.153543,0.0545671,-1.11864,0.0898756,0.0476488,1259,1653,4.13036,-32.754
42,-629,4.89099,31.7532,0.0524179,0.14232,-0.0422263,0.159043,0.0356952,-1.19372,0.0963599,0.0486809,1266,1653,4.89095,-31.7532
49,-629,5.81213,30.7418,0.0290527,0.148705,-0.0420257,0.161991,0.0157671,-1.26461,0.103141,0.0473105,1273,1653,5.81217,-30.7419
56,-629,6.76404,29.8979,0,0,0,0,0,0,0,-1,1280,1653,6.76407,-29.898
63,-629,10.0535,27.5168,-0.024478,0.141646,-0.0357798,0.149025,-0.0318565,-1.36743,0.111496,0.0430662,1287,1653,10.0535,-27.5168
70,-629,10.1094,27.4281,-0.0471622,0.132451,-0.0350461,0.139047,-0.0537582,-1.38476,0.114889,0.0473687,1294,1653,10.1094,-27.4281
77,-629,6.22473,27.3376,-0.0599202,0.121098,-0.0380594,0.128774,-0.0675967,-1.37177,0.115194,0.0484432,1301,1653,6.2247,-27.3376
84,-629,5.14221,27.4148,-0.0676639,0.113693,-0.0428099,0.12329,-0.0772615,-1.35025,0.116801,0.046074,1308,1653,5.14225,-27.4148
91,-629,4.00696,27.9362,0,0,0,0,0,0,0,-1,1315,1653,4.00695,-27.9361
98,-629,3.0387,27.9718,0,0,0,0,0,0,0,-1,1322,1653,3.03875,-27.9718
105,-629,6.39429,26.11,0,0,0,0,0,0,0,-1,1329,1653,6.39434,-26.1099
112,-629,6.37549,24.7772,0,0,0,0,0,0,0,-1,1336,1653,6.37553,-24.7772
119,-629,6.1853,23.5841,-0.00946673,0.0914684,-0.112736,0.164518,-0.082516,-0.995852,0.145221,0.0449268,1343,1653,6.18533,-23.5841
126,-629,5.7511,22.6138,0.0160662,0.0907696,-0.135928,0.194385,-0.0875491,-0.919483,0.166625,0.0413364,1350,1653,5.75105,-22.6138
133,-629,5.69495,22.1002,0.0361858,0.0892861,-0.160186,0.225108,-0.0996358,-0.867524,0.192099,0.0489895,1357,1653,5.69489,-22.1002
140,-629,5.36389,21.2435,0,0,0,0,0,0,0,-1,1364,1653,5.36392,-21.2436
147,-629,5.09631,20.3937,0,0,0,0,0,0,0,-1,1371,1653,5.09627,-20.3936
154,-629,4.30908,25.0669,0,0,0,0,0,0,0,-1,1378,1653,4.30909,-25.0669
161,-629,10.5461,6.83752,0,0,0,0,0,0,0,-1,1385,1653,10.5461,-6.83758
168,-629,12.0059,5.56348,0,0,0,0,0,0,0,-1,1392,1653,12.0059,-5.56352
175,-629,5.84485,-1.78845,0,0,0,0,0,0,0,-1,1399,1653,5.84479,1.7884
182,-629,5.99036,-1.27783,0,0,0,0,0,0,0,-1,1406,1653,5.99041,1.27778
189,-629,5.97668,-0.748535,0,0,0,0,0,0,0,-1,1413,1653,5.97671,0.748544
196,-629,4.52869,9.24695,0,0,0,0,0,0,0,-1,1420,1653,4.52869,-9.2469
203,-629,3.75085,6.88037,0,0,0,0,0,0,0,-1,1427,1653,3.75087,-6.88032
210,-629,3.5907,6.52637,0,0,0,0,0,0,0,-1,1434,1653,3.59067,-6.52642
217,-629,2.4585,4.84448,0,0,0,0,0,0,0,-1,1441,1653,2.45855,-4.84448
224,-629,1.31982,3.68481,0,0,0,0,0,0,0,-1,1448,1653,1.31986,-3.68487
231,-629,3.63025,1.73499,0,0,0,0,0,0,0,-1,1455,1653,3.6303,-1.735
238,-629,4.26428,2.11255,0,0,0,0,0,0,0,-1,1462,1653,4.26429,-2.11253
245,-629,5.61816,1.95361,0,0,0,0,0,0,0,-1,1469,1653,5.61815,-1.95359
252,-629,7.27136,2.18982,0,0,0,0,0,0,0,-1,1476,1653,7.27131,-2.18985
259,-629,8.67334,2.18628,0,0,0,0,0,0,0,-1,1483,1653,8.6733,-2.18633
266,-629,6.86475,3.72058,0,0,0,0,0,0,0,-1,1490,1653,6.86479,-3.72063
273,-629,7.9021,3.8717,0,0,0,0,0,0,0,-1,1497,1653,7.90205,-3.87171
280,-629,9.70837,4.39087,0,0,0,0,0,0,0,-1,1504,1653,9.7084,-4.39082
287,-629,9.82947,7.19348,0,0,0,0,0,0,0,-1,1511,1653,9.8295,-7.19347
294,-629,6.56555,11.6359,0,0,0,0,0,0,0,-1,1518,1653,6.5656,-11.6358
301,-629,6.93835,15.6102,0,0,0,0,0,0,0,-1,1525,1653,6.93835,-15.6103
308,-629,6.08264,12.1423,0,0,0,0,0,0,0,-1,1532,1653,6.08263,-12.1423
315,-629,6.82043,18.2764,0,0,0,0,0,0,0,-1,1539,1653,6.82049,-18.2764
322,-629,7.87012,21.111,0,0,0,0,0,0,0,-1,1546,1653,7.87012,-21.111
329,-629,7.87085,20.8,0.00276864,0.0205546,-0.00391313,0.0213774,0.00194577,-1.36353,0.0136493,0.0399871,1553,1653,7.8708,-20.8001
336,-629,7.87183,20.3799,0.00231421,0.0176224,-0.00266018,0.0180715,0.00186511,-1.40355,0.0114766,0.0425787,1560,1653,7.87177,-20.3799
343,-629,7.92517,19.8876,0.00160871,0.0146293,-0.00151967,0.0148043,0.0014337,-1.45614,0.00942804,0.0430924,1567,1653,7.92513,-19.8876
350,-629,7.95557,19.6986,0.00119178,0.0118979,-0.000682562,0.0119412,0.00114844,-1.50738,0.00760696,0.0253142,1574,1653,7.95558,-19.6986
357,-629,7.96826,19.4668,0.000758545,0.00895817,0.000272982,0.00896725,0.000749467,1.53755,0.00574466,0.0159718,1581,1653,7.9682,-19.4668
364,-629,7.95129,19.2692,0.000135429,0.00696688,0.0009502,0.00709658,5.72577e-06,1.43513,0.00472914,0.0135575,1588,1653,7.95128,-19.2692
371,-629,7.93921,19.0864,-0.000392028,0.00498676,0.0014453,0.00535052,-0.000755783,1.32424,0.00384379,0.0103432,1595,1653,7.93918,-19.0865
378,-629,7.91565,18.8776,-0.000813196,0.00342441,0.0017973,0.00408403,-0.00147281,1.21905,0.00332422,0.00923088,1602,1653,7.9157,-18.8776
385,-629,7.92126,18.6844,-0.000984734,0.00164105,0.0019883,0.00271081,-0.0020545,1.07719,0.00275994,0.0115836,1609,1653,7.92124,-18.6844
392,-629,7.91406,18.4957,-0.000965752,0.000528131,0.0020121,0.00192745,-0.00236507,0.963127,0.00248258,0.0103226,1616,1653,7.91411,-18.4957
399,-629,7.91248,18.2762,-0.000901965,-9.60441e-05,0.00186452,0.00140856,-0.00240657,0.891822,0.00222765,0.0105359,1623,1653,7.91252,-18.2763
406,-629,7.93176,18.0576,-0.000786875,-0.000524859,0.00160824,0.000957701,-0.00226944,0.826039,0.00191381,0.0137785,1630,1653,7.93179,-18.0577
413,-629,7.92041,17.8685,-0.000599375,-0.000930787,0.00141789,0.00066246,-0.00219262,0.727228,0.00172549,0.0220299,1637,1653,7.92042,-17.8686
420,-629,7.90601,17.6569,-0.000300861,-0.00131419,0.00123579,0.000528094,-0.00214315,0.590852,0.0016335,0.0201917,1644,1653,7.90595,-17.6568
427,-629,7.93079,17.3871,0.000264967,-0.0019046,0.00101051,0.000662708,-0.00230234,0.374982,0.001797,0.0127703,1651,1653,7.93083,-17.3871
434,-629,7.9447,17.1324,0.00109704,-0.00222851,0.000471323,0.00116254,-0.00229402,0.138105,0.00203097,0.0104555,1658,1653,7.94467,-17.1324
441,-629,7.94946,16.8938,0.00198918,-0.00269822,6.59912e-05,0.00199011,-0.00269915,0.0140747,0.00271764,0.0144525,1665,1653,7.94951,-16.8939
448,-629,7.93616,16.6599,0.00325624,-0.00295032,-0.000641578,0.00332186,-0.00301594,-0.101935,0.00366056,0.0140941,1672,1653,7.93616,-16.6599
455,-629,7.92578,16.4135,0.00470352,-0.00347353,-0.00130204,0.00490584,-0.00367585,-0.154153,0.00497158,0.0135013,1679,1653,7.92577,-16.4134
462,-629,7.93787,16.175,0.00655414,-0.00418319,-0.00214221,0.00696575,-0.0045948,-0.189831,0.00672112,0.0169429,1686,1653,7.93786,-16.1751
469,-629,7.9104,15.9004,0.00886547,-0.00481603,-0.00327455,0.00960882,-0.00555938,-0.223225,0.00886078,0.020726,1693,1653,7.91042,-15.9004
476,-629,7.91785,15.6814,0.0116334,-0.00547684,-0.00476184,0.0128694,-0.00671279,-0.253951,0.0114905,0.0269784,1700,1653,7.91787,-15.6814
483,-629,8.04407,15.4553,0.014841,-0.00529187,-0.00683174,0.0169403,-0.0073912,-0.298132,0.0144039,0.0372962,1707,1653,8.0441,-15.4553
490,-629,8.17041,15.1746,0,0,0,0,0,0,0,-1,1714,1653,8.17037,-15.1745
497,-629,9.0531,14.1431,0,0,0,0,0,0,0,-1,1721,1653,9.05315,-14.143
504,-629,9.67065,14.1481,0,0,0,0,0,0,0,-1,1728,1653,9.67069,-14.1481
511,-629,6.29138,3.40295,0,0,0,0,0,0,0,-1,1735,1653,6.29137,-3.403
518,-629,5.84387,1.41858,0,0,0,0,0,0,0,-1,1742,1653,5.84391,-1.4186
525,-629,6.4729,1.02319,0,0,0,0,0,0,0,-1,1749,1653,6.47284,-1.02316
532,-629,6.86511,0.903687,0,0,0,0,0,0,0,-1,1756,1653,6.86514,-0.903691
539,-629,6.60803,0.746704,0,0,0,0,0,0,0,-1,1763,1653,6.60809,-0.746691
546,-629,0,0,0,0,0,0,0,0,0,-1,1770,1653,0,0
553,-629,0,0,0,0,0,0,0,0,0,-1,1777,1653,0,0
560,-629,0,0,0,0,0,0,0,0,0,-1,1784,1653,0,0
567,-629,0,0,0,0,0,0,0,0,0,-1,1791,1653,0,0
574,-629,0,0,0,0,0,0,0,0,0,-1,1798,1653,0,0
581,-629,0,0,0,0,0,0,0,0,0,-1,1805,1653,0,0
588,-629,0,0,0,0,0,0,0,0,0,-1,1812,1653,0,0
595,-629,0,0,0,0,0,0,0,0,0,-1,1819,1653,0,0
602,-629,0,0,0,0,0,0,0,0,0,-1,1826,1653,0,0
609,-629,0,0,0,0,0,0,0,0,0,-1,1833,1653,0,0
616,-629,0,0,0,0,0,0,0,0,0,-1,1840,1653,0,0
623,-629,0,0,0,0,0,0,0,0,0,-1,1847,1653,0,0
630,-629,0,0,0,0,0,0,0,0,0,-1,1854,1653,0,0
637,-629,0,0,0,0,0,0,0,0,0,-1,1861,1653,0,0
644,-629,0,0,0,0,0,0,0,0,0,-1,1868,1653,0,0
651,-629,0,0,0,0,0,0,0,0,0,-1,1875,1653,0,0
658,-629,0,0,0,0,0,0,0,0,0,-1,1882,1653,0,0
665,-629,0,0,0,0,0,0,0,0,0,-1,1889,1653,0,0
672,-629,0,0,0,0,0,0,0,0,0,-1,1896,1653,0,0
679,-629,0,0,0,0,0,0,0,0,0,-1,1903,1653,0,0
686,-629,0,0,0,0,0,0,0,0,0,-1,1910,1653,0,0
693,-629,0,0,0,0,0,0,0,0,0,-1,1917,1653,0,0
700,-629,0,0,0,0,0,0,0,0,0,-1,1924,1653,0,0
707,-629,0,0,0,0,0,0,0,0,0,-1,1931,1653,0,0
714,-629,0,0,0,0,0,0,0,0,0,-1,1938,1653,0,0
721,-629,0,0,0,0,0,0,0,0,0,-1,1945,1653,0,0
728,-629,0,0,0,0,0,0,0,0,0,-1,1952,1653,0,0
735,-629,0,0,0,0,0,0,0,0,0,-1,1959,1653,0,0
742,-629,0,0,0,0,0,0,0,0,0,-1,1966,1653,0,0
749,-629,0,0,0,0,0,0,0,0,0,-1,1973,1653,0,0
756,-629,0,0,0,0,0,0,0,0,0,-1,1980,1653,0,0
763,-629,0,0,0,0,0,0,0,0,0,-1,1987,1653,0,0
770,-629,0,0,0,0,0,0,0,0,0,-1,1994,1653,0,0
777,-629,0,0,0,0,0,0,0,0,0,-1,2001,1653,0,0
784,-629,0,0,0,0,0,0,0,0,0,-1,2008,1653,0,0
791,-629,0,0,0,0,0,0,0,0,0,-1,2015,1653,0,0
798,-629,0,0,0,0,0,0,0,0,0,-1,2022,1653,0,0
805,-629,0,0,0,0,0,0,0,0,0,-1,2029,1653,0,0
812,-629,0,0,0,0,0,0,0,0,0,-1,2036,1653,0,0
-700,-636,0,0,0,0,0,0,0,0,0,-1,524,1660,0,0
-693,-636,0,0,0,0,0,0,0,0,0,-1,531,1660,0,0
-686,-636,0,0,0,0,0,0,0,0,0,-1,538,1660,0,0
-679,-636,0,0,0,0,0,0,0,0,0,-1,545,1660,0,0
-672,-636,0,0,0,0,0,0,0,0,0,-1,552,1660,0,0
-665,-636,0,0,0,0,0,0,0,0,0,-1,559,1660,0,0
-658,-636,0,0,0,0,0,0,0,0,0,-1,566,1660,0,0
-651,-636,0,0,0,0,0,0,0,0,0,-1,573,1660,0,0
-644,-636,0,0,0,0,0,0,0,0,0,-1,580,1660,0,0
-637,-636,0,0,0,0,0,0,0,0,0,-1,587,1660,0,0
-630,-636,0,0,0,0,0,0,0,0,0,-1,594,1660,0,0
-623,-636,0,0,0,0,0,0,0,0,0,-1,601,1660,0,0
-616,-636,0,0,0,0,0,0,0,0,0,-1,608,1660,0,0
-609,-636,0,0,0,0,0,0,0,0,0,-1,615,1660,0,0
-602,-636,0,0,0,0,0,0,0,0,0,-1,622,1660,0,0
-595,-636,0,0,0,0,0,0,0,0,0,-1,629,1660,0,0
-588,-636,0,0,0,0,0,0,0,0,0,-1,636,1660,0,0
-581,-636,0,0,0,0,0,0,0,0,0,-1,643,1660,0,0
-574,-636,0,0,0,0,0,0,0,0,0,-1,650,1660,0,0
-567,-636,0,0,0,0,0,0,0,0,0,-1,657,1660,0,0
-560,-636,0,0,0,0,0,0,0,0,0,-1,664,1660,0,0
-553,-636,0,0,0,0,0,0,0,0,0,-1,671,1660,0,0
-546,-636,0,0,0,0,0,0,0,0,0,-1,678,1660,0,0
-539,-636,0,0,0,0,0,0,0,0,0,-1,685,1660,0,0
-532,-636,0,0,0,0,0,0,0,0,0,-1,692,1660,0,0
-525,-636,0,0,0,0,0,0,0,0,0,-1,699,1660,0,0
-518,-636,0,0,0,0,0,0,0,0,0,-1,706,1660,0,0
-511,-636,0,0,0,0,0,0,0,0,0,-1,713,1660,0,0
-504,-636,0,0,0,0,0,0,0,0,0,-1,720,1660,0,0
-497,-636,0,0,0,0,0,0,0,0,0,-1,727,1660,0,0
-490,-636,0,0,0,0,0,0,0,0,0,-1,734,1660,0,0
-483,-636,0,0,0,0,0,0,0,0,0,-1,741,1660,0,0
-476,-636,0,0,0,0,0,0,0,0,0,-1,748,1660,0,0
-469,-636,0,0,0,0,0,0,0,0,0,-1,755,1660,0,0
-462,-636,0,0,0,0,0,0,0,0,0,-1,762,1660,0,0
-455,-636,0,0,0,0,0,0,0,0,0,-1,769,1660,0,0
-448,-636,0,0,0,0,0,0,0,0,0,-1,776,1660,0,0
-441,-636,0,0,0,0,0,0,0,0,0,-1,783,1660,0,0
-434,-636,0,0,0,0,0,0,0,0,0,-1,790,1660,0,0
-427,-636,0,0,0,0,0,0,0,0,0,-1,797,1660,0,0
-420,-636,0,0,0,0,0,0,0,0,0,-1,804,1660,0,0
-413,-636,0,0,0,0,0,0,0,0,0,-1,811,1660,0,0
-406,-636,-0.591125,10.6943,0,0,0,0,0,0,0,-1,818,1660,-0.59115,-10.6943
-399,-636,0.0766602,11.2408,0,0,0,0,0,0,0,-1,825,1660,0.076685,-11.2409
-392,-636,0.75946,11.9233,0,0,0,0,0,0,0,-1,832,1660,0.759481,-11.9233
-385,-636,1.68878,12.517,0,0,0,0,0,0,0,-1,839,1660,1.6888,-12.5169
-378,-636,2.22107,13.0013,0,0,0,0,0,0,0,-1,846,1660,2.22107,-13.0014
-371,-636,2.52185,11.9684,0,0,0,0,0,0,0,-1,853,1660,2.52184,-11.9684
-364,-636,2.94617,11.7798,0,0,0,0,0,0,0,-1,860,1660,2.94618,-11.7798
-357,-636,4.63861,13.8188,0,0,0,0,0,0,0,-1,867,1660,4.63863,-13.8189
-350,-636,2.8645,11.7958,0,0,0,0,0,0,0,-1,874,1660,2.86448,-11.7957
-343,-636,3.63171,14.7587,0,0,0,0,0,0,0,-1,881,1660,3.63172,-14.7586
-336,-636,3.55688,14.9252,-0.00326946,-0.00452481,-0.00466359,0.000808507,-0.00860278,-0.718505,0.0060228,0.0352436,888,1660,3.55686,-14.9252
-329,-636,3.59436,15.1603,-0.00279122,-0.00392904,-0.00396921,0.000649645,-0.0073699,-0.714217,0.00514351,0.0191703,895,1660,3.59435,-15.1603
-322,-636,3.58246,15.4205,-0.00227413,-0.00318314,-0.00324624,0.00054927,-0.00600654,-0.715846,0.00419944,0.011818,902,1660,3.58247,-15.4206
-315,-636,3.51721,15.6936,-0.00198484,-0.0023089,-0.00263994,0.000498038,-0.00479178,-0.754748,0.00337281,0.0121738,909,1660,3.51721,-15.6936
-308,-636,3.50629,15.9716,-0.00164649,-0.00168949,-0.00208467,0.000416792,-0.00375277,-0.780242,0.00265172,0.0110242,916,1660,3.50629,-15.9715
-301,-636,3.5321,16.2286,-0.0012725,-0.00115748,-0.00167867,0.000464657,-0.00289464,-0.802521,0.00210184,0.0108841,923,1660,3.53209,-16.2286
-294,-636,3.5304,16.4719,-0.000828381,-0.000723609,-0.00126034,0.000485432,-0.00203742,-0.806169,0.00154571,0.0130427,930,1660,3.53038,-16.4719
-287,-636,3.5235,16.7239,-0.000420276,-0.00046434,-0.000883849,0.000441815,-0.00132643,-0.772937,0.00106263,0.0117397,937,1660,3.52348,-16.7239
-280,-636,3.52289,16.9763,-2.88857e-05,-0.000362107,-0.000591186,0.000418718,-0.000809711,-0.648048,0.00072111,0.0115951,944,1660,3.52289,-16.9763
-273,-636,3.5152,17.2174,0.000399907,-0.000393292,-0.000363493,0.000541284,-0.000534669,-0.370934,0.000621205,0.0119918,951,1660,3.51517,-17.2175
-266,-636,3.51093,17.4569,0.000784404,-0.000624533,-0.000174745,0.000805754,-0.000645882,-0.121572,0.000839795,0.0133883,958,1660,3.51092,-17.4569
-259,-636,3.50977,17.7145,0.00147919,-0.000967696,-0.000129552,0.00148603,-0.000974536,-0.052749,0.0014308,0.0147095,965,1660,3.50974,-17.7144
-252,-636,3.50031,17.9421,0.00203159,-0.00140856,-0.000110366,0.00203513,-0.0014121,-0.0320378,0.00200106,0.0112475,972,1660,3.50032,-17.9421
-245,-636,3.51971,18.1802,0.00270177,-0.00245197,0.000384885,0.00273036,-0.00248056,0.0741327,0.00300968,0.0104407,979,1660,3.51974,-18.1801
-238,-636,3.5293,18.4016,0.00353708,-0.00365084,0.0011342,0.0037118,-0.00382556,0.152846,0.00435186,0.0115335,986,1660,3.52932,-18.4016
-231,-636,3.52264,18.613,0.0045674,-0.00496008,0.00188671,0.00492742,-0.0053201,0.188551,0.00591785,0.0108129,993,1660,3.52265,-18.6131
-224,-636,3.54626,18.8286,0.00554228,-0.00632218,0.00289832,0.00621245,-0.00699234,0.227232,0.00762822,0.00926835,1000,1660,3.54629,-18.8287
-217,-636,3.54724,19.0779,0.00658615,-0.00749553,0.00430738,0.00779921,-0.00870859,0.274515,0.0095356,0.0124651,1007,1660,3.54726,-19.0778
-210,-636,3.55035,19.2629,0.007949,-0.00803063,0.00480961,0.00928492,-0.00936656,0.270932,0.0107685,0.0185943,1014,1660,3.55033,-19.263
-203,-636,3.57642,19.4795,0.00978487,-0.00815191,0.00489282,0.0110327,-0.00939977,0.249715,0.0118093,0.0248282,1021,1660,3.57638,-19.4795
-196,-636,3.71838,19.5944,0.0112235,-0.00836322,0.00516265,0.0125009,-0.00964067,0.242569,0.012819,0.0271011,1028,1660,3.71834,-19.5943
-189,-636,3.72803,19.8052,0.0126453,-0.00786316,0.00493007,0.0137689,-0.00898675,0.224078,0.0132344,0.0282131,1035,1660,3.72802,-19.8052
-182,-636,4.04626,19.8387,0.014548,-0.00707312,0.00402692,0.0152737,-0.00779877,0.178288,0.0135519,0.0424615,1042,1660,4.04624,-19.8388
-175,-636,4.30505,19.8224,0,0,0,0,0,0,0,-1,1049,1660,4.30502,-19.8224
-168,-636,4.05823,20.8607,0,0,0,0,0,0,0,-1,1056,1660,4.05824,-20.8608
-161,-636,3.85193,21.2379,0.0210024,-0.000776389,-0.00231194,0.0212451,-0.00101911,-0.104603,0.014515,0.0454295,1063,1660,3.85196,-21.2379
-154,-636,4.00281,20.7408,0.0224021,0.00183929,-0.00483905,0.0234839,0.00075743,-0.219951,0.0154097,0.0432789,1070,1660,4.0028,-20.7409
-147,-636,4.56921,20.4248,0,0,0,0,0,0,0,-1,1077,1660,4.56926,-20.4248
-140,-636,4.92529,20.288,0,0,0,0,0,0,0,-1,1084,1660,4.92534,-20.2879
-133,-636,4.68311,18.0922,0,0,0,0,0,0,0,-1,1091,1660,4.68316,-18.0921
-126,-636,3.79028,18.2225,0,0,0,0,0,0,0,-1,1098,1660,3.79025,-18.2226
-119,-636,1.8667,13.8916,0,0,0,0,0,0,0,-1,1105,1660,1.86668,-13.8916
-112,-636,-1.24963,9.7998,0,0,0,0,0,0,0,-1,1112,1660,-1.24968,-9.79978
-105,-636,3.51624,4.72791,0,0,0,0,0,0,0,-1,1119,1660,3.51618,-4.7279
-98,-636,1.54504,5.11914,0,0,0,0,0,0,0,-1,1126,1660,1.54503,-5.11912
-91,-636,-1.87964,-2.25012,0,0,0,0,0,0,0,-1,1133,1660,-1.87966,2.25016
-84,-636,-2.84143,0.133667,0,0,0,0,0,0,0,-1,1140,1660,-2.84144,-0.133701
-77,-636,-3.57349,2.45935,0,0,0,0,0,0,0,-1,1147,1660,-3.57345,-2.45939
-70,-636,-4.23682,4.82312,0,0,0,0,0,0,0,-1,1154,1660,-4.23681,-4.82307
-63,-636,-2.21033,6.97168,0,0,0,0,0,0,0,-1,1161,1660,-2.21034,-6.97165
-56,-636,-2.51917,8.80359,0,0,0,0,0,0,0,-1,1168,1660,-2.51916,-8.80361
-49,-636,-3.13,10.4113,0,0,0,0,0,0,0,-1,1175,1660,-3.12996,-10.4112
-42,-636,-2.27771,4.90173,0,0,0,0,0,0,0,-1,1182,1660,-2.27775,-4.90173
-35,-636,-2.27698,5.89685,0,0,0,0,0,0,0,-1,1189,1660,-2.27695,-5.89686
-28,-636,-1.70654,4.83936,0,0,0,0,0,0,0,-1,1196,1660,-1.70656,-4.8393
-21,-636,-5.18445,24.8309,0,0,0,0,0,0,0,-1,1203,1660,-5.18442,-24.831
-14,-636,2.42859,21.5725,0,0,0,0,0,0,0,-1,1210,1660,2.42858,-21.5725
-7,-636,3.05627,22.1006,0.112944,-0.0330577,0.0206158,0.115799,-0.0359128,0.137619,0.0915493,0.0444853,1217,1660,3.05632,-22.1006
0,-636,3.55249,22.7322,0.102401,0.00446525,0.0197238,0.106224,0.000642192,0.191455,0.0706027,0.0444545,1224,1660,3.55252,-22.7322
7,-636,3.88831,23.5288,0.0999964,0.0394065,0.0123758,0.102427,0.0369762,0.193911,0.0598929,0.0455689,1231,1660,3.88835,-23.5288
14,-636,4.43042,24.351,0.100682,0.0687725,0.0029422,0.100951,0.0685035,0.0911788,0.0595106,0.0439698,1238,1660,4.43046,-24.3509
21,-636,2.52625,33.2098,0,0,0,0,0,0,0,-1,1245,1660,2.52629,-33.2098
28,-636,3.43262,32.3894,0.0874896,0.112407,-0.0137503,0.118503,0.0813932,-1.15347,0.069992,0.0495444,1252,1660,3.43262,-32.3895
35,-636,4.35718,31.5966,0.0730106,0.125866,-0.0191157,0.132055,0.0668218,-1.25769,0.0762439,0.0456803,1259,1660,4.35719,-31.5966
42,-636,5.28918,30.7789,0.0554284,0.132881,-0.0216207,0.138507,0.0498017,-1.3162,0.0810119,0.0499052,1266,1660,5.28924,-30.779
49,-636,6.21777,29.642,0.0358089,0.139284,-0.0225178,0.143972,0.031121,-1.36554,0.0874726,0.0481594,1273,1660,6.21773,-29.6419
56,-636,7.1748,28.7856,0,0,0,0,0,0,0,-1,1280,1660,7.17485,-28.7856
63,-636,9.32495,26.8079,-0.00201615,0.137476,-0.0229083,0.141141,-0.00568195,-1.41212,0.0960443,0.0433458,1287,1660,9.32497,-26.8079
70,-636,9.49158,26.3456,-0.0179745,0.131827,-0.0245605,0.135751,-0.0218985,-1.41237,0.0986143,0.0475125,1294,1660,9.49156,-26.3456
77,-636,6.20569,26.7787,-0.0281502,0.123369,-0.0285909,0.128585,-0.0333656,-1.39036,0.0987424,0.0454185,1301,1660,6.20573,-26.7787
84,-636,5.35498,27.1125,-0.0342679,0.117603,-0.0341957,0.124948,-0.0416123,-1.35923,0.100095,0.0452642,1308,1660,5.35498,-27.1126
91,-636,4.32532,27.3396,-0.0347357,0.108719,-0.0416122,0.119916,-0.0459324,-1.30795,0.0988773,0.0430871,1315,1660,4.32536,-27.3396
98,-636,3.47009,27.3284,-0.0289996,0.104622,-0.0525196,0.122794,-0.0471711,-1.23769,0.101315,0.0481708,1322,1660,3.4701,-27.3283
105,-636,6.41199,25.2203,0,0,0,0,0,0,0,-1,1329,1660,6.41193,-25.2203
112,-636,6.7627,24.1418,0,0,0,0,0,0,0,-1,1336,1660,6.76268,-24.1418
119,-636,6.52454,23.3356,0.0285041,0.0989252,-0.111079,0.180241,-0.0528117,-0.938881,0.141098,0.0478165,1343,1660,6.52453,-23.3356
126,-636,6.29126,22.55,0.0501817,0.0967786,-0.134249,0.209736,-0.0627754,-0.871316,0.164784,0.0430644,1350,1660,6.29123,-22.5501
133,-636,6.0188,21.7632,0.0625344,0.091141,-0.156954,0.234442,-0.0807662,-0.830838,0.189057,0.0479547,1357,1660,6.01881,-21.7632
140,-636,8.97461,18.7732,0,0,0,0,0,0,0,-1,1364,1660,8.97462,-18.7732
147,-636,12.3168,33.9268,0,0,0,0,0,0,0,-1,1371,1660,12.3168,-33.9267
154,-636,13.1134,36.3121,0,0,0,0,0,0,0,-1,1378,1660,13.1134,-36.3122
161,-636,10.2961,7.13025,0,0,0,0,0,0,0,-1,1385,1660,10.2961,-7.13021
168,-636,11.7659,5.83899,0,0,0,0,0,0,0,-1,1392,1660,11.7658,-5.83899
175,-636,5.94592,-1.72888,0,0,0,0,0,0,0,-1,1399,1660,5.94598,1.72886
182,-636,5.93994,-1.11938,0,0,0,0,0,0,0,-1,1406,1660,5.93998,1.11936
189,-636,5.32544,11.9595,0,0,0,0,0,0,0,-1,1413,1660,5.32542,-11.9595
196,-636,5.3623,9.38025,0,0,0,0,0,0,0,-1,1420,1660,5.36225,-9.38027
203,-636,5.18542,9.02429,0,0,0,0,0,0,0,-1,1427,1660,5.18547,-9.0243
210,-636,4.09167,7.17041,0,0,0,0,0,0,0,-1,1434,1660,4.09173,-7.17041
217,-636,2.94897,5.28992,0,0,0,0,0,0,0,-1,1441,1660,2.94899,-5.28991
224,-636,1.49194,3.63916,0,0,0,0,0,0,0,-1,1448,1660,1.49197,-3.63918
231,-636,0.17749,2.24854,0,0,0,0,0,0,0,-1,1455,1660,0.177501,-2.24855
238,-636,-0.764648,1.00598,0,0,0,0,0,0,0,-1,1462,1660,-0.764704,-1.00595
245,-636,6.21204,1.18005,0,0,0,0,0,0,0,-1,1469,1660,6.21206,-1.18001
252,-636,7.70251,0.865723,0,0,0,0,0,0,0,-1,1476,1660,7.7025,-0.865692
259,-636,9.03601,0.787231,0,0,0,0,0,0,0,-1,1483,1660,9.03598,-0.787243
266,-636,10.1071,3.24109,0,0,0,0,0,0,0,-1,1490,1660,10.1071,-3.24103
273,-636,8.48535,5.02466,0,0,0,0,0,0,0,-1,1497,1660,8.48533,-5.02472
280,-636,8.81384,5.66992,0,0,0,0,0,0,0,-1,1504,1660,8.81381,-5.66998
287,-636,6.08606,11.49,0,0,0,0,0,0,0,-1,1511,1660,6.08606,-11.49
294,-636,6.69592,15.9669,0,0,0,0,0,0,0,-1,1518,1660,6.69595,-15.9669
301,-636,7.5719,21.8466,0,0,0,0,0,0,0,-1,1525,1660,7.57188,-21.8466
308,-636,7.5802,21.0059,0,0,0,0,0,0,0,-1,1532,1660,7.58023,-21.0059
315,-636,7.35681,20.733,0,0,0,0,0,0,0,-1,1539,1660,7.3568,-20.733
322,-636,7.526,20.3927,0.0022448,0.016308,-0.00298236,0.0169143,0.00163848,-1.37023,0.0107717,0.0439361,1546,1660,7.52603,-20.3928
329,-636,7.68726,20.2103,0.00227599,0.0144549,-0.00245842,0.0149324,0.00179846,-1.37894,0.00941292,0.0274134,1553,1660,7.68726,-20.2103
336,-636,7.68713,20.0107,0.00190358,0.0125404,-0.00171089,0.0128088,0.00163517,-1.41518,0.00804972,0.0235248,1560,1660,7.68708,-20.0107
343,-636,7.66248,19.8776,0.00134724,0.0105318,-0.000974065,0.0106339,0.00124508,-1.46629,0.00671287,0.0213684,1567,1660,7.66248,-19.8776
350,-636,7.672,19.6967,0.0010656,0.00868734,-0.000448678,0.00871366,0.00103928,-1.5122,0.00549554,0.0119713,1574,1660,7.67199,-19.6966
357,-636,7.7168,19.4869,0.000761787,0.00663705,0.000175815,0.00664231,0.000756531,1.54091,0.00419881,0.0104242,1581,1660,7.71683,-19.4869
364,-636,7.73474,19.303,0.000298931,0.00529348,0.000596684,0.00536378,0.000228637,1.45353,0.00350213,0.0104526,1588,1660,7.73468,-19.303
371,-636,7.72168,19.1039,-6.86511e-05,0.00402024,0.000844986,0.00418798,-0.00023639,1.37483,0.00287402,0.00907251,1595,1660,7.72171,-19.1039
378,-636,7.71375,18.8788,-0.000331864,0.00293326,0.0010224,0.00322698,-0.000625581,1.29105,0.00238733,0.00901031,1602,1660,7.71378,-18.8788
385,-636,7.7207,18.6791,-0.000385593,0.00162751,0.00108582,0.00210154,-0.000859632,1.15916,0.00175904,0.0141658,1609,1660,7.7207,-18.6791
392,-636,7.703,18.4823,-0.000312903,0.00079177,0.00102701,0.00140555,-0.00092668,1.03212,0.00135594,0.0148637,1616,1660,7.70298,-18.4823
399,-636,7.70471,18.2729,-0.00024753,0.000282821,0.000872178,0.000929245,-0.000893954,0.932977,0.00105269,0.0110081,1623,1660,7.70465,-18.2729
406,-636,7.71863,18.0674,-0.000158687,-7.53161e-05,0.000647237,0.000531576,-0.000765579,0.817556,0.000752964,0.0135367,1630,1660,7.71858,-18.0674
413,-636,7.71521,17.8542,-1.60996e-05,-0.000475878,0.000551104,0.000351141,-0.000843119,0.5878,0.00070874,0.0216211,1637,1660,7.71522,-17.8543
420,-636,7.67212,17.657,0.00024892,-0.00101047,0.000506334,0.000427241,-0.00118879,0.338616,0.000966933,0.0212592,1644,1660,7.67212,-17.657
427,-636,7.69604,17.3949,0.000840496,-0.00184365,0.000413854,0.000902856,-0.00190601,0.149558,0.00165582,0.0126421,1651,1660,7.69609,-17.3949
434,-636,7.69836,17.1482,0.00178241,-0.00242594,-4.54409e-05,0.0017829,-0.00242643,-0.0107961,0.0024397,0.0111873,1658,1660,7.69835,-17.1482
441,-636,7.70459,16.8879,0.0027369,-0.00327682,-0.000260157,0.00274813,-0.00328806,-0.0431531,0.00348964,0.0119312,1665,1660,7.7046,-16.888
448,-636,7.73083,16.6694,0.00412941,-0.0039349,-0.000775088,0.00420323,-0.00400872,-0.0949551,0.00474161,0.0137465,1672,1660,7.73079,-16.6694
455,-636,7.73267,16.425,0.00594393,-0.00486063,-0.0013759,0.00611639,-0.00503309,-0.124693,0.00644728,0.0139625,1679,1660,7.73272,-16.4251
462,-636,7.71423,16.1617,0.0083247,-0.00608061,-0.00219363,0.00865133,-0.00640725,-0.147817,0.0087262,0.0181126,1686,1660,7.71422,-16.1618
469,-636,7.72119,15.9675,0.0113709,-0.00717196,-0.00342828,0.0119845,-0.0077855,-0.177088,0.0114997,0.0293739,1693,1660,7.72119,-15.9676
476,-636,7.77783,16.016,0.0151105,-0.00807752,-0.00525505,0.0162458,-0.00921287,-0.212779,0.0148844,0.0426897,1700,1660,7.77786,-16.016
483,-636,8.26111,15.3976,0.0195962,-0.00798552,-0.00792504,0.0217111,-0.0101004,-0.260789,0.0187698,0.0471207,1707,1660,8.26106,-15.3976
490,-636,8.78882,14.7396,0,0,0,0,0,0,0,-1,1714,1660,8.78887,-14.7396
497,-636,9.0365,13.3184,0,0,0,0,0,0,0,-1,1721,1660,9.03644,-13.3184
504,-636,9.88867,13.1873,0,0,0,0,0,0,0,-1,1728,1660,9.88867,-13.1872
511,-636,5.65466,9.23218,0,0,0,0,0,0,0,-1,1735,1660,5.65461,-9.23216
518,-636,6.72791,1.07605,0,0,0,0,0,0,0,-1,1742,1660,6.7279,-1.0761
525,-636,7.04309,0.93335,0,0,0,0,0,0,0,-1,1749,1660,7.04308,-0.933298
532,-636,0,0,0,0,0,0,0,0,0,-1,1756,1660,0,0
539,-636,0,0,0,0,0,0,0,0,0,-1,1763,1660,0,0
546,-636,0,0,0,0,0,0,0,0,0,-1,1770,1660,0,0
553,-636,0,0,0,0,0,0,0,0,0,-1,1777,1660,0,0
560,-636,0,0,0,0,0,0,0,0,0,-1,1784,1660,0,0
567,-636,0,0,0,0,0,0,0,0,0,-1,1791,1660,0,0
574,-636,0,0,0,0,0,0,0,0,0,-1,1798,1660,0,0
581,-636,0,0,0,0,0,0,0,0,0,-1,1805,1660,0,0
588,-636,0,0,0,0,0,0,0,0,0,-1,1812,1660,0,0
595,-636,0,0,0,0,0,0,0,0,0,-1,1819,1660,0,0
602,-636,0,0,0,0,0,0,0,0,0,-1,1826,1660,0,0
609,-636,0,0,0,0,0,0,0,0,0,-1,1833,1660,0,0
616,-636,0,0,0,0,0,0,0,0,0,-1,1840,1660,0,0
623,-636,0,0,0,0,0,0,0,0,0,-1,1847,1660,0,0
630,-636,0,0,0,0,0,0,0,0,0,-1,1854,1660,0,0
637,-636,0,0,0,0,0,0,0,0,0,-1,1861,1660,0,0
644,-636,0,0,0,0,0,0,0,0,0,-1,1868,1660,0,0
651,-636,0,0,0,0,0,0,0,0,0,-1,1875,1660,0,0
658,-636,0,0,0,0,0,0,0,0,0,-1,1882,1660,0,0
665,-636,0,0,0,0,0,0,0,0,0,-1,1889,1660,0,0
672,-636,0,0,0,0,0,0,0,0,0,-1,1896,1660,0,0
679,-636,0,0,0,0,0,0,0,0,0,-1,1903,1660,0,0
686,-636,0,0,0,0,0,0,0,0,0,-1,1910,1660,0,0
693,-636,0,0,0,0,0,0,0,0,0,-1,1917,1660,0,0
700,-636,0,0,0,0,0,0,0,0,0,-1,1924,1660,0,0
707,-636,0,0,0,0,0,0,0,0,0,-1,1931,1660,0,0
714,-636,0,0,0,0,0,0,0,0,0,-1,1938,1660,0,0
721,-636,0,0,0,0,0,0,0,0,0,-1,1945,1660,0,0
728,-636,0,0,0,0,0,0,0,0,0,-1,1952,1660,0,0
735,-636,0,0,0,0,0,0,0,0,0,-1,1959,1660,0,0
742,-636,0,0,0,0,0,0,0,0,0,-1,1966,1660,0,0
749,-636,0,0,0,0,0,0,0,0,0,-1,1973,1660,0,0
756,-636,0,0,0,0,0,0,0,0,0,-1,1980,1660,0,0
763,-636,0,0,0,0,0,0,0,0,0,-1,1987,1660,0,0
770,-636,0,0,0,0,0,0,0,0,0,-1,1994,1660,0,0
777,-636,0,0,0,0,0,0,0,0,0,-1,2001,1660,0,0
784,-636,0,0,0,0,0,0,0,0,0,-1,2008,1660,0,0
791,-636,0,0,0,0,0,0,0,0,0,-1,2015,1660,0,0
798,-636,0,0,0,0,0,0,0,0,0,-1,2022,1660,0,0
805,-636,0,0,0,0,0,0,0,0,0,-1,2029,1660,0,0
812,-636,0,0,0,0,0,0,0,0,0,-1,2036,1660,0,0
-700,-643,0,0,0,0,0,0,0,0,0,-1,524,1667,0,0
-693,-643,0,0,0,0,0,0,0,0,0,-1,531,1667,0,0
-686,-643,0,0,0,0,0,0,0,0,0,-1,538,1667,0,0
-679,-643,0,0,0,0,0,0,0,0,0,-1,545,1667,0,0
-672,-643,0,0,0,0,0,0,0,0,0,-1,552,1667,0,0
-665,-643,0,0,0,0,0,0,0,0,0,-1,559,1667,0,0
-658,-643,0,0,0,0,0,0,0,0,0,-1,566,1667,0,0
-651,-643,0,0,0,0,0,0,0,0,0,-1,573,1667,0,0
-644,-643,0,0,0,0,0,0,0,0,0,-1,580,1667,0,0
-637,-643,0,0,0,0,0,0,0,0,0,-1,587,1667,0,0
-630,-643,0,0,0,0,0,0,0,0,0,-1,594,1667,0,0
-623,-643,0,0,0,0,0,0,0,0,0,-1,601,1667,0,0
-616,-643,0,0,0,0,0,0,0,0,0,-1,608,1667,0,0
-609,-643,0,0,0,0,0,0,0,0,0,-1,615,1667,0,0
-602,-643,0,0,0,0,0,0,0,0,0,-1,622,1667,0,0
-595,-643,0,0,0,0,0,0,0,0,0,-1,629,1667,0,0
-588,-643,0,0,0,0,0,0,0,0,0,-1,636,1667,0,0
-581,-643,0,0,0,0,0,0,0,0,0,-1,643,1667,0,0
-574,-643,0,0,0,0,0,0,0,0,0,-1,650,1667,0,0
-567,-643,0,0,0,0,0,0,0,0,0,-1,657,1667,0,0
-560,-643,0,0,0,0,0,0,0,0,0,-1,664,1667,0,0
-553,-643,0,0,0,0,0,0,0,0,0,-1,671,1667,0,0
-546,-643,0,0,0,0,0,0,0,0,0,-1,678,1667,0,0
-539,-643,0,0,0,0,0,0,0,0,0,-1,685,1667,0,0
-532,-643,0,0,0,0,0,0,0,0,0,-1,692,1667,0,0
-525,-643,0,0,0,0,0,0,0,0,0,-1,699,1667,0,0
-518,-643,0,0,0,0,0,0,0,0,0,-1,706,1667,0,0
-511,-643,0,0,0,0,0,0,0,0,0,-1,713,1667,0,0
-504,-643,0,0,0,0,0,0,0,0,0,-1,720,1667,0,0
-497,-643,0,0,0,0,0,0,0,0,0,-1,727,1667,0,0
-490,-643,0,0,0,0,0,0,0,0,0,-1,734,1667,0,0
-483,-643,0,0,0,0,0,0,0,0,0,-1,741,1667,0,0
-476,-643,0,0,0,0,0,0,0,0,0,-1,748,1667,0,0
-469,-643,0,0,0,0,0,0,0,0,0,-1,755,1667,0,0
-462,-643,0,0,0,0,0,0,0,0,0,-1,762,1667,0,0
-455,-643,0,0,0,0,0,0,0,0,0,-1,769,1667,0,0
-448,-643,0,0,0,0,0,0,0,0,0,-1,776,1667,0,0
-441,-643,0,0,0,0,0,0,0,0,0,-1,783,1667,0,0
-434,-643,0,0,0,0,0,0,0,0,0,-1,790,1667,0,0
-427,-643,0,0,0,0,0,0,0,0,0,-1,797,1667,0,0
-420,-643,0,0,0,0,0,0,0,0,0,-1,804,1667,0,0
-413,-643,0,0,0,0,0,0,0,0,0,-1,811,1667,0,0
-406,-643,0,0,0,0,0,0,0,0,0,-1,818,1667,0,0
-399,-643,0.589417,11.6465,0,0,0,0,0,0,0,-1,825,1667,0.58939,-11.6465
-392,-643,0.865295,12.6523,0,0,0,0,0,0,0,-1,832,1667,0.865315,-12.6523
-385,-643,1.72968,13.2692,0,0,0,0,0,0,0,-1,839,1667,1.72967,-13.2692
-378,-643,2.66522,13.8193,0,0,0,0,0,0,0,-1,846,1667,2.66524,-13.8193
-371,-643,0.466125,3.35095,0,0,0,0,0,0,0,-1,853,1667,0.466148,-3.351
-364,-643,1.69513,9.922,0,0,0,0,0,0,0,-1,860,1667,1.69511,-9.92205
-357,-643,1.14227,10.8429,0,0,0,0,0,0,0,-1,867,1667,1.14228,-10.8429
-350,-643,2.50061,9.96948,0,0,0,0,0,0,0,-1,874,1667,2.50059,-9.96954
-343,-643,2.61505,6.17407,0,0,0,0,0,0,0,-1,881,1667,2.61504,-6.17412
-336,-643,3.79797,14.9858,0,0,0,0,0,0,0,-1,888,1667,3.79799,-14.9859
-329,-643,3.86218,15.1974,-0.00386647,-0.00498483,-0.00583661,0.00143768,-0.010289,-0.737641,0.00738535,0.0404186,895,1667,3.86218,-15.1974
-322,-643,3.85614,15.4489,-0.0032939,-0.00406832,-0.00485414,0.00118845,-0.00855066,-0.745598,0.00613508,0.0263808,902,1667,3.85616,-15.4488
-315,-643,3.76434,15.6915,-0.00288841,-0.0029338,-0.00390561,0.000994572,-0.00681678,-0.782492,0.00490974,0.0165595,909,1667,3.76436,-15.6915
-308,-643,3.76172,15.9597,-0.00244833,-0.0021003,-0.00302743,0.000758115,-0.00530674,-0.814106,0.00381572,0.0124109,916,1667,3.76171,-15.9597
-301,-643,3.78149,16.2145,-0.00201136,-0.00135547,-0.00237031,0.000709475,-0.00407631,-0.85414,0.00298229,0.0138335,923,1667,3.7815,-16.2145
-294,-643,3.77631,16.4587,-0.00154278,-0.000685207,-0.00172859,0.000666988,-0.00289498,-0.906972,0.00218649,0.0126183,930,1667,3.77632,-16.4587
-287,-643,3.771,16.7137,-0.00110371,-0.000282534,-0.00117043,0.000547235,-0.00193348,-0.954093,0.00150494,0.01043,937,1667,3.77102,-16.7138
-280,-643,3.75861,16.9728,-0.00071735,-3.58e-05,-0.000737896,0.000436209,-0.00118936,-1.00172,0.00097152,0.0140337,944,1667,3.7586,-16.9727
-273,-643,3.7453,17.2054,-0.000307921,7.57301e-05,-0.000399675,0.00032723,-0.00055942,-1.00914,0.000517725,0.0126513,951,1667,3.74531,-17.2054
-266,-643,3.73279,17.4451,0.000105376,1.09355e-05,-0.000134554,0.000200755,-8.4443e-05,-0.616642,0.000169162,0.0119115,958,1667,3.73278,-17.445
-259,-643,3.73749,17.6979,0.000709917,-0.000153622,3.51416e-05,0.000711344,-0.000155049,0.0406054,0.000533477,0.0111077,965,1667,3.7375,-17.6979
-252,-643,3.73175,17.9381,0.00117235,-0.00046404,0.000115454,0.00118046,-0.000472145,0.0700912,0.00098291,0.0117932,972,1667,3.73176,-17.9381
-245,-643,3.74628,18.1746,0.00172671,-0.00125885,0.000439672,0.00179011,-0.00132225,0.143217,0.00180368,0.0108954,979,1667,3.74627,-18.1746
-238,-643,3.7807,18.3995,0.00240266,-0.00218517,0.000948993,0.00259121,-0.00237372,0.19613,0.00286742,0.0149631,986,1667,3.78069,-18.3995
-231,-643,3.74933,18.6146,0.00324036,-0.00320333,0.00149253,0.00356928,-0.00353225,0.21691,0.00410009,0.0112475,993,1667,3.74932,-18.6146
-224,-643,3.74982,18.8038,0.00404564,-0.00421213,0.00220993,0.00459986,-0.00476635,0.245719,0.00540787,0.00960374,1000,1667,3.74981,-18.8038
-217,-643,3.75696,18.989,0.0048687,-0.00505014,0.00316315,0.00579157,-0.00597301,0.283878,0.00679256,0.00873956,1007,1667,3.75698,-18.989
-210,-643,3.75977,19.2268,0.00596801,-0.00539016,0.00347395,0.00694628,-0.00636843,0.274492,0.00768966,0.0108636,1014,1667,3.75978,-19.2269
-203,-643,3.77551,19.4777,0.00741713,-0.00542132,0.00346707,0.00829359,-0.00629778,0.247608,0.00845056,0.0128673,1021,1667,3.77553,-19.4776
-196,-643,3.79175,19.6752,0.00854221,-0.0055224,0.00364262,0.00942962,-0.00640981,0.238966,0.00920014,0.0128052,1028,1667,3.7917,-19.6752
-189,-643,3.85657,19.8654,0.00961829,-0.0050982,0.00346636,0.0103939,-0.0058738,0.220125,0.00951224,0.013735,1035,1667,3.85651,-19.8653
-182,-643,3.91711,20.0513,0.0110686,-0.00432671,0.00283642,0.0115745,-0.00483267,0.176521,0.00973561,0.0216903,1042,1667,3.91713,-20.0512
-175,-643,3.99402,20.2618,0.0126899,-0.00313264,0.00186248,0.0129062,-0.00334891,0.115606,0.00991084,0.0346492,1049,1667,3.994,-20.2618
-168,-643,4.04565,20.6083,0.0142524,-0.00153173,0.000462,0.0142659,-0.00154524,0.0292366,0.0100653,0.0396876,1056,1667,4.04566,-20.6083
-161,-643,4.0188,20.8123,0.0161021,0.000153992,-0.00109897,0.0161775,7.86195e-05,-0.0684778,0.0107589,0.0442296,1063,1667,4.01878,-20.8122
-154,-643,4.18884,20.615,0.0173288,0.00192065,-0.00255127,0.0177402,0.0015092,-0.159896,0.0113572,0.0418767,1070,1667,4.18888,-20.615
-147,-643,4.09778,20.5911,0,0,0,0,0,0,0,-1,1077,1667,4.09777,-20.591
-140,-643,3.87683,20.8442,0,0,0,0,0,0,0,-1,1084,1667,3.87683,-20.8442
-133,-643,3.66748,21.6034,0,0,0,0,0,0,0,-1,1091,1667,3.66743,-21.6034
-126,-643,3.13904,17.689,0,0,0,0,0,0,0,-1,1098,1667,3.13909,-17.689
-119,-643,3.76282,14.1458,0,0,0,0,0,0,0,-1,1105,1667,3.76283,-14.1458
-112,-643,3.81458,16.2069,0,0,0,0,0,0,0,-1,1112,1667,3.81463,-16.2069
-105,-643,-2.23413,10.0996,0,0,0,0,0,0,0,-1,1119,1667,-2.23415,-10.0996
-98,-643,3.11035,4.68066,0,0,0,0,0,0,0,-1,1126,1667,3.11041,-4.68071
-91,-643,-1.74146,-2.5885,0,0,0,0,0,0,0,-1,1133,1667,-1.74146,2.58856
-84,-643,-3.07446,-0.199341,0,0,0,0,0,0,0,-1,1140,1667,-3.07449,0.199383
-77,-643,-3.63794,2.81165,0,0,0,0,0,0,0,-1,1147,1667,-3.63791,-2.8117
-70,-643,-3.36938,4.45203,0,0,0,0,0,0,0,-1,1154,1667,-3.36941,-4.452
-63,-643,-3.67822,6.26855,0,0,0,0,0,0,0,-1,1161,1667,-3.67823,-6.26856
-56,-643,-3.95142,8.1073,0,0,0,0,0,0,0,-1,1168,1667,-3.95139,-8.10732
-49,-643,-4.23535,9.90552,0,0,0,0,0,0,0,-1,1175,1667,-4.23537,-9.90557
-42,-643,-4.25195,10.7059,0,0,0,0,0,0,0,-1,1182,1667,-4.25192,-10.706
-35,-643,-4.10986,11.6588,0,0,0,0,0,0,0,-1,1189,1667,-4.10982,-11.6589
-28,-643,-1.38513,5.604,0,0,0,0,0,0,0,-1,1196,1667,-1.3851,-5.60403
-21,-643,3.06104,8.47974,0,0,0,0,0,0,0,-1,1203,1667,3.06103,-8.47978
-14,-643,6.82349,22.4829,0,0,0,0,0,0,0,-1,1210,1667,6.82345,-22.4829
-7,-643,3.74951,22.6387,0,0,0,0,0,0,0,-1,1217,1667,3.74945,-22.6387
0,-643,4.05469,23.0686,0,0,0,0,0,0,0,-1,1224,1667,4.05472,-23.0686
7,-643,10.7198,21.892,0,0,0,0,0,0,0,-1,1231,1667,10.7198,-21.892
14,-643,4.9895,24.1161,0.0936324,0.0627762,0.0139073,0.0989754,0.0574332,0.366802,0.0573884,0.0406723,1238,1667,4.98945,-24.1161
21,-643,5.9491,25.1769,0.0900591,0.0850375,0.00602827,0.0940785,0.081018,0.588071,0.0588506,0.0427618,1245,1667,5.94913,-25.1769
28,-643,3.56848,31.4574,0,0,0,0,0,0,0,-1,1252,1667,3.56852,-31.4574
35,-643,4.57556,30.511,0.0688448,0.112301,-0.00601988,0.113119,0.0680263,-1.43566,0.0657553,0.0420435,1259,1667,4.57552,-30.511
42,-643,5.64612,29.6782,0.0542418,0.118463,-0.00785402,0.11941,0.0532952,-1.45086,0.0690736,0.0447028,1266,1667,5.64617,-29.6782
49,-643,7.12256,27.757,0,0,0,0,0,0,0,-1,1273,1667,7.12251,-27.7569
56,-643,7.8053,26.8085,0.0224451,0.125891,-0.0114859,0.127151,0.0211851,-1.46154,0.0786621,0.044812,1280,1667,7.80531,-26.8084
63,-643,8.53772,25.9514,0.0102169,0.125015,-0.0136406,0.126614,0.00861841,-1.45414,0.0816881,0.04374,1287,1667,8.53777,-25.9514
70,-643,8.91309,25.3695,-0.00091576,0.12116,-0.0165726,0.12337,-0.0031256,-1.43824,0.0833081,0.0435623,1294,1667,8.91303,-25.3695
77,-643,6.67542,26.6963,-0.00867939,0.114697,-0.0210171,0.118179,-0.0121614,-1.40661,0.0831365,0.0438096,1301,1667,6.67542,-26.6963
84,-643,5.76733,26.7618,-0.0131493,0.110269,-0.0269835,0.115911,-0.018791,-1.36469,0.0842391,0.0461765,1308,1667,5.76729,-26.7619
91,-643,4.53845,26.8015,-0.0123922,0.102484,-0.0350688,0.112343,-0.0222517,-1.29673,0.0833093,0.0452681,1315,1667,4.53843,-26.8015
98,-643,5.1145,27.0636,-0.00642753,0.0991231,-0.0461561,0.116459,-0.0237637,-1.2115,0.0866538,0.0468411,1322,1667,5.11449,-27.0636
105,-643,5.62805,25.7548,0.0066967,0.0968398,-0.0614748,0.127995,-0.024459,-1.10172,0.0945438,0.0436546,1329,1667,5.62799,-25.7548
112,-643,6.11646,24.389,0.0258053,0.0950904,-0.0812787,0.148801,-0.0279056,-0.98685,0.109692,0.0436781,1336,1667,6.11644,-24.389
119,-643,6.59863,23.053,0.0445753,0.0928135,-0.102147,0.17365,-0.0362613,-0.901336,0.129557,0.0457569,1343,1667,6.59864,-23.053
126,-643,7.28967,21.5767,0.06097,0.0893675,-0.122696,0.198683,-0.0483458,-0.843004,0.15117,0.0446898,1350,1667,7.28968,-21.5766
133,-643,8.17114,20.0353,0.0677448,0.082121,-0.141332,0.216447,-0.0665814,-0.810806,0.170872,0.048103,1357,1667,8.17113,-20.0353
140,-643,9.18372,18.3893,0.0604045,0.0822915,-0.145194,0.216954,-0.0742576,-0.823013,0.17473,0.0447742,1364,1667,9.18372,-18.3893
147,-643,10.0579,16.8665,0,0,0,0,0,0,0,-1,1371,1667,10.0579,-16.8664
154,-643,12.6809,36.0037,0,0,0,0,0,0,0,-1,1378,1667,12.6809,-36.0037
161,-643,18.7611,11.0951,0,0,0,0,0,0,0,-1,1385,1667,18.7611,-11.0951
168,-643,10.5563,10.9818,0,0,0,0,0,0,0,-1,1392,1667,10.5562,-10.9819
175,-643,5.88525,-1.1698,0,0,0,0,0,0,0,-1,1399,1667,5.88526,1.16977
182,-643,5.80945,-0.418701,0,0,0,0,0,0,0,-1,1406,1667,5.80949,0.418712
189,-643,5.42297,12.9208,0,0,0,0,0,0,0,-1,1413,1667,5.42298,-12.9208
196,-643,5.51953,11.2415,0,0,0,0,0,0,0,-1,1420,1667,5.51948,-11.2414
203,-643,5.60828,9.82153,0,0,0,0,0,0,0,-1,1427,1667,5.60833,-9.82148
210,-643,4.73218,7.58728,0,0,0,0,0,0,0,-1,1434,1667,4.73222,-7.58728
217,-643,3.8031,5.28955,0,0,0,0,0,0,0,-1,1441,1667,3.80305,-5.28955
224,-643,2.96436,2.97095,0,0,0,0,0,0,0,-1,1448,1667,2.96432,-2.97095
231,-643,2.13403,1.08472,0,0,0,0,0,0,0,-1,1455,1667,2.13403,-1.08467
238,-643,1.18152,-0.261963,0,0,0,0,0,0,0,-1,1462,1667,1.18152,0.26192
245,-643,-0.157471,-1.79016,0,0,0,0,0,0,0,-1,1469,1667,-0.157517,1.7901
252,-643,8.08789,0.0202637,0,0,0,0,0,0,0,-1,1476,1667,8.08791,-0.0203056
259,-643,9.02979,-0.46936,0,0,0,0,0,0,0,-1,1483,1667,9.02974,0.46933
266,-643,4.55066,5.17554,0,0,0,0,0,0,0,-1,1490,1667,4.55063,-5.17556
273,-643,4.34363,6.56836,0,0,0,0,0,0,0,-1,1497,1667,4.34363,-6.5684
280,-643,5.75854,14.5217,0,0,0,0,0,0,0,-1,1504,1667,5.75854,-14.5218
287,-643,6.81299,21.0212,0,0,0,0,0,0,0,-1,1511,1667,6.81297,-21.0212
294,-643,7.70984,21.5957,0,0,0,0,0,0,0,-1,1518,1667,7.70985,-21.5957
301,-643,7.50293,21.2383,0.00139721,0.0136366,-0.00215781,0.0140059,0.00102793,-1.4013,0.00901418,0.0481018,1525,1667,7.50293,-21.2382
308,-643,7.39526,20.7014,0.00165453,0.0130499,-0.00207317,0.0134154,0.00128908,-1.39631,0.00854635,0.0444458,1532,1667,7.39526,-20.7014
315,-643,7.42151,20.5801,0.00184956,0.0121427,-0.00189691,0.0124811,0.00151111,-1.39423,0.0078656,0.0396917,1539,1667,7.4215,-20.5801
322,-643,7.44006,20.3962,0.0018575,0.0112824,-0.00169505,0.011578,0.00156192,-1.39815,0.00725428,0.0190407,1546,1667,7.44006,-20.3962
329,-643,7.46484,20.2064,0.00183245,0.0100761,-0.00142307,0.0103149,0.0015937,-1.40458,0.00641172,0.0116237,1553,1667,7.46486,-20.2064
336,-643,7.42712,20.0687,0.00153104,0.00880972,-0.000991187,0.00894228,0.00139848,-1.43784,0.00555436,0.0111357,1560,1667,7.42707,-20.0687
343,-643,7.43164,19.897,0.00116224,0.00751374,-0.000602305,0.00757035,0.00110563,-1.47708,0.0047217,0.0132917,1567,1667,7.4317,-19.897
350,-643,7.48877,19.6964,0.000985324,0.00626987,-0.000315711,0.00628866,0.00096653,-1.51134,0.00391029,0.012958,1574,1667,7.48881,-19.6965
357,-643,7.505,19.5054,0.000802487,0.00490181,2.52854e-05,0.00490196,0.000802331,1.56463,0.00303608,0.0110468,1581,1667,7.50505,-19.5054
364,-643,7.50854,19.306,0.000488466,0.00406473,0.000208296,0.00407682,0.000476375,1.51281,0.00257383,0.00961099,1588,1667,7.50857,-19.306
371,-643,7.51147,19.1188,0.000260116,0.00326077,0.000267049,0.00328436,0.000236535,1.48272,0.00211514,0.00828711,1595,1667,7.51153,-19.1188
378,-643,7.51489,18.9135,0.00012755,0.00252865,0.000296885,0.00256482,9.13866e-05,1.44958,0.00168024,0.00959742,1602,1667,7.51495,-18.9135
385,-643,7.51709,18.7064,0.000166236,0.00161505,0.000245257,0.00165544,0.000125844,1.40757,0.00106416,0.0153284,1609,1667,7.51712,-18.7064
392,-643,7.50818,18.493,0.00027814,0.000996459,0.000119316,0.00101576,0.00025884,1.41043,0.000609497,0.0154488,1616,1667,7.50823,-18.493
399,-643,7.49536,18.27,0.000341432,0.000552313,-2.87555e-05,0.000556164,0.000337581,-1.43768,0.000323542,0.0124949,1623,1667,7.49533,-18.27
406,-643,7.49744,18.0472,0.000402522,0.000217061,-0.000207092,0.000536696,8.28861e-05,-0.574897,0.000333619,0.0124156,1630,1667,7.49747,-18.0472
413,-643,7.505,17.844,0.000495933,-0.000214439,-0.000192932,0.00054495,-0.000263456,-0.248798,0.000476072,0.0179285,1637,1667,7.50496,-17.844
420,-643,7.47449,17.6328,0.000727921,-0.000931735,-8.47228e-05,0.000732234,-0.000936048,-0.0508722,0.000965577,0.016865,1644,1667,7.47454,-17.6328
427,-643,7.46106,17.3929,0.00135131,-0.0020352,-3.4539e-05,0.00135167,-0.00203555,-0.0101976,0.00196885,0.0140229,1651,1667,7.46106,-17.3929
434,-643,7.4751,17.1602,0.00240036,-0.00293658,-0.000390879,0.00242883,-0.00296506,-0.0727231,0.00311929,0.0153451,1658,1667,7.47511,-17.1602
441,-643,7.49756,16.92,0.00339958,-0.00432953,-0.000342984,0.00341477,-0.00434472,-0.0442597,0.00449066,0.0154698,1665,1667,7.49759,-16.92
448,-643,7.47534,16.6654,0.00498082,-0.00546061,-0.000641536,0.00502009,-0.00549988,-0.0611349,0.00607581,0.019671,1672,1667,7.47537,-16.6654
455,-643,7.43579,16.4022,0.00727194,-0.00685773,-0.00118086,0.00736994,-0.00695573,-0.0828076,0.00827209,0.0304965,1679,1667,7.4358,-16.4023
462,-643,7.26709,16.2859,0.0103197,-0.0086972,-0.00198351,0.0105244,-0.00890188,-0.102828,0.0112288,0.0411566,1686,1667,7.26704,-16.2859
469,-643,7.51123,16.2565,0.0142848,-0.0103564,-0.00334736,0.0147314,-0.010803,-0.132643,0.0148003,0.0425054,1693,1667,7.51118,-16.2565
476,-643,7.74304,16.2301,0.0192463,-0.011749,-0.00553289,0.0202044,-0.0127071,-0.171455,0.0191651,0.0484764,1700,1667,7.74298,-16.2301
483,-643,8.0033,15.9318,0,0,0,0,0,0,0,-1,1707,1667,8.00325,-15.9318
490,-643,8.14941,13.4279,0,0,0,0,0,0,0,-1,1714,1667,8.14939,-13.4279
497,-643,9.11865,12.3346,0,0,0,0,0,0,0,-1,1721,1667,9.11869,-12.3345
504,-643,7.73755,12.0018,0,0,0,0,0,0,0,-1,1728,1667,7.73755,-12.0018
511,-643,4.22314,10.5032,0,0,0,0,0,0,0,-1,1735,1667,4.22314,-10.5032
518,-643,7.40564,0.922607,0,0,0,0,0,0,0,-1,1742,1667,7.4057,-0.922598
525,-643,0,0,0,0,0,0,0,0,0,-1,1749,1667,0,0
532,-643,0,0,0,0,0,0,0,0,0,-1,1756,1667,0,0
539,-643,0,0,0,0,0,0,0,0,0,-1,1763,1667,0,0
546,-643,0,0,0,0,0,0,0,0,0,-1,1770,1667,0,0
553,-643,0,0,0,0,0,0,0,0,0,-1,1777,1667,0,0
560,-643,0,0,0,0,0,0,0,0,0,-1,1784,1667,0,0
567,-643,0,0,0,0,0,0,0,0,0,-1,1791,1667,0,0
574,-643,0,0,0,0,0,0,0,0,0,-1,1798,1667,0,0
581,-643,0,0,0,0,0,0,0,0,0,-1,1805,1667,0,0
588,-643,0,0,0,0,0,0,0,0,0,-1,1812,1667,0,0
595,-643,0,0,0,0,0,0,0,0,0,-1,1819,1667,0,0
602,-643,0,0,0,0,0,0,0,0,0,-1,1826,1667,0,0
609,-643,0,0,0,0,0,0,0,0,0,-1,1833,1667,0,0
616,-643,0,0,0,0,0,0,0,0,0,-1,1840,1667,0,0
623,-643,0,0,0,0,0,0,0,0,0,-1,1847,1667,0,0
630,-643,0,0,0,0,0,0,0,0,0,-1,1854,1667,0,0
637,-643,0,0,0,0,0,0,0,0,0,-1,1861,1667,0,0
644,-643,0,0,0,0,0,0,0,0,0,-1,1868,1667,0,0
651,-643,0,0,0,0,0,0,0,0,0,-1,1875,1667,0,0
658,-643,0,0,0,0,0,0,0,0,0,-1,1882,1667,0,0
665,-643,0,0,0,0,0,0,0,0,0,-1,1889,1667,0,0
672,-643,0,0,0,0,0,0,0,0,0,-1,1896,1667,0,0
679,-643,0,0,0,0,0,0,0,0,0,-1,1903,1667,0,0
686,-643,0,0,0,0,0,0,0,0,0,-1,1910,1667,0,0
693,-643,0,0,0,0,0,0,0,0,0,-1,1917,1667,0,0
700,-643,0,0,0,0,0,0,0,0,0,-1,1924,1667,0,0
707,-643,0,0,0,0,0,0,0,0,0,-1,1931,1667,0,0
714,-643,0,0,0,0,0,0,0,0,0,-1,1938,1667,0,0
721,-643,0,0,0,0,0,0,0,0,0,-1,1945,1667,0,0
728,-643,0,0,0,0,0,0,0,0,0,-1,1952,1667,0,0
735,-643,0,0,0,0,0,0,0,0,0,-1,1959,1667,0,0
742,-643,0,0,0,0,0,0,0,0,0,-1,1966,1667,0,0
749,-643,0,0,0,0,0,0,0,0,0,-1,1973,1667,0,0
756,-643,0,0,0,0,0,0,0,0,0,-1,1980,1667,0,0
763,-643,0,0,0,0,0,0,0,0,0,-1,1987,1667,0,0
770,-643,0,0,0,0,0,0,0,0,0,-1,1994,1667,0,0
777,-643,0,0,0,0,0,0,0,0,0,-1,2001,1667,0,0
784,-643,0,0,0,0,0,0,0,0,0,-1,2008,1667,0,0
791,-643,0,0,0,0,0,0,0,0,0,-1,2015,1667,0,0
798,-643,0,0,0,0,0,0,0,0,0,-1,2022,1667,0,0
805,-643,0,0,0,0,0,0,0,0,0,-1,2029,1667,0,0
812,-643,0,0,0,0,0,0,0,0,0,-1,2036,1667,0,0
-700,-650,0,0,0,0,0,0,0,0,0,-1,524,1674,0,0
-693,-650,0,0,0,0,0,0,0,0,0,-1,531,1674,0,0
-686,-650,0,0,0,0,0,0,0,0,0,-1,538,1674,0,0
-679,-650,0,0,0,0,0,0,0,0,0,-1,545,1674,0,0
-672,-650,0,0,0,0,0,0,0,0,0,-1,552,1674,0,0
-665,-650,0,0,0,0,0,0,0,0,0,-1,559,1674,0,0
-658,-650,0,0,0,0,0,0,0,0,0,-1,566,1674,0,0
-651,-650,0,0,0,0,0,0,0,0,0,-1,573,1674,0,0
-644,-650,0,0,0,0,0,0,0,0,0,-1,580,1674,0,0
-637,-650,0,0,0,0,0,0,0,0,0,-1,587,1674,0,0
-630,-650,0,0,0,0,0,0,0,0,0,-1,594,1674,0,0
-623,-650,0,0,0,0,0,0,0,0,0,-1,601,1674,0,0
-616,-650,0,0,0,0,0,0,0,0,0,-1,608,1674,0,0
-609,-650,0,0,0,0,0,0,0,0,0,-1,615,1674,0,0
-602,-650,0,0,0,0,0,0,0,0,0,-1,622,1674,0,0
-595,-650,0,0,0,0,0,0,0,0,0,-1,629,1674,0,0
-588,-650,0,0,0,0,0,0,0,0,0,-1,636,1674,0,0
-581,-650,0,0,0,0,0,0,0,0,0,-1,643,1674,0,0
-574,-650,0,0,0,0,0,0,0,0,0,-1,650,1674,0,0
-567,-650,0,0,0,0,0,0,0,0,0,-1,657,1674,0,0
-560,-650,0,0,0,0,0,0,0,0,0,-1,664,1674,0,0
-553,-650,0,0,0,0,0,0,0,0,0,-1,671,1674,0,0
-546,-650,0,0,0,0,0,0,0,0,0,-1,678,1674,0,0
-539,-650,0,0,0,0,0,0,0,0,0,-1,685,1674,0,0
-532,-650,0,0,0,0,0,0,0,0,0,-1,692,1674,0,0
-525,-650,0,0,0,0,0,0,0,0,0,-1,699,1674,0,0
-518,-650,0,0,0,0,0,0,0,0,0,-1,706,1674,0,0
-511,-650,0,0,0,0,0,0,0,0,0,-1,713,1674,0,0
-504,-650,0,0,0,0,0,0,0,0,0,-1,720,1674,0,0
-497,-650,0,0,0,0,0,0,0,0,0,-1,727,1674,0,0
-490,-650,0,0,0,0,0,0,0,0,0,-1,734,1674,0,0
-483,-650,0,0,0,0,0,0,0,0,0,-1,741,1674,0,0
-476,-650,0,0,0,0,0,0,0,0,0,-1,748,1674,0,0
-469,-650,0,0,0,0,0,0,0,0,0,-1,755,1674,0,0
-462,-650,0,0,0,0,0,0,0,0,0,-1,762,1674,0,0
-455,-650,0,0,0,0,0,0,0,0,0,-1,769,1674,0,0
-448,-650,0,0,0,0,0,0,0,0,0,-1,776,1674,0,0
-441,-650,0,0,0,0,0,0,0,0,0,-1,783,1674,0,0
-434,-650,0,0,0,0,0,0,0,0,0,-1,790,1674,0,0
-427,-650,0,0,0,0,0,0,0,0,0,-1,797,1674,0,0
-420,-650,0,0,0,0,0,0,0,0,0,-1,804,1674,0,0
-413,-650,0,0,0,0,0,0,0,0,0,-1,811,1674,0,0
-406,-650,0,0,0,0,0,0,0,0,0,-1,818,1674,0,0
-399,-650,0,0,0,0,0,0,0,0,0,-1,825,1674,0,0
-392,-650,5.44415,6.85669,0,0,0,0,0,0,0,-1,832,1674,5.44414,-6.85674
-385,-650,1.74451,14.0183,0,0,0,0,0,0,0,-1,839,1674,1.74453,-14.0183
-378,-650,0.997986,4.11108,0,0,0,0,0,0,0,-1,846,1674,0.998006,-4.11113
-371,-650,-1.80096,3.78625,0,0,0,0,0,0,0,-1,853,1674,-1.80094,-3.78625
-364,-650,-2.95679,2.57507,0,0,0,0,0,0,0,-1,860,1674,-2.95681,-2.57506
-357,-650,1.97833,10.8362,0,0,0,0,0,0,0,-1,867,1674,1.97835,-10.8362
-350,-650,-5.30243,0.159912,0,0,0,0,0,0,0,-1,874,1674,-5.30244,-0.159866
-343,-650,-6.21338,-1.4425,0,0,0,0,0,0,0,-1,881,1674,-6.21341,1.44248
-336,-650,4.52576,14.1917,0,0,0,0,0,0,0,-1,888,1674,4.52575,-14.1917
-329,-650,4.14111,15.2354,0,0,0,0,0,0,0,-1,895,1674,4.1411,-15.2353
-322,-650,4.16089,15.5366,-0.00448589,-0.00504448,-0.00706008,0.00230041,-0.0118308,-0.765629,0.00875532,0.0429994,902,1674,4.16087,-15.5366
-315,-650,3.98724,15.7987,-0.00398425,-0.0035538,-0.00565727,0.00189234,-0.00943039,-0.804411,0.00700345,0.0383623,909,1674,3.98725,-15.7987
-308,-650,4.01703,15.9521,-0.00346005,-0.00244746,-0.00437601,0.00145145,-0.00735895,-0.842991,0.00545454,0.0226834,916,1674,4.01706,-15.9522
-301,-650,4.03131,16.2289,-0.00295475,-0.00142418,-0.00337293,0.0012692,-0.00564812,-0.896955,0.00425209,0.0123779,923,1674,4.03134,-16.2289
-294,-650,4.03052,16.4779,-0.00246032,-0.000487319,-0.00243987,0.00115794,-0.00410558,-0.977513,0.00319379,0.0104632,930,1674,4.03051,-16.4779
-287,-650,4.00842,16.7235,-0.00198371,7.63037e-05,-0.00164898,0.000990531,-0.00289793,-1.06457,0.0023333,0.0133432,937,1674,4.00841,-16.7235
-280,-650,3.99323,16.9705,-0.00157561,0.000456324,-0.00104362,0.000896837,-0.00201612,-1.17138,0.00172268,0.0139131,944,1674,3.9932,-16.9705
-273,-650,3.98639,17.2126,-0.00115021,0.000674274,-0.000575963,0.000840882,-0.00131682,-1.28921,0.00125581,0.0138349,951,1674,3.98641,-17.2126
-266,-650,3.95374,17.4547,-0.00066711,0.000732368,-0.000215071,0.000764674,-0.000699416,-1.4217,0.000845573,0.0111046,958,1674,3.95374,-17.4547
-259,-650,3.97046,17.6914,-0.000100339,0.000692265,9.71398e-05,0.000703996,-0.000112071,1.45061,0.000510802,0.0130165,965,1674,3.97046,-17.6914
-252,-650,3.96387,17.9221,0.000323623,0.000443633,0.000251492,0.00064218,0.000125076,0.902507,0.000393117,0.0119345,972,1674,3.96386,-17.9221
-245,-650,3.97662,18.1483,0.000806548,-0.000177499,0.000435766,0.000971776,-0.000342726,0.362418,0.000787362,0.0115178,979,1674,3.97665,-18.1483
-238,-650,3.97247,18.4022,0.00136494,-0.000913371,0.000752735,0.00159117,-0.0011396,0.291959,0.00158378,0.0133041,986,1674,3.97248,-18.4022
-231,-650,3.93683,18.6422,0.00205942,-0.00173476,0.00114074,0.00237598,-0.00205131,0.270692,0.00255839,0.0176527,993,1674,3.93681,-18.6422
-224,-650,3.94751,18.8289,0.00276015,-0.00253039,0.00165488,0.00323515,-0.00300539,0.279514,0.00360379,0.0140787,1000,1674,3.94752,-18.8289
-217,-650,3.96863,19.0044,0.00343399,-0.00316205,0.00229854,0.00415595,-0.00388401,0.304337,0.00464276,0.0100495,1007,1674,3.96864,-19.0044
-210,-650,3.97113,19.2218,0.00430362,-0.00342244,0.00247939,0.00503084,-0.00414966,0.285303,0.0053085,0.00990727,1014,1674,3.97116,-19.2218
-203,-650,3.99023,19.4523,0.00541936,-0.00342668,0.00242339,0.00603974,-0.00404707,0.250616,0.00586138,0.014072,1021,1674,3.99022,-19.4522
-196,-650,4.00195,19.6401,0.00628781,-0.00347698,0.00255136,0.00691425,-0.00410342,0.240767,0.00642969,0.0124899,1028,1674,4.002,-19.6401
-189,-650,4.01111,19.8259,0.00709886,-0.0031476,0.00242166,0.00764237,-0.00369111,0.220777,0.00667463,0.0102893,1035,1674,4.01114,-19.8259
-182,-650,4.04785,20.0564,0.00819817,-0.00247357,0.00199402,0.00855858,-0.00283398,0.178816,0.0068487,0.00989094,1042,1674,4.0479,-20.0563
-175,-650,4.06238,20.2152,0.00950035,-0.0015972,0.00140032,0.00967432,-0.00177117,0.123602,0.00711382,0.014474,1049,1674,4.06232,-20.2152
-168,-650,4.05579,20.3973,0.010737,-0.000492788,0.000559972,0.0107648,-0.000520642,0.0497008,0.00735623,0.0190735,1056,1674,4.05577,-20.3974
-161,-650,4.08411,20.5948,0.0121619,0.000592259,-0.000319546,0.0121708,0.00058344,-0.0275912,0.00792651,0.0282573,1063,1674,4.08414,-20.5949
-154,-650,4.16187,20.7382,0.0132188,0.00175296,-0.00109162,0.0133218,0.00164996,-0.0940801,0.00838551,0.0300124,1070,1674,4.16192,-20.7381
-147,-650,4.24243,20.7324,0.0146311,0.00238755,-0.00193705,0.0149302,0.0020884,-0.153226,0.00933555,0.0393435,1077,1674,4.24239,-20.7324
-140,-650,4.10535,21.0383,0.0161609,0.00326634,-0.00308665,0.0168616,0.00256555,-0.223253,0.010491,0.0483764,1084,1674,4.10533,-21.0384
-133,-650,4.11914,21.5322,0,0,0,0,0,0,0,-1,1091,1674,4.11913,-21.5323
-126,-650,4.93054,21.2018,0,0,0,0,0,0,0,-1,1098,1674,4.93057,-21.2018
-119,-650,5.16663,20.6232,0,0,0,0,0,0,0,-1,1105,1674,5.16665,-20.6232
-112,-650,3.86292,14.4513,0,0,0,0,0,0,0,-1,1112,1674,3.8629,-14.4513
-105,-650,4.9259,12.0626,0,0,0,0,0,0,0,-1,1119,1674,4.92591,-12.0626
-98,-650,3.3761,6.78003,0,0,0,0,0,0,0,-1,1126,1674,3.37611,-6.78009
-91,-650,3.66809,7.04443,0,0,0,0,0,0,0,-1,1133,1674,3.66806,-7.04439
-84,-650,-3.82666,-1.59521,0,0,0,0,0,0,0,-1,1140,1674,-3.82661,1.59517
-77,-650,-4.70557,1.90198,0,0,0,0,0,0,0,-1,1147,1674,-4.7056,-1.90194
-70,-650,-4.88171,3.81653,0,0,0,0,0,0,0,-1,1154,1674,-4.88176,-3.81651
-63,-650,-5.14612,5.56543,0,0,0,0,0,0,0,-1,1161,1674,-5.14612,-5.56547
-56,-650,-5.38367,7.41101,0,0,0,0,0,0,0,-1,1168,1674,-5.38361,-7.41102
-49,-650,-5.11316,8.23706,0,0,0,0,0,0,0,-1,1175,1674,-5.11317,-8.23708
-42,-650,-4.99487,9.6792,0,0,0,0,0,0,0,-1,1182,1674,-4.99484,-9.67921
-35,-650,-4.77771,11.3369,0,0,0,0,0,0,0,-1,1189,1674,-4.77769,-11.3369
-28,-650,-4.1936,13.1501,0,0,0,0,0,0,0,-1,1196,1674,-4.19358,-13.1501
-21,-650,-5.35681,25.4081,0,0,0,0,0,0,0,-1,1203,1674,-5.35682,-25.4081
-14,-650,5.61597,21.6876,0,0,0,0,0,0,0,-1,1210,1674,5.61601,-21.6876
-7,-650,5.50317,22.2369,0,0,0,0,0,0,0,-1,1217,1674,5.50311,-22.2369
0,-650,9.20154,22.1117,0,0,0,0,0,0,0,-1,1224,1674,9.20148,-22.1117
7,-650,9.74072,22.37,0.0858555,0.034622,0.0253568,0.096283,0.0241945,0.39015,0.057836,0.0444824,1231,1674,9.74067,-22.37
14,-650,5.59399,23.9211,0.084692,0.0559639,0.0197442,0.0947444,0.0459116,0.470923,0.0547094,0.0416979,1238,1674,5.59393,-23.9211
21,-650,5.63306,24.6066,0.0808946,0.074316,0.0130386,0.0910524,0.0641582,0.661839,0.0540167,0.0477173,1245,1674,5.63309,-24.6065
28,-650,5.73828,25.1636,0,0,0,0,0,0,0,-1,1252,1674,5.73832,-25.1636
35,-650,6.06873,26.0746,0.062908,0.0969327,0.00253951,0.0971212,0.0627195,1.49671,0.0568619,0.0475607,1259,1674,6.06878,-26.0746
42,-650,5.95422,28.3945,0.050899,0.102258,0.00123719,0.102288,0.0508692,1.54673,0.0590564,0.0426736,1266,1674,5.95422,-28.3946
49,-650,7.0072,27.004,0.0369541,0.107467,-0.000959775,0.10748,0.036941,-1.55719,0.063056,0.0438447,1273,1674,7.00723,-27.004
56,-650,7.9425,26.3167,0.0251427,0.109455,-0.00390538,0.109635,0.0249622,-1.52461,0.0663534,0.045099,1280,1674,7.94251,-26.3167
63,-650,8.81396,25.7701,0,0,0,0,0,0,0,-1,1287,1674,8.81396,-25.7701
70,-650,9.09827,26.6804,0.00919559,0.106561,-0.0106421,0.107711,0.00804598,-1.46319,0.069281,0.049151,1294,1674,9.09825,-26.6804
77,-650,7.625,26.7084,0.00345182,0.101605,-0.0151253,0.103883,0.00117389,-1.42132,0.0688673,0.0445212,1301,1674,7.62503,-26.7084
84,-650,6.18628,26.7191,0.00036766,0.098293,-0.0210477,0.102625,-0.00396459,-1.3678,0.0697759,0.0438472,1308,1674,6.18629,-26.7192
91,-650,4.79932,26.3436,0.00177269,0.0915978,-0.0291143,0.100209,-0.00683843,-1.28323,0.0691981,0.0456719,1315,1674,4.79934,-26.3437
98,-650,3.9314,25.8051,0.0072975,0.0887556,-0.0395816,0.104821,-0.00876748,-1.18524,0.0729786,0.047877,1322,1674,3.93135,-25.805
105,-650,5.35059,26.1437,0.0185738,0.0868374,-0.0536083,0.116257,-0.0108462,-1.06888,0.0813616,0.0436607,1329,1674,5.35064,-26.1437
112,-650,6.16333,24.2828,0.0340701,0.0850337,-0.070989,0.134976,-0.015872,-0.957713,0.0957142,0.041799,1336,1674,6.16328,-24.2829
119,-650,6.78589,22.5193,0.0491371,0.0825099,-0.0892424,0.156613,-0.0249655,-0.87782,0.113648,0.0431859,1343,1674,6.78585,-22.5192
126,-650,7.83276,20.851,0.0608175,0.0789721,-0.106163,0.176446,-0.0366561,-0.828046,0.131562,0.0459803,1350,1674,7.83282,-20.8509
133,-650,8.00293,19.0701,0,0,0,0,0,0,0,-1,1357,1674,8.00294,-19.0701
140,-650,9.27698,17.9087,0,0,0,0,0,0,0,-1,1364,1674,9.27692,-17.9087
147,-650,10.1318,16.3375,0,0,0,0,0,0,0,-1,1371,1674,10.1318,-16.3376
154,-650,12.3359,35.7743,0,0,0,0,0,0,0,-1,1378,1674,12.336,-35.7743
161,-650,1.92163,18.5155,0,0,0,0,0,0,0,-1,1385,1674,1.92164,-18.5155
168,-650,11.2113,7.87231,0,0,0,0,0,0,0,-1,1392,1674,11.2113,-7.87236
175,-650,5.62537,-0.230713,0,0,0,0,0,0,0,-1,1399,1674,5.62538,0.230745
182,-650,5.56006,0.421631,0,0,0,0,0,0,0,-1,1406,1674,5.56,-0.421652
189,-650,4.81543,11.0654,0,0,0,0,0,0,0,-1,1413,1674,4.81542,-11.0654
196,-650,5.39575,11.9077,0,0,0,0,0,0,0,-1,1420,1674,5.39575,-11.9078
203,-650,3.93628,11.8215,0,0,0,0,0,0,0,-1,1427,1674,3.93624,-11.8216
210,-650,5.40955,8.08594,0,0,0,0,0,0,0,-1,1434,1674,5.40958,-8.086
217,-650,5.12451,4.69739,0,0,0,0,0,0,0,-1,1441,1674,5.12451,-4.69738
224,-650,4.79041,1.45813,0,0,0,0,0,0,0,-1,1448,1674,4.79046,-1.45816
231,-650,4.04102,-0.642212,0,0,0,0,0,0,0,-1,1455,1674,4.04101,0.642209
238,-650,3.23022,-1.43396,0,0,0,0,0,0,0,-1,1462,1674,3.23023,1.43394
245,-650,1.65894,-2.55042,0,0,0,0,0,0,0,-1,1469,1674,1.65889,2.55036
252,-650,8.75342,0.355103,0,0,0,0,0,0,0,-1,1476,1674,8.75337,-0.355147
259,-650,5.61255,3.17566,0,0,0,0,0,0,0,-1,1483,1674,5.61257,-3.17572
266,-650,4.00403,6.10229,0,0,0,0,0,0,0,-1,1490,1674,4.00401,-6.10225
273,-650,5.4093,14.3718,0,0,0,0,0,0,0,-1,1497,1674,5.40929,-14.3718
280,-650,7.01123,21.2992,0,0,0,0,0,0,0,-1,1504,1674,7.0112,-21.2991
287,-650,7.30872,21.2813,0,0,0,0,0,0,0,-1,1511,1674,7.30877,-21.2812
294,-650,7.401,21.1393,0.00122754,0.0092476,-0.000807341,0.00932807,0.00114707,-1.47146,0.00587381,0.0427296,1518,1674,7.40104,-21.1392
301,-650,7.25549,20.7701,0.00134136,0.00893161,-0.000903755,0.00903773,0.00123524,-1.45391,0.00565853,0.0360932,1525,1674,7.25547,-20.7701
308,-650,7.23499,20.7009,0.0014475,0.00862592,-0.000960589,0.00875224,0.00132118,-1.44004,0.00544809,0.0248046,1532,1674,7.23501,-20.701
315,-650,7.24463,20.5907,0.00152603,0.00811746,-0.000928045,0.00824563,0.00139785,-1.43355,0.00509545,0.0152003,1539,1674,7.24458,-20.5908
322,-650,7.25269,20.417,0.00149293,0.00765526,-0.000881496,0.00777888,0.00136932,-1.43147,0.0047951,0.0113727,1546,1674,7.25265,-20.417
329,-650,7.27283,20.2296,0.00144642,0.0069399,-0.000799661,0.00705393,0.00133238,-1.42915,0.00432741,0.0155626,1553,1674,7.27287,-20.2296
336,-650,7.26648,20.0685,0.00123606,0.00621397,-0.000621608,0.00629042,0.00115961,-1.44843,0.00386549,0.0132912,1560,1674,7.26645,-20.0685
343,-650,7.25793,19.8901,0.00100377,0.00541786,-0.000479023,0.00546925,0.00095238,-1.46393,0.00337381,0.013424,1567,1674,7.25792,-19.8901
350,-650,7.31506,19.6882,0.000894117,0.00460544,-0.000370594,0.00464209,0.000857473,-1.47224,0.00285219,0.0163255,1574,1674,7.31501,-19.6882
357,-650,7.31335,19.4939,0.000786612,0.00371072,-0.000227873,0.00372837,0.000768961,-1.49349,0.00227304,0.0137524,1581,1674,7.31337,-19.4938
364,-650,7.29529,19.2992,0.000579985,0.00319263,-0.000200181,0.00320788,0.000564737,-1.49477,0.00197741,0.00916767,1588,1674,7.29529,-19.2992
371,-650,7.29968,19.1145,0.000464735,0.00267402,-0.000264778,0.00270531,0.000433446,-1.45317,0.00167782,0.0113515,1595,1674,7.29972,-19.1145
378,-650,7.302,18.9058,0.000444579,0.00216274,-0.000341726,0.00222821,0.000379108,-1.3815,0.00137662,0.0123874,1602,1674,7.30198,-18.9058
385,-650,7.30286,18.6902,0.000562576,0.00152649,-0.000475907,0.00172186,0.000367208,-1.18126,0.00104719,0.0134611,1609,1674,7.30281,-18.6902
392,-650,7.30042,18.488,0.00071756,0.00103934,-0.000648203,0.00154632,0.000210579,-0.907046,0.000968352,0.0165193,1616,1674,7.30036,-18.488
399,-650,7.28442,18.2695,0.000803601,0.000600036,-0.000781899,0.00149031,-8.66769e-05,-0.720675,0.00102366,0.0146486,1623,1674,7.28439,-18.2695
406,-650,7.2738,18.056,0.000878143,0.000255044,-0.000914097,0.00153232,-0.000399137,-0.621158,0.00117737,0.0144232,1630,1674,7.27384,-18.056
413,-650,7.26477,17.8296,0.000969516,-0.000224954,-0.000794388,0.00136613,-0.000621571,-0.463066,0.00117413,0.0143748,1637,1674,7.26479,-17.8295
420,-650,7.24622,17.6128,0.00122492,-0.00109284,-0.000536371,0.00134302,-0.00121095,-0.216738,0.00147519,0.0139109,1644,1674,7.24625,-17.6127
427,-650,7.23816,17.3995,0.00193265,-0.00242418,-0.00035142,0.00196082,-0.00245235,-0.0799705,0.0025532,0.0138888,1651,1674,7.23819,-17.3995
434,-650,7.2345,17.2114,0.00315081,-0.0036148,-0.000614351,0.00320614,-0.00367013,-0.0898261,0.00397303,0.0175349,1658,1674,7.23451,-17.2114
441,-650,7.23926,17.021,0.00424102,-0.00557039,-0.00028437,0.00424926,-0.00557862,-0.0289512,0.0056914,0.029022,1665,1674,7.23922,-17.021
448,-650,7.09399,16.8065,0.00602996,-0.00726032,-0.000263729,0.00603519,-0.00726555,-0.0198333,0.00769013,0.0454401,1672,1674,7.09404,-16.8065
455,-650,7.01526,16.4561,0,0,0,0,0,0,0,-1,1679,1674,7.01522,-16.456
462,-650,6.77026,16.4818,0,0,0,0,0,0,0,-1,1686,1674,6.77021,-16.4818
469,-650,7.34082,16.4678,0,0,0,0,0,0,0,-1,1693,1674,7.3408,-16.4678
476,-650,7.47607,16.6858,0,0,0,0,0,0,0,-1,1700,1674,7.4761,-16.6857
483,-650,9.03516,12.6401,0,0,0,0,0,0,0,-1,1707,1674,9.03513,-12.6401
490,-650,8.48901,11.9618,0,0,0,0,0,0,0,-1,1714,1674,8.48906,-11.9618
497,-650,7.81238,11.5549,0,0,0,0,0,0,0,-1,1721,1674,7.81239,-11.5549
504,-650,4.06628,11.7836,0,0,0,0,0,0,0,-1,1728,1674,4.06624,-11.7836
511,-650,4.07861,10.9446,0,0,0,0,0,0,0,-1,1735,1674,4.07861,-10.9446
518,-650,0,0,0,0,0,0,0,0,0,-1,1742,1674,0,0
525,-650,0,0,0,0,0,0,0,0,0,-1,1749,1674,0,0
532,-650,0,0,0,0,0,0,0,0,0,-1,1756,1674,0,0
539,-650,0,0,0,0,0,0,0,0,0,-1,1763,1674,0,0
546,-650,0,0,0,0,0,0,0,0,0,-1,1770,1674,0,0
553,-650,0,0,0,0,0,0,0,0,0,-1,1777,1674,0,0
560,-650,0,0,0,0,0,0,0,0,0,-1,1784,1674,0,0
567,-650,0,0,0,0,0,0,0,0,0,-1,1791,1674,0,0
574,-650,0,0,0,0,0,0,0,0,0,-1,1798,1674,0,0
581,-650,0,0,0,0,0,0,0,0,0,-1,1805,1674,0,0
588,-650,0,0,0,0,0,0,0,0,0,-1,1812,1674,0,0
595,-650,0,0,0,0,0,0,0,0,0,-1,1819,1674,0,0
602,-650,0,0,0,0,0,0,0,0,0,-1,1826,1674,0,0
609,-650,0,0,0,0,0,0,0,0,0,-1,1833,1674,0,0
616,-650,0,0,0,0,0,0,0,0,0,-1,1840,1674,0,0
623,-650,0,0,0,0,0,0,0,0,0,-1,1847,1674,0,0
630,-650,0,0,0,0,0,0,0,0,0,-1,1854,1674,0,0
637,-650,0,0,0,0,0,0,0,0,0,-1,1861,1674,0,0
644,-650,0,0,0,0,0,0,0,0,0,-1,1868,1674,0,0
651,-650,0,0,0,0,0,0,0,0,0,-1,1875,1674,0,0
658,-650,0,0,0,0,0,0,0,0,0,-1,1882,1674,0,0
665,-650,0,0,0,0,0,0,0,0,0,-1,1889,1674,0,0
672,-650,0,0,0,0,0,0,0,0,0,-1,1896,1674,0,0
679,-650,0,0,0,0,0,0,0,0,0,-1,1903,1674,0,0
686,-650,0,0,0,0,0,0,0,0,0,-1,1910,1674,0,0
693,-650,0,0,0,0,0,0,0,0,0,-1,1917,1674,0,0
700,-650,0,0,0,0,0,0,0,0,0,-1,1924,1674,0,0
707,-650,0,0,0,0,0,0,0,0,0,-1,1931,1674,0,0
714,-650,0,0,0,0,0,0,0,0,0,-1,1938,1674,0,0
721,-650,0,0,0,0,0,0,0,0,0,-1,1945,1674,0,0
728,-650,0,0,0,0,0,0,0,0,0,-1,1952,1674,0,0
735,-650,0,0,0,0,0,0,0,0,0,-1,1959,1674,0,0
742,-650,0,0,0,0,0,0,0,0,0,-1,1966,1674,0,0
749,-650,0,0,0,0,0,0,0,0,0,-1,1973,1674,0,0
756,-650,0,0,0,0,0,0,0,0,0,-1,1980,1674,0,0
763,-650,0,0,0,0,0,0,0,0,0,-1,1987,1674,0,0
770,-650,0,0,0,0,0,0,0,0,0,-1,1994,1674,0,0
777,-650,0,0,0,0,0,0,0,0,0,-1,2001,1674,0,0
784,-650,0,0,0,0,0,0,0,0,0,-1,2008,1674,0,0
791,-650,0,0,0,0,0,0,0,0,0,-1,2015,1674,0,0
798,-650,0,0,0,0,0,0,0,0,0,-1,2022,1674,0,0
805,-650,0,0,0,0,0,0,0,0,0,-1,2029,1674,0,0
812,-650,0,0,0,0,0,0,0,0,0,-1,2036,1674,0,0
-700,-657,0,0,0,0,0,0,0,0,0,-1,524,1681,0,0
-693,-657,0,0,0,0,0,0,0,0,0,-1,531,1681,0,0
-686,-657,0,0,0,0,0,0,0,0,0,-1,538,1681,0,0
-679,-657,0,0,0,0,0,0,0,0,0,-1,545,1681,0,0
-672,-657,0,0,0,0,0,0,0,0,0,-1,552,1681,0,0
-665,-657,0,0,0,0,0,0,0,0,0,-1,559,1681,0,0
-658,-657,0,0,0,0,0,0,0,0,0,-1,566,1681,0,0
-651,-657,0,0,0,0,0,0,0,0,0,-1,573,1681,0,0
-644,-657,0,0,0,0,0,0,0,0,0,-1,580,1681,0,0
-637,-657,0,0,0,0,0,0,0,0,0,-1,587,1681,0,0
-630,-657,0,0,0,0,0,0,0,0,0,-1,594,1681,0,0
-623,-657,0,0,0,0,0,0,0,0,0,-1,601,1681,0,0
-616,-657,0,0,0,0,0,0,0,0,0,-1,608,1681,0,0
-609,-657,0,0,0,0,0,0,0,0,0,-1,615,1681,0,0
-602,-657,0,0,0,0,0,0,0,0,0,-1,622,1681,0,0
-595,-657,0,0,0,0,0,0,0,0,0,-1,629,1681,0,0
-588,-657,0,0,0,0,0,0,0,0,0,-1,636,1681,0,0
-581,-657,0,0,0,0,0,0,0,0,0,-1,643,1681,0,0
-574,-657,0,0,0,0,0,0,0,0,0,-1,650,1681,0,0
-567,-657,0,0,0,0,0,0,0,0,0,-1,657,1681,0,0
-560,-657,0,0,0,0,0,0,0,0,0,-1,664,1681,0,0
-553,-657,0,0,0,0,0,0,0,0,0,-1,671,1681,0,0
-546,-657,0,0,0,0,0,0,0,0,0,-1,678,1681,0,0
-539,-657,0,0,0,0,0,0,0,0,0,-1,685,1681,0,0
-532,-657,0,0,0,0,0,0,0,0,0,-1,692,1681,0,0
-525,-657,0,0,0,0,0,0,0,0,0,-1,699,1681,0,0
-518,-657,0,0,0,0,0,0,0,0,0,-1,706,1681,0,0
-511,-657,0,0,0,0,0,0,0,0,0,-1,713,1681,0,0
-504,-657,0,0,0,0,0,0,0,0,0,-1,720,1681,0,0
-497,-657,0,0,0,0,0,0,0,0,0,-1,727,1681,0,0
-490,-657,0,0,0,0,0,0,0,0,0,-1,734,1681,0,0
-483,-657,0,0,0,0,0,0,0,0,0,-1,741,1681,0,0
-476,-657,0,0,0,0,0,0,0,0,0,-1,748,1681,0,0
-469,-657,0,0,0,0,0,0,0,0,0,-1,755,1681,0,0
-462,-657,0,0,0,0,0,0,0,0,0,-1,762,1681,0,0
-455,-657,0,0,0,0,0,0,0,0,0,-1,769,1681,0,0
-448,-657,0,0,0,0,0,0,0,0,0,-1,776,1681,0,0
-441,-657,0,0,0,0,0,0,0,0,0,-1,783,1681,0,0
-434,-657,0,0,0,0,0,0,0,0,0,-1,790,1681,0,0
-427,-657,0,0,0,0,0,0,0,0,0,-1,797,1681,0,0
-420,-657,0,0,0,0,0,0,0,0,0,-1,804,1681,0,0
-413,-657,0,0,0,0,0,0,0,0,0,-1,811,1681,0,0
-406,-657,0,0,0,0,0,0,0,0,0,-1,818,1681,0,0
-399,-657,0,0,0,0,0,0,0,0,0,-1,825,1681,0,0
-392,-657,0,0,0,0,0,0,0,0,0,-1,832,1681,0,0
-385,-657,1.09814,6.18896,0,0,0,0,0,0,0,-1,839,1681,1.09814,-6.18894
-378,-657,0.31488,4.46753,0,0,0,0,0,0,0,-1,846,1681,0.31487,-4.46755
-371,-657,-0.519043,2.69421,0,0,0,0,0,0,0,-1,853,1681,-0.519064,-2.69422
-364,-657,-3.42017,4.18323,0,0,0,0,0,0,0,-1,860,1681,-3.42019,-4.18319
-357,-657,-4.41913,2.97168,0,0,0,0,0,0,0,-1,867,1681,-4.41913,-2.97165
-350,-657,-5.42291,1.70276,0,0,0,0,0,0,0,-1,874,1681,-5.42291,-1.70277
-343,-657,-6.51294,0.397339,0,0,0,0,0,0,0,-1,881,1681,-6.51295,-0.397335
-336,-657,2.4696,15.2997,0,0,0,0,0,0,0,-1,888,1681,2.46961,-15.2996
-329,-657,5.39899,14.1991,0,0,0,0,0,0,0,-1,895,1681,5.39899,-14.1991
-322,-657,4.41638,15.6981,0,0,0,0,0,0,0,-1,902,1681,4.41638,-15.6982
-315,-657,4.45758,15.9944,-0.00530904,-0.00418867,-0.00799525,0.003266,-0.0127637,-0.820373,0.00978128,0.0417459,909,1681,4.4576,-15.9944
-308,-657,4.25409,15.985,-0.00462475,-0.00269993,-0.00616845,0.00258074,-0.00990541,-0.862785,0.00761112,0.0386164,916,1681,4.25409,-15.985
-301,-657,4.23499,16.2815,-0.00399582,-0.00139058,-0.00471056,0.00219414,-0.00758055,-0.920293,0.00592216,0.0296158,923,1681,4.23497,-16.2815
-294,-657,4.24194,16.5386,-0.00346044,-0.000232376,-0.00339439,0.00191218,-0.005605,-1.00733,0.00451123,0.0164073,930,1681,4.24192,-16.5386
-287,-657,4.23822,16.7561,-0.00296069,0.000523964,-0.00230182,0.00166852,-0.00410524,-1.10936,0.00343101,0.0119819,937,1681,4.23824,-16.7561
-280,-657,4.21857,16.9894,-0.00250745,0.00104263,-0.00146853,0.00157136,-0.00303618,-1.22521,0.0027046,0.0133287,944,1681,4.21856,-16.9893
-273,-657,4.21997,17.2362,-0.00205732,0.00132941,-0.000851229,0.00153133,-0.00225923,-1.3379,0.00220189,0.0102266,951,1681,4.21998,-17.2363
-266,-657,4.2019,17.4666,-0.00150521,0.001488,-0.000389584,0.00153787,-0.00155509,-1.44347,0.00178573,0.0140709,958,1681,4.20187,-17.4666
-259,-657,4.21667,17.6807,-0.000962325,0.00155424,7.48061e-05,0.00155646,-0.000964546,1.54111,0.00146882,0.0175532,965,1681,4.2167,-17.6807
-252,-657,4.19891,17.9086,-0.00056218,0.00135422,0.000316173,0.00140504,-0.000612995,1.41144,0.00119465,0.0125833,972,1681,4.19891,-17.9086
-245,-657,4.18622,18.1292,-0.000132578,0.000875559,0.000390136,0.0010089,-0.000265919,1.24146,0.000776567,0.0150372,979,1681,4.18619,-18.1292
-238,-657,4.18939,18.3711,0.000337814,0.000281334,0.000559806,0.000870092,-0.000250944,0.760197,0.000679338,0.0200079,986,1681,4.18938,-18.3712
-231,-657,4.19379,18.6255,0.000928661,-0.000408022,0.000839851,0.00133365,-0.000813006,0.449315,0.00125146,0.0199852,993,1681,4.1938,-18.6255
-224,-657,4.18549,18.8385,0.00157281,-0.00107822,0.00121439,0.002045,-0.00155041,0.370838,0.00208234,0.0150692,1000,1681,4.18547,-18.8385
-217,-657,4.18549,19.0552,0.00215443,-0.00159405,0.00163553,0.00276771,-0.00220732,0.358745,0.00287841,0.0101775,1007,1681,4.18547,-19.0552
-210,-657,4.18958,19.2445,0.00286855,-0.0018622,0.00174178,0.00344066,-0.00243431,0.317358,0.00340846,0.010976,1014,1681,4.18958,-19.2445
-203,-657,4.17407,19.4504,0.00374307,-0.0018983,0.00168301,0.00420701,-0.00236224,0.268983,0.00384229,0.0127732,1021,1681,4.17413,-19.4504
-196,-657,4.19299,19.6287,0.00441752,-0.00197108,0.0017787,0.00487936,-0.00243291,0.254039,0.00429978,0.0125662,1028,1681,4.19304,-19.6286
-189,-657,4.20996,19.8197,0.00504328,-0.00179278,0.00167774,0.00543284,-0.00218234,0.22815,0.00452816,0.00960682,1035,1681,4.20991,-19.8197
-182,-657,4.21802,20.0294,0.00587981,-0.00125288,0.00138805,0.00614041,-0.00151348,0.185584,0.00468039,0.00856544,1042,1681,4.218,-20.0294
-175,-657,4.22192,20.2148,0.00692324,-0.000637257,0.00104691,0.00706553,-0.000779546,0.135086,0.00499054,0.0102115,1049,1681,4.22193,-20.2148
-168,-657,4.21436,20.3964,0.00791116,9.11118e-05,0.000573205,0.00795296,4.932e-05,0.072781,0.00528561,0.0111269,1056,1681,4.21434,-20.3963
-161,-657,4.23914,20.5587,0.00901634,0.000744076,0.000115783,0.00901796,0.000742456,0.0139929,0.0057804,0.0111512,1063,1681,4.23914,-20.5587
-154,-657,4.27722,20.7225,0.00992083,0.0014823,-0.000245199,0.00992795,0.00147518,-0.0290245,0.00618582,0.011253,1070,1681,4.27724,-20.7226
-147,-657,4.30908,20.8733,0.0110469,0.00181219,-0.000617052,0.0110879,0.00177115,-0.0664254,0.00687801,0.0159162,1077,1681,4.30907,-20.8733
-140,-657,4.3103,21.1028,0.0122075,0.00227168,-0.00115472,0.0123399,0.00213925,-0.11419,0.00761436,0.0263043,1084,1681,4.31034,-21.1028
-133,-657,4.40015,21.3915,0.0134509,0.00219248,-0.00122926,0.0135836,0.00205982,-0.107499,0.00845318,0.0353857,1091,1681,4.40019,-21.3915
-126,-657,4.76917,21.3411,0.0147166,0.0016238,-0.000486082,0.0147346,0.00160578,-0.037058,0.00933395,0.0463495,1098,1681,4.76914,-21.3411
-119,-657,4.86426,21.6797,0,0,0,0,0,0,0,-1,1105,1681,4.86426,-21.6797
-112,-657,4.6051,21.3439,0,0,0,0,0,0,0,-1,1112,1681,4.60512,-21.3438
-105,-657,3.82434,14.4906,0,0,0,0,0,0,0,-1,1119,1681,3.8244,-14.4906
-98,-657,3.78662,8.16785,0,0,0,0,0,0,0,-1,1126,1681,3.78663,-8.16786
-91,-657,3.6521,16.6017,0,0,0,0,0,0,0,-1,1133,1681,3.65215,-16.6017
-84,-657,4.08008,10.4579,0,0,0,0,0,0,0,-1,1140,1681,4.08006,-10.4579
-77,-657,-5.29846,0.396606,0,0,0,0,0,0,0,-1,1147,1681,-5.29842,-0.396573
-70,-657,-4.14893,2.14575,0,0,0,0,0,0,0,-1,1154,1681,-4.14893,-2.1458
-63,-657,-4.1239,3.177,0,0,0,0,0,0,0,-1,1161,1681,-4.12391,-3.17698
-56,-657,-6.40576,5.73987,0,0,0,0,0,0,0,-1,1168,1681,-6.40577,-5.7399
-49,-657,-5.98462,7.54053,0,0,0,0,0,0,0,-1,1175,1681,-5.98466,-7.5405
-42,-657,-5.71948,9.28955,0,0,0,0,0,0,0,-1,1182,1681,-5.71951,-9.2895
-35,-657,-5.44556,11.015,0,0,0,0,0,0,0,-1,1189,1681,-5.44555,-11.015
-28,-657,-1.3446,8.92847,0,0,0,0,0,0,0,-1,1196,1681,-1.34459,-8.92848
-21,-657,5.1853,21.748,0,0,0,0,0,0,0,-1,1203,1681,5.18535,-21.7481
-14,-657,5.46448,22.004,0,0,0,0,0,0,0,-1,1210,1681,5.46447,-22.004
-7,-657,5.43176,22.3939,0.0851882,-0.00111363,0.0267992,0.092833,-0.00875838,0.27788,0.0650051,0.0487776,1217,1681,5.43171,-22.3939
0,-657,8.09509,22.2858,0.0792045,0.0143648,0.0283664,0.0898625,0.00370679,0.359406,0.0587118,0.0457661,1224,1681,8.0951,-22.2857
7,-657,8.81836,22.7251,0.0762838,0.0315509,0.0265023,0.0885963,0.0192384,0.434914,0.0538102,0.0452711,1231,1681,8.81834,-22.7251
14,-657,9.37903,23.2578,0,0,0,0,0,0,0,-1,1238,1681,9.37908,-23.2578
21,-657,5.677,23.9169,0.0710095,0.0632093,0.0167224,0.0842806,0.0499382,0.670834,0.0489363,0.0462972,1245,1681,5.677,-23.9169
28,-657,5.90027,24.5249,0.0643593,0.0724378,0.0106194,0.0797602,0.0570369,0.967131,0.0474488,0.0440252,1252,1681,5.90026,-24.5249
35,-657,6.18762,25.3342,0.0560984,0.0813375,0.00786295,0.0835867,0.0538492,1.29219,0.0489235,0.0413823,1259,1681,6.18757,-25.3342
42,-657,5.68323,27.2764,0.0463482,0.0858891,0.00697971,0.0870849,0.0451523,1.40111,0.05029,0.042315,1266,1681,5.68321,-27.2764
49,-657,6.88171,26.2617,0.0347164,0.0903793,0.00452772,0.0907452,0.0343505,1.49016,0.0529045,0.0424874,1273,1681,6.88168,-26.2617
56,-657,8.03003,25.6935,0.0255223,0.0924804,0.0010596,0.0924971,0.0255056,1.55498,0.0551647,0.0435755,1280,1681,8.03004,-25.6935
63,-657,8.74707,25.1416,0,0,0,0,0,0,0,-1,1287,1681,8.74701,-25.1416
70,-657,9.85291,24.4387,0,0,0,0,0,0,0,-1,1294,1681,9.85293,-24.4388
77,-657,7.36938,21.4971,0,0,0,0,0,0,0,-1,1301,1681,7.36944,-21.497
84,-657,7.45544,20.611,0.00872651,0.0842457,-0.0163099,0.0876176,0.00535462,-1.36693,0.0567112,0.0460717,1308,1681,7.4555,-20.611
91,-657,4.92908,26.0447,0.0104127,0.0785724,-0.0239308,0.0861353,0.00284975,-1.2647,0.0564976,0.044667,1315,1681,4.92903,-26.0447
98,-657,4.0354,25.1494,0,0,0,0,0,0,0,-1,1322,1681,4.03543,-25.1494
105,-657,6.297,25.4869,0.0242838,0.0744715,-0.0455043,0.101342,-0.00258721,-1.03738,0.0684403,0.0473912,1329,1681,6.29704,-25.487
112,-657,6.57129,23.7498,0.0363112,0.0727868,-0.060021,0.11728,-0.00818162,-0.932894,0.0810514,0.0465827,1336,1681,6.57123,-23.7497
119,-657,6.81543,22.0129,0.0479143,0.0703768,-0.0752348,0.135214,-0.0169229,-0.859492,0.0962807,0.0452922,1343,1681,6.81544,-22.0129
126,-657,7.22925,20.129,0.0563955,0.0672538,-0.0888053,0.150796,-0.0271465,-0.815928,0.110694,0.048694,1350,1681,7.22922,-20.129
133,-657,7.56848,18.2302,0,0,0,0,0,0,0,-1,1357,1681,7.56852,-18.2302
140,-657,7.76831,16.2661,0,0,0,0,0,0,0,-1,1364,1681,7.76834,-16.2661
147,-657,11.1736,33.4631,0,0,0,0,0,0,0,-1,1371,1681,11.1736,-33.4631
154,-657,4.28149,19.5978,0,0,0,0,0,0,0,-1,1378,1681,4.28155,-19.5978
161,-657,12.8524,6.43372,0,0,0,0,0,0,0,-1,1385,1681,12.8524,-6.43366
168,-657,5.21643,0.70105,0,0,0,0,0,0,0,-1,1392,1681,5.21648,-0.7011
175,-657,5.52771,0.649048,0,0,0,0,0,0,0,-1,1399,1681,5.52774,-0.649019
182,-657,5.73999,1.02612,0,0,0,0,0,0,0,-1,1406,1681,5.73995,-1.02611
189,-657,5.92126,1.44116,0,0,0,0,0,0,0,-1,1413,1681,5.92126,-1.44115
196,-657,4.92834,9.59021,0,0,0,0,0,0,0,-1,1420,1681,4.9284,-9.59018
203,-657,6.26343,5.16492,0,0,0,0,0,0,0,-1,1427,1681,6.26345,-5.16488
210,-657,3.9856,5.28088,0,0,0,0,0,0,0,-1,1434,1681,3.98555,-5.28084
217,-657,3.95178,5.2843,0,0,0,0,0,0,0,-1,1441,1681,3.95174,-5.28431
224,-657,6.66736,-0.250244,0,0,0,0,0,0,0,-1,1448,1681,6.66737,0.250229
231,-657,6.85498,-1.70752,0,0,0,0,0,0,0,-1,1455,1681,6.855,1.70758
238,-657,5.34143,-2.89819,0,0,0,0,0,0,0,-1,1462,1681,5.34143,2.89813
245,-657,8.66003,-0.102783,0,0,0,0,0,0,0,-1,1469,1681,8.66,0.102824
252,-657,4.78955,0.623779,0,0,0,0,0,0,0,-1,1476,1681,4.7895,-0.623826
259,-657,2.61523,4.31909,0,0,0,0,0,0,0,-1,1483,1681,2.61523,-4.31908
266,-657,5.35437,11.4742,0,0,0,0,0,0,0,-1,1490,1681,5.35441,-11.4742
273,-657,6.9895,21.1707,0,0,0,0,0,0,0,-1,1497,1681,6.98953,-21.1706
280,-657,6.95142,21.2765,0.00154791,0.00516613,0.000463479,0.00522456,0.00148948,1.4454,0.00310789,0.0457535,1504,1681,6.95141,-21.2764
287,-657,7.07654,21.203,0.00128403,0.00582965,0.00015,0.00583459,0.00127909,1.53785,0.00354122,0.0320799,1511,1681,7.07656,-21.2031
294,-657,7.09106,21.0458,0.00119248,0.00584944,-6.33307e-05,0.0058503,0.00119162,-1.5572,0.00356991,0.0238114,1518,1681,7.09107,-21.0458
301,-657,7.01758,20.9073,0.00119619,0.00573266,-0.000201574,0.00574159,0.00118725,-1.52648,0.00349976,0.016376,1525,1681,7.01756,-20.9073
308,-657,7.04956,20.7506,0.00120118,0.00557857,-0.000314506,0.00560105,0.0011787,-1.49944,0.00340973,0.0124809,1532,1681,7.04952,-20.7506
315,-657,7.08301,20.569,0.00121193,0.00534908,-0.000392197,0.00538593,0.00117508,-1.47711,0.00327008,0.0110584,1539,1681,7.083,-20.569
322,-657,7.09998,20.395,0.00115757,0.00515418,-0.000453997,0.0052051,0.00110664,-1.4591,0.00316632,0.0137559,1546,1681,7.09993,-20.395
329,-657,7.09985,20.2466,0.0011091,0.00478363,-0.000510793,0.00485331,0.00103942,-1.43521,0.00295074,0.0199496,1553,1681,7.0999,-20.2466
336,-657,7.10059,20.0632,0.000999119,0.00446015,-0.000533324,0.00454047,0.000918802,-1.42132,0.00277194,0.0164098,1560,1681,7.10065,-20.0633
343,-657,7.11133,19.8811,0.000913493,0.00405749,-0.000604217,0.00416961,0.000801372,-1.38732,0.00255486,0.0124948,1567,1681,7.11127,-19.8811
350,-657,7.13416,19.6849,0.000895527,0.00356902,-0.000640672,0.00371462,0.000749927,-1.34733,0.00226814,0.0152104,1574,1681,7.13412,-19.685
357,-657,7.13037,19.4906,0.000879817,0.00305091,-0.000662259,0.00323698,0.000693751,-1.2969,0.00196793,0.0151806,1581,1681,7.13032,-19.4906
364,-657,7.11658,19.3047,0.00079713,0.00276814,-0.000765222,0.00303035,0.000534923,-1.24068,0.00186764,0.0108334,1588,1681,7.11656,-19.3046
371,-657,7.10925,19.14,0.000810803,0.00247536,-0.00093165,0.00289235,0.000393818,-1.14996,0.00181128,0.014908,1595,1681,7.10925,-19.14
378,-657,7.09229,18.9279,0.000907754,0.00213794,-0.00109208,0.00277624,0.000269457,-1.04187,0.00176786,0.0145545,1602,1681,7.09231,-18.9278
385,-657,7.05994,18.6904,0.00109755,0.00173171,-0.00128141,0.00273469,9.45698e-05,-0.906684,0.00179244,0.0124594,1609,1681,7.05999,-18.6905
392,-657,7.05872,18.5018,0.00128009,0.00135034,-0.00147898,0.00279461,-0.000164187,-0.797271,0.00192015,0.0128217,1616,1681,7.05875,-18.5018
399,-657,7.08972,18.2921,0.00136494,0.000874529,-0.00157931,0.00271796,-0.000478493,-0.708382,0.00199073,0.0128968,1623,1681,7.08978,-18.2921
406,-657,7.08423,18.0751,0.00141785,0.000469224,-0.00163453,0.00264549,-0.000758416,-0.644185,0.00206346,0.0142601,1630,1681,7.0842,-18.075
413,-657,7.05896,17.8176,0.00146407,-0.000163857,-0.00136288,0.00223755,-0.000937333,-0.516204,0.00188356,0.0136927,1637,1681,7.059,-17.8176
420,-657,7.07019,17.556,0.00171428,-0.0012163,-0.000944445,0.00199228,-0.0014943,-0.286265,0.00201981,0.0154628,1644,1681,7.07025,-17.556
427,-657,6.94153,17.1444,0,0,0,0,0,0,0,-1,1651,1681,6.94152,-17.1444
434,-657,7.05127,17.1373,0,0,0,0,0,0,0,-1,1658,1681,7.0513,-17.1373
441,-657,7.4021,17.1198,0,0,0,0,0,0,0,-1,1665,1681,7.40211,-17.1198
448,-657,6.69824,16.969,0,0,0,0,0,0,0,-1,1672,1681,6.69829,-16.9689
455,-657,5.12244,16.671,0,0,0,0,0,0,0,-1,1679,1681,5.12248,-16.6711
462,-657,6.51733,15.4801,0,0,0,0,0,0,0,-1,1686,1681,6.51737,-15.4801
469,-657,6.06726,17.3041,0,0,0,0,0,0,0,-1,1693,1681,6.06727,-17.3041
476,-657,5.72485,13.6294,0,0,0,0,0,0,0,-1,1700,1681,5.72481,-13.6294
483,-657,9.39307,11.0643,0,0,0,0,0,0,0,-1,1707,1681,9.39309,-11.0644
490,-657,8.80066,10.4442,0,0,0,0,0,0,0,-1,1714,1681,8.80062,-10.4442
497,-657,3.43188,12.5037,0,0,0,0,0,0,0,-1,1721,1681,3.43183,-12.5037
504,-657,0,0,0,0,0,0,0,0,0,-1,1728,1681,0,0
511,-657,0,0,0,0,0,0,0,0,0,-1,1735,1681,0,0
518,-657,0,0,0,0,0,0,0,0,0,-1,1742,1681,0,0
525,-657,0,0,0,0,0,0,0,0,0,-1,1749,1681,0,0
532,-657,0,0,0,0,0,0,0,0,0,-1,1756,1681,0,0
539,-657,0,0,0,0,0,0,0,0,0,-1,1763,1681,0,0
546,-657,0,0,0,0,0,0,0,0,0,-1,1770,1681,0,0
553,-657,0,0,0,0,0,0,0,0,0,-1,1777,1681,0,0
560,-657,0,0,0,0,0,0,0,0,0,-1,1784,1681,0,0
567,-657,0,0,0,0,0,0,0,0,0,-1,1791,1681,0,0
574,-657,0,0,0,0,0,0,0,0,0,-1,1798,1681,0,0
581,-657,0,0,0,0,0,0,0,0,0,-1,1805,1681,0,0
588,-657,0,0,0,0,0,0,0,0,0,-1,1812,1681,0,0
595,-657,0,0,0,0,0,0,0,0,0,-1,1819,1681,0,0
602,-657,0,0,0,0,0,0,0,0,0,-1,1826,1681,0,0
609,-657,0,0,0,0,0,0,0,0,0,-1,1833,1681,0,0
616,-657,0,0,0,0,0,0,0,0,0,-1,1840,1681,0,0
623,-657,0,0,0,0,0,0,0,0,0,-1,1847,1681,0,0
630,-657,0,0,0,0,0,0,0,0,0,-1,1854,1681,0,0
637,-657,0,0,0,0,0,0,0,0,0,-1,1861,1681,0,0
644,-657,0,0,0,0,0,0,0,0,0,-1,1868,1681,0,0
651,-657,0,0,0,0,0,0,0,0,0,-1,1875,1681,0,0
658,-657,0,0,0,0,0,0,0,0,0,-1,1882,1681,0,0
665,-657,0,0,0,0,0,0,0,0,0,-1,1889,1681,0,0
672,-657,0,0,0,0,0,0,0,0,0,-1,1896,1681,0,0
679,-657,0,0,0,0,0,0,0,0,0,-1,1903,1681,0,0
686,-657,0,0,0,0,0,0,0,0,0,-1,1910,1681,0,0
693,-657,0,0,0,0,0,0,0,0,0,-1,1917,1681,0,0
700,-657,0,0,0,0,0,0,0,0,0,-1,1924,1681,0,0
707,-657,0,0,0,0,0,0,0,0,0,-1,1931,1681,0,0
714,-657,0,0,0,0,0,0,0,0,0,-1,1938,1681,0,0
721,-657,0,0,0,0,0,0,0,0,0,-1,1945,1681,0,0
728,-657,0,0,0,0,0,0,0,0,0,-1,1952,1681,0,0
735,-657,0,0,0,0,0,0,0,0,0,-1,1959,1681,0,0
742,-657,0,0,0,0,0,0,0,0,0,-1,1966,1681,0,0
749,-657,0,0,0,0,0,0,0,0,0,-1,1973,1681,0,0
756,-657,0,0,0,0,0,0,0,0,0,-1,1980,1681,0,0
763,-657,0,0,0,0,0,0,0,0,0,-1,1987,1681,0,0
770,-657,0,0,0,0,0,0,0,0,0,-1,1994,1681,0,0
777,-657,0,0,0,0,0,0,0,0,0,-1,2001,1681,0,0
784,-657,0,0,0,0,0,0,0,0,0,-1,2008,1681,0,0
791,-657,0,0,0,0,0,0,0,0,0,-1,2015,1681,0,0
798,-657,0,0,0,0,0,0,0,0,0,-1,2022,1681,0,0
805,-657,0,0,0,0,0,0,0,0,0,-1,2029,1681,0,0
812,-657,0,0,0,0,0,0,0,0,0,-1,2036,1681,0,0
-700,-664,0,0,0,0,0,0,0,0,0,-1,524,1688,0,0
-693,-664,0,0,0,0,0,0,0,0,0,-1,531,1688,0,0
-686,-664,0,0,0,0,0,0,0,0,0,-1,538,1688,0,0
-679,-664,0,0,0,0,0,0,0,0,0,-1,545,1688,0,0
-672,-664,0,0,0,0,0,0,0,0,0,-1,552,1688,0,0
-665,-664,0,0,0,0,0,0,0,0,0,-1,559,1688,0,0
-658,-664,0,0,0,0,0,0,0,0,0,-1,566,1688,0,0
-651,-664,0,0,0,0,0,0,0,0,0,-1,573,1688,0,0
-644,-664,0,0,0,0,0,0,0,0,0,-1,580,1688,0,0
-637,-664,0,0,0,0,0,0,0,0,0,-1,587,1688,0,0
-630,-664,0,0,0,0,0,0,0,0,0,-1,594,1688,0,0
-623,-664,0,0,0,0,0,0,0,0,0,-1,601,1688,0,0
-616,-664,0,0,0,0,0,0,0,0,0,-1,608,1688,0,0
-609,-664,0,0,0,0,0,0,0,0,0,-1,615,1688,0,0
-602,-664,0,0,0,0,0,0,0,0,0,-1,622,1688,0,0
-595,-664,0,0,0,0,0,0,0,0,0,-1,629,1688,0,0
-588,-664,0,0,0,0,0,0,0,0,0,-1,636,1688,0,0
-581,-664,0,0,0,0,0,0,0,0,0,-1,643,1688,0,0
-574,-664,0,0,0,0,0,0,0,0,0,-1,650,1688,0,0
-567,-664,0,0,0,0,0,0,0,0,0,-1,657,1688,0,0
-560,-664,0,0,0,0,0,0,0,0,0,-1,664,1688,0,0
-553,-664,0,0,0,0,0,0,0,0,0,-1,671,1688,0,0
-546,-664,0,0,0,0,0,0,0,0,0,-1,678,1688,0,0
-539,-664,0,0,0,0,0,0,0,0,0,-1,685,1688,0,0
-532,-664,0,0,0,0,0,0,0,0,0,-1,692,1688,0,0
-525,-664,0,0,0,0,0,0,0,0,0,-1,699,1688,0,0
-518,-664,0,0,0,0,0,0,0,0,0,-1,706,1688,0,0
-511,-664,0,0,0,0,0,0,0,0,0,-1,713,1688,0,0
-504,-664,0,0,0,0,0,0,0,0,0,-1,720,1688,0,0
-497,-664,0,0,0,0,0,0,0,0,0,-1,727,1688,0,0
-490,-664,0,0,0,0,0,0,0,0,0,-1,734,1688,0,0
-483,-664,0,0,0,0,0,0,0,0,0,-1,741,1688,0,0
-476,-664,0,0,0,0,0,0,0,0,0,-1,748,1688,0,0
-469,-664,0,0,0,0,0,0,0,0,0,-1,755,1688,0,0
-462,-664,0,0,0,0,0,0,0,0,0,-1,762,1688,0,0
-455,-664,0,0,0,0,0,0,0,0,0,-1,769,1688,0,0
-448,-664,0,0,0,0,0,0,0,0,0,-1,776,1688,0,0
-441,-664,0,0,0,0,0,0,0,0,0,-1,783,1688,0,0
-434,-664,0,0,0,0,0,0,0,0,0,-1,790,1688,0,0
-427,-664,0,0,0,0,0,0,0,0,0,-1,797,1688,0,0
-420,-664,0,0,0,0,0,0,0,0,0,-1,804,1688,0,0
-413,-664,0,0,0,0,0,0,0,0,0,-1,811,1688,0,0
-406,-664,0,0,0,0,0,0,0,0,0,-1,818,1688,0,0
-399,-664,0,0,0,0,0,0,0,0,0,-1,825,1688,0,0
-392,-664,0,0,0,0,0,0,0,0,0,-1,832,1688,0,0
-385,-664,0,0,0,0,0,0,0,0,0,-1,839,1688,0,0
-378,-664,0,0,0,0,0,0,0,0,0,-1,846,1688,0,0
-371,-664,-1.61676,5.92737,0,0,0,0,0,0,0,-1,853,1688,-1.61675,-5.92735
-364,-664,-3.901,5.87024,0,0,0,0,0,0,0,-1,860,1688,-3.90097,-5.87027
-357,-664,-4.81012,4.53479,0,0,0,0,0,0,0,-1,867,1688,-4.81012,-4.5348
-350,-664,-5.7193,3.19934,0,0,0,0,0,0,0,-1,874,1688,-5.71927,-3.19932
-343,-664,2.42603,15.0261,0,0,0,0,0,0,0,-1,881,1688,2.42605,-15.0261
-336,-664,2.86487,15.2523,0,0,0,0,0,0,0,-1,888,1688,2.86489,-15.2524
-329,-664,3.44025,15.37,0,0,0,0,0,0,0,-1,895,1688,3.44027,-15.37
-322,-664,4.89752,15.9825,0,0,0,0,0,0,0,-1,902,1688,4.89754,-15.9826
-315,-664,4.87207,16.0361,-0.00703633,-0.004516,-0.0111596,0.00545435,-0.0170067,-0.841621,0.0135276,0.0494246,909,1688,4.87209,-16.0362
-308,-664,4.87317,16.0643,-0.00617482,-0.00255422,-0.00850475,0.00433077,-0.0130598,-0.890262,0.0104536,0.0469827,916,1688,4.87316,-16.0643
-301,-664,4.86639,16.1279,0,0,0,0,0,0,0,-1,923,1688,4.86641,-16.1279
-294,-664,4.29968,16.5422,-0.00474678,0.000419608,-0.00451362,0.00303695,-0.00736413,-1.0453,0.00617587,0.0408954,930,1688,4.29966,-16.5422
-287,-664,4.46204,16.8035,-0.00416339,0.00132955,-0.00300721,0.00265572,-0.00548956,-1.15545,0.00479661,0.0318804,937,1688,4.46205,-16.8035
-280,-664,4.39642,17.0149,-0.00358495,0.00188569,-0.00189275,0.0024767,-0.00417596,-1.26814,0.00388245,0.0214074,944,1688,4.39645,-17.0149
-273,-664,4.44891,17.2046,-0.00304198,0.00213508,-0.00110976,0.00236294,-0.00326984,-1.36829,0.00326611,0.0168633,951,1688,4.44891,-17.2045
-266,-664,4.41162,17.4497,-0.00236081,0.00228227,-0.000551195,0.00234681,-0.00242535,-1.45424,0.00275533,0.022267,958,1688,4.41161,-17.4497
-259,-664,4.39722,17.6929,-0.00178509,0.00234419,4.65635e-05,0.00234471,-0.00178561,1.55952,0.00239192,0.0192855,965,1688,4.39724,-17.6929
-252,-664,4.41608,17.9098,-0.0013535,0.00211957,0.000370776,0.00215872,-0.00139265,1.46562,0.00206622,0.0158726,972,1688,4.41609,-17.9098
-245,-664,4.38763,18.1318,-0.000929128,0.00171484,0.000348993,0.00176013,-0.000974418,1.44174,0.00160037,0.0202353,979,1688,4.38764,-18.1318
-238,-664,4.44513,18.3695,-0.000516517,0.00119474,0.000422061,0.00129317,-0.000614951,1.34167,0.00112461,0.0240003,986,1688,4.44515,-18.3694
-231,-664,4.47485,18.5919,2.88001e-06,0.000587878,0.000641498,0.00100041,-0.000409656,0.999299,0.000837582,0.0197296,993,1688,4.47486,-18.5919
-224,-664,4.42169,18.8396,0.000637334,-3.98177e-06,0.000932494,0.00130276,-0.00066941,0.619796,0.00115804,0.0133836,1000,1688,4.4217,-18.8396
-217,-664,4.39648,19.0647,0.0011613,-0.00045102,0.00120257,0.00180291,-0.00109264,0.490119,0.00168843,0.0104121,1007,1688,4.39647,-19.0647
-210,-664,4.39526,19.2462,0.00174746,-0.000758046,0.00129612,0.00229729,-0.00130788,0.401205,0.00210741,0.0113552,1014,1688,4.39527,-19.2462
-203,-664,4.39771,19.4508,0.00241137,-0.000829163,0.00128329,0.00285801,-0.0012758,0.33493,0.00244424,0.0131676,1021,1688,4.39774,-19.4508
-196,-664,4.40344,19.62,0.00292897,-0.000927572,0.00137716,0.00337026,-0.00136886,0.310094,0.00281629,0.0127658,1028,1688,4.4035,-19.6199
-189,-664,4.40356,19.8168,0.00341848,-0.000856475,0.00130153,0.00378356,-0.00122155,0.273472,0.00301325,0.00938528,1035,1688,4.40351,-19.8167
-182,-664,4.40405,20.0182,0.00405657,-0.000457701,0.00108876,0.00430544,-0.000706572,0.22472,0.00313249,0.00979386,1042,1688,4.40402,-20.0182
-175,-664,4.40576,20.1776,0.00487945,-5.67003e-05,0.00087595,0.00503028,-0.000207534,0.170522,0.00342479,0.0123442,1049,1688,4.40577,-20.1776
-168,-664,4.40735,20.355,0.00566015,0.000406466,0.000599398,0.00572767,0.000338948,0.112171,0.00371063,0.0126066,1056,1688,4.40729,-20.3549
-161,-664,4.42273,20.5383,0.00651056,0.000771823,0.000361235,0.00653321,0.000749174,0.0626174,0.00412847,0.00912511,1063,1688,4.42274,-20.5383
-154,-664,4.4425,20.7069,0.0072615,0.00122963,0.000191365,0.00726756,0.00122356,0.0316832,0.00449307,0.00901057,1070,1688,4.44254,-20.7069
-147,-664,4.43958,20.8572,0.00816119,0.00140756,4.18984e-05,0.00816145,0.0014073,0.0062035,0.00503782,0.0104167,1077,1688,4.43952,-20.8572
-140,-664,4.47168,21.0272,0.00906408,0.00165743,-0.000178601,0.00906839,0.00165313,-0.024095,0.00557683,0.0105706,1084,1688,4.47167,-21.0272
-133,-664,4.4873,21.2072,0.0100279,0.00149833,-3.98325e-05,0.0100281,0.00149814,-0.00466977,0.00624621,0.011469,1091,1688,4.48733,-21.2071
-126,-664,4.57764,21.423,0.0110526,0.00110993,0.000589993,0.0110875,0.00107504,0.0590632,0.00706065,0.0222635,1098,1688,4.57765,-21.423
-119,-664,4.77026,21.5079,0.012189,0.000320958,0.00127025,0.0123234,0.000186524,0.10544,0.00815414,0.0383176,1105,1688,4.77029,-21.5079
-112,-664,4.88171,21.5454,0.013229,-0.00067895,0.0019567,0.013499,-0.000948994,0.137144,0.00933178,0.0496841,1112,1688,4.88168,-21.5454
-105,-664,4.48108,21.4276,0,0,0,0,0,0,0,-1,1119,1688,4.48104,-21.4276
-98,-664,4.98584,19.8645,0,0,0,0,0,0,0,-1,1126,1688,4.98586,-19.8645
-91,-664,4.61377,19.9204,0,0,0,0,0,0,0,-1,1133,1688,4.61377,-19.9204
-84,-664,3.48389,16.6913,0,0,0,0,0,0,0,-1,1140,1688,3.4839,-16.6913
-77,-664,4.52014,11.2122,0,0,0,0,0,0,0,-1,1147,1688,4.5202,-11.2122
-70,-664,4.20374,8.24524,0,0,0,0,0,0,0,-1,1154,1688,4.20379,-8.24519
-63,-664,-4.677,2.40503,0,0,0,0,0,0,0,-1,1161,1688,-4.67702,-2.40498
-56,-664,-4.66504,3.32727,0,0,0,0,0,0,0,-1,1168,1688,-4.6651,-3.32724
-49,-664,-2.54297,3.31848,0,0,0,0,0,0,0,-1,1175,1688,-2.54297,-3.31852
-42,-664,-0.359253,4.38684,0,0,0,0,0,0,0,-1,1182,1688,-0.359261,-4.38685
-35,-664,-0.705566,3.55017,0,0,0,0,0,0,0,-1,1189,1688,-0.705567,-3.55023
-28,-664,-1.54236,10.2538,0,0,0,0,0,0,0,-1,1196,1688,-1.54236,-10.2538
-21,-664,5.04077,22.1088,0,0,0,0,0,0,0,-1,1203,1688,5.04079,-22.1087
-14,-664,4.97827,22.8693,0,0,0,0,0,0,0,-1,1210,1688,4.97826,-22.8693
-7,-664,5.39124,22.5048,0.0725685,0.00374715,0.0260489,0.0813161,-0.00500047,0.323983,0.0559521,0.0484288,1217,1688,5.39127,-22.5048
0,-664,6.96338,22.3782,0.0682908,0.0148831,0.0270725,0.0796135,0.00356043,0.396126,0.0519295,0.0461665,1224,1688,6.96338,-22.3781
7,-664,7.7002,22.8442,0.0658834,0.0276838,0.0257634,0.0788547,0.0147125,0.466426,0.0484166,0.0453574,1231,1688,7.70018,-22.8442
14,-664,8.17896,23.1617,0.0642872,0.0408788,0.0226502,0.0780785,0.0270875,0.546924,0.0457774,0.0440745,1238,1688,8.17894,-23.1618
21,-664,5.69897,24.0162,0,0,0,0,0,0,0,-1,1245,1688,5.69893,-24.0162
28,-664,5.91687,24.3401,0.0554172,0.0591685,0.0129123,0.0703406,0.0442451,0.857525,0.0410593,0.0436463,1252,1688,5.91689,-24.34
35,-664,6.07935,24.7039,0.0488776,0.0663116,0.0108515,0.0715137,0.0436754,1.12377,0.0416246,0.0452021,1259,1688,6.07939,-24.7039
42,-664,5.62012,26.532,0.0410918,0.0701751,0.0102962,0.0734512,0.0378157,1.26274,0.0424133,0.0442802,1266,1688,5.62009,-26.5319
49,-664,6.69568,25.5758,0.0315015,0.0739514,0.00777099,0.0753292,0.0301236,1.39531,0.043781,0.0445644,1273,1688,6.69566,-25.5758
56,-664,7.81873,24.8969,0.0243706,0.0759606,0.00412842,0.0762888,0.0240423,1.49145,0.0450376,0.0491126,1280,1688,7.81872,-24.8968
63,-664,8.93994,24.2996,0,0,0,0,0,0,0,-1,1287,1688,8.93991,-24.2996
70,-664,6.61304,22.7749,0,0,0,0,0,0,0,-1,1294,1688,6.61307,-22.7749
77,-664,6.99219,21.8506,0.0145905,0.0714566,-0.0073662,0.0723953,0.0136519,-1.44405,0.0444178,0.044702,1301,1688,6.99221,-21.8505
84,-664,7.16833,21.0562,0.0134206,0.0696554,-0.0125473,0.072328,0.010748,-1.36093,0.0450653,0.0468768,1308,1688,7.16828,-21.0561
91,-664,5.00952,25.8644,0.0151349,0.0649068,-0.0194564,0.0716098,0.0084319,-1.23902,0.0451922,0.0442448,1315,1688,5.00951,-25.8644
98,-664,4.29565,24.7834,0.019031,0.0627278,-0.0275768,0.0760622,0.00569655,-1.1204,0.04892,0.0467014,1322,1688,4.29563,-24.7834
105,-664,3.85339,23.4796,0.0259964,0.0612965,-0.0376888,0.0852634,0.00202955,-1.00439,0.0561779,0.0486281,1329,1688,3.85337,-23.4796
112,-664,6.66479,22.9303,0.0349803,0.0597877,-0.0492996,0.09822,-0.00345197,-0.908639,0.0666605,0.04452,1336,1688,6.66479,-22.9303
119,-664,6.91516,21.3345,0.0436413,0.0576305,-0.061455,0.112488,-0.0112159,-0.842062,0.0789963,0.0472138,1343,1688,6.91512,-21.3345
126,-664,7.15979,19.7668,0,0,0,0,0,0,0,-1,1350,1688,7.15978,-19.7669
133,-664,7.13416,17.3903,0,0,0,0,0,0,0,-1,1357,1688,7.1341,-17.3903
140,-664,4.57617,20.6385,0,0,0,0,0,0,0,-1,1364,1688,4.5762,-20.6385
147,-664,3.86841,20.9045,0,0,0,0,0,0,0,-1,1371,1688,3.8684,-20.9046
154,-664,3.51733,19.4696,0,0,0,0,0,0,0,-1,1378,1688,3.51739,-19.4697
161,-664,4.60132,1.56238,0,0,0,0,0,0,0,-1,1385,1688,4.60134,-1.56233
168,-664,5.172,1.25488,0,0,0,0,0,0,0,-1,1392,1688,5.17203,-1.25484
175,-664,5.58313,1.16467,0,0,0,0,0,0,0,-1,1399,1688,5.58317,-1.16466
182,-664,5.74268,1.41113,0,0,0,0,0,0,0,-1,1406,1688,5.74263,-1.41115
189,-664,5.87744,1.87061,0,0,0,0,0,0,0,-1,1413,1688,5.87745,-1.87065
196,-664,6.7594,5.97473,0,0,0,0,0,0,0,-1,1420,1688,6.75943,-5.97478
203,-664,5.38452,5.22034,0,0,0,0,0,0,0,-1,1427,1688,5.38453,-5.2203
210,-664,5.25549,6.45715,0,0,0,0,0,0,0,-1,1434,1688,5.25549,-6.45721
217,-664,5.72009,6.73975,0,0,0,0,0,0,0,-1,1441,1688,5.72014,-6.73972
224,-664,5.05725,7.42908,0,0,0,0,0,0,0,-1,1448,1688,5.05723,-7.42912
231,-664,5.13318,7.60864,0,0,0,0,0,0,0,-1,1455,1688,5.13313,-7.60862
238,-664,4.23193,6.45471,0,0,0,0,0,0,0,-1,1462,1688,4.23197,-6.45476
245,-664,4.42004,6.80896,0,0,0,0,0,0,0,-1,1469,1688,4.4201,-6.80901
252,-664,3.67346,6.85461,0,0,0,0,0,0,0,-1,1476,1688,3.6734,-6.85462
259,-664,4.55823,11.7435,0,0,0,0,0,0,0,-1,1483,1688,4.55826,-11.7435
266,-664,6.62805,21.1152,0,0,0,0,0,0,0,-1,1490,1688,6.62807,-21.1152
273,-664,6.7959,21.308,0,0,0,0,0,0,0,-1,1497,1688,6.7959,-21.308
280,-664,6.83289,21.2854,0.0014876,0.00272106,0.000547442,0.00292898,0.00127968,1.20782,0.00169553,0.0249139,1504,1688,6.83285,-21.2854
287,-664,6.82104,21.1685,0.00126148,0.0033942,0.000313721,0.00343939,0.00121629,1.42773,0.00201389,0.0194831,1511,1688,6.82107,-21.1685
294,-664,6.86401,21.0313,0.00112679,0.00356772,0.000159025,0.00357804,0.00111647,1.50601,0.00211388,0.0141551,1518,1688,6.86406,-21.0312
301,-664,6.88342,20.897,0.00106103,0.00361879,3.68013e-05,0.00361932,0.0010605,1.55641,0.00214847,0.0108402,1525,1688,6.88344,-20.897
308,-664,6.90234,20.7339,0.000996836,0.00364652,-9.05598e-05,0.00364961,0.000993744,-1.53667,0.00217873,0.0108225,1532,1688,6.90235,-20.7338
315,-664,6.91736,20.5554,0.000947113,0.0035817,-0.000190479,0.0035954,0.000933413,-1.49899,0.00215429,0.0112525,1539,1688,6.91737,-20.5554
322,-664,6.93396,20.4059,0.000858614,0.00353646,-0.000283483,0.00356614,0.000828932,-1.46647,0.00215493,0.0146482,1546,1688,6.93402,-20.4058
329,-664,6.91809,20.2701,0.000783377,0.00336613,-0.00040215,0.0034273,0.000722208,-1.41985,0.00208622,0.0178337,1553,1688,6.91808,-20.2701
336,-664,6.91687,20.074,0.000726682,0.00329909,-0.000543119,0.00340906,0.000616713,-1.37102,0.00209758,0.0142126,1560,1688,6.91692,-20.0739
343,-664,6.9209,19.8804,0.000718182,0.00313927,-0.000750984,0.00335329,0.000504158,-1.29317,0.00208786,0.0101268,1567,1688,6.92084,-19.8804
350,-664,6.92456,19.6923,0.000732465,0.00285742,-0.000888317,0.00317985,0.000410036,-1.22262,0.0019973,0.0118643,1574,1688,6.9245,-19.6923
357,-664,6.92212,19.501,0.000790834,0.00262922,-0.00104394,0.00310097,0.000319082,-1.14637,0.00196959,0.0132834,1581,1688,6.92211,-19.501
364,-664,6.92224,19.2998,0.000830113,0.00253167,-0.0012655,0.00320579,0.000155994,-1.08134,0.00208714,0.0115487,1588,1688,6.9222,-19.2998
371,-664,6.92505,19.1167,0.000987394,0.00242467,-0.00153862,0.0034042,7.85792e-06,-1.00388,0.00226685,0.0135404,1595,1688,6.92507,-19.1166
378,-664,6.90393,18.9287,0.00123645,0.00225512,-0.00179168,0.00360845,-0.000116882,-0.923883,0.00244553,0.0124719,1602,1688,6.90394,-18.9287
385,-664,6.87646,18.7104,0.0015634,0.00209559,-0.00206072,0.00390733,-0.000248334,-0.849606,0.00269149,0.0127775,1609,1688,6.87649,-18.7104
392,-664,6.85144,18.5122,0.00187415,0.00188249,-0.00232621,0.00420453,-0.000447889,-0.786294,0.00296362,0.0158736,1616,1688,6.85149,-18.5122
399,-664,6.87732,18.3037,0.00206,0.001399,-0.00242388,0.00417581,-0.000716806,-0.71764,0.00305101,0.0139532,1623,1688,6.87727,-18.3037
406,-664,6.90002,18.0741,0.00220711,0.000952293,-0.00243948,0.00409857,-0.000939163,-0.659531,0.00309333,0.0141945,1630,1688,6.90003,-18.074
413,-664,6.91711,17.8003,0.00231959,0.000178583,-0.00205471,0.00356593,-0.00106776,-0.545245,0.00280187,0.0156376,1637,1688,6.91706,-17.8003
420,-664,6.99316,17.5509,0.00266006,-0.00106916,-0.00149052,0.00318258,-0.00159169,-0.33718,0.00280697,0.0320161,1644,1688,6.99322,-17.5509
427,-664,7.1394,17.6072,0,0,0,0,0,0,0,-1,1651,1688,7.13945,-17.6072
434,-664,7.74792,17.7163,0,0,0,0,0,0,0,-1,1658,1688,7.74795,-17.7163
441,-664,8.08142,17.6971,0,0,0,0,0,0,0,-1,1665,1688,8.08144,-17.6971
448,-664,8.31555,17.7301,0,0,0,0,0,0,0,-1,1672,1688,8.31559,-17.7301
455,-664,7.53198,11.3838,0,0,0,0,0,0,0,-1,1679,1688,7.53195,-11.3838
462,-664,4.3147,4.25439,0,0,0,0,0,0,0,-1,1686,1688,4.31467,-4.25435
469,-664,6.05469,7.49341,0,0,0,0,0,0,0,-1,1693,1688,6.05474,-7.49339
476,-664,9.76514,11.5648,0,0,0,0,0,0,0,-1,1700,1688,9.76511,-11.5648
483,-664,8.41895,10.9768,0,0,0,0,0,0,0,-1,1707,1688,8.41897,-10.9769
490,-664,3.90771,13.2842,0,0,0,0,0,0,0,-1,1714,1688,3.90776,-13.2841
497,-664,0,0,0,0,0,0,0,0,0,-1,1721,1688,0,0
504,-664,0,0,0,0,0,0,0,0,0,-1,1728,1688,0,0
511,-664,0,0,0,0,0,0,0,0,0,-1,1735,1688,0,0
518,-664,0,0,0,0,0,0,0,0,0,-1,1742,1688,0,0
525,-664,0,0,0,0,0,0,0,0,0,-1,1749,1688,0,0
532,-664,0,0,0,0,0,0,0,0,0,-1,1756,1688,0,0
539,-664,0,0,0,0,0,0,0,0,0,-1,1763,1688,0,0
546,-664,0,0,0,0,0,0,0,0,0,-1,1770,1688,0,0
553,-664,0,0,0,0,0,0,0,0,0,-1,1777,1688,0,0
560,-664,0,0,0,0,0,0,0,0,0,-1,1784,1688,0,0
567,-664,0,0,0,0,0,0,0,0,0,-1,1791,1688,0,0
574,-664,0,0,0,0,0,0,0,0,0,-1,1798,1688,0,0
581,-664,0,0,0,0,0,0,0,0,0,-1,1805,1688,0,0
588,-664,0,0,0,0,0,0,0,0,0,-1,1812,1688,0,0
595,-664,0,0,0,0,0,0,0,0,0,-1,1819,1688,0,0
602,-664,0,0,0,0,0,0,0,0,0,-1,1826,1688,0,0
609,-664,0,0,0,0,0,0,0,0,0,-1,1833,1688,0,0
616,-664,0,0,0,0,0,0,0,0,0,-1,1840,1688,0,0
623,-664,0,0,0,0,0,0,0,0,0,-1,1847,1688,0,0
630,-664,0,0,0,0,0,0,0,0,0,-1,1854,1688,0,0
637,-664,0,0,0,0,0,0,0,0,0,-1,1861,1688,0,0
644,-664,0,0,0,0,0,0,0,0,0,-1,1868,1688,0,0
651,-664,0,0,0,0,0,0,0,0,0,-1,1875,1688,0,0
658,-664,0,0,0,0,0,0,0,0,0,-1,1882,1688,0,0
665,-664,0,0,0,0,0,0,0,0,0,-1,1889,1688,0,0
672,-664,0,0,0,0,0,0,0,0,0,-1,1896,1688,0,0
679,-664,0,0,0,0,0,0,0,0,0,-1,1903,1688,0,0
686,-664,0,0,0,0,0,0,0,0,0,-1,1910,1688,0,0
693,-664,0,0,0,0,0,0,0,0,0,-1,1917,1688,0,0
700,-664,0,0,0,0,0,0,0,0,0,-1,1924,1688,0,0
707,-664,0,0,0,0,0,0,0,0,0,-1,1931,1688,0,0
714,-664,0,0,0,0,0,0,0,0,0,-1,1938,1688,0,0
721,-664,0,0,0,0,0,0,0,0,0,-1,1945,1688,0,0
728,-664,0,0,0,0,0,0,0,0,0,-1,1952,1688,0,0
735,-664,0,0,0,0,0,0,0,0,0,-1,1959,1688,0,0
742,-664,0,0,0,0,0,0,0,0,0,-1,1966,1688,0,0
749,-664,0,0,0,0,0,0,0,0,0,-1,1973,1688,0,0
756,-664,0,0,0,0,0,0,0,0,0,-1,1980,1688,0,0
763,-664,0,0,0,0,0,0,0,0,0,-1,1987,1688,0,0
770,-664,0,0,0,0,0,0,0,0,0,-1,1994,1688,0,0
777,-664,0,0,0,0,0,0,0,0,0,-1,2001,1688,0,0
784,-664,0,0,0,0,0,0,0,0,0,-1,2008,1688,0,0
791,-664,0,0,0,0,0,0,0,0,0,-1,2015,1688,0,0
798,-664,0,0,0,0,0,0,0,0,0,-1,2022,1688,0,0
805,-664,0,0,0,0,0,0,0,0,0,-1,2029,1688,0,0
812,-664,0,0,0,0,0,0,0,0,0,-1,2036,1688,0,0
-700,-671,0,0,0,0,0,0,0,0,0,-1,524,1695,0,0
-693,-671,0,0,0,0,0,0,0,0,0,-1,531,1695,0,0
-686,-671,0,0,0,0,0,0,0,0,0,-1,538,1695,0,0
-679,-671,0,0,0,0,0,0,0,0,0,-1,545,1695,0,0
-672,-671,0,0,0,0,0,0,0,0,0,-1,552,1695,0,0
-665,-671,0,0,0,0,0,0,0,0,0,-1,559,1695,0,0
-658,-671,0,0,0,0,0,0,0,0,0,-1,566,1695,0,0
-651,-671,0,0,0,0,0,0,0,0,0,-1,573,1695,0,0
-644,-671,0,0,0,0,0,0,0,0,0,-1,580,1695,0,0
-637,-671,0,0,0,0,0,0,0,0,0,-1,587,1695,0,0
-630,-671,0,0,0,0,0,0,0,0,0,-1,594,1695,0,0
-623,-671,0,0,0,0,0,0,0,0,0,-1,601,1695,0,0
-616,-671,0,0,0,0,0,0,0,0,0,-1,608,1695,0,0
-609,-671,0,0,0,0,0,0,0,0,0,-1,615,1695,0,0
-602,-671,0,0,0,0,0,0,0,0,0,-1,622,1695,0,0
-595,-671,0,0,0,0,0,0,0,0,0,-1,629,1695,0,0
-588,-671,0,0,0,0,0,0,0,0,0,-1,636,1695,0,0
-581,-671,0,0,0,0,0,0,0,0,0,-1,643,1695,0,0
-574,-671,0,0,0,0,0,0,0,0,0,-1,650,1695,0,0
-567,-671,0,0,0,0,0,0,0,0,0,-1,657,1695,0,0
-560,-671,0,0,0,0,0,0,0,0,0,-1,664,1695,0,0
-553,-671,0,0,0,0,0,0,0,0,0,-1,671,1695,0,0
-546,-671,0,0,0,0,0,0,0,0,0,-1,678,1695,0,0
-539,-671,0,0,0,0,0,0,0,0,0,-1,685,1695,0,0
-532,-671,0,0,0,0,0,0,0,0,0,-1,692,1695,0,0
-525,-671,0,0,0,0,0,0,0,0,0,-1,699,1695,0,0
-518,-671,0,0,0,0,0,0,0,0,0,-1,706,1695,0,0
-511,-671,0,0,0,0,0,0,0,0,0,-1,713,1695,0,0
-504,-671,0,0,0,0,0,0,0,0,0,-1,720,1695,0,0
-497,-671,0,0,0,0,0,0,0,0,0,-1,727,1695,0,0
-490,-671,0,0,0,0,0,0,0,0,0,-1,734,1695,0,0
-483,-671,0,0,0,0,0,0,0,0,0,-1,741,1695,0,0
-476,-671,0,0,0,0,0,0,0,0,0,-1,748,1695,0,0
-469,-671,0,0,0,0,0,0,0,0,0,-1,755,1695,0,0
-462,-671,0,0,0,0,0,0,0,0,0,-1,762,1695,0,0
-455,-671,0,0,0,0,0,0,0,0,0,-1,769,1695,0,0
-448,-671,0,0,0,0,0,0,0,0,0,-1,776,1695,0,0
-441,-671,0,0,0,0,0,0,0,0,0,-1,783,1695,0,0
-434,-671,0,0,0,0,0,0,0,0,0,-1,790,1695,0,0
-427,-671,0,0,0,0,0,0,0,0,0,-1,797,1695,0,0
-420,-671,0,0,0,0,0,0,0,0,0,-1,804,1695,0,0
-413,-671,0,0,0,0,0,0,0,0,0,-1,811,1695,0,0
-406,-671,0,0,0,0,0,0,0,0,0,-1,818,1695,0,0
-399,-671,0,0,0,0,0,0,0,0,0,-1,825,1695,0,0
-392,-671,0,0,0,0,0,0,0,0,0,-1,832,1695,0,0
-385,-671,0,0,0,0,0,0,0,0,0,-1,839,1695,0,0
-378,-671,0,0,0,0,0,0,0,0,0,-1,846,1695,0,0
-371,-671,0,0,0,0,0,0,0,0,0,-1,853,1695,0,0
-364,-671,-4.18738,7.51416,0,0,0,0,0,0,0,-1,860,1695,-4.18739,-7.51419
-357,-671,-5.02393,6.07129,0,0,0,0,0,0,0,-1,867,1695,-5.0239,-6.07135
-350,-671,-5.72333,4.58386,0,0,0,0,0,0,0,-1,874,1695,-5.72333,-4.58386
-343,-671,-6.4884,3.11353,0,0,0,0,0,0,0,-1,881,1695,-6.48839,-3.11349
-336,-671,3.0163,15.2433,0,0,0,0,0,0,0,-1,888,1695,3.01632,-15.2433
-329,-671,3.9389,15.3644,0,0,0,0,0,0,0,-1,895,1695,3.93891,-15.3643
-322,-671,5.02826,13.2017,0,0,0,0,0,0,0,-1,902,1695,5.02824,-13.2016
-315,-671,5.26031,16.0759,0,0,0,0,0,0,0,-1,909,1695,5.26029,-16.076
-308,-671,5.26025,16.0942,0,0,0,0,0,0,0,-1,916,1695,5.26023,-16.0943
-301,-671,5.35535,16.1561,0,0,0,0,0,0,0,-1,923,1695,5.35535,-16.1561
-294,-671,4.6189,16.6586,0,0,0,0,0,0,0,-1,930,1695,4.6189,-16.6586
-287,-671,4.75757,16.7527,-0.00579214,0.00283999,-0.00386677,0.00431878,-0.00727092,-1.20552,0.00676329,0.0467926,937,1695,4.75757,-16.7526
-280,-671,4.78186,16.95,-0.00492785,0.00328269,-0.00236722,0.0039163,-0.00556146,-1.30927,0.0054994,0.0390423,944,1695,4.78187,-16.9499
-273,-671,4.74915,17.2067,-0.00417702,0.00333992,-0.00135795,0.00357771,-0.00441481,-1.39744,0.00462291,0.0367712,951,1695,4.74913,-17.2067
-266,-671,4.74164,17.5493,-0.00328296,0.00334451,-0.00066388,0.00341036,-0.00334881,-1.47193,0.00390246,0.0284987,958,1695,4.74161,-17.5493
-259,-671,4.5733,17.7513,-0.00259914,0.00328688,8.93365e-05,0.00328824,-0.0026005,1.55562,0.00340758,0.0250795,965,1695,4.5733,-17.7513
-252,-671,4.59705,17.9154,-0.00207903,0.00292971,0.000503699,0.00297986,-0.00212918,1.47156,0.00296331,0.0165686,972,1695,4.59705,-17.9154
-245,-671,4.61761,18.1387,-0.00162037,0.00249589,0.000402687,0.00253491,-0.00165939,1.47419,0.00243911,0.0200547,979,1695,4.61764,-18.1387
-238,-671,4.66138,18.3798,-0.00117111,0.00193289,0.000419769,0.00198866,-0.00122687,1.43872,0.00187377,0.021459,986,1695,4.66137,-18.3798
-231,-671,4.65564,18.6179,-0.000629518,0.00132388,0.000605293,0.00149624,-0.00080187,1.2934,0.00134685,0.015575,993,1695,4.65562,-18.6179
-224,-671,4.59802,18.8259,7.60831e-05,0.000734332,0.000835401,0.0013031,-0.000492688,0.973048,0.00107142,0.0123337,1000,1695,4.598,-18.826
-217,-671,4.59656,19.0273,0.000588082,0.000288979,0.000987073,0.00143687,-0.000559807,0.710215,0.00118927,0.0118279,1007,1695,4.59658,-19.0274
-210,-671,4.60236,19.2443,0.00109732,-5.12306e-05,0.00109237,0.00175717,-0.000711085,0.543396,0.00146709,0.0114081,1014,1695,4.60236,-19.2443
-203,-671,4.60242,19.4347,0.00161854,-0.000136255,0.00114373,0.00218264,-0.000700364,0.458209,0.00173629,0.0184385,1021,1695,4.60239,-19.4347
-196,-671,4.59326,19.6304,0.00202038,-0.000242551,0.00125316,0.00257729,-0.000799463,0.418193,0.00203765,0.0146475,1028,1695,4.5933,-19.6303
-189,-671,4.59778,19.8568,0.00241112,-0.000225681,0.00120435,0.0028784,-0.000692954,0.370109,0.00218682,0.011317,1035,1695,4.5978,-19.8568
-182,-671,4.58472,20.027,0.00288752,6.21091e-05,0.00104921,0.00323452,-0.000284893,0.319404,0.00225731,0.00944892,1042,1695,4.58466,-20.027
-175,-671,4.59436,20.1792,0.00349823,0.000324614,0.000917681,0.00374448,7.83651e-05,0.262162,0.00247061,0.0121759,1049,1695,4.59432,-20.1792
-168,-671,4.59937,20.3439,0.00406906,0.000621138,0.000753913,0.0042267,0.000463497,0.206127,0.00267671,0.0132454,1056,1695,4.59933,-20.3439
-161,-671,4.60291,20.5436,0.00467266,0.000803396,0.000619342,0.00476938,0.000706677,0.154912,0.00297217,0.00916324,1063,1695,4.60285,-20.5436
-154,-671,4.61023,20.7028,0.0052335,0.00106216,0.000517685,0.00529679,0.000998877,0.121647,0.00324981,0.00871812,1070,1695,4.61027,-20.7028
-147,-671,4.61316,20.8649,0.00589658,0.0010973,0.000428058,0.00593446,0.00105942,0.0882636,0.00365472,0.0103909,1077,1695,4.61315,-20.8649
-140,-671,4.64587,21.035,0.00655277,0.00114983,0.00031718,0.00657132,0.00113128,0.0584375,0.00405671,0.0111295,1084,1695,4.64587,-21.035
-133,-671,4.65405,21.1886,0.00731434,0.000892632,0.000472085,0.00734886,0.000858113,0.072991,0.00463973,0.0129055,1091,1695,4.65405,-21.1886
-126,-671,4.68103,21.3777,0.00817414,0.000563089,0.000937835,0.008288,0.000449232,0.120813,0.00538184,0.0164946,1098,1695,4.68107,-21.3777
-119,-671,4.75037,21.5559,0.00908021,-3.22739e-05,0.0013961,0.0092893,-0.000241369,0.148666,0.00627487,0.0291169,1105,1695,4.75032,-21.5559
-112,-671,4.80896,21.7332,0.00982513,-0.000745956,0.0018551,0.0101412,-0.00106205,0.168772,0.00714121,0.0422383,1112,1695,4.80893,-21.7332
-105,-671,4.73328,21.7651,0,0,0,0,0,0,0,-1,1119,1695,4.73332,-21.7651
-98,-671,4.74707,21.7108,0,0,0,0,0,0,0,-1,1126,1695,4.74707,-21.7108
-91,-671,4.8584,21.6024,0,0,0,0,0,0,0,-1,1133,1695,4.8584,-21.6024
-84,-671,5.10901,21.8639,0,0,0,0,0,0,0,-1,1140,1695,5.109,-21.8639
-77,-671,4.31763,16.489,0,0,0,0,0,0,0,-1,1147,1695,4.31757,-16.489
-70,-671,3.06067,10.7737,0,0,0,0,0,0,0,-1,1154,1695,3.0607,-10.7737
-63,-671,2.94592,6.90198,0,0,0,0,0,0,0,-1,1161,1695,2.94594,-6.90198
-56,-671,-3.07678,2.87976,0,0,0,0,0,0,0,-1,1168,1695,-3.07675,-2.87979
-49,-671,-1.05957,4.76917,0,0,0,0,0,0,0,-1,1175,1695,-1.05958,-4.76921
-42,-671,0.539307,3.7865,0,0,0,0,0,0,0,-1,1182,1695,0.539266,-3.78648
-35,-671,-0.272461,0.347534,0,0,0,0,0,0,0,-1,1189,1695,-0.272434,-0.347569
-28,-671,-10.4878,17.2009,0,0,0,0,0,0,0,-1,1196,1695,-10.4878,-17.2009
-21,-671,4.66101,22.8862,0,0,0,0,0,0,0,-1,1203,1695,4.66097,-22.8862
-14,-671,5.01855,22.7747,0.0623345,0.000371154,0.0222999,0.0695254,-0.0068198,0.311938,0.0487827,0.0418222,1210,1695,5.01853,-22.7746
-7,-671,5.29187,22.6039,0.0597718,0.0056696,0.024099,0.0689495,-0.00350808,0.363874,0.0471792,0.0465833,1217,1695,5.29187,-22.6039
0,-671,5.52234,22.9202,0.0569536,0.013791,0.0246954,0.0681689,0.00257575,0.426295,0.0446121,0.0436452,1224,1695,5.52237,-22.9201
7,-671,6.82092,23.0911,0.0551488,0.02322,0.0237258,0.0677811,0.0105876,0.489255,0.0421043,0.0439363,1231,1695,6.8209,-23.091
14,-671,7.06152,23.3201,0.0537396,0.0331868,0.0214747,0.06727,0.0196564,0.562234,0.0399407,0.0448507,1238,1695,7.06158,-23.3201
21,-671,6.69287,23.5735,0,0,0,0,0,0,0,-1,1245,1695,6.69282,-23.5735
28,-671,6.00427,24.1255,0,0,0,0,0,0,0,-1,1252,1695,6.00431,-24.1255
35,-671,6.01331,24.2402,0,0,0,0,0,0,0,-1,1259,1695,6.01336,-24.2402
42,-671,5.88867,24.6381,0,0,0,0,0,0,0,-1,1266,1695,5.88864,-24.638
49,-671,6.6825,24.7894,0,0,0,0,0,0,0,-1,1273,1695,6.68245,-24.7895
56,-671,7.68774,24.4032,0,0,0,0,0,0,0,-1,1280,1695,7.6877,-24.4032
63,-671,6.58472,23.676,0,0,0,0,0,0,0,-1,1287,1695,6.58476,-23.676
70,-671,6.45374,22.9792,0.0178158,0.0590687,-0.00136352,0.0591137,0.0177707,-1.53779,0.0350221,0.0450075,1294,1695,6.45369,-22.9793
77,-671,6.5116,22.0894,0.0160596,0.0567945,-0.00494281,0.0573856,0.0154685,-1.45176,0.0342846,0.0438444,1301,1695,6.51158,-22.0893
84,-671,6.64612,21.3137,0.0154532,0.0554899,-0.00955744,0.0576544,0.0132887,-1.34808,0.0348614,0.0483503,1308,1695,6.64615,-21.3137
91,-671,4.08679,25.6578,0,0,0,0,0,0,0,-1,1315,1695,4.08677,-25.6579
98,-671,4.22876,24.4178,0.0200366,0.0496016,-0.0223669,0.0616295,0.00800861,-1.0774,0.0386941,0.0432578,1322,1695,4.22881,-24.4178
105,-671,4.38245,23.103,0.025111,0.0483244,-0.030459,0.0693132,0.00412221,-0.967434,0.0448979,0.0442548,1329,1695,4.38246,-23.1031
112,-671,4.62146,21.7965,0.0315816,0.0469805,-0.0393801,0.0794068,-0.000844713,-0.881938,0.0532217,0.0442865,1336,1695,4.62151,-21.7965
119,-671,6.90515,20.5541,0.0378411,0.045084,-0.0486972,0.0902942,-0.00736918,-0.822513,0.0627968,0.0459083,1343,1695,6.90513,-20.5541
126,-671,7.0625,19.1682,0,0,0,0,0,0,0,-1,1350,1695,7.06248,-19.1682
133,-671,5.47302,21.2086,0,0,0,0,0,0,0,-1,1357,1695,5.47304,-21.2086
140,-671,4.97681,21.3691,0,0,0,0,0,0,0,-1,1364,1695,4.97675,-21.3692
147,-671,4.52722,21.6387,0,0,0,0,0,0,0,-1,1371,1695,4.52719,-21.6386
154,-671,7.78174,22.9574,0,0,0,0,0,0,0,-1,1378,1695,7.78178,-22.9574
161,-671,4.49292,4.91272,0,0,0,0,0,0,0,-1,1385,1695,4.49297,-4.91273
168,-671,5.17639,6.1416,0,0,0,0,0,0,0,-1,1392,1695,5.1764,-6.14164
175,-671,5.6731,1.64685,0,0,0,0,0,0,0,-1,1399,1695,5.67313,-1.64691
182,-671,5.56812,1.71692,0,0,0,0,0,0,0,-1,1406,1695,5.56809,-1.71686
189,-671,6.98315,6.36169,0,0,0,0,0,0,0,-1,1413,1695,6.98312,-6.36175
196,-671,5.38123,5.69775,0,0,0,0,0,0,0,-1,1420,1695,5.38125,-5.69769
203,-671,5.95117,8.11658,0,0,0,0,0,0,0,-1,1427,1695,5.9512,-8.11662
210,-671,4.73596,8.39624,0,0,0,0,0,0,0,-1,1434,1695,4.736,-8.39618
217,-671,5.37097,11.863,0,0,0,0,0,0,0,-1,1441,1695,5.37094,-11.863
224,-671,5.08167,13.6694,0,0,0,0,0,0,0,-1,1448,1695,5.08165,-13.6695
231,-671,5.66663,15.3348,0,0,0,0,0,0,0,-1,1455,1695,5.66667,-15.3349
238,-671,6.32959,16.2036,0,0,0,0,0,0,0,-1,1462,1695,6.32961,-16.2037
245,-671,6.94043,20.5471,0,0,0,0,0,0,0,-1,1469,1695,6.9404,-20.5471
252,-671,6.62231,21.5105,0,0,0,0,0,0,0,-1,1476,1695,6.62226,-21.5105
259,-671,6.62244,21.7275,0,0,0,0,0,0,0,-1,1483,1695,6.6225,-21.7276
266,-671,6.62732,21.5597,0.00174426,0.000493242,0.000836987,0.00216364,7.38539e-05,0.464503,0.00141845,0.0338596,1490,1695,6.62733,-21.5598
273,-671,6.68628,21.47,0.00173722,0.000497647,0.000644503,0.00201159,0.000223275,0.402473,0.00127318,0.0126461,1497,1695,6.68629,-21.47
280,-671,6.68115,21.3422,0.00150848,0.00125429,0.000511218,0.00190816,0.000854604,0.663563,0.00110367,0.00942714,1504,1695,6.68115,-21.3422
287,-671,6.67737,21.1626,0.0012046,0.0018637,0.000381017,0.00203791,0.00103038,1.14195,0.00117662,0.0104019,1511,1695,6.67731,-21.1626
294,-671,6.67993,20.9937,0.000961955,0.00213387,0.000293867,0.00220343,0.000892395,1.33837,0.00127978,0.0105142,1518,1695,6.67991,-20.9937
301,-671,6.70728,20.8706,0.000779808,0.00229492,0.000204794,0.00232211,0.000752615,1.43878,0.00136804,0.0105821,1525,1695,6.70723,-20.8706
308,-671,6.72083,20.7394,0.000618333,0.00245715,7.51991e-05,0.00246022,0.000615263,1.52999,0.00147837,0.0117891,1532,1695,6.72083,-20.7394
315,-671,6.74768,20.5927,0.000497471,0.00250177,-4.03534e-05,0.00250258,0.000496659,-1.55067,0.00152995,0.0131718,1539,1695,6.74771,-20.5927
322,-671,6.76465,20.452,0.00038129,0.00254049,-0.000159053,0.00255214,0.000369637,-1.49766,0.00159258,0.014791,1546,1695,6.76465,-20.452
329,-671,6.70837,20.2751,0.000316925,0.0025152,-0.000336582,0.00256558,0.000266545,-1.42222,0.00162883,0.0140757,1553,1695,6.70836,-20.2751
336,-671,6.71985,20.0658,0.000348322,0.00265461,-0.000592129,0.00279775,0.000205179,-1.3336,0.00180067,0.0107686,1560,1695,6.7199,-20.0658
343,-671,6.73413,19.8689,0.000445488,0.00268727,-0.000935044,0.00302607,0.000106686,-1.22317,0.00198278,0.00942967,1567,1695,6.73415,-19.8689
350,-671,6.72998,19.7039,0.000526744,0.00257422,-0.00119025,0.00312043,-1.94632e-05,-1.14056,0.00208681,0.00974161,1574,1695,6.72993,-19.7039
357,-671,6.71216,19.495,0.000706133,0.00261733,-0.00150252,0.00344239,-0.000118924,-1.06863,0.00233558,0.0102956,1581,1695,6.71215,-19.495
364,-671,6.71655,19.2893,0.000922727,0.00272036,-0.0018676,0.00389417,-0.000251088,-1.00967,0.00268373,0.0130096,1588,1695,6.71661,-19.2893
371,-671,6.7146,19.1174,0.00127993,0.00280216,-0.0022821,0.00444672,-0.000364631,-0.946354,0.0030932,0.0140244,1595,1695,6.71465,-19.1174
378,-671,6.71838,18.9226,0.00169605,0.00283889,-0.00265272,0.00498104,-0.000446092,-0.891482,0.00347894,0.0114993,1602,1695,6.71837,-18.9226
385,-671,6.7041,18.6914,0.00218142,0.00296245,-0.00303736,0.0056343,-0.000490427,-0.849332,0.00392989,0.0136652,1609,1695,6.70408,-18.6914
392,-671,6.6521,18.5493,0.00266036,0.00297601,-0.00342301,0.00624483,-0.000608468,-0.808435,0.00438015,0.0219789,1616,1695,6.65206,-18.5493
399,-671,6.625,18.2913,0.003016,0.00255075,-0.00358395,0.00637486,-0.000808115,-0.75299,0.0045433,0.021041,1623,1695,6.62503,-18.2912
406,-671,6.70251,18.0089,0.00334226,0.00211238,-0.00362058,0.00639976,-0.000945112,-0.701279,0.00461392,0.0308559,1630,1695,6.70247,-18.0089
413,-671,6.7511,17.8566,0.00361371,0.00119093,-0.00316634,0.00579248,-0.000987837,-0.602697,0.00422956,0.041452,1637,1695,6.75107,-17.8565
420,-671,6.91101,17.6661,0,0,0,0,0,0,0,-1,1644,1695,6.91096,-17.6661
427,-671,7.3374,18.0701,0,0,0,0,0,0,0,-1,1651,1695,7.33739,-18.07
434,-671,8.3457,18.3202,0,0,0,0,0,0,0,-1,1658,1695,8.34567,-18.3202
441,-671,8.76074,18.2744,0,0,0,0,0,0,0,-1,1665,1695,8.76076,-18.2745
448,-671,6.11865,15.4597,0,0,0,0,0,0,0,-1,1672,1695,6.11868,-15.4597
455,-671,3.40137,9.28076,0,0,0,0,0,0,0,-1,1679,1695,3.40135,-9.28082
462,-671,5.86255,4.47961,0,0,0,0,0,0,0,-1,1686,1695,5.8625,-4.4796
469,-671,3.71301,3.76978,0,0,0,0,0,0,0,-1,1693,1695,3.71297,-3.76974
476,-671,3.75574,3.18848,0,0,0,0,0,0,0,-1,1700,1695,3.7558,-3.18847
483,-671,7.81824,12.1041,0,0,0,0,0,0,0,-1,1707,1695,7.81826,-12.1041
490,-671,0,0,0,0,0,0,0,0,0,-1,1714,1695,0,0
497,-671,0,0,0,0,0,0,0,0,0,-1,1721,1695,0,0
504,-671,0,0,0,0,0,0,0,0,0,-1,1728,1695,0,0
511,-671,0,0,0,0,0,0,0,0,0,-1,1735,1695,0,0
518,-671,0,0,0,0,0,0,0,0,0,-1,1742,1695,0,0
525,-671,0,0,0,0,0,0,0,0,0,-1,1749,1695,0,0
532,-671,0,0,0,0,0,0,0,0,0,-1,1756,1695,0,0
539,-671,0,0,0,0,0,0,0,0,0,-1,1763,1695,0,0
546,-671,0,0,0,0,0,0,0,0,0,-1,1770,1695,0,0
553,-671,0,0,0,0,0,0,0,0,0,-1,1777,1695,0,0
560,-671,0,0,0,0,0,0,0,0,0,-1,1784,1695,0,0
567,-671,0,0,0,0,0,0,0,0,0,-1,1791,1695,0,0
574,-671,0,0,0,0,0,0,0,0,0,-1,1798,1695,0,0
581,-671,0,0,0,0,0,0,0,0,0,-1,1805,1695,0,0
588,-671,0,0,0,0,0,0,0,0,0,-1,1812,1695,0,0
595,-671,0,0,0,0,0,0,0,0,0,-1,1819,1695,0,0
602,-671,0,0,0,0,0,0,0,0,0,-1,1826,1695,0,0
609,-671,0,0,0,0,0,0,0,0,0,-1,1833,1695,0,0
616,-671,0,0,0,0,0,0,0,0,0,-1,1840,1695,0,0
623,-671,0,0,0,0,0,0,0,0,0,-1,1847,1695,0,0
630,-671,0,0,0,0,0,0,0,0,0,-1,1854,1695,0,0
637,-671,0,0,0,0,0,0,0,0,0,-1,1861,1695,0,0
644,-671,0,0,0,0,0,0,0,0,0,-1,1868,1695,0,0
651,-671,0,0,0,0,0,0,0,0,0,-1,1875,1695,0,0
658,-671,0,0,0,0,0,0,0,0,0,-1,1882,1695,0,0
665,-671,0,0,0,0,0,0,0,0,0,-1,1889,1695,0,0
672,-671,0,0,0,0,0,0,0,0,0,-1,1896,1695,0,0
679,-671,0,0,0,0,0,0,0,0,0,-1,1903,1695,0,0
686,-671,0,0,0,0,0,0,0,0,0,-1,1910,1695,0,0
693,-671,0,0,0,0,0,0,0,0,0,-1,1917,1695,0,0
700,-671,0,0,0,0,0,0,0,0,0,-1,1924,1695,0,0
707,-671,0,0,0,0,0,0,0,0,0,-1,1931,1695,0,0
714,-671,0,0,0,0,0,0,0,0,0,-1,1938,1695,0,0
721,-671,0,0,0,0,0,0,0,0,0,-1,1945,1695,0,0
728,-671,0,0,0,0,0,0,0,0,0,-1,1952,1695,0,0
735,-671,0,0,0,0,0,0,0,0,0,-1,1959,1695,0,0
742,-671,0,0,0,0,0,0,0,0,0,-1,1966,1695,0,0
749,-671,0,0,0,0,0,0,0,0,0,-1,1973,1695,0,0
756,-671,0,0,0,0,0,0,0,0,0,-1,1980,1695,0,0
763,-671,0,0,0,0,0,0,0,0,0,-1,1987,1695,0,0
770,-671,0,0,0,0,0,0,0,0,0,-1,1994,1695,0,0
777,-671,0,0,0,0,0,0,0,0,0,-1,2001,1695,0,0
784,-671,0,0,0,0,0,0,0,0,0,-1,2008,1695,0,0
791,-671,0,0,0,0,0,0,0,0,0,-1,2015,1695,0,0
798,-671,0,0,0,0,0,0,0,0,0,-1,2022,1695,0,0
805,-671,0,0,0,0,0,0,0,0,0,-1,2029,1695,0,0
812,-671,0,0,0,0,0,0,0,0,0,-1,2036,1695,0,0
-700,-678,0,0,0,0,0,0,0,0,0,-1,524,1702,0,0
-693,-678,0,0,0,0,0,0,0,0,0,-1,531,1702,0,0
-686,-678,0,0,0,0,0,0,0,0,0,-1,538,1702,0,0
-679,-678,0,0,0,0,0,0,0,0,0,-1,545,1702,0,0
-672,-678,0,0,0,0,0,0,0,0,0,-1,552,1702,0,0
-665,-678,0,0,0,0,0,0,0,0,0,-1,559,1702,0,0
-658,-678,0,0,0,0,0,0,0,0,0,-1,566,1702,0,0
-651,-678,0,0,0,0,0,0,0,0,0,-1,573,1702,0,0
-644,-678,0,0,0,0,0,0,0,0,0,-1,580,1702,0,0
-637,-678,0,0,0,0,0,0,0,0,0,-1,587,1702,0,0
-630,-678,0,0,0,0,0,0,0,0,0,-1,594,1702,0,0
-623,-678,0,0,0,0,0,0,0,0,0,-1,601,1702,0,0
-616,-678,0,0,0,0,0,0,0,0,0,-1,608,1702,0,0
-609,-678,0,0,0,0,0,0,0,0,0,-1,615,1702,0,0
-602,-678,0,0,0,0,0,0,0,0,0,-1,622,1702,0,0
-595,-678,0,0,0,0,0,0,0,0,0,-1,629,1702,0,0
-588,-678,0,0,0,0,0,0,0,0,0,-1,636,1702,0,0
-581,-678,0,0,0,0,0,0,0,0,0,-1,643,1702,0,0
-574,-678,0,0,0,0,0,0,0,0,0,-1,650,1702,0,0
-567,-678,0,0,0,0,0,0,0,0,0,-1,657,1702,0,0
-560,-678,0,0,0,0,0,0,0,0,0,-1,664,1702,0,0
-553,-678,0,0,0,0,0,0,0,0,0,-1,671,1702,0,0
-546,-678,0,0,0,0,0,0,0,0,0,-1,678,1702,0,0
-539,-678,0,0,0,0,0,0,0,0,0,-1,685,1702,0,0
-532,-678,0,0,0,0,0,0,0,0,0,-1,692,1702,0,0
-525,-678,0,0,0,0,0,0,0,0,0,-1,699,1702,0,0
-518,-678,0,0,0,0,0,0,0,0,0,-1,706,1702,0,0
-511,-678,0,0,0,0,0,0,0,0,0,-1,713,1702,0,0
-504,-678,0,0,0,0,0,0,0,0,0,-1,720,1702,0,0
-497,-678,0,0,0,0,0,0,0,0,0,-1,727,1702,0,0
-490,-678,0,0,0,0,0,0,0,0,0,-1,734,1702,0,0
-483,-678,0,0,0,0,0,0,0,0,0,-1,741,1702,0,0
-476,-678,0,0,0,0,0,0,0,0,0,-1,748,1702,0,0
-469,-678,0,0,0,0,0,0,0,0,0,-1,755,1702,0,0
-462,-678,0,0,0,0,0,0,0,0,0,-1,762,1702,0,0
-455,-678,0,0,0,0,0,0,0,0,0,-1,769,1702,0,0
-448,-678,0,0,0,0,0,0,0,0,0,-1,776,1702,0,0
-441,-678,0,0,0,0,0,0,0,0,0,-1,783,1702,0,0
-434,-678,0,0,0,0,0,0,0,0,0,-1,790,1702,0,0
-427,-678,0,0,0,0,0,0,0,0,0,-1,797,1702,0,0
-420,-678,0,0,0,0,0,0,0,0,0,-1,804,1702,0,0
-413,-678,0,0,0,0,0,0,0,0,0,-1,811,1702,0,0
-406,-678,0,0,0,0,0,0,0,0,0,-1,818,1702,0,0
-399,-678,0,0,0,0,0,0,0,0,0,-1,825,1702,0,0
-392,-678,0,0,0,0,0,0,0,0,0,-1,832,1702,0,0
-385,-678,0,0,0,0,0,0,0,0,0,-1,839,1702,0,0
-378,-678,0,0,0,0,0,0,0,0,0,-1,846,1702,0,0
-371,-678,0,0,0,0,0,0,0,0,0,-1,853,1702,0,0
-364,-678,0,0,0,0,0,0,0,0,0,-1,860,1702,0,0
-357,-678,0,0,0,0,0,0,0,0,0,-1,867,1702,0,0
-350,-678,-5.79944,6.11865,0,0,0,0,0,0,0,-1,874,1702,-5.79942,-6.11864
-343,-678,-6.44891,4.52759,0,0,0,0,0,0,0,-1,881,1702,-6.4489,-4.52758
-336,-678,-6.91888,2.99438,0,0,0,0,0,0,0,-1,888,1702,-6.9189,-2.99435
-329,-678,-7.14575,1.29761,0,0,0,0,0,0,0,-1,895,1702,-7.14577,-1.29755
-322,-678,4.74548,15.4724,0,0,0,0,0,0,0,-1,902,1702,4.7455,-15.4724
-315,-678,6.36914,15.9497,0,0,0,0,0,0,0,-1,909,1702,6.36912,-15.9497
-308,-678,6.02612,16.2006,0,0,0,0,0,0,0,-1,916,1702,6.0261,-16.2006
-301,-678,5.67883,16.3301,0,0,0,0,0,0,0,-1,923,1702,5.67884,-16.3301
-294,-678,5.58325,16.2029,0,0,0,0,0,0,0,-1,930,1702,5.58325,-16.2028
-287,-678,5.19434,16.5786,0,0,0,0,0,0,0,-1,937,1702,5.19436,-16.5786
-280,-678,5.25336,16.8979,-0.00666945,0.00526052,-0.00287162,0.00591575,-0.00732468,-1.34646,0.00765878,0.0479852,944,1702,5.25336,-16.8979
-273,-678,4.87628,17.1603,-0.00556453,0.00493453,-0.00162808,0.0051812,-0.0058112,-1.42043,0.00634994,0.046846,951,1702,4.87627,-17.1602
-266,-678,4.83661,17.4502,-0.00441726,0.00463011,-0.000793388,0.00469915,-0.00448631,-1.48399,0.0053037,0.0402053,958,1702,4.83663,-17.4502
-259,-678,4.81226,17.7566,-0.00337597,0.00433239,6.96428e-05,0.00433302,-0.0033766,1.56176,0.00446255,0.0258923,965,1702,4.81228,-17.7565
-252,-678,4.81824,17.9036,-0.00269054,0.00379139,0.000600646,0.00384658,-0.00274573,1.47917,0.00382372,0.0199931,972,1702,4.81825,-17.9035
-245,-678,4.8421,18.1428,-0.00210045,0.00306823,0.000469686,0.00311057,-0.00214279,1.48091,0.00305013,0.0191601,979,1702,4.84207,-18.1428
-238,-678,4.84381,18.3837,-0.00155013,0.0023258,0.000466202,0.00238109,-0.00160542,1.45276,0.00231609,0.0157716,986,1702,4.84381,-18.3837
-231,-678,4.80292,18.6273,-0.000971007,0.0016588,0.000619164,0.00179728,-0.00110949,1.35075,0.00169381,0.012795,993,1702,4.80291,-18.6273
-224,-678,4.77283,18.8258,-0.00019059,0.00103755,0.000784021,0.00141936,-0.000572397,1.11761,0.00118409,0.013078,1000,1702,4.77285,-18.8258
-217,-678,4.78772,19.0377,0.000311968,0.00058477,0.000812005,0.00127175,-0.000375012,0.868611,0.00099664,0.0135302,1007,1702,4.78773,-19.0377
-210,-678,4.79291,19.2594,0.000769827,0.000331041,0.000946229,0.00152176,-0.000420897,0.671481,0.0011801,0.013693,1014,1702,4.79292,-19.2594
-203,-678,4.79749,19.45,0.00119326,0.000346137,0.00107858,0.00192846,-0.000389071,0.598299,0.00143305,0.017076,1021,1702,4.79748,-19.45
-196,-678,4.77795,19.6411,0.00151737,0.000335598,0.00120897,0.00227212,-0.000419158,0.558094,0.00167207,0.0164247,1028,1702,4.77801,-19.6411
-189,-678,4.77209,19.8616,0.00186077,0.000397553,0.00119156,0.0025274,-0.000269076,0.510076,0.00178141,0.0103966,1035,1702,4.77208,-19.8616
-182,-678,4.78003,20.0363,0.00222758,0.000678926,0.00110139,0.00279959,0.000106911,0.479014,0.0018318,0.00951704,1042,1702,4.78006,-20.0363
-175,-678,4.78247,20.2067,0.00267304,0.000916988,0.00105902,0.00317068,0.00041935,0.439283,0.0019888,0.0100003,1049,1702,4.78243,-20.2067
-168,-678,4.78247,20.3831,0.00308452,0.00114568,0.00099483,0.00350415,0.000726047,0.399166,0.00213563,0.0101841,1056,1702,4.78253,-20.383
-161,-678,4.77637,20.5592,0.00348427,0.00121147,0.00092812,0.00381512,0.000880621,0.342426,0.0023066,0.0093295,1063,1702,4.77632,-20.5592
-154,-678,4.77991,20.7169,0.0039188,0.00130029,0.000831504,0.00416053,0.00105856,0.282913,0.00249679,0.00835401,1070,1702,4.7799,-20.7169
-147,-678,4.78076,20.8779,0.00436933,0.00119347,0.000726843,0.00452777,0.00103503,0.214632,0.00273948,0.00994164,1077,1702,4.78074,-20.8779
-140,-678,4.79846,21.0403,0.00479177,0.00102235,0.00064436,0.00489887,0.000915243,0.164715,0.00300762,0.0114938,1084,1702,4.79852,-21.0403
-133,-678,4.7998,21.1941,0.00530307,0.00063021,0.000704148,0.00540687,0.000526409,0.14636,0.00344255,0.0120935,1091,1702,4.79983,-21.1941
-126,-678,4.80322,21.3546,0.00592377,0.000280417,0.000941781,0.00607679,0.000127399,0.16107,0.0040094,0.0096868,1098,1702,4.80326,-21.3546
-119,-678,4.84705,21.582,0.00654856,-0.000227412,0.0011829,0.00674913,-0.000427977,0.167956,0.00464865,0.0203581,1105,1702,4.84702,-21.5821
-112,-678,4.87659,21.7524,0.00706479,-0.000773333,0.00144223,0.00732174,-0.00103028,0.176311,0.00525834,0.030768,1112,1702,4.87664,-21.7524
-105,-678,4.94507,21.8389,0.00742042,-0.00111719,0.00218014,0.00794492,-0.00164168,0.236091,0.0059202,0.0331331,1119,1702,4.94504,-21.8389
-98,-678,4.90503,21.8262,0.0075896,-0.00138291,0.00302358,0.00851338,-0.00230669,0.296519,0.00658065,0.0229703,1126,1702,4.90508,-21.8262
-91,-678,4.94531,21.9271,0.00801462,-0.00137615,0.00314048,0.00896806,-0.00232959,0.294754,0.00688783,0.0220388,1133,1702,4.94532,-21.9271
-84,-678,5.04236,22.0101,0.00863197,-0.00136279,0.00316781,0.00955141,-0.00228223,0.282485,0.00724911,0.0406589,1140,1702,5.04237,-22.0102
-77,-678,5.11353,22.2922,0,0,0,0,0,0,0,-1,1147,1702,5.11351,-22.2923
-70,-678,4.75891,19.6552,0,0,0,0,0,0,0,-1,1154,1702,4.75895,-19.6551
-63,-678,3.41687,11.0365,0,0,0,0,0,0,0,-1,1161,1702,3.41682,-11.0365
-56,-678,1.72388,6.13159,0,0,0,0,0,0,0,-1,1168,1702,1.72388,-6.13157
-49,-678,-0.241699,5.29895,0,0,0,0,0,0,0,-1,1175,1702,-0.241682,-5.29897
-42,-678,0.297119,3.90649,0,0,0,0,0,0,0,-1,1182,1702,0.297139,-3.90655
-35,-678,0.498413,3.64038,0,0,0,0,0,0,0,-1,1189,1702,0.498471,-3.64038
-28,-678,0.132446,3.55994,0,0,0,0,0,0,0,-1,1196,1702,0.132432,-3.55993
-21,-678,5.25391,22.7902,0,0,0,0,0,0,0,-1,1203,1702,5.25391,-22.7902
-14,-678,5.26978,22.7601,0.0489101,0.00135218,0.0198124,0.0560823,-0.00581998,0.347327,0.0394715,0.0395672,1210,1702,5.26979,-22.7602
-7,-678,5.32251,22.725,0.0474304,0.00565982,0.021083,0.0562215,-0.0031313,0.395055,0.0385671,0.0434162,1217,1702,5.32255,-22.7249
0,-678,5.30811,23.0919,0,0,0,0,0,0,0,-1,1224,1702,5.30816,-23.0919
7,-678,5.69226,23.7712,0,0,0,0,0,0,0,-1,1231,1702,5.69228,-23.7713
14,-678,6.27686,23.4908,0.0434943,0.0258437,0.0192541,0.0558494,0.0134886,0.570507,0.0336502,0.0455122,1238,1702,6.27689,-23.4908
21,-678,6.29639,23.3446,0.0412436,0.0321474,0.0165031,0.0538138,0.0195772,0.650941,0.0314513,0.0428542,1245,1702,6.2964,-23.3446
28,-678,6.3645,23.2084,0,0,0,0,0,0,0,-1,1252,1702,6.3645,-23.2083
35,-678,5.73718,24.0085,0.0343141,0.0397964,0.0121164,0.0494779,0.0246327,0.896642,0.0285661,0.0437459,1259,1702,5.73724,-24.0085
42,-678,5.90161,23.9591,0.029696,0.0424969,0.0119995,0.0496962,0.0224967,1.0304,0.0287349,0.0430381,1266,1702,5.90165,-23.9591
49,-678,6.68921,23.8834,0.0235281,0.044941,0.00972352,0.0486974,0.0197717,1.20213,0.0282806,0.0426697,1273,1702,6.68918,-23.8834
56,-678,5.53125,23.296,0,0,0,0,0,0,0,-1,1280,1702,5.5312,-23.296
63,-678,5.25208,23.2384,0,0,0,0,0,0,0,-1,1287,1702,5.25212,-23.2385
70,-678,6.60339,23.0336,0.016832,0.0450494,-7.36432e-05,0.0450496,0.0168318,-1.56819,0.0262848,0.0449749,1294,1702,6.60336,-23.0335
77,-678,6.43628,22.3497,0.0158199,0.0433328,-0.00317871,0.0436953,0.0154574,-1.45725,0.0255847,0.0434891,1301,1702,6.43631,-22.3497
84,-678,6.47009,21.7328,0.0155619,0.0424077,-0.0071518,0.0441941,0.0137755,-1.32602,0.0261116,0.0454435,1308,1702,6.4701,-21.7328
91,-678,6.47021,25.1526,0.0168754,0.0392114,-0.0122406,0.0446131,0.0114737,-1.1552,0.0267507,0.0431259,1315,1702,6.47021,-25.1526
98,-678,4.76782,23.9618,0.0190844,0.0374439,-0.0177082,0.0482102,0.00831802,-1.02452,0.0297575,0.03929,1322,1702,4.76784,-23.9617
105,-678,5.16772,22.5005,0.0225975,0.036289,-0.023969,0.0543707,0.00451587,-0.924499,0.0348395,0.0373737,1329,1702,5.16778,-22.5005
112,-678,5.90759,21.2439,0.0270791,0.0350845,-0.0305638,0.0619066,0.00025709,-0.850509,0.0411856,0.0410761,1336,1702,5.90755,-21.244
119,-678,6.69202,20.0177,0.0314185,0.0334159,-0.0374023,0.0698328,-0.0049984,-0.798746,0.0483076,0.0437963,1343,1702,6.69196,-20.0177
126,-678,7.37134,18.8121,0,0,0,0,0,0,0,-1,1350,1702,7.37129,-18.8122
133,-678,6.34607,23.5502,0.0363344,0.03,-0.04747,0.0807427,-0.0144083,-0.752088,0.0592184,0.0483062,1357,1702,6.34611,-23.5502
140,-678,5.24963,21.9373,0.0363034,0.02724,-0.0507948,0.0827682,-0.0192249,-0.740908,0.0625793,0.0481709,1364,1702,5.24962,-21.9372
147,-678,5.09497,22.288,0.035224,0.0273438,-0.0520012,0.0834342,-0.0208663,-0.747586,0.0637273,0.0456594,1371,1702,5.095,-22.288
154,-678,5.61768,22.7012,0,0,0,0,0,0,0,-1,1378,1702,5.61768,-22.7011
161,-678,3.44202,4.53992,0,0,0,0,0,0,0,-1,1385,1702,3.442,-4.53996
168,-678,4.21863,5.25781,0,0,0,0,0,0,0,-1,1392,1702,4.21865,-5.25781
175,-678,5.21899,5.9635,0,0,0,0,0,0,0,-1,1399,1702,5.21894,-5.96346
182,-678,7.31262,6.75122,0,0,0,0,0,0,0,-1,1406,1702,7.3126,-6.75123
189,-678,5.96021,6.36853,0,0,0,0,0,0,0,-1,1413,1702,5.96018,-6.36851
196,-678,5.01599,8.15771,0,0,0,0,0,0,0,-1,1420,1702,5.01596,-8.15767
203,-678,4.64771,13.0559,0,0,0,0,0,0,0,-1,1427,1702,4.64766,-13.0559
210,-678,5.6532,18.5957,0,0,0,0,0,0,0,-1,1434,1702,5.65318,-18.5958
217,-678,6.72241,22.8346,0,0,0,0,0,0,0,-1,1441,1702,6.72238,-22.8346
224,-678,6.45862,22.3579,0,0,0,0,0,0,0,-1,1448,1702,6.45859,-22.3579
231,-678,6.42273,22.1793,0,0,0,0,0,0,0,-1,1455,1702,6.42271,-22.1793
238,-678,6.48083,22.1194,0,0,0,0,0,0,0,-1,1462,1702,6.48081,-22.1193
245,-678,6.48096,22.0244,0,0,0,0,0,0,0,-1,1469,1702,6.48096,-22.0244
252,-678,6.49744,21.8529,0.00132042,0.000117493,0.00124908,0.00210531,-0.000667394,0.561019,0.00167104,0.0313538,1476,1702,6.49742,-21.8529
259,-678,6.49463,21.7831,0.00132445,0.000144607,0.000990774,0.00188763,-0.000418571,0.516877,0.00141868,0.016808,1483,1702,6.49467,-21.7831
266,-678,6.52856,21.656,0.00134228,0.000142634,0.000751663,0.00170412,-0.0002192,0.448639,0.00121575,0.0109875,1490,1702,6.52857,-21.656
273,-678,6.54663,21.5077,0.00129584,0.000143839,0.000603154,0.00155385,-0.00011417,0.404212,0.00107597,0.011236,1497,1702,6.54662,-21.5077
280,-678,6.54004,21.37,0.00108012,0.000668037,0.000517285,0.00143089,0.000317269,0.595873,0.000867723,0.0120619,1504,1702,6.54006,-21.37
287,-678,6.54382,21.2002,0.000797537,0.00111139,0.000450066,0.0014311,0.000477823,0.953144,0.00084131,0.011654,1511,1702,6.54383,-21.2003
294,-678,6.5437,21.0193,0.000546684,0.00134715,0.000400504,0.00151312,0.00038071,1.17793,0.000908824,0.0113967,1518,1702,6.54367,-21.0193
301,-678,6.5376,20.8717,0.000338585,0.00150428,0.000321368,0.00158701,0.000255858,1.31885,0.000983872,0.011502,1525,1702,6.53756,-20.8717
308,-678,6.54565,20.7415,0.000157411,0.0017104,0.000169592,0.0017287,0.000139107,1.46328,0.00110901,0.0132686,1532,1702,6.54565,-20.7414
315,-678,6.57458,20.6088,1.9682e-05,0.0017957,2.59265e-05,0.00179608,1.93036e-05,1.5562,0.00119101,0.0146621,1539,1702,6.57464,-20.6088
322,-678,6.57385,20.446,-9.97291e-05,0.00189593,-0.000143157,0.00190614,-0.000109946,-1.49955,0.00130895,0.0173217,1546,1702,6.57384,-20.4461
329,-678,6.53735,20.2568,-0.000141599,0.0020031,-0.000392277,0.0020726,-0.000211097,-1.39545,0.0014572,0.0154452,1553,1702,6.53729,-20.2568
336,-678,6.5293,20.0508,-8.3802e-06,0.00234578,-0.000772879,0.00257684,-0.00023944,-1.28029,0.00180302,0.0127315,1560,1702,6.52927,-20.0508
343,-678,6.53552,19.8788,0.000203226,0.00258363,-0.00126257,0.00312856,-0.000341696,-1.16335,0.00220843,0.0110515,1567,1702,6.53553,-19.8787
350,-678,6.53687,19.7057,0.000358298,0.00267611,-0.00165151,0.00353477,-0.000500359,-1.09134,0.00253978,0.0107748,1574,1702,6.53685,-19.7057
357,-678,6.5354,19.5015,0.000665995,0.00303381,-0.00213572,0.00429181,-0.000592011,-1.03848,0.00307758,0.00907657,1581,1702,6.53541,-19.5015
364,-678,6.53503,19.3036,0.00107406,0.00340396,-0.00266853,0.00515074,-0.000672716,-0.991205,0.00367863,0.0119404,1588,1702,6.53504,-19.3035
371,-678,6.52722,19.1276,0.00165906,0.00375244,-0.00326011,0.00612976,-0.000718265,-0.940731,0.00434576,0.0122633,1595,1702,6.52722,-19.1276
378,-678,6.53601,18.9031,0.00229576,0.00408639,-0.00378959,0.00708499,-0.00070284,-0.9014,0.00497419,0.0143784,1602,1702,6.53606,-18.903
385,-678,6.53064,18.7239,0.00301992,0.00459394,-0.00433922,0.00821695,-0.000603087,-0.875108,0.00568966,0.0201776,1609,1702,6.53069,-18.7239
392,-678,6.4917,18.6157,0.00378278,0.00496361,-0.00491252,0.00932107,-0.000574673,-0.845204,0.00641419,0.0355666,1616,1702,6.49171,-18.6158
399,-678,6.354,18.4907,0.00443737,0.00466944,-0.00518759,0.0097423,-0.00063548,-0.79658,0.00671672,0.0434286,1623,1702,6.35401,-18.4907
406,-678,6.35486,18.2761,0,0,0,0,0,0,0,-1,1630,1702,6.3548,-18.2761
413,-678,6.63318,17.8228,0,0,0,0,0,0,0,-1,1637,1702,6.63315,-17.8228
420,-678,6.60071,17.4585,0,0,0,0,0,0,0,-1,1644,1702,6.60066,-17.4585
427,-678,4.57483,10.1555,0,0,0,0,0,0,0,-1,1651,1702,4.57485,-10.1555
434,-678,6.75635,16.0447,0,0,0,0,0,0,0,-1,1658,1702,6.75629,-16.0446
441,-678,6.47717,15.7784,0,0,0,0,0,0,0,-1,1665,1702,6.47721,-15.7784
448,-678,3.25525,9.74719,0,0,0,0,0,0,0,-1,1672,1702,3.25522,-9.7472
455,-678,5.44678,5.54297,0,0,0,0,0,0,0,-1,1679,1702,5.44676,-5.54294
462,-678,3.86792,2.87402,0,0,0,0,0,0,0,-1,1686,1702,3.86796,-2.87406
469,-678,2.26587,1.98755,0,0,0,0,0,0,0,-1,1693,1702,2.26592,-1.98755
476,-678,0,0,0,0,0,0,0,0,0,-1,1700,1702,0,0
483,-678,0,0,0,0,0,0,0,0,0,-1,1707,1702,0,0
490,-678,0,0,0,0,0,0,0,0,0,-1,1714,1702,0,0
497,-678,0,0,0,0,0,0,0,0,0,-1,1721,1702,0,0
504,-678,0,0,0,0,0,0,0,0,0,-1,1728,1702,0,0
511,-678,0,0,0,0,0,0,0,0,0,-1,1735,1702,0,0
518,-678,0,0,0,0,0,0,0,0,0,-1,1742,1702,0,0
525,-678,0,0,0,0,0,0,0,0,0,-1,1749,1702,0,0
532,-678,0,0,0,0,0,0,0,0,0,-1,1756,1702,0,0
539,-678,0,0,0,0,0,0,0,0,0,-1,1763,1702,0,0
546,-678,0,0,0,0,0,0,0,0,0,-1,1770,1702,0,0
553,-678,0,0,0,0,0,0,0,0,0,-1,1777,1702,0,0
560,-678,0,0,0,0,0,0,0,0,0,-1,1784,1702,0,0
567,-678,0,0,0,0,0,0,0,0,0,-1,1791,1702,0,0
574,-678,0,0,0,0,0,0,0,0,0,-1,1798,1702,0,0
581,-678,0,0,0,0,0,0,0,0,0,-1,1805,1702,0,0
588,-678,0,0,0,0,0,0,0,0,0,-1,1812,1702,0,0
595,-678,0,0,0,0,0,0,0,0,0,-1,1819,1702,0,0
602,-678,0,0,0,0,0,0,0,0,0,-1,1826,1702,0,0
609,-678,0,0,0,0,0,0,0,0,0,-1,1833,1702,0,0
616,-678,0,0,0,0,0,0,0,0,0,-1,1840,1702,0,0
623,-678,0,0,0,0,0,0,0,0,0,-1,1847,1702,0,0
630,-678,0,0,0,0,0,0,0,0,0,-1,1854,1702,0,0
637,-678,0,0,0,0,0,0,0,0,0,-1,1861,1702,0,0
644,-678,0,0,0,0,0,0,0,0,0,-1,1868,1702,0,0
651,-678,0,0,0,0,0,0,0,0,0,-1,1875,1702,0,0
658,-678,0,0,0,0,0,0,0,0,0,-1,1882,1702,0,0
665,-678,0,0,0,0,0,0,0,0,0,-1,1889,1702,0,0
672,-678,0,0,0,0,0,0,0,0,0,-1,1896,1702,0,0
679,-678,0,0,0,0,0,0,0,0,0,-1,1903,1702,0,0
686,-678,0,0,0,0,0,0,0,0,0,-1,1910,1702,0,0
693,-678,0,0,0,0,0,0,0,0,0,-1,1917,1702,0,0
700,-678,0,0,0,0,0,0,0,0,0,-1,1924,1702,0,0
707,-678,0,0,0,0,0,0,0,0,0,-1,1931,1702,0,0
714,-678,0,0,0,0,0,0,0,0,0,-1,1938,1702,0,0
721,-678,0,0,0,0,0,0,0,0,0,-1,1945,1702,0,0
728,-678,0,0,0,0,0,0,0,0,0,-1,1952,1702,0,0
735,-678,0,0,0,0,0,0,0,0,0,-1,1959,1702,0,0
742,-678,0,0,0,0,0,0,0,0,0,-1,1966,1702,0,0
749,-678,0,0,0,0,0,0,0,0,0,-1,1973,1702,0,0
756,-678,0,0,0,0,0,0,0,0,0,-1,1980,1702,0,0
763,-678,0,0,0,0,0,0,0,0,0,-1,1987,1702,0,0
770,-678,0,0,0,0,0,0,0,0,0,-1,1994,1702,0,0
777,-678,0,0,0,0,0,0,0,0,0,-1,2001,1702,0,0
784,-678,0,0,0,0,0,0,0,0,0,-1,2008,1702,0,0
791,-678,0,0,0,0,0,0,0,0,0,-1,2015,1702,0,0
798,-678,0,0,0,0,0,0,0,0,0,-1,2022,1702,0,0
805,-678,0,0,0,0,0,0,0,0,0,-1,2029,1702,0,0
812,-678,0,0,0,0,0,0,0,0,0,-1,2036,1702,0,0
-700,-685,0,0,0,0,0,0,0,0,0,-1,524,1709,0,0
-693,-685,0,0,0,0,0,0,0,0,0,-1,531,1709,0,0
-686,-685,0,0,0,0,0,0,0,0,0,-1,538,1709,0,0
-679,-685,0,0,0,0,0,0,0,0,0,-1,545,1709,0,0
-672,-685,0,0,0,0,0,0,0,0,0,-1,552,1709,0,0
-665,-685,0,0,0,0,0,0,0,0,0,-1,559,1709,0,0
-658,-685,0,0,0,0,0,0,0,0,0,-1,566,1709,0,0
-651,-685,0,0,0,0,0,0,0,0,0,-1,573,1709,0,0
-644,-685,0,0,0,0,0,0,0,0,0,-1,580,1709,0,0
-637,-685,0,0,0,0,0,0,0,0,0,-1,587,1709,0,0
-630,-685,0,0,0,0,0,0,0,0,0,-1,594,1709,0,0
-623,-685,0,0,0,0,0,0,0,0,0,-1,601,1709,0,0
-616,-685,0,0,0,0,0,0,0,0,0,-1,608,1709,0,0
-609,-685,0,0,0,0,0,0,0,0,0,-1,615,1709,0,0
-602,-685,0,0,0,0,0,0,0,0,0,-1,622,1709,0,0
-595,-685,0,0,0,0,0,0,0,0,0,-1,629,1709,0,0
-588,-685,0,0,0,0,0,0,0,0,0,-1,636,1709,0,0
-581,-685,0,0,0,0,0,0,0,0,0,-1,643,1709,0,0
-574,-685,0,0,0,0,0,0,0,0,0,-1,650,1709,0,0
-567,-685,0,0,0,0,0,0,0,0,0,-1,657,1709,0,0
-560,-685,0,0,0,0,0,0,0,0,0,-1,664,1709,0,0
-553,-685,0,0,0,0,0,0,0,0,0,-1,671,1709,0,0
-546,-685,0,0,0,0,0,0,0,0,0,-1,678,1709,0,0
-539,-685,0,0,0,0,0,0,0,0,0,-1,685,1709,0,0
-532,-685,0,0,0,0,0,0,0,0,0,-1,692,1709,0,0
-525,-685,0,0,0,0,0,0,0,0,0,-1,699,1709,0,0
-518,-685,0,0,0,0,0,0,0,0,0,-1,706,1709,0,0
-511,-685,0,0,0,0,0,0,0,0,0,-1,713,1709,0,0
-504,-685,0,0,0,0,0,0,0,0,0,-1,720,1709,0,0
-497,-685,0,0,0,0,0,0,0,0,0,-1,727,1709,0,0
-490,-685,0,0,0,0,0,0,0,0,0,-1,734,1709,0,0
-483,-685,0,0,0,0,0,0,0,0,0,-1,741,1709,0,0
-476,-685,0,0,0,0,0,0,0,0,0,-1,748,1709,0,0
-469,-685,0,0,0,0,0,0,0,0,0,-1,755,1709,0,0
-462,-685,0,0,0,0,0,0,0,0,0,-1,762,1709,0,0
-455,-685,0,0,0,0,0,0,0,0,0,-1,769,1709,0,0
-448,-685,0,0,0,0,0,0,0,0,0,-1,776,1709,0,0
-441,-685,0,0,0,0,0,0,0,0,0,-1,783,1709,0,0
-434,-685,0,0,0,0,0,0,0,0,0,-1,790,1709,0,0
-427,-685,0,0,0,0,0,0,0,0,0,-1,797,1709,0,0
-420,-685,0,0,0,0,0,0,0,0,0,-1,804,1709,0,0
-413,-685,0,0,0,0,0,0,0,0,0,-1,811,1709,0,0
-406,-685,0,0,0,0,0,0,0,0,0,-1,818,1709,0,0
-399,-685,0,0,0,0,0,0,0,0,0,-1,825,1709,0,0
-392,-685,0,0,0,0,0,0,0,0,0,-1,832,1709,0,0
-385,-685,0,0,0,0,0,0,0,0,0,-1,839,1709,0,0
-378,-685,0,0,0,0,0,0,0,0,0,-1,846,1709,0,0
-371,-685,0,0,0,0,0,0,0,0,0,-1,853,1709,0,0
-364,-685,0,0,0,0,0,0,0,0,0,-1,860,1709,0,0
-357,-685,0,0,0,0,0,0,0,0,0,-1,867,1709,0,0
-350,-685,0,0,0,0,0,0,0,0,0,-1,874,1709,0,0
-343,-685,-5.98505,6.56335,0,0,0,0,0,0,0,-1,881,1709,-5.98505,-6.56329
-336,-685,-6.51312,5.10571,0,0,0,0,0,0,0,-1,888,1709,-6.51311,-5.10575
-329,-685,-6.81384,3.34106,0,0,0,0,0,0,0,-1,895,1709,-6.81385,-3.341
-322,-685,3.83191,16.7219,0,0,0,0,0,0,0,-1,902,1709,3.8319,-16.7219
-315,-685,4.36914,16.3297,0,0,0,0,0,0,0,-1,909,1709,4.36913,-16.3297
-308,-685,6.30707,16.3785,0,0,0,0,0,0,0,-1,916,1709,6.30706,-16.3785
-301,-685,5.89038,16.4098,0,0,0,0,0,0,0,-1,923,1709,5.89037,-16.4097
-294,-685,7.37286,15.8286,0,0,0,0,0,0,0,-1,930,1709,7.37286,-15.8287
-287,-685,4.86395,16.9805,0,0,0,0,0,0,0,-1,937,1709,4.86396,-16.9804
-280,-685,5.73138,16.8909,0,0,0,0,0,0,0,-1,944,1709,5.7314,-16.8909
-273,-685,5.11041,16.7144,0,0,0,0,0,0,0,-1,951,1709,5.11044,-16.7143
-266,-685,5.23529,17.1373,-0.00569863,0.00620815,-0.000891311,0.0062745,-0.00576498,-1.49649,0.00695307,0.0473565,958,1709,5.23531,-17.1373
-259,-685,5.1026,17.683,-0.0043587,0.00555545,8.15497e-05,0.00555612,-0.00435937,1.56257,0.00573859,0.0427331,965,1709,5.10259,-17.6829
-252,-685,5.198,17.8988,-0.00341855,0.00475677,0.000741485,0.00482348,-0.00348526,1.48107,0.00481775,0.0406545,972,1709,5.19799,-17.8988
-245,-685,5.14954,18.1171,-0.00254677,0.0036188,0.000626799,0.00368187,-0.00260984,1.4705,0.00365006,0.0350694,979,1709,5.14953,-18.1171
-238,-685,5.06952,18.3961,-0.00175353,0.00258247,0.000688703,0.00268923,-0.00186029,1.417,0.00264116,0.0243514,986,1709,5.06953,-18.3962
-231,-685,5.03845,18.63,-0.00105731,0.00179467,0.000849634,0.0020286,-0.00129123,1.30213,0.0019324,0.0153896,993,1709,5.03843,-18.6301
-224,-685,5.00458,18.8199,-0.000145658,0.00109462,0.000984537,0.00163805,-0.000689085,1.06645,0.0013803,0.0144216,1000,1709,5.0046,-18.8199
-217,-685,4.9964,19.0389,0.000364709,0.000595079,0.00093492,0.00142188,-0.000462095,0.846691,0.00113379,0.0117611,1007,1709,4.99639,-19.039
-210,-685,4.98279,19.2654,0.000767727,0.00039607,0.00111663,0.00171389,-0.000550088,0.702944,0.00136346,0.0153539,1014,1709,4.9828,-19.2654
-203,-685,4.98816,19.4659,0.00107412,0.000500678,0.00134316,0.00216082,-0.000586024,0.680242,0.00167051,0.0148287,1021,1709,4.98812,-19.466
-196,-685,4.97656,19.6545,0.0012897,0.000566783,0.00152324,0.00249378,-0.000637293,0.668905,0.00191071,0.012269,1028,1709,4.9766,-19.6545
-189,-685,4.97437,19.8284,0.00155276,0.000637673,0.00152726,0.00268954,-0.000499103,0.63986,0.00198047,0.00899431,1035,1709,4.9744,-19.8283
-182,-685,4.96814,20.0226,0.00175786,0.000888416,0.00146806,0.00285421,-0.000207934,0.641452,0.00197577,0.0129543,1042,1709,4.96816,-20.0226
-175,-685,4.9668,20.201,0.00198799,0.00113497,0.00147599,0.00309786,2.51002e-05,0.644747,0.00205693,0.0117667,1049,1709,4.96678,-20.201
-168,-685,4.96143,20.3793,0.00222496,0.00134576,0.00146712,0.00331692,0.000253802,0.639838,0.00213172,0.0102794,1056,1709,4.96139,-20.3793
-161,-685,4.95325,20.5648,0.00244533,0.00138827,0.00141894,0.00343098,0.000402621,0.607119,0.00216562,0.011875,1063,1709,4.95331,-20.5648
-154,-685,4.96155,20.7306,0.00270179,0.00141782,0.00131214,0.00352057,0.000599031,0.557887,0.00217505,0.0101387,1070,1709,4.96155,-20.7305
-147,-685,4.95068,20.8823,0.00301292,0.00128648,0.00116851,0.00360248,0.000696921,0.467273,0.00220635,0.0083056,1077,1709,4.95069,-20.8824
-140,-685,4.94189,21.0331,0.00331081,0.00110991,0.0010771,0.00375021,0.000670513,0.387338,0.00230932,0.010885,1084,1709,4.94185,-21.0331
-133,-685,4.95483,21.1981,0.00367499,0.000774337,0.00105838,0.00402011,0.000429219,0.315209,0.00254907,0.0107966,1091,1709,4.95478,-21.1981
-126,-685,4.96265,21.354,0.00413949,0.000484604,0.00116541,0.00447947,0.000144621,0.28385,0.00293929,0.00906116,1098,1709,4.96262,-21.3539
-119,-685,4.98413,21.4984,0.00459725,8.57352e-05,0.00129631,0.00494319,-0.000260214,0.260793,0.00338554,0.0126299,1105,1709,4.98407,-21.4984
-112,-685,4.98779,21.6228,0.00500592,-0.000337402,0.00144522,0.00537177,-0.000703247,0.247932,0.00383713,0.0119197,1112,1709,4.98776,-21.6228
-105,-685,4.9679,21.7421,0.00531915,-0.00066643,0.00180372,0.00582066,-0.00116795,0.271197,0.00432268,0.0108846,1119,1709,4.96786,-21.7421
-98,-685,5.05212,21.8843,0.00551574,-0.000825805,0.00223312,0.00622319,-0.00153326,0.306797,0.00474321,0.014467,1126,1709,5.05217,-21.8843
-91,-685,5.05872,22.0035,0.00580362,-0.000886572,0.00231337,0.00652562,-0.00160858,0.302523,0.00497408,0.0174938,1133,1709,5.05869,-22.0036
-84,-685,5.02344,22.084,0.00620662,-0.00102762,0.00226649,0.00685805,-0.00167905,0.279874,0.00522248,0.0189164,1140,1709,5.02343,-22.0839
-77,-685,5.1687,22.3359,0.0062734,-0.00106556,0.00186273,0.00671912,-0.00151128,0.234866,0.00505898,0.0263052,1147,1709,5.16865,-22.3359
-70,-685,5.43091,22.7107,0,0,0,0,0,0,0,-1,1154,1709,5.43093,-22.7107
-63,-685,5.24573,22.8451,0,0,0,0,0,0,0,-1,1161,1709,5.24579,-22.8451
-56,-685,3.93909,15.8704,0,0,0,0,0,0,0,-1,1168,1709,3.93905,-15.8704
-49,-685,3.07471,9.86011,0,0,0,0,0,0,0,-1,1175,1709,3.07467,-9.86009
-42,-685,2.70618,7.54504,0,0,0,0,0,0,0,-1,1182,1709,2.7062,-7.54504
-35,-685,2.95264,7.91516,0,0,0,0,0,0,0,-1,1189,1709,2.95262,-7.91517
-28,-685,5.31958,22.7787,0,0,0,0,0,0,0,-1,1196,1709,5.31964,-22.7787
-21,-685,5.32153,22.879,0.0373431,-0.00257986,0.0158209,0.0428524,-0.00808917,0.335097,0.0316115,0.0469353,1203,1709,5.32149,-22.879
-14,-685,5.41187,22.8589,0.0369082,0.0011983,0.0175657,0.0441003,-0.00599373,0.388615,0.0315882,0.0288455,1210,1709,5.41192,-22.8589
-7,-685,5.37329,22.902,0.03618,0.00466135,0.0187783,0.0449355,-0.00409424,0.436294,0.0314108,0.0401371,1217,1709,5.37329,-22.902
0,-685,5.37622,23.1304,0.0353677,0.0090443,0.0192851,0.0455543,-0.00114232,0.485962,0.0307574,0.0446078,1224,1709,5.37623,-23.1304
7,-685,5.5907,23.4635,0.0346151,0.0140002,0.0188713,0.0458104,0.00280489,0.535439,0.0296496,0.0410725,1231,1709,5.59073,-23.4635
14,-685,5.71619,23.4589,0.0338618,0.0192412,0.0179202,0.0459054,0.00719763,0.591734,0.0285089,0.0407258,1238,1709,5.71618,-23.4589
21,-685,5.88354,23.281,0.0323077,0.0236741,0.0158813,0.0444485,0.0115334,0.652696,0.0266337,0.0354127,1245,1709,5.88359,-23.281
28,-685,5.90796,23.2227,0.0301679,0.0260184,0.0132395,0.0414942,0.014692,0.707676,0.0242944,0.0377016,1252,1709,5.90801,-23.2227
35,-685,5.73987,23.5736,0.0277835,0.0289654,0.0125801,0.0409684,0.0157806,0.808869,0.0238601,0.038045,1259,1709,5.73985,-23.5736
42,-685,5.77454,23.5548,0.0244885,0.0311472,0.0125702,0.0408215,0.0148142,0.914857,0.0238618,0.0427109,1266,1709,5.77449,-23.5548
49,-685,5.84656,23.5197,0.0198098,0.032969,0.0104065,0.0387014,0.0140774,1.0673,0.0226191,0.0478285,1273,1709,5.8466,-23.5197
56,-685,5.63452,23.2701,0.0169822,0.0341783,0.00728332,0.0368484,0.014312,1.2194,0.0214504,0.0480144,1280,1709,5.63451,-23.2701
63,-685,5.50037,23.2638,0.0162423,0.034016,0.0042169,0.0349658,0.0152926,1.34927,0.0202402,0.0470186,1287,1709,5.50037,-23.2638
70,-685,6.24768,23.0876,0.0161313,0.0328505,0.00121595,0.0329385,0.0160433,1.49858,0.0190191,0.0432601,1294,1709,6.24771,-23.0876
77,-685,6.31396,22.832,0.0157872,0.0316964,-0.00153865,0.0318438,0.0156397,-1.47526,0.018386,0.0420972,1301,1709,6.31392,-22.8321
84,-685,6.2677,23.3518,0.0158863,0.0312166,-0.00501599,0.0327119,0.014391,-1.28107,0.0189316,0.0460385,1308,1709,6.26766,-23.3518
91,-685,6.2843,24.3097,0.0170189,0.0287096,-0.00930965,0.0338569,0.0118716,-1.06573,0.0198359,0.0438647,1315,1709,6.28427,-24.3097
98,-685,5.50977,23.724,0.0186126,0.0272383,-0.0136986,0.037287,0.00856392,-0.937905,0.022552,0.0386906,1322,1709,5.50976,-23.724
105,-685,5.86243,23.2432,0,0,0,0,0,0,0,-1,1329,1709,5.86244,-23.2431
112,-685,6.12915,23.2178,0.0239893,0.0253371,-0.0232132,0.0478862,0.00144024,-0.79991,0.031455,0.0434352,1336,1709,6.12919,-23.2178
119,-685,6.06531,23.2389,0.026922,0.0239597,-0.0280582,0.0535381,-0.00265642,-0.759029,0.0366097,0.0383113,1343,1709,6.06532,-23.2389
126,-685,6.10168,23.2594,0.0292589,0.0224985,-0.0320769,0.0581332,-0.00637574,-0.732903,0.0410461,0.0413248,1350,1709,6.10171,-23.2593
133,-685,6.21326,23.3448,0.0304488,0.0212259,-0.0350739,0.0612131,-0.00953839,-0.720035,0.0443316,0.0481785,1357,1709,6.21331,-23.3449
140,-685,5.60486,22.6045,0.0305405,0.0184233,-0.0380281,0.0629896,-0.0140258,-0.706403,0.0473657,0.0462495,1364,1709,5.6048,-22.6045
147,-685,5.58069,22.621,0.0300643,0.0173445,-0.0393347,0.0635499,-0.0161412,-0.705248,0.0486479,0.0434759,1371,1709,5.58067,-22.621
154,-685,6.24353,23.1848,0,0,0,0,0,0,0,-1,1378,1709,6.24353,-23.1848
161,-685,6.58777,23.2021,0,0,0,0,0,0,0,-1,1385,1709,6.58774,-23.2021
168,-685,4.37524,10.8778,0,0,0,0,0,0,0,-1,1392,1709,4.37525,-10.8778
175,-685,3.97522,8.94324,0,0,0,0,0,0,0,-1,1399,1709,3.97519,-8.94328
182,-685,3.98218,9.19739,0,0,0,0,0,0,0,-1,1406,1709,3.98221,-9.1974
189,-685,4.53479,15.2343,0,0,0,0,0,0,0,-1,1413,1709,4.53474,-15.2343
196,-685,6.25,22.9337,0,0,0,0,0,0,0,-1,1420,1709,6.25002,-22.9337
203,-685,6.23511,22.7122,0,0,0,0,0,0,0,-1,1427,1709,6.23514,-22.7121
210,-685,6.36487,22.8793,0,0,0,0,0,0,0,-1,1434,1709,6.36491,-22.8793
217,-685,6.40356,22.5796,0.000958558,0.00119312,0.0015668,0.00264703,-0.000495343,0.822756,0.00195087,0.0485069,1441,1709,6.40356,-22.5796
224,-685,6.35181,22.358,0.000855998,0.000797097,0.001485,0.00231184,-0.000658741,0.775483,0.00180141,0.0208567,1448,1709,6.3518,-22.3581
231,-685,6.33899,22.2238,0.000953262,0.000323201,0.00135798,0.00203227,-0.000755807,0.671422,0.00166498,0.0161398,1455,1709,6.33898,-22.2238
238,-685,6.36975,22.0984,0.00108214,4.46352e-06,0.00128907,0.00194046,-0.000853856,0.587433,0.00165346,0.018929,1462,1709,6.36975,-22.0984
245,-685,6.34802,21.9916,0.000990453,-0.000197563,0.00117176,0.00171017,-0.000917279,0.550808,0.00153981,0.0196834,1469,1709,6.34806,-21.9916
252,-685,6.35376,21.8981,0.000899558,-1.07102e-06,0.000934853,0.0014869,-0.000588414,0.56095,0.00123505,0.0144402,1476,1709,6.35378,-21.898
259,-685,6.36707,21.799,0.000929019,2.1022e-05,0.00074288,0.00134564,-0.000395603,0.511116,0.00105401,0.0106275,1483,1709,6.3671,-21.799
266,-685,6.38452,21.6528,0.00092666,5.502e-05,0.000578892,0.00121545,-0.000233767,0.462736,0.000898415,0.0112635,1490,1709,6.38457,-21.6528
273,-685,6.38538,21.4872,0.000832601,9.90336e-05,0.000485992,0.00107468,-0.00014305,0.462144,0.000768589,0.0141932,1497,1709,6.38539,-21.4872
280,-685,6.37952,21.335,0.000603181,0.000406596,0.00047614,0.000991068,1.87091e-05,0.68361,0.000654565,0.0165682,1504,1709,6.37954,-21.3349
287,-685,6.39355,21.2098,0.000310137,0.000664093,0.00050543,0.00102263,-4.84043e-05,0.953803,0.00069845,0.0126106,1511,1709,6.3935,-21.2098
294,-685,6.38464,21.0557,3.02311e-05,0.000850812,0.000516493,0.00110015,-0.000219102,1.12105,0.000816325,0.0105749,1518,1709,6.38463,-21.0557
301,-685,6.37341,20.8827,-0.000213621,0.000978235,0.000460237,0.00113527,-0.000370653,1.24198,0.00090603,0.0124806,1525,1709,6.37336,-20.8827
308,-685,6.38208,20.7374,-0.000420215,0.0012327,0.000282764,0.00127974,-0.000467249,1.40597,0.00104435,0.0131551,1532,1709,6.38203,-20.7374
315,-685,6.42017,20.5977,-0.000576169,0.00136675,0.00010749,0.00137268,-0.000582097,1.5157,0.00115895,0.0119506,1539,1709,6.42022,-20.5977
322,-685,6.36365,20.4103,-0.000686599,0.00155111,-0.000123489,0.0015579,-0.000693393,-1.51583,0.00133135,0.0194553,1546,1709,6.36368,-20.4102
329,-685,6.3468,20.2434,-0.000695955,0.00181988,-0.000462052,0.00190205,-0.00077813,-1.39479,0.00159211,0.019921,1553,1709,6.34676,-20.2434
336,-685,6.37683,20.0598,-0.000447741,0.00241288,-0.000997386,0.00272629,-0.000761152,-1.26633,0.00211735,0.0143379,1560,1709,6.37681,-20.0599
343,-685,6.36206,19.8801,-0.000103005,0.00292024,-0.00167109,0.00366196,-0.000844721,-1.15307,0.00276621,0.0117337,1567,1709,6.36204,-19.8802
350,-685,6.35376,19.6901,0.000154238,0.00330724,-0.00224776,0.00447624,-0.00101477,-1.09122,0.00337368,0.0111251,1574,1709,6.3538,-19.6901
357,-685,6.36353,19.4969,0.000636481,0.0040824,-0.00296731,0.0057907,-0.00107182,-1.04843,0.00426289,0.00946969,1581,1709,6.36354,-19.4969
364,-685,6.35303,19.2942,0.00130927,0.00484498,-0.00373896,0.00721296,-0.00105872,-1.00623,0.00519762,0.00935286,1588,1709,6.35306,-19.2941
371,-685,6.38477,19.0967,0.0022141,0.00556055,-0.00459234,0.00877499,-0.00100034,-0.960099,0.00621036,0.0147358,1595,1709,6.38479,-19.0967
378,-685,6.30615,18.9375,0.00315611,0.00630334,-0.0053492,0.0103056,-0.000846139,-0.928452,0.0071691,0.0249738,1602,1709,6.30619,-18.9376
385,-685,6.3252,18.7468,0.00422407,0.00713634,-0.00608749,0.0119394,-0.000579019,-0.902793,0.00815948,0.0443149,1609,1709,6.32519,-18.7469
392,-685,6.64966,18.4976,0.00539801,0.00784625,-0.00686876,0.0135991,-0.000354863,-0.87358,0.00918665,0.0457608,1616,1709,6.64966,-18.4976
399,-685,6.86584,18.3069,0,0,0,0,0,0,0,-1,1623,1709,6.86588,-18.3069
406,-685,6.07324,17.5959,0,0,0,0,0,0,0,-1,1630,1709,6.07319,-17.5959
413,-685,6.13098,16.2029,0,0,0,0,0,0,0,-1,1637,1709,6.13099,-16.2029
420,-685,4.84631,10.3781,0,0,0,0,0,0,0,-1,1644,1709,4.84634,-10.378
427,-685,6.05151,9.21155,0,0,0,0,0,0,0,-1,1651,1709,6.05156,-9.21156
434,-685,4.87769,8.91418,0,0,0,0,0,0,0,-1,1658,1709,4.87768,-8.91413
441,-685,5.62,8.75549,0,0,0,0,0,0,0,-1,1665,1709,5.61996,-8.75545
448,-685,6.4043,8.58972,0,0,0,0,0,0,0,-1,1672,1709,6.40435,-8.58971
455,-685,2.31958,4.09802,0,0,0,0,0,0,0,-1,1679,1709,2.31957,-4.09803
462,-685,0,0,0,0,0,0,0,0,0,-1,1686,1709,0,0
469,-685,0,0,0,0,0,0,0,0,0,-1,1693,1709,0,0
476,-685,0,0,0,0,0,0,0,0,0,-1,1700,1709,0,0
483,-685,0,0,0,0,0,0,0,0,0,-1,1707,1709,0,0
490,-685,0,0,0,0,0,0,0,0,0,-1,1714,1709,0,0
497,-685,0,0,0,0,0,0,0,0,0,-1,1721,1709,0,0
504,-685,0,0,0,0,0,0,0,0,0,-1,1728,1709,0,0
511,-685,0,0,0,0,0,0,0,0,0,-1,1735,1709,0,0
518,-685,0,0,0,0,0,0,0,0,0,-1,1742,1709,0,0
525,-685,0,0,0,0,0,0,0,0,0,-1,1749,1709,0,0
532,-685,0,0,0,0,0,0,0,0,0,-1,1756,1709,0,0
539,-685,0,0,0,0,0,0,0,0,0,-1,1763,1709,0,0
546,-685,0,0,0,0,0,0,0,0,0,-1,1770,1709,0,0
553,-685,0,0,0,0,0,0,0,0,0,-1,1777,1709,0,0
560,-685,0,0,0,0,0,0,0,0,0,-1,1784,1709,0,0
567,-685,0,0,0,0,0,0,0,0,0,-1,1791,1709,0,0
574,-685,0,0,0,0,0,0,0,0,0,-1,1798,1709,0,0
581,-685,0,0,0,0,0,0,0,0,0,-1,1805,1709,0,0
588,-685,0,0,0,0,0,0,0,0,0,-1,1812,1709,0,0
595,-685,0,0,0,0,0,0,0,0,0,-1,1819,1709,0,0
602,-685,0,0,0,0,0,0,0,0,0,-1,1826,1709,0,0
609,-685,0,0,0,0,0,0,0,0,0,-1,1833,1709,0,0
616,-685,0,0,0,0,0,0,0,0,0,-1,1840,1709,0,0
623,-685,0,0,0,0,0,0,0,0,0,-1,1847,1709,0,0
630,-685,0,0,0,0,0,0,0,0,0,-1,1854,1709,0,0
637,-685,0,0,0,0,0,0,0,0,0,-1,1861,1709,0,0
644,-685,0,0,0,0,0,0,0,0,0,-1,1868,1709,0,0
651,-685,0,0,0,0,0,0,0,0,0,-1,1875,1709,0,0
658,-685,0,0,0,0,0,0,0,0,0,-1,1882,1709,0,0
665,-685,0,0,0,0,0,0,0,0,0,-1,1889,1709,0,0
672,-685,0,0,0,0,0,0,0,0,0,-1,1896,1709,0,0
679,-685,0,0,0,0,0,0,0,0,0,-1,1903,1709,0,0
686,-685,0,0,0,0,0,0,0,0,0,-1,1910,1709,0,0
693,-685,0,0,0,0,0,0,0,0,0,-1,1917,1709,0,0
700,-685,0,0,0,0,0,0,0,0,0,-1,1924,1709,0,0
707,-685,0,0,0,0,0,0,0,0,0,-1,1931,1709,0,0
714,-685,0,0,0,0,0,0,0,0,0,-1,1938,1709,0,0
721,-685,0,0,0,0,0,0,0,0,0,-1,1945,1709,0,0
728,-685,0,0,0,0,0,0,0,0,0,-1,1952,1709,0,0
735,-685,0,0,0,0,0,0,0,0,0,-1,1959,1709,0,0
742,-685,0,0,0,0,0,0,0,0,0,-1,1966,1709,0,0
749,-685,0,0,0,0,0,0,0,0,0,-1,1973,1709,0,0
756,-685,0,0,0,0,0,0,0,0,0,-1,1980,1709,0,0
763,-685,0,0,0,0,0,0,0,0,0,-1,1987,1709,0,0
770,-685,0,0,0,0,0,0,0,0,0,-1,1994,1709,0,0
777,-685,0,0,0,0,0,0,0,0,0,-1,2001,1709,0,0
784,-685,0,0,0,0,0,0,0,0,0,-1,2008,1709,0,0
791,-685,0,0,0,0,0,0,0,0,0,-1,2015,1709,0,0
798,-685,0,0,0,0,0,0,0,0,0,-1,2022,1709,0,0
805,-685,0,0,0,0,0,0,0,0,0,-1,2029,1709,0,0
812,-685,0,0,0,0,0,0,0,0,0,-1,2036,1709,0,0
-700,-692,0,0,0,0,0,0,0,0,0,-1,524,1716,0,0
-693,-692,0,0,0,0,0,0,0,0,0,-1,531,1716,0,0
-686,-692,0,0,0,0,0,0,0,0,0,-1,538,1716,0,0
-679,-692,0,0,0,0,0,0,0,0,0,-1,545,1716,0,0
-672,-692,0,0,0,0,0,0,0,0,0,-1,552,1716,0,0
-665,-692,0,0,0,0,0,0,0,0,0,-1,559,1716,0,0
-658,-692,0,0,0,0,0,0,0,0,0,-1,566,1716,0,0
-651,-692,0,0,0,0,0,0,0,0,0,-1,573,1716,0,0
-644,-692,0,0,0,0,0,0,0,0,0,-1,580,1716,0,0
-637,-692,0,0,0,0,0,0,0,0,0,-1,587,1716,0,0
-630,-692,0,0,0,0,0,0,0,0,0,-1,594,1716,0,0
-623,-692,0,0,0,0,0,0,0,0,0,-1,601,1716,0,0
-616,-692,0,0,0,0,0,0,0,0,0,-1,608,1716,0,0
-609,-692,0,0,0,0,0,0,0,0,0,-1,615,1716,0,0
-602,-692,0,0,0,0,0,0,0,0,0,-1,622,1716,0,0
-595,-692,0,0,0,0,0,0,0,0,0,-1,629,1716,0,0
-588,-692,0,0,0,0,0,0,0,0,0,-1,636,1716,0,0
-581,-692,0,0,0,0,0,0,0,0,0,-1,643,1716,0,0
-574,-692,0,0,0,0,0,0,0,0,0,-1,650,1716,0,0
-567,-692,0,0,0,0,0,0,0,0,0,-1,657,1716,0,0
-560,-692,0,0,0,0,0,0,0,0,0,-1,664,1716,0,0
-553,-692,0,0,0,0,0,0,0,0,0,-1,671,1716,0,0
-546,-692,0,0,0,0,0,0,0,0,0,-1,678,1716,0,0
-539,-692,0,0,0,0,0,0,0,0,0,-1,685,1716,0,0
-532,-692,0,0,0,0,0,0,0,0,0,-1,692,1716,0,0
-525,-692,0,0,0,0,0,0,0,0,0,-1,699,1716,0,0
-518,-692,0,0,0,0,0,0,0,0,0,-1,706,1716,0,0
-511,-692,0,0,0,0,0,0,0,0,0,-1,713,1716,0,0
-504,-692,0,0,0,0,0,0,0,0,0,-1,720,1716,0,0
-497,-692,0,0,0,0,0,0,0,0,0,-1,727,1716,0,0
-490,-692,0,0,0,0,0,0,0,0,0,-1,734,1716,0,0
-483,-692,0,0,0,0,0,0,0,0,0,-1,741,1716,0,0
-476,-692,0,0,0,0,0,0,0,0,0,-1,748,1716,0,0
-469,-692,0,0,0,0,0,0,0,0,0,-1,755,1716,0,0
-462,-692,0,0,0,0,0,0,0,0,0,-1,762,1716,0,0
-455,-692,0,0,0,0,0,0,0,0,0,-1,769,1716,0,0
-448,-692,0,0,0,0,0,0,0,0,0,-1,776,1716,0,0
-441,-692,0,0,0,0,0,0,0,0,0,-1,783,1716,0,0
-434,-692,0,0,0,0,0,0,0,0,0,-1,790,1716,0,0
-427,-692,0,0,0,0,0,0,0,0,0,-1,797,1716,0,0
-420,-692,0,0,0,0,0,0,0,0,0,-1,804,1716,0,0
-413,-692,0,0,0,0,0,0,0,0,0,-1,811,1716,0,0
-406,-692,0,0,0,0,0,0,0,0,0,-1,818,1716,0,0
-399,-692,0,0,0,0,0,0,0,0,0,-1,825,1716,0,0
-392,-692,0,0,0,0,0,0,0,0,0,-1,832,1716,0,0
-385,-692,0,0,0,0,0,0,0,0,0,-1,839,1716,0,0
-378,-692,0,0,0,0,0,0,0,0,0,-1,846,1716,0,0
-371,-692,0,0,0,0,0,0,0,0,0,-1,853,1716,0,0
-364,-692,0,0,0,0,0,0,0,0,0,-1,860,1716,0,0
-357,-692,0,0,0,0,0,0,0,0,0,-1,867,1716,0,0
-350,-692,0,0,0,0,0,0,0,0,0,-1,874,1716,0,0
-343,-692,0,0,0,0,0,0,0,0,0,-1,881,1716,0,0
-336,-692,0,0,0,0,0,0,0,0,0,-1,888,1716,0,0
-329,-692,3.03107,4.10266,0,0,0,0,0,0,0,-1,895,1716,3.03105,-4.10267
-322,-692,4.43713,18.5242,0,0,0,0,0,0,0,-1,902,1716,4.43711,-18.5241
-315,-692,5.38965,17.975,0,0,0,0,0,0,0,-1,909,1716,5.38963,-17.975
-308,-692,5.86938,17.4392,0,0,0,0,0,0,0,-1,916,1716,5.86937,-17.4392
-301,-692,7.6759,18.0828,0,0,0,0,0,0,0,-1,923,1716,7.67593,-18.0827
-294,-692,6.66138,19.0796,0,0,0,0,0,0,0,-1,930,1716,6.66141,-19.0796
-287,-692,5.98553,17.4274,0,0,0,0,0,0,0,-1,937,1716,5.98555,-17.4274
-280,-692,5.12317,17.124,0,0,0,0,0,0,0,-1,944,1716,5.12314,-17.124
-273,-692,7.06763,17.1136,0,0,0,0,0,0,0,-1,951,1716,7.06762,-17.1137
-266,-692,5.72461,16.8157,0,0,0,0,0,0,0,-1,958,1716,5.72458,-16.8157
-259,-692,5.40094,17.5741,0,0,0,0,0,0,0,-1,965,1716,5.40095,-17.5741
-252,-692,5.63141,17.9263,0,0,0,0,0,0,0,-1,972,1716,5.6314,-17.9262
-245,-692,5.37982,18.0355,-0.00272651,0.00421636,0.000755,0.00429752,-0.00280766,1.46372,0.00413213,0.0473672,979,1716,5.37982,-18.0356
-238,-692,5.30371,18.4048,-0.00157454,0.00268385,0.000919215,0.0028738,-0.00176449,1.36702,0.00270333,0.0426889,986,1716,5.30373,-18.4047
-231,-692,5.37347,18.637,-0.000642805,0.00161768,0.00114851,0.00209881,-0.00112394,1.17409,0.00188882,0.0333657,993,1716,5.3735,-18.6369
-224,-692,5.25305,18.8243,0.000435011,0.000744631,0.00129249,0.00189155,-0.000711909,0.845002,0.00155369,0.0174887,1000,1716,5.25308,-18.8243
-217,-692,5.18823,19.0378,0.000953207,0.000128386,0.0012196,0.00182824,-0.00074665,0.622358,0.00152971,0.0125375,1007,1716,5.18825,-19.0378
-210,-692,5.18994,19.2485,0.00131898,3.8077e-05,0.00149089,0.00230116,-0.000944101,0.582527,0.00192749,0.0133437,1014,1716,5.18996,-19.2486
-203,-692,5.18591,19.4458,0.00154959,0.000282086,0.00184846,0.00286992,-0.00103824,0.620251,0.00233753,0.0151417,1021,1716,5.18593,-19.4459
-196,-692,5.1637,19.6569,0.00166875,0.000464998,0.00211157,0.00326255,-0.0011288,0.646561,0.00263322,0.0164287,1028,1716,5.16376,-19.6568
-189,-692,5.14856,19.8274,0.00184754,0.000617464,0.00215404,0.00347263,-0.00100762,0.646334,0.00271404,0.00898951,1035,1716,5.1486,-19.8274
-182,-692,5.1377,20.0294,0.00188432,0.000922607,0.00212356,0.00358078,-0.000773859,0.674056,0.00268261,0.0136832,1042,1716,5.13767,-20.0294
-175,-692,5.12683,20.2277,0.00192643,0.00130972,0.00219878,0.00383837,-0.000602217,0.715733,0.00278147,0.0140082,1049,1716,5.12687,-20.2276
-168,-692,5.13708,20.3947,0.00200833,0.00161196,0.00222062,0.00403959,-0.000419298,0.740893,0.00284315,0.0118723,1056,1716,5.13703,-20.3946
-161,-692,5.15173,20.5947,0.00205708,0.00175486,0.00215036,0.00406163,-0.000249686,0.750319,0.0027947,0.0143839,1063,1716,5.15178,-20.5947
-154,-692,5.13623,20.7632,0.00213354,0.00181073,0.00200516,0.00398378,-3.9516e-05,0.745238,0.00266912,0.0142527,1070,1716,5.13627,-20.7631
-147,-692,5.11487,20.9041,0.0022942,0.00169998,0.00178032,0.00380202,0.000192149,0.702717,0.00247312,0.0117687,1077,1716,5.11484,-20.9041
-140,-692,5.11658,21.0433,0.0024257,0.00158261,0.00160925,0.0036677,0.000340604,0.657301,0.00233988,0.00956287,1084,1716,5.11657,-21.0434
-133,-692,5.12988,21.1957,0.00259467,0.00131802,0.00143572,0.00352757,0.000385122,0.57622,0.00223443,0.00956129,1091,1716,5.12984,-21.1956
-126,-692,5.13574,21.3479,0.0028871,0.00101799,0.00137623,0.0036161,0.000288998,0.487128,0.00232041,0.00767243,1098,1716,5.13573,-21.3479
-119,-692,5.13989,21.5002,0.00314175,0.000645503,0.00135871,0.00373859,4.86614e-05,0.413897,0.00247633,0.0111364,1105,1716,5.13993,-21.5002
-112,-692,5.13623,21.6287,0.00340627,0.000256618,0.00135686,0.00391018,-0.000247291,0.355593,0.002693,0.010842,1112,1716,5.13625,-21.6287
-105,-692,5.16943,21.7479,0.00360367,-0.000122882,0.00139319,0.00406693,-0.000586143,0.321017,0.0029263,0.0152491,1119,1716,5.16942,-21.7479
-98,-692,5.23792,21.8932,0.00375102,-0.000292193,0.00153165,0.00426572,-0.000806894,0.324187,0.00314744,0.01672,1126,1716,5.23792,-21.8931
-91,-692,5.20947,21.9919,0.00392295,-0.000383663,0.00157123,0.00443526,-0.000895967,0.315185,0.00329634,0.0184331,1133,1716,5.20946,-21.9919
-84,-692,5.18909,22.0942,0.00417192,-0.000529932,0.00152466,0.00462304,-0.000981046,0.287672,0.00345577,0.0222132,1140,1716,5.1891,-22.0943
-77,-692,5.20068,22.2512,0.00428727,-0.000552691,0.00123224,0.00458293,-0.000848354,0.235488,0.00337382,0.0161121,1147,1716,5.20072,-22.2512
-70,-692,5.24182,22.3972,0.00432966,-0.000363466,0.000866501,0.00448454,-0.000518339,0.176866,0.0031766,0.0250061,1154,1716,5.24181,-22.3972
-63,-692,5.26135,22.5155,0.0048368,-0.000502938,-0.000155239,0.00484131,-0.000507447,-0.0290398,0.0034093,0.0410087,1161,1716,5.26141,-22.5155
-56,-692,5.29346,22.6515,0,0,0,0,0,0,0,-1,1168,1716,5.29349,-22.6515
-49,-692,5.23438,22.7435,0,0,0,0,0,0,0,-1,1175,1716,5.23442,-22.7435
-42,-692,5.28613,22.9376,0,0,0,0,0,0,0,-1,1182,1716,5.28614,-22.9376
-35,-692,5.37561,22.9679,0,0,0,0,0,0,0,-1,1189,1716,5.37558,-22.9679
-28,-692,5.3186,22.9951,0.0254285,-0.00185196,0.0108601,0.0292238,-0.00564726,0.336204,0.0216123,0.0448905,1196,1716,5.31861,-22.9951
-21,-692,5.41675,22.9127,0.0262918,-0.00204593,0.0124437,0.0309804,-0.00673451,0.360332,0.0232262,0.0304055,1203,1716,5.4167,-22.9127
-14,-692,5.4325,22.9532,0.0262424,0.000586936,0.0142555,0.032592,-0.00576265,0.419033,0.0238818,0.0160616,1210,1716,5.43254,-22.9532
-7,-692,5.40466,23.0566,0.0260558,0.00306754,0.0155678,0.0339129,-0.00478957,0.467403,0.0243626,0.015836,1217,1716,5.40468,-23.0566
0,-692,5.42676,23.1548,0.0257952,0.00613113,0.0163308,0.0350253,-0.00309894,0.514434,0.0244487,0.0183378,1224,1716,5.4267,-23.1548
7,-692,5.44373,23.2156,0.0253938,0.00958018,0.0162353,0.0355454,-0.000571353,0.558796,0.0238896,0.021732,1231,1716,5.4437,-23.2155
14,-692,5.53601,23.3079,0.0248958,0.0131101,0.0158014,0.0358674,0.00213856,0.60692,0.0232316,0.0230388,1238,1716,5.53604,-23.3079
21,-692,5.63086,23.2909,0.0238947,0.0160105,0.014404,0.0348863,0.0050189,0.651828,0.0217782,0.0227061,1245,1716,5.63082,-23.2909
28,-692,5.65955,23.2942,0.0226012,0.0174004,0.0124674,0.0327364,0.00726515,0.682585,0.0198508,0.0227753,1252,1716,5.65957,-23.2942
35,-692,5.65051,23.3651,0.0212149,0.0193215,0.012091,0.0323962,0.00814024,0.746328,0.0194601,0.0223881,1259,1716,5.65047,-23.3651
42,-692,5.69824,23.4412,0.0191229,0.0210251,0.0121742,0.0322853,0.00786276,0.824381,0.0194401,0.0220781,1266,1716,5.69822,-23.4412
49,-692,5.7373,23.4465,0.0158675,0.0223325,0.0102784,0.0298748,0.00832526,0.937749,0.0178026,0.0262966,1273,1716,5.73726,-23.4465
56,-692,5.69775,23.3973,0.0141577,0.0232993,0.00748654,0.0275001,0.00995692,1.05946,0.0160773,0.0305425,1280,1716,5.6977,-23.3973
63,-692,5.72009,23.3896,0.0141135,0.0231201,0.00474924,0.0251616,0.0120719,1.16481,0.014531,0.030662,1287,1716,5.72008,-23.3896
70,-692,5.78442,23.4343,0.0146679,0.0222076,0.00209682,0.0227515,0.014124,1.317,0.0132627,0.0277621,1294,1716,5.78443,-23.4344
77,-692,5.84338,23.4609,0.0148876,0.0215114,-0.000226132,0.0215191,0.0148799,-1.53671,0.0127241,0.0319422,1301,1716,5.84343,-23.461
84,-692,5.93542,23.3984,0.0152696,0.0213179,-0.00310508,0.0226281,0.0139594,-1.17149,0.0131829,0.0375067,1308,1716,5.9354,-23.3985
91,-692,5.94031,23.4686,0.0162339,0.0193623,-0.00657649,0.024558,0.0110382,-0.90215,0.0142027,0.0333564,1315,1716,5.94026,-23.4686
98,-692,5.8429,23.4464,0.0173336,0.0180733,-0.00996147,0.0276718,0.00773515,-0.803954,0.0164859,0.0290243,1322,1716,5.84284,-23.4464
105,-692,5.86438,23.3566,0.0188143,0.0172025,-0.0134534,0.031486,0.00453087,-0.755482,0.0196552,0.0363463,1329,1716,5.86444,-23.3566
112,-692,5.93994,23.3417,0.020669,0.0162024,-0.0166443,0.0352292,0.00164229,-0.718708,0.0229583,0.0372972,1336,1716,5.93992,-23.3416
119,-692,5.93066,23.2485,0.0223985,0.0148625,-0.0198148,0.0388004,-0.00153935,-0.691438,0.026395,0.0312121,1343,1716,5.93071,-23.2485
126,-692,5.99438,23.2593,0.0237018,0.0133736,-0.0223174,0.0414448,-0.0043694,-0.671703,0.0291955,0.0296367,1350,1716,5.9944,-23.2593
133,-692,6.03564,23.2522,0.0241599,0.0119867,-0.0240354,0.0428674,-0.0067208,-0.661388,0.0310618,0.023018,1357,1716,6.03567,-23.2521
140,-692,5.99487,23.2476,0.0237813,0.00921551,-0.0260636,0.0435604,-0.0105636,-0.649159,0.0331278,0.0283691,1364,1716,5.99488,-23.2476
147,-692,6.01648,23.2118,0.0229704,0.00732046,-0.0266817,0.0429508,-0.01266,-0.642762,0.0336571,0.0301565,1371,1716,6.01648,-23.2119
154,-692,6.06372,23.1582,0.0214227,0.00533142,-0.0243936,0.0390632,-0.0123091,-0.626103,0.0309715,0.0273531,1378,1716,6.06375,-23.1582
161,-692,6.27209,23.17,0.0173966,0.00259348,-0.0212055,0.0324552,-0.0124651,-0.617489,0.0267771,0.0403309,1385,1716,6.27207,-23.1701
168,-692,6.42664,23.1835,0,0,0,0,0,0,0,-1,1392,1716,6.42666,-23.1835
175,-692,6.10999,22.9762,0,0,0,0,0,0,0,-1,1399,1716,6.11001,-22.9762
182,-692,6.11975,22.8721,0,0,0,0,0,0,0,-1,1406,1716,6.11979,-22.8721
189,-692,6.13696,22.8298,0,0,0,0,0,0,0,-1,1413,1716,6.13696,-22.8298
196,-692,6.14502,22.7458,0.00185838,-0.000670453,0.00123457,0.00236114,-0.00117321,0.386727,0.00207863,0.0330459,1420,1716,6.14507,-22.7458
203,-692,6.1604,22.6542,0.00191108,0.0015051,0.00223274,0.00395004,-0.000533856,0.740065,0.00282816,0.0205157,1427,1716,6.16037,-22.6542
210,-692,6.20618,22.5812,0.00127619,0.00131196,0.00191477,0.00320893,-0.000620773,0.790068,0.00237343,0.0180386,1434,1716,6.20617,-22.5812
217,-692,6.18616,22.4639,0.000807406,0.000808491,0.00139426,0.00220221,-0.000586316,0.785593,0.00169767,0.0173642,1441,1716,6.18616,-22.4639
224,-692,6.19836,22.3608,0.000711314,0.000556819,0.00125635,0.00189279,-0.000624653,0.754694,0.00151367,0.0136948,1448,1716,6.19839,-22.3608
231,-692,6.20837,22.2499,0.000711655,0.000274263,0.00107677,0.00159171,-0.000605791,0.685209,0.0013106,0.0114123,1455,1716,6.20833,-22.2498
238,-692,6.23584,22.0736,0.00076252,9.88665e-05,0.000929238,0.0014174,-0.000556015,0.613907,0.00117498,0.0171283,1462,1716,6.23579,-22.0736
245,-692,6.21741,21.963,0.000707164,6.0441e-06,0.00075868,0.00119236,-0.000479152,0.568977,0.000993899,0.019257,1469,1716,6.21739,-21.963
252,-692,6.2262,21.9136,0.000626298,0.000132289,0.000545714,0.000978305,-0.000219718,0.572881,0.000736451,0.0173604,1476,1716,6.22624,-21.9136
259,-692,6.22937,21.8059,0.000589977,0.000177327,0.000394746,0.000829067,-6.17628e-05,0.544586,0.000574407,0.00963624,1483,1716,6.22937,-21.8059
266,-692,6.22266,21.6477,0.000487207,0.000274631,0.000312538,0.000711036,5.08022e-05,0.621493,0.00045803,0.00975397,1490,1716,6.22261,-21.6477
273,-692,6.22009,21.4673,0.00028709,0.000375173,0.000290121,0.000624576,3.76864e-05,0.860726,0.000404408,0.0145809,1497,1716,6.22007,-21.4673
280,-692,6.24072,21.3331,-1.2267e-05,0.00059607,0.000344608,0.000751546,-0.000167743,1.14697,0.000565302,0.0144351,1504,1716,6.24069,-21.3331
287,-692,6.24817,21.2169,-0.000344198,0.000743315,0.000475493,0.000921892,-0.000522774,1.21153,0.000844622,0.0114891,1511,1716,6.2482,-21.217
294,-692,6.23889,21.0763,-0.000654818,0.000901773,0.000567067,0.00108645,-0.000839491,1.25596,0.00111498,0.0108658,1518,1716,6.23894,-21.0763
301,-692,6.23816,20.9156,-0.000928969,0.00101608,0.000544542,0.00115815,-0.00107104,1.31558,0.00128736,0.0130286,1525,1716,6.23814,-20.9157
308,-692,6.21716,20.7797,-0.00115,0.00133918,0.00034219,0.00138537,-0.00119619,1.43664,0.00149179,0.0162492,1532,1716,6.21711,-20.7797
315,-692,6.25073,20.6133,-0.00131977,0.00153444,0.000136944,0.00154099,-0.00132633,1.52296,0.00165699,0.0155306,1539,1716,6.25072,-20.6133
322,-692,6.16626,20.3837,-0.00141199,0.0017949,-0.000153379,0.00180222,-0.0014193,-1.52311,0.00186432,0.0205592,1546,1716,6.1663,-20.3836
329,-692,6.16052,20.2206,-0.00137319,0.00220896,-0.000576359,0.00229941,-0.00146364,-1.41513,0.00219039,0.0187062,1553,1716,6.16055,-20.2206
336,-692,6.20618,20.0579,-0.000983626,0.00302578,-0.00127213,0.00339534,-0.00135319,-1.28807,0.00282482,0.0129818,1560,1716,6.20622,-20.0579
343,-692,6.20483,19.8715,-0.000472988,0.00377564,-0.00213747,0.00466488,-0.00136223,-1.17655,0.00364974,0.01274,1567,1716,6.20485,-19.8714
350,-692,6.20447,19.6787,-6.85233e-05,0.00444405,-0.00292672,0.00588323,-0.00150771,-1.11378,0.00450953,0.0125028,1574,1716,6.20442,-19.6787
357,-692,6.19434,19.4919,0.000655468,0.00563971,-0.00391936,0.00779216,-0.00149698,-1.06858,0.00575899,0.0150097,1581,1716,6.19431,-19.4919
364,-692,6.15601,19.2915,0.00169514,0.00684673,-0.00498867,0.00988534,-0.00134347,-1.02371,0.00708066,0.0213856,1588,1716,6.15598,-19.2915
371,-692,6.16382,19.0784,0.00304597,0.0079781,-0.00620097,0.0121854,-0.00116131,-0.974655,0.00853706,0.034488,1595,1716,6.16382,-19.0784
378,-692,6.09741,18.8175,0.00432905,0.00920251,-0.00723845,0.0144034,-0.000871809,-0.947759,0.00990564,0.0457341,1602,1716,6.09737,-18.8175
385,-692,6.27588,18.3439,0.00584859,0.0104633,-0.00829763,0.0167684,-0.000456535,-0.921008,0.0113342,0.046203,1609,1716,6.27593,-18.3439
392,-692,6.75293,17.7855,0,0,0,0,0,0,0,-1,1616,1716,6.75287,-17.7855
399,-692,5.2627,10.4279,0,0,0,0,0,0,0,-1,1623,1716,5.26267,-10.4278
406,-692,4.73633,10.6808,0,0,0,0,0,0,0,-1,1630,1716,4.73637,-10.6808
413,-692,4.25085,10.5685,0,0,0,0,0,0,0,-1,1637,1716,4.2508,-10.5685
420,-692,5.48901,10.4845,0,0,0,0,0,0,0,-1,1644,1716,5.48906,-10.4845
427,-692,3.79578,8.60339,0,0,0,0,0,0,0,-1,1651,1716,3.79577,-8.6034
434,-692,4.78516,8.64636,0,0,0,0,0,0,0,-1,1658,1716,4.78512,-8.64634
441,-692,5.8208,8.74036,0,0,0,0,0,0,0,-1,1665,1716,5.82084,-8.7404
448,-692,6.73792,8.51013,0,0,0,0,0,0,0,-1,1672,1716,6.73793,-8.5101
455,-692,0,0,0,0,0,0,0,0,0,-1,1679,1716,0,0
462,-692,0,0,0,0,0,0,0,0,0,-1,1686,1716,0,0
469,-692,0,0,0,0,0,0,0,0,0,-1,1693,1716,0,0
476,-692,0,0,0,0,0,0,0,0,0,-1,1700,1716,0,0
483,-692,0,0,0,0,0,0,0,0,0,-1,1707,1716,0,0
490,-692,0,0,0,0,0,0,0,0,0,-1,1714,1716,0,0
497,-692,0,0,0,0,0,0,0,0,0,-1,1721,1716,0,0
504,-692,0,0,0,0,0,0,0,0,0,-1,1728,1716,0,0
511,-692,0,0,0,0,0,0,0,0,0,-1,1735,1716,0,0
518,-692,0,0,0,0,0,0,0,0,0,-1,1742,1716,0,0
525,-692,0,0,0,0,0,0,0,0,0,-1,1749,1716,0,0
532,-692,0,0,0,0,0,0,0,0,0,-1,1756,1716,0,0
539,-692,0,0,0,0,0,0,0,0,0,-1,1763,1716,0,0
546,-692,0,0,0,0,0,0,0,0,0,-1,1770,1716,0,0
553,-692,0,0,0,0,0,0,0,0,0,-1,1777,1716,0,0
560,-692,0,0,0,0,0,0,0,0,0,-1,1784,1716,0,0
567,-692,0,0,0,0,0,0,0,0,0,-1,1791,1716,0,0
574,-692,0,0,0,0,0,0,0,0,0,-1,1798,1716,0,0
581,-692,0,0,0,0,0,0,0,0,0,-1,1805,1716,0,0
588,-692,0,0,0,0,0,0,0,0,0,-1,1812,1716,0,0
595,-692,0,0,0,0,0,0,0,0,0,-1,1819,1716,0,0
602,-692,0,0,0,0,0,0,0,0,0,-1,1826,1716,0,0
609,-692,0,0,0,0,0,0,0,0,0,-1,1833,1716,0,0
616,-692,0,0,0,0,0,0,0,0,0,-1,1840,1716,0,0
623,-692,0,0,0,0,0,0,0,0,0,-1,1847,1716,0,0
630,-692,0,0,0,0,0,0,0,0,0,-1,1854,1716,0,0
637,-692,0,0,0,0,0,0,0,0,0,-1,1861,1716,0,0
644,-692,0,0,0,0,0,0,0,0,0,-1,1868,1716,0,0
651,-692,0,0,0,0,0,0,0,0,0,-1,1875,1716,0,0
658,-692,0,0,0,0,0,0,0,0,0,-1,1882,1716,0,0
665,-692,0,0,0,0,0,0,0,0,0,-1,1889,1716,0,0
672,-692,0,0,0,0,0,0,0,0,0,-1,1896,1716,0,0
679,-692,0,0,0,0,0,0,0,0,0,-1,1903,1716,0,0
686,-692,0,0,0,0,0,0,0,0,0,-1,1910,1716,0,0
693,-692,0,0,0,0,0,0,0,0,0,-1,1917,1716,0,0
700,-692,0,0,0,0,0,0,0,0,0,-1,1924,1716,0,0
707,-692,0,0,0,0,0,0,0,0,0,-1,1931,1716,0,0
714,-692,0,0,0,0,0,0,0,0,0,-1,1938,1716,0,0
721,-692,0,0,0,0,0,0,0,0,0,-1,1945,1716,0,0
728,-692,0,0,0,0,0,0,0,0,0,-1,1952,1716,0,0
735,-692,0,0,0,0,0,0,0,0,0,-1,1959,1716,0,0
742,-692,0,0,0,0,0,0,0,0,0,-1,1966,1716,0,0
749,-692,0,0,0,0,0,0,0,0,0,-1,1973,1716,0,0
756,-692,0,0,0,0,0,0,0,0,0,-1,1980,1716,0,0
763,-692,0,0,0,0,0,0,0,0,0,-1,1987,1716,0,0
770,-692,0,0,0,0,0,0,0,0,0,-1,1994,1716,0,0
777,-692,0,0,0,0,0,0,0,0,0,-1,2001,1716,0,0
784,-692,0,0,0,0,0,0,0,0,0,-1,2008,1716,0,0
791,-692,0,0,0,0,0,0,0,0,0,-1,2015,1716,0,0
798,-692,0,0,0,0,0,0,0,0,0,-1,2022,1716,0,0
805,-692,0,0,0,0,0,0,0,0,0,-1,2029,1716,0,0
812,-692,0,0,0,0,0,0,0,0,0,-1,2036,1716,0,0
-700,-699,0,0,0,0,0,0,0,0,0,-1,524,1723,0,0
-693,-699,0,0,0,0,0,0,0,0,0,-1,531,1723,0,0
-686,-699,0,0,0,0,0,0,0,0,0,-1,538,1723,0,0
-679,-699,0,0,0,0,0,0,0,0,0,-1,545,1723,0,0
-672,-699,0,0,0,0,0,0,0,0,0,-1,552,1723,0,0
-665,-699,0,0,0,0,0,0,0,0,0,-1,559,1723,0,0
-658,-699,0,0,0,0,0,0,0,0,0,-1,566,1723,0,0
-651,-699,0,0,0,0,0,0,0,0,0,-1,573,1723,0,0
-644,-699,0,0,0,0,0,0,0,0,0,-1,580,1723,0,0
-637,-699,0,0,0,0,0,0,0,0,0,-1,587,1723,0,0
-630,-699,0,0,0,0,0,0,0,0,0,-1,594,1723,0,0
-623,-699,0,0,0,0,0,0,0,0,0,-1,601,1723,0,0
-616,-699,0,0,0,0,0,0,0,0,0,-1,608,1723,0,0
-609,-699,0,0,0,0,0,0,0,0,0,-1,615,1723,0,0
-602,-699,0,0,0,0,0,0,0,0,0,-1,622,1723,0,0
-595,-699,0,0,0,0,0,0,0,0,0,-1,629,1723,0,0
-588,-699,0,0,0,0,0,0,0,0,0,-1,636,1723,0,0
-581,-699,0,0,0,0,0,0,0,0,0,-1,643,1723,0,0
-574,-699,0,0,0,0,0,0,0,0,0,-1,650,1723,0,0
-567,-699,0,0,0,0,0,0,0,0,0,-1,657,1723,0,0
-560,-699,0,0,0,0,0,0,0,0,0,-1,664,1723,0,0
-553,-699,0,0,0,0,0,0,0,0,0,-1,671,1723,0,0
-546,-699,0,0,0,0,0,0,0,0,0,-1,678,1723,0,0
-539,-699,0,0,0,0,0,0,0,0,0,-1,685,1723,0,0
-532,-699,0,0,0,0,0,0,0,0,0,-1,692,1723,0,0
-525,-699,0,0,0,0,0,0,0,0,0,-1,699,1723,0,0
-518,-699,0,0,0,0,0,0,0,0,0,-1,706,1723,0,0
-511,-699,0,0,0,0,0,0,0,0,0,-1,713,1723,0,0
-504,-699,0,0,0,0,0,0,0,0,0,-1,720,1723,0,0
-497,-699,0,0,0,0,0,0,0,0,0,-1,727,1723,0,0
-490,-699,0,0,0,0,0,0,0,0,0,-1,734,1723,0,0
-483,-699,0,0,0,0,0,0,0,0,0,-1,741,1723,0,0
-476,-699,0,0,0,0,0,0,0,0,0,-1,748,1723,0,0
-469,-699,0,0,0,0,0,0,0,0,0,-1,755,1723,0,0
-462,-699,0,0,0,0,0,0,0,0,0,-1,762,1723,0,0
-455,-699,0,0,0,0,0,0,0,0,0,-1,769,1723,0,0
-448,-699,0,0,0,0,0,0,0,0,0,-1,776,1723,0,0
-441,-699,0,0,0,0,0,0,0,0,0,-1,783,1723,0,0
-434,-699,0,0,0,0,0,0,0,0,0,-1,790,1723,0,0
-427,-699,0,0,0,0,0,0,0,0,0,-1,797,1723,0,0
-420,-699,0,0,0,0,0,0,0,0,0,-1,804,1723,0,0
-413,-699,0,0,0,0,0,0,0,0,0,-1,811,1723,0,0
-406,-699,0,0,0,0,0,0,0,0,0,-1,818,1723,0,0
-399,-699,0,0,0,0,0,0,0,0,0,-1,825,1723,0,0
-392,-699,0,0,0,0,0,0,0,0,0,-1,832,1723,0,0
-385,-699,0,0,0,0,0,0,0,0,0,-1,839,1723,0,0
-378,-699,0,0,0,0,0,0,0,0,0,-1,846,1723,0,0
-371,-699,0,0,0,0,0,0,0,0,0,-1,853,1723,0,0
-364,-699,0,0,0,0,0,0,0,0,0,-1,860,1723,0,0
-357,-699,0,0,0,0,0,0,0,0,0,-1,867,1723,0,0
-350,-699,0,0,0,0,0,0,0,0,0,-1,874,1723,0,0
-343,-699,0,0,0,0,0,0,0,0,0,-1,881,1723,0,0
-336,-699,0,0,0,0,0,0,0,0,0,-1,888,1723,0,0
-329,-699,0,0,0,0,0,0,0,0,0,-1,895,1723,0,0
-322,-699,0,0,0,0,0,0,0,0,0,-1,902,1723,0,0
-315,-699,6.20001,19.5193,0,0,0,0,0,0,0,-1,909,1723,6.20001,-19.5193
-308,-699,6.98151,18.9218,0,0,0,0,0,0,0,-1,916,1723,6.98151,-18.9217
-301,-699,4.72729,12.8752,0,0,0,0,0,0,0,-1,923,1723,4.72732,-12.8752
-294,-699,6.90332,19.8601,0,0,0,0,0,0,0,-1,930,1723,6.90332,-19.8601
-287,-699,6.16406,19.6458,0,0,0,0,0,0,0,-1,937,1723,6.16407,-19.6457
-280,-699,5.85413,17.4639,0,0,0,0,0,0,0,-1,944,1723,5.85414,-17.4639
-273,-699,9.08301,16.9208,0,0,0,0,0,0,0,-1,951,1723,9.08302,-16.9207
-266,-699,9.6546,17.3992,0,0,0,0,0,0,0,-1,958,1723,9.65459,-17.3991
-259,-699,5.67737,10.8545,0,0,0,0,0,0,0,-1,965,1723,5.67736,-10.8545
-252,-699,5.60577,17.754,0,0,0,0,0,0,0,-1,972,1723,5.60576,-17.754
-245,-699,5.59424,17.9935,0,0,0,0,0,0,0,-1,979,1723,5.59425,-17.9935
-238,-699,5.53888,18.4429,0,0,0,0,0,0,0,-1,986,1723,5.53888,-18.4428
-231,-699,5.39923,18.7061,0.000326031,0.00113682,0.00156997,0.0023529,-0.000890042,0.911748,0.00193477,0.0418693,993,1723,5.39925,-18.706
-224,-699,5.42944,18.7537,0.00163387,3.79356e-05,0.00174723,0.00275672,-0.00108492,0.57119,0.00228691,0.0364065,1000,1723,5.42944,-18.7536
-217,-699,5.4267,18.9933,0.00218053,-0.000710061,0.00168747,0.00295704,-0.00148657,0.431274,0.00261193,0.0268327,1007,1723,5.42671,-18.9933
-210,-699,5.4303,19.2457,0.00253691,-0.000568776,0.0020978,0.00359406,-0.00162593,0.46679,0.00308434,0.0178422,1014,1723,5.43028,-19.2457
-203,-699,5.41248,19.4332,0.00274337,-0.000140367,0.00260386,0.00427793,-0.00167492,0.532542,0.00354471,0.0197664,1021,1723,5.41243,-19.4332
-196,-699,5.35718,19.6123,0.00279005,0.000203723,0.00294155,0.00471014,-0.00171637,0.578304,0.0038422,0.0171155,1028,1723,5.35715,-19.6123
-189,-699,5.33008,19.828,0.00288718,0.0004842,0.00298166,0.00490033,-0.00152895,0.593871,0.00387833,0.00892218,1035,1723,5.33012,-19.8281
-182,-699,5.31238,20.0344,0.00273572,0.000896759,0.00292113,0.00487866,-0.00124618,0.632922,0.00373774,0.0123894,1042,1723,5.31236,-20.0344
-175,-699,5.29358,20.2203,0.00254088,0.00148274,0.00299643,0.00505459,-0.00103097,0.698016,0.00376079,0.0153173,1049,1723,5.29357,-20.2204
-168,-699,5.31287,20.3951,0.00241919,0.001927,0.00297591,0.00515917,-0.000812975,0.744145,0.00374001,0.0164943,1056,1723,5.31286,-20.3952
-161,-699,5.33032,20.5779,0.00224906,0.00220739,0.00281709,0.00504539,-0.000588938,0.7817,0.00357611,0.0138272,1063,1723,5.33029,-20.5778
-154,-699,5.30481,20.7377,0.00210251,0.00231401,0.00257682,0.00478725,-0.000370728,0.805906,0.00332198,0.012959,1070,1723,5.30484,-20.7377
-147,-699,5.27136,20.8892,0.0020685,0.00224461,0.0022328,0.00439109,-7.79785e-05,0.805106,0.00295373,0.0135075,1077,1723,5.27132,-20.8892
-140,-699,5.26208,21.0325,0.00199612,0.00224515,0.00197473,0.00409929,0.00014198,0.816884,0.00268678,0.00951437,1084,1723,5.26213,-21.0325
-133,-699,5.27307,21.1987,0.00193333,0.00208962,0.00165207,0.00366539,0.000357561,0.809031,0.00233355,0.00903327,1091,1723,5.27308,-21.1987
-126,-699,5.28003,21.3507,0.00203064,0.00180161,0.00145911,0.00337972,0.000452522,0.746236,0.00211848,0.0114276,1098,1723,5.28004,-21.3507
-119,-699,5.28345,21.5054,0.00211963,0.001465,0.00136116,0.00319228,0.000392357,0.667404,0.0020102,0.016334,1105,1723,5.28345,-21.5054
-112,-699,5.27075,21.6366,0.00229071,0.00113301,0.0012864,0.0031225,0.000301225,0.573979,0.00198887,0.0116788,1112,1723,5.27072,-21.6366
-105,-699,5.29126,21.7751,0.00240743,0.000681578,0.00115452,0.00298587,0.000103132,0.46447,0.00195711,0.012132,1119,1723,5.29121,-21.7751
-98,-699,5.34229,21.8888,0.00248176,0.000496969,0.00114944,0.00300793,-2.92057e-05,0.429294,0.00201509,0.0139896,1126,1723,5.34228,-21.8888
-91,-699,5.34729,21.9923,0.00258166,0.000423608,0.00117764,0.00309986,-9.45958e-05,0.414536,0.00209882,0.0197008,1133,1723,5.34734,-21.9923
-84,-699,5.31763,22.1218,0.00272075,0.000302065,0.00114953,0.00317992,-0.000157105,0.380024,0.00217421,0.0239962,1140,1723,5.31766,-22.1219
-77,-699,5.33191,22.2463,0.00284862,0.000259009,0.000938249,0.00315283,-4.51951e-05,0.313531,0.00211711,0.0158779,1147,1723,5.33193,-22.2463
-70,-699,5.33069,22.3472,0.00295015,0.000299306,0.000659329,0.00310509,0.000144371,0.230802,0.00202365,0.0166104,1154,1723,5.33073,-22.3472
-63,-699,5.33606,22.4817,0.0033091,0.000160827,8.46427e-06,0.00330912,0.000160805,0.00268852,0.00215448,0.0144547,1161,1723,5.33605,-22.4817
-56,-699,5.32019,22.5833,0.00731616,-0.000360245,-0.000289706,0.00732707,-0.000371163,-0.0376683,0.00501302,0.0105557,1168,1723,5.32015,-22.5833
-49,-699,5.34058,22.7217,0.0113578,-0.00110948,0.00157297,0.0115532,-0.00130488,0.123588,0.00817188,0.0234992,1175,1723,5.34062,-22.7217
-42,-699,5.37048,22.8392,0.0132747,-0.00139105,0.00372287,0.0141656,-0.00228197,0.234892,0.0102891,0.027343,1182,1723,5.37047,-22.8393
-35,-699,5.39685,22.8867,0.0147317,-0.00153927,0.0054944,0.0164133,-0.00322084,0.296999,0.0121589,0.0248978,1189,1723,5.39684,-22.8867
-28,-699,5.43823,22.9205,0.0160259,-0.00134467,0.00668516,0.0183008,-0.00361956,0.327999,0.0135689,0.018752,1196,1723,5.43818,-22.9205
-21,-699,5.43384,22.944,0.0168182,-0.00164622,0.00790813,0.0197422,-0.00457016,0.354151,0.01492,0.0124735,1203,1723,5.43381,-22.944
-14,-699,5.44702,23.0223,0.0169917,-0.000504884,0.00954268,0.0211892,-0.00470246,0.414401,0.0159268,0.0112735,1210,1723,5.44707,-23.0224
-7,-699,5.45764,23.1028,0.0170802,0.000915174,0.0108427,0.0225214,-0.00452601,0.465111,0.0167283,0.00899807,1217,1723,5.4576,-23.1028
0,-699,5.4729,23.173,0.0171708,0.00288383,0.0117172,0.0237504,-0.00369576,0.511654,0.0171984,0.00979242,1224,1723,5.47291,-23.1729
7,-699,5.4978,23.2301,0.0169981,0.00505107,0.0120392,0.0244643,-0.00241511,0.555108,0.0171713,0.0146597,1231,1723,5.49778,-23.2301
14,-699,5.52722,23.2678,0.0166792,0.00717959,0.0120644,0.0248951,-0.00103633,0.597864,0.0169527,0.0165091,1238,1723,5.52722,-23.2678
21,-699,5.5603,23.2961,0.0161135,0.00901179,0.011316,0.0244227,0.000702594,0.633369,0.0160527,0.0162913,1245,1723,5.56029,-23.2961
28,-699,5.59973,23.3162,0.0154384,0.00978394,0.0101371,0.0231351,0.00208721,0.649405,0.0147769,0.0157479,1252,1723,5.59976,-23.3162
35,-699,5.62231,23.3743,0.0148066,0.010958,0.0101096,0.0231734,0.00259118,0.69135,0.0146618,0.0137712,1259,1723,5.62228,-23.3743
42,-699,5.64099,23.4102,0.0135782,0.0123147,0.0103723,0.023338,0.00255495,0.754982,0.0147808,0.0129697,1266,1723,5.64096,-23.4101
49,-699,5.66943,23.4429,0.0113512,0.0133204,0.00893029,0.0213202,0.00335139,0.840306,0.0132385,0.0148979,1273,1723,5.66946,-23.4429
56,-699,5.71729,23.4648,0.0103785,0.0143058,0.00676428,0.0193857,0.00529861,0.926662,0.0115694,0.0148929,1280,1723,5.71734,-23.4648
63,-699,5.73035,23.4519,0.0106383,0.0143357,0.00462723,0.0174699,0.00750414,0.975447,0.0101196,0.0132456,1287,1723,5.73035,-23.4519
70,-699,5.72961,23.4585,0.0114442,0.0137687,0.00254442,0.0154037,0.00980916,0.999634,0.00900363,0.0115285,1294,1723,5.7296,-23.4584
77,-699,5.74268,23.4556,0.0118283,0.0134808,0.000866176,0.0138516,0.0114575,1.1663,0.00854886,0.0115898,1301,1723,5.74272,-23.4556
84,-699,5.76257,23.4329,0.0120183,0.0134106,-0.00118493,0.0140888,0.0113402,-1.05099,0.00862358,0.0137149,1308,1723,5.76263,-23.4329
91,-699,5.79395,23.4332,0.0125303,0.012062,-0.00374411,0.0160476,0.00854471,-0.754168,0.00927157,0.0125435,1315,1723,5.79397,-23.4332
98,-699,5.81616,23.4464,0.0130191,0.0108623,-0.00611303,0.0181481,0.00573329,-0.698095,0.0107119,0.0112811,1322,1723,5.81616,-23.4465
105,-699,5.82422,23.4484,0.0135629,0.00987129,-0.00836279,0.0202811,0.00315301,-0.676783,0.0126019,0.0153123,1329,1723,5.82425,-23.4484
112,-699,5.81689,23.3915,0.0143594,0.00876157,-0.0102426,0.0221786,0.000942346,-0.652023,0.0144819,0.0216247,1336,1723,5.81685,-23.3915
119,-699,5.83838,23.3536,0.0149438,0.00736111,-0.0119875,0.0237252,-0.00142032,-0.632238,0.0163109,0.015962,1343,1723,5.8384,-23.3536
126,-699,5.89636,23.3302,0.0151371,0.00571402,-0.0131761,0.0244187,-0.00356759,-0.613692,0.0175893,0.0158141,1350,1723,5.89636,-23.3302
133,-699,5.93445,23.3149,0.0146945,0.00422027,-0.0137932,0.0242113,-0.00529657,-0.603961,0.0181656,0.013987,1357,1723,5.93444,-23.3149
140,-699,5.9646,23.2841,0.0136464,0.00174424,-0.0148517,0.0236949,-0.00830432,-0.594844,0.0191738,0.0159093,1364,1723,5.96464,-23.2841
147,-699,5.96362,23.2166,0.0125837,-0.000303999,-0.0148614,0.0223381,-0.0100584,-0.580833,0.0191468,0.0136278,1371,1723,5.96358,-23.2166
154,-699,5.94214,23.158,0.0112803,-0.00187883,-0.0124952,0.0188223,-0.00942092,-0.543061,0.0166047,0.0138591,1378,1723,5.94215,-23.1579
161,-699,5.97778,23.1156,0.008102,-0.00387664,-0.00980644,0.0136035,-0.00937811,-0.511253,0.013343,0.0108272,1385,1723,5.97776,-23.1156
168,-699,5.99438,23.0701,0.00406087,-0.00431877,-0.00698139,0.00801319,-0.00827109,-0.515137,0.00940213,0.0121589,1392,1723,5.99438,-23.07
175,-699,6.03247,23.0057,-0.000239487,-0.00374078,-0.00403324,0.00240666,-0.00638693,-0.580641,0.00524748,0.0133706,1399,1723,6.03251,-23.0058
182,-699,6.05957,22.9137,-0.00107057,-0.00376478,-0.00227579,0.000226928,-0.00506227,-0.518166,0.00345298,0.013726,1406,1723,6.05962,-22.9137
189,-699,6.0542,22.8285,0.000528442,-0.00300443,-0.000499539,0.000597717,-0.00307371,-0.137799,0.00227471,0.0161906,1413,1723,6.05421,-22.8285
196,-699,6.04346,22.7303,0.00146643,-0.000212646,0.00110621,0.00201561,-0.000761826,0.460803,0.00165712,0.0152146,1420,1723,6.04349,-22.7303
203,-699,6.04871,22.6448,0.00140918,0.0011664,0.00177948,0.00307141,-0.000495828,0.751343,0.00223132,0.0129322,1427,1723,6.04872,-22.6448
210,-699,6.0708,22.5641,0.000948095,0.00106392,0.00151379,0.0025209,-0.000508889,0.804517,0.00187341,0.0134139,1434,1723,6.07084,-22.564
217,-699,6.08801,22.4717,0.000588416,0.000773508,0.00105966,0.00174465,-0.000382728,0.828956,0.00130946,0.0137608,1441,1723,6.08804,-22.4717
224,-699,6.10217,22.3644,0.000486905,0.0006388,0.000825031,0.00139137,-0.000265667,0.831296,0.00102765,0.0146069,1448,1723,6.10214,-22.3644
231,-699,6.10815,22.2439,0.000425253,0.000493162,0.000547748,0.00100801,-8.9592e-05,0.816353,0.000703772,0.011479,1455,1723,6.10821,-22.2439
238,-699,6.09473,22.1038,0.000429342,0.000423395,0.000299411,0.000725794,0.000126942,0.780433,0.00044759,0.010401,1462,1723,6.0947,-22.1037
245,-699,6.09338,22.0026,0.000400513,0.000429115,5.93596e-05,0.000475872,0.000353756,0.903608,0.000285389,0.0117737,1469,1723,6.09344,-22.0026
252,-699,6.09033,21.9281,0.00033556,0.000475509,-0.000121277,0.000545551,0.000265518,-1.04706,0.000315011,0.00986117,1476,1723,6.09037,-21.9281
259,-699,6.09521,21.7947,0.000241062,0.000514126,-0.000200295,0.000619997,0.000135191,-1.08455,0.000376449,0.0100278,1483,1723,6.09517,-21.7947
266,-699,6.08801,21.6375,3.29056e-05,0.000664779,-0.000151624,0.000699279,-1.59425e-06,-1.34707,0.000466718,0.0125561,1490,1723,6.08797,-21.6374
273,-699,6.08838,21.495,-0.000246403,0.000821755,-6.32902e-05,0.000825492,-0.00025014,-1.51182,0.000649956,0.0116709,1497,1723,6.08833,-21.495
280,-699,6.10559,21.3555,-0.000618642,0.0010211,0.000101064,0.00102731,-0.000624848,1.50947,0.000963261,0.0114981,1504,1723,6.10562,-21.3555
287,-699,6.10217,21.205,-0.00102163,0.00110664,0.000418413,0.00118594,-0.00110093,1.38348,0.00132063,0.0103129,1511,1723,6.10211,-21.205
294,-699,6.09448,21.0564,-0.00140231,0.00124137,0.000684328,0.00140801,-0.00156895,1.33194,0.00171959,0.0106708,1518,1723,6.09453,-21.0564
301,-699,6.09937,20.9259,-0.00174427,0.00138319,0.000703625,0.0015342,-0.00189528,1.35938,0.00198367,0.0115497,1525,1723,6.09933,-20.926
308,-699,6.09167,20.7853,-0.00201629,0.00180468,0.000482644,0.0018647,-0.00207631,1.44707,0.00227644,0.0167279,1532,1723,6.09169,-20.7853
315,-699,6.09192,20.6002,-0.00223898,0.00207667,0.000254826,0.00209166,-0.00225397,1.51202,0.00250954,0.0197824,1539,1723,6.09196,-20.6002
322,-699,6.05164,20.4073,-0.0023388,0.00241245,-0.0001031,0.00241469,-0.00234104,-1.54911,0.00274583,0.0206561,1546,1723,6.05169,-20.4073
329,-699,6.02222,20.2321,-0.00226986,0.00296411,-0.000627083,0.00303819,-0.00234395,-1.4532,0.00311598,0.0161093,1553,1723,6.02216,-20.2321
336,-699,6.04468,20.062,-0.00173755,0.00398436,-0.00152334,0.00436465,-0.00211783,-1.32616,0.00381686,0.013595,1560,1723,6.04467,-20.062
343,-699,6.06201,19.8776,-0.00104525,0.00496781,-0.00263608,0.0059598,-0.00203724,-1.21088,0.00479866,0.018258,1567,1723,6.06206,-19.8776
350,-699,6.06421,19.6876,-0.000455111,0.00593493,-0.00372422,0.00764685,-0.00216702,-1.13993,0.00595319,0.0284259,1574,1723,6.06419,-19.6876
357,-699,6.0509,19.5157,0.000603432,0.00748205,-0.00505093,0.0101535,-0.00206797,-1.0843,0.00755325,0.0369452,1581,1723,6.05088,-19.5157
364,-699,6.03748,19.2614,0.00214459,0.00926062,-0.00651464,0.0131255,-0.00172033,-1.03534,0.00937656,0.0396029,1588,1723,6.0375,-19.2613
371,-699,6.11719,18.9692,0,0,0,0,0,0,0,-1,1595,1723,6.11713,-18.9692
378,-699,5.91895,18.5947,0,0,0,0,0,0,0,-1,1602,1723,5.91896,-18.5948
385,-699,5.99536,18.052,0,0,0,0,0,0,0,-1,1609,1723,5.99532,-18.0521
392,-699,5.21069,16.861,0,0,0,0,0,0,0,-1,1616,1723,5.21066,-16.8609
399,-699,3.91516,9.81726,0,0,0,0,0,0,0,-1,1623,1723,3.9152,-9.81721
406,-699,5.50757,21.6672,0,0,0,0,0,0,0,-1,1630,1723,5.50755,-21.6672
413,-699,9.31396,23.2781,0,0,0,0,0,0,0,-1,1637,1723,9.31396,-23.278
420,-699,2.15076,7.65527,0,0,0,0,0,0,0,-1,1644,1723,2.15079,-7.65522
427,-699,3.36328,8.2428,0,0,0,0,0,0,0,-1,1651,1723,3.36332,-8.24283
434,-699,4.66455,8.90222,0,0,0,0,0,0,0,-1,1658,1723,4.66456,-8.90223
441,-699,0,0,0,0,0,0,0,0,0,-1,1665,1723,0,0
448,-699,0,0,0,0,0,0,0,0,0,-1,1672,1723,0,0
455,-699,0,0,0,0,0,0,0,0,0,-1,1679,1723,0,0
462,-699,0,0,0,0,0,0,0,0,0,-1,1686,1723,0,0
469,-699,0,0,0,0,0,0,0,0,0,-1,1693,1723,0,0
476,-699,0,0,0,0,0,0,0,0,0,-1,1700,1723,0,0
483,-699,0,0,0,0,0,0,0,0,0,-1,1707,1723,0,0
490,-699,0,0,0,0,0,0,0,0,0,-1,1714,1723,0,0
497,-699,0,0,0,0,0,0,0,0,0,-1,1721,1723,0,0
504,-699,0,0,0,0,0,0,0,0,0,-1,1728,1723,0,0
511,-699,0,0,0,0,0,0,0,0,0,-1,1735,1723,0,0
518,-699,0,0,0,0,0,0,0,0,0,-1,1742,1723,0,0
525,-699,0,0,0,0,0,0,0,0,0,-1,1749,1723,0,0
532,-699,0,0,0,0,0,0,0,0,0,-1,1756,1723,0,0
539,-699,0,0,0,0,0,0,0,0,0,-1,1763,1723,0,0
546,-699,0,0,0,0,0,0,0,0,0,-1,1770,1723,0,0
553,-699,0,0,0,0,0,0,0,0,0,-1,1777,1723,0,0
560,-699,0,0,0,0,0,0,0,0,0,-1,1784,1723,0,0
567,-699,0,0,0,0,0,0,0,0,0,-1,1791,1723,0,0
574,-699,0,0,0,0,0,0,0,0,0,-1,1798,1723,0,0
581,-699,0,0,0,0,0,0,0,0,0,-1,1805,1723,0,0
588,-699,0,0,0,0,0,0,0,0,0,-1,1812,1723,0,0
595,-699,0,0,0,0,0,0,0,0,0,-1,1819,1723,0,0
602,-699,0,0,0,0,0,0,0,0,0,-1,1826,1723,0,0
609,-699,0,0,0,0,0,0,0,0,0,-1,1833,1723,0,0
616,-699,0,0,0,0,0,0,0,0,0,-1,1840,1723,0,0
623,-699,0,0,0,0,0,0,0,0,0,-1,1847,1723,0,0
630,-699,0,0,0,0,0,0,0,0,0,-1,1854,1723,0,0
637,-699,0,0,0,0,0,0,0,0,0,-1,1861,1723,0,0
644,-699,0,0,0,0,0,0,0,0,0,-1,1868,1723,0,0
651,-699,0,0,0,0,0,0,0,0,0,-1,1875,1723,0,0
658,-699,0,0,0,0,0,0,0,0,0,-1,1882,1723,0,0
665,-699,0,0,0,0,0,0,0,0,0,-1,1889,1723,0,0
672,-699,0,0,0,0,0,0,0,0,0,-1,1896,1723,0,0
679,-699,0,0,0,0,0,0,0,0,0,-1,1903,1723,0,0
686,-699,0,0,0,0,0,0,0,0,0,-1,1910,1723,0,0
693,-699,0,0,0,0,0,0,0,0,0,-1,1917,1723,0,0
700,-699,0,0,0,0,0,0,0,0,0,-1,1924,1723,0,0
707,-699,0,0,0,0,0,0,0,0,0,-1,1931,1723,0,0
714,-699,0,0,0,0,0,0,0,0,0,-1,1938,1723,0,0
721,-699,0,0,0,0,0,0,0,0,0,-1,1945,1723,0,0
728,-699,0,0,0,0,0,0,0,0,0,-1,1952,1723,0,0
735,-699,0,0,0,0,0,0,0,0,0,-1,1959,1723,0,0
742,-699,0,0,0,0,0,0,0,0,0,-1,1966,1723,0,0
749,-699,0,0,0,0,0,0,0,0,0,-1,1973,1723,0,0
756,-699,0,0,0,0,0,0,0,0,0,-1,1980,1723,0,0
763,-699,0,0,0,0,0,0,0,0,0,-1,1987,1723,0,0
770,-699,0,0,0,0,0,0,0,0,0,-1,1994,1723,0,0
777,-699,0,0,0,0,0,0,0,0,0,-1,2001,1723,0,0
784,-699,0,0,0,0,0,0,0,0,0,-1,2008,1723,0,0
791,-699,0,0,0,0,0,0,0,0,0,-1,2015,1723,0,0
798,-699,0,0,0,0,0,0,0,0,0,-1,2022,1723,0,0
805,-699,0,0,0,0,0,0,0,0,0,-1,2029,1723,0,0
812,-699,0,0,0,0,0,0,0,0,0,-1,2036,1723,0,0
-700,-706,0,0,0,0,0,0,0,0,0,-1,524,1730,0,0
-693,-706,0,0,0,0,0,0,0,0,0,-1,531,1730,0,0
-686,-706,0,0,0,0,0,0,0,0,0,-1,538,1730,0,0
-679,-706,0,0,0,0,0,0,0,0,0,-1,545,1730,0,0
-672,-706,0,0,0,0,0,0,0,0,0,-1,552,1730,0,0
-665,-706,0,0,0,0,0,0,0,0,0,-1,559,1730,0,0
-658,-706,0,0,0,0,0,0,0,0,0,-1,566,1730,0,0
-651,-706,0,0,0,0,0,0,0,0,0,-1,573,1730,0,0
-644,-706,0,0,0,0,0,0,0,0,0,-1,580,1730,0,0
-637,-706,0,0,0,0,0,0,0,0,0,-1,587,1730,0,0
-630,-706,0,0,0,0,0,0,0,0,0,-1,594,1730,0,0
-623,-706,0,0,0,0,0,0,0,0,0,-1,601,1730,0,0
-616,-706,0,0,0,0,0,0,0,0,0,-1,608,1730,0,0
-609,-706,0,0,0,0,0,0,0,0,0,-1,615,1730,0,0
-602,-706,0,0,0,0,0,0,0,0,0,-1,622,1730,0,0
-595,-706,0,0,0,0,0,0,0,0,0,-1,629,1730,0,0
-588,-706,0,0,0,0,0,0,0,0,0,-1,636,1730,0,0
-581,-706,0,0,0,0,0,0,0,0,0,-1,643,1730,0,0
-574,-706,0,0,0,0,0,0,0,0,0,-1,650,1730,0,0
-567,-706,0,0,0,0,0,0,0,0,0,-1,657,1730,0,0
-560,-706,0,0,0,0,0,0,0,0,0,-1,664,1730,0,0
-553,-706,0,0,0,0,0,0,0,0,0,-1,671,1730,0,0
-546,-706,0,0,0,0,0,0,0,0,0,-1,678,1730,0,0
-539,-706,0,0,0,0,0,0,0,0,0,-1,685,1730,0,0
-532,-706,0,0,0,0,0,0,0,0,0,-1,692,1730,0,0
-525,-706,0,0,0,0,0,0,0,0,0,-1,699,1730,0,0
-518,-706,0,0,0,0,0,0,0,0,0,-1,706,1730,0,0
-511,-706,0,0,0,0,0,0,0,0,0,-1,713,1730,0,0
-504,-706,0,0,0,0,0,0,0,0,0,-1,720,1730,0,0
-497,-706,0,0,0,0,0,0,0,0,0,-1,727,1730,0,0
-490,-706,0,0,0,0,0,0,0,0,0,-1,734,1730,0,0
-483,-706,0,0,0,0,0,0,0,0,0,-1,741,1730,0,0
-476,-706,0,0,0,0,0,0,0,0,0,-1,748,1730,0,0
-469,-706,0,0,0,0,0,0,0,0,0,-1,755,1730,0,0
-462,-706,0,0,0,0,0,0,0,0,0,-1,762,1730,0,0
-455,-706,0,0,0,0,0,0,0,0,0,-1,769,1730,0,0
-448,-706,0,0,0,0,0,0,0,0,0,-1,776,1730,0,0
-441,-706,0,0,0,0,0,0,0,0,0,-1,783,1730,0,0
-434,-706,0,0,0,0,0,0,0,0,0,-1,790,1730,0,0
-427,-706,0,0,0,0,0,0,0,0,0,-1,797,1730,0,0
-420,-706,0,0,0,0,0,0,0,0,0,-1,804,1730,0,0
-413,-706,0,0,0,0,0,0,0,0,0,-1,811,1730,0,0
-406,-706,0,0,0,0,0,0,0,0,0,-1,818,1730,0,0
-399,-706,0,0,0,0,0,0,0,0,0,-1,825,1730,0,0
-392,-706,0,0,0,0,0,0,0,0,0,-1,832,1730,0,0
-385,-706,0,0,0,0,0,0,0,0,0,-1,839,1730,0,0
-378,-706,0,0,0,0,0,0,0,0,0,-1,846,1730,0,0
-371,-706,0,0,0,0,0,0,0,0,0,-1,853,1730,0,0
-364,-706,0,0,0,0,0,0,0,0,0,-1,860,1730,0,0
-357,-706,0,0,0,0,0,0,0,0,0,-1,867,1730,0,0
-350,-706,0,0,0,0,0,0,0,0,0,-1,874,1730,0,0
-343,-706,0,0,0,0,0,0,0,0,0,-1,881,1730,0,0
-336,-706,0,0,0,0,0,0,0,0,0,-1,888,1730,0,0
-329,-706,0,0,0,0,0,0,0,0,0,-1,895,1730,0,0
-322,-706,0,0,0,0,0,0,0,0,0,-1,902,1730,0,0
-315,-706,0,0,0,0,0,0,0,0,0,-1,909,1730,0,0
-308,-706,5.08191,14.6245,0,0,0,0,0,0,0,-1,916,1730,5.08188,-14.6245
-301,-706,7.45007,21.1975,0,0,0,0,0,0,0,-1,923,1730,7.45005,-21.1976
-294,-706,7.04108,20.9526,0,0,0,0,0,0,0,-1,930,1730,7.04107,-20.9527
-287,-706,6.48712,20.8536,0,0,0,0,0,0,0,-1,937,1730,6.48709,-20.8537
-280,-706,5.87341,20.8206,0,0,0,0,0,0,0,-1,944,1730,5.87338,-20.8206
-273,-706,5.28461,20.999,0,0,0,0,0,0,0,-1,951,1730,5.2846,-20.999
-266,-706,6.81213,14.6445,0,0,0,0,0,0,0,-1,958,1730,6.81216,-14.6445
-259,-706,3.47852,20.7363,0,0,0,0,0,0,0,-1,965,1730,3.47851,-20.7364
-252,-706,3.84259,20.1979,0,0,0,0,0,0,0,-1,972,1730,3.84256,-20.1979
-245,-706,4.698,19.2992,0,0,0,0,0,0,0,-1,979,1730,4.69799,-19.2991
-238,-706,5.45361,18.7852,0,0,0,0,0,0,0,-1,986,1730,5.45362,-18.7851
-231,-706,5.53552,18.6827,0.00218725,-1.94145e-05,0.0019835,0.00335363,-0.0011858,0.531581,0.00271863,0.0451889,993,1730,5.5355,-18.6828
-224,-706,5.6568,18.916,0.00371585,-0.00135005,0.00219512,0.00453467,-0.00216887,0.357033,0.00394982,0.0476215,1000,1730,5.65681,-18.916
-217,-706,5.67969,19.0057,0.00426147,-0.00221538,0.00218297,0.00492852,-0.00288243,0.29656,0.00456094,0.0483422,1007,1730,5.67967,-19.0057
-210,-706,5.65936,19.1705,0.00459076,-0.00163856,0.00284637,0.00569545,-0.00274325,0.37021,0.00497047,0.0426817,1014,1730,5.65934,-19.1705
-203,-706,5.67163,19.5131,0.00476792,-0.000887445,0.00361633,0.00653084,-0.00265036,0.453588,0.0054563,0.0290907,1021,1730,5.67169,-19.513
-196,-706,5.5658,19.6531,0.00471705,-0.000264444,0.00410555,0.00702832,-0.00257571,0.51274,0.00574009,0.0217391,1028,1730,5.5658,-19.6531
-189,-706,5.52332,19.828,0.00466953,0.000262142,0.00417904,0.00719031,-0.00225863,0.542766,0.00569765,0.0167555,1035,1730,5.52334,-19.828
-182,-706,5.4895,20.05,0.0042508,0.000904219,0.00409191,0.00699833,-0.00184331,0.591309,0.00538617,0.0124623,1042,1730,5.4895,-20.05
-175,-706,5.4696,20.2136,0.00375176,0.00184095,0.00418825,0.00709219,-0.00149949,0.673259,0.00529915,0.0151486,1049,1730,5.4696,-20.2136
-168,-706,5.48193,20.3824,0.0033709,0.00252483,0.0041034,0.00707301,-0.00117728,0.734033,0.00515279,0.0168851,1056,1730,5.48191,-20.3824
-161,-706,5.48425,20.5667,0.00292623,0.00302241,0.00381261,0.00678723,-0.000838593,0.791705,0.00482869,0.0137506,1063,1730,5.48424,-20.5666
-154,-706,5.46216,20.7321,0.00250972,0.00322092,0.00343621,0.00631989,-0.000589245,0.836958,0.00442278,0.0133751,1070,1730,5.46218,-20.732
-147,-706,5.42651,20.8651,0.00225238,0.00320867,0.00293207,0.00570132,-0.000240273,0.866223,0.00388345,0.0122811,1077,1730,5.42653,-20.8651
-140,-706,5.42554,21.0344,0.00195073,0.00335008,0.00256032,0.00530461,-3.79561e-06,0.918781,0.00353767,0.0107925,1084,1730,5.42558,-21.0344
-133,-706,5.43018,21.1854,0.00163243,0.00328902,0.00206018,0.00468118,0.000240271,0.976534,0.00304386,0.00876797,1091,1730,5.43022,-21.1854
-126,-706,5.43079,21.3311,0.00152343,0.00297258,0.00170451,0.00410013,0.000395875,0.986372,0.00261148,0.0137327,1098,1730,5.4308,-21.3311
-119,-706,5.42786,21.4817,0.00144225,0.00261478,0.00150718,0.0036457,0.000411328,0.970883,0.00230562,0.0179167,1105,1730,5.42783,-21.4817
-112,-706,5.41785,21.6659,0.00151877,0.00226911,0.0013438,0.00328913,0.000498748,0.921526,0.00204686,0.01253,1112,1730,5.41784,-21.6658
-105,-706,5.40955,21.7921,0.00153718,0.00164961,0.00105354,0.00264844,0.000538355,0.812052,0.00161634,0.00933237,1119,1730,5.40953,-21.7921
-98,-706,5.44507,21.8918,0.00150251,0.00142301,0.000928502,0.00239211,0.000533407,0.764004,0.00145002,0.0111043,1126,1730,5.44512,-21.8918
-91,-706,5.45166,22.0098,0.00151564,0.00135309,0.000943338,0.0023812,0.000487536,0.742425,0.00145249,0.0143254,1133,1730,5.45163,-22.0098
-84,-706,5.43323,22.1396,0.00153329,0.00124646,0.000936446,0.00233724,0.000442514,0.709415,0.00143361,0.0164253,1140,1730,5.43323,-22.1396
-77,-706,5.45508,22.2615,0.00165409,0.00114718,0.000792982,0.00223314,0.000568133,0.630718,0.00134014,0.0155634,1147,1730,5.45511,-22.2615
-70,-706,5.43201,22.3719,0.00174709,0.00097595,0.000536051,0.00202183,0.000701205,0.473624,0.00118543,0.0181901,1154,1730,5.43203,-22.3719
-63,-706,5.42224,22.4827,0.00196396,0.000779938,0.000139341,0.00198013,0.000763761,0.115581,0.00115314,0.0138213,1161,1730,5.42225,-22.4827
-56,-706,5.44702,22.5842,0.00390769,0.00034495,-5.3966e-05,0.0039085,0.000344133,-0.0151427,0.00249887,0.013043,1168,1730,5.44707,-22.5842
-49,-706,5.43994,22.684,0.00604997,-0.00017288,0.000840095,0.00616139,-0.0002843,0.131857,0.00420557,0.0130358,1175,1730,5.43997,-22.684
-42,-706,5.44861,22.808,0.00795021,-0.000357198,0.00181283,0.00832857,-0.000735558,0.205759,0.0058131,0.0169893,1182,1730,5.44864,-22.808
-35,-706,5.46497,22.8715,0.00949531,-0.000581217,0.00280699,0.0102245,-0.00131039,0.254152,0.00729246,0.0168588,1189,1730,5.46498,-22.8714
-28,-706,5.4895,22.8964,0.0107728,-0.000702779,0.00351393,0.0117633,-0.00169329,0.274751,0.00846327,0.010007,1196,1730,5.48951,-22.8963
-21,-706,5.49573,22.9663,0.0117397,-0.00105345,0.00435809,0.0130832,-0.00239697,0.299038,0.00962119,0.010046,1203,1730,5.49578,-22.9663
-14,-706,5.51392,23.0303,0.0123474,-0.000801403,0.00542591,0.0142973,-0.00275128,0.344992,0.0105686,0.0105036,1210,1730,5.51394,-23.0303
-7,-706,5.52698,23.1094,0.0128061,-0.000173393,0.00640266,0.0154328,-0.00280017,0.389322,0.0113378,0.00899526,1217,1730,5.52701,-23.1094
0,-706,5.53735,23.1823,0.0131224,0.000883619,0.00723082,0.0164757,-0.00246967,0.434229,0.0118928,0.0115193,1224,1730,5.53734,-23.1822
7,-706,5.57251,23.2233,0.0130794,0.00204039,0.00767072,0.01701,-0.00189023,0.473533,0.0120197,0.0132001,1231,1730,5.57247,-23.2233
14,-706,5.58313,23.257,0.0128348,0.00317146,0.00783281,0.0172063,-0.00120001,0.509039,0.0118911,0.0141166,1238,1730,5.58316,-23.2569
21,-706,5.59473,23.2893,0.0124326,0.00410166,0.00750059,0.0168467,-0.000312495,0.531927,0.0113368,0.0122945,1245,1730,5.59478,-23.2893
28,-706,5.60547,23.3242,0.0119241,0.00437042,0.0069019,0.016015,0.000279563,0.535045,0.0105847,0.0124262,1252,1730,5.60547,-23.3242
35,-706,5.61792,23.3845,0.0115132,0.00452482,0.00714971,0.0159769,6.1132e-05,0.558109,0.0106309,0.0145145,1259,1730,5.61789,-23.3845
42,-706,5.63062,23.4194,0.0106804,0.00529002,0.00760073,0.0160497,-7.9222e-05,0.615016,0.0107263,0.0123442,1266,1730,5.63062,-23.4194
49,-706,5.66235,23.4496,0.0090449,0.00570571,0.00662322,0.0142057,0.00054489,0.661929,0.00929418,0.0141533,1273,1730,5.66232,-23.4496
56,-706,5.70996,23.4701,0.00830974,0.00625965,0.00520787,0.0125925,0.00197691,0.688227,0.00781977,0.0134354,1280,1730,5.71,-23.4701
63,-706,5.71448,23.4667,0.00829717,0.00609628,0.00388071,0.0112304,0.003163,0.647241,0.00668682,0.0114628,1287,1730,5.71448,-23.4667
70,-706,5.71387,23.4598,0.0088722,0.00560224,0.00251596,0.0102378,0.00423669,0.497265,0.00593996,0.0123297,1294,1730,5.71391,-23.4599
77,-706,5.71375,23.441,0.00913898,0.0054452,0.00147173,0.00965365,0.00493053,0.336414,0.00557397,0.0109709,1301,1730,5.71369,-23.441
84,-706,5.72742,23.4412,0.00915998,0.00551274,4.09479e-05,0.00916044,0.00551228,0.0112252,0.00532516,0.0088856,1308,1730,5.72748,-23.4412
91,-706,5.76721,23.46,0.00928742,0.00473581,-0.00168766,0.00984489,0.00417833,-0.31904,0.00570556,0.0100645,1315,1730,5.76722,-23.46
98,-706,5.77832,23.4601,0.00932515,0.00390917,-0.0033348,0.010913,0.00232134,-0.444379,0.00663824,0.0135154,1322,1730,5.77831,-23.4601
105,-706,5.79077,23.4594,0.00932169,0.00322909,-0.00488959,0.0120363,0.000514482,-0.506812,0.00785832,0.0152844,1329,1730,5.79079,-23.4594
112,-706,5.76514,23.4347,0.0094534,0.00253726,-0.00607607,0.0129865,-0.000995873,-0.526693,0.00900801,0.0154496,1336,1730,5.76515,-23.4346
119,-706,5.8136,23.4121,0.00935829,0.00166543,-0.0071239,0.0136078,-0.00258412,-0.537857,0.0100447,0.0127789,1343,1730,5.81359,-23.4121
126,-706,5.84534,23.3666,0.00895735,0.000651307,-0.0077729,0.0136171,-0.00400848,-0.540045,0.0106683,0.0134935,1350,1730,5.84538,-23.3665
133,-706,5.86194,23.3196,0.00822962,-0.000224664,-0.00803803,0.0130843,-0.0050793,-0.543325,0.0108209,0.0116118,1357,1730,5.86199,-23.3196
140,-706,5.89648,23.2651,0.00716423,-0.0013112,-0.00862839,0.0125394,-0.00668636,-0.557132,0.0112702,0.0112815,1364,1730,5.8965,-23.2652
147,-706,5.93115,23.1958,0.0063108,-0.00267087,-0.00846263,0.0114003,-0.00776042,-0.541459,0.0111288,0.0208924,1371,1730,5.93111,-23.1958
154,-706,5.94519,23.1763,0.00555911,-0.00329962,-0.00658958,0.00906964,-0.00681014,-0.489494,0.00919908,0.0200618,1378,1730,5.94519,-23.1763
161,-706,5.91089,23.1215,0.00377845,-0.0040801,-0.00487024,0.00610684,-0.00640849,-0.445964,0.00722643,0.0104349,1385,1730,5.91085,-23.1215
168,-706,5.90747,23.0574,0.00165992,-0.00367481,-0.00334842,0.00327353,-0.00528842,-0.449065,0.00498866,0.0101955,1392,1730,5.90751,-23.0574
175,-706,5.94531,22.9996,-0.000342684,-0.00260855,-0.00196564,0.000793147,-0.00374438,-0.523968,0.00279836,0.0101084,1399,1730,5.94536,-22.9996
182,-706,5.95679,22.9183,-0.000318521,-0.00207425,-0.00134642,0.000410937,-0.00280371,-0.496508,0.0020201,0.0109243,1406,1730,5.95679,-22.9183
189,-706,5.94678,22.8131,0.000548013,-0.00153728,-0.000377828,0.000614359,-0.00160363,-0.173828,0.00132233,0.0141006,1413,1730,5.94674,-22.8131
196,-706,5.9541,22.7185,0.00102226,0.000166195,0.000513417,0.00126266,-7.421e-05,0.437923,0.000867572,0.0119581,1420,1730,5.95407,-22.7185
203,-706,5.95886,22.642,0.000930635,0.0010566,0.000835093,0.00183108,0.000156153,0.823037,0.00117214,0.0129463,1427,1730,5.9589,-22.6419
210,-706,5.95947,22.5415,0.000618727,0.00108035,0.00049863,0.001399,0.000300079,1.00216,0.000850471,0.0125416,1434,1730,5.95944,-22.5415
217,-706,5.96375,22.4601,0.000349111,0.000999062,1.01679e-06,0.000999064,0.000349109,1.56923,0.000585462,0.0130464,1441,1730,5.96376,-22.46
224,-706,5.97961,22.3727,0.000241575,0.000989125,-0.00037157,0.00114239,8.83091e-05,-1.17958,0.000733931,0.0171221,1448,1730,5.97961,-22.3726
231,-706,5.98474,22.2411,0.000133552,0.000977154,-0.000764749,0.00142871,-0.000318007,-1.03742,0.00107428,0.0126831,1455,1730,5.98473,-22.2411
238,-706,5.97241,22.1104,9.96395e-05,0.00101332,-0.00110391,0.00175119,-0.000638226,-0.981588,0.00142854,0.00877956,1462,1730,5.97243,-22.1103
245,-706,5.97913,21.9908,9.38784e-05,0.00111316,-0.00137203,0.00206715,-0.000860111,-0.963225,0.00173729,0.0111713,1469,1730,5.97912,-21.9909
252,-706,5.98389,21.8851,1.43054e-05,0.0012148,-0.001517,0.00224599,-0.00101688,-0.973787,0.00192786,0.0109643,1476,1730,5.98389,-21.8851
259,-706,5.98633,21.7544,-0.000163304,0.00126752,-0.00148477,0.00220024,-0.00109603,-1.0099,0.00193837,0.0115914,1483,1730,5.98636,-21.7544
266,-706,5.98047,21.6368,-0.000500864,0.00149091,-0.00122465,0.00207349,-0.00108345,-1.12677,0.0018523,0.0123205,1490,1730,5.98047,-21.6368
273,-706,5.96741,21.5115,-0.000880551,0.00172009,-0.000938272,0.00202326,-0.00118372,-1.25827,0.00187258,0.0121036,1497,1730,5.96736,-21.5115
280,-706,5.95374,21.3611,-0.0013687,0.00190535,-0.000564173,0.00199984,-0.00146319,-1.40485,0.00200737,0.00952359,1504,1730,5.95373,-21.361
287,-706,5.92676,21.2032,-0.00189656,0.00192132,4.87326e-05,0.00192194,-0.00189718,1.55803,0.00220499,0.0101371,1511,1730,5.92676,-21.2032
294,-706,5.93921,21.069,-0.00237872,0.00195981,0.000817177,0.00210862,-0.00252754,1.39066,0.00268033,0.00998526,1518,1730,5.93923,-21.069
301,-706,5.94824,20.9196,-0.0028451,0.0021203,0.000935747,0.00229079,-0.00301559,1.39058,0.00307315,0.0092886,1525,1730,5.94822,-20.9196
308,-706,5.95239,20.7537,-0.00322235,0.00261878,0.000746435,0.00271265,-0.00331622,1.44568,0.00348658,0.0115764,1532,1730,5.95241,-20.7537
315,-706,5.94507,20.5836,-0.00355249,0.00295639,0.000544658,0.00300165,-0.00359775,1.48789,0.00381534,0.0186339,1539,1730,5.94512,-20.5836
322,-706,5.92078,20.4529,-0.00368382,0.00334577,0.000142269,0.00334864,-0.0036867,1.55057,0.00406342,0.0225767,1546,1730,5.92072,-20.4529
329,-706,5.91687,20.2444,-0.00359196,0.00402587,-0.000476427,0.00405555,-0.00362164,-1.50858,0.00443478,0.0198256,1553,1730,5.91691,-20.2444
336,-706,5.90955,20.0013,-0.00289597,0.00523974,-0.00160763,0.00554589,-0.00320212,-1.38261,0.00511074,0.024771,1560,1730,5.90953,-20.0013
343,-706,5.92761,19.8228,-0.00198283,0.00648227,-0.00303173,0.00745605,-0.00295661,-1.26001,0.00619601,0.034142,1567,1730,5.92756,-19.8228
350,-706,5.94788,19.6121,-0.00110266,0.00776777,-0.00450591,0.00965508,-0.00298997,-1.17414,0.00763119,0.0413406,1574,1730,5.94782,-19.6121
357,-706,5.97754,19.1421,0.000405098,0.00978848,-0.0063371,0.0129816,-0.00278805,-1.10405,0.00971801,0.0473682,1581,1730,5.97756,-19.1421
364,-706,5.9093,19.2144,0,0,0,0,0,0,0,-1,1588,1730,5.90932,-19.2143
371,-706,5.99451,19.3977,0,0,0,0,0,0,0,-1,1595,1730,5.9945,-19.3977
378,-706,6.01331,20.1378,0,0,0,0,0,0,0,-1,1602,1730,6.01329,-20.1379
385,-706,7.9209,18.6349,0,0,0,0,0,0,0,-1,1609,1730,7.92092,-18.6349
392,-706,5.05701,18.6085,0,0,0,0,0,0,0,-1,1616,1730,5.05699,-18.6085
399,-706,6.0332,16.6144,0,0,0,0,0,0,0,-1,1623,1730,6.03321,-16.6143
406,-706,6.04211,18.8085,0,0,0,0,0,0,0,-1,1630,1730,6.04216,-18.8085
413,-706,6.23413,20.7725,0,0,0,0,0,0,0,-1,1637,1730,6.23413,-20.7725
420,-706,6.51294,21.9171,0,0,0,0,0,0,0,-1,1644,1730,6.51292,-21.9171
427,-706,0,0,0,0,0,0,0,0,0,-1,1651,1730,0,0
434,-706,0,0,0,0,0,0,0,0,0,-1,1658,1730,0,0
441,-706,0,0,0,0,0,0,0,0,0,-1,1665,1730,0,0
448,-706,0,0,0,0,0,0,0,0,0,-1,1672,1730,0,0
455,-706,0,0,0,0,0,0,0,0,0,-1,1679,1730,0,0
462,-706,0,0,0,0,0,0,0,0,0,-1,1686,1730,0,0
469,-706,0,0,0,0,0,0,0,0,0,-1,1693,1730,0,0
476,-706,0,0,0,0,0,0,0,0,0,-1,1700,1730,0,0
483,-706,0,0,0,0,0,0,0,0,0,-1,1707,1730,0,0
490,-706,0,0,0,0,0,0,0,0,0,-1,1714,1730,0,0
497,-706,0,0,0,0,0,0,0,0,0,-1,1721,1730,0,0
504,-706,0,0,0,0,0,0,0,0,0,-1,1728,1730,0,0
511,-706,0,0,0,0,0,0,0,0,0,-1,1735,1730,0,0
518,-706,0,0,0,0,0,0,0,0,0,-1,1742,1730,0,0
525,-706,0,0,0,0,0,0,0,0,0,-1,1749,1730,0,0
532,-706,0,0,0,0,0,0,0,0,0,-1,1756,1730,0,0
539,-706,0,0,0,0,0,0,0,0,0,-1,1763,1730,0,0
546,-706,0,0,0,0,0,0,0,0,0,-1,1770,1730,0,0
553,-706,0,0,0,0,0,0,0,0,0,-1,1777,1730,0,0
560,-706,0,0,0,0,0,0,0,0,0,-1,1784,1730,0,0
567,-706,0,0,0,0,0,0,0,0,0,-1,1791,1730,0,0
574,-706,0,0,0,0,0,0,0,0,0,-1,1798,1730,0,0
581,-706,0,0,0,0,0,0,0,0,0,-1,1805,1730,0,0
588,-706,0,0,0,0,0,0,0,0,0,-1,1812,1730,0,0
595,-706,0,0,0,0,0,0,0,0,0,-1,1819,1730,0,0
602,-706,0,0,0,0,0,0,0,0,0,-1,1826,1730,0,0
609,-706,0,0,0,0,0,0,0,0,0,-1,1833,1730,0,0
616,-706,0,0,0,0,0,0,0,0,0,-1,1840,1730,0,0
623,-706,0,0,0,0,0,0,0,0,0,-1,1847,1730,0,0
630,-706,0,0,0,0,0,0,0,0,0,-1,1854,1730,0,0
637,-706,0,0,0,0,0,0,0,0,0,-1,1861,1730,0,0
644,-706,0,0,0,0,0,0,0,0,0,-1,1868,1730,0,0
651,-706,0,0,0,0,0,0,0,0,0,-1,1875,1730,0,0
658,-706,0,0,0,0,0,0,0,0,0,-1,1882,1730,0,0
665,-706,0,0,0,0,0,0,0,0,0,-1,1889,1730,0,0
672,-706,0,0,0,0,0,0,0,0,0,-1,1896,1730,0,0
679,-706,0,0,0,0,0,0,0,0,0,-1,1903,1730,0,0
686,-706,0,0,0,0,0,0,0,0,0,-1,1910,1730,0,0
693,-706,0,0,0,0,0,0,0,0,0,-1,1917,1730,0,0
700,-706,0,0,0,0,0,0,0,0,0,-1,1924,1730,0,0
707,-706,0,0,0,0,0,0,0,0,0,-1,1931,1730,0,0
714,-706,0,0,0,0,0,0,0,0,0,-1,1938,1730,0,0
721,-706,0,0,0,0,0,0,0,0,0,-1,1945,1730,0,0
728,-706,0,0,0,0,0,0,0,0,0,-1,1952,1730,0,0
735,-706,0,0,0,0,0,0,0,0,0,-1,1959,1730,0,0
742,-706,0,0,0,0,0,0,0,0,0,-1,1966,1730,0,0
749,-706,0,0,0,0,0,0,0,0,0,-1,1973,1730,0,0
756,-706,0,0,0,0,0,0,0,0,0,-1,1980,1730,0,0
763,-706,0,0,0,0,0,0,0,0,0,-1,1987,1730,0,0
770,-706,0,0,0,0,0,0,0,0,0,-1,1994,1730,0,0
777,-706,0,0,0,0,0,0,0,0,0,-1,2001,1730,0,0
784,-706,0,0,0,0,0,0,0,0,0,-1,2008,1730,0,0
791,-706,0,0,0,0,0,0,0,0,0,-1,2015,1730,0,0
798,-706,0,0,0,0,0,0,0,0,0,-1,2022,1730,0,0
805,-706,0,0,0,0,0,0,0,0,0,-1,2029,1730,0,0
812,-706,0,0,0,0,0,0,0,0,0,-1,2036,1730,0,0
-700,-713,0,0,0,0,0,0,0,0,0,-1,524,1737,0,0
-693,-713,0,0,0,0,0,0,0,0,0,-1,531,1737,0,0
-686,-713,0,0,0,0,0,0,0,0,0,-1,538,1737,0,0
-679,-713,0,0,0,0,0,0,0,0,0,-1,545,1737,0,0
-672,-713,0,0,0,0,0,0,0,0,0,-1,552,1737,0,0
-665,-713,0,0,0,0,0,0,0,0,0,-1,559,1737,0,0
-658,-713,0,0,0,0,0,0,0,0,0,-1,566,1737,0,0
-651,-713,0,0,0,0,0,0,0,0,0,-1,573,1737,0,0
-644,-713,0,0,0,0,0,0,0,0,0,-1,580,1737,0,0
-637,-713,0,0,0,0,0,0,0,0,0,-1,587,1737,0,0
-630,-713,0,0,0,0,0,0,0,0,0,-1,594,1737,0,0
-623,-713,0,0,0,0,0,0,0,0,0,-1,601,1737,0,0
-616,-713,0,0,0,0,0,0,0,0,0,-1,608,1737,0,0
-609,-713,0,0,0,0,0,0,0,0,0,-1,615,1737,0,0
-602,-713,0,0,0,0,0,0,0,0,0,-1,622,1737,0,0
-595,-713,0,0,0,0,0,0,0,0,0,-1,629,1737,0,0
-588,-713,0,0,0,0,0,0,0,0,0,-1,636,1737,0,0
-581,-713,0,0,0,0,0,0,0,0,0,-1,643,1737,0,0
-574,-713,0,0,0,0,0,0,0,0,0,-1,650,1737,0,0
-567,-713,0,0,0,0,0,0,0,0,0,-1,657,1737,0,0
-560,-713,0,0,0,0,0,0,0,0,0,-1,664,1737,0,0
-553,-713,0,0,0,0,0,0,0,0,0,-1,671,1737,0,0
-546,-713,0,0,0,0,0,0,0,0,0,-1,678,1737,0,0
-539,-713,0,0,0,0,0,0,0,0,0,-1,685,1737,0,0
-532,-713,0,0,0,0,0,0,0,0,0,-1,692,1737,0,0
-525,-713,0,0,0,0,0,0,0,0,0,-1,699,1737,0,0
-518,-713,0,0,0,0,0,0,0,0,0,-1,706,1737,0,0
-511,-713,0,0,0,0,0,0,0,0,0,-1,713,1737,0,0
-504,-713,0,0,0,0,0,0,0,0,0,-1,720,1737,0,0
-497,-713,0,0,0,0,0,0,0,0,0,-1,727,1737,0,0
-490,-713,0,0,0,0,0,0,0,0,0,-1,734,1737,0,0
-483,-713,0,0,0,0,0,0,0,0,0,-1,741,1737,0,0
-476,-713,0,0,0,0,0,0,0,0,0,-1,748,1737,0,0
-469,-713,0,0,0,0,0,0,0,0,0,-1,755,1737,0,0
-462,-713,0,0,0,0,0,0,0,0,0,-1,762,1737,0,0
-455,-713,0,0,0,0,0,0,0,0,0,-1,769,1737,0,0
-448,-713,0,0,0,0,0,0,0,0,0,-1,776,1737,0,0
-441,-713,0,0,0,0,0,0,0,0,0,-1,783,1737,0,0
-434,-713,0,0,0,0,0,0,0,0,0,-1,790,1737,0,0
-427,-713,0,0,0,0,0,0,0,0,0,-1,797,1737,0,0
-420,-713,0,0,0,0,0,0,0,0,0,-1,804,1737,0,0
-413,-713,0,0,0,0,0,0,0,0,0,-1,811,1737,0,0
-406,-713,0,0,0,0,0,0,0,0,0,-1,818,1737,0,0
-399,-713,0,0,0,0,0,0,0,0,0,-1,825,1737,0,0
-392,-713,0,0,0,0,0,0,0,0,0,-1,832,1737,0,0
-385,-713,0,0,0,0,0,0,0,0,0,-1,839,1737,0,0
-378,-713,0,0,0,0,0,0,0,0,0,-1,846,1737,0,0
-371,-713,0,0,0,0,0,0,0,0,0,-1,853,1737,0,0
-364,-713,0,0,0,0,0,0,0,0,0,-1,860,1737,0,0
-357,-713,0,0,0,0,0,0,0,0,0,-1,867,1737,0,0
-350,-713,0,0,0,0,0,0,0,0,0,-1,874,1737,0,0
-343,-713,0,0,0,0,0,0,0,0,0,-1,881,1737,0,0
-336,-713,0,0,0,0,0,0,0,0,0,-1,888,1737,0,0
-329,-713,0,0,0,0,0,0,0,0,0,-1,895,1737,0,0
-322,-713,0,0,0,0,0,0,0,0,0,-1,902,1737,0,0
-315,-713,0,0,0,0,0,0,0,0,0,-1,909,1737,0,0
-308,-713,0,0,0,0,0,0,0,0,0,-1,916,1737,0,0
-301,-713,0,0,0,0,0,0,0,0,0,-1,923,1737,0,0
-294,-713,7.17883,22.0453,0,0,0,0,0,0,0,-1,930,1737,7.17881,-22.0453
-287,-713,6.85907,21.8297,0,0,0,0,0,0,0,-1,937,1737,6.85906,-21.8298
-280,-713,6.17188,21.8059,0,0,0,0,0,0,0,-1,944,1737,6.17188,-21.8059
-273,-713,5.64795,22.0507,0,0,0,0,0,0,0,-1,951,1737,5.64795,-22.0506
-266,-713,3.17981,19.8851,0,0,0,0,0,0,0,-1,958,1737,3.17983,-19.8851
-259,-713,3.5921,19.6868,0,0,0,0,0,0,0,-1,965,1737,3.59207,-19.6868
-252,-713,4.55469,20.5758,0,0,0,0,0,0,0,-1,972,1737,4.55466,-20.5758
-245,-713,4.66559,19.8096,0,0,0,0,0,0,0,-1,979,1737,4.6656,-19.8095
-238,-713,5.11237,18.7231,0,0,0,0,0,0,0,-1,986,1737,5.11238,-18.7231
-231,-713,5.80493,18.5798,0,0,0,0,0,0,0,-1,993,1737,5.80495,-18.5799
-224,-713,5.94073,18.9384,0,0,0,0,0,0,0,-1,1000,1737,5.94076,-18.9384
-217,-713,5.93231,18.9298,0,0,0,0,0,0,0,-1,1007,1737,5.93231,-18.9298
-210,-713,5.85785,19.0457,0,0,0,0,0,0,0,-1,1014,1737,5.85783,-19.0457
-203,-713,5.60327,19.3037,0.00790799,-0.00230477,0.0047801,0.00979621,-0.004193,0.376204,0.00828982,0.0442077,1021,1737,5.60333,-19.3037
-196,-713,5.59448,19.5288,0.00771161,-0.00118734,0.00553035,0.0103602,-0.00383594,0.446642,0.00847977,0.0393263,1028,1737,5.59448,-19.5288
-189,-713,5.62952,19.7736,0.00744424,-0.00022688,0.00568995,0.0104707,-0.00325332,0.488835,0.00828073,0.0398886,1035,1737,5.62951,-19.7736
-182,-713,5.52112,20.0615,0.00666828,0.000837156,0.00560548,0.0100711,-0.00256566,0.545589,0.00771286,0.0261096,1042,1737,5.52111,-20.0615
-175,-713,5.67126,20.1602,0.00581459,0.00232279,0.00580225,0.0101279,-0.00199053,0.639257,0.00750398,0.0237885,1049,1737,5.67131,-20.1602
-168,-713,5.77808,20.2896,0.00507527,0.00336343,0.00565752,0.00994125,-0.00150255,0.710323,0.00718094,0.0287578,1056,1737,5.77803,-20.2895
-161,-713,5.66846,20.5397,0.00424113,0.00416959,0.00520972,0.00941521,-0.00100449,0.781965,0.00663702,0.0152922,1063,1737,5.6685,-20.5397
-154,-713,5.60815,20.7216,0.00343978,0.00448751,0.00467484,0.00866775,-0.000740458,0.841195,0.00604046,0.0123997,1070,1737,5.6082,-20.7216
-147,-713,5.58655,20.9192,0.00286725,0.00452952,0.003978,0.00776228,-0.000365515,0.888383,0.0053009,0.0186392,1077,1737,5.5865,-20.9192
-140,-713,5.60815,21.0725,0.0022545,0.00482341,0.00347028,0.00723931,-0.000161403,0.962645,0.0048809,0.0173124,1084,1737,5.60818,-21.0726
-133,-713,5.58704,21.183,0.00160958,0.00482877,0.00275612,0.00641089,2.74659e-05,1.04969,0.0042648,0.0110216,1091,1737,5.58707,-21.1829
-126,-713,5.573,21.3223,0.00124662,0.00442874,0.00219951,0.00555233,0.000123036,1.09852,0.00366123,0.0173388,1098,1737,5.57296,-21.3223
-119,-713,5.56567,21.4592,0.00097412,0.0040087,0.00187075,0.00490012,8.27005e-05,1.12612,0.00323953,0.0260561,1105,1737,5.56567,-21.4592
-112,-713,5.56396,21.6729,0.000943872,0.00361489,0.00159152,0.004357,0.000201759,1.13448,0.00283981,0.0134432,1112,1737,5.56391,-21.6728
-105,-713,5.57568,21.7991,0.000851272,0.00279319,0.00112655,0.00330947,0.000334994,1.14108,0.00210356,0.0108778,1119,1737,5.57566,-21.7991
-98,-713,5.5719,21.8989,0.000698417,0.00251893,0.000871168,0.00286863,0.000348713,1.18907,0.00180743,0.0105381,1126,1737,5.57185,-21.8989
-91,-713,5.55347,22.0146,0.000632705,0.00245036,0.00086252,0.00279449,0.000288572,1.19117,0.00177464,0.0103231,1133,1737,5.55353,-22.0146
-84,-713,5.54956,22.1448,0.00055653,0.00235024,0.000869744,0.00270271,0.000204063,1.18577,0.00173778,0.00915636,1140,1737,5.54961,-22.1447
-77,-713,5.56042,22.2688,0.000659519,0.00216502,0.000779251,0.00249572,0.000328818,1.16945,0.00156576,0.0127347,1147,1737,5.56044,-22.2689
-70,-713,5.55176,22.3816,0.000700869,0.00171687,0.00048587,0.00191181,0.000505923,1.18923,0.00114383,0.0149728,1154,1737,5.5517,-22.3816
-63,-713,5.54077,22.4813,0.000772277,0.00141533,0.000254071,0.0015036,0.000684009,1.23643,0.000869277,0.0130215,1161,1737,5.54078,-22.4813
-56,-713,5.56165,22.5803,0.00122817,0.000950406,0.000160482,0.00130152,0.000877055,0.428712,0.000766428,0.0125366,1168,1737,5.5617,-22.5803
-49,-713,5.53198,22.6737,0.00189272,0.000533403,0.000368471,0.00198618,0.000439947,0.248394,0.00120456,0.0139635,1175,1737,5.53197,-22.6738
-42,-713,5.53613,22.775,0.00264621,0.000312592,0.000681717,0.00283077,0.000128038,0.264381,0.00184598,0.0169071,1182,1737,5.53618,-22.7751
-35,-713,5.56274,22.8301,0.00341043,4.84754e-05,0.00114404,0.0037628,-0.000303896,0.298786,0.00261573,0.0149589,1189,1737,5.56272,-22.8301
-28,-713,5.57202,22.9191,0.00407807,-0.000251926,0.00151178,0.00455366,-0.000727515,0.304786,0.00330507,0.0121608,1196,1737,5.57196,-22.9191
-21,-713,5.57678,22.9913,0.00467054,-0.000671215,0.00202841,0.00535347,-0.00135414,0.324762,0.00409568,0.00863709,1203,1737,5.57677,-22.9914
-14,-713,5.58154,23.0421,0.00520756,-0.000752929,0.00272107,0.00626292,-0.00180828,0.369985,0.00489077,0.0100772,1210,1737,5.58156,-23.0421
-7,-713,5.59314,23.1167,0.00568732,-0.00059643,0.00342558,0.00719367,-0.00210278,0.414285,0.00562918,0.0094944,1217,1737,5.59316,-23.1167
0,-713,5.61011,23.178,0.00610458,-0.000108301,0.00413982,0.00817386,-0.00217758,0.463526,0.00630178,0.0140534,1224,1737,5.61008,-23.178
7,-713,5.62927,23.217,0.00629062,0.000441465,0.00459375,0.00881174,-0.00207966,0.501934,0.00667657,0.0169386,1231,1737,5.62932,-23.217
14,-713,5.64587,23.2532,0.00637562,0.00102885,0.00482408,0.00921755,-0.00181309,0.532377,0.00683009,0.0126813,1238,1737,5.64585,-23.2532
21,-713,5.64905,23.2961,0.0063566,0.00151172,0.00473163,0.00924984,-0.00138153,0.54881,0.0066749,0.0109077,1245,1737,5.64905,-23.2962
28,-713,5.63135,23.3401,0.00623318,0.00156092,0.00445756,0.00892968,-0.00113558,0.544035,0.0063655,0.0110635,1252,1737,5.63139,-23.3401
35,-713,5.63599,23.3822,0.0061946,0.00120419,0.00444436,0.00879629,-0.0013975,0.529609,0.00638124,0.0110732,1259,1737,5.63594,-23.3822
42,-713,5.65613,23.4092,0.00580203,0.00159568,0.00448031,0.00864825,-0.00125054,0.565953,0.00622437,0.0107811,1266,1737,5.6561,-23.4092
49,-713,5.67639,23.4244,0.00497407,0.00174061,0.00356497,0.00727178,-0.000557106,0.572516,0.00504382,0.0110266,1273,1737,5.67641,-23.4245
56,-713,5.69543,23.4512,0.00464253,0.00186327,0.00243975,0.00606064,0.000445156,0.526523,0.00390052,0.0115395,1280,1737,5.69548,-23.4511
63,-713,5.69275,23.4742,0.00473046,0.00152685,0.00140719,0.00526078,0.000996524,0.360406,0.00322672,0.0122153,1287,1737,5.69271,-23.4743
70,-713,5.70288,23.475,0.00521548,0.000997397,0.000354792,0.00524511,0.000967763,0.0833319,0.00322296,0.0120499,1294,1737,5.70282,-23.475
77,-713,5.71021,23.4563,0.00546879,0.00144558,-0.000359912,0.00550073,0.00141364,-0.0885223,0.00329851,0.0118469,1301,1737,5.71023,-23.4562
84,-713,5.73145,23.4491,0.00551211,0.00175691,-0.00130444,0.00592076,0.00134826,-0.303593,0.00358333,0.0114943,1308,1737,5.73149,-23.4491
91,-713,5.74316,23.47,0.00557509,0.001511,-0.00232734,0.00663266,0.000453429,-0.426517,0.00427865,0.0119137,1315,1737,5.74315,-23.4699
98,-713,5.73767,23.4724,0.00558953,0.00131755,-0.00319887,0.00729999,-0.000392914,-0.491028,0.00500278,0.0114274,1322,1737,5.7377,-23.4724
105,-713,5.75952,23.4537,0.00557141,0.00121329,-0.0039537,0.00790678,-0.00112207,-0.533538,0.00568226,0.0126925,1329,1737,5.75957,-23.4537
112,-713,5.77124,23.4418,0.00559784,0.00111996,-0.00434189,0.00824407,-0.00152626,-0.547349,0.00606911,0.0134865,1336,1737,5.77128,-23.4418
119,-713,5.79407,23.4211,0.00538745,0.00078584,-0.0046194,0.00824732,-0.00207403,-0.554345,0.00630432,0.0138085,1343,1737,5.79401,-23.4212
126,-713,5.80823,23.3828,0.00498876,0.000214559,-0.00467283,0.0078489,-0.00264559,-0.549255,0.00630236,0.0130274,1350,1737,5.80821,-23.3828
133,-713,5.80383,23.3265,0.00440416,-0.000379665,-0.00453082,0.00713569,-0.00311119,-0.542532,0.00606623,0.0119131,1357,1737,5.80385,-23.3266
140,-713,5.82581,23.2723,0.00361651,-0.000944844,-0.0044291,0.00631764,-0.00364597,-0.547638,0.00582102,0.0127411,1364,1737,5.82584,-23.2723
147,-713,5.8363,23.2125,0.00305919,-0.00203561,-0.00400184,0.00525563,-0.00423205,-0.501965,0.00548833,0.0140976,1371,1737,5.83635,-23.2126
154,-713,5.82922,23.1868,0.00261485,-0.00249265,-0.00285389,0.00389077,-0.00376857,-0.420422,0.00442231,0.013907,1378,1737,5.82921,-23.1868
161,-713,5.84741,23.1228,0.00165525,-0.00262359,-0.00195158,0.00241165,-0.00337999,-0.369758,0.00335935,0.00994467,1385,1737,5.84737,-23.1227
168,-713,5.83484,23.0531,0.000660397,-0.0020219,-0.001264,0.00116218,-0.00252368,-0.377897,0.00217589,0.00958378,1392,1737,5.83488,-23.0531
175,-713,5.8634,22.9858,-0.000135114,-0.00109212,-0.000762702,0.00028676,-0.001514,-0.505244,0.00111725,0.012394,1399,1737,5.86342,-22.9858
182,-713,5.86292,22.9216,-3.18469e-05,-0.000899016,-0.000760415,0.000409912,-0.00134077,-0.52629,0.00105731,0.011437,1406,1737,5.86298,-22.9216
189,-713,5.86206,22.8152,0.000324202,-0.000419768,-0.000738645,0.000779241,-0.000874807,-0.552135,0.000955496,0.0108765,1413,1737,5.86206,-22.8152
196,-713,5.88916,22.745,0.000496689,0.000580857,-0.000592634,0.0011329,-5.53531e-05,-0.820844,0.000774377,0.0119507,1420,1737,5.88919,-22.745
203,-713,5.88892,22.6776,0.000402882,0.00123238,-0.000744654,0.00167,-3.47345e-05,-1.03949,0.00112509,0.0164905,1427,1737,5.88898,-22.6776
210,-713,5.87537,22.5388,0.000216714,0.00142668,-0.00126777,0.00222642,-0.000583024,-1.00802,0.00171204,0.0138363,1434,1737,5.87537,-22.5388
217,-713,5.87341,22.4432,2.4416e-05,0.00154511,-0.00187624,0.00280921,-0.00123969,-0.977909,0.00239547,0.0109192,1441,1737,5.87339,-22.4433
224,-713,5.87476,22.3529,-7.77472e-05,0.00164797,-0.00236716,0.00330464,-0.00173441,-0.96017,0.002956,0.0116224,1448,1737,5.87476,-22.3529
231,-713,5.86951,22.2488,-0.000209811,0.00173755,-0.00281154,0.00373924,-0.0022115,-0.952093,0.0034732,0.0108094,1455,1737,5.86949,-22.2488
238,-713,5.86108,22.1229,-0.000259419,0.00184024,-0.00314725,0.00410814,-0.00252732,-0.94638,0.00386705,0.00843455,1462,1737,5.86112,-22.1229
245,-713,5.88232,21.9924,-0.000256476,0.00201982,-0.00335084,0.00442053,-0.00265718,-0.949116,0.00412837,0.0107671,1469,1737,5.88227,-21.9925
252,-713,5.87988,21.863,-0.000355499,0.00218842,-0.00335888,0.00450811,-0.00267519,-0.966397,0.00419205,0.0113505,1476,1737,5.87994,-21.863
259,-713,5.87439,21.7294,-0.000617909,0.00224456,-0.00311339,0.00423993,-0.00261328,-1.00085,0.00399368,0.0113598,1483,1737,5.87444,-21.7294
266,-713,5.85962,21.6292,-0.00109151,0.00254619,-0.00254945,0.0038591,-0.00240442,-1.09524,0.00364861,0.0104017,1490,1737,5.85963,-21.6292
273,-713,5.83276,21.5159,-0.00157195,0.0028634,-0.00198323,0.00362084,-0.00232939,-1.20597,0.00346223,0.0091271,1497,1737,5.83271,-21.5158
280,-713,5.80786,21.3789,-0.00219259,0.00305037,-0.0013241,0.0033658,-0.00250801,-1.33694,0.00340328,0.00964217,1504,1737,5.80788,-21.3789
287,-713,5.78577,21.2347,-0.00287354,0.00301235,-0.000302662,0.00302788,-0.00288907,-1.51955,0.00341646,0.0109131,1511,1737,5.78577,-21.2347
294,-713,5.81152,21.0989,-0.00348884,0.00293409,0.00112999,0.00312709,-0.00368184,1.40163,0.00393548,0.0177076,1518,1737,5.81155,-21.0988
301,-713,5.83301,20.9373,-0.00412586,0.00311122,0.0014275,0.00338261,-0.00439725,1.38292,0.00450442,0.0196724,1525,1737,5.83302,-20.9373
308,-713,5.79736,20.7432,-0.00466934,0.0036691,0.00133322,0.00387708,-0.00487732,1.41605,0.00506534,0.0193688,1532,1737,5.79732,-20.7431
315,-713,5.76599,20.5637,-0.00518614,0.00408137,0.00121177,0.00423719,-0.00534197,1.44291,0.00554278,0.0247724,1539,1737,5.76603,-20.5637
322,-713,5.76807,20.3661,-0.0053916,0.00451619,0.000778908,0.00457705,-0.00545246,1.49282,0.00579789,0.0363148,1546,1737,5.76807,-20.3661
329,-713,5.77124,20.2826,-0.00530908,0.00533015,5.72404e-05,0.00533046,-0.00530939,1.56542,0.00614292,0.0397697,1553,1737,5.7713,-20.2826
336,-713,5.65601,20.2256,-0.00448334,0.0067097,-0.00136453,0.00687365,-0.00464729,-1.45122,0.00669289,0.039168,1560,1737,5.65595,-20.2256
343,-713,5.75793,19.8284,0,0,0,0,0,0,0,-1,1567,1737,5.75793,-19.8283
350,-713,5.79517,19.5342,0,0,0,0,0,0,0,-1,1574,1737,5.79519,-19.5342
357,-713,5.64722,18.8196,0,0,0,0,0,0,0,-1,1581,1737,5.64722,-18.8195
364,-713,7.0769,18.5602,0,0,0,0,0,0,0,-1,1588,1737,7.07686,-18.5601
371,-713,8.31555,17.5513,0,0,0,0,0,0,0,-1,1595,1737,8.31561,-17.5513
378,-713,7.02185,18.535,0,0,0,0,0,0,0,-1,1602,1737,7.02188,-18.5351
385,-713,7.81396,18.6816,0,0,0,0,0,0,0,-1,1609,1737,7.81397,-18.6817
392,-713,3.28784,13.7118,0,0,0,0,0,0,0,-1,1616,1737,3.28781,-13.7118
399,-713,2.84045,14.7314,0,0,0,0,0,0,0,-1,1623,1737,2.84046,-14.7315
406,-713,2.97656,16.4902,0,0,0,0,0,0,0,-1,1630,1737,2.97656,-16.4902
413,-713,3.24731,18.2787,0,0,0,0,0,0,0,-1,1637,1737,3.24726,-18.2787
420,-713,0,0,0,0,0,0,0,0,0,-1,1644,1737,0,0
427,-713,0,0,0,0,0,0,0,0,0,-1,1651,1737,0,0
434,-713,0,0,0,0,0,0,0,0,0,-1,1658,1737,0,0
441,-713,0,0,0,0,0,0,0,0,0,-1,1665,1737,0,0
448,-713,0,0,0,0,0,0,0,0,0,-1,1672,1737,0,0
455,-713,0,0,0,0,0,0,0,0,0,-1,1679,1737,0,0
462,-713,0,0,0,0,0,0,0,0,0,-1,1686,1737,0,0
469,-713,0,0,0,0,0,0,0,0,0,-1,1693,1737,0,0
476,-713,0,0,0,0,0,0,0,0,0,-1,1700,1737,0,0
483,-713,0,0,0,0,0,0,0,0,0,-1,1707,1737,0,0
490,-713,0,0,0,0,0,0,0,0,0,-1,1714,1737,0,0
497,-713,0,0,0,0,0,0,0,0,0,-1,1721,1737,0,0
504,-713,0,0,0,0,0,0,0,0,0,-1,1728,1737,0,0
511,-713,0,0,0,0,0,0,0,0,0,-1,1735,1737,0,0
518,-713,0,0,0,0,0,0,0,0,0,-1,1742,1737,0,0
525,-713,0,0,0,0,0,0,0,0,0,-1,1749,1737,0,0
532,-713,0,0,0,0,0,0,0,0,0,-1,1756,1737,0,0
539,-713,0,0,0,0,0,0,0,0,0,-1,1763,1737,0,0
546,-713,0,0,0,0,0,0,0,0,0,-1,1770,1737,0,0
553,-713,0,0,0,0,0,0,0,0,0,-1,1777,1737,0,0
560,-713,0,0,0,0,0,0,0,0,0,-1,1784,1737,0,0
567,-713,0,0,0,0,0,0,0,0,0,-1,1791,1737,0,0
574,-713,0,0,0,0,0,0,0,0,0,-1,1798,1737,0,0
581,-713,0,0,0,0,0,0,0,0,0,-1,1805,1737,0,0
588,-713,0,0,0,0,0,0,0,0,0,-1,1812,1737,0,0
595,-713,0,0,0,0,0,0,0,0,0,-1,1819,1737,0,0
602,-713,0,0,0,0,0,0,0,0,0,-1,1826,1737,0,0
609,-713,0,0,0,0,0,0,0,0,0,-1,1833,1737,0,0
616,-713,0,0,0,0,0,0,0,0,0,-1,1840,1737,0,0
623,-713,0,0,0,0,0,0,0,0,0,-1,1847,1737,0,0
630,-713,0,0,0,0,0,0,0,0,0,-1,1854,1737,0,0
637,-713,0,0,0,0,0,0,0,0,0,-1,1861,1737,0,0
644,-713,0,0,0,0,0,0,0,0,0,-1,1868,1737,0,0
651,-713,0,0,0,0,0,0,0,0,0,-1,1875,1737,0,0
658,-713,0,0,0,0,0,0,0,0,0,-1,1882,1737,0,0
665,-713,0,0,0,0,0,0,0,0,0,-1,1889,1737,0,0
672,-713,0,0,0,0,0,0,0,0,0,-1,1896,1737,0,0
679,-713,0,0,0,0,0,0,0,0,0,-1,1903,1737,0,0
686,-713,0,0,0,0,0,0,0,0,0,-1,1910,1737,0,0
693,-713,0,0,0,0,0,0,0,0,0,-1,1917,1737,0,0
700,-713,0,0,0,0,0,0,0,0,0,-1,1924,1737,0,0
707,-713,0,0,0,0,0,0,0,0,0,-1,1931,1737,0,0
714,-713,0,0,0,0,0,0,0,0,0,-1,1938,1737,0,0
721,-713,0,0,0,0,0,0,0,0,0,-1,1945,1737,0,0
728,-713,0,0,0,0,0,0,0,0,0,-1,1952,1737,0,0
735,-713,0,0,0,0,0,0,0,0,0,-1,1959,1737,0,0
742,-713,0,0,0,0,0,0,0,0,0,-1,1966,1737,0,0
749,-713,0,0,0,0,0,0,0,0,0,-1,1973,1737,0,0
756,-713,0,0,0,0,0,0,0,0,0,-1,1980,1737,0,0
763,-713,0,0,0,0,0,0,0,0,0,-1,1987,1737,0,0
770,-713,0,0,0,0,0,0,0,0,0,-1,1994,1737,0,0
777,-713,0,0,0,0,0,0,0,0,0,-1,2001,1737,0,0
784,-713,0,0,0,0,0,0,0,0,0,-1,2008,1737,0,0
791,-713,0,0,0,0,0,0,0,0,0,-1,2015,1737,0,0
798,-713,0,0,0,0,0,0,0,0,0,-1,2022,1737,0,0
805,-713,0,0,0,0,0,0,0,0,0,-1,2029,1737,0,0
812,-713,0,0,0,0,0,0,0,0,0,-1,2036,1737,0,0
-700,-720,0,0,0,0,0,0,0,0,0,-1,524,1744,0,0
-693,-720,0,0,0,0,0,0,0,0,0,-1,531,1744,0,0
-686,-720,0,0,0,0,0,0,0,0,0,-1,538,1744,0,0
-679,-720,0,0,0,0,0,0,0,0,0,-1,545,1744,0,0
-672,-720,0,0,0,0,0,0,0,0,0,-1,552,1744,0,0
-665,-720,0,0,0,0,0,0,0,0,0,-1,559,1744,0,0
-658,-720,0,0,0,0,0,0,0,0,0,-1,566,1744,0,0
-651,-720,0,0,0,0,0,0,0,0,0,-1,573,1744,0,0
-644,-720,0,0,0,0,0,0,0,0,0,-1,580,1744,0,0
-637,-720,0,0,0,0,0,0,0,0,0,-1,587,1744,0,0
-630,-720,0,0,0,0,0,0,0,0,0,-1,594,1744,0,0
-623,-720,0,0,0,0,0,0,0,0,0,-1,601,1744,0,0
-616,-720,0,0,0,0,0,0,0,0,0,-1,608,1744,0,0
-609,-720,0,0,0,0,0,0,0,0,0,-1,615,1744,0,0
-602,-720,0,0,0,0,0,0,0,0,0,-1,622,1744,0,0
-595,-720,0,0,0,0,0,0,0,0,0,-1,629,1744,0,0
-588,-720,0,0,0,0,0,0,0,0,0,-1,636,1744,0,0
-581,-720,0,0,0,0,0,0,0,0,0,-1,643,1744,0,0
-574,-720,0,0,0,0,0,0,0,0,0,-1,650,1744,0,0
-567,-720,0,0,0,0,0,0,0,0,0,-1,657,1744,0,0
-560,-720,0,0,0,0,0,0,0,0,0,-1,664,1744,0,0
-553,-720,0,0,0,0,0,0,0,0,0,-1,671,1744,0,0
-546,-720,0,0,0,0,0,0,0,0,0,-1,678,1744,0,0
-539,-720,0,0,0,0,0,0,0,0,0,-1,685,1744,0,0
-532,-720,0,0,0,0,0,0,0,0,0,-1,692,1744,0,0
-525,-720,0,0,0,0,0,0,0,0,0,-1,699,1744,0,0
-518,-720,0,0,0,0,0,0,0,0,0,-1,706,1744,0,0
-511,-720,0,0,0,0,0,0,0,0,0,-1,713,1744,0,0
-504,-720,0,0,0,0,0,0,0,0,0,-1,720,1744,0,0
-497,-720,0,0,0,0,0,0,0,0,0,-1,727,1744,0,0
-490,-720,0,0,0,0,0,0,0,0,0,-1,734,1744,0,0
-483,-720,0,0,0,0,0,0,0,0,0,-1,741,1744,0,0
-476,-720,0,0,0,0,0,0,0,0,0,-1,748,1744,0,0
-469,-720,0,0,0,0,0,0,0,0,0,-1,755,1744,0,0
-462,-720,0,0,0,0,0,0,0,0,0,-1,762,1744,0,0
-455,-720,0,0,0,0,0,0,0,0,0,-1,769,1744,0,0
-448,-720,0,0,0,0,0,0,0,0,0,-1,776,1744,0,0
-441,-720,0,0,0,0,0,0,0,0,0,-1,783,1744,0,0
-434,-720,0,0,0,0,0,0,0,0,0,-1,790,1744,0,0
-427,-720,0,0,0,0,0,0,0,0,0,-1,797,1744,0,0
-420,-720,0,0,0,0,0,0,0,0,0,-1,804,1744,0,0
-413,-720,0,0,0,0,0,0,0,0,0,-1,811,1744,0,0
-406,-720,0,0,0,0,0,0,0,0,0,-1,818,1744,0,0
-399,-720,0,0,0,0,0,0,0,0,0,-1,825,1744,0,0
-392,-720,0,0,0,0,0,0,0,0,0,-1,832,1744,0,0
-385,-720,0,0,0,0,0,0,0,0,0,-1,839,1744,0,0
-378,-720,0,0,0,0,0,0,0,0,0,-1,846,1744,0,0
-371,-720,0,0,0,0,0,0,0,0,0,-1,853,1744,0,0
-364,-720,0,0,0,0,0,0,0,0,0,-1,860,1744,0,0
-357,-720,0,0,0,0,0,0,0,0,0,-1,867,1744,0,0
-350,-720,0,0,0,0,0,0,0,0,0,-1,874,1744,0,0
-343,-720,0,0,0,0,0,0,0,0,0,-1,881,1744,0,0
-336,-720,0,0,0,0,0,0,0,0,0,-1,888,1744,0,0
-329,-720,0,0,0,0,0,0,0,0,0,-1,895,1744,0,0
-322,-720,0,0,0,0,0,0,0,0,0,-1,902,1744,0,0
-315,-720,0,0,0,0,0,0,0,0,0,-1,909,1744,0,0
-308,-720,0,0,0,0,0,0,0,0,0,-1,916,1744,0,0
-301,-720,0,0,0,0,0,0,0,0,0,-1,923,1744,0,0
-294,-720,0,0,0,0,0,0,0,0,0,-1,930,1744,0,0
-287,-720,0,0,0,0,0,0,0,0,0,-1,937,1744,0,0
-280,-720,6.46796,22.6417,0,0,0,0,0,0,0,-1,944,1744,6.46793,-22.6417
-273,-720,8.54633,13.262,0,0,0,0,0,0,0,-1,951,1744,8.54636,-13.2619
-266,-720,7.28027,13.3165,0,0,0,0,0,0,0,-1,958,1744,7.28026,-13.3166
-259,-720,3.70563,18.6372,0,0,0,0,0,0,0,-1,965,1744,3.70564,-18.6372
-252,-720,4.00989,18.5059,0,0,0,0,0,0,0,-1,972,1744,4.00988,-18.5058
-245,-720,4.63318,20.3199,0,0,0,0,0,0,0,-1,979,1744,4.6332,-20.32
-238,-720,4.70691,19.5372,0,0,0,0,0,0,0,-1,986,1744,4.70693,-19.5372
-231,-720,5.83551,18.546,0,0,0,0,0,0,0,-1,993,1744,5.83552,-18.546
-224,-720,5.75989,18.7869,0,0,0,0,0,0,0,-1,1000,1744,5.75986,-18.7869
-217,-720,7.33716,20.2433,0,0,0,0,0,0,0,-1,1007,1744,7.33715,-20.2432
-210,-720,6.6015,19.7804,0,0,0,0,0,0,0,-1,1014,1744,6.60152,-19.7804
-203,-720,5.66382,19.104,0,0,0,0,0,0,0,-1,1021,1744,5.66376,-19.104
-196,-720,5.65466,19.3954,0,0,0,0,0,0,0,-1,1028,1744,5.65465,-19.3954
-189,-720,5.14343,19.9634,0.0115124,-0.00118313,0.00746778,0.0149658,-0.00463648,0.433145,0.0118295,0.0496349,1035,1744,5.1434,-19.9634
-182,-720,5.49548,20.1349,0.0101768,0.000552973,0.00742269,0.0142109,-0.00348106,0.497818,0.0108225,0.0470344,1042,1744,5.49545,-20.1349
-175,-720,5.854,20.2432,0.00884209,0.00290607,0.00784243,0.0142593,-0.00251119,0.6045,0.0104444,0.0464324,1049,1744,5.85405,-20.2432
-168,-720,5.96704,20.363,0.00767805,0.00446655,0.00766645,0.0139051,-0.00176051,0.682165,0.00990918,0.0395454,1056,1744,5.96698,-20.3631
-161,-720,5.64014,20.5476,0.00636798,0.00569697,0.00706128,0.0131017,-0.00103678,0.76166,0.00909979,0.0332959,1063,1744,5.6401,-20.5476
-154,-720,5.78259,20.7922,0.00507749,0.00619791,0.00635618,0.0120185,-0.000743114,0.829353,0.00827118,0.0272373,1070,1744,5.78259,-20.7922
-147,-720,5.73828,21.0178,0.004123,0.00631819,0.00543701,0.0107673,-0.000326096,0.884997,0.00728932,0.0257908,1077,1744,5.73822,-21.0178
-140,-720,5.75012,21.1537,0.00314397,0.00680703,0.00477261,0.0100875,-0.000136473,0.968612,0.00677094,0.0206466,1084,1744,5.75013,-21.1537
-133,-720,5.72717,21.2117,0.00212369,0.00685771,0.00379961,0.00896728,1.41165e-05,1.06396,0.00597349,0.0130848,1091,1744,5.72716,-21.2117
-126,-720,5.71216,21.3497,0.00147811,0.00631435,0.0029909,0.00774237,5.00951e-05,1.12535,0.00514497,0.0123737,1098,1744,5.71219,-21.3497
-119,-720,5.70728,21.5031,0.000996026,0.00578816,0.00248781,0.00684612,-6.19364e-05,1.16871,0.00458487,0.0151042,1105,1744,5.7073,-21.503
-112,-720,5.69092,21.6429,0.00082497,0.00531191,0.00206005,0.00611425,2.26293e-05,1.19939,0.00406864,0.0138695,1112,1744,5.6909,-21.6429
-105,-720,5.6947,21.7749,0.000576557,0.00426297,0.00140591,0.00473796,0.000101574,1.24499,0.00312533,0.0133375,1119,1744,5.69465,-21.7749
-98,-720,5.68274,21.892,0.000262996,0.00391122,0.00100833,0.00417136,2.85427e-06,1.31831,0.00277995,0.010979,1126,1744,5.68278,-21.892
-91,-720,5.66064,22.0228,7.76788e-05,0.00380261,0.000959052,0.00403503,-0.000154745,1.33303,0.00274306,0.00961111,1133,1744,5.66059,-22.0229
-84,-720,5.66309,22.1697,-0.000125984,0.00367303,0.000966729,0.00390489,-0.000357836,1.33541,0.00273036,0.00958423,1140,1744,5.66306,-22.1696
-77,-720,5.67004,22.2924,-9.02319e-05,0.00333516,0.00090336,0.0035588,-0.000313869,1.32811,0.00248378,0.0128934,1147,1744,5.67009,-22.2924
-70,-720,5.66492,22.373,-0.000203632,0.0025437,0.000501261,0.0026323,-0.000292232,1.39585,0.00185994,0.0113359,1154,1744,5.66493,-22.3731
-63,-720,5.63916,22.478,-0.000297838,0.00209174,0.000363692,0.00214586,-0.000351966,1.42305,0.00156118,0.0102994,1161,1744,5.63913,-22.478
-56,-720,5.64343,22.5846,-9.68785e-05,0.00146707,0.000362033,0.00154681,-0.000176618,1.354,0.00109484,0.012019,1168,1744,5.64349,-22.5846
-49,-720,5.62988,22.6731,0.000192663,0.00106717,0.000313308,0.00116783,9.20013e-05,1.25993,0.000749771,0.0168973,1175,1744,5.62989,-22.6731
-42,-720,5.62073,22.7273,0.000480531,0.0007244,0.000333208,0.000957283,0.000247648,0.960801,0.000573741,0.0195108,1182,1744,5.62078,-22.7273
-35,-720,5.64294,22.8324,0.000819929,0.000383324,0.000405841,0.00106246,0.000140798,0.538645,0.000666348,0.0180452,1189,1744,5.643,-22.8324
-28,-720,5.64685,22.932,0.0011383,2.44801e-05,0.00051673,0.0013411,-0.000178319,0.373996,0.000959048,0.010795,1196,1744,5.64682,-22.932
-21,-720,5.65393,23.0111,0.00146292,-0.000401181,0.000758007,0.00173224,-0.000670502,0.34139,0.00143166,0.00865158,1203,1744,5.65388,-23.0112
-14,-720,5.64722,23.0519,0.00180901,-0.000656653,0.001137,0.00225327,-0.00110092,0.372492,0.00197427,0.0108035,1210,1744,5.64716,-23.0519
-7,-720,5.65723,23.1162,0.00211464,-0.000764667,0.00156568,0.00280195,-0.00145197,0.413654,0.00249689,0.0117993,1217,1744,5.65727,-23.1163
0,-720,5.67017,23.1798,0.0023814,-0.000634735,0.00207491,0.00343839,-0.00169172,0.471151,0.00301855,0.0121989,1224,1744,5.67012,-23.1798
7,-720,5.67358,23.2212,0.00247567,-0.000450673,0.00243416,0.00385257,-0.00182758,0.514785,0.00334818,0.0149648,1231,1744,5.67354,-23.2212
14,-720,5.69067,23.2656,0.00255412,-0.000189679,0.00267417,0.00418776,-0.00182332,0.548394,0.00355887,0.0139807,1238,1744,5.69073,-23.2656
21,-720,5.68457,23.3179,0.00260946,2.13511e-05,0.00274349,0.00434878,-0.00171796,0.565029,0.00361074,0.0110086,1245,1744,5.68457,-23.3178
28,-720,5.67493,23.3619,0.00258281,-2.07716e-05,0.002708,0.00428566,-0.00172363,0.561345,0.00357303,0.0109964,1252,1744,5.67497,-23.3619
35,-720,5.67981,23.392,0.00270583,-0.00020441,0.00275399,0.00436549,-0.00186407,0.542357,0.00369202,0.0107952,1259,1744,5.67981,-23.392
42,-720,5.68018,23.418,0.0026305,0.000142168,0.00277162,0.00442439,-0.00165173,0.574431,0.00362775,0.011097,1266,1744,5.68016,-23.418
49,-720,5.68457,23.4274,0.00232686,0.000337764,0.00220233,0.0037488,-0.00108417,0.573311,0.00292827,0.0112595,1273,1744,5.68463,-23.4274
56,-720,5.69702,23.4592,0.00221838,0.000454987,0.00149161,0.0030694,-0.00039603,0.518472,0.00219024,0.0101976,1280,1744,5.697,-23.4592
63,-720,5.6969,23.476,0.00229213,0.000257564,0.000792905,0.00256464,-1.49447e-05,0.331037,0.00171476,0.0128854,1287,1744,5.69695,-23.476
70,-720,5.72144,23.4757,0.00293013,0.000318235,-0.000144011,0.00293804,0.000310319,-0.0549148,0.00186389,0.0135355,1294,1744,5.72146,-23.4757
77,-720,5.73767,23.4652,0.00370257,0.00211733,-0.00140644,0.00452436,0.00129554,-0.528799,0.00269046,0.0145456,1301,1744,5.73764,-23.4652
84,-720,5.7489,23.4551,0.00405803,0.00318911,-0.00252675,0.0061874,0.00105974,-0.700259,0.00382099,0.014376,1308,1744,5.74888,-23.4551
91,-720,5.75305,23.4552,0.00441377,0.00389144,-0.0037039,0.00786571,0.00043951,-0.750201,0.00510361,0.0133782,1315,1744,5.75309,-23.4552
98,-720,5.73401,23.4651,0.00475053,0.00468908,-0.00477561,0.00949551,-5.59073e-05,-0.782181,0.00634906,0.012288,1322,1744,5.73402,-23.4651
105,-720,5.72937,23.4504,0.00504454,0.00549909,-0.00573307,0.0110094,-0.000465753,-0.805209,0.00749967,0.0118027,1329,1744,5.72942,-23.4505
112,-720,5.74915,23.4232,0.00531598,0.00622494,-0.00629189,0.0120787,-0.000537819,-0.821452,0.00823762,0.0108559,1336,1744,5.74912,-23.4232
119,-720,5.75684,23.4094,0.00525006,0.00653056,-0.00661603,0.0125372,-0.000756627,-0.833634,0.00862145,0.0107519,1343,1744,5.75681,-23.4094
126,-720,5.76538,23.3799,0.00493081,0.00641226,-0.00655141,0.0122647,-0.000921619,-0.841691,0.00850033,0.0106307,1350,1744,5.76533,-23.3798
133,-720,5.76587,23.3402,0.00438738,0.00594511,-0.00609556,0.0113114,-0.000978874,-0.848942,0.00788747,0.0121104,1357,1744,5.76585,-23.3402
140,-720,5.76685,23.3141,0.0035968,0.0051723,-0.00541044,0.00985203,-0.00108293,-0.857689,0.00695715,0.0186546,1364,1744,5.76683,-23.3141
147,-720,5.76807,23.2404,0.00294466,0.00405016,-0.0044714,0.00800285,-0.00100803,-0.846895,0.00570102,0.0195497,1371,1744,5.76802,-23.2404
154,-720,5.76062,23.1642,0.002391,0.00327124,-0.00332038,0.00618054,-0.000518297,-0.851289,0.00430354,0.0126998,1378,1744,5.76058,-23.1641
161,-720,5.79004,23.1083,0.0017265,0.00277808,-0.00241817,0.00472696,-0.000222384,-0.892449,0.00322799,0.0094244,1385,1744,5.79,-23.1083
168,-720,5.77942,23.0482,0.00122516,0.00273487,-0.00177219,0.00390627,5.37604e-05,-0.986734,0.00258645,0.00955764,1392,1744,5.77938,-23.0482
175,-720,5.7749,22.9642,0.000638314,0.00228632,-0.00108636,0.00282583,9.88074e-05,-1.10986,0.00185183,0.0149492,1399,1744,5.77493,-22.9642
182,-720,5.78564,22.9128,-9.95144e-05,-0.000102547,-0.000441855,0.000340827,-0.000542888,-0.783683,0.000514639,0.0145495,1406,1744,5.78561,-22.9128
189,-720,5.79895,22.8323,-7.39123e-05,0.000441687,-0.00143387,0.00164075,-0.00127297,-0.874344,0.0016867,0.0122819,1413,1744,5.79901,-22.8323
196,-720,5.8136,22.7445,-7.05964e-05,0.00102044,-0.00203263,0.00257948,-0.00162964,-0.916499,0.00245067,0.0128487,1420,1744,5.81357,-22.7445
203,-720,5.80347,22.6417,-0.000139812,0.00160715,-0.00273883,0.00360842,-0.00214108,-0.939762,0.00335532,0.0154317,1427,1744,5.80351,-22.6417
210,-720,5.77429,22.541,-0.00022042,0.00201549,-0.00356489,0.00463361,-0.00283854,-0.937342,0.00435535,0.013984,1434,1744,5.77424,-22.541
217,-720,5.75757,22.4387,-0.000351696,0.00234757,-0.00438924,0.00558998,-0.00359411,-0.934554,0.00534401,0.0125321,1441,1744,5.75753,-22.4387
224,-720,5.76453,22.3347,-0.000449713,0.00258398,-0.00505411,0.00634396,-0.00420969,-0.931182,0.00613455,0.00971261,1448,1744,5.76447,-22.3348
231,-720,5.74646,22.2394,-0.00058029,0.00278758,-0.00559737,0.00694883,-0.00474154,-0.931514,0.00678943,0.00940725,1455,1744,5.7465,-22.2394
238,-720,5.74963,22.1147,-0.000624854,0.00296958,-0.00595033,0.00738819,-0.00504346,-0.93206,0.00721984,0.00803765,1462,1744,5.74966,-22.1147
245,-720,5.75635,21.9908,-0.000606873,0.0032341,-0.0060864,0.00769582,-0.0050686,-0.938223,0.00742139,0.0105586,1469,1744,5.7564,-21.9908
252,-720,5.75403,21.869,-0.000717322,0.00346197,-0.0059355,0.00766493,-0.00492027,-0.954652,0.00732344,0.0108549,1476,1744,5.75408,-21.869
259,-720,5.75,21.7522,-0.00106077,0.00351562,-0.00543474,0.00712422,-0.00466937,-0.98465,0.00685803,0.00969379,1483,1744,5.75005,-21.7522
266,-720,5.72375,21.6285,-0.00168227,0.00389232,-0.00450284,0.00640074,-0.00419069,-1.06254,0.00615918,0.00860184,1490,1744,5.72377,-21.6285
273,-720,5.69897,21.4983,-0.00228306,0.00430066,-0.00357338,0.00586734,-0.00384974,-1.15761,0.00565032,0.0156485,1497,1744,5.69897,-21.4983
280,-720,5.63245,21.3737,-0.00308102,0.00449745,-0.00253812,0.00526896,-0.00385253,-1.2757,0.00528742,0.022674,1504,1744,5.63244,-21.3736
287,-720,5.55676,21.1504,-0.00397607,0.00442788,-0.000951248,0.0045342,-0.0040824,-1.45948,0.00497708,0.0374933,1511,1744,5.55673,-21.1504
294,-720,5.61023,20.892,-0.0047811,0.00414502,0.00159776,0.0044224,-0.00505847,1.39891,0.00547789,0.0420523,1518,1744,5.61026,-20.8919
301,-720,5.62756,20.8289,-0.00569193,0.00436617,0.00218085,0.00481867,-0.00614443,1.36621,0.00634496,0.0423204,1525,1744,5.6276,-20.8289
308,-720,5.42419,20.8088,-0.00653174,0.00498106,0.00229233,0.0054207,-0.00697138,1.38131,0.00717322,0.0411825,1532,1744,5.4242,-20.8089
315,-720,5.1134,20.4412,-0.00740158,0.00551772,0.00236731,0.00593784,-0.0078217,1.39516,0.00796886,0.0463851,1539,1744,5.11346,-20.4411
322,-720,5.61865,20.2513,0,0,0,0,0,0,0,-1,1546,1744,5.61862,-20.2514
329,-720,5.58838,20.3539,0,0,0,0,0,0,0,-1,1553,1744,5.58835,-20.3538
336,-720,5.47424,20.4738,0,0,0,0,0,0,0,-1,1560,1744,5.47422,-20.4737
343,-720,6.78552,21.3625,0,0,0,0,0,0,0,-1,1567,1744,6.78551,-21.3625
350,-720,4.0741,11.1836,0,0,0,0,0,0,0,-1,1574,1744,4.07412,-11.1836
357,-720,5.53247,19.7031,0,0,0,0,0,0,0,-1,1581,1744,5.53253,-19.7032
364,-720,6.45642,18.7834,0,0,0,0,0,0,0,-1,1588,1744,6.45637,-18.7834
371,-720,5.90027,18.6631,0,0,0,0,0,0,0,-1,1595,1744,5.90025,-18.663
378,-720,6.90405,18.7253,0,0,0,0,0,0,0,-1,1602,1744,6.90402,-18.7254
385,-720,7.54175,18.5774,0,0,0,0,0,0,0,-1,1609,1744,7.54171,-18.5774
392,-720,0.141968,12.1694,0,0,0,0,0,0,0,-1,1616,1744,0.141952,-12.1694
399,-720,-0.334595,13.7629,0,0,0,0,0,0,0,-1,1623,1744,-0.334621,-13.763
406,-720,0,0,0,0,0,0,0,0,0,-1,1630,1744,0,0
413,-720,0,0,0,0,0,0,0,0,0,-1,1637,1744,0,0
420,-720,0,0,0,0,0,0,0,0,0,-1,1644,1744,0,0
427,-720,0,0,0,0,0,0,0,0,0,-1,1651,1744,0,0
434,-720,0,0,0,0,0,0,0,0,0,-1,1658,1744,0,0
441,-720,0,0,0,0,0,0,0,0,0,-1,1665,1744,0,0
448,-720,0,0,0,0,0,0,0,0,0,-1,1672,1744,0,0
455,-720,0,0,0,0,0,0,0,0,0,-1,1679,1744,0,0
462,-720,0,0,0,0,0,0,0,0,0,-1,1686,1744,0,0
469,-720,0,0,0,0,0,0,0,0,0,-1,1693,1744,0,0
476,-720,0,0,0,0,0,0,0,0,0,-1,1700,1744,0,0
483,-720,0,0,0,0,0,0,0,0,0,-1,1707,1744,0,0
490,-720,0,0,0,0,0,0,0,0,0,-1,1714,1744,0,0
497,-720,0,0,0,0,0,0,0,0,0,-1,1721,1744,0,0
504,-720,0,0,0,0,0,0,0,0,0,-1,1728,1744,0,0
511,-720,0,0,0,0,0,0,0,0,0,-1,1735,1744,0,0
518,-720,0,0,0,0,0,0,0,0,0,-1,1742,1744,0,0
525,-720,0,0,0,0,0,0,0,0,0,-1,1749,1744,0,0
532,-720,0,0,0,0,0,0,0,0,0,-1,1756,1744,0,0
539,-720,0,0,0,0,0,0,0,0,0,-1,1763,1744,0,0
546,-720,0,0,0,0,0,0,0,0,0,-1,1770,1744,0,0
553,-720,0,0,0,0,0,0,0,0,0,-1,1777,1744,0,0
560,-720,0,0,0,0,0,0,0,0,0,-1,1784,1744,0,0
567,-720,0,0,0,0,0,0,0,0,0,-1,1791,1744,0,0
574,-720,0,0,0,0,0,0,0,0,0,-1,1798,1744,0,0
581,-720,0,0,0,0,0,0,0,0,0,-1,1805,1744,0,0
588,-720,0,0,0,0,0,0,0,0,0,-1,1812,1744,0,0
595,-720,0,0,0,0,0,0,0,0,0,-1,1819,1744,0,0
602,-720,0,0,0,0,0,0,0,0,0,-1,1826,1744,0,0
609,-720,0,0,0,0,0,0,0,0,0,-1,1833,1744,0,0
616,-720,0,0,0,0,0,0,0,0,0,-1,1840,1744,0,0
623,-720,0,0,0,0,0,0,0,0,0,-1,1847,1744,0,0
630,-720,0,0,0,0,0,0,0,0,0,-1,1854,1744,0,0
637,-720,0,0,0,0,0,0,0,0,0,-1,1861,1744,0,0
644,-720,0,0,0,0,0,0,0,0,0,-1,1868,1744,0,0
651,-720,0,0,0,0,0,0,0,0,0,-1,1875,1744,0,0
658,-720,0,0,0,0,0,0,0,0,0,-1,1882,1744,0,0
665,-720,0,0,0,0,0,0,0,0,0,-1,1889,1744,0,0
672,-720,0,0,0,0,0,0,0,0,0,-1,1896,1744,0,0
679,-720,0,0,0,0,0,0,0,0,0,-1,1903,1744,0,0
686,-720,0,0,0,0,0,0,0,0,0,-1,1910,1744,0,0
693,-720,0,0,0,0,0,0,0,0,0,-1,1917,1744,0,0
700,-720,0,0,0,0,0,0,0,0,0,-1,1924,1744,0,0
707,-720,0,0,0,0,0,0,0,0,0,-1,1931,1744,0,0
714,-720,0,0,0,0,0,0,0,0,0,-1,1938,1744,0,0
721,-720,0,0,0,0,0,0,0,0,0,-1,1945,1744,0,0
728,-720,0,0,0,0,0,0,0,0,0,-1,1952,1744,0,0
735,-720,0,0,0,0,0,0,0,0,0,-1,1959,1744,0,0
742,-720,0,0,0,0,0,0,0,0,0,-1,1966,1744,0,0
749,-720,0,0,0,0,0,0,0,0,0,-1,1973,1744,0,0
756,-720,0,0,0,0,0,0,0,0,0,-1,1980,1744,0,0
763,-720,0,0,0,0,0,0,0,0,0,-1,1987,1744,0,0
770,-720,0,0,0,0,0,0,0,0,0,-1,1994,1744,0,0
777,-720,0,0,0,0,0,0,0,0,0,-1,2001,1744,0,0
784,-720,0,0,0,0,0,0,0,0,0,-1,2008,1744,0,0
791,-720,0,0,0,0,0,0,0,0,0,-1,2015,1744,0,0
798,-720,0,0,0,0,0,0,0,0,0,-1,2022,1744,0,0
805,-720,0,0,0,0,0,0,0,0,0,-1,2029,1744,0,0
812,-720,0,0,0,0,0,0,0,0,0,-1,2036,1744,0,0
-700,-727,0,0,0,0,0,0,0,0,0,-1,524,1751,0,0
-693,-727,0,0,0,0,0,0,0,0,0,-1,531,1751,0,0
-686,-727,0,0,0,0,0,0,0,0,0,-1,538,1751,0,0
-679,-727,0,0,0,0,0,0,0,0,0,-1,545,1751,0,0
-672,-727,0,0,0,0,0,0,0,0,0,-1,552,1751,0,0
-665,-727,0,0,0,0,0,0,0,0,0,-1,559,1751,0,0
-658,-727,0,0,0,0,0,0,0,0,0,-1,566,1751,0,0
-651,-727,0,0,0,0,0,0,0,0,0,-1,573,1751,0,0
-644,-727,0,0,0,0,0,0,0,0,0,-1,580,1751,0,0
-637,-727,0,0,0,0,0,0,0,0,0,-1,587,1751,0,0
-630,-727,0,0,0,0,0,0,0,0,0,-1,594,1751,0,0
-623,-727,0,0,0,0,0,0,0,0,0,-1,601,1751,0,0
-616,-727,0,0,0,0,0,0,0,0,0,-1,608,1751,0,0
-609,-727,0,0,0,0,0,0,0,0,0,-1,615,1751,0,0
-602,-727,0,0,0,0,0,0,0,0,0,-1,622,1751,0,0
-595,-727,0,0,0,0,0,0,0,0,0,-1,629,1751,0,0
-588,-727,0,0,0,0,0,0,0,0,0,-1,636,1751,0,0
-581,-727,0,0,0,0,0,0,0,0,0,-1,643,1751,0,0
-574,-727,0,0,0,0,0,0,0,0,0,-1,650,1751,0,0
-567,-727,0,0,0,0,0,0,0,0,0,-1,657,1751,0,0
-560,-727,0,0,0,0,0,0,0,0,0,-1,664,1751,0,0
-553,-727,0,0,0,0,0,0,0,0,0,-1,671,1751,0,0
-546,-727,0,0,0,0,0,0,0,0,0,-1,678,1751,0,0
-539,-727,0,0,0,0,0,0,0,0,0,-1,685,1751,0,0
-532,-727,0,0,0,0,0,0,0,0,0,-1,692,1751,0,0
-525,-727,0,0,0,0,0,0,0,0,0,-1,699,1751,0,0
-518,-727,0,0,0,0,0,0,0,0,0,-1,706,1751,0,0
-511,-727,0,0,0,0,0,0,0,0,0,-1,713,1751,0,0
-504,-727,0,0,0,0,0,0,0,0,0,-1,720,1751,0,0
-497,-727,0,0,0,0,0,0,0,0,0,-1,727,1751,0,0
-490,-727,0,0,0,0,0,0,0,0,0,-1,734,1751,0,0
-483,-727,0,0,0,0,0,0,0,0,0,-1,741,1751,0,0
-476,-727,0,0,0,0,0,0,0,0,0,-1,748,1751,0,0
-469,-727,0,0,0,0,0,0,0,0,0,-1,755,1751,0,0
-462,-727,0,0,0,0,0,0,0,0,0,-1,762,1751,0,0
-455,-727,0,0,0,0,0,0,0,0,0,-1,769,1751,0,0
-448,-727,0,0,0,0,0,0,0,0,0,-1,776,1751,0,0
-441,-727,0,0,0,0,0,0,0,0,0,-1,783,1751,0,0
-434,-727,0,0,0,0,0,0,0,0,0,-1,790,1751,0,0
-427,-727,0,0,0,0,0,0,0,0,0,-1,797,1751,0,0
-420,-727,0,0,0,0,0,0,0,0,0,-1,804,1751,0,0
-413,-727,0,0,0,0,0,0,0,0,0,-1,811,1751,0,0
-406,-727,0,0,0,0,0,0,0,0,0,-1,818,1751,0,0
-399,-727,0,0,0,0,0,0,0,0,0,-1,825,1751,0,0
-392,-727,0,0,0,0,0,0,0,0,0,-1,832,1751,0,0
-385,-727,0,0,0,0,0,0,0,0,0,-1,839,1751,0,0
-378,-727,0,0,0,0,0,0,0,0,0,-1,846,1751,0,0
-371,-727,0,0,0,0,0,0,0,0,0,-1,853,1751,0,0
-364,-727,0,0,0,0,0,0,0,0,0,-1,860,1751,0,0
-357,-727,0,0,0,0,0,0,0,0,0,-1,867,1751,0,0
-350,-727,0,0,0,0,0,0,0,0,0,-1,874,1751,0,0
-343,-727,0,0,0,0,0,0,0,0,0,-1,881,1751,0,0
-336,-727,0,0,0,0,0,0,0,0,0,-1,888,1751,0,0
-329,-727,0,0,0,0,0,0,0,0,0,-1,895,1751,0,0
-322,-727,0,0,0,0,0,0,0,0,0,-1,902,1751,0,0
-315,-727,0,0,0,0,0,0,0,0,0,-1,909,1751,0,0
-308,-727,0,0,0,0,0,0,0,0,0,-1,916,1751,0,0
-301,-727,0,0,0,0,0,0,0,0,0,-1,923,1751,0,0
-294,-727,0,0,0,0,0,0,0,0,0,-1,930,1751,0,0
-287,-727,0,0,0,0,0,0,0,0,0,-1,937,1751,0,0
-280,-727,0,0,0,0,0,0,0,0,0,-1,944,1751,0,0
-273,-727,0,0,0,0,0,0,0,0,0,-1,951,1751,0,0
-266,-727,4.24805,7.61145,0,0,0,0,0,0,0,-1,958,1751,4.24802,-7.6115
-259,-727,3.65228,5.4082,0,0,0,0,0,0,0,-1,965,1751,3.65229,-5.40818
-252,-727,6.35193,19.5046,0,0,0,0,0,0,0,-1,972,1751,6.35193,-19.5046
-245,-727,6.6543,20.9005,0,0,0,0,0,0,0,-1,979,1751,6.65433,-20.9005
-238,-727,4.31769,18.0181,0,0,0,0,0,0,0,-1,986,1751,4.31766,-18.018
-231,-727,4.72626,18.8145,0,0,0,0,0,0,0,-1,993,1751,4.72627,-18.8145
-224,-727,5.36774,18.8488,0,0,0,0,0,0,0,-1,1000,1751,5.36772,-18.8487
-217,-727,5.94122,16.1447,0,0,0,0,0,0,0,-1,1007,1751,5.9412,-16.1446
-210,-727,6.63403,19.8335,0,0,0,0,0,0,0,-1,1014,1751,6.63405,-19.8335
-203,-727,4.84827,19.9349,0,0,0,0,0,0,0,-1,1021,1751,4.84825,-19.9349
-196,-727,5.12512,20.1229,0.0186114,-0.00607461,0.00907095,0.0215861,-0.0090493,0.316886,0.0181743,0.0457764,1028,1751,5.12508,-20.1229
-189,-727,5.32666,20.181,0.0173749,-0.00323566,0.0095476,0.0211179,-0.00697871,0.373626,0.0168924,0.0468653,1035,1751,5.32662,-20.181
-182,-727,5.51221,20.2698,0,0,0,0,0,0,0,-1,1042,1751,5.51223,-20.2698
-175,-727,6.03235,20.3746,0,0,0,0,0,0,0,-1,1049,1751,6.03239,-20.3746
-168,-727,6.08911,20.5238,0,0,0,0,0,0,0,-1,1056,1751,6.08912,-20.5238
-161,-727,5.56555,19.7159,0.0094534,0.00752491,0.00940627,0.0179447,-0.000966405,0.734321,0.0122979,0.0496291,1063,1751,5.56561,-19.716
-154,-727,5.65576,20.464,0.00748538,0.00833972,0.00851736,0.0164406,-0.000615507,0.810454,0.0111712,0.0469798,1070,1751,5.65578,-20.4639
-147,-727,5.55798,20.9342,0,0,0,0,0,0,0,-1,1077,1751,5.55795,-20.9342
-140,-727,5.77124,20.9648,0.00457568,0.00936665,0.00650004,0.0138986,4.37661e-05,0.961943,0.00925115,0.0325886,1084,1751,5.77118,-20.9648
-133,-727,5.88049,21.109,0.0031027,0.00944174,0.00522079,0.0123798,0.000164642,1.05821,0.00819887,0.0236269,1091,1751,5.88045,-21.109
-126,-727,5.81641,21.3295,0.00213203,0.00868359,0.00410698,0.0106612,0.00015443,1.12204,0.00705655,0.0155448,1098,1751,5.81635,-21.3295
-119,-727,5.81604,21.5221,0.00141505,0.00799689,0.00338428,0.00942651,-1.45729e-05,1.1711,0.0062892,0.0119808,1105,1751,5.81604,-21.522
-112,-727,5.81384,21.632,0.00105974,0.00739648,0.0027738,0.00843911,1.71047e-05,1.21125,0.00562038,0.0127513,1112,1751,5.81386,-21.632
-105,-727,5.78662,21.76,0.000607559,0.00610967,0.00192437,0.00671592,1.30781e-06,1.2656,0.00447684,0.0126203,1119,1751,5.7866,-21.76
-98,-727,5.78638,21.9003,9.55841e-05,0.00564674,0.001378,0.00596999,-0.000227663,1.34039,0.00405801,0.0109908,1126,1751,5.78637,-21.9003
-91,-727,5.78931,22.0313,-0.000247053,0.00543748,0.00126673,0.00570698,-0.000516552,1.36117,0.003988,0.0101649,1133,1751,5.78926,-22.0313
-84,-727,5.77527,22.1522,-0.000597983,0.00523205,0.00125321,0.00549002,-0.000855954,1.36778,0.00397616,0.0104817,1140,1751,5.77532,-22.1522
-77,-727,5.7677,22.2646,-0.000645186,0.00468103,0.00118075,0.00493105,-0.000895206,1.36213,0.00362282,0.0120974,1147,1751,5.7677,-22.2646
-70,-727,5.75586,22.3717,-0.000971374,0.00345073,0.000595607,0.00352955,-0.00105019,1.43923,0.00277026,0.0120414,1154,1751,5.75588,-22.3717
-63,-727,5.73474,22.4762,-0.00123994,0.00281407,0.000456163,0.00286476,-0.00129063,1.46012,0.00245583,0.00978846,1161,1751,5.73472,-22.4762
-56,-727,5.72449,22.577,-0.000986319,0.00192309,0.000539176,0.00201979,-0.00108303,1.39332,0.00181842,0.0101929,1168,1751,5.72443,-22.577
-49,-727,5.72424,22.6604,-0.000314588,0.00148505,0.000673818,0.00170938,-0.000538915,1.24942,0.00135542,0.0124762,1175,1751,5.72427,-22.6604
-42,-727,5.74072,22.7454,0.000156526,0.000986923,0.000740175,0.0014204,-0.00027695,1.041,0.00105148,0.0156953,1182,1751,5.74076,-22.7454
-35,-727,5.70349,22.8295,0.000476278,0.000567561,0.000648608,0.00117213,-0.000128293,0.820525,0.000827507,0.0147029,1189,1751,5.70347,-22.8295
-28,-727,5.70544,22.9113,0.000648655,0.000175029,0.00056215,0.00102184,-0.000198153,0.586048,0.000755982,0.00908693,1196,1751,5.70544,-22.9112
-21,-727,5.71423,22.9916,0.000795054,-0.000239939,0.000618155,0.00108373,-0.000528617,0.436901,0.000949104,0.0105732,1203,1751,5.71419,-22.9916
-14,-727,5.7251,23.0474,0.000999708,-0.000555153,0.000784454,0.00132671,-0.000882153,0.394947,0.00128387,0.0124374,1210,1751,5.72507,-23.0474
-7,-727,5.73914,23.1187,0.00112969,-0.000759468,0.000984376,0.00154938,-0.00117916,0.403013,0.00158015,0.0154234,1217,1751,5.73917,-23.1186
0,-727,5.73682,23.188,0.00122602,-0.000754295,0.00124469,0.00182635,-0.00135463,0.449401,0.00184326,0.0137672,1224,1751,5.73679,-23.188
7,-727,5.71777,23.2295,0.00120269,-0.000659498,0.00143986,0.00198628,-0.00144309,0.498388,0.00198821,0.0136508,1231,1751,5.71782,-23.2295
14,-727,5.71606,23.2836,0.0011651,-0.000496502,0.00160686,0.00214323,-0.00147463,0.546808,0.00210063,0.0138533,1238,1751,5.71606,-23.2836
21,-727,5.70898,23.3442,0.00115267,-0.000352191,0.00173011,0.00228688,-0.0014864,0.580284,0.00219479,0.0119671,1245,1751,5.70901,-23.3443
28,-727,5.73169,23.3743,0.00107392,-0.000239609,0.0017991,0.00233239,-0.00149807,0.610387,0.00222893,0.0109542,1252,1751,5.73173,-23.3742
35,-727,5.75598,23.3831,0.0011619,-1.86771e-05,0.00189242,0.00255396,-0.00141073,0.634218,0.00232052,0.0114561,1259,1751,5.75603,-23.3831
42,-727,5.71558,23.4043,0.00118297,0.000459035,0.00192102,0.00277583,-0.00113383,0.692278,0.00232265,0.0117792,1266,1751,5.7156,-23.4043
49,-727,5.68628,23.4215,0.000989187,0.000851135,0.00165058,0.00257218,-0.00073186,0.764501,0.0020038,0.0107764,1273,1751,5.68623,-23.4215
56,-727,5.69629,23.4673,0.000912424,0.00117504,0.00133037,0.00238056,-0.0002931,0.834588,0.00169322,0.00958379,1280,1751,5.69623,-23.4673
63,-727,5.71521,23.4854,0.00088005,0.00124629,0.00097322,0.00205347,7.28712e-05,0.87839,0.00134534,0.0123112,1287,1751,5.71516,-23.4853
70,-727,5.75195,23.4741,0.00131284,0.00233233,0.000118205,0.00234585,0.00129931,1.45686,0.001357,0.0143065,1294,1751,5.75195,-23.4741
77,-727,5.76074,23.4756,0.00231581,0.00545898,-0.00145378,0.00602827,0.00174652,-1.19756,0.00358155,0.0159661,1301,1751,5.76077,-23.4755
84,-727,5.76086,23.4534,0.00280554,0.00714529,-0.00266442,0.00841162,0.00153921,-1.12712,0.0051716,0.0167207,1308,1751,5.76089,-23.4534
91,-727,5.76611,23.4379,0.00323577,0.00866162,-0.00396465,0.0107527,0.0011447,-1.08545,0.006819,0.0168188,1315,1751,5.76615,-23.4379
98,-727,5.74585,23.4468,0.00370134,0.0102842,-0.00522095,0.0131647,0.000820919,-1.06665,0.008516,0.0143828,1322,1751,5.74582,-23.4468
105,-727,5.73315,23.443,0.0041697,0.0118295,-0.0064122,0.0154685,0.000530704,-1.05461,0.0101401,0.0135884,1329,1751,5.73318,-23.443
112,-727,5.73743,23.4315,0.00465805,0.0131576,-0.00730637,0.0173603,0.000455394,-1.04881,0.0114247,0.0112995,1336,1751,5.7374,-23.4315
119,-727,5.7373,23.4087,0.00491442,0.0139934,-0.00798324,0.0186375,0.000270277,-1.04391,0.0123359,0.0087044,1343,1751,5.73731,-23.4087
126,-727,5.73853,23.3759,0.00495883,0.0142855,-0.00824621,0.0190956,0.000148694,-1.04274,0.0126811,0.0101039,1350,1751,5.73854,-23.3758
133,-727,5.73889,23.3328,0.00481199,0.0139042,-0.00799716,0.0185571,0.000159105,-1.04385,0.0123187,0.0146949,1357,1751,5.73891,-23.3327
140,-727,5.72778,23.2749,0.00437848,0.0129165,-0.0073318,0.0171316,0.000163399,-1.04903,0.011367,0.0211934,1364,1751,5.72783,-23.2748
147,-727,5.73206,23.2255,0.00389203,0.0116769,-0.00630279,0.0151923,0.000376611,-1.06202,0.010005,0.0183834,1371,1751,5.73208,-23.2254
154,-727,5.74316,23.1515,0.00340828,0.0104159,-0.00521747,0.0131969,0.000627288,-1.08109,0.00859645,0.0115088,1378,1751,5.74312,-23.1515
161,-727,5.73413,23.1019,0.00282965,0.00917261,-0.00425655,0.0113093,0.000692971,-1.10557,0.00731948,0.00923777,1385,1751,5.73419,-23.102
168,-727,5.70728,23.0416,0.0023922,0.00815397,-0.00347995,0.00979078,0.000755396,-1.13115,0.00629052,0.011624,1392,1751,5.70729,-23.0416
175,-727,5.72229,22.9734,0.00155728,0.00525531,-0.00204422,0.00616268,0.000649901,-1.15305,0.00390987,0.0163345,1399,1751,5.72223,-22.9734
182,-727,5.7428,22.9058,-0.000268978,-0.000103417,-0.000331287,0.000155275,-0.00052767,-0.907829,0.000413376,0.0178347,1406,1751,5.74277,-22.9058
189,-727,5.71069,22.8203,-0.000605168,0.00112882,-0.00248591,0.00289458,-0.00237093,-0.953184,0.00304505,0.0116188,1413,1751,5.71071,-22.8204
196,-727,5.71069,22.7449,-0.000676302,0.00153061,-0.0038795,0.00446053,-0.00360622,-0.923955,0.00466604,0.0129736,1420,1751,5.7107,-22.7448
203,-727,5.70825,22.6382,-0.00070578,0.00220596,-0.0052706,0.00621807,-0.00471789,-0.92015,0.00633365,0.0162055,1427,1751,5.70824,-22.6382
210,-727,5.68823,22.5398,-0.000701064,0.00288981,-0.00655112,0.00788708,-0.00569833,-0.919147,0.0078774,0.0163247,1434,1751,5.68823,-22.5399
217,-727,5.64844,22.4486,-0.000787471,0.00345789,-0.00773126,0.00935258,-0.00668216,-0.919376,0.00930036,0.0113576,1441,1751,5.64846,-22.4486
224,-727,5.64307,22.3392,-0.000886693,0.00386028,-0.00865453,0.0104609,-0.0074873,-0.919231,0.0104097,0.0115539,1448,1751,5.64301,-22.3392
231,-727,5.651,22.2305,-0.00101616,0.00419636,-0.00936221,0.0113083,-0.0081281,-0.921151,0.0112716,0.00898064,1455,1751,5.65095,-22.2305
238,-727,5.65247,22.0999,-0.00105364,0.00446874,-0.00977674,0.0118667,-0.00845162,-0.923026,0.0117859,0.00899442,1462,1751,5.65252,-22.0999
245,-727,5.64478,21.9795,-0.00101633,0.00481335,-0.00986606,0.0121861,-0.00838913,-0.929033,0.0119464,0.00953146,1469,1751,5.6448,-21.9795
252,-727,5.64429,21.8666,-0.00112414,0.00509206,-0.0095615,0.0120379,-0.00807002,-0.942543,0.0116844,0.0109084,1476,1751,5.6443,-21.8666
259,-727,5.65295,21.744,-0.00153257,0.00512705,-0.00879522,0.0112017,-0.0076072,-0.966357,0.0109252,0.0146755,1483,1751,5.65298,-21.7441
266,-727,5.66821,21.6479,-0.00229558,0.0055505,-0.0074606,0.0100566,-0.0068017,-1.02745,0.00979345,0.0239526,1490,1751,5.66827,-21.648
273,-727,5.71252,21.6023,-0.00301832,0.00602349,-0.00609981,0.0090951,-0.00608993,-1.10431,0.00882412,0.0439119,1497,1751,5.71249,-21.6023
280,-727,5.4978,21.5635,0,0,0,0,0,0,0,-1,1504,1751,5.49785,-21.5635
287,-727,5.33252,21.0759,0,0,0,0,0,0,0,-1,1511,1751,5.33247,-21.0759
294,-727,5.27222,20.7008,0,0,0,0,0,0,0,-1,1518,1751,5.2722,-20.7008
301,-727,5.30786,20.8531,0,0,0,0,0,0,0,-1,1525,1751,5.30782,-20.8531
308,-727,5.00793,20.9601,0,0,0,0,0,0,0,-1,1532,1751,5.00796,-20.9601
315,-727,4.49207,20.2368,0,0,0,0,0,0,0,-1,1539,1751,4.49201,-20.2369
322,-727,5.75818,18.2477,0,0,0,0,0,0,0,-1,1546,1751,5.75815,-18.2477
329,-727,6.61853,11.6267,0,0,0,0,0,0,0,-1,1553,1751,6.61859,-11.6267
336,-727,5.55823,20.2439,0,0,0,0,0,0,0,-1,1560,1751,5.55829,-20.2438
343,-727,2.41699,8.72095,0,0,0,0,0,0,0,-1,1567,1751,2.41702,-8.72098
350,-727,3.89783,7.50195,0,0,0,0,0,0,0,-1,1574,1751,3.89782,-7.50193
357,-727,4.48462,10.2948,0,0,0,0,0,0,0,-1,1581,1751,4.48464,-10.2948
364,-727,6.96729,17.2365,0,0,0,0,0,0,0,-1,1588,1751,6.96732,-17.2365
371,-727,6.06628,16.4799,0,0,0,0,0,0,0,-1,1595,1751,6.06631,-16.4798
378,-727,6.43652,17.5544,0,0,0,0,0,0,0,-1,1602,1751,6.43657,-17.5545
385,-727,3.19275,14.7679,0,0,0,0,0,0,0,-1,1609,1751,3.19274,-14.768
392,-727,0,0,0,0,0,0,0,0,0,-1,1616,1751,0,0
399,-727,0,0,0,0,0,0,0,0,0,-1,1623,1751,0,0
406,-727,0,0,0,0,0,0,0,0,0,-1,1630,1751,0,0
413,-727,0,0,0,0,0,0,0,0,0,-1,1637,1751,0,0
420,-727,0,0,0,0,0,0,0,0,0,-1,1644,1751,0,0
427,-727,0,0,0,0,0,0,0,0,0,-1,1651,1751,0,0
434,-727,0,0,0,0,0,0,0,0,0,-1,1658,1751,0,0
441,-727,0,0,0,0,0,0,0,0,0,-1,1665,1751,0,0
448,-727,0,0,0,0,0,0,0,0,0,-1,1672,1751,0,0
455,-727,0,0,0,0,0,0,0,0,0,-1,1679,1751,0,0
462,-727,0,0,0,0,0,0,0,0,0,-1,1686,1751,0,0
469,-727,0,0,0,0,0,0,0,0,0,-1,1693,1751,0,0
476,-727,0,0,0,0,0,0,0,0,0,-1,1700,1751,0,0
483,-727,0,0,0,0,0,0,0,0,0,-1,1707,1751,0,0
490,-727,0,0,0,0,0,0,0,0,0,-1,1714,1751,0,0
497,-727,0,0,0,0,0,0,0,0,0,-1,1721,1751,0,0
504,-727,0,0,0,0,0,0,0,0,0,-1,1728,1751,0,0
511,-727,0,0,0,0,0,0,0,0,0,-1,1735,1751,0,0
518,-727,0,0,0,0,0,0,0,0,0,-1,1742,1751,0,0
525,-727,0,0,0,0,0,0,0,0,0,-1,1749,1751,0,0
532,-727,0,0,0,0,0,0,0,0,0,-1,1756,1751,0,0
539,-727,0,0,0,0,0,0,0,0,0,-1,1763,1751,0,0
546,-727,0,0,0,0,0,0,0,0,0,-1,1770,1751,0,0
553,-727,0,0,0,0,0,0,0,0,0,-1,1777,1751,0,0
560,-727,0,0,0,0,0,0,0,0,0,-1,1784,1751,0,0
567,-727,0,0,0,0,0,0,0,0,0,-1,1791,1751,0,0
574,-727,0,0,0,0,0,0,0,0,0,-1,1798,1751,0,0
581,-727,0,0,0,0,0,0,0,0,0,-1,1805,1751,0,0
588,-727,0,0,0,0,0,0,0,0,0,-1,1812,1751,0,0
595,-727,0,0,0,0,0,0,0,0,0,-1,1819,1751,0,0
602,-727,0,0,0,0,0,0,0,0,0,-1,1826,1751,0,0
609,-727,0,0,0,0,0,0,0,0,0,-1,1833,1751,0,0
616,-727,0,0,0,0,0,0,0,0,0,-1,1840,1751,0,0
623,-727,0,0,0,0,0,0,0,0,0,-1,1847,1751,0,0
630,-727,0,0,0,0,0,0,0,0,0,-1,1854,1751,0,0
637,-727,0,0,0,0,0,0,0,0,0,-1,1861,1751,0,0
644,-727,0,0,0,0,0,0,0,0,0,-1,1868,1751,0,0
651,-727,0,0,0,0,0,0,0,0,0,-1,1875,1751,0,0
658,-727,0,0,0,0,0,0,0,0,0,-1,1882,1751,0,0
665,-727,0,0,0,0,0,0,0,0,0,-1,1889,1751,0,0
672,-727,0,0,0,0,0,0,0,0,0,-1,1896,1751,0,0
679,-727,0,0,0,0,0,0,0,0,0,-1,1903,1751,0,0
686,-727,0,0,0,0,0,0,0,0,0,-1,1910,1751,0,0
693,-727,0,0,0,0,0,0,0,0,0,-1,1917,1751,0,0
700,-727,0,0,0,0,0,0,0,0,0,-1,1924,1751,0,0
707,-727,0,0,0,0,0,0,0,0,0,-1,1931,1751,0,0
714,-727,0,0,0,0,0,0,0,0,0,-1,1938,1751,0,0
721,-727,0,0,0,0,0,0,0,0,0,-1,1945,1751,0,0
728,-727,0,0,0,0,0,0,0,0,0,-1,1952,1751,0,0
735,-727,0,0,0,0,0,0,0,0,0,-1,1959,1751,0,0
742,-727,0,0,0,0,0,0,0,0,0,-1,1966,1751,0,0
749,-727,0,0,0,0,0,0,0,0,0,-1,1973,1751,0,0
756,-727,0,0,0,0,0,0,0,0,0,-1,1980,1751,0,0
763,-727,0,0,0,0,0,0,0,0,0,-1,1987,1751,0,0
770,-727,0,0,0,0,0,0,0,0,0,-1,1994,1751,0,0
777,-727,0,0,0,0,0,0,0,0,0,-1,2001,1751,0,0
784,-727,0,0,0,0,0,0,0,0,0,-1,2008,1751,0,0
791,-727,0,0,0,0,0,0,0,0,0,-1,2015,1751,0,0
798,-727,0,0,0,0,0,0,0,0,0,-1,2022,1751,0,0
805,-727,0,0,0,0,0,0,0,0,0,-1,2029,1751,0,0
812,-727,0,0,0,0,0,0,0,0,0,-1,2036,1751,0,0
-700,-734,0,0,0,0,0,0,0,0,0,-1,524,1758,0,0
-693,-734,0,0,0,0,0,0,0,0,0,-1,531,1758,0,0
-686,-734,0,0,0,0,0,0,0,0,0,-1,538,1758,0,0
-679,-734,0,0,0,0,0,0,0,0,0,-1,545,1758,0,0
-672,-734,0,0,0,0,0,0,0,0,0,-1,552,1758,0,0
-665,-734,0,0,0,0,0,0,0,0,0,-1,559,1758,0,0
-658,-734,0,0,0,0,0,0,0,0,0,-1,566,1758,0,0
-651,-734,0,0,0,0,0,0,0,0,0,-1,573,1758,0,0
-644,-734,0,0,0,0,0,0,0,0,0,-1,580,1758,0,0
-637,-734,0,0,0,0,0,0,0,0,0,-1,587,1758,0,0
-630,-734,0,0,0,0,0,0,0,0,0,-1,594,1758,0,0
-623,-734,0,0,0,0,0,0,0,0,0,-1,601,1758,0,0
-616,-734,0,0,0,0,0,0,0,0,0,-1,608,1758,0,0
-609,-734,0,0,0,0,0,0,0,0,0,-1,615,1758,0,0
-602,-734,0,0,0,0,0,0,0,0,0,-1,622,1758,0,0
-595,-734,0,0,0,0,0,0,0,0,0,-1,629,1758,0,0
-588,-734,0,0,0,0,0,0,0,0,0,-1,636,1758,0,0
-581,-734,0,0,0,0,0,0,0,0,0,-1,643,1758,0,0
-574,-734,0,0,0,0,0,0,0,0,0,-1,650,1758,0,0
-567,-734,0,0,0,0,0,0,0,0,0,-1,657,1758,0,0
-560,-734,0,0,0,0,0,0,0,0,0,-1,664,1758,0,0
-553,-734,0,0,0,0,0,0,0,0,0,-1,671,1758,0,0
-546,-734,0,0,0,0,0,0,0,0,0,-1,678,1758,0,0
-539,-734,0,0,0,0,0,0,0,0,0,-1,685,1758,0,0
-532,-734,0,0,0,0,0,0,0,0,0,-1,692,1758,0,0
-525,-734,0,0,0,0,0,0,0,0,0,-1,699,1758,0,0
-518,-734,0,0,0,0,0,0,0,0,0,-1,706,1758,0,0
-511,-734,0,0,0,0,0,0,0,0,0,-1,713,1758,0,0
-504,-734,0,0,0,0,0,0,0,0,0,-1,720,1758,0,0
-497,-734,0,0,0,0,0,0,0,0,0,-1,727,1758,0,0
-490,-734,0,0,0,0,0,0,0,0,0,-1,734,1758,0,0
-483,-734,0,0,0,0,0,0,0,0,0,-1,741,1758,0,0
-476,-734,0,0,0,0,0,0,0,0,0,-1,748,1758,0,0
-469,-734,0,0,0,0,0,0,0,0,0,-1,755,1758,0,0
-462,-734,0,0,0,0,0,0,0,0,0,-1,762,1758,0,0
-455,-734,0,0,0,0,0,0,0,0,0,-1,769,1758,0,0
-448,-734,0,0,0,0,0,0,0,0,0,-1,776,1758,0,0
-441,-734,0,0,0,0,0,0,0,0,0,-1,783,1758,0,0
-434,-734,0,0,0,0,0,0,0,0,0,-1,790,1758,0,0
-427,-734,0,0,0,0,0,0,0,0,0,-1,797,1758,0,0
-420,-734,0,0,0,0,0,0,0,0,0,-1,804,1758,0,0
-413,-734,0,0,0,0,0,0,0,0,0,-1,811,1758,0,0
-406,-734,0,0,0,0,0,0,0,0,0,-1,818,1758,0,0
-399,-734,0,0,0,0,0,0,0,0,0,-1,825,1758,0,0
-392,-734,0,0,0,0,0,0,0,0,0,-1,832,1758,0,0
-385,-734,0,0,0,0,0,0,0,0,0,-1,839,1758,0,0
-378,-734,0,0,0,0,0,0,0,0,0,-1,846,1758,0,0
-371,-734,0,0,0,0,0,0,0,0,0,-1,853,1758,0,0
-364,-734,0,0,0,0,0,0,0,0,0,-1,860,1758,0,0
-357,-734,0,0,0,0,0,0,0,0,0,-1,867,1758,0,0
-350,-734,0,0,0,0,0,0,0,0,0,-1,874,1758,0,0
-343,-734,0,0,0,0,0,0,0,0,0,-1,881,1758,0,0
-336,-734,0,0,0,0,0,0,0,0,0,-1,888,1758,0,0
-329,-734,0,0,0,0,0,0,0,0,0,-1,895,1758,0,0
-322,-734,0,0,0,0,0,0,0,0,0,-1,902,1758,0,0
-315,-734,0,0,0,0,0,0,0,0,0,-1,909,1758,0,0
-308,-734,0,0,0,0,0,0,0,0,0,-1,916,1758,0,0
-301,-734,0,0,0,0,0,0,0,0,0,-1,923,1758,0,0
-294,-734,0,0,0,0,0,0,0,0,0,-1,930,1758,0,0
-287,-734,0,0,0,0,0,0,0,0,0,-1,937,1758,0,0
-280,-734,0,0,0,0,0,0,0,0,0,-1,944,1758,0,0
-273,-734,0,0,0,0,0,0,0,0,0,-1,951,1758,0,0
-266,-734,0,0,0,0,0,0,0,0,0,-1,958,1758,0,0
-259,-734,0,0,0,0,0,0,0,0,0,-1,965,1758,0,0
-252,-734,6.93439,18.351,0,0,0,0,0,0,0,-1,972,1758,6.93438,-18.3509
-245,-734,6.95746,19.5341,0,0,0,0,0,0,0,-1,979,1758,6.95746,-19.5341
-238,-734,4.33466,18.0819,0,0,0,0,0,0,0,-1,986,1758,4.33464,-18.0819
-231,-734,5.00385,17.5045,0,0,0,0,0,0,0,-1,993,1758,5.00388,-17.5045
-224,-734,5.60974,16.9055,0,0,0,0,0,0,0,-1,1000,1758,5.60974,-16.9056
-217,-734,6.61804,16.4808,0,0,0,0,0,0,0,-1,1007,1758,6.61804,-16.4808
-210,-734,7.62262,16.1628,0,0,0,0,0,0,0,-1,1014,1758,7.6226,-16.1628
-203,-734,5.16125,20.7495,0,0,0,0,0,0,0,-1,1021,1758,5.16126,-20.7495
-196,-734,5.51831,20.7374,0,0,0,0,0,0,0,-1,1028,1758,5.51833,-20.7374
-189,-734,5.63733,20.4552,0,0,0,0,0,0,0,-1,1035,1758,5.63737,-20.4552
-182,-734,4.96313,18.7848,0,0,0,0,0,0,0,-1,1042,1758,4.96319,-18.7847
-175,-734,5.05054,18.079,0,0,0,0,0,0,0,-1,1049,1758,5.05053,-18.0789
-168,-734,4.50208,15.4194,0,0,0,0,0,0,0,-1,1056,1758,4.50212,-15.4194
-161,-734,5.54041,19.1691,0,0,0,0,0,0,0,-1,1063,1758,5.54045,-19.169
-154,-734,5.55481,20.3098,0,0,0,0,0,0,0,-1,1070,1758,5.55479,-20.3098
-147,-734,5.98926,21.1251,0,0,0,0,0,0,0,-1,1077,1758,5.98921,-21.1251
-140,-734,6.11084,21.2021,0.00679128,0.0129334,0.00872014,0.0191075,0.000617227,0.954707,0.0125376,0.0425555,1084,1758,6.11083,-21.2022
-133,-734,6.19446,21.2634,0.00477784,0.0130107,0.00709308,0.0170953,0.000693251,1.04832,0.011173,0.0403865,1091,1758,6.19448,-21.2635
-126,-734,5.89673,21.2377,0.00338664,0.0119181,0.00557914,0.0146754,0.000629309,1.11178,0.00958072,0.0368059,1098,1758,5.89669,-21.2376
-119,-734,5.90222,21.4546,0.00237482,0.010983,0.00456226,0.012951,0.000406801,1.16354,0.00850166,0.0362116,1105,1758,5.9022,-21.4546
-112,-734,5.93994,21.5784,0.00176092,0.0101937,0.00371374,0.011596,0.000358605,1.20975,0.00761395,0.0280229,1112,1758,5.93989,-21.5783
-105,-734,5.90149,21.75,0.00103501,0.00865246,0.00265799,0.00948822,0.000199243,1.26615,0.00626012,0.0202901,1119,1758,5.90153,-21.7501
-98,-734,5.93469,21.8363,0.000274228,0.00802192,0.00195589,0.00848768,-0.000191531,1.33702,0.00572336,0.0219893,1126,1758,5.93469,-21.8363
-91,-734,5.92798,21.9597,-0.000273987,0.00759982,0.00175418,0.00797295,-0.000647113,1.36121,0.00554361,0.0266559,1133,1758,5.92796,-21.9597
-84,-734,5.8811,22.0844,-0.00079399,0.00720273,0.00169191,0.00754597,-0.00113722,1.37064,0.00544942,0.0207477,1140,1758,5.88105,-22.0843
-77,-734,5.84485,22.2386,-0.000951114,0.00629217,0.00157529,0.00661993,-0.00127888,1.36566,0.00489558,0.0165337,1147,1758,5.84488,-22.2387
-70,-734,5.81702,22.2959,-0.00157289,0.00444925,0.000736925,0.00453811,-0.00166176,1.45079,0.00370568,0.0135006,1154,1758,5.81699,-22.2959
-63,-734,5.8147,22.399,-0.00208992,0.00354588,0.000537595,0.0035967,-0.00214074,1.47654,0.00334787,0.0139387,1161,1758,5.81466,-22.399
-56,-734,5.81982,22.5503,-0.00177591,0.00223989,0.00070665,0.00236061,-0.00189663,1.4016,0.00246278,0.0134545,1168,1758,5.81987,-22.5502
-49,-734,5.81299,22.6716,-0.000296003,0.0018602,0.00101322,0.0022616,-0.000697403,1.1936,0.00178617,0.0123452,1175,1758,5.81301,-22.6716
-42,-734,5.81458,22.7661,0.000902645,0.00123531,0.00120104,0.00228149,-0.000143528,0.854206,0.00157102,0.0136149,1182,1758,5.81462,-22.7661
-35,-734,5.80054,22.8267,0.00161263,0.00072808,0.00108901,0.00234574,-5.0388e-06,0.592511,0.00156551,0.013972,1189,1758,5.80052,-22.8267
-28,-734,5.79834,22.9049,0.00188051,0.000328502,0.000863864,0.00226573,-5.67193e-05,0.419462,0.00152974,0.00982768,1196,1758,5.79839,-22.905
-21,-734,5.82178,22.9808,0.00205961,-0.000120933,0.000867528,0.00236264,-0.000423966,0.336056,0.00173378,0.015917,1203,1758,5.82177,-22.9809
-14,-734,5.77759,23.061,0.00230765,-0.000505734,0.000957845,0.0026028,-0.000800878,0.298903,0.00205486,0.0170148,1210,1758,5.77756,-23.061
-7,-734,5.78162,23.1222,0.00241051,-0.000815453,0.00102337,0.00270776,-0.00111271,0.282687,0.00226892,0.0181842,1217,1758,5.78158,-23.1222
0,-734,5.78223,23.1874,0.00238296,-0.000928975,0.00108367,0.00270602,-0.00125204,0.289733,0.00233602,0.0161218,1224,1758,5.78223,-23.1874
7,-734,5.7561,23.2362,0.00218464,-0.000901291,0.00109079,0.00253127,-0.00124792,0.307684,0.00222345,0.012256,1231,1758,5.75613,-23.2363
14,-734,5.74854,23.3007,0.00188327,-0.000819463,0.00112105,0.00228774,-0.00122393,0.346255,0.00205824,0.0130766,1238,1758,5.74858,-23.3007
21,-734,5.7312,23.3386,0.0015761,-0.000732545,0.00112031,0.00203037,-0.00118681,0.385224,0.0018786,0.0117949,1245,1758,5.73116,-23.3386
28,-734,5.74695,23.3525,0.00118942,-0.0004456,0.00108314,0.00172893,-0.000985111,0.462128,0.00158645,0.0115899,1252,1758,5.74701,-23.3526
35,-734,5.7782,23.3712,0.000991211,0.000139678,0.00100756,0.00165927,-0.000528385,0.585493,0.0013181,0.0137777,1259,1758,5.77819,-23.3712
42,-734,5.75635,23.3993,0.000864073,0.000756164,0.00084428,0.00165612,-3.58829e-05,0.753489,0.00111623,0.0115205,1266,1758,5.75635,-23.3993
49,-734,5.71497,23.4271,0.000534235,0.00127044,0.000568763,0.00157983,0.00022485,1.0726,0.000986846,0.00995656,1273,1758,5.71496,-23.4271
56,-734,5.71338,23.4641,0.00019201,0.00166674,0.000256089,0.00170995,0.000148806,1.40366,0.00109374,0.00935326,1280,1758,5.7134,-23.4641
63,-734,5.724,23.4788,-6.84717e-05,0.00185341,-6.25157e-05,0.00185544,-7.0503e-05,-1.53831,0.00126112,0.0122014,1287,1758,5.72394,-23.4787
70,-734,5.72827,23.4849,0.000349855,0.00364336,-0.00110917,0.00398206,1.11482e-05,-1.27442,0.002651,0.0127951,1294,1758,5.72828,-23.4849
77,-734,5.73438,23.5233,0.00171488,0.0078392,-0.00319953,0.00920579,0.000348285,-1.16713,0.00602445,0.0164842,1301,1758,5.73436,-23.5234
84,-734,5.72473,23.4889,0.00251223,0.00975008,-0.00461106,0.0119928,0.000269546,-1.11811,0.00790686,0.0164161,1308,1758,5.72473,-23.4889
91,-734,5.71863,23.4614,0.00325209,0.0118627,-0.00613672,0.0150537,6.10556e-05,-1.09129,0.0100155,0.0184079,1315,1758,5.71863,-23.4615
98,-734,5.7406,23.4583,0.00405122,0.0141026,-0.00764205,0.0182234,-6.95894e-05,-1.07626,0.0121722,0.013696,1322,1758,5.74059,-23.4582
105,-734,5.73828,23.4452,0.0049083,0.0162404,-0.00910206,0.0212959,-0.000147206,-1.0638,0.0142466,0.0144713,1329,1758,5.73823,-23.4451
112,-734,5.73621,23.416,0.00576906,0.0180877,-0.0103265,0.0239522,-9.54987e-05,-1.0543,0.0160001,0.0128882,1336,1758,5.73624,-23.4161
119,-734,5.70642,23.3527,0.00645135,0.019442,-0.0113403,0.0260153,-0.00012203,-1.04547,0.0173844,0.0132168,1343,1758,5.70641,-23.3527
126,-734,5.69922,23.3346,0.00691495,0.0202472,-0.0119081,0.027228,-6.58743e-05,-1.04057,0.018174,0.0151078,1350,1758,5.69919,-23.3346
133,-734,5.69373,23.2953,0.00710254,0.0200488,-0.0118633,0.0270901,6.12102e-05,-1.03514,0.0180397,0.013762,1357,1758,5.69374,-23.2952
140,-734,5.6886,23.2242,0.00680404,0.018958,-0.0112617,0.0256777,8.43173e-05,-1.03282,0.0170904,0.0181031,1364,1758,5.68856,-23.2242
147,-734,5.677,23.2018,0.0062339,0.0175808,-0.0101974,0.0235768,0.000237917,-1.03925,0.0156391,0.0134899,1371,1758,5.67695,-23.2018
154,-734,5.67578,23.1724,0.00563156,0.0160157,-0.0090616,0.0212673,0.00037996,-1.04555,0.0140533,0.00954756,1378,1758,5.67574,-23.1723
161,-734,5.66711,23.1121,0.00481443,0.0142028,-0.00782559,0.0186342,0.000383091,-1.05555,0.0122971,0.00846083,1385,1758,5.66712,-23.1121
168,-734,5.64331,23.0313,0.00399962,0.0126285,-0.00671383,0.0162947,0.000333472,-1.07098,0.0107537,0.0134157,1392,1758,5.64336,-23.0313
175,-734,5.66638,22.9646,0.00242737,0.00759225,-0.00423453,0.00996968,4.99445e-05,-1.05921,0.00662987,0.0163134,1399,1758,5.66638,-22.9645
182,-734,5.6908,22.8793,-0.000871936,-0.00137894,-0.000653598,-0.0004244,-0.00182647,-0.600401,0.00110372,0.0146571,1406,1758,5.69076,-22.8793
189,-734,5.6499,22.8002,-0.00139362,0.00154932,-0.00405721,0.00439365,-0.00423795,-0.959362,0.00498373,0.0107766,1413,1758,5.64985,-22.8002
196,-734,5.62463,22.7496,-0.00136084,0.00210913,-0.00625167,0.0068621,-0.00611381,-0.920753,0.0074958,0.011863,1420,1758,5.62469,-22.7496
203,-734,5.64221,22.6604,-0.00131011,0.00305129,-0.00849009,0.00963627,-0.00789509,-0.911107,0.0101384,0.013591,1427,1758,5.64224,-22.6604
210,-734,5.62781,22.5487,-0.00124162,0.00409212,-0.0104407,0.0122012,-0.00935071,-0.910439,0.0124792,0.0149878,1434,1758,5.62783,-22.5487
217,-734,5.58044,22.4563,-0.00130881,0.00494451,-0.0121802,0.014393,-0.0107573,-0.911035,0.014571,0.0107369,1441,1758,5.58045,-22.4563
224,-734,5.57288,22.3463,-0.00142615,0.00557243,-0.0135007,0.0160199,-0.0118736,-0.912205,0.0161636,0.0114051,1448,1758,5.57293,-22.3463
231,-734,5.56958,22.2305,-0.00155693,0.00608255,-0.0144752,0.0172335,-0.0127079,-0.914398,0.0173524,0.0122805,1455,1758,5.5696,-22.2304
238,-734,5.55139,22.1118,-0.00159002,0.00646875,-0.0150326,0.0180026,-0.0131238,-0.916342,0.0180443,0.0157032,1462,1758,5.55143,-22.1118
245,-734,5.5791,21.9457,-0.00153984,0.0068981,-0.0151331,0.0183893,-0.013031,-0.921342,0.0182283,0.02174,1469,1758,5.57907,-21.9457
252,-734,5.5885,21.7972,-0.00164277,0.00723896,-0.014717,0.0181705,-0.0125743,-0.931929,0.0178483,0.0279954,1476,1758,5.58854,-21.7972
259,-734,5.65552,21.7418,-0.00211578,0.00727057,-0.0137098,0.0170683,-0.0119135,-0.950307,0.0168206,0.0373089,1483,1758,5.65549,-21.7419
266,-734,5.54175,21.6777,0,0,0,0,0,0,0,-1,1490,1758,5.54172,-21.6778
273,-734,5.72058,21.8229,0,0,0,0,0,0,0,-1,1497,1758,5.72058,-21.8229
280,-734,16.6191,7.38013,0,0,0,0,0,0,0,-1,1504,1758,16.6192,-7.38011
287,-734,14.848,9.10046,0,0,0,0,0,0,0,-1,1511,1758,14.848,-9.1005
294,-734,12.0439,5.7876,0,0,0,0,0,0,0,-1,1518,1758,12.044,-5.78759
301,-734,10.5892,5.92322,0,0,0,0,0,0,0,-1,1525,1758,10.5893,-5.92319
308,-734,9.00854,5.43774,0,0,0,0,0,0,0,-1,1532,1758,9.00857,-5.4377
315,-734,5.3158,17.4298,0,0,0,0,0,0,0,-1,1539,1758,5.31581,-17.4299
322,-734,9.85913,7.48096,0,0,0,0,0,0,0,-1,1546,1758,9.85916,-7.48098
329,-734,5.45972,12.4125,0,0,0,0,0,0,0,-1,1553,1758,5.45969,-12.4125
336,-734,5.92188,13.8751,0,0,0,0,0,0,0,-1,1560,1758,5.92183,-13.8751
343,-734,5.54968,5.14221,0,0,0,0,0,0,0,-1,1567,1758,5.54973,-5.14225
350,-734,5.07397,6.73242,0,0,0,0,0,0,0,-1,1574,1758,5.07402,-6.73243
357,-734,5.05542,7.19189,0,0,0,0,0,0,0,-1,1581,1758,5.05541,-7.19184
364,-734,4.43896,10.4904,0,0,0,0,0,0,0,-1,1588,1758,4.43893,-10.4904
371,-734,7.36975,17.4751,0,0,0,0,0,0,0,-1,1595,1758,7.36972,-17.4752
378,-734,0,0,0,0,0,0,0,0,0,-1,1602,1758,0,0
385,-734,0,0,0,0,0,0,0,0,0,-1,1609,1758,0,0
392,-734,0,0,0,0,0,0,0,0,0,-1,1616,1758,0,0
399,-734,0,0,0,0,0,0,0,0,0,-1,1623,1758,0,0
406,-734,0,0,0,0,0,0,0,0,0,-1,1630,1758,0,0
413,-734,0,0,0,0,0,0,0,0,0,-1,1637,1758,0,0
420,-734,0,0,0,0,0,0,0,0,0,-1,1644,1758,0,0
427,-734,0,0,0,0,0,0,0,0,0,-1,1651,1758,0,0
434,-734,0,0,0,0,0,0,0,0,0,-1,1658,1758,0,0
441,-734,0,0,0,0,0,0,0,0,0,-1,1665,1758,0,0
448,-734,0,0,0,0,0,0,0,0,0,-1,1672,1758,0,0
455,-734,0,0,0,0,0,0,0,0,0,-1,1679,1758,0,0
462,-734,0,0,0,0,0,0,0,0,0,-1,1686,1758,0,0
469,-734,0,0,0,0,0,0,0,0,0,-1,1693,1758,0,0
476,-734,0,0,0,0,0,0,0,0,0,-1,1700,1758,0,0
483,-734,0,0,0,0,0,0,0,0,0,-1,1707,1758,0,0
490,-734,0,0,0,0,0,0,0,0,0,-1,1714,1758,0,0
497,-734,0,0,0,0,0,0,0,0,0,-1,1721,1758,0,0
504,-734,0,0,0,0,0,0,0,0,0,-1,1728,1758,0,0
511,-734,0,0,0,0,0,0,0,0,0,-1,1735,1758,0,0
518,-734,0,0,0,0,0,0,0,0,0,-1,1742,1758,0,0
525,-734,0,0,0,0,0,0,0,0,0,-1,1749,1758,0,0
532,-734,0,0,0,0,0,0,0,0,0,-1,1756,1758,0,0
539,-734,0,0,0,0,0,0,0,0,0,-1,1763,1758,0,0
546,-734,0,0,0,0,0,0,0,0,0,-1,1770,1758,0,0
553,-734,0,0,0,0,0,0,0,0,0,-1,1777,1758,0,0
560,-734,0,0,0,0,0,0,0,0,0,-1,1784,1758,0,0
567,-734,0,0,0,0,0,0,0,0,0,-1,1791,1758,0,0
574,-734,0,0,0,0,0,0,0,0,0,-1,1798,1758,0,0
581,-734,0,0,0,0,0,0,0,0,0,-1,1805,1758,0,0
588,-734,0,0,0,0,0,0,0,0,0,-1,1812,1758,0,0
595,-734,0,0,0,0,0,0,0,0,0,-1,1819,1758,0,0
602,-734,0,0,0,0,0,0,0,0,0,-1,1826,1758,0,0
609,-734,0,0,0,0,0,0,0,0,0,-1,1833,1758,0,0
616,-734,0,0,0,0,0,0,0,0,0,-1,1840,1758,0,0
623,-734,0,0,0,0,0,0,0,0,0,-1,1847,1758,0,0
630,-734,0,0,0,0,0,0,0,0,0,-1,1854,1758,0,0
637,-734,0,0,0,0,0,0,0,0,0,-1,1861,1758,0,0
644,-734,0,0,0,0,0,0,0,0,0,-1,1868,1758,0,0
651,-734,0,0,0,0,0,0,0,0,0,-1,1875,1758,0,0
658,-734,0,0,0,0,0,0,0,0,0,-1,1882,1758,0,0
665,-734,0,0,0,0,0,0,0,0,0,-1,1889,1758,0,0
672,-734,0,0,0,0,0,0,0,0,0,-1,1896,1758,0,0
679,-734,0,0,0,0,0,0,0,0,0,-1,1903,1758,0,0
686,-734,0,0,0,0,0,0,0,0,0,-1,1910,1758,0,0
693,-734,0,0,0,0,0,0,0,0,0,-1,1917,1758,0,0
700,-734,0,0,0,0,0,0,0,0,0,-1,1924,1758,0,0
707,-734,0,0,0,0,0,0,0,0,0,-1,1931,1758,0,0
714,-734,0,0,0,0,0,0,0,0,0,-1,1938,1758,0,0
721,-734,0,0,0,0,0,0,0,0,0,-1,1945,1758,0,0
728,-734,0,0,0,0,0,0,0,0,0,-1,1952,1758,0,0
735,-734,0,0,0,0,0,0,0,0,0,-1,1959,1758,0,0
742,-734,0,0,0,0,0,0,0,0,0,-1,1966,1758,0,0
749,-734,0,0,0,0,0,0,0,0,0,-1,1973,1758,0,0
756,-734,0,0,0,0,0,0,0,0,0,-1,1980,1758,0,0
763,-734,0,0,0,0,0,0,0,0,0,-1,1987,1758,0,0
770,-734,0,0,0,0,0,0,0,0,0,-1,1994,1758,0,0
777,-734,0,0,0,0,0,0,0,0,0,-1,2001,1758,0,0
784,-734,0,0,0,0,0,0,0,0,0,-1,2008,1758,0,0
791,-734,0,0,0,0,0,0,0,0,0,-1,2015,1758,0,0
798,-734,0,0,0,0,0,0,0,0,0,-1,2022,1758,0,0
805,-734,0,0,0,0,0,0,0,0,0,-1,2029,1758,0,0
812,-734,0,0,0,0,0,0,0,0,0,-1,2036,1758,0,0
-700,-741,0,0,0,0,0,0,0,0,0,-1,524,1765,0,0
-693,-741,0,0,0,0,0,0,0,0,0,-1,531,1765,0,0
-686,-741,0,0,0,0,0,0,0,0,0,-1,538,1765,0,0
-679,-741,0,0,0,0,0,0,0,0,0,-1,545,1765,0,0
-672,-741,0,0,0,0,0,0,0,0,0,-1,552,1765,0,0
-665,-741,0,0,0,0,0,0,0,0,0,-1,559,1765,0,0
-658,-741,0,0,0,0,0,0,0,0,0,-1,566,1765,0,0
-651,-741,0,0,0,0,0,0,0,0,0,-1,573,1765,0,0
-644,-741,0,0,0,0,0,0,0,0,0,-1,580,1765,0,0
-637,-741,0,0,0,0,0,0,0,0,0,-1,587,1765,0,0
-630,-741,0,0,0,0,0,0,0,0,0,-1,594,1765,0,0
-623,-741,0,0,0,0,0,0,0,0,0,-1,601,1765,0,0
-616,-741,0,0,0,0,0,0,0,0,0,-1,608,1765,0,0
-609,-741,0,0,0,0,0,0,0,0,0,-1,615,1765,0,0
-602,-741,0,0,0,0,0,0,0,0,0,-1,622,1765,0,0
-595,-741,0,0,0,0,0,0,0,0,0,-1,629,1765,0,0
-588,-741,0,0,0,0,0,0,0,0,0,-1,636,1765,0,0
-581,-741,0,0,0,0,0,0,0,0,0,-1,643,1765,0,0
-574,-741,0,0,0,0,0,0,0,0,0,-1,650,1765,0,0
-567,-741,0,0,0,0,0,0,0,0,0,-1,657,1765,0,0
-560,-741,0,0,0,0,0,0,0,0,0,-1,664,1765,0,0
-553,-741,0,0,0,0,0,0,0,0,0,-1,671,1765,0,0
-546,-741,0,0,0,0,0,0,0,0,0,-1,678,1765,0,0
-539,-741,0,0,0,0,0,0,0,0,0,-1,685,1765,0,0
-532,-741,0,0,0,0,0,0,0,0,0,-1,692,1765,0,0
-525,-741,0,0,0,0,0,0,0,0,0,-1,699,1765,0,0
-518,-741,0,0,0,0,0,0,0,0,0,-1,706,1765,0,0
-511,-741,0,0,0,0,0,0,0,0,0,-1,713,1765,0,0
-504,-741,0,0,0,0,0,0,0,0,0,-1,720,1765,0,0
-497,-741,0,0,0,0,0,0,0,0,0,-1,727,1765,0,0
-490,-741,0,0,0,0,0,0,0,0,0,-1,734,1765,0,0
-483,-741,0,0,0,0,0,0,0,0,0,-1,741,1765,0,0
-476,-741,0,0,0,0,0,0,0,0,0,-1,748,1765,0,0
-469,-741,0,0,0,0,0,0,0,0,0,-1,755,1765,0,0
-462,-741,0,0,0,0,0,0,0,0,0,-1,762,1765,0,0
-455,-741,0,0,0,0,0,0,0,0,0,-1,769,1765,0,0
-448,-741,0,0,0,0,0,0,0,0,0,-1,776,1765,0,0
-441,-741,0,0,0,0,0,0,0,0,0,-1,783,1765,0,0
-434,-741,0,0,0,0,0,0,0,0,0,-1,790,1765,0,0
-427,-741,0,0,0,0,0,0,0,0,0,-1,797,1765,0,0
-420,-741,0,0,0,0,0,0,0,0,0,-1,804,1765,0,0
-413,-741,0,0,0,0,0,0,0,0,0,-1,811,1765,0,0
-406,-741,0,0,0,0,0,0,0,0,0,-1,818,1765,0,0
-399,-741,0,0,0,0,0,0,0,0,0,-1,825,1765,0,0
-392,-741,0,0,0,0,0,0,0,0,0,-1,832,1765,0,0
-385,-741,0,0,0,0,0,0,0,0,0,-1,839,1765,0,0
-378,-741,0,0,0,0,0,0,0,0,0,-1,846,1765,0,0
-371,-741,0,0,0,0,0,0,0,0,0,-1,853,1765,0,0
-364,-741,0,0,0,0,0,0,0,0,0,-1,860,1765,0,0
-357,-741,0,0,0,0,0,0,0,0,0,-1,867,1765,0,0
-350,-741,0,0,0,0,0,0,0,0,0,-1,874,1765,0,0
-343,-741,0,0,0,0,0,0,0,0,0,-1,881,1765,0,0
-336,-741,0,0,0,0,0,0,0,0,0,-1,888,1765,0,0
-329,-741,0,0,0,0,0,0,0,0,0,-1,895,1765,0,0
-322,-741,0,0,0,0,0,0,0,0,0,-1,902,1765,0,0
-315,-741,0,0,0,0,0,0,0,0,0,-1,909,1765,0,0
-308,-741,0,0,0,0,0,0,0,0,0,-1,916,1765,0,0
-301,-741,0,0,0,0,0,0,0,0,0,-1,923,1765,0,0
-294,-741,0,0,0,0,0,0,0,0,0,-1,930,1765,0,0
-287,-741,0,0,0,0,0,0,0,0,0,-1,937,1765,0,0
-280,-741,0,0,0,0,0,0,0,0,0,-1,944,1765,0,0
-273,-741,0,0,0,0,0,0,0,0,0,-1,951,1765,0,0
-266,-741,0,0,0,0,0,0,0,0,0,-1,958,1765,0,0
-259,-741,0,0,0,0,0,0,0,0,0,-1,965,1765,0,0
-252,-741,0,0,0,0,0,0,0,0,0,-1,972,1765,0,0
-245,-741,0,0,0,0,0,0,0,0,0,-1,979,1765,0,0
-238,-741,4.22437,17.0699,0,0,0,0,0,0,0,-1,986,1765,4.22434,-17.07
-231,-741,5.12506,16.7758,0,0,0,0,0,0,0,-1,993,1765,5.12506,-16.7757
-224,-741,5.91974,16.7001,0,0,0,0,0,0,0,-1,1000,1765,5.91972,-16.7001
-217,-741,6.90027,16.573,0,0,0,0,0,0,0,-1,1007,1765,6.90029,-16.573
-210,-741,3.48083,24.1105,0,0,0,0,0,0,0,-1,1014,1765,3.48082,-24.1105
-203,-741,4.40173,22.8218,0,0,0,0,0,0,0,-1,1021,1765,4.40174,-22.8218
-196,-741,5.35474,21.4691,0,0,0,0,0,0,0,-1,1028,1765,5.35471,-21.4691
-189,-741,6.27173,20.1274,0,0,0,0,0,0,0,-1,1035,1765,6.27176,-20.1274
-182,-741,4.28748,17.9268,0,0,0,0,0,0,0,-1,1042,1765,4.28742,-17.9267
-175,-741,4.89868,17.0417,0,0,0,0,0,0,0,-1,1049,1765,4.89864,-17.0417
-168,-741,5.4801,16.3933,0,0,0,0,0,0,0,-1,1056,1765,5.4801,-16.3933
-161,-741,3.73047,14.4974,0,0,0,0,0,0,0,-1,1063,1765,3.73043,-14.4974
-154,-741,2.46143,9.75415,0,0,0,0,0,0,0,-1,1070,1765,2.46145,-9.75416
-147,-741,6.06433,21.521,0,0,0,0,0,0,0,-1,1077,1765,6.06428,-21.521
-140,-741,6.39417,21.5046,0,0,0,0,0,0,0,-1,1084,1765,6.39415,-21.5047
-133,-741,5.8175,21.5063,0,0,0,0,0,0,0,-1,1091,1765,5.81749,-21.5064
-126,-741,5.7699,20.8899,0.0054453,0.0163389,0.00745279,0.0201231,0.00166107,1.10096,0.0128974,0.0455751,1098,1765,5.76992,-20.8899
-119,-741,6.06848,21.3932,0.00406273,0.0150737,0.00606251,0.0177575,0.00137893,1.15404,0.0114065,0.0485988,1105,1765,6.06844,-21.3932
-112,-741,6.17969,21.3456,0.00308989,0.0140421,0.00492853,0.0159334,0.00119863,1.20439,0.0102461,0.0452232,1112,1765,6.17967,-21.3455
-105,-741,6.07495,21.6724,0.00200286,0.0122903,0.00369917,0.0134823,0.000810824,1.25906,0.00873049,0.0403396,1119,1765,6.07496,-21.6724
-98,-741,6.09253,21.7037,0,0,0,0,0,0,0,-1,1126,1765,6.09254,-21.7038
-91,-741,5.95227,21.8854,0,0,0,0,0,0,0,-1,1133,1765,5.9523,-21.8853
-84,-741,5.94141,21.864,0,0,0,0,0,0,0,-1,1140,1765,5.94139,-21.8641
-77,-741,5.92334,21.9478,0,0,0,0,0,0,0,-1,1147,1765,5.92335,-21.9478
-70,-741,5.86304,22.0568,0,0,0,0,0,0,0,-1,1154,1765,5.86304,-22.0568
-63,-741,5.83875,22.2632,0,0,0,0,0,0,0,-1,1161,1765,5.8387,-22.2632
-56,-741,5.93518,22.4867,0,0,0,0,0,0,0,-1,1168,1765,5.93522,-22.4867
-49,-741,5.90186,22.7168,0,0,0,0,0,0,0,-1,1175,1765,5.9019,-22.7168
-42,-741,5.86255,22.7661,0,0,0,0,0,0,0,-1,1182,1765,5.86255,-22.7661
-35,-741,5.88477,22.8192,0.00519157,0.00203162,0.000710036,0.00534378,0.0018794,0.211176,0.00313014,0.022579,1189,1765,5.88476,-22.8193
-28,-741,5.90808,22.9143,0.00535736,0.00156411,0.000505736,0.00542363,0.00149784,0.130294,0.00323423,0.0140782,1196,1765,5.90807,-22.9143
-21,-741,5.89258,22.9839,0.00530406,0.000972082,0.000655183,0.00540098,0.000875158,0.146868,0.00334729,0.0180726,1203,1765,5.89262,-22.9838
-14,-741,5.82336,23.0684,0.00529011,0.000430292,0.000846978,0.00543349,0.00028691,0.167697,0.00353058,0.0183312,1210,1765,5.82331,-23.0683
-7,-741,5.82825,23.0964,0.00505558,-5.03878e-05,0.000903542,0.00521075,-0.000205561,0.17008,0.00354434,0.0156355,1217,1765,5.82825,-23.0965
0,-741,5.82239,23.1605,0.00466797,-0.000346533,0.000895757,0.00482318,-0.00050174,0.171567,0.00339508,0.0147117,1224,1765,5.82233,-23.1606
7,-741,5.79163,23.2124,0.00409938,-0.000456179,0.00079313,0.00423351,-0.000590315,0.167537,0.00303829,0.0158534,1231,1765,5.79159,-23.2124
14,-741,5.78577,23.2649,0.00339928,-0.000468345,0.000720538,0.00352915,-0.00059822,0.178333,0.00257544,0.0150835,1238,1765,5.78577,-23.2649
21,-741,5.77649,23.3135,0.00269589,-0.000417896,0.000574333,0.00279845,-0.000520453,0.176705,0.00206114,0.0123603,1245,1765,5.7765,-23.3135
28,-741,5.75427,23.349,0.00193179,3.24927e-05,0.000357182,0.00199674,-3.2458e-05,0.179876,0.00134211,0.0134744,1252,1765,5.7543,-23.349
35,-741,5.78894,23.3562,0.00143617,0.000965853,8.69108e-05,0.00145172,0.000950306,0.177006,0.000851403,0.0145293,1259,1765,5.78895,-23.3562
42,-741,5.79663,23.3916,0.000988742,0.00170473,-0.000252949,0.00178508,0.000908396,-1.26324,0.00103067,0.0145093,1266,1765,5.79664,-23.3916
49,-741,5.76465,23.4366,0.000450429,0.00230756,-0.000727002,0.0025583,0.000199687,-1.23867,0.00164302,0.0103719,1273,1765,5.76467,-23.4367
56,-741,5.7467,23.4703,-0.000153295,0.00268934,-0.0013118,0.00320218,-0.000666132,-1.19812,0.002388,0.0104171,1280,1765,5.74669,-23.4703
63,-741,5.72302,23.4606,-0.000659725,0.00286534,-0.00187197,0.00367395,-0.00146834,-1.16305,0.00305858,0.0142771,1287,1765,5.72306,-23.4606
70,-741,5.71863,23.4757,-0.000292054,0.00522651,-0.00337337,0.00682536,-0.0018909,-1.1282,0.00529432,0.0157408,1294,1765,5.71865,-23.4757
77,-741,5.70972,23.5227,0.00139231,0.0101985,-0.00616926,0.0133748,-0.00178398,-1.09533,0.00956678,0.0125234,1301,1765,5.70971,-23.5227
84,-741,5.68213,23.5203,0.00242899,0.0123123,-0.00804471,0.0168119,-0.0020706,-1.06082,0.0119581,0.0149077,1308,1765,5.68209,-23.5202
91,-741,5.67786,23.4967,0.00343439,0.0149157,-0.0100431,0.0207431,-0.00239298,-1.04504,0.0146915,0.0125994,1315,1765,5.67791,-23.4968
98,-741,5.69128,23.4528,0.00450288,0.01769,-0.0120051,0.0247931,-0.00260022,-1.03652,0.0174601,0.00953603,1322,1765,5.69123,-23.4528
105,-741,5.70227,23.4263,0.00568026,0.0204039,-0.0139572,0.0288219,-0.00273765,-1.02808,0.0201891,0.00991037,1329,1765,5.70227,-23.4263
112,-741,5.7146,23.3979,0.00692311,0.0228461,-0.0156706,0.0324617,-0.0026925,-1.02043,0.0225921,0.0106882,1336,1765,5.71458,-23.3979
119,-741,5.69495,23.3418,0.00802732,0.0248045,-0.0171163,0.0354772,-0.00264545,-1.01324,0.0245808,0.0139691,1343,1765,5.69493,-23.3417
126,-741,5.67749,23.3129,0.00882588,0.0260994,-0.0179762,0.037406,-0.00248067,-1.00934,0.025804,0.0186371,1350,1765,5.67747,-23.3129
133,-741,5.66394,23.2823,0.00923953,0.0260537,-0.0180577,0.0375654,-0.00227217,-1.00326,0.0258343,0.0137763,1357,1765,5.66396,-23.2824
140,-741,5.64551,23.2357,0.00895764,0.024719,-0.0173945,0.0359347,-0.00225812,-0.998094,0.0247436,0.0104284,1364,1765,5.64554,-23.2357
147,-741,5.63416,23.2097,0.00834909,0.0229969,-0.0161082,0.033368,-0.00202203,-0.998763,0.0229491,0.00999061,1371,1765,5.63421,-23.2097
154,-741,5.6189,23.1771,0.00771668,0.020993,-0.0146308,0.0304211,-0.00171141,-0.998367,0.0208746,0.00852368,1378,1765,5.61896,-23.1771
161,-741,5.60986,23.1168,0.00674956,0.0186876,-0.0129563,0.0269837,-0.00154661,-1.00126,0.0185262,0.0101026,1385,1765,5.60984,-23.1168
168,-741,5.63318,23.0482,0.00578442,0.0169726,-0.0114274,0.0241017,-0.00134462,-1.01302,0.0165342,0.0236592,1392,1765,5.63317,-23.0482
175,-741,5.65845,23.0056,0,0,0,0,0,0,0,-1,1399,1765,5.65848,-23.0056
182,-741,5.62109,22.8662,0,0,0,0,0,0,0,-1,1406,1765,5.62104,-22.8662
189,-741,5.57336,22.8018,0,0,0,0,0,0,0,-1,1413,1765,5.57332,-22.8018
196,-741,5.53369,22.7443,0,0,0,0,0,0,0,-1,1420,1765,5.53367,-22.7442
203,-741,5.526,22.6506,0,0,0,0,0,0,0,-1,1427,1765,5.52604,-22.6507
210,-741,5.52563,22.5126,0,0,0,0,0,0,0,-1,1434,1765,5.52558,-22.5126
217,-741,5.56653,22.4359,0,0,0,0,0,0,0,-1,1441,1765,5.5665,-22.4359
224,-741,5.52307,22.2576,-0.00224752,0.00820845,-0.0205859,0.0242198,-0.0182589,-0.909749,0.0246055,0.0316029,1448,1765,5.52308,-22.2575
231,-741,5.59729,22.1741,-0.00237544,0.00896806,-0.0219783,0.0259947,-0.019402,-0.911674,0.0263018,0.0338428,1455,1765,5.59724,-22.1741
238,-741,5.53979,22.1227,-0.0024089,0.00952745,-0.0228023,0.0271296,-0.0200111,-0.913395,0.0273199,0.0358523,1462,1765,5.53984,-22.1227
245,-741,5.48804,21.8815,-0.0023626,0.0100925,-0.0230243,0.0277166,-0.0199866,-0.917477,0.0276617,0.0415041,1469,1765,5.48804,-21.8815
252,-741,5.40112,21.6837,-0.00246921,0.0105744,-0.0226001,0.0275749,-0.0194697,-0.925869,0.0272953,0.0478883,1476,1765,5.40107,-21.6837
259,-741,5.61768,21.8005,0,0,0,0,0,0,0,-1,1483,1765,5.61765,-21.8005
266,-741,4.40173,15.2345,0,0,0,0,0,0,0,-1,1490,1765,4.40175,-15.2345
273,-741,17.0328,7.54468,0,0,0,0,0,0,0,-1,1497,1765,17.0328,-7.54474
280,-741,16.2363,9.84546,0,0,0,0,0,0,0,-1,1504,1765,16.2363,-9.84547
287,-741,14.5045,8.71423,0,0,0,0,0,0,0,-1,1511,1765,14.5045,-8.71429
294,-741,11.9165,6.87305,0,0,0,0,0,0,0,-1,1518,1765,11.9165,-6.87305
301,-741,10.8608,6.83752,0,0,0,0,0,0,0,-1,1525,1765,10.8608,-6.83747
308,-741,9.80518,6.80188,0,0,0,0,0,0,0,-1,1532,1765,9.80519,-6.80189
315,-741,9.70715,6.86963,0,0,0,0,0,0,0,-1,1539,1765,9.70712,-6.86963
322,-741,9.21252,8.54858,0,0,0,0,0,0,0,-1,1546,1765,9.21251,-8.54858
329,-741,8.5603,10.1146,0,0,0,0,0,0,0,-1,1553,1765,8.56033,-10.1146
336,-741,4.74475,14.6453,0,0,0,0,0,0,0,-1,1560,1765,4.7447,-14.6452
343,-741,5.42297,5.93701,0,0,0,0,0,0,0,-1,1567,1765,5.42296,-5.937
350,-741,4.90369,5.44666,0,0,0,0,0,0,0,-1,1574,1765,4.90368,-5.44664
357,-741,4.02063,5.16626,0,0,0,0,0,0,0,-1,1581,1765,4.02058,-5.1662
364,-741,0,0,0,0,0,0,0,0,0,-1,1588,1765,0,0
371,-741,0,0,0,0,0,0,0,0,0,-1,1595,1765,0,0
378,-741,0,0,0,0,0,0,0,0,0,-1,1602,1765,0,0
385,-741,0,0,0,0,0,0,0,0,0,-1,1609,1765,0,0
392,-741,0,0,0,0,0,0,0,0,0,-1,1616,1765,0,0
399,-741,0,0,0,0,0,0,0,0,0,-1,1623,1765,0,0
406,-741,0,0,0,0,0,0,0,0,0,-1,1630,1765,0,0
413,-741,0,0,0,0,0,0,0,0,0,-1,1637,1765,0,0
420,-741,0,0,0,0,0,0,0,0,0,-1,1644,1765,0,0
427,-741,0,0,0,0,0,0,0,0,0,-1,1651,1765,0,0
434,-741,0,0,0,0,0,0,0,0,0,-1,1658,1765,0,0
441,-741,0,0,0,0,0,0,0,0,0,-1,1665,1765,0,0
448,-741,0,0,0,0,0,0,0,0,0,-1,1672,1765,0,0
455,-741,0,0,0,0,0,0,0,0,0,-1,1679,1765,0,0
462,-741,0,0,0,0,0,0,0,0,0,-1,1686,1765,0,0
469,-741,0,0,0,0,0,0,0,0,0,-1,1693,1765,0,0
476,-741,0,0,0,0,0,0,0,0,0,-1,1700,1765,0,0
483,-741,0,0,0,0,0,0,0,0,0,-1,1707,1765,0,0
490,-741,0,0,0,0,0,0,0,0,0,-1,1714,1765,0,0
497,-741,0,0,0,0,0,0,0,0,0,-1,1721,1765,0,0
504,-741,0,0,0,0,0,0,0,0,0,-1,1728,1765,0,0
511,-741,0,0,0,0,0,0,0,0,0,-1,1735,1765,0,0
518,-741,0,0,0,0,0,0,0,0,0,-1,1742,1765,0,0
525,-741,0,0,0,0,0,0,0,0,0,-1,1749,1765,0,0
532,-741,0,0,0,0,0,0,0,0,0,-1,1756,1765,0,0
539,-741,0,0,0,0,0,0,0,0,0,-1,1763,1765,0,0
546,-741,0,0,0,0,0,0,0,0,0,-1,1770,1765,0,0
553,-741,0,0,0,0,0,0,0,0,0,-1,1777,1765,0,0
560,-741,0,0,0,0,0,0,0,0,0,-1,1784,1765,0,0
567,-741,0,0,0,0,0,0,0,0,0,-1,1791,1765,0,0
574,-741,0,0,0,0,0,0,0,0,0,-1,1798,1765,0,0
581,-741,0,0,0,0,0,0,0,0,0,-1,1805,1765,0,0
588,-741,0,0,0,0,0,0,0,0,0,-1,1812,1765,0,0
595,-741,0,0,0,0,0,0,0,0,0,-1,1819,1765,0,0
602,-741,0,0,0,0,0,0,0,0,0,-1,1826,1765,0,0
609,-741,0,0,0,0,0,0,0,0,0,-1,1833,1765,0,0
616,-741,0,0,0,0,0,0,0,0,0,-1,1840,1765,0,0
623,-741,0,0,0,0,0,0,0,0,0,-1,1847,1765,0,0
630,-741,0,0,0,0,0,0,0,0,0,-1,1854,1765,0,0
637,-741,0,0,0,0,0,0,0,0,0,-1,1861,1765,0,0
644,-741,0,0,0,0,0,0,0,0,0,-1,1868,1765,0,0
651,-741,0,0,0,0,0,0,0,0,0,-1,1875,1765,0,0
658,-741,0,0,0,0,0,0,0,0,0,-1,1882,1765,0,0
665,-741,0,0,0,0,0,0,0,0,0,-1,1889,1765,0,0
672,-741,0,0,0,0,0,0,0,0,0,-1,1896,1765,0,0
679,-741,0,0,0,0,0,0,0,0,0,-1,1903,1765,0,0
686,-741,0,0,0,0,0,0,0,0,0,-1,1910,1765,0,0
693,-741,0,0,0,0,0,0,0,0,0,-1,1917,1765,0,0
700,-741,0,0,0,0,0,0,0,0,0,-1,1924,1765,0,0
707,-741,0,0,0,0,0,0,0,0,0,-1,1931,1765,0,0
714,-741,0,0,0,0,0,0,0,0,0,-1,1938,1765,0,0
721,-741,0,0,0,0,0,0,0,0,0,-1,1945,1765,0,0
728,-741,0,0,0,0,0,0,0,0,0,-1,1952,1765,0,0
735,-741,0,0,0,0,0,0,0,0,0,-1,1959,1765,0,0
742,-741,0,0,0,0,0,0,0,0,0,-1,1966,1765,0,0
749,-741,0,0,0,0,0,0,0,0,0,-1,1973,1765,0,0
756,-741,0,0,0,0,0,0,0,0,0,-1,1980,1765,0,0
763,-741,0,0,0,0,0,0,0,0,0,-1,1987,1765,0,0
770,-741,0,0,0,0,0,0,0,0,0,-1,1994,1765,0,0
777,-741,0,0,0,0,0,0,0,0,0,-1,2001,1765,0,0
784,-741,0,0,0,0,0,0,0,0,0,-1,2008,1765,0,0
791,-741,0,0,0,0,0,0,0,0,0,-1,2015,1765,0,0
798,-741,0,0,0,0,0,0,0,0,0,-1,2022,1765,0,0
805,-741,0,0,0,0,0,0,0,0,0,-1,2029,1765,0,0
812,-741,0,0,0,0,0,0,0,0,0,-1,2036,1765,0,0
-700,-748,0,0,0,0,0,0,0,0,0,-1,524,1772,0,0
-693,-748,0,0,0,0,0,0,0,0,0,-1,531,1772,0,0
-686,-748,0,0,0,0,0,0,0,0,0,-1,538,1772,0,0
-679,-748,0,0,0,0,0,0,0,0,0,-1,545,1772,0,0
-672,-748,0,0,0,0,0,0,0,0,0,-1,552,1772,0,0
-665,-748,0,0,0,0,0,0,0,0,0,-1,559,1772,0,0
-658,-748,0,0,0,0,0,0,0,0,0,-1,566,1772,0,0
-651,-748,0,0,0,0,0,0,0,0,0,-1,573,1772,0,0
-644,-748,0,0,0,0,0,0,0,0,0,-1,580,1772,0,0
-637,-748,0,0,0,0,0,0,0,0,0,-1,587,1772,0,0
-630,-748,0,0,0,0,0,0,0,0,0,-1,594,1772,0,0
-623,-748,0,0,0,0,0,0,0,0,0,-1,601,1772,0,0
-616,-748,0,0,0,0,0,0,0,0,0,-1,608,1772,0,0
-609,-748,0,0,0,0,0,0,0,0,0,-1,615,1772,0,0
-602,-748,0,0,0,0,0,0,0,0,0,-1,622,1772,0,0
-595,-748,0,0,0,0,0,0,0,0,0,-1,629,1772,0,0
-588,-748,0,0,0,0,0,0,0,0,0,-1,636,1772,0,0
-581,-748,0,0,0,0,0,0,0,0,0,-1,643,1772,0,0
-574,-748,0,0,0,0,0,0,0,0,0,-1,650,1772,0,0
-567,-748,0,0,0,0,0,0,0,0,0,-1,657,1772,0,0
-560,-748,0,0,0,0,0,0,0,0,0,-1,664,1772,0,0
-553,-748,0,0,0,0,0,0,0,0,0,-1,671,1772,0,0
-546,-748,0,0,0,0,0,0,0,0,0,-1,678,1772,0,0
-539,-748,0,0,0,0,0,0,0,0,0,-1,685,1772,0,0
-532,-748,0,0,0,0,0,0,0,0,0,-1,692,1772,0,0
-525,-748,0,0,0,0,0,0,0,0,0,-1,699,1772,0,0
-518,-748,0,0,0,0,0,0,0,0,0,-1,706,1772,0,0
-511,-748,0,0,0,0,0,0,0,0,0,-1,713,1772,0,0
-504,-748,0,0,0,0,0,0,0,0,0,-1,720,1772,0,0
-497,-748,0,0,0,0,0,0,0,0,0,-1,727,1772,0,0
-490,-748,0,0,0,0,0,0,0,0,0,-1,734,1772,0,0
-483,-748,0,0,0,0,0,0,0,0,0,-1,741,1772,0,0
-476,-748,0,0,0,0,0,0,0,0,0,-1,748,1772,0,0
-469,-748,0,0,0,0,0,0,0,0,0,-1,755,1772,0,0
-462,-748,0,0,0,0,0,0,0,0,0,-1,762,1772,0,0
-455,-748,0,0,0,0,0,0,0,0,0,-1,769,1772,0,0
-448,-748,0,0,0,0,0,0,0,0,0,-1,776,1772,0,0
-441,-748,0,0,0,0,0,0,0,0,0,-1,783,1772,0,0
-434,-748,0,0,0,0,0,0,0,0,0,-1,790,1772,0,0
-427,-748,0,0,0,0,0,0,0,0,0,-1,797,1772,0,0
-420,-748,0,0,0,0,0,0,0,0,0,-1,804,1772,0,0
-413,-748,0,0,0,0,0,0,0,0,0,-1,811,1772,0,0
-406,-748,0,0,0,0,0,0,0,0,0,-1,818,1772,0,0
-399,-748,0,0,0,0,0,0,0,0,0,-1,825,1772,0,0
-392,-748,0,0,0,0,0,0,0,0,0,-1,832,1772,0,0
-385,-748,0,0,0,0,0,0,0,0,0,-1,839,1772,0,0
-378,-748,0,0,0,0,0,0,0,0,0,-1,846,1772,0,0
-371,-748,0,0,0,0,0,0,0,0,0,-1,853,1772,0,0
-364,-748,0,0,0,0,0,0,0,0,0,-1,860,1772,0,0
-357,-748,0,0,0,0,0,0,0,0,0,-1,867,1772,0,0
-350,-748,0,0,0,0,0,0,0,0,0,-1,874,1772,0,0
-343,-748,0,0,0,0,0,0,0,0,0,-1,881,1772,0,0
-336,-748,0,0,0,0,0,0,0,0,0,-1,888,1772,0,0
-329,-748,0,0,0,0,0,0,0,0,0,-1,895,1772,0,0
-322,-748,0,0,0,0,0,0,0,0,0,-1,902,1772,0,0
-315,-748,0,0,0,0,0,0,0,0,0,-1,909,1772,0,0
-308,-748,0,0,0,0,0,0,0,0,0,-1,916,1772,0,0
-301,-748,0,0,0,0,0,0,0,0,0,-1,923,1772,0,0
-294,-748,0,0,0,0,0,0,0,0,0,-1,930,1772,0,0
-287,-748,0,0,0,0,0,0,0,0,0,-1,937,1772,0,0
-280,-748,0,0,0,0,0,0,0,0,0,-1,944,1772,0,0
-273,-748,0,0,0,0,0,0,0,0,0,-1,951,1772,0,0
-266,-748,0,0,0,0,0,0,0,0,0,-1,958,1772,0,0
-259,-748,0,0,0,0,0,0,0,0,0,-1,965,1772,0,0
-252,-748,0,0,0,0,0,0,0,0,0,-1,972,1772,0,0
-245,-748,0,0,0,0,0,0,0,0,0,-1,979,1772,0,0
-238,-748,0,0,0,0,0,0,0,0,0,-1,986,1772,0,0
-231,-748,0,0,0,0,0,0,0,0,0,-1,993,1772,0,0
-224,-748,0,0,0,0,0,0,0,0,0,-1,1000,1772,0,0
-217,-748,6.99335,16.3577,0,0,0,0,0,0,0,-1,1007,1772,6.99334,-16.3576
-210,-748,6.75439,17.6121,0,0,0,0,0,0,0,-1,1014,1772,6.75438,-17.6121
-203,-748,4.17139,23.6105,0,0,0,0,0,0,0,-1,1021,1772,4.17138,-23.6105
-196,-748,5.10657,22.2775,0,0,0,0,0,0,0,-1,1028,1772,5.10651,-22.2775
-189,-748,3.88757,19.2534,0,0,0,0,0,0,0,-1,1035,1772,3.88761,-19.2534
-182,-748,4.16626,18.2874,0,0,0,0,0,0,0,-1,1042,1772,4.16629,-18.2873
-175,-748,4.62305,16.7603,0,0,0,0,0,0,0,-1,1049,1772,4.62301,-16.7603
-168,-748,4.96484,14.9984,0,0,0,0,0,0,0,-1,1056,1772,4.96479,-14.9984
-161,-748,3.50562,13.2729,0,0,0,0,0,0,0,-1,1063,1772,3.5056,-13.2729
-154,-748,-3.38562,10.6989,0,0,0,0,0,0,0,-1,1070,1772,-3.38564,-10.6989
-147,-748,-6.38733,11.0702,0,0,0,0,0,0,0,-1,1077,1772,-6.38731,-11.0702
-140,-748,7.09119,20.1141,0,0,0,0,0,0,0,-1,1084,1772,7.09115,-20.1142
-133,-748,7.10974,19.4869,0,0,0,0,0,0,0,-1,1091,1772,7.10969,-19.4869
-126,-748,5.61121,20.6515,0,0,0,0,0,0,0,-1,1098,1772,5.61125,-20.6515
-119,-748,6.01843,21.3745,0,0,0,0,0,0,0,-1,1105,1772,6.01839,-21.3745
-112,-748,6.40564,21.1128,0,0,0,0,0,0,0,-1,1112,1772,6.40566,-21.1128
-105,-748,6.26318,21.5394,0,0,0,0,0,0,0,-1,1119,1772,6.26321,-21.5395
-98,-748,5.71484,19.6533,0,0,0,0,0,0,0,-1,1126,1772,5.71486,-19.6533
-91,-748,4.85352,15.3033,0,0,0,0,0,0,0,-1,1133,1772,4.85351,-15.3033
-84,-748,-0.192017,7.26196,0,0,0,0,0,0,0,-1,1140,1772,-0.192047,-7.26201
-77,-748,4.42615,13.5537,0,0,0,0,0,0,0,-1,1147,1772,4.4261,-13.5538
-70,-748,4.46191,13.7446,0,0,0,0,0,0,0,-1,1154,1772,4.4619,-13.7446
-63,-748,4.49768,13.9355,0,0,0,0,0,0,0,-1,1161,1772,4.49769,-13.9355
-56,-748,3.05762,7.87817,0,0,0,0,0,0,0,-1,1168,1772,3.05768,-7.87822
-49,-748,3.04102,7.82471,0,0,0,0,0,0,0,-1,1175,1772,3.04096,-7.82468
-42,-748,0.793457,14.9474,0,0,0,0,0,0,0,-1,1182,1772,0.793413,-14.9474
-35,-748,5.91846,22.874,0,0,0,0,0,0,0,-1,1189,1772,5.91843,-22.874
-28,-748,6.00305,22.9442,0.00994201,0.00291053,0.000336163,0.00995805,0.0028945,0.0476633,0.00591485,0.048686,1196,1772,6.00304,-22.9442
-21,-748,5.96399,23.0239,0.00955943,0.00211771,0.000668798,0.00961906,0.00205808,0.0889219,0.00584865,0.023485,1203,1772,5.96393,-23.0239
-14,-748,5.88818,23.0551,0.00920592,0.0013844,0.00100172,0.00933218,0.00125815,0.125377,0.00584736,0.0165822,1210,1772,5.88813,-23.0551
-7,-748,5.89099,23.0886,0.00853164,0.000785039,0.000996702,0.00865783,0.000658856,0.125931,0.00556528,0.0158217,1217,1772,5.89103,-23.0886
0,-748,5.87415,23.1522,0.00766853,0.000370769,0.000855369,0.00776745,0.000271853,0.115131,0.0050901,0.014922,1224,1772,5.87411,-23.1522
7,-748,5.86719,23.2043,0.00658841,0.000210219,0.000566738,0.00663838,0.000160253,0.0879376,0.00437314,0.013702,1231,1772,5.86723,-23.2043
14,-748,5.83423,23.2605,0.00534609,0.000207055,0.000291704,0.00536259,0.00019055,0.0565205,0.00351327,0.0148274,1238,1772,5.83428,-23.2606
21,-748,5.80859,23.3041,0.00411741,0.000314273,-8.87158e-05,0.00411947,0.000312205,-0.0233101,0.00264839,0.0109944,1245,1772,5.80856,-23.3041
28,-748,5.80457,23.3512,0.00284091,0.000971614,-0.000555756,0.00299366,0.000818865,-0.268226,0.00178651,0.0117892,1252,1772,5.80459,-23.3513
35,-748,5.80225,23.3669,0.0019446,0.00224996,-0.00104353,0.00315193,0.00104264,-0.858039,0.00185417,0.0129939,1259,1772,5.80223,-23.3669
42,-748,5.8158,23.3865,0.00110444,0.0031364,-0.00160049,0.00401616,0.000224692,-1.0682,0.00260577,0.0141568,1266,1772,5.81583,-23.3865
49,-748,5.80212,23.4342,0.000209068,0.00375176,-0.0023386,0.00491413,-0.000953307,-1.10952,0.00363576,0.0110417,1273,1772,5.80215,-23.4342
56,-748,5.76868,23.4684,-0.000812035,0.00398961,-0.00324058,0.00562181,-0.00244424,-1.10421,0.00477587,0.0107633,1280,1772,5.76865,-23.4684
63,-748,5.74304,23.4532,-0.00172881,0.00391082,-0.00406161,0.0060355,-0.00385349,-1.08883,0.00575555,0.012504,1287,1772,5.74306,-23.4532
70,-748,5.72546,23.4585,-0.00152028,0.00657441,-0.00594135,0.00971599,-0.00466187,-1.0844,0.00847029,0.0135766,1294,1772,5.72552,-23.4585
77,-748,5.71082,23.4708,0.00037779,0.0118969,-0.00936287,0.0171299,-0.0048552,-1.06114,0.0133362,0.0119709,1301,1772,5.71082,-23.4708
84,-748,5.6875,23.4904,0.00154924,0.0139418,-0.0116933,0.0209791,-0.00548806,-1.02904,0.0161297,0.0134726,1308,1772,5.68748,-23.4904
91,-748,5.67651,23.4865,0.00272298,0.016725,-0.0141922,0.025549,-0.00610106,-1.01453,0.019389,0.0112883,1315,1772,5.67656,-23.4864
98,-748,5.6626,23.4548,0.00396996,0.0197118,-0.0166219,0.0302322,-0.00655041,-1.00652,0.0226561,0.0101633,1322,1772,5.66266,-23.4548
105,-748,5.66345,23.4226,0.00542998,0.022746,-0.019106,0.0350641,-0.00688817,-0.998136,0.0259783,0.0113916,1329,1772,5.66345,-23.4226
112,-748,5.68884,23.3997,0.00708257,0.0255972,-0.0213713,0.03963,-0.00695024,-0.989782,0.0290156,0.0142839,1336,1772,5.68886,-23.3997
119,-748,5.68018,23.3646,0.00867301,0.0280185,-0.0233076,0.0435808,-0.00688925,-0.982085,0.0316016,0.0132182,1343,1772,5.68015,-23.3646
126,-748,5.66931,23.3364,0.00991365,0.0296781,-0.02452,0.0462324,-0.00664061,-0.976955,0.0332569,0.0153309,1350,1772,5.66934,-23.3364
133,-748,5.61865,23.3025,0.010702,0.0297276,-0.0247829,0.0467607,-0.00633112,-0.968649,0.0334843,0.00910211,1357,1772,5.6187,-23.3025
140,-748,5.60352,23.2675,0.0106074,0.0280658,-0.024036,0.0449086,-0.00623543,-0.959578,0.0322193,0.0113949,1364,1772,5.60355,-23.2675
147,-748,5.61389,23.2115,0.0101853,0.0258813,-0.0225301,0.0418911,-0.00582448,-0.952992,0.0300576,0.0130592,1371,1772,5.61394,-23.2115
154,-748,5.55872,23.1548,0.00975327,0.0234753,-0.0206865,0.0384089,-0.00518027,-0.945524,0.0274958,0.0117908,1378,1772,5.55875,-23.1548
161,-748,5.54016,23.131,0.00906945,0.0210541,-0.0185826,0.0345866,-0.00446307,-0.941369,0.0246803,0.0193926,1385,1772,5.54022,-23.131
168,-748,5.5625,23.1307,0,0,0,0,0,0,0,-1,1392,1772,5.56247,-23.1307
175,-748,11.6235,16.8242,0,0,0,0,0,0,0,-1,1399,1772,11.6236,-16.8242
182,-748,7.62476,10.3058,0,0,0,0,0,0,0,-1,1406,1772,7.62476,-10.3058
189,-748,6.15857,6.95898,0,0,0,0,0,0,0,-1,1413,1772,6.15862,-6.95896
196,-748,3.9425,8.46021,0,0,0,0,0,0,0,-1,1420,1772,3.9425,-8.46026
203,-748,3.9668,12.9835,0,0,0,0,0,0,0,-1,1427,1772,3.96678,-12.9836
210,-748,4.71472,16.8318,0,0,0,0,0,0,0,-1,1434,1772,4.71471,-16.8317
217,-748,5.38452,21.5551,0,0,0,0,0,0,0,-1,1441,1772,5.38455,-21.555
224,-748,5.55347,22.0972,0,0,0,0,0,0,0,-1,1448,1772,5.55347,-22.0972
231,-748,6.05969,22.2026,-0.0033927,0.0131821,-0.0331112,0.0390273,-0.0292379,-0.908024,0.0395477,0.0424821,1455,1772,6.05965,-22.2027
238,-748,6.04346,21.9546,-0.00344957,0.0139774,-0.0343263,0.0406789,-0.0301511,-0.909694,0.041044,0.0417426,1462,1772,6.04348,-21.9546
245,-748,5.39221,21.8114,0,0,0,0,0,0,0,-1,1469,1772,5.39222,-21.8115
252,-748,5.24463,21.537,0,0,0,0,0,0,0,-1,1476,1772,5.24458,-21.537
259,-748,3.5614,20.4832,0,0,0,0,0,0,0,-1,1483,1772,3.56142,-20.4832
266,-748,17.9011,7.59448,0,0,0,0,0,0,0,-1,1490,1772,17.9011,-7.59452
273,-748,16.4131,7.57129,0,0,0,0,0,0,0,-1,1497,1772,16.413,-7.57125
280,-748,15.2177,7.24829,0,0,0,0,0,0,0,-1,1504,1772,15.2176,-7.24833
287,-748,14.161,8.32813,0,0,0,0,0,0,0,-1,1511,1772,14.161,-8.32808
294,-748,12.2117,7.453,0,0,0,0,0,0,0,-1,1518,1772,12.2116,-7.45297
301,-748,11.0652,7.65405,0,0,0,0,0,0,0,-1,1525,1772,11.0651,-7.654
308,-748,9.92456,7.80225,0,0,0,0,0,0,0,-1,1532,1772,9.92453,-7.80224
315,-748,8.91541,8.29773,0,0,0,0,0,0,0,-1,1539,1772,8.91544,-8.29773
322,-748,7.83618,8.87122,0,0,0,0,0,0,0,-1,1546,1772,7.83613,-8.87124
329,-748,3.48315,14.6533,0,0,0,0,0,0,0,-1,1553,1772,3.48316,-14.6534
336,-748,3.76001,15.8163,0,0,0,0,0,0,0,-1,1560,1772,3.75995,-15.8163
343,-748,0,0,0,0,0,0,0,0,0,-1,1567,1772,0,0
350,-748,0,0,0,0,0,0,0,0,0,-1,1574,1772,0,0
357,-748,0,0,0,0,0,0,0,0,0,-1,1581,1772,0,0
364,-748,0,0,0,0,0,0,0,0,0,-1,1588,1772,0,0
371,-748,0,0,0,0,0,0,0,0,0,-1,1595,1772,0,0
378,-748,0,0,0,0,0,0,0,0,0,-1,1602,1772,0,0
385,-748,0,0,0,0,0,0,0,0,0,-1,1609,1772,0,0
392,-748,0,0,0,0,0,0,0,0,0,-1,1616,1772,0,0
399,-748,0,0,0,0,0,0,0,0,0,-1,1623,1772,0,0
406,-748,0,0,0,0,0,0,0,0,0,-1,1630,1772,0,0
413,-748,0,0,0,0,0,0,0,0,0,-1,1637,1772,0,0
420,-748,0,0,0,0,0,0,0,0,0,-1,1644,1772,0,0
427,-748,0,0,0,0,0,0,0,0,0,-1,1651,1772,0,0
434,-748,0,0,0,0,0,0,0,0,0,-1,1658,1772,0,0
441,-748,0,0,0,0,0,0,0,0,0,-1,1665,1772,0,0
448,-748,0,0,0,0,0,0,0,0,0,-1,1672,1772,0,0
455,-748,0,0,0,0,0,0,0,0,0,-1,1679,1772,0,0
462,-748,0,0,0,0,0,0,0,0,0,-1,1686,1772,0,0
469,-748,0,0,0,0,0,0,0,0,0,-1,1693,1772,0,0
476,-748,0,0,0,0,0,0,0,0,0,-1,1700,1772,0,0
483,-748,0,0,0,0,0,0,0,0,0,-1,1707,1772,0,0
490,-748,0,0,0,0,0,0,0,0,0,-1,1714,1772,0,0
497,-748,0,0,0,0,0,0,0,0,0,-1,1721,1772,0,0
504,-748,0,0,0,0,0,0,0,0,0,-1,1728,1772,0,0
511,-748,0,0,0,0,0,0,0,0,0,-1,1735,1772,0,0
518,-748,0,0,0,0,0,0,0,0,0,-1,1742,1772,0,0
525,-748,0,0,0,0,0,0,0,0,0,-1,1749,1772,0,0
532,-748,0,0,0,0,0,0,0,0,0,-1,1756,1772,0,0
539,-748,0,0,0,0,0,0,0,0,0,-1,1763,1772,0,0
546,-748,0,0,0,0,0,0,0,0,0,-1,1770,1772,0,0
553,-748,0,0,0,0,0,0,0,0,0,-1,1777,1772,0,0
560,-748,0,0,0,0,0,0,0,0,0,-1,1784,1772,0,0
567,-748,0,0,0,0,0,0,0,0,0,-1,1791,1772,0,0
574,-748,0,0,0,0,0,0,0,0,0,-1,1798,1772,0,0
581,-748,0,0,0,0,0,0,0,0,0,-1,1805,1772,0,0
588,-748,0,0,0,0,0,0,0,0,0,-1,1812,1772,0,0
595,-748,0,0,0,0,0,0,0,0,0,-1,1819,1772,0,0
602,-748,0,0,0,0,0,0,0,0,0,-1,1826,1772,0,0
609,-748,0,0,0,0,0,0,0,0,0,-1,1833,1772,0,0
616,-748,0,0,0,0,0,0,0,0,0,-1,1840,1772,0,0
623,-748,0,0,0,0,0,0,0,0,0,-1,1847,1772,0,0
630,-748,0,0,0,0,0,0,0,0,0,-1,1854,1772,0,0
637,-748,0,0,0,0,0,0,0,0,0,-1,1861,1772,0,0
644,-748,0,0,0,0,0,0,0,0,0,-1,1868,1772,0,0
651,-748,0,0,0,0,0,0,0,0,0,-1,1875,1772,0,0
658,-748,0,0,0,0,0,0,0,0,0,-1,1882,1772,0,0
665,-748,0,0,0,0,0,0,0,0,0,-1,1889,1772,0,0
672,-748,0,0,0,0,0,0,0,0,0,-1,1896,1772,0,0
679,-748,0,0,0,0,0,0,0,0,0,-1,1903,1772,0,0
686,-748,0,0,0,0,0,0,0,0,0,-1,1910,1772,0,0
693,-748,0,0,0,0,0,0,0,0,0,-1,1917,1772,0,0
700,-748,0,0,0,0,0,0,0,0,0,-1,1924,1772,0,0
707,-748,0,0,0,0,0,0,0,0,0,-1,1931,1772,0,0
714,-748,0,0,0,0,0,0,0,0,0,-1,1938,1772,0,0
721,-748,0,0,0,0,0,0,0,0,0,-1,1945,1772,0,0
728,-748,0,0,0,0,0,0,0,0,0,-1,1952,1772,0,0
735,-748,0,0,0,0,0,0,0,0,0,-1,1959,1772,0,0
742,-748,0,0,0,0,0,0,0,0,0,-1,1966,1772,0,0
749,-748,0,0,0,0,0,0,0,0,0,-1,1973,1772,0,0
756,-748,0,0,0,0,0,0,0,0,0,-1,1980,1772,0,0
763,-748,0,0,0,0,0,0,0,0,0,-1,1987,1772,0,0
770,-748,0,0,0,0,0,0,0,0,0,-1,1994,1772,0,0
777,-748,0,0,0,0,0,0,0,0,0,-1,2001,1772,0,0
784,-748,0,0,0,0,0,0,0,0,0,-1,2008,1772,0,0
791,-748,0,0,0,0,0,0,0,0,0,-1,2015,1772,0,0
798,-748,0,0,0,0,0,0,0,0,0,-1,2022,1772,0,0
805,-748,0,0,0,0,0,0,0,0,0,-1,2029,1772,0,0
812,-748,0,0,0,0,0,0,0,0,0,-1,2036,1772,0,0
-700,-755,0,0,0,0,0,0,0,0,0,-1,524,1779,0,0
-693,-755,0,0,0,0,0,0,0,0,0,-1,531,1779,0,0
-686,-755,0,0,0,0,0,0,0,0,0,-1,538,1779,0,0
-679,-755,0,0,0,0,0,0,0,0,0,-1,545,1779,0,0
-672,-755,0,0,0,0,0,0,0,0,0,-1,552,1779,0,0
-665,-755,0,0,0,0,0,0,0,0,0,-1,559,1779,0,0
-658,-755,0,0,0,0,0,0,0,0,0,-1,566,1779,0,0
-651,-755,0,0,0,0,0,0,0,0,0,-1,573,1779,0,0
-644,-755,0,0,0,0,0,0,0,0,0,-1,580,1779,0,0
-637,-755,0,0,0,0,0,0,0,0,0,-1,587,1779,0,0
-630,-755,0,0,0,0,0,0,0,0,0,-1,594,1779,0,0
-623,-755,0,0,0,0,0,0,0,0,0,-1,601,1779,0,0
-616,-755,0,0,0,0,0,0,0,0,0,-1,608,1779,0,0
-609,-755,0,0,0,0,0,0,0,0,0,-1,615,1779,0,0
-602,-755,0,0,0,0,0,0,0,0,0,-1,622,1779,0,0
-595,-755,0,0,0,0,0,0,0,0,0,-1,629,1779,0,0
-588,-755,0,0,0,0,0,0,0,0,0,-1,636,1779,0,0
-581,-755,0,0,0,0,0,0,0,0,0,-1,643,1779,0,0
-574,-755,0,0,0,0,0,0,0,0,0,-1,650,1779,0,0
-567,-755,0,0,0,0,0,0,0,0,0,-1,657,1779,0,0
-560,-755,0,0,0,0,0,0,0,0,0,-1,664,1779,0,0
-553,-755,0,0,0,0,0,0,0,0,0,-1,671,1779,0,0
-546,-755,0,0,0,0,0,0,0,0,0,-1,678,1779,0,0
-539,-755,0,0,0,0,0,0,0,0,0,-1,685,1779,0,0
-532,-755,0,0,0,0,0,0,0,0,0,-1,692,1779,0,0
-525,-755,0,0,0,0,0,0,0,0,0,-1,699,1779,0,0
-518,-755,0,0,0,0,0,0,0,0,0,-1,706,1779,0,0
-511,-755,0,0,0,0,0,0,0,0,0,-1,713,1779,0,0
-504,-755,0,0,0,0,0,0,0,0,0,-1,720,1779,0,0
-497,-755,0,0,0,0,0,0,0,0,0,-1,727,1779,0,0
-490,-755,0,0,0,0,0,0,0,0,0,-1,734,1779,0,0
-483,-755,0,0,0,0,0,0,0,0,0,-1,741,1779,0,0
-476,-755,0,0,0,0,0,0,0,0,0,-1,748,1779,0,0
-469,-755,0,0,0,0,0,0,0,0,0,-1,755,1779,0,0
-462,-755,0,0,0,0,0,0,0,0,0,-1,762,1779,0,0
-455,-755,0,0,0,0,0,0,0,0,0,-1,769,1779,0,0
-448,-755,0,0,0,0,0,0,0,0,0,-1,776,1779,0,0
-441,-755,0,0,0,0,0,0,0,0,0,-1,783,1779,0,0
-434,-755,0,0,0,0,0,0,0,0,0,-1,790,1779,0,0
-427,-755,0,0,0,0,0,0,0,0,0,-1,797,1779,0,0
-420,-755,0,0,0,0,0,0,0,0,0,-1,804,1779,0,0
-413,-755,0,0,0,0,0,0,0,0,0,-1,811,1779,0,0
-406,-755,0,0,0,0,0,0,0,0,0,-1,818,1779,0,0
-399,-755,0,0,0,0,0,0,0,0,0,-1,825,1779,0,0
-392,-755,0,0,0,0,0,0,0,0,0,-1,832,1779,0,0
-385,-755,0,0,0,0,0,0,0,0,0,-1,839,1779,0,0
-378,-755,0,0,0,0,0,0,0,0,0,-1,846,1779,0,0
-371,-755,0,0,0,0,0,0,0,0,0,-1,853,1779,0,0
-364,-755,0,0,0,0,0,0,0,0,0,-1,860,1779,0,0
-357,-755,0,0,0,0,0,0,0,0,0,-1,867,1779,0,0
-350,-755,0,0,0,0,0,0,0,0,0,-1,874,1779,0,0
-343,-755,0,0,0,0,0,0,0,0,0,-1,881,1779,0,0
-336,-755,0,0,0,0,0,0,0,0,0,-1,888,1779,0,0
-329,-755,0,0,0,0,0,0,0,0,0,-1,895,1779,0,0
-322,-755,0,0,0,0,0,0,0,0,0,-1,902,1779,0,0
-315,-755,0,0,0,0,0,0,0,0,0,-1,909,1779,0,0
-308,-755,0,0,0,0,0,0,0,0,0,-1,916,1779,0,0
-301,-755,0,0,0,0,0,0,0,0,0,-1,923,1779,0,0
-294,-755,0,0,0,0,0,0,0,0,0,-1,930,1779,0,0
-287,-755,0,0,0,0,0,0,0,0,0,-1,937,1779,0,0
-280,-755,0,0,0,0,0,0,0,0,0,-1,944,1779,0,0
-273,-755,0,0,0,0,0,0,0,0,0,-1,951,1779,0,0
-266,-755,0,0,0,0,0,0,0,0,0,-1,958,1779,0,0
-259,-755,0,0,0,0,0,0,0,0,0,-1,965,1779,0,0
-252,-755,0,0,0,0,0,0,0,0,0,-1,972,1779,0,0
-245,-755,0,0,0,0,0,0,0,0,0,-1,979,1779,0,0
-238,-755,0,0,0,0,0,0,0,0,0,-1,986,1779,0,0
-231,-755,0,0,0,0,0,0,0,0,0,-1,993,1779,0,0
-224,-755,0,0,0,0,0,0,0,0,0,-1,1000,1779,0,0
-217,-755,0,0,0,0,0,0,0,0,0,-1,1007,1779,0,0
-210,-755,0,0,0,0,0,0,0,0,0,-1,1014,1779,0,0
-203,-755,-3.07153,13.8969,0,0,0,0,0,0,0,-1,1021,1779,-3.07152,-13.8969
-196,-755,4.91333,14.9064,0,0,0,0,0,0,0,-1,1028,1779,4.91327,-14.9063
-189,-755,4.85864,12.9271,0,0,0,0,0,0,0,-1,1035,1779,4.85866,-12.9272
-182,-755,3.9259,18.85,0,0,0,0,0,0,0,-1,1042,1779,3.92588,-18.85
-175,-755,4.10266,16.8729,0,0,0,0,0,0,0,-1,1049,1779,4.10269,-16.8729
-168,-755,4.5177,13.7404,0,0,0,0,0,0,0,-1,1056,1779,4.5177,-13.7403
-161,-755,-2.85889,11.5868,0,0,0,0,0,0,0,-1,1063,1779,-2.85887,-11.5868
-154,-755,-5.39026,8.51416,0,0,0,0,0,0,0,-1,1070,1779,-5.3903,-8.51417
-147,-755,-6.45593,10.2422,0,0,0,0,0,0,0,-1,1077,1779,-6.45594,-10.2422
-140,-755,2.32935,21.4536,0,0,0,0,0,0,0,-1,1084,1779,2.32932,-21.4536
-133,-755,2.89417,21.0964,0,0,0,0,0,0,0,-1,1091,1779,2.89422,-21.0964
-126,-755,3.26404,20.9304,0,0,0,0,0,0,0,-1,1098,1779,3.26399,-20.9305
-119,-755,5.17761,21.9325,0,0,0,0,0,0,0,-1,1105,1779,5.17761,-21.9325
-112,-755,4.05396,20.1554,0,0,0,0,0,0,0,-1,1112,1779,4.05394,-20.1554
-105,-755,4.59497,19.6527,0,0,0,0,0,0,0,-1,1119,1779,4.59491,-19.6527
-98,-755,6.98657,15.802,0,0,0,0,0,0,0,-1,1126,1779,6.98654,-15.8021
-91,-755,3.91394,13.0228,0,0,0,0,0,0,0,-1,1133,1779,3.91399,-13.0228
-84,-755,0.169312,8.66443,0,0,0,0,0,0,0,-1,1140,1779,0.16932,-8.66446
-77,-755,-0.0491943,6.87439,0,0,0,0,0,0,0,-1,1147,1779,-0.0491385,-6.87443
-70,-755,4.5686,13.2169,0,0,0,0,0,0,0,-1,1154,1779,4.56865,-13.2169
-63,-755,-1.36316,7.3147,0,0,0,0,0,0,0,-1,1161,1779,-1.36312,-7.31473
-56,-755,0.0483398,5.06079,0,0,0,0,0,0,0,-1,1168,1779,0.0483138,-5.06084
-49,-755,-1.32263,5.33716,0,0,0,0,0,0,0,-1,1175,1779,-1.32264,-5.33718
-42,-755,-2.03613,4.01672,0,0,0,0,0,0,0,-1,1182,1779,-2.0361,-4.01671
-35,-755,-2.72498,2.37476,0,0,0,0,0,0,0,-1,1189,1779,-2.72502,-2.37473
-28,-755,5.9751,23.0146,0,0,0,0,0,0,0,-1,1196,1779,5.97513,-23.0146
-21,-755,5.96411,23.0343,0,0,0,0,0,0,0,-1,1203,1779,5.96413,-23.0343
-14,-755,5.94849,23.047,0.0152682,0.00310756,0.000841842,0.0153262,0.00304956,0.0687892,0.00936792,0.0340829,1210,1779,5.94853,-23.047
-7,-755,5.91125,23.0753,0.0137449,0.00233542,0.000821335,0.0138037,0.0022766,0.0714959,0.0085453,0.0232594,1217,1779,5.9112,-23.0753
0,-755,5.92029,23.1324,0.0120219,0.00174627,0.000583511,0.0120549,0.00171324,0.0565436,0.00753079,0.0132222,1224,1779,5.92028,-23.1325
7,-755,5.93604,23.2023,0.0100408,0.0015143,0.0001146,0.0100423,0.00151276,0.0134371,0.00625195,0.0119834,1231,1779,5.93608,-23.2023
14,-755,5.92285,23.2626,0.00786928,0.00152277,-0.000396662,0.00789397,0.00149808,-0.0621783,0.00484118,0.0107797,1238,1779,5.92281,-23.2625
21,-755,5.86963,23.3148,0.00577204,0.00165241,-0.00103857,0.00601906,0.00140539,-0.233503,0.00363593,0.0148495,1245,1779,5.86969,-23.3148
28,-755,5.83948,23.3325,0.00371582,0.00242756,-0.00176295,0.00494863,0.00119475,-0.610249,0.00298172,0.0180299,1252,1779,5.83944,-23.3326
35,-755,5.84692,23.3857,0.00218099,0.00397714,-0.00247423,0.00571124,0.000446895,-0.95949,0.00366762,0.0187371,1259,1779,5.84692,-23.3858
42,-755,5.8363,23.4088,0.000763621,0.00499512,-0.00320243,0.0067176,-0.000958854,-1.07732,0.00482985,0.0136804,1266,1779,5.83628,-23.4088
49,-755,5.80811,23.4137,-0.000583057,0.00560673,-0.00416761,0.00770292,-0.00267924,-1.10477,0.00622366,0.00930983,1273,1779,5.80809,-23.4137
56,-755,5.77576,23.4495,-0.00205662,0.00567086,-0.00532887,0.00838932,-0.00477508,-1.09907,0.00769536,0.00854029,1280,1779,5.77574,-23.4495
63,-755,5.76318,23.4615,-0.00334308,0.00530214,-0.00635608,0.00866618,-0.00670712,-1.08401,0.00889977,0.0093419,1287,1779,5.76315,-23.4616
70,-755,5.74536,23.4584,-0.0032312,0.00828133,-0.00860924,0.0128814,-0.00783126,-1.08007,0.0120764,0.0120713,1294,1779,5.74539,-23.4584
77,-755,5.71863,23.4485,-0.000988465,0.014012,-0.0127292,0.0212863,-0.00826276,-1.05162,0.0176038,0.0110258,1301,1779,5.71857,-23.4485
84,-755,5.73108,23.4537,0.000481799,0.0160124,-0.015613,0.0256846,-0.00919041,-1.01616,0.0208722,0.0114575,1308,1779,5.73111,-23.4538
91,-755,5.70459,23.4399,0.00198957,0.0190128,-0.0187967,0.0311352,-0.0101328,-0.997999,0.0248333,0.0118042,1315,1779,5.70457,-23.44
98,-755,5.64832,23.429,0.0035792,0.022193,-0.0218818,0.0366649,-0.0108927,-0.986472,0.0287699,0.0128041,1322,1779,5.64832,-23.429
105,-755,5.65063,23.4263,0.0055088,0.0255533,-0.0251427,0.0425976,-0.0115355,-0.975054,0.0329242,0.0167693,1329,1779,5.65064,-23.4263
112,-755,5.64905,23.3894,0.00778409,0.0288166,-0.0282521,0.0484461,-0.0118455,-0.963568,0.0368855,0.0219147,1336,1779,5.64904,-23.3894
119,-755,5.64148,23.3696,0.0100487,0.0316762,-0.0309627,0.0536592,-0.0119344,-0.953402,0.0403437,0.0210737,1343,1779,5.64145,-23.3696
126,-755,5.64575,23.4027,0.0118662,0.0336135,-0.0327304,0.0572292,-0.0117495,-0.945772,0.0426127,0.0251465,1350,1779,5.64569,-23.4027
133,-755,5.5437,23.3754,0.0130745,0.0335061,-0.0332424,0.058067,-0.0114865,-0.934474,0.043054,0.0249798,1357,1779,5.5437,-23.3754
140,-755,5.4541,23.3492,0.0131398,0.0310481,-0.0322505,0.0555644,-0.0113765,-0.920809,0.0413599,0.0283128,1364,1779,5.45416,-23.3493
147,-755,5.51721,23.2987,0.0128023,0.0277455,-0.0303476,0.0515278,-0.0109799,-0.906098,0.0385368,0.030883,1371,1779,5.5172,-23.2987
154,-755,5.48035,23.2494,0.0124299,0.0243289,-0.0280479,0.0470513,-0.0102925,-0.889908,0.0353021,0.0337952,1378,1779,5.48037,-23.2494
161,-755,5.30066,23.2421,0,0,0,0,0,0,0,-1,1385,1779,5.30069,-23.242
168,-755,3.98181,7.35901,0,0,0,0,0,0,0,-1,1392,1779,3.98184,-7.35904
175,-755,8.17065,1.34363,0,0,0,0,0,0,0,-1,1399,1779,8.1706,-1.34368
182,-755,8.09216,2.96924,0,0,0,0,0,0,0,-1,1406,1779,8.09213,-2.9693
189,-755,8.04419,4.68042,0,0,0,0,0,0,0,-1,1413,1779,8.04419,-4.68046
196,-755,7.74841,7.4541,0,0,0,0,0,0,0,-1,1420,1779,7.74842,-7.45405
203,-755,4.80554,6.88696,0,0,0,0,0,0,0,-1,1427,1779,4.80554,-6.88697
210,-755,25.1694,7.35693,0,0,0,0,0,0,0,-1,1434,1779,25.1694,-7.35688
217,-755,5.01648,16.411,0,0,0,0,0,0,0,-1,1441,1779,5.01646,-16.411
224,-755,5.18103,22.6283,0,0,0,0,0,0,0,-1,1448,1779,5.18101,-22.6283
231,-755,6.57861,22.2501,0,0,0,0,0,0,0,-1,1455,1779,6.5786,-22.2501
238,-755,6.94543,21.6665,-0.00502576,0.0204037,-0.0515467,0.0607807,-0.0454027,-0.906316,0.061519,0.0412586,1462,1779,6.94543,-21.6664
245,-755,6.71448,20.5244,0,0,0,0,0,0,0,-1,1469,1779,6.71448,-20.5244
252,-755,6.69482,19.1108,0,0,0,0,0,0,0,-1,1476,1779,6.69477,-19.1108
259,-755,3.17322,18.702,0,0,0,0,0,0,0,-1,1483,1779,3.17322,-18.7021
266,-755,17.255,7.86096,0,0,0,0,0,0,0,-1,1490,1779,17.255,-7.86092
273,-755,15.7932,7.59778,0,0,0,0,0,0,0,-1,1497,1779,15.7932,-7.59777
280,-755,14.6255,7.34802,0,0,0,0,0,0,0,-1,1504,1779,14.6254,-7.34806
287,-755,13.8279,7.83105,0,0,0,0,0,0,0,-1,1511,1779,13.8279,-7.83104
294,-755,12.5695,7.96814,0,0,0,0,0,0,0,-1,1518,1779,12.5694,-7.9682
301,-755,11.2659,8.27087,0,0,0,0,0,0,0,-1,1525,1779,11.2658,-8.27087
308,-755,9.94434,8.55811,0,0,0,0,0,0,0,-1,1532,1779,9.94428,-8.55806
315,-755,8.64502,9.04492,0,0,0,0,0,0,0,-1,1539,1779,8.64497,-9.04488
322,-755,0,0,0,0,0,0,0,0,0,-1,1546,1779,0,0
329,-755,0,0,0,0,0,0,0,0,0,-1,1553,1779,0,0
336,-755,0,0,0,0,0,0,0,0,0,-1,1560,1779,0,0
343,-755,0,0,0,0,0,0,0,0,0,-1,1567,1779,0,0
350,-755,0,0,0,0,0,0,0,0,0,-1,1574,1779,0,0
357,-755,0,0,0,0,0,0,0,0,0,-1,1581,1779,0,0
364,-755,0,0,0,0,0,0,0,0,0,-1,1588,1779,0,0
371,-755,0,0,0,0,0,0,0,0,0,-1,1595,1779,0,0
378,-755,0,0,0,0,0,0,0,0,0,-1,1602,1779,0,0
385,-755,0,0,0,0,0,0,0,0,0,-1,1609,1779,0,0
392,-755,0,0,0,0,0,0,0,0,0,-1,1616,1779,0,0
399,-755,0,0,0,0,0,0,0,0,0,-1,1623,1779,0,0
406,-755,0,0,0,0,0,0,0,0,0,-1,1630,1779,0,0
413,-755,0,0,0,0,0,0,0,0,0,-1,1637,1779,0,0
420,-755,0,0,0,0,0,0,0,0,0,-1,1644,1779,0,0
427,-755,0,0,0,0,0,0,0,0,0,-1,1651,1779,0,0
434,-755,0,0,0,0,0,0,0,0,0,-1,1658,1779,0,0
441,-755,0,0,0,0,0,0,0,0,0,-1,1665,1779,0,0
448,-755,0,0,0,0,0,0,0,0,0,-1,1672,1779,0,0
455,-755,0,0,0,0,0,0,0,0,0,-1,1679,1779,0,0
462,-755,0,0,0,0,0,0,0,0,0,-1,1686,1779,0,0
469,-755,0,0,0,0,0,0,0,0,0,-1,1693,1779,0,0
476,-755,0,0,0,0,0,0,0,0,0,-1,1700,1779,0,0
483,-755,0,0,0,0,0,0,0,0,0,-1,1707,1779,0,0
490,-755,0,0,0,0,0,0,0,0,0,-1,1714,1779,0,0
497,-755,0,0,0,0,0,0,0,0,0,-1,1721,1779,0,0
504,-755,0,0,0,0,0,0,0,0,0,-1,1728,1779,0,0
511,-755,0,0,0,0,0,0,0,0,0,-1,1735,1779,0,0
518,-755,0,0,0,0,0,0,0,0,0,-1,1742,1779,0,0
525,-755,0,0,0,0,0,0,0,0,0,-1,1749,1779,0,0
532,-755,0,0,0,0,0,0,0,0,0,-1,1756,1779,0,0
539,-755,0,0,0,0,0,0,0,0,0,-1,1763,1779,0,0
546,-755,0,0,0,0,0,0,0,0,0,-1,1770,1779,0,0
553,-755,0,0,0,0,0,0,0,0,0,-1,1777,1779,0,0
560,-755,0,0,0,0,0,0,0,0,0,-1,1784,1779,0,0
567,-755,0,0,0,0,0,0,0,0,0,-1,1791,1779,0,0
574,-755,0,0,0,0,0,0,0,0,0,-1,1798,1779,0,0
581,-755,0,0,0,0,0,0,0,0,0,-1,1805,1779,0,0
588,-755,0,0,0,0,0,0,0,0,0,-1,1812,1779,0,0
595,-755,0,0,0,0,0,0,0,0,0,-1,1819,1779,0,0
602,-755,0,0,0,0,0,0,0,0,0,-1,1826,1779,0,0
609,-755,0,0,0,0,0,0,0,0,0,-1,1833,1779,0,0
616,-755,0,0,0,0,0,0,0,0,0,-1,1840,1779,0,0
623,-755,0,0,0,0,0,0,0,0,0,-1,1847,1779,0,0
630,-755,0,0,0,0,0,0,0,0,0,-1,1854,1779,0,0
637,-755,0,0,0,0,0,0,0,0,0,-1,1861,1779,0,0
644,-755,0,0,0,0,0,0,0,0,0,-1,1868,1779,0,0
651,-755,0,0,0,0,0,0,0,0,0,-1,1875,1779,0,0
658,-755,0,0,0,0,0,0,0,0,0,-1,1882,1779,0,0
665,-755,0,0,0,0,0,0,0,0,0,-1,1889,1779,0,0
672,-755,0,0,0,0,0,0,0,0,0,-1,1896,1779,0,0
679,-755,0,0,0,0,0,0,0,0,0,-1,1903,1779,0,0
686,-755,0,0,0,0,0,0,0,0,0,-1,1910,1779,0,0
693,-755,0,0,0,0,0,0,0,0,0,-1,1917,1779,0,0
700,-755,0,0,0,0,0,0,0,0,0,-1,1924,1779,0,0
707,-755,0,0,0,0,0,0,0,0,0,-1,1931,1779,0,0
714,-755,0,0,0,0,0,0,0,0,0,-1,1938,1779,0,0
721,-755,0,0,0,0,0,0,0,0,0,-1,1945,1779,0,0
728,-755,0,0,0,0,0,0,0,0,0,-1,1952,1779,0,0
735,-755,0,0,0,0,0,0,0,0,0,-1,1959,1779,0,0
742,-755,0,0,0,0,0,0,0,0,0,-1,1966,1779,0,0
749,-755,0,0,0,0,0,0,0,0,0,-1,1973,1779,0,0
756,-755,0,0,0,0,0,0,0,0,0,-1,1980,1779,0,0
763,-755,0,0,0,0,0,0,0,0,0,-1,1987,1779,0,0
770,-755,0,0,0,0,0,0,0,0,0,-1,1994,1779,0,0
777,-755,0,0,0,0,0,0,0,0,0,-1,2001,1779,0,0
784,-755,0,0,0,0,0,0,0,0,0,-1,2008,1779,0,0
791,-755,0,0,0,0,0,0,0,0,0,-1,2015,1779,0,0
798,-755,0,0,0,0,0,0,0,0,0,-1,2022,1779,0,0
805,-755,0,0,0,0,0,0,0,0,0,-1,2029,1779,0,0
812,-755,0,0,0,0,0,0,0,0,0,-1,2036,1779,0,0
-700,-762,0,0,0,0,0,0,0,0,0,-1,524,1786,0,0
-693,-762,0,0,0,0,0,0,0,0,0,-1,531,1786,0,0
-686,-762,0,0,0,0,0,0,0,0,0,-1,538,1786,0,0
-679,-762,0,0,0,0,0,0,0,0,0,-1,545,1786,0,0
-672,-762,0,0,0,0,0,0,0,0,0,-1,552,1786,0,0
-665,-762,0,0,0,0,0,0,0,0,0,-1,559,1786,0,0
-658,-762,0,0,0,0,0,0,0,0,0,-1,566,1786,0,0
-651,-762,0,0,0,0,0,0,0,0,0,-1,573,1786,0,0
-644,-762,0,0,0,0,0,0,0,0,0,-1,580,1786,0,0
-637,-762,0,0,0,0,0,0,0,0,0,-1,587,1786,0,0
-630,-762,0,0,0,0,0,0,0,0,0,-1,594,1786,0,0
-623,-762,0,0,0,0,0,0,0,0,0,-1,601,1786,0,0
-616,-762,0,0,0,0,0,0,0,0,0,-1,608,1786,0,0
-609,-762,0,0,0,0,0,0,0,0,0,-1,615,1786,0,0
-602,-762,0,0,0,0,0,0,0,0,0,-1,622,1786,0,0
-595,-762,0,0,0,0,0,0,0,0,0,-1,629,1786,0,0
-588,-762,0,0,0,0,0,0,0,0,0,-1,636,1786,0,0
-581,-762,0,0,0,0,0,0,0,0,0,-1,643,1786,0,0
-574,-762,0,0,0,0,0,0,0,0,0,-1,650,1786,0,0
-567,-762,0,0,0,0,0,0,0,0,0,-1,657,1786,0,0
-560,-762,0,0,0,0,0,0,0,0,0,-1,664,1786,0,0
-553,-762,0,0,0,0,0,0,0,0,0,-1,671,1786,0,0
-546,-762,0,0,0,0,0,0,0,0,0,-1,678,1786,0,0
-539,-762,0,0,0,0,0,0,0,0,0,-1,685,1786,0,0
-532,-762,0,0,0,0,0,0,0,0,0,-1,692,1786,0,0
-525,-762,0,0,0,0,0,0,0,0,0,-1,699,1786,0,0
-518,-762,0,0,0,0,0,0,0,0,0,-1,706,1786,0,0
-511,-762,0,0,0,0,0,0,0,0,0,-1,713,1786,0,0
-504,-762,0,0,0,0,0,0,0,0,0,-1,720,1786,0,0
-497,-762,0,0,0,0,0,0,0,0,0,-1,727,1786,0,0
-490,-762,0,0,0,0,0,0,0,0,0,-1,734,1786,0,0
-483,-762,0,0,0,0,0,0,0,0,0,-1,741,1786,0,0
-476,-762,0,0,0,0,0,0,0,0,0,-1,748,1786,0,0
-469,-762,0,0,0,0,0,0,0,0,0,-1,755,1786,0,0
-462,-762,0,0,0,0,0,0,0,0,0,-1,762,1786,0,0
-455,-762,0,0,0,0,0,0,0,0,0,-1,769,1786,0,0
-448,-762,0,0,0,0,0,0,0,0,0,-1,776,1786,0,0
-441,-762,0,0,0,0,0,0,0,0,0,-1,783,1786,0,0
-434,-762,0,0,0,0,0,0,0,0,0,-1,790,1786,0,0
-427,-762,0,0,0,0,0,0,0,0,0,-1,797,1786,0,0
-420,-762,0,0,0,0,0,0,0,0,0,-1,804,1786,0,0
-413,-762,0,0,0,0,0,0,0,0,0,-1,811,1786,0,0
-406,-762,0,0,0,0,0,0,0,0,0,-1,818,1786,0,0
-399,-762,0,0,0,0,0,0,0,0,0,-1,825,1786,0,0
-392,-762,0,0,0,0,0,0,0,0,0,-1,832,1786,0,0
-385,-762,0,0,0,0,0,0,0,0,0,-1,839,1786,0,0
-378,-762,0,0,0,0,0,0,0,0,0,-1,846,1786,0,0
-371,-762,0,0,0,0,0,0,0,0,0,-1,853,1786,0,0
-364,-762,0,0,0,0,0,0,0,0,0,-1,860,1786,0,0
-357,-762,0,0,0,0,0,0,0,0,0,-1,867,1786,0,0
-350,-762,0,0,0,0,0,0,0,0,0,-1,874,1786,0,0
-343,-762,0,0,0,0,0,0,0,0,0,-1,881,1786,0,0
-336,-762,0,0,0,0,0,0,0,0,0,-1,888,1786,0,0
-329,-762,0,0,0,0,0,0,0,0,0,-1,895,1786,0,0
-322,-762,0,0,0,0,0,0,0,0,0,-1,902,1786,0,0
-315,-762,0,0,0,0,0,0,0,0,0,-1,909,1786,0,0
-308,-762,0,0,0,0,0,0,0,0,0,-1,916,1786,0,0
-301,-762,0,0,0,0,0,0,0,0,0,-1,923,1786,0,0
-294,-762,0,0,0,0,0,0,0,0,0,-1,930,1786,0,0
-287,-762,0,0,0,0,0,0,0,0,0,-1,937,1786,0,0
-280,-762,0,0,0,0,0,0,0,0,0,-1,944,1786,0,0
-273,-762,0,0,0,0,0,0,0,0,0,-1,951,1786,0,0
-266,-762,0,0,0,0,0,0,0,0,0,-1,958,1786,0,0
-259,-762,0,0,0,0,0,0,0,0,0,-1,965,1786,0,0
-252,-762,0,0,0,0,0,0,0,0,0,-1,972,1786,0,0
-245,-762,0,0,0,0,0,0,0,0,0,-1,979,1786,0,0
-238,-762,0,0,0,0,0,0,0,0,0,-1,986,1786,0,0
-231,-762,0,0,0,0,0,0,0,0,0,-1,993,1786,0,0
-224,-762,0,0,0,0,0,0,0,0,0,-1,1000,1786,0,0
-217,-762,0,0,0,0,0,0,0,0,0,-1,1007,1786,0,0
-210,-762,0,0,0,0,0,0,0,0,0,-1,1014,1786,0,0
-203,-762,0,0,0,0,0,0,0,0,0,-1,1021,1786,0,0
-196,-762,0,0,0,0,0,0,0,0,0,-1,1028,1786,0,0
-189,-762,0,0,0,0,0,0,0,0,0,-1,1035,1786,0,0
-182,-762,4.44226,13.2462,0,0,0,0,0,0,0,-1,1042,1786,4.44227,-13.2462
-175,-762,-1.29956,14.1766,0,0,0,0,0,0,0,-1,1049,1786,-1.29956,-14.1767
-168,-762,-2.08618,13.0768,0,0,0,0,0,0,0,-1,1056,1786,-2.08623,-13.0768
-161,-762,-3.29077,11.9508,0,0,0,0,0,0,0,-1,1063,1786,-3.29076,-11.9508
-154,-762,-4.55823,11.1176,0,0,0,0,0,0,0,-1,1070,1786,-4.55828,-11.1175
-147,-762,-6.52454,9.41418,0,0,0,0,0,0,0,-1,1077,1786,-6.52458,-9.41419
-140,-762,4.99792,5.28589,0,0,0,0,0,0,0,-1,1084,1786,4.99793,-5.28587
-133,-762,0.689819,19.2172,0,0,0,0,0,0,0,-1,1091,1786,0.689867,-19.2171
-126,-762,1.48743,19.9288,0,0,0,0,0,0,0,-1,1098,1786,1.48738,-19.9289
-119,-762,2.65637,20.208,0,0,0,0,0,0,0,-1,1105,1786,2.65632,-20.208
-112,-762,3.09082,20.488,0,0,0,0,0,0,0,-1,1112,1786,3.09077,-20.488
-105,-762,5.50476,20.6483,0,0,0,0,0,0,0,-1,1119,1786,5.5048,-20.6483
-98,-762,5.74402,17.4143,0,0,0,0,0,0,0,-1,1126,1786,5.74407,-17.4143
-91,-762,5.9834,14.1803,0,0,0,0,0,0,0,-1,1133,1786,5.98335,-14.1803
-84,-762,3.00232,10.7883,0,0,0,0,0,0,0,-1,1140,1786,3.0023,-10.7883
-77,-762,0.305054,8.49365,0,0,0,0,0,0,0,-1,1147,1786,0.305008,-8.49362
-70,-762,0.183716,6.74622,0,0,0,0,0,0,0,-1,1154,1786,0.183696,-6.74621
-63,-762,-0.883057,9.08813,0,0,0,0,0,0,0,-1,1161,1786,-0.88311,-9.08808
-56,-762,-0.578979,5.10254,0,0,0,0,0,0,0,-1,1168,1786,-0.578951,-5.10249
-49,-762,-2.04541,3.66321,0,0,0,0,0,0,0,-1,1175,1786,-2.0454,-3.66319
-42,-762,-2.23462,3.474,0,0,0,0,0,0,0,-1,1182,1786,-2.23459,-3.47399
-35,-762,-3.28992,1.68164,0,0,0,0,0,0,0,-1,1189,1786,-3.28998,-1.68164
-28,-762,-3.75378,1.37769,0,0,0,0,0,0,0,-1,1196,1786,-3.75373,-1.37767
-21,-762,5.52209,22.5023,0,0,0,0,0,0,0,-1,1203,1786,5.52215,-22.5023
-14,-762,6,23.0359,0,0,0,0,0,0,0,-1,1210,1786,6,-23.0359
-7,-762,5.80579,23.1678,0.0212768,0.00486307,0.000328216,0.0212834,0.00485651,0.0199858,0.012879,0.0470296,1217,1786,5.80576,-23.1679
0,-762,5.90771,23.1844,0.0183901,0.00393101,0.000126661,0.0183912,0.0039299,0.00875908,0.0111834,0.0332809,1224,1786,5.90769,-23.1845
7,-762,5.99243,23.2089,0.0152415,0.0034914,-0.000475143,0.0152607,0.00347222,-0.0403495,0.00923655,0.0201344,1231,1786,5.9924,-23.2089
14,-762,5.89722,23.3761,0.0118874,0.00341572,-0.00124418,0.0120664,0.00323678,-0.142846,0.00721164,0.0328745,1238,1786,5.89725,-23.3761
21,-762,5.72913,23.4336,0.00867614,0.00350133,-0.00219065,0.00947896,0.00269851,-0.351276,0.00563929,0.0414067,1245,1786,5.72916,-23.4336
28,-762,5.7417,23.4146,0.00561366,0.00435194,-0.00321561,0.00825971,0.0017059,-0.688535,0.0050351,0.0409888,1252,1786,5.74175,-23.4146
35,-762,5.73438,23.4294,0.00323752,0.00616487,-0.00420124,0.0091501,0.000252296,-0.953019,0.00601773,0.0407309,1259,1786,5.73439,-23.4294
42,-762,5.79553,23.4906,0.001029,0.00727105,-0.00512989,0.0101547,-0.00185468,-1.05868,0.00746525,0.0364913,1266,1786,5.79549,-23.4906
49,-762,5.80542,23.4652,-0.000937527,0.00778161,-0.00639807,0.0111642,-0.00432013,-1.08446,0.00922638,0.0285801,1273,1786,5.80538,-23.4652
56,-762,5.8186,23.4314,-0.00304059,0.00750118,-0.00790867,0.0117345,-0.00727388,-1.07933,0.0110747,0.0216168,1280,1786,5.81856,-23.4314
63,-762,5.78833,23.4572,-0.00489195,0.0066628,-0.00922285,0.0117684,-0.00999755,-1.06521,0.0125804,0.0214246,1287,1786,5.78835,-23.4572
70,-762,5.75903,23.4602,-0.0050592,0.00981899,-0.0118895,0.0164049,-0.0116451,-1.06495,0.0162722,0.0211432,1294,1786,5.75908,-23.4602
77,-762,5.72693,23.4238,-0.00261474,0.0154949,-0.016698,0.0254352,-0.012555,-1.03384,0.0223499,0.0272286,1301,1786,5.72691,-23.4239
84,-762,5.75427,23.4156,-0.000950339,0.0170894,-0.020146,0.0301425,-0.0140035,-0.995879,0.0260493,0.033701,1308,1786,5.75433,-23.4156
91,-762,5.83386,23.3812,0.000785092,0.0199445,-0.0240421,0.0362451,-0.0155155,-0.974986,0.0306725,0.0420413,1315,1786,5.83385,-23.3813
98,-762,5.78418,23.3818,0.0025962,0.0229164,-0.0277916,0.0423469,-0.0168342,-0.960642,0.0352107,0.0430232,1322,1786,5.78417,-23.3819
105,-762,6.32715,22.8229,0,0,0,0,0,0,0,-1,1329,1786,6.32721,-22.8229
112,-762,5.60291,23.434,0.00778123,0.0295136,-0.0357877,0.0560484,-0.0187536,-0.932789,0.0449406,0.0429774,1336,1786,5.6029,-23.434
119,-762,5.66968,23.4584,0.0107399,0.0324772,-0.0392499,0.0623355,-0.0191183,-0.920469,0.0491843,0.0426587,1343,1786,5.66972,-23.4583
126,-762,5.78149,23.5282,0.0131696,0.0342902,-0.0415034,0.0665558,-0.0190959,-0.909977,0.0519199,0.0471179,1350,1786,5.78153,-23.5282
133,-762,5.83923,23.5221,0,0,0,0,0,0,0,-1,1357,1786,5.83921,-23.5221
140,-762,5.31189,23.321,0.0150327,0.0297747,-0.040679,0.0637451,-0.0189377,-0.875025,0.0500189,0.0460648,1364,1786,5.31187,-23.321
147,-762,5.18347,23.2704,0.014729,0.0243676,-0.038141,0.0579926,-0.018896,-0.848243,0.046265,0.043343,1371,1786,5.18351,-23.2704
154,-762,5.23364,23.1879,0,0,0,0,0,0,0,-1,1378,1786,5.23367,-23.1879
161,-762,7.93408,-0.126221,0,0,0,0,0,0,0,-1,1385,1786,7.93402,0.126232
168,-762,8.19287,0.880615,0,0,0,0,0,0,0,-1,1392,1786,8.19291,-0.880603
175,-762,8.33997,1.95947,0,0,0,0,0,0,0,-1,1399,1786,8.33997,-1.95942
182,-762,8.28418,3.56482,0,0,0,0,0,0,0,-1,1406,1786,8.28415,-3.56485
189,-762,8.21179,5.23389,0,0,0,0,0,0,0,-1,1413,1786,8.21183,-5.23383
196,-762,8.05969,6.95483,0,0,0,0,0,0,0,-1,1420,1786,8.05972,-6.9548
203,-762,24.0077,7.10425,0,0,0,0,0,0,0,-1,1427,1786,24.0077,-7.10426
210,-762,23.8073,7.6499,0,0,0,0,0,0,0,-1,1434,1786,23.8073,-7.64987
217,-762,23.3193,8.24426,0,0,0,0,0,0,0,-1,1441,1786,23.3194,-8.2442
224,-762,2.65149,20.6106,0,0,0,0,0,0,0,-1,1448,1786,2.65153,-20.6106
231,-762,5.46655,23.521,0,0,0,0,0,0,0,-1,1455,1786,5.46653,-23.521
238,-762,7.50281,21.3998,0,0,0,0,0,0,0,-1,1462,1786,7.50281,-21.3998
245,-762,7.45911,19.8107,0,0,0,0,0,0,0,-1,1469,1786,7.45905,-19.8107
252,-762,3.10474,18.8385,0,0,0,0,0,0,0,-1,1476,1786,3.10476,-18.8385
259,-762,17.4619,7.89832,0,0,0,0,0,0,0,-1,1483,1786,17.462,-7.89836
266,-762,16.451,7.67773,0,0,0,0,0,0,0,-1,1490,1786,16.4511,-7.67773
273,-762,15.287,7.5304,0,0,0,0,0,0,0,-1,1497,1786,15.2869,-7.53044
280,-762,14.1501,7.38379,0,0,0,0,0,0,0,-1,1504,1786,14.1502,-7.38376
287,-762,12.6891,7.99133,0,0,0,0,0,0,0,-1,1511,1786,12.6891,-7.99135
294,-762,12.6959,8.30371,0,0,0,0,0,0,0,-1,1518,1786,12.6959,-8.30368
301,-762,11.4222,8.84143,0,0,0,0,0,0,0,-1,1525,1786,11.4223,-8.84149
308,-762,0,0,0,0,0,0,0,0,0,-1,1532,1786,0,0
315,-762,0,0,0,0,0,0,0,0,0,-1,1539,1786,0,0
322,-762,0,0,0,0,0,0,0,0,0,-1,1546,1786,0,0
329,-762,0,0,0,0,0,0,0,0,0,-1,1553,1786,0,0
336,-762,0,0,0,0,0,0,0,0,0,-1,1560,1786,0,0
343,-762,0,0,0,0,0,0,0,0,0,-1,1567,1786,0,0
350,-762,0,0,0,0,0,0,0,0,0,-1,1574,1786,0,0
357,-762,0,0,0,0,0,0,0,0,0,-1,1581,1786,0,0
364,-762,0,0,0,0,0,0,0,0,0,-1,1588,1786,0,0
371,-762,0,0,0,0,0,0,0,0,0,-1,1595,1786,0,0
378,-762,0,0,0,0,0,0,0,0,0,-1,1602,1786,0,0
385,-762,0,0,0,0,0,0,0,0,0,-1,1609,1786,0,0
392,-762,0,0,0,0,0,0,0,0,0,-1,1616,1786,0,0
399,-762,0,0,0,0,0,0,0,0,0,-1,1623,1786,0,0
406,-762,0,0,0,0,0,0,0,0,0,-1,1630,1786,0,0
413,-762,0,0,0,0,0,0,0,0,0,-1,1637,1786,0,0
420,-762,0,0,0,0,0,0,0,0,0,-1,1644,1786,0,0
427,-762,0,0,0,0,0,0,0,0,0,-1,1651,1786,0,0
434,-762,0,0,0,0,0,0,0,0,0,-1,1658,1786,0,0
441,-762,0,0,0,0,0,0,0,0,0,-1,1665,1786,0,0
448,-762,0,0,0,0,0,0,0,0,0,-1,1672,1786,0,0
455,-762,0,0,0,0,0,0,0,0,0,-1,1679,1786,0,0
462,-762,0,0,0,0,0,0,0,0,0,-1,1686,1786,0,0
469,-762,0,0,0,0,0,0,0,0,0,-1,1693,1786,0,0
476,-762,0,0,0,0,0,0,0,0,0,-1,1700,1786,0,0
483,-762,0,0,0,0,0,0,0,0,0,-1,1707,1786,0,0
490,-762,0,0,0,0,0,0,0,0,0,-1,1714,1786,0,0
497,-762,0,0,0,0,0,0,0,0,0,-1,1721,1786,0,0
504,-762,0,0,0,0,0,0,0,0,0,-1,1728,1786,0,0
511,-762,0,0,0,0,0,0,0,0,0,-1,1735,1786,0,0
518,-762,0,0,0,0,0,0,0,0,0,-1,1742,1786,0,0
525,-762,0,0,0,0,0,0,0,0,0,-1,1749,1786,0,0
532,-762,0,0,0,0,0,0,0,0,0,-1,1756,1786,0,0
539,-762,0,0,0,0,0,0,0,0,0,-1,1763,1786,0,0
546,-762,0,0,0,0,0,0,0,0,0,-1,1770,1786,0,0
553,-762,0,0,0,0,0,0,0,0,0,-1,1777,1786,0,0
560,-762,0,0,0,0,0,0,0,0,0,-1,1784,1786,0,0
567,-762,0,0,0,0,0,0,0,0,0,-1,1791,1786,0,0
574,-762,0,0,0,0,0,0,0,0,0,-1,1798,1786,0,0
581,-762,0,0,0,0,0,0,0,0,0,-1,1805,1786,0,0
588,-762,0,0,0,0,0,0,0,0,0,-1,1812,1786,0,0
595,-762,0,0,0,0,0,0,0,0,0,-1,1819,1786,0,0
602,-762,0,0,0,0,0,0,0,0,0,-1,1826,1786,0,0
609,-762,0,0,0,0,0,0,0,0,0,-1,1833,1786,0,0
616,-762,0,0,0,0,0,0,0,0,0,-1,1840,1786,0,0
623,-762,0,0,0,0,0,0,0,0,0,-1,1847,1786,0,0
630,-762,0,0,0,0,0,0,0,0,0,-1,1854,1786,0,0
637,-762,0,0,0,0,0,0,0,0,0,-1,1861,1786,0,0
644,-762,0,0,0,0,0,0,0,0,0,-1,1868,1786,0,0
651,-762,0,0,0,0,0,0,0,0,0,-1,1875,1786,0,0
658,-762,0,0,0,0,0,0,0,0,0,-1,1882,1786,0,0
665,-762,0,0,0,0,0,0,0,0,0,-1,1889,1786,0,0
672,-762,0,0,0,0,0,0,0,0,0,-1,1896,1786,0,0
679,-762,0,0,0,0,0,0,0,0,0,-1,1903,1786,0,0
686,-762,0,0,0,0,0,0,0,0,0,-1,1910,1786,0,0
693,-762,0,0,0,0,0,0,0,0,0,-1,1917,1786,0,0
700,-762,0,0,0,0,0,0,0,0,0,-1,1924,1786,0,0
707,-762,0,0,0,0,0,0,0,0,0,-1,1931,1786,0,0
714,-762,0,0,0,0,0,0,0,0,0,-1,1938,1786,0,0
721,-762,0,0,0,0,0,0,0,0,0,-1,1945,1786,0,0
728,-762,0,0,0,0,0,0,0,0,0,-1,1952,1786,0,0
735,-762,0,0,0,0,0,0,0,0,0,-1,1959,1786,0,0
742,-762,0,0,0,0,0,0,0,0,0,-1,1966,1786,0,0
749,-762,0,0,0,0,0,0,0,0,0,-1,1973,1786,0,0
756,-762,0,0,0,0,0,0,0,0,0,-1,1980,1786,0,0
763,-762,0,0,0,0,0,0,0,0,0,-1,1987,1786,0,0
770,-762,0,0,0,0,0,0,0,0,0,-1,1994,1786,0,0
777,-762,0,0,0,0,0,0,0,0,0,-1,2001,1786,0,0
784,-762,0,0,0,0,0,0,0,0,0,-1,2008,1786,0,0
791,-762,0,0,0,0,0,0,0,0,0,-1,2015,1786,0,0
798,-762,0,0,0,0,0,0,0,0,0,-1,2022,1786,0,0
805,-762,0,0,0,0,0,0,0,0,0,-1,2029,1786,0,0
812,-762,0,0,0,0,0,0,0,0,0,-1,2036,1786,0,0
-700,-769,0,0,0,0,0,0,0,0,0,-1,524,1793,0,0
-693,-769,0,0,0,0,0,0,0,0,0,-1,531,1793,0,0
-686,-769,0,0,0,0,0,0,0,0,0,-1,538,1793,0,0
-679,-769,0,0,0,0,0,0,0,0,0,-1,545,1793,0,0
-672,-769,0,0,0,0,0,0,0,0,0,-1,552,1793,0,0
-665,-769,0,0,0,0,0,0,0,0,0,-1,559,1793,0,0
-658,-769,0,0,0,0,0,0,0,0,0,-1,566,1793,0,0
-651,-769,0,0,0,0,0,0,0,0,0,-1,573,1793,0,0
-644,-769,0,0,0,0,0,0,0,0,0,-1,580,1793,0,0
-637,-769,0,0,0,0,0,0,0,0,0,-1,587,1793,0,0
-630,-769,0,0,0,0,0,0,0,0,0,-1,594,1793,0,0
-623,-769,0,0,0,0,0,0,0,0,0,-1,601,1793,0,0
-616,-769,0,0,0,0,0,0,0,0,0,-1,608,1793,0,0
-609,-769,0,0,0,0,0,0,0,0,0,-1,615,1793,0,0
-602,-769,0,0,0,0,0,0,0,0,0,-1,622,1793,0,0
-595,-769,0,0,0,0,0,0,0,0,0,-1,629,1793,0,0
-588,-769,0,0,0,0,0,0,0,0,0,-1,636,1793,0,0
-581,-769,0,0,0,0,0,0,0,0,0,-1,643,1793,0,0
-574,-769,0,0,0,0,0,0,0,0,0,-1,650,1793,0,0
-567,-769,0,0,0,0,0,0,0,0,0,-1,657,1793,0,0
-560,-769,0,0,0,0,0,0,0,0,0,-1,664,1793,0,0
-553,-769,0,0,0,0,0,0,0,0,0,-1,671,1793,0,0
-546,-769,0,0,0,0,0,0,0,0,0,-1,678,1793,0,0
-539,-769,0,0,0,0,0,0,0,0,0,-1,685,1793,0,0
-532,-769,0,0,0,0,0,0,0,0,0,-1,692,1793,0,0
-525,-769,0,0,0,0,0,0,0,0,0,-1,699,1793,0,0
-518,-769,0,0,0,0,0,0,0,0,0,-1,706,1793,0,0
-511,-769,0,0,0,0,0,0,0,0,0,-1,713,1793,0,0
-504,-769,0,0,0,0,0,0,0,0,0,-1,720,1793,0,0
-497,-769,0,0,0,0,0,0,0,0,0,-1,727,1793,0,0
-490,-769,0,0,0,0,0,0,0,0,0,-1,734,1793,0,0
-483,-769,0,0,0,0,0,0,0,0,0,-1,741,1793,0,0
-476,-769,0,0,0,0,0,0,0,0,0,-1,748,1793,0,0
-469,-769,0,0,0,0,0,0,0,0,0,-1,755,1793,0,0
-462,-769,0,0,0,0,0,0,0,0,0,-1,762,1793,0,0
-455,-769,0,0,0,0,0,0,0,0,0,-1,769,1793,0,0
-448,-769,0,0,0,0,0,0,0,0,0,-1,776,1793,0,0
-441,-769,0,0,0,0,0,0,0,0,0,-1,783,1793,0,0
-434,-769,0,0,0,0,0,0,0,0,0,-1,790,1793,0,0
-427,-769,0,0,0,0,0,0,0,0,0,-1,797,1793,0,0
-420,-769,0,0,0,0,0,0,0,0,0,-1,804,1793,0,0
-413,-769,0,0,0,0,0,0,0,0,0,-1,811,1793,0,0
-406,-769,0,0,0,0,0,0,0,0,0,-1,818,1793,0,0
-399,-769,0,0,0,0,0,0,0,0,0,-1,825,1793,0,0
-392,-769,0,0,0,0,0,0,0,0,0,-1,832,1793,0,0
-385,-769,0,0,0,0,0,0,0,0,0,-1,839,1793,0,0
-378,-769,0,0,0,0,0,0,0,0,0,-1,846,1793,0,0
-371,-769,0,0,0,0,0,0,0,0,0,-1,853,1793,0,0
-364,-769,0,0,0,0,0,0,0,0,0,-1,860,1793,0,0
-357,-769,0,0,0,0,0,0,0,0,0,-1,867,1793,0,0
-350,-769,0,0,0,0,0,0,0,0,0,-1,874,1793,0,0
-343,-769,0,0,0,0,0,0,0,0,0,-1,881,1793,0,0
-336,-769,0,0,0,0,0,0,0,0,0,-1,888,1793,0,0
-329,-769,0,0,0,0,0,0,0,0,0,-1,895,1793,0,0
-322,-769,0,0,0,0,0,0,0,0,0,-1,902,1793,0,0
-315,-769,0,0,0,0,0,0,0,0,0,-1,909,1793,0,0
-308,-769,0,0,0,0,0,0,0,0,0,-1,916,1793,0,0
-301,-769,0,0,0,0,0,0,0,0,0,-1,923,1793,0,0
-294,-769,0,0,0,0,0,0,0,0,0,-1,930,1793,0,0
-287,-769,0,0,0,0,0,0,0,0,0,-1,937,1793,0,0
-280,-769,0,0,0,0,0,0,0,0,0,-1,944,1793,0,0
-273,-769,0,0,0,0,0,0,0,0,0,-1,951,1793,0,0
-266,-769,0,0,0,0,0,0,0,0,0,-1,958,1793,0,0
-259,-769,0,0,0,0,0,0,0,0,0,-1,965,1793,0,0
-252,-769,0,0,0,0,0,0,0,0,0,-1,972,1793,0,0
-245,-769,0,0,0,0,0,0,0,0,0,-1,979,1793,0,0
-238,-769,0,0,0,0,0,0,0,0,0,-1,986,1793,0,0
-231,-769,0,0,0,0,0,0,0,0,0,-1,993,1793,0,0
-224,-769,0,0,0,0,0,0,0,0,0,-1,1000,1793,0,0
-217,-769,0,0,0,0,0,0,0,0,0,-1,1007,1793,0,0
-210,-769,0,0,0,0,0,0,0,0,0,-1,1014,1793,0,0
-203,-769,0,0,0,0,0,0,0,0,0,-1,1021,1793,0,0
-196,-769,0,0,0,0,0,0,0,0,0,-1,1028,1793,0,0
-189,-769,0,0,0,0,0,0,0,0,0,-1,1035,1793,0,0
-182,-769,0,0,0,0,0,0,0,0,0,-1,1042,1793,0,0
-175,-769,0,0,0,0,0,0,0,0,0,-1,1049,1793,0,0
-168,-769,0,0,0,0,0,0,0,0,0,-1,1056,1793,0,0
-161,-769,-3.61145,12.4761,0,0,0,0,0,0,0,-1,1063,1793,-3.6114,-12.476
-154,-769,-0.813232,5.32874,0,0,0,0,0,0,0,-1,1070,1793,-0.813269,-5.32872
-147,-769,4.26587,4.7002,0,0,0,0,0,0,0,-1,1077,1793,4.26593,-4.70022
-140,-769,4.10376,5.28589,0,0,0,0,0,0,0,-1,1084,1793,4.10371,-5.28584
-133,-769,6.422,8.21777,0,0,0,0,0,0,0,-1,1091,1793,6.42198,-8.21773
-126,-769,-0.352295,19.326,0,0,0,0,0,0,0,-1,1098,1793,-0.352235,-19.326
-119,-769,6.01685,16.2577,0,0,0,0,0,0,0,-1,1105,1793,6.01689,-16.2576
-112,-769,2.77722,20.0741,0,0,0,0,0,0,0,-1,1112,1793,2.77727,-20.0741
-105,-769,4.55212,21.8363,0,0,0,0,0,0,0,-1,1119,1793,4.55214,-21.8363
-98,-769,4.55505,18.981,0,0,0,0,0,0,0,-1,1126,1793,4.55509,-18.981
-91,-769,4.28101,16.0465,0,0,0,0,0,0,0,-1,1133,1793,4.28101,-16.0465
-84,-769,3.7594,13.0021,0,0,0,0,0,0,0,-1,1140,1793,3.75942,-13.0021
-77,-769,2.48816,8.98486,0,0,0,0,0,0,0,-1,1147,1793,2.48815,-8.98489
-70,-769,1.04944,11.9852,0,0,0,0,0,0,0,-1,1154,1793,1.04947,-11.9852
-63,-769,-2.39709,9.60339,0,0,0,0,0,0,0,-1,1161,1793,-2.39706,-9.6034
-56,-769,-5.84363,7.22156,0,0,0,0,0,0,0,-1,1168,1793,-5.84359,-7.22157
-49,-769,-2.41443,3.95471,0,0,0,0,0,0,0,-1,1175,1793,-2.41446,-3.95471
-42,-769,-3.1991,2.64941,0,0,0,0,0,0,0,-1,1182,1793,-3.19914,-2.64944
-35,-769,-3.50183,1.73389,0,0,0,0,0,0,0,-1,1189,1793,-3.50189,-1.7339
-28,-769,-3.96985,1.14075,0,0,0,0,0,0,0,-1,1196,1793,-3.96985,-1.14078
-21,-769,3.32703,16.424,0,0,0,0,0,0,0,-1,1203,1793,3.32707,-16.424
-14,-769,2.06165,22.2627,0,0,0,0,0,0,0,-1,1210,1793,2.06167,-22.2626
-7,-769,5.75195,23.2687,0,0,0,0,0,0,0,-1,1217,1793,5.75194,-23.2686
0,-769,5.72009,23.5969,0.0268479,0.00726189,-0.000796401,0.0268803,0.00722956,-0.0405724,0.0160621,0.0452883,1224,1793,5.72014,-23.597
7,-769,5.82385,23.4735,0.0221046,0.00651135,-0.00151402,0.0222503,0.00636571,-0.0959008,0.0132322,0.0427859,1231,1793,5.82391,-23.4735
14,-769,5.85144,23.486,0.0171532,0.00629332,-0.00259541,0.0177416,0.00570492,-0.222939,0.0104583,0.0420654,1238,1793,5.85142,-23.486
21,-769,5.57446,23.6072,0.0124522,0.00627284,-0.00390347,0.0143408,0.00438425,-0.450622,0.00848547,0.0452669,1245,1793,5.57452,-23.6072
28,-769,5.60889,23.621,0.00808619,0.00707862,-0.00526965,0.0128761,0.00228873,-0.737742,0.00793199,0.0453077,1252,1793,5.6089,-23.621
35,-769,5.72522,23.6134,0,0,0,0,0,0,0,-1,1259,1793,5.72521,-23.6135
42,-769,5.72058,23.6016,0.00130463,0.0100894,-0.00767775,0.0145424,-0.00314838,-1.04522,0.0108971,0.0452374,1266,1793,5.72054,-23.6016
49,-769,5.8252,23.5504,-0.00144416,0.0103465,-0.00926395,0.0154318,-0.00652954,-1.06877,0.013022,0.0449718,1273,1793,5.82524,-23.5504
56,-769,5.90515,23.3191,-0.00430699,0.00951958,-0.0111281,0.015707,-0.0104944,-1.06335,0.0152268,0.0462513,1280,1793,5.90518,-23.3191
63,-769,5.3429,23.2611,-0.00684501,0.00801142,-0.0127323,0.0153239,-0.0141575,-1.04947,0.0170256,0.0466281,1287,1793,5.3429,-23.2611
70,-769,5.4198,23.314,-0.00744942,0.0109602,-0.0157094,0.019963,-0.0164522,-1.05041,0.0210568,0.0433472,1294,1793,5.41985,-23.314
77,-769,5.73914,23.3783,0,0,0,0,0,0,0,-1,1301,1793,5.73915,-23.3783
84,-769,5.72388,23.2179,-0.00325669,0.0165254,-0.0249309,0.0334557,-0.020187,-0.974243,0.0312848,0.0448621,1308,1793,5.72386,-23.2179
91,-769,6.32886,23.2438,-0.00139974,0.0186923,-0.0294703,0.0397818,-0.0224892,-0.949665,0.0364113,0.0424028,1315,1793,6.32884,-23.2437
98,-769,4.17139,16.0315,0,0,0,0,0,0,0,-1,1322,1793,4.17142,-16.0315
105,-769,6.23779,23.1844,0,0,0,0,0,0,0,-1,1329,1793,6.23784,-23.1845
112,-769,5.99939,23.5297,0.0065426,0.0262758,-0.0432795,0.0607991,-0.0279808,-0.89747,0.0524114,0.0455946,1336,1793,5.99939,-23.5296
119,-769,5.69702,23.7274,0.0101907,0.0288265,-0.0474284,0.0678436,-0.0288264,-0.882394,0.0573078,0.0417137,1343,1793,5.69707,-23.7274
126,-769,3.87207,14.3057,0.0132364,0.0299569,-0.0500438,0.0723339,-0.0291407,-0.868163,0.0603296,0.0449822,1350,1793,3.87212,-14.3057
133,-769,4.19092,13.9927,0,0,0,0,0,0,0,-1,1357,1793,4.19097,-13.9927
140,-769,5.2417,23.3119,0,0,0,0,0,0,0,-1,1364,1793,5.24164,-23.3119
147,-769,4.96545,23.296,0,0,0,0,0,0,0,-1,1371,1793,4.96541,-23.296
154,-769,6.37561,1.00024,0,0,0,0,0,0,0,-1,1378,1793,6.37566,-1.00028
161,-769,6.57019,1.53223,0,0,0,0,0,0,0,-1,1385,1793,6.57019,-1.53226
168,-769,8.27637,0.756958,0,0,0,0,0,0,0,-1,1392,1793,8.27639,-0.756944
175,-769,8.47144,2.41174,0,0,0,0,0,0,0,-1,1399,1793,8.47147,-2.4118
182,-769,8.41479,4.05994,0,0,0,0,0,0,0,-1,1406,1793,8.41479,-4.05997
189,-769,8.25049,5.68433,0,0,0,0,0,0,0,-1,1413,1793,8.25054,-5.68428
196,-769,7.97729,7.42847,0,0,0,0,0,0,0,-1,1420,1793,7.9773,-7.42848
203,-769,22.0977,6.73889,0,0,0,0,0,0,0,-1,1427,1793,22.0977,-6.7389
210,-769,22.1115,7.77246,0,0,0,0,0,0,0,-1,1434,1793,22.1115,-7.77248
217,-769,22.4723,8.79102,0,0,0,0,0,0,0,-1,1441,1793,22.4723,-8.79099
224,-769,22.1348,9.35278,0,0,0,0,0,0,0,-1,1448,1793,22.1348,-9.35283
231,-769,3.13318,19.7184,0,0,0,0,0,0,0,-1,1455,1793,3.13323,-19.7184
238,-769,5.74512,18.6597,0,0,0,0,0,0,0,-1,1462,1793,5.74512,-18.6596
245,-769,5.71143,16.2483,0,0,0,0,0,0,0,-1,1469,1793,5.71137,-16.2483
252,-769,4.34961,12.5251,0,0,0,0,0,0,0,-1,1476,1793,4.34959,-12.5252
259,-769,16.4871,7.42102,0,0,0,0,0,0,0,-1,1483,1793,16.4871,-7.42104
266,-769,15.8488,7.3905,0,0,0,0,0,0,0,-1,1490,1793,15.8488,-7.39046
273,-769,14.8075,7.56152,0,0,0,0,0,0,0,-1,1497,1793,14.8075,-7.56152
280,-769,13.6519,7.43054,0,0,0,0,0,0,0,-1,1504,1793,13.6518,-7.43058
287,-769,0,0,0,0,0,0,0,0,0,-1,1511,1793,0,0
294,-769,0,0,0,0,0,0,0,0,0,-1,1518,1793,0,0
301,-769,0,0,0,0,0,0,0,0,0,-1,1525,1793,0,0
308,-769,0,0,0,0,0,0,0,0,0,-1,1532,1793,0,0
315,-769,0,0,0,0,0,0,0,0,0,-1,1539,1793,0,0
322,-769,0,0,0,0,0,0,0,0,0,-1,1546,1793,0,0
329,-769,0,0,0,0,0,0,0,0,0,-1,1553,1793,0,0
336,-769,0,0,0,0,0,0,0,0,0,-1,1560,1793,0,0
343,-769,0,0,0,0,0,0,0,0,0,-1,1567,1793,0,0
350,-769,0,0,0,0,0,0,0,0,0,-1,1574,1793,0,0
357,-769,0,0,0,0,0,0,0,0,0,-1,1581,1793,0,0
364,-769,0,0,0,0,0,0,0,0,0,-1,1588,1793,0,0
371,-769,0,0,0,0,0,0,0,0,0,-1,1595,1793,0,0
378,-769,0,0,0,0,0,0,0,0,0,-1,1602,1793,0,0
385,-769,0,0,0,0,0,0,0,0,0,-1,1609,1793,0,0
392,-769,0,0,0,0,0,0,0,0,0,-1,1616,1793,0,0
399,-769,0,0,0,0,0,0,0,0,0,-1,1623,1793,0,0
406,-769,0,0,0,0,0,0,0,0,0,-1,1630,1793,0,0
413,-769,0,0,0,0,0,0,0,0,0,-1,1637,1793,0,0
420,-769,0,0,0,0,0,0,0,0,0,-1,1644,1793,0,0
427,-769,0,0,0,0,0,0,0,0,0,-1,1651,1793,0,0
434,-769,0,0,0,0,0,0,0,0,0,-1,1658,1793,0,0
441,-769,0,0,0,0,0,0,0,0,0,-1,1665,1793,0,0
448,-769,0,0,0,0,0,0,0,0,0,-1,1672,1793,0,0
455,-769,0,0,0,0,0,0,0,0,0,-1,1679,1793,0,0
462,-769,0,0,0,0,0,0,0,0,0,-1,1686,1793,0,0
469,-769,0,0,0,0,0,0,0,0,0,-1,1693,1793,0,0
476,-769,0,0,0,0,0,0,0,0,0,-1,1700,1793,0,0
483,-769,0,0,0,0,0,0,0,0,0,-1,1707,1793,0,0
490,-769,0,0,0,0,0,0,0,0,0,-1,1714,1793,0,0
497,-769,0,0,0,0,0,0,0,0,0,-1,1721,1793,0,0
504,-769,0,0,0,0,0,0,0,0,0,-1,1728,1793,0,0
511,-769,0,0,0,0,0,0,0,0,0,-1,1735,1793,0,0
518,-769,0,0,0,0,0,0,0,0,0,-1,1742,1793,0,0
525,-769,0,0,0,0,0,0,0,0,0,-1,1749,1793,0,0
532,-769,0,0,0,0,0,0,0,0,0,-1,1756,1793,0,0
539,-769,0,0,0,0,0,0,0,0,0,-1,1763,1793,0,0
546,-769,0,0,0,0,0,0,0,0,0,-1,1770,1793,0,0
553,-769,0,0,0,0,0,0,0,0,0,-1,1777,1793,0,0
560,-769,0,0,0,0,0,0,0,0,0,-1,1784,1793,0,0
567,-769,0,0,0,0,0,0,0,0,0,-1,1791,1793,0,0
574,-769,0,0,0,0,0,0,0,0,0,-1,1798,1793,0,0
581,-769,0,0,0,0,0,0,0,0,0,-1,1805,1793,0,0
588,-769,0,0,0,0,0,0,0,0,0,-1,1812,1793,0,0
595,-769,0,0,0,0,0,0,0,0,0,-1,1819,1793,0,0
602,-769,0,0,0,0,0,0,0,0,0,-1,1826,1793,0,0
609,-769,0,0,0,0,0,0,0,0,0,-1,1833,1793,0,0
616,-769,0,0,0,0,0,0,0,0,0,-1,1840,1793,0,0
623,-769,0,0,0,0,0,0,0,0,0,-1,1847,1793,0,0
630,-769,0,0,0,0,0,0,0,0,0,-1,1854,1793,0,0
637,-769,0,0,0,0,0,0,0,0,0,-1,1861,1793,0,0
644,-769,0,0,0,0,0,0,0,0,0,-1,1868,1793,0,0
651,-769,0,0,0,0,0,0,0,0,0,-1,1875,1793,0,0
658,-769,0,0,0,0,0,0,0,0,0,-1,1882,1793,0,0
665,-769,0,0,0,0,0,0,0,0,0,-1,1889,1793,0,0
672,-769,0,0,0,0,0,0,0,0,0,-1,1896,1793,0,0
679,-769,0,0,0,0,0,0,0,0,0,-1,1903,1793,0,0
686,-769,0,0,0,0,0,0,0,0,0,-1,1910,1793,0,0
693,-769,0,0,0,0,0,0,0,0,0,-1,1917,1793,0,0
700,-769,0,0,0,0,0,0,0,0,0,-1,1924,1793,0,0
707,-769,0,0,0,0,0,0,0,0,0,-1,1931,1793,0,0
714,-769,0,0,0,0,0,0,0,0,0,-1,1938,1793,0,0
721,-769,0,0,0,0,0,0,0,0,0,-1,1945,1793,0,0
728,-769,0,0,0,0,0,0,0,0,0,-1,1952,1793,0,0
735,-769,0,0,0,0,0,0,0,0,0,-1,1959,1793,0,0
742,-769,0,0,0,0,0,0,0,0,0,-1,1966,1793,0,0
749,-769,0,0,0,0,0,0,0,0,0,-1,1973,1793,0,0
756,-769,0,0,0,0,0,0,0,0,0,-1,1980,1793,0,0
763,-769,0,0,0,0,0,0,0,0,0,-1,1987,1793,0,0
770,-769,0,0,0,0,0,0,0,0,0,-1,1994,1793,0,0
777,-769,0,0,0,0,0,0,0,0,0,-1,2001,1793,0,0
784,-769,0,0,0,0,0,0,0,0,0,-1,2008,1793,0,0
791,-769,0,0,0,0,0,0,0,0,0,-1,2015,1793,0,0
798,-769,0,0,0,0,0,0,0,0,0,-1,2022,1793,0,0
805,-769,0,0,0,0,0,0,0,0,0,-1,2029,1793,0,0
812,-769,0,0,0,0,0,0,0,0,0,-1,2036,1793,0,0
-700,-776,0,0,0,0,0,0,0,0,0,-1,524,1800,0,0
-693,-776,0,0,0,0,0,0,0,0,0,-1,531,1800,0,0
-686,-776,0,0,0,0,0,0,0,0,0,-1,538,1800,0,0
-679,-776,0,0,0,0,0,0,0,0,0,-1,545,1800,0,0
-672,-776,0,0,0,0,0,0,0,0,0,-1,552,1800,0,0
-665,-776,0,0,0,0,0,0,0,0,0,-1,559,1800,0,0
-658,-776,0,0,0,0,0,0,0,0,0,-1,566,1800,0,0
-651,-776,0,0,0,0,0,0,0,0,0,-1,573,1800,0,0
-644,-776,0,0,0,0,0,0,0,0,0,-1,580,1800,0,0
-637,-776,0,0,0,0,0,0,0,0,0,-1,587,1800,0,0
-630,-776,0,0,0,0,0,0,0,0,0,-1,594,1800,0,0
-623,-776,0,0,0,0,0,0,0,0,0,-1,601,1800,0,0
-616,-776,0,0,0,0,0,0,0,0,0,-1,608,1800,0,0
-609,-776,0,0,0,0,0,0,0,0,0,-1,615,1800,0,0
-602,-776,0,0,0,0,0,0,0,0,0,-1,622,1800,0,0
-595,-776,0,0,0,0,0,0,0,0,0,-1,629,1800,0,0
-588,-776,0,0,0,0,0,0,0,0,0,-1,636,1800,0,0
-581,-776,0,0,0,0,0,0,0,0,0,-1,643,1800,0,0
-574,-776,0,0,0,0,0,0,0,0,0,-1,650,1800,0,0
-567,-776,0,0,0,0,0,0,0,0,0,-1,657,1800,0,0
-560,-776,0,0,0,0,0,0,0,0,0,-1,664,1800,0,0
-553,-776,0,0,0,0,0,0,0,0,0,-1,671,1800,0,0
-546,-776,0,0,0,0,0,0,0,0,0,-1,678,1800,0,0
-539,-776,0,0,0,0,0,0,0,0,0,-1,685,1800,0,0
-532,-776,0,0,0,0,0,0,0,0,0,-1,692,1800,0,0
-525,-776,0,0,0,0,0,0,0,0,0,-1,699,1800,0,0
-518,-776,0,0,0,0,0,0,0,0,0,-1,706,1800,0,0
-511,-776,0,0,0,0,0,0,0,0,0,-1,713,1800,0,0
-504,-776,0,0,0,0,0,0,0,0,0,-1,720,1800,0,0
-497,-776,0,0,0,0,0,0,0,0,0,-1,727,1800,0,0
-490,-776,0,0,0,0,0,0,0,0,0,-1,734,1800,0,0
-483,-776,0,0,0,0,0,0,0,0,0,-1,741,1800,0,0
-476,-776,0,0,0,0,0,0,0,0,0,-1,748,1800,0,0
-469,-776,0,0,0,0,0,0,0,0,0,-1,755,1800,0,0
-462,-776,0,0,0,0,0,0,0,0,0,-1,762,1800,0,0
-455,-776,0,0,0,0,0,0,0,0,0,-1,769,1800,0,0
-448,-776,0,0,0,0,0,0,0,0,0,-1,776,1800,0,0
-441,-776,0,0,0,0,0,0,0,0,0,-1,783,1800,0,0
-434,-776,0,0,0,0,0,0,0,0,0,-1,790,1800,0,0
-427,-776,0,0,0,0,0,0,0,0,0,-1,797,1800,0,0
-420,-776,0,0,0,0,0,0,0,0,0,-1,804,1800,0,0
-413,-776,0,0,0,0,0,0,0,0,0,-1,811,1800,0,0
-406,-776,0,0,0,0,0,0,0,0,0,-1,818,1800,0,0
-399,-776,0,0,0,0,0,0,0,0,0,-1,825,1800,0,0
-392,-776,0,0,0,0,0,0,0,0,0,-1,832,1800,0,0
-385,-776,0,0,0,0,0,0,0,0,0,-1,839,1800,0,0
-378,-776,0,0,0,0,0,0,0,0,0,-1,846,1800,0,0
-371,-776,0,0,0,0,0,0,0,0,0,-1,853,1800,0,0
-364,-776,0,0,0,0,0,0,0,0,0,-1,860,1800,0,0
-357,-776,0,0,0,0,0,0,0,0,0,-1,867,1800,0,0
-350,-776,0,0,0,0,0,0,0,0,0,-1,874,1800,0,0
-343,-776,0,0,0,0,0,0,0,0,0,-1,881,1800,0,0
-336,-776,0,0,0,0,0,0,0,0,0,-1,888,1800,0,0
-329,-776,0,0,0,0,0,0,0,0,0,-1,895,1800,0,0
-322,-776,0,0,0,0,0,0,0,0,0,-1,902,1800,0,0
-315,-776,0,0,0,0,0,0,0,0,0,-1,909,1800,0,0
-308,-776,0,0,0,0,0,0,0,0,0,-1,916,1800,0,0
-301,-776,0,0,0,0,0,0,0,0,0,-1,923,1800,0,0
-294,-776,0,0,0,0,0,0,0,0,0,-1,930,1800,0,0
-287,-776,0,0,0,0,0,0,0,0,0,-1,937,1800,0,0
-280,-776,0,0,0,0,0,0,0,0,0,-1,944,1800,0,0
-273,-776,0,0,0,0,0,0,0,0,0,-1,951,1800,0,0
-266,-776,0,0,0,0,0,0,0,0,0,-1,958,1800,0,0
-259,-776,0,0,0,0,0,0,0,0,0,-1,965,1800,0,0
-252,-776,0,0,0,0,0,0,0,0,0,-1,972,1800,0,0
-245,-776,0,0,0,0,0,0,0,0,0,-1,979,1800,0,0
-238,-776,0,0,0,0,0,0,0,0,0,-1,986,1800,0,0
-231,-776,0,0,0,0,0,0,0,0,0,-1,993,1800,0,0
-224,-776,0,0,0,0,0,0,0,0,0,-1,1000,1800,0,0
-217,-776,0,0,0,0,0,0,0,0,0,-1,1007,1800,0,0
-210,-776,0,0,0,0,0,0,0,0,0,-1,1014,1800,0,0
-203,-776,0,0,0,0,0,0,0,0,0,-1,1021,1800,0,0
-196,-776,0,0,0,0,0,0,0,0,0,-1,1028,1800,0,0
-189,-776,0,0,0,0,0,0,0,0,0,-1,1035,1800,0,0
-182,-776,0,0,0,0,0,0,0,0,0,-1,1042,1800,0,0
-175,-776,0,0,0,0,0,0,0,0,0,-1,1049,1800,0,0
-168,-776,0,0,0,0,0,0,0,0,0,-1,1056,1800,0,0
-161,-776,0,0,0,0,0,0,0,0,0,-1,1063,1800,0,0
-154,-776,0,0,0,0,0,0,0,0,0,-1,1070,1800,0,0
-147,-776,0,0,0,0,0,0,0,0,0,-1,1077,1800,0,0
-140,-776,2.98499,5.20911,0,0,0,0,0,0,0,-1,1084,1800,2.98493,-5.2091
-133,-776,6.72363,9.35828,0,0,0,0,0,0,0,-1,1091,1800,6.72358,-9.35824
-126,-776,6.55029,13.7832,0,0,0,0,0,0,0,-1,1098,1800,6.55029,-13.7832
-119,-776,5.72107,13.7787,0,0,0,0,0,0,0,-1,1105,1800,5.72106,-13.7787
-112,-776,6.84998,20.4421,0,0,0,0,0,0,0,-1,1112,1800,6.84993,-20.4421
-105,-776,2.15039,19.7095,0,0,0,0,0,0,0,-1,1119,1800,2.1504,-19.7095
-98,-776,3.73413,20.6542,0,0,0,0,0,0,0,-1,1126,1800,3.73418,-20.6541
-91,-776,3.61462,18.3563,0,0,0,0,0,0,0,-1,1133,1800,3.6146,-18.3564
-84,-776,3.16504,15.3834,0,0,0,0,0,0,0,-1,1140,1800,3.16509,-15.3835
-77,-776,0.580078,11.1272,0,0,0,0,0,0,0,-1,1147,1800,0.58002,-11.1272
-70,-776,-0.562866,12.3163,0,0,0,0,0,0,0,-1,1154,1800,-0.562897,-12.3163
-63,-776,-3.96106,9.97656,0,0,0,0,0,0,0,-1,1161,1800,-3.961,-9.97654
-56,-776,-7.35913,7.63672,0,0,0,0,0,0,0,-1,1168,1800,-7.3591,-7.63676
-49,-776,-7.62952,3.1908,0,0,0,0,0,0,0,-1,1175,1800,-7.62955,-3.19076
-42,-776,-3.41272,3.0249,0,0,0,0,0,0,0,-1,1182,1800,-3.41269,-3.02488
-35,-776,-3.71753,1.63635,0,0,0,0,0,0,0,-1,1189,1800,-3.71755,-1.63631
-28,-776,-4.03979,0.716064,0,0,0,0,0,0,0,-1,1196,1800,-4.03977,-0.716055
-21,-776,1.30005,21.3024,0,0,0,0,0,0,0,-1,1203,1800,1.30009,-21.3023
-14,-776,3.77673,22.5162,0,0,0,0,0,0,0,-1,1210,1800,3.77672,-22.5162
-7,-776,4.39563,22.754,0,0,0,0,0,0,0,-1,1217,1800,4.39564,-22.754
0,-776,4.995,23.0398,0.0374902,0.0119725,-0.00236211,0.037707,0.0117557,-0.0915312,0.0222785,0.0433455,1224,1800,4.99496,-23.0398
7,-776,5.66907,23.4484,0.0306678,0.0108086,-0.00316861,0.0311611,0.0103152,-0.154447,0.0183301,0.046286,1231,1800,5.66905,-23.4483
14,-776,6.2334,23.4794,0.0236514,0.0103746,-0.00460373,0.0250915,0.00893446,-0.303175,0.0146853,0.0434239,1238,1800,6.2334,-23.4793
21,-776,6.25488,23.6644,0.0170508,0.0101606,-0.00631003,0.0207949,0.00641648,-0.535528,0.0122958,0.0417922,1245,1800,6.25483,-23.6644
28,-776,5.56104,23.7925,0.0110774,0.0107286,-0.00803482,0.0189397,0.00286627,-0.774547,0.0117878,0.0455236,1252,1800,5.56105,-23.7925
35,-776,5.76599,23.8654,0,0,0,0,0,0,0,-1,1259,1800,5.76604,-23.8653
42,-776,5.71008,23.7621,0.00146991,0.0134174,-0.0109006,0.0198738,-0.0049865,-1.03606,0.0151867,0.0444786,1266,1800,5.71008,-23.7621
49,-776,5.71655,23.7135,-0.0022177,0.0132491,-0.0127956,0.0204667,-0.00943532,-1.05721,0.0176512,0.0454899,1273,1800,5.71653,-23.7135
56,-776,5.95166,23.1613,0,0,0,0,0,0,0,-1,1280,1800,5.95168,-23.1613
63,-776,5.00732,22.9923,0,0,0,0,0,0,0,-1,1287,1800,5.00729,-22.9923
70,-776,5.11975,23.0807,0,0,0,0,0,0,0,-1,1294,1800,5.11974,-23.0807
77,-776,6.32288,22.0977,-0.00831845,0.0146176,-0.0254667,0.0310792,-0.0247801,-0.996956,0.0323187,0.0461343,1301,1800,6.32289,-22.0977
84,-776,5.99695,21.9764,-0.00665384,0.0138216,-0.0297197,0.0350175,-0.0278497,-0.951271,0.0363749,0.0452461,1308,1800,5.9969,-21.9764
91,-776,4.69177,17.7743,0,0,0,0,0,0,0,-1,1315,1800,4.69174,-17.7742
98,-776,4.44165,17.1371,0,0,0,0,0,0,0,-1,1322,1800,4.44163,-17.1371
105,-776,4.19153,16.4999,0,0,0,0,0,0,0,-1,1329,1800,4.19151,-16.4999
112,-776,2.7605,16.4619,0,0,0,0,0,0,0,-1,1336,1800,2.76054,-16.4619
119,-776,4.34399,17.3833,0.00782165,0.0191853,-0.054694,0.0684918,-0.0414848,-0.837155,0.06413,0.0411949,1343,1800,4.34405,-17.3833
126,-776,3.72473,15.7679,0.0114291,0.0188672,-0.0574129,0.0726814,-0.042385,-0.817742,0.0671968,0.0438159,1350,1800,3.72468,-15.7679
133,-776,4.1521,15.5109,0.0136208,0.0147923,-0.0573437,0.0715532,-0.0431401,-0.790505,0.0668921,0.0483027,1357,1800,4.15204,-15.5108
140,-776,4.55872,15.2676,0,0,0,0,0,0,0,-1,1364,1800,4.55875,-15.2676
147,-776,0.692017,19.6906,0,0,0,0,0,0,0,-1,1371,1800,0.69197,-19.6906
154,-776,6.43774,0.344116,0,0,0,0,0,0,0,-1,1378,1800,6.43776,-0.344162
161,-776,6.50293,1.1731,0,0,0,0,0,0,0,-1,1385,1800,6.5029,-1.17313
168,-776,8.44971,1.22913,0,0,0,0,0,0,0,-1,1392,1800,8.44974,-1.22915
175,-776,8.61523,2.87061,0,0,0,0,0,0,0,-1,1399,1800,8.6152,-2.87063
182,-776,8.54065,4.60645,0,0,0,0,0,0,0,-1,1406,1800,8.5407,-4.60643
189,-776,8.35303,6.28223,0,0,0,0,0,0,0,-1,1413,1800,8.35297,-6.28225
196,-776,8.0387,8.21704,0,0,0,0,0,0,0,-1,1420,1800,8.03865,-8.217
203,-776,7.91736,9.79919,0,0,0,0,0,0,0,-1,1427,1800,7.91735,-9.79922
210,-776,20.2479,7.85718,0,0,0,0,0,0,0,-1,1434,1800,20.248,-7.85719
217,-776,21.5171,9.3418,0,0,0,0,0,0,0,-1,1441,1800,21.5171,-9.34182
224,-776,3.09253,14.9313,0,0,0,0,0,0,0,-1,1448,1800,3.09254,-14.9313
231,-776,20.8671,9.21057,0,0,0,0,0,0,0,-1,1455,1800,20.867,-9.21054
238,-776,20.7511,9.05847,0,0,0,0,0,0,0,-1,1462,1800,20.7511,-9.05848
245,-776,3.80823,15.4108,0,0,0,0,0,0,0,-1,1469,1800,3.80826,-15.4108
252,-776,16.6313,6.47168,0,0,0,0,0,0,0,-1,1476,1800,16.6313,-6.47165
259,-776,14.1882,7.69055,0,0,0,0,0,0,0,-1,1483,1800,14.1882,-7.69061
266,-776,0,0,0,0,0,0,0,0,0,-1,1490,1800,0,0
273,-776,0,0,0,0,0,0,0,0,0,-1,1497,1800,0,0
280,-776,0,0,0,0,0,0,0,0,0,-1,1504,1800,0,0
287,-776,0,0,0,0,0,0,0,0,0,-1,1511,1800,0,0
294,-776,0,0,0,0,0,0,0,0,0,-1,1518,1800,0,0
301,-776,0,0,0,0,0,0,0,0,0,-1,1525,1800,0,0
308,-776,0,0,0,0,0,0,0,0,0,-1,1532,1800,0,0
315,-776,0,0,0,0,0,0,0,0,0,-1,1539,1800,0,0
322,-776,0,0,0,0,0,0,0,0,0,-1,1546,1800,0,0
329,-776,0,0,0,0,0,0,0,0,0,-1,1553,1800,0,0
336,-776,0,0,0,0,0,0,0,0,0,-1,1560,1800,0,0
343,-776,0,0,0,0,0,0,0,0,0,-1,1567,1800,0,0
350,-776,0,0,0,0,0,0,0,0,0,-1,1574,1800,0,0
357,-776,0,0,0,0,0,0,0,0,0,-1,1581,1800,0,0
364,-776,0,0,0,0,0,0,0,0,0,-1,1588,1800,0,0
371,-776,0,0,0,0,0,0,0,0,0,-1,1595,1800,0,0
378,-776,0,0,0,0,0,0,0,0,0,-1,1602,1800,0,0
385,-776,0,0,0,0,0,0,0,0,0,-1,1609,1800,0,0
392,-776,0,0,0,0,0,0,0,0,0,-1,1616,1800,0,0
399,-776,0,0,0,0,0,0,0,0,0,-1,1623,1800,0,0
406,-776,0,0,0,0,0,0,0,0,0,-1,1630,1800,0,0
413,-776,0,0,0,0,0,0,0,0,0,-1,1637,1800,0,0
420,-776,0,0,0,0,0,0,0,0,0,-1,1644,1800,0,0
427,-776,0,0,0,0,0,0,0,0,0,-1,1651,1800,0,0
434,-776,0,0,0,0,0,0,0,0,0,-1,1658,1800,0,0
441,-776,0,0,0,0,0,0,0,0,0,-1,1665,1800,0,0
448,-776,0,0,0,0,0,0,0,0,0,-1,1672,1800,0,0
455,-776,0,0,0,0,0,0,0,0,0,-1,1679,1800,0,0
462,-776,0,0,0,0,0,0,0,0,0,-1,1686,1800,0,0
469,-776,0,0,0,0,0,0,0,0,0,-1,1693,1800,0,0
476,-776,0,0,0,0,0,0,0,0,0,-1,1700,1800,0,0
483,-776,0,0,0,0,0,0,0,0,0,-1,1707,1800,0,0
490,-776,0,0,0,0,0,0,0,0,0,-1,1714,1800,0,0
497,-776,0,0,0,0,0,0,0,0,0,-1,1721,1800,0,0
504,-776,0,0,0,0,0,0,0,0,0,-1,1728,1800,0,0
511,-776,0,0,0,0,0,0,0,0,0,-1,1735,1800,0,0
518,-776,0,0,0,0,0,0,0,0,0,-1,1742,1800,0,0
525,-776,0,0,0,0,0,0,0,0,0,-1,1749,1800,0,0
532,-776,0,0,0,0,0,0,0,0,0,-1,1756,1800,0,0
539,-776,0,0,0,0,0,0,0,0,0,-1,1763,1800,0,0
546,-776,0,0,0,0,0,0,0,0,0,-1,1770,1800,0,0
553,-776,0,0,0,0,0,0,0,0,0,-1,1777,1800,0,0
560,-776,0,0,0,0,0,0,0,0,0,-1,1784,1800,0,0
567,-776,0,0,0,0,0,0,0,0,0,-1,1791,1800,0,0
574,-776,0,0,0,0,0,0,0,0,0,-1,1798,1800,0,0
581,-776,0,0,0,0,0,0,0,0,0,-1,1805,1800,0,0
588,-776,0,0,0,0,0,0,0,0,0,-1,1812,1800,0,0
595,-776,0,0,0,0,0,0,0,0,0,-1,1819,1800,0,0
602,-776,0,0,0,0,0,0,0,0,0,-1,1826,1800,0,0
609,-776,0,0,0,0,0,0,0,0,0,-1,1833,1800,0,0
616,-776,0,0,0,0,0,0,0,0,0,-1,1840,1800,0,0
623,-776,0,0,0,0,0,0,0,0,0,-1,1847,1800,0,0
630,-776,0,0,0,0,0,0,0,0,0,-1,1854,1800,0,0
637,-776,0,0,0,0,0,0,0,0,0,-1,1861,1800,0,0
644,-776,0,0,0,0,0,0,0,0,0,-1,1868,1800,0,0
651,-776,0,0,0,0,0,0,0,0,0,-1,1875,1800,0,0
658,-776,0,0,0,0,0,0,0,0,0,-1,1882,1800,0,0
665,-776,0,0,0,0,0,0,0,0,0,-1,1889,1800,0,0
672,-776,0,0,0,0,0,0,0,0,0,-1,1896,1800,0,0
679,-776,0,0,0,0,0,0,0,0,0,-1,1903,1800,0,0
686,-776,0,0,0,0,0,0,0,0,0,-1,1910,1800,0,0
693,-776,0,0,0,0,0,0,0,0,0,-1,1917,1800,0,0
700,-776,0,0,0,0,0,0,0,0,0,-1,1924,1800,0,0
707,-776,0,0,0,0,0,0,0,0,0,-1,1931,1800,0,0
714,-776,0,0,0,0,0,0,0,0,0,-1,1938,1800,0,0
721,-776,0,0,0,0,0,0,0,0,0,-1,1945,1800,0,0
728,-776,0,0,0,0,0,0,0,0,0,-1,1952,1800,0,0
735,-776,0,0,0,0,0,0,0,0,0,-1,1959,1800,0,0
742,-776,0,0,0,0,0,0,0,0,0,-1,1966,1800,0,0
749,-776,0,0,0,0,0,0,0,0,0,-1,1973,1800,0,0
756,-776,0,0,0,0,0,0,0,0,0,-1,1980,1800,0,0
763,-776,0,0,0,0,0,0,0,0,0,-1,1987,1800,0,0
770,-776,0,0,0,0,0,0,0,0,0,-1,1994,1800,0,0
777,-776,0,0,0,0,0,0,0,0,0,-1,2001,1800,0,0
784,-776,0,0,0,0,0,0,0,0,0,-1,2008,1800,0,0
791,-776,0,0,0,0,0,0,0,0,0,-1,2015,1800,0,0
798,-776,0,0,0,0,0,0,0,0,0,-1,2022,1800,0,0
805,-776,0,0,0,0,0,0,0,0,0,-1,2029,1800,0,0
812,-776,0,0,0,0,0,0,0,0,0,-1,2036,1800,0,0
-700,-783,0,0,0,0,0,0,0,0,0,-1,524,1807,0,0
-693,-783,0,0,0,0,0,0,0,0,0,-1,531,1807,0,0
-686,-783,0,0,0,0,0,0,0,0,0,-1,538,1807,0,0
-679,-783,0,0,0,0,0,0,0,0,0,-1,545,1807,0,0
-672,-783,0,0,0,0,0,0,0,0,0,-1,552,1807,0,0
-665,-783,0,0,0,0,0,0,0,0,0,-1,559,1807,0,0
-658,-783,0,0,0,0,0,0,0,0,0,-1,566,1807,0,0
-651,-783,0,0,0,0,0,0,0,0,0,-1,573,1807,0,0
-644,-783,0,0,0,0,0,0,0,0,0,-1,580,1807,0,0
-637,-783,0,0,0,0,0,0,0,0,0,-1,587,1807,0,0
-630,-783,0,0,0,0,0,0,0,0,0,-1,594,1807,0,0
-623,-783,0,0,0,0,0,0,0,0,0,-1,601,1807,0,0
-616,-783,0,0,0,0,0,0,0,0,0,-1,608,1807,0,0
-609,-783,0,0,0,0,0,0,0,0,0,-1,615,1807,0,0
-602,-783,0,0,0,0,0,0,0,0,0,-1,622,1807,0,0
-595,-783,0,0,0,0,0,0,0,0,0,-1,629,1807,0,0
-588,-783,0,0,0,0,0,0,0,0,0,-1,636,1807,0,0
-581,-783,0,0,0,0,0,0,0,0,0,-1,643,1807,0,0
-574,-783,0,0,0,0,0,0,0,0,0,-1,650,1807,0,0
-567,-783,0,0,0,0,0,0,0,0,0,-1,657,1807,0,0
-560,-783,0,0,0,0,0,0,0,0,0,-1,664,1807,0,0
-553,-783,0,0,0,0,0,0,0,0,0,-1,671,1807,0,0
-546,-783,0,0,0,0,0,0,0,0,0,-1,678,1807,0,0
-539,-783,0,0,0,0,0,0,0,0,0,-1,685,1807,0,0
-532,-783,0,0,0,0,0,0,0,0,0,-1,692,1807,0,0
-525,-783,0,0,0,0,0,0,0,0,0,-1,699,1807,0,0
-518,-783,0,0,0,0,0,0,0,0,0,-1,706,1807,0,0
-511,-783,0,0,0,0,0,0,0,0,0,-1,713,1807,0,0
-504,-783,0,0,0,0,0,0,0,0,0,-1,720,1807,0,0
-497,-783,0,0,0,0,0,0,0,0,0,-1,727,1807,0,0
-490,-783,0,0,0,0,0,0,0,0,0,-1,734,1807,0,0
-483,-783,0,0,0,0,0,0,0,0,0,-1,741,1807,0,0
-476,-783,0,0,0,0,0,0,0,0,0,-1,748,1807,0,0
-469,-783,0,0,0,0,0,0,0,0,0,-1,755,1807,0,0
-462,-783,0,0,0,0,0,0,0,0,0,-1,762,1807,0,0
-455,-783,0,0,0,0,0,0,0,0,0,-1,769,1807,0,0
-448,-783,0,0,0,0,0,0,0,0,0,-1,776,1807,0,0
-441,-783,0,0,0,0,0,0,0,0,0,-1,783,1807,0,0
-434,-783,0,0,0,0,0,0,0,0,0,-1,790,1807,0,0
-427,-783,0,0,0,0,0,0,0,0,0,-1,797,1807,0,0
-420,-783,0,0,0,0,0,0,0,0,0,-1,804,1807,0,0
-413,-783,0,0,0,0,0,0,0,0,0,-1,811,1807,0,0
-406,-783,0,0,0,0,0,0,0,0,0,-1,818,1807,0,0
-399,-783,0,0,0,0,0,0,0,0,0,-1,825,1807,0,0
-392,-783,0,0,0,0,0,0,0,0,0,-1,832,1807,0,0
-385,-783,0,0,0,0,0,0,0,0,0,-1,839,1807,0,0
-378,-783,0,0,0,0,0,0,0,0,0,-1,846,1807,0,0
-371,-783,0,0,0,0,0,0,0,0,0,-1,853,1807,0,0
-364,-783,0,0,0,0,0,0,0,0,0,-1,860,1807,0,0
-357,-783,0,0,0,0,0,0,0,0,0,-1,867,1807,0,0
-350,-783,0,0,0,0,0,0,0,0,0,-1,874,1807,0,0
-343,-783,0,0,0,0,0,0,0,0,0,-1,881,1807,0,0
-336,-783,0,0,0,0,0,0,0,0,0,-1,888,1807,0,0
-329,-783,0,0,0,0,0,0,0,0,0,-1,895,1807,0,0
-322,-783,0,0,0,0,0,0,0,0,0,-1,902,1807,0,0
-315,-783,0,0,0,0,0,0,0,0,0,-1,909,1807,0,0
-308,-783,0,0,0,0,0,0,0,0,0,-1,916,1807,0,0
-301,-783,0,0,0,0,0,0,0,0,0,-1,923,1807,0,0
-294,-783,0,0,0,0,0,0,0,0,0,-1,930,1807,0,0
-287,-783,0,0,0,0,0,0,0,0,0,-1,937,1807,0,0
-280,-783,0,0,0,0,0,0,0,0,0,-1,944,1807,0,0
-273,-783,0,0,0,0,0,0,0,0,0,-1,951,1807,0,0
-266,-783,0,0,0,0,0,0,0,0,0,-1,958,1807,0,0
-259,-783,0,0,0,0,0,0,0,0,0,-1,965,1807,0,0
-252,-783,0,0,0,0,0,0,0,0,0,-1,972,1807,0,0
-245,-783,0,0,0,0,0,0,0,0,0,-1,979,1807,0,0
-238,-783,0,0,0,0,0,0,0,0,0,-1,986,1807,0,0
-231,-783,0,0,0,0,0,0,0,0,0,-1,993,1807,0,0
-224,-783,0,0,0,0,0,0,0,0,0,-1,1000,1807,0,0
-217,-783,0,0,0,0,0,0,0,0,0,-1,1007,1807,0,0
-210,-783,0,0,0,0,0,0,0,0,0,-1,1014,1807,0,0
-203,-783,0,0,0,0,0,0,0,0,0,-1,1021,1807,0,0
-196,-783,0,0,0,0,0,0,0,0,0,-1,1028,1807,0,0
-189,-783,0,0,0,0,0,0,0,0,0,-1,1035,1807,0,0
-182,-783,0,0,0,0,0,0,0,0,0,-1,1042,1807,0,0
-175,-783,0,0,0,0,0,0,0,0,0,-1,1049,1807,0,0
-168,-783,0,0,0,0,0,0,0,0,0,-1,1056,1807,0,0
-161,-783,0,0,0,0,0,0,0,0,0,-1,1063,1807,0,0
-154,-783,0,0,0,0,0,0,0,0,0,-1,1070,1807,0,0
-147,-783,0,0,0,0,0,0,0,0,0,-1,1077,1807,0,0
-140,-783,0,0,0,0,0,0,0,0,0,-1,1084,1807,0,0
-133,-783,0,0,0,0,0,0,0,0,0,-1,1091,1807,0,0
-126,-783,0,0,0,0,0,0,0,0,0,-1,1098,1807,0,0
-119,-783,0,0,0,0,0,0,0,0,0,-1,1105,1807,0,0
-112,-783,5.33936,14.7699,0,0,0,0,0,0,0,-1,1112,1807,5.33931,-14.7699
-105,-783,6.44263,21.2224,0,0,0,0,0,0,0,-1,1119,1807,6.44263,-21.2224
-98,-783,5.54773,20.5695,0,0,0,0,0,0,0,-1,1126,1807,5.54772,-20.5695
-91,-783,2.94019,20.911,0,0,0,0,0,0,0,-1,1133,1807,2.94022,-20.911
-84,-783,-0.0491943,14.5743,0,0,0,0,0,0,0,-1,1140,1807,-0.0491562,-14.5743
-77,-783,0.332764,12.7788,0,0,0,0,0,0,0,-1,1147,1807,0.332743,-12.7788
-70,-783,-1.93176,5.12817,0,0,0,0,0,0,0,-1,1154,1807,-1.93171,-5.12813
-63,-783,-5.31702,10.54,0,0,0,0,0,0,0,-1,1161,1807,-5.31703,-10.54
-56,-783,-6.26135,6.9679,0,0,0,0,0,0,0,-1,1168,1807,-6.26136,-6.96785
-49,-783,-3.17688,4.59705,0,0,0,0,0,0,0,-1,1175,1807,-3.17685,-4.5971
-42,-783,-3.72876,3.1405,0,0,0,0,0,0,0,-1,1182,1807,-3.72874,-3.14055
-35,-783,-3.97046,1.59399,0,0,0,0,0,0,0,-1,1189,1807,-3.97041,-1.59401
-28,-783,-4.12195,0.270386,0,0,0,0,0,0,0,-1,1196,1807,-4.12197,-0.270408
-21,-783,3.0061,25.6189,0,0,0,0,0,0,0,-1,1203,1807,3.00613,-25.6189
-14,-783,3.94922,24.6901,0,0,0,0,0,0,0,-1,1210,1807,3.94923,-24.6901
-7,-783,4.5166,23.0714,0,0,0,0,0,0,0,-1,1217,1807,4.51659,-23.0714
0,-783,5.08923,23.1199,0.0502495,0.0183784,-0.00478834,0.0509533,0.0176746,-0.145949,0.0298742,0.0447398,1224,1807,5.08923,-23.1199
7,-783,5.57324,23.3337,0.0408121,0.0167056,-0.00563952,0.0420662,0.0154515,-0.218813,0.0245703,0.0462945,1231,1807,5.57318,-23.3337
14,-783,6.80139,23.3588,0.0312412,0.0159464,-0.00743162,0.0342573,0.0129302,-0.385545,0.0199755,0.0478527,1238,1807,6.80143,-23.3588
21,-783,6.93713,23.4984,0.0223281,0.0153993,-0.00953049,0.0290043,0.00872304,-0.611069,0.0171831,0.0471596,1245,1807,6.93718,-23.4984
28,-783,5.48694,23.8064,0,0,0,0,0,0,0,-1,1252,1807,5.4869,-23.8064
35,-783,5.80273,24.0283,0,0,0,0,0,0,0,-1,1259,1807,5.80271,-24.0283
42,-783,5.849,23.8019,0.00137361,0.017193,-0.0148053,0.026069,-0.00750244,-1.03073,0.0203466,0.0449106,1266,1807,5.849,-23.8019
49,-783,6.07898,23.5118,-0.0033897,0.0164262,-0.0169741,0.0261725,-0.013136,-1.04958,0.023107,0.0451992,1273,1807,6.07902,-23.5118
56,-783,6.29065,23.1807,-0.00804727,0.0138935,-0.0194285,0.0252348,-0.0193886,-1.04241,0.025837,0.0464902,1280,1807,6.29065,-23.1806
63,-783,6.2406,23.0421,0,0,0,0,0,0,0,-1,1287,1807,6.24059,-23.0421
70,-783,6.25488,21.792,-0.0142844,0.011229,-0.0245886,0.026173,-0.0292285,-1.02469,0.0320023,0.043978,1294,1807,6.25489,-21.792
77,-783,5.94128,21.172,-0.0127222,0.0114883,-0.0298542,0.0315981,-0.032832,-0.978008,0.037201,0.0473453,1301,1807,5.94123,-21.172
84,-783,5.60706,20.5757,0,0,0,0,0,0,0,-1,1308,1807,5.60702,-20.5757
91,-783,5.22498,19.5721,0,0,0,0,0,0,0,-1,1315,1807,5.22501,-19.5722
98,-783,4.73999,18.22,-0.00831472,0.00484385,-0.0441655,0.0429175,-0.0463883,-0.859339,0.0515737,0.0459676,1322,1807,4.73999,-18.22
105,-783,4.21753,17.8533,-0.00567053,0.00349538,-0.0496061,0.0487298,-0.0509049,-0.831461,0.0575287,0.0487586,1329,1807,4.21756,-17.8533
112,-783,3.86621,17.672,-0.00168669,0.00262812,-0.0552764,0.0557892,-0.0548478,-0.804903,0.0638771,0.0461851,1336,1807,3.86621,-17.672
119,-783,4.37817,17.9192,0.00294592,0.00179599,-0.060042,0.0624157,-0.0576738,-0.78061,0.0693518,0.0427232,1343,1807,4.37816,-17.9192
126,-783,3.85962,17.2906,0.00700493,-0.000940768,-0.0624629,0.0656212,-0.059557,-0.753639,0.0722999,0.0467672,1350,1807,3.85968,-17.2907
133,-783,3.99084,17.014,0.00934172,-0.00784824,-0.0612247,0.0625718,-0.0610784,-0.715662,0.0713912,0.0493401,1357,1807,3.99089,-17.014
140,-783,4.01233,16.9373,0,0,0,0,0,0,0,-1,1364,1807,4.01235,-16.9373
147,-783,-0.104248,19.9227,0,0,0,0,0,0,0,-1,1371,1807,-0.104237,-19.9227
154,-783,22.8251,14.2119,0,0,0,0,0,0,0,-1,1378,1807,22.8251,-14.2119
161,-783,6.57568,1.16174,0,0,0,0,0,0,0,-1,1385,1807,6.57562,-1.1617
168,-783,8.62561,1.79944,0,0,0,0,0,0,0,-1,1392,1807,8.62561,-1.79946
175,-783,8.78699,3.40857,0,0,0,0,0,0,0,-1,1399,1807,8.78697,-3.40854
182,-783,8.70984,5.14661,0,0,0,0,0,0,0,-1,1406,1807,8.70989,-5.14666
189,-783,8.55762,6.79871,0,0,0,0,0,0,0,-1,1413,1807,8.55766,-6.79872
196,-783,8.25488,8.66626,0,0,0,0,0,0,0,-1,1420,1807,8.25492,-8.66628
203,-783,7.86755,10.5735,0,0,0,0,0,0,0,-1,1427,1807,7.8676,-10.5734
210,-783,5.6969,8.99231,0,0,0,0,0,0,0,-1,1434,1807,5.69693,-8.99234
217,-783,5.28503,3.80872,0,0,0,0,0,0,0,-1,1441,1807,5.285,-3.80868
224,-783,3.22571,6.62903,0,0,0,0,0,0,0,-1,1448,1807,3.2257,-6.62907
231,-783,4.27942,4.56262,0,0,0,0,0,0,0,-1,1455,1807,4.27948,-4.56267
238,-783,0,0,0,0,0,0,0,0,0,-1,1462,1807,0,0
245,-783,0,0,0,0,0,0,0,0,0,-1,1469,1807,0,0
252,-783,0,0,0,0,0,0,0,0,0,-1,1476,1807,0,0
259,-783,0,0,0,0,0,0,0,0,0,-1,1483,1807,0,0
266,-783,0,0,0,0,0,0,0,0,0,-1,1490,1807,0,0
273,-783,0,0,0,0,0,0,0,0,0,-1,1497,1807,0,0
280,-783,0,0,0,0,0,0,0,0,0,-1,1504,1807,0,0
287,-783,0,0,0,0,0,0,0,0,0,-1,1511,1807,0,0
294,-783,0,0,0,0,0,0,0,0,0,-1,1518,1807,0,0
301,-783,0,0,0,0,0,0,0,0,0,-1,1525,1807,0,0
308,-783,0,0,0,0,0,0,0,0,0,-1,1532,1807,0,0
315,-783,0,0,0,0,0,0,0,0,0,-1,1539,1807,0,0
322,-783,0,0,0,0,0,0,0,0,0,-1,1546,1807,0,0
329,-783,0,0,0,0,0,0,0,0,0,-1,1553,1807,0,0
336,-783,0,0,0,0,0,0,0,0,0,-1,1560,1807,0,0
343,-783,0,0,0,0,0,0,0,0,0,-1,1567,1807,0,0
350,-783,0,0,0,0,0,0,0,0,0,-1,1574,1807,0,0
357,-783,0,0,0,0,0,0,0,0,0,-1,1581,1807,0,0
364,-783,0,0,0,0,0,0,0,0,0,-1,1588,1807,0,0
371,-783,0,0,0,0,0,0,0,0,0,-1,1595,1807,0,0
378,-783,0,0,0,0,0,0,0,0,0,-1,1602,1807,0,0
385,-783,0,0,0,0,0,0,0,0,0,-1,1609,1807,0,0
392,-783,0,0,0,0,0,0,0,0,0,-1,1616,1807,0,0
399,-783,0,0,0,0,0,0,0,0,0,-1,1623,1807,0,0
406,-783,0,0,0,0,0,0,0,0,0,-1,1630,1807,0,0
413,-783,0,0,0,0,0,0,0,0,0,-1,1637,1807,0,0
420,-783,0,0,0,0,0,0,0,0,0,-1,1644,1807,0,0
427,-783,0,0,0,0,0,0,0,0,0,-1,1651,1807,0,0
434,-783,0,0,0,0,0,0,0,0,0,-1,1658,1807,0,0
441,-783,0,0,0,0,0,0,0,0,0,-1,1665,1807,0,0
448,-783,0,0,0,0,0,0,0,0,0,-1,1672,1807,0,0
455,-783,0,0,0,0,0,0,0,0,0,-1,1679,1807,0,0
462,-783,0,0,0,0,0,0,0,0,0,-1,1686,1807,0,0
469,-783,0,0,0,0,0,0,0,0,0,-1,1693,1807,0,0
476,-783,0,0,0,0,0,0,0,0,0,-1,1700,1807,0,0
483,-783,0,0,0,0,0,0,0,0,0,-1,1707,1807,0,0
490,-783,0,0,0,0,0,0,0,0,0,-1,1714,1807,0,0
497,-783,0,0,0,0,0,0,0,0,0,-1,1721,1807,0,0
504,-783,0,0,0,0,0,0,0,0,0,-1,1728,1807,0,0
511,-783,0,0,0,0,0,0,0,0,0,-1,1735,1807,0,0
518,-783,0,0,0,0,0,0,0,0,0,-1,1742,1807,0,0
525,-783,0,0,0,0,0,0,0,0,0,-1,1749,1807,0,0
532,-783,0,0,0,0,0,0,0,0,0,-1,1756,1807,0,0
539,-783,0,0,0,0,0,0,0,0,0,-1,1763,1807,0,0
546,-783,0,0,0,0,0,0,0,0,0,-1,1770,1807,0,0
553,-783,0,0,0,0,0,0,0,0,0,-1,1777,1807,0,0
560,-783,0,0,0,0,0,0,0,0,0,-1,1784,1807,0,0
567,-783,0,0,0,0,0,0,0,0,0,-1,1791,1807,0,0
574,-783,0,0,0,0,0,0,0,0,0,-1,1798,1807,0,0
581,-783,0,0,0,0,0,0,0,0,0,-1,1805,1807,0,0
588,-783,0,0,0,0,0,0,0,0,0,-1,1812,1807,0,0
595,-783,0,0,0,0,0,0,0,0,0,-1,1819,1807,0,0
602,-783,0,0,0,0,0,0,0,0,0,-1,1826,1807,0,0
609,-783,0,0,0,0,0,0,0,0,0,-1,1833,1807,0,0
616,-783,0,0,0,0,0,0,0,0,0,-1,1840,1807,0,0
623,-783,0,0,0,0,0,0,0,0,0,-1,1847,1807,0,0
630,-783,0,0,0,0,0,0,0,0,0,-1,1854,1807,0,0
637,-783,0,0,0,0,0,0,0,0,0,-1,1861,1807,0,0
644,-783,0,0,0,0,0,0,0,0,0,-1,1868,1807,0,0
651,-783,0,0,0,0,0,0,0,0,0,-1,1875,1807,0,0
658,-783,0,0,0,0,0,0,0,0,0,-1,1882,1807,0,0
665,-783,0,0,0,0,0,0,0,0,0,-1,1889,1807,0,0
672,-783,0,0,0,0,0,0,0,0,0,-1,1896,1807,0,0
679,-783,0,0,0,0,0,0,0,0,0,-1,1903,1807,0,0
686,-783,0,0,0,0,0,0,0,0,0,-1,1910,1807,0,0
693,-783,0,0,0,0,0,0,0,0,0,-1,1917,1807,0,0
700,-783,0,0,0,0,0,0,0,0,0,-1,1924,1807,0,0
707,-783,0,0,0,0,0,0,0,0,0,-1,1931,1807,0,0
714,-783,0,0,0,0,0,0,0,0,0,-1,1938,1807,0,0
721,-783,0,0,0,0,0,0,0,0,0,-1,1945,1807,0,0
728,-783,0,0,0,0,0,0,0,0,0,-1,1952,1807,0,0
735,-783,0,0,0,0,0,0,0,0,0,-1,1959,1807,0,0
742,-783,0,0,0,0,0,0,0,0,0,-1,1966,1807,0,0
749,-783,0,0,0,0,0,0,0,0,0,-1,1973,1807,0,0
756,-783,0,0,0,0,0,0,0,0,0,-1,1980,1807,0,0
763,-783,0,0,0,0,0,0,0,0,0,-1,1987,1807,0,0
770,-783,0,0,0,0,0,0,0,0,0,-1,1994,1807,0,0
777,-783,0,0,0,0,0,0,0,0,0,-1,2001,1807,0,0
784,-783,0,0,0,0,0,0,0,0,0,-1,2008,1807,0,0
791,-783,0,0,0,0,0,0,0,0,0,-1,2015,1807,0,0
798,-783,0,0,0,0,0,0,0,0,0,-1,2022,1807,0,0
805,-783,0,0,0,0,0,0,0,0,0,-1,2029,1807,0,0
812,-783,0,0,0,0,0,0,0,0,0,-1,2036,1807,0,0
-700,-790,0,0,0,0,0,0,0,0,0,-1,524,1814,0,0
-693,-790,0,0,0,0,0,0,0,0,0,-1,531,1814,0,0
-686,-790,0,0,0,0,0,0,0,0,0,-1,538,1814,0,0
-679,-790,0,0,0,0,0,0,0,0,0,-1,545,1814,0,0
-672,-790,0,0,0,0,0,0,0,0,0,-1,552,1814,0,0
-665,-790,0,0,0,0,0,0,0,0,0,-1,559,1814,0,0
-658,-790,0,0,0,0,0,0,0,0,0,-1,566,1814,0,0
-651,-790,0,0,0,0,0,0,0,0,0,-1,573,1814,0,0
-644,-790,0,0,0,0,0,0,0,0,0,-1,580,1814,0,0
-637,-790,0,0,0,0,0,0,0,0,0,-1,587,1814,0,0
-630,-790,0,0,0,0,0,0,0,0,0,-1,594,1814,0,0
-623,-790,0,0,0,0,0,0,0,0,0,-1,601,1814,0,0
-616,-790,0,0,0,0,0,0,0,0,0,-1,608,1814,0,0
-609,-790,0,0,0,0,0,0,0,0,0,-1,615,1814,0,0
-602,-790,0,0,0,0,0,0,0,0,0,-1,622,1814,0,0
-595,-790,0,0,0,0,0,0,0,0,0,-1,629,1814,0,0
-588,-790,0,0,0,0,0,0,0,0,0,-1,636,1814,0,0
-581,-790,0,0,0,0,0,0,0,0,0,-1,643,1814,0,0
-574,-790,0,0,0,0,0,0,0,0,0,-1,650,1814,0,0
-567,-790,0,0,0,0,0,0,0,0,0,-1,657,1814,0,0
-560,-790,0,0,0,0,0,0,0,0,0,-1,664,1814,0,0
-553,-790,0,0,0,0,0,0,0,0,0,-1,671,1814,0,0
-546,-790,0,0,0,0,0,0,0,0,0,-1,678,1814,0,0
-539,-790,0,0,0,0,0,0,0,0,0,-1,685,1814,0,0
-532,-790,0,0,0,0,0,0,0,0,0,-1,692,1814,0,0
-525,-790,0,0,0,0,0,0,0,0,0,-1,699,1814,0,0
-518,-790,0,0,0,0,0,0,0,0,0,-1,706,1814,0,0
-511,-790,0,0,0,0,0,0,0,0,0,-1,713,1814,0,0
-504,-790,0,0,0,0,0,0,0,0,0,-1,720,1814,0,0
-497,-790,0,0,0,0,0,0,0,0,0,-1,727,1814,0,0
-490,-790,0,0,0,0,0,0,0,0,0,-1,734,1814,0,0
-483,-790,0,0,0,0,0,0,0,0,0,-1,741,1814,0,0
-476,-790,0,0,0,0,0,0,0,0,0,-1,748,1814,0,0
-469,-790,0,0,0,0,0,0,0,0,0,-1,755,1814,0,0
-462,-790,0,0,0,0,0,0,0,0,0,-1,762,1814,0,0
-455,-790,0,0,0,0,0,0,0,0,0,-1,769,1814,0,0
-448,-790,0,0,0,0,0,0,0,0,0,-1,776,1814,0,0
-441,-790,0,0,0,0,0,0,0,0,0,-1,783,1814,0,0
-434,-790,0,0,0,0,0,0,0,0,0,-1,790,1814,0,0
-427,-790,0,0,0,0,0,0,0,0,0,-1,797,1814,0,0
-420,-790,0,0,0,0,0,0,0,0,0,-1,804,1814,0,0
-413,-790,0,0,0,0,0,0,0,0,0,-1,811,1814,0,0
-406,-790,0,0,0,0,0,0,0,0,0,-1,818,1814,0,0
-399,-790,0,0,0,0,0,0,0,0,0,-1,825,1814,0,0
-392,-790,0,0,0,0,0,0,0,0,0,-1,832,1814,0,0
-385,-790,0,0,0,0,0,0,0,0,0,-1,839,1814,0,0
-378,-790,0,0,0,0,0,0,0,0,0,-1,846,1814,0,0
-371,-790,0,0,0,0,0,0,0,0,0,-1,853,1814,0,0
-364,-790,0,0,0,0,0,0,0,0,0,-1,860,1814,0,0
-357,-790,0,0,0,0,0,0,0,0,0,-1,867,1814,0,0
-350,-790,0,0,0,0,0,0,0,0,0,-1,874,1814,0,0
-343,-790,0,0,0,0,0,0,0,0,0,-1,881,1814,0,0
-336,-790,0,0,0,0,0,0,0,0,0,-1,888,1814,0,0
-329,-790,0,0,0,0,0,0,0,0,0,-1,895,1814,0,0
-322,-790,0,0,0,0,0,0,0,0,0,-1,902,1814,0,0
-315,-790,0,0,0,0,0,0,0,0,0,-1,909,1814,0,0
-308,-790,0,0,0,0,0,0,0,0,0,-1,916,1814,0,0
-301,-790,0,0,0,0,0,0,0,0,0,-1,923,1814,0,0
-294,-790,0,0,0,0,0,0,0,0,0,-1,930,1814,0,0
-287,-790,0,0,0,0,0,0,0,0,0,-1,937,1814,0,0
-280,-790,0,0,0,0,0,0,0,0,0,-1,944,1814,0,0
-273,-790,0,0,0,0,0,0,0,0,0,-1,951,1814,0,0
-266,-790,0,0,0,0,0,0,0,0,0,-1,958,1814,0,0
-259,-790,0,0,0,0,0,0,0,0,0,-1,965,1814,0,0
-252,-790,0,0,0,0,0,0,0,0,0,-1,972,1814,0,0
-245,-790,0,0,0,0,0,0,0,0,0,-1,979,1814,0,0
-238,-790,0,0,0,0,0,0,0,0,0,-1,986,1814,0,0
-231,-790,0,0,0,0,0,0,0,0,0,-1,993,1814,0,0
-224,-790,0,0,0,0,0,0,0,0,0,-1,1000,1814,0,0
-217,-790,0,0,0,0,0,0,0,0,0,-1,1007,1814,0,0
-210,-790,0,0,0,0,0,0,0,0,0,-1,1014,1814,0,0
-203,-790,0,0,0,0,0,0,0,0,0,-1,1021,1814,0,0
-196,-790,0,0,0,0,0,0,0,0,0,-1,1028,1814,0,0
-189,-790,0,0,0,0,0,0,0,0,0,-1,1035,1814,0,0
-182,-790,0,0,0,0,0,0,0,0,0,-1,1042,1814,0,0
-175,-790,0,0,0,0,0,0,0,0,0,-1,1049,1814,0,0
-168,-790,0,0,0,0,0,0,0,0,0,-1,1056,1814,0,0
-161,-790,0,0,0,0,0,0,0,0,0,-1,1063,1814,0,0
-154,-790,0,0,0,0,0,0,0,0,0,-1,1070,1814,0,0
-147,-790,0,0,0,0,0,0,0,0,0,-1,1077,1814,0,0
-140,-790,0,0,0,0,0,0,0,0,0,-1,1084,1814,0,0
-133,-790,0,0,0,0,0,0,0,0,0,-1,1091,1814,0,0
-126,-790,0,0,0,0,0,0,0,0,0,-1,1098,1814,0,0
-119,-790,0,0,0,0,0,0,0,0,0,-1,1105,1814,0,0
-112,-790,0,0,0,0,0,0,0,0,0,-1,1112,1814,0,0
-105,-790,0,0,0,0,0,0,0,0,0,-1,1119,1814,0,0
-98,-790,0,0,0,0,0,0,0,0,0,-1,1126,1814,0,0
-91,-790,0,0,0,0,0,0,0,0,0,-1,1133,1814,0,0
-84,-790,0,0,0,0,0,0,0,0,0,-1,1140,1814,0,0
-77,-790,-0.969238,5.30847,0,0,0,0,0,0,0,-1,1147,1814,-0.969277,-5.3085
-70,-790,-1.23169,4.98914,0,0,0,0,0,0,0,-1,1154,1814,-1.23163,-4.98916
-63,-790,-1.69128,4.32263,0,0,0,0,0,0,0,-1,1161,1814,-1.69128,-4.32258
-56,-790,-2.24756,3.75305,0,0,0,0,0,0,0,-1,1168,1814,-2.24758,-3.75302
-49,-790,-3.11011,3.35779,0,0,0,0,0,0,0,-1,1175,1814,-3.11006,-3.35781
-42,-790,0.593262,1.19165,0,0,0,0,0,0,0,-1,1182,1814,0.593225,-1.19165
-35,-790,0.307129,-0.20105,0,0,0,0,0,0,0,-1,1189,1814,0.307178,0.201006
-28,-790,-2.78467,0.785156,0,0,0,0,0,0,0,-1,1196,1814,-2.78471,-0.785183
-21,-790,3.42065,24.9088,0,0,0,0,0,0,0,-1,1203,1814,3.42071,-24.9088
-14,-790,4.31201,24.1874,0.0903374,0.0363144,-0.0152487,0.0943443,0.0323074,-0.256964,0.0553638,0.0451449,1210,1814,4.31203,-24.1874
-7,-790,5.11853,23.1929,0,0,0,0,0,0,0,-1,1217,1814,5.11855,-23.1928
0,-790,5.69836,22.6648,0.0648399,0.0269348,-0.00843123,0.0666306,0.025144,-0.209286,0.038853,0.0460106,1224,1814,5.69838,-22.6648
7,-790,5.61365,23.3219,0.052183,0.024649,-0.00923806,0.0549953,0.0218367,-0.295508,0.031975,0.0450796,1231,1814,5.61363,-23.3219
14,-790,6.21667,23.4882,0.0395874,0.0233886,-0.011294,0.045386,0.01759,-0.474328,0.0264235,0.045481,1238,1814,6.2167,-23.4882
21,-790,6.66479,23.5933,0,0,0,0,0,0,0,-1,1245,1814,6.66477,-23.5933
28,-790,8.62341,23.4663,0,0,0,0,0,0,0,-1,1252,1814,8.62342,-23.4663
35,-790,5.96472,23.8898,0,0,0,0,0,0,0,-1,1259,1814,5.96473,-23.8898
42,-790,6.06189,23.5276,0.000788572,0.0213551,-0.0193457,0.0329808,-0.0108372,-1.02968,0.0263531,0.043359,1266,1814,6.06184,-23.5276
49,-790,6.17078,23.1393,-0.00514773,0.0198273,-0.021716,0.0323902,-0.0177106,-1.04633,0.0293366,0.0463788,1273,1814,6.17077,-23.1393
56,-790,6.38721,22.8307,-0.0107549,0.0161725,-0.0243328,0.030518,-0.0251005,-1.03809,0.0321621,0.0463363,1280,1814,6.38721,-22.8307
63,-790,6.20447,22.4225,-0.0159058,0.0114397,-0.0265982,0.0276737,-0.0321397,-1.02281,0.0345653,0.0431861,1287,1814,6.20446,-22.4225
70,-790,6.01172,21.9816,-0.0189402,0.00989662,-0.0292966,0.0281306,-0.0371743,-1.01407,0.0378241,0.0405389,1294,1814,6.01176,-21.9816
77,-790,5.86255,21.0955,-0.0184206,0.00594659,-0.0338204,0.029711,-0.042185,-0.958284,0.0417169,0.044945,1301,1814,5.8625,-21.0955
84,-790,5.71375,20.4691,0,0,0,0,0,0,0,-1,1308,1814,5.71374,-20.4691
91,-790,5.5238,19.7628,-0.0168394,-0.00536099,-0.0429253,0.0322071,-0.0544075,-0.851855,0.0505515,0.0472964,1315,1814,5.52383,-19.7628
98,-790,5.09326,19.2837,-0.0159328,-0.0112942,-0.0472385,0.0336819,-0.0609088,-0.809927,0.055361,0.0461439,1322,1814,5.09325,-19.2837
105,-790,4.92847,18.8943,-0.0137682,-0.016544,-0.0523357,0.037198,-0.0675102,-0.772142,0.0612919,0.0480582,1329,1814,4.9285,-18.8943
112,-790,4.69775,18.8342,-0.0100323,-0.0212366,-0.0577402,0.0423769,-0.0736458,-0.737038,0.0677918,0.0461577,1336,1814,4.69775,-18.8342
119,-790,4.5033,18.6812,-0.00540062,-0.0257318,-0.0620217,0.0472831,-0.0784155,-0.704168,0.0733103,0.0448763,1343,1814,4.50331,-18.6811
126,-790,4.08374,18.4413,-0.00107413,-0.0321444,-0.0635604,0.0488222,-0.0820407,-0.665541,0.0763608,0.0480713,1350,1814,4.08369,-18.4412
133,-790,3.87683,18.1954,0,0,0,0,0,0,0,-1,1357,1814,3.87683,-18.1954
140,-790,3.83313,18.1495,0,0,0,0,0,0,0,-1,1364,1814,3.83309,-18.1495
147,-790,3.46777,17.6345,0,0,0,0,0,0,0,-1,1371,1814,3.46772,-17.6345
154,-790,23.2634,12.1936,0,0,0,0,0,0,0,-1,1378,1814,23.2634,-12.1935
161,-790,26.6003,11.7516,0,0,0,0,0,0,0,-1,1385,1814,26.6004,-11.7516
168,-790,7.04077,2.23279,0,0,0,0,0,0,0,-1,1392,1814,7.04082,-2.23275
175,-790,9.03918,3.98535,0,0,0,0,0,0,0,-1,1399,1814,9.0392,-3.98535
182,-790,8.96997,5.67896,0,0,0,0,0,0,0,-1,1406,1814,8.97001,-5.6789
189,-790,8.59729,6.86975,0,0,0,0,0,0,0,-1,1413,1814,8.59728,-6.86972
196,-790,8.21924,9.29053,0,0,0,0,0,0,0,-1,1420,1814,8.21924,-9.29048
203,-790,0,0,0,0,0,0,0,0,0,-1,1427,1814,0,0
210,-790,0,0,0,0,0,0,0,0,0,-1,1434,1814,0,0
217,-790,0,0,0,0,0,0,0,0,0,-1,1441,1814,0,0
224,-790,0,0,0,0,0,0,0,0,0,-1,1448,1814,0,0
231,-790,0,0,0,0,0,0,0,0,0,-1,1455,1814,0,0
238,-790,0,0,0,0,0,0,0,0,0,-1,1462,1814,0,0
245,-790,0,0,0,0,0,0,0,0,0,-1,1469,1814,0,0
252,-790,0,0,0,0,0,0,0,0,0,-1,1476,1814,0,0
259,-790,0,0,0,0,0,0,0,0,0,-1,1483,1814,0,0
266,-790,0,0,0,0,0,0,0,0,0,-1,1490,1814,0,0
273,-790,0,0,0,0,0,0,0,0,0,-1,1497,1814,0,0
280,-790,0,0,0,0,0,0,0,0,0,-1,1504,1814,0,0
287,-790,0,0,0,0,0,0,0,0,0,-1,1511,1814,0,0
294,-790,0,0,0,0,0,0,0,0,0,-1,1518,1814,0,0
301,-790,0,0,0,0,0,0,0,0,0,-1,1525,1814,0,0
308,-790,0,0,0,0,0,0,0,0,0,-1,1532,1814,0,0
315,-790,0,0,0,0,0,0,0,0,0,-1,1539,1814,0,0
322,-790,0,0,0,0,0,0,0,0,0,-1,1546,1814,0,0
329,-790,0,0,0,0,0,0,0,0,0,-1,1553,1814,0,0
336,-790,0,0,0,0,0,0,0,0,0,-1,1560,1814,0,0
343,-790,0,0,0,0,0,0,0,0,0,-1,1567,1814,0,0
350,-790,0,0,0,0,0,0,0,0,0,-1,1574,1814,0,0
357,-790,0,0,0,0,0,0,0,0,0,-1,1581,1814,0,0
364,-790,0,0,0,0,0,0,0,0,0,-1,1588,1814,0,0
371,-790,0,0,0,0,0,0,0,0,0,-1,1595,1814,0,0
378,-790,0,0,0,0,0,0,0,0,0,-1,1602,1814,0,0
385,-790,0,0,0,0,0,0,0,0,0,-1,1609,1814,0,0
392,-790,0,0,0,0,0,0,0,0,0,-1,1616,1814,0,0
399,-790,0,0,0,0,0,0,0,0,0,-1,1623,1814,0,0
406,-790,0,0,0,0,0,0,0,0,0,-1,1630,1814,0,0
413,-790,0,0,0,0,0,0,0,0,0,-1,1637,1814,0,0
420,-790,0,0,0,0,0,0,0,0,0,-1,1644,1814,0,0
427,-790,0,0,0,0,0,0,0,0,0,-1,1651,1814,0,0
434,-790,0,0,0,0,0,0,0,0,0,-1,1658,1814,0,0
441,-790,0,0,0,0,0,0,0,0,0,-1,1665,1814,0,0
448,-790,0,0,0,0,0,0,0,0,0,-1,1672,1814,0,0
455,-790,0,0,0,0,0,0,0,0,0,-1,1679,1814,0,0
462,-790,0,0,0,0,0,0,0,0,0,-1,1686,1814,0,0
469,-790,0,0,0,0,0,0,0,0,0,-1,1693,1814,0,0
476,-790,0,0,0,0,0,0,0,0,0,-1,1700,1814,0,0
483,-790,0,0,0,0,0,0,0,0,0,-1,1707,1814,0,0
490,-790,0,0,0,0,0,0,0,0,0,-1,1714,1814,0,0
497,-790,0,0,0,0,0,0,0,0,0,-1,1721,1814,0,0
504,-790,0,0,0,0,0,0,0,0,0,-1,1728,1814,0,0
511,-790,0,0,0,0,0,0,0,0,0,-1,1735,1814,0,0
518,-790,0,0,0,0,0,0,0,0,0,-1,1742,1814,0,0
525,-790,0,0,0,0,0,0,0,0,0,-1,1749,1814,0,0
532,-790,0,0,0,0,0,0,0,0,0,-1,1756,1814,0,0
539,-790,0,0,0,0,0,0,0,0,0,-1,1763,1814,0,0
546,-790,0,0,0,0,0,0,0,0,0,-1,1770,1814,0,0
553,-790,0,0,0,0,0,0,0,0,0,-1,1777,1814,0,0
560,-790,0,0,0,0,0,0,0,0,0,-1,1784,1814,0,0
567,-790,0,0,0,0,0,0,0,0,0,-1,1791,1814,0,0
574,-790,0,0,0,0,0,0,0,0,0,-1,1798,1814,0,0
581,-790,0,0,0,0,0,0,0,0,0,-1,1805,1814,0,0
588,-790,0,0,0,0,0,0,0,0,0,-1,1812,1814,0,0
595,-790,0,0,0,0,0,0,0,0,0,-1,1819,1814,0,0
602,-790,0,0,0,0,0,0,0,0,0,-1,1826,1814,0,0
609,-790,0,0,0,0,0,0,0,0,0,-1,1833,1814,0,0
616,-790,0,0,0,0,0,0,0,0,0,-1,1840,1814,0,0
623,-790,0,0,0,0,0,0,0,0,0,-1,1847,1814,0,0
630,-790,0,0,0,0,0,0,0,0,0,-1,1854,1814,0,0
637,-790,0,0,0,0,0,0,0,0,0,-1,1861,1814,0,0
644,-790,0,0,0,0,0,0,0,0,0,-1,1868,1814,0,0
651,-790,0,0,0,0,0,0,0,0,0,-1,1875,1814,0,0
658,-790,0,0,0,0,0,0,0,0,0,-1,1882,1814,0,0
665,-790,0,0,0,0,0,0,0,0,0,-1,1889,1814,0,0
672,-790,0,0,0,0,0,0,0,0,0,-1,1896,1814,0,0
679,-790,0,0,0,0,0,0,0,0,0,-1,1903,1814,0,0
686,-790,0,0,0,0,0,0,0,0,0,-1,1910,1814,0,0
693,-790,0,0,0,0,0,0,0,0,0,-1,1917,1814,0,0
700,-790,0,0,0,0,0,0,0,0,0,-1,1924,1814,0,0
707,-790,0,0,0,0,0,0,0,0,0,-1,1931,1814,0,0
714,-790,0,0,0,0,0,0,0,0,0,-1,1938,1814,0,0
721,-790,0,0,0,0,0,0,0,0,0,-1,1945,1814,0,0
728,-790,0,0,0,0,0,0,0,0,0,-1,1952,1814,0,0
735,-790,0,0,0,0,0,0,0,0,0,-1,1959,1814,0,0
742,-790,0,0,0,0,0,0,0,0,0,-1,1966,1814,0,0
749,-790,0,0,0,0,0,0,0,0,0,-1,1973,1814,0,0
756,-790,0,0,0,0,0,0,0,0,0,-1,1980,1814,0,0
763,-790,0,0,0,0,0,0,0,0,0,-1,1987,1814,0,0
770,-790,0,0,0,0,0,0,0,0,0,-1,1994,1814,0,0
777,-790,0,0,0,0,0,0,0,0,0,-1,2001,1814,0,0
784,-790,0,0,0,0,0,0,0,0,0,-1,2008,1814,0,0
791,-790,0,0,0,0,0,0,0,0,0,-1,2015,1814,0,0
798,-790,0,0,0,0,0,0,0,0,0,-1,2022,1814,0,0
805,-790,0,0,0,0,0,0,0,0,0,-1,2029,1814,0,0
812,-790,0,0,0,0,0,0,0,0,0,-1,2036,1814,0,0
-700,-797,0,0,0,0,0,0,0,0,0,-1,524,1821,0,0
-693,-797,0,0,0,0,0,0,0,0,0,-1,531,1821,0,0
-686,-797,0,0,0,0,0,0,0,0,0,-1,538,1821,0,0
-679,-797,0,0,0,0,0,0,0,0,0,-1,545,1821,0,0
-672,-797,0,0,0,0,0,0,0,0,0,-1,552,1821,0,0
-665,-797,0,0,0,0,0,0,0,0,0,-1,559,1821,0,0
-658,-797,0,0,0,0,0,0,0,0,0,-1,566,1821,0,0
-651,-797,0,0,0,0,0,0,0,0,0,-1,573,1821,0,0
-644,-797,0,0,0,0,0,0,0,0,0,-1,580,1821,0,0
-637,-797,0,0,0,0,0,0,0,0,0,-1,587,1821,0,0
-630,-797,0,0,0,0,0,0,0,0,0,-1,594,1821,0,0
-623,-797,0,0,0,0,0,0,0,0,0,-1,601,1821,0,0
-616,-797,0,0,0,0,0,0,0,0,0,-1,608,1821,0,0
-609,-797,0,0,0,0,0,0,0,0,0,-1,615,1821,0,0
-602,-797,0,0,0,0,0,0,0,0,0,-1,622,1821,0,0
-595,-797,0,0,0,0,0,0,0,0,0,-1,629,1821,0,0
-588,-797,0,0,0,0,0,0,0,0,0,-1,636,1821,0,0
-581,-797,0,0,0,0,0,0,0,0,0,-1,643,1821,0,0
-574,-797,0,0,0,0,0,0,0,0,0,-1,650,1821,0,0
-567,-797,0,0,0,0,0,0,0,0,0,-1,657,1821,0,0
-560,-797,0,0,0,0,0,0,0,0,0,-1,664,1821,0,0
-553,-797,0,0,0,0,0,0,0,0,0,-1,671,1821,0,0
-546,-797,0,0,0,0,0,0,0,0,0,-1,678,1821,0,0
-539,-797,0,0,0,0,0,0,0,0,0,-1,685,1821,0,0
-532,-797,0,0,0,0,0,0,0,0,0,-1,692,1821,0,0
-525,-797,0,0,0,0,0,0,0,0,0,-1,699,1821,0,0
-518,-797,0,0,0,0,0,0,0,0,0,-1,706,1821,0,0
-511,-797,0,0,0,0,0,0,0,0,0,-1,713,1821,0,0
-504,-797,0,0,0,0,0,0,0,0,0,-1,720,1821,0,0
-497,-797,0,0,0,0,0,0,0,0,0,-1,727,1821,0,0
-490,-797,0,0,0,0,0,0,0,0,0,-1,734,1821,0,0
-483,-797,0,0,0,0,0,0,0,0,0,-1,741,1821,0,0
-476,-797,0,0,0,0,0,0,0,0,0,-1,748,1821,0,0
-469,-797,0,0,0,0,0,0,0,0,0,-1,755,1821,0,0
-462,-797,0,0,0,0,0,0,0,0,0,-1,762,1821,0,0
-455,-797,0,0,0,0,0,0,0,0,0,-1,769,1821,0,0
-448,-797,0,0,0,0,0,0,0,0,0,-1,776,1821,0,0
-441,-797,0,0,0,0,0,0,0,0,0,-1,783,1821,0,0
-434,-797,0,0,0,0,0,0,0,0,0,-1,790,1821,0,0
-427,-797,0,0,0,0,0,0,0,0,0,-1,797,1821,0,0
-420,-797,0,0,0,0,0,0,0,0,0,-1,804,1821,0,0
-413,-797,0,0,0,0,0,0,0,0,0,-1,811,1821,0,0
-406,-797,0,0,0,0,0,0,0,0,0,-1,818,1821,0,0
-399,-797,0,0,0,0,0,0,0,0,0,-1,825,1821,0,0
-392,-797,0,0,0,0,0,0,0,0,0,-1,832,1821,0,0
-385,-797,0,0,0,0,0,0,0,0,0,-1,839,1821,0,0
-378,-797,0,0,0,0,0,0,0,0,0,-1,846,1821,0,0
-371,-797,0,0,0,0,0,0,0,0,0,-1,853,1821,0,0
-364,-797,0,0,0,0,0,0,0,0,0,-1,860,1821,0,0
-357,-797,0,0,0,0,0,0,0,0,0,-1,867,1821,0,0
-350,-797,0,0,0,0,0,0,0,0,0,-1,874,1821,0,0
-343,-797,0,0,0,0,0,0,0,0,0,-1,881,1821,0,0
-336,-797,0,0,0,0,0,0,0,0,0,-1,888,1821,0,0
-329,-797,0,0,0,0,0,0,0,0,0,-1,895,1821,0,0
-322,-797,0,0,0,0,0,0,0,0,0,-1,902,1821,0,0
-315,-797,0,0,0,0,0,0,0,0,0,-1,909,1821,0,0
-308,-797,0,0,0,0,0,0,0,0,0,-1,916,1821,0,0
-301,-797,0,0,0,0,0,0,0,0,0,-1,923,1821,0,0
-294,-797,0,0,0,0,0,0,0,0,0,-1,930,1821,0,0
-287,-797,0,0,0,0,0,0,0,0,0,-1,937,1821,0,0
-280,-797,0,0,0,0,0,0,0,0,0,-1,944,1821,0,0
-273,-797,0,0,0,0,0,0,0,0,0,-1,951,1821,0,0
-266,-797,0,0,0,0,0,0,0,0,0,-1,958,1821,0,0
-259,-797,0,0,0,0,0,0,0,0,0,-1,965,1821,0,0
-252,-797,0,0,0,0,0,0,0,0,0,-1,972,1821,0,0
-245,-797,0,0,0,0,0,0,0,0,0,-1,979,1821,0,0
-238,-797,0,0,0,0,0,0,0,0,0,-1,986,1821,0,0
-231,-797,0,0,0,0,0,0,0,0,0,-1,993,1821,0,0
-224,-797,0,0,0,0,0,0,0,0,0,-1,1000,1821,0,0
-217,-797,0,0,0,0,0,0,0,0,0,-1,1007,1821,0,0
-210,-797,0,0,0,0,0,0,0,0,0,-1,1014,1821,0,0
-203,-797,0,0,0,0,0,0,0,0,0,-1,1021,1821,0,0
-196,-797,0,0,0,0,0,0,0,0,0,-1,1028,1821,0,0
-189,-797,0,0,0,0,0,0,0,0,0,-1,1035,1821,0,0
-182,-797,0,0,0,0,0,0,0,0,0,-1,1042,1821,0,0
-175,-797,0,0,0,0,0,0,0,0,0,-1,1049,1821,0,0
-168,-797,0,0,0,0,0,0,0,0,0,-1,1056,1821,0,0
-161,-797,0,0,0,0,0,0,0,0,0,-1,1063,1821,0,0
-154,-797,0,0,0,0,0,0,0,0,0,-1,1070,1821,0,0
-147,-797,0,0,0,0,0,0,0,0,0,-1,1077,1821,0,0
-140,-797,0,0,0,0,0,0,0,0,0,-1,1084,1821,0,0
-133,-797,0,0,0,0,0,0,0,0,0,-1,1091,1821,0,0
-126,-797,0,0,0,0,0,0,0,0,0,-1,1098,1821,0,0
-119,-797,0,0,0,0,0,0,0,0,0,-1,1105,1821,0,0
-112,-797,0,0,0,0,0,0,0,0,0,-1,1112,1821,0,0
-105,-797,0,0,0,0,0,0,0,0,0,-1,1119,1821,0,0
-98,-797,0,0,0,0,0,0,0,0,0,-1,1126,1821,0,0
-91,-797,0,0,0,0,0,0,0,0,0,-1,1133,1821,0,0
-84,-797,0,0,0,0,0,0,0,0,0,-1,1140,1821,0,0
-77,-797,0,0,0,0,0,0,0,0,0,-1,1147,1821,0,0
-70,-797,0,0,0,0,0,0,0,0,0,-1,1154,1821,0,0
-63,-797,0,0,0,0,0,0,0,0,0,-1,1161,1821,0,0
-56,-797,0,0,0,0,0,0,0,0,0,-1,1168,1821,0,0
-49,-797,0,0,0,0,0,0,0,0,0,-1,1175,1821,0,0
-42,-797,0.579834,0.692871,0,0,0,0,0,0,0,-1,1182,1821,0.579856,-0.692816
-35,-797,-0.185425,5.55396,0,0,0,0,0,0,0,-1,1189,1821,-0.18542,-5.55396
-28,-797,-0.310181,4.71509,0,0,0,0,0,0,0,-1,1196,1821,-0.310228,-4.71503
-21,-797,3.30872,24.6014,0,0,0,0,0,0,0,-1,1203,1821,3.30876,-24.6014
-14,-797,4.77686,23.8301,0,0,0,0,0,0,0,-1,1210,1821,4.77689,-23.8301
-7,-797,5.76917,22.7238,0,0,0,0,0,0,0,-1,1217,1821,5.76918,-22.7238
0,-797,6.33032,22.3391,0,0,0,0,0,0,0,-1,1224,1821,6.33029,-22.3391
7,-797,5.59253,23.3562,0,0,0,0,0,0,0,-1,1231,1821,5.59257,-23.3562
14,-797,6.19519,23.5885,0,0,0,0,0,0,0,-1,1238,1821,6.19515,-23.5885
21,-797,9.86011,18.2382,0,0,0,0,0,0,0,-1,1245,1821,9.86007,-18.2381
28,-797,9.66174,18.908,0,0,0,0,0,0,0,-1,1252,1821,9.66172,-18.908
35,-797,6.18994,23.5032,0,0,0,0,0,0,0,-1,1259,1821,6.18998,-23.5032
42,-797,6.2439,23.1417,-0.000658379,0.0258525,-0.0244836,0.0404386,-0.0152445,-1.03351,0.0332274,0.0482496,1266,1821,6.24389,-23.1418
49,-797,6.36206,22.8644,-0.0078102,0.0234415,-0.0269248,0.0389462,-0.0233149,-1.04832,0.0363221,0.0477315,1273,1821,6.36212,-22.8644
56,-797,6.46094,22.6176,-0.0143154,0.0185365,-0.029533,0.0359042,-0.0316831,-1.03919,0.0390469,0.0451669,1280,1821,6.46097,-22.6176
63,-797,6.16211,22.2551,-0.0204137,0.0122891,-0.0318354,0.0317268,-0.0398514,-1.02264,0.0414143,0.0420034,1287,1821,6.16212,-22.2551
70,-797,5.83081,21.6735,-0.0246672,0.00718586,-0.0337867,0.0286117,-0.046093,-1.00564,0.0435226,0.0413011,1294,1821,5.83076,-21.6734
77,-797,5.60034,21.1401,-0.0257462,-0.00271401,-0.0368457,0.0243733,-0.0528335,-0.936863,0.0455737,0.0445053,1301,1821,5.60037,-21.1402
84,-797,5.37048,20.5935,0,0,0,0,0,0,0,-1,1308,1821,5.37047,-20.5936
91,-797,5.88965,20.0897,-0.0263811,-0.0234969,-0.0442985,0.0193829,-0.0692609,-0.80167,0.0538114,0.0456122,1315,1821,5.88966,-20.0898
98,-797,5.71777,19.845,-0.0266292,-0.035218,-0.0474114,0.0166819,-0.0785291,-0.740233,0.0587088,0.0436108,1322,1821,5.7178,-19.845
105,-797,5.57385,19.5247,-0.0255563,-0.0464355,-0.0512732,0.0163292,-0.0883211,-0.684968,0.065011,0.0443607,1329,1821,5.57381,-19.5246
112,-797,4.90186,19.209,-0.0227953,-0.0571573,-0.0554214,0.0180472,-0.0979997,-0.635092,0.0721057,0.0463925,1336,1821,4.90182,-19.209
119,-797,4.276,18.7227,-0.0189229,-0.0675708,-0.0581463,0.0197821,-0.106276,-0.587297,0.0782822,0.0452808,1343,1821,4.27603,-18.7227
126,-797,4.28882,19.5546,-0.0149028,-0.0798445,-0.0577488,0.018878,-0.113625,-0.529288,0.0827636,0.0488527,1350,1821,4.28888,-19.5546
133,-797,4.13733,19.2566,0,0,0,0,0,0,0,-1,1357,1821,4.13738,-19.2566
140,-797,4.14685,19.0415,0,0,0,0,0,0,0,-1,1364,1821,4.14689,-19.0415
147,-797,4.12708,18.7543,0,0,0,0,0,0,0,-1,1371,1821,4.12706,-18.7543
154,-797,23.5768,10.127,0,0,0,0,0,0,0,-1,1378,1821,23.5768,-10.127
161,-797,26.8167,9.64282,0,0,0,0,0,0,0,-1,1385,1821,26.8166,-9.64281
168,-797,0,0,0,0,0,0,0,0,0,-1,1392,1821,0,0
175,-797,0,0,0,0,0,0,0,0,0,-1,1399,1821,0,0
182,-797,0,0,0,0,0,0,0,0,0,-1,1406,1821,0,0
189,-797,0,0,0,0,0,0,0,0,0,-1,1413,1821,0,0
196,-797,0,0,0,0,0,0,0,0,0,-1,1420,1821,0,0
203,-797,0,0,0,0,0,0,0,0,0,-1,1427,1821,0,0
210,-797,0,0,0,0,0,0,0,0,0,-1,1434,1821,0,0
217,-797,0,0,0,0,0,0,0,0,0,-1,1441,1821,0,0
224,-797,0,0,0,0,0,0,0,0,0,-1,1448,1821,0,0
231,-797,0,0,0,0,0,0,0,0,0,-1,1455,1821,0,0
238,-797,0,0,0,0,0,0,0,0,0,-1,1462,1821,0,0
245,-797,0,0,0,0,0,0,0,0,0,-1,1469,1821,0,0
252,-797,0,0,0,0,0,0,0,0,0,-1,1476,1821,0,0
259,-797,0,0,0,0,0,0,0,0,0,-1,1483,1821,0,0
266,-797,0,0,0,0,0,0,0,0,0,-1,1490,1821,0,0
273,-797,0,0,0,0,0,0,0,0,0,-1,1497,1821,0,0
280,-797,0,0,0,0,0,0,0,0,0,-1,1504,1821,0,0
287,-797,0,0,0,0,0,0,0,0,0,-1,1511,1821,0,0
294,-797,0,0,0,0,0,0,0,0,0,-1,1518,1821,0,0
301,-797,0,0,0,0,0,0,0,0,0,-1,1525,1821,0,0
308,-797,0,0,0,0,0,0,0,0,0,-1,1532,1821,0,0
315,-797,0,0,0,0,0,0,0,0,0,-1,1539,1821,0,0
322,-797,0,0,0,0,0,0,0,0,0,-1,1546,1821,0,0
329,-797,0,0,0,0,0,0,0,0,0,-1,1553,1821,0,0
336,-797,0,0,0,0,0,0,0,0,0,-1,1560,1821,0,0
343,-797,0,0,0,0,0,0,0,0,0,-1,1567,1821,0,0
350,-797,0,0,0,0,0,0,0,0,0,-1,1574,1821,0,0
357,-797,0,0,0,0,0,0,0,0,0,-1,1581,1821,0,0
364,-797,0,0,0,0,0,0,0,0,0,-1,1588,1821,0,0
371,-797,0,0,0,0,0,0,0,0,0,-1,1595,1821,0,0
378,-797,0,0,0,0,0,0,0,0,0,-1,1602,1821,0,0
385,-797,0,0,0,0,0,0,0,0,0,-1,1609,1821,0,0
392,-797,0,0,0,0,0,0,0,0,0,-1,1616,1821,0,0
399,-797,0,0,0,0,0,0,0,0,0,-1,1623,1821,0,0
406,-797,0,0,0,0,0,0,0,0,0,-1,1630,1821,0,0
413,-797,0,0,0,0,0,0,0,0,0,-1,1637,1821,0,0
420,-797,0,0,0,0,0,0,0,0,0,-1,1644,1821,0,0
427,-797,0,0,0,0,0,0,0,0,0,-1,1651,1821,0,0
434,-797,0,0,0,0,0,0,0,0,0,-1,1658,1821,0,0
441,-797,0,0,0,0,0,0,0,0,0,-1,1665,1821,0,0
448,-797,0,0,0,0,0,0,0,0,0,-1,1672,1821,0,0
455,-797,0,0,0,0,0,0,0,0,0,-1,1679,1821,0,0
462,-797,0,0,0,0,0,0,0,0,0,-1,1686,1821,0,0
469,-797,0,0,0,0,0,0,0,0,0,-1,1693,1821,0,0
476,-797,0,0,0,0,0,0,0,0,0,-1,1700,1821,0,0
483,-797,0,0,0,0,0,0,0,0,0,-1,1707,1821,0,0
490,-797,0,0,0,0,0,0,0,0,0,-1,1714,1821,0,0
497,-797,0,0,0,0,0,0,0,0,0,-1,1721,1821,0,0
504,-797,0,0,0,0,0,0,0,0,0,-1,1728,1821,0,0
511,-797,0,0,0,0,0,0,0,0,0,-1,1735,1821,0,0
518,-797,0,0,0,0,0,0,0,0,0,-1,1742,1821,0,0
525,-797,0,0,0,0,0,0,0,0,0,-1,1749,1821,0,0
532,-797,0,0,0,0,0,0,0,0,0,-1,1756,1821,0,0
539,-797,0,0,0,0,0,0,0,0,0,-1,1763,1821,0,0
546,-797,0,0,0,0,0,0,0,0,0,-1,1770,1821,0,0
553,-797,0,0,0,0,0,0,0,0,0,-1,1777,1821,0,0
560,-797,0,0,0,0,0,0,0,0,0,-1,1784,1821,0,0
567,-797,0,0,0,0,0,0,0,0,0,-1,1791,1821,0,0
574,-797,0,0,0,0,0,0,0,0,0,-1,1798,1821,0,0
581,-797,0,0,0,0,0,0,0,0,0,-1,1805,1821,0,0
588,-797,0,0,0,0,0,0,0,0,0,-1,1812,1821,0,0
595,-797,0,0,0,0,0,0,0,0,0,-1,1819,1821,0,0
602,-797,0,0,0,0,0,0,0,0,0,-1,1826,1821,0,0
609,-797,0,0,0,0,0,0,0,0,0,-1,1833,1821,0,0
616,-797,0,0,0,0,0,0,0,0,0,-1,1840,1821,0,0
623,-797,0,0,0,0,0,0,0,0,0,-1,1847,1821,0,0
630,-797,0,0,0,0,0,0,0,0,0,-1,1854,1821,0,0
637,-797,0,0,0,0,0,0,0,0,0,-1,1861,1821,0,0
644,-797,0,0,0,0,0,0,0,0,0,-1,1868,1821,0,0
651,-797,0,0,0,0,0,0,0,0,0,-1,1875,1821,0,0
658,-797,0,0,0,0,0,0,0,0,0,-1,1882,1821,0,0
665,-797,0,0,0,0,0,0,0,0,0,-1,1889,1821,0,0
672,-797,0,0,0,0,0,0,0,0,0,-1,1896,1821,0,0
679,-797,0,0,0,0,0,0,0,0,0,-1,1903,1821,0,0
686,-797,0,0,0,0,0,0,0,0,0,-1,1910,1821,0,0
693,-797,0,0,0,0,0,0,0,0,0,-1,1917,1821,0,0
700,-797,0,0,0,0,0,0,0,0,0,-1,1924,1821,0,0
707,-797,0,0,0,0,0,0,0,0,0,-1,1931,1821,0,0
714,-797,0,0,0,0,0,0,0,0,0,-1,1938,1821,0,0
721,-797,0,0,0,0,0,0,0,0,0,-1,1945,1821,0,0
728,-797,0,0,0,0,0,0,0,0,0,-1,1952,1821,0,0
735,-797,0,0,0,0,0,0,0,0,0,-1,1959,1821,0,0
742,-797,0,0,0,0,0,0,0,0,0,-1,1966,1821,0,0
749,-797,0,0,0,0,0,0,0,0,0,-1,1973,1821,0,0
756,-797,0,0,0,0,0,0,0,0,0,-1,1980,1821,0,0
763,-797,0,0,0,0,0,0,0,0,0,-1,1987,1821,0,0
770,-797,0,0,0,0,0,0,0,0,0,-1,1994,1821,0,0
777,-797,0,0,0,0,0,0,0,0,0,-1,2001,1821,0,0
784,-797,0,0,0,0,0,0,0,0,0,-1,2008,1821,0,0
791,-797,0,0,0,0,0,0,0,0,0,-1,2015,1821,0,0
798,-797,0,0,0,0,0,0,0,0,0,-1,2022,1821,0,0
805,-797,0,0,0,0,0,0,0,0,0,-1,2029,1821,0,0
812,-797,0,0,0,0,0,0,0,0,0,-1,2036,1821,0,0
-700,-804,0,0,0,0,0,0,0,0,0,-1,524,1828,0,0
-693,-804,0,0,0,0,0,0,0,0,0,-1,531,1828,0,0
-686,-804,0,0,0,0,0,0,0,0,0,-1,538,1828,0,0
-679,-804,0,0,0,0,0,0,0,0,0,-1,545,1828,0,0
-672,-804,0,0,0,0,0,0,0,0,0,-1,552,1828,0,0
-665,-804,0,0,0,0,0,0,0,0,0,-1,559,1828,0,0
-658,-804,0,0,0,0,0,0,0,0,0,-1,566,1828,0,0
-651,-804,0,0,0,0,0,0,0,0,0,-1,573,1828,0,0
-644,-804,0,0,0,0,0,0,0,0,0,-1,580,1828,0,0
-637,-804,0,0,0,0,0,0,0,0,0,-1,587,1828,0,0
-630,-804,0,0,0,0,0,0,0,0,0,-1,594,1828,0,0
-623,-804,0,0,0,0,0,0,0,0,0,-1,601,1828,0,0
-616,-804,0,0,0,0,0,0,0,0,0,-1,608,1828,0,0
-609,-804,0,0,0,0,0,0,0,0,0,-1,615,1828,0,0
-602,-804,0,0,0,0,0,0,0,0,0,-1,622,1828,0,0
-595,-804,0,0,0,0,0,0,0,0,0,-1,629,1828,0,0
-588,-804,0,0,0,0,0,0,0,0,0,-1,636,1828,0,0
-581,-804,0,0,0,0,0,0,0,0,0,-1,643,1828,0,0
-574,-804,0,0,0,0,0,0,0,0,0,-1,650,1828,0,0
-567,-804,0,0,0,0,0,0,0,0,0,-1,657,1828,0,0
-560,-804,0,0,0,0,0,0,0,0,0,-1,664,1828,0,0
-553,-804,0,0,0,0,0,0,0,0,0,-1,671,1828,0,0
-546,-804,0,0,0,0,0,0,0,0,0,-1,678,1828,0,0
-539,-804,0,0,0,0,0,0,0,0,0,-1,685,1828,0,0
-532,-804,0,0,0,0,0,0,0,0,0,-1,692,1828,0,0
-525,-804,0,0,0,0,0,0,0,0,0,-1,699,1828,0,0
-518,-804,0,0,0,0,0,0,0,0,0,-1,706,1828,0,0
-511,-804,0,0,0,0,0,0,0,0,0,-1,713,1828,0,0
-504,-804,0,0,0,0,0,0,0,0,0,-1,720,1828,0,0
-497,-804,0,0,0,0,0,0,0,0,0,-1,727,1828,0,0
-490,-804,0,0,0,0,0,0,0,0,0,-1,734,1828,0,0
-483,-804,0,0,0,0,0,0,0,0,0,-1,741,1828,0,0
-476,-804,0,0,0,0,0,0,0,0,0,-1,748,1828,0,0
-469,-804,0,0,0,0,0,0,0,0,0,-1,755,1828,0,0
-462,-804,0,0,0,0,0,0,0,0,0,-1,762,1828,0,0
-455,-804,0,0,0,0,0,0,0,0,0,-1,769,1828,0,0
-448,-804,0,0,0,0,0,0,0,0,0,-1,776,1828,0,0
-441,-804,0,0,0,0,0,0,0,0,0,-1,783,1828,0,0
-434,-804,0,0,0,0,0,0,0,0,0,-1,790,1828,0,0
-427,-804,0,0,0,0,0,0,0,0,0,-1,797,1828,0,0
-420,-804,0,0,0,0,0,0,0,0,0,-1,804,1828,0,0
-413,-804,0,0,0,0,0,0,0,0,0,-1,811,1828,0,0
-406,-804,0,0,0,0,0,0,0,0,0,-1,818,1828,0,0
-399,-804,0,0,0,0,0,0,0,0,0,-1,825,1828,0,0
-392,-804,0,0,0,0,0,0,0,0,0,-1,832,1828,0,0
-385,-804,0,0,0,0,0,0,0,0,0,-1,839,1828,0,0
-378,-804,0,0,0,0,0,0,0,0,0,-1,846,1828,0,0
-371,-804,0,0,0,0,0,0,0,0,0,-1,853,1828,0,0
-364,-804,0,0,0,0,0,0,0,0,0,-1,860,1828,0,0
-357,-804,0,0,0,0,0,0,0,0,0,-1,867,1828,0,0
-350,-804,0,0,0,0,0,0,0,0,0,-1,874,1828,0,0
-343,-804,0,0,0,0,0,0,0,0,0,-1,881,1828,0,0
-336,-804,0,0,0,0,0,0,0,0,0,-1,888,1828,0,0
-329,-804,0,0,0,0,0,0,0,0,0,-1,895,1828,0,0
-322,-804,0,0,0,0,0,0,0,0,0,-1,902,1828,0,0
-315,-804,0,0,0,0,0,0,0,0,0,-1,909,1828,0,0
-308,-804,0,0,0,0,0,0,0,0,0,-1,916,1828,0,0
-301,-804,0,0,0,0,0,0,0,0,0,-1,923,1828,0,0
-294,-804,0,0,0,0,0,0,0,0,0,-1,930,1828,0,0
-287,-804,0,0,0,0,0,0,0,0,0,-1,937,1828,0,0
-280,-804,0,0,0,0,0,0,0,0,0,-1,944,1828,0,0
-273,-804,0,0,0,0,0,0,0,0,0,-1,951,1828,0,0
-266,-804,0,0,0,0,0,0,0,0,0,-1,958,1828,0,0
-259,-804,0,0,0,0,0,0,0,0,0,-1,965,1828,0,0
-252,-804,0,0,0,0,0,0,0,0,0,-1,972,1828,0,0
-245,-804,0,0,0,0,0,0,0,0,0,-1,979,1828,0,0
-238,-804,0,0,0,0,0,0,0,0,0,-1,986,1828,0,0
-231,-804,0,0,0,0,0,0,0,0,0,-1,993,1828,0,0
-224,-804,0,0,0,0,0,0,0,0,0,-1,1000,1828,0,0
-217,-804,0,0,0,0,0,0,0,0,0,-1,1007,1828,0,0
-210,-804,0,0,0,0,0,0,0,0,0,-1,1014,1828,0,0
-203,-804,0,0,0,0,0,0,0,0,0,-1,1021,1828,0,0
-196,-804,0,0,0,0,0,0,0,0,0,-1,1028,1828,0,0
-189,-804,0,0,0,0,0,0,0,0,0,-1,1035,1828,0,0
-182,-804,0,0,0,0,0,0,0,0,0,-1,1042,1828,0,0
-175,-804,0,0,0,0,0,0,0,0,0,-1,1049,1828,0,0
-168,-804,0,0,0,0,0,0,0,0,0,-1,1056,1828,0,0
-161,-804,0,0,0,0,0,0,0,0,0,-1,1063,1828,0,0
-154,-804,0,0,0,0,0,0,0,0,0,-1,1070,1828,0,0
-147,-804,0,0,0,0,0,0,0,0,0,-1,1077,1828,0,0
-140,-804,0,0,0,0,0,0,0,0,0,-1,1084,1828,0,0
-133,-804,0,0,0,0,0,0,0,0,0,-1,1091,1828,0,0
-126,-804,0,0,0,0,0,0,0,0,0,-1,1098,1828,0,0
-119,-804,0,0,0,0,0,0,0,0,0,-1,1105,1828,0,0
-112,-804,0,0,0,0,0,0,0,0,0,-1,1112,1828,0,0
-105,-804,0,0,0,0,0,0,0,0,0,-1,1119,1828,0,0
-98,-804,0,0,0,0,0,0,0,0,0,-1,1126,1828,0,0
-91,-804,0,0,0,0,0,0,0,0,0,-1,1133,1828,0,0
-84,-804,0,0,0,0,0,0,0,0,0,-1,1140,1828,0,0
-77,-804,0,0,0,0,0,0,0,0,0,-1,1147,1828,0,0
-70,-804,0,0,0,0,0,0,0,0,0,-1,1154,1828,0,0
-63,-804,0,0,0,0,0,0,0,0,0,-1,1161,1828,0,0
-56,-804,0,0,0,0,0,0,0,0,0,-1,1168,1828,0,0
-49,-804,0,0,0,0,0,0,0,0,0,-1,1175,1828,0,0
-42,-804,0,0,0,0,0,0,0,0,0,-1,1182,1828,0,0
-35,-804,0,0,0,0,0,0,0,0,0,-1,1189,1828,0,0
-28,-804,0,0,0,0,0,0,0,0,0,-1,1196,1828,0,0
-21,-804,0,0,0,0,0,0,0,0,0,-1,1203,1828,0,0
-14,-804,0,0,0,0,0,0,0,0,0,-1,1210,1828,0,0
-7,-804,0,0,0,0,0,0,0,0,0,-1,1217,1828,0,0
0,-804,0,0,0,0,0,0,0,0,0,-1,1224,1828,0,0
7,-804,0,0,0,0,0,0,0,0,0,-1,1231,1828,0,0
14,-804,0,0,0,0,0,0,0,0,0,-1,1238,1828,0,0
21,-804,0,0,0,0,0,0,0,0,0,-1,1245,1828,0,0
28,-804,0,0,0,0,0,0,0,0,0,-1,1252,1828,0,0
35,-804,7.26465,23.2372,0,0,0,0,0,0,0,-1,1259,1828,7.26461,-23.2372
42,-804,7.03296,22.8413,-0.00362934,0.0304803,-0.030172,0.0480841,-0.0212331,-1.04264,0.0410089,0.0491819,1266,1828,7.03297,-22.8413
49,-804,6.75696,22.7004,-0.0119461,0.0271646,-0.0324558,0.0455011,-0.0302826,-1.05653,0.0440468,0.0452671,1273,1828,6.75695,-22.7005
56,-804,6.3291,22.3492,-0.019189,0.0209616,-0.034765,0.0410313,-0.0392587,-1.04724,0.0463592,0.0450704,1280,1828,6.32912,-22.3493
63,-804,5.8158,22.0219,-0.0261485,0.0129325,-0.0368788,0.0351278,-0.0483437,-1.02902,0.0483933,0.0454259,1287,1828,5.81581,-22.0219
70,-804,5.49854,21.6843,-0.0318381,0.00246474,-0.0374746,0.0265264,-0.0558997,-1.00001,0.0485855,0.0436414,1294,1828,5.49852,-21.6843
77,-804,5.43188,21.3413,-0.035327,-0.0159006,-0.0379378,0.0135477,-0.0647753,-0.910721,0.0483365,0.0441573,1301,1828,5.43186,-21.3413
84,-804,5.55652,21.0314,0,0,0,0,0,0,0,-1,1308,1828,5.55649,-21.0313
91,-804,0,0,0,0,0,0,0,0,0,-1,1315,1828,0,0
98,-804,0,0,0,0,0,0,0,0,0,-1,1322,1828,0,0
105,-804,0,0,0,0,0,0,0,0,0,-1,1329,1828,0,0
112,-804,0,0,0,0,0,0,0,0,0,-1,1336,1828,0,0
119,-804,0,0,0,0,0,0,0,0,0,-1,1343,1828,0,0
126,-804,0,0,0,0,0,0,0,0,0,-1,1350,1828,0,0
133,-804,0,0,0,0,0,0,0,0,0,-1,1357,1828,0,0
140,-804,0,0,0,0,0,0,0,0,0,-1,1364,1828,0,0
147,-804,0,0,0,0,0,0,0,0,0,-1,1371,1828,0,0
154,-804,0,0,0,0,0,0,0,0,0,-1,1378,1828,0,0
161,-804,0,0,0,0,0,0,0,0,0,-1,1385,1828,0,0
168,-804,0,0,0,0,0,0,0,0,0,-1,1392,1828,0,0
175,-804,0,0,0,0,0,0,0,0,0,-1,1399,1828,0,0
182,-804,0,0,0,0,0,0,0,0,0,-1,1406,1828,0,0
189,-804,0,0,0,0,0,0,0,0,0,-1,1413,1828,0,0
196,-804,0,0,0,0,0,0,0,0,0,-1,1420,1828,0,0
203,-804,0,0,0,0,0,0,0,0,0,-1,1427,1828,0,0
210,-804,0,0,0,0,0,0,0,0,0,-1,1434,1828,0,0
217,-804,0,0,0,0,0,0,0,0,0,-1,1441,1828,0,0
224,-804,0,0,0,0,0,0,0,0,0,-1,1448,1828,0,0
231,-804,0,0,0,0,0,0,0,0,0,-1,1455,1828,0,0
238,-804,0,0,0,0,0,0,0,0,0,-1,1462,1828,0,0
245,-804,0,0,0,0,0,0,0,0,0,-1,1469,1828,0,0
252,-804,0,0,0,0,0,0,0,0,0,-1,1476,1828,0,0
259,-804,0,0,0,0,0,0,0,0,0,-1,1483,1828,0,0
266,-804,0,0,0,0,0,0,0,0,0,-1,1490,1828,0,0
273,-804,0,0,0,0,0,0,0,0,0,-1,1497,1828,0,0
280,-804,0,0,0,0,0,0,0,0,0,-1,1504,1828,0,0
287,-804,0,0,0,0,0,0,0,0,0,-1,1511,1828,0,0
294,-804,0,0,0,0,0,0,0,0,0,-1,1518,1828,0,0
301,-804,0,0,0,0,0,0,0,0,0,-1,1525,1828,0,0
308,-804,0,0,0,0,0,0,0,0,0,-1,1532,1828,0,0
315,-804,0,0,0,0,0,0,0,0,0,-1,1539,1828,0,0
322,-804,0,0,0,0,0,0,0,0,0,-1,1546,1828,0,0
329,-804,0,0,0,0,0,0,0,0,0,-1,1553,1828,0,0
336,-804,0,0,0,0,0,0,0,0,0,-1,1560,1828,0,0
343,-804,0,0,0,0,0,0,0,0,0,-1,1567,1828,0,0
350,-804,0,0,0,0,0,0,0,0,0,-1,1574,1828,0,0
357,-804,0,0,0,0,0,0,0,0,0,-1,1581,1828,0,0
364,-804,0,0,0,0,0,0,0,0,0,-1,1588,1828,0,0
371,-804,0,0,0,0,0,0,0,0,0,-1,1595,1828,0,0
378,-804,0,0,0,0,0,0,0,0,0,-1,1602,1828,0,0
385,-804,0,0,0,0,0,0,0,0,0,-1,1609,1828,0,0
392,-804,0,0,0,0,0,0,0,0,0,-1,1616,1828,0,0
399,-804,0,0,0,0,0,0,0,0,0,-1,1623,1828,0,0
406,-804,0,0,0,0,0,0,0,0,0,-1,1630,1828,0,0
413,-804,0,0,0,0,0,0,0,0,0,-1,1637,1828,0,0
420,-804,0,0,0,0,0,0,0,0,0,-1,1644,1828,0,0
427,-804,0,0,0,0,0,0,0,0,0,-1,1651,1828,0,0
434,-804,0,0,0,0,0,0,0,0,0,-1,1658,1828,0,0
441,-804,0,0,0,0,0,0,0,0,0,-1,1665,1828,0,0
448,-804,0,0,0,0,0,0,0,0,0,-1,1672,1828,0,0
455,-804,0,0,0,0,0,0,0,0,0,-1,1679,1828,0,0
462,-804,0,0,0,0,0,0,0,0,0,-1,1686,1828,0,0
469,-804,0,0,0,0,0,0,0,0,0,-1,1693,1828,0,0
476,-804,0,0,0,0,0,0,0,0,0,-1,1700,1828,0,0
483,-804,0,0,0,0,0,0,0,0,0,-1,1707,1828,0,0
490,-804,0,0,0,0,0,0,0,0,0,-1,1714,1828,0,0
497,-804,0,0,0,0,0,0,0,0,0,-1,1721,1828,0,0
504,-804,0,0,0,0,0,0,0,0,0,-1,1728,1828,0,0
511,-804,0,0,0,0,0,0,0,0,0,-1,1735,1828,0,0
518,-804,0,0,0,0,0,0,0,0,0,-1,1742,1828,0,0
525,-804,0,0,0,0,0,0,0,0,0,-1,1749,1828,0,0
532,-804,0,0,0,0,0,0,0,0,0,-1,1756,1828,0,0
539,-804,0,0,0,0,0,0,0,0,0,-1,1763,1828,0,0
546,-804,0,0,0,0,0,0,0,0,0,-1,1770,1828,0,0
553,-804,0,0,0,0,0,0,0,0,0,-1,1777,1828,0,0
560,-804,0,0,0,0,0,0,0,0,0,-1,1784,1828,0,0
567,-804,0,0,0,0,0,0,0,0,0,-1,1791,1828,0,0
574,-804,0,0,0,0,0,0,0,0,0,-1,1798,1828,0,0
581,-804,0,0,0,0,0,0,0,0,0,-1,1805,1828,0,0
588,-804,0,0,0,0,0,0,0,0,0,-1,1812,1828,0,0
595,-804,0,0,0,0,0,0,0,0,0,-1,1819,1828,0,0
602,-804,0,0,0,0,0,0,0,0,0,-1,1826,1828,0,0
609,-804,0,0,0,0,0,0,0,0,0,-1,1833,1828,0,0
616,-804,0,0,0,0,0,0,0,0,0,-1,1840,1828,0,0
623,-804,0,0,0,0,0,0,0,0,0,-1,1847,1828,0,0
630,-804,0,0,0,0,0,0,0,0,0,-1,1854,1828,0,0
637,-804,0,0,0,0,0,0,0,0,0,-1,1861,1828,0,0
644,-804,0,0,0,0,0,0,0,0,0,-1,1868,1828,0,0
651,-804,0,0,0,0,0,0,0,0,0,-1,1875,1828,0,0
658,-804,0,0,0,0,0,0,0,0,0,-1,1882,1828,0,0
665,-804,0,0,0,0,0,0,0,0,0,-1,1889,1828,0,0
672,-804,0,0,0,0,0,0,0,0,0,-1,1896,1828,0,0
679,-804,0,0,0,0,0,0,0,0,0,-1,1903,1828,0,0
686,-804,0,0,0,0,0,0,0,0,0,-1,1910,1828,0,0
693,-804,0,0,0,0,0,0,0,0,0,-1,1917,1828,0,0
700,-804,0,0,0,0,0,0,0,0,0,-1,1924,1828,0,0
707,-804,0,0,0,0,0,0,0,0,0,-1,1931,1828,0,0
714,-804,0,0,0,0,0,0,0,0,0,-1,1938,1828,0,0
721,-804,0,0,0,0,0,0,0,0,0,-1,1945,1828,0,0
728,-804,0,0,0,0,0,0,0,0,0,-1,1952,1828,0,0
735,-804,0,0,0,0,0,0,0,0,0,-1,1959,1828,0,0
742,-804,0,0,0,0,0,0,0,0,0,-1,1966,1828,0,0
749,-804,0,0,0,0,0,0,0,0,0,-1,1973,1828,0,0
756,-804,0,0,0,0,0,0,0,0,0,-1,1980,1828,0,0
763,-804,0,0,0,0,0,0,0,0,0,-1,1987,1828,0,0
770,-804,0,0,0,0,0,0,0,0,0,-1,1994,1828,0,0
777,-804,0,0,0,0,0,0,0,0,0,-1,2001,1828,0,0
784,-804,0,0,0,0,0,0,0,0,0,-1,2008,1828,0,0
791,-804,0,0,0,0,0,0,0,0,0,-1,2015,1828,0,0
798,-804,0,0,0,0,0,0,0,0,0,-1,2022,1828,0,0
805,-804,0,0,0,0,0,0,0,0,0,-1,2029,1828,0,0
812,-804,0,0,0,0,0,0,0,0,0,-1,2036,1828,0,0

