 "x_c",  "y_c",  "u_c",  "v_c",  "exx",  "eyy",  "exy",  "e1",  "e2",  "gamma",  "e_vonmises",  "sigma",  "x",  "y",  "u",  "v"
-700,715,0,0,0,0,0,0,0,0,0,-1,524,309,0,0
-693,715,0,0,0,0,0,0,0,0,0,-1,531,309,0,0
-686,715,0,0,0,0,0,0,0,0,0,-1,538,309,0,0
-679,715,0,0,0,0,0,0,0,0,0,-1,545,309,0,0
-672,715,0,0,0,0,0,0,0,0,0,-1,552,309,0,0
-665,715,0,0,0,0,0,0,0,0,0,-1,559,309,0,0
-658,715,0,0,0,0,0,0,0,0,0,-1,566,309,0,0
-651,715,0,0,0,0,0,0,0,0,0,-1,573,309,0,0
-644,715,0,0,0,0,0,0,0,0,0,-1,580,309,0,0
-637,715,0,0,0,0,0,0,0,0,0,-1,587,309,0,0
-630,715,0,0,0,0,0,0,0,0,0,-1,594,309,0,0
-623,715,0,0,0,0,0,0,0,0,0,-1,601,309,0,0
-616,715,0,0,0,0,0,0,0,0,0,-1,608,309,0,0
-609,715,0,0,0,0,0,0,0,0,0,-1,615,309,0,0
-602,715,0,0,0,0,0,0,0,0,0,-1,622,309,0,0
-595,715,0,0,0,0,0,0,0,0,0,-1,629,309,0,0
-588,715,0,0,0,0,0,0,0,0,0,-1,636,309,0,0
-581,715,0,0,0,0,0,0,0,0,0,-1,643,309,0,0
-574,715,0,0,0,0,0,0,0,0,0,-1,650,309,0,0
-567,715,0,0,0,0,0,0,0,0,0,-1,657,309,0,0
-560,715,0,0,0,0,0,0,0,0,0,-1,664,309,0,0
-553,715,0,0,0,0,0,0,0,0,0,-1,671,309,0,0
-546,715,0,0,0,0,0,0,0,0,0,-1,678,309,0,0
-539,715,0,0,0,0,0,0,0,0,0,-1,685,309,0,0
-532,715,0,0,0,0,0,0,0,0,0,-1,692,309,0,0
-525,715,0,0,0,0,0,0,0,0,0,-1,699,309,0,0
-518,715,0,0,0,0,0,0,0,0,0,-1,706,309,0,0
-511,715,0,0,0,0,0,0,0,0,0,-1,713,309,0,0
-504,715,0,0,0,0,0,0,0,0,0,-1,720,309,0,0
-497,715,0,0,0,0,0,0,0,0,0,-1,727,309,0,0
-490,715,0,0,0,0,0,0,0,0,0,-1,734,309,0,0
-483,715,0,0,0,0,0,0,0,0,0,-1,741,309,0,0
-476,715,0,0,0,0,0,0,0,0,0,-1,748,309,0,0
-469,715,0,0,0,0,0,0,0,0,0,-1,755,309,0,0
-462,715,0,0,0,0,0,0,0,0,0,-1,762,309,0,0
-455,715,0,0,0,0,0,0,0,0,0,-1,769,309,0,0
-448,715,0,0,0,0,0,0,0,0,0,-1,776,309,0,0
-441,715,0,0,0,0,0,0,0,0,0,-1,783,309,0,0
-434,715,0,0,0,0,0,0,0,0,0,-1,790,309,0,0
-427,715,0,0,0,0,0,0,0,0,0,-1,797,309,0,0
-420,715,0,0,0,0,0,0,0,0,0,-1,804,309,0,0
-413,715,0,0,0,0,0,0,0,0,0,-1,811,309,0,0
-406,715,0,0,0,0,0,0,0,0,0,-1,818,309,0,0
-399,715,0,0,0,0,0,0,0,0,0,-1,825,309,0,0
-392,715,0,0,0,0,0,0,0,0,0,-1,832,309,0,0
-385,715,0,0,0,0,0,0,0,0,0,-1,839,309,0,0
-378,715,0,0,0,0,0,0,0,0,0,-1,846,309,0,0
-371,715,0,0,0,0,0,0,0,0,0,-1,853,309,0,0
-364,715,0,0,0,0,0,0,0,0,0,-1,860,309,0,0
-357,715,0,0,0,0,0,0,0,0,0,-1,867,309,0,0
-350,715,0,0,0,0,0,0,0,0,0,-1,874,309,0,0
-343,715,0,0,0,0,0,0,0,0,0,-1,881,309,0,0
-336,715,0,0,0,0,0,0,0,0,0,-1,888,309,0,0
-329,715,0,0,0,0,0,0,0,0,0,-1,895,309,0,0
-322,715,0,0,0,0,0,0,0,0,0,-1,902,309,0,0
-315,715,0,0,0,0,0,0,0,0,0,-1,909,309,0,0
-308,715,0,0,0,0,0,0,0,0,0,-1,916,309,0,0
-301,715,0,0,0,0,0,0,0,0,0,-1,923,309,0,0
-294,715,0,0,0,0,0,0,0,0,0,-1,930,309,0,0
-287,715,0,0,0,0,0,0,0,0,0,-1,937,309,0,0
-280,715,0,0,0,0,0,0,0,0,0,-1,944,309,0,0
-273,715,0,0,0,0,0,0,0,0,0,-1,951,309,0,0
-266,715,0,0,0,0,0,0,0,0,0,-1,958,309,0,0
-259,715,0,0,0,0,0,0,0,0,0,-1,965,309,0,0
-252,715,0,0,0,0,0,0,0,0,0,-1,972,309,0,0
-245,715,0,0,0,0,0,0,0,0,0,-1,979,309,0,0
-238,715,0,0,0,0,0,0,0,0,0,-1,986,309,0,0
-231,715,0,0,0,0,0,0,0,0,0,-1,993,309,0,0
-224,715,0,0,0,0,0,0,0,0,0,-1,1000,309,0,0
-217,715,0,0,0,0,0,0,0,0,0,-1,1007,309,0,0
-210,715,0,0,0,0,0,0,0,0,0,-1,1014,309,0,0
-203,715,0,0,0,0,0,0,0,0,0,-1,1021,309,0,0
-196,715,0,0,0,0,0,0,0,0,0,-1,1028,309,0,0
-189,715,0,0,0,0,0,0,0,0,0,-1,1035,309,0,0
-182,715,0,0,0,0,0,0,0,0,0,-1,1042,309,0,0
-175,715,0,0,0,0,0,0,0,0,0,-1,1049,309,0,0
-168,715,0,0,0,0,0,0,0,0,0,-1,1056,309,0,0
-161,715,0,0,0,0,0,0,0,0,0,-1,1063,309,0,0
-154,715,0,0,0,0,0,0,0,0,0,-1,1070,309,0,0
-147,715,0,0,0,0,0,0,0,0,0,-1,1077,309,0,0
-140,715,0,0,0,0,0,0,0,0,0,-1,1084,309,0,0
-133,715,0,0,0,0,0,0,0,0,0,-1,1091,309,0,0
-126,715,0,0,0,0,0,0,0,0,0,-1,1098,309,0,0
-119,715,0,0,0,0,0,0,0,0,0,-1,1105,309,0,0
-112,715,0,0,0,0,0,0,0,0,0,-1,1112,309,0,0
-105,715,0,0,0,0,0,0,0,0,0,-1,1119,309,0,0
-98,715,0,0,0,0,0,0,0,0,0,-1,1126,309,0,0
-91,715,0,0,0,0,0,0,0,0,0,-1,1133,309,0,0
-84,715,0,0,0,0,0,0,0,0,0,-1,1140,309,0,0
-77,715,0,0,0,0,0,0,0,0,0,-1,1147,309,0,0
-70,715,0,0,0,0,0,0,0,0,0,-1,1154,309,0,0
-63,715,0,0,0,0,0,0,0,0,0,-1,1161,309,0,0
-56,715,0,0,0,0,0,0,0,0,0,-1,1168,309,0,0
-49,715,0,0,0,0,0,0,0,0,0,-1,1175,309,0,0
-42,715,0,0,0,0,0,0,0,0,0,-1,1182,309,0,0
-35,715,0,0,0,0,0,0,0,0,0,-1,1189,309,0,0
-28,715,0,0,0,0,0,0,0,0,0,-1,1196,309,0,0
-21,715,0,0,0,0,0,0,0,0,0,-1,1203,309,0,0
-14,715,0,0,0,0,0,0,0,0,0,-1,1210,309,0,0
-7,715,0,0,0,0,0,0,0,0,0,-1,1217,309,0,0
0,715,0,0,0,0,0,0,0,0,0,-1,1224,309,0,0
7,715,0,0,0,0,0,0,0,0,0,-1,1231,309,0,0
14,715,0,0,0,0,0,0,0,0,0,-1,1238,309,0,0
21,715,0,0,0,0,0,0,0,0,0,-1,1245,309,0,0
28,715,0,0,0,0,0,0,0,0,0,-1,1252,309,0,0
35,715,0,0,0,0,0,0,0,0,0,-1,1259,309,0,0
42,715,0,0,0,0,0,0,0,0,0,-1,1266,309,0,0
49,715,0,0,0,0,0,0,0,0,0,-1,1273,309,0,0
56,715,0,0,0,0,0,0,0,0,0,-1,1280,309,0,0
63,715,5.5365,-42.676,0,0,0,0,0,0,0,-1,1287,309,5.53651,42.676
70,715,4.74854,-42.464,0,0,0,0,0,0,0,-1,1294,309,4.74849,42.464
77,715,0,0,0,0,0,0,0,0,0,-1,1301,309,0,0
84,715,0,0,0,0,0,0,0,0,0,-1,1308,309,0,0
91,715,0,0,0,0,0,0,0,0,0,-1,1315,309,0,0
98,715,0,0,0,0,0,0,0,0,0,-1,1322,309,0,0
105,715,0,0,0,0,0,0,0,0,0,-1,1329,309,0,0
112,715,0,0,0,0,0,0,0,0,0,-1,1336,309,0,0
119,715,0,0,0,0,0,0,0,0,0,-1,1343,309,0,0
126,715,0,0,0,0,0,0,0,0,0,-1,1350,309,0,0
133,715,0,0,0,0,0,0,0,0,0,-1,1357,309,0,0
140,715,0,0,0,0,0,0,0,0,0,-1,1364,309,0,0
147,715,0,0,0,0,0,0,0,0,0,-1,1371,309,0,0
154,715,0,0,0,0,0,0,0,0,0,-1,1378,309,0,0
161,715,0,0,0,0,0,0,0,0,0,-1,1385,309,0,0
168,715,0,0,0,0,0,0,0,0,0,-1,1392,309,0,0
175,715,0,0,0,0,0,0,0,0,0,-1,1399,309,0,0
182,715,0,0,0,0,0,0,0,0,0,-1,1406,309,0,0
189,715,0,0,0,0,0,0,0,0,0,-1,1413,309,0,0
196,715,0,0,0,0,0,0,0,0,0,-1,1420,309,0,0
203,715,0,0,0,0,0,0,0,0,0,-1,1427,309,0,0
210,715,0,0,0,0,0,0,0,0,0,-1,1434,309,0,0
217,715,0,0,0,0,0,0,0,0,0,-1,1441,309,0,0
224,715,0,0,0,0,0,0,0,0,0,-1,1448,309,0,0
231,715,0,0,0,0,0,0,0,0,0,-1,1455,309,0,0
238,715,0,0,0,0,0,0,0,0,0,-1,1462,309,0,0
245,715,0,0,0,0,0,0,0,0,0,-1,1469,309,0,0
252,715,0,0,0,0,0,0,0,0,0,-1,1476,309,0,0
259,715,0,0,0,0,0,0,0,0,0,-1,1483,309,0,0
266,715,0,0,0,0,0,0,0,0,0,-1,1490,309,0,0
273,715,0,0,0,0,0,0,0,0,0,-1,1497,309,0,0
280,715,0,0,0,0,0,0,0,0,0,-1,1504,309,0,0
287,715,0,0,0,0,0,0,0,0,0,-1,1511,309,0,0
294,715,0,0,0,0,0,0,0,0,0,-1,1518,309,0,0
301,715,0,0,0,0,0,0,0,0,0,-1,1525,309,0,0
308,715,0,0,0,0,0,0,0,0,0,-1,1532,309,0,0
315,715,0,0,0,0,0,0,0,0,0,-1,1539,309,0,0
322,715,0,0,0,0,0,0,0,0,0,-1,1546,309,0,0
329,715,0,0,0,0,0,0,0,0,0,-1,1553,309,0,0
336,715,0,0,0,0,0,0,0,0,0,-1,1560,309,0,0
343,715,0,0,0,0,0,0,0,0,0,-1,1567,309,0,0
350,715,0,0,0,0,0,0,0,0,0,-1,1574,309,0,0
357,715,0,0,0,0,0,0,0,0,0,-1,1581,309,0,0
364,715,0,0,0,0,0,0,0,0,0,-1,1588,309,0,0
371,715,0,0,0,0,0,0,0,0,0,-1,1595,309,0,0
378,715,0,0,0,0,0,0,0,0,0,-1,1602,309,0,0
385,715,0,0,0,0,0,0,0,0,0,-1,1609,309,0,0
392,715,0,0,0,0,0,0,0,0,0,-1,1616,309,0,0
399,715,0,0,0,0,0,0,0,0,0,-1,1623,309,0,0
406,715,0,0,0,0,0,0,0,0,0,-1,1630,309,0,0
413,715,0,0,0,0,0,0,0,0,0,-1,1637,309,0,0
420,715,0,0,0,0,0,0,0,0,0,-1,1644,309,0,0
427,715,0,0,0,0,0,0,0,0,0,-1,1651,309,0,0
434,715,0,0,0,0,0,0,0,0,0,-1,1658,309,0,0
441,715,0,0,0,0,0,0,0,0,0,-1,1665,309,0,0
448,715,0,0,0,0,0,0,0,0,0,-1,1672,309,0,0
455,715,0,0,0,0,0,0,0,0,0,-1,1679,309,0,0
462,715,0,0,0,0,0,0,0,0,0,-1,1686,309,0,0
469,715,0,0,0,0,0,0,0,0,0,-1,1693,309,0,0
476,715,0,0,0,0,0,0,0,0,0,-1,1700,309,0,0
483,715,0,0,0,0,0,0,0,0,0,-1,1707,309,0,0
490,715,0,0,0,0,0,0,0,0,0,-1,1714,309,0,0
497,715,0,0,0,0,0,0,0,0,0,-1,1721,309,0,0
504,715,0,0,0,0,0,0,0,0,0,-1,1728,309,0,0
511,715,0,0,0,0,0,0,0,0,0,-1,1735,309,0,0
518,715,0,0,0,0,0,0,0,0,0,-1,1742,309,0,0
525,715,0,0,0,0,0,0,0,0,0,-1,1749,309,0,0
532,715,0,0,0,0,0,0,0,0,0,-1,1756,309,0,0
539,715,0,0,0,0,0,0,0,0,0,-1,1763,309,0,0
546,715,0,0,0,0,0,0,0,0,0,-1,1770,309,0,0
553,715,0,0,0,0,0,0,0,0,0,-1,1777,309,0,0
560,715,0,0,0,0,0,0,0,0,0,-1,1784,309,0,0
567,715,0,0,0,0,0,0,0,0,0,-1,1791,309,0,0
574,715,0,0,0,0,0,0,0,0,0,-1,1798,309,0,0
581,715,0,0,0,0,0,0,0,0,0,-1,1805,309,0,0
588,715,0,0,0,0,0,0,0,0,0,-1,1812,309,0,0
595,715,0,0,0,0,0,0,0,0,0,-1,1819,309,0,0
602,715,0,0,0,0,0,0,0,0,0,-1,1826,309,0,0
609,715,0,0,0,0,0,0,0,0,0,-1,1833,309,0,0
616,715,0,0,0,0,0,0,0,0,0,-1,1840,309,0,0
623,715,0,0,0,0,0,0,0,0,0,-1,1847,309,0,0
630,715,0,0,0,0,0,0,0,0,0,-1,1854,309,0,0
637,715,0,0,0,0,0,0,0,0,0,-1,1861,309,0,0
644,715,0,0,0,0,0,0,0,0,0,-1,1868,309,0,0
651,715,0,0,0,0,0,0,0,0,0,-1,1875,309,0,0
658,715,0,0,0,0,0,0,0,0,0,-1,1882,309,0,0
665,715,0,0,0,0,0,0,0,0,0,-1,1889,309,0,0
672,715,0,0,0,0,0,0,0,0,0,-1,1896,309,0,0
679,715,0,0,0,0,0,0,0,0,0,-1,1903,309,0,0
686,715,0,0,0,0,0,0,0,0,0,-1,1910,309,0,0
693,715,0,0,0,0,0,0,0,0,0,-1,1917,309,0,0
700,715,0,0,0,0,0,0,0,0,0,-1,1924,309,0,0
707,715,0,0,0,0,0,0,0,0,0,-1,1931,309,0,0
714,715,0,0,0,0,0,0,0,0,0,-1,1938,309,0,0
721,715,0,0,0,0,0,0,0,0,0,-1,1945,309,0,0
728,715,0,0,0,0,0,0,0,0,0,-1,1952,309,0,0
735,715,0,0,0,0,0,0,0,0,0,-1,1959,309,0,0
742,715,0,0,0,0,0,0,0,0,0,-1,1966,309,0,0
749,715,0,0,0,0,0,0,0,0,0,-1,1973,309,0,0
756,715,0,0,0,0,0,0,0,0,0,-1,1980,309,0,0
763,715,0,0,0,0,0,0,0,0,0,-1,1987,309,0,0
770,715,0,0,0,0,0,0,0,0,0,-1,1994,309,0,0
777,715,0,0,0,0,0,0,0,0,0,-1,2001,309,0,0
784,715,0,0,0,0,0,0,0,0,0,-1,2008,309,0,0
791,715,0,0,0,0,0,0,0,0,0,-1,2015,309,0,0
798,715,0,0,0,0,0,0,0,0,0,-1,2022,309,0,0
805,715,0,0,0,0,0,0,0,0,0,-1,2029,309,0,0
812,715,0,0,0,0,0,0,0,0,0,-1,2036,309,0,0
-700,708,0,0,0,0,0,0,0,0,0,-1,524,316,0,0
-693,708,0,0,0,0,0,0,0,0,0,-1,531,316,0,0
-686,708,0,0,0,0,0,0,0,0,0,-1,538,316,0,0
-679,708,0,0,0,0,0,0,0,0,0,-1,545,316,0,0
-672,708,0,0,0,0,0,0,0,0,0,-1,552,316,0,0
-665,708,0,0,0,0,0,0,0,0,0,-1,559,316,0,0
-658,708,0,0,0,0,0,0,0,0,0,-1,566,316,0,0
-651,708,0,0,0,0,0,0,0,0,0,-1,573,316,0,0
-644,708,0,0,0,0,0,0,0,0,0,-1,580,316,0,0
-637,708,0,0,0,0,0,0,0,0,0,-1,587,316,0,0
-630,708,0,0,0,0,0,0,0,0,0,-1,594,316,0,0
-623,708,0,0,0,0,0,0,0,0,0,-1,601,316,0,0
-616,708,0,0,0,0,0,0,0,0,0,-1,608,316,0,0
-609,708,0,0,0,0,0,0,0,0,0,-1,615,316,0,0
-602,708,0,0,0,0,0,0,0,0,0,-1,622,316,0,0
-595,708,0,0,0,0,0,0,0,0,0,-1,629,316,0,0
-588,708,0,0,0,0,0,0,0,0,0,-1,636,316,0,0
-581,708,0,0,0,0,0,0,0,0,0,-1,643,316,0,0
-574,708,0,0,0,0,0,0,0,0,0,-1,650,316,0,0
-567,708,0,0,0,0,0,0,0,0,0,-1,657,316,0,0
-560,708,0,0,0,0,0,0,0,0,0,-1,664,316,0,0
-553,708,0,0,0,0,0,0,0,0,0,-1,671,316,0,0
-546,708,0,0,0,0,0,0,0,0,0,-1,678,316,0,0
-539,708,0,0,0,0,0,0,0,0,0,-1,685,316,0,0
-532,708,0,0,0,0,0,0,0,0,0,-1,692,316,0,0
-525,708,0,0,0,0,0,0,0,0,0,-1,699,316,0,0
-518,708,0,0,0,0,0,0,0,0,0,-1,706,316,0,0
-511,708,0,0,0,0,0,0,0,0,0,-1,713,316,0,0
-504,708,0,0,0,0,0,0,0,0,0,-1,720,316,0,0
-497,708,0,0,0,0,0,0,0,0,0,-1,727,316,0,0
-490,708,0,0,0,0,0,0,0,0,0,-1,734,316,0,0
-483,708,0,0,0,0,0,0,0,0,0,-1,741,316,0,0
-476,708,0,0,0,0,0,0,0,0,0,-1,748,316,0,0
-469,708,0,0,0,0,0,0,0,0,0,-1,755,316,0,0
-462,708,0,0,0,0,0,0,0,0,0,-1,762,316,0,0
-455,708,0,0,0,0,0,0,0,0,0,-1,769,316,0,0
-448,708,0,0,0,0,0,0,0,0,0,-1,776,316,0,0
-441,708,0,0,0,0,0,0,0,0,0,-1,783,316,0,0
-434,708,0,0,0,0,0,0,0,0,0,-1,790,316,0,0
-427,708,0,0,0,0,0,0,0,0,0,-1,797,316,0,0
-420,708,0,0,0,0,0,0,0,0,0,-1,804,316,0,0
-413,708,0,0,0,0,0,0,0,0,0,-1,811,316,0,0
-406,708,0,0,0,0,0,0,0,0,0,-1,818,316,0,0
-399,708,0,0,0,0,0,0,0,0,0,-1,825,316,0,0
-392,708,0,0,0,0,0,0,0,0,0,-1,832,316,0,0
-385,708,0,0,0,0,0,0,0,0,0,-1,839,316,0,0
-378,708,0,0,0,0,0,0,0,0,0,-1,846,316,0,0
-371,708,0,0,0,0,0,0,0,0,0,-1,853,316,0,0
-364,708,0,0,0,0,0,0,0,0,0,-1,860,316,0,0
-357,708,0,0,0,0,0,0,0,0,0,-1,867,316,0,0
-350,708,0,0,0,0,0,0,0,0,0,-1,874,316,0,0
-343,708,0,0,0,0,0,0,0,0,0,-1,881,316,0,0
-336,708,0,0,0,0,0,0,0,0,0,-1,888,316,0,0
-329,708,0,0,0,0,0,0,0,0,0,-1,895,316,0,0
-322,708,0,0,0,0,0,0,0,0,0,-1,902,316,0,0
-315,708,0,0,0,0,0,0,0,0,0,-1,909,316,0,0
-308,708,0,0,0,0,0,0,0,0,0,-1,916,316,0,0
-301,708,0,0,0,0,0,0,0,0,0,-1,923,316,0,0
-294,708,0,0,0,0,0,0,0,0,0,-1,930,316,0,0
-287,708,0,0,0,0,0,0,0,0,0,-1,937,316,0,0
-280,708,0,0,0,0,0,0,0,0,0,-1,944,316,0,0
-273,708,0,0,0,0,0,0,0,0,0,-1,951,316,0,0
-266,708,0,0,0,0,0,0,0,0,0,-1,958,316,0,0
-259,708,0,0,0,0,0,0,0,0,0,-1,965,316,0,0
-252,708,0,0,0,0,0,0,0,0,0,-1,972,316,0,0
-245,708,0,0,0,0,0,0,0,0,0,-1,979,316,0,0
-238,708,0,0,0,0,0,0,0,0,0,-1,986,316,0,0
-231,708,0,0,0,0,0,0,0,0,0,-1,993,316,0,0
-224,708,0,0,0,0,0,0,0,0,0,-1,1000,316,0,0
-217,708,0,0,0,0,0,0,0,0,0,-1,1007,316,0,0
-210,708,0,0,0,0,0,0,0,0,0,-1,1014,316,0,0
-203,708,0,0,0,0,0,0,0,0,0,-1,1021,316,0,0
-196,708,0,0,0,0,0,0,0,0,0,-1,1028,316,0,0
-189,708,0,0,0,0,0,0,0,0,0,-1,1035,316,0,0
-182,708,0,0,0,0,0,0,0,0,0,-1,1042,316,0,0
-175,708,0,0,0,0,0,0,0,0,0,-1,1049,316,0,0
-168,708,0,0,0,0,0,0,0,0,0,-1,1056,316,0,0
-161,708,0,0,0,0,0,0,0,0,0,-1,1063,316,0,0
-154,708,0,0,0,0,0,0,0,0,0,-1,1070,316,0,0
-147,708,0,0,0,0,0,0,0,0,0,-1,1077,316,0,0
-140,708,0,0,0,0,0,0,0,0,0,-1,1084,316,0,0
-133,708,0,0,0,0,0,0,0,0,0,-1,1091,316,0,0
-126,708,0,0,0,0,0,0,0,0,0,-1,1098,316,0,0
-119,708,0,0,0,0,0,0,0,0,0,-1,1105,316,0,0
-112,708,0,0,0,0,0,0,0,0,0,-1,1112,316,0,0
-105,708,0,0,0,0,0,0,0,0,0,-1,1119,316,0,0
-98,708,0,0,0,0,0,0,0,0,0,-1,1126,316,0,0
-91,708,0,0,0,0,0,0,0,0,0,-1,1133,316,0,0
-84,708,0,0,0,0,0,0,0,0,0,-1,1140,316,0,0
-77,708,0,0,0,0,0,0,0,0,0,-1,1147,316,0,0
-70,708,0,0,0,0,0,0,0,0,0,-1,1154,316,0,0
-63,708,0,0,0,0,0,0,0,0,0,-1,1161,316,0,0
-56,708,0,0,0,0,0,0,0,0,0,-1,1168,316,0,0
-49,708,0,0,0,0,0,0,0,0,0,-1,1175,316,0,0
-42,708,0,0,0,0,0,0,0,0,0,-1,1182,316,0,0
-35,708,-2.71204,-6.31558,0,0,0,0,0,0,0,-1,1189,316,-2.712,6.3156
-28,708,-2.92371,-5.53253,0,0,0,0,0,0,0,-1,1196,316,-2.92375,5.53254
-21,708,-0.417969,-24.5911,0,0,0,0,0,0,0,-1,1203,316,-0.418022,24.5911
-14,708,5.73181,-48.5143,0,0,0,0,0,0,0,-1,1210,316,5.73179,48.5143
-7,708,8.95679,-39.8686,0,0,0,0,0,0,0,-1,1217,316,8.95682,39.8686
0,708,7.69287,-40.0344,0,0,0,0,0,0,0,-1,1224,316,7.69286,40.0344
7,708,7.82764,-39.4938,0,0,0,0,0,0,0,-1,1231,316,7.82761,39.4938
14,708,5.72498,-41.7258,0,0,0,0,0,0,0,-1,1238,316,5.725,41.7258
21,708,5.40747,-41.8818,0.00864176,-0.00116636,0.00970816,0.0146142,-0.0071388,0.551519,0.0128039,0.0428468,1245,316,5.40748,41.8818
28,708,5.40588,-42.0494,0.00157437,-0.00166985,0.00827147,0.00838128,-0.00847676,0.688572,0.00973305,0.0430811,1252,316,5.40591,42.0494
35,708,5.36145,-42.6189,0,0,0,0,0,0,0,-1,1259,316,5.36147,42.6189
42,708,5.95435,-42.4853,0,0,0,0,0,0,0,-1,1266,316,5.95431,42.4853
49,708,6.2301,-42.4236,-0.0259836,0.00958593,0.0104487,0.0124282,-0.0288258,1.3052,0.0244371,0.0415022,1273,316,6.23014,42.4236
56,708,6.47424,-42.2422,0,0,0,0,0,0,0,-1,1280,316,6.47419,42.2423
63,708,5.29504,-42.6117,0.000999167,0.0266286,0.0151188,0.033633,-0.00600518,1.13695,0.0246686,0.0404459,1287,316,5.29503,42.6117
70,708,4.69409,-42.5561,0.0163938,0.0397974,0.0188875,0.0503143,0.00587689,1.06273,0.0317656,0.0408533,1294,316,4.69411,42.5561
77,708,4.44226,-42.547,0.0366672,0.0552532,0.0275961,0.075079,0.0168413,0.94781,0.0454902,0.0448049,1301,316,4.44231,42.547
84,708,4.00781,-41.995,0.0656401,0.0785457,0.041244,0.113839,0.0303472,0.862997,0.0680703,0.0436724,1308,316,4.00787,41.9949
91,708,3.28674,-41.1724,0.105277,0.105554,0.0584943,0.16391,0.0469212,0.786581,0.0974731,0.0476873,1315,316,3.2868,41.1724
98,708,2.7345,-41.2868,0.149186,0.135091,0.0789845,0.221437,0.06284,0.740903,0.131771,0.0488991,1322,316,2.7345,41.2868
105,708,8.71265,-32.8622,0,0,0,0,0,0,0,-1,1329,316,8.71261,32.8622
112,708,8.89246,-31.9405,0.228702,0.193496,0.127889,0.340194,0.0820042,0.717007,0.205003,0.0489228,1336,316,8.89251,31.9405
119,708,9.3114,-31.0973,0,0,0,0,0,0,0,-1,1343,316,9.31139,31.0972
126,708,9.32324,-30.2383,0,0,0,0,0,0,0,-1,1350,316,9.3232,30.2383
133,708,10.8546,-27.0786,0,0,0,0,0,0,0,-1,1357,316,10.8546,27.0786
140,708,10.8599,-25.4227,0,0,0,0,0,0,0,-1,1364,316,10.8598,25.4227
147,708,3.63208,-33.1998,0,0,0,0,0,0,0,-1,1371,316,3.63211,33.1998
154,708,0,0,0,0,0,0,0,0,0,-1,1378,316,0,0
161,708,0,0,0,0,0,0,0,0,0,-1,1385,316,0,0
168,708,0,0,0,0,0,0,0,0,0,-1,1392,316,0,0
175,708,0,0,0,0,0,0,0,0,0,-1,1399,316,0,0
182,708,0,0,0,0,0,0,0,0,0,-1,1406,316,0,0
189,708,0,0,0,0,0,0,0,0,0,-1,1413,316,0,0
196,708,0,0,0,0,0,0,0,0,0,-1,1420,316,0,0
203,708,0,0,0,0,0,0,0,0,0,-1,1427,316,0,0
210,708,0,0,0,0,0,0,0,0,0,-1,1434,316,0,0
217,708,0,0,0,0,0,0,0,0,0,-1,1441,316,0,0
224,708,0,0,0,0,0,0,0,0,0,-1,1448,316,0,0
231,708,0,0,0,0,0,0,0,0,0,-1,1455,316,0,0
238,708,0,0,0,0,0,0,0,0,0,-1,1462,316,0,0
245,708,0,0,0,0,0,0,0,0,0,-1,1469,316,0,0
252,708,0,0,0,0,0,0,0,0,0,-1,1476,316,0,0
259,708,0,0,0,0,0,0,0,0,0,-1,1483,316,0,0
266,708,0,0,0,0,0,0,0,0,0,-1,1490,316,0,0
273,708,0,0,0,0,0,0,0,0,0,-1,1497,316,0,0
280,708,0,0,0,0,0,0,0,0,0,-1,1504,316,0,0
287,708,0,0,0,0,0,0,0,0,0,-1,1511,316,0,0
294,708,0,0,0,0,0,0,0,0,0,-1,1518,316,0,0
301,708,0,0,0,0,0,0,0,0,0,-1,1525,316,0,0
308,708,0,0,0,0,0,0,0,0,0,-1,1532,316,0,0
315,708,0,0,0,0,0,0,0,0,0,-1,1539,316,0,0
322,708,0,0,0,0,0,0,0,0,0,-1,1546,316,0,0
329,708,0,0,0,0,0,0,0,0,0,-1,1553,316,0,0
336,708,0,0,0,0,0,0,0,0,0,-1,1560,316,0,0
343,708,0,0,0,0,0,0,0,0,0,-1,1567,316,0,0
350,708,0,0,0,0,0,0,0,0,0,-1,1574,316,0,0
357,708,0,0,0,0,0,0,0,0,0,-1,1581,316,0,0
364,708,0,0,0,0,0,0,0,0,0,-1,1588,316,0,0
371,708,0,0,0,0,0,0,0,0,0,-1,1595,316,0,0
378,708,0,0,0,0,0,0,0,0,0,-1,1602,316,0,0
385,708,0,0,0,0,0,0,0,0,0,-1,1609,316,0,0
392,708,0,0,0,0,0,0,0,0,0,-1,1616,316,0,0
399,708,0,0,0,0,0,0,0,0,0,-1,1623,316,0,0
406,708,0,0,0,0,0,0,0,0,0,-1,1630,316,0,0
413,708,0,0,0,0,0,0,0,0,0,-1,1637,316,0,0
420,708,0,0,0,0,0,0,0,0,0,-1,1644,316,0,0
427,708,0,0,0,0,0,0,0,0,0,-1,1651,316,0,0
434,708,0,0,0,0,0,0,0,0,0,-1,1658,316,0,0
441,708,0,0,0,0,0,0,0,0,0,-1,1665,316,0,0
448,708,0,0,0,0,0,0,0,0,0,-1,1672,316,0,0
455,708,0,0,0,0,0,0,0,0,0,-1,1679,316,0,0
462,708,0,0,0,0,0,0,0,0,0,-1,1686,316,0,0
469,708,0,0,0,0,0,0,0,0,0,-1,1693,316,0,0
476,708,0,0,0,0,0,0,0,0,0,-1,1700,316,0,0
483,708,0,0,0,0,0,0,0,0,0,-1,1707,316,0,0
490,708,0,0,0,0,0,0,0,0,0,-1,1714,316,0,0
497,708,0,0,0,0,0,0,0,0,0,-1,1721,316,0,0
504,708,0,0,0,0,0,0,0,0,0,-1,1728,316,0,0
511,708,0,0,0,0,0,0,0,0,0,-1,1735,316,0,0
518,708,0,0,0,0,0,0,0,0,0,-1,1742,316,0,0
525,708,0,0,0,0,0,0,0,0,0,-1,1749,316,0,0
532,708,0,0,0,0,0,0,0,0,0,-1,1756,316,0,0
539,708,0,0,0,0,0,0,0,0,0,-1,1763,316,0,0
546,708,0,0,0,0,0,0,0,0,0,-1,1770,316,0,0
553,708,0,0,0,0,0,0,0,0,0,-1,1777,316,0,0
560,708,0,0,0,0,0,0,0,0,0,-1,1784,316,0,0
567,708,0,0,0,0,0,0,0,0,0,-1,1791,316,0,0
574,708,0,0,0,0,0,0,0,0,0,-1,1798,316,0,0
581,708,0,0,0,0,0,0,0,0,0,-1,1805,316,0,0
588,708,0,0,0,0,0,0,0,0,0,-1,1812,316,0,0
595,708,0,0,0,0,0,0,0,0,0,-1,1819,316,0,0
602,708,0,0,0,0,0,0,0,0,0,-1,1826,316,0,0
609,708,0,0,0,0,0,0,0,0,0,-1,1833,316,0,0
616,708,0,0,0,0,0,0,0,0,0,-1,1840,316,0,0
623,708,0,0,0,0,0,0,0,0,0,-1,1847,316,0,0
630,708,0,0,0,0,0,0,0,0,0,-1,1854,316,0,0
637,708,0,0,0,0,0,0,0,0,0,-1,1861,316,0,0
644,708,0,0,0,0,0,0,0,0,0,-1,1868,316,0,0
651,708,0,0,0,0,0,0,0,0,0,-1,1875,316,0,0
658,708,0,0,0,0,0,0,0,0,0,-1,1882,316,0,0
665,708,0,0,0,0,0,0,0,0,0,-1,1889,316,0,0
672,708,0,0,0,0,0,0,0,0,0,-1,1896,316,0,0
679,708,0,0,0,0,0,0,0,0,0,-1,1903,316,0,0
686,708,0,0,0,0,0,0,0,0,0,-1,1910,316,0,0
693,708,0,0,0,0,0,0,0,0,0,-1,1917,316,0,0
700,708,0,0,0,0,0,0,0,0,0,-1,1924,316,0,0
707,708,0,0,0,0,0,0,0,0,0,-1,1931,316,0,0
714,708,0,0,0,0,0,0,0,0,0,-1,1938,316,0,0
721,708,0,0,0,0,0,0,0,0,0,-1,1945,316,0,0
728,708,0,0,0,0,0,0,0,0,0,-1,1952,316,0,0
735,708,0,0,0,0,0,0,0,0,0,-1,1959,316,0,0
742,708,0,0,0,0,0,0,0,0,0,-1,1966,316,0,0
749,708,0,0,0,0,0,0,0,0,0,-1,1973,316,0,0
756,708,0,0,0,0,0,0,0,0,0,-1,1980,316,0,0
763,708,0,0,0,0,0,0,0,0,0,-1,1987,316,0,0
770,708,0,0,0,0,0,0,0,0,0,-1,1994,316,0,0
777,708,0,0,0,0,0,0,0,0,0,-1,2001,316,0,0
784,708,0,0,0,0,0,0,0,0,0,-1,2008,316,0,0
791,708,0,0,0,0,0,0,0,0,0,-1,2015,316,0,0
798,708,0,0,0,0,0,0,0,0,0,-1,2022,316,0,0
805,708,0,0,0,0,0,0,0,0,0,-1,2029,316,0,0
812,708,0,0,0,0,0,0,0,0,0,-1,2036,316,0,0
-700,701,0,0,0,0,0,0,0,0,0,-1,524,323,0,0
-693,701,0,0,0,0,0,0,0,0,0,-1,531,323,0,0
-686,701,0,0,0,0,0,0,0,0,0,-1,538,323,0,0
-679,701,0,0,0,0,0,0,0,0,0,-1,545,323,0,0
-672,701,0,0,0,0,0,0,0,0,0,-1,552,323,0,0
-665,701,0,0,0,0,0,0,0,0,0,-1,559,323,0,0
-658,701,0,0,0,0,0,0,0,0,0,-1,566,323,0,0
-651,701,0,0,0,0,0,0,0,0,0,-1,573,323,0,0
-644,701,0,0,0,0,0,0,0,0,0,-1,580,323,0,0
-637,701,0,0,0,0,0,0,0,0,0,-1,587,323,0,0
-630,701,0,0,0,0,0,0,0,0,0,-1,594,323,0,0
-623,701,0,0,0,0,0,0,0,0,0,-1,601,323,0,0
-616,701,0,0,0,0,0,0,0,0,0,-1,608,323,0,0
-609,701,0,0,0,0,0,0,0,0,0,-1,615,323,0,0
-602,701,0,0,0,0,0,0,0,0,0,-1,622,323,0,0
-595,701,0,0,0,0,0,0,0,0,0,-1,629,323,0,0
-588,701,0,0,0,0,0,0,0,0,0,-1,636,323,0,0
-581,701,0,0,0,0,0,0,0,0,0,-1,643,323,0,0
-574,701,0,0,0,0,0,0,0,0,0,-1,650,323,0,0
-567,701,0,0,0,0,0,0,0,0,0,-1,657,323,0,0
-560,701,0,0,0,0,0,0,0,0,0,-1,664,323,0,0
-553,701,0,0,0,0,0,0,0,0,0,-1,671,323,0,0
-546,701,0,0,0,0,0,0,0,0,0,-1,678,323,0,0
-539,701,0,0,0,0,0,0,0,0,0,-1,685,323,0,0
-532,701,0,0,0,0,0,0,0,0,0,-1,692,323,0,0
-525,701,0,0,0,0,0,0,0,0,0,-1,699,323,0,0
-518,701,0,0,0,0,0,0,0,0,0,-1,706,323,0,0
-511,701,0,0,0,0,0,0,0,0,0,-1,713,323,0,0
-504,701,0,0,0,0,0,0,0,0,0,-1,720,323,0,0
-497,701,0,0,0,0,0,0,0,0,0,-1,727,323,0,0
-490,701,0,0,0,0,0,0,0,0,0,-1,734,323,0,0
-483,701,0,0,0,0,0,0,0,0,0,-1,741,323,0,0
-476,701,0,0,0,0,0,0,0,0,0,-1,748,323,0,0
-469,701,0,0,0,0,0,0,0,0,0,-1,755,323,0,0
-462,701,0,0,0,0,0,0,0,0,0,-1,762,323,0,0
-455,701,0,0,0,0,0,0,0,0,0,-1,769,323,0,0
-448,701,0,0,0,0,0,0,0,0,0,-1,776,323,0,0
-441,701,0,0,0,0,0,0,0,0,0,-1,783,323,0,0
-434,701,0,0,0,0,0,0,0,0,0,-1,790,323,0,0
-427,701,0,0,0,0,0,0,0,0,0,-1,797,323,0,0
-420,701,0,0,0,0,0,0,0,0,0,-1,804,323,0,0
-413,701,0,0,0,0,0,0,0,0,0,-1,811,323,0,0
-406,701,0,0,0,0,0,0,0,0,0,-1,818,323,0,0
-399,701,0,0,0,0,0,0,0,0,0,-1,825,323,0,0
-392,701,0,0,0,0,0,0,0,0,0,-1,832,323,0,0
-385,701,0,0,0,0,0,0,0,0,0,-1,839,323,0,0
-378,701,0,0,0,0,0,0,0,0,0,-1,846,323,0,0
-371,701,0,0,0,0,0,0,0,0,0,-1,853,323,0,0
-364,701,0,0,0,0,0,0,0,0,0,-1,860,323,0,0
-357,701,0,0,0,0,0,0,0,0,0,-1,867,323,0,0
-350,701,0,0,0,0,0,0,0,0,0,-1,874,323,0,0
-343,701,0,0,0,0,0,0,0,0,0,-1,881,323,0,0
-336,701,0,0,0,0,0,0,0,0,0,-1,888,323,0,0
-329,701,0,0,0,0,0,0,0,0,0,-1,895,323,0,0
-322,701,0,0,0,0,0,0,0,0,0,-1,902,323,0,0
-315,701,0,0,0,0,0,0,0,0,0,-1,909,323,0,0
-308,701,0,0,0,0,0,0,0,0,0,-1,916,323,0,0
-301,701,0,0,0,0,0,0,0,0,0,-1,923,323,0,0
-294,701,0,0,0,0,0,0,0,0,0,-1,930,323,0,0
-287,701,0,0,0,0,0,0,0,0,0,-1,937,323,0,0
-280,701,0,0,0,0,0,0,0,0,0,-1,944,323,0,0
-273,701,0,0,0,0,0,0,0,0,0,-1,951,323,0,0
-266,701,0,0,0,0,0,0,0,0,0,-1,958,323,0,0
-259,701,0,0,0,0,0,0,0,0,0,-1,965,323,0,0
-252,701,0,0,0,0,0,0,0,0,0,-1,972,323,0,0
-245,701,0,0,0,0,0,0,0,0,0,-1,979,323,0,0
-238,701,0,0,0,0,0,0,0,0,0,-1,986,323,0,0
-231,701,0,0,0,0,0,0,0,0,0,-1,993,323,0,0
-224,701,0,0,0,0,0,0,0,0,0,-1,1000,323,0,0
-217,701,0,0,0,0,0,0,0,0,0,-1,1007,323,0,0
-210,701,0,0,0,0,0,0,0,0,0,-1,1014,323,0,0
-203,701,0,0,0,0,0,0,0,0,0,-1,1021,323,0,0
-196,701,0,0,0,0,0,0,0,0,0,-1,1028,323,0,0
-189,701,0,0,0,0,0,0,0,0,0,-1,1035,323,0,0
-182,701,0,0,0,0,0,0,0,0,0,-1,1042,323,0,0
-175,701,0,0,0,0,0,0,0,0,0,-1,1049,323,0,0
-168,701,0,0,0,0,0,0,0,0,0,-1,1056,323,0,0
-161,701,0,0,0,0,0,0,0,0,0,-1,1063,323,0,0
-154,701,0,0,0,0,0,0,0,0,0,-1,1070,323,0,0
-147,701,0,0,0,0,0,0,0,0,0,-1,1077,323,0,0
-140,701,0,0,0,0,0,0,0,0,0,-1,1084,323,0,0
-133,701,0,0,0,0,0,0,0,0,0,-1,1091,323,0,0
-126,701,0,0,0,0,0,0,0,0,0,-1,1098,323,0,0
-119,701,0,0,0,0,0,0,0,0,0,-1,1105,323,0,0
-112,701,0,0,0,0,0,0,0,0,0,-1,1112,323,0,0
-105,701,0,0,0,0,0,0,0,0,0,-1,1119,323,0,0
-98,701,0,0,0,0,0,0,0,0,0,-1,1126,323,0,0
-91,701,0,0,0,0,0,0,0,0,0,-1,1133,323,0,0
-84,701,0,0,0,0,0,0,0,0,0,-1,1140,323,0,0
-77,701,0,0,0,0,0,0,0,0,0,-1,1147,323,0,0
-70,701,-12.7566,-30.413,0,0,0,0,0,0,0,-1,1154,323,-12.7566,30.413
-63,701,-18.3169,-21.2322,0,0,0,0,0,0,0,-1,1161,323,-18.3169,21.2322
-56,701,-0.420166,-0.101776,0,0,0,0,0,0,0,-1,1168,323,-0.420119,0.101777
-49,701,-1.09021,-0.155762,0,0,0,0,0,0,0,-1,1175,323,-1.09024,0.155768
-42,701,-0.210327,-0.299133,0,0,0,0,0,0,0,-1,1182,323,-0.210379,0.29914
-35,701,-2.9635,-7.98676,0,0,0,0,0,0,0,-1,1189,323,-2.9635,7.98676
-28,701,-6.64417,-5.4917,0,0,0,0,0,0,0,-1,1196,323,-6.64411,5.4917
-21,701,5.77478,-39.884,0,0,0,0,0,0,0,-1,1203,323,5.77475,39.884
-14,701,8.25208,-39.9907,0,0,0,0,0,0,0,-1,1210,323,8.25203,39.9907
-7,701,6.43408,-42.1233,0,0,0,0,0,0,0,-1,1217,323,6.43408,42.1233
0,701,6.40417,-42.3596,0,0,0,0,0,0,0,-1,1224,323,6.40421,42.3596
7,701,7.58118,-40.5631,0,0,0,0,0,0,0,-1,1231,323,7.58123,40.5631
14,701,5.14001,-43.0994,0,0,0,0,0,0,0,-1,1238,323,5.13998,43.0994
21,701,5.3562,-42.3637,0.00454794,0.00572145,0.00647202,0.0116333,-0.00136387,0.830605,0.0082478,0.0447801,1245,323,5.35617,42.3637
28,701,5.46289,-41.9092,-0.000645477,0.00614137,0.00550169,0.00921199,-0.0037161,1.06174,0.00768556,0.0448223,1252,323,5.46288,41.9092
35,701,5.43872,-42.467,-0.00801957,0.00728594,0.00566925,0.00915711,-0.00989074,1.252,0.011,0.0454748,1259,323,5.43868,42.467
42,701,5.78857,-42.697,0,0,0,0,0,0,0,-1,1266,323,5.78856,42.697
49,701,5.78845,-42.6415,0,0,0,0,0,0,0,-1,1273,323,5.78851,42.6415
56,701,5.66382,-42.7181,0,0,0,0,0,0,0,-1,1280,323,5.66385,42.7181
63,701,5.06653,-42.5279,0.00337986,0.0363861,0.0142759,0.041704,-0.00193797,1.21422,0.0284706,0.0409992,1287,323,5.06655,42.5279
70,701,4.50745,-42.5358,0.0168143,0.0494287,0.0188197,0.0580235,0.00821958,1.14239,0.0362544,0.0431252,1294,323,4.50743,42.5358
77,701,3.89514,-42.4945,0.0345057,0.0647142,0.0279624,0.081391,0.0178289,1.03303,0.049402,0.0455988,1301,323,3.89514,42.4945
84,701,3.33215,-42.4154,0.0584624,0.0859172,0.0410683,0.115492,0.028888,0.946689,0.0693991,0.0461304,1308,323,3.3321,42.4154
91,701,3.03821,-42.2737,0.0892291,0.108604,0.0560775,0.155825,0.0420084,0.870929,0.0930952,0.0451555,1315,323,3.03821,42.2737
98,701,2.61755,-42.3916,0.121831,0.132118,0.0729134,0.200069,0.0538797,0.820612,0.119538,0.0479683,1322,323,2.61755,42.3916
105,701,2.03088,-42.3747,0.151836,0.154452,0.0909294,0.244083,0.0622052,0.792591,0.146458,0.0470065,1329,323,2.03089,42.3747
112,701,8.34875,-33.7197,0.178949,0.176946,0.111029,0.28898,0.0669137,0.780888,0.174675,0.0468063,1336,323,8.34872,33.7197
119,701,8.63184,-32.946,0,0,0,0,0,0,0,-1,1343,323,8.63184,32.946
126,701,9.64771,-30.4149,0.215213,0.217416,0.152122,0.368441,0.064188,0.789019,0.227273,0.0474835,1350,323,9.64773,30.4149
133,701,9.69568,-28.714,0.218418,0.23162,0.170667,0.395813,0.0542249,0.804727,0.247786,0.0478579,1357,323,9.69569,28.714
140,701,9.93604,-27.4637,0,0,0,0,0,0,0,-1,1364,323,9.93601,27.4638
147,701,10.582,-26.2791,0,0,0,0,0,0,0,-1,1371,323,10.582,26.279
154,701,1.96045,-33.9527,0,0,0,0,0,0,0,-1,1378,323,1.96041,33.9527
161,701,4.09717,-35.8294,0,0,0,0,0,0,0,-1,1385,323,4.09715,35.8294
168,701,30.7272,1.76184,0,0,0,0,0,0,0,-1,1392,323,30.7272,-1.76184
175,701,31.5035,2.25711,0,0,0,0,0,0,0,-1,1399,323,31.5036,-2.25712
182,701,8.80652,5.42807,0,0,0,0,0,0,0,-1,1406,323,8.8065,-5.42808
189,701,8.58081,4.24493,0,0,0,0,0,0,0,-1,1413,323,8.58082,-4.24494
196,701,0,0,0,0,0,0,0,0,0,-1,1420,323,0,0
203,701,0,0,0,0,0,0,0,0,0,-1,1427,323,0,0
210,701,0,0,0,0,0,0,0,0,0,-1,1434,323,0,0
217,701,0,0,0,0,0,0,0,0,0,-1,1441,323,0,0
224,701,0,0,0,0,0,0,0,0,0,-1,1448,323,0,0
231,701,0,0,0,0,0,0,0,0,0,-1,1455,323,0,0
238,701,0,0,0,0,0,0,0,0,0,-1,1462,323,0,0
245,701,0,0,0,0,0,0,0,0,0,-1,1469,323,0,0
252,701,0,0,0,0,0,0,0,0,0,-1,1476,323,0,0
259,701,0,0,0,0,0,0,0,0,0,-1,1483,323,0,0
266,701,0,0,0,0,0,0,0,0,0,-1,1490,323,0,0
273,701,0,0,0,0,0,0,0,0,0,-1,1497,323,0,0
280,701,0,0,0,0,0,0,0,0,0,-1,1504,323,0,0
287,701,0,0,0,0,0,0,0,0,0,-1,1511,323,0,0
294,701,0,0,0,0,0,0,0,0,0,-1,1518,323,0,0
301,701,0,0,0,0,0,0,0,0,0,-1,1525,323,0,0
308,701,0,0,0,0,0,0,0,0,0,-1,1532,323,0,0
315,701,0,0,0,0,0,0,0,0,0,-1,1539,323,0,0
322,701,0,0,0,0,0,0,0,0,0,-1,1546,323,0,0
329,701,0,0,0,0,0,0,0,0,0,-1,1553,323,0,0
336,701,0,0,0,0,0,0,0,0,0,-1,1560,323,0,0
343,701,0,0,0,0,0,0,0,0,0,-1,1567,323,0,0
350,701,0,0,0,0,0,0,0,0,0,-1,1574,323,0,0
357,701,0,0,0,0,0,0,0,0,0,-1,1581,323,0,0
364,701,0,0,0,0,0,0,0,0,0,-1,1588,323,0,0
371,701,0,0,0,0,0,0,0,0,0,-1,1595,323,0,0
378,701,0,0,0,0,0,0,0,0,0,-1,1602,323,0,0
385,701,0,0,0,0,0,0,0,0,0,-1,1609,323,0,0
392,701,0,0,0,0,0,0,0,0,0,-1,1616,323,0,0
399,701,0,0,0,0,0,0,0,0,0,-1,1623,323,0,0
406,701,0,0,0,0,0,0,0,0,0,-1,1630,323,0,0
413,701,0,0,0,0,0,0,0,0,0,-1,1637,323,0,0
420,701,0,0,0,0,0,0,0,0,0,-1,1644,323,0,0
427,701,0,0,0,0,0,0,0,0,0,-1,1651,323,0,0
434,701,0,0,0,0,0,0,0,0,0,-1,1658,323,0,0
441,701,0,0,0,0,0,0,0,0,0,-1,1665,323,0,0
448,701,0,0,0,0,0,0,0,0,0,-1,1672,323,0,0
455,701,0,0,0,0,0,0,0,0,0,-1,1679,323,0,0
462,701,0,0,0,0,0,0,0,0,0,-1,1686,323,0,0
469,701,0,0,0,0,0,0,0,0,0,-1,1693,323,0,0
476,701,0,0,0,0,0,0,0,0,0,-1,1700,323,0,0
483,701,0,0,0,0,0,0,0,0,0,-1,1707,323,0,0
490,701,0,0,0,0,0,0,0,0,0,-1,1714,323,0,0
497,701,0,0,0,0,0,0,0,0,0,-1,1721,323,0,0
504,701,0,0,0,0,0,0,0,0,0,-1,1728,323,0,0
511,701,0,0,0,0,0,0,0,0,0,-1,1735,323,0,0
518,701,0,0,0,0,0,0,0,0,0,-1,1742,323,0,0
525,701,0,0,0,0,0,0,0,0,0,-1,1749,323,0,0
532,701,0,0,0,0,0,0,0,0,0,-1,1756,323,0,0
539,701,0,0,0,0,0,0,0,0,0,-1,1763,323,0,0
546,701,0,0,0,0,0,0,0,0,0,-1,1770,323,0,0
553,701,0,0,0,0,0,0,0,0,0,-1,1777,323,0,0
560,701,0,0,0,0,0,0,0,0,0,-1,1784,323,0,0
567,701,0,0,0,0,0,0,0,0,0,-1,1791,323,0,0
574,701,0,0,0,0,0,0,0,0,0,-1,1798,323,0,0
581,701,0,0,0,0,0,0,0,0,0,-1,1805,323,0,0
588,701,0,0,0,0,0,0,0,0,0,-1,1812,323,0,0
595,701,0,0,0,0,0,0,0,0,0,-1,1819,323,0,0
602,701,0,0,0,0,0,0,0,0,0,-1,1826,323,0,0
609,701,0,0,0,0,0,0,0,0,0,-1,1833,323,0,0
616,701,0,0,0,0,0,0,0,0,0,-1,1840,323,0,0
623,701,0,0,0,0,0,0,0,0,0,-1,1847,323,0,0
630,701,0,0,0,0,0,0,0,0,0,-1,1854,323,0,0
637,701,0,0,0,0,0,0,0,0,0,-1,1861,323,0,0
644,701,0,0,0,0,0,0,0,0,0,-1,1868,323,0,0
651,701,0,0,0,0,0,0,0,0,0,-1,1875,323,0,0
658,701,0,0,0,0,0,0,0,0,0,-1,1882,323,0,0
665,701,0,0,0,0,0,0,0,0,0,-1,1889,323,0,0
672,701,0,0,0,0,0,0,0,0,0,-1,1896,323,0,0
679,701,0,0,0,0,0,0,0,0,0,-1,1903,323,0,0
686,701,0,0,0,0,0,0,0,0,0,-1,1910,323,0,0
693,701,0,0,0,0,0,0,0,0,0,-1,1917,323,0,0
700,701,0,0,0,0,0,0,0,0,0,-1,1924,323,0,0
707,701,0,0,0,0,0,0,0,0,0,-1,1931,323,0,0
714,701,0,0,0,0,0,0,0,0,0,-1,1938,323,0,0
721,701,0,0,0,0,0,0,0,0,0,-1,1945,323,0,0
728,701,0,0,0,0,0,0,0,0,0,-1,1952,323,0,0
735,701,0,0,0,0,0,0,0,0,0,-1,1959,323,0,0
742,701,0,0,0,0,0,0,0,0,0,-1,1966,323,0,0
749,701,0,0,0,0,0,0,0,0,0,-1,1973,323,0,0
756,701,0,0,0,0,0,0,0,0,0,-1,1980,323,0,0
763,701,0,0,0,0,0,0,0,0,0,-1,1987,323,0,0
770,701,0,0,0,0,0,0,0,0,0,-1,1994,323,0,0
777,701,0,0,0,0,0,0,0,0,0,-1,2001,323,0,0
784,701,0,0,0,0,0,0,0,0,0,-1,2008,323,0,0
791,701,0,0,0,0,0,0,0,0,0,-1,2015,323,0,0
798,701,0,0,0,0,0,0,0,0,0,-1,2022,323,0,0
805,701,0,0,0,0,0,0,0,0,0,-1,2029,323,0,0
812,701,0,0,0,0,0,0,0,0,0,-1,2036,323,0,0
-700,694,0,0,0,0,0,0,0,0,0,-1,524,330,0,0
-693,694,0,0,0,0,0,0,0,0,0,-1,531,330,0,0
-686,694,0,0,0,0,0,0,0,0,0,-1,538,330,0,0
-679,694,0,0,0,0,0,0,0,0,0,-1,545,330,0,0
-672,694,0,0,0,0,0,0,0,0,0,-1,552,330,0,0
-665,694,0,0,0,0,0,0,0,0,0,-1,559,330,0,0
-658,694,0,0,0,0,0,0,0,0,0,-1,566,330,0,0
-651,694,0,0,0,0,0,0,0,0,0,-1,573,330,0,0
-644,694,0,0,0,0,0,0,0,0,0,-1,580,330,0,0
-637,694,0,0,0,0,0,0,0,0,0,-1,587,330,0,0
-630,694,0,0,0,0,0,0,0,0,0,-1,594,330,0,0
-623,694,0,0,0,0,0,0,0,0,0,-1,601,330,0,0
-616,694,0,0,0,0,0,0,0,0,0,-1,608,330,0,0
-609,694,0,0,0,0,0,0,0,0,0,-1,615,330,0,0
-602,694,0,0,0,0,0,0,0,0,0,-1,622,330,0,0
-595,694,0,0,0,0,0,0,0,0,0,-1,629,330,0,0
-588,694,0,0,0,0,0,0,0,0,0,-1,636,330,0,0
-581,694,0,0,0,0,0,0,0,0,0,-1,643,330,0,0
-574,694,0,0,0,0,0,0,0,0,0,-1,650,330,0,0
-567,694,0,0,0,0,0,0,0,0,0,-1,657,330,0,0
-560,694,0,0,0,0,0,0,0,0,0,-1,664,330,0,0
-553,694,0,0,0,0,0,0,0,0,0,-1,671,330,0,0
-546,694,0,0,0,0,0,0,0,0,0,-1,678,330,0,0
-539,694,0,0,0,0,0,0,0,0,0,-1,685,330,0,0
-532,694,0,0,0,0,0,0,0,0,0,-1,692,330,0,0
-525,694,0,0,0,0,0,0,0,0,0,-1,699,330,0,0
-518,694,0,0,0,0,0,0,0,0,0,-1,706,330,0,0
-511,694,0,0,0,0,0,0,0,0,0,-1,713,330,0,0
-504,694,0,0,0,0,0,0,0,0,0,-1,720,330,0,0
-497,694,0,0,0,0,0,0,0,0,0,-1,727,330,0,0
-490,694,0,0,0,0,0,0,0,0,0,-1,734,330,0,0
-483,694,0,0,0,0,0,0,0,0,0,-1,741,330,0,0
-476,694,0,0,0,0,0,0,0,0,0,-1,748,330,0,0
-469,694,0,0,0,0,0,0,0,0,0,-1,755,330,0,0
-462,694,0,0,0,0,0,0,0,0,0,-1,762,330,0,0
-455,694,0,0,0,0,0,0,0,0,0,-1,769,330,0,0
-448,694,0,0,0,0,0,0,0,0,0,-1,776,330,0,0
-441,694,0,0,0,0,0,0,0,0,0,-1,783,330,0,0
-434,694,0,0,0,0,0,0,0,0,0,-1,790,330,0,0
-427,694,0,0,0,0,0,0,0,0,0,-1,797,330,0,0
-420,694,0,0,0,0,0,0,0,0,0,-1,804,330,0,0
-413,694,0,0,0,0,0,0,0,0,0,-1,811,330,0,0
-406,694,0,0,0,0,0,0,0,0,0,-1,818,330,0,0
-399,694,0,0,0,0,0,0,0,0,0,-1,825,330,0,0
-392,694,0,0,0,0,0,0,0,0,0,-1,832,330,0,0
-385,694,0,0,0,0,0,0,0,0,0,-1,839,330,0,0
-378,694,0,0,0,0,0,0,0,0,0,-1,846,330,0,0
-371,694,0,0,0,0,0,0,0,0,0,-1,853,330,0,0
-364,694,0,0,0,0,0,0,0,0,0,-1,860,330,0,0
-357,694,0,0,0,0,0,0,0,0,0,-1,867,330,0,0
-350,694,0,0,0,0,0,0,0,0,0,-1,874,330,0,0
-343,694,0,0,0,0,0,0,0,0,0,-1,881,330,0,0
-336,694,0,0,0,0,0,0,0,0,0,-1,888,330,0,0
-329,694,0,0,0,0,0,0,0,0,0,-1,895,330,0,0
-322,694,0,0,0,0,0,0,0,0,0,-1,902,330,0,0
-315,694,0,0,0,0,0,0,0,0,0,-1,909,330,0,0
-308,694,0,0,0,0,0,0,0,0,0,-1,916,330,0,0
-301,694,0,0,0,0,0,0,0,0,0,-1,923,330,0,0
-294,694,0,0,0,0,0,0,0,0,0,-1,930,330,0,0
-287,694,0,0,0,0,0,0,0,0,0,-1,937,330,0,0
-280,694,0,0,0,0,0,0,0,0,0,-1,944,330,0,0
-273,694,0,0,0,0,0,0,0,0,0,-1,951,330,0,0
-266,694,0,0,0,0,0,0,0,0,0,-1,958,330,0,0
-259,694,0,0,0,0,0,0,0,0,0,-1,965,330,0,0
-252,694,0,0,0,0,0,0,0,0,0,-1,972,330,0,0
-245,694,0,0,0,0,0,0,0,0,0,-1,979,330,0,0
-238,694,0,0,0,0,0,0,0,0,0,-1,986,330,0,0
-231,694,0,0,0,0,0,0,0,0,0,-1,993,330,0,0
-224,694,0,0,0,0,0,0,0,0,0,-1,1000,330,0,0
-217,694,0,0,0,0,0,0,0,0,0,-1,1007,330,0,0
-210,694,0,0,0,0,0,0,0,0,0,-1,1014,330,0,0
-203,694,0,0,0,0,0,0,0,0,0,-1,1021,330,0,0
-196,694,0,0,0,0,0,0,0,0,0,-1,1028,330,0,0
-189,694,0,0,0,0,0,0,0,0,0,-1,1035,330,0,0
-182,694,0,0,0,0,0,0,0,0,0,-1,1042,330,0,0
-175,694,0,0,0,0,0,0,0,0,0,-1,1049,330,0,0
-168,694,0,0,0,0,0,0,0,0,0,-1,1056,330,0,0
-161,694,0,0,0,0,0,0,0,0,0,-1,1063,330,0,0
-154,694,0,0,0,0,0,0,0,0,0,-1,1070,330,0,0
-147,694,0,0,0,0,0,0,0,0,0,-1,1077,330,0,0
-140,694,0,0,0,0,0,0,0,0,0,-1,1084,330,0,0
-133,694,0,0,0,0,0,0,0,0,0,-1,1091,330,0,0
-126,694,0,0,0,0,0,0,0,0,0,-1,1098,330,0,0
-119,694,0,0,0,0,0,0,0,0,0,-1,1105,330,0,0
-112,694,0,0,0,0,0,0,0,0,0,-1,1112,330,0,0
-105,694,2.5188,-19.3963,0,0,0,0,0,0,0,-1,1119,330,2.51882,19.3963
-98,694,1.34875,-10.1051,0,0,0,0,0,0,0,-1,1126,330,1.34874,10.1051
-91,694,6.62366,-46.8039,0,0,0,0,0,0,0,-1,1133,330,6.62363,46.8039
-84,694,0.0577393,-40.8823,0,0,0,0,0,0,0,-1,1140,330,0.0577026,40.8823
-77,694,-5.51379,-31.2714,0,0,0,0,0,0,0,-1,1147,330,-5.51383,31.2714
-70,694,-11.9945,-25.5143,0,0,0,0,0,0,0,-1,1154,330,-11.9945,25.5143
-63,694,-18.4752,-19.7572,0,0,0,0,0,0,0,-1,1161,330,-18.4752,19.7572
-56,694,-6.50623,-0.649139,0,0,0,0,0,0,0,-1,1168,330,-6.5062,0.649126
-49,694,-1.11426,0.0341797,0,0,0,0,0,0,0,-1,1175,330,-1.11424,-0.0341846
-42,694,-0.346313,-0.709595,0,0,0,0,0,0,0,-1,1182,330,-0.346298,0.709581
-35,694,-0.459106,-1.24713,0,0,0,0,0,0,0,-1,1189,330,-0.459142,1.24714
-28,694,-6.48413,-3.95972,0,0,0,0,0,0,0,-1,1196,330,-6.48414,3.9597
-21,694,5.77185,-39.7137,0,0,0,0,0,0,0,-1,1203,330,5.77182,39.7137
-14,694,6.33472,-42.0797,0,0,0,0,0,0,0,-1,1210,330,6.33471,42.0796
-7,694,6.33411,-42.2754,0.00759489,0.00391994,0.00677886,0.0127809,-0.00126607,0.653049,0.00897244,0.0485842,1217,330,6.3341,42.2754
0,694,6.31836,-42.4662,0,0,0,0,0,0,0,-1,1224,330,6.31841,42.4662
7,694,5.2063,-44.6011,0,0,0,0,0,0,0,-1,1231,330,5.20636,44.6011
14,694,5.27576,-43.5082,0.00418754,0.00937858,0.00469592,0.0121485,0.00141758,1.03786,0.00767029,0.0430511,1238,330,5.27576,43.5083
21,694,5.40674,-42.509,0.00110451,0.0108089,0.00398432,0.0122351,-0.000321728,1.22705,0.00826607,0.0445421,1245,330,5.40671,42.509
28,694,5.44885,-42.085,0,0,0,0,0,0,0,-1,1252,330,5.44889,42.085
35,694,5.56042,-42.3985,-0.00818735,0.0133264,0.0035853,0.0139082,-0.00876911,1.40993,0.0132043,0.0468259,1259,330,5.56039,42.3985
42,694,5.67651,-42.6639,-0.0128067,0.018064,0.00504785,0.0188684,-0.0136111,1.41276,0.0188338,0.0475598,1266,330,5.67655,42.6639
49,694,5.40393,-42.7118,-0.0172238,0.024508,0.00685482,0.0256051,-0.0183209,1.41209,0.0254767,0.0450591,1273,330,5.40388,42.7118
56,694,5.19812,-42.7552,-0.0130791,0.0297153,0.00499733,0.0302911,-0.013655,1.45608,0.0259712,0.0414935,1280,330,5.19809,42.7552
63,694,4.81042,-42.5733,0.00366808,0.0410761,0.0130726,0.0451916,-0.000447474,1.2658,0.030278,0.0412919,1287,330,4.81041,42.5733
70,694,4.17725,-42.4858,0.0148818,0.0530802,0.0177999,0.0600888,0.00787319,1.1957,0.0377098,0.0423639,1294,330,4.17725,42.4858
77,694,6.18213,-40.6701,0.029641,0.0670225,0.0264995,0.0807596,0.0159039,1.09254,0.0493993,0.0441444,1301,330,6.18212,40.6701
84,694,2.8999,-42.3578,0.0488758,0.085318,0.0382537,0.109469,0.0247253,1.00766,0.0662925,0.0443224,1308,330,2.89994,42.3578
91,694,6.79749,-38.0055,0,0,0,0,0,0,0,-1,1315,330,6.79749,38.0055
98,694,2.33704,-43.5032,0,0,0,0,0,0,0,-1,1322,330,2.33698,43.5032
105,694,7.48975,-36.0101,0.117941,0.139055,0.0783302,0.207536,0.0494595,0.852381,0.125172,0.0443024,1329,330,7.48979,36.0101
112,694,7.98267,-35.4701,0.137216,0.155856,0.0934243,0.240424,0.0526484,0.835114,0.145934,0.0441775,1336,330,7.98271,35.4701
119,694,8.24695,-34.7338,0,0,0,0,0,0,0,-1,1343,330,8.24699,34.7338
126,694,8.52124,-32.1893,0.162183,0.185216,0.123282,0.297518,0.0498809,0.831972,0.183986,0.0476285,1350,330,8.52123,32.1893
133,694,8.86768,-30.474,0.164456,0.19513,0.136146,0.3168,0.0427856,0.841486,0.198482,0.0431923,1357,330,8.86763,30.474
140,694,9.45068,-29.2095,0,0,0,0,0,0,0,-1,1364,330,9.45064,29.2095
147,694,10.1522,-28.0809,0,0,0,0,0,0,0,-1,1371,330,10.1523,28.0809
154,694,10.5995,-26.7195,0,0,0,0,0,0,0,-1,1378,330,10.5995,26.7195
161,694,4.76746,-36.9827,0,0,0,0,0,0,0,-1,1385,330,4.76745,36.9827
168,694,30.451,0.196686,0,0,0,0,0,0,0,-1,1392,330,30.4511,-0.196674
175,694,31.0701,0.869873,0,0,0,0,0,0,0,-1,1399,330,31.07,-0.869874
182,694,8.29028,5.75238,0,0,0,0,0,0,0,-1,1406,330,8.29034,-5.75237
189,694,7.9801,4.46118,0,0,0,0,0,0,0,-1,1413,330,7.9801,-4.46118
196,694,7.39331,3.32632,0,0,0,0,0,0,0,-1,1420,330,7.39329,-3.32633
203,694,7.04492,2.20529,0,0,0,0,0,0,0,-1,1427,330,7.04496,-2.20529
210,694,6.44714,0.646912,0,0,0,0,0,0,0,-1,1434,330,6.44717,-0.646903
217,694,7.12061,-0.644958,0,0,0,0,0,0,0,-1,1441,330,7.12059,0.644961
224,694,6.74011,-1.70544,0,0,0,0,0,0,0,-1,1448,330,6.74013,1.70546
231,694,0,0,0,0,0,0,0,0,0,-1,1455,330,0,0
238,694,0,0,0,0,0,0,0,0,0,-1,1462,330,0,0
245,694,0,0,0,0,0,0,0,0,0,-1,1469,330,0,0
252,694,0,0,0,0,0,0,0,0,0,-1,1476,330,0,0
259,694,0,0,0,0,0,0,0,0,0,-1,1483,330,0,0
266,694,0,0,0,0,0,0,0,0,0,-1,1490,330,0,0
273,694,0,0,0,0,0,0,0,0,0,-1,1497,330,0,0
280,694,0,0,0,0,0,0,0,0,0,-1,1504,330,0,0
287,694,0,0,0,0,0,0,0,0,0,-1,1511,330,0,0
294,694,0,0,0,0,0,0,0,0,0,-1,1518,330,0,0
301,694,0,0,0,0,0,0,0,0,0,-1,1525,330,0,0
308,694,0,0,0,0,0,0,0,0,0,-1,1532,330,0,0
315,694,0,0,0,0,0,0,0,0,0,-1,1539,330,0,0
322,694,0,0,0,0,0,0,0,0,0,-1,1546,330,0,0
329,694,0,0,0,0,0,0,0,0,0,-1,1553,330,0,0
336,694,0,0,0,0,0,0,0,0,0,-1,1560,330,0,0
343,694,0,0,0,0,0,0,0,0,0,-1,1567,330,0,0
350,694,0,0,0,0,0,0,0,0,0,-1,1574,330,0,0
357,694,0,0,0,0,0,0,0,0,0,-1,1581,330,0,0
364,694,0,0,0,0,0,0,0,0,0,-1,1588,330,0,0
371,694,0,0,0,0,0,0,0,0,0,-1,1595,330,0,0
378,694,0,0,0,0,0,0,0,0,0,-1,1602,330,0,0
385,694,0,0,0,0,0,0,0,0,0,-1,1609,330,0,0
392,694,0,0,0,0,0,0,0,0,0,-1,1616,330,0,0
399,694,0,0,0,0,0,0,0,0,0,-1,1623,330,0,0
406,694,0,0,0,0,0,0,0,0,0,-1,1630,330,0,0
413,694,0,0,0,0,0,0,0,0,0,-1,1637,330,0,0
420,694,0,0,0,0,0,0,0,0,0,-1,1644,330,0,0
427,694,0,0,0,0,0,0,0,0,0,-1,1651,330,0,0
434,694,0,0,0,0,0,0,0,0,0,-1,1658,330,0,0
441,694,0,0,0,0,0,0,0,0,0,-1,1665,330,0,0
448,694,0,0,0,0,0,0,0,0,0,-1,1672,330,0,0
455,694,0,0,0,0,0,0,0,0,0,-1,1679,330,0,0
462,694,0,0,0,0,0,0,0,0,0,-1,1686,330,0,0
469,694,0,0,0,0,0,0,0,0,0,-1,1693,330,0,0
476,694,0,0,0,0,0,0,0,0,0,-1,1700,330,0,0
483,694,0,0,0,0,0,0,0,0,0,-1,1707,330,0,0
490,694,0,0,0,0,0,0,0,0,0,-1,1714,330,0,0
497,694,0,0,0,0,0,0,0,0,0,-1,1721,330,0,0
504,694,0,0,0,0,0,0,0,0,0,-1,1728,330,0,0
511,694,0,0,0,0,0,0,0,0,0,-1,1735,330,0,0
518,694,0,0,0,0,0,0,0,0,0,-1,1742,330,0,0
525,694,0,0,0,0,0,0,0,0,0,-1,1749,330,0,0
532,694,0,0,0,0,0,0,0,0,0,-1,1756,330,0,0
539,694,0,0,0,0,0,0,0,0,0,-1,1763,330,0,0
546,694,0,0,0,0,0,0,0,0,0,-1,1770,330,0,0
553,694,0,0,0,0,0,0,0,0,0,-1,1777,330,0,0
560,694,0,0,0,0,0,0,0,0,0,-1,1784,330,0,0
567,694,0,0,0,0,0,0,0,0,0,-1,1791,330,0,0
574,694,0,0,0,0,0,0,0,0,0,-1,1798,330,0,0
581,694,0,0,0,0,0,0,0,0,0,-1,1805,330,0,0
588,694,0,0,0,0,0,0,0,0,0,-1,1812,330,0,0
595,694,0,0,0,0,0,0,0,0,0,-1,1819,330,0,0
602,694,0,0,0,0,0,0,0,0,0,-1,1826,330,0,0
609,694,0,0,0,0,0,0,0,0,0,-1,1833,330,0,0
616,694,0,0,0,0,0,0,0,0,0,-1,1840,330,0,0
623,694,0,0,0,0,0,0,0,0,0,-1,1847,330,0,0
630,694,0,0,0,0,0,0,0,0,0,-1,1854,330,0,0
637,694,0,0,0,0,0,0,0,0,0,-1,1861,330,0,0
644,694,0,0,0,0,0,0,0,0,0,-1,1868,330,0,0
651,694,0,0,0,0,0,0,0,0,0,-1,1875,330,0,0
658,694,0,0,0,0,0,0,0,0,0,-1,1882,330,0,0
665,694,0,0,0,0,0,0,0,0,0,-1,1889,330,0,0
672,694,0,0,0,0,0,0,0,0,0,-1,1896,330,0,0
679,694,0,0,0,0,0,0,0,0,0,-1,1903,330,0,0
686,694,0,0,0,0,0,0,0,0,0,-1,1910,330,0,0
693,694,0,0,0,0,0,0,0,0,0,-1,1917,330,0,0
700,694,0,0,0,0,0,0,0,0,0,-1,1924,330,0,0
707,694,0,0,0,0,0,0,0,0,0,-1,1931,330,0,0
714,694,0,0,0,0,0,0,0,0,0,-1,1938,330,0,0
721,694,0,0,0,0,0,0,0,0,0,-1,1945,330,0,0
728,694,0,0,0,0,0,0,0,0,0,-1,1952,330,0,0
735,694,0,0,0,0,0,0,0,0,0,-1,1959,330,0,0
742,694,0,0,0,0,0,0,0,0,0,-1,1966,330,0,0
749,694,0,0,0,0,0,0,0,0,0,-1,1973,330,0,0
756,694,0,0,0,0,0,0,0,0,0,-1,1980,330,0,0
763,694,0,0,0,0,0,0,0,0,0,-1,1987,330,0,0
770,694,0,0,0,0,0,0,0,0,0,-1,1994,330,0,0
777,694,0,0,0,0,0,0,0,0,0,-1,2001,330,0,0
784,694,0,0,0,0,0,0,0,0,0,-1,2008,330,0,0
791,694,0,0,0,0,0,0,0,0,0,-1,2015,330,0,0
798,694,0,0,0,0,0,0,0,0,0,-1,2022,330,0,0
805,694,0,0,0,0,0,0,0,0,0,-1,2029,330,0,0
812,694,0,0,0,0,0,0,0,0,0,-1,2036,330,0,0
-700,687,0,0,0,0,0,0,0,0,0,-1,524,337,0,0
-693,687,0,0,0,0,0,0,0,0,0,-1,531,337,0,0
-686,687,0,0,0,0,0,0,0,0,0,-1,538,337,0,0
-679,687,0,0,0,0,0,0,0,0,0,-1,545,337,0,0
-672,687,0,0,0,0,0,0,0,0,0,-1,552,337,0,0
-665,687,0,0,0,0,0,0,0,0,0,-1,559,337,0,0
-658,687,0,0,0,0,0,0,0,0,0,-1,566,337,0,0
-651,687,0,0,0,0,0,0,0,0,0,-1,573,337,0,0
-644,687,0,0,0,0,0,0,0,0,0,-1,580,337,0,0
-637,687,0,0,0,0,0,0,0,0,0,-1,587,337,0,0
-630,687,0,0,0,0,0,0,0,0,0,-1,594,337,0,0
-623,687,0,0,0,0,0,0,0,0,0,-1,601,337,0,0
-616,687,0,0,0,0,0,0,0,0,0,-1,608,337,0,0
-609,687,0,0,0,0,0,0,0,0,0,-1,615,337,0,0
-602,687,0,0,0,0,0,0,0,0,0,-1,622,337,0,0
-595,687,0,0,0,0,0,0,0,0,0,-1,629,337,0,0
-588,687,0,0,0,0,0,0,0,0,0,-1,636,337,0,0
-581,687,0,0,0,0,0,0,0,0,0,-1,643,337,0,0
-574,687,0,0,0,0,0,0,0,0,0,-1,650,337,0,0
-567,687,0,0,0,0,0,0,0,0,0,-1,657,337,0,0
-560,687,0,0,0,0,0,0,0,0,0,-1,664,337,0,0
-553,687,0,0,0,0,0,0,0,0,0,-1,671,337,0,0
-546,687,0,0,0,0,0,0,0,0,0,-1,678,337,0,0
-539,687,0,0,0,0,0,0,0,0,0,-1,685,337,0,0
-532,687,0,0,0,0,0,0,0,0,0,-1,692,337,0,0
-525,687,0,0,0,0,0,0,0,0,0,-1,699,337,0,0
-518,687,0,0,0,0,0,0,0,0,0,-1,706,337,0,0
-511,687,0,0,0,0,0,0,0,0,0,-1,713,337,0,0
-504,687,0,0,0,0,0,0,0,0,0,-1,720,337,0,0
-497,687,0,0,0,0,0,0,0,0,0,-1,727,337,0,0
-490,687,0,0,0,0,0,0,0,0,0,-1,734,337,0,0
-483,687,0,0,0,0,0,0,0,0,0,-1,741,337,0,0
-476,687,0,0,0,0,0,0,0,0,0,-1,748,337,0,0
-469,687,0,0,0,0,0,0,0,0,0,-1,755,337,0,0
-462,687,0,0,0,0,0,0,0,0,0,-1,762,337,0,0
-455,687,0,0,0,0,0,0,0,0,0,-1,769,337,0,0
-448,687,0,0,0,0,0,0,0,0,0,-1,776,337,0,0
-441,687,0,0,0,0,0,0,0,0,0,-1,783,337,0,0
-434,687,0,0,0,0,0,0,0,0,0,-1,790,337,0,0
-427,687,0,0,0,0,0,0,0,0,0,-1,797,337,0,0
-420,687,0,0,0,0,0,0,0,0,0,-1,804,337,0,0
-413,687,0,0,0,0,0,0,0,0,0,-1,811,337,0,0
-406,687,0,0,0,0,0,0,0,0,0,-1,818,337,0,0
-399,687,0,0,0,0,0,0,0,0,0,-1,825,337,0,0
-392,687,0,0,0,0,0,0,0,0,0,-1,832,337,0,0
-385,687,0,0,0,0,0,0,0,0,0,-1,839,337,0,0
-378,687,0,0,0,0,0,0,0,0,0,-1,846,337,0,0
-371,687,0,0,0,0,0,0,0,0,0,-1,853,337,0,0
-364,687,0,0,0,0,0,0,0,0,0,-1,860,337,0,0
-357,687,0,0,0,0,0,0,0,0,0,-1,867,337,0,0
-350,687,0,0,0,0,0,0,0,0,0,-1,874,337,0,0
-343,687,0,0,0,0,0,0,0,0,0,-1,881,337,0,0
-336,687,0,0,0,0,0,0,0,0,0,-1,888,337,0,0
-329,687,0,0,0,0,0,0,0,0,0,-1,895,337,0,0
-322,687,0,0,0,0,0,0,0,0,0,-1,902,337,0,0
-315,687,0,0,0,0,0,0,0,0,0,-1,909,337,0,0
-308,687,0,0,0,0,0,0,0,0,0,-1,916,337,0,0
-301,687,0,0,0,0,0,0,0,0,0,-1,923,337,0,0
-294,687,0,0,0,0,0,0,0,0,0,-1,930,337,0,0
-287,687,0,0,0,0,0,0,0,0,0,-1,937,337,0,0
-280,687,0,0,0,0,0,0,0,0,0,-1,944,337,0,0
-273,687,0,0,0,0,0,0,0,0,0,-1,951,337,0,0
-266,687,0,0,0,0,0,0,0,0,0,-1,958,337,0,0
-259,687,0,0,0,0,0,0,0,0,0,-1,965,337,0,0
-252,687,0,0,0,0,0,0,0,0,0,-1,972,337,0,0
-245,687,0,0,0,0,0,0,0,0,0,-1,979,337,0,0
-238,687,0,0,0,0,0,0,0,0,0,-1,986,337,0,0
-231,687,0,0,0,0,0,0,0,0,0,-1,993,337,0,0
-224,687,0,0,0,0,0,0,0,0,0,-1,1000,337,0,0
-217,687,0,0,0,0,0,0,0,0,0,-1,1007,337,0,0
-210,687,0,0,0,0,0,0,0,0,0,-1,1014,337,0,0
-203,687,0,0,0,0,0,0,0,0,0,-1,1021,337,0,0
-196,687,0,0,0,0,0,0,0,0,0,-1,1028,337,0,0
-189,687,0,0,0,0,0,0,0,0,0,-1,1035,337,0,0
-182,687,0,0,0,0,0,0,0,0,0,-1,1042,337,0,0
-175,687,0,0,0,0,0,0,0,0,0,-1,1049,337,0,0
-168,687,0,0,0,0,0,0,0,0,0,-1,1056,337,0,0
-161,687,0,0,0,0,0,0,0,0,0,-1,1063,337,0,0
-154,687,0,0,0,0,0,0,0,0,0,-1,1070,337,0,0
-147,687,0,0,0,0,0,0,0,0,0,-1,1077,337,0,0
-140,687,0,0,0,0,0,0,0,0,0,-1,1084,337,0,0
-133,687,7.93958,-37.548,0,0,0,0,0,0,0,-1,1091,337,7.93957,37.548
-126,687,7.81189,-35.631,0,0,0,0,0,0,0,-1,1098,337,7.81194,35.631
-119,687,7.70825,-33.9236,0,0,0,0,0,0,0,-1,1105,337,7.70826,33.9236
-112,687,7.99866,-32.2983,0,0,0,0,0,0,0,-1,1112,337,7.99866,32.2983
-105,687,1.3208,-29.8313,0,0,0,0,0,0,0,-1,1119,337,1.3208,29.8313
-98,687,13.7111,-47.5645,0,0,0,0,0,0,0,-1,1126,337,13.711,47.5645
-91,687,7.22083,-41.1667,0,0,0,0,0,0,0,-1,1133,337,7.22079,41.1666
-84,687,0.745117,-35.0345,0,0,0,0,0,0,0,-1,1140,337,0.745155,35.0345
-77,687,-5.74353,-28.9553,0,0,0,0,0,0,0,-1,1147,337,-5.74357,28.9553
-70,687,-11.6842,-19.8473,0,0,0,0,0,0,0,-1,1154,337,-11.6842,19.8473
-63,687,-17.6757,-14.8966,0,0,0,0,0,0,0,-1,1161,337,-17.6756,14.8966
-56,687,-18.104,7.81931,0,0,0,0,0,0,0,-1,1168,337,-18.104,-7.81931
-49,687,-15.6449,-9.94391,0,0,0,0,0,0,0,-1,1175,337,-15.6449,9.94392
-42,687,-4.2019,-0.405609,0,0,0,0,0,0,0,-1,1182,337,-4.20192,0.405614
-35,687,-4.42273,-0.688171,0,0,0,0,0,0,0,-1,1189,337,-4.42276,0.688178
-28,687,-1.14038,-1.39072,0,0,0,0,0,0,0,-1,1196,337,-1.14035,1.3907
-21,687,5.62231,-41.2476,0,0,0,0,0,0,0,-1,1203,337,5.62231,41.2476
-14,687,6.25879,-42.1681,0,0,0,0,0,0,0,-1,1210,337,6.25874,42.1681
-7,687,6.24158,-42.3691,0,0,0,0,0,0,0,-1,1217,337,6.24152,42.3691
0,687,6.22424,-42.5701,0,0,0,0,0,0,0,-1,1224,337,6.22429,42.5701
7,687,4.66736,-42.6704,0,0,0,0,0,0,0,-1,1231,337,4.66736,42.6704
14,687,4.93018,-42.8117,0.000435251,0.0129028,0.00250192,0.0133862,-4.80809e-05,1.37996,0.00894018,0.0433721,1238,337,4.93021,42.8117
21,687,5.27417,-42.6414,-0.00148832,0.014215,0.00213122,0.0144991,-0.00177242,1.43827,0.0103078,0.0446975,1245,337,5.2742,42.6414
28,687,5.57166,-42.4249,-0.00403144,0.0153802,0.00192293,0.0155689,-0.00422009,1.473,0.0120352,0.0471922,1252,337,5.5716,42.4249
35,687,5.8645,-42.5672,-0.00812634,0.0171493,0.00212196,0.0173262,-0.00830325,1.48762,0.0150997,0.0475823,1259,337,5.86447,42.5672
42,687,5.60083,-42.872,-0.0112045,0.0214744,0.00365819,0.0218789,-0.011609,1.46067,0.019635,0.0449686,1266,337,5.60087,42.872
49,687,5.09558,-43.0451,-0.0141067,0.0272988,0.0055417,0.0280277,-0.0148356,1.44002,0.0251348,0.0439651,1273,337,5.09564,43.0451
56,687,4.84326,-43.0558,-0.0103917,0.0323104,0.00466382,0.0328139,-0.0108951,1.46327,0.0262718,0.0437762,1280,337,4.84329,43.0558
63,687,4.68188,-42.9915,0,0,0,0,0,0,0,-1,1287,337,4.68189,42.9916
70,687,5.65051,-41.3907,0.0119829,0.0526081,0.0161604,0.0582524,0.00633863,1.23477,0.0369039,0.0426965,1294,337,5.65051,41.3907
77,687,6.00037,-41.2536,0.0238575,0.0646793,0.0239509,0.0757366,0.0128001,1.13828,0.0468114,0.0450415,1301,337,6.00042,41.2536
84,687,5.97119,-40.5044,0.0389051,0.0798816,0.0340186,0.0991052,0.0196815,1.05644,0.0605848,0.044747,1308,337,5.9712,40.5044
91,687,6.28931,-39.2846,0.05646,0.0945031,0.0441779,0.12358,0.0273826,0.988687,0.0749459,0.0478258,1315,337,6.28936,39.2846
98,687,6.62952,-38.4153,0.0739277,0.108508,0.0547454,0.148629,0.033807,0.938355,0.0899597,0.0491209,1322,337,6.62954,38.4153
105,687,7.02771,-37.3831,0.0893506,0.121219,0.0655379,0.172732,0.0378376,0.904649,0.104843,0.0441448,1329,337,7.02777,37.3831
112,687,7.31763,-36.2473,0.102907,0.133535,0.0766731,0.196409,0.0400336,0.883968,0.119845,0.0450261,1336,337,7.31766,36.2473
119,687,7.44836,-34.9455,0.114047,0.145035,0.0878472,0.218745,0.0403383,0.872688,0.134417,0.0458034,1343,337,7.44836,34.9455
126,687,7.57898,-33.6076,0.119905,0.154336,0.0980489,0.236669,0.0375714,0.872303,0.146866,0.0465174,1350,337,7.57895,33.6076
133,687,8.19128,-32.2098,0.121405,0.160949,0.106844,0.249835,0.0325189,0.876891,0.156845,0.0450489,1357,337,8.19123,32.2098
140,687,8.98328,-30.8732,0,0,0,0,0,0,0,-1,1364,337,8.98328,30.8732
147,687,4.53491,-40.9383,0,0,0,0,0,0,0,-1,1371,337,4.53492,40.9383
154,687,4.65405,-40.476,0,0,0,0,0,0,0,-1,1378,337,4.65405,40.476
161,687,29.3895,-1.90628,0,0,0,0,0,0,0,-1,1385,337,29.3895,1.90628
168,687,29.8564,-1.19434,0,0,0,0,0,0,0,-1,1392,337,29.8564,1.19434
175,687,30.3419,-0.453583,0,0,0,0,0,0,0,-1,1399,337,30.3419,0.45357
182,687,6.67249,0.289917,0,0,0,0,0,0,0,-1,1406,337,6.67247,-0.289916
189,687,7.76062,4.53635,0,0,0,0,0,0,0,-1,1413,337,7.76064,-4.53636
196,687,6.99048,3.2966,0,0,0,0,0,0,0,-1,1420,337,6.99046,-3.2966
203,687,6.36499,2.1445,0,0,0,0,0,0,0,-1,1427,337,6.36499,-2.14451
210,687,6.68066,0.674652,0,0,0,0,0,0,0,-1,1434,337,6.68062,-0.674655
217,687,5.99683,-0.630493,0,0,0,0,0,0,0,-1,1441,337,5.99684,0.630497
224,687,5.52917,0.524902,0,0,0,0,0,0,0,-1,1448,337,5.5292,-0.524915
231,687,5.85583,-1.73651,0,0,0,0,0,0,0,-1,1455,337,5.85577,1.73651
238,687,5.96582,-2.96774,0,0,0,0,0,0,0,-1,1462,337,5.96577,2.96773
245,687,1.28259,2.32211,0,0,0,0,0,0,0,-1,1469,337,1.28258,-2.32211
252,687,1.97278,3.88422,0,0,0,0,0,0,0,-1,1476,337,1.97281,-3.88421
259,687,0,0,0,0,0,0,0,0,0,-1,1483,337,0,0
266,687,0,0,0,0,0,0,0,0,0,-1,1490,337,0,0
273,687,0,0,0,0,0,0,0,0,0,-1,1497,337,0,0
280,687,0,0,0,0,0,0,0,0,0,-1,1504,337,0,0
287,687,0,0,0,0,0,0,0,0,0,-1,1511,337,0,0
294,687,0,0,0,0,0,0,0,0,0,-1,1518,337,0,0
301,687,0,0,0,0,0,0,0,0,0,-1,1525,337,0,0
308,687,0,0,0,0,0,0,0,0,0,-1,1532,337,0,0
315,687,0,0,0,0,0,0,0,0,0,-1,1539,337,0,0
322,687,0,0,0,0,0,0,0,0,0,-1,1546,337,0,0
329,687,0,0,0,0,0,0,0,0,0,-1,1553,337,0,0
336,687,0,0,0,0,0,0,0,0,0,-1,1560,337,0,0
343,687,0,0,0,0,0,0,0,0,0,-1,1567,337,0,0
350,687,0,0,0,0,0,0,0,0,0,-1,1574,337,0,0
357,687,0,0,0,0,0,0,0,0,0,-1,1581,337,0,0
364,687,0,0,0,0,0,0,0,0,0,-1,1588,337,0,0
371,687,0,0,0,0,0,0,0,0,0,-1,1595,337,0,0
378,687,0,0,0,0,0,0,0,0,0,-1,1602,337,0,0
385,687,0,0,0,0,0,0,0,0,0,-1,1609,337,0,0
392,687,0,0,0,0,0,0,0,0,0,-1,1616,337,0,0
399,687,0,0,0,0,0,0,0,0,0,-1,1623,337,0,0
406,687,0,0,0,0,0,0,0,0,0,-1,1630,337,0,0
413,687,0,0,0,0,0,0,0,0,0,-1,1637,337,0,0
420,687,0,0,0,0,0,0,0,0,0,-1,1644,337,0,0
427,687,0,0,0,0,0,0,0,0,0,-1,1651,337,0,0
434,687,0,0,0,0,0,0,0,0,0,-1,1658,337,0,0
441,687,0,0,0,0,0,0,0,0,0,-1,1665,337,0,0
448,687,0,0,0,0,0,0,0,0,0,-1,1672,337,0,0
455,687,0,0,0,0,0,0,0,0,0,-1,1679,337,0,0
462,687,0,0,0,0,0,0,0,0,0,-1,1686,337,0,0
469,687,0,0,0,0,0,0,0,0,0,-1,1693,337,0,0
476,687,0,0,0,0,0,0,0,0,0,-1,1700,337,0,0
483,687,0,0,0,0,0,0,0,0,0,-1,1707,337,0,0
490,687,0,0,0,0,0,0,0,0,0,-1,1714,337,0,0
497,687,0,0,0,0,0,0,0,0,0,-1,1721,337,0,0
504,687,0,0,0,0,0,0,0,0,0,-1,1728,337,0,0
511,687,0,0,0,0,0,0,0,0,0,-1,1735,337,0,0
518,687,0,0,0,0,0,0,0,0,0,-1,1742,337,0,0
525,687,0,0,0,0,0,0,0,0,0,-1,1749,337,0,0
532,687,0,0,0,0,0,0,0,0,0,-1,1756,337,0,0
539,687,0,0,0,0,0,0,0,0,0,-1,1763,337,0,0
546,687,0,0,0,0,0,0,0,0,0,-1,1770,337,0,0
553,687,0,0,0,0,0,0,0,0,0,-1,1777,337,0,0
560,687,0,0,0,0,0,0,0,0,0,-1,1784,337,0,0
567,687,0,0,0,0,0,0,0,0,0,-1,1791,337,0,0
574,687,0,0,0,0,0,0,0,0,0,-1,1798,337,0,0
581,687,0,0,0,0,0,0,0,0,0,-1,1805,337,0,0
588,687,0,0,0,0,0,0,0,0,0,-1,1812,337,0,0
595,687,0,0,0,0,0,0,0,0,0,-1,1819,337,0,0
602,687,0,0,0,0,0,0,0,0,0,-1,1826,337,0,0
609,687,0,0,0,0,0,0,0,0,0,-1,1833,337,0,0
616,687,0,0,0,0,0,0,0,0,0,-1,1840,337,0,0
623,687,0,0,0,0,0,0,0,0,0,-1,1847,337,0,0
630,687,0,0,0,0,0,0,0,0,0,-1,1854,337,0,0
637,687,0,0,0,0,0,0,0,0,0,-1,1861,337,0,0
644,687,0,0,0,0,0,0,0,0,0,-1,1868,337,0,0
651,687,0,0,0,0,0,0,0,0,0,-1,1875,337,0,0
658,687,0,0,0,0,0,0,0,0,0,-1,1882,337,0,0
665,687,0,0,0,0,0,0,0,0,0,-1,1889,337,0,0
672,687,0,0,0,0,0,0,0,0,0,-1,1896,337,0,0
679,687,0,0,0,0,0,0,0,0,0,-1,1903,337,0,0
686,687,0,0,0,0,0,0,0,0,0,-1,1910,337,0,0
693,687,0,0,0,0,0,0,0,0,0,-1,1917,337,0,0
700,687,0,0,0,0,0,0,0,0,0,-1,1924,337,0,0
707,687,0,0,0,0,0,0,0,0,0,-1,1931,337,0,0
714,687,0,0,0,0,0,0,0,0,0,-1,1938,337,0,0
721,687,0,0,0,0,0,0,0,0,0,-1,1945,337,0,0
728,687,0,0,0,0,0,0,0,0,0,-1,1952,337,0,0
735,687,0,0,0,0,0,0,0,0,0,-1,1959,337,0,0
742,687,0,0,0,0,0,0,0,0,0,-1,1966,337,0,0
749,687,0,0,0,0,0,0,0,0,0,-1,1973,337,0,0
756,687,0,0,0,0,0,0,0,0,0,-1,1980,337,0,0
763,687,0,0,0,0,0,0,0,0,0,-1,1987,337,0,0
770,687,0,0,0,0,0,0,0,0,0,-1,1994,337,0,0
777,687,0,0,0,0,0,0,0,0,0,-1,2001,337,0,0
784,687,0,0,0,0,0,0,0,0,0,-1,2008,337,0,0
791,687,0,0,0,0,0,0,0,0,0,-1,2015,337,0,0
798,687,0,0,0,0,0,0,0,0,0,-1,2022,337,0,0
805,687,0,0,0,0,0,0,0,0,0,-1,2029,337,0,0
812,687,0,0,0,0,0,0,0,0,0,-1,2036,337,0,0
-700,680,0,0,0,0,0,0,0,0,0,-1,524,344,0,0
-693,680,0,0,0,0,0,0,0,0,0,-1,531,344,0,0
-686,680,0,0,0,0,0,0,0,0,0,-1,538,344,0,0
-679,680,0,0,0,0,0,0,0,0,0,-1,545,344,0,0
-672,680,0,0,0,0,0,0,0,0,0,-1,552,344,0,0
-665,680,0,0,0,0,0,0,0,0,0,-1,559,344,0,0
-658,680,0,0,0,0,0,0,0,0,0,-1,566,344,0,0
-651,680,0,0,0,0,0,0,0,0,0,-1,573,344,0,0
-644,680,0,0,0,0,0,0,0,0,0,-1,580,344,0,0
-637,680,0,0,0,0,0,0,0,0,0,-1,587,344,0,0
-630,680,0,0,0,0,0,0,0,0,0,-1,594,344,0,0
-623,680,0,0,0,0,0,0,0,0,0,-1,601,344,0,0
-616,680,0,0,0,0,0,0,0,0,0,-1,608,344,0,0
-609,680,0,0,0,0,0,0,0,0,0,-1,615,344,0,0
-602,680,0,0,0,0,0,0,0,0,0,-1,622,344,0,0
-595,680,0,0,0,0,0,0,0,0,0,-1,629,344,0,0
-588,680,0,0,0,0,0,0,0,0,0,-1,636,344,0,0
-581,680,0,0,0,0,0,0,0,0,0,-1,643,344,0,0
-574,680,0,0,0,0,0,0,0,0,0,-1,650,344,0,0
-567,680,0,0,0,0,0,0,0,0,0,-1,657,344,0,0
-560,680,0,0,0,0,0,0,0,0,0,-1,664,344,0,0
-553,680,0,0,0,0,0,0,0,0,0,-1,671,344,0,0
-546,680,0,0,0,0,0,0,0,0,0,-1,678,344,0,0
-539,680,0,0,0,0,0,0,0,0,0,-1,685,344,0,0
-532,680,0,0,0,0,0,0,0,0,0,-1,692,344,0,0
-525,680,0,0,0,0,0,0,0,0,0,-1,699,344,0,0
-518,680,0,0,0,0,0,0,0,0,0,-1,706,344,0,0
-511,680,0,0,0,0,0,0,0,0,0,-1,713,344,0,0
-504,680,0,0,0,0,0,0,0,0,0,-1,720,344,0,0
-497,680,0,0,0,0,0,0,0,0,0,-1,727,344,0,0
-490,680,0,0,0,0,0,0,0,0,0,-1,734,344,0,0
-483,680,0,0,0,0,0,0,0,0,0,-1,741,344,0,0
-476,680,0,0,0,0,0,0,0,0,0,-1,748,344,0,0
-469,680,0,0,0,0,0,0,0,0,0,-1,755,344,0,0
-462,680,0,0,0,0,0,0,0,0,0,-1,762,344,0,0
-455,680,0,0,0,0,0,0,0,0,0,-1,769,344,0,0
-448,680,0,0,0,0,0,0,0,0,0,-1,776,344,0,0
-441,680,0,0,0,0,0,0,0,0,0,-1,783,344,0,0
-434,680,0,0,0,0,0,0,0,0,0,-1,790,344,0,0
-427,680,0,0,0,0,0,0,0,0,0,-1,797,344,0,0
-420,680,0,0,0,0,0,0,0,0,0,-1,804,344,0,0
-413,680,0,0,0,0,0,0,0,0,0,-1,811,344,0,0
-406,680,0,0,0,0,0,0,0,0,0,-1,818,344,0,0
-399,680,0,0,0,0,0,0,0,0,0,-1,825,344,0,0
-392,680,0,0,0,0,0,0,0,0,0,-1,832,344,0,0
-385,680,0,0,0,0,0,0,0,0,0,-1,839,344,0,0
-378,680,0,0,0,0,0,0,0,0,0,-1,846,344,0,0
-371,680,0,0,0,0,0,0,0,0,0,-1,853,344,0,0
-364,680,0,0,0,0,0,0,0,0,0,-1,860,344,0,0
-357,680,0,0,0,0,0,0,0,0,0,-1,867,344,0,0
-350,680,0,0,0,0,0,0,0,0,0,-1,874,344,0,0
-343,680,0,0,0,0,0,0,0,0,0,-1,881,344,0,0
-336,680,0,0,0,0,0,0,0,0,0,-1,888,344,0,0
-329,680,0,0,0,0,0,0,0,0,0,-1,895,344,0,0
-322,680,0,0,0,0,0,0,0,0,0,-1,902,344,0,0
-315,680,0,0,0,0,0,0,0,0,0,-1,909,344,0,0
-308,680,0,0,0,0,0,0,0,0,0,-1,916,344,0,0
-301,680,0,0,0,0,0,0,0,0,0,-1,923,344,0,0
-294,680,0,0,0,0,0,0,0,0,0,-1,930,344,0,0
-287,680,0,0,0,0,0,0,0,0,0,-1,937,344,0,0
-280,680,0,0,0,0,0,0,0,0,0,-1,944,344,0,0
-273,680,0,0,0,0,0,0,0,0,0,-1,951,344,0,0
-266,680,0,0,0,0,0,0,0,0,0,-1,958,344,0,0
-259,680,0,0,0,0,0,0,0,0,0,-1,965,344,0,0
-252,680,0,0,0,0,0,0,0,0,0,-1,972,344,0,0
-245,680,0,0,0,0,0,0,0,0,0,-1,979,344,0,0
-238,680,0,0,0,0,0,0,0,0,0,-1,986,344,0,0
-231,680,0,0,0,0,0,0,0,0,0,-1,993,344,0,0
-224,680,0,0,0,0,0,0,0,0,0,-1,1000,344,0,0
-217,680,0,0,0,0,0,0,0,0,0,-1,1007,344,0,0
-210,680,0,0,0,0,0,0,0,0,0,-1,1014,344,0,0
-203,680,0,0,0,0,0,0,0,0,0,-1,1021,344,0,0
-196,680,0,0,0,0,0,0,0,0,0,-1,1028,344,0,0
-189,680,0,0,0,0,0,0,0,0,0,-1,1035,344,0,0
-182,680,0,0,0,0,0,0,0,0,0,-1,1042,344,0,0
-175,680,0,0,0,0,0,0,0,0,0,-1,1049,344,0,0
-168,680,0,0,0,0,0,0,0,0,0,-1,1056,344,0,0
-161,680,0,0,0,0,0,0,0,0,0,-1,1063,344,0,0
-154,680,2.25244,-29.1442,0,0,0,0,0,0,0,-1,1070,344,2.25241,29.1442
-147,680,9.29614,-33.0369,0,0,0,0,0,0,0,-1,1077,344,9.29612,33.0369
-140,680,6.98022,-36.6899,0,0,0,0,0,0,0,-1,1084,344,6.98023,36.6899
-133,680,5.89795,-35.7619,0,0,0,0,0,0,0,-1,1091,344,5.89789,35.7619
-126,680,7.58716,-35.439,0,0,0,0,0,0,0,-1,1098,344,7.58714,35.439
-119,680,7.4646,-34.0222,0,0,0,0,0,0,0,-1,1105,344,7.46462,34.0222
-112,680,7.7467,-32.4407,0,0,0,0,0,0,0,-1,1112,344,7.74668,32.4407
-105,680,20.6371,-48.461,0,0,0,0,0,0,0,-1,1119,344,20.6371,48.461
-98,680,14.2684,-41.9997,0,0,0,0,0,0,0,-1,1126,344,14.2685,41.9997
-91,680,7.89648,-35.5147,0,0,0,0,0,0,0,-1,1133,344,7.8965,35.5147
-84,680,1.47168,-29.471,0,0,0,0,0,0,0,-1,1140,344,1.47163,29.471
-77,680,-4.95337,-23.3355,0,0,0,0,0,0,0,-1,1147,344,-4.9534,23.3356
-70,680,-11.5099,-17.4337,0,0,0,0,0,0,0,-1,1154,344,-11.5098,17.4338
-63,680,-17.2391,-1.43134,0,0,0,0,0,0,0,-1,1161,344,-17.2392,1.43133
-56,680,-6.96912,-8.83356,0,0,0,0,0,0,0,-1,1168,344,-6.96907,8.83354
-49,680,-6.7677,-2.24063,0,0,0,0,0,0,0,-1,1175,344,-6.76772,2.24063
-42,680,-1.02368,0.618805,0,0,0,0,0,0,0,-1,1182,344,-1.0237,-0.618797
-35,680,-0.947876,-0.942719,0,0,0,0,0,0,0,-1,1189,344,-0.947842,0.942731
-28,680,-1.46118,-1.10574,0,0,0,0,0,0,0,-1,1196,344,-1.4612,1.10575
-21,680,6.37268,-40.6105,0,0,0,0,0,0,0,-1,1203,344,6.37274,40.6105
-14,680,6.44385,-41.8645,0,0,0,0,0,0,0,-1,1210,344,6.44383,41.8645
-7,680,6.23169,-42.469,0,0,0,0,0,0,0,-1,1217,344,6.23164,42.469
0,680,6.17615,-42.6336,0,0,0,0,0,0,0,-1,1224,344,6.1762,42.6336
7,680,6.6366,-41.2761,0,0,0,0,0,0,0,-1,1231,344,6.6366,41.2761
14,680,5.67688,-43.6675,0,0,0,0,0,0,0,-1,1238,344,5.67689,43.6675
21,680,6.03174,-42.4472,-0.00322288,0.0160433,0.000841343,0.0160799,-0.00325955,1.52724,0.0119555,0.048038,1245,344,6.03172,42.4472
28,680,5.73462,-42.7175,-0.00486957,0.017273,0.000886243,0.0173084,-0.00490499,1.53086,0.0134749,0.0489819,1252,344,5.73463,42.7175
35,680,5.97888,-42.7646,-0.00774506,0.0190317,0.00114185,0.0190803,-0.00779367,1.52826,0.0159653,0.0486168,1259,344,5.97885,42.7646
42,680,5.74902,-42.9593,-0.00968635,0.022785,0.00263462,0.0229974,-0.00989873,1.49036,0.019488,0.0459154,1266,344,5.74907,42.9593
49,680,5.45117,-42.9607,-0.0114831,0.027812,0.00444249,0.028308,-0.0119791,1.45961,0.0238881,0.043537,1273,344,5.45113,42.9607
56,680,4.56885,-43.5022,0,0,0,0,0,0,0,-1,1280,344,4.5689,43.5022
63,680,5.50293,-42.2927,0.00189874,0.0404564,0.0100327,0.0429107,-0.00055556,1.33088,0.0287941,0.0402759,1287,344,5.5029,42.2927
70,680,5.59253,-42.119,0.00890241,0.0492848,0.0141288,0.0537372,0.00445002,1.26552,0.0344374,0.0393882,1294,344,5.59252,42.119
77,680,5.5614,-41.8575,0.0181265,0.0593184,0.0207826,0.0679818,0.00946304,1.17584,0.0425193,0.042382,1301,344,5.56137,41.8574
84,680,5.47302,-41.4344,0.0295804,0.0715528,0.0290783,0.086427,0.0147062,1.09797,0.0533953,0.0450597,1308,344,5.47297,41.4345
91,680,5.75281,-40.5927,0.0424206,0.0828702,0.0370768,0.10488,0.0204111,1.03508,0.0642068,0.046088,1315,344,5.75278,40.5927
98,680,6.29749,-39.7515,0.0549369,0.0933824,0.0451983,0.123276,0.0250435,0.98646,0.0752384,0.0467676,1322,344,6.2975,39.7514
105,680,6.65381,-38.8391,0.0658222,0.102739,0.0533514,0.140735,0.0278265,0.951943,0.0860607,0.0444442,1329,344,6.65386,38.8391
112,680,6.85449,-37.666,0.0751976,0.111564,0.0614048,0.157421,0.0293403,0.929345,0.0966632,0.0459166,1336,344,6.85453,37.666
119,680,7.01111,-36.5598,0.0827845,0.119515,0.0693292,0.17287,0.0294292,0.914874,0.106797,0.0450716,1343,344,7.01109,36.5598
126,680,7.20459,-35.5525,0,0,0,0,0,0,0,-1,1350,344,7.20454,35.5525
133,680,7.16406,-33.9911,0,0,0,0,0,0,0,-1,1357,344,7.16412,33.9911
140,680,7.97913,-32.6779,0,0,0,0,0,0,0,-1,1364,344,7.9791,32.6779
147,680,4.59521,-41.4589,0.0789984,0.126735,0.087108,0.193185,0.0125477,0.919119,0.124818,0.0482091,1371,344,4.59525,41.4589
154,680,4.69568,-41.0334,0.0716587,0.121464,0.0874383,0.187477,0.0056461,0.924127,0.123146,0.0498016,1378,344,4.69574,41.0335
161,680,4.80823,-40.6235,0,0,0,0,0,0,0,-1,1385,344,4.80828,40.6235
168,680,29.4142,-2.51651,0,0,0,0,0,0,0,-1,1392,344,29.4142,2.51652
175,680,6.66541,0.942078,0,0,0,0,0,0,0,-1,1399,344,6.66538,-0.942088
182,680,6.52917,0.532379,0,0,0,0,0,0,0,-1,1406,344,6.52922,-0.532385
189,680,7.55884,4.77695,0,0,0,0,0,0,0,-1,1413,344,7.55886,-4.77694
196,680,6.55627,3.35254,0,0,0,0,0,0,0,-1,1420,344,6.55622,-3.35255
203,680,5.7334,1.90753,0,0,0,0,0,0,0,-1,1427,344,5.73341,-1.90754
210,680,5.27515,0.493622,0,0,0,0,0,0,0,-1,1434,344,5.27514,-0.493632
217,680,6.56384,-0.374176,0,0,0,0,0,0,0,-1,1441,344,6.56379,0.374176
224,680,3.9491,-0.640228,0,0,0,0,0,0,0,-1,1448,344,3.94908,0.64024
231,680,4.24866,-1.96881,0,0,0,0,0,0,0,-1,1455,344,4.2486,1.96882
238,680,4.29333,-3.23984,0,0,0,0,0,0,0,-1,1462,344,4.29332,3.23984
245,680,2.44397,0.985382,0,0,0,0,0,0,0,-1,1469,344,2.44402,-0.985394
252,680,3.07349,2.18951,0,0,0,0,0,0,0,-1,1476,344,3.0735,-2.18952
259,680,2.82971,1.30682,0,0,0,0,0,0,0,-1,1483,344,2.82972,-1.30684
266,680,2.67554,1.44067,0,0,0,0,0,0,0,-1,1490,344,2.67551,-1.44066
273,680,2.46411,1.54666,0,0,0,0,0,0,0,-1,1497,344,2.46407,-1.54666
280,680,0,0,0,0,0,0,0,0,0,-1,1504,344,0,0
287,680,0,0,0,0,0,0,0,0,0,-1,1511,344,0,0
294,680,0,0,0,0,0,0,0,0,0,-1,1518,344,0,0
301,680,0,0,0,0,0,0,0,0,0,-1,1525,344,0,0
308,680,0,0,0,0,0,0,0,0,0,-1,1532,344,0,0
315,680,0,0,0,0,0,0,0,0,0,-1,1539,344,0,0
322,680,0,0,0,0,0,0,0,0,0,-1,1546,344,0,0
329,680,0,0,0,0,0,0,0,0,0,-1,1553,344,0,0
336,680,0,0,0,0,0,0,0,0,0,-1,1560,344,0,0
343,680,0,0,0,0,0,0,0,0,0,-1,1567,344,0,0
350,680,0,0,0,0,0,0,0,0,0,-1,1574,344,0,0
357,680,0,0,0,0,0,0,0,0,0,-1,1581,344,0,0
364,680,0,0,0,0,0,0,0,0,0,-1,1588,344,0,0
371,680,0,0,0,0,0,0,0,0,0,-1,1595,344,0,0
378,680,0,0,0,0,0,0,0,0,0,-1,1602,344,0,0
385,680,0,0,0,0,0,0,0,0,0,-1,1609,344,0,0
392,680,0,0,0,0,0,0,0,0,0,-1,1616,344,0,0
399,680,0,0,0,0,0,0,0,0,0,-1,1623,344,0,0
406,680,0,0,0,0,0,0,0,0,0,-1,1630,344,0,0
413,680,0,0,0,0,0,0,0,0,0,-1,1637,344,0,0
420,680,0,0,0,0,0,0,0,0,0,-1,1644,344,0,0
427,680,0,0,0,0,0,0,0,0,0,-1,1651,344,0,0
434,680,0,0,0,0,0,0,0,0,0,-1,1658,344,0,0
441,680,0,0,0,0,0,0,0,0,0,-1,1665,344,0,0
448,680,0,0,0,0,0,0,0,0,0,-1,1672,344,0,0
455,680,0,0,0,0,0,0,0,0,0,-1,1679,344,0,0
462,680,0,0,0,0,0,0,0,0,0,-1,1686,344,0,0
469,680,0,0,0,0,0,0,0,0,0,-1,1693,344,0,0
476,680,0,0,0,0,0,0,0,0,0,-1,1700,344,0,0
483,680,0,0,0,0,0,0,0,0,0,-1,1707,344,0,0
490,680,0,0,0,0,0,0,0,0,0,-1,1714,344,0,0
497,680,0,0,0,0,0,0,0,0,0,-1,1721,344,0,0
504,680,0,0,0,0,0,0,0,0,0,-1,1728,344,0,0
511,680,0,0,0,0,0,0,0,0,0,-1,1735,344,0,0
518,680,0,0,0,0,0,0,0,0,0,-1,1742,344,0,0
525,680,0,0,0,0,0,0,0,0,0,-1,1749,344,0,0
532,680,0,0,0,0,0,0,0,0,0,-1,1756,344,0,0
539,680,0,0,0,0,0,0,0,0,0,-1,1763,344,0,0
546,680,0,0,0,0,0,0,0,0,0,-1,1770,344,0,0
553,680,0,0,0,0,0,0,0,0,0,-1,1777,344,0,0
560,680,0,0,0,0,0,0,0,0,0,-1,1784,344,0,0
567,680,0,0,0,0,0,0,0,0,0,-1,1791,344,0,0
574,680,0,0,0,0,0,0,0,0,0,-1,1798,344,0,0
581,680,0,0,0,0,0,0,0,0,0,-1,1805,344,0,0
588,680,0,0,0,0,0,0,0,0,0,-1,1812,344,0,0
595,680,0,0,0,0,0,0,0,0,0,-1,1819,344,0,0
602,680,0,0,0,0,0,0,0,0,0,-1,1826,344,0,0
609,680,0,0,0,0,0,0,0,0,0,-1,1833,344,0,0
616,680,0,0,0,0,0,0,0,0,0,-1,1840,344,0,0
623,680,0,0,0,0,0,0,0,0,0,-1,1847,344,0,0
630,680,0,0,0,0,0,0,0,0,0,-1,1854,344,0,0
637,680,0,0,0,0,0,0,0,0,0,-1,1861,344,0,0
644,680,0,0,0,0,0,0,0,0,0,-1,1868,344,0,0
651,680,0,0,0,0,0,0,0,0,0,-1,1875,344,0,0
658,680,0,0,0,0,0,0,0,0,0,-1,1882,344,0,0
665,680,0,0,0,0,0,0,0,0,0,-1,1889,344,0,0
672,680,0,0,0,0,0,0,0,0,0,-1,1896,344,0,0
679,680,0,0,0,0,0,0,0,0,0,-1,1903,344,0,0
686,680,0,0,0,0,0,0,0,0,0,-1,1910,344,0,0
693,680,0,0,0,0,0,0,0,0,0,-1,1917,344,0,0
700,680,0,0,0,0,0,0,0,0,0,-1,1924,344,0,0
707,680,0,0,0,0,0,0,0,0,0,-1,1931,344,0,0
714,680,0,0,0,0,0,0,0,0,0,-1,1938,344,0,0
721,680,0,0,0,0,0,0,0,0,0,-1,1945,344,0,0
728,680,0,0,0,0,0,0,0,0,0,-1,1952,344,0,0
735,680,0,0,0,0,0,0,0,0,0,-1,1959,344,0,0
742,680,0,0,0,0,0,0,0,0,0,-1,1966,344,0,0
749,680,0,0,0,0,0,0,0,0,0,-1,1973,344,0,0
756,680,0,0,0,0,0,0,0,0,0,-1,1980,344,0,0
763,680,0,0,0,0,0,0,0,0,0,-1,1987,344,0,0
770,680,0,0,0,0,0,0,0,0,0,-1,1994,344,0,0
777,680,0,0,0,0,0,0,0,0,0,-1,2001,344,0,0
784,680,0,0,0,0,0,0,0,0,0,-1,2008,344,0,0
791,680,0,0,0,0,0,0,0,0,0,-1,2015,344,0,0
798,680,0,0,0,0,0,0,0,0,0,-1,2022,344,0,0
805,680,0,0,0,0,0,0,0,0,0,-1,2029,344,0,0
812,680,0,0,0,0,0,0,0,0,0,-1,2036,344,0,0
-700,673,0,0,0,0,0,0,0,0,0,-1,524,351,0,0
-693,673,0,0,0,0,0,0,0,0,0,-1,531,351,0,0
-686,673,0,0,0,0,0,0,0,0,0,-1,538,351,0,0
-679,673,0,0,0,0,0,0,0,0,0,-1,545,351,0,0
-672,673,0,0,0,0,0,0,0,0,0,-1,552,351,0,0
-665,673,0,0,0,0,0,0,0,0,0,-1,559,351,0,0
-658,673,0,0,0,0,0,0,0,0,0,-1,566,351,0,0
-651,673,0,0,0,0,0,0,0,0,0,-1,573,351,0,0
-644,673,0,0,0,0,0,0,0,0,0,-1,580,351,0,0
-637,673,0,0,0,0,0,0,0,0,0,-1,587,351,0,0
-630,673,0,0,0,0,0,0,0,0,0,-1,594,351,0,0
-623,673,0,0,0,0,0,0,0,0,0,-1,601,351,0,0
-616,673,0,0,0,0,0,0,0,0,0,-1,608,351,0,0
-609,673,0,0,0,0,0,0,0,0,0,-1,615,351,0,0
-602,673,0,0,0,0,0,0,0,0,0,-1,622,351,0,0
-595,673,0,0,0,0,0,0,0,0,0,-1,629,351,0,0
-588,673,0,0,0,0,0,0,0,0,0,-1,636,351,0,0
-581,673,0,0,0,0,0,0,0,0,0,-1,643,351,0,0
-574,673,0,0,0,0,0,0,0,0,0,-1,650,351,0,0
-567,673,0,0,0,0,0,0,0,0,0,-1,657,351,0,0
-560,673,0,0,0,0,0,0,0,0,0,-1,664,351,0,0
-553,673,0,0,0,0,0,0,0,0,0,-1,671,351,0,0
-546,673,0,0,0,0,0,0,0,0,0,-1,678,351,0,0
-539,673,0,0,0,0,0,0,0,0,0,-1,685,351,0,0
-532,673,0,0,0,0,0,0,0,0,0,-1,692,351,0,0
-525,673,0,0,0,0,0,0,0,0,0,-1,699,351,0,0
-518,673,0,0,0,0,0,0,0,0,0,-1,706,351,0,0
-511,673,0,0,0,0,0,0,0,0,0,-1,713,351,0,0
-504,673,0,0,0,0,0,0,0,0,0,-1,720,351,0,0
-497,673,0,0,0,0,0,0,0,0,0,-1,727,351,0,0
-490,673,0,0,0,0,0,0,0,0,0,-1,734,351,0,0
-483,673,0,0,0,0,0,0,0,0,0,-1,741,351,0,0
-476,673,0,0,0,0,0,0,0,0,0,-1,748,351,0,0
-469,673,0,0,0,0,0,0,0,0,0,-1,755,351,0,0
-462,673,0,0,0,0,0,0,0,0,0,-1,762,351,0,0
-455,673,0,0,0,0,0,0,0,0,0,-1,769,351,0,0
-448,673,0,0,0,0,0,0,0,0,0,-1,776,351,0,0
-441,673,0,0,0,0,0,0,0,0,0,-1,783,351,0,0
-434,673,0,0,0,0,0,0,0,0,0,-1,790,351,0,0
-427,673,0,0,0,0,0,0,0,0,0,-1,797,351,0,0
-420,673,0,0,0,0,0,0,0,0,0,-1,804,351,0,0
-413,673,0,0,0,0,0,0,0,0,0,-1,811,351,0,0
-406,673,0,0,0,0,0,0,0,0,0,-1,818,351,0,0
-399,673,0,0,0,0,0,0,0,0,0,-1,825,351,0,0
-392,673,0,0,0,0,0,0,0,0,0,-1,832,351,0,0
-385,673,0,0,0,0,0,0,0,0,0,-1,839,351,0,0
-378,673,0,0,0,0,0,0,0,0,0,-1,846,351,0,0
-371,673,0,0,0,0,0,0,0,0,0,-1,853,351,0,0
-364,673,0,0,0,0,0,0,0,0,0,-1,860,351,0,0
-357,673,0,0,0,0,0,0,0,0,0,-1,867,351,0,0
-350,673,0,0,0,0,0,0,0,0,0,-1,874,351,0,0
-343,673,0,0,0,0,0,0,0,0,0,-1,881,351,0,0
-336,673,0,0,0,0,0,0,0,0,0,-1,888,351,0,0
-329,673,0,0,0,0,0,0,0,0,0,-1,895,351,0,0
-322,673,0,0,0,0,0,0,0,0,0,-1,902,351,0,0
-315,673,0,0,0,0,0,0,0,0,0,-1,909,351,0,0
-308,673,0,0,0,0,0,0,0,0,0,-1,916,351,0,0
-301,673,0,0,0,0,0,0,0,0,0,-1,923,351,0,0
-294,673,0,0,0,0,0,0,0,0,0,-1,930,351,0,0
-287,673,0,0,0,0,0,0,0,0,0,-1,937,351,0,0
-280,673,0,0,0,0,0,0,0,0,0,-1,944,351,0,0
-273,673,0,0,0,0,0,0,0,0,0,-1,951,351,0,0
-266,673,0,0,0,0,0,0,0,0,0,-1,958,351,0,0
-259,673,0,0,0,0,0,0,0,0,0,-1,965,351,0,0
-252,673,0,0,0,0,0,0,0,0,0,-1,972,351,0,0
-245,673,0,0,0,0,0,0,0,0,0,-1,979,351,0,0
-238,673,0,0,0,0,0,0,0,0,0,-1,986,351,0,0
-231,673,0,0,0,0,0,0,0,0,0,-1,993,351,0,0
-224,673,0,0,0,0,0,0,0,0,0,-1,1000,351,0,0
-217,673,0,0,0,0,0,0,0,0,0,-1,1007,351,0,0
-210,673,0,0,0,0,0,0,0,0,0,-1,1014,351,0,0
-203,673,0,0,0,0,0,0,0,0,0,-1,1021,351,0,0
-196,673,0,0,0,0,0,0,0,0,0,-1,1028,351,0,0
-189,673,0,0,0,0,0,0,0,0,0,-1,1035,351,0,0
-182,673,0,0,0,0,0,0,0,0,0,-1,1042,351,0,0
-175,673,7.10449,-31.8279,0,0,0,0,0,0,0,-1,1049,351,7.10448,31.8279
-168,673,7.33081,-32.7122,0,0,0,0,0,0,0,-1,1056,351,7.33085,32.7122
-161,673,7.8938,-33.5352,0,0,0,0,0,0,0,-1,1063,351,7.89385,33.5352
-154,673,8.80566,-35.3518,0,0,0,0,0,0,0,-1,1070,351,8.80563,35.3518
-147,673,5.11084,-37.2899,0,0,0,0,0,0,0,-1,1077,351,5.11082,37.2899
-140,673,5.4093,-36.4359,0,0,0,0,0,0,0,-1,1084,351,5.40933,36.4359
-133,673,5.87366,-36.0247,0,0,0,0,0,0,0,-1,1091,351,5.87363,36.0247
-126,673,6.15771,-35.3898,0,0,0,0,0,0,0,-1,1098,351,6.15768,35.3898
-119,673,6.98071,-34.0173,0,0,0,0,0,0,0,-1,1105,351,6.98074,34.0173
-112,673,7.27234,-32.5801,0,0,0,0,0,0,0,-1,1112,351,7.27231,32.5801
-105,673,21.1144,-43.3143,0,0,0,0,0,0,0,-1,1119,351,21.1143,43.3143
-98,673,14.8014,-36.7519,0,0,0,0,0,0,0,-1,1126,351,14.8014,36.7519
-91,673,8.54944,-29.9639,0,0,0,0,0,0,0,-1,1133,351,8.54949,29.9639
-84,673,2.17102,-24.3204,0,0,0,0,0,0,0,-1,1140,351,2.17107,24.3204
-77,673,-4.25378,-18.8346,0,0,0,0,0,0,0,-1,1147,351,-4.25381,18.8346
-70,673,-10.7933,-13.6681,0,0,0,0,0,0,0,-1,1154,351,-10.7934,13.6681
-63,673,-17.3896,-8.24469,0,0,0,0,0,0,0,-1,1161,351,-17.3896,8.2447
-56,673,-18.0282,2.79053,0,0,0,0,0,0,0,-1,1168,351,-18.0283,-2.79052
-49,673,-0.926758,-0.115448,0,0,0,0,0,0,0,-1,1175,351,-0.926732,0.115444
-42,673,-1.15015,0.289917,0,0,0,0,0,0,0,-1,1182,351,-1.15017,-0.289932
-35,673,-0.919556,-1.00711,0,0,0,0,0,0,0,-1,1189,351,-0.919514,1.00711
-28,673,5.28918,-39.2331,0,0,0,0,0,0,0,-1,1196,351,5.28924,39.2331
-21,673,6.44141,-42.0003,0,0,0,0,0,0,0,-1,1203,351,6.44138,42.0003
-14,673,6.28516,-42.1695,-0.00288946,0.0124083,4.81111e-05,0.0124084,-0.00288961,1.56765,0.00938497,0.047321,1210,351,6.2852,42.1695
-7,673,6.16736,-42.5615,-0.00255066,0.0128011,-7.22479e-05,0.0128014,-0.002551,-1.56609,0.0094995,0.0423371,1217,351,6.16739,42.5615
0,673,6.08679,-42.7357,-0.00241081,0.0134627,-1.79974e-05,0.0134628,-0.00241083,-1.56966,0.00987734,0.0490833,1224,351,6.08674,42.7358
7,673,6.00623,-42.5931,0,0,0,0,0,0,0,-1,1231,351,6.00627,42.5931
14,673,6.09619,-42.3879,-0.00356974,0.0154119,-3.54204e-06,0.0154119,-0.00356974,-1.57061,0.0116483,0.0445712,1238,351,6.09618,42.3879
21,673,5.94055,-42.7672,-0.00411027,0.0164372,2.71407e-05,0.0164372,-0.0041103,1.56948,0.0125546,0.0309172,1245,351,5.9406,42.7672
28,673,5.90417,-42.9156,-0.00509977,0.0176331,0.000225917,0.0176354,-0.00510201,1.56086,0.0137762,0.0226916,1252,351,5.90412,42.9156
35,673,5.90039,-42.9204,-0.00702231,0.0192779,0.00051925,0.0192881,-0.00703256,1.55106,0.0157358,0.0335026,1259,351,5.90039,42.9204
42,673,5.67932,-42.9366,-0.00816436,0.022406,0.00188033,0.0225212,-0.00827958,1.5096,0.0184056,0.0353964,1266,351,5.67927,42.9366
49,673,5.58093,-43.0566,-0.00919341,0.0265764,0.003507,0.026917,-0.009534,1.47398,0.0218281,0.0220314,1273,351,5.5809,43.0566
56,673,5.52783,-43.0645,-0.00668836,0.030466,0.0037428,0.0308393,-0.00706165,1.47139,0.0232733,0.0165636,1280,351,5.52787,43.0645
63,673,5.57471,-42.8581,0.000882925,0.0369564,0.00837157,0.0388045,-0.000965185,1.35352,0.0261973,0.0205664,1287,351,5.57469,42.8581
70,673,5.50281,-42.7717,0.00611793,0.0440909,0.0118876,0.0475054,0.00270347,1.2911,0.0308087,0.0333927,1294,351,5.50277,42.7717
77,673,5.43835,-42.5329,0.0130236,0.0521243,0.0173324,0.0587011,0.00644681,1.20813,0.0371719,0.0407703,1301,351,5.43841,42.5329
84,673,5.31567,-42.3237,0.0214763,0.0616612,0.023919,0.072807,0.0103305,1.13473,0.0454872,0.0483133,1308,351,5.31564,42.3237
91,673,5.36963,-43.1074,0,0,0,0,0,0,0,-1,1315,351,5.36957,43.1074
98,673,5.07373,-43.094,0,0,0,0,0,0,0,-1,1322,351,5.07376,43.094
105,673,4.84717,-42.9367,0,0,0,0,0,0,0,-1,1329,351,4.84717,42.9367
112,673,6.45569,-39.1648,0,0,0,0,0,0,0,-1,1336,351,6.45566,39.1647
119,673,6.63574,-38.1535,0,0,0,0,0,0,0,-1,1343,351,6.6358,38.1535
126,673,4.922,-41.8821,0,0,0,0,0,0,0,-1,1350,351,4.92206,41.8821
133,673,6.13013,-35.7667,0,0,0,0,0,0,0,-1,1357,351,6.13018,35.7667
140,673,4.58594,-41.9923,0.0592096,0.101877,0.0639098,0.14792,0.0131669,0.946489,0.0945305,0.0468968,1364,351,4.58594,41.9923
147,673,4.57971,-41.7914,0.0538532,0.0975211,0.0634631,0.142801,0.00857311,0.951077,0.0924756,0.0435086,1371,351,4.57973,41.7915
154,673,4.49194,-40.9359,0.047946,0.0921658,0.0624613,0.136315,0.00379679,0.955505,0.0896378,0.0409482,1378,351,4.49194,40.936
161,673,4.5686,-40.8249,0,0,0,0,0,0,0,-1,1385,351,4.56863,40.8249
168,673,6.87061,1.83954,0,0,0,0,0,0,0,-1,1392,351,6.87063,-1.83953
175,673,6.6228,1.1459,0,0,0,0,0,0,0,-1,1399,351,6.62276,-1.14591
182,673,6.37244,0.796112,0,0,0,0,0,0,0,-1,1406,351,6.3724,-0.796102
189,673,6.12097,0.265472,0,0,0,0,0,0,0,-1,1413,351,6.121,-0.265482
196,673,6.02173,3.12717,0,0,0,0,0,0,0,-1,1420,351,6.02176,-3.12717
203,673,5.04456,1.6351,0,0,0,0,0,0,0,-1,1427,351,5.04455,-1.63509
210,673,4.79224,0.447479,0,0,0,0,0,0,0,-1,1434,351,4.79229,-0.447469
217,673,2.01648,0.972687,0,0,0,0,0,0,0,-1,1441,351,2.01644,-0.972691
224,673,2.3689,-1.80539,0,0,0,0,0,0,0,-1,1448,351,2.36896,1.80539
231,673,2.65857,-2.18497,0,0,0,0,0,0,0,-1,1455,351,2.65852,2.18496
238,673,3.77844,-2.06088,0,0,0,0,0,0,0,-1,1462,351,3.77839,2.06088
245,673,3.5376,-0.190399,0,0,0,0,0,0,0,-1,1469,351,3.53759,0.1904
252,673,3.80518,0.55603,0,0,0,0,0,0,0,-1,1476,351,3.80519,-0.556022
259,673,3.88562,1.29617,0,0,0,0,0,0,0,-1,1483,351,3.88562,-1.29618
266,673,4.22424,2.04834,0,0,0,0,0,0,0,-1,1490,351,4.22429,-2.04834
273,673,6.07886,0.385895,0,0,0,0,0,0,0,-1,1497,351,6.0789,-0.385906
280,673,6.97534,-0.0820007,0,0,0,0,0,0,0,-1,1504,351,6.97536,0.0820122
287,673,7.66968,-0.348541,0,0,0,0,0,0,0,-1,1511,351,7.66969,0.348534
294,673,8.20996,0.28537,0,0,0,0,0,0,0,-1,1518,351,8.20993,-0.28536
301,673,0,0,0,0,0,0,0,0,0,-1,1525,351,0,0
308,673,0,0,0,0,0,0,0,0,0,-1,1532,351,0,0
315,673,0,0,0,0,0,0,0,0,0,-1,1539,351,0,0
322,673,0,0,0,0,0,0,0,0,0,-1,1546,351,0,0
329,673,0,0,0,0,0,0,0,0,0,-1,1553,351,0,0
336,673,0,0,0,0,0,0,0,0,0,-1,1560,351,0,0
343,673,0,0,0,0,0,0,0,0,0,-1,1567,351,0,0
350,673,0,0,0,0,0,0,0,0,0,-1,1574,351,0,0
357,673,0,0,0,0,0,0,0,0,0,-1,1581,351,0,0
364,673,0,0,0,0,0,0,0,0,0,-1,1588,351,0,0
371,673,0,0,0,0,0,0,0,0,0,-1,1595,351,0,0
378,673,0,0,0,0,0,0,0,0,0,-1,1602,351,0,0
385,673,0,0,0,0,0,0,0,0,0,-1,1609,351,0,0
392,673,0,0,0,0,0,0,0,0,0,-1,1616,351,0,0
399,673,0,0,0,0,0,0,0,0,0,-1,1623,351,0,0
406,673,0,0,0,0,0,0,0,0,0,-1,1630,351,0,0
413,673,0,0,0,0,0,0,0,0,0,-1,1637,351,0,0
420,673,0,0,0,0,0,0,0,0,0,-1,1644,351,0,0
427,673,0,0,0,0,0,0,0,0,0,-1,1651,351,0,0
434,673,0,0,0,0,0,0,0,0,0,-1,1658,351,0,0
441,673,0,0,0,0,0,0,0,0,0,-1,1665,351,0,0
448,673,0,0,0,0,0,0,0,0,0,-1,1672,351,0,0
455,673,0,0,0,0,0,0,0,0,0,-1,1679,351,0,0
462,673,0,0,0,0,0,0,0,0,0,-1,1686,351,0,0
469,673,0,0,0,0,0,0,0,0,0,-1,1693,351,0,0
476,673,0,0,0,0,0,0,0,0,0,-1,1700,351,0,0
483,673,0,0,0,0,0,0,0,0,0,-1,1707,351,0,0
490,673,0,0,0,0,0,0,0,0,0,-1,1714,351,0,0
497,673,0,0,0,0,0,0,0,0,0,-1,1721,351,0,0
504,673,0,0,0,0,0,0,0,0,0,-1,1728,351,0,0
511,673,0,0,0,0,0,0,0,0,0,-1,1735,351,0,0
518,673,0,0,0,0,0,0,0,0,0,-1,1742,351,0,0
525,673,0,0,0,0,0,0,0,0,0,-1,1749,351,0,0
532,673,0,0,0,0,0,0,0,0,0,-1,1756,351,0,0
539,673,0,0,0,0,0,0,0,0,0,-1,1763,351,0,0
546,673,0,0,0,0,0,0,0,0,0,-1,1770,351,0,0
553,673,0,0,0,0,0,0,0,0,0,-1,1777,351,0,0
560,673,0,0,0,0,0,0,0,0,0,-1,1784,351,0,0
567,673,0,0,0,0,0,0,0,0,0,-1,1791,351,0,0
574,673,0,0,0,0,0,0,0,0,0,-1,1798,351,0,0
581,673,0,0,0,0,0,0,0,0,0,-1,1805,351,0,0
588,673,0,0,0,0,0,0,0,0,0,-1,1812,351,0,0
595,673,0,0,0,0,0,0,0,0,0,-1,1819,351,0,0
602,673,0,0,0,0,0,0,0,0,0,-1,1826,351,0,0
609,673,0,0,0,0,0,0,0,0,0,-1,1833,351,0,0
616,673,0,0,0,0,0,0,0,0,0,-1,1840,351,0,0
623,673,0,0,0,0,0,0,0,0,0,-1,1847,351,0,0
630,673,0,0,0,0,0,0,0,0,0,-1,1854,351,0,0
637,673,0,0,0,0,0,0,0,0,0,-1,1861,351,0,0
644,673,0,0,0,0,0,0,0,0,0,-1,1868,351,0,0
651,673,0,0,0,0,0,0,0,0,0,-1,1875,351,0,0
658,673,0,0,0,0,0,0,0,0,0,-1,1882,351,0,0
665,673,0,0,0,0,0,0,0,0,0,-1,1889,351,0,0
672,673,0,0,0,0,0,0,0,0,0,-1,1896,351,0,0
679,673,0,0,0,0,0,0,0,0,0,-1,1903,351,0,0
686,673,0,0,0,0,0,0,0,0,0,-1,1910,351,0,0
693,673,0,0,0,0,0,0,0,0,0,-1,1917,351,0,0
700,673,0,0,0,0,0,0,0,0,0,-1,1924,351,0,0
707,673,0,0,0,0,0,0,0,0,0,-1,1931,351,0,0
714,673,0,0,0,0,0,0,0,0,0,-1,1938,351,0,0
721,673,0,0,0,0,0,0,0,0,0,-1,1945,351,0,0
728,673,0,0,0,0,0,0,0,0,0,-1,1952,351,0,0
735,673,0,0,0,0,0,0,0,0,0,-1,1959,351,0,0
742,673,0,0,0,0,0,0,0,0,0,-1,1966,351,0,0
749,673,0,0,0,0,0,0,0,0,0,-1,1973,351,0,0
756,673,0,0,0,0,0,0,0,0,0,-1,1980,351,0,0
763,673,0,0,0,0,0,0,0,0,0,-1,1987,351,0,0
770,673,0,0,0,0,0,0,0,0,0,-1,1994,351,0,0
777,673,0,0,0,0,0,0,0,0,0,-1,2001,351,0,0
784,673,0,0,0,0,0,0,0,0,0,-1,2008,351,0,0
791,673,0,0,0,0,0,0,0,0,0,-1,2015,351,0,0
798,673,0,0,0,0,0,0,0,0,0,-1,2022,351,0,0
805,673,0,0,0,0,0,0,0,0,0,-1,2029,351,0,0
812,673,0,0,0,0,0,0,0,0,0,-1,2036,351,0,0
-700,666,0,0,0,0,0,0,0,0,0,-1,524,358,0,0
-693,666,0,0,0,0,0,0,0,0,0,-1,531,358,0,0
-686,666,0,0,0,0,0,0,0,0,0,-1,538,358,0,0
-679,666,0,0,0,0,0,0,0,0,0,-1,545,358,0,0
-672,666,0,0,0,0,0,0,0,0,0,-1,552,358,0,0
-665,666,0,0,0,0,0,0,0,0,0,-1,559,358,0,0
-658,666,0,0,0,0,0,0,0,0,0,-1,566,358,0,0
-651,666,0,0,0,0,0,0,0,0,0,-1,573,358,0,0
-644,666,0,0,0,0,0,0,0,0,0,-1,580,358,0,0
-637,666,0,0,0,0,0,0,0,0,0,-1,587,358,0,0
-630,666,0,0,0,0,0,0,0,0,0,-1,594,358,0,0
-623,666,0,0,0,0,0,0,0,0,0,-1,601,358,0,0
-616,666,0,0,0,0,0,0,0,0,0,-1,608,358,0,0
-609,666,0,0,0,0,0,0,0,0,0,-1,615,358,0,0
-602,666,0,0,0,0,0,0,0,0,0,-1,622,358,0,0
-595,666,0,0,0,0,0,0,0,0,0,-1,629,358,0,0
-588,666,0,0,0,0,0,0,0,0,0,-1,636,358,0,0
-581,666,0,0,0,0,0,0,0,0,0,-1,643,358,0,0
-574,666,0,0,0,0,0,0,0,0,0,-1,650,358,0,0
-567,666,0,0,0,0,0,0,0,0,0,-1,657,358,0,0
-560,666,0,0,0,0,0,0,0,0,0,-1,664,358,0,0
-553,666,0,0,0,0,0,0,0,0,0,-1,671,358,0,0
-546,666,0,0,0,0,0,0,0,0,0,-1,678,358,0,0
-539,666,0,0,0,0,0,0,0,0,0,-1,685,358,0,0
-532,666,0,0,0,0,0,0,0,0,0,-1,692,358,0,0
-525,666,0,0,0,0,0,0,0,0,0,-1,699,358,0,0
-518,666,0,0,0,0,0,0,0,0,0,-1,706,358,0,0
-511,666,0,0,0,0,0,0,0,0,0,-1,713,358,0,0
-504,666,0,0,0,0,0,0,0,0,0,-1,720,358,0,0
-497,666,0,0,0,0,0,0,0,0,0,-1,727,358,0,0
-490,666,0,0,0,0,0,0,0,0,0,-1,734,358,0,0
-483,666,0,0,0,0,0,0,0,0,0,-1,741,358,0,0
-476,666,0,0,0,0,0,0,0,0,0,-1,748,358,0,0
-469,666,0,0,0,0,0,0,0,0,0,-1,755,358,0,0
-462,666,0,0,0,0,0,0,0,0,0,-1,762,358,0,0
-455,666,0,0,0,0,0,0,0,0,0,-1,769,358,0,0
-448,666,0,0,0,0,0,0,0,0,0,-1,776,358,0,0
-441,666,0,0,0,0,0,0,0,0,0,-1,783,358,0,0
-434,666,0,0,0,0,0,0,0,0,0,-1,790,358,0,0
-427,666,0,0,0,0,0,0,0,0,0,-1,797,358,0,0
-420,666,0,0,0,0,0,0,0,0,0,-1,804,358,0,0
-413,666,0,0,0,0,0,0,0,0,0,-1,811,358,0,0
-406,666,0,0,0,0,0,0,0,0,0,-1,818,358,0,0
-399,666,0,0,0,0,0,0,0,0,0,-1,825,358,0,0
-392,666,0,0,0,0,0,0,0,0,0,-1,832,358,0,0
-385,666,0,0,0,0,0,0,0,0,0,-1,839,358,0,0
-378,666,0,0,0,0,0,0,0,0,0,-1,846,358,0,0
-371,666,0,0,0,0,0,0,0,0,0,-1,853,358,0,0
-364,666,0,0,0,0,0,0,0,0,0,-1,860,358,0,0
-357,666,0,0,0,0,0,0,0,0,0,-1,867,358,0,0
-350,666,0,0,0,0,0,0,0,0,0,-1,874,358,0,0
-343,666,0,0,0,0,0,0,0,0,0,-1,881,358,0,0
-336,666,0,0,0,0,0,0,0,0,0,-1,888,358,0,0
-329,666,0,0,0,0,0,0,0,0,0,-1,895,358,0,0
-322,666,0,0,0,0,0,0,0,0,0,-1,902,358,0,0
-315,666,0,0,0,0,0,0,0,0,0,-1,909,358,0,0
-308,666,0,0,0,0,0,0,0,0,0,-1,916,358,0,0
-301,666,0,0,0,0,0,0,0,0,0,-1,923,358,0,0
-294,666,0,0,0,0,0,0,0,0,0,-1,930,358,0,0
-287,666,0,0,0,0,0,0,0,0,0,-1,937,358,0,0
-280,666,0,0,0,0,0,0,0,0,0,-1,944,358,0,0
-273,666,0,0,0,0,0,0,0,0,0,-1,951,358,0,0
-266,666,0,0,0,0,0,0,0,0,0,-1,958,358,0,0
-259,666,0,0,0,0,0,0,0,0,0,-1,965,358,0,0
-252,666,0,0,0,0,0,0,0,0,0,-1,972,358,0,0
-245,666,0,0,0,0,0,0,0,0,0,-1,979,358,0,0
-238,666,0,0,0,0,0,0,0,0,0,-1,986,358,0,0
-231,666,0,0,0,0,0,0,0,0,0,-1,993,358,0,0
-224,666,0,0,0,0,0,0,0,0,0,-1,1000,358,0,0
-217,666,0,0,0,0,0,0,0,0,0,-1,1007,358,0,0
-210,666,0,0,0,0,0,0,0,0,0,-1,1014,358,0,0
-203,666,0,0,0,0,0,0,0,0,0,-1,1021,358,0,0
-196,666,4.03418,-28.8724,0,0,0,0,0,0,0,-1,1028,358,4.03422,28.8724
-189,666,5.00366,-29.597,0,0,0,0,0,0,0,-1,1035,358,5.00363,29.597
-182,666,6.83252,-30.9843,0,0,0,0,0,0,0,-1,1042,358,6.83247,30.9844
-175,666,7.01611,-31.8763,0,0,0,0,0,0,0,-1,1049,358,7.01617,31.8762
-168,666,7.21545,-32.7414,0,0,0,0,0,0,0,-1,1056,358,7.2154,32.7414
-161,666,7.69116,-33.6269,0,0,0,0,0,0,0,-1,1063,358,7.69121,33.6269
-154,666,4.95422,-38.1634,0,0,0,0,0,0,0,-1,1070,358,4.95417,38.1634
-147,666,4.99036,-37.3796,0,0,0,0,0,0,0,-1,1077,358,4.99038,37.3797
-140,666,5.14636,-36.436,0,0,0,0,0,0,0,-1,1084,358,5.14632,36.436
-133,666,5.57275,-35.9952,0,0,0,0,0,0,0,-1,1091,358,5.57273,35.9952
-126,666,5.84875,-35.3638,0,0,0,0,0,0,0,-1,1098,358,5.8487,35.3638
-119,666,6.32092,-34.9492,0,0,0,0,0,0,0,-1,1105,358,6.32098,34.9493
-112,666,6.77014,-32.8165,0,0,0,0,0,0,0,-1,1112,358,6.77013,32.8165
-105,666,6.30908,-29.0855,0,0,0,0,0,0,0,-1,1119,358,6.30905,29.0855
-98,666,15.4427,-31.5168,0,0,0,0,0,0,0,-1,1126,358,15.4428,31.5168
-91,666,9.5127,-25.1347,0,0,0,0,0,0,0,-1,1133,358,9.51269,25.1347
-84,666,2.91589,-19.4071,0,0,0,0,0,0,0,-1,1140,358,2.91592,19.4071
-77,666,-3.48083,-14.0782,0,0,0,0,0,0,0,-1,1147,358,-3.48081,14.0782
-70,666,-9.99438,-8.90146,0,0,0,0,0,0,0,-1,1154,358,-9.99433,8.90146
-63,666,-11.7778,-0.975189,0,0,0,0,0,0,0,-1,1161,358,-11.7778,0.97519
-56,666,0.424683,-2.04132,0,0,0,0,0,0,0,-1,1168,358,0.424665,2.04132
-49,666,0.754395,-2.23169,0,0,0,0,0,0,0,-1,1175,358,0.754383,2.23169
-42,666,1.34473,-3.53897,0,0,0,0,0,0,0,-1,1182,358,1.34476,3.53896
-35,666,6.0835,-42.2563,0,0,0,0,0,0,0,-1,1189,358,6.08349,42.2563
-28,666,6.3418,-42.0588,0,0,0,0,0,0,0,-1,1196,358,6.34183,42.0588
-21,666,6.24097,-42.2747,-0.0048887,0.0122044,-0.000220877,0.0122073,-0.00489156,-1.55788,0.0101688,0.0369679,1203,358,6.24097,42.2747
-14,666,6.12781,-42.4532,-0.00393437,0.0123574,-0.000612218,0.0123803,-0.00395735,-1.53329,0.00984156,0.0312292,1210,358,6.1278,42.4532
-7,666,6.05542,-42.622,-0.00364551,0.0126948,-0.000692709,0.0127241,-0.00367483,-1.5285,0.00993683,0.019833,1217,358,6.05538,42.622
0,666,6.02148,-42.7905,-0.0034894,0.0131686,-0.000664604,0.0131951,-0.00351587,-1.53098,0.0101733,0.0138141,1224,358,6.02147,42.7905
7,666,5.94312,-42.8664,-0.00348767,0.0139267,-0.000633556,0.0139497,-0.00351069,-1.53448,0.0106644,0.0197203,1231,358,5.94315,42.8664
14,666,5.88977,-42.8885,-0.0040373,0.0147449,-0.000529198,0.0147598,-0.0040522,-1.54265,0.0114325,0.0204537,1238,358,5.88979,42.8886
21,666,5.80225,-43.0848,-0.00423542,0.0156334,-0.000422944,0.0156424,-0.00424442,-1.54952,0.0120939,0.0151112,1245,358,5.80228,43.0848
28,666,5.75391,-43.2313,-0.00476857,0.0167169,-0.000155143,0.016718,-0.00476969,-1.56358,0.0130295,0.0158893,1252,358,5.75396,43.2313
35,666,5.76367,-43.2211,-0.00597874,0.0181643,0.000146415,0.0181652,-0.00597963,1.56473,0.0145197,0.0150445,1259,358,5.76364,43.2211
42,666,5.68457,-43.2664,-0.00658761,0.020656,0.0013164,0.0207195,-0.00665107,1.52263,0.0164835,0.0158614,1266,358,5.68451,43.2664
49,666,5.59045,-43.3247,-0.00711288,0.023969,0.0026973,0.0242013,-0.00734521,1.48487,0.0190604,0.0143696,1273,358,5.59049,43.3247
56,666,5.5343,-43.3504,-0.00520308,0.0271484,0.00315557,0.0274534,-0.005508,1.47447,0.0203878,0.0149889,1280,358,5.53427,43.3504
63,666,5.47949,-43.4122,0.000170055,0.0321361,0.00672089,0.0334917,-0.00118553,1.37177,0.0227333,0.0172499,1287,358,5.47953,43.4122
70,666,5.46606,-43.3711,0.00392615,0.0376727,0.00959556,0.0402103,0.00138855,1.31226,0.0263562,0.017546,1294,358,5.46601,43.3711
77,666,5.40759,-43.2608,0.00889007,0.043866,0.0138648,0.0486953,0.00406072,1.23562,0.0311982,0.0224012,1301,358,5.40755,43.2608
84,666,5.38965,-43.2582,0.0149079,0.0510559,0.0188943,0.0591289,0.00683493,1.167,0.03735,0.0320232,1308,358,5.38961,43.2582
91,666,5.32764,-43.3009,0.0211972,0.0573118,0.0234168,0.068825,0.00968402,1.11384,0.0430202,0.0288945,1315,358,5.32761,43.3009
98,666,5.15564,-43.2223,0.027201,0.062857,0.0278996,0.0781383,0.0119197,1.0697,0.0486086,0.0239937,1322,358,5.15568,43.2222
105,666,5.04187,-43.0921,0.0323137,0.0676222,0.0322855,0.086765,0.0131709,1.0356,0.0539912,0.026437,1329,358,5.0419,43.0921
112,666,4.99878,-42.9716,0,0,0,0,0,0,0,-1,1336,358,4.99873,42.9716
119,666,5.01282,-42.7954,0,0,0,0,0,0,0,-1,1343,358,5.01284,42.7954
126,666,4.90076,-42.3591,0.0405499,0.0773291,0.0428158,0.105537,0.0123416,0.988238,0.0666266,0.0333063,1350,358,4.90074,42.3591
133,666,4.84033,-42.2557,0.0402596,0.0780891,0.0448834,0.107881,0.0104682,0.984816,0.0686973,0.0299198,1357,358,4.84033,42.2557
140,666,4.78284,-42.2698,0.0390307,0.0769914,0.0459467,0.107724,0.00829835,0.98127,0.0692158,0.0279974,1364,358,4.78286,42.2698
147,666,4.60071,-42.0923,0.0347796,0.0728805,0.0447826,0.102496,0.00516381,0.986503,0.0666763,0.0251267,1371,358,4.60071,42.0922
154,666,4.60474,-41.6211,0.0301393,0.068012,0.0431952,0.0962393,0.00191197,0.991977,0.0635318,0.0231773,1378,358,4.60471,41.6211
161,666,4.66187,-41.3397,0.021241,0.064459,0.0435684,0.0914829,-0.00578285,1.01561,0.0630047,0.0318223,1385,358,4.66191,41.3397
168,666,4.64832,-41.4998,0,0,0,0,0,0,0,-1,1392,358,4.64837,41.4998
175,666,4.7218,-41.3275,0,0,0,0,0,0,0,-1,1399,358,4.72184,41.3275
182,666,2.60876,-5.17068,0,0,0,0,0,0,0,-1,1406,358,2.6088,5.17068
189,666,2.46973,-5.49979,0,0,0,0,0,0,0,-1,1413,358,2.46975,5.49979
196,666,2.32458,-5.23651,0,0,0,0,0,0,0,-1,1420,358,2.32461,5.23653
203,666,2.28064,-3.88004,0,0,0,0,0,0,0,-1,1427,358,2.28059,3.88003
210,666,3.02576,-5.83548,0,0,0,0,0,0,0,-1,1434,358,3.02581,5.83547
217,666,2.30444,-5.36011,0,0,0,0,0,0,0,-1,1441,358,2.30447,5.3601
224,666,1.82324,-6.03101,0,0,0,0,0,0,0,-1,1448,358,1.82322,6.031
231,666,2.29797,-10.1093,0,0,0,0,0,0,0,-1,1455,358,2.29801,10.1093
238,666,2.52429,-6.10568,0,0,0,0,0,0,0,-1,1462,358,2.52423,6.10567
245,666,4.53345,-1.38205,0,0,0,0,0,0,0,-1,1469,358,4.53349,1.38204
252,666,4.77405,-0.246979,0,0,0,0,0,0,0,-1,1476,358,4.77405,0.246993
259,666,4.83655,1.14087,0,0,0,0,0,0,0,-1,1483,358,4.83652,-1.14087
266,666,6.14148,0.749512,0,0,0,0,0,0,0,-1,1490,358,6.14144,-0.749519
273,666,3.17737,-33.7881,0,0,0,0,0,0,0,-1,1497,358,3.17735,33.7881
280,666,-8.74878,-17.2596,0,0,0,0,0,0,0,-1,1504,358,-8.74875,17.2596
287,666,-7.06934,-20.3464,0,0,0,0,0,0,0,-1,1511,358,-7.06933,20.3464
294,666,-5.74683,-22.5017,0,0,0,0,0,0,0,-1,1518,358,-5.74685,22.5017
301,666,-6.6886,-23.5144,0,0,0,0,0,0,0,-1,1525,358,-6.68864,23.5144
308,666,-7.45471,-24.766,0,0,0,0,0,0,0,-1,1532,358,-7.45475,24.766
315,666,1.76294,-0.284027,0,0,0,0,0,0,0,-1,1539,358,1.76291,0.284016
322,666,0,0,0,0,0,0,0,0,0,-1,1546,358,0,0
329,666,0,0,0,0,0,0,0,0,0,-1,1553,358,0,0
336,666,0,0,0,0,0,0,0,0,0,-1,1560,358,0,0
343,666,0,0,0,0,0,0,0,0,0,-1,1567,358,0,0
350,666,0,0,0,0,0,0,0,0,0,-1,1574,358,0,0
357,666,0,0,0,0,0,0,0,0,0,-1,1581,358,0,0
364,666,0,0,0,0,0,0,0,0,0,-1,1588,358,0,0
371,666,0,0,0,0,0,0,0,0,0,-1,1595,358,0,0
378,666,0,0,0,0,0,0,0,0,0,-1,1602,358,0,0
385,666,0,0,0,0,0,0,0,0,0,-1,1609,358,0,0
392,666,0,0,0,0,0,0,0,0,0,-1,1616,358,0,0
399,666,0,0,0,0,0,0,0,0,0,-1,1623,358,0,0
406,666,0,0,0,0,0,0,0,0,0,-1,1630,358,0,0
413,666,0,0,0,0,0,0,0,0,0,-1,1637,358,0,0
420,666,0,0,0,0,0,0,0,0,0,-1,1644,358,0,0
427,666,0,0,0,0,0,0,0,0,0,-1,1651,358,0,0
434,666,0,0,0,0,0,0,0,0,0,-1,1658,358,0,0
441,666,0,0,0,0,0,0,0,0,0,-1,1665,358,0,0
448,666,0,0,0,0,0,0,0,0,0,-1,1672,358,0,0
455,666,0,0,0,0,0,0,0,0,0,-1,1679,358,0,0
462,666,0,0,0,0,0,0,0,0,0,-1,1686,358,0,0
469,666,0,0,0,0,0,0,0,0,0,-1,1693,358,0,0
476,666,0,0,0,0,0,0,0,0,0,-1,1700,358,0,0
483,666,0,0,0,0,0,0,0,0,0,-1,1707,358,0,0
490,666,0,0,0,0,0,0,0,0,0,-1,1714,358,0,0
497,666,0,0,0,0,0,0,0,0,0,-1,1721,358,0,0
504,666,0,0,0,0,0,0,0,0,0,-1,1728,358,0,0
511,666,0,0,0,0,0,0,0,0,0,-1,1735,358,0,0
518,666,0,0,0,0,0,0,0,0,0,-1,1742,358,0,0
525,666,0,0,0,0,0,0,0,0,0,-1,1749,358,0,0
532,666,0,0,0,0,0,0,0,0,0,-1,1756,358,0,0
539,666,0,0,0,0,0,0,0,0,0,-1,1763,358,0,0
546,666,0,0,0,0,0,0,0,0,0,-1,1770,358,0,0
553,666,0,0,0,0,0,0,0,0,0,-1,1777,358,0,0
560,666,0,0,0,0,0,0,0,0,0,-1,1784,358,0,0
567,666,0,0,0,0,0,0,0,0,0,-1,1791,358,0,0
574,666,0,0,0,0,0,0,0,0,0,-1,1798,358,0,0
581,666,0,0,0,0,0,0,0,0,0,-1,1805,358,0,0
588,666,0,0,0,0,0,0,0,0,0,-1,1812,358,0,0
595,666,0,0,0,0,0,0,0,0,0,-1,1819,358,0,0
602,666,0,0,0,0,0,0,0,0,0,-1,1826,358,0,0
609,666,0,0,0,0,0,0,0,0,0,-1,1833,358,0,0
616,666,0,0,0,0,0,0,0,0,0,-1,1840,358,0,0
623,666,0,0,0,0,0,0,0,0,0,-1,1847,358,0,0
630,666,0,0,0,0,0,0,0,0,0,-1,1854,358,0,0
637,666,0,0,0,0,0,0,0,0,0,-1,1861,358,0,0
644,666,0,0,0,0,0,0,0,0,0,-1,1868,358,0,0
651,666,0,0,0,0,0,0,0,0,0,-1,1875,358,0,0
658,666,0,0,0,0,0,0,0,0,0,-1,1882,358,0,0
665,666,0,0,0,0,0,0,0,0,0,-1,1889,358,0,0
672,666,0,0,0,0,0,0,0,0,0,-1,1896,358,0,0
679,666,0,0,0,0,0,0,0,0,0,-1,1903,358,0,0
686,666,0,0,0,0,0,0,0,0,0,-1,1910,358,0,0
693,666,0,0,0,0,0,0,0,0,0,-1,1917,358,0,0
700,666,0,0,0,0,0,0,0,0,0,-1,1924,358,0,0
707,666,0,0,0,0,0,0,0,0,0,-1,1931,358,0,0
714,666,0,0,0,0,0,0,0,0,0,-1,1938,358,0,0
721,666,0,0,0,0,0,0,0,0,0,-1,1945,358,0,0
728,666,0,0,0,0,0,0,0,0,0,-1,1952,358,0,0
735,666,0,0,0,0,0,0,0,0,0,-1,1959,358,0,0
742,666,0,0,0,0,0,0,0,0,0,-1,1966,358,0,0
749,666,0,0,0,0,0,0,0,0,0,-1,1973,358,0,0
756,666,0,0,0,0,0,0,0,0,0,-1,1980,358,0,0
763,666,0,0,0,0,0,0,0,0,0,-1,1987,358,0,0
770,666,0,0,0,0,0,0,0,0,0,-1,1994,358,0,0
777,666,0,0,0,0,0,0,0,0,0,-1,2001,358,0,0
784,666,0,0,0,0,0,0,0,0,0,-1,2008,358,0,0
791,666,0,0,0,0,0,0,0,0,0,-1,2015,358,0,0
798,666,0,0,0,0,0,0,0,0,0,-1,2022,358,0,0
805,666,0,0,0,0,0,0,0,0,0,-1,2029,358,0,0
812,666,0,0,0,0,0,0,0,0,0,-1,2036,358,0,0
-700,659,0,0,0,0,0,0,0,0,0,-1,524,365,0,0
-693,659,0,0,0,0,0,0,0,0,0,-1,531,365,0,0
-686,659,0,0,0,0,0,0,0,0,0,-1,538,365,0,0
-679,659,0,0,0,0,0,0,0,0,0,-1,545,365,0,0
-672,659,0,0,0,0,0,0,0,0,0,-1,552,365,0,0
-665,659,0,0,0,0,0,0,0,0,0,-1,559,365,0,0
-658,659,0,0,0,0,0,0,0,0,0,-1,566,365,0,0
-651,659,0,0,0,0,0,0,0,0,0,-1,573,365,0,0
-644,659,0,0,0,0,0,0,0,0,0,-1,580,365,0,0
-637,659,0,0,0,0,0,0,0,0,0,-1,587,365,0,0
-630,659,0,0,0,0,0,0,0,0,0,-1,594,365,0,0
-623,659,0,0,0,0,0,0,0,0,0,-1,601,365,0,0
-616,659,0,0,0,0,0,0,0,0,0,-1,608,365,0,0
-609,659,0,0,0,0,0,0,0,0,0,-1,615,365,0,0
-602,659,0,0,0,0,0,0,0,0,0,-1,622,365,0,0
-595,659,0,0,0,0,0,0,0,0,0,-1,629,365,0,0
-588,659,0,0,0,0,0,0,0,0,0,-1,636,365,0,0
-581,659,0,0,0,0,0,0,0,0,0,-1,643,365,0,0
-574,659,0,0,0,0,0,0,0,0,0,-1,650,365,0,0
-567,659,0,0,0,0,0,0,0,0,0,-1,657,365,0,0
-560,659,0,0,0,0,0,0,0,0,0,-1,664,365,0,0
-553,659,0,0,0,0,0,0,0,0,0,-1,671,365,0,0
-546,659,0,0,0,0,0,0,0,0,0,-1,678,365,0,0
-539,659,0,0,0,0,0,0,0,0,0,-1,685,365,0,0
-532,659,0,0,0,0,0,0,0,0,0,-1,692,365,0,0
-525,659,0,0,0,0,0,0,0,0,0,-1,699,365,0,0
-518,659,0,0,0,0,0,0,0,0,0,-1,706,365,0,0
-511,659,0,0,0,0,0,0,0,0,0,-1,713,365,0,0
-504,659,0,0,0,0,0,0,0,0,0,-1,720,365,0,0
-497,659,0,0,0,0,0,0,0,0,0,-1,727,365,0,0
-490,659,0,0,0,0,0,0,0,0,0,-1,734,365,0,0
-483,659,0,0,0,0,0,0,0,0,0,-1,741,365,0,0
-476,659,0,0,0,0,0,0,0,0,0,-1,748,365,0,0
-469,659,0,0,0,0,0,0,0,0,0,-1,755,365,0,0
-462,659,0,0,0,0,0,0,0,0,0,-1,762,365,0,0
-455,659,0,0,0,0,0,0,0,0,0,-1,769,365,0,0
-448,659,0,0,0,0,0,0,0,0,0,-1,776,365,0,0
-441,659,0,0,0,0,0,0,0,0,0,-1,783,365,0,0
-434,659,0,0,0,0,0,0,0,0,0,-1,790,365,0,0
-427,659,0,0,0,0,0,0,0,0,0,-1,797,365,0,0
-420,659,0,0,0,0,0,0,0,0,0,-1,804,365,0,0
-413,659,0,0,0,0,0,0,0,0,0,-1,811,365,0,0
-406,659,0,0,0,0,0,0,0,0,0,-1,818,365,0,0
-399,659,0,0,0,0,0,0,0,0,0,-1,825,365,0,0
-392,659,0,0,0,0,0,0,0,0,0,-1,832,365,0,0
-385,659,0,0,0,0,0,0,0,0,0,-1,839,365,0,0
-378,659,0,0,0,0,0,0,0,0,0,-1,846,365,0,0
-371,659,0,0,0,0,0,0,0,0,0,-1,853,365,0,0
-364,659,0,0,0,0,0,0,0,0,0,-1,860,365,0,0
-357,659,0,0,0,0,0,0,0,0,0,-1,867,365,0,0
-350,659,0,0,0,0,0,0,0,0,0,-1,874,365,0,0
-343,659,0,0,0,0,0,0,0,0,0,-1,881,365,0,0
-336,659,0,0,0,0,0,0,0,0,0,-1,888,365,0,0
-329,659,0,0,0,0,0,0,0,0,0,-1,895,365,0,0
-322,659,0,0,0,0,0,0,0,0,0,-1,902,365,0,0
-315,659,0,0,0,0,0,0,0,0,0,-1,909,365,0,0
-308,659,0,0,0,0,0,0,0,0,0,-1,916,365,0,0
-301,659,0,0,0,0,0,0,0,0,0,-1,923,365,0,0
-294,659,0,0,0,0,0,0,0,0,0,-1,930,365,0,0
-287,659,0,0,0,0,0,0,0,0,0,-1,937,365,0,0
-280,659,0,0,0,0,0,0,0,0,0,-1,944,365,0,0
-273,659,0,0,0,0,0,0,0,0,0,-1,951,365,0,0
-266,659,0,0,0,0,0,0,0,0,0,-1,958,365,0,0
-259,659,0,0,0,0,0,0,0,0,0,-1,965,365,0,0
-252,659,0,0,0,0,0,0,0,0,0,-1,972,365,0,0
-245,659,0,0,0,0,0,0,0,0,0,-1,979,365,0,0
-238,659,0,0,0,0,0,0,0,0,0,-1,986,365,0,0
-231,659,0,0,0,0,0,0,0,0,0,-1,993,365,0,0
-224,659,0,0,0,0,0,0,0,0,0,-1,1000,365,0,0
-217,659,10.1305,-25.2622,0,0,0,0,0,0,0,-1,1007,365,10.1305,25.2622
-210,659,9.65643,-25.515,0,0,0,0,0,0,0,-1,1014,365,9.65642,25.515
-203,659,8.58911,-25.7432,0,0,0,0,0,0,0,-1,1021,365,8.58916,25.7432
-196,659,2.68323,-27.8121,0,0,0,0,0,0,0,-1,1028,365,2.6832,27.8121
-189,659,6.88049,-28.9412,0,0,0,0,0,0,0,-1,1035,365,6.88045,28.9412
-182,659,6.94189,-30.6316,0,0,0,0,0,0,0,-1,1042,365,6.94189,30.6316
-175,659,6.948,-32.0092,0,0,0,0,0,0,0,-1,1049,365,6.94798,32.0093
-168,659,7.1416,-32.7405,0,0,0,0,0,0,0,-1,1056,365,7.14157,32.7405
-161,659,7.57361,-33.7099,0,0,0,0,0,0,0,-1,1063,365,7.57355,33.7099
-154,659,7.71448,-34.8995,0,0,0,0,0,0,0,-1,1070,365,7.7145,34.8995
-147,659,4.87,-37.4694,0,0,0,0,0,0,0,-1,1077,365,4.86994,37.4694
-140,659,4.8833,-36.4362,0,0,0,0,0,0,0,-1,1084,365,4.88331,36.4361
-133,659,5.27185,-35.9657,0,0,0,0,0,0,0,-1,1091,365,5.27183,35.9657
-126,659,5.53967,-35.3379,0,0,0,0,0,0,0,-1,1098,365,5.53972,35.3379
-119,659,6.56091,-35.7425,0,0,0,0,0,0,0,-1,1105,365,6.56091,35.7425
-112,659,6.24353,-35.0562,0,0,0,0,0,0,0,-1,1112,365,6.24349,35.0562
-105,659,5.38696,-30.5854,0,0,0,0,0,0,0,-1,1119,365,5.387,30.5854
-98,659,4.68042,-26.2438,0,0,0,0,0,0,0,-1,1126,365,4.68041,26.2438
-91,659,4.20776,-20.8654,0,0,0,0,0,0,0,-1,1133,365,4.20777,20.8654
-84,659,2.8584,-17.8303,0,0,0,0,0,0,0,-1,1140,365,2.85836,17.8303
-77,659,2.80139,-15.3457,0,0,0,0,0,0,0,-1,1147,365,2.80139,15.3457
-70,659,2.9353,-12.7028,0,0,0,0,0,0,0,-1,1154,365,2.93533,12.7028
-63,659,2.11267,-9.7796,0,0,0,0,0,0,0,-1,1161,365,2.11266,9.7796
-56,659,2.11182,-9.91541,0,0,0,0,0,0,0,-1,1168,365,2.11178,9.91541
-49,659,6.20691,-41.629,0,0,0,0,0,0,0,-1,1175,365,6.20694,41.629
-42,659,6.19617,-41.8733,0,0,0,0,0,0,0,-1,1182,365,6.19616,41.8733
-35,659,6.11243,-42.1465,-0.00694174,0.0104266,-0.00107526,0.0104929,-0.00700806,-1.5092,0.0101707,0.0429143,1189,365,6.11243,42.1465
-28,659,6.11609,-42.2764,-0.00586551,0.0110775,-0.000629441,0.0111009,-0.00588886,-1.53371,0.0099617,0.0170283,1196,365,6.11614,42.2764
-21,659,6.05664,-42.4795,-0.00482738,0.0113198,-0.000669453,0.0113475,-0.00485508,-1.52943,0.00960166,0.0133177,1203,365,6.05667,42.4795
-14,659,5.97656,-42.6723,-0.00404987,0.0114977,-0.000852799,0.0115444,-0.0040965,-1.51616,0.00936531,0.0109403,1210,365,5.97661,42.6723
-7,659,5.92627,-42.8065,-0.00375719,0.0116841,-0.000892612,0.0117355,-0.00380862,-1.51325,0.00935533,0.0105345,1217,365,5.92625,42.8066
0,659,5.90112,-42.9457,-0.00356966,0.0119017,-0.000881933,0.0119518,-0.00361977,-1.51404,0.00940948,0.00905067,1224,365,5.90108,42.9457
7,659,5.87024,-43.0606,-0.00346217,0.0123602,-0.000838739,0.0124045,-0.00350651,-1.51798,0.00965317,0.00894544,1231,365,5.87019,43.0606
14,659,5.80603,-43.1348,-0.0037041,0.012908,-0.000729033,0.0129399,-0.00373604,-1.52702,0.0101048,0.0118223,1238,365,5.80605,43.1348
21,659,5.76135,-43.2427,-0.00371102,0.0135588,-0.000597767,0.0135794,-0.00373168,-1.53624,0.0105198,0.0124311,1245,365,5.76133,43.2427
28,659,5.70508,-43.3426,-0.00394514,0.0144128,-0.000322997,0.0144184,-0.00395082,-1.55321,0.0111647,0.0119182,1252,365,5.70506,43.3426
35,659,5.68286,-43.402,-0.00464705,0.0155844,-4.37936e-05,0.0155845,-0.00464714,-1.56863,0.0122365,0.0126592,1259,365,5.68281,43.402
42,659,5.64868,-43.4568,-0.00492206,0.0174781,0.000905208,0.0175146,-0.00495858,1.53047,0.0136332,0.0133023,1266,365,5.64868,43.4568
49,659,5.57666,-43.4919,-0.00513817,0.0200209,0.00201139,0.0201807,-0.00529796,1.49152,0.0155241,0.0135527,1273,365,5.57667,43.4919
56,659,5.48682,-43.4948,-0.00374435,0.0225359,0.00253376,0.022778,-0.00398641,1.47555,0.0166737,0.0173527,1280,365,5.48682,43.4948
63,659,5.47034,-43.5308,-8.71456e-05,0.026261,0.00516076,0.0272357,-0.00106191,1.38412,0.0185213,0.017872,1287,365,5.47033,43.5308
70,659,5.42065,-43.5189,0.00249262,0.0304253,0.007386,0.0322581,0.000659863,1.32757,0.0212888,0.0184398,1294,365,5.42069,43.5189
77,659,5.34485,-43.484,0.00591093,0.0350591,0.0105762,0.0384922,0.00247782,1.25692,0.0248767,0.0167035,1301,365,5.3448,43.484
84,659,5.3335,-43.4956,0.0100206,0.0403058,0.0142431,0.0459518,0.00437469,1.1934,0.0292854,0.0123735,1308,365,5.33351,43.4956
91,659,5.29126,-43.4405,0.0141697,0.0447531,0.0174488,0.0526626,0.00626025,1.1452,0.0332189,0.011438,1315,365,5.29123,43.4405
98,659,5.23413,-43.327,0.018114,0.0486141,0.0206284,0.0590174,0.00771074,1.1037,0.0370431,0.00848154,1322,365,5.23412,43.327
105,659,5.18933,-43.2041,0.0214532,0.0518736,0.0237146,0.0648367,0.00849008,1.07055,0.0406907,0.00999016,1329,365,5.18929,43.2041
112,659,5.14563,-43.0825,0.0240387,0.054579,0.0263135,0.0697322,0.00888554,1.04831,0.0438276,0.015004,1336,365,5.14558,43.0825
119,659,5.08716,-42.9442,0.0258356,0.0564946,0.0286294,0.0736403,0.0086899,1.0312,0.0464685,0.0171168,1343,365,5.08716,42.9442
126,659,5.03796,-42.7561,0.0261293,0.0575981,0.0304046,0.0760984,0.00762901,1.02417,0.0483901,0.0144351,1350,365,5.03793,42.7561
133,659,4.96826,-42.5906,0.0255812,0.0575532,0.0314502,0.0768471,0.00628734,1.02053,0.0492695,0.013259,1357,365,4.96832,42.5906
140,659,4.91199,-42.4819,0.0244338,0.056146,0.0317887,0.0758137,0.00476611,1.01674,0.049031,0.0109289,1364,365,4.91204,42.4819
147,659,4.86633,-42.3066,0.0212218,0.0527419,0.0304652,0.0712821,0.00268159,1.0241,0.0466532,0.00970381,1371,365,4.86629,42.3066
154,659,4.80774,-42.0498,0.0177806,0.0488517,0.0288684,0.0660993,0.000532962,1.03225,0.0438896,0.0112609,1378,365,4.80779,42.0498
161,659,4.78748,-41.807,0.011815,0.0457767,0.0284721,0.0619472,-0.00435554,1.05428,0.0428239,0.0133465,1385,365,4.78751,41.8071
168,659,4.77356,-41.5627,0.0027237,0.0401256,0.022894,0.0509858,-0.00813646,1.12786,0.0370021,0.0195922,1392,365,4.7735,41.5627
175,659,4.73181,-41.3152,0.00133945,0.0352091,0.0200989,0.0445565,-0.00800792,1.13548,0.0327021,0.0424014,1399,365,4.73182,41.3152
182,659,4.56409,-41.1462,0,0,0,0,0,0,0,-1,1406,365,4.56404,41.1463
189,659,4.64038,-40.6979,0,0,0,0,0,0,0,-1,1413,365,4.64042,40.6979
196,659,2.41248,-13.4371,0,0,0,0,0,0,0,-1,1420,365,2.41243,13.4371
203,659,2.38623,-12.2163,0,0,0,0,0,0,0,-1,1427,365,2.38617,12.2163
210,659,2.20789,-13.9792,0,0,0,0,0,0,0,-1,1434,365,2.20794,13.9792
217,659,2.24121,-13.487,0,0,0,0,0,0,0,-1,1441,365,2.24116,13.487
224,659,2.3479,-15.2926,0,0,0,0,0,0,0,-1,1448,365,2.34793,15.2926
231,659,2.47974,-17.8629,0,0,0,0,0,0,0,-1,1455,365,2.47976,17.8628
238,659,3.57886,-21.1258,0,0,0,0,0,0,0,-1,1462,365,3.57889,21.1258
245,659,3.29883,-25.0283,0,0,0,0,0,0,0,-1,1469,365,3.29889,25.0283
252,659,2.81909,-24.1604,0,0,0,0,0,0,0,-1,1476,365,2.81905,24.1604
259,659,2.33069,-3.36703,0,0,0,0,0,0,0,-1,1483,365,2.33073,3.36702
266,659,3.40918,-35.2544,0,0,0,0,0,0,0,-1,1490,365,3.40913,35.2544
273,659,3.76868,-35.981,0,0,0,0,0,0,0,-1,1497,365,3.76868,35.981
280,659,3.69666,-35.6676,0,0,0,0,0,0,0,-1,1504,365,3.6967,35.6676
287,659,3.37708,-36.2786,0,0,0,0,0,0,0,-1,1511,365,3.37708,36.2786
294,659,3.82178,-38.0821,0,0,0,0,0,0,0,-1,1518,365,3.8218,38.0821
301,659,-4.51111,-22.7441,0,0,0,0,0,0,0,-1,1525,365,-4.51114,22.7441
308,659,-5.40295,-24.1075,0,0,0,0,0,0,0,-1,1532,365,-5.4029,24.1075
315,659,-6.55835,-24.4516,0,0,0,0,0,0,0,-1,1539,365,-6.55841,24.4516
322,659,-7.44983,-23.6558,0,0,0,0,0,0,0,-1,1546,365,-7.44988,23.6558
329,659,-7.67749,-23.0449,0,0,0,0,0,0,0,-1,1553,365,-7.67745,23.0449
336,659,-7.71436,-22.4188,0,0,0,0,0,0,0,-1,1560,365,-7.71432,22.4188
343,659,0,0,0,0,0,0,0,0,0,-1,1567,365,0,0
350,659,0,0,0,0,0,0,0,0,0,-1,1574,365,0,0
357,659,0,0,0,0,0,0,0,0,0,-1,1581,365,0,0
364,659,0,0,0,0,0,0,0,0,0,-1,1588,365,0,0
371,659,0,0,0,0,0,0,0,0,0,-1,1595,365,0,0
378,659,0,0,0,0,0,0,0,0,0,-1,1602,365,0,0
385,659,0,0,0,0,0,0,0,0,0,-1,1609,365,0,0
392,659,0,0,0,0,0,0,0,0,0,-1,1616,365,0,0
399,659,0,0,0,0,0,0,0,0,0,-1,1623,365,0,0
406,659,0,0,0,0,0,0,0,0,0,-1,1630,365,0,0
413,659,0,0,0,0,0,0,0,0,0,-1,1637,365,0,0
420,659,0,0,0,0,0,0,0,0,0,-1,1644,365,0,0
427,659,0,0,0,0,0,0,0,0,0,-1,1651,365,0,0
434,659,0,0,0,0,0,0,0,0,0,-1,1658,365,0,0
441,659,0,0,0,0,0,0,0,0,0,-1,1665,365,0,0
448,659,0,0,0,0,0,0,0,0,0,-1,1672,365,0,0
455,659,0,0,0,0,0,0,0,0,0,-1,1679,365,0,0
462,659,0,0,0,0,0,0,0,0,0,-1,1686,365,0,0
469,659,0,0,0,0,0,0,0,0,0,-1,1693,365,0,0
476,659,0,0,0,0,0,0,0,0,0,-1,1700,365,0,0
483,659,0,0,0,0,0,0,0,0,0,-1,1707,365,0,0
490,659,0,0,0,0,0,0,0,0,0,-1,1714,365,0,0
497,659,0,0,0,0,0,0,0,0,0,-1,1721,365,0,0
504,659,0,0,0,0,0,0,0,0,0,-1,1728,365,0,0
511,659,0,0,0,0,0,0,0,0,0,-1,1735,365,0,0
518,659,0,0,0,0,0,0,0,0,0,-1,1742,365,0,0
525,659,0,0,0,0,0,0,0,0,0,-1,1749,365,0,0
532,659,0,0,0,0,0,0,0,0,0,-1,1756,365,0,0
539,659,0,0,0,0,0,0,0,0,0,-1,1763,365,0,0
546,659,0,0,0,0,0,0,0,0,0,-1,1770,365,0,0
553,659,0,0,0,0,0,0,0,0,0,-1,1777,365,0,0
560,659,0,0,0,0,0,0,0,0,0,-1,1784,365,0,0
567,659,0,0,0,0,0,0,0,0,0,-1,1791,365,0,0
574,659,0,0,0,0,0,0,0,0,0,-1,1798,365,0,0
581,659,0,0,0,0,0,0,0,0,0,-1,1805,365,0,0
588,659,0,0,0,0,0,0,0,0,0,-1,1812,365,0,0
595,659,0,0,0,0,0,0,0,0,0,-1,1819,365,0,0
602,659,0,0,0,0,0,0,0,0,0,-1,1826,365,0,0
609,659,0,0,0,0,0,0,0,0,0,-1,1833,365,0,0
616,659,0,0,0,0,0,0,0,0,0,-1,1840,365,0,0
623,659,0,0,0,0,0,0,0,0,0,-1,1847,365,0,0
630,659,0,0,0,0,0,0,0,0,0,-1,1854,365,0,0
637,659,0,0,0,0,0,0,0,0,0,-1,1861,365,0,0
644,659,0,0,0,0,0,0,0,0,0,-1,1868,365,0,0
651,659,0,0,0,0,0,0,0,0,0,-1,1875,365,0,0
658,659,0,0,0,0,0,0,0,0,0,-1,1882,365,0,0
665,659,0,0,0,0,0,0,0,0,0,-1,1889,365,0,0
672,659,0,0,0,0,0,0,0,0,0,-1,1896,365,0,0
679,659,0,0,0,0,0,0,0,0,0,-1,1903,365,0,0
686,659,0,0,0,0,0,0,0,0,0,-1,1910,365,0,0
693,659,0,0,0,0,0,0,0,0,0,-1,1917,365,0,0
700,659,0,0,0,0,0,0,0,0,0,-1,1924,365,0,0
707,659,0,0,0,0,0,0,0,0,0,-1,1931,365,0,0
714,659,0,0,0,0,0,0,0,0,0,-1,1938,365,0,0
721,659,0,0,0,0,0,0,0,0,0,-1,1945,365,0,0
728,659,0,0,0,0,0,0,0,0,0,-1,1952,365,0,0
735,659,0,0,0,0,0,0,0,0,0,-1,1959,365,0,0
742,659,0,0,0,0,0,0,0,0,0,-1,1966,365,0,0
749,659,0,0,0,0,0,0,0,0,0,-1,1973,365,0,0
756,659,0,0,0,0,0,0,0,0,0,-1,1980,365,0,0
763,659,0,0,0,0,0,0,0,0,0,-1,1987,365,0,0
770,659,0,0,0,0,0,0,0,0,0,-1,1994,365,0,0
777,659,0,0,0,0,0,0,0,0,0,-1,2001,365,0,0
784,659,0,0,0,0,0,0,0,0,0,-1,2008,365,0,0
791,659,0,0,0,0,0,0,0,0,0,-1,2015,365,0,0
798,659,0,0,0,0,0,0,0,0,0,-1,2022,365,0,0
805,659,0,0,0,0,0,0,0,0,0,-1,2029,365,0,0
812,659,0,0,0,0,0,0,0,0,0,-1,2036,365,0,0
-700,652,0,0,0,0,0,0,0,0,0,-1,524,372,0,0
-693,652,0,0,0,0,0,0,0,0,0,-1,531,372,0,0
-686,652,0,0,0,0,0,0,0,0,0,-1,538,372,0,0
-679,652,0,0,0,0,0,0,0,0,0,-1,545,372,0,0
-672,652,0,0,0,0,0,0,0,0,0,-1,552,372,0,0
-665,652,0,0,0,0,0,0,0,0,0,-1,559,372,0,0
-658,652,0,0,0,0,0,0,0,0,0,-1,566,372,0,0
-651,652,0,0,0,0,0,0,0,0,0,-1,573,372,0,0
-644,652,0,0,0,0,0,0,0,0,0,-1,580,372,0,0
-637,652,0,0,0,0,0,0,0,0,0,-1,587,372,0,0
-630,652,0,0,0,0,0,0,0,0,0,-1,594,372,0,0
-623,652,0,0,0,0,0,0,0,0,0,-1,601,372,0,0
-616,652,0,0,0,0,0,0,0,0,0,-1,608,372,0,0
-609,652,0,0,0,0,0,0,0,0,0,-1,615,372,0,0
-602,652,0,0,0,0,0,0,0,0,0,-1,622,372,0,0
-595,652,0,0,0,0,0,0,0,0,0,-1,629,372,0,0
-588,652,0,0,0,0,0,0,0,0,0,-1,636,372,0,0
-581,652,0,0,0,0,0,0,0,0,0,-1,643,372,0,0
-574,652,0,0,0,0,0,0,0,0,0,-1,650,372,0,0
-567,652,0,0,0,0,0,0,0,0,0,-1,657,372,0,0
-560,652,0,0,0,0,0,0,0,0,0,-1,664,372,0,0
-553,652,0,0,0,0,0,0,0,0,0,-1,671,372,0,0
-546,652,0,0,0,0,0,0,0,0,0,-1,678,372,0,0
-539,652,0,0,0,0,0,0,0,0,0,-1,685,372,0,0
-532,652,0,0,0,0,0,0,0,0,0,-1,692,372,0,0
-525,652,0,0,0,0,0,0,0,0,0,-1,699,372,0,0
-518,652,0,0,0,0,0,0,0,0,0,-1,706,372,0,0
-511,652,0,0,0,0,0,0,0,0,0,-1,713,372,0,0
-504,652,0,0,0,0,0,0,0,0,0,-1,720,372,0,0
-497,652,0,0,0,0,0,0,0,0,0,-1,727,372,0,0
-490,652,0,0,0,0,0,0,0,0,0,-1,734,372,0,0
-483,652,0,0,0,0,0,0,0,0,0,-1,741,372,0,0
-476,652,0,0,0,0,0,0,0,0,0,-1,748,372,0,0
-469,652,0,0,0,0,0,0,0,0,0,-1,755,372,0,0
-462,652,0,0,0,0,0,0,0,0,0,-1,762,372,0,0
-455,652,0,0,0,0,0,0,0,0,0,-1,769,372,0,0
-448,652,0,0,0,0,0,0,0,0,0,-1,776,372,0,0
-441,652,0,0,0,0,0,0,0,0,0,-1,783,372,0,0
-434,652,0,0,0,0,0,0,0,0,0,-1,790,372,0,0
-427,652,0,0,0,0,0,0,0,0,0,-1,797,372,0,0
-420,652,0,0,0,0,0,0,0,0,0,-1,804,372,0,0
-413,652,0,0,0,0,0,0,0,0,0,-1,811,372,0,0
-406,652,0,0,0,0,0,0,0,0,0,-1,818,372,0,0
-399,652,0,0,0,0,0,0,0,0,0,-1,825,372,0,0
-392,652,0,0,0,0,0,0,0,0,0,-1,832,372,0,0
-385,652,0,0,0,0,0,0,0,0,0,-1,839,372,0,0
-378,652,0,0,0,0,0,0,0,0,0,-1,846,372,0,0
-371,652,0,0,0,0,0,0,0,0,0,-1,853,372,0,0
-364,652,0,0,0,0,0,0,0,0,0,-1,860,372,0,0
-357,652,0,0,0,0,0,0,0,0,0,-1,867,372,0,0
-350,652,0,0,0,0,0,0,0,0,0,-1,874,372,0,0
-343,652,0,0,0,0,0,0,0,0,0,-1,881,372,0,0
-336,652,0,0,0,0,0,0,0,0,0,-1,888,372,0,0
-329,652,0,0,0,0,0,0,0,0,0,-1,895,372,0,0
-322,652,0,0,0,0,0,0,0,0,0,-1,902,372,0,0
-315,652,0,0,0,0,0,0,0,0,0,-1,909,372,0,0
-308,652,0,0,0,0,0,0,0,0,0,-1,916,372,0,0
-301,652,0,0,0,0,0,0,0,0,0,-1,923,372,0,0
-294,652,0,0,0,0,0,0,0,0,0,-1,930,372,0,0
-287,652,0,0,0,0,0,0,0,0,0,-1,937,372,0,0
-280,652,0,0,0,0,0,0,0,0,0,-1,944,372,0,0
-273,652,0,0,0,0,0,0,0,0,0,-1,951,372,0,0
-266,652,0,0,0,0,0,0,0,0,0,-1,958,372,0,0
-259,652,0,0,0,0,0,0,0,0,0,-1,965,372,0,0
-252,652,0,0,0,0,0,0,0,0,0,-1,972,372,0,0
-245,652,0,0,0,0,0,0,0,0,0,-1,979,372,0,0
-238,652,0,0,0,0,0,0,0,0,0,-1,986,372,0,0
-231,652,8.79358,-27.1656,0,0,0,0,0,0,0,-1,993,372,8.79357,27.1656
-224,652,8.84552,-27.675,0,0,0,0,0,0,0,-1,1000,372,8.84555,27.675
-217,652,9.03113,-27.7474,0,0,0,0,0,0,0,-1,1007,372,9.0311,27.7474
-210,652,9.72803,-30.4624,0,0,0,0,0,0,0,-1,1014,372,9.72805,30.4624
-203,652,7.2677,-26.0732,0,0,0,0,0,0,0,-1,1021,372,7.26775,26.0732
-196,652,5.90686,-26.957,0,0,0,0,0,0,0,-1,1028,372,5.9068,26.957
-189,652,6.21326,-28.3035,0,0,0,0,0,0,0,-1,1035,372,6.21331,28.3035
-182,652,6.45068,-29.9377,0,0,0,0,0,0,0,-1,1042,372,6.45074,29.9377
-175,652,6.72559,-31.6948,0,0,0,0,0,0,0,-1,1049,372,6.72563,31.6948
-168,652,7.08533,-32.8669,0,0,0,0,0,0,0,-1,1056,372,7.08532,32.8669
-161,652,7.06299,-36.7922,0,0,0,0,0,0,0,-1,1063,372,7.06298,36.7922
-154,652,7.29944,-37.3528,0,0,0,0,0,0,0,-1,1070,372,7.2994,37.3528
-147,652,7.39966,-37.5271,0,0,0,0,0,0,0,-1,1077,372,7.39967,37.5271
-140,652,5.6842,-33.9781,0,0,0,0,0,0,0,-1,1084,372,5.68421,33.9781
-133,652,6.3009,-35.2887,0,0,0,0,0,0,0,-1,1091,372,6.30093,35.2887
-126,652,6.45508,-37.5817,0,0,0,0,0,0,0,-1,1098,372,6.45503,37.5817
-119,652,6.55139,-38.0806,0,0,0,0,0,0,0,-1,1105,372,6.55143,38.0806
-112,652,6.4613,-38.5805,0,0,0,0,0,0,0,-1,1112,372,6.46132,38.5805
-105,652,6.42871,-38.7968,0,0,0,0,0,0,0,-1,1119,372,6.4287,38.7968
-98,652,5.84302,-35.2455,0,0,0,0,0,0,0,-1,1126,372,5.84307,35.2455
-91,652,5.66296,-32.9003,0,0,0,0,0,0,0,-1,1133,372,5.66297,32.9003
-84,652,5.46057,-34.9186,0,0,0,0,0,0,0,-1,1140,372,5.46057,34.9186
-77,652,6.21777,-40.4138,0,0,0,0,0,0,0,-1,1147,372,6.21774,40.4139
-70,652,6.18286,-40.8021,0,0,0,0,0,0,0,-1,1154,372,6.18292,40.8021
-63,652,6.17285,-41.094,0,0,0,0,0,0,0,-1,1161,372,6.17282,41.0939
-56,652,6.09973,-41.4088,0,0,0,0,0,0,0,-1,1168,372,6.09975,41.4088
-49,652,6.07129,-41.679,-0.00667628,0.00864168,-0.00179505,0.00884923,-0.00688382,-1.45569,0.00910708,0.0382621,1175,372,6.07124,41.679
-42,652,5.98523,-41.862,-0.00632306,0.00918083,-0.00180819,0.00938892,-0.00653116,-1.45622,0.00924069,0.0126632,1182,372,5.98519,41.862
-35,652,5.97351,-42.0815,-0.0055487,0.00904827,-0.00114101,0.00913692,-0.00563735,-1.49326,0.00860932,0.0107336,1189,372,5.97351,42.0815
-28,652,5.93689,-42.3075,-0.00484972,0.00932086,-0.000826527,0.0093689,-0.00489776,-1.51273,0.00837061,0.00875583,1196,372,5.93693,42.3075
-21,652,5.86963,-42.5211,-0.00409597,0.0095128,-0.000752542,0.00955429,-0.00413746,-1.51572,0.00810853,0.00858597,1203,372,5.86966,42.5211
-14,652,5.83606,-42.6835,-0.00345935,0.0095397,-0.000764672,0.00958453,-0.00350418,-1.51224,0.00782385,0.010958,1210,372,5.83601,42.6835
-7,652,5.79297,-42.8488,-0.00314614,0.00947915,-0.000735373,0.00952183,-0.00318883,-1.51281,0.0076361,0.0141321,1217,372,5.79297,42.8488
0,652,5.76135,-42.9874,-0.00296595,0.00940528,-0.000757409,0.00945148,-0.00301215,-1.50988,0.00750919,0.0133751,1224,372,5.76133,42.9874
7,652,5.74292,-43.0738,-0.0028155,0.00954454,-0.000728585,0.00958734,-0.0028583,-1.51212,0.00752744,0.013232,1231,372,5.74289,43.0738
14,652,5.71606,-43.1899,-0.0028461,0.00983672,-0.000666421,0.00987164,-0.00288102,-1.51844,0.00772269,0.0114378,1238,372,5.71605,43.1899
21,652,5.65942,-43.3356,-0.00273172,0.010279,-0.000581028,0.0103049,-0.00275762,-1.52626,0.00795021,0.0111987,1245,372,5.65938,43.3356
28,652,5.63513,-43.4241,-0.00276448,0.0109608,-0.000404794,0.0109727,-0.00277641,-1.54134,0.00839507,0.0106885,1252,372,5.63516,43.4241
35,652,5.59924,-43.4735,-0.00310617,0.0119348,-0.000263069,0.0119394,-0.00311077,-1.55331,0.00917405,0.0109398,1259,372,5.59929,43.4735
42,652,5.56055,-43.52,-0.00312616,0.0134083,0.00040187,0.0134181,-0.00313592,1.54651,0.0101534,0.0117479,1266,372,5.56054,43.52
49,652,5.54065,-43.5516,-0.00307735,0.0153751,0.00121112,0.0154542,-0.0031565,1.50553,0.0115003,0.0138282,1273,372,5.54069,43.5516
56,652,5.50244,-43.5529,-0.00196016,0.0173792,0.00164093,0.0175175,-0.0020984,1.48675,0.0124369,0.0160411,1280,372,5.50243,43.5528
63,652,5.45825,-43.5948,0.000592423,0.0200388,0.00345645,0.0206349,-3.66196e-06,1.40002,0.0137578,0.0199142,1287,372,5.45823,43.5948
70,652,5.43909,-43.5691,0.00240284,0.0230363,0.00505382,0.0242077,0.00123149,1.34304,0.015744,0.0178241,1294,372,5.43906,43.5691
77,652,5.37061,-43.5474,0.00474153,0.0263208,0.00730705,0.0285623,0.00250009,1.27316,0.0182653,0.014904,1301,372,5.37062,43.5474
84,652,5.38208,-43.5478,0.00746979,0.0298432,0.00982367,0.0335443,0.00376869,1.21049,0.0212185,0.0131684,1308,372,5.38206,43.5478
91,652,5.34851,-43.4906,0.0100957,0.0327472,0.011972,0.0379018,0.00494108,1.16423,0.0237925,0.0170416,1315,372,5.34846,43.4906
98,652,5.33899,-43.3851,0.0125597,0.0352049,0.014151,0.0420056,0.00575909,1.12281,0.0262951,0.0139484,1322,372,5.33903,43.3851
105,652,5.30481,-43.2656,0.0146495,0.0372342,0.0162796,0.0457545,0.00612912,1.08862,0.0286791,0.0114141,1329,372,5.30482,43.2656
112,652,5.25049,-43.1507,0.0161918,0.0389052,0.0179924,0.0488252,0.00627176,1.06692,0.030674,0.0100491,1336,372,5.25053,43.1507
119,652,5.2085,-43.0239,0.0170769,0.0398858,0.0194654,0.0510416,0.00592116,1.05039,0.0322358,0.0109305,1343,372,5.2085,43.0239
126,652,5.15198,-42.8649,0.016895,0.0403049,0.0204931,0.0522002,0.00499968,1.04487,0.0332591,0.0124652,1350,372,5.15195,42.8649
133,652,5.10107,-42.6997,0.0161405,0.0399063,0.0209796,0.0521345,0.00391224,1.04307,0.0335284,0.0129902,1357,372,5.10102,42.6997
140,652,5.08191,-42.537,0.0149761,0.0386171,0.0209995,0.0508944,0.00269881,1.04174,0.0330667,0.0101603,1364,372,5.08195,42.5369
147,652,5.0636,-42.3501,0.0124852,0.0362129,0.0198178,0.0474466,0.00125151,1.05511,0.0312222,0.00965737,1371,372,5.06363,42.3501
154,652,5.02588,-42.1254,0.00992421,0.0335425,0.0184605,0.0436479,-0.000181194,1.06995,0.0291592,0.0094409,1378,372,5.02588,42.1254
161,652,4.97937,-41.8887,0.00609009,0.0313587,0.0179018,0.0406356,-0.0031868,1.09269,0.0282128,0.0112462,1385,372,4.97932,41.8887
168,652,4.93103,-41.6328,0.000779302,0.0278801,0.0144526,0.034141,-0.00548168,1.16199,0.0247908,0.0123848,1392,372,4.93105,41.6328
175,652,4.8916,-41.3652,-0.000259479,0.0246952,0.0126403,0.029979,-0.00554334,1.17485,0.0220671,0.0128949,1399,372,4.89158,41.3652
182,652,4.84937,-41.1234,-0.00170194,0.0211805,0.0100204,0.0249482,-0.00546963,1.21115,0.0187235,0.0191178,1406,372,4.8494,41.1234
189,652,4.85266,-40.845,-0.00344546,0.0168316,0.00735591,0.019219,-0.00583288,1.25696,0.0151363,0.0312512,1413,372,4.85261,40.845
196,652,4.76526,-40.5588,0,0,0,0,0,0,0,-1,1420,372,4.76528,40.5588
203,652,4.74194,-40.2091,0,0,0,0,0,0,0,-1,1427,372,4.74196,40.2091
210,652,4.78894,-39.7614,0,0,0,0,0,0,0,-1,1434,372,4.78898,39.7613
217,652,4.68347,-39.5039,0,0,0,0,0,0,0,-1,1441,372,4.68346,39.5039
224,652,3.63794,-31.2791,0,0,0,0,0,0,0,-1,1448,372,3.63799,31.2791
231,652,3.83936,-30.4812,0,0,0,0,0,0,0,-1,1455,372,3.8393,30.4812
238,652,4.42358,-36.4103,0,0,0,0,0,0,0,-1,1462,372,4.4236,36.4103
245,652,4.30188,-38.0062,0,0,0,0,0,0,0,-1,1469,372,4.30189,38.0062
252,652,4.5011,-37.5259,0,0,0,0,0,0,0,-1,1476,372,4.50107,37.5259
259,652,3.44922,-31.2655,0,0,0,0,0,0,0,-1,1483,372,3.44921,31.2655
266,652,4.05493,-36.2831,0,0,0,0,0,0,0,-1,1490,372,4.05492,36.2832
273,652,4.20044,-36.044,0.00860886,0.0297163,0.0046439,0.0306928,0.00763232,1.36353,0.0184516,0.0454873,1497,372,4.20041,36.044
280,652,4.25037,-35.7533,0.01043,0.0323397,0.00562684,0.0337003,0.00906937,1.33355,0.0201365,0.0477299,1504,372,4.25031,35.7533
287,652,4.43542,-35.5421,0,0,0,0,0,0,0,-1,1511,372,4.43539,35.5422
294,652,3.79028,-37.098,0,0,0,0,0,0,0,-1,1518,372,3.79024,37.098
301,652,5.02332,-39.2824,0,0,0,0,0,0,0,-1,1525,372,5.02336,39.2824
308,652,-3.18225,-22.5736,0,0,0,0,0,0,0,-1,1532,372,-3.1823,22.5736
315,652,-3.1134,-23.446,0,0,0,0,0,0,0,-1,1539,372,-3.11341,23.4459
322,652,-3.39624,-23.2068,0,0,0,0,0,0,0,-1,1546,372,-3.39618,23.2068
329,652,-3.54065,-22.8907,0,0,0,0,0,0,0,-1,1553,372,-3.54059,22.8907
336,652,-3.56519,-22.3688,0,0,0,0,0,0,0,-1,1560,372,-3.56517,22.3688
343,652,-3.58069,-21.9185,0,0,0,0,0,0,0,-1,1567,372,-3.58069,21.9185
350,652,5.28394,-25.6715,0,0,0,0,0,0,0,-1,1574,372,5.28393,25.6715
357,652,0,0,0,0,0,0,0,0,0,-1,1581,372,0,0
364,652,0,0,0,0,0,0,0,0,0,-1,1588,372,0,0
371,652,0,0,0,0,0,0,0,0,0,-1,1595,372,0,0
378,652,0,0,0,0,0,0,0,0,0,-1,1602,372,0,0
385,652,0,0,0,0,0,0,0,0,0,-1,1609,372,0,0
392,652,0,0,0,0,0,0,0,0,0,-1,1616,372,0,0
399,652,0,0,0,0,0,0,0,0,0,-1,1623,372,0,0
406,652,0,0,0,0,0,0,0,0,0,-1,1630,372,0,0
413,652,0,0,0,0,0,0,0,0,0,-1,1637,372,0,0
420,652,0,0,0,0,0,0,0,0,0,-1,1644,372,0,0
427,652,0,0,0,0,0,0,0,0,0,-1,1651,372,0,0
434,652,0,0,0,0,0,0,0,0,0,-1,1658,372,0,0
441,652,0,0,0,0,0,0,0,0,0,-1,1665,372,0,0
448,652,0,0,0,0,0,0,0,0,0,-1,1672,372,0,0
455,652,0,0,0,0,0,0,0,0,0,-1,1679,372,0,0
462,652,0,0,0,0,0,0,0,0,0,-1,1686,372,0,0
469,652,0,0,0,0,0,0,0,0,0,-1,1693,372,0,0
476,652,0,0,0,0,0,0,0,0,0,-1,1700,372,0,0
483,652,0,0,0,0,0,0,0,0,0,-1,1707,372,0,0
490,652,0,0,0,0,0,0,0,0,0,-1,1714,372,0,0
497,652,0,0,0,0,0,0,0,0,0,-1,1721,372,0,0
504,652,0,0,0,0,0,0,0,0,0,-1,1728,372,0,0
511,652,0,0,0,0,0,0,0,0,0,-1,1735,372,0,0
518,652,0,0,0,0,0,0,0,0,0,-1,1742,372,0,0
525,652,0,0,0,0,0,0,0,0,0,-1,1749,372,0,0
532,652,0,0,0,0,0,0,0,0,0,-1,1756,372,0,0
539,652,0,0,0,0,0,0,0,0,0,-1,1763,372,0,0
546,652,0,0,0,0,0,0,0,0,0,-1,1770,372,0,0
553,652,0,0,0,0,0,0,0,0,0,-1,1777,372,0,0
560,652,0,0,0,0,0,0,0,0,0,-1,1784,372,0,0
567,652,0,0,0,0,0,0,0,0,0,-1,1791,372,0,0
574,652,0,0,0,0,0,0,0,0,0,-1,1798,372,0,0
581,652,0,0,0,0,0,0,0,0,0,-1,1805,372,0,0
588,652,0,0,0,0,0,0,0,0,0,-1,1812,372,0,0
595,652,0,0,0,0,0,0,0,0,0,-1,1819,372,0,0
602,652,0,0,0,0,0,0,0,0,0,-1,1826,372,0,0
609,652,0,0,0,0,0,0,0,0,0,-1,1833,372,0,0
616,652,0,0,0,0,0,0,0,0,0,-1,1840,372,0,0
623,652,0,0,0,0,0,0,0,0,0,-1,1847,372,0,0
630,652,0,0,0,0,0,0,0,0,0,-1,1854,372,0,0
637,652,0,0,0,0,0,0,0,0,0,-1,1861,372,0,0
644,652,0,0,0,0,0,0,0,0,0,-1,1868,372,0,0
651,652,0,0,0,0,0,0,0,0,0,-1,1875,372,0,0
658,652,0,0,0,0,0,0,0,0,0,-1,1882,372,0,0
665,652,0,0,0,0,0,0,0,0,0,-1,1889,372,0,0
672,652,0,0,0,0,0,0,0,0,0,-1,1896,372,0,0
679,652,0,0,0,0,0,0,0,0,0,-1,1903,372,0,0
686,652,0,0,0,0,0,0,0,0,0,-1,1910,372,0,0
693,652,0,0,0,0,0,0,0,0,0,-1,1917,372,0,0
700,652,0,0,0,0,0,0,0,0,0,-1,1924,372,0,0
707,652,0,0,0,0,0,0,0,0,0,-1,1931,372,0,0
714,652,0,0,0,0,0,0,0,0,0,-1,1938,372,0,0
721,652,0,0,0,0,0,0,0,0,0,-1,1945,372,0,0
728,652,0,0,0,0,0,0,0,0,0,-1,1952,372,0,0
735,652,0,0,0,0,0,0,0,0,0,-1,1959,372,0,0
742,652,0,0,0,0,0,0,0,0,0,-1,1966,372,0,0
749,652,0,0,0,0,0,0,0,0,0,-1,1973,372,0,0
756,652,0,0,0,0,0,0,0,0,0,-1,1980,372,0,0
763,652,0,0,0,0,0,0,0,0,0,-1,1987,372,0,0
770,652,0,0,0,0,0,0,0,0,0,-1,1994,372,0,0
777,652,0,0,0,0,0,0,0,0,0,-1,2001,372,0,0
784,652,0,0,0,0,0,0,0,0,0,-1,2008,372,0,0
791,652,0,0,0,0,0,0,0,0,0,-1,2015,372,0,0
798,652,0,0,0,0,0,0,0,0,0,-1,2022,372,0,0
805,652,0,0,0,0,0,0,0,0,0,-1,2029,372,0,0
812,652,0,0,0,0,0,0,0,0,0,-1,2036,372,0,0
-700,645,0,0,0,0,0,0,0,0,0,-1,524,379,0,0
-693,645,0,0,0,0,0,0,0,0,0,-1,531,379,0,0
-686,645,0,0,0,0,0,0,0,0,0,-1,538,379,0,0
-679,645,0,0,0,0,0,0,0,0,0,-1,545,379,0,0
-672,645,0,0,0,0,0,0,0,0,0,-1,552,379,0,0
-665,645,0,0,0,0,0,0,0,0,0,-1,559,379,0,0
-658,645,0,0,0,0,0,0,0,0,0,-1,566,379,0,0
-651,645,0,0,0,0,0,0,0,0,0,-1,573,379,0,0
-644,645,0,0,0,0,0,0,0,0,0,-1,580,379,0,0
-637,645,0,0,0,0,0,0,0,0,0,-1,587,379,0,0
-630,645,0,0,0,0,0,0,0,0,0,-1,594,379,0,0
-623,645,0,0,0,0,0,0,0,0,0,-1,601,379,0,0
-616,645,0,0,0,0,0,0,0,0,0,-1,608,379,0,0
-609,645,0,0,0,0,0,0,0,0,0,-1,615,379,0,0
-602,645,0,0,0,0,0,0,0,0,0,-1,622,379,0,0
-595,645,0,0,0,0,0,0,0,0,0,-1,629,379,0,0
-588,645,0,0,0,0,0,0,0,0,0,-1,636,379,0,0
-581,645,0,0,0,0,0,0,0,0,0,-1,643,379,0,0
-574,645,0,0,0,0,0,0,0,0,0,-1,650,379,0,0
-567,645,0,0,0,0,0,0,0,0,0,-1,657,379,0,0
-560,645,0,0,0,0,0,0,0,0,0,-1,664,379,0,0
-553,645,0,0,0,0,0,0,0,0,0,-1,671,379,0,0
-546,645,0,0,0,0,0,0,0,0,0,-1,678,379,0,0
-539,645,0,0,0,0,0,0,0,0,0,-1,685,379,0,0
-532,645,0,0,0,0,0,0,0,0,0,-1,692,379,0,0
-525,645,0,0,0,0,0,0,0,0,0,-1,699,379,0,0
-518,645,0,0,0,0,0,0,0,0,0,-1,706,379,0,0
-511,645,0,0,0,0,0,0,0,0,0,-1,713,379,0,0
-504,645,0,0,0,0,0,0,0,0,0,-1,720,379,0,0
-497,645,0,0,0,0,0,0,0,0,0,-1,727,379,0,0
-490,645,0,0,0,0,0,0,0,0,0,-1,734,379,0,0
-483,645,0,0,0,0,0,0,0,0,0,-1,741,379,0,0
-476,645,0,0,0,0,0,0,0,0,0,-1,748,379,0,0
-469,645,0,0,0,0,0,0,0,0,0,-1,755,379,0,0
-462,645,0,0,0,0,0,0,0,0,0,-1,762,379,0,0
-455,645,0,0,0,0,0,0,0,0,0,-1,769,379,0,0
-448,645,0,0,0,0,0,0,0,0,0,-1,776,379,0,0
-441,645,0,0,0,0,0,0,0,0,0,-1,783,379,0,0
-434,645,0,0,0,0,0,0,0,0,0,-1,790,379,0,0
-427,645,0,0,0,0,0,0,0,0,0,-1,797,379,0,0
-420,645,0,0,0,0,0,0,0,0,0,-1,804,379,0,0
-413,645,0,0,0,0,0,0,0,0,0,-1,811,379,0,0
-406,645,0,0,0,0,0,0,0,0,0,-1,818,379,0,0
-399,645,0,0,0,0,0,0,0,0,0,-1,825,379,0,0
-392,645,0,0,0,0,0,0,0,0,0,-1,832,379,0,0
-385,645,0,0,0,0,0,0,0,0,0,-1,839,379,0,0
-378,645,0,0,0,0,0,0,0,0,0,-1,846,379,0,0
-371,645,0,0,0,0,0,0,0,0,0,-1,853,379,0,0
-364,645,0,0,0,0,0,0,0,0,0,-1,860,379,0,0
-357,645,0,0,0,0,0,0,0,0,0,-1,867,379,0,0
-350,645,0,0,0,0,0,0,0,0,0,-1,874,379,0,0
-343,645,0,0,0,0,0,0,0,0,0,-1,881,379,0,0
-336,645,0,0,0,0,0,0,0,0,0,-1,888,379,0,0
-329,645,0,0,0,0,0,0,0,0,0,-1,895,379,0,0
-322,645,0,0,0,0,0,0,0,0,0,-1,902,379,0,0
-315,645,0,0,0,0,0,0,0,0,0,-1,909,379,0,0
-308,645,0,0,0,0,0,0,0,0,0,-1,916,379,0,0
-301,645,0,0,0,0,0,0,0,0,0,-1,923,379,0,0
-294,645,0,0,0,0,0,0,0,0,0,-1,930,379,0,0
-287,645,0,0,0,0,0,0,0,0,0,-1,937,379,0,0
-280,645,0,0,0,0,0,0,0,0,0,-1,944,379,0,0
-273,645,0,0,0,0,0,0,0,0,0,-1,951,379,0,0
-266,645,0,0,0,0,0,0,0,0,0,-1,958,379,0,0
-259,645,0,0,0,0,0,0,0,0,0,-1,965,379,0,0
-252,645,2.95691,-26.9133,0,0,0,0,0,0,0,-1,972,379,2.9569,26.9133
-245,645,2.73169,-27.0215,0,0,0,0,0,0,0,-1,979,379,2.73172,27.0215
-238,645,2.6665,-26.9464,0,0,0,0,0,0,0,-1,986,379,2.66649,26.9464
-231,645,7.26807,-29.1054,0,0,0,0,0,0,0,-1,993,379,7.26806,29.1054
-224,645,7.69073,-29.5737,0,0,0,0,0,0,0,-1,1000,379,7.69071,29.5737
-217,645,8.65485,-33.4136,0,0,0,0,0,0,0,-1,1007,379,8.65487,33.4136
-210,645,9.21594,-32.5157,0,0,0,0,0,0,0,-1,1014,379,9.21591,32.5156
-203,645,9.77698,-31.6176,0,0,0,0,0,0,0,-1,1021,379,9.77696,31.6177
-196,645,10.2664,-29.7741,0,0,0,0,0,0,0,-1,1028,379,10.2664,29.7741
-189,645,5.88062,-28.2191,0,0,0,0,0,0,0,-1,1035,379,5.88062,28.2191
-182,645,6.34167,-29.2525,0,0,0,0,0,0,0,-1,1042,379,6.3417,29.2525
-175,645,6.1416,-34.1797,0,0,0,0,0,0,0,-1,1049,379,6.14161,34.1797
-168,645,6.59009,-35.7975,0,0,0,0,0,0,0,-1,1056,379,6.59009,35.7975
-161,645,6.6825,-36.4286,-0.00106352,0.00601841,-0.00149639,0.00632161,-0.00136672,-1.37088,0.00473617,0.0491844,1063,379,6.68247,36.4286
-154,645,6.74695,-36.8216,-0.00121743,0.00725658,-0.00167466,0.00757552,-0.00153637,-1.3826,0.00563275,0.0476007,1070,379,6.74699,36.8216
-147,645,6.78271,-37.0413,0,0,0,0,0,0,0,-1,1077,379,6.78268,37.0413
-140,645,6.3468,-36.9643,0,0,0,0,0,0,0,-1,1084,379,6.34677,36.9643
-133,645,6.38269,-37.6462,0,0,0,0,0,0,0,-1,1091,379,6.3827,37.6463
-126,645,6.26599,-37.8128,-0.00345623,0.013494,-0.00331938,0.0141209,-0.00408309,-1.38415,0.0110298,0.0497685,1098,379,6.26603,37.8128
-119,645,6.22534,-38.3609,-0.0039079,0.0141716,-0.00349201,0.0148227,-0.00455893,-1.38648,0.0117013,0.0267593,1105,379,6.2254,38.3609
-112,645,6.15808,-38.7728,-0.00445947,0.0146652,-0.00344821,0.0152679,-0.00506219,-1.39775,0.0122207,0.0197639,1112,379,6.15809,38.7728
-105,645,6.11475,-39.0707,-0.00513614,0.015056,-0.00353982,0.0156586,-0.00573871,-1.40219,0.0127886,0.0412386,1119,379,6.1147,39.0707
-98,645,6.06238,-39.3199,0,0,0,0,0,0,0,-1,1126,379,6.06232,39.3199
-91,645,5.93262,-39.9865,0,0,0,0,0,0,0,-1,1133,379,5.93262,39.9865
-84,645,5.93787,-40.3464,0,0,0,0,0,0,0,-1,1140,379,5.93781,40.3464
-77,645,6.01086,-40.605,-0.00542426,0.00834393,-0.00166435,0.00854227,-0.0056226,-1.45219,0.00823579,0.0399609,1147,379,6.01091,40.605
-70,645,5.92773,-40.8844,-0.0054194,0.00692825,-0.00119965,0.00704373,-0.00553488,-1.47484,0.00727965,0.015107,1154,379,5.92774,40.8844
-63,645,5.89624,-41.1359,-0.00528239,0.00686781,-0.00119571,0.00698436,-0.00539894,-1.47363,0.00716901,0.0120832,1161,379,5.89622,41.1359
-56,645,5.86707,-41.3911,-0.00496458,0.00665234,-0.00127851,0.00679138,-0.00510362,-1.46247,0.00689059,0.0130812,1168,379,5.86701,41.3911
-49,645,5.84082,-41.6469,-0.00467081,0.0063958,-0.00129142,0.0065445,-0.00481951,-1.45615,0.00658616,0.0111148,1175,379,5.84084,41.6469
-42,645,5.78723,-41.8785,-0.0043299,0.00663855,-0.00121882,0.00677236,-0.0044637,-1.46145,0.00653263,0.0107597,1182,379,5.78727,41.8785
-35,645,5.75342,-42.1253,-0.00377706,0.00658539,-0.000794797,0.006646,-0.00383767,-1.49469,0.00612471,0.0111769,1189,379,5.7534,42.1253
-28,645,5.71838,-42.3702,-0.00332825,0.00660274,-0.000631898,0.00664279,-0.00336829,-1.50751,0.00588206,0.00919478,1196,379,5.71834,42.3702
-21,645,5.68811,-42.5516,-0.00280429,0.00662465,-0.000558974,0.00665767,-0.00283731,-1.51179,0.00562789,0.0106908,1203,379,5.68817,42.5516
-14,645,5.6759,-42.7292,-0.00231958,0.00651559,-0.000495014,0.00654324,-0.00234723,-1.515,0.00532006,0.0112887,1210,379,5.67586,42.7292
-7,645,5.66382,-42.8992,-0.00201377,0.0063043,-0.000476589,0.00633152,-0.00204099,-1.51375,0.005041,0.0152748,1217,379,5.66382,42.8992
0,645,5.63562,-43.0107,-0.00182606,0.00610903,-0.000500188,0.00614043,-0.00185747,-1.50809,0.00483325,0.026649,1224,379,5.63568,43.0107
7,645,5.61206,-43.1177,-0.00168984,0.00607444,-0.000477463,0.00610369,-0.00171909,-1.50961,0.00474707,0.0176016,1231,379,5.61201,43.1177
14,645,5.60156,-43.2158,-0.00163526,0.00622048,-0.000417113,0.00624257,-0.00165734,-1.5179,0.00481029,0.0170095,1238,379,5.60156,43.2158
21,645,5.56873,-43.3537,-0.00149566,0.00654453,-0.000307156,0.00655625,-0.00150737,-1.53267,0.00495039,0.0115409,1245,379,5.56869,43.3537
28,645,5.5553,-43.4529,-0.00141411,0.00712355,-9.49445e-05,0.00712461,-0.00141516,-1.55968,0.005285,0.00997413,1252,379,5.5553,43.4529
35,645,5.52258,-43.5122,-0.00152095,0.00794362,6.51695e-05,0.00794407,-0.0015214,1.56391,0.00586928,0.0095422,1259,379,5.52261,43.5122
42,645,5.50305,-43.577,-0.00143308,0.009061,0.000586932,0.00909372,-0.00146581,1.5151,0.00660552,0.00957452,1266,379,5.503,43.577
49,645,5.51953,-43.6076,-0.00126916,0.0105293,0.00120902,0.0106519,-0.00139177,1.46972,0.00760776,0.0127615,1273,379,5.51951,43.6076
56,645,5.51025,-43.6073,-0.00094083,0.0121936,0.00184922,0.012449,-0.00119622,1.43356,0.00872546,0.012878,1280,379,5.51027,43.6073
63,645,5.49072,-43.6396,-0.00049749,0.0140478,0.00278579,0.0145631,-0.00101279,1.38789,0.0100633,0.0124134,1287,379,5.49076,43.6396
70,645,5.45642,-43.6317,-4.49344e-05,0.0161391,0.00381904,0.016995,-0.000900866,1.35032,0.0116419,0.0160432,1294,379,5.45641,43.6317
77,645,5.44055,-43.6181,0.000589,0.0182658,0.00510748,0.0196354,-0.000780616,1.3088,0.0133581,0.0178641,1301,379,5.4405,43.6181
84,645,5.46411,-43.555,0.00134294,0.0203413,0.0064055,0.0222992,-0.000614965,1.27415,0.0150753,0.0134895,1308,379,5.46406,43.555
91,645,5.41589,-43.5146,0.00186815,0.0219428,0.00739422,0.0243724,-0.000561375,1.25334,0.0164386,0.0168225,1315,379,5.41588,43.5146
98,645,5.41736,-43.4115,0.00238611,0.0232039,0.0084399,0.0261957,-0.000605625,1.23014,0.0176691,0.0149581,1322,379,5.41736,43.4115
105,645,5.39685,-43.3047,0.00293291,0.0241433,0.0094307,0.0277299,-0.000653744,1.20737,0.0187083,0.0109654,1329,379,5.39682,43.3047
112,645,5.35938,-43.1818,0.00334825,0.0248756,0.0101111,0.0288798,-0.000655967,1.19372,0.0194756,0.00905972,1336,379,5.35936,43.1818
119,645,5.33484,-43.0392,0.0035319,0.0250642,0.0106627,0.0294507,-0.000854593,1.18051,0.0199248,0.00888992,1343,379,5.33488,43.0391
126,645,5.29895,-42.8922,0.00335873,0.024953,0.0109729,0.0295501,-0.00123837,1.17406,0.0201255,0.0120288,1350,379,5.29891,42.8922
133,645,5.29175,-42.7359,0.00316609,0.0243707,0.0110154,0.0290572,-0.00152046,1.16854,0.0198977,0.0134503,1357,379,5.29173,42.7359
140,645,5.29089,-42.567,0.00303266,0.0233575,0.0109406,0.0281273,-0.00173712,1.15967,0.0193566,0.0127861,1364,379,5.29087,42.567
147,645,5.23047,-42.3791,0.00234895,0.0219185,0.0101977,0.0262666,-0.00199907,1.16777,0.018214,0.0134993,1371,379,5.23041,42.379
154,645,5.21289,-42.1737,0.00164731,0.0204062,0.00944648,0.0243388,-0.00228527,1.17632,0.0170388,0.0121406,1378,379,5.21293,42.1737
161,645,5.21045,-41.9459,0.000869302,0.0190151,0.00884254,0.0226114,-0.00272698,1.18453,0.0160606,0.0146192,1385,379,5.21049,41.9459
168,645,5.17578,-41.6857,4.46234e-05,0.0173783,0.00783106,0.0203922,-0.00296927,1.20341,0.014685,0.0167241,1392,379,5.17582,41.6857
175,645,5.16052,-41.4344,-0.000671354,0.0157533,0.00694347,0.0182952,-0.00321329,1.21986,0.013397,0.0145099,1399,379,5.16058,41.4344
182,645,5.11438,-41.1772,-0.00156725,0.0143577,0.00597542,0.0163504,-0.00356001,1.2489,0.0122605,0.0112629,1406,379,5.11441,41.1772
189,645,5.08887,-40.8683,-0.00259229,0.012599,0.00505446,0.0141271,-0.00412031,1.27722,0.0110506,0.0120863,1413,379,5.08891,40.8683
196,645,5.03906,-40.5887,-0.0027192,0.0122785,0.00526024,0.0139395,-0.0043802,1.26494,0.0110464,0.0119402,1420,379,5.03911,40.5887
203,645,4.995,-40.2536,-0.00284329,0.0121577,0.00510308,0.0137291,-0.00441467,1.27208,0.0109257,0.0117661,1427,379,4.995,40.2536
210,645,5.01123,-39.826,-0.00312353,0.0117108,0.00444202,0.0129392,-0.00435193,1.301,0.0103853,0.0214485,1434,379,5.01122,39.826
217,645,4.96277,-39.5646,-0.00283538,0.0120915,0.0043821,0.0132828,-0.00402675,1.30534,0.0104591,0.0484324,1441,379,4.96281,39.5646
224,645,4.75085,-39.4203,0,0,0,0,0,0,0,-1,1448,379,4.75091,39.4203
231,645,4.80847,-38.8047,0,0,0,0,0,0,0,-1,1455,379,4.80848,38.8047
238,645,4.74634,-38.4366,0,0,0,0,0,0,0,-1,1462,379,4.74631,38.4367
245,645,4.71289,-38.0432,0.00111122,0.0175756,0.00404416,0.0185153,0.000171486,1.34248,0.0122868,0.0318842,1469,379,4.71286,38.0432
252,645,4.76416,-37.4954,0.00201864,0.0190455,0.0040095,0.0199424,0.00112172,1.35072,0.0129373,0.0368188,1476,379,4.7642,37.4954
259,645,4.50769,-36.9584,0,0,0,0,0,0,0,-1,1483,379,4.50767,36.9584
266,645,4.51233,-36.573,0.00451434,0.0223229,0.0045451,0.0234159,0.00342141,1.33481,0.0146043,0.0395005,1490,379,4.51232,36.573
273,645,4.59631,-36.2429,0.00579175,0.0242864,0.00517544,0.0256362,0.00444199,1.31568,0.0158194,0.0239639,1497,379,4.59636,36.2429
280,645,4.70947,-35.8604,0.0071217,0.0265111,0.00616149,0.0283034,0.00532941,1.28772,0.0173672,0.0422104,1504,379,4.70948,35.8604
287,645,4.87268,-35.414,0,0,0,0,0,0,0,-1,1511,379,4.87272,35.414
294,645,4.25464,-35.5385,0,0,0,0,0,0,0,-1,1518,379,4.25469,35.5385
301,645,-0.0267334,-21.0521,0,0,0,0,0,0,0,-1,1525,379,-0.0267066,21.0521
308,645,-0.351807,-21.8966,0,0,0,0,0,0,0,-1,1532,379,-0.351807,21.8966
315,645,-0.00427246,-22.7372,0,0,0,0,0,0,0,-1,1539,379,-0.00424457,22.7372
322,645,0.717163,-22.771,0,0,0,0,0,0,0,-1,1546,379,0.717186,22.771
329,645,3.37659,-32.6284,0,0,0,0,0,0,0,-1,1553,379,3.37655,32.6284
336,645,3.36401,-31.6129,0,0,0,0,0,0,0,-1,1560,379,3.36405,31.6129
343,645,4.77185,-23.7191,0,0,0,0,0,0,0,-1,1567,379,4.77184,23.7191
350,645,4.76404,-22.1987,0,0,0,0,0,0,0,-1,1574,379,4.76399,22.1987
357,645,4.61316,-21.967,0,0,0,0,0,0,0,-1,1581,379,4.61316,21.967
364,645,-0.0794678,-3.22021,0,0,0,0,0,0,0,-1,1588,379,-0.0794987,3.22021
371,645,0,0,0,0,0,0,0,0,0,-1,1595,379,0,0
378,645,0,0,0,0,0,0,0,0,0,-1,1602,379,0,0
385,645,0,0,0,0,0,0,0,0,0,-1,1609,379,0,0
392,645,0,0,0,0,0,0,0,0,0,-1,1616,379,0,0
399,645,0,0,0,0,0,0,0,0,0,-1,1623,379,0,0
406,645,0,0,0,0,0,0,0,0,0,-1,1630,379,0,0
413,645,0,0,0,0,0,0,0,0,0,-1,1637,379,0,0
420,645,0,0,0,0,0,0,0,0,0,-1,1644,379,0,0
427,645,0,0,0,0,0,0,0,0,0,-1,1651,379,0,0
434,645,0,0,0,0,0,0,0,0,0,-1,1658,379,0,0
441,645,0,0,0,0,0,0,0,0,0,-1,1665,379,0,0
448,645,0,0,0,0,0,0,0,0,0,-1,1672,379,0,0
455,645,0,0,0,0,0,0,0,0,0,-1,1679,379,0,0
462,645,0,0,0,0,0,0,0,0,0,-1,1686,379,0,0
469,645,0,0,0,0,0,0,0,0,0,-1,1693,379,0,0
476,645,0,0,0,0,0,0,0,0,0,-1,1700,379,0,0
483,645,0,0,0,0,0,0,0,0,0,-1,1707,379,0,0
490,645,0,0,0,0,0,0,0,0,0,-1,1714,379,0,0
497,645,0,0,0,0,0,0,0,0,0,-1,1721,379,0,0
504,645,0,0,0,0,0,0,0,0,0,-1,1728,379,0,0
511,645,0,0,0,0,0,0,0,0,0,-1,1735,379,0,0
518,645,0,0,0,0,0,0,0,0,0,-1,1742,379,0,0
525,645,0,0,0,0,0,0,0,0,0,-1,1749,379,0,0
532,645,0,0,0,0,0,0,0,0,0,-1,1756,379,0,0
539,645,0,0,0,0,0,0,0,0,0,-1,1763,379,0,0
546,645,0,0,0,0,0,0,0,0,0,-1,1770,379,0,0
553,645,0,0,0,0,0,0,0,0,0,-1,1777,379,0,0
560,645,0,0,0,0,0,0,0,0,0,-1,1784,379,0,0
567,645,0,0,0,0,0,0,0,0,0,-1,1791,379,0,0
574,645,0,0,0,0,0,0,0,0,0,-1,1798,379,0,0
581,645,0,0,0,0,0,0,0,0,0,-1,1805,379,0,0
588,645,0,0,0,0,0,0,0,0,0,-1,1812,379,0,0
595,645,0,0,0,0,0,0,0,0,0,-1,1819,379,0,0
602,645,0,0,0,0,0,0,0,0,0,-1,1826,379,0,0
609,645,0,0,0,0,0,0,0,0,0,-1,1833,379,0,0
616,645,0,0,0,0,0,0,0,0,0,-1,1840,379,0,0
623,645,0,0,0,0,0,0,0,0,0,-1,1847,379,0,0
630,645,0,0,0,0,0,0,0,0,0,-1,1854,379,0,0
637,645,0,0,0,0,0,0,0,0,0,-1,1861,379,0,0
644,645,0,0,0,0,0,0,0,0,0,-1,1868,379,0,0
651,645,0,0,0,0,0,0,0,0,0,-1,1875,379,0,0
658,645,0,0,0,0,0,0,0,0,0,-1,1882,379,0,0
665,645,0,0,0,0,0,0,0,0,0,-1,1889,379,0,0
672,645,0,0,0,0,0,0,0,0,0,-1,1896,379,0,0
679,645,0,0,0,0,0,0,0,0,0,-1,1903,379,0,0
686,645,0,0,0,0,0,0,0,0,0,-1,1910,379,0,0
693,645,0,0,0,0,0,0,0,0,0,-1,1917,379,0,0
700,645,0,0,0,0,0,0,0,0,0,-1,1924,379,0,0
707,645,0,0,0,0,0,0,0,0,0,-1,1931,379,0,0
714,645,0,0,0,0,0,0,0,0,0,-1,1938,379,0,0
721,645,0,0,0,0,0,0,0,0,0,-1,1945,379,0,0
728,645,0,0,0,0,0,0,0,0,0,-1,1952,379,0,0
735,645,0,0,0,0,0,0,0,0,0,-1,1959,379,0,0
742,645,0,0,0,0,0,0,0,0,0,-1,1966,379,0,0
749,645,0,0,0,0,0,0,0,0,0,-1,1973,379,0,0
756,645,0,0,0,0,0,0,0,0,0,-1,1980,379,0,0
763,645,0,0,0,0,0,0,0,0,0,-1,1987,379,0,0
770,645,0,0,0,0,0,0,0,0,0,-1,1994,379,0,0
777,645,0,0,0,0,0,0,0,0,0,-1,2001,379,0,0
784,645,0,0,0,0,0,0,0,0,0,-1,2008,379,0,0
791,645,0,0,0,0,0,0,0,0,0,-1,2015,379,0,0
798,645,0,0,0,0,0,0,0,0,0,-1,2022,379,0,0
805,645,0,0,0,0,0,0,0,0,0,-1,2029,379,0,0
812,645,0,0,0,0,0,0,0,0,0,-1,2036,379,0,0
-700,638,0,0,0,0,0,0,0,0,0,-1,524,386,0,0
-693,638,0,0,0,0,0,0,0,0,0,-1,531,386,0,0
-686,638,0,0,0,0,0,0,0,0,0,-1,538,386,0,0
-679,638,0,0,0,0,0,0,0,0,0,-1,545,386,0,0
-672,638,0,0,0,0,0,0,0,0,0,-1,552,386,0,0
-665,638,0,0,0,0,0,0,0,0,0,-1,559,386,0,0
-658,638,0,0,0,0,0,0,0,0,0,-1,566,386,0,0
-651,638,0,0,0,0,0,0,0,0,0,-1,573,386,0,0
-644,638,0,0,0,0,0,0,0,0,0,-1,580,386,0,0
-637,638,0,0,0,0,0,0,0,0,0,-1,587,386,0,0
-630,638,0,0,0,0,0,0,0,0,0,-1,594,386,0,0
-623,638,0,0,0,0,0,0,0,0,0,-1,601,386,0,0
-616,638,0,0,0,0,0,0,0,0,0,-1,608,386,0,0
-609,638,0,0,0,0,0,0,0,0,0,-1,615,386,0,0
-602,638,0,0,0,0,0,0,0,0,0,-1,622,386,0,0
-595,638,0,0,0,0,0,0,0,0,0,-1,629,386,0,0
-588,638,0,0,0,0,0,0,0,0,0,-1,636,386,0,0
-581,638,0,0,0,0,0,0,0,0,0,-1,643,386,0,0
-574,638,0,0,0,0,0,0,0,0,0,-1,650,386,0,0
-567,638,0,0,0,0,0,0,0,0,0,-1,657,386,0,0
-560,638,0,0,0,0,0,0,0,0,0,-1,664,386,0,0
-553,638,0,0,0,0,0,0,0,0,0,-1,671,386,0,0
-546,638,0,0,0,0,0,0,0,0,0,-1,678,386,0,0
-539,638,0,0,0,0,0,0,0,0,0,-1,685,386,0,0
-532,638,0,0,0,0,0,0,0,0,0,-1,692,386,0,0
-525,638,0,0,0,0,0,0,0,0,0,-1,699,386,0,0
-518,638,0,0,0,0,0,0,0,0,0,-1,706,386,0,0
-511,638,0,0,0,0,0,0,0,0,0,-1,713,386,0,0
-504,638,0,0,0,0,0,0,0,0,0,-1,720,386,0,0
-497,638,0,0,0,0,0,0,0,0,0,-1,727,386,0,0
-490,638,0,0,0,0,0,0,0,0,0,-1,734,386,0,0
-483,638,0,0,0,0,0,0,0,0,0,-1,741,386,0,0
-476,638,0,0,0,0,0,0,0,0,0,-1,748,386,0,0
-469,638,0,0,0,0,0,0,0,0,0,-1,755,386,0,0
-462,638,0,0,0,0,0,0,0,0,0,-1,762,386,0,0
-455,638,0,0,0,0,0,0,0,0,0,-1,769,386,0,0
-448,638,0,0,0,0,0,0,0,0,0,-1,776,386,0,0
-441,638,0,0,0,0,0,0,0,0,0,-1,783,386,0,0
-434,638,0,0,0,0,0,0,0,0,0,-1,790,386,0,0
-427,638,0,0,0,0,0,0,0,0,0,-1,797,386,0,0
-420,638,0,0,0,0,0,0,0,0,0,-1,804,386,0,0
-413,638,0,0,0,0,0,0,0,0,0,-1,811,386,0,0
-406,638,0,0,0,0,0,0,0,0,0,-1,818,386,0,0
-399,638,0,0,0,0,0,0,0,0,0,-1,825,386,0,0
-392,638,0,0,0,0,0,0,0,0,0,-1,832,386,0,0
-385,638,0,0,0,0,0,0,0,0,0,-1,839,386,0,0
-378,638,0,0,0,0,0,0,0,0,0,-1,846,386,0,0
-371,638,0,0,0,0,0,0,0,0,0,-1,853,386,0,0
-364,638,0,0,0,0,0,0,0,0,0,-1,860,386,0,0
-357,638,0,0,0,0,0,0,0,0,0,-1,867,386,0,0
-350,638,0,0,0,0,0,0,0,0,0,-1,874,386,0,0
-343,638,0,0,0,0,0,0,0,0,0,-1,881,386,0,0
-336,638,0,0,0,0,0,0,0,0,0,-1,888,386,0,0
-329,638,0,0,0,0,0,0,0,0,0,-1,895,386,0,0
-322,638,0,0,0,0,0,0,0,0,0,-1,902,386,0,0
-315,638,0,0,0,0,0,0,0,0,0,-1,909,386,0,0
-308,638,0,0,0,0,0,0,0,0,0,-1,916,386,0,0
-301,638,0,0,0,0,0,0,0,0,0,-1,923,386,0,0
-294,638,0,0,0,0,0,0,0,0,0,-1,930,386,0,0
-287,638,0,0,0,0,0,0,0,0,0,-1,937,386,0,0
-280,638,0,0,0,0,0,0,0,0,0,-1,944,386,0,0
-273,638,0,0,0,0,0,0,0,0,0,-1,951,386,0,0
-266,638,7.01324,-34.2201,0,0,0,0,0,0,0,-1,958,386,7.01327,34.2201
-259,638,7.36328,-34.2107,0,0,0,0,0,0,0,-1,965,386,7.36326,34.2107
-252,638,10.8915,-29.4076,0,0,0,0,0,0,0,-1,972,386,10.8916,29.4076
-245,638,3.35309,-26.4681,0,0,0,0,0,0,0,-1,979,386,3.35311,26.4681
-238,638,2.93518,-26.3649,0,0,0,0,0,0,0,-1,986,386,2.93516,26.3649
-231,638,2.36829,-26.0088,0,0,0,0,0,0,0,-1,993,386,2.3683,26.0088
-224,638,6.3465,-30.9124,0,0,0,0,0,0,0,-1,1000,386,6.34648,30.9124
-217,638,7.41205,-32.7263,0,0,0,0,0,0,0,-1,1007,386,7.41204,32.7262
-210,638,8.7038,-34.5688,0,0,0,0,0,0,0,-1,1014,386,8.70378,34.5689
-203,638,4.32593,-27.5803,0,0,0,0,0,0,0,-1,1021,386,4.32594,27.5803
-196,638,6.0614,-28.4651,0,0,0,0,0,0,0,-1,1028,386,6.06143,28.4651
-189,638,11.4561,-30.1556,0,0,0,0,0,0,0,-1,1035,386,11.456,30.1556
-182,638,5.49121,-32.6628,0,0,0,0,0,0,0,-1,1042,386,5.4912,32.6628
-175,638,6.03015,-35.1873,0,0,0,0,0,0,0,-1,1049,386,6.03014,35.1873
-168,638,6.13647,-35.7914,-0.00208647,0.00838294,-0.00274482,0.00905891,-0.00276245,-1.32933,0.00714049,0.0451944,1056,386,6.13642,35.7914
-161,638,6.18713,-36.2122,-0.00184189,0.0074904,-0.00231985,0.00803526,-0.00238676,-1.34011,0.00630486,0.0464507,1063,386,6.18718,36.2122
-154,638,6.24573,-36.4924,-0.00178282,0.00773281,-0.00216923,0.00820398,-0.002254,-1.35691,0.00635532,0.0443966,1070,386,6.24575,36.4924
-147,638,6.04553,-37.0244,0,0,0,0,0,0,0,-1,1077,386,6.04558,37.0244
-140,638,6.03333,-37.1492,-0.00209446,0.00902144,-0.00248433,0.00955141,-0.00262442,-1.36062,0.00739922,0.0323827,1084,386,6.03329,37.1492
-133,638,5.98755,-37.7798,-0.00238478,0.00977048,-0.00266281,0.0103282,-0.00294252,-1.36433,0.00804768,0.0281261,1091,386,5.98757,37.7798
-126,638,5.94727,-38.154,-0.00278467,0.0104214,-0.00271527,0.0109579,-0.00332116,-1.37573,0.00862809,0.020747,1098,386,5.94733,38.154
-119,638,5.87476,-38.5659,-0.00293995,0.0107656,-0.00277549,0.0113063,-0.00348068,-1.37838,0.00892689,0.0184532,1105,386,5.87477,38.5659
-112,638,5.84509,-38.9539,-0.00322125,0.0110524,-0.00269266,0.0115434,-0.00371231,-1.39041,0.00918658,0.0162066,1112,386,5.84505,38.9539
-105,638,5.83044,-39.3011,-0.00362846,0.0112246,-0.00273911,0.0117137,-0.00411749,-1.39412,0.00948436,0.0169008,1119,386,5.83048,39.3012
-98,638,5.7998,-39.6393,-0.00394368,0.0107435,-0.00270182,0.0112247,-0.00442493,-1.39452,0.0093153,0.0167385,1126,386,5.79986,39.6393
-91,638,5.70068,-39.9729,-0.00387941,0.00929481,-0.00220369,0.00965365,-0.00423825,-1.40938,0.00822112,0.0137918,1133,386,5.70064,39.9729
-84,638,5.67786,-40.2938,-0.00369803,0.00741559,-0.00169308,0.0076678,-0.00395024,-1.42292,0.00682118,0.0155373,1140,386,5.67782,40.2938
-77,638,5.6626,-40.6107,-0.003529,0.00626976,-0.00136026,0.00645508,-0.00371433,-1.43539,0.00594197,0.0128529,1147,386,5.66256,40.6107
-70,638,5.6377,-40.9164,-0.00343191,0.00515206,-0.00100399,0.00526792,-0.00354777,-1.4559,0.00512194,0.0123781,1154,386,5.6377,40.9164
-63,638,5.61426,-41.1938,-0.00322356,0.00488626,-0.000914227,0.00498804,-0.00332535,-1.45992,0.00483163,0.0125621,1161,386,5.61429,41.1938
-56,638,5.60864,-41.4548,-0.00295059,0.00457515,-0.000878499,0.00467634,-0.00305178,-1.45612,0.00449458,0.0163867,1168,386,5.60863,41.4548
-49,638,5.59558,-41.7057,-0.00267232,0.00418492,-0.000788977,0.00427452,-0.00276193,-1.45771,0.00409367,0.0140621,1175,386,5.59556,41.7057
-42,638,5.57788,-41.9209,-0.00233426,0.00410503,-0.000635877,0.00416723,-0.00239645,-1.4733,0.00383524,0.0120842,1182,386,5.57783,41.9209
-35,638,5.54236,-42.1554,-0.00194162,0.00401008,-0.000428596,0.00404079,-0.00197233,-1.49928,0.00353948,0.0120753,1189,386,5.54238,42.1554
-28,638,5.53223,-42.367,-0.00163157,0.00376437,-0.000356176,0.00378778,-0.00165498,-1.50517,0.0032218,0.0114378,1196,386,5.53222,42.367
-21,638,5.50378,-42.5601,-0.00124055,0.00348103,-0.000303309,0.00350043,-0.00125996,-1.50691,0.00284807,0.0123384,1203,386,5.50373,42.5601
-14,638,5.49109,-42.754,-0.000888322,0.00312558,-0.000261915,0.0031426,-0.00090534,-1.50591,0.00245318,0.0125714,1210,386,5.49111,42.754
-7,638,5.52148,-42.9634,-0.000639892,0.00273019,-0.000291752,0.00275526,-0.000664963,-1.48507,0.00209399,0.0184229,1217,386,5.52147,42.9634
0,638,5.53955,-43.063,-0.000509154,0.00241026,-0.000351986,0.0024521,-0.000550992,-1.45249,0.00184602,0.0320998,1224,386,5.53954,43.063
7,638,5.48132,-43.1595,-0.00046344,0.00219993,-0.000373524,0.00225133,-0.000514833,-1.43406,0.0016987,0.0254638,1231,386,5.4813,43.1595
14,638,5.45349,-43.2603,-0.000492824,0.00222302,-0.000327295,0.00226191,-0.00053171,-1.45254,0.00171291,0.0144943,1238,386,5.45348,43.2603
21,638,5.4751,-43.3802,-0.000572541,0.00248497,-0.000190664,0.00249681,-0.000584385,-1.50876,0.0018897,0.0120289,1245,386,5.47511,43.3802
28,638,5.48511,-43.4691,-0.000610388,0.0029404,3.53499e-05,0.00294075,-0.00061074,1.56084,0.00219262,0.00935856,1252,386,5.48507,43.469
35,638,5.4679,-43.523,-0.000616722,0.00366796,0.000301548,0.00368908,-0.00063784,1.50088,0.00269726,0.0109767,1259,386,5.46792,43.523
42,638,5.47302,-43.5956,-0.000574839,0.00460017,0.000770254,0.00471238,-0.000687052,1.42613,0.00339387,0.0102374,1266,386,5.47307,43.5956
49,638,5.5072,-43.6238,-0.000432295,0.00577058,0.00131219,0.00603674,-0.000698459,1.37067,0.00427637,0.00884328,1273,386,5.50716,43.6238
56,638,5.49463,-43.6408,-0.000187825,0.00707626,0.00191903,0.00755206,-0.00066363,1.32776,0.00526987,0.0118759,1280,386,5.49468,43.6408
63,638,5.47534,-43.6437,0.000138631,0.00833721,0.00256806,0.00907518,-0.000599342,1.29097,0.00625947,0.0142749,1287,386,5.47531,43.6437
70,638,5.45105,-43.6552,0.000516286,0.00962632,0.00324523,0.0106641,-0.000521525,1.26128,0.00728949,0.0189644,1294,386,5.45099,43.6552
77,638,5.4563,-43.6181,0.00096501,0.01081,0.00388076,0.0121558,-0.000380764,1.23699,0.00823372,0.0188553,1301,386,5.45634,43.6181
84,638,5.52966,-43.5428,0.00144394,0.0117287,0.00435258,0.0133235,-0.000150824,1.21959,0.008933,0.0135601,1308,386,5.52961,43.5428
91,638,5.52954,-43.4767,0.00174257,0.0122129,0.00455907,0.0139198,3.56832e-05,1.21256,0.00926797,0.0147035,1315,386,5.5296,43.4767
98,638,5.49463,-43.4257,0.00194427,0.0124561,0.00480594,0.0143221,7.82725e-05,1.20044,0.00952209,0.0136791,1322,386,5.49465,43.4257
105,638,5.47791,-43.3382,0.00218703,0.0125644,0.00503901,0.0146086,0.000142873,1.18541,0.00969178,0.0106702,1329,386,5.47794,43.3382
112,638,5.47668,-43.1966,0.00238958,0.0126721,0.00509406,0.0147684,0.000293294,1.1804,0.00974927,0.0101715,1336,386,5.47671,43.1966
119,638,5.46375,-43.047,0.00242775,0.0124317,0.00510488,0.0145767,0.00028273,1.17301,0.00962494,0.0120579,1343,386,5.46372,43.047
126,638,5.45276,-42.8886,0.00230106,0.0121355,0.00501327,0.0142405,0.000196036,1.17326,0.00942903,0.0161448,1350,386,5.45279,42.8886
133,638,5.45935,-42.7453,0.00206025,0.0118003,0.00491378,0.0138485,1.2002e-05,1.17586,0.00922836,0.0161277,1357,386,5.45938,42.7453
140,638,5.45508,-42.5856,0.00174472,0.0112851,0.0047876,0.0132733,-0.000243471,1.17719,0.00893115,0.0162524,1364,386,5.45505,42.5856
147,638,5.41711,-42.3985,0.00134608,0.0107672,0.00444791,0.0125353,-0.000422043,1.19243,0.00850104,0.0184707,1371,386,5.4171,42.3985
154,638,5.3938,-42.2147,0.000954111,0.0102701,0.00414171,0.0118451,-0.000620927,1.2074,0.00811164,0.01645,1378,386,5.39375,42.2147
161,638,5.42993,-41.9557,0.000546892,0.00989478,0.00385112,0.011277,-0.000835309,1.22621,0.00781132,0.0191616,1385,386,5.42993,41.9557
168,638,5.44702,-41.6592,8.53568e-05,0.00954248,0.00354346,0.0107228,-0.00109501,1.24925,0.00754011,0.0237159,1392,386,5.44706,41.6592
175,638,5.42871,-41.4353,-0.000388472,0.00909652,0.00328786,0.0101248,-0.0014167,1.2677,0.00726824,0.0196654,1399,386,5.42873,41.4353
182,638,5.36621,-41.2039,-0.000916007,0.00893814,0.00319117,0.0098813,-0.00185916,1.28343,0.00728675,0.0142987,1406,386,5.36623,41.2039
189,638,5.35071,-40.895,-0.00150322,0.00864679,0.00310975,0.00952378,-0.00238021,1.29592,0.00727358,0.0128029,1413,386,5.35076,40.895
196,638,5.3175,-40.6117,-0.00167414,0.00871393,0.00337585,0.0097146,-0.00267481,1.28263,0.0075281,0.0149133,1420,386,5.31756,40.6117
203,638,5.29175,-40.3301,-0.0018014,0.00892654,0.00344354,0.00993675,-0.00281161,1.28544,0.00773397,0.0199308,1427,386,5.29175,40.3301
210,638,5.27319,-39.9998,-0.00206247,0.00884135,0.00323403,0.00972839,-0.00294951,1.3031,0.00766043,0.0165857,1434,386,5.27322,39.9998
217,638,5.229,-39.654,-0.001953,0.00934482,0.00329065,0.0102334,-0.00284156,1.30706,0.00794076,0.0134292,1441,386,5.22905,39.654
224,638,5.19971,-39.2605,-0.00134945,0.0104963,0.00329962,0.0113534,-0.00220654,1.31666,0.00840157,0.0125035,1448,386,5.19975,39.2605
231,638,5.14587,-38.865,-0.00047643,0.0113812,0.00332295,0.012249,-0.00134415,1.31537,0.00864891,0.0128643,1455,386,5.14588,38.865
238,638,5.08936,-38.5009,9.9262e-05,0.0124038,0.00346318,0.0133116,-0.000808498,1.31445,0.00915581,0.0134234,1462,386,5.0893,38.5009
245,638,5.05969,-38.0865,0.000611806,0.013611,0.00354866,0.0145166,-0.00029385,1.32092,0.00977717,0.0155602,1469,386,5.05966,38.0865
252,638,5.06689,-37.6923,0.00119449,0.0148698,0.00365416,0.015785,0.000279313,1.3254,0.0104315,0.0220124,1476,386,5.06686,37.6923
259,638,5.02576,-37.317,0.00193939,0.0162105,0.00384164,0.0171789,0.000970971,1.32386,0.0111431,0.0222366,1483,386,5.02581,37.317
266,638,4.95264,-36.8796,0.00300012,0.0177868,0.00444928,0.0190224,0.00176459,1.29993,0.0121362,0.0135736,1490,386,4.95258,36.8796
273,638,4.9325,-36.4611,0.00389943,0.0194523,0.00510422,0.0209778,0.00237393,1.28038,0.0132649,0.0121304,1497,386,4.93251,36.4611
280,638,5.00476,-35.9291,0.00484571,0.0212966,0.00602116,0.0232649,0.00287742,1.25485,0.0146453,0.0234373,1504,386,5.0048,35.9291
287,638,5.11926,-35.5986,0,0,0,0,0,0,0,-1,1511,386,5.11925,35.5986
294,638,4.78137,-35.0734,0,0,0,0,0,0,0,-1,1518,386,4.78131,35.0734
301,638,4.69226,-34.1536,0,0,0,0,0,0,0,-1,1525,386,4.69226,34.1536
308,638,4.86792,-33.5729,0,0,0,0,0,0,0,-1,1532,386,4.86797,33.5729
315,638,5.57166,-32.9012,0,0,0,0,0,0,0,-1,1539,386,5.5717,32.9012
322,638,3.68872,-32.7613,0,0,0,0,0,0,0,-1,1546,386,3.68878,32.7613
329,638,3.68176,-32.2479,0,0,0,0,0,0,0,-1,1553,386,3.6818,32.2479
336,638,3.91968,-31.5413,0,0,0,0,0,0,0,-1,1560,386,3.91968,31.5413
343,638,4.3252,-31.0667,0,0,0,0,0,0,0,-1,1567,386,4.3252,31.0667
350,638,5.91162,-19.0222,0,0,0,0,0,0,0,-1,1574,386,5.91165,19.0222
357,638,0.387329,-3.01077,0,0,0,0,0,0,0,-1,1581,386,0.387332,3.01077
364,638,3.78149,-6.45215,0,0,0,0,0,0,0,-1,1588,386,3.78155,6.45216
371,638,4.18604,-6.71164,0,0,0,0,0,0,0,-1,1595,386,4.18598,6.71164
378,638,4.59045,-6.97113,0,0,0,0,0,0,0,-1,1602,386,4.5904,6.97112
385,638,0,0,0,0,0,0,0,0,0,-1,1609,386,0,0
392,638,0,0,0,0,0,0,0,0,0,-1,1616,386,0,0
399,638,0,0,0,0,0,0,0,0,0,-1,1623,386,0,0
406,638,0,0,0,0,0,0,0,0,0,-1,1630,386,0,0
413,638,0,0,0,0,0,0,0,0,0,-1,1637,386,0,0
420,638,0,0,0,0,0,0,0,0,0,-1,1644,386,0,0
427,638,0,0,0,0,0,0,0,0,0,-1,1651,386,0,0
434,638,0,0,0,0,0,0,0,0,0,-1,1658,386,0,0
441,638,0,0,0,0,0,0,0,0,0,-1,1665,386,0,0
448,638,0,0,0,0,0,0,0,0,0,-1,1672,386,0,0
455,638,0,0,0,0,0,0,0,0,0,-1,1679,386,0,0
462,638,0,0,0,0,0,0,0,0,0,-1,1686,386,0,0
469,638,0,0,0,0,0,0,0,0,0,-1,1693,386,0,0
476,638,0,0,0,0,0,0,0,0,0,-1,1700,386,0,0
483,638,0,0,0,0,0,0,0,0,0,-1,1707,386,0,0
490,638,0,0,0,0,0,0,0,0,0,-1,1714,386,0,0
497,638,0,0,0,0,0,0,0,0,0,-1,1721,386,0,0
504,638,0,0,0,0,0,0,0,0,0,-1,1728,386,0,0
511,638,0,0,0,0,0,0,0,0,0,-1,1735,386,0,0
518,638,0,0,0,0,0,0,0,0,0,-1,1742,386,0,0
525,638,0,0,0,0,0,0,0,0,0,-1,1749,386,0,0
532,638,0,0,0,0,0,0,0,0,0,-1,1756,386,0,0
539,638,0,0,0,0,0,0,0,0,0,-1,1763,386,0,0
546,638,0,0,0,0,0,0,0,0,0,-1,1770,386,0,0
553,638,0,0,0,0,0,0,0,0,0,-1,1777,386,0,0
560,638,0,0,0,0,0,0,0,0,0,-1,1784,386,0,0
567,638,0,0,0,0,0,0,0,0,0,-1,1791,386,0,0
574,638,0,0,0,0,0,0,0,0,0,-1,1798,386,0,0
581,638,0,0,0,0,0,0,0,0,0,-1,1805,386,0,0
588,638,0,0,0,0,0,0,0,0,0,-1,1812,386,0,0
595,638,0,0,0,0,0,0,0,0,0,-1,1819,386,0,0
602,638,0,0,0,0,0,0,0,0,0,-1,1826,386,0,0
609,638,0,0,0,0,0,0,0,0,0,-1,1833,386,0,0
616,638,0,0,0,0,0,0,0,0,0,-1,1840,386,0,0
623,638,0,0,0,0,0,0,0,0,0,-1,1847,386,0,0
630,638,0,0,0,0,0,0,0,0,0,-1,1854,386,0,0
637,638,0,0,0,0,0,0,0,0,0,-1,1861,386,0,0
644,638,0,0,0,0,0,0,0,0,0,-1,1868,386,0,0
651,638,0,0,0,0,0,0,0,0,0,-1,1875,386,0,0
658,638,0,0,0,0,0,0,0,0,0,-1,1882,386,0,0
665,638,0,0,0,0,0,0,0,0,0,-1,1889,386,0,0
672,638,0,0,0,0,0,0,0,0,0,-1,1896,386,0,0
679,638,0,0,0,0,0,0,0,0,0,-1,1903,386,0,0
686,638,0,0,0,0,0,0,0,0,0,-1,1910,386,0,0
693,638,0,0,0,0,0,0,0,0,0,-1,1917,386,0,0
700,638,0,0,0,0,0,0,0,0,0,-1,1924,386,0,0
707,638,0,0,0,0,0,0,0,0,0,-1,1931,386,0,0
714,638,0,0,0,0,0,0,0,0,0,-1,1938,386,0,0
721,638,0,0,0,0,0,0,0,0,0,-1,1945,386,0,0
728,638,0,0,0,0,0,0,0,0,0,-1,1952,386,0,0
735,638,0,0,0,0,0,0,0,0,0,-1,1959,386,0,0
742,638,0,0,0,0,0,0,0,0,0,-1,1966,386,0,0
749,638,0,0,0,0,0,0,0,0,0,-1,1973,386,0,0
756,638,0,0,0,0,0,0,0,0,0,-1,1980,386,0,0
763,638,0,0,0,0,0,0,0,0,0,-1,1987,386,0,0
770,638,0,0,0,0,0,0,0,0,0,-1,1994,386,0,0
777,638,0,0,0,0,0,0,0,0,0,-1,2001,386,0,0
784,638,0,0,0,0,0,0,0,0,0,-1,2008,386,0,0
791,638,0,0,0,0,0,0,0,0,0,-1,2015,386,0,0
798,638,0,0,0,0,0,0,0,0,0,-1,2022,386,0,0
805,638,0,0,0,0,0,0,0,0,0,-1,2029,386,0,0
812,638,0,0,0,0,0,0,0,0,0,-1,2036,386,0,0
-700,631,0,0,0,0,0,0,0,0,0,-1,524,393,0,0
-693,631,0,0,0,0,0,0,0,0,0,-1,531,393,0,0
-686,631,0,0,0,0,0,0,0,0,0,-1,538,393,0,0
-679,631,0,0,0,0,0,0,0,0,0,-1,545,393,0,0
-672,631,0,0,0,0,0,0,0,0,0,-1,552,393,0,0
-665,631,0,0,0,0,0,0,0,0,0,-1,559,393,0,0
-658,631,0,0,0,0,0,0,0,0,0,-1,566,393,0,0
-651,631,0,0,0,0,0,0,0,0,0,-1,573,393,0,0
-644,631,0,0,0,0,0,0,0,0,0,-1,580,393,0,0
-637,631,0,0,0,0,0,0,0,0,0,-1,587,393,0,0
-630,631,0,0,0,0,0,0,0,0,0,-1,594,393,0,0
-623,631,0,0,0,0,0,0,0,0,0,-1,601,393,0,0
-616,631,0,0,0,0,0,0,0,0,0,-1,608,393,0,0
-609,631,0,0,0,0,0,0,0,0,0,-1,615,393,0,0
-602,631,0,0,0,0,0,0,0,0,0,-1,622,393,0,0
-595,631,0,0,0,0,0,0,0,0,0,-1,629,393,0,0
-588,631,0,0,0,0,0,0,0,0,0,-1,636,393,0,0
-581,631,0,0,0,0,0,0,0,0,0,-1,643,393,0,0
-574,631,0,0,0,0,0,0,0,0,0,-1,650,393,0,0
-567,631,0,0,0,0,0,0,0,0,0,-1,657,393,0,0
-560,631,0,0,0,0,0,0,0,0,0,-1,664,393,0,0
-553,631,0,0,0,0,0,0,0,0,0,-1,671,393,0,0
-546,631,0,0,0,0,0,0,0,0,0,-1,678,393,0,0
-539,631,0,0,0,0,0,0,0,0,0,-1,685,393,0,0
-532,631,0,0,0,0,0,0,0,0,0,-1,692,393,0,0
-525,631,0,0,0,0,0,0,0,0,0,-1,699,393,0,0
-518,631,0,0,0,0,0,0,0,0,0,-1,706,393,0,0
-511,631,0,0,0,0,0,0,0,0,0,-1,713,393,0,0
-504,631,0,0,0,0,0,0,0,0,0,-1,720,393,0,0
-497,631,0,0,0,0,0,0,0,0,0,-1,727,393,0,0
-490,631,0,0,0,0,0,0,0,0,0,-1,734,393,0,0
-483,631,0,0,0,0,0,0,0,0,0,-1,741,393,0,0
-476,631,0,0,0,0,0,0,0,0,0,-1,748,393,0,0
-469,631,0,0,0,0,0,0,0,0,0,-1,755,393,0,0
-462,631,0,0,0,0,0,0,0,0,0,-1,762,393,0,0
-455,631,0,0,0,0,0,0,0,0,0,-1,769,393,0,0
-448,631,0,0,0,0,0,0,0,0,0,-1,776,393,0,0
-441,631,0,0,0,0,0,0,0,0,0,-1,783,393,0,0
-434,631,0,0,0,0,0,0,0,0,0,-1,790,393,0,0
-427,631,0,0,0,0,0,0,0,0,0,-1,797,393,0,0
-420,631,0,0,0,0,0,0,0,0,0,-1,804,393,0,0
-413,631,0,0,0,0,0,0,0,0,0,-1,811,393,0,0
-406,631,0,0,0,0,0,0,0,0,0,-1,818,393,0,0
-399,631,0,0,0,0,0,0,0,0,0,-1,825,393,0,0
-392,631,0,0,0,0,0,0,0,0,0,-1,832,393,0,0
-385,631,0,0,0,0,0,0,0,0,0,-1,839,393,0,0
-378,631,0,0,0,0,0,0,0,0,0,-1,846,393,0,0
-371,631,0,0,0,0,0,0,0,0,0,-1,853,393,0,0
-364,631,0,0,0,0,0,0,0,0,0,-1,860,393,0,0
-357,631,0,0,0,0,0,0,0,0,0,-1,867,393,0,0
-350,631,0,0,0,0,0,0,0,0,0,-1,874,393,0,0
-343,631,0,0,0,0,0,0,0,0,0,-1,881,393,0,0
-336,631,0,0,0,0,0,0,0,0,0,-1,888,393,0,0
-329,631,0,0,0,0,0,0,0,0,0,-1,895,393,0,0
-322,631,0,0,0,0,0,0,0,0,0,-1,902,393,0,0
-315,631,0,0,0,0,0,0,0,0,0,-1,909,393,0,0
-308,631,0,0,0,0,0,0,0,0,0,-1,916,393,0,0
-301,631,0,0,0,0,0,0,0,0,0,-1,923,393,0,0
-294,631,0,0,0,0,0,0,0,0,0,-1,930,393,0,0
-287,631,0,0,0,0,0,0,0,0,0,-1,937,393,0,0
-280,631,9.21893,-33.7639,0,0,0,0,0,0,0,-1,944,393,9.21891,33.7639
-273,631,8.86664,-33.9376,0,0,0,0,0,0,0,-1,951,393,8.86665,33.9376
-266,631,7.19012,-33.3318,0,0,0,0,0,0,0,-1,958,393,7.1901,33.3318
-259,631,7.00208,-33.3918,0,0,0,0,0,0,0,-1,965,393,7.00208,33.3918
-252,631,6.58398,-33.2064,0,0,0,0,0,0,0,-1,972,393,6.58397,33.2064
-245,631,6.05621,-32.6085,0,0,0,0,0,0,0,-1,979,393,6.05623,32.6085
-238,631,3.82007,-31.4595,0,0,0,0,0,0,0,-1,986,393,3.82005,31.4595
-231,631,2.14966,-25.2306,0,0,0,0,0,0,0,-1,993,393,2.14968,25.2306
-224,631,6.83575,-19.7909,0,0,0,0,0,0,0,-1,1000,393,6.83575,19.7909
-217,631,5.05188,-18.3867,0,0,0,0,0,0,0,-1,1007,393,5.0519,18.3866
-210,631,3.37842,-26.3769,0,0,0,0,0,0,0,-1,1014,393,3.37839,26.3769
-203,631,5.05298,-26.4169,0,0,0,0,0,0,0,-1,1021,393,5.05302,26.4169
-196,631,5.9458,-33.2869,0,0,0,0,0,0,0,-1,1028,393,5.94576,33.2869
-189,631,5.77332,-33.4446,0,0,0,0,0,0,0,-1,1035,393,5.77331,33.4446
-182,631,6.13367,-34.4507,0,0,0,0,0,0,0,-1,1042,393,6.13372,34.4507
-175,631,5.99146,-35.1002,-0.0025711,0.0108648,-0.00383863,0.0118842,-0.00359046,-1.31124,0.00935224,0.0481352,1049,393,5.9915,35.1002
-168,631,5.78003,-35.6637,-0.00226472,0.00909802,-0.00315694,0.00991621,-0.0030829,-1.3172,0.00784308,0.0240991,1056,393,5.78002,35.6637
-161,631,5.74744,-36.1458,-0.00193523,0.00793029,-0.0026521,0.00859804,-0.00260298,-1.32414,0.00676863,0.0138211,1063,393,5.74747,36.1458
-154,631,5.70337,-36.6223,-0.00173898,0.00765344,-0.00236068,0.00821339,-0.00229893,-1.3379,0.00638146,0.0140557,1070,393,5.70332,36.6223
-147,631,5.66565,-37.0352,-0.00169881,0.00767797,-0.00225853,0.00819361,-0.00221445,-1.34633,0.006331,0.0138381,1077,393,5.66568,37.0352
-140,631,5.62415,-37.4344,-0.00167435,0.00773208,-0.00230454,0.00826634,-0.00220861,-1.34299,0.00637591,0.0104054,1084,393,5.62411,37.4344
-133,631,5.5769,-37.8385,-0.00175335,0.00790482,-0.00231981,0.00843312,-0.00228165,-1.34688,0.00651715,0.0080872,1091,393,5.57695,37.8385
-126,631,5.56519,-38.2279,-0.00191037,0.00813981,-0.00227491,0.00863076,-0.00240132,-1.35824,0.00669931,0.0126054,1098,393,5.56517,38.2279
-119,631,5.5376,-38.6049,-0.00186348,0.00824315,-0.00226303,0.00872674,-0.00234707,-1.36027,0.00673785,0.0165679,1105,393,5.53762,38.6049
-112,631,5.49707,-38.9793,-0.00193858,0.00833573,-0.00215709,0.00877023,-0.00237308,-1.37203,0.00677778,0.0157871,1112,393,5.49708,38.9793
-105,631,5.53381,-39.3186,-0.00211672,0.00829569,-0.0021616,0.0087266,-0.00254763,-1.37403,0.00682727,0.0206926,1119,393,5.5338,39.3186
-98,631,5.49719,-39.6624,-0.00222233,0.00777894,-0.00211278,0.00820696,-0.00265034,-1.37092,0.00653638,0.0178975,1126,393,5.49717,39.6623
-91,631,5.44189,-39.9695,-0.00208128,0.00667042,-0.00174611,0.00700593,-0.00241679,-1.38096,0.00565119,0.0192686,1133,393,5.44186,39.9695
-84,631,5.40552,-40.2924,-0.0018675,0.0052724,-0.00135494,0.00552088,-0.00211597,-1.38942,0.00455288,0.0180764,1140,393,5.40551,40.2924
-77,631,5.38367,-40.6341,-0.0016544,0.0043736,-0.00108265,0.00456215,-0.00184295,-1.39837,0.00380745,0.0124937,1147,393,5.38369,40.6341
-70,631,5.37244,-40.937,-0.00146574,0.00347679,-0.000788653,0.00359958,-0.00158853,-1.41634,0.00306945,0.0137883,1154,393,5.37246,40.937
-63,631,5.35657,-41.2201,-0.00118119,0.00302642,-0.000615066,0.00311449,-0.00126926,-1.42858,0.00260462,0.0138592,1161,393,5.3566,41.2201
-56,631,5.32666,-41.5087,-0.000869705,0.00254447,-0.000482622,0.00261138,-0.000936616,-1.43303,0.00212314,0.0153637,1168,393,5.32666,41.5087
-49,631,5.34094,-41.7339,-0.000592148,0.00193579,-0.000281429,0.00196675,-0.0006231,-1.46126,0.00156089,0.0123817,1175,393,5.34094,41.7339
-42,631,5.34998,-41.9422,-0.000233596,0.00148336,-4.63034e-05,0.00148461,-0.000234844,-1.54385,0.00107659,0.00938867,1182,393,5.35001,41.9422
-35,631,5.34619,-42.155,0.000120663,0.00101384,0.000155509,0.00104014,9.4362e-05,1.40325,0.000664214,0.0112934,1189,393,5.34624,42.155
-28,631,5.34436,-42.3636,0.000385168,0.000373918,0.000306691,0.000686286,7.28003e-05,0.776228,0.000435291,0.0146757,1196,393,5.34434,42.3635
-21,631,5.32434,-42.5668,0.000680509,-0.000337058,0.000400827,0.000819431,-0.00047598,0.333633,0.000756618,0.0125392,1203,393,5.32438,42.5668
-14,631,5.32117,-42.7533,0.000809149,-0.000989816,0.00044443,0.000912955,-0.00109362,0.229456,0.00116006,0.0143943,1210,393,5.32113,42.7533
-7,631,5.35583,-42.9644,0.000845981,-0.0015782,0.000419081,0.000916385,-0.00164861,0.166442,0.00150088,0.0217232,1217,393,5.35586,42.9644
0,631,5.33093,-43.1247,0.000712299,-0.00194323,0.000368538,0.000762496,-0.00199343,0.135373,0.00164319,0.0235679,1224,393,5.33089,43.1247
7,631,5.30396,-43.2012,0.000402956,-0.00218472,0.000364919,0.000453433,-0.0022352,0.137451,0.00166202,0.0190868,1231,393,5.30394,43.2012
14,631,5.33801,-43.3041,-1.66603e-05,-0.00211443,0.0004716,8.44836e-05,-0.00221557,0.211269,0.001506,0.0111504,1238,393,5.33805,43.3042
21,631,5.38318,-43.3994,-0.000484599,-0.00176207,0.000694516,-0.000179758,-0.00206691,0.413606,0.0013221,0.0137721,1245,393,5.38312,43.3994
28,631,5.39502,-43.4603,-0.000885845,-0.00127026,0.000928179,-0.00013018,-0.00202592,0.683302,0.00130938,0.0156455,1252,393,5.39504,43.4603
35,631,5.44348,-43.512,-0.00124041,-0.000493985,0.00123594,0.000423862,-0.00215826,0.932029,0.00159897,0.0151057,1259,393,5.44346,43.512
42,631,5.48999,-43.5703,-0.00151242,0.000400088,0.00163104,0.00133453,-0.00244686,1.05053,0.00221445,0.0130161,1266,393,5.48995,43.5703
49,631,5.48547,-43.6364,-0.00162905,0.00140197,0.00205362,0.00243874,-0.00266581,1.10328,0.00294808,0.0114216,1273,393,5.48546,43.6364
56,631,5.4895,-43.6829,-0.00159643,0.00240941,0.00245733,0.00357669,-0.00276371,1.12733,0.00367065,0.0132476,1280,393,5.48953,43.6828
63,631,5.48413,-43.7125,-0.00140534,0.00324371,0.00276857,0.00453421,-0.00269584,1.13461,0.00421901,0.0161361,1287,393,5.48418,43.7125
70,631,5.48767,-43.6368,-0.00106492,0.0038636,0.00298044,0.00526658,-0.0024679,1.13084,0.00456191,0.0168455,1294,393,5.48772,43.6368
77,631,5.50818,-43.5994,-0.0006156,0.00433459,0.00303242,0.00577379,-0.0020548,1.12767,0.00468675,0.0167168,1301,393,5.50819,43.5993
84,631,5.55481,-43.5456,-8.00627e-05,0.00436968,0.0028296,0.00574435,-0.00145473,1.11856,0.00439546,0.013494,1308,393,5.55478,43.5456
91,631,5.57129,-43.4847,0.000414458,0.00401586,0.00241759,0.00522967,-0.000799352,1.10549,0.00378117,0.0157161,1315,393,5.57128,43.4847
98,631,5.56946,-43.4322,0.000770657,0.00350483,0.00203582,0.00458999,-0.000314498,1.08107,0.00317003,0.0135122,1322,393,5.56949,43.4322
105,631,5.56836,-43.3542,0.0012054,0.00295829,0.00167674,0.00397384,0.000189862,1.02622,0.00258826,0.0117769,1329,393,5.56835,43.3542
112,631,5.59595,-43.2292,0.00167139,0.00258969,0.00123266,0.00344594,0.000815136,0.963681,0.00207953,0.0125655,1336,393,5.59595,43.2293
119,631,5.58337,-43.0903,0.00198145,0.00207983,0.00080916,0.00284129,0.00121998,0.815757,0.00164587,0.0131779,1343,393,5.58338,43.0903
126,631,5.58105,-42.9282,0.00210977,0.00174698,0.000418369,0.00238437,0.00147237,0.58084,0.00138923,0.0183615,1350,393,5.5811,42.9282
133,631,5.61694,-42.7724,0.00204336,0.0017376,0.00032074,0.00224579,0.00153517,0.563001,0.00132542,0.0189459,1357,393,5.61691,42.7724
140,631,5.64343,-42.6066,0.00190329,0.00176267,0.000318043,0.0021587,0.00150726,0.676614,0.00127856,0.0193282,1364,393,5.64337,42.6066
147,631,5.61328,-42.3962,0.00170773,0.00200647,0.000340934,0.00222932,0.00148488,0.991866,0.00131055,0.0226629,1371,393,5.61327,42.3962
154,631,5.60535,-42.1729,0.0014937,0.00235687,0.000440566,0.00254203,0.00130855,1.17295,0.00146785,0.022009,1378,393,5.6054,42.1729
161,631,5.6792,-41.9299,0.0012532,0.00285713,0.000562188,0.00303455,0.00107577,1.26509,0.00177655,0.0239544,1385,393,5.67917,41.9299
168,631,5.69556,-41.662,0.000944894,0.00338468,0.000703207,0.00357285,0.000756724,1.30933,0.00217401,0.0279442,1392,393,5.69562,41.662
175,631,5.65161,-41.463,0.000600723,0.00387001,0.000877048,0.00409043,0.0003803,1.32457,0.00260944,0.0213112,1399,393,5.65165,41.4629
182,631,5.62036,-41.2247,0.0001977,0.00438748,0.00112401,0.00466998,-8.47939e-05,1.32457,0.00314196,0.0118857,1406,393,5.6204,41.2247
189,631,5.61304,-40.9099,-0.000234693,0.00491663,0.00140116,0.00527308,-0.000591144,1.32168,0.00372809,0.0115493,1413,393,5.61305,40.9099
196,631,5.58557,-40.6236,-0.000455449,0.00536647,0.00172569,0.00583955,-0.000928523,1.30323,0.00423659,0.0120601,1420,393,5.58554,40.6236
203,631,5.58545,-40.3423,-0.000610425,0.00589935,0.00195885,0.00644333,-0.0011544,1.29992,0.00472757,0.0143373,1427,393,5.58543,40.3424
210,631,5.57654,-40.0428,-0.000895973,0.00614201,0.00204616,0.00669366,-0.00144762,1.30746,0.00501511,0.0162059,1434,393,5.57654,40.0428
217,631,5.55933,-39.7089,-0.00096114,0.00672296,0.00220618,0.00731132,-0.00154951,1.31017,0.00546445,0.0172386,1441,393,5.55931,39.7089
224,631,5.53674,-39.3218,-0.000669277,0.0076324,0.00234106,0.00824706,-0.00128394,1.31403,0.0059722,0.0143868,1448,393,5.53672,39.3218
231,631,5.49426,-38.9401,-0.000147766,0.00837663,0.00251453,0.00906309,-0.000834224,1.30429,0.00633846,0.012018,1455,393,5.49425,38.9401
238,631,5.44043,-38.5325,0.000195142,0.00920631,0.0027339,0.00997088,-0.000569425,1.2981,0.00684496,0.0170304,1462,393,5.44045,38.5325
245,631,5.41895,-38.1458,0.000502618,0.0101831,0.00290586,0.0109884,-0.000302666,1.30046,0.00742855,0.0188077,1469,393,5.41898,38.1458
252,631,5.40967,-37.7822,0.000855379,0.0112665,0.0030907,0.0121149,6.99563e-06,1.3029,0.00807428,0.0184279,1476,393,5.40968,37.7822
259,631,5.38074,-37.3722,0.0013379,0.0124244,0.0033526,0.0133593,0.000402911,1.29882,0.00877501,0.0137124,1483,393,5.38073,37.3722
266,631,5.36938,-36.963,0.00208181,0.0137766,0.00395675,0.0149895,0.000868899,1.27335,0.00971631,0.012451,1490,393,5.36936,36.963
273,631,5.34509,-36.5233,0.00268314,0.0151524,0.00456604,0.0166456,0.00118995,1.25474,0.0107225,0.0148586,1497,393,5.34504,36.5233
280,631,5.31458,-36.0359,0.00332882,0.0166406,0.0053658,0.0185342,0.00143528,1.23155,0.0119065,0.0144317,1504,393,5.31457,36.0359
287,631,5.30591,-35.5325,0.0041086,0.018398,0.00646214,0.0208869,0.00161971,1.20316,0.0134173,0.0173309,1511,393,5.30592,35.5325
294,631,5.21777,-34.9645,0.00489727,0.0202172,0.00768224,0.0234058,0.00170864,1.17737,0.0150667,0.0219787,1518,393,5.21774,34.9645
301,631,5.12024,-34.3747,0.00562856,0.0220519,0.00894041,0.0259795,0.00170094,1.15687,0.0167814,0.0304004,1525,393,5.12024,34.3747
308,631,5.21008,-33.8234,0.00652541,0.023989,0.0104235,0.0288547,0.00165963,1.13405,0.0187078,0.0356618,1532,393,5.21008,33.8234
315,631,5.57654,-33.2222,0.00747374,0.0260034,0.0121025,0.0319803,0.0014969,1.11208,0.0208391,0.0447126,1539,393,5.57658,33.2222
322,631,5.29382,-33.0916,0,0,0,0,0,0,0,-1,1546,393,5.2938,33.0916
329,631,4.07495,-32.0003,0,0,0,0,0,0,0,-1,1553,393,4.07495,32.0003
336,631,4.49866,-31.5431,0,0,0,0,0,0,0,-1,1560,393,4.49861,31.543
343,631,4.92224,-31.0858,0,0,0,0,0,0,0,-1,1567,393,4.92227,31.0858
350,631,2.1344,-9.23401,0,0,0,0,0,0,0,-1,1574,393,2.13439,9.23401
357,631,2.6449,-9.60303,0,0,0,0,0,0,0,-1,1581,393,2.64491,9.60304
364,631,3.39136,-5.7594,0,0,0,0,0,0,0,-1,1588,393,3.39137,5.75939
371,631,3.72839,-6.0574,0,0,0,0,0,0,0,-1,1595,393,3.72845,6.05742
378,631,4.06555,-6.35544,0,0,0,0,0,0,0,-1,1602,393,4.06553,6.35544
385,631,3.90442,-3.58298,0,0,0,0,0,0,0,-1,1609,393,3.90437,3.58299
392,631,0.352295,-2.21301,0,0,0,0,0,0,0,-1,1616,393,0.352345,2.213
399,631,0,0,0,0,0,0,0,0,0,-1,1623,393,0,0
406,631,0,0,0,0,0,0,0,0,0,-1,1630,393,0,0
413,631,0,0,0,0,0,0,0,0,0,-1,1637,393,0,0
420,631,0,0,0,0,0,0,0,0,0,-1,1644,393,0,0
427,631,0,0,0,0,0,0,0,0,0,-1,1651,393,0,0
434,631,0,0,0,0,0,0,0,0,0,-1,1658,393,0,0
441,631,0,0,0,0,0,0,0,0,0,-1,1665,393,0,0
448,631,0,0,0,0,0,0,0,0,0,-1,1672,393,0,0
455,631,0,0,0,0,0,0,0,0,0,-1,1679,393,0,0
462,631,0,0,0,0,0,0,0,0,0,-1,1686,393,0,0
469,631,0,0,0,0,0,0,0,0,0,-1,1693,393,0,0
476,631,0,0,0,0,0,0,0,0,0,-1,1700,393,0,0
483,631,0,0,0,0,0,0,0,0,0,-1,1707,393,0,0
490,631,0,0,0,0,0,0,0,0,0,-1,1714,393,0,0
497,631,0,0,0,0,0,0,0,0,0,-1,1721,393,0,0
504,631,0,0,0,0,0,0,0,0,0,-1,1728,393,0,0
511,631,0,0,0,0,0,0,0,0,0,-1,1735,393,0,0
518,631,0,0,0,0,0,0,0,0,0,-1,1742,393,0,0
525,631,0,0,0,0,0,0,0,0,0,-1,1749,393,0,0
532,631,0,0,0,0,0,0,0,0,0,-1,1756,393,0,0
539,631,0,0,0,0,0,0,0,0,0,-1,1763,393,0,0
546,631,0,0,0,0,0,0,0,0,0,-1,1770,393,0,0
553,631,0,0,0,0,0,0,0,0,0,-1,1777,393,0,0
560,631,0,0,0,0,0,0,0,0,0,-1,1784,393,0,0
567,631,0,0,0,0,0,0,0,0,0,-1,1791,393,0,0
574,631,0,0,0,0,0,0,0,0,0,-1,1798,393,0,0
581,631,0,0,0,0,0,0,0,0,0,-1,1805,393,0,0
588,631,0,0,0,0,0,0,0,0,0,-1,1812,393,0,0
595,631,0,0,0,0,0,0,0,0,0,-1,1819,393,0,0
602,631,0,0,0,0,0,0,0,0,0,-1,1826,393,0,0
609,631,0,0,0,0,0,0,0,0,0,-1,1833,393,0,0
616,631,0,0,0,0,0,0,0,0,0,-1,1840,393,0,0
623,631,0,0,0,0,0,0,0,0,0,-1,1847,393,0,0
630,631,0,0,0,0,0,0,0,0,0,-1,1854,393,0,0
637,631,0,0,0,0,0,0,0,0,0,-1,1861,393,0,0
644,631,0,0,0,0,0,0,0,0,0,-1,1868,393,0,0
651,631,0,0,0,0,0,0,0,0,0,-1,1875,393,0,0
658,631,0,0,0,0,0,0,0,0,0,-1,1882,393,0,0
665,631,0,0,0,0,0,0,0,0,0,-1,1889,393,0,0
672,631,0,0,0,0,0,0,0,0,0,-1,1896,393,0,0
679,631,0,0,0,0,0,0,0,0,0,-1,1903,393,0,0
686,631,0,0,0,0,0,0,0,0,0,-1,1910,393,0,0
693,631,0,0,0,0,0,0,0,0,0,-1,1917,393,0,0
700,631,0,0,0,0,0,0,0,0,0,-1,1924,393,0,0
707,631,0,0,0,0,0,0,0,0,0,-1,1931,393,0,0
714,631,0,0,0,0,0,0,0,0,0,-1,1938,393,0,0
721,631,0,0,0,0,0,0,0,0,0,-1,1945,393,0,0
728,631,0,0,0,0,0,0,0,0,0,-1,1952,393,0,0
735,631,0,0,0,0,0,0,0,0,0,-1,1959,393,0,0
742,631,0,0,0,0,0,0,0,0,0,-1,1966,393,0,0
749,631,0,0,0,0,0,0,0,0,0,-1,1973,393,0,0
756,631,0,0,0,0,0,0,0,0,0,-1,1980,393,0,0
763,631,0,0,0,0,0,0,0,0,0,-1,1987,393,0,0
770,631,0,0,0,0,0,0,0,0,0,-1,1994,393,0,0
777,631,0,0,0,0,0,0,0,0,0,-1,2001,393,0,0
784,631,0,0,0,0,0,0,0,0,0,-1,2008,393,0,0
791,631,0,0,0,0,0,0,0,0,0,-1,2015,393,0,0
798,631,0,0,0,0,0,0,0,0,0,-1,2022,393,0,0
805,631,0,0,0,0,0,0,0,0,0,-1,2029,393,0,0
812,631,0,0,0,0,0,0,0,0,0,-1,2036,393,0,0
-700,624,0,0,0,0,0,0,0,0,0,-1,524,400,0,0
-693,624,0,0,0,0,0,0,0,0,0,-1,531,400,0,0
-686,624,0,0,0,0,0,0,0,0,0,-1,538,400,0,0
-679,624,0,0,0,0,0,0,0,0,0,-1,545,400,0,0
-672,624,0,0,0,0,0,0,0,0,0,-1,552,400,0,0
-665,624,0,0,0,0,0,0,0,0,0,-1,559,400,0,0
-658,624,0,0,0,0,0,0,0,0,0,-1,566,400,0,0
-651,624,0,0,0,0,0,0,0,0,0,-1,573,400,0,0
-644,624,0,0,0,0,0,0,0,0,0,-1,580,400,0,0
-637,624,0,0,0,0,0,0,0,0,0,-1,587,400,0,0
-630,624,0,0,0,0,0,0,0,0,0,-1,594,400,0,0
-623,624,0,0,0,0,0,0,0,0,0,-1,601,400,0,0
-616,624,0,0,0,0,0,0,0,0,0,-1,608,400,0,0
-609,624,0,0,0,0,0,0,0,0,0,-1,615,400,0,0
-602,624,0,0,0,0,0,0,0,0,0,-1,622,400,0,0
-595,624,0,0,0,0,0,0,0,0,0,-1,629,400,0,0
-588,624,0,0,0,0,0,0,0,0,0,-1,636,400,0,0
-581,624,0,0,0,0,0,0,0,0,0,-1,643,400,0,0
-574,624,0,0,0,0,0,0,0,0,0,-1,650,400,0,0
-567,624,0,0,0,0,0,0,0,0,0,-1,657,400,0,0
-560,624,0,0,0,0,0,0,0,0,0,-1,664,400,0,0
-553,624,0,0,0,0,0,0,0,0,0,-1,671,400,0,0
-546,624,0,0,0,0,0,0,0,0,0,-1,678,400,0,0
-539,624,0,0,0,0,0,0,0,0,0,-1,685,400,0,0
-532,624,0,0,0,0,0,0,0,0,0,-1,692,400,0,0
-525,624,0,0,0,0,0,0,0,0,0,-1,699,400,0,0
-518,624,0,0,0,0,0,0,0,0,0,-1,706,400,0,0
-511,624,0,0,0,0,0,0,0,0,0,-1,713,400,0,0
-504,624,0,0,0,0,0,0,0,0,0,-1,720,400,0,0
-497,624,0,0,0,0,0,0,0,0,0,-1,727,400,0,0
-490,624,0,0,0,0,0,0,0,0,0,-1,734,400,0,0
-483,624,0,0,0,0,0,0,0,0,0,-1,741,400,0,0
-476,624,0,0,0,0,0,0,0,0,0,-1,748,400,0,0
-469,624,0,0,0,0,0,0,0,0,0,-1,755,400,0,0
-462,624,0,0,0,0,0,0,0,0,0,-1,762,400,0,0
-455,624,0,0,0,0,0,0,0,0,0,-1,769,400,0,0
-448,624,0,0,0,0,0,0,0,0,0,-1,776,400,0,0
-441,624,0,0,0,0,0,0,0,0,0,-1,783,400,0,0
-434,624,0,0,0,0,0,0,0,0,0,-1,790,400,0,0
-427,624,0,0,0,0,0,0,0,0,0,-1,797,400,0,0
-420,624,0,0,0,0,0,0,0,0,0,-1,804,400,0,0
-413,624,0,0,0,0,0,0,0,0,0,-1,811,400,0,0
-406,624,0,0,0,0,0,0,0,0,0,-1,818,400,0,0
-399,624,0,0,0,0,0,0,0,0,0,-1,825,400,0,0
-392,624,0,0,0,0,0,0,0,0,0,-1,832,400,0,0
-385,624,0,0,0,0,0,0,0,0,0,-1,839,400,0,0
-378,624,0,0,0,0,0,0,0,0,0,-1,846,400,0,0
-371,624,0,0,0,0,0,0,0,0,0,-1,853,400,0,0
-364,624,0,0,0,0,0,0,0,0,0,-1,860,400,0,0
-357,624,0,0,0,0,0,0,0,0,0,-1,867,400,0,0
-350,624,0,0,0,0,0,0,0,0,0,-1,874,400,0,0
-343,624,0,0,0,0,0,0,0,0,0,-1,881,400,0,0
-336,624,0,0,0,0,0,0,0,0,0,-1,888,400,0,0
-329,624,0,0,0,0,0,0,0,0,0,-1,895,400,0,0
-322,624,0,0,0,0,0,0,0,0,0,-1,902,400,0,0
-315,624,0,0,0,0,0,0,0,0,0,-1,909,400,0,0
-308,624,0,0,0,0,0,0,0,0,0,-1,916,400,0,0
-301,624,0,0,0,0,0,0,0,0,0,-1,923,400,0,0
-294,624,5.3858,-27.8827,0,0,0,0,0,0,0,-1,930,400,5.38582,27.8827
-287,624,9.57275,-32.1245,0,0,0,0,0,0,0,-1,937,400,9.57274,32.1245
-280,624,8.87891,-32.3514,0,0,0,0,0,0,0,-1,944,400,8.87888,32.3514
-273,624,8.16876,-32.5666,0,0,0,0,0,0,0,-1,951,400,8.16877,32.5666
-266,624,7.40503,-32.6218,0,0,0,0,0,0,0,-1,958,400,7.40504,32.6218
-259,624,6.62573,-32.4805,0,0,0,0,0,0,0,-1,965,400,6.62572,32.4805
-252,624,6.13867,-32.163,0,0,0,0,0,0,0,-1,972,400,6.13866,32.163
-245,624,5.64722,-31.5637,0,0,0,0,0,0,0,-1,979,400,5.64719,31.5637
-238,624,5.21826,-30.8126,0,0,0,0,0,0,0,-1,986,400,5.21827,30.8126
-231,624,3.86121,-29.6032,0,0,0,0,0,0,0,-1,993,400,3.86122,29.6032
-224,624,4.59351,-27.4048,0,0,0,0,0,0,0,-1,1000,400,4.59353,27.4048
-217,624,5.9057,-31.9556,0,0,0,0,0,0,0,-1,1007,400,5.90568,31.9556
-210,624,5.61554,-32.7829,0,0,0,0,0,0,0,-1,1014,400,5.61553,32.7829
-203,624,5.50061,-33.2202,0,0,0,0,0,0,0,-1,1021,400,5.50067,33.2202
-196,624,5.51636,-33.5763,-0.00355217,0.0175384,-0.00621247,0.0192323,-0.00524608,-1.3046,0.0148817,0.0496574,1028,400,5.5163,33.5763
-189,624,5.38745,-33.9252,-0.00315506,0.0151818,-0.00527834,0.0165926,-0.0045659,-1.30961,0.0128569,0.0447028,1035,400,5.38748,33.9252
-182,624,5.43042,-34.5448,-0.00270238,0.0127969,-0.00447004,0.0139936,-0.00389915,-1.3092,0.0108646,0.0372212,1042,400,5.43036,34.5448
-175,624,5.46777,-35.2291,-0.0023117,0.0104549,-0.00376445,0.0114822,-0.00333904,-1.30438,0.00897725,0.0259268,1049,400,5.46775,35.2291
-168,624,5.38855,-35.7249,-0.00201542,0.0087417,-0.00310902,0.00957563,-0.00284934,-1.30874,0.00751578,0.0147587,1056,400,5.38851,35.7248
-161,624,5.34705,-36.1992,-0.00169059,0.00738627,-0.00257961,0.00806816,-0.00237248,-1.31237,0.00631983,0.0118245,1063,400,5.34705,36.1992
-154,624,5.31738,-36.6229,-0.00143626,0.0067367,-0.0022161,0.00729892,-0.00199848,-1.32234,0.00565115,0.0105413,1070,400,5.31735,36.6229
-147,624,5.2926,-37.0514,-0.00129745,0.00630544,-0.00200086,0.00679986,-0.00179186,-1.32855,0.00523379,0.0114721,1077,400,5.29261,37.0514
-140,624,5.24744,-37.4485,-0.00116724,0.00590172,-0.00191663,0.00638794,-0.00165346,-1.32235,0.0049036,0.010467,1084,400,5.24744,37.4485
-133,624,5.20776,-37.8461,-0.00112105,0.00564303,-0.00182755,0.00610522,-0.00158325,-1.32309,0.00468788,0.0109644,1091,400,5.2078,37.8461
-126,624,5.18982,-38.2179,-0.00111998,0.00554261,-0.00172652,0.00596343,-0.0015408,-1.33172,0.00457651,0.0126357,1098,400,5.18988,38.2179
-119,624,5.1676,-38.603,-0.000949378,0.00543395,-0.00166802,0.00584354,-0.00135897,-1.33001,0.00441889,0.0150904,1105,400,5.16756,38.603
-112,624,5.1676,-38.9669,-0.00087653,0.00534906,-0.00155419,0.00571549,-0.00124296,-1.33926,0.00428517,0.0177357,1112,400,5.16763,38.9668
-105,624,5.18958,-39.3255,-0.000866094,0.00514216,-0.00153128,0.00550992,-0.00123385,-1.3351,0.00414622,0.0139922,1119,400,5.18956,39.3255
-98,624,5.15796,-39.6717,-0.000785095,0.0046056,-0.00147025,0.00498052,-0.00116001,-1.32111,0.00376703,0.0143777,1126,400,5.15793,39.6717
-91,624,5.12512,-39.9756,-0.0005483,0.00379619,-0.00121831,0.00411451,-0.000866623,-1.31523,0.00307289,0.0203581,1133,400,5.12507,39.9756
-84,624,5.11975,-40.3055,-0.000250724,0.00286338,-0.000943979,0.00312719,-0.000514525,-1.29829,0.00227577,0.0193681,1140,400,5.11977,40.3055
-77,624,5.1272,-40.6453,6.41862e-05,0.00227527,-0.000734442,0.002497,-0.000157535,-1.27761,0.00171958,0.0147922,1147,400,5.12714,40.6453
-70,624,5.13977,-40.9132,0.000412539,0.00172397,-0.00051263,0.00190057,0.000235937,-1.23903,0.00119618,0.0154416,1154,400,5.1398,40.9132
-63,624,5.13464,-41.1902,0.000838955,0.00122015,-0.000274687,0.00136389,0.000695217,-1.0887,0.000787491,0.01656,1161,400,5.13468,41.1902
-56,624,5.0824,-41.4804,0.001215,0.000541647,-5.28474e-05,0.00121913,0.000537525,-0.0778482,0.0007055,0.0135592,1168,400,5.08235,41.4804
-49,624,5.09766,-41.739,0.00149515,-0.000346228,0.000269366,0.00153374,-0.000384823,0.142313,0.00117202,0.010414,1175,400,5.09762,41.739
-42,624,5.11353,-41.9525,0.00188568,-0.00120323,0.000593462,0.00199577,-0.00131333,0.183429,0.00192401,0.00909933,1182,400,5.11358,41.9525
-35,624,5.13025,-42.1656,0.00229384,-0.00222241,0.000841122,0.00244541,-0.00237398,0.178283,0.00278258,0.0148661,1189,400,5.13024,42.1656
-28,624,5.12927,-42.3976,0.00253185,-0.00313421,0.000972565,0.00269414,-0.0032965,0.165345,0.00346452,0.0203838,1196,400,5.12922,42.3976
-21,624,5.13452,-42.5884,0.00288838,-0.00413185,0.000989744,0.00302525,-0.00426872,0.137417,0.00423152,0.0149589,1203,400,5.13448,42.5884
-14,624,5.16479,-42.7488,0.00282627,-0.00492104,0.000974863,0.00294705,-0.00504182,0.123273,0.00466493,0.0154123,1210,400,5.16475,42.7488
-7,624,5.18579,-42.883,0.00253876,-0.005532,0.000889002,0.00263553,-0.00562877,0.108419,0.00487459,0.0192753,1217,400,5.18573,42.883
0,624,5.21338,-43.0367,0.00202625,-0.00573753,0.000759019,0.00209976,-0.00581104,0.096546,0.00473188,0.0203497,1224,400,5.21336,43.0367
7,624,5.20715,-43.1739,0.0011939,-0.00575087,0.00075956,0.00127601,-0.00583298,0.107675,0.00437644,0.0143596,1231,400,5.20716,43.1739
14,624,5.25037,-43.3099,0.000281682,-0.00543691,0.000967228,0.000440846,-0.00559608,0.163096,0.00388601,0.0116617,1238,400,5.25042,43.3099
21,624,5.2854,-43.3919,-0.000602102,-0.0048708,0.00129874,-0.000238016,-0.00523489,0.273322,0.00341335,0.0141833,1245,400,5.28537,43.3919
28,624,5.29626,-43.4775,-0.00145353,-0.00420675,0.00163303,-0.000694286,-0.00496599,0.435197,0.00310521,0.0135392,1252,400,5.29629,43.4775
35,624,5.34558,-43.5223,-0.00223724,-0.00333912,0.0020543,-0.00066128,-0.00491508,0.654387,0.00308005,0.0163778,1259,400,5.34552,43.5223
42,624,5.43457,-43.582,-0.00288956,-0.00241721,0.0025426,-9.98417e-05,-0.00520693,0.831709,0.00343849,0.0178912,1266,400,5.43457,43.582
49,624,5.47217,-43.6342,-0.00333627,-0.00151756,0.00301429,0.000721558,-0.00557538,0.931897,0.00397931,0.0188718,1273,400,5.47221,43.6342
56,624,5.47778,-43.6896,-0.00357182,-0.000724581,0.00341298,0.00154979,-0.00584619,0.982987,0.00450383,0.0203138,1280,400,5.47777,43.6896
63,624,5.51294,-43.6758,-0.00353698,-0.000233652,0.00362537,0.00209856,-0.00586919,0.999142,0.0047688,0.0164075,1287,400,5.51291,43.6757
70,624,5.52161,-43.6782,-0.00323293,-6.29419e-05,0.00364548,0.00232721,-0.00562308,0.990462,0.00471974,0.0143869,1294,400,5.52167,43.6782
77,624,5.53918,-43.6264,-0.0027142,-3.62896e-05,0.00357132,0.00243883,-0.00518932,0.964748,0.00449853,0.0149546,1301,400,5.53921,43.6264
84,624,5.57788,-43.5656,-0.00199925,-0.000405963,0.00321451,0.00210915,-0.00451436,0.906864,0.00390722,0.0129609,1308,400,5.57783,43.5655
91,624,5.61292,-43.5081,-0.00115416,-0.00107012,0.00261977,0.00150797,-0.00373225,0.793417,0.00311497,0.0133036,1315,400,5.6129,43.5081
98,624,5.64648,-43.4554,-0.000320095,-0.0018705,0.00199929,0.00104902,-0.00323962,0.600453,0.00258147,0.0130093,1322,400,5.64655,43.4554
105,624,5.6864,-43.3958,0.000652,-0.00274055,0.00136557,0.00113337,-0.00322192,0.338903,0.00260912,0.0141463,1329,400,5.68642,43.3958
112,624,5.72388,-43.2773,0.00177171,-0.00346189,0.000561926,0.00183136,-0.00352154,0.105763,0.00314143,0.0148556,1336,400,5.72391,43.2773
119,624,5.72534,-43.1533,0.00261738,-0.00425767,-0.000338327,0.00263399,-0.00427428,-0.0490529,0.00402579,0.0153353,1343,400,5.7253,43.1533
126,624,5.7179,-42.9864,0.00312493,-0.00477674,-0.00115583,0.00329053,-0.00494234,-0.142306,0.00478503,0.0199358,1350,400,5.71791,42.9864
133,624,5.79382,-42.7729,0.0033517,-0.00476305,-0.00151852,0.00362655,-0.0050379,-0.179061,0.0050245,0.0207977,1357,400,5.79378,42.7729
140,624,5.81396,-42.5891,0.00339044,-0.00455014,-0.00168121,0.00373173,-0.00489142,-0.200277,0.00499356,0.0185983,1364,400,5.814,42.5891
147,624,5.79492,-42.3621,0.0032889,-0.00406962,-0.00172934,0.00367505,-0.00445577,-0.219691,0.00470154,0.0216777,1371,400,5.79491,42.3621
154,624,5.83325,-42.1644,0.00304869,-0.00332839,-0.00154524,0.00340339,-0.0036831,-0.225636,0.00409245,0.0250255,1378,400,5.83328,42.1644
161,624,5.88855,-41.9797,0.00278487,-0.00239888,-0.00134335,0.00311231,-0.00272632,-0.239088,0.00337339,0.0238553,1385,400,5.88853,41.9797
168,624,5.94543,-41.7338,0.00245742,-0.00137844,-0.00108702,0.00274405,-0.00166507,-0.257812,0.00257089,0.0230399,1392,400,5.94546,41.7338
175,624,5.9353,-41.5122,0.00208891,-0.000404212,-0.000791869,0.00231916,-0.000634463,-0.282966,0.00179536,0.017655,1399,400,5.93524,41.5122
182,624,5.91077,-41.247,0.00163761,0.00043605,-0.00051634,0.00182901,0.000244654,-0.354976,0.00114652,0.0104857,1406,400,5.91077,41.247
189,624,5.89441,-40.9408,0.00114349,0.00136305,-0.000193279,0.00147555,0.00103099,-1.04368,0.000874049,0.0103421,1413,400,5.89443,40.9408
196,624,5.86682,-40.6396,0.000868467,0.00219163,0.000193028,0.00221922,0.000840882,1.42885,0.00129373,0.0113118,1420,400,5.86683,40.6396
203,624,5.8833,-40.3385,0.000668066,0.00305965,0.000562248,0.00318524,0.00054248,1.35104,0.00196775,0.0148758,1427,400,5.88333,40.3385
210,624,5.90369,-40.0416,0.000314102,0.00361443,0.000882166,0.00383543,9.31007e-05,1.32533,0.00252649,0.018548,1434,400,5.90372,40.0416
217,624,5.87561,-39.6794,5.01367e-05,0.00430705,0.00115958,0.00460242,-0.000245237,1.32138,0.00315321,0.0207781,1441,400,5.87562,39.6794
224,624,5.86108,-39.3102,5.4987e-05,0.00514989,0.00143157,0.00552459,-0.000319703,1.31481,0.00379412,0.0165324,1448,400,5.86103,39.3101
231,624,5.85754,-38.9706,0.000261841,0.00587373,0.00174146,0.00637021,-0.000234637,1.29307,0.00432714,0.0121173,1455,400,5.85753,38.9707
238,624,5.83252,-38.5915,0.000419644,0.00663035,0.00203628,0.00723844,-0.000188444,1.2806,0.00488965,0.0170405,1462,400,5.83256,38.5915
245,624,5.79504,-38.2108,0.000588873,0.00747937,0.00226915,0.0081595,-9.12612e-05,1.27959,0.00547034,0.0177751,1469,400,5.79509,38.2108
252,624,5.76965,-37.8144,0.000787312,0.00843426,0.00249754,0.0091777,4.3876e-05,1.28148,0.00610389,0.0132221,1476,400,5.76961,37.8144
259,624,5.77283,-37.3992,0.00106668,0.00942975,0.00278516,0.0102724,0.000224038,1.277,0.00677482,0.010071,1483,400,5.77283,37.3992
266,624,5.7738,-36.9727,0.00155008,0.0105638,0.00332746,0.0116591,0.000454821,1.25281,0.00762562,0.0139353,1490,400,5.77384,36.9727
273,624,5.75159,-36.5376,0.00192729,0.011701,0.00386028,0.0130418,0.00058654,1.23651,0.00850573,0.0159598,1497,400,5.75165,36.5376
280,624,5.68616,-36.1073,0.00234576,0.0129093,0.00453197,0.0145871,0.000667946,1.21623,0.00950994,0.014363,1504,400,5.68615,36.1073
287,624,5.66614,-35.6547,0.00286556,0.0143119,0.00542131,0.016472,0.000705508,1.19164,0.0107539,0.0117876,1511,400,5.66616,35.6547
294,624,5.62476,-35.1805,0.00334892,0.0157187,0.00636441,0.0184084,0.000659207,1.17095,0.0120586,0.0108152,1518,400,5.6247,35.1805
301,624,5.56726,-34.6421,0.00373942,0.0170798,0.0073056,0.0203022,0.000517026,1.15538,0.0133658,0.0114737,1525,400,5.56728,34.6421
308,624,5.53235,-34.1094,0.00421009,0.0184686,0.00838251,0.0223436,0.00033513,1.13779,0.0147853,0.0145634,1532,400,5.53239,34.1094
315,624,5.56909,-33.592,0.00468814,0.0198966,0.00955051,0.0245005,8.43257e-05,1.12161,0.0163056,0.0202708,1539,400,5.56903,33.592
322,624,5.60474,-33.1292,0.00502369,0.0208876,0.0107433,0.0263098,-0.000398513,1.10339,0.0176742,0.037956,1546,400,5.60476,33.1292
329,624,5.61194,-32.655,0,0,0,0,0,0,0,-1,1553,400,5.61191,32.655
336,624,5.41797,-31.7584,0,0,0,0,0,0,0,-1,1560,400,5.41801,31.7584
343,624,5.63049,-31.3419,0,0,0,0,0,0,0,-1,1567,400,5.63044,31.3419
350,624,1.99194,-7.29742,0,0,0,0,0,0,0,-1,1574,400,1.99198,7.29741
357,624,2.64075,-3.13092,0,0,0,0,0,0,0,-1,1581,400,2.64076,3.13091
364,624,3.16565,-4.9458,0,0,0,0,0,0,0,-1,1588,400,3.16564,4.94579
371,624,3.37561,-5.23529,0,0,0,0,0,0,0,-1,1595,400,3.37563,5.23529
378,624,1.50439,-5.22165,0,0,0,0,0,0,0,-1,1602,400,1.50438,5.22164
385,624,1.2301,-10.5866,0,0,0,0,0,0,0,-1,1609,400,1.2301,10.5866
392,624,4.26819,-5.14236,0,0,0,0,0,0,0,-1,1616,400,4.26818,5.14236
399,624,2.22168,-9.19293,0,0,0,0,0,0,0,-1,1623,400,2.22173,9.19294
406,624,2.68213,-9.91171,0,0,0,0,0,0,0,-1,1630,400,2.68213,9.91171
413,624,0,0,0,0,0,0,0,0,0,-1,1637,400,0,0
420,624,0,0,0,0,0,0,0,0,0,-1,1644,400,0,0
427,624,0,0,0,0,0,0,0,0,0,-1,1651,400,0,0
434,624,0,0,0,0,0,0,0,0,0,-1,1658,400,0,0
441,624,0,0,0,0,0,0,0,0,0,-1,1665,400,0,0
448,624,0,0,0,0,0,0,0,0,0,-1,1672,400,0,0
455,624,0,0,0,0,0,0,0,0,0,-1,1679,400,0,0
462,624,0,0,0,0,0,0,0,0,0,-1,1686,400,0,0
469,624,0,0,0,0,0,0,0,0,0,-1,1693,400,0,0
476,624,0,0,0,0,0,0,0,0,0,-1,1700,400,0,0
483,624,0,0,0,0,0,0,0,0,0,-1,1707,400,0,0
490,624,0,0,0,0,0,0,0,0,0,-1,1714,400,0,0
497,624,0,0,0,0,0,0,0,0,0,-1,1721,400,0,0
504,624,0,0,0,0,0,0,0,0,0,-1,1728,400,0,0
511,624,0,0,0,0,0,0,0,0,0,-1,1735,400,0,0
518,624,0,0,0,0,0,0,0,0,0,-1,1742,400,0,0
525,624,0,0,0,0,0,0,0,0,0,-1,1749,400,0,0
532,624,0,0,0,0,0,0,0,0,0,-1,1756,400,0,0
539,624,0,0,0,0,0,0,0,0,0,-1,1763,400,0,0
546,624,0,0,0,0,0,0,0,0,0,-1,1770,400,0,0
553,624,0,0,0,0,0,0,0,0,0,-1,1777,400,0,0
560,624,0,0,0,0,0,0,0,0,0,-1,1784,400,0,0
567,624,0,0,0,0,0,0,0,0,0,-1,1791,400,0,0
574,624,0,0,0,0,0,0,0,0,0,-1,1798,400,0,0
581,624,0,0,0,0,0,0,0,0,0,-1,1805,400,0,0
588,624,0,0,0,0,0,0,0,0,0,-1,1812,400,0,0
595,624,0,0,0,0,0,0,0,0,0,-1,1819,400,0,0
602,624,0,0,0,0,0,0,0,0,0,-1,1826,400,0,0
609,624,0,0,0,0,0,0,0,0,0,-1,1833,400,0,0
616,624,0,0,0,0,0,0,0,0,0,-1,1840,400,0,0
623,624,0,0,0,0,0,0,0,0,0,-1,1847,400,0,0
630,624,0,0,0,0,0,0,0,0,0,-1,1854,400,0,0
637,624,0,0,0,0,0,0,0,0,0,-1,1861,400,0,0
644,624,0,0,0,0,0,0,0,0,0,-1,1868,400,0,0
651,624,0,0,0,0,0,0,0,0,0,-1,1875,400,0,0
658,624,0,0,0,0,0,0,0,0,0,-1,1882,400,0,0
665,624,0,0,0,0,0,0,0,0,0,-1,1889,400,0,0
672,624,0,0,0,0,0,0,0,0,0,-1,1896,400,0,0
679,624,0,0,0,0,0,0,0,0,0,-1,1903,400,0,0
686,624,0,0,0,0,0,0,0,0,0,-1,1910,400,0,0
693,624,0,0,0,0,0,0,0,0,0,-1,1917,400,0,0
700,624,0,0,0,0,0,0,0,0,0,-1,1924,400,0,0
707,624,0,0,0,0,0,0,0,0,0,-1,1931,400,0,0
714,624,0,0,0,0,0,0,0,0,0,-1,1938,400,0,0
721,624,0,0,0,0,0,0,0,0,0,-1,1945,400,0,0
728,624,0,0,0,0,0,0,0,0,0,-1,1952,400,0,0
735,624,0,0,0,0,0,0,0,0,0,-1,1959,400,0,0
742,624,0,0,0,0,0,0,0,0,0,-1,1966,400,0,0
749,624,0,0,0,0,0,0,0,0,0,-1,1973,400,0,0
756,624,0,0,0,0,0,0,0,0,0,-1,1980,400,0,0
763,624,0,0,0,0,0,0,0,0,0,-1,1987,400,0,0
770,624,0,0,0,0,0,0,0,0,0,-1,1994,400,0,0
777,624,0,0,0,0,0,0,0,0,0,-1,2001,400,0,0
784,624,0,0,0,0,0,0,0,0,0,-1,2008,400,0,0
791,624,0,0,0,0,0,0,0,0,0,-1,2015,400,0,0
798,624,0,0,0,0,0,0,0,0,0,-1,2022,400,0,0
805,624,0,0,0,0,0,0,0,0,0,-1,2029,400,0,0
812,624,0,0,0,0,0,0,0,0,0,-1,2036,400,0,0
-700,617,0,0,0,0,0,0,0,0,0,-1,524,407,0,0
-693,617,0,0,0,0,0,0,0,0,0,-1,531,407,0,0
-686,617,0,0,0,0,0,0,0,0,0,-1,538,407,0,0
-679,617,0,0,0,0,0,0,0,0,0,-1,545,407,0,0
-672,617,0,0,0,0,0,0,0,0,0,-1,552,407,0,0
-665,617,0,0,0,0,0,0,0,0,0,-1,559,407,0,0
-658,617,0,0,0,0,0,0,0,0,0,-1,566,407,0,0
-651,617,0,0,0,0,0,0,0,0,0,-1,573,407,0,0
-644,617,0,0,0,0,0,0,0,0,0,-1,580,407,0,0
-637,617,0,0,0,0,0,0,0,0,0,-1,587,407,0,0
-630,617,0,0,0,0,0,0,0,0,0,-1,594,407,0,0
-623,617,0,0,0,0,0,0,0,0,0,-1,601,407,0,0
-616,617,0,0,0,0,0,0,0,0,0,-1,608,407,0,0
-609,617,0,0,0,0,0,0,0,0,0,-1,615,407,0,0
-602,617,0,0,0,0,0,0,0,0,0,-1,622,407,0,0
-595,617,0,0,0,0,0,0,0,0,0,-1,629,407,0,0
-588,617,0,0,0,0,0,0,0,0,0,-1,636,407,0,0
-581,617,0,0,0,0,0,0,0,0,0,-1,643,407,0,0
-574,617,0,0,0,0,0,0,0,0,0,-1,650,407,0,0
-567,617,0,0,0,0,0,0,0,0,0,-1,657,407,0,0
-560,617,0,0,0,0,0,0,0,0,0,-1,664,407,0,0
-553,617,0,0,0,0,0,0,0,0,0,-1,671,407,0,0
-546,617,0,0,0,0,0,0,0,0,0,-1,678,407,0,0
-539,617,0,0,0,0,0,0,0,0,0,-1,685,407,0,0
-532,617,0,0,0,0,0,0,0,0,0,-1,692,407,0,0
-525,617,0,0,0,0,0,0,0,0,0,-1,699,407,0,0
-518,617,0,0,0,0,0,0,0,0,0,-1,706,407,0,0
-511,617,0,0,0,0,0,0,0,0,0,-1,713,407,0,0
-504,617,0,0,0,0,0,0,0,0,0,-1,720,407,0,0
-497,617,0,0,0,0,0,0,0,0,0,-1,727,407,0,0
-490,617,0,0,0,0,0,0,0,0,0,-1,734,407,0,0
-483,617,0,0,0,0,0,0,0,0,0,-1,741,407,0,0
-476,617,0,0,0,0,0,0,0,0,0,-1,748,407,0,0
-469,617,0,0,0,0,0,0,0,0,0,-1,755,407,0,0
-462,617,0,0,0,0,0,0,0,0,0,-1,762,407,0,0
-455,617,0,0,0,0,0,0,0,0,0,-1,769,407,0,0
-448,617,0,0,0,0,0,0,0,0,0,-1,776,407,0,0
-441,617,0,0,0,0,0,0,0,0,0,-1,783,407,0,0
-434,617,0,0,0,0,0,0,0,0,0,-1,790,407,0,0
-427,617,0,0,0,0,0,0,0,0,0,-1,797,407,0,0
-420,617,0,0,0,0,0,0,0,0,0,-1,804,407,0,0
-413,617,0,0,0,0,0,0,0,0,0,-1,811,407,0,0
-406,617,0,0,0,0,0,0,0,0,0,-1,818,407,0,0
-399,617,0,0,0,0,0,0,0,0,0,-1,825,407,0,0
-392,617,0,0,0,0,0,0,0,0,0,-1,832,407,0,0
-385,617,0,0,0,0,0,0,0,0,0,-1,839,407,0,0
-378,617,0,0,0,0,0,0,0,0,0,-1,846,407,0,0
-371,617,0,0,0,0,0,0,0,0,0,-1,853,407,0,0
-364,617,0,0,0,0,0,0,0,0,0,-1,860,407,0,0
-357,617,0,0,0,0,0,0,0,0,0,-1,867,407,0,0
-350,617,0,0,0,0,0,0,0,0,0,-1,874,407,0,0
-343,617,0,0,0,0,0,0,0,0,0,-1,881,407,0,0
-336,617,0,0,0,0,0,0,0,0,0,-1,888,407,0,0
-329,617,0,0,0,0,0,0,0,0,0,-1,895,407,0,0
-322,617,0,0,0,0,0,0,0,0,0,-1,902,407,0,0
-315,617,0,0,0,0,0,0,0,0,0,-1,909,407,0,0
-308,617,0,0,0,0,0,0,0,0,0,-1,916,407,0,0
-301,617,4.52472,-26.171,0,0,0,0,0,0,0,-1,923,407,4.52473,26.171
-294,617,4.45184,-26.2752,0,0,0,0,0,0,0,-1,930,407,4.45182,26.2752
-287,617,8.84521,-30.6885,0,0,0,0,0,0,0,-1,937,407,8.84519,30.6885
-280,617,8.10901,-31.0072,0,0,0,0,0,0,0,-1,944,407,8.10901,31.0072
-273,617,7.39093,-31.255,0,0,0,0,0,0,0,-1,951,407,7.39094,31.255
-266,617,6.75977,-31.3191,0,0,0,0,0,0,0,-1,958,407,6.7598,31.3191
-259,617,5.26624,-31.0608,0,0,0,0,0,0,0,-1,965,407,5.26625,31.0608
-252,617,5.53662,-31.1853,0,0,0,0,0,0,0,-1,972,407,5.5366,31.1853
-245,617,5.48785,-30.4176,0,0,0,0,0,0,0,-1,979,407,5.48783,30.4176
-238,617,5.00104,-31.0432,0,0,0,0,0,0,0,-1,986,407,5.00101,31.0432
-231,617,5.138,-30.5764,0,0,0,0,0,0,0,-1,993,407,5.13801,30.5763
-224,617,5.17188,-31.3967,0,0,0,0,0,0,0,-1,1000,407,5.17185,31.3967
-217,617,5.31812,-32.0988,-0.00357637,0.0237929,-0.00939991,0.0267103,-0.00649377,-1.26986,0.0203203,0.048513,1007,407,5.3181,32.0988
-210,617,5.20642,-32.8611,-0.00326464,0.0207073,-0.00804827,0.0231587,-0.00571606,-1.27513,0.0176557,0.0338017,1014,407,5.20641,32.8611
-203,617,5.13342,-33.3917,-0.00301318,0.0173117,-0.00646731,0.019195,-0.00489654,-1.28742,0.0147032,0.0231282,1021,407,5.13342,33.3917
-196,617,5.0769,-33.8492,-0.0028094,0.0148143,-0.00548946,0.0163843,-0.00437941,-1.29223,0.0126382,0.0198117,1028,407,5.07685,33.8492
-189,617,5.01416,-34.3139,-0.00250872,0.0129717,-0.00474072,0.0143082,-0.00384514,-1.29602,0.0110459,0.0186186,1035,407,5.01421,34.3139
-182,617,5.03821,-34.8205,-0.00212565,0.011051,-0.00404501,0.0121937,-0.0032683,-1.29548,0.00940969,0.0206114,1042,407,5.03823,34.8205
-175,617,5.01196,-35.2615,-0.00175814,0.00891055,-0.0033744,0.00988824,-0.00273583,-1.28878,0.00766854,0.0180688,1049,407,5.01198,35.2616
-168,617,4.9707,-35.7566,-0.00150482,0.0071294,-0.00270907,0.007909,-0.00228443,-1.29059,0.0061766,0.0128882,1056,407,4.97068,35.7565
-161,617,4.92676,-36.2233,-0.00122059,0.00559977,-0.00214306,0.00621725,-0.00183807,-1.29027,0.00487444,0.0121008,1063,407,4.9267,36.2233
-154,617,4.89709,-36.6364,-0.0009634,0.00462331,-0.00171131,0.00510584,-0.00144593,-1.29597,0.00397453,0.0118083,1070,407,4.89709,36.6364
-147,617,4.87878,-37.0361,-0.00078826,0.00379028,-0.00139696,0.00418284,-0.00118083,-1.29685,0.00325438,0.0166817,1077,407,4.87872,37.0361
-140,617,4.87756,-37.4735,-0.000620513,0.00299438,-0.00120245,0.00335782,-0.000983955,-1.27728,0.00262865,0.013495,1084,407,4.87761,37.4735
-133,617,4.85486,-37.8534,-0.000516725,0.00238057,-0.00103533,0.00271251,-0.000848665,-1.26054,0.00214786,0.014887,1091,407,4.85491,37.8534
-126,617,4.82471,-38.1952,-0.000424768,0.00200025,-0.000900502,0.00229806,-0.000722584,-1.2514,0.00182133,0.0139197,1098,407,4.82472,38.1952
-119,617,4.81445,-38.6059,-0.000190725,0.0017143,-0.000819064,0.00201803,-0.000494456,-1.21569,0.00153692,0.0142649,1105,407,4.8144,38.6059
-112,617,4.80481,-38.9483,-1.82099e-05,0.00150239,-0.000721772,0.00179043,-0.000306247,-1.19109,0.00130771,0.0158846,1112,407,4.80482,38.9483
-105,617,4.80188,-39.2843,0.000141616,0.0012201,-0.000700803,0.00156511,-0.000203397,-1.11332,0.0011174,0.0167529,1119,407,4.80188,39.2843
-98,617,4.79236,-39.663,0.000378397,0.000750429,-0.000648392,0.00123896,-0.000110134,-0.925091,0.000865025,0.0135265,1126,407,4.79237,39.663
-91,617,4.79053,-39.9795,0.00070993,0.000293023,-0.000533368,0.00107413,-7.11793e-05,-0.599112,0.000740955,0.0184579,1133,407,4.79054,39.9795
-84,617,4.81213,-40.3147,0.00110841,-4.96978e-05,-0.000408574,0.00123804,-0.00017933,-0.307234,0.000891173,0.0191545,1140,407,4.8121,40.3147
-77,617,4.83057,-40.6436,0.00158807,-0.000116169,-0.000291888,0.00163668,-0.000164775,-0.165008,0.00114998,0.0158311,1147,407,4.83062,40.6436
-70,617,4.87073,-40.9235,0.00222812,-6.94927e-05,-0.000190424,0.0022438,-8.51678e-05,-0.082132,0.00152505,0.0163868,1154,407,4.87078,40.9235
-63,617,4.90466,-41.1941,0.00284106,-0.000541667,0.000101975,0.00284413,-0.000544738,0.0301093,0.00210134,0.0180284,1161,407,4.9047,41.1941
-56,617,4.8512,-41.463,0.00330792,-0.00142824,0.000397726,0.00334109,-0.00146141,0.0832,0.00284263,0.0133413,1168,407,4.85117,41.463
-49,617,4.85571,-41.733,0.00359244,-0.00266061,0.000845771,0.00370481,-0.00277299,0.132096,0.00375284,0.0100048,1175,407,4.85568,41.733
-42,617,4.87463,-41.9859,0.00375056,-0.00355248,0.00130394,0.00397639,-0.00377831,0.17149,0.00447766,0.0106124,1182,407,4.87459,41.9859
-35,617,4.92615,-42.1892,0.00388158,-0.0046007,0.00160277,0.00417432,-0.00489345,0.18066,0.00524076,0.0162615,1189,407,4.92616,42.1892
-28,617,4.93787,-42.385,0.00371652,-0.00515319,0.00162831,0.004006,-0.00544267,0.175941,0.00547618,0.0196392,1196,407,4.93784,42.385
-21,617,4.98035,-42.568,0.00383163,-0.00579614,0.00151292,0.00406378,-0.00602829,0.152254,0.00586334,0.0142799,1203,407,4.9803,42.568
-14,617,5.01648,-42.7335,0.00331916,-0.00625478,0.00150214,0.00354931,-0.00648493,0.152034,0.00587533,0.0148234,1210,407,5.01652,42.7335
-7,617,5.02551,-42.847,0.0025289,-0.00652457,0.00135154,0.00272636,-0.00672203,0.145072,0.00561527,0.0172737,1217,407,5.02556,42.847
0,617,5.07764,-42.9762,0.00143164,-0.00636669,0.00107429,0.00157692,-0.00651198,0.134424,0.00495138,0.015999,1224,407,5.07764,42.9762
7,617,5.1283,-43.1846,-0.000108677,-0.00610161,0.000923563,3.04235e-05,-0.00624071,0.149489,0.00417065,0.0115513,1231,407,5.12832,43.1846
14,617,5.14307,-43.3084,-0.00142619,-0.00571498,0.00112485,-0.00114907,-0.0059921,0.241548,0.00367213,0.012978,1238,407,5.14303,43.3084
21,617,5.19824,-43.3795,-0.00259715,-0.00516783,0.00153922,-0.00187717,-0.0058878,0.437519,0.00347291,0.0128516,1245,407,5.19829,43.3795
28,617,5.24939,-43.4972,-0.00375193,-0.00461098,0.00195717,-0.00217771,-0.0061852,0.67738,0.00362274,0.0118371,1252,407,5.24934,43.4972
35,617,5.25281,-43.5769,-0.00479928,-0.00394709,0.00250581,-0.0018314,-0.00691496,0.869614,0.00413692,0.0141548,1259,407,5.25285,43.5769
42,617,5.39795,-43.5777,-0.00564399,-0.00321688,0.00315411,-0.00105092,-0.00780995,0.969046,0.00489408,0.0208695,1266,407,5.39796,43.5777
49,617,5.47058,-43.6068,-0.00623953,-0.00250449,0.00383336,-0.000107936,-0.00863608,1.01207,0.00572175,0.0203218,1273,407,5.4706,43.6067
56,617,5.44067,-43.6385,-0.0065639,-0.00185578,0.00448123,0.000852076,-0.00927176,1.02725,0.00648389,0.0156281,1280,407,5.44071,43.6385
63,617,5.48389,-43.666,-0.00648654,-0.00156661,0.00493341,0.00148614,-0.00953929,1.01668,0.0069084,0.0114345,1287,407,5.48393,43.666
70,617,5.52344,-43.6916,-0.00605618,-0.00152885,0.0051691,0.00185052,-0.00943555,0.99178,0.00698934,0.0155834,1294,407,5.52347,43.6915
77,617,5.58618,-43.6268,-0.00535715,-0.00162804,0.0053192,0.00214394,-0.00912913,0.953973,0.00691246,0.013865,1301,407,5.58615,43.6268
84,617,5.64026,-43.5547,-0.00437544,-0.0021913,0.00509279,0.0019252,-0.00849193,0.891016,0.00640028,0.0107394,1308,407,5.64024,43.5546
91,617,5.68787,-43.5076,-0.00316336,-0.00307416,0.0044689,0.00135036,-0.00758788,0.790388,0.0055636,0.0107205,1315,407,5.68784,43.5076
98,617,5.75391,-43.4473,-0.00184618,-0.00420376,0.0037346,0.000891255,-0.00694119,0.632526,0.00495136,0.0114504,1322,407,5.75389,43.4473
105,617,5.81042,-43.3652,-0.000180869,-0.00557202,0.00293536,0.00110884,-0.00686173,0.413978,0.00498537,0.012874,1329,407,5.81042,43.3652
112,617,5.84302,-43.2478,0.00188241,-0.00691554,0.00185667,0.00225819,-0.00729131,0.199693,0.00576301,0.015881,1336,407,5.84298,43.2478
119,617,5.84888,-43.1159,0.00329127,-0.00827377,0.000329265,0.00330063,-0.00828313,0.02844,0.00689103,0.0192662,1343,407,5.84894,43.1159
126,617,5.86328,-42.9759,0.00428603,-0.0094438,-0.00129843,0.00440774,-0.00956552,-0.0934662,0.00824863,0.0226837,1350,407,5.86333,42.9759
133,617,5.92163,-42.7747,0.00497885,-0.00986513,-0.00226707,0.00531737,-0.0102037,-0.148226,0.00910788,0.0202066,1357,407,5.9216,42.7748
140,617,5.99231,-42.5863,0.00535839,-0.00992771,-0.0028869,0.00588543,-0.0104548,-0.180575,0.00955617,0.015873,1364,407,5.99226,42.5863
147,617,5.99597,-42.3547,0.00531485,-0.00948023,-0.00317337,0.00596677,-0.0101322,-0.202617,0.00939785,0.0183906,1371,407,5.99602,42.3547
154,617,6.01294,-42.1656,0.0049722,-0.00854174,-0.00300647,0.00561087,-0.00918041,-0.20932,0.00862224,0.022773,1378,407,6.01289,42.1656
161,617,6.07092,-42.0089,0.00462928,-0.0073458,-0.00282579,0.0052626,-0.00797911,-0.220476,0.00769854,0.0244057,1385,407,6.07095,42.0089
168,617,6.15613,-41.8185,0.00422994,-0.00595191,-0.00255032,0.00483301,-0.00655499,-0.232205,0.00659987,0.0221575,1392,407,6.15607,41.8185
175,617,6.16382,-41.573,0.00378692,-0.00460986,-0.00221823,0.0043369,-0.00515984,-0.243036,0.0054898,0.01794,1399,407,6.16386,41.573
182,617,6.18396,-41.2664,0.00326793,-0.00343606,-0.00193501,0.00378635,-0.00395449,-0.26177,0.00446953,0.0117935,1406,407,6.18398,41.2664
189,617,6.18433,-40.9581,0.00268838,-0.00209431,-0.00159323,0.00317052,-0.00257645,-0.293856,0.00332392,0.0114101,1413,407,6.18428,40.9581
196,617,6.17139,-40.6628,0.00234155,-0.000887477,-0.00116053,0.00271537,-0.0012613,-0.311621,0.00234654,0.0147639,1420,407,6.17144,40.6628
203,617,6.17627,-40.3638,0.00204481,0.000313284,-0.000726691,0.00230937,4.8726e-05,-0.349143,0.0015236,0.0158691,1427,407,6.17624,40.3638
210,617,6.19617,-40.0357,0.00155914,0.00121338,-0.000275993,0.00171193,0.00106059,-0.505594,0.000997753,0.0155594,1434,407,6.19623,40.0357
217,617,6.20239,-39.6754,0.00109127,0.00204075,0.000127254,0.00205751,0.00107451,1.43985,0.00118829,0.0203489,1441,407,6.20236,39.6754
224,617,6.22229,-39.3399,0.000849174,0.00293979,0.000551221,0.00307623,0.000712741,1.32816,0.00185934,0.0199391,1448,407,6.22224,39.3399
231,617,6.23096,-38.9952,0.000784529,0.00370736,0.000994287,0.00401352,0.000478363,1.27209,0.00253134,0.0147166,1455,407,6.23095,38.9952
238,617,6.22205,-38.629,0.000797746,0.00445806,0.00136823,0.00491297,0.000342835,1.24981,0.00316723,0.0151347,1462,407,6.22206,38.629
245,617,6.19727,-38.2482,0.000880859,0.00521722,0.00164936,0.00577326,0.000324817,1.24564,0.00374526,0.0125262,1469,407,6.19731,38.2482
252,617,6.17798,-37.8494,0.000977503,0.00605952,0.00190583,0.00669481,0.000342204,1.24904,0.00435363,0.0133944,1476,407,6.17792,37.8494
259,617,6.16711,-37.4025,0.00109427,0.00689166,0.00219658,0.00762991,0.000356018,1.24656,0.00497219,0.0120291,1483,407,6.16706,37.4025
266,617,6.14587,-36.9561,0.00135755,0.00780334,0.00264982,0.00875281,0.000408084,1.22674,0.00570404,0.014619,1490,407,6.14585,36.9561
273,617,6.1311,-36.5285,0.0015667,0.0087342,0.00310021,0.00988908,0.000411822,1.21421,0.00645982,0.0138456,1497,407,6.13113,36.5285
280,617,6.09875,-36.1181,0.00181928,0.00971803,0.00365647,0.0111508,0.000386527,1.19734,0.00730842,0.0124193,1504,407,6.09878,36.1181
287,617,6.08289,-35.6426,0.00215897,0.0108492,0.00437471,0.01267,0.000338206,1.1764,0.00833619,0.0128144,1511,407,6.08283,35.6426
294,617,6.06201,-35.179,0.00244584,0.0119749,0.00511383,0.0141998,0.000220948,1.16042,0.00939376,0.0104312,1518,407,6.06196,35.179
301,617,6.01843,-34.7143,0.00262936,0.0130423,0.00583727,0.0156576,1.39931e-05,1.14957,0.0104338,0.00802221,1525,407,6.0184,34.7143
308,617,5.97559,-34.2263,0.00285082,0.0141075,0.00664677,0.0171888,-0.000230476,1.13671,0.0115368,0.00817241,1532,407,5.97557,34.2263
315,617,5.96008,-33.7555,0.00305728,0.0152065,0.00748725,0.0187735,-0.00050967,1.1262,0.012689,0.0102612,1539,407,5.96011,33.7555
322,617,5.92761,-33.2375,0.00311653,0.0159607,0.0083054,0.0200373,-0.000960094,1.1145,0.0136895,0.0147625,1546,407,5.92757,33.2376
329,617,5.90918,-32.7063,0.00299901,0.0166943,0.00909584,0.0212319,-0.00153862,1.10805,0.0146944,0.0183365,1553,407,5.90924,32.7063
336,617,5.95483,-32.0504,0.00257975,0.0173532,0.00970304,0.0221612,-0.00222832,1.11074,0.0155702,0.0336836,1560,407,5.95488,32.0504
343,617,5.71338,-31.6575,0,0,0,0,0,0,0,-1,1567,407,5.71338,31.6575
350,617,5.62793,-31.1241,0,0,0,0,0,0,0,-1,1574,407,5.62794,31.1242
357,617,2.1748,-7.16504,0,0,0,0,0,0,0,-1,1581,407,2.1748,7.16505
364,617,2.30127,-7.60257,0,0,0,0,0,0,0,-1,1588,407,2.30125,7.60258
371,617,2.60266,-6.20667,0,0,0,0,0,0,0,-1,1595,407,2.60261,6.20668
378,617,1.56921,-10.3601,0,0,0,0,0,0,0,-1,1602,407,1.56918,10.3601
385,617,1.74146,-10.3561,0,0,0,0,0,0,0,-1,1609,407,1.7414,10.3561
392,617,1.96936,-5.10449,0,0,0,0,0,0,0,-1,1616,407,1.96931,5.10451
399,617,2.48889,-5.81256,0,0,0,0,0,0,0,-1,1623,407,2.48888,5.81255
406,617,3.01465,-6.51642,0,0,0,0,0,0,0,-1,1630,407,3.01461,6.51643
413,617,3.6427,-7.2074,0,0,0,0,0,0,0,-1,1637,407,3.64274,7.20739
420,617,3.42737,-4.47391,0,0,0,0,0,0,0,-1,1644,407,3.42737,4.47391
427,617,0,0,0,0,0,0,0,0,0,-1,1651,407,0,0
434,617,0,0,0,0,0,0,0,0,0,-1,1658,407,0,0
441,617,0,0,0,0,0,0,0,0,0,-1,1665,407,0,0
448,617,0,0,0,0,0,0,0,0,0,-1,1672,407,0,0
455,617,0,0,0,0,0,0,0,0,0,-1,1679,407,0,0
462,617,0,0,0,0,0,0,0,0,0,-1,1686,407,0,0
469,617,0,0,0,0,0,0,0,0,0,-1,1693,407,0,0
476,617,0,0,0,0,0,0,0,0,0,-1,1700,407,0,0
483,617,0,0,0,0,0,0,0,0,0,-1,1707,407,0,0
490,617,0,0,0,0,0,0,0,0,0,-1,1714,407,0,0
497,617,0,0,0,0,0,0,0,0,0,-1,1721,407,0,0
504,617,0,0,0,0,0,0,0,0,0,-1,1728,407,0,0
511,617,0,0,0,0,0,0,0,0,0,-1,1735,407,0,0
518,617,0,0,0,0,0,0,0,0,0,-1,1742,407,0,0
525,617,0,0,0,0,0,0,0,0,0,-1,1749,407,0,0
532,617,0,0,0,0,0,0,0,0,0,-1,1756,407,0,0
539,617,0,0,0,0,0,0,0,0,0,-1,1763,407,0,0
546,617,0,0,0,0,0,0,0,0,0,-1,1770,407,0,0
553,617,0,0,0,0,0,0,0,0,0,-1,1777,407,0,0
560,617,0,0,0,0,0,0,0,0,0,-1,1784,407,0,0
567,617,0,0,0,0,0,0,0,0,0,-1,1791,407,0,0
574,617,0,0,0,0,0,0,0,0,0,-1,1798,407,0,0
581,617,0,0,0,0,0,0,0,0,0,-1,1805,407,0,0
588,617,0,0,0,0,0,0,0,0,0,-1,1812,407,0,0
595,617,0,0,0,0,0,0,0,0,0,-1,1819,407,0,0
602,617,0,0,0,0,0,0,0,0,0,-1,1826,407,0,0
609,617,0,0,0,0,0,0,0,0,0,-1,1833,407,0,0
616,617,0,0,0,0,0,0,0,0,0,-1,1840,407,0,0
623,617,0,0,0,0,0,0,0,0,0,-1,1847,407,0,0
630,617,0,0,0,0,0,0,0,0,0,-1,1854,407,0,0
637,617,0,0,0,0,0,0,0,0,0,-1,1861,407,0,0
644,617,0,0,0,0,0,0,0,0,0,-1,1868,407,0,0
651,617,0,0,0,0,0,0,0,0,0,-1,1875,407,0,0
658,617,0,0,0,0,0,0,0,0,0,-1,1882,407,0,0
665,617,0,0,0,0,0,0,0,0,0,-1,1889,407,0,0
672,617,0,0,0,0,0,0,0,0,0,-1,1896,407,0,0
679,617,0,0,0,0,0,0,0,0,0,-1,1903,407,0,0
686,617,0,0,0,0,0,0,0,0,0,-1,1910,407,0,0
693,617,0,0,0,0,0,0,0,0,0,-1,1917,407,0,0
700,617,0,0,0,0,0,0,0,0,0,-1,1924,407,0,0
707,617,0,0,0,0,0,0,0,0,0,-1,1931,407,0,0
714,617,0,0,0,0,0,0,0,0,0,-1,1938,407,0,0
721,617,0,0,0,0,0,0,0,0,0,-1,1945,407,0,0
728,617,0,0,0,0,0,0,0,0,0,-1,1952,407,0,0
735,617,0,0,0,0,0,0,0,0,0,-1,1959,407,0,0
742,617,0,0,0,0,0,0,0,0,0,-1,1966,407,0,0
749,617,0,0,0,0,0,0,0,0,0,-1,1973,407,0,0
756,617,0,0,0,0,0,0,0,0,0,-1,1980,407,0,0
763,617,0,0,0,0,0,0,0,0,0,-1,1987,407,0,0
770,617,0,0,0,0,0,0,0,0,0,-1,1994,407,0,0
777,617,0,0,0,0,0,0,0,0,0,-1,2001,407,0,0
784,617,0,0,0,0,0,0,0,0,0,-1,2008,407,0,0
791,617,0,0,0,0,0,0,0,0,0,-1,2015,407,0,0
798,617,0,0,0,0,0,0,0,0,0,-1,2022,407,0,0
805,617,0,0,0,0,0,0,0,0,0,-1,2029,407,0,0
812,617,0,0,0,0,0,0,0,0,0,-1,2036,407,0,0
-700,610,0,0,0,0,0,0,0,0,0,-1,524,414,0,0
-693,610,0,0,0,0,0,0,0,0,0,-1,531,414,0,0
-686,610,0,0,0,0,0,0,0,0,0,-1,538,414,0,0
-679,610,0,0,0,0,0,0,0,0,0,-1,545,414,0,0
-672,610,0,0,0,0,0,0,0,0,0,-1,552,414,0,0
-665,610,0,0,0,0,0,0,0,0,0,-1,559,414,0,0
-658,610,0,0,0,0,0,0,0,0,0,-1,566,414,0,0
-651,610,0,0,0,0,0,0,0,0,0,-1,573,414,0,0
-644,610,0,0,0,0,0,0,0,0,0,-1,580,414,0,0
-637,610,0,0,0,0,0,0,0,0,0,-1,587,414,0,0
-630,610,0,0,0,0,0,0,0,0,0,-1,594,414,0,0
-623,610,0,0,0,0,0,0,0,0,0,-1,601,414,0,0
-616,610,0,0,0,0,0,0,0,0,0,-1,608,414,0,0
-609,610,0,0,0,0,0,0,0,0,0,-1,615,414,0,0
-602,610,0,0,0,0,0,0,0,0,0,-1,622,414,0,0
-595,610,0,0,0,0,0,0,0,0,0,-1,629,414,0,0
-588,610,0,0,0,0,0,0,0,0,0,-1,636,414,0,0
-581,610,0,0,0,0,0,0,0,0,0,-1,643,414,0,0
-574,610,0,0,0,0,0,0,0,0,0,-1,650,414,0,0
-567,610,0,0,0,0,0,0,0,0,0,-1,657,414,0,0
-560,610,0,0,0,0,0,0,0,0,0,-1,664,414,0,0
-553,610,0,0,0,0,0,0,0,0,0,-1,671,414,0,0
-546,610,0,0,0,0,0,0,0,0,0,-1,678,414,0,0
-539,610,0,0,0,0,0,0,0,0,0,-1,685,414,0,0
-532,610,0,0,0,0,0,0,0,0,0,-1,692,414,0,0
-525,610,0,0,0,0,0,0,0,0,0,-1,699,414,0,0
-518,610,0,0,0,0,0,0,0,0,0,-1,706,414,0,0
-511,610,0,0,0,0,0,0,0,0,0,-1,713,414,0,0
-504,610,0,0,0,0,0,0,0,0,0,-1,720,414,0,0
-497,610,0,0,0,0,0,0,0,0,0,-1,727,414,0,0
-490,610,0,0,0,0,0,0,0,0,0,-1,734,414,0,0
-483,610,0,0,0,0,0,0,0,0,0,-1,741,414,0,0
-476,610,0,0,0,0,0,0,0,0,0,-1,748,414,0,0
-469,610,0,0,0,0,0,0,0,0,0,-1,755,414,0,0
-462,610,0,0,0,0,0,0,0,0,0,-1,762,414,0,0
-455,610,0,0,0,0,0,0,0,0,0,-1,769,414,0,0
-448,610,0,0,0,0,0,0,0,0,0,-1,776,414,0,0
-441,610,0,0,0,0,0,0,0,0,0,-1,783,414,0,0
-434,610,0,0,0,0,0,0,0,0,0,-1,790,414,0,0
-427,610,0,0,0,0,0,0,0,0,0,-1,797,414,0,0
-420,610,0,0,0,0,0,0,0,0,0,-1,804,414,0,0
-413,610,0,0,0,0,0,0,0,0,0,-1,811,414,0,0
-406,610,0,0,0,0,0,0,0,0,0,-1,818,414,0,0
-399,610,0,0,0,0,0,0,0,0,0,-1,825,414,0,0
-392,610,0,0,0,0,0,0,0,0,0,-1,832,414,0,0
-385,610,0,0,0,0,0,0,0,0,0,-1,839,414,0,0
-378,610,0,0,0,0,0,0,0,0,0,-1,846,414,0,0
-371,610,0,0,0,0,0,0,0,0,0,-1,853,414,0,0
-364,610,0,0,0,0,0,0,0,0,0,-1,860,414,0,0
-357,610,0,0,0,0,0,0,0,0,0,-1,867,414,0,0
-350,610,0,0,0,0,0,0,0,0,0,-1,874,414,0,0
-343,610,0,0,0,0,0,0,0,0,0,-1,881,414,0,0
-336,610,0,0,0,0,0,0,0,0,0,-1,888,414,0,0
-329,610,0,0,0,0,0,0,0,0,0,-1,895,414,0,0
-322,610,0,0,0,0,0,0,0,0,0,-1,902,414,0,0
-315,610,7.68475,-21.5402,0,0,0,0,0,0,0,-1,909,414,7.68475,21.5402
-308,610,3.97211,-23.4133,0,0,0,0,0,0,0,-1,916,414,3.9721,23.4133
-301,610,4.01996,-23.7828,0,0,0,0,0,0,0,-1,923,414,4.01993,23.7828
-294,610,3.85504,-23.923,0,0,0,0,0,0,0,-1,930,414,3.85503,23.923
-287,610,3.32306,-24.1302,0,0,0,0,0,0,0,-1,937,414,3.32303,24.1302
-280,610,7.33197,-29.594,0,0,0,0,0,0,0,-1,944,414,7.33196,29.594
-273,610,6.60138,-29.8605,0,0,0,0,0,0,0,-1,951,414,6.60136,29.8605
-266,610,5.22656,-29.0848,0,0,0,0,0,0,0,-1,958,414,5.22656,29.0848
-259,610,4.79376,-29.8324,0,0,0,0,0,0,0,-1,965,414,4.79379,29.8324
-252,610,4.48627,-29.6798,0,0,0,0,0,0,0,-1,972,414,4.48626,29.6798
-245,610,4.87335,-30.2553,-0.00102772,0.02257,-0.0125133,0.0279699,-0.0064276,-1.16341,0.0211177,0.047626,979,414,4.87336,30.2553
-238,610,4.79547,-30.9053,-0.00154108,0.022252,-0.0110066,0.0265626,-0.00585172,-1.19752,0.0199472,0.0465897,986,414,4.79548,30.9053
-231,610,4.72693,-30.9492,-0.00181939,0.0215698,-0.00963136,0.0250253,-0.00527494,-1.22632,0.0186916,0.0417699,993,414,4.72693,30.9491
-224,610,4.75385,-31.6798,-0.0022418,0.0206042,-0.00844294,0.0233857,-0.00502332,-1.25255,0.0175068,0.0313061,1000,414,4.75383,31.6798
-217,610,4.79028,-32.324,-0.00245099,0.0187325,-0.00758991,0.0211712,-0.00488966,-1.25991,0.0159951,0.0205452,1007,414,4.79026,32.324
-210,610,4.75476,-32.9302,-0.0022646,0.01645,-0.00655994,0.0185203,-0.00433498,-1.26508,0.0140171,0.0133298,1014,414,4.75473,32.9302
-203,610,4.71973,-33.4453,-0.00212047,0.0138268,-0.00531339,0.0154349,-0.00372865,-1.2769,0.011732,0.0149103,1021,414,4.71978,33.4453
-196,610,4.6748,-33.9197,-0.00195826,0.0118093,-0.004487,0.0131425,-0.00329152,-1.28197,0.0100404,0.015086,1028,414,4.67485,33.9197
-189,610,4.64026,-34.3983,-0.00171496,0.0101803,-0.0038231,0.011303,-0.00283772,-1.28515,0.00863805,0.0122553,1035,414,4.6403,34.3983
-182,610,4.62,-34.8645,-0.00141211,0.00842144,-0.00318001,0.00936018,-0.00235085,-1.28375,0.00715368,0.0129579,1042,414,4.61996,34.8645
-175,610,4.59558,-35.3008,-0.00113001,0.00631437,-0.0025141,0.00708388,-0.00189953,-1.27377,0.00546689,0.0142348,1049,414,4.59559,35.3008
-168,610,4.53149,-35.7677,-0.000935023,0.00446322,-0.00185251,0.00503779,-0.00150959,-1.27005,0.00395886,0.0126436,1056,414,4.53148,35.7677
-161,610,4.50525,-36.2467,-0.000710351,0.00280915,-0.00127695,0.00322364,-0.00112484,-1.25693,0.00260625,0.0116058,1063,414,4.50528,36.2467
-154,610,4.51135,-36.6575,-0.000477325,0.0015971,-0.000818569,0.00188119,-0.000761425,-1.23674,0.00157071,0.0143075,1070,414,4.51135,36.6575
-147,610,4.49756,-37.0257,-0.00029398,0.000461694,-0.000451644,0.000672706,-0.000504992,-1.13372,0.000682238,0.0162829,1077,414,4.49751,37.0257
-140,610,4.49805,-37.4604,-0.000120177,-0.000631574,-0.000193054,-5.54823e-05,-0.000696268,-0.323349,0.000446834,0.013735,1084,414,4.49806,37.4604
-133,610,4.49133,-37.8385,8.08466e-06,-0.00151114,9.90617e-06,8.14931e-06,-0.0015112,0.00652019,0.00101019,0.0150767,1091,414,4.49138,37.8385
-126,610,4.46765,-38.1932,0.000164803,-0.00210128,0.000148458,0.000174488,-0.00211097,0.0651421,0.00146893,0.0127517,1098,414,4.46763,38.1932
-119,610,4.48022,-38.59,0.000443732,-0.00252978,0.000214151,0.000459076,-0.00254513,0.0715277,0.00186867,0.0111938,1105,414,4.48025,38.59
-112,610,4.44275,-38.92,0.000692377,-0.00283901,0.000254273,0.000710592,-0.00285722,0.0715122,0.00218062,0.0197774,1112,414,4.44279,38.92
-105,610,4.39612,-39.2687,0.000983164,-0.0031313,0.000235098,0.000996554,-0.00314469,0.0568925,0.00249587,0.0196294,1119,414,4.39609,39.2687
-98,610,4.44153,-39.6358,0.00135775,-0.00345698,0.000250917,0.00137079,-0.00347002,0.051927,0.00288111,0.0133777,1126,414,4.44147,39.6358
-91,610,4.46863,-39.972,0.00178689,-0.00353698,0.000216568,0.00179569,-0.00354578,0.0405892,0.00313859,0.0143716,1133,414,4.46859,39.972
-84,610,4.48877,-40.293,0.00229337,-0.00326354,0.000187276,0.00229968,-0.00326985,0.0336504,0.00323179,0.0159373,1140,414,4.48881,40.293
-77,610,4.5061,-40.6606,0.00296108,-0.00273337,0.000211104,0.0029689,-0.00274119,0.0370042,0.00329759,0.0133304,1147,414,4.50613,40.6606
-70,610,4.578,-40.9529,0.00394958,-0.00194767,0.00017982,0.00395506,-0.00195314,0.0304544,0.00347576,0.0159129,1154,414,4.57806,40.9529
-63,610,4.58606,-41.2111,0.0048035,-0.00222175,0.000519593,0.00484172,-0.00225997,0.0734283,0.00418951,0.0144597,1161,414,4.5861,41.211
-56,610,4.60559,-41.4483,0.0054015,-0.00327517,0.000891428,0.00549213,-0.00336581,0.101328,0.00516302,0.0130253,1168,414,4.60561,41.4483
-49,610,4.61951,-41.7005,0.00569172,-0.00489822,0.00150568,0.00590163,-0.00510814,0.138524,0.00636199,0.0133111,1175,414,4.61952,41.7005
-42,610,4.62939,-41.9554,0.005318,-0.00504748,0.0021411,0.00574285,-0.00547233,0.195883,0.00647572,0.0149544,1182,414,4.62943,41.9554
-35,610,4.6748,-42.1756,0.00503854,-0.00530797,0.00256927,0.00564142,-0.00591085,0.23048,0.00667031,0.0152157,1189,414,4.6748,42.1756
-28,610,4.73718,-42.3603,0.00425371,-0.00487208,0.00228451,0.00479366,-0.00541203,0.232092,0.00589586,0.0134667,1196,414,4.73718,42.3603
-21,610,4.79321,-42.5302,0.00390391,-0.00442757,0.00194507,0.00433564,-0.0048593,0.218418,0.00531157,0.0113051,1203,414,4.79325,42.5302
-14,610,4.83813,-42.694,0.00293186,-0.00429328,0.00192615,0.00341327,-0.0047747,0.244919,0.00474906,0.0117404,1210,414,4.83808,42.694
-7,610,4.88843,-42.825,0.00174004,-0.00416905,0.00166931,0.00217901,-0.00460802,0.257143,0.00400127,0.0135769,1217,414,4.88839,42.825
0,610,4.93628,-42.9883,0.000242513,-0.00376854,0.00120183,0.00057505,-0.00410107,0.269938,0.00294451,0.0119606,1224,414,4.93631,42.9883
7,610,4.98682,-43.1541,-0.00169053,-0.00342034,0.00081687,-0.00136575,-0.00374512,0.378421,0.00218848,0.0132788,1231,414,4.98686,43.1541
14,610,5.10547,-43.2302,-0.00344865,-0.00303962,0.000977284,-0.00224568,-0.00424259,0.888543,0.00245086,0.0170864,1238,414,5.1055,43.2301
21,610,5.17004,-43.275,-0.00500169,-0.00278303,0.00146916,-0.00205143,-0.0057333,1.10877,0.00335444,0.0168171,1245,414,5.17004,43.275
28,610,5.14648,-43.4143,-0.00643857,-0.0025104,0.00201253,-0.00166239,-0.00728658,1.17201,0.00440932,0.0173885,1252,414,5.14649,43.4143
35,610,5.27527,-43.4918,-0.0078104,-0.00218887,0.00275492,-0.0010639,-0.00893537,1.18311,0.00563585,0.0200263,1259,414,5.27526,43.4918
42,610,5.34985,-43.4993,-0.00896656,-0.00175325,0.00365965,-0.000221714,-0.0104981,1.17445,0.00692601,0.0181903,1266,414,5.34987,43.4993
49,610,5.42041,-43.58,-0.00985192,-0.00127172,0.00466682,0.000777273,-0.0119009,1.15708,0.00820532,0.0174768,1273,414,5.42041,43.5801
56,610,5.43445,-43.5776,-0.0104043,-0.000784506,0.00569236,0.00185798,-0.0130468,1.13618,0.00937875,0.0172266,1280,414,5.43445,43.5776
63,610,5.43359,-43.5474,-0.0104654,-0.000686336,0.00651125,0.00256686,-0.0137186,1.10745,0.0101105,0.0235885,1287,414,5.43358,43.5474
70,610,5.51099,-43.4997,-0.0100784,-0.000804284,0.00706525,0.00300971,-0.0138924,1.0758,0.0104108,0.0313842,1294,414,5.51095,43.4997
77,610,5.64551,-43.4464,-0.00932318,-0.00104115,0.00755197,0.00343064,-0.013795,1.03618,0.0105282,0.0375568,1301,414,5.64546,43.4464
84,610,5.77771,-43.473,-0.00814186,-0.0019237,0.00754031,0.00312336,-0.0131889,0.980943,0.0099977,0.0349378,1308,414,5.77765,43.473
91,610,5.82727,-43.4286,-0.00671386,-0.00311016,0.00698786,0.00230442,-0.0121284,0.911577,0.00895317,0.028778,1315,414,5.82725,43.4286
98,610,5.91431,-43.4092,-0.00508929,-0.00464043,0.00626961,0.00140877,-0.0111385,0.803289,0.00793703,0.0257651,1322,414,5.91433,43.4092
105,610,5.95251,-43.2967,-0.00286773,-0.00656272,0.00546955,0.00105792,-0.0104884,0.622525,0.00737024,0.0200131,1329,414,5.95246,43.2967
112,610,5.97925,-43.1913,9.26289e-05,-0.0086566,0.00433295,0.00187526,-0.0104392,0.390306,0.00766146,0.0140501,1336,414,5.97925,43.1913
119,610,6.01147,-43.0725,0.00267828,-0.011016,0.00215621,0.00300976,-0.0113475,0.152538,0.00874267,0.0206088,1343,414,6.01145,43.0725
126,610,6.12195,-42.9177,0.00480113,-0.0129221,-0.000599815,0.0048214,-0.0129423,-0.033792,0.0106071,0.0290309,1350,414,6.12199,42.9177
133,610,6.17212,-42.7608,0.00617924,-0.0141976,-0.00262985,0.00651318,-0.0145315,-0.126304,0.0124407,0.022512,1357,414,6.17214,42.7608
140,610,6.23877,-42.5799,0.00728609,-0.0148852,-0.00410703,0.00802242,-0.0156215,-0.177402,0.0138839,0.0179297,1364,414,6.23882,42.5799
147,610,6.19885,-42.3469,0.00747065,-0.0144987,-0.00480071,0.00847388,-0.0155019,-0.206011,0.0140393,0.0185882,1371,414,6.19887,42.3469
154,610,6.20142,-42.1434,0.00703584,-0.0132946,-0.00460289,0.0080294,-0.0142882,-0.212593,0.0130529,0.0236294,1378,414,6.20142,42.1434
161,610,6.28638,-41.9542,0.00661762,-0.0117832,-0.00440003,0.00761563,-0.0127812,-0.223046,0.0119013,0.0280937,1385,414,6.28634,41.9542
168,610,6.34692,-41.7527,0.00613328,-0.00998647,-0.00407086,0.00710299,-0.0109562,-0.233851,0.0105053,0.0279677,1392,414,6.34691,41.7528
175,610,6.38855,-41.5425,0.00559749,-0.00828511,-0.00366927,0.00650764,-0.00919525,-0.243138,0.00911022,0.0227983,1399,414,6.38858,41.5425
182,610,6.45764,-41.2654,0.00499662,-0.00685864,-0.00334675,0.00587616,-0.00773818,-0.256992,0.00788471,0.0161891,1406,414,6.45759,41.2654
189,610,6.48853,-40.9387,0.00431544,-0.00517639,-0.00296284,0.00516436,-0.00602531,-0.279045,0.00646673,0.0145247,1413,414,6.48854,40.9387
196,610,6.49158,-40.6547,0.0038917,-0.00367004,-0.00245735,0.0046201,-0.00439844,-0.288168,0.00520738,0.0147612,1420,414,6.49164,40.6547
203,610,6.49304,-40.3628,0.00347349,-0.00217205,-0.00197313,0.00409473,-0.0027933,-0.305029,0.0040004,0.0149836,1427,414,6.49299,40.3628
210,610,6.49719,-40.0395,0.00281895,-0.00101613,-0.00143095,0.00329402,-0.0014912,-0.320546,0.00282734,0.0114313,1434,414,6.49713,40.0395
217,610,6.54333,-39.6779,0.00213461,-4.53439e-05,-0.000895119,0.00245506,-0.000365788,-0.343775,0.00177127,0.0178269,1441,414,6.5433,39.6779
224,610,6.58337,-39.3404,0.00168196,0.00102564,-0.000302287,0.00179997,0.000907628,-0.372189,0.00103923,0.0209374,1448,414,6.58342,39.3404
231,610,6.5813,-38.9998,0.00138433,0.00188955,0.000272166,0.00200827,0.00126561,1.15947,0.0011725,0.01619,1455,414,6.58128,38.9998
238,610,6.57031,-38.5972,0.00128811,0.00268381,0.000727338,0.00299393,0.000977987,1.16775,0.00176283,0.0115467,1462,414,6.57025,38.5972
245,610,6.5907,-38.2108,0.00132475,0.00337503,0.00104633,0.00381472,0.000885062,1.17298,0.00230547,0.0130763,1469,414,6.59075,38.2107
252,610,6.59619,-37.8168,0.00135569,0.00410861,0.00131923,0.00463872,0.000825585,1.18871,0.00285732,0.0146602,1476,414,6.59625,37.8168
259,610,6.58484,-37.3904,0.00134479,0.00475167,0.00159223,0.00537994,0.000716516,1.19496,0.00337325,0.0124733,1483,414,6.58484,37.3904
266,610,6.55811,-36.9659,0.00141942,0.00541854,0.00193351,0.00620047,0.000637484,1.18649,0.00393839,0.0130469,1490,414,6.55809,36.9659
273,610,6.53564,-36.5493,0.00149363,0.00614108,0.00229242,0.00708154,0.000553174,1.18149,0.00454786,0.010548,1497,414,6.53563,36.5493
280,610,6.5166,-36.0993,0.00161535,0.00690149,0.00273553,0.00806223,0.000454614,1.1695,0.00522987,0.0101832,1504,414,6.5166,36.0993
287,610,6.49902,-35.6222,0.0018143,0.00777449,0.00329707,0.00923868,0.000350115,1.15287,0.00604579,0.0137586,1511,414,6.49902,35.6222
294,610,6.49512,-35.171,0.00195635,0.00865915,0.0038706,0.0104277,0.000187846,1.14221,0.00689001,0.0113325,1518,414,6.49511,35.171
301,610,6.49292,-34.7424,0.001998,0.00949941,0.00443322,0.0115557,-5.82929e-05,1.1365,0.0077233,0.0102268,1525,414,6.49293,34.7424
308,610,6.47339,-34.269,0.0020595,0.0103256,0.00505685,0.0127235,-0.000338448,1.128,0.00859739,0.0118752,1532,414,6.47341,34.269
315,610,6.41772,-33.8072,0.00209814,0.0112117,0.00568469,0.0139405,-0.000630685,1.12325,0.00951088,0.0136258,1539,414,6.41767,33.8072
322,610,6.37793,-33.2811,0.00199749,0.0118479,0.0062801,0.0149038,-0.00105836,1.11793,0.0103068,0.0132388,1546,414,6.37793,33.2811
329,610,6.34351,-32.7594,0.00174446,0.0123995,0.00682105,0.015727,-0.00158302,1.11694,0.0110502,0.0123947,1553,414,6.34356,32.7594
336,610,6.33691,-32.2529,0.0012948,0.0128619,0.00721341,0.016324,-0.00216734,1.12331,0.0116724,0.0121986,1560,414,6.3369,32.2529
343,610,6.28027,-31.7015,0.000826919,0.0133534,0.00748331,0.0168486,-0.00266833,1.13384,0.0122194,0.0175596,1567,414,6.28025,31.7015
350,610,6.17273,-31.1955,0.000361511,0.0141938,0.00787356,0.0177575,-0.00320213,1.14578,0.0130374,0.0406868,1574,414,6.17273,31.1955
357,610,6.14075,-30.3575,0,0,0,0,0,0,0,-1,1581,414,6.14078,30.3575
364,610,6.40979,-29.9335,0,0,0,0,0,0,0,-1,1588,414,6.40973,29.9335
371,610,3.54138,-13.3788,0,0,0,0,0,0,0,-1,1595,414,3.54137,13.3788
378,610,3.5752,-12.1958,0,0,0,0,0,0,0,-1,1602,414,3.57517,12.1958
385,610,2.57104,-10.3878,0,0,0,0,0,0,0,-1,1609,414,2.57109,10.3878
392,610,1.99744,-1.83582,0,0,0,0,0,0,0,-1,1616,414,1.99741,1.8358
399,610,2.77136,-2.60333,0,0,0,0,0,0,0,-1,1623,414,2.77133,2.60332
406,610,3.54529,-3.37085,0,0,0,0,0,0,0,-1,1630,414,3.54525,3.37084
413,610,3.01929,-3.20306,0,0,0,0,0,0,0,-1,1637,414,3.01929,3.20306
420,610,4.78149,-3.64041,0,0,0,0,0,0,0,-1,1644,414,4.78152,3.64042
427,610,8.85168,-23.3853,0,0,0,0,0,0,0,-1,1651,414,8.85174,23.3853
434,610,8.73706,-22.6227,0,0,0,0,0,0,0,-1,1658,414,8.73703,22.6227
441,610,0,0,0,0,0,0,0,0,0,-1,1665,414,0,0
448,610,0,0,0,0,0,0,0,0,0,-1,1672,414,0,0
455,610,0,0,0,0,0,0,0,0,0,-1,1679,414,0,0
462,610,0,0,0,0,0,0,0,0,0,-1,1686,414,0,0
469,610,0,0,0,0,0,0,0,0,0,-1,1693,414,0,0
476,610,0,0,0,0,0,0,0,0,0,-1,1700,414,0,0
483,610,0,0,0,0,0,0,0,0,0,-1,1707,414,0,0
490,610,0,0,0,0,0,0,0,0,0,-1,1714,414,0,0
497,610,0,0,0,0,0,0,0,0,0,-1,1721,414,0,0
504,610,0,0,0,0,0,0,0,0,0,-1,1728,414,0,0
511,610,0,0,0,0,0,0,0,0,0,-1,1735,414,0,0
518,610,0,0,0,0,0,0,0,0,0,-1,1742,414,0,0
525,610,0,0,0,0,0,0,0,0,0,-1,1749,414,0,0
532,610,0,0,0,0,0,0,0,0,0,-1,1756,414,0,0
539,610,0,0,0,0,0,0,0,0,0,-1,1763,414,0,0
546,610,0,0,0,0,0,0,0,0,0,-1,1770,414,0,0
553,610,0,0,0,0,0,0,0,0,0,-1,1777,414,0,0
560,610,0,0,0,0,0,0,0,0,0,-1,1784,414,0,0
567,610,0,0,0,0,0,0,0,0,0,-1,1791,414,0,0
574,610,0,0,0,0,0,0,0,0,0,-1,1798,414,0,0
581,610,0,0,0,0,0,0,0,0,0,-1,1805,414,0,0
588,610,0,0,0,0,0,0,0,0,0,-1,1812,414,0,0
595,610,0,0,0,0,0,0,0,0,0,-1,1819,414,0,0
602,610,0,0,0,0,0,0,0,0,0,-1,1826,414,0,0
609,610,0,0,0,0,0,0,0,0,0,-1,1833,414,0,0
616,610,0,0,0,0,0,0,0,0,0,-1,1840,414,0,0
623,610,0,0,0,0,0,0,0,0,0,-1,1847,414,0,0
630,610,0,0,0,0,0,0,0,0,0,-1,1854,414,0,0
637,610,0,0,0,0,0,0,0,0,0,-1,1861,414,0,0
644,610,0,0,0,0,0,0,0,0,0,-1,1868,414,0,0
651,610,0,0,0,0,0,0,0,0,0,-1,1875,414,0,0
658,610,0,0,0,0,0,0,0,0,0,-1,1882,414,0,0
665,610,0,0,0,0,0,0,0,0,0,-1,1889,414,0,0
672,610,0,0,0,0,0,0,0,0,0,-1,1896,414,0,0
679,610,0,0,0,0,0,0,0,0,0,-1,1903,414,0,0
686,610,0,0,0,0,0,0,0,0,0,-1,1910,414,0,0
693,610,0,0,0,0,0,0,0,0,0,-1,1917,414,0,0
700,610,0,0,0,0,0,0,0,0,0,-1,1924,414,0,0
707,610,0,0,0,0,0,0,0,0,0,-1,1931,414,0,0
714,610,0,0,0,0,0,0,0,0,0,-1,1938,414,0,0
721,610,0,0,0,0,0,0,0,0,0,-1,1945,414,0,0
728,610,0,0,0,0,0,0,0,0,0,-1,1952,414,0,0
735,610,0,0,0,0,0,0,0,0,0,-1,1959,414,0,0
742,610,0,0,0,0,0,0,0,0,0,-1,1966,414,0,0
749,610,0,0,0,0,0,0,0,0,0,-1,1973,414,0,0
756,610,0,0,0,0,0,0,0,0,0,-1,1980,414,0,0
763,610,0,0,0,0,0,0,0,0,0,-1,1987,414,0,0
770,610,0,0,0,0,0,0,0,0,0,-1,1994,414,0,0
777,610,0,0,0,0,0,0,0,0,0,-1,2001,414,0,0
784,610,0,0,0,0,0,0,0,0,0,-1,2008,414,0,0
791,610,0,0,0,0,0,0,0,0,0,-1,2015,414,0,0
798,610,0,0,0,0,0,0,0,0,0,-1,2022,414,0,0
805,610,0,0,0,0,0,0,0,0,0,-1,2029,414,0,0
812,610,0,0,0,0,0,0,0,0,0,-1,2036,414,0,0
-700,603,0,0,0,0,0,0,0,0,0,-1,524,421,0,0
-693,603,0,0,0,0,0,0,0,0,0,-1,531,421,0,0
-686,603,0,0,0,0,0,0,0,0,0,-1,538,421,0,0
-679,603,0,0,0,0,0,0,0,0,0,-1,545,421,0,0
-672,603,0,0,0,0,0,0,0,0,0,-1,552,421,0,0
-665,603,0,0,0,0,0,0,0,0,0,-1,559,421,0,0
-658,603,0,0,0,0,0,0,0,0,0,-1,566,421,0,0
-651,603,0,0,0,0,0,0,0,0,0,-1,573,421,0,0
-644,603,0,0,0,0,0,0,0,0,0,-1,580,421,0,0
-637,603,0,0,0,0,0,0,0,0,0,-1,587,421,0,0
-630,603,0,0,0,0,0,0,0,0,0,-1,594,421,0,0
-623,603,0,0,0,0,0,0,0,0,0,-1,601,421,0,0
-616,603,0,0,0,0,0,0,0,0,0,-1,608,421,0,0
-609,603,0,0,0,0,0,0,0,0,0,-1,615,421,0,0
-602,603,0,0,0,0,0,0,0,0,0,-1,622,421,0,0
-595,603,0,0,0,0,0,0,0,0,0,-1,629,421,0,0
-588,603,0,0,0,0,0,0,0,0,0,-1,636,421,0,0
-581,603,0,0,0,0,0,0,0,0,0,-1,643,421,0,0
-574,603,0,0,0,0,0,0,0,0,0,-1,650,421,0,0
-567,603,0,0,0,0,0,0,0,0,0,-1,657,421,0,0
-560,603,0,0,0,0,0,0,0,0,0,-1,664,421,0,0
-553,603,0,0,0,0,0,0,0,0,0,-1,671,421,0,0
-546,603,0,0,0,0,0,0,0,0,0,-1,678,421,0,0
-539,603,0,0,0,0,0,0,0,0,0,-1,685,421,0,0
-532,603,0,0,0,0,0,0,0,0,0,-1,692,421,0,0
-525,603,0,0,0,0,0,0,0,0,0,-1,699,421,0,0
-518,603,0,0,0,0,0,0,0,0,0,-1,706,421,0,0
-511,603,0,0,0,0,0,0,0,0,0,-1,713,421,0,0
-504,603,0,0,0,0,0,0,0,0,0,-1,720,421,0,0
-497,603,0,0,0,0,0,0,0,0,0,-1,727,421,0,0
-490,603,0,0,0,0,0,0,0,0,0,-1,734,421,0,0
-483,603,0,0,0,0,0,0,0,0,0,-1,741,421,0,0
-476,603,0,0,0,0,0,0,0,0,0,-1,748,421,0,0
-469,603,0,0,0,0,0,0,0,0,0,-1,755,421,0,0
-462,603,0,0,0,0,0,0,0,0,0,-1,762,421,0,0
-455,603,0,0,0,0,0,0,0,0,0,-1,769,421,0,0
-448,603,0,0,0,0,0,0,0,0,0,-1,776,421,0,0
-441,603,0,0,0,0,0,0,0,0,0,-1,783,421,0,0
-434,603,0,0,0,0,0,0,0,0,0,-1,790,421,0,0
-427,603,0,0,0,0,0,0,0,0,0,-1,797,421,0,0
-420,603,0,0,0,0,0,0,0,0,0,-1,804,421,0,0
-413,603,0,0,0,0,0,0,0,0,0,-1,811,421,0,0
-406,603,0,0,0,0,0,0,0,0,0,-1,818,421,0,0
-399,603,0,0,0,0,0,0,0,0,0,-1,825,421,0,0
-392,603,0,0,0,0,0,0,0,0,0,-1,832,421,0,0
-385,603,0,0,0,0,0,0,0,0,0,-1,839,421,0,0
-378,603,0,0,0,0,0,0,0,0,0,-1,846,421,0,0
-371,603,0,0,0,0,0,0,0,0,0,-1,853,421,0,0
-364,603,0,0,0,0,0,0,0,0,0,-1,860,421,0,0
-357,603,0,0,0,0,0,0,0,0,0,-1,867,421,0,0
-350,603,0,0,0,0,0,0,0,0,0,-1,874,421,0,0
-343,603,0,0,0,0,0,0,0,0,0,-1,881,421,0,0
-336,603,0,0,0,0,0,0,0,0,0,-1,888,421,0,0
-329,603,4.09686,-17.9702,0,0,0,0,0,0,0,-1,895,421,4.09687,17.9702
-322,603,5.98431,-20.9071,0,0,0,0,0,0,0,-1,902,421,5.98431,20.9071
-315,603,5.99744,-20.4501,0,0,0,0,0,0,0,-1,909,421,5.99745,20.4501
-308,603,5.92249,-20.778,0,0,0,0,0,0,0,-1,916,421,5.92248,20.778
-301,603,2.72424,-20.9059,0,0,0,0,0,0,0,-1,923,421,2.72424,20.9059
-294,603,2.41553,-20.6767,0,0,0,0,0,0,0,-1,930,421,2.41554,20.6767
-287,603,1.91766,-21.2242,0,0,0,0,0,0,0,-1,937,421,1.91767,21.2242
-280,603,2.1037,-22.259,0,0,0,0,0,0,0,-1,944,421,2.10372,22.259
-273,603,4.45172,-26.0901,0,0,0,0,0,0,0,-1,951,421,4.45169,26.0901
-266,603,4.17987,-27.689,0,0,0,0,0,0,0,-1,958,421,4.17987,27.689
-259,603,4.36285,-28.4786,0,0,0,0,0,0,0,-1,965,421,4.36287,28.4786
-252,603,4.39954,-29.8483,0,0,0,0,0,0,0,-1,972,421,4.39954,29.8483
-245,603,4.43317,-30.2603,-0.000587767,0.0179,-0.0101812,0.0224077,-0.00509544,-1.15399,0.016895,0.0337391,979,421,4.43319,30.2603
-238,603,4.40442,-30.7615,-0.00101172,0.0175084,-0.00894039,0.02112,-0.00462331,-1.18688,0.0158475,0.0225084,986,421,4.40441,30.7615
-231,603,4.35352,-31.356,-0.00134164,0.0168448,-0.00772831,0.0196853,-0.00418213,-1.21858,0.014717,0.0148646,993,421,4.35351,31.356
-224,603,4.3186,-31.9344,-0.00161774,0.0159386,-0.0067011,0.018204,-0.00388316,-1.24479,0.0136163,0.014594,1000,421,4.31863,31.9344
-217,603,4.30408,-32.441,-0.00174713,0.01438,-0.00594918,0.0163371,-0.00370423,-1.25298,0.0123133,0.0134265,1007,421,4.3041,32.441
-210,603,4.28583,-32.945,-0.00157135,0.0125048,-0.00509755,0.0141569,-0.00322347,-1.25738,0.0106759,0.0111836,1014,421,4.28585,32.945
-203,603,4.26062,-33.4624,-0.00141509,0.0103111,-0.00406533,0.0115826,-0.00268661,-1.26766,0.00875579,0.0168191,1021,421,4.26056,33.4624
-196,603,4.25684,-33.984,-0.00119542,0.00854476,-0.00332915,0.00957391,-0.00222456,-1.27098,0.00723897,0.0196978,1028,421,4.25686,33.984
-189,603,4.24976,-34.4084,-0.0009098,0.00697596,-0.00270811,0.0078164,-0.00175024,-1.26988,0.0058818,0.0163203,1035,421,4.24975,34.4084
-182,603,4.2074,-34.8546,-0.000592333,0.00523246,-0.00209002,0.00590479,-0.00126466,-1.25957,0.00441882,0.0118794,1042,421,4.20735,34.8546
-175,603,4.1731,-35.3036,-0.000330104,0.00308515,-0.00142223,0.00359985,-0.000844799,-1.22357,0.0027255,0.0124102,1049,421,4.17315,35.3036
-168,603,4.11194,-35.7551,-0.000156025,0.00112479,-0.000767701,0.00148412,-0.000515361,-1.13302,0.00119872,0.0147264,1056,421,4.11189,35.7551
-161,603,4.08789,-36.2188,1.50947e-05,-0.000666212,-0.000186897,6.29965e-05,-0.000714114,-0.2509,0.000498404,0.0141573,1063,421,4.08784,36.2188
-154,603,4.09106,-36.636,0.000200243,-0.00210988,0.000290079,0.000236111,-0.00214574,0.123024,0.00151534,0.0132699,1070,421,4.09105,36.6361
-147,603,4.08789,-37.0146,0.000346331,-0.00353838,0.000701638,0.000469173,-0.00366122,0.173322,0.00261129,0.0142501,1077,421,4.08794,37.0146
-140,603,4.11914,-37.446,0.000465016,-0.00492574,0.00101531,0.000649901,-0.00511063,0.180124,0.00364309,0.0130198,1084,421,4.11918,37.4459
-133,603,4.09961,-37.8353,0.000531322,-0.00607125,0.0012451,0.000758315,-0.00629824,0.180329,0.00447308,0.0128345,1091,421,4.09963,37.8353
-126,603,4.10449,-38.1845,0.000655326,-0.00686603,0.00139749,0.000906591,-0.0071173,0.177896,0.00507413,0.0109149,1098,421,4.10445,38.1845
-119,603,4.12341,-38.5585,0.000944092,-0.00745693,0.00143389,0.00118209,-0.00769492,0.164479,0.00556597,0.0113851,1105,421,4.12345,38.5585
-112,603,4.11816,-38.9535,0.00123332,-0.00785975,0.00140032,0.00144409,-0.00807051,0.149389,0.0059207,0.0167109,1112,421,4.11819,38.9535
-105,603,4.10535,-39.3115,0.00162053,-0.00812769,0.00131922,0.0017959,-0.00830306,0.132163,0.00622102,0.0171339,1119,421,4.10535,39.3115
-98,603,4.11377,-39.6229,0.00210606,-0.00826646,0.00127891,0.00226142,-0.00842181,0.120886,0.00650081,0.0137392,1126,421,4.11377,39.6229
-91,603,4.13892,-39.9458,0.00262283,-0.00796944,0.00108513,0.00273285,-0.00807947,0.101047,0.00649192,0.00997894,1133,421,4.13888,39.9458
-84,603,4.17639,-40.2986,0.00322486,-0.0070607,0.000895794,0.00330229,-0.00713813,0.0862273,0.0061619,0.0119259,1140,421,4.17636,40.2986
-77,603,4.23523,-40.6671,0.00410514,-0.00582835,0.000821678,0.00417265,-0.00589586,0.0819755,0.00584137,0.0190872,1147,421,4.23528,40.6671
-70,603,4.22961,-40.9164,0,0,0,0,0,0,0,-1,1154,421,4.22961,40.9164
-63,603,4.21265,-41.1612,0,0,0,0,0,0,0,-1,1161,421,4.21268,41.1612
-56,603,4.31055,-41.4299,0,0,0,0,0,0,0,-1,1168,421,4.31059,41.4299
-49,603,4.38782,-41.6701,0,0,0,0,0,0,0,-1,1175,421,4.38788,41.6701
-42,603,4.40796,-41.8781,0,0,0,0,0,0,0,-1,1182,421,4.408,41.8781
-35,603,4.40088,-42.0602,0.00520318,-0.00331306,0.0038314,0.00667317,-0.00478305,0.366349,0.00664419,0.0414539,1189,421,4.40087,42.0602
-28,603,4.44202,-42.2256,0.00358157,-0.00134604,0.00287904,0.00490712,-0.00267159,0.43148,0.00443857,0.0278192,1196,421,4.44205,42.2256
-21,603,4.53101,-42.3985,0.00218138,0.00077879,0.00186053,0.0034684,-0.000508223,0.605165,0.00249896,0.0247689,1203,421,4.53105,42.3985
-14,603,4.67395,-42.5615,0.000912497,0.00129781,0.00179349,0.00290896,-0.000698655,0.838902,0.00220933,0.0212676,1210,421,4.67399,42.5615
-7,603,4.7229,-42.6994,-0.000344684,0.00143834,0.00134466,0.00216017,-0.00106652,1.07813,0.00189827,0.0237185,1217,421,4.72293,42.6994
0,603,4.70801,-42.8763,-0.00193417,0.00167348,0.000584279,0.00176574,-0.00202643,1.41417,0.00219114,0.0319957,1224,421,4.70806,42.8763
7,603,4.82092,-42.8091,-0.00396556,0.00182921,-8.64269e-05,0.0018305,-0.00396685,-1.55589,0.00342202,0.0428445,1231,421,4.82098,42.8092
14,603,5.08533,-42.7277,-0.00604007,0.00192613,3.41867e-05,0.00192628,-0.00604022,1.5665,0.00479953,0.0442288,1238,421,5.08528,42.7277
21,603,5.07483,-42.8512,-0.00793169,0.0016235,0.000610709,0.00166237,-0.00797056,1.50723,0.00594581,0.0349537,1245,421,5.07486,42.8512
28,603,5.13074,-42.945,-0.00957997,0.00146146,0.00128049,0.00160801,-0.00972653,1.45684,0.00708148,0.0381773,1252,421,5.13073,42.945
35,603,5.23254,-42.8508,-0.0112835,0.00134888,0.00227802,0.00174712,-0.0116817,1.39772,0.00843077,0.0462749,1259,421,5.23256,42.8508
42,603,5.2998,-43.1565,-0.0127853,0.00142444,0.003551,0.00226242,-0.0136233,1.33905,0.00992267,0.0430823,1266,421,5.29977,43.1565
49,603,5.37012,-43.4007,-0.0140075,0.00162802,0.00502692,0.00310473,-0.0154843,1.28507,0.0114983,0.0229628,1273,421,5.37017,43.4007
56,603,5.34204,-43.3001,-0.0148335,0.00190831,0.00658136,0.0041857,-0.0171109,1.23766,0.0130286,0.0461728,1280,421,5.34205,43.3001
63,603,5.32349,-43.1896,0,0,0,0,0,0,0,-1,1287,421,5.32346,43.1896
70,603,5.48901,-42.3633,0,0,0,0,0,0,0,-1,1294,421,5.48904,42.3633
77,603,5.61877,-42.1666,0,0,0,0,0,0,0,-1,1301,421,5.61872,42.1666
84,603,5.90759,-43.3967,0,0,0,0,0,0,0,-1,1308,421,5.90764,43.3967
91,603,5.95862,-43.3123,0,0,0,0,0,0,0,-1,1315,421,5.95863,43.3123
98,603,6.0791,-43.3572,0,0,0,0,0,0,0,-1,1322,421,6.07914,43.3572
105,603,6.11145,-43.1947,0,0,0,0,0,0,0,-1,1329,421,6.11145,43.1947
112,603,6.28308,-42.8509,-0.00318774,-0.00930048,0.00766776,0.00201034,-0.0144986,0.595749,0.0104008,0.0459223,1336,421,6.28303,42.8509
119,603,6.44604,-42.7086,0.000847666,-0.0129462,0.00495025,0.0024403,-0.0145388,0.311269,0.0106,0.0475739,1343,421,6.44606,42.7086
126,603,6.54285,-42.4513,0,0,0,0,0,0,0,-1,1350,421,6.54288,42.4513
133,603,6.42712,-42.3764,0.00670514,-0.0184672,-0.00247078,0.00694536,-0.0187074,-0.096922,0.0153208,0.0466658,1357,421,6.42714,42.3764
140,603,6.58228,-42.2057,0.00902781,-0.020251,-0.00534713,0.00997378,-0.0211969,-0.175101,0.0183811,0.0334607,1364,421,6.58231,42.2057
147,603,6.45154,-42.1078,0.00971713,-0.0201283,-0.0068546,0.0112161,-0.0216273,-0.215297,0.0192771,0.0263665,1371,421,6.45157,42.1079
154,603,6.3855,-42.0449,0.00916752,-0.0185159,-0.00658838,0.0106555,-0.0200039,-0.222124,0.0179734,0.0323706,1378,421,6.38545,42.0449
161,603,6.52161,-41.873,0.00865918,-0.016553,-0.00631994,0.0101547,-0.0180485,-0.23236,0.0164943,0.0329322,1385,421,6.52157,41.873
168,603,6.64343,-41.6248,0.00807489,-0.0142284,-0.00588592,0.0095329,-0.0156864,-0.242823,0.0147041,0.0356692,1392,421,6.64341,41.6248
175,603,6.86584,-41.4005,0.0074308,-0.0120805,-0.00536062,0.00880659,-0.0134563,-0.251225,0.0129466,0.0388429,1399,421,6.86589,41.4005
182,603,6.94629,-41.1703,0.00673968,-0.0103488,-0.0049456,0.00806777,-0.0116769,-0.262351,0.0114629,0.0437731,1406,421,6.94627,41.1703
189,603,6.93323,-40.8637,0.00595093,-0.00827857,-0.00446713,0.00723707,-0.00956471,-0.28033,0.00973149,0.0377787,1413,421,6.93322,40.8637
196,603,6.81641,-40.5179,0.00544836,-0.00642677,-0.0038313,0.00657717,-0.00755558,-0.28652,0.00816606,0.0291132,1420,421,6.81643,40.5179
203,603,6.81348,-40.2934,0.00488945,-0.00450696,-0.00324585,0.00590164,-0.00551916,-0.302286,0.00659503,0.0172679,1427,421,6.81343,40.2934
210,603,6.84241,-40.0642,0.00405094,-0.00306318,-0.00257827,0.00488708,-0.00389931,-0.313599,0.0050835,0.0131996,1434,421,6.84236,40.0642
217,603,6.86938,-39.6966,0.00314933,-0.00191504,-0.0019031,0.00378475,-0.00255047,-0.322251,0.00368071,0.0143041,1441,421,6.86936,39.6966
224,603,6.9248,-39.3271,0.00252663,-0.000555762,-0.00112163,0.00289157,-0.0009207,-0.31456,0.00229696,0.0176888,1448,421,6.92482,39.3271
231,603,6.92749,-38.9607,0.00203451,0.000449452,-0.000414453,0.00213634,0.000347624,-0.240919,0.00132365,0.0158071,1455,421,6.92752,38.9607
238,603,6.93311,-38.5898,0.00186231,0.00133025,0.000128555,0.00189174,0.00130082,0.225075,0.00111754,0.0119451,1462,421,6.93311,38.5898
245,603,6.96008,-38.2148,0.00188855,0.0019641,0.000480228,0.00240804,0.00144461,0.824651,0.0013995,0.0130229,1469,421,6.96005,38.2148
252,603,6.97339,-37.7931,0.0018854,0.00258852,0.000764168,0.00307812,0.0013958,1.00099,0.00177972,0.0112995,1476,421,6.9734,37.7931
259,603,6.9751,-37.3905,0.00177563,0.00302421,0.00101088,0.00358804,0.0012118,1.06202,0.00210761,0.0108839,1483,421,6.9751,37.3905
266,603,6.96887,-36.9756,0.00169196,0.0034291,0.00123531,0.00407063,0.00105043,1.09181,0.00244018,0.012334,1490,421,6.96887,36.9756
273,603,6.96826,-36.5502,0.00165744,0.00393485,0.00150317,0.00468193,0.000910361,1.10955,0.00286643,0.0104709,1497,421,6.96831,36.5502
280,603,6.96667,-36.0903,0.00167311,0.00445136,0.00182985,0.00535963,0.000764835,1.11006,0.0033474,0.0114305,1504,421,6.96673,36.0903
287,603,6.95386,-35.6246,0.00175747,0.0050678,0.00224027,0.00619802,0.00062725,1.10355,0.00393961,0.0120186,1511,421,6.95384,35.6246
294,603,6.9292,-35.1794,0.00179177,0.00573973,0.00266763,0.00708431,0.000447188,1.10393,0.00458109,0.0105968,1518,421,6.92915,35.1794
301,603,6.93896,-34.7377,0.0017395,0.00639578,0.00309961,0.00794421,0.000191064,1.1075,0.00523362,0.0120374,1525,421,6.93901,34.7377
308,603,6.93481,-34.2617,0.00170532,0.00703641,0.00358131,0.00883527,-9.35388e-05,1.10532,0.0059216,0.0164841,1532,421,6.93476,34.2617
315,603,6.87573,-33.7836,0.00164889,0.00778355,0.00406107,0.0098055,-0.000373068,1.10884,0.00666484,0.0154821,1539,421,6.87569,33.7836
322,603,6.8418,-33.2872,0.00146952,0.00837382,0.00452733,0.010615,-0.000771666,1.11113,0.00734741,0.0154734,1546,421,6.84181,33.2872
329,603,6.81396,-32.782,0.00116802,0.00885214,0.00494701,0.0112738,-0.00125366,1.11557,0.00796671,0.0118039,1553,421,6.81394,32.782
336,603,6.80786,-32.2733,0.000752473,0.00927051,0.00527459,0.0117909,-0.00176793,1.12503,0.00851134,0.0103633,1560,421,6.80783,32.2733
343,603,6.79211,-31.7404,0.000311142,0.0097783,0.0055562,0.0123439,-0.00225446,1.13821,0.00907459,0.0117598,1567,421,6.79206,31.7404
350,603,6.74756,-31.1936,-0.000133195,0.010639,0.005962,0.0132876,-0.00278174,1.15275,0.00991654,0.0191708,1574,421,6.74762,31.1936
357,603,6.7262,-30.5907,-0.000645613,0.0113806,0.00640698,0.0141543,-0.00341924,1.16225,0.0107586,0.0253816,1581,421,6.7262,30.5907
364,603,6.69897,-29.9962,-0.00141842,0.0121335,0.00675958,0.0149286,-0.00421355,1.1787,0.0116145,0.0338581,1588,421,6.69893,29.9962
371,603,6.62769,-29.4222,0,0,0,0,0,0,0,-1,1595,421,6.62771,29.4222
378,603,6.50854,-29.0423,0,0,0,0,0,0,0,-1,1602,421,6.50856,29.0423
385,603,6.40588,-28.384,0,0,0,0,0,0,0,-1,1609,421,6.40585,28.384
392,603,4.90527,-19.605,0,0,0,0,0,0,0,-1,1616,421,4.90526,19.605
399,603,2.94299,0.638214,0,0,0,0,0,0,0,-1,1623,421,2.94293,-0.638215
406,603,3.01917,-2.37219,0,0,0,0,0,0,0,-1,1630,421,3.01915,2.37219
413,603,2.38928,-2.41275,0,0,0,0,0,0,0,-1,1637,421,2.38926,2.41274
420,603,8.22217,-23.7068,0,0,0,0,0,0,0,-1,1644,421,8.22215,23.7068
427,603,8.20386,-23.1278,0,0,0,0,0,0,0,-1,1651,421,8.2039,23.1278
434,603,8.01489,-22.5655,0,0,0,0,0,0,0,-1,1658,421,8.01493,22.5655
441,603,8.00122,-22.3072,0,0,0,0,0,0,0,-1,1665,421,8.00116,22.3071
448,603,1.14355,-4.59842,0,0,0,0,0,0,0,-1,1672,421,1.14355,4.59841
455,603,0,0,0,0,0,0,0,0,0,-1,1679,421,0,0
462,603,0,0,0,0,0,0,0,0,0,-1,1686,421,0,0
469,603,0,0,0,0,0,0,0,0,0,-1,1693,421,0,0
476,603,0,0,0,0,0,0,0,0,0,-1,1700,421,0,0
483,603,0,0,0,0,0,0,0,0,0,-1,1707,421,0,0
490,603,0,0,0,0,0,0,0,0,0,-1,1714,421,0,0
497,603,0,0,0,0,0,0,0,0,0,-1,1721,421,0,0
504,603,0,0,0,0,0,0,0,0,0,-1,1728,421,0,0
511,603,0,0,0,0,0,0,0,0,0,-1,1735,421,0,0
518,603,0,0,0,0,0,0,0,0,0,-1,1742,421,0,0
525,603,0,0,0,0,0,0,0,0,0,-1,1749,421,0,0
532,603,0,0,0,0,0,0,0,0,0,-1,1756,421,0,0
539,603,0,0,0,0,0,0,0,0,0,-1,1763,421,0,0
546,603,0,0,0,0,0,0,0,0,0,-1,1770,421,0,0
553,603,0,0,0,0,0,0,0,0,0,-1,1777,421,0,0
560,603,0,0,0,0,0,0,0,0,0,-1,1784,421,0,0
567,603,0,0,0,0,0,0,0,0,0,-1,1791,421,0,0
574,603,0,0,0,0,0,0,0,0,0,-1,1798,421,0,0
581,603,0,0,0,0,0,0,0,0,0,-1,1805,421,0,0
588,603,0,0,0,0,0,0,0,0,0,-1,1812,421,0,0
595,603,0,0,0,0,0,0,0,0,0,-1,1819,421,0,0
602,603,0,0,0,0,0,0,0,0,0,-1,1826,421,0,0
609,603,0,0,0,0,0,0,0,0,0,-1,1833,421,0,0
616,603,0,0,0,0,0,0,0,0,0,-1,1840,421,0,0
623,603,0,0,0,0,0,0,0,0,0,-1,1847,421,0,0
630,603,0,0,0,0,0,0,0,0,0,-1,1854,421,0,0
637,603,0,0,0,0,0,0,0,0,0,-1,1861,421,0,0
644,603,0,0,0,0,0,0,0,0,0,-1,1868,421,0,0
651,603,0,0,0,0,0,0,0,0,0,-1,1875,421,0,0
658,603,0,0,0,0,0,0,0,0,0,-1,1882,421,0,0
665,603,0,0,0,0,0,0,0,0,0,-1,1889,421,0,0
672,603,0,0,0,0,0,0,0,0,0,-1,1896,421,0,0
679,603,0,0,0,0,0,0,0,0,0,-1,1903,421,0,0
686,603,0,0,0,0,0,0,0,0,0,-1,1910,421,0,0
693,603,0,0,0,0,0,0,0,0,0,-1,1917,421,0,0
700,603,0,0,0,0,0,0,0,0,0,-1,1924,421,0,0
707,603,0,0,0,0,0,0,0,0,0,-1,1931,421,0,0
714,603,0,0,0,0,0,0,0,0,0,-1,1938,421,0,0
721,603,0,0,0,0,0,0,0,0,0,-1,1945,421,0,0
728,603,0,0,0,0,0,0,0,0,0,-1,1952,421,0,0
735,603,0,0,0,0,0,0,0,0,0,-1,1959,421,0,0
742,603,0,0,0,0,0,0,0,0,0,-1,1966,421,0,0
749,603,0,0,0,0,0,0,0,0,0,-1,1973,421,0,0
756,603,0,0,0,0,0,0,0,0,0,-1,1980,421,0,0
763,603,0,0,0,0,0,0,0,0,0,-1,1987,421,0,0
770,603,0,0,0,0,0,0,0,0,0,-1,1994,421,0,0
777,603,0,0,0,0,0,0,0,0,0,-1,2001,421,0,0
784,603,0,0,0,0,0,0,0,0,0,-1,2008,421,0,0
791,603,0,0,0,0,0,0,0,0,0,-1,2015,421,0,0
798,603,0,0,0,0,0,0,0,0,0,-1,2022,421,0,0
805,603,0,0,0,0,0,0,0,0,0,-1,2029,421,0,0
812,603,0,0,0,0,0,0,0,0,0,-1,2036,421,0,0
-700,596,0,0,0,0,0,0,0,0,0,-1,524,428,0,0
-693,596,0,0,0,0,0,0,0,0,0,-1,531,428,0,0
-686,596,0,0,0,0,0,0,0,0,0,-1,538,428,0,0
-679,596,0,0,0,0,0,0,0,0,0,-1,545,428,0,0
-672,596,0,0,0,0,0,0,0,0,0,-1,552,428,0,0
-665,596,0,0,0,0,0,0,0,0,0,-1,559,428,0,0
-658,596,0,0,0,0,0,0,0,0,0,-1,566,428,0,0
-651,596,0,0,0,0,0,0,0,0,0,-1,573,428,0,0
-644,596,0,0,0,0,0,0,0,0,0,-1,580,428,0,0
-637,596,0,0,0,0,0,0,0,0,0,-1,587,428,0,0
-630,596,0,0,0,0,0,0,0,0,0,-1,594,428,0,0
-623,596,0,0,0,0,0,0,0,0,0,-1,601,428,0,0
-616,596,0,0,0,0,0,0,0,0,0,-1,608,428,0,0
-609,596,0,0,0,0,0,0,0,0,0,-1,615,428,0,0
-602,596,0,0,0,0,0,0,0,0,0,-1,622,428,0,0
-595,596,0,0,0,0,0,0,0,0,0,-1,629,428,0,0
-588,596,0,0,0,0,0,0,0,0,0,-1,636,428,0,0
-581,596,0,0,0,0,0,0,0,0,0,-1,643,428,0,0
-574,596,0,0,0,0,0,0,0,0,0,-1,650,428,0,0
-567,596,0,0,0,0,0,0,0,0,0,-1,657,428,0,0
-560,596,0,0,0,0,0,0,0,0,0,-1,664,428,0,0
-553,596,0,0,0,0,0,0,0,0,0,-1,671,428,0,0
-546,596,0,0,0,0,0,0,0,0,0,-1,678,428,0,0
-539,596,0,0,0,0,0,0,0,0,0,-1,685,428,0,0
-532,596,0,0,0,0,0,0,0,0,0,-1,692,428,0,0
-525,596,0,0,0,0,0,0,0,0,0,-1,699,428,0,0
-518,596,0,0,0,0,0,0,0,0,0,-1,706,428,0,0
-511,596,0,0,0,0,0,0,0,0,0,-1,713,428,0,0
-504,596,0,0,0,0,0,0,0,0,0,-1,720,428,0,0
-497,596,0,0,0,0,0,0,0,0,0,-1,727,428,0,0
-490,596,0,0,0,0,0,0,0,0,0,-1,734,428,0,0
-483,596,0,0,0,0,0,0,0,0,0,-1,741,428,0,0
-476,596,0,0,0,0,0,0,0,0,0,-1,748,428,0,0
-469,596,0,0,0,0,0,0,0,0,0,-1,755,428,0,0
-462,596,0,0,0,0,0,0,0,0,0,-1,762,428,0,0
-455,596,0,0,0,0,0,0,0,0,0,-1,769,428,0,0
-448,596,0,0,0,0,0,0,0,0,0,-1,776,428,0,0
-441,596,0,0,0,0,0,0,0,0,0,-1,783,428,0,0
-434,596,0,0,0,0,0,0,0,0,0,-1,790,428,0,0
-427,596,0,0,0,0,0,0,0,0,0,-1,797,428,0,0
-420,596,0,0,0,0,0,0,0,0,0,-1,804,428,0,0
-413,596,0,0,0,0,0,0,0,0,0,-1,811,428,0,0
-406,596,0,0,0,0,0,0,0,0,0,-1,818,428,0,0
-399,596,0,0,0,0,0,0,0,0,0,-1,825,428,0,0
-392,596,0,0,0,0,0,0,0,0,0,-1,832,428,0,0
-385,596,0,0,0,0,0,0,0,0,0,-1,839,428,0,0
-378,596,0,0,0,0,0,0,0,0,0,-1,846,428,0,0
-371,596,0,0,0,0,0,0,0,0,0,-1,853,428,0,0
-364,596,0,0,0,0,0,0,0,0,0,-1,860,428,0,0
-357,596,0,0,0,0,0,0,0,0,0,-1,867,428,0,0
-350,596,0,0,0,0,0,0,0,0,0,-1,874,428,0,0
-343,596,0,0,0,0,0,0,0,0,0,-1,881,428,0,0
-336,596,-0.98291,-20.0836,0,0,0,0,0,0,0,-1,888,428,-0.982933,20.0836
-329,596,4.43048,-20.1666,0,0,0,0,0,0,0,-1,895,428,4.43045,20.1666
-322,596,4.29657,-19.996,0,0,0,0,0,0,0,-1,902,428,4.29655,19.996
-315,596,4.20044,-19.8317,0,0,0,0,0,0,0,-1,909,428,4.20045,19.8317
-308,596,0.254761,-20.841,0,0,0,0,0,0,0,-1,916,428,0.254731,20.841
-301,596,5.21362,-27.344,0,0,0,0,0,0,0,-1,923,428,5.21365,27.344
-294,596,3.50983,-25.2827,0,0,0,0,0,0,0,-1,930,428,3.50982,25.2827
-287,596,4.15265,-26.8356,0,0,0,0,0,0,0,-1,937,428,4.15263,26.8356
-280,596,3.79395,-27.9272,0,0,0,0,0,0,0,-1,944,428,3.79397,27.9272
-273,596,3.83972,-27.6802,0,0,0,0,0,0,0,-1,951,428,3.83971,27.6802
-266,596,3.82428,-28.1965,0,0,0,0,0,0,0,-1,958,428,3.82425,28.1965
-259,596,3.88757,-28.8846,0.000534631,0.0131352,-0.0105796,0.0191484,-0.00547854,-1.05396,0.0149307,0.0404398,965,428,3.88756,28.8846
-252,596,3.92664,-29.7659,2.75232e-05,0.0135921,-0.00922947,0.0182633,-0.00464369,-1.10227,0.0139828,0.0203273,972,428,3.92663,29.7659
-245,596,3.92767,-30.3937,-0.000263548,0.013896,-0.00813969,0.0176041,-0.00397163,-1.14333,0.0132597,0.0143415,979,428,3.9277,30.3938
-238,596,3.92126,-30.925,-0.000475223,0.0133594,-0.00708277,0.0163424,-0.00345815,-1.17219,0.0122119,0.0124181,986,428,3.92126,30.925
-231,596,3.86047,-31.4599,-0.000648951,0.012558,-0.00604189,0.0149049,-0.00299591,-1.20029,0.0110712,0.0131021,993,428,3.86049,31.4599
-224,596,3.8385,-31.9895,-0.000791065,0.0115981,-0.00512174,0.0134413,-0.00263421,-1.22536,0.00995576,0.0131466,1000,428,3.8385,31.9895
-217,596,3.82239,-32.5081,-0.000836965,0.0101491,-0.00441612,0.0117041,-0.00239202,-1.23222,0.00871028,0.0137196,1007,428,3.82236,32.5081
-210,596,3.82562,-32.9809,-0.000663536,0.00844704,-0.00365672,0.00973317,-0.00194967,-1.23259,0.00722688,0.0127313,1014,428,3.82565,32.9809
-203,596,3.81567,-33.4584,-0.000503347,0.00649453,-0.00276048,0.00745236,-0.00146118,-1.23681,0.00552014,0.0167775,1021,428,3.81571,33.4584
-196,596,3.79797,-33.9483,-0.000267809,0.00486884,-0.00206876,0.00559841,-0.000997374,-1.23176,0.00410532,0.0172654,1028,428,3.79801,33.9483
-189,596,3.75806,-34.39,1.86323e-05,0.00330134,-0.00145355,0.00385244,-0.000532467,-1.2084,0.00276294,0.0139662,1035,428,3.7581,34.39
-182,596,3.74658,-34.8353,0.000306967,0.00151254,-0.000829586,0.00193521,-0.000115706,-1.09958,0.00133039,0.0129291,1042,428,3.74656,34.8353
-175,596,3.72913,-35.2969,0.000500839,-0.00070465,-0.000137748,0.000516378,-0.00072019,-0.112338,0.000717158,0.0146043,1049,428,3.7291,35.2969
-168,596,3.70618,-35.7564,0.00062121,-0.0027958,0.00052456,0.000699924,-0.00287452,0.148946,0.00218731,0.0165432,1056,428,3.70622,35.7565
-161,596,3.70447,-36.1963,0.000717918,-0.0047396,0.00112226,0.000939684,-0.00496137,0.195093,0.00366122,0.0154813,1063,428,3.70452,36.1963
-154,596,3.6759,-36.6216,0.000833599,-0.0064367,0.00162362,0.00117971,-0.00678282,0.21003,0.00496208,0.0126938,1070,428,3.67593,36.6216
-147,596,3.71655,-37.0304,0.000924261,-0.00818265,0.00208771,0.00138005,-0.00863843,0.214946,0.00626981,0.0127342,1077,428,3.71651,37.0304
-140,596,3.73145,-37.4199,0.000974255,-0.00990986,0.00246375,0.00150598,-0.0104416,0.212559,0.00751352,0.0142133,1084,428,3.73148,37.4199
-133,596,3.70618,-37.8097,0.000943824,-0.0113899,0.0027265,0.00151966,-0.0119657,0.208142,0.00852893,0.0146709,1091,428,3.70624,37.8097
-126,596,3.72217,-38.172,0.00100045,-0.0124498,0.00289718,0.00159795,-0.0130473,0.203386,0.00927686,0.0118544,1098,428,3.72217,38.172
-119,596,3.7334,-38.5658,0.00126573,-0.0132572,0.00289391,0.00182115,-0.0138126,0.189619,0.00987159,0.014847,1105,428,3.73343,38.5658
-112,596,3.73096,-38.9534,0.00155801,-0.0137805,0.00276892,0.00204255,-0.014265,0.173239,0.0102589,0.0158768,1112,428,3.73093,38.9534
-105,596,3.75378,-39.3297,0.00200651,-0.0140122,0.00260307,0.0024189,-0.0144246,0.157117,0.0105159,0.0180866,1119,428,3.75379,39.3297
-98,596,3.81763,-39.6392,0.00257917,-0.0139133,0.00248173,0.00294452,-0.0142787,0.146165,0.0106373,0.0195634,1126,428,3.81767,39.6391
-91,596,3.78564,-39.9504,0,0,0,0,0,0,0,-1,1133,428,3.78562,39.9504
-84,596,3.85522,-40.3036,0,0,0,0,0,0,0,-1,1140,428,3.85517,40.3036
-77,596,3.97913,-40.7364,0,0,0,0,0,0,0,-1,1147,428,3.97911,40.7364
-70,596,3.50696,-32.137,0,0,0,0,0,0,0,-1,1154,428,3.50696,32.137
-63,596,1.95569,-12.2758,0,0,0,0,0,0,0,-1,1161,428,1.95563,12.2759
-56,596,1.60107,-10.5827,0,0,0,0,0,0,0,-1,1168,428,1.60108,10.5827
-49,596,1.59473,-10.0393,0,0,0,0,0,0,0,-1,1175,428,1.59472,10.0393
-42,596,1.99585,-6.6246,0,0,0,0,0,0,0,-1,1182,428,1.99586,6.62459
-35,596,3.98999,-41.8055,0,0,0,0,0,0,0,-1,1189,428,3.99004,41.8055
-28,596,4.17969,-42.0378,0,0,0,0,0,0,0,-1,1196,428,4.1797,42.0378
-21,596,4.26331,-42.2,0,0,0,0,0,0,0,-1,1203,428,4.26329,42.2
-14,596,4.13208,-42.0224,0,0,0,0,0,0,0,-1,1210,428,4.1321,42.0224
-7,596,4.53589,-42.4548,0,0,0,0,0,0,0,-1,1217,428,4.53594,42.4548
0,596,4.453,-42.7076,0,0,0,0,0,0,0,-1,1224,428,4.45305,42.7076
7,596,4.64441,-42.4636,0,0,0,0,0,0,0,-1,1231,428,4.64439,42.4636
14,596,5.11792,-42.1323,0,0,0,0,0,0,0,-1,1238,428,5.1179,42.1323
21,596,5.0116,-42.2262,0,0,0,0,0,0,0,-1,1245,428,5.0116,42.2262
28,596,5.08289,-42.3065,0,0,0,0,0,0,0,-1,1252,428,5.08288,42.3065
35,596,5.10962,-42.1748,0,0,0,0,0,0,0,-1,1259,428,5.10967,42.1748
42,596,5.18054,-42.8807,0,0,0,0,0,0,0,-1,1266,428,5.18059,42.8807
49,596,5.38745,-43.411,-0.0188776,0.00502433,0.00571653,0.00632117,-0.0201744,1.34771,0.015979,0.0479284,1273,428,5.38739,43.411
56,596,5.28003,-43.0495,-0.0200154,0.00499237,0.00791604,0.0072875,-0.0223105,1.2886,0.0178071,0.0451317,1280,428,5.28,43.0495
63,596,5.17224,-42.6977,-0.0203854,0.00455846,0.00985777,0.00798385,-0.0238108,1.23637,0.0190997,0.045185,1287,428,5.17229,42.6977
70,596,5.11853,-42.5239,-0.0200938,0.00393318,0.0113506,0.00844727,-0.0246079,1.19228,0.0198301,0.043222,1294,428,5.11858,42.5239
77,596,5.21375,-42.322,0,0,0,0,0,0,0,-1,1301,428,5.21378,42.322
84,596,4.02234,-40.4504,0,0,0,0,0,0,0,-1,1308,428,4.02234,40.4504
91,596,7.6427,-45.0298,0,0,0,0,0,0,0,-1,1315,428,7.64269,45.0298
98,596,8.46594,-44.5129,0,0,0,0,0,0,0,-1,1322,428,8.46597,44.5129
105,596,8.97937,-43.7664,0,0,0,0,0,0,0,-1,1329,428,8.97933,43.7664
112,596,6.60059,-42.443,0,0,0,0,0,0,0,-1,1336,428,6.60059,42.443
119,596,6.91516,-42.1123,0,0,0,0,0,0,0,-1,1343,428,6.91516,42.1123
126,596,6.45776,-44.6136,0,0,0,0,0,0,0,-1,1350,428,6.45776,44.6136
133,596,6.6582,-41.873,0,0,0,0,0,0,0,-1,1357,428,6.6582,41.873
140,596,6.97571,-41.5898,0,0,0,0,0,0,0,-1,1364,428,6.97573,41.5898
147,596,6.70288,-41.5172,0,0,0,0,0,0,0,-1,1371,428,6.70287,41.5172
154,596,6.43835,-41.6735,0,0,0,0,0,0,0,-1,1378,428,6.43831,41.6735
161,596,6.80969,-41.6418,0,0,0,0,0,0,0,-1,1385,428,6.80971,41.6418
168,596,7.05591,-41.2248,0,0,0,0,0,0,0,-1,1392,428,7.05591,41.2248
175,596,7.23218,-40.9414,0,0,0,0,0,0,0,-1,1399,428,7.23222,40.9414
182,596,7.33289,-40.947,0,0,0,0,0,0,0,-1,1406,428,7.33287,40.947
189,596,7.29956,-40.7592,0,0,0,0,0,0,0,-1,1413,428,7.29959,40.7593
196,596,7.18298,-40.2864,0,0,0,0,0,0,0,-1,1420,428,7.18299,40.2864
203,596,7.10315,-40.2295,0,0,0,0,0,0,0,-1,1427,428,7.10313,40.2295
210,596,7.15442,-40.0899,0,0,0,0,0,0,0,-1,1434,428,7.15446,40.09
217,596,7.21094,-39.698,0,0,0,0,0,0,0,-1,1441,428,7.21095,39.698
224,596,7.27783,-39.3231,0,0,0,0,0,0,0,-1,1448,428,7.27783,39.3231
231,596,7.34363,-38.9833,0.00277264,-0.000526355,-0.00114631,0.00313184,-0.000885554,-0.303662,0.00243731,0.0242327,1455,428,7.34369,38.9833
238,596,7.33582,-38.5775,0.00255749,0.000488666,-0.000509478,0.00267615,0.000370005,-0.228827,0.00167445,0.0179186,1462,428,7.33578,38.5775
245,596,7.34827,-38.1998,0.00260581,0.00106274,-0.000124605,0.00261581,0.00105274,-0.0800599,0.00151979,0.0150413,1469,428,7.34832,38.1998
252,596,7.3623,-37.7881,0.00258931,0.00155992,0.000180493,0.00262004,0.00152919,0.16864,0.00151972,0.0109977,1476,428,7.36226,37.7881
259,596,7.37622,-37.3664,0.00239737,0.00173681,0.000411483,0.00259473,0.00153945,0.44722,0.00150674,0.00910889,1483,428,7.37623,37.3664
266,596,7.38184,-36.9599,0.00217134,0.00183735,0.000537455,0.00256715,0.00144154,0.634769,0.00148588,0.0105417,1490,428,7.38189,36.9599
273,596,7.40039,-36.5363,0.00203905,0.0020984,0.000740084,0.0028094,0.00132805,0.805437,0.00162281,0.0115325,1497,428,7.40041,36.5363
280,596,7.40527,-36.0978,0.00195856,0.00235087,0.000980909,0.00315504,0.00115439,0.884082,0.00184328,0.0120306,1504,428,7.40526,36.0978
287,596,7.39795,-35.6482,0.00193967,0.00270237,0.00127206,0.00364901,0.000993031,0.931031,0.00217846,0.0120877,1511,428,7.39797,35.6482
294,596,7.38245,-35.1836,0.00187491,0.0031988,0.00159413,0.00426295,0.000810755,0.982186,0.00261397,0.0100531,1518,428,7.38244,35.1836
301,596,7.38098,-34.7311,0.0017436,0.00371153,0.0019342,0.00489766,0.000557469,1.0207,0.00309606,0.0107202,1525,428,7.38102,34.7312
308,596,7.38147,-34.2509,0.00164014,0.00419477,0.0023055,0.00555314,0.000281767,1.03836,0.00361184,0.0166619,1532,428,7.38148,34.2509
315,596,7.33167,-33.733,0.00151711,0.00484469,0.00267048,0.00632727,3.45332e-05,1.06399,0.00420672,0.017007,1539,428,7.33169,33.733
322,596,7.31592,-33.2586,0.00129065,0.00542288,0.00304521,0.00703673,-0.000323197,1.08347,0.00480251,0.0140466,1546,428,7.31593,33.2586
329,596,7.29297,-32.7809,0.000976783,0.00588535,0.00336974,0.00759983,-0.000737705,1.10014,0.0053295,0.0107854,1553,428,7.29297,32.7809
336,596,7.26501,-32.2804,0.000625144,0.00633305,0.00365233,0.00811424,-0.00115605,1.11705,0.00583316,0.00983545,1560,428,7.26497,32.2804
343,596,7.26416,-31.766,0.00023735,0.00687687,0.00394012,0.00870932,-0.00159511,1.13548,0.00640448,0.0125981,1567,428,7.26414,31.766
350,596,7.25122,-31.2155,-0.000155384,0.00776023,0.00434542,0.00968009,-0.00207524,1.15477,0.0072449,0.0130844,1574,428,7.25116,31.2155
357,596,7.20654,-30.6583,-0.000567191,0.00857275,0.00478524,0.0106197,-0.0026141,1.16659,0.00809312,0.0102369,1581,428,7.2066,30.6583
364,596,7.16541,-30.0874,-0.00111342,0.00940344,0.00516215,0.0115138,-0.00322377,1.18272,0.0089462,0.0126784,1588,428,7.16543,30.0874
371,596,7.1554,-29.5628,-0.00178135,0.0104193,0.00541218,0.0124741,-0.00383611,1.20795,0.00984708,0.0162956,1595,428,7.15535,29.5628
378,596,7.07727,-29.0562,-0.00223116,0.0119135,0.00579323,0.0139833,-0.00430101,1.22764,0.0110388,0.0224498,1602,428,7.07731,29.0562
385,596,7.0105,-28.4237,-0.00232493,0.0135259,0.00594003,0.0155048,-0.00430387,1.24921,0.0120306,0.043659,1609,428,7.01045,28.4237
392,596,7.01746,-27.4341,0,0,0,0,0,0,0,-1,1616,428,7.01741,27.4341
399,596,6.88599,-26.537,0,0,0,0,0,0,0,-1,1623,428,6.88599,26.5371
406,596,3.60034,-10.1525,0,0,0,0,0,0,0,-1,1630,428,3.60028,10.1525
413,596,3.39124,-2.63528,0,0,0,0,0,0,0,-1,1637,428,3.39122,2.6353
420,596,2.6344,-3.06308,0,0,0,0,0,0,0,-1,1644,428,2.63439,3.06308
427,596,7.61975,-22.7222,0,0,0,0,0,0,0,-1,1651,428,7.61974,22.7222
434,596,5.09753,-22.5213,0,0,0,0,0,0,0,-1,1658,428,5.09755,22.5213
441,596,7.19043,-22.087,0,0,0,0,0,0,0,-1,1665,428,7.19046,22.087
448,596,1.0769,0.0083313,0,0,0,0,0,0,0,-1,1672,428,1.07684,-0.00832231
455,596,2.00769,-1.43329,0,0,0,0,0,0,0,-1,1679,428,2.00765,1.4333
462,596,0,0,0,0,0,0,0,0,0,-1,1686,428,0,0
469,596,0,0,0,0,0,0,0,0,0,-1,1693,428,0,0
476,596,0,0,0,0,0,0,0,0,0,-1,1700,428,0,0
483,596,0,0,0,0,0,0,0,0,0,-1,1707,428,0,0
490,596,0,0,0,0,0,0,0,0,0,-1,1714,428,0,0
497,596,0,0,0,0,0,0,0,0,0,-1,1721,428,0,0
504,596,0,0,0,0,0,0,0,0,0,-1,1728,428,0,0
511,596,0,0,0,0,0,0,0,0,0,-1,1735,428,0,0
518,596,0,0,0,0,0,0,0,0,0,-1,1742,428,0,0
525,596,0,0,0,0,0,0,0,0,0,-1,1749,428,0,0
532,596,0,0,0,0,0,0,0,0,0,-1,1756,428,0,0
539,596,0,0,0,0,0,0,0,0,0,-1,1763,428,0,0
546,596,0,0,0,0,0,0,0,0,0,-1,1770,428,0,0
553,596,0,0,0,0,0,0,0,0,0,-1,1777,428,0,0
560,596,0,0,0,0,0,0,0,0,0,-1,1784,428,0,0
567,596,0,0,0,0,0,0,0,0,0,-1,1791,428,0,0
574,596,0,0,0,0,0,0,0,0,0,-1,1798,428,0,0
581,596,0,0,0,0,0,0,0,0,0,-1,1805,428,0,0
588,596,0,0,0,0,0,0,0,0,0,-1,1812,428,0,0
595,596,0,0,0,0,0,0,0,0,0,-1,1819,428,0,0
602,596,0,0,0,0,0,0,0,0,0,-1,1826,428,0,0
609,596,0,0,0,0,0,0,0,0,0,-1,1833,428,0,0
616,596,0,0,0,0,0,0,0,0,0,-1,1840,428,0,0
623,596,0,0,0,0,0,0,0,0,0,-1,1847,428,0,0
630,596,0,0,0,0,0,0,0,0,0,-1,1854,428,0,0
637,596,0,0,0,0,0,0,0,0,0,-1,1861,428,0,0
644,596,0,0,0,0,0,0,0,0,0,-1,1868,428,0,0
651,596,0,0,0,0,0,0,0,0,0,-1,1875,428,0,0
658,596,0,0,0,0,0,0,0,0,0,-1,1882,428,0,0
665,596,0,0,0,0,0,0,0,0,0,-1,1889,428,0,0
672,596,0,0,0,0,0,0,0,0,0,-1,1896,428,0,0
679,596,0,0,0,0,0,0,0,0,0,-1,1903,428,0,0
686,596,0,0,0,0,0,0,0,0,0,-1,1910,428,0,0
693,596,0,0,0,0,0,0,0,0,0,-1,1917,428,0,0
700,596,0,0,0,0,0,0,0,0,0,-1,1924,428,0,0
707,596,0,0,0,0,0,0,0,0,0,-1,1931,428,0,0
714,596,0,0,0,0,0,0,0,0,0,-1,1938,428,0,0
721,596,0,0,0,0,0,0,0,0,0,-1,1945,428,0,0
728,596,0,0,0,0,0,0,0,0,0,-1,1952,428,0,0
735,596,0,0,0,0,0,0,0,0,0,-1,1959,428,0,0
742,596,0,0,0,0,0,0,0,0,0,-1,1966,428,0,0
749,596,0,0,0,0,0,0,0,0,0,-1,1973,428,0,0
756,596,0,0,0,0,0,0,0,0,0,-1,1980,428,0,0
763,596,0,0,0,0,0,0,0,0,0,-1,1987,428,0,0
770,596,0,0,0,0,0,0,0,0,0,-1,1994,428,0,0
777,596,0,0,0,0,0,0,0,0,0,-1,2001,428,0,0
784,596,0,0,0,0,0,0,0,0,0,-1,2008,428,0,0
791,596,0,0,0,0,0,0,0,0,0,-1,2015,428,0,0
798,596,0,0,0,0,0,0,0,0,0,-1,2022,428,0,0
805,596,0,0,0,0,0,0,0,0,0,-1,2029,428,0,0
812,596,0,0,0,0,0,0,0,0,0,-1,2036,428,0,0
-700,589,0,0,0,0,0,0,0,0,0,-1,524,435,0,0
-693,589,0,0,0,0,0,0,0,0,0,-1,531,435,0,0
-686,589,0,0,0,0,0,0,0,0,0,-1,538,435,0,0
-679,589,0,0,0,0,0,0,0,0,0,-1,545,435,0,0
-672,589,0,0,0,0,0,0,0,0,0,-1,552,435,0,0
-665,589,0,0,0,0,0,0,0,0,0,-1,559,435,0,0
-658,589,0,0,0,0,0,0,0,0,0,-1,566,435,0,0
-651,589,0,0,0,0,0,0,0,0,0,-1,573,435,0,0
-644,589,0,0,0,0,0,0,0,0,0,-1,580,435,0,0
-637,589,0,0,0,0,0,0,0,0,0,-1,587,435,0,0
-630,589,0,0,0,0,0,0,0,0,0,-1,594,435,0,0
-623,589,0,0,0,0,0,0,0,0,0,-1,601,435,0,0
-616,589,0,0,0,0,0,0,0,0,0,-1,608,435,0,0
-609,589,0,0,0,0,0,0,0,0,0,-1,615,435,0,0
-602,589,0,0,0,0,0,0,0,0,0,-1,622,435,0,0
-595,589,0,0,0,0,0,0,0,0,0,-1,629,435,0,0
-588,589,0,0,0,0,0,0,0,0,0,-1,636,435,0,0
-581,589,0,0,0,0,0,0,0,0,0,-1,643,435,0,0
-574,589,0,0,0,0,0,0,0,0,0,-1,650,435,0,0
-567,589,0,0,0,0,0,0,0,0,0,-1,657,435,0,0
-560,589,0,0,0,0,0,0,0,0,0,-1,664,435,0,0
-553,589,0,0,0,0,0,0,0,0,0,-1,671,435,0,0
-546,589,0,0,0,0,0,0,0,0,0,-1,678,435,0,0
-539,589,0,0,0,0,0,0,0,0,0,-1,685,435,0,0
-532,589,0,0,0,0,0,0,0,0,0,-1,692,435,0,0
-525,589,0,0,0,0,0,0,0,0,0,-1,699,435,0,0
-518,589,0,0,0,0,0,0,0,0,0,-1,706,435,0,0
-511,589,0,0,0,0,0,0,0,0,0,-1,713,435,0,0
-504,589,0,0,0,0,0,0,0,0,0,-1,720,435,0,0
-497,589,0,0,0,0,0,0,0,0,0,-1,727,435,0,0
-490,589,0,0,0,0,0,0,0,0,0,-1,734,435,0,0
-483,589,0,0,0,0,0,0,0,0,0,-1,741,435,0,0
-476,589,0,0,0,0,0,0,0,0,0,-1,748,435,0,0
-469,589,0,0,0,0,0,0,0,0,0,-1,755,435,0,0
-462,589,0,0,0,0,0,0,0,0,0,-1,762,435,0,0
-455,589,0,0,0,0,0,0,0,0,0,-1,769,435,0,0
-448,589,0,0,0,0,0,0,0,0,0,-1,776,435,0,0
-441,589,0,0,0,0,0,0,0,0,0,-1,783,435,0,0
-434,589,0,0,0,0,0,0,0,0,0,-1,790,435,0,0
-427,589,0,0,0,0,0,0,0,0,0,-1,797,435,0,0
-420,589,0,0,0,0,0,0,0,0,0,-1,804,435,0,0
-413,589,0,0,0,0,0,0,0,0,0,-1,811,435,0,0
-406,589,0,0,0,0,0,0,0,0,0,-1,818,435,0,0
-399,589,0,0,0,0,0,0,0,0,0,-1,825,435,0,0
-392,589,0,0,0,0,0,0,0,0,0,-1,832,435,0,0
-385,589,0,0,0,0,0,0,0,0,0,-1,839,435,0,0
-378,589,0,0,0,0,0,0,0,0,0,-1,846,435,0,0
-371,589,0,0,0,0,0,0,0,0,0,-1,853,435,0,0
-364,589,0,0,0,0,0,0,0,0,0,-1,860,435,0,0
-357,589,0,0,0,0,0,0,0,0,0,-1,867,435,0,0
-350,589,-0.799927,-20.664,0,0,0,0,0,0,0,-1,874,435,-0.799952,20.664
-343,589,-0.370911,-19.1543,0,0,0,0,0,0,0,-1,881,435,-0.370922,19.1543
-336,589,-0.836914,-18.9103,0,0,0,0,0,0,0,-1,888,435,-0.836925,18.9103
-329,589,2.58252,-16.902,0,0,0,0,0,0,0,-1,895,435,2.58251,16.902
-322,589,5.25903,-22.0762,0,0,0,0,0,0,0,-1,902,435,5.25906,22.0762
-315,589,4.17072,-24.5494,0,0,0,0,0,0,0,-1,909,435,4.17071,24.5494
-308,589,3.37006,-25.7446,0,0,0,0,0,0,0,-1,916,435,3.37006,25.7446
-301,589,4.17035,-26.7825,0,0,0,0,0,0,0,-1,923,435,4.17036,26.7825
-294,589,3.40643,-26.2712,0,0,0,0,0,0,0,-1,930,435,3.40645,26.2712
-287,589,3.55798,-26.8893,-0.00886024,0.00216579,-0.014563,0.0122244,-0.0189188,-0.966343,0.0181185,0.049271,937,435,3.55799,26.8893
-280,589,3.45721,-27.6845,-0.00553318,0.00527006,-0.0126777,0.0136489,-0.013912,-0.986788,0.0159126,0.0364648,944,435,3.45723,27.6845
-273,589,3.56238,-28.2027,-0.0032069,0.00733179,-0.0111595,0.0144035,-0.0102786,-1.00597,0.0143164,0.0204798,951,435,3.5624,28.2027
-266,589,3.46863,-28.704,0,0,0,0,0,0,0,-1,958,435,3.46864,28.704
-259,589,3.47797,-29.3036,0.000372946,0.00987165,-0.00830518,0.0146895,-0.00444495,-1.04513,0.0115631,0.0189783,965,435,3.47797,29.3036
-252,589,3.48376,-29.9259,0.000107032,0.0101185,-0.00718219,0.0138672,-0.00364174,-1.08974,0.010668,0.0108775,972,435,3.48376,29.9259
-245,589,3.47198,-30.4619,-1.99767e-05,0.0101794,-0.00627638,0.0131667,-0.0030073,-1.12656,0.00993318,0.0100646,979,435,3.47197,30.4618
-238,589,3.42499,-30.9826,-5.72518e-05,0.00948625,-0.00534481,0.0118795,-0.00245046,-1.1498,0.00885027,0.0136868,986,435,3.42497,30.9826
-231,589,3.38904,-31.4745,-7.7394e-05,0.00852746,-0.00443333,0.0104028,-0.00195277,-1.17061,0.00766947,0.0148624,993,435,3.38901,31.4745
-224,589,3.35272,-31.9861,-9.39961e-05,0.0074709,-0.00358505,0.00889993,-0.00152303,-1.19149,0.00650071,0.0148847,1000,435,3.3527,31.9861
-217,589,3.34259,-32.5119,-3.54675e-05,0.00604645,-0.00289685,0.0072054,-0.00119441,-1.19023,0.00524724,0.0160106,1007,435,3.34261,32.5119
-210,589,3.33917,-32.9947,0.00016937,0.00445179,-0.00219895,0.0053798,-0.000758648,-1.17145,0.00386432,0.0156664,1014,435,3.33914,32.9947
-203,589,3.3302,-33.4532,0.0003701,0.00270256,-0.00141723,0.00337171,-0.000299053,-1.12967,0.00235383,0.0121949,1021,435,3.33021,33.4532
-196,589,3.29688,-33.9153,0.000650731,0.00117115,-0.000753804,0.00170839,0.000113487,-0.951591,0.00110305,0.0146597,1028,435,3.29682,33.9153
-189,589,3.26685,-34.3855,0.00096859,-0.000434086,-0.000129563,0.000980457,-0.000445953,-0.0913385,0.000842591,0.0182373,1035,435,3.26683,34.3855
-182,589,3.28149,-34.8278,0.00125056,-0.00233956,0.000521192,0.0013247,-0.00241369,0.141289,0.00218867,0.0133747,1042,435,3.2815,34.8278
-175,589,3.29041,-35.2796,0.00138012,-0.004717,0.00126854,0.00163351,-0.00497039,0.19716,0.0039717,0.0155368,1049,435,3.29042,35.2796
-168,589,3.29285,-35.7585,0.00145295,-0.00704887,0.00196193,0.00188386,-0.00747977,0.216201,0.00571885,0.0130629,1056,435,3.29288,35.7585
-161,589,3.3042,-36.1822,0.00147151,-0.00928111,0.00260078,0.00206754,-0.00987713,0.225281,0.00737123,0.0126921,1063,435,3.30424,36.1822
-154,589,3.28186,-36.5855,0.00149606,-0.0113539,0.0031657,0.00223363,-0.0120914,0.228903,0.00889942,0.0122881,1070,435,3.28185,36.5855
-147,589,3.30481,-37.0089,0.00150543,-0.0135601,0.0037223,0.00237493,-0.0144296,0.229478,0.0105013,0.0124184,1077,435,3.3048,37.0089
-140,589,3.3208,-37.4032,0.0014483,-0.0157839,0.00419623,0.00241581,-0.0167515,0.226605,0.0120539,0.0143224,1084,435,3.32081,37.4032
-133,589,3.31189,-37.7708,0.00126235,-0.0177515,0.004524,0.00228387,-0.018773,0.222076,0.0133419,0.0141988,1091,435,3.31189,37.7708
-126,589,3.34253,-38.1657,0.00118231,-0.0192016,0.00474661,0.00223341,-0.0202527,0.217925,0.0143045,0.0122083,1098,435,3.34248,38.1657
-119,589,3.31982,-38.546,0.00138088,-0.0203335,0.00470074,0.00235481,-0.0213075,0.204297,0.0150515,0.0181996,1105,435,3.31983,38.546
-112,589,3.33411,-38.92,0.00161431,-0.0210242,0.00445907,0.00246095,-0.0218709,0.187634,0.0154663,0.0192388,1112,435,3.33417,38.92
-105,589,3.38013,-39.4403,0.00203112,-0.0210799,0.00414997,0.00275372,-0.0218025,0.172394,0.0155345,0.0386784,1119,435,3.38008,39.4403
-98,589,3.37048,-40.0113,0,0,0,0,0,0,0,-1,1126,435,3.37042,40.0113
-91,589,3.39563,-37.8231,0,0,0,0,0,0,0,-1,1133,435,3.39565,37.8231
-84,589,2.76538,-22.6013,0,0,0,0,0,0,0,-1,1140,435,2.76539,22.6014
-77,589,2.18152,-14.8023,0,0,0,0,0,0,0,-1,1147,435,2.18155,14.8023
-70,589,1.48267,-9.90961,0,0,0,0,0,0,0,-1,1154,435,1.48264,9.9096
-63,589,0.880127,-5.50586,0,0,0,0,0,0,0,-1,1161,435,0.880186,5.50587
-56,589,-2.78052,-7.28082,0,0,0,0,0,0,0,-1,1168,435,-2.78053,7.28082
-49,589,-0.525757,-2.76703,0,0,0,0,0,0,0,-1,1175,435,-0.525771,2.76702
-42,589,-2.7738,-2.87921,0,0,0,0,0,0,0,-1,1182,435,-2.77383,2.87922
-35,589,-2.55225,-3.27551,0,0,0,0,0,0,0,-1,1189,435,-2.55223,3.27552
-28,589,-0.0632324,-3.42938,0,0,0,0,0,0,0,-1,1196,435,-0.063241,3.42938
-21,589,5.2229,-41.8997,0,0,0,0,0,0,0,-1,1203,435,5.22293,41.8997
-14,589,3.64246,-41.5636,0,0,0,0,0,0,0,-1,1210,435,3.64251,41.5636
-7,589,4.54041,-41.6413,0,0,0,0,0,0,0,-1,1217,435,4.5404,41.6413
0,589,4.70386,-42.539,0,0,0,0,0,0,0,-1,1224,435,4.70386,42.539
7,589,5.1095,-42.5254,0,0,0,0,0,0,0,-1,1231,435,5.10953,42.5254
14,589,6.43823,-43.0794,0,0,0,0,0,0,0,-1,1238,435,6.4382,43.0795
21,589,6.62292,-43.2046,0,0,0,0,0,0,0,-1,1245,435,6.62296,43.2046
28,589,6.81543,-43.3417,0,0,0,0,0,0,0,-1,1252,435,6.81541,43.3418
35,589,7.06006,-43.6053,-0.0195787,0.0113001,0.0012477,0.0113504,-0.0196291,1.53048,0.0180976,0.0467343,1259,435,7.0601,43.6053
42,589,6.58118,-43.529,-0.0221142,0.0103851,0.00343045,0.0107433,-0.0224723,1.46677,0.0195715,0.0476381,1266,435,6.58119,43.529
49,589,5.35864,-43.5107,0,0,0,0,0,0,0,-1,1273,435,5.35865,43.5107
56,589,5.29419,-43.1204,0,0,0,0,0,0,0,-1,1280,435,5.29419,43.1204
63,589,4.96021,-42.7398,-0.0264095,0.00830264,0.0118399,0.0119565,-0.0300634,1.27147,0.0249997,0.044414,1287,435,4.96018,42.7398
70,589,4.7146,-42.5554,-0.0261282,0.00727432,0.014059,0.0124039,-0.0312578,1.22094,0.0259797,0.0446459,1294,435,4.7146,42.5554
77,589,4.63159,-42.2823,0,0,0,0,0,0,0,-1,1301,435,4.63156,42.2823
84,589,3.99438,-41.1346,0,0,0,0,0,0,0,-1,1308,435,3.9944,41.1346
91,589,3.68958,-41.0785,0,0,0,0,0,0,0,-1,1315,435,3.68962,41.0785
98,589,3.67993,-40.6559,0,0,0,0,0,0,0,-1,1322,435,3.67997,40.6559
105,589,8.17981,-48.1904,0,0,0,0,0,0,0,-1,1329,435,8.1798,48.1904
112,589,7.80383,-49.1558,0,0,0,0,0,0,0,-1,1336,435,7.80379,49.1558
119,589,7.60693,-50.0431,0,0,0,0,0,0,0,-1,1343,435,7.60694,50.043
126,589,7.40894,-50.6838,0,0,0,0,0,0,0,-1,1350,435,7.40896,50.6838
133,589,7.16687,-41.7496,0,0,0,0,0,0,0,-1,1357,435,7.16681,41.7496
140,589,6.07727,-41.3155,0,0,0,0,0,0,0,-1,1364,435,6.0773,41.3155
147,589,4.96338,-41.112,0,0,0,0,0,0,0,-1,1371,435,4.96335,41.112
154,589,4.18628,-40.8095,0,0,0,0,0,0,0,-1,1378,435,4.1863,40.8095
161,589,2.00488,-40.5194,0,0,0,0,0,0,0,-1,1385,435,2.00483,40.5194
168,589,0.89917,-39.7728,0,0,0,0,0,0,0,-1,1392,435,0.899149,39.7728
175,589,8.66992,-7.65527,0,0,0,0,0,0,0,-1,1399,435,8.66994,7.65528
182,589,3.8136,-2.45389,0,0,0,0,0,0,0,-1,1406,435,3.81363,2.4539
189,589,3.69983,-3.68149,0,0,0,0,0,0,0,-1,1413,435,3.69987,3.68147
196,589,3.31055,-5.31677,0,0,0,0,0,0,0,-1,1420,435,3.31059,5.31678
203,589,2.72559,-8.84338,0,0,0,0,0,0,0,-1,1427,435,2.72558,8.84338
210,589,3.62378,-14.4032,0,0,0,0,0,0,0,-1,1434,435,3.62378,14.4032
217,589,4.65601,-22.3745,0,0,0,0,0,0,0,-1,1441,435,4.65607,22.3745
224,589,6.79028,-33.9412,0,0,0,0,0,0,0,-1,1448,435,6.79028,33.9412
231,589,7.77991,-39.0434,0,0,0,0,0,0,0,-1,1455,435,7.77993,39.0434
238,589,7.74927,-38.576,0,0,0,0,0,0,0,-1,1462,435,7.74927,38.576
245,589,7.76721,-38.1125,0,0,0,0,0,0,0,-1,1469,435,7.7672,38.1126
252,589,7.76855,-37.7452,0.00373267,0.00138599,-0.000259495,0.00376102,0.00135764,-0.108828,0.00219923,0.0162539,1476,435,7.76852,37.7453
259,589,7.8031,-37.3668,0.00340878,0.00112861,-0.000100213,0.00341318,0.00112422,-0.0438369,0.00200848,0.00929381,1483,435,7.80312,37.3668
266,589,7.80762,-36.932,0.00299506,0.000788752,-0.000116535,0.0030012,0.000782614,-0.0526238,0.00179764,0.00968377,1490,435,7.80762,36.932
273,589,7.83423,-36.5355,0.0027268,0.00070667,-5.15107e-06,0.00272681,0.000706657,-0.00254986,0.00163407,0.0122025,1497,435,7.8342,36.5355
280,589,7.8374,-36.1026,0.00252222,0.000607668,0.000131528,0.00253122,0.000598674,0.0682713,0.00152754,0.0130312,1504,435,7.83741,36.1026
287,589,7.83911,-35.6589,0.00238097,0.000646372,0.000299288,0.00243116,0.000596185,0.166142,0.00146311,0.0117036,1511,435,7.83907,35.6589
294,589,7.85193,-35.1745,0.00220998,0.000950521,0.000526097,0.00240083,0.00075968,0.347987,0.00141692,0.0103408,1518,435,7.85198,35.1745
301,589,7.8446,-34.6979,0.00200217,0.00131915,0.000793447,0.00252448,0.000796835,0.582174,0.00149017,0.0104092,1525,435,7.84461,34.6979
308,589,7.84265,-34.2192,0.00181428,0.00163649,0.00106352,0.00279261,0.000658161,0.743703,0.00168574,0.0109391,1532,435,7.84266,34.2192
315,589,7.82434,-33.7329,0.00161135,0.00219483,0.00132424,0.00325908,0.000547097,0.893822,0.00201526,0.0112204,1539,435,7.8244,33.7329
322,589,7.81152,-33.2568,0.00133674,0.00279635,0.00163779,0.00385957,0.00027351,0.994994,0.0024869,0.0117413,1546,435,7.81152,33.2568
329,589,7.78931,-32.7655,0.00100288,0.00328399,0.00192706,0.00438272,-9.58573e-05,1.05261,0.00295429,0.0102691,1553,435,7.78931,32.7655
336,589,7.77563,-32.2689,0.000699805,0.00383328,0.0022354,0.00499632,-0.000463233,1.09105,0.00349553,0.0100268,1560,435,7.77563,32.2689
343,589,7.76331,-31.772,0.000354923,0.00445997,0.00255914,0.005688,-0.00087311,1.12339,0.00411404,0.012326,1567,435,7.76329,31.772
350,589,7.73718,-31.2261,7.54172e-06,0.00540642,0.00300096,0.00674341,-0.00132944,1.15167,0.00499804,0.0185723,1574,435,7.73723,31.2261
357,589,7.70618,-30.661,-0.000320518,0.00632164,0.0034875,0.00781639,-0.00181527,1.16588,0.00590969,0.0148407,1581,435,7.70616,30.661
364,589,7.70007,-30.1143,-0.000705535,0.00725931,0.00394474,0.0088823,-0.00232853,1.18047,0.0068313,0.0116093,1588,435,7.70005,30.1144
371,589,7.68701,-29.5747,-0.00113904,0.00833206,0.00435039,0.010027,-0.00283399,1.19928,0.00780282,0.0114393,1595,435,7.68707,29.5747
378,589,7.63611,-29.0175,-0.00149652,0.00964801,0.00476445,0.0114072,-0.0032557,1.21709,0.008891,0.0127431,1602,435,7.63605,29.0175
385,589,7.61499,-28.4209,-0.00157415,0.0110165,0.00495596,0.0127332,-0.00329086,1.23734,0.00977223,0.0184563,1609,435,7.61502,28.4209
392,589,7.56934,-27.7118,-0.000901415,0.0121269,0.00492881,0.0137815,-0.00255594,1.24693,0.0101475,0.025024,1616,435,7.56935,27.7118
399,589,7.5376,-26.9417,0.00024377,0.0135022,0.00547954,0.0154737,-0.0017277,1.22543,0.0109373,0.0393718,1623,435,7.53761,26.9417
406,589,7.453,-26.3388,0,0,0,0,0,0,0,-1,1630,435,7.45295,26.3388
413,589,5.61377,-19.0606,0,0,0,0,0,0,0,-1,1637,435,5.61372,19.0606
420,589,2.79724,-5.79956,0,0,0,0,0,0,0,-1,1644,435,2.7973,5.79955
427,589,6.92615,-25.0512,0,0,0,0,0,0,0,-1,1651,435,6.92619,25.0512
434,589,6.94019,-24.1968,0,0,0,0,0,0,0,-1,1658,435,6.94021,24.1968
441,589,7.03076,-23.7162,0,0,0,0,0,0,0,-1,1665,435,7.03082,23.7162
448,589,0.453735,-3.2868,0,0,0,0,0,0,0,-1,1672,435,0.453701,3.28681
455,589,0.664307,-3.46848,0,0,0,0,0,0,0,-1,1679,435,0.66425,3.46846
462,589,3.46716,-4.41891,0,0,0,0,0,0,0,-1,1686,435,3.4672,4.41891
469,589,0.0238037,-3.81497,0,0,0,0,0,0,0,-1,1693,435,0.0237965,3.81498
476,589,0,0,0,0,0,0,0,0,0,-1,1700,435,0,0
483,589,0,0,0,0,0,0,0,0,0,-1,1707,435,0,0
490,589,0,0,0,0,0,0,0,0,0,-1,1714,435,0,0
497,589,0,0,0,0,0,0,0,0,0,-1,1721,435,0,0
504,589,0,0,0,0,0,0,0,0,0,-1,1728,435,0,0
511,589,0,0,0,0,0,0,0,0,0,-1,1735,435,0,0
518,589,0,0,0,0,0,0,0,0,0,-1,1742,435,0,0
525,589,0,0,0,0,0,0,0,0,0,-1,1749,435,0,0
532,589,0,0,0,0,0,0,0,0,0,-1,1756,435,0,0
539,589,0,0,0,0,0,0,0,0,0,-1,1763,435,0,0
546,589,0,0,0,0,0,0,0,0,0,-1,1770,435,0,0
553,589,0,0,0,0,0,0,0,0,0,-1,1777,435,0,0
560,589,0,0,0,0,0,0,0,0,0,-1,1784,435,0,0
567,589,0,0,0,0,0,0,0,0,0,-1,1791,435,0,0
574,589,0,0,0,0,0,0,0,0,0,-1,1798,435,0,0
581,589,0,0,0,0,0,0,0,0,0,-1,1805,435,0,0
588,589,0,0,0,0,0,0,0,0,0,-1,1812,435,0,0
595,589,0,0,0,0,0,0,0,0,0,-1,1819,435,0,0
602,589,0,0,0,0,0,0,0,0,0,-1,1826,435,0,0
609,589,0,0,0,0,0,0,0,0,0,-1,1833,435,0,0
616,589,0,0,0,0,0,0,0,0,0,-1,1840,435,0,0
623,589,0,0,0,0,0,0,0,0,0,-1,1847,435,0,0
630,589,0,0,0,0,0,0,0,0,0,-1,1854,435,0,0
637,589,0,0,0,0,0,0,0,0,0,-1,1861,435,0,0
644,589,0,0,0,0,0,0,0,0,0,-1,1868,435,0,0
651,589,0,0,0,0,0,0,0,0,0,-1,1875,435,0,0
658,589,0,0,0,0,0,0,0,0,0,-1,1882,435,0,0
665,589,0,0,0,0,0,0,0,0,0,-1,1889,435,0,0
672,589,0,0,0,0,0,0,0,0,0,-1,1896,435,0,0
679,589,0,0,0,0,0,0,0,0,0,-1,1903,435,0,0
686,589,0,0,0,0,0,0,0,0,0,-1,1910,435,0,0
693,589,0,0,0,0,0,0,0,0,0,-1,1917,435,0,0
700,589,0,0,0,0,0,0,0,0,0,-1,1924,435,0,0
707,589,0,0,0,0,0,0,0,0,0,-1,1931,435,0,0
714,589,0,0,0,0,0,0,0,0,0,-1,1938,435,0,0
721,589,0,0,0,0,0,0,0,0,0,-1,1945,435,0,0
728,589,0,0,0,0,0,0,0,0,0,-1,1952,435,0,0
735,589,0,0,0,0,0,0,0,0,0,-1,1959,435,0,0
742,589,0,0,0,0,0,0,0,0,0,-1,1966,435,0,0
749,589,0,0,0,0,0,0,0,0,0,-1,1973,435,0,0
756,589,0,0,0,0,0,0,0,0,0,-1,1980,435,0,0
763,589,0,0,0,0,0,0,0,0,0,-1,1987,435,0,0
770,589,0,0,0,0,0,0,0,0,0,-1,1994,435,0,0
777,589,0,0,0,0,0,0,0,0,0,-1,2001,435,0,0
784,589,0,0,0,0,0,0,0,0,0,-1,2008,435,0,0
791,589,0,0,0,0,0,0,0,0,0,-1,2015,435,0,0
798,589,0,0,0,0,0,0,0,0,0,-1,2022,435,0,0
805,589,0,0,0,0,0,0,0,0,0,-1,2029,435,0,0
812,589,0,0,0,0,0,0,0,0,0,-1,2036,435,0,0
-700,582,0,0,0,0,0,0,0,0,0,-1,524,442,0,0
-693,582,0,0,0,0,0,0,0,0,0,-1,531,442,0,0
-686,582,0,0,0,0,0,0,0,0,0,-1,538,442,0,0
-679,582,0,0,0,0,0,0,0,0,0,-1,545,442,0,0
-672,582,0,0,0,0,0,0,0,0,0,-1,552,442,0,0
-665,582,0,0,0,0,0,0,0,0,0,-1,559,442,0,0
-658,582,0,0,0,0,0,0,0,0,0,-1,566,442,0,0
-651,582,0,0,0,0,0,0,0,0,0,-1,573,442,0,0
-644,582,0,0,0,0,0,0,0,0,0,-1,580,442,0,0
-637,582,0,0,0,0,0,0,0,0,0,-1,587,442,0,0
-630,582,0,0,0,0,0,0,0,0,0,-1,594,442,0,0
-623,582,0,0,0,0,0,0,0,0,0,-1,601,442,0,0
-616,582,0,0,0,0,0,0,0,0,0,-1,608,442,0,0
-609,582,0,0,0,0,0,0,0,0,0,-1,615,442,0,0
-602,582,0,0,0,0,0,0,0,0,0,-1,622,442,0,0
-595,582,0,0,0,0,0,0,0,0,0,-1,629,442,0,0
-588,582,0,0,0,0,0,0,0,0,0,-1,636,442,0,0
-581,582,0,0,0,0,0,0,0,0,0,-1,643,442,0,0
-574,582,0,0,0,0,0,0,0,0,0,-1,650,442,0,0
-567,582,0,0,0,0,0,0,0,0,0,-1,657,442,0,0
-560,582,0,0,0,0,0,0,0,0,0,-1,664,442,0,0
-553,582,0,0,0,0,0,0,0,0,0,-1,671,442,0,0
-546,582,0,0,0,0,0,0,0,0,0,-1,678,442,0,0
-539,582,0,0,0,0,0,0,0,0,0,-1,685,442,0,0
-532,582,0,0,0,0,0,0,0,0,0,-1,692,442,0,0
-525,582,0,0,0,0,0,0,0,0,0,-1,699,442,0,0
-518,582,0,0,0,0,0,0,0,0,0,-1,706,442,0,0
-511,582,0,0,0,0,0,0,0,0,0,-1,713,442,0,0
-504,582,0,0,0,0,0,0,0,0,0,-1,720,442,0,0
-497,582,0,0,0,0,0,0,0,0,0,-1,727,442,0,0
-490,582,0,0,0,0,0,0,0,0,0,-1,734,442,0,0
-483,582,0,0,0,0,0,0,0,0,0,-1,741,442,0,0
-476,582,0,0,0,0,0,0,0,0,0,-1,748,442,0,0
-469,582,0,0,0,0,0,0,0,0,0,-1,755,442,0,0
-462,582,0,0,0,0,0,0,0,0,0,-1,762,442,0,0
-455,582,0,0,0,0,0,0,0,0,0,-1,769,442,0,0
-448,582,0,0,0,0,0,0,0,0,0,-1,776,442,0,0
-441,582,0,0,0,0,0,0,0,0,0,-1,783,442,0,0
-434,582,0,0,0,0,0,0,0,0,0,-1,790,442,0,0
-427,582,0,0,0,0,0,0,0,0,0,-1,797,442,0,0
-420,582,0,0,0,0,0,0,0,0,0,-1,804,442,0,0
-413,582,0,0,0,0,0,0,0,0,0,-1,811,442,0,0
-406,582,0,0,0,0,0,0,0,0,0,-1,818,442,0,0
-399,582,0,0,0,0,0,0,0,0,0,-1,825,442,0,0
-392,582,0,0,0,0,0,0,0,0,0,-1,832,442,0,0
-385,582,0,0,0,0,0,0,0,0,0,-1,839,442,0,0
-378,582,0,0,0,0,0,0,0,0,0,-1,846,442,0,0
-371,582,0,0,0,0,0,0,0,0,0,-1,853,442,0,0
-364,582,0,0,0,0,0,0,0,0,0,-1,860,442,0,0
-357,582,-1.4903,-21.5295,0,0,0,0,0,0,0,-1,867,442,-1.49031,21.5295
-350,582,-0.880859,-19.7966,0,0,0,0,0,0,0,-1,874,442,-0.880885,19.7966
-343,582,-0.208557,-18.0078,0,0,0,0,0,0,0,-1,881,442,-0.208576,18.0078
-336,582,-0.167114,-18.7637,0,0,0,0,0,0,0,-1,888,442,-0.167108,18.7637
-329,582,4.35913,-21.6647,0,0,0,0,0,0,0,-1,895,442,4.35915,21.6647
-322,582,5.75549,-23.4596,0,0,0,0,0,0,0,-1,902,442,5.7555,23.4596
-315,582,2.90936,-24.9286,0,0,0,0,0,0,0,-1,909,442,2.90938,24.9286
-308,582,3.03015,-25.4803,-0.024314,-0.00310742,-0.0158552,0.00536332,-0.0327847,-1.08012,0.0238462,0.0494008,916,442,3.03013,25.4803
-301,582,3.20813,-26.2066,-0.0171736,-0.00122204,-0.0143852,0.0072505,-0.0256462,-1.03852,0.0199582,0.0437415,923,442,3.20811,26.2066
-294,582,2.98035,-26.4295,-0.0117517,0.00079135,-0.012766,0.00874317,-0.0197035,-1.01372,0.0168252,0.0460297,930,442,2.98034,26.4295
-287,582,3.07544,-26.974,-0.0078789,0.0023412,-0.0111223,0.00947113,-0.0150088,-1.00074,0.0142535,0.0418481,937,442,3.07541,26.974
-280,582,3.11615,-27.5722,-0.00506475,0.00433322,-0.0097588,0.0104654,-0.011197,-1.00977,0.0125092,0.0198092,944,442,3.11612,27.5722
-273,582,3.09192,-28.2051,-0.00303695,0.0056235,-0.00860545,0.0109268,-0.00834024,-1.0185,0.0111572,0.0108635,951,442,3.09189,28.2051
-266,582,3.05756,-28.7937,-0.00067133,0.0060565,-0.00774019,0.0111322,-0.00574699,-0.990387,0.00990913,0.0104704,958,442,3.05753,28.7937
-259,582,3.02063,-29.3577,0.000276194,0.00714441,-0.00632372,0.0109063,-0.00348571,-1.03414,0.00866959,0.00884261,965,442,3.02066,29.3577
-252,582,2.99573,-29.9228,0.000209444,0.00714143,-0.00534677,0.0100473,-0.00269646,-1.07297,0.00775492,0.00771694,972,442,2.99571,29.9228
-245,582,2.97455,-30.4311,0.000222384,0.00691839,-0.00454542,0.00921574,-0.00207497,-1.10282,0.00693967,0.0112956,979,442,2.97454,30.4311
-238,582,2.93774,-30.9331,0.000346164,0.00602889,-0.00368994,0.00784468,-0.00146962,-1.1135,0.00578225,0.0157464,986,442,2.93773,30.9331
-231,582,2.9101,-31.4442,0.000491115,0.00485406,-0.00287667,0.00628286,-0.000937683,-1.1098,0.00453357,0.0123964,993,442,2.9101,31.4442
-224,582,2.8938,-31.9637,0.000601002,0.00361531,-0.00207943,0.00467634,-0.000460024,-1.09898,0.00328166,0.0110569,1000,442,2.8938,31.9636
-217,582,2.87323,-32.4746,0.000765977,0.0021254,-0.00139602,0.00299839,-0.000107014,-1.01195,0.00203554,0.0136869,1007,442,2.87324,32.4746
-210,582,2.85388,-32.9541,0.00102682,0.000479882,-0.000724754,0.00152798,-2.12798e-05,-0.604993,0.00102582,0.0140022,1014,442,2.8539,32.9541
-203,582,2.85205,-33.4375,0.00129698,-0.00124237,-1.7349e-05,0.0012971,-0.00124249,-0.00683167,0.00146634,0.0111439,1021,442,2.85207,33.4375
-196,582,2.83716,-33.9284,0.00164481,-0.00280622,0.000646173,0.00173672,-0.00289813,0.141289,0.00270379,0.0158047,1028,442,2.83713,33.9285
-189,582,2.82031,-34.3947,0.00201263,-0.0045767,0.00131265,0.00226449,-0.00482856,0.18957,0.00418342,0.022328,1035,442,2.82027,34.3947
-182,582,2.83545,-34.8564,0.00229608,-0.0067249,0.00202657,0.00273043,-0.00715925,0.211137,0.00589757,0.015975,1042,442,2.83548,34.8564
-175,582,2.8446,-35.2683,0.00236374,-0.00934767,0.00285979,0.00302476,-0.0100087,0.227153,0.00787674,0.0134295,1049,442,2.84458,35.2684
-168,582,2.84143,-35.7164,0.0023936,-0.0120117,0.00362053,0.00325237,-0.0128704,0.232889,0.00984515,0.0115865,1056,442,2.84139,35.7164
-161,582,2.849,-36.1587,0.00233122,-0.0146222,0.00434383,0.0033794,-0.0156704,0.236776,0.0117367,0.0130455,1063,442,2.84902,36.1587
-154,582,2.84875,-36.5636,0.00224297,-0.0171686,0.00501535,0.00346221,-0.0183878,0.238475,0.0135607,0.0125597,1070,442,2.84872,36.5636
-147,582,2.87268,-36.9847,0.00212944,-0.019938,0.00570437,0.00351679,-0.0213254,0.238575,0.0155226,0.0124329,1077,442,2.87269,36.9847
-140,582,2.87683,-37.3629,0.0019051,-0.0227966,0.0063166,0.00342663,-0.0243181,0.236375,0.0174667,0.0133208,1084,442,2.87686,37.3629
-133,582,2.92737,-37.732,0.00145263,-0.025432,0.00674853,0.00305154,-0.0270309,0.232638,0.0191191,0.0163938,1091,442,2.92739,37.732
-126,582,2.9519,-38.0323,0.00109857,-0.0274798,0.00708596,0.00275905,-0.0291403,0.23018,0.0204088,0.0148548,1098,442,2.95189,38.0323
-119,582,2.9126,-38.2964,0.00113298,-0.0291967,0.00701761,0.002678,-0.0307417,0.216706,0.0214429,0.0189821,1105,442,2.91263,38.2964
-112,582,2.82202,-38.7674,0.001163,-0.0302322,0.00665528,0.00251554,-0.0315847,0.200498,0.0219431,0.032637,1112,442,2.82208,38.7674
-105,582,2.79919,-39.2551,0,0,0,0,0,0,0,-1,1119,442,2.79923,39.2551
-98,582,2.61938,-32.8673,0,0,0,0,0,0,0,-1,1126,442,2.61944,32.8673
-91,582,2.16492,-24.1119,0,0,0,0,0,0,0,-1,1133,442,2.16496,24.1119
-84,582,2.10278,-16.7533,0,0,0,0,0,0,0,-1,1140,442,2.10279,16.7533
-77,582,2.30212,-11.4907,0,0,0,0,0,0,0,-1,1147,442,2.30207,11.4907
-70,582,1.49255,-6.36548,0,0,0,0,0,0,0,-1,1154,442,1.49251,6.36549
-63,582,-4.62915,-4.0347,0,0,0,0,0,0,0,-1,1161,442,-4.6292,4.03471
-56,582,-5.81714,-5.24149,0,0,0,0,0,0,0,-1,1168,442,-5.81718,5.24149
-49,582,-3.88672,-10.1064,0,0,0,0,0,0,0,-1,1175,442,-3.88678,10.1064
-42,582,-0.948975,1.13968,0,0,0,0,0,0,0,-1,1182,442,-0.949003,-1.13969
-35,582,-2.58435,-3.86911,0,0,0,0,0,0,0,-1,1189,442,-2.58437,3.86912
-28,582,-0.825317,-3.45941,0,0,0,0,0,0,0,-1,1196,442,-0.825377,3.45942
-21,582,4.27563,-40.3866,0,0,0,0,0,0,0,-1,1203,442,4.27562,40.3866
-14,582,3.85291,-40.4165,0,0,0,0,0,0,0,-1,1210,442,3.85289,40.4165
-7,582,3.80005,-40.2983,0,0,0,0,0,0,0,-1,1217,442,3.80006,40.2983
0,582,5.13489,-42.3814,0,0,0,0,0,0,0,-1,1224,442,5.13493,42.3814
7,582,5.46326,-42.2823,0,0,0,0,0,0,0,-1,1231,442,5.46327,42.2822
14,582,5.78638,-42.1485,0,0,0,0,0,0,0,-1,1238,442,5.7864,42.1485
21,582,6.03943,-43.1706,0,0,0,0,0,0,0,-1,1245,442,6.03937,43.1706
28,582,7.75806,-44.155,0,0,0,0,0,0,0,-1,1252,442,7.75804,44.155
35,582,7.11963,-43.8576,-0.0239724,0.0185583,8.80689e-06,0.0185583,-0.0239724,1.57059,0.0246213,0.0482728,1259,442,7.11958,43.8576
42,582,6.43018,-43.5535,-0.0272228,0.0169975,0.00270134,0.0171619,-0.0273872,1.51001,0.0259453,0.0452209,1266,442,6.4302,43.5535
49,582,5.93359,-43.3094,-0.0300574,0.0156537,0.00612622,0.0164605,-0.0308642,1.43985,0.0277416,0.0438444,1273,442,5.93365,43.3094
56,582,5.25293,-43.1214,-0.0321122,0.0145,0.0100183,0.016562,-0.0341742,1.36781,0.029875,0.0440773,1280,442,5.25291,43.1214
63,582,4.76746,-42.8441,-0.0329727,0.0130028,0.0137109,0.0167812,-0.0367511,1.3019,0.0316156,0.043701,1287,442,4.76747,42.8442
70,582,4.49878,-42.693,-0.0327277,0.0114098,0.0169007,0.0171379,-0.0384557,1.24402,0.0328742,0.045082,1294,442,4.4988,42.693
77,582,4.14148,-42.1738,-0.0313295,0.0098947,0.0198027,0.017866,-0.0393007,1.18811,0.0337697,0.0453945,1301,442,4.1415,42.1738
84,582,3.80701,-41.6781,-0.0286613,0.00720907,0.0213195,0.0171341,-0.0385863,1.1351,0.0329553,0.0468126,1308,442,3.80699,41.6781
91,582,3.61548,-41.2069,-0.0261451,0.00404042,0.0213634,0.0151046,-0.0372093,1.09293,0.0310892,0.0469973,1315,442,3.61549,41.2069
98,582,3.59277,-40.7649,0,0,0,0,0,0,0,-1,1322,442,3.59283,40.7649
105,582,3.47339,-40.3438,0,0,0,0,0,0,0,-1,1329,442,3.47343,40.3438
112,582,7.41467,-49.6777,0,0,0,0,0,0,0,-1,1336,442,7.41472,49.6777
119,582,7.05688,-50.4914,0,0,0,0,0,0,0,-1,1343,442,7.05689,50.4914
126,582,6.99817,-51.4934,0,0,0,0,0,0,0,-1,1350,442,6.99818,51.4935
133,582,6.96509,-42.1077,0,0,0,0,0,0,0,-1,1357,442,6.96514,42.1077
140,582,5.85229,-41.6653,0,0,0,0,0,0,0,-1,1364,442,5.85234,41.6653
147,582,4.34924,-41.3736,0,0,0,0,0,0,0,-1,1371,442,4.34926,41.3736
154,582,2.81335,-41.0284,0,0,0,0,0,0,0,-1,1378,442,2.81334,41.0284
161,582,1.51648,-40.8437,0,0,0,0,0,0,0,-1,1385,442,1.51649,40.8437
168,582,0.081665,-40.4535,0,0,0,0,0,0,0,-1,1392,442,0.0816215,40.4535
175,582,6.50549,-2.00424,0,0,0,0,0,0,0,-1,1399,442,6.50546,2.00425
182,582,5.18958,-2.18652,0,0,0,0,0,0,0,-1,1406,442,5.1896,2.18652
189,582,6.19751,-0.880951,0,0,0,0,0,0,0,-1,1413,442,6.19754,0.88096
196,582,4.87354,-2.22327,0,0,0,0,0,0,0,-1,1420,442,4.87348,2.22325
203,582,3.11401,-4.48257,0,0,0,0,0,0,0,-1,1427,442,3.11404,4.48259
210,582,2.93115,-11.0731,0,0,0,0,0,0,0,-1,1434,442,2.93113,11.0731
217,582,4.94092,-16.5476,0,0,0,0,0,0,0,-1,1441,442,4.94087,16.5476
224,582,5.21008,-20.9908,0,0,0,0,0,0,0,-1,1448,442,5.21006,20.9908
231,582,5.70032,-25.622,0,0,0,0,0,0,0,-1,1455,442,5.70026,25.6221
238,582,6.44189,-30.7028,0,0,0,0,0,0,0,-1,1462,442,6.44195,30.7028
245,582,8.39722,-38.4182,0,0,0,0,0,0,0,-1,1469,442,8.39725,38.4182
252,582,8.28784,-37.8936,0.00473379,0.00199994,-0.000393769,0.00478938,0.00194436,-0.140238,0.0027814,0.0393237,1476,442,8.28789,37.8936
259,582,8.20776,-37.404,0.00441001,0.00110152,-0.000351392,0.00444692,0.00106461,-0.104654,0.00268115,0.0220934,1483,442,8.20778,37.404
266,582,8.22815,-36.9395,0.00391431,0.000196916,-0.000558683,0.00399646,0.000114768,-0.145993,0.00262689,0.0145502,1490,442,8.22814,36.9395
273,582,8.27808,-36.5321,0.00358491,-0.000299428,-0.000574303,0.00366804,-0.00038256,-0.143754,0.00258234,0.0131052,1497,442,8.2781,36.5321
280,582,8.29102,-36.1093,0.00330695,-0.000820801,-0.000582702,0.00338763,-0.000901482,-0.137586,0.00261131,0.0124929,1504,442,8.29098,36.1094
287,582,8.3009,-35.6472,0.00307175,-0.00112405,-0.000567468,0.00314714,-0.00119944,-0.132086,0.00259212,0.0113498,1511,442,8.3009,35.6473
294,582,8.31787,-35.1659,0.00280446,-0.000997603,-0.000448026,0.00285654,-0.00104968,-0.115726,0.0023343,0.00923785,1518,442,8.31783,35.1659
301,582,8.31824,-34.6837,0.00251887,-0.000756453,-0.000256489,0.00253883,-0.000776417,-0.0776786,0.00200218,0.0101131,1525,442,8.31826,34.6837
308,582,8.31799,-34.2067,0.00224301,-0.000601804,-8.56528e-05,0.00224558,-0.00060438,-0.0300721,0.00173399,0.0132557,1532,442,8.31798,34.2066
315,582,8.30505,-33.7244,0.00194975,-0.00012381,8.69445e-05,0.00195339,-0.00012745,0.0418322,0.00134676,0.0136531,1539,442,8.30508,33.7244
322,582,8.29919,-33.232,0.00160446,0.000489807,0.000365746,0.00171375,0.000380513,0.290379,0.00103915,0.0105236,1546,442,8.29922,33.232
329,582,8.28979,-32.747,0.00123823,0.00100409,0.000639442,0.00177123,0.000471091,0.694859,0.0010593,0.0102955,1553,442,8.28978,32.7471
336,582,8.2793,-32.2543,0.000953027,0.00165857,0.000978186,0.00234565,0.000265944,0.958459,0.00148309,0.0111443,1560,442,8.27935,32.2543
343,582,8.27332,-31.7336,0.000624436,0.00234197,0.00131596,0.00305458,-8.81797e-05,1.07449,0.00206641,0.0138135,1567,442,8.27336,31.7336
350,582,8.25586,-31.202,0.000287139,0.00329363,0.00175899,0.00410421,-0.000523439,1.13898,0.00292627,0.0169393,1574,442,8.25586,31.202
357,582,8.23157,-30.6474,-1.47765e-05,0.00422671,0.00224698,0.00519571,-0.000983771,1.16365,0.00383403,0.0145409,1581,442,8.23158,30.6474
364,582,8.22424,-30.1224,-0.000337801,0.00517832,0.00272721,0.00629899,-0.00145847,1.18091,0.00476055,0.0111519,1588,442,8.22422,30.1224
371,582,8.20117,-29.5855,-0.000674399,0.0062033,0.00319071,0.00745554,-0.00192664,1.1968,0.00572174,0.0149257,1595,442,8.20118,29.5855
378,582,8.14795,-29.0416,-0.00100613,0.00734444,0.00360461,0.00868515,-0.00234684,1.21471,0.0067106,0.0158424,1602,442,8.14795,29.0416
385,582,8.1228,-28.473,-0.00111402,0.00852022,0.00382449,0.00985382,-0.00244762,1.23528,0.00751908,0.0118948,1609,442,8.12286,28.473
392,582,8.09814,-27.8983,-0.000576393,0.00947027,0.00387992,0.0107942,-0.00190032,1.24196,0.00790606,0.0110744,1616,442,8.0982,27.8983
399,582,8.03809,-27.3439,0.000376237,0.0104945,0.00441085,0.0121473,-0.00127659,1.21227,0.00855554,0.0208909,1623,442,8.0381,27.3439
406,582,8.00452,-26.5816,0.00173177,0.0116826,0.00545054,0.0140871,-0.000672731,1.15533,0.00962348,0.0379571,1630,442,8.00453,26.5816
413,582,7.88599,-26.1312,0,0,0,0,0,0,0,-1,1637,442,7.88595,26.1312
420,582,7.86548,-25.5298,0,0,0,0,0,0,0,-1,1644,442,7.86553,25.5299
427,582,7.7124,-24.9274,0.00546583,0.0133698,0.0070985,0.0175423,0.00129336,1.0394,0.0112885,0.0487311,1651,442,7.7124,24.9274
434,582,7.61902,-24.2939,0.00742155,0.0138527,0.0081821,0.0194284,0.00184586,0.972628,0.0123829,0.0490565,1658,442,7.61905,24.2939
441,582,7.77319,-23.7182,0.00915756,0.0141876,0.00952675,0.0215257,0.00181942,0.914451,0.0137841,0.0493026,1665,442,7.77322,23.7182
448,582,8.16016,-22.9398,0,0,0,0,0,0,0,-1,1672,442,8.16014,22.9398
455,582,6.4585,-19.4734,0,0,0,0,0,0,0,-1,1679,442,6.45854,19.4734
462,582,5.35022,-19.2616,0,0,0,0,0,0,0,-1,1686,442,5.35025,19.2616
469,582,6.28601,-21.5695,0,0,0,0,0,0,0,-1,1693,442,6.28597,21.5695
476,582,1.93579,-8.53891,0,0,0,0,0,0,0,-1,1700,442,1.93579,8.53892
483,582,0,0,0,0,0,0,0,0,0,-1,1707,442,0,0
490,582,0,0,0,0,0,0,0,0,0,-1,1714,442,0,0
497,582,0,0,0,0,0,0,0,0,0,-1,1721,442,0,0
504,582,0,0,0,0,0,0,0,0,0,-1,1728,442,0,0
511,582,0,0,0,0,0,0,0,0,0,-1,1735,442,0,0
518,582,0,0,0,0,0,0,0,0,0,-1,1742,442,0,0
525,582,0,0,0,0,0,0,0,0,0,-1,1749,442,0,0
532,582,0,0,0,0,0,0,0,0,0,-1,1756,442,0,0
539,582,0,0,0,0,0,0,0,0,0,-1,1763,442,0,0
546,582,0,0,0,0,0,0,0,0,0,-1,1770,442,0,0
553,582,0,0,0,0,0,0,0,0,0,-1,1777,442,0,0
560,582,0,0,0,0,0,0,0,0,0,-1,1784,442,0,0
567,582,0,0,0,0,0,0,0,0,0,-1,1791,442,0,0
574,582,0,0,0,0,0,0,0,0,0,-1,1798,442,0,0
581,582,0,0,0,0,0,0,0,0,0,-1,1805,442,0,0
588,582,0,0,0,0,0,0,0,0,0,-1,1812,442,0,0
595,582,0,0,0,0,0,0,0,0,0,-1,1819,442,0,0
602,582,0,0,0,0,0,0,0,0,0,-1,1826,442,0,0
609,582,0,0,0,0,0,0,0,0,0,-1,1833,442,0,0
616,582,0,0,0,0,0,0,0,0,0,-1,1840,442,0,0
623,582,0,0,0,0,0,0,0,0,0,-1,1847,442,0,0
630,582,0,0,0,0,0,0,0,0,0,-1,1854,442,0,0
637,582,0,0,0,0,0,0,0,0,0,-1,1861,442,0,0
644,582,0,0,0,0,0,0,0,0,0,-1,1868,442,0,0
651,582,0,0,0,0,0,0,0,0,0,-1,1875,442,0,0
658,582,0,0,0,0,0,0,0,0,0,-1,1882,442,0,0
665,582,0,0,0,0,0,0,0,0,0,-1,1889,442,0,0
672,582,0,0,0,0,0,0,0,0,0,-1,1896,442,0,0
679,582,0,0,0,0,0,0,0,0,0,-1,1903,442,0,0
686,582,0,0,0,0,0,0,0,0,0,-1,1910,442,0,0
693,582,0,0,0,0,0,0,0,0,0,-1,1917,442,0,0
700,582,0,0,0,0,0,0,0,0,0,-1,1924,442,0,0
707,582,0,0,0,0,0,0,0,0,0,-1,1931,442,0,0
714,582,0,0,0,0,0,0,0,0,0,-1,1938,442,0,0
721,582,0,0,0,0,0,0,0,0,0,-1,1945,442,0,0
728,582,0,0,0,0,0,0,0,0,0,-1,1952,442,0,0
735,582,0,0,0,0,0,0,0,0,0,-1,1959,442,0,0
742,582,0,0,0,0,0,0,0,0,0,-1,1966,442,0,0
749,582,0,0,0,0,0,0,0,0,0,-1,1973,442,0,0
756,582,0,0,0,0,0,0,0,0,0,-1,1980,442,0,0
763,582,0,0,0,0,0,0,0,0,0,-1,1987,442,0,0
770,582,0,0,0,0,0,0,0,0,0,-1,1994,442,0,0
777,582,0,0,0,0,0,0,0,0,0,-1,2001,442,0,0
784,582,0,0,0,0,0,0,0,0,0,-1,2008,442,0,0
791,582,0,0,0,0,0,0,0,0,0,-1,2015,442,0,0
798,582,0,0,0,0,0,0,0,0,0,-1,2022,442,0,0
805,582,0,0,0,0,0,0,0,0,0,-1,2029,442,0,0
812,582,0,0,0,0,0,0,0,0,0,-1,2036,442,0,0
-700,575,0,0,0,0,0,0,0,0,0,-1,524,449,0,0
-693,575,0,0,0,0,0,0,0,0,0,-1,531,449,0,0
-686,575,0,0,0,0,0,0,0,0,0,-1,538,449,0,0
-679,575,0,0,0,0,0,0,0,0,0,-1,545,449,0,0
-672,575,0,0,0,0,0,0,0,0,0,-1,552,449,0,0
-665,575,0,0,0,0,0,0,0,0,0,-1,559,449,0,0
-658,575,0,0,0,0,0,0,0,0,0,-1,566,449,0,0
-651,575,0,0,0,0,0,0,0,0,0,-1,573,449,0,0
-644,575,0,0,0,0,0,0,0,0,0,-1,580,449,0,0
-637,575,0,0,0,0,0,0,0,0,0,-1,587,449,0,0
-630,575,0,0,0,0,0,0,0,0,0,-1,594,449,0,0
-623,575,0,0,0,0,0,0,0,0,0,-1,601,449,0,0
-616,575,0,0,0,0,0,0,0,0,0,-1,608,449,0,0
-609,575,0,0,0,0,0,0,0,0,0,-1,615,449,0,0
-602,575,0,0,0,0,0,0,0,0,0,-1,622,449,0,0
-595,575,0,0,0,0,0,0,0,0,0,-1,629,449,0,0
-588,575,0,0,0,0,0,0,0,0,0,-1,636,449,0,0
-581,575,0,0,0,0,0,0,0,0,0,-1,643,449,0,0
-574,575,0,0,0,0,0,0,0,0,0,-1,650,449,0,0
-567,575,0,0,0,0,0,0,0,0,0,-1,657,449,0,0
-560,575,0,0,0,0,0,0,0,0,0,-1,664,449,0,0
-553,575,0,0,0,0,0,0,0,0,0,-1,671,449,0,0
-546,575,0,0,0,0,0,0,0,0,0,-1,678,449,0,0
-539,575,0,0,0,0,0,0,0,0,0,-1,685,449,0,0
-532,575,0,0,0,0,0,0,0,0,0,-1,692,449,0,0
-525,575,0,0,0,0,0,0,0,0,0,-1,699,449,0,0
-518,575,0,0,0,0,0,0,0,0,0,-1,706,449,0,0
-511,575,0,0,0,0,0,0,0,0,0,-1,713,449,0,0
-504,575,0,0,0,0,0,0,0,0,0,-1,720,449,0,0
-497,575,0,0,0,0,0,0,0,0,0,-1,727,449,0,0
-490,575,0,0,0,0,0,0,0,0,0,-1,734,449,0,0
-483,575,0,0,0,0,0,0,0,0,0,-1,741,449,0,0
-476,575,0,0,0,0,0,0,0,0,0,-1,748,449,0,0
-469,575,0,0,0,0,0,0,0,0,0,-1,755,449,0,0
-462,575,0,0,0,0,0,0,0,0,0,-1,762,449,0,0
-455,575,0,0,0,0,0,0,0,0,0,-1,769,449,0,0
-448,575,0,0,0,0,0,0,0,0,0,-1,776,449,0,0
-441,575,0,0,0,0,0,0,0,0,0,-1,783,449,0,0
-434,575,0,0,0,0,0,0,0,0,0,-1,790,449,0,0
-427,575,0,0,0,0,0,0,0,0,0,-1,797,449,0,0
-420,575,0,0,0,0,0,0,0,0,0,-1,804,449,0,0
-413,575,0,0,0,0,0,0,0,0,0,-1,811,449,0,0
-406,575,0,0,0,0,0,0,0,0,0,-1,818,449,0,0
-399,575,0,0,0,0,0,0,0,0,0,-1,825,449,0,0
-392,575,0,0,0,0,0,0,0,0,0,-1,832,449,0,0
-385,575,0,0,0,0,0,0,0,0,0,-1,839,449,0,0
-378,575,0,0,0,0,0,0,0,0,0,-1,846,449,0,0
-371,575,0.56897,-3.52304,0,0,0,0,0,0,0,-1,853,449,0.568955,3.52306
-364,575,1.49805,-4.67191,0,0,0,0,0,0,0,-1,860,449,1.49803,4.6719
-357,575,3.15521,-8.29892,0,0,0,0,0,0,0,-1,867,449,3.15521,8.29891
-350,575,-0.825928,-18.5347,0,0,0,0,0,0,0,-1,874,449,-0.825948,18.5347
-343,575,0.465393,-16.3569,0,0,0,0,0,0,0,-1,881,449,0.465397,16.3569
-336,575,3.1994,-17.5725,0,0,0,0,0,0,0,-1,888,449,3.19941,17.5725
-329,575,4.87579,-22.6196,0,0,0,0,0,0,0,-1,895,449,4.87582,22.6196
-322,575,4.55292,-23.5876,-0.0319364,0.000437573,-0.0146081,0.00605461,-0.0375534,-1.20371,0.0272787,0.0485654,902,449,4.5529,23.5876
-315,575,2.55957,-25.1886,-0.0251439,-0.000501734,-0.0129983,0.00508707,-0.0307327,-1.16473,0.0223777,0.046307,909,449,2.5596,25.1886
-308,575,2.71063,-25.3725,-0.0190965,9.50216e-05,-0.0117965,0.00570572,-0.0247072,-1.12684,0.0186663,0.0492922,916,449,2.71065,25.3725
-301,575,2.76807,-25.823,-0.0139774,0.000673872,-0.010719,0.0063314,-0.0196349,-1.08516,0.0156338,0.0351342,923,449,2.76807,25.823
-294,575,2.66986,-26.4657,-0.00982924,0.00155767,-0.00954949,0.00698214,-0.0152537,-1.05421,0.0131306,0.0262006,930,449,2.66986,26.4657
-287,575,2.61908,-27.0871,-0.00672954,0.00233565,-0.00834913,0.00730318,-0.0116971,-1.03408,0.0110671,0.0209116,937,449,2.6191,27.0871
-280,575,2.62158,-27.6513,-0.00438207,0.00344849,-0.00734155,0.00785354,-0.00878711,-1.03037,0.00961253,0.0153875,944,449,2.62159,27.6513
-273,575,2.59344,-28.2497,-0.00262619,0.00415451,-0.00643673,0.00803919,-0.00651086,-1.0278,0.00841591,0.0111075,951,449,2.59345,28.2497
-266,575,2.55231,-28.8096,-0.000585637,0.00417387,-0.00576267,0.00802882,-0.00444059,-0.981213,0.0072979,0.012482,958,449,2.55232,28.8096
-259,575,2.50775,-29.3671,0.000347387,0.00479484,-0.00455568,0.00764054,-0.00249832,-1.01245,0.00609947,0.0125103,965,449,2.50777,29.3671
-252,575,2.44556,-29.9056,0.000427572,0.00451215,-0.00367739,0.0066763,-0.00173658,-1.03887,0.00512868,0.0111108,972,449,2.44558,29.9056
-245,575,2.41211,-30.4026,0.000536506,0.00397041,-0.00293166,0.00565089,-0.00114398,-1.0503,0.00420083,0.0142015,979,449,2.41214,30.4026
-238,575,2.4201,-30.9077,0.000788283,0.00285496,-0.00212007,0.00418012,-0.00053687,-1.01216,0.00298185,0.014131,986,449,2.42013,30.9077
-231,575,2.41541,-31.4087,0.00108979,0.00141641,-0.00138269,0.0026454,-0.000139198,-0.844181,0.00181179,0.0117006,993,449,2.41543,31.4087
-224,575,2.39166,-31.9264,0.00132289,-7.10104e-05,-0.000615638,0.00155586,-0.000303979,-0.361764,0.00115202,0.0114953,1000,449,2.39164,31.9264
-217,575,2.38165,-32.4361,0.00160938,-0.00173671,9.18446e-05,0.0016119,-0.00173923,0.0274208,0.00193524,0.0104311,1007,449,2.38162,32.4361
-210,575,2.3999,-32.9319,0.00194583,-0.00355282,0.000776072,0.00205327,-0.00366025,0.13756,0.00334191,0.00960306,1014,449,2.39993,32.9319
-203,575,2.38678,-33.4148,0.00231341,-0.0053782,0.00145869,0.00258075,-0.00564555,0.181265,0.00485808,0.0130765,1021,449,2.3868,33.4148
-196,575,2.35522,-33.903,0.00274808,-0.00707061,0.00215112,0.00319868,-0.00752121,0.206485,0.00635464,0.0160587,1028,449,2.3552,33.903
-189,575,2.3562,-34.3665,0.00318535,-0.00908396,0.00288227,0.00382871,-0.00972733,0.219613,0.00806978,0.0165667,1035,449,2.35626,34.3666
-182,575,2.37231,-34.8161,0.0034747,-0.011572,0.00368503,0.00432871,-0.0124261,0.227732,0.0100429,0.015534,1042,449,2.37233,34.8161
-175,575,2.39758,-35.2476,0.00345466,-0.0145396,0.00463613,0.00457889,-0.0156638,0.237902,0.0122573,0.0125447,1049,449,2.39762,35.2476
-168,575,2.37317,-35.6777,0.00340756,-0.0176369,0.00549221,0.00475468,-0.0189841,0.240531,0.0145031,0.0113286,1056,449,2.37311,35.6777
-161,575,2.38306,-36.111,0.00321418,-0.0207626,0.00633588,0.00478547,-0.0223339,0.243094,0.0167144,0.0161275,1063,449,2.38304,36.111
-154,575,2.40833,-36.5251,0.00293182,-0.0239499,0.00716973,0.00472454,-0.0257426,0.245016,0.0189341,0.0180766,1070,449,2.40837,36.525
-147,575,2.45166,-36.8883,0.00259616,-0.0274925,0.00806209,0.00462019,-0.0295165,0.245972,0.0213848,0.0152861,1077,449,2.45168,36.8883
-140,575,2.45251,-37.1859,0.00208301,-0.0312873,0.00889702,0.00430689,-0.0335111,0.244939,0.0239061,0.0208746,1084,449,2.4525,37.186
-133,575,2.54846,-37.3356,0.00117037,-0.0349993,0.00952515,0.00352545,-0.0373543,0.242387,0.0261573,0.0299689,1091,449,2.54845,37.3356
-126,575,2.48901,-37.4544,0.000325152,-0.0381204,0.0101139,0.00282349,-0.0406187,0.242171,0.0280677,0.034796,1098,449,2.48897,37.4544
-119,575,2.44812,-37.8221,0.000141572,-0.0409359,0.010086,0.00248443,-0.0432787,0.22824,0.0297153,0.0386212,1105,449,2.44807,37.8221
-112,575,2.37439,-38.5071,0,0,0,0,0,0,0,-1,1112,449,2.37436,38.5071
-105,575,2.18347,-36.5414,0,0,0,0,0,0,0,-1,1119,449,2.18351,36.5414
-98,575,1.521,-25.6961,0,0,0,0,0,0,0,-1,1126,449,1.52105,25.6961
-91,575,1.60803,-16.4247,0,0,0,0,0,0,0,-1,1133,449,1.60802,16.4247
-84,575,1.16553,-11.9056,0,0,0,0,0,0,0,-1,1140,449,1.16558,11.9056
-77,575,0.205078,-11.2584,0,0,0,0,0,0,0,-1,1147,449,0.205117,11.2584
-70,575,-4.2467,-1.78738,0,0,0,0,0,0,0,-1,1154,449,-4.24674,1.78739
-63,575,-4.52209,-3.48798,0,0,0,0,0,0,0,-1,1161,449,-4.5221,3.48796
-56,575,-5.5968,-5.4928,0,0,0,0,0,0,0,-1,1168,449,-5.59683,5.49281
-49,575,-5.96863,-7.17612,0,0,0,0,0,0,0,-1,1175,449,-5.96868,7.1761
-42,575,-0.830322,0.773499,0,0,0,0,0,0,0,-1,1182,449,-0.83038,-0.77351
-35,575,-0.62085,0.205139,0,0,0,0,0,0,0,-1,1189,449,-0.620855,-0.205126
-28,575,0.49292,-3.87988,0,0,0,0,0,0,0,-1,1196,449,0.492941,3.87989
-21,575,3.24927,-38.5394,0,0,0,0,0,0,0,-1,1203,449,3.24924,38.5394
-14,575,2.94849,-38.6787,0,0,0,0,0,0,0,-1,1210,449,2.94843,38.6787
-7,575,6.48462,-43.8771,0,0,0,0,0,0,0,-1,1217,449,6.48466,43.8771
0,575,6.28906,-43.0121,0,0,0,0,0,0,0,-1,1224,449,6.28906,43.0121
7,575,7.36536,-44.1942,0,0,0,0,0,0,0,-1,1231,449,7.36541,44.1942
14,575,6.77234,-44.0521,0,0,0,0,0,0,0,-1,1238,449,6.77232,44.0521
21,575,6.28613,-43.4648,-0.0202453,0.0326711,-0.00479114,0.0331014,-0.0206756,-1.48123,0.0313232,0.0440565,1245,449,6.28614,43.4648
28,575,6.20447,-43.5464,-0.0240735,0.0299632,-0.00390004,0.0302433,-0.0243536,-1.49912,0.0315826,0.0434648,1252,449,6.20449,43.5464
35,575,7.15759,-43.9078,-0.0282993,0.0273716,-0.00179534,0.0274295,-0.0283571,-1.53859,0.0322099,0.0438849,1259,449,7.15765,43.9078
42,575,6.52502,-43.5321,-0.0323603,0.0250995,0.0013904,0.0251331,-0.032394,1.54662,0.0333013,0.0435151,1266,449,6.52498,43.5321
49,575,6.21362,-43.3717,-0.0359433,0.0229976,0.00555609,0.0235167,-0.0364625,1.47762,0.0348969,0.0437636,1273,449,6.21365,43.3717
56,575,5.29688,-43.4247,-0.0386058,0.0210432,0.0104247,0.0228126,-0.0403752,1.40267,0.0369482,0.0446283,1280,449,5.29687,43.4247
63,575,4.20764,-42.9586,-0.0398544,0.0187453,0.0152419,0.0224727,-0.0435817,1.33096,0.0387802,0.0434755,1287,449,4.20764,42.9586
70,575,4.43713,-42.7982,-0.0397248,0.0163932,0.0196929,0.0226142,-0.0459457,1.26482,0.0403399,0.0441954,1294,449,4.43714,42.7982
77,575,4.10474,-42.26,-0.0379646,0.0141593,0.0237817,0.023379,-0.0471843,1.20096,0.0415053,0.0456562,1301,449,4.10479,42.2601
84,575,3.78564,-41.7165,-0.0344838,0.0108392,0.026036,0.0226946,-0.0463392,1.14351,0.0406285,0.0473207,1308,449,3.78569,41.7165
91,575,3.58691,-41.1303,-0.0311016,0.0068487,0.02655,0.0205073,-0.0447602,1.09566,0.0385396,0.0464237,1315,449,3.58689,41.1303
98,575,3.50574,-40.874,0,0,0,0,0,0,0,-1,1322,449,3.5057,40.874
105,575,6.94104,-49.3612,0,0,0,0,0,0,0,-1,1329,449,6.94105,49.3612
112,575,7.03174,-50.1461,0,0,0,0,0,0,0,-1,1336,449,7.03178,50.1461
119,575,6.99988,-51.2181,0,0,0,0,0,0,0,-1,1343,449,6.99991,51.2181
126,575,6.91724,-52.3273,0,0,0,0,0,0,0,-1,1350,449,6.91724,52.3273
133,575,6.37781,-42.8703,0,0,0,0,0,0,0,-1,1357,449,6.37787,42.8703
140,575,5.72607,-42.0775,0,0,0,0,0,0,0,-1,1364,449,5.72602,42.0776
147,575,4.77307,-41.5246,0,0,0,0,0,0,0,-1,1371,449,4.7731,41.5246
154,575,2.54065,-41.1859,0,0,0,0,0,0,0,-1,1378,449,2.54063,41.1859
161,575,1.02246,-40.6799,0,0,0,0,0,0,0,-1,1385,449,1.02251,40.6799
168,575,7.5509,-35.3165,0,0,0,0,0,0,0,-1,1392,449,7.5509,35.3165
175,575,4.32617,1.93634,0,0,0,0,0,0,0,-1,1399,449,4.32612,-1.93634
182,575,6.3147,-2.88345,0,0,0,0,0,0,0,-1,1406,449,6.31466,2.88346
189,575,6.10449,-1.30817,0,0,0,0,0,0,0,-1,1413,449,6.10455,1.30817
196,575,5.79895,0.818359,0,0,0,0,0,0,0,-1,1420,449,5.79895,-0.81837
203,575,3.29724,-1.46378,0,0,0,0,0,0,0,-1,1427,449,3.29722,1.46377
210,575,2.32739,-7.74503,0,0,0,0,0,0,0,-1,1434,449,2.32741,7.74502
217,575,3.33618,-11.5521,0,0,0,0,0,0,0,-1,1441,449,3.3362,11.5521
224,575,5.51709,-16.3903,0,0,0,0,0,0,0,-1,1448,449,5.51713,16.3903
231,575,5.48572,-20.4595,0,0,0,0,0,0,0,-1,1455,449,5.48571,20.4595
238,575,5.33484,-22.3575,0,0,0,0,0,0,0,-1,1462,449,5.33478,22.3575
245,575,5.59741,-23.513,0,0,0,0,0,0,0,-1,1469,449,5.5974,23.513
252,575,8.78601,-38.2127,0,0,0,0,0,0,0,-1,1476,449,8.78602,38.2127
259,575,8.63989,-37.5279,0,0,0,0,0,0,0,-1,1483,449,8.6399,37.5279
266,575,8.65735,-36.9987,0,0,0,0,0,0,0,-1,1490,449,8.65738,36.9987
273,575,8.69482,-36.6533,0.00494726,-0.000243763,-0.000583255,0.00501199,-0.000308489,-0.110522,0.00344876,0.0449585,1497,449,8.69487,36.6533
280,575,8.79761,-36.0349,0.00462603,-0.00138179,-0.000807237,0.0047326,-0.00148837,-0.131263,0.00375095,0.0393159,1504,449,8.79759,36.0349
287,575,8.70068,-35.6661,0.00428898,-0.00217546,-0.00101729,0.00444529,-0.00233177,-0.152459,0.00397565,0.027283,1511,449,8.70074,35.6661
294,575,8.76819,-35.1932,0.00387978,-0.00230521,-0.00106432,0.00405781,-0.00248323,-0.165733,0.00381277,0.0135736,1518,449,8.7682,35.1932
301,575,8.80542,-34.6953,0.00345396,-0.00228243,-0.00100372,0.00362452,-0.00245298,-0.168315,0.00353051,0.0107472,1525,449,8.80541,34.6953
308,575,8.81604,-34.2151,0.00300172,-0.00240685,-0.00100331,0.00318184,-0.00258697,-0.177632,0.00333652,0.0115733,1532,449,8.81603,34.2151
315,575,8.79382,-33.732,0.0025269,-0.00210309,-0.000979538,0.00272561,-0.00230179,-0.200142,0.00290601,0.0116394,1539,449,8.79387,33.732
322,575,8.79871,-33.2272,0.00203457,-0.00155667,-0.00077602,0.00219508,-0.00171718,-0.203966,0.00226436,0.0106302,1546,449,8.79877,33.2272
329,575,8.7959,-32.7465,0.00156231,-0.00107633,-0.000557236,0.00167516,-0.00118918,-0.199818,0.00166165,0.0110618,1553,449,8.79584,32.7465
336,575,8.776,-32.2603,0.00123005,-0.000358946,-0.00022326,0.00126083,-0.000389719,-0.136971,0.0009962,0.0128555,1560,449,8.77594,32.2603
343,575,8.79358,-31.7158,0.000872758,0.000362482,0.000114423,0.000897241,0.000337999,0.210793,0.000523246,0.0121544,1567,449,8.7936,31.7157
350,575,8.78748,-31.1757,0.000527312,0.00129572,0.000551172,0.00158338,0.000239651,1.08978,0.000985467,0.0110089,1574,449,8.78745,31.1757
357,575,8.76001,-30.6437,0.000251643,0.00223662,0.00104211,0.00268324,-0.000194976,1.1659,0.00185723,0.0112183,1581,449,8.76003,30.6437
364,575,8.7511,-30.1242,1.96624e-06,0.00320944,0.0015523,0.00383765,-0.000626246,1.18625,0.0027907,0.0113662,1588,449,8.75109,30.1242
371,575,8.72754,-29.5966,-0.000214161,0.00420487,0.0020801,0.00502995,-0.00103924,1.19318,0.00374805,0.0202078,1595,449,8.7276,29.5966
378,575,8.68103,-29.0466,-0.000492476,0.00521911,0.00250731,0.0061636,-0.00143697,1.21054,0.00466246,0.0187846,1602,449,8.68102,29.0466
385,575,8.64978,-28.4813,-0.000599501,0.00627418,0.0027746,0.00725439,-0.0015797,1.2312,0.00543983,0.012132,1609,449,8.64973,28.4813
392,575,8.62683,-27.9289,-0.000171478,0.00712043,0.0029139,0.00814179,-0.00119283,1.23367,0.00586604,0.0100838,1616,449,8.62683,27.9289
399,575,8.58667,-27.3979,0.000625468,0.00792579,0.0034359,0.00928852,-0.000737263,1.19321,0.00645216,0.0104057,1623,449,8.58665,27.3979
406,575,8.55347,-26.7731,0.00172348,0.00889656,0.00440991,0.0109943,-0.000374223,1.12679,0.00745738,0.0117811,1630,449,8.55347,26.7731
413,575,8.53162,-26.1494,0.00254355,0.00965952,0.00488659,0.0121462,5.68689e-05,1.10007,0.00807858,0.0153816,1637,449,8.53164,26.1494
420,575,8.48547,-25.5588,0.00356538,0.0101117,0.00542418,0.0131738,0.00050331,1.05687,0.00861967,0.0160442,1644,449,8.48546,25.5589
427,575,8.42651,-24.9088,0.00437928,0.0104857,0.00627377,0.0144098,0.00045523,1.01186,0.00945844,0.0181532,1651,449,8.42646,24.9088
434,575,8.2998,-24.3638,0.00567252,0.0109669,0.00734162,0.016124,0.000515416,0.958429,0.0105817,0.0270261,1658,449,8.29982,24.3638
441,575,8.39392,-23.7498,0.00668742,0.0113497,0.00862377,0.0179518,8.52542e-05,0.9174,0.0119396,0.0491588,1665,449,8.39395,23.7498
448,575,8.62061,-22.9823,0,0,0,0,0,0,0,-1,1672,449,8.62066,22.9823
455,575,9.54468,-22.5141,0,0,0,0,0,0,0,-1,1679,449,9.54471,22.5141
462,575,7.12781,-21.7179,0,0,0,0,0,0,0,-1,1686,449,7.12778,21.7178
469,575,7.24609,-21.5029,0,0,0,0,0,0,0,-1,1693,449,7.24609,21.5029
476,575,7.36438,-21.2879,0,0,0,0,0,0,0,-1,1700,449,7.36441,21.2879
483,575,7.29089,-20.4314,0,0,0,0,0,0,0,-1,1707,449,7.29091,20.4314
490,575,6.78235,-18.917,0,0,0,0,0,0,0,-1,1714,449,6.7824,18.917
497,575,0,0,0,0,0,0,0,0,0,-1,1721,449,0,0
504,575,0,0,0,0,0,0,0,0,0,-1,1728,449,0,0
511,575,0,0,0,0,0,0,0,0,0,-1,1735,449,0,0
518,575,0,0,0,0,0,0,0,0,0,-1,1742,449,0,0
525,575,0,0,0,0,0,0,0,0,0,-1,1749,449,0,0
532,575,0,0,0,0,0,0,0,0,0,-1,1756,449,0,0
539,575,0,0,0,0,0,0,0,0,0,-1,1763,449,0,0
546,575,0,0,0,0,0,0,0,0,0,-1,1770,449,0,0
553,575,0,0,0,0,0,0,0,0,0,-1,1777,449,0,0
560,575,0,0,0,0,0,0,0,0,0,-1,1784,449,0,0
567,575,0,0,0,0,0,0,0,0,0,-1,1791,449,0,0
574,575,0,0,0,0,0,0,0,0,0,-1,1798,449,0,0
581,575,0,0,0,0,0,0,0,0,0,-1,1805,449,0,0
588,575,0,0,0,0,0,0,0,0,0,-1,1812,449,0,0
595,575,0,0,0,0,0,0,0,0,0,-1,1819,449,0,0
602,575,0,0,0,0,0,0,0,0,0,-1,1826,449,0,0
609,575,0,0,0,0,0,0,0,0,0,-1,1833,449,0,0
616,575,0,0,0,0,0,0,0,0,0,-1,1840,449,0,0
623,575,0,0,0,0,0,0,0,0,0,-1,1847,449,0,0
630,575,0,0,0,0,0,0,0,0,0,-1,1854,449,0,0
637,575,0,0,0,0,0,0,0,0,0,-1,1861,449,0,0
644,575,0,0,0,0,0,0,0,0,0,-1,1868,449,0,0
651,575,0,0,0,0,0,0,0,0,0,-1,1875,449,0,0
658,575,0,0,0,0,0,0,0,0,0,-1,1882,449,0,0
665,575,0,0,0,0,0,0,0,0,0,-1,1889,449,0,0
672,575,0,0,0,0,0,0,0,0,0,-1,1896,449,0,0
679,575,0,0,0,0,0,0,0,0,0,-1,1903,449,0,0
686,575,0,0,0,0,0,0,0,0,0,-1,1910,449,0,0
693,575,0,0,0,0,0,0,0,0,0,-1,1917,449,0,0
700,575,0,0,0,0,0,0,0,0,0,-1,1924,449,0,0
707,575,0,0,0,0,0,0,0,0,0,-1,1931,449,0,0
714,575,0,0,0,0,0,0,0,0,0,-1,1938,449,0,0
721,575,0,0,0,0,0,0,0,0,0,-1,1945,449,0,0
728,575,0,0,0,0,0,0,0,0,0,-1,1952,449,0,0
735,575,0,0,0,0,0,0,0,0,0,-1,1959,449,0,0
742,575,0,0,0,0,0,0,0,0,0,-1,1966,449,0,0
749,575,0,0,0,0,0,0,0,0,0,-1,1973,449,0,0
756,575,0,0,0,0,0,0,0,0,0,-1,1980,449,0,0
763,575,0,0,0,0,0,0,0,0,0,-1,1987,449,0,0
770,575,0,0,0,0,0,0,0,0,0,-1,1994,449,0,0
777,575,0,0,0,0,0,0,0,0,0,-1,2001,449,0,0
784,575,0,0,0,0,0,0,0,0,0,-1,2008,449,0,0
791,575,0,0,0,0,0,0,0,0,0,-1,2015,449,0,0
798,575,0,0,0,0,0,0,0,0,0,-1,2022,449,0,0
805,575,0,0,0,0,0,0,0,0,0,-1,2029,449,0,0
812,575,0,0,0,0,0,0,0,0,0,-1,2036,449,0,0
-700,568,0,0,0,0,0,0,0,0,0,-1,524,456,0,0
-693,568,0,0,0,0,0,0,0,0,0,-1,531,456,0,0
-686,568,0,0,0,0,0,0,0,0,0,-1,538,456,0,0
-679,568,0,0,0,0,0,0,0,0,0,-1,545,456,0,0
-672,568,0,0,0,0,0,0,0,0,0,-1,552,456,0,0
-665,568,0,0,0,0,0,0,0,0,0,-1,559,456,0,0
-658,568,0,0,0,0,0,0,0,0,0,-1,566,456,0,0
-651,568,0,0,0,0,0,0,0,0,0,-1,573,456,0,0
-644,568,0,0,0,0,0,0,0,0,0,-1,580,456,0,0
-637,568,0,0,0,0,0,0,0,0,0,-1,587,456,0,0
-630,568,0,0,0,0,0,0,0,0,0,-1,594,456,0,0
-623,568,0,0,0,0,0,0,0,0,0,-1,601,456,0,0
-616,568,0,0,0,0,0,0,0,0,0,-1,608,456,0,0
-609,568,0,0,0,0,0,0,0,0,0,-1,615,456,0,0
-602,568,0,0,0,0,0,0,0,0,0,-1,622,456,0,0
-595,568,0,0,0,0,0,0,0,0,0,-1,629,456,0,0
-588,568,0,0,0,0,0,0,0,0,0,-1,636,456,0,0
-581,568,0,0,0,0,0,0,0,0,0,-1,643,456,0,0
-574,568,0,0,0,0,0,0,0,0,0,-1,650,456,0,0
-567,568,0,0,0,0,0,0,0,0,0,-1,657,456,0,0
-560,568,0,0,0,0,0,0,0,0,0,-1,664,456,0,0
-553,568,0,0,0,0,0,0,0,0,0,-1,671,456,0,0
-546,568,0,0,0,0,0,0,0,0,0,-1,678,456,0,0
-539,568,0,0,0,0,0,0,0,0,0,-1,685,456,0,0
-532,568,0,0,0,0,0,0,0,0,0,-1,692,456,0,0
-525,568,0,0,0,0,0,0,0,0,0,-1,699,456,0,0
-518,568,0,0,0,0,0,0,0,0,0,-1,706,456,0,0
-511,568,0,0,0,0,0,0,0,0,0,-1,713,456,0,0
-504,568,0,0,0,0,0,0,0,0,0,-1,720,456,0,0
-497,568,0,0,0,0,0,0,0,0,0,-1,727,456,0,0
-490,568,0,0,0,0,0,0,0,0,0,-1,734,456,0,0
-483,568,0,0,0,0,0,0,0,0,0,-1,741,456,0,0
-476,568,0,0,0,0,0,0,0,0,0,-1,748,456,0,0
-469,568,0,0,0,0,0,0,0,0,0,-1,755,456,0,0
-462,568,0,0,0,0,0,0,0,0,0,-1,762,456,0,0
-455,568,0,0,0,0,0,0,0,0,0,-1,769,456,0,0
-448,568,0,0,0,0,0,0,0,0,0,-1,776,456,0,0
-441,568,0,0,0,0,0,0,0,0,0,-1,783,456,0,0
-434,568,0,0,0,0,0,0,0,0,0,-1,790,456,0,0
-427,568,0,0,0,0,0,0,0,0,0,-1,797,456,0,0
-420,568,0,0,0,0,0,0,0,0,0,-1,804,456,0,0
-413,568,0,0,0,0,0,0,0,0,0,-1,811,456,0,0
-406,568,0,0,0,0,0,0,0,0,0,-1,818,456,0,0
-399,568,0,0,0,0,0,0,0,0,0,-1,825,456,0,0
-392,568,0,0,0,0,0,0,0,0,0,-1,832,456,0,0
-385,568,0,0,0,0,0,0,0,0,0,-1,839,456,0,0
-378,568,0.321777,-7.29929,0,0,0,0,0,0,0,-1,846,456,0.321806,7.29927
-371,568,1.09595,-7.46707,0,0,0,0,0,0,0,-1,853,456,1.09597,7.46707
-364,568,1.87787,-7.61115,0,0,0,0,0,0,0,-1,860,456,1.87784,7.61116
-357,568,2.14166,-7.67645,0,0,0,0,0,0,0,-1,867,456,2.14167,7.67646
-350,568,2.7467,-11.2507,0,0,0,0,0,0,0,-1,874,456,2.7467,11.2507
-343,568,2.16516,-11.3762,0,0,0,0,0,0,0,-1,881,456,2.16514,11.3762
-336,568,3.94104,-22.0829,0,0,0,0,0,0,0,-1,888,456,3.94103,22.0829
-329,568,3.70593,-22.8021,0,0,0,0,0,0,0,-1,895,456,3.70595,22.8021
-322,568,3.41498,-23.5069,-0.0230748,0.00382811,-0.0109723,0.00773562,-0.0269823,-1.22868,0.0210461,0.0416138,902,456,3.41497,23.5069
-315,568,3.04681,-24.1814,-0.0186751,0.00230555,-0.00968764,0.00609449,-0.022464,-1.19798,0.0173677,0.038102,909,456,3.04683,24.1814
-308,568,2.28021,-25.3039,-0.0146092,0.00201138,-0.00871656,0.00574432,-0.0183421,-1.16617,0.0145265,0.0348317,916,456,2.28021,25.3039
-301,568,2.21014,-25.9483,-0.010971,0.00180458,-0.00788668,0.00556586,-0.0147323,-1.12579,0.0121109,0.0196548,923,456,2.21016,25.9483
-294,568,2.15338,-26.5209,-0.00783794,0.00196936,-0.00699701,0.00560994,-0.0114785,-1.09104,0.0100581,0.0135416,930,456,2.15339,26.5209
-287,568,2.11902,-27.109,-0.00539844,0.00221278,-0.006083,0.00558252,-0.00876818,-1.06492,0.00835315,0.0119517,937,456,2.11903,27.109
-280,568,2.09644,-27.6898,-0.00348264,0.00269217,-0.00531429,0.0057508,-0.00654127,-1.04855,0.00710172,0.0107653,944,456,2.09646,27.6898
-273,568,2.05829,-28.2579,-0.00200225,0.00294476,-0.0045809,0.0056773,-0.00473479,-1.03295,0.00601963,0.0112434,951,456,2.0583,28.2579
-266,568,2.00391,-28.791,-0.000318003,0.00263982,-0.00401821,0.00544264,-0.00312082,-0.961731,0.00500432,0.0114096,958,456,2.00393,28.791
-259,568,1.9715,-29.3358,0.000542908,0.00278854,-0.00297741,0.00484782,-0.00151636,-0.965709,0.0038385,0.0126817,965,456,1.97152,29.3358
-252,568,1.91364,-29.8602,0.000729787,0.00219292,-0.00216226,0.00374402,-0.000821308,-0.948521,0.00281008,0.012564,972,456,1.91363,29.8602
-245,568,1.89471,-30.3505,0.000913639,0.00127877,-0.00143801,0.00254575,-0.000353345,-0.848538,0.00182638,0.0144567,979,456,1.89472,30.3505
-238,568,1.91296,-30.869,0.00127633,-0.000122554,-0.000635682,0.00152204,-0.000368263,-0.36884,0.00115715,0.0131159,986,456,1.91299,30.8691
-231,568,1.90179,-31.3875,0.00172959,-0.00189231,6.03026e-05,0.00173059,-0.00189331,0.0166433,0.00209297,0.0115275,993,456,1.90177,31.3875
-224,568,1.88214,-31.9001,0.00205498,-0.00369786,0.000832601,0.00217305,-0.00381594,0.140879,0.00350084,0.0129306,1000,456,1.88213,31.9002
-217,568,1.89172,-32.4068,0.00244016,-0.00562787,0.00158985,0.00274215,-0.00592986,0.18771,0.0051183,0.0116044,1007,456,1.89175,32.4068
-210,568,1.89227,-32.909,0.00284454,-0.00767969,0.00230804,0.00332846,-0.00816361,0.206673,0.0068279,0.0119299,1014,456,1.89226,32.909
-203,568,1.90112,-33.393,0.00331024,-0.00967321,0.00298988,0.00396567,-0.0103286,0.215804,0.00852102,0.01097,1021,456,1.90111,33.393
-196,568,1.90906,-33.8464,0.00384253,-0.0115585,0.00373185,0.00469915,-0.0124151,0.225635,0.0102102,0.0142325,1028,456,1.90907,33.8464
-189,568,1.91052,-34.2977,0.00437322,-0.0138598,0.00454821,0.00544479,-0.0149314,0.231383,0.0121818,0.0140782,1035,456,1.91053,34.2977
-182,568,1.93591,-34.7903,0.00469659,-0.0167479,0.00546487,0.00600894,-0.0180602,0.235679,0.0144653,0.0163559,1042,456,1.93588,34.7903
-175,568,1.94995,-35.2188,0.00460899,-0.0201415,0.00656995,0.00624485,-0.0217773,0.244029,0.0169869,0.0156554,1049,456,1.94994,35.2188
-168,568,1.93677,-35.5314,0.00450891,-0.0238153,0.00755921,0.00640006,-0.0257065,0.245146,0.0196221,0.0213832,1056,456,1.93674,35.5314
-161,568,1.9137,-35.9095,0.00419346,-0.0276876,0.00857426,0.00635316,-0.0298473,0.24675,0.0223194,0.0338327,1063,456,1.91367,35.9095
-154,568,1.86133,-36.601,0,0,0,0,0,0,0,-1,1070,456,1.86131,36.601
-147,568,2.05359,-36.6876,0.00305603,-0.0364996,0.0108652,0.00584399,-0.0392875,0.251177,0.0283412,0.0391448,1077,456,2.05359,36.6876
-140,568,2.13879,-36.6937,0.00219521,-0.0417023,0.0120184,0.00527027,-0.0447774,0.250487,0.0317544,0.0383237,1084,456,2.13874,36.6937
-133,568,2.2738,-36.6314,0.000608322,-0.0471422,0.0129755,0.00390642,-0.0504403,0.248908,0.0350017,0.0398731,1091,456,2.27378,36.6314
-126,568,2.03418,-36.7239,-0.00104964,-0.0520224,0.0140537,0.00256833,-0.0556404,0.251967,0.0379787,0.0451999,1098,456,2.03418,36.7239
-119,568,1.92395,-37.2475,0,0,0,0,0,0,0,-1,1105,456,1.92397,37.2475
-112,568,1.98242,-35.0942,0,0,0,0,0,0,0,-1,1112,456,1.98247,35.0942
-105,568,2.02454,-25.038,0,0,0,0,0,0,0,-1,1119,456,2.02459,25.038
-98,568,1.58618,-14.7874,0,0,0,0,0,0,0,-1,1126,456,1.58617,14.7874
-91,568,1.11621,-11.1853,0,0,0,0,0,0,0,-1,1133,456,1.11626,11.1853
-84,568,0.461792,-9.7959,0,0,0,0,0,0,0,-1,1140,456,0.461793,9.7959
-77,568,-1.13806,-8.57822,0,0,0,0,0,0,0,-1,1147,456,-1.13807,8.57821
-70,568,-4.09766,-1.42911,0,0,0,0,0,0,0,-1,1154,456,-4.09767,1.4291
-63,568,-5.92273,-3.70752,0,0,0,0,0,0,0,-1,1161,456,-5.92272,3.70751
-56,568,-5.24158,-6.01385,0,0,0,0,0,0,0,-1,1168,456,-5.24161,6.01386
-49,568,-5.24365,-8.33557,0,0,0,0,0,0,0,-1,1175,456,-5.24371,8.33557
-42,568,-0.664795,0.521973,0,0,0,0,0,0,0,-1,1182,456,-0.664829,-0.521984
-35,568,-0.153076,-1.67731,0,0,0,0,0,0,0,-1,1189,456,-0.153068,1.67731
-28,568,1.25439,-4.48798,0,0,0,0,0,0,0,-1,1196,456,1.2544,4.48797
-21,568,2.14014,-36.9157,0,0,0,0,0,0,0,-1,1203,456,2.14017,36.9157
-14,568,1.87073,-37.0481,0,0,0,0,0,0,0,-1,1210,456,1.87068,37.0481
-7,568,1.573,-37.1644,0,0,0,0,0,0,0,-1,1217,456,1.573,37.1644
0,568,7.93384,-45.1436,0,0,0,0,0,0,0,-1,1224,456,7.93379,45.1436
7,568,7.51501,-44.8158,-0.0146842,0.0525346,-0.00373497,0.0527415,-0.0148911,-1.51546,0.0410354,0.0444474,1231,456,7.515,44.8158
14,568,7.08374,-44.561,-0.0177159,0.0483359,-0.0062531,0.0489226,-0.0183027,-1.47723,0.0401322,0.0413785,1238,456,7.08373,44.561
21,568,6.77551,-44.0751,-0.0225198,0.0444315,-0.00724739,0.045207,-0.0232953,-1.46419,0.0402186,0.0404061,1245,456,6.7755,44.0751
28,568,6.49194,-43.731,-0.0272397,0.0410661,-0.00653392,0.0416855,-0.0278591,-1.47628,0.0404152,0.0429544,1252,456,6.49193,43.731
35,568,6.56079,-43.6482,-0.0323005,0.0378004,-0.0042781,0.0380606,-0.0325606,-1.51007,0.0408143,0.0419357,1259,456,6.56078,43.6482
42,568,6.75964,-43.43,-0.0371874,0.0348153,-0.00068173,0.0348217,-0.0371939,-1.56133,0.0415858,0.0413828,1266,456,6.7596,43.43
49,568,6.66589,-43.5744,-0.0415448,0.0319303,0.00414875,0.0321639,-0.0417784,1.51457,0.0428107,0.045352,1273,456,6.66587,43.5744
56,568,5.19556,-44.0653,-0.0448866,0.0291026,0.00996843,0.0304221,-0.0462061,1.43919,0.044553,0.0464803,1280,456,5.19555,44.0653
63,568,3.7854,-42.8232,0,0,0,0,0,0,0,-1,1287,456,3.78536,42.8231
70,568,4.08521,-42.8433,-0.0468249,0.0225806,0.022013,0.0289736,-0.0532178,1.28816,0.0481365,0.0456829,1294,456,4.0852,42.8433
77,568,4.10901,-42.2264,-0.044709,0.0193925,0.0277359,0.0297273,-0.0550438,1.21412,0.0496648,0.0460358,1301,456,4.10906,42.2264
84,568,3.87512,-41.7205,-0.0401473,0.0152167,0.0311502,0.0292075,-0.0541381,1.14866,0.048832,0.0476286,1308,456,3.87512,41.7205
91,568,3.62524,-41.2672,0,0,0,0,0,0,0,-1,1315,456,3.62523,41.2672
98,568,7.19666,-48.9321,0,0,0,0,0,0,0,-1,1322,456,7.1967,48.9321
105,568,6.71729,-50.2336,0,0,0,0,0,0,0,-1,1329,456,6.71734,50.2336
112,568,6.90283,-50.4815,0,0,0,0,0,0,0,-1,1336,456,6.90286,50.4815
119,568,6.73901,-51.6808,0,0,0,0,0,0,0,-1,1343,456,6.73902,51.6808
126,568,6.81213,-26.7261,0,0,0,0,0,0,0,-1,1350,456,6.8121,26.7261
133,568,6.42847,-43.0325,0,0,0,0,0,0,0,-1,1357,456,6.42853,43.0325
140,568,5.55725,-42.3768,0,0,0,0,0,0,0,-1,1364,456,5.55726,42.3768
147,568,4.07373,-42.5183,0,0,0,0,0,0,0,-1,1371,456,4.07374,42.5183
154,568,2.10278,-41.4287,0,0,0,0,0,0,0,-1,1378,456,2.10272,41.4288
161,568,0.141357,-40.3475,0,0,0,0,0,0,0,-1,1385,456,0.141297,40.3475
168,568,-1.74231,-39.2641,0,0,0,0,0,0,0,-1,1392,456,-1.74226,39.2641
175,568,10.5151,0.747498,0,0,0,0,0,0,0,-1,1399,456,10.5152,-0.747501
182,568,6.35095,-3.63361,0,0,0,0,0,0,0,-1,1406,456,6.35093,3.63359
189,568,6.17493,-1.70911,0,0,0,0,0,0,0,-1,1413,456,6.17497,1.70911
196,568,6.04724,0.200836,0,0,0,0,0,0,0,-1,1420,456,6.04724,-0.200835
203,568,5.9281,2.08649,0,0,0,0,0,0,0,-1,1427,456,5.92812,-2.08648
210,568,1.46216,-2.50446,0,0,0,0,0,0,0,-1,1434,456,1.46219,2.50446
217,568,2.62366,-7.86703,0,0,0,0,0,0,0,-1,1441,456,2.62365,7.86704
224,568,3.43494,-12.1555,0,0,0,0,0,0,0,-1,1448,456,3.43492,12.1555
231,568,4.38245,-9.3205,0,0,0,0,0,0,0,-1,1455,456,4.38244,9.32048
238,568,5.88879,-20.7448,0,0,0,0,0,0,0,-1,1462,456,5.88876,20.7449
245,568,3.34387,-10.6774,0,0,0,0,0,0,0,-1,1469,456,3.34389,10.6774
252,568,3.56946,-9.28928,0,0,0,0,0,0,0,-1,1476,456,3.56948,9.28928
259,568,3.38843,-8.73068,0,0,0,0,0,0,0,-1,1483,456,3.38842,8.73068
266,568,3.104,-9.16876,0,0,0,0,0,0,0,-1,1490,456,3.10397,9.16876
273,568,8.92102,-36.9383,0,0,0,0,0,0,0,-1,1497,456,8.92103,36.9383
280,568,9.005,-36.5502,0,0,0,0,0,0,0,-1,1504,456,9.005,36.5502
287,568,9.16516,-35.8142,0,0,0,0,0,0,0,-1,1511,456,9.16517,35.8142
294,568,9.26001,-35.0494,0.00490554,-0.00331961,-0.00157946,0.00519841,-0.00361248,-0.183344,0.00511436,0.0446283,1518,456,9.26004,35.0494
301,568,9.24939,-34.6141,0.0044033,-0.00345564,-0.00161971,0.00472403,-0.00377637,-0.195487,0.00491786,0.0214584,1525,456,9.2494,34.6141
308,568,9.29309,-34.1576,0.00380577,-0.00386027,-0.00179504,0.00420527,-0.00425977,-0.218988,0.00488733,0.013971,1532,456,9.29304,34.1576
315,568,9.29028,-33.7167,0.00318605,-0.00372835,-0.00191775,0.00368233,-0.00422463,-0.253227,0.00456866,0.0090875,1539,456,9.29032,33.7167
322,568,9.28528,-33.2252,0.00258885,-0.00324229,-0.00177514,0.00308673,-0.00374017,-0.27345,0.00394753,0.0107062,1546,456,9.28528,33.2252
329,568,9.29468,-32.7155,0.00204745,-0.00280291,-0.00160364,0.00252971,-0.00328516,-0.29212,0.00336665,0.0113756,1553,456,9.29472,32.7155
336,568,9.29553,-32.196,0.00167551,-0.00205078,-0.00128439,0.00207532,-0.0024506,-0.301777,0.00261603,0.0115508,1560,456,9.29549,32.196
343,568,9.32605,-31.6762,0.00128322,-0.00133363,-0.000961612,0.00159858,-0.00164899,-0.316896,0.00187506,0.0113159,1567,456,9.32607,31.6762
350,568,9.32117,-31.1697,0.000891521,-0.000497865,-0.00057197,0.00109669,-0.000703032,-0.344406,0.00104732,0.00984908,1574,456,9.32116,31.1697
357,568,9.29248,-30.6342,0.000596222,0.000393422,-0.000100667,0.000637706,0.000351938,-0.390887,0.00036884,0.00971735,1581,456,9.29248,30.6342
364,568,9.29993,-30.1122,0.000346817,0.00135014,0.000413159,0.00149837,0.000198582,1.22632,0.000939742,0.0124125,1588,456,9.29988,30.1122
371,568,9.26379,-29.5694,0.000156112,0.00229014,0.000955467,0.00265541,-0.000209157,1.20565,0.00184395,0.0223758,1595,456,9.26379,29.5694
378,568,9.20776,-29.0245,-6.99801e-05,0.00322797,0.00141272,0.00375037,-0.000592387,1.2166,0.00271931,0.0201433,1602,456,9.20777,29.0245
385,568,9.19006,-28.479,-0.000180275,0.004224,0.00175242,0.00483618,-0.000792457,1.23471,0.00351815,0.00976087,1609,456,9.1901,28.479
392,568,9.16174,-27.9344,0.000132184,0.00501883,0.00199353,0.00572892,-0.000577904,1.22861,0.00402577,0.0110453,1616,456,9.1618,27.9344
399,568,9.09253,-27.3959,0.000774163,0.00570458,0.00252631,0.00676917,-0.000290431,1.17198,0.00461264,0.0178452,1623,456,9.09252,27.3959
406,568,9.12708,-26.8024,0.0016383,0.006556,0.00344166,0.00832692,-0.000132626,1.09557,0.00559602,0.0153713,1630,456,9.12712,26.8024
413,568,9.11157,-26.1857,0.00225731,0.00730523,0.00399871,0.00950991,5.26314e-05,1.06692,0.00632247,0.0115402,1637,456,9.11153,26.1857
420,568,9.06262,-25.5811,0.0029969,0.0077659,0.00460164,0.0105642,0.000198646,1.02444,0.0069775,0.0104418,1644,456,9.06267,25.5811
427,568,9.02136,-24.9547,0.00349516,0.00815476,0.00542997,0.0117336,-8.37198e-05,0.988051,0.00785048,0.01253,1651,456,9.02138,24.9547
434,568,9.0061,-24.3162,0.00432924,0.00863852,0.00643426,0.0132693,-0.000301552,0.946965,0.00894842,0.018814,1658,456,9.0061,24.3162
441,568,9.00732,-23.7888,0.00488537,0.0090368,0.00759388,0.0148335,-0.000911376,0.918809,0.0102064,0.0286293,1665,456,9.00735,23.7888
448,568,9.44666,-23.1334,0.00493126,0.00932015,0.00890049,0.0162927,-0.00204131,0.906264,0.0116023,0.0447827,1672,456,9.44668,23.1334
455,568,9.84583,-22.2161,0.00435406,0.0093106,0.0102203,0.0173488,-0.00368416,0.904345,0.0129695,0.0497793,1679,456,9.84584,22.2161
462,568,10.3958,-21.0686,0,0,0,0,0,0,0,-1,1686,456,10.3957,21.0686
469,568,8.46472,-21.2606,0,0,0,0,0,0,0,-1,1693,456,8.46475,21.2606
476,568,8.68396,-20.8744,0,0,0,0,0,0,0,-1,1700,456,8.68398,20.8744
483,568,7.7699,-20.0269,0,0,0,0,0,0,0,-1,1707,456,7.76992,20.0269
490,568,7.10266,-19.0026,0,0,0,0,0,0,0,-1,1714,456,7.10263,19.0026
497,568,7.45508,-18.4313,0,0,0,0,0,0,0,-1,1721,456,7.45512,18.4313
504,568,0,0,0,0,0,0,0,0,0,-1,1728,456,0,0
511,568,0,0,0,0,0,0,0,0,0,-1,1735,456,0,0
518,568,0,0,0,0,0,0,0,0,0,-1,1742,456,0,0
525,568,0,0,0,0,0,0,0,0,0,-1,1749,456,0,0
532,568,0,0,0,0,0,0,0,0,0,-1,1756,456,0,0
539,568,0,0,0,0,0,0,0,0,0,-1,1763,456,0,0
546,568,0,0,0,0,0,0,0,0,0,-1,1770,456,0,0
553,568,0,0,0,0,0,0,0,0,0,-1,1777,456,0,0
560,568,0,0,0,0,0,0,0,0,0,-1,1784,456,0,0
567,568,0,0,0,0,0,0,0,0,0,-1,1791,456,0,0
574,568,0,0,0,0,0,0,0,0,0,-1,1798,456,0,0
581,568,0,0,0,0,0,0,0,0,0,-1,1805,456,0,0
588,568,0,0,0,0,0,0,0,0,0,-1,1812,456,0,0
595,568,0,0,0,0,0,0,0,0,0,-1,1819,456,0,0
602,568,0,0,0,0,0,0,0,0,0,-1,1826,456,0,0
609,568,0,0,0,0,0,0,0,0,0,-1,1833,456,0,0
616,568,0,0,0,0,0,0,0,0,0,-1,1840,456,0,0
623,568,0,0,0,0,0,0,0,0,0,-1,1847,456,0,0
630,568,0,0,0,0,0,0,0,0,0,-1,1854,456,0,0
637,568,0,0,0,0,0,0,0,0,0,-1,1861,456,0,0
644,568,0,0,0,0,0,0,0,0,0,-1,1868,456,0,0
651,568,0,0,0,0,0,0,0,0,0,-1,1875,456,0,0
658,568,0,0,0,0,0,0,0,0,0,-1,1882,456,0,0
665,568,0,0,0,0,0,0,0,0,0,-1,1889,456,0,0
672,568,0,0,0,0,0,0,0,0,0,-1,1896,456,0,0
679,568,0,0,0,0,0,0,0,0,0,-1,1903,456,0,0
686,568,0,0,0,0,0,0,0,0,0,-1,1910,456,0,0
693,568,0,0,0,0,0,0,0,0,0,-1,1917,456,0,0
700,568,0,0,0,0,0,0,0,0,0,-1,1924,456,0,0
707,568,0,0,0,0,0,0,0,0,0,-1,1931,456,0,0
714,568,0,0,0,0,0,0,0,0,0,-1,1938,456,0,0
721,568,0,0,0,0,0,0,0,0,0,-1,1945,456,0,0
728,568,0,0,0,0,0,0,0,0,0,-1,1952,456,0,0
735,568,0,0,0,0,0,0,0,0,0,-1,1959,456,0,0
742,568,0,0,0,0,0,0,0,0,0,-1,1966,456,0,0
749,568,0,0,0,0,0,0,0,0,0,-1,1973,456,0,0
756,568,0,0,0,0,0,0,0,0,0,-1,1980,456,0,0
763,568,0,0,0,0,0,0,0,0,0,-1,1987,456,0,0
770,568,0,0,0,0,0,0,0,0,0,-1,1994,456,0,0
777,568,0,0,0,0,0,0,0,0,0,-1,2001,456,0,0
784,568,0,0,0,0,0,0,0,0,0,-1,2008,456,0,0
791,568,0,0,0,0,0,0,0,0,0,-1,2015,456,0,0
798,568,0,0,0,0,0,0,0,0,0,-1,2022,456,0,0
805,568,0,0,0,0,0,0,0,0,0,-1,2029,456,0,0
812,568,0,0,0,0,0,0,0,0,0,-1,2036,456,0,0
-700,561,0,0,0,0,0,0,0,0,0,-1,524,463,0,0
-693,561,0,0,0,0,0,0,0,0,0,-1,531,463,0,0
-686,561,0,0,0,0,0,0,0,0,0,-1,538,463,0,0
-679,561,0,0,0,0,0,0,0,0,0,-1,545,463,0,0
-672,561,0,0,0,0,0,0,0,0,0,-1,552,463,0,0
-665,561,0,0,0,0,0,0,0,0,0,-1,559,463,0,0
-658,561,0,0,0,0,0,0,0,0,0,-1,566,463,0,0
-651,561,0,0,0,0,0,0,0,0,0,-1,573,463,0,0
-644,561,0,0,0,0,0,0,0,0,0,-1,580,463,0,0
-637,561,0,0,0,0,0,0,0,0,0,-1,587,463,0,0
-630,561,0,0,0,0,0,0,0,0,0,-1,594,463,0,0
-623,561,0,0,0,0,0,0,0,0,0,-1,601,463,0,0
-616,561,0,0,0,0,0,0,0,0,0,-1,608,463,0,0
-609,561,0,0,0,0,0,0,0,0,0,-1,615,463,0,0
-602,561,0,0,0,0,0,0,0,0,0,-1,622,463,0,0
-595,561,0,0,0,0,0,0,0,0,0,-1,629,463,0,0
-588,561,0,0,0,0,0,0,0,0,0,-1,636,463,0,0
-581,561,0,0,0,0,0,0,0,0,0,-1,643,463,0,0
-574,561,0,0,0,0,0,0,0,0,0,-1,650,463,0,0
-567,561,0,0,0,0,0,0,0,0,0,-1,657,463,0,0
-560,561,0,0,0,0,0,0,0,0,0,-1,664,463,0,0
-553,561,0,0,0,0,0,0,0,0,0,-1,671,463,0,0
-546,561,0,0,0,0,0,0,0,0,0,-1,678,463,0,0
-539,561,0,0,0,0,0,0,0,0,0,-1,685,463,0,0
-532,561,0,0,0,0,0,0,0,0,0,-1,692,463,0,0
-525,561,0,0,0,0,0,0,0,0,0,-1,699,463,0,0
-518,561,0,0,0,0,0,0,0,0,0,-1,706,463,0,0
-511,561,0,0,0,0,0,0,0,0,0,-1,713,463,0,0
-504,561,0,0,0,0,0,0,0,0,0,-1,720,463,0,0
-497,561,0,0,0,0,0,0,0,0,0,-1,727,463,0,0
-490,561,0,0,0,0,0,0,0,0,0,-1,734,463,0,0
-483,561,0,0,0,0,0,0,0,0,0,-1,741,463,0,0
-476,561,0,0,0,0,0,0,0,0,0,-1,748,463,0,0
-469,561,0,0,0,0,0,0,0,0,0,-1,755,463,0,0
-462,561,0,0,0,0,0,0,0,0,0,-1,762,463,0,0
-455,561,0,0,0,0,0,0,0,0,0,-1,769,463,0,0
-448,561,0,0,0,0,0,0,0,0,0,-1,776,463,0,0
-441,561,0,0,0,0,0,0,0,0,0,-1,783,463,0,0
-434,561,0,0,0,0,0,0,0,0,0,-1,790,463,0,0
-427,561,0,0,0,0,0,0,0,0,0,-1,797,463,0,0
-420,561,0,0,0,0,0,0,0,0,0,-1,804,463,0,0
-413,561,0,0,0,0,0,0,0,0,0,-1,811,463,0,0
-406,561,0,0,0,0,0,0,0,0,0,-1,818,463,0,0
-399,561,0,0,0,0,0,0,0,0,0,-1,825,463,0,0
-392,561,4.92407,-2.54578,0,0,0,0,0,0,0,-1,832,463,4.92408,2.54576
-385,561,5.55634,-1.02338,0,0,0,0,0,0,0,-1,839,463,5.55634,1.02338
-378,561,0.160522,-4.51785,0,0,0,0,0,0,0,-1,846,463,0.160542,4.51785
-371,561,1.06299,-7.56818,0,0,0,0,0,0,0,-1,853,463,1.06297,7.56817
-364,561,1.45264,-7.57684,0,0,0,0,0,0,0,-1,860,463,1.45264,7.57684
-357,561,0.948242,-12.2803,0,0,0,0,0,0,0,-1,867,463,0.948262,12.2803
-350,561,1.33124,-11.9406,0,0,0,0,0,0,0,-1,874,463,1.33127,11.9406
-343,561,1.13214,-14.1837,0,0,0,0,0,0,0,-1,881,463,1.13217,14.1837
-336,561,1.88489,-22.9359,0,0,0,0,0,0,0,-1,888,463,1.88489,22.9358
-329,561,2.53607,-22.9846,0,0,0,0,0,0,0,-1,895,463,2.53608,22.9846
-322,561,1.52313,-24.1092,-0.0163556,0.00569928,-0.00828705,0.00846603,-0.0191223,-1.24857,0.0163194,0.0376891,902,463,1.52313,24.1092
-315,561,1.784,-24.4938,-0.0135068,0.00390686,-0.00719439,0.00649465,-0.0160945,-1.22551,0.0134287,0.0249352,909,463,1.78402,24.4938
-308,561,1.72119,-25.2249,-0.0108032,0.0030951,-0.00635499,0.00556277,-0.0132709,-1.20041,0.0111731,0.0209442,916,463,1.72117,25.2249
-301,561,1.64679,-25.9788,-0.00823305,0.00241072,-0.00567957,0.00487215,-0.0106945,-1.16185,0.00919456,0.014112,923,463,1.64677,25.9788
-294,561,1.58624,-26.5638,-0.00587663,0.00211024,-0.00496446,0.0044881,-0.00825449,-1.12411,0.00746329,0.0115631,930,463,1.58621,26.5638
-287,561,1.55829,-27.1109,-0.00396732,0.00197653,-0.00423589,0.00417907,-0.00616986,-1.0913,0.0060117,0.0103476,937,463,1.55829,27.1109
-280,561,1.5282,-27.6661,-0.00242274,0.00198458,-0.00362376,0.00402212,-0.00446028,-1.05858,0.00489949,0.0119462,944,463,1.52821,27.6661
-273,561,1.48846,-28.2155,-0.00119466,0.00188286,-0.00300494,0.0037201,-0.00303191,-1.02203,0.00390502,0.014431,951,463,1.48844,28.2154
-266,561,1.45294,-28.7608,0.000144204,0.00131819,-0.00248162,0.00328129,-0.0018189,-0.901531,0.00298467,0.00986134,958,463,1.45293,28.7608
-259,561,1.43695,-29.2902,0.000909477,0.00100585,-0.00156294,0.00252135,-0.00060602,-0.800809,0.00191514,0.0104298,965,463,1.43694,29.2901
-252,561,1.41168,-29.8053,0.00117713,8.37244e-05,-0.000779246,0.00158232,-0.00032147,-0.479506,0.00117677,0.0144654,972,463,1.41167,29.8053
-245,561,1.39923,-30.3332,0.00139922,-0.00120567,-2.99806e-05,0.00139956,-0.00120602,-0.0115073,0.00150572,0.0161399,979,463,1.39923,30.3332
-238,561,1.41235,-30.865,0.00184732,-0.00287634,0.000795934,0.00197783,-0.00300685,0.162523,0.00289828,0.0127561,986,463,1.41236,30.865
-231,561,1.39258,-31.3933,0.0024363,-0.00498307,0.00147549,0.00271896,-0.00526573,0.189278,0.00468748,0.0111284,993,463,1.39259,31.3933
-224,561,1.39447,-31.9006,0.00282326,-0.00714804,0.00229079,0.00332436,-0.00764913,0.215353,0.00649749,0.0113708,1000,463,1.39448,31.9006
-217,561,1.40601,-32.3941,0.00330061,-0.00939334,0.00311086,0.00402198,-0.0101147,0.227861,0.00841071,0.0122722,1007,463,1.40599,32.3941
-210,561,1.39117,-32.88,0.00377199,-0.0117556,0.00387647,0.00468596,-0.0126695,0.231545,0.0103676,0.0129438,1014,463,1.39115,32.88
-203,561,1.4079,-33.362,0.00434383,-0.0140318,0.00457278,0.00541887,-0.0151069,0.230903,0.0122827,0.0141597,1021,463,1.4079,33.362
-196,561,1.34338,-33.7788,0.00499451,-0.0162458,0.00537756,0.00627838,-0.0175297,0.234359,0.0142481,0.0158262,1028,463,1.34336,33.7788
-189,561,1.41589,-34.1988,0.00564879,-0.0189987,0.00629973,0.00716561,-0.0205156,0.236278,0.0165897,0.0203763,1035,463,1.41583,34.1988
-182,561,1.5144,-34.6262,0.00602923,-0.0224868,0.00737048,0.0078216,-0.0242792,0.238552,0.0193283,0.0237616,1042,463,1.51441,34.6262
-175,561,1.37939,-35.0479,0.00587368,-0.026524,0.00869669,0.00806056,-0.0287109,0.246354,0.022318,0.0363384,1049,463,1.37934,35.0479
-168,561,1.30273,-35.4939,0.00572617,-0.0310626,0.00988966,0.0082162,-0.0335526,0.246654,0.0255513,0.048972,1056,463,1.30278,35.4939
-161,561,1.35425,-35.7647,0.00528837,-0.0360417,0.0111736,0.00811573,-0.038869,0.247838,0.028999,0.0487254,1063,463,1.35428,35.7647
-154,561,1.2301,-36.2323,0,0,0,0,0,0,0,-1,1070,463,1.23005,36.2323
-147,561,1.15356,-36.7814,0,0,0,0,0,0,0,-1,1077,463,1.15351,36.7814
-140,561,1.771,-36.0228,0,0,0,0,0,0,0,-1,1084,463,1.77102,36.0228
-133,561,2.18396,-36.3434,0,0,0,0,0,0,0,-1,1091,463,2.18394,36.3433
-126,561,1.60168,-36.0216,0,0,0,0,0,0,0,-1,1098,463,1.60166,36.0216
-119,561,-0.336304,-35.422,0,0,0,0,0,0,0,-1,1105,463,-0.336245,35.422
-112,561,1.24365,-29.1982,0,0,0,0,0,0,0,-1,1112,463,1.2437,29.1981
-105,561,0.530518,-13.5379,0,0,0,0,0,0,0,-1,1119,463,0.530477,13.5379
-98,561,1.5387,-7.54352,0,0,0,0,0,0,0,-1,1126,463,1.53871,7.54351
-91,561,1.29553,-6.57968,0,0,0,0,0,0,0,-1,1133,463,1.29549,6.5797
-84,561,1.23364,-5.84555,0,0,0,0,0,0,0,-1,1140,463,1.23363,5.84556
-77,561,-2.36023,1.00204,0,0,0,0,0,0,0,-1,1147,463,-2.3602,-1.00205
-70,561,-3.90015,-1.41541,0,0,0,0,0,0,0,-1,1154,463,-3.90009,1.4154
-63,561,-6.95691,-4.02756,0,0,0,0,0,0,0,-1,1161,463,-6.95696,4.02756
-56,561,-5.37988,-6.66855,0,0,0,0,0,0,0,-1,1168,463,-5.37988,6.66854
-49,561,-5.7439,-9.11029,0,0,0,0,0,0,0,-1,1175,463,-5.74387,9.1103
-42,561,-1.72644,-5.63065,0,0,0,0,0,0,0,-1,1182,463,-1.72648,5.63064
-35,561,-1.65674,-4.87994,0,0,0,0,0,0,0,-1,1189,463,-1.6567,4.87993
-28,561,-1.91418,-3.86896,0,0,0,0,0,0,0,-1,1196,463,-1.91414,3.86895
-21,561,0.646973,-35.3444,0,0,0,0,0,0,0,-1,1203,463,0.646914,35.3444
-14,561,0.711548,-35.3782,0,0,0,0,0,0,0,-1,1210,463,0.711599,35.3782
-7,561,0.785156,-35.5703,0,0,0,0,0,0,0,-1,1217,463,0.78514,35.5703
0,561,7.70581,-45.7788,0,0,0,0,0,0,0,-1,1224,463,7.70583,45.7788
7,561,7.51318,-45.4301,-0.0151609,0.0677766,-0.00422231,0.067991,-0.0153753,-1.52006,0.0512274,0.0441238,1231,463,7.51314,45.4301
14,561,7.37512,-45.0665,-0.018252,0.0622978,-0.00838878,0.0631622,-0.0191164,-1.46812,0.0497207,0.039135,1238,463,7.37516,45.0665
21,561,7.62524,-44.3115,-0.0241696,0.0577427,-0.0104155,0.0590464,-0.0254732,-1.44628,0.0500642,0.0408563,1245,463,7.62521,44.3115
28,561,7.01196,-44.2917,-0.0296828,0.0537919,-0.0100348,0.0549813,-0.0308722,-1.45282,0.0502148,0.044742,1252,463,7.01192,44.2917
35,561,6.72461,-43.7945,-0.0354122,0.0498982,-0.00777783,0.0506015,-0.0361155,-1.48062,0.0502984,0.0419169,1259,463,6.7246,43.7945
42,561,7.05273,-43.7284,-0.0409844,0.0462331,-0.00394561,0.0464113,-0.0411626,-1.52568,0.050591,0.0416945,1266,463,7.05279,43.7284
49,561,7.00488,-43.7984,-0.0460045,0.0425989,0.00134564,0.0426194,-0.046025,1.55561,0.0511914,0.0444493,1273,463,7.00484,43.7984
56,561,6.8219,-43.7525,-0.0500127,0.0388972,0.00793018,0.039599,-0.0507144,1.48253,0.052274,0.0457599,1280,463,6.8219,43.7525
63,561,6.73279,-43.7097,-0.0524439,0.0346559,0.0151104,0.0372028,-0.0549909,1.40381,0.0535573,0.0491953,1287,463,6.73278,43.7097
70,561,3.53174,-42.8024,-0.0532425,0.0302793,0.0228322,0.0361134,-0.0590766,1.32063,0.0554885,0.0469722,1294,463,3.53171,42.8024
77,561,3.71936,-42.2542,-0.0509835,0.0259165,0.0307398,0.0366939,-0.061761,1.23359,0.0574538,0.0473723,1301,463,3.71941,42.2543
84,561,3.75696,-41.6816,-0.0451261,0.0204124,0.0361241,0.0364158,-0.0611295,1.15377,0.0569171,0.0462546,1308,463,3.75691,41.6816
91,561,3.52539,-41.5453,0,0,0,0,0,0,0,-1,1315,463,3.52543,41.5453
98,561,3.20813,-41.4314,0,0,0,0,0,0,0,-1,1322,463,3.20813,41.4314
105,561,13.3425,-45.8722,0,0,0,0,0,0,0,-1,1329,463,13.3426,45.8722
112,561,6.42395,-50.8431,0,0,0,0,0,0,0,-1,1336,463,6.42396,50.8431
119,561,6.4364,-28.3505,0,0,0,0,0,0,0,-1,1343,463,6.43643,28.3505
126,561,6.72668,-27.2786,0,0,0,0,0,0,0,-1,1350,463,6.7267,27.2786
133,561,7.28821,-25.1331,0,0,0,0,0,0,0,-1,1357,463,7.28818,25.1331
140,561,7.56189,-23.5632,0,0,0,0,0,0,0,-1,1364,463,7.56192,23.5632
147,561,3.40991,-43.094,0,0,0,0,0,0,0,-1,1371,463,3.40995,43.094
154,561,1.47754,-41.9901,0,0,0,0,0,0,0,-1,1378,463,1.47751,41.9901
161,561,-0.244019,-40.5217,0,0,0,0,0,0,0,-1,1385,463,-0.244054,40.5217
168,561,-1.06763,-38.7777,0,0,0,0,0,0,0,-1,1392,463,-1.06757,38.7777
175,561,10.4185,0.276398,0,0,0,0,0,0,0,-1,1399,463,10.4185,-0.276394
182,561,6.45703,-4.02127,0,0,0,0,0,0,0,-1,1406,463,6.45704,4.02127
189,561,6.50854,-2.08685,0,0,0,0,0,0,0,-1,1413,463,6.50851,2.08686
196,561,6.44775,-0.27182,0,0,0,0,0,0,0,-1,1420,463,6.44773,0.271814
203,561,6.18591,1.1301,0,0,0,0,0,0,0,-1,1427,463,6.18592,-1.13009
210,561,5.68713,2.68427,0,0,0,0,0,0,0,-1,1434,463,5.6871,-2.68425
217,561,3.61743,-7.33582,0,0,0,0,0,0,0,-1,1441,463,3.61738,7.33581
224,561,4.27466,-8.59171,0,0,0,0,0,0,0,-1,1448,463,4.27466,8.59171
231,561,4.93188,-9.8476,0,0,0,0,0,0,0,-1,1455,463,4.93193,9.84761
238,561,2.18018,-5.18359,0,0,0,0,0,0,0,-1,1462,463,2.18023,5.18359
245,561,3.07568,-3.50238,0,0,0,0,0,0,0,-1,1469,463,3.0757,3.50238
252,561,3.47412,-3.71109,0,0,0,0,0,0,0,-1,1476,463,3.47413,3.71109
259,561,3.42212,-3.2334,0,0,0,0,0,0,0,-1,1483,463,3.42214,3.2334
266,561,4.44373,-5.90027,0,0,0,0,0,0,0,-1,1490,463,4.44372,5.90026
273,561,2.59485,-3.65268,0,0,0,0,0,0,0,-1,1497,463,2.5948,3.65268
280,561,3.10767,-6.38235,0,0,0,0,0,0,0,-1,1504,463,3.10766,6.38235
287,561,4.91809,-14.429,0,0,0,0,0,0,0,-1,1511,463,4.9181,14.429
294,561,9.6637,-34.8133,0,0,0,0,0,0,0,-1,1518,463,9.66369,34.8133
301,561,9.75903,-34.4002,0,0,0,0,0,0,0,-1,1525,463,9.75901,34.4002
308,561,9.74976,-34.0085,0.00463274,-0.00530421,-0.00255114,0.00524943,-0.0059209,-0.237181,0.00645307,0.0318347,1532,463,9.74973,34.0085
315,561,9.81091,-33.6398,0.00383082,-0.00527328,-0.00282219,0.0046347,-0.00607716,-0.277492,0.00620316,0.0185981,1539,463,9.81094,33.6398
322,561,9.78699,-33.1958,0.00311902,-0.00478187,-0.00272588,0.0039682,-0.00563105,-0.301998,0.00556978,0.0166482,1546,463,9.78699,33.1958
329,561,9.8114,-32.6893,0.00251957,-0.00434775,-0.00259168,0.00338786,-0.00521604,-0.323279,0.00500471,0.0131437,1553,463,9.81141,32.6893
336,561,9.84338,-32.1563,0.00210333,-0.00356239,-0.00229632,0.00291714,-0.00437619,-0.340585,0.0042388,0.0114529,1560,463,9.84333,32.1562
343,561,9.8468,-31.6621,0.00166454,-0.00286289,-0.001999,0.00242083,-0.00361917,-0.361689,0.00351,0.0104128,1567,463,9.84675,31.6621
350,561,9.82275,-31.1457,0.00122609,-0.0021601,-0.00166875,0.00191024,-0.00284425,-0.389079,0.00276261,0.00960694,1574,463,9.82279,31.1457
357,561,9.81421,-30.6049,0.000907793,-0.00135274,-0.00122743,0.00144609,-0.00189103,-0.413294,0.00193239,0.00988501,1581,463,9.81424,30.6049
364,561,9.81079,-30.1091,0.000650302,-0.000430926,-0.00071855,0.0010089,-0.000789521,-0.462891,0.00104089,0.00968494,1588,463,9.81077,30.1091
371,561,9.77979,-29.5675,0.000467678,0.000466398,-0.000170468,0.000637508,0.000296568,-0.783522,0.000368362,0.0173719,1595,463,9.77981,29.5675
378,561,9.75,-29.0176,0.000273568,0.00137715,0.00032523,0.00146587,0.000184853,1.3045,0.000921825,0.0124503,1602,463,9.75005,29.0176
385,561,9.74829,-28.4506,0.000148825,0.00236867,0.00074947,0.00259801,-8.05185e-05,1.27384,0.00175946,0.0103884,1609,463,9.74835,28.4506
392,561,9.72888,-27.886,0.000335829,0.00316632,0.00109491,0.00354042,-3.8267e-05,1.24156,0.00237314,0.0145418,1616,463,9.72883,27.8859
399,561,9.70496,-27.3209,0.00080497,0.00380252,0.00162351,0.00451329,9.41961e-05,1.15813,0.00297796,0.0207289,1623,463,9.70492,27.3209
406,561,9.68677,-26.7488,0.00144168,0.00459596,0.00245295,0.00593504,0.000102598,1.0711,0.00392294,0.0187855,1630,463,9.68678,26.7488
413,561,9.67236,-26.1553,0.00189816,0.00535959,0.0030535,0.00713875,0.000118999,1.04322,0.00472,0.0173819,1637,463,9.67241,26.1553
420,561,9.61902,-25.5644,0.00242534,0.00584451,0.00367919,0.00819191,7.79349e-05,1.00289,0.00543548,0.0137764,1644,463,9.619,25.5644
427,561,9.60535,-24.9439,0.00272631,0.00624787,0.00445615,0.0092785,-0.000304324,0.973551,0.00628956,0.0104306,1651,463,9.60537,24.9439
434,561,9.59521,-24.3205,0.00326111,0.00672132,0.00537036,0.0106334,-0.000650947,0.941228,0.00731556,0.0127978,1658,463,9.59524,24.3205
441,561,9.59546,-23.7335,0.00355115,0.00710404,0.00639351,0.0119633,-0.00130812,0.920906,0.00844542,0.0165795,1665,463,9.59547,23.7335
448,561,9.65601,-23.1249,0.0034561,0.00741769,0.00749898,0.0131931,-0.00231927,0.91452,0.00966171,0.0254325,1672,463,9.65598,23.1249
455,561,9.82764,-22.4199,0.00293843,0.00751122,0.00857958,0.0141038,-0.00365419,0.915618,0.0108281,0.0468515,1679,463,9.82765,22.4199
462,561,9.44177,-21.7116,0.00195691,0.00772432,0.00978673,0.0150434,-0.00536212,0.928671,0.0122151,0.0457979,1686,463,9.44177,21.7116
469,561,9.27454,-21.2987,0.000540721,0.00784877,0.011136,0.0159149,-0.00752543,0.943927,0.0138192,0.0267717,1693,463,9.27448,21.2987
476,561,9.07117,-20.6078,-0.00103807,0.00758837,0.012772,0.0167558,-0.0102055,0.94824,0.0157185,0.0418068,1700,463,9.07115,20.6078
483,561,8.26221,-19.5955,0,0,0,0,0,0,0,-1,1707,463,8.26219,19.5955
490,561,7.474,-18.5658,0,0,0,0,0,0,0,-1,1714,463,7.474,18.5658
497,561,6.84595,-17.3756,0,0,0,0,0,0,0,-1,1721,463,6.84597,17.3756
504,561,10.0769,-0.811401,0,0,0,0,0,0,0,-1,1728,463,10.0769,0.8114
511,561,0,0,0,0,0,0,0,0,0,-1,1735,463,0,0
518,561,0,0,0,0,0,0,0,0,0,-1,1742,463,0,0
525,561,0,0,0,0,0,0,0,0,0,-1,1749,463,0,0
532,561,0,0,0,0,0,0,0,0,0,-1,1756,463,0,0
539,561,0,0,0,0,0,0,0,0,0,-1,1763,463,0,0
546,561,0,0,0,0,0,0,0,0,0,-1,1770,463,0,0
553,561,0,0,0,0,0,0,0,0,0,-1,1777,463,0,0
560,561,0,0,0,0,0,0,0,0,0,-1,1784,463,0,0
567,561,0,0,0,0,0,0,0,0,0,-1,1791,463,0,0
574,561,0,0,0,0,0,0,0,0,0,-1,1798,463,0,0
581,561,0,0,0,0,0,0,0,0,0,-1,1805,463,0,0
588,561,0,0,0,0,0,0,0,0,0,-1,1812,463,0,0
595,561,0,0,0,0,0,0,0,0,0,-1,1819,463,0,0
602,561,0,0,0,0,0,0,0,0,0,-1,1826,463,0,0
609,561,0,0,0,0,0,0,0,0,0,-1,1833,463,0,0
616,561,0,0,0,0,0,0,0,0,0,-1,1840,463,0,0
623,561,0,0,0,0,0,0,0,0,0,-1,1847,463,0,0
630,561,0,0,0,0,0,0,0,0,0,-1,1854,463,0,0
637,561,0,0,0,0,0,0,0,0,0,-1,1861,463,0,0
644,561,0,0,0,0,0,0,0,0,0,-1,1868,463,0,0
651,561,0,0,0,0,0,0,0,0,0,-1,1875,463,0,0
658,561,0,0,0,0,0,0,0,0,0,-1,1882,463,0,0
665,561,0,0,0,0,0,0,0,0,0,-1,1889,463,0,0
672,561,0,0,0,0,0,0,0,0,0,-1,1896,463,0,0
679,561,0,0,0,0,0,0,0,0,0,-1,1903,463,0,0
686,561,0,0,0,0,0,0,0,0,0,-1,1910,463,0,0
693,561,0,0,0,0,0,0,0,0,0,-1,1917,463,0,0
700,561,0,0,0,0,0,0,0,0,0,-1,1924,463,0,0
707,561,0,0,0,0,0,0,0,0,0,-1,1931,463,0,0
714,561,0,0,0,0,0,0,0,0,0,-1,1938,463,0,0
721,561,0,0,0,0,0,0,0,0,0,-1,1945,463,0,0
728,561,0,0,0,0,0,0,0,0,0,-1,1952,463,0,0
735,561,0,0,0,0,0,0,0,0,0,-1,1959,463,0,0
742,561,0,0,0,0,0,0,0,0,0,-1,1966,463,0,0
749,561,0,0,0,0,0,0,0,0,0,-1,1973,463,0,0
756,561,0,0,0,0,0,0,0,0,0,-1,1980,463,0,0
763,561,0,0,0,0,0,0,0,0,0,-1,1987,463,0,0
770,561,0,0,0,0,0,0,0,0,0,-1,1994,463,0,0
777,561,0,0,0,0,0,0,0,0,0,-1,2001,463,0,0
784,561,0,0,0,0,0,0,0,0,0,-1,2008,463,0,0
791,561,0,0,0,0,0,0,0,0,0,-1,2015,463,0,0
798,561,0,0,0,0,0,0,0,0,0,-1,2022,463,0,0
805,561,0,0,0,0,0,0,0,0,0,-1,2029,463,0,0
812,561,0,0,0,0,0,0,0,0,0,-1,2036,463,0,0
-700,554,0,0,0,0,0,0,0,0,0,-1,524,470,0,0
-693,554,0,0,0,0,0,0,0,0,0,-1,531,470,0,0
-686,554,0,0,0,0,0,0,0,0,0,-1,538,470,0,0
-679,554,0,0,0,0,0,0,0,0,0,-1,545,470,0,0
-672,554,0,0,0,0,0,0,0,0,0,-1,552,470,0,0
-665,554,0,0,0,0,0,0,0,0,0,-1,559,470,0,0
-658,554,0,0,0,0,0,0,0,0,0,-1,566,470,0,0
-651,554,0,0,0,0,0,0,0,0,0,-1,573,470,0,0
-644,554,0,0,0,0,0,0,0,0,0,-1,580,470,0,0
-637,554,0,0,0,0,0,0,0,0,0,-1,587,470,0,0
-630,554,0,0,0,0,0,0,0,0,0,-1,594,470,0,0
-623,554,0,0,0,0,0,0,0,0,0,-1,601,470,0,0
-616,554,0,0,0,0,0,0,0,0,0,-1,608,470,0,0
-609,554,0,0,0,0,0,0,0,0,0,-1,615,470,0,0
-602,554,0,0,0,0,0,0,0,0,0,-1,622,470,0,0
-595,554,0,0,0,0,0,0,0,0,0,-1,629,470,0,0
-588,554,0,0,0,0,0,0,0,0,0,-1,636,470,0,0
-581,554,0,0,0,0,0,0,0,0,0,-1,643,470,0,0
-574,554,0,0,0,0,0,0,0,0,0,-1,650,470,0,0
-567,554,0,0,0,0,0,0,0,0,0,-1,657,470,0,0
-560,554,0,0,0,0,0,0,0,0,0,-1,664,470,0,0
-553,554,0,0,0,0,0,0,0,0,0,-1,671,470,0,0
-546,554,0,0,0,0,0,0,0,0,0,-1,678,470,0,0
-539,554,0,0,0,0,0,0,0,0,0,-1,685,470,0,0
-532,554,0,0,0,0,0,0,0,0,0,-1,692,470,0,0
-525,554,0,0,0,0,0,0,0,0,0,-1,699,470,0,0
-518,554,0,0,0,0,0,0,0,0,0,-1,706,470,0,0
-511,554,0,0,0,0,0,0,0,0,0,-1,713,470,0,0
-504,554,0,0,0,0,0,0,0,0,0,-1,720,470,0,0
-497,554,0,0,0,0,0,0,0,0,0,-1,727,470,0,0
-490,554,0,0,0,0,0,0,0,0,0,-1,734,470,0,0
-483,554,0,0,0,0,0,0,0,0,0,-1,741,470,0,0
-476,554,0,0,0,0,0,0,0,0,0,-1,748,470,0,0
-469,554,0,0,0,0,0,0,0,0,0,-1,755,470,0,0
-462,554,0,0,0,0,0,0,0,0,0,-1,762,470,0,0
-455,554,0,0,0,0,0,0,0,0,0,-1,769,470,0,0
-448,554,0,0,0,0,0,0,0,0,0,-1,776,470,0,0
-441,554,0,0,0,0,0,0,0,0,0,-1,783,470,0,0
-434,554,0,0,0,0,0,0,0,0,0,-1,790,470,0,0
-427,554,0,0,0,0,0,0,0,0,0,-1,797,470,0,0
-420,554,0,0,0,0,0,0,0,0,0,-1,804,470,0,0
-413,554,0,0,0,0,0,0,0,0,0,-1,811,470,0,0
-406,554,0,0,0,0,0,0,0,0,0,-1,818,470,0,0
-399,554,-1.32275,-3.95142,0,0,0,0,0,0,0,-1,825,470,-1.32275,3.95141
-392,554,-1.35632,-3.7406,0,0,0,0,0,0,0,-1,832,470,-1.35632,3.7406
-385,554,-0.849243,-4.14447,0,0,0,0,0,0,0,-1,839,470,-0.849262,4.14446
-378,554,-0.982666,-4.55084,0,0,0,0,0,0,0,-1,846,470,-0.982671,4.55084
-371,554,-1.74542,-4.63467,0,0,0,0,0,0,0,-1,853,470,-1.74541,4.63468
-364,554,1.04883,-7.68756,0,0,0,0,0,0,0,-1,860,470,1.0488,7.68757
-357,554,1.62164,-19.1316,0,0,0,0,0,0,0,-1,867,470,1.62162,19.1316
-350,554,1.17157,-18.1341,0,0,0,0,0,0,0,-1,874,470,1.17156,18.1341
-343,554,1.4024,-22.4899,0,0,0,0,0,0,0,-1,881,470,1.40239,22.4899
-336,554,1.3158,-22.9731,-0.0151921,0.0137482,-0.00910269,0.0163732,-0.0178171,-1.29004,0.0197457,0.042705,888,470,1.31578,22.9731
-329,554,1.20728,-23.5946,-0.0132197,0.00926056,-0.00754277,0.0115568,-0.015516,-1.27528,0.0156861,0.0213063,895,470,1.20729,23.5946
-322,554,1.12518,-24.1952,-0.011212,0.00638097,-0.00635271,0.00843507,-0.0132661,-1.25806,0.0126322,0.014111,902,470,1.1252,24.1952
-315,554,1.12299,-24.7836,-0.00936835,0.00450967,-0.00534444,0.00632926,-0.0111879,-1.24264,0.0102424,0.0132286,909,470,1.12299,24.7836
-308,554,1.09198,-25.3764,-0.00758865,0.00343231,-0.00454995,0.00506797,-0.00922432,-1.22569,0.00836716,0.013683,916,470,1.09196,25.3764
-301,554,1.08313,-25.978,-0.00578152,0.00249428,-0.00394264,0.00407185,-0.0073591,-1.19018,0.00669,0.0140895,923,470,1.0831,25.978
-294,554,1.04376,-26.5548,-0.00401372,0.0019259,-0.00330904,0.00340238,-0.0054902,-1.15111,0.00518109,0.0126399,930,470,1.04379,26.5548
-287,554,1.01184,-27.1138,-0.00252175,0.00157059,-0.00269006,0.00290425,-0.00385541,-1.11054,0.00391555,0.012764,937,470,1.01187,27.1138
-280,554,0.988342,-27.6537,-0.00129345,0.00121655,-0.00216853,0.00246705,-0.00254395,-1.04772,0.00289322,0.0118889,944,470,0.988322,27.6537
-273,554,0.949768,-28.2156,-0.000299576,0.000836145,-0.00160964,0.00197515,-0.00143858,-0.954976,0.00197902,0.0163705,951,470,0.949747,28.2156
-266,554,0.924316,-28.7625,0.00070443,0.000104907,-0.00107905,0.00152458,-0.000715247,-0.649914,0.00132101,0.0135407,958,470,0.92433,28.7625
-259,554,0.900391,-29.2538,0.00135563,-0.000625938,-0.000257833,0.00138863,-0.000658937,-0.127293,0.00120692,0.0126773,965,470,0.900421,29.2538
-252,554,0.877197,-29.7625,0.0016776,-0.00186343,0.000509269,0.00174939,-0.00193522,0.140039,0.00212821,0.0147486,972,470,0.877225,29.7625
-245,554,0.860535,-30.2806,0.00192521,-0.00352085,0.00129674,0.00221821,-0.00381385,0.222219,0.00352299,0.0151609,979,470,0.86054,30.2806
-238,554,0.892395,-30.8459,0.00245094,-0.00543549,0.00214789,0.00299798,-0.00598253,0.249385,0.00527948,0.0111482,986,470,0.892399,30.846
-231,554,0.882324,-31.3795,0.00317448,-0.00789973,0.00284593,0.00386303,-0.00858828,0.237382,0.0073593,0.0100568,993,470,0.882322,31.3795
-224,554,0.888611,-31.8677,0.00363512,-0.0104902,0.00374071,0.00456459,-0.0114197,0.243541,0.00950719,0.010416,1000,470,0.888641,31.8677
-217,554,0.893738,-32.3503,0.0042232,-0.0131619,0.00466533,0.00539603,-0.0143347,0.24629,0.0117748,0.0107981,1007,470,0.893756,32.3503
-210,554,0.886292,-32.8279,0.00478982,-0.0159663,0.00551887,0.006166,-0.0173425,0.244375,0.0140746,0.014376,1014,470,0.886278,32.8279
-203,554,0.881409,-33.2551,0.00551225,-0.018702,0.00627385,0.00704124,-0.020231,0.239048,0.016348,0.0234057,1021,470,0.881428,33.2551
-196,554,0.827393,-33.5935,0.00634231,-0.0214551,0.0071807,0.00808766,-0.0232005,0.238437,0.0187535,0.0297724,1028,470,0.827386,33.5935
-189,554,0.91748,-33.8982,0.00718815,-0.0248744,0.00825675,0.00918951,-0.0268757,0.237804,0.0216408,0.0374215,1035,470,0.917501,33.8982
-182,554,1.38599,-34.1882,0.00766763,-0.0291777,0.00950275,0.0099741,-0.0314841,0.238111,0.0249867,0.0488414,1042,470,1.38603,34.1882
-175,554,0.802124,-34.8334,0,0,0,0,0,0,0,-1,1049,470,0.802081,34.8334
-168,554,0.664307,-35.3736,0,0,0,0,0,0,0,-1,1056,470,0.664248,35.3736
-161,554,0.740112,-35.4375,0,0,0,0,0,0,0,-1,1063,470,0.740111,35.4375
-154,554,0.598755,-35.8635,0,0,0,0,0,0,0,-1,1070,470,0.598777,35.8635
-147,554,1.34558,-35.0622,0,0,0,0,0,0,0,-1,1077,470,1.3456,35.0622
-140,554,1.27051,-35.4022,0,0,0,0,0,0,0,-1,1084,470,1.27055,35.4022
-133,554,2.67163,-32.8187,0,0,0,0,0,0,0,-1,1091,470,2.67161,32.8187
-126,554,0.851929,-33.5393,0,0,0,0,0,0,0,-1,1098,470,0.851942,33.5393
-119,554,-1.03479,-32.1628,0,0,0,0,0,0,0,-1,1105,470,-1.03476,32.1628
-112,554,1.03162,-24.5784,0,0,0,0,0,0,0,-1,1112,470,1.03156,24.5784
-105,554,0.608765,-21.0475,0,0,0,0,0,0,0,-1,1119,470,0.608728,21.0475
-98,554,1.51929,-7.3624,0,0,0,0,0,0,0,-1,1126,470,1.51928,7.36241
-91,554,1.41089,-6.5864,0,0,0,0,0,0,0,-1,1133,470,1.41093,6.58638
-84,554,1.62305,-5.87186,0,0,0,0,0,0,0,-1,1140,470,1.62299,5.87186
-77,554,-2.56958,1.33258,0,0,0,0,0,0,0,-1,1147,470,-2.56959,-1.33257
-70,554,-3.68164,-1.18332,0,0,0,0,0,0,0,-1,1154,470,-3.68158,1.18331
-63,554,-4.86853,-3.88708,0,0,0,0,0,0,0,-1,1161,470,-4.86853,3.88708
-56,554,-5.69958,-6.45422,0,0,0,0,0,0,0,-1,1168,470,-5.69955,6.45422
-49,554,-6.23645,-8.8569,0,0,0,0,0,0,0,-1,1175,470,-6.23643,8.85689
-42,554,-6.62524,-11.5382,0,0,0,0,0,0,0,-1,1182,470,-6.62522,11.5382
-35,554,-2.40173,-4.59482,0,0,0,0,0,0,0,-1,1189,470,-2.40169,4.59481
-28,554,-0.760132,-1.65555,0,0,0,0,0,0,0,-1,1196,470,-0.760095,1.65556
-21,554,-6.11462,-31.9121,0,0,0,0,0,0,0,-1,1203,470,-6.11458,31.9122
-14,554,-0.171021,-33.7231,0,0,0,0,0,0,0,-1,1210,470,-0.17103,33.7231
-7,554,0.657471,-34.1422,0,0,0,0,0,0,0,-1,1217,470,0.65753,34.1422
0,554,8.36292,-46.2222,0,0,0,0,0,0,0,-1,1224,470,8.36295,46.2223
7,554,8.02722,-45.9537,-0.0142548,0.082886,-0.00505985,0.0831488,-0.0145177,-1.5189,0.0608518,0.0468648,1231,470,8.02722,45.9537
14,554,7.6803,-45.5443,-0.0173075,0.0764663,-0.0117164,0.077908,-0.0187492,-1.44836,0.0591867,0.0479403,1238,470,7.68033,45.5443
21,554,8.45776,-44.2042,-0.0245247,0.0711285,-0.0149962,0.0734244,-0.0268206,-1.41887,0.0599251,0.0443438,1245,470,8.45773,44.2042
28,554,7.3175,-45.0665,-0.0300872,0.0665092,-0.0151217,0.0688211,-0.0323991,-1.41908,0.0596873,0.0470387,1252,470,7.31745,45.0665
35,554,6.90369,-43.9454,0,0,0,0,0,0,0,-1,1259,470,6.90366,43.9454
42,554,7.07434,-43.7529,-0.0417302,0.0574901,-0.00938321,0.0583696,-0.0426097,-1.47733,0.0585367,0.0436948,1266,470,7.07439,43.7529
49,554,7.33911,-44.0526,-0.0470154,0.0531654,-0.0040985,0.0533328,-0.0471827,-1.52998,0.0580689,0.0468656,1273,470,7.33912,44.0526
56,554,7.15161,-44.4127,-0.0514216,0.0487066,0.00267083,0.0487778,-0.0514928,1.54415,0.0578983,0.0435507,1280,470,7.15156,44.4127
63,554,7.19849,-44.5486,-0.0545045,0.0436081,0.0103682,0.0446918,-0.0555882,1.46665,0.0580105,0.0454309,1287,470,7.19849,44.5487
70,554,3.30884,-42.4028,-0.0564721,0.0383135,0.0193121,0.0420973,-0.0602558,1.37732,0.0594027,0.0450455,1294,470,3.30889,42.4027
77,554,3.61755,-42.5621,-0.0546351,0.0330699,0.0295974,0.0421234,-0.0636886,1.27395,0.0615121,0.0463119,1301,470,3.61754,42.562
84,554,3.47522,-41.6134,0,0,0,0,0,0,0,-1,1308,470,3.47523,41.6134
91,554,3.25415,-40.9215,0,0,0,0,0,0,0,-1,1315,470,3.25416,40.9215
98,554,12.634,-44.4564,0,0,0,0,0,0,0,-1,1322,470,12.634,44.4564
105,554,13.774,-45.0997,0,0,0,0,0,0,0,-1,1329,470,13.774,45.0997
112,554,7.00586,-29.5698,0,0,0,0,0,0,0,-1,1336,470,7.00582,29.5698
119,554,7.09485,-28.4001,0,0,0,0,0,0,0,-1,1343,470,7.09482,28.4001
126,554,7.57751,-27.1743,0,0,0,0,0,0,0,-1,1350,470,7.57747,27.1743
133,554,8.26685,-25.9059,0,0,0,0,0,0,0,-1,1357,470,8.26688,25.9059
140,554,8.94446,-24.7668,0,0,0,0,0,0,0,-1,1364,470,8.94446,24.7669
147,554,9.69653,-23.6268,0,0,0,0,0,0,0,-1,1371,470,9.69656,23.6268
154,554,0.890015,-42.5471,0,0,0,0,0,0,0,-1,1378,470,0.890035,42.5471
161,554,-0.778687,-40.7399,0,0,0,0,0,0,0,-1,1385,470,-0.778649,40.7399
168,554,9.35071,-19.7403,0,0,0,0,0,0,0,-1,1392,470,9.35075,19.7403
175,554,10.663,0.286957,0,0,0,0,0,0,0,-1,1399,470,10.663,-0.286966
182,554,6.71106,-4.50217,0,0,0,0,0,0,0,-1,1406,470,6.71107,4.50215
189,554,6.90479,-2.50348,0,0,0,0,0,0,0,-1,1413,470,6.90477,2.50348
196,554,6.96216,-0.740906,0,0,0,0,0,0,0,-1,1420,470,6.96214,0.740912
203,554,6.43518,0.414154,0,0,0,0,0,0,0,-1,1427,470,6.43523,-0.414141
210,554,6.21167,1.96707,0,0,0,0,0,0,0,-1,1434,470,6.21165,-1.96706
217,554,5.64551,3.4989,0,0,0,0,0,0,0,-1,1441,470,5.64555,-3.49891
224,554,4.85144,-8.85172,0,0,0,0,0,0,0,-1,1448,470,4.85146,8.85173
231,554,3.25073,-5.29642,0,0,0,0,0,0,0,-1,1455,470,3.25078,5.29642
238,554,4.28625,-3.25253,0,0,0,0,0,0,0,-1,1462,470,4.28622,3.25252
245,554,4.0752,-2.90033,0,0,0,0,0,0,0,-1,1469,470,4.07515,2.90032
252,554,3.52112,-0.934998,0,0,0,0,0,0,0,-1,1476,470,3.52113,0.934996
259,554,3.96448,-2.16425,0,0,0,0,0,0,0,-1,1483,470,3.96446,2.16424
266,554,3.0592,-2.71716,0,0,0,0,0,0,0,-1,1490,470,3.05923,2.71718
273,554,2.58521,-3.06876,0,0,0,0,0,0,0,-1,1497,470,2.58524,3.06874
280,554,2.83301,-0.991699,0,0,0,0,0,0,0,-1,1504,470,2.83303,0.991704
287,554,3.54126,-4.12277,0,0,0,0,0,0,0,-1,1511,470,3.54123,4.12277
294,554,3.62036,-8.50146,0,0,0,0,0,0,0,-1,1518,470,3.62031,8.50145
301,554,9.31323,-32.2134,0,0,0,0,0,0,0,-1,1525,470,9.31327,32.2134
308,554,10.2084,-33.8553,0,0,0,0,0,0,0,-1,1532,470,10.2083,33.8553
315,554,10.3561,-33.5583,0,0,0,0,0,0,0,-1,1539,470,10.3561,33.5583
322,554,10.2042,-32.8959,0,0,0,0,0,0,0,-1,1546,470,10.2042,32.8959
329,554,10.3213,-32.4975,0.00264141,-0.00602166,-0.00382679,0.00408971,-0.00746996,-0.361804,0.00676843,0.0330099,1553,470,10.3213,32.4975
336,554,10.3433,-32.1277,0.00225366,-0.00513861,-0.00349468,0.0036442,-0.00652914,-0.378695,0.00595178,0.0218537,1560,470,10.3432,32.1277
343,554,10.3398,-31.6729,0.00183164,-0.00439932,-0.00316255,0.00315552,-0.00572321,-0.396448,0.0051971,0.013979,1567,470,10.3398,31.6729
350,554,10.3508,-31.1186,0.00140034,-0.00382136,-0.00285408,0.0026576,-0.00507862,-0.414938,0.00453883,0.00994855,1574,470,10.3508,31.1186
357,554,10.3488,-30.5805,0.00110748,-0.00307259,-0.00240184,0.00220132,-0.00416644,-0.427351,0.00373433,0.0105892,1581,470,10.3488,30.5805
364,554,10.3273,-30.0845,0.000877063,-0.00215412,-0.00186828,0.00176719,-0.00304425,-0.444625,0.00281032,0.00920405,1588,470,10.3273,30.0845
371,554,10.3151,-29.562,0.000724268,-0.00126477,-0.00129296,0.00136095,-0.00190145,-0.457566,0.00189214,0.009453,1595,470,10.3151,29.562
378,554,10.3047,-28.9842,0.000568885,-0.000301088,-0.000724294,0.000978774,-0.000710977,-0.51498,0.000979654,0.0108192,1602,470,10.3047,28.9842
385,554,10.3079,-28.418,0.000427214,0.00074533,-0.000186277,0.000831218,0.000341326,-1.13877,0.000482452,0.0100863,1609,470,10.3079,28.418
392,554,10.3096,-27.8598,0.000480377,0.00158374,0.00026721,0.00164505,0.000419071,1.34527,0.00098712,0.0134012,1616,470,10.3095,27.8598
399,554,10.2849,-27.2861,0.000771874,0.0022336,0.000794515,0.00258228,0.000423193,1.15724,0.00159923,0.0175194,1623,470,10.2849,27.2861
406,554,10.2463,-26.7124,0.00119158,0.00301702,0.00152767,0.00388386,0.000324739,1.05467,0.00248807,0.0165524,1630,470,10.2464,26.7124
413,554,10.2235,-26.1148,0.00152118,0.00382153,0.00215909,0.00511769,0.000225015,1.03013,0.00333932,0.0163768,1637,470,10.2235,26.1148
420,554,10.2024,-25.5474,0.00188483,0.00434901,0.00278663,0.00616377,7.00622e-05,0.993549,0.00408603,0.0169228,1644,470,10.2024,25.5474
427,554,10.1862,-24.9535,0.00206456,0.00477106,0.00349322,0.00716399,-0.000328371,0.970194,0.00488913,0.0114231,1651,470,10.1862,24.9535
434,554,10.1599,-24.3595,0.00239674,0.00523003,0.00429934,0.00834011,-0.000713329,0.944548,0.00581246,0.0105106,1658,470,10.1599,24.3595
441,554,10.155,-23.76,0.00253277,0.00558274,0.00517679,0.00945449,-0.00133898,0.928637,0.00679345,0.0122128,1665,470,10.1551,23.7601
448,554,10.1296,-23.0968,0.00239272,0.00587912,0.00608821,0.0104688,-0.00219693,0.92483,0.00781511,0.0193139,1672,470,10.1296,23.0968
455,554,10.075,-22.5044,0.00199195,0.00601226,0.00695987,0.0112464,-0.00324223,0.925983,0.00878024,0.0214584,1679,470,10.0749,22.5044
462,554,9.98193,-21.9221,0.0013223,0.00612229,0.00790404,0.0119827,-0.00453809,0.932795,0.00985578,0.0231172,1686,470,9.9819,21.9221
469,554,9.91589,-21.3127,0.00041079,0.00612679,0.00900389,0.0127154,-0.00617781,0.939078,0.0111235,0.0260671,1693,470,9.91591,21.3127
476,554,9.81616,-20.5193,-0.000526966,0.00583892,0.0104241,0.0135552,-0.00824323,0.933575,0.0127093,0.045135,1700,470,9.81615,20.5193
483,554,9.71277,-19.7275,0,0,0,0,0,0,0,-1,1707,470,9.71273,19.7275
490,554,7.84363,-18.0394,0,0,0,0,0,0,0,-1,1714,470,7.84367,18.0394
497,554,10.9613,1.60983,0,0,0,0,0,0,0,-1,1721,470,10.9613,-1.60982
504,554,2.13257,-3.81628,0,0,0,0,0,0,0,-1,1728,470,2.1326,3.8163
511,554,1.31396,-4.02713,0,0,0,0,0,0,0,-1,1735,470,1.31398,4.02712
518,554,5.04236,-5.9472,0,0,0,0,0,0,0,-1,1742,470,5.04231,5.94721
525,554,0,0,0,0,0,0,0,0,0,-1,1749,470,0,0
532,554,0,0,0,0,0,0,0,0,0,-1,1756,470,0,0
539,554,0,0,0,0,0,0,0,0,0,-1,1763,470,0,0
546,554,0,0,0,0,0,0,0,0,0,-1,1770,470,0,0
553,554,0,0,0,0,0,0,0,0,0,-1,1777,470,0,0
560,554,0,0,0,0,0,0,0,0,0,-1,1784,470,0,0
567,554,0,0,0,0,0,0,0,0,0,-1,1791,470,0,0
574,554,0,0,0,0,0,0,0,0,0,-1,1798,470,0,0
581,554,0,0,0,0,0,0,0,0,0,-1,1805,470,0,0
588,554,0,0,0,0,0,0,0,0,0,-1,1812,470,0,0
595,554,0,0,0,0,0,0,0,0,0,-1,1819,470,0,0
602,554,0,0,0,0,0,0,0,0,0,-1,1826,470,0,0
609,554,0,0,0,0,0,0,0,0,0,-1,1833,470,0,0
616,554,0,0,0,0,0,0,0,0,0,-1,1840,470,0,0
623,554,0,0,0,0,0,0,0,0,0,-1,1847,470,0,0
630,554,0,0,0,0,0,0,0,0,0,-1,1854,470,0,0
637,554,0,0,0,0,0,0,0,0,0,-1,1861,470,0,0
644,554,0,0,0,0,0,0,0,0,0,-1,1868,470,0,0
651,554,0,0,0,0,0,0,0,0,0,-1,1875,470,0,0
658,554,0,0,0,0,0,0,0,0,0,-1,1882,470,0,0
665,554,0,0,0,0,0,0,0,0,0,-1,1889,470,0,0
672,554,0,0,0,0,0,0,0,0,0,-1,1896,470,0,0
679,554,0,0,0,0,0,0,0,0,0,-1,1903,470,0,0
686,554,0,0,0,0,0,0,0,0,0,-1,1910,470,0,0
693,554,0,0,0,0,0,0,0,0,0,-1,1917,470,0,0
700,554,0,0,0,0,0,0,0,0,0,-1,1924,470,0,0
707,554,0,0,0,0,0,0,0,0,0,-1,1931,470,0,0
714,554,0,0,0,0,0,0,0,0,0,-1,1938,470,0,0
721,554,0,0,0,0,0,0,0,0,0,-1,1945,470,0,0
728,554,0,0,0,0,0,0,0,0,0,-1,1952,470,0,0
735,554,0,0,0,0,0,0,0,0,0,-1,1959,470,0,0
742,554,0,0,0,0,0,0,0,0,0,-1,1966,470,0,0
749,554,0,0,0,0,0,0,0,0,0,-1,1973,470,0,0
756,554,0,0,0,0,0,0,0,0,0,-1,1980,470,0,0
763,554,0,0,0,0,0,0,0,0,0,-1,1987,470,0,0
770,554,0,0,0,0,0,0,0,0,0,-1,1994,470,0,0
777,554,0,0,0,0,0,0,0,0,0,-1,2001,470,0,0
784,554,0,0,0,0,0,0,0,0,0,-1,2008,470,0,0
791,554,0,0,0,0,0,0,0,0,0,-1,2015,470,0,0
798,554,0,0,0,0,0,0,0,0,0,-1,2022,470,0,0
805,554,0,0,0,0,0,0,0,0,0,-1,2029,470,0,0
812,554,0,0,0,0,0,0,0,0,0,-1,2036,470,0,0
-700,547,0,0,0,0,0,0,0,0,0,-1,524,477,0,0
-693,547,0,0,0,0,0,0,0,0,0,-1,531,477,0,0
-686,547,0,0,0,0,0,0,0,0,0,-1,538,477,0,0
-679,547,0,0,0,0,0,0,0,0,0,-1,545,477,0,0
-672,547,0,0,0,0,0,0,0,0,0,-1,552,477,0,0
-665,547,0,0,0,0,0,0,0,0,0,-1,559,477,0,0
-658,547,0,0,0,0,0,0,0,0,0,-1,566,477,0,0
-651,547,0,0,0,0,0,0,0,0,0,-1,573,477,0,0
-644,547,0,0,0,0,0,0,0,0,0,-1,580,477,0,0
-637,547,0,0,0,0,0,0,0,0,0,-1,587,477,0,0
-630,547,0,0,0,0,0,0,0,0,0,-1,594,477,0,0
-623,547,0,0,0,0,0,0,0,0,0,-1,601,477,0,0
-616,547,0,0,0,0,0,0,0,0,0,-1,608,477,0,0
-609,547,0,0,0,0,0,0,0,0,0,-1,615,477,0,0
-602,547,0,0,0,0,0,0,0,0,0,-1,622,477,0,0
-595,547,0,0,0,0,0,0,0,0,0,-1,629,477,0,0
-588,547,0,0,0,0,0,0,0,0,0,-1,636,477,0,0
-581,547,0,0,0,0,0,0,0,0,0,-1,643,477,0,0
-574,547,0,0,0,0,0,0,0,0,0,-1,650,477,0,0
-567,547,0,0,0,0,0,0,0,0,0,-1,657,477,0,0
-560,547,0,0,0,0,0,0,0,0,0,-1,664,477,0,0
-553,547,0,0,0,0,0,0,0,0,0,-1,671,477,0,0
-546,547,0,0,0,0,0,0,0,0,0,-1,678,477,0,0
-539,547,0,0,0,0,0,0,0,0,0,-1,685,477,0,0
-532,547,0,0,0,0,0,0,0,0,0,-1,692,477,0,0
-525,547,0,0,0,0,0,0,0,0,0,-1,699,477,0,0
-518,547,0,0,0,0,0,0,0,0,0,-1,706,477,0,0
-511,547,0,0,0,0,0,0,0,0,0,-1,713,477,0,0
-504,547,0,0,0,0,0,0,0,0,0,-1,720,477,0,0
-497,547,0,0,0,0,0,0,0,0,0,-1,727,477,0,0
-490,547,0,0,0,0,0,0,0,0,0,-1,734,477,0,0
-483,547,0,0,0,0,0,0,0,0,0,-1,741,477,0,0
-476,547,0,0,0,0,0,0,0,0,0,-1,748,477,0,0
-469,547,0,0,0,0,0,0,0,0,0,-1,755,477,0,0
-462,547,0,0,0,0,0,0,0,0,0,-1,762,477,0,0
-455,547,0,0,0,0,0,0,0,0,0,-1,769,477,0,0
-448,547,0,0,0,0,0,0,0,0,0,-1,776,477,0,0
-441,547,0,0,0,0,0,0,0,0,0,-1,783,477,0,0
-434,547,0,0,0,0,0,0,0,0,0,-1,790,477,0,0
-427,547,0,0,0,0,0,0,0,0,0,-1,797,477,0,0
-420,547,0,0,0,0,0,0,0,0,0,-1,804,477,0,0
-413,547,0,0,0,0,0,0,0,0,0,-1,811,477,0,0
-406,547,0.144592,-11.0292,0,0,0,0,0,0,0,-1,818,477,0.144583,11.0292
-399,547,0.775513,-10.0294,0,0,0,0,0,0,0,-1,825,477,0.775482,10.0295
-392,547,-1.52271,-4.41675,0,0,0,0,0,0,0,-1,832,477,-1.52273,4.41674
-385,547,-1.73743,-4.6431,0,0,0,0,0,0,0,-1,839,477,-1.73743,4.64308
-378,547,-2.41339,-4.60071,0,0,0,0,0,0,0,-1,846,477,-2.41337,4.60071
-371,547,1.64569,-11.1445,0,0,0,0,0,0,0,-1,853,477,1.64569,11.1445
-364,547,0.998169,-19.0624,0,0,0,0,0,0,0,-1,860,477,0.998159,19.0624
-357,547,0.880066,-20.579,0,0,0,0,0,0,0,-1,867,477,0.880039,20.579
-350,547,0.815979,-21.1484,0,0,0,0,0,0,0,-1,874,477,0.815997,21.1484
-343,547,0.682922,-22.1644,-0.0110633,0.0174403,-0.00876965,0.0199223,-0.0135453,-1.29499,0.0194391,0.0466584,881,477,0.682942,22.1644
-336,547,0.701477,-22.9638,-0.0100088,0.01309,-0.00724856,0.0151762,-0.0120951,-1.29056,0.0157785,0.0185184,888,477,0.701488,22.9638
-329,547,0.624634,-23.5835,-0.0087273,0.00889527,-0.00585573,0.0106636,-0.0104956,-1.27752,0.0122164,0.0107873,895,477,0.624606,23.5835
-322,547,0.590027,-24.1957,-0.0073883,0.00616221,-0.00478575,0.00768198,-0.00890808,-1.26331,0.00958699,0.0114167,902,477,0.59004,24.1957
-315,547,0.547729,-24.8224,-0.0061465,0.0043494,-0.00385655,0.00561405,-0.00741115,-1.25392,0.00754393,0.010684,909,477,0.547712,24.8224
-308,547,0.518188,-25.3923,-0.00493667,0.00318945,-0.00311293,0.00424486,-0.00599208,-1.24392,0.00593893,0.0120666,916,477,0.518166,25.3923
-301,547,0.518982,-25.9626,-0.0036276,0.00217075,-0.00256736,0.00314411,-0.00460096,-1.20841,0.00449791,0.0116299,923,477,0.519004,25.9626
-294,547,0.484375,-26.5213,-0.00226584,0.0014859,-0.00200551,0.00235611,-0.00313605,-1.1614,0.00318154,0.0101811,930,477,0.484402,26.5213
-287,547,0.454529,-27.0739,-0.00107314,0.00100122,-0.00145876,0.00175394,-0.00182586,-1.09443,0.00206694,0.0121286,937,477,0.454538,27.0739
-280,547,0.444397,-27.6264,-8.56663e-05,0.000415113,-0.000984611,0.00118067,-0.000851227,-0.90991,0.00117825,0.0137996,944,477,0.444418,27.6264
-273,547,0.420532,-28.1875,0.000723552,-0.000146713,-0.000461695,0.00092285,-0.000346012,-0.407504,0.000757391,0.0137613,951,477,0.420536,28.1875
-266,547,0.394897,-28.7263,0.00144,-0.000955992,0.000117455,0.00144575,-0.000961736,0.0488654,0.00139929,0.0135502,958,477,0.39487,28.7263
-259,547,0.367126,-29.2458,0.00197907,-0.00204474,0.000875001,0.00216111,-0.00222678,0.205118,0.00253344,0.0123603,965,477,0.367096,29.2458
-252,547,0.369141,-29.7726,0.00233461,-0.00357554,0.00165555,0.00276676,-0.00400769,0.255336,0.00393305,0.0118101,972,477,0.369126,29.7726
-245,547,0.363708,-30.2859,0.00258776,-0.00560434,0.00252588,0.00330395,-0.00632053,0.276291,0.00564695,0.0121021,979,477,0.363724,30.2859
-238,547,0.369141,-30.8172,0.00318385,-0.00777219,0.0034321,0.0041702,-0.00875854,0.279846,0.00761949,0.00869199,986,477,0.369122,30.8172
-231,547,0.347473,-31.3338,0.0040349,-0.0106378,0.00419536,0.00514977,-0.0117527,0.259735,0.0100038,0.00847432,993,477,0.347453,31.3338
-224,547,0.357727,-31.8093,0.00455369,-0.0137591,0.00523478,0.00594445,-0.0151498,0.259679,0.0125594,0.0110072,1000,477,0.357726,31.8093
-217,547,0.380493,-32.2736,0.0052514,-0.0170173,0.0063221,0.00692106,-0.0186869,0.258204,0.0152961,0.0169836,1007,477,0.380506,32.2736
-210,547,0.373474,-32.6318,0.00592003,-0.0204549,0.00732086,0.00781581,-0.0223506,0.25339,0.0180779,0.0290695,1014,477,0.373497,32.6318
-203,547,0.457886,-32.8439,0.00681098,-0.0239063,0.00820764,0.0088665,-0.0259618,0.245393,0.0209,0.0432907,1021,477,0.457875,32.8439
-196,547,0.36853,-33.1851,0.00786738,-0.0274932,0.00928123,0.0101554,-0.0297813,0.241703,0.0239675,0.0485156,1028,477,0.368578,33.1851
-189,547,0.391113,-33.4629,0,0,0,0,0,0,0,-1,1035,477,0.391073,33.4629
-182,547,1.30725,-33.6851,0,0,0,0,0,0,0,-1,1042,477,1.3073,33.685
-175,547,-0.350098,-12.3584,0,0,0,0,0,0,0,-1,1049,477,-0.350098,12.3584
-168,547,0.761719,-32.9387,0,0,0,0,0,0,0,-1,1056,477,0.761738,32.9387
-161,547,0.0430908,-34.6016,0,0,0,0,0,0,0,-1,1063,477,0.0431231,34.6016
-154,547,-0.284424,-31.1176,0,0,0,0,0,0,0,-1,1070,477,-0.284395,31.1176
-147,547,3.69434,-26.413,0,0,0,0,0,0,0,-1,1077,477,3.69437,26.413
-140,547,1.55676,-22.5229,0,0,0,0,0,0,0,-1,1084,477,1.5568,22.5229
-133,547,2.31665,-17.9421,0,0,0,0,0,0,0,-1,1091,477,2.31667,17.9421
-126,547,-1.15271,-30.6984,0,0,0,0,0,0,0,-1,1098,477,-1.15267,30.6984
-119,547,0.967651,-24.9351,0,0,0,0,0,0,0,-1,1105,477,0.967657,24.9351
-112,547,1.15674,-22.2276,0,0,0,0,0,0,0,-1,1112,477,1.15677,22.2276
-105,547,0.966797,-20.5777,0,0,0,0,0,0,0,-1,1119,477,0.966804,20.5777
-98,547,0.70166,-18.9755,0,0,0,0,0,0,0,-1,1126,477,0.701713,18.9755
-91,547,1.37805,-7.12024,0,0,0,0,0,0,0,-1,1133,477,1.37804,7.12025
-84,547,1.94202,-6.66241,0,0,0,0,0,0,0,-1,1140,477,1.94201,6.66241
-77,547,-2.28357,1.8588,0,0,0,0,0,0,0,-1,1147,477,-2.28356,-1.85879
-70,547,-3.70178,-0.874908,0,0,0,0,0,0,0,-1,1154,477,-3.70182,0.874918
-63,547,-5.12012,-3.60861,0,0,0,0,0,0,0,-1,1161,477,-5.12009,3.60862
-56,547,-6.01917,-6.2399,0,0,0,0,0,0,0,-1,1168,477,-6.01921,6.23991
-49,547,-6.729,-8.60349,0,0,0,0,0,0,0,-1,1175,477,-6.72899,8.60348
-42,547,-2.41736,-5.53012,0,0,0,0,0,0,0,-1,1182,477,-2.41734,5.53011
-35,547,-2.96838,-4.45734,0,0,0,0,0,0,0,-1,1189,477,-2.96839,4.45734
-28,547,-0.869141,-1.29901,0,0,0,0,0,0,0,-1,1196,477,-0.869135,1.29901
-21,547,-7.68262,-30.8089,0,0,0,0,0,0,0,-1,1203,477,-7.68256,30.8089
-14,547,0.365723,-32.0526,0,0,0,0,0,0,0,-1,1210,477,0.365739,32.0526
-7,547,0.75061,-32.7653,0,0,0,0,0,0,0,-1,1217,477,0.7506,32.7653
0,547,8.80066,-46.8176,0,0,0,0,0,0,0,-1,1224,477,8.8007,46.8176
7,547,8.60425,-46.537,0,0,0,0,0,0,0,-1,1231,477,8.60429,46.537
14,547,0,0,0,0,0,0,0,0,0,-1,1238,477,0,0
21,547,0,0,0,0,0,0,0,0,0,-1,1245,477,0,0
28,547,0,0,0,0,0,0,0,0,0,-1,1252,477,0,0
35,547,0,0,0,0,0,0,0,0,0,-1,1259,477,0,0
42,547,0,0,0,0,0,0,0,0,0,-1,1266,477,0,0
49,547,0,0,0,0,0,0,0,0,0,-1,1273,477,0,0
56,547,0,0,0,0,0,0,0,0,0,-1,1280,477,0,0
63,547,0,0,0,0,0,0,0,0,0,-1,1287,477,0,0
70,547,0,0,0,0,0,0,0,0,0,-1,1294,477,0,0
77,547,0,0,0,0,0,0,0,0,0,-1,1301,477,0,0
84,547,0,0,0,0,0,0,0,0,0,-1,1308,477,0,0
91,547,0,0,0,0,0,0,0,0,0,-1,1315,477,0,0
98,547,0,0,0,0,0,0,0,0,0,-1,1322,477,0,0
105,547,7.41064,-30.5782,0,0,0,0,0,0,0,-1,1329,477,7.41068,30.5782
112,547,7.74426,-29.475,0,0,0,0,0,0,0,-1,1336,477,7.74432,29.475
119,547,8.13123,-28.7777,0,0,0,0,0,0,0,-1,1343,477,8.1312,28.7777
126,547,8.48413,-27.5669,0,0,0,0,0,0,0,-1,1350,477,8.48419,27.5669
133,547,8.90308,-26.1648,0,0,0,0,0,0,0,-1,1357,477,8.90302,26.1648
140,547,9.1853,-25.1858,0,0,0,0,0,0,0,-1,1364,477,9.1853,25.1858
147,547,9.31567,-24.1259,0,0,0,0,0,0,0,-1,1371,477,9.31572,24.1259
154,547,9.17798,-22.8742,0,0,0,0,0,0,0,-1,1378,477,9.17793,22.8742
161,547,9.10242,-21.6484,0,0,0,0,0,0,0,-1,1385,477,9.10238,21.6484
168,547,13.4181,-26.3557,0,0,0,0,0,0,0,-1,1392,477,13.4181,26.3557
175,547,3.35034,-0.26532,0,0,0,0,0,0,0,-1,1399,477,3.3503,0.265306
182,547,4.26038,3.72672,0,0,0,0,0,0,0,-1,1406,477,4.26039,-3.7267
189,547,3.40454,1.28671,0,0,0,0,0,0,0,-1,1413,477,3.40457,-1.28673
196,547,3.53931,1.87793,0,0,0,0,0,0,0,-1,1420,477,3.53928,-1.87794
203,547,6.49414,-0.425842,0,0,0,0,0,0,0,-1,1427,477,6.4941,0.425844
210,547,4.82092,0.53595,0,0,0,0,0,0,0,-1,1434,477,4.82096,-0.535942
217,547,4.68579,0.480072,0,0,0,0,0,0,0,-1,1441,477,4.68577,-0.480069
224,547,4.55615,0.739807,0,0,0,0,0,0,0,-1,1448,477,4.55613,-0.73981
231,547,5.90869,-3.57721,0,0,0,0,0,0,0,-1,1455,477,5.90871,3.57722
238,547,5.50049,-3.15356,0,0,0,0,0,0,0,-1,1462,477,5.50045,3.15356
245,547,5.13708,-2.65213,0,0,0,0,0,0,0,-1,1469,477,5.13708,2.65212
252,547,3.73511,-0.645233,0,0,0,0,0,0,0,-1,1476,477,3.73515,0.645237
259,547,5.86816,-3.20816,0,0,0,0,0,0,0,-1,1483,477,5.86815,3.20816
266,547,5.40222,-2.45731,0,0,0,0,0,0,0,-1,1490,477,5.40221,2.45732
273,547,3.05737,0.495789,0,0,0,0,0,0,0,-1,1497,477,3.05742,-0.49578
280,547,2.0885,1.47797,0,0,0,0,0,0,0,-1,1504,477,2.08848,-1.47795
287,547,2.31177,-2.21716,0,0,0,0,0,0,0,-1,1511,477,2.31174,2.21717
294,547,2.4823,-3.03659,0,0,0,0,0,0,0,-1,1518,477,2.48229,3.0366
301,547,4.72119,-3.93454,0,0,0,0,0,0,0,-1,1525,477,4.72119,3.93453
308,547,4.07471,-5.42175,0,0,0,0,0,0,0,-1,1532,477,4.07468,5.42174
315,547,3.58496,-6.62112,0,0,0,0,0,0,0,-1,1539,477,3.58497,6.62113
322,547,5.73926,-14.1878,0,0,0,0,0,0,0,-1,1546,477,5.73926,14.1878
329,547,10.7001,-32.4384,0,0,0,0,0,0,0,-1,1553,477,10.7001,32.4384
336,547,10.8243,-32.2652,0,0,0,0,0,0,0,-1,1560,477,10.8243,32.2652
343,547,10.9651,-31.7617,0.00188768,-0.00600759,-0.00438971,0.00384372,-0.00796363,-0.419186,0.00695393,0.0469911,1567,477,10.9651,31.7617
350,547,10.9021,-31.1224,0.00144933,-0.00555183,-0.00411535,0.00335155,-0.00745405,-0.432972,0.00638673,0.0289076,1574,477,10.9021,31.1224
357,547,10.8918,-30.5826,0.00118106,-0.00482443,-0.00364251,0.00289895,-0.00654231,-0.440688,0.00558456,0.0151132,1581,477,10.8919,30.5825
364,547,10.8696,-30.0652,0.000982938,-0.00386611,-0.00307735,0.00247612,-0.00535929,-0.45175,0.00462473,0.0108045,1588,477,10.8697,30.0652
371,547,10.8694,-29.5262,0.000860025,-0.00292704,-0.00246388,0.00207393,-0.00414095,-0.457775,0.00365372,0.010151,1595,477,10.8694,29.5262
378,547,10.8441,-28.9752,0.000746422,-0.00186393,-0.0018107,0.00167332,-0.00279082,-0.47312,0.00260415,0.0109598,1602,477,10.8442,28.9752
385,547,10.8347,-28.4089,0.00062951,-0.000712066,-0.00111754,0.00126212,-0.00134468,-0.515102,0.00150529,0.0111083,1609,477,10.8348,28.4089
392,547,10.8542,-27.8326,0.0005888,0.000183191,-0.000538475,0.000961395,-0.000189404,-0.6053,0.000712507,0.0120522,1616,477,10.8542,27.8326
399,547,10.8163,-27.2765,0.00073315,0.000893328,2.08438e-06,0.000893355,0.000733123,1.55779,0.000549995,0.0137121,1623,477,10.8162,27.2765
406,547,10.801,-26.7169,0.000985247,0.00170358,0.000654138,0.00209067,0.000598158,1.03646,0.00124332,0.0137066,1630,477,10.801,26.717
413,547,10.8077,-26.1173,0.00123861,0.00256732,0.00132273,0.00338316,0.000422768,1.01813,0.00212856,0.013316,1637,477,10.8078,26.1173
420,547,10.7957,-25.555,0.00149063,0.00315428,0.0019579,0.00444973,0.000195179,0.986272,0.00290361,0.0150985,1644,477,10.7956,25.555
427,547,10.7714,-24.9519,0.00160761,0.00360134,0.00260096,0.00538993,-0.000180976,0.968398,0.0036551,0.0145681,1651,477,10.7714,24.9519
434,547,10.7219,-24.3753,0.00180063,0.00405365,0.00331053,0.00642409,-0.000569806,0.949393,0.00448475,0.0102453,1658,477,10.7219,24.3753
441,547,10.7008,-23.8227,0.00184292,0.00438916,0.00406435,0.00737512,-0.00114304,0.937178,0.00533871,0.0109795,1665,477,10.7008,23.8227
448,547,10.6686,-23.171,0.00169226,0.00466867,0.00481839,0.00822344,-0.00186251,0.935181,0.00619714,0.0114099,1672,477,10.6686,23.171
455,547,10.6471,-22.5442,0.0013938,0.00483815,0.00553395,0.00891171,-0.00267975,0.936249,0.00700732,0.0116618,1679,477,10.6471,22.5442
462,547,10.6066,-21.9385,0.000945793,0.00489602,0.00629376,0.0095173,-0.00367549,0.937442,0.00786184,0.0121619,1686,477,10.6066,21.9385
469,547,10.5326,-21.2992,0.000362057,0.00484469,0.00722488,0.0101679,-0.00496117,0.935802,0.00890554,0.0209845,1693,477,10.5326,21.2992
476,547,10.4906,-20.5402,-0.000194537,0.00457413,0.00848024,0.0109989,-0.00661926,0.922442,0.0102761,0.0365995,1700,477,10.4906,20.5402
483,547,10.4974,-19.76,0,0,0,0,0,0,0,-1,1707,477,10.4974,19.76
490,547,3.65271,-3.71707,0,0,0,0,0,0,0,-1,1714,477,3.65277,3.71708
497,547,2.55481,-3.81421,0,0,0,0,0,0,0,-1,1721,477,2.55476,3.8142
504,547,4.01953,-2.22714,0,0,0,0,0,0,0,-1,1728,477,4.0195,2.22713
511,547,5.2146,-6.9552,0,0,0,0,0,0,0,-1,1735,477,5.21464,6.95521
518,547,5.24243,-6.56122,0,0,0,0,0,0,0,-1,1742,477,5.24241,6.56121
525,547,5.89368,-5.49866,0,0,0,0,0,0,0,-1,1749,477,5.89372,5.49866
532,547,0,0,0,0,0,0,0,0,0,-1,1756,477,0,0
539,547,0,0,0,0,0,0,0,0,0,-1,1763,477,0,0
546,547,0,0,0,0,0,0,0,0,0,-1,1770,477,0,0
553,547,0,0,0,0,0,0,0,0,0,-1,1777,477,0,0
560,547,0,0,0,0,0,0,0,0,0,-1,1784,477,0,0
567,547,0,0,0,0,0,0,0,0,0,-1,1791,477,0,0
574,547,0,0,0,0,0,0,0,0,0,-1,1798,477,0,0
581,547,0,0,0,0,0,0,0,0,0,-1,1805,477,0,0
588,547,0,0,0,0,0,0,0,0,0,-1,1812,477,0,0
595,547,0,0,0,0,0,0,0,0,0,-1,1819,477,0,0
602,547,0,0,0,0,0,0,0,0,0,-1,1826,477,0,0
609,547,0,0,0,0,0,0,0,0,0,-1,1833,477,0,0
616,547,0,0,0,0,0,0,0,0,0,-1,1840,477,0,0
623,547,0,0,0,0,0,0,0,0,0,-1,1847,477,0,0
630,547,0,0,0,0,0,0,0,0,0,-1,1854,477,0,0
637,547,0,0,0,0,0,0,0,0,0,-1,1861,477,0,0
644,547,0,0,0,0,0,0,0,0,0,-1,1868,477,0,0
651,547,0,0,0,0,0,0,0,0,0,-1,1875,477,0,0
658,547,0,0,0,0,0,0,0,0,0,-1,1882,477,0,0
665,547,0,0,0,0,0,0,0,0,0,-1,1889,477,0,0
672,547,0,0,0,0,0,0,0,0,0,-1,1896,477,0,0
679,547,0,0,0,0,0,0,0,0,0,-1,1903,477,0,0
686,547,0,0,0,0,0,0,0,0,0,-1,1910,477,0,0
693,547,0,0,0,0,0,0,0,0,0,-1,1917,477,0,0
700,547,0,0,0,0,0,0,0,0,0,-1,1924,477,0,0
707,547,0,0,0,0,0,0,0,0,0,-1,1931,477,0,0
714,547,0,0,0,0,0,0,0,0,0,-1,1938,477,0,0
721,547,0,0,0,0,0,0,0,0,0,-1,1945,477,0,0
728,547,0,0,0,0,0,0,0,0,0,-1,1952,477,0,0
735,547,0,0,0,0,0,0,0,0,0,-1,1959,477,0,0
742,547,0,0,0,0,0,0,0,0,0,-1,1966,477,0,0
749,547,0,0,0,0,0,0,0,0,0,-1,1973,477,0,0
756,547,0,0,0,0,0,0,0,0,0,-1,1980,477,0,0
763,547,0,0,0,0,0,0,0,0,0,-1,1987,477,0,0
770,547,0,0,0,0,0,0,0,0,0,-1,1994,477,0,0
777,547,0,0,0,0,0,0,0,0,0,-1,2001,477,0,0
784,547,0,0,0,0,0,0,0,0,0,-1,2008,477,0,0
791,547,0,0,0,0,0,0,0,0,0,-1,2015,477,0,0
798,547,0,0,0,0,0,0,0,0,0,-1,2022,477,0,0
805,547,0,0,0,0,0,0,0,0,0,-1,2029,477,0,0
812,547,0,0,0,0,0,0,0,0,0,-1,2036,477,0,0
-700,540,0,0,0,0,0,0,0,0,0,-1,524,484,0,0
-693,540,0,0,0,0,0,0,0,0,0,-1,531,484,0,0
-686,540,0,0,0,0,0,0,0,0,0,-1,538,484,0,0
-679,540,0,0,0,0,0,0,0,0,0,-1,545,484,0,0
-672,540,0,0,0,0,0,0,0,0,0,-1,552,484,0,0
-665,540,0,0,0,0,0,0,0,0,0,-1,559,484,0,0
-658,540,0,0,0,0,0,0,0,0,0,-1,566,484,0,0
-651,540,0,0,0,0,0,0,0,0,0,-1,573,484,0,0
-644,540,0,0,0,0,0,0,0,0,0,-1,580,484,0,0
-637,540,0,0,0,0,0,0,0,0,0,-1,587,484,0,0
-630,540,0,0,0,0,0,0,0,0,0,-1,594,484,0,0
-623,540,0,0,0,0,0,0,0,0,0,-1,601,484,0,0
-616,540,0,0,0,0,0,0,0,0,0,-1,608,484,0,0
-609,540,0,0,0,0,0,0,0,0,0,-1,615,484,0,0
-602,540,0,0,0,0,0,0,0,0,0,-1,622,484,0,0
-595,540,0,0,0,0,0,0,0,0,0,-1,629,484,0,0
-588,540,0,0,0,0,0,0,0,0,0,-1,636,484,0,0
-581,540,0,0,0,0,0,0,0,0,0,-1,643,484,0,0
-574,540,0,0,0,0,0,0,0,0,0,-1,650,484,0,0
-567,540,0,0,0,0,0,0,0,0,0,-1,657,484,0,0
-560,540,0,0,0,0,0,0,0,0,0,-1,664,484,0,0
-553,540,0,0,0,0,0,0,0,0,0,-1,671,484,0,0
-546,540,0,0,0,0,0,0,0,0,0,-1,678,484,0,0
-539,540,0,0,0,0,0,0,0,0,0,-1,685,484,0,0
-532,540,0,0,0,0,0,0,0,0,0,-1,692,484,0,0
-525,540,0,0,0,0,0,0,0,0,0,-1,699,484,0,0
-518,540,0,0,0,0,0,0,0,0,0,-1,706,484,0,0
-511,540,0,0,0,0,0,0,0,0,0,-1,713,484,0,0
-504,540,0,0,0,0,0,0,0,0,0,-1,720,484,0,0
-497,540,0,0,0,0,0,0,0,0,0,-1,727,484,0,0
-490,540,0,0,0,0,0,0,0,0,0,-1,734,484,0,0
-483,540,0,0,0,0,0,0,0,0,0,-1,741,484,0,0
-476,540,0,0,0,0,0,0,0,0,0,-1,748,484,0,0
-469,540,0,0,0,0,0,0,0,0,0,-1,755,484,0,0
-462,540,0,0,0,0,0,0,0,0,0,-1,762,484,0,0
-455,540,0,0,0,0,0,0,0,0,0,-1,769,484,0,0
-448,540,0,0,0,0,0,0,0,0,0,-1,776,484,0,0
-441,540,0,0,0,0,0,0,0,0,0,-1,783,484,0,0
-434,540,0,0,0,0,0,0,0,0,0,-1,790,484,0,0
-427,540,0,0,0,0,0,0,0,0,0,-1,797,484,0,0
-420,540,0.227051,-10.0402,0,0,0,0,0,0,0,-1,804,484,0.227063,10.0402
-413,540,-0.0393677,-10.3862,0,0,0,0,0,0,0,-1,811,484,-0.0393683,10.3862
-406,540,-0.518372,-11.5288,0,0,0,0,0,0,0,-1,818,484,-0.518402,11.5288
-399,540,0.0863037,-11.3801,0,0,0,0,0,0,0,-1,825,484,0.0863201,11.3801
-392,540,-0.517395,-10.6735,0,0,0,0,0,0,0,-1,832,484,-0.517377,10.6735
-385,540,-2.29407,-5.03418,0,0,0,0,0,0,0,-1,839,484,-2.29408,5.03418
-378,540,1.06445,-10.5824,0,0,0,0,0,0,0,-1,846,484,1.06446,10.5824
-371,540,1.14825,-10.7452,0,0,0,0,0,0,0,-1,853,484,1.14827,10.7452
-364,540,0.0055542,-20.1003,0,0,0,0,0,0,0,-1,860,484,0.0055308,20.1003
-357,540,0.261047,-20.7309,-0.00854973,0.0276542,-0.0110045,0.0307366,-0.0116322,-1.29769,0.025277,0.0454722,867,484,0.26103,20.7309
-350,540,0.17981,-21.4406,-0.00771516,0.0207538,-0.0089151,0.0233151,-0.0102765,-1.29103,0.0198752,0.0362377,874,484,0.179821,21.4406
-343,540,0.143127,-22.2837,-0.00702884,0.0156745,-0.00726143,0.0177983,-0.00915266,-1.28625,0.0158248,0.0194275,881,484,0.143143,22.2837
-336,540,0.0870361,-23.0321,-0.00636168,0.0117666,-0.00583769,0.0134838,-0.00807887,-1.28471,0.0125789,0.0129603,888,484,0.0870604,23.0321
-329,540,0.038147,-23.6148,-0.00547123,0.0079105,-0.00454527,0.00930834,-0.00686907,-1.27244,0.00937536,0.0100199,895,484,0.0381203,23.6149
-322,540,-0.010437,-24.1997,-0.00453456,0.00538036,-0.00353756,0.00651312,-0.00566732,-1.2609,0.00703803,0.014427,902,484,-0.0104629,24.1997
-315,540,-0.0388794,-24.7973,-0.00366323,0.00367692,-0.00264832,0.00453267,-0.00451898,-1.25826,0.00522597,0.0135609,909,484,-0.038895,24.7973
-308,540,-0.0355225,-25.3666,-0.00281398,0.00248806,-0.00191491,0.00310733,-0.00343325,-1.25802,0.00377777,0.0123903,916,484,-0.0355372,25.3666
-301,540,-0.076416,-25.9169,-0.00183809,0.00145998,-0.00138985,0.00196756,-0.00234568,-1.22064,0.00249344,0.0119284,923,484,-0.0764055,25.9169
-294,540,-0.0874023,-26.4594,-0.000755513,0.000738472,-0.000861682,0.00113187,-0.00114891,-1.14251,0.00131682,0.0110587,930,484,-0.0873845,26.4595
-287,540,-0.0879517,-27.0321,0.000240606,0.000188543,-0.0003632,0.000578707,-0.000149558,-0.749623,0.000444132,0.00862936,937,484,-0.0879289,27.0321
-280,540,-0.104492,-27.6028,0.00107077,-0.000539266,7.80496e-05,0.00107455,-0.000543041,0.0483258,0.000950571,0.010157,944,484,-0.104494,27.6028
-273,540,-0.121704,-28.1756,0.00176081,-0.00118087,0.000566206,0.00186603,-0.00128609,0.183734,0.00183011,0.0127096,951,484,-0.121689,28.1756
-266,540,-0.133789,-28.7183,0.00227691,-0.00195269,0.00119056,0.002589,-0.00226479,0.256372,0.00280442,0.0141636,958,484,-0.13379,28.7183
-259,540,-0.158508,-29.2535,0.00276389,-0.00326698,0.0018665,0.00329481,-0.0037979,0.27713,0.00409841,0.0136032,965,484,-0.158513,29.2535
-252,540,-0.155029,-29.7679,0.00318898,-0.00499576,0.00262793,0.0039601,-0.00576687,0.28542,0.00564807,0.0128207,972,484,-0.154999,29.7679
-245,540,-0.147644,-30.2784,0.00349266,-0.00733702,0.00355765,0.00455681,-0.00840117,0.290646,0.00759025,0.0123479,979,484,-0.147622,30.2784
-238,540,-0.172913,-30.7696,0.00419368,-0.00972354,0.00451032,0.00552754,-0.0110574,0.287542,0.00975113,0.00986284,986,484,-0.172898,30.7696
-231,540,-0.177368,-31.2619,0.00518882,-0.0130447,0.00538799,0.00666195,-0.0145178,0.266887,0.0125054,0.0150319,993,484,-0.177378,31.2619
-224,540,-0.183105,-31.7239,0.00575899,-0.0168557,0.00667308,0.00758123,-0.0186779,0.266575,0.0156054,0.0254581,1000,484,-0.183075,31.724
-217,540,-0.208984,-32.0081,0.00657649,-0.0209498,0.00803,0.00874774,-0.0231211,0.264077,0.019013,0.0358464,1007,484,-0.208974,32.0081
-210,540,-0.124634,-32.3579,0.00735549,-0.0253165,0.00929065,0.0098126,-0.0277736,0.258552,0.0225112,0.0457563,1014,484,-0.124629,32.3579
-203,540,-0.174561,-32.7036,0,0,0,0,0,0,0,-1,1021,484,-0.174551,32.7036
-196,540,-0.170532,-32.9799,0,0,0,0,0,0,0,-1,1028,484,-0.170541,32.9799
-189,540,-0.726807,-22.826,0,0,0,0,0,0,0,-1,1035,484,-0.72684,22.8259
-182,540,0.109375,-15.2948,0,0,0,0,0,0,0,-1,1042,484,0.109331,15.2948
-175,540,1.73413,-10.728,0,0,0,0,0,0,0,-1,1049,484,1.73414,10.728
-168,540,1.18164,-7.65347,0,0,0,0,0,0,0,-1,1056,484,1.18163,7.65347
-161,540,-0.405884,-9.86481,0,0,0,0,0,0,0,-1,1063,484,-0.405886,9.8648
-154,540,1.96863,-22.0727,0,0,0,0,0,0,0,-1,1070,484,1.96859,22.0727
-147,540,1.32764,-21.9952,0,0,0,0,0,0,0,-1,1077,484,1.32762,21.9952
-140,540,1.40735,-15.6289,0,0,0,0,0,0,0,-1,1084,484,1.4073,15.6289
-133,540,2.28345,-17.6413,0,0,0,0,0,0,0,-1,1091,484,2.2835,17.6413
-126,540,1.25293,-23.9108,0,0,0,0,0,0,0,-1,1098,484,1.25288,23.9108
-119,540,1.55969,-23.0125,0,0,0,0,0,0,0,-1,1105,484,1.55968,23.0125
-112,540,1.4801,-21.6515,0,0,0,0,0,0,0,-1,1112,484,1.4801,21.6515
-105,540,1.30078,-19.8938,0,0,0,0,0,0,0,-1,1119,484,1.30077,19.8938
-98,540,1.08105,-18.1304,0,0,0,0,0,0,0,-1,1126,484,1.08101,18.1304
-91,540,1.56519,-7.48666,0,0,0,0,0,0,0,-1,1133,484,1.56514,7.48667
-84,540,-0.945923,4.43073,0,0,0,0,0,0,0,-1,1140,484,-0.945891,-4.43074
-77,540,-2.28894,2.14368,0,0,0,0,0,0,0,-1,1147,484,-2.28894,-2.14368
-70,540,-3.75244,-0.452576,0,0,0,0,0,0,0,-1,1154,484,-3.75244,0.452576
-63,540,-5.26257,-3.04767,0,0,0,0,0,0,0,-1,1161,484,-5.26262,3.04766
-56,540,-5.19055,-6.12595,0,0,0,0,0,0,0,-1,1168,484,-5.19057,6.12595
-49,540,-5.63867,-8.52298,0,0,0,0,0,0,0,-1,1175,484,-5.63871,8.52298
-42,540,0,0,0,0,0,0,0,0,0,-1,1182,484,0,0
-35,540,0,0,0,0,0,0,0,0,0,-1,1189,484,0,0
-28,540,0,0,0,0,0,0,0,0,0,-1,1196,484,0,0
-21,540,0,0,0,0,0,0,0,0,0,-1,1203,484,0,0
-14,540,0,0,0,0,0,0,0,0,0,-1,1210,484,0,0
-7,540,0,0,0,0,0,0,0,0,0,-1,1217,484,0,0
0,540,0,0,0,0,0,0,0,0,0,-1,1224,484,0,0
7,540,0,0,0,0,0,0,0,0,0,-1,1231,484,0,0
14,540,0,0,0,0,0,0,0,0,0,-1,1238,484,0,0
21,540,0,0,0,0,0,0,0,0,0,-1,1245,484,0,0
28,540,0,0,0,0,0,0,0,0,0,-1,1252,484,0,0
35,540,0,0,0,0,0,0,0,0,0,-1,1259,484,0,0
42,540,0,0,0,0,0,0,0,0,0,-1,1266,484,0,0
49,540,0,0,0,0,0,0,0,0,0,-1,1273,484,0,0
56,540,0,0,0,0,0,0,0,0,0,-1,1280,484,0,0
63,540,0,0,0,0,0,0,0,0,0,-1,1287,484,0,0
70,540,0,0,0,0,0,0,0,0,0,-1,1294,484,0,0
77,540,0,0,0,0,0,0,0,0,0,-1,1301,484,0,0
84,540,0,0,0,0,0,0,0,0,0,-1,1308,484,0,0
91,540,0,0,0,0,0,0,0,0,0,-1,1315,484,0,0
98,540,0,0,0,0,0,0,0,0,0,-1,1322,484,0,0
105,540,0,0,0,0,0,0,0,0,0,-1,1329,484,0,0
112,540,0,0,0,0,0,0,0,0,0,-1,1336,484,0,0
119,540,0,0,0,0,0,0,0,0,0,-1,1343,484,0,0
126,540,0,0,0,0,0,0,0,0,0,-1,1350,484,0,0
133,540,0,0,0,0,0,0,0,0,0,-1,1357,484,0,0
140,540,0,0,0,0,0,0,0,0,0,-1,1364,484,0,0
147,540,0,0,0,0,0,0,0,0,0,-1,1371,484,0,0
154,540,0,0,0,0,0,0,0,0,0,-1,1378,484,0,0
161,540,0,0,0,0,0,0,0,0,0,-1,1385,484,0,0
168,540,3.05078,-0.0010376,0,0,0,0,0,0,0,-1,1392,484,3.05084,0.00102554
175,540,3.37708,0.617035,0,0,0,0,0,0,0,-1,1399,484,3.37707,-0.617046
182,540,3.32678,1.23267,0,0,0,0,0,0,0,-1,1406,484,3.32678,-1.23266
189,540,3.5813,2.15619,0,0,0,0,0,0,0,-1,1413,484,3.58129,-2.1562
196,540,1.84448,-0.801483,0,0,0,0,0,0,0,-1,1420,484,1.84446,0.80148
203,540,4.14648,0.702087,0,0,0,0,0,0,0,-1,1427,484,4.14645,-0.702089
210,540,4.50671,-0.56076,0,0,0,0,0,0,0,-1,1434,484,4.50667,0.560771
217,540,5.00452,-0.278717,0,0,0,0,0,0,0,-1,1441,484,5.00452,0.278709
224,540,6.44458,-2.83527,0,0,0,0,0,0,0,-1,1448,484,6.44457,2.83525
231,540,6.9231,-3.10504,0,0,0,0,0,0,0,-1,1455,484,6.92307,3.10505
238,540,6.4823,-2.58365,0,0,0,0,0,0,0,-1,1462,484,6.48225,2.58363
245,540,6.02087,-1.97916,0,0,0,0,0,0,0,-1,1469,484,6.02088,1.97915
252,540,6.50647,-3.56006,0,0,0,0,0,0,0,-1,1476,484,6.50649,3.56006
259,540,6.01941,-2.798,0,0,0,0,0,0,0,-1,1483,484,6.01941,2.79801
266,540,5.5332,-2.02853,0,0,0,0,0,0,0,-1,1490,484,5.53323,2.02855
273,540,5.06787,-1.28137,0,0,0,0,0,0,0,-1,1497,484,5.06786,1.28136
280,540,1.62903,-2.14609,0,0,0,0,0,0,0,-1,1504,484,1.62906,2.1461
287,540,1.97156,-2.45053,0,0,0,0,0,0,0,-1,1511,484,1.97159,2.45053
294,540,2.44165,-2.6185,0,0,0,0,0,0,0,-1,1518,484,2.44167,2.6185
301,540,4.36169,-2.54272,0,0,0,0,0,0,0,-1,1525,484,4.36165,2.54272
308,540,4.2019,-4.30469,0,0,0,0,0,0,0,-1,1532,484,4.20193,4.3047
315,540,4.45923,-5.32101,0,0,0,0,0,0,0,-1,1539,484,4.45923,5.32103
322,540,4.71655,-6.33737,0,0,0,0,0,0,0,-1,1546,484,4.71653,6.33736
329,540,5.8949,-12.9383,0,0,0,0,0,0,0,-1,1553,484,5.89492,12.9383
336,540,7.16467,-17.7826,0,0,0,0,0,0,0,-1,1560,484,7.16469,17.7826
343,540,11.6155,-31.9618,0,0,0,0,0,0,0,-1,1567,484,11.6154,31.9618
350,540,11.3885,-31.1848,0,0,0,0,0,0,0,-1,1574,484,11.3886,31.1848
357,540,11.5406,-30.325,0.000956131,-0.00688499,-0.00516618,0.00352096,-0.00944981,-0.460815,0.00774506,0.0429929,1581,484,11.5407,30.325
364,540,11.4072,-29.975,0.000844706,-0.00577987,-0.00450591,0.00312477,-0.00805994,-0.46845,0.00666374,0.0238759,1588,484,11.4073,29.975
371,540,11.3966,-29.4848,0.000793435,-0.00465855,-0.00378597,0.0027327,-0.00659782,-0.473378,0.0055389,0.015589,1595,484,11.3966,29.4848
378,540,11.4034,-28.9515,0.000758811,-0.00335126,-0.00296862,0.0023143,-0.00490675,-0.482645,0.00425769,0.0127459,1602,484,11.4035,28.9515
385,540,11.4094,-28.3976,0.000697023,-0.00201206,-0.00206422,0.00181145,-0.00312648,-0.495037,0.00288442,0.0144747,1609,484,11.4095,28.3976
392,540,11.4065,-27.822,0.000577369,-0.00105523,-0.00137045,0.00135621,-0.00183407,-0.516793,0.00184878,0.0134094,1616,484,11.4065,27.822
399,540,11.3867,-27.2735,0.000596689,-0.000241617,-0.000822876,0.00110102,-0.000745943,-0.549838,0.00107289,0.0180435,1623,484,11.3867,27.2735
406,540,11.3766,-26.7128,0.000729139,0.000611962,-0.000248466,0.000925831,0.00041527,-0.669613,0.000535472,0.0187191,1630,484,11.3765,26.7128
413,540,11.356,-26.1114,0.000959111,0.0015304,0.00045353,0.00178074,0.000708767,1.06643,0.00103521,0.0141639,1637,484,11.356,26.1114
420,540,11.3773,-25.5123,0.0011554,0.00216541,0.0010952,0.00286643,0.000454376,1.00142,0.00177894,0.0126833,1644,484,11.3774,25.5123
427,540,11.3331,-24.9248,0.00126652,0.00262273,0.0016867,0.00376253,0.000126719,0.976525,0.0024672,0.0132959,1651,484,11.3331,24.9248
434,540,11.2882,-24.3527,0.00138622,0.0030559,0.00232356,0.00469004,-0.000247922,0.957863,0.00321252,0.0159456,1658,484,11.2882,24.3527
441,540,11.3076,-23.7555,0.00140458,0.00337365,0.00299453,0.00554133,-0.000763109,0.944221,0.00397309,0.0194365,1665,484,11.3076,23.7555
448,540,11.2758,-23.1519,0.00130408,0.00363427,0.0036523,0.00630281,-0.00136445,0.939797,0.00472285,0.0114548,1672,484,11.2757,23.1519
455,540,11.238,-22.5238,0.00113416,0.00383797,0.00428776,0.0069819,-0.00200977,0.938112,0.00544949,0.00996417,1679,484,11.2381,22.5238
462,540,11.1891,-21.9069,0.00087996,0.00388099,0.00494854,0.00755151,-0.00279056,0.932604,0.00617829,0.0107046,1686,484,11.189,21.9069
469,540,11.1357,-21.2791,0.000544956,0.00382095,0.00578556,0.00819591,-0.00383001,0.923347,0.00709405,0.0147321,1693,484,11.1357,21.2791
476,540,11.1201,-20.6486,0.000257245,0.00360142,0.00692889,0.00905712,-0.00519846,0.903795,0.00833036,0.0203277,1700,484,11.1201,20.6486
483,540,11.1429,-19.9431,4.58205e-05,0.00326402,0.00816381,0.0099758,-0.00666596,0.882702,0.00967126,0.034178,1707,484,11.143,19.9431
490,540,11.2802,-19.1452,0,0,0,0,0,0,0,-1,1714,484,11.2801,19.1452
497,540,10.3452,-16.9359,0,0,0,0,0,0,0,-1,1721,484,10.3453,16.9359
504,540,5.96704,-6.98599,0,0,0,0,0,0,0,-1,1728,484,5.96708,6.98598
511,540,5.82471,-6.83521,0,0,0,0,0,0,0,-1,1735,484,5.82465,6.83522
518,540,9.98181,-12.4608,0,0,0,0,0,0,0,-1,1742,484,9.98187,12.4608
525,540,12.4843,-16.3481,0,0,0,0,0,0,0,-1,1749,484,12.4842,16.3481
532,540,2.84265,-1.07925,0,0,0,0,0,0,0,-1,1756,484,2.84269,1.07927
539,540,0,0,0,0,0,0,0,0,0,-1,1763,484,0,0
546,540,0,0,0,0,0,0,0,0,0,-1,1770,484,0,0
553,540,0,0,0,0,0,0,0,0,0,-1,1777,484,0,0
560,540,0,0,0,0,0,0,0,0,0,-1,1784,484,0,0
567,540,0,0,0,0,0,0,0,0,0,-1,1791,484,0,0
574,540,0,0,0,0,0,0,0,0,0,-1,1798,484,0,0
581,540,0,0,0,0,0,0,0,0,0,-1,1805,484,0,0
588,540,0,0,0,0,0,0,0,0,0,-1,1812,484,0,0
595,540,0,0,0,0,0,0,0,0,0,-1,1819,484,0,0
602,540,0,0,0,0,0,0,0,0,0,-1,1826,484,0,0
609,540,0,0,0,0,0,0,0,0,0,-1,1833,484,0,0
616,540,0,0,0,0,0,0,0,0,0,-1,1840,484,0,0
623,540,0,0,0,0,0,0,0,0,0,-1,1847,484,0,0
630,540,0,0,0,0,0,0,0,0,0,-1,1854,484,0,0
637,540,0,0,0,0,0,0,0,0,0,-1,1861,484,0,0
644,540,0,0,0,0,0,0,0,0,0,-1,1868,484,0,0
651,540,0,0,0,0,0,0,0,0,0,-1,1875,484,0,0
658,540,0,0,0,0,0,0,0,0,0,-1,1882,484,0,0
665,540,0,0,0,0,0,0,0,0,0,-1,1889,484,0,0
672,540,0,0,0,0,0,0,0,0,0,-1,1896,484,0,0
679,540,0,0,0,0,0,0,0,0,0,-1,1903,484,0,0
686,540,0,0,0,0,0,0,0,0,0,-1,1910,484,0,0
693,540,0,0,0,0,0,0,0,0,0,-1,1917,484,0,0
700,540,0,0,0,0,0,0,0,0,0,-1,1924,484,0,0
707,540,0,0,0,0,0,0,0,0,0,-1,1931,484,0,0
714,540,0,0,0,0,0,0,0,0,0,-1,1938,484,0,0
721,540,0,0,0,0,0,0,0,0,0,-1,1945,484,0,0
728,540,0,0,0,0,0,0,0,0,0,-1,1952,484,0,0
735,540,0,0,0,0,0,0,0,0,0,-1,1959,484,0,0
742,540,0,0,0,0,0,0,0,0,0,-1,1966,484,0,0
749,540,0,0,0,0,0,0,0,0,0,-1,1973,484,0,0
756,540,0,0,0,0,0,0,0,0,0,-1,1980,484,0,0
763,540,0,0,0,0,0,0,0,0,0,-1,1987,484,0,0
770,540,0,0,0,0,0,0,0,0,0,-1,1994,484,0,0
777,540,0,0,0,0,0,0,0,0,0,-1,2001,484,0,0
784,540,0,0,0,0,0,0,0,0,0,-1,2008,484,0,0
791,540,0,0,0,0,0,0,0,0,0,-1,2015,484,0,0
798,540,0,0,0,0,0,0,0,0,0,-1,2022,484,0,0
805,540,0,0,0,0,0,0,0,0,0,-1,2029,484,0,0
812,540,0,0,0,0,0,0,0,0,0,-1,2036,484,0,0
-700,533,0,0,0,0,0,0,0,0,0,-1,524,491,0,0
-693,533,0,0,0,0,0,0,0,0,0,-1,531,491,0,0
-686,533,0,0,0,0,0,0,0,0,0,-1,538,491,0,0
-679,533,0,0,0,0,0,0,0,0,0,-1,545,491,0,0
-672,533,0,0,0,0,0,0,0,0,0,-1,552,491,0,0
-665,533,0,0,0,0,0,0,0,0,0,-1,559,491,0,0
-658,533,0,0,0,0,0,0,0,0,0,-1,566,491,0,0
-651,533,0,0,0,0,0,0,0,0,0,-1,573,491,0,0
-644,533,0,0,0,0,0,0,0,0,0,-1,580,491,0,0
-637,533,0,0,0,0,0,0,0,0,0,-1,587,491,0,0
-630,533,0,0,0,0,0,0,0,0,0,-1,594,491,0,0
-623,533,0,0,0,0,0,0,0,0,0,-1,601,491,0,0
-616,533,0,0,0,0,0,0,0,0,0,-1,608,491,0,0
-609,533,0,0,0,0,0,0,0,0,0,-1,615,491,0,0
-602,533,0,0,0,0,0,0,0,0,0,-1,622,491,0,0
-595,533,0,0,0,0,0,0,0,0,0,-1,629,491,0,0
-588,533,0,0,0,0,0,0,0,0,0,-1,636,491,0,0
-581,533,0,0,0,0,0,0,0,0,0,-1,643,491,0,0
-574,533,0,0,0,0,0,0,0,0,0,-1,650,491,0,0
-567,533,0,0,0,0,0,0,0,0,0,-1,657,491,0,0
-560,533,0,0,0,0,0,0,0,0,0,-1,664,491,0,0
-553,533,0,0,0,0,0,0,0,0,0,-1,671,491,0,0
-546,533,0,0,0,0,0,0,0,0,0,-1,678,491,0,0
-539,533,0,0,0,0,0,0,0,0,0,-1,685,491,0,0
-532,533,0,0,0,0,0,0,0,0,0,-1,692,491,0,0
-525,533,0,0,0,0,0,0,0,0,0,-1,699,491,0,0
-518,533,0,0,0,0,0,0,0,0,0,-1,706,491,0,0
-511,533,0,0,0,0,0,0,0,0,0,-1,713,491,0,0
-504,533,0,0,0,0,0,0,0,0,0,-1,720,491,0,0
-497,533,0,0,0,0,0,0,0,0,0,-1,727,491,0,0
-490,533,0,0,0,0,0,0,0,0,0,-1,734,491,0,0
-483,533,0,0,0,0,0,0,0,0,0,-1,741,491,0,0
-476,533,0,0,0,0,0,0,0,0,0,-1,748,491,0,0
-469,533,0,0,0,0,0,0,0,0,0,-1,755,491,0,0
-462,533,0,0,0,0,0,0,0,0,0,-1,762,491,0,0
-455,533,0,0,0,0,0,0,0,0,0,-1,769,491,0,0
-448,533,0,0,0,0,0,0,0,0,0,-1,776,491,0,0
-441,533,0,0,0,0,0,0,0,0,0,-1,783,491,0,0
-434,533,0,0,0,0,0,0,0,0,0,-1,790,491,0,0
-427,533,0.559814,-4.40222,0,0,0,0,0,0,0,-1,797,491,0.559816,4.40222
-420,533,-1.11127,-10.9054,0,0,0,0,0,0,0,-1,804,491,-1.11124,10.9054
-413,533,-0.704773,-11.0942,0,0,0,0,0,0,0,-1,811,491,-0.704742,11.0942
-406,533,-0.670898,-12.0899,0,0,0,0,0,0,0,-1,818,491,-0.670908,12.0899
-399,533,-0.455017,-12.4423,0,0,0,0,0,0,0,-1,825,491,-0.455032,12.4423
-392,533,-1.89661,-10.3905,0,0,0,0,0,0,0,-1,832,491,-1.89661,10.3905
-385,533,0.797729,-17.0485,0,0,0,0,0,0,0,-1,839,491,0.797746,17.0485
-378,533,0.550903,-18.167,0,0,0,0,0,0,0,-1,846,491,0.550906,18.167
-371,533,-0.790405,-19.6193,0,0,0,0,0,0,0,-1,853,491,-0.790417,19.6193
-364,533,-0.576599,-20.2864,-0.00649136,0.0304608,-0.0112084,0.0335948,-0.00962535,-1.29815,0.0262011,0.0417653,860,491,-0.576602,20.2864
-357,533,-0.41217,-21.0191,-0.00556101,0.0235582,-0.0092593,0.0262531,-0.00825587,-1.28758,0.0208073,0.0257433,867,491,-0.412165,21.0191
-350,533,-0.39447,-21.7294,-0.00489896,0.0178268,-0.00742864,0.0200396,-0.00711179,-1.28129,0.0162574,0.0150784,874,491,-0.394489,21.7294
-343,533,-0.429565,-22.3961,-0.00436229,0.0133992,-0.00591483,0.0151886,-0.00615173,-1.27702,0.0126838,0.012423,881,491,-0.429541,22.3961
-336,533,-0.493835,-23.0369,-0.00388154,0.00993337,-0.00458132,0.0113145,-0.00526272,-1.27798,0.00978117,0.0155164,888,491,-0.493822,23.0369
-329,533,-0.518372,-23.6093,-0.0031975,0.00648427,-0.00338514,0.00755044,-0.00426367,-1.26567,0.00690831,0.013838,895,491,-0.51838,23.6093
-322,533,-0.573914,-24.1761,-0.00249973,0.00421372,-0.00244119,0.00500753,-0.00329355,-1.2564,0.00482657,0.0118425,902,491,-0.573932,24.1762
-315,533,-0.60022,-24.7594,-0.00183485,0.00266566,-0.00159833,0.00317553,-0.00234472,-1.262,0.00319913,0.0131373,909,491,-0.600215,24.7594
-308,533,-0.603088,-25.3456,-0.00116224,0.00154445,-0.000906829,0.00182018,-0.00143797,-1.27562,0.0018854,0.011898,916,491,-0.603082,25.3456
-301,533,-0.655273,-25.9019,-0.000363657,0.00059271,-0.000418749,0.000750144,-0.000521091,-1.21118,0.000737909,0.0129505,923,491,-0.655266,25.9018
-294,533,-0.652893,-26.4465,0.000567823,-8.75142e-05,6.17131e-05,0.000573584,-9.32751e-05,0.0930796,0.000416973,0.0121005,930,491,-0.652918,26.4465
-287,533,-0.644836,-27.0197,0.00148307,-0.000635836,0.000498283,0.0015944,-0.000747164,0.219812,0.00138108,0.00963328,937,491,-0.644858,27.0197
-280,533,-0.660828,-27.6055,0.00226403,-0.00146072,0.000902773,0.0024713,-0.00166799,0.225684,0.00240477,0.00922265,944,491,-0.660845,27.6054
-273,533,-0.682434,-28.1595,0.00292973,-0.00214916,0.00134207,0.00326256,-0.00248199,0.243089,0.00332681,0.0127556,951,491,-0.68242,28.1595
-266,533,-0.684326,-28.6951,0.003339,-0.00286253,0.00202422,0.00394124,-0.00346476,0.289175,0.0042788,0.0128597,958,491,-0.684339,28.6951
-259,533,-0.674927,-29.2329,0.00382867,-0.00440392,0.0026425,0.00460386,-0.00517911,0.285351,0.00565146,0.0136581,965,491,-0.674946,29.2329
-252,533,-0.673584,-29.751,0.00434867,-0.00639003,0.0034153,0.00534283,-0.00738419,0.283261,0.00737938,0.0186901,972,491,-0.673584,29.751
-245,533,-0.759888,-30.2433,0.00471667,-0.00916285,0.00446875,0.006031,-0.0104772,0.286049,0.00964554,0.0319595,979,491,-0.759861,30.2433
-238,533,-0.61731,-30.6885,0.0055452,-0.0118537,0.00551475,0.00714589,-0.0134543,0.282494,0.012078,0.0371069,986,491,-0.617335,30.6885
-231,533,-0.544556,-30.9349,0.00667763,-0.015771,0.00664627,0.00849778,-0.0175911,0.267307,0.0153644,0.049955,993,491,-0.544566,30.9349
-224,533,-0.698608,-31.7177,0,0,0,0,0,0,0,-1,1000,491,-0.69862,31.7177
-217,533,-0.86084,-32.2185,0,0,0,0,0,0,0,-1,1007,491,-0.860868,32.2185
-210,533,-0.540833,-32.2847,0,0,0,0,0,0,0,-1,1014,491,-0.540863,32.2847
-203,533,-0.292786,-31.1553,0,0,0,0,0,0,0,-1,1021,491,-0.29279,31.1553
-196,533,0.688354,-19.5743,0,0,0,0,0,0,0,-1,1028,491,0.688406,19.5743
-189,533,-0.169189,-15.0303,0,0,0,0,0,0,0,-1,1035,491,-0.169241,15.0303
-182,533,1.26123,-11.4969,0,0,0,0,0,0,0,-1,1042,491,1.26128,11.4969
-175,533,0.937744,-7.36966,0,0,0,0,0,0,0,-1,1049,491,0.937769,7.36965
-168,533,2.64807,-2.7543,0,0,0,0,0,0,0,-1,1056,491,2.64812,2.7543
-161,533,1.91833,-1.76553,0,0,0,0,0,0,0,-1,1063,491,1.91836,1.76554
-154,533,0.376709,-11.0633,0,0,0,0,0,0,0,-1,1070,491,0.376715,11.0632
-147,533,0.383789,-12.1586,0,0,0,0,0,0,0,-1,1077,491,0.383829,12.1586
-140,533,1.14001,-15.4608,0,0,0,0,0,0,0,-1,1084,491,1.14005,15.4608
-133,533,0.189941,-16.0795,0,0,0,0,0,0,0,-1,1091,491,0.18994,16.0795
-126,533,2.89612,-2.59003,0,0,0,0,0,0,0,-1,1098,491,2.89608,2.59003
-119,533,1.78284,-22.5394,0,0,0,0,0,0,0,-1,1105,491,1.78279,22.5394
-112,533,1.83862,-21.2401,0,0,0,0,0,0,0,-1,1112,491,1.83859,21.24
-105,533,1.67554,-19.4018,0,0,0,0,0,0,0,-1,1119,491,1.6755,19.4018
-98,533,-1.39392,-5.16367,0,0,0,0,0,0,0,-1,1126,491,-1.39394,5.16367
-91,533,0.367432,4.49753,0,0,0,0,0,0,0,-1,1133,491,0.367468,-4.49754
-84,533,-0.88623,3.03604,0,0,0,0,0,0,0,-1,1140,491,-0.886288,-3.03605
-77,533,0,0,0,0,0,0,0,0,0,-1,1147,491,0,0
-70,533,0,0,0,0,0,0,0,0,0,-1,1154,491,0,0
-63,533,0,0,0,0,0,0,0,0,0,-1,1161,491,0,0
-56,533,0,0,0,0,0,0,0,0,0,-1,1168,491,0,0
-49,533,0,0,0,0,0,0,0,0,0,-1,1175,491,0,0
-42,533,0,0,0,0,0,0,0,0,0,-1,1182,491,0,0
-35,533,0,0,0,0,0,0,0,0,0,-1,1189,491,0,0
-28,533,0,0,0,0,0,0,0,0,0,-1,1196,491,0,0
-21,533,0,0,0,0,0,0,0,0,0,-1,1203,491,0,0
-14,533,0,0,0,0,0,0,0,0,0,-1,1210,491,0,0
-7,533,0,0,0,0,0,0,0,0,0,-1,1217,491,0,0
0,533,0,0,0,0,0,0,0,0,0,-1,1224,491,0,0
7,533,0,0,0,0,0,0,0,0,0,-1,1231,491,0,0
14,533,0,0,0,0,0,0,0,0,0,-1,1238,491,0,0
21,533,0,0,0,0,0,0,0,0,0,-1,1245,491,0,0
28,533,0,0,0,0,0,0,0,0,0,-1,1252,491,0,0
35,533,0,0,0,0,0,0,0,0,0,-1,1259,491,0,0
42,533,0,0,0,0,0,0,0,0,0,-1,1266,491,0,0
49,533,0,0,0,0,0,0,0,0,0,-1,1273,491,0,0
56,533,0,0,0,0,0,0,0,0,0,-1,1280,491,0,0
63,533,0,0,0,0,0,0,0,0,0,-1,1287,491,0,0
70,533,0,0,0,0,0,0,0,0,0,-1,1294,491,0,0
77,533,0,0,0,0,0,0,0,0,0,-1,1301,491,0,0
84,533,0,0,0,0,0,0,0,0,0,-1,1308,491,0,0
91,533,0,0,0,0,0,0,0,0,0,-1,1315,491,0,0
98,533,0,0,0,0,0,0,0,0,0,-1,1322,491,0,0
105,533,0,0,0,0,0,0,0,0,0,-1,1329,491,0,0
112,533,0,0,0,0,0,0,0,0,0,-1,1336,491,0,0
119,533,0,0,0,0,0,0,0,0,0,-1,1343,491,0,0
126,533,0,0,0,0,0,0,0,0,0,-1,1350,491,0,0
133,533,0,0,0,0,0,0,0,0,0,-1,1357,491,0,0
140,533,0,0,0,0,0,0,0,0,0,-1,1364,491,0,0
147,533,0,0,0,0,0,0,0,0,0,-1,1371,491,0,0
154,533,0,0,0,0,0,0,0,0,0,-1,1378,491,0,0
161,533,0,0,0,0,0,0,0,0,0,-1,1385,491,0,0
168,533,0,0,0,0,0,0,0,0,0,-1,1392,491,0,0
175,533,0,0,0,0,0,0,0,0,0,-1,1399,491,0,0
182,533,0,0,0,0,0,0,0,0,0,-1,1406,491,0,0
189,533,0,0,0,0,0,0,0,0,0,-1,1413,491,0,0
196,533,0,0,0,0,0,0,0,0,0,-1,1420,491,0,0
203,533,3.7887,1.16193,0,0,0,0,0,0,0,-1,1427,491,3.78872,-1.16193
210,533,5.09558,-0.216034,0,0,0,0,0,0,0,-1,1434,491,5.09559,0.216028
217,533,6.91614,-2.46814,0,0,0,0,0,0,0,-1,1441,491,6.91618,2.46814
224,533,7.23621,-2.1857,0,0,0,0,0,0,0,-1,1448,491,7.23621,2.1857
231,533,7.23474,-1.92282,0,0,0,0,0,0,0,-1,1455,491,7.2347,1.92282
238,533,7.23535,-1.67258,0,0,0,0,0,0,0,-1,1462,491,7.23539,1.67258
245,533,6.86682,-1.2301,0,0,0,0,0,0,0,-1,1469,491,6.86686,1.23011
252,533,6.63354,-3.07825,0,0,0,0,0,0,0,-1,1476,491,6.6335,3.07824
259,533,6.16431,-2.35037,0,0,0,0,0,0,0,-1,1483,491,6.1643,2.35037
266,533,5.68884,-1.6214,0,0,0,0,0,0,0,-1,1490,491,5.68885,1.6214
273,533,5.21399,-0.864227,0,0,0,0,0,0,0,-1,1497,491,5.21403,0.864227
280,533,1.41089,-1.97946,0,0,0,0,0,0,0,-1,1504,491,1.41087,1.97946
287,533,1.6814,-2.44443,0,0,0,0,0,0,0,-1,1511,491,1.6814,2.44444
294,533,2.2384,-2.57626,0,0,0,0,0,0,0,-1,1518,491,2.23839,2.57625
301,533,3.39941,-4.0817,0,0,0,0,0,0,0,-1,1525,491,3.3994,4.08171
308,533,4.13733,-4.14752,0,0,0,0,0,0,0,-1,1532,491,4.13727,4.14752
315,533,4.80762,-5.29349,0,0,0,0,0,0,0,-1,1539,491,4.80762,5.29347
322,533,5.47803,-6.43942,0,0,0,0,0,0,0,-1,1546,491,5.47798,6.43943
329,533,3.88477,-3.86301,0,0,0,0,0,0,0,-1,1553,491,3.88475,3.86299
336,533,6.70923,-13.2003,0,0,0,0,0,0,0,-1,1560,491,6.70926,13.2004
343,533,7.06677,-17.1133,0,0,0,0,0,0,0,-1,1567,491,7.06673,17.1133
350,533,10.0876,-23.7254,0,0,0,0,0,0,0,-1,1574,491,10.0877,23.7254
357,533,12.1393,-30.0892,0,0,0,0,0,0,0,-1,1581,491,12.1392,30.0892
364,533,12.3182,-29.6438,0,0,0,0,0,0,0,-1,1588,491,12.3183,29.6438
371,533,11.9196,-29.4502,0,0,0,0,0,0,0,-1,1595,491,11.9196,29.4502
378,533,11.9089,-28.8931,0.000639792,-0.00424973,-0.00399443,0.00287823,-0.00648817,-0.510785,0.00553996,0.034649,1602,491,11.909,28.8931
385,533,12.0032,-28.3655,0.000661496,-0.00276281,-0.00285187,0.0022757,-0.00437702,-0.515056,0.00390429,0.0246842,1609,491,12.0032,28.3655
392,533,11.9723,-27.8239,0.000484119,-0.0018436,-0.00207604,0.00170028,-0.00305976,-0.529919,0.00278532,0.0138198,1616,491,11.9723,27.8239
399,533,11.9868,-27.2715,0.000402437,-0.00101368,-0.00155952,0.00140711,-0.00201835,-0.572301,0.00198816,0.0130159,1623,491,11.9868,27.2715
406,533,11.9752,-26.6912,0.0004611,-0.000201317,-0.00108388,0.00126325,-0.00100346,-0.637115,0.00131155,0.0156599,1630,491,11.9752,26.6912
413,533,11.9551,-26.0775,0.000718521,0.000707697,-0.000357627,0.00107078,0.000355442,-0.777833,0.000629745,0.0138949,1637,491,11.9551,26.0775
420,533,11.9355,-25.489,0.00090547,0.0013476,0.000288071,0.00148965,0.000763416,1.11267,0.00086014,0.0131224,1644,491,11.9355,25.489
427,533,11.9293,-24.8887,0.00104839,0.00179216,0.000837035,0.0023362,0.000504345,0.994447,0.00141954,0.0140984,1651,491,11.9294,24.8887
434,533,11.8845,-24.3291,0.00113583,0.00220066,0.00141249,0.00317775,0.000158744,0.965629,0.00206762,0.013996,1658,491,11.8845,24.3291
441,533,11.877,-23.7393,0.00116327,0.00250417,0.00201872,0.00396086,-0.000293417,0.945725,0.00274361,0.0155847,1665,491,11.877,23.7393
448,533,11.8669,-23.1188,0.00112021,0.00274904,0.00260393,0.00466294,-0.000793692,0.93696,0.00340418,0.0165709,1672,491,11.8669,23.1189
455,533,11.8304,-22.5045,0.00105148,0.00299634,0.00318296,0.0053521,-0.00130427,0.933651,0.00407304,0.0157391,1679,491,11.8305,22.5045
462,533,11.7808,-21.8786,0.000924863,0.00302761,0.00375541,0.00587604,-0.00192357,0.921885,0.00469188,0.0152691,1686,491,11.7807,21.8786
469,533,11.7668,-21.2769,0.000738197,0.00296375,0.00449794,0.00648452,-0.00278257,0.906662,0.00549081,0.010466,1693,491,11.7668,21.2769
476,533,11.7601,-20.62,0.000592767,0.00278347,0.00552442,0.00732008,-0.00394385,0.883266,0.00659989,0.0120857,1700,491,11.7601,20.62
483,533,11.7717,-19.9381,0.000543614,0.00249546,0.00660969,0.00820088,-0.00516181,0.858694,0.00778118,0.0192326,1707,491,11.7717,19.9381
490,533,11.7734,-19.3516,0.000635051,0.00192744,0.00806489,0.00937198,-0.00680949,0.825375,0.00938135,0.0477047,1714,491,11.7734,19.3516
497,533,11.7693,-18.5666,0,0,0,0,0,0,0,-1,1721,491,11.7693,18.5666
504,533,11.8457,-17.7864,0,0,0,0,0,0,0,-1,1728,491,11.8457,17.7864
511,533,12.1675,-17.3421,0,0,0,0,0,0,0,-1,1735,491,12.1674,17.3421
518,533,12.2239,-16.9063,0,0,0,0,0,0,0,-1,1742,491,12.2239,16.9063
525,533,12.4893,-15.9968,0,0,0,0,0,0,0,-1,1749,491,12.4892,15.9968
532,533,12.248,-14.9345,0,0,0,0,0,0,0,-1,1756,491,12.248,14.9345
539,533,3.61609,1.62427,0,0,0,0,0,0,0,-1,1763,491,3.61606,-1.62426
546,533,3.59607,1.65799,0,0,0,0,0,0,0,-1,1770,491,3.59605,-1.658
553,533,0,0,0,0,0,0,0,0,0,-1,1777,491,0,0
560,533,0,0,0,0,0,0,0,0,0,-1,1784,491,0,0
567,533,0,0,0,0,0,0,0,0,0,-1,1791,491,0,0
574,533,0,0,0,0,0,0,0,0,0,-1,1798,491,0,0
581,533,0,0,0,0,0,0,0,0,0,-1,1805,491,0,0
588,533,0,0,0,0,0,0,0,0,0,-1,1812,491,0,0
595,533,0,0,0,0,0,0,0,0,0,-1,1819,491,0,0
602,533,0,0,0,0,0,0,0,0,0,-1,1826,491,0,0
609,533,0,0,0,0,0,0,0,0,0,-1,1833,491,0,0
616,533,0,0,0,0,0,0,0,0,0,-1,1840,491,0,0
623,533,0,0,0,0,0,0,0,0,0,-1,1847,491,0,0
630,533,0,0,0,0,0,0,0,0,0,-1,1854,491,0,0
637,533,0,0,0,0,0,0,0,0,0,-1,1861,491,0,0
644,533,0,0,0,0,0,0,0,0,0,-1,1868,491,0,0
651,533,0,0,0,0,0,0,0,0,0,-1,1875,491,0,0
658,533,0,0,0,0,0,0,0,0,0,-1,1882,491,0,0
665,533,0,0,0,0,0,0,0,0,0,-1,1889,491,0,0
672,533,0,0,0,0,0,0,0,0,0,-1,1896,491,0,0
679,533,0,0,0,0,0,0,0,0,0,-1,1903,491,0,0
686,533,0,0,0,0,0,0,0,0,0,-1,1910,491,0,0
693,533,0,0,0,0,0,0,0,0,0,-1,1917,491,0,0
700,533,0,0,0,0,0,0,0,0,0,-1,1924,491,0,0
707,533,0,0,0,0,0,0,0,0,0,-1,1931,491,0,0
714,533,0,0,0,0,0,0,0,0,0,-1,1938,491,0,0
721,533,0,0,0,0,0,0,0,0,0,-1,1945,491,0,0
728,533,0,0,0,0,0,0,0,0,0,-1,1952,491,0,0
735,533,0,0,0,0,0,0,0,0,0,-1,1959,491,0,0
742,533,0,0,0,0,0,0,0,0,0,-1,1966,491,0,0
749,533,0,0,0,0,0,0,0,0,0,-1,1973,491,0,0
756,533,0,0,0,0,0,0,0,0,0,-1,1980,491,0,0
763,533,0,0,0,0,0,0,0,0,0,-1,1987,491,0,0
770,533,0,0,0,0,0,0,0,0,0,-1,1994,491,0,0
777,533,0,0,0,0,0,0,0,0,0,-1,2001,491,0,0
784,533,0,0,0,0,0,0,0,0,0,-1,2008,491,0,0
791,533,0,0,0,0,0,0,0,0,0,-1,2015,491,0,0
798,533,0,0,0,0,0,0,0,0,0,-1,2022,491,0,0
805,533,0,0,0,0,0,0,0,0,0,-1,2029,491,0,0
812,533,0,0,0,0,0,0,0,0,0,-1,2036,491,0,0
-700,526,0,0,0,0,0,0,0,0,0,-1,524,498,0,0
-693,526,0,0,0,0,0,0,0,0,0,-1,531,498,0,0
-686,526,0,0,0,0,0,0,0,0,0,-1,538,498,0,0
-679,526,0,0,0,0,0,0,0,0,0,-1,545,498,0,0
-672,526,0,0,0,0,0,0,0,0,0,-1,552,498,0,0
-665,526,0,0,0,0,0,0,0,0,0,-1,559,498,0,0
-658,526,0,0,0,0,0,0,0,0,0,-1,566,498,0,0
-651,526,0,0,0,0,0,0,0,0,0,-1,573,498,0,0
-644,526,0,0,0,0,0,0,0,0,0,-1,580,498,0,0
-637,526,0,0,0,0,0,0,0,0,0,-1,587,498,0,0
-630,526,0,0,0,0,0,0,0,0,0,-1,594,498,0,0
-623,526,0,0,0,0,0,0,0,0,0,-1,601,498,0,0
-616,526,0,0,0,0,0,0,0,0,0,-1,608,498,0,0
-609,526,0,0,0,0,0,0,0,0,0,-1,615,498,0,0
-602,526,0,0,0,0,0,0,0,0,0,-1,622,498,0,0
-595,526,0,0,0,0,0,0,0,0,0,-1,629,498,0,0
-588,526,0,0,0,0,0,0,0,0,0,-1,636,498,0,0
-581,526,0,0,0,0,0,0,0,0,0,-1,643,498,0,0
-574,526,0,0,0,0,0,0,0,0,0,-1,650,498,0,0
-567,526,0,0,0,0,0,0,0,0,0,-1,657,498,0,0
-560,526,0,0,0,0,0,0,0,0,0,-1,664,498,0,0
-553,526,0,0,0,0,0,0,0,0,0,-1,671,498,0,0
-546,526,0,0,0,0,0,0,0,0,0,-1,678,498,0,0
-539,526,0,0,0,0,0,0,0,0,0,-1,685,498,0,0
-532,526,0,0,0,0,0,0,0,0,0,-1,692,498,0,0
-525,526,0,0,0,0,0,0,0,0,0,-1,699,498,0,0
-518,526,0,0,0,0,0,0,0,0,0,-1,706,498,0,0
-511,526,0,0,0,0,0,0,0,0,0,-1,713,498,0,0
-504,526,0,0,0,0,0,0,0,0,0,-1,720,498,0,0
-497,526,0,0,0,0,0,0,0,0,0,-1,727,498,0,0
-490,526,0,0,0,0,0,0,0,0,0,-1,734,498,0,0
-483,526,0,0,0,0,0,0,0,0,0,-1,741,498,0,0
-476,526,0,0,0,0,0,0,0,0,0,-1,748,498,0,0
-469,526,0,0,0,0,0,0,0,0,0,-1,755,498,0,0
-462,526,0,0,0,0,0,0,0,0,0,-1,762,498,0,0
-455,526,0,0,0,0,0,0,0,0,0,-1,769,498,0,0
-448,526,0,0,0,0,0,0,0,0,0,-1,776,498,0,0
-441,526,0,0,0,0,0,0,0,0,0,-1,783,498,0,0
-434,526,-0.153564,-5.96649,0,0,0,0,0,0,0,-1,790,498,-0.153589,5.9665
-427,526,1.23206,-4.59808,0,0,0,0,0,0,0,-1,797,498,1.23208,4.59809
-420,526,-1.76373,-11.6241,0,0,0,0,0,0,0,-1,804,498,-1.76373,11.6241
-413,526,-1.38965,-11.7916,0,0,0,0,0,0,0,-1,811,498,-1.38963,11.7916
-406,526,-1.35187,-12.5182,0,0,0,0,0,0,0,-1,818,498,-1.35185,12.5181
-399,526,-1.32715,-13.2116,0,0,0,0,0,0,0,-1,825,498,-1.32713,13.2116
-392,526,0.197571,-15.303,0,0,0,0,0,0,0,-1,832,498,0.197598,15.303
-385,526,-0.393738,-17.4995,0,0,0,0,0,0,0,-1,839,498,-0.393747,17.4994
-378,526,-0.483032,-18.4315,-0.00662931,0.0390211,-0.0132957,0.0426111,-0.0102194,-1.30707,0.0323564,0.0462555,846,498,-0.483008,18.4315
-371,526,-0.835632,-19.4316,-0.0055881,0.0318406,-0.010968,0.0348178,-0.00856532,-1.30574,0.0265319,0.0370844,853,498,-0.835646,19.4316
-364,526,-1.0506,-20.3884,-0.00463319,0.0249952,-0.00921773,0.0276288,-0.00726683,-1.2925,0.0212596,0.0209635,860,498,-1.05058,20.3885
-357,526,-0.961121,-21.0967,-0.0038209,0.0194368,-0.00754279,0.0216688,-0.00605293,-1.28309,0.0168303,0.0138863,867,498,-0.961107,21.0967
-350,526,-0.980164,-21.7218,-0.00318575,0.0147882,-0.00600017,0.0166071,-0.00500469,-1.27645,0.0130632,0.0119905,874,498,-0.980158,21.7218
-343,526,-1.04834,-22.3724,-0.00267212,0.0109835,-0.00465331,0.0124184,-0.00410702,-1.27169,0.00993503,0.0155226,881,498,-1.04834,22.3724
-336,526,-1.08911,-22.9865,-0.00224489,0.00795971,-0.00345923,0.0090218,-0.00330699,-1.2729,0.00736852,0.0155491,888,498,-1.08912,22.9865
-329,526,-1.10333,-23.5855,-0.00163017,0.00493846,-0.00240127,0.00572266,-0.00241437,-1.25514,0.00482561,0.0157215,895,498,-1.10332,23.5855
-322,526,-1.13123,-24.1392,-0.00102383,0.00293623,-0.00153985,0.00346452,-0.00155212,-1.2403,0.00296568,0.0103963,902,498,-1.13123,24.1392
-315,526,-1.14465,-24.7236,-0.000438542,0.0015271,-0.000764532,0.00178945,-0.000700889,-1.24024,0.00148288,0.00900276,909,498,-1.14468,24.7237
-308,526,-1.15265,-25.3298,0.000204245,0.000465948,-0.000137825,0.000525144,0.00014505,-1.16512,0.000313151,0.00891759,916,498,-1.15264,25.3298
-301,526,-1.20905,-25.8834,0.00096793,-0.000425085,0.000306705,0.00103247,-0.000489623,0.207399,0.000897215,0.0105601,923,498,-1.20904,25.8834
-294,526,-1.22449,-26.4265,0.00186693,-0.00108858,0.000736865,0.00204045,-0.0012621,0.231279,0.0019243,0.0100528,930,498,-1.22448,26.4265
-287,526,-1.23108,-26.9791,0.00279955,-0.00166516,0.00111853,0.0030641,-0.0019297,0.232244,0.00290786,0.0103568,937,498,-1.23107,26.9792
-280,526,-1.25201,-27.5475,0.00361581,-0.00262835,0.00152387,0.00396786,-0.00298039,0.227039,0.00402506,0.0134027,944,498,-1.25201,27.5475
-273,526,-1.25006,-28.1203,0.00434456,-0.00340797,0.0019279,0.00479752,-0.00386094,0.230767,0.0050087,0.0114196,951,498,-1.25008,28.1203
-266,526,-1.24707,-28.6591,0.00473144,-0.00409299,0.00270771,0.00549603,-0.00485758,0.27521,0.00598145,0.0139198,958,498,-1.24705,28.6591
-259,526,-1.18365,-29.1688,0.00527616,-0.00591395,0.00330624,0.00618002,-0.00681781,0.266859,0.00750731,0.0336877,965,498,-1.18368,29.1688
-252,526,-1.16412,-29.7567,0,0,0,0,0,0,0,-1,972,498,-1.16414,29.7567
-245,526,-1.25958,-30.3491,0,0,0,0,0,0,0,-1,979,498,-1.25958,30.349
-238,526,-1.09906,-30.7616,0,0,0,0,0,0,0,-1,986,498,-1.09905,30.7616
-231,526,-0.807251,-30.7126,0,0,0,0,0,0,0,-1,993,498,-0.807243,30.7126
-224,526,-1.01776,-32.5946,0,0,0,0,0,0,0,-1,1000,498,-1.01777,32.5946
-217,526,-1.20294,-32.9642,0,0,0,0,0,0,0,-1,1007,498,-1.20296,32.9642
-210,526,-1.38812,-33.3338,0,0,0,0,0,0,0,-1,1014,498,-1.38815,33.3338
-203,526,-0.659302,-18.8818,0,0,0,0,0,0,0,-1,1021,498,-0.659273,18.8818
-196,526,-0.328247,-12.179,0,0,0,0,0,0,0,-1,1028,498,-0.328238,12.179
-189,526,0.401245,-5.96826,0,0,0,0,0,0,0,-1,1035,498,0.401197,5.96826
-182,526,1.7323,-2.99405,0,0,0,0,0,0,0,-1,1042,498,1.73226,2.99404
-175,526,2.27637,-2.07983,0,0,0,0,0,0,0,-1,1049,498,2.27639,2.07984
-168,526,2.12036,-1.66049,0,0,0,0,0,0,0,-1,1056,498,2.12035,1.66048
-161,526,2.09082,-1.20572,0,0,0,0,0,0,0,-1,1063,498,2.09086,1.2057
-154,526,-1.3446,-5.37799,0,0,0,0,0,0,0,-1,1070,498,-1.34457,5.37799
-147,526,-0.472656,-6.64996,0,0,0,0,0,0,0,-1,1077,498,-0.472659,6.64997
-140,526,0.422852,-8.03339,0,0,0,0,0,0,0,-1,1084,498,0.422844,8.0334
-133,526,1.09583,-9.2215,0,0,0,0,0,0,0,-1,1091,498,1.09581,9.2215
-126,526,3.42529,-2.36053,0,0,0,0,0,0,0,-1,1098,498,3.42523,2.36052
-119,526,2.7771,-0.764099,0,0,0,0,0,0,0,-1,1105,498,2.7771,0.764107
-112,526,2.57715,-1.1893,0,0,0,0,0,0,0,-1,1112,498,2.57718,1.1893
-105,526,0,0,0,0,0,0,0,0,0,-1,1119,498,0,0
-98,526,0,0,0,0,0,0,0,0,0,-1,1126,498,0,0
-91,526,0,0,0,0,0,0,0,0,0,-1,1133,498,0,0
-84,526,0,0,0,0,0,0,0,0,0,-1,1140,498,0,0
-77,526,0,0,0,0,0,0,0,0,0,-1,1147,498,0,0
-70,526,0,0,0,0,0,0,0,0,0,-1,1154,498,0,0
-63,526,0,0,0,0,0,0,0,0,0,-1,1161,498,0,0
-56,526,0,0,0,0,0,0,0,0,0,-1,1168,498,0,0
-49,526,0,0,0,0,0,0,0,0,0,-1,1175,498,0,0
-42,526,0,0,0,0,0,0,0,0,0,-1,1182,498,0,0
-35,526,0,0,0,0,0,0,0,0,0,-1,1189,498,0,0
-28,526,0,0,0,0,0,0,0,0,0,-1,1196,498,0,0
-21,526,0,0,0,0,0,0,0,0,0,-1,1203,498,0,0
-14,526,0,0,0,0,0,0,0,0,0,-1,1210,498,0,0
-7,526,0,0,0,0,0,0,0,0,0,-1,1217,498,0,0
0,526,0,0,0,0,0,0,0,0,0,-1,1224,498,0,0
7,526,0,0,0,0,0,0,0,0,0,-1,1231,498,0,0
14,526,0,0,0,0,0,0,0,0,0,-1,1238,498,0,0
21,526,0,0,0,0,0,0,0,0,0,-1,1245,498,0,0
28,526,0,0,0,0,0,0,0,0,0,-1,1252,498,0,0
35,526,0,0,0,0,0,0,0,0,0,-1,1259,498,0,0
42,526,0,0,0,0,0,0,0,0,0,-1,1266,498,0,0
49,526,0,0,0,0,0,0,0,0,0,-1,1273,498,0,0
56,526,0,0,0,0,0,0,0,0,0,-1,1280,498,0,0
63,526,0,0,0,0,0,0,0,0,0,-1,1287,498,0,0
70,526,0,0,0,0,0,0,0,0,0,-1,1294,498,0,0
77,526,0,0,0,0,0,0,0,0,0,-1,1301,498,0,0
84,526,0,0,0,0,0,0,0,0,0,-1,1308,498,0,0
91,526,0,0,0,0,0,0,0,0,0,-1,1315,498,0,0
98,526,0,0,0,0,0,0,0,0,0,-1,1322,498,0,0
105,526,0,0,0,0,0,0,0,0,0,-1,1329,498,0,0
112,526,0,0,0,0,0,0,0,0,0,-1,1336,498,0,0
119,526,0,0,0,0,0,0,0,0,0,-1,1343,498,0,0
126,526,0,0,0,0,0,0,0,0,0,-1,1350,498,0,0
133,526,0,0,0,0,0,0,0,0,0,-1,1357,498,0,0
140,526,0,0,0,0,0,0,0,0,0,-1,1364,498,0,0
147,526,0,0,0,0,0,0,0,0,0,-1,1371,498,0,0
154,526,0,0,0,0,0,0,0,0,0,-1,1378,498,0,0
161,526,0,0,0,0,0,0,0,0,0,-1,1385,498,0,0
168,526,0,0,0,0,0,0,0,0,0,-1,1392,498,0,0
175,526,0,0,0,0,0,0,0,0,0,-1,1399,498,0,0
182,526,0,0,0,0,0,0,0,0,0,-1,1406,498,0,0
189,526,0,0,0,0,0,0,0,0,0,-1,1413,498,0,0
196,526,0,0,0,0,0,0,0,0,0,-1,1420,498,0,0
203,526,0,0,0,0,0,0,0,0,0,-1,1427,498,0,0
210,526,0,0,0,0,0,0,0,0,0,-1,1434,498,0,0
217,526,0,0,0,0,0,0,0,0,0,-1,1441,498,0,0
224,526,0,0,0,0,0,0,0,0,0,-1,1448,498,0,0
231,526,7.93237,-1.30618,0,0,0,0,0,0,0,-1,1455,498,7.93238,1.30618
238,526,7.97717,-1.08197,0,0,0,0,0,0,0,-1,1462,498,7.97723,1.08196
245,526,7.2793,-0.792938,0,0,0,0,0,0,0,-1,1469,498,7.27931,0.792926
252,526,6.73523,-2.23608,0,0,0,0,0,0,0,-1,1476,498,6.73525,2.23608
259,526,6.22949,-1.84967,0,0,0,0,0,0,0,-1,1483,498,6.22953,1.84968
266,526,5.72375,-1.46329,0,0,0,0,0,0,0,-1,1490,498,5.72381,1.46328
273,526,4.33984,0.49173,0,0,0,0,0,0,0,-1,1497,498,4.33979,-0.491727
280,526,1.4585,-1.59897,0,0,0,0,0,0,0,-1,1504,498,1.45846,1.59895
287,526,1.46411,-2.40134,0,0,0,0,0,0,0,-1,1511,498,1.46406,2.40133
294,526,5.57471,-4.59085,0,0,0,0,0,0,0,-1,1518,498,5.57466,4.59084
301,526,4.42786,-3.99677,0,0,0,0,0,0,0,-1,1525,498,4.42788,3.99676
308,526,5.79529,-4.19366,0,0,0,0,0,0,0,-1,1532,498,5.79528,4.19368
315,526,5.09851,-5.20068,0,0,0,0,0,0,0,-1,1539,498,5.09851,5.20068
322,526,5.50708,-4.72348,0,0,0,0,0,0,0,-1,1546,498,5.50713,4.72347
329,526,3.88672,-4.345,0,0,0,0,0,0,0,-1,1553,498,3.88674,4.34501
336,526,4.97876,-2.23828,0,0,0,0,0,0,0,-1,1560,498,4.97877,2.23828
343,526,3.31665,-2.69696,0,0,0,0,0,0,0,-1,1567,498,3.31667,2.69696
350,526,6.06287,-6.12015,0,0,0,0,0,0,0,-1,1574,498,6.06286,6.12014
357,526,12.9944,-29.1665,0,0,0,0,0,0,0,-1,1581,498,12.9943,29.1665
364,526,13.2582,-29.5416,0,0,0,0,0,0,0,-1,1588,498,13.2581,29.5416
371,526,12.4481,-29.0131,0,0,0,0,0,0,0,-1,1595,498,12.4481,29.0131
378,526,12.3553,-29.1275,0,0,0,0,0,0,0,-1,1602,498,12.3554,29.1275
385,526,12.6104,-28.5241,0,0,0,0,0,0,0,-1,1609,498,12.6104,28.5241
392,526,12.6055,-27.8221,0.000300402,-0.00218913,-0.0028159,0.00213439,-0.00402312,-0.577287,0.00361036,0.0369014,1616,498,12.6055,27.8221
399,526,12.5288,-27.2435,0.000165644,-0.00136184,-0.00231643,0.00184099,-0.00303719,-0.626157,0.0028445,0.0204002,1623,498,12.5288,27.2435
406,526,12.5709,-26.6307,0.000217393,-0.000632763,-0.00191524,0.00175416,-0.00216953,-0.676196,0.00226957,0.0129237,1630,498,12.571,26.6307
413,526,12.5321,-26.0612,0.000559923,0.000217316,-0.00113495,0.00153642,-0.000759181,-0.710496,0.00135045,0.0130682,1637,498,12.5321,26.0612
420,526,12.4991,-25.4888,0.000770238,0.000814163,-0.000456996,0.00124972,0.000334677,-0.809409,0.000747013,0.0134524,1644,498,12.4991,25.4888
427,526,12.4968,-24.8862,0.000960513,0.00120492,8.08259e-05,0.00122923,0.000936202,1.27862,0.000741372,0.0144532,1651,498,12.4968,24.8863
434,526,12.4814,-24.3048,0.00102448,0.00155697,0.000623086,0.00196831,0.00061314,0.987307,0.00116301,0.0136658,1658,498,12.4814,24.3048
441,526,12.4525,-23.707,0.00106012,0.00182685,0.0011937,0.00269724,0.000189735,0.940775,0.00173837,0.01145,1665,498,12.4525,23.707
448,526,12.4429,-23.0974,0.00105941,0.00203545,0.00173344,0.00334826,-0.000253397,0.922613,0.00232125,0.0108151,1672,498,12.4428,23.0974
455,526,12.4291,-22.5082,0.00105347,0.00230165,0.00227772,0.00403923,-0.000684112,0.919116,0.00294744,0.0138365,1679,498,12.4291,22.5082
462,526,12.3994,-21.886,0.000997129,0.00235064,0.00278755,0.00454241,-0.00119464,0.904484,0.00349521,0.0109051,1686,498,12.3995,21.886
469,526,12.3914,-21.2634,0.000889403,0.00230466,0.00344597,0.00511491,-0.00192085,0.886665,0.00419931,0.00822132,1693,498,12.3914,21.2634
476,526,12.3604,-20.633,0.000805928,0.002172,0.004353,0.00589522,-0.0029173,0.863219,0.00518384,0.00998849,1700,498,12.3604,20.633
483,526,12.3435,-19.9493,0.00081873,0.0019318,0.00529121,0.00669566,-0.00394513,0.837796,0.0062115,0.0129733,1707,498,12.3435,19.9494
490,526,12.3738,-19.1965,0.000938126,0.00152188,0.00652247,0.007759,-0.00529899,0.807758,0.0075835,0.0272577,1714,498,12.3738,19.1965
497,526,12.274,-18.7361,0.00110403,0.000761366,0.00797545,0.00890999,-0.00704459,0.774659,0.00923234,0.0356148,1721,498,12.2741,18.7361
504,526,12.2728,-18.0488,0.00138613,-0.000100822,0.0096701,0.0103413,-0.00905599,0.747032,0.0112072,0.0360747,1728,498,12.2728,18.0488
511,526,12.5151,-17.4362,0.00194416,-0.00136872,0.0116941,0.0120986,-0.0115231,0.715043,0.0136394,0.0446565,1735,498,12.5152,17.4361
518,526,12.5081,-16.7817,0.00292266,-0.00278997,0.0147056,0.0150467,-0.0149141,0.689476,0.0172979,0.042689,1742,498,12.508,16.7816
525,526,12.4982,-15.976,0.00368787,-0.0041756,0.0182085,0.0183843,-0.018872,0.679067,0.0215106,0.0485414,1749,498,12.4982,15.976
532,526,12.524,-15.2543,0,0,0,0,0,0,0,-1,1756,498,12.5241,15.2544
539,526,10.9778,-15.113,0,0,0,0,0,0,0,-1,1763,498,10.9778,15.1131
546,526,3.36731,1.07721,0,0,0,0,0,0,0,-1,1770,498,3.36735,-1.07719
553,526,3.40796,1.37137,0,0,0,0,0,0,0,-1,1777,498,3.40792,-1.37138
560,526,0,0,0,0,0,0,0,0,0,-1,1784,498,0,0
567,526,0,0,0,0,0,0,0,0,0,-1,1791,498,0,0
574,526,0,0,0,0,0,0,0,0,0,-1,1798,498,0,0
581,526,0,0,0,0,0,0,0,0,0,-1,1805,498,0,0
588,526,0,0,0,0,0,0,0,0,0,-1,1812,498,0,0
595,526,0,0,0,0,0,0,0,0,0,-1,1819,498,0,0
602,526,0,0,0,0,0,0,0,0,0,-1,1826,498,0,0
609,526,0,0,0,0,0,0,0,0,0,-1,1833,498,0,0
616,526,0,0,0,0,0,0,0,0,0,-1,1840,498,0,0
623,526,0,0,0,0,0,0,0,0,0,-1,1847,498,0,0
630,526,0,0,0,0,0,0,0,0,0,-1,1854,498,0,0
637,526,0,0,0,0,0,0,0,0,0,-1,1861,498,0,0
644,526,0,0,0,0,0,0,0,0,0,-1,1868,498,0,0
651,526,0,0,0,0,0,0,0,0,0,-1,1875,498,0,0
658,526,0,0,0,0,0,0,0,0,0,-1,1882,498,0,0
665,526,0,0,0,0,0,0,0,0,0,-1,1889,498,0,0
672,526,0,0,0,0,0,0,0,0,0,-1,1896,498,0,0
679,526,0,0,0,0,0,0,0,0,0,-1,1903,498,0,0
686,526,0,0,0,0,0,0,0,0,0,-1,1910,498,0,0
693,526,0,0,0,0,0,0,0,0,0,-1,1917,498,0,0
700,526,0,0,0,0,0,0,0,0,0,-1,1924,498,0,0
707,526,0,0,0,0,0,0,0,0,0,-1,1931,498,0,0
714,526,0,0,0,0,0,0,0,0,0,-1,1938,498,0,0
721,526,0,0,0,0,0,0,0,0,0,-1,1945,498,0,0
728,526,0,0,0,0,0,0,0,0,0,-1,1952,498,0,0
735,526,0,0,0,0,0,0,0,0,0,-1,1959,498,0,0
742,526,0,0,0,0,0,0,0,0,0,-1,1966,498,0,0
749,526,0,0,0,0,0,0,0,0,0,-1,1973,498,0,0
756,526,0,0,0,0,0,0,0,0,0,-1,1980,498,0,0
763,526,0,0,0,0,0,0,0,0,0,-1,1987,498,0,0
770,526,0,0,0,0,0,0,0,0,0,-1,1994,498,0,0
777,526,0,0,0,0,0,0,0,0,0,-1,2001,498,0,0
784,526,0,0,0,0,0,0,0,0,0,-1,2008,498,0,0
791,526,0,0,0,0,0,0,0,0,0,-1,2015,498,0,0
798,526,0,0,0,0,0,0,0,0,0,-1,2022,498,0,0
805,526,0,0,0,0,0,0,0,0,0,-1,2029,498,0,0
812,526,0,0,0,0,0,0,0,0,0,-1,2036,498,0,0
-700,519,0,0,0,0,0,0,0,0,0,-1,524,505,0,0
-693,519,0,0,0,0,0,0,0,0,0,-1,531,505,0,0
-686,519,0,0,0,0,0,0,0,0,0,-1,538,505,0,0
-679,519,0,0,0,0,0,0,0,0,0,-1,545,505,0,0
-672,519,0,0,0,0,0,0,0,0,0,-1,552,505,0,0
-665,519,0,0,0,0,0,0,0,0,0,-1,559,505,0,0
-658,519,0,0,0,0,0,0,0,0,0,-1,566,505,0,0
-651,519,0,0,0,0,0,0,0,0,0,-1,573,505,0,0
-644,519,0,0,0,0,0,0,0,0,0,-1,580,505,0,0
-637,519,0,0,0,0,0,0,0,0,0,-1,587,505,0,0
-630,519,0,0,0,0,0,0,0,0,0,-1,594,505,0,0
-623,519,0,0,0,0,0,0,0,0,0,-1,601,505,0,0
-616,519,0,0,0,0,0,0,0,0,0,-1,608,505,0,0
-609,519,0,0,0,0,0,0,0,0,0,-1,615,505,0,0
-602,519,0,0,0,0,0,0,0,0,0,-1,622,505,0,0
-595,519,0,0,0,0,0,0,0,0,0,-1,629,505,0,0
-588,519,0,0,0,0,0,0,0,0,0,-1,636,505,0,0
-581,519,0,0,0,0,0,0,0,0,0,-1,643,505,0,0
-574,519,0,0,0,0,0,0,0,0,0,-1,650,505,0,0
-567,519,0,0,0,0,0,0,0,0,0,-1,657,505,0,0
-560,519,0,0,0,0,0,0,0,0,0,-1,664,505,0,0
-553,519,0,0,0,0,0,0,0,0,0,-1,671,505,0,0
-546,519,0,0,0,0,0,0,0,0,0,-1,678,505,0,0
-539,519,0,0,0,0,0,0,0,0,0,-1,685,505,0,0
-532,519,0,0,0,0,0,0,0,0,0,-1,692,505,0,0
-525,519,0,0,0,0,0,0,0,0,0,-1,699,505,0,0
-518,519,0,0,0,0,0,0,0,0,0,-1,706,505,0,0
-511,519,0,0,0,0,0,0,0,0,0,-1,713,505,0,0
-504,519,0,0,0,0,0,0,0,0,0,-1,720,505,0,0
-497,519,0,0,0,0,0,0,0,0,0,-1,727,505,0,0
-490,519,0,0,0,0,0,0,0,0,0,-1,734,505,0,0
-483,519,0,0,0,0,0,0,0,0,0,-1,741,505,0,0
-476,519,0,0,0,0,0,0,0,0,0,-1,748,505,0,0
-469,519,0,0,0,0,0,0,0,0,0,-1,755,505,0,0
-462,519,0,0,0,0,0,0,0,0,0,-1,762,505,0,0
-455,519,0,0,0,0,0,0,0,0,0,-1,769,505,0,0
-448,519,0,0,0,0,0,0,0,0,0,-1,776,505,0,0
-441,519,1.34839,-5.29346,0,0,0,0,0,0,0,-1,783,505,1.3484,5.29347
-434,519,0.949585,-5.77313,0,0,0,0,0,0,0,-1,790,505,0.949598,5.77315
-427,519,-0.0523682,-9.31567,0,0,0,0,0,0,0,-1,797,505,-0.0523854,9.31568
-420,519,-2.38867,-12.1938,0,0,0,0,0,0,0,-1,804,505,-2.38867,12.1938
-413,519,-2.2298,-12.4998,0,0,0,0,0,0,0,-1,811,505,-2.22979,12.4998
-406,519,-1.44373,-12.3475,0,0,0,0,0,0,0,-1,818,505,-1.44376,12.3475
-399,519,-1.60516,-15.0849,0,0,0,0,0,0,0,-1,825,505,-1.60518,15.0849
-392,519,-1.23016,-17.7813,0,0,0,0,0,0,0,-1,832,505,-1.23017,17.7812
-385,519,-1.0871,-17.5496,-0.00689933,0.0372961,-0.012231,0.0404552,-0.0100584,-1.31804,0.030874,0.0474913,839,505,-1.08708,17.5496
-378,519,-1.57971,-18.825,-0.00527224,0.0308626,-0.010667,0.0337766,-0.00818614,-1.30413,0.025685,0.0349903,846,505,-1.57971,18.825
-371,519,-1.55249,-19.6764,-0.00382905,0.0252801,-0.00885069,0.0277599,-0.00630886,-1.29762,0.020929,0.0192656,853,505,-1.55251,19.6764
-364,519,-1.55756,-20.4622,-0.00267885,0.0201106,-0.00725827,0.022226,-0.0047942,-1.28721,0.0166471,0.0117907,860,505,-1.55756,20.4621
-357,519,-1.54236,-21.1142,-0.00182095,0.0156753,-0.00583571,0.0174432,-0.00358877,-1.27665,0.0129913,0.0111589,867,505,-1.54236,21.1142
-350,519,-1.57617,-21.7236,-0.00113314,0.0119071,-0.00451079,0.0133153,-0.0025414,-1.26819,0.00983409,0.0129562,874,505,-1.57617,21.7237
-343,519,-1.66052,-22.311,-0.000614436,0.00866009,-0.00329351,0.00971065,-0.001665,-1.26202,0.0070942,0.0158549,881,505,-1.66055,22.311
-336,519,-1.70996,-22.9162,-0.000235345,0.00602516,-0.00223038,0.00673849,-0.000948666,-1.26126,0.00483964,0.0161539,888,505,-1.70996,22.9162
-329,519,-1.69104,-23.5312,0.000247942,0.00338764,-0.00133871,0.00388094,-0.000245358,-1.21775,0.00267283,0.0142775,895,505,-1.69106,23.5312
-322,519,-1.70618,-24.1216,0.000644397,0.00157944,-0.000612927,0.0018828,0.000341039,-1.11121,0.00115838,0.0114598,902,505,-1.70621,24.1216
-315,519,-1.7179,-24.7202,0.000986271,0.000206887,1.3242e-05,0.000986496,0.000206662,0.0169838,0.000600745,0.0092437,909,505,-1.71792,24.7202
-308,519,-1.72528,-25.3321,0.00142047,-0.000910863,0.000474463,0.00151333,-0.00100372,0.193277,0.00146312,0.00872249,916,505,-1.7253,25.3321
-301,519,-1.77063,-25.8813,0.00195656,-0.00184718,0.000779019,0.00210992,-0.00200054,0.19438,0.00237346,0.0135686,923,505,-1.77065,25.8813
-294,519,-1.79468,-26.3936,0.00261827,-0.00258792,0.00107141,0.00283014,-0.00279979,0.195229,0.00325046,0.0157629,930,505,-1.79468,26.3935
-287,519,-1.823,-26.9569,0.00339605,-0.00326845,0.00132704,0.00365057,-0.00352297,0.189494,0.00414186,0.0114601,937,505,-1.82303,26.9569
-280,519,-1.83862,-27.5374,0.00420023,-0.0044263,0.00169201,0.00452023,-0.0047463,0.186917,0.00535056,0.0186824,944,505,-1.83862,27.5373
-273,519,-1.7962,-28.105,0.00501276,-0.00531659,0.00205226,0.00540557,-0.0057094,0.189116,0.00641803,0.03684,951,505,-1.79619,28.105
-266,519,-1.83423,-28.6819,0,0,0,0,0,0,0,-1,958,505,-1.83424,28.6819
-259,519,-1.67664,-29.2466,0,0,0,0,0,0,0,-1,965,505,-1.67665,29.2466
-252,519,-1.84009,-26.8372,0,0,0,0,0,0,0,-1,972,505,-1.8401,26.8372
-245,519,-1.23254,-23.2696,0,0,0,0,0,0,0,-1,979,505,-1.23256,23.2696
-238,519,-1.06903,-23.1753,0,0,0,0,0,0,0,-1,986,505,-1.06904,23.1753
-231,519,0.337585,-11.2798,0,0,0,0,0,0,0,-1,993,505,0.337568,11.2798
-224,519,-0.0494995,-7.97394,0,0,0,0,0,0,0,-1,1000,505,-0.0495123,7.97392
-217,519,-1.37299,-33.5475,0,0,0,0,0,0,0,-1,1007,505,-1.37296,33.5475
-210,519,-2.14398,-4.74774,0,0,0,0,0,0,0,-1,1014,505,-2.14397,4.74775
-203,519,-0.513611,-5.39017,0,0,0,0,0,0,0,-1,1021,505,-0.513585,5.39017
-196,519,-0.374023,-5.41635,0,0,0,0,0,0,0,-1,1028,505,-0.374047,5.41635
-189,519,-0.234497,-5.44254,0,0,0,0,0,0,0,-1,1035,505,-0.234508,5.44253
-182,519,2.76697,-1.19659,0,0,0,0,0,0,0,-1,1042,505,2.76696,1.19661
-175,519,2.31323,-0.960938,0,0,0,0,0,0,0,-1,1049,505,2.31319,0.960941
-168,519,2.01074,-0.721405,0,0,0,0,0,0,0,-1,1056,505,2.01072,0.721407
-161,519,2.32056,-0.522339,0,0,0,0,0,0,0,-1,1063,505,2.32057,0.522328
-154,519,2.55566,0.116669,0,0,0,0,0,0,0,-1,1070,505,2.55563,-0.116661
-147,519,-0.55127,-6.14001,0,0,0,0,0,0,0,-1,1077,505,-0.551252,6.14001
-140,519,0.240601,-7.53503,0,0,0,0,0,0,0,-1,1084,505,0.240653,7.53501
-133,519,2.70911,-4.4516,0,0,0,0,0,0,0,-1,1091,505,2.70915,4.45161
-126,519,0,0,0,0,0,0,0,0,0,-1,1098,505,0,0
-119,519,0,0,0,0,0,0,0,0,0,-1,1105,505,0,0
-112,519,0,0,0,0,0,0,0,0,0,-1,1112,505,0,0
-105,519,0,0,0,0,0,0,0,0,0,-1,1119,505,0,0
-98,519,0,0,0,0,0,0,0,0,0,-1,1126,505,0,0
-91,519,0,0,0,0,0,0,0,0,0,-1,1133,505,0,0
-84,519,0,0,0,0,0,0,0,0,0,-1,1140,505,0,0
-77,519,0,0,0,0,0,0,0,0,0,-1,1147,505,0,0
-70,519,0,0,0,0,0,0,0,0,0,-1,1154,505,0,0
-63,519,0,0,0,0,0,0,0,0,0,-1,1161,505,0,0
-56,519,0,0,0,0,0,0,0,0,0,-1,1168,505,0,0
-49,519,0,0,0,0,0,0,0,0,0,-1,1175,505,0,0
-42,519,0,0,0,0,0,0,0,0,0,-1,1182,505,0,0
-35,519,0,0,0,0,0,0,0,0,0,-1,1189,505,0,0
-28,519,0,0,0,0,0,0,0,0,0,-1,1196,505,0,0
-21,519,0,0,0,0,0,0,0,0,0,-1,1203,505,0,0
-14,519,0,0,0,0,0,0,0,0,0,-1,1210,505,0,0
-7,519,0,0,0,0,0,0,0,0,0,-1,1217,505,0,0
0,519,0,0,0,0,0,0,0,0,0,-1,1224,505,0,0
7,519,0,0,0,0,0,0,0,0,0,-1,1231,505,0,0
14,519,0,0,0,0,0,0,0,0,0,-1,1238,505,0,0
21,519,0,0,0,0,0,0,0,0,0,-1,1245,505,0,0
28,519,0,0,0,0,0,0,0,0,0,-1,1252,505,0,0
35,519,0,0,0,0,0,0,0,0,0,-1,1259,505,0,0
42,519,0,0,0,0,0,0,0,0,0,-1,1266,505,0,0
49,519,0,0,0,0,0,0,0,0,0,-1,1273,505,0,0
56,519,0,0,0,0,0,0,0,0,0,-1,1280,505,0,0
63,519,0,0,0,0,0,0,0,0,0,-1,1287,505,0,0
70,519,0,0,0,0,0,0,0,0,0,-1,1294,505,0,0
77,519,0,0,0,0,0,0,0,0,0,-1,1301,505,0,0
84,519,0,0,0,0,0,0,0,0,0,-1,1308,505,0,0
91,519,0,0,0,0,0,0,0,0,0,-1,1315,505,0,0
98,519,0,0,0,0,0,0,0,0,0,-1,1322,505,0,0
105,519,0,0,0,0,0,0,0,0,0,-1,1329,505,0,0
112,519,0,0,0,0,0,0,0,0,0,-1,1336,505,0,0
119,519,0,0,0,0,0,0,0,0,0,-1,1343,505,0,0
126,519,0,0,0,0,0,0,0,0,0,-1,1350,505,0,0
133,519,0,0,0,0,0,0,0,0,0,-1,1357,505,0,0
140,519,0,0,0,0,0,0,0,0,0,-1,1364,505,0,0
147,519,0,0,0,0,0,0,0,0,0,-1,1371,505,0,0
154,519,0,0,0,0,0,0,0,0,0,-1,1378,505,0,0
161,519,0,0,0,0,0,0,0,0,0,-1,1385,505,0,0
168,519,0,0,0,0,0,0,0,0,0,-1,1392,505,0,0
175,519,0,0,0,0,0,0,0,0,0,-1,1399,505,0,0
182,519,0,0,0,0,0,0,0,0,0,-1,1406,505,0,0
189,519,0,0,0,0,0,0,0,0,0,-1,1413,505,0,0
196,519,0,0,0,0,0,0,0,0,0,-1,1420,505,0,0
203,519,0,0,0,0,0,0,0,0,0,-1,1427,505,0,0
210,519,0,0,0,0,0,0,0,0,0,-1,1434,505,0,0
217,519,0,0,0,0,0,0,0,0,0,-1,1441,505,0,0
224,519,0,0,0,0,0,0,0,0,0,-1,1448,505,0,0
231,519,0,0,0,0,0,0,0,0,0,-1,1455,505,0,0
238,519,0,0,0,0,0,0,0,0,0,-1,1462,505,0,0
245,519,0,0,0,0,0,0,0,0,0,-1,1469,505,0,0
252,519,5.26208,0.0938416,0,0,0,0,0,0,0,-1,1476,505,5.26207,-0.0938493
259,519,6.14246,-1.36441,0,0,0,0,0,0,0,-1,1483,505,6.14241,1.36441
266,519,5.31909,-0.400787,0,0,0,0,0,0,0,-1,1490,505,5.31912,0.400773
273,519,4.02393,0.325531,0,0,0,0,0,0,0,-1,1497,505,4.0239,-0.325522
280,519,4.68848,0.53006,0,0,0,0,0,0,0,-1,1504,505,4.68842,-0.530073
287,519,7.9519,-3.80801,0,0,0,0,0,0,0,-1,1511,505,7.95193,3.808
294,519,6.92273,-3.38889,0,0,0,0,0,0,0,-1,1518,505,6.92268,3.38888
301,519,5.35669,-2.92661,0,0,0,0,0,0,0,-1,1525,505,5.35675,2.9266
308,519,7.37549,-5.64529,0,0,0,0,0,0,0,-1,1532,505,7.3755,5.64529
315,519,6.30029,-4.53754,0,0,0,0,0,0,0,-1,1539,505,6.30024,4.53753
322,519,5.84302,-5.45117,0,0,0,0,0,0,0,-1,1546,505,5.84303,5.45116
329,519,4.92407,0.62384,0,0,0,0,0,0,0,-1,1553,505,4.92403,-0.623832
336,519,3.10095,-0.329285,0,0,0,0,0,0,0,-1,1560,505,3.1009,0.329283
343,519,2.49146,-2.31119,0,0,0,0,0,0,0,-1,1567,505,2.49145,2.31119
350,519,3.47729,-2.22516,0,0,0,0,0,0,0,-1,1574,505,3.47726,2.22515
357,519,13.271,-29.6344,0,0,0,0,0,0,0,-1,1581,505,13.271,29.6344
364,519,12.8292,-28.3627,0,0,0,0,0,0,0,-1,1588,505,12.8292,28.3627
371,519,12.3875,-27.0911,0,0,0,0,0,0,0,-1,1595,505,12.3874,27.091
378,519,6.36597,-10.0967,0,0,0,0,0,0,0,-1,1602,505,6.36597,10.0967
385,519,6.24756,-9.72186,0,0,0,0,0,0,0,-1,1609,505,6.24752,9.72183
392,519,13.0585,-27.9864,0,0,0,0,0,0,0,-1,1616,505,13.0585,27.9864
399,519,13.2273,-27.044,-0.000269189,-0.00152651,-0.00320617,0.00236937,-0.00416507,-0.688587,0.00381985,0.0490744,1623,505,13.2273,27.044
406,519,13.1041,-26.6174,-0.000113807,-0.00083692,-0.00281949,0.00236721,-0.00331794,-0.721629,0.00329759,0.0317875,1630,505,13.1041,26.6175
413,519,13.1565,-26.0676,0.000410146,-2.97173e-05,-0.00193224,0.00213493,-0.0017545,-0.728731,0.00224914,0.0155459,1637,505,13.1564,26.0676
420,519,13.1143,-25.4734,0.00071075,0.000519352,-0.00118977,0.00180866,-0.000578559,-0.745267,0.00143796,0.0151884,1644,505,13.1143,25.4735
427,519,13.0845,-24.8884,0.000987244,0.000830588,-0.000643455,0.00155712,0.000260711,-0.724831,0.000963013,0.014092,1651,505,13.0845,24.8884
434,519,13.0775,-24.2905,0.00105333,0.00110544,-0.000123483,0.00120559,0.000953183,-0.889386,0.000734198,0.0139385,1658,505,13.0775,24.2905
441,519,13.0454,-23.6642,0.0011138,0.00133116,0.000419885,0.00165621,0.000788762,0.912034,0.00095657,0.0129928,1665,505,13.0455,23.6642
448,519,13.0295,-23.0606,0.00115723,0.00149122,0.00092793,0.00226706,0.000381388,0.874425,0.00140165,0.00994794,1672,505,13.0296,23.0606
455,519,13.0447,-22.4838,0.00118837,0.00175905,0.00144491,0.00294653,8.95234e-07,0.882883,0.00196406,0.0114006,1679,505,13.0447,22.4837
462,519,13.0118,-21.8596,0.00115984,0.00182472,0.00189489,0.00341611,-0.000431548,0.872235,0.00243404,0.010529,1686,505,13.0118,21.8595
469,519,12.9883,-21.2148,0.00108499,0.00181083,0.00247679,0.00395115,-0.00105533,0.858144,0.00304741,0.0106436,1693,505,12.9883,21.2148
476,519,12.9686,-20.5906,0.00101325,0.00173831,0.00327127,0.00466708,-0.00191552,0.840584,0.00390957,0.0131212,1700,505,12.9686,20.5906
483,519,12.9575,-19.9875,0.00102858,0.00156216,0.00408992,0.00539398,-0.00280324,0.817968,0.00481081,0.0147263,1707,505,12.9575,19.9875
490,519,12.9166,-19.3065,0.00109693,0.00130014,0.00513372,0.00633326,-0.00393619,0.795293,0.00598267,0.0128023,1714,505,12.9166,19.3065
497,519,12.8921,-18.7132,0.0012138,0.000804222,0.00638281,0.0073951,-0.00537709,0.769362,0.00740465,0.0190367,1721,505,12.8921,18.7132
504,519,12.8484,-18.0299,0.00138844,0.000204638,0.00786165,0.00868044,-0.00708737,0.747824,0.00911902,0.0190741,1728,505,12.8484,18.0299
511,519,12.9094,-17.3434,0.00170449,-0.000649068,0.00960214,0.0102017,-0.00914627,0.724425,0.0111761,0.0244914,1735,505,12.9094,17.3435
518,519,12.7886,-16.7285,0.00218317,-0.0015993,0.0119503,0.012391,-0.0118071,0.70692,0.0139722,0.0411606,1742,505,12.7885,16.7285
525,519,12.9078,-15.8407,0.00245291,-0.00256169,0.0145711,0.0147308,-0.0148396,0.700195,0.0170725,0.0478424,1749,505,12.9078,15.8407
532,519,13.1177,-14.8083,0,0,0,0,0,0,0,-1,1756,505,13.1177,14.8083
539,519,12.365,-13.963,0,0,0,0,0,0,0,-1,1763,505,12.365,13.963
546,519,4.62024,-2.89774,0,0,0,0,0,0,0,-1,1770,505,4.62023,2.89775
553,519,4.14136,0.0667419,0,0,0,0,0,0,0,-1,1777,505,4.14141,-0.0667503
560,519,3.77856,0.279724,0,0,0,0,0,0,0,-1,1784,505,3.77861,-0.279731
567,519,0,0,0,0,0,0,0,0,0,-1,1791,505,0,0
574,519,0,0,0,0,0,0,0,0,0,-1,1798,505,0,0
581,519,0,0,0,0,0,0,0,0,0,-1,1805,505,0,0
588,519,0,0,0,0,0,0,0,0,0,-1,1812,505,0,0
595,519,0,0,0,0,0,0,0,0,0,-1,1819,505,0,0
602,519,0,0,0,0,0,0,0,0,0,-1,1826,505,0,0
609,519,0,0,0,0,0,0,0,0,0,-1,1833,505,0,0
616,519,0,0,0,0,0,0,0,0,0,-1,1840,505,0,0
623,519,0,0,0,0,0,0,0,0,0,-1,1847,505,0,0
630,519,0,0,0,0,0,0,0,0,0,-1,1854,505,0,0
637,519,0,0,0,0,0,0,0,0,0,-1,1861,505,0,0
644,519,0,0,0,0,0,0,0,0,0,-1,1868,505,0,0
651,519,0,0,0,0,0,0,0,0,0,-1,1875,505,0,0
658,519,0,0,0,0,0,0,0,0,0,-1,1882,505,0,0
665,519,0,0,0,0,0,0,0,0,0,-1,1889,505,0,0
672,519,0,0,0,0,0,0,0,0,0,-1,1896,505,0,0
679,519,0,0,0,0,0,0,0,0,0,-1,1903,505,0,0
686,519,0,0,0,0,0,0,0,0,0,-1,1910,505,0,0
693,519,0,0,0,0,0,0,0,0,0,-1,1917,505,0,0
700,519,0,0,0,0,0,0,0,0,0,-1,1924,505,0,0
707,519,0,0,0,0,0,0,0,0,0,-1,1931,505,0,0
714,519,0,0,0,0,0,0,0,0,0,-1,1938,505,0,0
721,519,0,0,0,0,0,0,0,0,0,-1,1945,505,0,0
728,519,0,0,0,0,0,0,0,0,0,-1,1952,505,0,0
735,519,0,0,0,0,0,0,0,0,0,-1,1959,505,0,0
742,519,0,0,0,0,0,0,0,0,0,-1,1966,505,0,0
749,519,0,0,0,0,0,0,0,0,0,-1,1973,505,0,0
756,519,0,0,0,0,0,0,0,0,0,-1,1980,505,0,0
763,519,0,0,0,0,0,0,0,0,0,-1,1987,505,0,0
770,519,0,0,0,0,0,0,0,0,0,-1,1994,505,0,0
777,519,0,0,0,0,0,0,0,0,0,-1,2001,505,0,0
784,519,0,0,0,0,0,0,0,0,0,-1,2008,505,0,0
791,519,0,0,0,0,0,0,0,0,0,-1,2015,505,0,0
798,519,0,0,0,0,0,0,0,0,0,-1,2022,505,0,0
805,519,0,0,0,0,0,0,0,0,0,-1,2029,505,0,0
812,519,0,0,0,0,0,0,0,0,0,-1,2036,505,0,0
-700,512,0,0,0,0,0,0,0,0,0,-1,524,512,0,0
-693,512,0,0,0,0,0,0,0,0,0,-1,531,512,0,0
-686,512,0,0,0,0,0,0,0,0,0,-1,538,512,0,0
-679,512,0,0,0,0,0,0,0,0,0,-1,545,512,0,0
-672,512,0,0,0,0,0,0,0,0,0,-1,552,512,0,0
-665,512,0,0,0,0,0,0,0,0,0,-1,559,512,0,0
-658,512,0,0,0,0,0,0,0,0,0,-1,566,512,0,0
-651,512,0,0,0,0,0,0,0,0,0,-1,573,512,0,0
-644,512,0,0,0,0,0,0,0,0,0,-1,580,512,0,0
-637,512,0,0,0,0,0,0,0,0,0,-1,587,512,0,0
-630,512,0,0,0,0,0,0,0,0,0,-1,594,512,0,0
-623,512,0,0,0,0,0,0,0,0,0,-1,601,512,0,0
-616,512,0,0,0,0,0,0,0,0,0,-1,608,512,0,0
-609,512,0,0,0,0,0,0,0,0,0,-1,615,512,0,0
-602,512,0,0,0,0,0,0,0,0,0,-1,622,512,0,0
-595,512,0,0,0,0,0,0,0,0,0,-1,629,512,0,0
-588,512,0,0,0,0,0,0,0,0,0,-1,636,512,0,0
-581,512,0,0,0,0,0,0,0,0,0,-1,643,512,0,0
-574,512,0,0,0,0,0,0,0,0,0,-1,650,512,0,0
-567,512,0,0,0,0,0,0,0,0,0,-1,657,512,0,0
-560,512,0,0,0,0,0,0,0,0,0,-1,664,512,0,0
-553,512,0,0,0,0,0,0,0,0,0,-1,671,512,0,0
-546,512,0,0,0,0,0,0,0,0,0,-1,678,512,0,0
-539,512,0,0,0,0,0,0,0,0,0,-1,685,512,0,0
-532,512,0,0,0,0,0,0,0,0,0,-1,692,512,0,0
-525,512,0,0,0,0,0,0,0,0,0,-1,699,512,0,0
-518,512,0,0,0,0,0,0,0,0,0,-1,706,512,0,0
-511,512,0,0,0,0,0,0,0,0,0,-1,713,512,0,0
-504,512,0,0,0,0,0,0,0,0,0,-1,720,512,0,0
-497,512,0,0,0,0,0,0,0,0,0,-1,727,512,0,0
-490,512,0,0,0,0,0,0,0,0,0,-1,734,512,0,0
-483,512,0,0,0,0,0,0,0,0,0,-1,741,512,0,0
-476,512,0,0,0,0,0,0,0,0,0,-1,748,512,0,0
-469,512,0,0,0,0,0,0,0,0,0,-1,755,512,0,0
-462,512,0,0,0,0,0,0,0,0,0,-1,762,512,0,0
-455,512,0,0,0,0,0,0,0,0,0,-1,769,512,0,0
-448,512,1.96283,-4.15674,0,0,0,0,0,0,0,-1,776,512,1.96285,4.15677
-441,512,1.78198,-4.88824,0,0,0,0,0,0,0,-1,783,512,1.78201,4.88826
-434,512,0.0726929,-9.85822,0,0,0,0,0,0,0,-1,790,512,0.0727008,9.85819
-427,512,-0.384583,-9.94824,0,0,0,0,0,0,0,-1,797,512,-0.384552,9.94823
-420,512,-2.93219,-12.4855,0,0,0,0,0,0,0,-1,804,512,-2.93219,12.4855
-413,512,-2.22711,-11.4485,0,0,0,0,0,0,0,-1,811,512,-2.22712,11.4485
-406,512,-2.38037,-13.5743,0,0,0,0,0,0,0,-1,818,512,-2.38034,13.5743
-399,512,-2.19641,-17.1268,0,0,0,0,0,0,0,-1,825,512,-2.19639,17.1268
-392,512,-2.04395,-17.8259,-0.0064496,0.0338609,-0.0111339,0.0367317,-0.0093204,-1.31845,0.0281144,0.0427681,832,512,-2.04394,17.8259
-385,512,-2.03394,-18.4941,-0.00519442,0.0286403,-0.00964902,0.0311986,-0.00775271,-1.31163,0.0238079,0.021648,839,512,-2.03395,18.4941
-378,512,-2.08954,-19.1385,-0.00395497,0.0238064,-0.00840222,0.0261513,-0.0062999,-1.29864,0.0198699,0.0172953,846,512,-2.08954,19.1386
-371,512,-2.1142,-19.8145,-0.00276127,0.0193706,-0.00711559,0.0214609,-0.00485157,-1.28507,0.0161689,0.0134959,853,512,-2.1142,19.8145
-364,512,-2.1394,-20.5031,-0.00170925,0.0152565,-0.00582384,0.0170632,-0.003516,-1.26998,0.0127106,0.0100744,860,512,-2.13942,20.503
-357,512,-2.14832,-21.1204,-0.000857377,0.0116674,-0.00463942,0.0131987,-0.00238869,-1.25199,0.00969395,0.0111163,867,512,-2.14833,21.1204
-350,512,-2.18646,-21.7228,-0.000170526,0.00856752,-0.00354161,0.00982267,-0.00142568,-1.23021,0.00707174,0.0118415,874,512,-2.18648,21.7229
-343,512,-2.25769,-22.3027,0.000335306,0.00578045,-0.00246879,0.00673311,-0.000617351,-1.20252,0.00470803,0.0128295,881,512,-2.2577,22.3027
-336,512,-2.29553,-22.9217,0.000705612,0.00349668,-0.00151656,0.00416209,4.02087e-05,-1.15733,0.00276142,0.0141386,888,512,-2.29553,22.9217
-329,512,-2.26593,-23.5238,0.0011324,0.00130436,-0.000741288,0.00196464,0.00047212,-0.843135,0.00118418,0.0163419,895,512,-2.26593,23.5238
-322,512,-2.29053,-24.1116,0.00143023,-0.000223075,-7.8597e-05,0.00143395,-0.000226803,-0.047397,0.00103985,0.0135652,902,512,-2.29053,24.1116
-315,512,-2.3139,-24.7037,0.0016742,-0.00143887,0.000490681,0.00174971,-0.00151438,0.152689,0.00188615,0.0116223,909,512,-2.31393,24.7037
-308,512,-2.33722,-25.2965,0.00205272,-0.00247977,0.000885809,0.00221969,-0.00264673,0.186306,0.00281323,0.0115306,916,512,-2.33725,25.2965
-301,512,-2.35358,-25.8555,0.00248771,-0.00330393,0.00116996,0.00271512,-0.00353135,0.191983,0.00361665,0.0158825,923,512,-2.35357,25.8555
-294,512,-2.35876,-26.3679,0.00296479,-0.00398882,0.00144792,0.00325424,-0.00427827,0.197304,0.00436227,0.0164165,930,512,-2.35874,26.3679
-287,512,-2.4516,-26.8667,0.00361686,-0.00467338,0.00164982,0.00393312,-0.00498964,0.189397,0.00516358,0.0260906,937,512,-2.45162,26.8667
-280,512,-2.31879,-27.5062,0.00442171,-0.00600928,0.00204302,0.00480758,-0.00639515,0.186675,0.00648951,0.0498317,944,512,-2.31878,27.5061
-273,512,-2.20184,-28.1307,0,0,0,0,0,0,0,-1,951,512,-2.20183,28.1307
-266,512,-2.33594,-25.9839,0,0,0,0,0,0,0,-1,958,512,-2.33592,25.9839
-259,512,-0.525452,-14.0815,0,0,0,0,0,0,0,-1,965,512,-0.525475,14.0815
-252,512,1.45941,-3.43475,0,0,0,0,0,0,0,-1,972,512,1.45938,3.43475
-245,512,-1.6731,-22.8959,0,0,0,0,0,0,0,-1,979,512,-1.67312,22.8959
-238,512,0.227051,-8.92969,0,0,0,0,0,0,0,-1,986,512,0.227073,8.92968
-231,512,-2.54437,-10.169,0,0,0,0,0,0,0,-1,993,512,-2.54439,10.169
-224,512,-4.84601,-7.52783,0,0,0,0,0,0,0,-1,1000,512,-4.84602,7.52786
-217,512,-7.37274,-3.89563,0,0,0,0,0,0,0,-1,1007,512,-7.37274,3.89561
-210,512,-3.76642,-1.94702,0,0,0,0,0,0,0,-1,1014,512,-3.76641,1.94702
-203,512,-2.48328,-5.19061,0,0,0,0,0,0,0,-1,1021,512,-2.48328,5.19059
-196,512,-1.14929,-4.63202,0,0,0,0,0,0,0,-1,1028,512,-1.14934,4.632
-189,512,0.197998,4.55505,0,0,0,0,0,0,0,-1,1035,512,0.197996,-4.55506
-182,512,2.73938,0.0778503,0,0,0,0,0,0,0,-1,1042,512,2.73944,-0.077852
-175,512,2.29565,0.209808,0,0,0,0,0,0,0,-1,1049,512,2.29565,-0.209813
-168,512,2.09399,-0.302856,0,0,0,0,0,0,0,-1,1056,512,2.09403,0.302826
-161,512,2.76636,0.0921021,0,0,0,0,0,0,0,-1,1063,512,2.76633,-0.0921104
-154,512,3.41382,0.466187,0,0,0,0,0,0,0,-1,1070,512,3.41382,-0.466178
-147,512,0,0,0,0,0,0,0,0,0,-1,1077,512,0,0
-140,512,0,0,0,0,0,0,0,0,0,-1,1084,512,0,0
-133,512,0,0,0,0,0,0,0,0,0,-1,1091,512,0,0
-126,512,0,0,0,0,0,0,0,0,0,-1,1098,512,0,0
-119,512,0,0,0,0,0,0,0,0,0,-1,1105,512,0,0
-112,512,0,0,0,0,0,0,0,0,0,-1,1112,512,0,0
-105,512,0,0,0,0,0,0,0,0,0,-1,1119,512,0,0
-98,512,0,0,0,0,0,0,0,0,0,-1,1126,512,0,0
-91,512,0,0,0,0,0,0,0,0,0,-1,1133,512,0,0
-84,512,0,0,0,0,0,0,0,0,0,-1,1140,512,0,0
-77,512,0,0,0,0,0,0,0,0,0,-1,1147,512,0,0
-70,512,0,0,0,0,0,0,0,0,0,-1,1154,512,0,0
-63,512,0,0,0,0,0,0,0,0,0,-1,1161,512,0,0
-56,512,0,0,0,0,0,0,0,0,0,-1,1168,512,0,0
-49,512,0,0,0,0,0,0,0,0,0,-1,1175,512,0,0
-42,512,0,0,0,0,0,0,0,0,0,-1,1182,512,0,0
-35,512,0,0,0,0,0,0,0,0,0,-1,1189,512,0,0
-28,512,0,0,0,0,0,0,0,0,0,-1,1196,512,0,0
-21,512,0,0,0,0,0,0,0,0,0,-1,1203,512,0,0
-14,512,0,0,0,0,0,0,0,0,0,-1,1210,512,0,0
-7,512,0,0,0,0,0,0,0,0,0,-1,1217,512,0,0
0,512,0,0,0,0,0,0,0,0,0,-1,1224,512,0,0
7,512,0,0,0,0,0,0,0,0,0,-1,1231,512,0,0
14,512,0,0,0,0,0,0,0,0,0,-1,1238,512,0,0
21,512,0,0,0,0,0,0,0,0,0,-1,1245,512,0,0
28,512,0,0,0,0,0,0,0,0,0,-1,1252,512,0,0
35,512,0,0,0,0,0,0,0,0,0,-1,1259,512,0,0
42,512,0,0,0,0,0,0,0,0,0,-1,1266,512,0,0
49,512,0,0,0,0,0,0,0,0,0,-1,1273,512,0,0
56,512,0,0,0,0,0,0,0,0,0,-1,1280,512,0,0
63,512,0,0,0,0,0,0,0,0,0,-1,1287,512,0,0
70,512,0,0,0,0,0,0,0,0,0,-1,1294,512,0,0
77,512,0,0,0,0,0,0,0,0,0,-1,1301,512,0,0
84,512,0,0,0,0,0,0,0,0,0,-1,1308,512,0,0
91,512,0,0,0,0,0,0,0,0,0,-1,1315,512,0,0
98,512,0,0,0,0,0,0,0,0,0,-1,1322,512,0,0
105,512,0,0,0,0,0,0,0,0,0,-1,1329,512,0,0
112,512,0,0,0,0,0,0,0,0,0,-1,1336,512,0,0
119,512,0,0,0,0,0,0,0,0,0,-1,1343,512,0,0
126,512,0,0,0,0,0,0,0,0,0,-1,1350,512,0,0
133,512,0,0,0,0,0,0,0,0,0,-1,1357,512,0,0
140,512,0,0,0,0,0,0,0,0,0,-1,1364,512,0,0
147,512,0,0,0,0,0,0,0,0,0,-1,1371,512,0,0
154,512,0,0,0,0,0,0,0,0,0,-1,1378,512,0,0
161,512,0,0,0,0,0,0,0,0,0,-1,1385,512,0,0
168,512,0,0,0,0,0,0,0,0,0,-1,1392,512,0,0
175,512,0,0,0,0,0,0,0,0,0,-1,1399,512,0,0
182,512,0,0,0,0,0,0,0,0,0,-1,1406,512,0,0
189,512,0,0,0,0,0,0,0,0,0,-1,1413,512,0,0
196,512,0,0,0,0,0,0,0,0,0,-1,1420,512,0,0
203,512,0,0,0,0,0,0,0,0,0,-1,1427,512,0,0
210,512,0,0,0,0,0,0,0,0,0,-1,1434,512,0,0
217,512,0,0,0,0,0,0,0,0,0,-1,1441,512,0,0
224,512,0,0,0,0,0,0,0,0,0,-1,1448,512,0,0
231,512,0,0,0,0,0,0,0,0,0,-1,1455,512,0,0
238,512,0,0,0,0,0,0,0,0,0,-1,1462,512,0,0
245,512,0,0,0,0,0,0,0,0,0,-1,1469,512,0,0
252,512,0,0,0,0,0,0,0,0,0,-1,1476,512,0,0
259,512,0,0,0,0,0,0,0,0,0,-1,1483,512,0,0
266,512,0,0,0,0,0,0,0,0,0,-1,1490,512,0,0
273,512,4.00745,0.618622,0,0,0,0,0,0,0,-1,1497,512,4.00747,-0.618611
280,512,4.49609,0.649841,0,0,0,0,0,0,0,-1,1504,512,4.49612,-0.649834
287,512,4.77234,0.458069,0,0,0,0,0,0,0,-1,1511,512,4.77233,-0.458083
294,512,8.54956,-2.36273,0,0,0,0,0,0,0,-1,1518,512,8.54952,2.36274
301,512,6.302,-1.69092,0,0,0,0,0,0,0,-1,1525,512,6.30196,1.69093
308,512,8.2439,-6.22754,0,0,0,0,0,0,0,-1,1532,512,8.24394,6.22757
315,512,7.53687,-6.04211,0,0,0,0,0,0,0,-1,1539,512,7.53691,6.04211
322,512,6.82983,-5.85663,0,0,0,0,0,0,0,-1,1546,512,6.82988,5.85666
329,512,4.38147,-0.329651,0,0,0,0,0,0,0,-1,1553,512,4.38144,0.329662
336,512,4.41467,-0.741455,0,0,0,0,0,0,0,-1,1560,512,4.41467,0.741442
343,512,4.44727,-1.21667,0,0,0,0,0,0,0,-1,1567,512,4.44732,1.21666
350,512,4.55469,-1.65082,0,0,0,0,0,0,0,-1,1574,512,4.5547,1.65083
357,512,5.79993,-2.67456,0,0,0,0,0,0,0,-1,1581,512,5.79991,2.67454
364,512,13.118,-28.5485,0,0,0,0,0,0,0,-1,1588,512,13.1181,28.5485
371,512,5.28467,-7.69269,0,0,0,0,0,0,0,-1,1595,512,5.28464,7.69269
378,512,6.29407,-9.88055,0,0,0,0,0,0,0,-1,1602,512,6.29412,9.88057
385,512,6.45569,-9.32233,0,0,0,0,0,0,0,-1,1609,512,6.45565,9.3223
392,512,6.35522,-8.98425,0,0,0,0,0,0,0,-1,1616,512,6.35526,8.98422
399,512,13.9139,-26.699,0,0,0,0,0,0,0,-1,1623,512,13.914,26.6991
406,512,13.7196,-26.6871,0,0,0,0,0,0,0,-1,1630,512,13.7196,26.6871
413,512,13.7916,-26.2661,0,0,0,0,0,0,0,-1,1637,512,13.7917,26.2661
420,512,13.7875,-25.5201,0.00144377,0.000340177,-0.00149974,0.00249001,-0.000706056,-0.609119,0.0019387,0.0263872,1644,512,13.7875,25.5201
427,512,13.7272,-24.8777,0.00163315,0.000592926,-0.00102187,0.00225965,-3.3578e-05,-0.549995,0.00151775,0.0149608,1651,512,13.7272,24.8777
434,512,13.6729,-24.2753,0.00153032,0.000793301,-0.000611626,0.00187587,0.000447747,-0.514268,0.00113126,0.0124598,1658,512,13.6729,24.2753
441,512,13.6375,-23.6608,0.00143597,0.000986527,-0.000175557,0.00149641,0.000926082,-0.331595,0.000872054,0.0146049,1665,512,13.6374,23.6609
448,512,13.6361,-23.0698,0.00135727,0.00109606,0.000234475,0.00149506,0.000958267,0.531286,0.000874533,0.0102791,1672,512,13.6361,23.0697
455,512,13.6292,-22.4475,0.00127381,0.00135559,0.000663767,0.00197972,0.000649674,0.816159,0.00116528,0.00960705,1679,512,13.6291,22.4475
462,512,13.6138,-21.8143,0.00114909,0.00142494,0.00100857,0.00230497,0.000269061,0.853353,0.00145528,0.00953627,1686,512,13.6138,21.8142
469,512,13.5725,-21.1873,0.00102355,0.00143673,0.00148755,0.00273197,-0.000271688,0.854398,0.0019183,0.0110068,1693,512,13.5726,21.1873
476,512,13.5562,-20.58,0.000923428,0.00141319,0.00215865,0.00334081,-0.00100419,0.841878,0.00262672,0.0144678,1700,512,13.5562,20.58
483,512,13.5685,-19.9497,0.000924498,0.00129147,0.00287454,0.00398837,-0.00177241,0.81727,0.00340702,0.0131586,1707,512,13.5685,19.9497
490,512,13.5308,-19.3069,0.000940302,0.00115008,0.00376412,0.00481077,-0.00272039,0.799327,0.00440359,0.0105385,1714,512,13.5308,19.3069
497,512,13.4951,-18.6492,0.00102428,0.000875827,0.00485312,0.00580374,-0.00390363,0.777751,0.00564023,0.0120806,1721,512,13.4951,18.6492
504,512,13.447,-17.9657,0.00116967,0.000479122,0.00616045,0.00699451,-0.00534572,0.757404,0.0071458,0.0133264,1728,512,13.447,17.9657
511,512,13.4283,-17.2737,0.00134671,-4.22585e-05,0.00767163,0.00835523,-0.00705077,0.740258,0.00890528,0.0158531,1735,512,13.4283,17.2737
518,512,13.4705,-16.6411,0.00144783,-0.000624549,0.00945333,0.00992158,-0.00909831,0.730811,0.0109846,0.0204969,1742,512,13.4705,16.641
525,512,13.3354,-15.9348,0.00137874,-0.00123112,0.0113878,0.0115361,-0.0113885,0.728352,0.0132356,0.0409471,1749,512,13.3354,15.9348
532,512,13.3937,-15.0139,0,0,0,0,0,0,0,-1,1756,512,13.3937,15.0139
539,512,7.05908,-7.00647,0,0,0,0,0,0,0,-1,1763,512,7.05909,7.00647
546,512,2.77551,-0.66449,0,0,0,0,0,0,0,-1,1770,512,2.77548,0.664503
553,512,3.927,-0.448853,0,0,0,0,0,0,0,-1,1777,512,3.92704,0.448843
560,512,3.55762,-0.201233,0,0,0,0,0,0,0,-1,1784,512,3.55768,0.201259
567,512,3.09045,0.191193,0,0,0,0,0,0,0,-1,1791,512,3.09045,-0.191203
574,512,0,0,0,0,0,0,0,0,0,-1,1798,512,0,0
581,512,0,0,0,0,0,0,0,0,0,-1,1805,512,0,0
588,512,0,0,0,0,0,0,0,0,0,-1,1812,512,0,0
595,512,0,0,0,0,0,0,0,0,0,-1,1819,512,0,0
602,512,0,0,0,0,0,0,0,0,0,-1,1826,512,0,0
609,512,0,0,0,0,0,0,0,0,0,-1,1833,512,0,0
616,512,0,0,0,0,0,0,0,0,0,-1,1840,512,0,0
623,512,0,0,0,0,0,0,0,0,0,-1,1847,512,0,0
630,512,0,0,0,0,0,0,0,0,0,-1,1854,512,0,0
637,512,0,0,0,0,0,0,0,0,0,-1,1861,512,0,0
644,512,0,0,0,0,0,0,0,0,0,-1,1868,512,0,0
651,512,0,0,0,0,0,0,0,0,0,-1,1875,512,0,0
658,512,0,0,0,0,0,0,0,0,0,-1,1882,512,0,0
665,512,0,0,0,0,0,0,0,0,0,-1,1889,512,0,0
672,512,0,0,0,0,0,0,0,0,0,-1,1896,512,0,0
679,512,0,0,0,0,0,0,0,0,0,-1,1903,512,0,0
686,512,0,0,0,0,0,0,0,0,0,-1,1910,512,0,0
693,512,0,0,0,0,0,0,0,0,0,-1,1917,512,0,0
700,512,0,0,0,0,0,0,0,0,0,-1,1924,512,0,0
707,512,0,0,0,0,0,0,0,0,0,-1,1931,512,0,0
714,512,0,0,0,0,0,0,0,0,0,-1,1938,512,0,0
721,512,0,0,0,0,0,0,0,0,0,-1,1945,512,0,0
728,512,0,0,0,0,0,0,0,0,0,-1,1952,512,0,0
735,512,0,0,0,0,0,0,0,0,0,-1,1959,512,0,0
742,512,0,0,0,0,0,0,0,0,0,-1,1966,512,0,0
749,512,0,0,0,0,0,0,0,0,0,-1,1973,512,0,0
756,512,0,0,0,0,0,0,0,0,0,-1,1980,512,0,0
763,512,0,0,0,0,0,0,0,0,0,-1,1987,512,0,0
770,512,0,0,0,0,0,0,0,0,0,-1,1994,512,0,0
777,512,0,0,0,0,0,0,0,0,0,-1,2001,512,0,0
784,512,0,0,0,0,0,0,0,0,0,-1,2008,512,0,0
791,512,0,0,0,0,0,0,0,0,0,-1,2015,512,0,0
798,512,0,0,0,0,0,0,0,0,0,-1,2022,512,0,0
805,512,0,0,0,0,0,0,0,0,0,-1,2029,512,0,0
812,512,0,0,0,0,0,0,0,0,0,-1,2036,512,0,0
-700,505,0,0,0,0,0,0,0,0,0,-1,524,519,0,0
-693,505,0,0,0,0,0,0,0,0,0,-1,531,519,0,0
-686,505,0,0,0,0,0,0,0,0,0,-1,538,519,0,0
-679,505,0,0,0,0,0,0,0,0,0,-1,545,519,0,0
-672,505,0,0,0,0,0,0,0,0,0,-1,552,519,0,0
-665,505,0,0,0,0,0,0,0,0,0,-1,559,519,0,0
-658,505,0,0,0,0,0,0,0,0,0,-1,566,519,0,0
-651,505,0,0,0,0,0,0,0,0,0,-1,573,519,0,0
-644,505,0,0,0,0,0,0,0,0,0,-1,580,519,0,0
-637,505,0,0,0,0,0,0,0,0,0,-1,587,519,0,0
-630,505,0,0,0,0,0,0,0,0,0,-1,594,519,0,0
-623,505,0,0,0,0,0,0,0,0,0,-1,601,519,0,0
-616,505,0,0,0,0,0,0,0,0,0,-1,608,519,0,0
-609,505,0,0,0,0,0,0,0,0,0,-1,615,519,0,0
-602,505,0,0,0,0,0,0,0,0,0,-1,622,519,0,0
-595,505,0,0,0,0,0,0,0,0,0,-1,629,519,0,0
-588,505,0,0,0,0,0,0,0,0,0,-1,636,519,0,0
-581,505,0,0,0,0,0,0,0,0,0,-1,643,519,0,0
-574,505,0,0,0,0,0,0,0,0,0,-1,650,519,0,0
-567,505,0,0,0,0,0,0,0,0,0,-1,657,519,0,0
-560,505,0,0,0,0,0,0,0,0,0,-1,664,519,0,0
-553,505,0,0,0,0,0,0,0,0,0,-1,671,519,0,0
-546,505,0,0,0,0,0,0,0,0,0,-1,678,519,0,0
-539,505,0,0,0,0,0,0,0,0,0,-1,685,519,0,0
-532,505,0,0,0,0,0,0,0,0,0,-1,692,519,0,0
-525,505,0,0,0,0,0,0,0,0,0,-1,699,519,0,0
-518,505,0,0,0,0,0,0,0,0,0,-1,706,519,0,0
-511,505,0,0,0,0,0,0,0,0,0,-1,713,519,0,0
-504,505,0,0,0,0,0,0,0,0,0,-1,720,519,0,0
-497,505,0,0,0,0,0,0,0,0,0,-1,727,519,0,0
-490,505,0,0,0,0,0,0,0,0,0,-1,734,519,0,0
-483,505,0,0,0,0,0,0,0,0,0,-1,741,519,0,0
-476,505,0,0,0,0,0,0,0,0,0,-1,748,519,0,0
-469,505,0,0,0,0,0,0,0,0,0,-1,755,519,0,0
-462,505,0,0,0,0,0,0,0,0,0,-1,762,519,0,0
-455,505,2.72137,-3.26379,0,0,0,0,0,0,0,-1,769,519,2.72135,3.26377
-448,505,2.51111,-3.94989,0,0,0,0,0,0,0,-1,776,519,2.51112,3.94986
-441,505,2.80212,-6.8902,0,0,0,0,0,0,0,-1,783,519,2.80209,6.89019
-434,505,-0.155212,-10.6374,0,0,0,0,0,0,0,-1,790,519,-0.155194,10.6374
-427,505,-0.474426,-10.4702,0,0,0,0,0,0,0,-1,797,519,-0.474433,10.4702
-420,505,-0.922546,-10.1928,0,0,0,0,0,0,0,-1,804,519,-0.92257,10.1928
-413,505,-3.33948,-13.6183,0,0,0,0,0,0,0,-1,811,519,-3.33949,13.6184
-406,505,-2.83563,-15.1596,0,0,0,0,0,0,0,-1,818,519,-2.83563,15.1596
-399,505,-2.60461,-16.9503,0,0,0,0,0,0,0,-1,825,519,-2.60462,16.9503
-392,505,-2.60718,-17.8245,-0.00466551,0.0256115,-0.00872096,0.0279438,-0.00699782,-1.30947,0.0213476,0.0240621,832,519,-2.6072,17.8245
-385,505,-2.66364,-18.5574,-0.00370925,0.0216318,-0.0075256,0.0236982,-0.00577565,-1.30282,0.0180349,0.0103763,839,519,-2.66366,18.5574
-378,505,-2.71222,-19.1968,-0.00272555,0.0178986,-0.00649761,0.0197749,-0.00460191,-1.28967,0.0149552,0.0120656,846,519,-2.71222,19.1969
-371,505,-2.72028,-19.843,-0.0018131,0.0143234,-0.00552884,0.016036,-0.00352568,-1.27041,0.0120392,0.0144048,853,519,-2.72028,19.843
-364,505,-2.74829,-20.4883,-0.000967731,0.0109157,-0.00450864,0.0124327,-0.00248468,-1.24624,0.00922885,0.0148196,860,519,-2.74829,20.4883
-357,505,-2.75171,-21.1074,-0.000221334,0.00795354,-0.00354198,0.00927469,-0.00154248,-1.21378,0.00675623,0.0121603,867,519,-2.75168,21.1074
-350,505,-2.80255,-21.6989,0.000413993,0.0053874,-0.00264353,0.00653002,-0.00072862,-1.16282,0.00461543,0.0118676,874,519,-2.80255,21.6989
-343,505,-2.84601,-22.2996,0.00087825,0.00299152,-0.00170241,0.00393855,-6.87783e-05,-1.06314,0.00264893,0.00967528,881,519,-2.84601,22.2996
-336,505,-2.87854,-22.9113,0.00125108,0.00102406,-0.000845111,0.00199027,0.000284873,-0.718641,0.00124282,0.0123741,888,519,-2.87857,22.9113
-329,505,-2.85413,-23.4928,0.00167745,-0.000671246,-0.000152573,0.00168732,-0.000681116,-0.0645988,0.00140795,0.0182928,895,519,-2.85413,23.4928
-322,505,-2.8457,-24.1,0.00199539,-0.00184832,0.000497876,0.00205883,-0.00191176,0.126744,0.00229294,0.0208368,902,519,-2.84573,24.1
-315,505,-2.88837,-24.6929,0.00232462,-0.00281468,0.00108176,0.00254303,-0.0030331,0.199229,0.00322352,0.0157673,909,519,-2.88834,24.693
-308,505,-2.93695,-25.246,0.00288537,-0.00367324,0.00150494,0.0032142,-0.00400208,0.215123,0.00417459,0.012364,916,519,-2.93695,25.2461
-301,505,-2.9422,-25.8199,0.0035027,-0.00424266,0.00190028,0.0039438,-0.00468376,0.228085,0.00498723,0.0177715,923,519,-2.94222,25.8199
-294,505,-2.97467,-26.1408,0.00404311,-0.00473863,0.00230366,0.00461072,-0.00530624,0.241586,0.00573026,0.041713,930,519,-2.97469,26.1408
-287,505,-2.99194,-26.9311,0,0,0,0,0,0,0,-1,937,519,-2.99193,26.9311
-280,505,-2.79846,-27.7252,0,0,0,0,0,0,0,-1,944,519,-2.79845,27.7252
-273,505,-0.0680542,-9.44867,0,0,0,0,0,0,0,-1,951,519,-0.0680462,9.44866
-266,505,-0.036377,-9.07922,0,0,0,0,0,0,0,-1,958,519,-0.0364055,9.0792
-259,505,0.10321,-6.69824,0,0,0,0,0,0,0,-1,965,519,0.103235,6.69826
-252,505,6.82312,-15.6972,0,0,0,0,0,0,0,-1,972,519,6.82314,15.6972
-245,505,4.26727,-12.9861,0,0,0,0,0,0,0,-1,979,519,4.2673,12.9861
-238,505,1.67432,-11.2307,0,0,0,0,0,0,0,-1,986,519,1.67429,11.2307
-231,505,-0.958435,-8.3075,0,0,0,0,0,0,0,-1,993,519,-0.958421,8.30751
-224,505,-3.69653,-5.12732,0,0,0,0,0,0,0,-1,1000,519,-3.69653,5.12733
-217,505,-6.34302,-1.65533,0,0,0,0,0,0,0,-1,1007,519,-6.34299,1.65535
-210,505,-3.06128,-0.396301,0,0,0,0,0,0,0,-1,1014,519,-3.06129,0.396294
-203,505,-4.26465,2.03607,0,0,0,0,0,0,0,-1,1021,519,-4.26462,-2.03606
-196,505,-5.47595,4.27295,0,0,0,0,0,0,0,-1,1028,519,-5.47597,-4.27292
-189,505,1.51526,5.56207,0,0,0,0,0,0,0,-1,1035,519,1.51523,-5.56209
-182,505,2.97815,7.5097,0,0,0,0,0,0,0,-1,1042,519,2.97812,-7.5097
-175,505,-2.38416,-2.17548,0,0,0,0,0,0,0,-1,1049,519,-2.38411,2.1755
-168,505,0,0,0,0,0,0,0,0,0,-1,1056,519,0,0
-161,505,0,0,0,0,0,0,0,0,0,-1,1063,519,0,0
-154,505,0,0,0,0,0,0,0,0,0,-1,1070,519,0,0
-147,505,0,0,0,0,0,0,0,0,0,-1,1077,519,0,0
-140,505,0,0,0,0,0,0,0,0,0,-1,1084,519,0,0
-133,505,0,0,0,0,0,0,0,0,0,-1,1091,519,0,0
-126,505,0,0,0,0,0,0,0,0,0,-1,1098,519,0,0
-119,505,0,0,0,0,0,0,0,0,0,-1,1105,519,0,0
-112,505,0,0,0,0,0,0,0,0,0,-1,1112,519,0,0
-105,505,0,0,0,0,0,0,0,0,0,-1,1119,519,0,0
-98,505,0,0,0,0,0,0,0,0,0,-1,1126,519,0,0
-91,505,0,0,0,0,0,0,0,0,0,-1,1133,519,0,0
-84,505,0,0,0,0,0,0,0,0,0,-1,1140,519,0,0
-77,505,0,0,0,0,0,0,0,0,0,-1,1147,519,0,0
-70,505,0,0,0,0,0,0,0,0,0,-1,1154,519,0,0
-63,505,0,0,0,0,0,0,0,0,0,-1,1161,519,0,0
-56,505,0,0,0,0,0,0,0,0,0,-1,1168,519,0,0
-49,505,0,0,0,0,0,0,0,0,0,-1,1175,519,0,0
-42,505,0,0,0,0,0,0,0,0,0,-1,1182,519,0,0
-35,505,0,0,0,0,0,0,0,0,0,-1,1189,519,0,0
-28,505,0,0,0,0,0,0,0,0,0,-1,1196,519,0,0
-21,505,0,0,0,0,0,0,0,0,0,-1,1203,519,0,0
-14,505,0,0,0,0,0,0,0,0,0,-1,1210,519,0,0
-7,505,0,0,0,0,0,0,0,0,0,-1,1217,519,0,0
0,505,0,0,0,0,0,0,0,0,0,-1,1224,519,0,0
7,505,0,0,0,0,0,0,0,0,0,-1,1231,519,0,0
14,505,0,0,0,0,0,0,0,0,0,-1,1238,519,0,0
21,505,0,0,0,0,0,0,0,0,0,-1,1245,519,0,0
28,505,0,0,0,0,0,0,0,0,0,-1,1252,519,0,0
35,505,0,0,0,0,0,0,0,0,0,-1,1259,519,0,0
42,505,0,0,0,0,0,0,0,0,0,-1,1266,519,0,0
49,505,0,0,0,0,0,0,0,0,0,-1,1273,519,0,0
56,505,0,0,0,0,0,0,0,0,0,-1,1280,519,0,0
63,505,0,0,0,0,0,0,0,0,0,-1,1287,519,0,0
70,505,0,0,0,0,0,0,0,0,0,-1,1294,519,0,0
77,505,0,0,0,0,0,0,0,0,0,-1,1301,519,0,0
84,505,0,0,0,0,0,0,0,0,0,-1,1308,519,0,0
91,505,0,0,0,0,0,0,0,0,0,-1,1315,519,0,0
98,505,0,0,0,0,0,0,0,0,0,-1,1322,519,0,0
105,505,0,0,0,0,0,0,0,0,0,-1,1329,519,0,0
112,505,0,0,0,0,0,0,0,0,0,-1,1336,519,0,0
119,505,0,0,0,0,0,0,0,0,0,-1,1343,519,0,0
126,505,0,0,0,0,0,0,0,0,0,-1,1350,519,0,0
133,505,0,0,0,0,0,0,0,0,0,-1,1357,519,0,0
140,505,0,0,0,0,0,0,0,0,0,-1,1364,519,0,0
147,505,0,0,0,0,0,0,0,0,0,-1,1371,519,0,0
154,505,0,0,0,0,0,0,0,0,0,-1,1378,519,0,0
161,505,0,0,0,0,0,0,0,0,0,-1,1385,519,0,0
168,505,0,0,0,0,0,0,0,0,0,-1,1392,519,0,0
175,505,0,0,0,0,0,0,0,0,0,-1,1399,519,0,0
182,505,0,0,0,0,0,0,0,0,0,-1,1406,519,0,0
189,505,0,0,0,0,0,0,0,0,0,-1,1413,519,0,0
196,505,0,0,0,0,0,0,0,0,0,-1,1420,519,0,0
203,505,0,0,0,0,0,0,0,0,0,-1,1427,519,0,0
210,505,0,0,0,0,0,0,0,0,0,-1,1434,519,0,0
217,505,0,0,0,0,0,0,0,0,0,-1,1441,519,0,0
224,505,0,0,0,0,0,0,0,0,0,-1,1448,519,0,0
231,505,0,0,0,0,0,0,0,0,0,-1,1455,519,0,0
238,505,0,0,0,0,0,0,0,0,0,-1,1462,519,0,0
245,505,0,0,0,0,0,0,0,0,0,-1,1469,519,0,0
252,505,0,0,0,0,0,0,0,0,0,-1,1476,519,0,0
259,505,0,0,0,0,0,0,0,0,0,-1,1483,519,0,0
266,505,0,0,0,0,0,0,0,0,0,-1,1490,519,0,0
273,505,0,0,0,0,0,0,0,0,0,-1,1497,519,0,0
280,505,0,0,0,0,0,0,0,0,0,-1,1504,519,0,0
287,505,4.39478,0.499512,0,0,0,0,0,0,0,-1,1511,519,4.39476,-0.499506
294,505,4.88867,0.0822754,0,0,0,0,0,0,0,-1,1518,519,4.88871,-0.0822748
301,505,4.82153,-0.0704346,0,0,0,0,0,0,0,-1,1525,519,4.82156,0.0704312
308,505,4.67761,-0.29187,0,0,0,0,0,0,0,-1,1532,519,4.67762,0.291845
315,505,8.44055,-6.54352,0,0,0,0,0,0,0,-1,1539,519,8.44059,6.54349
322,505,4.78955,-0.594116,0,0,0,0,0,0,0,-1,1546,519,4.78957,0.594096
329,505,5.16321,0.434631,0,0,0,0,0,0,0,-1,1553,519,5.16316,-0.434614
336,505,4.94495,-0.920471,0,0,0,0,0,0,0,-1,1560,519,4.945,0.920495
343,505,5.01855,-1.4823,0,0,0,0,0,0,0,-1,1567,519,5.01851,1.48227
350,505,5.33154,-1.77838,0,0,0,0,0,0,0,-1,1574,519,5.33152,1.77838
357,505,5.56567,-1.9425,0,0,0,0,0,0,0,-1,1581,519,5.56562,1.94248
364,505,5.85205,-2.6579,0,0,0,0,0,0,0,-1,1588,519,5.85211,2.65788
371,505,5.88477,-7.00922,0,0,0,0,0,0,0,-1,1595,519,5.88473,7.00924
378,505,5.44104,-7.10162,0,0,0,0,0,0,0,-1,1602,519,5.44099,7.10162
385,505,6.64661,-8.65015,0,0,0,0,0,0,0,-1,1609,519,6.64662,8.65014
392,505,6.34558,-8.3429,0,0,0,0,0,0,0,-1,1616,519,6.34554,8.34288
399,505,7.45898,-9.70386,0,0,0,0,0,0,0,-1,1623,519,7.45899,9.70388
406,505,7.08679,-9.4928,0,0,0,0,0,0,0,-1,1630,519,7.08678,9.49278
413,505,8.4032,-14.0308,0,0,0,0,0,0,0,-1,1637,519,8.4032,14.0308
420,505,14.3875,-25.6917,0,0,0,0,0,0,0,-1,1644,519,14.3874,25.6917
427,505,14.3313,-25.0219,0.0017184,0.000486512,-0.00124622,0.00249259,-0.000287672,-0.555879,0.00176545,0.0319713,1651,519,14.3313,25.0219
434,505,14.2848,-24.2917,0.00160684,0.000618128,-0.000932839,0.00216822,5.67478e-05,-0.54174,0.00142694,0.0130304,1658,519,14.2847,24.2917
441,505,14.2756,-23.6224,0.0015541,0.000779671,-0.000580147,0.00186439,0.000469387,-0.491128,0.00111975,0.011168,1665,519,14.2756,23.6224
448,505,14.2605,-23.018,0.00154986,0.000837677,-0.000238225,0.0016222,0.000765338,-0.294808,0.000937073,0.0116946,1672,519,14.2604,23.018
455,505,14.2437,-22.4071,0.00152424,0.0010826,0.000128555,0.00155893,0.0010479,0.263603,0.000917667,0.0119025,1679,519,14.2436,22.4071
462,505,14.2206,-21.7841,0.00144745,0.00115186,0.000384679,0.00171175,0.000887564,0.601989,0.000988507,0.0116999,1686,519,14.2206,21.7841
469,505,14.1938,-21.1713,0.0013812,0.00118312,0.000770369,0.00205887,0.000505448,0.721469,0.00123895,0.0115789,1693,519,14.1938,21.1713
476,505,14.1716,-20.567,0.00132365,0.00119409,0.00132258,0.00258304,-6.52954e-05,0.760927,0.0017442,0.0118616,1700,519,14.1716,20.567
483,505,14.1805,-19.9407,0.00133483,0.00111265,0.00194485,0.00317176,-0.000724279,0.75687,0.00239275,0.0127463,1707,519,14.1806,19.9407
490,505,14.1462,-19.2943,0.00128462,0.00107147,0.00269592,0.00387607,-0.00151998,0.765642,0.00321288,0.012298,1714,519,14.1463,19.2943
497,505,14.1147,-18.6334,0.00126707,0.000975868,0.00364348,0.00476786,-0.00252492,0.765428,0.00427635,0.0124231,1721,519,14.1147,18.6334
504,505,14.0804,-17.9656,0.00126974,0.000721439,0.00476114,0.00576461,-0.00377343,0.756639,0.00554665,0.0129664,1728,519,14.0805,17.9656
511,505,14.0585,-17.3092,0.00121848,0.000413179,0.00601814,0.00684743,-0.00521576,0.751995,0.00698589,0.0145722,1735,519,14.0584,17.3092
518,505,14.1044,-16.6442,0.00103829,0.000104634,0.00738577,0.00797198,-0.00682905,0.753837,0.00855386,0.0230632,1742,519,14.1044,16.6442
525,505,13.9332,-15.9543,0.000732955,-0.000258196,0.00882741,0.00907869,-0.00860393,0.757357,0.0102103,0.0321598,1749,519,13.9333,15.9544
532,505,13.932,-15.0205,0,0,0,0,0,0,0,-1,1756,519,13.932,15.0205
539,505,7.90369,-7.11932,0,0,0,0,0,0,0,-1,1763,519,7.90373,7.11932
546,505,7.94946,-6.64539,0,0,0,0,0,0,0,-1,1770,519,7.94947,6.64539
553,505,2.82837,0.162659,0,0,0,0,0,0,0,-1,1777,519,2.82841,-0.162672
560,505,3.66223,-0.479797,0,0,0,0,0,0,0,-1,1784,519,3.66219,0.47982
567,505,4.65271,-0.950256,0,0,0,0,0,0,0,-1,1791,519,4.65274,0.95028
574,505,5.54443,-1.19977,0,0,0,0,0,0,0,-1,1798,519,5.54443,1.19974
581,505,0,0,0,0,0,0,0,0,0,-1,1805,519,0,0
588,505,0,0,0,0,0,0,0,0,0,-1,1812,519,0,0
595,505,0,0,0,0,0,0,0,0,0,-1,1819,519,0,0
602,505,0,0,0,0,0,0,0,0,0,-1,1826,519,0,0
609,505,0,0,0,0,0,0,0,0,0,-1,1833,519,0,0
616,505,0,0,0,0,0,0,0,0,0,-1,1840,519,0,0
623,505,0,0,0,0,0,0,0,0,0,-1,1847,519,0,0
630,505,0,0,0,0,0,0,0,0,0,-1,1854,519,0,0
637,505,0,0,0,0,0,0,0,0,0,-1,1861,519,0,0
644,505,0,0,0,0,0,0,0,0,0,-1,1868,519,0,0
651,505,0,0,0,0,0,0,0,0,0,-1,1875,519,0,0
658,505,0,0,0,0,0,0,0,0,0,-1,1882,519,0,0
665,505,0,0,0,0,0,0,0,0,0,-1,1889,519,0,0
672,505,0,0,0,0,0,0,0,0,0,-1,1896,519,0,0
679,505,0,0,0,0,0,0,0,0,0,-1,1903,519,0,0
686,505,0,0,0,0,0,0,0,0,0,-1,1910,519,0,0
693,505,0,0,0,0,0,0,0,0,0,-1,1917,519,0,0
700,505,0,0,0,0,0,0,0,0,0,-1,1924,519,0,0
707,505,0,0,0,0,0,0,0,0,0,-1,1931,519,0,0
714,505,0,0,0,0,0,0,0,0,0,-1,1938,519,0,0
721,505,0,0,0,0,0,0,0,0,0,-1,1945,519,0,0
728,505,0,0,0,0,0,0,0,0,0,-1,1952,519,0,0
735,505,0,0,0,0,0,0,0,0,0,-1,1959,519,0,0
742,505,0,0,0,0,0,0,0,0,0,-1,1966,519,0,0
749,505,0,0,0,0,0,0,0,0,0,-1,1973,519,0,0
756,505,0,0,0,0,0,0,0,0,0,-1,1980,519,0,0
763,505,0,0,0,0,0,0,0,0,0,-1,1987,519,0,0
770,505,0,0,0,0,0,0,0,0,0,-1,1994,519,0,0
777,505,0,0,0,0,0,0,0,0,0,-1,2001,519,0,0
784,505,0,0,0,0,0,0,0,0,0,-1,2008,519,0,0
791,505,0,0,0,0,0,0,0,0,0,-1,2015,519,0,0
798,505,0,0,0,0,0,0,0,0,0,-1,2022,519,0,0
805,505,0,0,0,0,0,0,0,0,0,-1,2029,519,0,0
812,505,0,0,0,0,0,0,0,0,0,-1,2036,519,0,0
-700,498,0,0,0,0,0,0,0,0,0,-1,524,526,0,0
-693,498,0,0,0,0,0,0,0,0,0,-1,531,526,0,0
-686,498,0,0,0,0,0,0,0,0,0,-1,538,526,0,0
-679,498,0,0,0,0,0,0,0,0,0,-1,545,526,0,0
-672,498,0,0,0,0,0,0,0,0,0,-1,552,526,0,0
-665,498,0,0,0,0,0,0,0,0,0,-1,559,526,0,0
-658,498,0,0,0,0,0,0,0,0,0,-1,566,526,0,0
-651,498,0,0,0,0,0,0,0,0,0,-1,573,526,0,0
-644,498,0,0,0,0,0,0,0,0,0,-1,580,526,0,0
-637,498,0,0,0,0,0,0,0,0,0,-1,587,526,0,0
-630,498,0,0,0,0,0,0,0,0,0,-1,594,526,0,0
-623,498,0,0,0,0,0,0,0,0,0,-1,601,526,0,0
-616,498,0,0,0,0,0,0,0,0,0,-1,608,526,0,0
-609,498,0,0,0,0,0,0,0,0,0,-1,615,526,0,0
-602,498,0,0,0,0,0,0,0,0,0,-1,622,526,0,0
-595,498,0,0,0,0,0,0,0,0,0,-1,629,526,0,0
-588,498,0,0,0,0,0,0,0,0,0,-1,636,526,0,0
-581,498,0,0,0,0,0,0,0,0,0,-1,643,526,0,0
-574,498,0,0,0,0,0,0,0,0,0,-1,650,526,0,0
-567,498,0,0,0,0,0,0,0,0,0,-1,657,526,0,0
-560,498,0,0,0,0,0,0,0,0,0,-1,664,526,0,0
-553,498,0,0,0,0,0,0,0,0,0,-1,671,526,0,0
-546,498,0,0,0,0,0,0,0,0,0,-1,678,526,0,0
-539,498,0,0,0,0,0,0,0,0,0,-1,685,526,0,0
-532,498,0,0,0,0,0,0,0,0,0,-1,692,526,0,0
-525,498,0,0,0,0,0,0,0,0,0,-1,699,526,0,0
-518,498,0,0,0,0,0,0,0,0,0,-1,706,526,0,0
-511,498,0,0,0,0,0,0,0,0,0,-1,713,526,0,0
-504,498,0,0,0,0,0,0,0,0,0,-1,720,526,0,0
-497,498,0,0,0,0,0,0,0,0,0,-1,727,526,0,0
-490,498,0,0,0,0,0,0,0,0,0,-1,734,526,0,0
-483,498,0,0,0,0,0,0,0,0,0,-1,741,526,0,0
-476,498,0,0,0,0,0,0,0,0,0,-1,748,526,0,0
-469,498,0,0,0,0,0,0,0,0,0,-1,755,526,0,0
-462,498,6.81024,1.15515,0,0,0,0,0,0,0,-1,762,526,6.81026,-1.15514
-455,498,3.25757,-3.0592,0,0,0,0,0,0,0,-1,769,526,3.25754,3.05921
-448,498,3.05939,-3.74298,0,0,0,0,0,0,0,-1,776,526,3.05939,3.74296
-441,498,2.77191,-6.08209,0,0,0,0,0,0,0,-1,783,526,2.77189,6.08207
-434,498,2.10681,-6.95929,0,0,0,0,0,0,0,-1,790,526,2.10682,6.9593
-427,498,-0.368042,-10.7726,0,0,0,0,0,0,0,-1,797,526,-0.36807,10.7726
-420,498,-1.05035,-10.5142,0,0,0,0,0,0,0,-1,804,526,-1.05034,10.5142
-413,498,-3.41736,-14.6664,0,0,0,0,0,0,0,-1,811,526,-3.41735,14.6664
-406,498,-3.15808,-16.3577,0,0,0,0,0,0,0,-1,818,526,-3.15811,16.3577
-399,498,-3.19641,-17.145,-0.00370907,0.0220923,-0.00765757,0.0241938,-0.00581058,-1.30295,0.0183749,0.0296567,825,526,-3.19641,17.145
-392,498,-3.25934,-17.8906,-0.00320105,0.0189611,-0.00667843,0.020818,-0.00505797,-1.2996,0.0158362,0.0144549,832,526,-3.25932,17.8906
-385,498,-3.28943,-18.5629,-0.00242494,0.0158991,-0.00573382,0.0175454,-0.00407122,-1.2912,0.0132639,0.00966998,839,526,-3.2894,18.563
-378,498,-3.28339,-19.1833,-0.00159601,0.0129893,-0.00489429,0.0144794,-0.00308612,-1.27526,0.0108293,0.0107285,846,526,-3.28341,19.1834
-371,498,-3.29199,-19.7998,-0.000815054,0.0101298,-0.00409849,0.0114944,-0.00217967,-1.24939,0.00848333,0.0165426,853,526,-3.29198,19.7998
-364,498,-3.33954,-20.4496,-7.16232e-05,0.00732305,-0.00324606,0.0085458,-0.00129436,-1.21055,0.00617405,0.0160359,860,526,-3.33956,20.4497
-357,498,-3.349,-21.071,0.000631035,0.00487743,-0.00244129,0.00598964,-0.000481176,-1.14331,0.00416276,0.0108084,867,526,-3.34902,21.0711
-350,498,-3.39789,-21.6608,0.00125515,0.00275074,-0.00169764,0.00385799,0.000147903,-0.992856,0.00252414,0.0116524,874,526,-3.39789,21.6608
-343,498,-3.41589,-22.2589,0.00169759,0.000678144,-0.000866477,0.00219316,0.000182582,-0.519523,0.0014052,0.0120698,881,526,-3.41592,22.2589
-336,498,-3.42975,-22.884,0.00207026,-0.00105314,-0.000105127,0.0020738,-0.00105667,-0.0336073,0.0018389,0.0154942,888,526,-3.42972,22.8841
-329,498,-3.4256,-23.4766,0.00246281,-0.00231231,0.000482574,0.00251109,-0.00236059,0.0997167,0.00281312,0.0233746,895,526,-3.42562,23.4766
-322,498,-3.44299,-24.0678,0.00274029,-0.00323063,0.00106891,0.00292588,-0.00341622,0.171908,0.00366526,0.0246014,902,526,-3.44298,24.0678
-315,498,-3.49646,-24.651,0.00307128,-0.00406716,0.00158861,0.00340885,-0.00440473,0.20938,0.00452337,0.0183462,909,526,-3.49646,24.651
-308,498,-3.49939,-25.2135,0.00374703,-0.00488409,0.00192887,0.00415847,-0.00529553,0.21016,0.00547142,0.0202807,916,526,-3.49939,25.2135
-301,498,-3.41614,-25.8187,0.00448568,-0.00534183,0.00233933,0.00501411,-0.00587026,0.222164,0.00629058,0.0426177,923,526,-3.41614,25.8186
-294,498,-3.33698,-26.4281,0,0,0,0,0,0,0,-1,930,526,-3.33698,26.4281
-287,498,-0.91394,-13.4327,0,0,0,0,0,0,0,-1,937,526,-0.913935,13.4327
-280,498,-0.341614,-8.66608,0,0,0,0,0,0,0,-1,944,526,-0.341589,8.66606
-273,498,-0.988892,-8.62921,0,0,0,0,0,0,0,-1,951,526,-0.988906,8.62922
-266,498,0.362488,-6.33545,0,0,0,0,0,0,0,-1,958,526,0.362478,6.33547
-259,498,10.9454,-17.3615,0,0,0,0,0,0,0,-1,965,526,10.9454,17.3614
-252,498,8.56586,-14.6886,0,0,0,0,0,0,0,-1,972,526,8.56584,14.6886
-245,498,5.97382,-11.928,0,0,0,0,0,0,0,-1,979,526,5.97381,11.928
-238,498,2.24841,-13.8145,0,0,0,0,0,0,0,-1,986,526,2.24838,13.8145
-231,498,0.665894,-10.4898,0,0,0,0,0,0,0,-1,993,526,0.665863,10.4898
-224,498,-2.11243,-4.76312,0,0,0,0,0,0,0,-1,1000,526,-2.11245,4.76314
-217,498,-3.82239,-1.42841,0,0,0,0,0,0,0,-1,1007,526,-3.82241,1.42843
-210,498,-1.80591,-0.358215,0,0,0,0,0,0,0,-1,1014,526,-1.8059,0.3582
-203,498,-3.17316,1.06641,0,0,0,0,0,0,0,-1,1021,526,-3.17313,-1.0664
-196,498,-0.103271,5.40527,0,0,0,0,0,0,0,-1,1028,526,-0.103285,-5.40528
-189,498,3.00256,6.47137,0,0,0,0,0,0,0,-1,1035,526,3.00256,-6.47139
-182,498,0,0,0,0,0,0,0,0,0,-1,1042,526,0,0
-175,498,0,0,0,0,0,0,0,0,0,-1,1049,526,0,0
-168,498,0,0,0,0,0,0,0,0,0,-1,1056,526,0,0
-161,498,0,0,0,0,0,0,0,0,0,-1,1063,526,0,0
-154,498,0,0,0,0,0,0,0,0,0,-1,1070,526,0,0
-147,498,0,0,0,0,0,0,0,0,0,-1,1077,526,0,0
-140,498,0,0,0,0,0,0,0,0,0,-1,1084,526,0,0
-133,498,0,0,0,0,0,0,0,0,0,-1,1091,526,0,0
-126,498,0,0,0,0,0,0,0,0,0,-1,1098,526,0,0
-119,498,0,0,0,0,0,0,0,0,0,-1,1105,526,0,0
-112,498,0,0,0,0,0,0,0,0,0,-1,1112,526,0,0
-105,498,0,0,0,0,0,0,0,0,0,-1,1119,526,0,0
-98,498,0,0,0,0,0,0,0,0,0,-1,1126,526,0,0
-91,498,0,0,0,0,0,0,0,0,0,-1,1133,526,0,0
-84,498,0,0,0,0,0,0,0,0,0,-1,1140,526,0,0
-77,498,0,0,0,0,0,0,0,0,0,-1,1147,526,0,0
-70,498,0,0,0,0,0,0,0,0,0,-1,1154,526,0,0
-63,498,0,0,0,0,0,0,0,0,0,-1,1161,526,0,0
-56,498,0,0,0,0,0,0,0,0,0,-1,1168,526,0,0
-49,498,0,0,0,0,0,0,0,0,0,-1,1175,526,0,0
-42,498,0,0,0,0,0,0,0,0,0,-1,1182,526,0,0
-35,498,0,0,0,0,0,0,0,0,0,-1,1189,526,0,0
-28,498,0,0,0,0,0,0,0,0,0,-1,1196,526,0,0
-21,498,0,0,0,0,0,0,0,0,0,-1,1203,526,0,0
-14,498,0,0,0,0,0,0,0,0,0,-1,1210,526,0,0
-7,498,0,0,0,0,0,0,0,0,0,-1,1217,526,0,0
0,498,0,0,0,0,0,0,0,0,0,-1,1224,526,0,0
7,498,0,0,0,0,0,0,0,0,0,-1,1231,526,0,0
14,498,0,0,0,0,0,0,0,0,0,-1,1238,526,0,0
21,498,0,0,0,0,0,0,0,0,0,-1,1245,526,0,0
28,498,0,0,0,0,0,0,0,0,0,-1,1252,526,0,0
35,498,0,0,0,0,0,0,0,0,0,-1,1259,526,0,0
42,498,0,0,0,0,0,0,0,0,0,-1,1266,526,0,0
49,498,0,0,0,0,0,0,0,0,0,-1,1273,526,0,0
56,498,0,0,0,0,0,0,0,0,0,-1,1280,526,0,0
63,498,0,0,0,0,0,0,0,0,0,-1,1287,526,0,0
70,498,0,0,0,0,0,0,0,0,0,-1,1294,526,0,0
77,498,0,0,0,0,0,0,0,0,0,-1,1301,526,0,0
84,498,0,0,0,0,0,0,0,0,0,-1,1308,526,0,0
91,498,0,0,0,0,0,0,0,0,0,-1,1315,526,0,0
98,498,0,0,0,0,0,0,0,0,0,-1,1322,526,0,0
105,498,0,0,0,0,0,0,0,0,0,-1,1329,526,0,0
112,498,0,0,0,0,0,0,0,0,0,-1,1336,526,0,0
119,498,0,0,0,0,0,0,0,0,0,-1,1343,526,0,0
126,498,0,0,0,0,0,0,0,0,0,-1,1350,526,0,0
133,498,0,0,0,0,0,0,0,0,0,-1,1357,526,0,0
140,498,0,0,0,0,0,0,0,0,0,-1,1364,526,0,0
147,498,0,0,0,0,0,0,0,0,0,-1,1371,526,0,0
154,498,0,0,0,0,0,0,0,0,0,-1,1378,526,0,0
161,498,0,0,0,0,0,0,0,0,0,-1,1385,526,0,0
168,498,0,0,0,0,0,0,0,0,0,-1,1392,526,0,0
175,498,0,0,0,0,0,0,0,0,0,-1,1399,526,0,0
182,498,0,0,0,0,0,0,0,0,0,-1,1406,526,0,0
189,498,0,0,0,0,0,0,0,0,0,-1,1413,526,0,0
196,498,0,0,0,0,0,0,0,0,0,-1,1420,526,0,0
203,498,0,0,0,0,0,0,0,0,0,-1,1427,526,0,0
210,498,0,0,0,0,0,0,0,0,0,-1,1434,526,0,0
217,498,0,0,0,0,0,0,0,0,0,-1,1441,526,0,0
224,498,0,0,0,0,0,0,0,0,0,-1,1448,526,0,0
231,498,0,0,0,0,0,0,0,0,0,-1,1455,526,0,0
238,498,0,0,0,0,0,0,0,0,0,-1,1462,526,0,0
245,498,0,0,0,0,0,0,0,0,0,-1,1469,526,0,0
252,498,0,0,0,0,0,0,0,0,0,-1,1476,526,0,0
259,498,0,0,0,0,0,0,0,0,0,-1,1483,526,0,0
266,498,0,0,0,0,0,0,0,0,0,-1,1490,526,0,0
273,498,0,0,0,0,0,0,0,0,0,-1,1497,526,0,0
280,498,0,0,0,0,0,0,0,0,0,-1,1504,526,0,0
287,498,0,0,0,0,0,0,0,0,0,-1,1511,526,0,0
294,498,0,0,0,0,0,0,0,0,0,-1,1518,526,0,0
301,498,0,0,0,0,0,0,0,0,0,-1,1525,526,0,0
308,498,4.77942,-0.293884,0,0,0,0,0,0,0,-1,1532,526,4.77939,0.293899
315,498,4.56091,-0.564148,0,0,0,0,0,0,0,-1,1539,526,4.56097,0.564142
322,498,4.52344,-0.447266,0,0,0,0,0,0,0,-1,1546,526,4.52341,0.447295
329,498,4.63232,-0.156982,0,0,0,0,0,0,0,-1,1553,526,4.63238,0.156991
336,498,5.22644,0.0925903,0,0,0,0,0,0,0,-1,1560,526,5.22648,-0.0926188
343,498,6.22607,-1.67615,0,0,0,0,0,0,0,-1,1567,526,6.22605,1.67617
350,498,6.19373,-1.59906,0,0,0,0,0,0,0,-1,1574,526,6.19367,1.59906
357,498,6.21472,-1.58929,0,0,0,0,0,0,0,-1,1581,526,6.21476,1.58927
364,498,5.73547,-1.2019,0,0,0,0,0,0,0,-1,1588,526,5.73547,1.20192
371,498,3.27087,-4.55334,0,0,0,0,0,0,0,-1,1595,526,3.27089,4.55332
378,498,8.42944,-4.70624,0,0,0,0,0,0,0,-1,1602,526,8.42942,4.70624
385,498,4.7793,-5.15314,0,0,0,0,0,0,0,-1,1609,526,4.77935,5.15311
392,498,9.12439,-8.57953,0,0,0,0,0,0,0,-1,1616,526,9.12443,8.57955
399,498,7.98938,-9.46021,0,0,0,0,0,0,0,-1,1623,526,7.98936,9.4602
406,498,7.58081,-9.26819,0,0,0,0,0,0,0,-1,1630,526,7.58085,9.26817
413,498,7.17236,-9.07611,0,0,0,0,0,0,0,-1,1637,526,7.17234,9.07614
420,498,11.4314,-16.1147,0,0,0,0,0,0,0,-1,1644,526,11.4313,16.1147
427,498,14.6334,-24.9539,0,0,0,0,0,0,0,-1,1651,526,14.6334,24.9539
434,498,14.7791,-24.3079,0.00175211,0.000574258,-0.00124078,0.00253664,-0.000210272,-0.563821,0.00176536,0.0406868,1658,526,14.779,24.3079
441,498,14.8927,-23.6173,0.00170195,0.000704737,-0.000937737,0.0022654,0.00014129,-0.541051,0.00146544,0.0136219,1665,526,14.8927,23.6173
448,498,14.8904,-22.9778,0.00171225,0.000718051,-0.000626568,0.00201496,0.000415341,-0.450055,0.00122849,0.0110013,1672,526,14.8904,22.9778
455,498,14.869,-22.3701,0.00165788,0.000949229,-0.000301954,0.00176909,0.000838019,-0.352883,0.00102186,0.0154401,1679,526,14.869,22.3701
462,498,14.859,-21.7692,0.00153498,0.00104249,-0.000111176,0.00155891,0.00101856,-0.212045,0.000914043,0.0173807,1686,526,14.859,21.7692
469,498,14.8378,-21.1797,0.00144676,0.00109508,0.000188538,0.00152873,0.00101311,0.410121,0.000898056,0.0144146,1693,526,14.8378,21.1797
476,498,14.8075,-20.5485,0.00137457,0.00112931,0.000621765,0.00188568,0.000618198,0.688033,0.00111,0.0103364,1700,526,14.8075,20.5485
483,498,14.7974,-19.9286,0.00134043,0.00107421,0.00115426,0.00236923,4.54057e-05,0.727993,0.00156457,0.00893769,1707,526,14.7974,19.9286
490,498,14.7682,-19.2986,0.00121062,0.00110091,0.0017764,0.00293301,-0.000621477,0.769962,0.00219206,0.0113082,1714,526,14.7682,19.2986
497,498,14.7491,-18.6325,0.00112023,0.00113979,0.00260183,0.00373186,-0.00147184,0.787278,0.00309737,0.0125624,1721,526,14.7491,18.6325
504,498,14.7273,-17.965,0.00104091,0.000969044,0.00353938,0.00454454,-0.00253459,0.780322,0.00414169,0.0145166,1728,526,14.7273,17.965
511,498,14.6874,-17.2982,0.000890552,0.000774825,0.00455602,0.00538908,-0.0037237,0.779048,0.00529047,0.0162396,1735,526,14.6873,17.2982
518,498,14.7064,-16.6349,0.000617223,0.0006114,0.00560932,0.00622363,-0.00499501,0.785139,0.00649002,0.0172459,1742,526,14.7064,16.6349
525,498,14.5979,-15.9869,0.000274909,0.000407278,0.00669727,0.00703869,-0.0063565,0.790339,0.00773706,0.0250118,1749,526,14.5979,15.987
532,498,14.3992,-15.3378,0,0,0,0,0,0,0,-1,1756,526,14.3992,15.3377
539,498,14.3926,-14.6833,0,0,0,0,0,0,0,-1,1763,526,14.3926,14.6833
546,498,10.2014,-8.47589,0,0,0,0,0,0,0,-1,1770,526,10.2014,8.47589
553,498,5.93958,-1.71448,0,0,0,0,0,0,0,-1,1777,526,5.93956,1.71447
560,498,3.69385,-0.615112,0,0,0,0,0,0,0,-1,1784,526,3.69381,0.615118
567,498,5.12695,-0.581604,0,0,0,0,0,0,0,-1,1791,526,5.12699,0.58159
574,498,3.88,0.0286255,0,0,0,0,0,0,0,-1,1798,526,3.87999,-0.0286535
581,498,10.8722,2.58551,0,0,0,0,0,0,0,-1,1805,526,10.8723,-2.58551
588,498,0,0,0,0,0,0,0,0,0,-1,1812,526,0,0
595,498,0,0,0,0,0,0,0,0,0,-1,1819,526,0,0
602,498,0,0,0,0,0,0,0,0,0,-1,1826,526,0,0
609,498,0,0,0,0,0,0,0,0,0,-1,1833,526,0,0
616,498,0,0,0,0,0,0,0,0,0,-1,1840,526,0,0
623,498,0,0,0,0,0,0,0,0,0,-1,1847,526,0,0
630,498,0,0,0,0,0,0,0,0,0,-1,1854,526,0,0
637,498,0,0,0,0,0,0,0,0,0,-1,1861,526,0,0
644,498,0,0,0,0,0,0,0,0,0,-1,1868,526,0,0
651,498,0,0,0,0,0,0,0,0,0,-1,1875,526,0,0
658,498,0,0,0,0,0,0,0,0,0,-1,1882,526,0,0
665,498,0,0,0,0,0,0,0,0,0,-1,1889,526,0,0
672,498,0,0,0,0,0,0,0,0,0,-1,1896,526,0,0
679,498,0,0,0,0,0,0,0,0,0,-1,1903,526,0,0
686,498,0,0,0,0,0,0,0,0,0,-1,1910,526,0,0
693,498,0,0,0,0,0,0,0,0,0,-1,1917,526,0,0
700,498,0,0,0,0,0,0,0,0,0,-1,1924,526,0,0
707,498,0,0,0,0,0,0,0,0,0,-1,1931,526,0,0
714,498,0,0,0,0,0,0,0,0,0,-1,1938,526,0,0
721,498,0,0,0,0,0,0,0,0,0,-1,1945,526,0,0
728,498,0,0,0,0,0,0,0,0,0,-1,1952,526,0,0
735,498,0,0,0,0,0,0,0,0,0,-1,1959,526,0,0
742,498,0,0,0,0,0,0,0,0,0,-1,1966,526,0,0
749,498,0,0,0,0,0,0,0,0,0,-1,1973,526,0,0
756,498,0,0,0,0,0,0,0,0,0,-1,1980,526,0,0
763,498,0,0,0,0,0,0,0,0,0,-1,1987,526,0,0
770,498,0,0,0,0,0,0,0,0,0,-1,1994,526,0,0
777,498,0,0,0,0,0,0,0,0,0,-1,2001,526,0,0
784,498,0,0,0,0,0,0,0,0,0,-1,2008,526,0,0
791,498,0,0,0,0,0,0,0,0,0,-1,2015,526,0,0
798,498,0,0,0,0,0,0,0,0,0,-1,2022,526,0,0
805,498,0,0,0,0,0,0,0,0,0,-1,2029,526,0,0
812,498,0,0,0,0,0,0,0,0,0,-1,2036,526,0,0
-700,491,0,0,0,0,0,0,0,0,0,-1,524,533,0,0
-693,491,0,0,0,0,0,0,0,0,0,-1,531,533,0,0
-686,491,0,0,0,0,0,0,0,0,0,-1,538,533,0,0
-679,491,0,0,0,0,0,0,0,0,0,-1,545,533,0,0
-672,491,0,0,0,0,0,0,0,0,0,-1,552,533,0,0
-665,491,0,0,0,0,0,0,0,0,0,-1,559,533,0,0
-658,491,0,0,0,0,0,0,0,0,0,-1,566,533,0,0
-651,491,0,0,0,0,0,0,0,0,0,-1,573,533,0,0
-644,491,0,0,0,0,0,0,0,0,0,-1,580,533,0,0
-637,491,0,0,0,0,0,0,0,0,0,-1,587,533,0,0
-630,491,0,0,0,0,0,0,0,0,0,-1,594,533,0,0
-623,491,0,0,0,0,0,0,0,0,0,-1,601,533,0,0
-616,491,0,0,0,0,0,0,0,0,0,-1,608,533,0,0
-609,491,0,0,0,0,0,0,0,0,0,-1,615,533,0,0
-602,491,0,0,0,0,0,0,0,0,0,-1,622,533,0,0
-595,491,0,0,0,0,0,0,0,0,0,-1,629,533,0,0
-588,491,0,0,0,0,0,0,0,0,0,-1,636,533,0,0
-581,491,0,0,0,0,0,0,0,0,0,-1,643,533,0,0
-574,491,0,0,0,0,0,0,0,0,0,-1,650,533,0,0
-567,491,0,0,0,0,0,0,0,0,0,-1,657,533,0,0
-560,491,0,0,0,0,0,0,0,0,0,-1,664,533,0,0
-553,491,0,0,0,0,0,0,0,0,0,-1,671,533,0,0
-546,491,0,0,0,0,0,0,0,0,0,-1,678,533,0,0
-539,491,0,0,0,0,0,0,0,0,0,-1,685,533,0,0
-532,491,0,0,0,0,0,0,0,0,0,-1,692,533,0,0
-525,491,0,0,0,0,0,0,0,0,0,-1,699,533,0,0
-518,491,0,0,0,0,0,0,0,0,0,-1,706,533,0,0
-511,491,0,0,0,0,0,0,0,0,0,-1,713,533,0,0
-504,491,0,0,0,0,0,0,0,0,0,-1,720,533,0,0
-497,491,0,0,0,0,0,0,0,0,0,-1,727,533,0,0
-490,491,0,0,0,0,0,0,0,0,0,-1,734,533,0,0
-483,491,0,0,0,0,0,0,0,0,0,-1,741,533,0,0
-476,491,0,0,0,0,0,0,0,0,0,-1,748,533,0,0
-469,491,-5.85913,4.55011,0,0,0,0,0,0,0,-1,755,533,-5.8591,-4.55009
-462,491,-9.93713,4.90381,0,0,0,0,0,0,0,-1,762,533,-9.93716,-4.9038
-455,491,1.9494,-0.27887,0,0,0,0,0,0,0,-1,769,533,1.94941,0.27885
-448,491,2.68909,-1.8999,0,0,0,0,0,0,0,-1,776,533,2.6891,1.89988
-441,491,3.46069,-3.51855,0,0,0,0,0,0,0,-1,783,533,3.46071,3.51854
-434,491,2.67145,-7.44061,0,0,0,0,0,0,0,-1,790,533,2.67146,7.44061
-427,491,2.27136,-8.34546,0,0,0,0,0,0,0,-1,797,533,2.27136,8.34546
-420,491,-3.89307,-14.6592,0,0,0,0,0,0,0,-1,804,533,-3.89308,14.6592
-413,491,-3.76801,-15.7194,0,0,0,0,0,0,0,-1,811,533,-3.76803,15.7193
-406,491,-3.75739,-16.5605,-0.00263295,0.0187507,-0.00667877,0.0206653,-0.00454751,-1.29162,0.0155164,0.025542,818,533,-3.75739,16.5605
-399,491,-3.7998,-17.2885,-0.00239651,0.0162021,-0.00583413,0.0178807,-0.0040751,-1.29064,0.0134856,0.013256,825,533,-3.79978,17.2884
-392,491,-3.8866,-17.9404,-0.00200074,0.0136923,-0.00499576,0.0151477,-0.00345613,-1.28732,0.0114261,0.0114171,832,533,-3.8866,17.9404
-385,491,-3.90314,-18.5583,-0.00134109,0.0112505,-0.0042293,0.0125392,-0.00262976,-1.27503,0.00935999,0.00953812,839,533,-3.90317,18.5583
-378,491,-3.8927,-19.155,-0.000618893,0.00890934,-0.00352089,0.0100692,-0.00177875,-1.25257,0.00737754,0.0136328,846,533,-3.89267,19.155
-371,491,-3.91266,-19.775,8.3507e-05,0.00656932,-0.00285816,0.00764909,-0.000996264,-1.20959,0.00546186,0.0154328,853,533,-3.91268,19.775
-364,491,-3.94318,-20.4219,0.000774078,0.00423364,-0.00214203,0.00525712,-0.000249399,-1.12506,0.00359076,0.0143078,860,533,-3.94318,20.422
-357,491,-3.97235,-21.0305,0.0014764,0.00219719,-0.00148068,0.0033607,0.000312894,-0.904776,0.0021438,0.0120503,867,533,-3.97235,21.0305
-350,491,-3.99921,-21.6117,0.00213568,0.000420393,-0.000884415,0.00251,4.60697e-05,-0.400383,0.00165819,0.015274,874,533,-3.99921,21.6117
-343,491,-3.98962,-22.2127,0.00261095,-0.00137696,-0.00017565,0.00261867,-0.00138468,-0.0439323,0.00234765,0.0242261,881,533,-3.98963,22.2127
-336,491,-4.03601,-22.8246,0.00304688,-0.00291512,0.000467426,0.00308331,-0.00295154,0.0777676,0.0034845,0.0249512,888,533,-4.03601,22.8246
-329,491,-4.07184,-23.4271,0.00346839,-0.00375039,0.000931702,0.0035867,-0.00386871,0.126309,0.00430541,0.0267831,895,533,-4.07185,23.4271
-322,491,-4.07806,-24.0118,0.00377382,-0.00443034,0.00142701,0.00401494,-0.00467147,0.16739,0.00501987,0.0241254,902,533,-4.07808,24.0118
-315,491,-4.12244,-24.5394,0.00416979,-0.00518438,0.00184781,0.00452157,-0.00553617,0.188128,0.00581668,0.0203993,909,533,-4.12246,24.5393
-308,491,-4.03778,-25.2422,0,0,0,0,0,0,0,-1,916,533,-4.03779,25.2422
-301,491,-3.9845,-26.1332,0,0,0,0,0,0,0,-1,923,533,-3.98452,26.1332
-294,491,-0.777283,-8.60913,0,0,0,0,0,0,0,-1,930,533,-0.777288,8.6091
-287,491,-0.26123,-8.69055,0,0,0,0,0,0,0,-1,937,533,-0.261204,8.69053
-280,491,0.2948,-5.99219,0,0,0,0,0,0,0,-1,944,533,0.294811,5.99221
-273,491,0.369995,-5.33691,0,0,0,0,0,0,0,-1,951,533,0.369985,5.33693
-266,491,1.1167,-5.0321,0,0,0,0,0,0,0,-1,958,533,1.11668,5.0321
-259,491,12.0862,-16.9615,0,0,0,0,0,0,0,-1,965,533,12.0862,16.9615
-252,491,9.72443,-13.8417,0,0,0,0,0,0,0,-1,972,533,9.72444,13.8418
-245,491,5.27258,-14.3619,0,0,0,0,0,0,0,-1,979,533,5.27255,14.3619
-238,491,3.65381,-11.1472,0,0,0,0,0,0,0,-1,986,533,3.6538,11.1472
-231,491,2.17719,-7.86835,0,0,0,0,0,0,0,-1,993,533,2.17719,7.86832
-224,491,0.554626,-4.61725,0,0,0,0,0,0,0,-1,1000,533,0.554608,4.61727
-217,491,-2.92743,-1.0766,0,0,0,0,0,0,0,-1,1007,533,-2.92743,1.07659
-210,491,-0.92395,0.374512,0,0,0,0,0,0,0,-1,1014,533,-0.923959,-0.374531
-203,491,0.417419,4.77161,0,0,0,0,0,0,0,-1,1021,533,0.417446,-4.77162
-196,491,0,0,0,0,0,0,0,0,0,-1,1028,533,0,0
-189,491,0,0,0,0,0,0,0,0,0,-1,1035,533,0,0
-182,491,0,0,0,0,0,0,0,0,0,-1,1042,533,0,0
-175,491,0,0,0,0,0,0,0,0,0,-1,1049,533,0,0
-168,491,0,0,0,0,0,0,0,0,0,-1,1056,533,0,0
-161,491,0,0,0,0,0,0,0,0,0,-1,1063,533,0,0
-154,491,0,0,0,0,0,0,0,0,0,-1,1070,533,0,0
-147,491,0,0,0,0,0,0,0,0,0,-1,1077,533,0,0
-140,491,0,0,0,0,0,0,0,0,0,-1,1084,533,0,0
-133,491,0,0,0,0,0,0,0,0,0,-1,1091,533,0,0
-126,491,0,0,0,0,0,0,0,0,0,-1,1098,533,0,0
-119,491,0,0,0,0,0,0,0,0,0,-1,1105,533,0,0
-112,491,0,0,0,0,0,0,0,0,0,-1,1112,533,0,0
-105,491,0,0,0,0,0,0,0,0,0,-1,1119,533,0,0
-98,491,0,0,0,0,0,0,0,0,0,-1,1126,533,0,0
-91,491,0,0,0,0,0,0,0,0,0,-1,1133,533,0,0
-84,491,0,0,0,0,0,0,0,0,0,-1,1140,533,0,0
-77,491,0,0,0,0,0,0,0,0,0,-1,1147,533,0,0
-70,491,0,0,0,0,0,0,0,0,0,-1,1154,533,0,0
-63,491,0,0,0,0,0,0,0,0,0,-1,1161,533,0,0
-56,491,0,0,0,0,0,0,0,0,0,-1,1168,533,0,0
-49,491,0,0,0,0,0,0,0,0,0,-1,1175,533,0,0
-42,491,0,0,0,0,0,0,0,0,0,-1,1182,533,0,0
-35,491,0,0,0,0,0,0,0,0,0,-1,1189,533,0,0
-28,491,0,0,0,0,0,0,0,0,0,-1,1196,533,0,0
-21,491,0,0,0,0,0,0,0,0,0,-1,1203,533,0,0
-14,491,0,0,0,0,0,0,0,0,0,-1,1210,533,0,0
-7,491,0,0,0,0,0,0,0,0,0,-1,1217,533,0,0
0,491,0,0,0,0,0,0,0,0,0,-1,1224,533,0,0
7,491,0,0,0,0,0,0,0,0,0,-1,1231,533,0,0
14,491,0,0,0,0,0,0,0,0,0,-1,1238,533,0,0
21,491,0,0,0,0,0,0,0,0,0,-1,1245,533,0,0
28,491,0,0,0,0,0,0,0,0,0,-1,1252,533,0,0
35,491,0,0,0,0,0,0,0,0,0,-1,1259,533,0,0
42,491,0,0,0,0,0,0,0,0,0,-1,1266,533,0,0
49,491,0,0,0,0,0,0,0,0,0,-1,1273,533,0,0
56,491,0,0,0,0,0,0,0,0,0,-1,1280,533,0,0
63,491,0,0,0,0,0,0,0,0,0,-1,1287,533,0,0
70,491,0,0,0,0,0,0,0,0,0,-1,1294,533,0,0
77,491,0,0,0,0,0,0,0,0,0,-1,1301,533,0,0
84,491,0,0,0,0,0,0,0,0,0,-1,1308,533,0,0
91,491,0,0,0,0,0,0,0,0,0,-1,1315,533,0,0
98,491,0,0,0,0,0,0,0,0,0,-1,1322,533,0,0
105,491,0,0,0,0,0,0,0,0,0,-1,1329,533,0,0
112,491,0,0,0,0,0,0,0,0,0,-1,1336,533,0,0
119,491,0,0,0,0,0,0,0,0,0,-1,1343,533,0,0
126,491,0,0,0,0,0,0,0,0,0,-1,1350,533,0,0
133,491,0,0,0,0,0,0,0,0,0,-1,1357,533,0,0
140,491,0,0,0,0,0,0,0,0,0,-1,1364,533,0,0
147,491,0,0,0,0,0,0,0,0,0,-1,1371,533,0,0
154,491,0,0,0,0,0,0,0,0,0,-1,1378,533,0,0
161,491,0,0,0,0,0,0,0,0,0,-1,1385,533,0,0
168,491,0,0,0,0,0,0,0,0,0,-1,1392,533,0,0
175,491,0,0,0,0,0,0,0,0,0,-1,1399,533,0,0
182,491,0,0,0,0,0,0,0,0,0,-1,1406,533,0,0
189,491,0,0,0,0,0,0,0,0,0,-1,1413,533,0,0
196,491,0,0,0,0,0,0,0,0,0,-1,1420,533,0,0
203,491,0,0,0,0,0,0,0,0,0,-1,1427,533,0,0
210,491,0,0,0,0,0,0,0,0,0,-1,1434,533,0,0
217,491,0,0,0,0,0,0,0,0,0,-1,1441,533,0,0
224,491,0,0,0,0,0,0,0,0,0,-1,1448,533,0,0
231,491,0,0,0,0,0,0,0,0,0,-1,1455,533,0,0
238,491,0,0,0,0,0,0,0,0,0,-1,1462,533,0,0
245,491,0,0,0,0,0,0,0,0,0,-1,1469,533,0,0
252,491,0,0,0,0,0,0,0,0,0,-1,1476,533,0,0
259,491,0,0,0,0,0,0,0,0,0,-1,1483,533,0,0
266,491,0,0,0,0,0,0,0,0,0,-1,1490,533,0,0
273,491,0,0,0,0,0,0,0,0,0,-1,1497,533,0,0
280,491,0,0,0,0,0,0,0,0,0,-1,1504,533,0,0
287,491,0,0,0,0,0,0,0,0,0,-1,1511,533,0,0
294,491,0,0,0,0,0,0,0,0,0,-1,1518,533,0,0
301,491,0,0,0,0,0,0,0,0,0,-1,1525,533,0,0
308,491,0,0,0,0,0,0,0,0,0,-1,1532,533,0,0
315,491,0,0,0,0,0,0,0,0,0,-1,1539,533,0,0
322,491,4.26331,-0.734314,0,0,0,0,0,0,0,-1,1546,533,4.26326,0.734324
329,491,4.25354,-0.783752,0,0,0,0,0,0,0,-1,1553,533,4.25359,0.783734
336,491,4.81604,-0.722107,0,0,0,0,0,0,0,-1,1560,533,4.81605,0.722115
343,491,6.14478,-1.44281,0,0,0,0,0,0,0,-1,1567,533,6.14474,1.44281
350,491,6.36353,-1.30792,0,0,0,0,0,0,0,-1,1574,533,6.36352,1.3079
357,491,6.69482,-1.06018,0,0,0,0,0,0,0,-1,1581,533,6.69489,1.06018
364,491,8.01086,-1.69604,0,0,0,0,0,0,0,-1,1588,533,8.01087,1.69607
371,491,8.2135,-0.539307,0,0,0,0,0,0,0,-1,1595,533,8.21348,0.53929
378,491,13.3589,2.17267,0,0,0,0,0,0,0,-1,1602,533,13.3589,-2.17264
385,491,8.08228,-4.95471,0,0,0,0,0,0,0,-1,1609,533,8.08227,4.95474
392,491,2.88721,-4.30988,0,0,0,0,0,0,0,-1,1616,533,2.88716,4.30986
399,491,8.95862,-8.55518,0,0,0,0,0,0,0,-1,1623,533,8.95864,8.55516
406,491,8.16541,-9.00806,0,0,0,0,0,0,0,-1,1630,533,8.16535,9.00807
413,491,5.31848,-3.7124,0,0,0,0,0,0,0,-1,1637,533,5.31849,3.7124
420,491,4.86389,-3.95892,0,0,0,0,0,0,0,-1,1644,533,4.86387,3.95893
427,491,11.5096,-15.2742,0,0,0,0,0,0,0,-1,1651,533,11.5096,15.2742
434,491,15.3491,-24.3216,0,0,0,0,0,0,0,-1,1658,533,15.3491,24.3216
441,491,15.5471,-23.3711,0.00186136,0.000620798,-0.0013244,0.00270354,-0.000221382,-0.566395,0.0018805,0.0490641,1665,533,15.5471,23.3711
448,491,15.495,-22.9989,0.00185826,0.000654651,-0.00100589,0.00242862,8.42846e-05,-0.515822,0.00159173,0.0336465,1672,533,15.495,22.9989
455,491,15.4796,-22.3646,0.00175271,0.000911767,-0.000702001,0.00215053,0.000513946,-0.515571,0.00129678,0.0191617,1679,533,15.4797,22.3646
462,491,15.5125,-21.7527,0.00160772,0.00109281,-0.000509098,0.00192076,0.000779771,-0.5513,0.00111547,0.0161502,1686,533,15.5125,21.7527
469,491,15.4735,-21.1359,0.0015148,0.0011684,-0.000262897,0.00165642,0.00102677,-0.494124,0.000965452,0.0150383,1693,533,15.4735,21.1359
476,491,15.4424,-20.5063,0.00145096,0.0012037,7.32137e-05,0.00147101,0.00118365,0.267335,0.000900304,0.0106097,1700,533,15.4424,20.5063
483,491,15.4271,-19.8735,0.00138895,0.0011499,0.000534842,0.00181746,0.00072139,0.675467,0.00105672,0.0126189,1707,533,15.4271,19.8734
490,491,15.407,-19.2709,0.00120991,0.00120045,0.00104782,0.00225301,0.000157353,0.783141,0.0014524,0.0113802,1714,533,15.407,19.2709
497,491,15.3807,-18.6259,0.00108154,0.00132029,0.00177432,0.00297925,-0.000577419,0.818987,0.002204,0.0119209,1721,533,15.3807,18.6259
504,491,15.3765,-17.9417,0.000953118,0.00117783,0.0025525,0.00362045,-0.0014895,0.807393,0.00303454,0.0138382,1728,533,15.3764,17.9417
511,491,15.3198,-17.2918,0.000736616,0.00103244,0.00335626,0.00424405,-0.00247499,0.807419,0.0039238,0.0139124,1735,533,15.3199,17.2918
518,491,15.2781,-16.6562,0.000395669,0.000929503,0.00414207,0.00481325,-0.00348808,0.817574,0.00481308,0.0107792,1742,533,15.2781,16.6562
525,491,15.2797,-15.9897,2.6297e-05,0.000806554,0.00493497,0.00536679,-0.00453394,0.824843,0.00572292,0.00972401,1749,533,15.2797,15.9897
532,491,15.2596,-15.3206,0,0,0,0,0,0,0,-1,1756,533,15.2597,15.3206
539,491,15.24,-14.5929,0,0,0,0,0,0,0,-1,1763,533,15.2399,14.5929
546,491,14.6881,-13.5815,0,0,0,0,0,0,0,-1,1770,533,14.6881,13.5816
553,491,10.5021,-7.77869,0,0,0,0,0,0,0,-1,1777,533,10.502,7.77871
560,491,6.28455,-1.43585,0,0,0,0,0,0,0,-1,1784,533,6.28458,1.43586
567,491,5.67651,-1.3562,0,0,0,0,0,0,0,-1,1791,533,5.67649,1.3562
574,491,8.0719,1.58325,0,0,0,0,0,0,0,-1,1798,533,8.07195,-1.58326
581,491,9.44812,1.60931,0,0,0,0,0,0,0,-1,1805,533,9.44808,-1.60933
588,491,11.0497,1.54962,0,0,0,0,0,0,0,-1,1812,533,11.0496,-1.54963
595,491,0,0,0,0,0,0,0,0,0,-1,1819,533,0,0
602,491,0,0,0,0,0,0,0,0,0,-1,1826,533,0,0
609,491,0,0,0,0,0,0,0,0,0,-1,1833,533,0,0
616,491,0,0,0,0,0,0,0,0,0,-1,1840,533,0,0
623,491,0,0,0,0,0,0,0,0,0,-1,1847,533,0,0
630,491,0,0,0,0,0,0,0,0,0,-1,1854,533,0,0
637,491,0,0,0,0,0,0,0,0,0,-1,1861,533,0,0
644,491,0,0,0,0,0,0,0,0,0,-1,1868,533,0,0
651,491,0,0,0,0,0,0,0,0,0,-1,1875,533,0,0
658,491,0,0,0,0,0,0,0,0,0,-1,1882,533,0,0
665,491,0,0,0,0,0,0,0,0,0,-1,1889,533,0,0
672,491,0,0,0,0,0,0,0,0,0,-1,1896,533,0,0
679,491,0,0,0,0,0,0,0,0,0,-1,1903,533,0,0
686,491,0,0,0,0,0,0,0,0,0,-1,1910,533,0,0
693,491,0,0,0,0,0,0,0,0,0,-1,1917,533,0,0
700,491,0,0,0,0,0,0,0,0,0,-1,1924,533,0,0
707,491,0,0,0,0,0,0,0,0,0,-1,1931,533,0,0
714,491,0,0,0,0,0,0,0,0,0,-1,1938,533,0,0
721,491,0,0,0,0,0,0,0,0,0,-1,1945,533,0,0
728,491,0,0,0,0,0,0,0,0,0,-1,1952,533,0,0
735,491,0,0,0,0,0,0,0,0,0,-1,1959,533,0,0
742,491,0,0,0,0,0,0,0,0,0,-1,1966,533,0,0
749,491,0,0,0,0,0,0,0,0,0,-1,1973,533,0,0
756,491,0,0,0,0,0,0,0,0,0,-1,1980,533,0,0
763,491,0,0,0,0,0,0,0,0,0,-1,1987,533,0,0
770,491,0,0,0,0,0,0,0,0,0,-1,1994,533,0,0
777,491,0,0,0,0,0,0,0,0,0,-1,2001,533,0,0
784,491,0,0,0,0,0,0,0,0,0,-1,2008,533,0,0
791,491,0,0,0,0,0,0,0,0,0,-1,2015,533,0,0
798,491,0,0,0,0,0,0,0,0,0,-1,2022,533,0,0
805,491,0,0,0,0,0,0,0,0,0,-1,2029,533,0,0
812,491,0,0,0,0,0,0,0,0,0,-1,2036,533,0,0
-700,484,0,0,0,0,0,0,0,0,0,-1,524,540,0,0
-693,484,0,0,0,0,0,0,0,0,0,-1,531,540,0,0
-686,484,0,0,0,0,0,0,0,0,0,-1,538,540,0,0
-679,484,0,0,0,0,0,0,0,0,0,-1,545,540,0,0
-672,484,0,0,0,0,0,0,0,0,0,-1,552,540,0,0
-665,484,0,0,0,0,0,0,0,0,0,-1,559,540,0,0
-658,484,0,0,0,0,0,0,0,0,0,-1,566,540,0,0
-651,484,0,0,0,0,0,0,0,0,0,-1,573,540,0,0
-644,484,0,0,0,0,0,0,0,0,0,-1,580,540,0,0
-637,484,0,0,0,0,0,0,0,0,0,-1,587,540,0,0
-630,484,0,0,0,0,0,0,0,0,0,-1,594,540,0,0
-623,484,0,0,0,0,0,0,0,0,0,-1,601,540,0,0
-616,484,0,0,0,0,0,0,0,0,0,-1,608,540,0,0
-609,484,0,0,0,0,0,0,0,0,0,-1,615,540,0,0
-602,484,0,0,0,0,0,0,0,0,0,-1,622,540,0,0
-595,484,0,0,0,0,0,0,0,0,0,-1,629,540,0,0
-588,484,0,0,0,0,0,0,0,0,0,-1,636,540,0,0
-581,484,0,0,0,0,0,0,0,0,0,-1,643,540,0,0
-574,484,0,0,0,0,0,0,0,0,0,-1,650,540,0,0
-567,484,0,0,0,0,0,0,0,0,0,-1,657,540,0,0
-560,484,0,0,0,0,0,0,0,0,0,-1,664,540,0,0
-553,484,0,0,0,0,0,0,0,0,0,-1,671,540,0,0
-546,484,0,0,0,0,0,0,0,0,0,-1,678,540,0,0
-539,484,0,0,0,0,0,0,0,0,0,-1,685,540,0,0
-532,484,0,0,0,0,0,0,0,0,0,-1,692,540,0,0
-525,484,0,0,0,0,0,0,0,0,0,-1,699,540,0,0
-518,484,0,0,0,0,0,0,0,0,0,-1,706,540,0,0
-511,484,0,0,0,0,0,0,0,0,0,-1,713,540,0,0
-504,484,0,0,0,0,0,0,0,0,0,-1,720,540,0,0
-497,484,0,0,0,0,0,0,0,0,0,-1,727,540,0,0
-490,484,0,0,0,0,0,0,0,0,0,-1,734,540,0,0
-483,484,0,0,0,0,0,0,0,0,0,-1,741,540,0,0
-476,484,-8.46552,1.44702,0,0,0,0,0,0,0,-1,748,540,-8.46554,-1.44702
-469,484,-7.82343,1.70355,0,0,0,0,0,0,0,-1,755,540,-7.82345,-1.70355
-462,484,-8.36987,3.08612,0,0,0,0,0,0,0,-1,762,540,-8.36988,-3.0861
-455,484,-6.77197,2.07092,0,0,0,0,0,0,0,-1,769,540,-6.77197,-2.07094
-448,484,3.54895,-1.40106,0,0,0,0,0,0,0,-1,776,540,3.54897,1.40106
-441,484,4.28906,-3.05884,0,0,0,0,0,0,0,-1,783,540,4.28905,3.05883
-434,484,-2.17548,-5.07245,0,0,0,0,0,0,0,-1,790,540,-2.17546,5.07243
-427,484,-4.38904,-14.071,0,0,0,0,0,0,0,-1,797,540,-4.38905,14.071
-420,484,-4.27551,-14.558,0,0,0,0,0,0,0,-1,804,540,-4.27551,14.558
-413,484,-4.30157,-15.8338,-0.00179737,0.0157503,-0.00577847,0.0174822,-0.00352929,-1.2796,0.012992,0.0295923,811,540,-4.30157,15.8338
-406,484,-4.36102,-16.5914,-0.00155508,0.0136316,-0.0051058,0.0151885,-0.00311205,-1.27481,0.0113067,0.015255,818,540,-4.36103,16.5914
-399,484,-4.45801,-17.2654,-0.00136591,0.0115373,-0.00435332,0.0128687,-0.00269728,-1.274,0.00960531,0.0160154,825,540,-4.458,17.2654
-392,484,-4.48499,-17.8964,-0.00100656,0.00946927,-0.00362392,0.0106007,-0.00213799,-1.26817,0.00787711,0.0187857,832,540,-4.48498,17.8965
-385,484,-4.51837,-18.5513,-0.000404797,0.00746712,-0.0029954,0.00847729,-0.00141497,-1.24553,0.00617744,0.0135706,839,540,-4.51837,18.5513
-378,484,-4.53729,-19.1627,0.000260773,0.00554072,-0.00238713,0.00645994,-0.000658449,-1.20322,0.00454205,0.0148505,846,540,-4.53731,19.1627
-371,484,-4.55524,-19.7719,0.000937138,0.00360035,-0.00182846,0.00453071,6.78748e-06,-1.10012,0.00301821,0.0163395,853,540,-4.55523,19.7719
-364,484,-4.59247,-20.3685,0.00162327,0.00165683,-0.00123357,0.00287374,0.00040636,-0.792198,0.00179576,0.0118094,860,540,-4.59244,20.3685
-357,484,-4.61407,-20.9858,0.00236366,-3.18278e-05,-0.000709354,0.00255796,-0.000226123,-0.267348,0.00178546,0.0124114,867,540,-4.61408,20.9858
-350,484,-4.633,-21.5833,0.00309186,-0.00149312,-0.000260313,0.00310659,-0.00150785,-0.0565331,0.00271693,0.0152426,874,540,-4.63301,21.5833
-343,484,-4.60925,-22.2031,0.00363651,-0.00299957,0.000311149,0.00365107,-0.00301413,0.0467507,0.003854,0.0250955,881,540,-4.60928,22.2031
-336,484,-4.66779,-22.8212,0.00417424,-0.00431508,0.00081273,0.00425135,-0.00439219,0.0945906,0.00499057,0.0287259,888,540,-4.6678,22.8212
-329,484,-4.71698,-23.3502,0.00466795,-0.00464262,0.00112277,0.00480143,-0.0047761,0.118331,0.00552959,0.0384333,895,540,-4.717,23.3502
-322,484,-4.6405,-23.9351,0,0,0,0,0,0,0,-1,902,540,-4.64051,23.9351
-315,484,-4.55048,-24.5437,0,0,0,0,0,0,0,-1,909,540,-4.55049,24.5437
-308,484,-1.32623,-8.9317,0,0,0,0,0,0,0,-1,916,540,-1.32626,8.93173
-301,484,-1.33453,-6.52667,0,0,0,0,0,0,0,-1,923,540,-1.33454,6.5267
-294,484,-1.61224,-8.17059,0,0,0,0,0,0,0,-1,930,540,-1.61227,8.17058
-287,484,-0.715759,-5.62103,0,0,0,0,0,0,0,-1,937,540,-0.715772,5.62105
-280,484,2.66742,-1.6795,0,0,0,0,0,0,0,-1,944,540,2.6674,1.67949
-273,484,2.53125,-2.22296,0,0,0,0,0,0,0,-1,951,540,2.53128,2.22295
-266,484,2.6778,-2.72058,0,0,0,0,0,0,0,-1,958,540,2.6778,2.72061
-259,484,2.41718,-2.59894,0,0,0,0,0,0,0,-1,965,540,2.41717,2.59892
-252,484,10.6069,-11.696,0,0,0,0,0,0,0,-1,972,540,10.6069,11.696
-245,484,6.34106,-11.6107,0,0,0,0,0,0,0,-1,979,540,6.34104,11.6107
-238,484,4.89319,-8.54059,0,0,0,0,0,0,0,-1,986,540,4.89321,8.5406
-231,484,3.47675,-5.22064,0,0,0,0,0,0,0,-1,993,540,3.47676,5.22067
-224,484,1.71344,-2.03473,0,0,0,0,0,0,0,-1,1000,540,1.71342,2.03472
-217,484,-0.745056,1.17358,0,0,0,0,0,0,0,-1,1007,540,-0.745043,-1.17359
-210,484,0,0,0,0,0,0,0,0,0,-1,1014,540,0,0
-203,484,0,0,0,0,0,0,0,0,0,-1,1021,540,0,0
-196,484,0,0,0,0,0,0,0,0,0,-1,1028,540,0,0
-189,484,0,0,0,0,0,0,0,0,0,-1,1035,540,0,0
-182,484,0,0,0,0,0,0,0,0,0,-1,1042,540,0,0
-175,484,0,0,0,0,0,0,0,0,0,-1,1049,540,0,0
-168,484,0,0,0,0,0,0,0,0,0,-1,1056,540,0,0
-161,484,0,0,0,0,0,0,0,0,0,-1,1063,540,0,0
-154,484,0,0,0,0,0,0,0,0,0,-1,1070,540,0,0
-147,484,0,0,0,0,0,0,0,0,0,-1,1077,540,0,0
-140,484,0,0,0,0,0,0,0,0,0,-1,1084,540,0,0
-133,484,0,0,0,0,0,0,0,0,0,-1,1091,540,0,0
-126,484,0,0,0,0,0,0,0,0,0,-1,1098,540,0,0
-119,484,0,0,0,0,0,0,0,0,0,-1,1105,540,0,0
-112,484,0,0,0,0,0,0,0,0,0,-1,1112,540,0,0
-105,484,0,0,0,0,0,0,0,0,0,-1,1119,540,0,0
-98,484,0,0,0,0,0,0,0,0,0,-1,1126,540,0,0
-91,484,0,0,0,0,0,0,0,0,0,-1,1133,540,0,0
-84,484,0,0,0,0,0,0,0,0,0,-1,1140,540,0,0
-77,484,0,0,0,0,0,0,0,0,0,-1,1147,540,0,0
-70,484,0,0,0,0,0,0,0,0,0,-1,1154,540,0,0
-63,484,0,0,0,0,0,0,0,0,0,-1,1161,540,0,0
-56,484,0,0,0,0,0,0,0,0,0,-1,1168,540,0,0
-49,484,0,0,0,0,0,0,0,0,0,-1,1175,540,0,0
-42,484,0,0,0,0,0,0,0,0,0,-1,1182,540,0,0
-35,484,0,0,0,0,0,0,0,0,0,-1,1189,540,0,0
-28,484,0,0,0,0,0,0,0,0,0,-1,1196,540,0,0
-21,484,0,0,0,0,0,0,0,0,0,-1,1203,540,0,0
-14,484,0,0,0,0,0,0,0,0,0,-1,1210,540,0,0
-7,484,0,0,0,0,0,0,0,0,0,-1,1217,540,0,0
0,484,0,0,0,0,0,0,0,0,0,-1,1224,540,0,0
7,484,0,0,0,0,0,0,0,0,0,-1,1231,540,0,0
14,484,0,0,0,0,0,0,0,0,0,-1,1238,540,0,0
21,484,0,0,0,0,0,0,0,0,0,-1,1245,540,0,0
28,484,0,0,0,0,0,0,0,0,0,-1,1252,540,0,0
35,484,0,0,0,0,0,0,0,0,0,-1,1259,540,0,0
42,484,0,0,0,0,0,0,0,0,0,-1,1266,540,0,0
49,484,0,0,0,0,0,0,0,0,0,-1,1273,540,0,0
56,484,0,0,0,0,0,0,0,0,0,-1,1280,540,0,0
63,484,0,0,0,0,0,0,0,0,0,-1,1287,540,0,0
70,484,0,0,0,0,0,0,0,0,0,-1,1294,540,0,0
77,484,0,0,0,0,0,0,0,0,0,-1,1301,540,0,0
84,484,0,0,0,0,0,0,0,0,0,-1,1308,540,0,0
91,484,0,0,0,0,0,0,0,0,0,-1,1315,540,0,0
98,484,0,0,0,0,0,0,0,0,0,-1,1322,540,0,0
105,484,0,0,0,0,0,0,0,0,0,-1,1329,540,0,0
112,484,0,0,0,0,0,0,0,0,0,-1,1336,540,0,0
119,484,0,0,0,0,0,0,0,0,0,-1,1343,540,0,0
126,484,0,0,0,0,0,0,0,0,0,-1,1350,540,0,0
133,484,0,0,0,0,0,0,0,0,0,-1,1357,540,0,0
140,484,0,0,0,0,0,0,0,0,0,-1,1364,540,0,0
147,484,0,0,0,0,0,0,0,0,0,-1,1371,540,0,0
154,484,0,0,0,0,0,0,0,0,0,-1,1378,540,0,0
161,484,0,0,0,0,0,0,0,0,0,-1,1385,540,0,0
168,484,0,0,0,0,0,0,0,0,0,-1,1392,540,0,0
175,484,0,0,0,0,0,0,0,0,0,-1,1399,540,0,0
182,484,0,0,0,0,0,0,0,0,0,-1,1406,540,0,0
189,484,0,0,0,0,0,0,0,0,0,-1,1413,540,0,0
196,484,0,0,0,0,0,0,0,0,0,-1,1420,540,0,0
203,484,0,0,0,0,0,0,0,0,0,-1,1427,540,0,0
210,484,0,0,0,0,0,0,0,0,0,-1,1434,540,0,0
217,484,0,0,0,0,0,0,0,0,0,-1,1441,540,0,0
224,484,0,0,0,0,0,0,0,0,0,-1,1448,540,0,0
231,484,0,0,0,0,0,0,0,0,0,-1,1455,540,0,0
238,484,0,0,0,0,0,0,0,0,0,-1,1462,540,0,0
245,484,0,0,0,0,0,0,0,0,0,-1,1469,540,0,0
252,484,0,0,0,0,0,0,0,0,0,-1,1476,540,0,0
259,484,0,0,0,0,0,0,0,0,0,-1,1483,540,0,0
266,484,0,0,0,0,0,0,0,0,0,-1,1490,540,0,0
273,484,0,0,0,0,0,0,0,0,0,-1,1497,540,0,0
280,484,0,0,0,0,0,0,0,0,0,-1,1504,540,0,0
287,484,0,0,0,0,0,0,0,0,0,-1,1511,540,0,0
294,484,0,0,0,0,0,0,0,0,0,-1,1518,540,0,0
301,484,0,0,0,0,0,0,0,0,0,-1,1525,540,0,0
308,484,0,0,0,0,0,0,0,0,0,-1,1532,540,0,0
315,484,0,0,0,0,0,0,0,0,0,-1,1539,540,0,0
322,484,0,0,0,0,0,0,0,0,0,-1,1546,540,0,0
329,484,0,0,0,0,0,0,0,0,0,-1,1553,540,0,0
336,484,4.38708,-1.64136,0,0,0,0,0,0,0,-1,1560,540,4.38704,1.64138
343,484,7.57996,-1.05457,0,0,0,0,0,0,0,-1,1567,540,7.57995,1.05454
350,484,8.10425,-1.18878,0,0,0,0,0,0,0,-1,1574,540,8.1043,1.18877
357,484,7.74902,-3.80286,0,0,0,0,0,0,0,-1,1581,540,7.74901,3.80287
364,484,6.31262,-3.87213,0,0,0,0,0,0,0,-1,1588,540,6.31263,3.87215
371,484,7.21008,0.973511,0,0,0,0,0,0,0,-1,1595,540,7.21014,-0.973541
378,484,11.0563,1.5014,0,0,0,0,0,0,0,-1,1602,540,11.0563,-1.5014
385,484,14.3469,2.5545,0,0,0,0,0,0,0,-1,1609,540,14.3469,-2.55453
392,484,7.39453,-4.95026,0,0,0,0,0,0,0,-1,1616,540,7.39448,4.95023
399,484,7.14417,-2.5639,0,0,0,0,0,0,0,-1,1623,540,7.14417,2.56391
406,484,7.88953,-2.47321,0,0,0,0,0,0,0,-1,1630,540,7.88954,2.47323
413,484,4.4895,-1.08673,0,0,0,0,0,0,0,-1,1637,540,4.48952,1.08674
420,484,4.50012,-2.11255,0,0,0,0,0,0,0,-1,1644,540,4.50012,2.11256
427,484,5.28601,-3.54053,0,0,0,0,0,0,0,-1,1651,540,5.28599,3.54051
434,484,11.1488,-13.5359,0,0,0,0,0,0,0,-1,1658,540,11.1489,13.5359
441,484,16.0685,-23.0724,0,0,0,0,0,0,0,-1,1665,540,16.0685,23.0724
448,484,16.0629,-23.09,0,0,0,0,0,0,0,-1,1672,540,16.0628,23.09
455,484,16.0994,-22.4207,0,0,0,0,0,0,0,-1,1679,540,16.0994,22.4206
462,484,16.1202,-21.7435,0.00171698,0.00118357,-0.000906906,0.00239558,0.000504964,-0.642388,0.00145818,0.0288911,1686,540,16.1203,21.7435
469,484,16.1106,-21.1036,0.00160237,0.00128521,-0.000678002,0.00214009,0.000747488,-0.670517,0.00125415,0.0180398,1693,540,16.1106,21.1037
476,484,16.0828,-20.4534,0.00155465,0.0012992,-0.000406165,0.0018527,0.00100115,-0.633059,0.00107082,0.016314,1700,540,16.0828,20.4534
483,484,16.0735,-19.8335,0.0014705,0.00123047,1.07883e-05,0.00147098,0.00122998,0.0448244,0.000911011,0.0132808,1707,540,16.0735,19.8335
490,484,16.0529,-19.2294,0.00125986,0.00128127,0.000446796,0.00171749,0.000823641,0.797372,0.000991869,0.0133204,1714,540,16.0528,19.2294
497,484,16.0223,-18.5953,0.00111365,0.00145471,0.00111336,0.00241053,0.000157834,0.861392,0.00155708,0.0139697,1721,540,16.0224,18.5953
504,484,16.0015,-17.9277,0.000957752,0.00131233,0.00177156,0.00291545,-0.000645372,0.835269,0.00219068,0.0162399,1728,540,16.0015,17.9277
511,484,15.9779,-17.2836,0.000713585,0.00119064,0.0024207,0.00338454,-0.00148031,0.834508,0.00287955,0.0195237,1735,540,15.9779,17.2836
518,484,15.9269,-16.6437,0.000359187,0.00112594,0.00302422,0.00379098,-0.00230586,0.848446,0.00355465,0.016155,1742,540,15.9269,16.6438
525,484,15.9037,-15.9839,1.68306e-06,0.00106905,0.00361668,0.00419121,-0.00312048,0.85865,0.00423646,0.0131945,1749,540,15.9037,15.984
532,484,15.9073,-15.3074,-0.000377028,0.00111323,0.00418566,0.00461957,-0.00388337,0.873485,0.0049153,0.0155452,1756,540,15.9073,15.3074
539,484,15.8356,-14.611,-0.000796035,0.0012243,0.00463761,0.00496048,-0.00453222,0.892634,0.00548247,0.038582,1763,540,15.8356,14.611
546,484,15.8312,-13.9232,0,0,0,0,0,0,0,-1,1770,540,15.8312,13.9232
553,484,12.4246,-8.96423,0,0,0,0,0,0,0,-1,1777,540,12.4246,8.96422
560,484,10.0549,-5.47931,0,0,0,0,0,0,0,-1,1784,540,10.055,5.47928
567,484,7.78223,-1.38312,0,0,0,0,0,0,0,-1,1791,540,7.78224,1.38311
574,484,5.74463,1.50922,0,0,0,0,0,0,0,-1,1798,540,5.74463,-1.50924
581,484,10.34,2.9491,0,0,0,0,0,0,0,-1,1805,540,10.34,-2.94912
588,484,10.6669,2.88568,0,0,0,0,0,0,0,-1,1812,540,10.6669,-2.88567
595,484,10.7233,1.04767,0,0,0,0,0,0,0,-1,1819,540,10.7233,-1.04766
602,484,0,0,0,0,0,0,0,0,0,-1,1826,540,0,0
609,484,0,0,0,0,0,0,0,0,0,-1,1833,540,0,0
616,484,0,0,0,0,0,0,0,0,0,-1,1840,540,0,0
623,484,0,0,0,0,0,0,0,0,0,-1,1847,540,0,0
630,484,0,0,0,0,0,0,0,0,0,-1,1854,540,0,0
637,484,0,0,0,0,0,0,0,0,0,-1,1861,540,0,0
644,484,0,0,0,0,0,0,0,0,0,-1,1868,540,0,0
651,484,0,0,0,0,0,0,0,0,0,-1,1875,540,0,0
658,484,0,0,0,0,0,0,0,0,0,-1,1882,540,0,0
665,484,0,0,0,0,0,0,0,0,0,-1,1889,540,0,0
672,484,0,0,0,0,0,0,0,0,0,-1,1896,540,0,0
679,484,0,0,0,0,0,0,0,0,0,-1,1903,540,0,0
686,484,0,0,0,0,0,0,0,0,0,-1,1910,540,0,0
693,484,0,0,0,0,0,0,0,0,0,-1,1917,540,0,0
700,484,0,0,0,0,0,0,0,0,0,-1,1924,540,0,0
707,484,0,0,0,0,0,0,0,0,0,-1,1931,540,0,0
714,484,0,0,0,0,0,0,0,0,0,-1,1938,540,0,0
721,484,0,0,0,0,0,0,0,0,0,-1,1945,540,0,0
728,484,0,0,0,0,0,0,0,0,0,-1,1952,540,0,0
735,484,0,0,0,0,0,0,0,0,0,-1,1959,540,0,0
742,484,0,0,0,0,0,0,0,0,0,-1,1966,540,0,0
749,484,0,0,0,0,0,0,0,0,0,-1,1973,540,0,0
756,484,0,0,0,0,0,0,0,0,0,-1,1980,540,0,0
763,484,0,0,0,0,0,0,0,0,0,-1,1987,540,0,0
770,484,0,0,0,0,0,0,0,0,0,-1,1994,540,0,0
777,484,0,0,0,0,0,0,0,0,0,-1,2001,540,0,0
784,484,0,0,0,0,0,0,0,0,0,-1,2008,540,0,0
791,484,0,0,0,0,0,0,0,0,0,-1,2015,540,0,0
798,484,0,0,0,0,0,0,0,0,0,-1,2022,540,0,0
805,484,0,0,0,0,0,0,0,0,0,-1,2029,540,0,0
812,484,0,0,0,0,0,0,0,0,0,-1,2036,540,0,0
-700,477,0,0,0,0,0,0,0,0,0,-1,524,547,0,0
-693,477,0,0,0,0,0,0,0,0,0,-1,531,547,0,0
-686,477,0,0,0,0,0,0,0,0,0,-1,538,547,0,0
-679,477,0,0,0,0,0,0,0,0,0,-1,545,547,0,0
-672,477,0,0,0,0,0,0,0,0,0,-1,552,547,0,0
-665,477,0,0,0,0,0,0,0,0,0,-1,559,547,0,0
-658,477,0,0,0,0,0,0,0,0,0,-1,566,547,0,0
-651,477,0,0,0,0,0,0,0,0,0,-1,573,547,0,0
-644,477,0,0,0,0,0,0,0,0,0,-1,580,547,0,0
-637,477,0,0,0,0,0,0,0,0,0,-1,587,547,0,0
-630,477,0,0,0,0,0,0,0,0,0,-1,594,547,0,0
-623,477,0,0,0,0,0,0,0,0,0,-1,601,547,0,0
-616,477,0,0,0,0,0,0,0,0,0,-1,608,547,0,0
-609,477,0,0,0,0,0,0,0,0,0,-1,615,547,0,0
-602,477,0,0,0,0,0,0,0,0,0,-1,622,547,0,0
-595,477,0,0,0,0,0,0,0,0,0,-1,629,547,0,0
-588,477,0,0,0,0,0,0,0,0,0,-1,636,547,0,0
-581,477,0,0,0,0,0,0,0,0,0,-1,643,547,0,0
-574,477,0,0,0,0,0,0,0,0,0,-1,650,547,0,0
-567,477,0,0,0,0,0,0,0,0,0,-1,657,547,0,0
-560,477,0,0,0,0,0,0,0,0,0,-1,664,547,0,0
-553,477,0,0,0,0,0,0,0,0,0,-1,671,547,0,0
-546,477,0,0,0,0,0,0,0,0,0,-1,678,547,0,0
-539,477,0,0,0,0,0,0,0,0,0,-1,685,547,0,0
-532,477,0,0,0,0,0,0,0,0,0,-1,692,547,0,0
-525,477,0,0,0,0,0,0,0,0,0,-1,699,547,0,0
-518,477,0,0,0,0,0,0,0,0,0,-1,706,547,0,0
-511,477,0,0,0,0,0,0,0,0,0,-1,713,547,0,0
-504,477,0,0,0,0,0,0,0,0,0,-1,720,547,0,0
-497,477,0,0,0,0,0,0,0,0,0,-1,727,547,0,0
-490,477,0,0,0,0,0,0,0,0,0,-1,734,547,0,0
-483,477,-7.73151,-0.224182,0,0,0,0,0,0,0,-1,741,547,-7.73152,0.224176
-476,477,-6.25806,-0.310547,0,0,0,0,0,0,0,-1,748,547,-6.25804,0.310549
-469,477,-7.26617,0.525085,0,0,0,0,0,0,0,-1,755,547,-7.2662,-0.525111
-462,477,-6.65143,1.06042,0,0,0,0,0,0,0,-1,762,547,-6.65143,-1.06043
-455,477,-5.31757,0.429016,0,0,0,0,0,0,0,-1,769,547,-5.31756,-0.42902
-448,477,-4.0697,0.273376,0,0,0,0,0,0,0,-1,776,547,-4.06971,-0.273363
-441,477,-2.47504,-4.76971,0,0,0,0,0,0,0,-1,783,547,-2.47505,4.76973
-434,477,-4.74133,-14.1339,0,0,0,0,0,0,0,-1,790,547,-4.74132,14.1339
-427,477,-4.95673,-14.4075,-0.00137751,0.0157229,-0.0054501,0.0173122,-0.00296682,-1.28705,0.0126469,0.0460456,797,547,-4.9567,14.4074
-420,477,-4.99084,-14.9343,-0.00130164,0.0136135,-0.00491368,0.0150867,-0.00277489,-1.2795,0.011099,0.0366036,804,547,-4.99085,14.9343
-413,477,-4.97656,-15.8475,-0.00109281,0.0116366,-0.00441372,0.0130172,-0.00247345,-1.26763,0.00960934,0.0209022,811,547,-4.97658,15.8475
-406,477,-5.04773,-16.5664,-0.00089226,0.00979603,-0.00379467,0.0110062,-0.00210246,-1.26207,0.00812944,0.0111762,818,547,-5.04771,16.5664
-399,477,-5.06268,-17.2131,-0.000684463,0.00804382,-0.00313342,0.00905221,-0.00169285,-1.25945,0.00667107,0.0191005,825,547,-5.06267,17.2131
-392,477,-5.10938,-17.8776,-0.000301177,0.00630406,-0.00251205,0.00715086,-0.00114798,-1.24566,0.00519238,0.0186835,832,547,-5.10938,17.8776
-385,477,-5.10083,-18.5163,0.00029739,0.00463251,-0.00201169,0.00542218,-0.00049228,-1.19674,0.00378955,0.0157154,839,547,-5.10082,18.5163
-378,477,-5.14172,-19.1331,0.000966466,0.00301739,-0.00150379,0.00381208,0.000171779,-1.08464,0.00248611,0.0135578,846,547,-5.1417,19.1331
-371,477,-5.17889,-19.72,0.00169525,0.00138925,-0.00104774,0.0026011,0.000483396,-0.712897,0.0015975,0.0132926,853,547,-5.17889,19.72
-364,477,-5.19373,-20.3022,0.00247441,-0.000234113,-0.00058111,0.00259382,-0.000353524,-0.202668,0.0018583,0.0132232,860,547,-5.19372,20.3022
-357,477,-5.22791,-20.9288,0.00335998,-0.00166511,-0.000202933,0.00336816,-0.00167329,-0.0402965,0.00296501,0.0107695,867,547,-5.22788,20.9288
-350,477,-5.25751,-21.5393,0.00427533,-0.00291273,9.29391e-05,0.00427654,-0.00291393,0.0129268,0.00417619,0.0105769,874,547,-5.25751,21.5393
-343,477,-5.16498,-22.1664,0.00502921,-0.00422774,0.000521889,0.00505854,-0.00425707,0.056141,0.005385,0.0221042,881,547,-5.16498,22.1664
-336,477,-5.05212,-22.7852,0.00584035,-0.00543021,0.000880428,0.00590872,-0.00549858,0.077491,0.00658742,0.0467356,888,547,-5.05211,22.7852
-329,477,-5.17804,-23.4261,0,0,0,0,0,0,0,-1,895,547,-5.17803,23.4261
-322,477,-2.04822,-12.0026,0,0,0,0,0,0,0,-1,902,547,-2.04819,12.0026
-315,477,-1.67358,-9.15253,0,0,0,0,0,0,0,-1,909,547,-1.67356,9.15253
-308,477,-1.30127,-6.55188,0,0,0,0,0,0,0,-1,916,547,-1.30128,6.55185
-301,477,-1.21185,-6.28351,0,0,0,0,0,0,0,-1,923,547,-1.21184,6.28352
-294,477,-0.352905,3.27142,0,0,0,0,0,0,0,-1,930,547,-0.35292,-3.27144
-287,477,3.54364,2.15399,0,0,0,0,0,0,0,-1,937,547,3.54362,-2.15396
-280,477,1.97308,-0.954163,0,0,0,0,0,0,0,-1,944,547,1.9731,0.954178
-273,477,2.11621,-3.76709,0,0,0,0,0,0,0,-1,951,547,2.11619,3.76706
-266,477,2.04669,-3.42389,0,0,0,0,0,0,0,-1,958,547,2.04671,3.42391
-259,477,-1.33478,-3.41205,0,0,0,0,0,0,0,-1,965,547,-1.3348,3.41206
-252,477,0.597168,-5.32922,0,0,0,0,0,0,0,-1,972,547,0.597144,5.32924
-245,477,8.2309,-8.48492,0,0,0,0,0,0,0,-1,979,547,8.23091,8.48494
-238,477,6.60938,-5.64063,0,0,0,0,0,0,0,-1,986,547,6.60938,5.64063
-231,477,4.71716,-2.52484,0,0,0,0,0,0,0,-1,993,547,4.71716,2.52483
-224,477,0,0,0,0,0,0,0,0,0,-1,1000,547,0,0
-217,477,0,0,0,0,0,0,0,0,0,-1,1007,547,0,0
-210,477,0,0,0,0,0,0,0,0,0,-1,1014,547,0,0
-203,477,0,0,0,0,0,0,0,0,0,-1,1021,547,0,0
-196,477,0,0,0,0,0,0,0,0,0,-1,1028,547,0,0
-189,477,0,0,0,0,0,0,0,0,0,-1,1035,547,0,0
-182,477,0,0,0,0,0,0,0,0,0,-1,1042,547,0,0
-175,477,0,0,0,0,0,0,0,0,0,-1,1049,547,0,0
-168,477,0,0,0,0,0,0,0,0,0,-1,1056,547,0,0
-161,477,0,0,0,0,0,0,0,0,0,-1,1063,547,0,0
-154,477,0,0,0,0,0,0,0,0,0,-1,1070,547,0,0
-147,477,0,0,0,0,0,0,0,0,0,-1,1077,547,0,0
-140,477,0,0,0,0,0,0,0,0,0,-1,1084,547,0,0
-133,477,0,0,0,0,0,0,0,0,0,-1,1091,547,0,0
-126,477,0,0,0,0,0,0,0,0,0,-1,1098,547,0,0
-119,477,0,0,0,0,0,0,0,0,0,-1,1105,547,0,0
-112,477,0,0,0,0,0,0,0,0,0,-1,1112,547,0,0
-105,477,0,0,0,0,0,0,0,0,0,-1,1119,547,0,0
-98,477,0,0,0,0,0,0,0,0,0,-1,1126,547,0,0
-91,477,0,0,0,0,0,0,0,0,0,-1,1133,547,0,0
-84,477,0,0,0,0,0,0,0,0,0,-1,1140,547,0,0
-77,477,0,0,0,0,0,0,0,0,0,-1,1147,547,0,0
-70,477,0,0,0,0,0,0,0,0,0,-1,1154,547,0,0
-63,477,0,0,0,0,0,0,0,0,0,-1,1161,547,0,0
-56,477,0,0,0,0,0,0,0,0,0,-1,1168,547,0,0
-49,477,0,0,0,0,0,0,0,0,0,-1,1175,547,0,0
-42,477,0,0,0,0,0,0,0,0,0,-1,1182,547,0,0
-35,477,0,0,0,0,0,0,0,0,0,-1,1189,547,0,0
-28,477,0,0,0,0,0,0,0,0,0,-1,1196,547,0,0
-21,477,0,0,0,0,0,0,0,0,0,-1,1203,547,0,0
-14,477,0,0,0,0,0,0,0,0,0,-1,1210,547,0,0
-7,477,0,0,0,0,0,0,0,0,0,-1,1217,547,0,0
0,477,0,0,0,0,0,0,0,0,0,-1,1224,547,0,0
7,477,0,0,0,0,0,0,0,0,0,-1,1231,547,0,0
14,477,0,0,0,0,0,0,0,0,0,-1,1238,547,0,0
21,477,0,0,0,0,0,0,0,0,0,-1,1245,547,0,0
28,477,0,0,0,0,0,0,0,0,0,-1,1252,547,0,0
35,477,0,0,0,0,0,0,0,0,0,-1,1259,547,0,0
42,477,0,0,0,0,0,0,0,0,0,-1,1266,547,0,0
49,477,0,0,0,0,0,0,0,0,0,-1,1273,547,0,0
56,477,0,0,0,0,0,0,0,0,0,-1,1280,547,0,0
63,477,0,0,0,0,0,0,0,0,0,-1,1287,547,0,0
70,477,0,0,0,0,0,0,0,0,0,-1,1294,547,0,0
77,477,0,0,0,0,0,0,0,0,0,-1,1301,547,0,0
84,477,0,0,0,0,0,0,0,0,0,-1,1308,547,0,0
91,477,0,0,0,0,0,0,0,0,0,-1,1315,547,0,0
98,477,0,0,0,0,0,0,0,0,0,-1,1322,547,0,0
105,477,0,0,0,0,0,0,0,0,0,-1,1329,547,0,0
112,477,0,0,0,0,0,0,0,0,0,-1,1336,547,0,0
119,477,0,0,0,0,0,0,0,0,0,-1,1343,547,0,0
126,477,0,0,0,0,0,0,0,0,0,-1,1350,547,0,0
133,477,0,0,0,0,0,0,0,0,0,-1,1357,547,0,0
140,477,0,0,0,0,0,0,0,0,0,-1,1364,547,0,0
147,477,0,0,0,0,0,0,0,0,0,-1,1371,547,0,0
154,477,0,0,0,0,0,0,0,0,0,-1,1378,547,0,0
161,477,0,0,0,0,0,0,0,0,0,-1,1385,547,0,0
168,477,0,0,0,0,0,0,0,0,0,-1,1392,547,0,0
175,477,0,0,0,0,0,0,0,0,0,-1,1399,547,0,0
182,477,0,0,0,0,0,0,0,0,0,-1,1406,547,0,0
189,477,0,0,0,0,0,0,0,0,0,-1,1413,547,0,0
196,477,0,0,0,0,0,0,0,0,0,-1,1420,547,0,0
203,477,0,0,0,0,0,0,0,0,0,-1,1427,547,0,0
210,477,0,0,0,0,0,0,0,0,0,-1,1434,547,0,0
217,477,0,0,0,0,0,0,0,0,0,-1,1441,547,0,0
224,477,0,0,0,0,0,0,0,0,0,-1,1448,547,0,0
231,477,0,0,0,0,0,0,0,0,0,-1,1455,547,0,0
238,477,0,0,0,0,0,0,0,0,0,-1,1462,547,0,0
245,477,0,0,0,0,0,0,0,0,0,-1,1469,547,0,0
252,477,0,0,0,0,0,0,0,0,0,-1,1476,547,0,0
259,477,0,0,0,0,0,0,0,0,0,-1,1483,547,0,0
266,477,0,0,0,0,0,0,0,0,0,-1,1490,547,0,0
273,477,0,0,0,0,0,0,0,0,0,-1,1497,547,0,0
280,477,0,0,0,0,0,0,0,0,0,-1,1504,547,0,0
287,477,0,0,0,0,0,0,0,0,0,-1,1511,547,0,0
294,477,0,0,0,0,0,0,0,0,0,-1,1518,547,0,0
301,477,0,0,0,0,0,0,0,0,0,-1,1525,547,0,0
308,477,0,0,0,0,0,0,0,0,0,-1,1532,547,0,0
315,477,0,0,0,0,0,0,0,0,0,-1,1539,547,0,0
322,477,0,0,0,0,0,0,0,0,0,-1,1546,547,0,0
329,477,0,0,0,0,0,0,0,0,0,-1,1553,547,0,0
336,477,0,0,0,0,0,0,0,0,0,-1,1560,547,0,0
343,477,0,0,0,0,0,0,0,0,0,-1,1567,547,0,0
350,477,1.7699,-3.32275,0,0,0,0,0,0,0,-1,1574,547,1.7699,3.32272
357,477,3.073,-4.83313,0,0,0,0,0,0,0,-1,1581,547,3.07303,4.83316
364,477,4.30127,-4.22864,0,0,0,0,0,0,0,-1,1588,547,4.30125,4.22865
371,477,4.57703,0.283264,0,0,0,0,0,0,0,-1,1595,547,4.57706,-0.283262
378,477,8.57947,1.05969,0,0,0,0,0,0,0,-1,1602,547,8.5795,-1.05972
385,477,12.3726,2.02356,0,0,0,0,0,0,0,-1,1609,547,12.3725,-2.02355
392,477,16.4678,2.76843,0,0,0,0,0,0,0,-1,1616,547,16.4678,-2.76845
399,477,8.00037,-2.29523,0,0,0,0,0,0,0,-1,1623,547,8.00031,2.2952
406,477,4.82495,2.7475,0,0,0,0,0,0,0,-1,1630,547,4.825,-2.74752
413,477,4.88171,-0.336426,0,0,0,0,0,0,0,-1,1637,547,4.88169,0.336398
420,477,3.34875,0.102722,0,0,0,0,0,0,0,-1,1644,547,3.34871,-0.1027
427,477,1.66772,-0.373108,0,0,0,0,0,0,0,-1,1651,547,1.66768,0.373104
434,477,3.76978,-2.30798,0,0,0,0,0,0,0,-1,1658,547,3.76974,2.30801
441,477,4.05444,-2.80402,0,0,0,0,0,0,0,-1,1665,547,4.05444,2.804
448,477,10.4247,-11.7421,0,0,0,0,0,0,0,-1,1672,547,10.4247,11.7421
455,477,13.3054,-16.8109,0,0,0,0,0,0,0,-1,1679,547,13.3054,16.8109
462,477,16.7074,-21.7902,0,0,0,0,0,0,0,-1,1686,547,16.7074,21.7902
469,477,16.6786,-21.2081,0,0,0,0,0,0,0,-1,1693,547,16.6786,21.2081
476,477,16.7078,-20.4758,0.00177564,0.00134126,-0.000793451,0.00238109,0.000735811,-0.651809,0.00140775,0.0243502,1700,547,16.7078,20.4757
483,477,16.7103,-19.8275,0.00169179,0.00129169,-0.000386392,0.00192685,0.00105663,-0.546526,0.0011142,0.0130098,1707,547,16.7103,19.8275
490,477,16.687,-19.2186,0.00146999,0.00136441,4.58176e-06,0.00147019,0.00136421,0.043289,0.00094678,0.012642,1714,547,16.687,19.2185
497,477,16.6624,-18.5544,0.00131654,0.00160558,0.000647259,0.00212425,0.00079786,0.895237,0.00123903,0.0134394,1721,547,16.6624,18.5544
504,477,16.6322,-17.9009,0.00113844,0.0014602,0.00121403,0.00252396,7.46826e-05,0.851273,0.00165831,0.017509,1728,547,16.6322,17.901
511,477,16.646,-17.3043,0.000874292,0.00134296,0.0017428,0.00286711,-0.000649858,0.852227,0.00216085,0.0221354,1735,547,16.646,17.3043
518,477,16.6136,-16.6514,0.000513535,0.00128522,0.00221245,0.00314523,-0.00134647,0.871728,0.00266169,0.0196966,1742,547,16.6136,16.6514
525,477,16.5482,-15.9378,0.000158206,0.00125513,0.00266091,0.00342351,-0.00201017,0.887034,0.00317232,0.0171074,1749,547,16.5482,15.9378
532,477,16.499,-15.2903,-0.000213919,0.00132191,0.00309154,0.00373949,-0.00263149,0.907131,0.00369678,0.0204321,1756,547,16.499,15.2903
539,477,16.4857,-14.5712,-0.000611344,0.0014546,0.00342952,0.00400334,-0.00316008,0.931677,0.00414535,0.0184484,1763,547,16.4857,14.5711
546,477,16.3861,-13.9824,-0.00100963,0.0018444,0.00374189,0.00442214,-0.00358738,0.967567,0.00463266,0.0412274,1770,547,16.3861,13.9824
553,477,16.4517,-13.1721,0,0,0,0,0,0,0,-1,1777,547,16.4516,13.1721
560,477,16.3442,-11.9187,0,0,0,0,0,0,0,-1,1784,547,16.3442,11.9187
567,477,13.9529,-8.70972,0,0,0,0,0,0,0,-1,1791,547,13.9529,8.7097
574,477,6.82593,-0.916992,0,0,0,0,0,0,0,-1,1798,547,6.82598,0.916977
581,477,9.29321,-0.557007,0,0,0,0,0,0,0,-1,1805,547,9.29324,0.55703
588,477,9.75195,0.422729,0,0,0,0,0,0,0,-1,1812,547,9.75198,-0.42273
595,477,9.89172,1.21326,0,0,0,0,0,0,0,-1,1819,547,9.89174,-1.21328
602,477,6.5271,-0.964417,0,0,0,0,0,0,0,-1,1826,547,6.52706,0.964427
609,477,0,0,0,0,0,0,0,0,0,-1,1833,547,0,0
616,477,0,0,0,0,0,0,0,0,0,-1,1840,547,0,0
623,477,0,0,0,0,0,0,0,0,0,-1,1847,547,0,0
630,477,0,0,0,0,0,0,0,0,0,-1,1854,547,0,0
637,477,0,0,0,0,0,0,0,0,0,-1,1861,547,0,0
644,477,0,0,0,0,0,0,0,0,0,-1,1868,547,0,0
651,477,0,0,0,0,0,0,0,0,0,-1,1875,547,0,0
658,477,0,0,0,0,0,0,0,0,0,-1,1882,547,0,0
665,477,0,0,0,0,0,0,0,0,0,-1,1889,547,0,0
672,477,0,0,0,0,0,0,0,0,0,-1,1896,547,0,0
679,477,0,0,0,0,0,0,0,0,0,-1,1903,547,0,0
686,477,0,0,0,0,0,0,0,0,0,-1,1910,547,0,0
693,477,0,0,0,0,0,0,0,0,0,-1,1917,547,0,0
700,477,0,0,0,0,0,0,0,0,0,-1,1924,547,0,0
707,477,0,0,0,0,0,0,0,0,0,-1,1931,547,0,0
714,477,0,0,0,0,0,0,0,0,0,-1,1938,547,0,0
721,477,0,0,0,0,0,0,0,0,0,-1,1945,547,0,0
728,477,0,0,0,0,0,0,0,0,0,-1,1952,547,0,0
735,477,0,0,0,0,0,0,0,0,0,-1,1959,547,0,0
742,477,0,0,0,0,0,0,0,0,0,-1,1966,547,0,0
749,477,0,0,0,0,0,0,0,0,0,-1,1973,547,0,0
756,477,0,0,0,0,0,0,0,0,0,-1,1980,547,0,0
763,477,0,0,0,0,0,0,0,0,0,-1,1987,547,0,0
770,477,0,0,0,0,0,0,0,0,0,-1,1994,547,0,0
777,477,0,0,0,0,0,0,0,0,0,-1,2001,547,0,0
784,477,0,0,0,0,0,0,0,0,0,-1,2008,547,0,0
791,477,0,0,0,0,0,0,0,0,0,-1,2015,547,0,0
798,477,0,0,0,0,0,0,0,0,0,-1,2022,547,0,0
805,477,0,0,0,0,0,0,0,0,0,-1,2029,547,0,0
812,477,0,0,0,0,0,0,0,0,0,-1,2036,547,0,0
-700,470,0,0,0,0,0,0,0,0,0,-1,524,554,0,0
-693,470,0,0,0,0,0,0,0,0,0,-1,531,554,0,0
-686,470,0,0,0,0,0,0,0,0,0,-1,538,554,0,0
-679,470,0,0,0,0,0,0,0,0,0,-1,545,554,0,0
-672,470,0,0,0,0,0,0,0,0,0,-1,552,554,0,0
-665,470,0,0,0,0,0,0,0,0,0,-1,559,554,0,0
-658,470,0,0,0,0,0,0,0,0,0,-1,566,554,0,0
-651,470,0,0,0,0,0,0,0,0,0,-1,573,554,0,0
-644,470,0,0,0,0,0,0,0,0,0,-1,580,554,0,0
-637,470,0,0,0,0,0,0,0,0,0,-1,587,554,0,0
-630,470,0,0,0,0,0,0,0,0,0,-1,594,554,0,0
-623,470,0,0,0,0,0,0,0,0,0,-1,601,554,0,0
-616,470,0,0,0,0,0,0,0,0,0,-1,608,554,0,0
-609,470,0,0,0,0,0,0,0,0,0,-1,615,554,0,0
-602,470,0,0,0,0,0,0,0,0,0,-1,622,554,0,0
-595,470,0,0,0,0,0,0,0,0,0,-1,629,554,0,0
-588,470,0,0,0,0,0,0,0,0,0,-1,636,554,0,0
-581,470,0,0,0,0,0,0,0,0,0,-1,643,554,0,0
-574,470,0,0,0,0,0,0,0,0,0,-1,650,554,0,0
-567,470,0,0,0,0,0,0,0,0,0,-1,657,554,0,0
-560,470,0,0,0,0,0,0,0,0,0,-1,664,554,0,0
-553,470,0,0,0,0,0,0,0,0,0,-1,671,554,0,0
-546,470,0,0,0,0,0,0,0,0,0,-1,678,554,0,0
-539,470,0,0,0,0,0,0,0,0,0,-1,685,554,0,0
-532,470,0,0,0,0,0,0,0,0,0,-1,692,554,0,0
-525,470,0,0,0,0,0,0,0,0,0,-1,699,554,0,0
-518,470,0,0,0,0,0,0,0,0,0,-1,706,554,0,0
-511,470,0,0,0,0,0,0,0,0,0,-1,713,554,0,0
-504,470,0,0,0,0,0,0,0,0,0,-1,720,554,0,0
-497,470,0,0,0,0,0,0,0,0,0,-1,727,554,0,0
-490,470,-9.13263,-1.03125,0,0,0,0,0,0,0,-1,734,554,-9.1326,1.03127
-483,470,-7.68677,-1.03955,0,0,0,0,0,0,0,-1,741,554,-7.68678,1.03958
-476,470,-6.17969,-1.03394,0,0,0,0,0,0,0,-1,748,554,-6.17971,1.03395
-469,470,-6.23016,-0.651855,0,0,0,0,0,0,0,-1,755,554,-6.23014,0.651829
-462,470,-4.87915,-1.03705,0,0,0,0,0,0,0,-1,762,554,-4.87914,1.03702
-455,470,-4.14777,-1.37079,0,0,0,0,0,0,0,-1,769,554,-4.14779,1.37078
-448,470,-2.9314,-5.74518,0,0,0,0,0,0,0,-1,776,554,-2.93137,5.74518
-441,470,-4.83759,-12.0768,0,0,0,0,0,0,0,-1,783,554,-4.83758,12.0768
-434,470,-5.57495,-13.8246,0,0,0,0,0,0,0,-1,790,554,-5.57494,13.8246
-427,470,-5.61761,-14.5195,-0.000988563,0.0117859,-0.00423696,0.0130635,-0.00226609,-1.27795,0.00955433,0.0239954,797,554,-5.61761,14.5195
-420,470,-5.61121,-15.2084,-0.000675031,0.0100065,-0.00378723,0.011213,-0.00188155,-1.26239,0.00817501,0.0159296,804,554,-5.6112,15.2084
-413,470,-5.63965,-15.9063,-0.000382806,0.00832704,-0.00331833,0.00944722,-0.00150298,-1.24524,0.00685429,0.0136051,811,554,-5.63966,15.9063
-406,470,-5.67297,-16.546,-0.00014993,0.00673691,-0.00274353,0.00769623,-0.00110925,-1.23442,0.00553772,0.0118779,818,554,-5.67299,16.546
-399,470,-5.68787,-17.1943,0.000132406,0.0052771,-0.0021655,0.00606725,-0.000657739,-1.22093,0.00428095,0.0154972,825,554,-5.68784,17.1943
-392,470,-5.70563,-17.8635,0.000573597,0.0038273,-0.00163549,0.00450728,-0.000106384,-1.17677,0.00304094,0.0145997,832,554,-5.70561,17.8635
-385,470,-5.70593,-18.4668,0.00117511,0.00246189,-0.00124408,0.0032191,0.0004179,-1.02404,0.00202122,0.0113635,839,554,-5.70594,18.4668
-378,470,-5.74591,-19.0715,0.00182552,0.00114941,-0.000833572,0.00238697,0.000587949,-0.592758,0.00143603,0.0157994,846,554,-5.7459,19.0715
-371,470,-5.78339,-19.6804,0.00256149,-0.000153175,-0.000484806,0.00264547,-0.000237157,-0.171527,0.00184778,0.0144131,853,554,-5.78336,19.6804
-364,470,-5.80347,-20.2717,0.00336789,-0.00142007,-0.000168836,0.00337384,-0.00142602,-0.0352044,0.00284624,0.0149952,860,554,-5.80345,20.2717
-357,470,-5.84949,-20.8854,0.00431159,-0.00258262,2.93995e-05,0.00431172,-0.00258275,0.00426428,0.00402203,0.0138356,867,554,-5.84949,20.8854
-350,470,-5.85535,-21.5237,0.00531224,-0.00363978,0.00013504,0.00531427,-0.00364181,0.0150803,0.00520076,0.0112298,874,554,-5.85532,21.5238
-343,470,-5.70123,-22.1271,0.00617897,-0.00481469,0.000378304,0.00619198,-0.00482769,0.0343569,0.00637844,0.0490852,881,554,-5.70124,22.1271
-336,470,-5.59875,-22.8118,0,0,0,0,0,0,0,-1,888,554,-5.59876,22.8118
-329,470,-2.78516,-12.3594,0,0,0,0,0,0,0,-1,895,554,-2.78517,12.3594
-322,470,-2.30829,-11.4527,0,0,0,0,0,0,0,-1,902,554,-2.30827,11.4527
-315,470,-1.04797,-8.29529,0,0,0,0,0,0,0,-1,909,554,-1.04797,8.29526
-308,470,-1.39368,-6.68152,0,0,0,0,0,0,0,-1,916,554,-1.39369,6.68149
-301,470,-0.0340576,3.34888,0,0,0,0,0,0,0,-1,923,554,-0.0340496,-3.3489
-294,470,-1.18378,3.22266,0,0,0,0,0,0,0,-1,930,554,-1.18376,-3.22268
-287,470,-2.15454,3.2204,0,0,0,0,0,0,0,-1,937,554,-2.15452,-3.22037
-280,470,-3.00537,3.099,0,0,0,0,0,0,0,-1,944,554,-3.00536,-3.09898
-273,470,-12.3932,3.65009,0,0,0,0,0,0,0,-1,951,554,-12.3932,-3.65011
-266,470,-11.5706,1.16028,0,0,0,0,0,0,0,-1,958,554,-11.5706,-1.16031
-259,470,-7.50415,-2.77167,0,0,0,0,0,0,0,-1,965,554,-7.50413,2.7717
-252,470,-0.371155,-5.87823,0,0,0,0,0,0,0,-1,972,554,-0.37114,5.87821
-245,470,1.33221,-6.81122,0,0,0,0,0,0,0,-1,979,554,1.33223,6.8112
-238,470,0,0,0,0,0,0,0,0,0,-1,986,554,0,0
-231,470,0,0,0,0,0,0,0,0,0,-1,993,554,0,0
-224,470,0,0,0,0,0,0,0,0,0,-1,1000,554,0,0
-217,470,0,0,0,0,0,0,0,0,0,-1,1007,554,0,0
-210,470,0,0,0,0,0,0,0,0,0,-1,1014,554,0,0
-203,470,0,0,0,0,0,0,0,0,0,-1,1021,554,0,0
-196,470,0,0,0,0,0,0,0,0,0,-1,1028,554,0,0
-189,470,0,0,0,0,0,0,0,0,0,-1,1035,554,0,0
-182,470,0,0,0,0,0,0,0,0,0,-1,1042,554,0,0
-175,470,0,0,0,0,0,0,0,0,0,-1,1049,554,0,0
-168,470,0,0,0,0,0,0,0,0,0,-1,1056,554,0,0
-161,470,0,0,0,0,0,0,0,0,0,-1,1063,554,0,0
-154,470,0,0,0,0,0,0,0,0,0,-1,1070,554,0,0
-147,470,0,0,0,0,0,0,0,0,0,-1,1077,554,0,0
-140,470,0,0,0,0,0,0,0,0,0,-1,1084,554,0,0
-133,470,0,0,0,0,0,0,0,0,0,-1,1091,554,0,0
-126,470,0,0,0,0,0,0,0,0,0,-1,1098,554,0,0
-119,470,0,0,0,0,0,0,0,0,0,-1,1105,554,0,0
-112,470,0,0,0,0,0,0,0,0,0,-1,1112,554,0,0
-105,470,0,0,0,0,0,0,0,0,0,-1,1119,554,0,0
-98,470,0,0,0,0,0,0,0,0,0,-1,1126,554,0,0
-91,470,0,0,0,0,0,0,0,0,0,-1,1133,554,0,0
-84,470,0,0,0,0,0,0,0,0,0,-1,1140,554,0,0
-77,470,0,0,0,0,0,0,0,0,0,-1,1147,554,0,0
-70,470,0,0,0,0,0,0,0,0,0,-1,1154,554,0,0
-63,470,0,0,0,0,0,0,0,0,0,-1,1161,554,0,0
-56,470,0,0,0,0,0,0,0,0,0,-1,1168,554,0,0
-49,470,0,0,0,0,0,0,0,0,0,-1,1175,554,0,0
-42,470,0,0,0,0,0,0,0,0,0,-1,1182,554,0,0
-35,470,0,0,0,0,0,0,0,0,0,-1,1189,554,0,0
-28,470,0,0,0,0,0,0,0,0,0,-1,1196,554,0,0
-21,470,0,0,0,0,0,0,0,0,0,-1,1203,554,0,0
-14,470,0,0,0,0,0,0,0,0,0,-1,1210,554,0,0
-7,470,0,0,0,0,0,0,0,0,0,-1,1217,554,0,0
0,470,0,0,0,0,0,0,0,0,0,-1,1224,554,0,0
7,470,0,0,0,0,0,0,0,0,0,-1,1231,554,0,0
14,470,0,0,0,0,0,0,0,0,0,-1,1238,554,0,0
21,470,0,0,0,0,0,0,0,0,0,-1,1245,554,0,0
28,470,0,0,0,0,0,0,0,0,0,-1,1252,554,0,0
35,470,0,0,0,0,0,0,0,0,0,-1,1259,554,0,0
42,470,0,0,0,0,0,0,0,0,0,-1,1266,554,0,0
49,470,0,0,0,0,0,0,0,0,0,-1,1273,554,0,0
56,470,0,0,0,0,0,0,0,0,0,-1,1280,554,0,0
63,470,0,0,0,0,0,0,0,0,0,-1,1287,554,0,0
70,470,0,0,0,0,0,0,0,0,0,-1,1294,554,0,0
77,470,0,0,0,0,0,0,0,0,0,-1,1301,554,0,0
84,470,0,0,0,0,0,0,0,0,0,-1,1308,554,0,0
91,470,0,0,0,0,0,0,0,0,0,-1,1315,554,0,0
98,470,0,0,0,0,0,0,0,0,0,-1,1322,554,0,0
105,470,0,0,0,0,0,0,0,0,0,-1,1329,554,0,0
112,470,0,0,0,0,0,0,0,0,0,-1,1336,554,0,0
119,470,0,0,0,0,0,0,0,0,0,-1,1343,554,0,0
126,470,0,0,0,0,0,0,0,0,0,-1,1350,554,0,0
133,470,0,0,0,0,0,0,0,0,0,-1,1357,554,0,0
140,470,0,0,0,0,0,0,0,0,0,-1,1364,554,0,0
147,470,0,0,0,0,0,0,0,0,0,-1,1371,554,0,0
154,470,0,0,0,0,0,0,0,0,0,-1,1378,554,0,0
161,470,0,0,0,0,0,0,0,0,0,-1,1385,554,0,0
168,470,0,0,0,0,0,0,0,0,0,-1,1392,554,0,0
175,470,0,0,0,0,0,0,0,0,0,-1,1399,554,0,0
182,470,0,0,0,0,0,0,0,0,0,-1,1406,554,0,0
189,470,0,0,0,0,0,0,0,0,0,-1,1413,554,0,0
196,470,0,0,0,0,0,0,0,0,0,-1,1420,554,0,0
203,470,0,0,0,0,0,0,0,0,0,-1,1427,554,0,0
210,470,0,0,0,0,0,0,0,0,0,-1,1434,554,0,0
217,470,0,0,0,0,0,0,0,0,0,-1,1441,554,0,0
224,470,0,0,0,0,0,0,0,0,0,-1,1448,554,0,0
231,470,0,0,0,0,0,0,0,0,0,-1,1455,554,0,0
238,470,0,0,0,0,0,0,0,0,0,-1,1462,554,0,0
245,470,0,0,0,0,0,0,0,0,0,-1,1469,554,0,0
252,470,0,0,0,0,0,0,0,0,0,-1,1476,554,0,0
259,470,0,0,0,0,0,0,0,0,0,-1,1483,554,0,0
266,470,0,0,0,0,0,0,0,0,0,-1,1490,554,0,0
273,470,0,0,0,0,0,0,0,0,0,-1,1497,554,0,0
280,470,0,0,0,0,0,0,0,0,0,-1,1504,554,0,0
287,470,0,0,0,0,0,0,0,0,0,-1,1511,554,0,0
294,470,0,0,0,0,0,0,0,0,0,-1,1518,554,0,0
301,470,0,0,0,0,0,0,0,0,0,-1,1525,554,0,0
308,470,0,0,0,0,0,0,0,0,0,-1,1532,554,0,0
315,470,0,0,0,0,0,0,0,0,0,-1,1539,554,0,0
322,470,0,0,0,0,0,0,0,0,0,-1,1546,554,0,0
329,470,0,0,0,0,0,0,0,0,0,-1,1553,554,0,0
336,470,0,0,0,0,0,0,0,0,0,-1,1560,554,0,0
343,470,0,0,0,0,0,0,0,0,0,-1,1567,554,0,0
350,470,0,0,0,0,0,0,0,0,0,-1,1574,554,0,0
357,470,0,0,0,0,0,0,0,0,0,-1,1581,554,0,0
364,470,1.33423,0.293335,0,0,0,0,0,0,0,-1,1588,554,1.33422,-0.293348
371,470,2.22498,-0.0305176,0,0,0,0,0,0,0,-1,1595,554,2.22494,0.0305046
378,470,6.27051,0.710083,0,0,0,0,0,0,0,-1,1602,554,6.27054,-0.710093
385,470,10.3657,1.47296,0,0,0,0,0,0,0,-1,1609,554,10.3657,-1.47299
392,470,15.3881,3.01935,0,0,0,0,0,0,0,-1,1616,554,15.388,-3.01937
399,470,18.4479,2.93793,0,0,0,0,0,0,0,-1,1623,554,18.4479,-2.93792
406,470,15.1896,1.36676,0,0,0,0,0,0,0,-1,1630,554,15.1896,-1.36679
413,470,6.55383,1.99207,0,0,0,0,0,0,0,-1,1637,554,6.5538,-1.99208
420,470,4.47095,0.845703,0,0,0,0,0,0,0,-1,1644,554,4.47098,-0.845718
427,470,3.51038,1.19684,0,0,0,0,0,0,0,-1,1651,554,3.51039,-1.19684
434,470,3.31775,-1.37427,0,0,0,0,0,0,0,-1,1658,554,3.31781,1.37426
441,470,2.55457,-2.05902,0,0,0,0,0,0,0,-1,1665,554,2.55461,2.05904
448,470,3.27258,-2.64032,0,0,0,0,0,0,0,-1,1672,554,3.27257,2.64029
455,470,10.3658,-9.82233,0,0,0,0,0,0,0,-1,1679,554,10.3659,9.82233
462,470,11.0651,-11.9958,0,0,0,0,0,0,0,-1,1686,554,11.0651,11.9958
469,470,15.4242,-19.0521,0,0,0,0,0,0,0,-1,1693,554,15.4242,19.0521
476,470,17.2968,-20.5244,0,0,0,0,0,0,0,-1,1700,554,17.2967,20.5244
483,470,17.3494,-19.8188,0.00234938,0.00127962,-0.000302461,0.00242898,0.00120003,-0.257323,0.0014024,0.0177929,1707,554,17.3494,19.8189
490,470,17.3158,-19.1998,0.00211286,0.00137395,1.36822e-06,0.00211287,0.00137395,0.00185165,0.00123809,0.0116,1714,554,17.3158,19.1998
497,470,17.3052,-18.5441,0.00190147,0.00169459,0.000580332,0.00238751,0.00120855,0.697201,0.00137846,0.0127186,1721,554,17.3052,18.5441
504,470,17.2841,-17.9012,0.00162361,0.00155962,0.000986422,0.00257856,0.000604674,0.769184,0.00155712,0.0185113,1728,554,17.284,17.9012
511,470,17.2927,-17.3001,0.00126283,0.00146465,0.00132499,0.00269257,3.49103e-05,0.823405,0.00178353,0.0255742,1735,554,17.2927,17.3001
518,470,17.2917,-16.6648,0.000822258,0.00142869,0.00160436,0.00275823,-0.000507288,0.878794,0.00202917,0.026825,1742,554,17.2917,16.6648
525,470,17.2432,-15.9273,0.000383083,0.00144241,0.00185689,0.0028437,-0.00101821,0.92433,0.00231122,0.0167007,1749,554,17.2432,15.9273
532,470,17.1658,-15.2098,-6.44009e-05,0.00154433,0.00210285,0.00299141,-0.00151147,0.968069,0.00264613,0.0146522,1756,554,17.1658,15.2099
539,470,17.124,-14.5571,-0.000508022,0.00170984,0.00229064,0.00314586,-0.00194404,1.01083,0.00296583,0.0173606,1763,554,17.124,14.5571
546,470,17.0874,-13.8971,-0.000912815,0.00209486,0.00246464,0.00347822,-0.00229618,1.05933,0.00335706,0.0155472,1770,554,17.0874,13.8971
553,470,17.1206,-13.1901,-0.00125195,0.00260853,0.00269095,0.00398994,-0.00263336,1.09652,0.0038506,0.0256991,1777,554,17.1206,13.1901
560,470,17.0961,-12.4493,-0.0014585,0.00331787,0.00295224,0.00472695,-0.00286757,1.12548,0.00442829,0.0452632,1784,554,17.0961,12.4493
567,470,17.0848,-11.5369,0,0,0,0,0,0,0,-1,1791,554,17.0848,11.5368
574,470,14.2793,-8.07147,0,0,0,0,0,0,0,-1,1798,554,14.2793,8.07147
581,470,8.24646,-4.06317,0,0,0,0,0,0,0,-1,1805,554,8.24648,4.06318
588,470,11.1803,1.74927,0,0,0,0,0,0,0,-1,1812,554,11.1803,-1.74926
595,470,4.72192,3.44116,0,0,0,0,0,0,0,-1,1819,554,4.72191,-3.44116
602,470,14.4307,2.76141,0,0,0,0,0,0,0,-1,1826,554,14.4306,-2.76139
609,470,20.9181,4.41058,0,0,0,0,0,0,0,-1,1833,554,20.9181,-4.4106
616,470,0,0,0,0,0,0,0,0,0,-1,1840,554,0,0
623,470,0,0,0,0,0,0,0,0,0,-1,1847,554,0,0
630,470,0,0,0,0,0,0,0,0,0,-1,1854,554,0,0
637,470,0,0,0,0,0,0,0,0,0,-1,1861,554,0,0
644,470,0,0,0,0,0,0,0,0,0,-1,1868,554,0,0
651,470,0,0,0,0,0,0,0,0,0,-1,1875,554,0,0
658,470,0,0,0,0,0,0,0,0,0,-1,1882,554,0,0
665,470,0,0,0,0,0,0,0,0,0,-1,1889,554,0,0
672,470,0,0,0,0,0,0,0,0,0,-1,1896,554,0,0
679,470,0,0,0,0,0,0,0,0,0,-1,1903,554,0,0
686,470,0,0,0,0,0,0,0,0,0,-1,1910,554,0,0
693,470,0,0,0,0,0,0,0,0,0,-1,1917,554,0,0
700,470,0,0,0,0,0,0,0,0,0,-1,1924,554,0,0
707,470,0,0,0,0,0,0,0,0,0,-1,1931,554,0,0
714,470,0,0,0,0,0,0,0,0,0,-1,1938,554,0,0
721,470,0,0,0,0,0,0,0,0,0,-1,1945,554,0,0
728,470,0,0,0,0,0,0,0,0,0,-1,1952,554,0,0
735,470,0,0,0,0,0,0,0,0,0,-1,1959,554,0,0
742,470,0,0,0,0,0,0,0,0,0,-1,1966,554,0,0
749,470,0,0,0,0,0,0,0,0,0,-1,1973,554,0,0
756,470,0,0,0,0,0,0,0,0,0,-1,1980,554,0,0
763,470,0,0,0,0,0,0,0,0,0,-1,1987,554,0,0
770,470,0,0,0,0,0,0,0,0,0,-1,1994,554,0,0
777,470,0,0,0,0,0,0,0,0,0,-1,2001,554,0,0
784,470,0,0,0,0,0,0,0,0,0,-1,2008,554,0,0
791,470,0,0,0,0,0,0,0,0,0,-1,2015,554,0,0
798,470,0,0,0,0,0,0,0,0,0,-1,2022,554,0,0
805,470,0,0,0,0,0,0,0,0,0,-1,2029,554,0,0
812,470,0,0,0,0,0,0,0,0,0,-1,2036,554,0,0
-700,463,0,0,0,0,0,0,0,0,0,-1,524,561,0,0
-693,463,0,0,0,0,0,0,0,0,0,-1,531,561,0,0
-686,463,0,0,0,0,0,0,0,0,0,-1,538,561,0,0
-679,463,0,0,0,0,0,0,0,0,0,-1,545,561,0,0
-672,463,0,0,0,0,0,0,0,0,0,-1,552,561,0,0
-665,463,0,0,0,0,0,0,0,0,0,-1,559,561,0,0
-658,463,0,0,0,0,0,0,0,0,0,-1,566,561,0,0
-651,463,0,0,0,0,0,0,0,0,0,-1,573,561,0,0
-644,463,0,0,0,0,0,0,0,0,0,-1,580,561,0,0
-637,463,0,0,0,0,0,0,0,0,0,-1,587,561,0,0
-630,463,0,0,0,0,0,0,0,0,0,-1,594,561,0,0
-623,463,0,0,0,0,0,0,0,0,0,-1,601,561,0,0
-616,463,0,0,0,0,0,0,0,0,0,-1,608,561,0,0
-609,463,0,0,0,0,0,0,0,0,0,-1,615,561,0,0
-602,463,0,0,0,0,0,0,0,0,0,-1,622,561,0,0
-595,463,0,0,0,0,0,0,0,0,0,-1,629,561,0,0
-588,463,0,0,0,0,0,0,0,0,0,-1,636,561,0,0
-581,463,0,0,0,0,0,0,0,0,0,-1,643,561,0,0
-574,463,0,0,0,0,0,0,0,0,0,-1,650,561,0,0
-567,463,0,0,0,0,0,0,0,0,0,-1,657,561,0,0
-560,463,0,0,0,0,0,0,0,0,0,-1,664,561,0,0
-553,463,0,0,0,0,0,0,0,0,0,-1,671,561,0,0
-546,463,0,0,0,0,0,0,0,0,0,-1,678,561,0,0
-539,463,0,0,0,0,0,0,0,0,0,-1,685,561,0,0
-532,463,0,0,0,0,0,0,0,0,0,-1,692,561,0,0
-525,463,0,0,0,0,0,0,0,0,0,-1,699,561,0,0
-518,463,0,0,0,0,0,0,0,0,0,-1,706,561,0,0
-511,463,0,0,0,0,0,0,0,0,0,-1,713,561,0,0
-504,463,0,0,0,0,0,0,0,0,0,-1,720,561,0,0
-497,463,-9.81451,-1.67126,0,0,0,0,0,0,0,-1,727,561,-9.81452,1.67127
-490,463,-8.57043,-1.58942,0,0,0,0,0,0,0,-1,734,561,-8.57045,1.58944
-483,463,-7.29224,-1.7226,0,0,0,0,0,0,0,-1,741,561,-7.29226,1.72261
-476,463,-5.77704,-1.7312,0,0,0,0,0,0,0,-1,748,561,-5.77703,1.73121
-469,463,-5.14545,-2.138,0,0,0,0,0,0,0,-1,755,561,-5.14546,2.13799
-462,463,-3.13672,-3.07977,0,0,0,0,0,0,0,-1,762,561,-3.13672,3.07974
-455,463,-2.91406,-5.61798,0,0,0,0,0,0,0,-1,769,561,-2.91406,5.61801
-448,463,-4.00177,-8.54681,0,0,0,0,0,0,0,-1,776,561,-4.00175,8.54683
-441,463,-6.28741,-13.0206,0,0,0,0,0,0,0,-1,783,561,-6.28743,13.0205
-434,463,-6.18848,-13.8969,-0.000939276,0.0103729,-0.00357722,0.0114092,-0.00197556,-1.28883,0.008343,0.0302488,790,561,-6.18846,13.8969
-427,463,-6.21851,-14.5628,-0.000481766,0.00864233,-0.00317909,0.00964075,-0.00148019,-1.26649,0.00697313,0.0115847,797,561,-6.21851,14.5628
-420,463,-6.22998,-15.2153,-0.000119629,0.00705292,-0.00277863,0.0080034,-0.00107011,-1.24121,0.00572573,0.00991161,804,561,-6.23,15.2154
-413,463,-6.26147,-15.8848,0.000184107,0.00555134,-0.00234156,0.00642928,-0.000693833,-1.21208,0.00453519,0.00971578,811,561,-6.2615,15.8848
-406,463,-6.30347,-16.5318,0.0004184,0.0041446,-0.00181748,0.00488426,-0.000321261,-1.18429,0.00336837,0.00980257,818,561,-6.30349,16.5318
-399,463,-6.31744,-17.1627,0.000738068,0.00293193,-0.0013324,0.00356085,0.000109149,-1.12978,0.00233837,0.0111699,825,561,-6.31742,17.1627
-392,463,-6.33661,-17.8043,0.00120975,0.00178077,-0.00091438,0.00245318,0.000537343,-0.936723,0.00148901,0.0109445,832,561,-6.33661,17.8043
-385,463,-6.35962,-18.4474,0.00180144,0.000778409,-0.00065925,0.00212435,0.000455504,-0.45546,0.00129146,0.0112795,839,561,-6.35964,18.4475
-378,463,-6.3985,-19.0547,0.00243982,-0.000134389,-0.000392624,0.00249837,-0.000192941,-0.148039,0.00173348,0.0127646,846,561,-6.39851,19.0548
-371,463,-6.42609,-19.6851,0.00321031,-0.000962307,-0.000207356,0.00322059,-0.000972586,-0.0495318,0.00253425,0.0132971,853,561,-6.42607,19.685
-364,463,-6.42474,-20.267,0.00409527,-0.00168027,-0.000112672,0.00409747,-0.00168246,-0.0194985,0.00343277,0.0150189,860,561,-6.42474,20.267
-357,463,-6.47369,-20.8486,0.00515793,-0.00238586,-0.000168948,0.00516171,-0.00238964,-0.0223807,0.00445662,0.0199461,867,561,-6.47371,20.8486
-350,463,-6.38324,-21.5176,0.00632206,-0.00303047,-0.000333022,0.0063339,-0.00304231,-0.0355476,0.00552343,0.0422982,874,561,-6.38324,21.5176
-343,463,-6.10339,-22.0313,0,0,0,0,0,0,0,-1,881,561,-6.1034,22.0313
-336,463,-2.94928,-12.2127,0,0,0,0,0,0,0,-1,888,561,-2.94925,12.2127
-329,463,-2.64307,-12.7037,0,0,0,0,0,0,0,-1,895,561,-2.64307,12.7038
-322,463,-1.82898,-9.11957,0,0,0,0,0,0,0,-1,902,561,-1.829,9.11957
-315,463,-0.944763,-5.96234,0,0,0,0,0,0,0,-1,909,561,-0.94479,5.96237
-308,463,-1.1535,-3.17889,0,0,0,0,0,0,0,-1,916,561,-1.15352,3.17889
-301,463,-1.50366,-3.15338,0,0,0,0,0,0,0,-1,923,561,-1.50364,3.15341
-294,463,-2.35889,-3.93463,0,0,0,0,0,0,0,-1,930,561,-2.35886,3.93465
-287,463,-2.80322,2.73999,0,0,0,0,0,0,0,-1,937,561,-2.80322,-2.74
-280,463,-12.864,5.25146,0,0,0,0,0,0,0,-1,944,561,-12.864,-5.25149
-273,463,-12.4598,3.39178,0,0,0,0,0,0,0,-1,951,561,-12.4598,-3.3918
-266,463,-8.78101,-3.7356,0,0,0,0,0,0,0,-1,958,561,-8.78098,3.73562
-259,463,-6.23285,-5.68842,0,0,0,0,0,0,0,-1,965,561,-6.23288,5.68843
-252,463,0,0,0,0,0,0,0,0,0,-1,972,561,0,0
-245,463,0,0,0,0,0,0,0,0,0,-1,979,561,0,0
-238,463,0,0,0,0,0,0,0,0,0,-1,986,561,0,0
-231,463,0,0,0,0,0,0,0,0,0,-1,993,561,0,0
-224,463,0,0,0,0,0,0,0,0,0,-1,1000,561,0,0
-217,463,0,0,0,0,0,0,0,0,0,-1,1007,561,0,0
-210,463,0,0,0,0,0,0,0,0,0,-1,1014,561,0,0
-203,463,0,0,0,0,0,0,0,0,0,-1,1021,561,0,0
-196,463,0,0,0,0,0,0,0,0,0,-1,1028,561,0,0
-189,463,0,0,0,0,0,0,0,0,0,-1,1035,561,0,0
-182,463,0,0,0,0,0,0,0,0,0,-1,1042,561,0,0
-175,463,0,0,0,0,0,0,0,0,0,-1,1049,561,0,0
-168,463,0,0,0,0,0,0,0,0,0,-1,1056,561,0,0
-161,463,0,0,0,0,0,0,0,0,0,-1,1063,561,0,0
-154,463,0,0,0,0,0,0,0,0,0,-1,1070,561,0,0
-147,463,0,0,0,0,0,0,0,0,0,-1,1077,561,0,0
-140,463,0,0,0,0,0,0,0,0,0,-1,1084,561,0,0
-133,463,0,0,0,0,0,0,0,0,0,-1,1091,561,0,0
-126,463,0,0,0,0,0,0,0,0,0,-1,1098,561,0,0
-119,463,0,0,0,0,0,0,0,0,0,-1,1105,561,0,0
-112,463,0,0,0,0,0,0,0,0,0,-1,1112,561,0,0
-105,463,0,0,0,0,0,0,0,0,0,-1,1119,561,0,0
-98,463,0,0,0,0,0,0,0,0,0,-1,1126,561,0,0
-91,463,0,0,0,0,0,0,0,0,0,-1,1133,561,0,0
-84,463,0,0,0,0,0,0,0,0,0,-1,1140,561,0,0
-77,463,0,0,0,0,0,0,0,0,0,-1,1147,561,0,0
-70,463,0,0,0,0,0,0,0,0,0,-1,1154,561,0,0
-63,463,0,0,0,0,0,0,0,0,0,-1,1161,561,0,0
-56,463,0,0,0,0,0,0,0,0,0,-1,1168,561,0,0
-49,463,0,0,0,0,0,0,0,0,0,-1,1175,561,0,0
-42,463,0,0,0,0,0,0,0,0,0,-1,1182,561,0,0
-35,463,0,0,0,0,0,0,0,0,0,-1,1189,561,0,0
-28,463,0,0,0,0,0,0,0,0,0,-1,1196,561,0,0
-21,463,0,0,0,0,0,0,0,0,0,-1,1203,561,0,0
-14,463,0,0,0,0,0,0,0,0,0,-1,1210,561,0,0
-7,463,0,0,0,0,0,0,0,0,0,-1,1217,561,0,0
0,463,0,0,0,0,0,0,0,0,0,-1,1224,561,0,0
7,463,0,0,0,0,0,0,0,0,0,-1,1231,561,0,0
14,463,0,0,0,0,0,0,0,0,0,-1,1238,561,0,0
21,463,0,0,0,0,0,0,0,0,0,-1,1245,561,0,0
28,463,0,0,0,0,0,0,0,0,0,-1,1252,561,0,0
35,463,0,0,0,0,0,0,0,0,0,-1,1259,561,0,0
42,463,0,0,0,0,0,0,0,0,0,-1,1266,561,0,0
49,463,0,0,0,0,0,0,0,0,0,-1,1273,561,0,0
56,463,0,0,0,0,0,0,0,0,0,-1,1280,561,0,0
63,463,0,0,0,0,0,0,0,0,0,-1,1287,561,0,0
70,463,0,0,0,0,0,0,0,0,0,-1,1294,561,0,0
77,463,0,0,0,0,0,0,0,0,0,-1,1301,561,0,0
84,463,0,0,0,0,0,0,0,0,0,-1,1308,561,0,0
91,463,0,0,0,0,0,0,0,0,0,-1,1315,561,0,0
98,463,0,0,0,0,0,0,0,0,0,-1,1322,561,0,0
105,463,0,0,0,0,0,0,0,0,0,-1,1329,561,0,0
112,463,0,0,0,0,0,0,0,0,0,-1,1336,561,0,0
119,463,0,0,0,0,0,0,0,0,0,-1,1343,561,0,0
126,463,0,0,0,0,0,0,0,0,0,-1,1350,561,0,0
133,463,0,0,0,0,0,0,0,0,0,-1,1357,561,0,0
140,463,0,0,0,0,0,0,0,0,0,-1,1364,561,0,0
147,463,0,0,0,0,0,0,0,0,0,-1,1371,561,0,0
154,463,0,0,0,0,0,0,0,0,0,-1,1378,561,0,0
161,463,0,0,0,0,0,0,0,0,0,-1,1385,561,0,0
168,463,0,0,0,0,0,0,0,0,0,-1,1392,561,0,0
175,463,0,0,0,0,0,0,0,0,0,-1,1399,561,0,0
182,463,0,0,0,0,0,0,0,0,0,-1,1406,561,0,0
189,463,0,0,0,0,0,0,0,0,0,-1,1413,561,0,0
196,463,0,0,0,0,0,0,0,0,0,-1,1420,561,0,0
203,463,0,0,0,0,0,0,0,0,0,-1,1427,561,0,0
210,463,0,0,0,0,0,0,0,0,0,-1,1434,561,0,0
217,463,0,0,0,0,0,0,0,0,0,-1,1441,561,0,0
224,463,0,0,0,0,0,0,0,0,0,-1,1448,561,0,0
231,463,0,0,0,0,0,0,0,0,0,-1,1455,561,0,0
238,463,0,0,0,0,0,0,0,0,0,-1,1462,561,0,0
245,463,0,0,0,0,0,0,0,0,0,-1,1469,561,0,0
252,463,0,0,0,0,0,0,0,0,0,-1,1476,561,0,0
259,463,0,0,0,0,0,0,0,0,0,-1,1483,561,0,0
266,463,0,0,0,0,0,0,0,0,0,-1,1490,561,0,0
273,463,0,0,0,0,0,0,0,0,0,-1,1497,561,0,0
280,463,0,0,0,0,0,0,0,0,0,-1,1504,561,0,0
287,463,0,0,0,0,0,0,0,0,0,-1,1511,561,0,0
294,463,0,0,0,0,0,0,0,0,0,-1,1518,561,0,0
301,463,0,0,0,0,0,0,0,0,0,-1,1525,561,0,0
308,463,0,0,0,0,0,0,0,0,0,-1,1532,561,0,0
315,463,0,0,0,0,0,0,0,0,0,-1,1539,561,0,0
322,463,0,0,0,0,0,0,0,0,0,-1,1546,561,0,0
329,463,0,0,0,0,0,0,0,0,0,-1,1553,561,0,0
336,463,0,0,0,0,0,0,0,0,0,-1,1560,561,0,0
343,463,0,0,0,0,0,0,0,0,0,-1,1567,561,0,0
350,463,0,0,0,0,0,0,0,0,0,-1,1574,561,0,0
357,463,0,0,0,0,0,0,0,0,0,-1,1581,561,0,0
364,463,0,0,0,0,0,0,0,0,0,-1,1588,561,0,0
371,463,1.75842,0.152588,0,0,0,0,0,0,0,-1,1595,561,1.75844,-0.152558
378,463,4.58813,-0.0444336,0,0,0,0,0,0,0,-1,1602,561,4.58809,0.0444505
385,463,8.88574,1.65057,0,0,0,0,0,0,0,-1,1609,561,8.88575,-1.65055
392,463,14.0912,2.50513,0,0,0,0,0,0,0,-1,1616,561,14.0912,-2.5051
399,463,21.4769,2.7002,0,0,0,0,0,0,0,-1,1623,561,21.477,-2.70017
406,463,26.2987,4.32318,0,0,0,0,0,0,0,-1,1630,561,26.2987,-4.3232
413,463,26.5011,2.65222,0,0,0,0,0,0,0,-1,1637,561,26.5011,-2.65224
420,463,8.849,2.26611,0,0,0,0,0,0,0,-1,1644,561,8.84899,-2.26613
427,463,5.12207,1.69183,0,0,0,0,0,0,0,-1,1651,561,5.12206,-1.69184
434,463,4.59814,1.81995,0,0,0,0,0,0,0,-1,1658,561,4.59812,-1.81994
441,463,1.76392,-5.99225,0,0,0,0,0,0,0,-1,1665,561,1.7639,5.99225
448,463,2.49939,-4.30536,0,0,0,0,0,0,0,-1,1672,561,2.49941,4.30536
455,463,4.40295,-3.02557,0,0,0,0,0,0,0,-1,1679,561,4.40299,3.02558
462,463,5.38293,-4.06445,0,0,0,0,0,0,0,-1,1686,561,5.38289,4.06444
469,463,5.94373,-4.50647,0,0,0,0,0,0,0,-1,1693,561,5.94368,4.50646
476,463,15.2559,-17.3189,0,0,0,0,0,0,0,-1,1700,561,15.2558,17.3189
483,463,17.9878,-19.8783,0,0,0,0,0,0,0,-1,1707,561,17.9878,19.8783
490,463,18.0035,-19.2212,0.00296487,0.00144099,0.000423967,0.00307488,0.00133098,0.253883,0.00178061,0.0270443,1714,561,18.0036,19.2212
497,463,17.9402,-18.5117,0.00272067,0.00181766,0.000919905,0.0032939,0.00124443,0.55726,0.00192057,0.0140054,1721,561,17.9402,18.5116
504,463,17.9274,-17.8608,0.00234727,0.00165213,0.00113734,0.00318896,0.00081044,0.637106,0.00191391,0.0159087,1728,561,17.9274,17.8608
511,463,17.907,-17.236,0.00189544,0.00151987,0.00127482,0.00299624,0.000419075,0.712272,0.00187349,0.0224225,1735,561,17.9069,17.236
518,463,17.9055,-16.5805,0.00138654,0.00143661,0.0013806,0.0027924,3.0744e-05,0.794463,0.00185144,0.0250065,1742,561,17.9055,16.5805
525,463,17.8862,-15.9003,0.000870523,0.00143694,0.00146741,0.00264822,-0.000340756,0.880726,0.00188934,0.0203882,1749,561,17.8863,15.9003
532,463,17.8872,-15.1962,0.000365021,0.00152431,0.00156977,0.00261803,-0.000728702,0.96226,0.00203228,0.0177324,1756,561,17.8873,15.1962
539,463,17.8164,-14.5024,-0.000105811,0.00167427,0.00166074,0.00266844,-0.00109998,1.03139,0.00223763,0.017756,1763,561,17.8165,14.5024
546,463,17.7657,-13.8705,-0.000496891,0.00202381,0.00177118,0.0029373,-0.00141037,1.09463,0.00256121,0.0137732,1770,561,17.7658,13.8705
553,463,17.7675,-13.1833,-0.000829315,0.00247828,0.00194996,0.00338132,-0.00173235,1.1371,0.00300311,0.0111993,1777,561,17.7675,13.1833
560,463,17.7767,-12.4028,-0.0010709,0.00307123,0.00219666,0.00401921,-0.00201888,1.16339,0.00354929,0.0216159,1784,561,17.7767,12.4028
567,463,17.6183,-11.7296,-0.00108236,0.00401902,0.00269922,0.00518206,-0.0022454,1.16396,0.00439855,0.0323607,1791,561,17.6182,11.7296
574,463,17.7028,-11.0519,0,0,0,0,0,0,0,-1,1798,561,17.7028,11.052
581,463,9.4939,-3.88245,0,0,0,0,0,0,0,-1,1805,561,9.49392,3.88245
588,463,1.97424,2.16016,0,0,0,0,0,0,0,-1,1812,561,1.97422,-2.16013
595,463,9.98657,2.99854,0,0,0,0,0,0,0,-1,1819,561,9.98662,-2.99856
602,463,17.2202,4.91302,0,0,0,0,0,0,0,-1,1826,561,17.2202,-4.91305
609,463,17.96,4.03131,0,0,0,0,0,0,0,-1,1833,561,17.96,-4.03132
616,463,20.8352,3.15131,0,0,0,0,0,0,0,-1,1840,561,20.8352,-3.1513
623,463,0,0,0,0,0,0,0,0,0,-1,1847,561,0,0
630,463,0,0,0,0,0,0,0,0,0,-1,1854,561,0,0
637,463,0,0,0,0,0,0,0,0,0,-1,1861,561,0,0
644,463,0,0,0,0,0,0,0,0,0,-1,1868,561,0,0
651,463,0,0,0,0,0,0,0,0,0,-1,1875,561,0,0
658,463,0,0,0,0,0,0,0,0,0,-1,1882,561,0,0
665,463,0,0,0,0,0,0,0,0,0,-1,1889,561,0,0
672,463,0,0,0,0,0,0,0,0,0,-1,1896,561,0,0
679,463,0,0,0,0,0,0,0,0,0,-1,1903,561,0,0
686,463,0,0,0,0,0,0,0,0,0,-1,1910,561,0,0
693,463,0,0,0,0,0,0,0,0,0,-1,1917,561,0,0
700,463,0,0,0,0,0,0,0,0,0,-1,1924,561,0,0
707,463,0,0,0,0,0,0,0,0,0,-1,1931,561,0,0
714,463,0,0,0,0,0,0,0,0,0,-1,1938,561,0,0
721,463,0,0,0,0,0,0,0,0,0,-1,1945,561,0,0
728,463,0,0,0,0,0,0,0,0,0,-1,1952,561,0,0
735,463,0,0,0,0,0,0,0,0,0,-1,1959,561,0,0
742,463,0,0,0,0,0,0,0,0,0,-1,1966,561,0,0
749,463,0,0,0,0,0,0,0,0,0,-1,1973,561,0,0
756,463,0,0,0,0,0,0,0,0,0,-1,1980,561,0,0
763,463,0,0,0,0,0,0,0,0,0,-1,1987,561,0,0
770,463,0,0,0,0,0,0,0,0,0,-1,1994,561,0,0
777,463,0,0,0,0,0,0,0,0,0,-1,2001,561,0,0
784,463,0,0,0,0,0,0,0,0,0,-1,2008,561,0,0
791,463,0,0,0,0,0,0,0,0,0,-1,2015,561,0,0
798,463,0,0,0,0,0,0,0,0,0,-1,2022,561,0,0
805,463,0,0,0,0,0,0,0,0,0,-1,2029,561,0,0
812,463,0,0,0,0,0,0,0,0,0,-1,2036,561,0,0
-700,456,0,0,0,0,0,0,0,0,0,-1,524,568,0,0
-693,456,0,0,0,0,0,0,0,0,0,-1,531,568,0,0
-686,456,0,0,0,0,0,0,0,0,0,-1,538,568,0,0
-679,456,0,0,0,0,0,0,0,0,0,-1,545,568,0,0
-672,456,0,0,0,0,0,0,0,0,0,-1,552,568,0,0
-665,456,0,0,0,0,0,0,0,0,0,-1,559,568,0,0
-658,456,0,0,0,0,0,0,0,0,0,-1,566,568,0,0
-651,456,0,0,0,0,0,0,0,0,0,-1,573,568,0,0
-644,456,0,0,0,0,0,0,0,0,0,-1,580,568,0,0
-637,456,0,0,0,0,0,0,0,0,0,-1,587,568,0,0
-630,456,0,0,0,0,0,0,0,0,0,-1,594,568,0,0
-623,456,0,0,0,0,0,0,0,0,0,-1,601,568,0,0
-616,456,0,0,0,0,0,0,0,0,0,-1,608,568,0,0
-609,456,0,0,0,0,0,0,0,0,0,-1,615,568,0,0
-602,456,0,0,0,0,0,0,0,0,0,-1,622,568,0,0
-595,456,0,0,0,0,0,0,0,0,0,-1,629,568,0,0
-588,456,0,0,0,0,0,0,0,0,0,-1,636,568,0,0
-581,456,0,0,0,0,0,0,0,0,0,-1,643,568,0,0
-574,456,0,0,0,0,0,0,0,0,0,-1,650,568,0,0
-567,456,0,0,0,0,0,0,0,0,0,-1,657,568,0,0
-560,456,0,0,0,0,0,0,0,0,0,-1,664,568,0,0
-553,456,0,0,0,0,0,0,0,0,0,-1,671,568,0,0
-546,456,0,0,0,0,0,0,0,0,0,-1,678,568,0,0
-539,456,0,0,0,0,0,0,0,0,0,-1,685,568,0,0
-532,456,0,0,0,0,0,0,0,0,0,-1,692,568,0,0
-525,456,0,0,0,0,0,0,0,0,0,-1,699,568,0,0
-518,456,0,0,0,0,0,0,0,0,0,-1,706,568,0,0
-511,456,0,0,0,0,0,0,0,0,0,-1,713,568,0,0
-504,456,-10.3994,-2.34839,0,0,0,0,0,0,0,-1,720,568,-10.3994,2.3484
-497,456,-9.21375,-2.38068,0,0,0,0,0,0,0,-1,727,568,-9.21372,2.38069
-490,456,-8.09058,-2.31824,0,0,0,0,0,0,0,-1,734,568,-8.09057,2.31821
-483,456,-6.66119,-2.24329,0,0,0,0,0,0,0,-1,741,568,-6.66121,2.24331
-476,456,-5.1499,-2.21185,0,0,0,0,0,0,0,-1,748,568,-5.14992,2.21184
-469,456,-2.81238,-3.51501,0,0,0,0,0,0,0,-1,755,568,-2.81237,3.51501
-462,456,-4.2431,-5.27478,0,0,0,0,0,0,0,-1,762,568,-4.24312,5.27476
-455,456,-5.98364,-8.72119,0,0,0,0,0,0,0,-1,769,568,-5.98364,8.72122
-448,456,-6.47467,-12.0255,0,0,0,0,0,0,0,-1,776,568,-6.47465,12.0254
-441,456,-6.71075,-13.134,-0.00118084,0.00989021,-0.00331215,0.0108055,-0.00209608,-1.3012,0.00799446,0.0364128,783,568,-6.71074,13.134
-434,456,-6.83893,-13.8906,-0.000620882,0.00816428,-0.00298233,0.00908103,-0.00153764,-1.27257,0.00662631,0.0181505,790,568,-6.8389,13.8906
-427,456,-6.84625,-14.5549,-0.000220065,0.00657795,-0.00256342,0.00743622,-0.00107833,-1.24771,0.00535325,0.00934722,797,568,-6.84627,14.5549
-420,456,-6.86896,-15.1948,0.000129484,0.00514233,-0.00216495,0.00594788,-0.000676063,-1.21458,0.00420875,0.00953447,804,568,-6.86897,15.1948
-413,456,-6.8927,-15.8472,0.000409248,0.00376804,-0.00172254,0.00449437,-0.000317079,-1.17176,0.00310734,0.00902832,811,568,-6.89268,15.8472
-406,456,-6.94421,-16.4807,0.000630655,0.00248019,-0.00120836,0.00307704,3.38043e-05,-1.11201,0.00204019,0.00907907,818,568,-6.9442,16.4807
-399,456,-6.97351,-17.116,0.000983714,0.00142011,-0.000765254,0.00199767,0.000406158,-0.924279,0.00121916,0.0111854,825,568,-6.97353,17.116
-392,456,-6.98309,-17.7549,0.00151284,0.000454511,-0.00040159,0.00164797,0.000319379,-0.32459,0.00100918,0.0110738,832,568,-6.98312,17.7549
-385,456,-6.9964,-18.3848,0.00215592,-0.000318763,-0.000207566,0.00217321,-0.000336052,-0.0831018,0.00157284,0.0105056,839,568,-6.99638,18.3847
-378,456,-7.04407,-19.0199,0.00287805,-0.000984659,-3.46836e-06,0.00287805,-0.000984662,-0.000897908,0.00231772,0.0114852,846,568,-7.04408,19.0199
-371,456,-7.05798,-19.6479,0.00380971,-0.00147309,0.000110706,0.00381203,-0.00147541,0.0209437,0.0031505,0.0123234,853,568,-7.05798,19.6479
-364,456,-7.0437,-20.251,0.00492018,-0.00174399,7.19922e-05,0.00492096,-0.00174477,0.0108012,0.00399143,0.026965,860,568,-7.04371,20.251
-357,456,-6.97266,-20.9229,0,0,0,0,0,0,0,-1,867,568,-6.97264,20.9228
-350,456,-6.83105,-21.7237,0,0,0,0,0,0,0,-1,874,568,-6.83107,21.7237
-343,456,-3.39081,-12.0217,0,0,0,0,0,0,0,-1,881,568,-3.39078,12.0217
-336,456,-3.04517,-12.4623,0,0,0,0,0,0,0,-1,888,568,-3.04519,12.4624
-329,456,-1.06183,-10.7184,0,0,0,0,0,0,0,-1,895,568,-1.06184,10.7184
-322,456,-0.662537,-7.66632,0,0,0,0,0,0,0,-1,902,568,-0.662564,7.66633
-315,456,-0.675476,-3.38397,0,0,0,0,0,0,0,-1,909,568,-0.675473,3.38399
-308,456,-1.1618,-3.15314,0,0,0,0,0,0,0,-1,916,568,-1.16178,3.15314
-301,456,-1.83551,-3.26447,0,0,0,0,0,0,0,-1,923,568,-1.8355,3.26449
-294,456,-2.93414,-3.35449,0,0,0,0,0,0,0,-1,930,568,-2.93413,3.35451
-287,456,-3.7569,-3.53101,0,0,0,0,0,0,0,-1,937,568,-3.75692,3.53101
-280,456,-13.072,4.52856,0,0,0,0,0,0,0,-1,944,568,-13.072,-4.52855
-273,456,-8.26538,-6.66748,0,0,0,0,0,0,0,-1,951,568,-8.26536,6.66745
-266,456,-5.71527,-9.36884,0,0,0,0,0,0,0,-1,958,568,-5.71529,9.36885
-259,456,0,0,0,0,0,0,0,0,0,-1,965,568,0,0
-252,456,0,0,0,0,0,0,0,0,0,-1,972,568,0,0
-245,456,0,0,0,0,0,0,0,0,0,-1,979,568,0,0
-238,456,0,0,0,0,0,0,0,0,0,-1,986,568,0,0
-231,456,0,0,0,0,0,0,0,0,0,-1,993,568,0,0
-224,456,0,0,0,0,0,0,0,0,0,-1,1000,568,0,0
-217,456,0,0,0,0,0,0,0,0,0,-1,1007,568,0,0
-210,456,0,0,0,0,0,0,0,0,0,-1,1014,568,0,0
-203,456,0,0,0,0,0,0,0,0,0,-1,1021,568,0,0
-196,456,0,0,0,0,0,0,0,0,0,-1,1028,568,0,0
-189,456,0,0,0,0,0,0,0,0,0,-1,1035,568,0,0
-182,456,0,0,0,0,0,0,0,0,0,-1,1042,568,0,0
-175,456,0,0,0,0,0,0,0,0,0,-1,1049,568,0,0
-168,456,0,0,0,0,0,0,0,0,0,-1,1056,568,0,0
-161,456,0,0,0,0,0,0,0,0,0,-1,1063,568,0,0
-154,456,0,0,0,0,0,0,0,0,0,-1,1070,568,0,0
-147,456,0,0,0,0,0,0,0,0,0,-1,1077,568,0,0
-140,456,0,0,0,0,0,0,0,0,0,-1,1084,568,0,0
-133,456,0,0,0,0,0,0,0,0,0,-1,1091,568,0,0
-126,456,0,0,0,0,0,0,0,0,0,-1,1098,568,0,0
-119,456,0,0,0,0,0,0,0,0,0,-1,1105,568,0,0
-112,456,0,0,0,0,0,0,0,0,0,-1,1112,568,0,0
-105,456,0,0,0,0,0,0,0,0,0,-1,1119,568,0,0
-98,456,0,0,0,0,0,0,0,0,0,-1,1126,568,0,0
-91,456,0,0,0,0,0,0,0,0,0,-1,1133,568,0,0
-84,456,0,0,0,0,0,0,0,0,0,-1,1140,568,0,0
-77,456,0,0,0,0,0,0,0,0,0,-1,1147,568,0,0
-70,456,0,0,0,0,0,0,0,0,0,-1,1154,568,0,0
-63,456,0,0,0,0,0,0,0,0,0,-1,1161,568,0,0
-56,456,0,0,0,0,0,0,0,0,0,-1,1168,568,0,0
-49,456,0,0,0,0,0,0,0,0,0,-1,1175,568,0,0
-42,456,0,0,0,0,0,0,0,0,0,-1,1182,568,0,0
-35,456,0,0,0,0,0,0,0,0,0,-1,1189,568,0,0
-28,456,0,0,0,0,0,0,0,0,0,-1,1196,568,0,0
-21,456,0,0,0,0,0,0,0,0,0,-1,1203,568,0,0
-14,456,0,0,0,0,0,0,0,0,0,-1,1210,568,0,0
-7,456,0,0,0,0,0,0,0,0,0,-1,1217,568,0,0
0,456,0,0,0,0,0,0,0,0,0,-1,1224,568,0,0
7,456,0,0,0,0,0,0,0,0,0,-1,1231,568,0,0
14,456,0,0,0,0,0,0,0,0,0,-1,1238,568,0,0
21,456,0,0,0,0,0,0,0,0,0,-1,1245,568,0,0
28,456,0,0,0,0,0,0,0,0,0,-1,1252,568,0,0
35,456,0,0,0,0,0,0,0,0,0,-1,1259,568,0,0
42,456,0,0,0,0,0,0,0,0,0,-1,1266,568,0,0
49,456,0,0,0,0,0,0,0,0,0,-1,1273,568,0,0
56,456,0,0,0,0,0,0,0,0,0,-1,1280,568,0,0
63,456,0,0,0,0,0,0,0,0,0,-1,1287,568,0,0
70,456,0,0,0,0,0,0,0,0,0,-1,1294,568,0,0
77,456,0,0,0,0,0,0,0,0,0,-1,1301,568,0,0
84,456,0,0,0,0,0,0,0,0,0,-1,1308,568,0,0
91,456,0,0,0,0,0,0,0,0,0,-1,1315,568,0,0
98,456,0,0,0,0,0,0,0,0,0,-1,1322,568,0,0
105,456,0,0,0,0,0,0,0,0,0,-1,1329,568,0,0
112,456,0,0,0,0,0,0,0,0,0,-1,1336,568,0,0
119,456,0,0,0,0,0,0,0,0,0,-1,1343,568,0,0
126,456,0,0,0,0,0,0,0,0,0,-1,1350,568,0,0
133,456,0,0,0,0,0,0,0,0,0,-1,1357,568,0,0
140,456,0,0,0,0,0,0,0,0,0,-1,1364,568,0,0
147,456,0,0,0,0,0,0,0,0,0,-1,1371,568,0,0
154,456,0,0,0,0,0,0,0,0,0,-1,1378,568,0,0
161,456,0,0,0,0,0,0,0,0,0,-1,1385,568,0,0
168,456,0,0,0,0,0,0,0,0,0,-1,1392,568,0,0
175,456,0,0,0,0,0,0,0,0,0,-1,1399,568,0,0
182,456,0,0,0,0,0,0,0,0,0,-1,1406,568,0,0
189,456,0,0,0,0,0,0,0,0,0,-1,1413,568,0,0
196,456,0,0,0,0,0,0,0,0,0,-1,1420,568,0,0
203,456,0,0,0,0,0,0,0,0,0,-1,1427,568,0,0
210,456,0,0,0,0,0,0,0,0,0,-1,1434,568,0,0
217,456,0,0,0,0,0,0,0,0,0,-1,1441,568,0,0
224,456,0,0,0,0,0,0,0,0,0,-1,1448,568,0,0
231,456,0,0,0,0,0,0,0,0,0,-1,1455,568,0,0
238,456,0,0,0,0,0,0,0,0,0,-1,1462,568,0,0
245,456,0,0,0,0,0,0,0,0,0,-1,1469,568,0,0
252,456,0,0,0,0,0,0,0,0,0,-1,1476,568,0,0
259,456,0,0,0,0,0,0,0,0,0,-1,1483,568,0,0
266,456,0,0,0,0,0,0,0,0,0,-1,1490,568,0,0
273,456,0,0,0,0,0,0,0,0,0,-1,1497,568,0,0
280,456,0,0,0,0,0,0,0,0,0,-1,1504,568,0,0
287,456,0,0,0,0,0,0,0,0,0,-1,1511,568,0,0
294,456,0,0,0,0,0,0,0,0,0,-1,1518,568,0,0
301,456,0,0,0,0,0,0,0,0,0,-1,1525,568,0,0
308,456,0,0,0,0,0,0,0,0,0,-1,1532,568,0,0
315,456,0,0,0,0,0,0,0,0,0,-1,1539,568,0,0
322,456,0,0,0,0,0,0,0,0,0,-1,1546,568,0,0
329,456,0,0,0,0,0,0,0,0,0,-1,1553,568,0,0
336,456,0,0,0,0,0,0,0,0,0,-1,1560,568,0,0
343,456,0,0,0,0,0,0,0,0,0,-1,1567,568,0,0
350,456,0,0,0,0,0,0,0,0,0,-1,1574,568,0,0
357,456,0,0,0,0,0,0,0,0,0,-1,1581,568,0,0
364,456,0,0,0,0,0,0,0,0,0,-1,1588,568,0,0
371,456,0,0,0,0,0,0,0,0,0,-1,1595,568,0,0
378,456,0,0,0,0,0,0,0,0,0,-1,1602,568,0,0
385,456,5.66284,0.660645,0,0,0,0,0,0,0,-1,1609,568,5.66285,-0.660615
392,456,17.5027,4.32971,0,0,0,0,0,0,0,-1,1616,568,17.5026,-4.32971
399,456,24.1917,5.99652,0,0,0,0,0,0,0,-1,1623,568,24.1916,-5.99651
406,456,24.446,4.53003,0,0,0,0,0,0,0,-1,1630,568,24.446,-4.53005
413,456,24.9418,2.90521,0,0,0,0,0,0,0,-1,1637,568,24.9418,-2.90524
420,456,25.3048,1.04712,0,0,0,0,0,0,0,-1,1644,568,25.3048,-1.04713
427,456,6.21375,2.02905,0,0,0,0,0,0,0,-1,1651,568,6.21372,-2.02904
434,456,3.0719,-4.86285,0,0,0,0,0,0,0,-1,1658,568,3.07184,4.86287
441,456,2.90344,-4.70459,0,0,0,0,0,0,0,-1,1665,568,2.90346,4.7046
448,456,3.06995,-4.93689,0,0,0,0,0,0,0,-1,1672,568,3.06991,4.93687
455,456,3.46582,-3.43701,0,0,0,0,0,0,0,-1,1679,568,3.46585,3.43698
462,456,4.68445,-4.45831,0,0,0,0,0,0,0,-1,1686,568,4.68439,4.45833
469,456,4.93201,-2.289,0,0,0,0,0,0,0,-1,1693,568,4.93197,2.28903
476,456,4.8363,-2.79364,0,0,0,0,0,0,0,-1,1700,568,4.83636,2.79363
483,456,12.8522,-13.692,0,0,0,0,0,0,0,-1,1707,568,12.8522,13.6919
490,456,18.5597,-19.4332,0,0,0,0,0,0,0,-1,1714,568,18.5597,19.4332
497,456,18.5242,-18.4885,0,0,0,0,0,0,0,-1,1721,568,18.5242,18.4885
504,456,18.5543,-17.8448,0.00306393,0.00193044,0.00147313,0.00407558,0.000918793,0.601766,0.00246846,0.0145479,1728,568,18.5543,17.8449
511,456,18.5665,-17.188,0.00258385,0.00167605,0.00145917,0.00365809,0.000601818,0.634609,0.00226493,0.0146897,1735,568,18.5665,17.188
518,456,18.5502,-16.53,0.00208318,0.00146365,0.00145244,0.00325852,0.000288304,0.680336,0.00208291,0.0173196,1742,568,18.5502,16.53
525,456,18.5199,-15.842,0.00155561,0.00138732,0.00143006,0.002904,3.89341e-05,0.756012,0.00192315,0.0170227,1749,568,18.5199,15.842
532,456,18.5376,-15.1533,0.00105082,0.00140819,0.00143945,0.00267999,-0.000220992,0.847149,0.0018647,0.0165572,1756,568,18.5376,15.1533
539,456,18.4863,-14.4495,0.000602431,0.00150099,0.0014728,0.00259151,-0.000488092,0.93344,0.00191126,0.0205345,1763,568,18.4863,14.4496
546,456,18.4354,-13.8262,0.000252052,0.00177975,0.0015393,0.0027343,-0.000702505,1.01571,0.00209664,0.0231618,1770,568,18.4355,13.8262
553,456,18.3906,-13.1433,-5.6493e-05,0.00216544,0.00168017,0.00306873,-0.000959782,1.07751,0.00242978,0.0138388,1777,568,18.3906,13.1433
560,456,18.3777,-12.4855,-0.000289965,0.00265692,0.00190183,0.0035893,-0.00122235,1.11498,0.00288787,0.0106502,1784,568,18.3776,12.4855
567,456,18.353,-11.7795,-0.000270927,0.00346067,0.00237939,0.00461856,-0.00142882,1.1179,0.00364976,0.0185915,1791,568,18.353,11.7795
574,456,18.3331,-11.1039,0,0,0,0,0,0,0,-1,1798,568,18.3331,11.1039
581,456,16.2228,-9.08563,0,0,0,0,0,0,0,-1,1805,568,16.2228,9.08562
588,456,5.23901,-0.0901489,0,0,0,0,0,0,0,-1,1812,568,5.23906,0.0901656
595,456,6.90063,3.14886,0,0,0,0,0,0,0,-1,1819,568,6.90066,-3.14887
602,456,16.894,4.10938,0,0,0,0,0,0,0,-1,1826,568,16.8941,-4.1094
609,456,14.9966,3.5708,0,0,0,0,0,0,0,-1,1833,568,14.9966,-3.57083
616,456,17.7407,2.6579,0,0,0,0,0,0,0,-1,1840,568,17.7408,-2.6579
623,456,20.6838,1.7121,0,0,0,0,0,0,0,-1,1847,568,20.6838,-1.71208
630,456,0,0,0,0,0,0,0,0,0,-1,1854,568,0,0
637,456,0,0,0,0,0,0,0,0,0,-1,1861,568,0,0
644,456,0,0,0,0,0,0,0,0,0,-1,1868,568,0,0
651,456,0,0,0,0,0,0,0,0,0,-1,1875,568,0,0
658,456,0,0,0,0,0,0,0,0,0,-1,1882,568,0,0
665,456,0,0,0,0,0,0,0,0,0,-1,1889,568,0,0
672,456,0,0,0,0,0,0,0,0,0,-1,1896,568,0,0
679,456,0,0,0,0,0,0,0,0,0,-1,1903,568,0,0
686,456,0,0,0,0,0,0,0,0,0,-1,1910,568,0,0
693,456,0,0,0,0,0,0,0,0,0,-1,1917,568,0,0
700,456,0,0,0,0,0,0,0,0,0,-1,1924,568,0,0
707,456,0,0,0,0,0,0,0,0,0,-1,1931,568,0,0
714,456,0,0,0,0,0,0,0,0,0,-1,1938,568,0,0
721,456,0,0,0,0,0,0,0,0,0,-1,1945,568,0,0
728,456,0,0,0,0,0,0,0,0,0,-1,1952,568,0,0
735,456,0,0,0,0,0,0,0,0,0,-1,1959,568,0,0
742,456,0,0,0,0,0,0,0,0,0,-1,1966,568,0,0
749,456,0,0,0,0,0,0,0,0,0,-1,1973,568,0,0
756,456,0,0,0,0,0,0,0,0,0,-1,1980,568,0,0
763,456,0,0,0,0,0,0,0,0,0,-1,1987,568,0,0
770,456,0,0,0,0,0,0,0,0,0,-1,1994,568,0,0
777,456,0,0,0,0,0,0,0,0,0,-1,2001,568,0,0
784,456,0,0,0,0,0,0,0,0,0,-1,2008,568,0,0
791,456,0,0,0,0,0,0,0,0,0,-1,2015,568,0,0
798,456,0,0,0,0,0,0,0,0,0,-1,2022,568,0,0
805,456,0,0,0,0,0,0,0,0,0,-1,2029,568,0,0
812,456,0,0,0,0,0,0,0,0,0,-1,2036,568,0,0
-700,449,0,0,0,0,0,0,0,0,0,-1,524,575,0,0
-693,449,0,0,0,0,0,0,0,0,0,-1,531,575,0,0
-686,449,0,0,0,0,0,0,0,0,0,-1,538,575,0,0
-679,449,0,0,0,0,0,0,0,0,0,-1,545,575,0,0
-672,449,0,0,0,0,0,0,0,0,0,-1,552,575,0,0
-665,449,0,0,0,0,0,0,0,0,0,-1,559,575,0,0
-658,449,0,0,0,0,0,0,0,0,0,-1,566,575,0,0
-651,449,0,0,0,0,0,0,0,0,0,-1,573,575,0,0
-644,449,0,0,0,0,0,0,0,0,0,-1,580,575,0,0
-637,449,0,0,0,0,0,0,0,0,0,-1,587,575,0,0
-630,449,0,0,0,0,0,0,0,0,0,-1,594,575,0,0
-623,449,0,0,0,0,0,0,0,0,0,-1,601,575,0,0
-616,449,0,0,0,0,0,0,0,0,0,-1,608,575,0,0
-609,449,0,0,0,0,0,0,0,0,0,-1,615,575,0,0
-602,449,0,0,0,0,0,0,0,0,0,-1,622,575,0,0
-595,449,0,0,0,0,0,0,0,0,0,-1,629,575,0,0
-588,449,0,0,0,0,0,0,0,0,0,-1,636,575,0,0
-581,449,0,0,0,0,0,0,0,0,0,-1,643,575,0,0
-574,449,0,0,0,0,0,0,0,0,0,-1,650,575,0,0
-567,449,0,0,0,0,0,0,0,0,0,-1,657,575,0,0
-560,449,0,0,0,0,0,0,0,0,0,-1,664,575,0,0
-553,449,0,0,0,0,0,0,0,0,0,-1,671,575,0,0
-546,449,0,0,0,0,0,0,0,0,0,-1,678,575,0,0
-539,449,0,0,0,0,0,0,0,0,0,-1,685,575,0,0
-532,449,0,0,0,0,0,0,0,0,0,-1,692,575,0,0
-525,449,0,0,0,0,0,0,0,0,0,-1,699,575,0,0
-518,449,0,0,0,0,0,0,0,0,0,-1,706,575,0,0
-511,449,-0.941345,-4.4519,0,0,0,0,0,0,0,-1,713,575,-0.941356,4.45191
-504,449,-14.1078,0.318237,0,0,0,0,0,0,0,-1,720,575,-14.1078,-0.318231
-497,449,-8.61292,-3.09009,0,0,0,0,0,0,0,-1,727,575,-8.61291,3.09011
-490,449,-7.50995,-2.96252,0,0,0,0,0,0,0,-1,734,575,-7.50995,2.96251
-483,449,-5.77789,-2.50061,0,0,0,0,0,0,0,-1,741,575,-5.77792,2.50059
-476,449,-4.1723,-2.07739,0,0,0,0,0,0,0,-1,748,575,-4.17228,2.0774
-469,449,-5.0976,-5.78448,0,0,0,0,0,0,0,-1,755,575,-5.09758,5.78451
-462,449,-6.54181,-9.54535,0,0,0,0,0,0,0,-1,762,575,-6.54178,9.54536
-455,449,-7.66937,-11.4243,0,0,0,0,0,0,0,-1,769,575,-7.66938,11.4243
-448,449,-7.38403,-12.383,-0.00144867,0.00922116,-0.00293164,0.0099736,-0.00220111,-1.31956,0.00749134,0.0443669,776,575,-7.38405,12.383
-441,449,-7.39368,-13.2744,-0.000826675,0.00767038,-0.00265831,0.0084335,-0.00158979,-1.29124,0.00622036,0.0215653,783,575,-7.39367,13.2744
-434,449,-7.4931,-13.8669,-0.000342689,0.00620553,-0.00231334,0.00694033,-0.00107749,-1.26324,0.00502471,0.01364,790,575,-7.49313,13.8669
-427,449,-7.48712,-14.5135,1.42319e-05,0.00484443,-0.00190372,0.00550453,-0.000645871,-1.23703,0.00390283,0.0130756,797,575,-7.48712,14.5135
-420,449,-7.50208,-15.1661,0.000356062,0.00361101,-0.00153309,0.00421939,-0.000252318,-1.19302,0.0029007,0.0134324,804,575,-7.50205,15.1661
-413,449,-7.51697,-15.8104,0.000622441,0.00240429,-0.00110754,0.00293477,9.19607e-05,-1.12411,0.00192659,0.0113053,811,575,-7.51696,15.8104
-406,449,-7.57208,-16.4587,0.000841676,0.00126296,-0.000624507,0.00171139,0.000393244,-0.948054,0.00103506,0.0103752,818,575,-7.57207,16.4587
-399,449,-7.61627,-17.1019,0.00122086,0.000341559,-0.000238007,0.00128115,0.00028127,-0.24809,0.000777492,0.00974198,825,575,-7.61625,17.1019
-392,449,-7.61493,-17.7306,0.00179399,-0.000479406,5.31834e-05,0.00179524,-0.000480649,0.0233767,0.00138512,0.0106586,832,575,-7.6149,17.7306
-385,449,-7.63733,-18.3474,0.00247131,-0.00111383,0.000174653,0.0024798,-0.00112231,0.0485627,0.00212834,0.0112668,839,575,-7.63735,18.3473
-378,449,-7.67816,-18.9749,0.00326051,-0.00167424,0.000302003,0.00327892,-0.00169265,0.0608965,0.00291864,0.0107488,846,575,-7.67819,18.9749
-371,449,-7.64655,-19.6255,0.00434005,-0.00199719,0.000336067,0.00435782,-0.00201496,0.052833,0.00376129,0.0186605,853,575,-7.64653,19.6255
-364,449,-7.64166,-20.29,0,0,0,0,0,0,0,-1,860,575,-7.64168,20.29
-357,449,-5.88049,-15.8704,0,0,0,0,0,0,0,-1,867,575,-5.88051,15.8704
-350,449,-2.8764,-9.90204,0,0,0,0,0,0,0,-1,874,575,-2.87638,9.90203
-343,449,-2.98492,-9.2254,0,0,0,0,0,0,0,-1,881,575,-2.98491,9.22541
-336,449,-1.29523,-9.54626,0,0,0,0,0,0,0,-1,888,575,-1.29525,9.54626
-329,449,-0.733398,-7.78937,0,0,0,0,0,0,0,-1,895,575,-0.733398,7.78937
-322,449,-0.628845,-3.16669,0,0,0,0,0,0,0,-1,902,575,-0.628861,3.16667
-315,449,-0.540344,-3.21918,0,0,0,0,0,0,0,-1,909,575,-0.540336,3.21917
-308,449,-1.04413,-2.99341,0,0,0,0,0,0,0,-1,916,575,-1.04415,2.99338
-301,449,-1.58691,-2.80725,0,0,0,0,0,0,0,-1,923,575,-1.58692,2.80728
-294,449,-3.71118,-2.76086,0,0,0,0,0,0,0,-1,930,575,-3.71119,2.76087
-287,449,-4.4082,-2.69525,0,0,0,0,0,0,0,-1,937,575,-4.40822,2.69526
-280,449,0.723999,-14.2697,0,0,0,0,0,0,0,-1,944,575,0.723977,14.2696
-273,449,0,0,0,0,0,0,0,0,0,-1,951,575,0,0
-266,449,0,0,0,0,0,0,0,0,0,-1,958,575,0,0
-259,449,0,0,0,0,0,0,0,0,0,-1,965,575,0,0
-252,449,0,0,0,0,0,0,0,0,0,-1,972,575,0,0
-245,449,0,0,0,0,0,0,0,0,0,-1,979,575,0,0
-238,449,0,0,0,0,0,0,0,0,0,-1,986,575,0,0
-231,449,0,0,0,0,0,0,0,0,0,-1,993,575,0,0
-224,449,0,0,0,0,0,0,0,0,0,-1,1000,575,0,0
-217,449,0,0,0,0,0,0,0,0,0,-1,1007,575,0,0
-210,449,0,0,0,0,0,0,0,0,0,-1,1014,575,0,0
-203,449,0,0,0,0,0,0,0,0,0,-1,1021,575,0,0
-196,449,0,0,0,0,0,0,0,0,0,-1,1028,575,0,0
-189,449,0,0,0,0,0,0,0,0,0,-1,1035,575,0,0
-182,449,0,0,0,0,0,0,0,0,0,-1,1042,575,0,0
-175,449,0,0,0,0,0,0,0,0,0,-1,1049,575,0,0
-168,449,0,0,0,0,0,0,0,0,0,-1,1056,575,0,0
-161,449,0,0,0,0,0,0,0,0,0,-1,1063,575,0,0
-154,449,0,0,0,0,0,0,0,0,0,-1,1070,575,0,0
-147,449,0,0,0,0,0,0,0,0,0,-1,1077,575,0,0
-140,449,0,0,0,0,0,0,0,0,0,-1,1084,575,0,0
-133,449,0,0,0,0,0,0,0,0,0,-1,1091,575,0,0
-126,449,0,0,0,0,0,0,0,0,0,-1,1098,575,0,0
-119,449,0,0,0,0,0,0,0,0,0,-1,1105,575,0,0
-112,449,0,0,0,0,0,0,0,0,0,-1,1112,575,0,0
-105,449,0,0,0,0,0,0,0,0,0,-1,1119,575,0,0
-98,449,0,0,0,0,0,0,0,0,0,-1,1126,575,0,0
-91,449,0,0,0,0,0,0,0,0,0,-1,1133,575,0,0
-84,449,0,0,0,0,0,0,0,0,0,-1,1140,575,0,0
-77,449,0,0,0,0,0,0,0,0,0,-1,1147,575,0,0
-70,449,0,0,0,0,0,0,0,0,0,-1,1154,575,0,0
-63,449,0,0,0,0,0,0,0,0,0,-1,1161,575,0,0
-56,449,0,0,0,0,0,0,0,0,0,-1,1168,575,0,0
-49,449,0,0,0,0,0,0,0,0,0,-1,1175,575,0,0
-42,449,0,0,0,0,0,0,0,0,0,-1,1182,575,0,0
-35,449,0,0,0,0,0,0,0,0,0,-1,1189,575,0,0
-28,449,0,0,0,0,0,0,0,0,0,-1,1196,575,0,0
-21,449,0,0,0,0,0,0,0,0,0,-1,1203,575,0,0
-14,449,0,0,0,0,0,0,0,0,0,-1,1210,575,0,0
-7,449,0,0,0,0,0,0,0,0,0,-1,1217,575,0,0
0,449,0,0,0,0,0,0,0,0,0,-1,1224,575,0,0
7,449,0,0,0,0,0,0,0,0,0,-1,1231,575,0,0
14,449,0,0,0,0,0,0,0,0,0,-1,1238,575,0,0
21,449,0,0,0,0,0,0,0,0,0,-1,1245,575,0,0
28,449,0,0,0,0,0,0,0,0,0,-1,1252,575,0,0
35,449,0,0,0,0,0,0,0,0,0,-1,1259,575,0,0
42,449,0,0,0,0,0,0,0,0,0,-1,1266,575,0,0
49,449,0,0,0,0,0,0,0,0,0,-1,1273,575,0,0
56,449,0,0,0,0,0,0,0,0,0,-1,1280,575,0,0
63,449,0,0,0,0,0,0,0,0,0,-1,1287,575,0,0
70,449,0,0,0,0,0,0,0,0,0,-1,1294,575,0,0
77,449,0,0,0,0,0,0,0,0,0,-1,1301,575,0,0
84,449,0,0,0,0,0,0,0,0,0,-1,1308,575,0,0
91,449,0,0,0,0,0,0,0,0,0,-1,1315,575,0,0
98,449,0,0,0,0,0,0,0,0,0,-1,1322,575,0,0
105,449,0,0,0,0,0,0,0,0,0,-1,1329,575,0,0
112,449,0,0,0,0,0,0,0,0,0,-1,1336,575,0,0
119,449,0,0,0,0,0,0,0,0,0,-1,1343,575,0,0
126,449,0,0,0,0,0,0,0,0,0,-1,1350,575,0,0
133,449,0,0,0,0,0,0,0,0,0,-1,1357,575,0,0
140,449,0,0,0,0,0,0,0,0,0,-1,1364,575,0,0
147,449,0,0,0,0,0,0,0,0,0,-1,1371,575,0,0
154,449,0,0,0,0,0,0,0,0,0,-1,1378,575,0,0
161,449,0,0,0,0,0,0,0,0,0,-1,1385,575,0,0
168,449,0,0,0,0,0,0,0,0,0,-1,1392,575,0,0
175,449,0,0,0,0,0,0,0,0,0,-1,1399,575,0,0
182,449,0,0,0,0,0,0,0,0,0,-1,1406,575,0,0
189,449,0,0,0,0,0,0,0,0,0,-1,1413,575,0,0
196,449,0,0,0,0,0,0,0,0,0,-1,1420,575,0,0
203,449,0,0,0,0,0,0,0,0,0,-1,1427,575,0,0
210,449,0,0,0,0,0,0,0,0,0,-1,1434,575,0,0
217,449,0,0,0,0,0,0,0,0,0,-1,1441,575,0,0
224,449,0,0,0,0,0,0,0,0,0,-1,1448,575,0,0
231,449,0,0,0,0,0,0,0,0,0,-1,1455,575,0,0
238,449,0,0,0,0,0,0,0,0,0,-1,1462,575,0,0
245,449,0,0,0,0,0,0,0,0,0,-1,1469,575,0,0
252,449,0,0,0,0,0,0,0,0,0,-1,1476,575,0,0
259,449,0,0,0,0,0,0,0,0,0,-1,1483,575,0,0
266,449,0,0,0,0,0,0,0,0,0,-1,1490,575,0,0
273,449,0,0,0,0,0,0,0,0,0,-1,1497,575,0,0
280,449,0,0,0,0,0,0,0,0,0,-1,1504,575,0,0
287,449,0,0,0,0,0,0,0,0,0,-1,1511,575,0,0
294,449,0,0,0,0,0,0,0,0,0,-1,1518,575,0,0
301,449,0,0,0,0,0,0,0,0,0,-1,1525,575,0,0
308,449,0,0,0,0,0,0,0,0,0,-1,1532,575,0,0
315,449,0,0,0,0,0,0,0,0,0,-1,1539,575,0,0
322,449,0,0,0,0,0,0,0,0,0,-1,1546,575,0,0
329,449,0,0,0,0,0,0,0,0,0,-1,1553,575,0,0
336,449,0,0,0,0,0,0,0,0,0,-1,1560,575,0,0
343,449,0,0,0,0,0,0,0,0,0,-1,1567,575,0,0
350,449,0,0,0,0,0,0,0,0,0,-1,1574,575,0,0
357,449,0,0,0,0,0,0,0,0,0,-1,1581,575,0,0
364,449,0,0,0,0,0,0,0,0,0,-1,1588,575,0,0
371,449,0,0,0,0,0,0,0,0,0,-1,1595,575,0,0
378,449,0,0,0,0,0,0,0,0,0,-1,1602,575,0,0
385,449,0,0,0,0,0,0,0,0,0,-1,1609,575,0,0
392,449,7.95471,3.66217,0,0,0,0,0,0,0,-1,1616,575,7.95471,-3.66218
399,449,19.9791,5.565,0,0,0,0,0,0,0,-1,1623,575,19.9791,-5.56499
406,449,24.9847,4.55969,0,0,0,0,0,0,0,-1,1630,575,24.9848,-4.55968
413,449,30.4159,3.15027,0,0,0,0,0,0,0,-1,1637,575,30.4159,-3.15028
420,449,23.9675,1.29718,0,0,0,0,0,0,0,-1,1644,575,23.9675,-1.29721
427,449,24.4276,-0.596558,0,0,0,0,0,0,0,-1,1651,575,24.4277,0.596569
434,449,25.61,-2.96594,0,0,0,0,0,0,0,-1,1658,575,25.61,2.96595
441,449,3.89856,-6.06458,0,0,0,0,0,0,0,-1,1665,575,3.89855,6.06459
448,449,4.03198,-5.18207,0,0,0,0,0,0,0,-1,1672,575,4.03197,5.18207
455,449,4.21948,-4.09467,0,0,0,0,0,0,0,-1,1679,575,4.21952,4.09465
462,449,4.23181,-2.96924,0,0,0,0,0,0,0,-1,1686,575,4.23185,2.96926
469,449,4.51672,-2.95135,0,0,0,0,0,0,0,-1,1693,575,4.51672,2.95135
476,449,4.71838,-1.86688,0,0,0,0,0,0,0,-1,1700,575,4.71842,1.86689
483,449,4.87878,-1.73126,0,0,0,0,0,0,0,-1,1707,575,4.87875,1.73128
490,449,5.73279,-2.74573,0,0,0,0,0,0,0,-1,1714,575,5.73282,2.74575
497,449,17.2095,-16.4381,0,0,0,0,0,0,0,-1,1721,575,17.2094,16.4381
504,449,19.1831,-17.8662,0,0,0,0,0,0,0,-1,1728,575,19.1831,17.8662
511,449,19.2186,-17.1752,0.00335703,0.00198736,0.00181194,0.00460924,0.000735162,0.604717,0.00285945,0.0138787,1735,575,19.2186,17.1752
518,449,19.2101,-16.4915,0.00286566,0.00158237,0.00168525,0.00402728,0.000420744,0.603501,0.00255617,0.0142564,1742,575,19.2101,16.4915
525,449,19.1709,-15.8156,0.00230521,0.00139577,0.00154444,0.00346048,0.000240495,0.642232,0.00223115,0.0134091,1749,575,19.1709,15.8156
532,449,19.1292,-15.1674,0.00176794,0.00132542,0.00145017,0.00301363,7.97325e-05,0.709695,0.00198304,0.0109999,1756,575,19.1291,15.1674
539,449,19.0833,-14.4997,0.00130416,0.0013544,0.00141653,0.00274603,-8.7467e-05,0.794264,0.00186053,0.0149756,1763,575,19.0832,14.4997
546,449,19.0857,-13.8058,0.000942861,0.00155255,0.00142355,0.00270353,-0.000208122,0.890877,0.00187558,0.0261431,1770,575,19.0857,13.8058
553,449,19.0354,-13.1324,0.000598564,0.00186587,0.00150424,0.00286447,-0.000400037,0.984741,0.00205601,0.0183427,1777,575,19.0354,13.1324
560,449,19.0455,-12.4828,0.00029362,0.00226301,0.00166331,0.00321125,-0.000654619,1.05266,0.00238912,0.0148233,1784,575,19.0455,12.4828
567,449,18.9955,-11.8151,0.000205013,0.00292261,0.00203883,0.00401395,-0.000886325,1.07933,0.00301515,0.010714,1791,575,18.9955,11.815
574,449,18.9932,-11.0974,0.000129847,0.00358453,0.00246105,0.00486393,-0.00114955,1.09139,0.00368605,0.0240518,1798,575,18.9932,11.0974
581,449,19.0112,-10.3088,0,0,0,0,0,0,0,-1,1805,575,19.0112,10.3088
588,449,12.3274,-4.5672,0,0,0,0,0,0,0,-1,1812,575,12.3274,4.5672
595,449,15.9352,-5.65479,0,0,0,0,0,0,0,-1,1819,575,15.9352,5.65478
602,449,9.46167,4.17444,0,0,0,0,0,0,0,-1,1826,575,9.46164,-4.17442
609,449,12.2028,3.18652,0,0,0,0,0,0,0,-1,1833,575,12.2027,-3.18655
616,449,14.9438,2.19867,0,0,0,0,0,0,0,-1,1840,575,14.9438,-2.19867
623,449,9.83789,-0.0820313,0,0,0,0,0,0,0,-1,1847,575,9.83794,0.0820443
630,449,8.90686,4.99329,0,0,0,0,0,0,0,-1,1854,575,8.90685,-4.99327
637,449,0,0,0,0,0,0,0,0,0,-1,1861,575,0,0
644,449,0,0,0,0,0,0,0,0,0,-1,1868,575,0,0
651,449,0,0,0,0,0,0,0,0,0,-1,1875,575,0,0
658,449,0,0,0,0,0,0,0,0,0,-1,1882,575,0,0
665,449,0,0,0,0,0,0,0,0,0,-1,1889,575,0,0
672,449,0,0,0,0,0,0,0,0,0,-1,1896,575,0,0
679,449,0,0,0,0,0,0,0,0,0,-1,1903,575,0,0
686,449,0,0,0,0,0,0,0,0,0,-1,1910,575,0,0
693,449,0,0,0,0,0,0,0,0,0,-1,1917,575,0,0
700,449,0,0,0,0,0,0,0,0,0,-1,1924,575,0,0
707,449,0,0,0,0,0,0,0,0,0,-1,1931,575,0,0
714,449,0,0,0,0,0,0,0,0,0,-1,1938,575,0,0
721,449,0,0,0,0,0,0,0,0,0,-1,1945,575,0,0
728,449,0,0,0,0,0,0,0,0,0,-1,1952,575,0,0
735,449,0,0,0,0,0,0,0,0,0,-1,1959,575,0,0
742,449,0,0,0,0,0,0,0,0,0,-1,1966,575,0,0
749,449,0,0,0,0,0,0,0,0,0,-1,1973,575,0,0
756,449,0,0,0,0,0,0,0,0,0,-1,1980,575,0,0
763,449,0,0,0,0,0,0,0,0,0,-1,1987,575,0,0
770,449,0,0,0,0,0,0,0,0,0,-1,1994,575,0,0
777,449,0,0,0,0,0,0,0,0,0,-1,2001,575,0,0
784,449,0,0,0,0,0,0,0,0,0,-1,2008,575,0,0
791,449,0,0,0,0,0,0,0,0,0,-1,2015,575,0,0
798,449,0,0,0,0,0,0,0,0,0,-1,2022,575,0,0
805,449,0,0,0,0,0,0,0,0,0,-1,2029,575,0,0
812,449,0,0,0,0,0,0,0,0,0,-1,2036,575,0,0
-700,442,0,0,0,0,0,0,0,0,0,-1,524,582,0,0
-693,442,0,0,0,0,0,0,0,0,0,-1,531,582,0,0
-686,442,0,0,0,0,0,0,0,0,0,-1,538,582,0,0
-679,442,0,0,0,0,0,0,0,0,0,-1,545,582,0,0
-672,442,0,0,0,0,0,0,0,0,0,-1,552,582,0,0
-665,442,0,0,0,0,0,0,0,0,0,-1,559,582,0,0
-658,442,0,0,0,0,0,0,0,0,0,-1,566,582,0,0
-651,442,0,0,0,0,0,0,0,0,0,-1,573,582,0,0
-644,442,0,0,0,0,0,0,0,0,0,-1,580,582,0,0
-637,442,0,0,0,0,0,0,0,0,0,-1,587,582,0,0
-630,442,0,0,0,0,0,0,0,0,0,-1,594,582,0,0
-623,442,0,0,0,0,0,0,0,0,0,-1,601,582,0,0
-616,442,0,0,0,0,0,0,0,0,0,-1,608,582,0,0
-609,442,0,0,0,0,0,0,0,0,0,-1,615,582,0,0
-602,442,0,0,0,0,0,0,0,0,0,-1,622,582,0,0
-595,442,0,0,0,0,0,0,0,0,0,-1,629,582,0,0
-588,442,0,0,0,0,0,0,0,0,0,-1,636,582,0,0
-581,442,0,0,0,0,0,0,0,0,0,-1,643,582,0,0
-574,442,0,0,0,0,0,0,0,0,0,-1,650,582,0,0
-567,442,0,0,0,0,0,0,0,0,0,-1,657,582,0,0
-560,442,0,0,0,0,0,0,0,0,0,-1,664,582,0,0
-553,442,0,0,0,0,0,0,0,0,0,-1,671,582,0,0
-546,442,0,0,0,0,0,0,0,0,0,-1,678,582,0,0
-539,442,0,0,0,0,0,0,0,0,0,-1,685,582,0,0
-532,442,0,0,0,0,0,0,0,0,0,-1,692,582,0,0
-525,442,0,0,0,0,0,0,0,0,0,-1,699,582,0,0
-518,442,-0.493774,-5.72943,0,0,0,0,0,0,0,-1,706,582,-0.493791,5.72946
-511,442,-1.33008,-6.18512,0,0,0,0,0,0,0,-1,713,582,-1.33006,6.18511
-504,442,-3.20807,-6.34082,0,0,0,0,0,0,0,-1,720,582,-3.2081,6.34083
-497,442,-13.6886,-0.250122,0,0,0,0,0,0,0,-1,727,582,-13.6886,0.250143
-490,442,-9.09039,-3.64862,0,0,0,0,0,0,0,-1,734,582,-9.09037,3.64861
-483,442,-7.36499,-1.01892,0,0,0,0,0,0,0,-1,741,582,-7.365,1.01895
-476,442,-4.84784,-4.44141,0,0,0,0,0,0,0,-1,748,582,-4.84787,4.44138
-469,442,-8.25568,-9.77429,0,0,0,0,0,0,0,-1,755,582,-8.2557,9.7743
-462,442,-8.23132,-10.6674,0,0,0,0,0,0,0,-1,762,582,-8.23132,10.6674
-455,442,-8.04523,-11.7545,0,0,0,0,0,0,0,-1,769,582,-8.04523,11.7545
-448,442,-8.03021,-12.5216,-0.00105493,0.0071228,-0.00233339,0.00774175,-0.00167388,-1.31151,0.00580021,0.0191658,776,582,-8.03019,12.5216
-441,442,-8.08508,-13.2111,-0.000551095,0.00570099,-0.00199916,0.00628558,-0.00113569,-1.28631,0.00461576,0.0148398,783,582,-8.0851,13.2111
-434,442,-8.11755,-13.8602,-0.000130874,0.004446,-0.00165788,0.00498343,-0.000668303,-1.25732,0.00356599,0.0138495,790,582,-8.11757,13.8602
-427,442,-8.15094,-14.5056,0.000203748,0.00326659,-0.00128477,0.00373414,-0.0002638,-1.22178,0.00258186,0.0130481,797,582,-8.15093,14.5056
-420,442,-8.16144,-15.1548,0.000546551,0.00220104,-0.000956377,0.00263831,0.000109284,-1.14196,0.0017236,0.0137073,804,582,-8.16146,15.1548
-413,442,-8.16449,-15.7841,0.00080757,0.00114316,-0.000559459,0.00155944,0.000391283,-0.93109,0.000936846,0.0120289,811,582,-8.16447,15.7841
-406,442,-8.20313,-16.4367,0.00103201,0.000144156,-0.000121202,0.00104825,0.000127907,-0.133264,0.000660343,0.0103971,818,582,-8.20314,16.4367
-399,442,-8.24786,-17.0864,0.00143437,-0.000649858,0.000201535,0.00145368,-0.000669166,0.0955164,0.00125321,0.00906353,825,582,-8.24784,17.0864
-392,442,-8.25958,-17.6978,0.0020455,-0.00131508,0.000411796,0.00209522,-0.00136481,0.120169,0.00201243,0.0109094,832,582,-8.2596,17.6978
-385,442,-8.29346,-18.3128,0.00275113,-0.00180121,0.000460053,0.00279716,-0.00184724,0.0997151,0.00270008,0.0128794,839,582,-8.29343,18.3128
-378,442,-8.29413,-18.9684,0.00360917,-0.00226058,0.000509347,0.00365304,-0.00230445,0.0859192,0.00346881,0.0171145,846,582,-8.29415,18.9684
-371,442,-8.18719,-19.6922,0,0,0,0,0,0,0,-1,853,582,-8.18722,19.6922
-364,442,-6.89764,-17.5333,0,0,0,0,0,0,0,-1,860,582,-6.89765,17.5333
-357,442,-4.9115,-11.2649,0,0,0,0,0,0,0,-1,867,582,-4.91147,11.2649
-350,442,-1.75372,-6.27618,0,0,0,0,0,0,0,-1,874,582,-1.75371,6.27618
-343,442,-1.4599,-4.63605,0,0,0,0,0,0,0,-1,881,582,-1.4599,4.63607
-336,442,-1.4054,-2.64313,0,0,0,0,0,0,0,-1,888,582,-1.40539,2.64315
-329,442,-0.952576,-2.76923,0,0,0,0,0,0,0,-1,895,582,-0.952571,2.7692
-322,442,-0.972534,-2.63208,0,0,0,0,0,0,0,-1,902,582,-0.972512,2.6321
-315,442,-0.445557,-2.89764,0,0,0,0,0,0,0,-1,909,582,-0.445582,2.89765
-308,442,-0.654175,-3.07831,0,0,0,0,0,0,0,-1,916,582,-0.654145,3.07832
-301,442,-1.37427,-2.41455,0,0,0,0,0,0,0,-1,923,582,-1.37425,2.41453
-294,442,-2.99963,-2.07855,0,0,0,0,0,0,0,-1,930,582,-2.99964,2.07857
-287,442,3.7572,-9.54358,0,0,0,0,0,0,0,-1,937,582,3.75717,9.54357
-280,442,0,0,0,0,0,0,0,0,0,-1,944,582,0,0
-273,442,0,0,0,0,0,0,0,0,0,-1,951,582,0,0
-266,442,0,0,0,0,0,0,0,0,0,-1,958,582,0,0
-259,442,0,0,0,0,0,0,0,0,0,-1,965,582,0,0
-252,442,0,0,0,0,0,0,0,0,0,-1,972,582,0,0
-245,442,0,0,0,0,0,0,0,0,0,-1,979,582,0,0
-238,442,0,0,0,0,0,0,0,0,0,-1,986,582,0,0
-231,442,0,0,0,0,0,0,0,0,0,-1,993,582,0,0
-224,442,0,0,0,0,0,0,0,0,0,-1,1000,582,0,0
-217,442,0,0,0,0,0,0,0,0,0,-1,1007,582,0,0
-210,442,0,0,0,0,0,0,0,0,0,-1,1014,582,0,0
-203,442,0,0,0,0,0,0,0,0,0,-1,1021,582,0,0
-196,442,0,0,0,0,0,0,0,0,0,-1,1028,582,0,0
-189,442,0,0,0,0,0,0,0,0,0,-1,1035,582,0,0
-182,442,0,0,0,0,0,0,0,0,0,-1,1042,582,0,0
-175,442,0,0,0,0,0,0,0,0,0,-1,1049,582,0,0
-168,442,0,0,0,0,0,0,0,0,0,-1,1056,582,0,0
-161,442,0,0,0,0,0,0,0,0,0,-1,1063,582,0,0
-154,442,0,0,0,0,0,0,0,0,0,-1,1070,582,0,0
-147,442,0,0,0,0,0,0,0,0,0,-1,1077,582,0,0
-140,442,0,0,0,0,0,0,0,0,0,-1,1084,582,0,0
-133,442,0,0,0,0,0,0,0,0,0,-1,1091,582,0,0
-126,442,0,0,0,0,0,0,0,0,0,-1,1098,582,0,0
-119,442,0,0,0,0,0,0,0,0,0,-1,1105,582,0,0
-112,442,0,0,0,0,0,0,0,0,0,-1,1112,582,0,0
-105,442,0,0,0,0,0,0,0,0,0,-1,1119,582,0,0
-98,442,0,0,0,0,0,0,0,0,0,-1,1126,582,0,0
-91,442,0,0,0,0,0,0,0,0,0,-1,1133,582,0,0
-84,442,0,0,0,0,0,0,0,0,0,-1,1140,582,0,0
-77,442,0,0,0,0,0,0,0,0,0,-1,1147,582,0,0
-70,442,0,0,0,0,0,0,0,0,0,-1,1154,582,0,0
-63,442,0,0,0,0,0,0,0,0,0,-1,1161,582,0,0
-56,442,0,0,0,0,0,0,0,0,0,-1,1168,582,0,0
-49,442,0,0,0,0,0,0,0,0,0,-1,1175,582,0,0
-42,442,0,0,0,0,0,0,0,0,0,-1,1182,582,0,0
-35,442,0,0,0,0,0,0,0,0,0,-1,1189,582,0,0
-28,442,0,0,0,0,0,0,0,0,0,-1,1196,582,0,0
-21,442,0,0,0,0,0,0,0,0,0,-1,1203,582,0,0
-14,442,0,0,0,0,0,0,0,0,0,-1,1210,582,0,0
-7,442,0,0,0,0,0,0,0,0,0,-1,1217,582,0,0
0,442,0,0,0,0,0,0,0,0,0,-1,1224,582,0,0
7,442,0,0,0,0,0,0,0,0,0,-1,1231,582,0,0
14,442,0,0,0,0,0,0,0,0,0,-1,1238,582,0,0
21,442,0,0,0,0,0,0,0,0,0,-1,1245,582,0,0
28,442,0,0,0,0,0,0,0,0,0,-1,1252,582,0,0
35,442,0,0,0,0,0,0,0,0,0,-1,1259,582,0,0
42,442,0,0,0,0,0,0,0,0,0,-1,1266,582,0,0
49,442,0,0,0,0,0,0,0,0,0,-1,1273,582,0,0
56,442,0,0,0,0,0,0,0,0,0,-1,1280,582,0,0
63,442,0,0,0,0,0,0,0,0,0,-1,1287,582,0,0
70,442,0,0,0,0,0,0,0,0,0,-1,1294,582,0,0
77,442,0,0,0,0,0,0,0,0,0,-1,1301,582,0,0
84,442,0,0,0,0,0,0,0,0,0,-1,1308,582,0,0
91,442,0,0,0,0,0,0,0,0,0,-1,1315,582,0,0
98,442,0,0,0,0,0,0,0,0,0,-1,1322,582,0,0
105,442,0,0,0,0,0,0,0,0,0,-1,1329,582,0,0
112,442,0,0,0,0,0,0,0,0,0,-1,1336,582,0,0
119,442,0,0,0,0,0,0,0,0,0,-1,1343,582,0,0
126,442,0,0,0,0,0,0,0,0,0,-1,1350,582,0,0
133,442,0,0,0,0,0,0,0,0,0,-1,1357,582,0,0
140,442,0,0,0,0,0,0,0,0,0,-1,1364,582,0,0
147,442,0,0,0,0,0,0,0,0,0,-1,1371,582,0,0
154,442,0,0,0,0,0,0,0,0,0,-1,1378,582,0,0
161,442,0,0,0,0,0,0,0,0,0,-1,1385,582,0,0
168,442,0,0,0,0,0,0,0,0,0,-1,1392,582,0,0
175,442,0,0,0,0,0,0,0,0,0,-1,1399,582,0,0
182,442,0,0,0,0,0,0,0,0,0,-1,1406,582,0,0
189,442,0,0,0,0,0,0,0,0,0,-1,1413,582,0,0
196,442,0,0,0,0,0,0,0,0,0,-1,1420,582,0,0
203,442,0,0,0,0,0,0,0,0,0,-1,1427,582,0,0
210,442,0,0,0,0,0,0,0,0,0,-1,1434,582,0,0
217,442,0,0,0,0,0,0,0,0,0,-1,1441,582,0,0
224,442,0,0,0,0,0,0,0,0,0,-1,1448,582,0,0
231,442,0,0,0,0,0,0,0,0,0,-1,1455,582,0,0
238,442,0,0,0,0,0,0,0,0,0,-1,1462,582,0,0
245,442,0,0,0,0,0,0,0,0,0,-1,1469,582,0,0
252,442,0,0,0,0,0,0,0,0,0,-1,1476,582,0,0
259,442,0,0,0,0,0,0,0,0,0,-1,1483,582,0,0
266,442,0,0,0,0,0,0,0,0,0,-1,1490,582,0,0
273,442,0,0,0,0,0,0,0,0,0,-1,1497,582,0,0
280,442,0,0,0,0,0,0,0,0,0,-1,1504,582,0,0
287,442,0,0,0,0,0,0,0,0,0,-1,1511,582,0,0
294,442,0,0,0,0,0,0,0,0,0,-1,1518,582,0,0
301,442,0,0,0,0,0,0,0,0,0,-1,1525,582,0,0
308,442,0,0,0,0,0,0,0,0,0,-1,1532,582,0,0
315,442,0,0,0,0,0,0,0,0,0,-1,1539,582,0,0
322,442,0,0,0,0,0,0,0,0,0,-1,1546,582,0,0
329,442,0,0,0,0,0,0,0,0,0,-1,1553,582,0,0
336,442,0,0,0,0,0,0,0,0,0,-1,1560,582,0,0
343,442,0,0,0,0,0,0,0,0,0,-1,1567,582,0,0
350,442,0,0,0,0,0,0,0,0,0,-1,1574,582,0,0
357,442,0,0,0,0,0,0,0,0,0,-1,1581,582,0,0
364,442,0,0,0,0,0,0,0,0,0,-1,1588,582,0,0
371,442,0,0,0,0,0,0,0,0,0,-1,1595,582,0,0
378,442,0,0,0,0,0,0,0,0,0,-1,1602,582,0,0
385,442,0,0,0,0,0,0,0,0,0,-1,1609,582,0,0
392,442,0,0,0,0,0,0,0,0,0,-1,1616,582,0,0
399,442,0,0,0,0,0,0,0,0,0,-1,1623,582,0,0
406,442,17.6321,4.08295,0,0,0,0,0,0,0,-1,1630,582,17.6321,-4.08293
413,442,25.4768,2.74445,0,0,0,0,0,0,0,-1,1637,582,25.4768,-2.74444
420,442,22.7478,1.55011,0,0,0,0,0,0,0,-1,1644,582,22.7478,-1.55009
427,442,23.2969,-0.456787,0,0,0,0,0,0,0,-1,1651,582,23.2968,0.456769
434,442,23.9512,-2.49365,0,0,0,0,0,0,0,-1,1658,582,23.9512,2.49366
441,442,24.8251,-4.43958,0,0,0,0,0,0,0,-1,1665,582,24.8251,4.43956
448,442,4.7749,-5.88562,0,0,0,0,0,0,0,-1,1672,582,4.7749,5.8856
455,442,4.87024,-4.60687,0,0,0,0,0,0,0,-1,1679,582,4.87019,4.60686
462,442,5.02307,-3.72821,0,0,0,0,0,0,0,-1,1686,582,5.02311,3.7282
469,442,5.12976,-2.98834,0,0,0,0,0,0,0,-1,1693,582,5.12971,2.98834
476,442,5.4624,1.76947,0,0,0,0,0,0,0,-1,1700,582,5.46234,-1.76944
483,442,5.98486,1.87042,0,0,0,0,0,0,0,-1,1707,582,5.98492,-1.87045
490,442,5.04407,-2.35834,0,0,0,0,0,0,0,-1,1714,582,5.04411,2.35837
497,442,6.20984,-3.07831,0,0,0,0,0,0,0,-1,1721,582,6.2098,3.07833
504,442,19.7247,-18.2076,0,0,0,0,0,0,0,-1,1728,582,19.7247,18.2076
511,442,19.8107,-17.2625,0.00419188,0.00244768,0.00225783,0.00574019,0.000899369,0.601097,0.00356502,0.0449131,1735,582,19.8106,17.2625
518,442,19.8663,-16.4583,0.00368609,0.0018186,0.00200065,0.00496017,0.000544523,0.567062,0.00314104,0.0126383,1742,582,19.8663,16.4582
525,442,19.8199,-15.795,0.00305216,0.00149661,0.00173072,0.00417183,0.00037693,0.574223,0.00266448,0.0109942,1749,582,19.8199,15.795
532,442,19.7892,-15.1334,0.00244295,0.00131775,0.00152359,0.0035045,0.000256203,0.608534,0.00225579,0.0112185,1756,582,19.7892,15.1334
539,442,19.7626,-14.4558,0.00193822,0.00128053,0.00141799,0.00306499,0.000153754,0.671458,0.00199406,0.0131712,1763,582,19.7626,14.4558
546,442,19.7623,-13.7874,0.0015438,0.00138886,0.00136359,0.00283212,0.000100548,0.757022,0.00185547,0.01747,1770,582,19.7623,13.7874
553,442,19.7097,-13.1303,0.00115666,0.00162164,0.00138447,0.002793,-1.46994e-05,0.868585,0.00186692,0.0179919,1777,582,19.7098,13.1303
560,442,19.7008,-12.4706,0.000789311,0.00192169,0.00147682,0.00293713,-0.000226134,0.968448,0.00203765,0.0162183,1784,582,19.7008,12.4706
567,442,19.6617,-11.8039,0.000617513,0.0024323,0.00175067,0.00349677,-0.000446948,1.02449,0.00249355,0.011589,1791,582,19.6617,11.8039
574,442,19.661,-11.1239,0.00050033,0.00301101,0.00209968,0.004202,-0.000690666,1.05482,0.00305767,0.013664,1798,582,19.661,11.1239
581,442,19.7107,-10.3417,0.000385046,0.00364579,0.00250247,0.00500213,-0.0009713,1.07411,0.00370125,0.0281331,1805,582,19.7106,10.3417
588,442,19.8193,-9.53546,0,0,0,0,0,0,0,-1,1812,582,19.8193,9.53547
595,442,16.27,-6.47083,0,0,0,0,0,0,0,-1,1819,582,16.27,6.47082
602,442,16.2213,-4.49225,0,0,0,0,0,0,0,-1,1826,582,16.2213,4.49223
609,442,12.761,2.97223,0,0,0,0,0,0,0,-1,1833,582,12.761,-2.97221
616,442,9.78345,-0.103394,0,0,0,0,0,0,0,-1,1840,582,9.78341,0.103424
623,442,9.23828,0.326721,0,0,0,0,0,0,0,-1,1847,582,9.23829,-0.326727
630,442,7.74304,2.3924,0,0,0,0,0,0,0,-1,1854,582,7.7431,-2.39238
637,442,5.87805,1.84027,0,0,0,0,0,0,0,-1,1861,582,5.87807,-1.84025
644,442,0,0,0,0,0,0,0,0,0,-1,1868,582,0,0
651,442,0,0,0,0,0,0,0,0,0,-1,1875,582,0,0
658,442,0,0,0,0,0,0,0,0,0,-1,1882,582,0,0
665,442,0,0,0,0,0,0,0,0,0,-1,1889,582,0,0
672,442,0,0,0,0,0,0,0,0,0,-1,1896,582,0,0
679,442,0,0,0,0,0,0,0,0,0,-1,1903,582,0,0
686,442,0,0,0,0,0,0,0,0,0,-1,1910,582,0,0
693,442,0,0,0,0,0,0,0,0,0,-1,1917,582,0,0
700,442,0,0,0,0,0,0,0,0,0,-1,1924,582,0,0
707,442,0,0,0,0,0,0,0,0,0,-1,1931,582,0,0
714,442,0,0,0,0,0,0,0,0,0,-1,1938,582,0,0
721,442,0,0,0,0,0,0,0,0,0,-1,1945,582,0,0
728,442,0,0,0,0,0,0,0,0,0,-1,1952,582,0,0
735,442,0,0,0,0,0,0,0,0,0,-1,1959,582,0,0
742,442,0,0,0,0,0,0,0,0,0,-1,1966,582,0,0
749,442,0,0,0,0,0,0,0,0,0,-1,1973,582,0,0
756,442,0,0,0,0,0,0,0,0,0,-1,1980,582,0,0
763,442,0,0,0,0,0,0,0,0,0,-1,1987,582,0,0
770,442,0,0,0,0,0,0,0,0,0,-1,1994,582,0,0
777,442,0,0,0,0,0,0,0,0,0,-1,2001,582,0,0
784,442,0,0,0,0,0,0,0,0,0,-1,2008,582,0,0
791,442,0,0,0,0,0,0,0,0,0,-1,2015,582,0,0
798,442,0,0,0,0,0,0,0,0,0,-1,2022,582,0,0
805,442,0,0,0,0,0,0,0,0,0,-1,2029,582,0,0
812,442,0,0,0,0,0,0,0,0,0,-1,2036,582,0,0
-700,435,0,0,0,0,0,0,0,0,0,-1,524,589,0,0
-693,435,0,0,0,0,0,0,0,0,0,-1,531,589,0,0
-686,435,0,0,0,0,0,0,0,0,0,-1,538,589,0,0
-679,435,0,0,0,0,0,0,0,0,0,-1,545,589,0,0
-672,435,0,0,0,0,0,0,0,0,0,-1,552,589,0,0
-665,435,0,0,0,0,0,0,0,0,0,-1,559,589,0,0
-658,435,0,0,0,0,0,0,0,0,0,-1,566,589,0,0
-651,435,0,0,0,0,0,0,0,0,0,-1,573,589,0,0
-644,435,0,0,0,0,0,0,0,0,0,-1,580,589,0,0
-637,435,0,0,0,0,0,0,0,0,0,-1,587,589,0,0
-630,435,0,0,0,0,0,0,0,0,0,-1,594,589,0,0
-623,435,0,0,0,0,0,0,0,0,0,-1,601,589,0,0
-616,435,0,0,0,0,0,0,0,0,0,-1,608,589,0,0
-609,435,0,0,0,0,0,0,0,0,0,-1,615,589,0,0
-602,435,0,0,0,0,0,0,0,0,0,-1,622,589,0,0
-595,435,0,0,0,0,0,0,0,0,0,-1,629,589,0,0
-588,435,0,0,0,0,0,0,0,0,0,-1,636,589,0,0
-581,435,0,0,0,0,0,0,0,0,0,-1,643,589,0,0
-574,435,0,0,0,0,0,0,0,0,0,-1,650,589,0,0
-567,435,0,0,0,0,0,0,0,0,0,-1,657,589,0,0
-560,435,0,0,0,0,0,0,0,0,0,-1,664,589,0,0
-553,435,0,0,0,0,0,0,0,0,0,-1,671,589,0,0
-546,435,0,0,0,0,0,0,0,0,0,-1,678,589,0,0
-539,435,0,0,0,0,0,0,0,0,0,-1,685,589,0,0
-532,435,0,0,0,0,0,0,0,0,0,-1,692,589,0,0
-525,435,-10.0776,10.0547,0,0,0,0,0,0,0,-1,699,589,-10.0776,-10.0547
-518,435,-1.83093,-5.82367,0,0,0,0,0,0,0,-1,706,589,-1.83093,5.8237
-511,435,-2.45154,-5.33118,0,0,0,0,0,0,0,-1,713,589,-2.45151,5.33115
-504,435,-3.07208,-4.83862,0,0,0,0,0,0,0,-1,720,589,-3.0721,4.8386
-497,435,-6.31012,-5.84698,0,0,0,0,0,0,0,-1,727,589,-6.31012,5.84697
-490,435,-5.81903,-0.458679,0,0,0,0,0,0,0,-1,734,589,-5.81902,0.458684
-483,435,-6.96503,-3.01624,0,0,0,0,0,0,0,-1,741,589,-6.96505,3.01623
-476,435,-9.11243,-9.38043,0,0,0,0,0,0,0,-1,748,589,-9.11241,9.38044
-469,435,-8.72302,-10.138,0,0,0,0,0,0,0,-1,755,589,-8.723,10.138
-462,435,-8.65674,-10.8922,0,0,0,0,0,0,0,-1,762,589,-8.65671,10.8922
-455,435,-8.71008,-11.8051,-0.00122268,0.00668836,-0.00198331,0.00715773,-0.00169205,-1.33841,0.00542452,0.0247862,769,589,-8.71008,11.8051
-448,435,-8.71771,-12.5359,-0.000715727,0.00536916,-0.00174942,0.00583627,-0.00118283,-1.30988,0.0043392,0.0134833,776,589,-8.71772,12.5359
-441,435,-8.73425,-13.1901,-0.000295599,0.00406899,-0.00141844,0.00448947,-0.000716069,-1.28262,0.003258,0.010832,783,589,-8.73425,13.19
-434,435,-8.75977,-13.8333,7.79625e-05,0.00297005,-0.00109622,0.0033386,-0.000290583,-1.24647,0.00232864,0.0118989,790,589,-8.75979,13.8333
-427,435,-8.78955,-14.5013,0.000396782,0.00191719,-0.000755991,0.0022291,8.48697e-05,-1.17949,0.0014586,0.010017,797,589,-8.78954,14.5013
-420,435,-8.81165,-15.141,0.000732055,0.000962293,-0.000457,0.00131845,0.000375897,-0.908782,0.000784292,0.0107574,804,589,-8.81164,15.141
-413,435,-8.82373,-15.7664,0.00098039,4.86707e-06,-7.65704e-05,0.000986363,-1.10647e-06,-0.0778562,0.000657945,0.0118311,811,589,-8.82375,15.7664
-406,435,-8.8349,-16.4043,0.00120406,-0.000890933,0.000324476,0.00125316,-0.000940037,0.150195,0.00127054,0.0127382,818,589,-8.83488,16.4043
-399,435,-8.88031,-17.0477,0.00161388,-0.00161131,0.000593364,0.00171958,-0.00171702,0.17629,0.00198412,0.0105906,825,589,-8.88033,17.0477
-392,435,-8.92065,-17.6753,0.00224723,-0.00216491,0.000731936,0.00236548,-0.00228317,0.160177,0.00268404,0.0106063,832,589,-8.92064,17.6753
-385,435,-8.92139,-18.301,0.00296175,-0.00256154,0.000729477,0.00305647,-0.00265626,0.129124,0.00330094,0.0205115,839,589,-8.92137,18.301
-378,435,-8.94183,-18.8677,0.00386995,-0.00299687,0.000734197,0.00394757,-0.00307449,0.105333,0.00406462,0.0468189,846,589,-8.94181,18.8677
-371,435,-9.1853,-19.5336,0,0,0,0,0,0,0,-1,853,589,-9.18527,19.5336
-364,435,-5.62848,-11.5937,0,0,0,0,0,0,0,-1,860,589,-5.62847,11.5937
-357,435,-5.57343,-10.9666,0,0,0,0,0,0,0,-1,867,589,-5.57342,10.9666
-350,435,-0.86676,-3.69836,0,0,0,0,0,0,0,-1,874,589,-0.866784,3.69834
-343,435,-1.60706,-2.36835,0,0,0,0,0,0,0,-1,881,589,-1.60706,2.36838
-336,435,-2.07263,-1.94012,0,0,0,0,0,0,0,-1,888,589,-2.07265,1.94014
-329,435,-2.55963,-1.5517,0,0,0,0,0,0,0,-1,895,589,-2.5596,1.55168
-322,435,-3.08545,-1.55255,0,0,0,0,0,0,0,-1,902,589,-3.08544,1.55254
-315,435,-0.404297,-2.63763,0,0,0,0,0,0,0,-1,909,589,-0.404276,2.63761
-308,435,-1.70056,-1.90369,0,0,0,0,0,0,0,-1,916,589,-1.70056,1.90367
-301,435,-1.25232,-2.05511,0,0,0,0,0,0,0,-1,923,589,-1.25234,2.05514
-294,435,0.75238,-5.02625,0,0,0,0,0,0,0,-1,930,589,0.752354,5.02627
-287,435,0,0,0,0,0,0,0,0,0,-1,937,589,0,0
-280,435,0,0,0,0,0,0,0,0,0,-1,944,589,0,0
-273,435,0,0,0,0,0,0,0,0,0,-1,951,589,0,0
-266,435,0,0,0,0,0,0,0,0,0,-1,958,589,0,0
-259,435,0,0,0,0,0,0,0,0,0,-1,965,589,0,0
-252,435,0,0,0,0,0,0,0,0,0,-1,972,589,0,0
-245,435,0,0,0,0,0,0,0,0,0,-1,979,589,0,0
-238,435,0,0,0,0,0,0,0,0,0,-1,986,589,0,0
-231,435,0,0,0,0,0,0,0,0,0,-1,993,589,0,0
-224,435,0,0,0,0,0,0,0,0,0,-1,1000,589,0,0
-217,435,0,0,0,0,0,0,0,0,0,-1,1007,589,0,0
-210,435,0,0,0,0,0,0,0,0,0,-1,1014,589,0,0
-203,435,0,0,0,0,0,0,0,0,0,-1,1021,589,0,0
-196,435,0,0,0,0,0,0,0,0,0,-1,1028,589,0,0
-189,435,0,0,0,0,0,0,0,0,0,-1,1035,589,0,0
-182,435,0,0,0,0,0,0,0,0,0,-1,1042,589,0,0
-175,435,0,0,0,0,0,0,0,0,0,-1,1049,589,0,0
-168,435,0,0,0,0,0,0,0,0,0,-1,1056,589,0,0
-161,435,0,0,0,0,0,0,0,0,0,-1,1063,589,0,0
-154,435,0,0,0,0,0,0,0,0,0,-1,1070,589,0,0
-147,435,0,0,0,0,0,0,0,0,0,-1,1077,589,0,0
-140,435,0,0,0,0,0,0,0,0,0,-1,1084,589,0,0
-133,435,0,0,0,0,0,0,0,0,0,-1,1091,589,0,0
-126,435,0,0,0,0,0,0,0,0,0,-1,1098,589,0,0
-119,435,0,0,0,0,0,0,0,0,0,-1,1105,589,0,0
-112,435,0,0,0,0,0,0,0,0,0,-1,1112,589,0,0
-105,435,0,0,0,0,0,0,0,0,0,-1,1119,589,0,0
-98,435,0,0,0,0,0,0,0,0,0,-1,1126,589,0,0
-91,435,0,0,0,0,0,0,0,0,0,-1,1133,589,0,0
-84,435,0,0,0,0,0,0,0,0,0,-1,1140,589,0,0
-77,435,0,0,0,0,0,0,0,0,0,-1,1147,589,0,0
-70,435,0,0,0,0,0,0,0,0,0,-1,1154,589,0,0
-63,435,0,0,0,0,0,0,0,0,0,-1,1161,589,0,0
-56,435,0,0,0,0,0,0,0,0,0,-1,1168,589,0,0
-49,435,0,0,0,0,0,0,0,0,0,-1,1175,589,0,0
-42,435,0,0,0,0,0,0,0,0,0,-1,1182,589,0,0
-35,435,0,0,0,0,0,0,0,0,0,-1,1189,589,0,0
-28,435,0,0,0,0,0,0,0,0,0,-1,1196,589,0,0
-21,435,0,0,0,0,0,0,0,0,0,-1,1203,589,0,0
-14,435,0,0,0,0,0,0,0,0,0,-1,1210,589,0,0
-7,435,0,0,0,0,0,0,0,0,0,-1,1217,589,0,0
0,435,0,0,0,0,0,0,0,0,0,-1,1224,589,0,0
7,435,0,0,0,0,0,0,0,0,0,-1,1231,589,0,0
14,435,0,0,0,0,0,0,0,0,0,-1,1238,589,0,0
21,435,0,0,0,0,0,0,0,0,0,-1,1245,589,0,0
28,435,0,0,0,0,0,0,0,0,0,-1,1252,589,0,0
35,435,0,0,0,0,0,0,0,0,0,-1,1259,589,0,0
42,435,0,0,0,0,0,0,0,0,0,-1,1266,589,0,0
49,435,0,0,0,0,0,0,0,0,0,-1,1273,589,0,0
56,435,0,0,0,0,0,0,0,0,0,-1,1280,589,0,0
63,435,0,0,0,0,0,0,0,0,0,-1,1287,589,0,0
70,435,0,0,0,0,0,0,0,0,0,-1,1294,589,0,0
77,435,0,0,0,0,0,0,0,0,0,-1,1301,589,0,0
84,435,0,0,0,0,0,0,0,0,0,-1,1308,589,0,0
91,435,0,0,0,0,0,0,0,0,0,-1,1315,589,0,0
98,435,0,0,0,0,0,0,0,0,0,-1,1322,589,0,0
105,435,0,0,0,0,0,0,0,0,0,-1,1329,589,0,0
112,435,0,0,0,0,0,0,0,0,0,-1,1336,589,0,0
119,435,0,0,0,0,0,0,0,0,0,-1,1343,589,0,0
126,435,0,0,0,0,0,0,0,0,0,-1,1350,589,0,0
133,435,0,0,0,0,0,0,0,0,0,-1,1357,589,0,0
140,435,0,0,0,0,0,0,0,0,0,-1,1364,589,0,0
147,435,0,0,0,0,0,0,0,0,0,-1,1371,589,0,0
154,435,0,0,0,0,0,0,0,0,0,-1,1378,589,0,0
161,435,0,0,0,0,0,0,0,0,0,-1,1385,589,0,0
168,435,0,0,0,0,0,0,0,0,0,-1,1392,589,0,0
175,435,0,0,0,0,0,0,0,0,0,-1,1399,589,0,0
182,435,0,0,0,0,0,0,0,0,0,-1,1406,589,0,0
189,435,0,0,0,0,0,0,0,0,0,-1,1413,589,0,0
196,435,0,0,0,0,0,0,0,0,0,-1,1420,589,0,0
203,435,0,0,0,0,0,0,0,0,0,-1,1427,589,0,0
210,435,0,0,0,0,0,0,0,0,0,-1,1434,589,0,0
217,435,0,0,0,0,0,0,0,0,0,-1,1441,589,0,0
224,435,0,0,0,0,0,0,0,0,0,-1,1448,589,0,0
231,435,0,0,0,0,0,0,0,0,0,-1,1455,589,0,0
238,435,0,0,0,0,0,0,0,0,0,-1,1462,589,0,0
245,435,0,0,0,0,0,0,0,0,0,-1,1469,589,0,0
252,435,0,0,0,0,0,0,0,0,0,-1,1476,589,0,0
259,435,0,0,0,0,0,0,0,0,0,-1,1483,589,0,0
266,435,0,0,0,0,0,0,0,0,0,-1,1490,589,0,0
273,435,0,0,0,0,0,0,0,0,0,-1,1497,589,0,0
280,435,0,0,0,0,0,0,0,0,0,-1,1504,589,0,0
287,435,0,0,0,0,0,0,0,0,0,-1,1511,589,0,0
294,435,0,0,0,0,0,0,0,0,0,-1,1518,589,0,0
301,435,0,0,0,0,0,0,0,0,0,-1,1525,589,0,0
308,435,0,0,0,0,0,0,0,0,0,-1,1532,589,0,0
315,435,0,0,0,0,0,0,0,0,0,-1,1539,589,0,0
322,435,0,0,0,0,0,0,0,0,0,-1,1546,589,0,0
329,435,0,0,0,0,0,0,0,0,0,-1,1553,589,0,0
336,435,0,0,0,0,0,0,0,0,0,-1,1560,589,0,0
343,435,0,0,0,0,0,0,0,0,0,-1,1567,589,0,0
350,435,0,0,0,0,0,0,0,0,0,-1,1574,589,0,0
357,435,0,0,0,0,0,0,0,0,0,-1,1581,589,0,0
364,435,0,0,0,0,0,0,0,0,0,-1,1588,589,0,0
371,435,0,0,0,0,0,0,0,0,0,-1,1595,589,0,0
378,435,0,0,0,0,0,0,0,0,0,-1,1602,589,0,0
385,435,0,0,0,0,0,0,0,0,0,-1,1609,589,0,0
392,435,0,0,0,0,0,0,0,0,0,-1,1616,589,0,0
399,435,0,0,0,0,0,0,0,0,0,-1,1623,589,0,0
406,435,0,0,0,0,0,0,0,0,0,-1,1630,589,0,0
413,435,20.4565,3.49835,0,0,0,0,0,0,0,-1,1637,589,20.4565,-3.49836
420,435,21.4015,1.49609,0,0,0,0,0,0,0,-1,1644,589,21.4015,-1.49609
427,435,22.0464,-0.373962,0,0,0,0,0,0,0,-1,1651,589,22.0464,0.373972
434,435,22.1863,-1.54407,0,0,0,0,0,0,0,-1,1658,589,22.1862,1.54405
441,435,22.3992,-2.38287,0,0,0,0,0,0,0,-1,1665,589,22.3992,2.38289
448,435,7.4585,-0.00292969,0,0,0,0,0,0,0,-1,1672,589,7.45848,0.00294131
455,435,5.49915,-5.047,0,0,0,0,0,0,0,-1,1679,589,5.49914,5.04703
462,435,5.60669,-4.71466,0,0,0,0,0,0,0,-1,1686,589,5.60675,4.71469
469,435,5.87708,1.22351,0,0,0,0,0,0,0,-1,1693,589,5.87703,-1.22351
476,435,6.14136,1.37714,0,0,0,0,0,0,0,-1,1700,589,6.14138,-1.37712
483,435,6.49243,1.36169,0,0,0,0,0,0,0,-1,1707,589,6.49242,-1.36171
490,435,4.38391,-1.36218,0,0,0,0,0,0,0,-1,1714,589,4.38389,1.3622
497,435,7.23499,-3.64551,0,0,0,0,0,0,0,-1,1721,589,7.23495,3.64551
504,435,7.31189,-3.75909,0,0,0,0,0,0,0,-1,1728,589,7.31184,3.75911
511,435,20.3766,-17.1826,0,0,0,0,0,0,0,-1,1735,589,20.3766,17.1826
518,435,20.5271,-16.4342,0.00476772,0.00213504,0.00244211,0.00622566,0.000677095,0.538212,0.00394417,0.0288079,1742,589,20.5271,16.4342
525,435,20.4777,-15.7516,0.00398571,0.00164721,0.00202475,0.00515457,0.000478352,0.523551,0.00328854,0.0125106,1749,589,20.4776,15.7516
532,435,20.4661,-15.0808,0.00323608,0.00134498,0.00167995,0.0042183,0.000362762,0.529072,0.00269941,0.0143631,1756,589,20.4661,15.0808
539,435,20.4642,-14.4061,0.00263914,0.00124603,0.00148915,0.00358659,0.000298581,0.56664,0.00229801,0.0158921,1763,589,20.4642,14.4061
546,435,20.4149,-13.7558,0.00216035,0.00125774,0.0013647,0.00314643,0.000271662,0.62571,0.00201318,0.0151971,1770,589,20.4149,13.7558
553,435,20.3667,-13.1155,0.00169807,0.0014137,0.00131834,0.00288187,0.000229905,0.731679,0.00184938,0.0112291,1777,589,20.3667,13.1156
560,435,20.3464,-12.4509,0.00124536,0.00163076,0.00133969,0.00279153,8.45859e-05,0.856827,0.00183348,0.00971835,1784,589,20.3464,12.4509
567,435,20.3523,-11.7497,0.00095085,0.00202109,0.00150827,0.00308635,-0.000114413,0.955866,0.00209675,0.0092383,1791,589,20.3523,11.7497
574,435,20.3182,-11.067,0.000747935,0.00252589,0.00176897,0.00361669,-0.000342872,1.01824,0.00253317,0.0106167,1798,589,20.3182,11.067
581,435,20.2844,-10.3845,0.00059894,0.00308478,0.0021015,0.00428341,-0.00059969,1.05245,0.00307506,0.0181719,1805,589,20.2844,10.3845
588,435,20.2587,-9.7442,0.000653378,0.00383351,0.0025925,0.00528472,-0.000797835,1.06048,0.00381699,0.0442581,1812,589,20.2587,9.7442
595,435,20.2928,-8.81384,0,0,0,0,0,0,0,-1,1819,589,20.2929,8.81382
602,435,16.8671,-6.39026,0,0,0,0,0,0,0,-1,1826,589,16.867,6.39024
609,435,15.2611,-3.42242,0,0,0,0,0,0,0,-1,1833,589,15.2611,3.42242
616,435,5.05151,-2.75269,0,0,0,0,0,0,0,-1,1840,589,5.05157,2.7527
623,435,11.7588,3.9704,0,0,0,0,0,0,0,-1,1847,589,11.7587,-3.97043
630,435,4.72742,-0.87561,0,0,0,0,0,0,0,-1,1854,589,4.7274,0.875636
637,435,5.05286,1.48792,0,0,0,0,0,0,0,-1,1861,589,5.05291,-1.48792
644,435,0,0,0,0,0,0,0,0,0,-1,1868,589,0,0
651,435,0,0,0,0,0,0,0,0,0,-1,1875,589,0,0
658,435,0,0,0,0,0,0,0,0,0,-1,1882,589,0,0
665,435,0,0,0,0,0,0,0,0,0,-1,1889,589,0,0
672,435,0,0,0,0,0,0,0,0,0,-1,1896,589,0,0
679,435,0,0,0,0,0,0,0,0,0,-1,1903,589,0,0
686,435,0,0,0,0,0,0,0,0,0,-1,1910,589,0,0
693,435,0,0,0,0,0,0,0,0,0,-1,1917,589,0,0
700,435,0,0,0,0,0,0,0,0,0,-1,1924,589,0,0
707,435,0,0,0,0,0,0,0,0,0,-1,1931,589,0,0
714,435,0,0,0,0,0,0,0,0,0,-1,1938,589,0,0
721,435,0,0,0,0,0,0,0,0,0,-1,1945,589,0,0
728,435,0,0,0,0,0,0,0,0,0,-1,1952,589,0,0
735,435,0,0,0,0,0,0,0,0,0,-1,1959,589,0,0
742,435,0,0,0,0,0,0,0,0,0,-1,1966,589,0,0
749,435,0,0,0,0,0,0,0,0,0,-1,1973,589,0,0
756,435,0,0,0,0,0,0,0,0,0,-1,1980,589,0,0
763,435,0,0,0,0,0,0,0,0,0,-1,1987,589,0,0
770,435,0,0,0,0,0,0,0,0,0,-1,1994,589,0,0
777,435,0,0,0,0,0,0,0,0,0,-1,2001,589,0,0
784,435,0,0,0,0,0,0,0,0,0,-1,2008,589,0,0
791,435,0,0,0,0,0,0,0,0,0,-1,2015,589,0,0
798,435,0,0,0,0,0,0,0,0,0,-1,2022,589,0,0
805,435,0,0,0,0,0,0,0,0,0,-1,2029,589,0,0
812,435,0,0,0,0,0,0,0,0,0,-1,2036,589,0,0
-700,428,0,0,0,0,0,0,0,0,0,-1,524,596,0,0
-693,428,0,0,0,0,0,0,0,0,0,-1,531,596,0,0
-686,428,0,0,0,0,0,0,0,0,0,-1,538,596,0,0
-679,428,0,0,0,0,0,0,0,0,0,-1,545,596,0,0
-672,428,0,0,0,0,0,0,0,0,0,-1,552,596,0,0
-665,428,0,0,0,0,0,0,0,0,0,-1,559,596,0,0
-658,428,0,0,0,0,0,0,0,0,0,-1,566,596,0,0
-651,428,0,0,0,0,0,0,0,0,0,-1,573,596,0,0
-644,428,0,0,0,0,0,0,0,0,0,-1,580,596,0,0
-637,428,0,0,0,0,0,0,0,0,0,-1,587,596,0,0
-630,428,0,0,0,0,0,0,0,0,0,-1,594,596,0,0
-623,428,0,0,0,0,0,0,0,0,0,-1,601,596,0,0
-616,428,0,0,0,0,0,0,0,0,0,-1,608,596,0,0
-609,428,0,0,0,0,0,0,0,0,0,-1,615,596,0,0
-602,428,0,0,0,0,0,0,0,0,0,-1,622,596,0,0
-595,428,0,0,0,0,0,0,0,0,0,-1,629,596,0,0
-588,428,0,0,0,0,0,0,0,0,0,-1,636,596,0,0
-581,428,0,0,0,0,0,0,0,0,0,-1,643,596,0,0
-574,428,0,0,0,0,0,0,0,0,0,-1,650,596,0,0
-567,428,0,0,0,0,0,0,0,0,0,-1,657,596,0,0
-560,428,0,0,0,0,0,0,0,0,0,-1,664,596,0,0
-553,428,0,0,0,0,0,0,0,0,0,-1,671,596,0,0
-546,428,0,0,0,0,0,0,0,0,0,-1,678,596,0,0
-539,428,0,0,0,0,0,0,0,0,0,-1,685,596,0,0
-532,428,0,0,0,0,0,0,0,0,0,-1,692,596,0,0
-525,428,-9.59918,7.58618,0,0,0,0,0,0,0,-1,699,596,-9.59918,-7.5862
-518,428,-2.92285,-4.81854,0,0,0,0,0,0,0,-1,706,596,-2.92285,4.81856
-511,428,-3.68811,-4.79474,0,0,0,0,0,0,0,-1,713,596,-3.68811,4.79474
-504,428,-4.45337,-4.77094,0,0,0,0,0,0,0,-1,720,596,-4.45337,4.77092
-497,428,-2.98108,-3.77502,0,0,0,0,0,0,0,-1,727,596,-2.98106,3.77505
-490,428,-6.39044,-2.80481,0,0,0,0,0,0,0,-1,734,596,-6.39047,2.80483
-483,428,-9.70264,-8.41449,0,0,0,0,0,0,0,-1,741,596,-9.70266,8.41448
-476,428,-9.20648,-9.6969,0,0,0,0,0,0,0,-1,748,596,-9.20648,9.69689
-469,428,-9.14447,-10.3967,-0.00228787,0.00720666,-0.00138622,0.00740491,-0.00248612,-1.42874,0.0059413,0.0282935,755,596,-9.14444,10.3967
-462,428,-9.27008,-11.0195,-0.00142952,0.00602609,-0.00152552,0.00632615,-0.00172959,-1.37658,0.00489686,0.0301451,762,596,-9.27011,11.0194
-455,428,-9.34674,-11.778,-0.000829182,0.00502157,-0.00148017,0.00537471,-0.00118233,-1.33659,0.00403541,0.0167211,769,596,-9.34675,11.7779
-448,428,-9.38171,-12.4689,-0.000373961,0.00386667,-0.00126357,0.00421462,-0.000721913,-1.30208,0.00307873,0.0117108,776,596,-9.38174,12.4689
-441,428,-9.40094,-13.1297,-2.10539e-05,0.00266829,-0.000932791,0.00296015,-0.000312915,-1.26756,0.00208558,0.0128209,783,596,-9.40092,13.1297
-434,428,-9.40735,-13.8074,0.00030366,0.00167887,-0.00061783,0.00191567,6.68663e-05,-1.2048,0.00125542,0.00960587,790,596,-9.40734,13.8074
-427,428,-9.40375,-14.4619,0.000592973,0.000707515,-0.000294394,0.000950157,0.000350331,-0.881468,0.000554842,0.0106515,797,596,-9.40375,14.4619
-420,428,-9.4436,-15.0983,0.00089367,-0.000192367,6.52245e-07,0.00089367,-0.000192367,0.000600574,0.000669183,0.01223,804,596,-9.4436,15.0983
-413,428,-9.48444,-15.7186,0.00110597,-0.00110261,0.000386835,0.00117176,-0.00116841,0.168472,0.0013511,0.0150919,811,596,-9.48444,15.7186
-406,428,-9.4931,-16.3537,0.00130925,-0.00194306,0.000766057,0.00148066,-0.00211447,0.220124,0.00208637,0.0181263,818,596,-9.49311,16.3537
-399,428,-9.49475,-16.9995,0.00169717,-0.00265748,0.000994268,0.00191344,-0.00287375,0.214184,0.00278236,0.0166452,825,596,-9.49475,16.9995
-392,428,-9.49524,-17.6854,0.00231223,-0.00317228,0.00107642,0.00251593,-0.00337598,0.187026,0.00341376,0.028963,832,596,-9.49526,17.6854
-385,428,-9.51434,-18.307,0,0,0,0,0,0,0,-1,839,596,-9.51436,18.307
-378,428,-9.68402,-18.8108,0,0,0,0,0,0,0,-1,846,596,-9.68404,18.8108
-371,428,-5.96155,-11.0703,0,0,0,0,0,0,0,-1,853,596,-5.96154,11.0702
-364,428,-6.33643,-10.7223,0,0,0,0,0,0,0,-1,860,596,-6.33645,10.7223
-357,428,-3.20996,-4.70966,0,0,0,0,0,0,0,-1,867,596,-3.20997,4.70965
-350,428,-1.62793,-3.94055,0,0,0,0,0,0,0,-1,874,596,-1.62794,3.94055
-343,428,-0.0567017,-4.80994,0,0,0,0,0,0,0,-1,881,596,-0.0567096,4.80996
-336,428,-3.29175,-1.39569,0,0,0,0,0,0,0,-1,888,596,-3.29172,1.39568
-329,428,-3.71564,-0.791321,0,0,0,0,0,0,0,-1,895,596,-3.71564,0.791299
-322,428,-5.52863,-3.59827,0,0,0,0,0,0,0,-1,902,596,-5.52865,3.59829
-315,428,-4.57172,-1.22052,0,0,0,0,0,0,0,-1,909,596,-4.57171,1.22052
-308,428,-5.94324,-0.810791,0,0,0,0,0,0,0,-1,916,596,-5.94321,0.810803
-301,428,0,0,0,0,0,0,0,0,0,-1,923,596,0,0
-294,428,0,0,0,0,0,0,0,0,0,-1,930,596,0,0
-287,428,0,0,0,0,0,0,0,0,0,-1,937,596,0,0
-280,428,0,0,0,0,0,0,0,0,0,-1,944,596,0,0
-273,428,0,0,0,0,0,0,0,0,0,-1,951,596,0,0
-266,428,0,0,0,0,0,0,0,0,0,-1,958,596,0,0
-259,428,0,0,0,0,0,0,0,0,0,-1,965,596,0,0
-252,428,0,0,0,0,0,0,0,0,0,-1,972,596,0,0
-245,428,0,0,0,0,0,0,0,0,0,-1,979,596,0,0
-238,428,0,0,0,0,0,0,0,0,0,-1,986,596,0,0
-231,428,0,0,0,0,0,0,0,0,0,-1,993,596,0,0
-224,428,0,0,0,0,0,0,0,0,0,-1,1000,596,0,0
-217,428,0,0,0,0,0,0,0,0,0,-1,1007,596,0,0
-210,428,0,0,0,0,0,0,0,0,0,-1,1014,596,0,0
-203,428,0,0,0,0,0,0,0,0,0,-1,1021,596,0,0
-196,428,0,0,0,0,0,0,0,0,0,-1,1028,596,0,0
-189,428,0,0,0,0,0,0,0,0,0,-1,1035,596,0,0
-182,428,0,0,0,0,0,0,0,0,0,-1,1042,596,0,0
-175,428,0,0,0,0,0,0,0,0,0,-1,1049,596,0,0
-168,428,0,0,0,0,0,0,0,0,0,-1,1056,596,0,0
-161,428,0,0,0,0,0,0,0,0,0,-1,1063,596,0,0
-154,428,0,0,0,0,0,0,0,0,0,-1,1070,596,0,0
-147,428,0,0,0,0,0,0,0,0,0,-1,1077,596,0,0
-140,428,0,0,0,0,0,0,0,0,0,-1,1084,596,0,0
-133,428,0,0,0,0,0,0,0,0,0,-1,1091,596,0,0
-126,428,0,0,0,0,0,0,0,0,0,-1,1098,596,0,0
-119,428,0,0,0,0,0,0,0,0,0,-1,1105,596,0,0
-112,428,0,0,0,0,0,0,0,0,0,-1,1112,596,0,0
-105,428,0,0,0,0,0,0,0,0,0,-1,1119,596,0,0
-98,428,0,0,0,0,0,0,0,0,0,-1,1126,596,0,0
-91,428,0,0,0,0,0,0,0,0,0,-1,1133,596,0,0
-84,428,0,0,0,0,0,0,0,0,0,-1,1140,596,0,0
-77,428,0,0,0,0,0,0,0,0,0,-1,1147,596,0,0
-70,428,0,0,0,0,0,0,0,0,0,-1,1154,596,0,0
-63,428,0,0,0,0,0,0,0,0,0,-1,1161,596,0,0
-56,428,0,0,0,0,0,0,0,0,0,-1,1168,596,0,0
-49,428,0,0,0,0,0,0,0,0,0,-1,1175,596,0,0
-42,428,0,0,0,0,0,0,0,0,0,-1,1182,596,0,0
-35,428,0,0,0,0,0,0,0,0,0,-1,1189,596,0,0
-28,428,0,0,0,0,0,0,0,0,0,-1,1196,596,0,0
-21,428,0,0,0,0,0,0,0,0,0,-1,1203,596,0,0
-14,428,0,0,0,0,0,0,0,0,0,-1,1210,596,0,0
-7,428,0,0,0,0,0,0,0,0,0,-1,1217,596,0,0
0,428,0,0,0,0,0,0,0,0,0,-1,1224,596,0,0
7,428,0,0,0,0,0,0,0,0,0,-1,1231,596,0,0
14,428,0,0,0,0,0,0,0,0,0,-1,1238,596,0,0
21,428,0,0,0,0,0,0,0,0,0,-1,1245,596,0,0
28,428,0,0,0,0,0,0,0,0,0,-1,1252,596,0,0
35,428,0,0,0,0,0,0,0,0,0,-1,1259,596,0,0
42,428,0,0,0,0,0,0,0,0,0,-1,1266,596,0,0
49,428,0,0,0,0,0,0,0,0,0,-1,1273,596,0,0
56,428,0,0,0,0,0,0,0,0,0,-1,1280,596,0,0
63,428,0,0,0,0,0,0,0,0,0,-1,1287,596,0,0
70,428,0,0,0,0,0,0,0,0,0,-1,1294,596,0,0
77,428,0,0,0,0,0,0,0,0,0,-1,1301,596,0,0
84,428,0,0,0,0,0,0,0,0,0,-1,1308,596,0,0
91,428,0,0,0,0,0,0,0,0,0,-1,1315,596,0,0
98,428,0,0,0,0,0,0,0,0,0,-1,1322,596,0,0
105,428,0,0,0,0,0,0,0,0,0,-1,1329,596,0,0
112,428,0,0,0,0,0,0,0,0,0,-1,1336,596,0,0
119,428,0,0,0,0,0,0,0,0,0,-1,1343,596,0,0
126,428,0,0,0,0,0,0,0,0,0,-1,1350,596,0,0
133,428,0,0,0,0,0,0,0,0,0,-1,1357,596,0,0
140,428,0,0,0,0,0,0,0,0,0,-1,1364,596,0,0
147,428,0,0,0,0,0,0,0,0,0,-1,1371,596,0,0
154,428,0,0,0,0,0,0,0,0,0,-1,1378,596,0,0
161,428,0,0,0,0,0,0,0,0,0,-1,1385,596,0,0
168,428,0,0,0,0,0,0,0,0,0,-1,1392,596,0,0
175,428,0,0,0,0,0,0,0,0,0,-1,1399,596,0,0
182,428,0,0,0,0,0,0,0,0,0,-1,1406,596,0,0
189,428,0,0,0,0,0,0,0,0,0,-1,1413,596,0,0
196,428,0,0,0,0,0,0,0,0,0,-1,1420,596,0,0
203,428,0,0,0,0,0,0,0,0,0,-1,1427,596,0,0
210,428,0,0,0,0,0,0,0,0,0,-1,1434,596,0,0
217,428,0,0,0,0,0,0,0,0,0,-1,1441,596,0,0
224,428,0,0,0,0,0,0,0,0,0,-1,1448,596,0,0
231,428,0,0,0,0,0,0,0,0,0,-1,1455,596,0,0
238,428,0,0,0,0,0,0,0,0,0,-1,1462,596,0,0
245,428,0,0,0,0,0,0,0,0,0,-1,1469,596,0,0
252,428,0,0,0,0,0,0,0,0,0,-1,1476,596,0,0
259,428,0,0,0,0,0,0,0,0,0,-1,1483,596,0,0
266,428,0,0,0,0,0,0,0,0,0,-1,1490,596,0,0
273,428,0,0,0,0,0,0,0,0,0,-1,1497,596,0,0
280,428,0,0,0,0,0,0,0,0,0,-1,1504,596,0,0
287,428,0,0,0,0,0,0,0,0,0,-1,1511,596,0,0
294,428,0,0,0,0,0,0,0,0,0,-1,1518,596,0,0
301,428,0,0,0,0,0,0,0,0,0,-1,1525,596,0,0
308,428,0,0,0,0,0,0,0,0,0,-1,1532,596,0,0
315,428,0,0,0,0,0,0,0,0,0,-1,1539,596,0,0
322,428,0,0,0,0,0,0,0,0,0,-1,1546,596,0,0
329,428,0,0,0,0,0,0,0,0,0,-1,1553,596,0,0
336,428,0,0,0,0,0,0,0,0,0,-1,1560,596,0,0
343,428,0,0,0,0,0,0,0,0,0,-1,1567,596,0,0
350,428,0,0,0,0,0,0,0,0,0,-1,1574,596,0,0
357,428,0,0,0,0,0,0,0,0,0,-1,1581,596,0,0
364,428,0,0,0,0,0,0,0,0,0,-1,1588,596,0,0
371,428,0,0,0,0,0,0,0,0,0,-1,1595,596,0,0
378,428,0,0,0,0,0,0,0,0,0,-1,1602,596,0,0
385,428,0,0,0,0,0,0,0,0,0,-1,1609,596,0,0
392,428,0,0,0,0,0,0,0,0,0,-1,1616,596,0,0
399,428,0,0,0,0,0,0,0,0,0,-1,1623,596,0,0
406,428,0,0,0,0,0,0,0,0,0,-1,1630,596,0,0
413,428,0,0,0,0,0,0,0,0,0,-1,1637,596,0,0
420,428,19.8469,1.3399,0,0,0,0,0,0,0,-1,1644,596,19.8469,-1.33992
427,428,20.7299,-0.225281,0,0,0,0,0,0,0,-1,1651,596,20.7299,0.225262
434,428,19.8915,-0.583069,0,0,0,0,0,0,0,-1,1658,596,19.8915,0.583075
441,428,8.17993,0.607483,0,0,0,0,0,0,0,-1,1665,596,8.17997,-0.607513
448,428,7.84338,-0.385986,0,0,0,0,0,0,0,-1,1672,596,7.84336,0.385978
455,428,6.64038,2.1123,0,0,0,0,0,0,0,-1,1679,596,6.64037,-2.11229
462,428,4.84106,4.12341,0,0,0,0,0,0,0,-1,1686,596,4.84107,-4.12339
469,428,7.83789,3.10083,0,0,0,0,0,0,0,-1,1693,596,7.83785,-3.10086
476,428,7.61255,1.73956,0,0,0,0,0,0,0,-1,1700,596,7.61252,-1.73958
483,428,7.22766,1.05121,0,0,0,0,0,0,0,-1,1707,596,7.2277,-1.05121
490,428,5.4071,-3.2793,0,0,0,0,0,0,0,-1,1714,596,5.40707,3.27929
497,428,7.84106,-3.65491,0,0,0,0,0,0,0,-1,1721,596,7.84107,3.65491
504,428,6.92139,-2.83356,0,0,0,0,0,0,0,-1,1728,596,6.92137,2.83353
511,428,7.88501,-3.78723,0,0,0,0,0,0,0,-1,1735,596,7.88502,3.78722
518,428,21.1212,-16.4495,0,0,0,0,0,0,0,-1,1742,596,21.1212,16.4495
525,428,21.0674,-15.7519,0,0,0,0,0,0,0,-1,1749,596,21.0674,15.7519
532,428,21.1132,-15.037,0.00404868,0.00136524,0.00187642,0.00501373,0.000400195,0.475023,0.0032174,0.0205309,1756,596,21.1132,15.037
539,428,21.1405,-14.3763,0.00332956,0.00122218,0.00157108,0.00416758,0.000384161,0.490012,0.0026596,0.0204709,1763,596,21.1405,14.3763
546,428,21.0942,-13.7372,0.0027405,0.00113733,0.00136305,0.0035202,0.000357636,0.519593,0.00223714,0.0160343,1770,596,21.0942,13.7372
553,428,21.0341,-13.0969,0.0022037,0.00122668,0.00124444,0.00305209,0.000378296,0.598362,0.00192108,0.0111025,1777,596,21.034,13.0969
560,428,21.0398,-12.4099,0.00168679,0.00137624,0.00120744,0.0027489,0.000314131,0.721449,0.00173738,0.0117216,1784,596,21.0398,12.4099
567,428,21.0187,-11.7453,0.00130406,0.00166598,0.00129808,0.00279565,0.000174393,0.854654,0.00180844,0.0111655,1791,596,21.0187,11.7453
574,428,20.9805,-11.0718,0.00104911,0.0021035,0.00150612,0.00317203,-1.94169e-05,0.953751,0.00212119,0.0134843,1798,596,20.9805,11.0718
581,428,20.9332,-10.3633,0.000883431,0.00259828,0.00181607,0.00374917,-0.000267452,1.00595,0.0025932,0.0119137,1805,596,20.9332,10.3634
588,428,20.907,-9.65765,0.000877795,0.00328796,0.00227296,0.00465553,-0.000489782,1.02915,0.00327917,0.017093,1812,596,20.907,9.65768
595,428,20.8555,-8.91876,0.0009345,0.0041047,0.00279003,0.00572846,-0.000689264,1.04373,0.00406824,0.029187,1819,596,20.8555,8.91874
602,428,20.9738,-8.14539,0,0,0,0,0,0,0,-1,1826,596,20.9738,8.14537
609,428,17.2073,-4.82446,0,0,0,0,0,0,0,-1,1833,596,17.2073,4.82447
616,428,15.7817,-3.09558,0,0,0,0,0,0,0,-1,1840,596,15.7817,3.09556
623,428,9.53577,1.12518,0,0,0,0,0,0,0,-1,1847,596,9.5358,-1.1252
630,428,7.07996,6.88562,0,0,0,0,0,0,0,-1,1854,596,7.0799,-6.88565
637,428,3.95435,1.90857,0,0,0,0,0,0,0,-1,1861,596,3.95439,-1.90858
644,428,5.75476,0.888977,0,0,0,0,0,0,0,-1,1868,596,5.75472,-0.888955
651,428,0,0,0,0,0,0,0,0,0,-1,1875,596,0,0
658,428,0,0,0,0,0,0,0,0,0,-1,1882,596,0,0
665,428,0,0,0,0,0,0,0,0,0,-1,1889,596,0,0
672,428,0,0,0,0,0,0,0,0,0,-1,1896,596,0,0
679,428,0,0,0,0,0,0,0,0,0,-1,1903,596,0,0
686,428,0,0,0,0,0,0,0,0,0,-1,1910,596,0,0
693,428,0,0,0,0,0,0,0,0,0,-1,1917,596,0,0
700,428,0,0,0,0,0,0,0,0,0,-1,1924,596,0,0
707,428,0,0,0,0,0,0,0,0,0,-1,1931,596,0,0
714,428,0,0,0,0,0,0,0,0,0,-1,1938,596,0,0
721,428,0,0,0,0,0,0,0,0,0,-1,1945,596,0,0
728,428,0,0,0,0,0,0,0,0,0,-1,1952,596,0,0
735,428,0,0,0,0,0,0,0,0,0,-1,1959,596,0,0
742,428,0,0,0,0,0,0,0,0,0,-1,1966,596,0,0
749,428,0,0,0,0,0,0,0,0,0,-1,1973,596,0,0
756,428,0,0,0,0,0,0,0,0,0,-1,1980,596,0,0
763,428,0,0,0,0,0,0,0,0,0,-1,1987,596,0,0
770,428,0,0,0,0,0,0,0,0,0,-1,1994,596,0,0
777,428,0,0,0,0,0,0,0,0,0,-1,2001,596,0,0
784,428,0,0,0,0,0,0,0,0,0,-1,2008,596,0,0
791,428,0,0,0,0,0,0,0,0,0,-1,2015,596,0,0
798,428,0,0,0,0,0,0,0,0,0,-1,2022,596,0,0
805,428,0,0,0,0,0,0,0,0,0,-1,2029,596,0,0
812,428,0,0,0,0,0,0,0,0,0,-1,2036,596,0,0
-700,421,0,0,0,0,0,0,0,0,0,-1,524,603,0,0
-693,421,0,0,0,0,0,0,0,0,0,-1,531,603,0,0
-686,421,0,0,0,0,0,0,0,0,0,-1,538,603,0,0
-679,421,0,0,0,0,0,0,0,0,0,-1,545,603,0,0
-672,421,0,0,0,0,0,0,0,0,0,-1,552,603,0,0
-665,421,0,0,0,0,0,0,0,0,0,-1,559,603,0,0
-658,421,0,0,0,0,0,0,0,0,0,-1,566,603,0,0
-651,421,0,0,0,0,0,0,0,0,0,-1,573,603,0,0
-644,421,0,0,0,0,0,0,0,0,0,-1,580,603,0,0
-637,421,0,0,0,0,0,0,0,0,0,-1,587,603,0,0
-630,421,0,0,0,0,0,0,0,0,0,-1,594,603,0,0
-623,421,0,0,0,0,0,0,0,0,0,-1,601,603,0,0
-616,421,0,0,0,0,0,0,0,0,0,-1,608,603,0,0
-609,421,0,0,0,0,0,0,0,0,0,-1,615,603,0,0
-602,421,0,0,0,0,0,0,0,0,0,-1,622,603,0,0
-595,421,0,0,0,0,0,0,0,0,0,-1,629,603,0,0
-588,421,0,0,0,0,0,0,0,0,0,-1,636,603,0,0
-581,421,0,0,0,0,0,0,0,0,0,-1,643,603,0,0
-574,421,0,0,0,0,0,0,0,0,0,-1,650,603,0,0
-567,421,0,0,0,0,0,0,0,0,0,-1,657,603,0,0
-560,421,0,0,0,0,0,0,0,0,0,-1,664,603,0,0
-553,421,0,0,0,0,0,0,0,0,0,-1,671,603,0,0
-546,421,0,0,0,0,0,0,0,0,0,-1,678,603,0,0
-539,421,0,0,0,0,0,0,0,0,0,-1,685,603,0,0
-532,421,-8.97382,6.95636,0,0,0,0,0,0,0,-1,692,603,-8.97384,-6.95634
-525,421,-2.11481,-8.04272,0,0,0,0,0,0,0,-1,699,603,-2.11483,8.0427
-518,421,-3.05908,-5.07233,0,0,0,0,0,0,0,-1,706,603,-3.0591,5.07235
-511,421,-4.63525,-4.08447,0,0,0,0,0,0,0,-1,713,603,-4.63524,4.08449
-504,421,-5.17029,-4.94458,0,0,0,0,0,0,0,-1,720,603,-5.17029,4.9446
-497,421,-6.63141,-2.32501,0,0,0,0,0,0,0,-1,727,603,-6.6314,2.32498
-490,421,-6.7616,-4.14783,0,0,0,0,0,0,0,-1,734,603,-6.76159,4.1478
-483,421,-9.68408,-9.26868,0,0,0,0,0,0,0,-1,741,603,-9.6841,9.26866
-476,421,-9.79248,-9.8623,-0.00200556,0.00699353,-0.00139729,0.00720549,-0.00221752,-1.42025,0.00568878,0.0367049,748,603,-9.79249,9.86231
-469,421,-9.94763,-10.3722,-0.00146617,0.00558967,-0.00129361,0.00581937,-0.00169586,-1.39507,0.00455143,0.0283331,755,603,-9.94761,10.3722
-462,421,-9.961,-11.1139,-0.000885155,0.00446282,-0.00126081,0.00474516,-0.00116749,-1.3505,0.00361598,0.0213705,762,603,-9.96101,11.1139
-455,421,-9.96075,-11.7913,-0.000446751,0.00349182,-0.0011333,0.00379464,-0.00074957,-1.3097,0.0028131,0.0195811,769,603,-9.96077,11.7913
-448,421,-9.987,-12.4374,-6.86791e-05,0.0024544,-0.000903812,0.00274475,-0.000359028,-1.25996,0.0019605,0.01958,776,603,-9.98699,12.4374
-441,421,-10.0322,-13.1055,0.000210471,0.0013389,-0.000554774,0.00156596,-1.65877e-05,-1.18231,0.00104954,0.0154142,783,603,-10.0322,13.1055
-434,421,-10.0566,-13.7814,0.000483822,0.000442826,-0.00022897,0.000693209,0.000233438,-0.740756,0.000407273,0.010986,790,603,-10.0566,13.7814
-427,421,-10.0587,-14.4335,0.00073819,-0.000447772,0.000102304,0.00074695,-0.000456532,0.0854212,0.000701542,0.00967708,797,603,-10.0587,14.4335
-420,421,-10.1007,-15.0604,0.00098809,-0.00129343,0.000432837,0.00106745,-0.00137279,0.181324,0.00141254,0.0117446,804,603,-10.1007,15.0604
-413,421,-10.1449,-15.69,0.00115465,-0.00213976,0.000860592,0.00136591,-0.00235102,0.240725,0.00217095,0.014542,811,603,-10.1449,15.69
-406,421,-10.1796,-16.3486,0.00134485,-0.00288598,0.00124243,0.00168273,-0.00322385,0.265523,0.00287902,0.0204227,818,603,-10.1795,16.3486
-399,421,-10.0895,-17.0673,0.00171815,-0.00356203,0.00145078,0.00209051,-0.00393439,0.251237,0.00353236,0.0324176,825,603,-10.0896,17.0673
-392,421,-9.95953,-17.7475,0,0,0,0,0,0,0,-1,832,603,-9.95951,17.7475
-385,421,-9.76154,-15.8135,0,0,0,0,0,0,0,-1,839,603,-9.76152,15.8135
-378,421,-4.94733,-8.87909,0,0,0,0,0,0,0,-1,846,603,-4.94731,8.87906
-371,421,-5.65082,-7.01849,0,0,0,0,0,0,0,-1,853,603,-5.65082,7.0185
-364,421,-5.94189,-7.09875,0,0,0,0,0,0,0,-1,860,603,-5.94192,7.09878
-357,421,-7.62531,-8.26337,0,0,0,0,0,0,0,-1,867,603,-7.62532,8.26337
-350,421,-5.38019,-3.75024,0,0,0,0,0,0,0,-1,874,603,-5.38017,3.75026
-343,421,-6.22797,-2.57123,0,0,0,0,0,0,0,-1,881,603,-6.22798,2.57121
-336,421,-6.22882,-2.59369,0,0,0,0,0,0,0,-1,888,603,-6.22883,2.5937
-329,421,-4.50134,-1.49469,0,0,0,0,0,0,0,-1,895,603,-4.50137,1.49468
-322,421,-7.55817,1.13263,0,0,0,0,0,0,0,-1,902,603,-7.55818,-1.13263
-315,421,-4.47821,-1.26733,0,0,0,0,0,0,0,-1,909,603,-4.47824,1.26732
-308,421,0,0,0,0,0,0,0,0,0,-1,916,603,0,0
-301,421,0,0,0,0,0,0,0,0,0,-1,923,603,0,0
-294,421,0,0,0,0,0,0,0,0,0,-1,930,603,0,0
-287,421,0,0,0,0,0,0,0,0,0,-1,937,603,0,0
-280,421,0,0,0,0,0,0,0,0,0,-1,944,603,0,0
-273,421,0,0,0,0,0,0,0,0,0,-1,951,603,0,0
-266,421,0,0,0,0,0,0,0,0,0,-1,958,603,0,0
-259,421,0,0,0,0,0,0,0,0,0,-1,965,603,0,0
-252,421,0,0,0,0,0,0,0,0,0,-1,972,603,0,0
-245,421,0,0,0,0,0,0,0,0,0,-1,979,603,0,0
-238,421,0,0,0,0,0,0,0,0,0,-1,986,603,0,0
-231,421,0,0,0,0,0,0,0,0,0,-1,993,603,0,0
-224,421,0,0,0,0,0,0,0,0,0,-1,1000,603,0,0
-217,421,0,0,0,0,0,0,0,0,0,-1,1007,603,0,0
-210,421,0,0,0,0,0,0,0,0,0,-1,1014,603,0,0
-203,421,0,0,0,0,0,0,0,0,0,-1,1021,603,0,0
-196,421,0,0,0,0,0,0,0,0,0,-1,1028,603,0,0
-189,421,0,0,0,0,0,0,0,0,0,-1,1035,603,0,0
-182,421,0,0,0,0,0,0,0,0,0,-1,1042,603,0,0
-175,421,0,0,0,0,0,0,0,0,0,-1,1049,603,0,0
-168,421,0,0,0,0,0,0,0,0,0,-1,1056,603,0,0
-161,421,0,0,0,0,0,0,0,0,0,-1,1063,603,0,0
-154,421,0,0,0,0,0,0,0,0,0,-1,1070,603,0,0
-147,421,0,0,0,0,0,0,0,0,0,-1,1077,603,0,0
-140,421,0,0,0,0,0,0,0,0,0,-1,1084,603,0,0
-133,421,0,0,0,0,0,0,0,0,0,-1,1091,603,0,0
-126,421,0,0,0,0,0,0,0,0,0,-1,1098,603,0,0
-119,421,0,0,0,0,0,0,0,0,0,-1,1105,603,0,0
-112,421,0,0,0,0,0,0,0,0,0,-1,1112,603,0,0
-105,421,0,0,0,0,0,0,0,0,0,-1,1119,603,0,0
-98,421,0,0,0,0,0,0,0,0,0,-1,1126,603,0,0
-91,421,0,0,0,0,0,0,0,0,0,-1,1133,603,0,0
-84,421,0,0,0,0,0,0,0,0,0,-1,1140,603,0,0
-77,421,0,0,0,0,0,0,0,0,0,-1,1147,603,0,0
-70,421,0,0,0,0,0,0,0,0,0,-1,1154,603,0,0
-63,421,0,0,0,0,0,0,0,0,0,-1,1161,603,0,0
-56,421,0,0,0,0,0,0,0,0,0,-1,1168,603,0,0
-49,421,0,0,0,0,0,0,0,0,0,-1,1175,603,0,0
-42,421,0,0,0,0,0,0,0,0,0,-1,1182,603,0,0
-35,421,0,0,0,0,0,0,0,0,0,-1,1189,603,0,0
-28,421,0,0,0,0,0,0,0,0,0,-1,1196,603,0,0
-21,421,0,0,0,0,0,0,0,0,0,-1,1203,603,0,0
-14,421,0,0,0,0,0,0,0,0,0,-1,1210,603,0,0
-7,421,0,0,0,0,0,0,0,0,0,-1,1217,603,0,0
0,421,0,0,0,0,0,0,0,0,0,-1,1224,603,0,0
7,421,0,0,0,0,0,0,0,0,0,-1,1231,603,0,0
14,421,0,0,0,0,0,0,0,0,0,-1,1238,603,0,0
21,421,0,0,0,0,0,0,0,0,0,-1,1245,603,0,0
28,421,0,0,0,0,0,0,0,0,0,-1,1252,603,0,0
35,421,0,0,0,0,0,0,0,0,0,-1,1259,603,0,0
42,421,0,0,0,0,0,0,0,0,0,-1,1266,603,0,0
49,421,0,0,0,0,0,0,0,0,0,-1,1273,603,0,0
56,421,0,0,0,0,0,0,0,0,0,-1,1280,603,0,0
63,421,0,0,0,0,0,0,0,0,0,-1,1287,603,0,0
70,421,0,0,0,0,0,0,0,0,0,-1,1294,603,0,0
77,421,0,0,0,0,0,0,0,0,0,-1,1301,603,0,0
84,421,0,0,0,0,0,0,0,0,0,-1,1308,603,0,0
91,421,0,0,0,0,0,0,0,0,0,-1,1315,603,0,0
98,421,0,0,0,0,0,0,0,0,0,-1,1322,603,0,0
105,421,0,0,0,0,0,0,0,0,0,-1,1329,603,0,0
112,421,0,0,0,0,0,0,0,0,0,-1,1336,603,0,0
119,421,0,0,0,0,0,0,0,0,0,-1,1343,603,0,0
126,421,0,0,0,0,0,0,0,0,0,-1,1350,603,0,0
133,421,0,0,0,0,0,0,0,0,0,-1,1357,603,0,0
140,421,0,0,0,0,0,0,0,0,0,-1,1364,603,0,0
147,421,0,0,0,0,0,0,0,0,0,-1,1371,603,0,0
154,421,0,0,0,0,0,0,0,0,0,-1,1378,603,0,0
161,421,0,0,0,0,0,0,0,0,0,-1,1385,603,0,0
168,421,0,0,0,0,0,0,0,0,0,-1,1392,603,0,0
175,421,0,0,0,0,0,0,0,0,0,-1,1399,603,0,0
182,421,0,0,0,0,0,0,0,0,0,-1,1406,603,0,0
189,421,0,0,0,0,0,0,0,0,0,-1,1413,603,0,0
196,421,0,0,0,0,0,0,0,0,0,-1,1420,603,0,0
203,421,0,0,0,0,0,0,0,0,0,-1,1427,603,0,0
210,421,0,0,0,0,0,0,0,0,0,-1,1434,603,0,0
217,421,0,0,0,0,0,0,0,0,0,-1,1441,603,0,0
224,421,0,0,0,0,0,0,0,0,0,-1,1448,603,0,0
231,421,0,0,0,0,0,0,0,0,0,-1,1455,603,0,0
238,421,0,0,0,0,0,0,0,0,0,-1,1462,603,0,0
245,421,0,0,0,0,0,0,0,0,0,-1,1469,603,0,0
252,421,0,0,0,0,0,0,0,0,0,-1,1476,603,0,0
259,421,0,0,0,0,0,0,0,0,0,-1,1483,603,0,0
266,421,0,0,0,0,0,0,0,0,0,-1,1490,603,0,0
273,421,0,0,0,0,0,0,0,0,0,-1,1497,603,0,0
280,421,0,0,0,0,0,0,0,0,0,-1,1504,603,0,0
287,421,0,0,0,0,0,0,0,0,0,-1,1511,603,0,0
294,421,0,0,0,0,0,0,0,0,0,-1,1518,603,0,0
301,421,0,0,0,0,0,0,0,0,0,-1,1525,603,0,0
308,421,0,0,0,0,0,0,0,0,0,-1,1532,603,0,0
315,421,0,0,0,0,0,0,0,0,0,-1,1539,603,0,0
322,421,0,0,0,0,0,0,0,0,0,-1,1546,603,0,0
329,421,0,0,0,0,0,0,0,0,0,-1,1553,603,0,0
336,421,0,0,0,0,0,0,0,0,0,-1,1560,603,0,0
343,421,0,0,0,0,0,0,0,0,0,-1,1567,603,0,0
350,421,0,0,0,0,0,0,0,0,0,-1,1574,603,0,0
357,421,0,0,0,0,0,0,0,0,0,-1,1581,603,0,0
364,421,0,0,0,0,0,0,0,0,0,-1,1588,603,0,0
371,421,0,0,0,0,0,0,0,0,0,-1,1595,603,0,0
378,421,0,0,0,0,0,0,0,0,0,-1,1602,603,0,0
385,421,0,0,0,0,0,0,0,0,0,-1,1609,603,0,0
392,421,0,0,0,0,0,0,0,0,0,-1,1616,603,0,0
399,421,0,0,0,0,0,0,0,0,0,-1,1623,603,0,0
406,421,0,0,0,0,0,0,0,0,0,-1,1630,603,0,0
413,421,0,0,0,0,0,0,0,0,0,-1,1637,603,0,0
420,421,0,0,0,0,0,0,0,0,0,-1,1644,603,0,0
427,421,0,0,0,0,0,0,0,0,0,-1,1651,603,0,0
434,421,3.68176,-0.0327759,0,0,0,0,0,0,0,-1,1658,603,3.6818,0.0328037
441,421,8.06689,0.527832,0,0,0,0,0,0,0,-1,1665,603,8.06693,-0.527851
448,421,6.93921,0.802246,0,0,0,0,0,0,0,-1,1672,603,6.93923,-0.802251
455,421,7.29456,2.14825,0,0,0,0,0,0,0,-1,1679,603,7.29461,-2.14827
462,421,7.86902,3.53174,0,0,0,0,0,0,0,-1,1686,603,7.869,-3.53173
469,421,8.06604,2.81213,0,0,0,0,0,0,0,-1,1693,603,8.06606,-2.81212
476,421,8.26306,2.09253,0,0,0,0,0,0,0,-1,1700,603,8.26312,-2.09251
483,421,8.05322,0.798096,0,0,0,0,0,0,0,-1,1707,603,8.05323,-0.7981
490,421,7.51233,0.213074,0,0,0,0,0,0,0,-1,1714,603,7.51235,-0.213043
497,421,7.49634,-2.86688,0,0,0,0,0,0,0,-1,1721,603,7.4963,2.86688
504,421,6.90491,-2.18671,0,0,0,0,0,0,0,-1,1728,603,6.90491,2.18669
511,421,6.31348,-1.50653,0,0,0,0,0,0,0,-1,1735,603,6.31353,1.5065
518,421,6.27588,-2.49878,0,0,0,0,0,0,0,-1,1742,603,6.2759,2.4988
525,421,21.5856,-15.9849,0,0,0,0,0,0,0,-1,1749,603,21.5855,15.9849
532,421,21.6755,-15.0706,0.00483752,0.00130615,0.00201974,0.00575455,0.000389119,0.426206,0.00371347,0.0454537,1756,603,21.6755,15.0706
539,421,21.798,-14.3633,0.00398165,0.00116879,0.00162361,0.00472327,0.00042716,0.428475,0.00301656,0.0218542,1763,603,21.798,14.3634
546,421,21.7664,-13.7234,0.0032668,0.00100715,0.00135134,0.0038984,0.000375551,0.43722,0.00248324,0.0126207,1770,603,21.7663,13.7234
553,421,21.7272,-13.0383,0.00266319,0.0010531,0.00117572,0.00328307,0.000433221,0.485199,0.00205955,0.0120249,1777,603,21.7272,13.0383
560,421,21.7037,-12.3516,0.0020965,0.00115119,0.00109742,0.00281873,0.000428962,0.582054,0.00175374,0.0146075,1784,603,21.7037,12.3516
567,421,21.675,-11.7291,0.00163769,0.00134829,0.00112537,0.00262762,0.000358356,0.721459,0.00164535,0.0175141,1791,603,21.675,11.7291
574,421,21.6307,-11.0472,0.0013376,0.00172458,0.00129799,0.00284343,0.000218754,0.859387,0.00182707,0.0196768,1798,603,21.6307,11.0472
581,421,21.6013,-10.3145,0.00115463,0.00216155,0.00158804,0.00332402,-7.84721e-06,0.938903,0.00221864,0.0169979,1805,603,21.6013,10.3145
588,421,21.5725,-9.66962,0.00110608,0.0027842,0.00200137,0.00411527,-0.000224999,0.983891,0.00282151,0.0121545,1812,603,21.5725,9.66959
595,421,21.6091,-8.99347,0.00117138,0.00354313,0.00252066,0.00514294,-0.000428431,1.00527,0.00357999,0.0201355,1819,603,21.6091,8.99345
602,421,21.6226,-8.25934,0,0,0,0,0,0,0,-1,1826,603,21.6226,8.25935
609,421,21.5713,-7.44806,0,0,0,0,0,0,0,-1,1833,603,21.5713,7.44807
616,421,17.7633,-4.72491,0,0,0,0,0,0,0,-1,1840,603,17.7633,4.7249
623,421,6.19885,0.376648,0,0,0,0,0,0,0,-1,1847,603,6.19881,-0.376624
630,421,6.54993,0.778748,0,0,0,0,0,0,0,-1,1854,603,6.54991,-0.778744
637,421,3.74512,1.65405,0,0,0,0,0,0,0,-1,1861,603,3.74517,-1.65407
644,421,3.58081,0.354675,0,0,0,0,0,0,0,-1,1868,603,3.58082,-0.354704
651,421,3.28687,3.66351,0,0,0,0,0,0,0,-1,1875,603,3.28688,-3.66353
658,421,0,0,0,0,0,0,0,0,0,-1,1882,603,0,0
665,421,0,0,0,0,0,0,0,0,0,-1,1889,603,0,0
672,421,0,0,0,0,0,0,0,0,0,-1,1896,603,0,0
679,421,0,0,0,0,0,0,0,0,0,-1,1903,603,0,0
686,421,0,0,0,0,0,0,0,0,0,-1,1910,603,0,0
693,421,0,0,0,0,0,0,0,0,0,-1,1917,603,0,0
700,421,0,0,0,0,0,0,0,0,0,-1,1924,603,0,0
707,421,0,0,0,0,0,0,0,0,0,-1,1931,603,0,0
714,421,0,0,0,0,0,0,0,0,0,-1,1938,603,0,0
721,421,0,0,0,0,0,0,0,0,0,-1,1945,603,0,0
728,421,0,0,0,0,0,0,0,0,0,-1,1952,603,0,0
735,421,0,0,0,0,0,0,0,0,0,-1,1959,603,0,0
742,421,0,0,0,0,0,0,0,0,0,-1,1966,603,0,0
749,421,0,0,0,0,0,0,0,0,0,-1,1973,603,0,0
756,421,0,0,0,0,0,0,0,0,0,-1,1980,603,0,0
763,421,0,0,0,0,0,0,0,0,0,-1,1987,603,0,0
770,421,0,0,0,0,0,0,0,0,0,-1,1994,603,0,0
777,421,0,0,0,0,0,0,0,0,0,-1,2001,603,0,0
784,421,0,0,0,0,0,0,0,0,0,-1,2008,603,0,0
791,421,0,0,0,0,0,0,0,0,0,-1,2015,603,0,0
798,421,0,0,0,0,0,0,0,0,0,-1,2022,603,0,0
805,421,0,0,0,0,0,0,0,0,0,-1,2029,603,0,0
812,421,0,0,0,0,0,0,0,0,0,-1,2036,603,0,0
-700,414,0,0,0,0,0,0,0,0,0,-1,524,610,0,0
-693,414,0,0,0,0,0,0,0,0,0,-1,531,610,0,0
-686,414,0,0,0,0,0,0,0,0,0,-1,538,610,0,0
-679,414,0,0,0,0,0,0,0,0,0,-1,545,610,0,0
-672,414,0,0,0,0,0,0,0,0,0,-1,552,610,0,0
-665,414,0,0,0,0,0,0,0,0,0,-1,559,610,0,0
-658,414,0,0,0,0,0,0,0,0,0,-1,566,610,0,0
-651,414,0,0,0,0,0,0,0,0,0,-1,573,610,0,0
-644,414,0,0,0,0,0,0,0,0,0,-1,580,610,0,0
-637,414,0,0,0,0,0,0,0,0,0,-1,587,610,0,0
-630,414,0,0,0,0,0,0,0,0,0,-1,594,610,0,0
-623,414,0,0,0,0,0,0,0,0,0,-1,601,610,0,0
-616,414,0,0,0,0,0,0,0,0,0,-1,608,610,0,0
-609,414,0,0,0,0,0,0,0,0,0,-1,615,610,0,0
-602,414,0,0,0,0,0,0,0,0,0,-1,622,610,0,0
-595,414,0,0,0,0,0,0,0,0,0,-1,629,610,0,0
-588,414,0,0,0,0,0,0,0,0,0,-1,636,610,0,0
-581,414,0,0,0,0,0,0,0,0,0,-1,643,610,0,0
-574,414,0,0,0,0,0,0,0,0,0,-1,650,610,0,0
-567,414,0,0,0,0,0,0,0,0,0,-1,657,610,0,0
-560,414,0,0,0,0,0,0,0,0,0,-1,664,610,0,0
-553,414,0,0,0,0,0,0,0,0,0,-1,671,610,0,0
-546,414,0,0,0,0,0,0,0,0,0,-1,678,610,0,0
-539,414,-7.50146,5.65619,0,0,0,0,0,0,0,-1,685,610,-7.50149,-5.65617
-532,414,-8.15204,4.01605,0,0,0,0,0,0,0,-1,692,610,-8.15206,-4.01606
-525,414,-3.47137,-3.27924,0,0,0,0,0,0,0,-1,699,610,-3.47136,3.27922
-518,414,-4.12909,-4.36908,0,0,0,0,0,0,0,-1,706,610,-4.12909,4.36909
-511,414,-3.92542,-4.97021,0,0,0,0,0,0,0,-1,713,610,-3.92542,4.97023
-504,414,-9.35394,-5.49896,0,0,0,0,0,0,0,-1,720,610,-9.35394,5.49898
-497,414,-9.67627,-6.54761,0,0,0,0,0,0,0,-1,727,610,-9.6763,6.5476
-490,414,-10.5372,-7.67395,0,0,0,0,0,0,0,-1,734,610,-10.5372,7.67395
-483,414,-10.4224,-9.13593,0,0,0,0,0,0,0,-1,741,610,-10.4224,9.13592
-476,414,-10.5655,-9.79352,-0.00109001,0.00563248,-0.00141921,0.00591982,-0.00137734,-1.37104,0.00447685,0.0241728,748,610,-10.5655,9.79351
-469,414,-10.6323,-10.4023,-0.000778608,0.00433734,-0.00119179,0.00460135,-0.00104262,-1.35279,0.00346775,0.0148343,755,610,-10.6323,10.4023
-462,414,-10.5965,-11.0797,-0.000387697,0.00329156,-0.00105686,0.00357353,-0.000669668,-1.31007,0.00263411,0.0240579,762,610,-10.5965,11.0796
-455,414,-10.6077,-11.7646,-6.68189e-05,0.0023577,-0.000877374,0.00264189,-0.000351009,-1.25755,0.00188916,0.0250686,769,610,-10.6077,11.7646
-448,414,-10.6304,-12.4289,0.000264949,0.00142822,-0.000656528,0.0017237,-3.05289e-05,-1.14789,0.00115944,0.0244139,776,610,-10.6304,12.4289
-441,414,-10.6537,-13.098,0.000503526,0.000393988,-0.000318308,0.000771742,0.000125772,-0.700202,0.000478117,0.018453,783,610,-10.6538,13.098
-434,414,-10.7088,-13.7517,0.000746969,-0.00044034,-3.18026e-06,0.000746978,-0.000440348,-0.00267852,0.000693081,0.0106126,790,610,-10.7088,13.7517
-427,414,-10.73,-14.3986,0.00096855,-0.00130079,0.00032851,0.00101515,-0.00134739,0.140908,0.0013685,0.0102396,797,610,-10.73,14.3986
-420,414,-10.75,-15.0321,0.0011492,-0.00217545,0.000714915,0.00129641,-0.00232266,0.203078,0.00211729,0.0100872,804,610,-10.75,15.0321
-413,414,-10.7892,-15.6755,0.0012556,-0.00305356,0.00120841,0.00157134,-0.00336929,0.25557,0.00291476,0.0110259,811,610,-10.7892,15.6755
-406,414,-10.7908,-16.4024,0.00142124,-0.00381135,0.00161919,0.00188175,-0.00427187,0.277095,0.00364103,0.0267695,818,610,-10.7908,16.4024
-399,414,-10.7751,-17.1874,0,0,0,0,0,0,0,-1,825,610,-10.7751,17.1874
-392,414,-9.43781,-14.5624,0,0,0,0,0,0,0,-1,832,610,-9.43779,14.5624
-385,414,-8.14691,-13.0653,0,0,0,0,0,0,0,-1,839,610,-8.14692,13.0653
-378,414,-8.04907,-11.3331,0,0,0,0,0,0,0,-1,846,610,-8.04905,11.3331
-371,414,-5.20886,-8.05151,0,0,0,0,0,0,0,-1,853,610,-5.20887,8.05153
-364,414,-6.76282,-6.58759,0,0,0,0,0,0,0,-1,860,610,-6.7628,6.58756
-357,414,-9.08685,-8.86188,0,0,0,0,0,0,0,-1,867,610,-9.08688,8.86187
-350,414,-6.4502,-2.41821,0,0,0,0,0,0,0,-1,874,610,-6.45021,2.41822
-343,414,-6.80249,-2.32117,0,0,0,0,0,0,0,-1,881,610,-6.80252,2.32116
-336,414,-7.11017,-2.52026,0,0,0,0,0,0,0,-1,888,610,-7.11016,2.52026
-329,414,-7.59747,-2.70313,0,0,0,0,0,0,0,-1,895,610,-7.59747,2.70315
-322,414,-4.42236,-1.29163,0,0,0,0,0,0,0,-1,902,610,-4.42238,1.2916
-315,414,0,0,0,0,0,0,0,0,0,-1,909,610,0,0
-308,414,0,0,0,0,0,0,0,0,0,-1,916,610,0,0
-301,414,0,0,0,0,0,0,0,0,0,-1,923,610,0,0
-294,414,0,0,0,0,0,0,0,0,0,-1,930,610,0,0
-287,414,0,0,0,0,0,0,0,0,0,-1,937,610,0,0
-280,414,0,0,0,0,0,0,0,0,0,-1,944,610,0,0
-273,414,0,0,0,0,0,0,0,0,0,-1,951,610,0,0
-266,414,0,0,0,0,0,0,0,0,0,-1,958,610,0,0
-259,414,0,0,0,0,0,0,0,0,0,-1,965,610,0,0
-252,414,0,0,0,0,0,0,0,0,0,-1,972,610,0,0
-245,414,0,0,0,0,0,0,0,0,0,-1,979,610,0,0
-238,414,0,0,0,0,0,0,0,0,0,-1,986,610,0,0
-231,414,0,0,0,0,0,0,0,0,0,-1,993,610,0,0
-224,414,0,0,0,0,0,0,0,0,0,-1,1000,610,0,0
-217,414,0,0,0,0,0,0,0,0,0,-1,1007,610,0,0
-210,414,0,0,0,0,0,0,0,0,0,-1,1014,610,0,0
-203,414,0,0,0,0,0,0,0,0,0,-1,1021,610,0,0
-196,414,0,0,0,0,0,0,0,0,0,-1,1028,610,0,0
-189,414,0,0,0,0,0,0,0,0,0,-1,1035,610,0,0
-182,414,0,0,0,0,0,0,0,0,0,-1,1042,610,0,0
-175,414,0,0,0,0,0,0,0,0,0,-1,1049,610,0,0
-168,414,0,0,0,0,0,0,0,0,0,-1,1056,610,0,0
-161,414,0,0,0,0,0,0,0,0,0,-1,1063,610,0,0
-154,414,0,0,0,0,0,0,0,0,0,-1,1070,610,0,0
-147,414,0,0,0,0,0,0,0,0,0,-1,1077,610,0,0
-140,414,0,0,0,0,0,0,0,0,0,-1,1084,610,0,0
-133,414,0,0,0,0,0,0,0,0,0,-1,1091,610,0,0
-126,414,0,0,0,0,0,0,0,0,0,-1,1098,610,0,0
-119,414,0,0,0,0,0,0,0,0,0,-1,1105,610,0,0
-112,414,0,0,0,0,0,0,0,0,0,-1,1112,610,0,0
-105,414,0,0,0,0,0,0,0,0,0,-1,1119,610,0,0
-98,414,0,0,0,0,0,0,0,0,0,-1,1126,610,0,0
-91,414,0,0,0,0,0,0,0,0,0,-1,1133,610,0,0
-84,414,0,0,0,0,0,0,0,0,0,-1,1140,610,0,0
-77,414,0,0,0,0,0,0,0,0,0,-1,1147,610,0,0
-70,414,0,0,0,0,0,0,0,0,0,-1,1154,610,0,0
-63,414,0,0,0,0,0,0,0,0,0,-1,1161,610,0,0
-56,414,0,0,0,0,0,0,0,0,0,-1,1168,610,0,0
-49,414,0,0,0,0,0,0,0,0,0,-1,1175,610,0,0
-42,414,0,0,0,0,0,0,0,0,0,-1,1182,610,0,0
-35,414,0,0,0,0,0,0,0,0,0,-1,1189,610,0,0
-28,414,0,0,0,0,0,0,0,0,0,-1,1196,610,0,0
-21,414,0,0,0,0,0,0,0,0,0,-1,1203,610,0,0
-14,414,0,0,0,0,0,0,0,0,0,-1,1210,610,0,0
-7,414,0,0,0,0,0,0,0,0,0,-1,1217,610,0,0
0,414,0,0,0,0,0,0,0,0,0,-1,1224,610,0,0
7,414,0,0,0,0,0,0,0,0,0,-1,1231,610,0,0
14,414,0,0,0,0,0,0,0,0,0,-1,1238,610,0,0
21,414,0,0,0,0,0,0,0,0,0,-1,1245,610,0,0
28,414,0,0,0,0,0,0,0,0,0,-1,1252,610,0,0
35,414,0,0,0,0,0,0,0,0,0,-1,1259,610,0,0
42,414,0,0,0,0,0,0,0,0,0,-1,1266,610,0,0
49,414,0,0,0,0,0,0,0,0,0,-1,1273,610,0,0
56,414,0,0,0,0,0,0,0,0,0,-1,1280,610,0,0
63,414,0,0,0,0,0,0,0,0,0,-1,1287,610,0,0
70,414,0,0,0,0,0,0,0,0,0,-1,1294,610,0,0
77,414,0,0,0,0,0,0,0,0,0,-1,1301,610,0,0
84,414,0,0,0,0,0,0,0,0,0,-1,1308,610,0,0
91,414,0,0,0,0,0,0,0,0,0,-1,1315,610,0,0
98,414,0,0,0,0,0,0,0,0,0,-1,1322,610,0,0
105,414,0,0,0,0,0,0,0,0,0,-1,1329,610,0,0
112,414,0,0,0,0,0,0,0,0,0,-1,1336,610,0,0
119,414,0,0,0,0,0,0,0,0,0,-1,1343,610,0,0
126,414,0,0,0,0,0,0,0,0,0,-1,1350,610,0,0
133,414,0,0,0,0,0,0,0,0,0,-1,1357,610,0,0
140,414,0,0,0,0,0,0,0,0,0,-1,1364,610,0,0
147,414,0,0,0,0,0,0,0,0,0,-1,1371,610,0,0
154,414,0,0,0,0,0,0,0,0,0,-1,1378,610,0,0
161,414,0,0,0,0,0,0,0,0,0,-1,1385,610,0,0
168,414,0,0,0,0,0,0,0,0,0,-1,1392,610,0,0
175,414,0,0,0,0,0,0,0,0,0,-1,1399,610,0,0
182,414,0,0,0,0,0,0,0,0,0,-1,1406,610,0,0
189,414,0,0,0,0,0,0,0,0,0,-1,1413,610,0,0
196,414,0,0,0,0,0,0,0,0,0,-1,1420,610,0,0
203,414,0,0,0,0,0,0,0,0,0,-1,1427,610,0,0
210,414,0,0,0,0,0,0,0,0,0,-1,1434,610,0,0
217,414,0,0,0,0,0,0,0,0,0,-1,1441,610,0,0
224,414,0,0,0,0,0,0,0,0,0,-1,1448,610,0,0
231,414,0,0,0,0,0,0,0,0,0,-1,1455,610,0,0
238,414,0,0,0,0,0,0,0,0,0,-1,1462,610,0,0
245,414,0,0,0,0,0,0,0,0,0,-1,1469,610,0,0
252,414,0,0,0,0,0,0,0,0,0,-1,1476,610,0,0
259,414,0,0,0,0,0,0,0,0,0,-1,1483,610,0,0
266,414,0,0,0,0,0,0,0,0,0,-1,1490,610,0,0
273,414,0,0,0,0,0,0,0,0,0,-1,1497,610,0,0
280,414,0,0,0,0,0,0,0,0,0,-1,1504,610,0,0
287,414,0,0,0,0,0,0,0,0,0,-1,1511,610,0,0
294,414,0,0,0,0,0,0,0,0,0,-1,1518,610,0,0
301,414,0,0,0,0,0,0,0,0,0,-1,1525,610,0,0
308,414,0,0,0,0,0,0,0,0,0,-1,1532,610,0,0
315,414,0,0,0,0,0,0,0,0,0,-1,1539,610,0,0
322,414,0,0,0,0,0,0,0,0,0,-1,1546,610,0,0
329,414,0,0,0,0,0,0,0,0,0,-1,1553,610,0,0
336,414,0,0,0,0,0,0,0,0,0,-1,1560,610,0,0
343,414,0,0,0,0,0,0,0,0,0,-1,1567,610,0,0
350,414,0,0,0,0,0,0,0,0,0,-1,1574,610,0,0
357,414,0,0,0,0,0,0,0,0,0,-1,1581,610,0,0
364,414,0,0,0,0,0,0,0,0,0,-1,1588,610,0,0
371,414,0,0,0,0,0,0,0,0,0,-1,1595,610,0,0
378,414,0,0,0,0,0,0,0,0,0,-1,1602,610,0,0
385,414,0,0,0,0,0,0,0,0,0,-1,1609,610,0,0
392,414,0,0,0,0,0,0,0,0,0,-1,1616,610,0,0
399,414,0,0,0,0,0,0,0,0,0,-1,1623,610,0,0
406,414,0,0,0,0,0,0,0,0,0,-1,1630,610,0,0
413,414,0,0,0,0,0,0,0,0,0,-1,1637,610,0,0
420,414,0,0,0,0,0,0,0,0,0,-1,1644,610,0,0
427,414,0,0,0,0,0,0,0,0,0,-1,1651,610,0,0
434,414,0,0,0,0,0,0,0,0,0,-1,1658,610,0,0
441,414,7.84375,0.584412,0,0,0,0,0,0,0,-1,1665,610,7.84379,-0.584394
448,414,7.40808,1.25446,0,0,0,0,0,0,0,-1,1672,610,7.40807,-1.25446
455,414,6.3512,1.73846,0,0,0,0,0,0,0,-1,1679,610,6.3512,-1.73847
462,414,8.18103,3.22113,0,0,0,0,0,0,0,-1,1686,610,8.18108,-3.22112
469,414,8.38513,2.49579,0,0,0,0,0,0,0,-1,1693,610,8.38516,-2.49576
476,414,8.64099,1.71161,0,0,0,0,0,0,0,-1,1700,610,8.64097,-1.71164
483,414,8.62744,0.687622,0,0,0,0,0,0,0,-1,1707,610,8.62749,-0.687615
490,414,8.38831,-0.0302734,0,0,0,0,0,0,0,-1,1714,610,8.38835,0.0302913
497,414,4.71094,-0.110046,0,0,0,0,0,0,0,-1,1721,610,4.71089,0.110024
504,414,7.19568,-1.43835,0,0,0,0,0,0,0,-1,1728,610,7.19563,1.43836
511,414,5.94153,-1.28772,0,0,0,0,0,0,0,-1,1735,610,5.94151,1.28769
518,414,4.53381,-0.0996704,0,0,0,0,0,0,0,-1,1742,610,4.53378,0.0996819
525,414,6.18811,-1.64056,0,0,0,0,0,0,0,-1,1749,610,6.18814,1.64055
532,414,22.3457,-15.2918,0,0,0,0,0,0,0,-1,1756,610,22.3458,15.2918
539,414,22.4731,-14.3811,0,0,0,0,0,0,0,-1,1763,610,22.4732,14.3811
546,414,22.4266,-13.6938,0.00393177,0.00096289,0.00147875,0.00454262,0.000352035,0.391739,0.00291816,0.0155025,1770,610,22.4266,13.6938
553,414,22.4214,-13.0122,0.00320055,0.000952749,0.00121685,0.00373312,0.000420187,0.412542,0.00236118,0.0135472,1777,610,22.4214,13.0122
560,414,22.4021,-12.312,0.00254394,0.00098914,0.00107555,0.00309363,0.000439451,0.472468,0.00193266,0.0155585,1784,610,22.4021,12.312
567,414,22.3551,-11.6594,0.00197034,0.00108032,0.00101354,0.00263226,0.000418395,0.578538,0.00163334,0.0254254,1791,610,22.3551,11.6594
574,414,22.3013,-11.0016,0.00158928,0.00138504,0.00112241,0.0026142,0.000360116,0.74003,0.00163603,0.0230037,1798,610,22.3013,11.0016
581,414,22.3042,-10.2947,0.00134759,0.00176542,0.00135875,0.00293122,0.000181788,0.86168,0.00189646,0.0174793,1805,610,22.3042,10.2948
588,414,22.2516,-9.65063,0.00122494,0.00231532,0.00169489,0.00355055,-1.02865e-05,0.941005,0.00237047,0.0164774,1812,610,22.2516,9.65062
595,414,22.2465,-8.93463,0.00126906,0.00300793,0.00216309,0.00446977,-0.000192785,0.976487,0.00304614,0.0212958,1819,610,22.2464,8.93462
602,414,22.2344,-8.24927,0.00144739,0.00392904,0.00276519,0.00571905,-0.000342617,0.996297,0.00393188,0.025608,1826,610,22.2343,8.24925
609,414,22.0686,-7.55304,0.00191518,0.00515008,0.00362553,0.00750259,-0.000437337,0.995213,0.00515369,0.0321011,1833,610,22.0686,7.55301
616,414,22.475,-6.55585,0,0,0,0,0,0,0,-1,1840,610,22.475,6.55584
623,414,9.6969,0.0378418,0,0,0,0,0,0,0,-1,1847,610,9.69685,-0.0378644
630,414,5.47144,0.499329,0,0,0,0,0,0,0,-1,1854,610,5.47142,-0.499303
637,414,8.36707,4.16278,0,0,0,0,0,0,0,-1,1861,610,8.36709,-4.16278
644,414,5.87073,1.51422,0,0,0,0,0,0,0,-1,1868,610,5.87076,-1.51424
651,414,3.6377,0.820557,0,0,0,0,0,0,0,-1,1875,610,3.6377,-0.820543
658,414,2.29761,3.87323,0,0,0,0,0,0,0,-1,1882,610,2.29758,-3.87325
665,414,0,0,0,0,0,0,0,0,0,-1,1889,610,0,0
672,414,0,0,0,0,0,0,0,0,0,-1,1896,610,0,0
679,414,0,0,0,0,0,0,0,0,0,-1,1903,610,0,0
686,414,0,0,0,0,0,0,0,0,0,-1,1910,610,0,0
693,414,0,0,0,0,0,0,0,0,0,-1,1917,610,0,0
700,414,0,0,0,0,0,0,0,0,0,-1,1924,610,0,0
707,414,0,0,0,0,0,0,0,0,0,-1,1931,610,0,0
714,414,0,0,0,0,0,0,0,0,0,-1,1938,610,0,0
721,414,0,0,0,0,0,0,0,0,0,-1,1945,610,0,0
728,414,0,0,0,0,0,0,0,0,0,-1,1952,610,0,0
735,414,0,0,0,0,0,0,0,0,0,-1,1959,610,0,0
742,414,0,0,0,0,0,0,0,0,0,-1,1966,610,0,0
749,414,0,0,0,0,0,0,0,0,0,-1,1973,610,0,0
756,414,0,0,0,0,0,0,0,0,0,-1,1980,610,0,0
763,414,0,0,0,0,0,0,0,0,0,-1,1987,610,0,0
770,414,0,0,0,0,0,0,0,0,0,-1,1994,610,0,0
777,414,0,0,0,0,0,0,0,0,0,-1,2001,610,0,0
784,414,0,0,0,0,0,0,0,0,0,-1,2008,610,0,0
791,414,0,0,0,0,0,0,0,0,0,-1,2015,610,0,0
798,414,0,0,0,0,0,0,0,0,0,-1,2022,610,0,0
805,414,0,0,0,0,0,0,0,0,0,-1,2029,610,0,0
812,414,0,0,0,0,0,0,0,0,0,-1,2036,610,0,0
-700,407,0,0,0,0,0,0,0,0,0,-1,524,617,0,0
-693,407,0,0,0,0,0,0,0,0,0,-1,531,617,0,0
-686,407,0,0,0,0,0,0,0,0,0,-1,538,617,0,0
-679,407,0,0,0,0,0,0,0,0,0,-1,545,617,0,0
-672,407,0,0,0,0,0,0,0,0,0,-1,552,617,0,0
-665,407,0,0,0,0,0,0,0,0,0,-1,559,617,0,0
-658,407,0,0,0,0,0,0,0,0,0,-1,566,617,0,0
-651,407,0,0,0,0,0,0,0,0,0,-1,573,617,0,0
-644,407,0,0,0,0,0,0,0,0,0,-1,580,617,0,0
-637,407,0,0,0,0,0,0,0,0,0,-1,587,617,0,0
-630,407,0,0,0,0,0,0,0,0,0,-1,594,617,0,0
-623,407,0,0,0,0,0,0,0,0,0,-1,601,617,0,0
-616,407,0,0,0,0,0,0,0,0,0,-1,608,617,0,0
-609,407,0,0,0,0,0,0,0,0,0,-1,615,617,0,0
-602,407,0,0,0,0,0,0,0,0,0,-1,622,617,0,0
-595,407,0,0,0,0,0,0,0,0,0,-1,629,617,0,0
-588,407,0,0,0,0,0,0,0,0,0,-1,636,617,0,0
-581,407,0,0,0,0,0,0,0,0,0,-1,643,617,0,0
-574,407,0,0,0,0,0,0,0,0,0,-1,650,617,0,0
-567,407,0,0,0,0,0,0,0,0,0,-1,657,617,0,0
-560,407,0,0,0,0,0,0,0,0,0,-1,664,617,0,0
-553,407,0,0,0,0,0,0,0,0,0,-1,671,617,0,0
-546,407,-8.54517,-0.658142,0,0,0,0,0,0,0,-1,678,617,-8.54515,0.658112
-539,407,-6.09442,-1.01154,0,0,0,0,0,0,0,-1,685,617,-6.09441,1.01155
-532,407,-7.75665,1.62152,0,0,0,0,0,0,0,-1,692,617,-7.75667,-1.62154
-525,407,-3.78247,-2.67639,0,0,0,0,0,0,0,-1,699,617,-3.78246,2.67638
-518,407,-5.013,-5.87323,0,0,0,0,0,0,0,-1,706,617,-5.013,5.87324
-511,407,-9.42743,-4.94189,0,0,0,0,0,0,0,-1,713,617,-9.42745,4.94191
-504,407,-9.80591,-7.48315,0,0,0,0,0,0,0,-1,720,617,-9.80588,7.48317
-497,407,-9.84467,-6.81641,0,0,0,0,0,0,0,-1,727,617,-9.84468,6.8164
-490,407,-11.4831,-8.41833,0,0,0,0,0,0,0,-1,734,617,-11.4831,8.41832
-483,407,-11.142,-9.02734,0,0,0,0,0,0,0,-1,741,617,-11.142,9.02735
-476,407,-11.1921,-9.72003,-0.000312063,0.00458729,-0.00151351,0.00501713,-0.000741908,-1.29408,0.00361751,0.0164956,748,617,-11.1922,9.72003
-469,407,-11.2405,-10.3628,-0.000132864,0.00341165,-0.00120253,0.00378112,-0.000502332,-1.27271,0.00270379,0.0138074,755,617,-11.2405,10.3628
-462,407,-11.2781,-11.053,0.000130606,0.00243739,-0.000982754,0.00279929,-0.000231297,-1.21795,0.00194788,0.0218967,762,617,-11.2782,11.053
-455,407,-11.2957,-11.7719,0.000372655,0.00152774,-0.000755001,0.00190076,-3.71656e-07,-1.1119,0.0012673,0.0227824,769,617,-11.2957,11.7719
-448,407,-11.2957,-12.4167,0.000670631,0.000678378,-0.000534177,0.0012087,0.000140314,-0.789024,0.000763337,0.0191829,776,617,-11.2957,12.4168
-441,407,-11.3268,-13.0364,0.000884139,-0.000283498,-0.000207881,0.000920045,-0.000319404,-0.171037,0.000743077,0.0149176,783,617,-11.3268,13.0364
-434,407,-11.3849,-13.6712,0.0011023,-0.00109161,0.000101668,0.001107,-0.00109631,0.046209,0.00127209,0.0112743,790,617,-11.385,13.6712
-427,407,-11.4076,-14.3351,0.00127813,-0.00197856,0.000448497,0.00133876,-0.0020392,0.134384,0.00196419,0.0114261,797,617,-11.4076,14.3351
-420,407,-11.3965,-14.993,0.00135175,-0.00297916,0.000924835,0.00154098,-0.00316838,0.201818,0.00277254,0.0113088,804,617,-11.3965,14.993
-413,407,-11.4106,-15.6182,0.00135172,-0.00401318,0.00152479,0.0017548,-0.00441626,0.258442,0.00367166,0.0150385,811,617,-11.4107,15.6182
-406,407,-11.5304,-16.0659,0.00140817,-0.00495234,0.00201709,0.0019939,-0.00553808,0.282612,0.00450621,0.0426214,818,617,-11.5304,16.0659
-399,407,-11.4203,-16.5112,0,0,0,0,0,0,0,-1,825,617,-11.4203,16.5112
-392,407,-8.33612,-12.195,0,0,0,0,0,0,0,-1,832,617,-8.33611,12.195
-385,407,-7.65765,-10.7744,0,0,0,0,0,0,0,-1,839,617,-7.65767,10.7744
-378,407,-6.08655,-7.42291,0,0,0,0,0,0,0,-1,846,617,-6.08652,7.42292
-371,407,-7.4007,-5.79449,0,0,0,0,0,0,0,-1,853,617,-7.40072,5.79447
-364,407,-10.0638,-6.6228,0,0,0,0,0,0,0,-1,860,617,-10.0639,6.62279
-357,407,-6.64447,-1.83337,0,0,0,0,0,0,0,-1,867,617,-6.64446,1.8334
-350,407,-7.03351,-1.77551,0,0,0,0,0,0,0,-1,874,617,-7.03349,1.77551
-343,407,-7.40967,-1.95026,0,0,0,0,0,0,0,-1,881,617,-7.40969,1.95026
-336,407,-8.10229,-2.40662,0,0,0,0,0,0,0,-1,888,617,-8.10229,2.40664
-329,407,-8.81232,-2.76331,0,0,0,0,0,0,0,-1,895,617,-8.81235,2.76331
-322,407,0,0,0,0,0,0,0,0,0,-1,902,617,0,0
-315,407,0,0,0,0,0,0,0,0,0,-1,909,617,0,0
-308,407,0,0,0,0,0,0,0,0,0,-1,916,617,0,0
-301,407,0,0,0,0,0,0,0,0,0,-1,923,617,0,0
-294,407,0,0,0,0,0,0,0,0,0,-1,930,617,0,0
-287,407,0,0,0,0,0,0,0,0,0,-1,937,617,0,0
-280,407,0,0,0,0,0,0,0,0,0,-1,944,617,0,0
-273,407,0,0,0,0,0,0,0,0,0,-1,951,617,0,0
-266,407,0,0,0,0,0,0,0,0,0,-1,958,617,0,0
-259,407,0,0,0,0,0,0,0,0,0,-1,965,617,0,0
-252,407,0,0,0,0,0,0,0,0,0,-1,972,617,0,0
-245,407,0,0,0,0,0,0,0,0,0,-1,979,617,0,0
-238,407,0,0,0,0,0,0,0,0,0,-1,986,617,0,0
-231,407,0,0,0,0,0,0,0,0,0,-1,993,617,0,0
-224,407,0,0,0,0,0,0,0,0,0,-1,1000,617,0,0
-217,407,0,0,0,0,0,0,0,0,0,-1,1007,617,0,0
-210,407,0,0,0,0,0,0,0,0,0,-1,1014,617,0,0
-203,407,0,0,0,0,0,0,0,0,0,-1,1021,617,0,0
-196,407,0,0,0,0,0,0,0,0,0,-1,1028,617,0,0
-189,407,0,0,0,0,0,0,0,0,0,-1,1035,617,0,0
-182,407,0,0,0,0,0,0,0,0,0,-1,1042,617,0,0
-175,407,0,0,0,0,0,0,0,0,0,-1,1049,617,0,0
-168,407,0,0,0,0,0,0,0,0,0,-1,1056,617,0,0
-161,407,0,0,0,0,0,0,0,0,0,-1,1063,617,0,0
-154,407,0,0,0,0,0,0,0,0,0,-1,1070,617,0,0
-147,407,0,0,0,0,0,0,0,0,0,-1,1077,617,0,0
-140,407,0,0,0,0,0,0,0,0,0,-1,1084,617,0,0
-133,407,0,0,0,0,0,0,0,0,0,-1,1091,617,0,0
-126,407,0,0,0,0,0,0,0,0,0,-1,1098,617,0,0
-119,407,0,0,0,0,0,0,0,0,0,-1,1105,617,0,0
-112,407,0,0,0,0,0,0,0,0,0,-1,1112,617,0,0
-105,407,0,0,0,0,0,0,0,0,0,-1,1119,617,0,0
-98,407,0,0,0,0,0,0,0,0,0,-1,1126,617,0,0
-91,407,0,0,0,0,0,0,0,0,0,-1,1133,617,0,0
-84,407,0,0,0,0,0,0,0,0,0,-1,1140,617,0,0
-77,407,0,0,0,0,0,0,0,0,0,-1,1147,617,0,0
-70,407,0,0,0,0,0,0,0,0,0,-1,1154,617,0,0
-63,407,0,0,0,0,0,0,0,0,0,-1,1161,617,0,0
-56,407,0,0,0,0,0,0,0,0,0,-1,1168,617,0,0
-49,407,0,0,0,0,0,0,0,0,0,-1,1175,617,0,0
-42,407,0,0,0,0,0,0,0,0,0,-1,1182,617,0,0
-35,407,0,0,0,0,0,0,0,0,0,-1,1189,617,0,0
-28,407,0,0,0,0,0,0,0,0,0,-1,1196,617,0,0
-21,407,0,0,0,0,0,0,0,0,0,-1,1203,617,0,0
-14,407,0,0,0,0,0,0,0,0,0,-1,1210,617,0,0
-7,407,0,0,0,0,0,0,0,0,0,-1,1217,617,0,0
0,407,0,0,0,0,0,0,0,0,0,-1,1224,617,0,0
7,407,0,0,0,0,0,0,0,0,0,-1,1231,617,0,0
14,407,0,0,0,0,0,0,0,0,0,-1,1238,617,0,0
21,407,0,0,0,0,0,0,0,0,0,-1,1245,617,0,0
28,407,0,0,0,0,0,0,0,0,0,-1,1252,617,0,0
35,407,0,0,0,0,0,0,0,0,0,-1,1259,617,0,0
42,407,0,0,0,0,0,0,0,0,0,-1,1266,617,0,0
49,407,0,0,0,0,0,0,0,0,0,-1,1273,617,0,0
56,407,0,0,0,0,0,0,0,0,0,-1,1280,617,0,0
63,407,0,0,0,0,0,0,0,0,0,-1,1287,617,0,0
70,407,0,0,0,0,0,0,0,0,0,-1,1294,617,0,0
77,407,0,0,0,0,0,0,0,0,0,-1,1301,617,0,0
84,407,0,0,0,0,0,0,0,0,0,-1,1308,617,0,0
91,407,0,0,0,0,0,0,0,0,0,-1,1315,617,0,0
98,407,0,0,0,0,0,0,0,0,0,-1,1322,617,0,0
105,407,0,0,0,0,0,0,0,0,0,-1,1329,617,0,0
112,407,0,0,0,0,0,0,0,0,0,-1,1336,617,0,0
119,407,0,0,0,0,0,0,0,0,0,-1,1343,617,0,0
126,407,0,0,0,0,0,0,0,0,0,-1,1350,617,0,0
133,407,0,0,0,0,0,0,0,0,0,-1,1357,617,0,0
140,407,0,0,0,0,0,0,0,0,0,-1,1364,617,0,0
147,407,0,0,0,0,0,0,0,0,0,-1,1371,617,0,0
154,407,0,0,0,0,0,0,0,0,0,-1,1378,617,0,0
161,407,0,0,0,0,0,0,0,0,0,-1,1385,617,0,0
168,407,0,0,0,0,0,0,0,0,0,-1,1392,617,0,0
175,407,0,0,0,0,0,0,0,0,0,-1,1399,617,0,0
182,407,0,0,0,0,0,0,0,0,0,-1,1406,617,0,0
189,407,0,0,0,0,0,0,0,0,0,-1,1413,617,0,0
196,407,0,0,0,0,0,0,0,0,0,-1,1420,617,0,0
203,407,0,0,0,0,0,0,0,0,0,-1,1427,617,0,0
210,407,0,0,0,0,0,0,0,0,0,-1,1434,617,0,0
217,407,0,0,0,0,0,0,0,0,0,-1,1441,617,0,0
224,407,0,0,0,0,0,0,0,0,0,-1,1448,617,0,0
231,407,0,0,0,0,0,0,0,0,0,-1,1455,617,0,0
238,407,0,0,0,0,0,0,0,0,0,-1,1462,617,0,0
245,407,0,0,0,0,0,0,0,0,0,-1,1469,617,0,0
252,407,0,0,0,0,0,0,0,0,0,-1,1476,617,0,0
259,407,0,0,0,0,0,0,0,0,0,-1,1483,617,0,0
266,407,0,0,0,0,0,0,0,0,0,-1,1490,617,0,0
273,407,0,0,0,0,0,0,0,0,0,-1,1497,617,0,0
280,407,0,0,0,0,0,0,0,0,0,-1,1504,617,0,0
287,407,0,0,0,0,0,0,0,0,0,-1,1511,617,0,0
294,407,0,0,0,0,0,0,0,0,0,-1,1518,617,0,0
301,407,0,0,0,0,0,0,0,0,0,-1,1525,617,0,0
308,407,0,0,0,0,0,0,0,0,0,-1,1532,617,0,0
315,407,0,0,0,0,0,0,0,0,0,-1,1539,617,0,0
322,407,0,0,0,0,0,0,0,0,0,-1,1546,617,0,0
329,407,0,0,0,0,0,0,0,0,0,-1,1553,617,0,0
336,407,0,0,0,0,0,0,0,0,0,-1,1560,617,0,0
343,407,0,0,0,0,0,0,0,0,0,-1,1567,617,0,0
350,407,0,0,0,0,0,0,0,0,0,-1,1574,617,0,0
357,407,0,0,0,0,0,0,0,0,0,-1,1581,617,0,0
364,407,0,0,0,0,0,0,0,0,0,-1,1588,617,0,0
371,407,0,0,0,0,0,0,0,0,0,-1,1595,617,0,0
378,407,0,0,0,0,0,0,0,0,0,-1,1602,617,0,0
385,407,0,0,0,0,0,0,0,0,0,-1,1609,617,0,0
392,407,0,0,0,0,0,0,0,0,0,-1,1616,617,0,0
399,407,0,0,0,0,0,0,0,0,0,-1,1623,617,0,0
406,407,0,0,0,0,0,0,0,0,0,-1,1630,617,0,0
413,407,0,0,0,0,0,0,0,0,0,-1,1637,617,0,0
420,407,0,0,0,0,0,0,0,0,0,-1,1644,617,0,0
427,407,0,0,0,0,0,0,0,0,0,-1,1651,617,0,0
434,407,0,0,0,0,0,0,0,0,0,-1,1658,617,0,0
441,407,0,0,0,0,0,0,0,0,0,-1,1665,617,0,0
448,407,7.02893,2.13843,0,0,0,0,0,0,0,-1,1672,617,7.02899,-2.13844
455,407,7.55237,2.29242,0,0,0,0,0,0,0,-1,1679,617,7.55236,-2.29244
462,407,8.2926,2.46173,0,0,0,0,0,0,0,-1,1686,617,8.29261,-2.46174
469,407,8.71509,2.22681,0,0,0,0,0,0,0,-1,1693,617,8.71511,-2.22681
476,407,8.89917,1.47766,0,0,0,0,0,0,0,-1,1700,617,8.89914,-1.47768
483,407,9.02612,0.682983,0,0,0,0,0,0,0,-1,1707,617,9.02608,-0.683004
490,407,9.12659,0.000671387,0,0,0,0,0,0,0,-1,1714,617,9.12653,-0.000675931
497,407,7.76819,0.855835,0,0,0,0,0,0,0,-1,1721,617,7.7682,-0.855865
504,407,4.69336,0.160706,0,0,0,0,0,0,0,-1,1728,617,4.69337,-0.1607
511,407,4.07104,-0.00140381,0,0,0,0,0,0,0,-1,1735,617,4.07109,0.00141425
518,407,6.09534,1.9411,0,0,0,0,0,0,0,-1,1742,617,6.09532,-1.94113
525,407,5.72534,-1.35986,0,0,0,0,0,0,0,-1,1749,617,5.72529,1.35988
532,407,18.5767,-10.6388,0,0,0,0,0,0,0,-1,1756,617,18.5766,10.6388
539,407,23.0345,-14.3996,0,0,0,0,0,0,0,-1,1763,617,23.0345,14.3996
546,407,23.1038,-13.6649,0.00449001,0.00110329,0.00167675,0.0051797,0.000413588,0.390235,0.00332386,0.0236228,1770,617,23.1038,13.6649
553,407,23.0789,-12.9988,0.00366812,0.000978482,0.00132288,0.00420971,0.000436891,0.388587,0.00267277,0.0172618,1777,617,23.0789,12.9989
560,407,23.0736,-12.2948,0.00297236,0.000913365,0.00111329,0.0034592,0.000426525,0.412241,0.00217793,0.017387,1784,617,23.0736,12.2948
567,407,23.0221,-11.6255,0.00231818,0.000863061,0.000951268,0.00278822,0.000393018,0.458935,0.00174265,0.0303951,1791,617,23.022,11.6255
574,407,22.9941,-10.9727,0.00188465,0.00107247,0.000992288,0.00255073,0.000406391,0.591173,0.00158251,0.0273609,1798,617,22.9941,10.9727
581,407,22.9895,-10.2865,0.00160597,0.00138988,0.00117278,0.00267567,0.000320179,0.739462,0.00168721,0.0190309,1805,617,22.9895,10.2865
588,407,22.9221,-9.59857,0.00143983,0.00186908,0.00144138,0.00311172,0.000197184,0.859306,0.00201198,0.0126597,1812,617,22.9221,9.59859
595,407,22.9453,-8.91791,0.00149051,0.00249112,0.0018635,0.00392031,6.13255e-05,0.916543,0.00259334,0.0235214,1819,617,22.9453,8.9179
602,407,22.917,-8.19031,0.00176293,0.00332162,0.00244238,0.00510599,-2.14325e-05,0.939838,0.00341116,0.019437,1826,617,22.917,8.19032
609,407,22.8325,-7.48859,0.00229584,0.00440293,0.003231,0.00674781,-4.90448e-05,0.942999,0.00451498,0.0176179,1833,617,22.8326,7.4886
616,407,22.885,-6.67883,0.0031644,0.00581473,0.00423541,0.00892745,5.16819e-05,0.937013,0.00593448,0.0313452,1840,617,22.8851,6.67886
623,407,23.1556,-5.73859,0,0,0,0,0,0,0,-1,1847,617,23.1556,5.73861
630,407,7.06177,0.814575,0,0,0,0,0,0,0,-1,1854,617,7.06178,-0.814579
637,407,9.76819,-0.110657,0,0,0,0,0,0,0,-1,1861,617,9.76814,0.11064
644,407,5.09766,2.27747,0,0,0,0,0,0,0,-1,1868,617,5.09764,-2.27746
651,407,7.37524,0.0513916,0,0,0,0,0,0,0,-1,1875,617,7.3752,-0.0513923
658,407,3.76685,0.594177,0,0,0,0,0,0,0,-1,1882,617,3.76683,-0.594184
665,407,5.76123,0.375061,0,0,0,0,0,0,0,-1,1889,617,5.76118,-0.37509
672,407,0,0,0,0,0,0,0,0,0,-1,1896,617,0,0
679,407,0,0,0,0,0,0,0,0,0,-1,1903,617,0,0
686,407,0,0,0,0,0,0,0,0,0,-1,1910,617,0,0
693,407,0,0,0,0,0,0,0,0,0,-1,1917,617,0,0
700,407,0,0,0,0,0,0,0,0,0,-1,1924,617,0,0
707,407,0,0,0,0,0,0,0,0,0,-1,1931,617,0,0
714,407,0,0,0,0,0,0,0,0,0,-1,1938,617,0,0
721,407,0,0,0,0,0,0,0,0,0,-1,1945,617,0,0
728,407,0,0,0,0,0,0,0,0,0,-1,1952,617,0,0
735,407,0,0,0,0,0,0,0,0,0,-1,1959,617,0,0
742,407,0,0,0,0,0,0,0,0,0,-1,1966,617,0,0
749,407,0,0,0,0,0,0,0,0,0,-1,1973,617,0,0
756,407,0,0,0,0,0,0,0,0,0,-1,1980,617,0,0
763,407,0,0,0,0,0,0,0,0,0,-1,1987,617,0,0
770,407,0,0,0,0,0,0,0,0,0,-1,1994,617,0,0
777,407,0,0,0,0,0,0,0,0,0,-1,2001,617,0,0
784,407,0,0,0,0,0,0,0,0,0,-1,2008,617,0,0
791,407,0,0,0,0,0,0,0,0,0,-1,2015,617,0,0
798,407,0,0,0,0,0,0,0,0,0,-1,2022,617,0,0
805,407,0,0,0,0,0,0,0,0,0,-1,2029,617,0,0
812,407,0,0,0,0,0,0,0,0,0,-1,2036,617,0,0
-700,400,0,0,0,0,0,0,0,0,0,-1,524,624,0,0
-693,400,0,0,0,0,0,0,0,0,0,-1,531,624,0,0
-686,400,0,0,0,0,0,0,0,0,0,-1,538,624,0,0
-679,400,0,0,0,0,0,0,0,0,0,-1,545,624,0,0
-672,400,0,0,0,0,0,0,0,0,0,-1,552,624,0,0
-665,400,0,0,0,0,0,0,0,0,0,-1,559,624,0,0
-658,400,0,0,0,0,0,0,0,0,0,-1,566,624,0,0
-651,400,0,0,0,0,0,0,0,0,0,-1,573,624,0,0
-644,400,0,0,0,0,0,0,0,0,0,-1,580,624,0,0
-637,400,0,0,0,0,0,0,0,0,0,-1,587,624,0,0
-630,400,0,0,0,0,0,0,0,0,0,-1,594,624,0,0
-623,400,0,0,0,0,0,0,0,0,0,-1,601,624,0,0
-616,400,0,0,0,0,0,0,0,0,0,-1,608,624,0,0
-609,400,0,0,0,0,0,0,0,0,0,-1,615,624,0,0
-602,400,0,0,0,0,0,0,0,0,0,-1,622,624,0,0
-595,400,0,0,0,0,0,0,0,0,0,-1,629,624,0,0
-588,400,0,0,0,0,0,0,0,0,0,-1,636,624,0,0
-581,400,0,0,0,0,0,0,0,0,0,-1,643,624,0,0
-574,400,0,0,0,0,0,0,0,0,0,-1,650,624,0,0
-567,400,0,0,0,0,0,0,0,0,0,-1,657,624,0,0
-560,400,0,0,0,0,0,0,0,0,0,-1,664,624,0,0
-553,400,0,0,0,0,0,0,0,0,0,-1,671,624,0,0
-546,400,-8.41174,-1.4599,0,0,0,0,0,0,0,-1,678,624,-8.41173,1.45989
-539,400,-5.69104,-1.7337,0,0,0,0,0,0,0,-1,685,624,-5.69103,1.7337
-532,400,-3.03632,-2.03912,0,0,0,0,0,0,0,-1,692,624,-3.03632,2.03909
-525,400,-6.20813,-7.04071,0,0,0,0,0,0,0,-1,699,624,-6.20814,7.04071
-518,400,-5.26544,-1.58661,0,0,0,0,0,0,0,-1,706,624,-5.26544,1.58658
-511,400,-10.6307,-6.7121,0,0,0,0,0,0,0,-1,713,624,-10.6307,6.71209
-504,400,-10.2663,-6.55109,0,0,0,0,0,0,0,-1,720,624,-10.2663,6.55106
-497,400,-12.0137,-7.46375,0,0,0,0,0,0,0,-1,727,624,-12.0137,7.46373
-490,400,-11.7966,-8.24237,0.000939322,0.00660298,-0.00285853,0.00779489,-0.000252587,-1.17575,0.0052828,0.0368011,734,624,-11.7965,8.24235
-483,400,-11.8293,-9.00793,0.000526698,0.00492765,-0.00208747,0.00576027,-0.000305914,-1.19127,0.0039461,0.0186243,741,624,-11.8293,9.00794
-476,400,-11.8611,-9.67438,0.00039901,0.00364933,-0.00154469,0.00426632,-0.000217976,-1.19079,0.00291958,0.014727,748,624,-11.8611,9.67439
-469,400,-11.8745,-10.3593,0.000496202,0.00259759,-0.00120532,0.00314589,-5.20912e-05,-1.14388,0.00211483,0.0155146,755,624,-11.8744,10.3593
-462,400,-11.91,-11.0468,0.000665439,0.00170063,-0.000945572,0.002261,0.000105067,-1.03582,0.00147356,0.0208334,762,624,-11.91,11.0468
-455,400,-11.9355,-11.7076,0.000850256,0.000833896,-0.000699673,0.0015418,0.000142356,-0.779553,0.000983851,0.0207728,769,624,-11.9355,11.7076
-448,400,-11.9447,-12.3779,0.00111763,6.64187e-05,-0.000496044,0.00131475,-0.000130693,-0.378235,0.00092315,0.014931,776,624,-11.9447,12.3779
-441,400,-12.0001,-12.9802,0.00131427,-0.000785263,-0.000216544,0.00133637,-0.000807365,-0.101712,0.00125019,0.014338,783,624,-12.0001,12.9802
-434,400,-12.044,-13.6023,0.00150143,-0.00154735,5.99222e-05,0.00150261,-0.00154853,0.0196444,0.00176164,0.0126648,790,624,-12.044,13.6023
-427,400,-12.0689,-14.2559,0.00160829,-0.00244493,0.00041046,0.00164943,-0.00248608,0.0999162,0.00240387,0.011513,797,624,-12.0689,14.2559
-420,400,-12.0212,-14.9552,0.00151906,-0.00358303,0.000988752,0.00170397,-0.00376794,0.18488,0.00323325,0.0169306,804,624,-12.0213,14.9552
-413,400,-12.1228,-15.4741,0.0013134,-0.00481069,0.0017248,0.00176576,-0.00526305,0.256492,0.00422221,0.0400444,811,624,-12.1228,15.4741
-406,400,-12.1809,-15.6096,0,0,0,0,0,0,0,-1,818,624,-12.1809,15.6096
-399,400,-11.0176,-13.2944,0,0,0,0,0,0,0,-1,825,624,-11.0176,13.2944
-392,400,-4.92285,-6.63354,0,0,0,0,0,0,0,-1,832,624,-4.92285,6.63354
-385,400,-3.68738,-5.04205,0,0,0,0,0,0,0,-1,839,624,-3.68736,5.04207
-378,400,-6.84064,-1.28662,0,0,0,0,0,0,0,-1,846,624,-6.84062,1.28662
-371,400,-6.98865,-1.2572,0,0,0,0,0,0,0,-1,853,624,-6.98865,1.25721
-364,400,-6.97247,-1.24133,0,0,0,0,0,0,0,-1,860,624,-6.97249,1.24135
-357,400,-7.18329,-1.23218,0,0,0,0,0,0,0,-1,867,624,-7.18327,1.2322
-350,400,-7.40186,-1.19409,0,0,0,0,0,0,0,-1,874,624,-7.40187,1.19407
-343,400,-8.09357,-1.51147,0,0,0,0,0,0,0,-1,881,624,-8.09355,1.51148
-336,400,0,0,0,0,0,0,0,0,0,-1,888,624,0,0
-329,400,0,0,0,0,0,0,0,0,0,-1,895,624,0,0
-322,400,0,0,0,0,0,0,0,0,0,-1,902,624,0,0
-315,400,0,0,0,0,0,0,0,0,0,-1,909,624,0,0
-308,400,0,0,0,0,0,0,0,0,0,-1,916,624,0,0
-301,400,0,0,0,0,0,0,0,0,0,-1,923,624,0,0
-294,400,0,0,0,0,0,0,0,0,0,-1,930,624,0,0
-287,400,0,0,0,0,0,0,0,0,0,-1,937,624,0,0
-280,400,0,0,0,0,0,0,0,0,0,-1,944,624,0,0
-273,400,0,0,0,0,0,0,0,0,0,-1,951,624,0,0
-266,400,0,0,0,0,0,0,0,0,0,-1,958,624,0,0
-259,400,0,0,0,0,0,0,0,0,0,-1,965,624,0,0
-252,400,0,0,0,0,0,0,0,0,0,-1,972,624,0,0
-245,400,0,0,0,0,0,0,0,0,0,-1,979,624,0,0
-238,400,0,0,0,0,0,0,0,0,0,-1,986,624,0,0
-231,400,0,0,0,0,0,0,0,0,0,-1,993,624,0,0
-224,400,0,0,0,0,0,0,0,0,0,-1,1000,624,0,0
-217,400,0,0,0,0,0,0,0,0,0,-1,1007,624,0,0
-210,400,0,0,0,0,0,0,0,0,0,-1,1014,624,0,0
-203,400,0,0,0,0,0,0,0,0,0,-1,1021,624,0,0
-196,400,0,0,0,0,0,0,0,0,0,-1,1028,624,0,0
-189,400,0,0,0,0,0,0,0,0,0,-1,1035,624,0,0
-182,400,0,0,0,0,0,0,0,0,0,-1,1042,624,0,0
-175,400,0,0,0,0,0,0,0,0,0,-1,1049,624,0,0
-168,400,0,0,0,0,0,0,0,0,0,-1,1056,624,0,0
-161,400,0,0,0,0,0,0,0,0,0,-1,1063,624,0,0
-154,400,0,0,0,0,0,0,0,0,0,-1,1070,624,0,0
-147,400,0,0,0,0,0,0,0,0,0,-1,1077,624,0,0
-140,400,0,0,0,0,0,0,0,0,0,-1,1084,624,0,0
-133,400,0,0,0,0,0,0,0,0,0,-1,1091,624,0,0
-126,400,0,0,0,0,0,0,0,0,0,-1,1098,624,0,0
-119,400,0,0,0,0,0,0,0,0,0,-1,1105,624,0,0
-112,400,0,0,0,0,0,0,0,0,0,-1,1112,624,0,0
-105,400,0,0,0,0,0,0,0,0,0,-1,1119,624,0,0
-98,400,0,0,0,0,0,0,0,0,0,-1,1126,624,0,0
-91,400,0,0,0,0,0,0,0,0,0,-1,1133,624,0,0
-84,400,0,0,0,0,0,0,0,0,0,-1,1140,624,0,0
-77,400,0,0,0,0,0,0,0,0,0,-1,1147,624,0,0
-70,400,0,0,0,0,0,0,0,0,0,-1,1154,624,0,0
-63,400,0,0,0,0,0,0,0,0,0,-1,1161,624,0,0
-56,400,0,0,0,0,0,0,0,0,0,-1,1168,624,0,0
-49,400,0,0,0,0,0,0,0,0,0,-1,1175,624,0,0
-42,400,0,0,0,0,0,0,0,0,0,-1,1182,624,0,0
-35,400,0,0,0,0,0,0,0,0,0,-1,1189,624,0,0
-28,400,0,0,0,0,0,0,0,0,0,-1,1196,624,0,0
-21,400,0,0,0,0,0,0,0,0,0,-1,1203,624,0,0
-14,400,0,0,0,0,0,0,0,0,0,-1,1210,624,0,0
-7,400,0,0,0,0,0,0,0,0,0,-1,1217,624,0,0
0,400,0,0,0,0,0,0,0,0,0,-1,1224,624,0,0
7,400,0,0,0,0,0,0,0,0,0,-1,1231,624,0,0
14,400,0,0,0,0,0,0,0,0,0,-1,1238,624,0,0
21,400,0,0,0,0,0,0,0,0,0,-1,1245,624,0,0
28,400,0,0,0,0,0,0,0,0,0,-1,1252,624,0,0
35,400,0,0,0,0,0,0,0,0,0,-1,1259,624,0,0
42,400,0,0,0,0,0,0,0,0,0,-1,1266,624,0,0
49,400,0,0,0,0,0,0,0,0,0,-1,1273,624,0,0
56,400,0,0,0,0,0,0,0,0,0,-1,1280,624,0,0
63,400,0,0,0,0,0,0,0,0,0,-1,1287,624,0,0
70,400,0,0,0,0,0,0,0,0,0,-1,1294,624,0,0
77,400,0,0,0,0,0,0,0,0,0,-1,1301,624,0,0
84,400,0,0,0,0,0,0,0,0,0,-1,1308,624,0,0
91,400,0,0,0,0,0,0,0,0,0,-1,1315,624,0,0
98,400,0,0,0,0,0,0,0,0,0,-1,1322,624,0,0
105,400,0,0,0,0,0,0,0,0,0,-1,1329,624,0,0
112,400,0,0,0,0,0,0,0,0,0,-1,1336,624,0,0
119,400,0,0,0,0,0,0,0,0,0,-1,1343,624,0,0
126,400,0,0,0,0,0,0,0,0,0,-1,1350,624,0,0
133,400,0,0,0,0,0,0,0,0,0,-1,1357,624,0,0
140,400,0,0,0,0,0,0,0,0,0,-1,1364,624,0,0
147,400,0,0,0,0,0,0,0,0,0,-1,1371,624,0,0
154,400,0,0,0,0,0,0,0,0,0,-1,1378,624,0,0
161,400,0,0,0,0,0,0,0,0,0,-1,1385,624,0,0
168,400,0,0,0,0,0,0,0,0,0,-1,1392,624,0,0
175,400,0,0,0,0,0,0,0,0,0,-1,1399,624,0,0
182,400,0,0,0,0,0,0,0,0,0,-1,1406,624,0,0
189,400,0,0,0,0,0,0,0,0,0,-1,1413,624,0,0
196,400,0,0,0,0,0,0,0,0,0,-1,1420,624,0,0
203,400,0,0,0,0,0,0,0,0,0,-1,1427,624,0,0
210,400,0,0,0,0,0,0,0,0,0,-1,1434,624,0,0
217,400,0,0,0,0,0,0,0,0,0,-1,1441,624,0,0
224,400,0,0,0,0,0,0,0,0,0,-1,1448,624,0,0
231,400,0,0,0,0,0,0,0,0,0,-1,1455,624,0,0
238,400,0,0,0,0,0,0,0,0,0,-1,1462,624,0,0
245,400,0,0,0,0,0,0,0,0,0,-1,1469,624,0,0
252,400,0,0,0,0,0,0,0,0,0,-1,1476,624,0,0
259,400,0,0,0,0,0,0,0,0,0,-1,1483,624,0,0
266,400,0,0,0,0,0,0,0,0,0,-1,1490,624,0,0
273,400,0,0,0,0,0,0,0,0,0,-1,1497,624,0,0
280,400,0,0,0,0,0,0,0,0,0,-1,1504,624,0,0
287,400,0,0,0,0,0,0,0,0,0,-1,1511,624,0,0
294,400,0,0,0,0,0,0,0,0,0,-1,1518,624,0,0
301,400,0,0,0,0,0,0,0,0,0,-1,1525,624,0,0
308,400,0,0,0,0,0,0,0,0,0,-1,1532,624,0,0
315,400,0,0,0,0,0,0,0,0,0,-1,1539,624,0,0
322,400,0,0,0,0,0,0,0,0,0,-1,1546,624,0,0
329,400,0,0,0,0,0,0,0,0,0,-1,1553,624,0,0
336,400,0,0,0,0,0,0,0,0,0,-1,1560,624,0,0
343,400,0,0,0,0,0,0,0,0,0,-1,1567,624,0,0
350,400,0,0,0,0,0,0,0,0,0,-1,1574,624,0,0
357,400,0,0,0,0,0,0,0,0,0,-1,1581,624,0,0
364,400,0,0,0,0,0,0,0,0,0,-1,1588,624,0,0
371,400,0,0,0,0,0,0,0,0,0,-1,1595,624,0,0
378,400,0,0,0,0,0,0,0,0,0,-1,1602,624,0,0
385,400,0,0,0,0,0,0,0,0,0,-1,1609,624,0,0
392,400,0,0,0,0,0,0,0,0,0,-1,1616,624,0,0
399,400,0,0,0,0,0,0,0,0,0,-1,1623,624,0,0
406,400,0,0,0,0,0,0,0,0,0,-1,1630,624,0,0
413,400,0,0,0,0,0,0,0,0,0,-1,1637,624,0,0
420,400,0,0,0,0,0,0,0,0,0,-1,1644,624,0,0
427,400,0,0,0,0,0,0,0,0,0,-1,1651,624,0,0
434,400,0,0,0,0,0,0,0,0,0,-1,1658,624,0,0
441,400,0,0,0,0,0,0,0,0,0,-1,1665,624,0,0
448,400,0,0,0,0,0,0,0,0,0,-1,1672,624,0,0
455,400,8.91309,2.75885,0,0,0,0,0,0,0,-1,1679,624,8.91312,-2.75885
462,400,8.90356,2.37878,0,0,0,0,0,0,0,-1,1686,624,8.90353,-2.37878
469,400,9.14429,1.76849,0,0,0,0,0,0,0,-1,1693,624,9.14432,-1.76847
476,400,9.23254,1.25995,0,0,0,0,0,0,0,-1,1700,624,9.23252,-1.25994
483,400,9.59766,0.562439,0,0,0,0,0,0,0,-1,1707,624,9.59771,-0.56242
490,400,9.92578,-0.213745,0,0,0,0,0,0,0,-1,1714,624,9.92579,0.21376
497,400,9.19141,0.175232,0,0,0,0,0,0,0,-1,1721,624,9.19138,-0.175209
504,400,9.23438,0.00823975,0,0,0,0,0,0,0,-1,1728,624,9.23436,-0.00823766
511,400,6.16687,3.3501,0,0,0,0,0,0,0,-1,1735,624,6.16682,-3.35007
518,400,6.55237,1.74994,0,0,0,0,0,0,0,-1,1742,624,6.55236,-1.74993
525,400,6.99731,1.08783,0,0,0,0,0,0,0,-1,1749,624,6.99736,-1.08785
532,400,6.96582,-1.74982,0,0,0,0,0,0,0,-1,1756,624,6.96585,1.74983
539,400,21.2305,-10.5841,0,0,0,0,0,0,0,-1,1763,624,21.2304,10.5841
546,400,23.7971,-13.6365,0,0,0,0,0,0,0,-1,1770,624,23.7971,13.6365
553,400,23.6759,-12.9896,0.0042586,0.00109192,0.00143592,0.00481274,0.000537776,0.368306,0.00304511,0.0405297,1777,624,23.6759,12.9896
560,400,23.7299,-12.2725,0.0034777,0.000924659,0.00113866,0.00391175,0.000490609,0.36419,0.00246065,0.0153911,1784,624,23.7299,12.2725
567,400,23.7219,-11.5917,0.00268279,0.000725873,0.000854895,0.00300365,0.000405014,0.359051,0.00188201,0.0178834,1791,624,23.7219,11.5917
574,400,23.7036,-10.9274,0.0021435,0.000835286,0.000813869,0.00253354,0.000445249,0.446901,0.00156191,0.0203835,1798,624,23.7036,10.9274
581,400,23.6554,-10.2534,0.00178546,0.00109076,0.000935279,0.00243581,0.000440415,0.607598,0.0014988,0.0208592,1805,624,23.6554,10.2534
588,400,23.5802,-9.53784,0.00155694,0.0014989,0.00115562,0.00268391,0.000371931,0.772844,0.00167908,0.0160832,1812,624,23.5802,9.53782
595,400,23.6036,-8.85376,0.00157959,0.00204999,0.00154616,0.00337874,0.000250843,0.860879,0.00217371,0.0150428,1819,624,23.6037,8.85376
602,400,23.6029,-8.17249,0.00185122,0.00278638,0.00211367,0.00448357,0.000154034,0.894253,0.00293905,0.0147303,1826,624,23.6029,8.17251
609,400,23.51,-7.47925,0.00225786,0.00371121,0.00282871,0.00590509,6.39807e-05,0.911125,0.00391557,0.0144683,1833,624,23.51,7.47926
616,400,23.4674,-6.79749,0.00272872,0.00477043,0.00359913,0.00749068,8.47457e-06,0.923589,0.00499097,0.0188891,1840,624,23.4674,6.79747
623,400,23.625,-5.72406,0,0,0,0,0,0,0,-1,1847,624,23.625,5.72406
630,400,11.9432,0.09021,0,0,0,0,0,0,0,-1,1854,624,11.9432,-0.0902007
637,400,6.92896,1.01917,0,0,0,0,0,0,0,-1,1861,624,6.92899,-1.01918
644,400,8.65381,1.4599,0,0,0,0,0,0,0,-1,1868,624,8.65379,-1.45991
651,400,7.90601,0.424072,0,0,0,0,0,0,0,-1,1875,624,7.90598,-0.424097
658,400,8.69031,1.0484,0,0,0,0,0,0,0,-1,1882,624,8.6903,-1.0484
665,400,5.98438,0.522522,0,0,0,0,0,0,0,-1,1889,624,5.98442,-0.522552
672,400,0,0,0,0,0,0,0,0,0,-1,1896,624,0,0
679,400,0,0,0,0,0,0,0,0,0,-1,1903,624,0,0
686,400,0,0,0,0,0,0,0,0,0,-1,1910,624,0,0
693,400,0,0,0,0,0,0,0,0,0,-1,1917,624,0,0
700,400,0,0,0,0,0,0,0,0,0,-1,1924,624,0,0
707,400,0,0,0,0,0,0,0,0,0,-1,1931,624,0,0
714,400,0,0,0,0,0,0,0,0,0,-1,1938,624,0,0
721,400,0,0,0,0,0,0,0,0,0,-1,1945,624,0,0
728,400,0,0,0,0,0,0,0,0,0,-1,1952,624,0,0
735,400,0,0,0,0,0,0,0,0,0,-1,1959,624,0,0
742,400,0,0,0,0,0,0,0,0,0,-1,1966,624,0,0
749,400,0,0,0,0,0,0,0,0,0,-1,1973,624,0,0
756,400,0,0,0,0,0,0,0,0,0,-1,1980,624,0,0
763,400,0,0,0,0,0,0,0,0,0,-1,1987,624,0,0
770,400,0,0,0,0,0,0,0,0,0,-1,1994,624,0,0
777,400,0,0,0,0,0,0,0,0,0,-1,2001,624,0,0
784,400,0,0,0,0,0,0,0,0,0,-1,2008,624,0,0
791,400,0,0,0,0,0,0,0,0,0,-1,2015,624,0,0
798,400,0,0,0,0,0,0,0,0,0,-1,2022,624,0,0
805,400,0,0,0,0,0,0,0,0,0,-1,2029,624,0,0
812,400,0,0,0,0,0,0,0,0,0,-1,2036,624,0,0
-700,393,0,0,0,0,0,0,0,0,0,-1,524,631,0,0
-693,393,0,0,0,0,0,0,0,0,0,-1,531,631,0,0
-686,393,0,0,0,0,0,0,0,0,0,-1,538,631,0,0
-679,393,0,0,0,0,0,0,0,0,0,-1,545,631,0,0
-672,393,0,0,0,0,0,0,0,0,0,-1,552,631,0,0
-665,393,0,0,0,0,0,0,0,0,0,-1,559,631,0,0
-658,393,0,0,0,0,0,0,0,0,0,-1,566,631,0,0
-651,393,0,0,0,0,0,0,0,0,0,-1,573,631,0,0
-644,393,0,0,0,0,0,0,0,0,0,-1,580,631,0,0
-637,393,0,0,0,0,0,0,0,0,0,-1,587,631,0,0
-630,393,0,0,0,0,0,0,0,0,0,-1,594,631,0,0
-623,393,0,0,0,0,0,0,0,0,0,-1,601,631,0,0
-616,393,0,0,0,0,0,0,0,0,0,-1,608,631,0,0
-609,393,0,0,0,0,0,0,0,0,0,-1,615,631,0,0
-602,393,0,0,0,0,0,0,0,0,0,-1,622,631,0,0
-595,393,0,0,0,0,0,0,0,0,0,-1,629,631,0,0
-588,393,0,0,0,0,0,0,0,0,0,-1,636,631,0,0
-581,393,0,0,0,0,0,0,0,0,0,-1,643,631,0,0
-574,393,0,0,0,0,0,0,0,0,0,-1,650,631,0,0
-567,393,0,0,0,0,0,0,0,0,0,-1,657,631,0,0
-560,393,0,0,0,0,0,0,0,0,0,-1,664,631,0,0
-553,393,-2.35107,3.92633,0,0,0,0,0,0,0,-1,671,631,-2.35108,-3.92634
-546,393,-1.78778,2.4856,0,0,0,0,0,0,0,-1,678,631,-1.78778,-2.48557
-539,393,-5.2113,-2.20245,0,0,0,0,0,0,0,-1,685,631,-5.21128,2.20247
-532,393,-2.83643,-2.01624,0,0,0,0,0,0,0,-1,692,631,-2.83642,2.01626
-525,393,-5.9505,-0.952698,0,0,0,0,0,0,0,-1,699,631,-5.95053,0.95268
-518,393,-5.80219,-1.57739,0,0,0,0,0,0,0,-1,706,631,-5.80219,1.57738
-511,393,-6.15527,-2.09906,0,0,0,0,0,0,0,-1,713,631,-6.15526,2.09903
-504,393,-12.9028,-6.18268,0,0,0,0,0,0,0,-1,720,631,-12.9028,6.18268
-497,393,-12.5149,-7.25171,0.00219929,0.00703085,-0.00362088,0.00896786,0.000262284,-1.07958,0.00589309,0.0476148,727,631,-12.5149,7.25174
-490,393,-12.4657,-8.27979,0.00152585,0.00538872,-0.00269346,0.00677167,0.0001429,-1.09645,0.00446758,0.02257,734,631,-12.4657,8.27977
-483,393,-12.4814,-8.97723,0.00109371,0.00397424,-0.00198728,0.00498829,7.96656e-05,-1.09897,0.00329929,0.0222264,741,631,-12.4814,8.97722
-476,393,-12.5176,-9.63062,0.000938134,0.00285987,-0.00149383,0.00367517,0.000122828,-1.0712,0.00241022,0.0192096,748,631,-12.5177,9.63064
-469,393,-12.5455,-10.3135,0.000975326,0.00193033,-0.00117121,0.00271764,0.000188019,-0.978962,0.00175245,0.0136269,755,631,-12.5456,10.3135
-462,393,-12.5843,-11.0186,0.0010951,0.00113659,-0.000928706,0.00204478,0.000186909,-0.796565,0.00130535,0.0156852,762,631,-12.5843,11.0186
-455,393,-12.6149,-11.6776,0.00126786,0.000341797,-0.000716086,0.00165758,-4.79171e-05,-0.498401,0.00112137,0.0142441,769,631,-12.6149,11.6775
-448,393,-12.6412,-12.3386,0.00154503,-0.000332607,-0.00056687,0.0017029,-0.000490476,-0.271609,0.00132927,0.0133832,776,631,-12.6412,12.3386
-441,393,-12.6735,-12.9654,0.00179031,-0.00101914,-0.000394622,0.00184469,-0.00107352,-0.136933,0.00170433,0.0131289,783,631,-12.6735,12.9654
-434,393,-12.6985,-13.5653,0.00201076,-0.00170745,-0.000206979,0.00202224,-0.00171894,-0.055438,0.00216234,0.0131519,790,631,-12.6985,13.5653
-427,393,-12.6475,-14.234,0.002097,-0.00260013,0.000114076,0.00209977,-0.0026029,0.0242672,0.00272026,0.0216702,797,631,-12.6475,14.234
-420,393,-12.6959,-14.8846,0.00186774,-0.00388561,0.000796124,0.00197587,-0.00399374,0.134997,0.00351158,0.0477144,804,631,-12.6959,14.8846
-413,393,-12.8416,-15.4714,0,0,0,0,0,0,0,-1,811,631,-12.8416,15.4714
-406,393,-11.826,-12.7987,0,0,0,0,0,0,0,-1,818,631,-11.8261,12.7987
-399,393,-5.07343,-5.92365,0,0,0,0,0,0,0,-1,825,631,-5.07344,5.92364
-392,393,-2.08063,-3.02386,0,0,0,0,0,0,0,-1,832,631,-2.08063,3.02384
-385,393,-3.16931,-0.624756,0,0,0,0,0,0,0,-1,839,631,-3.16928,0.624764
-378,393,-7.33081,-0.872314,0,0,0,0,0,0,0,-1,846,631,-7.33081,0.872325
-371,393,-7.47858,-0.811096,0,0,0,0,0,0,0,-1,853,631,-7.47859,0.811075
-364,393,-7.64917,-0.662415,0,0,0,0,0,0,0,-1,860,631,-7.64917,0.662406
-357,393,-8.09686,-0.726013,0,0,0,0,0,0,0,-1,867,631,-8.09689,0.726029
-350,393,-8.38788,-0.511841,0,0,0,0,0,0,0,-1,874,631,-8.38785,0.511811
-343,393,0,0,0,0,0,0,0,0,0,-1,881,631,0,0
-336,393,0,0,0,0,0,0,0,0,0,-1,888,631,0,0
-329,393,0,0,0,0,0,0,0,0,0,-1,895,631,0,0
-322,393,0,0,0,0,0,0,0,0,0,-1,902,631,0,0
-315,393,0,0,0,0,0,0,0,0,0,-1,909,631,0,0
-308,393,0,0,0,0,0,0,0,0,0,-1,916,631,0,0
-301,393,0,0,0,0,0,0,0,0,0,-1,923,631,0,0
-294,393,0,0,0,0,0,0,0,0,0,-1,930,631,0,0
-287,393,0,0,0,0,0,0,0,0,0,-1,937,631,0,0
-280,393,0,0,0,0,0,0,0,0,0,-1,944,631,0,0
-273,393,0,0,0,0,0,0,0,0,0,-1,951,631,0,0
-266,393,0,0,0,0,0,0,0,0,0,-1,958,631,0,0
-259,393,0,0,0,0,0,0,0,0,0,-1,965,631,0,0
-252,393,0,0,0,0,0,0,0,0,0,-1,972,631,0,0
-245,393,0,0,0,0,0,0,0,0,0,-1,979,631,0,0
-238,393,0,0,0,0,0,0,0,0,0,-1,986,631,0,0
-231,393,0,0,0,0,0,0,0,0,0,-1,993,631,0,0
-224,393,0,0,0,0,0,0,0,0,0,-1,1000,631,0,0
-217,393,0,0,0,0,0,0,0,0,0,-1,1007,631,0,0
-210,393,0,0,0,0,0,0,0,0,0,-1,1014,631,0,0
-203,393,0,0,0,0,0,0,0,0,0,-1,1021,631,0,0
-196,393,0,0,0,0,0,0,0,0,0,-1,1028,631,0,0
-189,393,0,0,0,0,0,0,0,0,0,-1,1035,631,0,0
-182,393,0,0,0,0,0,0,0,0,0,-1,1042,631,0,0
-175,393,0,0,0,0,0,0,0,0,0,-1,1049,631,0,0
-168,393,0,0,0,0,0,0,0,0,0,-1,1056,631,0,0
-161,393,0,0,0,0,0,0,0,0,0,-1,1063,631,0,0
-154,393,0,0,0,0,0,0,0,0,0,-1,1070,631,0,0
-147,393,0,0,0,0,0,0,0,0,0,-1,1077,631,0,0
-140,393,0,0,0,0,0,0,0,0,0,-1,1084,631,0,0
-133,393,0,0,0,0,0,0,0,0,0,-1,1091,631,0,0
-126,393,0,0,0,0,0,0,0,0,0,-1,1098,631,0,0
-119,393,0,0,0,0,0,0,0,0,0,-1,1105,631,0,0
-112,393,0,0,0,0,0,0,0,0,0,-1,1112,631,0,0
-105,393,0,0,0,0,0,0,0,0,0,-1,1119,631,0,0
-98,393,0,0,0,0,0,0,0,0,0,-1,1126,631,0,0
-91,393,0,0,0,0,0,0,0,0,0,-1,1133,631,0,0
-84,393,0,0,0,0,0,0,0,0,0,-1,1140,631,0,0
-77,393,0,0,0,0,0,0,0,0,0,-1,1147,631,0,0
-70,393,0,0,0,0,0,0,0,0,0,-1,1154,631,0,0
-63,393,0,0,0,0,0,0,0,0,0,-1,1161,631,0,0
-56,393,0,0,0,0,0,0,0,0,0,-1,1168,631,0,0
-49,393,0,0,0,0,0,0,0,0,0,-1,1175,631,0,0
-42,393,0,0,0,0,0,0,0,0,0,-1,1182,631,0,0
-35,393,0,0,0,0,0,0,0,0,0,-1,1189,631,0,0
-28,393,0,0,0,0,0,0,0,0,0,-1,1196,631,0,0
-21,393,0,0,0,0,0,0,0,0,0,-1,1203,631,0,0
-14,393,0,0,0,0,0,0,0,0,0,-1,1210,631,0,0
-7,393,0,0,0,0,0,0,0,0,0,-1,1217,631,0,0
0,393,0,0,0,0,0,0,0,0,0,-1,1224,631,0,0
7,393,0,0,0,0,0,0,0,0,0,-1,1231,631,0,0
14,393,0,0,0,0,0,0,0,0,0,-1,1238,631,0,0
21,393,0,0,0,0,0,0,0,0,0,-1,1245,631,0,0
28,393,0,0,0,0,0,0,0,0,0,-1,1252,631,0,0
35,393,0,0,0,0,0,0,0,0,0,-1,1259,631,0,0
42,393,0,0,0,0,0,0,0,0,0,-1,1266,631,0,0
49,393,0,0,0,0,0,0,0,0,0,-1,1273,631,0,0
56,393,0,0,0,0,0,0,0,0,0,-1,1280,631,0,0
63,393,0,0,0,0,0,0,0,0,0,-1,1287,631,0,0
70,393,0,0,0,0,0,0,0,0,0,-1,1294,631,0,0
77,393,0,0,0,0,0,0,0,0,0,-1,1301,631,0,0
84,393,0,0,0,0,0,0,0,0,0,-1,1308,631,0,0
91,393,0,0,0,0,0,0,0,0,0,-1,1315,631,0,0
98,393,0,0,0,0,0,0,0,0,0,-1,1322,631,0,0
105,393,0,0,0,0,0,0,0,0,0,-1,1329,631,0,0
112,393,0,0,0,0,0,0,0,0,0,-1,1336,631,0,0
119,393,0,0,0,0,0,0,0,0,0,-1,1343,631,0,0
126,393,0,0,0,0,0,0,0,0,0,-1,1350,631,0,0
133,393,0,0,0,0,0,0,0,0,0,-1,1357,631,0,0
140,393,0,0,0,0,0,0,0,0,0,-1,1364,631,0,0
147,393,0,0,0,0,0,0,0,0,0,-1,1371,631,0,0
154,393,0,0,0,0,0,0,0,0,0,-1,1378,631,0,0
161,393,0,0,0,0,0,0,0,0,0,-1,1385,631,0,0
168,393,0,0,0,0,0,0,0,0,0,-1,1392,631,0,0
175,393,0,0,0,0,0,0,0,0,0,-1,1399,631,0,0
182,393,0,0,0,0,0,0,0,0,0,-1,1406,631,0,0
189,393,0,0,0,0,0,0,0,0,0,-1,1413,631,0,0
196,393,0,0,0,0,0,0,0,0,0,-1,1420,631,0,0
203,393,0,0,0,0,0,0,0,0,0,-1,1427,631,0,0
210,393,0,0,0,0,0,0,0,0,0,-1,1434,631,0,0
217,393,0,0,0,0,0,0,0,0,0,-1,1441,631,0,0
224,393,0,0,0,0,0,0,0,0,0,-1,1448,631,0,0
231,393,0,0,0,0,0,0,0,0,0,-1,1455,631,0,0
238,393,0,0,0,0,0,0,0,0,0,-1,1462,631,0,0
245,393,0,0,0,0,0,0,0,0,0,-1,1469,631,0,0
252,393,0,0,0,0,0,0,0,0,0,-1,1476,631,0,0
259,393,0,0,0,0,0,0,0,0,0,-1,1483,631,0,0
266,393,0,0,0,0,0,0,0,0,0,-1,1490,631,0,0
273,393,0,0,0,0,0,0,0,0,0,-1,1497,631,0,0
280,393,0,0,0,0,0,0,0,0,0,-1,1504,631,0,0
287,393,0,0,0,0,0,0,0,0,0,-1,1511,631,0,0
294,393,0,0,0,0,0,0,0,0,0,-1,1518,631,0,0
301,393,0,0,0,0,0,0,0,0,0,-1,1525,631,0,0
308,393,0,0,0,0,0,0,0,0,0,-1,1532,631,0,0
315,393,0,0,0,0,0,0,0,0,0,-1,1539,631,0,0
322,393,0,0,0,0,0,0,0,0,0,-1,1546,631,0,0
329,393,0,0,0,0,0,0,0,0,0,-1,1553,631,0,0
336,393,0,0,0,0,0,0,0,0,0,-1,1560,631,0,0
343,393,0,0,0,0,0,0,0,0,0,-1,1567,631,0,0
350,393,0,0,0,0,0,0,0,0,0,-1,1574,631,0,0
357,393,0,0,0,0,0,0,0,0,0,-1,1581,631,0,0
364,393,0,0,0,0,0,0,0,0,0,-1,1588,631,0,0
371,393,0,0,0,0,0,0,0,0,0,-1,1595,631,0,0
378,393,0,0,0,0,0,0,0,0,0,-1,1602,631,0,0
385,393,0,0,0,0,0,0,0,0,0,-1,1609,631,0,0
392,393,0,0,0,0,0,0,0,0,0,-1,1616,631,0,0
399,393,0,0,0,0,0,0,0,0,0,-1,1623,631,0,0
406,393,0,0,0,0,0,0,0,0,0,-1,1630,631,0,0
413,393,0,0,0,0,0,0,0,0,0,-1,1637,631,0,0
420,393,0,0,0,0,0,0,0,0,0,-1,1644,631,0,0
427,393,0,0,0,0,0,0,0,0,0,-1,1651,631,0,0
434,393,0,0,0,0,0,0,0,0,0,-1,1658,631,0,0
441,393,0,0,0,0,0,0,0,0,0,-1,1665,631,0,0
448,393,0,0,0,0,0,0,0,0,0,-1,1672,631,0,0
455,393,0,0,0,0,0,0,0,0,0,-1,1679,631,0,0
462,393,8.51099,1.89502,0,0,0,0,0,0,0,-1,1686,631,8.51103,-1.89504
469,393,9.39465,1.51703,0,0,0,0,0,0,0,-1,1693,631,9.39465,-1.51703
476,393,9.95569,1.185,0,0,0,0,0,0,0,-1,1700,631,9.95575,-1.18497
483,393,10.5267,0.887329,0,0,0,0,0,0,0,-1,1707,631,10.5267,-0.887321
490,393,10.9303,0.761414,0,0,0,0,0,0,0,-1,1714,631,10.9303,-0.761386
497,393,8.32153,1.88104,0,0,0,0,0,0,0,-1,1721,631,8.32148,-1.88103
504,393,9.46985,1.78711,0,0,0,0,0,0,0,-1,1728,631,9.46986,-1.78713
511,393,9.66565,-0.375977,0,0,0,0,0,0,0,-1,1735,631,9.66571,0.375949
518,393,7.01599,1.62482,0,0,0,0,0,0,0,-1,1742,631,7.01597,-1.62483
525,393,7.88245,-1.13422,0,0,0,0,0,0,0,-1,1749,631,7.88246,1.13423
532,393,7.06335,-1.18103,0,0,0,0,0,0,0,-1,1756,631,7.06332,1.18101
539,393,9.91626,-2.46301,0,0,0,0,0,0,0,-1,1763,631,9.91625,2.46302
546,393,16.4094,-8.04651,0,0,0,0,0,0,0,-1,1770,631,16.4094,8.04649
553,393,24.2985,-13.1076,0,0,0,0,0,0,0,-1,1777,631,24.2985,13.1076
560,393,24.3855,-12.2845,0.00392924,0.000971186,0.00113847,0.00431666,0.000583762,0.328009,0.00270427,0.0440821,1784,631,24.3854,12.2845
567,393,24.3954,-11.5771,0.00293886,0.000623805,0.000720855,0.00314497,0.000417697,0.278492,0.00197221,0.016318,1791,631,24.3953,11.5771
574,393,24.3973,-10.908,0.00225824,0.00062092,0.00058734,0.00244714,0.000432022,0.311168,0.00150819,0.0152899,1798,631,24.3974,10.908
581,393,24.3159,-10.207,0.00179662,0.000811207,0.000641714,0.00211296,0.000494866,0.458002,0.00127608,0.0157303,1805,631,24.3159,10.207
588,393,24.2611,-9.49469,0.00152252,0.00114573,0.000819259,0.00217477,0.000493486,0.672385,0.00131655,0.0180521,1812,631,24.2611,9.4947
595,393,24.2765,-8.83258,0.00154797,0.0016308,0.0011788,0.00276891,0.000409857,0.802958,0.00172562,0.0157741,1819,631,24.2765,8.83256
602,393,24.2657,-8.14618,0.00185346,0.00228492,0.00172885,0.00381145,0.000326927,0.847469,0.0024393,0.0174352,1826,631,24.2658,8.14617
609,393,24.2109,-7.4646,0.00224844,0.00309839,0.00238839,0.00509932,0.000247508,0.873443,0.00332012,0.0169644,1833,631,24.2109,7.46462
616,393,24.1561,-6.78644,0.00261795,0.00393921,0.00301388,0.00636401,0.000193148,0.89329,0.00417978,0.0156096,1840,631,24.1561,6.78643
623,393,24.1816,-5.98053,0.00336014,0.00498084,0.003927,0.00818023,0.000160747,0.887147,0.0054007,0.0328269,1847,631,24.1816,5.98051
630,393,24.27,-5.07013,0,0,0,0,0,0,0,-1,1854,631,24.27,5.07012
637,393,11.4626,0.608887,0,0,0,0,0,0,0,-1,1861,631,11.4627,-0.608904
644,393,8.97583,1.30585,0,0,0,0,0,0,0,-1,1868,631,8.97586,-1.30584
651,393,11.348,0.53302,0,0,0,0,0,0,0,-1,1875,631,11.348,-0.53305
658,393,9.21338,1.50836,0,0,0,0,0,0,0,-1,1882,631,9.21338,-1.50834
665,393,6.1001,2.32129,0,0,0,0,0,0,0,-1,1889,631,6.10012,-2.3213
672,393,7.14575,2.43225,0,0,0,0,0,0,0,-1,1896,631,7.14572,-2.43222
679,393,0,0,0,0,0,0,0,0,0,-1,1903,631,0,0
686,393,0,0,0,0,0,0,0,0,0,-1,1910,631,0,0
693,393,0,0,0,0,0,0,0,0,0,-1,1917,631,0,0
700,393,0,0,0,0,0,0,0,0,0,-1,1924,631,0,0
707,393,0,0,0,0,0,0,0,0,0,-1,1931,631,0,0
714,393,0,0,0,0,0,0,0,0,0,-1,1938,631,0,0
721,393,0,0,0,0,0,0,0,0,0,-1,1945,631,0,0
728,393,0,0,0,0,0,0,0,0,0,-1,1952,631,0,0
735,393,0,0,0,0,0,0,0,0,0,-1,1959,631,0,0
742,393,0,0,0,0,0,0,0,0,0,-1,1966,631,0,0
749,393,0,0,0,0,0,0,0,0,0,-1,1973,631,0,0
756,393,0,0,0,0,0,0,0,0,0,-1,1980,631,0,0
763,393,0,0,0,0,0,0,0,0,0,-1,1987,631,0,0
770,393,0,0,0,0,0,0,0,0,0,-1,1994,631,0,0
777,393,0,0,0,0,0,0,0,0,0,-1,2001,631,0,0
784,393,0,0,0,0,0,0,0,0,0,-1,2008,631,0,0
791,393,0,0,0,0,0,0,0,0,0,-1,2015,631,0,0
798,393,0,0,0,0,0,0,0,0,0,-1,2022,631,0,0
805,393,0,0,0,0,0,0,0,0,0,-1,2029,631,0,0
812,393,0,0,0,0,0,0,0,0,0,-1,2036,631,0,0
-700,386,0,0,0,0,0,0,0,0,0,-1,524,638,0,0
-693,386,0,0,0,0,0,0,0,0,0,-1,531,638,0,0
-686,386,0,0,0,0,0,0,0,0,0,-1,538,638,0,0
-679,386,0,0,0,0,0,0,0,0,0,-1,545,638,0,0
-672,386,0,0,0,0,0,0,0,0,0,-1,552,638,0,0
-665,386,0,0,0,0,0,0,0,0,0,-1,559,638,0,0
-658,386,0,0,0,0,0,0,0,0,0,-1,566,638,0,0
-651,386,0,0,0,0,0,0,0,0,0,-1,573,638,0,0
-644,386,0,0,0,0,0,0,0,0,0,-1,580,638,0,0
-637,386,0,0,0,0,0,0,0,0,0,-1,587,638,0,0
-630,386,0,0,0,0,0,0,0,0,0,-1,594,638,0,0
-623,386,0,0,0,0,0,0,0,0,0,-1,601,638,0,0
-616,386,0,0,0,0,0,0,0,0,0,-1,608,638,0,0
-609,386,0,0,0,0,0,0,0,0,0,-1,615,638,0,0
-602,386,0,0,0,0,0,0,0,0,0,-1,622,638,0,0
-595,386,0,0,0,0,0,0,0,0,0,-1,629,638,0,0
-588,386,0,0,0,0,0,0,0,0,0,-1,636,638,0,0
-581,386,0,0,0,0,0,0,0,0,0,-1,643,638,0,0
-574,386,0,0,0,0,0,0,0,0,0,-1,650,638,0,0
-567,386,0,0,0,0,0,0,0,0,0,-1,657,638,0,0
-560,386,-3.97229,-5.13898,0,0,0,0,0,0,0,-1,664,638,-3.97232,5.13897
-553,386,-4.94244,-5.54309,0,0,0,0,0,0,0,-1,671,638,-4.94242,5.5431
-546,386,-1.78668,1.72827,0,0,0,0,0,0,0,-1,678,638,-1.78668,-1.72829
-539,386,-0.879456,-2.90009,0,0,0,0,0,0,0,-1,685,638,-0.879442,2.90008
-532,386,-5.4884,1.73328,0,0,0,0,0,0,0,-1,692,638,-5.4884,-1.73325
-525,386,-6.64148,-1.50604,0,0,0,0,0,0,0,-1,699,638,-6.64149,1.50603
-518,386,-11.1217,-4.10382,0,0,0,0,0,0,0,-1,706,638,-11.1217,4.1038
-511,386,-12.2236,-4.81763,0,0,0,0,0,0,0,-1,713,638,-12.2236,4.81763
-504,386,-13.2469,-6.44421,0,0,0,0,0,0,0,-1,720,638,-13.247,6.44424
-497,386,-13.169,-7.56097,0.00228469,0.00564156,-0.00316127,0.00754235,0.00038391,-1.02944,0.00490527,0.0219849,727,638,-13.169,7.56099
-490,386,-13.1135,-8.34058,0.00177318,0.0043206,-0.00240742,0.00577049,0.000323286,-1.02872,0.00374389,0.0142256,734,638,-13.1135,8.34057
-483,386,-13.1314,-9.03741,0.0014538,0.00317022,-0.00183097,0.00433413,0.000289883,-1.00455,0.00279781,0.0195898,741,638,-13.1314,9.03742
-476,386,-13.1656,-9.67072,0.00138111,0.00223815,-0.00144713,0.00331887,0.00030039,-0.929344,0.00211956,0.0182993,748,638,-13.1656,9.67071
-469,386,-13.2075,-10.2842,0.00143296,0.00144612,-0.00118449,0.00262404,0.000255034,-0.788175,0.00167085,0.0127131,755,638,-13.2075,10.2842
-462,386,-13.2429,-10.9721,0.00154946,0.000769331,-0.000993549,0.00222677,9.20193e-05,-0.598345,0.00145481,0.0121412,762,638,-13.2429,10.9721
-455,386,-13.2652,-11.6362,0.00173797,5.62913e-05,-0.000832018,0.00208004,-0.000285775,-0.390063,0.0014911,0.0132779,769,638,-13.2652,11.6362
-448,386,-13.2986,-12.2898,0.00203545,-0.000531773,-0.000740271,0.00223361,-0.000729938,-0.261559,0.00178291,0.0139938,776,638,-13.2986,12.2898
-441,386,-13.335,-12.9344,0.00235826,-0.00101252,-0.000702935,0.00249897,-0.00115323,-0.19757,0.00215579,0.0155327,783,638,-13.335,12.9344
-434,386,-13.3042,-13.6235,0.00263018,-0.00162022,-0.000616498,0.0027178,-0.00170783,-0.14117,0.00257722,0.0342447,790,638,-13.3042,13.6235
-427,386,-13.1929,-14.2536,0,0,0,0,0,0,0,-1,797,638,-13.1929,14.2536
-420,386,-13.3796,-14.8754,0,0,0,0,0,0,0,-1,804,638,-13.3796,14.8754
-413,386,-5.45691,-5.35785,0,0,0,0,0,0,0,-1,811,638,-5.45691,5.35783
-406,386,-4.51135,-4.10999,0,0,0,0,0,0,0,-1,818,638,-4.51135,4.10996
-399,386,-3.57117,-3.42126,0,0,0,0,0,0,0,-1,825,638,-3.57116,3.42129
-392,386,-4.00977,0.403625,0,0,0,0,0,0,0,-1,832,638,-4.0098,-0.403616
-385,386,-3.2406,-0.118469,0,0,0,0,0,0,0,-1,839,638,-3.24058,0.118485
-378,386,-2.55243,-1.22748,0,0,0,0,0,0,0,-1,846,638,-2.55243,1.22748
-371,386,-7.95807,-0.330261,0,0,0,0,0,0,0,-1,853,638,-7.95806,0.330284
-364,386,-8.90637,-0.665955,0,0,0,0,0,0,0,-1,860,638,-8.90635,0.665951
-357,386,-9.10364,-0.388733,0,0,0,0,0,0,0,-1,867,638,-9.10364,0.388744
-350,386,0,0,0,0,0,0,0,0,0,-1,874,638,0,0
-343,386,0,0,0,0,0,0,0,0,0,-1,881,638,0,0
-336,386,0,0,0,0,0,0,0,0,0,-1,888,638,0,0
-329,386,0,0,0,0,0,0,0,0,0,-1,895,638,0,0
-322,386,0,0,0,0,0,0,0,0,0,-1,902,638,0,0
-315,386,0,0,0,0,0,0,0,0,0,-1,909,638,0,0
-308,386,0,0,0,0,0,0,0,0,0,-1,916,638,0,0
-301,386,0,0,0,0,0,0,0,0,0,-1,923,638,0,0
-294,386,0,0,0,0,0,0,0,0,0,-1,930,638,0,0
-287,386,0,0,0,0,0,0,0,0,0,-1,937,638,0,0
-280,386,0,0,0,0,0,0,0,0,0,-1,944,638,0,0
-273,386,0,0,0,0,0,0,0,0,0,-1,951,638,0,0
-266,386,0,0,0,0,0,0,0,0,0,-1,958,638,0,0
-259,386,0,0,0,0,0,0,0,0,0,-1,965,638,0,0
-252,386,0,0,0,0,0,0,0,0,0,-1,972,638,0,0
-245,386,0,0,0,0,0,0,0,0,0,-1,979,638,0,0
-238,386,0,0,0,0,0,0,0,0,0,-1,986,638,0,0
-231,386,0,0,0,0,0,0,0,0,0,-1,993,638,0,0
-224,386,0,0,0,0,0,0,0,0,0,-1,1000,638,0,0
-217,386,0,0,0,0,0,0,0,0,0,-1,1007,638,0,0
-210,386,0,0,0,0,0,0,0,0,0,-1,1014,638,0,0
-203,386,0,0,0,0,0,0,0,0,0,-1,1021,638,0,0
-196,386,0,0,0,0,0,0,0,0,0,-1,1028,638,0,0
-189,386,0,0,0,0,0,0,0,0,0,-1,1035,638,0,0
-182,386,0,0,0,0,0,0,0,0,0,-1,1042,638,0,0
-175,386,0,0,0,0,0,0,0,0,0,-1,1049,638,0,0
-168,386,0,0,0,0,0,0,0,0,0,-1,1056,638,0,0
-161,386,0,0,0,0,0,0,0,0,0,-1,1063,638,0,0
-154,386,0,0,0,0,0,0,0,0,0,-1,1070,638,0,0
-147,386,0,0,0,0,0,0,0,0,0,-1,1077,638,0,0
-140,386,0,0,0,0,0,0,0,0,0,-1,1084,638,0,0
-133,386,0,0,0,0,0,0,0,0,0,-1,1091,638,0,0
-126,386,0,0,0,0,0,0,0,0,0,-1,1098,638,0,0
-119,386,0,0,0,0,0,0,0,0,0,-1,1105,638,0,0
-112,386,0,0,0,0,0,0,0,0,0,-1,1112,638,0,0
-105,386,0,0,0,0,0,0,0,0,0,-1,1119,638,0,0
-98,386,0,0,0,0,0,0,0,0,0,-1,1126,638,0,0
-91,386,0,0,0,0,0,0,0,0,0,-1,1133,638,0,0
-84,386,0,0,0,0,0,0,0,0,0,-1,1140,638,0,0
-77,386,0,0,0,0,0,0,0,0,0,-1,1147,638,0,0
-70,386,0,0,0,0,0,0,0,0,0,-1,1154,638,0,0
-63,386,0,0,0,0,0,0,0,0,0,-1,1161,638,0,0
-56,386,0,0,0,0,0,0,0,0,0,-1,1168,638,0,0
-49,386,0,0,0,0,0,0,0,0,0,-1,1175,638,0,0
-42,386,0,0,0,0,0,0,0,0,0,-1,1182,638,0,0
-35,386,0,0,0,0,0,0,0,0,0,-1,1189,638,0,0
-28,386,0,0,0,0,0,0,0,0,0,-1,1196,638,0,0
-21,386,0,0,0,0,0,0,0,0,0,-1,1203,638,0,0
-14,386,0,0,0,0,0,0,0,0,0,-1,1210,638,0,0
-7,386,0,0,0,0,0,0,0,0,0,-1,1217,638,0,0
0,386,0,0,0,0,0,0,0,0,0,-1,1224,638,0,0
7,386,0,0,0,0,0,0,0,0,0,-1,1231,638,0,0
14,386,0,0,0,0,0,0,0,0,0,-1,1238,638,0,0
21,386,0,0,0,0,0,0,0,0,0,-1,1245,638,0,0
28,386,0,0,0,0,0,0,0,0,0,-1,1252,638,0,0
35,386,0,0,0,0,0,0,0,0,0,-1,1259,638,0,0
42,386,0,0,0,0,0,0,0,0,0,-1,1266,638,0,0
49,386,0,0,0,0,0,0,0,0,0,-1,1273,638,0,0
56,386,0,0,0,0,0,0,0,0,0,-1,1280,638,0,0
63,386,0,0,0,0,0,0,0,0,0,-1,1287,638,0,0
70,386,0,0,0,0,0,0,0,0,0,-1,1294,638,0,0
77,386,0,0,0,0,0,0,0,0,0,-1,1301,638,0,0
84,386,0,0,0,0,0,0,0,0,0,-1,1308,638,0,0
91,386,0,0,0,0,0,0,0,0,0,-1,1315,638,0,0
98,386,0,0,0,0,0,0,0,0,0,-1,1322,638,0,0
105,386,0,0,0,0,0,0,0,0,0,-1,1329,638,0,0
112,386,0,0,0,0,0,0,0,0,0,-1,1336,638,0,0
119,386,0,0,0,0,0,0,0,0,0,-1,1343,638,0,0
126,386,0,0,0,0,0,0,0,0,0,-1,1350,638,0,0
133,386,0,0,0,0,0,0,0,0,0,-1,1357,638,0,0
140,386,0,0,0,0,0,0,0,0,0,-1,1364,638,0,0
147,386,0,0,0,0,0,0,0,0,0,-1,1371,638,0,0
154,386,0,0,0,0,0,0,0,0,0,-1,1378,638,0,0
161,386,0,0,0,0,0,0,0,0,0,-1,1385,638,0,0
168,386,0,0,0,0,0,0,0,0,0,-1,1392,638,0,0
175,386,0,0,0,0,0,0,0,0,0,-1,1399,638,0,0
182,386,0,0,0,0,0,0,0,0,0,-1,1406,638,0,0
189,386,0,0,0,0,0,0,0,0,0,-1,1413,638,0,0
196,386,0,0,0,0,0,0,0,0,0,-1,1420,638,0,0
203,386,0,0,0,0,0,0,0,0,0,-1,1427,638,0,0
210,386,0,0,0,0,0,0,0,0,0,-1,1434,638,0,0
217,386,0,0,0,0,0,0,0,0,0,-1,1441,638,0,0
224,386,0,0,0,0,0,0,0,0,0,-1,1448,638,0,0
231,386,0,0,0,0,0,0,0,0,0,-1,1455,638,0,0
238,386,0,0,0,0,0,0,0,0,0,-1,1462,638,0,0
245,386,0,0,0,0,0,0,0,0,0,-1,1469,638,0,0
252,386,0,0,0,0,0,0,0,0,0,-1,1476,638,0,0
259,386,0,0,0,0,0,0,0,0,0,-1,1483,638,0,0
266,386,0,0,0,0,0,0,0,0,0,-1,1490,638,0,0
273,386,0,0,0,0,0,0,0,0,0,-1,1497,638,0,0
280,386,0,0,0,0,0,0,0,0,0,-1,1504,638,0,0
287,386,0,0,0,0,0,0,0,0,0,-1,1511,638,0,0
294,386,0,0,0,0,0,0,0,0,0,-1,1518,638,0,0
301,386,0,0,0,0,0,0,0,0,0,-1,1525,638,0,0
308,386,0,0,0,0,0,0,0,0,0,-1,1532,638,0,0
315,386,0,0,0,0,0,0,0,0,0,-1,1539,638,0,0
322,386,0,0,0,0,0,0,0,0,0,-1,1546,638,0,0
329,386,0,0,0,0,0,0,0,0,0,-1,1553,638,0,0
336,386,0,0,0,0,0,0,0,0,0,-1,1560,638,0,0
343,386,0,0,0,0,0,0,0,0,0,-1,1567,638,0,0
350,386,0,0,0,0,0,0,0,0,0,-1,1574,638,0,0
357,386,0,0,0,0,0,0,0,0,0,-1,1581,638,0,0
364,386,0,0,0,0,0,0,0,0,0,-1,1588,638,0,0
371,386,0,0,0,0,0,0,0,0,0,-1,1595,638,0,0
378,386,0,0,0,0,0,0,0,0,0,-1,1602,638,0,0
385,386,0,0,0,0,0,0,0,0,0,-1,1609,638,0,0
392,386,0,0,0,0,0,0,0,0,0,-1,1616,638,0,0
399,386,0,0,0,0,0,0,0,0,0,-1,1623,638,0,0
406,386,0,0,0,0,0,0,0,0,0,-1,1630,638,0,0
413,386,0,0,0,0,0,0,0,0,0,-1,1637,638,0,0
420,386,0,0,0,0,0,0,0,0,0,-1,1644,638,0,0
427,386,0,0,0,0,0,0,0,0,0,-1,1651,638,0,0
434,386,0,0,0,0,0,0,0,0,0,-1,1658,638,0,0
441,386,0,0,0,0,0,0,0,0,0,-1,1665,638,0,0
448,386,0,0,0,0,0,0,0,0,0,-1,1672,638,0,0
455,386,0,0,0,0,0,0,0,0,0,-1,1679,638,0,0
462,386,0,0,0,0,0,0,0,0,0,-1,1686,638,0,0
469,386,9.84692,1.55804,0,0,0,0,0,0,0,-1,1693,638,9.84691,-1.55807
476,386,10.6145,0.986511,0,0,0,0,0,0,0,-1,1700,638,10.6145,-0.986529
483,386,11.4113,0.732971,0,0,0,0,0,0,0,-1,1707,638,11.4112,-0.732958
490,386,7.79785,1.79572,0,0,0,0,0,0,0,-1,1714,638,7.79788,-1.7957
497,386,8.96362,1.77081,0,0,0,0,0,0,0,-1,1721,638,8.96357,-1.77081
504,386,10.0555,1.69427,0,0,0,0,0,0,0,-1,1728,638,10.0555,-1.69426
511,386,11.2172,1.534,0,0,0,0,0,0,0,-1,1735,638,11.2172,-1.53398
518,386,7.41553,1.75238,0,0,0,0,0,0,0,-1,1742,638,7.41547,-1.75238
525,386,8.82422,-1.1449,0,0,0,0,0,0,0,-1,1749,638,8.82426,1.14492
532,386,10.6432,0.617371,0,0,0,0,0,0,0,-1,1756,638,10.6432,-0.617359
539,386,9.62061,-0.393616,0,0,0,0,0,0,0,-1,1763,638,9.62059,0.393634
546,386,10.7963,-2.854,0,0,0,0,0,0,0,-1,1770,638,10.7962,2.854
553,386,16.9939,-7.27942,0,0,0,0,0,0,0,-1,1777,638,16.9939,7.27944
560,386,24.9816,-12.3986,0,0,0,0,0,0,0,-1,1784,638,24.9816,12.3986
567,386,24.9424,-11.5853,0.00328173,0.000570663,0.000670518,0.00343851,0.000413892,0.22968,0.00216759,0.0451451,1791,638,24.9424,11.5853
574,386,25.0483,-10.8459,0.0024024,0.000447645,0.000415113,0.0024869,0.000363145,0.200817,0.00155112,0.0149294,1798,638,25.0483,10.8459
581,386,24.9888,-10.186,0.00178849,0.000567349,0.000366512,0.00189005,0.000465791,0.270311,0.00113703,0.0149878,1805,638,24.9887,10.186
588,386,24.9738,-9.49707,0.00143877,0.000814819,0.000475721,0.00169569,0.0005579,0.49518,0.000997904,0.0138236,1812,638,24.9737,9.49708
595,386,24.9451,-8.82782,0.00142854,0.00122923,0.000775227,0.00211049,0.000547275,0.721473,0.00126467,0.0153833,1819,638,24.9451,8.82781
602,386,24.9099,-8.14691,0.00171476,0.00179814,0.0012694,0.00302653,0.000486364,0.801815,0.00187669,0.0168332,1826,638,24.9099,8.14693
609,386,24.9047,-7.46796,0.00206769,0.0025065,0.00184666,0.00414674,0.000427447,0.844528,0.0026336,0.0158622,1833,638,24.9047,7.46798
616,386,24.8608,-6.77429,0.00234601,0.00318534,0.00234032,0.00514332,0.000388034,0.874115,0.00330713,0.0126675,1840,638,24.8608,6.77429
623,386,24.8162,-6.07312,0.00291888,0.00402903,0.00306006,0.00658395,0.000363959,0.875119,0.00427315,0.0105876,1847,638,24.8161,6.07311
630,386,24.9199,-5.32672,0.00333837,0.00474777,0.00362014,0.00773117,0.00035498,0.881526,0.00503995,0.0384472,1854,638,24.9199,5.32671
637,386,25.0889,-4.55542,0,0,0,0,0,0,0,-1,1861,638,25.0889,4.55539
644,386,11.6521,0.723328,0,0,0,0,0,0,0,-1,1868,638,11.6521,-0.723355
651,386,9.3866,1.31097,0,0,0,0,0,0,0,-1,1875,638,9.3866,-1.31095
658,386,12.0731,-0.00415039,0,0,0,0,0,0,0,-1,1882,638,12.0731,0.00412803
665,386,6.33167,1.78601,0,0,0,0,0,0,0,-1,1889,638,6.33171,-1.78601
672,386,7.23352,2.14435,0,0,0,0,0,0,0,-1,1896,638,7.23353,-2.14433
679,386,8.07764,2.57104,0,0,0,0,0,0,0,-1,1903,638,8.07758,-2.57103
686,386,0,0,0,0,0,0,0,0,0,-1,1910,638,0,0
693,386,0,0,0,0,0,0,0,0,0,-1,1917,638,0,0
700,386,0,0,0,0,0,0,0,0,0,-1,1924,638,0,0
707,386,0,0,0,0,0,0,0,0,0,-1,1931,638,0,0
714,386,0,0,0,0,0,0,0,0,0,-1,1938,638,0,0
721,386,0,0,0,0,0,0,0,0,0,-1,1945,638,0,0
728,386,0,0,0,0,0,0,0,0,0,-1,1952,638,0,0
735,386,0,0,0,0,0,0,0,0,0,-1,1959,638,0,0
742,386,0,0,0,0,0,0,0,0,0,-1,1966,638,0,0
749,386,0,0,0,0,0,0,0,0,0,-1,1973,638,0,0
756,386,0,0,0,0,0,0,0,0,0,-1,1980,638,0,0
763,386,0,0,0,0,0,0,0,0,0,-1,1987,638,0,0
770,386,0,0,0,0,0,0,0,0,0,-1,1994,638,0,0
777,386,0,0,0,0,0,0,0,0,0,-1,2001,638,0,0
784,386,0,0,0,0,0,0,0,0,0,-1,2008,638,0,0
791,386,0,0,0,0,0,0,0,0,0,-1,2015,638,0,0
798,386,0,0,0,0,0,0,0,0,0,-1,2022,638,0,0
805,386,0,0,0,0,0,0,0,0,0,-1,2029,638,0,0
812,386,0,0,0,0,0,0,0,0,0,-1,2036,638,0,0
-700,379,0,0,0,0,0,0,0,0,0,-1,524,645,0,0
-693,379,0,0,0,0,0,0,0,0,0,-1,531,645,0,0
-686,379,0,0,0,0,0,0,0,0,0,-1,538,645,0,0
-679,379,0,0,0,0,0,0,0,0,0,-1,545,645,0,0
-672,379,0,0,0,0,0,0,0,0,0,-1,552,645,0,0
-665,379,0,0,0,0,0,0,0,0,0,-1,559,645,0,0
-658,379,0,0,0,0,0,0,0,0,0,-1,566,645,0,0
-651,379,0,0,0,0,0,0,0,0,0,-1,573,645,0,0
-644,379,0,0,0,0,0,0,0,0,0,-1,580,645,0,0
-637,379,0,0,0,0,0,0,0,0,0,-1,587,645,0,0
-630,379,0,0,0,0,0,0,0,0,0,-1,594,645,0,0
-623,379,0,0,0,0,0,0,0,0,0,-1,601,645,0,0
-616,379,0,0,0,0,0,0,0,0,0,-1,608,645,0,0
-609,379,0,0,0,0,0,0,0,0,0,-1,615,645,0,0
-602,379,0,0,0,0,0,0,0,0,0,-1,622,645,0,0
-595,379,0,0,0,0,0,0,0,0,0,-1,629,645,0,0
-588,379,0,0,0,0,0,0,0,0,0,-1,636,645,0,0
-581,379,0,0,0,0,0,0,0,0,0,-1,643,645,0,0
-574,379,0,0,0,0,0,0,0,0,0,-1,650,645,0,0
-567,379,-8.78058,0.59668,0,0,0,0,0,0,0,-1,657,645,-8.7806,-0.596692
-560,379,-9.53485,-0.211304,0,0,0,0,0,0,0,-1,664,645,-9.53487,0.211282
-553,379,-5.17108,-4.53119,0,0,0,0,0,0,0,-1,671,645,-5.17106,4.53117
-546,379,-6.23053,-4.92102,0,0,0,0,0,0,0,-1,678,645,-6.23054,4.92105
-539,379,-0.71698,-2.19427,0,0,0,0,0,0,0,-1,685,645,-0.716959,2.19427
-532,379,-7.69611,0.217224,0,0,0,0,0,0,0,-1,692,645,-7.69614,-0.217204
-525,379,-7.09833,-1.13043,0,0,0,0,0,0,0,-1,699,645,-7.0983,1.13041
-518,379,-10.5613,-3.82849,0,0,0,0,0,0,0,-1,706,645,-10.5613,3.82849
-511,379,-13.7343,-6.18005,0,0,0,0,0,0,0,-1,713,645,-13.7343,6.18007
-504,379,-13.7028,-6.96027,0.00306484,0.00576553,-0.00354801,0.00821147,0.000618889,-0.96723,0.00528012,0.0310005,720,645,-13.7028,6.96025
-497,379,-13.7798,-7.60553,0.0023752,0.00444952,-0.00266811,0.00627497,0.000549755,-0.970772,0.00401263,0.0147155,727,645,-13.7798,7.60551
-490,379,-13.7845,-8.31201,0.00196616,0.00338104,-0.00206079,0.00485244,0.00049476,-0.950738,0.0030833,0.0122229,734,645,-13.7845,8.312
-483,379,-13.8049,-8.99615,0.0017366,0.00245916,-0.00160803,0.00374599,0.000449765,-0.895899,0.00236172,0.0145951,741,645,-13.8049,8.99613
-476,379,-13.8151,-9.62152,0.00172986,0.00170071,-0.00133302,0.00304839,0.000382182,-0.779932,0.0019176,0.0146057,748,645,-13.8151,9.62153
-469,379,-13.8498,-10.2543,0.00182658,0.00105382,-0.00115625,0.00265931,0.000221099,-0.624148,0.00170396,0.0130066,755,645,-13.8498,10.2543
-462,379,-13.8974,-10.9133,0.00199136,0.000505353,-0.00105246,0.00253666,-3.99491e-05,-0.478039,0.00170458,0.0101269,762,645,-13.8974,10.9133
-455,379,-13.9312,-11.582,0.00224901,-0.000113896,-0.000979988,0.00260256,-0.000467437,-0.346228,0.00191001,0.00979026,769,645,-13.9312,11.582
-448,379,-13.9404,-12.2239,0.00261801,-0.000608045,-0.000986264,0.00289564,-0.000885671,-0.274393,0.00228364,0.0122909,776,645,-13.9404,12.2239
-441,379,-13.9389,-12.9267,0.00309589,-0.000832139,-0.00115892,0.00341233,-0.00114857,-0.266545,0.00273922,0.0232448,783,645,-13.9389,12.9267
-434,379,-13.854,-13.7947,0,0,0,0,0,0,0,-1,790,645,-13.854,13.7947
-427,379,-4.16113,-4.13452,0,0,0,0,0,0,0,-1,797,645,-4.16116,4.1345
-420,379,-4.63953,-3.46869,0,0,0,0,0,0,0,-1,804,645,-4.63953,3.46872
-413,379,-4.62543,-3.7912,0,0,0,0,0,0,0,-1,811,645,-4.62541,3.79123
-406,379,-4.64063,-4.38489,0,0,0,0,0,0,0,-1,818,645,-4.64065,4.3849
-399,379,-2.93536,-1.40118,0,0,0,0,0,0,0,-1,825,645,-2.93534,1.40119
-392,379,-4.16711,-0.466003,0,0,0,0,0,0,0,-1,832,645,-4.16714,0.465992
-385,379,-3.51862,0.441101,0,0,0,0,0,0,0,-1,839,645,-3.51859,-0.441072
-378,379,-5.3504,0.212219,0,0,0,0,0,0,0,-1,846,645,-5.35038,-0.212241
-371,379,-4.32092,-0.186707,0,0,0,0,0,0,0,-1,853,645,-4.3209,0.186707
-364,379,-3.40887,-0.549805,0,0,0,0,0,0,0,-1,860,645,-3.4089,0.549802
-357,379,0,0,0,0,0,0,0,0,0,-1,867,645,0,0
-350,379,0,0,0,0,0,0,0,0,0,-1,874,645,0,0
-343,379,0,0,0,0,0,0,0,0,0,-1,881,645,0,0
-336,379,0,0,0,0,0,0,0,0,0,-1,888,645,0,0
-329,379,0,0,0,0,0,0,0,0,0,-1,895,645,0,0
-322,379,0,0,0,0,0,0,0,0,0,-1,902,645,0,0
-315,379,0,0,0,0,0,0,0,0,0,-1,909,645,0,0
-308,379,0,0,0,0,0,0,0,0,0,-1,916,645,0,0
-301,379,0,0,0,0,0,0,0,0,0,-1,923,645,0,0
-294,379,0,0,0,0,0,0,0,0,0,-1,930,645,0,0
-287,379,0,0,0,0,0,0,0,0,0,-1,937,645,0,0
-280,379,0,0,0,0,0,0,0,0,0,-1,944,645,0,0
-273,379,0,0,0,0,0,0,0,0,0,-1,951,645,0,0
-266,379,0,0,0,0,0,0,0,0,0,-1,958,645,0,0
-259,379,0,0,0,0,0,0,0,0,0,-1,965,645,0,0
-252,379,0,0,0,0,0,0,0,0,0,-1,972,645,0,0
-245,379,0,0,0,0,0,0,0,0,0,-1,979,645,0,0
-238,379,0,0,0,0,0,0,0,0,0,-1,986,645,0,0
-231,379,0,0,0,0,0,0,0,0,0,-1,993,645,0,0
-224,379,0,0,0,0,0,0,0,0,0,-1,1000,645,0,0
-217,379,0,0,0,0,0,0,0,0,0,-1,1007,645,0,0
-210,379,0,0,0,0,0,0,0,0,0,-1,1014,645,0,0
-203,379,0,0,0,0,0,0,0,0,0,-1,1021,645,0,0
-196,379,0,0,0,0,0,0,0,0,0,-1,1028,645,0,0
-189,379,0,0,0,0,0,0,0,0,0,-1,1035,645,0,0
-182,379,0,0,0,0,0,0,0,0,0,-1,1042,645,0,0
-175,379,0,0,0,0,0,0,0,0,0,-1,1049,645,0,0
-168,379,0,0,0,0,0,0,0,0,0,-1,1056,645,0,0
-161,379,0,0,0,0,0,0,0,0,0,-1,1063,645,0,0
-154,379,0,0,0,0,0,0,0,0,0,-1,1070,645,0,0
-147,379,0,0,0,0,0,0,0,0,0,-1,1077,645,0,0
-140,379,0,0,0,0,0,0,0,0,0,-1,1084,645,0,0
-133,379,0,0,0,0,0,0,0,0,0,-1,1091,645,0,0
-126,379,0,0,0,0,0,0,0,0,0,-1,1098,645,0,0
-119,379,0,0,0,0,0,0,0,0,0,-1,1105,645,0,0
-112,379,0,0,0,0,0,0,0,0,0,-1,1112,645,0,0
-105,379,0,0,0,0,0,0,0,0,0,-1,1119,645,0,0
-98,379,0,0,0,0,0,0,0,0,0,-1,1126,645,0,0
-91,379,0,0,0,0,0,0,0,0,0,-1,1133,645,0,0
-84,379,0,0,0,0,0,0,0,0,0,-1,1140,645,0,0
-77,379,0,0,0,0,0,0,0,0,0,-1,1147,645,0,0
-70,379,0,0,0,0,0,0,0,0,0,-1,1154,645,0,0
-63,379,0,0,0,0,0,0,0,0,0,-1,1161,645,0,0
-56,379,0,0,0,0,0,0,0,0,0,-1,1168,645,0,0
-49,379,0,0,0,0,0,0,0,0,0,-1,1175,645,0,0
-42,379,0,0,0,0,0,0,0,0,0,-1,1182,645,0,0
-35,379,0,0,0,0,0,0,0,0,0,-1,1189,645,0,0
-28,379,0,0,0,0,0,0,0,0,0,-1,1196,645,0,0
-21,379,0,0,0,0,0,0,0,0,0,-1,1203,645,0,0
-14,379,0,0,0,0,0,0,0,0,0,-1,1210,645,0,0
-7,379,0,0,0,0,0,0,0,0,0,-1,1217,645,0,0
0,379,0,0,0,0,0,0,0,0,0,-1,1224,645,0,0
7,379,0,0,0,0,0,0,0,0,0,-1,1231,645,0,0
14,379,0,0,0,0,0,0,0,0,0,-1,1238,645,0,0
21,379,0,0,0,0,0,0,0,0,0,-1,1245,645,0,0
28,379,0,0,0,0,0,0,0,0,0,-1,1252,645,0,0
35,379,0,0,0,0,0,0,0,0,0,-1,1259,645,0,0
42,379,0,0,0,0,0,0,0,0,0,-1,1266,645,0,0
49,379,0,0,0,0,0,0,0,0,0,-1,1273,645,0,0
56,379,0,0,0,0,0,0,0,0,0,-1,1280,645,0,0
63,379,0,0,0,0,0,0,0,0,0,-1,1287,645,0,0
70,379,0,0,0,0,0,0,0,0,0,-1,1294,645,0,0
77,379,0,0,0,0,0,0,0,0,0,-1,1301,645,0,0
84,379,0,0,0,0,0,0,0,0,0,-1,1308,645,0,0
91,379,0,0,0,0,0,0,0,0,0,-1,1315,645,0,0
98,379,0,0,0,0,0,0,0,0,0,-1,1322,645,0,0
105,379,0,0,0,0,0,0,0,0,0,-1,1329,645,0,0
112,379,0,0,0,0,0,0,0,0,0,-1,1336,645,0,0
119,379,0,0,0,0,0,0,0,0,0,-1,1343,645,0,0
126,379,0,0,0,0,0,0,0,0,0,-1,1350,645,0,0
133,379,0,0,0,0,0,0,0,0,0,-1,1357,645,0,0
140,379,0,0,0,0,0,0,0,0,0,-1,1364,645,0,0
147,379,0,0,0,0,0,0,0,0,0,-1,1371,645,0,0
154,379,0,0,0,0,0,0,0,0,0,-1,1378,645,0,0
161,379,0,0,0,0,0,0,0,0,0,-1,1385,645,0,0
168,379,0,0,0,0,0,0,0,0,0,-1,1392,645,0,0
175,379,0,0,0,0,0,0,0,0,0,-1,1399,645,0,0
182,379,0,0,0,0,0,0,0,0,0,-1,1406,645,0,0
189,379,0,0,0,0,0,0,0,0,0,-1,1413,645,0,0
196,379,0,0,0,0,0,0,0,0,0,-1,1420,645,0,0
203,379,0,0,0,0,0,0,0,0,0,-1,1427,645,0,0
210,379,0,0,0,0,0,0,0,0,0,-1,1434,645,0,0
217,379,0,0,0,0,0,0,0,0,0,-1,1441,645,0,0
224,379,0,0,0,0,0,0,0,0,0,-1,1448,645,0,0
231,379,0,0,0,0,0,0,0,0,0,-1,1455,645,0,0
238,379,0,0,0,0,0,0,0,0,0,-1,1462,645,0,0
245,379,0,0,0,0,0,0,0,0,0,-1,1469,645,0,0
252,379,0,0,0,0,0,0,0,0,0,-1,1476,645,0,0
259,379,0,0,0,0,0,0,0,0,0,-1,1483,645,0,0
266,379,0,0,0,0,0,0,0,0,0,-1,1490,645,0,0
273,379,0,0,0,0,0,0,0,0,0,-1,1497,645,0,0
280,379,0,0,0,0,0,0,0,0,0,-1,1504,645,0,0
287,379,0,0,0,0,0,0,0,0,0,-1,1511,645,0,0
294,379,0,0,0,0,0,0,0,0,0,-1,1518,645,0,0
301,379,0,0,0,0,0,0,0,0,0,-1,1525,645,0,0
308,379,0,0,0,0,0,0,0,0,0,-1,1532,645,0,0
315,379,0,0,0,0,0,0,0,0,0,-1,1539,645,0,0
322,379,0,0,0,0,0,0,0,0,0,-1,1546,645,0,0
329,379,0,0,0,0,0,0,0,0,0,-1,1553,645,0,0
336,379,0,0,0,0,0,0,0,0,0,-1,1560,645,0,0
343,379,0,0,0,0,0,0,0,0,0,-1,1567,645,0,0
350,379,0,0,0,0,0,0,0,0,0,-1,1574,645,0,0
357,379,0,0,0,0,0,0,0,0,0,-1,1581,645,0,0
364,379,0,0,0,0,0,0,0,0,0,-1,1588,645,0,0
371,379,0,0,0,0,0,0,0,0,0,-1,1595,645,0,0
378,379,0,0,0,0,0,0,0,0,0,-1,1602,645,0,0
385,379,0,0,0,0,0,0,0,0,0,-1,1609,645,0,0
392,379,0,0,0,0,0,0,0,0,0,-1,1616,645,0,0
399,379,0,0,0,0,0,0,0,0,0,-1,1623,645,0,0
406,379,0,0,0,0,0,0,0,0,0,-1,1630,645,0,0
413,379,0,0,0,0,0,0,0,0,0,-1,1637,645,0,0
420,379,0,0,0,0,0,0,0,0,0,-1,1644,645,0,0
427,379,0,0,0,0,0,0,0,0,0,-1,1651,645,0,0
434,379,0,0,0,0,0,0,0,0,0,-1,1658,645,0,0
441,379,0,0,0,0,0,0,0,0,0,-1,1665,645,0,0
448,379,0,0,0,0,0,0,0,0,0,-1,1672,645,0,0
455,379,0,0,0,0,0,0,0,0,0,-1,1679,645,0,0
462,379,0,0,0,0,0,0,0,0,0,-1,1686,645,0,0
469,379,0,0,0,0,0,0,0,0,0,-1,1693,645,0,0
476,379,11.1787,0.830383,0,0,0,0,0,0,0,-1,1700,645,11.1787,-0.830365
483,379,7.4231,1.54321,0,0,0,0,0,0,0,-1,1707,645,7.42314,-1.54324
490,379,8.52881,1.56677,0,0,0,0,0,0,0,-1,1714,645,8.52878,-1.56677
497,379,9.63599,1.49573,0,0,0,0,0,0,0,-1,1721,645,9.63604,-1.4957
504,379,10.0833,1.35229,0,0,0,0,0,0,0,-1,1728,645,10.0832,-1.35227
511,379,8.14343,1.59912,0,0,0,0,0,0,0,-1,1735,645,8.14347,-1.59912
518,379,12.7955,-0.324097,0,0,0,0,0,0,0,-1,1742,645,12.7955,0.324101
525,379,6.03711,1.10352,0,0,0,0,0,0,0,-1,1749,645,6.03711,-1.10351
532,379,8.70947,0.887817,0,0,0,0,0,0,0,-1,1756,645,8.70953,-0.887808
539,379,9.87097,0.111389,0,0,0,0,0,0,0,-1,1763,645,9.87095,-0.111395
546,379,8.42383,-0.730652,0,0,0,0,0,0,0,-1,1770,645,8.42378,0.730638
553,379,19.2905,-7.67834,0,0,0,0,0,0,0,-1,1777,645,19.2905,7.67837
560,379,22.5734,-10.4749,0,0,0,0,0,0,0,-1,1784,645,22.5734,10.4749
567,379,25.4692,-11.7068,0,0,0,0,0,0,0,-1,1791,645,25.4692,11.7068
574,379,25.7291,-10.8091,0.00249667,0.0002194,0.000204266,0.00251485,0.000201224,0.0887533,0.00161368,0.0161085,1798,645,25.7291,10.8092
581,379,25.7053,-10.1474,0.00176992,0.000303137,9.36184e-05,0.00177587,0.000297186,0.0634825,0.00109833,0.0161914,1805,645,25.7053,10.1474
588,379,25.6626,-9.46198,0.0013793,0.000486047,0.000170514,0.00141075,0.000454604,0.182351,0.000831475,0.0183843,1812,645,25.6626,9.46198
595,379,25.6152,-8.79895,0.00134243,0.000859627,0.000428649,0.00159298,0.000609078,0.52895,0.000928154,0.0152953,1819,645,25.6152,8.79898
602,379,25.5836,-8.13617,0.00159108,0.00135926,0.000864447,0.00234736,0.000602989,0.718752,0.00140764,0.0161549,1826,645,25.5836,8.13618
609,379,25.564,-7.46906,0.0018859,0.00196729,0.00136453,0.00329173,0.00056145,0.800305,0.00203334,0.0178532,1833,645,25.5639,7.46908
616,379,25.5269,-6.77203,0.00206001,0.00249723,0.00174575,0.004038,0.000519238,0.847687,0.0025367,0.0138835,1840,645,25.5269,6.77204
623,379,25.5111,-6.03845,0.00237184,0.00313767,0.00229279,0.0050793,0.000430211,0.868139,0.0032523,0.01203,1847,645,25.5111,6.03842
630,379,25.494,-5.34412,0.00231399,0.00364169,0.00265256,0.00571221,0.000243472,0.908013,0.00372963,0.0137088,1854,645,25.494,5.34411
637,379,25.5194,-4.56506,0.00181339,0.00408361,0.0028308,0.00599841,-0.000101405,0.976076,0.00403317,0.0455896,1861,645,25.5194,4.56507
644,379,25.7268,-3.68774,0,0,0,0,0,0,0,-1,1868,645,25.7267,3.68777
651,379,12.9515,0.220825,0,0,0,0,0,0,0,-1,1875,645,12.9515,-0.220814
658,379,13.7498,0.37439,0,0,0,0,0,0,0,-1,1882,645,13.7498,-0.374371
665,379,11.9719,0.353333,0,0,0,0,0,0,0,-1,1889,645,11.9719,-0.353321
672,379,7.57605,2.15326,0,0,0,0,0,0,0,-1,1896,645,7.57599,-2.15326
679,379,8.55078,2.50409,0,0,0,0,0,0,0,-1,1903,645,8.55073,-2.50406
686,379,0,0,0,0,0,0,0,0,0,-1,1910,645,0,0
693,379,0,0,0,0,0,0,0,0,0,-1,1917,645,0,0
700,379,0,0,0,0,0,0,0,0,0,-1,1924,645,0,0
707,379,0,0,0,0,0,0,0,0,0,-1,1931,645,0,0
714,379,0,0,0,0,0,0,0,0,0,-1,1938,645,0,0
721,379,0,0,0,0,0,0,0,0,0,-1,1945,645,0,0
728,379,0,0,0,0,0,0,0,0,0,-1,1952,645,0,0
735,379,0,0,0,0,0,0,0,0,0,-1,1959,645,0,0
742,379,0,0,0,0,0,0,0,0,0,-1,1966,645,0,0
749,379,0,0,0,0,0,0,0,0,0,-1,1973,645,0,0
756,379,0,0,0,0,0,0,0,0,0,-1,1980,645,0,0
763,379,0,0,0,0,0,0,0,0,0,-1,1987,645,0,0
770,379,0,0,0,0,0,0,0,0,0,-1,1994,645,0,0
777,379,0,0,0,0,0,0,0,0,0,-1,2001,645,0,0
784,379,0,0,0,0,0,0,0,0,0,-1,2008,645,0,0
791,379,0,0,0,0,0,0,0,0,0,-1,2015,645,0,0
798,379,0,0,0,0,0,0,0,0,0,-1,2022,645,0,0
805,379,0,0,0,0,0,0,0,0,0,-1,2029,645,0,0
812,379,0,0,0,0,0,0,0,0,0,-1,2036,645,0,0
-700,372,0,0,0,0,0,0,0,0,0,-1,524,652,0,0
-693,372,0,0,0,0,0,0,0,0,0,-1,531,652,0,0
-686,372,0,0,0,0,0,0,0,0,0,-1,538,652,0,0
-679,372,0,0,0,0,0,0,0,0,0,-1,545,652,0,0
-672,372,0,0,0,0,0,0,0,0,0,-1,552,652,0,0
-665,372,0,0,0,0,0,0,0,0,0,-1,559,652,0,0
-658,372,0,0,0,0,0,0,0,0,0,-1,566,652,0,0
-651,372,0,0,0,0,0,0,0,0,0,-1,573,652,0,0
-644,372,0,0,0,0,0,0,0,0,0,-1,580,652,0,0
-637,372,0,0,0,0,0,0,0,0,0,-1,587,652,0,0
-630,372,0,0,0,0,0,0,0,0,0,-1,594,652,0,0
-623,372,0,0,0,0,0,0,0,0,0,-1,601,652,0,0
-616,372,0,0,0,0,0,0,0,0,0,-1,608,652,0,0
-609,372,0,0,0,0,0,0,0,0,0,-1,615,652,0,0
-602,372,0,0,0,0,0,0,0,0,0,-1,622,652,0,0
-595,372,0,0,0,0,0,0,0,0,0,-1,629,652,0,0
-588,372,0,0,0,0,0,0,0,0,0,-1,636,652,0,0
-581,372,0,0,0,0,0,0,0,0,0,-1,643,652,0,0
-574,372,0,0,0,0,0,0,0,0,0,-1,650,652,0,0
-567,372,-7.93744,0.73407,0,0,0,0,0,0,0,-1,657,652,-7.93741,-0.734076
-560,372,-8.78552,-0.158203,0,0,0,0,0,0,0,-1,664,652,-8.78552,0.158216
-553,372,-7.95551,1.61694,0,0,0,0,0,0,0,-1,671,652,-7.95552,-1.61697
-546,372,-4.2403,-3.75372,0,0,0,0,0,0,0,-1,678,652,-4.24028,3.75369
-539,372,-7.92285,-0.0650024,0,0,0,0,0,0,0,-1,685,652,-7.92287,0.0649772
-532,372,-8.59589,-0.419556,0,0,0,0,0,0,0,-1,692,652,-8.59591,0.419539
-525,372,-8.03674,-1.36804,0,0,0,0,0,0,0,-1,699,652,-8.03676,1.36806
-518,372,-14.4402,-5.46735,0,0,0,0,0,0,0,-1,706,652,-14.4402,5.46735
-511,372,-14.3837,-6.27521,0.00361652,0.00552889,-0.00363075,0.00832726,0.000818152,-0.914154,0.00529988,0.0373058,713,652,-14.3837,6.27518
-504,372,-14.4075,-6.89716,0.00292665,0.00442976,-0.00284648,0.00662223,0.000734183,-0.914468,0.00419158,0.0174337,720,652,-14.4075,6.89713
-497,372,-14.4017,-7.60767,0.00244499,0.00337626,-0.00219478,0.00515425,0.000666998,-0.889926,0.00323683,0.012682,727,652,-14.4017,7.60765
-490,372,-14.4443,-8.26868,0.00215655,0.00252593,-0.00174741,0.00409838,0.0005841,-0.838049,0.00255986,0.0131714,734,652,-14.4443,8.26868
-483,372,-14.4708,-8.91382,0.00202575,0.00178619,-0.00140196,0.00331304,0.000498896,-0.742783,0.00206261,0.013294,741,652,-14.4707,8.91381
-476,372,-14.4863,-9.55945,0.00208461,0.00119251,-0.00121547,0.00293328,0.000343831,-0.609539,0.00185158,0.0143283,748,652,-14.4863,9.55947
-469,372,-14.5219,-10.209,0.00222304,0.000707288,-0.00112131,0.00281857,0.000111752,-0.488221,0.00184293,0.0113965,755,652,-14.5219,10.209
-462,372,-14.5492,-10.8687,0.00243179,0.00032158,-0.00110916,0.00290753,-0.000154159,-0.405185,0.00199173,0.0098078,762,652,-14.5492,10.8687
-455,372,-14.5829,-11.5246,0.00275157,-0.000157459,-0.00113781,0.00314373,-0.000549622,-0.331915,0.00230101,0.00965429,769,652,-14.5829,11.5246
-448,372,-14.5917,-12.1898,0.0031677,-0.00051054,-0.00125698,0.00355621,-0.000899058,-0.299773,0.00272047,0.0125648,776,652,-14.5917,12.1898
-441,372,-14.551,-12.9183,0,0,0,0,0,0,0,-1,783,652,-14.551,12.9183
-434,372,-9.86865,-9.68494,0,0,0,0,0,0,0,-1,790,652,-9.86863,9.68492
-427,372,-4.54248,-3.56268,0,0,0,0,0,0,0,-1,797,652,-4.54247,3.56266
-420,372,-4.66168,-2.93597,0,0,0,0,0,0,0,-1,804,652,-4.66166,2.93599
-413,372,-4.74762,-3.29541,0,0,0,0,0,0,0,-1,811,652,-4.74763,3.29542
-406,372,-0.885437,-0.583923,0,0,0,0,0,0,0,-1,818,652,-0.885437,0.5839
-399,372,-3.97357,-0.825012,0,0,0,0,0,0,0,-1,825,652,-3.97359,0.825037
-392,372,-7.64337,0.173035,0,0,0,0,0,0,0,-1,832,652,-7.64337,-0.173019
-385,372,-6.48871,-0.0271606,0,0,0,0,0,0,0,-1,839,652,-6.48874,0.0271353
-378,372,-5.33044,-0.242432,0,0,0,0,0,0,0,-1,846,652,-5.33042,0.242457
-371,372,-4.40802,-0.495667,0,0,0,0,0,0,0,-1,853,652,-4.40802,0.495661
-364,372,0,0,0,0,0,0,0,0,0,-1,860,652,0,0
-357,372,0,0,0,0,0,0,0,0,0,-1,867,652,0,0
-350,372,0,0,0,0,0,0,0,0,0,-1,874,652,0,0
-343,372,0,0,0,0,0,0,0,0,0,-1,881,652,0,0
-336,372,0,0,0,0,0,0,0,0,0,-1,888,652,0,0
-329,372,0,0,0,0,0,0,0,0,0,-1,895,652,0,0
-322,372,0,0,0,0,0,0,0,0,0,-1,902,652,0,0
-315,372,0,0,0,0,0,0,0,0,0,-1,909,652,0,0
-308,372,0,0,0,0,0,0,0,0,0,-1,916,652,0,0
-301,372,0,0,0,0,0,0,0,0,0,-1,923,652,0,0
-294,372,0,0,0,0,0,0,0,0,0,-1,930,652,0,0
-287,372,0,0,0,0,0,0,0,0,0,-1,937,652,0,0
-280,372,0,0,0,0,0,0,0,0,0,-1,944,652,0,0
-273,372,0,0,0,0,0,0,0,0,0,-1,951,652,0,0
-266,372,0,0,0,0,0,0,0,0,0,-1,958,652,0,0
-259,372,0,0,0,0,0,0,0,0,0,-1,965,652,0,0
-252,372,0,0,0,0,0,0,0,0,0,-1,972,652,0,0
-245,372,0,0,0,0,0,0,0,0,0,-1,979,652,0,0
-238,372,0,0,0,0,0,0,0,0,0,-1,986,652,0,0
-231,372,0,0,0,0,0,0,0,0,0,-1,993,652,0,0
-224,372,0,0,0,0,0,0,0,0,0,-1,1000,652,0,0
-217,372,0,0,0,0,0,0,0,0,0,-1,1007,652,0,0
-210,372,0,0,0,0,0,0,0,0,0,-1,1014,652,0,0
-203,372,0,0,0,0,0,0,0,0,0,-1,1021,652,0,0
-196,372,0,0,0,0,0,0,0,0,0,-1,1028,652,0,0
-189,372,0,0,0,0,0,0,0,0,0,-1,1035,652,0,0
-182,372,0,0,0,0,0,0,0,0,0,-1,1042,652,0,0
-175,372,0,0,0,0,0,0,0,0,0,-1,1049,652,0,0
-168,372,0,0,0,0,0,0,0,0,0,-1,1056,652,0,0
-161,372,0,0,0,0,0,0,0,0,0,-1,1063,652,0,0
-154,372,0,0,0,0,0,0,0,0,0,-1,1070,652,0,0
-147,372,0,0,0,0,0,0,0,0,0,-1,1077,652,0,0
-140,372,0,0,0,0,0,0,0,0,0,-1,1084,652,0,0
-133,372,0,0,0,0,0,0,0,0,0,-1,1091,652,0,0
-126,372,0,0,0,0,0,0,0,0,0,-1,1098,652,0,0
-119,372,0,0,0,0,0,0,0,0,0,-1,1105,652,0,0
-112,372,0,0,0,0,0,0,0,0,0,-1,1112,652,0,0
-105,372,0,0,0,0,0,0,0,0,0,-1,1119,652,0,0
-98,372,0,0,0,0,0,0,0,0,0,-1,1126,652,0,0
-91,372,0,0,0,0,0,0,0,0,0,-1,1133,652,0,0
-84,372,0,0,0,0,0,0,0,0,0,-1,1140,652,0,0
-77,372,0,0,0,0,0,0,0,0,0,-1,1147,652,0,0
-70,372,0,0,0,0,0,0,0,0,0,-1,1154,652,0,0
-63,372,0,0,0,0,0,0,0,0,0,-1,1161,652,0,0
-56,372,0,0,0,0,0,0,0,0,0,-1,1168,652,0,0
-49,372,0,0,0,0,0,0,0,0,0,-1,1175,652,0,0
-42,372,0,0,0,0,0,0,0,0,0,-1,1182,652,0,0
-35,372,0,0,0,0,0,0,0,0,0,-1,1189,652,0,0
-28,372,0,0,0,0,0,0,0,0,0,-1,1196,652,0,0
-21,372,0,0,0,0,0,0,0,0,0,-1,1203,652,0,0
-14,372,0,0,0,0,0,0,0,0,0,-1,1210,652,0,0
-7,372,0,0,0,0,0,0,0,0,0,-1,1217,652,0,0
0,372,0,0,0,0,0,0,0,0,0,-1,1224,652,0,0
7,372,0,0,0,0,0,0,0,0,0,-1,1231,652,0,0
14,372,0,0,0,0,0,0,0,0,0,-1,1238,652,0,0
21,372,0,0,0,0,0,0,0,0,0,-1,1245,652,0,0
28,372,0,0,0,0,0,0,0,0,0,-1,1252,652,0,0
35,372,0,0,0,0,0,0,0,0,0,-1,1259,652,0,0
42,372,0,0,0,0,0,0,0,0,0,-1,1266,652,0,0
49,372,0,0,0,0,0,0,0,0,0,-1,1273,652,0,0
56,372,0,0,0,0,0,0,0,0,0,-1,1280,652,0,0
63,372,0,0,0,0,0,0,0,0,0,-1,1287,652,0,0
70,372,0,0,0,0,0,0,0,0,0,-1,1294,652,0,0
77,372,0,0,0,0,0,0,0,0,0,-1,1301,652,0,0
84,372,0,0,0,0,0,0,0,0,0,-1,1308,652,0,0
91,372,0,0,0,0,0,0,0,0,0,-1,1315,652,0,0
98,372,0,0,0,0,0,0,0,0,0,-1,1322,652,0,0
105,372,0,0,0,0,0,0,0,0,0,-1,1329,652,0,0
112,372,0,0,0,0,0,0,0,0,0,-1,1336,652,0,0
119,372,0,0,0,0,0,0,0,0,0,-1,1343,652,0,0
126,372,0,0,0,0,0,0,0,0,0,-1,1350,652,0,0
133,372,0,0,0,0,0,0,0,0,0,-1,1357,652,0,0
140,372,0,0,0,0,0,0,0,0,0,-1,1364,652,0,0
147,372,0,0,0,0,0,0,0,0,0,-1,1371,652,0,0
154,372,0,0,0,0,0,0,0,0,0,-1,1378,652,0,0
161,372,0,0,0,0,0,0,0,0,0,-1,1385,652,0,0
168,372,0,0,0,0,0,0,0,0,0,-1,1392,652,0,0
175,372,0,0,0,0,0,0,0,0,0,-1,1399,652,0,0
182,372,0,0,0,0,0,0,0,0,0,-1,1406,652,0,0
189,372,0,0,0,0,0,0,0,0,0,-1,1413,652,0,0
196,372,0,0,0,0,0,0,0,0,0,-1,1420,652,0,0
203,372,0,0,0,0,0,0,0,0,0,-1,1427,652,0,0
210,372,0,0,0,0,0,0,0,0,0,-1,1434,652,0,0
217,372,0,0,0,0,0,0,0,0,0,-1,1441,652,0,0
224,372,0,0,0,0,0,0,0,0,0,-1,1448,652,0,0
231,372,0,0,0,0,0,0,0,0,0,-1,1455,652,0,0
238,372,0,0,0,0,0,0,0,0,0,-1,1462,652,0,0
245,372,0,0,0,0,0,0,0,0,0,-1,1469,652,0,0
252,372,0,0,0,0,0,0,0,0,0,-1,1476,652,0,0
259,372,0,0,0,0,0,0,0,0,0,-1,1483,652,0,0
266,372,0,0,0,0,0,0,0,0,0,-1,1490,652,0,0
273,372,0,0,0,0,0,0,0,0,0,-1,1497,652,0,0
280,372,0,0,0,0,0,0,0,0,0,-1,1504,652,0,0
287,372,0,0,0,0,0,0,0,0,0,-1,1511,652,0,0
294,372,0,0,0,0,0,0,0,0,0,-1,1518,652,0,0
301,372,0,0,0,0,0,0,0,0,0,-1,1525,652,0,0
308,372,0,0,0,0,0,0,0,0,0,-1,1532,652,0,0
315,372,0,0,0,0,0,0,0,0,0,-1,1539,652,0,0
322,372,0,0,0,0,0,0,0,0,0,-1,1546,652,0,0
329,372,0,0,0,0,0,0,0,0,0,-1,1553,652,0,0
336,372,0,0,0,0,0,0,0,0,0,-1,1560,652,0,0
343,372,0,0,0,0,0,0,0,0,0,-1,1567,652,0,0
350,372,0,0,0,0,0,0,0,0,0,-1,1574,652,0,0
357,372,0,0,0,0,0,0,0,0,0,-1,1581,652,0,0
364,372,0,0,0,0,0,0,0,0,0,-1,1588,652,0,0
371,372,0,0,0,0,0,0,0,0,0,-1,1595,652,0,0
378,372,0,0,0,0,0,0,0,0,0,-1,1602,652,0,0
385,372,0,0,0,0,0,0,0,0,0,-1,1609,652,0,0
392,372,0,0,0,0,0,0,0,0,0,-1,1616,652,0,0
399,372,0,0,0,0,0,0,0,0,0,-1,1623,652,0,0
406,372,0,0,0,0,0,0,0,0,0,-1,1630,652,0,0
413,372,0,0,0,0,0,0,0,0,0,-1,1637,652,0,0
420,372,0,0,0,0,0,0,0,0,0,-1,1644,652,0,0
427,372,0,0,0,0,0,0,0,0,0,-1,1651,652,0,0
434,372,0,0,0,0,0,0,0,0,0,-1,1658,652,0,0
441,372,0,0,0,0,0,0,0,0,0,-1,1665,652,0,0
448,372,0,0,0,0,0,0,0,0,0,-1,1672,652,0,0
455,372,0,0,0,0,0,0,0,0,0,-1,1679,652,0,0
462,372,0,0,0,0,0,0,0,0,0,-1,1686,652,0,0
469,372,0,0,0,0,0,0,0,0,0,-1,1693,652,0,0
476,372,0,0,0,0,0,0,0,0,0,-1,1700,652,0,0
483,372,8.74182,1.53125,0,0,0,0,0,0,0,-1,1707,652,8.74186,-1.53126
490,372,9.78455,1.67096,0,0,0,0,0,0,0,-1,1714,652,9.7846,-1.67093
497,372,9.97644,1.46069,0,0,0,0,0,0,0,-1,1721,652,9.97647,-1.46071
504,372,10.1216,1.28375,0,0,0,0,0,0,0,-1,1728,652,10.1216,-1.28376
511,372,11.7367,-0.0272217,0,0,0,0,0,0,0,-1,1735,652,11.7367,0.0272326
518,372,12.0657,-0.0995483,0,0,0,0,0,0,0,-1,1742,652,12.0657,0.0995285
525,372,12.3947,-0.171814,0,0,0,0,0,0,0,-1,1749,652,12.3946,0.171824
532,372,9.36597,1.72034,0,0,0,0,0,0,0,-1,1756,652,9.36597,-1.72036
539,372,7.82886,-0.0865479,0,0,0,0,0,0,0,-1,1763,652,7.82882,0.0865771
546,372,10.953,-0.187195,0,0,0,0,0,0,0,-1,1770,652,10.953,0.187181
553,372,14.1201,-4.83234,0,0,0,0,0,0,0,-1,1777,652,14.1201,4.83235
560,372,20.1057,-8.06934,0,0,0,0,0,0,0,-1,1784,652,20.1058,8.06936
567,372,26.4817,-11.6097,0,0,0,0,0,0,0,-1,1791,652,26.4817,11.6098
574,372,26.4512,-10.7147,0.00272045,4.52382e-05,2.19713e-05,0.00272063,4.50576e-05,0.00821218,0.00179892,0.0421868,1798,652,26.4512,10.7147
581,372,26.4084,-10.1208,0.00190591,6.14344e-05,-0.000152776,0.00191848,4.88659e-05,-0.0820835,0.00126301,0.0218163,1805,652,26.4084,10.1209
588,372,26.3467,-9.44275,0.00148679,0.000149872,-0.000103235,0.00149471,0.000141947,-0.0766134,0.00095269,0.0164162,1812,652,26.3467,9.44273
595,372,26.2955,-8.76617,0.00140578,0.000467369,0.000111161,0.00141876,0.000454381,0.116312,0.000836578,0.014348,1819,652,26.2956,8.76618
602,372,26.297,-8.1178,0.00157345,0.000882317,0.000476206,0.00181626,0.000639505,0.471527,0.0010638,0.0163017,1826,652,26.297,8.11779
609,372,26.2277,-7.43219,0.00178407,0.00138783,0.000910253,0.00251751,0.000654387,0.678244,0.0015083,0.0176402,1833,652,26.2277,7.4322
616,372,26.2111,-6.72083,0.00183355,0.0018022,0.00121426,0.00303224,0.000603512,0.778943,0.00185337,0.0164045,1840,652,26.211,6.72085
623,372,26.2133,-5.99854,0.00188558,0.00228964,0.00162576,0.00372588,0.000449344,0.847215,0.00234851,0.0124477,1847,652,26.2133,5.99852
630,372,26.1742,-5.30981,0.00149392,0.00265447,0.00185043,0.00401348,0.000134918,0.937337,0.00263183,0.017185,1854,652,26.1741,5.30981
637,372,26.1877,-4.66284,0.00070842,0.00291745,0.00189214,0.00400386,-0.000377991,1.04959,0.00280374,0.0288249,1861,652,26.1877,4.66283
644,372,26.3607,-3.97412,0,0,0,0,0,0,0,-1,1868,652,26.3608,3.97414
651,372,21.3998,-0.888,0,0,0,0,0,0,0,-1,1875,652,21.3998,0.887992
658,372,14.157,0.280273,0,0,0,0,0,0,0,-1,1882,652,14.157,-0.280264
665,372,15.2286,0.463867,0,0,0,0,0,0,0,-1,1889,652,15.2287,-0.463854
672,372,9.34106,1.48444,0,0,0,0,0,0,0,-1,1896,652,9.34109,-1.48444
679,372,10.7308,2.32391,0,0,0,0,0,0,0,-1,1903,652,10.7309,-2.3239
686,372,11.6295,2.52997,0,0,0,0,0,0,0,-1,1910,652,11.6296,-2.52996
693,372,0,0,0,0,0,0,0,0,0,-1,1917,652,0,0
700,372,0,0,0,0,0,0,0,0,0,-1,1924,652,0,0
707,372,0,0,0,0,0,0,0,0,0,-1,1931,652,0,0
714,372,0,0,0,0,0,0,0,0,0,-1,1938,652,0,0
721,372,0,0,0,0,0,0,0,0,0,-1,1945,652,0,0
728,372,0,0,0,0,0,0,0,0,0,-1,1952,652,0,0
735,372,0,0,0,0,0,0,0,0,0,-1,1959,652,0,0
742,372,0,0,0,0,0,0,0,0,0,-1,1966,652,0,0
749,372,0,0,0,0,0,0,0,0,0,-1,1973,652,0,0
756,372,0,0,0,0,0,0,0,0,0,-1,1980,652,0,0
763,372,0,0,0,0,0,0,0,0,0,-1,1987,652,0,0
770,372,0,0,0,0,0,0,0,0,0,-1,1994,652,0,0
777,372,0,0,0,0,0,0,0,0,0,-1,2001,652,0,0
784,372,0,0,0,0,0,0,0,0,0,-1,2008,652,0,0
791,372,0,0,0,0,0,0,0,0,0,-1,2015,652,0,0
798,372,0,0,0,0,0,0,0,0,0,-1,2022,652,0,0
805,372,0,0,0,0,0,0,0,0,0,-1,2029,652,0,0
812,372,0,0,0,0,0,0,0,0,0,-1,2036,652,0,0
-700,365,0,0,0,0,0,0,0,0,0,-1,524,659,0,0
-693,365,0,0,0,0,0,0,0,0,0,-1,531,659,0,0
-686,365,0,0,0,0,0,0,0,0,0,-1,538,659,0,0
-679,365,0,0,0,0,0,0,0,0,0,-1,545,659,0,0
-672,365,0,0,0,0,0,0,0,0,0,-1,552,659,0,0
-665,365,0,0,0,0,0,0,0,0,0,-1,559,659,0,0
-658,365,0,0,0,0,0,0,0,0,0,-1,566,659,0,0
-651,365,0,0,0,0,0,0,0,0,0,-1,573,659,0,0
-644,365,0,0,0,0,0,0,0,0,0,-1,580,659,0,0
-637,365,0,0,0,0,0,0,0,0,0,-1,587,659,0,0
-630,365,0,0,0,0,0,0,0,0,0,-1,594,659,0,0
-623,365,0,0,0,0,0,0,0,0,0,-1,601,659,0,0
-616,365,0,0,0,0,0,0,0,0,0,-1,608,659,0,0
-609,365,0,0,0,0,0,0,0,0,0,-1,615,659,0,0
-602,365,0,0,0,0,0,0,0,0,0,-1,622,659,0,0
-595,365,0,0,0,0,0,0,0,0,0,-1,629,659,0,0
-588,365,0,0,0,0,0,0,0,0,0,-1,636,659,0,0
-581,365,0,0,0,0,0,0,0,0,0,-1,643,659,0,0
-574,365,-7.69281,1.59015,0,0,0,0,0,0,0,-1,650,659,-7.69282,-1.59018
-567,365,-8.2583,1.72638,0,0,0,0,0,0,0,-1,657,659,-8.25827,-1.72637
-560,365,-7.17767,0.275757,0,0,0,0,0,0,0,-1,664,659,-7.17768,-0.27577
-553,365,-10.0349,-0.169617,0,0,0,0,0,0,0,-1,671,659,-10.0349,0.169593
-546,365,-10.6303,-1.51642,0,0,0,0,0,0,0,-1,678,659,-10.6303,1.5164
-539,365,-8.38599,1.52936,0,0,0,0,0,0,0,-1,685,659,-8.38598,-1.52935
-532,365,-8.52863,0.166504,0,0,0,0,0,0,0,-1,692,659,-8.52863,-0.166501
-525,365,-9.28229,-2.62726,0,0,0,0,0,0,0,-1,699,659,-9.28227,2.62724
-518,365,-15.0887,-5.38214,0,0,0,0,0,0,0,-1,706,659,-15.0887,5.38212
-511,365,-15.0569,-6.17206,0.00346847,0.00435734,-0.00288477,0.00683171,0.000994103,-0.861829,0.00426193,0.0364814,713,659,-15.0569,6.17203
-504,365,-15.0245,-6.86627,0.00290163,0.00341884,-0.00229924,0.00547398,0.000846499,-0.8414,0.00340243,0.0129135,720,659,-15.0245,6.86626
-497,365,-15.0429,-7.56641,0.00252239,0.00255226,-0.0018099,0.00434729,0.000727368,-0.789523,0.00268873,0.0139404,727,659,-15.0429,7.56641
-490,365,-15.1066,-8.24402,0.00228292,0.0018557,-0.00146861,0.00355337,0.000585251,-0.713178,0.00219994,0.0151476,734,659,-15.1066,8.24403
-483,365,-15.1472,-8.8866,0.00221756,0.00126109,-0.00120755,0.00303813,0.000440524,-0.596856,0.00189572,0.0138401,741,659,-15.1472,8.88657
-476,365,-15.1059,-9.53882,0.00232961,0.000805817,-0.00109355,0.0029005,0.000234921,-0.481138,0.00186031,0.0172173,748,659,-15.1059,9.53884
-469,365,-15.1443,-10.1934,0.00252208,0.000469369,-0.001074,0.00298128,1.01698e-05,-0.404038,0.00198414,0.0171429,755,659,-15.1443,10.1934
-462,365,-15.1876,-10.8263,0.00280767,0.00024152,-0.00114654,0.0032453,-0.00019611,-0.364629,0.00223178,0.0148779,762,659,-15.1876,10.8263
-455,365,-15.2186,-11.4778,0.00323048,-0.000104572,-0.00126501,0.00365602,-0.000530105,-0.324496,0.0026319,0.0168192,769,659,-15.2186,11.4778
-448,365,-15.1544,-12.2574,0.00370963,-0.000331067,-0.00148334,0.0041957,-0.000817134,-0.316657,0.00310555,0.0419712,776,659,-15.1543,12.2575
-441,365,-14.9146,-13.1357,0,0,0,0,0,0,0,-1,783,659,-14.9146,13.1358
-434,365,-5.45056,-3.98041,0,0,0,0,0,0,0,-1,790,659,-5.45055,3.98042
-427,365,-5.05377,-4.74689,0,0,0,0,0,0,0,-1,797,659,-5.05376,4.7469
-420,365,-4.58813,-3.16376,0,0,0,0,0,0,0,-1,804,659,-4.58816,3.16374
-413,365,0.141357,0.672729,0,0,0,0,0,0,0,-1,811,659,0.141365,-0.672714
-406,365,-1.75067,-0.934448,0,0,0,0,0,0,0,-1,818,659,-1.7507,0.934424
-399,365,-4.10242,-1.25439,0,0,0,0,0,0,0,-1,825,659,-4.10244,1.25438
-392,365,-7.46545,-0.779724,0,0,0,0,0,0,0,-1,832,659,-7.46543,0.779744
-385,365,-6.27875,-0.887573,0,0,0,0,0,0,0,-1,839,659,-6.27874,0.887545
-378,365,-5.34503,-0.263306,0,0,0,0,0,0,0,-1,846,659,-5.34504,0.263275
-371,365,0,0,0,0,0,0,0,0,0,-1,853,659,0,0
-364,365,0,0,0,0,0,0,0,0,0,-1,860,659,0,0
-357,365,0,0,0,0,0,0,0,0,0,-1,867,659,0,0
-350,365,0,0,0,0,0,0,0,0,0,-1,874,659,0,0
-343,365,0,0,0,0,0,0,0,0,0,-1,881,659,0,0
-336,365,0,0,0,0,0,0,0,0,0,-1,888,659,0,0
-329,365,0,0,0,0,0,0,0,0,0,-1,895,659,0,0
-322,365,0,0,0,0,0,0,0,0,0,-1,902,659,0,0
-315,365,0,0,0,0,0,0,0,0,0,-1,909,659,0,0
-308,365,0,0,0,0,0,0,0,0,0,-1,916,659,0,0
-301,365,0,0,0,0,0,0,0,0,0,-1,923,659,0,0
-294,365,0,0,0,0,0,0,0,0,0,-1,930,659,0,0
-287,365,0,0,0,0,0,0,0,0,0,-1,937,659,0,0
-280,365,0,0,0,0,0,0,0,0,0,-1,944,659,0,0
-273,365,0,0,0,0,0,0,0,0,0,-1,951,659,0,0
-266,365,0,0,0,0,0,0,0,0,0,-1,958,659,0,0
-259,365,0,0,0,0,0,0,0,0,0,-1,965,659,0,0
-252,365,0,0,0,0,0,0,0,0,0,-1,972,659,0,0
-245,365,0,0,0,0,0,0,0,0,0,-1,979,659,0,0
-238,365,0,0,0,0,0,0,0,0,0,-1,986,659,0,0
-231,365,0,0,0,0,0,0,0,0,0,-1,993,659,0,0
-224,365,0,0,0,0,0,0,0,0,0,-1,1000,659,0,0
-217,365,0,0,0,0,0,0,0,0,0,-1,1007,659,0,0
-210,365,0,0,0,0,0,0,0,0,0,-1,1014,659,0,0
-203,365,0,0,0,0,0,0,0,0,0,-1,1021,659,0,0
-196,365,0,0,0,0,0,0,0,0,0,-1,1028,659,0,0
-189,365,0,0,0,0,0,0,0,0,0,-1,1035,659,0,0
-182,365,0,0,0,0,0,0,0,0,0,-1,1042,659,0,0
-175,365,0,0,0,0,0,0,0,0,0,-1,1049,659,0,0
-168,365,0,0,0,0,0,0,0,0,0,-1,1056,659,0,0
-161,365,0,0,0,0,0,0,0,0,0,-1,1063,659,0,0
-154,365,0,0,0,0,0,0,0,0,0,-1,1070,659,0,0
-147,365,0,0,0,0,0,0,0,0,0,-1,1077,659,0,0
-140,365,0,0,0,0,0,0,0,0,0,-1,1084,659,0,0
-133,365,0,0,0,0,0,0,0,0,0,-1,1091,659,0,0
-126,365,0,0,0,0,0,0,0,0,0,-1,1098,659,0,0
-119,365,0,0,0,0,0,0,0,0,0,-1,1105,659,0,0
-112,365,0,0,0,0,0,0,0,0,0,-1,1112,659,0,0
-105,365,0,0,0,0,0,0,0,0,0,-1,1119,659,0,0
-98,365,0,0,0,0,0,0,0,0,0,-1,1126,659,0,0
-91,365,0,0,0,0,0,0,0,0,0,-1,1133,659,0,0
-84,365,0,0,0,0,0,0,0,0,0,-1,1140,659,0,0
-77,365,0,0,0,0,0,0,0,0,0,-1,1147,659,0,0
-70,365,0,0,0,0,0,0,0,0,0,-1,1154,659,0,0
-63,365,0,0,0,0,0,0,0,0,0,-1,1161,659,0,0
-56,365,0,0,0,0,0,0,0,0,0,-1,1168,659,0,0
-49,365,0,0,0,0,0,0,0,0,0,-1,1175,659,0,0
-42,365,0,0,0,0,0,0,0,0,0,-1,1182,659,0,0
-35,365,0,0,0,0,0,0,0,0,0,-1,1189,659,0,0
-28,365,0,0,0,0,0,0,0,0,0,-1,1196,659,0,0
-21,365,0,0,0,0,0,0,0,0,0,-1,1203,659,0,0
-14,365,0,0,0,0,0,0,0,0,0,-1,1210,659,0,0
-7,365,0,0,0,0,0,0,0,0,0,-1,1217,659,0,0
0,365,0,0,0,0,0,0,0,0,0,-1,1224,659,0,0
7,365,0,0,0,0,0,0,0,0,0,-1,1231,659,0,0
14,365,0,0,0,0,0,0,0,0,0,-1,1238,659,0,0
21,365,0,0,0,0,0,0,0,0,0,-1,1245,659,0,0
28,365,0,0,0,0,0,0,0,0,0,-1,1252,659,0,0
35,365,0,0,0,0,0,0,0,0,0,-1,1259,659,0,0
42,365,0,0,0,0,0,0,0,0,0,-1,1266,659,0,0
49,365,0,0,0,0,0,0,0,0,0,-1,1273,659,0,0
56,365,0,0,0,0,0,0,0,0,0,-1,1280,659,0,0
63,365,0,0,0,0,0,0,0,0,0,-1,1287,659,0,0
70,365,0,0,0,0,0,0,0,0,0,-1,1294,659,0,0
77,365,0,0,0,0,0,0,0,0,0,-1,1301,659,0,0
84,365,0,0,0,0,0,0,0,0,0,-1,1308,659,0,0
91,365,0,0,0,0,0,0,0,0,0,-1,1315,659,0,0
98,365,0,0,0,0,0,0,0,0,0,-1,1322,659,0,0
105,365,0,0,0,0,0,0,0,0,0,-1,1329,659,0,0
112,365,0,0,0,0,0,0,0,0,0,-1,1336,659,0,0
119,365,0,0,0,0,0,0,0,0,0,-1,1343,659,0,0
126,365,0,0,0,0,0,0,0,0,0,-1,1350,659,0,0
133,365,0,0,0,0,0,0,0,0,0,-1,1357,659,0,0
140,365,0,0,0,0,0,0,0,0,0,-1,1364,659,0,0
147,365,0,0,0,0,0,0,0,0,0,-1,1371,659,0,0
154,365,0,0,0,0,0,0,0,0,0,-1,1378,659,0,0
161,365,0,0,0,0,0,0,0,0,0,-1,1385,659,0,0
168,365,0,0,0,0,0,0,0,0,0,-1,1392,659,0,0
175,365,0,0,0,0,0,0,0,0,0,-1,1399,659,0,0
182,365,0,0,0,0,0,0,0,0,0,-1,1406,659,0,0
189,365,0,0,0,0,0,0,0,0,0,-1,1413,659,0,0
196,365,0,0,0,0,0,0,0,0,0,-1,1420,659,0,0
203,365,0,0,0,0,0,0,0,0,0,-1,1427,659,0,0
210,365,0,0,0,0,0,0,0,0,0,-1,1434,659,0,0
217,365,0,0,0,0,0,0,0,0,0,-1,1441,659,0,0
224,365,0,0,0,0,0,0,0,0,0,-1,1448,659,0,0
231,365,0,0,0,0,0,0,0,0,0,-1,1455,659,0,0
238,365,0,0,0,0,0,0,0,0,0,-1,1462,659,0,0
245,365,0,0,0,0,0,0,0,0,0,-1,1469,659,0,0
252,365,0,0,0,0,0,0,0,0,0,-1,1476,659,0,0
259,365,0,0,0,0,0,0,0,0,0,-1,1483,659,0,0
266,365,0,0,0,0,0,0,0,0,0,-1,1490,659,0,0
273,365,0,0,0,0,0,0,0,0,0,-1,1497,659,0,0
280,365,0,0,0,0,0,0,0,0,0,-1,1504,659,0,0
287,365,0,0,0,0,0,0,0,0,0,-1,1511,659,0,0
294,365,0,0,0,0,0,0,0,0,0,-1,1518,659,0,0
301,365,0,0,0,0,0,0,0,0,0,-1,1525,659,0,0
308,365,0,0,0,0,0,0,0,0,0,-1,1532,659,0,0
315,365,0,0,0,0,0,0,0,0,0,-1,1539,659,0,0
322,365,0,0,0,0,0,0,0,0,0,-1,1546,659,0,0
329,365,0,0,0,0,0,0,0,0,0,-1,1553,659,0,0
336,365,0,0,0,0,0,0,0,0,0,-1,1560,659,0,0
343,365,0,0,0,0,0,0,0,0,0,-1,1567,659,0,0
350,365,0,0,0,0,0,0,0,0,0,-1,1574,659,0,0
357,365,0,0,0,0,0,0,0,0,0,-1,1581,659,0,0
364,365,0,0,0,0,0,0,0,0,0,-1,1588,659,0,0
371,365,0,0,0,0,0,0,0,0,0,-1,1595,659,0,0
378,365,0,0,0,0,0,0,0,0,0,-1,1602,659,0,0
385,365,0,0,0,0,0,0,0,0,0,-1,1609,659,0,0
392,365,0,0,0,0,0,0,0,0,0,-1,1616,659,0,0
399,365,0,0,0,0,0,0,0,0,0,-1,1623,659,0,0
406,365,0,0,0,0,0,0,0,0,0,-1,1630,659,0,0
413,365,0,0,0,0,0,0,0,0,0,-1,1637,659,0,0
420,365,0,0,0,0,0,0,0,0,0,-1,1644,659,0,0
427,365,0,0,0,0,0,0,0,0,0,-1,1651,659,0,0
434,365,0,0,0,0,0,0,0,0,0,-1,1658,659,0,0
441,365,0,0,0,0,0,0,0,0,0,-1,1665,659,0,0
448,365,0,0,0,0,0,0,0,0,0,-1,1672,659,0,0
455,365,0,0,0,0,0,0,0,0,0,-1,1679,659,0,0
462,365,0,0,0,0,0,0,0,0,0,-1,1686,659,0,0
469,365,0,0,0,0,0,0,0,0,0,-1,1693,659,0,0
476,365,0,0,0,0,0,0,0,0,0,-1,1700,659,0,0
483,365,0,0,0,0,0,0,0,0,0,-1,1707,659,0,0
490,365,8.39551,0.471252,0,0,0,0,0,0,0,-1,1714,659,8.39551,-0.471241
497,365,9.89233,1.35394,0,0,0,0,0,0,0,-1,1721,659,9.89237,-1.35396
504,365,10.1414,1.18005,0,0,0,0,0,0,0,-1,1728,659,10.1413,-1.18004
511,365,10.5151,0.993896,0,0,0,0,0,0,0,-1,1735,659,10.5152,-0.993894
518,365,11.2029,0.398132,0,0,0,0,0,0,0,-1,1742,659,11.2029,-0.398136
525,365,15.5748,3.85303,0,0,0,0,0,0,0,-1,1749,659,15.5748,-3.85303
532,365,11.2446,1.00629,0,0,0,0,0,0,0,-1,1756,659,11.2446,-1.00631
539,365,12.6301,1.03204,0,0,0,0,0,0,0,-1,1763,659,12.6302,-1.03204
546,365,11.647,0.84198,0,0,0,0,0,0,0,-1,1770,659,11.6469,-0.841955
553,365,12.028,-0.558899,0,0,0,0,0,0,0,-1,1777,659,12.028,0.558873
560,365,14.5372,-4.55548,0,0,0,0,0,0,0,-1,1784,659,14.5373,4.55547
567,365,20.5676,-7.53888,0,0,0,0,0,0,0,-1,1791,659,20.5676,7.53887
574,365,27.3635,-10.6318,0,0,0,0,0,0,0,-1,1798,659,27.3635,10.6319
581,365,27.0836,-10.0234,0,0,0,0,0,0,0,-1,1805,659,27.0836,10.0235
588,365,26.989,-9.45978,0.00143324,-9.10398e-05,-0.000394101,0.00152911,-0.000186905,-0.238616,0.00108707,0.0246867,1812,659,26.989,9.45979
595,365,26.9905,-8.74133,0.00130918,0.000196258,-0.000189657,0.00134061,0.000164826,-0.164241,0.000844178,0.0132773,1819,659,26.9905,8.74133
602,365,26.9609,-8.04077,0.00140105,0.000532869,0.000116289,0.00141635,0.000517563,0.130874,0.000827547,0.015969,1826,659,26.9609,8.0408
609,365,26.8907,-7.32526,0.0015893,0.000945922,0.000514357,0.00187428,0.000660943,0.505946,0.00109767,0.0172853,1833,659,26.8908,7.32528
616,365,26.8876,-6.62903,0.0016147,0.00127932,0.000793314,0.00225785,0.000636168,0.681242,0.00134433,0.0183905,1840,659,26.8876,6.62906
623,365,26.9067,-5.96948,0.00153547,0.00163693,0.0011104,0.00269776,0.000474635,0.808224,0.00166303,0.0116487,1847,659,26.9068,5.9695
630,365,26.8527,-5.29193,0.00101428,0.00189685,0.00126159,0.00279211,0.000119023,0.953641,0.00182303,0.0157673,1854,659,26.8526,5.29193
637,365,26.8341,-4.63654,0.000135984,0.00203073,0.0012264,0.00263306,-0.000466346,1.11427,0.0019297,0.0218114,1861,659,26.8341,4.63655
644,365,26.8391,-3.9458,-0.00139716,0.00203729,0.000944647,0.00227997,-0.00163984,1.31934,0.00227314,0.0256064,1868,659,26.8391,3.94579
651,365,26.8961,-3.2063,0,0,0,0,0,0,0,-1,1875,659,26.8961,3.20627
658,365,24.745,-2.13275,0,0,0,0,0,0,0,-1,1882,659,24.745,2.13277
665,365,14.0961,0.769043,0,0,0,0,0,0,0,-1,1889,659,14.0961,-0.769063
672,365,10.0579,2.15088,0,0,0,0,0,0,0,-1,1896,659,10.0579,-2.15088
679,365,10.9718,2.19208,0,0,0,0,0,0,0,-1,1903,659,10.9718,-2.19211
686,365,12.2134,2.17108,0,0,0,0,0,0,0,-1,1910,659,12.2134,-2.17109
693,365,13.7141,1.98279,0,0,0,0,0,0,0,-1,1917,659,13.7141,-1.98278
700,365,0,0,0,0,0,0,0,0,0,-1,1924,659,0,0
707,365,0,0,0,0,0,0,0,0,0,-1,1931,659,0,0
714,365,0,0,0,0,0,0,0,0,0,-1,1938,659,0,0
721,365,0,0,0,0,0,0,0,0,0,-1,1945,659,0,0
728,365,0,0,0,0,0,0,0,0,0,-1,1952,659,0,0
735,365,0,0,0,0,0,0,0,0,0,-1,1959,659,0,0
742,365,0,0,0,0,0,0,0,0,0,-1,1966,659,0,0
749,365,0,0,0,0,0,0,0,0,0,-1,1973,659,0,0
756,365,0,0,0,0,0,0,0,0,0,-1,1980,659,0,0
763,365,0,0,0,0,0,0,0,0,0,-1,1987,659,0,0
770,365,0,0,0,0,0,0,0,0,0,-1,1994,659,0,0
777,365,0,0,0,0,0,0,0,0,0,-1,2001,659,0,0
784,365,0,0,0,0,0,0,0,0,0,-1,2008,659,0,0
791,365,0,0,0,0,0,0,0,0,0,-1,2015,659,0,0
798,365,0,0,0,0,0,0,0,0,0,-1,2022,659,0,0
805,365,0,0,0,0,0,0,0,0,0,-1,2029,659,0,0
812,365,0,0,0,0,0,0,0,0,0,-1,2036,659,0,0
-700,358,0,0,0,0,0,0,0,0,0,-1,524,666,0,0
-693,358,0,0,0,0,0,0,0,0,0,-1,531,666,0,0
-686,358,0,0,0,0,0,0,0,0,0,-1,538,666,0,0
-679,358,0,0,0,0,0,0,0,0,0,-1,545,666,0,0
-672,358,0,0,0,0,0,0,0,0,0,-1,552,666,0,0
-665,358,0,0,0,0,0,0,0,0,0,-1,559,666,0,0
-658,358,0,0,0,0,0,0,0,0,0,-1,566,666,0,0
-651,358,0,0,0,0,0,0,0,0,0,-1,573,666,0,0
-644,358,0,0,0,0,0,0,0,0,0,-1,580,666,0,0
-637,358,0,0,0,0,0,0,0,0,0,-1,587,666,0,0
-630,358,0,0,0,0,0,0,0,0,0,-1,594,666,0,0
-623,358,0,0,0,0,0,0,0,0,0,-1,601,666,0,0
-616,358,0,0,0,0,0,0,0,0,0,-1,608,666,0,0
-609,358,0,0,0,0,0,0,0,0,0,-1,615,666,0,0
-602,358,0,0,0,0,0,0,0,0,0,-1,622,666,0,0
-595,358,0,0,0,0,0,0,0,0,0,-1,629,666,0,0
-588,358,0,0,0,0,0,0,0,0,0,-1,636,666,0,0
-581,358,-8.31616,1.61993,0,0,0,0,0,0,0,-1,643,666,-8.31614,-1.61993
-574,358,-8.22406,1.75385,0,0,0,0,0,0,0,-1,650,666,-8.22408,-1.75383
-567,358,-8.14215,1.91577,0,0,0,0,0,0,0,-1,657,666,-8.14214,-1.91579
-560,358,-10.6086,2.18872,0,0,0,0,0,0,0,-1,664,666,-10.6086,-2.18873
-553,358,-13.4767,1.09552,0,0,0,0,0,0,0,-1,671,666,-13.4767,-1.09551
-546,358,-13.3743,-0.185059,0,0,0,0,0,0,0,-1,678,666,-13.3743,0.185037
-539,358,-9.43884,-2.04785,0,0,0,0,0,0,0,-1,685,666,-9.43884,2.04785
-532,358,-12.4141,-2.36572,0,0,0,0,0,0,0,-1,692,666,-12.4141,2.3657
-525,358,-12.731,-3.88031,0,0,0,0,0,0,0,-1,699,666,-12.731,3.88029
-518,358,-15.704,-5.51508,0,0,0,0,0,0,0,-1,706,666,-15.704,5.51507
-511,358,-15.6941,-6.1662,0.00320634,0.00339774,-0.0021723,0.00547645,0.00112763,-0.807411,0.00333917,0.0173699,713,666,-15.6941,6.16617
-504,358,-15.689,-6.82196,0.00274019,0.00259321,-0.00171759,0.00438586,0.00094754,-0.764017,0.00266482,0.011954,720,666,-15.689,6.82193
-497,358,-15.7033,-7.53223,0.00245406,0.00188145,-0.00134959,0.00354738,0.00078813,-0.680878,0.00215089,0.0119946,727,666,-15.7033,7.53224
-490,358,-15.7432,-8.20465,0.00227878,0.00131239,-0.00109718,0.00299445,0.000596714,-0.577978,0.00183012,0.0119941,734,666,-15.7431,8.20465
-483,358,-15.7813,-8.85394,0.00230162,0.000851871,-0.000927725,0.00275408,0.000399411,-0.453766,0.00171846,0.0110187,741,666,-15.7812,8.85394
-476,358,-15.7543,-9.4834,0.00249861,0.0005275,-0.000904276,0.0028506,0.000175507,-0.371208,0.00184468,0.0140332,748,666,-15.7543,9.48343
-469,358,-15.8132,-10.1406,0.00280562,0.000341564,-0.00100121,0.00316114,-1.39587e-05,-0.341204,0.0021121,0.017858,755,666,-15.8132,10.1406
-462,358,-15.8575,-10.7976,0.00324385,0.000274647,-0.00120202,0.00366946,-0.000150962,-0.340302,0.00249815,0.0193252,762,666,-15.8575,10.7976
-455,358,-15.7878,-11.4976,0.00387323,0.000112275,-0.00146361,0.00437568,-0.000390179,-0.330691,0.0030555,0.0460168,769,666,-15.7879,11.4976
-448,358,-15.6499,-12.4947,0,0,0,0,0,0,0,-1,776,666,-15.6499,12.4947
-441,358,-5.56293,-3.98041,0,0,0,0,0,0,0,-1,783,666,-5.56291,3.98043
-434,358,-5.21558,-4.43127,0,0,0,0,0,0,0,-1,790,666,-5.21559,4.43125
-427,358,-3.56189,-3.15729,0,0,0,0,0,0,0,-1,797,666,-3.56192,3.15729
-420,358,0.200195,1.08234,0,0,0,0,0,0,0,-1,804,666,0.200174,-1.08231
-413,358,0.0325317,0.161072,0,0,0,0,0,0,0,-1,811,666,0.0325501,-0.161098
-406,358,-3.85846,0.753113,0,0,0,0,0,0,0,-1,818,666,-3.85846,-0.753129
-399,358,-1.31213,0.190735,0,0,0,0,0,0,0,-1,825,666,-1.31215,-0.190763
-392,358,-3.73914,-0.832214,0,0,0,0,0,0,0,-1,832,666,-3.73915,0.832202
-385,358,-5.95178,-1.69141,0,0,0,0,0,0,0,-1,839,666,-5.9518,1.69143
-378,358,0,0,0,0,0,0,0,0,0,-1,846,666,0,0
-371,358,0,0,0,0,0,0,0,0,0,-1,853,666,0,0
-364,358,0,0,0,0,0,0,0,0,0,-1,860,666,0,0
-357,358,0,0,0,0,0,0,0,0,0,-1,867,666,0,0
-350,358,0,0,0,0,0,0,0,0,0,-1,874,666,0,0
-343,358,0,0,0,0,0,0,0,0,0,-1,881,666,0,0
-336,358,0,0,0,0,0,0,0,0,0,-1,888,666,0,0
-329,358,0,0,0,0,0,0,0,0,0,-1,895,666,0,0
-322,358,0,0,0,0,0,0,0,0,0,-1,902,666,0,0
-315,358,0,0,0,0,0,0,0,0,0,-1,909,666,0,0
-308,358,0,0,0,0,0,0,0,0,0,-1,916,666,0,0
-301,358,0,0,0,0,0,0,0,0,0,-1,923,666,0,0
-294,358,0,0,0,0,0,0,0,0,0,-1,930,666,0,0
-287,358,0,0,0,0,0,0,0,0,0,-1,937,666,0,0
-280,358,0,0,0,0,0,0,0,0,0,-1,944,666,0,0
-273,358,0,0,0,0,0,0,0,0,0,-1,951,666,0,0
-266,358,0,0,0,0,0,0,0,0,0,-1,958,666,0,0
-259,358,0,0,0,0,0,0,0,0,0,-1,965,666,0,0
-252,358,0,0,0,0,0,0,0,0,0,-1,972,666,0,0
-245,358,0,0,0,0,0,0,0,0,0,-1,979,666,0,0
-238,358,0,0,0,0,0,0,0,0,0,-1,986,666,0,0
-231,358,0,0,0,0,0,0,0,0,0,-1,993,666,0,0
-224,358,0,0,0,0,0,0,0,0,0,-1,1000,666,0,0
-217,358,0,0,0,0,0,0,0,0,0,-1,1007,666,0,0
-210,358,0,0,0,0,0,0,0,0,0,-1,1014,666,0,0
-203,358,0,0,0,0,0,0,0,0,0,-1,1021,666,0,0
-196,358,0,0,0,0,0,0,0,0,0,-1,1028,666,0,0
-189,358,0,0,0,0,0,0,0,0,0,-1,1035,666,0,0
-182,358,0,0,0,0,0,0,0,0,0,-1,1042,666,0,0
-175,358,0,0,0,0,0,0,0,0,0,-1,1049,666,0,0
-168,358,0,0,0,0,0,0,0,0,0,-1,1056,666,0,0
-161,358,0,0,0,0,0,0,0,0,0,-1,1063,666,0,0
-154,358,0,0,0,0,0,0,0,0,0,-1,1070,666,0,0
-147,358,0,0,0,0,0,0,0,0,0,-1,1077,666,0,0
-140,358,0,0,0,0,0,0,0,0,0,-1,1084,666,0,0
-133,358,0,0,0,0,0,0,0,0,0,-1,1091,666,0,0
-126,358,0,0,0,0,0,0,0,0,0,-1,1098,666,0,0
-119,358,0,0,0,0,0,0,0,0,0,-1,1105,666,0,0
-112,358,0,0,0,0,0,0,0,0,0,-1,1112,666,0,0
-105,358,0,0,0,0,0,0,0,0,0,-1,1119,666,0,0
-98,358,0,0,0,0,0,0,0,0,0,-1,1126,666,0,0
-91,358,0,0,0,0,0,0,0,0,0,-1,1133,666,0,0
-84,358,0,0,0,0,0,0,0,0,0,-1,1140,666,0,0
-77,358,0,0,0,0,0,0,0,0,0,-1,1147,666,0,0
-70,358,0,0,0,0,0,0,0,0,0,-1,1154,666,0,0
-63,358,0,0,0,0,0,0,0,0,0,-1,1161,666,0,0
-56,358,0,0,0,0,0,0,0,0,0,-1,1168,666,0,0
-49,358,0,0,0,0,0,0,0,0,0,-1,1175,666,0,0
-42,358,0,0,0,0,0,0,0,0,0,-1,1182,666,0,0
-35,358,0,0,0,0,0,0,0,0,0,-1,1189,666,0,0
-28,358,0,0,0,0,0,0,0,0,0,-1,1196,666,0,0
-21,358,0,0,0,0,0,0,0,0,0,-1,1203,666,0,0
-14,358,0,0,0,0,0,0,0,0,0,-1,1210,666,0,0
-7,358,0,0,0,0,0,0,0,0,0,-1,1217,666,0,0
0,358,0,0,0,0,0,0,0,0,0,-1,1224,666,0,0
7,358,0,0,0,0,0,0,0,0,0,-1,1231,666,0,0
14,358,0,0,0,0,0,0,0,0,0,-1,1238,666,0,0
21,358,0,0,0,0,0,0,0,0,0,-1,1245,666,0,0
28,358,0,0,0,0,0,0,0,0,0,-1,1252,666,0,0
35,358,0,0,0,0,0,0,0,0,0,-1,1259,666,0,0
42,358,0,0,0,0,0,0,0,0,0,-1,1266,666,0,0
49,358,0,0,0,0,0,0,0,0,0,-1,1273,666,0,0
56,358,0,0,0,0,0,0,0,0,0,-1,1280,666,0,0
63,358,0,0,0,0,0,0,0,0,0,-1,1287,666,0,0
70,358,0,0,0,0,0,0,0,0,0,-1,1294,666,0,0
77,358,0,0,0,0,0,0,0,0,0,-1,1301,666,0,0
84,358,0,0,0,0,0,0,0,0,0,-1,1308,666,0,0
91,358,0,0,0,0,0,0,0,0,0,-1,1315,666,0,0
98,358,0,0,0,0,0,0,0,0,0,-1,1322,666,0,0
105,358,0,0,0,0,0,0,0,0,0,-1,1329,666,0,0
112,358,0,0,0,0,0,0,0,0,0,-1,1336,666,0,0
119,358,0,0,0,0,0,0,0,0,0,-1,1343,666,0,0
126,358,0,0,0,0,0,0,0,0,0,-1,1350,666,0,0
133,358,0,0,0,0,0,0,0,0,0,-1,1357,666,0,0
140,358,0,0,0,0,0,0,0,0,0,-1,1364,666,0,0
147,358,0,0,0,0,0,0,0,0,0,-1,1371,666,0,0
154,358,0,0,0,0,0,0,0,0,0,-1,1378,666,0,0
161,358,0,0,0,0,0,0,0,0,0,-1,1385,666,0,0
168,358,0,0,0,0,0,0,0,0,0,-1,1392,666,0,0
175,358,0,0,0,0,0,0,0,0,0,-1,1399,666,0,0
182,358,0,0,0,0,0,0,0,0,0,-1,1406,666,0,0
189,358,0,0,0,0,0,0,0,0,0,-1,1413,666,0,0
196,358,0,0,0,0,0,0,0,0,0,-1,1420,666,0,0
203,358,0,0,0,0,0,0,0,0,0,-1,1427,666,0,0
210,358,0,0,0,0,0,0,0,0,0,-1,1434,666,0,0
217,358,0,0,0,0,0,0,0,0,0,-1,1441,666,0,0
224,358,0,0,0,0,0,0,0,0,0,-1,1448,666,0,0
231,358,0,0,0,0,0,0,0,0,0,-1,1455,666,0,0
238,358,0,0,0,0,0,0,0,0,0,-1,1462,666,0,0
245,358,0,0,0,0,0,0,0,0,0,-1,1469,666,0,0
252,358,0,0,0,0,0,0,0,0,0,-1,1476,666,0,0
259,358,0,0,0,0,0,0,0,0,0,-1,1483,666,0,0
266,358,0,0,0,0,0,0,0,0,0,-1,1490,666,0,0
273,358,0,0,0,0,0,0,0,0,0,-1,1497,666,0,0
280,358,0,0,0,0,0,0,0,0,0,-1,1504,666,0,0
287,358,0,0,0,0,0,0,0,0,0,-1,1511,666,0,0
294,358,0,0,0,0,0,0,0,0,0,-1,1518,666,0,0
301,358,0,0,0,0,0,0,0,0,0,-1,1525,666,0,0
308,358,0,0,0,0,0,0,0,0,0,-1,1532,666,0,0
315,358,0,0,0,0,0,0,0,0,0,-1,1539,666,0,0
322,358,0,0,0,0,0,0,0,0,0,-1,1546,666,0,0
329,358,0,0,0,0,0,0,0,0,0,-1,1553,666,0,0
336,358,0,0,0,0,0,0,0,0,0,-1,1560,666,0,0
343,358,0,0,0,0,0,0,0,0,0,-1,1567,666,0,0
350,358,0,0,0,0,0,0,0,0,0,-1,1574,666,0,0
357,358,0,0,0,0,0,0,0,0,0,-1,1581,666,0,0
364,358,0,0,0,0,0,0,0,0,0,-1,1588,666,0,0
371,358,0,0,0,0,0,0,0,0,0,-1,1595,666,0,0
378,358,0,0,0,0,0,0,0,0,0,-1,1602,666,0,0
385,358,0,0,0,0,0,0,0,0,0,-1,1609,666,0,0
392,358,0,0,0,0,0,0,0,0,0,-1,1616,666,0,0
399,358,0,0,0,0,0,0,0,0,0,-1,1623,666,0,0
406,358,0,0,0,0,0,0,0,0,0,-1,1630,666,0,0
413,358,0,0,0,0,0,0,0,0,0,-1,1637,666,0,0
420,358,0,0,0,0,0,0,0,0,0,-1,1644,666,0,0
427,358,0,0,0,0,0,0,0,0,0,-1,1651,666,0,0
434,358,0,0,0,0,0,0,0,0,0,-1,1658,666,0,0
441,358,0,0,0,0,0,0,0,0,0,-1,1665,666,0,0
448,358,0,0,0,0,0,0,0,0,0,-1,1672,666,0,0
455,358,0,0,0,0,0,0,0,0,0,-1,1679,666,0,0
462,358,0,0,0,0,0,0,0,0,0,-1,1686,666,0,0
469,358,0,0,0,0,0,0,0,0,0,-1,1693,666,0,0
476,358,0,0,0,0,0,0,0,0,0,-1,1700,666,0,0
483,358,0,0,0,0,0,0,0,0,0,-1,1707,666,0,0
490,358,0,0,0,0,0,0,0,0,0,-1,1714,666,0,0
497,358,8.57239,1.1322,0,0,0,0,0,0,0,-1,1721,666,8.57234,-1.13219
504,358,10.5972,0.832947,0,0,0,0,0,0,0,-1,1728,666,10.5972,-0.832968
511,358,10.6873,0.868469,0,0,0,0,0,0,0,-1,1735,666,10.6872,-0.868484
518,358,16.5884,2.34894,0,0,0,0,0,0,0,-1,1742,666,16.5884,-2.34894
525,358,15.7626,3.65344,0,0,0,0,0,0,0,-1,1749,666,15.7626,-3.65342
532,358,14.9368,4.95789,0,0,0,0,0,0,0,-1,1756,666,14.9367,-4.9579
539,358,15.1597,3.42694,0,0,0,0,0,0,0,-1,1763,666,15.1597,-3.42692
546,358,12.3792,1.53558,0,0,0,0,0,0,0,-1,1770,666,12.3792,-1.5356
553,358,11.6584,1.26172,0,0,0,0,0,0,0,-1,1777,666,11.6585,-1.26175
560,358,10.8234,1.43042,0,0,0,0,0,0,0,-1,1784,666,10.8233,-1.43041
567,358,10.1333,-0.955139,0,0,0,0,0,0,0,-1,1791,666,10.1333,0.955132
574,358,14.7886,-2.69293,0,0,0,0,0,0,0,-1,1798,666,14.7885,2.6929
581,358,20.1738,-6.76135,0,0,0,0,0,0,0,-1,1805,666,20.1738,6.76137
588,358,27.6,-9.48492,0,0,0,0,0,0,0,-1,1812,666,27.5999,9.48493
595,358,27.6558,-8.71558,0.00116597,-1.79222e-05,-0.00038265,0.00127888,-0.000130832,-0.28693,0.000899374,0.0171962,1819,666,27.6557,8.71558
602,358,27.6156,-7.95972,0.00126714,0.000284095,-0.000144241,0.00128787,0.000263368,-0.142722,0.000785644,0.0132993,1826,666,27.6156,7.95969
609,358,27.5547,-7.27448,0.00152712,0.000647256,0.000231675,0.00158439,0.000589982,0.242357,0.000924629,0.0172995,1833,666,27.5547,7.27447
616,358,27.5481,-6.6192,0.00160414,0.000955793,0.000522445,0.00189482,0.00066512,0.507721,0.00111004,0.0162959,1840,666,27.5481,6.61919
623,358,27.578,-5.96423,0.00144774,0.00122294,0.000763649,0.00210722,0.000563462,0.712327,0.00125972,0.0136815,1847,666,27.5781,5.96422
630,358,27.5389,-5.27954,0.000840965,0.00141765,0.000866123,0.00204216,0.000216448,0.946083,0.00129534,0.0161546,1854,666,27.5389,5.27954
637,358,27.4979,-4.59448,-0.000140996,0.00151638,0.00078277,0.00182763,-0.000452243,1.19234,0.00139384,0.023574,1861,666,27.4979,4.59448
644,358,27.4906,-3.92572,-0.00171564,0.00147347,0.000469205,0.00154107,-0.00178324,1.42771,0.00192099,0.020151,1868,666,27.4906,3.92573
651,358,27.6238,-3.11108,-0.00403618,0.00124713,-0.000132888,0.00125047,-0.00403952,-1.54567,0.00319254,0.0433178,1875,666,27.6238,3.11111
658,358,27.3815,-2.211,0,0,0,0,0,0,0,-1,1882,666,27.3814,2.21099
665,358,26.5625,-1.62854,0,0,0,0,0,0,0,-1,1889,666,26.5625,1.62854
672,358,12.4299,1.47272,0,0,0,0,0,0,0,-1,1896,666,12.4299,-1.4727
679,358,12.1294,2.19702,0,0,0,0,0,0,0,-1,1903,666,12.1294,-2.19703
686,358,11.9557,2.2002,0,0,0,0,0,0,0,-1,1910,666,11.9557,-2.20021
693,358,13.188,2.52203,0,0,0,0,0,0,0,-1,1917,666,13.188,-2.52202
700,358,0,0,0,0,0,0,0,0,0,-1,1924,666,0,0
707,358,0,0,0,0,0,0,0,0,0,-1,1931,666,0,0
714,358,0,0,0,0,0,0,0,0,0,-1,1938,666,0,0
721,358,0,0,0,0,0,0,0,0,0,-1,1945,666,0,0
728,358,0,0,0,0,0,0,0,0,0,-1,1952,666,0,0
735,358,0,0,0,0,0,0,0,0,0,-1,1959,666,0,0
742,358,0,0,0,0,0,0,0,0,0,-1,1966,666,0,0
749,358,0,0,0,0,0,0,0,0,0,-1,1973,666,0,0
756,358,0,0,0,0,0,0,0,0,0,-1,1980,666,0,0
763,358,0,0,0,0,0,0,0,0,0,-1,1987,666,0,0
770,358,0,0,0,0,0,0,0,0,0,-1,1994,666,0,0
777,358,0,0,0,0,0,0,0,0,0,-1,2001,666,0,0
784,358,0,0,0,0,0,0,0,0,0,-1,2008,666,0,0
791,358,0,0,0,0,0,0,0,0,0,-1,2015,666,0,0
798,358,0,0,0,0,0,0,0,0,0,-1,2022,666,0,0
805,358,0,0,0,0,0,0,0,0,0,-1,2029,666,0,0
812,358,0,0,0,0,0,0,0,0,0,-1,2036,666,0,0
-700,351,0,0,0,0,0,0,0,0,0,-1,524,673,0,0
-693,351,0,0,0,0,0,0,0,0,0,-1,531,673,0,0
-686,351,0,0,0,0,0,0,0,0,0,-1,538,673,0,0
-679,351,0,0,0,0,0,0,0,0,0,-1,545,673,0,0
-672,351,0,0,0,0,0,0,0,0,0,-1,552,673,0,0
-665,351,0,0,0,0,0,0,0,0,0,-1,559,673,0,0
-658,351,0,0,0,0,0,0,0,0,0,-1,566,673,0,0
-651,351,0,0,0,0,0,0,0,0,0,-1,573,673,0,0
-644,351,0,0,0,0,0,0,0,0,0,-1,580,673,0,0
-637,351,0,0,0,0,0,0,0,0,0,-1,587,673,0,0
-630,351,0,0,0,0,0,0,0,0,0,-1,594,673,0,0
-623,351,0,0,0,0,0,0,0,0,0,-1,601,673,0,0
-616,351,0,0,0,0,0,0,0,0,0,-1,608,673,0,0
-609,351,0,0,0,0,0,0,0,0,0,-1,615,673,0,0
-602,351,0,0,0,0,0,0,0,0,0,-1,622,673,0,0
-595,351,0,0,0,0,0,0,0,0,0,-1,629,673,0,0
-588,351,0,0,0,0,0,0,0,0,0,-1,636,673,0,0
-581,351,-9.0647,1.71906,0,0,0,0,0,0,0,-1,643,673,-9.06472,-1.71908
-574,351,-8.23584,2.64764,0,0,0,0,0,0,0,-1,650,673,-8.23584,-2.64764
-567,351,-10.8027,4.56836,0,0,0,0,0,0,0,-1,657,673,-10.8027,-4.56839
-560,351,-14.2001,2.17084,0,0,0,0,0,0,0,-1,664,673,-14.2002,-2.17086
-553,351,-13.4979,0.779541,0,0,0,0,0,0,0,-1,671,673,-13.4978,-0.779519
-546,351,-14.0065,0.73645,0,0,0,0,0,0,0,-1,678,673,-14.0065,-0.736473
-539,351,-12.8123,-1.46393,0,0,0,0,0,0,0,-1,685,673,-12.8123,1.46395
-532,351,-16.0198,-4.03937,0,0,0,0,0,0,0,-1,692,673,-16.0198,4.03936
-525,351,-16.4098,-4.54852,0,0,0,0,0,0,0,-1,699,673,-16.4098,4.54854
-518,351,-16.3484,-5.44592,0.00346882,0.00344635,-0.00196177,0.00541938,0.00149578,-0.782535,0.00323185,0.0210727,706,673,-16.3484,5.44593
-511,351,-16.3289,-6.13934,0.00296233,0.00263413,-0.00158426,0.00439097,0.00120549,-0.733791,0.00261963,0.0117322,713,673,-16.3289,6.13933
-504,351,-16.3538,-6.81525,0.00258205,0.00190255,-0.00121544,0.00350433,0.00098027,-0.649114,0.00208764,0.0112798,720,673,-16.3537,6.81525
-497,351,-16.3817,-7.49329,0.00237157,0.00128388,-0.000927542,0.00290295,0.0007525,-0.520244,0.00173959,0.0110416,727,673,-16.3817,7.4933
-490,351,-16.4185,-8.15771,0.00226269,0.000810272,-0.000750986,0.00258116,0.0004918,-0.401085,0.00158252,0.0105212,734,673,-16.4184,8.15774
-483,351,-16.4436,-8.80164,0.00236424,0.000463777,-0.000668473,0.00257582,0.000252201,-0.30653,0.00163962,0.0126762,741,673,-16.4436,8.80161
-476,351,-16.4805,-9.44989,0.00262349,0.000264922,-0.000735219,0.0028339,5.45089e-05,-0.27874,0.00187136,0.0123235,748,673,-16.4805,9.44988
-469,351,-16.5002,-10.086,0.00303941,0.000252487,-0.000977194,0.0033479,-5.60052e-05,-0.30579,0.00225083,0.0147097,755,673,-16.5002,10.086
-462,351,-16.4872,-10.7911,0.00365912,0.000386397,-0.00136996,0.00415688,-0.000111361,-0.348507,0.00280911,0.0327973,762,673,-16.4873,10.7911
-455,351,-16.2448,-11.6202,0,0,0,0,0,0,0,-1,769,673,-16.2448,11.6202
-448,351,-6.61456,-4.38654,0,0,0,0,0,0,0,-1,776,673,-6.61456,4.38654
-441,351,-4.31567,-2.3009,0,0,0,0,0,0,0,-1,783,673,-4.31565,2.30089
-434,351,-3.81708,-2.28003,0,0,0,0,0,0,0,-1,790,673,-3.81706,2.28006
-427,351,-2.05157,-2.7785,0,0,0,0,0,0,0,-1,797,673,-2.05157,2.77848
-420,351,-1.06989,-2.43665,0,0,0,0,0,0,0,-1,804,673,-1.06991,2.43663
-413,351,-0.392334,-2.06671,0,0,0,0,0,0,0,-1,811,673,-0.392363,2.06672
-406,351,-1.86316,-2.58105,0,0,0,0,0,0,0,-1,818,673,-1.86313,2.58106
-399,351,1.00952,-1.53455,0,0,0,0,0,0,0,-1,825,673,1.00954,1.53457
-392,351,-1.02197,0.877136,0,0,0,0,0,0,0,-1,832,673,-1.02195,-0.877143
-385,351,-1.47205,1.04437,0,0,0,0,0,0,0,-1,839,673,-1.47207,-1.04435
-378,351,0,0,0,0,0,0,0,0,0,-1,846,673,0,0
-371,351,0,0,0,0,0,0,0,0,0,-1,853,673,0,0
-364,351,0,0,0,0,0,0,0,0,0,-1,860,673,0,0
-357,351,0,0,0,0,0,0,0,0,0,-1,867,673,0,0
-350,351,0,0,0,0,0,0,0,0,0,-1,874,673,0,0
-343,351,0,0,0,0,0,0,0,0,0,-1,881,673,0,0
-336,351,0,0,0,0,0,0,0,0,0,-1,888,673,0,0
-329,351,0,0,0,0,0,0,0,0,0,-1,895,673,0,0
-322,351,0,0,0,0,0,0,0,0,0,-1,902,673,0,0
-315,351,0,0,0,0,0,0,0,0,0,-1,909,673,0,0
-308,351,0,0,0,0,0,0,0,0,0,-1,916,673,0,0
-301,351,0,0,0,0,0,0,0,0,0,-1,923,673,0,0
-294,351,0,0,0,0,0,0,0,0,0,-1,930,673,0,0
-287,351,0,0,0,0,0,0,0,0,0,-1,937,673,0,0
-280,351,0,0,0,0,0,0,0,0,0,-1,944,673,0,0
-273,351,0,0,0,0,0,0,0,0,0,-1,951,673,0,0
-266,351,0,0,0,0,0,0,0,0,0,-1,958,673,0,0
-259,351,0,0,0,0,0,0,0,0,0,-1,965,673,0,0
-252,351,0,0,0,0,0,0,0,0,0,-1,972,673,0,0
-245,351,0,0,0,0,0,0,0,0,0,-1,979,673,0,0
-238,351,0,0,0,0,0,0,0,0,0,-1,986,673,0,0
-231,351,0,0,0,0,0,0,0,0,0,-1,993,673,0,0
-224,351,0,0,0,0,0,0,0,0,0,-1,1000,673,0,0
-217,351,0,0,0,0,0,0,0,0,0,-1,1007,673,0,0
-210,351,0,0,0,0,0,0,0,0,0,-1,1014,673,0,0
-203,351,0,0,0,0,0,0,0,0,0,-1,1021,673,0,0
-196,351,0,0,0,0,0,0,0,0,0,-1,1028,673,0,0
-189,351,0,0,0,0,0,0,0,0,0,-1,1035,673,0,0
-182,351,0,0,0,0,0,0,0,0,0,-1,1042,673,0,0
-175,351,0,0,0,0,0,0,0,0,0,-1,1049,673,0,0
-168,351,0,0,0,0,0,0,0,0,0,-1,1056,673,0,0
-161,351,0,0,0,0,0,0,0,0,0,-1,1063,673,0,0
-154,351,0,0,0,0,0,0,0,0,0,-1,1070,673,0,0
-147,351,0,0,0,0,0,0,0,0,0,-1,1077,673,0,0
-140,351,0,0,0,0,0,0,0,0,0,-1,1084,673,0,0
-133,351,0,0,0,0,0,0,0,0,0,-1,1091,673,0,0
-126,351,0,0,0,0,0,0,0,0,0,-1,1098,673,0,0
-119,351,0,0,0,0,0,0,0,0,0,-1,1105,673,0,0
-112,351,0,0,0,0,0,0,0,0,0,-1,1112,673,0,0
-105,351,0,0,0,0,0,0,0,0,0,-1,1119,673,0,0
-98,351,0,0,0,0,0,0,0,0,0,-1,1126,673,0,0
-91,351,0,0,0,0,0,0,0,0,0,-1,1133,673,0,0
-84,351,0,0,0,0,0,0,0,0,0,-1,1140,673,0,0
-77,351,0,0,0,0,0,0,0,0,0,-1,1147,673,0,0
-70,351,0,0,0,0,0,0,0,0,0,-1,1154,673,0,0
-63,351,0,0,0,0,0,0,0,0,0,-1,1161,673,0,0
-56,351,0,0,0,0,0,0,0,0,0,-1,1168,673,0,0
-49,351,0,0,0,0,0,0,0,0,0,-1,1175,673,0,0
-42,351,0,0,0,0,0,0,0,0,0,-1,1182,673,0,0
-35,351,0,0,0,0,0,0,0,0,0,-1,1189,673,0,0
-28,351,0,0,0,0,0,0,0,0,0,-1,1196,673,0,0
-21,351,0,0,0,0,0,0,0,0,0,-1,1203,673,0,0
-14,351,0,0,0,0,0,0,0,0,0,-1,1210,673,0,0
-7,351,0,0,0,0,0,0,0,0,0,-1,1217,673,0,0
0,351,0,0,0,0,0,0,0,0,0,-1,1224,673,0,0
7,351,0,0,0,0,0,0,0,0,0,-1,1231,673,0,0
14,351,0,0,0,0,0,0,0,0,0,-1,1238,673,0,0
21,351,0,0,0,0,0,0,0,0,0,-1,1245,673,0,0
28,351,0,0,0,0,0,0,0,0,0,-1,1252,673,0,0
35,351,0,0,0,0,0,0,0,0,0,-1,1259,673,0,0
42,351,0,0,0,0,0,0,0,0,0,-1,1266,673,0,0
49,351,0,0,0,0,0,0,0,0,0,-1,1273,673,0,0
56,351,0,0,0,0,0,0,0,0,0,-1,1280,673,0,0
63,351,0,0,0,0,0,0,0,0,0,-1,1287,673,0,0
70,351,0,0,0,0,0,0,0,0,0,-1,1294,673,0,0
77,351,0,0,0,0,0,0,0,0,0,-1,1301,673,0,0
84,351,0,0,0,0,0,0,0,0,0,-1,1308,673,0,0
91,351,0,0,0,0,0,0,0,0,0,-1,1315,673,0,0
98,351,0,0,0,0,0,0,0,0,0,-1,1322,673,0,0
105,351,0,0,0,0,0,0,0,0,0,-1,1329,673,0,0
112,351,0,0,0,0,0,0,0,0,0,-1,1336,673,0,0
119,351,0,0,0,0,0,0,0,0,0,-1,1343,673,0,0
126,351,0,0,0,0,0,0,0,0,0,-1,1350,673,0,0
133,351,0,0,0,0,0,0,0,0,0,-1,1357,673,0,0
140,351,0,0,0,0,0,0,0,0,0,-1,1364,673,0,0
147,351,0,0,0,0,0,0,0,0,0,-1,1371,673,0,0
154,351,0,0,0,0,0,0,0,0,0,-1,1378,673,0,0
161,351,0,0,0,0,0,0,0,0,0,-1,1385,673,0,0
168,351,0,0,0,0,0,0,0,0,0,-1,1392,673,0,0
175,351,0,0,0,0,0,0,0,0,0,-1,1399,673,0,0
182,351,0,0,0,0,0,0,0,0,0,-1,1406,673,0,0
189,351,0,0,0,0,0,0,0,0,0,-1,1413,673,0,0
196,351,0,0,0,0,0,0,0,0,0,-1,1420,673,0,0
203,351,0,0,0,0,0,0,0,0,0,-1,1427,673,0,0
210,351,0,0,0,0,0,0,0,0,0,-1,1434,673,0,0
217,351,0,0,0,0,0,0,0,0,0,-1,1441,673,0,0
224,351,0,0,0,0,0,0,0,0,0,-1,1448,673,0,0
231,351,0,0,0,0,0,0,0,0,0,-1,1455,673,0,0
238,351,0,0,0,0,0,0,0,0,0,-1,1462,673,0,0
245,351,0,0,0,0,0,0,0,0,0,-1,1469,673,0,0
252,351,0,0,0,0,0,0,0,0,0,-1,1476,673,0,0
259,351,0,0,0,0,0,0,0,0,0,-1,1483,673,0,0
266,351,0,0,0,0,0,0,0,0,0,-1,1490,673,0,0
273,351,0,0,0,0,0,0,0,0,0,-1,1497,673,0,0
280,351,0,0,0,0,0,0,0,0,0,-1,1504,673,0,0
287,351,0,0,0,0,0,0,0,0,0,-1,1511,673,0,0
294,351,0,0,0,0,0,0,0,0,0,-1,1518,673,0,0
301,351,0,0,0,0,0,0,0,0,0,-1,1525,673,0,0
308,351,0,0,0,0,0,0,0,0,0,-1,1532,673,0,0
315,351,0,0,0,0,0,0,0,0,0,-1,1539,673,0,0
322,351,0,0,0,0,0,0,0,0,0,-1,1546,673,0,0
329,351,0,0,0,0,0,0,0,0,0,-1,1553,673,0,0
336,351,0,0,0,0,0,0,0,0,0,-1,1560,673,0,0
343,351,0,0,0,0,0,0,0,0,0,-1,1567,673,0,0
350,351,0,0,0,0,0,0,0,0,0,-1,1574,673,0,0
357,351,0,0,0,0,0,0,0,0,0,-1,1581,673,0,0
364,351,0,0,0,0,0,0,0,0,0,-1,1588,673,0,0
371,351,0,0,0,0,0,0,0,0,0,-1,1595,673,0,0
378,351,0,0,0,0,0,0,0,0,0,-1,1602,673,0,0
385,351,0,0,0,0,0,0,0,0,0,-1,1609,673,0,0
392,351,0,0,0,0,0,0,0,0,0,-1,1616,673,0,0
399,351,0,0,0,0,0,0,0,0,0,-1,1623,673,0,0
406,351,0,0,0,0,0,0,0,0,0,-1,1630,673,0,0
413,351,0,0,0,0,0,0,0,0,0,-1,1637,673,0,0
420,351,0,0,0,0,0,0,0,0,0,-1,1644,673,0,0
427,351,0,0,0,0,0,0,0,0,0,-1,1651,673,0,0
434,351,0,0,0,0,0,0,0,0,0,-1,1658,673,0,0
441,351,0,0,0,0,0,0,0,0,0,-1,1665,673,0,0
448,351,0,0,0,0,0,0,0,0,0,-1,1672,673,0,0
455,351,0,0,0,0,0,0,0,0,0,-1,1679,673,0,0
462,351,0,0,0,0,0,0,0,0,0,-1,1686,673,0,0
469,351,0,0,0,0,0,0,0,0,0,-1,1693,673,0,0
476,351,0,0,0,0,0,0,0,0,0,-1,1700,673,0,0
483,351,0,0,0,0,0,0,0,0,0,-1,1707,673,0,0
490,351,0,0,0,0,0,0,0,0,0,-1,1714,673,0,0
497,351,0,0,0,0,0,0,0,0,0,-1,1721,673,0,0
504,351,10.8842,1.61615,0,0,0,0,0,0,0,-1,1728,673,10.8842,-1.61618
511,351,15.4548,0.0236816,0,0,0,0,0,0,0,-1,1735,673,15.4549,-0.0236664
518,351,16.7448,2.49268,0,0,0,0,0,0,0,-1,1742,673,16.7448,-2.49269
525,351,16.0701,3.43225,0,0,0,0,0,0,0,-1,1749,673,16.07,-3.43227
532,351,32.3822,3.03021,0,0,0,0,0,0,0,-1,1756,673,32.3822,-3.03019
539,351,15.3387,3.54486,0,0,0,0,0,0,0,-1,1763,673,15.3387,-3.54485
546,351,13.9387,4.59357,0,0,0,0,0,0,0,-1,1770,673,13.9388,-4.59359
553,351,12.0682,2.02832,0,0,0,0,0,0,0,-1,1777,673,12.0683,-2.02831
560,351,12.0173,0.55304,0,0,0,0,0,0,0,-1,1784,673,12.0174,-0.553028
567,351,10.7827,0.130188,0,0,0,0,0,0,0,-1,1791,673,10.7827,-0.130183
574,351,13.405,-1.09204,0,0,0,0,0,0,0,-1,1798,673,13.405,1.09207
581,351,15.2351,-3.06049,0,0,0,0,0,0,0,-1,1805,673,15.2351,3.06046
588,351,27.8502,-9.26318,0,0,0,0,0,0,0,-1,1812,673,27.8503,9.2632
595,351,28.329,-8.70734,0,0,0,0,0,0,0,-1,1819,673,28.329,8.70736
602,351,28.3033,-7.96887,0.00120943,0.00012527,-0.000288404,0.00128138,5.3325e-05,-0.244471,0.000837044,0.0191897,1826,673,28.3033,7.96889
609,351,28.3096,-7.30182,0.00149212,0.000389492,3.13889e-05,0.00149302,0.000388599,0.0284365,0.000894408,0.0183932,1833,673,28.3096,7.30182
616,351,28.2637,-6.6236,0.00159379,0.000660626,0.000335436,0.00170185,0.000552563,0.311657,0.00100249,0.0150363,1840,673,28.2637,6.62359
623,351,28.286,-5.9516,0.00135291,0.000840267,0.000497168,0.00165594,0.000537235,0.547387,0.000975509,0.015021,1847,673,28.286,5.95161
630,351,28.259,-5.27887,0.00069998,0.000979803,0.000558219,0.00141538,0.000264406,0.908188,0.000868963,0.023359,1854,673,28.2591,5.27886
637,351,28.2344,-4.52301,-0.000304466,0.00106469,0.00044833,0.00119844,-0.000438207,1.28089,0.000978306,0.0277123,1861,673,28.2344,4.52298
644,351,28.1681,-3.84723,-0.0018285,0.0010236,0.000140225,0.00103048,-0.00183538,1.52179,0.00167622,0.0212505,1868,673,28.1681,3.84725
651,351,28.1783,-3.12317,-0.00397507,0.000876573,-0.000399368,0.000909228,-0.00400772,-1.48921,0.00302085,0.0174363,1875,673,28.1783,3.12317
658,351,28.1002,-2.38031,-0.00699127,0.000599536,-0.00136388,0.000837155,-0.00722889,-1.39831,0.00512117,0.0362479,1882,673,28.1003,2.38029
665,351,27.6331,-1.95013,-0.0109594,5.46028e-05,-0.00259192,0.000634072,-0.0115389,-1.35085,0.00791242,0.0481548,1889,673,27.6331,1.95016
672,351,27.3306,-1.25446,0,0,0,0,0,0,0,-1,1896,673,27.3306,1.25447
679,351,14.1252,1.85681,0,0,0,0,0,0,0,-1,1903,673,14.1253,-1.85682
686,351,13.0294,2.1189,0,0,0,0,0,0,0,-1,1910,673,13.0294,-2.11892
693,351,13.5187,2.34595,0,0,0,0,0,0,0,-1,1917,673,13.5187,-2.34596
700,351,14.5629,-2.40173,0,0,0,0,0,0,0,-1,1924,673,14.5629,2.40172
707,351,0,0,0,0,0,0,0,0,0,-1,1931,673,0,0
714,351,0,0,0,0,0,0,0,0,0,-1,1938,673,0,0
721,351,0,0,0,0,0,0,0,0,0,-1,1945,673,0,0
728,351,0,0,0,0,0,0,0,0,0,-1,1952,673,0,0
735,351,0,0,0,0,0,0,0,0,0,-1,1959,673,0,0
742,351,0,0,0,0,0,0,0,0,0,-1,1966,673,0,0
749,351,0,0,0,0,0,0,0,0,0,-1,1973,673,0,0
756,351,0,0,0,0,0,0,0,0,0,-1,1980,673,0,0
763,351,0,0,0,0,0,0,0,0,0,-1,1987,673,0,0
770,351,0,0,0,0,0,0,0,0,0,-1,1994,673,0,0
777,351,0,0,0,0,0,0,0,0,0,-1,2001,673,0,0
784,351,0,0,0,0,0,0,0,0,0,-1,2008,673,0,0
791,351,0,0,0,0,0,0,0,0,0,-1,2015,673,0,0
798,351,0,0,0,0,0,0,0,0,0,-1,2022,673,0,0
805,351,0,0,0,0,0,0,0,0,0,-1,2029,673,0,0
812,351,0,0,0,0,0,0,0,0,0,-1,2036,673,0,0
-700,344,0,0,0,0,0,0,0,0,0,-1,524,680,0,0
-693,344,0,0,0,0,0,0,0,0,0,-1,531,680,0,0
-686,344,0,0,0,0,0,0,0,0,0,-1,538,680,0,0
-679,344,0,0,0,0,0,0,0,0,0,-1,545,680,0,0
-672,344,0,0,0,0,0,0,0,0,0,-1,552,680,0,0
-665,344,0,0,0,0,0,0,0,0,0,-1,559,680,0,0
-658,344,0,0,0,0,0,0,0,0,0,-1,566,680,0,0
-651,344,0,0,0,0,0,0,0,0,0,-1,573,680,0,0
-644,344,0,0,0,0,0,0,0,0,0,-1,580,680,0,0
-637,344,0,0,0,0,0,0,0,0,0,-1,587,680,0,0
-630,344,0,0,0,0,0,0,0,0,0,-1,594,680,0,0
-623,344,0,0,0,0,0,0,0,0,0,-1,601,680,0,0
-616,344,0,0,0,0,0,0,0,0,0,-1,608,680,0,0
-609,344,0,0,0,0,0,0,0,0,0,-1,615,680,0,0
-602,344,0,0,0,0,0,0,0,0,0,-1,622,680,0,0
-595,344,0,0,0,0,0,0,0,0,0,-1,629,680,0,0
-588,344,-9.27826,1.47302,0,0,0,0,0,0,0,-1,636,680,-9.27829,-1.473
-581,344,-10.0098,1.71753,0,0,0,0,0,0,0,-1,643,680,-10.0098,-1.7175
-574,344,-10.2208,3.04871,0,0,0,0,0,0,0,-1,650,680,-10.2208,-3.04869
-567,344,-14.3779,2.29016,0,0,0,0,0,0,0,-1,657,680,-14.3779,-2.29014
-560,344,-14.1238,1.8374,0,0,0,0,0,0,0,-1,664,680,-14.1238,-1.83743
-553,344,-14.7884,2.00116,0,0,0,0,0,0,0,-1,671,680,-14.7884,-2.00115
-546,344,-17.4192,0.157654,0,0,0,0,0,0,0,-1,678,680,-17.4192,-0.157635
-539,344,-17.0298,-3.03149,0,0,0,0,0,0,0,-1,685,680,-17.0299,3.03149
-532,344,-16.9991,-3.92908,0,0,0,0,0,0,0,-1,692,680,-16.9992,3.9291
-525,344,-17.0767,-4.68036,0.00372922,0.0037586,-0.00172351,0.00546748,0.00202033,-0.789659,0.00319228,0.0461844,699,680,-17.0766,4.68034
-518,344,-17.0094,-5.46338,0.00318271,0.00281889,-0.00142339,0.00443577,0.00156583,-0.721841,0.00259762,0.0194152,706,680,-17.0094,5.46339
-511,344,-17.0036,-6.12201,0.00272122,0.00199321,-0.00109165,0.00350795,0.00120648,-0.624472,0.00205794,0.0161898,713,680,-17.0036,6.12202
-504,344,-17.0186,-6.80743,0.00239879,0.00126401,-0.000786492,0.0028012,0.000861605,-0.472919,0.00165671,0.0173968,720,680,-17.0185,6.80744
-497,344,-17.058,-7.49475,0.00223858,0.000684348,-0.000561094,0.00241997,0.000502957,-0.312677,0.00147453,0.0164412,727,680,-17.058,7.49473
-490,344,-17.0977,-8.14557,0.00218197,0.000251184,-0.000442244,0.00227845,0.000154709,-0.214784,0.00147011,0.0146782,734,680,-17.0976,8.14559
-483,344,-17.0996,-8.76306,0.00234107,-2.16057e-05,-0.000435209,0.00241868,-9.92223e-05,-0.176488,0.00164653,0.0144426,741,680,-17.0996,8.76304
-476,344,-17.1287,-9.41016,0.00263691,-0.000122498,-0.00058326,0.00275513,-0.000240718,-0.199978,0.00192203,0.0157322,748,680,-17.1287,9.41018
-469,344,-17.1403,-10.1011,0.00318088,6.71523e-05,-0.00100849,0.00347898,-0.000230942,-0.287402,0.00240001,0.0206794,755,680,-17.1403,10.1011
-462,344,-17.0774,-10.8209,0,0,0,0,0,0,0,-1,762,680,-17.0774,10.8209
-455,344,-12.1653,-7.99176,0,0,0,0,0,0,0,-1,769,680,-12.1653,7.99174
-448,344,-5.67657,-2.72864,0,0,0,0,0,0,0,-1,776,680,-5.6766,2.72863
-441,344,-5.09229,-2.34167,0,0,0,0,0,0,0,-1,783,680,-5.09229,2.34168
-434,344,-4.28778,-2.08807,0,0,0,0,0,0,0,-1,790,680,-4.28778,2.08809
-427,344,-3.06506,-1.45404,0,0,0,0,0,0,0,-1,797,680,-3.06505,1.45402
-420,344,-1.96582,-1.57574,0,0,0,0,0,0,0,-1,804,680,-1.96579,1.57574
-413,344,-0.817993,-1.4751,0,0,0,0,0,0,0,-1,811,680,-0.818017,1.47511
-406,344,-0.00714111,-1.25189,0,0,0,0,0,0,0,-1,818,680,-0.00714956,1.25191
-399,344,0.240051,-1.75769,0,0,0,0,0,0,0,-1,825,680,0.240079,1.75767
-392,344,1.11353,-2.05615,0,0,0,0,0,0,0,-1,832,680,1.11351,2.05616
-385,344,0,0,0,0,0,0,0,0,0,-1,839,680,0,0
-378,344,0,0,0,0,0,0,0,0,0,-1,846,680,0,0
-371,344,0,0,0,0,0,0,0,0,0,-1,853,680,0,0
-364,344,0,0,0,0,0,0,0,0,0,-1,860,680,0,0
-357,344,0,0,0,0,0,0,0,0,0,-1,867,680,0,0
-350,344,0,0,0,0,0,0,0,0,0,-1,874,680,0,0
-343,344,0,0,0,0,0,0,0,0,0,-1,881,680,0,0
-336,344,0,0,0,0,0,0,0,0,0,-1,888,680,0,0
-329,344,0,0,0,0,0,0,0,0,0,-1,895,680,0,0
-322,344,0,0,0,0,0,0,0,0,0,-1,902,680,0,0
-315,344,0,0,0,0,0,0,0,0,0,-1,909,680,0,0
-308,344,0,0,0,0,0,0,0,0,0,-1,916,680,0,0
-301,344,0,0,0,0,0,0,0,0,0,-1,923,680,0,0
-294,344,0,0,0,0,0,0,0,0,0,-1,930,680,0,0
-287,344,0,0,0,0,0,0,0,0,0,-1,937,680,0,0
-280,344,0,0,0,0,0,0,0,0,0,-1,944,680,0,0
-273,344,0,0,0,0,0,0,0,0,0,-1,951,680,0,0
-266,344,0,0,0,0,0,0,0,0,0,-1,958,680,0,0
-259,344,0,0,0,0,0,0,0,0,0,-1,965,680,0,0
-252,344,0,0,0,0,0,0,0,0,0,-1,972,680,0,0
-245,344,0,0,0,0,0,0,0,0,0,-1,979,680,0,0
-238,344,0,0,0,0,0,0,0,0,0,-1,986,680,0,0
-231,344,0,0,0,0,0,0,0,0,0,-1,993,680,0,0
-224,344,0,0,0,0,0,0,0,0,0,-1,1000,680,0,0
-217,344,0,0,0,0,0,0,0,0,0,-1,1007,680,0,0
-210,344,0,0,0,0,0,0,0,0,0,-1,1014,680,0,0
-203,344,0,0,0,0,0,0,0,0,0,-1,1021,680,0,0
-196,344,0,0,0,0,0,0,0,0,0,-1,1028,680,0,0
-189,344,0,0,0,0,0,0,0,0,0,-1,1035,680,0,0
-182,344,0,0,0,0,0,0,0,0,0,-1,1042,680,0,0
-175,344,0,0,0,0,0,0,0,0,0,-1,1049,680,0,0
-168,344,0,0,0,0,0,0,0,0,0,-1,1056,680,0,0
-161,344,0,0,0,0,0,0,0,0,0,-1,1063,680,0,0
-154,344,0,0,0,0,0,0,0,0,0,-1,1070,680,0,0
-147,344,0,0,0,0,0,0,0,0,0,-1,1077,680,0,0
-140,344,0,0,0,0,0,0,0,0,0,-1,1084,680,0,0
-133,344,0,0,0,0,0,0,0,0,0,-1,1091,680,0,0
-126,344,0,0,0,0,0,0,0,0,0,-1,1098,680,0,0
-119,344,0,0,0,0,0,0,0,0,0,-1,1105,680,0,0
-112,344,0,0,0,0,0,0,0,0,0,-1,1112,680,0,0
-105,344,0,0,0,0,0,0,0,0,0,-1,1119,680,0,0
-98,344,0,0,0,0,0,0,0,0,0,-1,1126,680,0,0
-91,344,0,0,0,0,0,0,0,0,0,-1,1133,680,0,0
-84,344,0,0,0,0,0,0,0,0,0,-1,1140,680,0,0
-77,344,0,0,0,0,0,0,0,0,0,-1,1147,680,0,0
-70,344,0,0,0,0,0,0,0,0,0,-1,1154,680,0,0
-63,344,0,0,0,0,0,0,0,0,0,-1,1161,680,0,0
-56,344,0,0,0,0,0,0,0,0,0,-1,1168,680,0,0
-49,344,0,0,0,0,0,0,0,0,0,-1,1175,680,0,0
-42,344,0,0,0,0,0,0,0,0,0,-1,1182,680,0,0
-35,344,0,0,0,0,0,0,0,0,0,-1,1189,680,0,0
-28,344,0,0,0,0,0,0,0,0,0,-1,1196,680,0,0
-21,344,0,0,0,0,0,0,0,0,0,-1,1203,680,0,0
-14,344,0,0,0,0,0,0,0,0,0,-1,1210,680,0,0
-7,344,0,0,0,0,0,0,0,0,0,-1,1217,680,0,0
0,344,0,0,0,0,0,0,0,0,0,-1,1224,680,0,0
7,344,0,0,0,0,0,0,0,0,0,-1,1231,680,0,0
14,344,0,0,0,0,0,0,0,0,0,-1,1238,680,0,0
21,344,0,0,0,0,0,0,0,0,0,-1,1245,680,0,0
28,344,0,0,0,0,0,0,0,0,0,-1,1252,680,0,0
35,344,0,0,0,0,0,0,0,0,0,-1,1259,680,0,0
42,344,0,0,0,0,0,0,0,0,0,-1,1266,680,0,0
49,344,0,0,0,0,0,0,0,0,0,-1,1273,680,0,0
56,344,0,0,0,0,0,0,0,0,0,-1,1280,680,0,0
63,344,0,0,0,0,0,0,0,0,0,-1,1287,680,0,0
70,344,0,0,0,0,0,0,0,0,0,-1,1294,680,0,0
77,344,0,0,0,0,0,0,0,0,0,-1,1301,680,0,0
84,344,0,0,0,0,0,0,0,0,0,-1,1308,680,0,0
91,344,0,0,0,0,0,0,0,0,0,-1,1315,680,0,0
98,344,0,0,0,0,0,0,0,0,0,-1,1322,680,0,0
105,344,0,0,0,0,0,0,0,0,0,-1,1329,680,0,0
112,344,0,0,0,0,0,0,0,0,0,-1,1336,680,0,0
119,344,0,0,0,0,0,0,0,0,0,-1,1343,680,0,0
126,344,0,0,0,0,0,0,0,0,0,-1,1350,680,0,0
133,344,0,0,0,0,0,0,0,0,0,-1,1357,680,0,0
140,344,0,0,0,0,0,0,0,0,0,-1,1364,680,0,0
147,344,0,0,0,0,0,0,0,0,0,-1,1371,680,0,0
154,344,0,0,0,0,0,0,0,0,0,-1,1378,680,0,0
161,344,0,0,0,0,0,0,0,0,0,-1,1385,680,0,0
168,344,0,0,0,0,0,0,0,0,0,-1,1392,680,0,0
175,344,0,0,0,0,0,0,0,0,0,-1,1399,680,0,0
182,344,0,0,0,0,0,0,0,0,0,-1,1406,680,0,0
189,344,0,0,0,0,0,0,0,0,0,-1,1413,680,0,0
196,344,0,0,0,0,0,0,0,0,0,-1,1420,680,0,0
203,344,0,0,0,0,0,0,0,0,0,-1,1427,680,0,0
210,344,0,0,0,0,0,0,0,0,0,-1,1434,680,0,0
217,344,0,0,0,0,0,0,0,0,0,-1,1441,680,0,0
224,344,0,0,0,0,0,0,0,0,0,-1,1448,680,0,0
231,344,0,0,0,0,0,0,0,0,0,-1,1455,680,0,0
238,344,0,0,0,0,0,0,0,0,0,-1,1462,680,0,0
245,344,0,0,0,0,0,0,0,0,0,-1,1469,680,0,0
252,344,0,0,0,0,0,0,0,0,0,-1,1476,680,0,0
259,344,0,0,0,0,0,0,0,0,0,-1,1483,680,0,0
266,344,0,0,0,0,0,0,0,0,0,-1,1490,680,0,0
273,344,0,0,0,0,0,0,0,0,0,-1,1497,680,0,0
280,344,0,0,0,0,0,0,0,0,0,-1,1504,680,0,0
287,344,0,0,0,0,0,0,0,0,0,-1,1511,680,0,0
294,344,0,0,0,0,0,0,0,0,0,-1,1518,680,0,0
301,344,0,0,0,0,0,0,0,0,0,-1,1525,680,0,0
308,344,0,0,0,0,0,0,0,0,0,-1,1532,680,0,0
315,344,0,0,0,0,0,0,0,0,0,-1,1539,680,0,0
322,344,0,0,0,0,0,0,0,0,0,-1,1546,680,0,0
329,344,0,0,0,0,0,0,0,0,0,-1,1553,680,0,0
336,344,0,0,0,0,0,0,0,0,0,-1,1560,680,0,0
343,344,0,0,0,0,0,0,0,0,0,-1,1567,680,0,0
350,344,0,0,0,0,0,0,0,0,0,-1,1574,680,0,0
357,344,0,0,0,0,0,0,0,0,0,-1,1581,680,0,0
364,344,0,0,0,0,0,0,0,0,0,-1,1588,680,0,0
371,344,0,0,0,0,0,0,0,0,0,-1,1595,680,0,0
378,344,0,0,0,0,0,0,0,0,0,-1,1602,680,0,0
385,344,0,0,0,0,0,0,0,0,0,-1,1609,680,0,0
392,344,0,0,0,0,0,0,0,0,0,-1,1616,680,0,0
399,344,0,0,0,0,0,0,0,0,0,-1,1623,680,0,0
406,344,0,0,0,0,0,0,0,0,0,-1,1630,680,0,0
413,344,0,0,0,0,0,0,0,0,0,-1,1637,680,0,0
420,344,0,0,0,0,0,0,0,0,0,-1,1644,680,0,0
427,344,0,0,0,0,0,0,0,0,0,-1,1651,680,0,0
434,344,0,0,0,0,0,0,0,0,0,-1,1658,680,0,0
441,344,0,0,0,0,0,0,0,0,0,-1,1665,680,0,0
448,344,0,0,0,0,0,0,0,0,0,-1,1672,680,0,0
455,344,0,0,0,0,0,0,0,0,0,-1,1679,680,0,0
462,344,0,0,0,0,0,0,0,0,0,-1,1686,680,0,0
469,344,0,0,0,0,0,0,0,0,0,-1,1693,680,0,0
476,344,0,0,0,0,0,0,0,0,0,-1,1700,680,0,0
483,344,0,0,0,0,0,0,0,0,0,-1,1707,680,0,0
490,344,0,0,0,0,0,0,0,0,0,-1,1714,680,0,0
497,344,0,0,0,0,0,0,0,0,0,-1,1721,680,0,0
504,344,0,0,0,0,0,0,0,0,0,-1,1728,680,0,0
511,344,15.4819,0.452637,0,0,0,0,0,0,0,-1,1735,680,15.4819,-0.452656
518,344,17.1357,2.31207,0,0,0,0,0,0,0,-1,1742,680,17.1358,-2.31207
525,344,31.5201,2.6217,0,0,0,0,0,0,0,-1,1749,680,31.5201,-2.62168
532,344,31.9766,2.61047,0,0,0,0,0,0,0,-1,1756,680,31.9765,-2.6105
539,344,32.4379,2.65314,0,0,0,0,0,0,0,-1,1763,680,32.4378,-2.65316
546,344,14.6722,4.30243,0,0,0,0,0,0,0,-1,1770,680,14.6722,-4.30241
553,344,14.8136,4.35681,0,0,0,0,0,0,0,-1,1777,680,14.8136,-4.35679
560,344,11.9363,2.14185,0,0,0,0,0,0,0,-1,1784,680,11.9362,-2.14182
567,344,11.397,0.925842,0,0,0,0,0,0,0,-1,1791,680,11.397,-0.92583
574,344,10.0004,0.504639,0,0,0,0,0,0,0,-1,1798,680,10.0004,-0.504645
581,344,13.6709,-0.969604,0,0,0,0,0,0,0,-1,1805,680,13.6709,0.969629
588,344,16.1447,-3.15948,0,0,0,0,0,0,0,-1,1812,680,16.1447,3.15946
595,344,29.0005,-8.78894,0,0,0,0,0,0,0,-1,1819,680,29.0005,8.78895
602,344,29.1711,-7.94635,0.0011632,8.34336e-05,-0.000331194,0.0012567,-1.00575e-05,-0.275126,0.00084117,0.0427631,1826,680,29.1712,7.94638
609,344,29.0276,-7.27014,0.00157239,0.000246515,-2.07247e-05,0.00157271,0.000246191,-0.0156259,0.000976809,0.0163583,1833,680,29.0276,7.27016
616,344,28.9677,-6.57562,0.00174714,0.00049533,0.000333943,0.00183066,0.000411817,0.245057,0.00110895,0.0223058,1840,680,28.9676,6.57562
623,344,29.0264,-5.89758,0.00146506,0.000606581,0.000435581,0.00164736,0.000424284,0.396364,0.000987672,0.0206166,1847,680,29.0264,5.89757
630,344,28.9456,-5.25165,0.000813213,0.00070393,0.000471032,0.00123276,0.00028438,0.727654,0.000745357,0.0260666,1854,680,28.9456,5.25162
637,344,28.9105,-4.52386,-0.000181154,0.000781925,0.000351589,0.00089662,-0.000295849,1.25546,0.000717005,0.024632,1861,680,28.9105,4.52385
644,344,28.8899,-3.81659,-0.00162081,0.000765237,6.53633e-05,0.000767026,-0.0016226,1.54343,0.00140882,0.01733,1868,680,28.89,3.81661
651,344,28.8405,-3.12781,-0.00356731,0.000703886,-0.000401105,0.000741227,-0.00360465,-1.47797,0.00268451,0.0122828,1875,680,28.8405,3.12783
658,344,28.8126,-2.33582,-0.0061776,0.000584509,-0.00115764,0.000777201,-0.0063703,-1.40586,0.00452822,0.024165,1882,680,28.8126,2.33583
665,344,28.6644,-1.67145,-0.00950095,0.00033659,-0.0021092,0.000769737,-0.0099341,-1.36825,0.00689365,0.0389567,1889,680,28.6644,1.67142
672,344,28.7087,-1.03925,0,0,0,0,0,0,0,-1,1896,680,28.7088,1.03922
679,344,28.2183,-0.882141,0,0,0,0,0,0,0,-1,1903,680,28.2183,0.88215
686,344,15.024,1.82709,0,0,0,0,0,0,0,-1,1910,680,15.024,-1.82706
693,344,12.4362,-1.42346,0,0,0,0,0,0,0,-1,1917,680,12.4361,1.42348
700,344,17.5396,2.61206,0,0,0,0,0,0,0,-1,1924,680,17.5396,-2.61204
707,344,18.5829,3.29352,0,0,0,0,0,0,0,-1,1931,680,18.5828,-3.2935
714,344,0,0,0,0,0,0,0,0,0,-1,1938,680,0,0
721,344,0,0,0,0,0,0,0,0,0,-1,1945,680,0,0
728,344,0,0,0,0,0,0,0,0,0,-1,1952,680,0,0
735,344,0,0,0,0,0,0,0,0,0,-1,1959,680,0,0
742,344,0,0,0,0,0,0,0,0,0,-1,1966,680,0,0
749,344,0,0,0,0,0,0,0,0,0,-1,1973,680,0,0
756,344,0,0,0,0,0,0,0,0,0,-1,1980,680,0,0
763,344,0,0,0,0,0,0,0,0,0,-1,1987,680,0,0
770,344,0,0,0,0,0,0,0,0,0,-1,1994,680,0,0
777,344,0,0,0,0,0,0,0,0,0,-1,2001,680,0,0
784,344,0,0,0,0,0,0,0,0,0,-1,2008,680,0,0
791,344,0,0,0,0,0,0,0,0,0,-1,2015,680,0,0
798,344,0,0,0,0,0,0,0,0,0,-1,2022,680,0,0
805,344,0,0,0,0,0,0,0,0,0,-1,2029,680,0,0
812,344,0,0,0,0,0,0,0,0,0,-1,2036,680,0,0
-700,337,0,0,0,0,0,0,0,0,0,-1,524,687,0,0
-693,337,0,0,0,0,0,0,0,0,0,-1,531,687,0,0
-686,337,0,0,0,0,0,0,0,0,0,-1,538,687,0,0
-679,337,0,0,0,0,0,0,0,0,0,-1,545,687,0,0
-672,337,0,0,0,0,0,0,0,0,0,-1,552,687,0,0
-665,337,0,0,0,0,0,0,0,0,0,-1,559,687,0,0
-658,337,0,0,0,0,0,0,0,0,0,-1,566,687,0,0
-651,337,0,0,0,0,0,0,0,0,0,-1,573,687,0,0
-644,337,0,0,0,0,0,0,0,0,0,-1,580,687,0,0
-637,337,0,0,0,0,0,0,0,0,0,-1,587,687,0,0
-630,337,0,0,0,0,0,0,0,0,0,-1,594,687,0,0
-623,337,0,0,0,0,0,0,0,0,0,-1,601,687,0,0
-616,337,0,0,0,0,0,0,0,0,0,-1,608,687,0,0
-609,337,0,0,0,0,0,0,0,0,0,-1,615,687,0,0
-602,337,0,0,0,0,0,0,0,0,0,-1,622,687,0,0
-595,337,0,0,0,0,0,0,0,0,0,-1,629,687,0,0
-588,337,-10.8413,1.27863,0,0,0,0,0,0,0,-1,636,687,-10.8413,-1.27861
-581,337,-11.2157,1.31567,0,0,0,0,0,0,0,-1,643,687,-11.2157,-1.3157
-574,337,-6.03339,2.0321,0,0,0,0,0,0,0,-1,650,687,-6.03337,-2.03213
-567,337,-13.8102,1.56787,0,0,0,0,0,0,0,-1,657,687,-13.8102,-1.56789
-560,337,-15.5435,2.34247,0,0,0,0,0,0,0,-1,664,687,-15.5435,-2.34247
-553,337,-18.0128,1.12927,0,0,0,0,0,0,0,-1,671,687,-18.0128,-1.12926
-546,337,-17.7891,-2.33673,0,0,0,0,0,0,0,-1,678,687,-17.7891,2.33674
-539,337,-17.5455,-3.26367,0,0,0,0,0,0,0,-1,685,687,-17.5455,3.2637
-532,337,-17.543,-4.08777,0.00358515,0.00365541,-0.00136629,0.00498702,0.00225353,-0.798252,0.0028837,0.0366348,692,687,-17.543,4.08779
-525,337,-17.6908,-4.78442,0.00311365,0.00270881,-0.00114342,0.00407243,0.00175002,-0.697791,0.00235895,0.0178648,699,687,-17.6908,4.78443
-518,337,-17.6852,-5.45819,0.00268719,0.00187764,-0.000853716,0.00322723,0.0013376,-0.564028,0.0018723,0.0219782,706,687,-17.6852,5.45818
-511,337,-17.7324,-6.09052,0.00236564,0.00115497,-0.000559509,0.00258461,0.000935997,-0.373038,0.00151101,0.0224312,713,687,-17.7324,6.09053
-504,337,-17.7318,-6.81299,0.00212785,0.000543147,-0.000293287,0.00218039,0.000490609,-0.177255,0.00132079,0.0227229,720,687,-17.7318,6.81299
-497,337,-17.7465,-7.47485,0.00203197,0.000106254,-0.000121194,0.00203956,9.86567e-05,-0.0626056,0.00132805,0.0176723,727,687,-17.7465,7.47485
-490,337,-17.7703,-8.11829,0.00206907,-0.000181912,-5.89319e-05,0.00207061,-0.000183453,-0.0261567,0.00144544,0.0153598,734,687,-17.7703,8.11829
-483,337,-17.7584,-8.75555,0.00231928,-0.000271756,-0.000144732,0.00232734,-0.000279815,-0.0556281,0.00165275,0.0148145,741,687,-17.7583,8.75553
-476,337,-17.7733,-9.42468,0.00268417,-0.000158844,-0.000415451,0.00274363,-0.000218311,-0.142171,0.00190603,0.0170748,748,687,-17.7732,9.42471
-469,337,-17.772,-10.1329,0,0,0,0,0,0,0,-1,755,687,-17.772,10.1329
-462,337,-14.186,-8.89264,0,0,0,0,0,0,0,-1,762,687,-14.186,8.89266
-455,337,-6.00574,-3.12933,0,0,0,0,0,0,0,-1,769,687,-6.00576,3.12934
-448,337,-5.30627,-2.07202,0,0,0,0,0,0,0,-1,776,687,-5.30628,2.07205
-441,337,-4.24762,-1.49597,0,0,0,0,0,0,0,-1,783,687,-4.24762,1.49598
-434,337,-6.86908,1.37531,0,0,0,0,0,0,0,-1,790,687,-6.86908,-1.3753
-427,337,-9.92004,2.487,0,0,0,0,0,0,0,-1,797,687,-9.92002,-2.48701
-420,337,-2.95996,-1.76697,0,0,0,0,0,0,0,-1,804,687,-2.95998,1.76696
-413,337,-1.29169,-1.99487,0,0,0,0,0,0,0,-1,811,687,-1.29171,1.9949
-406,337,-1.02356,-1.89563,0,0,0,0,0,0,0,-1,818,687,-1.02357,1.89564
-399,337,-0.472839,-2.21338,0,0,0,0,0,0,0,-1,825,687,-0.472837,2.2134
-392,337,0,0,0,0,0,0,0,0,0,-1,832,687,0,0
-385,337,0,0,0,0,0,0,0,0,0,-1,839,687,0,0
-378,337,0,0,0,0,0,0,0,0,0,-1,846,687,0,0
-371,337,0,0,0,0,0,0,0,0,0,-1,853,687,0,0
-364,337,0,0,0,0,0,0,0,0,0,-1,860,687,0,0
-357,337,0,0,0,0,0,0,0,0,0,-1,867,687,0,0
-350,337,0,0,0,0,0,0,0,0,0,-1,874,687,0,0
-343,337,0,0,0,0,0,0,0,0,0,-1,881,687,0,0
-336,337,0,0,0,0,0,0,0,0,0,-1,888,687,0,0
-329,337,0,0,0,0,0,0,0,0,0,-1,895,687,0,0
-322,337,0,0,0,0,0,0,0,0,0,-1,902,687,0,0
-315,337,0,0,0,0,0,0,0,0,0,-1,909,687,0,0
-308,337,0,0,0,0,0,0,0,0,0,-1,916,687,0,0
-301,337,0,0,0,0,0,0,0,0,0,-1,923,687,0,0
-294,337,0,0,0,0,0,0,0,0,0,-1,930,687,0,0
-287,337,0,0,0,0,0,0,0,0,0,-1,937,687,0,0
-280,337,0,0,0,0,0,0,0,0,0,-1,944,687,0,0
-273,337,0,0,0,0,0,0,0,0,0,-1,951,687,0,0
-266,337,0,0,0,0,0,0,0,0,0,-1,958,687,0,0
-259,337,0,0,0,0,0,0,0,0,0,-1,965,687,0,0
-252,337,0,0,0,0,0,0,0,0,0,-1,972,687,0,0
-245,337,0,0,0,0,0,0,0,0,0,-1,979,687,0,0
-238,337,0,0,0,0,0,0,0,0,0,-1,986,687,0,0
-231,337,0,0,0,0,0,0,0,0,0,-1,993,687,0,0
-224,337,0,0,0,0,0,0,0,0,0,-1,1000,687,0,0
-217,337,0,0,0,0,0,0,0,0,0,-1,1007,687,0,0
-210,337,0,0,0,0,0,0,0,0,0,-1,1014,687,0,0
-203,337,0,0,0,0,0,0,0,0,0,-1,1021,687,0,0
-196,337,0,0,0,0,0,0,0,0,0,-1,1028,687,0,0
-189,337,0,0,0,0,0,0,0,0,0,-1,1035,687,0,0
-182,337,0,0,0,0,0,0,0,0,0,-1,1042,687,0,0
-175,337,0,0,0,0,0,0,0,0,0,-1,1049,687,0,0
-168,337,0,0,0,0,0,0,0,0,0,-1,1056,687,0,0
-161,337,0,0,0,0,0,0,0,0,0,-1,1063,687,0,0
-154,337,0,0,0,0,0,0,0,0,0,-1,1070,687,0,0
-147,337,0,0,0,0,0,0,0,0,0,-1,1077,687,0,0
-140,337,0,0,0,0,0,0,0,0,0,-1,1084,687,0,0
-133,337,0,0,0,0,0,0,0,0,0,-1,1091,687,0,0
-126,337,0,0,0,0,0,0,0,0,0,-1,1098,687,0,0
-119,337,0,0,0,0,0,0,0,0,0,-1,1105,687,0,0
-112,337,0,0,0,0,0,0,0,0,0,-1,1112,687,0,0
-105,337,0,0,0,0,0,0,0,0,0,-1,1119,687,0,0
-98,337,0,0,0,0,0,0,0,0,0,-1,1126,687,0,0
-91,337,0,0,0,0,0,0,0,0,0,-1,1133,687,0,0
-84,337,0,0,0,0,0,0,0,0,0,-1,1140,687,0,0
-77,337,0,0,0,0,0,0,0,0,0,-1,1147,687,0,0
-70,337,0,0,0,0,0,0,0,0,0,-1,1154,687,0,0
-63,337,0,0,0,0,0,0,0,0,0,-1,1161,687,0,0
-56,337,0,0,0,0,0,0,0,0,0,-1,1168,687,0,0
-49,337,0,0,0,0,0,0,0,0,0,-1,1175,687,0,0
-42,337,0,0,0,0,0,0,0,0,0,-1,1182,687,0,0
-35,337,0,0,0,0,0,0,0,0,0,-1,1189,687,0,0
-28,337,0,0,0,0,0,0,0,0,0,-1,1196,687,0,0
-21,337,0,0,0,0,0,0,0,0,0,-1,1203,687,0,0
-14,337,0,0,0,0,0,0,0,0,0,-1,1210,687,0,0
-7,337,0,0,0,0,0,0,0,0,0,-1,1217,687,0,0
0,337,0,0,0,0,0,0,0,0,0,-1,1224,687,0,0
7,337,0,0,0,0,0,0,0,0,0,-1,1231,687,0,0
14,337,0,0,0,0,0,0,0,0,0,-1,1238,687,0,0
21,337,0,0,0,0,0,0,0,0,0,-1,1245,687,0,0
28,337,0,0,0,0,0,0,0,0,0,-1,1252,687,0,0
35,337,0,0,0,0,0,0,0,0,0,-1,1259,687,0,0
42,337,0,0,0,0,0,0,0,0,0,-1,1266,687,0,0
49,337,0,0,0,0,0,0,0,0,0,-1,1273,687,0,0
56,337,0,0,0,0,0,0,0,0,0,-1,1280,687,0,0
63,337,0,0,0,0,0,0,0,0,0,-1,1287,687,0,0
70,337,0,0,0,0,0,0,0,0,0,-1,1294,687,0,0
77,337,0,0,0,0,0,0,0,0,0,-1,1301,687,0,0
84,337,0,0,0,0,0,0,0,0,0,-1,1308,687,0,0
91,337,0,0,0,0,0,0,0,0,0,-1,1315,687,0,0
98,337,0,0,0,0,0,0,0,0,0,-1,1322,687,0,0
105,337,0,0,0,0,0,0,0,0,0,-1,1329,687,0,0
112,337,0,0,0,0,0,0,0,0,0,-1,1336,687,0,0
119,337,0,0,0,0,0,0,0,0,0,-1,1343,687,0,0
126,337,0,0,0,0,0,0,0,0,0,-1,1350,687,0,0
133,337,0,0,0,0,0,0,0,0,0,-1,1357,687,0,0
140,337,0,0,0,0,0,0,0,0,0,-1,1364,687,0,0
147,337,0,0,0,0,0,0,0,0,0,-1,1371,687,0,0
154,337,0,0,0,0,0,0,0,0,0,-1,1378,687,0,0
161,337,0,0,0,0,0,0,0,0,0,-1,1385,687,0,0
168,337,0,0,0,0,0,0,0,0,0,-1,1392,687,0,0
175,337,0,0,0,0,0,0,0,0,0,-1,1399,687,0,0
182,337,0,0,0,0,0,0,0,0,0,-1,1406,687,0,0
189,337,0,0,0,0,0,0,0,0,0,-1,1413,687,0,0
196,337,0,0,0,0,0,0,0,0,0,-1,1420,687,0,0
203,337,0,0,0,0,0,0,0,0,0,-1,1427,687,0,0
210,337,0,0,0,0,0,0,0,0,0,-1,1434,687,0,0
217,337,0,0,0,0,0,0,0,0,0,-1,1441,687,0,0
224,337,0,0,0,0,0,0,0,0,0,-1,1448,687,0,0
231,337,0,0,0,0,0,0,0,0,0,-1,1455,687,0,0
238,337,0,0,0,0,0,0,0,0,0,-1,1462,687,0,0
245,337,0,0,0,0,0,0,0,0,0,-1,1469,687,0,0
252,337,0,0,0,0,0,0,0,0,0,-1,1476,687,0,0
259,337,0,0,0,0,0,0,0,0,0,-1,1483,687,0,0
266,337,0,0,0,0,0,0,0,0,0,-1,1490,687,0,0
273,337,0,0,0,0,0,0,0,0,0,-1,1497,687,0,0
280,337,0,0,0,0,0,0,0,0,0,-1,1504,687,0,0
287,337,0,0,0,0,0,0,0,0,0,-1,1511,687,0,0
294,337,0,0,0,0,0,0,0,0,0,-1,1518,687,0,0
301,337,0,0,0,0,0,0,0,0,0,-1,1525,687,0,0
308,337,0,0,0,0,0,0,0,0,0,-1,1532,687,0,0
315,337,0,0,0,0,0,0,0,0,0,-1,1539,687,0,0
322,337,0,0,0,0,0,0,0,0,0,-1,1546,687,0,0
329,337,0,0,0,0,0,0,0,0,0,-1,1553,687,0,0
336,337,0,0,0,0,0,0,0,0,0,-1,1560,687,0,0
343,337,0,0,0,0,0,0,0,0,0,-1,1567,687,0,0
350,337,0,0,0,0,0,0,0,0,0,-1,1574,687,0,0
357,337,0,0,0,0,0,0,0,0,0,-1,1581,687,0,0
364,337,0,0,0,0,0,0,0,0,0,-1,1588,687,0,0
371,337,0,0,0,0,0,0,0,0,0,-1,1595,687,0,0
378,337,0,0,0,0,0,0,0,0,0,-1,1602,687,0,0
385,337,0,0,0,0,0,0,0,0,0,-1,1609,687,0,0
392,337,0,0,0,0,0,0,0,0,0,-1,1616,687,0,0
399,337,0,0,0,0,0,0,0,0,0,-1,1623,687,0,0
406,337,0,0,0,0,0,0,0,0,0,-1,1630,687,0,0
413,337,0,0,0,0,0,0,0,0,0,-1,1637,687,0,0
420,337,0,0,0,0,0,0,0,0,0,-1,1644,687,0,0
427,337,0,0,0,0,0,0,0,0,0,-1,1651,687,0,0
434,337,0,0,0,0,0,0,0,0,0,-1,1658,687,0,0
441,337,0,0,0,0,0,0,0,0,0,-1,1665,687,0,0
448,337,0,0,0,0,0,0,0,0,0,-1,1672,687,0,0
455,337,0,0,0,0,0,0,0,0,0,-1,1679,687,0,0
462,337,0,0,0,0,0,0,0,0,0,-1,1686,687,0,0
469,337,0,0,0,0,0,0,0,0,0,-1,1693,687,0,0
476,337,0,0,0,0,0,0,0,0,0,-1,1700,687,0,0
483,337,0,0,0,0,0,0,0,0,0,-1,1707,687,0,0
490,337,0,0,0,0,0,0,0,0,0,-1,1714,687,0,0
497,337,0,0,0,0,0,0,0,0,0,-1,1721,687,0,0
504,337,0,0,0,0,0,0,0,0,0,-1,1728,687,0,0
511,337,0,0,0,0,0,0,0,0,0,-1,1735,687,0,0
518,337,18.0369,1.64581,0,0,0,0,0,0,0,-1,1742,687,18.0368,-1.64581
525,337,31.0717,2.13745,0,0,0,0,0,0,0,-1,1749,687,31.0717,-2.13747
532,337,31.5126,2.13904,0,0,0,0,0,0,0,-1,1756,687,31.5125,-2.13905
539,337,31.9684,2.15594,0,0,0,0,0,0,0,-1,1763,687,31.9684,-2.15596
546,337,32.3584,1.43719,0,0,0,0,0,0,0,-1,1770,687,32.3585,-1.43722
553,337,32.1809,1.36395,0,0,0,0,0,0,0,-1,1777,687,32.181,-1.36396
560,337,18.4053,3.62793,0,0,0,0,0,0,0,-1,1784,687,18.4052,-3.6279
567,337,11.9288,1.38776,0,0,0,0,0,0,0,-1,1791,687,11.9288,-1.38777
574,337,10.704,1.19476,0,0,0,0,0,0,0,-1,1798,687,10.704,-1.19478
581,337,8.50427,0.561768,0,0,0,0,0,0,0,-1,1805,687,8.5043,-0.561754
588,337,8.5885,-0.0536499,0,0,0,0,0,0,0,-1,1812,687,8.58844,0.0536788
595,337,13.8816,-1.70703,0,0,0,0,0,0,0,-1,1819,687,13.8816,1.70702
602,337,29.7299,-7.96356,0,0,0,0,0,0,0,-1,1826,687,29.7299,7.96357
609,337,29.703,-7.19373,0.00191226,0.000163754,1.24477e-05,0.00191235,0.000163665,0.00711855,0.001224,0.0245766,1833,687,29.703,7.19371
616,337,29.6548,-6.52173,0.0020862,0.000397533,0.000416923,0.00218353,0.000300207,0.229333,0.00136665,0.0176123,1840,687,29.6548,6.52175
623,337,29.6469,-5.85754,0.00172965,0.000455485,0.00045637,0.00187624,0.000308892,0.310806,0.00116164,0.0166859,1847,687,29.6468,5.85755
630,337,29.6071,-5.19232,0.00106514,0.000522343,0.000467377,0.0013342,0.00025328,0.52235,0.000818216,0.0212766,1854,687,29.6071,5.19233
637,337,29.5939,-4.50415,6.60844e-05,0.000603928,0.000343579,0.000771316,-0.000101303,1.11745,0.000551091,0.0174601,1861,687,29.5939,4.50415
644,337,29.5743,-3.78497,-0.00127904,0.000645724,0.000101457,0.000651057,-0.00128437,1.51828,0.00113718,0.011409,1868,687,29.5744,3.785
651,337,29.516,-3.10638,-0.00302617,0.000683307,-0.000273347,0.000703342,-0.0030462,-1.49763,0.00230136,0.0104481,1875,687,29.516,3.10641
658,337,29.4965,-2.4093,-0.00525328,0.000717376,-0.000825902,0.000829515,-0.00536542,-1.43584,0.0038831,0.0124777,1882,687,29.4965,2.40929
665,337,29.483,-1.71661,-0.00798625,0.000728332,-0.00150854,0.00098208,-0.00824,-1.40415,0.00584825,0.0163434,1889,687,29.483,1.71659
672,337,29.5367,-0.984802,0,0,0,0,0,0,0,-1,1896,687,29.5368,0.984806
679,337,29.0175,-0.219177,0,0,0,0,0,0,0,-1,1903,687,29.0174,0.219169
686,337,18.5614,1.68597,0,0,0,0,0,0,0,-1,1910,687,18.5614,-1.68598
693,337,16.5415,2.21411,0,0,0,0,0,0,0,-1,1917,687,16.5415,-2.2141
700,337,17.2661,2.44379,0,0,0,0,0,0,0,-1,1924,687,17.2661,-2.44378
707,337,17.3544,5.61853,0,0,0,0,0,0,0,-1,1931,687,17.3543,-5.61851
714,337,0,0,0,0,0,0,0,0,0,-1,1938,687,0,0
721,337,0,0,0,0,0,0,0,0,0,-1,1945,687,0,0
728,337,0,0,0,0,0,0,0,0,0,-1,1952,687,0,0
735,337,0,0,0,0,0,0,0,0,0,-1,1959,687,0,0
742,337,0,0,0,0,0,0,0,0,0,-1,1966,687,0,0
749,337,0,0,0,0,0,0,0,0,0,-1,1973,687,0,0
756,337,0,0,0,0,0,0,0,0,0,-1,1980,687,0,0
763,337,0,0,0,0,0,0,0,0,0,-1,1987,687,0,0
770,337,0,0,0,0,0,0,0,0,0,-1,1994,687,0,0
777,337,0,0,0,0,0,0,0,0,0,-1,2001,687,0,0
784,337,0,0,0,0,0,0,0,0,0,-1,2008,687,0,0
791,337,0,0,0,0,0,0,0,0,0,-1,2015,687,0,0
798,337,0,0,0,0,0,0,0,0,0,-1,2022,687,0,0
805,337,0,0,0,0,0,0,0,0,0,-1,2029,687,0,0
812,337,0,0,0,0,0,0,0,0,0,-1,2036,687,0,0
-700,330,0,0,0,0,0,0,0,0,0,-1,524,694,0,0
-693,330,0,0,0,0,0,0,0,0,0,-1,531,694,0,0
-686,330,0,0,0,0,0,0,0,0,0,-1,538,694,0,0
-679,330,0,0,0,0,0,0,0,0,0,-1,545,694,0,0
-672,330,0,0,0,0,0,0,0,0,0,-1,552,694,0,0
-665,330,0,0,0,0,0,0,0,0,0,-1,559,694,0,0
-658,330,0,0,0,0,0,0,0,0,0,-1,566,694,0,0
-651,330,0,0,0,0,0,0,0,0,0,-1,573,694,0,0
-644,330,0,0,0,0,0,0,0,0,0,-1,580,694,0,0
-637,330,0,0,0,0,0,0,0,0,0,-1,587,694,0,0
-630,330,0,0,0,0,0,0,0,0,0,-1,594,694,0,0
-623,330,0,0,0,0,0,0,0,0,0,-1,601,694,0,0
-616,330,0,0,0,0,0,0,0,0,0,-1,608,694,0,0
-609,330,0,0,0,0,0,0,0,0,0,-1,615,694,0,0
-602,330,0,0,0,0,0,0,0,0,0,-1,622,694,0,0
-595,330,-4.67883,1.65515,0,0,0,0,0,0,0,-1,629,694,-4.67881,-1.65515
-588,330,-8.5047,2.67346,0,0,0,0,0,0,0,-1,636,694,-8.50469,-2.67348
-581,330,-12.4227,0.947083,0,0,0,0,0,0,0,-1,643,694,-12.4227,-0.947109
-574,330,-9.02118,1.87952,0,0,0,0,0,0,0,-1,650,694,-9.02115,-1.87953
-567,330,-8.35577,0.909973,0,0,0,0,0,0,0,-1,657,694,-8.35575,-0.909945
-560,330,-13.1036,-0.584656,0,0,0,0,0,0,0,-1,664,694,-13.1035,0.584658
-553,330,-17.5484,-1.21545,0,0,0,0,0,0,0,-1,671,694,-17.5484,1.21547
-546,330,-18.1381,-2.54486,0,0,0,0,0,0,0,-1,678,694,-18.1381,2.54487
-539,330,-18.254,-3.26581,0,0,0,0,0,0,0,-1,685,694,-18.254,3.26579
-532,330,-18.3401,-4.0592,0.00284216,0.00270544,-0.000940838,0.00371712,0.00183048,-0.749133,0.00214616,0.0187758,692,694,-18.3402,4.05922
-525,330,-18.3189,-4.78485,0.00256652,0.00191372,-0.000743984,0.00305256,0.00142768,-0.578679,0.00176362,0.0111129,699,694,-18.3189,4.78483
-518,330,-18.3337,-5.4126,0.00231664,0.00122476,-0.000493578,0.00250668,0.00103471,-0.367534,0.00145455,0.014615,706,694,-18.3337,5.41262
-511,330,-18.4094,-6.07269,0.00211806,0.000646375,-0.000237731,0.00215551,0.000608926,-0.156244,0.00128313,0.0197366,713,694,-18.4094,6.07268
-504,330,-18.4077,-6.77423,0.00196915,0.000187453,6.647e-06,0.00196918,0.000187429,0.00373064,0.00125498,0.0187779,720,694,-18.4077,6.7742
-497,330,-18.4156,-7.41339,0.00195598,-9.28395e-05,0.000159517,0.00196833,-0.000105185,0.0772375,0.00134865,0.0145172,727,694,-18.4156,7.4134
-490,330,-18.42,-8.07611,0.0021161,-0.000235103,0.000225473,0.00213752,-0.000256529,0.0947462,0.00151777,0.0150802,734,694,-18.42,8.07609
-483,330,-18.408,-8.74316,0.00247358,-0.000154044,0.000137421,0.00248074,-0.000161211,0.0521092,0.0017101,0.0146757,741,694,-18.408,8.74314
-476,330,-18.4126,-9.43658,0,0,0,0,0,0,0,-1,748,694,-18.4126,9.43658
-469,330,-16.1478,-9.23303,0,0,0,0,0,0,0,-1,755,694,-16.1478,9.23301
-462,330,-7.26733,-3.84833,0,0,0,0,0,0,0,-1,762,694,-7.26731,3.84832
-455,330,-5.04254,-1.79303,0,0,0,0,0,0,0,-1,769,694,-5.04252,1.79305
-448,330,-4.89886,-1.66156,0,0,0,0,0,0,0,-1,776,694,-4.89886,1.66157
-441,330,-5.30676,-2.34045,0,0,0,0,0,0,0,-1,783,694,-5.30679,2.34048
-434,330,-7.20428,1.00024,0,0,0,0,0,0,0,-1,790,694,-7.20431,-1.00027
-427,330,-16.0428,2.89258,0,0,0,0,0,0,0,-1,797,694,-16.0428,-2.89259
-420,330,-29.0331,0.271606,0,0,0,0,0,0,0,-1,804,694,-29.0331,-0.27158
-413,330,-29.0896,0.56366,0,0,0,0,0,0,0,-1,811,694,-29.0896,-0.563671
-406,330,-1.65375,-1.74371,0,0,0,0,0,0,0,-1,818,694,-1.65375,1.74371
-399,330,0,0,0,0,0,0,0,0,0,-1,825,694,0,0
-392,330,0,0,0,0,0,0,0,0,0,-1,832,694,0,0
-385,330,0,0,0,0,0,0,0,0,0,-1,839,694,0,0
-378,330,0,0,0,0,0,0,0,0,0,-1,846,694,0,0
-371,330,0,0,0,0,0,0,0,0,0,-1,853,694,0,0
-364,330,0,0,0,0,0,0,0,0,0,-1,860,694,0,0
-357,330,0,0,0,0,0,0,0,0,0,-1,867,694,0,0
-350,330,0,0,0,0,0,0,0,0,0,-1,874,694,0,0
-343,330,0,0,0,0,0,0,0,0,0,-1,881,694,0,0
-336,330,0,0,0,0,0,0,0,0,0,-1,888,694,0,0
-329,330,0,0,0,0,0,0,0,0,0,-1,895,694,0,0
-322,330,0,0,0,0,0,0,0,0,0,-1,902,694,0,0
-315,330,0,0,0,0,0,0,0,0,0,-1,909,694,0,0
-308,330,0,0,0,0,0,0,0,0,0,-1,916,694,0,0
-301,330,0,0,0,0,0,0,0,0,0,-1,923,694,0,0
-294,330,0,0,0,0,0,0,0,0,0,-1,930,694,0,0
-287,330,0,0,0,0,0,0,0,0,0,-1,937,694,0,0
-280,330,0,0,0,0,0,0,0,0,0,-1,944,694,0,0
-273,330,0,0,0,0,0,0,0,0,0,-1,951,694,0,0
-266,330,0,0,0,0,0,0,0,0,0,-1,958,694,0,0
-259,330,0,0,0,0,0,0,0,0,0,-1,965,694,0,0
-252,330,0,0,0,0,0,0,0,0,0,-1,972,694,0,0
-245,330,0,0,0,0,0,0,0,0,0,-1,979,694,0,0
-238,330,0,0,0,0,0,0,0,0,0,-1,986,694,0,0
-231,330,0,0,0,0,0,0,0,0,0,-1,993,694,0,0
-224,330,0,0,0,0,0,0,0,0,0,-1,1000,694,0,0
-217,330,0,0,0,0,0,0,0,0,0,-1,1007,694,0,0
-210,330,0,0,0,0,0,0,0,0,0,-1,1014,694,0,0
-203,330,0,0,0,0,0,0,0,0,0,-1,1021,694,0,0
-196,330,0,0,0,0,0,0,0,0,0,-1,1028,694,0,0
-189,330,0,0,0,0,0,0,0,0,0,-1,1035,694,0,0
-182,330,0,0,0,0,0,0,0,0,0,-1,1042,694,0,0
-175,330,0,0,0,0,0,0,0,0,0,-1,1049,694,0,0
-168,330,0,0,0,0,0,0,0,0,0,-1,1056,694,0,0
-161,330,0,0,0,0,0,0,0,0,0,-1,1063,694,0,0
-154,330,0,0,0,0,0,0,0,0,0,-1,1070,694,0,0
-147,330,0,0,0,0,0,0,0,0,0,-1,1077,694,0,0
-140,330,0,0,0,0,0,0,0,0,0,-1,1084,694,0,0
-133,330,0,0,0,0,0,0,0,0,0,-1,1091,694,0,0
-126,330,0,0,0,0,0,0,0,0,0,-1,1098,694,0,0
-119,330,0,0,0,0,0,0,0,0,0,-1,1105,694,0,0
-112,330,0,0,0,0,0,0,0,0,0,-1,1112,694,0,0
-105,330,0,0,0,0,0,0,0,0,0,-1,1119,694,0,0
-98,330,0,0,0,0,0,0,0,0,0,-1,1126,694,0,0
-91,330,0,0,0,0,0,0,0,0,0,-1,1133,694,0,0
-84,330,0,0,0,0,0,0,0,0,0,-1,1140,694,0,0
-77,330,0,0,0,0,0,0,0,0,0,-1,1147,694,0,0
-70,330,0,0,0,0,0,0,0,0,0,-1,1154,694,0,0
-63,330,0,0,0,0,0,0,0,0,0,-1,1161,694,0,0
-56,330,0,0,0,0,0,0,0,0,0,-1,1168,694,0,0
-49,330,0,0,0,0,0,0,0,0,0,-1,1175,694,0,0
-42,330,0,0,0,0,0,0,0,0,0,-1,1182,694,0,0
-35,330,0,0,0,0,0,0,0,0,0,-1,1189,694,0,0
-28,330,0,0,0,0,0,0,0,0,0,-1,1196,694,0,0
-21,330,0,0,0,0,0,0,0,0,0,-1,1203,694,0,0
-14,330,0,0,0,0,0,0,0,0,0,-1,1210,694,0,0
-7,330,0,0,0,0,0,0,0,0,0,-1,1217,694,0,0
0,330,0,0,0,0,0,0,0,0,0,-1,1224,694,0,0
7,330,0,0,0,0,0,0,0,0,0,-1,1231,694,0,0
14,330,0,0,0,0,0,0,0,0,0,-1,1238,694,0,0
21,330,0,0,0,0,0,0,0,0,0,-1,1245,694,0,0
28,330,0,0,0,0,0,0,0,0,0,-1,1252,694,0,0
35,330,0,0,0,0,0,0,0,0,0,-1,1259,694,0,0
42,330,0,0,0,0,0,0,0,0,0,-1,1266,694,0,0
49,330,0,0,0,0,0,0,0,0,0,-1,1273,694,0,0
56,330,0,0,0,0,0,0,0,0,0,-1,1280,694,0,0
63,330,0,0,0,0,0,0,0,0,0,-1,1287,694,0,0
70,330,0,0,0,0,0,0,0,0,0,-1,1294,694,0,0
77,330,0,0,0,0,0,0,0,0,0,-1,1301,694,0,0
84,330,0,0,0,0,0,0,0,0,0,-1,1308,694,0,0
91,330,0,0,0,0,0,0,0,0,0,-1,1315,694,0,0
98,330,0,0,0,0,0,0,0,0,0,-1,1322,694,0,0
105,330,0,0,0,0,0,0,0,0,0,-1,1329,694,0,0
112,330,0,0,0,0,0,0,0,0,0,-1,1336,694,0,0
119,330,0,0,0,0,0,0,0,0,0,-1,1343,694,0,0
126,330,0,0,0,0,0,0,0,0,0,-1,1350,694,0,0
133,330,0,0,0,0,0,0,0,0,0,-1,1357,694,0,0
140,330,0,0,0,0,0,0,0,0,0,-1,1364,694,0,0
147,330,0,0,0,0,0,0,0,0,0,-1,1371,694,0,0
154,330,0,0,0,0,0,0,0,0,0,-1,1378,694,0,0
161,330,0,0,0,0,0,0,0,0,0,-1,1385,694,0,0
168,330,0,0,0,0,0,0,0,0,0,-1,1392,694,0,0
175,330,0,0,0,0,0,0,0,0,0,-1,1399,694,0,0
182,330,0,0,0,0,0,0,0,0,0,-1,1406,694,0,0
189,330,0,0,0,0,0,0,0,0,0,-1,1413,694,0,0
196,330,0,0,0,0,0,0,0,0,0,-1,1420,694,0,0
203,330,0,0,0,0,0,0,0,0,0,-1,1427,694,0,0
210,330,0,0,0,0,0,0,0,0,0,-1,1434,694,0,0
217,330,0,0,0,0,0,0,0,0,0,-1,1441,694,0,0
224,330,0,0,0,0,0,0,0,0,0,-1,1448,694,0,0
231,330,0,0,0,0,0,0,0,0,0,-1,1455,694,0,0
238,330,0,0,0,0,0,0,0,0,0,-1,1462,694,0,0
245,330,0,0,0,0,0,0,0,0,0,-1,1469,694,0,0
252,330,0,0,0,0,0,0,0,0,0,-1,1476,694,0,0
259,330,0,0,0,0,0,0,0,0,0,-1,1483,694,0,0
266,330,0,0,0,0,0,0,0,0,0,-1,1490,694,0,0
273,330,0,0,0,0,0,0,0,0,0,-1,1497,694,0,0
280,330,0,0,0,0,0,0,0,0,0,-1,1504,694,0,0
287,330,0,0,0,0,0,0,0,0,0,-1,1511,694,0,0
294,330,0,0,0,0,0,0,0,0,0,-1,1518,694,0,0
301,330,0,0,0,0,0,0,0,0,0,-1,1525,694,0,0
308,330,0,0,0,0,0,0,0,0,0,-1,1532,694,0,0
315,330,0,0,0,0,0,0,0,0,0,-1,1539,694,0,0
322,330,0,0,0,0,0,0,0,0,0,-1,1546,694,0,0
329,330,0,0,0,0,0,0,0,0,0,-1,1553,694,0,0
336,330,0,0,0,0,0,0,0,0,0,-1,1560,694,0,0
343,330,0,0,0,0,0,0,0,0,0,-1,1567,694,0,0
350,330,0,0,0,0,0,0,0,0,0,-1,1574,694,0,0
357,330,0,0,0,0,0,0,0,0,0,-1,1581,694,0,0
364,330,0,0,0,0,0,0,0,0,0,-1,1588,694,0,0
371,330,0,0,0,0,0,0,0,0,0,-1,1595,694,0,0
378,330,0,0,0,0,0,0,0,0,0,-1,1602,694,0,0
385,330,0,0,0,0,0,0,0,0,0,-1,1609,694,0,0
392,330,0,0,0,0,0,0,0,0,0,-1,1616,694,0,0
399,330,0,0,0,0,0,0,0,0,0,-1,1623,694,0,0
406,330,0,0,0,0,0,0,0,0,0,-1,1630,694,0,0
413,330,0,0,0,0,0,0,0,0,0,-1,1637,694,0,0
420,330,0,0,0,0,0,0,0,0,0,-1,1644,694,0,0
427,330,0,0,0,0,0,0,0,0,0,-1,1651,694,0,0
434,330,0,0,0,0,0,0,0,0,0,-1,1658,694,0,0
441,330,0,0,0,0,0,0,0,0,0,-1,1665,694,0,0
448,330,0,0,0,0,0,0,0,0,0,-1,1672,694,0,0
455,330,0,0,0,0,0,0,0,0,0,-1,1679,694,0,0
462,330,0,0,0,0,0,0,0,0,0,-1,1686,694,0,0
469,330,0,0,0,0,0,0,0,0,0,-1,1693,694,0,0
476,330,0,0,0,0,0,0,0,0,0,-1,1700,694,0,0
483,330,0,0,0,0,0,0,0,0,0,-1,1707,694,0,0
490,330,0,0,0,0,0,0,0,0,0,-1,1714,694,0,0
497,330,0,0,0,0,0,0,0,0,0,-1,1721,694,0,0
504,330,0,0,0,0,0,0,0,0,0,-1,1728,694,0,0
511,330,0,0,0,0,0,0,0,0,0,-1,1735,694,0,0
518,330,0,0,0,0,0,0,0,0,0,-1,1742,694,0,0
525,330,30.6694,0.69519,0,0,0,0,0,0,0,-1,1749,694,30.6694,-0.695206
532,330,30.9469,1.32501,0,0,0,0,0,0,0,-1,1756,694,30.9469,-1.32501
539,330,31.5155,1.62506,0,0,0,0,0,0,0,-1,1763,694,31.5155,-1.62507
546,330,31.4187,1.85651,0,0,0,0,0,0,0,-1,1770,694,31.4187,-1.85651
553,330,31.8452,1.81476,0,0,0,0,0,0,0,-1,1777,694,31.8452,-1.81475
560,330,32.2401,2.43225,0,0,0,0,0,0,0,-1,1784,694,32.2401,-2.43227
567,330,18.0321,3.98578,0,0,0,0,0,0,0,-1,1791,694,18.0321,-3.98576
574,330,12.0454,2.1662,0,0,0,0,0,0,0,-1,1798,694,12.0455,-2.16618
581,330,11.4215,4.50836,0,0,0,0,0,0,0,-1,1805,694,11.4215,-4.50837
588,330,6.45667,-0.0630493,0,0,0,0,0,0,0,-1,1812,694,6.45661,0.0630695
595,330,8.23193,-0.258484,0,0,0,0,0,0,0,-1,1819,694,8.23188,0.258459
602,330,30.2499,-8.04132,0,0,0,0,0,0,0,-1,1826,694,30.2499,8.04133
609,330,30.3009,-7.22229,0.00231896,0.000170177,0.000145823,0.00232881,0.000160326,0.0674509,0.00150195,0.0338061,1833,694,30.3009,7.2223
616,330,30.3298,-6.49841,0.00245975,0.00037978,0.000585062,0.00261303,0.000226507,0.25622,0.00167164,0.011454,1840,694,30.3298,6.49841
623,330,30.3199,-5.83459,0.0020498,0.000403449,0.00056723,0.00222631,0.00022694,0.301678,0.00141464,0.0136875,1847,694,30.3199,5.83461
630,330,30.3092,-5.14594,0.00139122,0.000451354,0.000553224,0.00164716,0.000195411,0.433314,0.00103911,0.0144633,1854,694,30.3092,5.14597
637,330,30.2783,-4.44666,0.000398182,0.000538702,0.000419422,0.000893708,4.31758e-05,0.868386,0.000581948,0.012705,1861,694,30.2783,4.44668
644,330,30.2571,-3.76263,-0.000848949,0.000635745,0.000212917,0.000665676,-0.00087888,1.43114,0.000894577,0.00834792,1868,694,30.2571,3.76263
651,330,30.2148,-3.08075,-0.00238776,0.000757824,-7.93788e-05,0.000759826,-0.00238976,-1.54558,0.00189784,0.0117319,1875,694,30.2148,3.08077
658,330,30.1664,-2.38763,-0.00425827,0.000912876,-0.00047149,0.000955513,-0.00430091,-1.48061,0.00323319,0.0129765,1882,694,30.1664,2.38763
665,330,30.1234,-1.69293,-0.00646965,0.001109,-0.000947484,0.00122566,-0.0065863,-1.44829,0.00485131,0.0123382,1889,694,30.1235,1.69294
672,330,30.1787,-0.982483,-0.00916476,0.00142868,-0.00162264,0.00167166,-0.00940774,-1.42216,0.00689691,0.0293597,1896,694,30.1788,0.982468
679,330,29.7162,-0.308105,-0.0127486,0.00183793,-0.00253071,0.00226452,-0.0131752,-1.4038,0.00962752,0.0464199,1903,694,29.7162,0.308124
686,330,29.3505,0.606018,0,0,0,0,0,0,0,-1,1910,694,29.3505,-0.606009
693,330,17.3999,2.5976,0,0,0,0,0,0,0,-1,1917,694,17.4,-2.59759
700,330,17.1072,4.13,0,0,0,0,0,0,0,-1,1924,694,17.1071,-4.13002
707,330,16.663,4.88672,0,0,0,0,0,0,0,-1,1931,694,16.6629,-4.88673
714,330,16.5454,5.80896,0,0,0,0,0,0,0,-1,1938,694,16.5454,-5.80899
721,330,0,0,0,0,0,0,0,0,0,-1,1945,694,0,0
728,330,0,0,0,0,0,0,0,0,0,-1,1952,694,0,0
735,330,0,0,0,0,0,0,0,0,0,-1,1959,694,0,0
742,330,0,0,0,0,0,0,0,0,0,-1,1966,694,0,0
749,330,0,0,0,0,0,0,0,0,0,-1,1973,694,0,0
756,330,0,0,0,0,0,0,0,0,0,-1,1980,694,0,0
763,330,0,0,0,0,0,0,0,0,0,-1,1987,694,0,0
770,330,0,0,0,0,0,0,0,0,0,-1,1994,694,0,0
777,330,0,0,0,0,0,0,0,0,0,-1,2001,694,0,0
784,330,0,0,0,0,0,0,0,0,0,-1,2008,694,0,0
791,330,0,0,0,0,0,0,0,0,0,-1,2015,694,0,0
798,330,0,0,0,0,0,0,0,0,0,-1,2022,694,0,0
805,330,0,0,0,0,0,0,0,0,0,-1,2029,694,0,0
812,330,0,0,0,0,0,0,0,0,0,-1,2036,694,0,0
-700,323,0,0,0,0,0,0,0,0,0,-1,524,701,0,0
-693,323,0,0,0,0,0,0,0,0,0,-1,531,701,0,0
-686,323,0,0,0,0,0,0,0,0,0,-1,538,701,0,0
-679,323,0,0,0,0,0,0,0,0,0,-1,545,701,0,0
-672,323,0,0,0,0,0,0,0,0,0,-1,552,701,0,0
-665,323,0,0,0,0,0,0,0,0,0,-1,559,701,0,0
-658,323,0,0,0,0,0,0,0,0,0,-1,566,701,0,0
-651,323,0,0,0,0,0,0,0,0,0,-1,573,701,0,0
-644,323,0,0,0,0,0,0,0,0,0,-1,580,701,0,0
-637,323,0,0,0,0,0,0,0,0,0,-1,587,701,0,0
-630,323,0,0,0,0,0,0,0,0,0,-1,594,701,0,0
-623,323,0,0,0,0,0,0,0,0,0,-1,601,701,0,0
-616,323,0,0,0,0,0,0,0,0,0,-1,608,701,0,0
-609,323,0,0,0,0,0,0,0,0,0,-1,615,701,0,0
-602,323,-4.15833,2.12256,0,0,0,0,0,0,0,-1,622,701,-4.1583,-2.12257
-595,323,-4.052,1.79156,0,0,0,0,0,0,0,-1,629,701,-4.05198,-1.79158
-588,323,-4.07019,1.94543,0,0,0,0,0,0,0,-1,636,701,-4.07019,-1.94542
-581,323,-6.63727,0.562805,0,0,0,0,0,0,0,-1,643,701,-6.63728,-0.56279
-574,323,-6.15887,0.426697,0,0,0,0,0,0,0,-1,650,701,-6.15887,-0.426727
-567,323,-10.0015,0.0371094,0,0,0,0,0,0,0,-1,657,701,-10.0015,-0.037126
-560,323,-16.3503,-1.16956,0,0,0,0,0,0,0,-1,664,701,-16.3503,1.16957
-553,323,-18.9105,-2.15631,0,0,0,0,0,0,0,-1,671,701,-18.9104,2.1563
-546,323,-18.8974,-2.73383,0.00234024,0.00377726,-0.0006743,0.00404411,0.00207339,-1.19396,0.00233512,0.0286908,678,701,-18.8974,2.7338
-539,323,-18.8853,-3.33081,0.00245575,0.0029806,-0.00070836,0.00347358,0.00196277,-0.962794,0.00201113,0.0231914,685,701,-18.8852,3.33084
-532,323,-18.9523,-4.04492,0.00237805,0.00220056,-0.000638267,0.00293371,0.0016449,-0.716323,0.00169793,0.0119302,692,701,-18.9523,4.04491
-525,323,-18.9865,-4.73792,0.00222802,0.00148517,-0.000468522,0.00245449,0.00125871,-0.450243,0.00141725,0.00835667,699,701,-18.9864,4.73792
-518,323,-18.9943,-5.37402,0.00208119,0.000846856,-0.000249786,0.00212982,0.000798225,-0.192289,0.00124244,0.0102135,706,701,-18.9943,5.37399
-511,323,-19.0391,-6.03229,0.00191836,0.00029575,-8.68312e-06,0.00191841,0.000295703,-0.00535112,0.00119265,0.013921,713,701,-19.0391,6.03232
-504,323,-19.0647,-6.68762,0.00176307,-0.000146546,0.000240526,0.0017929,-0.000176375,0.123388,0.00125818,0.0153462,720,701,-19.0647,6.68759
-497,323,-19.0732,-7.34424,0.00172877,-0.00041881,0.000409393,0.00180416,-0.000494206,0.182124,0.00139696,0.0131557,727,701,-19.0732,7.34424
-490,323,-19.0987,-8.02765,0.00191579,-0.000584941,0.00053671,0.00202611,-0.000695263,0.202729,0.00163261,0.0151204,734,701,-19.0987,8.02766
-483,323,-19.0889,-8.69342,0.00229171,-0.000473295,0.000507421,0.00238189,-0.000563474,0.175883,0.00180531,0.0299441,741,701,-19.0888,8.6934
-476,323,-19.0948,-9.34869,0,0,0,0,0,0,0,-1,748,701,-19.0948,9.34868
-469,323,-8.33301,-3.64001,0,0,0,0,0,0,0,-1,755,701,-8.33298,3.64
-462,323,-5.29431,-1.45697,0,0,0,0,0,0,0,-1,762,701,-5.29431,1.45699
-455,323,-5.0658,-1.36639,0,0,0,0,0,0,0,-1,769,701,-5.06578,1.3664
-448,323,-4.91608,-1.59601,0,0,0,0,0,0,0,-1,776,701,-4.91606,1.59604
-441,323,-14.4006,0.535217,0,0,0,0,0,0,0,-1,783,701,-14.4006,-0.535203
-434,323,-15.3158,2.479,0,0,0,0,0,0,0,-1,790,701,-15.3158,-2.47898
-427,323,-28.3923,1.16797,0,0,0,0,0,0,0,-1,797,701,-28.3923,-1.16796
-420,323,-28.7292,1.09302,0,0,0,0,0,0,0,-1,804,701,-28.7292,-1.09304
-413,323,-28.7955,1.22418,0,0,0,0,0,0,0,-1,811,701,-28.7956,-1.22419
-406,323,0,0,0,0,0,0,0,0,0,-1,818,701,0,0
-399,323,0,0,0,0,0,0,0,0,0,-1,825,701,0,0
-392,323,0,0,0,0,0,0,0,0,0,-1,832,701,0,0
-385,323,0,0,0,0,0,0,0,0,0,-1,839,701,0,0
-378,323,0,0,0,0,0,0,0,0,0,-1,846,701,0,0
-371,323,0,0,0,0,0,0,0,0,0,-1,853,701,0,0
-364,323,0,0,0,0,0,0,0,0,0,-1,860,701,0,0
-357,323,0,0,0,0,0,0,0,0,0,-1,867,701,0,0
-350,323,0,0,0,0,0,0,0,0,0,-1,874,701,0,0
-343,323,0,0,0,0,0,0,0,0,0,-1,881,701,0,0
-336,323,0,0,0,0,0,0,0,0,0,-1,888,701,0,0
-329,323,0,0,0,0,0,0,0,0,0,-1,895,701,0,0
-322,323,0,0,0,0,0,0,0,0,0,-1,902,701,0,0
-315,323,0,0,0,0,0,0,0,0,0,-1,909,701,0,0
-308,323,0,0,0,0,0,0,0,0,0,-1,916,701,0,0
-301,323,0,0,0,0,0,0,0,0,0,-1,923,701,0,0
-294,323,0,0,0,0,0,0,0,0,0,-1,930,701,0,0
-287,323,0,0,0,0,0,0,0,0,0,-1,937,701,0,0
-280,323,0,0,0,0,0,0,0,0,0,-1,944,701,0,0
-273,323,0,0,0,0,0,0,0,0,0,-1,951,701,0,0
-266,323,0,0,0,0,0,0,0,0,0,-1,958,701,0,0
-259,323,0,0,0,0,0,0,0,0,0,-1,965,701,0,0
-252,323,0,0,0,0,0,0,0,0,0,-1,972,701,0,0
-245,323,0,0,0,0,0,0,0,0,0,-1,979,701,0,0
-238,323,0,0,0,0,0,0,0,0,0,-1,986,701,0,0
-231,323,0,0,0,0,0,0,0,0,0,-1,993,701,0,0
-224,323,0,0,0,0,0,0,0,0,0,-1,1000,701,0,0
-217,323,0,0,0,0,0,0,0,0,0,-1,1007,701,0,0
-210,323,0,0,0,0,0,0,0,0,0,-1,1014,701,0,0
-203,323,0,0,0,0,0,0,0,0,0,-1,1021,701,0,0
-196,323,0,0,0,0,0,0,0,0,0,-1,1028,701,0,0
-189,323,0,0,0,0,0,0,0,0,0,-1,1035,701,0,0
-182,323,0,0,0,0,0,0,0,0,0,-1,1042,701,0,0
-175,323,0,0,0,0,0,0,0,0,0,-1,1049,701,0,0
-168,323,0,0,0,0,0,0,0,0,0,-1,1056,701,0,0
-161,323,0,0,0,0,0,0,0,0,0,-1,1063,701,0,0
-154,323,0,0,0,0,0,0,0,0,0,-1,1070,701,0,0
-147,323,0,0,0,0,0,0,0,0,0,-1,1077,701,0,0
-140,323,0,0,0,0,0,0,0,0,0,-1,1084,701,0,0
-133,323,0,0,0,0,0,0,0,0,0,-1,1091,701,0,0
-126,323,0,0,0,0,0,0,0,0,0,-1,1098,701,0,0
-119,323,0,0,0,0,0,0,0,0,0,-1,1105,701,0,0
-112,323,0,0,0,0,0,0,0,0,0,-1,1112,701,0,0
-105,323,0,0,0,0,0,0,0,0,0,-1,1119,701,0,0
-98,323,0,0,0,0,0,0,0,0,0,-1,1126,701,0,0
-91,323,0,0,0,0,0,0,0,0,0,-1,1133,701,0,0
-84,323,0,0,0,0,0,0,0,0,0,-1,1140,701,0,0
-77,323,0,0,0,0,0,0,0,0,0,-1,1147,701,0,0
-70,323,0,0,0,0,0,0,0,0,0,-1,1154,701,0,0
-63,323,0,0,0,0,0,0,0,0,0,-1,1161,701,0,0
-56,323,0,0,0,0,0,0,0,0,0,-1,1168,701,0,0
-49,323,0,0,0,0,0,0,0,0,0,-1,1175,701,0,0
-42,323,0,0,0,0,0,0,0,0,0,-1,1182,701,0,0
-35,323,0,0,0,0,0,0,0,0,0,-1,1189,701,0,0
-28,323,0,0,0,0,0,0,0,0,0,-1,1196,701,0,0
-21,323,0,0,0,0,0,0,0,0,0,-1,1203,701,0,0
-14,323,0,0,0,0,0,0,0,0,0,-1,1210,701,0,0
-7,323,0,0,0,0,0,0,0,0,0,-1,1217,701,0,0
0,323,0,0,0,0,0,0,0,0,0,-1,1224,701,0,0
7,323,0,0,0,0,0,0,0,0,0,-1,1231,701,0,0
14,323,0,0,0,0,0,0,0,0,0,-1,1238,701,0,0
21,323,0,0,0,0,0,0,0,0,0,-1,1245,701,0,0
28,323,0,0,0,0,0,0,0,0,0,-1,1252,701,0,0
35,323,0,0,0,0,0,0,0,0,0,-1,1259,701,0,0
42,323,0,0,0,0,0,0,0,0,0,-1,1266,701,0,0
49,323,0,0,0,0,0,0,0,0,0,-1,1273,701,0,0
56,323,0,0,0,0,0,0,0,0,0,-1,1280,701,0,0
63,323,0,0,0,0,0,0,0,0,0,-1,1287,701,0,0
70,323,0,0,0,0,0,0,0,0,0,-1,1294,701,0,0
77,323,0,0,0,0,0,0,0,0,0,-1,1301,701,0,0
84,323,0,0,0,0,0,0,0,0,0,-1,1308,701,0,0
91,323,0,0,0,0,0,0,0,0,0,-1,1315,701,0,0
98,323,0,0,0,0,0,0,0,0,0,-1,1322,701,0,0
105,323,0,0,0,0,0,0,0,0,0,-1,1329,701,0,0
112,323,0,0,0,0,0,0,0,0,0,-1,1336,701,0,0
119,323,0,0,0,0,0,0,0,0,0,-1,1343,701,0,0
126,323,0,0,0,0,0,0,0,0,0,-1,1350,701,0,0
133,323,0,0,0,0,0,0,0,0,0,-1,1357,701,0,0
140,323,0,0,0,0,0,0,0,0,0,-1,1364,701,0,0
147,323,0,0,0,0,0,0,0,0,0,-1,1371,701,0,0
154,323,0,0,0,0,0,0,0,0,0,-1,1378,701,0,0
161,323,0,0,0,0,0,0,0,0,0,-1,1385,701,0,0
168,323,0,0,0,0,0,0,0,0,0,-1,1392,701,0,0
175,323,0,0,0,0,0,0,0,0,0,-1,1399,701,0,0
182,323,0,0,0,0,0,0,0,0,0,-1,1406,701,0,0
189,323,0,0,0,0,0,0,0,0,0,-1,1413,701,0,0
196,323,0,0,0,0,0,0,0,0,0,-1,1420,701,0,0
203,323,0,0,0,0,0,0,0,0,0,-1,1427,701,0,0
210,323,0,0,0,0,0,0,0,0,0,-1,1434,701,0,0
217,323,0,0,0,0,0,0,0,0,0,-1,1441,701,0,0
224,323,0,0,0,0,0,0,0,0,0,-1,1448,701,0,0
231,323,0,0,0,0,0,0,0,0,0,-1,1455,701,0,0
238,323,0,0,0,0,0,0,0,0,0,-1,1462,701,0,0
245,323,0,0,0,0,0,0,0,0,0,-1,1469,701,0,0
252,323,0,0,0,0,0,0,0,0,0,-1,1476,701,0,0
259,323,0,0,0,0,0,0,0,0,0,-1,1483,701,0,0
266,323,0,0,0,0,0,0,0,0,0,-1,1490,701,0,0
273,323,0,0,0,0,0,0,0,0,0,-1,1497,701,0,0
280,323,0,0,0,0,0,0,0,0,0,-1,1504,701,0,0
287,323,0,0,0,0,0,0,0,0,0,-1,1511,701,0,0
294,323,0,0,0,0,0,0,0,0,0,-1,1518,701,0,0
301,323,0,0,0,0,0,0,0,0,0,-1,1525,701,0,0
308,323,0,0,0,0,0,0,0,0,0,-1,1532,701,0,0
315,323,0,0,0,0,0,0,0,0,0,-1,1539,701,0,0
322,323,0,0,0,0,0,0,0,0,0,-1,1546,701,0,0
329,323,0,0,0,0,0,0,0,0,0,-1,1553,701,0,0
336,323,0,0,0,0,0,0,0,0,0,-1,1560,701,0,0
343,323,0,0,0,0,0,0,0,0,0,-1,1567,701,0,0
350,323,0,0,0,0,0,0,0,0,0,-1,1574,701,0,0
357,323,0,0,0,0,0,0,0,0,0,-1,1581,701,0,0
364,323,0,0,0,0,0,0,0,0,0,-1,1588,701,0,0
371,323,0,0,0,0,0,0,0,0,0,-1,1595,701,0,0
378,323,0,0,0,0,0,0,0,0,0,-1,1602,701,0,0
385,323,0,0,0,0,0,0,0,0,0,-1,1609,701,0,0
392,323,0,0,0,0,0,0,0,0,0,-1,1616,701,0,0
399,323,0,0,0,0,0,0,0,0,0,-1,1623,701,0,0
406,323,0,0,0,0,0,0,0,0,0,-1,1630,701,0,0
413,323,0,0,0,0,0,0,0,0,0,-1,1637,701,0,0
420,323,0,0,0,0,0,0,0,0,0,-1,1644,701,0,0
427,323,0,0,0,0,0,0,0,0,0,-1,1651,701,0,0
434,323,0,0,0,0,0,0,0,0,0,-1,1658,701,0,0
441,323,0,0,0,0,0,0,0,0,0,-1,1665,701,0,0
448,323,0,0,0,0,0,0,0,0,0,-1,1672,701,0,0
455,323,0,0,0,0,0,0,0,0,0,-1,1679,701,0,0
462,323,0,0,0,0,0,0,0,0,0,-1,1686,701,0,0
469,323,0,0,0,0,0,0,0,0,0,-1,1693,701,0,0
476,323,0,0,0,0,0,0,0,0,0,-1,1700,701,0,0
483,323,0,0,0,0,0,0,0,0,0,-1,1707,701,0,0
490,323,0,0,0,0,0,0,0,0,0,-1,1714,701,0,0
497,323,0,0,0,0,0,0,0,0,0,-1,1721,701,0,0
504,323,0,0,0,0,0,0,0,0,0,-1,1728,701,0,0
511,323,0,0,0,0,0,0,0,0,0,-1,1735,701,0,0
518,323,0,0,0,0,0,0,0,0,0,-1,1742,701,0,0
525,323,0,0,0,0,0,0,0,0,0,-1,1749,701,0,0
532,323,33.6193,1.69446,0,0,0,0,0,0,0,-1,1756,701,33.6193,-1.69444
539,323,32.2698,2.44037,0,0,0,0,0,0,0,-1,1763,701,32.2697,-2.44036
546,323,31.1644,3.9444,0,0,0,0,0,0,0,-1,1770,701,31.1644,-3.94438
553,323,30.2488,5.8775,0,0,0,0,0,0,0,-1,1777,701,30.2487,-5.87752
560,323,40.6711,1.25153,0,0,0,0,0,0,0,-1,1784,701,40.6711,-1.25154
567,323,42.1637,2.01208,0,0,0,0,0,0,0,-1,1791,701,42.1637,-2.01207
574,323,12.514,5.89685,0,0,0,0,0,0,0,-1,1798,701,12.5141,-5.89683
581,323,11.821,5.3476,0,0,0,0,0,0,0,-1,1805,701,11.821,-5.34762
588,323,11.7933,7.00818,0,0,0,0,0,0,0,-1,1812,701,11.7933,-7.00819
595,323,6.67847,0.06604,0,0,0,0,0,0,0,-1,1819,701,6.67841,-0.0660418
602,323,30.55,-7.9422,0,0,0,0,0,0,0,-1,1826,701,30.5501,7.94222
609,323,30.8733,-7.16754,0.00297277,0.00026014,0.000511434,0.003066,0.000166919,0.180295,0.00199069,0.048859,1833,701,30.8733,7.16754
616,323,31.0248,-6.45343,0.00297362,0.000402658,0.000892628,0.00325314,0.000123132,0.303477,0.00212891,0.013243,1840,701,31.0248,6.45346
623,323,31.0043,-5.78308,0.00246572,0.000374528,0.000758435,0.00271183,0.000128421,0.313773,0.00176663,0.0133342,1847,701,31.0043,5.7831
630,323,30.9615,-5.10236,0.00182147,0.000396651,0.00070219,0.00210936,0.000108761,0.389088,0.00137142,0.0143814,1854,701,30.9615,5.10236
637,323,30.9579,-4.40533,0.000851108,0.000478842,0.000551066,0.00124663,8.33224e-05,0.622529,0.00080475,0.010833,1861,701,30.9578,4.40534
644,323,30.9423,-3.73102,-0.0002929,0.000624134,0.000367466,0.000753213,-0.000421979,1.23299,0.000687422,0.00789837,1868,701,30.9422,3.73101
651,323,30.9099,-3.03766,-0.00163719,0.000825202,0.000137747,0.000832884,-0.00164487,1.51509,0.00145591,0.0110346,1875,701,30.91,3.03766
658,323,30.8279,-2.32556,-0.00320469,0.00110519,-0.000140609,0.00110977,-0.00320927,-1.53822,0.00258994,0.0170126,1882,701,30.8279,2.32555
665,323,30.7776,-1.6441,-0.00499814,0.00146681,-0.000469384,0.00150071,-0.00503204,-1.4987,0.0039511,0.0142975,1889,701,30.7775,1.6441
672,323,30.8038,-0.930603,-0.00708122,0.0019917,-0.00088465,0.00207715,-0.00716667,-1.4745,0.00560008,0.0168967,1896,701,30.8039,0.930629
679,323,30.6371,-0.197083,-0.00972437,0.00268768,-0.0014127,0.00284644,-0.00988313,-1.45889,0.00771464,0.0493923,1903,701,30.6371,0.197083
686,323,30.4916,0.378235,0,0,0,0,0,0,0,-1,1910,701,30.4916,-0.37825
693,323,23.8806,1.08844,0,0,0,0,0,0,0,-1,1917,701,23.8806,-1.08845
700,323,10.7705,0.828613,0,0,0,0,0,0,0,-1,1924,701,10.7705,-0.828591
707,323,16.9005,4.79193,0,0,0,0,0,0,0,-1,1931,701,16.9005,-4.7919
714,323,16.2346,6.25958,0,0,0,0,0,0,0,-1,1938,701,16.2346,-6.25956
721,323,0,0,0,0,0,0,0,0,0,-1,1945,701,0,0
728,323,0,0,0,0,0,0,0,0,0,-1,1952,701,0,0
735,323,0,0,0,0,0,0,0,0,0,-1,1959,701,0,0
742,323,0,0,0,0,0,0,0,0,0,-1,1966,701,0,0
749,323,0,0,0,0,0,0,0,0,0,-1,1973,701,0,0
756,323,0,0,0,0,0,0,0,0,0,-1,1980,701,0,0
763,323,0,0,0,0,0,0,0,0,0,-1,1987,701,0,0
770,323,0,0,0,0,0,0,0,0,0,-1,1994,701,0,0
777,323,0,0,0,0,0,0,0,0,0,-1,2001,701,0,0
784,323,0,0,0,0,0,0,0,0,0,-1,2008,701,0,0
791,323,0,0,0,0,0,0,0,0,0,-1,2015,701,0,0
798,323,0,0,0,0,0,0,0,0,0,-1,2022,701,0,0
805,323,0,0,0,0,0,0,0,0,0,-1,2029,701,0,0
812,323,0,0,0,0,0,0,0,0,0,-1,2036,701,0,0
-700,316,0,0,0,0,0,0,0,0,0,-1,524,708,0,0
-693,316,0,0,0,0,0,0,0,0,0,-1,531,708,0,0
-686,316,0,0,0,0,0,0,0,0,0,-1,538,708,0,0
-679,316,0,0,0,0,0,0,0,0,0,-1,545,708,0,0
-672,316,0,0,0,0,0,0,0,0,0,-1,552,708,0,0
-665,316,0,0,0,0,0,0,0,0,0,-1,559,708,0,0
-658,316,0,0,0,0,0,0,0,0,0,-1,566,708,0,0
-651,316,0,0,0,0,0,0,0,0,0,-1,573,708,0,0
-644,316,0,0,0,0,0,0,0,0,0,-1,580,708,0,0
-637,316,0,0,0,0,0,0,0,0,0,-1,587,708,0,0
-630,316,0,0,0,0,0,0,0,0,0,-1,594,708,0,0
-623,316,0,0,0,0,0,0,0,0,0,-1,601,708,0,0
-616,316,0,0,0,0,0,0,0,0,0,-1,608,708,0,0
-609,316,0,0,0,0,0,0,0,0,0,-1,615,708,0,0
-602,316,-0.451782,-0.0494995,0,0,0,0,0,0,0,-1,622,708,-0.451768,0.0495022
-595,316,-3.3761,2.17188,0,0,0,0,0,0,0,-1,629,708,-3.37609,-2.17189
-588,316,-5.00177,2.60675,0,0,0,0,0,0,0,-1,636,708,-5.00175,-2.60676
-581,316,-3.94653,0.393433,0,0,0,0,0,0,0,-1,643,708,-3.94655,-0.39342
-574,316,-9.67395,1.06067,0,0,0,0,0,0,0,-1,650,708,-9.67396,-1.06065
-567,316,-10.1962,0.448425,0,0,0,0,0,0,0,-1,657,708,-10.1962,-0.448411
-560,316,-18.9941,-1.75067,0,0,0,0,0,0,0,-1,664,708,-18.9941,1.75068
-553,316,-19.7004,-1.98456,0,0,0,0,0,0,0,-1,671,708,-19.7004,1.98455
-546,316,-19.6497,-2.63892,0.00155391,0.00373451,-0.000511519,0.00384854,0.00143988,-1.35146,0.0022453,0.0340272,678,708,-19.6497,2.6389
-539,316,-19.5541,-3.36676,0.00183905,0.0027606,-0.000526421,0.00299942,0.00160023,-1.1449,0.00173301,0.0143031,685,708,-19.5541,3.36678
-532,316,-19.598,-4.02679,0.00191687,0.00181791,-0.000439735,0.0023099,0.00142488,-0.729371,0.00134571,0.0116593,692,708,-19.598,4.02681
-525,316,-19.6221,-4.68066,0.00184592,0.00106455,-0.000243266,0.00191547,0.000995004,-0.278459,0.00110617,0.0101825,699,708,-19.6221,4.68067
-518,316,-19.6436,-5.33795,0.00174889,0.000407289,4.73852e-06,0.00174891,0.000407273,0.00353194,0.00105667,0.0101606,706,708,-19.6435,5.33794
-511,316,-19.6818,-5.99445,0.00159164,-0.000188776,0.000294418,0.00163906,-0.000236199,0.159703,0.00117935,0.0116702,713,708,-19.6818,5.99443
-504,316,-19.7037,-6.66498,0.00141452,-0.000693893,0.000611763,0.00157917,-0.000858541,0.262907,0.00142776,0.015106,720,708,-19.7037,6.66498
-497,316,-19.7163,-7.29993,0.00135328,-0.00105217,0.000861781,0.00163016,-0.00132905,0.310864,0.00171144,0.0133565,727,708,-19.7163,7.29991
-490,316,-19.7426,-7.97357,0.00157882,-0.00133621,0.00110765,0.00195194,-0.00170933,0.324921,0.00211538,0.0190089,734,708,-19.7426,7.97358
-483,316,-19.7592,-8.70917,0,0,0,0,0,0,0,-1,741,708,-19.7592,8.70916
-476,316,-8.90894,-3.31207,0,0,0,0,0,0,0,-1,748,708,-8.90896,3.31206
-469,316,-6.24194,-1.42725,0,0,0,0,0,0,0,-1,755,708,-6.24192,1.42725
-462,316,-5.74237,-1.40039,0,0,0,0,0,0,0,-1,762,708,-5.74238,1.40039
-455,316,-5.44745,-1.21899,0,0,0,0,0,0,0,-1,769,708,-5.44746,1.21898
-448,316,-14.8945,0.655396,0,0,0,0,0,0,0,-1,776,708,-14.8946,-0.655396
-441,316,-14.9626,0.576111,0,0,0,0,0,0,0,-1,783,708,-14.9626,-0.576115
-434,316,-27.7723,1.15576,0,0,0,0,0,0,0,-1,790,708,-27.7723,-1.15579
-427,316,-28.0504,1.31427,0,0,0,0,0,0,0,-1,797,708,-28.0504,-1.31427
-420,316,-28.198,1.62891,0,0,0,0,0,0,0,-1,804,708,-28.198,-1.62889
-413,316,0,0,0,0,0,0,0,0,0,-1,811,708,0,0
-406,316,0,0,0,0,0,0,0,0,0,-1,818,708,0,0
-399,316,0,0,0,0,0,0,0,0,0,-1,825,708,0,0
-392,316,0,0,0,0,0,0,0,0,0,-1,832,708,0,0
-385,316,0,0,0,0,0,0,0,0,0,-1,839,708,0,0
-378,316,0,0,0,0,0,0,0,0,0,-1,846,708,0,0
-371,316,0,0,0,0,0,0,0,0,0,-1,853,708,0,0
-364,316,0,0,0,0,0,0,0,0,0,-1,860,708,0,0
-357,316,0,0,0,0,0,0,0,0,0,-1,867,708,0,0
-350,316,0,0,0,0,0,0,0,0,0,-1,874,708,0,0
-343,316,0,0,0,0,0,0,0,0,0,-1,881,708,0,0
-336,316,0,0,0,0,0,0,0,0,0,-1,888,708,0,0
-329,316,0,0,0,0,0,0,0,0,0,-1,895,708,0,0
-322,316,0,0,0,0,0,0,0,0,0,-1,902,708,0,0
-315,316,0,0,0,0,0,0,0,0,0,-1,909,708,0,0
-308,316,0,0,0,0,0,0,0,0,0,-1,916,708,0,0
-301,316,0,0,0,0,0,0,0,0,0,-1,923,708,0,0
-294,316,0,0,0,0,0,0,0,0,0,-1,930,708,0,0
-287,316,0,0,0,0,0,0,0,0,0,-1,937,708,0,0
-280,316,0,0,0,0,0,0,0,0,0,-1,944,708,0,0
-273,316,0,0,0,0,0,0,0,0,0,-1,951,708,0,0
-266,316,0,0,0,0,0,0,0,0,0,-1,958,708,0,0
-259,316,0,0,0,0,0,0,0,0,0,-1,965,708,0,0
-252,316,0,0,0,0,0,0,0,0,0,-1,972,708,0,0
-245,316,0,0,0,0,0,0,0,0,0,-1,979,708,0,0
-238,316,0,0,0,0,0,0,0,0,0,-1,986,708,0,0
-231,316,0,0,0,0,0,0,0,0,0,-1,993,708,0,0
-224,316,0,0,0,0,0,0,0,0,0,-1,1000,708,0,0
-217,316,0,0,0,0,0,0,0,0,0,-1,1007,708,0,0
-210,316,0,0,0,0,0,0,0,0,0,-1,1014,708,0,0
-203,316,0,0,0,0,0,0,0,0,0,-1,1021,708,0,0
-196,316,0,0,0,0,0,0,0,0,0,-1,1028,708,0,0
-189,316,0,0,0,0,0,0,0,0,0,-1,1035,708,0,0
-182,316,0,0,0,0,0,0,0,0,0,-1,1042,708,0,0
-175,316,0,0,0,0,0,0,0,0,0,-1,1049,708,0,0
-168,316,0,0,0,0,0,0,0,0,0,-1,1056,708,0,0
-161,316,0,0,0,0,0,0,0,0,0,-1,1063,708,0,0
-154,316,0,0,0,0,0,0,0,0,0,-1,1070,708,0,0
-147,316,0,0,0,0,0,0,0,0,0,-1,1077,708,0,0
-140,316,0,0,0,0,0,0,0,0,0,-1,1084,708,0,0
-133,316,0,0,0,0,0,0,0,0,0,-1,1091,708,0,0
-126,316,0,0,0,0,0,0,0,0,0,-1,1098,708,0,0
-119,316,0,0,0,0,0,0,0,0,0,-1,1105,708,0,0
-112,316,0,0,0,0,0,0,0,0,0,-1,1112,708,0,0
-105,316,0,0,0,0,0,0,0,0,0,-1,1119,708,0,0
-98,316,0,0,0,0,0,0,0,0,0,-1,1126,708,0,0
-91,316,0,0,0,0,0,0,0,0,0,-1,1133,708,0,0
-84,316,0,0,0,0,0,0,0,0,0,-1,1140,708,0,0
-77,316,0,0,0,0,0,0,0,0,0,-1,1147,708,0,0
-70,316,0,0,0,0,0,0,0,0,0,-1,1154,708,0,0
-63,316,0,0,0,0,0,0,0,0,0,-1,1161,708,0,0
-56,316,0,0,0,0,0,0,0,0,0,-1,1168,708,0,0
-49,316,0,0,0,0,0,0,0,0,0,-1,1175,708,0,0
-42,316,0,0,0,0,0,0,0,0,0,-1,1182,708,0,0
-35,316,0,0,0,0,0,0,0,0,0,-1,1189,708,0,0
-28,316,0,0,0,0,0,0,0,0,0,-1,1196,708,0,0
-21,316,0,0,0,0,0,0,0,0,0,-1,1203,708,0,0
-14,316,0,0,0,0,0,0,0,0,0,-1,1210,708,0,0
-7,316,0,0,0,0,0,0,0,0,0,-1,1217,708,0,0
0,316,0,0,0,0,0,0,0,0,0,-1,1224,708,0,0
7,316,0,0,0,0,0,0,0,0,0,-1,1231,708,0,0
14,316,0,0,0,0,0,0,0,0,0,-1,1238,708,0,0
21,316,0,0,0,0,0,0,0,0,0,-1,1245,708,0,0
28,316,0,0,0,0,0,0,0,0,0,-1,1252,708,0,0
35,316,0,0,0,0,0,0,0,0,0,-1,1259,708,0,0
42,316,0,0,0,0,0,0,0,0,0,-1,1266,708,0,0
49,316,0,0,0,0,0,0,0,0,0,-1,1273,708,0,0
56,316,0,0,0,0,0,0,0,0,0,-1,1280,708,0,0
63,316,0,0,0,0,0,0,0,0,0,-1,1287,708,0,0
70,316,0,0,0,0,0,0,0,0,0,-1,1294,708,0,0
77,316,0,0,0,0,0,0,0,0,0,-1,1301,708,0,0
84,316,0,0,0,0,0,0,0,0,0,-1,1308,708,0,0
91,316,0,0,0,0,0,0,0,0,0,-1,1315,708,0,0
98,316,0,0,0,0,0,0,0,0,0,-1,1322,708,0,0
105,316,0,0,0,0,0,0,0,0,0,-1,1329,708,0,0
112,316,0,0,0,0,0,0,0,0,0,-1,1336,708,0,0
119,316,0,0,0,0,0,0,0,0,0,-1,1343,708,0,0
126,316,0,0,0,0,0,0,0,0,0,-1,1350,708,0,0
133,316,0,0,0,0,0,0,0,0,0,-1,1357,708,0,0
140,316,0,0,0,0,0,0,0,0,0,-1,1364,708,0,0
147,316,0,0,0,0,0,0,0,0,0,-1,1371,708,0,0
154,316,0,0,0,0,0,0,0,0,0,-1,1378,708,0,0
161,316,0,0,0,0,0,0,0,0,0,-1,1385,708,0,0
168,316,0,0,0,0,0,0,0,0,0,-1,1392,708,0,0
175,316,0,0,0,0,0,0,0,0,0,-1,1399,708,0,0
182,316,0,0,0,0,0,0,0,0,0,-1,1406,708,0,0
189,316,0,0,0,0,0,0,0,0,0,-1,1413,708,0,0
196,316,0,0,0,0,0,0,0,0,0,-1,1420,708,0,0
203,316,0,0,0,0,0,0,0,0,0,-1,1427,708,0,0
210,316,0,0,0,0,0,0,0,0,0,-1,1434,708,0,0
217,316,0,0,0,0,0,0,0,0,0,-1,1441,708,0,0
224,316,0,0,0,0,0,0,0,0,0,-1,1448,708,0,0
231,316,0,0,0,0,0,0,0,0,0,-1,1455,708,0,0
238,316,0,0,0,0,0,0,0,0,0,-1,1462,708,0,0
245,316,0,0,0,0,0,0,0,0,0,-1,1469,708,0,0
252,316,0,0,0,0,0,0,0,0,0,-1,1476,708,0,0
259,316,0,0,0,0,0,0,0,0,0,-1,1483,708,0,0
266,316,0,0,0,0,0,0,0,0,0,-1,1490,708,0,0
273,316,0,0,0,0,0,0,0,0,0,-1,1497,708,0,0
280,316,0,0,0,0,0,0,0,0,0,-1,1504,708,0,0
287,316,0,0,0,0,0,0,0,0,0,-1,1511,708,0,0
294,316,0,0,0,0,0,0,0,0,0,-1,1518,708,0,0
301,316,0,0,0,0,0,0,0,0,0,-1,1525,708,0,0
308,316,0,0,0,0,0,0,0,0,0,-1,1532,708,0,0
315,316,0,0,0,0,0,0,0,0,0,-1,1539,708,0,0
322,316,0,0,0,0,0,0,0,0,0,-1,1546,708,0,0
329,316,0,0,0,0,0,0,0,0,0,-1,1553,708,0,0
336,316,0,0,0,0,0,0,0,0,0,-1,1560,708,0,0
343,316,0,0,0,0,0,0,0,0,0,-1,1567,708,0,0
350,316,0,0,0,0,0,0,0,0,0,-1,1574,708,0,0
357,316,0,0,0,0,0,0,0,0,0,-1,1581,708,0,0
364,316,0,0,0,0,0,0,0,0,0,-1,1588,708,0,0
371,316,0,0,0,0,0,0,0,0,0,-1,1595,708,0,0
378,316,0,0,0,0,0,0,0,0,0,-1,1602,708,0,0
385,316,0,0,0,0,0,0,0,0,0,-1,1609,708,0,0
392,316,0,0,0,0,0,0,0,0,0,-1,1616,708,0,0
399,316,0,0,0,0,0,0,0,0,0,-1,1623,708,0,0
406,316,0,0,0,0,0,0,0,0,0,-1,1630,708,0,0
413,316,0,0,0,0,0,0,0,0,0,-1,1637,708,0,0
420,316,0,0,0,0,0,0,0,0,0,-1,1644,708,0,0
427,316,0,0,0,0,0,0,0,0,0,-1,1651,708,0,0
434,316,0,0,0,0,0,0,0,0,0,-1,1658,708,0,0
441,316,0,0,0,0,0,0,0,0,0,-1,1665,708,0,0
448,316,0,0,0,0,0,0,0,0,0,-1,1672,708,0,0
455,316,0,0,0,0,0,0,0,0,0,-1,1679,708,0,0
462,316,0,0,0,0,0,0,0,0,0,-1,1686,708,0,0
469,316,0,0,0,0,0,0,0,0,0,-1,1693,708,0,0
476,316,0,0,0,0,0,0,0,0,0,-1,1700,708,0,0
483,316,0,0,0,0,0,0,0,0,0,-1,1707,708,0,0
490,316,0,0,0,0,0,0,0,0,0,-1,1714,708,0,0
497,316,0,0,0,0,0,0,0,0,0,-1,1721,708,0,0
504,316,0,0,0,0,0,0,0,0,0,-1,1728,708,0,0
511,316,0,0,0,0,0,0,0,0,0,-1,1735,708,0,0
518,316,0,0,0,0,0,0,0,0,0,-1,1742,708,0,0
525,316,0,0,0,0,0,0,0,0,0,-1,1749,708,0,0
532,316,33.8604,0.531128,0,0,0,0,0,0,0,-1,1756,708,33.8604,-0.531151
539,316,44.4543,2.73468,0,0,0,0,0,0,0,-1,1763,708,44.4543,-2.7347
546,316,44.713,3.35498,0,0,0,0,0,0,0,-1,1770,708,44.7131,-3.35501
553,316,39.9031,6.57275,0,0,0,0,0,0,0,-1,1777,708,39.9031,-6.57274
560,316,39.1196,1.10046,0,0,0,0,0,0,0,-1,1784,708,39.1197,-1.10048
567,316,47.3683,6.04919,0,0,0,0,0,0,0,-1,1791,708,47.3683,-6.04918
574,316,45.9872,6.7655,0,0,0,0,0,0,0,-1,1798,708,45.9871,-6.76552
581,316,24.6815,7.77496,0,0,0,0,0,0,0,-1,1805,708,24.6815,-7.77499
588,316,19.7659,2.90198,0,0,0,0,0,0,0,-1,1812,708,19.7659,-2.902
595,316,12.5363,1.50702,0,0,0,0,0,0,0,-1,1819,708,12.5363,-1.50701
602,316,7.79919,0.0422363,0,0,0,0,0,0,0,-1,1826,708,7.79923,-0.0422066
609,316,31.5006,-7.10376,0,0,0,0,0,0,0,-1,1833,708,31.5007,7.10376
616,316,31.7261,-6.43701,-0.00129225,-0.00019295,0.00249994,0.00181705,-0.00330225,0.893609,0.0029968,0.0142288,1840,708,31.7261,6.437
623,316,31.6942,-5.74982,-1.72095e-05,-3.01497e-05,0.00167938,0.00165571,-0.00170307,0.783472,0.00193926,0.0103219,1847,708,31.6942,5.74982
630,316,31.6427,-5.07904,0.000564392,0.000123726,0.00121394,0.00157783,-0.000889712,0.695624,0.00144298,0.0125271,1854,708,31.6427,5.07907
637,316,31.6384,-4.35614,0.000400178,0.000304179,0.000851891,0.00120542,-0.000501064,0.757256,0.00101283,0.0119296,1861,708,31.6384,4.35611
644,316,31.631,-3.67212,-0.00014749,0.0005654,0.000586568,0.000895333,-0.000477423,1.05842,0.00080471,0.0116977,1868,708,31.631,3.6721
651,316,31.5862,-2.98596,-0.000966542,0.000884001,0.000359963,0.000951554,-0.00103409,1.38529,0.00114675,0.0152287,1875,708,31.5862,2.98594
658,316,31.5199,-2.27203,-0.00213142,0.00128359,0.000189857,0.00129411,-0.00214195,1.51543,0.00200384,0.0282058,1882,708,31.5199,2.27202
665,316,31.4449,-1.59302,-0.00340104,0.00177341,4.64232e-05,0.00177382,-0.00340146,1.56183,0.00303681,0.0200758,1889,708,31.4449,1.59302
672,316,31.4652,-0.928467,-0.00480044,0.0024328,-0.000114886,0.00243462,-0.00480226,-1.55492,0.0042521,0.013803,1896,708,31.4652,0.928487
679,316,31.4579,-0.127319,-0.00640211,0.00328928,-0.000286066,0.00329772,-0.00641055,-1.54131,0.0057003,0.0441214,1903,708,31.4579,0.127332
686,316,31.4724,0.635132,0,0,0,0,0,0,0,-1,1910,708,31.4724,-0.635129
693,316,26.4315,1.80652,0,0,0,0,0,0,0,-1,1917,708,26.4315,-1.80651
700,316,12.8749,2.89136,0,0,0,0,0,0,0,-1,1924,708,12.8748,-2.89137
707,316,15.7089,5.41486,0,0,0,0,0,0,0,-1,1931,708,15.7088,-5.41487
714,316,16.1727,5.52045,0,0,0,0,0,0,0,-1,1938,708,16.1728,-5.52042
721,316,16.7094,6.53351,0,0,0,0,0,0,0,-1,1945,708,16.7094,-6.5335
728,316,0,0,0,0,0,0,0,0,0,-1,1952,708,0,0
735,316,0,0,0,0,0,0,0,0,0,-1,1959,708,0,0
742,316,0,0,0,0,0,0,0,0,0,-1,1966,708,0,0
749,316,0,0,0,0,0,0,0,0,0,-1,1973,708,0,0
756,316,0,0,0,0,0,0,0,0,0,-1,1980,708,0,0
763,316,0,0,0,0,0,0,0,0,0,-1,1987,708,0,0
770,316,0,0,0,0,0,0,0,0,0,-1,1994,708,0,0
777,316,0,0,0,0,0,0,0,0,0,-1,2001,708,0,0
784,316,0,0,0,0,0,0,0,0,0,-1,2008,708,0,0
791,316,0,0,0,0,0,0,0,0,0,-1,2015,708,0,0
798,316,0,0,0,0,0,0,0,0,0,-1,2022,708,0,0
805,316,0,0,0,0,0,0,0,0,0,-1,2029,708,0,0
812,316,0,0,0,0,0,0,0,0,0,-1,2036,708,0,0
-700,309,0,0,0,0,0,0,0,0,0,-1,524,715,0,0
-693,309,0,0,0,0,0,0,0,0,0,-1,531,715,0,0
-686,309,0,0,0,0,0,0,0,0,0,-1,538,715,0,0
-679,309,0,0,0,0,0,0,0,0,0,-1,545,715,0,0
-672,309,0,0,0,0,0,0,0,0,0,-1,552,715,0,0
-665,309,0,0,0,0,0,0,0,0,0,-1,559,715,0,0
-658,309,0,0,0,0,0,0,0,0,0,-1,566,715,0,0
-651,309,0,0,0,0,0,0,0,0,0,-1,573,715,0,0
-644,309,0,0,0,0,0,0,0,0,0,-1,580,715,0,0
-637,309,0,0,0,0,0,0,0,0,0,-1,587,715,0,0
-630,309,0,0,0,0,0,0,0,0,0,-1,594,715,0,0
-623,309,0,0,0,0,0,0,0,0,0,-1,601,715,0,0
-616,309,0,0,0,0,0,0,0,0,0,-1,608,715,0,0
-609,309,-5.95392,-3.93689,0,0,0,0,0,0,0,-1,615,715,-5.95392,3.93686
-602,309,-4.99786,-3.31287,0,0,0,0,0,0,0,-1,622,715,-4.99786,3.31284
-595,309,-6.80847,2.4046,0,0,0,0,0,0,0,-1,629,715,-6.80845,-2.40458
-588,309,-6.08795,2.19324,0,0,0,0,0,0,0,-1,636,715,-6.08793,-2.19325
-581,309,-5.97552,1.3277,0,0,0,0,0,0,0,-1,643,715,-5.97552,-1.32769
-574,309,-8.73602,0.208435,0,0,0,0,0,0,0,-1,650,715,-8.73604,-0.208437
-567,309,-10.3909,0.85968,0,0,0,0,0,0,0,-1,657,715,-10.3909,-0.859696
-560,309,-18.6088,-1.73389,0,0,0,0,0,0,0,-1,664,715,-18.6088,1.73389
-553,309,-20.4,-1.99011,0,0,0,0,0,0,0,-1,671,715,-20.4,1.99011
-546,309,-20.3052,-2.65948,0.000848551,0.00338455,-0.000122522,0.00339045,0.000842646,-1.52263,0.00203833,0.0267643,678,715,-20.3052,2.65949
-539,309,-20.235,-3.34167,0.00124117,0.00234105,-0.000174212,0.00236798,0.00121424,-1.4174,0.00136731,0.0149048,685,715,-20.235,3.3417
-532,309,-20.2457,-3.99127,0.00141991,0.00132387,-0.000125774,0.00150652,0.00123726,-0.603046,0.000927712,0.0122169,692,715,-20.2457,3.9913
-525,309,-20.2649,-4.67798,0.00142677,0.000576732,6.23581e-05,0.00143132,0.000572182,0.0728396,0.00083189,0.0162194,699,715,-20.2649,4.67796
-518,309,-20.3099,-5.32129,0.00137913,-2.0118e-05,0.000253604,0.00142368,-6.46637e-05,0.173877,0.000971392,0.0173454,706,715,-20.3099,5.32126
-511,309,-20.3472,-5.95209,0.00118188,-0.000537209,0.00029823,0.00123215,-0.000587477,0.166983,0.00107231,0.0136213,713,715,-20.3472,5.95206
-504,309,-20.3492,-6.63251,0.000840585,-0.00106722,6.57103e-05,0.000842846,-0.00106948,0.0343886,0.00110666,0.0103545,720,715,-20.3492,6.6325
-497,309,-20.3729,-7.25702,0.000494872,-0.00143881,-0.000517872,0.000624832,-0.00156877,-0.245873,0.00130498,0.0140383,727,715,-20.3729,7.257
-490,309,-20.3329,-7.94147,0,0,0,0,0,0,0,-1,734,715,-20.333,7.94148
-483,309,-17.7261,-7.75836,0,0,0,0,0,0,0,-1,741,715,-17.7261,7.75839
-476,309,-5.29486,-1.2262,0,0,0,0,0,0,0,-1,748,715,-5.29484,1.22622
-469,309,-4.22717,-0.592896,0,0,0,0,0,0,0,-1,755,715,-4.2272,0.592905
-462,309,-10.428,2.46948,0,0,0,0,0,0,0,-1,762,715,-10.428,-2.46947
-455,309,-15.8216,0.00915527,0,0,0,0,0,0,0,-1,769,715,-15.8216,-0.00913359
-448,309,-37.3543,-1.02441,0,0,0,0,0,0,0,-1,776,715,-37.3543,1.02444
-441,309,-19.8181,1.4425,0,0,0,0,0,0,0,-1,783,715,-19.8181,-1.44249
-434,309,-28.3196,0.95105,0,0,0,0,0,0,0,-1,790,715,-28.3196,-0.951068
-427,309,-27.8553,1.40332,0,0,0,0,0,0,0,-1,797,715,-27.8553,-1.40334
-420,309,-27.3148,1.90747,0,0,0,0,0,0,0,-1,804,715,-27.3148,-1.90745
-413,309,0,0,0,0,0,0,0,0,0,-1,811,715,0,0
-406,309,0,0,0,0,0,0,0,0,0,-1,818,715,0,0
-399,309,0,0,0,0,0,0,0,0,0,-1,825,715,0,0
-392,309,0,0,0,0,0,0,0,0,0,-1,832,715,0,0
-385,309,0,0,0,0,0,0,0,0,0,-1,839,715,0,0
-378,309,0,0,0,0,0,0,0,0,0,-1,846,715,0,0
-371,309,0,0,0,0,0,0,0,0,0,-1,853,715,0,0
-364,309,0,0,0,0,0,0,0,0,0,-1,860,715,0,0
-357,309,0,0,0,0,0,0,0,0,0,-1,867,715,0,0
-350,309,0,0,0,0,0,0,0,0,0,-1,874,715,0,0
-343,309,0,0,0,0,0,0,0,0,0,-1,881,715,0,0
-336,309,0,0,0,0,0,0,0,0,0,-1,888,715,0,0
-329,309,0,0,0,0,0,0,0,0,0,-1,895,715,0,0
-322,309,0,0,0,0,0,0,0,0,0,-1,902,715,0,0
-315,309,0,0,0,0,0,0,0,0,0,-1,909,715,0,0
-308,309,0,0,0,0,0,0,0,0,0,-1,916,715,0,0
-301,309,0,0,0,0,0,0,0,0,0,-1,923,715,0,0
-294,309,0,0,0,0,0,0,0,0,0,-1,930,715,0,0
-287,309,0,0,0,0,0,0,0,0,0,-1,937,715,0,0
-280,309,0,0,0,0,0,0,0,0,0,-1,944,715,0,0
-273,309,0,0,0,0,0,0,0,0,0,-1,951,715,0,0
-266,309,0,0,0,0,0,0,0,0,0,-1,958,715,0,0
-259,309,0,0,0,0,0,0,0,0,0,-1,965,715,0,0
-252,309,0,0,0,0,0,0,0,0,0,-1,972,715,0,0
-245,309,0,0,0,0,0,0,0,0,0,-1,979,715,0,0
-238,309,0,0,0,0,0,0,0,0,0,-1,986,715,0,0
-231,309,0,0,0,0,0,0,0,0,0,-1,993,715,0,0
-224,309,0,0,0,0,0,0,0,0,0,-1,1000,715,0,0
-217,309,0,0,0,0,0,0,0,0,0,-1,1007,715,0,0
-210,309,0,0,0,0,0,0,0,0,0,-1,1014,715,0,0
-203,309,0,0,0,0,0,0,0,0,0,-1,1021,715,0,0
-196,309,0,0,0,0,0,0,0,0,0,-1,1028,715,0,0
-189,309,0,0,0,0,0,0,0,0,0,-1,1035,715,0,0
-182,309,0,0,0,0,0,0,0,0,0,-1,1042,715,0,0
-175,309,0,0,0,0,0,0,0,0,0,-1,1049,715,0,0
-168,309,0,0,0,0,0,0,0,0,0,-1,1056,715,0,0
-161,309,0,0,0,0,0,0,0,0,0,-1,1063,715,0,0
-154,309,0,0,0,0,0,0,0,0,0,-1,1070,715,0,0
-147,309,0,0,0,0,0,0,0,0,0,-1,1077,715,0,0
-140,309,0,0,0,0,0,0,0,0,0,-1,1084,715,0,0
-133,309,0,0,0,0,0,0,0,0,0,-1,1091,715,0,0
-126,309,0,0,0,0,0,0,0,0,0,-1,1098,715,0,0
-119,309,0,0,0,0,0,0,0,0,0,-1,1105,715,0,0
-112,309,0,0,0,0,0,0,0,0,0,-1,1112,715,0,0
-105,309,0,0,0,0,0,0,0,0,0,-1,1119,715,0,0
-98,309,0,0,0,0,0,0,0,0,0,-1,1126,715,0,0
-91,309,0,0,0,0,0,0,0,0,0,-1,1133,715,0,0
-84,309,0,0,0,0,0,0,0,0,0,-1,1140,715,0,0
-77,309,0,0,0,0,0,0,0,0,0,-1,1147,715,0,0
-70,309,0,0,0,0,0,0,0,0,0,-1,1154,715,0,0
-63,309,0,0,0,0,0,0,0,0,0,-1,1161,715,0,0
-56,309,0,0,0,0,0,0,0,0,0,-1,1168,715,0,0
-49,309,0,0,0,0,0,0,0,0,0,-1,1175,715,0,0
-42,309,0,0,0,0,0,0,0,0,0,-1,1182,715,0,0
-35,309,0,0,0,0,0,0,0,0,0,-1,1189,715,0,0
-28,309,0,0,0,0,0,0,0,0,0,-1,1196,715,0,0
-21,309,0,0,0,0,0,0,0,0,0,-1,1203,715,0,0
-14,309,0,0,0,0,0,0,0,0,0,-1,1210,715,0,0
-7,309,0,0,0,0,0,0,0,0,0,-1,1217,715,0,0
0,309,0,0,0,0,0,0,0,0,0,-1,1224,715,0,0
7,309,0,0,0,0,0,0,0,0,0,-1,1231,715,0,0
14,309,0,0,0,0,0,0,0,0,0,-1,1238,715,0,0
21,309,0,0,0,0,0,0,0,0,0,-1,1245,715,0,0
28,309,0,0,0,0,0,0,0,0,0,-1,1252,715,0,0
35,309,0,0,0,0,0,0,0,0,0,-1,1259,715,0,0
42,309,0,0,0,0,0,0,0,0,0,-1,1266,715,0,0
49,309,0,0,0,0,0,0,0,0,0,-1,1273,715,0,0
56,309,0,0,0,0,0,0,0,0,0,-1,1280,715,0,0
63,309,0,0,0,0,0,0,0,0,0,-1,1287,715,0,0
70,309,0,0,0,0,0,0,0,0,0,-1,1294,715,0,0
77,309,0,0,0,0,0,0,0,0,0,-1,1301,715,0,0
84,309,0,0,0,0,0,0,0,0,0,-1,1308,715,0,0
91,309,0,0,0,0,0,0,0,0,0,-1,1315,715,0,0
98,309,0,0,0,0,0,0,0,0,0,-1,1322,715,0,0
105,309,0,0,0,0,0,0,0,0,0,-1,1329,715,0,0
112,309,0,0,0,0,0,0,0,0,0,-1,1336,715,0,0
119,309,0,0,0,0,0,0,0,0,0,-1,1343,715,0,0
126,309,0,0,0,0,0,0,0,0,0,-1,1350,715,0,0
133,309,0,0,0,0,0,0,0,0,0,-1,1357,715,0,0
140,309,0,0,0,0,0,0,0,0,0,-1,1364,715,0,0
147,309,0,0,0,0,0,0,0,0,0,-1,1371,715,0,0
154,309,0,0,0,0,0,0,0,0,0,-1,1378,715,0,0
161,309,0,0,0,0,0,0,0,0,0,-1,1385,715,0,0
168,309,0,0,0,0,0,0,0,0,0,-1,1392,715,0,0
175,309,0,0,0,0,0,0,0,0,0,-1,1399,715,0,0
182,309,0,0,0,0,0,0,0,0,0,-1,1406,715,0,0
189,309,0,0,0,0,0,0,0,0,0,-1,1413,715,0,0
196,309,0,0,0,0,0,0,0,0,0,-1,1420,715,0,0
203,309,0,0,0,0,0,0,0,0,0,-1,1427,715,0,0
210,309,0,0,0,0,0,0,0,0,0,-1,1434,715,0,0
217,309,0,0,0,0,0,0,0,0,0,-1,1441,715,0,0
224,309,0,0,0,0,0,0,0,0,0,-1,1448,715,0,0
231,309,0,0,0,0,0,0,0,0,0,-1,1455,715,0,0
238,309,0,0,0,0,0,0,0,0,0,-1,1462,715,0,0
245,309,0,0,0,0,0,0,0,0,0,-1,1469,715,0,0
252,309,0,0,0,0,0,0,0,0,0,-1,1476,715,0,0
259,309,0,0,0,0,0,0,0,0,0,-1,1483,715,0,0
266,309,0,0,0,0,0,0,0,0,0,-1,1490,715,0,0
273,309,0,0,0,0,0,0,0,0,0,-1,1497,715,0,0
280,309,0,0,0,0,0,0,0,0,0,-1,1504,715,0,0
287,309,0,0,0,0,0,0,0,0,0,-1,1511,715,0,0
294,309,0,0,0,0,0,0,0,0,0,-1,1518,715,0,0
301,309,0,0,0,0,0,0,0,0,0,-1,1525,715,0,0
308,309,0,0,0,0,0,0,0,0,0,-1,1532,715,0,0
315,309,0,0,0,0,0,0,0,0,0,-1,1539,715,0,0
322,309,0,0,0,0,0,0,0,0,0,-1,1546,715,0,0
329,309,0,0,0,0,0,0,0,0,0,-1,1553,715,0,0
336,309,0,0,0,0,0,0,0,0,0,-1,1560,715,0,0
343,309,0,0,0,0,0,0,0,0,0,-1,1567,715,0,0
350,309,0,0,0,0,0,0,0,0,0,-1,1574,715,0,0
357,309,0,0,0,0,0,0,0,0,0,-1,1581,715,0,0
364,309,0,0,0,0,0,0,0,0,0,-1,1588,715,0,0
371,309,0,0,0,0,0,0,0,0,0,-1,1595,715,0,0
378,309,0,0,0,0,0,0,0,0,0,-1,1602,715,0,0
385,309,0,0,0,0,0,0,0,0,0,-1,1609,715,0,0
392,309,0,0,0,0,0,0,0,0,0,-1,1616,715,0,0
399,309,0,0,0,0,0,0,0,0,0,-1,1623,715,0,0
406,309,0,0,0,0,0,0,0,0,0,-1,1630,715,0,0
413,309,0,0,0,0,0,0,0,0,0,-1,1637,715,0,0
420,309,0,0,0,0,0,0,0,0,0,-1,1644,715,0,0
427,309,0,0,0,0,0,0,0,0,0,-1,1651,715,0,0
434,309,0,0,0,0,0,0,0,0,0,-1,1658,715,0,0
441,309,0,0,0,0,0,0,0,0,0,-1,1665,715,0,0
448,309,0,0,0,0,0,0,0,0,0,-1,1672,715,0,0
455,309,0,0,0,0,0,0,0,0,0,-1,1679,715,0,0
462,309,0,0,0,0,0,0,0,0,0,-1,1686,715,0,0
469,309,0,0,0,0,0,0,0,0,0,-1,1693,715,0,0
476,309,0,0,0,0,0,0,0,0,0,-1,1700,715,0,0
483,309,0,0,0,0,0,0,0,0,0,-1,1707,715,0,0
490,309,0,0,0,0,0,0,0,0,0,-1,1714,715,0,0
497,309,0,0,0,0,0,0,0,0,0,-1,1721,715,0,0
504,309,0,0,0,0,0,0,0,0,0,-1,1728,715,0,0
511,309,0,0,0,0,0,0,0,0,0,-1,1735,715,0,0
518,309,0,0,0,0,0,0,0,0,0,-1,1742,715,0,0
525,309,0,0,0,0,0,0,0,0,0,-1,1749,715,0,0
532,309,0,0,0,0,0,0,0,0,0,-1,1756,715,0,0
539,309,44.2073,2.66235,0,0,0,0,0,0,0,-1,1763,715,44.2073,-2.66238
546,309,44.4976,3.25531,0,0,0,0,0,0,0,-1,1770,715,44.4976,-3.25533
553,309,47.9611,4.06433,0,0,0,0,0,0,0,-1,1777,715,47.9611,-4.06434
560,309,47.9784,4.64801,0,0,0,0,0,0,0,-1,1784,715,47.9784,-4.64799
567,309,47.0073,5.43121,0,0,0,0,0,0,0,-1,1791,715,47.0073,-5.43121
574,309,45.8746,6.53271,0,0,0,0,0,0,0,-1,1798,715,45.8747,-6.53269
581,309,45.0629,7.73468,0,0,0,0,0,0,0,-1,1805,715,45.0629,-7.73471
588,309,26.2064,7.76422,0,0,0,0,0,0,0,-1,1812,715,26.2064,-7.7642
595,309,19.585,3.71558,0,0,0,0,0,0,0,-1,1819,715,19.5849,-3.71555
602,309,11.0811,3.47772,0,0,0,0,0,0,0,-1,1826,715,11.0811,-3.47772
609,309,32.4108,-7.16931,0,0,0,0,0,0,0,-1,1833,715,32.4107,7.16931
616,309,32.4039,-6.43329,-0.00903984,-0.00128524,0.00503494,0.0011923,-0.0115174,1.11351,0.00810498,0.0228175,1840,715,32.4039,6.43326
623,309,32.3857,-5.7254,-0.00485524,-0.000735274,0.00327377,0.0010727,-0.00666322,1.06622,0.0048395,0.0101112,1847,715,32.3858,5.72537
630,309,32.3379,-5.05182,-0.00220744,-0.000315556,0.00217471,0.00111004,-0.00363303,0.990542,0.00286464,0.010665,1854,715,32.3379,5.05183
637,309,32.3099,-4.34357,-0.00100296,2.01909e-05,0.00142939,0.0010268,-0.00200956,0.957244,0.00178339,0.0140361,1861,715,32.3099,4.34359
644,309,32.2676,-3.65668,-0.000606534,0.00041563,0.000947015,0.000980671,-0.00117158,1.03284,0.00124423,0.0153951,1868,715,32.2676,3.65666
651,309,32.2461,-2.97711,-0.000607451,0.000851752,0.000588931,0.00105978,-0.000815484,1.23124,0.00108575,0.015033,1875,715,32.2461,2.97709
658,309,32.2313,-2.27979,-0.00127654,0.00133222,0.000426562,0.0014002,-0.00134452,1.41277,0.00158477,0.0212511,1882,715,32.2313,2.2798
665,309,32.2112,-1.5993,-0.00216098,0.00188623,0.000397058,0.00192482,-0.00219956,1.47392,0.00238297,0.0176941,1889,715,32.2112,1.59932
672,309,32.1744,-0.893738,-0.00307516,0.00259817,0.000383265,0.00262394,-0.00310093,1.50365,0.00330908,0.0158615,1896,715,32.1744,0.893728
679,309,32.1782,-0.156677,-0.00399451,0.00350381,0.000408317,0.00352598,-0.00401667,1.51656,0.00435782,0.0236771,1903,715,32.1782,0.156698
686,309,31.9415,0.646301,-0.00475976,0.00458317,0.000547857,0.00461518,-0.00479177,1.51242,0.00543143,0.0459383,1910,715,31.9415,-0.646317
693,309,31.3501,1.39203,0,0,0,0,0,0,0,-1,1917,715,31.3501,-1.39201
700,309,23.0179,3.08337,0,0,0,0,0,0,0,-1,1924,715,23.018,-3.08336
707,309,15.6318,4.58655,0,0,0,0,0,0,0,-1,1931,715,15.6318,-4.58657
714,309,16.7573,6.68286,0,0,0,0,0,0,0,-1,1938,715,16.7574,-6.68284
721,309,16.8337,5.4458,0,0,0,0,0,0,0,-1,1945,715,16.8338,-5.44582
728,309,0,0,0,0,0,0,0,0,0,-1,1952,715,0,0
735,309,0,0,0,0,0,0,0,0,0,-1,1959,715,0,0
742,309,0,0,0,0,0,0,0,0,0,-1,1966,715,0,0
749,309,0,0,0,0,0,0,0,0,0,-1,1973,715,0,0
756,309,0,0,0,0,0,0,0,0,0,-1,1980,715,0,0
763,309,0,0,0,0,0,0,0,0,0,-1,1987,715,0,0
770,309,0,0,0,0,0,0,0,0,0,-1,1994,715,0,0
777,309,0,0,0,0,0,0,0,0,0,-1,2001,715,0,0
784,309,0,0,0,0,0,0,0,0,0,-1,2008,715,0,0
791,309,0,0,0,0,0,0,0,0,0,-1,2015,715,0,0
798,309,0,0,0,0,0,0,0,0,0,-1,2022,715,0,0
805,309,0,0,0,0,0,0,0,0,0,-1,2029,715,0,0
812,309,0,0,0,0,0,0,0,0,0,-1,2036,715,0,0
-700,302,0,0,0,0,0,0,0,0,0,-1,524,722,0,0
-693,302,0,0,0,0,0,0,0,0,0,-1,531,722,0,0
-686,302,0,0,0,0,0,0,0,0,0,-1,538,722,0,0
-679,302,0,0,0,0,0,0,0,0,0,-1,545,722,0,0
-672,302,0,0,0,0,0,0,0,0,0,-1,552,722,0,0
-665,302,0,0,0,0,0,0,0,0,0,-1,559,722,0,0
-658,302,0,0,0,0,0,0,0,0,0,-1,566,722,0,0
-651,302,0,0,0,0,0,0,0,0,0,-1,573,722,0,0
-644,302,0,0,0,0,0,0,0,0,0,-1,580,722,0,0
-637,302,0,0,0,0,0,0,0,0,0,-1,587,722,0,0
-630,302,0,0,0,0,0,0,0,0,0,-1,594,722,0,0
-623,302,0,0,0,0,0,0,0,0,0,-1,601,722,0,0
-616,302,0,0,0,0,0,0,0,0,0,-1,608,722,0,0
-609,302,-7.79266,-3.71649,0,0,0,0,0,0,0,-1,615,722,-7.79267,3.7165
-602,302,0.92865,-1.99158,0,0,0,0,0,0,0,-1,622,722,0.928637,1.99157
-595,302,-7.89941,2.13641,0,0,0,0,0,0,0,-1,629,722,-7.89939,-2.13639
-588,302,-7.10895,1.79163,0,0,0,0,0,0,0,-1,636,722,-7.10896,-1.79163
-581,302,-9.17566,1.09448,0,0,0,0,0,0,0,-1,643,722,-9.17569,-1.09445
-574,302,-11.5183,-0.344543,0,0,0,0,0,0,0,-1,650,722,-11.5183,0.344557
-567,302,-12.1534,-0.672241,0,0,0,0,0,0,0,-1,657,722,-12.1535,0.672246
-560,302,-20.8066,-1.18475,0,0,0,0,0,0,0,-1,664,722,-20.8066,1.18473
-553,302,-20.9069,-1.93433,-0.000349035,0.00422715,0.000475876,0.00427611,-0.000397997,1.46827,0.00299224,0.0279835,671,722,-20.9068,1.93432
-546,302,-20.9074,-2.64081,0.000361742,0.00285208,0.000180464,0.00286509,0.000348733,1.49883,0.00180508,0.0165008,678,722,-20.9074,2.64083
-539,302,-20.9249,-3.27264,0.00078887,0.00182034,0.000116337,0.0018333,0.000775912,1.45987,0.00106261,0.0143317,685,722,-20.9249,3.27264
-532,302,-20.9279,-3.92792,0.000996579,0.000814467,0.000150331,0.00108128,0.000729766,0.513097,0.000636883,0.0134549,692,722,-20.9279,3.9279
-525,302,-20.9128,-4.66754,0.001044,6.70965e-05,0.000340416,0.00115092,-3.98241e-05,0.304331,0.000780893,0.0187427,699,722,-20.9128,4.66756
-518,302,-20.9529,-5.29816,0.00100547,-0.000427119,0.00044015,0.00112989,-0.000551545,0.2755,0.000989735,0.0213909,706,722,-20.9529,5.29817
-511,302,-21.0065,-5.91919,0.000695993,-0.000838113,0.000241012,0.000732966,-0.000875085,0.152219,0.000929616,0.0114442,713,722,-21.0065,5.91921
-504,302,-21.0227,-6.59265,2.97705e-05,-0.00145589,-0.00050088,0.000182863,-0.00160899,-0.296629,0.00113852,0.00955166,720,722,-21.0227,6.59264
-497,302,-21.063,-7.2384,-0.000696724,-0.00180799,-0.00174594,0.000579869,-0.00308458,-0.631345,0.00227445,0.0153463,727,722,-21.0631,7.23838
-490,302,-21.1129,-7.88098,0,0,0,0,0,0,0,-1,734,722,-21.1129,7.88095
-483,302,-9.53412,-3.1673,0,0,0,0,0,0,0,-1,741,722,-9.53411,3.1673
-476,302,-4.29749,-0.203491,0,0,0,0,0,0,0,-1,748,722,-4.29751,0.203464
-469,302,-12.369,1.42859,0,0,0,0,0,0,0,-1,755,722,-12.3689,-1.42857
-462,302,-17.4766,0.310791,0,0,0,0,0,0,0,-1,762,722,-17.4766,-0.310788
-455,302,-36.7368,-2.97418,0,0,0,0,0,0,0,-1,769,722,-36.7368,2.97416
-448,302,-39.9575,-0.624146,0,0,0,0,0,0,0,-1,776,722,-39.9575,0.624164
-441,302,-39.4683,-0.341492,0,0,0,0,0,0,0,-1,783,722,-39.4683,0.341475
-434,302,-39.4329,-0.154724,0,0,0,0,0,0,0,-1,790,722,-39.4329,0.154743
-427,302,-27.1735,1.81506,0,0,0,0,0,0,0,-1,797,722,-27.1735,-1.81504
-420,302,0,0,0,0,0,0,0,0,0,-1,804,722,0,0
-413,302,0,0,0,0,0,0,0,0,0,-1,811,722,0,0
-406,302,0,0,0,0,0,0,0,0,0,-1,818,722,0,0
-399,302,0,0,0,0,0,0,0,0,0,-1,825,722,0,0
-392,302,0,0,0,0,0,0,0,0,0,-1,832,722,0,0
-385,302,0,0,0,0,0,0,0,0,0,-1,839,722,0,0
-378,302,0,0,0,0,0,0,0,0,0,-1,846,722,0,0
-371,302,0,0,0,0,0,0,0,0,0,-1,853,722,0,0
-364,302,0,0,0,0,0,0,0,0,0,-1,860,722,0,0
-357,302,0,0,0,0,0,0,0,0,0,-1,867,722,0,0
-350,302,0,0,0,0,0,0,0,0,0,-1,874,722,0,0
-343,302,0,0,0,0,0,0,0,0,0,-1,881,722,0,0
-336,302,0,0,0,0,0,0,0,0,0,-1,888,722,0,0
-329,302,0,0,0,0,0,0,0,0,0,-1,895,722,0,0
-322,302,0,0,0,0,0,0,0,0,0,-1,902,722,0,0
-315,302,0,0,0,0,0,0,0,0,0,-1,909,722,0,0
-308,302,0,0,0,0,0,0,0,0,0,-1,916,722,0,0
-301,302,0,0,0,0,0,0,0,0,0,-1,923,722,0,0
-294,302,0,0,0,0,0,0,0,0,0,-1,930,722,0,0
-287,302,0,0,0,0,0,0,0,0,0,-1,937,722,0,0
-280,302,0,0,0,0,0,0,0,0,0,-1,944,722,0,0
-273,302,0,0,0,0,0,0,0,0,0,-1,951,722,0,0
-266,302,0,0,0,0,0,0,0,0,0,-1,958,722,0,0
-259,302,0,0,0,0,0,0,0,0,0,-1,965,722,0,0
-252,302,0,0,0,0,0,0,0,0,0,-1,972,722,0,0
-245,302,0,0,0,0,0,0,0,0,0,-1,979,722,0,0
-238,302,0,0,0,0,0,0,0,0,0,-1,986,722,0,0
-231,302,0,0,0,0,0,0,0,0,0,-1,993,722,0,0
-224,302,0,0,0,0,0,0,0,0,0,-1,1000,722,0,0
-217,302,0,0,0,0,0,0,0,0,0,-1,1007,722,0,0
-210,302,0,0,0,0,0,0,0,0,0,-1,1014,722,0,0
-203,302,0,0,0,0,0,0,0,0,0,-1,1021,722,0,0
-196,302,0,0,0,0,0,0,0,0,0,-1,1028,722,0,0
-189,302,0,0,0,0,0,0,0,0,0,-1,1035,722,0,0
-182,302,0,0,0,0,0,0,0,0,0,-1,1042,722,0,0
-175,302,0,0,0,0,0,0,0,0,0,-1,1049,722,0,0
-168,302,0,0,0,0,0,0,0,0,0,-1,1056,722,0,0
-161,302,0,0,0,0,0,0,0,0,0,-1,1063,722,0,0
-154,302,0,0,0,0,0,0,0,0,0,-1,1070,722,0,0
-147,302,0,0,0,0,0,0,0,0,0,-1,1077,722,0,0
-140,302,0,0,0,0,0,0,0,0,0,-1,1084,722,0,0
-133,302,0,0,0,0,0,0,0,0,0,-1,1091,722,0,0
-126,302,0,0,0,0,0,0,0,0,0,-1,1098,722,0,0
-119,302,0,0,0,0,0,0,0,0,0,-1,1105,722,0,0
-112,302,0,0,0,0,0,0,0,0,0,-1,1112,722,0,0
-105,302,0,0,0,0,0,0,0,0,0,-1,1119,722,0,0
-98,302,0,0,0,0,0,0,0,0,0,-1,1126,722,0,0
-91,302,0,0,0,0,0,0,0,0,0,-1,1133,722,0,0
-84,302,0,0,0,0,0,0,0,0,0,-1,1140,722,0,0
-77,302,0,0,0,0,0,0,0,0,0,-1,1147,722,0,0
-70,302,0,0,0,0,0,0,0,0,0,-1,1154,722,0,0
-63,302,0,0,0,0,0,0,0,0,0,-1,1161,722,0,0
-56,302,0,0,0,0,0,0,0,0,0,-1,1168,722,0,0
-49,302,0,0,0,0,0,0,0,0,0,-1,1175,722,0,0
-42,302,0,0,0,0,0,0,0,0,0,-1,1182,722,0,0
-35,302,0,0,0,0,0,0,0,0,0,-1,1189,722,0,0
-28,302,0,0,0,0,0,0,0,0,0,-1,1196,722,0,0
-21,302,0,0,0,0,0,0,0,0,0,-1,1203,722,0,0
-14,302,0,0,0,0,0,0,0,0,0,-1,1210,722,0,0
-7,302,0,0,0,0,0,0,0,0,0,-1,1217,722,0,0
0,302,0,0,0,0,0,0,0,0,0,-1,1224,722,0,0
7,302,0,0,0,0,0,0,0,0,0,-1,1231,722,0,0
14,302,0,0,0,0,0,0,0,0,0,-1,1238,722,0,0
21,302,0,0,0,0,0,0,0,0,0,-1,1245,722,0,0
28,302,0,0,0,0,0,0,0,0,0,-1,1252,722,0,0
35,302,0,0,0,0,0,0,0,0,0,-1,1259,722,0,0
42,302,0,0,0,0,0,0,0,0,0,-1,1266,722,0,0
49,302,0,0,0,0,0,0,0,0,0,-1,1273,722,0,0
56,302,0,0,0,0,0,0,0,0,0,-1,1280,722,0,0
63,302,0,0,0,0,0,0,0,0,0,-1,1287,722,0,0
70,302,0,0,0,0,0,0,0,0,0,-1,1294,722,0,0
77,302,0,0,0,0,0,0,0,0,0,-1,1301,722,0,0
84,302,0,0,0,0,0,0,0,0,0,-1,1308,722,0,0
91,302,0,0,0,0,0,0,0,0,0,-1,1315,722,0,0
98,302,0,0,0,0,0,0,0,0,0,-1,1322,722,0,0
105,302,0,0,0,0,0,0,0,0,0,-1,1329,722,0,0
112,302,0,0,0,0,0,0,0,0,0,-1,1336,722,0,0
119,302,0,0,0,0,0,0,0,0,0,-1,1343,722,0,0
126,302,0,0,0,0,0,0,0,0,0,-1,1350,722,0,0
133,302,0,0,0,0,0,0,0,0,0,-1,1357,722,0,0
140,302,0,0,0,0,0,0,0,0,0,-1,1364,722,0,0
147,302,0,0,0,0,0,0,0,0,0,-1,1371,722,0,0
154,302,0,0,0,0,0,0,0,0,0,-1,1378,722,0,0
161,302,0,0,0,0,0,0,0,0,0,-1,1385,722,0,0
168,302,0,0,0,0,0,0,0,0,0,-1,1392,722,0,0
175,302,0,0,0,0,0,0,0,0,0,-1,1399,722,0,0
182,302,0,0,0,0,0,0,0,0,0,-1,1406,722,0,0
189,302,0,0,0,0,0,0,0,0,0,-1,1413,722,0,0
196,302,0,0,0,0,0,0,0,0,0,-1,1420,722,0,0
203,302,0,0,0,0,0,0,0,0,0,-1,1427,722,0,0
210,302,0,0,0,0,0,0,0,0,0,-1,1434,722,0,0
217,302,0,0,0,0,0,0,0,0,0,-1,1441,722,0,0
224,302,0,0,0,0,0,0,0,0,0,-1,1448,722,0,0
231,302,0,0,0,0,0,0,0,0,0,-1,1455,722,0,0
238,302,0,0,0,0,0,0,0,0,0,-1,1462,722,0,0
245,302,0,0,0,0,0,0,0,0,0,-1,1469,722,0,0
252,302,0,0,0,0,0,0,0,0,0,-1,1476,722,0,0
259,302,0,0,0,0,0,0,0,0,0,-1,1483,722,0,0
266,302,0,0,0,0,0,0,0,0,0,-1,1490,722,0,0
273,302,0,0,0,0,0,0,0,0,0,-1,1497,722,0,0
280,302,0,0,0,0,0,0,0,0,0,-1,1504,722,0,0
287,302,0,0,0,0,0,0,0,0,0,-1,1511,722,0,0
294,302,0,0,0,0,0,0,0,0,0,-1,1518,722,0,0
301,302,0,0,0,0,0,0,0,0,0,-1,1525,722,0,0
308,302,0,0,0,0,0,0,0,0,0,-1,1532,722,0,0
315,302,0,0,0,0,0,0,0,0,0,-1,1539,722,0,0
322,302,0,0,0,0,0,0,0,0,0,-1,1546,722,0,0
329,302,0,0,0,0,0,0,0,0,0,-1,1553,722,0,0
336,302,0,0,0,0,0,0,0,0,0,-1,1560,722,0,0
343,302,0,0,0,0,0,0,0,0,0,-1,1567,722,0,0
350,302,0,0,0,0,0,0,0,0,0,-1,1574,722,0,0
357,302,0,0,0,0,0,0,0,0,0,-1,1581,722,0,0
364,302,0,0,0,0,0,0,0,0,0,-1,1588,722,0,0
371,302,0,0,0,0,0,0,0,0,0,-1,1595,722,0,0
378,302,0,0,0,0,0,0,0,0,0,-1,1602,722,0,0
385,302,0,0,0,0,0,0,0,0,0,-1,1609,722,0,0
392,302,0,0,0,0,0,0,0,0,0,-1,1616,722,0,0
399,302,0,0,0,0,0,0,0,0,0,-1,1623,722,0,0
406,302,0,0,0,0,0,0,0,0,0,-1,1630,722,0,0
413,302,0,0,0,0,0,0,0,0,0,-1,1637,722,0,0
420,302,0,0,0,0,0,0,0,0,0,-1,1644,722,0,0
427,302,0,0,0,0,0,0,0,0,0,-1,1651,722,0,0
434,302,0,0,0,0,0,0,0,0,0,-1,1658,722,0,0
441,302,0,0,0,0,0,0,0,0,0,-1,1665,722,0,0
448,302,0,0,0,0,0,0,0,0,0,-1,1672,722,0,0
455,302,0,0,0,0,0,0,0,0,0,-1,1679,722,0,0
462,302,0,0,0,0,0,0,0,0,0,-1,1686,722,0,0
469,302,0,0,0,0,0,0,0,0,0,-1,1693,722,0,0
476,302,0,0,0,0,0,0,0,0,0,-1,1700,722,0,0
483,302,0,0,0,0,0,0,0,0,0,-1,1707,722,0,0
490,302,0,0,0,0,0,0,0,0,0,-1,1714,722,0,0
497,302,0,0,0,0,0,0,0,0,0,-1,1721,722,0,0
504,302,0,0,0,0,0,0,0,0,0,-1,1728,722,0,0
511,302,0,0,0,0,0,0,0,0,0,-1,1735,722,0,0
518,302,0,0,0,0,0,0,0,0,0,-1,1742,722,0,0
525,302,0,0,0,0,0,0,0,0,0,-1,1749,722,0,0
532,302,0,0,0,0,0,0,0,0,0,-1,1756,722,0,0
539,302,0,0,0,0,0,0,0,0,0,-1,1763,722,0,0
546,302,48.9873,1.50562,0,0,0,0,0,0,0,-1,1770,722,48.9873,-1.50562
553,302,48.5511,2.79346,0,0,0,0,0,0,0,-1,1777,722,48.5512,-2.79343
560,302,47.9004,3.90967,0,0,0,0,0,0,0,-1,1784,722,47.9004,-3.90967
567,302,46.8901,4.84912,0,0,0,0,0,0,0,-1,1791,722,46.8901,-4.84912
574,302,45.9537,6.00867,0,0,0,0,0,0,0,-1,1798,722,45.9537,-6.00864
581,302,45.137,7.38043,0,0,0,0,0,0,0,-1,1805,722,45.1369,-7.38044
588,302,26.9731,7.19983,0,0,0,0,0,0,0,-1,1812,722,26.9732,-7.19981
595,302,27.3826,8.13104,0,0,0,0,0,0,0,-1,1819,722,27.3825,-8.13102
602,302,14.7349,5.21246,0,0,0,0,0,0,0,-1,1826,722,14.7349,-5.21247
609,302,31.1039,-6.34253,0,0,0,0,0,0,0,-1,1833,722,31.1039,6.34254
616,302,33.1179,-6.34833,0,0,0,0,0,0,0,-1,1840,722,33.118,6.34835
623,302,33.0647,-5.68201,-0.0102166,-0.00291874,0.00477084,-0.000561371,-0.012574,1.11186,0.00820194,0.0136035,1847,722,33.0647,5.68201
630,302,33.0106,-5.00391,-0.00596562,-0.00181038,0.00317866,-9.05786e-05,-0.00768542,1.07485,0.00509369,0.011483,1854,722,33.0106,5.00389
637,302,32.9586,-4.31384,-0.00335136,-0.000970274,0.00206543,0.000223172,-0.0045448,1.04685,0.00310693,0.0158986,1861,722,32.9586,4.31385
644,302,32.9398,-3.64453,-0.00194585,-0.000198271,0.00134159,0.00052899,-0.00267311,1.07405,0.00198207,0.0172888,1868,722,32.9398,3.64454
651,302,32.9327,-2.9563,-0.000855789,0.000532669,0.00076738,0.000873247,-0.00119637,1.15309,0.00119974,0.0156137,1875,722,32.9327,2.95628
658,302,32.9274,-2.28967,-0.000754012,0.00119712,0.000523965,0.00132892,-0.000885816,1.32436,0.00128718,0.0161995,1882,722,32.9274,2.28968
665,302,32.8928,-1.60016,-0.00128197,0.00183937,0.000560529,0.00193698,-0.00137958,1.39839,0.00192381,0.0159731,1889,722,32.8928,1.60016
672,302,32.8511,-0.886475,-0.00184402,0.00259012,0.000632986,0.00267871,-0.00193261,1.43174,0.00267394,0.0123206,1896,722,32.851,0.886447
679,302,32.8097,-0.190308,-0.00229896,0.00351349,0.000764771,0.00361243,-0.0023979,1.44214,0.0034936,0.00985161,1903,722,32.8096,0.19032
686,302,32.8226,0.522644,-0.0025319,0.00459463,0.00101377,0.00473604,-0.00267331,1.4322,0.00433269,0.0215517,1910,722,32.8227,-0.522641
693,302,32.7979,1.23895,0,0,0,0,0,0,0,-1,1917,722,32.7979,-1.23894
700,302,25.4069,1.97308,0,0,0,0,0,0,0,-1,1924,722,25.4068,-1.97311
707,302,16.7321,4.76685,0,0,0,0,0,0,0,-1,1931,722,16.7321,-4.76687
714,302,17.2,5.77594,0,0,0,0,0,0,0,-1,1938,722,17.2,-5.77595
721,302,17.7914,6.60394,0,0,0,0,0,0,0,-1,1945,722,17.7914,-6.60395
728,302,17.2798,4.81702,0,0,0,0,0,0,0,-1,1952,722,17.2798,-4.81703
735,302,0,0,0,0,0,0,0,0,0,-1,1959,722,0,0
742,302,0,0,0,0,0,0,0,0,0,-1,1966,722,0,0
749,302,0,0,0,0,0,0,0,0,0,-1,1973,722,0,0
756,302,0,0,0,0,0,0,0,0,0,-1,1980,722,0,0
763,302,0,0,0,0,0,0,0,0,0,-1,1987,722,0,0
770,302,0,0,0,0,0,0,0,0,0,-1,1994,722,0,0
777,302,0,0,0,0,0,0,0,0,0,-1,2001,722,0,0
784,302,0,0,0,0,0,0,0,0,0,-1,2008,722,0,0
791,302,0,0,0,0,0,0,0,0,0,-1,2015,722,0,0
798,302,0,0,0,0,0,0,0,0,0,-1,2022,722,0,0
805,302,0,0,0,0,0,0,0,0,0,-1,2029,722,0,0
812,302,0,0,0,0,0,0,0,0,0,-1,2036,722,0,0
-700,295,0,0,0,0,0,0,0,0,0,-1,524,729,0,0
-693,295,0,0,0,0,0,0,0,0,0,-1,531,729,0,0
-686,295,0,0,0,0,0,0,0,0,0,-1,538,729,0,0
-679,295,0,0,0,0,0,0,0,0,0,-1,545,729,0,0
-672,295,0,0,0,0,0,0,0,0,0,-1,552,729,0,0
-665,295,0,0,0,0,0,0,0,0,0,-1,559,729,0,0
-658,295,0,0,0,0,0,0,0,0,0,-1,566,729,0,0
-651,295,0,0,0,0,0,0,0,0,0,-1,573,729,0,0
-644,295,0,0,0,0,0,0,0,0,0,-1,580,729,0,0
-637,295,0,0,0,0,0,0,0,0,0,-1,587,729,0,0
-630,295,0,0,0,0,0,0,0,0,0,-1,594,729,0,0
-623,295,0,0,0,0,0,0,0,0,0,-1,601,729,0,0
-616,295,-13.4911,1.31738,0,0,0,0,0,0,0,-1,608,729,-13.4911,-1.3174
-609,295,-10.2864,0.832031,0,0,0,0,0,0,0,-1,615,729,-10.2863,-0.832034
-602,295,-8.19006,3.01587,0,0,0,0,0,0,0,-1,622,729,-8.19005,-3.01588
-595,295,-0.615479,-1.95447,0,0,0,0,0,0,0,-1,629,729,-0.615481,1.95445
-588,295,-7.98999,1.56903,0,0,0,0,0,0,0,-1,636,729,-7.98997,-1.56905
-581,295,-12.0404,0.150574,0,0,0,0,0,0,0,-1,643,729,-12.0404,-0.150604
-574,295,-12.1605,-0.0739746,0,0,0,0,0,0,0,-1,650,729,-12.1605,0.0739856
-567,295,-21.0947,-0.649536,0,0,0,0,0,0,0,-1,657,729,-21.0946,0.649516
-560,295,-21.4637,-1.30878,-0.00156214,0.00517444,0.000551004,0.00521921,-0.00160691,1.48972,0.0041209,0.0353921,664,729,-21.4637,1.30875
-553,295,-21.4763,-1.99603,-0.000544804,0.00371551,0.00026488,0.00373192,-0.00056121,1.50894,0.00269457,0.019613,671,729,-21.4763,1.99601
-546,295,-21.5678,-2.64368,3.51741e-05,0.0023476,0.000209877,0.00236649,1.628e-05,1.48101,0.00157226,0.0217722,678,729,-21.5678,2.64368
-539,295,-21.5965,-3.26001,0.000370232,0.00125415,0.000334971,0.00136675,0.000257635,1.24652,0.000838587,0.0188444,685,729,-21.5965,3.25999
-532,295,-21.5978,-3.88434,0.000544696,0.000202415,0.000476432,0.000879793,-0.000132682,0.612968,0.00063539,0.0156202,692,729,-21.5978,3.88436
-525,295,-21.5978,-4.58496,0.000573696,-0.00061535,0.000744013,0.000931545,-0.000973199,0.448309,0.00109979,0.014298,699,729,-21.5978,4.58495
-518,295,-21.6013,-5.24579,0.000438489,-0.0010085,0.000768259,0.000770299,-0.00134031,0.407699,0.00123328,0.0106102,706,729,-21.6013,5.24579
-511,295,-21.6429,-5.87573,-8.37175e-05,-0.00131603,0.000334157,1.0606e-06,-0.00140081,0.248465,0.000934227,0.00889234,713,729,-21.6429,5.87573
-504,295,-21.6733,-6.52673,-0.00103805,-0.00193386,-0.000852568,-0.000522888,-0.00244902,-0.543533,0.0014893,0.0104926,720,729,-21.6734,6.52674
-497,295,-21.7421,-7.12225,-0.00208552,-0.00213592,-0.00260594,0.000495349,-0.00471678,-0.780563,0.00332197,0.0228905,727,729,-21.7421,7.12225
-490,295,-21.8135,-7.69342,0,0,0,0,0,0,0,-1,734,729,-21.8134,7.6934
-483,295,-6.84503,-0.454651,0,0,0,0,0,0,0,-1,741,729,-6.84505,0.454639
-476,295,-13.1738,-0.836243,0,0,0,0,0,0,0,-1,748,729,-13.1738,0.836223
-469,295,-26.5608,-0.466187,0,0,0,0,0,0,0,-1,755,729,-26.5608,0.466162
-462,295,-29.7701,-0.792664,0,0,0,0,0,0,0,-1,762,729,-29.7701,0.792642
-455,295,-39.7284,-1.35437,0,0,0,0,0,0,0,-1,769,729,-39.7284,1.35437
-448,295,-40.9255,-1.80212,0,0,0,0,0,0,0,-1,776,729,-40.9255,1.80211
-441,295,-39.6894,-0.329468,0,0,0,0,0,0,0,-1,783,729,-39.6894,0.329463
-434,295,-39.6559,-0.0856934,0,0,0,0,0,0,0,-1,790,729,-39.6559,0.0856846
-427,295,0,0,0,0,0,0,0,0,0,-1,797,729,0,0
-420,295,0,0,0,0,0,0,0,0,0,-1,804,729,0,0
-413,295,0,0,0,0,0,0,0,0,0,-1,811,729,0,0
-406,295,0,0,0,0,0,0,0,0,0,-1,818,729,0,0
-399,295,0,0,0,0,0,0,0,0,0,-1,825,729,0,0
-392,295,0,0,0,0,0,0,0,0,0,-1,832,729,0,0
-385,295,0,0,0,0,0,0,0,0,0,-1,839,729,0,0
-378,295,0,0,0,0,0,0,0,0,0,-1,846,729,0,0
-371,295,0,0,0,0,0,0,0,0,0,-1,853,729,0,0
-364,295,0,0,0,0,0,0,0,0,0,-1,860,729,0,0
-357,295,0,0,0,0,0,0,0,0,0,-1,867,729,0,0
-350,295,0,0,0,0,0,0,0,0,0,-1,874,729,0,0
-343,295,0,0,0,0,0,0,0,0,0,-1,881,729,0,0
-336,295,0,0,0,0,0,0,0,0,0,-1,888,729,0,0
-329,295,0,0,0,0,0,0,0,0,0,-1,895,729,0,0
-322,295,0,0,0,0,0,0,0,0,0,-1,902,729,0,0
-315,295,0,0,0,0,0,0,0,0,0,-1,909,729,0,0
-308,295,0,0,0,0,0,0,0,0,0,-1,916,729,0,0
-301,295,0,0,0,0,0,0,0,0,0,-1,923,729,0,0
-294,295,0,0,0,0,0,0,0,0,0,-1,930,729,0,0
-287,295,0,0,0,0,0,0,0,0,0,-1,937,729,0,0
-280,295,0,0,0,0,0,0,0,0,0,-1,944,729,0,0
-273,295,0,0,0,0,0,0,0,0,0,-1,951,729,0,0
-266,295,0,0,0,0,0,0,0,0,0,-1,958,729,0,0
-259,295,0,0,0,0,0,0,0,0,0,-1,965,729,0,0
-252,295,0,0,0,0,0,0,0,0,0,-1,972,729,0,0
-245,295,0,0,0,0,0,0,0,0,0,-1,979,729,0,0
-238,295,0,0,0,0,0,0,0,0,0,-1,986,729,0,0
-231,295,0,0,0,0,0,0,0,0,0,-1,993,729,0,0
-224,295,0,0,0,0,0,0,0,0,0,-1,1000,729,0,0
-217,295,0,0,0,0,0,0,0,0,0,-1,1007,729,0,0
-210,295,0,0,0,0,0,0,0,0,0,-1,1014,729,0,0
-203,295,0,0,0,0,0,0,0,0,0,-1,1021,729,0,0
-196,295,0,0,0,0,0,0,0,0,0,-1,1028,729,0,0
-189,295,0,0,0,0,0,0,0,0,0,-1,1035,729,0,0
-182,295,0,0,0,0,0,0,0,0,0,-1,1042,729,0,0
-175,295,0,0,0,0,0,0,0,0,0,-1,1049,729,0,0
-168,295,0,0,0,0,0,0,0,0,0,-1,1056,729,0,0
-161,295,0,0,0,0,0,0,0,0,0,-1,1063,729,0,0
-154,295,0,0,0,0,0,0,0,0,0,-1,1070,729,0,0
-147,295,0,0,0,0,0,0,0,0,0,-1,1077,729,0,0
-140,295,0,0,0,0,0,0,0,0,0,-1,1084,729,0,0
-133,295,0,0,0,0,0,0,0,0,0,-1,1091,729,0,0
-126,295,0,0,0,0,0,0,0,0,0,-1,1098,729,0,0
-119,295,0,0,0,0,0,0,0,0,0,-1,1105,729,0,0
-112,295,0,0,0,0,0,0,0,0,0,-1,1112,729,0,0
-105,295,0,0,0,0,0,0,0,0,0,-1,1119,729,0,0
-98,295,0,0,0,0,0,0,0,0,0,-1,1126,729,0,0
-91,295,0,0,0,0,0,0,0,0,0,-1,1133,729,0,0
-84,295,0,0,0,0,0,0,0,0,0,-1,1140,729,0,0
-77,295,0,0,0,0,0,0,0,0,0,-1,1147,729,0,0
-70,295,0,0,0,0,0,0,0,0,0,-1,1154,729,0,0
-63,295,0,0,0,0,0,0,0,0,0,-1,1161,729,0,0
-56,295,0,0,0,0,0,0,0,0,0,-1,1168,729,0,0
-49,295,0,0,0,0,0,0,0,0,0,-1,1175,729,0,0
-42,295,0,0,0,0,0,0,0,0,0,-1,1182,729,0,0
-35,295,0,0,0,0,0,0,0,0,0,-1,1189,729,0,0
-28,295,0,0,0,0,0,0,0,0,0,-1,1196,729,0,0
-21,295,0,0,0,0,0,0,0,0,0,-1,1203,729,0,0
-14,295,0,0,0,0,0,0,0,0,0,-1,1210,729,0,0
-7,295,0,0,0,0,0,0,0,0,0,-1,1217,729,0,0
0,295,0,0,0,0,0,0,0,0,0,-1,1224,729,0,0
7,295,0,0,0,0,0,0,0,0,0,-1,1231,729,0,0
14,295,0,0,0,0,0,0,0,0,0,-1,1238,729,0,0
21,295,0,0,0,0,0,0,0,0,0,-1,1245,729,0,0
28,295,0,0,0,0,0,0,0,0,0,-1,1252,729,0,0
35,295,0,0,0,0,0,0,0,0,0,-1,1259,729,0,0
42,295,0,0,0,0,0,0,0,0,0,-1,1266,729,0,0
49,295,0,0,0,0,0,0,0,0,0,-1,1273,729,0,0
56,295,0,0,0,0,0,0,0,0,0,-1,1280,729,0,0
63,295,0,0,0,0,0,0,0,0,0,-1,1287,729,0,0
70,295,0,0,0,0,0,0,0,0,0,-1,1294,729,0,0
77,295,0,0,0,0,0,0,0,0,0,-1,1301,729,0,0
84,295,0,0,0,0,0,0,0,0,0,-1,1308,729,0,0
91,295,0,0,0,0,0,0,0,0,0,-1,1315,729,0,0
98,295,0,0,0,0,0,0,0,0,0,-1,1322,729,0,0
105,295,0,0,0,0,0,0,0,0,0,-1,1329,729,0,0
112,295,0,0,0,0,0,0,0,0,0,-1,1336,729,0,0
119,295,0,0,0,0,0,0,0,0,0,-1,1343,729,0,0
126,295,0,0,0,0,0,0,0,0,0,-1,1350,729,0,0
133,295,0,0,0,0,0,0,0,0,0,-1,1357,729,0,0
140,295,0,0,0,0,0,0,0,0,0,-1,1364,729,0,0
147,295,0,0,0,0,0,0,0,0,0,-1,1371,729,0,0
154,295,0,0,0,0,0,0,0,0,0,-1,1378,729,0,0
161,295,0,0,0,0,0,0,0,0,0,-1,1385,729,0,0
168,295,0,0,0,0,0,0,0,0,0,-1,1392,729,0,0
175,295,0,0,0,0,0,0,0,0,0,-1,1399,729,0,0
182,295,0,0,0,0,0,0,0,0,0,-1,1406,729,0,0
189,295,0,0,0,0,0,0,0,0,0,-1,1413,729,0,0
196,295,0,0,0,0,0,0,0,0,0,-1,1420,729,0,0
203,295,0,0,0,0,0,0,0,0,0,-1,1427,729,0,0
210,295,0,0,0,0,0,0,0,0,0,-1,1434,729,0,0
217,295,0,0,0,0,0,0,0,0,0,-1,1441,729,0,0
224,295,0,0,0,0,0,0,0,0,0,-1,1448,729,0,0
231,295,0,0,0,0,0,0,0,0,0,-1,1455,729,0,0
238,295,0,0,0,0,0,0,0,0,0,-1,1462,729,0,0
245,295,0,0,0,0,0,0,0,0,0,-1,1469,729,0,0
252,295,0,0,0,0,0,0,0,0,0,-1,1476,729,0,0
259,295,0,0,0,0,0,0,0,0,0,-1,1483,729,0,0
266,295,0,0,0,0,0,0,0,0,0,-1,1490,729,0,0
273,295,0,0,0,0,0,0,0,0,0,-1,1497,729,0,0
280,295,0,0,0,0,0,0,0,0,0,-1,1504,729,0,0
287,295,0,0,0,0,0,0,0,0,0,-1,1511,729,0,0
294,295,0,0,0,0,0,0,0,0,0,-1,1518,729,0,0
301,295,0,0,0,0,0,0,0,0,0,-1,1525,729,0,0
308,295,0,0,0,0,0,0,0,0,0,-1,1532,729,0,0
315,295,0,0,0,0,0,0,0,0,0,-1,1539,729,0,0
322,295,0,0,0,0,0,0,0,0,0,-1,1546,729,0,0
329,295,0,0,0,0,0,0,0,0,0,-1,1553,729,0,0
336,295,0,0,0,0,0,0,0,0,0,-1,1560,729,0,0
343,295,0,0,0,0,0,0,0,0,0,-1,1567,729,0,0
350,295,0,0,0,0,0,0,0,0,0,-1,1574,729,0,0
357,295,0,0,0,0,0,0,0,0,0,-1,1581,729,0,0
364,295,0,0,0,0,0,0,0,0,0,-1,1588,729,0,0
371,295,0,0,0,0,0,0,0,0,0,-1,1595,729,0,0
378,295,0,0,0,0,0,0,0,0,0,-1,1602,729,0,0
385,295,0,0,0,0,0,0,0,0,0,-1,1609,729,0,0
392,295,0,0,0,0,0,0,0,0,0,-1,1616,729,0,0
399,295,0,0,0,0,0,0,0,0,0,-1,1623,729,0,0
406,295,0,0,0,0,0,0,0,0,0,-1,1630,729,0,0
413,295,0,0,0,0,0,0,0,0,0,-1,1637,729,0,0
420,295,0,0,0,0,0,0,0,0,0,-1,1644,729,0,0
427,295,0,0,0,0,0,0,0,0,0,-1,1651,729,0,0
434,295,0,0,0,0,0,0,0,0,0,-1,1658,729,0,0
441,295,0,0,0,0,0,0,0,0,0,-1,1665,729,0,0
448,295,0,0,0,0,0,0,0,0,0,-1,1672,729,0,0
455,295,0,0,0,0,0,0,0,0,0,-1,1679,729,0,0
462,295,0,0,0,0,0,0,0,0,0,-1,1686,729,0,0
469,295,0,0,0,0,0,0,0,0,0,-1,1693,729,0,0
476,295,0,0,0,0,0,0,0,0,0,-1,1700,729,0,0
483,295,0,0,0,0,0,0,0,0,0,-1,1707,729,0,0
490,295,0,0,0,0,0,0,0,0,0,-1,1714,729,0,0
497,295,0,0,0,0,0,0,0,0,0,-1,1721,729,0,0
504,295,0,0,0,0,0,0,0,0,0,-1,1728,729,0,0
511,295,0,0,0,0,0,0,0,0,0,-1,1735,729,0,0
518,295,0,0,0,0,0,0,0,0,0,-1,1742,729,0,0
525,295,0,0,0,0,0,0,0,0,0,-1,1749,729,0,0
532,295,0,0,0,0,0,0,0,0,0,-1,1756,729,0,0
539,295,0,0,0,0,0,0,0,0,0,-1,1763,729,0,0
546,295,48.8486,1.93115,0,0,0,0,0,0,0,-1,1770,729,48.8486,-1.93117
553,295,48.7095,2.24249,0,0,0,0,0,0,0,-1,1777,729,48.7095,-2.24251
560,295,47.8405,3.19769,0,0,0,0,0,0,0,-1,1784,729,47.8405,-3.19772
567,295,50.6709,1.9353,0,0,0,0,0,0,0,-1,1791,729,50.6709,-1.9353
574,295,45.8945,5.06598,0,0,0,0,0,0,0,-1,1798,729,45.8945,-5.06597
581,295,37.8191,2.19592,0,0,0,0,0,0,0,-1,1805,729,37.8191,-2.19594
588,295,39.0542,2.45679,0,0,0,0,0,0,0,-1,1812,729,39.0542,-2.45676
595,295,27.2102,6.99121,0,0,0,0,0,0,0,-1,1819,729,27.2103,-6.99121
602,295,26.9065,7.82141,0,0,0,0,0,0,0,-1,1826,729,26.9064,-7.8214
609,295,11.7737,2.19989,0,0,0,0,0,0,0,-1,1833,729,11.7736,-2.19988
616,295,33.8091,-6.34521,0,0,0,0,0,0,0,-1,1840,729,33.8091,6.34522
623,295,33.7229,-5.6684,-0.0143027,-0.0048142,0.00647521,-0.00153123,-0.0175857,1.10156,0.0112482,0.0301124,1847,729,33.7229,5.66837
630,295,33.663,-4.96741,-0.00935406,-0.0033068,0.00451538,-0.000896187,-0.0117647,1.08042,0.00756211,0.0120792,1854,729,33.6629,4.96741
637,295,33.6438,-4.27014,-0.00574832,-0.00207417,0.00306987,-0.000333687,-0.00748881,1.05503,0.00488511,0.0139487,1861,729,33.6437,4.27016
644,295,33.6371,-3.58777,-0.00340411,-0.000950874,0.00205177,0.000212975,-0.00456796,1.05481,0.00311872,0.0137383,1868,729,33.637,3.58777
651,295,33.613,-2.8988,-0.00112069,0.000102569,0.00115258,0.000795753,-0.00181387,1.02933,0.00154442,0.0139769,1875,729,33.613,2.89878
658,295,33.5803,-2.23303,-5.08703e-05,0.000985745,0.000748552,0.00137792,-0.000443042,1.08821,0.00109654,0.0135235,1882,729,33.5804,2.23305
665,295,33.541,-1.5661,-0.000153201,0.00177718,0.000847576,0.0020965,-0.000472526,1.21049,0.00157892,0.0128845,1889,729,33.5411,1.5661
672,295,33.5076,-0.881042,-0.000410329,0.00255328,0.000999846,0.00285905,-0.000716103,1.27401,0.00218422,0.0142581,1896,729,33.5075,0.881023
679,295,33.4728,-0.184937,-0.000476502,0.0034615,0.00124855,0.00382399,-0.000838993,1.28824,0.00287016,0.0107453,1903,729,33.4728,0.184963
686,295,33.5005,0.49353,-0.000339189,0.00450351,0.00159485,0.00498155,-0.000817231,1.27958,0.00362429,0.0116231,1910,729,33.5005,-0.493527
693,295,33.5424,1.16351,0,0,0,0,0,0,0,-1,1917,729,33.5424,-1.16352
700,295,31.3757,2.06982,0,0,0,0,0,0,0,-1,1924,729,31.3758,-2.0698
707,295,22.2661,3.05206,0,0,0,0,0,0,0,-1,1931,729,22.2662,-3.05207
714,295,17.4906,4.63068,0,0,0,0,0,0,0,-1,1938,729,17.4906,-4.63066
721,295,18.3792,5.32281,0,0,0,0,0,0,0,-1,1945,729,18.3791,-5.32283
728,295,17.379,3.74866,0,0,0,0,0,0,0,-1,1952,729,17.379,-3.74863
735,295,0,0,0,0,0,0,0,0,0,-1,1959,729,0,0
742,295,0,0,0,0,0,0,0,0,0,-1,1966,729,0,0
749,295,0,0,0,0,0,0,0,0,0,-1,1973,729,0,0
756,295,0,0,0,0,0,0,0,0,0,-1,1980,729,0,0
763,295,0,0,0,0,0,0,0,0,0,-1,1987,729,0,0
770,295,0,0,0,0,0,0,0,0,0,-1,1994,729,0,0
777,295,0,0,0,0,0,0,0,0,0,-1,2001,729,0,0
784,295,0,0,0,0,0,0,0,0,0,-1,2008,729,0,0
791,295,0,0,0,0,0,0,0,0,0,-1,2015,729,0,0
798,295,0,0,0,0,0,0,0,0,0,-1,2022,729,0,0
805,295,0,0,0,0,0,0,0,0,0,-1,2029,729,0,0
812,295,0,0,0,0,0,0,0,0,0,-1,2036,729,0,0
-700,288,0,0,0,0,0,0,0,0,0,-1,524,736,0,0
-693,288,0,0,0,0,0,0,0,0,0,-1,531,736,0,0
-686,288,0,0,0,0,0,0,0,0,0,-1,538,736,0,0
-679,288,0,0,0,0,0,0,0,0,0,-1,545,736,0,0
-672,288,0,0,0,0,0,0,0,0,0,-1,552,736,0,0
-665,288,0,0,0,0,0,0,0,0,0,-1,559,736,0,0
-658,288,0,0,0,0,0,0,0,0,0,-1,566,736,0,0
-651,288,0,0,0,0,0,0,0,0,0,-1,573,736,0,0
-644,288,0,0,0,0,0,0,0,0,0,-1,580,736,0,0
-637,288,0,0,0,0,0,0,0,0,0,-1,587,736,0,0
-630,288,0,0,0,0,0,0,0,0,0,-1,594,736,0,0
-623,288,0,0,0,0,0,0,0,0,0,-1,601,736,0,0
-616,288,-11.7584,2.4425,0,0,0,0,0,0,0,-1,608,736,-11.7584,-2.44251
-609,288,-10.3007,2.32178,0,0,0,0,0,0,0,-1,615,736,-10.3007,-2.32178
-602,288,-10.1458,-1.85559,0,0,0,0,0,0,0,-1,622,736,-10.1458,1.85556
-595,288,-7.63208,1.81769,0,0,0,0,0,0,0,-1,629,736,-7.63205,-1.81766
-588,288,-8.19269,1.50598,0,0,0,0,0,0,0,-1,636,736,-8.19268,-1.50601
-581,288,-13.1915,0.659241,0,0,0,0,0,0,0,-1,643,736,-13.1915,-0.659228
-574,288,-21.8485,-0.0275269,0,0,0,0,0,0,0,-1,650,736,-21.8485,0.0275375
-567,288,-21.8964,-0.65387,-0.00277731,0.00663552,0.000179785,0.00663896,-0.00278074,1.55171,0.00558846,0.0386071,657,736,-21.8964,0.653847
-560,288,-22.144,-1.35266,-0.00171803,0.0046357,0.000210035,0.00464263,-0.00172497,1.53779,0.0038028,0.017251,664,736,-22.144,1.35266
-553,288,-22.1287,-1.96393,-0.000892978,0.00312461,0.000232679,0.00313804,-0.000906408,1.51314,0.00245069,0.0205725,671,736,-22.1287,1.96392
-546,288,-22.1733,-2.62073,-0.000384561,0.00174248,0.000385769,0.00181029,-0.000452364,1.39681,0.00138254,0.0223798,678,736,-22.1733,2.62073
-539,288,-22.2095,-3.24622,-8.55141e-05,0.000574033,0.000689599,0.00100865,-0.000520134,1.00843,0.000897541,0.0185768,685,736,-22.2095,3.24624
-532,288,-22.1974,-3.89069,8.43011e-05,-0.000549769,0.000934743,0.00075431,-0.00121978,0.621902,0.00115025,0.0148567,692,736,-22.1975,3.89068
-525,288,-22.2263,-4.55219,0.000146445,-0.00140857,0.00127101,0.000858897,-0.00212102,0.5109,0.00177115,0.0131,699,736,-22.2262,4.55219
-518,288,-22.2808,-5.19611,-2.2743e-06,-0.00157162,0.00117172,0.00062324,-0.00219713,0.490356,0.00171077,0.011488,706,736,-22.2808,5.19612
-511,288,-22.3122,-5.83502,-0.000571188,-0.00168616,0.000442361,-0.000417004,-0.00184034,0.335381,0.00111421,0.00872301,713,736,-22.3122,5.83502
-504,288,-22.3343,-6.48322,-0.00159683,-0.00222219,-0.00116386,-0.000704376,-0.00311464,-0.654169,0.001886,0.0108063,720,736,-22.3343,6.48319
-497,288,-22.3526,-6.92841,-0.00262628,-0.0021897,-0.0032595,0.000858813,-0.00567479,-0.818833,0.00409956,0.0329199,727,736,-22.3526,6.9284
-490,288,-22.2677,-7.29675,0,0,0,0,0,0,0,-1,734,736,-22.2677,7.29676
-483,288,-17.3287,0.564758,0,0,0,0,0,0,0,-1,741,736,-17.3287,-0.56477
-476,288,-26.136,0.452148,0,0,0,0,0,0,0,-1,748,736,-26.136,-0.452177
-469,288,-27.7904,0.649841,0,0,0,0,0,0,0,-1,755,736,-27.7904,-0.649854
-462,288,-38.9562,0.158569,0,0,0,0,0,0,0,-1,762,736,-38.9562,-0.158541
-455,288,-43.7539,-0.235657,0,0,0,0,0,0,0,-1,769,736,-43.7539,0.23565
-448,288,-44.3273,-0.595276,0,0,0,0,0,0,0,-1,776,736,-44.3273,0.595262
-441,288,-41.1157,-2.28247,0,0,0,0,0,0,0,-1,783,736,-41.1157,2.28244
-434,288,-39.9307,-0.149353,0,0,0,0,0,0,0,-1,790,736,-39.9307,0.149359
-427,288,0,0,0,0,0,0,0,0,0,-1,797,736,0,0
-420,288,0,0,0,0,0,0,0,0,0,-1,804,736,0,0
-413,288,0,0,0,0,0,0,0,0,0,-1,811,736,0,0
-406,288,0,0,0,0,0,0,0,0,0,-1,818,736,0,0
-399,288,0,0,0,0,0,0,0,0,0,-1,825,736,0,0
-392,288,0,0,0,0,0,0,0,0,0,-1,832,736,0,0
-385,288,0,0,0,0,0,0,0,0,0,-1,839,736,0,0
-378,288,0,0,0,0,0,0,0,0,0,-1,846,736,0,0
-371,288,0,0,0,0,0,0,0,0,0,-1,853,736,0,0
-364,288,0,0,0,0,0,0,0,0,0,-1,860,736,0,0
-357,288,0,0,0,0,0,0,0,0,0,-1,867,736,0,0
-350,288,0,0,0,0,0,0,0,0,0,-1,874,736,0,0
-343,288,0,0,0,0,0,0,0,0,0,-1,881,736,0,0
-336,288,0,0,0,0,0,0,0,0,0,-1,888,736,0,0
-329,288,0,0,0,0,0,0,0,0,0,-1,895,736,0,0
-322,288,0,0,0,0,0,0,0,0,0,-1,902,736,0,0
-315,288,0,0,0,0,0,0,0,0,0,-1,909,736,0,0
-308,288,0,0,0,0,0,0,0,0,0,-1,916,736,0,0
-301,288,0,0,0,0,0,0,0,0,0,-1,923,736,0,0
-294,288,0,0,0,0,0,0,0,0,0,-1,930,736,0,0
-287,288,0,0,0,0,0,0,0,0,0,-1,937,736,0,0
-280,288,0,0,0,0,0,0,0,0,0,-1,944,736,0,0
-273,288,0,0,0,0,0,0,0,0,0,-1,951,736,0,0
-266,288,0,0,0,0,0,0,0,0,0,-1,958,736,0,0
-259,288,0,0,0,0,0,0,0,0,0,-1,965,736,0,0
-252,288,0,0,0,0,0,0,0,0,0,-1,972,736,0,0
-245,288,0,0,0,0,0,0,0,0,0,-1,979,736,0,0
-238,288,0,0,0,0,0,0,0,0,0,-1,986,736,0,0
-231,288,0,0,0,0,0,0,0,0,0,-1,993,736,0,0
-224,288,0,0,0,0,0,0,0,0,0,-1,1000,736,0,0
-217,288,0,0,0,0,0,0,0,0,0,-1,1007,736,0,0
-210,288,0,0,0,0,0,0,0,0,0,-1,1014,736,0,0
-203,288,0,0,0,0,0,0,0,0,0,-1,1021,736,0,0
-196,288,0,0,0,0,0,0,0,0,0,-1,1028,736,0,0
-189,288,0,0,0,0,0,0,0,0,0,-1,1035,736,0,0
-182,288,0,0,0,0,0,0,0,0,0,-1,1042,736,0,0
-175,288,0,0,0,0,0,0,0,0,0,-1,1049,736,0,0
-168,288,0,0,0,0,0,0,0,0,0,-1,1056,736,0,0
-161,288,0,0,0,0,0,0,0,0,0,-1,1063,736,0,0
-154,288,0,0,0,0,0,0,0,0,0,-1,1070,736,0,0
-147,288,0,0,0,0,0,0,0,0,0,-1,1077,736,0,0
-140,288,0,0,0,0,0,0,0,0,0,-1,1084,736,0,0
-133,288,0,0,0,0,0,0,0,0,0,-1,1091,736,0,0
-126,288,0,0,0,0,0,0,0,0,0,-1,1098,736,0,0
-119,288,0,0,0,0,0,0,0,0,0,-1,1105,736,0,0
-112,288,0,0,0,0,0,0,0,0,0,-1,1112,736,0,0
-105,288,0,0,0,0,0,0,0,0,0,-1,1119,736,0,0
-98,288,0,0,0,0,0,0,0,0,0,-1,1126,736,0,0
-91,288,0,0,0,0,0,0,0,0,0,-1,1133,736,0,0
-84,288,0,0,0,0,0,0,0,0,0,-1,1140,736,0,0
-77,288,0,0,0,0,0,0,0,0,0,-1,1147,736,0,0
-70,288,0,0,0,0,0,0,0,0,0,-1,1154,736,0,0
-63,288,0,0,0,0,0,0,0,0,0,-1,1161,736,0,0
-56,288,0,0,0,0,0,0,0,0,0,-1,1168,736,0,0
-49,288,0,0,0,0,0,0,0,0,0,-1,1175,736,0,0
-42,288,0,0,0,0,0,0,0,0,0,-1,1182,736,0,0
-35,288,0,0,0,0,0,0,0,0,0,-1,1189,736,0,0
-28,288,0,0,0,0,0,0,0,0,0,-1,1196,736,0,0
-21,288,0,0,0,0,0,0,0,0,0,-1,1203,736,0,0
-14,288,0,0,0,0,0,0,0,0,0,-1,1210,736,0,0
-7,288,0,0,0,0,0,0,0,0,0,-1,1217,736,0,0
0,288,0,0,0,0,0,0,0,0,0,-1,1224,736,0,0
7,288,0,0,0,0,0,0,0,0,0,-1,1231,736,0,0
14,288,0,0,0,0,0,0,0,0,0,-1,1238,736,0,0
21,288,0,0,0,0,0,0,0,0,0,-1,1245,736,0,0
28,288,0,0,0,0,0,0,0,0,0,-1,1252,736,0,0
35,288,0,0,0,0,0,0,0,0,0,-1,1259,736,0,0
42,288,0,0,0,0,0,0,0,0,0,-1,1266,736,0,0
49,288,0,0,0,0,0,0,0,0,0,-1,1273,736,0,0
56,288,0,0,0,0,0,0,0,0,0,-1,1280,736,0,0
63,288,0,0,0,0,0,0,0,0,0,-1,1287,736,0,0
70,288,0,0,0,0,0,0,0,0,0,-1,1294,736,0,0
77,288,0,0,0,0,0,0,0,0,0,-1,1301,736,0,0
84,288,0,0,0,0,0,0,0,0,0,-1,1308,736,0,0
91,288,0,0,0,0,0,0,0,0,0,-1,1315,736,0,0
98,288,0,0,0,0,0,0,0,0,0,-1,1322,736,0,0
105,288,0,0,0,0,0,0,0,0,0,-1,1329,736,0,0
112,288,0,0,0,0,0,0,0,0,0,-1,1336,736,0,0
119,288,0,0,0,0,0,0,0,0,0,-1,1343,736,0,0
126,288,0,0,0,0,0,0,0,0,0,-1,1350,736,0,0
133,288,0,0,0,0,0,0,0,0,0,-1,1357,736,0,0
140,288,0,0,0,0,0,0,0,0,0,-1,1364,736,0,0
147,288,0,0,0,0,0,0,0,0,0,-1,1371,736,0,0
154,288,0,0,0,0,0,0,0,0,0,-1,1378,736,0,0
161,288,0,0,0,0,0,0,0,0,0,-1,1385,736,0,0
168,288,0,0,0,0,0,0,0,0,0,-1,1392,736,0,0
175,288,0,0,0,0,0,0,0,0,0,-1,1399,736,0,0
182,288,0,0,0,0,0,0,0,0,0,-1,1406,736,0,0
189,288,0,0,0,0,0,0,0,0,0,-1,1413,736,0,0
196,288,0,0,0,0,0,0,0,0,0,-1,1420,736,0,0
203,288,0,0,0,0,0,0,0,0,0,-1,1427,736,0,0
210,288,0,0,0,0,0,0,0,0,0,-1,1434,736,0,0
217,288,0,0,0,0,0,0,0,0,0,-1,1441,736,0,0
224,288,0,0,0,0,0,0,0,0,0,-1,1448,736,0,0
231,288,0,0,0,0,0,0,0,0,0,-1,1455,736,0,0
238,288,0,0,0,0,0,0,0,0,0,-1,1462,736,0,0
245,288,0,0,0,0,0,0,0,0,0,-1,1469,736,0,0
252,288,0,0,0,0,0,0,0,0,0,-1,1476,736,0,0
259,288,0,0,0,0,0,0,0,0,0,-1,1483,736,0,0
266,288,0,0,0,0,0,0,0,0,0,-1,1490,736,0,0
273,288,0,0,0,0,0,0,0,0,0,-1,1497,736,0,0
280,288,0,0,0,0,0,0,0,0,0,-1,1504,736,0,0
287,288,0,0,0,0,0,0,0,0,0,-1,1511,736,0,0
294,288,0,0,0,0,0,0,0,0,0,-1,1518,736,0,0
301,288,0,0,0,0,0,0,0,0,0,-1,1525,736,0,0
308,288,0,0,0,0,0,0,0,0,0,-1,1532,736,0,0
315,288,0,0,0,0,0,0,0,0,0,-1,1539,736,0,0
322,288,0,0,0,0,0,0,0,0,0,-1,1546,736,0,0
329,288,0,0,0,0,0,0,0,0,0,-1,1553,736,0,0
336,288,0,0,0,0,0,0,0,0,0,-1,1560,736,0,0
343,288,0,0,0,0,0,0,0,0,0,-1,1567,736,0,0
350,288,0,0,0,0,0,0,0,0,0,-1,1574,736,0,0
357,288,0,0,0,0,0,0,0,0,0,-1,1581,736,0,0
364,288,0,0,0,0,0,0,0,0,0,-1,1588,736,0,0
371,288,0,0,0,0,0,0,0,0,0,-1,1595,736,0,0
378,288,0,0,0,0,0,0,0,0,0,-1,1602,736,0,0
385,288,0,0,0,0,0,0,0,0,0,-1,1609,736,0,0
392,288,0,0,0,0,0,0,0,0,0,-1,1616,736,0,0
399,288,0,0,0,0,0,0,0,0,0,-1,1623,736,0,0
406,288,0,0,0,0,0,0,0,0,0,-1,1630,736,0,0
413,288,0,0,0,0,0,0,0,0,0,-1,1637,736,0,0
420,288,0,0,0,0,0,0,0,0,0,-1,1644,736,0,0
427,288,0,0,0,0,0,0,0,0,0,-1,1651,736,0,0
434,288,0,0,0,0,0,0,0,0,0,-1,1658,736,0,0
441,288,0,0,0,0,0,0,0,0,0,-1,1665,736,0,0
448,288,0,0,0,0,0,0,0,0,0,-1,1672,736,0,0
455,288,0,0,0,0,0,0,0,0,0,-1,1679,736,0,0
462,288,0,0,0,0,0,0,0,0,0,-1,1686,736,0,0
469,288,0,0,0,0,0,0,0,0,0,-1,1693,736,0,0
476,288,0,0,0,0,0,0,0,0,0,-1,1700,736,0,0
483,288,0,0,0,0,0,0,0,0,0,-1,1707,736,0,0
490,288,0,0,0,0,0,0,0,0,0,-1,1714,736,0,0
497,288,0,0,0,0,0,0,0,0,0,-1,1721,736,0,0
504,288,0,0,0,0,0,0,0,0,0,-1,1728,736,0,0
511,288,0,0,0,0,0,0,0,0,0,-1,1735,736,0,0
518,288,0,0,0,0,0,0,0,0,0,-1,1742,736,0,0
525,288,0,0,0,0,0,0,0,0,0,-1,1749,736,0,0
532,288,0,0,0,0,0,0,0,0,0,-1,1756,736,0,0
539,288,0,0,0,0,0,0,0,0,0,-1,1763,736,0,0
546,288,0,0,0,0,0,0,0,0,0,-1,1770,736,0,0
553,288,48.1055,1.96002,0,0,0,0,0,0,0,-1,1777,736,48.1055,-1.96004
560,288,50.3898,2.00574,0,0,0,0,0,0,0,-1,1784,736,50.3898,-2.00572
567,288,53.0564,2.46729,0,0,0,0,0,0,0,-1,1791,736,53.0564,-2.46731
574,288,53.3617,3.01221,0,0,0,0,0,0,0,-1,1798,736,53.3617,-3.01222
581,288,53.8143,2.55176,0,0,0,0,0,0,0,-1,1805,736,53.8143,-2.55178
588,288,54.9313,3.29852,0,0,0,0,0,0,0,-1,1812,736,54.9313,-3.29849
595,288,47.035,3.35156,0,0,0,0,0,0,0,-1,1819,736,47.035,-3.35157
602,288,26.7634,7.61279,0,0,0,0,0,0,0,-1,1826,736,26.7635,-7.61279
609,288,17.5223,4.86414,0,0,0,0,0,0,0,-1,1833,736,17.5223,-4.86412
616,288,13.4886,0.801331,0,0,0,0,0,0,0,-1,1840,736,13.4886,-0.80132
623,288,34.3644,-5.68097,0,0,0,0,0,0,0,-1,1847,736,34.3644,5.68099
630,288,34.3054,-4.93176,-0.0120068,-0.00399435,0.0054994,-0.00119666,-0.0148045,1.10019,0.00949595,0.0246037,1854,736,34.3055,4.93179
637,288,34.338,-4.23596,-0.00810711,-0.00279128,0.00392702,-0.000707257,-0.0101911,1.0829,0.00657103,0.0106634,1861,736,34.338,4.23595
644,288,34.3289,-3.56458,-0.00526153,-0.0016317,0.00270718,-0.000187354,-0.00670587,1.08069,0.00440945,0.00977712,1868,736,34.3289,3.5646
651,288,34.297,-2.89337,-0.00193113,-0.0004541,0.0014259,0.000413189,-0.00279842,1.02434,0.00201749,0.011365,1875,736,34.297,2.89338
658,288,34.272,-2.21869,0.000128945,0.000500544,0.000758873,0.00109603,-0.000466543,0.905455,0.000926234,0.0165474,1882,736,34.272,2.21866
665,288,34.2285,-1.51654,0.00038563,0.00141897,0.000877934,0.00192098,-0.000116385,1.05136,0.00132116,0.0175361,1889,736,34.2285,1.51653
672,288,34.1871,-0.852722,0.000308052,0.00217882,0.00107326,0.0026671,-0.000180231,1.14383,0.00184109,0.0161294,1896,736,34.1872,0.852718
679,288,34.1606,-0.158386,0.000457562,0.00304519,0.0014013,0.00365862,-0.000155874,1.15817,0.00249267,0.0135542,1903,736,34.1606,0.158392
686,288,34.142,0.493347,0.000788257,0.00403272,0.0018099,0.004841,-2.00199e-05,1.15078,0.00323403,0.0111064,1910,736,34.142,-0.493318
693,288,34.1628,1.26025,0.00143893,0.00509136,0.00233586,0.00623016,0.000300131,1.11718,0.0040571,0.0247918,1917,736,34.1629,-1.26026
700,288,34.2278,1.88147,0,0,0,0,0,0,0,-1,1924,736,34.2278,-1.88144
707,288,30.9496,3.07977,0,0,0,0,0,0,0,-1,1931,736,30.9496,-3.07975
714,288,23.0149,3.82544,0,0,0,0,0,0,0,-1,1938,736,23.0149,-3.82541
721,288,18.0732,3.69385,0,0,0,0,0,0,0,-1,1945,736,18.0732,-3.69387
728,288,19.3208,3.91455,0,0,0,0,0,0,0,-1,1952,736,19.3209,-3.91455
735,288,18.7712,3.51312,0,0,0,0,0,0,0,-1,1959,736,18.7713,-3.51309
742,288,0,0,0,0,0,0,0,0,0,-1,1966,736,0,0
749,288,0,0,0,0,0,0,0,0,0,-1,1973,736,0,0
756,288,0,0,0,0,0,0,0,0,0,-1,1980,736,0,0
763,288,0,0,0,0,0,0,0,0,0,-1,1987,736,0,0
770,288,0,0,0,0,0,0,0,0,0,-1,1994,736,0,0
777,288,0,0,0,0,0,0,0,0,0,-1,2001,736,0,0
784,288,0,0,0,0,0,0,0,0,0,-1,2008,736,0,0
791,288,0,0,0,0,0,0,0,0,0,-1,2015,736,0,0
798,288,0,0,0,0,0,0,0,0,0,-1,2022,736,0,0
805,288,0,0,0,0,0,0,0,0,0,-1,2029,736,0,0
812,288,0,0,0,0,0,0,0,0,0,-1,2036,736,0,0
-700,281,0,0,0,0,0,0,0,0,0,-1,524,743,0,0
-693,281,0,0,0,0,0,0,0,0,0,-1,531,743,0,0
-686,281,0,0,0,0,0,0,0,0,0,-1,538,743,0,0
-679,281,0,0,0,0,0,0,0,0,0,-1,545,743,0,0
-672,281,0,0,0,0,0,0,0,0,0,-1,552,743,0,0
-665,281,0,0,0,0,0,0,0,0,0,-1,559,743,0,0
-658,281,0,0,0,0,0,0,0,0,0,-1,566,743,0,0
-651,281,0,0,0,0,0,0,0,0,0,-1,573,743,0,0
-644,281,0,0,0,0,0,0,0,0,0,-1,580,743,0,0
-637,281,0,0,0,0,0,0,0,0,0,-1,587,743,0,0
-630,281,0,0,0,0,0,0,0,0,0,-1,594,743,0,0
-623,281,-19.1697,5.67017,0,0,0,0,0,0,0,-1,601,743,-19.1697,-5.67019
-616,281,-11.5906,2.6853,0,0,0,0,0,0,0,-1,608,743,-11.5906,-2.68529
-609,281,-16.1972,4.14838,0,0,0,0,0,0,0,-1,615,743,-16.1972,-4.14837
-602,281,-12.7697,3.94086,0,0,0,0,0,0,0,-1,622,743,-12.7697,-3.94086
-595,281,-10.4797,-1.07404,0,0,0,0,0,0,0,-1,629,743,-10.4798,1.07402
-588,281,-13.277,1.49817,0,0,0,0,0,0,0,-1,636,743,-13.2771,-1.49817
-581,281,-22.5685,0.623169,0,0,0,0,0,0,0,-1,643,743,-22.5685,-0.623198
-574,281,-22.5546,-0.0162964,-0.00331735,0.00830765,-0.000544712,0.00833311,-0.00334281,-1.52408,0.0069433,0.0424115,650,743,-22.5546,0.0162694
-567,281,-22.7529,-0.629272,-0.00224866,0.0060347,-0.000306371,0.00604602,-0.00225998,-1.53388,0.00495875,0.0204814,657,743,-22.7529,0.629288
-560,281,-22.8197,-1.27863,-0.00153428,0.00409979,-1.1438e-05,0.00409981,-0.0015343,-1.56877,0.00336339,0.00875592,664,743,-22.8197,1.27864
-553,281,-22.8052,-1.92682,-0.00096794,0.00254218,0.000240887,0.00255863,-0.000984394,1.5026,0.0021118,0.0146606,671,743,-22.8052,1.92681
-546,281,-22.819,-2.55865,-0.000611565,0.00115146,0.000553183,0.00131066,-0.000770762,1.29059,0.00121511,0.0172775,678,743,-22.8189,2.55865
-539,281,-22.8497,-3.21875,-0.000433679,-0.000100839,0.00101105,0.000757396,-0.00129191,0.866967,0.00119651,0.0154419,685,743,-22.8497,3.21876
-532,281,-22.8792,-3.84937,-0.000363733,-0.00128443,0.00135789,0.000609722,-0.00225789,0.621969,0.00174439,0.0145756,692,743,-22.8792,3.84937
-525,281,-22.9002,-4.50159,-0.000356708,-0.00214799,0.00174479,0.000708891,-0.00321359,0.548273,0.00241365,0.0166366,699,743,-22.9002,4.50158
-518,281,-22.9375,-5.16534,-0.00060021,-0.0019789,0.00145525,0.00032071,-0.00289982,0.564207,0.0020485,0.0136817,706,743,-22.9375,5.16536
-511,281,-22.9735,-5.82825,-0.00127509,-0.00187498,0.000396541,-0.00107783,-0.00207224,0.461607,0.00119673,0.0120041,713,743,-22.9735,5.82823
-504,281,-23.0294,-6.47864,-0.00240849,-0.00233758,-0.00160619,-0.000766458,-0.00397961,-0.796434,0.00243808,0.0158038,720,743,-23.0294,6.47866
-497,281,-22.9432,-7.09259,-0.00346615,-0.00209601,-0.00397422,0.00125176,-0.00681391,-0.870749,0.00501223,0.0487561,727,743,-22.9432,7.0926
-490,281,-22.7816,-7.62927,0,0,0,0,0,0,0,-1,734,743,-22.7816,7.62928
-483,281,-22.1078,-2.34973,0,0,0,0,0,0,0,-1,741,743,-22.1078,2.3497
-476,281,-28.0016,2.17786,0,0,0,0,0,0,0,-1,748,743,-28.0016,-2.17786
-469,281,-34.6448,0.171692,0,0,0,0,0,0,0,-1,755,743,-34.6448,-0.171685
-462,281,-41.1978,1.31653,0,0,0,0,0,0,0,-1,762,743,-41.1978,-1.31656
-455,281,-42.8792,0.221863,0,0,0,0,0,0,0,-1,769,743,-42.8792,-0.221842
-448,281,-43.549,-0.256531,0,0,0,0,0,0,0,-1,776,743,-43.5489,0.256546
-441,281,-44.1879,-0.576233,0,0,0,0,0,0,0,-1,783,743,-44.1879,0.576237
-434,281,0,0,0,0,0,0,0,0,0,-1,790,743,0,0
-427,281,0,0,0,0,0,0,0,0,0,-1,797,743,0,0
-420,281,0,0,0,0,0,0,0,0,0,-1,804,743,0,0
-413,281,0,0,0,0,0,0,0,0,0,-1,811,743,0,0
-406,281,0,0,0,0,0,0,0,0,0,-1,818,743,0,0
-399,281,0,0,0,0,0,0,0,0,0,-1,825,743,0,0
-392,281,0,0,0,0,0,0,0,0,0,-1,832,743,0,0
-385,281,0,0,0,0,0,0,0,0,0,-1,839,743,0,0
-378,281,0,0,0,0,0,0,0,0,0,-1,846,743,0,0
-371,281,0,0,0,0,0,0,0,0,0,-1,853,743,0,0
-364,281,0,0,0,0,0,0,0,0,0,-1,860,743,0,0
-357,281,0,0,0,0,0,0,0,0,0,-1,867,743,0,0
-350,281,0,0,0,0,0,0,0,0,0,-1,874,743,0,0
-343,281,0,0,0,0,0,0,0,0,0,-1,881,743,0,0
-336,281,0,0,0,0,0,0,0,0,0,-1,888,743,0,0
-329,281,0,0,0,0,0,0,0,0,0,-1,895,743,0,0
-322,281,0,0,0,0,0,0,0,0,0,-1,902,743,0,0
-315,281,0,0,0,0,0,0,0,0,0,-1,909,743,0,0
-308,281,0,0,0,0,0,0,0,0,0,-1,916,743,0,0
-301,281,0,0,0,0,0,0,0,0,0,-1,923,743,0,0
-294,281,0,0,0,0,0,0,0,0,0,-1,930,743,0,0
-287,281,0,0,0,0,0,0,0,0,0,-1,937,743,0,0
-280,281,0,0,0,0,0,0,0,0,0,-1,944,743,0,0
-273,281,0,0,0,0,0,0,0,0,0,-1,951,743,0,0
-266,281,0,0,0,0,0,0,0,0,0,-1,958,743,0,0
-259,281,0,0,0,0,0,0,0,0,0,-1,965,743,0,0
-252,281,0,0,0,0,0,0,0,0,0,-1,972,743,0,0
-245,281,0,0,0,0,0,0,0,0,0,-1,979,743,0,0
-238,281,0,0,0,0,0,0,0,0,0,-1,986,743,0,0
-231,281,0,0,0,0,0,0,0,0,0,-1,993,743,0,0
-224,281,0,0,0,0,0,0,0,0,0,-1,1000,743,0,0
-217,281,0,0,0,0,0,0,0,0,0,-1,1007,743,0,0
-210,281,0,0,0,0,0,0,0,0,0,-1,1014,743,0,0
-203,281,0,0,0,0,0,0,0,0,0,-1,1021,743,0,0
-196,281,0,0,0,0,0,0,0,0,0,-1,1028,743,0,0
-189,281,0,0,0,0,0,0,0,0,0,-1,1035,743,0,0
-182,281,0,0,0,0,0,0,0,0,0,-1,1042,743,0,0
-175,281,0,0,0,0,0,0,0,0,0,-1,1049,743,0,0
-168,281,0,0,0,0,0,0,0,0,0,-1,1056,743,0,0
-161,281,0,0,0,0,0,0,0,0,0,-1,1063,743,0,0
-154,281,0,0,0,0,0,0,0,0,0,-1,1070,743,0,0
-147,281,0,0,0,0,0,0,0,0,0,-1,1077,743,0,0
-140,281,0,0,0,0,0,0,0,0,0,-1,1084,743,0,0
-133,281,0,0,0,0,0,0,0,0,0,-1,1091,743,0,0
-126,281,0,0,0,0,0,0,0,0,0,-1,1098,743,0,0
-119,281,0,0,0,0,0,0,0,0,0,-1,1105,743,0,0
-112,281,0,0,0,0,0,0,0,0,0,-1,1112,743,0,0
-105,281,0,0,0,0,0,0,0,0,0,-1,1119,743,0,0
-98,281,0,0,0,0,0,0,0,0,0,-1,1126,743,0,0
-91,281,0,0,0,0,0,0,0,0,0,-1,1133,743,0,0
-84,281,0,0,0,0,0,0,0,0,0,-1,1140,743,0,0
-77,281,0,0,0,0,0,0,0,0,0,-1,1147,743,0,0
-70,281,0,0,0,0,0,0,0,0,0,-1,1154,743,0,0
-63,281,0,0,0,0,0,0,0,0,0,-1,1161,743,0,0
-56,281,0,0,0,0,0,0,0,0,0,-1,1168,743,0,0
-49,281,0,0,0,0,0,0,0,0,0,-1,1175,743,0,0
-42,281,0,0,0,0,0,0,0,0,0,-1,1182,743,0,0
-35,281,0,0,0,0,0,0,0,0,0,-1,1189,743,0,0
-28,281,0,0,0,0,0,0,0,0,0,-1,1196,743,0,0
-21,281,0,0,0,0,0,0,0,0,0,-1,1203,743,0,0
-14,281,0,0,0,0,0,0,0,0,0,-1,1210,743,0,0
-7,281,0,0,0,0,0,0,0,0,0,-1,1217,743,0,0
0,281,0,0,0,0,0,0,0,0,0,-1,1224,743,0,0
7,281,0,0,0,0,0,0,0,0,0,-1,1231,743,0,0
14,281,0,0,0,0,0,0,0,0,0,-1,1238,743,0,0
21,281,0,0,0,0,0,0,0,0,0,-1,1245,743,0,0
28,281,0,0,0,0,0,0,0,0,0,-1,1252,743,0,0
35,281,0,0,0,0,0,0,0,0,0,-1,1259,743,0,0
42,281,0,0,0,0,0,0,0,0,0,-1,1266,743,0,0
49,281,0,0,0,0,0,0,0,0,0,-1,1273,743,0,0
56,281,0,0,0,0,0,0,0,0,0,-1,1280,743,0,0
63,281,0,0,0,0,0,0,0,0,0,-1,1287,743,0,0
70,281,0,0,0,0,0,0,0,0,0,-1,1294,743,0,0
77,281,0,0,0,0,0,0,0,0,0,-1,1301,743,0,0
84,281,0,0,0,0,0,0,0,0,0,-1,1308,743,0,0
91,281,0,0,0,0,0,0,0,0,0,-1,1315,743,0,0
98,281,0,0,0,0,0,0,0,0,0,-1,1322,743,0,0
105,281,0,0,0,0,0,0,0,0,0,-1,1329,743,0,0
112,281,0,0,0,0,0,0,0,0,0,-1,1336,743,0,0
119,281,0,0,0,0,0,0,0,0,0,-1,1343,743,0,0
126,281,0,0,0,0,0,0,0,0,0,-1,1350,743,0,0
133,281,0,0,0,0,0,0,0,0,0,-1,1357,743,0,0
140,281,0,0,0,0,0,0,0,0,0,-1,1364,743,0,0
147,281,0,0,0,0,0,0,0,0,0,-1,1371,743,0,0
154,281,0,0,0,0,0,0,0,0,0,-1,1378,743,0,0
161,281,0,0,0,0,0,0,0,0,0,-1,1385,743,0,0
168,281,0,0,0,0,0,0,0,0,0,-1,1392,743,0,0
175,281,0,0,0,0,0,0,0,0,0,-1,1399,743,0,0
182,281,0,0,0,0,0,0,0,0,0,-1,1406,743,0,0
189,281,0,0,0,0,0,0,0,0,0,-1,1413,743,0,0
196,281,0,0,0,0,0,0,0,0,0,-1,1420,743,0,0
203,281,0,0,0,0,0,0,0,0,0,-1,1427,743,0,0
210,281,0,0,0,0,0,0,0,0,0,-1,1434,743,0,0
217,281,0,0,0,0,0,0,0,0,0,-1,1441,743,0,0
224,281,0,0,0,0,0,0,0,0,0,-1,1448,743,0,0
231,281,0,0,0,0,0,0,0,0,0,-1,1455,743,0,0
238,281,0,0,0,0,0,0,0,0,0,-1,1462,743,0,0
245,281,0,0,0,0,0,0,0,0,0,-1,1469,743,0,0
252,281,0,0,0,0,0,0,0,0,0,-1,1476,743,0,0
259,281,0,0,0,0,0,0,0,0,0,-1,1483,743,0,0
266,281,0,0,0,0,0,0,0,0,0,-1,1490,743,0,0
273,281,0,0,0,0,0,0,0,0,0,-1,1497,743,0,0
280,281,0,0,0,0,0,0,0,0,0,-1,1504,743,0,0
287,281,0,0,0,0,0,0,0,0,0,-1,1511,743,0,0
294,281,0,0,0,0,0,0,0,0,0,-1,1518,743,0,0
301,281,0,0,0,0,0,0,0,0,0,-1,1525,743,0,0
308,281,0,0,0,0,0,0,0,0,0,-1,1532,743,0,0
315,281,0,0,0,0,0,0,0,0,0,-1,1539,743,0,0
322,281,0,0,0,0,0,0,0,0,0,-1,1546,743,0,0
329,281,0,0,0,0,0,0,0,0,0,-1,1553,743,0,0
336,281,0,0,0,0,0,0,0,0,0,-1,1560,743,0,0
343,281,0,0,0,0,0,0,0,0,0,-1,1567,743,0,0
350,281,0,0,0,0,0,0,0,0,0,-1,1574,743,0,0
357,281,0,0,0,0,0,0,0,0,0,-1,1581,743,0,0
364,281,0,0,0,0,0,0,0,0,0,-1,1588,743,0,0
371,281,0,0,0,0,0,0,0,0,0,-1,1595,743,0,0
378,281,0,0,0,0,0,0,0,0,0,-1,1602,743,0,0
385,281,0,0,0,0,0,0,0,0,0,-1,1609,743,0,0
392,281,0,0,0,0,0,0,0,0,0,-1,1616,743,0,0
399,281,0,0,0,0,0,0,0,0,0,-1,1623,743,0,0
406,281,0,0,0,0,0,0,0,0,0,-1,1630,743,0,0
413,281,0,0,0,0,0,0,0,0,0,-1,1637,743,0,0
420,281,0,0,0,0,0,0,0,0,0,-1,1644,743,0,0
427,281,0,0,0,0,0,0,0,0,0,-1,1651,743,0,0
434,281,0,0,0,0,0,0,0,0,0,-1,1658,743,0,0
441,281,0,0,0,0,0,0,0,0,0,-1,1665,743,0,0
448,281,0,0,0,0,0,0,0,0,0,-1,1672,743,0,0
455,281,0,0,0,0,0,0,0,0,0,-1,1679,743,0,0
462,281,0,0,0,0,0,0,0,0,0,-1,1686,743,0,0
469,281,0,0,0,0,0,0,0,0,0,-1,1693,743,0,0
476,281,0,0,0,0,0,0,0,0,0,-1,1700,743,0,0
483,281,0,0,0,0,0,0,0,0,0,-1,1707,743,0,0
490,281,0,0,0,0,0,0,0,0,0,-1,1714,743,0,0
497,281,0,0,0,0,0,0,0,0,0,-1,1721,743,0,0
504,281,0,0,0,0,0,0,0,0,0,-1,1728,743,0,0
511,281,0,0,0,0,0,0,0,0,0,-1,1735,743,0,0
518,281,0,0,0,0,0,0,0,0,0,-1,1742,743,0,0
525,281,0,0,0,0,0,0,0,0,0,-1,1749,743,0,0
532,281,0,0,0,0,0,0,0,0,0,-1,1756,743,0,0
539,281,0,0,0,0,0,0,0,0,0,-1,1763,743,0,0
546,281,0,0,0,0,0,0,0,0,0,-1,1770,743,0,0
553,281,0,0,0,0,0,0,0,0,0,-1,1777,743,0,0
560,281,53.1833,2.68683,0,0,0,0,0,0,0,-1,1784,743,53.1833,-2.68685
567,281,53.3784,2.7608,0,0,0,0,0,0,0,-1,1791,743,53.3784,-2.76078
574,281,53.4863,3.00604,0,0,0,0,0,0,0,-1,1798,743,53.4863,-3.00606
581,281,54.8129,3.36597,0,0,0,0,0,0,0,-1,1805,743,54.8129,-3.36597
588,281,54.6653,3.14581,0,0,0,0,0,0,0,-1,1812,743,54.6653,-3.14579
595,281,54.8569,3.32269,0,0,0,0,0,0,0,-1,1819,743,54.857,-3.32269
602,281,45.9985,3.98254,0,0,0,0,0,0,0,-1,1826,743,45.9985,-3.98254
609,281,32.7925,1.28723,0,0,0,0,0,0,0,-1,1833,743,32.7925,-1.28722
616,281,21.3191,-0.253906,0,0,0,0,0,0,0,-1,1840,743,21.3191,0.253931
623,281,31.8741,-4.74182,0,0,0,0,0,0,0,-1,1847,743,31.8741,4.74184
630,281,34.99,-4.86462,0,0,0,0,0,0,0,-1,1854,743,34.99,4.86463
637,281,34.9836,-4.21539,-0.0101481,-0.00359775,0.00451162,-0.00129785,-0.012448,1.09936,0.00790168,0.0166338,1861,743,34.9836,4.21538
644,281,34.9855,-3.53888,-0.00725417,-0.00247962,0.00326685,-0.000820734,-0.00891306,1.10093,0.00568823,0.0105987,1868,743,34.9855,3.53887
651,281,34.9882,-2.88983,-0.00313299,-0.00122859,0.00164438,-0.000280612,-0.00408097,1.04784,0.0026321,0.0118787,1875,743,34.9881,2.88985
658,281,34.9503,-2.22058,-3.41641e-05,-0.000257897,0.000663139,0.000526478,-0.000818539,0.701839,0.000782625,0.0201724,1882,743,34.9503,2.2206
665,281,34.9015,-1.50671,0.000617585,0.000829017,0.000766424,0.00149698,-5.038e-05,0.853932,0.0010152,0.0217242,1889,743,34.9015,1.5067
672,281,34.8555,-0.813354,0.000676027,0.00158603,0.00098445,0.00221554,4.65154e-05,1.00187,0.00146177,0.0136873,1896,743,34.8555,0.813367
679,281,34.8287,-0.151367,0.000984301,0.00243787,0.00134947,0.00324383,0.000178347,1.03241,0.00210562,0.0208716,1903,743,34.8287,0.151354
686,281,34.7709,0.505249,0.00145888,0.00340246,0.0017844,0.00446253,0.000398803,1.03474,0.0028514,0.0165667,1910,743,34.7709,-0.505255
693,281,34.7686,1.18109,0.0022446,0.00443301,0.00236055,0.00594063,0.000736981,1.00243,0.00373905,0.0121836,1917,743,34.7686,-1.18107
700,281,34.7444,1.92426,0.00346976,0.00574607,0.00320689,0.00801079,0.00120504,0.955919,0.00498761,0.0341467,1924,743,34.7444,-1.92425
707,281,34.8396,2.65192,0,0,0,0,0,0,0,-1,1931,743,34.8396,-2.65192
714,281,25.0125,2.5105,0,0,0,0,0,0,0,-1,1938,743,25.0124,-2.51053
721,281,16.9656,3.22174,0,0,0,0,0,0,0,-1,1945,743,16.9656,-3.22172
728,281,19.0251,3.63934,0,0,0,0,0,0,0,-1,1952,743,19.0252,-3.63932
735,281,19.0869,2.50311,0,0,0,0,0,0,0,-1,1959,743,19.0869,-2.5031
742,281,0,0,0,0,0,0,0,0,0,-1,1966,743,0,0
749,281,0,0,0,0,0,0,0,0,0,-1,1973,743,0,0
756,281,0,0,0,0,0,0,0,0,0,-1,1980,743,0,0
763,281,0,0,0,0,0,0,0,0,0,-1,1987,743,0,0
770,281,0,0,0,0,0,0,0,0,0,-1,1994,743,0,0
777,281,0,0,0,0,0,0,0,0,0,-1,2001,743,0,0
784,281,0,0,0,0,0,0,0,0,0,-1,2008,743,0,0
791,281,0,0,0,0,0,0,0,0,0,-1,2015,743,0,0
798,281,0,0,0,0,0,0,0,0,0,-1,2022,743,0,0
805,281,0,0,0,0,0,0,0,0,0,-1,2029,743,0,0
812,281,0,0,0,0,0,0,0,0,0,-1,2036,743,0,0
-700,274,0,0,0,0,0,0,0,0,0,-1,524,750,0,0
-693,274,0,0,0,0,0,0,0,0,0,-1,531,750,0,0
-686,274,0,0,0,0,0,0,0,0,0,-1,538,750,0,0
-679,274,0,0,0,0,0,0,0,0,0,-1,545,750,0,0
-672,274,0,0,0,0,0,0,0,0,0,-1,552,750,0,0
-665,274,0,0,0,0,0,0,0,0,0,-1,559,750,0,0
-658,274,0,0,0,0,0,0,0,0,0,-1,566,750,0,0
-651,274,0,0,0,0,0,0,0,0,0,-1,573,750,0,0
-644,274,0,0,0,0,0,0,0,0,0,-1,580,750,0,0
-637,274,0,0,0,0,0,0,0,0,0,-1,587,750,0,0
-630,274,0,0,0,0,0,0,0,0,0,-1,594,750,0,0
-623,274,-19.6909,5.12701,0,0,0,0,0,0,0,-1,601,750,-19.6908,-5.12703
-616,274,-17.9133,3.9024,0,0,0,0,0,0,0,-1,608,750,-17.9133,-3.90239
-609,274,-22.8754,6.07513,0,0,0,0,0,0,0,-1,615,750,-22.8754,-6.07514
-602,274,-22.5925,4.8269,0,0,0,0,0,0,0,-1,622,750,-22.5925,-4.82689
-595,274,-22.2496,3.62689,0,0,0,0,0,0,0,-1,629,750,-22.2497,-3.62688
-588,274,-22.9983,1.89911,0,0,0,0,0,0,0,-1,636,750,-22.9983,-1.89913
-581,274,-23.297,0.611084,0,0,0,0,0,0,0,-1,643,750,-23.297,-0.611068
-574,274,-23.231,-0.041748,-0.00233136,0.00743245,-0.00117154,0.00757106,-0.00246996,-1.45303,0.00604141,0.02743,650,750,-23.231,0.0417437
-567,274,-23.4226,-0.643982,-0.00177074,0.00534605,-0.000603559,0.00539687,-0.00182157,-1.48679,0.00433462,0.0260695,657,750,-23.4226,0.64401
-560,274,-23.4334,-1.2229,-0.00141066,0.00353034,-8.49106e-05,0.0035318,-0.00141212,-1.55362,0.00294053,0.0145504,664,750,-23.4334,1.2229
-553,274,-23.4637,-1.89966,-0.00112858,0.00198761,0.000361195,0.00202893,-0.0011699,1.4569,0.00186891,0.00995124,671,750,-23.4637,1.89963
-546,274,-23.5125,-2.5509,-0.00096045,0.000624958,0.000816416,0.000970197,-0.00130569,1.17073,0.00131873,0.0121507,678,750,-23.5125,2.55091
-539,274,-23.5479,-3.19458,-0.000957745,-0.000696793,0.00142701,0.00060569,-0.00226023,0.830988,0.00174413,0.0128304,685,750,-23.5479,3.19456
-532,274,-23.573,-3.81769,-0.00102509,-0.00190283,0.00189335,0.000479582,-0.00340751,0.671511,0.00244725,0.0135703,692,750,-23.573,3.81766
-525,274,-23.5858,-4.4505,-0.00109276,-0.00273571,0.00232954,0.000555901,-0.00438437,0.615889,0.00312474,0.0143039,699,750,-23.5858,4.45051
-518,274,-23.5953,-5.12463,-0.00140312,-0.0022912,0.00189183,9.60781e-05,-0.0037904,0.670128,0.00255956,0.013785,706,750,-23.5954,5.12465
-511,274,-23.6208,-5.81061,-0.00210205,-0.00208096,0.000654949,-0.00143647,-0.00274654,0.793449,0.00158627,0.0145035,713,750,-23.6208,5.81062
-504,274,-23.7075,-6.47754,-0.00322715,-0.00251423,-0.00147889,-0.00134944,-0.00439193,-0.903658,0.00259773,0.0280732,720,750,-23.7075,6.47757
-497,274,-23.8362,-7.14752,0,0,0,0,0,0,0,-1,727,750,-23.8362,7.14752
-490,274,-13.6545,-3.58826,0,0,0,0,0,0,0,-1,734,750,-13.6546,3.58825
-483,274,-27.8608,1.30981,0,0,0,0,0,0,0,-1,741,750,-27.8608,-1.30979
-476,274,-33.7561,-0.508606,0,0,0,0,0,0,0,-1,748,750,-33.7561,0.508636
-469,274,-41.1387,0.907715,0,0,0,0,0,0,0,-1,755,750,-41.1387,-0.907744
-462,274,-41.2065,1.21558,0,0,0,0,0,0,0,-1,762,750,-41.2066,-1.2156
-455,274,-41.2744,1.52344,0,0,0,0,0,0,0,-1,769,750,-41.2744,-1.52346
-448,274,-42.0142,0.518311,0,0,0,0,0,0,0,-1,776,750,-42.0142,-0.518291
-441,274,0,0,0,0,0,0,0,0,0,-1,783,750,0,0
-434,274,0,0,0,0,0,0,0,0,0,-1,790,750,0,0
-427,274,0,0,0,0,0,0,0,0,0,-1,797,750,0,0
-420,274,0,0,0,0,0,0,0,0,0,-1,804,750,0,0
-413,274,0,0,0,0,0,0,0,0,0,-1,811,750,0,0
-406,274,0,0,0,0,0,0,0,0,0,-1,818,750,0,0
-399,274,0,0,0,0,0,0,0,0,0,-1,825,750,0,0
-392,274,0,0,0,0,0,0,0,0,0,-1,832,750,0,0
-385,274,0,0,0,0,0,0,0,0,0,-1,839,750,0,0
-378,274,0,0,0,0,0,0,0,0,0,-1,846,750,0,0
-371,274,0,0,0,0,0,0,0,0,0,-1,853,750,0,0
-364,274,0,0,0,0,0,0,0,0,0,-1,860,750,0,0
-357,274,0,0,0,0,0,0,0,0,0,-1,867,750,0,0
-350,274,0,0,0,0,0,0,0,0,0,-1,874,750,0,0
-343,274,0,0,0,0,0,0,0,0,0,-1,881,750,0,0
-336,274,0,0,0,0,0,0,0,0,0,-1,888,750,0,0
-329,274,0,0,0,0,0,0,0,0,0,-1,895,750,0,0
-322,274,0,0,0,0,0,0,0,0,0,-1,902,750,0,0
-315,274,0,0,0,0,0,0,0,0,0,-1,909,750,0,0
-308,274,0,0,0,0,0,0,0,0,0,-1,916,750,0,0
-301,274,0,0,0,0,0,0,0,0,0,-1,923,750,0,0
-294,274,0,0,0,0,0,0,0,0,0,-1,930,750,0,0
-287,274,0,0,0,0,0,0,0,0,0,-1,937,750,0,0
-280,274,0,0,0,0,0,0,0,0,0,-1,944,750,0,0
-273,274,0,0,0,0,0,0,0,0,0,-1,951,750,0,0
-266,274,0,0,0,0,0,0,0,0,0,-1,958,750,0,0
-259,274,0,0,0,0,0,0,0,0,0,-1,965,750,0,0
-252,274,0,0,0,0,0,0,0,0,0,-1,972,750,0,0
-245,274,0,0,0,0,0,0,0,0,0,-1,979,750,0,0
-238,274,0,0,0,0,0,0,0,0,0,-1,986,750,0,0
-231,274,0,0,0,0,0,0,0,0,0,-1,993,750,0,0
-224,274,0,0,0,0,0,0,0,0,0,-1,1000,750,0,0
-217,274,0,0,0,0,0,0,0,0,0,-1,1007,750,0,0
-210,274,0,0,0,0,0,0,0,0,0,-1,1014,750,0,0
-203,274,0,0,0,0,0,0,0,0,0,-1,1021,750,0,0
-196,274,0,0,0,0,0,0,0,0,0,-1,1028,750,0,0
-189,274,0,0,0,0,0,0,0,0,0,-1,1035,750,0,0
-182,274,0,0,0,0,0,0,0,0,0,-1,1042,750,0,0
-175,274,0,0,0,0,0,0,0,0,0,-1,1049,750,0,0
-168,274,0,0,0,0,0,0,0,0,0,-1,1056,750,0,0
-161,274,0,0,0,0,0,0,0,0,0,-1,1063,750,0,0
-154,274,0,0,0,0,0,0,0,0,0,-1,1070,750,0,0
-147,274,0,0,0,0,0,0,0,0,0,-1,1077,750,0,0
-140,274,0,0,0,0,0,0,0,0,0,-1,1084,750,0,0
-133,274,0,0,0,0,0,0,0,0,0,-1,1091,750,0,0
-126,274,0,0,0,0,0,0,0,0,0,-1,1098,750,0,0
-119,274,0,0,0,0,0,0,0,0,0,-1,1105,750,0,0
-112,274,0,0,0,0,0,0,0,0,0,-1,1112,750,0,0
-105,274,0,0,0,0,0,0,0,0,0,-1,1119,750,0,0
-98,274,0,0,0,0,0,0,0,0,0,-1,1126,750,0,0
-91,274,0,0,0,0,0,0,0,0,0,-1,1133,750,0,0
-84,274,0,0,0,0,0,0,0,0,0,-1,1140,750,0,0
-77,274,0,0,0,0,0,0,0,0,0,-1,1147,750,0,0
-70,274,0,0,0,0,0,0,0,0,0,-1,1154,750,0,0
-63,274,0,0,0,0,0,0,0,0,0,-1,1161,750,0,0
-56,274,0,0,0,0,0,0,0,0,0,-1,1168,750,0,0
-49,274,0,0,0,0,0,0,0,0,0,-1,1175,750,0,0
-42,274,0,0,0,0,0,0,0,0,0,-1,1182,750,0,0
-35,274,0,0,0,0,0,0,0,0,0,-1,1189,750,0,0
-28,274,0,0,0,0,0,0,0,0,0,-1,1196,750,0,0
-21,274,0,0,0,0,0,0,0,0,0,-1,1203,750,0,0
-14,274,0,0,0,0,0,0,0,0,0,-1,1210,750,0,0
-7,274,0,0,0,0,0,0,0,0,0,-1,1217,750,0,0
0,274,0,0,0,0,0,0,0,0,0,-1,1224,750,0,0
7,274,0,0,0,0,0,0,0,0,0,-1,1231,750,0,0
14,274,0,0,0,0,0,0,0,0,0,-1,1238,750,0,0
21,274,0,0,0,0,0,0,0,0,0,-1,1245,750,0,0
28,274,0,0,0,0,0,0,0,0,0,-1,1252,750,0,0
35,274,0,0,0,0,0,0,0,0,0,-1,1259,750,0,0
42,274,0,0,0,0,0,0,0,0,0,-1,1266,750,0,0
49,274,0,0,0,0,0,0,0,0,0,-1,1273,750,0,0
56,274,0,0,0,0,0,0,0,0,0,-1,1280,750,0,0
63,274,0,0,0,0,0,0,0,0,0,-1,1287,750,0,0
70,274,0,0,0,0,0,0,0,0,0,-1,1294,750,0,0
77,274,0,0,0,0,0,0,0,0,0,-1,1301,750,0,0
84,274,0,0,0,0,0,0,0,0,0,-1,1308,750,0,0
91,274,0,0,0,0,0,0,0,0,0,-1,1315,750,0,0
98,274,0,0,0,0,0,0,0,0,0,-1,1322,750,0,0
105,274,0,0,0,0,0,0,0,0,0,-1,1329,750,0,0
112,274,0,0,0,0,0,0,0,0,0,-1,1336,750,0,0
119,274,0,0,0,0,0,0,0,0,0,-1,1343,750,0,0
126,274,0,0,0,0,0,0,0,0,0,-1,1350,750,0,0
133,274,0,0,0,0,0,0,0,0,0,-1,1357,750,0,0
140,274,0,0,0,0,0,0,0,0,0,-1,1364,750,0,0
147,274,0,0,0,0,0,0,0,0,0,-1,1371,750,0,0
154,274,0,0,0,0,0,0,0,0,0,-1,1378,750,0,0
161,274,0,0,0,0,0,0,0,0,0,-1,1385,750,0,0
168,274,0,0,0,0,0,0,0,0,0,-1,1392,750,0,0
175,274,0,0,0,0,0,0,0,0,0,-1,1399,750,0,0
182,274,0,0,0,0,0,0,0,0,0,-1,1406,750,0,0
189,274,0,0,0,0,0,0,0,0,0,-1,1413,750,0,0
196,274,0,0,0,0,0,0,0,0,0,-1,1420,750,0,0
203,274,0,0,0,0,0,0,0,0,0,-1,1427,750,0,0
210,274,0,0,0,0,0,0,0,0,0,-1,1434,750,0,0
217,274,0,0,0,0,0,0,0,0,0,-1,1441,750,0,0
224,274,0,0,0,0,0,0,0,0,0,-1,1448,750,0,0
231,274,0,0,0,0,0,0,0,0,0,-1,1455,750,0,0
238,274,0,0,0,0,0,0,0,0,0,-1,1462,750,0,0
245,274,0,0,0,0,0,0,0,0,0,-1,1469,750,0,0
252,274,0,0,0,0,0,0,0,0,0,-1,1476,750,0,0
259,274,0,0,0,0,0,0,0,0,0,-1,1483,750,0,0
266,274,0,0,0,0,0,0,0,0,0,-1,1490,750,0,0
273,274,0,0,0,0,0,0,0,0,0,-1,1497,750,0,0
280,274,0,0,0,0,0,0,0,0,0,-1,1504,750,0,0
287,274,0,0,0,0,0,0,0,0,0,-1,1511,750,0,0
294,274,0,0,0,0,0,0,0,0,0,-1,1518,750,0,0
301,274,0,0,0,0,0,0,0,0,0,-1,1525,750,0,0
308,274,0,0,0,0,0,0,0,0,0,-1,1532,750,0,0
315,274,0,0,0,0,0,0,0,0,0,-1,1539,750,0,0
322,274,0,0,0,0,0,0,0,0,0,-1,1546,750,0,0
329,274,0,0,0,0,0,0,0,0,0,-1,1553,750,0,0
336,274,0,0,0,0,0,0,0,0,0,-1,1560,750,0,0
343,274,0,0,0,0,0,0,0,0,0,-1,1567,750,0,0
350,274,0,0,0,0,0,0,0,0,0,-1,1574,750,0,0
357,274,0,0,0,0,0,0,0,0,0,-1,1581,750,0,0
364,274,0,0,0,0,0,0,0,0,0,-1,1588,750,0,0
371,274,0,0,0,0,0,0,0,0,0,-1,1595,750,0,0
378,274,0,0,0,0,0,0,0,0,0,-1,1602,750,0,0
385,274,0,0,0,0,0,0,0,0,0,-1,1609,750,0,0
392,274,0,0,0,0,0,0,0,0,0,-1,1616,750,0,0
399,274,0,0,0,0,0,0,0,0,0,-1,1623,750,0,0
406,274,0,0,0,0,0,0,0,0,0,-1,1630,750,0,0
413,274,0,0,0,0,0,0,0,0,0,-1,1637,750,0,0
420,274,0,0,0,0,0,0,0,0,0,-1,1644,750,0,0
427,274,0,0,0,0,0,0,0,0,0,-1,1651,750,0,0
434,274,0,0,0,0,0,0,0,0,0,-1,1658,750,0,0
441,274,0,0,0,0,0,0,0,0,0,-1,1665,750,0,0
448,274,0,0,0,0,0,0,0,0,0,-1,1672,750,0,0
455,274,0,0,0,0,0,0,0,0,0,-1,1679,750,0,0
462,274,0,0,0,0,0,0,0,0,0,-1,1686,750,0,0
469,274,0,0,0,0,0,0,0,0,0,-1,1693,750,0,0
476,274,0,0,0,0,0,0,0,0,0,-1,1700,750,0,0
483,274,0,0,0,0,0,0,0,0,0,-1,1707,750,0,0
490,274,0,0,0,0,0,0,0,0,0,-1,1714,750,0,0
497,274,0,0,0,0,0,0,0,0,0,-1,1721,750,0,0
504,274,0,0,0,0,0,0,0,0,0,-1,1728,750,0,0
511,274,0,0,0,0,0,0,0,0,0,-1,1735,750,0,0
518,274,0,0,0,0,0,0,0,0,0,-1,1742,750,0,0
525,274,0,0,0,0,0,0,0,0,0,-1,1749,750,0,0
532,274,0,0,0,0,0,0,0,0,0,-1,1756,750,0,0
539,274,0,0,0,0,0,0,0,0,0,-1,1763,750,0,0
546,274,0,0,0,0,0,0,0,0,0,-1,1770,750,0,0
553,274,0,0,0,0,0,0,0,0,0,-1,1777,750,0,0
560,274,53.8148,2.82648,0,0,0,0,0,0,0,-1,1784,750,53.8148,-2.82646
567,274,53.5079,3.00684,0,0,0,0,0,0,0,-1,1791,750,53.5079,-3.00685
574,274,54.4718,3.29578,0,0,0,0,0,0,0,-1,1798,750,54.4718,-3.29576
581,274,54.5679,3.2691,0,0,0,0,0,0,0,-1,1805,750,54.5678,-3.26908
588,274,54.5679,3.17505,0,0,0,0,0,0,0,-1,1812,750,54.5679,-3.17507
595,274,56.3146,2.29083,0,0,0,0,0,0,0,-1,1819,750,56.3146,-2.29082
602,274,55.6321,2.56519,0,0,0,0,0,0,0,-1,1826,750,55.6321,-2.56521
609,274,44.6676,3.10461,0,0,0,0,0,0,0,-1,1833,750,44.6676,-3.1046
616,274,32.7869,1.78436,0,0,0,0,0,0,0,-1,1840,750,32.7868,-1.78437
623,274,24.8231,-1.80353,0,0,0,0,0,0,0,-1,1847,750,24.8232,1.80351
630,274,35.7977,-4.94055,0,0,0,0,0,0,0,-1,1854,750,35.7977,4.94053
637,274,35.6497,-4.2428,-0.0110062,-0.00431303,0.00462492,-0.00195089,-0.0133683,1.09859,0.00833834,0.0216021,1861,750,35.6496,4.24279
644,274,35.6367,-3.51288,-0.00852604,-0.00326607,0.00345474,-0.00155416,-0.0102379,1.11074,0.00637075,0.0127434,1868,750,35.6367,3.51288
651,274,35.637,-2.84558,-0.00427823,-0.00200764,0.00163007,-0.00115648,-0.0051294,1.08957,0.00310671,0.0140871,1875,750,35.637,2.84556
658,274,35.6111,-2.17761,-0.000503027,-0.00107938,0.000369654,-0.000322494,-0.00125992,0.454313,0.000755742,0.0173722,1882,750,35.6111,2.17758
665,274,35.5791,-1.47369,0.000576569,0.000182066,0.00044189,0.000863233,-0.000104598,0.575477,0.000613335,0.0173185,1889,750,35.5791,1.47372
672,274,35.5519,-0.803955,0.000870883,0.000967929,0.000701531,0.00162261,0.000216199,0.819927,0.00101736,0.0142891,1896,750,35.5519,0.803949
679,274,35.5144,-0.126221,0.00142065,0.00181785,0.00112736,0.00276397,0.00047453,0.872587,0.0017066,0.015424,1903,750,35.5144,0.126217
686,274,35.4667,0.55249,0.00214185,0.00279782,0.00163936,0.00414168,0.00079799,0.884128,0.0025373,0.0167343,1910,750,35.4666,-0.552497
693,274,35.4203,1.23163,0.00313413,0.00381119,0.00230158,0.005799,0.00114632,0.858418,0.0035462,0.0127304,1917,750,35.4203,-1.2316
700,274,35.4307,1.94635,0.00449357,0.00498874,0.00320209,0.0079528,0.00152951,0.823981,0.00487272,0.0166715,1924,750,35.4307,-1.94633
707,274,35.321,2.64362,0.00631699,0.00603717,0.00445682,0.0106361,0.00171806,0.769707,0.00659309,0.032421,1931,750,35.321,-2.64363
714,274,35.1639,3.38483,0,0,0,0,0,0,0,-1,1938,750,35.1639,-3.38481
721,274,25.6215,3.91144,0,0,0,0,0,0,0,-1,1945,750,25.6214,-3.91141
728,274,19.2209,3.95154,0,0,0,0,0,0,0,-1,1952,750,19.221,-3.95151
735,274,20.6608,4.10931,0,0,0,0,0,0,0,-1,1959,750,20.6607,-4.10932
742,274,11.7815,-0.740234,0,0,0,0,0,0,0,-1,1966,750,11.7815,0.740253
749,274,0,0,0,0,0,0,0,0,0,-1,1973,750,0,0
756,274,0,0,0,0,0,0,0,0,0,-1,1980,750,0,0
763,274,0,0,0,0,0,0,0,0,0,-1,1987,750,0,0
770,274,0,0,0,0,0,0,0,0,0,-1,1994,750,0,0
777,274,0,0,0,0,0,0,0,0,0,-1,2001,750,0,0
784,274,0,0,0,0,0,0,0,0,0,-1,2008,750,0,0
791,274,0,0,0,0,0,0,0,0,0,-1,2015,750,0,0
798,274,0,0,0,0,0,0,0,0,0,-1,2022,750,0,0
805,274,0,0,0,0,0,0,0,0,0,-1,2029,750,0,0
812,274,0,0,0,0,0,0,0,0,0,-1,2036,750,0,0
-700,267,0,0,0,0,0,0,0,0,0,-1,524,757,0,0
-693,267,0,0,0,0,0,0,0,0,0,-1,531,757,0,0
-686,267,0,0,0,0,0,0,0,0,0,-1,538,757,0,0
-679,267,0,0,0,0,0,0,0,0,0,-1,545,757,0,0
-672,267,0,0,0,0,0,0,0,0,0,-1,552,757,0,0
-665,267,0,0,0,0,0,0,0,0,0,-1,559,757,0,0
-658,267,0,0,0,0,0,0,0,0,0,-1,566,757,0,0
-651,267,0,0,0,0,0,0,0,0,0,-1,573,757,0,0
-644,267,0,0,0,0,0,0,0,0,0,-1,580,757,0,0
-637,267,0,0,0,0,0,0,0,0,0,-1,587,757,0,0
-630,267,-21.3979,5.17529,0,0,0,0,0,0,0,-1,594,757,-21.3979,-5.17529
-623,267,-20.043,4.43115,0,0,0,0,0,0,0,-1,601,757,-20.043,-4.43116
-616,267,-23.9603,6.67145,0,0,0,0,0,0,0,-1,608,757,-23.9603,-6.67147
-609,267,-23.6296,5.39941,0,0,0,0,0,0,0,-1,615,757,-23.6297,-5.39942
-602,267,-23.3533,4.11847,0,0,0,0,0,0,0,-1,622,757,-23.3533,-4.11848
-595,267,-23.7698,2.25891,0,0,0,0,0,0,0,-1,629,757,-23.7698,-2.25891
-588,267,-23.8157,1.57312,-0.0015457,0.0123101,-0.00449328,0.0136396,-0.00287525,-1.28311,0.0101876,0.049266,636,757,-23.8156,-1.5731
-581,267,-23.9215,0.822266,-0.00158207,0.00901127,-0.00297154,0.00978788,-0.00235868,-1.31516,0.00743722,0.0397866,643,757,-23.9215,-0.822239
-574,267,-23.9469,0.065979,-0.00150771,0.00667462,-0.00181893,0.00706074,-0.00189383,-1.36162,0.00544926,0.0234449,650,757,-23.9469,-0.0659754
-567,267,-24.0435,-0.564087,-0.00135591,0.00472059,-0.000942936,0.00486355,-0.00149887,-1.42033,0.00384075,0.027777,657,757,-24.0435,0.564081
-560,267,-24.0533,-1.16943,-0.001299,0.0029973,-0.000195925,0.00300622,-0.00130791,-1.52532,0.00255429,0.0235238,664,757,-24.0533,1.16944
-553,267,-24.09,-1.80371,-0.00128067,0.00146132,0.000459434,0.00153625,-0.0013556,1.40912,0.0016707,0.0186957,671,757,-24.0901,1.8037
-546,267,-24.1487,-2.5022,-0.00137899,0.000133545,0.00111457,0.000724205,-0.00196965,1.08348,0.00160975,0.0116974,678,757,-24.1487,2.50222
-539,267,-24.1672,-3.1684,-0.00164511,-0.00116791,0.00190432,0.000512702,-0.00332572,0.847721,0.00240632,0.0110254,685,757,-24.1672,3.16838
-532,267,-24.168,-3.8205,-0.0019757,-0.00228479,0.00250277,0.000377292,-0.00463778,0.754562,0.00322498,0.012788,692,757,-24.1681,3.82048
-525,267,-24.2219,-4.42706,-0.00223094,-0.0029677,0.00296034,0.000383849,-0.00558249,0.723497,0.00385598,0.0126792,699,757,-24.2219,4.42706
-518,267,-24.2553,-5.07141,-0.00263614,-0.0022738,0.00240881,-3.93537e-05,-0.00487059,0.822932,0.00323402,0.0130817,706,757,-24.2553,5.07141
-511,267,-24.2515,-5.73376,-0.0033342,-0.00199538,0.00105524,-0.00141513,-0.00391445,1.06805,0.00228872,0.0214221,713,757,-24.2515,5.73377
-504,267,-24.3542,-6.19366,-0.00438966,-0.00242594,-0.00114286,-0.00190109,-0.00491451,-1.14028,0.00286152,0.0370811,720,757,-24.3542,6.19367
-497,267,-24.5142,-6.63867,0,0,0,0,0,0,0,-1,727,757,-24.5142,6.6387
-490,267,-23.4949,-0.494995,0,0,0,0,0,0,0,-1,734,757,-23.4949,0.494981
-483,267,-33.2785,-0.448425,0,0,0,0,0,0,0,-1,741,757,-33.2785,0.448407
-476,267,-40.2954,0.52002,0,0,0,0,0,0,0,-1,748,757,-40.2954,-0.520037
-469,267,-42.3952,1.78308,0,0,0,0,0,0,0,-1,755,757,-42.3952,-1.78308
-462,267,-42.7183,0.942627,0,0,0,0,0,0,0,-1,762,757,-42.7182,-0.942639
-455,267,-42.543,0.203125,0,0,0,0,0,0,0,-1,769,757,-42.543,-0.203119
-448,267,-40.9064,1.47162,0,0,0,0,0,0,0,-1,776,757,-40.9065,-1.47164
-441,267,0,0,0,0,0,0,0,0,0,-1,783,757,0,0
-434,267,0,0,0,0,0,0,0,0,0,-1,790,757,0,0
-427,267,0,0,0,0,0,0,0,0,0,-1,797,757,0,0
-420,267,0,0,0,0,0,0,0,0,0,-1,804,757,0,0
-413,267,0,0,0,0,0,0,0,0,0,-1,811,757,0,0
-406,267,0,0,0,0,0,0,0,0,0,-1,818,757,0,0
-399,267,0,0,0,0,0,0,0,0,0,-1,825,757,0,0
-392,267,0,0,0,0,0,0,0,0,0,-1,832,757,0,0
-385,267,0,0,0,0,0,0,0,0,0,-1,839,757,0,0
-378,267,0,0,0,0,0,0,0,0,0,-1,846,757,0,0
-371,267,0,0,0,0,0,0,0,0,0,-1,853,757,0,0
-364,267,0,0,0,0,0,0,0,0,0,-1,860,757,0,0
-357,267,0,0,0,0,0,0,0,0,0,-1,867,757,0,0
-350,267,0,0,0,0,0,0,0,0,0,-1,874,757,0,0
-343,267,0,0,0,0,0,0,0,0,0,-1,881,757,0,0
-336,267,0,0,0,0,0,0,0,0,0,-1,888,757,0,0
-329,267,0,0,0,0,0,0,0,0,0,-1,895,757,0,0
-322,267,0,0,0,0,0,0,0,0,0,-1,902,757,0,0
-315,267,0,0,0,0,0,0,0,0,0,-1,909,757,0,0
-308,267,0,0,0,0,0,0,0,0,0,-1,916,757,0,0
-301,267,0,0,0,0,0,0,0,0,0,-1,923,757,0,0
-294,267,0,0,0,0,0,0,0,0,0,-1,930,757,0,0
-287,267,0,0,0,0,0,0,0,0,0,-1,937,757,0,0
-280,267,0,0,0,0,0,0,0,0,0,-1,944,757,0,0
-273,267,0,0,0,0,0,0,0,0,0,-1,951,757,0,0
-266,267,0,0,0,0,0,0,0,0,0,-1,958,757,0,0
-259,267,0,0,0,0,0,0,0,0,0,-1,965,757,0,0
-252,267,0,0,0,0,0,0,0,0,0,-1,972,757,0,0
-245,267,0,0,0,0,0,0,0,0,0,-1,979,757,0,0
-238,267,0,0,0,0,0,0,0,0,0,-1,986,757,0,0
-231,267,0,0,0,0,0,0,0,0,0,-1,993,757,0,0
-224,267,0,0,0,0,0,0,0,0,0,-1,1000,757,0,0
-217,267,0,0,0,0,0,0,0,0,0,-1,1007,757,0,0
-210,267,0,0,0,0,0,0,0,0,0,-1,1014,757,0,0
-203,267,0,0,0,0,0,0,0,0,0,-1,1021,757,0,0
-196,267,0,0,0,0,0,0,0,0,0,-1,1028,757,0,0
-189,267,0,0,0,0,0,0,0,0,0,-1,1035,757,0,0
-182,267,0,0,0,0,0,0,0,0,0,-1,1042,757,0,0
-175,267,0,0,0,0,0,0,0,0,0,-1,1049,757,0,0
-168,267,0,0,0,0,0,0,0,0,0,-1,1056,757,0,0
-161,267,0,0,0,0,0,0,0,0,0,-1,1063,757,0,0
-154,267,0,0,0,0,0,0,0,0,0,-1,1070,757,0,0
-147,267,0,0,0,0,0,0,0,0,0,-1,1077,757,0,0
-140,267,0,0,0,0,0,0,0,0,0,-1,1084,757,0,0
-133,267,0,0,0,0,0,0,0,0,0,-1,1091,757,0,0
-126,267,0,0,0,0,0,0,0,0,0,-1,1098,757,0,0
-119,267,0,0,0,0,0,0,0,0,0,-1,1105,757,0,0
-112,267,0,0,0,0,0,0,0,0,0,-1,1112,757,0,0
-105,267,0,0,0,0,0,0,0,0,0,-1,1119,757,0,0
-98,267,0,0,0,0,0,0,0,0,0,-1,1126,757,0,0
-91,267,0,0,0,0,0,0,0,0,0,-1,1133,757,0,0
-84,267,0,0,0,0,0,0,0,0,0,-1,1140,757,0,0
-77,267,0,0,0,0,0,0,0,0,0,-1,1147,757,0,0
-70,267,0,0,0,0,0,0,0,0,0,-1,1154,757,0,0
-63,267,0,0,0,0,0,0,0,0,0,-1,1161,757,0,0
-56,267,0,0,0,0,0,0,0,0,0,-1,1168,757,0,0
-49,267,0,0,0,0,0,0,0,0,0,-1,1175,757,0,0
-42,267,0,0,0,0,0,0,0,0,0,-1,1182,757,0,0
-35,267,0,0,0,0,0,0,0,0,0,-1,1189,757,0,0
-28,267,0,0,0,0,0,0,0,0,0,-1,1196,757,0,0
-21,267,0,0,0,0,0,0,0,0,0,-1,1203,757,0,0
-14,267,0,0,0,0,0,0,0,0,0,-1,1210,757,0,0
-7,267,0,0,0,0,0,0,0,0,0,-1,1217,757,0,0
0,267,0,0,0,0,0,0,0,0,0,-1,1224,757,0,0
7,267,0,0,0,0,0,0,0,0,0,-1,1231,757,0,0
14,267,0,0,0,0,0,0,0,0,0,-1,1238,757,0,0
21,267,0,0,0,0,0,0,0,0,0,-1,1245,757,0,0
28,267,0,0,0,0,0,0,0,0,0,-1,1252,757,0,0
35,267,0,0,0,0,0,0,0,0,0,-1,1259,757,0,0
42,267,0,0,0,0,0,0,0,0,0,-1,1266,757,0,0
49,267,0,0,0,0,0,0,0,0,0,-1,1273,757,0,0
56,267,0,0,0,0,0,0,0,0,0,-1,1280,757,0,0
63,267,0,0,0,0,0,0,0,0,0,-1,1287,757,0,0
70,267,0,0,0,0,0,0,0,0,0,-1,1294,757,0,0
77,267,0,0,0,0,0,0,0,0,0,-1,1301,757,0,0
84,267,0,0,0,0,0,0,0,0,0,-1,1308,757,0,0
91,267,0,0,0,0,0,0,0,0,0,-1,1315,757,0,0
98,267,0,0,0,0,0,0,0,0,0,-1,1322,757,0,0
105,267,0,0,0,0,0,0,0,0,0,-1,1329,757,0,0
112,267,0,0,0,0,0,0,0,0,0,-1,1336,757,0,0
119,267,0,0,0,0,0,0,0,0,0,-1,1343,757,0,0
126,267,0,0,0,0,0,0,0,0,0,-1,1350,757,0,0
133,267,0,0,0,0,0,0,0,0,0,-1,1357,757,0,0
140,267,0,0,0,0,0,0,0,0,0,-1,1364,757,0,0
147,267,0,0,0,0,0,0,0,0,0,-1,1371,757,0,0
154,267,0,0,0,0,0,0,0,0,0,-1,1378,757,0,0
161,267,0,0,0,0,0,0,0,0,0,-1,1385,757,0,0
168,267,0,0,0,0,0,0,0,0,0,-1,1392,757,0,0
175,267,0,0,0,0,0,0,0,0,0,-1,1399,757,0,0
182,267,0,0,0,0,0,0,0,0,0,-1,1406,757,0,0
189,267,0,0,0,0,0,0,0,0,0,-1,1413,757,0,0
196,267,0,0,0,0,0,0,0,0,0,-1,1420,757,0,0
203,267,0,0,0,0,0,0,0,0,0,-1,1427,757,0,0
210,267,0,0,0,0,0,0,0,0,0,-1,1434,757,0,0
217,267,0,0,0,0,0,0,0,0,0,-1,1441,757,0,0
224,267,0,0,0,0,0,0,0,0,0,-1,1448,757,0,0
231,267,0,0,0,0,0,0,0,0,0,-1,1455,757,0,0
238,267,0,0,0,0,0,0,0,0,0,-1,1462,757,0,0
245,267,0,0,0,0,0,0,0,0,0,-1,1469,757,0,0
252,267,0,0,0,0,0,0,0,0,0,-1,1476,757,0,0
259,267,0,0,0,0,0,0,0,0,0,-1,1483,757,0,0
266,267,0,0,0,0,0,0,0,0,0,-1,1490,757,0,0
273,267,0,0,0,0,0,0,0,0,0,-1,1497,757,0,0
280,267,0,0,0,0,0,0,0,0,0,-1,1504,757,0,0
287,267,0,0,0,0,0,0,0,0,0,-1,1511,757,0,0
294,267,0,0,0,0,0,0,0,0,0,-1,1518,757,0,0
301,267,0,0,0,0,0,0,0,0,0,-1,1525,757,0,0
308,267,0,0,0,0,0,0,0,0,0,-1,1532,757,0,0
315,267,0,0,0,0,0,0,0,0,0,-1,1539,757,0,0
322,267,0,0,0,0,0,0,0,0,0,-1,1546,757,0,0
329,267,0,0,0,0,0,0,0,0,0,-1,1553,757,0,0
336,267,0,0,0,0,0,0,0,0,0,-1,1560,757,0,0
343,267,0,0,0,0,0,0,0,0,0,-1,1567,757,0,0
350,267,0,0,0,0,0,0,0,0,0,-1,1574,757,0,0
357,267,0,0,0,0,0,0,0,0,0,-1,1581,757,0,0
364,267,0,0,0,0,0,0,0,0,0,-1,1588,757,0,0
371,267,0,0,0,0,0,0,0,0,0,-1,1595,757,0,0
378,267,0,0,0,0,0,0,0,0,0,-1,1602,757,0,0
385,267,0,0,0,0,0,0,0,0,0,-1,1609,757,0,0
392,267,0,0,0,0,0,0,0,0,0,-1,1616,757,0,0
399,267,0,0,0,0,0,0,0,0,0,-1,1623,757,0,0
406,267,0,0,0,0,0,0,0,0,0,-1,1630,757,0,0
413,267,0,0,0,0,0,0,0,0,0,-1,1637,757,0,0
420,267,0,0,0,0,0,0,0,0,0,-1,1644,757,0,0
427,267,0,0,0,0,0,0,0,0,0,-1,1651,757,0,0
434,267,0,0,0,0,0,0,0,0,0,-1,1658,757,0,0
441,267,0,0,0,0,0,0,0,0,0,-1,1665,757,0,0
448,267,0,0,0,0,0,0,0,0,0,-1,1672,757,0,0
455,267,0,0,0,0,0,0,0,0,0,-1,1679,757,0,0
462,267,0,0,0,0,0,0,0,0,0,-1,1686,757,0,0
469,267,0,0,0,0,0,0,0,0,0,-1,1693,757,0,0
476,267,0,0,0,0,0,0,0,0,0,-1,1700,757,0,0
483,267,0,0,0,0,0,0,0,0,0,-1,1707,757,0,0
490,267,0,0,0,0,0,0,0,0,0,-1,1714,757,0,0
497,267,0,0,0,0,0,0,0,0,0,-1,1721,757,0,0
504,267,0,0,0,0,0,0,0,0,0,-1,1728,757,0,0
511,267,0,0,0,0,0,0,0,0,0,-1,1735,757,0,0
518,267,0,0,0,0,0,0,0,0,0,-1,1742,757,0,0
525,267,0,0,0,0,0,0,0,0,0,-1,1749,757,0,0
532,267,0,0,0,0,0,0,0,0,0,-1,1756,757,0,0
539,267,0,0,0,0,0,0,0,0,0,-1,1763,757,0,0
546,267,0,0,0,0,0,0,0,0,0,-1,1770,757,0,0
553,267,0,0,0,0,0,0,0,0,0,-1,1777,757,0,0
560,267,0,0,0,0,0,0,0,0,0,-1,1784,757,0,0
567,267,53.6261,3.07043,0,0,0,0,0,0,0,-1,1791,757,53.6261,-3.07042
574,267,53.6608,3.11139,0,0,0,0,0,0,0,-1,1798,757,53.6608,-3.11138
581,267,54.4174,3.67548,0,0,0,0,0,0,0,-1,1805,757,54.4174,-3.67546
588,267,56.4889,2.33405,0,0,0,0,0,0,0,-1,1812,757,56.4888,-2.33406
595,267,56.3337,2.11224,-0.0429115,-0.0127953,0.0190384,-0.00357986,-0.052127,1.11999,0.0336216,0.0487737,1819,757,56.3338,-2.11226
602,267,55.4854,2.62457,-0.0364064,-0.0112064,0.0157218,-0.00365861,-0.0439542,1.12321,0.0281626,0.0486351,1826,757,55.4854,-2.62458
609,267,54.5498,3.24054,0,0,0,0,0,0,0,-1,1833,757,54.5498,-3.24052
616,267,44.2543,3.28918,0,0,0,0,0,0,0,-1,1840,757,44.2542,-3.28918
623,267,24.1475,-1.1391,0,0,0,0,0,0,0,-1,1847,757,24.1475,1.13913
630,267,36.7222,-4.53992,0,0,0,0,0,0,0,-1,1854,757,36.7222,4.53993
637,267,36.4176,-4.0683,-0.0111952,-0.00470485,0.00455371,-0.00235829,-0.0135417,1.09498,0.00835344,0.0453306,1861,757,36.4176,4.06827
644,267,36.2985,-3.50897,-0.00912988,-0.00374892,0.00346391,-0.00205336,-0.0108254,1.11559,0.00663921,0.0154666,1868,757,36.2985,3.50898
651,267,36.2849,-2.7876,-0.00515827,-0.00258882,0.00157335,-0.00184231,-0.00590479,1.12778,0.00348853,0.0142035,1875,757,36.2849,2.78762
658,267,36.2778,-2.11829,-0.00108944,-0.00178432,6.6295e-05,-0.00108317,-0.00179059,0.0942711,0.00104136,0.0149043,1882,757,36.2779,2.1183
665,267,36.2527,-1.44501,0.00022703,-0.000404064,2.86823e-05,0.000228331,-0.000405365,0.0453239,0.000370593,0.0159014,1889,757,36.2527,1.44498
672,267,36.2274,-0.790161,0.000580682,0.000341075,0.000275497,0.000761297,0.000160459,0.580301,0.0004634,0.0140091,1896,757,36.2274,0.790145
679,267,36.1997,-0.111633,0.00122258,0.00111223,0.000731441,0.00190093,0.00043389,0.747754,0.00115026,0.0132103,1903,757,36.1997,0.111649
686,267,36.1481,0.588135,0.00207568,0.00206456,0.00132341,0.00339355,0.000746698,0.783298,0.0020591,0.0144515,1910,757,36.1481,-0.588138
693,267,36.0878,1.24213,0.00318442,0.00302773,0.0020799,0.00518744,0.0010247,0.766573,0.00317238,0.0143619,1917,757,36.0878,-1.24215
700,267,36.0818,1.91919,0.00461339,0.00406342,0.00304985,0.00740062,0.00127619,0.740438,0.00456816,0.0150884,1924,757,36.0818,-1.91919
707,267,36.0745,2.5838,0.00643628,0.00500097,0.00433409,0.0101117,0.00132552,0.703351,0.00634563,0.0162956,1931,757,36.0744,-2.58382
714,267,36.3585,3.30212,0.00887203,0.00610968,0.0062039,0.0138466,0.00113507,0.67587,0.00887696,0.0396161,1938,757,36.3585,-3.3021
721,267,36.7981,4.04236,0,0,0,0,0,0,0,-1,1945,757,36.7981,-4.04238
728,267,26.7886,3.90027,0,0,0,0,0,0,0,-1,1952,757,26.7886,-3.90028
735,267,24.6713,2.82483,0,0,0,0,0,0,0,-1,1959,757,24.6713,-2.82483
742,267,18.1177,3.56561,0,0,0,0,0,0,0,-1,1966,757,18.1176,-3.56564
749,267,0,0,0,0,0,0,0,0,0,-1,1973,757,0,0
756,267,0,0,0,0,0,0,0,0,0,-1,1980,757,0,0
763,267,0,0,0,0,0,0,0,0,0,-1,1987,757,0,0
770,267,0,0,0,0,0,0,0,0,0,-1,1994,757,0,0
777,267,0,0,0,0,0,0,0,0,0,-1,2001,757,0,0
784,267,0,0,0,0,0,0,0,0,0,-1,2008,757,0,0
791,267,0,0,0,0,0,0,0,0,0,-1,2015,757,0,0
798,267,0,0,0,0,0,0,0,0,0,-1,2022,757,0,0
805,267,0,0,0,0,0,0,0,0,0,-1,2029,757,0,0
812,267,0,0,0,0,0,0,0,0,0,-1,2036,757,0,0
-700,260,0,0,0,0,0,0,0,0,0,-1,524,764,0,0
-693,260,0,0,0,0,0,0,0,0,0,-1,531,764,0,0
-686,260,0,0,0,0,0,0,0,0,0,-1,538,764,0,0
-679,260,0,0,0,0,0,0,0,0,0,-1,545,764,0,0
-672,260,0,0,0,0,0,0,0,0,0,-1,552,764,0,0
-665,260,0,0,0,0,0,0,0,0,0,-1,559,764,0,0
-658,260,0,0,0,0,0,0,0,0,0,-1,566,764,0,0
-651,260,0,0,0,0,0,0,0,0,0,-1,573,764,0,0
-644,260,0,0,0,0,0,0,0,0,0,-1,580,764,0,0
-637,260,0,0,0,0,0,0,0,0,0,-1,587,764,0,0
-630,260,-21.8905,4.49341,0,0,0,0,0,0,0,-1,594,764,-21.8905,-4.49342
-623,260,-20.3127,3.53546,0,0,0,0,0,0,0,-1,601,764,-20.3127,-3.53544
-616,260,-23.4346,3.65009,0,0,0,0,0,0,0,-1,608,764,-23.4345,-3.65008
-609,260,-24.3839,4.72369,0,0,0,0,0,0,0,-1,615,764,-24.3839,-4.7237
-602,260,-24.7581,4.57861,0,0,0,0,0,0,0,-1,622,764,-24.758,-4.5786
-595,260,-24.6782,1.87842,0,0,0,0,0,0,0,-1,629,764,-24.6782,-1.87842
-588,260,-24.6706,1.25842,-0.000669803,0.0108209,-0.00506753,0.0127364,-0.00258532,-1.2094,0.00947109,0.0465245,636,764,-24.6706,-1.25841
-581,260,-24.6734,0.689758,-0.000883915,0.00802179,-0.00340971,0.00917733,-0.00203945,-1.24405,0.00689926,0.028541,643,764,-24.6734,-0.689784
-574,260,-24.6639,0.0800781,-0.0010682,0.0059111,-0.00208935,0.00648876,-0.00164586,-1.30105,0.00496622,0.0186283,650,764,-24.6639,-0.0801054
-567,260,-24.6906,-0.525757,-0.00119298,0.00404583,-0.00102594,0.00423958,-0.00138673,-1.38414,0.00338469,0.0185149,657,764,-24.6906,0.525781
-560,260,-24.7167,-1.14508,-0.00136004,0.00235925,-0.000120717,0.00236317,-0.00136395,-1.53838,0.00217748,0.0210778,664,764,-24.7167,1.14507
-553,260,-24.7595,-1.78235,-0.00157842,0.000844648,0.000690579,0.00102764,-0.00176142,1.31176,0.00162874,0.0178245,671,764,-24.7595,1.78237
-546,260,-24.7955,-2.45319,-0.00188654,-0.000501798,0.00152613,0.000481671,-0.00287001,0.998352,0.00209246,0.0110871,678,764,-24.7955,2.45321
-539,260,-24.795,-3.13184,-0.00230156,-0.00177454,0.00248278,0.000458672,-0.00453477,0.838269,0.00318709,0.0123707,685,764,-24.7951,3.13182
-532,260,-24.7884,-3.73126,-0.00272621,-0.00277072,0.0032022,0.000453813,-0.00595075,0.781923,0.00412676,0.0175966,692,764,-24.7884,3.73129
-525,260,-24.8365,-4.40247,-0.00296143,-0.00326068,0.00365082,0.000542829,-0.00676494,0.764918,0.00470136,0.0159413,699,764,-24.8365,4.40249
-518,260,-24.9223,-5.01581,-0.00329695,-0.00235873,0.00305595,0.000263905,-0.00591959,0.861558,0.00403723,0.021216,706,764,-24.9223,5.01579
-511,260,-24.912,-5.63971,-0.00388336,-0.00202268,0.00170915,-0.00100707,-0.00489898,1.03464,0.00298742,0.038689,713,764,-24.912,5.63972
-504,260,-24.9551,-5.93304,0,0,0,0,0,0,0,-1,720,764,-24.9551,5.93306
-497,260,-16.6542,-3.67334,0,0,0,0,0,0,0,-1,727,764,-16.6542,3.67331
-490,260,-29.4557,0.921387,0,0,0,0,0,0,0,-1,734,764,-29.4557,-0.921369
-483,260,-40.8972,1.04193,0,0,0,0,0,0,0,-1,741,764,-40.8972,-1.04193
-476,260,-41.7762,1.72137,0,0,0,0,0,0,0,-1,748,764,-41.7762,-1.72138
-469,260,-41.9482,1.56354,-0.0129215,-0.0040229,-0.0231508,0.0151022,-0.0320467,-0.880335,0.0278012,0.0473059,755,764,-41.9483,-1.56355
-462,260,-42.1061,0.998352,-0.0170982,-0.00771207,-0.0312845,0.0192294,-0.0440397,-0.859849,0.0374529,0.0446956,762,764,-42.1061,-0.998365
-455,260,-42.2802,0.55603,-0.0217079,-0.0129702,-0.0402463,0.0231437,-0.0578218,-0.839463,0.0481535,0.0458118,769,764,-42.2802,-0.556026
-448,260,0,0,0,0,0,0,0,0,0,-1,776,764,0,0
-441,260,0,0,0,0,0,0,0,0,0,-1,783,764,0,0
-434,260,0,0,0,0,0,0,0,0,0,-1,790,764,0,0
-427,260,0,0,0,0,0,0,0,0,0,-1,797,764,0,0
-420,260,0,0,0,0,0,0,0,0,0,-1,804,764,0,0
-413,260,0,0,0,0,0,0,0,0,0,-1,811,764,0,0
-406,260,0,0,0,0,0,0,0,0,0,-1,818,764,0,0
-399,260,0,0,0,0,0,0,0,0,0,-1,825,764,0,0
-392,260,0,0,0,0,0,0,0,0,0,-1,832,764,0,0
-385,260,0,0,0,0,0,0,0,0,0,-1,839,764,0,0
-378,260,0,0,0,0,0,0,0,0,0,-1,846,764,0,0
-371,260,0,0,0,0,0,0,0,0,0,-1,853,764,0,0
-364,260,0,0,0,0,0,0,0,0,0,-1,860,764,0,0
-357,260,0,0,0,0,0,0,0,0,0,-1,867,764,0,0
-350,260,0,0,0,0,0,0,0,0,0,-1,874,764,0,0
-343,260,0,0,0,0,0,0,0,0,0,-1,881,764,0,0
-336,260,0,0,0,0,0,0,0,0,0,-1,888,764,0,0
-329,260,0,0,0,0,0,0,0,0,0,-1,895,764,0,0
-322,260,0,0,0,0,0,0,0,0,0,-1,902,764,0,0
-315,260,0,0,0,0,0,0,0,0,0,-1,909,764,0,0
-308,260,0,0,0,0,0,0,0,0,0,-1,916,764,0,0
-301,260,0,0,0,0,0,0,0,0,0,-1,923,764,0,0
-294,260,0,0,0,0,0,0,0,0,0,-1,930,764,0,0
-287,260,0,0,0,0,0,0,0,0,0,-1,937,764,0,0
-280,260,0,0,0,0,0,0,0,0,0,-1,944,764,0,0
-273,260,0,0,0,0,0,0,0,0,0,-1,951,764,0,0
-266,260,0,0,0,0,0,0,0,0,0,-1,958,764,0,0
-259,260,0,0,0,0,0,0,0,0,0,-1,965,764,0,0
-252,260,0,0,0,0,0,0,0,0,0,-1,972,764,0,0
-245,260,0,0,0,0,0,0,0,0,0,-1,979,764,0,0
-238,260,0,0,0,0,0,0,0,0,0,-1,986,764,0,0
-231,260,0,0,0,0,0,0,0,0,0,-1,993,764,0,0
-224,260,0,0,0,0,0,0,0,0,0,-1,1000,764,0,0
-217,260,0,0,0,0,0,0,0,0,0,-1,1007,764,0,0
-210,260,0,0,0,0,0,0,0,0,0,-1,1014,764,0,0
-203,260,0,0,0,0,0,0,0,0,0,-1,1021,764,0,0
-196,260,0,0,0,0,0,0,0,0,0,-1,1028,764,0,0
-189,260,0,0,0,0,0,0,0,0,0,-1,1035,764,0,0
-182,260,0,0,0,0,0,0,0,0,0,-1,1042,764,0,0
-175,260,0,0,0,0,0,0,0,0,0,-1,1049,764,0,0
-168,260,0,0,0,0,0,0,0,0,0,-1,1056,764,0,0
-161,260,0,0,0,0,0,0,0,0,0,-1,1063,764,0,0
-154,260,0,0,0,0,0,0,0,0,0,-1,1070,764,0,0
-147,260,0,0,0,0,0,0,0,0,0,-1,1077,764,0,0
-140,260,0,0,0,0,0,0,0,0,0,-1,1084,764,0,0
-133,260,0,0,0,0,0,0,0,0,0,-1,1091,764,0,0
-126,260,0,0,0,0,0,0,0,0,0,-1,1098,764,0,0
-119,260,0,0,0,0,0,0,0,0,0,-1,1105,764,0,0
-112,260,0,0,0,0,0,0,0,0,0,-1,1112,764,0,0
-105,260,0,0,0,0,0,0,0,0,0,-1,1119,764,0,0
-98,260,0,0,0,0,0,0,0,0,0,-1,1126,764,0,0
-91,260,0,0,0,0,0,0,0,0,0,-1,1133,764,0,0
-84,260,0,0,0,0,0,0,0,0,0,-1,1140,764,0,0
-77,260,0,0,0,0,0,0,0,0,0,-1,1147,764,0,0
-70,260,0,0,0,0,0,0,0,0,0,-1,1154,764,0,0
-63,260,0,0,0,0,0,0,0,0,0,-1,1161,764,0,0
-56,260,0,0,0,0,0,0,0,0,0,-1,1168,764,0,0
-49,260,0,0,0,0,0,0,0,0,0,-1,1175,764,0,0
-42,260,0,0,0,0,0,0,0,0,0,-1,1182,764,0,0
-35,260,0,0,0,0,0,0,0,0,0,-1,1189,764,0,0
-28,260,0,0,0,0,0,0,0,0,0,-1,1196,764,0,0
-21,260,0,0,0,0,0,0,0,0,0,-1,1203,764,0,0
-14,260,0,0,0,0,0,0,0,0,0,-1,1210,764,0,0
-7,260,0,0,0,0,0,0,0,0,0,-1,1217,764,0,0
0,260,0,0,0,0,0,0,0,0,0,-1,1224,764,0,0
7,260,0,0,0,0,0,0,0,0,0,-1,1231,764,0,0
14,260,0,0,0,0,0,0,0,0,0,-1,1238,764,0,0
21,260,0,0,0,0,0,0,0,0,0,-1,1245,764,0,0
28,260,0,0,0,0,0,0,0,0,0,-1,1252,764,0,0
35,260,0,0,0,0,0,0,0,0,0,-1,1259,764,0,0
42,260,0,0,0,0,0,0,0,0,0,-1,1266,764,0,0
49,260,0,0,0,0,0,0,0,0,0,-1,1273,764,0,0
56,260,0,0,0,0,0,0,0,0,0,-1,1280,764,0,0
63,260,0,0,0,0,0,0,0,0,0,-1,1287,764,0,0
70,260,0,0,0,0,0,0,0,0,0,-1,1294,764,0,0
77,260,0,0,0,0,0,0,0,0,0,-1,1301,764,0,0
84,260,0,0,0,0,0,0,0,0,0,-1,1308,764,0,0
91,260,0,0,0,0,0,0,0,0,0,-1,1315,764,0,0
98,260,0,0,0,0,0,0,0,0,0,-1,1322,764,0,0
105,260,0,0,0,0,0,0,0,0,0,-1,1329,764,0,0
112,260,0,0,0,0,0,0,0,0,0,-1,1336,764,0,0
119,260,0,0,0,0,0,0,0,0,0,-1,1343,764,0,0
126,260,0,0,0,0,0,0,0,0,0,-1,1350,764,0,0
133,260,0,0,0,0,0,0,0,0,0,-1,1357,764,0,0
140,260,0,0,0,0,0,0,0,0,0,-1,1364,764,0,0
147,260,0,0,0,0,0,0,0,0,0,-1,1371,764,0,0
154,260,0,0,0,0,0,0,0,0,0,-1,1378,764,0,0
161,260,0,0,0,0,0,0,0,0,0,-1,1385,764,0,0
168,260,0,0,0,0,0,0,0,0,0,-1,1392,764,0,0
175,260,0,0,0,0,0,0,0,0,0,-1,1399,764,0,0
182,260,0,0,0,0,0,0,0,0,0,-1,1406,764,0,0
189,260,0,0,0,0,0,0,0,0,0,-1,1413,764,0,0
196,260,0,0,0,0,0,0,0,0,0,-1,1420,764,0,0
203,260,0,0,0,0,0,0,0,0,0,-1,1427,764,0,0
210,260,0,0,0,0,0,0,0,0,0,-1,1434,764,0,0
217,260,0,0,0,0,0,0,0,0,0,-1,1441,764,0,0
224,260,0,0,0,0,0,0,0,0,0,-1,1448,764,0,0
231,260,0,0,0,0,0,0,0,0,0,-1,1455,764,0,0
238,260,0,0,0,0,0,0,0,0,0,-1,1462,764,0,0
245,260,0,0,0,0,0,0,0,0,0,-1,1469,764,0,0
252,260,0,0,0,0,0,0,0,0,0,-1,1476,764,0,0
259,260,0,0,0,0,0,0,0,0,0,-1,1483,764,0,0
266,260,0,0,0,0,0,0,0,0,0,-1,1490,764,0,0
273,260,0,0,0,0,0,0,0,0,0,-1,1497,764,0,0
280,260,0,0,0,0,0,0,0,0,0,-1,1504,764,0,0
287,260,0,0,0,0,0,0,0,0,0,-1,1511,764,0,0
294,260,0,0,0,0,0,0,0,0,0,-1,1518,764,0,0
301,260,0,0,0,0,0,0,0,0,0,-1,1525,764,0,0
308,260,0,0,0,0,0,0,0,0,0,-1,1532,764,0,0
315,260,0,0,0,0,0,0,0,0,0,-1,1539,764,0,0
322,260,0,0,0,0,0,0,0,0,0,-1,1546,764,0,0
329,260,0,0,0,0,0,0,0,0,0,-1,1553,764,0,0
336,260,0,0,0,0,0,0,0,0,0,-1,1560,764,0,0
343,260,0,0,0,0,0,0,0,0,0,-1,1567,764,0,0
350,260,0,0,0,0,0,0,0,0,0,-1,1574,764,0,0
357,260,0,0,0,0,0,0,0,0,0,-1,1581,764,0,0
364,260,0,0,0,0,0,0,0,0,0,-1,1588,764,0,0
371,260,0,0,0,0,0,0,0,0,0,-1,1595,764,0,0
378,260,0,0,0,0,0,0,0,0,0,-1,1602,764,0,0
385,260,0,0,0,0,0,0,0,0,0,-1,1609,764,0,0
392,260,0,0,0,0,0,0,0,0,0,-1,1616,764,0,0
399,260,0,0,0,0,0,0,0,0,0,-1,1623,764,0,0
406,260,0,0,0,0,0,0,0,0,0,-1,1630,764,0,0
413,260,0,0,0,0,0,0,0,0,0,-1,1637,764,0,0
420,260,0,0,0,0,0,0,0,0,0,-1,1644,764,0,0
427,260,0,0,0,0,0,0,0,0,0,-1,1651,764,0,0
434,260,0,0,0,0,0,0,0,0,0,-1,1658,764,0,0
441,260,0,0,0,0,0,0,0,0,0,-1,1665,764,0,0
448,260,0,0,0,0,0,0,0,0,0,-1,1672,764,0,0
455,260,0,0,0,0,0,0,0,0,0,-1,1679,764,0,0
462,260,0,0,0,0,0,0,0,0,0,-1,1686,764,0,0
469,260,0,0,0,0,0,0,0,0,0,-1,1693,764,0,0
476,260,0,0,0,0,0,0,0,0,0,-1,1700,764,0,0
483,260,0,0,0,0,0,0,0,0,0,-1,1707,764,0,0
490,260,0,0,0,0,0,0,0,0,0,-1,1714,764,0,0
497,260,0,0,0,0,0,0,0,0,0,-1,1721,764,0,0
504,260,0,0,0,0,0,0,0,0,0,-1,1728,764,0,0
511,260,0,0,0,0,0,0,0,0,0,-1,1735,764,0,0
518,260,0,0,0,0,0,0,0,0,0,-1,1742,764,0,0
525,260,0,0,0,0,0,0,0,0,0,-1,1749,764,0,0
532,260,0,0,0,0,0,0,0,0,0,-1,1756,764,0,0
539,260,0,0,0,0,0,0,0,0,0,-1,1763,764,0,0
546,260,0,0,0,0,0,0,0,0,0,-1,1770,764,0,0
553,260,0,0,0,0,0,0,0,0,0,-1,1777,764,0,0
560,260,0,0,0,0,0,0,0,0,0,-1,1784,764,0,0
567,260,0,0,0,0,0,0,0,0,0,-1,1791,764,0,0
574,260,53.8113,2.81989,0,0,0,0,0,0,0,-1,1798,764,53.8113,-2.81987
581,260,53.6373,3.2326,0,0,0,0,0,0,0,-1,1805,764,53.6374,-3.23258
588,260,56.1885,2.42853,0,0,0,0,0,0,0,-1,1812,764,56.1884,-2.42854
595,260,56.355,2.19342,-0.0403655,-0.0137666,0.0177455,-0.00489002,-0.0492421,1.10697,0.0313256,0.0473037,1819,764,56.355,-2.19342
602,260,55.3274,2.72662,-0.0349191,-0.0118145,0.0149245,-0.00449368,-0.0422399,1.11476,0.026788,0.0449179,1826,764,55.3274,-2.72662
609,260,54.3695,3.30078,0,0,0,0,0,0,0,-1,1833,764,54.3695,-3.30079
616,260,46.0709,2.74542,0,0,0,0,0,0,0,-1,1840,764,46.0709,-2.74545
623,260,32.2268,3.25836,0,0,0,0,0,0,0,-1,1847,764,32.2268,-3.25833
630,260,24.3739,-0.536316,0,0,0,0,0,0,0,-1,1854,764,24.3739,0.536343
637,260,37.1393,-4.24048,0,0,0,0,0,0,0,-1,1861,764,37.1392,4.24049
644,260,37.0972,-3.51373,-0.00917929,-0.00364812,0.00321572,-0.00217232,-0.0106551,1.14054,0.00650141,0.0407261,1868,764,37.0972,3.51375
651,260,37.0073,-2.7373,-0.00575763,-0.00270022,0.0013898,-0.00216289,-0.00629496,1.20188,0.00369319,0.0175407,1875,764,37.0073,2.73732
658,260,36.9395,-2.06879,-0.00185874,-0.00214523,-0.000247846,-0.00171572,-0.00228825,-0.523371,0.00137498,0.0163933,1882,764,36.9395,2.06881
665,260,36.8929,-1.42163,-0.00054146,-0.000819105,-0.000436095,-0.000222625,-0.00113794,-0.631304,0.000696383,0.0166264,1889,764,36.893,1.42161
672,260,36.8824,-0.748108,-0.000219229,-0.000214271,-0.000250914,3.41768e-05,-0.000467676,-0.790338,0.000323778,0.0142951,1896,764,36.8825,0.7481
679,260,36.8456,-0.0603638,0.000474086,0.000413058,0.000181881,0.000627995,0.000259149,0.702287,0.000364412,0.0132095,1903,764,36.8456,0.0603807
686,260,36.7926,0.631958,0.00146451,0.00128189,0.000811321,0.00218965,0.00055676,0.729362,0.0013141,0.0167734,1910,764,36.7926,-0.631957
693,260,36.7389,1.25647,0.00274373,0.00218485,0.00164043,0.00412835,0.000800231,0.701035,0.00252807,0.0170445,1917,764,36.7389,-1.25645
700,260,36.7136,1.9187,0.00430817,0.0031005,0.00265092,0.00642316,0.000985511,0.673416,0.00399434,0.0150886,1924,764,36.7137,-1.91868
707,260,36.7277,2.59528,0.00621027,0.00396081,0.00392804,0.00917143,0.000999645,0.645962,0.00580981,0.0149188,1931,764,36.7277,-2.59526
714,260,36.7815,3.29077,0.00862028,0.00492802,0.00567908,0.0127458,0.000802543,0.628248,0.00824269,0.0290055,1938,764,36.7815,-3.29076
721,260,36.8594,3.992,0,0,0,0,0,0,0,-1,1945,764,36.8594,-3.99202
728,260,33.4344,5.75409,0,0,0,0,0,0,0,-1,1952,764,33.4345,-5.75408
735,260,26.9788,4.85681,0,0,0,0,0,0,0,-1,1959,764,26.9787,-4.85678
742,260,32.1443,1.73688,0,0,0,0,0,0,0,-1,1966,764,32.1442,-1.73688
749,260,33.6013,2.94733,0,0,0,0,0,0,0,-1,1973,764,33.6013,-2.9473
756,260,0,0,0,0,0,0,0,0,0,-1,1980,764,0,0
763,260,0,0,0,0,0,0,0,0,0,-1,1987,764,0,0
770,260,0,0,0,0,0,0,0,0,0,-1,1994,764,0,0
777,260,0,0,0,0,0,0,0,0,0,-1,2001,764,0,0
784,260,0,0,0,0,0,0,0,0,0,-1,2008,764,0,0
791,260,0,0,0,0,0,0,0,0,0,-1,2015,764,0,0
798,260,0,0,0,0,0,0,0,0,0,-1,2022,764,0,0
805,260,0,0,0,0,0,0,0,0,0,-1,2029,764,0,0
812,260,0,0,0,0,0,0,0,0,0,-1,2036,764,0,0
-700,253,0,0,0,0,0,0,0,0,0,-1,524,771,0,0
-693,253,0,0,0,0,0,0,0,0,0,-1,531,771,0,0
-686,253,0,0,0,0,0,0,0,0,0,-1,538,771,0,0
-679,253,0,0,0,0,0,0,0,0,0,-1,545,771,0,0
-672,253,0,0,0,0,0,0,0,0,0,-1,552,771,0,0
-665,253,0,0,0,0,0,0,0,0,0,-1,559,771,0,0
-658,253,0,0,0,0,0,0,0,0,0,-1,566,771,0,0
-651,253,0,0,0,0,0,0,0,0,0,-1,573,771,0,0
-644,253,0,0,0,0,0,0,0,0,0,-1,580,771,0,0
-637,253,-24.7979,-0.491394,0,0,0,0,0,0,0,-1,587,771,-24.7978,0.491371
-630,253,-25.156,0.540405,0,0,0,0,0,0,0,-1,594,771,-25.156,-0.540421
-623,253,-20.808,2.84314,0,0,0,0,0,0,0,-1,601,771,-20.8081,-2.84312
-616,253,-25.0877,2.96875,0,0,0,0,0,0,0,-1,608,771,-25.0877,-2.96876
-609,253,-24.28,2.08228,0,0,0,0,0,0,0,-1,615,771,-24.2801,-2.08227
-602,253,-24.6464,3.77881,0,0,0,0,0,0,0,-1,622,771,-24.6464,-3.77881
-595,253,-25.5142,1.68109,0,0,0,0,0,0,0,-1,629,771,-25.5142,-1.68109
-588,253,-25.4085,1.17047,-3.39584e-05,0.00950285,-0.00549599,0.0120107,-0.00254179,-1.14271,0.00897517,0.0397229,636,771,-25.4085,-1.17048
-581,253,-25.3059,0.712158,-0.00035686,0.00707776,-0.00374167,0.00863477,-0.00191387,-1.17646,0.00648924,0.0255384,643,771,-25.3059,-0.712183
-574,253,-25.3132,0.0753174,-0.000720237,0.00512781,-0.00228218,0.005913,-0.00150542,-1.23943,0.00452801,0.0214225,650,771,-25.3132,-0.0753439
-567,253,-25.3578,-0.59375,-0.00105737,0.00331944,-0.00105266,0.00355945,-0.00129738,-1.34662,0.0029037,0.0180794,657,771,-25.3579,0.593776
-560,253,-25.3564,-1.16534,-0.00140703,0.00164703,2.64445e-06,0.00164703,-0.00140704,1.56993,0.00176508,0.0140364,664,771,-25.3564,1.16532
-553,253,-25.3842,-1.78125,-0.00184441,0.000182748,0.000973256,0.000574362,-0.00223603,1.18824,0.00171451,0.0126189,671,771,-25.3842,1.78123
-546,253,-25.4404,-2.41254,-0.00234267,-0.00117912,0.00196135,0.000284916,-0.00380671,0.929574,0.00263791,0.0109205,678,771,-25.4405,2.41252
-539,253,-25.4872,-3.0965,-0.0028489,-0.00239986,0.00302922,0.000413153,-0.00566191,0.822389,0.00391959,0.0124008,685,771,-25.4872,3.0965
-532,253,-25.4684,-3.72681,-0.00327514,-0.00329178,0.00381692,0.000533476,-0.00710039,0.784309,0.00492107,0.0170724,692,771,-25.4685,3.72681
-525,253,-25.4692,-4.36945,-0.00345903,-0.00364099,0.00423347,0.000684437,-0.00778446,0.774654,0.00543218,0.017772,699,771,-25.4692,4.36944
-518,253,-25.5582,-5.02411,-0.00371712,-0.00265806,0.00365664,0.000507192,-0.00688237,0.857305,0.00476632,0.0334382,706,771,-25.5582,5.02411
-511,253,-25.6168,-5.60004,0,0,0,0,0,0,0,-1,713,771,-25.6168,5.60005
-504,253,-19.317,-4.1723,0,0,0,0,0,0,0,-1,720,771,-19.317,4.1723
-497,253,-21.7737,-1.76837,0,0,0,0,0,0,0,-1,727,771,-21.7738,1.7684
-490,253,-29.7674,0.438354,0,0,0,0,0,0,0,-1,734,771,-29.7674,-0.438339
-483,253,-42.1978,1.16815,0,0,0,0,0,0,0,-1,741,771,-42.1978,-1.16817
-476,253,-41.6885,1.25531,0,0,0,0,0,0,0,-1,748,771,-41.6885,-1.25533
-469,253,-41.624,1.29492,-0.0123653,-0.0032185,-0.0199089,0.0126355,-0.0282193,-0.898298,0.0241528,0.0471355,755,771,-41.624,-1.29491
-462,253,-41.6536,1.12354,-0.0159235,-0.00591651,-0.0268028,0.0163458,-0.0381858,-0.877675,0.0323146,0.0487969,762,771,-41.6537,-1.12353
-455,253,-41.9746,0.931763,-0.0198467,-0.010334,-0.0342262,0.0194648,-0.0496455,-0.85444,0.0411495,0.0358434,769,771,-41.9746,-0.93179
-448,253,0,0,0,0,0,0,0,0,0,-1,776,771,0,0
-441,253,0,0,0,0,0,0,0,0,0,-1,783,771,0,0
-434,253,0,0,0,0,0,0,0,0,0,-1,790,771,0,0
-427,253,0,0,0,0,0,0,0,0,0,-1,797,771,0,0
-420,253,0,0,0,0,0,0,0,0,0,-1,804,771,0,0
-413,253,0,0,0,0,0,0,0,0,0,-1,811,771,0,0
-406,253,0,0,0,0,0,0,0,0,0,-1,818,771,0,0
-399,253,0,0,0,0,0,0,0,0,0,-1,825,771,0,0
-392,253,0,0,0,0,0,0,0,0,0,-1,832,771,0,0
-385,253,0,0,0,0,0,0,0,0,0,-1,839,771,0,0
-378,253,0,0,0,0,0,0,0,0,0,-1,846,771,0,0
-371,253,0,0,0,0,0,0,0,0,0,-1,853,771,0,0
-364,253,0,0,0,0,0,0,0,0,0,-1,860,771,0,0
-357,253,0,0,0,0,0,0,0,0,0,-1,867,771,0,0
-350,253,0,0,0,0,0,0,0,0,0,-1,874,771,0,0
-343,253,0,0,0,0,0,0,0,0,0,-1,881,771,0,0
-336,253,0,0,0,0,0,0,0,0,0,-1,888,771,0,0
-329,253,0,0,0,0,0,0,0,0,0,-1,895,771,0,0
-322,253,0,0,0,0,0,0,0,0,0,-1,902,771,0,0
-315,253,0,0,0,0,0,0,0,0,0,-1,909,771,0,0
-308,253,0,0,0,0,0,0,0,0,0,-1,916,771,0,0
-301,253,0,0,0,0,0,0,0,0,0,-1,923,771,0,0
-294,253,0,0,0,0,0,0,0,0,0,-1,930,771,0,0
-287,253,0,0,0,0,0,0,0,0,0,-1,937,771,0,0
-280,253,0,0,0,0,0,0,0,0,0,-1,944,771,0,0
-273,253,0,0,0,0,0,0,0,0,0,-1,951,771,0,0
-266,253,0,0,0,0,0,0,0,0,0,-1,958,771,0,0
-259,253,0,0,0,0,0,0,0,0,0,-1,965,771,0,0
-252,253,0,0,0,0,0,0,0,0,0,-1,972,771,0,0
-245,253,0,0,0,0,0,0,0,0,0,-1,979,771,0,0
-238,253,0,0,0,0,0,0,0,0,0,-1,986,771,0,0
-231,253,0,0,0,0,0,0,0,0,0,-1,993,771,0,0
-224,253,0,0,0,0,0,0,0,0,0,-1,1000,771,0,0
-217,253,0,0,0,0,0,0,0,0,0,-1,1007,771,0,0
-210,253,0,0,0,0,0,0,0,0,0,-1,1014,771,0,0
-203,253,0,0,0,0,0,0,0,0,0,-1,1021,771,0,0
-196,253,0,0,0,0,0,0,0,0,0,-1,1028,771,0,0
-189,253,0,0,0,0,0,0,0,0,0,-1,1035,771,0,0
-182,253,0,0,0,0,0,0,0,0,0,-1,1042,771,0,0
-175,253,0,0,0,0,0,0,0,0,0,-1,1049,771,0,0
-168,253,0,0,0,0,0,0,0,0,0,-1,1056,771,0,0
-161,253,0,0,0,0,0,0,0,0,0,-1,1063,771,0,0
-154,253,0,0,0,0,0,0,0,0,0,-1,1070,771,0,0
-147,253,0,0,0,0,0,0,0,0,0,-1,1077,771,0,0
-140,253,0,0,0,0,0,0,0,0,0,-1,1084,771,0,0
-133,253,0,0,0,0,0,0,0,0,0,-1,1091,771,0,0
-126,253,0,0,0,0,0,0,0,0,0,-1,1098,771,0,0
-119,253,0,0,0,0,0,0,0,0,0,-1,1105,771,0,0
-112,253,0,0,0,0,0,0,0,0,0,-1,1112,771,0,0
-105,253,0,0,0,0,0,0,0,0,0,-1,1119,771,0,0
-98,253,0,0,0,0,0,0,0,0,0,-1,1126,771,0,0
-91,253,0,0,0,0,0,0,0,0,0,-1,1133,771,0,0
-84,253,0,0,0,0,0,0,0,0,0,-1,1140,771,0,0
-77,253,0,0,0,0,0,0,0,0,0,-1,1147,771,0,0
-70,253,0,0,0,0,0,0,0,0,0,-1,1154,771,0,0
-63,253,0,0,0,0,0,0,0,0,0,-1,1161,771,0,0
-56,253,0,0,0,0,0,0,0,0,0,-1,1168,771,0,0
-49,253,0,0,0,0,0,0,0,0,0,-1,1175,771,0,0
-42,253,0,0,0,0,0,0,0,0,0,-1,1182,771,0,0
-35,253,0,0,0,0,0,0,0,0,0,-1,1189,771,0,0
-28,253,0,0,0,0,0,0,0,0,0,-1,1196,771,0,0
-21,253,0,0,0,0,0,0,0,0,0,-1,1203,771,0,0
-14,253,0,0,0,0,0,0,0,0,0,-1,1210,771,0,0
-7,253,0,0,0,0,0,0,0,0,0,-1,1217,771,0,0
0,253,0,0,0,0,0,0,0,0,0,-1,1224,771,0,0
7,253,0,0,0,0,0,0,0,0,0,-1,1231,771,0,0
14,253,0,0,0,0,0,0,0,0,0,-1,1238,771,0,0
21,253,0,0,0,0,0,0,0,0,0,-1,1245,771,0,0
28,253,0,0,0,0,0,0,0,0,0,-1,1252,771,0,0
35,253,0,0,0,0,0,0,0,0,0,-1,1259,771,0,0
42,253,0,0,0,0,0,0,0,0,0,-1,1266,771,0,0
49,253,0,0,0,0,0,0,0,0,0,-1,1273,771,0,0
56,253,0,0,0,0,0,0,0,0,0,-1,1280,771,0,0
63,253,0,0,0,0,0,0,0,0,0,-1,1287,771,0,0
70,253,0,0,0,0,0,0,0,0,0,-1,1294,771,0,0
77,253,0,0,0,0,0,0,0,0,0,-1,1301,771,0,0
84,253,0,0,0,0,0,0,0,0,0,-1,1308,771,0,0
91,253,0,0,0,0,0,0,0,0,0,-1,1315,771,0,0
98,253,0,0,0,0,0,0,0,0,0,-1,1322,771,0,0
105,253,0,0,0,0,0,0,0,0,0,-1,1329,771,0,0
112,253,0,0,0,0,0,0,0,0,0,-1,1336,771,0,0
119,253,0,0,0,0,0,0,0,0,0,-1,1343,771,0,0
126,253,0,0,0,0,0,0,0,0,0,-1,1350,771,0,0
133,253,0,0,0,0,0,0,0,0,0,-1,1357,771,0,0
140,253,0,0,0,0,0,0,0,0,0,-1,1364,771,0,0
147,253,0,0,0,0,0,0,0,0,0,-1,1371,771,0,0
154,253,0,0,0,0,0,0,0,0,0,-1,1378,771,0,0
161,253,0,0,0,0,0,0,0,0,0,-1,1385,771,0,0
168,253,0,0,0,0,0,0,0,0,0,-1,1392,771,0,0
175,253,0,0,0,0,0,0,0,0,0,-1,1399,771,0,0
182,253,0,0,0,0,0,0,0,0,0,-1,1406,771,0,0
189,253,0,0,0,0,0,0,0,0,0,-1,1413,771,0,0
196,253,0,0,0,0,0,0,0,0,0,-1,1420,771,0,0
203,253,0,0,0,0,0,0,0,0,0,-1,1427,771,0,0
210,253,0,0,0,0,0,0,0,0,0,-1,1434,771,0,0
217,253,0,0,0,0,0,0,0,0,0,-1,1441,771,0,0
224,253,0,0,0,0,0,0,0,0,0,-1,1448,771,0,0
231,253,0,0,0,0,0,0,0,0,0,-1,1455,771,0,0
238,253,0,0,0,0,0,0,0,0,0,-1,1462,771,0,0
245,253,0,0,0,0,0,0,0,0,0,-1,1469,771,0,0
252,253,0,0,0,0,0,0,0,0,0,-1,1476,771,0,0
259,253,0,0,0,0,0,0,0,0,0,-1,1483,771,0,0
266,253,0,0,0,0,0,0,0,0,0,-1,1490,771,0,0
273,253,0,0,0,0,0,0,0,0,0,-1,1497,771,0,0
280,253,0,0,0,0,0,0,0,0,0,-1,1504,771,0,0
287,253,0,0,0,0,0,0,0,0,0,-1,1511,771,0,0
294,253,0,0,0,0,0,0,0,0,0,-1,1518,771,0,0
301,253,0,0,0,0,0,0,0,0,0,-1,1525,771,0,0
308,253,0,0,0,0,0,0,0,0,0,-1,1532,771,0,0
315,253,0,0,0,0,0,0,0,0,0,-1,1539,771,0,0
322,253,0,0,0,0,0,0,0,0,0,-1,1546,771,0,0
329,253,0,0,0,0,0,0,0,0,0,-1,1553,771,0,0
336,253,0,0,0,0,0,0,0,0,0,-1,1560,771,0,0
343,253,0,0,0,0,0,0,0,0,0,-1,1567,771,0,0
350,253,0,0,0,0,0,0,0,0,0,-1,1574,771,0,0
357,253,0,0,0,0,0,0,0,0,0,-1,1581,771,0,0
364,253,0,0,0,0,0,0,0,0,0,-1,1588,771,0,0
371,253,0,0,0,0,0,0,0,0,0,-1,1595,771,0,0
378,253,0,0,0,0,0,0,0,0,0,-1,1602,771,0,0
385,253,0,0,0,0,0,0,0,0,0,-1,1609,771,0,0
392,253,0,0,0,0,0,0,0,0,0,-1,1616,771,0,0
399,253,0,0,0,0,0,0,0,0,0,-1,1623,771,0,0
406,253,0,0,0,0,0,0,0,0,0,-1,1630,771,0,0
413,253,0,0,0,0,0,0,0,0,0,-1,1637,771,0,0
420,253,0,0,0,0,0,0,0,0,0,-1,1644,771,0,0
427,253,0,0,0,0,0,0,0,0,0,-1,1651,771,0,0
434,253,0,0,0,0,0,0,0,0,0,-1,1658,771,0,0
441,253,0,0,0,0,0,0,0,0,0,-1,1665,771,0,0
448,253,0,0,0,0,0,0,0,0,0,-1,1672,771,0,0
455,253,0,0,0,0,0,0,0,0,0,-1,1679,771,0,0
462,253,0,0,0,0,0,0,0,0,0,-1,1686,771,0,0
469,253,0,0,0,0,0,0,0,0,0,-1,1693,771,0,0
476,253,0,0,0,0,0,0,0,0,0,-1,1700,771,0,0
483,253,0,0,0,0,0,0,0,0,0,-1,1707,771,0,0
490,253,0,0,0,0,0,0,0,0,0,-1,1714,771,0,0
497,253,0,0,0,0,0,0,0,0,0,-1,1721,771,0,0
504,253,0,0,0,0,0,0,0,0,0,-1,1728,771,0,0
511,253,0,0,0,0,0,0,0,0,0,-1,1735,771,0,0
518,253,0,0,0,0,0,0,0,0,0,-1,1742,771,0,0
525,253,0,0,0,0,0,0,0,0,0,-1,1749,771,0,0
532,253,0,0,0,0,0,0,0,0,0,-1,1756,771,0,0
539,253,0,0,0,0,0,0,0,0,0,-1,1763,771,0,0
546,253,0,0,0,0,0,0,0,0,0,-1,1770,771,0,0
553,253,0,0,0,0,0,0,0,0,0,-1,1777,771,0,0
560,253,0,0,0,0,0,0,0,0,0,-1,1784,771,0,0
567,253,0,0,0,0,0,0,0,0,0,-1,1791,771,0,0
574,253,53.9088,2.43701,0,0,0,0,0,0,0,-1,1798,771,53.9088,-2.43702
581,253,55.1302,2.95648,0,0,0,0,0,0,0,-1,1805,771,55.1303,-2.95649
588,253,55.5977,2.71954,-0.0348833,-0.0142853,0.0162898,-0.00531185,-0.0438567,1.06729,0.0276379,0.0489665,1812,771,55.5976,-2.71957
595,253,56.074,2.4248,-0.0353058,-0.0134848,0.0156062,-0.00535344,-0.0434372,1.09046,0.0273488,0.0480735,1819,771,56.074,-2.42479
602,253,55.2024,2.87372,-0.0315506,-0.0116841,0.0135218,-0.00483918,-0.0383956,1.10219,0.0241462,0.0455708,1826,771,55.2024,-2.87375
609,253,54.2932,3.25659,-0.0262427,-0.00968385,0.0110823,-0.00412979,-0.0317968,1.10622,0.0199642,0.0424342,1833,771,54.2932,-3.25657
616,253,53.6115,3.60168,0,0,0,0,0,0,0,-1,1840,771,53.6115,-3.60168
623,253,48.8328,3.01001,0,0,0,0,0,0,0,-1,1847,771,48.8328,-3.01002
630,253,33.561,2.96838,0,0,0,0,0,0,0,-1,1854,771,33.561,-2.96836
637,253,22.3192,-0.604004,0,0,0,0,0,0,0,-1,1861,771,22.3192,0.603986
644,253,37.9333,-3.47406,0,0,0,0,0,0,0,-1,1868,771,37.9334,3.47409
651,253,37.6332,-2.61694,-0.00588462,-0.00249232,0.00117844,-0.00212312,-0.00625381,1.26719,0.00367213,0.0340349,1875,771,37.6332,2.61695
658,253,37.5654,-2.02704,-0.00236004,-0.00214886,-0.000482887,-0.00176016,-0.00274875,-0.893034,0.0016077,0.0205321,1882,771,37.5654,2.02702
665,253,37.5,-1.40118,-0.00115239,-0.000976534,-0.000803399,-0.000256266,-0.00187266,-0.839904,0.00117239,0.0218997,1889,771,37.5,1.4012
672,253,37.4813,-0.71344,-0.000936101,-0.000604616,-0.000709917,-4.135e-05,-0.00149937,-0.900078,0.000986083,0.0166295,1896,771,37.4813,0.713412
679,253,37.5256,0.00262451,-0.00029159,-0.000202208,-0.000351841,0.000107769,-0.000601567,-0.848571,0.000441376,0.0135217,1903,771,37.5257,-0.00264833
686,253,37.4734,0.666626,0.000729645,0.000537695,0.000254231,0.000905414,0.000361926,0.604914,0.000526232,0.0209652,1910,771,37.4734,-0.666628
693,253,37.4104,1.30621,0.00210619,0.0013515,0.00109604,0.00288802,0.000569665,0.619613,0.00176635,0.0212601,1917,771,37.4104,-1.30623
700,253,37.3936,1.93616,0.00371173,0.00214594,0.00209252,0.00516302,0.000694659,0.60639,0.00323541,0.0169671,1924,771,37.3935,-1.93618
707,253,37.3932,2.61292,0.00555634,0.0029228,0.0032986,0.00779128,0.000687856,0.595494,0.00498076,0.0154853,1931,771,37.3931,-2.61293
714,253,37.3868,3.29041,0.00774726,0.00373456,0.00486721,0.0110054,0.000476394,0.589901,0.00718342,0.022133,1938,771,37.3868,-3.2904
721,253,37.3452,3.99884,0.0101591,0.0041247,0.00659356,0.014393,-0.00010919,0.570819,0.00963196,0.0385782,1945,771,37.3452,-3.99884
728,253,37.3181,4.71014,0,0,0,0,0,0,0,-1,1952,771,37.3181,-4.71013
735,253,34.5735,6.15118,0,0,0,0,0,0,0,-1,1959,771,34.5734,-6.1512
742,253,31.0571,5.7337,0,0,0,0,0,0,0,-1,1966,771,31.0571,-5.73373
749,253,33.7754,3.21533,0,0,0,0,0,0,0,-1,1973,771,33.7754,-3.21533
756,253,0,0,0,0,0,0,0,0,0,-1,1980,771,0,0
763,253,0,0,0,0,0,0,0,0,0,-1,1987,771,0,0
770,253,0,0,0,0,0,0,0,0,0,-1,1994,771,0,0
777,253,0,0,0,0,0,0,0,0,0,-1,2001,771,0,0
784,253,0,0,0,0,0,0,0,0,0,-1,2008,771,0,0
791,253,0,0,0,0,0,0,0,0,0,-1,2015,771,0,0
798,253,0,0,0,0,0,0,0,0,0,-1,2022,771,0,0
805,253,0,0,0,0,0,0,0,0,0,-1,2029,771,0,0
812,253,0,0,0,0,0,0,0,0,0,-1,2036,771,0,0
-700,246,0,0,0,0,0,0,0,0,0,-1,524,778,0,0
-693,246,0,0,0,0,0,0,0,0,0,-1,531,778,0,0
-686,246,0,0,0,0,0,0,0,0,0,-1,538,778,0,0
-679,246,0,0,0,0,0,0,0,0,0,-1,545,778,0,0
-672,246,0,0,0,0,0,0,0,0,0,-1,552,778,0,0
-665,246,0,0,0,0,0,0,0,0,0,-1,559,778,0,0
-658,246,0,0,0,0,0,0,0,0,0,-1,566,778,0,0
-651,246,0,0,0,0,0,0,0,0,0,-1,573,778,0,0
-644,246,0,0,0,0,0,0,0,0,0,-1,580,778,0,0
-637,246,-24.1234,0.130432,0,0,0,0,0,0,0,-1,587,778,-24.1234,-0.130438
-630,246,-24.0781,1.38916,0,0,0,0,0,0,0,-1,594,778,-24.0781,-1.38913
-623,246,-23.9183,2.49573,0,0,0,0,0,0,0,-1,601,778,-23.9183,-2.49575
-616,246,-26.8182,2.0705,0,0,0,0,0,0,0,-1,608,778,-26.8182,-2.07052
-609,246,-26.0615,1.16388,0,0,0,0,0,0,0,-1,615,778,-26.0615,-1.16388
-602,246,-25.9221,3.65704,0,0,0,0,0,0,0,-1,622,778,-25.9221,-3.65704
-595,246,-25.9156,2.66534,0.000505879,0.0107676,-0.00785779,0.0150214,-0.00374785,-1.07463,0.0114695,0.0454739,629,778,-25.9157,-2.66535
-588,246,-25.8233,1.56512,0.000181089,0.00828128,-0.00551408,0.0110728,-0.00261048,-1.10215,0.00838856,0.0299971,636,778,-25.8233,-1.56514
-581,246,-25.9678,0.790649,-8.22028e-05,0.00615017,-0.00378062,0.00793334,-0.00186537,-1.13008,0.006008,0.0190726,643,778,-25.9678,-0.790626
-574,246,-25.8984,0.0618286,-0.000489796,0.0043408,-0.00227406,0.00524288,-0.00139188,-1.19315,0.00403994,0.0196104,650,778,-25.8984,-0.0618472
-567,246,-25.9392,-0.582458,-0.000943407,0.0026001,-0.000950683,0.00283905,-0.00118235,-1.32456,0.00238653,0.0235758,657,778,-25.9392,0.58246
-560,246,-26.0163,-1.15503,-0.00142505,0.000961477,0.000209317,0.000979696,-0.00144327,1.48397,0.00140741,0.0185364,664,778,-26.0163,1.15505
-553,246,-26.0364,-1.7287,-0.00207404,-0.000392231,0.00131823,0.000330469,-0.00279674,1.06931,0.00198385,0.0141256,671,778,-26.0364,1.72871
-546,246,-26.0782,-2.36072,-0.0027677,-0.00175678,0.00245277,0.00024207,-0.00476654,0.887015,0.00326138,0.0111418,678,778,-26.0782,2.36073
-539,246,-26.1282,-3.04608,-0.00333275,-0.00291518,0.0036081,0.000490167,-0.0067381,0.814298,0.00466405,0.0108656,685,778,-26.1282,3.0461
-532,246,-26.1168,-3.70569,-0.0036877,-0.00376465,0.00445399,0.000727979,-0.00818033,0.78108,0.0057117,0.0158321,692,778,-26.1168,3.70569
-525,246,-26.1406,-4.33795,-0.00380419,-0.00406122,0.00483748,0.000906484,-0.0087719,0.772118,0.00617232,0.0320519,699,778,-26.1406,4.33792
-518,246,-26.358,-4.7215,-0.00397259,-0.00314589,0.0043402,0.000800597,-0.00791908,0.832874,0.00556548,0.0460195,706,778,-26.3581,4.72153
-511,246,-26.7333,-4.92163,0,0,0,0,0,0,0,-1,713,778,-26.7333,4.92165
-504,246,-20.0047,-2.88214,0,0,0,0,0,0,0,-1,720,778,-20.0047,2.88216
-497,246,-29.4669,1.82684,0,0,0,0,0,0,0,-1,727,778,-29.4669,-1.82687
-490,246,-40.4299,1.04309,0,0,0,0,0,0,0,-1,734,778,-40.4299,-1.04308
-483,246,-41.8815,1.59094,0,0,0,0,0,0,0,-1,741,778,-41.8815,-1.59093
-476,246,-41.9672,1.11011,0,0,0,0,0,0,0,-1,748,778,-41.9671,-1.1101
-469,246,-41.7273,1.19006,-0.0112396,-0.00261912,-0.0164993,0.0101236,-0.0239824,-0.913162,0.0202257,0.0426746,755,778,-41.7273,-1.19004
-462,246,-41.8743,1.06897,-0.0142256,-0.00477863,-0.0224787,0.0134675,-0.0324718,-0.888957,0.0272691,0.046966,762,778,-41.8744,-1.06899
-455,246,0,0,0,0,0,0,0,0,0,-1,769,778,0,0
-448,246,0,0,0,0,0,0,0,0,0,-1,776,778,0,0
-441,246,0,0,0,0,0,0,0,0,0,-1,783,778,0,0
-434,246,0,0,0,0,0,0,0,0,0,-1,790,778,0,0
-427,246,0,0,0,0,0,0,0,0,0,-1,797,778,0,0
-420,246,0,0,0,0,0,0,0,0,0,-1,804,778,0,0
-413,246,0,0,0,0,0,0,0,0,0,-1,811,778,0,0
-406,246,0,0,0,0,0,0,0,0,0,-1,818,778,0,0
-399,246,0,0,0,0,0,0,0,0,0,-1,825,778,0,0
-392,246,0,0,0,0,0,0,0,0,0,-1,832,778,0,0
-385,246,0,0,0,0,0,0,0,0,0,-1,839,778,0,0
-378,246,0,0,0,0,0,0,0,0,0,-1,846,778,0,0
-371,246,0,0,0,0,0,0,0,0,0,-1,853,778,0,0
-364,246,0,0,0,0,0,0,0,0,0,-1,860,778,0,0
-357,246,0,0,0,0,0,0,0,0,0,-1,867,778,0,0
-350,246,0,0,0,0,0,0,0,0,0,-1,874,778,0,0
-343,246,0,0,0,0,0,0,0,0,0,-1,881,778,0,0
-336,246,0,0,0,0,0,0,0,0,0,-1,888,778,0,0
-329,246,0,0,0,0,0,0,0,0,0,-1,895,778,0,0
-322,246,0,0,0,0,0,0,0,0,0,-1,902,778,0,0
-315,246,0,0,0,0,0,0,0,0,0,-1,909,778,0,0
-308,246,0,0,0,0,0,0,0,0,0,-1,916,778,0,0
-301,246,0,0,0,0,0,0,0,0,0,-1,923,778,0,0
-294,246,0,0,0,0,0,0,0,0,0,-1,930,778,0,0
-287,246,0,0,0,0,0,0,0,0,0,-1,937,778,0,0
-280,246,0,0,0,0,0,0,0,0,0,-1,944,778,0,0
-273,246,0,0,0,0,0,0,0,0,0,-1,951,778,0,0
-266,246,0,0,0,0,0,0,0,0,0,-1,958,778,0,0
-259,246,0,0,0,0,0,0,0,0,0,-1,965,778,0,0
-252,246,0,0,0,0,0,0,0,0,0,-1,972,778,0,0
-245,246,0,0,0,0,0,0,0,0,0,-1,979,778,0,0
-238,246,0,0,0,0,0,0,0,0,0,-1,986,778,0,0
-231,246,0,0,0,0,0,0,0,0,0,-1,993,778,0,0
-224,246,0,0,0,0,0,0,0,0,0,-1,1000,778,0,0
-217,246,0,0,0,0,0,0,0,0,0,-1,1007,778,0,0
-210,246,0,0,0,0,0,0,0,0,0,-1,1014,778,0,0
-203,246,0,0,0,0,0,0,0,0,0,-1,1021,778,0,0
-196,246,0,0,0,0,0,0,0,0,0,-1,1028,778,0,0
-189,246,0,0,0,0,0,0,0,0,0,-1,1035,778,0,0
-182,246,0,0,0,0,0,0,0,0,0,-1,1042,778,0,0
-175,246,0,0,0,0,0,0,0,0,0,-1,1049,778,0,0
-168,246,0,0,0,0,0,0,0,0,0,-1,1056,778,0,0
-161,246,0,0,0,0,0,0,0,0,0,-1,1063,778,0,0
-154,246,0,0,0,0,0,0,0,0,0,-1,1070,778,0,0
-147,246,0,0,0,0,0,0,0,0,0,-1,1077,778,0,0
-140,246,0,0,0,0,0,0,0,0,0,-1,1084,778,0,0
-133,246,0,0,0,0,0,0,0,0,0,-1,1091,778,0,0
-126,246,0,0,0,0,0,0,0,0,0,-1,1098,778,0,0
-119,246,0,0,0,0,0,0,0,0,0,-1,1105,778,0,0
-112,246,0,0,0,0,0,0,0,0,0,-1,1112,778,0,0
-105,246,0,0,0,0,0,0,0,0,0,-1,1119,778,0,0
-98,246,0,0,0,0,0,0,0,0,0,-1,1126,778,0,0
-91,246,0,0,0,0,0,0,0,0,0,-1,1133,778,0,0
-84,246,0,0,0,0,0,0,0,0,0,-1,1140,778,0,0
-77,246,0,0,0,0,0,0,0,0,0,-1,1147,778,0,0
-70,246,0,0,0,0,0,0,0,0,0,-1,1154,778,0,0
-63,246,0,0,0,0,0,0,0,0,0,-1,1161,778,0,0
-56,246,0,0,0,0,0,0,0,0,0,-1,1168,778,0,0
-49,246,0,0,0,0,0,0,0,0,0,-1,1175,778,0,0
-42,246,0,0,0,0,0,0,0,0,0,-1,1182,778,0,0
-35,246,0,0,0,0,0,0,0,0,0,-1,1189,778,0,0
-28,246,0,0,0,0,0,0,0,0,0,-1,1196,778,0,0
-21,246,0,0,0,0,0,0,0,0,0,-1,1203,778,0,0
-14,246,0,0,0,0,0,0,0,0,0,-1,1210,778,0,0
-7,246,0,0,0,0,0,0,0,0,0,-1,1217,778,0,0
0,246,0,0,0,0,0,0,0,0,0,-1,1224,778,0,0
7,246,0,0,0,0,0,0,0,0,0,-1,1231,778,0,0
14,246,0,0,0,0,0,0,0,0,0,-1,1238,778,0,0
21,246,0,0,0,0,0,0,0,0,0,-1,1245,778,0,0
28,246,0,0,0,0,0,0,0,0,0,-1,1252,778,0,0
35,246,0,0,0,0,0,0,0,0,0,-1,1259,778,0,0
42,246,0,0,0,0,0,0,0,0,0,-1,1266,778,0,0
49,246,0,0,0,0,0,0,0,0,0,-1,1273,778,0,0
56,246,0,0,0,0,0,0,0,0,0,-1,1280,778,0,0
63,246,0,0,0,0,0,0,0,0,0,-1,1287,778,0,0
70,246,0,0,0,0,0,0,0,0,0,-1,1294,778,0,0
77,246,0,0,0,0,0,0,0,0,0,-1,1301,778,0,0
84,246,0,0,0,0,0,0,0,0,0,-1,1308,778,0,0
91,246,0,0,0,0,0,0,0,0,0,-1,1315,778,0,0
98,246,0,0,0,0,0,0,0,0,0,-1,1322,778,0,0
105,246,0,0,0,0,0,0,0,0,0,-1,1329,778,0,0
112,246,0,0,0,0,0,0,0,0,0,-1,1336,778,0,0
119,246,0,0,0,0,0,0,0,0,0,-1,1343,778,0,0
126,246,0,0,0,0,0,0,0,0,0,-1,1350,778,0,0
133,246,0,0,0,0,0,0,0,0,0,-1,1357,778,0,0
140,246,0,0,0,0,0,0,0,0,0,-1,1364,778,0,0
147,246,0,0,0,0,0,0,0,0,0,-1,1371,778,0,0
154,246,0,0,0,0,0,0,0,0,0,-1,1378,778,0,0
161,246,0,0,0,0,0,0,0,0,0,-1,1385,778,0,0
168,246,0,0,0,0,0,0,0,0,0,-1,1392,778,0,0
175,246,0,0,0,0,0,0,0,0,0,-1,1399,778,0,0
182,246,0,0,0,0,0,0,0,0,0,-1,1406,778,0,0
189,246,0,0,0,0,0,0,0,0,0,-1,1413,778,0,0
196,246,0,0,0,0,0,0,0,0,0,-1,1420,778,0,0
203,246,0,0,0,0,0,0,0,0,0,-1,1427,778,0,0
210,246,0,0,0,0,0,0,0,0,0,-1,1434,778,0,0
217,246,0,0,0,0,0,0,0,0,0,-1,1441,778,0,0
224,246,0,0,0,0,0,0,0,0,0,-1,1448,778,0,0
231,246,0,0,0,0,0,0,0,0,0,-1,1455,778,0,0
238,246,0,0,0,0,0,0,0,0,0,-1,1462,778,0,0
245,246,0,0,0,0,0,0,0,0,0,-1,1469,778,0,0
252,246,0,0,0,0,0,0,0,0,0,-1,1476,778,0,0
259,246,0,0,0,0,0,0,0,0,0,-1,1483,778,0,0
266,246,0,0,0,0,0,0,0,0,0,-1,1490,778,0,0
273,246,0,0,0,0,0,0,0,0,0,-1,1497,778,0,0
280,246,0,0,0,0,0,0,0,0,0,-1,1504,778,0,0
287,246,0,0,0,0,0,0,0,0,0,-1,1511,778,0,0
294,246,0,0,0,0,0,0,0,0,0,-1,1518,778,0,0
301,246,0,0,0,0,0,0,0,0,0,-1,1525,778,0,0
308,246,0,0,0,0,0,0,0,0,0,-1,1532,778,0,0
315,246,0,0,0,0,0,0,0,0,0,-1,1539,778,0,0
322,246,0,0,0,0,0,0,0,0,0,-1,1546,778,0,0
329,246,0,0,0,0,0,0,0,0,0,-1,1553,778,0,0
336,246,0,0,0,0,0,0,0,0,0,-1,1560,778,0,0
343,246,0,0,0,0,0,0,0,0,0,-1,1567,778,0,0
350,246,0,0,0,0,0,0,0,0,0,-1,1574,778,0,0
357,246,0,0,0,0,0,0,0,0,0,-1,1581,778,0,0
364,246,0,0,0,0,0,0,0,0,0,-1,1588,778,0,0
371,246,0,0,0,0,0,0,0,0,0,-1,1595,778,0,0
378,246,0,0,0,0,0,0,0,0,0,-1,1602,778,0,0
385,246,0,0,0,0,0,0,0,0,0,-1,1609,778,0,0
392,246,0,0,0,0,0,0,0,0,0,-1,1616,778,0,0
399,246,0,0,0,0,0,0,0,0,0,-1,1623,778,0,0
406,246,0,0,0,0,0,0,0,0,0,-1,1630,778,0,0
413,246,0,0,0,0,0,0,0,0,0,-1,1637,778,0,0
420,246,0,0,0,0,0,0,0,0,0,-1,1644,778,0,0
427,246,0,0,0,0,0,0,0,0,0,-1,1651,778,0,0
434,246,0,0,0,0,0,0,0,0,0,-1,1658,778,0,0
441,246,0,0,0,0,0,0,0,0,0,-1,1665,778,0,0
448,246,0,0,0,0,0,0,0,0,0,-1,1672,778,0,0
455,246,0,0,0,0,0,0,0,0,0,-1,1679,778,0,0
462,246,0,0,0,0,0,0,0,0,0,-1,1686,778,0,0
469,246,0,0,0,0,0,0,0,0,0,-1,1693,778,0,0
476,246,0,0,0,0,0,0,0,0,0,-1,1700,778,0,0
483,246,0,0,0,0,0,0,0,0,0,-1,1707,778,0,0
490,246,0,0,0,0,0,0,0,0,0,-1,1714,778,0,0
497,246,0,0,0,0,0,0,0,0,0,-1,1721,778,0,0
504,246,0,0,0,0,0,0,0,0,0,-1,1728,778,0,0
511,246,0,0,0,0,0,0,0,0,0,-1,1735,778,0,0
518,246,0,0,0,0,0,0,0,0,0,-1,1742,778,0,0
525,246,0,0,0,0,0,0,0,0,0,-1,1749,778,0,0
532,246,0,0,0,0,0,0,0,0,0,-1,1756,778,0,0
539,246,0,0,0,0,0,0,0,0,0,-1,1763,778,0,0
546,246,0,0,0,0,0,0,0,0,0,-1,1770,778,0,0
553,246,0,0,0,0,0,0,0,0,0,-1,1777,778,0,0
560,246,0,0,0,0,0,0,0,0,0,-1,1784,778,0,0
567,246,0,0,0,0,0,0,0,0,0,-1,1791,778,0,0
574,246,0,0,0,0,0,0,0,0,0,-1,1798,778,0,0
581,246,55.3545,2.87274,-0.0103792,-0.00953672,0.00730729,-0.00263853,-0.0172774,0.814189,0.0107472,0.0376952,1805,778,55.3544,-2.87274
588,246,55.3558,2.81134,-0.0243973,-0.0117655,0.0121355,-0.00440074,-0.0317621,1.02534,0.0198709,0.0431297,1812,778,55.3559,-2.81136
595,246,55.6815,2.66296,-0.0279426,-0.0117226,0.0127564,-0.00471647,-0.0349487,1.06855,0.021897,0.0434795,1819,778,55.6816,-2.66299
602,246,55.2228,3.13293,-0.0263613,-0.0104873,0.0115474,-0.0044122,-0.0324364,1.08649,0.0203139,0.045192,1826,778,55.2228,-3.13291
609,246,54.6934,3.72058,-0.0224679,-0.00877954,0.00971601,-0.00373913,-0.0275083,1.09224,0.0172283,0.0466914,1833,778,54.6934,-3.7206
616,246,54.4927,4.43335,0,0,0,0,0,0,0,-1,1840,778,54.4926,-4.43332
623,246,54.1261,5.25574,0,0,0,0,0,0,0,-1,1847,778,54.1261,-5.25574
630,246,49.5938,1.99902,0,0,0,0,0,0,0,-1,1854,778,49.5937,-1.999
637,246,29.5785,0.837585,0,0,0,0,0,0,0,-1,1861,778,29.5785,-0.837606
644,246,28.1232,-1.43188,0,0,0,0,0,0,0,-1,1868,778,28.1232,1.43188
651,246,38.2434,-2.52313,0,0,0,0,0,0,0,-1,1875,778,38.2434,2.52312
658,246,38.0684,-2.07526,-0.00273351,-0.00208189,-0.000728587,-0.00160958,-0.00320582,-0.995654,0.00185089,0.0411089,1882,778,38.0683,2.07523
665,246,38.1438,-1.35992,-0.0017568,-0.00102815,-0.00114108,-0.000194645,-0.0025903,-0.939924,0.00166578,0.0246383,1889,778,38.1437,1.35994
672,246,38.1583,-0.641174,-0.00174436,-0.000829178,-0.00115437,-4.50112e-05,-0.00252852,-0.974096,0.00167088,0.0211711,1896,778,38.1584,0.641183
679,246,38.1888,0.00585938,-0.00128068,-0.000642246,-0.000914778,7.4135e-06,-0.00193034,-0.953269,0.00128937,0.0214394,1903,778,38.1888,-0.00588002
686,246,38.1727,0.698181,-0.000348761,-3.74561e-05,-0.000379871,0.000217415,-0.000603632,-0.97984,0.000491203,0.0239637,1910,778,38.1728,-0.698189
693,246,38.1404,1.33014,0.00105602,0.000715482,0.000466291,0.00138216,0.000389347,0.610341,0.000822953,0.0193922,1917,778,38.1404,-1.33016
700,246,38.1188,1.94965,0.00268925,0.00145809,0.00148352,0.00367984,0.000467505,0.588736,0.00231319,0.0155274,1924,778,38.1188,-1.94963
707,246,38.0807,2.62903,0.00448735,0.00221152,0.00266838,0.00625031,0.000448555,0.583851,0.00402569,0.0143363,1931,778,38.0806,-2.62904
714,246,38.0431,3.32129,0.00651345,0.00294084,0.00412838,0.00922541,0.000228875,0.581215,0.00607542,0.0142128,1938,778,38.0431,-3.32127
721,246,38.011,3.97308,0.00864862,0.00329263,0.00571136,0.0122787,-0.000337406,0.566173,0.00830053,0.0194135,1945,778,38.0109,-3.97307
728,246,38.1882,4.80304,0.010826,0.00359537,0.00742981,0.0154734,-0.00105204,0.558965,0.0106836,0.0414808,1952,778,38.1883,-4.80304
735,246,38.6073,5.74402,0,0,0,0,0,0,0,-1,1959,778,38.6073,-5.74404
742,246,31.7356,6.70013,0,0,0,0,0,0,0,-1,1966,778,31.7356,-6.70011
749,246,32.3883,7.69324,0,0,0,0,0,0,0,-1,1973,778,32.3883,-7.69322
756,246,33.6919,3.45264,0,0,0,0,0,0,0,-1,1980,778,33.6919,-3.45262
763,246,0,0,0,0,0,0,0,0,0,-1,1987,778,0,0
770,246,0,0,0,0,0,0,0,0,0,-1,1994,778,0,0
777,246,0,0,0,0,0,0,0,0,0,-1,2001,778,0,0
784,246,0,0,0,0,0,0,0,0,0,-1,2008,778,0,0
791,246,0,0,0,0,0,0,0,0,0,-1,2015,778,0,0
798,246,0,0,0,0,0,0,0,0,0,-1,2022,778,0,0
805,246,0,0,0,0,0,0,0,0,0,-1,2029,778,0,0
812,246,0,0,0,0,0,0,0,0,0,-1,2036,778,0,0
-700,239,0,0,0,0,0,0,0,0,0,-1,524,785,0,0
-693,239,0,0,0,0,0,0,0,0,0,-1,531,785,0,0
-686,239,0,0,0,0,0,0,0,0,0,-1,538,785,0,0
-679,239,0,0,0,0,0,0,0,0,0,-1,545,785,0,0
-672,239,0,0,0,0,0,0,0,0,0,-1,552,785,0,0
-665,239,0,0,0,0,0,0,0,0,0,-1,559,785,0,0
-658,239,0,0,0,0,0,0,0,0,0,-1,566,785,0,0
-651,239,0,0,0,0,0,0,0,0,0,-1,573,785,0,0
-644,239,0,0,0,0,0,0,0,0,0,-1,580,785,0,0
-637,239,-23.2709,0.465088,0,0,0,0,0,0,0,-1,587,785,-23.271,-0.465116
-630,239,-23.4006,0.956299,0,0,0,0,0,0,0,-1,594,785,-23.4005,-0.956285
-623,239,-30.6328,2.52185,0,0,0,0,0,0,0,-1,601,785,-30.6328,-2.52183
-616,239,-29.1425,1.42139,0,0,0,0,0,0,0,-1,608,785,-29.1425,-1.42139
-609,239,-27.8569,0.322937,0,0,0,0,0,0,0,-1,615,785,-27.857,-0.322963
-602,239,-26.2528,3.67981,0,0,0,0,0,0,0,-1,622,785,-26.2528,-3.67982
-595,239,-26.3632,2.60175,0.000317566,0.00921828,-0.00721468,0.0132448,-0.00370895,-1.06176,0.0102914,0.0407115,629,785,-26.3632,-2.60177
-588,239,-26.4628,1.53845,0.000209719,0.00715876,-0.00516419,0.00990848,-0.00254,-1.08152,0.00759524,0.0205782,636,785,-26.4628,-1.53846
-581,239,-26.5997,0.7901,3.5034e-05,0.00528499,-0.00355215,0.00707683,-0.00175681,-1.1036,0.00539961,0.0119636,643,785,-26.5997,-0.790108
-574,239,-26.5726,0.114319,-0.00037027,0.00359772,-0.00207658,0.00448573,-0.00125828,-1.1667,0.00348644,0.0126074,650,785,-26.5727,-0.114314
-567,239,-26.5903,-0.525513,-0.000898545,0.00191929,-0.000721012,0.00209306,-0.00107232,-1.3343,0.00185894,0.0171157,657,785,-26.5903,0.52553
-560,239,-26.6619,-1.10748,-0.00151251,0.000327606,0.00051463,0.000461755,-0.00164665,1.3158,0.00127976,0.0179799,664,785,-26.6619,1.10746
-553,239,-26.6893,-1.7204,-0.00241155,-0.000825805,0.00176805,0.000319016,-0.00355637,0.996178,0.00248409,0.0148581,671,785,-26.6893,1.72041
-546,239,-26.7318,-2.34503,-0.00326937,-0.00215536,0.00306152,0.000399415,-0.00582414,0.875382,0.00402251,0.0144224,678,785,-26.7318,2.34505
-539,239,-26.83,-2.99133,-0.00374227,-0.0031562,0.00424307,0.000803939,-0.00770241,0.819875,0.00542282,0.0163367,685,785,-26.83,2.99135
-532,239,-26.8596,-3.60547,-0.00400931,-0.0039069,0.00513081,0.00117296,-0.00908918,0.790388,0.00648589,0.0221372,692,785,-26.8596,3.6055
-525,239,-26.8701,-4.05072,-0.00405533,-0.00414571,0.00549279,0.00139246,-0.0095935,0.781285,0.00690677,0.0357248,699,785,-26.8701,4.0507
-518,239,-27.0889,-4.41638,0,0,0,0,0,0,0,-1,706,785,-27.0888,4.41638
-511,239,-20.9849,-2.09235,0,0,0,0,0,0,0,-1,713,785,-20.9848,2.09234
-504,239,-25.5015,2.00421,0,0,0,0,0,0,0,-1,720,785,-25.5015,-2.00422
-497,239,-40.2453,1.4447,0,0,0,0,0,0,0,-1,727,785,-40.2453,-1.4447
-490,239,-42.0454,0.793335,0,0,0,0,0,0,0,-1,734,785,-42.0454,-0.793327
-483,239,-41.853,1.49969,0,0,0,0,0,0,0,-1,741,785,-41.853,-1.4997
-476,239,-41.9458,1.05396,-0.00767194,-0.00199326,-0.00834566,0.00398283,-0.013648,-0.949365,0.0106769,0.0446239,748,785,-41.9458,-1.05397
-469,239,-41.8416,1.08478,-0.00928275,-0.00246767,-0.0131559,0.00771483,-0.0194652,-0.912119,0.0161739,0.0452747,755,785,-41.8415,-1.08478
-462,239,-41.8303,1.13916,-0.0113737,-0.0047638,-0.0182832,0.0105108,-0.0266483,-0.874815,0.0221179,0.0460073,762,785,-41.8303,-1.13917
-455,239,0,0,0,0,0,0,0,0,0,-1,769,785,0,0
-448,239,0,0,0,0,0,0,0,0,0,-1,776,785,0,0
-441,239,0,0,0,0,0,0,0,0,0,-1,783,785,0,0
-434,239,0,0,0,0,0,0,0,0,0,-1,790,785,0,0
-427,239,0,0,0,0,0,0,0,0,0,-1,797,785,0,0
-420,239,0,0,0,0,0,0,0,0,0,-1,804,785,0,0
-413,239,0,0,0,0,0,0,0,0,0,-1,811,785,0,0
-406,239,0,0,0,0,0,0,0,0,0,-1,818,785,0,0
-399,239,0,0,0,0,0,0,0,0,0,-1,825,785,0,0
-392,239,0,0,0,0,0,0,0,0,0,-1,832,785,0,0
-385,239,0,0,0,0,0,0,0,0,0,-1,839,785,0,0
-378,239,0,0,0,0,0,0,0,0,0,-1,846,785,0,0
-371,239,0,0,0,0,0,0,0,0,0,-1,853,785,0,0
-364,239,0,0,0,0,0,0,0,0,0,-1,860,785,0,0
-357,239,0,0,0,0,0,0,0,0,0,-1,867,785,0,0
-350,239,0,0,0,0,0,0,0,0,0,-1,874,785,0,0
-343,239,0,0,0,0,0,0,0,0,0,-1,881,785,0,0
-336,239,0,0,0,0,0,0,0,0,0,-1,888,785,0,0
-329,239,0,0,0,0,0,0,0,0,0,-1,895,785,0,0
-322,239,0,0,0,0,0,0,0,0,0,-1,902,785,0,0
-315,239,0,0,0,0,0,0,0,0,0,-1,909,785,0,0
-308,239,0,0,0,0,0,0,0,0,0,-1,916,785,0,0
-301,239,0,0,0,0,0,0,0,0,0,-1,923,785,0,0
-294,239,0,0,0,0,0,0,0,0,0,-1,930,785,0,0
-287,239,0,0,0,0,0,0,0,0,0,-1,937,785,0,0
-280,239,0,0,0,0,0,0,0,0,0,-1,944,785,0,0
-273,239,0,0,0,0,0,0,0,0,0,-1,951,785,0,0
-266,239,0,0,0,0,0,0,0,0,0,-1,958,785,0,0
-259,239,0,0,0,0,0,0,0,0,0,-1,965,785,0,0
-252,239,0,0,0,0,0,0,0,0,0,-1,972,785,0,0
-245,239,0,0,0,0,0,0,0,0,0,-1,979,785,0,0
-238,239,0,0,0,0,0,0,0,0,0,-1,986,785,0,0
-231,239,0,0,0,0,0,0,0,0,0,-1,993,785,0,0
-224,239,0,0,0,0,0,0,0,0,0,-1,1000,785,0,0
-217,239,0,0,0,0,0,0,0,0,0,-1,1007,785,0,0
-210,239,0,0,0,0,0,0,0,0,0,-1,1014,785,0,0
-203,239,0,0,0,0,0,0,0,0,0,-1,1021,785,0,0
-196,239,0,0,0,0,0,0,0,0,0,-1,1028,785,0,0
-189,239,0,0,0,0,0,0,0,0,0,-1,1035,785,0,0
-182,239,0,0,0,0,0,0,0,0,0,-1,1042,785,0,0
-175,239,0,0,0,0,0,0,0,0,0,-1,1049,785,0,0
-168,239,0,0,0,0,0,0,0,0,0,-1,1056,785,0,0
-161,239,0,0,0,0,0,0,0,0,0,-1,1063,785,0,0
-154,239,0,0,0,0,0,0,0,0,0,-1,1070,785,0,0
-147,239,0,0,0,0,0,0,0,0,0,-1,1077,785,0,0
-140,239,0,0,0,0,0,0,0,0,0,-1,1084,785,0,0
-133,239,0,0,0,0,0,0,0,0,0,-1,1091,785,0,0
-126,239,0,0,0,0,0,0,0,0,0,-1,1098,785,0,0
-119,239,0,0,0,0,0,0,0,0,0,-1,1105,785,0,0
-112,239,0,0,0,0,0,0,0,0,0,-1,1112,785,0,0
-105,239,0,0,0,0,0,0,0,0,0,-1,1119,785,0,0
-98,239,0,0,0,0,0,0,0,0,0,-1,1126,785,0,0
-91,239,0,0,0,0,0,0,0,0,0,-1,1133,785,0,0
-84,239,0,0,0,0,0,0,0,0,0,-1,1140,785,0,0
-77,239,0,0,0,0,0,0,0,0,0,-1,1147,785,0,0
-70,239,0,0,0,0,0,0,0,0,0,-1,1154,785,0,0
-63,239,0,0,0,0,0,0,0,0,0,-1,1161,785,0,0
-56,239,0,0,0,0,0,0,0,0,0,-1,1168,785,0,0
-49,239,0,0,0,0,0,0,0,0,0,-1,1175,785,0,0
-42,239,0,0,0,0,0,0,0,0,0,-1,1182,785,0,0
-35,239,0,0,0,0,0,0,0,0,0,-1,1189,785,0,0
-28,239,0,0,0,0,0,0,0,0,0,-1,1196,785,0,0
-21,239,0,0,0,0,0,0,0,0,0,-1,1203,785,0,0
-14,239,0,0,0,0,0,0,0,0,0,-1,1210,785,0,0
-7,239,0,0,0,0,0,0,0,0,0,-1,1217,785,0,0
0,239,0,0,0,0,0,0,0,0,0,-1,1224,785,0,0
7,239,0,0,0,0,0,0,0,0,0,-1,1231,785,0,0
14,239,0,0,0,0,0,0,0,0,0,-1,1238,785,0,0
21,239,0,0,0,0,0,0,0,0,0,-1,1245,785,0,0
28,239,0,0,0,0,0,0,0,0,0,-1,1252,785,0,0
35,239,0,0,0,0,0,0,0,0,0,-1,1259,785,0,0
42,239,0,0,0,0,0,0,0,0,0,-1,1266,785,0,0
49,239,0,0,0,0,0,0,0,0,0,-1,1273,785,0,0
56,239,0,0,0,0,0,0,0,0,0,-1,1280,785,0,0
63,239,0,0,0,0,0,0,0,0,0,-1,1287,785,0,0
70,239,0,0,0,0,0,0,0,0,0,-1,1294,785,0,0
77,239,0,0,0,0,0,0,0,0,0,-1,1301,785,0,0
84,239,0,0,0,0,0,0,0,0,0,-1,1308,785,0,0
91,239,0,0,0,0,0,0,0,0,0,-1,1315,785,0,0
98,239,0,0,0,0,0,0,0,0,0,-1,1322,785,0,0
105,239,0,0,0,0,0,0,0,0,0,-1,1329,785,0,0
112,239,0,0,0,0,0,0,0,0,0,-1,1336,785,0,0
119,239,0,0,0,0,0,0,0,0,0,-1,1343,785,0,0
126,239,0,0,0,0,0,0,0,0,0,-1,1350,785,0,0
133,239,0,0,0,0,0,0,0,0,0,-1,1357,785,0,0
140,239,0,0,0,0,0,0,0,0,0,-1,1364,785,0,0
147,239,0,0,0,0,0,0,0,0,0,-1,1371,785,0,0
154,239,0,0,0,0,0,0,0,0,0,-1,1378,785,0,0
161,239,0,0,0,0,0,0,0,0,0,-1,1385,785,0,0
168,239,0,0,0,0,0,0,0,0,0,-1,1392,785,0,0
175,239,0,0,0,0,0,0,0,0,0,-1,1399,785,0,0
182,239,0,0,0,0,0,0,0,0,0,-1,1406,785,0,0
189,239,0,0,0,0,0,0,0,0,0,-1,1413,785,0,0
196,239,0,0,0,0,0,0,0,0,0,-1,1420,785,0,0
203,239,0,0,0,0,0,0,0,0,0,-1,1427,785,0,0
210,239,0,0,0,0,0,0,0,0,0,-1,1434,785,0,0
217,239,0,0,0,0,0,0,0,0,0,-1,1441,785,0,0
224,239,0,0,0,0,0,0,0,0,0,-1,1448,785,0,0
231,239,0,0,0,0,0,0,0,0,0,-1,1455,785,0,0
238,239,0,0,0,0,0,0,0,0,0,-1,1462,785,0,0
245,239,0,0,0,0,0,0,0,0,0,-1,1469,785,0,0
252,239,0,0,0,0,0,0,0,0,0,-1,1476,785,0,0
259,239,0,0,0,0,0,0,0,0,0,-1,1483,785,0,0
266,239,0,0,0,0,0,0,0,0,0,-1,1490,785,0,0
273,239,0,0,0,0,0,0,0,0,0,-1,1497,785,0,0
280,239,0,0,0,0,0,0,0,0,0,-1,1504,785,0,0
287,239,0,0,0,0,0,0,0,0,0,-1,1511,785,0,0
294,239,0,0,0,0,0,0,0,0,0,-1,1518,785,0,0
301,239,0,0,0,0,0,0,0,0,0,-1,1525,785,0,0
308,239,0,0,0,0,0,0,0,0,0,-1,1532,785,0,0
315,239,0,0,0,0,0,0,0,0,0,-1,1539,785,0,0
322,239,0,0,0,0,0,0,0,0,0,-1,1546,785,0,0
329,239,0,0,0,0,0,0,0,0,0,-1,1553,785,0,0
336,239,0,0,0,0,0,0,0,0,0,-1,1560,785,0,0
343,239,0,0,0,0,0,0,0,0,0,-1,1567,785,0,0
350,239,0,0,0,0,0,0,0,0,0,-1,1574,785,0,0
357,239,0,0,0,0,0,0,0,0,0,-1,1581,785,0,0
364,239,0,0,0,0,0,0,0,0,0,-1,1588,785,0,0
371,239,0,0,0,0,0,0,0,0,0,-1,1595,785,0,0
378,239,0,0,0,0,0,0,0,0,0,-1,1602,785,0,0
385,239,0,0,0,0,0,0,0,0,0,-1,1609,785,0,0
392,239,0,0,0,0,0,0,0,0,0,-1,1616,785,0,0
399,239,0,0,0,0,0,0,0,0,0,-1,1623,785,0,0
406,239,0,0,0,0,0,0,0,0,0,-1,1630,785,0,0
413,239,0,0,0,0,0,0,0,0,0,-1,1637,785,0,0
420,239,0,0,0,0,0,0,0,0,0,-1,1644,785,0,0
427,239,0,0,0,0,0,0,0,0,0,-1,1651,785,0,0
434,239,0,0,0,0,0,0,0,0,0,-1,1658,785,0,0
441,239,0,0,0,0,0,0,0,0,0,-1,1665,785,0,0
448,239,0,0,0,0,0,0,0,0,0,-1,1672,785,0,0
455,239,0,0,0,0,0,0,0,0,0,-1,1679,785,0,0
462,239,0,0,0,0,0,0,0,0,0,-1,1686,785,0,0
469,239,0,0,0,0,0,0,0,0,0,-1,1693,785,0,0
476,239,0,0,0,0,0,0,0,0,0,-1,1700,785,0,0
483,239,0,0,0,0,0,0,0,0,0,-1,1707,785,0,0
490,239,0,0,0,0,0,0,0,0,0,-1,1714,785,0,0
497,239,0,0,0,0,0,0,0,0,0,-1,1721,785,0,0
504,239,0,0,0,0,0,0,0,0,0,-1,1728,785,0,0
511,239,0,0,0,0,0,0,0,0,0,-1,1735,785,0,0
518,239,0,0,0,0,0,0,0,0,0,-1,1742,785,0,0
525,239,0,0,0,0,0,0,0,0,0,-1,1749,785,0,0
532,239,0,0,0,0,0,0,0,0,0,-1,1756,785,0,0
539,239,0,0,0,0,0,0,0,0,0,-1,1763,785,0,0
546,239,0,0,0,0,0,0,0,0,0,-1,1770,785,0,0
553,239,0,0,0,0,0,0,0,0,0,-1,1777,785,0,0
560,239,0,0,0,0,0,0,0,0,0,-1,1784,785,0,0
567,239,0,0,0,0,0,0,0,0,0,-1,1791,785,0,0
574,239,0,0,0,0,0,0,0,0,0,-1,1798,785,0,0
581,239,55.3145,2.90839,0.00273518,-0.00598316,0.0015167,0.0029915,-0.00623948,0.167416,0.00543836,0.037233,1805,785,55.3144,-2.90839
588,239,55.3386,2.81769,-0.0135116,-0.00889135,0.00762724,-0.00323206,-0.0191709,0.932445,0.0118511,0.0383893,1812,785,55.3386,-2.81769
595,239,55.4603,2.7016,-0.0201283,-0.00967975,0.00962657,-0.00395123,-0.0258568,1.03401,0.0160834,0.0345978,1819,785,55.4604,-2.70161
602,239,55.3531,2.93542,-0.0209488,-0.00909271,0.00942142,-0.00388951,-0.0261521,1.06621,0.0162937,0.0404356,1826,785,55.3532,-2.93541
609,239,55.3444,2.89728,0,0,0,0,0,0,0,-1,1833,785,55.3444,-2.89731
616,239,54.4282,4.50098,0,0,0,0,0,0,0,-1,1840,785,54.4282,-4.50096
623,239,54.9373,3.64667,0,0,0,0,0,0,0,-1,1847,785,54.9372,-3.64667
630,239,54.5767,3.64667,0,0,0,0,0,0,0,-1,1854,785,54.5766,-3.64667
637,239,39.5542,2.54114,0,0,0,0,0,0,0,-1,1861,785,39.5543,-2.54114
644,239,18.3466,0.735413,0,0,0,0,0,0,0,-1,1868,785,18.3465,-0.735414
651,239,34.2471,-2.15778,0,0,0,0,0,0,0,-1,1875,785,34.2471,2.1578
658,239,38.8167,-2.03577,0,0,0,0,0,0,0,-1,1882,785,38.8166,2.03577
665,239,38.8418,-1.3028,-0.00231664,-0.00112138,-0.00142899,-0.000170087,-0.00326794,-0.983455,0.0021242,0.0253293,1889,785,38.8418,1.30278
672,239,38.8339,-0.620544,-0.00248834,-0.000944356,-0.00154361,9.54547e-06,-0.00344224,-1.01727,0.00229802,0.0220257,1896,785,38.8338,0.620531
679,239,38.8192,0.0516968,-0.00224012,-0.000887231,-0.0014398,2.71101e-05,-0.00315446,-1.005,0.00211207,0.0232175,1903,785,38.8193,-0.0516842
686,239,38.8115,0.741455,-0.00146088,-0.000409905,-0.00103213,0.000222809,-0.00209359,-1.02086,0.00147562,0.0232603,1910,785,38.8115,-0.741451
693,239,38.8053,1.3446,-6.77284e-05,0.000267203,-0.000224745,0.000380014,-0.000180539,-1.10559,0.000330396,0.0157141,1917,785,38.8054,-1.34458
700,239,38.7792,1.99591,0.00158515,0.000984072,0.000804515,0.00214343,0.000425794,0.606642,0.00131029,0.0122327,1924,785,38.7792,-1.99589
707,239,38.7443,2.65552,0.00334733,0.00173047,0.0019912,0.00468795,0.000389846,0.592563,0.0030038,0.0117582,1931,785,38.7442,-2.65552
714,239,38.7085,3.3053,0.00523331,0.00241526,0.00337571,0.00748226,0.000166305,0.58769,0.00493367,0.0113225,1938,785,38.7085,-3.30529
721,239,38.6527,3.99237,0.00714362,0.002791,0.00485754,0.0102901,-0.000355478,0.574792,0.00698158,0.0243932,1945,785,38.6527,-3.99237
728,239,38.6786,4.80402,0.00894355,0.00308826,0.00637607,0.013032,-0.00100017,0.570175,0.00903984,0.0463826,1952,785,38.6785,-4.80401
735,239,39.0238,5.80121,0,0,0,0,0,0,0,-1,1959,785,39.0238,-5.80119
742,239,32.4141,7.6665,0,0,0,0,0,0,0,-1,1966,785,32.4141,-7.6665
749,239,32.1489,3.4411,0,0,0,0,0,0,0,-1,1973,785,32.149,-3.44109
756,239,32.9064,3.6687,0,0,0,0,0,0,0,-1,1980,785,32.9063,-3.66873
763,239,0,0,0,0,0,0,0,0,0,-1,1987,785,0,0
770,239,0,0,0,0,0,0,0,0,0,-1,1994,785,0,0
777,239,0,0,0,0,0,0,0,0,0,-1,2001,785,0,0
784,239,0,0,0,0,0,0,0,0,0,-1,2008,785,0,0
791,239,0,0,0,0,0,0,0,0,0,-1,2015,785,0,0
798,239,0,0,0,0,0,0,0,0,0,-1,2022,785,0,0
805,239,0,0,0,0,0,0,0,0,0,-1,2029,785,0,0
812,239,0,0,0,0,0,0,0,0,0,-1,2036,785,0,0
-700,232,0,0,0,0,0,0,0,0,0,-1,524,792,0,0
-693,232,0,0,0,0,0,0,0,0,0,-1,531,792,0,0
-686,232,0,0,0,0,0,0,0,0,0,-1,538,792,0,0
-679,232,0,0,0,0,0,0,0,0,0,-1,545,792,0,0
-672,232,0,0,0,0,0,0,0,0,0,-1,552,792,0,0
-665,232,0,0,0,0,0,0,0,0,0,-1,559,792,0,0
-658,232,0,0,0,0,0,0,0,0,0,-1,566,792,0,0
-651,232,0,0,0,0,0,0,0,0,0,-1,573,792,0,0
-644,232,-31.7343,6.23914,0,0,0,0,0,0,0,-1,580,792,-31.7343,-6.23911
-637,232,-30.1556,5.06824,0,0,0,0,0,0,0,-1,587,792,-30.1556,-5.06823
-630,232,-32.2345,1.80212,0,0,0,0,0,0,0,-1,594,792,-32.2345,-1.80211
-623,232,-31.5665,1.05115,0,0,0,0,0,0,0,-1,601,792,-31.5664,-1.05112
-616,232,-30.6812,0.432861,0,0,0,0,0,0,0,-1,608,792,-30.6812,-0.432881
-609,232,-29.7142,-0.478943,0,0,0,0,0,0,0,-1,615,792,-29.7142,0.478965
-602,232,-26.8415,3.77124,0,0,0,0,0,0,0,-1,622,792,-26.8415,-3.77122
-595,232,-26.9843,2.64813,0.000267277,0.00774013,-0.00623173,0.0112697,-0.00326234,-1.05545,0.00880443,0.0375508,629,792,-26.9842,-2.64814
-588,232,-27.1599,1.52228,0.000305158,0.00606932,-0.00452813,0.00855477,-0.00218029,-1.06881,0.006552,0.0144623,636,792,-27.1599,-1.52227
-581,232,-27.2039,0.797485,0.000185897,0.00443115,-0.00309517,0.0060616,-0.00144456,-1.08596,0.00459885,0.00845953,643,792,-27.2039,-0.797481
-574,232,-27.2101,0.172302,-0.000217676,0.00285196,-0.00170736,0.00361296,-0.000978669,-1.15151,0.00279262,0.00873227,650,792,-27.2101,-0.172289
-567,232,-27.2504,-0.461182,-0.000829446,0.00124687,-0.000384755,0.00131587,-0.000898451,-1.39334,0.00128599,0.0104789,657,792,-27.2504,0.461185
-560,232,-27.3094,-1.07916,-0.00164745,-0.00024425,0.000842789,0.000150752,-0.00204245,1.13251,0.00141457,0.0145117,664,792,-27.3094,1.07917
-553,232,-27.3555,-1.70947,-0.00291974,-0.00112251,0.00214338,0.000303001,-0.00434525,0.983894,0.00300294,0.0143528,671,792,-27.3556,1.70949
-546,232,-27.3984,-2.33087,-0.00401569,-0.00237456,0.00346834,0.000368965,-0.00675921,0.901556,0.00463403,0.0203374,678,792,-27.3985,2.33089
-539,232,-27.5273,-2.87677,-0.00451829,-0.00320557,0.00459336,0.000778092,-0.00850195,0.856364,0.00594433,0.0323765,685,792,-27.5273,2.87676
-532,232,-27.6918,-3.47095,-0.00479999,-0.00387489,0.00545715,0.00113928,-0.00981416,0.827677,0.00695371,0.0365117,692,792,-27.6918,3.47095
-525,232,-27.5652,-3.64008,0,0,0,0,0,0,0,-1,699,792,-27.5652,3.6401
-518,232,-20.8098,-3.08154,0,0,0,0,0,0,0,-1,706,792,-20.8098,3.08155
-511,232,-21.6708,-0.962708,0,0,0,0,0,0,0,-1,713,792,-21.6708,0.962731
-504,232,-34.2155,0.346985,0,0,0,0,0,0,0,-1,720,792,-34.2155,-0.346955
-497,232,-42.0018,0.683899,0,0,0,0,0,0,0,-1,727,792,-42.0018,-0.683904
-490,232,-41.9358,0.83252,0,0,0,0,0,0,0,-1,734,792,-41.9358,-0.832538
-483,232,-41.8698,0.981201,0,0,0,0,0,0,0,-1,741,792,-41.8698,-0.981173
-476,232,-41.9247,0.957153,-0.00608755,-0.00235477,-0.00565916,0.00173782,-0.0101801,-0.944682,0.00743406,0.0375408,748,792,-41.9247,-0.95713
-469,232,-41.9453,0.931519,-0.00654678,-0.00288786,-0.00989208,0.00534251,-0.0147772,-0.876836,0.0120343,0.0358341,755,792,-41.9453,-0.931512
-462,232,0,0,0,0,0,0,0,0,0,-1,762,792,0,0
-455,232,0,0,0,0,0,0,0,0,0,-1,769,792,0,0
-448,232,0,0,0,0,0,0,0,0,0,-1,776,792,0,0
-441,232,0,0,0,0,0,0,0,0,0,-1,783,792,0,0
-434,232,0,0,0,0,0,0,0,0,0,-1,790,792,0,0
-427,232,0,0,0,0,0,0,0,0,0,-1,797,792,0,0
-420,232,0,0,0,0,0,0,0,0,0,-1,804,792,0,0
-413,232,0,0,0,0,0,0,0,0,0,-1,811,792,0,0
-406,232,0,0,0,0,0,0,0,0,0,-1,818,792,0,0
-399,232,0,0,0,0,0,0,0,0,0,-1,825,792,0,0
-392,232,0,0,0,0,0,0,0,0,0,-1,832,792,0,0
-385,232,0,0,0,0,0,0,0,0,0,-1,839,792,0,0
-378,232,0,0,0,0,0,0,0,0,0,-1,846,792,0,0
-371,232,0,0,0,0,0,0,0,0,0,-1,853,792,0,0
-364,232,0,0,0,0,0,0,0,0,0,-1,860,792,0,0
-357,232,0,0,0,0,0,0,0,0,0,-1,867,792,0,0
-350,232,0,0,0,0,0,0,0,0,0,-1,874,792,0,0
-343,232,0,0,0,0,0,0,0,0,0,-1,881,792,0,0
-336,232,0,0,0,0,0,0,0,0,0,-1,888,792,0,0
-329,232,0,0,0,0,0,0,0,0,0,-1,895,792,0,0
-322,232,0,0,0,0,0,0,0,0,0,-1,902,792,0,0
-315,232,0,0,0,0,0,0,0,0,0,-1,909,792,0,0
-308,232,0,0,0,0,0,0,0,0,0,-1,916,792,0,0
-301,232,0,0,0,0,0,0,0,0,0,-1,923,792,0,0
-294,232,0,0,0,0,0,0,0,0,0,-1,930,792,0,0
-287,232,0,0,0,0,0,0,0,0,0,-1,937,792,0,0
-280,232,0,0,0,0,0,0,0,0,0,-1,944,792,0,0
-273,232,0,0,0,0,0,0,0,0,0,-1,951,792,0,0
-266,232,0,0,0,0,0,0,0,0,0,-1,958,792,0,0
-259,232,0,0,0,0,0,0,0,0,0,-1,965,792,0,0
-252,232,0,0,0,0,0,0,0,0,0,-1,972,792,0,0
-245,232,0,0,0,0,0,0,0,0,0,-1,979,792,0,0
-238,232,0,0,0,0,0,0,0,0,0,-1,986,792,0,0
-231,232,0,0,0,0,0,0,0,0,0,-1,993,792,0,0
-224,232,0,0,0,0,0,0,0,0,0,-1,1000,792,0,0
-217,232,0,0,0,0,0,0,0,0,0,-1,1007,792,0,0
-210,232,0,0,0,0,0,0,0,0,0,-1,1014,792,0,0
-203,232,0,0,0,0,0,0,0,0,0,-1,1021,792,0,0
-196,232,0,0,0,0,0,0,0,0,0,-1,1028,792,0,0
-189,232,0,0,0,0,0,0,0,0,0,-1,1035,792,0,0
-182,232,0,0,0,0,0,0,0,0,0,-1,1042,792,0,0
-175,232,0,0,0,0,0,0,0,0,0,-1,1049,792,0,0
-168,232,0,0,0,0,0,0,0,0,0,-1,1056,792,0,0
-161,232,0,0,0,0,0,0,0,0,0,-1,1063,792,0,0
-154,232,0,0,0,0,0,0,0,0,0,-1,1070,792,0,0
-147,232,0,0,0,0,0,0,0,0,0,-1,1077,792,0,0
-140,232,0,0,0,0,0,0,0,0,0,-1,1084,792,0,0
-133,232,0,0,0,0,0,0,0,0,0,-1,1091,792,0,0
-126,232,0,0,0,0,0,0,0,0,0,-1,1098,792,0,0
-119,232,0,0,0,0,0,0,0,0,0,-1,1105,792,0,0
-112,232,0,0,0,0,0,0,0,0,0,-1,1112,792,0,0
-105,232,0,0,0,0,0,0,0,0,0,-1,1119,792,0,0
-98,232,0,0,0,0,0,0,0,0,0,-1,1126,792,0,0
-91,232,0,0,0,0,0,0,0,0,0,-1,1133,792,0,0
-84,232,0,0,0,0,0,0,0,0,0,-1,1140,792,0,0
-77,232,0,0,0,0,0,0,0,0,0,-1,1147,792,0,0
-70,232,0,0,0,0,0,0,0,0,0,-1,1154,792,0,0
-63,232,0,0,0,0,0,0,0,0,0,-1,1161,792,0,0
-56,232,0,0,0,0,0,0,0,0,0,-1,1168,792,0,0
-49,232,0,0,0,0,0,0,0,0,0,-1,1175,792,0,0
-42,232,0,0,0,0,0,0,0,0,0,-1,1182,792,0,0
-35,232,0,0,0,0,0,0,0,0,0,-1,1189,792,0,0
-28,232,0,0,0,0,0,0,0,0,0,-1,1196,792,0,0
-21,232,0,0,0,0,0,0,0,0,0,-1,1203,792,0,0
-14,232,0,0,0,0,0,0,0,0,0,-1,1210,792,0,0
-7,232,0,0,0,0,0,0,0,0,0,-1,1217,792,0,0
0,232,0,0,0,0,0,0,0,0,0,-1,1224,792,0,0
7,232,0,0,0,0,0,0,0,0,0,-1,1231,792,0,0
14,232,0,0,0,0,0,0,0,0,0,-1,1238,792,0,0
21,232,0,0,0,0,0,0,0,0,0,-1,1245,792,0,0
28,232,0,0,0,0,0,0,0,0,0,-1,1252,792,0,0
35,232,0,0,0,0,0,0,0,0,0,-1,1259,792,0,0
42,232,0,0,0,0,0,0,0,0,0,-1,1266,792,0,0
49,232,0,0,0,0,0,0,0,0,0,-1,1273,792,0,0
56,232,0,0,0,0,0,0,0,0,0,-1,1280,792,0,0
63,232,0,0,0,0,0,0,0,0,0,-1,1287,792,0,0
70,232,0,0,0,0,0,0,0,0,0,-1,1294,792,0,0
77,232,0,0,0,0,0,0,0,0,0,-1,1301,792,0,0
84,232,0,0,0,0,0,0,0,0,0,-1,1308,792,0,0
91,232,0,0,0,0,0,0,0,0,0,-1,1315,792,0,0
98,232,0,0,0,0,0,0,0,0,0,-1,1322,792,0,0
105,232,0,0,0,0,0,0,0,0,0,-1,1329,792,0,0
112,232,0,0,0,0,0,0,0,0,0,-1,1336,792,0,0
119,232,0,0,0,0,0,0,0,0,0,-1,1343,792,0,0
126,232,0,0,0,0,0,0,0,0,0,-1,1350,792,0,0
133,232,0,0,0,0,0,0,0,0,0,-1,1357,792,0,0
140,232,0,0,0,0,0,0,0,0,0,-1,1364,792,0,0
147,232,0,0,0,0,0,0,0,0,0,-1,1371,792,0,0
154,232,0,0,0,0,0,0,0,0,0,-1,1378,792,0,0
161,232,0,0,0,0,0,0,0,0,0,-1,1385,792,0,0
168,232,0,0,0,0,0,0,0,0,0,-1,1392,792,0,0
175,232,0,0,0,0,0,0,0,0,0,-1,1399,792,0,0
182,232,0,0,0,0,0,0,0,0,0,-1,1406,792,0,0
189,232,0,0,0,0,0,0,0,0,0,-1,1413,792,0,0
196,232,0,0,0,0,0,0,0,0,0,-1,1420,792,0,0
203,232,0,0,0,0,0,0,0,0,0,-1,1427,792,0,0
210,232,0,0,0,0,0,0,0,0,0,-1,1434,792,0,0
217,232,0,0,0,0,0,0,0,0,0,-1,1441,792,0,0
224,232,0,0,0,0,0,0,0,0,0,-1,1448,792,0,0
231,232,0,0,0,0,0,0,0,0,0,-1,1455,792,0,0
238,232,0,0,0,0,0,0,0,0,0,-1,1462,792,0,0
245,232,0,0,0,0,0,0,0,0,0,-1,1469,792,0,0
252,232,0,0,0,0,0,0,0,0,0,-1,1476,792,0,0
259,232,0,0,0,0,0,0,0,0,0,-1,1483,792,0,0
266,232,0,0,0,0,0,0,0,0,0,-1,1490,792,0,0
273,232,0,0,0,0,0,0,0,0,0,-1,1497,792,0,0
280,232,0,0,0,0,0,0,0,0,0,-1,1504,792,0,0
287,232,0,0,0,0,0,0,0,0,0,-1,1511,792,0,0
294,232,0,0,0,0,0,0,0,0,0,-1,1518,792,0,0
301,232,0,0,0,0,0,0,0,0,0,-1,1525,792,0,0
308,232,0,0,0,0,0,0,0,0,0,-1,1532,792,0,0
315,232,0,0,0,0,0,0,0,0,0,-1,1539,792,0,0
322,232,0,0,0,0,0,0,0,0,0,-1,1546,792,0,0
329,232,0,0,0,0,0,0,0,0,0,-1,1553,792,0,0
336,232,0,0,0,0,0,0,0,0,0,-1,1560,792,0,0
343,232,0,0,0,0,0,0,0,0,0,-1,1567,792,0,0
350,232,0,0,0,0,0,0,0,0,0,-1,1574,792,0,0
357,232,0,0,0,0,0,0,0,0,0,-1,1581,792,0,0
364,232,0,0,0,0,0,0,0,0,0,-1,1588,792,0,0
371,232,0,0,0,0,0,0,0,0,0,-1,1595,792,0,0
378,232,0,0,0,0,0,0,0,0,0,-1,1602,792,0,0
385,232,0,0,0,0,0,0,0,0,0,-1,1609,792,0,0
392,232,0,0,0,0,0,0,0,0,0,-1,1616,792,0,0
399,232,0,0,0,0,0,0,0,0,0,-1,1623,792,0,0
406,232,0,0,0,0,0,0,0,0,0,-1,1630,792,0,0
413,232,0,0,0,0,0,0,0,0,0,-1,1637,792,0,0
420,232,0,0,0,0,0,0,0,0,0,-1,1644,792,0,0
427,232,0,0,0,0,0,0,0,0,0,-1,1651,792,0,0
434,232,0,0,0,0,0,0,0,0,0,-1,1658,792,0,0
441,232,0,0,0,0,0,0,0,0,0,-1,1665,792,0,0
448,232,0,0,0,0,0,0,0,0,0,-1,1672,792,0,0
455,232,0,0,0,0,0,0,0,0,0,-1,1679,792,0,0
462,232,0,0,0,0,0,0,0,0,0,-1,1686,792,0,0
469,232,0,0,0,0,0,0,0,0,0,-1,1693,792,0,0
476,232,0,0,0,0,0,0,0,0,0,-1,1700,792,0,0
483,232,0,0,0,0,0,0,0,0,0,-1,1707,792,0,0
490,232,0,0,0,0,0,0,0,0,0,-1,1714,792,0,0
497,232,0,0,0,0,0,0,0,0,0,-1,1721,792,0,0
504,232,0,0,0,0,0,0,0,0,0,-1,1728,792,0,0
511,232,0,0,0,0,0,0,0,0,0,-1,1735,792,0,0
518,232,0,0,0,0,0,0,0,0,0,-1,1742,792,0,0
525,232,0,0,0,0,0,0,0,0,0,-1,1749,792,0,0
532,232,0,0,0,0,0,0,0,0,0,-1,1756,792,0,0
539,232,0,0,0,0,0,0,0,0,0,-1,1763,792,0,0
546,232,0,0,0,0,0,0,0,0,0,-1,1770,792,0,0
553,232,0,0,0,0,0,0,0,0,0,-1,1777,792,0,0
560,232,0,0,0,0,0,0,0,0,0,-1,1784,792,0,0
567,232,0,0,0,0,0,0,0,0,0,-1,1791,792,0,0
574,232,0,0,0,0,0,0,0,0,0,-1,1798,792,0,0
581,232,0,0,0,0,0,0,0,0,0,-1,1805,792,0,0
588,232,55.3628,2.78076,-0.00400213,-0.00626659,0.00345553,-0.00149807,-0.00877065,0.627081,0.00541724,0.0373592,1812,792,55.3628,-2.78073
595,232,55.3726,2.61218,-0.0121988,-0.00747723,0.00635729,-0.00305653,-0.0166195,0.963181,0.0102144,0.0364408,1819,792,55.3725,-2.61221
602,232,55.3568,2.70978,-0.0151694,-0.00736634,0.00713633,-0.00313466,-0.0194011,1.03556,0.0120261,0.0362675,1826,792,55.3568,-2.70978
609,232,55.3796,2.76904,-0.0145381,-0.0064951,0.00666994,-0.00272812,-0.0183051,1.05668,0.0114033,0.0468587,1833,792,55.3797,-2.76907
616,232,55.1077,3.16876,0,0,0,0,0,0,0,-1,1840,792,55.1076,-3.16879
623,232,55.1755,3.30426,0,0,0,0,0,0,0,-1,1847,792,55.1755,-3.30428
630,232,55.2434,3.43976,0,0,0,0,0,0,0,-1,1854,792,55.2435,-3.43976
637,232,47.0471,4.04309,0,0,0,0,0,0,0,-1,1861,792,47.0471,-4.04309
644,232,30.7756,4.24139,0,0,0,0,0,0,0,-1,1868,792,30.7757,-4.24141
651,232,31.6797,-0.564087,0,0,0,0,0,0,0,-1,1875,792,31.6797,0.564059
658,232,39.729,-1.88422,0,0,0,0,0,0,0,-1,1882,792,39.7291,1.88421
665,232,39.5869,-1.24933,-0.00285393,-0.00107765,-0.00170736,-4.1249e-05,-0.00389033,-1.02523,0.00257992,0.0325535,1889,792,39.5869,1.2493
672,232,39.4746,-0.57019,-0.0031682,-0.000956658,-0.00190262,0.000138187,-0.00426304,-1.04863,0.00288919,0.0355492,1896,792,39.4746,0.570197
679,232,39.4701,0.111023,-0.00310795,-0.00102692,-0.00191921,0.000115689,-0.00425056,-1.0338,0.00287305,0.0211417,1903,792,39.4701,-0.11105
686,232,39.4734,0.786499,-0.00253261,-0.000694362,-0.00165959,0.000283628,-0.0035106,-1.03829,0.00244044,0.0191634,1910,792,39.4734,-0.786514
693,232,39.4398,1.39063,-0.00119442,-0.000140626,-0.000933873,0.000404737,-0.00173978,-1.04224,0.00131568,0.0106268,1917,792,39.4399,-1.39064
700,232,39.4229,2.03326,0.000499751,0.000563213,7.65372e-05,0.000614336,0.000448628,0.981905,0.00036701,0.0129962,1924,792,39.4229,-2.03326
707,232,39.4154,2.68506,0.0023029,0.00133647,0.00127804,0.00318602,0.00045335,0.604659,0.00199018,0.0139525,1931,792,39.4154,-2.68507
714,232,39.381,3.33618,0.00417335,0.00205342,0.00261791,0.00593774,0.000289035,0.593041,0.00386575,0.0147437,1938,792,39.3809,-3.33616
721,232,39.3318,4.00232,0.00604024,0.00256606,0.00403738,0.00869836,-9.20645e-05,0.582243,0.00582984,0.0233073,1945,792,39.3318,-4.00234
728,232,39.2369,4.70459,0,0,0,0,0,0,0,-1,1952,792,39.2369,-4.7046
735,232,37.4669,5.34619,0,0,0,0,0,0,0,-1,1959,792,37.4669,-5.3462
742,232,25.6461,6.00684,0,0,0,0,0,0,0,-1,1966,792,25.6461,-6.00684
749,232,31.2874,3.74713,0,0,0,0,0,0,0,-1,1973,792,31.2874,-3.74713
756,232,32.1207,3.896,0,0,0,0,0,0,0,-1,1980,792,32.1207,-3.89597
763,232,32.7255,4.05878,0,0,0,0,0,0,0,-1,1987,792,32.7255,-4.05881
770,232,0,0,0,0,0,0,0,0,0,-1,1994,792,0,0
777,232,0,0,0,0,0,0,0,0,0,-1,2001,792,0,0
784,232,0,0,0,0,0,0,0,0,0,-1,2008,792,0,0
791,232,0,0,0,0,0,0,0,0,0,-1,2015,792,0,0
798,232,0,0,0,0,0,0,0,0,0,-1,2022,792,0,0
805,232,0,0,0,0,0,0,0,0,0,-1,2029,792,0,0
812,232,0,0,0,0,0,0,0,0,0,-1,2036,792,0,0
-700,225,0,0,0,0,0,0,0,0,0,-1,524,799,0,0
-693,225,0,0,0,0,0,0,0,0,0,-1,531,799,0,0
-686,225,0,0,0,0,0,0,0,0,0,-1,538,799,0,0
-679,225,0,0,0,0,0,0,0,0,0,-1,545,799,0,0
-672,225,0,0,0,0,0,0,0,0,0,-1,552,799,0,0
-665,225,0,0,0,0,0,0,0,0,0,-1,559,799,0,0
-658,225,0,0,0,0,0,0,0,0,0,-1,566,799,0,0
-651,225,0,0,0,0,0,0,0,0,0,-1,573,799,0,0
-644,225,-31.6232,6.26855,0,0,0,0,0,0,0,-1,580,799,-31.6231,-6.26854
-637,225,-31.4901,6.06842,0,0,0,0,0,0,0,-1,587,799,-31.4901,-6.06839
-630,225,-29.8912,5.02606,0,0,0,0,0,0,0,-1,594,799,-29.8912,-5.02606
-623,225,-32.8276,-0.00836182,0,0,0,0,0,0,0,-1,601,799,-32.8276,0.00837668
-616,225,-32.0569,-0.549255,0,0,0,0,0,0,0,-1,608,799,-32.0569,0.549265
-609,225,-27.8046,3.35376,0,0,0,0,0,0,0,-1,615,799,-27.8046,-3.35376
-602,225,-27.8796,3.16162,0,0,0,0,0,0,0,-1,622,799,-27.8796,-3.16159
-595,225,-27.8611,2.28552,0.000625757,0.0059399,-0.00532111,0.00923045,-0.00266479,-1.01696,0.00720801,0.033504,629,799,-27.8611,-2.28554
-588,225,-27.8398,1.43982,0.000416982,0.00490773,-0.00380878,0.00708372,-0.00175901,-1.05174,0.00540508,0.0133524,636,799,-27.8398,-1.4398
-581,225,-27.8528,0.812683,0.000210028,0.00359256,-0.00249149,0.00491259,-0.00111,-1.08358,0.00370097,0.010071,643,799,-27.8528,-0.812708
-574,225,-27.8694,0.187195,-0.000194792,0.00209735,-0.00117846,0.00259513,-0.000692569,-1.17113,0.00200129,0.00879769,650,799,-27.8694,-0.187219
-567,225,-27.8909,-0.461304,-0.000873851,0.000594944,7.66923e-05,0.000598938,-0.000877845,1.51877,0.000857674,0.0113929,657,799,-27.8909,0.461289
-560,225,-27.9203,-1.04224,-0.0018383,-0.000754728,0.00125627,7.16033e-05,-0.00266463,0.988981,0.00180076,0.0126058,664,799,-27.9203,1.04226
-553,225,-27.9541,-1.67285,-0.00331369,-0.0012935,0.00252665,0.000417488,-0.00502467,0.975555,0.00349726,0.0117885,671,799,-27.9541,1.67284
-546,225,-28.0206,-2.27893,-0.00435365,-0.00238085,0.00374204,0.000502612,-0.00723711,0.914267,0.00500071,0.0206834,678,799,-28.0206,2.27891
-539,225,-28.0982,-2.85437,-0.00467084,-0.00303305,0.00473012,0.000948537,-0.00865242,0.87111,0.00610906,0.0478761,685,799,-28.0982,2.85435
-532,225,-28.2519,-3.35388,-0.00483386,-0.0036364,0.00553038,0.00132757,-0.00979783,0.839319,0.0070164,0.0494904,692,799,-28.2519,3.35385
-525,225,-28.5992,-3.66315,0,0,0,0,0,0,0,-1,699,799,-28.5992,3.66312
-518,225,-21.963,0.171326,0,0,0,0,0,0,0,-1,706,799,-21.9629,-0.171319
-511,225,-33.0002,0.660217,0,0,0,0,0,0,0,-1,713,799,-33.0002,-0.660239
-504,225,-41.7979,0.476929,0,0,0,0,0,0,0,-1,720,799,-41.7979,-0.476949
-497,225,-41.7191,0.617981,-0.00480356,-0.0036626,0.00387213,-0.000319144,-0.00814701,0.858537,0.00532815,0.0475696,727,799,-41.7191,-0.617962
-490,225,-41.8507,0.872864,-0.00449558,-0.00337411,0.00225285,-0.00161326,-0.00625643,0.907369,0.00375069,0.0405206,734,799,-41.8507,-0.872848
-483,225,-41.8444,0.986267,-0.00422323,-0.00301896,-0.000150204,-0.00300051,-0.00424168,-1.44856,0.00251818,0.0343899,741,799,-41.8443,-0.986286
-476,225,-41.9055,0.914795,-0.00362218,-0.0027343,-0.00353149,0.000381047,-0.00673753,-0.847924,0.00462394,0.0319562,748,799,-41.9055,-0.914805
-469,225,-41.9384,0.923218,-0.00221738,-0.00351459,-0.00744119,0.00460342,-0.0103354,-0.741926,0.00883402,0.0357219,755,799,-41.9384,-0.923205
-462,225,0,0,0,0,0,0,0,0,0,-1,762,799,0,0
-455,225,0,0,0,0,0,0,0,0,0,-1,769,799,0,0
-448,225,0,0,0,0,0,0,0,0,0,-1,776,799,0,0
-441,225,0,0,0,0,0,0,0,0,0,-1,783,799,0,0
-434,225,0,0,0,0,0,0,0,0,0,-1,790,799,0,0
-427,225,0,0,0,0,0,0,0,0,0,-1,797,799,0,0
-420,225,0,0,0,0,0,0,0,0,0,-1,804,799,0,0
-413,225,0,0,0,0,0,0,0,0,0,-1,811,799,0,0
-406,225,0,0,0,0,0,0,0,0,0,-1,818,799,0,0
-399,225,0,0,0,0,0,0,0,0,0,-1,825,799,0,0
-392,225,0,0,0,0,0,0,0,0,0,-1,832,799,0,0
-385,225,0,0,0,0,0,0,0,0,0,-1,839,799,0,0
-378,225,0,0,0,0,0,0,0,0,0,-1,846,799,0,0
-371,225,0,0,0,0,0,0,0,0,0,-1,853,799,0,0
-364,225,0,0,0,0,0,0,0,0,0,-1,860,799,0,0
-357,225,0,0,0,0,0,0,0,0,0,-1,867,799,0,0
-350,225,0,0,0,0,0,0,0,0,0,-1,874,799,0,0
-343,225,0,0,0,0,0,0,0,0,0,-1,881,799,0,0
-336,225,0,0,0,0,0,0,0,0,0,-1,888,799,0,0
-329,225,0,0,0,0,0,0,0,0,0,-1,895,799,0,0
-322,225,0,0,0,0,0,0,0,0,0,-1,902,799,0,0
-315,225,0,0,0,0,0,0,0,0,0,-1,909,799,0,0
-308,225,0,0,0,0,0,0,0,0,0,-1,916,799,0,0
-301,225,0,0,0,0,0,0,0,0,0,-1,923,799,0,0
-294,225,0,0,0,0,0,0,0,0,0,-1,930,799,0,0
-287,225,0,0,0,0,0,0,0,0,0,-1,937,799,0,0
-280,225,0,0,0,0,0,0,0,0,0,-1,944,799,0,0
-273,225,0,0,0,0,0,0,0,0,0,-1,951,799,0,0
-266,225,0,0,0,0,0,0,0,0,0,-1,958,799,0,0
-259,225,0,0,0,0,0,0,0,0,0,-1,965,799,0,0
-252,225,0,0,0,0,0,0,0,0,0,-1,972,799,0,0
-245,225,0,0,0,0,0,0,0,0,0,-1,979,799,0,0
-238,225,0,0,0,0,0,0,0,0,0,-1,986,799,0,0
-231,225,0,0,0,0,0,0,0,0,0,-1,993,799,0,0
-224,225,0,0,0,0,0,0,0,0,0,-1,1000,799,0,0
-217,225,0,0,0,0,0,0,0,0,0,-1,1007,799,0,0
-210,225,0,0,0,0,0,0,0,0,0,-1,1014,799,0,0
-203,225,0,0,0,0,0,0,0,0,0,-1,1021,799,0,0
-196,225,0,0,0,0,0,0,0,0,0,-1,1028,799,0,0
-189,225,0,0,0,0,0,0,0,0,0,-1,1035,799,0,0
-182,225,0,0,0,0,0,0,0,0,0,-1,1042,799,0,0
-175,225,0,0,0,0,0,0,0,0,0,-1,1049,799,0,0
-168,225,0,0,0,0,0,0,0,0,0,-1,1056,799,0,0
-161,225,0,0,0,0,0,0,0,0,0,-1,1063,799,0,0
-154,225,0,0,0,0,0,0,0,0,0,-1,1070,799,0,0
-147,225,0,0,0,0,0,0,0,0,0,-1,1077,799,0,0
-140,225,0,0,0,0,0,0,0,0,0,-1,1084,799,0,0
-133,225,0,0,0,0,0,0,0,0,0,-1,1091,799,0,0
-126,225,0,0,0,0,0,0,0,0,0,-1,1098,799,0,0
-119,225,0,0,0,0,0,0,0,0,0,-1,1105,799,0,0
-112,225,0,0,0,0,0,0,0,0,0,-1,1112,799,0,0
-105,225,0,0,0,0,0,0,0,0,0,-1,1119,799,0,0
-98,225,0,0,0,0,0,0,0,0,0,-1,1126,799,0,0
-91,225,0,0,0,0,0,0,0,0,0,-1,1133,799,0,0
-84,225,0,0,0,0,0,0,0,0,0,-1,1140,799,0,0
-77,225,0,0,0,0,0,0,0,0,0,-1,1147,799,0,0
-70,225,0,0,0,0,0,0,0,0,0,-1,1154,799,0,0
-63,225,0,0,0,0,0,0,0,0,0,-1,1161,799,0,0
-56,225,0,0,0,0,0,0,0,0,0,-1,1168,799,0,0
-49,225,0,0,0,0,0,0,0,0,0,-1,1175,799,0,0
-42,225,0,0,0,0,0,0,0,0,0,-1,1182,799,0,0
-35,225,0,0,0,0,0,0,0,0,0,-1,1189,799,0,0
-28,225,0,0,0,0,0,0,0,0,0,-1,1196,799,0,0
-21,225,0,0,0,0,0,0,0,0,0,-1,1203,799,0,0
-14,225,0,0,0,0,0,0,0,0,0,-1,1210,799,0,0
-7,225,0,0,0,0,0,0,0,0,0,-1,1217,799,0,0
0,225,0,0,0,0,0,0,0,0,0,-1,1224,799,0,0
7,225,0,0,0,0,0,0,0,0,0,-1,1231,799,0,0
14,225,0,0,0,0,0,0,0,0,0,-1,1238,799,0,0
21,225,0,0,0,0,0,0,0,0,0,-1,1245,799,0,0
28,225,0,0,0,0,0,0,0,0,0,-1,1252,799,0,0
35,225,0,0,0,0,0,0,0,0,0,-1,1259,799,0,0
42,225,0,0,0,0,0,0,0,0,0,-1,1266,799,0,0
49,225,0,0,0,0,0,0,0,0,0,-1,1273,799,0,0
56,225,0,0,0,0,0,0,0,0,0,-1,1280,799,0,0
63,225,0,0,0,0,0,0,0,0,0,-1,1287,799,0,0
70,225,0,0,0,0,0,0,0,0,0,-1,1294,799,0,0
77,225,0,0,0,0,0,0,0,0,0,-1,1301,799,0,0
84,225,0,0,0,0,0,0,0,0,0,-1,1308,799,0,0
91,225,0,0,0,0,0,0,0,0,0,-1,1315,799,0,0
98,225,0,0,0,0,0,0,0,0,0,-1,1322,799,0,0
105,225,0,0,0,0,0,0,0,0,0,-1,1329,799,0,0
112,225,0,0,0,0,0,0,0,0,0,-1,1336,799,0,0
119,225,0,0,0,0,0,0,0,0,0,-1,1343,799,0,0
126,225,0,0,0,0,0,0,0,0,0,-1,1350,799,0,0
133,225,0,0,0,0,0,0,0,0,0,-1,1357,799,0,0
140,225,0,0,0,0,0,0,0,0,0,-1,1364,799,0,0
147,225,0,0,0,0,0,0,0,0,0,-1,1371,799,0,0
154,225,0,0,0,0,0,0,0,0,0,-1,1378,799,0,0
161,225,0,0,0,0,0,0,0,0,0,-1,1385,799,0,0
168,225,0,0,0,0,0,0,0,0,0,-1,1392,799,0,0
175,225,0,0,0,0,0,0,0,0,0,-1,1399,799,0,0
182,225,0,0,0,0,0,0,0,0,0,-1,1406,799,0,0
189,225,0,0,0,0,0,0,0,0,0,-1,1413,799,0,0
196,225,0,0,0,0,0,0,0,0,0,-1,1420,799,0,0
203,225,0,0,0,0,0,0,0,0,0,-1,1427,799,0,0
210,225,0,0,0,0,0,0,0,0,0,-1,1434,799,0,0
217,225,0,0,0,0,0,0,0,0,0,-1,1441,799,0,0
224,225,0,0,0,0,0,0,0,0,0,-1,1448,799,0,0
231,225,0,0,0,0,0,0,0,0,0,-1,1455,799,0,0
238,225,0,0,0,0,0,0,0,0,0,-1,1462,799,0,0
245,225,0,0,0,0,0,0,0,0,0,-1,1469,799,0,0
252,225,0,0,0,0,0,0,0,0,0,-1,1476,799,0,0
259,225,0,0,0,0,0,0,0,0,0,-1,1483,799,0,0
266,225,0,0,0,0,0,0,0,0,0,-1,1490,799,0,0
273,225,0,0,0,0,0,0,0,0,0,-1,1497,799,0,0
280,225,0,0,0,0,0,0,0,0,0,-1,1504,799,0,0
287,225,0,0,0,0,0,0,0,0,0,-1,1511,799,0,0
294,225,0,0,0,0,0,0,0,0,0,-1,1518,799,0,0
301,225,0,0,0,0,0,0,0,0,0,-1,1525,799,0,0
308,225,0,0,0,0,0,0,0,0,0,-1,1532,799,0,0
315,225,0,0,0,0,0,0,0,0,0,-1,1539,799,0,0
322,225,0,0,0,0,0,0,0,0,0,-1,1546,799,0,0
329,225,0,0,0,0,0,0,0,0,0,-1,1553,799,0,0
336,225,0,0,0,0,0,0,0,0,0,-1,1560,799,0,0
343,225,0,0,0,0,0,0,0,0,0,-1,1567,799,0,0
350,225,0,0,0,0,0,0,0,0,0,-1,1574,799,0,0
357,225,0,0,0,0,0,0,0,0,0,-1,1581,799,0,0
364,225,0,0,0,0,0,0,0,0,0,-1,1588,799,0,0
371,225,0,0,0,0,0,0,0,0,0,-1,1595,799,0,0
378,225,0,0,0,0,0,0,0,0,0,-1,1602,799,0,0
385,225,0,0,0,0,0,0,0,0,0,-1,1609,799,0,0
392,225,0,0,0,0,0,0,0,0,0,-1,1616,799,0,0
399,225,0,0,0,0,0,0,0,0,0,-1,1623,799,0,0
406,225,0,0,0,0,0,0,0,0,0,-1,1630,799,0,0
413,225,0,0,0,0,0,0,0,0,0,-1,1637,799,0,0
420,225,0,0,0,0,0,0,0,0,0,-1,1644,799,0,0
427,225,0,0,0,0,0,0,0,0,0,-1,1651,799,0,0
434,225,0,0,0,0,0,0,0,0,0,-1,1658,799,0,0
441,225,0,0,0,0,0,0,0,0,0,-1,1665,799,0,0
448,225,0,0,0,0,0,0,0,0,0,-1,1672,799,0,0
455,225,0,0,0,0,0,0,0,0,0,-1,1679,799,0,0
462,225,0,0,0,0,0,0,0,0,0,-1,1686,799,0,0
469,225,0,0,0,0,0,0,0,0,0,-1,1693,799,0,0
476,225,0,0,0,0,0,0,0,0,0,-1,1700,799,0,0
483,225,0,0,0,0,0,0,0,0,0,-1,1707,799,0,0
490,225,0,0,0,0,0,0,0,0,0,-1,1714,799,0,0
497,225,0,0,0,0,0,0,0,0,0,-1,1721,799,0,0
504,225,0,0,0,0,0,0,0,0,0,-1,1728,799,0,0
511,225,0,0,0,0,0,0,0,0,0,-1,1735,799,0,0
518,225,0,0,0,0,0,0,0,0,0,-1,1742,799,0,0
525,225,0,0,0,0,0,0,0,0,0,-1,1749,799,0,0
532,225,0,0,0,0,0,0,0,0,0,-1,1756,799,0,0
539,225,0,0,0,0,0,0,0,0,0,-1,1763,799,0,0
546,225,0,0,0,0,0,0,0,0,0,-1,1770,799,0,0
553,225,0,0,0,0,0,0,0,0,0,-1,1777,799,0,0
560,225,0,0,0,0,0,0,0,0,0,-1,1784,799,0,0
567,225,0,0,0,0,0,0,0,0,0,-1,1791,799,0,0
574,225,0,0,0,0,0,0,0,0,0,-1,1798,799,0,0
581,225,0,0,0,0,0,0,0,0,0,-1,1805,799,0,0
588,225,55.3516,2.93036,0.00230692,-0.00398332,0.000510513,0.00234809,-0.00402449,0.0804577,0.0037214,0.0370442,1812,799,55.3516,-2.93038
595,225,55.2833,2.82153,-0.00541137,-0.0052083,0.00349542,-0.00181294,-0.00880673,0.799918,0.00536984,0.0368223,1819,799,55.2833,-2.82152
602,225,55.3727,2.74969,-0.00952559,-0.00542209,0.00489445,-0.00216674,-0.0127809,0.983872,0.00789808,0.035749,1826,799,55.3727,-2.74968
609,225,55.4016,2.78302,-0.0103999,-0.00497591,0.0050595,-0.00194739,-0.0134284,1.03142,0.00837891,0.0339496,1833,799,55.4016,-2.78302
616,225,55.4517,2.72711,-0.00940215,-0.00442478,0.00422407,-0.00201079,-0.0118162,1.05161,0.00730007,0.0396838,1840,799,55.4517,-2.72711
623,225,55.4329,2.86005,-0.00809403,-0.00380815,0.00290068,-0.00234469,-0.00955749,1.10354,0.00575167,0.0429249,1847,799,55.4329,-2.86005
630,225,55.532,2.80719,-0.00689062,-0.00309841,0.00180873,-0.00237407,-0.00761497,1.18989,0.00449916,0.0479607,1854,799,55.532,-2.80716
637,225,55.6359,2.8064,0,0,0,0,0,0,0,-1,1861,799,55.6359,-2.80637
644,225,42.0298,2.46411,0,0,0,0,0,0,0,-1,1868,799,42.0298,-2.4641
651,225,27.9657,0.579529,0,0,0,0,0,0,0,-1,1875,799,27.9657,-0.579541
658,225,41.1477,-1.19226,0,0,0,0,0,0,0,-1,1882,799,41.1477,1.19229
665,225,40.5322,-0.921509,-0.00336351,-0.00105655,-0.00200437,0.000102547,-0.00452261,-1.0465,0.00304983,0.0363915,1889,799,40.5322,0.921486
672,225,40.2109,-0.403198,-0.00382655,-0.00100107,-0.00222716,0.000223628,-0.00505125,-1.06804,0.00344446,0.0362758,1896,799,40.2109,0.403172
679,225,40.1541,0.201782,-0.0039805,-0.00118423,-0.00232765,0.000132919,-0.00529765,-1.05585,0.00357689,0.0243755,1903,799,40.1541,-0.201779
686,225,40.1356,0.801331,-0.00362109,-0.000967774,-0.00220843,0.000281843,-0.00487071,-1.05587,0.00334505,0.0119597,1910,799,40.1356,-0.801349
693,225,40.0883,1.41797,-0.00233304,-0.00051319,-0.00159797,0.000415759,-0.00326199,-1.04422,0.00232567,0.0103589,1917,799,40.0882,-1.41796
700,225,40.0649,2.0589,-0.000539095,0.000199907,-0.000623462,0.000555138,-0.000894325,-1.0529,0.000844451,0.0118788,1924,799,40.065,-2.05892
707,225,40.0381,2.71552,0.00139067,0.00101023,0.000595707,0.00182579,0.000575106,0.630857,0.0010779,0.0126531,1931,799,40.0381,-2.71552
714,225,40.0179,3.38043,0.00339368,0.00178628,0.00192178,0.00467305,0.00050691,0.587347,0.0029609,0.0140059,1938,799,40.0179,-3.38041
721,225,40.0177,4.04095,0.00541125,0.00244812,0.00331903,0.00756437,0.000294995,0.575477,0.00494752,0.0172913,1945,799,40.0177,-4.04095
728,225,39.8918,4.49457,0.00731572,0.00307422,0.00466554,0.0103199,7.00424e-05,0.57208,0.0068567,0.0365764,1952,799,39.8919,-4.49458
735,225,40.1772,5.66248,0,0,0,0,0,0,0,-1,1959,799,40.1773,-5.66248
742,225,29.0922,3.2132,0,0,0,0,0,0,0,-1,1966,799,29.0921,-3.21322
749,225,29.9529,4.45538,0,0,0,0,0,0,0,-1,1973,799,29.9529,-4.45537
756,225,31.8855,3.83466,0,0,0,0,0,0,0,-1,1980,799,31.8855,-3.83463
763,225,29.4901,5.14417,0,0,0,0,0,0,0,-1,1987,799,29.4902,-5.14415
770,225,0,0,0,0,0,0,0,0,0,-1,1994,799,0,0
777,225,0,0,0,0,0,0,0,0,0,-1,2001,799,0,0
784,225,0,0,0,0,0,0,0,0,0,-1,2008,799,0,0
791,225,0,0,0,0,0,0,0,0,0,-1,2015,799,0,0
798,225,0,0,0,0,0,0,0,0,0,-1,2022,799,0,0
805,225,0,0,0,0,0,0,0,0,0,-1,2029,799,0,0
812,225,0,0,0,0,0,0,0,0,0,-1,2036,799,0,0
-700,218,0,0,0,0,0,0,0,0,0,-1,524,806,0,0
-693,218,0,0,0,0,0,0,0,0,0,-1,531,806,0,0
-686,218,0,0,0,0,0,0,0,0,0,-1,538,806,0,0
-679,218,0,0,0,0,0,0,0,0,0,-1,545,806,0,0
-672,218,0,0,0,0,0,0,0,0,0,-1,552,806,0,0
-665,218,0,0,0,0,0,0,0,0,0,-1,559,806,0,0
-658,218,0,0,0,0,0,0,0,0,0,-1,566,806,0,0
-651,218,-31.2516,6.36798,0,0,0,0,0,0,0,-1,573,806,-31.2517,-6.36799
-644,218,-31.3896,6.17743,0,0,0,0,0,0,0,-1,580,806,-31.3897,-6.17743
-637,218,-31.3395,5.94513,0,0,0,0,0,0,0,-1,587,806,-31.3395,-5.94511
-630,218,-29.7347,3.06238,0,0,0,0,0,0,0,-1,594,806,-29.7347,-3.06238
-623,218,-29.4469,4.34161,0,0,0,0,0,0,0,-1,601,806,-29.4469,-4.34164
-616,218,-20.0258,1.87585,0,0,0,0,0,0,0,-1,608,806,-20.0258,-1.87585
-609,218,-28.396,3.51355,0,0,0,0,0,0,0,-1,615,806,-28.396,-3.51354
-602,218,-28.4601,2.80701,0.00143842,0.0043453,-0.00612979,0.0091916,-0.00340788,-0.901804,0.00752546,0.0442717,622,806,-28.4601,-2.80699
-595,218,-28.4922,2.11371,0.00115732,0.00441028,-0.00453665,0.0076032,-0.00203561,-0.95752,0.00586627,0.0197661,629,806,-28.4922,-2.11373
-588,218,-28.4875,1.4469,0.000636739,0.00392485,-0.00301354,0.00571363,-0.00115204,-1.03511,0.00424553,0.0116059,636,806,-28.4875,-1.44693
-581,218,-28.4985,0.838501,0.000296261,0.00290347,-0.00167436,0.00372186,-0.000522133,-1.11617,0.00267234,0.0103557,643,806,-28.4985,-0.838495
-574,218,-28.5204,0.226379,-0.000100902,0.00149819,-0.0003758,0.0015821,-0.000184815,-1.35111,0.00112143,0.0102161,650,806,-28.5204,-0.226379
-567,218,-28.5092,-0.422485,-0.000847159,0.000144845,0.000791859,0.000583219,-0.00128553,1.06519,0.00110403,0.0172689,657,806,-28.5092,0.422465
-560,218,-28.5389,-0.990784,-0.00192635,-0.000981817,0.00183215,0.000437952,-0.00334612,0.911535,0.00239014,0.0174572,664,806,-28.539,0.99077
-553,218,-28.5029,-1.69751,-0.00348678,-0.00113802,0.00296631,0.000877928,-0.00550273,0.973884,0.00399342,0.0178938,671,806,-28.5029,1.69754
-546,218,-28.6567,-2.46027,-0.00433004,-0.00197956,0.00396991,0.000985412,-0.00729501,0.929307,0.00522289,0.0235917,678,806,-28.6567,2.46029
-539,218,-28.7288,-3.05676,-0.00445804,-0.00247093,0.00476876,0.00140668,-0.00833565,0.888102,0.00608047,0.0353694,685,806,-28.7288,3.05676
-532,218,-28.8503,-3.38513,-0.00453138,-0.00300669,0.00547873,0.00176248,-0.00930055,0.854527,0.00686371,0.0491176,692,806,-28.8504,3.38515
-525,218,-29.3521,-3.64417,0,0,0,0,0,0,0,-1,699,806,-29.3521,3.64414
-518,218,-23.61,2.54181,0,0,0,0,0,0,0,-1,706,806,-23.61,-2.54183
-511,218,-41.0953,1.06879,0,0,0,0,0,0,0,-1,713,806,-41.0953,-1.06876
-504,218,-41.3823,1.0307,-0.00455294,-0.00344101,0.00554367,0.0015745,-0.00956845,0.835375,0.00696339,0.0491596,720,806,-41.3822,-1.03071
-497,218,-41.8206,0.848022,-0.00390065,-0.00335553,0.00479824,0.00117789,-0.00843407,0.81377,0.00605366,0.0497255,727,806,-41.8206,-0.848
-490,218,-41.8148,0.921387,-0.00307792,-0.00317633,0.00343328,0.000306502,-0.00656075,0.778233,0.0044795,0.0386506,734,806,-41.8147,-0.921408
-483,218,-41.8488,0.953979,-0.00192135,-0.00299873,0.00116921,-0.0011727,-0.00374737,0.569527,0.00221344,0.0340103,741,806,-41.8488,-0.953985
-476,218,-41.8872,0.947571,0.00023421,-0.00304903,-0.00222022,0.00135381,-0.00416862,-0.467059,0.00332357,0.0355869,748,806,-41.8872,-0.947576
-469,218,0,0,0,0,0,0,0,0,0,-1,755,806,0,0
-462,218,0,0,0,0,0,0,0,0,0,-1,762,806,0,0
-455,218,0,0,0,0,0,0,0,0,0,-1,769,806,0,0
-448,218,0,0,0,0,0,0,0,0,0,-1,776,806,0,0
-441,218,0,0,0,0,0,0,0,0,0,-1,783,806,0,0
-434,218,0,0,0,0,0,0,0,0,0,-1,790,806,0,0
-427,218,0,0,0,0,0,0,0,0,0,-1,797,806,0,0
-420,218,0,0,0,0,0,0,0,0,0,-1,804,806,0,0
-413,218,0,0,0,0,0,0,0,0,0,-1,811,806,0,0
-406,218,0,0,0,0,0,0,0,0,0,-1,818,806,0,0
-399,218,0,0,0,0,0,0,0,0,0,-1,825,806,0,0
-392,218,0,0,0,0,0,0,0,0,0,-1,832,806,0,0
-385,218,0,0,0,0,0,0,0,0,0,-1,839,806,0,0
-378,218,0,0,0,0,0,0,0,0,0,-1,846,806,0,0
-371,218,0,0,0,0,0,0,0,0,0,-1,853,806,0,0
-364,218,0,0,0,0,0,0,0,0,0,-1,860,806,0,0
-357,218,0,0,0,0,0,0,0,0,0,-1,867,806,0,0
-350,218,0,0,0,0,0,0,0,0,0,-1,874,806,0,0
-343,218,0,0,0,0,0,0,0,0,0,-1,881,806,0,0
-336,218,0,0,0,0,0,0,0,0,0,-1,888,806,0,0
-329,218,0,0,0,0,0,0,0,0,0,-1,895,806,0,0
-322,218,0,0,0,0,0,0,0,0,0,-1,902,806,0,0
-315,218,0,0,0,0,0,0,0,0,0,-1,909,806,0,0
-308,218,0,0,0,0,0,0,0,0,0,-1,916,806,0,0
-301,218,0,0,0,0,0,0,0,0,0,-1,923,806,0,0
-294,218,0,0,0,0,0,0,0,0,0,-1,930,806,0,0
-287,218,0,0,0,0,0,0,0,0,0,-1,937,806,0,0
-280,218,0,0,0,0,0,0,0,0,0,-1,944,806,0,0
-273,218,0,0,0,0,0,0,0,0,0,-1,951,806,0,0
-266,218,0,0,0,0,0,0,0,0,0,-1,958,806,0,0
-259,218,0,0,0,0,0,0,0,0,0,-1,965,806,0,0
-252,218,0,0,0,0,0,0,0,0,0,-1,972,806,0,0
-245,218,0,0,0,0,0,0,0,0,0,-1,979,806,0,0
-238,218,0,0,0,0,0,0,0,0,0,-1,986,806,0,0
-231,218,0,0,0,0,0,0,0,0,0,-1,993,806,0,0
-224,218,0,0,0,0,0,0,0,0,0,-1,1000,806,0,0
-217,218,0,0,0,0,0,0,0,0,0,-1,1007,806,0,0
-210,218,0,0,0,0,0,0,0,0,0,-1,1014,806,0,0
-203,218,0,0,0,0,0,0,0,0,0,-1,1021,806,0,0
-196,218,0,0,0,0,0,0,0,0,0,-1,1028,806,0,0
-189,218,0,0,0,0,0,0,0,0,0,-1,1035,806,0,0
-182,218,0,0,0,0,0,0,0,0,0,-1,1042,806,0,0
-175,218,0,0,0,0,0,0,0,0,0,-1,1049,806,0,0
-168,218,0,0,0,0,0,0,0,0,0,-1,1056,806,0,0
-161,218,0,0,0,0,0,0,0,0,0,-1,1063,806,0,0
-154,218,0,0,0,0,0,0,0,0,0,-1,1070,806,0,0
-147,218,0,0,0,0,0,0,0,0,0,-1,1077,806,0,0
-140,218,0,0,0,0,0,0,0,0,0,-1,1084,806,0,0
-133,218,0,0,0,0,0,0,0,0,0,-1,1091,806,0,0
-126,218,0,0,0,0,0,0,0,0,0,-1,1098,806,0,0
-119,218,0,0,0,0,0,0,0,0,0,-1,1105,806,0,0
-112,218,0,0,0,0,0,0,0,0,0,-1,1112,806,0,0
-105,218,0,0,0,0,0,0,0,0,0,-1,1119,806,0,0
-98,218,0,0,0,0,0,0,0,0,0,-1,1126,806,0,0
-91,218,0,0,0,0,0,0,0,0,0,-1,1133,806,0,0
-84,218,0,0,0,0,0,0,0,0,0,-1,1140,806,0,0
-77,218,0,0,0,0,0,0,0,0,0,-1,1147,806,0,0
-70,218,0,0,0,0,0,0,0,0,0,-1,1154,806,0,0
-63,218,0,0,0,0,0,0,0,0,0,-1,1161,806,0,0
-56,218,0,0,0,0,0,0,0,0,0,-1,1168,806,0,0
-49,218,0,0,0,0,0,0,0,0,0,-1,1175,806,0,0
-42,218,0,0,0,0,0,0,0,0,0,-1,1182,806,0,0
-35,218,0,0,0,0,0,0,0,0,0,-1,1189,806,0,0
-28,218,0,0,0,0,0,0,0,0,0,-1,1196,806,0,0
-21,218,0,0,0,0,0,0,0,0,0,-1,1203,806,0,0
-14,218,0,0,0,0,0,0,0,0,0,-1,1210,806,0,0
-7,218,0,0,0,0,0,0,0,0,0,-1,1217,806,0,0
0,218,0,0,0,0,0,0,0,0,0,-1,1224,806,0,0
7,218,0,0,0,0,0,0,0,0,0,-1,1231,806,0,0
14,218,0,0,0,0,0,0,0,0,0,-1,1238,806,0,0
21,218,0,0,0,0,0,0,0,0,0,-1,1245,806,0,0
28,218,0,0,0,0,0,0,0,0,0,-1,1252,806,0,0
35,218,0,0,0,0,0,0,0,0,0,-1,1259,806,0,0
42,218,0,0,0,0,0,0,0,0,0,-1,1266,806,0,0
49,218,0,0,0,0,0,0,0,0,0,-1,1273,806,0,0
56,218,0,0,0,0,0,0,0,0,0,-1,1280,806,0,0
63,218,0,0,0,0,0,0,0,0,0,-1,1287,806,0,0
70,218,0,0,0,0,0,0,0,0,0,-1,1294,806,0,0
77,218,0,0,0,0,0,0,0,0,0,-1,1301,806,0,0
84,218,0,0,0,0,0,0,0,0,0,-1,1308,806,0,0
91,218,0,0,0,0,0,0,0,0,0,-1,1315,806,0,0
98,218,0,0,0,0,0,0,0,0,0,-1,1322,806,0,0
105,218,0,0,0,0,0,0,0,0,0,-1,1329,806,0,0
112,218,0,0,0,0,0,0,0,0,0,-1,1336,806,0,0
119,218,0,0,0,0,0,0,0,0,0,-1,1343,806,0,0
126,218,0,0,0,0,0,0,0,0,0,-1,1350,806,0,0
133,218,0,0,0,0,0,0,0,0,0,-1,1357,806,0,0
140,218,0,0,0,0,0,0,0,0,0,-1,1364,806,0,0
147,218,0,0,0,0,0,0,0,0,0,-1,1371,806,0,0
154,218,0,0,0,0,0,0,0,0,0,-1,1378,806,0,0
161,218,0,0,0,0,0,0,0,0,0,-1,1385,806,0,0
168,218,0,0,0,0,0,0,0,0,0,-1,1392,806,0,0
175,218,0,0,0,0,0,0,0,0,0,-1,1399,806,0,0
182,218,0,0,0,0,0,0,0,0,0,-1,1406,806,0,0
189,218,0,0,0,0,0,0,0,0,0,-1,1413,806,0,0
196,218,0,0,0,0,0,0,0,0,0,-1,1420,806,0,0
203,218,0,0,0,0,0,0,0,0,0,-1,1427,806,0,0
210,218,0,0,0,0,0,0,0,0,0,-1,1434,806,0,0
217,218,0,0,0,0,0,0,0,0,0,-1,1441,806,0,0
224,218,0,0,0,0,0,0,0,0,0,-1,1448,806,0,0
231,218,0,0,0,0,0,0,0,0,0,-1,1455,806,0,0
238,218,0,0,0,0,0,0,0,0,0,-1,1462,806,0,0
245,218,0,0,0,0,0,0,0,0,0,-1,1469,806,0,0
252,218,0,0,0,0,0,0,0,0,0,-1,1476,806,0,0
259,218,0,0,0,0,0,0,0,0,0,-1,1483,806,0,0
266,218,0,0,0,0,0,0,0,0,0,-1,1490,806,0,0
273,218,0,0,0,0,0,0,0,0,0,-1,1497,806,0,0
280,218,0,0,0,0,0,0,0,0,0,-1,1504,806,0,0
287,218,0,0,0,0,0,0,0,0,0,-1,1511,806,0,0
294,218,0,0,0,0,0,0,0,0,0,-1,1518,806,0,0
301,218,0,0,0,0,0,0,0,0,0,-1,1525,806,0,0
308,218,0,0,0,0,0,0,0,0,0,-1,1532,806,0,0
315,218,0,0,0,0,0,0,0,0,0,-1,1539,806,0,0
322,218,0,0,0,0,0,0,0,0,0,-1,1546,806,0,0
329,218,0,0,0,0,0,0,0,0,0,-1,1553,806,0,0
336,218,0,0,0,0,0,0,0,0,0,-1,1560,806,0,0
343,218,0,0,0,0,0,0,0,0,0,-1,1567,806,0,0
350,218,0,0,0,0,0,0,0,0,0,-1,1574,806,0,0
357,218,0,0,0,0,0,0,0,0,0,-1,1581,806,0,0
364,218,0,0,0,0,0,0,0,0,0,-1,1588,806,0,0
371,218,0,0,0,0,0,0,0,0,0,-1,1595,806,0,0
378,218,0,0,0,0,0,0,0,0,0,-1,1602,806,0,0
385,218,0,0,0,0,0,0,0,0,0,-1,1609,806,0,0
392,218,0,0,0,0,0,0,0,0,0,-1,1616,806,0,0
399,218,0,0,0,0,0,0,0,0,0,-1,1623,806,0,0
406,218,0,0,0,0,0,0,0,0,0,-1,1630,806,0,0
413,218,0,0,0,0,0,0,0,0,0,-1,1637,806,0,0
420,218,0,0,0,0,0,0,0,0,0,-1,1644,806,0,0
427,218,0,0,0,0,0,0,0,0,0,-1,1651,806,0,0
434,218,0,0,0,0,0,0,0,0,0,-1,1658,806,0,0
441,218,0,0,0,0,0,0,0,0,0,-1,1665,806,0,0
448,218,0,0,0,0,0,0,0,0,0,-1,1672,806,0,0
455,218,0,0,0,0,0,0,0,0,0,-1,1679,806,0,0
462,218,0,0,0,0,0,0,0,0,0,-1,1686,806,0,0
469,218,0,0,0,0,0,0,0,0,0,-1,1693,806,0,0
476,218,0,0,0,0,0,0,0,0,0,-1,1700,806,0,0
483,218,0,0,0,0,0,0,0,0,0,-1,1707,806,0,0
490,218,0,0,0,0,0,0,0,0,0,-1,1714,806,0,0
497,218,0,0,0,0,0,0,0,0,0,-1,1721,806,0,0
504,218,0,0,0,0,0,0,0,0,0,-1,1728,806,0,0
511,218,0,0,0,0,0,0,0,0,0,-1,1735,806,0,0
518,218,0,0,0,0,0,0,0,0,0,-1,1742,806,0,0
525,218,0,0,0,0,0,0,0,0,0,-1,1749,806,0,0
532,218,0,0,0,0,0,0,0,0,0,-1,1756,806,0,0
539,218,0,0,0,0,0,0,0,0,0,-1,1763,806,0,0
546,218,0,0,0,0,0,0,0,0,0,-1,1770,806,0,0
553,218,0,0,0,0,0,0,0,0,0,-1,1777,806,0,0
560,218,0,0,0,0,0,0,0,0,0,-1,1784,806,0,0
567,218,0,0,0,0,0,0,0,0,0,-1,1791,806,0,0
574,218,0,0,0,0,0,0,0,0,0,-1,1798,806,0,0
581,218,0,0,0,0,0,0,0,0,0,-1,1805,806,0,0
588,218,0,0,0,0,0,0,0,0,0,-1,1812,806,0,0
595,218,55.2306,2.96179,-0.0002929,-0.00382363,0.00126651,0.000114423,-0.00423095,0.311162,0.00285954,0.039424,1819,806,55.2306,-2.96177
602,218,55.3346,2.87646,-0.0046712,-0.00400616,0.0029337,-0.00138619,-0.00729117,0.84183,0.00447093,0.0356748,1826,806,55.3345,-2.87646
609,218,55.356,2.92969,-0.00664929,-0.00378117,0.00357075,-0.00136728,-0.00906319,0.976346,0.00564186,0.0308248,1833,806,55.356,-2.92971
616,218,55.3834,2.80463,-0.00673207,-0.00342784,0.0032166,-0.00146388,-0.00869603,1.02264,0.00537624,0.0326547,1840,806,55.3834,-2.8046
623,218,55.4128,2.74188,-0.00624741,-0.00303818,0.00211273,-0.00198979,-0.0072958,1.11017,0.00435486,0.0396074,1847,806,55.4129,-2.74191
630,218,55.4606,2.80951,-0.00567605,-0.00249097,0.00115463,-0.00211645,-0.00605058,1.25713,0.00354546,0.041247,1854,806,55.4605,-2.8095
637,218,55.3514,2.92419,0,0,0,0,0,0,0,-1,1861,806,55.3514,-2.92422
644,218,52.4042,2.47949,0,0,0,0,0,0,0,-1,1868,806,52.4041,-2.47949
651,218,41.7338,1.99164,0,0,0,0,0,0,0,-1,1875,806,41.7338,-1.99162
658,218,28.41,0.514954,0,0,0,0,0,0,0,-1,1882,806,28.41,-0.514983
665,218,41.5531,-0.408203,0,0,0,0,0,0,0,-1,1889,806,41.5532,0.408228
672,218,41.1031,-0.295044,-0.0042307,-0.000993306,-0.00237122,0.000259032,-0.00548304,-1.08489,0.00374469,0.0287834,1896,806,41.1032,0.29502
679,218,40.9063,0.231262,-0.00452368,-0.00123651,-0.00253855,0.000144077,-0.00590427,-1.07269,0.00398507,0.0264592,1903,806,40.9062,-0.231289
686,218,40.7853,0.805176,-0.00436597,-0.0011162,-0.00256298,0.000293568,-0.00577574,-1.06791,0.00395199,0.0131166,1910,806,40.7853,-0.805199
693,218,40.7528,1.43488,-0.00324161,-0.000790921,-0.00211352,0.000426771,-0.00445931,-1.0481,0.00312486,0.012245,1917,806,40.7529,-1.43487
700,218,40.7198,2.07306,-0.00150974,-0.000112267,-0.00122216,0.000596804,-0.00221881,-1.04508,0.00171315,0.0100446,1924,806,40.7199,-2.07304
707,218,40.6713,2.72723,0.000426214,0.00068856,-9.2418e-06,0.000688885,0.000425889,-1.53563,0.000401417,0.00813445,1931,806,40.6713,-2.72725
714,218,40.6505,3.39722,0.00248166,0.00148812,0.00131012,0.00338603,0.000583743,0.604183,0.00209012,0.0104156,1938,806,40.6505,-3.39719
721,218,40.6549,4.03864,0.00454577,0.00224342,0.00269457,0.00632478,0.00046442,0.583523,0.00407055,0.0134018,1945,806,40.6549,-4.03864
728,218,40.6331,4.72644,0.00650017,0.00296646,0.0040208,0.0091252,0.000341436,0.578384,0.00597291,0.0263422,1952,806,40.6331,-4.72642
735,218,40.7271,5.5946,0.00845045,0.00389121,0.0056615,0.012274,6.76173e-05,0.594002,0.00816025,0.0482066,1959,806,40.727,-5.59461
742,218,40.9253,6.50641,0,0,0,0,0,0,0,-1,1966,806,40.9253,-6.50641
749,218,42.0249,6.64703,0,0,0,0,0,0,0,-1,1973,806,42.0249,-6.64703
756,218,37.9641,5.3277,0,0,0,0,0,0,0,-1,1980,806,37.9641,-5.32767
763,218,39.5968,4.98688,0,0,0,0,0,0,0,-1,1987,806,39.5968,-4.98688
770,218,0,0,0,0,0,0,0,0,0,-1,1994,806,0,0
777,218,0,0,0,0,0,0,0,0,0,-1,2001,806,0,0
784,218,0,0,0,0,0,0,0,0,0,-1,2008,806,0,0
791,218,0,0,0,0,0,0,0,0,0,-1,2015,806,0,0
798,218,0,0,0,0,0,0,0,0,0,-1,2022,806,0,0
805,218,0,0,0,0,0,0,0,0,0,-1,2029,806,0,0
812,218,0,0,0,0,0,0,0,0,0,-1,2036,806,0,0
-700,211,0,0,0,0,0,0,0,0,0,-1,524,813,0,0
-693,211,0,0,0,0,0,0,0,0,0,-1,531,813,0,0
-686,211,0,0,0,0,0,0,0,0,0,-1,538,813,0,0
-679,211,0,0,0,0,0,0,0,0,0,-1,545,813,0,0
-672,211,0,0,0,0,0,0,0,0,0,-1,552,813,0,0
-665,211,0,0,0,0,0,0,0,0,0,-1,559,813,0,0
-658,211,0,0,0,0,0,0,0,0,0,-1,566,813,0,0
-651,211,-32.4163,6.39746,0,0,0,0,0,0,0,-1,573,813,-32.4163,-6.39747
-644,211,-31.1364,6.37982,0,0,0,0,0,0,0,-1,580,813,-31.1364,-6.37985
-637,211,-31.2496,6.42194,0,0,0,0,0,0,0,-1,587,813,-31.2496,-6.42195
-630,211,-26.2802,6.70776,0,0,0,0,0,0,0,-1,594,813,-26.2802,-6.70775
-623,211,-26.2827,6.96381,0,0,0,0,0,0,0,-1,601,813,-26.2827,-6.96378
-616,211,-28.8554,3.49713,0,0,0,0,0,0,0,-1,608,813,-28.8554,-3.49712
-609,211,-28.9014,3.08813,0.00347097,0.000309323,-0.00717727,0.00923945,-0.00545915,-0.677002,0.00857929,0.0421202,615,813,-28.9014,-3.08815
-602,211,-29.0019,2.68121,0.00215581,0.00207628,-0.00538265,0.00749885,-0.00326675,-0.781705,0.0063736,0.0235832,622,813,-29.0019,-2.68119
-595,211,-29.0946,2.08374,0.00141636,0.00269394,-0.00372853,0.00583801,-0.00172771,-0.870237,0.0045779,0.0114383,629,813,-29.0946,-2.08376
-588,211,-29.1172,1.46417,0.000679921,0.00274611,-0.0021545,0.0041024,-0.000676368,-1.00896,0.00298603,0.0107718,636,813,-29.1172,-1.46415
-581,211,-29.1305,0.865906,0.000286044,0.00206959,-0.000774653,0.00235906,-3.43123e-06,-1.21318,0.00157385,0.0112437,643,813,-29.1305,-0.865912
-574,211,-29.1511,0.248474,1.82836e-06,0.000849747,0.000462438,0.00105316,-0.00020158,1.15641,0.00077805,0.0126762,650,813,-29.1511,-0.248454
-567,211,-29.1651,-0.385315,-0.00067485,-0.000265321,0.00144468,0.000989036,-0.00192921,0.855798,0.00171375,0.0195108,657,813,-29.1651,0.385323
-560,211,-29.1851,-0.986023,-0.00175727,-0.00113013,0.00227071,0.000848553,-0.00373596,0.854011,0.00281642,0.0258563,664,813,-29.1851,0.986002
-553,211,-28.9887,-1.68726,-0.00324355,-0.00104511,0.00318881,0.00122862,-0.00551728,0.951376,0.00414882,0.0429338,671,813,-28.9887,1.68724
-546,211,-29.4147,-2.21777,-0.00381844,-0.00167731,0.00395113,0.00134572,-0.00684147,0.917698,0.00506945,0.0460093,678,813,-29.4147,2.2178
-539,211,-29.377,-2.8515,-0.00379879,-0.00207788,0.00457014,0.0017121,-0.00758877,0.878448,0.005716,0.0287056,685,813,-29.377,2.85148
-532,211,-29.2968,-3.55188,0,0,0,0,0,0,0,-1,692,813,-29.2967,3.55188
-525,211,-14.3009,2.3233,0,0,0,0,0,0,0,-1,699,813,-14.3009,-2.3233
-518,211,-34.952,1.93011,0,0,0,0,0,0,0,-1,706,813,-34.952,-1.9301
-511,211,-41.8544,0.682861,0,0,0,0,0,0,0,-1,713,813,-41.8544,-0.682839
-504,211,-41.919,0.767944,-0.00363873,-0.00308412,0.00571302,0.00235832,-0.00908118,0.809649,0.00697442,0.0465065,720,813,-41.919,-0.767951
-497,211,-41.9698,0.862061,-0.00256314,-0.00305097,0.00516369,0.0023624,-0.0079765,0.761798,0.00625564,0.0488397,727,813,-41.9699,-0.862043
-490,211,-41.8387,0.970215,-0.00105071,-0.00301458,0.00395404,0.00204149,-0.00610678,0.663692,0.00489569,0.0389281,734,813,-41.8387,-0.970196
-483,211,-41.8016,1.04169,0.00147979,-0.00316604,0.00164856,0.00200533,-0.00369157,0.308601,0.00333679,0.0340129,741,813,-41.8017,-1.04169
-476,211,-41.8432,1.02228,0.00613826,-0.00388617,-0.00197982,0.00651511,-0.00426302,-0.188094,0.00626787,0.0357561,748,813,-41.8432,-1.02225
-469,211,0,0,0,0,0,0,0,0,0,-1,755,813,0,0
-462,211,0,0,0,0,0,0,0,0,0,-1,762,813,0,0
-455,211,0,0,0,0,0,0,0,0,0,-1,769,813,0,0
-448,211,0,0,0,0,0,0,0,0,0,-1,776,813,0,0
-441,211,0,0,0,0,0,0,0,0,0,-1,783,813,0,0
-434,211,0,0,0,0,0,0,0,0,0,-1,790,813,0,0
-427,211,0,0,0,0,0,0,0,0,0,-1,797,813,0,0
-420,211,0,0,0,0,0,0,0,0,0,-1,804,813,0,0
-413,211,0,0,0,0,0,0,0,0,0,-1,811,813,0,0
-406,211,0,0,0,0,0,0,0,0,0,-1,818,813,0,0
-399,211,0,0,0,0,0,0,0,0,0,-1,825,813,0,0
-392,211,0,0,0,0,0,0,0,0,0,-1,832,813,0,0
-385,211,0,0,0,0,0,0,0,0,0,-1,839,813,0,0
-378,211,0,0,0,0,0,0,0,0,0,-1,846,813,0,0
-371,211,0,0,0,0,0,0,0,0,0,-1,853,813,0,0
-364,211,0,0,0,0,0,0,0,0,0,-1,860,813,0,0
-357,211,0,0,0,0,0,0,0,0,0,-1,867,813,0,0
-350,211,0,0,0,0,0,0,0,0,0,-1,874,813,0,0
-343,211,0,0,0,0,0,0,0,0,0,-1,881,813,0,0
-336,211,0,0,0,0,0,0,0,0,0,-1,888,813,0,0
-329,211,0,0,0,0,0,0,0,0,0,-1,895,813,0,0
-322,211,0,0,0,0,0,0,0,0,0,-1,902,813,0,0
-315,211,0,0,0,0,0,0,0,0,0,-1,909,813,0,0
-308,211,0,0,0,0,0,0,0,0,0,-1,916,813,0,0
-301,211,0,0,0,0,0,0,0,0,0,-1,923,813,0,0
-294,211,0,0,0,0,0,0,0,0,0,-1,930,813,0,0
-287,211,0,0,0,0,0,0,0,0,0,-1,937,813,0,0
-280,211,0,0,0,0,0,0,0,0,0,-1,944,813,0,0
-273,211,0,0,0,0,0,0,0,0,0,-1,951,813,0,0
-266,211,0,0,0,0,0,0,0,0,0,-1,958,813,0,0
-259,211,0,0,0,0,0,0,0,0,0,-1,965,813,0,0
-252,211,0,0,0,0,0,0,0,0,0,-1,972,813,0,0
-245,211,0,0,0,0,0,0,0,0,0,-1,979,813,0,0
-238,211,0,0,0,0,0,0,0,0,0,-1,986,813,0,0
-231,211,0,0,0,0,0,0,0,0,0,-1,993,813,0,0
-224,211,0,0,0,0,0,0,0,0,0,-1,1000,813,0,0
-217,211,0,0,0,0,0,0,0,0,0,-1,1007,813,0,0
-210,211,0,0,0,0,0,0,0,0,0,-1,1014,813,0,0
-203,211,0,0,0,0,0,0,0,0,0,-1,1021,813,0,0
-196,211,0,0,0,0,0,0,0,0,0,-1,1028,813,0,0
-189,211,0,0,0,0,0,0,0,0,0,-1,1035,813,0,0
-182,211,0,0,0,0,0,0,0,0,0,-1,1042,813,0,0
-175,211,0,0,0,0,0,0,0,0,0,-1,1049,813,0,0
-168,211,0,0,0,0,0,0,0,0,0,-1,1056,813,0,0
-161,211,0,0,0,0,0,0,0,0,0,-1,1063,813,0,0
-154,211,0,0,0,0,0,0,0,0,0,-1,1070,813,0,0
-147,211,0,0,0,0,0,0,0,0,0,-1,1077,813,0,0
-140,211,0,0,0,0,0,0,0,0,0,-1,1084,813,0,0
-133,211,0,0,0,0,0,0,0,0,0,-1,1091,813,0,0
-126,211,0,0,0,0,0,0,0,0,0,-1,1098,813,0,0
-119,211,0,0,0,0,0,0,0,0,0,-1,1105,813,0,0
-112,211,0,0,0,0,0,0,0,0,0,-1,1112,813,0,0
-105,211,0,0,0,0,0,0,0,0,0,-1,1119,813,0,0
-98,211,0,0,0,0,0,0,0,0,0,-1,1126,813,0,0
-91,211,0,0,0,0,0,0,0,0,0,-1,1133,813,0,0
-84,211,0,0,0,0,0,0,0,0,0,-1,1140,813,0,0
-77,211,0,0,0,0,0,0,0,0,0,-1,1147,813,0,0
-70,211,0,0,0,0,0,0,0,0,0,-1,1154,813,0,0
-63,211,0,0,0,0,0,0,0,0,0,-1,1161,813,0,0
-56,211,0,0,0,0,0,0,0,0,0,-1,1168,813,0,0
-49,211,0,0,0,0,0,0,0,0,0,-1,1175,813,0,0
-42,211,0,0,0,0,0,0,0,0,0,-1,1182,813,0,0
-35,211,0,0,0,0,0,0,0,0,0,-1,1189,813,0,0
-28,211,0,0,0,0,0,0,0,0,0,-1,1196,813,0,0
-21,211,0,0,0,0,0,0,0,0,0,-1,1203,813,0,0
-14,211,0,0,0,0,0,0,0,0,0,-1,1210,813,0,0
-7,211,0,0,0,0,0,0,0,0,0,-1,1217,813,0,0
0,211,0,0,0,0,0,0,0,0,0,-1,1224,813,0,0
7,211,0,0,0,0,0,0,0,0,0,-1,1231,813,0,0
14,211,0,0,0,0,0,0,0,0,0,-1,1238,813,0,0
21,211,0,0,0,0,0,0,0,0,0,-1,1245,813,0,0
28,211,0,0,0,0,0,0,0,0,0,-1,1252,813,0,0
35,211,0,0,0,0,0,0,0,0,0,-1,1259,813,0,0
42,211,0,0,0,0,0,0,0,0,0,-1,1266,813,0,0
49,211,0,0,0,0,0,0,0,0,0,-1,1273,813,0,0
56,211,0,0,0,0,0,0,0,0,0,-1,1280,813,0,0
63,211,0,0,0,0,0,0,0,0,0,-1,1287,813,0,0
70,211,0,0,0,0,0,0,0,0,0,-1,1294,813,0,0
77,211,0,0,0,0,0,0,0,0,0,-1,1301,813,0,0
84,211,0,0,0,0,0,0,0,0,0,-1,1308,813,0,0
91,211,0,0,0,0,0,0,0,0,0,-1,1315,813,0,0
98,211,0,0,0,0,0,0,0,0,0,-1,1322,813,0,0
105,211,0,0,0,0,0,0,0,0,0,-1,1329,813,0,0
112,211,0,0,0,0,0,0,0,0,0,-1,1336,813,0,0
119,211,0,0,0,0,0,0,0,0,0,-1,1343,813,0,0
126,211,0,0,0,0,0,0,0,0,0,-1,1350,813,0,0
133,211,0,0,0,0,0,0,0,0,0,-1,1357,813,0,0
140,211,0,0,0,0,0,0,0,0,0,-1,1364,813,0,0
147,211,0,0,0,0,0,0,0,0,0,-1,1371,813,0,0
154,211,0,0,0,0,0,0,0,0,0,-1,1378,813,0,0
161,211,0,0,0,0,0,0,0,0,0,-1,1385,813,0,0
168,211,0,0,0,0,0,0,0,0,0,-1,1392,813,0,0
175,211,0,0,0,0,0,0,0,0,0,-1,1399,813,0,0
182,211,0,0,0,0,0,0,0,0,0,-1,1406,813,0,0
189,211,0,0,0,0,0,0,0,0,0,-1,1413,813,0,0
196,211,0,0,0,0,0,0,0,0,0,-1,1420,813,0,0
203,211,0,0,0,0,0,0,0,0,0,-1,1427,813,0,0
210,211,0,0,0,0,0,0,0,0,0,-1,1434,813,0,0
217,211,0,0,0,0,0,0,0,0,0,-1,1441,813,0,0
224,211,0,0,0,0,0,0,0,0,0,-1,1448,813,0,0
231,211,0,0,0,0,0,0,0,0,0,-1,1455,813,0,0
238,211,0,0,0,0,0,0,0,0,0,-1,1462,813,0,0
245,211,0,0,0,0,0,0,0,0,0,-1,1469,813,0,0
252,211,0,0,0,0,0,0,0,0,0,-1,1476,813,0,0
259,211,0,0,0,0,0,0,0,0,0,-1,1483,813,0,0
266,211,0,0,0,0,0,0,0,0,0,-1,1490,813,0,0
273,211,0,0,0,0,0,0,0,0,0,-1,1497,813,0,0
280,211,0,0,0,0,0,0,0,0,0,-1,1504,813,0,0
287,211,0,0,0,0,0,0,0,0,0,-1,1511,813,0,0
294,211,0,0,0,0,0,0,0,0,0,-1,1518,813,0,0
301,211,0,0,0,0,0,0,0,0,0,-1,1525,813,0,0
308,211,0,0,0,0,0,0,0,0,0,-1,1532,813,0,0
315,211,0,0,0,0,0,0,0,0,0,-1,1539,813,0,0
322,211,0,0,0,0,0,0,0,0,0,-1,1546,813,0,0
329,211,0,0,0,0,0,0,0,0,0,-1,1553,813,0,0
336,211,0,0,0,0,0,0,0,0,0,-1,1560,813,0,0
343,211,0,0,0,0,0,0,0,0,0,-1,1567,813,0,0
350,211,0,0,0,0,0,0,0,0,0,-1,1574,813,0,0
357,211,0,0,0,0,0,0,0,0,0,-1,1581,813,0,0
364,211,0,0,0,0,0,0,0,0,0,-1,1588,813,0,0
371,211,0,0,0,0,0,0,0,0,0,-1,1595,813,0,0
378,211,0,0,0,0,0,0,0,0,0,-1,1602,813,0,0
385,211,0,0,0,0,0,0,0,0,0,-1,1609,813,0,0
392,211,0,0,0,0,0,0,0,0,0,-1,1616,813,0,0
399,211,0,0,0,0,0,0,0,0,0,-1,1623,813,0,0
406,211,0,0,0,0,0,0,0,0,0,-1,1630,813,0,0
413,211,0,0,0,0,0,0,0,0,0,-1,1637,813,0,0
420,211,0,0,0,0,0,0,0,0,0,-1,1644,813,0,0
427,211,0,0,0,0,0,0,0,0,0,-1,1651,813,0,0
434,211,0,0,0,0,0,0,0,0,0,-1,1658,813,0,0
441,211,0,0,0,0,0,0,0,0,0,-1,1665,813,0,0
448,211,0,0,0,0,0,0,0,0,0,-1,1672,813,0,0
455,211,0,0,0,0,0,0,0,0,0,-1,1679,813,0,0
462,211,0,0,0,0,0,0,0,0,0,-1,1686,813,0,0
469,211,0,0,0,0,0,0,0,0,0,-1,1693,813,0,0
476,211,0,0,0,0,0,0,0,0,0,-1,1700,813,0,0
483,211,0,0,0,0,0,0,0,0,0,-1,1707,813,0,0
490,211,0,0,0,0,0,0,0,0,0,-1,1714,813,0,0
497,211,0,0,0,0,0,0,0,0,0,-1,1721,813,0,0
504,211,0,0,0,0,0,0,0,0,0,-1,1728,813,0,0
511,211,0,0,0,0,0,0,0,0,0,-1,1735,813,0,0
518,211,0,0,0,0,0,0,0,0,0,-1,1742,813,0,0
525,211,0,0,0,0,0,0,0,0,0,-1,1749,813,0,0
532,211,0,0,0,0,0,0,0,0,0,-1,1756,813,0,0
539,211,0,0,0,0,0,0,0,0,0,-1,1763,813,0,0
546,211,0,0,0,0,0,0,0,0,0,-1,1770,813,0,0
553,211,0,0,0,0,0,0,0,0,0,-1,1777,813,0,0
560,211,0,0,0,0,0,0,0,0,0,-1,1784,813,0,0
567,211,0,0,0,0,0,0,0,0,0,-1,1791,813,0,0
574,211,0,0,0,0,0,0,0,0,0,-1,1798,813,0,0
581,211,0,0,0,0,0,0,0,0,0,-1,1805,813,0,0
588,211,0,0,0,0,0,0,0,0,0,-1,1812,813,0,0
595,211,55.4222,2.71191,0.00245512,-0.00338611,-0.000412933,0.00248417,-0.00341516,-0.0702272,0.00342009,0.0401865,1819,813,55.4223,-2.71189
602,211,55.3997,2.76666,-0.000860672,-0.0032606,0.00111157,-0.000424943,-0.00369633,0.373587,0.0023355,0.0397674,1826,813,55.3997,-2.76667
609,211,55.348,2.9754,-0.00290915,-0.00293081,0.00197924,-0.000940715,-0.00489925,0.782663,0.00300213,0.0407796,1833,813,55.3481,-2.9754
616,211,55.3441,2.91321,-0.00368363,-0.00250171,0.00213854,-0.00087398,-0.00531136,0.920203,0.00328852,0.0345303,1840,813,55.3441,-2.91319
623,211,55.3638,2.82501,-0.0039887,-0.0022026,0.00137274,-0.00145798,-0.00473332,1.07378,0.00279912,0.0350867,1847,813,55.3638,-2.82504
630,211,55.3674,2.8092,-0.00412913,-0.00175708,0.000601634,-0.00161321,-0.004273,1.33607,0.00249156,0.0383792,1854,813,55.3674,-2.80921
637,211,55.3561,2.87646,-0.00424348,-0.00155376,-0.000108492,-0.0015494,-0.00424785,-1.53055,0.00248223,0.0414356,1861,813,55.3561,-2.87649
644,211,55.4398,2.85284,0,0,0,0,0,0,0,-1,1868,813,55.4398,-2.85283
651,211,48.5043,2.95557,0,0,0,0,0,0,0,-1,1875,813,48.5043,-2.95558
658,211,27.7909,1.52234,0,0,0,0,0,0,0,-1,1882,813,27.7909,-1.52234
665,211,42.2053,-0.745605,0,0,0,0,0,0,0,-1,1889,813,42.2054,0.745605
672,211,42.0459,-0.258545,-0.00439416,-0.000766695,-0.0024005,0.000428229,-0.00558908,-1.10892,0.00387669,0.0492369,1896,813,42.0459,0.258515
679,211,41.7391,0.264465,-0.00477985,-0.00105712,-0.00260521,0.000283353,-0.00612032,-1.09559,0.00417787,0.0316863,1903,813,41.7391,-0.264483
686,211,41.4412,0.832214,-0.00482005,-0.00104561,-0.00275124,0.000403474,-0.00626913,-1.08602,0.0043202,0.0138709,1910,813,41.4412,-0.832239
693,211,41.3873,1.46741,-0.0039696,-0.000901517,-0.00251022,0.000506292,-0.00537741,-1.05968,0.00376507,0.0125268,1917,813,41.3874,-1.46739
700,211,41.3154,2.09924,-0.00248357,-0.000340842,-0.00179274,0.000676274,-0.00350068,-1.05473,0.00258883,0.0141209,1924,813,41.3154,-2.09925
707,211,41.29,2.76416,-0.000736892,0.000387025,-0.000672282,0.000701286,-0.00105115,-1.13352,0.00101847,0.0208777,1931,813,41.2901,-2.76414
714,211,41.2955,3.45703,0.00123542,0.00119312,0.000587686,0.00180234,0.000626205,0.767414,0.0010566,0.0220819,1938,813,41.2955,-3.45703
721,211,41.3127,4.05243,0.00325905,0.00202756,0.00191194,0.00465194,0.00063466,0.629616,0.00291288,0.0167053,1945,813,41.3128,-4.05241
728,211,41.3047,4.68561,0.00518502,0.00282028,0.00316465,0.00738097,0.000624339,0.606619,0.0047263,0.0176426,1952,813,41.3046,-4.68558
735,211,41.4063,5.46161,0.00707379,0.00377262,0.00460364,0.0103138,0.000532612,0.613267,0.00670538,0.0334199,1959,813,41.4063,-5.46164
742,211,41.6135,6.23981,0,0,0,0,0,0,0,-1,1966,813,41.6136,-6.2398
749,211,41.0935,6.59991,0,0,0,0,0,0,0,-1,1973,813,41.0936,-6.59993
756,211,42.4518,6.71936,0,0,0,0,0,0,0,-1,1980,813,42.4518,-6.71936
763,211,39.4379,6.60083,0,0,0,0,0,0,0,-1,1987,813,39.4378,-6.60085
770,211,39.2373,7.45868,0,0,0,0,0,0,0,-1,1994,813,39.2373,-7.45868
777,211,0,0,0,0,0,0,0,0,0,-1,2001,813,0,0
784,211,0,0,0,0,0,0,0,0,0,-1,2008,813,0,0
791,211,0,0,0,0,0,0,0,0,0,-1,2015,813,0,0
798,211,0,0,0,0,0,0,0,0,0,-1,2022,813,0,0
805,211,0,0,0,0,0,0,0,0,0,-1,2029,813,0,0
812,211,0,0,0,0,0,0,0,0,0,-1,2036,813,0,0
-700,204,0,0,0,0,0,0,0,0,0,-1,524,820,0,0
-693,204,0,0,0,0,0,0,0,0,0,-1,531,820,0,0
-686,204,0,0,0,0,0,0,0,0,0,-1,538,820,0,0
-679,204,0,0,0,0,0,0,0,0,0,-1,545,820,0,0
-672,204,0,0,0,0,0,0,0,0,0,-1,552,820,0,0
-665,204,0,0,0,0,0,0,0,0,0,-1,559,820,0,0
-658,204,0,0,0,0,0,0,0,0,0,-1,566,820,0,0
-651,204,-30.8603,6.04706,0,0,0,0,0,0,0,-1,573,820,-30.8603,-6.04704
-644,204,-30.553,6.28735,0,0,0,0,0,0,0,-1,580,820,-30.5531,-6.28735
-637,204,-30.6819,7.18677,0,0,0,0,0,0,0,-1,587,820,-30.6819,-7.18676
-630,204,-26.3576,4.56836,0,0,0,0,0,0,0,-1,594,820,-26.3576,-4.56833
-623,204,-27.8553,4.75055,0,0,0,0,0,0,0,-1,601,820,-27.8554,-4.75058
-616,204,-29.6537,3.94147,0,0,0,0,0,0,0,-1,608,820,-29.6537,-3.94144
-609,204,-29.6227,3.32648,0.00423917,-0.00121729,-0.00644995,0.00851416,-0.00549228,-0.585317,0.00814912,0.038204,615,820,-29.6227,-3.32647
-602,204,-29.6649,2.70905,0.00247589,0.000744923,-0.00459928,0.00629041,-0.0030696,-0.692397,0.00550962,0.0181589,622,820,-29.6649,-2.70904
-595,204,-29.714,2.09277,0.00140283,0.00158665,-0.00288989,0.00438609,-0.00139662,-0.801294,0.00348419,0.0154996,629,820,-29.714,-2.09279
-588,204,-29.7354,1.47998,0.000516761,0.00187606,-0.00127048,0.00263726,-0.000244432,-1.03101,0.00184505,0.0136199,636,820,-29.7354,-1.48001
-581,204,-29.7561,0.873962,8.19869e-05,0.00139699,0.000154193,0.00141483,6.41487e-05,1.45562,0.000922579,0.0127148,643,820,-29.7561,-0.873937
-574,204,-29.7725,0.26709,-0.000105214,0.00034227,0.00131963,0.00145699,-0.00121993,0.869374,0.00154754,0.0135791,650,820,-29.7725,-0.267099
-567,204,-29.7625,-0.347656,-0.00073228,-0.000530698,0.00206135,0.00143233,-0.0026953,0.809826,0.00241999,0.0141228,657,820,-29.7624,0.347652
-560,204,-29.7081,-1.00195,-0.00185546,-0.00116755,0.00262169,0.00113266,-0.00415566,0.850623,0.0032152,0.021519,664,820,-29.7081,1.00197
-553,204,-29.8474,-1.48224,-0.00326957,-0.000974359,0.00331841,0.00138928,-0.00563321,0.951876,0.00429415,0.0235827,671,820,-29.8474,1.48224
-546,204,-30.0445,-2.02002,-0.00362801,-0.00149221,0.00387625,0.00146056,-0.00658077,0.919813,0.00494644,0.024913,678,820,-30.0445,2.01999
-539,204,-29.9039,-2.70056,-0.00353645,-0.00187361,0.00434356,0.00171739,-0.00712745,0.879962,0.00541564,0.0462572,685,820,-29.9038,2.70055
-532,204,-29.8246,-3.64764,0,0,0,0,0,0,0,-1,692,820,-29.8247,3.64766
-525,204,-25.7137,1.52496,0,0,0,0,0,0,0,-1,699,820,-25.7137,-1.52496
-518,204,-41.8088,0.365417,0,0,0,0,0,0,0,-1,706,820,-41.8088,-0.365423
-511,204,-41.8171,0.828796,0,0,0,0,0,0,0,-1,713,820,-41.8171,-0.828827
-504,204,-41.9855,0.754333,-0.00304706,-0.00303921,0.00599085,0.00294772,-0.00903399,0.785726,0.007209,0.0484067,720,820,-41.9855,-0.754343
-497,204,-42.0203,0.791138,-0.00135725,-0.00306387,0.00572123,0.00357396,-0.00799508,0.71137,0.00684003,0.0390479,727,820,-42.0203,-0.791139
-490,204,-41.9429,0.88092,0.00117525,-0.00316948,0.00472688,0.00420506,-0.00619928,0.570003,0.00604362,0.0355719,734,820,-41.9429,-0.880914
-483,204,-41.8055,1.0614,0.00582472,-0.00361308,0.00226737,0.00634118,-0.00412954,0.223958,0.00609006,0.0406486,741,820,-41.8056,-1.06141
-476,204,0,0,0,0,0,0,0,0,0,-1,748,820,0,0
-469,204,0,0,0,0,0,0,0,0,0,-1,755,820,0,0
-462,204,0,0,0,0,0,0,0,0,0,-1,762,820,0,0
-455,204,0,0,0,0,0,0,0,0,0,-1,769,820,0,0
-448,204,0,0,0,0,0,0,0,0,0,-1,776,820,0,0
-441,204,0,0,0,0,0,0,0,0,0,-1,783,820,0,0
-434,204,0,0,0,0,0,0,0,0,0,-1,790,820,0,0
-427,204,0,0,0,0,0,0,0,0,0,-1,797,820,0,0
-420,204,0,0,0,0,0,0,0,0,0,-1,804,820,0,0
-413,204,0,0,0,0,0,0,0,0,0,-1,811,820,0,0
-406,204,0,0,0,0,0,0,0,0,0,-1,818,820,0,0
-399,204,0,0,0,0,0,0,0,0,0,-1,825,820,0,0
-392,204,0,0,0,0,0,0,0,0,0,-1,832,820,0,0
-385,204,0,0,0,0,0,0,0,0,0,-1,839,820,0,0
-378,204,0,0,0,0,0,0,0,0,0,-1,846,820,0,0
-371,204,0,0,0,0,0,0,0,0,0,-1,853,820,0,0
-364,204,0,0,0,0,0,0,0,0,0,-1,860,820,0,0
-357,204,0,0,0,0,0,0,0,0,0,-1,867,820,0,0
-350,204,0,0,0,0,0,0,0,0,0,-1,874,820,0,0
-343,204,0,0,0,0,0,0,0,0,0,-1,881,820,0,0
-336,204,0,0,0,0,0,0,0,0,0,-1,888,820,0,0
-329,204,0,0,0,0,0,0,0,0,0,-1,895,820,0,0
-322,204,0,0,0,0,0,0,0,0,0,-1,902,820,0,0
-315,204,0,0,0,0,0,0,0,0,0,-1,909,820,0,0
-308,204,0,0,0,0,0,0,0,0,0,-1,916,820,0,0
-301,204,0,0,0,0,0,0,0,0,0,-1,923,820,0,0
-294,204,0,0,0,0,0,0,0,0,0,-1,930,820,0,0
-287,204,0,0,0,0,0,0,0,0,0,-1,937,820,0,0
-280,204,0,0,0,0,0,0,0,0,0,-1,944,820,0,0
-273,204,0,0,0,0,0,0,0,0,0,-1,951,820,0,0
-266,204,0,0,0,0,0,0,0,0,0,-1,958,820,0,0
-259,204,0,0,0,0,0,0,0,0,0,-1,965,820,0,0
-252,204,0,0,0,0,0,0,0,0,0,-1,972,820,0,0
-245,204,0,0,0,0,0,0,0,0,0,-1,979,820,0,0
-238,204,0,0,0,0,0,0,0,0,0,-1,986,820,0,0
-231,204,0,0,0,0,0,0,0,0,0,-1,993,820,0,0
-224,204,0,0,0,0,0,0,0,0,0,-1,1000,820,0,0
-217,204,0,0,0,0,0,0,0,0,0,-1,1007,820,0,0
-210,204,0,0,0,0,0,0,0,0,0,-1,1014,820,0,0
-203,204,0,0,0,0,0,0,0,0,0,-1,1021,820,0,0
-196,204,0,0,0,0,0,0,0,0,0,-1,1028,820,0,0
-189,204,0,0,0,0,0,0,0,0,0,-1,1035,820,0,0
-182,204,0,0,0,0,0,0,0,0,0,-1,1042,820,0,0
-175,204,0,0,0,0,0,0,0,0,0,-1,1049,820,0,0
-168,204,0,0,0,0,0,0,0,0,0,-1,1056,820,0,0
-161,204,0,0,0,0,0,0,0,0,0,-1,1063,820,0,0
-154,204,0,0,0,0,0,0,0,0,0,-1,1070,820,0,0
-147,204,0,0,0,0,0,0,0,0,0,-1,1077,820,0,0
-140,204,0,0,0,0,0,0,0,0,0,-1,1084,820,0,0
-133,204,0,0,0,0,0,0,0,0,0,-1,1091,820,0,0
-126,204,0,0,0,0,0,0,0,0,0,-1,1098,820,0,0
-119,204,0,0,0,0,0,0,0,0,0,-1,1105,820,0,0
-112,204,0,0,0,0,0,0,0,0,0,-1,1112,820,0,0
-105,204,0,0,0,0,0,0,0,0,0,-1,1119,820,0,0
-98,204,0,0,0,0,0,0,0,0,0,-1,1126,820,0,0
-91,204,0,0,0,0,0,0,0,0,0,-1,1133,820,0,0
-84,204,0,0,0,0,0,0,0,0,0,-1,1140,820,0,0
-77,204,0,0,0,0,0,0,0,0,0,-1,1147,820,0,0
-70,204,0,0,0,0,0,0,0,0,0,-1,1154,820,0,0
-63,204,0,0,0,0,0,0,0,0,0,-1,1161,820,0,0
-56,204,0,0,0,0,0,0,0,0,0,-1,1168,820,0,0
-49,204,0,0,0,0,0,0,0,0,0,-1,1175,820,0,0
-42,204,0,0,0,0,0,0,0,0,0,-1,1182,820,0,0
-35,204,0,0,0,0,0,0,0,0,0,-1,1189,820,0,0
-28,204,0,0,0,0,0,0,0,0,0,-1,1196,820,0,0
-21,204,0,0,0,0,0,0,0,0,0,-1,1203,820,0,0
-14,204,0,0,0,0,0,0,0,0,0,-1,1210,820,0,0
-7,204,0,0,0,0,0,0,0,0,0,-1,1217,820,0,0
0,204,0,0,0,0,0,0,0,0,0,-1,1224,820,0,0
7,204,0,0,0,0,0,0,0,0,0,-1,1231,820,0,0
14,204,0,0,0,0,0,0,0,0,0,-1,1238,820,0,0
21,204,0,0,0,0,0,0,0,0,0,-1,1245,820,0,0
28,204,0,0,0,0,0,0,0,0,0,-1,1252,820,0,0
35,204,0,0,0,0,0,0,0,0,0,-1,1259,820,0,0
42,204,0,0,0,0,0,0,0,0,0,-1,1266,820,0,0
49,204,0,0,0,0,0,0,0,0,0,-1,1273,820,0,0
56,204,0,0,0,0,0,0,0,0,0,-1,1280,820,0,0
63,204,0,0,0,0,0,0,0,0,0,-1,1287,820,0,0
70,204,0,0,0,0,0,0,0,0,0,-1,1294,820,0,0
77,204,0,0,0,0,0,0,0,0,0,-1,1301,820,0,0
84,204,0,0,0,0,0,0,0,0,0,-1,1308,820,0,0
91,204,0,0,0,0,0,0,0,0,0,-1,1315,820,0,0
98,204,0,0,0,0,0,0,0,0,0,-1,1322,820,0,0
105,204,0,0,0,0,0,0,0,0,0,-1,1329,820,0,0
112,204,0,0,0,0,0,0,0,0,0,-1,1336,820,0,0
119,204,0,0,0,0,0,0,0,0,0,-1,1343,820,0,0
126,204,0,0,0,0,0,0,0,0,0,-1,1350,820,0,0
133,204,0,0,0,0,0,0,0,0,0,-1,1357,820,0,0
140,204,0,0,0,0,0,0,0,0,0,-1,1364,820,0,0
147,204,0,0,0,0,0,0,0,0,0,-1,1371,820,0,0
154,204,0,0,0,0,0,0,0,0,0,-1,1378,820,0,0
161,204,0,0,0,0,0,0,0,0,0,-1,1385,820,0,0
168,204,0,0,0,0,0,0,0,0,0,-1,1392,820,0,0
175,204,0,0,0,0,0,0,0,0,0,-1,1399,820,0,0
182,204,0,0,0,0,0,0,0,0,0,-1,1406,820,0,0
189,204,0,0,0,0,0,0,0,0,0,-1,1413,820,0,0
196,204,0,0,0,0,0,0,0,0,0,-1,1420,820,0,0
203,204,0,0,0,0,0,0,0,0,0,-1,1427,820,0,0
210,204,0,0,0,0,0,0,0,0,0,-1,1434,820,0,0
217,204,0,0,0,0,0,0,0,0,0,-1,1441,820,0,0
224,204,0,0,0,0,0,0,0,0,0,-1,1448,820,0,0
231,204,0,0,0,0,0,0,0,0,0,-1,1455,820,0,0
238,204,0,0,0,0,0,0,0,0,0,-1,1462,820,0,0
245,204,0,0,0,0,0,0,0,0,0,-1,1469,820,0,0
252,204,0,0,0,0,0,0,0,0,0,-1,1476,820,0,0
259,204,0,0,0,0,0,0,0,0,0,-1,1483,820,0,0
266,204,0,0,0,0,0,0,0,0,0,-1,1490,820,0,0
273,204,0,0,0,0,0,0,0,0,0,-1,1497,820,0,0
280,204,0,0,0,0,0,0,0,0,0,-1,1504,820,0,0
287,204,0,0,0,0,0,0,0,0,0,-1,1511,820,0,0
294,204,0,0,0,0,0,0,0,0,0,-1,1518,820,0,0
301,204,0,0,0,0,0,0,0,0,0,-1,1525,820,0,0
308,204,0,0,0,0,0,0,0,0,0,-1,1532,820,0,0
315,204,0,0,0,0,0,0,0,0,0,-1,1539,820,0,0
322,204,0,0,0,0,0,0,0,0,0,-1,1546,820,0,0
329,204,0,0,0,0,0,0,0,0,0,-1,1553,820,0,0
336,204,0,0,0,0,0,0,0,0,0,-1,1560,820,0,0
343,204,0,0,0,0,0,0,0,0,0,-1,1567,820,0,0
350,204,0,0,0,0,0,0,0,0,0,-1,1574,820,0,0
357,204,0,0,0,0,0,0,0,0,0,-1,1581,820,0,0
364,204,0,0,0,0,0,0,0,0,0,-1,1588,820,0,0
371,204,0,0,0,0,0,0,0,0,0,-1,1595,820,0,0
378,204,0,0,0,0,0,0,0,0,0,-1,1602,820,0,0
385,204,0,0,0,0,0,0,0,0,0,-1,1609,820,0,0
392,204,0,0,0,0,0,0,0,0,0,-1,1616,820,0,0
399,204,0,0,0,0,0,0,0,0,0,-1,1623,820,0,0
406,204,0,0,0,0,0,0,0,0,0,-1,1630,820,0,0
413,204,0,0,0,0,0,0,0,0,0,-1,1637,820,0,0
420,204,0,0,0,0,0,0,0,0,0,-1,1644,820,0,0
427,204,0,0,0,0,0,0,0,0,0,-1,1651,820,0,0
434,204,0,0,0,0,0,0,0,0,0,-1,1658,820,0,0
441,204,0,0,0,0,0,0,0,0,0,-1,1665,820,0,0
448,204,0,0,0,0,0,0,0,0,0,-1,1672,820,0,0
455,204,0,0,0,0,0,0,0,0,0,-1,1679,820,0,0
462,204,0,0,0,0,0,0,0,0,0,-1,1686,820,0,0
469,204,0,0,0,0,0,0,0,0,0,-1,1693,820,0,0
476,204,0,0,0,0,0,0,0,0,0,-1,1700,820,0,0
483,204,0,0,0,0,0,0,0,0,0,-1,1707,820,0,0
490,204,0,0,0,0,0,0,0,0,0,-1,1714,820,0,0
497,204,0,0,0,0,0,0,0,0,0,-1,1721,820,0,0
504,204,0,0,0,0,0,0,0,0,0,-1,1728,820,0,0
511,204,0,0,0,0,0,0,0,0,0,-1,1735,820,0,0
518,204,0,0,0,0,0,0,0,0,0,-1,1742,820,0,0
525,204,0,0,0,0,0,0,0,0,0,-1,1749,820,0,0
532,204,0,0,0,0,0,0,0,0,0,-1,1756,820,0,0
539,204,0,0,0,0,0,0,0,0,0,-1,1763,820,0,0
546,204,0,0,0,0,0,0,0,0,0,-1,1770,820,0,0
553,204,0,0,0,0,0,0,0,0,0,-1,1777,820,0,0
560,204,0,0,0,0,0,0,0,0,0,-1,1784,820,0,0
567,204,0,0,0,0,0,0,0,0,0,-1,1791,820,0,0
574,204,0,0,0,0,0,0,0,0,0,-1,1798,820,0,0
581,204,0,0,0,0,0,0,0,0,0,-1,1805,820,0,0
588,204,0,0,0,0,0,0,0,0,0,-1,1812,820,0,0
595,204,0,0,0,0,0,0,0,0,0,-1,1819,820,0,0
602,204,55.5242,2.51636,0.000785758,-0.00269162,-0.000444496,0.000841677,-0.00274754,-0.125145,0.00216743,0.0415005,1826,820,55.5241,-2.51634
609,204,55.4637,2.76501,-0.000565943,-0.00220662,0.000389531,-0.000478157,-0.0022944,0.22166,0.00139775,0.0451009,1833,820,55.4637,-2.76499
616,204,55.4111,2.78564,-0.00134131,-0.00161649,0.000917124,-0.000551512,-0.00240629,0.710942,0.00145561,0.0420359,1840,820,55.4112,-2.78567
623,204,55.337,2.82916,-0.00207926,-0.00134021,0.000517262,-0.00107404,-0.00234543,1.09556,0.00135573,0.0307115,1847,820,55.3371,-2.82919
630,204,55.321,2.84454,-0.00279824,-0.000967465,-6.40655e-05,-0.000965226,-0.00280048,-1.53586,0.00164266,0.0296096,1854,820,55.3211,-2.84457
637,204,55.3704,2.78534,-0.00333319,-0.000860257,-0.000691308,-0.000680123,-0.00351332,-1.31589,0.00215164,0.0357857,1861,820,55.3703,-2.78533
644,204,55.4432,2.69916,0,0,0,0,0,0,0,-1,1868,820,55.4432,-2.69914
651,204,53.7611,2.32251,0,0,0,0,0,0,0,-1,1875,820,53.7611,-2.32249
658,204,34.9631,1.64844,0,0,0,0,0,0,0,-1,1882,820,34.9631,-1.64842
665,204,21.8292,1.51099,0,0,0,0,0,0,0,-1,1889,820,21.8292,-1.51099
672,204,42.9102,-0.324402,0,0,0,0,0,0,0,-1,1896,820,42.9101,0.324416
679,204,42.2332,0.164551,-0.00474537,-0.000883414,-0.00267337,0.000483427,-0.00611221,-1.09817,0.00424513,0.0393735,1903,820,42.2331,-0.164544
686,204,42.0859,0.833313,-0.00487552,-0.00096049,-0.00287904,0.000563481,-0.00639949,-1.08396,0.00446602,0.0196639,1910,820,42.0859,-0.833286
693,204,41.9862,1.48126,-0.00424127,-0.000963715,-0.00280651,0.000647442,-0.00585243,-1.04965,0.00413437,0.0174208,1917,820,41.9862,-1.48127
700,204,41.9902,2.12653,-0.00301566,-0.000550414,-0.00227505,0.000804471,-0.00437054,-1.03366,0.00321557,0.0178196,1924,820,41.9902,-2.12654
707,204,41.9678,2.79169,-0.00146348,8.01014e-05,-0.00128173,0.00080447,-0.00218785,-1.0564,0.0017881,0.0164136,1931,820,41.9678,-2.79169
714,204,41.943,3.50256,0.000457599,0.000910781,-8.64131e-05,0.000926699,0.000441681,-1.38863,0.000535225,0.0246798,1938,820,41.943,-3.50254
721,204,41.9353,4.07935,0.00248416,0.00191902,0.00119432,0.00342888,0.000974299,0.669235,0.00204023,0.0218922,1945,820,41.9353,-4.07937
728,204,41.9116,4.67786,0.00442502,0.00299613,0.00241738,0.00623132,0.00118983,0.641715,0.00381988,0.0133403,1952,820,41.9116,-4.67785
735,204,41.8486,5.34637,0.00631458,0.00424878,0.00373204,0.00915402,0.00140934,0.650394,0.00569136,0.0167152,1959,820,41.8487,-5.34636
742,204,41.8154,5.95117,0.00836635,0.00565119,0.00511913,0.0123049,0.00171268,0.655783,0.00769613,0.0332182,1966,820,41.8154,-5.95118
749,204,41.7839,6.716,0.0107054,0.00724364,0.00678399,0.0159758,0.00197319,0.660492,0.0100576,0.048758,1973,820,41.7839,-6.71598
756,204,41.7579,7.49725,0,0,0,0,0,0,0,-1,1980,820,41.7579,-7.49726
763,204,39.8257,7.0863,0,0,0,0,0,0,0,-1,1987,820,39.8256,-7.0863
770,204,39.7449,7.36835,0,0,0,0,0,0,0,-1,1994,820,39.7449,-7.36834
777,204,0,0,0,0,0,0,0,0,0,-1,2001,820,0,0
784,204,0,0,0,0,0,0,0,0,0,-1,2008,820,0,0
791,204,0,0,0,0,0,0,0,0,0,-1,2015,820,0,0
798,204,0,0,0,0,0,0,0,0,0,-1,2022,820,0,0
805,204,0,0,0,0,0,0,0,0,0,-1,2029,820,0,0
812,204,0,0,0,0,0,0,0,0,0,-1,2036,820,0,0
-700,197,0,0,0,0,0,0,0,0,0,-1,524,827,0,0
-693,197,0,0,0,0,0,0,0,0,0,-1,531,827,0,0
-686,197,0,0,0,0,0,0,0,0,0,-1,538,827,0,0
-679,197,0,0,0,0,0,0,0,0,0,-1,545,827,0,0
-672,197,0,0,0,0,0,0,0,0,0,-1,552,827,0,0
-665,197,0,0,0,0,0,0,0,0,0,-1,559,827,0,0
-658,197,-34.5739,5.17334,0,0,0,0,0,0,0,-1,566,827,-34.5738,-5.17337
-651,197,-34.4095,4.15332,0,0,0,0,0,0,0,-1,573,827,-34.4096,-4.15333
-644,197,-35.0823,3.64722,0,0,0,0,0,0,0,-1,580,827,-35.0823,-3.6472
-637,197,-27.6712,4.42389,0,0,0,0,0,0,0,-1,587,827,-27.6712,-4.42386
-630,197,-27.0933,4.53906,0,0,0,0,0,0,0,-1,594,827,-27.0933,-4.53909
-623,197,-29.9208,4.73871,0,0,0,0,0,0,0,-1,601,827,-29.9208,-4.73869
-616,197,-30.1515,3.95081,0,0,0,0,0,0,0,-1,608,827,-30.1515,-3.9508
-609,197,-30.2014,3.34155,0.00458192,-0.00198013,-0.00571643,0.007892,-0.00529021,-0.524871,0.00766001,0.0351131,615,827,-30.2014,-3.34156
-602,197,-30.2791,2.72156,0.00253746,9.48873e-05,-0.00376928,0.00527837,-0.00264603,-0.62873,0.00465854,0.019021,622,827,-30.2791,-2.72156
-595,197,-30.3355,2.12799,0.00127581,0.00107058,-0.0019685,0.00314437,-0.000797975,-0.759357,0.00240674,0.0190124,629,827,-30.3355,-2.128
-588,197,-30.3362,1.51135,0.000365944,0.00149314,-0.000289154,0.00156298,0.000296096,-1.33378,0.000958655,0.021649,636,827,-30.3362,-1.51137
-581,197,-30.3716,0.886108,-1.57937e-06,0.00115251,0.00113511,0.00184884,-0.0006979,1.02056,0.00151958,0.0121538,643,827,-30.3716,-0.886104
-574,197,-30.3828,0.280945,-4.05649e-05,0.000272088,0.00215434,0.00227577,-0.00204425,0.821616,0.00249536,0.0123875,650,827,-30.3827,-0.280974
-567,197,-30.3288,-0.308655,-0.000571638,-0.000357882,0.00260627,0.0021437,-0.00307322,0.805891,0.00302788,0.0155114,657,827,-30.3288,0.308633
-560,197,-30.2719,-0.92218,-0.00164826,-0.000806632,0.00290773,0.00171057,-0.00416547,0.857261,0.00348983,0.0301744,664,827,-30.2719,0.922208
-553,197,-30.8093,-1.38379,0,0,0,0,0,0,0,-1,671,827,-30.8094,1.38378
-546,197,-30.669,-1.89996,0,0,0,0,0,0,0,-1,678,827,-30.669,1.89996
-539,197,-30.5287,-2.41614,0,0,0,0,0,0,0,-1,685,827,-30.5287,2.41614
-532,197,-16.0519,0.0410156,0,0,0,0,0,0,0,-1,692,827,-16.0519,-0.0410415
-525,197,-35.3785,2.11829,0,0,0,0,0,0,0,-1,699,827,-35.3785,-2.11826
-518,197,-41.7284,0.916809,0,0,0,0,0,0,0,-1,706,827,-41.7284,-0.916816
-511,197,-41.7936,0.937195,0,0,0,0,0,0,0,-1,713,827,-41.7936,-0.937225
-504,197,-41.7567,1.30377,0,0,0,0,0,0,0,-1,720,827,-41.7566,-1.30374
-497,197,-42.02,0.994568,0.000398046,-0.00255523,0.00546727,0.00458458,-0.00674176,0.653502,0.00657868,0.0404698,727,827,-42.02,-0.99459
-490,197,-41.9904,1.05927,0.00424064,-0.00284711,0.00440851,0.00635309,-0.00495956,0.44685,0.00654786,0.037922,734,827,-41.9904,-1.05927
-483,197,-41.7634,1.27832,0.011663,-0.00361557,0.0014828,0.0118056,-0.00375815,0.095859,0.00937759,0.0409698,741,827,-41.7634,-1.27831
-476,197,0,0,0,0,0,0,0,0,0,-1,748,827,0,0
-469,197,0,0,0,0,0,0,0,0,0,-1,755,827,0,0
-462,197,0,0,0,0,0,0,0,0,0,-1,762,827,0,0
-455,197,0,0,0,0,0,0,0,0,0,-1,769,827,0,0
-448,197,0,0,0,0,0,0,0,0,0,-1,776,827,0,0
-441,197,0,0,0,0,0,0,0,0,0,-1,783,827,0,0
-434,197,0,0,0,0,0,0,0,0,0,-1,790,827,0,0
-427,197,0,0,0,0,0,0,0,0,0,-1,797,827,0,0
-420,197,0,0,0,0,0,0,0,0,0,-1,804,827,0,0
-413,197,0,0,0,0,0,0,0,0,0,-1,811,827,0,0
-406,197,0,0,0,0,0,0,0,0,0,-1,818,827,0,0
-399,197,0,0,0,0,0,0,0,0,0,-1,825,827,0,0
-392,197,0,0,0,0,0,0,0,0,0,-1,832,827,0,0
-385,197,0,0,0,0,0,0,0,0,0,-1,839,827,0,0
-378,197,0,0,0,0,0,0,0,0,0,-1,846,827,0,0
-371,197,0,0,0,0,0,0,0,0,0,-1,853,827,0,0
-364,197,0,0,0,0,0,0,0,0,0,-1,860,827,0,0
-357,197,0,0,0,0,0,0,0,0,0,-1,867,827,0,0
-350,197,0,0,0,0,0,0,0,0,0,-1,874,827,0,0
-343,197,0,0,0,0,0,0,0,0,0,-1,881,827,0,0
-336,197,0,0,0,0,0,0,0,0,0,-1,888,827,0,0
-329,197,0,0,0,0,0,0,0,0,0,-1,895,827,0,0
-322,197,0,0,0,0,0,0,0,0,0,-1,902,827,0,0
-315,197,0,0,0,0,0,0,0,0,0,-1,909,827,0,0
-308,197,0,0,0,0,0,0,0,0,0,-1,916,827,0,0
-301,197,0,0,0,0,0,0,0,0,0,-1,923,827,0,0
-294,197,0,0,0,0,0,0,0,0,0,-1,930,827,0,0
-287,197,0,0,0,0,0,0,0,0,0,-1,937,827,0,0
-280,197,0,0,0,0,0,0,0,0,0,-1,944,827,0,0
-273,197,0,0,0,0,0,0,0,0,0,-1,951,827,0,0
-266,197,0,0,0,0,0,0,0,0,0,-1,958,827,0,0
-259,197,0,0,0,0,0,0,0,0,0,-1,965,827,0,0
-252,197,0,0,0,0,0,0,0,0,0,-1,972,827,0,0
-245,197,0,0,0,0,0,0,0,0,0,-1,979,827,0,0
-238,197,0,0,0,0,0,0,0,0,0,-1,986,827,0,0
-231,197,0,0,0,0,0,0,0,0,0,-1,993,827,0,0
-224,197,0,0,0,0,0,0,0,0,0,-1,1000,827,0,0
-217,197,0,0,0,0,0,0,0,0,0,-1,1007,827,0,0
-210,197,0,0,0,0,0,0,0,0,0,-1,1014,827,0,0
-203,197,0,0,0,0,0,0,0,0,0,-1,1021,827,0,0
-196,197,0,0,0,0,0,0,0,0,0,-1,1028,827,0,0
-189,197,0,0,0,0,0,0,0,0,0,-1,1035,827,0,0
-182,197,0,0,0,0,0,0,0,0,0,-1,1042,827,0,0
-175,197,0,0,0,0,0,0,0,0,0,-1,1049,827,0,0
-168,197,0,0,0,0,0,0,0,0,0,-1,1056,827,0,0
-161,197,0,0,0,0,0,0,0,0,0,-1,1063,827,0,0
-154,197,0,0,0,0,0,0,0,0,0,-1,1070,827,0,0
-147,197,0,0,0,0,0,0,0,0,0,-1,1077,827,0,0
-140,197,0,0,0,0,0,0,0,0,0,-1,1084,827,0,0
-133,197,0,0,0,0,0,0,0,0,0,-1,1091,827,0,0
-126,197,0,0,0,0,0,0,0,0,0,-1,1098,827,0,0
-119,197,0,0,0,0,0,0,0,0,0,-1,1105,827,0,0
-112,197,0,0,0,0,0,0,0,0,0,-1,1112,827,0,0
-105,197,0,0,0,0,0,0,0,0,0,-1,1119,827,0,0
-98,197,0,0,0,0,0,0,0,0,0,-1,1126,827,0,0
-91,197,0,0,0,0,0,0,0,0,0,-1,1133,827,0,0
-84,197,0,0,0,0,0,0,0,0,0,-1,1140,827,0,0
-77,197,0,0,0,0,0,0,0,0,0,-1,1147,827,0,0
-70,197,0,0,0,0,0,0,0,0,0,-1,1154,827,0,0
-63,197,0,0,0,0,0,0,0,0,0,-1,1161,827,0,0
-56,197,0,0,0,0,0,0,0,0,0,-1,1168,827,0,0
-49,197,0,0,0,0,0,0,0,0,0,-1,1175,827,0,0
-42,197,0,0,0,0,0,0,0,0,0,-1,1182,827,0,0
-35,197,0,0,0,0,0,0,0,0,0,-1,1189,827,0,0
-28,197,0,0,0,0,0,0,0,0,0,-1,1196,827,0,0
-21,197,0,0,0,0,0,0,0,0,0,-1,1203,827,0,0
-14,197,0,0,0,0,0,0,0,0,0,-1,1210,827,0,0
-7,197,0,0,0,0,0,0,0,0,0,-1,1217,827,0,0
0,197,0,0,0,0,0,0,0,0,0,-1,1224,827,0,0
7,197,0,0,0,0,0,0,0,0,0,-1,1231,827,0,0
14,197,0,0,0,0,0,0,0,0,0,-1,1238,827,0,0
21,197,0,0,0,0,0,0,0,0,0,-1,1245,827,0,0
28,197,0,0,0,0,0,0,0,0,0,-1,1252,827,0,0
35,197,0,0,0,0,0,0,0,0,0,-1,1259,827,0,0
42,197,0,0,0,0,0,0,0,0,0,-1,1266,827,0,0
49,197,0,0,0,0,0,0,0,0,0,-1,1273,827,0,0
56,197,0,0,0,0,0,0,0,0,0,-1,1280,827,0,0
63,197,0,0,0,0,0,0,0,0,0,-1,1287,827,0,0
70,197,0,0,0,0,0,0,0,0,0,-1,1294,827,0,0
77,197,0,0,0,0,0,0,0,0,0,-1,1301,827,0,0
84,197,0,0,0,0,0,0,0,0,0,-1,1308,827,0,0
91,197,0,0,0,0,0,0,0,0,0,-1,1315,827,0,0
98,197,0,0,0,0,0,0,0,0,0,-1,1322,827,0,0
105,197,0,0,0,0,0,0,0,0,0,-1,1329,827,0,0
112,197,0,0,0,0,0,0,0,0,0,-1,1336,827,0,0
119,197,0,0,0,0,0,0,0,0,0,-1,1343,827,0,0
126,197,0,0,0,0,0,0,0,0,0,-1,1350,827,0,0
133,197,0,0,0,0,0,0,0,0,0,-1,1357,827,0,0
140,197,0,0,0,0,0,0,0,0,0,-1,1364,827,0,0
147,197,0,0,0,0,0,0,0,0,0,-1,1371,827,0,0
154,197,0,0,0,0,0,0,0,0,0,-1,1378,827,0,0
161,197,0,0,0,0,0,0,0,0,0,-1,1385,827,0,0
168,197,0,0,0,0,0,0,0,0,0,-1,1392,827,0,0
175,197,0,0,0,0,0,0,0,0,0,-1,1399,827,0,0
182,197,0,0,0,0,0,0,0,0,0,-1,1406,827,0,0
189,197,0,0,0,0,0,0,0,0,0,-1,1413,827,0,0
196,197,0,0,0,0,0,0,0,0,0,-1,1420,827,0,0
203,197,0,0,0,0,0,0,0,0,0,-1,1427,827,0,0
210,197,0,0,0,0,0,0,0,0,0,-1,1434,827,0,0
217,197,0,0,0,0,0,0,0,0,0,-1,1441,827,0,0
224,197,0,0,0,0,0,0,0,0,0,-1,1448,827,0,0
231,197,0,0,0,0,0,0,0,0,0,-1,1455,827,0,0
238,197,0,0,0,0,0,0,0,0,0,-1,1462,827,0,0
245,197,0,0,0,0,0,0,0,0,0,-1,1469,827,0,0
252,197,0,0,0,0,0,0,0,0,0,-1,1476,827,0,0
259,197,0,0,0,0,0,0,0,0,0,-1,1483,827,0,0
266,197,0,0,0,0,0,0,0,0,0,-1,1490,827,0,0
273,197,0,0,0,0,0,0,0,0,0,-1,1497,827,0,0
280,197,0,0,0,0,0,0,0,0,0,-1,1504,827,0,0
287,197,0,0,0,0,0,0,0,0,0,-1,1511,827,0,0
294,197,0,0,0,0,0,0,0,0,0,-1,1518,827,0,0
301,197,0,0,0,0,0,0,0,0,0,-1,1525,827,0,0
308,197,0,0,0,0,0,0,0,0,0,-1,1532,827,0,0
315,197,0,0,0,0,0,0,0,0,0,-1,1539,827,0,0
322,197,0,0,0,0,0,0,0,0,0,-1,1546,827,0,0
329,197,0,0,0,0,0,0,0,0,0,-1,1553,827,0,0
336,197,0,0,0,0,0,0,0,0,0,-1,1560,827,0,0
343,197,0,0,0,0,0,0,0,0,0,-1,1567,827,0,0
350,197,0,0,0,0,0,0,0,0,0,-1,1574,827,0,0
357,197,0,0,0,0,0,0,0,0,0,-1,1581,827,0,0
364,197,0,0,0,0,0,0,0,0,0,-1,1588,827,0,0
371,197,0,0,0,0,0,0,0,0,0,-1,1595,827,0,0
378,197,0,0,0,0,0,0,0,0,0,-1,1602,827,0,0
385,197,0,0,0,0,0,0,0,0,0,-1,1609,827,0,0
392,197,0,0,0,0,0,0,0,0,0,-1,1616,827,0,0
399,197,0,0,0,0,0,0,0,0,0,-1,1623,827,0,0
406,197,0,0,0,0,0,0,0,0,0,-1,1630,827,0,0
413,197,0,0,0,0,0,0,0,0,0,-1,1637,827,0,0
420,197,0,0,0,0,0,0,0,0,0,-1,1644,827,0,0
427,197,0,0,0,0,0,0,0,0,0,-1,1651,827,0,0
434,197,0,0,0,0,0,0,0,0,0,-1,1658,827,0,0
441,197,0,0,0,0,0,0,0,0,0,-1,1665,827,0,0
448,197,0,0,0,0,0,0,0,0,0,-1,1672,827,0,0
455,197,0,0,0,0,0,0,0,0,0,-1,1679,827,0,0
462,197,0,0,0,0,0,0,0,0,0,-1,1686,827,0,0
469,197,0,0,0,0,0,0,0,0,0,-1,1693,827,0,0
476,197,0,0,0,0,0,0,0,0,0,-1,1700,827,0,0
483,197,0,0,0,0,0,0,0,0,0,-1,1707,827,0,0
490,197,0,0,0,0,0,0,0,0,0,-1,1714,827,0,0
497,197,0,0,0,0,0,0,0,0,0,-1,1721,827,0,0
504,197,0,0,0,0,0,0,0,0,0,-1,1728,827,0,0
511,197,0,0,0,0,0,0,0,0,0,-1,1735,827,0,0
518,197,0,0,0,0,0,0,0,0,0,-1,1742,827,0,0
525,197,0,0,0,0,0,0,0,0,0,-1,1749,827,0,0
532,197,0,0,0,0,0,0,0,0,0,-1,1756,827,0,0
539,197,0,0,0,0,0,0,0,0,0,-1,1763,827,0,0
546,197,0,0,0,0,0,0,0,0,0,-1,1770,827,0,0
553,197,0,0,0,0,0,0,0,0,0,-1,1777,827,0,0
560,197,0,0,0,0,0,0,0,0,0,-1,1784,827,0,0
567,197,0,0,0,0,0,0,0,0,0,-1,1791,827,0,0
574,197,0,0,0,0,0,0,0,0,0,-1,1798,827,0,0
581,197,0,0,0,0,0,0,0,0,0,-1,1805,827,0,0
588,197,0,0,0,0,0,0,0,0,0,-1,1812,827,0,0
595,197,0,0,0,0,0,0,0,0,0,-1,1819,827,0,0
602,197,55.4659,2.71643,0.000605188,-0.00267517,-0.000998756,0.000885348,-0.00295533,-0.27348,0.00232229,0.0412819,1826,827,55.466,-2.71646
609,197,55.4113,2.86334,0.000172318,-0.00181313,-0.000346342,0.000230999,-0.00187181,-0.167839,0.00133157,0.0417992,1833,827,55.4112,-2.86332
616,197,55.3971,2.74249,-6.10116e-05,-0.000894128,0.000287663,2.86619e-05,-0.000983802,0.302185,0.000665627,0.0407149,1840,827,55.3971,-2.74247
623,197,55.3969,2.6402,-0.000698746,-0.000553488,0.000171066,-0.000440272,-0.000811963,0.98615,0.000469344,0.0374606,1847,827,55.3968,-2.64017
630,197,55.4586,2.67133,-0.00168474,-0.000295287,-0.000268847,-0.000245081,-0.00173494,-1.38618,0.00108421,0.0317166,1854,827,55.4586,-2.67132
637,197,55.4324,2.71973,-0.00252657,-0.000330268,-0.000844679,-4.29888e-05,-0.00281385,-1.24296,0.00186174,0.0277049,1861,827,55.4324,-2.71972
644,197,55.3645,2.79736,-0.00312384,-0.000457121,-0.0012831,5.9975e-05,-0.00364093,-1.1877,0.00244752,0.034314,1868,827,55.3644,-2.79735
651,197,55.2688,2.97693,0,0,0,0,0,0,0,-1,1875,827,55.2688,-2.9769
658,197,40.4694,3.05927,0,0,0,0,0,0,0,-1,1882,827,40.4694,-3.05926
665,197,14.0618,1.80304,0,0,0,0,0,0,0,-1,1889,827,14.0617,-1.80303
672,197,40.0977,-0.62207,0,0,0,0,0,0,0,-1,1896,827,40.0977,0.6221
679,197,42.6189,0.182068,0,0,0,0,0,0,0,-1,1903,827,42.6189,-0.18206
686,197,42.73,0.904541,-0.00464682,-0.00118625,-0.00277414,0.000352984,-0.00618605,-1.06424,0.00424659,0.0319279,1910,827,42.73,-0.904542
693,197,42.6588,1.58978,-0.00415995,-0.0012685,-0.00280324,0.000439866,-0.00586832,-1.02348,0.00406677,0.0200505,1917,827,42.6589,-1.58981
700,197,42.6379,2.18671,-0.0032064,-0.00095754,-0.00244393,0.000608226,-0.00477217,-1.001,0.00340236,0.0235543,1924,827,42.638,-2.1867
707,197,42.6416,2.81512,-0.00193683,-0.000365239,-0.00162973,0.000658249,-0.00296031,-1.01004,0.00222565,0.010329,1931,827,42.6416,-2.81513
714,197,42.6135,3.44562,-0.000167134,0.000527374,-0.00055788,0.000837247,-0.000477007,-1.06378,0.000768228,0.01204,1938,827,42.6135,-3.44565
721,197,42.583,4.06213,0.00177533,0.00173849,0.000640095,0.00239727,0.00111655,0.771015,0.00138515,0.0114182,1945,827,42.583,-4.06213
728,197,42.5341,4.69098,0.00368121,0.00313698,0.00182187,0.00525117,0.00156702,0.711267,0.00311282,0.0100834,1952,827,42.534,-4.69098
735,197,42.484,5.33398,0.00552232,0.00472151,0.00302459,0.00817289,0.00207094,0.719589,0.0049062,0.0112827,1959,827,42.484,-5.33395
742,197,42.4467,6.01849,0.00741206,0.00668139,0.00426179,0.0113241,0.0027693,0.742641,0.0068165,0.0202936,1966,827,42.4467,-6.01852
749,197,42.4515,6.82623,0.00943196,0.00917217,0.00572889,0.0150324,0.0035717,0.774063,0.00906861,0.0431809,1973,827,42.4515,-6.82624
756,197,42.4288,7.63605,0,0,0,0,0,0,0,-1,1980,827,42.4289,-7.63606
763,197,40.1951,7.57208,0,0,0,0,0,0,0,-1,1987,827,40.1951,-7.57207
770,197,40.1252,8.19623,0,0,0,0,0,0,0,-1,1994,827,40.1252,-8.1962
777,197,0,0,0,0,0,0,0,0,0,-1,2001,827,0,0
784,197,0,0,0,0,0,0,0,0,0,-1,2008,827,0,0
791,197,0,0,0,0,0,0,0,0,0,-1,2015,827,0,0
798,197,0,0,0,0,0,0,0,0,0,-1,2022,827,0,0
805,197,0,0,0,0,0,0,0,0,0,-1,2029,827,0,0
812,197,0,0,0,0,0,0,0,0,0,-1,2036,827,0,0
-700,190,0,0,0,0,0,0,0,0,0,-1,524,834,0,0
-693,190,0,0,0,0,0,0,0,0,0,-1,531,834,0,0
-686,190,0,0,0,0,0,0,0,0,0,-1,538,834,0,0
-679,190,0,0,0,0,0,0,0,0,0,-1,545,834,0,0
-672,190,0,0,0,0,0,0,0,0,0,-1,552,834,0,0
-665,190,0,0,0,0,0,0,0,0,0,-1,559,834,0,0
-658,190,-34.7194,5.09772,0,0,0,0,0,0,0,-1,566,834,-34.7194,-5.09772
-651,190,-34.6227,4.48425,0,0,0,0,0,0,0,-1,573,834,-34.6227,-4.48426
-644,190,-30.2181,8.39307,0,0,0,0,0,0,0,-1,580,834,-30.2181,-8.39308
-637,190,-31.0716,6.08862,0,0,0,0,0,0,0,-1,587,834,-31.0716,-6.08862
-630,190,-30.4207,6.19299,0,0,0,0,0,0,0,-1,594,834,-30.4207,-6.19301
-623,190,-30.5741,4.73462,0,0,0,0,0,0,0,-1,601,834,-30.5741,-4.7346
-616,190,-30.864,3.81409,0,0,0,0,0,0,0,-1,608,834,-30.864,-3.81407
-609,190,-30.8077,3.29205,0.00461759,-0.00243255,-0.0045916,0.00688121,-0.00469616,-0.458024,0.00672376,0.0266748,615,834,-30.8077,-3.29203
-602,190,-30.9064,2.75922,0.00243646,-0.000298998,-0.0025653,0.00397586,-0.0018384,-0.540485,0.00343165,0.0171038,622,834,-30.9065,-2.75922
-595,190,-30.9516,2.13599,0.00110791,0.000769096,-0.000716398,0.00167466,0.000202348,-0.669295,0.00105548,0.018547,629,834,-30.9516,-2.13598
-588,190,-30.9677,1.52936,0.000270461,0.00128239,0.000931826,0.00183675,-0.000283905,1.03412,0.00132928,0.0192417,636,834,-30.9676,-1.52938
-581,190,-30.9781,0.920776,3.60076e-05,0.00107574,0.00221408,0.00283016,-0.00171842,0.900709,0.00265214,0.0134198,643,834,-30.9781,-0.920806
-574,190,-30.9885,0.306396,0.000139798,0.000409267,0.00295053,0.00322814,-0.00267907,0.808215,0.00341543,0.0117282,650,834,-30.9885,-0.306406
-567,190,-30.893,-0.36731,-0.000315539,1.16743e-05,0.00304939,0.00290184,-0.00320571,0.812199,0.00352765,0.0254812,657,834,-30.893,0.367308
-560,190,-30.9644,-0.891846,-0.00134615,-0.000289389,0.00310066,0.00232759,-0.00396312,0.869792,0.00367263,0.0481679,664,834,-30.9644,0.891847
-553,190,-31.5254,-1.50446,0,0,0,0,0,0,0,-1,671,834,-31.5254,1.50443
-546,190,-31.2972,-1.88251,0,0,0,0,0,0,0,-1,678,834,-31.2971,1.88252
-539,190,-16.4624,-0.542542,0,0,0,0,0,0,0,-1,685,834,-16.4624,0.542527
-532,190,-21.6292,2.06122,0,0,0,0,0,0,0,-1,692,834,-21.6292,-2.06123
-525,190,-38.9377,1.03369,0,0,0,0,0,0,0,-1,699,834,-38.9377,-1.0337
-518,190,-41.5938,1.16797,0,0,0,0,0,0,0,-1,706,834,-41.5938,-1.16799
-511,190,-41.8908,0.806213,-0.00233927,-0.00144504,0.00468144,0.00281059,-0.0065949,0.833008,0.00557485,0.0441033,713,834,-41.8908,-0.806241
-504,190,-42.1575,1.09009,-0.000869512,-0.00155813,0.00494563,0.00374378,-0.00617142,0.750645,0.00578145,0.0428279,720,834,-42.1575,-1.0901
-497,190,-42.2834,1.29169,0.00239821,-0.00179865,0.00466933,0.00541897,-0.0048194,0.574218,0.0059145,0.0445478,727,834,-42.2835,-1.29171
-490,190,-41.8477,1.1449,0.00763046,-0.00241817,0.00347681,0.00871613,-0.00350385,0.302667,0.00726599,0.0437228,734,834,-41.8477,-1.14489
-483,190,0,0,0,0,0,0,0,0,0,-1,741,834,0,0
-476,190,0,0,0,0,0,0,0,0,0,-1,748,834,0,0
-469,190,0,0,0,0,0,0,0,0,0,-1,755,834,0,0
-462,190,0,0,0,0,0,0,0,0,0,-1,762,834,0,0
-455,190,0,0,0,0,0,0,0,0,0,-1,769,834,0,0
-448,190,0,0,0,0,0,0,0,0,0,-1,776,834,0,0
-441,190,0,0,0,0,0,0,0,0,0,-1,783,834,0,0
-434,190,0,0,0,0,0,0,0,0,0,-1,790,834,0,0
-427,190,0,0,0,0,0,0,0,0,0,-1,797,834,0,0
-420,190,0,0,0,0,0,0,0,0,0,-1,804,834,0,0
-413,190,0,0,0,0,0,0,0,0,0,-1,811,834,0,0
-406,190,0,0,0,0,0,0,0,0,0,-1,818,834,0,0
-399,190,0,0,0,0,0,0,0,0,0,-1,825,834,0,0
-392,190,0,0,0,0,0,0,0,0,0,-1,832,834,0,0
-385,190,0,0,0,0,0,0,0,0,0,-1,839,834,0,0
-378,190,0,0,0,0,0,0,0,0,0,-1,846,834,0,0
-371,190,0,0,0,0,0,0,0,0,0,-1,853,834,0,0
-364,190,0,0,0,0,0,0,0,0,0,-1,860,834,0,0
-357,190,0,0,0,0,0,0,0,0,0,-1,867,834,0,0
-350,190,0,0,0,0,0,0,0,0,0,-1,874,834,0,0
-343,190,0,0,0,0,0,0,0,0,0,-1,881,834,0,0
-336,190,0,0,0,0,0,0,0,0,0,-1,888,834,0,0
-329,190,0,0,0,0,0,0,0,0,0,-1,895,834,0,0
-322,190,0,0,0,0,0,0,0,0,0,-1,902,834,0,0
-315,190,0,0,0,0,0,0,0,0,0,-1,909,834,0,0
-308,190,0,0,0,0,0,0,0,0,0,-1,916,834,0,0
-301,190,0,0,0,0,0,0,0,0,0,-1,923,834,0,0
-294,190,0,0,0,0,0,0,0,0,0,-1,930,834,0,0
-287,190,0,0,0,0,0,0,0,0,0,-1,937,834,0,0
-280,190,0,0,0,0,0,0,0,0,0,-1,944,834,0,0
-273,190,0,0,0,0,0,0,0,0,0,-1,951,834,0,0
-266,190,0,0,0,0,0,0,0,0,0,-1,958,834,0,0
-259,190,0,0,0,0,0,0,0,0,0,-1,965,834,0,0
-252,190,0,0,0,0,0,0,0,0,0,-1,972,834,0,0
-245,190,0,0,0,0,0,0,0,0,0,-1,979,834,0,0
-238,190,0,0,0,0,0,0,0,0,0,-1,986,834,0,0
-231,190,0,0,0,0,0,0,0,0,0,-1,993,834,0,0
-224,190,0,0,0,0,0,0,0,0,0,-1,1000,834,0,0
-217,190,0,0,0,0,0,0,0,0,0,-1,1007,834,0,0
-210,190,0,0,0,0,0,0,0,0,0,-1,1014,834,0,0
-203,190,0,0,0,0,0,0,0,0,0,-1,1021,834,0,0
-196,190,0,0,0,0,0,0,0,0,0,-1,1028,834,0,0
-189,190,0,0,0,0,0,0,0,0,0,-1,1035,834,0,0
-182,190,0,0,0,0,0,0,0,0,0,-1,1042,834,0,0
-175,190,0,0,0,0,0,0,0,0,0,-1,1049,834,0,0
-168,190,0,0,0,0,0,0,0,0,0,-1,1056,834,0,0
-161,190,0,0,0,0,0,0,0,0,0,-1,1063,834,0,0
-154,190,0,0,0,0,0,0,0,0,0,-1,1070,834,0,0
-147,190,0,0,0,0,0,0,0,0,0,-1,1077,834,0,0
-140,190,0,0,0,0,0,0,0,0,0,-1,1084,834,0,0
-133,190,0,0,0,0,0,0,0,0,0,-1,1091,834,0,0
-126,190,0,0,0,0,0,0,0,0,0,-1,1098,834,0,0
-119,190,0,0,0,0,0,0,0,0,0,-1,1105,834,0,0
-112,190,0,0,0,0,0,0,0,0,0,-1,1112,834,0,0
-105,190,0,0,0,0,0,0,0,0,0,-1,1119,834,0,0
-98,190,0,0,0,0,0,0,0,0,0,-1,1126,834,0,0
-91,190,0,0,0,0,0,0,0,0,0,-1,1133,834,0,0
-84,190,0,0,0,0,0,0,0,0,0,-1,1140,834,0,0
-77,190,0,0,0,0,0,0,0,0,0,-1,1147,834,0,0
-70,190,0,0,0,0,0,0,0,0,0,-1,1154,834,0,0
-63,190,0,0,0,0,0,0,0,0,0,-1,1161,834,0,0
-56,190,0,0,0,0,0,0,0,0,0,-1,1168,834,0,0
-49,190,0,0,0,0,0,0,0,0,0,-1,1175,834,0,0
-42,190,0,0,0,0,0,0,0,0,0,-1,1182,834,0,0
-35,190,0,0,0,0,0,0,0,0,0,-1,1189,834,0,0
-28,190,0,0,0,0,0,0,0,0,0,-1,1196,834,0,0
-21,190,0,0,0,0,0,0,0,0,0,-1,1203,834,0,0
-14,190,0,0,0,0,0,0,0,0,0,-1,1210,834,0,0
-7,190,0,0,0,0,0,0,0,0,0,-1,1217,834,0,0
0,190,0,0,0,0,0,0,0,0,0,-1,1224,834,0,0
7,190,0,0,0,0,0,0,0,0,0,-1,1231,834,0,0
14,190,0,0,0,0,0,0,0,0,0,-1,1238,834,0,0
21,190,0,0,0,0,0,0,0,0,0,-1,1245,834,0,0
28,190,0,0,0,0,0,0,0,0,0,-1,1252,834,0,0
35,190,0,0,0,0,0,0,0,0,0,-1,1259,834,0,0
42,190,0,0,0,0,0,0,0,0,0,-1,1266,834,0,0
49,190,0,0,0,0,0,0,0,0,0,-1,1273,834,0,0
56,190,0,0,0,0,0,0,0,0,0,-1,1280,834,0,0
63,190,0,0,0,0,0,0,0,0,0,-1,1287,834,0,0
70,190,0,0,0,0,0,0,0,0,0,-1,1294,834,0,0
77,190,0,0,0,0,0,0,0,0,0,-1,1301,834,0,0
84,190,0,0,0,0,0,0,0,0,0,-1,1308,834,0,0
91,190,0,0,0,0,0,0,0,0,0,-1,1315,834,0,0
98,190,0,0,0,0,0,0,0,0,0,-1,1322,834,0,0
105,190,0,0,0,0,0,0,0,0,0,-1,1329,834,0,0
112,190,0,0,0,0,0,0,0,0,0,-1,1336,834,0,0
119,190,0,0,0,0,0,0,0,0,0,-1,1343,834,0,0
126,190,0,0,0,0,0,0,0,0,0,-1,1350,834,0,0
133,190,0,0,0,0,0,0,0,0,0,-1,1357,834,0,0
140,190,0,0,0,0,0,0,0,0,0,-1,1364,834,0,0
147,190,0,0,0,0,0,0,0,0,0,-1,1371,834,0,0
154,190,0,0,0,0,0,0,0,0,0,-1,1378,834,0,0
161,190,0,0,0,0,0,0,0,0,0,-1,1385,834,0,0
168,190,0,0,0,0,0,0,0,0,0,-1,1392,834,0,0
175,190,0,0,0,0,0,0,0,0,0,-1,1399,834,0,0
182,190,0,0,0,0,0,0,0,0,0,-1,1406,834,0,0
189,190,0,0,0,0,0,0,0,0,0,-1,1413,834,0,0
196,190,0,0,0,0,0,0,0,0,0,-1,1420,834,0,0
203,190,0,0,0,0,0,0,0,0,0,-1,1427,834,0,0
210,190,0,0,0,0,0,0,0,0,0,-1,1434,834,0,0
217,190,0,0,0,0,0,0,0,0,0,-1,1441,834,0,0
224,190,0,0,0,0,0,0,0,0,0,-1,1448,834,0,0
231,190,0,0,0,0,0,0,0,0,0,-1,1455,834,0,0
238,190,0,0,0,0,0,0,0,0,0,-1,1462,834,0,0
245,190,0,0,0,0,0,0,0,0,0,-1,1469,834,0,0
252,190,0,0,0,0,0,0,0,0,0,-1,1476,834,0,0
259,190,0,0,0,0,0,0,0,0,0,-1,1483,834,0,0
266,190,0,0,0,0,0,0,0,0,0,-1,1490,834,0,0
273,190,0,0,0,0,0,0,0,0,0,-1,1497,834,0,0
280,190,0,0,0,0,0,0,0,0,0,-1,1504,834,0,0
287,190,0,0,0,0,0,0,0,0,0,-1,1511,834,0,0
294,190,0,0,0,0,0,0,0,0,0,-1,1518,834,0,0
301,190,0,0,0,0,0,0,0,0,0,-1,1525,834,0,0
308,190,0,0,0,0,0,0,0,0,0,-1,1532,834,0,0
315,190,0,0,0,0,0,0,0,0,0,-1,1539,834,0,0
322,190,0,0,0,0,0,0,0,0,0,-1,1546,834,0,0
329,190,0,0,0,0,0,0,0,0,0,-1,1553,834,0,0
336,190,0,0,0,0,0,0,0,0,0,-1,1560,834,0,0
343,190,0,0,0,0,0,0,0,0,0,-1,1567,834,0,0
350,190,0,0,0,0,0,0,0,0,0,-1,1574,834,0,0
357,190,0,0,0,0,0,0,0,0,0,-1,1581,834,0,0
364,190,0,0,0,0,0,0,0,0,0,-1,1588,834,0,0
371,190,0,0,0,0,0,0,0,0,0,-1,1595,834,0,0
378,190,0,0,0,0,0,0,0,0,0,-1,1602,834,0,0
385,190,0,0,0,0,0,0,0,0,0,-1,1609,834,0,0
392,190,0,0,0,0,0,0,0,0,0,-1,1616,834,0,0
399,190,0,0,0,0,0,0,0,0,0,-1,1623,834,0,0
406,190,0,0,0,0,0,0,0,0,0,-1,1630,834,0,0
413,190,0,0,0,0,0,0,0,0,0,-1,1637,834,0,0
420,190,0,0,0,0,0,0,0,0,0,-1,1644,834,0,0
427,190,0,0,0,0,0,0,0,0,0,-1,1651,834,0,0
434,190,0,0,0,0,0,0,0,0,0,-1,1658,834,0,0
441,190,0,0,0,0,0,0,0,0,0,-1,1665,834,0,0
448,190,0,0,0,0,0,0,0,0,0,-1,1672,834,0,0
455,190,0,0,0,0,0,0,0,0,0,-1,1679,834,0,0
462,190,0,0,0,0,0,0,0,0,0,-1,1686,834,0,0
469,190,0,0,0,0,0,0,0,0,0,-1,1693,834,0,0
476,190,0,0,0,0,0,0,0,0,0,-1,1700,834,0,0
483,190,0,0,0,0,0,0,0,0,0,-1,1707,834,0,0
490,190,0,0,0,0,0,0,0,0,0,-1,1714,834,0,0
497,190,0,0,0,0,0,0,0,0,0,-1,1721,834,0,0
504,190,0,0,0,0,0,0,0,0,0,-1,1728,834,0,0
511,190,0,0,0,0,0,0,0,0,0,-1,1735,834,0,0
518,190,0,0,0,0,0,0,0,0,0,-1,1742,834,0,0
525,190,0,0,0,0,0,0,0,0,0,-1,1749,834,0,0
532,190,0,0,0,0,0,0,0,0,0,-1,1756,834,0,0
539,190,0,0,0,0,0,0,0,0,0,-1,1763,834,0,0
546,190,0,0,0,0,0,0,0,0,0,-1,1770,834,0,0
553,190,0,0,0,0,0,0,0,0,0,-1,1777,834,0,0
560,190,0,0,0,0,0,0,0,0,0,-1,1784,834,0,0
567,190,0,0,0,0,0,0,0,0,0,-1,1791,834,0,0
574,190,0,0,0,0,0,0,0,0,0,-1,1798,834,0,0
581,190,0,0,0,0,0,0,0,0,0,-1,1805,834,0,0
588,190,0,0,0,0,0,0,0,0,0,-1,1812,834,0,0
595,190,0,0,0,0,0,0,0,0,0,-1,1819,834,0,0
602,190,55.5092,2.95667,0.00103716,-0.0034988,-0.00134948,0.00140828,-0.00386991,-0.268372,0.0031559,0.0439439,1826,834,55.5092,-2.95669
609,190,55.4703,3.02264,0.000849644,-0.00233688,-0.000812303,0.00104477,-0.002532,-0.235743,0.00212372,0.0406282,1833,834,55.4704,-3.02266
616,190,55.4515,2.89154,0.000699078,-0.00112371,-0.000216307,0.000724395,-0.00114903,-0.116512,0.00109084,0.0385163,1840,834,55.4516,-2.89152
623,190,55.428,2.74957,8.43532e-05,-0.000550158,-0.000116821,0.000105178,-0.000570983,-0.176408,0.000420126,0.0391978,1847,834,55.428,-2.74959
630,190,55.467,2.59058,-0.00105723,-0.000232276,-0.000418451,-5.71836e-05,-0.00123233,-1.1745,0.000803169,0.0411293,1854,834,55.467,-2.59058
637,190,55.4237,2.70746,-0.00212012,-0.000279217,-0.000927043,0.000106716,-0.00250605,-1.17631,0.00170738,0.0326712,1861,834,55.4237,-2.70746
644,190,55.3601,2.8316,-0.00287427,-0.000489155,-0.00133528,0.000108588,-0.00347201,-1.1499,0.0023517,0.0284494,1868,834,55.3601,-2.83163
651,190,55.3325,3.02679,0,0,0,0,0,0,0,-1,1875,834,55.3325,-3.0268
658,190,54.0599,3.0943,0,0,0,0,0,0,0,-1,1882,834,54.0599,-3.09428
665,190,25.9916,3.05157,0,0,0,0,0,0,0,-1,1889,834,25.9916,-3.05156
672,190,27.2662,1.70862,0,0,0,0,0,0,0,-1,1896,834,27.2662,-1.70861
679,190,43.3632,0.472351,0,0,0,0,0,0,0,-1,1903,834,43.3631,-0.47236
686,190,43.3453,1.0318,-0.0045545,-0.00126912,-0.00264152,0.000198828,-0.00602244,-1.06357,0.00408285,0.0273886,1910,834,43.3453,-1.03181
693,190,43.3971,1.62372,-0.0041346,-0.00135062,-0.0027214,0.000314128,-0.00579935,-1.0218,0.00397508,0.0219325,1917,834,43.397,-1.62371
700,190,43.2598,2.20184,-0.00337594,-0.00109849,-0.00251514,0.000523699,-0.00499813,-0.997967,0.00351966,0.0147012,1924,834,43.2597,-2.20185
707,190,43.2689,2.83612,-0.00237918,-0.00054968,-0.00191741,0.000660008,-0.00358887,-1.00797,0.00264023,0.0136176,1931,834,43.2689,-2.83613
714,190,43.2499,3.44269,-0.000794597,0.000352007,-0.00100928,0.000939451,-0.00138204,-1.04369,0.00134841,0.0119441,1938,834,43.2498,-3.4427
721,190,43.2223,4.07367,0.0010134,0.00162165,4.86486e-05,0.00162552,0.00100953,1.49149,0.000947618,0.0106351,1945,834,43.2223,-4.07369
728,190,43.1759,4.69946,0.00283897,0.00316899,0.00114374,0.00415956,0.0018484,0.85704,0.00240647,0.0129759,1952,834,43.1759,-4.69947
735,190,43.1444,5.30823,0.0046094,0.00491967,0.0022323,0.00700222,0.00252685,0.82009,0.00409458,0.0125014,1959,834,43.1444,-5.30825
742,190,43.099,6.00909,0.00635679,0.00710738,0.00332925,0.0100824,0.00338175,0.841525,0.00592528,0.0164382,1966,834,43.099,-6.00909
749,190,43.129,6.94604,0,0,0,0,0,0,0,-1,1973,834,43.129,-6.94603
756,190,42.8949,7.35834,0,0,0,0,0,0,0,-1,1980,834,42.8949,-7.35836
763,190,41.8417,8.34167,0,0,0,0,0,0,0,-1,1987,834,41.8417,-8.34168
770,190,39.8972,7.38257,0,0,0,0,0,0,0,-1,1994,834,39.8972,-7.38259
777,190,40.5735,6.99371,0,0,0,0,0,0,0,-1,2001,834,40.5735,-6.99373
784,190,0,0,0,0,0,0,0,0,0,-1,2008,834,0,0
791,190,0,0,0,0,0,0,0,0,0,-1,2015,834,0,0
798,190,0,0,0,0,0,0,0,0,0,-1,2022,834,0,0
805,190,0,0,0,0,0,0,0,0,0,-1,2029,834,0,0
812,190,0,0,0,0,0,0,0,0,0,-1,2036,834,0,0
-700,183,0,0,0,0,0,0,0,0,0,-1,524,841,0,0
-693,183,0,0,0,0,0,0,0,0,0,-1,531,841,0,0
-686,183,0,0,0,0,0,0,0,0,0,-1,538,841,0,0
-679,183,0,0,0,0,0,0,0,0,0,-1,545,841,0,0
-672,183,0,0,0,0,0,0,0,0,0,-1,552,841,0,0
-665,183,0,0,0,0,0,0,0,0,0,-1,559,841,0,0
-658,183,-35.7355,6.94122,0,0,0,0,0,0,0,-1,566,841,-35.7355,-6.94119
-651,183,-30.6476,8.90436,0,0,0,0,0,0,0,-1,573,841,-30.6476,-8.90438
-644,183,-31.9543,7.26135,0,0,0,0,0,0,0,-1,580,841,-31.9544,-7.26134
-637,183,-31.6972,6.39203,0,0,0,0,0,0,0,-1,587,841,-31.6972,-6.39201
-630,183,-31.4366,5.52637,0,0,0,0,0,0,0,-1,594,841,-31.4366,-5.52638
-623,183,-31.4099,4.62415,0,0,0,0,0,0,0,-1,601,841,-31.4099,-4.62416
-616,183,-31.4849,3.88904,0.00858686,-0.00604814,-0.00630741,0.0109301,-0.00839134,-0.355699,0.0111873,0.0424142,608,841,-31.4848,-3.88905
-609,183,-31.4764,3.35162,0.00468184,-0.00260206,-0.00383025,0.00632521,-0.00424544,-0.405297,0.00614221,0.0185046,615,841,-31.4765,-3.35165
-602,183,-31.522,2.73877,0.00224015,-0.00049017,-0.00168989,0.0030474,-0.00129742,-0.445646,0.00257541,0.0114392,622,841,-31.522,-2.73877
-595,183,-31.5534,2.13489,0.000708985,0.000603371,0.000240416,0.000902325,0.00041003,0.67729,0.000521679,0.0111623,629,841,-31.5534,-2.13487
-588,183,-31.5546,1.53571,-0.000145004,0.00112743,0.00184248,0.00244045,-0.00145802,0.951641,0.00227448,0.0137493,636,841,-31.5546,-1.5357
-581,183,-31.5964,0.944214,-0.000276778,0.00101853,0.00293384,0.00337535,-0.0026336,0.894032,0.00347806,0.0145275,643,841,-31.5964,-0.944232
-574,183,-31.5984,0.367981,-3.46161e-05,0.000529343,0.00340104,0.00366007,-0.00316535,0.826759,0.00394411,0.0157705,650,841,-31.5984,-0.368004
-567,183,-31.4819,-0.431763,0,0,0,0,0,0,0,-1,657,841,-31.4819,0.431777
-560,183,-31.6335,-0.959595,0,0,0,0,0,0,0,-1,664,841,-31.6335,0.959606
-553,183,-31.2349,-1.42444,0,0,0,0,0,0,0,-1,671,841,-31.2349,1.42445
-546,183,-27.8053,-1.91199,0,0,0,0,0,0,0,-1,678,841,-27.8053,1.91201
-539,183,-16.8032,-0.417297,0,0,0,0,0,0,0,-1,685,841,-16.8032,0.41732
-532,183,-29.9686,0.953613,0,0,0,0,0,0,0,-1,692,841,-29.9686,-0.953627
-525,183,-41.4857,1.3316,0,0,0,0,0,0,0,-1,699,841,-41.4857,-1.33159
-518,183,-41.7183,1.02936,-0.00216893,-0.000758228,0.0039319,0.00253109,-0.00545825,0.87415,0.00471471,0.0483781,706,841,-41.7183,-1.02939
-511,183,-41.9512,0.769287,-0.00184936,-0.00109089,0.00414624,0.00269342,-0.00563367,0.831003,0.00490653,0.0399124,713,841,-41.9512,-0.769293
-504,183,-42.325,1.00952,0.00014568,-0.00118587,0.00437789,0.00390813,-0.00494832,0.709938,0.00512502,0.0388819,720,841,-42.325,-1.0095
-497,183,-42.5215,1.35107,0,0,0,0,0,0,0,-1,727,841,-42.5215,-1.3511
-490,183,-41.6749,1.01538,0,0,0,0,0,0,0,-1,734,841,-41.6749,-1.01538
-483,183,0,0,0,0,0,0,0,0,0,-1,741,841,0,0
-476,183,0,0,0,0,0,0,0,0,0,-1,748,841,0,0
-469,183,0,0,0,0,0,0,0,0,0,-1,755,841,0,0
-462,183,0,0,0,0,0,0,0,0,0,-1,762,841,0,0
-455,183,0,0,0,0,0,0,0,0,0,-1,769,841,0,0
-448,183,0,0,0,0,0,0,0,0,0,-1,776,841,0,0
-441,183,0,0,0,0,0,0,0,0,0,-1,783,841,0,0
-434,183,0,0,0,0,0,0,0,0,0,-1,790,841,0,0
-427,183,0,0,0,0,0,0,0,0,0,-1,797,841,0,0
-420,183,0,0,0,0,0,0,0,0,0,-1,804,841,0,0
-413,183,0,0,0,0,0,0,0,0,0,-1,811,841,0,0
-406,183,0,0,0,0,0,0,0,0,0,-1,818,841,0,0
-399,183,0,0,0,0,0,0,0,0,0,-1,825,841,0,0
-392,183,0,0,0,0,0,0,0,0,0,-1,832,841,0,0
-385,183,0,0,0,0,0,0,0,0,0,-1,839,841,0,0
-378,183,0,0,0,0,0,0,0,0,0,-1,846,841,0,0
-371,183,0,0,0,0,0,0,0,0,0,-1,853,841,0,0
-364,183,0,0,0,0,0,0,0,0,0,-1,860,841,0,0
-357,183,0,0,0,0,0,0,0,0,0,-1,867,841,0,0
-350,183,0,0,0,0,0,0,0,0,0,-1,874,841,0,0
-343,183,0,0,0,0,0,0,0,0,0,-1,881,841,0,0
-336,183,0,0,0,0,0,0,0,0,0,-1,888,841,0,0
-329,183,0,0,0,0,0,0,0,0,0,-1,895,841,0,0
-322,183,0,0,0,0,0,0,0,0,0,-1,902,841,0,0
-315,183,0,0,0,0,0,0,0,0,0,-1,909,841,0,0
-308,183,0,0,0,0,0,0,0,0,0,-1,916,841,0,0
-301,183,0,0,0,0,0,0,0,0,0,-1,923,841,0,0
-294,183,0,0,0,0,0,0,0,0,0,-1,930,841,0,0
-287,183,0,0,0,0,0,0,0,0,0,-1,937,841,0,0
-280,183,0,0,0,0,0,0,0,0,0,-1,944,841,0,0
-273,183,0,0,0,0,0,0,0,0,0,-1,951,841,0,0
-266,183,0,0,0,0,0,0,0,0,0,-1,958,841,0,0
-259,183,0,0,0,0,0,0,0,0,0,-1,965,841,0,0
-252,183,0,0,0,0,0,0,0,0,0,-1,972,841,0,0
-245,183,0,0,0,0,0,0,0,0,0,-1,979,841,0,0
-238,183,0,0,0,0,0,0,0,0,0,-1,986,841,0,0
-231,183,0,0,0,0,0,0,0,0,0,-1,993,841,0,0
-224,183,0,0,0,0,0,0,0,0,0,-1,1000,841,0,0
-217,183,0,0,0,0,0,0,0,0,0,-1,1007,841,0,0
-210,183,0,0,0,0,0,0,0,0,0,-1,1014,841,0,0
-203,183,0,0,0,0,0,0,0,0,0,-1,1021,841,0,0
-196,183,0,0,0,0,0,0,0,0,0,-1,1028,841,0,0
-189,183,0,0,0,0,0,0,0,0,0,-1,1035,841,0,0
-182,183,0,0,0,0,0,0,0,0,0,-1,1042,841,0,0
-175,183,0,0,0,0,0,0,0,0,0,-1,1049,841,0,0
-168,183,0,0,0,0,0,0,0,0,0,-1,1056,841,0,0
-161,183,0,0,0,0,0,0,0,0,0,-1,1063,841,0,0
-154,183,0,0,0,0,0,0,0,0,0,-1,1070,841,0,0
-147,183,0,0,0,0,0,0,0,0,0,-1,1077,841,0,0
-140,183,0,0,0,0,0,0,0,0,0,-1,1084,841,0,0
-133,183,0,0,0,0,0,0,0,0,0,-1,1091,841,0,0
-126,183,0,0,0,0,0,0,0,0,0,-1,1098,841,0,0
-119,183,0,0,0,0,0,0,0,0,0,-1,1105,841,0,0
-112,183,0,0,0,0,0,0,0,0,0,-1,1112,841,0,0
-105,183,0,0,0,0,0,0,0,0,0,-1,1119,841,0,0
-98,183,0,0,0,0,0,0,0,0,0,-1,1126,841,0,0
-91,183,0,0,0,0,0,0,0,0,0,-1,1133,841,0,0
-84,183,0,0,0,0,0,0,0,0,0,-1,1140,841,0,0
-77,183,0,0,0,0,0,0,0,0,0,-1,1147,841,0,0
-70,183,0,0,0,0,0,0,0,0,0,-1,1154,841,0,0
-63,183,0,0,0,0,0,0,0,0,0,-1,1161,841,0,0
-56,183,0,0,0,0,0,0,0,0,0,-1,1168,841,0,0
-49,183,0,0,0,0,0,0,0,0,0,-1,1175,841,0,0
-42,183,0,0,0,0,0,0,0,0,0,-1,1182,841,0,0
-35,183,0,0,0,0,0,0,0,0,0,-1,1189,841,0,0
-28,183,0,0,0,0,0,0,0,0,0,-1,1196,841,0,0
-21,183,0,0,0,0,0,0,0,0,0,-1,1203,841,0,0
-14,183,0,0,0,0,0,0,0,0,0,-1,1210,841,0,0
-7,183,0,0,0,0,0,0,0,0,0,-1,1217,841,0,0
0,183,0,0,0,0,0,0,0,0,0,-1,1224,841,0,0
7,183,0,0,0,0,0,0,0,0,0,-1,1231,841,0,0
14,183,0,0,0,0,0,0,0,0,0,-1,1238,841,0,0
21,183,0,0,0,0,0,0,0,0,0,-1,1245,841,0,0
28,183,0,0,0,0,0,0,0,0,0,-1,1252,841,0,0
35,183,0,0,0,0,0,0,0,0,0,-1,1259,841,0,0
42,183,0,0,0,0,0,0,0,0,0,-1,1266,841,0,0
49,183,0,0,0,0,0,0,0,0,0,-1,1273,841,0,0
56,183,0,0,0,0,0,0,0,0,0,-1,1280,841,0,0
63,183,0,0,0,0,0,0,0,0,0,-1,1287,841,0,0
70,183,0,0,0,0,0,0,0,0,0,-1,1294,841,0,0
77,183,0,0,0,0,0,0,0,0,0,-1,1301,841,0,0
84,183,0,0,0,0,0,0,0,0,0,-1,1308,841,0,0
91,183,0,0,0,0,0,0,0,0,0,-1,1315,841,0,0
98,183,0,0,0,0,0,0,0,0,0,-1,1322,841,0,0
105,183,0,0,0,0,0,0,0,0,0,-1,1329,841,0,0
112,183,0,0,0,0,0,0,0,0,0,-1,1336,841,0,0
119,183,0,0,0,0,0,0,0,0,0,-1,1343,841,0,0
126,183,0,0,0,0,0,0,0,0,0,-1,1350,841,0,0
133,183,0,0,0,0,0,0,0,0,0,-1,1357,841,0,0
140,183,0,0,0,0,0,0,0,0,0,-1,1364,841,0,0
147,183,0,0,0,0,0,0,0,0,0,-1,1371,841,0,0
154,183,0,0,0,0,0,0,0,0,0,-1,1378,841,0,0
161,183,0,0,0,0,0,0,0,0,0,-1,1385,841,0,0
168,183,0,0,0,0,0,0,0,0,0,-1,1392,841,0,0
175,183,0,0,0,0,0,0,0,0,0,-1,1399,841,0,0
182,183,0,0,0,0,0,0,0,0,0,-1,1406,841,0,0
189,183,0,0,0,0,0,0,0,0,0,-1,1413,841,0,0
196,183,0,0,0,0,0,0,0,0,0,-1,1420,841,0,0
203,183,0,0,0,0,0,0,0,0,0,-1,1427,841,0,0
210,183,0,0,0,0,0,0,0,0,0,-1,1434,841,0,0
217,183,0,0,0,0,0,0,0,0,0,-1,1441,841,0,0
224,183,0,0,0,0,0,0,0,0,0,-1,1448,841,0,0
231,183,0,0,0,0,0,0,0,0,0,-1,1455,841,0,0
238,183,0,0,0,0,0,0,0,0,0,-1,1462,841,0,0
245,183,0,0,0,0,0,0,0,0,0,-1,1469,841,0,0
252,183,0,0,0,0,0,0,0,0,0,-1,1476,841,0,0
259,183,0,0,0,0,0,0,0,0,0,-1,1483,841,0,0
266,183,0,0,0,0,0,0,0,0,0,-1,1490,841,0,0
273,183,0,0,0,0,0,0,0,0,0,-1,1497,841,0,0
280,183,0,0,0,0,0,0,0,0,0,-1,1504,841,0,0
287,183,0,0,0,0,0,0,0,0,0,-1,1511,841,0,0
294,183,0,0,0,0,0,0,0,0,0,-1,1518,841,0,0
301,183,0,0,0,0,0,0,0,0,0,-1,1525,841,0,0
308,183,0,0,0,0,0,0,0,0,0,-1,1532,841,0,0
315,183,0,0,0,0,0,0,0,0,0,-1,1539,841,0,0
322,183,0,0,0,0,0,0,0,0,0,-1,1546,841,0,0
329,183,0,0,0,0,0,0,0,0,0,-1,1553,841,0,0
336,183,0,0,0,0,0,0,0,0,0,-1,1560,841,0,0
343,183,0,0,0,0,0,0,0,0,0,-1,1567,841,0,0
350,183,0,0,0,0,0,0,0,0,0,-1,1574,841,0,0
357,183,0,0,0,0,0,0,0,0,0,-1,1581,841,0,0
364,183,0,0,0,0,0,0,0,0,0,-1,1588,841,0,0
371,183,0,0,0,0,0,0,0,0,0,-1,1595,841,0,0
378,183,0,0,0,0,0,0,0,0,0,-1,1602,841,0,0
385,183,0,0,0,0,0,0,0,0,0,-1,1609,841,0,0
392,183,0,0,0,0,0,0,0,0,0,-1,1616,841,0,0
399,183,0,0,0,0,0,0,0,0,0,-1,1623,841,0,0
406,183,0,0,0,0,0,0,0,0,0,-1,1630,841,0,0
413,183,0,0,0,0,0,0,0,0,0,-1,1637,841,0,0
420,183,0,0,0,0,0,0,0,0,0,-1,1644,841,0,0
427,183,0,0,0,0,0,0,0,0,0,-1,1651,841,0,0
434,183,0,0,0,0,0,0,0,0,0,-1,1658,841,0,0
441,183,0,0,0,0,0,0,0,0,0,-1,1665,841,0,0
448,183,0,0,0,0,0,0,0,0,0,-1,1672,841,0,0
455,183,0,0,0,0,0,0,0,0,0,-1,1679,841,0,0
462,183,0,0,0,0,0,0,0,0,0,-1,1686,841,0,0
469,183,0,0,0,0,0,0,0,0,0,-1,1693,841,0,0
476,183,0,0,0,0,0,0,0,0,0,-1,1700,841,0,0
483,183,0,0,0,0,0,0,0,0,0,-1,1707,841,0,0
490,183,0,0,0,0,0,0,0,0,0,-1,1714,841,0,0
497,183,0,0,0,0,0,0,0,0,0,-1,1721,841,0,0
504,183,0,0,0,0,0,0,0,0,0,-1,1728,841,0,0
511,183,0,0,0,0,0,0,0,0,0,-1,1735,841,0,0
518,183,0,0,0,0,0,0,0,0,0,-1,1742,841,0,0
525,183,0,0,0,0,0,0,0,0,0,-1,1749,841,0,0
532,183,0,0,0,0,0,0,0,0,0,-1,1756,841,0,0
539,183,0,0,0,0,0,0,0,0,0,-1,1763,841,0,0
546,183,0,0,0,0,0,0,0,0,0,-1,1770,841,0,0
553,183,0,0,0,0,0,0,0,0,0,-1,1777,841,0,0
560,183,0,0,0,0,0,0,0,0,0,-1,1784,841,0,0
567,183,0,0,0,0,0,0,0,0,0,-1,1791,841,0,0
574,183,0,0,0,0,0,0,0,0,0,-1,1798,841,0,0
581,183,0,0,0,0,0,0,0,0,0,-1,1805,841,0,0
588,183,0,0,0,0,0,0,0,0,0,-1,1812,841,0,0
595,183,0,0,0,0,0,0,0,0,0,-1,1819,841,0,0
602,183,0,0,0,0,0,0,0,0,0,-1,1826,841,0,0
609,183,55.3763,3.15692,0.00136555,-0.00359099,-0.00128622,0.00167945,-0.00390489,-0.239365,0.00330836,0.0391354,1833,841,55.3763,-3.15689
616,183,55.381,3.11536,0.00115285,-0.0021538,-0.000608412,0.00126125,-0.00226219,-0.176307,0.00206144,0.0379079,1840,841,55.3809,-3.11538
623,183,55.5304,2.75525,0,0,0,0,0,0,0,-1,1847,841,55.5304,-2.75527
630,183,55.4307,2.73907,-0.000465849,-0.000571116,-0.000340338,-0.000174098,-0.000862866,-0.70868,0.000526888,0.0412213,1854,841,55.4307,-2.73905
637,183,55.417,2.71741,-0.00159378,-0.000375588,-0.000747211,-2.06711e-05,-0.0019487,-1.12736,0.0012923,0.0353075,1861,841,55.417,-2.71738
644,183,55.3009,2.80151,-0.00243555,-0.000494747,-0.00114519,3.58993e-05,-0.0029662,-1.13688,0.00198954,0.0289883,1868,841,55.3009,-2.80153
651,183,55.3602,2.80817,-0.00297936,-0.000763143,-0.00147535,-2.61054e-05,-0.0037164,-1.10749,0.00246894,0.0259568,1875,841,55.3602,-2.80816
658,183,55.519,2.75256,0,0,0,0,0,0,0,-1,1882,841,55.519,-2.75254
665,183,38.4337,2.66992,0,0,0,0,0,0,0,-1,1889,841,38.4337,-2.6699
672,183,29.168,1.54572,0,0,0,0,0,0,0,-1,1896,841,29.168,-1.54574
679,183,44.1862,0.53009,0,0,0,0,0,0,0,-1,1903,841,44.1862,-0.530063
686,183,44.1163,1.07404,-0.00406462,-0.00104993,-0.00240628,0.000282141,-0.00539669,-1.06521,0.00369543,0.0315356,1910,841,44.1164,-1.07401
693,183,44.0624,1.62451,-0.00369136,-0.00115583,-0.00251205,0.000390233,-0.00523743,-1.01909,0.0036287,0.0283255,1917,841,44.0624,-1.62453
700,183,43.9786,2.25043,-0.00308253,-0.00100466,-0.002423,0.000592746,-0.00467994,-0.987932,0.00333514,0.0282888,1924,841,43.9786,-2.2504
707,183,43.873,2.8692,-0.00232959,-0.000589564,-0.00203,0.000749,-0.00366815,-0.987847,0.00272957,0.0128643,1931,841,43.8731,-2.86923
714,183,43.8673,3.46558,-0.000988944,0.000235892,-0.00130211,0.00106241,-0.00181546,-1.00521,0.0016804,0.0159953,1938,841,43.8674,-3.46556
721,183,43.8424,4.07593,0.00061068,0.00149949,-0.00040472,0.00165616,0.000454007,-1.20145,0.00098817,0.0150041,1945,841,43.8424,-4.07591
728,183,43.8068,4.71332,0.00228187,0.00316279,0.00057078,0.0034433,0.00200137,1.11401,0.00199672,0.0138254,1952,841,43.8067,-4.71331
735,183,43.783,5.323,0.00392475,0.00506661,0.00153143,0.00613008,0.00286129,0.963822,0.00354181,0.013036,1959,841,43.7829,-5.32299
742,183,43.7778,5.96259,0.00548113,0.00747027,0.00249831,0.0091647,0.0037867,0.974831,0.00531776,0.0138349,1966,841,43.7778,-5.96257
749,183,43.9141,6.85339,0.00698957,0.0105805,0.00360357,0.0128111,0.00475894,1.01652,0.00747752,0.0368994,1973,841,43.9141,-6.85338
756,183,44.0734,7.78955,0,0,0,0,0,0,0,-1,1980,841,44.0734,-7.78958
763,183,44.5585,8.23737,0,0,0,0,0,0,0,-1,1987,841,44.5585,-8.23736
770,183,41.0603,7.72028,0,0,0,0,0,0,0,-1,1994,841,41.0603,-7.72026
777,183,42.1948,7.22906,0,0,0,0,0,0,0,-1,2001,841,42.1948,-7.22905
784,183,0,0,0,0,0,0,0,0,0,-1,2008,841,0,0
791,183,0,0,0,0,0,0,0,0,0,-1,2015,841,0,0
798,183,0,0,0,0,0,0,0,0,0,-1,2022,841,0,0
805,183,0,0,0,0,0,0,0,0,0,-1,2029,841,0,0
812,183,0,0,0,0,0,0,0,0,0,-1,2036,841,0,0
-700,176,0,0,0,0,0,0,0,0,0,-1,524,848,0,0
-693,176,0,0,0,0,0,0,0,0,0,-1,531,848,0,0
-686,176,0,0,0,0,0,0,0,0,0,-1,538,848,0,0
-679,176,0,0,0,0,0,0,0,0,0,-1,545,848,0,0
-672,176,0,0,0,0,0,0,0,0,0,-1,552,848,0,0
-665,176,-35.85,6.68445,0,0,0,0,0,0,0,-1,559,848,-35.8501,-6.68442
-658,176,-35.6655,6.72937,0,0,0,0,0,0,0,-1,566,848,-35.6655,-6.72935
-651,176,-32.7754,8.35425,0,0,0,0,0,0,0,-1,573,848,-32.7754,-8.35425
-644,176,-32.5496,7.54077,0.0370408,-0.0375037,-0.018625,0.0414353,-0.0418981,-0.231705,0.0481128,0.0466446,580,848,-32.5496,-7.54079
-637,176,-32.3148,6.68878,0.0276584,-0.0256024,-0.0147691,0.0314797,-0.0294237,-0.253182,0.0351693,0.0455665,587,848,-32.3148,-6.68875
-630,176,-32.1348,5.95483,0,0,0,0,0,0,0,-1,594,848,-32.1348,-5.95483
-623,176,-32.082,4.9071,0.0133953,-0.0101994,-0.00844007,0.0161035,-0.0129077,-0.3105,0.0167835,0.0432701,601,848,-32.082,-4.90711
-616,176,-32.0569,4.00562,0.00801154,-0.00577215,-0.0057966,0.0101251,-0.00788576,-0.349646,0.0104254,0.0295173,608,848,-32.0569,-4.00563
-609,176,-32.1069,3.36218,0.00420795,-0.00251303,-0.00323667,0.00551318,-0.00381826,-0.383316,0.00541705,0.01259,615,848,-32.1069,-3.36218
-602,176,-32.1329,2.74878,0.00172036,-0.00047062,-0.000993595,0.00210383,-0.000854092,-0.368331,0.00175783,0.0123444,622,848,-32.1329,-2.74879
-595,176,-32.1666,2.13965,0.000180663,0.000612544,0.00098694,0.00140689,-0.000613684,0.8931,0.00119617,0.0116289,629,848,-32.1666,-2.13966
-588,176,-32.173,1.54742,-0.000501086,0.00109553,0.00248599,0.00290824,-0.0023138,0.940759,0.00302145,0.0137333,636,848,-32.173,-1.5474
-581,176,-32.2158,0.994507,-0.000409289,0.00105219,0.00337078,0.00377053,-0.00312763,0.89214,0.00398841,0.0124893,643,848,-32.2158,-0.994537
-574,176,-32.2602,0.423462,-5.98687e-05,0.00066143,0.00368895,0.00400732,-0.00340575,0.834126,0.00428463,0.0231996,650,848,-32.2602,-0.423459
-567,176,-32.2523,-0.23999,0,0,0,0,0,0,0,-1,657,848,-32.2523,0.239968
-560,176,-31.6935,-0.0994873,0,0,0,0,0,0,0,-1,664,848,-31.6936,0.0994584
-553,176,-29.4605,-1.50214,0,0,0,0,0,0,0,-1,671,848,-29.4605,1.50211
-546,176,-16.657,-0.403198,0,0,0,0,0,0,0,-1,678,848,-16.657,0.403182
-539,176,-22.7061,1.48657,0,0,0,0,0,0,0,-1,685,848,-22.7061,-1.48657
-532,176,-38.8326,1.29749,0,0,0,0,0,0,0,-1,692,848,-38.8326,-1.29747
-525,176,-41.7165,1.05585,0,0,0,0,0,0,0,-1,699,848,-41.7165,-1.05588
-518,176,-41.8737,0.895935,-0.00153892,-0.000531911,0.00364385,0.00264306,-0.00471389,0.854053,0.00430326,0.042102,706,848,-41.8737,-0.89593
-511,176,-41.9077,0.805725,-0.00105288,-0.000771879,0.00375656,0.0028468,-0.00467156,0.80409,0.00438314,0.0390678,713,848,-41.9077,-0.805718
-504,176,-41.9258,1.13861,0.00157179,-0.000736433,0.0038964,0.00448141,-0.00364606,0.641415,0.00470065,0.0426752,720,848,-41.9258,-1.13862
-497,176,-41.7597,1.2984,0.00642433,-0.000985387,0.00356248,0.00785924,-0.0024203,0.382905,0.00620564,0.0445762,727,848,-41.7597,-1.29843
-490,176,-41.569,0.972717,0,0,0,0,0,0,0,-1,734,848,-41.569,-0.972747
-483,176,0,0,0,0,0,0,0,0,0,-1,741,848,0,0
-476,176,0,0,0,0,0,0,0,0,0,-1,748,848,0,0
-469,176,0,0,0,0,0,0,0,0,0,-1,755,848,0,0
-462,176,0,0,0,0,0,0,0,0,0,-1,762,848,0,0
-455,176,0,0,0,0,0,0,0,0,0,-1,769,848,0,0
-448,176,0,0,0,0,0,0,0,0,0,-1,776,848,0,0
-441,176,0,0,0,0,0,0,0,0,0,-1,783,848,0,0
-434,176,0,0,0,0,0,0,0,0,0,-1,790,848,0,0
-427,176,0,0,0,0,0,0,0,0,0,-1,797,848,0,0
-420,176,0,0,0,0,0,0,0,0,0,-1,804,848,0,0
-413,176,0,0,0,0,0,0,0,0,0,-1,811,848,0,0
-406,176,0,0,0,0,0,0,0,0,0,-1,818,848,0,0
-399,176,0,0,0,0,0,0,0,0,0,-1,825,848,0,0
-392,176,0,0,0,0,0,0,0,0,0,-1,832,848,0,0
-385,176,0,0,0,0,0,0,0,0,0,-1,839,848,0,0
-378,176,0,0,0,0,0,0,0,0,0,-1,846,848,0,0
-371,176,0,0,0,0,0,0,0,0,0,-1,853,848,0,0
-364,176,0,0,0,0,0,0,0,0,0,-1,860,848,0,0
-357,176,0,0,0,0,0,0,0,0,0,-1,867,848,0,0
-350,176,0,0,0,0,0,0,0,0,0,-1,874,848,0,0
-343,176,0,0,0,0,0,0,0,0,0,-1,881,848,0,0
-336,176,0,0,0,0,0,0,0,0,0,-1,888,848,0,0
-329,176,0,0,0,0,0,0,0,0,0,-1,895,848,0,0
-322,176,0,0,0,0,0,0,0,0,0,-1,902,848,0,0
-315,176,0,0,0,0,0,0,0,0,0,-1,909,848,0,0
-308,176,0,0,0,0,0,0,0,0,0,-1,916,848,0,0
-301,176,0,0,0,0,0,0,0,0,0,-1,923,848,0,0
-294,176,0,0,0,0,0,0,0,0,0,-1,930,848,0,0
-287,176,0,0,0,0,0,0,0,0,0,-1,937,848,0,0
-280,176,0,0,0,0,0,0,0,0,0,-1,944,848,0,0
-273,176,0,0,0,0,0,0,0,0,0,-1,951,848,0,0
-266,176,0,0,0,0,0,0,0,0,0,-1,958,848,0,0
-259,176,0,0,0,0,0,0,0,0,0,-1,965,848,0,0
-252,176,0,0,0,0,0,0,0,0,0,-1,972,848,0,0
-245,176,0,0,0,0,0,0,0,0,0,-1,979,848,0,0
-238,176,0,0,0,0,0,0,0,0,0,-1,986,848,0,0
-231,176,0,0,0,0,0,0,0,0,0,-1,993,848,0,0
-224,176,0,0,0,0,0,0,0,0,0,-1,1000,848,0,0
-217,176,0,0,0,0,0,0,0,0,0,-1,1007,848,0,0
-210,176,0,0,0,0,0,0,0,0,0,-1,1014,848,0,0
-203,176,0,0,0,0,0,0,0,0,0,-1,1021,848,0,0
-196,176,0,0,0,0,0,0,0,0,0,-1,1028,848,0,0
-189,176,0,0,0,0,0,0,0,0,0,-1,1035,848,0,0
-182,176,0,0,0,0,0,0,0,0,0,-1,1042,848,0,0
-175,176,0,0,0,0,0,0,0,0,0,-1,1049,848,0,0
-168,176,0,0,0,0,0,0,0,0,0,-1,1056,848,0,0
-161,176,0,0,0,0,0,0,0,0,0,-1,1063,848,0,0
-154,176,0,0,0,0,0,0,0,0,0,-1,1070,848,0,0
-147,176,0,0,0,0,0,0,0,0,0,-1,1077,848,0,0
-140,176,0,0,0,0,0,0,0,0,0,-1,1084,848,0,0
-133,176,0,0,0,0,0,0,0,0,0,-1,1091,848,0,0
-126,176,0,0,0,0,0,0,0,0,0,-1,1098,848,0,0
-119,176,0,0,0,0,0,0,0,0,0,-1,1105,848,0,0
-112,176,0,0,0,0,0,0,0,0,0,-1,1112,848,0,0
-105,176,0,0,0,0,0,0,0,0,0,-1,1119,848,0,0
-98,176,0,0,0,0,0,0,0,0,0,-1,1126,848,0,0
-91,176,0,0,0,0,0,0,0,0,0,-1,1133,848,0,0
-84,176,0,0,0,0,0,0,0,0,0,-1,1140,848,0,0
-77,176,0,0,0,0,0,0,0,0,0,-1,1147,848,0,0
-70,176,0,0,0,0,0,0,0,0,0,-1,1154,848,0,0
-63,176,0,0,0,0,0,0,0,0,0,-1,1161,848,0,0
-56,176,0,0,0,0,0,0,0,0,0,-1,1168,848,0,0
-49,176,0,0,0,0,0,0,0,0,0,-1,1175,848,0,0
-42,176,0,0,0,0,0,0,0,0,0,-1,1182,848,0,0
-35,176,0,0,0,0,0,0,0,0,0,-1,1189,848,0,0
-28,176,0,0,0,0,0,0,0,0,0,-1,1196,848,0,0
-21,176,0,0,0,0,0,0,0,0,0,-1,1203,848,0,0
-14,176,0,0,0,0,0,0,0,0,0,-1,1210,848,0,0
-7,176,0,0,0,0,0,0,0,0,0,-1,1217,848,0,0
0,176,0,0,0,0,0,0,0,0,0,-1,1224,848,0,0
7,176,0,0,0,0,0,0,0,0,0,-1,1231,848,0,0
14,176,0,0,0,0,0,0,0,0,0,-1,1238,848,0,0
21,176,0,0,0,0,0,0,0,0,0,-1,1245,848,0,0
28,176,0,0,0,0,0,0,0,0,0,-1,1252,848,0,0
35,176,0,0,0,0,0,0,0,0,0,-1,1259,848,0,0
42,176,0,0,0,0,0,0,0,0,0,-1,1266,848,0,0
49,176,0,0,0,0,0,0,0,0,0,-1,1273,848,0,0
56,176,0,0,0,0,0,0,0,0,0,-1,1280,848,0,0
63,176,0,0,0,0,0,0,0,0,0,-1,1287,848,0,0
70,176,0,0,0,0,0,0,0,0,0,-1,1294,848,0,0
77,176,0,0,0,0,0,0,0,0,0,-1,1301,848,0,0
84,176,0,0,0,0,0,0,0,0,0,-1,1308,848,0,0
91,176,0,0,0,0,0,0,0,0,0,-1,1315,848,0,0
98,176,0,0,0,0,0,0,0,0,0,-1,1322,848,0,0
105,176,0,0,0,0,0,0,0,0,0,-1,1329,848,0,0
112,176,0,0,0,0,0,0,0,0,0,-1,1336,848,0,0
119,176,0,0,0,0,0,0,0,0,0,-1,1343,848,0,0
126,176,0,0,0,0,0,0,0,0,0,-1,1350,848,0,0
133,176,0,0,0,0,0,0,0,0,0,-1,1357,848,0,0
140,176,0,0,0,0,0,0,0,0,0,-1,1364,848,0,0
147,176,0,0,0,0,0,0,0,0,0,-1,1371,848,0,0
154,176,0,0,0,0,0,0,0,0,0,-1,1378,848,0,0
161,176,0,0,0,0,0,0,0,0,0,-1,1385,848,0,0
168,176,0,0,0,0,0,0,0,0,0,-1,1392,848,0,0
175,176,0,0,0,0,0,0,0,0,0,-1,1399,848,0,0
182,176,0,0,0,0,0,0,0,0,0,-1,1406,848,0,0
189,176,0,0,0,0,0,0,0,0,0,-1,1413,848,0,0
196,176,0,0,0,0,0,0,0,0,0,-1,1420,848,0,0
203,176,0,0,0,0,0,0,0,0,0,-1,1427,848,0,0
210,176,0,0,0,0,0,0,0,0,0,-1,1434,848,0,0
217,176,0,0,0,0,0,0,0,0,0,-1,1441,848,0,0
224,176,0,0,0,0,0,0,0,0,0,-1,1448,848,0,0
231,176,0,0,0,0,0,0,0,0,0,-1,1455,848,0,0
238,176,0,0,0,0,0,0,0,0,0,-1,1462,848,0,0
245,176,0,0,0,0,0,0,0,0,0,-1,1469,848,0,0
252,176,0,0,0,0,0,0,0,0,0,-1,1476,848,0,0
259,176,0,0,0,0,0,0,0,0,0,-1,1483,848,0,0
266,176,0,0,0,0,0,0,0,0,0,-1,1490,848,0,0
273,176,0,0,0,0,0,0,0,0,0,-1,1497,848,0,0
280,176,0,0,0,0,0,0,0,0,0,-1,1504,848,0,0
287,176,0,0,0,0,0,0,0,0,0,-1,1511,848,0,0
294,176,0,0,0,0,0,0,0,0,0,-1,1518,848,0,0
301,176,0,0,0,0,0,0,0,0,0,-1,1525,848,0,0
308,176,0,0,0,0,0,0,0,0,0,-1,1532,848,0,0
315,176,0,0,0,0,0,0,0,0,0,-1,1539,848,0,0
322,176,0,0,0,0,0,0,0,0,0,-1,1546,848,0,0
329,176,0,0,0,0,0,0,0,0,0,-1,1553,848,0,0
336,176,0,0,0,0,0,0,0,0,0,-1,1560,848,0,0
343,176,0,0,0,0,0,0,0,0,0,-1,1567,848,0,0
350,176,0,0,0,0,0,0,0,0,0,-1,1574,848,0,0
357,176,0,0,0,0,0,0,0,0,0,-1,1581,848,0,0
364,176,0,0,0,0,0,0,0,0,0,-1,1588,848,0,0
371,176,0,0,0,0,0,0,0,0,0,-1,1595,848,0,0
378,176,0,0,0,0,0,0,0,0,0,-1,1602,848,0,0
385,176,0,0,0,0,0,0,0,0,0,-1,1609,848,0,0
392,176,0,0,0,0,0,0,0,0,0,-1,1616,848,0,0
399,176,0,0,0,0,0,0,0,0,0,-1,1623,848,0,0
406,176,0,0,0,0,0,0,0,0,0,-1,1630,848,0,0
413,176,0,0,0,0,0,0,0,0,0,-1,1637,848,0,0
420,176,0,0,0,0,0,0,0,0,0,-1,1644,848,0,0
427,176,0,0,0,0,0,0,0,0,0,-1,1651,848,0,0
434,176,0,0,0,0,0,0,0,0,0,-1,1658,848,0,0
441,176,0,0,0,0,0,0,0,0,0,-1,1665,848,0,0
448,176,0,0,0,0,0,0,0,0,0,-1,1672,848,0,0
455,176,0,0,0,0,0,0,0,0,0,-1,1679,848,0,0
462,176,0,0,0,0,0,0,0,0,0,-1,1686,848,0,0
469,176,0,0,0,0,0,0,0,0,0,-1,1693,848,0,0
476,176,0,0,0,0,0,0,0,0,0,-1,1700,848,0,0
483,176,0,0,0,0,0,0,0,0,0,-1,1707,848,0,0
490,176,0,0,0,0,0,0,0,0,0,-1,1714,848,0,0
497,176,0,0,0,0,0,0,0,0,0,-1,1721,848,0,0
504,176,0,0,0,0,0,0,0,0,0,-1,1728,848,0,0
511,176,0,0,0,0,0,0,0,0,0,-1,1735,848,0,0
518,176,0,0,0,0,0,0,0,0,0,-1,1742,848,0,0
525,176,0,0,0,0,0,0,0,0,0,-1,1749,848,0,0
532,176,0,0,0,0,0,0,0,0,0,-1,1756,848,0,0
539,176,0,0,0,0,0,0,0,0,0,-1,1763,848,0,0
546,176,0,0,0,0,0,0,0,0,0,-1,1770,848,0,0
553,176,0,0,0,0,0,0,0,0,0,-1,1777,848,0,0
560,176,0,0,0,0,0,0,0,0,0,-1,1784,848,0,0
567,176,0,0,0,0,0,0,0,0,0,-1,1791,848,0,0
574,176,0,0,0,0,0,0,0,0,0,-1,1798,848,0,0
581,176,0,0,0,0,0,0,0,0,0,-1,1805,848,0,0
588,176,0,0,0,0,0,0,0,0,0,-1,1812,848,0,0
595,176,0,0,0,0,0,0,0,0,0,-1,1819,848,0,0
602,176,0,0,0,0,0,0,0,0,0,-1,1826,848,0,0
609,176,55.2096,2.90613,0.00182708,-0.00447148,-0.00159658,0.00220866,-0.00485307,-0.234603,0.00417129,0.0369173,1833,848,55.2096,-2.90615
616,176,55.325,2.80292,0.00149966,-0.00302229,-0.000870844,0.00166157,-0.00318421,-0.183825,0.00284337,0.0396823,1840,848,55.325,-2.80293
623,176,55.5162,2.89282,0.00103877,-0.00184579,-0.000293181,0.00106826,-0.00187529,-0.100272,0.00172062,0.0425161,1847,848,55.5163,-2.8928
630,176,55.5704,2.78345,0.00012907,-0.000955966,-0.000204949,0.000166491,-0.000993387,-0.1806,0.000724163,0.0408605,1854,848,55.5704,-2.78346
637,176,55.4576,2.76758,-0.000959215,-0.000461746,-0.000460484,-0.000187112,-0.00123385,-1.03303,0.000767833,0.0321971,1861,848,55.4576,-2.76759
644,176,55.3138,2.75476,-0.00183801,-0.000432625,-0.000826022,-5.08409e-05,-0.00221979,-1.13785,0.00146321,0.0303669,1868,848,55.3139,-2.75478
651,176,55.347,2.73236,-0.00240584,-0.000646008,-0.00116401,-6.67545e-05,-0.00298509,-1.10904,0.00196819,0.0310293,1875,848,55.347,-2.73237
658,176,55.4064,2.70648,0,0,0,0,0,0,0,-1,1882,848,55.4063,-2.7065
665,176,54.3333,2.34277,0,0,0,0,0,0,0,-1,1889,848,54.3333,-2.34279
672,176,16.9304,2.80719,0,0,0,0,0,0,0,-1,1896,848,16.9305,-2.80719
679,176,45.0339,0.440369,0,0,0,0,0,0,0,-1,1903,848,45.034,-0.440346
686,176,44.9191,1.14886,-0.00325351,-0.000902947,-0.00210429,0.000332025,-0.00448848,-1.04008,0.00310891,0.0447126,1910,848,44.9191,-1.14884
693,176,44.7279,1.7796,-0.00287062,-0.00100961,-0.00221645,0.000463734,-0.00434397,-0.984134,0.00306228,0.0252031,1917,848,44.7278,-1.7796
700,176,44.5913,2.41516,-0.00233854,-0.000911023,-0.00220994,0.000697561,-0.00394713,-0.941599,0.00289212,0.0304087,1924,848,44.5913,-2.41519
707,176,44.5785,2.95288,-0.00178934,-0.000632525,-0.00198995,0.000861373,-0.00328324,-0.926833,0.0025254,0.0188161,1931,848,44.5784,-2.95287
714,176,44.5093,3.50183,-0.000756226,6.89397e-05,-0.00142688,0.00114169,-0.00182898,-0.926135,0.00173035,0.0124262,1938,848,44.5093,-3.50181
721,176,44.4773,4.0907,0.000493821,0.00127369,-0.000682119,0.00166946,9.80476e-05,-1.04505,0.00108177,0.0128859,1945,848,44.4773,-4.09069
728,176,44.4242,4.73218,0.00184408,0.0030166,0.000169636,0.00304065,0.00182003,1.42997,0.00176685,0.0158212,1952,848,44.4242,-4.73219
735,176,44.3882,5.35736,0.00320559,0.00506114,0.00102012,0.00551228,0.00275444,1.15441,0.00318252,0.0144805,1959,848,44.3881,-5.35737
742,176,44.3872,5.9884,0.00445426,0.00767533,0.00189055,0.00854834,0.00358125,1.13819,0.00495696,0.0252397,1966,848,44.3873,-5.98843
749,176,44.8165,6.68994,0.0055998,0.0110522,0.00286656,0.0122819,0.00437008,1.16555,0.00718859,0.0387408,1973,848,44.8165,-6.68996
756,176,45.3926,7.41864,0,0,0,0,0,0,0,-1,1980,848,45.3926,-7.41866
763,176,44.4343,7.70581,0,0,0,0,0,0,0,-1,1987,848,44.4343,-7.70578
770,176,36.4186,4.25641,0,0,0,0,0,0,0,-1,1994,848,36.4186,-4.25639
777,176,43.8328,7.50177,0,0,0,0,0,0,0,-1,2001,848,43.8328,-7.50178
784,176,0,0,0,0,0,0,0,0,0,-1,2008,848,0,0
791,176,0,0,0,0,0,0,0,0,0,-1,2015,848,0,0
798,176,0,0,0,0,0,0,0,0,0,-1,2022,848,0,0
805,176,0,0,0,0,0,0,0,0,0,-1,2029,848,0,0
812,176,0,0,0,0,0,0,0,0,0,-1,2036,848,0,0
-700,169,0,0,0,0,0,0,0,0,0,-1,524,855,0,0
-693,169,0,0,0,0,0,0,0,0,0,-1,531,855,0,0
-686,169,0,0,0,0,0,0,0,0,0,-1,538,855,0,0
-679,169,0,0,0,0,0,0,0,0,0,-1,545,855,0,0
-672,169,0,0,0,0,0,0,0,0,0,-1,552,855,0,0
-665,169,-35.6535,6.30945,0,0,0,0,0,0,0,-1,559,855,-35.6535,-6.30943
-658,169,-34.7747,6.01379,0,0,0,0,0,0,0,-1,566,855,-34.7746,-6.01382
-651,169,-33.3942,8.63519,0,0,0,0,0,0,0,-1,573,855,-33.3942,-8.63519
-644,169,-33.1237,7.81982,0.0338372,-0.0345128,-0.0184905,0.0385187,-0.0391944,-0.247975,0.0448682,0.049147,580,855,-33.1237,-7.81984
-637,169,-32.9042,7.01929,0.0249467,-0.0231649,-0.0144404,0.0289481,-0.0271663,-0.270316,0.0324031,0.0453691,587,855,-32.9042,-7.01927
-630,169,-33.145,5.97009,0,0,0,0,0,0,0,-1,594,855,-33.145,-5.9701
-623,169,-32.9061,4.93488,0.0117059,-0.00909673,-0.00804198,0.0144523,-0.0118431,-0.329082,0.0152065,0.0408124,601,855,-32.9061,-4.93489
-616,169,-32.6678,3.94861,0.00672096,-0.00504817,-0.00533307,0.00877804,-0.00710525,-0.368137,0.00918716,0.0231795,608,855,-32.6678,-3.9486
-609,169,-32.7048,3.38129,0.00318857,-0.00210095,-0.00273331,0.0043472,-0.00325957,-0.400931,0.00440671,0.0141904,615,855,-32.7048,-3.38126
-602,169,-32.7294,2.7774,0.000844466,-0.000244117,-0.000410111,0.000981677,-0.000381327,-0.322862,0.000811977,0.0136258,622,855,-32.7294,-2.77739
-595,169,-32.7577,2.15326,-0.000494253,0.000705319,0.0015947,0.0018093,-0.00159823,0.965271,0.00196859,0.012099,629,855,-32.7577,-2.15324
-588,169,-32.7725,1.57446,-0.000836489,0.00103389,0.00295301,0.00319625,-0.00299885,0.938747,0.00357735,0.0105354,636,855,-32.7725,-1.57447
-581,169,-32.8226,1.03003,-0.000491533,0.00101512,0.00362794,0.00396712,-0.00344353,0.887766,0.0042821,0.0178268,643,855,-32.8226,-1.03005
-574,169,-33.0817,0.442322,-0.000102655,0.000761234,0.00384487,0.00419835,-0.00353977,0.841335,0.004473,0.0329577,650,855,-33.0818,-0.442294
-567,169,-32.8859,-0.0474854,-0.000272603,0.000426449,0.0037154,0.00380872,-0.00365488,0.832298,0.00430942,0.0407025,657,855,-32.8859,0.0474682
-560,169,-32.9478,-0.527832,0,0,0,0,0,0,0,-1,664,855,-32.9477,0.527823
-553,169,-32.1944,-0.787964,0,0,0,0,0,0,0,-1,671,855,-32.1944,0.787959
-546,169,-19.0852,-1.05609,0,0,0,0,0,0,0,-1,678,855,-19.0852,1.05612
-539,169,-33.2307,1.10706,0,0,0,0,0,0,0,-1,685,855,-33.2307,-1.10708
-532,169,-41.6567,1.06665,0,0,0,0,0,0,0,-1,692,855,-41.6567,-1.06667
-525,169,-41.7114,0.961853,-0.000723176,0.00014437,0.00337923,0.00311756,-0.00369636,0.849231,0.00393875,0.0466277,699,855,-41.7113,-0.961832
-518,169,-41.7872,0.854248,-0.000840603,0.000170613,0.0032739,0.00297772,-0.00364771,0.862011,0.00383171,0.0436319,706,855,-41.7872,-0.854259
-511,169,-41.8378,0.802979,-5.60066e-05,0.000247805,0.00329277,0.00339217,-0.00320038,0.808448,0.00380675,0.0429781,713,855,-41.8378,-0.802998
-504,169,-41.7753,1.02063,0.00335424,0.000756995,0.00334623,0.005645,-0.00153377,0.600302,0.00436535,0.0438642,720,855,-41.7753,-1.02061
-497,169,-41.6333,1.13397,0.00883088,0.00107151,0.0030586,0.00989154,1.08583e-05,0.333802,0.00659074,0.0441137,727,855,-41.6333,-1.13397
-490,169,0,0,0,0,0,0,0,0,0,-1,734,855,0,0
-483,169,0,0,0,0,0,0,0,0,0,-1,741,855,0,0
-476,169,0,0,0,0,0,0,0,0,0,-1,748,855,0,0
-469,169,0,0,0,0,0,0,0,0,0,-1,755,855,0,0
-462,169,0,0,0,0,0,0,0,0,0,-1,762,855,0,0
-455,169,0,0,0,0,0,0,0,0,0,-1,769,855,0,0
-448,169,0,0,0,0,0,0,0,0,0,-1,776,855,0,0
-441,169,0,0,0,0,0,0,0,0,0,-1,783,855,0,0
-434,169,0,0,0,0,0,0,0,0,0,-1,790,855,0,0
-427,169,0,0,0,0,0,0,0,0,0,-1,797,855,0,0
-420,169,0,0,0,0,0,0,0,0,0,-1,804,855,0,0
-413,169,0,0,0,0,0,0,0,0,0,-1,811,855,0,0
-406,169,0,0,0,0,0,0,0,0,0,-1,818,855,0,0
-399,169,0,0,0,0,0,0,0,0,0,-1,825,855,0,0
-392,169,0,0,0,0,0,0,0,0,0,-1,832,855,0,0
-385,169,0,0,0,0,0,0,0,0,0,-1,839,855,0,0
-378,169,0,0,0,0,0,0,0,0,0,-1,846,855,0,0
-371,169,0,0,0,0,0,0,0,0,0,-1,853,855,0,0
-364,169,0,0,0,0,0,0,0,0,0,-1,860,855,0,0
-357,169,0,0,0,0,0,0,0,0,0,-1,867,855,0,0
-350,169,0,0,0,0,0,0,0,0,0,-1,874,855,0,0
-343,169,0,0,0,0,0,0,0,0,0,-1,881,855,0,0
-336,169,0,0,0,0,0,0,0,0,0,-1,888,855,0,0
-329,169,0,0,0,0,0,0,0,0,0,-1,895,855,0,0
-322,169,0,0,0,0,0,0,0,0,0,-1,902,855,0,0
-315,169,0,0,0,0,0,0,0,0,0,-1,909,855,0,0
-308,169,0,0,0,0,0,0,0,0,0,-1,916,855,0,0
-301,169,0,0,0,0,0,0,0,0,0,-1,923,855,0,0
-294,169,0,0,0,0,0,0,0,0,0,-1,930,855,0,0
-287,169,0,0,0,0,0,0,0,0,0,-1,937,855,0,0
-280,169,0,0,0,0,0,0,0,0,0,-1,944,855,0,0
-273,169,0,0,0,0,0,0,0,0,0,-1,951,855,0,0
-266,169,0,0,0,0,0,0,0,0,0,-1,958,855,0,0
-259,169,0,0,0,0,0,0,0,0,0,-1,965,855,0,0
-252,169,0,0,0,0,0,0,0,0,0,-1,972,855,0,0
-245,169,0,0,0,0,0,0,0,0,0,-1,979,855,0,0
-238,169,0,0,0,0,0,0,0,0,0,-1,986,855,0,0
-231,169,0,0,0,0,0,0,0,0,0,-1,993,855,0,0
-224,169,0,0,0,0,0,0,0,0,0,-1,1000,855,0,0
-217,169,0,0,0,0,0,0,0,0,0,-1,1007,855,0,0
-210,169,0,0,0,0,0,0,0,0,0,-1,1014,855,0,0
-203,169,0,0,0,0,0,0,0,0,0,-1,1021,855,0,0
-196,169,0,0,0,0,0,0,0,0,0,-1,1028,855,0,0
-189,169,0,0,0,0,0,0,0,0,0,-1,1035,855,0,0
-182,169,0,0,0,0,0,0,0,0,0,-1,1042,855,0,0
-175,169,0,0,0,0,0,0,0,0,0,-1,1049,855,0,0
-168,169,0,0,0,0,0,0,0,0,0,-1,1056,855,0,0
-161,169,0,0,0,0,0,0,0,0,0,-1,1063,855,0,0
-154,169,0,0,0,0,0,0,0,0,0,-1,1070,855,0,0
-147,169,0,0,0,0,0,0,0,0,0,-1,1077,855,0,0
-140,169,0,0,0,0,0,0,0,0,0,-1,1084,855,0,0
-133,169,0,0,0,0,0,0,0,0,0,-1,1091,855,0,0
-126,169,0,0,0,0,0,0,0,0,0,-1,1098,855,0,0
-119,169,0,0,0,0,0,0,0,0,0,-1,1105,855,0,0
-112,169,0,0,0,0,0,0,0,0,0,-1,1112,855,0,0
-105,169,0,0,0,0,0,0,0,0,0,-1,1119,855,0,0
-98,169,0,0,0,0,0,0,0,0,0,-1,1126,855,0,0
-91,169,0,0,0,0,0,0,0,0,0,-1,1133,855,0,0
-84,169,0,0,0,0,0,0,0,0,0,-1,1140,855,0,0
-77,169,0,0,0,0,0,0,0,0,0,-1,1147,855,0,0
-70,169,0,0,0,0,0,0,0,0,0,-1,1154,855,0,0
-63,169,0,0,0,0,0,0,0,0,0,-1,1161,855,0,0
-56,169,0,0,0,0,0,0,0,0,0,-1,1168,855,0,0
-49,169,0,0,0,0,0,0,0,0,0,-1,1175,855,0,0
-42,169,0,0,0,0,0,0,0,0,0,-1,1182,855,0,0
-35,169,0,0,0,0,0,0,0,0,0,-1,1189,855,0,0
-28,169,0,0,0,0,0,0,0,0,0,-1,1196,855,0,0
-21,169,0,0,0,0,0,0,0,0,0,-1,1203,855,0,0
-14,169,0,0,0,0,0,0,0,0,0,-1,1210,855,0,0
-7,169,0,0,0,0,0,0,0,0,0,-1,1217,855,0,0
0,169,0,0,0,0,0,0,0,0,0,-1,1224,855,0,0
7,169,0,0,0,0,0,0,0,0,0,-1,1231,855,0,0
14,169,0,0,0,0,0,0,0,0,0,-1,1238,855,0,0
21,169,0,0,0,0,0,0,0,0,0,-1,1245,855,0,0
28,169,0,0,0,0,0,0,0,0,0,-1,1252,855,0,0
35,169,0,0,0,0,0,0,0,0,0,-1,1259,855,0,0
42,169,0,0,0,0,0,0,0,0,0,-1,1266,855,0,0
49,169,0,0,0,0,0,0,0,0,0,-1,1273,855,0,0
56,169,0,0,0,0,0,0,0,0,0,-1,1280,855,0,0
63,169,0,0,0,0,0,0,0,0,0,-1,1287,855,0,0
70,169,0,0,0,0,0,0,0,0,0,-1,1294,855,0,0
77,169,0,0,0,0,0,0,0,0,0,-1,1301,855,0,0
84,169,0,0,0,0,0,0,0,0,0,-1,1308,855,0,0
91,169,0,0,0,0,0,0,0,0,0,-1,1315,855,0,0
98,169,0,0,0,0,0,0,0,0,0,-1,1322,855,0,0
105,169,0,0,0,0,0,0,0,0,0,-1,1329,855,0,0
112,169,0,0,0,0,0,0,0,0,0,-1,1336,855,0,0
119,169,0,0,0,0,0,0,0,0,0,-1,1343,855,0,0
126,169,0,0,0,0,0,0,0,0,0,-1,1350,855,0,0
133,169,0,0,0,0,0,0,0,0,0,-1,1357,855,0,0
140,169,0,0,0,0,0,0,0,0,0,-1,1364,855,0,0
147,169,0,0,0,0,0,0,0,0,0,-1,1371,855,0,0
154,169,0,0,0,0,0,0,0,0,0,-1,1378,855,0,0
161,169,0,0,0,0,0,0,0,0,0,-1,1385,855,0,0
168,169,0,0,0,0,0,0,0,0,0,-1,1392,855,0,0
175,169,0,0,0,0,0,0,0,0,0,-1,1399,855,0,0
182,169,0,0,0,0,0,0,0,0,0,-1,1406,855,0,0
189,169,0,0,0,0,0,0,0,0,0,-1,1413,855,0,0
196,169,0,0,0,0,0,0,0,0,0,-1,1420,855,0,0
203,169,0,0,0,0,0,0,0,0,0,-1,1427,855,0,0
210,169,0,0,0,0,0,0,0,0,0,-1,1434,855,0,0
217,169,0,0,0,0,0,0,0,0,0,-1,1441,855,0,0
224,169,0,0,0,0,0,0,0,0,0,-1,1448,855,0,0
231,169,0,0,0,0,0,0,0,0,0,-1,1455,855,0,0
238,169,0,0,0,0,0,0,0,0,0,-1,1462,855,0,0
245,169,0,0,0,0,0,0,0,0,0,-1,1469,855,0,0
252,169,0,0,0,0,0,0,0,0,0,-1,1476,855,0,0
259,169,0,0,0,0,0,0,0,0,0,-1,1483,855,0,0
266,169,0,0,0,0,0,0,0,0,0,-1,1490,855,0,0
273,169,0,0,0,0,0,0,0,0,0,-1,1497,855,0,0
280,169,0,0,0,0,0,0,0,0,0,-1,1504,855,0,0
287,169,0,0,0,0,0,0,0,0,0,-1,1511,855,0,0
294,169,0,0,0,0,0,0,0,0,0,-1,1518,855,0,0
301,169,0,0,0,0,0,0,0,0,0,-1,1525,855,0,0
308,169,0,0,0,0,0,0,0,0,0,-1,1532,855,0,0
315,169,0,0,0,0,0,0,0,0,0,-1,1539,855,0,0
322,169,0,0,0,0,0,0,0,0,0,-1,1546,855,0,0
329,169,0,0,0,0,0,0,0,0,0,-1,1553,855,0,0
336,169,0,0,0,0,0,0,0,0,0,-1,1560,855,0,0
343,169,0,0,0,0,0,0,0,0,0,-1,1567,855,0,0
350,169,0,0,0,0,0,0,0,0,0,-1,1574,855,0,0
357,169,0,0,0,0,0,0,0,0,0,-1,1581,855,0,0
364,169,0,0,0,0,0,0,0,0,0,-1,1588,855,0,0
371,169,0,0,0,0,0,0,0,0,0,-1,1595,855,0,0
378,169,0,0,0,0,0,0,0,0,0,-1,1602,855,0,0
385,169,0,0,0,0,0,0,0,0,0,-1,1609,855,0,0
392,169,0,0,0,0,0,0,0,0,0,-1,1616,855,0,0
399,169,0,0,0,0,0,0,0,0,0,-1,1623,855,0,0
406,169,0,0,0,0,0,0,0,0,0,-1,1630,855,0,0
413,169,0,0,0,0,0,0,0,0,0,-1,1637,855,0,0
420,169,0,0,0,0,0,0,0,0,0,-1,1644,855,0,0
427,169,0,0,0,0,0,0,0,0,0,-1,1651,855,0,0
434,169,0,0,0,0,0,0,0,0,0,-1,1658,855,0,0
441,169,0,0,0,0,0,0,0,0,0,-1,1665,855,0,0
448,169,0,0,0,0,0,0,0,0,0,-1,1672,855,0,0
455,169,0,0,0,0,0,0,0,0,0,-1,1679,855,0,0
462,169,0,0,0,0,0,0,0,0,0,-1,1686,855,0,0
469,169,0,0,0,0,0,0,0,0,0,-1,1693,855,0,0
476,169,0,0,0,0,0,0,0,0,0,-1,1700,855,0,0
483,169,0,0,0,0,0,0,0,0,0,-1,1707,855,0,0
490,169,0,0,0,0,0,0,0,0,0,-1,1714,855,0,0
497,169,0,0,0,0,0,0,0,0,0,-1,1721,855,0,0
504,169,0,0,0,0,0,0,0,0,0,-1,1728,855,0,0
511,169,0,0,0,0,0,0,0,0,0,-1,1735,855,0,0
518,169,0,0,0,0,0,0,0,0,0,-1,1742,855,0,0
525,169,0,0,0,0,0,0,0,0,0,-1,1749,855,0,0
532,169,0,0,0,0,0,0,0,0,0,-1,1756,855,0,0
539,169,0,0,0,0,0,0,0,0,0,-1,1763,855,0,0
546,169,0,0,0,0,0,0,0,0,0,-1,1770,855,0,0
553,169,0,0,0,0,0,0,0,0,0,-1,1777,855,0,0
560,169,0,0,0,0,0,0,0,0,0,-1,1784,855,0,0
567,169,0,0,0,0,0,0,0,0,0,-1,1791,855,0,0
574,169,0,0,0,0,0,0,0,0,0,-1,1798,855,0,0
581,169,0,0,0,0,0,0,0,0,0,-1,1805,855,0,0
588,169,0,0,0,0,0,0,0,0,0,-1,1812,855,0,0
595,169,0,0,0,0,0,0,0,0,0,-1,1819,855,0,0
602,169,0,0,0,0,0,0,0,0,0,-1,1826,855,0,0
609,169,0,0,0,0,0,0,0,0,0,-1,1833,855,0,0
616,169,55.3542,2.84509,0.00175549,-0.00367271,-0.00125211,0.00203039,-0.00394761,-0.216121,0.00351007,0.0431487,1840,855,55.3543,-2.84507
623,169,55.5282,2.79071,0.00128385,-0.00243594,-0.000610925,0.00138162,-0.00253371,-0.158685,0.0022929,0.0462157,1847,855,55.5282,-2.7907
630,169,55.4846,2.83765,0.000582658,-0.00142397,-0.000361829,0.000645908,-0.00148722,-0.173058,0.00126309,0.0443065,1854,855,55.4846,-2.83767
637,169,55.4219,2.84399,-0.000334941,-0.000653023,-0.000407166,-5.68573e-05,-0.000931106,-0.599208,0.00060268,0.0364364,1861,855,55.4219,-2.84402
644,169,55.3632,2.85974,-0.0011506,-0.000443222,-0.00067143,-3.80218e-05,-0.0015558,-1.02782,0.00102476,0.035107,1868,855,55.3631,-2.85972
651,169,55.3491,2.85144,-0.00168764,-0.000579341,-0.00097212,-1.4519e-05,-0.00225246,-1.04445,0.00149683,0.0357489,1875,855,55.3492,-2.85147
658,169,55.3717,2.78857,-0.00200643,-0.000838653,-0.00142321,0.000115782,-0.00296087,-0.980059,0.00201361,0.0352601,1882,855,55.3717,-2.78859
665,169,55.4363,2.71442,0,0,0,0,0,0,0,-1,1889,855,55.4363,-2.71443
672,169,31.2465,2.96387,0,0,0,0,0,0,0,-1,1896,855,31.2464,-2.9639
679,169,38.4297,1.08197,0,0,0,0,0,0,0,-1,1903,855,38.4296,-1.08194
686,169,45.4104,1.15387,0,0,0,0,0,0,0,-1,1910,855,45.4105,-1.15389
693,169,45.4022,1.82574,-0.00206772,-0.000880036,-0.00195241,0.000566847,-0.00351461,-0.933032,0.00255308,0.0275955,1917,855,45.4023,-1.82573
700,169,45.3794,2.505,-0.00166137,-0.000746948,-0.00195411,0.000802726,-0.00321105,-0.900318,0.00245246,0.0241554,1924,855,45.3794,-2.50502
707,169,45.2762,3.04303,-0.00130965,-0.000541011,-0.00183267,0.000947207,-0.00279787,-0.888752,0.0022485,0.0241807,1931,855,45.2763,-3.04306
714,169,45.0898,3.4978,-0.000562746,3.1988e-05,-0.00139762,0.00116352,-0.00169428,-0.890219,0.00165941,0.0157115,1938,855,45.0899,-3.49779
721,169,45.0818,4.13135,0.000357759,0.00112905,-0.000812207,0.00164252,-0.000155707,-1.00705,0.00115043,0.0171727,1945,855,45.0817,-4.13135
728,169,45.0507,4.76935,0.00142244,0.00287987,-0.000104526,0.00288733,0.00141498,-1.49956,0.00166711,0.0140181,1952,855,45.0507,-4.76937
735,169,45.0214,5.37543,0.00255354,0.00497824,0.000635049,0.00513449,0.00239728,1.32954,0.00296657,0.0186517,1959,855,45.0214,-5.37541
742,169,45.03,6.00183,0.00358776,0.00772743,0.00143467,0.00817603,0.00313917,1.26775,0.00476263,0.0190397,1966,855,45.0301,-6.00182
749,169,45.0005,6.55688,0.00449602,0.0112431,0.00231528,0.0119612,0.00377795,1.27006,0.00706021,0.0312111,1973,855,45.0004,-6.55688
756,169,45.2177,7.07819,0,0,0,0,0,0,0,-1,1980,855,45.2176,-7.07816
763,169,45.1978,7.5675,0,0,0,0,0,0,0,-1,1987,855,45.1977,-7.56751
770,169,37.2059,3.97021,0,0,0,0,0,0,0,-1,1994,855,37.2059,-3.97022
777,169,41.7505,8.7085,0,0,0,0,0,0,0,-1,2001,855,41.7505,-8.70852
784,169,39.0697,9.4693,0,0,0,0,0,0,0,-1,2008,855,39.0697,-9.46928
791,169,0,0,0,0,0,0,0,0,0,-1,2015,855,0,0
798,169,0,0,0,0,0,0,0,0,0,-1,2022,855,0,0
805,169,0,0,0,0,0,0,0,0,0,-1,2029,855,0,0
812,169,0,0,0,0,0,0,0,0,0,-1,2036,855,0,0
-700,162,0,0,0,0,0,0,0,0,0,-1,524,862,0,0
-693,162,0,0,0,0,0,0,0,0,0,-1,531,862,0,0
-686,162,0,0,0,0,0,0,0,0,0,-1,538,862,0,0
-679,162,0,0,0,0,0,0,0,0,0,-1,545,862,0,0
-672,162,0,0,0,0,0,0,0,0,0,-1,552,862,0,0
-665,162,-35.5759,6.16321,0,0,0,0,0,0,0,-1,559,862,-35.5759,-6.16319
-658,162,-34.894,5.74805,0,0,0,0,0,0,0,-1,566,862,-34.894,-5.74806
-651,162,-33.8265,9.04352,0,0,0,0,0,0,0,-1,573,862,-33.8266,-9.04351
-644,162,-33.5843,8.21558,0.0296848,-0.0317298,-0.0174795,0.0343112,-0.0363562,-0.258743,0.0408055,0.0488742,580,862,-33.5843,-8.2156
-637,162,-33.4063,7.37079,0.0215708,-0.0208066,-0.0135199,0.0255166,-0.0247525,-0.283971,0.029024,0.0481931,587,862,-33.4062,-7.37079
-630,162,-33.4495,5.28143,0,0,0,0,0,0,0,-1,594,862,-33.4495,-5.28141
-623,162,-33.3321,4.61304,0.00965237,-0.0079015,-0.00731529,0.0123012,-0.0105503,-0.347409,0.0132062,0.0360868,601,862,-33.3321,-4.61305
-616,162,-33.2546,3.96759,0.0051884,-0.00421413,-0.00464322,0.00709482,-0.00612055,-0.389593,0.0076368,0.0195047,608,862,-33.2546,-3.96761
-609,162,-33.317,3.36023,0.0020275,-0.00155314,-0.00207429,0.00297724,-0.00250288,-0.429373,0.0031679,0.0133834,615,862,-33.317,-3.36024
-602,162,-33.3594,2.77545,-7.47466e-05,0.000107977,0.000257766,0.000290093,-0.000256863,0.955709,0.00031598,0.0118827,622,862,-33.3594,-2.77543
-595,162,-33.3618,2.21417,-0.00111158,0.0008763,0.00217851,0.0022769,-0.00251218,0.999417,0.00276609,0.0111823,629,862,-33.3617,-2.21417
-588,162,-33.3484,1.64044,-0.00109272,0.00104238,0.00329581,0.00343922,-0.00348956,0.942022,0.00400037,0.0125814,636,862,-33.3484,-1.64044
-581,162,-33.5696,1.06274,-0.000586263,0.00108669,0.00372977,0.00407263,-0.0035722,0.895708,0.0044169,0.0307523,643,862,-33.5696,-1.06277
-574,162,-33.868,0.490784,-0.000241421,0.00097297,0.00388312,0.00429608,-0.00356453,0.862954,0.00454488,0.0438766,650,862,-33.8681,-0.49077
-567,162,-33.8564,-0.123291,-0.00038178,0.000726069,0.00380505,0.00401731,-0.00367302,0.857678,0.00444149,0.0482682,657,862,-33.8565,0.123309
-560,162,-33.5667,-0.784851,-0.000746187,0.00061185,0.00374911,0.00374293,-0.00387727,0.874984,0.00439975,0.0440346,664,862,-33.5667,0.784857
-553,162,-33.1055,-1.54169,0,0,0,0,0,0,0,-1,671,862,-33.1055,1.54169
-546,162,-22.8181,-1.51154,0,0,0,0,0,0,0,-1,678,862,-22.8181,1.51155
-539,162,-41.6511,0.992737,0,0,0,0,0,0,0,-1,685,862,-41.6511,-0.992754
-532,162,-41.6921,0.995422,-0.000231775,0.000802657,0.00339839,0.00372297,-0.00315209,0.860916,0.00397387,0.0427539,692,862,-41.6921,-0.995425
-525,162,-41.7082,0.927734,-0.000106869,0.00079928,0.0031044,0.0034835,-0.00279109,0.857859,0.00362998,0.0426448,699,862,-41.7082,-0.927735
-518,162,-41.7242,0.889954,-0.000124935,0.00101306,0.00288679,0.00338639,-0.00249827,0.882702,0.00341039,0.044402,706,862,-41.7242,-0.889962
-511,162,-41.7764,0.797546,0,0,0,0,0,0,0,-1,713,862,-41.7764,-0.797571
-504,162,-41.8919,0.999023,0.0047461,0.0032789,0.00302635,0.00712649,0.000898511,0.66649,0.00448161,0.0454095,720,862,-41.8919,-0.999037
-497,162,-41.7194,0.934509,0.0100452,0.00480781,0.00300633,0.0114134,0.00343958,0.4271,0.00676067,0.0442137,727,862,-41.7194,-0.934539
-490,162,0,0,0,0,0,0,0,0,0,-1,734,862,0,0
-483,162,0,0,0,0,0,0,0,0,0,-1,741,862,0,0
-476,162,0,0,0,0,0,0,0,0,0,-1,748,862,0,0
-469,162,0,0,0,0,0,0,0,0,0,-1,755,862,0,0
-462,162,0,0,0,0,0,0,0,0,0,-1,762,862,0,0
-455,162,0,0,0,0,0,0,0,0,0,-1,769,862,0,0
-448,162,0,0,0,0,0,0,0,0,0,-1,776,862,0,0
-441,162,0,0,0,0,0,0,0,0,0,-1,783,862,0,0
-434,162,0,0,0,0,0,0,0,0,0,-1,790,862,0,0
-427,162,0,0,0,0,0,0,0,0,0,-1,797,862,0,0
-420,162,0,0,0,0,0,0,0,0,0,-1,804,862,0,0
-413,162,0,0,0,0,0,0,0,0,0,-1,811,862,0,0
-406,162,0,0,0,0,0,0,0,0,0,-1,818,862,0,0
-399,162,0,0,0,0,0,0,0,0,0,-1,825,862,0,0
-392,162,0,0,0,0,0,0,0,0,0,-1,832,862,0,0
-385,162,0,0,0,0,0,0,0,0,0,-1,839,862,0,0
-378,162,0,0,0,0,0,0,0,0,0,-1,846,862,0,0
-371,162,0,0,0,0,0,0,0,0,0,-1,853,862,0,0
-364,162,0,0,0,0,0,0,0,0,0,-1,860,862,0,0
-357,162,0,0,0,0,0,0,0,0,0,-1,867,862,0,0
-350,162,0,0,0,0,0,0,0,0,0,-1,874,862,0,0
-343,162,0,0,0,0,0,0,0,0,0,-1,881,862,0,0
-336,162,0,0,0,0,0,0,0,0,0,-1,888,862,0,0
-329,162,0,0,0,0,0,0,0,0,0,-1,895,862,0,0
-322,162,0,0,0,0,0,0,0,0,0,-1,902,862,0,0
-315,162,0,0,0,0,0,0,0,0,0,-1,909,862,0,0
-308,162,0,0,0,0,0,0,0,0,0,-1,916,862,0,0
-301,162,0,0,0,0,0,0,0,0,0,-1,923,862,0,0
-294,162,0,0,0,0,0,0,0,0,0,-1,930,862,0,0
-287,162,0,0,0,0,0,0,0,0,0,-1,937,862,0,0
-280,162,0,0,0,0,0,0,0,0,0,-1,944,862,0,0
-273,162,0,0,0,0,0,0,0,0,0,-1,951,862,0,0
-266,162,0,0,0,0,0,0,0,0,0,-1,958,862,0,0
-259,162,0,0,0,0,0,0,0,0,0,-1,965,862,0,0
-252,162,0,0,0,0,0,0,0,0,0,-1,972,862,0,0
-245,162,0,0,0,0,0,0,0,0,0,-1,979,862,0,0
-238,162,0,0,0,0,0,0,0,0,0,-1,986,862,0,0
-231,162,0,0,0,0,0,0,0,0,0,-1,993,862,0,0
-224,162,0,0,0,0,0,0,0,0,0,-1,1000,862,0,0
-217,162,0,0,0,0,0,0,0,0,0,-1,1007,862,0,0
-210,162,0,0,0,0,0,0,0,0,0,-1,1014,862,0,0
-203,162,0,0,0,0,0,0,0,0,0,-1,1021,862,0,0
-196,162,0,0,0,0,0,0,0,0,0,-1,1028,862,0,0
-189,162,0,0,0,0,0,0,0,0,0,-1,1035,862,0,0
-182,162,0,0,0,0,0,0,0,0,0,-1,1042,862,0,0
-175,162,0,0,0,0,0,0,0,0,0,-1,1049,862,0,0
-168,162,0,0,0,0,0,0,0,0,0,-1,1056,862,0,0
-161,162,0,0,0,0,0,0,0,0,0,-1,1063,862,0,0
-154,162,0,0,0,0,0,0,0,0,0,-1,1070,862,0,0
-147,162,0,0,0,0,0,0,0,0,0,-1,1077,862,0,0
-140,162,0,0,0,0,0,0,0,0,0,-1,1084,862,0,0
-133,162,0,0,0,0,0,0,0,0,0,-1,1091,862,0,0
-126,162,0,0,0,0,0,0,0,0,0,-1,1098,862,0,0
-119,162,0,0,0,0,0,0,0,0,0,-1,1105,862,0,0
-112,162,0,0,0,0,0,0,0,0,0,-1,1112,862,0,0
-105,162,0,0,0,0,0,0,0,0,0,-1,1119,862,0,0
-98,162,0,0,0,0,0,0,0,0,0,-1,1126,862,0,0
-91,162,0,0,0,0,0,0,0,0,0,-1,1133,862,0,0
-84,162,0,0,0,0,0,0,0,0,0,-1,1140,862,0,0
-77,162,0,0,0,0,0,0,0,0,0,-1,1147,862,0,0
-70,162,0,0,0,0,0,0,0,0,0,-1,1154,862,0,0
-63,162,0,0,0,0,0,0,0,0,0,-1,1161,862,0,0
-56,162,0,0,0,0,0,0,0,0,0,-1,1168,862,0,0
-49,162,0,0,0,0,0,0,0,0,0,-1,1175,862,0,0
-42,162,0,0,0,0,0,0,0,0,0,-1,1182,862,0,0
-35,162,0,0,0,0,0,0,0,0,0,-1,1189,862,0,0
-28,162,0,0,0,0,0,0,0,0,0,-1,1196,862,0,0
-21,162,0,0,0,0,0,0,0,0,0,-1,1203,862,0,0
-14,162,0,0,0,0,0,0,0,0,0,-1,1210,862,0,0
-7,162,0,0,0,0,0,0,0,0,0,-1,1217,862,0,0
0,162,0,0,0,0,0,0,0,0,0,-1,1224,862,0,0
7,162,0,0,0,0,0,0,0,0,0,-1,1231,862,0,0
14,162,0,0,0,0,0,0,0,0,0,-1,1238,862,0,0
21,162,0,0,0,0,0,0,0,0,0,-1,1245,862,0,0
28,162,0,0,0,0,0,0,0,0,0,-1,1252,862,0,0
35,162,0,0,0,0,0,0,0,0,0,-1,1259,862,0,0
42,162,0,0,0,0,0,0,0,0,0,-1,1266,862,0,0
49,162,0,0,0,0,0,0,0,0,0,-1,1273,862,0,0
56,162,0,0,0,0,0,0,0,0,0,-1,1280,862,0,0
63,162,0,0,0,0,0,0,0,0,0,-1,1287,862,0,0
70,162,0,0,0,0,0,0,0,0,0,-1,1294,862,0,0
77,162,0,0,0,0,0,0,0,0,0,-1,1301,862,0,0
84,162,0,0,0,0,0,0,0,0,0,-1,1308,862,0,0
91,162,0,0,0,0,0,0,0,0,0,-1,1315,862,0,0
98,162,0,0,0,0,0,0,0,0,0,-1,1322,862,0,0
105,162,0,0,0,0,0,0,0,0,0,-1,1329,862,0,0
112,162,0,0,0,0,0,0,0,0,0,-1,1336,862,0,0
119,162,0,0,0,0,0,0,0,0,0,-1,1343,862,0,0
126,162,0,0,0,0,0,0,0,0,0,-1,1350,862,0,0
133,162,0,0,0,0,0,0,0,0,0,-1,1357,862,0,0
140,162,0,0,0,0,0,0,0,0,0,-1,1364,862,0,0
147,162,0,0,0,0,0,0,0,0,0,-1,1371,862,0,0
154,162,0,0,0,0,0,0,0,0,0,-1,1378,862,0,0
161,162,0,0,0,0,0,0,0,0,0,-1,1385,862,0,0
168,162,0,0,0,0,0,0,0,0,0,-1,1392,862,0,0
175,162,0,0,0,0,0,0,0,0,0,-1,1399,862,0,0
182,162,0,0,0,0,0,0,0,0,0,-1,1406,862,0,0
189,162,0,0,0,0,0,0,0,0,0,-1,1413,862,0,0
196,162,0,0,0,0,0,0,0,0,0,-1,1420,862,0,0
203,162,0,0,0,0,0,0,0,0,0,-1,1427,862,0,0
210,162,0,0,0,0,0,0,0,0,0,-1,1434,862,0,0
217,162,0,0,0,0,0,0,0,0,0,-1,1441,862,0,0
224,162,0,0,0,0,0,0,0,0,0,-1,1448,862,0,0
231,162,0,0,0,0,0,0,0,0,0,-1,1455,862,0,0
238,162,0,0,0,0,0,0,0,0,0,-1,1462,862,0,0
245,162,0,0,0,0,0,0,0,0,0,-1,1469,862,0,0
252,162,0,0,0,0,0,0,0,0,0,-1,1476,862,0,0
259,162,0,0,0,0,0,0,0,0,0,-1,1483,862,0,0
266,162,0,0,0,0,0,0,0,0,0,-1,1490,862,0,0
273,162,0,0,0,0,0,0,0,0,0,-1,1497,862,0,0
280,162,0,0,0,0,0,0,0,0,0,-1,1504,862,0,0
287,162,0,0,0,0,0,0,0,0,0,-1,1511,862,0,0
294,162,0,0,0,0,0,0,0,0,0,-1,1518,862,0,0
301,162,0,0,0,0,0,0,0,0,0,-1,1525,862,0,0
308,162,0,0,0,0,0,0,0,0,0,-1,1532,862,0,0
315,162,0,0,0,0,0,0,0,0,0,-1,1539,862,0,0
322,162,0,0,0,0,0,0,0,0,0,-1,1546,862,0,0
329,162,0,0,0,0,0,0,0,0,0,-1,1553,862,0,0
336,162,0,0,0,0,0,0,0,0,0,-1,1560,862,0,0
343,162,0,0,0,0,0,0,0,0,0,-1,1567,862,0,0
350,162,0,0,0,0,0,0,0,0,0,-1,1574,862,0,0
357,162,0,0,0,0,0,0,0,0,0,-1,1581,862,0,0
364,162,0,0,0,0,0,0,0,0,0,-1,1588,862,0,0
371,162,0,0,0,0,0,0,0,0,0,-1,1595,862,0,0
378,162,0,0,0,0,0,0,0,0,0,-1,1602,862,0,0
385,162,0,0,0,0,0,0,0,0,0,-1,1609,862,0,0
392,162,0,0,0,0,0,0,0,0,0,-1,1616,862,0,0
399,162,0,0,0,0,0,0,0,0,0,-1,1623,862,0,0
406,162,0,0,0,0,0,0,0,0,0,-1,1630,862,0,0
413,162,0,0,0,0,0,0,0,0,0,-1,1637,862,0,0
420,162,0,0,0,0,0,0,0,0,0,-1,1644,862,0,0
427,162,0,0,0,0,0,0,0,0,0,-1,1651,862,0,0
434,162,0,0,0,0,0,0,0,0,0,-1,1658,862,0,0
441,162,0,0,0,0,0,0,0,0,0,-1,1665,862,0,0
448,162,0,0,0,0,0,0,0,0,0,-1,1672,862,0,0
455,162,0,0,0,0,0,0,0,0,0,-1,1679,862,0,0
462,162,0,0,0,0,0,0,0,0,0,-1,1686,862,0,0
469,162,0,0,0,0,0,0,0,0,0,-1,1693,862,0,0
476,162,0,0,0,0,0,0,0,0,0,-1,1700,862,0,0
483,162,0,0,0,0,0,0,0,0,0,-1,1707,862,0,0
490,162,0,0,0,0,0,0,0,0,0,-1,1714,862,0,0
497,162,0,0,0,0,0,0,0,0,0,-1,1721,862,0,0
504,162,0,0,0,0,0,0,0,0,0,-1,1728,862,0,0
511,162,0,0,0,0,0,0,0,0,0,-1,1735,862,0,0
518,162,0,0,0,0,0,0,0,0,0,-1,1742,862,0,0
525,162,0,0,0,0,0,0,0,0,0,-1,1749,862,0,0
532,162,0,0,0,0,0,0,0,0,0,-1,1756,862,0,0
539,162,0,0,0,0,0,0,0,0,0,-1,1763,862,0,0
546,162,0,0,0,0,0,0,0,0,0,-1,1770,862,0,0
553,162,0,0,0,0,0,0,0,0,0,-1,1777,862,0,0
560,162,0,0,0,0,0,0,0,0,0,-1,1784,862,0,0
567,162,0,0,0,0,0,0,0,0,0,-1,1791,862,0,0
574,162,0,0,0,0,0,0,0,0,0,-1,1798,862,0,0
581,162,0,0,0,0,0,0,0,0,0,-1,1805,862,0,0
588,162,0,0,0,0,0,0,0,0,0,-1,1812,862,0,0
595,162,0,0,0,0,0,0,0,0,0,-1,1819,862,0,0
602,162,0,0,0,0,0,0,0,0,0,-1,1826,862,0,0
609,162,0,0,0,0,0,0,0,0,0,-1,1833,862,0,0
616,162,55.2618,3.07355,0.00210548,-0.00444398,-0.00132342,0.00236279,-0.00470129,-0.192031,0.00415227,0.0453993,1840,862,55.2619,-3.07357
623,162,55.2434,2.8551,0.00162027,-0.00297866,-0.000811093,0.00175912,-0.00311752,-0.169553,0.00285171,0.0466855,1847,862,55.2434,-2.85512
630,162,55.3708,2.84174,0.00102756,-0.00187179,-0.000570306,0.00113571,-0.00197993,-0.187403,0.00182069,0.0446412,1854,862,55.3709,-2.84171
637,162,55.3816,2.8053,0.000237955,-0.000900034,-0.000500563,0.000426798,-0.00108888,-0.360752,0.000902476,0.0418203,1861,862,55.3816,-2.80528
644,162,55.371,2.80524,-0.000528997,-0.000505062,-0.000681693,0.000164768,-0.00119883,-0.794175,0.000859422,0.0396996,1868,862,55.3709,-2.80526
651,162,55.3696,2.8476,-0.00104901,-0.000537151,-0.000944922,0.000185887,-0.00177205,-0.917649,0.00124795,0.0363475,1875,862,55.3697,-2.84758
658,162,55.3857,2.82092,-0.00135343,-0.000825418,-0.00136888,0.000304679,-0.00248353,-0.88066,0.00176603,0.0352263,1882,862,55.3858,-2.82095
665,162,55.4061,2.7431,-0.00162082,-0.000843882,-0.00153855,0.000354487,-0.00281919,-0.909059,0.00200808,0.0487555,1889,862,55.4061,-2.74313
672,162,55.4254,2.64862,0,0,0,0,0,0,0,-1,1896,862,55.4254,-2.64859
679,162,26.5077,2.54785,0,0,0,0,0,0,0,-1,1903,862,26.5077,-2.54787
686,162,45.6431,0.996643,0,0,0,0,0,0,0,-1,1910,862,45.6431,-0.996634
693,162,46.019,1.92828,-0.00138582,-0.000767062,-0.00185415,0.00080334,-0.00295622,-0.868065,0.00228614,0.0329255,1917,862,46.0191,-1.92829
700,162,45.9919,2.47327,-0.00107976,-0.000602996,-0.00182938,0.00100347,-0.00268622,-0.850187,0.00220286,0.0289413,1924,862,45.992,-2.47328
707,162,45.8817,3.01001,-0.000844118,-0.000439611,-0.00174856,0.00111836,-0.00240209,-0.842976,0.00207708,0.0203948,1931,862,45.8818,-3.01
714,162,45.7222,3.50629,-0.000298141,3.30773e-05,-0.001408,0.00128518,-0.00155024,-0.843939,0.00163941,0.0228941,1938,862,45.7221,-3.50626
721,162,45.5863,4.245,0.000342661,0.00101497,-0.000966102,0.00170173,-0.000344099,-0.952821,0.00126488,0.0287864,1945,862,45.5863,-4.245
728,162,45.5966,4.84259,0.00104089,0.00268263,-0.000431789,0.00278926,0.000934255,-1.32868,0.00163937,0.0233474,1952,862,45.5965,-4.84261
735,162,45.6411,5.41272,0.00180491,0.00470937,0.000166241,0.00471885,0.00179542,1.51381,0.00275026,0.0109645,1959,862,45.6412,-5.4127
742,162,45.6101,6.00226,0.00250946,0.0074635,0.000874594,0.00761337,0.00235959,1.40109,0.0045002,0.013204,1966,862,45.6101,-6.00224
749,162,45.5327,6.57489,0.00309575,0.0109769,0.00167235,0.011317,0.00275556,1.37012,0.00681448,0.020513,1973,862,45.5327,-6.57486
756,162,45.3556,7.09833,0.00361863,0.0156509,0.00267672,0.0162195,0.00305003,1.36148,0.00995332,0.0441141,1980,862,45.3556,-7.09833
763,162,45.2255,7.65704,0,0,0,0,0,0,0,-1,1987,862,45.2254,-7.65705
770,162,46.8793,8.40466,0,0,0,0,0,0,0,-1,1994,862,46.8792,-8.40469
777,162,46.7183,8.66571,0,0,0,0,0,0,0,-1,2001,862,46.7182,-8.66568
784,162,43.8618,9.87408,0,0,0,0,0,0,0,-1,2008,862,43.8618,-9.87409
791,162,0,0,0,0,0,0,0,0,0,-1,2015,862,0,0
798,162,0,0,0,0,0,0,0,0,0,-1,2022,862,0,0
805,162,0,0,0,0,0,0,0,0,0,-1,2029,862,0,0
812,162,0,0,0,0,0,0,0,0,0,-1,2036,862,0,0
-700,155,0,0,0,0,0,0,0,0,0,-1,524,869,0,0
-693,155,0,0,0,0,0,0,0,0,0,-1,531,869,0,0
-686,155,0,0,0,0,0,0,0,0,0,-1,538,869,0,0
-679,155,0,0,0,0,0,0,0,0,0,-1,545,869,0,0
-672,155,0,0,0,0,0,0,0,0,0,-1,552,869,0,0
-665,155,-35.6971,6.00806,0,0,0,0,0,0,0,-1,559,869,-35.6971,-6.00807
-658,155,-35.1172,5.68665,0,0,0,0,0,0,0,-1,566,869,-35.1172,-5.68666
-651,155,-34.5151,4.90802,0,0,0,0,0,0,0,-1,573,869,-34.5151,-4.908
-644,155,-34.2178,8.53259,0,0,0,0,0,0,0,-1,580,869,-34.2178,-8.53259
-637,155,-33.9845,7.67682,0,0,0,0,0,0,0,-1,587,869,-33.9845,-7.67681
-630,155,-33.7547,5.27972,0,0,0,0,0,0,0,-1,594,869,-33.7547,-5.27974
-623,155,-33.7822,4.62817,0.00640723,-0.00688824,-0.00533502,0.00828327,-0.00876429,-0.338142,0.00984372,0.0281705,601,869,-33.7822,-4.62819
-616,155,-33.8488,3.97235,0.00295169,-0.00341251,-0.00325186,0.00431935,-0.00478018,-0.39812,0.00525586,0.015664,608,869,-33.8488,-3.97238
-609,155,-33.9199,3.33472,0.000530132,-0.00096336,-0.00108855,0.00110345,-0.00153668,-0.484763,0.0015311,0.0144573,615,869,-33.9199,-3.3347
-602,155,-33.9723,2.78485,-0.00101467,0.000501276,0.000961327,0.000967505,-0.0014809,1.11923,0.00142391,0.0133101,622,869,-33.9723,-2.78484
-595,155,-33.9872,2.23523,-0.00151132,0.00108351,0.00255515,0.00265177,-0.00307958,1.02032,0.00331207,0.0126757,629,869,-33.9873,-2.23522
-588,155,-33.9631,1.70905,-0.00108908,0.00115699,0.00328135,0.00350216,-0.00343426,0.950274,0.00400481,0.0177113,636,869,-33.9632,-1.70906
-581,155,-34.2391,1.2887,-0.000531982,0.0012417,0.00349624,0.00396182,-0.00325211,0.909606,0.00417168,0.0356891,643,869,-34.2391,-1.28867
-574,155,-34.4921,0.987488,0,0,0,0,0,0,0,-1,650,869,-34.4921,-0.98751
-567,155,-34.67,-0.164673,0,0,0,0,0,0,0,-1,657,869,-34.67,0.16468
-560,155,-34.1459,-0.683655,0,0,0,0,0,0,0,-1,664,869,-34.1459,0.683669
-553,155,-33.7892,-1.58704,0,0,0,0,0,0,0,-1,671,869,-33.7892,1.58706
-546,155,-22.7988,0.873657,0,0,0,0,0,0,0,-1,678,869,-22.7988,-0.873645
-539,155,-41.7475,0.907227,0,0,0,0,0,0,0,-1,685,869,-41.7475,-0.907229
-532,155,-41.7123,0.980103,-0.00015043,0.00142205,0.00312524,0.00385844,-0.00258682,0.908629,0.00374523,0.0386987,692,869,-41.7123,-0.980074
-525,155,-41.6743,1.03094,-0.000109573,0.00148579,0.00273469,0.00353676,-0.00216055,0.927306,0.00332118,0.0409521,699,869,-41.6743,-1.03094
-518,155,-41.6794,1.04639,-0.000189798,0.00195157,0.00244678,0.00355167,-0.0017899,0.99164,0.00313938,0.0455794,706,869,-41.6794,-1.04637
-511,155,-41.8497,1.14008,0.00103896,0.00331285,0.00255981,0.00497685,-0.000625032,0.994389,0.00354466,0.044869,713,869,-41.8497,-1.14005
-504,155,-41.9833,1.34692,0.00505539,0.00562826,0.00272714,0.00808397,0.00259969,0.837722,0.0047653,0.0447246,720,869,-41.9834,-1.3469
-497,155,0,0,0,0,0,0,0,0,0,-1,727,869,0,0
-490,155,0,0,0,0,0,0,0,0,0,-1,734,869,0,0
-483,155,0,0,0,0,0,0,0,0,0,-1,741,869,0,0
-476,155,0,0,0,0,0,0,0,0,0,-1,748,869,0,0
-469,155,0,0,0,0,0,0,0,0,0,-1,755,869,0,0
-462,155,0,0,0,0,0,0,0,0,0,-1,762,869,0,0
-455,155,0,0,0,0,0,0,0,0,0,-1,769,869,0,0
-448,155,0,0,0,0,0,0,0,0,0,-1,776,869,0,0
-441,155,0,0,0,0,0,0,0,0,0,-1,783,869,0,0
-434,155,0,0,0,0,0,0,0,0,0,-1,790,869,0,0
-427,155,0,0,0,0,0,0,0,0,0,-1,797,869,0,0
-420,155,0,0,0,0,0,0,0,0,0,-1,804,869,0,0
-413,155,0,0,0,0,0,0,0,0,0,-1,811,869,0,0
-406,155,0,0,0,0,0,0,0,0,0,-1,818,869,0,0
-399,155,0,0,0,0,0,0,0,0,0,-1,825,869,0,0
-392,155,0,0,0,0,0,0,0,0,0,-1,832,869,0,0
-385,155,0,0,0,0,0,0,0,0,0,-1,839,869,0,0
-378,155,0,0,0,0,0,0,0,0,0,-1,846,869,0,0
-371,155,0,0,0,0,0,0,0,0,0,-1,853,869,0,0
-364,155,0,0,0,0,0,0,0,0,0,-1,860,869,0,0
-357,155,0,0,0,0,0,0,0,0,0,-1,867,869,0,0
-350,155,0,0,0,0,0,0,0,0,0,-1,874,869,0,0
-343,155,0,0,0,0,0,0,0,0,0,-1,881,869,0,0
-336,155,0,0,0,0,0,0,0,0,0,-1,888,869,0,0
-329,155,0,0,0,0,0,0,0,0,0,-1,895,869,0,0
-322,155,0,0,0,0,0,0,0,0,0,-1,902,869,0,0
-315,155,0,0,0,0,0,0,0,0,0,-1,909,869,0,0
-308,155,0,0,0,0,0,0,0,0,0,-1,916,869,0,0
-301,155,0,0,0,0,0,0,0,0,0,-1,923,869,0,0
-294,155,0,0,0,0,0,0,0,0,0,-1,930,869,0,0
-287,155,0,0,0,0,0,0,0,0,0,-1,937,869,0,0
-280,155,0,0,0,0,0,0,0,0,0,-1,944,869,0,0
-273,155,0,0,0,0,0,0,0,0,0,-1,951,869,0,0
-266,155,0,0,0,0,0,0,0,0,0,-1,958,869,0,0
-259,155,0,0,0,0,0,0,0,0,0,-1,965,869,0,0
-252,155,0,0,0,0,0,0,0,0,0,-1,972,869,0,0
-245,155,0,0,0,0,0,0,0,0,0,-1,979,869,0,0
-238,155,0,0,0,0,0,0,0,0,0,-1,986,869,0,0
-231,155,0,0,0,0,0,0,0,0,0,-1,993,869,0,0
-224,155,0,0,0,0,0,0,0,0,0,-1,1000,869,0,0
-217,155,0,0,0,0,0,0,0,0,0,-1,1007,869,0,0
-210,155,0,0,0,0,0,0,0,0,0,-1,1014,869,0,0
-203,155,0,0,0,0,0,0,0,0,0,-1,1021,869,0,0
-196,155,0,0,0,0,0,0,0,0,0,-1,1028,869,0,0
-189,155,0,0,0,0,0,0,0,0,0,-1,1035,869,0,0
-182,155,0,0,0,0,0,0,0,0,0,-1,1042,869,0,0
-175,155,0,0,0,0,0,0,0,0,0,-1,1049,869,0,0
-168,155,0,0,0,0,0,0,0,0,0,-1,1056,869,0,0
-161,155,0,0,0,0,0,0,0,0,0,-1,1063,869,0,0
-154,155,0,0,0,0,0,0,0,0,0,-1,1070,869,0,0
-147,155,0,0,0,0,0,0,0,0,0,-1,1077,869,0,0
-140,155,0,0,0,0,0,0,0,0,0,-1,1084,869,0,0
-133,155,0,0,0,0,0,0,0,0,0,-1,1091,869,0,0
-126,155,0,0,0,0,0,0,0,0,0,-1,1098,869,0,0
-119,155,0,0,0,0,0,0,0,0,0,-1,1105,869,0,0
-112,155,0,0,0,0,0,0,0,0,0,-1,1112,869,0,0
-105,155,0,0,0,0,0,0,0,0,0,-1,1119,869,0,0
-98,155,0,0,0,0,0,0,0,0,0,-1,1126,869,0,0
-91,155,0,0,0,0,0,0,0,0,0,-1,1133,869,0,0
-84,155,0,0,0,0,0,0,0,0,0,-1,1140,869,0,0
-77,155,0,0,0,0,0,0,0,0,0,-1,1147,869,0,0
-70,155,0,0,0,0,0,0,0,0,0,-1,1154,869,0,0
-63,155,0,0,0,0,0,0,0,0,0,-1,1161,869,0,0
-56,155,0,0,0,0,0,0,0,0,0,-1,1168,869,0,0
-49,155,0,0,0,0,0,0,0,0,0,-1,1175,869,0,0
-42,155,0,0,0,0,0,0,0,0,0,-1,1182,869,0,0
-35,155,0,0,0,0,0,0,0,0,0,-1,1189,869,0,0
-28,155,0,0,0,0,0,0,0,0,0,-1,1196,869,0,0
-21,155,0,0,0,0,0,0,0,0,0,-1,1203,869,0,0
-14,155,0,0,0,0,0,0,0,0,0,-1,1210,869,0,0
-7,155,0,0,0,0,0,0,0,0,0,-1,1217,869,0,0
0,155,0,0,0,0,0,0,0,0,0,-1,1224,869,0,0
7,155,0,0,0,0,0,0,0,0,0,-1,1231,869,0,0
14,155,0,0,0,0,0,0,0,0,0,-1,1238,869,0,0
21,155,0,0,0,0,0,0,0,0,0,-1,1245,869,0,0
28,155,0,0,0,0,0,0,0,0,0,-1,1252,869,0,0
35,155,0,0,0,0,0,0,0,0,0,-1,1259,869,0,0
42,155,0,0,0,0,0,0,0,0,0,-1,1266,869,0,0
49,155,0,0,0,0,0,0,0,0,0,-1,1273,869,0,0
56,155,0,0,0,0,0,0,0,0,0,-1,1280,869,0,0
63,155,0,0,0,0,0,0,0,0,0,-1,1287,869,0,0
70,155,0,0,0,0,0,0,0,0,0,-1,1294,869,0,0
77,155,0,0,0,0,0,0,0,0,0,-1,1301,869,0,0
84,155,0,0,0,0,0,0,0,0,0,-1,1308,869,0,0
91,155,0,0,0,0,0,0,0,0,0,-1,1315,869,0,0
98,155,0,0,0,0,0,0,0,0,0,-1,1322,869,0,0
105,155,0,0,0,0,0,0,0,0,0,-1,1329,869,0,0
112,155,0,0,0,0,0,0,0,0,0,-1,1336,869,0,0
119,155,0,0,0,0,0,0,0,0,0,-1,1343,869,0,0
126,155,0,0,0,0,0,0,0,0,0,-1,1350,869,0,0
133,155,0,0,0,0,0,0,0,0,0,-1,1357,869,0,0
140,155,0,0,0,0,0,0,0,0,0,-1,1364,869,0,0
147,155,0,0,0,0,0,0,0,0,0,-1,1371,869,0,0
154,155,0,0,0,0,0,0,0,0,0,-1,1378,869,0,0
161,155,0,0,0,0,0,0,0,0,0,-1,1385,869,0,0
168,155,0,0,0,0,0,0,0,0,0,-1,1392,869,0,0
175,155,0,0,0,0,0,0,0,0,0,-1,1399,869,0,0
182,155,0,0,0,0,0,0,0,0,0,-1,1406,869,0,0
189,155,0,0,0,0,0,0,0,0,0,-1,1413,869,0,0
196,155,0,0,0,0,0,0,0,0,0,-1,1420,869,0,0
203,155,0,0,0,0,0,0,0,0,0,-1,1427,869,0,0
210,155,0,0,0,0,0,0,0,0,0,-1,1434,869,0,0
217,155,0,0,0,0,0,0,0,0,0,-1,1441,869,0,0
224,155,0,0,0,0,0,0,0,0,0,-1,1448,869,0,0
231,155,0,0,0,0,0,0,0,0,0,-1,1455,869,0,0
238,155,0,0,0,0,0,0,0,0,0,-1,1462,869,0,0
245,155,0,0,0,0,0,0,0,0,0,-1,1469,869,0,0
252,155,0,0,0,0,0,0,0,0,0,-1,1476,869,0,0
259,155,0,0,0,0,0,0,0,0,0,-1,1483,869,0,0
266,155,0,0,0,0,0,0,0,0,0,-1,1490,869,0,0
273,155,0,0,0,0,0,0,0,0,0,-1,1497,869,0,0
280,155,0,0,0,0,0,0,0,0,0,-1,1504,869,0,0
287,155,0,0,0,0,0,0,0,0,0,-1,1511,869,0,0
294,155,0,0,0,0,0,0,0,0,0,-1,1518,869,0,0
301,155,0,0,0,0,0,0,0,0,0,-1,1525,869,0,0
308,155,0,0,0,0,0,0,0,0,0,-1,1532,869,0,0
315,155,0,0,0,0,0,0,0,0,0,-1,1539,869,0,0
322,155,0,0,0,0,0,0,0,0,0,-1,1546,869,0,0
329,155,0,0,0,0,0,0,0,0,0,-1,1553,869,0,0
336,155,0,0,0,0,0,0,0,0,0,-1,1560,869,0,0
343,155,0,0,0,0,0,0,0,0,0,-1,1567,869,0,0
350,155,0,0,0,0,0,0,0,0,0,-1,1574,869,0,0
357,155,0,0,0,0,0,0,0,0,0,-1,1581,869,0,0
364,155,0,0,0,0,0,0,0,0,0,-1,1588,869,0,0
371,155,0,0,0,0,0,0,0,0,0,-1,1595,869,0,0
378,155,0,0,0,0,0,0,0,0,0,-1,1602,869,0,0
385,155,0,0,0,0,0,0,0,0,0,-1,1609,869,0,0
392,155,0,0,0,0,0,0,0,0,0,-1,1616,869,0,0
399,155,0,0,0,0,0,0,0,0,0,-1,1623,869,0,0
406,155,0,0,0,0,0,0,0,0,0,-1,1630,869,0,0
413,155,0,0,0,0,0,0,0,0,0,-1,1637,869,0,0
420,155,0,0,0,0,0,0,0,0,0,-1,1644,869,0,0
427,155,0,0,0,0,0,0,0,0,0,-1,1651,869,0,0
434,155,0,0,0,0,0,0,0,0,0,-1,1658,869,0,0
441,155,0,0,0,0,0,0,0,0,0,-1,1665,869,0,0
448,155,0,0,0,0,0,0,0,0,0,-1,1672,869,0,0
455,155,0,0,0,0,0,0,0,0,0,-1,1679,869,0,0
462,155,0,0,0,0,0,0,0,0,0,-1,1686,869,0,0
469,155,0,0,0,0,0,0,0,0,0,-1,1693,869,0,0
476,155,0,0,0,0,0,0,0,0,0,-1,1700,869,0,0
483,155,0,0,0,0,0,0,0,0,0,-1,1707,869,0,0
490,155,0,0,0,0,0,0,0,0,0,-1,1714,869,0,0
497,155,0,0,0,0,0,0,0,0,0,-1,1721,869,0,0
504,155,0,0,0,0,0,0,0,0,0,-1,1728,869,0,0
511,155,0,0,0,0,0,0,0,0,0,-1,1735,869,0,0
518,155,0,0,0,0,0,0,0,0,0,-1,1742,869,0,0
525,155,0,0,0,0,0,0,0,0,0,-1,1749,869,0,0
532,155,0,0,0,0,0,0,0,0,0,-1,1756,869,0,0
539,155,0,0,0,0,0,0,0,0,0,-1,1763,869,0,0
546,155,0,0,0,0,0,0,0,0,0,-1,1770,869,0,0
553,155,0,0,0,0,0,0,0,0,0,-1,1777,869,0,0
560,155,0,0,0,0,0,0,0,0,0,-1,1784,869,0,0
567,155,0,0,0,0,0,0,0,0,0,-1,1791,869,0,0
574,155,0,0,0,0,0,0,0,0,0,-1,1798,869,0,0
581,155,0,0,0,0,0,0,0,0,0,-1,1805,869,0,0
588,155,0,0,0,0,0,0,0,0,0,-1,1812,869,0,0
595,155,0,0,0,0,0,0,0,0,0,-1,1819,869,0,0
602,155,0,0,0,0,0,0,0,0,0,-1,1826,869,0,0
609,155,0,0,0,0,0,0,0,0,0,-1,1833,869,0,0
616,155,55.4412,3.13452,0.0027128,-0.00565244,-0.00172058,0.00305287,-0.00599251,-0.195132,0.00531348,0.0469752,1840,869,55.4411,-3.13451
623,155,55.2515,2.80872,0.00213203,-0.00370947,-0.00121776,0.00237572,-0.00395317,-0.197509,0.00369162,0.0442916,1847,869,55.2515,-2.80869
630,155,55.2683,2.78473,0.00155384,-0.00241173,-0.000891059,0.00174486,-0.00260274,-0.211177,0.00252633,0.0453045,1854,869,55.2683,-2.7847
637,155,55.3081,2.85016,0.000862164,-0.00125778,-0.000665703,0.00105387,-0.00144948,-0.280391,0.00145132,0.0427343,1861,869,55.3082,-2.85015
644,155,55.2948,2.73157,0.000133135,-0.000667332,-0.000702183,0.00054114,-0.00107534,-0.52637,0.000950108,0.0381479,1868,869,55.2948,-2.73154
651,155,55.3407,2.72083,-0.000398148,-0.000548703,-0.000875165,0.000404971,-0.00135182,-0.742496,0.00106226,0.035836,1875,869,55.3407,-2.72083
658,155,55.3837,2.75134,-0.000706696,-0.000811115,-0.0012255,0.00046771,-0.00198552,-0.76411,0.00150402,0.0303424,1882,869,55.3837,-2.75135
665,155,55.3712,2.66113,-0.000963784,-0.000775366,-0.00134,0.000473735,-0.00221288,-0.820493,0.00165591,0.0349109,1889,869,55.3712,-2.66115
672,155,55.3721,2.59924,0,0,0,0,0,0,0,-1,1896,869,55.3721,-2.59926
679,155,35.1565,2.78528,0,0,0,0,0,0,0,-1,1903,869,35.1565,-2.7853
686,155,43.6101,1.63361,0,0,0,0,0,0,0,-1,1910,869,43.6101,-1.63362
693,155,46.7524,2.04694,0,0,0,0,0,0,0,-1,1917,869,46.7525,-2.04694
700,155,46.6213,2.5484,-0.000647471,-0.000445631,-0.00153259,0.000989357,-0.00208246,-0.818275,0.00181056,0.0388258,1924,869,46.6214,-2.54843
707,155,46.6199,3.16058,-0.000497971,-0.000289888,-0.00149309,0.00110279,-0.00189064,-0.820183,0.0017481,0.0259373,1931,869,46.6199,-3.16058
714,155,46.8702,3.72223,0,0,0,0,0,0,0,-1,1938,869,46.8703,-3.72225
721,155,46.2781,4.2334,0.000405317,0.00106351,-0.000982641,0.0017707,-0.000301872,-0.946982,0.00129289,0.0348472,1945,869,46.278,-4.2334
728,155,46.22,4.86786,0.000868464,0.00254833,-0.000635596,0.00276171,0.000655083,-1.2469,0.00166627,0.0197859,1952,869,46.22,-4.86787
735,155,46.2504,5.42401,0.00136979,0.00437948,-0.000209268,0.00439397,0.00135531,-1.50171,0.00259817,0.0159674,1959,869,46.2504,-5.42399
742,155,46.2588,6.03284,0.00187506,0.00696382,0.000360738,0.00698926,0.00184961,1.50038,0.00418162,0.0181563,1966,869,46.2588,-6.03282
749,155,46.1858,6.59119,0.00232469,0.0102502,0.00105657,0.0103886,0.00218625,1.44051,0.00632423,0.0175458,1973,869,46.1858,-6.5912
756,155,46.1151,7.19568,0.00282567,0.0144954,0.00195832,0.0148152,0.00250581,1.40889,0.00915658,0.0308345,1980,869,46.1152,-7.1957
763,155,46.5354,7.75531,0,0,0,0,0,0,0,-1,1987,869,46.5354,-7.75533
770,155,46.8861,8.13275,0.00411305,0.0281237,0.00489205,0.0290821,0.00315458,1.37732,0.0184268,0.0473522,1994,869,46.886,-8.13277
777,155,46.8608,8.53491,0.00498689,0.0384736,0.00710424,0.0399184,0.00354206,1.37016,0.0255137,0.0468005,2001,869,46.8608,-8.5349
784,155,47.0833,9.11475,0,0,0,0,0,0,0,-1,2008,869,47.0832,-9.11472
791,155,0,0,0,0,0,0,0,0,0,-1,2015,869,0,0
798,155,0,0,0,0,0,0,0,0,0,-1,2022,869,0,0
805,155,0,0,0,0,0,0,0,0,0,-1,2029,869,0,0
812,155,0,0,0,0,0,0,0,0,0,-1,2036,869,0,0
-700,148,0,0,0,0,0,0,0,0,0,-1,524,876,0,0
-693,148,0,0,0,0,0,0,0,0,0,-1,531,876,0,0
-686,148,0,0,0,0,0,0,0,0,0,-1,538,876,0,0
-679,148,0,0,0,0,0,0,0,0,0,-1,545,876,0,0
-672,148,-36.6312,7.91376,0,0,0,0,0,0,0,-1,552,876,-36.6312,-7.91378
-665,148,-35.9308,6.84241,0,0,0,0,0,0,0,-1,559,876,-35.9308,-6.84243
-658,148,-35.2736,5.81018,0,0,0,0,0,0,0,-1,566,876,-35.2736,-5.8102
-651,148,-34.8042,4.8103,0,0,0,0,0,0,0,-1,573,876,-34.8042,-4.81031
-644,148,-36.0641,1.69067,0,0,0,0,0,0,0,-1,580,876,-36.0641,-1.6907
-637,148,-34.0625,1.75256,0,0,0,0,0,0,0,-1,587,876,-34.0625,-1.75256
-630,148,-34.1535,5.45691,0,0,0,0,0,0,0,-1,594,876,-34.1535,-5.4569
-623,148,-34.2828,4.68909,0.00336612,-0.00338672,-0.00337698,0.00476507,-0.00478568,-0.39274,0.00551413,0.0279439,601,876,-34.2828,-4.68911
-616,148,-34.4142,3.9679,0.000933935,-0.00134388,-0.00180468,0.00192904,-0.00233898,-0.503917,0.00246793,0.0152331,608,876,-34.4143,-3.96793
-609,148,-34.5062,3.36578,-0.000697671,3.02038e-05,-9.09659e-05,4.14001e-05,-0.000708867,-1.44833,0.000486965,0.0139916,615,876,-34.5062,-3.36578
-602,148,-34.5579,2.80725,-0.00168251,0.000874682,0.00155511,0.00160933,-0.00241716,1.12946,0.00234024,0.0153104,622,876,-34.5579,-2.80724
-595,148,-34.5804,2.25739,-0.0017726,0.00127208,0.00272594,0.00287196,-0.00337248,1.04006,0.00360909,0.0133202,629,876,-34.5804,-2.2574
-588,148,-34.5971,1.64319,-0.00118284,0.00132997,0.00312971,0.00344605,-0.00329891,0.976274,0.00389451,0.0258452,636,876,-34.5971,-1.6432
-581,148,-34.7811,1.23651,-0.000713394,0.00146154,0.00322473,0.00377723,-0.00302908,0.948023,0.00393753,0.0427807,643,876,-34.7811,-1.23654
-574,148,-34.4629,0.819763,0,0,0,0,0,0,0,-1,650,876,-34.4629,-0.819762
-567,148,-34.0471,0.486694,0,0,0,0,0,0,0,-1,657,876,-34.0471,-0.48667
-560,148,-34.7544,-0.588257,0,0,0,0,0,0,0,-1,664,876,-34.7544,0.588233
-553,148,-18.3896,-0.00280762,0,0,0,0,0,0,0,-1,671,876,-18.3897,0.00278524
-546,148,-41.7447,0.85144,0,0,0,0,0,0,0,-1,678,876,-41.7447,-0.85141
-539,148,-41.7071,0.870117,-0.000531309,0.00179423,0.00313779,0.00397776,-0.00271484,0.962838,0.00388684,0.042717,685,876,-41.7071,-0.870109
-532,148,-41.7039,0.879211,-0.000272489,0.00197684,0.00292565,0.00398655,-0.00228219,0.968898,0.00366358,0.0372723,692,876,-41.7039,-0.879193
-525,148,-41.6965,0.960815,-0.000345468,0.00215283,0.00246777,0.00366959,-0.00186223,1.01969,0.00325012,0.0398026,699,876,-41.6964,-0.960788
-518,148,-41.6849,1.11432,-0.000499032,0.0029228,0.0021495,0.00395918,-0.0015354,1.12153,0.00327356,0.0453065,706,876,-41.685,-1.11431
-511,148,-41.6753,1.24268,0.000826714,0.00485536,0.00229652,0.00589578,-0.000213713,1.14541,0.00400366,0.0436652,713,876,-41.6753,-1.24265
-504,148,-41.6729,1.22388,0.00471265,0.00759222,0.00228817,0.00885589,0.00344897,1.06622,0.00515444,0.0464726,720,876,-41.6728,-1.22386
-497,148,0,0,0,0,0,0,0,0,0,-1,727,876,0,0
-490,148,0,0,0,0,0,0,0,0,0,-1,734,876,0,0
-483,148,0,0,0,0,0,0,0,0,0,-1,741,876,0,0
-476,148,0,0,0,0,0,0,0,0,0,-1,748,876,0,0
-469,148,0,0,0,0,0,0,0,0,0,-1,755,876,0,0
-462,148,0,0,0,0,0,0,0,0,0,-1,762,876,0,0
-455,148,0,0,0,0,0,0,0,0,0,-1,769,876,0,0
-448,148,0,0,0,0,0,0,0,0,0,-1,776,876,0,0
-441,148,0,0,0,0,0,0,0,0,0,-1,783,876,0,0
-434,148,0,0,0,0,0,0,0,0,0,-1,790,876,0,0
-427,148,0,0,0,0,0,0,0,0,0,-1,797,876,0,0
-420,148,0,0,0,0,0,0,0,0,0,-1,804,876,0,0
-413,148,0,0,0,0,0,0,0,0,0,-1,811,876,0,0
-406,148,0,0,0,0,0,0,0,0,0,-1,818,876,0,0
-399,148,0,0,0,0,0,0,0,0,0,-1,825,876,0,0
-392,148,0,0,0,0,0,0,0,0,0,-1,832,876,0,0
-385,148,0,0,0,0,0,0,0,0,0,-1,839,876,0,0
-378,148,0,0,0,0,0,0,0,0,0,-1,846,876,0,0
-371,148,0,0,0,0,0,0,0,0,0,-1,853,876,0,0
-364,148,0,0,0,0,0,0,0,0,0,-1,860,876,0,0
-357,148,0,0,0,0,0,0,0,0,0,-1,867,876,0,0
-350,148,0,0,0,0,0,0,0,0,0,-1,874,876,0,0
-343,148,0,0,0,0,0,0,0,0,0,-1,881,876,0,0
-336,148,0,0,0,0,0,0,0,0,0,-1,888,876,0,0
-329,148,0,0,0,0,0,0,0,0,0,-1,895,876,0,0
-322,148,0,0,0,0,0,0,0,0,0,-1,902,876,0,0
-315,148,0,0,0,0,0,0,0,0,0,-1,909,876,0,0
-308,148,0,0,0,0,0,0,0,0,0,-1,916,876,0,0
-301,148,0,0,0,0,0,0,0,0,0,-1,923,876,0,0
-294,148,0,0,0,0,0,0,0,0,0,-1,930,876,0,0
-287,148,0,0,0,0,0,0,0,0,0,-1,937,876,0,0
-280,148,0,0,0,0,0,0,0,0,0,-1,944,876,0,0
-273,148,0,0,0,0,0,0,0,0,0,-1,951,876,0,0
-266,148,0,0,0,0,0,0,0,0,0,-1,958,876,0,0
-259,148,0,0,0,0,0,0,0,0,0,-1,965,876,0,0
-252,148,0,0,0,0,0,0,0,0,0,-1,972,876,0,0
-245,148,0,0,0,0,0,0,0,0,0,-1,979,876,0,0
-238,148,0,0,0,0,0,0,0,0,0,-1,986,876,0,0
-231,148,0,0,0,0,0,0,0,0,0,-1,993,876,0,0
-224,148,0,0,0,0,0,0,0,0,0,-1,1000,876,0,0
-217,148,0,0,0,0,0,0,0,0,0,-1,1007,876,0,0
-210,148,0,0,0,0,0,0,0,0,0,-1,1014,876,0,0
-203,148,0,0,0,0,0,0,0,0,0,-1,1021,876,0,0
-196,148,0,0,0,0,0,0,0,0,0,-1,1028,876,0,0
-189,148,0,0,0,0,0,0,0,0,0,-1,1035,876,0,0
-182,148,0,0,0,0,0,0,0,0,0,-1,1042,876,0,0
-175,148,0,0,0,0,0,0,0,0,0,-1,1049,876,0,0
-168,148,0,0,0,0,0,0,0,0,0,-1,1056,876,0,0
-161,148,0,0,0,0,0,0,0,0,0,-1,1063,876,0,0
-154,148,0,0,0,0,0,0,0,0,0,-1,1070,876,0,0
-147,148,0,0,0,0,0,0,0,0,0,-1,1077,876,0,0
-140,148,0,0,0,0,0,0,0,0,0,-1,1084,876,0,0
-133,148,0,0,0,0,0,0,0,0,0,-1,1091,876,0,0
-126,148,0,0,0,0,0,0,0,0,0,-1,1098,876,0,0
-119,148,0,0,0,0,0,0,0,0,0,-1,1105,876,0,0
-112,148,0,0,0,0,0,0,0,0,0,-1,1112,876,0,0
-105,148,0,0,0,0,0,0,0,0,0,-1,1119,876,0,0
-98,148,0,0,0,0,0,0,0,0,0,-1,1126,876,0,0
-91,148,0,0,0,0,0,0,0,0,0,-1,1133,876,0,0
-84,148,0,0,0,0,0,0,0,0,0,-1,1140,876,0,0
-77,148,0,0,0,0,0,0,0,0,0,-1,1147,876,0,0
-70,148,0,0,0,0,0,0,0,0,0,-1,1154,876,0,0
-63,148,0,0,0,0,0,0,0,0,0,-1,1161,876,0,0
-56,148,0,0,0,0,0,0,0,0,0,-1,1168,876,0,0
-49,148,0,0,0,0,0,0,0,0,0,-1,1175,876,0,0
-42,148,0,0,0,0,0,0,0,0,0,-1,1182,876,0,0
-35,148,0,0,0,0,0,0,0,0,0,-1,1189,876,0,0
-28,148,0,0,0,0,0,0,0,0,0,-1,1196,876,0,0
-21,148,0,0,0,0,0,0,0,0,0,-1,1203,876,0,0
-14,148,0,0,0,0,0,0,0,0,0,-1,1210,876,0,0
-7,148,0,0,0,0,0,0,0,0,0,-1,1217,876,0,0
0,148,0,0,0,0,0,0,0,0,0,-1,1224,876,0,0
7,148,0,0,0,0,0,0,0,0,0,-1,1231,876,0,0
14,148,0,0,0,0,0,0,0,0,0,-1,1238,876,0,0
21,148,0,0,0,0,0,0,0,0,0,-1,1245,876,0,0
28,148,0,0,0,0,0,0,0,0,0,-1,1252,876,0,0
35,148,0,0,0,0,0,0,0,0,0,-1,1259,876,0,0
42,148,0,0,0,0,0,0,0,0,0,-1,1266,876,0,0
49,148,0,0,0,0,0,0,0,0,0,-1,1273,876,0,0
56,148,0,0,0,0,0,0,0,0,0,-1,1280,876,0,0
63,148,0,0,0,0,0,0,0,0,0,-1,1287,876,0,0
70,148,0,0,0,0,0,0,0,0,0,-1,1294,876,0,0
77,148,0,0,0,0,0,0,0,0,0,-1,1301,876,0,0
84,148,0,0,0,0,0,0,0,0,0,-1,1308,876,0,0
91,148,0,0,0,0,0,0,0,0,0,-1,1315,876,0,0
98,148,0,0,0,0,0,0,0,0,0,-1,1322,876,0,0
105,148,0,0,0,0,0,0,0,0,0,-1,1329,876,0,0
112,148,0,0,0,0,0,0,0,0,0,-1,1336,876,0,0
119,148,0,0,0,0,0,0,0,0,0,-1,1343,876,0,0
126,148,0,0,0,0,0,0,0,0,0,-1,1350,876,0,0
133,148,0,0,0,0,0,0,0,0,0,-1,1357,876,0,0
140,148,0,0,0,0,0,0,0,0,0,-1,1364,876,0,0
147,148,0,0,0,0,0,0,0,0,0,-1,1371,876,0,0
154,148,0,0,0,0,0,0,0,0,0,-1,1378,876,0,0
161,148,0,0,0,0,0,0,0,0,0,-1,1385,876,0,0
168,148,0,0,0,0,0,0,0,0,0,-1,1392,876,0,0
175,148,0,0,0,0,0,0,0,0,0,-1,1399,876,0,0
182,148,0,0,0,0,0,0,0,0,0,-1,1406,876,0,0
189,148,0,0,0,0,0,0,0,0,0,-1,1413,876,0,0
196,148,0,0,0,0,0,0,0,0,0,-1,1420,876,0,0
203,148,0,0,0,0,0,0,0,0,0,-1,1427,876,0,0
210,148,0,0,0,0,0,0,0,0,0,-1,1434,876,0,0
217,148,0,0,0,0,0,0,0,0,0,-1,1441,876,0,0
224,148,0,0,0,0,0,0,0,0,0,-1,1448,876,0,0
231,148,0,0,0,0,0,0,0,0,0,-1,1455,876,0,0
238,148,0,0,0,0,0,0,0,0,0,-1,1462,876,0,0
245,148,0,0,0,0,0,0,0,0,0,-1,1469,876,0,0
252,148,0,0,0,0,0,0,0,0,0,-1,1476,876,0,0
259,148,0,0,0,0,0,0,0,0,0,-1,1483,876,0,0
266,148,0,0,0,0,0,0,0,0,0,-1,1490,876,0,0
273,148,0,0,0,0,0,0,0,0,0,-1,1497,876,0,0
280,148,0,0,0,0,0,0,0,0,0,-1,1504,876,0,0
287,148,0,0,0,0,0,0,0,0,0,-1,1511,876,0,0
294,148,0,0,0,0,0,0,0,0,0,-1,1518,876,0,0
301,148,0,0,0,0,0,0,0,0,0,-1,1525,876,0,0
308,148,0,0,0,0,0,0,0,0,0,-1,1532,876,0,0
315,148,0,0,0,0,0,0,0,0,0,-1,1539,876,0,0
322,148,0,0,0,0,0,0,0,0,0,-1,1546,876,0,0
329,148,0,0,0,0,0,0,0,0,0,-1,1553,876,0,0
336,148,0,0,0,0,0,0,0,0,0,-1,1560,876,0,0
343,148,0,0,0,0,0,0,0,0,0,-1,1567,876,0,0
350,148,0,0,0,0,0,0,0,0,0,-1,1574,876,0,0
357,148,0,0,0,0,0,0,0,0,0,-1,1581,876,0,0
364,148,0,0,0,0,0,0,0,0,0,-1,1588,876,0,0
371,148,0,0,0,0,0,0,0,0,0,-1,1595,876,0,0
378,148,0,0,0,0,0,0,0,0,0,-1,1602,876,0,0
385,148,0,0,0,0,0,0,0,0,0,-1,1609,876,0,0
392,148,0,0,0,0,0,0,0,0,0,-1,1616,876,0,0
399,148,0,0,0,0,0,0,0,0,0,-1,1623,876,0,0
406,148,0,0,0,0,0,0,0,0,0,-1,1630,876,0,0
413,148,0,0,0,0,0,0,0,0,0,-1,1637,876,0,0
420,148,0,0,0,0,0,0,0,0,0,-1,1644,876,0,0
427,148,0,0,0,0,0,0,0,0,0,-1,1651,876,0,0
434,148,0,0,0,0,0,0,0,0,0,-1,1658,876,0,0
441,148,0,0,0,0,0,0,0,0,0,-1,1665,876,0,0
448,148,0,0,0,0,0,0,0,0,0,-1,1672,876,0,0
455,148,0,0,0,0,0,0,0,0,0,-1,1679,876,0,0
462,148,0,0,0,0,0,0,0,0,0,-1,1686,876,0,0
469,148,0,0,0,0,0,0,0,0,0,-1,1693,876,0,0
476,148,0,0,0,0,0,0,0,0,0,-1,1700,876,0,0
483,148,0,0,0,0,0,0,0,0,0,-1,1707,876,0,0
490,148,0,0,0,0,0,0,0,0,0,-1,1714,876,0,0
497,148,0,0,0,0,0,0,0,0,0,-1,1721,876,0,0
504,148,0,0,0,0,0,0,0,0,0,-1,1728,876,0,0
511,148,0,0,0,0,0,0,0,0,0,-1,1735,876,0,0
518,148,0,0,0,0,0,0,0,0,0,-1,1742,876,0,0
525,148,0,0,0,0,0,0,0,0,0,-1,1749,876,0,0
532,148,0,0,0,0,0,0,0,0,0,-1,1756,876,0,0
539,148,0,0,0,0,0,0,0,0,0,-1,1763,876,0,0
546,148,0,0,0,0,0,0,0,0,0,-1,1770,876,0,0
553,148,0,0,0,0,0,0,0,0,0,-1,1777,876,0,0
560,148,0,0,0,0,0,0,0,0,0,-1,1784,876,0,0
567,148,0,0,0,0,0,0,0,0,0,-1,1791,876,0,0
574,148,0,0,0,0,0,0,0,0,0,-1,1798,876,0,0
581,148,0,0,0,0,0,0,0,0,0,-1,1805,876,0,0
588,148,0,0,0,0,0,0,0,0,0,-1,1812,876,0,0
595,148,0,0,0,0,0,0,0,0,0,-1,1819,876,0,0
602,148,0,0,0,0,0,0,0,0,0,-1,1826,876,0,0
609,148,0,0,0,0,0,0,0,0,0,-1,1833,876,0,0
616,148,0,0,0,0,0,0,0,0,0,-1,1840,876,0,0
623,148,55.3901,2.4278,0.00291896,-0.00360143,-0.00159049,0.00328624,-0.0039687,-0.226941,0.00419482,0.0432188,1847,876,55.3901,-2.42779
630,148,55.2896,2.66321,0.00225522,-0.00236086,-0.00109728,0.00250277,-0.00260841,-0.221893,0.00295115,0.0426743,1854,876,55.2896,-2.66318
637,148,55.283,2.80975,0.00149139,-0.00127102,-0.000773296,0.00169313,-0.00147276,-0.255194,0.0018293,0.0384176,1861,876,55.2829,-2.80976
644,148,55.3317,2.67627,0.000666016,-0.000630372,-0.000708766,0.000978293,-0.000942649,-0.415003,0.00110912,0.0368619,1868,876,55.3316,-2.67625
651,148,55.3607,2.63074,9.40073e-06,-0.000420968,-0.000805527,0.00062799,-0.00103956,-0.654878,0.000972484,0.0386193,1875,876,55.3608,-2.63074
658,148,55.3628,2.69897,-0.000361032,-0.000636298,-0.00107212,0.000582256,-0.00157959,-0.72156,0.00129165,0.0354195,1882,876,55.3629,-2.699
665,148,55.3053,2.80957,-0.000609645,-0.000555224,-0.00113861,0.000556496,-0.00172136,-0.797345,0.00137125,0.0268495,1889,876,55.3053,-2.80959
672,148,55.3335,2.6803,-0.000638455,-0.00051876,-0.00110747,0.000530475,-0.00168769,-0.812392,0.00133749,0.0350839,1896,876,55.3335,-2.68027
679,148,55.3507,2.54956,0,0,0,0,0,0,0,-1,1903,876,55.3507,-2.54958
686,148,21.6195,2.40845,0,0,0,0,0,0,0,-1,1910,876,21.6196,-2.40846
693,148,46.6504,1.83893,0,0,0,0,0,0,0,-1,1917,876,46.6504,-1.83895
700,148,47.2372,2.61914,-0.000325606,-0.000195078,-0.00122669,0.000968086,-0.00148877,-0.811975,0.00142905,0.0464283,1924,876,47.2372,-2.61916
707,148,47.3228,3.38397,-0.000194417,-4.22121e-05,-0.00122452,0.00110856,-0.00134519,-0.816433,0.00141887,0.0329485,1931,876,47.3228,-3.38396
714,148,47.2169,3.78918,0.000183124,0.000408857,-0.00108355,0.0013854,-0.000793422,-0.837293,0.00127333,0.033696,1938,876,47.2169,-3.78921
721,148,47.0106,4.14856,0,0,0,0,0,0,0,-1,1945,876,47.0106,-4.14858
728,148,46.8632,4.84479,0.000838645,0.00255265,-0.000673009,0.00278532,0.000605971,-1.23794,0.00169147,0.0201321,1952,876,46.8631,-4.84477
735,148,46.8794,5.44171,0.00104496,0.004346,-0.000408177,0.00439572,0.000995241,-1.44958,0.0026615,0.0196808,1959,876,46.8794,-5.44169
742,148,46.8331,6.06073,0.00127054,0.00694789,1.6551e-05,0.00694794,0.00127049,1.56788,0.00427191,0.0214779,1966,876,46.8332,-6.06073
749,148,46.7515,6.59241,0.00144181,0.0103197,0.000612898,0.0103618,0.0013997,1.50219,0.00649182,0.0205674,1973,876,46.7514,-6.59243
756,148,46.7273,7.23505,0.00164766,0.0146123,0.00140437,0.0147627,0.00149728,1.46412,0.00938263,0.0254772,1980,876,46.7273,-7.23505
763,148,46.7416,7.90198,0,0,0,0,0,0,0,-1,1987,876,46.7416,-7.90195
770,148,47.1915,7.74152,0.00239914,0.0280816,0.00398896,0.0286869,0.00179385,1.4202,0.0185556,0.0468763,1994,876,47.1916,-7.74154
777,148,47.1826,8.1814,0.00296992,0.0382959,0.00587801,0.0392483,0.00201753,1.41017,0.0255196,0.0488189,2001,876,47.1827,-8.18137
784,148,47.7839,8.88971,0,0,0,0,0,0,0,-1,2008,876,47.7839,-8.88973
791,148,42.936,11.5876,0,0,0,0,0,0,0,-1,2015,876,42.936,-11.5876
798,148,0,0,0,0,0,0,0,0,0,-1,2022,876,0,0
805,148,0,0,0,0,0,0,0,0,0,-1,2029,876,0,0
812,148,0,0,0,0,0,0,0,0,0,-1,2036,876,0,0
-700,141,0,0,0,0,0,0,0,0,0,-1,524,883,0,0
-693,141,0,0,0,0,0,0,0,0,0,-1,531,883,0,0
-686,141,0,0,0,0,0,0,0,0,0,-1,538,883,0,0
-679,141,0,0,0,0,0,0,0,0,0,-1,545,883,0,0
-672,141,-36.9324,7.59656,0,0,0,0,0,0,0,-1,552,883,-36.9324,-7.59659
-665,141,-36.3577,6.56287,0,0,0,0,0,0,0,-1,559,883,-36.3577,-6.56289
-658,141,-35.4344,5.92352,0,0,0,0,0,0,0,-1,566,883,-35.4344,-5.92349
-651,141,-36.1428,3.05023,0,0,0,0,0,0,0,-1,573,883,-36.1428,-3.0502
-644,141,-36.9785,1.43658,0,0,0,0,0,0,0,-1,580,883,-36.9785,-1.43657
-637,141,-34.2079,5.9259,0,0,0,0,0,0,0,-1,587,883,-34.2079,-5.92588
-630,141,-34.6474,5.4093,0,0,0,0,0,0,0,-1,594,883,-34.6474,-5.40932
-623,141,-34.8062,4.6109,0.000818611,0.000658315,-0.00186751,0.00260769,-0.00113076,-0.763953,0.00221383,0.0314378,601,883,-34.8061,-4.61091
-616,141,-34.9994,3.91779,-0.000763479,0.000997833,-0.000591979,0.00117831,-0.000943952,-1.27488,0.00122777,0.014327,608,883,-34.9994,-3.91777
-609,141,-35.0837,3.38037,-0.00178144,0.00107179,0.000762259,0.00126266,-0.00197231,1.32544,0.00188263,0.0154161,615,883,-35.0838,-3.38039
-602,141,-35.116,2.8363,-0.0024292,0.00113562,0.00199282,0.00202685,-0.00332042,1.15026,0.00311721,0.0159127,622,883,-35.116,-2.83628
-595,141,-35.1505,2.27368,0,0,0,0,0,0,0,-1,629,883,-35.1505,-2.27371
-588,141,-35.4595,1.67096,-0.00174259,0.00128075,0.00284409,0.00298995,-0.0034518,1.02967,0.00372233,0.0310035,636,883,-35.4595,-1.67095
-581,141,-35.3957,1.14813,-0.00138343,0.00142968,0.0028786,0.00322698,-0.00318074,1.01265,0.00369953,0.0415452,643,883,-35.3957,-1.14811
-574,141,-35.0407,0.697083,0,0,0,0,0,0,0,-1,650,883,-35.0407,-0.697067
-567,141,-30.5335,0.480103,0,0,0,0,0,0,0,-1,657,883,-30.5335,-0.480081
-560,141,-30.5542,0.23175,0,0,0,0,0,0,0,-1,664,883,-30.5542,-0.231742
-553,141,-32.0876,1.39459,0,0,0,0,0,0,0,-1,671,883,-32.0876,-1.3946
-546,141,-41.673,0.874268,0,0,0,0,0,0,0,-1,678,883,-41.673,-0.874277
-539,141,-41.6735,0.858948,-0.000837807,0.00191347,0.00285111,0.00370347,-0.0026278,1.01017,0.0036729,0.0289416,685,883,-41.6735,-0.858939
-532,141,-41.7147,0.825317,-0.000534671,0.00227362,0.00264917,0.00386776,-0.00212881,1.02909,0.00351031,0.0297081,692,883,-41.7147,-0.825328
-525,141,-41.7117,0.904602,-0.000641153,0.00272944,0.00219537,0.00381179,-0.0017235,1.11275,0.00327074,0.0400451,699,883,-41.7117,-0.904592
-518,141,-41.7079,1.09967,-0.000786279,0.00401286,0.00193479,0.00469571,-0.00146913,1.23151,0.00371823,0.0438302,706,883,-41.7079,-1.09968
-511,141,-41.768,1.18921,0.000488319,0.00652411,0.00210505,0.00718574,-0.000173316,1.26627,0.0048493,0.0406697,713,883,-41.768,-1.18919
-504,141,-41.7064,0.974731,0.0036367,0.00962613,0.00188527,0.0101701,0.00309269,1.28987,0.00602009,0.0443427,720,883,-41.7064,-0.974723
-497,141,0,0,0,0,0,0,0,0,0,-1,727,883,0,0
-490,141,0,0,0,0,0,0,0,0,0,-1,734,883,0,0
-483,141,0,0,0,0,0,0,0,0,0,-1,741,883,0,0
-476,141,0,0,0,0,0,0,0,0,0,-1,748,883,0,0
-469,141,0,0,0,0,0,0,0,0,0,-1,755,883,0,0
-462,141,0,0,0,0,0,0,0,0,0,-1,762,883,0,0
-455,141,0,0,0,0,0,0,0,0,0,-1,769,883,0,0
-448,141,0,0,0,0,0,0,0,0,0,-1,776,883,0,0
-441,141,0,0,0,0,0,0,0,0,0,-1,783,883,0,0
-434,141,0,0,0,0,0,0,0,0,0,-1,790,883,0,0
-427,141,0,0,0,0,0,0,0,0,0,-1,797,883,0,0
-420,141,0,0,0,0,0,0,0,0,0,-1,804,883,0,0
-413,141,0,0,0,0,0,0,0,0,0,-1,811,883,0,0
-406,141,0,0,0,0,0,0,0,0,0,-1,818,883,0,0
-399,141,0,0,0,0,0,0,0,0,0,-1,825,883,0,0
-392,141,0,0,0,0,0,0,0,0,0,-1,832,883,0,0
-385,141,0,0,0,0,0,0,0,0,0,-1,839,883,0,0
-378,141,0,0,0,0,0,0,0,0,0,-1,846,883,0,0
-371,141,0,0,0,0,0,0,0,0,0,-1,853,883,0,0
-364,141,0,0,0,0,0,0,0,0,0,-1,860,883,0,0
-357,141,0,0,0,0,0,0,0,0,0,-1,867,883,0,0
-350,141,0,0,0,0,0,0,0,0,0,-1,874,883,0,0
-343,141,0,0,0,0,0,0,0,0,0,-1,881,883,0,0
-336,141,0,0,0,0,0,0,0,0,0,-1,888,883,0,0
-329,141,0,0,0,0,0,0,0,0,0,-1,895,883,0,0
-322,141,0,0,0,0,0,0,0,0,0,-1,902,883,0,0
-315,141,0,0,0,0,0,0,0,0,0,-1,909,883,0,0
-308,141,0,0,0,0,0,0,0,0,0,-1,916,883,0,0
-301,141,0,0,0,0,0,0,0,0,0,-1,923,883,0,0
-294,141,0,0,0,0,0,0,0,0,0,-1,930,883,0,0
-287,141,0,0,0,0,0,0,0,0,0,-1,937,883,0,0
-280,141,0,0,0,0,0,0,0,0,0,-1,944,883,0,0
-273,141,0,0,0,0,0,0,0,0,0,-1,951,883,0,0
-266,141,0,0,0,0,0,0,0,0,0,-1,958,883,0,0
-259,141,0,0,0,0,0,0,0,0,0,-1,965,883,0,0
-252,141,0,0,0,0,0,0,0,0,0,-1,972,883,0,0
-245,141,0,0,0,0,0,0,0,0,0,-1,979,883,0,0
-238,141,0,0,0,0,0,0,0,0,0,-1,986,883,0,0
-231,141,0,0,0,0,0,0,0,0,0,-1,993,883,0,0
-224,141,0,0,0,0,0,0,0,0,0,-1,1000,883,0,0
-217,141,0,0,0,0,0,0,0,0,0,-1,1007,883,0,0
-210,141,0,0,0,0,0,0,0,0,0,-1,1014,883,0,0
-203,141,0,0,0,0,0,0,0,0,0,-1,1021,883,0,0
-196,141,0,0,0,0,0,0,0,0,0,-1,1028,883,0,0
-189,141,0,0,0,0,0,0,0,0,0,-1,1035,883,0,0
-182,141,0,0,0,0,0,0,0,0,0,-1,1042,883,0,0
-175,141,0,0,0,0,0,0,0,0,0,-1,1049,883,0,0
-168,141,0,0,0,0,0,0,0,0,0,-1,1056,883,0,0
-161,141,0,0,0,0,0,0,0,0,0,-1,1063,883,0,0
-154,141,0,0,0,0,0,0,0,0,0,-1,1070,883,0,0
-147,141,0,0,0,0,0,0,0,0,0,-1,1077,883,0,0
-140,141,0,0,0,0,0,0,0,0,0,-1,1084,883,0,0
-133,141,0,0,0,0,0,0,0,0,0,-1,1091,883,0,0
-126,141,0,0,0,0,0,0,0,0,0,-1,1098,883,0,0
-119,141,0,0,0,0,0,0,0,0,0,-1,1105,883,0,0
-112,141,0,0,0,0,0,0,0,0,0,-1,1112,883,0,0
-105,141,0,0,0,0,0,0,0,0,0,-1,1119,883,0,0
-98,141,0,0,0,0,0,0,0,0,0,-1,1126,883,0,0
-91,141,0,0,0,0,0,0,0,0,0,-1,1133,883,0,0
-84,141,0,0,0,0,0,0,0,0,0,-1,1140,883,0,0
-77,141,0,0,0,0,0,0,0,0,0,-1,1147,883,0,0
-70,141,0,0,0,0,0,0,0,0,0,-1,1154,883,0,0
-63,141,0,0,0,0,0,0,0,0,0,-1,1161,883,0,0
-56,141,0,0,0,0,0,0,0,0,0,-1,1168,883,0,0
-49,141,0,0,0,0,0,0,0,0,0,-1,1175,883,0,0
-42,141,0,0,0,0,0,0,0,0,0,-1,1182,883,0,0
-35,141,0,0,0,0,0,0,0,0,0,-1,1189,883,0,0
-28,141,0,0,0,0,0,0,0,0,0,-1,1196,883,0,0
-21,141,0,0,0,0,0,0,0,0,0,-1,1203,883,0,0
-14,141,0,0,0,0,0,0,0,0,0,-1,1210,883,0,0
-7,141,0,0,0,0,0,0,0,0,0,-1,1217,883,0,0
0,141,0,0,0,0,0,0,0,0,0,-1,1224,883,0,0
7,141,0,0,0,0,0,0,0,0,0,-1,1231,883,0,0
14,141,0,0,0,0,0,0,0,0,0,-1,1238,883,0,0
21,141,0,0,0,0,0,0,0,0,0,-1,1245,883,0,0
28,141,0,0,0,0,0,0,0,0,0,-1,1252,883,0,0
35,141,0,0,0,0,0,0,0,0,0,-1,1259,883,0,0
42,141,0,0,0,0,0,0,0,0,0,-1,1266,883,0,0
49,141,0,0,0,0,0,0,0,0,0,-1,1273,883,0,0
56,141,0,0,0,0,0,0,0,0,0,-1,1280,883,0,0
63,141,0,0,0,0,0,0,0,0,0,-1,1287,883,0,0
70,141,0,0,0,0,0,0,0,0,0,-1,1294,883,0,0
77,141,0,0,0,0,0,0,0,0,0,-1,1301,883,0,0
84,141,0,0,0,0,0,0,0,0,0,-1,1308,883,0,0
91,141,0,0,0,0,0,0,0,0,0,-1,1315,883,0,0
98,141,0,0,0,0,0,0,0,0,0,-1,1322,883,0,0
105,141,0,0,0,0,0,0,0,0,0,-1,1329,883,0,0
112,141,0,0,0,0,0,0,0,0,0,-1,1336,883,0,0
119,141,0,0,0,0,0,0,0,0,0,-1,1343,883,0,0
126,141,0,0,0,0,0,0,0,0,0,-1,1350,883,0,0
133,141,0,0,0,0,0,0,0,0,0,-1,1357,883,0,0
140,141,0,0,0,0,0,0,0,0,0,-1,1364,883,0,0
147,141,0,0,0,0,0,0,0,0,0,-1,1371,883,0,0
154,141,0,0,0,0,0,0,0,0,0,-1,1378,883,0,0
161,141,0,0,0,0,0,0,0,0,0,-1,1385,883,0,0
168,141,0,0,0,0,0,0,0,0,0,-1,1392,883,0,0
175,141,0,0,0,0,0,0,0,0,0,-1,1399,883,0,0
182,141,0,0,0,0,0,0,0,0,0,-1,1406,883,0,0
189,141,0,0,0,0,0,0,0,0,0,-1,1413,883,0,0
196,141,0,0,0,0,0,0,0,0,0,-1,1420,883,0,0
203,141,0,0,0,0,0,0,0,0,0,-1,1427,883,0,0
210,141,0,0,0,0,0,0,0,0,0,-1,1434,883,0,0
217,141,0,0,0,0,0,0,0,0,0,-1,1441,883,0,0
224,141,0,0,0,0,0,0,0,0,0,-1,1448,883,0,0
231,141,0,0,0,0,0,0,0,0,0,-1,1455,883,0,0
238,141,0,0,0,0,0,0,0,0,0,-1,1462,883,0,0
245,141,0,0,0,0,0,0,0,0,0,-1,1469,883,0,0
252,141,0,0,0,0,0,0,0,0,0,-1,1476,883,0,0
259,141,0,0,0,0,0,0,0,0,0,-1,1483,883,0,0
266,141,0,0,0,0,0,0,0,0,0,-1,1490,883,0,0
273,141,0,0,0,0,0,0,0,0,0,-1,1497,883,0,0
280,141,0,0,0,0,0,0,0,0,0,-1,1504,883,0,0
287,141,0,0,0,0,0,0,0,0,0,-1,1511,883,0,0
294,141,0,0,0,0,0,0,0,0,0,-1,1518,883,0,0
301,141,0,0,0,0,0,0,0,0,0,-1,1525,883,0,0
308,141,0,0,0,0,0,0,0,0,0,-1,1532,883,0,0
315,141,0,0,0,0,0,0,0,0,0,-1,1539,883,0,0
322,141,0,0,0,0,0,0,0,0,0,-1,1546,883,0,0
329,141,0,0,0,0,0,0,0,0,0,-1,1553,883,0,0
336,141,0,0,0,0,0,0,0,0,0,-1,1560,883,0,0
343,141,0,0,0,0,0,0,0,0,0,-1,1567,883,0,0
350,141,0,0,0,0,0,0,0,0,0,-1,1574,883,0,0
357,141,0,0,0,0,0,0,0,0,0,-1,1581,883,0,0
364,141,0,0,0,0,0,0,0,0,0,-1,1588,883,0,0
371,141,0,0,0,0,0,0,0,0,0,-1,1595,883,0,0
378,141,0,0,0,0,0,0,0,0,0,-1,1602,883,0,0
385,141,0,0,0,0,0,0,0,0,0,-1,1609,883,0,0
392,141,0,0,0,0,0,0,0,0,0,-1,1616,883,0,0
399,141,0,0,0,0,0,0,0,0,0,-1,1623,883,0,0
406,141,0,0,0,0,0,0,0,0,0,-1,1630,883,0,0
413,141,0,0,0,0,0,0,0,0,0,-1,1637,883,0,0
420,141,0,0,0,0,0,0,0,0,0,-1,1644,883,0,0
427,141,0,0,0,0,0,0,0,0,0,-1,1651,883,0,0
434,141,0,0,0,0,0,0,0,0,0,-1,1658,883,0,0
441,141,0,0,0,0,0,0,0,0,0,-1,1665,883,0,0
448,141,0,0,0,0,0,0,0,0,0,-1,1672,883,0,0
455,141,0,0,0,0,0,0,0,0,0,-1,1679,883,0,0
462,141,0,0,0,0,0,0,0,0,0,-1,1686,883,0,0
469,141,0,0,0,0,0,0,0,0,0,-1,1693,883,0,0
476,141,0,0,0,0,0,0,0,0,0,-1,1700,883,0,0
483,141,0,0,0,0,0,0,0,0,0,-1,1707,883,0,0
490,141,0,0,0,0,0,0,0,0,0,-1,1714,883,0,0
497,141,0,0,0,0,0,0,0,0,0,-1,1721,883,0,0
504,141,0,0,0,0,0,0,0,0,0,-1,1728,883,0,0
511,141,0,0,0,0,0,0,0,0,0,-1,1735,883,0,0
518,141,0,0,0,0,0,0,0,0,0,-1,1742,883,0,0
525,141,0,0,0,0,0,0,0,0,0,-1,1749,883,0,0
532,141,0,0,0,0,0,0,0,0,0,-1,1756,883,0,0
539,141,0,0,0,0,0,0,0,0,0,-1,1763,883,0,0
546,141,0,0,0,0,0,0,0,0,0,-1,1770,883,0,0
553,141,0,0,0,0,0,0,0,0,0,-1,1777,883,0,0
560,141,0,0,0,0,0,0,0,0,0,-1,1784,883,0,0
567,141,0,0,0,0,0,0,0,0,0,-1,1791,883,0,0
574,141,0,0,0,0,0,0,0,0,0,-1,1798,883,0,0
581,141,0,0,0,0,0,0,0,0,0,-1,1805,883,0,0
588,141,0,0,0,0,0,0,0,0,0,-1,1812,883,0,0
595,141,0,0,0,0,0,0,0,0,0,-1,1819,883,0,0
602,141,0,0,0,0,0,0,0,0,0,-1,1826,883,0,0
609,141,0,0,0,0,0,0,0,0,0,-1,1833,883,0,0
616,141,0,0,0,0,0,0,0,0,0,-1,1840,883,0,0
623,141,55.226,2.77148,0.00349591,-0.0026088,-0.00167687,0.00392619,-0.00303908,-0.251179,0.00403226,0.0490043,1847,883,55.226,-2.77149
630,141,55.3269,2.83929,0.00280221,-0.00158009,-0.00112806,0.00307554,-0.00185342,-0.237719,0.00287475,0.0496886,1854,883,55.3269,-2.83928
637,141,55.3583,2.81238,0.00201802,-0.000671594,-0.000795857,0.00223587,-0.000889443,-0.267184,0.00185938,0.044261,1861,883,55.3582,-2.81236
644,141,55.3353,2.70813,0.00114124,-0.00010164,-0.000670808,0.00143422,-0.000394624,-0.411791,0.0011113,0.0378627,1868,883,55.3353,-2.70815
651,141,55.3682,2.91022,0.000371375,0.000122979,-0.000684016,0.000942377,-0.000448022,-0.695591,0.000819486,0.0369249,1875,883,55.3681,-2.9102
658,141,55.3516,2.92334,-7.29927e-05,-6.86843e-05,-0.000832796,0.000761961,-0.000903638,-0.786692,0.000962793,0.0393861,1882,883,55.3515,-2.92333
665,141,55.2751,2.8139,-0.000306584,2.14475e-05,-0.000830688,0.000704158,-0.000989294,-0.882867,0.000982324,0.0294744,1889,883,55.2751,-2.81391
672,141,55.2755,2.80566,-0.000310102,1.16567e-05,-0.000782856,0.000649993,-0.000948438,-0.886739,0.000928201,0.0237213,1896,883,55.2755,-2.80566
679,141,55.1801,2.88464,-0.000260276,5.73093e-05,-0.00083537,0.000748845,-0.000951812,-0.879321,0.000984203,0.0453356,1903,883,55.1801,-2.88467
686,141,55.082,2.94781,0,0,0,0,0,0,0,-1,1910,883,55.082,-2.9478
693,141,47.1669,1.89545,0,0,0,0,0,0,0,-1,1917,883,47.1669,-1.89546
700,141,47.7743,2.68555,0,0,0,0,0,0,0,-1,1924,883,47.7743,-2.68552
707,141,47.8319,3.28033,0,0,0,0,0,0,0,-1,1931,883,47.8319,-3.28036
714,141,47.45,3.78119,0.000332949,0.000710383,-0.000844616,0.00138711,-0.000343777,-0.895311,0.00105811,0.032011,1938,883,47.4499,-3.7812
721,141,47.4248,4.28662,0.000622843,0.00143105,-0.000773957,0.00190005,0.000153843,-1.02599,0.00121866,0.0175138,1945,883,47.4248,-4.28664
728,141,47.4945,4.81519,0.000724251,0.00253997,-0.000647661,0.00274732,0.00051691,-1.26097,0.00168587,0.0156658,1952,883,47.4945,-4.8152
735,141,47.469,5.48389,0.000748633,0.0042008,-0.000580638,0.00429584,0.000653589,-1.40855,0.0026728,0.0176757,1959,883,47.469,-5.48388
742,141,47.4025,6.05975,0.000800061,0.00675674,-0.000352464,0.00677753,0.000779278,-1.5119,0.00428229,0.018679,1966,883,47.4024,-6.05972
749,141,47.386,6.56116,0.00084468,0.0101522,8.07727e-05,0.0101529,0.000843979,1.56212,0.00650553,0.0149034,1973,883,47.386,-6.56118
756,141,47.3885,7.17883,0.000974855,0.0144196,0.000678993,0.0144538,0.000940651,1.52046,0.00933811,0.0217807,1980,883,47.3885,-7.1788
763,141,47.3723,7.88037,0.00135958,0.0197223,0.00143612,0.0198339,0.00124794,1.49322,0.0128269,0.0460421,1987,883,47.3723,-7.88036
770,141,47.3291,8.56403,0,0,0,0,0,0,0,-1,1994,883,47.3291,-8.56401
777,141,47.5159,7.77124,0,0,0,0,0,0,0,-1,2001,883,47.5159,-7.77122
784,141,43.439,10.2161,0,0,0,0,0,0,0,-1,2008,883,43.4389,-10.2161
791,141,42.5815,7.74707,0,0,0,0,0,0,0,-1,2015,883,42.5815,-7.74706
798,141,0,0,0,0,0,0,0,0,0,-1,2022,883,0,0
805,141,0,0,0,0,0,0,0,0,0,-1,2029,883,0,0
812,141,0,0,0,0,0,0,0,0,0,-1,2036,883,0,0
-700,134,0,0,0,0,0,0,0,0,0,-1,524,890,0,0
-693,134,0,0,0,0,0,0,0,0,0,-1,531,890,0,0
-686,134,0,0,0,0,0,0,0,0,0,-1,538,890,0,0
-679,134,0,0,0,0,0,0,0,0,0,-1,545,890,0,0
-672,134,-37.1349,7.24268,0,0,0,0,0,0,0,-1,552,890,-37.135,-7.24265
-665,134,-36.5696,6.05627,0,0,0,0,0,0,0,-1,559,890,-36.5696,-6.0563
-658,134,-36.7392,4.95111,0,0,0,0,0,0,0,-1,566,890,-36.7392,-4.95109
-651,134,-37.1125,2.70453,0,0,0,0,0,0,0,-1,573,890,-37.1125,-2.70451
-644,134,-37.8325,1.0694,0,0,0,0,0,0,0,-1,580,890,-37.8325,-1.06941
-637,134,-38.2886,-0.658752,0,0,0,0,0,0,0,-1,587,890,-38.2886,0.658751
-630,134,-35.2626,4.93317,0,0,0,0,0,0,0,-1,594,890,-35.2626,-4.93318
-623,134,-35.3885,4.45496,-0.0014251,0.00392439,2.75395e-06,0.00392439,-0.0014251,1.57028,0.00319892,0.0282024,601,890,-35.3886,-4.45494
-616,134,-35.5833,3.91589,-0.00221487,0.00273566,0.000710676,0.00283566,-0.00231487,1.431,0.00297872,0.0130139,608,890,-35.5833,-3.91588
-609,134,-35.6821,3.38507,-0.00267648,0.00171702,0.00153305,0.00219907,-0.00315853,1.26615,0.0031097,0.0137094,615,890,-35.6821,-3.38508
-602,134,-35.6784,2.82361,-0.0030236,0.00117609,0.00225602,0.00215829,-0.00400579,1.16018,0.00361173,0.015163,622,890,-35.6784,-2.82361
-595,134,-35.647,2.31946,-0.00280406,0.00103686,0.00255322,0.00231126,-0.00407846,1.10784,0.00373584,0.0232309,629,890,-35.6469,-2.31948
-588,134,-36.0897,1.82623,-0.00218483,0.00090417,0.00245839,0.00226297,-0.00354364,1.06587,0.00337952,0.0382664,636,890,-36.0897,-1.82623
-581,134,-36.21,1.22534,0,0,0,0,0,0,0,-1,643,890,-36.21,-1.22532
-574,134,-31.1517,0.757751,0,0,0,0,0,0,0,-1,650,890,-31.1517,-0.757758
-567,134,-30.9003,0.296326,0,0,0,0,0,0,0,-1,657,890,-30.9002,-0.296302
-560,134,-22.9123,0.106567,0,0,0,0,0,0,0,-1,664,890,-22.9123,-0.106594
-553,134,-41.6956,0.855286,0,0,0,0,0,0,0,-1,671,890,-41.6956,-0.855303
-546,134,-41.7465,0.83551,-0.00112892,0.00128263,0.00247092,0.00282628,-0.00267257,1.01239,0.00317518,0.0333235,678,890,-41.7465,-0.835517
-539,134,-41.7016,0.841064,-0.00100388,0.0016462,0.00226477,0.00294507,-0.00230275,1.05008,0.00303739,0.0187978,685,890,-41.7016,-0.841043
-532,134,-41.6925,0.849365,-0.00063677,0.00215502,0.00208165,0.00326547,-0.00174722,1.08075,0.002938,0.0245492,692,890,-41.6925,-0.849354
-525,134,-41.6807,0.929077,-0.000751547,0.00292515,0.00170054,0.00359107,-0.00141747,1.19756,0.00298107,0.0371641,699,890,-41.6807,-0.929105
-518,134,-41.6333,1.05768,-0.000929036,0.00461663,0.0015711,0.00503079,-0.0013432,1.31304,0.00387989,0.0428062,706,890,-41.6333,-1.0577
-511,134,-41.7617,1.19714,0.000104317,0.00738517,0.00182796,0.00781834,-0.000328847,1.33812,0.00532523,0.0445606,713,890,-41.7617,-1.19714
-504,134,0,0,0,0,0,0,0,0,0,-1,720,890,0,0
-497,134,0,0,0,0,0,0,0,0,0,-1,727,890,0,0
-490,134,0,0,0,0,0,0,0,0,0,-1,734,890,0,0
-483,134,0,0,0,0,0,0,0,0,0,-1,741,890,0,0
-476,134,0,0,0,0,0,0,0,0,0,-1,748,890,0,0
-469,134,0,0,0,0,0,0,0,0,0,-1,755,890,0,0
-462,134,0,0,0,0,0,0,0,0,0,-1,762,890,0,0
-455,134,0,0,0,0,0,0,0,0,0,-1,769,890,0,0
-448,134,0,0,0,0,0,0,0,0,0,-1,776,890,0,0
-441,134,0,0,0,0,0,0,0,0,0,-1,783,890,0,0
-434,134,0,0,0,0,0,0,0,0,0,-1,790,890,0,0
-427,134,0,0,0,0,0,0,0,0,0,-1,797,890,0,0
-420,134,0,0,0,0,0,0,0,0,0,-1,804,890,0,0
-413,134,0,0,0,0,0,0,0,0,0,-1,811,890,0,0
-406,134,0,0,0,0,0,0,0,0,0,-1,818,890,0,0
-399,134,0,0,0,0,0,0,0,0,0,-1,825,890,0,0
-392,134,0,0,0,0,0,0,0,0,0,-1,832,890,0,0
-385,134,0,0,0,0,0,0,0,0,0,-1,839,890,0,0
-378,134,0,0,0,0,0,0,0,0,0,-1,846,890,0,0
-371,134,0,0,0,0,0,0,0,0,0,-1,853,890,0,0
-364,134,0,0,0,0,0,0,0,0,0,-1,860,890,0,0
-357,134,0,0,0,0,0,0,0,0,0,-1,867,890,0,0
-350,134,0,0,0,0,0,0,0,0,0,-1,874,890,0,0
-343,134,0,0,0,0,0,0,0,0,0,-1,881,890,0,0
-336,134,0,0,0,0,0,0,0,0,0,-1,888,890,0,0
-329,134,0,0,0,0,0,0,0,0,0,-1,895,890,0,0
-322,134,0,0,0,0,0,0,0,0,0,-1,902,890,0,0
-315,134,0,0,0,0,0,0,0,0,0,-1,909,890,0,0
-308,134,0,0,0,0,0,0,0,0,0,-1,916,890,0,0
-301,134,0,0,0,0,0,0,0,0,0,-1,923,890,0,0
-294,134,0,0,0,0,0,0,0,0,0,-1,930,890,0,0
-287,134,0,0,0,0,0,0,0,0,0,-1,937,890,0,0
-280,134,0,0,0,0,0,0,0,0,0,-1,944,890,0,0
-273,134,0,0,0,0,0,0,0,0,0,-1,951,890,0,0
-266,134,0,0,0,0,0,0,0,0,0,-1,958,890,0,0
-259,134,0,0,0,0,0,0,0,0,0,-1,965,890,0,0
-252,134,0,0,0,0,0,0,0,0,0,-1,972,890,0,0
-245,134,0,0,0,0,0,0,0,0,0,-1,979,890,0,0
-238,134,0,0,0,0,0,0,0,0,0,-1,986,890,0,0
-231,134,0,0,0,0,0,0,0,0,0,-1,993,890,0,0
-224,134,0,0,0,0,0,0,0,0,0,-1,1000,890,0,0
-217,134,0,0,0,0,0,0,0,0,0,-1,1007,890,0,0
-210,134,0,0,0,0,0,0,0,0,0,-1,1014,890,0,0
-203,134,0,0,0,0,0,0,0,0,0,-1,1021,890,0,0
-196,134,0,0,0,0,0,0,0,0,0,-1,1028,890,0,0
-189,134,0,0,0,0,0,0,0,0,0,-1,1035,890,0,0
-182,134,0,0,0,0,0,0,0,0,0,-1,1042,890,0,0
-175,134,0,0,0,0,0,0,0,0,0,-1,1049,890,0,0
-168,134,0,0,0,0,0,0,0,0,0,-1,1056,890,0,0
-161,134,0,0,0,0,0,0,0,0,0,-1,1063,890,0,0
-154,134,0,0,0,0,0,0,0,0,0,-1,1070,890,0,0
-147,134,0,0,0,0,0,0,0,0,0,-1,1077,890,0,0
-140,134,0,0,0,0,0,0,0,0,0,-1,1084,890,0,0
-133,134,0,0,0,0,0,0,0,0,0,-1,1091,890,0,0
-126,134,0,0,0,0,0,0,0,0,0,-1,1098,890,0,0
-119,134,0,0,0,0,0,0,0,0,0,-1,1105,890,0,0
-112,134,0,0,0,0,0,0,0,0,0,-1,1112,890,0,0
-105,134,0,0,0,0,0,0,0,0,0,-1,1119,890,0,0
-98,134,0,0,0,0,0,0,0,0,0,-1,1126,890,0,0
-91,134,0,0,0,0,0,0,0,0,0,-1,1133,890,0,0
-84,134,0,0,0,0,0,0,0,0,0,-1,1140,890,0,0
-77,134,0,0,0,0,0,0,0,0,0,-1,1147,890,0,0
-70,134,0,0,0,0,0,0,0,0,0,-1,1154,890,0,0
-63,134,0,0,0,0,0,0,0,0,0,-1,1161,890,0,0
-56,134,0,0,0,0,0,0,0,0,0,-1,1168,890,0,0
-49,134,0,0,0,0,0,0,0,0,0,-1,1175,890,0,0
-42,134,0,0,0,0,0,0,0,0,0,-1,1182,890,0,0
-35,134,0,0,0,0,0,0,0,0,0,-1,1189,890,0,0
-28,134,0,0,0,0,0,0,0,0,0,-1,1196,890,0,0
-21,134,0,0,0,0,0,0,0,0,0,-1,1203,890,0,0
-14,134,0,0,0,0,0,0,0,0,0,-1,1210,890,0,0
-7,134,0,0,0,0,0,0,0,0,0,-1,1217,890,0,0
0,134,0,0,0,0,0,0,0,0,0,-1,1224,890,0,0
7,134,0,0,0,0,0,0,0,0,0,-1,1231,890,0,0
14,134,0,0,0,0,0,0,0,0,0,-1,1238,890,0,0
21,134,0,0,0,0,0,0,0,0,0,-1,1245,890,0,0
28,134,0,0,0,0,0,0,0,0,0,-1,1252,890,0,0
35,134,0,0,0,0,0,0,0,0,0,-1,1259,890,0,0
42,134,0,0,0,0,0,0,0,0,0,-1,1266,890,0,0
49,134,0,0,0,0,0,0,0,0,0,-1,1273,890,0,0
56,134,0,0,0,0,0,0,0,0,0,-1,1280,890,0,0
63,134,0,0,0,0,0,0,0,0,0,-1,1287,890,0,0
70,134,0,0,0,0,0,0,0,0,0,-1,1294,890,0,0
77,134,0,0,0,0,0,0,0,0,0,-1,1301,890,0,0
84,134,0,0,0,0,0,0,0,0,0,-1,1308,890,0,0
91,134,0,0,0,0,0,0,0,0,0,-1,1315,890,0,0
98,134,0,0,0,0,0,0,0,0,0,-1,1322,890,0,0
105,134,0,0,0,0,0,0,0,0,0,-1,1329,890,0,0
112,134,0,0,0,0,0,0,0,0,0,-1,1336,890,0,0
119,134,0,0,0,0,0,0,0,0,0,-1,1343,890,0,0
126,134,0,0,0,0,0,0,0,0,0,-1,1350,890,0,0
133,134,0,0,0,0,0,0,0,0,0,-1,1357,890,0,0
140,134,0,0,0,0,0,0,0,0,0,-1,1364,890,0,0
147,134,0,0,0,0,0,0,0,0,0,-1,1371,890,0,0
154,134,0,0,0,0,0,0,0,0,0,-1,1378,890,0,0
161,134,0,0,0,0,0,0,0,0,0,-1,1385,890,0,0
168,134,0,0,0,0,0,0,0,0,0,-1,1392,890,0,0
175,134,0,0,0,0,0,0,0,0,0,-1,1399,890,0,0
182,134,0,0,0,0,0,0,0,0,0,-1,1406,890,0,0
189,134,0,0,0,0,0,0,0,0,0,-1,1413,890,0,0
196,134,0,0,0,0,0,0,0,0,0,-1,1420,890,0,0
203,134,0,0,0,0,0,0,0,0,0,-1,1427,890,0,0
210,134,0,0,0,0,0,0,0,0,0,-1,1434,890,0,0
217,134,0,0,0,0,0,0,0,0,0,-1,1441,890,0,0
224,134,0,0,0,0,0,0,0,0,0,-1,1448,890,0,0
231,134,0,0,0,0,0,0,0,0,0,-1,1455,890,0,0
238,134,0,0,0,0,0,0,0,0,0,-1,1462,890,0,0
245,134,0,0,0,0,0,0,0,0,0,-1,1469,890,0,0
252,134,0,0,0,0,0,0,0,0,0,-1,1476,890,0,0
259,134,0,0,0,0,0,0,0,0,0,-1,1483,890,0,0
266,134,0,0,0,0,0,0,0,0,0,-1,1490,890,0,0
273,134,0,0,0,0,0,0,0,0,0,-1,1497,890,0,0
280,134,0,0,0,0,0,0,0,0,0,-1,1504,890,0,0
287,134,0,0,0,0,0,0,0,0,0,-1,1511,890,0,0
294,134,0,0,0,0,0,0,0,0,0,-1,1518,890,0,0
301,134,0,0,0,0,0,0,0,0,0,-1,1525,890,0,0
308,134,0,0,0,0,0,0,0,0,0,-1,1532,890,0,0
315,134,0,0,0,0,0,0,0,0,0,-1,1539,890,0,0
322,134,0,0,0,0,0,0,0,0,0,-1,1546,890,0,0
329,134,0,0,0,0,0,0,0,0,0,-1,1553,890,0,0
336,134,0,0,0,0,0,0,0,0,0,-1,1560,890,0,0
343,134,0,0,0,0,0,0,0,0,0,-1,1567,890,0,0
350,134,0,0,0,0,0,0,0,0,0,-1,1574,890,0,0
357,134,0,0,0,0,0,0,0,0,0,-1,1581,890,0,0
364,134,0,0,0,0,0,0,0,0,0,-1,1588,890,0,0
371,134,0,0,0,0,0,0,0,0,0,-1,1595,890,0,0
378,134,0,0,0,0,0,0,0,0,0,-1,1602,890,0,0
385,134,0,0,0,0,0,0,0,0,0,-1,1609,890,0,0
392,134,0,0,0,0,0,0,0,0,0,-1,1616,890,0,0
399,134,0,0,0,0,0,0,0,0,0,-1,1623,890,0,0
406,134,0,0,0,0,0,0,0,0,0,-1,1630,890,0,0
413,134,0,0,0,0,0,0,0,0,0,-1,1637,890,0,0
420,134,0,0,0,0,0,0,0,0,0,-1,1644,890,0,0
427,134,0,0,0,0,0,0,0,0,0,-1,1651,890,0,0
434,134,0,0,0,0,0,0,0,0,0,-1,1658,890,0,0
441,134,0,0,0,0,0,0,0,0,0,-1,1665,890,0,0
448,134,0,0,0,0,0,0,0,0,0,-1,1672,890,0,0
455,134,0,0,0,0,0,0,0,0,0,-1,1679,890,0,0
462,134,0,0,0,0,0,0,0,0,0,-1,1686,890,0,0
469,134,0,0,0,0,0,0,0,0,0,-1,1693,890,0,0
476,134,0,0,0,0,0,0,0,0,0,-1,1700,890,0,0
483,134,0,0,0,0,0,0,0,0,0,-1,1707,890,0,0
490,134,0,0,0,0,0,0,0,0,0,-1,1714,890,0,0
497,134,0,0,0,0,0,0,0,0,0,-1,1721,890,0,0
504,134,0,0,0,0,0,0,0,0,0,-1,1728,890,0,0
511,134,0,0,0,0,0,0,0,0,0,-1,1735,890,0,0
518,134,0,0,0,0,0,0,0,0,0,-1,1742,890,0,0
525,134,0,0,0,0,0,0,0,0,0,-1,1749,890,0,0
532,134,0,0,0,0,0,0,0,0,0,-1,1756,890,0,0
539,134,0,0,0,0,0,0,0,0,0,-1,1763,890,0,0
546,134,0,0,0,0,0,0,0,0,0,-1,1770,890,0,0
553,134,0,0,0,0,0,0,0,0,0,-1,1777,890,0,0
560,134,0,0,0,0,0,0,0,0,0,-1,1784,890,0,0
567,134,0,0,0,0,0,0,0,0,0,-1,1791,890,0,0
574,134,0,0,0,0,0,0,0,0,0,-1,1798,890,0,0
581,134,0,0,0,0,0,0,0,0,0,-1,1805,890,0,0
588,134,0,0,0,0,0,0,0,0,0,-1,1812,890,0,0
595,134,0,0,0,0,0,0,0,0,0,-1,1819,890,0,0
602,134,0,0,0,0,0,0,0,0,0,-1,1826,890,0,0
609,134,0,0,0,0,0,0,0,0,0,-1,1833,890,0,0
616,134,0,0,0,0,0,0,0,0,0,-1,1840,890,0,0
623,134,55.1759,3.12109,0.00417752,-0.0013988,-0.00149378,0.00455246,-0.00177374,-0.245921,0.00376805,0.0474377,1847,890,55.1759,-3.12109
630,134,55.2216,2.90247,0.00338185,-0.00052565,-0.0010079,0.00362651,-0.000770308,-0.238135,0.00271117,0.0494416,1854,890,55.2216,-2.90249
637,134,55.2798,2.70813,0.00254733,0.000250742,-0.000782288,0.00278848,9.59297e-06,-0.299019,0.0018558,0.0450598,1861,890,55.2797,-2.70813
644,134,55.3706,2.71985,0.00158385,0.000725646,-0.000657498,0.00193988,0.000369617,-0.496286,0.00118935,0.0373557,1868,890,55.3706,-2.71983
651,134,55.3553,2.95514,0.000679338,0.000913963,-0.000594707,0.00140282,0.000190483,-0.882779,0.000878627,0.0389699,1875,890,55.3554,-2.95516
658,134,55.3008,2.98175,0.000126817,0.000724069,-0.000609838,0.00110447,-0.000253585,-1.01308,0.000833797,0.0393944,1882,890,55.3008,-2.98175
665,134,55.248,2.76263,-0.000109553,0.00079457,-0.000516851,0.00102916,-0.000344147,-1.14471,0.000825105,0.0336833,1889,890,55.248,-2.76264
672,134,55.3038,2.76154,-0.000106772,0.000713923,-0.000411613,0.00088479,-0.000277639,-1.17733,0.00070098,0.023827,1896,890,55.3039,-2.76156
679,134,55.2769,2.76477,-4.10941e-05,0.000690663,-0.000421491,0.000882926,-0.000233357,-1.14284,0.000679886,0.024128,1903,890,55.2768,-2.76475
686,134,55.2426,2.77435,0,0,0,0,0,0,0,-1,1910,890,55.2426,-2.77436
693,134,34.5778,2.48096,0,0,0,0,0,0,0,-1,1917,890,34.5777,-2.48099
700,134,48.2332,2.67572,0,0,0,0,0,0,0,-1,1924,890,48.2332,-2.67574
707,134,47.8821,2.9007,5.38523e-05,0.000763338,-0.000505753,0.00102636,-0.000209165,-1.09124,0.000763569,0.0251529,1931,890,47.8821,-2.9007
714,134,47.895,3.54865,0.00039802,0.00109459,-0.00052465,0.00137603,0.000116575,-1.07842,0.000881072,0.0256485,1938,890,47.895,-3.54864
721,134,48.0598,4.21997,0.000632525,0.00169134,-0.00052012,0.00190409,0.000419775,-1.18252,0.00115517,0.0227536,1945,890,48.0598,-4.21994
728,134,48.1174,4.78851,0.000596425,0.00258572,-0.000485085,0.0026977,0.000484442,-1.34392,0.00166071,0.0192053,1952,890,48.1174,-4.78854
735,134,48.0797,5.47803,0.000480149,0.00400418,-0.000589541,0.00410019,0.00038414,-1.40936,0.00261484,0.0251864,1959,890,48.0798,-5.47803
742,134,48.0077,6.06458,0.0003967,0.00634464,-0.000563259,0.00639751,0.000343831,-1.47721,0.00415514,0.0177398,1966,890,48.0077,-6.06455
749,134,48.0059,6.56482,0.000342719,0.00956221,-0.000274758,0.00957039,0.000334539,-1.54103,0.00627172,0.0136074,1973,890,48.0058,-6.56482
756,134,47.9849,7.10645,0.00043418,0.0136289,0.000207977,0.0136321,0.000430903,1.55504,0.00894792,0.0177854,1980,890,47.9849,-7.10645
763,134,48.002,7.74493,0.00084936,0.0185941,0.000835042,0.0186333,0.000810151,1.52388,0.0121612,0.0390105,1987,890,48.0019,-7.74494
770,134,48.0229,8.39081,0,0,0,0,0,0,0,-1,1994,890,48.023,-8.39082
777,134,43.6969,5.94574,0,0,0,0,0,0,0,-1,2001,890,43.697,-5.94577
784,134,42.3352,7.4964,0,0,0,0,0,0,0,-1,2008,890,42.3352,-7.49641
791,134,42.2061,9.63593,0,0,0,0,0,0,0,-1,2015,890,42.2061,-9.63591
798,134,0,0,0,0,0,0,0,0,0,-1,2022,890,0,0
805,134,0,0,0,0,0,0,0,0,0,-1,2029,890,0,0
812,134,0,0,0,0,0,0,0,0,0,-1,2036,890,0,0
-700,127,0,0,0,0,0,0,0,0,0,-1,524,897,0,0
-693,127,0,0,0,0,0,0,0,0,0,-1,531,897,0,0
-686,127,0,0,0,0,0,0,0,0,0,-1,538,897,0,0
-679,127,-36.8239,8.63116,0,0,0,0,0,0,0,-1,545,897,-36.8239,-8.63116
-672,127,-37.3853,6.80005,0,0,0,0,0,0,0,-1,552,897,-37.3853,-6.80007
-665,127,-36.693,5.54901,0,0,0,0,0,0,0,-1,559,897,-36.693,-5.54899
-658,127,-37.2131,3.97449,0,0,0,0,0,0,0,-1,566,897,-37.2131,-3.97446
-651,127,-37.9974,2.57092,0,0,0,0,0,0,0,-1,573,897,-37.9974,-2.57093
-644,127,-38.7797,1.09039,0,0,0,0,0,0,0,-1,580,897,-38.7797,-1.09042
-637,127,-35.9027,4.25031,0,0,0,0,0,0,0,-1,587,897,-35.9027,-4.2503
-630,127,-36.0265,4.80029,0,0,0,0,0,0,0,-1,594,897,-36.0265,-4.80031
-623,127,-36.1003,4.36414,-0.00364551,0.00675557,0.00143636,0.00695029,-0.00384022,1.43606,0.00631557,0.018232,601,897,-36.1003,-4.36412
-616,127,-36.1741,3.89484,-0.00364949,0.0042844,0.00168138,0.00462601,-0.0039911,1.37035,0.00497959,0.0108154,608,897,-36.1741,-3.89482
-609,127,-36.2189,3.36859,-0.00369469,0.00236711,0.00208591,0.00301552,-0.00434311,1.26941,0.00427149,0.0161144,615,897,-36.2188,-3.36858
-602,127,-36.2214,2.85028,-0.00389622,0.0012804,0.00239424,0.00221796,-0.00483377,1.19756,0.00416365,0.0185039,622,897,-36.2215,-2.85026
-595,127,-36.1824,2.38715,-0.00365358,0.000905589,0.002401,0.00193679,-0.00468478,1.16513,0.00393118,0.0294667,629,897,-36.1824,-2.38713
-588,127,-36.3088,1.76257,-0.00303419,0.000702889,0.00215291,0.00168505,-0.00401634,1.1428,0.00338218,0.0371014,636,897,-36.3088,-1.76256
-581,127,-36.0378,1.10999,0,0,0,0,0,0,0,-1,643,897,-36.0378,-1.10998
-574,127,-25.2603,0.511169,0,0,0,0,0,0,0,-1,650,897,-25.2603,-0.51117
-567,127,-24.5417,-0.0447388,0,0,0,0,0,0,0,-1,657,897,-24.5417,0.0447226
-560,127,-18.9678,1.21667,0,0,0,0,0,0,0,-1,664,897,-18.9677,-1.2167
-553,127,-41.7024,0.860291,0,0,0,0,0,0,0,-1,671,897,-41.7024,-0.860284
-546,127,-41.7313,0.875,-0.00146626,0.000875971,0.001996,0.00201906,-0.00260935,1.0507,0.00267944,0.0239456,678,897,-41.7313,-0.874999
-539,127,-41.6934,0.860779,-0.0011825,0.00126874,0.001805,0.00222491,-0.00213866,1.08365,0.00251947,0.0222324,685,897,-41.6934,-0.860788
-532,127,-41.6008,0.844177,-0.000654025,0.00185882,0.00167891,0.00269938,-0.00149459,1.10662,0.00245446,0.019016,692,897,-41.6008,-0.844202
-525,127,-41.7877,1.14374,-0.000518107,0.00277299,0.00141557,0.00329808,-0.00104319,1.21559,0.00261671,0.0339951,699,897,-41.7877,-1.14375
-518,127,-41.8703,1.35931,-0.000547347,0.00454085,0.00133601,0.00487031,-0.000876812,1.32902,0.00357517,0.0398462,706,897,-41.8703,-1.35933
-511,127,-41.7795,1.32202,0.000360103,0.00722658,0.00147857,0.00753143,5.5254e-05,1.36747,0.00500264,0.0427896,713,897,-41.7795,-1.32199
-504,127,0,0,0,0,0,0,0,0,0,-1,720,897,0,0
-497,127,0,0,0,0,0,0,0,0,0,-1,727,897,0,0
-490,127,0,0,0,0,0,0,0,0,0,-1,734,897,0,0
-483,127,0,0,0,0,0,0,0,0,0,-1,741,897,0,0
-476,127,0,0,0,0,0,0,0,0,0,-1,748,897,0,0
-469,127,0,0,0,0,0,0,0,0,0,-1,755,897,0,0
-462,127,0,0,0,0,0,0,0,0,0,-1,762,897,0,0
-455,127,0,0,0,0,0,0,0,0,0,-1,769,897,0,0
-448,127,0,0,0,0,0,0,0,0,0,-1,776,897,0,0
-441,127,0,0,0,0,0,0,0,0,0,-1,783,897,0,0
-434,127,0,0,0,0,0,0,0,0,0,-1,790,897,0,0
-427,127,0,0,0,0,0,0,0,0,0,-1,797,897,0,0
-420,127,0,0,0,0,0,0,0,0,0,-1,804,897,0,0
-413,127,0,0,0,0,0,0,0,0,0,-1,811,897,0,0
-406,127,0,0,0,0,0,0,0,0,0,-1,818,897,0,0
-399,127,0,0,0,0,0,0,0,0,0,-1,825,897,0,0
-392,127,0,0,0,0,0,0,0,0,0,-1,832,897,0,0
-385,127,0,0,0,0,0,0,0,0,0,-1,839,897,0,0
-378,127,0,0,0,0,0,0,0,0,0,-1,846,897,0,0
-371,127,0,0,0,0,0,0,0,0,0,-1,853,897,0,0
-364,127,0,0,0,0,0,0,0,0,0,-1,860,897,0,0
-357,127,0,0,0,0,0,0,0,0,0,-1,867,897,0,0
-350,127,0,0,0,0,0,0,0,0,0,-1,874,897,0,0
-343,127,0,0,0,0,0,0,0,0,0,-1,881,897,0,0
-336,127,0,0,0,0,0,0,0,0,0,-1,888,897,0,0
-329,127,0,0,0,0,0,0,0,0,0,-1,895,897,0,0
-322,127,0,0,0,0,0,0,0,0,0,-1,902,897,0,0
-315,127,0,0,0,0,0,0,0,0,0,-1,909,897,0,0
-308,127,0,0,0,0,0,0,0,0,0,-1,916,897,0,0
-301,127,0,0,0,0,0,0,0,0,0,-1,923,897,0,0
-294,127,0,0,0,0,0,0,0,0,0,-1,930,897,0,0
-287,127,0,0,0,0,0,0,0,0,0,-1,937,897,0,0
-280,127,0,0,0,0,0,0,0,0,0,-1,944,897,0,0
-273,127,0,0,0,0,0,0,0,0,0,-1,951,897,0,0
-266,127,0,0,0,0,0,0,0,0,0,-1,958,897,0,0
-259,127,0,0,0,0,0,0,0,0,0,-1,965,897,0,0
-252,127,0,0,0,0,0,0,0,0,0,-1,972,897,0,0
-245,127,0,0,0,0,0,0,0,0,0,-1,979,897,0,0
-238,127,0,0,0,0,0,0,0,0,0,-1,986,897,0,0
-231,127,0,0,0,0,0,0,0,0,0,-1,993,897,0,0
-224,127,0,0,0,0,0,0,0,0,0,-1,1000,897,0,0
-217,127,0,0,0,0,0,0,0,0,0,-1,1007,897,0,0
-210,127,0,0,0,0,0,0,0,0,0,-1,1014,897,0,0
-203,127,0,0,0,0,0,0,0,0,0,-1,1021,897,0,0
-196,127,0,0,0,0,0,0,0,0,0,-1,1028,897,0,0
-189,127,0,0,0,0,0,0,0,0,0,-1,1035,897,0,0
-182,127,0,0,0,0,0,0,0,0,0,-1,1042,897,0,0
-175,127,0,0,0,0,0,0,0,0,0,-1,1049,897,0,0
-168,127,0,0,0,0,0,0,0,0,0,-1,1056,897,0,0
-161,127,0,0,0,0,0,0,0,0,0,-1,1063,897,0,0
-154,127,0,0,0,0,0,0,0,0,0,-1,1070,897,0,0
-147,127,0,0,0,0,0,0,0,0,0,-1,1077,897,0,0
-140,127,0,0,0,0,0,0,0,0,0,-1,1084,897,0,0
-133,127,0,0,0,0,0,0,0,0,0,-1,1091,897,0,0
-126,127,0,0,0,0,0,0,0,0,0,-1,1098,897,0,0
-119,127,0,0,0,0,0,0,0,0,0,-1,1105,897,0,0
-112,127,0,0,0,0,0,0,0,0,0,-1,1112,897,0,0
-105,127,0,0,0,0,0,0,0,0,0,-1,1119,897,0,0
-98,127,0,0,0,0,0,0,0,0,0,-1,1126,897,0,0
-91,127,0,0,0,0,0,0,0,0,0,-1,1133,897,0,0
-84,127,0,0,0,0,0,0,0,0,0,-1,1140,897,0,0
-77,127,0,0,0,0,0,0,0,0,0,-1,1147,897,0,0
-70,127,0,0,0,0,0,0,0,0,0,-1,1154,897,0,0
-63,127,0,0,0,0,0,0,0,0,0,-1,1161,897,0,0
-56,127,0,0,0,0,0,0,0,0,0,-1,1168,897,0,0
-49,127,0,0,0,0,0,0,0,0,0,-1,1175,897,0,0
-42,127,0,0,0,0,0,0,0,0,0,-1,1182,897,0,0
-35,127,0,0,0,0,0,0,0,0,0,-1,1189,897,0,0
-28,127,0,0,0,0,0,0,0,0,0,-1,1196,897,0,0
-21,127,0,0,0,0,0,0,0,0,0,-1,1203,897,0,0
-14,127,0,0,0,0,0,0,0,0,0,-1,1210,897,0,0
-7,127,0,0,0,0,0,0,0,0,0,-1,1217,897,0,0
0,127,0,0,0,0,0,0,0,0,0,-1,1224,897,0,0
7,127,0,0,0,0,0,0,0,0,0,-1,1231,897,0,0
14,127,0,0,0,0,0,0,0,0,0,-1,1238,897,0,0
21,127,0,0,0,0,0,0,0,0,0,-1,1245,897,0,0
28,127,0,0,0,0,0,0,0,0,0,-1,1252,897,0,0
35,127,0,0,0,0,0,0,0,0,0,-1,1259,897,0,0
42,127,0,0,0,0,0,0,0,0,0,-1,1266,897,0,0
49,127,0,0,0,0,0,0,0,0,0,-1,1273,897,0,0
56,127,0,0,0,0,0,0,0,0,0,-1,1280,897,0,0
63,127,0,0,0,0,0,0,0,0,0,-1,1287,897,0,0
70,127,0,0,0,0,0,0,0,0,0,-1,1294,897,0,0
77,127,0,0,0,0,0,0,0,0,0,-1,1301,897,0,0
84,127,0,0,0,0,0,0,0,0,0,-1,1308,897,0,0
91,127,0,0,0,0,0,0,0,0,0,-1,1315,897,0,0
98,127,0,0,0,0,0,0,0,0,0,-1,1322,897,0,0
105,127,0,0,0,0,0,0,0,0,0,-1,1329,897,0,0
112,127,0,0,0,0,0,0,0,0,0,-1,1336,897,0,0
119,127,0,0,0,0,0,0,0,0,0,-1,1343,897,0,0
126,127,0,0,0,0,0,0,0,0,0,-1,1350,897,0,0
133,127,0,0,0,0,0,0,0,0,0,-1,1357,897,0,0
140,127,0,0,0,0,0,0,0,0,0,-1,1364,897,0,0
147,127,0,0,0,0,0,0,0,0,0,-1,1371,897,0,0
154,127,0,0,0,0,0,0,0,0,0,-1,1378,897,0,0
161,127,0,0,0,0,0,0,0,0,0,-1,1385,897,0,0
168,127,0,0,0,0,0,0,0,0,0,-1,1392,897,0,0
175,127,0,0,0,0,0,0,0,0,0,-1,1399,897,0,0
182,127,0,0,0,0,0,0,0,0,0,-1,1406,897,0,0
189,127,0,0,0,0,0,0,0,0,0,-1,1413,897,0,0
196,127,0,0,0,0,0,0,0,0,0,-1,1420,897,0,0
203,127,0,0,0,0,0,0,0,0,0,-1,1427,897,0,0
210,127,0,0,0,0,0,0,0,0,0,-1,1434,897,0,0
217,127,0,0,0,0,0,0,0,0,0,-1,1441,897,0,0
224,127,0,0,0,0,0,0,0,0,0,-1,1448,897,0,0
231,127,0,0,0,0,0,0,0,0,0,-1,1455,897,0,0
238,127,0,0,0,0,0,0,0,0,0,-1,1462,897,0,0
245,127,0,0,0,0,0,0,0,0,0,-1,1469,897,0,0
252,127,0,0,0,0,0,0,0,0,0,-1,1476,897,0,0
259,127,0,0,0,0,0,0,0,0,0,-1,1483,897,0,0
266,127,0,0,0,0,0,0,0,0,0,-1,1490,897,0,0
273,127,0,0,0,0,0,0,0,0,0,-1,1497,897,0,0
280,127,0,0,0,0,0,0,0,0,0,-1,1504,897,0,0
287,127,0,0,0,0,0,0,0,0,0,-1,1511,897,0,0
294,127,0,0,0,0,0,0,0,0,0,-1,1518,897,0,0
301,127,0,0,0,0,0,0,0,0,0,-1,1525,897,0,0
308,127,0,0,0,0,0,0,0,0,0,-1,1532,897,0,0
315,127,0,0,0,0,0,0,0,0,0,-1,1539,897,0,0
322,127,0,0,0,0,0,0,0,0,0,-1,1546,897,0,0
329,127,0,0,0,0,0,0,0,0,0,-1,1553,897,0,0
336,127,0,0,0,0,0,0,0,0,0,-1,1560,897,0,0
343,127,0,0,0,0,0,0,0,0,0,-1,1567,897,0,0
350,127,0,0,0,0,0,0,0,0,0,-1,1574,897,0,0
357,127,0,0,0,0,0,0,0,0,0,-1,1581,897,0,0
364,127,0,0,0,0,0,0,0,0,0,-1,1588,897,0,0
371,127,0,0,0,0,0,0,0,0,0,-1,1595,897,0,0
378,127,0,0,0,0,0,0,0,0,0,-1,1602,897,0,0
385,127,0,0,0,0,0,0,0,0,0,-1,1609,897,0,0
392,127,0,0,0,0,0,0,0,0,0,-1,1616,897,0,0
399,127,0,0,0,0,0,0,0,0,0,-1,1623,897,0,0
406,127,0,0,0,0,0,0,0,0,0,-1,1630,897,0,0
413,127,0,0,0,0,0,0,0,0,0,-1,1637,897,0,0
420,127,0,0,0,0,0,0,0,0,0,-1,1644,897,0,0
427,127,0,0,0,0,0,0,0,0,0,-1,1651,897,0,0
434,127,0,0,0,0,0,0,0,0,0,-1,1658,897,0,0
441,127,0,0,0,0,0,0,0,0,0,-1,1665,897,0,0
448,127,0,0,0,0,0,0,0,0,0,-1,1672,897,0,0
455,127,0,0,0,0,0,0,0,0,0,-1,1679,897,0,0
462,127,0,0,0,0,0,0,0,0,0,-1,1686,897,0,0
469,127,0,0,0,0,0,0,0,0,0,-1,1693,897,0,0
476,127,0,0,0,0,0,0,0,0,0,-1,1700,897,0,0
483,127,0,0,0,0,0,0,0,0,0,-1,1707,897,0,0
490,127,0,0,0,0,0,0,0,0,0,-1,1714,897,0,0
497,127,0,0,0,0,0,0,0,0,0,-1,1721,897,0,0
504,127,0,0,0,0,0,0,0,0,0,-1,1728,897,0,0
511,127,0,0,0,0,0,0,0,0,0,-1,1735,897,0,0
518,127,0,0,0,0,0,0,0,0,0,-1,1742,897,0,0
525,127,0,0,0,0,0,0,0,0,0,-1,1749,897,0,0
532,127,0,0,0,0,0,0,0,0,0,-1,1756,897,0,0
539,127,0,0,0,0,0,0,0,0,0,-1,1763,897,0,0
546,127,0,0,0,0,0,0,0,0,0,-1,1770,897,0,0
553,127,0,0,0,0,0,0,0,0,0,-1,1777,897,0,0
560,127,0,0,0,0,0,0,0,0,0,-1,1784,897,0,0
567,127,0,0,0,0,0,0,0,0,0,-1,1791,897,0,0
574,127,0,0,0,0,0,0,0,0,0,-1,1798,897,0,0
581,127,0,0,0,0,0,0,0,0,0,-1,1805,897,0,0
588,127,0,0,0,0,0,0,0,0,0,-1,1812,897,0,0
595,127,0,0,0,0,0,0,0,0,0,-1,1819,897,0,0
602,127,0,0,0,0,0,0,0,0,0,-1,1826,897,0,0
609,127,0,0,0,0,0,0,0,0,0,-1,1833,897,0,0
616,127,0,0,0,0,0,0,0,0,0,-1,1840,897,0,0
623,127,0,0,0,0,0,0,0,0,0,-1,1847,897,0,0
630,127,55.1256,3.2182,0,0,0,0,0,0,0,-1,1854,897,55.1256,-3.21821
637,127,55.0955,3.18878,0,0,0,0,0,0,0,-1,1861,897,55.0955,-3.18879
644,127,55.2765,2.62524,0.00205506,0.00156287,-0.000767733,0.00261518,0.00100275,-0.630298,0.00152349,0.0389674,1868,897,55.2765,-2.62524
651,127,55.248,2.72351,0.00099586,0.00168569,-0.000604645,0.00203688,0.000644669,-1.0446,0.0012021,0.0421795,1875,897,55.248,-2.72352
658,127,55.1971,2.83734,0.000314445,0.00151683,-0.000474241,0.00168136,0.000149911,-1.23685,0.00107443,0.0408146,1882,897,55.1971,-2.83733
665,127,55.2072,2.75464,4.78506e-05,0.00158329,-0.000276517,0.00163157,-4.29049e-07,-1.39794,0.00108786,0.0369193,1889,897,55.2071,-2.75465
672,127,55.2705,2.65277,4.76866e-05,0.00145187,-0.000100019,0.00145896,4.05982e-05,-1.50004,0.000959394,0.0326739,1896,897,55.2706,-2.65278
679,127,55.3254,2.67786,0.000127268,0.0013634,-6.20952e-05,0.00136651,0.000124157,-1.52073,0.00087257,0.0261034,1903,897,55.3254,-2.67787
686,127,55.325,2.7132,0,0,0,0,0,0,0,-1,1910,897,55.325,-2.71319
693,127,54.7683,2.69983,0,0,0,0,0,0,0,-1,1917,897,54.7683,-2.69983
700,127,48.5369,2.39435,0,0,0,0,0,0,0,-1,1924,897,48.5368,-2.39437
707,127,48.3777,2.94006,1.75859e-05,0.00121827,-0.000224143,0.00125875,-2.28923e-05,-1.39213,0.000846903,0.0298185,1931,897,48.3777,-2.94007
714,127,48.6547,3.60248,0.000346054,0.00149367,-0.000303921,0.00156919,0.000270537,-1.32725,0.000968624,0.0232805,1938,897,48.6547,-3.60248
721,127,48.7842,4.35388,0.000527174,0.00198781,-0.000341967,0.00206391,0.000451077,-1.35184,0.00125295,0.0213121,1945,897,48.7842,-4.35387
728,127,48.7067,4.8739,0.000358281,0.00269423,-0.000357873,0.00274783,0.000304683,-1.42214,0.00173924,0.0191189,1952,897,48.7067,-4.87391
735,127,48.6666,5.47668,8.73601e-05,0.0038968,-0.000589368,0.0039859,-1.73855e-06,-1.42076,0.00265785,0.0223564,1959,897,48.6667,-5.47668
742,127,48.6202,6.04089,-0.000167091,0.00600406,-0.000747836,0.00609339,-0.000256422,-1.45191,0.00415037,0.0205576,1966,897,48.6202,-6.04092
749,127,48.5688,6.56128,-0.000381491,0.00905204,-0.000600534,0.00909011,-0.000419567,-1.50748,0.00620466,0.0137493,1973,897,48.5689,-6.5613
756,127,48.514,7.07037,-0.000418959,0.0129874,-0.000223122,0.0129911,-0.000422671,-1.55416,0.00880503,0.0153856,1980,897,48.514,-7.07038
763,127,48.4807,7.6156,-9.11787e-05,0.0177489,0.000291638,0.0177537,-9.59449e-05,1.55445,0.0118679,0.0250805,1987,897,48.4808,-7.61557
770,127,48.5084,8.17157,0,0,0,0,0,0,0,-1,1994,897,48.5085,-8.17155
777,127,42.703,5.33789,0,0,0,0,0,0,0,-1,2001,897,42.7031,-5.33791
784,127,42.6145,8.47131,0,0,0,0,0,0,0,-1,2008,897,42.6146,-8.47131
791,127,42.5813,5.51636,0,0,0,0,0,0,0,-1,2015,897,42.5813,-5.51633
798,127,0,0,0,0,0,0,0,0,0,-1,2022,897,0,0
805,127,0,0,0,0,0,0,0,0,0,-1,2029,897,0,0
812,127,0,0,0,0,0,0,0,0,0,-1,2036,897,0,0
-700,120,0,0,0,0,0,0,0,0,0,-1,524,904,0,0
-693,120,0,0,0,0,0,0,0,0,0,-1,531,904,0,0
-686,120,0,0,0,0,0,0,0,0,0,-1,538,904,0,0
-679,120,-39.1634,2.83453,0,0,0,0,0,0,0,-1,545,904,-39.1634,-2.83452
-672,120,-36.6606,6.23993,0,0,0,0,0,0,0,-1,552,904,-36.6606,-6.23994
-665,120,-36.7357,4.7077,0,0,0,0,0,0,0,-1,559,904,-36.7356,-4.70773
-658,120,-36.8363,3.36487,0,0,0,0,0,0,0,-1,566,904,-36.8363,-3.36485
-651,120,-38.6806,2.67523,0,0,0,0,0,0,0,-1,573,904,-38.6806,-2.67521
-644,120,-39.3876,1.10193,0,0,0,0,0,0,0,-1,580,904,-39.3876,-1.10194
-637,120,-36.6757,5.08026,0,0,0,0,0,0,0,-1,587,904,-36.6757,-5.08028
-630,120,-36.6457,4.77216,-0.0077035,0.0143267,0.00316392,0.014772,-0.00814889,1.43094,0.0134163,0.0306569,594,904,-36.6457,-4.77216
-623,120,-36.711,4.34564,-0.00600113,0.00931075,0.00304913,0.0098956,-0.00658598,1.38129,0.00957938,0.0122434,601,904,-36.711,-4.34562
-616,120,-36.7308,3.85834,-0.00515299,0.00572533,0.00278319,0.00639604,-0.00582371,1.33432,0.00705766,0.0101756,608,904,-36.7308,-3.85833
-609,120,-36.7535,3.37036,-0.00478658,0.00297726,0.00268604,0.00381594,-0.00562526,1.26815,0.00548415,0.0136733,615,904,-36.7535,-3.37037
-602,120,-36.7861,2.86664,-0.00492541,0.0013748,0.0025446,0.00227415,-0.00582477,1.23106,0.00482338,0.0164148,622,904,-36.786,-2.86666
-595,120,-36.7296,2.42255,-0.00469439,0.00084775,0.00226376,0.00165487,-0.00550151,1.22831,0.00432612,0.0314931,629,904,-36.7296,-2.42255
-588,120,-36.6829,1.78931,-0.00404636,0.000635901,0.00186424,0.00128747,-0.00469793,1.23456,0.00363787,0.0429256,636,904,-36.6829,-1.78931
-581,120,-36.3476,0.992371,0,0,0,0,0,0,0,-1,643,904,-36.3476,-0.992379
-574,120,-27.5438,0.505066,0,0,0,0,0,0,0,-1,650,904,-27.5438,-0.505085
-567,120,-25.2822,-0.410645,0,0,0,0,0,0,0,-1,657,904,-25.2821,0.410629
-560,120,-27.3358,1.10327,0,0,0,0,0,0,0,-1,664,904,-27.3358,-1.10324
-553,120,-41.6716,0.831848,0,0,0,0,0,0,0,-1,671,904,-41.6716,-0.831825
-546,120,-41.6909,0.854858,-0.00216604,0.000633892,0.00149076,0.00127899,-0.00281113,1.1624,0.00241603,0.0336842,678,904,-41.6909,-0.854889
-539,120,-41.6268,0.887024,-0.00174187,0.00103962,0.00134602,0.00158432,-0.00228657,1.18627,0.00224708,0.0259631,685,904,-41.6269,-0.886999
-532,120,-41.5947,0.885742,-0.00103274,0.00164002,0.00131356,0.0021775,-0.00157023,1.1824,0.0021732,0.0273311,692,904,-41.5947,-0.885756
-525,120,-41.7582,1.06226,-0.000598153,0.00251773,0.00121773,0.00293718,-0.0010176,1.23908,0.00237125,0.0351107,699,904,-41.7582,-1.06226
-518,120,-41.878,1.28687,-0.000566271,0.00415274,0.00119831,0.00443959,-0.000853123,1.33584,0.00328128,0.037847,706,904,-41.878,-1.28688
-511,120,-41.6669,1.18689,0.000253906,0.00653187,0.0012997,0.00679031,-4.52716e-06,1.37452,0.00452838,0.0379811,713,904,-41.6669,-1.18688
-504,120,0,0,0,0,0,0,0,0,0,-1,720,904,0,0
-497,120,0,0,0,0,0,0,0,0,0,-1,727,904,0,0
-490,120,0,0,0,0,0,0,0,0,0,-1,734,904,0,0
-483,120,0,0,0,0,0,0,0,0,0,-1,741,904,0,0
-476,120,0,0,0,0,0,0,0,0,0,-1,748,904,0,0
-469,120,0,0,0,0,0,0,0,0,0,-1,755,904,0,0
-462,120,0,0,0,0,0,0,0,0,0,-1,762,904,0,0
-455,120,0,0,0,0,0,0,0,0,0,-1,769,904,0,0
-448,120,0,0,0,0,0,0,0,0,0,-1,776,904,0,0
-441,120,0,0,0,0,0,0,0,0,0,-1,783,904,0,0
-434,120,0,0,0,0,0,0,0,0,0,-1,790,904,0,0
-427,120,0,0,0,0,0,0,0,0,0,-1,797,904,0,0
-420,120,0,0,0,0,0,0,0,0,0,-1,804,904,0,0
-413,120,0,0,0,0,0,0,0,0,0,-1,811,904,0,0
-406,120,0,0,0,0,0,0,0,0,0,-1,818,904,0,0
-399,120,0,0,0,0,0,0,0,0,0,-1,825,904,0,0
-392,120,0,0,0,0,0,0,0,0,0,-1,832,904,0,0
-385,120,0,0,0,0,0,0,0,0,0,-1,839,904,0,0
-378,120,0,0,0,0,0,0,0,0,0,-1,846,904,0,0
-371,120,0,0,0,0,0,0,0,0,0,-1,853,904,0,0
-364,120,0,0,0,0,0,0,0,0,0,-1,860,904,0,0
-357,120,0,0,0,0,0,0,0,0,0,-1,867,904,0,0
-350,120,0,0,0,0,0,0,0,0,0,-1,874,904,0,0
-343,120,0,0,0,0,0,0,0,0,0,-1,881,904,0,0
-336,120,0,0,0,0,0,0,0,0,0,-1,888,904,0,0
-329,120,0,0,0,0,0,0,0,0,0,-1,895,904,0,0
-322,120,0,0,0,0,0,0,0,0,0,-1,902,904,0,0
-315,120,0,0,0,0,0,0,0,0,0,-1,909,904,0,0
-308,120,0,0,0,0,0,0,0,0,0,-1,916,904,0,0
-301,120,0,0,0,0,0,0,0,0,0,-1,923,904,0,0
-294,120,0,0,0,0,0,0,0,0,0,-1,930,904,0,0
-287,120,0,0,0,0,0,0,0,0,0,-1,937,904,0,0
-280,120,0,0,0,0,0,0,0,0,0,-1,944,904,0,0
-273,120,0,0,0,0,0,0,0,0,0,-1,951,904,0,0
-266,120,0,0,0,0,0,0,0,0,0,-1,958,904,0,0
-259,120,0,0,0,0,0,0,0,0,0,-1,965,904,0,0
-252,120,0,0,0,0,0,0,0,0,0,-1,972,904,0,0
-245,120,0,0,0,0,0,0,0,0,0,-1,979,904,0,0
-238,120,0,0,0,0,0,0,0,0,0,-1,986,904,0,0
-231,120,0,0,0,0,0,0,0,0,0,-1,993,904,0,0
-224,120,0,0,0,0,0,0,0,0,0,-1,1000,904,0,0
-217,120,0,0,0,0,0,0,0,0,0,-1,1007,904,0,0
-210,120,0,0,0,0,0,0,0,0,0,-1,1014,904,0,0
-203,120,0,0,0,0,0,0,0,0,0,-1,1021,904,0,0
-196,120,0,0,0,0,0,0,0,0,0,-1,1028,904,0,0
-189,120,0,0,0,0,0,0,0,0,0,-1,1035,904,0,0
-182,120,0,0,0,0,0,0,0,0,0,-1,1042,904,0,0
-175,120,0,0,0,0,0,0,0,0,0,-1,1049,904,0,0
-168,120,0,0,0,0,0,0,0,0,0,-1,1056,904,0,0
-161,120,0,0,0,0,0,0,0,0,0,-1,1063,904,0,0
-154,120,0,0,0,0,0,0,0,0,0,-1,1070,904,0,0
-147,120,0,0,0,0,0,0,0,0,0,-1,1077,904,0,0
-140,120,0,0,0,0,0,0,0,0,0,-1,1084,904,0,0
-133,120,0,0,0,0,0,0,0,0,0,-1,1091,904,0,0
-126,120,0,0,0,0,0,0,0,0,0,-1,1098,904,0,0
-119,120,0,0,0,0,0,0,0,0,0,-1,1105,904,0,0
-112,120,0,0,0,0,0,0,0,0,0,-1,1112,904,0,0
-105,120,0,0,0,0,0,0,0,0,0,-1,1119,904,0,0
-98,120,0,0,0,0,0,0,0,0,0,-1,1126,904,0,0
-91,120,0,0,0,0,0,0,0,0,0,-1,1133,904,0,0
-84,120,0,0,0,0,0,0,0,0,0,-1,1140,904,0,0
-77,120,0,0,0,0,0,0,0,0,0,-1,1147,904,0,0
-70,120,0,0,0,0,0,0,0,0,0,-1,1154,904,0,0
-63,120,0,0,0,0,0,0,0,0,0,-1,1161,904,0,0
-56,120,0,0,0,0,0,0,0,0,0,-1,1168,904,0,0
-49,120,0,0,0,0,0,0,0,0,0,-1,1175,904,0,0
-42,120,0,0,0,0,0,0,0,0,0,-1,1182,904,0,0
-35,120,0,0,0,0,0,0,0,0,0,-1,1189,904,0,0
-28,120,0,0,0,0,0,0,0,0,0,-1,1196,904,0,0
-21,120,0,0,0,0,0,0,0,0,0,-1,1203,904,0,0
-14,120,0,0,0,0,0,0,0,0,0,-1,1210,904,0,0
-7,120,0,0,0,0,0,0,0,0,0,-1,1217,904,0,0
0,120,0,0,0,0,0,0,0,0,0,-1,1224,904,0,0
7,120,0,0,0,0,0,0,0,0,0,-1,1231,904,0,0
14,120,0,0,0,0,0,0,0,0,0,-1,1238,904,0,0
21,120,0,0,0,0,0,0,0,0,0,-1,1245,904,0,0
28,120,0,0,0,0,0,0,0,0,0,-1,1252,904,0,0
35,120,0,0,0,0,0,0,0,0,0,-1,1259,904,0,0
42,120,0,0,0,0,0,0,0,0,0,-1,1266,904,0,0
49,120,0,0,0,0,0,0,0,0,0,-1,1273,904,0,0
56,120,0,0,0,0,0,0,0,0,0,-1,1280,904,0,0
63,120,0,0,0,0,0,0,0,0,0,-1,1287,904,0,0
70,120,0,0,0,0,0,0,0,0,0,-1,1294,904,0,0
77,120,0,0,0,0,0,0,0,0,0,-1,1301,904,0,0
84,120,0,0,0,0,0,0,0,0,0,-1,1308,904,0,0
91,120,0,0,0,0,0,0,0,0,0,-1,1315,904,0,0
98,120,0,0,0,0,0,0,0,0,0,-1,1322,904,0,0
105,120,0,0,0,0,0,0,0,0,0,-1,1329,904,0,0
112,120,0,0,0,0,0,0,0,0,0,-1,1336,904,0,0
119,120,0,0,0,0,0,0,0,0,0,-1,1343,904,0,0
126,120,0,0,0,0,0,0,0,0,0,-1,1350,904,0,0
133,120,0,0,0,0,0,0,0,0,0,-1,1357,904,0,0
140,120,0,0,0,0,0,0,0,0,0,-1,1364,904,0,0
147,120,0,0,0,0,0,0,0,0,0,-1,1371,904,0,0
154,120,0,0,0,0,0,0,0,0,0,-1,1378,904,0,0
161,120,0,0,0,0,0,0,0,0,0,-1,1385,904,0,0
168,120,0,0,0,0,0,0,0,0,0,-1,1392,904,0,0
175,120,0,0,0,0,0,0,0,0,0,-1,1399,904,0,0
182,120,0,0,0,0,0,0,0,0,0,-1,1406,904,0,0
189,120,0,0,0,0,0,0,0,0,0,-1,1413,904,0,0
196,120,0,0,0,0,0,0,0,0,0,-1,1420,904,0,0
203,120,0,0,0,0,0,0,0,0,0,-1,1427,904,0,0
210,120,0,0,0,0,0,0,0,0,0,-1,1434,904,0,0
217,120,0,0,0,0,0,0,0,0,0,-1,1441,904,0,0
224,120,0,0,0,0,0,0,0,0,0,-1,1448,904,0,0
231,120,0,0,0,0,0,0,0,0,0,-1,1455,904,0,0
238,120,0,0,0,0,0,0,0,0,0,-1,1462,904,0,0
245,120,0,0,0,0,0,0,0,0,0,-1,1469,904,0,0
252,120,0,0,0,0,0,0,0,0,0,-1,1476,904,0,0
259,120,0,0,0,0,0,0,0,0,0,-1,1483,904,0,0
266,120,0,0,0,0,0,0,0,0,0,-1,1490,904,0,0
273,120,0,0,0,0,0,0,0,0,0,-1,1497,904,0,0
280,120,0,0,0,0,0,0,0,0,0,-1,1504,904,0,0
287,120,0,0,0,0,0,0,0,0,0,-1,1511,904,0,0
294,120,0,0,0,0,0,0,0,0,0,-1,1518,904,0,0
301,120,0,0,0,0,0,0,0,0,0,-1,1525,904,0,0
308,120,0,0,0,0,0,0,0,0,0,-1,1532,904,0,0
315,120,0,0,0,0,0,0,0,0,0,-1,1539,904,0,0
322,120,0,0,0,0,0,0,0,0,0,-1,1546,904,0,0
329,120,0,0,0,0,0,0,0,0,0,-1,1553,904,0,0
336,120,0,0,0,0,0,0,0,0,0,-1,1560,904,0,0
343,120,0,0,0,0,0,0,0,0,0,-1,1567,904,0,0
350,120,0,0,0,0,0,0,0,0,0,-1,1574,904,0,0
357,120,0,0,0,0,0,0,0,0,0,-1,1581,904,0,0
364,120,0,0,0,0,0,0,0,0,0,-1,1588,904,0,0
371,120,0,0,0,0,0,0,0,0,0,-1,1595,904,0,0
378,120,0,0,0,0,0,0,0,0,0,-1,1602,904,0,0
385,120,0,0,0,0,0,0,0,0,0,-1,1609,904,0,0
392,120,0,0,0,0,0,0,0,0,0,-1,1616,904,0,0
399,120,0,0,0,0,0,0,0,0,0,-1,1623,904,0,0
406,120,0,0,0,0,0,0,0,0,0,-1,1630,904,0,0
413,120,0,0,0,0,0,0,0,0,0,-1,1637,904,0,0
420,120,0,0,0,0,0,0,0,0,0,-1,1644,904,0,0
427,120,0,0,0,0,0,0,0,0,0,-1,1651,904,0,0
434,120,0,0,0,0,0,0,0,0,0,-1,1658,904,0,0
441,120,0,0,0,0,0,0,0,0,0,-1,1665,904,0,0
448,120,0,0,0,0,0,0,0,0,0,-1,1672,904,0,0
455,120,0,0,0,0,0,0,0,0,0,-1,1679,904,0,0
462,120,0,0,0,0,0,0,0,0,0,-1,1686,904,0,0
469,120,0,0,0,0,0,0,0,0,0,-1,1693,904,0,0
476,120,0,0,0,0,0,0,0,0,0,-1,1700,904,0,0
483,120,0,0,0,0,0,0,0,0,0,-1,1707,904,0,0
490,120,0,0,0,0,0,0,0,0,0,-1,1714,904,0,0
497,120,0,0,0,0,0,0,0,0,0,-1,1721,904,0,0
504,120,0,0,0,0,0,0,0,0,0,-1,1728,904,0,0
511,120,0,0,0,0,0,0,0,0,0,-1,1735,904,0,0
518,120,0,0,0,0,0,0,0,0,0,-1,1742,904,0,0
525,120,0,0,0,0,0,0,0,0,0,-1,1749,904,0,0
532,120,0,0,0,0,0,0,0,0,0,-1,1756,904,0,0
539,120,0,0,0,0,0,0,0,0,0,-1,1763,904,0,0
546,120,0,0,0,0,0,0,0,0,0,-1,1770,904,0,0
553,120,0,0,0,0,0,0,0,0,0,-1,1777,904,0,0
560,120,0,0,0,0,0,0,0,0,0,-1,1784,904,0,0
567,120,0,0,0,0,0,0,0,0,0,-1,1791,904,0,0
574,120,0,0,0,0,0,0,0,0,0,-1,1798,904,0,0
581,120,0,0,0,0,0,0,0,0,0,-1,1805,904,0,0
588,120,0,0,0,0,0,0,0,0,0,-1,1812,904,0,0
595,120,0,0,0,0,0,0,0,0,0,-1,1819,904,0,0
602,120,0,0,0,0,0,0,0,0,0,-1,1826,904,0,0
609,120,0,0,0,0,0,0,0,0,0,-1,1833,904,0,0
616,120,0,0,0,0,0,0,0,0,0,-1,1840,904,0,0
623,120,0,0,0,0,0,0,0,0,0,-1,1847,904,0,0
630,120,55.203,2.9859,0.00428076,0.00116506,-0.000860959,0.00450283,0.000942981,-0.252441,0.00274215,0.0413569,1854,904,55.203,-2.98589
637,120,55.141,3.14038,0.00334365,0.00190378,-0.000770192,0.00367799,0.00156944,-0.409556,0.00213108,0.0452506,1861,904,55.141,-3.14038
644,120,55.2384,3.00195,0.00229114,0.00219927,-0.000617316,0.00286423,0.00162618,-0.748263,0.00165872,0.0389783,1868,904,55.2384,-3.00196
651,120,55.2931,2.88867,0.00121657,0.00227268,-0.000420339,0.00241955,0.0010697,-1.23464,0.00140004,0.039143,1875,904,55.293,-2.88866
658,120,55.304,2.77905,0.000468871,0.00212516,-0.000199183,0.00214877,0.000445255,-1.45278,0.00130958,0.0395424,1882,904,55.304,-2.77908
665,120,55.3093,2.75696,0.000184921,0.00218331,7.38174e-05,0.00218604,0.000182199,1.53392,0.00140058,0.0359203,1889,904,55.3093,-2.75699
672,120,55.2924,2.71991,0.000146785,0.00201009,0.000303224,0.00205819,9.86821e-05,1.41347,0.00134045,0.0362519,1896,904,55.2923,-2.71989
679,120,55.3208,2.62714,0.000208501,0.00186024,0.000383524,0.00194495,0.000123793,1.35342,0.0012574,0.0323558,1903,904,55.3207,-2.62712
686,120,55.3,2.71454,0.000303265,0.001752,0.000332067,0.00182448,0.000230778,1.35588,0.00114716,0.028426,1910,904,55.3001,-2.71454
693,120,55.2506,2.81451,0,0,0,0,0,0,0,-1,1917,904,55.2506,-2.81454
700,120,42.2007,3.00946,0,0,0,0,0,0,0,-1,1924,904,42.2007,-3.00944
707,120,48.9873,3.12842,0,0,0,0,0,0,0,-1,1931,904,48.9873,-3.12843
714,120,49.5856,3.68744,0,0,0,0,0,0,0,-1,1938,904,49.5856,-3.68741
721,120,49.3536,4.45984,0.000148846,0.00219853,-0.000151659,0.00220969,0.000137685,-1.49734,0.00142944,0.0191028,1945,904,49.3537,-4.45984
728,120,49.2633,5.00452,-0.000154546,0.00278995,-0.000207206,0.00280446,-0.000169055,-1.50089,0.00192846,0.0134191,1952,904,49.2633,-5.00452
735,120,49.234,5.474,-0.000569562,0.00384919,-0.00054966,0.00391654,-0.000636909,-1.44888,0.00284717,0.0139679,1959,904,49.234,-5.47399
742,120,49.1946,6.02667,-0.000965527,0.00574514,-0.000896682,0.00586288,-0.00108328,-1.44023,0.00431525,0.0151168,1966,904,49.1946,-6.02665
749,120,49.149,6.55475,-0.0013073,0.00863415,-0.000923412,0.00871919,-0.00139234,-1.47896,0.00632817,0.0114597,1973,904,49.1491,-6.55476
756,120,49.0822,7.09229,-0.00147579,0.0124706,-0.000685806,0.0125042,-0.00150943,-1.52178,0.00888213,0.0139268,1980,904,49.0822,-7.09231
763,120,49.0026,7.62946,-0.00126774,0.0170763,-0.000316481,0.0170817,-0.0012732,-1.55355,0.0118351,0.0301059,1987,904,49.0025,-7.62943
770,120,48.9489,8.18494,0,0,0,0,0,0,0,-1,1994,904,48.9489,-8.18496
777,120,41.3512,6.78638,0,0,0,0,0,0,0,-1,2001,904,41.3512,-6.78635
784,120,43.5239,5.77271,0,0,0,0,0,0,0,-1,2008,904,43.524,-5.77269
791,120,41.957,6.00659,0,0,0,0,0,0,0,-1,2015,904,41.957,-6.00662
798,120,42.4553,5.6944,0,0,0,0,0,0,0,-1,2022,904,42.4552,-5.69439
805,120,0,0,0,0,0,0,0,0,0,-1,2029,904,0,0
812,120,0,0,0,0,0,0,0,0,0,-1,2036,904,0,0
-700,113,0,0,0,0,0,0,0,0,0,-1,524,911,0,0
-693,113,0,0,0,0,0,0,0,0,0,-1,531,911,0,0
-686,113,0,0,0,0,0,0,0,0,0,-1,538,911,0,0
-679,113,-38.7053,3.95844,0,0,0,0,0,0,0,-1,545,911,-38.7052,-3.95841
-672,113,-37.4512,2.8244,0,0,0,0,0,0,0,-1,552,911,-37.4512,-2.82438
-665,113,-37.1398,8.44916,0,0,0,0,0,0,0,-1,559,911,-37.1398,-8.44913
-658,113,-37.1281,2.40698,0,0,0,0,0,0,0,-1,566,911,-37.1281,-2.40697
-651,113,-37.0688,5.01025,0,0,0,0,0,0,0,-1,573,911,-37.0688,-5.01027
-644,113,-36.991,5.57745,0,0,0,0,0,0,0,-1,580,911,-36.9911,-5.57748
-637,113,-37.1567,5.12292,-0.0141792,0.0237676,0.00554841,0.0245623,-0.0149738,1.42855,0.0230489,0.0455664,587,911,-37.1567,-5.12291
-630,113,-37.1859,4.79974,-0.0104015,0.0171311,0.00516102,0.0180668,-0.0113372,1.39145,0.0171239,0.0208576,594,911,-37.1859,-4.79976
-623,113,-37.2629,4.32605,-0.00783037,0.011157,0.00455644,0.0121938,-0.00886717,1.34706,0.01221,0.0120477,601,911,-37.2629,-4.32604
-616,113,-37.2669,3.85046,-0.00643261,0.00674463,0.00374483,0.0077345,-0.00742249,1.31237,0.00875151,0.0102857,608,911,-37.2669,-3.85049
-609,113,-37.2773,3.40057,-0.00586993,0.00343965,0.00312973,0.00439399,-0.00682427,1.27483,0.00652733,0.0113113,615,911,-37.2773,-3.40057
-602,113,-37.3234,2.88531,-0.00603315,0.00151148,0.00254286,0.00228851,-0.00681017,1.27424,0.00546507,0.019065,622,911,-37.3234,-2.88533
-595,113,-37.3423,2.49335,-0.00583689,0.000931785,0.0019603,0.00145852,-0.00636363,1.30829,0.00480299,0.0269093,629,911,-37.3424,-2.49335
-588,113,-37.3007,1.99176,-0.005196,0.00074489,0.00137902,0.00104939,-0.0055005,1.35348,0.00406223,0.0317022,636,911,-37.3007,-1.99173
-581,113,-37.3196,1.48401,-0.00479201,0.000641834,0.00114606,0.000873662,-0.00502384,1.37121,0.00367523,0.0325045,643,911,-37.3196,-1.484
-574,113,-37.3043,0.772034,0,0,0,0,0,0,0,-1,650,911,-37.3043,-0.772038
-567,113,-21.8396,0.437378,0,0,0,0,0,0,0,-1,657,911,-21.8396,-0.437351
-560,113,-41.6745,0.818176,0,0,0,0,0,0,0,-1,664,911,-41.6745,-0.818204
-553,113,-41.6719,0.812866,-0.00339519,0.000469838,0.000931906,0.000682799,-0.00360815,1.34613,0.00266238,0.0426214,671,911,-41.6719,-0.812844
-546,113,-41.6863,0.844055,-0.00304807,0.000772258,0.000811584,0.000937521,-0.00321333,1.36991,0.00251369,0.0371267,678,911,-41.6863,-0.844083
-539,113,-41.5413,0.785522,-0.00241755,0.00120341,0.000775461,0.00136249,-0.00257664,1.36846,0.00230999,0.0360671,685,911,-41.5413,-0.785529
-532,113,-41.4854,0.700012,-0.00142187,0.0017594,0.000907903,0.00200027,-0.00166274,1.31147,0.00211783,0.0368435,692,911,-41.4853,-0.700027
-525,113,-41.6875,0.809143,-0.000655659,0.00248817,0.0010439,0.00280322,-0.000970709,1.27769,0.00226288,0.0368985,699,911,-41.6875,-0.809121
-518,113,-41.9039,1.0246,-0.000718777,0.00390241,0.00103381,0.00412314,-0.000939509,1.36044,0.00310961,0.0396333,706,911,-41.9039,-1.02462
-511,113,-41.8234,0.909607,-0.000186307,0.00581789,0.000921384,0.0059561,-0.000324519,1.4219,0.00408321,0.0389018,713,911,-41.8234,-0.909582
-504,113,0,0,0,0,0,0,0,0,0,-1,720,911,0,0
-497,113,0,0,0,0,0,0,0,0,0,-1,727,911,0,0
-490,113,0,0,0,0,0,0,0,0,0,-1,734,911,0,0
-483,113,0,0,0,0,0,0,0,0,0,-1,741,911,0,0
-476,113,0,0,0,0,0,0,0,0,0,-1,748,911,0,0
-469,113,0,0,0,0,0,0,0,0,0,-1,755,911,0,0
-462,113,0,0,0,0,0,0,0,0,0,-1,762,911,0,0
-455,113,0,0,0,0,0,0,0,0,0,-1,769,911,0,0
-448,113,0,0,0,0,0,0,0,0,0,-1,776,911,0,0
-441,113,0,0,0,0,0,0,0,0,0,-1,783,911,0,0
-434,113,0,0,0,0,0,0,0,0,0,-1,790,911,0,0
-427,113,0,0,0,0,0,0,0,0,0,-1,797,911,0,0
-420,113,0,0,0,0,0,0,0,0,0,-1,804,911,0,0
-413,113,0,0,0,0,0,0,0,0,0,-1,811,911,0,0
-406,113,0,0,0,0,0,0,0,0,0,-1,818,911,0,0
-399,113,0,0,0,0,0,0,0,0,0,-1,825,911,0,0
-392,113,0,0,0,0,0,0,0,0,0,-1,832,911,0,0
-385,113,0,0,0,0,0,0,0,0,0,-1,839,911,0,0
-378,113,0,0,0,0,0,0,0,0,0,-1,846,911,0,0
-371,113,0,0,0,0,0,0,0,0,0,-1,853,911,0,0
-364,113,0,0,0,0,0,0,0,0,0,-1,860,911,0,0
-357,113,0,0,0,0,0,0,0,0,0,-1,867,911,0,0
-350,113,0,0,0,0,0,0,0,0,0,-1,874,911,0,0
-343,113,0,0,0,0,0,0,0,0,0,-1,881,911,0,0
-336,113,0,0,0,0,0,0,0,0,0,-1,888,911,0,0
-329,113,0,0,0,0,0,0,0,0,0,-1,895,911,0,0
-322,113,0,0,0,0,0,0,0,0,0,-1,902,911,0,0
-315,113,0,0,0,0,0,0,0,0,0,-1,909,911,0,0
-308,113,0,0,0,0,0,0,0,0,0,-1,916,911,0,0
-301,113,0,0,0,0,0,0,0,0,0,-1,923,911,0,0
-294,113,0,0,0,0,0,0,0,0,0,-1,930,911,0,0
-287,113,0,0,0,0,0,0,0,0,0,-1,937,911,0,0
-280,113,0,0,0,0,0,0,0,0,0,-1,944,911,0,0
-273,113,0,0,0,0,0,0,0,0,0,-1,951,911,0,0
-266,113,0,0,0,0,0,0,0,0,0,-1,958,911,0,0
-259,113,0,0,0,0,0,0,0,0,0,-1,965,911,0,0
-252,113,0,0,0,0,0,0,0,0,0,-1,972,911,0,0
-245,113,0,0,0,0,0,0,0,0,0,-1,979,911,0,0
-238,113,0,0,0,0,0,0,0,0,0,-1,986,911,0,0
-231,113,0,0,0,0,0,0,0,0,0,-1,993,911,0,0
-224,113,0,0,0,0,0,0,0,0,0,-1,1000,911,0,0
-217,113,0,0,0,0,0,0,0,0,0,-1,1007,911,0,0
-210,113,0,0,0,0,0,0,0,0,0,-1,1014,911,0,0
-203,113,0,0,0,0,0,0,0,0,0,-1,1021,911,0,0
-196,113,0,0,0,0,0,0,0,0,0,-1,1028,911,0,0
-189,113,0,0,0,0,0,0,0,0,0,-1,1035,911,0,0
-182,113,0,0,0,0,0,0,0,0,0,-1,1042,911,0,0
-175,113,0,0,0,0,0,0,0,0,0,-1,1049,911,0,0
-168,113,0,0,0,0,0,0,0,0,0,-1,1056,911,0,0
-161,113,0,0,0,0,0,0,0,0,0,-1,1063,911,0,0
-154,113,0,0,0,0,0,0,0,0,0,-1,1070,911,0,0
-147,113,0,0,0,0,0,0,0,0,0,-1,1077,911,0,0
-140,113,0,0,0,0,0,0,0,0,0,-1,1084,911,0,0
-133,113,0,0,0,0,0,0,0,0,0,-1,1091,911,0,0
-126,113,0,0,0,0,0,0,0,0,0,-1,1098,911,0,0
-119,113,0,0,0,0,0,0,0,0,0,-1,1105,911,0,0
-112,113,0,0,0,0,0,0,0,0,0,-1,1112,911,0,0
-105,113,0,0,0,0,0,0,0,0,0,-1,1119,911,0,0
-98,113,0,0,0,0,0,0,0,0,0,-1,1126,911,0,0
-91,113,0,0,0,0,0,0,0,0,0,-1,1133,911,0,0
-84,113,0,0,0,0,0,0,0,0,0,-1,1140,911,0,0
-77,113,0,0,0,0,0,0,0,0,0,-1,1147,911,0,0
-70,113,0,0,0,0,0,0,0,0,0,-1,1154,911,0,0
-63,113,0,0,0,0,0,0,0,0,0,-1,1161,911,0,0
-56,113,0,0,0,0,0,0,0,0,0,-1,1168,911,0,0
-49,113,0,0,0,0,0,0,0,0,0,-1,1175,911,0,0
-42,113,0,0,0,0,0,0,0,0,0,-1,1182,911,0,0
-35,113,0,0,0,0,0,0,0,0,0,-1,1189,911,0,0
-28,113,0,0,0,0,0,0,0,0,0,-1,1196,911,0,0
-21,113,0,0,0,0,0,0,0,0,0,-1,1203,911,0,0
-14,113,0,0,0,0,0,0,0,0,0,-1,1210,911,0,0
-7,113,0,0,0,0,0,0,0,0,0,-1,1217,911,0,0
0,113,0,0,0,0,0,0,0,0,0,-1,1224,911,0,0
7,113,0,0,0,0,0,0,0,0,0,-1,1231,911,0,0
14,113,0,0,0,0,0,0,0,0,0,-1,1238,911,0,0
21,113,0,0,0,0,0,0,0,0,0,-1,1245,911,0,0
28,113,0,0,0,0,0,0,0,0,0,-1,1252,911,0,0
35,113,0,0,0,0,0,0,0,0,0,-1,1259,911,0,0
42,113,0,0,0,0,0,0,0,0,0,-1,1266,911,0,0
49,113,0,0,0,0,0,0,0,0,0,-1,1273,911,0,0
56,113,0,0,0,0,0,0,0,0,0,-1,1280,911,0,0
63,113,0,0,0,0,0,0,0,0,0,-1,1287,911,0,0
70,113,0,0,0,0,0,0,0,0,0,-1,1294,911,0,0
77,113,0,0,0,0,0,0,0,0,0,-1,1301,911,0,0
84,113,0,0,0,0,0,0,0,0,0,-1,1308,911,0,0
91,113,0,0,0,0,0,0,0,0,0,-1,1315,911,0,0
98,113,0,0,0,0,0,0,0,0,0,-1,1322,911,0,0
105,113,0,0,0,0,0,0,0,0,0,-1,1329,911,0,0
112,113,0,0,0,0,0,0,0,0,0,-1,1336,911,0,0
119,113,0,0,0,0,0,0,0,0,0,-1,1343,911,0,0
126,113,0,0,0,0,0,0,0,0,0,-1,1350,911,0,0
133,113,0,0,0,0,0,0,0,0,0,-1,1357,911,0,0
140,113,0,0,0,0,0,0,0,0,0,-1,1364,911,0,0
147,113,0,0,0,0,0,0,0,0,0,-1,1371,911,0,0
154,113,0,0,0,0,0,0,0,0,0,-1,1378,911,0,0
161,113,0,0,0,0,0,0,0,0,0,-1,1385,911,0,0
168,113,0,0,0,0,0,0,0,0,0,-1,1392,911,0,0
175,113,0,0,0,0,0,0,0,0,0,-1,1399,911,0,0
182,113,0,0,0,0,0,0,0,0,0,-1,1406,911,0,0
189,113,0,0,0,0,0,0,0,0,0,-1,1413,911,0,0
196,113,0,0,0,0,0,0,0,0,0,-1,1420,911,0,0
203,113,0,0,0,0,0,0,0,0,0,-1,1427,911,0,0
210,113,0,0,0,0,0,0,0,0,0,-1,1434,911,0,0
217,113,0,0,0,0,0,0,0,0,0,-1,1441,911,0,0
224,113,0,0,0,0,0,0,0,0,0,-1,1448,911,0,0
231,113,0,0,0,0,0,0,0,0,0,-1,1455,911,0,0
238,113,0,0,0,0,0,0,0,0,0,-1,1462,911,0,0
245,113,0,0,0,0,0,0,0,0,0,-1,1469,911,0,0
252,113,0,0,0,0,0,0,0,0,0,-1,1476,911,0,0
259,113,0,0,0,0,0,0,0,0,0,-1,1483,911,0,0
266,113,0,0,0,0,0,0,0,0,0,-1,1490,911,0,0
273,113,0,0,0,0,0,0,0,0,0,-1,1497,911,0,0
280,113,0,0,0,0,0,0,0,0,0,-1,1504,911,0,0
287,113,0,0,0,0,0,0,0,0,0,-1,1511,911,0,0
294,113,0,0,0,0,0,0,0,0,0,-1,1518,911,0,0
301,113,0,0,0,0,0,0,0,0,0,-1,1525,911,0,0
308,113,0,0,0,0,0,0,0,0,0,-1,1532,911,0,0
315,113,0,0,0,0,0,0,0,0,0,-1,1539,911,0,0
322,113,0,0,0,0,0,0,0,0,0,-1,1546,911,0,0
329,113,0,0,0,0,0,0,0,0,0,-1,1553,911,0,0
336,113,0,0,0,0,0,0,0,0,0,-1,1560,911,0,0
343,113,0,0,0,0,0,0,0,0,0,-1,1567,911,0,0
350,113,0,0,0,0,0,0,0,0,0,-1,1574,911,0,0
357,113,0,0,0,0,0,0,0,0,0,-1,1581,911,0,0
364,113,0,0,0,0,0,0,0,0,0,-1,1588,911,0,0
371,113,0,0,0,0,0,0,0,0,0,-1,1595,911,0,0
378,113,0,0,0,0,0,0,0,0,0,-1,1602,911,0,0
385,113,0,0,0,0,0,0,0,0,0,-1,1609,911,0,0
392,113,0,0,0,0,0,0,0,0,0,-1,1616,911,0,0
399,113,0,0,0,0,0,0,0,0,0,-1,1623,911,0,0
406,113,0,0,0,0,0,0,0,0,0,-1,1630,911,0,0
413,113,0,0,0,0,0,0,0,0,0,-1,1637,911,0,0
420,113,0,0,0,0,0,0,0,0,0,-1,1644,911,0,0
427,113,0,0,0,0,0,0,0,0,0,-1,1651,911,0,0
434,113,0,0,0,0,0,0,0,0,0,-1,1658,911,0,0
441,113,0,0,0,0,0,0,0,0,0,-1,1665,911,0,0
448,113,0,0,0,0,0,0,0,0,0,-1,1672,911,0,0
455,113,0,0,0,0,0,0,0,0,0,-1,1679,911,0,0
462,113,0,0,0,0,0,0,0,0,0,-1,1686,911,0,0
469,113,0,0,0,0,0,0,0,0,0,-1,1693,911,0,0
476,113,0,0,0,0,0,0,0,0,0,-1,1700,911,0,0
483,113,0,0,0,0,0,0,0,0,0,-1,1707,911,0,0
490,113,0,0,0,0,0,0,0,0,0,-1,1714,911,0,0
497,113,0,0,0,0,0,0,0,0,0,-1,1721,911,0,0
504,113,0,0,0,0,0,0,0,0,0,-1,1728,911,0,0
511,113,0,0,0,0,0,0,0,0,0,-1,1735,911,0,0
518,113,0,0,0,0,0,0,0,0,0,-1,1742,911,0,0
525,113,0,0,0,0,0,0,0,0,0,-1,1749,911,0,0
532,113,0,0,0,0,0,0,0,0,0,-1,1756,911,0,0
539,113,0,0,0,0,0,0,0,0,0,-1,1763,911,0,0
546,113,0,0,0,0,0,0,0,0,0,-1,1770,911,0,0
553,113,0,0,0,0,0,0,0,0,0,-1,1777,911,0,0
560,113,0,0,0,0,0,0,0,0,0,-1,1784,911,0,0
567,113,0,0,0,0,0,0,0,0,0,-1,1791,911,0,0
574,113,0,0,0,0,0,0,0,0,0,-1,1798,911,0,0
581,113,0,0,0,0,0,0,0,0,0,-1,1805,911,0,0
588,113,0,0,0,0,0,0,0,0,0,-1,1812,911,0,0
595,113,0,0,0,0,0,0,0,0,0,-1,1819,911,0,0
602,113,0,0,0,0,0,0,0,0,0,-1,1826,911,0,0
609,113,0,0,0,0,0,0,0,0,0,-1,1833,911,0,0
616,113,0,0,0,0,0,0,0,0,0,-1,1840,911,0,0
623,113,0,0,0,0,0,0,0,0,0,-1,1847,911,0,0
630,113,55.2386,2.87463,0.00540706,0.00269485,-0.000756354,0.00560372,0.00249819,-0.254383,0.00324164,0.0402336,1854,911,55.2386,-2.87465
637,113,55.1846,3.1308,0.00423984,0.00310444,-0.000653966,0.00453814,0.00280615,-0.427948,0.00264445,0.0410845,1861,911,55.1846,-3.13082
644,113,55.3971,3.07971,0.00299534,0.00312212,-0.000475664,0.0035386,0.00257886,-0.851638,0.0021131,0.0356126,1868,911,55.3971,-3.0797
651,113,55.5811,2.81677,0.00170884,0.00301461,-0.000226192,0.00305268,0.00167077,-1.40404,0.00176509,0.0383122,1875,911,55.5811,-2.8168
658,113,55.6073,2.64478,0.00072404,0.00278831,9.19489e-05,0.0027924,0.000719952,1.52637,0.00167404,0.0401989,1882,911,55.6073,-2.64478
665,113,55.4902,2.73517,0.000269534,0.00275195,0.000451049,0.00283136,0.00019012,1.39652,0.0018275,0.0360286,1889,911,55.4902,-2.73515
672,113,55.2896,2.81488,7.09671e-05,0.00250988,0.000743859,0.00271885,-0.000138002,1.29693,0.00186027,0.0358081,1896,911,55.2895,-2.81489
679,113,55.3157,2.62219,3.04488e-05,0.00227945,0.000882606,0.00258446,-0.000274559,1.23807,0.0018214,0.0315105,1903,911,55.3156,-2.6222
686,113,55.333,2.68829,9.75775e-05,0.0020874,0.000843223,0.00239667,-0.000211687,1.21927,0.00167281,0.0280556,1910,911,55.333,-2.68828
693,113,55.1359,2.88635,0,0,0,0,0,0,0,-1,1917,911,55.1359,-2.88633
700,113,43.897,2.79669,0,0,0,0,0,0,0,-1,1924,911,43.897,-2.79671
707,113,49.7443,3.34662,0,0,0,0,0,0,0,-1,1931,911,49.7443,-3.3466
714,113,49.8058,3.86896,-0.000370884,0.00194564,0.00023484,0.00196921,-0.000394452,1.47078,0.00146214,0.0256168,1938,911,49.8058,-3.86894
721,113,49.8103,4.40576,-0.000303415,0.00234289,9.30089e-05,0.00234615,-0.00030668,1.53571,0.00167571,0.0234834,1945,911,49.8103,-4.40574
728,113,49.8455,4.99335,-0.000662794,0.00285811,1.44084e-05,0.00285817,-0.000662853,1.5667,0.00216056,0.0243153,1952,911,49.8454,-4.99335
735,113,49.7865,5.52271,-0.00111335,0.0039099,-0.000394139,0.00394064,-0.00114408,-1.49297,0.00308011,0.0211125,1959,911,49.7865,-5.52273
742,113,49.741,6.01465,-0.00150017,0.00571305,-0.000885025,0.00582005,-0.00160717,-1.45048,0.00451219,0.0133226,1966,911,49.741,-6.01462
749,113,49.74,6.5484,-0.00182809,0.00859174,-0.00105933,0.00869835,-0.0019347,-1.4705,0.0065399,0.0101489,1973,911,49.7399,-6.54838
756,113,49.6637,7.10956,-0.00201773,0.0125484,-0.000897797,0.0126035,-0.00207285,-1.50947,0.00917169,0.0140557,1980,911,49.6637,-7.10956
763,113,49.5272,7.73096,-0.00189969,0.0173321,-0.000528598,0.0173466,-0.00191421,-1.54334,0.0122524,0.0317032,1987,911,49.5272,-7.73097
770,113,49.6528,8.26129,0,0,0,0,0,0,0,-1,1994,911,49.6528,-8.2613
777,113,50.5425,8.80872,0,0,0,0,0,0,0,-1,2001,911,50.5425,-8.8087
784,113,42.8354,6.22766,0,0,0,0,0,0,0,-1,2008,911,42.8355,-6.22766
791,113,41.7288,7.26263,0,0,0,0,0,0,0,-1,2015,911,41.7287,-7.26261
798,113,46.2527,8.20587,0,0,0,0,0,0,0,-1,2022,911,46.2528,-8.20587
805,113,0,0,0,0,0,0,0,0,0,-1,2029,911,0,0
812,113,0,0,0,0,0,0,0,0,0,-1,2036,911,0,0
-700,106,0,0,0,0,0,0,0,0,0,-1,524,918,0,0
-693,106,0,0,0,0,0,0,0,0,0,-1,531,918,0,0
-686,106,0,0,0,0,0,0,0,0,0,-1,538,918,0,0
-679,106,-38.1689,5.02124,0,0,0,0,0,0,0,-1,545,918,-38.1689,-5.02121
-672,106,-36.9705,8.01233,0,0,0,0,0,0,0,-1,552,918,-36.9705,-8.01235
-665,106,-37.1927,7.62671,0,0,0,0,0,0,0,-1,559,918,-37.1927,-7.62674
-658,106,-36.1431,4.95593,0,0,0,0,0,0,0,-1,566,918,-36.1431,-4.95595
-651,106,-36.709,4.95355,0,0,0,0,0,0,0,-1,573,918,-36.709,-4.95357
-644,106,-37.0179,5.13104,-0.0199057,0.0348711,0.00799688,0.0360147,-0.0210493,1.42875,0.0333214,0.0454056,580,918,-37.0179,-5.13102
-637,106,-37.3609,5.32983,-0.0156957,0.0261773,0.00737857,0.0274394,-0.0169579,1.40138,0.0258698,0.0345813,587,918,-37.3609,-5.32986
-630,106,-37.6655,4.8775,-0.011572,0.0190775,0.00657923,0.0204301,-0.0129246,1.36803,0.0194192,0.0164914,594,918,-37.6655,-4.87748
-623,106,-37.8049,4.29834,-0.00867105,0.0125086,0.00558055,0.013889,-0.0100515,1.3283,0.0138811,0.016458,601,918,-37.8049,-4.29834
-616,106,-37.8309,3.80804,-0.00702257,0.00752454,0.00436301,0.00873275,-0.00823078,1.30064,0.00979533,0.016381,608,918,-37.8309,-3.80805
-609,106,-37.8101,3.37646,-0.00644536,0.00388389,0.00340998,0.00490807,-0.00746954,1.27902,0.00719704,0.0126556,615,918,-37.8101,-3.37647
-602,106,-37.8541,2.9035,-0.00668424,0.00174566,0.00256337,0.00246393,-0.00740251,1.2976,0.00592949,0.0202953,622,918,-37.854,-2.90349
-595,106,-37.9937,2.45319,-0.00655159,0.00111436,0.00179458,0.00151367,-0.00695089,1.35186,0.00521227,0.0250535,629,918,-37.9937,-2.45317
-588,106,-37.9815,1.9386,-0.00598248,0.000934301,0.00107083,0.00109629,-0.00614447,1.42066,0.00450641,0.0302368,636,918,-37.9815,-1.93859
-581,106,-37.8049,1.39417,-0.00561178,0.000802183,0.000759253,0.000890834,-0.00570043,1.45456,0.00412939,0.0175462,643,918,-37.8049,-1.39418
-574,106,-37.826,0.884155,0,0,0,0,0,0,0,-1,650,918,-37.8261,-0.88418
-567,106,-36.2079,0.840881,0,0,0,0,0,0,0,-1,657,918,-36.208,-0.840858
-560,106,-41.576,0.918945,0,0,0,0,0,0,0,-1,664,918,-41.576,-0.918915
-553,106,-41.6626,0.979858,-0.00427127,0.000842701,0.000348944,0.000866401,-0.00429496,1.50298,0.00319155,0.0345347,671,918,-41.6626,-0.979854
-546,106,-41.6362,0.9021,-0.00381474,0.00122296,0.000261126,0.00123646,-0.00382824,1.51915,0.00304906,0.0376799,678,918,-41.6362,-0.902072
-539,106,-41.6049,0.805542,-0.00294552,0.001743,0.000291301,0.00176103,-0.00296355,1.50898,0.00275703,0.0411657,685,918,-41.6049,-0.805542
-532,106,-41.5559,0.466614,-0.0016051,0.0023221,0.000509328,0.00238708,-0.00167009,1.4439,0.00235457,0.0409778,692,918,-41.5559,-0.466611
-525,106,-41.7451,0.590942,-0.000556257,0.00300968,0.000724449,0.00315124,-0.000697816,1.37783,0.00236796,0.036977,699,918,-41.745,-0.590969
-518,106,-41.8157,0.629456,-0.000832473,0.00438621,0.000630057,0.0044612,-0.000907463,1.45233,0.00331824,0.0377867,706,918,-41.8157,-0.629434
-511,106,0,0,0,0,0,0,0,0,0,-1,713,918,0,0
-504,106,0,0,0,0,0,0,0,0,0,-1,720,918,0,0
-497,106,0,0,0,0,0,0,0,0,0,-1,727,918,0,0
-490,106,0,0,0,0,0,0,0,0,0,-1,734,918,0,0
-483,106,0,0,0,0,0,0,0,0,0,-1,741,918,0,0
-476,106,0,0,0,0,0,0,0,0,0,-1,748,918,0,0
-469,106,0,0,0,0,0,0,0,0,0,-1,755,918,0,0
-462,106,0,0,0,0,0,0,0,0,0,-1,762,918,0,0
-455,106,0,0,0,0,0,0,0,0,0,-1,769,918,0,0
-448,106,0,0,0,0,0,0,0,0,0,-1,776,918,0,0
-441,106,0,0,0,0,0,0,0,0,0,-1,783,918,0,0
-434,106,0,0,0,0,0,0,0,0,0,-1,790,918,0,0
-427,106,0,0,0,0,0,0,0,0,0,-1,797,918,0,0
-420,106,0,0,0,0,0,0,0,0,0,-1,804,918,0,0
-413,106,0,0,0,0,0,0,0,0,0,-1,811,918,0,0
-406,106,0,0,0,0,0,0,0,0,0,-1,818,918,0,0
-399,106,0,0,0,0,0,0,0,0,0,-1,825,918,0,0
-392,106,0,0,0,0,0,0,0,0,0,-1,832,918,0,0
-385,106,0,0,0,0,0,0,0,0,0,-1,839,918,0,0
-378,106,0,0,0,0,0,0,0,0,0,-1,846,918,0,0
-371,106,0,0,0,0,0,0,0,0,0,-1,853,918,0,0
-364,106,0,0,0,0,0,0,0,0,0,-1,860,918,0,0
-357,106,0,0,0,0,0,0,0,0,0,-1,867,918,0,0
-350,106,0,0,0,0,0,0,0,0,0,-1,874,918,0,0
-343,106,0,0,0,0,0,0,0,0,0,-1,881,918,0,0
-336,106,0,0,0,0,0,0,0,0,0,-1,888,918,0,0
-329,106,0,0,0,0,0,0,0,0,0,-1,895,918,0,0
-322,106,0,0,0,0,0,0,0,0,0,-1,902,918,0,0
-315,106,0,0,0,0,0,0,0,0,0,-1,909,918,0,0
-308,106,0,0,0,0,0,0,0,0,0,-1,916,918,0,0
-301,106,0,0,0,0,0,0,0,0,0,-1,923,918,0,0
-294,106,0,0,0,0,0,0,0,0,0,-1,930,918,0,0
-287,106,0,0,0,0,0,0,0,0,0,-1,937,918,0,0
-280,106,0,0,0,0,0,0,0,0,0,-1,944,918,0,0
-273,106,0,0,0,0,0,0,0,0,0,-1,951,918,0,0
-266,106,0,0,0,0,0,0,0,0,0,-1,958,918,0,0
-259,106,0,0,0,0,0,0,0,0,0,-1,965,918,0,0
-252,106,0,0,0,0,0,0,0,0,0,-1,972,918,0,0
-245,106,0,0,0,0,0,0,0,0,0,-1,979,918,0,0
-238,106,0,0,0,0,0,0,0,0,0,-1,986,918,0,0
-231,106,0,0,0,0,0,0,0,0,0,-1,993,918,0,0
-224,106,0,0,0,0,0,0,0,0,0,-1,1000,918,0,0
-217,106,0,0,0,0,0,0,0,0,0,-1,1007,918,0,0
-210,106,0,0,0,0,0,0,0,0,0,-1,1014,918,0,0
-203,106,0,0,0,0,0,0,0,0,0,-1,1021,918,0,0
-196,106,0,0,0,0,0,0,0,0,0,-1,1028,918,0,0
-189,106,0,0,0,0,0,0,0,0,0,-1,1035,918,0,0
-182,106,0,0,0,0,0,0,0,0,0,-1,1042,918,0,0
-175,106,0,0,0,0,0,0,0,0,0,-1,1049,918,0,0
-168,106,0,0,0,0,0,0,0,0,0,-1,1056,918,0,0
-161,106,0,0,0,0,0,0,0,0,0,-1,1063,918,0,0
-154,106,0,0,0,0,0,0,0,0,0,-1,1070,918,0,0
-147,106,0,0,0,0,0,0,0,0,0,-1,1077,918,0,0
-140,106,0,0,0,0,0,0,0,0,0,-1,1084,918,0,0
-133,106,0,0,0,0,0,0,0,0,0,-1,1091,918,0,0
-126,106,0,0,0,0,0,0,0,0,0,-1,1098,918,0,0
-119,106,0,0,0,0,0,0,0,0,0,-1,1105,918,0,0
-112,106,0,0,0,0,0,0,0,0,0,-1,1112,918,0,0
-105,106,0,0,0,0,0,0,0,0,0,-1,1119,918,0,0
-98,106,0,0,0,0,0,0,0,0,0,-1,1126,918,0,0
-91,106,0,0,0,0,0,0,0,0,0,-1,1133,918,0,0
-84,106,0,0,0,0,0,0,0,0,0,-1,1140,918,0,0
-77,106,0,0,0,0,0,0,0,0,0,-1,1147,918,0,0
-70,106,0,0,0,0,0,0,0,0,0,-1,1154,918,0,0
-63,106,0,0,0,0,0,0,0,0,0,-1,1161,918,0,0
-56,106,0,0,0,0,0,0,0,0,0,-1,1168,918,0,0
-49,106,0,0,0,0,0,0,0,0,0,-1,1175,918,0,0
-42,106,0,0,0,0,0,0,0,0,0,-1,1182,918,0,0
-35,106,0,0,0,0,0,0,0,0,0,-1,1189,918,0,0
-28,106,0,0,0,0,0,0,0,0,0,-1,1196,918,0,0
-21,106,0,0,0,0,0,0,0,0,0,-1,1203,918,0,0
-14,106,0,0,0,0,0,0,0,0,0,-1,1210,918,0,0
-7,106,0,0,0,0,0,0,0,0,0,-1,1217,918,0,0
0,106,0,0,0,0,0,0,0,0,0,-1,1224,918,0,0
7,106,0,0,0,0,0,0,0,0,0,-1,1231,918,0,0
14,106,0,0,0,0,0,0,0,0,0,-1,1238,918,0,0
21,106,0,0,0,0,0,0,0,0,0,-1,1245,918,0,0
28,106,0,0,0,0,0,0,0,0,0,-1,1252,918,0,0
35,106,0,0,0,0,0,0,0,0,0,-1,1259,918,0,0
42,106,0,0,0,0,0,0,0,0,0,-1,1266,918,0,0
49,106,0,0,0,0,0,0,0,0,0,-1,1273,918,0,0
56,106,0,0,0,0,0,0,0,0,0,-1,1280,918,0,0
63,106,0,0,0,0,0,0,0,0,0,-1,1287,918,0,0
70,106,0,0,0,0,0,0,0,0,0,-1,1294,918,0,0
77,106,0,0,0,0,0,0,0,0,0,-1,1301,918,0,0
84,106,0,0,0,0,0,0,0,0,0,-1,1308,918,0,0
91,106,0,0,0,0,0,0,0,0,0,-1,1315,918,0,0
98,106,0,0,0,0,0,0,0,0,0,-1,1322,918,0,0
105,106,0,0,0,0,0,0,0,0,0,-1,1329,918,0,0
112,106,0,0,0,0,0,0,0,0,0,-1,1336,918,0,0
119,106,0,0,0,0,0,0,0,0,0,-1,1343,918,0,0
126,106,0,0,0,0,0,0,0,0,0,-1,1350,918,0,0
133,106,0,0,0,0,0,0,0,0,0,-1,1357,918,0,0
140,106,0,0,0,0,0,0,0,0,0,-1,1364,918,0,0
147,106,0,0,0,0,0,0,0,0,0,-1,1371,918,0,0
154,106,0,0,0,0,0,0,0,0,0,-1,1378,918,0,0
161,106,0,0,0,0,0,0,0,0,0,-1,1385,918,0,0
168,106,0,0,0,0,0,0,0,0,0,-1,1392,918,0,0
175,106,0,0,0,0,0,0,0,0,0,-1,1399,918,0,0
182,106,0,0,0,0,0,0,0,0,0,-1,1406,918,0,0
189,106,0,0,0,0,0,0,0,0,0,-1,1413,918,0,0
196,106,0,0,0,0,0,0,0,0,0,-1,1420,918,0,0
203,106,0,0,0,0,0,0,0,0,0,-1,1427,918,0,0
210,106,0,0,0,0,0,0,0,0,0,-1,1434,918,0,0
217,106,0,0,0,0,0,0,0,0,0,-1,1441,918,0,0
224,106,0,0,0,0,0,0,0,0,0,-1,1448,918,0,0
231,106,0,0,0,0,0,0,0,0,0,-1,1455,918,0,0
238,106,0,0,0,0,0,0,0,0,0,-1,1462,918,0,0
245,106,0,0,0,0,0,0,0,0,0,-1,1469,918,0,0
252,106,0,0,0,0,0,0,0,0,0,-1,1476,918,0,0
259,106,0,0,0,0,0,0,0,0,0,-1,1483,918,0,0
266,106,0,0,0,0,0,0,0,0,0,-1,1490,918,0,0
273,106,0,0,0,0,0,0,0,0,0,-1,1497,918,0,0
280,106,0,0,0,0,0,0,0,0,0,-1,1504,918,0,0
287,106,0,0,0,0,0,0,0,0,0,-1,1511,918,0,0
294,106,0,0,0,0,0,0,0,0,0,-1,1518,918,0,0
301,106,0,0,0,0,0,0,0,0,0,-1,1525,918,0,0
308,106,0,0,0,0,0,0,0,0,0,-1,1532,918,0,0
315,106,0,0,0,0,0,0,0,0,0,-1,1539,918,0,0
322,106,0,0,0,0,0,0,0,0,0,-1,1546,918,0,0
329,106,0,0,0,0,0,0,0,0,0,-1,1553,918,0,0
336,106,0,0,0,0,0,0,0,0,0,-1,1560,918,0,0
343,106,0,0,0,0,0,0,0,0,0,-1,1567,918,0,0
350,106,0,0,0,0,0,0,0,0,0,-1,1574,918,0,0
357,106,0,0,0,0,0,0,0,0,0,-1,1581,918,0,0
364,106,0,0,0,0,0,0,0,0,0,-1,1588,918,0,0
371,106,0,0,0,0,0,0,0,0,0,-1,1595,918,0,0
378,106,0,0,0,0,0,0,0,0,0,-1,1602,918,0,0
385,106,0,0,0,0,0,0,0,0,0,-1,1609,918,0,0
392,106,0,0,0,0,0,0,0,0,0,-1,1616,918,0,0
399,106,0,0,0,0,0,0,0,0,0,-1,1623,918,0,0
406,106,0,0,0,0,0,0,0,0,0,-1,1630,918,0,0
413,106,0,0,0,0,0,0,0,0,0,-1,1637,918,0,0
420,106,0,0,0,0,0,0,0,0,0,-1,1644,918,0,0
427,106,0,0,0,0,0,0,0,0,0,-1,1651,918,0,0
434,106,0,0,0,0,0,0,0,0,0,-1,1658,918,0,0
441,106,0,0,0,0,0,0,0,0,0,-1,1665,918,0,0
448,106,0,0,0,0,0,0,0,0,0,-1,1672,918,0,0
455,106,0,0,0,0,0,0,0,0,0,-1,1679,918,0,0
462,106,0,0,0,0,0,0,0,0,0,-1,1686,918,0,0
469,106,0,0,0,0,0,0,0,0,0,-1,1693,918,0,0
476,106,0,0,0,0,0,0,0,0,0,-1,1700,918,0,0
483,106,0,0,0,0,0,0,0,0,0,-1,1707,918,0,0
490,106,0,0,0,0,0,0,0,0,0,-1,1714,918,0,0
497,106,0,0,0,0,0,0,0,0,0,-1,1721,918,0,0
504,106,0,0,0,0,0,0,0,0,0,-1,1728,918,0,0
511,106,0,0,0,0,0,0,0,0,0,-1,1735,918,0,0
518,106,0,0,0,0,0,0,0,0,0,-1,1742,918,0,0
525,106,0,0,0,0,0,0,0,0,0,-1,1749,918,0,0
532,106,0,0,0,0,0,0,0,0,0,-1,1756,918,0,0
539,106,0,0,0,0,0,0,0,0,0,-1,1763,918,0,0
546,106,0,0,0,0,0,0,0,0,0,-1,1770,918,0,0
553,106,0,0,0,0,0,0,0,0,0,-1,1777,918,0,0
560,106,0,0,0,0,0,0,0,0,0,-1,1784,918,0,0
567,106,0,0,0,0,0,0,0,0,0,-1,1791,918,0,0
574,106,0,0,0,0,0,0,0,0,0,-1,1798,918,0,0
581,106,0,0,0,0,0,0,0,0,0,-1,1805,918,0,0
588,106,0,0,0,0,0,0,0,0,0,-1,1812,918,0,0
595,106,0,0,0,0,0,0,0,0,0,-1,1819,918,0,0
602,106,0,0,0,0,0,0,0,0,0,-1,1826,918,0,0
609,106,0,0,0,0,0,0,0,0,0,-1,1833,918,0,0
616,106,0,0,0,0,0,0,0,0,0,-1,1840,918,0,0
623,106,0,0,0,0,0,0,0,0,0,-1,1847,918,0,0
630,106,55.2982,3.01971,0.00644409,0.0043695,-0.00041329,0.0065234,0.0042902,-0.189576,0.00382819,0.0415127,1854,918,55.2982,-3.01968
637,106,55.2325,2.96326,0.00494933,0.00433506,-0.00038959,0.00513829,0.0041461,-0.451599,0.00314737,0.039508,1861,918,55.2326,-2.96323
644,106,55.4641,2.81641,0.00349796,0.00402295,-0.000264265,0.00413293,0.00338798,-1.17642,0.0025436,0.0361246,1868,918,55.4641,-2.81641
651,106,55.6312,2.61804,0.00205472,0.00372322,-8.24133e-06,0.00372326,0.00205468,-1.56586,0.00215348,0.0386934,1875,918,55.6312,-2.61803
658,106,55.6445,2.54272,0.000899744,0.00342731,0.000367329,0.00347961,0.000847443,1.42936,0.00209519,0.0401597,1882,918,55.6445,-2.54273
665,106,55.5365,2.69025,0.000300287,0.00333138,0.000802778,0.00353087,0.000100801,1.32724,0.00232104,0.0405606,1889,918,55.5365,-2.69024
672,106,55.3275,2.84955,-3.74834e-05,0.00305498,0.00116779,0.00344642,-0.000428919,1.24737,0.00245312,0.0401269,1896,918,55.3275,-2.84956
679,106,55.3245,2.73065,-0.00016463,0.00275766,0.00137413,0.0033023,-0.000709268,1.19344,0.0024721,0.0344237,1903,918,55.3245,-2.73064
686,106,55.3514,2.73608,-0.000106748,0.00249702,0.00134791,0.00306911,-0.000678836,1.16941,0.0023059,0.0288934,1910,918,55.3514,-2.73607
693,106,55.1548,2.93427,-0.000258852,0.00204248,0.00130037,0.00262818,-0.000844557,1.1476,0.00209128,0.0357852,1917,918,55.1548,-2.93426
700,106,55.0812,3.25433,0,0,0,0,0,0,0,-1,1924,918,55.0812,-3.25434
707,106,50.2723,3.21375,0,0,0,0,0,0,0,-1,1931,918,50.2723,-3.21375
714,106,50.4321,3.81079,-0.000669002,0.00224684,0.000565404,0.00235264,-0.000774799,1.38582,0.00188067,0.0423926,1938,918,50.4321,-3.81079
721,106,50.4386,4.44592,-0.000644274,0.00259643,0.000374995,0.00263926,-0.0006871,1.45708,0.00202772,0.0294723,1945,918,50.4386,-4.4459
728,106,50.4818,5.03992,-0.00105557,0.00302964,0.000273262,0.00304784,-0.00107377,1.5043,0.00246891,0.0286191,1952,918,50.4818,-5.03992
735,106,50.4027,5.53973,-0.00153943,0.00407664,-0.000203565,0.004084,-0.0015468,-1.53461,0.00335915,0.0252161,1959,918,50.4027,-5.53971
742,106,50.3193,6.01526,-0.00194172,0.00579527,-0.000835196,0.0058844,-0.00203085,-1.46448,0.00474697,0.012934,1966,918,50.3194,-6.01528
749,106,50.2961,6.53168,-0.00230852,0.00865692,-0.00118709,0.00878396,-0.00243556,-1.46418,0.00681449,0.00993356,1973,918,50.2962,-6.53166
756,106,50.2344,7.04022,-0.00257097,0.0127322,-0.00114901,0.012818,-0.00265676,-1.49627,0.00955486,0.0131196,1980,918,50.2344,-7.04022
763,106,50.1304,7.67078,-0.00258835,0.017707,-0.000847572,0.0177424,-0.00262368,-1.52913,0.0127928,0.025825,1987,918,50.1304,-7.67075
770,106,50.1599,8.10291,-0.00228874,0.0238047,-0.000498741,0.0238142,-0.00229827,-1.55169,0.0166951,0.0459974,1994,918,50.1599,-8.10291
777,106,50.4868,8.5816,-0.00204492,0.0314245,8.94986e-05,0.0314247,-0.00204516,1.56812,0.0216637,0.0499022,2001,918,50.4868,-8.58162
784,106,49.4182,10.5283,0,0,0,0,0,0,0,-1,2008,918,49.4183,-10.5283
791,106,49.0237,10.7097,0,0,0,0,0,0,0,-1,2015,918,49.0237,-10.7097
798,106,47.1345,8.55341,0,0,0,0,0,0,0,-1,2022,918,47.1345,-8.55342
805,106,0,0,0,0,0,0,0,0,0,-1,2029,918,0,0
812,106,0,0,0,0,0,0,0,0,0,-1,2036,918,0,0
-700,99,0,0,0,0,0,0,0,0,0,-1,524,925,0,0
-693,99,0,0,0,0,0,0,0,0,0,-1,531,925,0,0
-686,99,0,0,0,0,0,0,0,0,0,-1,538,925,0,0
-679,99,-37.9189,6.35565,0,0,0,0,0,0,0,-1,545,925,-37.9189,-6.35563
-672,99,-36.9432,7.07013,0,0,0,0,0,0,0,-1,552,925,-36.9432,-7.07013
-665,99,-37.2214,6.70789,-0.0328004,0.0657358,0.00888937,0.0665313,-0.0335959,1.48154,0.0588417,0.0469821,559,925,-37.2214,-6.70787
-658,99,-37.5521,6.52368,-0.0281972,0.054355,0.00940593,0.0554131,-0.0292553,1.45877,0.0496549,0.0441526,566,925,-37.552,-6.52367
-651,99,-38.5028,6.2149,0,0,0,0,0,0,0,-1,573,925,-38.5028,-6.21491
-644,99,-38.2909,5.7774,-0.0192668,0.0344615,0.00883721,0.0358777,-0.020683,1.41189,0.0330458,0.0473675,580,925,-38.2909,-5.77739
-637,99,-37.9962,5.26642,-0.0152383,0.026215,0.00802623,0.0277148,-0.0167381,1.38607,0.0259244,0.0321591,587,925,-37.9962,-5.26643
-630,99,-38.1769,4.83466,-0.0114376,0.0193672,0.0070805,0.0209167,-0.0129871,1.35535,0.019752,0.0175873,594,925,-38.1769,-4.83466
-623,99,-38.3539,4.29279,-0.00874127,0.0128471,0.00593099,0.0143692,-0.0102634,1.31958,0.0142873,0.0122121,601,925,-38.354,-4.29278
-616,99,-38.3653,3.81982,-0.00716566,0.00777687,0.00453561,0.00904583,-0.00843463,1.29799,0.0100944,0.0137872,608,925,-38.3653,-3.81985
-609,99,-38.3527,3.38068,-0.00672743,0.00413643,0.00343582,0.00513185,-0.00772284,1.2888,0.00747174,0.0119593,615,925,-38.3527,-3.3807
-602,99,-38.3529,2.95886,-0.00707991,0.00191412,0.00249836,0.00256152,-0.0077273,1.31725,0.00618479,0.0164842,622,925,-38.3529,-2.95889
-595,99,-38.4704,2.52332,-0.00702749,0.00118497,0.00164176,0.00150102,-0.00734353,1.38062,0.00546517,0.0221053,629,925,-38.4704,-2.52333
-588,99,-38.4694,2.02448,-0.00659039,0.00097619,0.000842574,0.00106888,-0.00668308,1.46123,0.00485109,0.0251654,636,925,-38.4694,-2.02449
-581,99,-38.4448,1.42999,-0.00630547,0.000791166,0.0004668,0.000821739,-0.00633604,1.50539,0.00452289,0.0190052,643,925,-38.4448,-1.42996
-574,99,-38.5881,0.88269,0,0,0,0,0,0,0,-1,650,925,-38.5881,-0.882717
-567,99,-41.5732,0.850464,0,0,0,0,0,0,0,-1,657,925,-41.5732,-0.850486
-560,99,-41.5579,0.839905,-0.00526168,0.000650469,-1.50648e-05,0.000650507,-0.00526172,-1.56825,0.00374353,0.04737,664,925,-41.5578,-0.839926
-553,99,-41.5934,0.97052,-0.00481829,0.00098109,-0.000189739,0.000987291,-0.00482449,-1.53813,0.00359096,0.0381003,671,925,-41.5934,-0.970506
-546,99,-41.6272,0.925903,-0.00409754,0.00142844,-0.000247484,0.0014395,-0.0041086,-1.52613,0.00332446,0.0409101,678,925,-41.6272,-0.925925
-539,99,-41.6587,0.830078,-0.00287809,0.00199288,-0.000161953,0.00199826,-0.00288347,-1.5376,0.00283387,0.040333,685,925,-41.6587,-0.830078
-532,99,-41.6281,0.850708,-0.00113837,0.00254824,9.94655e-05,0.00255092,-0.00114105,1.54384,0.00218275,0.0433951,692,925,-41.628,-0.850698
-525,99,-41.7706,0.713928,9.8324e-05,0.00318443,0.00029958,0.00321324,6.95115e-05,1.47492,0.00211937,0.0407349,699,925,-41.7705,-0.713957
-518,99,-41.7722,0.708191,-0.000415305,0.00463665,8.95763e-05,0.00463824,-0.000416892,1.55307,0.00324007,0.0382665,706,925,-41.7721,-0.70817
-511,99,0,0,0,0,0,0,0,0,0,-1,713,925,0,0
-504,99,0,0,0,0,0,0,0,0,0,-1,720,925,0,0
-497,99,0,0,0,0,0,0,0,0,0,-1,727,925,0,0
-490,99,0,0,0,0,0,0,0,0,0,-1,734,925,0,0
-483,99,0,0,0,0,0,0,0,0,0,-1,741,925,0,0
-476,99,0,0,0,0,0,0,0,0,0,-1,748,925,0,0
-469,99,0,0,0,0,0,0,0,0,0,-1,755,925,0,0
-462,99,0,0,0,0,0,0,0,0,0,-1,762,925,0,0
-455,99,0,0,0,0,0,0,0,0,0,-1,769,925,0,0
-448,99,0,0,0,0,0,0,0,0,0,-1,776,925,0,0
-441,99,0,0,0,0,0,0,0,0,0,-1,783,925,0,0
-434,99,0,0,0,0,0,0,0,0,0,-1,790,925,0,0
-427,99,0,0,0,0,0,0,0,0,0,-1,797,925,0,0
-420,99,0,0,0,0,0,0,0,0,0,-1,804,925,0,0
-413,99,0,0,0,0,0,0,0,0,0,-1,811,925,0,0
-406,99,0,0,0,0,0,0,0,0,0,-1,818,925,0,0
-399,99,0,0,0,0,0,0,0,0,0,-1,825,925,0,0
-392,99,0,0,0,0,0,0,0,0,0,-1,832,925,0,0
-385,99,0,0,0,0,0,0,0,0,0,-1,839,925,0,0
-378,99,0,0,0,0,0,0,0,0,0,-1,846,925,0,0
-371,99,0,0,0,0,0,0,0,0,0,-1,853,925,0,0
-364,99,0,0,0,0,0,0,0,0,0,-1,860,925,0,0
-357,99,0,0,0,0,0,0,0,0,0,-1,867,925,0,0
-350,99,0,0,0,0,0,0,0,0,0,-1,874,925,0,0
-343,99,0,0,0,0,0,0,0,0,0,-1,881,925,0,0
-336,99,0,0,0,0,0,0,0,0,0,-1,888,925,0,0
-329,99,0,0,0,0,0,0,0,0,0,-1,895,925,0,0
-322,99,0,0,0,0,0,0,0,0,0,-1,902,925,0,0
-315,99,0,0,0,0,0,0,0,0,0,-1,909,925,0,0
-308,99,0,0,0,0,0,0,0,0,0,-1,916,925,0,0
-301,99,0,0,0,0,0,0,0,0,0,-1,923,925,0,0
-294,99,0,0,0,0,0,0,0,0,0,-1,930,925,0,0
-287,99,0,0,0,0,0,0,0,0,0,-1,937,925,0,0
-280,99,0,0,0,0,0,0,0,0,0,-1,944,925,0,0
-273,99,0,0,0,0,0,0,0,0,0,-1,951,925,0,0
-266,99,0,0,0,0,0,0,0,0,0,-1,958,925,0,0
-259,99,0,0,0,0,0,0,0,0,0,-1,965,925,0,0
-252,99,0,0,0,0,0,0,0,0,0,-1,972,925,0,0
-245,99,0,0,0,0,0,0,0,0,0,-1,979,925,0,0
-238,99,0,0,0,0,0,0,0,0,0,-1,986,925,0,0
-231,99,0,0,0,0,0,0,0,0,0,-1,993,925,0,0
-224,99,0,0,0,0,0,0,0,0,0,-1,1000,925,0,0
-217,99,0,0,0,0,0,0,0,0,0,-1,1007,925,0,0
-210,99,0,0,0,0,0,0,0,0,0,-1,1014,925,0,0
-203,99,0,0,0,0,0,0,0,0,0,-1,1021,925,0,0
-196,99,0,0,0,0,0,0,0,0,0,-1,1028,925,0,0
-189,99,0,0,0,0,0,0,0,0,0,-1,1035,925,0,0
-182,99,0,0,0,0,0,0,0,0,0,-1,1042,925,0,0
-175,99,0,0,0,0,0,0,0,0,0,-1,1049,925,0,0
-168,99,0,0,0,0,0,0,0,0,0,-1,1056,925,0,0
-161,99,0,0,0,0,0,0,0,0,0,-1,1063,925,0,0
-154,99,0,0,0,0,0,0,0,0,0,-1,1070,925,0,0
-147,99,0,0,0,0,0,0,0,0,0,-1,1077,925,0,0
-140,99,0,0,0,0,0,0,0,0,0,-1,1084,925,0,0
-133,99,0,0,0,0,0,0,0,0,0,-1,1091,925,0,0
-126,99,0,0,0,0,0,0,0,0,0,-1,1098,925,0,0
-119,99,0,0,0,0,0,0,0,0,0,-1,1105,925,0,0
-112,99,0,0,0,0,0,0,0,0,0,-1,1112,925,0,0
-105,99,0,0,0,0,0,0,0,0,0,-1,1119,925,0,0
-98,99,0,0,0,0,0,0,0,0,0,-1,1126,925,0,0
-91,99,0,0,0,0,0,0,0,0,0,-1,1133,925,0,0
-84,99,0,0,0,0,0,0,0,0,0,-1,1140,925,0,0
-77,99,0,0,0,0,0,0,0,0,0,-1,1147,925,0,0
-70,99,0,0,0,0,0,0,0,0,0,-1,1154,925,0,0
-63,99,0,0,0,0,0,0,0,0,0,-1,1161,925,0,0
-56,99,0,0,0,0,0,0,0,0,0,-1,1168,925,0,0
-49,99,0,0,0,0,0,0,0,0,0,-1,1175,925,0,0
-42,99,0,0,0,0,0,0,0,0,0,-1,1182,925,0,0
-35,99,0,0,0,0,0,0,0,0,0,-1,1189,925,0,0
-28,99,0,0,0,0,0,0,0,0,0,-1,1196,925,0,0
-21,99,0,0,0,0,0,0,0,0,0,-1,1203,925,0,0
-14,99,0,0,0,0,0,0,0,0,0,-1,1210,925,0,0
-7,99,0,0,0,0,0,0,0,0,0,-1,1217,925,0,0
0,99,0,0,0,0,0,0,0,0,0,-1,1224,925,0,0
7,99,0,0,0,0,0,0,0,0,0,-1,1231,925,0,0
14,99,0,0,0,0,0,0,0,0,0,-1,1238,925,0,0
21,99,0,0,0,0,0,0,0,0,0,-1,1245,925,0,0
28,99,0,0,0,0,0,0,0,0,0,-1,1252,925,0,0
35,99,0,0,0,0,0,0,0,0,0,-1,1259,925,0,0
42,99,0,0,0,0,0,0,0,0,0,-1,1266,925,0,0
49,99,0,0,0,0,0,0,0,0,0,-1,1273,925,0,0
56,99,0,0,0,0,0,0,0,0,0,-1,1280,925,0,0
63,99,0,0,0,0,0,0,0,0,0,-1,1287,925,0,0
70,99,0,0,0,0,0,0,0,0,0,-1,1294,925,0,0
77,99,0,0,0,0,0,0,0,0,0,-1,1301,925,0,0
84,99,0,0,0,0,0,0,0,0,0,-1,1308,925,0,0
91,99,0,0,0,0,0,0,0,0,0,-1,1315,925,0,0
98,99,0,0,0,0,0,0,0,0,0,-1,1322,925,0,0
105,99,0,0,0,0,0,0,0,0,0,-1,1329,925,0,0
112,99,0,0,0,0,0,0,0,0,0,-1,1336,925,0,0
119,99,0,0,0,0,0,0,0,0,0,-1,1343,925,0,0
126,99,0,0,0,0,0,0,0,0,0,-1,1350,925,0,0
133,99,0,0,0,0,0,0,0,0,0,-1,1357,925,0,0
140,99,0,0,0,0,0,0,0,0,0,-1,1364,925,0,0
147,99,0,0,0,0,0,0,0,0,0,-1,1371,925,0,0
154,99,0,0,0,0,0,0,0,0,0,-1,1378,925,0,0
161,99,0,0,0,0,0,0,0,0,0,-1,1385,925,0,0
168,99,0,0,0,0,0,0,0,0,0,-1,1392,925,0,0
175,99,0,0,0,0,0,0,0,0,0,-1,1399,925,0,0
182,99,0,0,0,0,0,0,0,0,0,-1,1406,925,0,0
189,99,0,0,0,0,0,0,0,0,0,-1,1413,925,0,0
196,99,0,0,0,0,0,0,0,0,0,-1,1420,925,0,0
203,99,0,0,0,0,0,0,0,0,0,-1,1427,925,0,0
210,99,0,0,0,0,0,0,0,0,0,-1,1434,925,0,0
217,99,0,0,0,0,0,0,0,0,0,-1,1441,925,0,0
224,99,0,0,0,0,0,0,0,0,0,-1,1448,925,0,0
231,99,0,0,0,0,0,0,0,0,0,-1,1455,925,0,0
238,99,0,0,0,0,0,0,0,0,0,-1,1462,925,0,0
245,99,0,0,0,0,0,0,0,0,0,-1,1469,925,0,0
252,99,0,0,0,0,0,0,0,0,0,-1,1476,925,0,0
259,99,0,0,0,0,0,0,0,0,0,-1,1483,925,0,0
266,99,0,0,0,0,0,0,0,0,0,-1,1490,925,0,0
273,99,0,0,0,0,0,0,0,0,0,-1,1497,925,0,0
280,99,0,0,0,0,0,0,0,0,0,-1,1504,925,0,0
287,99,0,0,0,0,0,0,0,0,0,-1,1511,925,0,0
294,99,0,0,0,0,0,0,0,0,0,-1,1518,925,0,0
301,99,0,0,0,0,0,0,0,0,0,-1,1525,925,0,0
308,99,0,0,0,0,0,0,0,0,0,-1,1532,925,0,0
315,99,0,0,0,0,0,0,0,0,0,-1,1539,925,0,0
322,99,0,0,0,0,0,0,0,0,0,-1,1546,925,0,0
329,99,0,0,0,0,0,0,0,0,0,-1,1553,925,0,0
336,99,0,0,0,0,0,0,0,0,0,-1,1560,925,0,0
343,99,0,0,0,0,0,0,0,0,0,-1,1567,925,0,0
350,99,0,0,0,0,0,0,0,0,0,-1,1574,925,0,0
357,99,0,0,0,0,0,0,0,0,0,-1,1581,925,0,0
364,99,0,0,0,0,0,0,0,0,0,-1,1588,925,0,0
371,99,0,0,0,0,0,0,0,0,0,-1,1595,925,0,0
378,99,0,0,0,0,0,0,0,0,0,-1,1602,925,0,0
385,99,0,0,0,0,0,0,0,0,0,-1,1609,925,0,0
392,99,0,0,0,0,0,0,0,0,0,-1,1616,925,0,0
399,99,0,0,0,0,0,0,0,0,0,-1,1623,925,0,0
406,99,0,0,0,0,0,0,0,0,0,-1,1630,925,0,0
413,99,0,0,0,0,0,0,0,0,0,-1,1637,925,0,0
420,99,0,0,0,0,0,0,0,0,0,-1,1644,925,0,0
427,99,0,0,0,0,0,0,0,0,0,-1,1651,925,0,0
434,99,0,0,0,0,0,0,0,0,0,-1,1658,925,0,0
441,99,0,0,0,0,0,0,0,0,0,-1,1665,925,0,0
448,99,0,0,0,0,0,0,0,0,0,-1,1672,925,0,0
455,99,0,0,0,0,0,0,0,0,0,-1,1679,925,0,0
462,99,0,0,0,0,0,0,0,0,0,-1,1686,925,0,0
469,99,0,0,0,0,0,0,0,0,0,-1,1693,925,0,0
476,99,0,0,0,0,0,0,0,0,0,-1,1700,925,0,0
483,99,0,0,0,0,0,0,0,0,0,-1,1707,925,0,0
490,99,0,0,0,0,0,0,0,0,0,-1,1714,925,0,0
497,99,0,0,0,0,0,0,0,0,0,-1,1721,925,0,0
504,99,0,0,0,0,0,0,0,0,0,-1,1728,925,0,0
511,99,0,0,0,0,0,0,0,0,0,-1,1735,925,0,0
518,99,0,0,0,0,0,0,0,0,0,-1,1742,925,0,0
525,99,0,0,0,0,0,0,0,0,0,-1,1749,925,0,0
532,99,0,0,0,0,0,0,0,0,0,-1,1756,925,0,0
539,99,0,0,0,0,0,0,0,0,0,-1,1763,925,0,0
546,99,0,0,0,0,0,0,0,0,0,-1,1770,925,0,0
553,99,0,0,0,0,0,0,0,0,0,-1,1777,925,0,0
560,99,0,0,0,0,0,0,0,0,0,-1,1784,925,0,0
567,99,0,0,0,0,0,0,0,0,0,-1,1791,925,0,0
574,99,0,0,0,0,0,0,0,0,0,-1,1798,925,0,0
581,99,0,0,0,0,0,0,0,0,0,-1,1805,925,0,0
588,99,0,0,0,0,0,0,0,0,0,-1,1812,925,0,0
595,99,0,0,0,0,0,0,0,0,0,-1,1819,925,0,0
602,99,0,0,0,0,0,0,0,0,0,-1,1826,925,0,0
609,99,0,0,0,0,0,0,0,0,0,-1,1833,925,0,0
616,99,0,0,0,0,0,0,0,0,0,-1,1840,925,0,0
623,99,0,0,0,0,0,0,0,0,0,-1,1847,925,0,0
630,99,0,0,0,0,0,0,0,0,0,-1,1854,925,0,0
637,99,55.2866,2.71552,0.00586663,0.00494521,0.000131633,0.00588507,0.00492677,0.139152,0.00364617,0.0428644,1861,925,55.2866,-2.71549
644,99,55.4087,2.56421,0.00408432,0.00441921,6.04472e-05,0.00442979,0.00407374,1.39758,0.00284196,0.0383997,1868,925,55.4087,-2.56422
651,99,55.4473,2.52734,0.00245736,0.00401324,0.000221279,0.0040441,0.0024265,1.43223,0.00235038,0.0379598,1875,925,55.4473,-2.52734
658,99,55.3494,2.81268,0.00113308,0.00371775,0.000567195,0.00383674,0.00101409,1.36401,0.00229571,0.0392813,1882,925,55.3494,-2.81268
665,99,55.2487,2.99182,0.000342618,0.00363032,0.00102347,0.0039229,5.00469e-05,1.29236,0.00259874,0.041164,1889,925,55.2486,-2.99181
672,99,55.3226,2.80206,-0.000196668,0.00337972,0.00144785,0.00389238,-0.00070932,1.23049,0.00286082,0.0417892,1896,925,55.3226,-2.80204
679,99,55.3376,2.68414,-0.0004572,0.00306686,0.0017224,0.00376885,-0.00115919,1.18378,0.00297522,0.0375781,1903,925,55.3376,-2.68414
686,99,55.2728,2.68634,-0.000448432,0.00275943,0.00173099,0.00351536,-0.00120436,1.15906,0.00283172,0.0285831,1910,925,55.2728,-2.68633
693,99,55.2437,2.91345,-0.000617175,0.00225392,0.00167921,0.00302756,-0.00139082,1.13906,0.00260865,0.0330432,1917,925,55.2437,-2.91344
700,99,55.163,3.22192,0,0,0,0,0,0,0,-1,1924,925,55.1629,-3.22194
707,99,47.9915,3.27429,0,0,0,0,0,0,0,-1,1931,925,47.9914,-3.27427
714,99,51.0898,3.77576,0,0,0,0,0,0,0,-1,1938,925,51.0899,-3.77576
721,99,50.9771,4.41949,-0.00124205,0.00272076,0.000573624,0.00280212,-0.00132342,1.4299,0.00243234,0.0339762,1945,925,50.977,-4.41949
728,99,50.9888,4.98792,-0.00170937,0.0031097,0.000450148,0.00315139,-0.00175106,1.47845,0.00286866,0.0270537,1952,925,50.9888,-4.98791
735,99,50.9495,5.52087,-0.00223468,0.00417714,-8.92852e-05,0.00417838,-0.00223592,-1.55687,0.00375948,0.0216058,1959,925,50.9495,-5.52087
742,99,50.8817,6.02979,-0.00266702,0.00578061,-0.000840528,0.00586343,-0.00274984,-1.47258,0.00508003,0.0142695,1966,925,50.8818,-6.02982
749,99,50.8406,6.53094,-0.00311275,0.00850621,-0.00137638,0.00866703,-0.00327357,-1.45448,0.00712447,0.0123449,1973,925,50.8406,-6.53093
756,99,50.8005,6.97937,-0.00351715,0.012514,-0.00150231,0.0126536,-0.00365672,-1.47816,0.00988275,0.0133286,1980,925,50.8006,-6.97934
763,99,50.7512,7.45789,-0.00372817,0.0174822,-0.00131352,0.0175632,-0.0038092,-1.50918,0.0131636,0.0164528,1987,925,50.7512,-7.45791
770,99,50.7621,8.08624,-0.00369067,0.0234058,-0.00108807,0.0234494,-0.00373429,-1.53073,0.0170149,0.030787,1994,925,50.7621,-8.08622
777,99,50.8398,8.91394,-0.00381204,0.0307054,-0.000636721,0.0307172,-0.00382378,-1.55236,0.0218644,0.0460358,2001,925,50.8398,-8.91391
784,99,50.4517,9.47113,-0.00343068,0.0397094,-0.000150767,0.03971,-0.00343121,-1.5673,0.027688,0.0464657,2008,925,50.4517,-9.47113
791,99,50.1062,9.64771,0,0,0,0,0,0,0,-1,2015,925,50.1062,-9.64773
798,99,49.781,9.81073,0,0,0,0,0,0,0,-1,2022,925,49.7811,-9.81075
805,99,0,0,0,0,0,0,0,0,0,-1,2029,925,0,0
812,99,0,0,0,0,0,0,0,0,0,-1,2036,925,0,0
-700,92,0,0,0,0,0,0,0,0,0,-1,524,932,0,0
-693,92,0,0,0,0,0,0,0,0,0,-1,531,932,0,0
-686,92,-37.7668,5.11951,0,0,0,0,0,0,0,-1,538,932,-37.7668,-5.11949
-679,92,-37.1559,5.98694,0,0,0,0,0,0,0,-1,545,932,-37.1559,-5.98694
-672,92,-37.2949,5.93152,0,0,0,0,0,0,0,-1,552,932,-37.2949,-5.9315
-665,92,-37.3502,5.94897,-0.0324477,0.0618298,0.0108901,0.0630714,-0.0336892,1.45728,0.0567168,0.0482716,559,932,-37.3501,-5.949
-658,92,-37.5063,5.3584,-0.0277597,0.0518854,0.0108958,0.053349,-0.0292234,1.43726,0.0483467,0.0456265,566,932,-37.5063,-5.35839
-651,92,-38.8835,5.92603,0,0,0,0,0,0,0,-1,573,932,-38.8835,-5.92602
-644,92,-38.7998,5.57147,-0.0188051,0.0337926,0.00968325,0.0355186,-0.0205312,1.3944,0.0327437,0.044376,580,932,-38.7998,-5.57149
-637,92,-38.6636,5.15228,-0.0148561,0.0259704,0.00865412,0.0277291,-0.0166147,1.37031,0.0258686,0.0265377,587,932,-38.6635,-5.15227
-630,92,-38.7205,4.70392,-0.0113899,0.0193734,0.0075121,0.0211098,-0.0131262,1.34364,0.0199445,0.0142065,594,932,-38.7205,-4.70395
-623,92,-38.8243,4.27216,-0.00893046,0.0129995,0.00619526,0.0146287,-0.0105596,1.31365,0.0146056,0.0101355,601,932,-38.8243,-4.27213
-616,92,-38.8483,3.83429,-0.0074618,0.00792382,0.00463617,0.00921285,-0.00875082,1.29961,0.0103725,0.00951264,608,932,-38.8483,-3.83431
-609,92,-38.8794,3.3963,-0.00718294,0.00435118,0.00341561,0.00528676,-0.00811851,1.30344,0.00779689,0.00958198,615,932,-38.8794,-3.39631
-602,92,-38.8479,2.94623,-0.00768517,0.00207642,0.00242068,0.00264373,-0.00825248,1.34059,0.00656286,0.0114224,622,932,-38.8479,-2.94621
-595,92,-38.7581,2.44611,-0.00772527,0.00121592,0.00150163,0.00146137,-0.00797073,1.40877,0.00586198,0.0229348,629,932,-38.758,-2.44611
-588,92,-38.809,2.04669,-0.00742908,0.000932283,0.000664295,0.000984731,-0.00748153,1.49201,0.00534624,0.0281179,636,932,-38.809,-2.04668
-581,92,-39.2303,1.55463,-0.007234,0.000670366,0.000237011,0.000677467,-0.0072411,1.54085,0.00506834,0.0321949,643,932,-39.2304,-1.55461
-574,92,-39.684,0.980347,0,0,0,0,0,0,0,-1,650,932,-39.684,-0.980351
-567,92,-41.5655,0.856812,0,0,0,0,0,0,0,-1,657,932,-41.5655,-0.856819
-560,92,-41.5456,0.791016,-0.00616308,0.000553686,-0.000477207,0.000587421,-0.00619682,-1.50022,0.00434029,0.0405299,664,932,-41.5456,-0.791012
-553,92,-41.6842,0.795593,-0.00551049,0.000865581,-0.000632228,0.000927666,-0.00557258,-1.47291,0.00405976,0.0403888,671,932,-41.6842,-0.795606
-546,92,-41.7918,0.690125,-0.00446026,0.00128871,-0.000663811,0.00136436,-0.00453591,-1.45732,0.0035668,0.0408892,678,932,-41.7918,-0.690143
-539,92,-41.6445,0.74292,-0.00282833,0.00174695,-0.000547779,0.00181162,-0.002893,-1.45328,0.00274003,0.0387914,685,932,-41.6445,-0.742949
-532,92,-41.6601,0.869629,-0.000673401,0.00203876,-0.000291724,0.00206978,-0.000704424,-1.46485,0.00166509,0.0429829,692,932,-41.6601,-0.869613
-525,92,-41.7035,0.904968,0.000546012,0.00224905,-0.00021316,0.00227532,0.000519737,-1.44815,0.00137674,0.0393544,699,932,-41.7035,-0.904964
-518,92,-41.6365,0.949219,-0.000445139,0.00342513,-0.000641997,0.00352885,-0.000548854,-1.41063,0.00255524,0.0349718,706,932,-41.6365,-0.949193
-511,92,0,0,0,0,0,0,0,0,0,-1,713,932,0,0
-504,92,0,0,0,0,0,0,0,0,0,-1,720,932,0,0
-497,92,0,0,0,0,0,0,0,0,0,-1,727,932,0,0
-490,92,0,0,0,0,0,0,0,0,0,-1,734,932,0,0
-483,92,0,0,0,0,0,0,0,0,0,-1,741,932,0,0
-476,92,0,0,0,0,0,0,0,0,0,-1,748,932,0,0
-469,92,0,0,0,0,0,0,0,0,0,-1,755,932,0,0
-462,92,0,0,0,0,0,0,0,0,0,-1,762,932,0,0
-455,92,0,0,0,0,0,0,0,0,0,-1,769,932,0,0
-448,92,0,0,0,0,0,0,0,0,0,-1,776,932,0,0
-441,92,0,0,0,0,0,0,0,0,0,-1,783,932,0,0
-434,92,0,0,0,0,0,0,0,0,0,-1,790,932,0,0
-427,92,0,0,0,0,0,0,0,0,0,-1,797,932,0,0
-420,92,0,0,0,0,0,0,0,0,0,-1,804,932,0,0
-413,92,0,0,0,0,0,0,0,0,0,-1,811,932,0,0
-406,92,0,0,0,0,0,0,0,0,0,-1,818,932,0,0
-399,92,0,0,0,0,0,0,0,0,0,-1,825,932,0,0
-392,92,0,0,0,0,0,0,0,0,0,-1,832,932,0,0
-385,92,0,0,0,0,0,0,0,0,0,-1,839,932,0,0
-378,92,0,0,0,0,0,0,0,0,0,-1,846,932,0,0
-371,92,0,0,0,0,0,0,0,0,0,-1,853,932,0,0
-364,92,0,0,0,0,0,0,0,0,0,-1,860,932,0,0
-357,92,0,0,0,0,0,0,0,0,0,-1,867,932,0,0
-350,92,0,0,0,0,0,0,0,0,0,-1,874,932,0,0
-343,92,0,0,0,0,0,0,0,0,0,-1,881,932,0,0
-336,92,0,0,0,0,0,0,0,0,0,-1,888,932,0,0
-329,92,0,0,0,0,0,0,0,0,0,-1,895,932,0,0
-322,92,0,0,0,0,0,0,0,0,0,-1,902,932,0,0
-315,92,0,0,0,0,0,0,0,0,0,-1,909,932,0,0
-308,92,0,0,0,0,0,0,0,0,0,-1,916,932,0,0
-301,92,0,0,0,0,0,0,0,0,0,-1,923,932,0,0
-294,92,0,0,0,0,0,0,0,0,0,-1,930,932,0,0
-287,92,0,0,0,0,0,0,0,0,0,-1,937,932,0,0
-280,92,0,0,0,0,0,0,0,0,0,-1,944,932,0,0
-273,92,0,0,0,0,0,0,0,0,0,-1,951,932,0,0
-266,92,0,0,0,0,0,0,0,0,0,-1,958,932,0,0
-259,92,0,0,0,0,0,0,0,0,0,-1,965,932,0,0
-252,92,0,0,0,0,0,0,0,0,0,-1,972,932,0,0
-245,92,0,0,0,0,0,0,0,0,0,-1,979,932,0,0
-238,92,0,0,0,0,0,0,0,0,0,-1,986,932,0,0
-231,92,0,0,0,0,0,0,0,0,0,-1,993,932,0,0
-224,92,0,0,0,0,0,0,0,0,0,-1,1000,932,0,0
-217,92,0,0,0,0,0,0,0,0,0,-1,1007,932,0,0
-210,92,0,0,0,0,0,0,0,0,0,-1,1014,932,0,0
-203,92,0,0,0,0,0,0,0,0,0,-1,1021,932,0,0
-196,92,0,0,0,0,0,0,0,0,0,-1,1028,932,0,0
-189,92,0,0,0,0,0,0,0,0,0,-1,1035,932,0,0
-182,92,0,0,0,0,0,0,0,0,0,-1,1042,932,0,0
-175,92,0,0,0,0,0,0,0,0,0,-1,1049,932,0,0
-168,92,0,0,0,0,0,0,0,0,0,-1,1056,932,0,0
-161,92,0,0,0,0,0,0,0,0,0,-1,1063,932,0,0
-154,92,0,0,0,0,0,0,0,0,0,-1,1070,932,0,0
-147,92,0,0,0,0,0,0,0,0,0,-1,1077,932,0,0
-140,92,0,0,0,0,0,0,0,0,0,-1,1084,932,0,0
-133,92,0,0,0,0,0,0,0,0,0,-1,1091,932,0,0
-126,92,0,0,0,0,0,0,0,0,0,-1,1098,932,0,0
-119,92,0,0,0,0,0,0,0,0,0,-1,1105,932,0,0
-112,92,0,0,0,0,0,0,0,0,0,-1,1112,932,0,0
-105,92,0,0,0,0,0,0,0,0,0,-1,1119,932,0,0
-98,92,0,0,0,0,0,0,0,0,0,-1,1126,932,0,0
-91,92,0,0,0,0,0,0,0,0,0,-1,1133,932,0,0
-84,92,0,0,0,0,0,0,0,0,0,-1,1140,932,0,0
-77,92,0,0,0,0,0,0,0,0,0,-1,1147,932,0,0
-70,92,0,0,0,0,0,0,0,0,0,-1,1154,932,0,0
-63,92,0,0,0,0,0,0,0,0,0,-1,1161,932,0,0
-56,92,0,0,0,0,0,0,0,0,0,-1,1168,932,0,0
-49,92,0,0,0,0,0,0,0,0,0,-1,1175,932,0,0
-42,92,0,0,0,0,0,0,0,0,0,-1,1182,932,0,0
-35,92,0,0,0,0,0,0,0,0,0,-1,1189,932,0,0
-28,92,0,0,0,0,0,0,0,0,0,-1,1196,932,0,0
-21,92,0,0,0,0,0,0,0,0,0,-1,1203,932,0,0
-14,92,0,0,0,0,0,0,0,0,0,-1,1210,932,0,0
-7,92,0,0,0,0,0,0,0,0,0,-1,1217,932,0,0
0,92,0,0,0,0,0,0,0,0,0,-1,1224,932,0,0
7,92,0,0,0,0,0,0,0,0,0,-1,1231,932,0,0
14,92,0,0,0,0,0,0,0,0,0,-1,1238,932,0,0
21,92,0,0,0,0,0,0,0,0,0,-1,1245,932,0,0
28,92,0,0,0,0,0,0,0,0,0,-1,1252,932,0,0
35,92,0,0,0,0,0,0,0,0,0,-1,1259,932,0,0
42,92,0,0,0,0,0,0,0,0,0,-1,1266,932,0,0
49,92,0,0,0,0,0,0,0,0,0,-1,1273,932,0,0
56,92,0,0,0,0,0,0,0,0,0,-1,1280,932,0,0
63,92,0,0,0,0,0,0,0,0,0,-1,1287,932,0,0
70,92,0,0,0,0,0,0,0,0,0,-1,1294,932,0,0
77,92,0,0,0,0,0,0,0,0,0,-1,1301,932,0,0
84,92,0,0,0,0,0,0,0,0,0,-1,1308,932,0,0
91,92,0,0,0,0,0,0,0,0,0,-1,1315,932,0,0
98,92,0,0,0,0,0,0,0,0,0,-1,1322,932,0,0
105,92,0,0,0,0,0,0,0,0,0,-1,1329,932,0,0
112,92,0,0,0,0,0,0,0,0,0,-1,1336,932,0,0
119,92,0,0,0,0,0,0,0,0,0,-1,1343,932,0,0
126,92,0,0,0,0,0,0,0,0,0,-1,1350,932,0,0
133,92,0,0,0,0,0,0,0,0,0,-1,1357,932,0,0
140,92,0,0,0,0,0,0,0,0,0,-1,1364,932,0,0
147,92,0,0,0,0,0,0,0,0,0,-1,1371,932,0,0
154,92,0,0,0,0,0,0,0,0,0,-1,1378,932,0,0
161,92,0,0,0,0,0,0,0,0,0,-1,1385,932,0,0
168,92,0,0,0,0,0,0,0,0,0,-1,1392,932,0,0
175,92,0,0,0,0,0,0,0,0,0,-1,1399,932,0,0
182,92,0,0,0,0,0,0,0,0,0,-1,1406,932,0,0
189,92,0,0,0,0,0,0,0,0,0,-1,1413,932,0,0
196,92,0,0,0,0,0,0,0,0,0,-1,1420,932,0,0
203,92,0,0,0,0,0,0,0,0,0,-1,1427,932,0,0
210,92,0,0,0,0,0,0,0,0,0,-1,1434,932,0,0
217,92,0,0,0,0,0,0,0,0,0,-1,1441,932,0,0
224,92,0,0,0,0,0,0,0,0,0,-1,1448,932,0,0
231,92,0,0,0,0,0,0,0,0,0,-1,1455,932,0,0
238,92,0,0,0,0,0,0,0,0,0,-1,1462,932,0,0
245,92,0,0,0,0,0,0,0,0,0,-1,1469,932,0,0
252,92,0,0,0,0,0,0,0,0,0,-1,1476,932,0,0
259,92,0,0,0,0,0,0,0,0,0,-1,1483,932,0,0
266,92,0,0,0,0,0,0,0,0,0,-1,1490,932,0,0
273,92,0,0,0,0,0,0,0,0,0,-1,1497,932,0,0
280,92,0,0,0,0,0,0,0,0,0,-1,1504,932,0,0
287,92,0,0,0,0,0,0,0,0,0,-1,1511,932,0,0
294,92,0,0,0,0,0,0,0,0,0,-1,1518,932,0,0
301,92,0,0,0,0,0,0,0,0,0,-1,1525,932,0,0
308,92,0,0,0,0,0,0,0,0,0,-1,1532,932,0,0
315,92,0,0,0,0,0,0,0,0,0,-1,1539,932,0,0
322,92,0,0,0,0,0,0,0,0,0,-1,1546,932,0,0
329,92,0,0,0,0,0,0,0,0,0,-1,1553,932,0,0
336,92,0,0,0,0,0,0,0,0,0,-1,1560,932,0,0
343,92,0,0,0,0,0,0,0,0,0,-1,1567,932,0,0
350,92,0,0,0,0,0,0,0,0,0,-1,1574,932,0,0
357,92,0,0,0,0,0,0,0,0,0,-1,1581,932,0,0
364,92,0,0,0,0,0,0,0,0,0,-1,1588,932,0,0
371,92,0,0,0,0,0,0,0,0,0,-1,1595,932,0,0
378,92,0,0,0,0,0,0,0,0,0,-1,1602,932,0,0
385,92,0,0,0,0,0,0,0,0,0,-1,1609,932,0,0
392,92,0,0,0,0,0,0,0,0,0,-1,1616,932,0,0
399,92,0,0,0,0,0,0,0,0,0,-1,1623,932,0,0
406,92,0,0,0,0,0,0,0,0,0,-1,1630,932,0,0
413,92,0,0,0,0,0,0,0,0,0,-1,1637,932,0,0
420,92,0,0,0,0,0,0,0,0,0,-1,1644,932,0,0
427,92,0,0,0,0,0,0,0,0,0,-1,1651,932,0,0
434,92,0,0,0,0,0,0,0,0,0,-1,1658,932,0,0
441,92,0,0,0,0,0,0,0,0,0,-1,1665,932,0,0
448,92,0,0,0,0,0,0,0,0,0,-1,1672,932,0,0
455,92,0,0,0,0,0,0,0,0,0,-1,1679,932,0,0
462,92,0,0,0,0,0,0,0,0,0,-1,1686,932,0,0
469,92,0,0,0,0,0,0,0,0,0,-1,1693,932,0,0
476,92,0,0,0,0,0,0,0,0,0,-1,1700,932,0,0
483,92,0,0,0,0,0,0,0,0,0,-1,1707,932,0,0
490,92,0,0,0,0,0,0,0,0,0,-1,1714,932,0,0
497,92,0,0,0,0,0,0,0,0,0,-1,1721,932,0,0
504,92,0,0,0,0,0,0,0,0,0,-1,1728,932,0,0
511,92,0,0,0,0,0,0,0,0,0,-1,1735,932,0,0
518,92,0,0,0,0,0,0,0,0,0,-1,1742,932,0,0
525,92,0,0,0,0,0,0,0,0,0,-1,1749,932,0,0
532,92,0,0,0,0,0,0,0,0,0,-1,1756,932,0,0
539,92,0,0,0,0,0,0,0,0,0,-1,1763,932,0,0
546,92,0,0,0,0,0,0,0,0,0,-1,1770,932,0,0
553,92,0,0,0,0,0,0,0,0,0,-1,1777,932,0,0
560,92,0,0,0,0,0,0,0,0,0,-1,1784,932,0,0
567,92,0,0,0,0,0,0,0,0,0,-1,1791,932,0,0
574,92,0,0,0,0,0,0,0,0,0,-1,1798,932,0,0
581,92,0,0,0,0,0,0,0,0,0,-1,1805,932,0,0
588,92,0,0,0,0,0,0,0,0,0,-1,1812,932,0,0
595,92,0,0,0,0,0,0,0,0,0,-1,1819,932,0,0
602,92,0,0,0,0,0,0,0,0,0,-1,1826,932,0,0
609,92,0,0,0,0,0,0,0,0,0,-1,1833,932,0,0
616,92,0,0,0,0,0,0,0,0,0,-1,1840,932,0,0
623,92,0,0,0,0,0,0,0,0,0,-1,1847,932,0,0
630,92,0,0,0,0,0,0,0,0,0,-1,1854,932,0,0
637,92,55.3242,2.45117,0.00666098,0.00544235,0.000223303,0.00670061,0.00540272,0.175641,0.00410344,0.0492529,1861,932,55.3242,-2.45116
644,92,55.4091,2.31873,0.00464752,0.00463141,0.000140625,0.00478032,0.00449861,0.756779,0.00309725,0.0403518,1868,932,55.409,-2.3187
651,92,55.4258,2.49731,0.00289358,0.00407535,0.000296855,0.00414573,0.0028232,1.33802,0.00244525,0.0383939,1875,932,55.4258,-2.49728
658,92,55.1945,2.96436,0.00144067,0.00374862,0.000635041,0.00391182,0.00127748,1.31926,0.00230333,0.0421261,1882,932,55.1944,-2.96435
665,92,54.9777,3.03888,0.00047705,0.00365782,0.00110383,0.00400335,0.000131519,1.26743,0.00262616,0.0438779,1889,932,54.9777,-3.0389
672,92,55.2043,2.69073,-0.00024818,0.00344127,0.00157249,0.00402053,-0.000827446,1.21785,0.00299452,0.0426987,1896,932,55.2043,-2.69073
679,92,55.3584,2.59796,-0.000665402,0.00311519,0.00190769,0.0039105,-0.00146072,1.17581,0.00320679,0.0383896,1903,932,55.3584,-2.59794
686,92,55.2328,2.66205,-0.000731482,0.00277154,0.00194555,0.00363784,-0.00159778,1.15188,0.00309833,0.0297533,1910,932,55.2328,-2.66204
693,92,55.295,2.78906,-0.000924214,0.00223753,0.0018871,0.00311842,-0.00180511,1.13406,0.00287611,0.0286179,1917,932,55.295,-2.78905
700,92,55.3489,2.98627,0,0,0,0,0,0,0,-1,1924,932,55.3489,-2.98626
707,92,32.9893,3.26874,0,0,0,0,0,0,0,-1,1931,932,32.9893,-3.26874
714,92,51.7756,3.96692,0,0,0,0,0,0,0,-1,1938,932,51.7757,-3.96689
721,92,51.6121,4.58276,-0.00177178,0.00263757,0.000625833,0.00272468,-0.00185888,1.4325,0.00266201,0.0349111,1945,932,51.6121,-4.58279
728,92,51.4316,5.09344,-0.00227736,0.00305648,0.000482107,0.0030997,-0.00232059,1.48138,0.00314016,0.0268608,1952,932,51.4317,-5.09347
735,92,51.423,5.56653,-0.00281319,0.00420859,-8.10755e-05,0.00420953,-0.00281412,-1.55925,0.00408169,0.0204994,1959,932,51.423,-5.56654
742,92,51.4642,6.0174,-0.0032438,0.00575432,-0.000893048,0.0058421,-0.00333158,-1.47282,0.00536213,0.019792,1966,932,51.4642,-6.01741
749,92,51.4026,6.50391,-0.00371785,0.00838396,-0.0015608,0.00858202,-0.00391591,-1.44458,0.00738141,0.0182799,1973,932,51.4025,-6.50388
756,92,51.316,6.94617,-0.00421381,0.012351,-0.00182625,0.01255,-0.00441276,-1.46228,0.0101621,0.015692,1980,932,51.3161,-6.94616
763,92,51.3019,7.40533,-0.00456532,0.0173664,-0.0017414,0.0175038,-0.00470273,-1.49205,0.0135123,0.0175957,1987,932,51.3019,-7.40534
770,92,51.2528,7.97314,-0.00472939,0.0232307,-0.00159857,0.0233218,-0.00482049,-1.51387,0.017379,0.026893,1994,932,51.2528,-7.97314
777,92,51.2646,8.49847,-0.00513874,0.0303697,-0.00124766,0.0304135,-0.00518252,-1.53572,0.0222057,0.047852,2001,932,51.2648,-8.49846
784,92,51.3337,8.6521,-0.00507759,0.039114,-0.000818488,0.0391291,-0.00509274,-1.55228,0.0279388,0.0483213,2008,932,51.3337,-8.65207
791,92,51.2981,9.01355,0,0,0,0,0,0,0,-1,2015,932,51.2981,-9.01353
798,92,49.969,10.3243,0,0,0,0,0,0,0,-1,2022,932,49.969,-10.3243
805,92,0,0,0,0,0,0,0,0,0,-1,2029,932,0,0
812,92,0,0,0,0,0,0,0,0,0,-1,2036,932,0,0
-700,85,0,0,0,0,0,0,0,0,0,-1,524,939,0,0
-693,85,0,0,0,0,0,0,0,0,0,-1,531,939,0,0
-686,85,-37.521,5.50629,0,0,0,0,0,0,0,-1,538,939,-37.521,-5.50629
-679,85,-37.6787,5.47034,-0.0400803,0.0766415,0.0121083,0.0778843,-0.0413232,1.46851,0.0698952,0.046852,545,939,-37.6787,-5.47036
-672,85,-37.8058,5.40796,-0.0343021,0.0668098,0.0117415,0.0681554,-0.0356477,1.4567,0.0609024,0.0470007,552,939,-37.8058,-5.40794
-665,85,-37.8376,5.3443,-0.0292272,0.0571414,0.0113341,0.058604,-0.0306898,1.44246,0.0523868,0.0467507,559,939,-37.8376,-5.34427
-658,85,-37.9224,5.16351,0,0,0,0,0,0,0,-1,566,939,-37.9224,-5.16351
-651,85,-38.6371,5.73108,0,0,0,0,0,0,0,-1,573,939,-38.6371,-5.73109
-644,85,-39.1314,5.28143,-0.0166663,0.0314594,0.0094689,0.0332554,-0.0184623,1.38335,0.0302636,0.0364761,580,939,-39.1314,-5.28141
-637,85,-39.1247,5.026,-0.0133126,0.0243152,0.00851164,0.026151,-0.0151484,1.35837,0.0241246,0.0204032,587,939,-39.1247,-5.02602
-630,85,-39.2324,4.61139,-0.0105357,0.0182117,0.00734653,0.0199803,-0.0123044,1.33455,0.0188143,0.0131405,594,939,-39.2324,-4.61139
-623,85,-39.3145,4.19885,-0.00896965,0.012285,0.00623672,0.0139799,-0.0106645,1.30545,0.0142713,0.0106016,601,939,-39.3145,-4.19884
-616,85,-39.3303,3.80658,-0.00776377,0.00777181,0.00450074,0.00898151,-0.00897346,1.30822,0.0103663,0.010736,608,939,-39.3303,-3.80659
-609,85,-39.3668,3.38568,-0.00751779,0.00447183,0.00313112,0.00524028,-0.00828623,1.33013,0.00787526,0.0135699,615,939,-39.3668,-3.38566
-602,85,-39.3459,2.95721,-0.00806785,0.00224717,0.00207292,0.00264816,-0.00846884,1.37972,0.00670525,0.0173252,622,939,-39.346,-2.9572
-595,85,-39.2394,2.53729,-0.00814648,0.00125553,0.00108454,0.00137901,-0.00826996,1.45743,0.00602581,0.0206466,629,939,-39.2394,-2.53732
-588,85,-39.2621,2.13373,-0.00796412,0.000877264,0.000258425,0.000884811,-0.00797167,1.5416,0.00563259,0.0218293,636,939,-39.2621,-2.13375
-581,85,-39.601,1.74548,-0.00785295,0.000552462,-0.000180031,0.000556316,-0.00785681,-1.54939,0.00543281,0.0332283,643,939,-39.601,-1.74551
-574,85,-39.9664,1.12622,0,0,0,0,0,0,0,-1,650,939,-39.9664,-1.12623
-567,85,-41.5392,0.955017,0,0,0,0,0,0,0,-1,657,939,-41.5392,-0.954988
-560,85,-41.5273,0.822266,-0.00671483,0.000471265,-0.000981607,0.000602938,-0.00684651,-1.43745,0.00477802,0.0368797,664,939,-41.5273,-0.822277
-553,85,-41.687,0.69635,-0.00583509,0.000754068,-0.00107225,0.000924164,-0.00600518,-1.41347,0.0043444,0.0426078,671,939,-41.687,-0.696346
-546,85,-41.68,0.69458,-0.00444446,0.00109603,-0.0010336,0.00128257,-0.004631,-1.39224,0.00359201,0.0409693,678,939,-41.68,-0.694571
-539,85,-41.5576,0.857361,-0.00242369,0.00133156,-0.000842132,0.00151176,-0.00260389,-1.35999,0.0024039,0.0373397,685,939,-41.5576,-0.857342
-532,85,-41.6022,0.95636,7.80404e-05,0.00118408,-0.000594836,0.00144326,-0.000181134,-1.15989,0.00102788,0.0377102,692,939,-41.6022,-0.956376
-525,85,-41.6334,0.95166,0.00118104,0.00072471,-0.000694373,0.00168378,0.000221977,-0.626659,0.00105633,0.0360957,699,939,-41.6334,-0.951674
-518,85,-41.5654,1.02753,-0.000336861,0.00134097,-0.00140872,0.00214165,-0.00113754,-1.05396,0.0019226,0.0334815,706,939,-41.5654,-1.02754
-511,85,0,0,0,0,0,0,0,0,0,-1,713,939,0,0
-504,85,0,0,0,0,0,0,0,0,0,-1,720,939,0,0
-497,85,0,0,0,0,0,0,0,0,0,-1,727,939,0,0
-490,85,0,0,0,0,0,0,0,0,0,-1,734,939,0,0
-483,85,0,0,0,0,0,0,0,0,0,-1,741,939,0,0
-476,85,0,0,0,0,0,0,0,0,0,-1,748,939,0,0
-469,85,0,0,0,0,0,0,0,0,0,-1,755,939,0,0
-462,85,0,0,0,0,0,0,0,0,0,-1,762,939,0,0
-455,85,0,0,0,0,0,0,0,0,0,-1,769,939,0,0
-448,85,0,0,0,0,0,0,0,0,0,-1,776,939,0,0
-441,85,0,0,0,0,0,0,0,0,0,-1,783,939,0,0
-434,85,0,0,0,0,0,0,0,0,0,-1,790,939,0,0
-427,85,0,0,0,0,0,0,0,0,0,-1,797,939,0,0
-420,85,0,0,0,0,0,0,0,0,0,-1,804,939,0,0
-413,85,0,0,0,0,0,0,0,0,0,-1,811,939,0,0
-406,85,0,0,0,0,0,0,0,0,0,-1,818,939,0,0
-399,85,0,0,0,0,0,0,0,0,0,-1,825,939,0,0
-392,85,0,0,0,0,0,0,0,0,0,-1,832,939,0,0
-385,85,0,0,0,0,0,0,0,0,0,-1,839,939,0,0
-378,85,0,0,0,0,0,0,0,0,0,-1,846,939,0,0
-371,85,0,0,0,0,0,0,0,0,0,-1,853,939,0,0
-364,85,0,0,0,0,0,0,0,0,0,-1,860,939,0,0
-357,85,0,0,0,0,0,0,0,0,0,-1,867,939,0,0
-350,85,0,0,0,0,0,0,0,0,0,-1,874,939,0,0
-343,85,0,0,0,0,0,0,0,0,0,-1,881,939,0,0
-336,85,0,0,0,0,0,0,0,0,0,-1,888,939,0,0
-329,85,0,0,0,0,0,0,0,0,0,-1,895,939,0,0
-322,85,0,0,0,0,0,0,0,0,0,-1,902,939,0,0
-315,85,0,0,0,0,0,0,0,0,0,-1,909,939,0,0
-308,85,0,0,0,0,0,0,0,0,0,-1,916,939,0,0
-301,85,0,0,0,0,0,0,0,0,0,-1,923,939,0,0
-294,85,0,0,0,0,0,0,0,0,0,-1,930,939,0,0
-287,85,0,0,0,0,0,0,0,0,0,-1,937,939,0,0
-280,85,0,0,0,0,0,0,0,0,0,-1,944,939,0,0
-273,85,0,0,0,0,0,0,0,0,0,-1,951,939,0,0
-266,85,0,0,0,0,0,0,0,0,0,-1,958,939,0,0
-259,85,0,0,0,0,0,0,0,0,0,-1,965,939,0,0
-252,85,0,0,0,0,0,0,0,0,0,-1,972,939,0,0
-245,85,0,0,0,0,0,0,0,0,0,-1,979,939,0,0
-238,85,0,0,0,0,0,0,0,0,0,-1,986,939,0,0
-231,85,0,0,0,0,0,0,0,0,0,-1,993,939,0,0
-224,85,0,0,0,0,0,0,0,0,0,-1,1000,939,0,0
-217,85,0,0,0,0,0,0,0,0,0,-1,1007,939,0,0
-210,85,0,0,0,0,0,0,0,0,0,-1,1014,939,0,0
-203,85,0,0,0,0,0,0,0,0,0,-1,1021,939,0,0
-196,85,0,0,0,0,0,0,0,0,0,-1,1028,939,0,0
-189,85,0,0,0,0,0,0,0,0,0,-1,1035,939,0,0
-182,85,0,0,0,0,0,0,0,0,0,-1,1042,939,0,0
-175,85,0,0,0,0,0,0,0,0,0,-1,1049,939,0,0
-168,85,0,0,0,0,0,0,0,0,0,-1,1056,939,0,0
-161,85,0,0,0,0,0,0,0,0,0,-1,1063,939,0,0
-154,85,0,0,0,0,0,0,0,0,0,-1,1070,939,0,0
-147,85,0,0,0,0,0,0,0,0,0,-1,1077,939,0,0
-140,85,0,0,0,0,0,0,0,0,0,-1,1084,939,0,0
-133,85,0,0,0,0,0,0,0,0,0,-1,1091,939,0,0
-126,85,0,0,0,0,0,0,0,0,0,-1,1098,939,0,0
-119,85,0,0,0,0,0,0,0,0,0,-1,1105,939,0,0
-112,85,0,0,0,0,0,0,0,0,0,-1,1112,939,0,0
-105,85,0,0,0,0,0,0,0,0,0,-1,1119,939,0,0
-98,85,0,0,0,0,0,0,0,0,0,-1,1126,939,0,0
-91,85,0,0,0,0,0,0,0,0,0,-1,1133,939,0,0
-84,85,0,0,0,0,0,0,0,0,0,-1,1140,939,0,0
-77,85,0,0,0,0,0,0,0,0,0,-1,1147,939,0,0
-70,85,0,0,0,0,0,0,0,0,0,-1,1154,939,0,0
-63,85,0,0,0,0,0,0,0,0,0,-1,1161,939,0,0
-56,85,0,0,0,0,0,0,0,0,0,-1,1168,939,0,0
-49,85,0,0,0,0,0,0,0,0,0,-1,1175,939,0,0
-42,85,0,0,0,0,0,0,0,0,0,-1,1182,939,0,0
-35,85,0,0,0,0,0,0,0,0,0,-1,1189,939,0,0
-28,85,0,0,0,0,0,0,0,0,0,-1,1196,939,0,0
-21,85,0,0,0,0,0,0,0,0,0,-1,1203,939,0,0
-14,85,0,0,0,0,0,0,0,0,0,-1,1210,939,0,0
-7,85,0,0,0,0,0,0,0,0,0,-1,1217,939,0,0
0,85,0,0,0,0,0,0,0,0,0,-1,1224,939,0,0
7,85,0,0,0,0,0,0,0,0,0,-1,1231,939,0,0
14,85,0,0,0,0,0,0,0,0,0,-1,1238,939,0,0
21,85,0,0,0,0,0,0,0,0,0,-1,1245,939,0,0
28,85,0,0,0,0,0,0,0,0,0,-1,1252,939,0,0
35,85,0,0,0,0,0,0,0,0,0,-1,1259,939,0,0
42,85,0,0,0,0,0,0,0,0,0,-1,1266,939,0,0
49,85,0,0,0,0,0,0,0,0,0,-1,1273,939,0,0
56,85,0,0,0,0,0,0,0,0,0,-1,1280,939,0,0
63,85,0,0,0,0,0,0,0,0,0,-1,1287,939,0,0
70,85,0,0,0,0,0,0,0,0,0,-1,1294,939,0,0
77,85,0,0,0,0,0,0,0,0,0,-1,1301,939,0,0
84,85,0,0,0,0,0,0,0,0,0,-1,1308,939,0,0
91,85,0,0,0,0,0,0,0,0,0,-1,1315,939,0,0
98,85,0,0,0,0,0,0,0,0,0,-1,1322,939,0,0
105,85,0,0,0,0,0,0,0,0,0,-1,1329,939,0,0
112,85,0,0,0,0,0,0,0,0,0,-1,1336,939,0,0
119,85,0,0,0,0,0,0,0,0,0,-1,1343,939,0,0
126,85,0,0,0,0,0,0,0,0,0,-1,1350,939,0,0
133,85,0,0,0,0,0,0,0,0,0,-1,1357,939,0,0
140,85,0,0,0,0,0,0,0,0,0,-1,1364,939,0,0
147,85,0,0,0,0,0,0,0,0,0,-1,1371,939,0,0
154,85,0,0,0,0,0,0,0,0,0,-1,1378,939,0,0
161,85,0,0,0,0,0,0,0,0,0,-1,1385,939,0,0
168,85,0,0,0,0,0,0,0,0,0,-1,1392,939,0,0
175,85,0,0,0,0,0,0,0,0,0,-1,1399,939,0,0
182,85,0,0,0,0,0,0,0,0,0,-1,1406,939,0,0
189,85,0,0,0,0,0,0,0,0,0,-1,1413,939,0,0
196,85,0,0,0,0,0,0,0,0,0,-1,1420,939,0,0
203,85,0,0,0,0,0,0,0,0,0,-1,1427,939,0,0
210,85,0,0,0,0,0,0,0,0,0,-1,1434,939,0,0
217,85,0,0,0,0,0,0,0,0,0,-1,1441,939,0,0
224,85,0,0,0,0,0,0,0,0,0,-1,1448,939,0,0
231,85,0,0,0,0,0,0,0,0,0,-1,1455,939,0,0
238,85,0,0,0,0,0,0,0,0,0,-1,1462,939,0,0
245,85,0,0,0,0,0,0,0,0,0,-1,1469,939,0,0
252,85,0,0,0,0,0,0,0,0,0,-1,1476,939,0,0
259,85,0,0,0,0,0,0,0,0,0,-1,1483,939,0,0
266,85,0,0,0,0,0,0,0,0,0,-1,1490,939,0,0
273,85,0,0,0,0,0,0,0,0,0,-1,1497,939,0,0
280,85,0,0,0,0,0,0,0,0,0,-1,1504,939,0,0
287,85,0,0,0,0,0,0,0,0,0,-1,1511,939,0,0
294,85,0,0,0,0,0,0,0,0,0,-1,1518,939,0,0
301,85,0,0,0,0,0,0,0,0,0,-1,1525,939,0,0
308,85,0,0,0,0,0,0,0,0,0,-1,1532,939,0,0
315,85,0,0,0,0,0,0,0,0,0,-1,1539,939,0,0
322,85,0,0,0,0,0,0,0,0,0,-1,1546,939,0,0
329,85,0,0,0,0,0,0,0,0,0,-1,1553,939,0,0
336,85,0,0,0,0,0,0,0,0,0,-1,1560,939,0,0
343,85,0,0,0,0,0,0,0,0,0,-1,1567,939,0,0
350,85,0,0,0,0,0,0,0,0,0,-1,1574,939,0,0
357,85,0,0,0,0,0,0,0,0,0,-1,1581,939,0,0
364,85,0,0,0,0,0,0,0,0,0,-1,1588,939,0,0
371,85,0,0,0,0,0,0,0,0,0,-1,1595,939,0,0
378,85,0,0,0,0,0,0,0,0,0,-1,1602,939,0,0
385,85,0,0,0,0,0,0,0,0,0,-1,1609,939,0,0
392,85,0,0,0,0,0,0,0,0,0,-1,1616,939,0,0
399,85,0,0,0,0,0,0,0,0,0,-1,1623,939,0,0
406,85,0,0,0,0,0,0,0,0,0,-1,1630,939,0,0
413,85,0,0,0,0,0,0,0,0,0,-1,1637,939,0,0
420,85,0,0,0,0,0,0,0,0,0,-1,1644,939,0,0
427,85,0,0,0,0,0,0,0,0,0,-1,1651,939,0,0
434,85,0,0,0,0,0,0,0,0,0,-1,1658,939,0,0
441,85,0,0,0,0,0,0,0,0,0,-1,1665,939,0,0
448,85,0,0,0,0,0,0,0,0,0,-1,1672,939,0,0
455,85,0,0,0,0,0,0,0,0,0,-1,1679,939,0,0
462,85,0,0,0,0,0,0,0,0,0,-1,1686,939,0,0
469,85,0,0,0,0,0,0,0,0,0,-1,1693,939,0,0
476,85,0,0,0,0,0,0,0,0,0,-1,1700,939,0,0
483,85,0,0,0,0,0,0,0,0,0,-1,1707,939,0,0
490,85,0,0,0,0,0,0,0,0,0,-1,1714,939,0,0
497,85,0,0,0,0,0,0,0,0,0,-1,1721,939,0,0
504,85,0,0,0,0,0,0,0,0,0,-1,1728,939,0,0
511,85,0,0,0,0,0,0,0,0,0,-1,1735,939,0,0
518,85,0,0,0,0,0,0,0,0,0,-1,1742,939,0,0
525,85,0,0,0,0,0,0,0,0,0,-1,1749,939,0,0
532,85,0,0,0,0,0,0,0,0,0,-1,1756,939,0,0
539,85,0,0,0,0,0,0,0,0,0,-1,1763,939,0,0
546,85,0,0,0,0,0,0,0,0,0,-1,1770,939,0,0
553,85,0,0,0,0,0,0,0,0,0,-1,1777,939,0,0
560,85,0,0,0,0,0,0,0,0,0,-1,1784,939,0,0
567,85,0,0,0,0,0,0,0,0,0,-1,1791,939,0,0
574,85,0,0,0,0,0,0,0,0,0,-1,1798,939,0,0
581,85,0,0,0,0,0,0,0,0,0,-1,1805,939,0,0
588,85,0,0,0,0,0,0,0,0,0,-1,1812,939,0,0
595,85,0,0,0,0,0,0,0,0,0,-1,1819,939,0,0
602,85,0,0,0,0,0,0,0,0,0,-1,1826,939,0,0
609,85,0,0,0,0,0,0,0,0,0,-1,1833,939,0,0
616,85,0,0,0,0,0,0,0,0,0,-1,1840,939,0,0
623,85,0,0,0,0,0,0,0,0,0,-1,1847,939,0,0
630,85,0,0,0,0,0,0,0,0,0,-1,1854,939,0,0
637,85,55.1592,2.55585,0,0,0,0,0,0,0,-1,1861,939,55.1591,-2.55587
644,85,55.3529,2.46271,0.00507199,0.00460754,0.000504193,0.00539487,0.00428466,0.569588,0.00328956,0.0410301,1868,939,55.3529,-2.46271
651,85,55.4547,2.50214,0.00328955,0.00380212,0.000562346,0.00416383,0.00292784,0.999206,0.00246925,0.0390669,1875,939,55.4547,-2.50212
658,85,55.2767,2.91699,0.00182153,0.00338399,0.000830038,0.00374262,0.0014629,1.16296,0.00217789,0.0399931,1882,939,55.2767,-2.91696
665,85,54.9648,2.83075,0.000771517,0.00325094,0.00127698,0.00379099,0.000231467,1.17069,0.00245381,0.0430247,1889,939,54.9649,-2.83073
672,85,55.1322,2.62225,-9.99827e-05,0.00304138,0.00177582,0.00384147,-0.000900078,1.14749,0.00290782,0.0429901,1896,939,55.1322,-2.62226
679,85,55.1907,2.54016,-0.000661048,0.00268726,0.00217143,0.00375499,-0.00172877,1.1138,0.00323729,0.0383373,1903,939,55.1906,-2.54017
686,85,55.1603,2.66425,-0.000824509,0.0023201,0.00225493,0.00349676,-0.00200118,1.08985,0.00321315,0.0325732,1910,939,55.1603,-2.66426
693,85,55.2186,2.77533,-0.00107314,0.00178616,0.00221239,0.00299063,-0.00227761,1.07225,0.00305089,0.0297345,1917,939,55.2186,-2.77535
700,85,55.2668,2.87836,-0.00171294,0.00166361,0.00197666,0.00257485,-0.00262418,1.13883,0.0030017,0.0441461,1924,939,55.2669,-2.87839
707,85,55.3617,2.98138,0,0,0,0,0,0,0,-1,1931,939,55.3617,-2.98136
714,85,52.2484,4.09924,0,0,0,0,0,0,0,-1,1938,939,52.2484,-4.09923
721,85,52.0782,4.64648,-0.00224948,0.00226898,0.000847478,0.0024227,-0.0024032,1.39136,0.00278624,0.0323872,1945,939,52.0782,-4.64646
728,85,51.9064,5.23627,-0.0028046,0.00280259,0.000681944,0.00288433,-0.00288635,1.45149,0.0033317,0.0301878,1952,939,51.9064,-5.23627
735,85,51.929,5.60773,-0.00337154,0.00413004,0.000115739,0.00413182,-0.00337333,1.55537,0.00434047,0.0284757,1959,939,51.9289,-5.60771
742,85,52.0055,6.0434,-0.00379435,0.00573777,-0.000706418,0.00578984,-0.00384642,-1.49722,0.00560109,0.0194026,1966,939,52.0055,-6.04338
749,85,51.9377,6.49554,-0.00426726,0.00840412,-0.00145319,0.00856864,-0.00443178,-1.45806,0.00763142,0.0153358,1973,939,51.9377,-6.49555
756,85,51.814,6.90717,-0.00481224,0.0124566,-0.00180648,0.0126436,-0.00499919,-1.46767,0.0104999,0.014601,1980,939,51.814,-6.90714
763,85,51.7716,7.3454,-0.00525975,0.0176756,-0.0017422,0.0178072,-0.00539133,-1.49541,0.0140185,0.0144819,1987,939,51.7716,-7.34537
770,85,51.7285,7.79907,-0.00556241,0.0237253,-0.00149876,0.0238018,-0.00563891,-1.5198,0.0180437,0.0206205,1994,939,51.7286,-7.79908
777,85,51.6567,8.30457,-0.00611518,0.0309414,-0.00101922,0.0309694,-0.00614319,-1.54332,0.0229695,0.0422133,2001,939,51.6567,-8.30458
784,85,51.7471,8.68243,-0.00624139,0.0396841,-0.000300126,0.0396861,-0.00624335,-1.56426,0.0287653,0.0491583,2008,939,51.7471,-8.68244
791,85,51.6248,9.17236,0,0,0,0,0,0,0,-1,2015,939,51.6247,-9.17236
798,85,50.0857,8.06873,0,0,0,0,0,0,0,-1,2022,939,50.0858,-8.06875
805,85,49.3545,7.11475,0,0,0,0,0,0,0,-1,2029,939,49.3545,-7.11474
812,85,0,0,0,0,0,0,0,0,0,-1,2036,939,0,0
-700,78,0,0,0,0,0,0,0,0,0,-1,524,946,0,0
-693,78,0,0,0,0,0,0,0,0,0,-1,531,946,0,0
-686,78,-37.4829,4.86829,-0.0340552,0.0776052,0.0109118,0.0786615,-0.0351115,1.47429,0.0672719,0.0436066,538,946,-37.4829,-4.86831
-679,78,-37.9412,4.72375,-0.0305672,0.068726,0.011028,0.0699361,-0.0317773,1.46151,0.060086,0.0484634,545,946,-37.9412,-4.72373
-672,78,-38.2719,4.83386,-0.0271166,0.0598778,0.0109266,0.0612292,-0.028468,1.44774,0.0529256,0.0479129,552,946,-38.2719,-4.83384
-665,78,-39.0291,4.19061,0,0,0,0,0,0,0,-1,559,946,-39.0291,-4.19062
-658,78,-38.7283,6.16174,0,0,0,0,0,0,0,-1,566,946,-38.7283,-6.16176
-651,78,-39.0297,5.74078,-0.0174656,0.0357725,0.00984376,0.0375343,-0.0192274,1.39369,0.0333347,0.0486573,573,946,-39.0297,-5.74077
-644,78,-39.331,5.30267,-0.0145201,0.0288582,0.00919078,0.0307252,-0.0163871,1.37039,0.027617,0.0299781,580,946,-39.331,-5.30266
-637,78,-39.579,4.91266,-0.0119064,0.0224118,0.00835556,0.0243381,-0.0138327,1.34422,0.0223144,0.0184595,587,946,-39.579,-4.91266
-630,78,-39.7142,4.52313,-0.00972011,0.016864,0.00718447,0.0186814,-0.0115375,1.32303,0.0176086,0.0169812,594,946,-39.7143,-4.52311
-623,78,-39.7654,4.12555,-0.00884411,0.0114391,0.00619076,0.0131793,-0.0105843,1.29677,0.0137472,0.014454,601,946,-39.7654,-4.12557
-616,78,-39.7834,3.75629,-0.00788341,0.00756331,0.00439607,0.00872678,-0.00904688,1.31207,0.0102622,0.013104,608,946,-39.7834,-3.75628
-609,78,-39.7676,3.40186,-0.00764454,0.00464035,0.0029741,0.00532248,-0.00832668,1.34534,0.00794372,0.0125255,615,946,-39.7676,-3.40184
-602,78,-39.7644,2.99243,-0.00812562,0.0025374,0.00188271,0.00286006,-0.00844828,1.40107,0.0067894,0.0164425,622,946,-39.7644,-2.99241
-595,78,-39.6871,2.55481,-0.00817613,0.00140005,0.000843767,0.00147383,-0.00824991,1.48358,0.00605134,0.0166203,629,946,-39.6871,-2.5548
-588,78,-39.6781,2.22791,-0.00805201,0.000886627,3.59355e-05,0.000886771,-0.00805215,1.56678,0.00568679,0.0143907,636,946,-39.6781,-2.22791
-581,78,-39.8546,1.90509,-0.0080191,0.00049756,-0.00042512,0.000518728,-0.00804026,-1.52104,0.00554118,0.0340713,643,946,-39.8546,-1.90507
-574,78,-40.6751,1.38177,-0.0078133,0.00031291,-0.000838177,0.000398463,-0.00789885,-1.46908,0.00540362,0.044544,650,946,-40.6751,-1.38174
-567,78,-41.5648,0.936279,0,0,0,0,0,0,0,-1,657,946,-41.5647,-0.93628
-560,78,-41.5958,0.804199,-0.00691127,0.000525936,-0.0012911,0.000743695,-0.00712903,-1.40371,0.00501898,0.0344726,664,946,-41.5958,-0.804215
-553,78,-41.6345,0.857056,-0.00586845,0.000859405,-0.00135221,0.00112101,-0.00613005,-1.37969,0.00450708,0.0435372,671,946,-41.6345,-0.857029
-546,78,-41.6276,1.021,-0.00422202,0.00120889,-0.00127678,0.00149408,-0.00450721,-1.35104,0.00360748,0.0409849,678,946,-41.6276,-1.02102
-539,78,-41.4354,1.20062,-0.00189299,0.00136271,-0.00105713,0.00167584,-0.00220612,-1.28282,0.00224821,0.0365523,685,946,-41.4354,-1.2006
-532,78,-41.3271,0.936646,0.000879535,0.00103184,-0.000875007,0.001834,7.73749e-05,-0.828805,0.00119771,0.0384334,692,946,-41.3271,-0.936662
-525,78,-41.3399,0.917175,0.00189486,0.000348437,-0.00119771,0.00254726,-0.000303966,-0.49877,0.00180803,0.0386781,699,946,-41.3399,-0.917195
-518,78,-41.4434,1.1004,-1.0678e-05,0.000873596,-0.00231233,0.00278568,-0.00192277,-0.879862,0.0027336,0.0390959,706,946,-41.4434,-1.1004
-511,78,0,0,0,0,0,0,0,0,0,-1,713,946,0,0
-504,78,0,0,0,0,0,0,0,0,0,-1,720,946,0,0
-497,78,0,0,0,0,0,0,0,0,0,-1,727,946,0,0
-490,78,0,0,0,0,0,0,0,0,0,-1,734,946,0,0
-483,78,0,0,0,0,0,0,0,0,0,-1,741,946,0,0
-476,78,0,0,0,0,0,0,0,0,0,-1,748,946,0,0
-469,78,0,0,0,0,0,0,0,0,0,-1,755,946,0,0
-462,78,0,0,0,0,0,0,0,0,0,-1,762,946,0,0
-455,78,0,0,0,0,0,0,0,0,0,-1,769,946,0,0
-448,78,0,0,0,0,0,0,0,0,0,-1,776,946,0,0
-441,78,0,0,0,0,0,0,0,0,0,-1,783,946,0,0
-434,78,0,0,0,0,0,0,0,0,0,-1,790,946,0,0
-427,78,0,0,0,0,0,0,0,0,0,-1,797,946,0,0
-420,78,0,0,0,0,0,0,0,0,0,-1,804,946,0,0
-413,78,0,0,0,0,0,0,0,0,0,-1,811,946,0,0
-406,78,0,0,0,0,0,0,0,0,0,-1,818,946,0,0
-399,78,0,0,0,0,0,0,0,0,0,-1,825,946,0,0
-392,78,0,0,0,0,0,0,0,0,0,-1,832,946,0,0
-385,78,0,0,0,0,0,0,0,0,0,-1,839,946,0,0
-378,78,0,0,0,0,0,0,0,0,0,-1,846,946,0,0
-371,78,0,0,0,0,0,0,0,0,0,-1,853,946,0,0
-364,78,0,0,0,0,0,0,0,0,0,-1,860,946,0,0
-357,78,0,0,0,0,0,0,0,0,0,-1,867,946,0,0
-350,78,0,0,0,0,0,0,0,0,0,-1,874,946,0,0
-343,78,0,0,0,0,0,0,0,0,0,-1,881,946,0,0
-336,78,0,0,0,0,0,0,0,0,0,-1,888,946,0,0
-329,78,0,0,0,0,0,0,0,0,0,-1,895,946,0,0
-322,78,0,0,0,0,0,0,0,0,0,-1,902,946,0,0
-315,78,0,0,0,0,0,0,0,0,0,-1,909,946,0,0
-308,78,0,0,0,0,0,0,0,0,0,-1,916,946,0,0
-301,78,0,0,0,0,0,0,0,0,0,-1,923,946,0,0
-294,78,0,0,0,0,0,0,0,0,0,-1,930,946,0,0
-287,78,0,0,0,0,0,0,0,0,0,-1,937,946,0,0
-280,78,0,0,0,0,0,0,0,0,0,-1,944,946,0,0
-273,78,0,0,0,0,0,0,0,0,0,-1,951,946,0,0
-266,78,0,0,0,0,0,0,0,0,0,-1,958,946,0,0
-259,78,0,0,0,0,0,0,0,0,0,-1,965,946,0,0
-252,78,0,0,0,0,0,0,0,0,0,-1,972,946,0,0
-245,78,0,0,0,0,0,0,0,0,0,-1,979,946,0,0
-238,78,0,0,0,0,0,0,0,0,0,-1,986,946,0,0
-231,78,0,0,0,0,0,0,0,0,0,-1,993,946,0,0
-224,78,0,0,0,0,0,0,0,0,0,-1,1000,946,0,0
-217,78,0,0,0,0,0,0,0,0,0,-1,1007,946,0,0
-210,78,0,0,0,0,0,0,0,0,0,-1,1014,946,0,0
-203,78,0,0,0,0,0,0,0,0,0,-1,1021,946,0,0
-196,78,0,0,0,0,0,0,0,0,0,-1,1028,946,0,0
-189,78,0,0,0,0,0,0,0,0,0,-1,1035,946,0,0
-182,78,0,0,0,0,0,0,0,0,0,-1,1042,946,0,0
-175,78,0,0,0,0,0,0,0,0,0,-1,1049,946,0,0
-168,78,0,0,0,0,0,0,0,0,0,-1,1056,946,0,0
-161,78,0,0,0,0,0,0,0,0,0,-1,1063,946,0,0
-154,78,0,0,0,0,0,0,0,0,0,-1,1070,946,0,0
-147,78,0,0,0,0,0,0,0,0,0,-1,1077,946,0,0
-140,78,0,0,0,0,0,0,0,0,0,-1,1084,946,0,0
-133,78,0,0,0,0,0,0,0,0,0,-1,1091,946,0,0
-126,78,0,0,0,0,0,0,0,0,0,-1,1098,946,0,0
-119,78,0,0,0,0,0,0,0,0,0,-1,1105,946,0,0
-112,78,0,0,0,0,0,0,0,0,0,-1,1112,946,0,0
-105,78,0,0,0,0,0,0,0,0,0,-1,1119,946,0,0
-98,78,0,0,0,0,0,0,0,0,0,-1,1126,946,0,0
-91,78,0,0,0,0,0,0,0,0,0,-1,1133,946,0,0
-84,78,0,0,0,0,0,0,0,0,0,-1,1140,946,0,0
-77,78,0,0,0,0,0,0,0,0,0,-1,1147,946,0,0
-70,78,0,0,0,0,0,0,0,0,0,-1,1154,946,0,0
-63,78,0,0,0,0,0,0,0,0,0,-1,1161,946,0,0
-56,78,0,0,0,0,0,0,0,0,0,-1,1168,946,0,0
-49,78,0,0,0,0,0,0,0,0,0,-1,1175,946,0,0
-42,78,0,0,0,0,0,0,0,0,0,-1,1182,946,0,0
-35,78,0,0,0,0,0,0,0,0,0,-1,1189,946,0,0
-28,78,0,0,0,0,0,0,0,0,0,-1,1196,946,0,0
-21,78,0,0,0,0,0,0,0,0,0,-1,1203,946,0,0
-14,78,0,0,0,0,0,0,0,0,0,-1,1210,946,0,0
-7,78,0,0,0,0,0,0,0,0,0,-1,1217,946,0,0
0,78,0,0,0,0,0,0,0,0,0,-1,1224,946,0,0
7,78,0,0,0,0,0,0,0,0,0,-1,1231,946,0,0
14,78,0,0,0,0,0,0,0,0,0,-1,1238,946,0,0
21,78,0,0,0,0,0,0,0,0,0,-1,1245,946,0,0
28,78,0,0,0,0,0,0,0,0,0,-1,1252,946,0,0
35,78,0,0,0,0,0,0,0,0,0,-1,1259,946,0,0
42,78,0,0,0,0,0,0,0,0,0,-1,1266,946,0,0
49,78,0,0,0,0,0,0,0,0,0,-1,1273,946,0,0
56,78,0,0,0,0,0,0,0,0,0,-1,1280,946,0,0
63,78,0,0,0,0,0,0,0,0,0,-1,1287,946,0,0
70,78,0,0,0,0,0,0,0,0,0,-1,1294,946,0,0
77,78,0,0,0,0,0,0,0,0,0,-1,1301,946,0,0
84,78,0,0,0,0,0,0,0,0,0,-1,1308,946,0,0
91,78,0,0,0,0,0,0,0,0,0,-1,1315,946,0,0
98,78,0,0,0,0,0,0,0,0,0,-1,1322,946,0,0
105,78,0,0,0,0,0,0,0,0,0,-1,1329,946,0,0
112,78,0,0,0,0,0,0,0,0,0,-1,1336,946,0,0
119,78,0,0,0,0,0,0,0,0,0,-1,1343,946,0,0
126,78,0,0,0,0,0,0,0,0,0,-1,1350,946,0,0
133,78,0,0,0,0,0,0,0,0,0,-1,1357,946,0,0
140,78,0,0,0,0,0,0,0,0,0,-1,1364,946,0,0
147,78,0,0,0,0,0,0,0,0,0,-1,1371,946,0,0
154,78,0,0,0,0,0,0,0,0,0,-1,1378,946,0,0
161,78,0,0,0,0,0,0,0,0,0,-1,1385,946,0,0
168,78,0,0,0,0,0,0,0,0,0,-1,1392,946,0,0
175,78,0,0,0,0,0,0,0,0,0,-1,1399,946,0,0
182,78,0,0,0,0,0,0,0,0,0,-1,1406,946,0,0
189,78,0,0,0,0,0,0,0,0,0,-1,1413,946,0,0
196,78,0,0,0,0,0,0,0,0,0,-1,1420,946,0,0
203,78,0,0,0,0,0,0,0,0,0,-1,1427,946,0,0
210,78,0,0,0,0,0,0,0,0,0,-1,1434,946,0,0
217,78,0,0,0,0,0,0,0,0,0,-1,1441,946,0,0
224,78,0,0,0,0,0,0,0,0,0,-1,1448,946,0,0
231,78,0,0,0,0,0,0,0,0,0,-1,1455,946,0,0
238,78,0,0,0,0,0,0,0,0,0,-1,1462,946,0,0
245,78,0,0,0,0,0,0,0,0,0,-1,1469,946,0,0
252,78,0,0,0,0,0,0,0,0,0,-1,1476,946,0,0
259,78,0,0,0,0,0,0,0,0,0,-1,1483,946,0,0
266,78,0,0,0,0,0,0,0,0,0,-1,1490,946,0,0
273,78,0,0,0,0,0,0,0,0,0,-1,1497,946,0,0
280,78,0,0,0,0,0,0,0,0,0,-1,1504,946,0,0
287,78,0,0,0,0,0,0,0,0,0,-1,1511,946,0,0
294,78,0,0,0,0,0,0,0,0,0,-1,1518,946,0,0
301,78,0,0,0,0,0,0,0,0,0,-1,1525,946,0,0
308,78,0,0,0,0,0,0,0,0,0,-1,1532,946,0,0
315,78,0,0,0,0,0,0,0,0,0,-1,1539,946,0,0
322,78,0,0,0,0,0,0,0,0,0,-1,1546,946,0,0
329,78,0,0,0,0,0,0,0,0,0,-1,1553,946,0,0
336,78,0,0,0,0,0,0,0,0,0,-1,1560,946,0,0
343,78,0,0,0,0,0,0,0,0,0,-1,1567,946,0,0
350,78,0,0,0,0,0,0,0,0,0,-1,1574,946,0,0
357,78,0,0,0,0,0,0,0,0,0,-1,1581,946,0,0
364,78,0,0,0,0,0,0,0,0,0,-1,1588,946,0,0
371,78,0,0,0,0,0,0,0,0,0,-1,1595,946,0,0
378,78,0,0,0,0,0,0,0,0,0,-1,1602,946,0,0
385,78,0,0,0,0,0,0,0,0,0,-1,1609,946,0,0
392,78,0,0,0,0,0,0,0,0,0,-1,1616,946,0,0
399,78,0,0,0,0,0,0,0,0,0,-1,1623,946,0,0
406,78,0,0,0,0,0,0,0,0,0,-1,1630,946,0,0
413,78,0,0,0,0,0,0,0,0,0,-1,1637,946,0,0
420,78,0,0,0,0,0,0,0,0,0,-1,1644,946,0,0
427,78,0,0,0,0,0,0,0,0,0,-1,1651,946,0,0
434,78,0,0,0,0,0,0,0,0,0,-1,1658,946,0,0
441,78,0,0,0,0,0,0,0,0,0,-1,1665,946,0,0
448,78,0,0,0,0,0,0,0,0,0,-1,1672,946,0,0
455,78,0,0,0,0,0,0,0,0,0,-1,1679,946,0,0
462,78,0,0,0,0,0,0,0,0,0,-1,1686,946,0,0
469,78,0,0,0,0,0,0,0,0,0,-1,1693,946,0,0
476,78,0,0,0,0,0,0,0,0,0,-1,1700,946,0,0
483,78,0,0,0,0,0,0,0,0,0,-1,1707,946,0,0
490,78,0,0,0,0,0,0,0,0,0,-1,1714,946,0,0
497,78,0,0,0,0,0,0,0,0,0,-1,1721,946,0,0
504,78,0,0,0,0,0,0,0,0,0,-1,1728,946,0,0
511,78,0,0,0,0,0,0,0,0,0,-1,1735,946,0,0
518,78,0,0,0,0,0,0,0,0,0,-1,1742,946,0,0
525,78,0,0,0,0,0,0,0,0,0,-1,1749,946,0,0
532,78,0,0,0,0,0,0,0,0,0,-1,1756,946,0,0
539,78,0,0,0,0,0,0,0,0,0,-1,1763,946,0,0
546,78,0,0,0,0,0,0,0,0,0,-1,1770,946,0,0
553,78,0,0,0,0,0,0,0,0,0,-1,1777,946,0,0
560,78,0,0,0,0,0,0,0,0,0,-1,1784,946,0,0
567,78,0,0,0,0,0,0,0,0,0,-1,1791,946,0,0
574,78,0,0,0,0,0,0,0,0,0,-1,1798,946,0,0
581,78,0,0,0,0,0,0,0,0,0,-1,1805,946,0,0
588,78,0,0,0,0,0,0,0,0,0,-1,1812,946,0,0
595,78,0,0,0,0,0,0,0,0,0,-1,1819,946,0,0
602,78,0,0,0,0,0,0,0,0,0,-1,1826,946,0,0
609,78,0,0,0,0,0,0,0,0,0,-1,1833,946,0,0
616,78,0,0,0,0,0,0,0,0,0,-1,1840,946,0,0
623,78,0,0,0,0,0,0,0,0,0,-1,1847,946,0,0
630,78,0,0,0,0,0,0,0,0,0,-1,1854,946,0,0
637,78,55.2158,2.58838,0.0076114,0.00609321,0.0017227,0.00873484,0.00496977,0.577875,0.00505902,0.046032,1861,946,55.2158,-2.58837
644,78,55.2915,2.44116,0.0054585,0.0043391,0.00116777,0.00619377,0.00360383,0.561927,0.00359191,0.0421863,1868,946,55.2915,-2.44118
651,78,55.4753,2.52747,0.00362941,0.00330634,0.000979205,0.00446031,0.00247544,0.703653,0.00258035,0.0389204,1875,946,55.4753,-2.52744
658,78,55.3691,2.70319,0.00214432,0.00280738,0.00108661,0.00361191,0.00133979,0.933464,0.00210837,0.0365832,1882,946,55.3692,-2.70318
665,78,55.1737,2.67017,0.00101389,0.00269243,0.001464,0.00354066,0.000165656,1.04566,0.0023072,0.0414881,1889,946,55.1737,-2.67019
672,78,55.2323,2.56262,6.28422e-06,0.0025697,0.00196905,0.00363744,-0.00106146,1.07391,0.00284556,0.0417096,1896,946,55.2323,-2.56262
679,78,55.2534,2.52563,-0.000693011,0.00229165,0.00241567,0.00363878,-0.00204014,1.06209,0.00332175,0.0380643,1903,946,55.2534,-2.52561
686,78,55.2886,2.54388,-0.000961814,0.00196834,0.00255858,0.00345161,-0.00244509,1.04542,0.00342095,0.0355535,1910,946,55.2886,-2.54387
693,78,55.2262,2.66833,-0.00126576,0.00149596,0.00254852,0.00301368,-0.00278347,1.03367,0.00334787,0.0308169,1917,946,55.2262,-2.66831
700,78,55.2083,2.74536,-0.00195691,0.0014166,0.00232015,0.00259834,-0.00313864,1.09971,0.00331714,0.0276585,1924,946,55.2083,-2.74533
707,78,55.2694,2.8772,0,0,0,0,0,0,0,-1,1931,946,55.2695,-2.87717
714,78,52.5144,4.26434,0,0,0,0,0,0,0,-1,1938,946,52.5144,-4.26433
721,78,52.4563,4.70074,-0.00271467,0.00218349,0.00114548,0.00243813,-0.00296932,1.35205,0.00312701,0.0316096,1945,946,52.4563,-4.70077
728,78,52.4044,5.27728,-0.00330389,0.00281659,0.000952427,0.00296137,-0.00344867,1.41993,0.0037044,0.0369856,1952,946,52.4044,-5.27727
735,78,52.4862,5.67609,-0.00390182,0.00426804,0.000398995,0.00428748,-0.00392126,1.52211,0.00474089,0.026403,1959,946,52.4862,-5.67607
742,78,52.5118,6.07001,-0.00434215,0.00592253,-0.000409657,0.00593885,-0.00435847,-1.53097,0.00596845,0.0195724,1966,946,52.5118,-6.07001
749,78,52.3951,6.47595,-0.00483791,0.00858807,-0.00120032,0.00869454,-0.00494437,-1.48233,0.00797303,0.0148761,1973,946,52.3952,-6.47597
756,78,52.3313,6.85565,-0.00545257,0.01265,-0.00159679,0.0127898,-0.00559234,-1.48349,0.0108807,0.0159356,1980,946,52.3313,-6.85564
763,78,52.2537,7.23401,-0.00602471,0.0179885,-0.00150309,0.0180822,-0.00611843,-1.50853,0.0145302,0.0163953,1987,946,52.2536,-7.23401
770,78,52.1594,7.62207,-0.00649467,0.0242039,-0.00108415,0.0242422,-0.00653291,-1.53554,0.0187229,0.0218425,1994,946,52.1594,-7.62207
777,78,52.0415,8.112,-0.00720643,0.0314647,-0.000359734,0.0314681,-0.00720978,-1.5615,0.0237496,0.0424815,2001,946,52.0414,-8.11199
784,78,52.2888,8.6153,0,0,0,0,0,0,0,-1,2008,946,52.2888,-8.61527
791,78,51.2107,8.53662,0,0,0,0,0,0,0,-1,2015,946,51.2106,-8.53664
798,78,51.2927,7.8479,0,0,0,0,0,0,0,-1,2022,946,51.2928,-7.84791
805,78,50.8481,6.75513,0,0,0,0,0,0,0,-1,2029,946,50.848,-6.75512
812,78,0,0,0,0,0,0,0,0,0,-1,2036,946,0,0
-700,71,0,0,0,0,0,0,0,0,0,-1,524,953,0,0
-693,71,0,0,0,0,0,0,0,0,0,-1,531,953,0,0
-686,71,-37.555,4.91425,-0.0180141,0.0700698,0.00725433,0.0706633,-0.0186075,1.48917,0.054383,0.0438047,538,953,-37.555,-4.91427
-679,71,-38.0977,4.73187,-0.0186164,0.0617463,0.00869356,0.062676,-0.0195461,1.46426,0.0496002,0.0468817,545,953,-38.0976,-4.73187
-672,71,-38.6858,4.50897,-0.0182851,0.053909,0.0094831,0.0551339,-0.01951,1.44234,0.0447017,0.0472559,552,953,-38.6858,-4.509
-665,71,-39.2853,4.22131,-0.0173255,0.0464944,0.00983622,0.047976,-0.0188071,1.42129,0.0397643,0.0482627,559,953,-39.2853,-4.22134
-658,71,-39.2952,5.03192,0,0,0,0,0,0,0,-1,566,953,-39.2951,-5.0319
-651,71,-39.5193,5.12823,-0.0142677,0.0329601,0.00959185,0.0348339,-0.0161415,1.37788,0.030083,0.0451526,573,953,-39.5193,-5.12821
-644,71,-39.7274,5.29694,-0.0123926,0.026852,0.0090694,0.0288465,-0.0143872,1.35432,0.0254221,0.0330319,580,953,-39.7274,-5.29695
-637,71,-40.0195,4.83984,-0.0105992,0.0210131,0.00829076,0.0230555,-0.0126416,1.32926,0.0209,0.0176626,587,953,-40.0195,-4.83982
-630,71,-40.1329,4.47015,-0.00904418,0.0159055,0.00707845,0.0177738,-0.0109125,1.31274,0.0167192,0.0164032,594,953,-40.1329,-4.47014
-623,71,-40.1754,4.09827,-0.00887371,0.0108733,0.00614747,0.0126307,-0.0106311,1.29235,0.0134467,0.0158959,601,953,-40.1754,-4.09828
-616,71,-40.191,3.70514,-0.00817834,0.00742695,0.00419694,0.00848407,-0.00923547,1.32405,0.0102334,0.016167,608,953,-40.191,-3.70512
-609,71,-40.1503,3.39276,-0.0079272,0.00487456,0.00270964,0.00542446,-0.00847711,1.37057,0.00809032,0.0153515,615,953,-40.1503,-3.39277
-602,71,-40.1299,3.05377,-0.00828084,0.00293228,0.00159031,0.00315347,-0.00850202,1.4326,0.00696147,0.0163138,622,953,-40.1299,-3.05378
-595,71,-40.1366,2.69623,-0.00824399,0.00165258,0.000512606,0.00167906,-0.00827047,1.51918,0.00615022,0.0185235,629,953,-40.1366,-2.69624
-588,71,-40.1048,2.40778,-0.0081072,0.000973042,-0.000270598,0.000981099,-0.00811526,-1.54103,0.0057651,0.0230825,636,953,-40.1048,-2.40777
-581,71,-40.3924,1.81592,-0.00809682,0.000491962,-0.000745554,0.0005562,-0.00816106,-1.48485,0.00563526,0.0430212,643,953,-40.3924,-1.81592
-574,71,-41.2212,1.17657,-0.00790437,0.000269859,-0.00120235,0.000443043,-0.00807756,-1.42774,0.00553863,0.0464351,650,953,-41.2212,-1.17657
-567,71,-41.8631,0.750549,0,0,0,0,0,0,0,-1,657,953,-41.8631,-0.750529
-560,71,-41.6063,0.818665,-0.00695765,0.000489102,-0.00160608,0.000820727,-0.00728928,-1.36718,0.00515492,0.0280337,664,953,-41.6063,-0.818685
-553,71,-41.6796,0.937622,-0.00578205,0.000848241,-0.00162336,0.00122437,-0.00615818,-1.34312,0.00456859,0.0378086,671,953,-41.6796,-0.937643
-546,71,-41.6044,1.10364,-0.00394918,0.00120106,-0.00149871,0.00160544,-0.00435355,-1.30726,0.00356029,0.0376669,678,953,-41.6044,-1.10363
-539,71,-41.4797,1.1803,-0.0014246,0.00129351,-0.0012459,0.00177817,-0.00190926,-1.1998,0.00212939,0.0377799,685,953,-41.4797,-1.18031
-532,71,-41.329,1.10028,0.00138812,0.000882633,-0.00114501,0.00230795,-3.7196e-05,-0.676772,0.00155118,0.0426286,692,953,-41.3291,-1.10027
-525,71,-41.2526,1.08075,0.00206351,0.000127579,-0.00168557,0.00303928,-0.000848192,-0.524757,0.00236028,0.0447542,699,953,-41.2526,-1.08072
-518,71,0,0,0,0,0,0,0,0,0,-1,706,953,0,0
-511,71,0,0,0,0,0,0,0,0,0,-1,713,953,0,0
-504,71,0,0,0,0,0,0,0,0,0,-1,720,953,0,0
-497,71,0,0,0,0,0,0,0,0,0,-1,727,953,0,0
-490,71,0,0,0,0,0,0,0,0,0,-1,734,953,0,0
-483,71,0,0,0,0,0,0,0,0,0,-1,741,953,0,0
-476,71,0,0,0,0,0,0,0,0,0,-1,748,953,0,0
-469,71,0,0,0,0,0,0,0,0,0,-1,755,953,0,0
-462,71,0,0,0,0,0,0,0,0,0,-1,762,953,0,0
-455,71,0,0,0,0,0,0,0,0,0,-1,769,953,0,0
-448,71,0,0,0,0,0,0,0,0,0,-1,776,953,0,0
-441,71,0,0,0,0,0,0,0,0,0,-1,783,953,0,0
-434,71,0,0,0,0,0,0,0,0,0,-1,790,953,0,0
-427,71,0,0,0,0,0,0,0,0,0,-1,797,953,0,0
-420,71,0,0,0,0,0,0,0,0,0,-1,804,953,0,0
-413,71,0,0,0,0,0,0,0,0,0,-1,811,953,0,0
-406,71,0,0,0,0,0,0,0,0,0,-1,818,953,0,0
-399,71,0,0,0,0,0,0,0,0,0,-1,825,953,0,0
-392,71,0,0,0,0,0,0,0,0,0,-1,832,953,0,0
-385,71,0,0,0,0,0,0,0,0,0,-1,839,953,0,0
-378,71,0,0,0,0,0,0,0,0,0,-1,846,953,0,0
-371,71,0,0,0,0,0,0,0,0,0,-1,853,953,0,0
-364,71,0,0,0,0,0,0,0,0,0,-1,860,953,0,0
-357,71,0,0,0,0,0,0,0,0,0,-1,867,953,0,0
-350,71,0,0,0,0,0,0,0,0,0,-1,874,953,0,0
-343,71,0,0,0,0,0,0,0,0,0,-1,881,953,0,0
-336,71,0,0,0,0,0,0,0,0,0,-1,888,953,0,0
-329,71,0,0,0,0,0,0,0,0,0,-1,895,953,0,0
-322,71,0,0,0,0,0,0,0,0,0,-1,902,953,0,0
-315,71,0,0,0,0,0,0,0,0,0,-1,909,953,0,0
-308,71,0,0,0,0,0,0,0,0,0,-1,916,953,0,0
-301,71,0,0,0,0,0,0,0,0,0,-1,923,953,0,0
-294,71,0,0,0,0,0,0,0,0,0,-1,930,953,0,0
-287,71,0,0,0,0,0,0,0,0,0,-1,937,953,0,0
-280,71,0,0,0,0,0,0,0,0,0,-1,944,953,0,0
-273,71,0,0,0,0,0,0,0,0,0,-1,951,953,0,0
-266,71,0,0,0,0,0,0,0,0,0,-1,958,953,0,0
-259,71,0,0,0,0,0,0,0,0,0,-1,965,953,0,0
-252,71,0,0,0,0,0,0,0,0,0,-1,972,953,0,0
-245,71,0,0,0,0,0,0,0,0,0,-1,979,953,0,0
-238,71,0,0,0,0,0,0,0,0,0,-1,986,953,0,0
-231,71,0,0,0,0,0,0,0,0,0,-1,993,953,0,0
-224,71,0,0,0,0,0,0,0,0,0,-1,1000,953,0,0
-217,71,0,0,0,0,0,0,0,0,0,-1,1007,953,0,0
-210,71,0,0,0,0,0,0,0,0,0,-1,1014,953,0,0
-203,71,0,0,0,0,0,0,0,0,0,-1,1021,953,0,0
-196,71,0,0,0,0,0,0,0,0,0,-1,1028,953,0,0
-189,71,0,0,0,0,0,0,0,0,0,-1,1035,953,0,0
-182,71,0,0,0,0,0,0,0,0,0,-1,1042,953,0,0
-175,71,0,0,0,0,0,0,0,0,0,-1,1049,953,0,0
-168,71,0,0,0,0,0,0,0,0,0,-1,1056,953,0,0
-161,71,0,0,0,0,0,0,0,0,0,-1,1063,953,0,0
-154,71,0,0,0,0,0,0,0,0,0,-1,1070,953,0,0
-147,71,0,0,0,0,0,0,0,0,0,-1,1077,953,0,0
-140,71,0,0,0,0,0,0,0,0,0,-1,1084,953,0,0
-133,71,0,0,0,0,0,0,0,0,0,-1,1091,953,0,0
-126,71,0,0,0,0,0,0,0,0,0,-1,1098,953,0,0
-119,71,0,0,0,0,0,0,0,0,0,-1,1105,953,0,0
-112,71,0,0,0,0,0,0,0,0,0,-1,1112,953,0,0
-105,71,0,0,0,0,0,0,0,0,0,-1,1119,953,0,0
-98,71,0,0,0,0,0,0,0,0,0,-1,1126,953,0,0
-91,71,0,0,0,0,0,0,0,0,0,-1,1133,953,0,0
-84,71,0,0,0,0,0,0,0,0,0,-1,1140,953,0,0
-77,71,0,0,0,0,0,0,0,0,0,-1,1147,953,0,0
-70,71,0,0,0,0,0,0,0,0,0,-1,1154,953,0,0
-63,71,0,0,0,0,0,0,0,0,0,-1,1161,953,0,0
-56,71,0,0,0,0,0,0,0,0,0,-1,1168,953,0,0
-49,71,0,0,0,0,0,0,0,0,0,-1,1175,953,0,0
-42,71,0,0,0,0,0,0,0,0,0,-1,1182,953,0,0
-35,71,0,0,0,0,0,0,0,0,0,-1,1189,953,0,0
-28,71,0,0,0,0,0,0,0,0,0,-1,1196,953,0,0
-21,71,0,0,0,0,0,0,0,0,0,-1,1203,953,0,0
-14,71,0,0,0,0,0,0,0,0,0,-1,1210,953,0,0
-7,71,0,0,0,0,0,0,0,0,0,-1,1217,953,0,0
0,71,0,0,0,0,0,0,0,0,0,-1,1224,953,0,0
7,71,0,0,0,0,0,0,0,0,0,-1,1231,953,0,0
14,71,0,0,0,0,0,0,0,0,0,-1,1238,953,0,0
21,71,0,0,0,0,0,0,0,0,0,-1,1245,953,0,0
28,71,0,0,0,0,0,0,0,0,0,-1,1252,953,0,0
35,71,0,0,0,0,0,0,0,0,0,-1,1259,953,0,0
42,71,0,0,0,0,0,0,0,0,0,-1,1266,953,0,0
49,71,0,0,0,0,0,0,0,0,0,-1,1273,953,0,0
56,71,0,0,0,0,0,0,0,0,0,-1,1280,953,0,0
63,71,0,0,0,0,0,0,0,0,0,-1,1287,953,0,0
70,71,0,0,0,0,0,0,0,0,0,-1,1294,953,0,0
77,71,0,0,0,0,0,0,0,0,0,-1,1301,953,0,0
84,71,0,0,0,0,0,0,0,0,0,-1,1308,953,0,0
91,71,0,0,0,0,0,0,0,0,0,-1,1315,953,0,0
98,71,0,0,0,0,0,0,0,0,0,-1,1322,953,0,0
105,71,0,0,0,0,0,0,0,0,0,-1,1329,953,0,0
112,71,0,0,0,0,0,0,0,0,0,-1,1336,953,0,0
119,71,0,0,0,0,0,0,0,0,0,-1,1343,953,0,0
126,71,0,0,0,0,0,0,0,0,0,-1,1350,953,0,0
133,71,0,0,0,0,0,0,0,0,0,-1,1357,953,0,0
140,71,0,0,0,0,0,0,0,0,0,-1,1364,953,0,0
147,71,0,0,0,0,0,0,0,0,0,-1,1371,953,0,0
154,71,0,0,0,0,0,0,0,0,0,-1,1378,953,0,0
161,71,0,0,0,0,0,0,0,0,0,-1,1385,953,0,0
168,71,0,0,0,0,0,0,0,0,0,-1,1392,953,0,0
175,71,0,0,0,0,0,0,0,0,0,-1,1399,953,0,0
182,71,0,0,0,0,0,0,0,0,0,-1,1406,953,0,0
189,71,0,0,0,0,0,0,0,0,0,-1,1413,953,0,0
196,71,0,0,0,0,0,0,0,0,0,-1,1420,953,0,0
203,71,0,0,0,0,0,0,0,0,0,-1,1427,953,0,0
210,71,0,0,0,0,0,0,0,0,0,-1,1434,953,0,0
217,71,0,0,0,0,0,0,0,0,0,-1,1441,953,0,0
224,71,0,0,0,0,0,0,0,0,0,-1,1448,953,0,0
231,71,0,0,0,0,0,0,0,0,0,-1,1455,953,0,0
238,71,0,0,0,0,0,0,0,0,0,-1,1462,953,0,0
245,71,0,0,0,0,0,0,0,0,0,-1,1469,953,0,0
252,71,0,0,0,0,0,0,0,0,0,-1,1476,953,0,0
259,71,0,0,0,0,0,0,0,0,0,-1,1483,953,0,0
266,71,0,0,0,0,0,0,0,0,0,-1,1490,953,0,0
273,71,0,0,0,0,0,0,0,0,0,-1,1497,953,0,0
280,71,0,0,0,0,0,0,0,0,0,-1,1504,953,0,0
287,71,0,0,0,0,0,0,0,0,0,-1,1511,953,0,0
294,71,0,0,0,0,0,0,0,0,0,-1,1518,953,0,0
301,71,0,0,0,0,0,0,0,0,0,-1,1525,953,0,0
308,71,0,0,0,0,0,0,0,0,0,-1,1532,953,0,0
315,71,0,0,0,0,0,0,0,0,0,-1,1539,953,0,0
322,71,0,0,0,0,0,0,0,0,0,-1,1546,953,0,0
329,71,0,0,0,0,0,0,0,0,0,-1,1553,953,0,0
336,71,0,0,0,0,0,0,0,0,0,-1,1560,953,0,0
343,71,0,0,0,0,0,0,0,0,0,-1,1567,953,0,0
350,71,0,0,0,0,0,0,0,0,0,-1,1574,953,0,0
357,71,0,0,0,0,0,0,0,0,0,-1,1581,953,0,0
364,71,0,0,0,0,0,0,0,0,0,-1,1588,953,0,0
371,71,0,0,0,0,0,0,0,0,0,-1,1595,953,0,0
378,71,0,0,0,0,0,0,0,0,0,-1,1602,953,0,0
385,71,0,0,0,0,0,0,0,0,0,-1,1609,953,0,0
392,71,0,0,0,0,0,0,0,0,0,-1,1616,953,0,0
399,71,0,0,0,0,0,0,0,0,0,-1,1623,953,0,0
406,71,0,0,0,0,0,0,0,0,0,-1,1630,953,0,0
413,71,0,0,0,0,0,0,0,0,0,-1,1637,953,0,0
420,71,0,0,0,0,0,0,0,0,0,-1,1644,953,0,0
427,71,0,0,0,0,0,0,0,0,0,-1,1651,953,0,0
434,71,0,0,0,0,0,0,0,0,0,-1,1658,953,0,0
441,71,0,0,0,0,0,0,0,0,0,-1,1665,953,0,0
448,71,0,0,0,0,0,0,0,0,0,-1,1672,953,0,0
455,71,0,0,0,0,0,0,0,0,0,-1,1679,953,0,0
462,71,0,0,0,0,0,0,0,0,0,-1,1686,953,0,0
469,71,0,0,0,0,0,0,0,0,0,-1,1693,953,0,0
476,71,0,0,0,0,0,0,0,0,0,-1,1700,953,0,0
483,71,0,0,0,0,0,0,0,0,0,-1,1707,953,0,0
490,71,0,0,0,0,0,0,0,0,0,-1,1714,953,0,0
497,71,0,0,0,0,0,0,0,0,0,-1,1721,953,0,0
504,71,0,0,0,0,0,0,0,0,0,-1,1728,953,0,0
511,71,0,0,0,0,0,0,0,0,0,-1,1735,953,0,0
518,71,0,0,0,0,0,0,0,0,0,-1,1742,953,0,0
525,71,0,0,0,0,0,0,0,0,0,-1,1749,953,0,0
532,71,0,0,0,0,0,0,0,0,0,-1,1756,953,0,0
539,71,0,0,0,0,0,0,0,0,0,-1,1763,953,0,0
546,71,0,0,0,0,0,0,0,0,0,-1,1770,953,0,0
553,71,0,0,0,0,0,0,0,0,0,-1,1777,953,0,0
560,71,0,0,0,0,0,0,0,0,0,-1,1784,953,0,0
567,71,0,0,0,0,0,0,0,0,0,-1,1791,953,0,0
574,71,0,0,0,0,0,0,0,0,0,-1,1798,953,0,0
581,71,0,0,0,0,0,0,0,0,0,-1,1805,953,0,0
588,71,0,0,0,0,0,0,0,0,0,-1,1812,953,0,0
595,71,0,0,0,0,0,0,0,0,0,-1,1819,953,0,0
602,71,0,0,0,0,0,0,0,0,0,-1,1826,953,0,0
609,71,0,0,0,0,0,0,0,0,0,-1,1833,953,0,0
616,71,0,0,0,0,0,0,0,0,0,-1,1840,953,0,0
623,71,0,0,0,0,0,0,0,0,0,-1,1847,953,0,0
630,71,0,0,0,0,0,0,0,0,0,-1,1854,953,0,0
637,71,55.2472,2.42981,0.00798254,0.00561927,0.00268065,0.00973043,0.00387138,0.577809,0.0056568,0.0420297,1861,953,55.2472,-2.4298
644,71,55.0629,2.49554,0.00576172,0.00392932,0.00177984,0.00684733,0.00284371,0.547703,0.00397217,0.0424829,1868,953,55.0629,-2.49553
651,71,55.475,2.55078,0.00389672,0.00292441,0.00134363,0.00483945,0.00198169,0.611815,0.00280928,0.0386242,1875,953,55.475,-2.55078
658,71,55.4253,2.67407,0.00241483,0.0024311,0.00128586,0.00370885,0.00113708,0.788562,0.00219406,0.0360726,1882,953,55.4253,-2.67408
665,71,55.3179,2.67676,0.00121502,0.00234847,0.00157883,0.0034592,0.000104281,0.957712,0.00227217,0.0403639,1889,953,55.3179,-2.67674
672,71,55.2196,2.66931,9.39775e-05,0.0023079,0.00207177,0.00354989,-0.00114801,1.03076,0.00282803,0.0423315,1896,953,55.2196,-2.66929
679,71,55.2799,2.57373,-0.000707901,0.00215605,0.00259535,0.00368826,-0.00224011,1.03749,0.00345662,0.0392531,1903,953,55.2799,-2.57372
686,71,55.3964,2.43311,-0.00106754,0.00189746,0.00283921,0.00361791,-0.002788,1.026,0.00370879,0.0367285,1910,953,55.3963,-2.43308
693,71,55.3549,2.59381,-0.00141669,0.00149017,0.00289388,0.0032751,-0.00320162,1.01812,0.00373942,0.0345324,1917,953,55.3549,-2.59378
700,71,55.2311,2.69263,-0.00212303,0.00144389,0.00270071,0.00289687,-0.00357601,1.07721,0.00374397,0.0346169,1924,953,55.2311,-2.69262
707,71,55.2476,2.83575,0,0,0,0,0,0,0,-1,1931,953,55.2475,-2.83576
714,71,53.303,4.40729,0,0,0,0,0,0,0,-1,1938,953,53.303,-4.40728
721,71,53.0421,4.79724,-0.00301986,0.00236489,0.00156589,0.00278714,-0.00344211,1.30741,0.00360308,0.0421479,1945,953,53.0422,-4.79725
728,71,52.8497,5.31836,-0.00362707,0.00309338,0.00135552,0.00335649,-0.00389018,1.37908,0.00418764,0.0310087,1952,953,52.8497,-5.31833
735,71,52.8859,5.74438,-0.0042366,0.00462782,0.000822829,0.00470356,-0.00431233,1.47902,0.00520696,0.0225467,1959,953,52.8859,-5.74436
742,71,52.9338,6.10089,-0.00471384,0.00630787,1.80386e-05,0.0063079,-0.00471387,1.56916,0.00638557,0.0218256,1966,953,52.9338,-6.10087
749,71,52.8658,6.46326,-0.00527463,0.00891939,-0.000837396,0.00896862,-0.00532386,-1.51207,0.00834073,0.019011,1973,953,52.8658,-6.46325
756,71,52.8143,6.79468,-0.0060073,0.0128794,-0.0013383,0.0129738,-0.00610166,-1.50041,0.0112489,0.0179047,1980,953,52.8144,-6.79469
763,71,52.7473,7.18573,-0.0067539,0.0181896,-0.00132366,0.0182596,-0.00682395,-1.51793,0.0149753,0.0194762,1987,953,52.7474,-7.18571
770,71,52.5276,7.47925,-0.00744601,0.0244746,-0.000871398,0.0244984,-0.00746978,-1.54352,0.0193099,0.0229814,1994,953,52.5276,-7.47924
777,71,52.3428,7.91998,-0.00836084,0.0316983,-5.8463e-05,0.0316984,-0.00836093,-1.56934,0.0244015,0.0437661,2001,953,52.3429,-7.91999
784,71,52.2163,8.42834,0,0,0,0,0,0,0,-1,2008,953,52.2162,-8.42835
791,71,51.791,8.70184,0,0,0,0,0,0,0,-1,2015,953,51.791,-8.70184
798,71,51.5068,9.03137,0,0,0,0,0,0,0,-1,2022,953,51.5069,-9.0314
805,71,45.0161,6.63287,0,0,0,0,0,0,0,-1,2029,953,45.0161,-6.63289
812,71,0,0,0,0,0,0,0,0,0,-1,2036,953,0,0
-700,64,0,0,0,0,0,0,0,0,0,-1,524,960,0,0
-693,64,0,0,0,0,0,0,0,0,0,-1,531,960,0,0
-686,64,-38.53,4.6178,-0.00262453,0.0648221,0.00429685,0.0650947,-0.00289717,1.50743,0.0443937,0.0479284,538,960,-38.53,-4.61781
-679,64,-38.7122,4.48792,-0.0041452,0.0564424,0.00747792,0.0573517,-0.0050545,1.44979,0.0400258,0.0449209,545,960,-38.7122,-4.48789
-672,64,-39.1303,4.31921,-0.0055919,0.0490914,0.00934208,0.0506433,-0.00714385,1.40617,0.0363781,0.0459331,552,960,-39.1303,-4.31922
-665,64,-39.5965,4.35974,-0.00668916,0.042405,0.0102994,0.0444782,-0.00876232,1.37216,0.0329634,0.0465065,559,960,-39.5965,-4.35975
-658,64,-39.967,4.60815,0,0,0,0,0,0,0,-1,566,960,-39.967,-4.60818
-651,64,-40.1401,4.90863,-0.0076741,0.0304606,0.0103872,0.0331063,-0.0103199,1.32139,0.0261974,0.0427574,573,960,-40.1401,-4.90864
-644,64,-40.3823,4.96234,-0.00753533,0.0250899,0.00973254,0.0277727,-0.0102181,1.30183,0.0227011,0.0331908,580,960,-40.3823,-4.96236
-637,64,-40.4555,4.66571,-0.00717226,0.0198621,0.00876213,0.0224536,-0.00976375,1.28323,0.0190756,0.0173899,587,960,-40.4555,-4.66571
-630,64,-40.5328,4.37946,-0.0066811,0.0151955,0.00729302,0.0174039,-0.00888946,1.27677,0.0154435,0.0138725,594,960,-40.5328,-4.37944
-623,64,-40.5538,4.08209,-0.00760032,0.0105337,0.00618421,0.0124419,-0.00950851,1.27151,0.0127107,0.0154206,601,960,-40.5538,-4.08206
-616,64,-40.5557,3.73352,-0.00775101,0.00746789,0.00377018,0.00835067,-0.0086338,1.34079,0.00980644,0.0195758,608,960,-40.5557,-3.73354
-609,64,-40.53,3.45026,-0.00776656,0.00521857,0.0020845,0.00554499,-0.00809297,1.41546,0.00791956,0.0180477,615,960,-40.53,-3.45025
-602,64,-40.5206,3.13422,-0.00793896,0.00344434,0.000924802,0.00351899,-0.0080136,1.49026,0.00682482,0.016696,622,960,-40.5205,-3.13423
-595,64,-40.5433,2.84283,-0.00780817,0.00207864,-0.00017671,0.0020818,-0.00781132,-1.55293,0.00602263,0.0210718,629,960,-40.5433,-2.84285
-588,64,-40.1603,2.88849,0,0,0,0,0,0,0,-1,636,960,-40.1603,-2.8885
-581,64,-40.7796,1.79877,-0.00766756,0.000631378,-0.00137783,0.000854153,-0.00789033,-1.4105,0.00556682,0.0470393,643,960,-40.7796,-1.79875
-574,64,-41.4312,1.01764,-0.00750237,0.000321902,-0.00182702,0.000727499,-0.00790797,-1.35234,0.00553045,0.0470064,650,960,-41.4312,-1.01767
-567,64,-41.5704,0.738586,-0.00722236,0.000202453,-0.00202764,0.000720091,-0.00774,-1.32084,0.00541601,0.0264847,657,960,-41.5704,-0.738582
-560,64,-41.5869,0.786865,-0.00659972,0.000383144,-0.00209186,0.000961846,-0.00717842,-1.3009,0.00513634,0.0329823,664,960,-41.5869,-0.786872
-553,64,-41.6031,0.760681,-0.00540007,0.000652379,-0.00200943,0.00125876,-0.00600645,-1.27772,0.00448319,0.0364708,671,960,-41.6031,-0.760704
-546,64,-41.5559,0.874634,-0.00353886,0.000864949,-0.00177225,0.00148957,-0.00416348,-1.23194,0.0033833,0.0376701,678,960,-41.5559,-0.874653
-539,64,-41.5036,0.938354,-0.0010001,0.00072653,-0.00145967,0.00155908,-0.00183265,-1.05245,0.00196033,0.0401599,685,960,-41.5036,-0.938332
-532,64,-41.6981,1.10895,0.00164346,6.17598e-05,-0.00148392,0.00253412,-0.000828898,-0.54057,0.00202313,0.0427137,692,960,-41.6981,-1.10897
-525,64,-41.8193,1.18219,0,0,0,0,0,0,0,-1,699,960,-41.8193,-1.18217
-518,64,0,0,0,0,0,0,0,0,0,-1,706,960,0,0
-511,64,0,0,0,0,0,0,0,0,0,-1,713,960,0,0
-504,64,0,0,0,0,0,0,0,0,0,-1,720,960,0,0
-497,64,0,0,0,0,0,0,0,0,0,-1,727,960,0,0
-490,64,0,0,0,0,0,0,0,0,0,-1,734,960,0,0
-483,64,0,0,0,0,0,0,0,0,0,-1,741,960,0,0
-476,64,0,0,0,0,0,0,0,0,0,-1,748,960,0,0
-469,64,0,0,0,0,0,0,0,0,0,-1,755,960,0,0
-462,64,0,0,0,0,0,0,0,0,0,-1,762,960,0,0
-455,64,0,0,0,0,0,0,0,0,0,-1,769,960,0,0
-448,64,0,0,0,0,0,0,0,0,0,-1,776,960,0,0
-441,64,0,0,0,0,0,0,0,0,0,-1,783,960,0,0
-434,64,0,0,0,0,0,0,0,0,0,-1,790,960,0,0
-427,64,0,0,0,0,0,0,0,0,0,-1,797,960,0,0
-420,64,0,0,0,0,0,0,0,0,0,-1,804,960,0,0
-413,64,0,0,0,0,0,0,0,0,0,-1,811,960,0,0
-406,64,0,0,0,0,0,0,0,0,0,-1,818,960,0,0
-399,64,0,0,0,0,0,0,0,0,0,-1,825,960,0,0
-392,64,0,0,0,0,0,0,0,0,0,-1,832,960,0,0
-385,64,0,0,0,0,0,0,0,0,0,-1,839,960,0,0
-378,64,0,0,0,0,0,0,0,0,0,-1,846,960,0,0
-371,64,0,0,0,0,0,0,0,0,0,-1,853,960,0,0
-364,64,0,0,0,0,0,0,0,0,0,-1,860,960,0,0
-357,64,0,0,0,0,0,0,0,0,0,-1,867,960,0,0
-350,64,0,0,0,0,0,0,0,0,0,-1,874,960,0,0
-343,64,0,0,0,0,0,0,0,0,0,-1,881,960,0,0
-336,64,0,0,0,0,0,0,0,0,0,-1,888,960,0,0
-329,64,0,0,0,0,0,0,0,0,0,-1,895,960,0,0
-322,64,0,0,0,0,0,0,0,0,0,-1,902,960,0,0
-315,64,0,0,0,0,0,0,0,0,0,-1,909,960,0,0
-308,64,0,0,0,0,0,0,0,0,0,-1,916,960,0,0
-301,64,0,0,0,0,0,0,0,0,0,-1,923,960,0,0
-294,64,0,0,0,0,0,0,0,0,0,-1,930,960,0,0
-287,64,0,0,0,0,0,0,0,0,0,-1,937,960,0,0
-280,64,0,0,0,0,0,0,0,0,0,-1,944,960,0,0
-273,64,0,0,0,0,0,0,0,0,0,-1,951,960,0,0
-266,64,0,0,0,0,0,0,0,0,0,-1,958,960,0,0
-259,64,0,0,0,0,0,0,0,0,0,-1,965,960,0,0
-252,64,0,0,0,0,0,0,0,0,0,-1,972,960,0,0
-245,64,0,0,0,0,0,0,0,0,0,-1,979,960,0,0
-238,64,0,0,0,0,0,0,0,0,0,-1,986,960,0,0
-231,64,0,0,0,0,0,0,0,0,0,-1,993,960,0,0
-224,64,0,0,0,0,0,0,0,0,0,-1,1000,960,0,0
-217,64,0,0,0,0,0,0,0,0,0,-1,1007,960,0,0
-210,64,0,0,0,0,0,0,0,0,0,-1,1014,960,0,0
-203,64,0,0,0,0,0,0,0,0,0,-1,1021,960,0,0
-196,64,0,0,0,0,0,0,0,0,0,-1,1028,960,0,0
-189,64,0,0,0,0,0,0,0,0,0,-1,1035,960,0,0
-182,64,0,0,0,0,0,0,0,0,0,-1,1042,960,0,0
-175,64,0,0,0,0,0,0,0,0,0,-1,1049,960,0,0
-168,64,0,0,0,0,0,0,0,0,0,-1,1056,960,0,0
-161,64,0,0,0,0,0,0,0,0,0,-1,1063,960,0,0
-154,64,0,0,0,0,0,0,0,0,0,-1,1070,960,0,0
-147,64,0,0,0,0,0,0,0,0,0,-1,1077,960,0,0
-140,64,0,0,0,0,0,0,0,0,0,-1,1084,960,0,0
-133,64,0,0,0,0,0,0,0,0,0,-1,1091,960,0,0
-126,64,0,0,0,0,0,0,0,0,0,-1,1098,960,0,0
-119,64,0,0,0,0,0,0,0,0,0,-1,1105,960,0,0
-112,64,0,0,0,0,0,0,0,0,0,-1,1112,960,0,0
-105,64,0,0,0,0,0,0,0,0,0,-1,1119,960,0,0
-98,64,0,0,0,0,0,0,0,0,0,-1,1126,960,0,0
-91,64,0,0,0,0,0,0,0,0,0,-1,1133,960,0,0
-84,64,0,0,0,0,0,0,0,0,0,-1,1140,960,0,0
-77,64,0,0,0,0,0,0,0,0,0,-1,1147,960,0,0
-70,64,0,0,0,0,0,0,0,0,0,-1,1154,960,0,0
-63,64,0,0,0,0,0,0,0,0,0,-1,1161,960,0,0
-56,64,0,0,0,0,0,0,0,0,0,-1,1168,960,0,0
-49,64,0,0,0,0,0,0,0,0,0,-1,1175,960,0,0
-42,64,0,0,0,0,0,0,0,0,0,-1,1182,960,0,0
-35,64,0,0,0,0,0,0,0,0,0,-1,1189,960,0,0
-28,64,0,0,0,0,0,0,0,0,0,-1,1196,960,0,0
-21,64,0,0,0,0,0,0,0,0,0,-1,1203,960,0,0
-14,64,0,0,0,0,0,0,0,0,0,-1,1210,960,0,0
-7,64,0,0,0,0,0,0,0,0,0,-1,1217,960,0,0
0,64,0,0,0,0,0,0,0,0,0,-1,1224,960,0,0
7,64,0,0,0,0,0,0,0,0,0,-1,1231,960,0,0
14,64,0,0,0,0,0,0,0,0,0,-1,1238,960,0,0
21,64,0,0,0,0,0,0,0,0,0,-1,1245,960,0,0
28,64,0,0,0,0,0,0,0,0,0,-1,1252,960,0,0
35,64,0,0,0,0,0,0,0,0,0,-1,1259,960,0,0
42,64,0,0,0,0,0,0,0,0,0,-1,1266,960,0,0
49,64,0,0,0,0,0,0,0,0,0,-1,1273,960,0,0
56,64,0,0,0,0,0,0,0,0,0,-1,1280,960,0,0
63,64,0,0,0,0,0,0,0,0,0,-1,1287,960,0,0
70,64,0,0,0,0,0,0,0,0,0,-1,1294,960,0,0
77,64,0,0,0,0,0,0,0,0,0,-1,1301,960,0,0
84,64,0,0,0,0,0,0,0,0,0,-1,1308,960,0,0
91,64,0,0,0,0,0,0,0,0,0,-1,1315,960,0,0
98,64,0,0,0,0,0,0,0,0,0,-1,1322,960,0,0
105,64,0,0,0,0,0,0,0,0,0,-1,1329,960,0,0
112,64,0,0,0,0,0,0,0,0,0,-1,1336,960,0,0
119,64,0,0,0,0,0,0,0,0,0,-1,1343,960,0,0
126,64,0,0,0,0,0,0,0,0,0,-1,1350,960,0,0
133,64,0,0,0,0,0,0,0,0,0,-1,1357,960,0,0
140,64,0,0,0,0,0,0,0,0,0,-1,1364,960,0,0
147,64,0,0,0,0,0,0,0,0,0,-1,1371,960,0,0
154,64,0,0,0,0,0,0,0,0,0,-1,1378,960,0,0
161,64,0,0,0,0,0,0,0,0,0,-1,1385,960,0,0
168,64,0,0,0,0,0,0,0,0,0,-1,1392,960,0,0
175,64,0,0,0,0,0,0,0,0,0,-1,1399,960,0,0
182,64,0,0,0,0,0,0,0,0,0,-1,1406,960,0,0
189,64,0,0,0,0,0,0,0,0,0,-1,1413,960,0,0
196,64,0,0,0,0,0,0,0,0,0,-1,1420,960,0,0
203,64,0,0,0,0,0,0,0,0,0,-1,1427,960,0,0
210,64,0,0,0,0,0,0,0,0,0,-1,1434,960,0,0
217,64,0,0,0,0,0,0,0,0,0,-1,1441,960,0,0
224,64,0,0,0,0,0,0,0,0,0,-1,1448,960,0,0
231,64,0,0,0,0,0,0,0,0,0,-1,1455,960,0,0
238,64,0,0,0,0,0,0,0,0,0,-1,1462,960,0,0
245,64,0,0,0,0,0,0,0,0,0,-1,1469,960,0,0
252,64,0,0,0,0,0,0,0,0,0,-1,1476,960,0,0
259,64,0,0,0,0,0,0,0,0,0,-1,1483,960,0,0
266,64,0,0,0,0,0,0,0,0,0,-1,1490,960,0,0
273,64,0,0,0,0,0,0,0,0,0,-1,1497,960,0,0
280,64,0,0,0,0,0,0,0,0,0,-1,1504,960,0,0
287,64,0,0,0,0,0,0,0,0,0,-1,1511,960,0,0
294,64,0,0,0,0,0,0,0,0,0,-1,1518,960,0,0
301,64,0,0,0,0,0,0,0,0,0,-1,1525,960,0,0
308,64,0,0,0,0,0,0,0,0,0,-1,1532,960,0,0
315,64,0,0,0,0,0,0,0,0,0,-1,1539,960,0,0
322,64,0,0,0,0,0,0,0,0,0,-1,1546,960,0,0
329,64,0,0,0,0,0,0,0,0,0,-1,1553,960,0,0
336,64,0,0,0,0,0,0,0,0,0,-1,1560,960,0,0
343,64,0,0,0,0,0,0,0,0,0,-1,1567,960,0,0
350,64,0,0,0,0,0,0,0,0,0,-1,1574,960,0,0
357,64,0,0,0,0,0,0,0,0,0,-1,1581,960,0,0
364,64,0,0,0,0,0,0,0,0,0,-1,1588,960,0,0
371,64,0,0,0,0,0,0,0,0,0,-1,1595,960,0,0
378,64,0,0,0,0,0,0,0,0,0,-1,1602,960,0,0
385,64,0,0,0,0,0,0,0,0,0,-1,1609,960,0,0
392,64,0,0,0,0,0,0,0,0,0,-1,1616,960,0,0
399,64,0,0,0,0,0,0,0,0,0,-1,1623,960,0,0
406,64,0,0,0,0,0,0,0,0,0,-1,1630,960,0,0
413,64,0,0,0,0,0,0,0,0,0,-1,1637,960,0,0
420,64,0,0,0,0,0,0,0,0,0,-1,1644,960,0,0
427,64,0,0,0,0,0,0,0,0,0,-1,1651,960,0,0
434,64,0,0,0,0,0,0,0,0,0,-1,1658,960,0,0
441,64,0,0,0,0,0,0,0,0,0,-1,1665,960,0,0
448,64,0,0,0,0,0,0,0,0,0,-1,1672,960,0,0
455,64,0,0,0,0,0,0,0,0,0,-1,1679,960,0,0
462,64,0,0,0,0,0,0,0,0,0,-1,1686,960,0,0
469,64,0,0,0,0,0,0,0,0,0,-1,1693,960,0,0
476,64,0,0,0,0,0,0,0,0,0,-1,1700,960,0,0
483,64,0,0,0,0,0,0,0,0,0,-1,1707,960,0,0
490,64,0,0,0,0,0,0,0,0,0,-1,1714,960,0,0
497,64,0,0,0,0,0,0,0,0,0,-1,1721,960,0,0
504,64,0,0,0,0,0,0,0,0,0,-1,1728,960,0,0
511,64,0,0,0,0,0,0,0,0,0,-1,1735,960,0,0
518,64,0,0,0,0,0,0,0,0,0,-1,1742,960,0,0
525,64,0,0,0,0,0,0,0,0,0,-1,1749,960,0,0
532,64,0,0,0,0,0,0,0,0,0,-1,1756,960,0,0
539,64,0,0,0,0,0,0,0,0,0,-1,1763,960,0,0
546,64,0,0,0,0,0,0,0,0,0,-1,1770,960,0,0
553,64,0,0,0,0,0,0,0,0,0,-1,1777,960,0,0
560,64,0,0,0,0,0,0,0,0,0,-1,1784,960,0,0
567,64,0,0,0,0,0,0,0,0,0,-1,1791,960,0,0
574,64,0,0,0,0,0,0,0,0,0,-1,1798,960,0,0
581,64,0,0,0,0,0,0,0,0,0,-1,1805,960,0,0
588,64,0,0,0,0,0,0,0,0,0,-1,1812,960,0,0
595,64,0,0,0,0,0,0,0,0,0,-1,1819,960,0,0
602,64,0,0,0,0,0,0,0,0,0,-1,1826,960,0,0
609,64,0,0,0,0,0,0,0,0,0,-1,1833,960,0,0
616,64,0,0,0,0,0,0,0,0,0,-1,1840,960,0,0
623,64,0,0,0,0,0,0,0,0,0,-1,1847,960,0,0
630,64,0,0,0,0,0,0,0,0,0,-1,1854,960,0,0
637,64,0,0,0,0,0,0,0,0,0,-1,1861,960,0,0
644,64,55.0591,2.64331,0.00608365,0.00372772,0.00251325,0.00768129,0.00213007,0.56625,0.00457907,0.0425969,1868,960,55.0591,-2.6433
651,64,55.4315,2.65979,0.00416055,0.00271953,0.00181837,0.00539595,0.00148412,0.596768,0.00321874,0.0401757,1875,960,55.4315,-2.65979
658,64,55.3124,2.65302,0.00267239,0.00218047,0.00156497,0.00401061,0.000842248,0.707453,0.00244189,0.0376425,1882,960,55.3124,-2.65304
665,64,55.2239,2.78546,0.00148796,0.00206614,0.00174077,0.00354167,1.2438e-05,0.867682,0.00235698,0.041929,1889,960,55.2239,-2.78547
672,64,55.1996,2.88318,0.000381918,0.00203604,0.00217126,0.00353243,-0.00111447,0.96737,0.00280134,0.0471972,1896,960,55.1996,-2.88316
679,64,55.196,2.75562,-0.000426807,0.00193444,0.00271223,0.00371187,-0.00220424,0.990678,0.00345244,0.0421928,1903,960,55.196,-2.75562
686,64,55.2871,2.47839,-0.000813674,0.00170808,0.00303082,0.00372984,-0.00283543,0.982518,0.00380217,0.0351716,1910,960,55.2871,-2.47842
693,64,55.2618,2.54663,-0.00116014,0.00133943,0.00314065,0.00346983,-0.00329054,0.974762,0.00390356,0.0348535,1917,960,55.2618,-2.54663
700,64,55.2678,2.65674,-0.00184096,0.0013046,0.00296956,0.00309216,-0.00362852,1.02893,0.00388431,0.034541,1924,960,55.2678,-2.65677
707,64,55.16,3.06818,-0.00230801,0.00148645,0.00257359,0.00278654,-0.0036081,1.10302,0.00370209,0.0466861,1931,960,55.16,-3.06816
714,64,54.1824,4.53955,0,0,0,0,0,0,0,-1,1938,960,54.1824,-4.53957
721,64,53.5101,4.85077,-0.00290707,0.00236898,0.00187163,0.00296548,-0.00350358,1.26227,0.00373922,0.0417094,1945,960,53.5101,-4.85079
728,64,53.2439,5.35199,-0.00358125,0.00320576,0.00163486,0.00357904,-0.00395452,1.34632,0.0043513,0.0233591,1952,960,53.2439,-5.35199
735,64,53.1898,5.80328,-0.00425364,0.0048363,0.0011289,0.0049744,-0.00439174,1.44907,0.00541103,0.0316476,1959,960,53.1898,-5.80328
742,64,53.3169,6.0788,-0.0048258,0.00659941,0.000355284,0.00661044,-0.00483684,1.53974,0.00663548,0.0274764,1966,960,53.317,-6.07883
749,64,53.2889,6.41736,-0.00552148,0.00920093,-0.000522057,0.00921942,-0.00553997,-1.5354,0.00860915,0.0165578,1973,960,53.289,-6.41738
756,64,53.2224,6.75568,-0.00643815,0.0130768,-0.00108092,0.0131364,-0.00649784,-1.51563,0.0115498,0.0158118,1980,960,53.2224,-6.75565
763,64,53.189,7.12537,-0.00740639,0.0183357,-0.00111383,0.0183838,-0.0074545,-1.52764,0.0153561,0.017019,1987,960,53.189,-7.12534
770,64,52.9734,7.41132,-0.00832454,0.024683,-0.00060214,0.024694,-0.00833553,-1.55256,0.0198339,0.0174061,1994,960,52.9734,-7.41134
777,64,52.8169,7.82874,-0.00942055,0.0318636,0.000329218,0.0318662,-0.00942317,1.56282,0.0249847,0.0352182,2001,960,52.8168,-7.82876
784,64,52.6777,8.75336,-0.0100814,0.040513,0.00207478,0.040598,-0.0101663,1.52988,0.0310146,0.0459762,2008,960,52.6778,-8.75335
791,64,52.6206,9.61682,0,0,0,0,0,0,0,-1,2015,960,52.6205,-9.61682
798,64,52.1885,7.42731,0,0,0,0,0,0,0,-1,2022,960,52.1884,-7.42733
805,64,54.3772,7.26849,0,0,0,0,0,0,0,-1,2029,960,54.3773,-7.26848
812,64,0,0,0,0,0,0,0,0,0,-1,2036,960,0,0
-700,57,0,0,0,0,0,0,0,0,0,-1,524,967,0,0
-693,57,0,0,0,0,0,0,0,0,0,-1,531,967,0,0
-686,57,-39.5284,3.96771,0.0104379,0.0594368,-0.000852679,0.0594517,0.0104231,-1.5534,0.0366574,0.0424433,538,967,-39.5284,-3.96772
-679,57,-39.3445,3.84985,0.00855437,0.0506313,0.00376178,0.0509649,0.0082207,1.48233,0.0315949,0.0430532,545,967,-39.3445,-3.84985
-672,57,-39.4083,4.01691,0.00571461,0.0435512,0.00672793,0.0447119,0.00455388,1.39996,0.0284119,0.0493869,552,967,-39.4083,-4.01689
-665,57,-39.7482,4.27557,0.00281111,0.0374898,0.00850395,0.0394629,0.000838025,1.34281,0.0260338,0.0495703,559,967,-39.7482,-4.2756
-658,57,-40.6064,4.53711,0,0,0,0,0,0,0,-1,566,967,-40.6064,-4.53711
-651,57,-40.7878,4.52576,-0.0019224,0.0271986,0.00960261,0.03008,-0.00480376,1.27928,0.0218314,0.0465986,573,967,-40.7878,-4.52575
-644,57,-40.8799,4.65289,-0.00338926,0.0226887,0.00917833,0.0255951,-0.00629571,1.26412,0.0195037,0.0346442,580,967,-40.8799,-4.65288
-637,57,-40.8336,4.50867,-0.00430789,0.0182063,0.00837317,0.0209789,-0.00708049,1.25103,0.0168495,0.0199231,587,967,-40.8336,-4.5087
-630,57,-40.9075,4.26501,-0.00473122,0.014084,0.00696612,0.0163823,-0.00702959,1.25211,0.0138718,0.0136797,594,967,-40.9075,-4.26504
-623,57,-40.9293,4.02362,-0.00659944,0.0098979,0.00596586,0.0118292,-0.00853075,1.25772,0.0118061,0.013316,601,967,-40.9293,-4.02361
-616,57,-40.9116,3.74628,-0.00741925,0.00730556,0.00336086,0.00803639,-0.00815007,1.35668,0.00934533,0.0156857,608,967,-40.9115,-3.74627
-609,57,-40.916,3.45392,-0.00749163,0.00535588,0.00156744,0.00554435,-0.0076801,1.45113,0.00766825,0.0156854,615,967,-40.916,-3.45389
-602,57,-40.909,3.15186,-0.00746375,0.00377411,0.000370796,0.00378633,-0.00747597,1.53785,0.00661758,0.0113819,622,967,-40.909,-3.15184
-595,57,-40.8951,2.88556,-0.00722104,0.00237911,-0.000740934,0.00243595,-0.00727789,-1.49422,0.00583591,0.0151111,629,967,-40.8951,-2.88554
-588,57,-40.6257,2.77264,0,0,0,0,0,0,0,-1,636,967,-40.6257,-2.77264
-581,57,-41.0792,1.77594,0,0,0,0,0,0,0,-1,643,967,-41.0792,-1.77595
-574,57,-41.5327,0.779297,0,0,0,0,0,0,0,-1,650,967,-41.5327,-0.779269
-567,57,-41.5461,0.672119,-0.00654947,0.000169276,-0.00249088,0.000991995,-0.00737218,-1.25179,0.00527663,0.0321033,657,967,-41.5461,-0.672122
-560,57,-41.4746,0.427856,-0.00593804,0.000284687,-0.00247168,0.00114696,-0.00680031,-1.23514,0.00496026,0.0396178,664,967,-41.4746,-0.427828
-553,57,-41.4307,0.44812,-0.00473851,0.000480274,-0.0022867,0.00134045,-0.00559869,-1.211,0.00425033,0.0403025,671,967,-41.4306,-0.448149
-546,57,-41.4277,0.608826,-0.00286751,0.000541577,-0.00193081,0.00141259,-0.00373852,-1.14702,0.0030734,0.0404815,678,967,-41.4278,-0.60883
-539,57,-41.4291,0.674377,-0.000296006,0.00013492,-0.00155358,0.0014879,-0.00164899,-0.854303,0.00181188,0.0426253,685,967,-41.429,-0.674382
-532,57,-41.6549,0.731262,0.00226995,-0.000895875,-0.001692,0.00300403,-0.00162996,-0.409347,0.00271436,0.0407568,692,967,-41.6549,-0.731237
-525,57,-41.6714,0.845032,0.0022986,-0.00235999,-0.0026221,0.00347659,-0.00353798,-0.422232,0.00404991,0.0430812,699,967,-41.6714,-0.845014
-518,57,0,0,0,0,0,0,0,0,0,-1,706,967,0,0
-511,57,0,0,0,0,0,0,0,0,0,-1,713,967,0,0
-504,57,0,0,0,0,0,0,0,0,0,-1,720,967,0,0
-497,57,0,0,0,0,0,0,0,0,0,-1,727,967,0,0
-490,57,0,0,0,0,0,0,0,0,0,-1,734,967,0,0
-483,57,0,0,0,0,0,0,0,0,0,-1,741,967,0,0
-476,57,0,0,0,0,0,0,0,0,0,-1,748,967,0,0
-469,57,0,0,0,0,0,0,0,0,0,-1,755,967,0,0
-462,57,0,0,0,0,0,0,0,0,0,-1,762,967,0,0
-455,57,0,0,0,0,0,0,0,0,0,-1,769,967,0,0
-448,57,0,0,0,0,0,0,0,0,0,-1,776,967,0,0
-441,57,0,0,0,0,0,0,0,0,0,-1,783,967,0,0
-434,57,0,0,0,0,0,0,0,0,0,-1,790,967,0,0
-427,57,0,0,0,0,0,0,0,0,0,-1,797,967,0,0
-420,57,0,0,0,0,0,0,0,0,0,-1,804,967,0,0
-413,57,0,0,0,0,0,0,0,0,0,-1,811,967,0,0
-406,57,0,0,0,0,0,0,0,0,0,-1,818,967,0,0
-399,57,0,0,0,0,0,0,0,0,0,-1,825,967,0,0
-392,57,0,0,0,0,0,0,0,0,0,-1,832,967,0,0
-385,57,0,0,0,0,0,0,0,0,0,-1,839,967,0,0
-378,57,0,0,0,0,0,0,0,0,0,-1,846,967,0,0
-371,57,0,0,0,0,0,0,0,0,0,-1,853,967,0,0
-364,57,0,0,0,0,0,0,0,0,0,-1,860,967,0,0
-357,57,0,0,0,0,0,0,0,0,0,-1,867,967,0,0
-350,57,0,0,0,0,0,0,0,0,0,-1,874,967,0,0
-343,57,0,0,0,0,0,0,0,0,0,-1,881,967,0,0
-336,57,0,0,0,0,0,0,0,0,0,-1,888,967,0,0
-329,57,0,0,0,0,0,0,0,0,0,-1,895,967,0,0
-322,57,0,0,0,0,0,0,0,0,0,-1,902,967,0,0
-315,57,0,0,0,0,0,0,0,0,0,-1,909,967,0,0
-308,57,0,0,0,0,0,0,0,0,0,-1,916,967,0,0
-301,57,0,0,0,0,0,0,0,0,0,-1,923,967,0,0
-294,57,0,0,0,0,0,0,0,0,0,-1,930,967,0,0
-287,57,0,0,0,0,0,0,0,0,0,-1,937,967,0,0
-280,57,0,0,0,0,0,0,0,0,0,-1,944,967,0,0
-273,57,0,0,0,0,0,0,0,0,0,-1,951,967,0,0
-266,57,0,0,0,0,0,0,0,0,0,-1,958,967,0,0
-259,57,0,0,0,0,0,0,0,0,0,-1,965,967,0,0
-252,57,0,0,0,0,0,0,0,0,0,-1,972,967,0,0
-245,57,0,0,0,0,0,0,0,0,0,-1,979,967,0,0
-238,57,0,0,0,0,0,0,0,0,0,-1,986,967,0,0
-231,57,0,0,0,0,0,0,0,0,0,-1,993,967,0,0
-224,57,0,0,0,0,0,0,0,0,0,-1,1000,967,0,0
-217,57,0,0,0,0,0,0,0,0,0,-1,1007,967,0,0
-210,57,0,0,0,0,0,0,0,0,0,-1,1014,967,0,0
-203,57,0,0,0,0,0,0,0,0,0,-1,1021,967,0,0
-196,57,0,0,0,0,0,0,0,0,0,-1,1028,967,0,0
-189,57,0,0,0,0,0,0,0,0,0,-1,1035,967,0,0
-182,57,0,0,0,0,0,0,0,0,0,-1,1042,967,0,0
-175,57,0,0,0,0,0,0,0,0,0,-1,1049,967,0,0
-168,57,0,0,0,0,0,0,0,0,0,-1,1056,967,0,0
-161,57,0,0,0,0,0,0,0,0,0,-1,1063,967,0,0
-154,57,0,0,0,0,0,0,0,0,0,-1,1070,967,0,0
-147,57,0,0,0,0,0,0,0,0,0,-1,1077,967,0,0
-140,57,0,0,0,0,0,0,0,0,0,-1,1084,967,0,0
-133,57,0,0,0,0,0,0,0,0,0,-1,1091,967,0,0
-126,57,0,0,0,0,0,0,0,0,0,-1,1098,967,0,0
-119,57,0,0,0,0,0,0,0,0,0,-1,1105,967,0,0
-112,57,0,0,0,0,0,0,0,0,0,-1,1112,967,0,0
-105,57,0,0,0,0,0,0,0,0,0,-1,1119,967,0,0
-98,57,0,0,0,0,0,0,0,0,0,-1,1126,967,0,0
-91,57,0,0,0,0,0,0,0,0,0,-1,1133,967,0,0
-84,57,0,0,0,0,0,0,0,0,0,-1,1140,967,0,0
-77,57,0,0,0,0,0,0,0,0,0,-1,1147,967,0,0
-70,57,0,0,0,0,0,0,0,0,0,-1,1154,967,0,0
-63,57,0,0,0,0,0,0,0,0,0,-1,1161,967,0,0
-56,57,0,0,0,0,0,0,0,0,0,-1,1168,967,0,0
-49,57,0,0,0,0,0,0,0,0,0,-1,1175,967,0,0
-42,57,0,0,0,0,0,0,0,0,0,-1,1182,967,0,0
-35,57,0,0,0,0,0,0,0,0,0,-1,1189,967,0,0
-28,57,0,0,0,0,0,0,0,0,0,-1,1196,967,0,0
-21,57,0,0,0,0,0,0,0,0,0,-1,1203,967,0,0
-14,57,0,0,0,0,0,0,0,0,0,-1,1210,967,0,0
-7,57,0,0,0,0,0,0,0,0,0,-1,1217,967,0,0
0,57,0,0,0,0,0,0,0,0,0,-1,1224,967,0,0
7,57,0,0,0,0,0,0,0,0,0,-1,1231,967,0,0
14,57,0,0,0,0,0,0,0,0,0,-1,1238,967,0,0
21,57,0,0,0,0,0,0,0,0,0,-1,1245,967,0,0
28,57,0,0,0,0,0,0,0,0,0,-1,1252,967,0,0
35,57,0,0,0,0,0,0,0,0,0,-1,1259,967,0,0
42,57,0,0,0,0,0,0,0,0,0,-1,1266,967,0,0
49,57,0,0,0,0,0,0,0,0,0,-1,1273,967,0,0
56,57,0,0,0,0,0,0,0,0,0,-1,1280,967,0,0
63,57,0,0,0,0,0,0,0,0,0,-1,1287,967,0,0
70,57,0,0,0,0,0,0,0,0,0,-1,1294,967,0,0
77,57,0,0,0,0,0,0,0,0,0,-1,1301,967,0,0
84,57,0,0,0,0,0,0,0,0,0,-1,1308,967,0,0
91,57,0,0,0,0,0,0,0,0,0,-1,1315,967,0,0
98,57,0,0,0,0,0,0,0,0,0,-1,1322,967,0,0
105,57,0,0,0,0,0,0,0,0,0,-1,1329,967,0,0
112,57,0,0,0,0,0,0,0,0,0,-1,1336,967,0,0
119,57,0,0,0,0,0,0,0,0,0,-1,1343,967,0,0
126,57,0,0,0,0,0,0,0,0,0,-1,1350,967,0,0
133,57,0,0,0,0,0,0,0,0,0,-1,1357,967,0,0
140,57,0,0,0,0,0,0,0,0,0,-1,1364,967,0,0
147,57,0,0,0,0,0,0,0,0,0,-1,1371,967,0,0
154,57,0,0,0,0,0,0,0,0,0,-1,1378,967,0,0
161,57,0,0,0,0,0,0,0,0,0,-1,1385,967,0,0
168,57,0,0,0,0,0,0,0,0,0,-1,1392,967,0,0
175,57,0,0,0,0,0,0,0,0,0,-1,1399,967,0,0
182,57,0,0,0,0,0,0,0,0,0,-1,1406,967,0,0
189,57,0,0,0,0,0,0,0,0,0,-1,1413,967,0,0
196,57,0,0,0,0,0,0,0,0,0,-1,1420,967,0,0
203,57,0,0,0,0,0,0,0,0,0,-1,1427,967,0,0
210,57,0,0,0,0,0,0,0,0,0,-1,1434,967,0,0
217,57,0,0,0,0,0,0,0,0,0,-1,1441,967,0,0
224,57,0,0,0,0,0,0,0,0,0,-1,1448,967,0,0
231,57,0,0,0,0,0,0,0,0,0,-1,1455,967,0,0
238,57,0,0,0,0,0,0,0,0,0,-1,1462,967,0,0
245,57,0,0,0,0,0,0,0,0,0,-1,1469,967,0,0
252,57,0,0,0,0,0,0,0,0,0,-1,1476,967,0,0
259,57,0,0,0,0,0,0,0,0,0,-1,1483,967,0,0
266,57,0,0,0,0,0,0,0,0,0,-1,1490,967,0,0
273,57,0,0,0,0,0,0,0,0,0,-1,1497,967,0,0
280,57,0,0,0,0,0,0,0,0,0,-1,1504,967,0,0
287,57,0,0,0,0,0,0,0,0,0,-1,1511,967,0,0
294,57,0,0,0,0,0,0,0,0,0,-1,1518,967,0,0
301,57,0,0,0,0,0,0,0,0,0,-1,1525,967,0,0
308,57,0,0,0,0,0,0,0,0,0,-1,1532,967,0,0
315,57,0,0,0,0,0,0,0,0,0,-1,1539,967,0,0
322,57,0,0,0,0,0,0,0,0,0,-1,1546,967,0,0
329,57,0,0,0,0,0,0,0,0,0,-1,1553,967,0,0
336,57,0,0,0,0,0,0,0,0,0,-1,1560,967,0,0
343,57,0,0,0,0,0,0,0,0,0,-1,1567,967,0,0
350,57,0,0,0,0,0,0,0,0,0,-1,1574,967,0,0
357,57,0,0,0,0,0,0,0,0,0,-1,1581,967,0,0
364,57,0,0,0,0,0,0,0,0,0,-1,1588,967,0,0
371,57,0,0,0,0,0,0,0,0,0,-1,1595,967,0,0
378,57,0,0,0,0,0,0,0,0,0,-1,1602,967,0,0
385,57,0,0,0,0,0,0,0,0,0,-1,1609,967,0,0
392,57,0,0,0,0,0,0,0,0,0,-1,1616,967,0,0
399,57,0,0,0,0,0,0,0,0,0,-1,1623,967,0,0
406,57,0,0,0,0,0,0,0,0,0,-1,1630,967,0,0
413,57,0,0,0,0,0,0,0,0,0,-1,1637,967,0,0
420,57,0,0,0,0,0,0,0,0,0,-1,1644,967,0,0
427,57,0,0,0,0,0,0,0,0,0,-1,1651,967,0,0
434,57,0,0,0,0,0,0,0,0,0,-1,1658,967,0,0
441,57,0,0,0,0,0,0,0,0,0,-1,1665,967,0,0
448,57,0,0,0,0,0,0,0,0,0,-1,1672,967,0,0
455,57,0,0,0,0,0,0,0,0,0,-1,1679,967,0,0
462,57,0,0,0,0,0,0,0,0,0,-1,1686,967,0,0
469,57,0,0,0,0,0,0,0,0,0,-1,1693,967,0,0
476,57,0,0,0,0,0,0,0,0,0,-1,1700,967,0,0
483,57,0,0,0,0,0,0,0,0,0,-1,1707,967,0,0
490,57,0,0,0,0,0,0,0,0,0,-1,1714,967,0,0
497,57,0,0,0,0,0,0,0,0,0,-1,1721,967,0,0
504,57,0,0,0,0,0,0,0,0,0,-1,1728,967,0,0
511,57,0,0,0,0,0,0,0,0,0,-1,1735,967,0,0
518,57,0,0,0,0,0,0,0,0,0,-1,1742,967,0,0
525,57,0,0,0,0,0,0,0,0,0,-1,1749,967,0,0
532,57,0,0,0,0,0,0,0,0,0,-1,1756,967,0,0
539,57,0,0,0,0,0,0,0,0,0,-1,1763,967,0,0
546,57,0,0,0,0,0,0,0,0,0,-1,1770,967,0,0
553,57,0,0,0,0,0,0,0,0,0,-1,1777,967,0,0
560,57,0,0,0,0,0,0,0,0,0,-1,1784,967,0,0
567,57,0,0,0,0,0,0,0,0,0,-1,1791,967,0,0
574,57,0,0,0,0,0,0,0,0,0,-1,1798,967,0,0
581,57,0,0,0,0,0,0,0,0,0,-1,1805,967,0,0
588,57,0,0,0,0,0,0,0,0,0,-1,1812,967,0,0
595,57,0,0,0,0,0,0,0,0,0,-1,1819,967,0,0
602,57,0,0,0,0,0,0,0,0,0,-1,1826,967,0,0
609,57,0,0,0,0,0,0,0,0,0,-1,1833,967,0,0
616,57,0,0,0,0,0,0,0,0,0,-1,1840,967,0,0
623,57,0,0,0,0,0,0,0,0,0,-1,1847,967,0,0
630,57,0,0,0,0,0,0,0,0,0,-1,1854,967,0,0
637,57,0,0,0,0,0,0,0,0,0,-1,1861,967,0,0
644,57,55.1824,2.66577,0.00621899,0.00287714,0.00297176,0.00795737,0.00113877,0.529292,0.00496901,0.0417056,1868,967,55.1823,-2.6658
651,57,55.298,2.67999,0.00431919,0.00196406,0.00206801,0.00552139,0.000761853,0.526582,0.00345509,0.0356225,1875,967,55.298,-2.68002
658,57,55.1644,2.65387,0.00287326,0.0014617,0.00164373,0.00395633,0.000378635,0.582612,0.00252084,0.0355311,1882,967,55.1644,-2.65386
665,57,55.0922,2.64789,0.00173636,0.00138524,0.00171623,0.00328599,-0.000164383,0.734428,0.00224746,0.0453318,1889,967,55.0922,-2.64787
672,57,55.2107,2.71222,0.000658916,0.00142013,0.00209517,0.00316898,-0.00108993,0.875248,0.00255468,0.0496188,1896,967,55.2107,-2.71224
679,57,55.2141,2.57727,-0.000154717,0.00141401,0.00265704,0.00340004,-0.00214075,0.928922,0.0032264,0.0435494,1903,967,55.2141,-2.57729
686,57,55.202,2.4455,-0.000576064,0.00125889,0.00305905,0.00353509,-0.00285226,0.931091,0.00369475,0.0353176,1910,967,55.2021,-2.44547
693,57,55.1693,2.48816,-0.000934742,0.000980714,0.00324384,0.00340526,-0.00335928,0.928943,0.00390554,0.0313472,1917,967,55.1693,-2.48813
700,57,55.2349,2.62433,-0.00158741,0.000999494,0.00312255,0.00308589,-0.0036738,0.981754,0.00390763,0.0262412,1924,967,55.2349,-2.62436
707,57,55.193,3.02533,-0.00206588,0.00124044,0.00277427,0.00281676,-0.0036422,1.05409,0.00373922,0.0493463,1931,967,55.193,-3.02536
714,57,55.0938,3.5744,0,0,0,0,0,0,0,-1,1938,967,55.0938,-3.57442
721,57,54.1196,4.85406,0,0,0,0,0,0,0,-1,1945,967,54.1197,-4.85408
728,57,53.6321,5.47894,-0.00361196,0.00325831,0.00187352,0.00373601,-0.00408965,1.32114,0.00451968,0.0249065,1952,967,53.632,-5.47897
735,57,53.6506,5.84503,-0.00434145,0.00498319,0.00140581,0.00519052,-0.00454878,1.42437,0.00562706,0.0300803,1959,967,53.6506,-5.84505
742,57,53.7089,6.06476,-0.00501896,0.00679893,0.000664634,0.00683619,-0.00505622,1.51479,0.00689168,0.0215771,1966,967,53.7089,-6.06477
749,57,53.6752,6.41101,-0.00584928,0.00935245,-0.000223157,0.00935572,-0.00585256,-1.55612,0.00885781,0.0149271,1973,967,53.6752,-6.411
756,57,53.605,6.7243,-0.00694657,0.0130416,-0.000867816,0.0130792,-0.00698418,-1.52749,0.0117604,0.0116012,1980,967,53.605,-6.72428
763,57,53.5261,7.03699,-0.0081376,0.0180593,-0.00104364,0.0181008,-0.00817911,-1.53104,0.015529,0.0122957,1987,967,53.5261,-7.03701
770,57,53.4084,7.3269,-0.00929657,0.024227,-0.000621716,0.0242386,-0.0093081,-1.55226,0.0199974,0.0120318,1994,967,53.4085,-7.32689
777,57,53.3044,7.61145,-0.0106112,0.0310748,0.000227508,0.031076,-0.0106125,1.56534,0.0250168,0.0289697,2001,967,53.3045,-7.61145
784,57,53.1553,7.85492,-0.0115116,0.0391796,0.00192397,0.0392525,-0.0115845,1.53291,0.0307656,0.0497958,2008,967,53.1552,-7.85493
791,57,53.0344,8.15039,0,0,0,0,0,0,0,-1,2015,967,53.0344,-8.15037
798,57,53.6355,7.92041,0,0,0,0,0,0,0,-1,2022,967,53.6354,-7.92043
805,57,53.7283,6.82739,0,0,0,0,0,0,0,-1,2029,967,53.7283,-6.82739
812,57,0,0,0,0,0,0,0,0,0,-1,2036,967,0,0
-700,50,0,0,0,0,0,0,0,0,0,-1,524,974,0,0
-693,50,-39.5575,3.63214,0,0,0,0,0,0,0,-1,531,974,-39.5575,-3.63213
-686,50,-39.4931,3.47437,0.0208515,0.0554247,-0.00698317,0.0567819,0.0194943,-1.37884,0.0333152,0.04124,538,974,-39.4931,-3.47437
-679,50,-39.4669,3.37939,0.0194487,0.0463273,-0.000943618,0.0463604,0.0194156,-1.53575,0.0268836,0.042646,545,974,-39.4669,-3.37941
-672,50,-39.8047,4.13519,0,0,0,0,0,0,0,-1,552,974,-39.8047,-4.13518
-665,50,-41.238,3.09161,0,0,0,0,0,0,0,-1,559,974,-41.2381,-3.09162
-658,50,-41.0791,3.81665,0,0,0,0,0,0,0,-1,566,974,-41.0791,-3.81663
-651,50,-41.0263,4.36639,0.00425353,0.0245835,0.00807579,0.027401,0.00143601,1.23512,0.017808,0.0450176,573,974,-41.0263,-4.3664
-644,50,-41.0614,4.46881,0.00134574,0.0206951,0.00798866,0.023567,-0.00152622,1.22568,0.016244,0.0325083,580,974,-41.0614,-4.46883
-637,50,-41.1531,4.37445,-0.000791288,0.0167671,0.00749884,0.0195337,-0.00355795,1.21734,0.0143562,0.0193377,587,974,-41.1531,-4.37446
-630,50,-41.2228,4.16833,-0.00215935,0.013089,0.00627998,0.0153424,-0.00441274,1.22628,0.0119733,0.0121871,594,974,-41.2228,-4.16833
-623,50,-41.2399,3.97266,-0.00497277,0.00930625,0.00549038,0.0111732,-0.00683975,1.24302,0.0104996,0.0121784,601,974,-41.2399,-3.97266
-616,50,-41.2452,3.7392,-0.00657226,0.00711286,0.00280424,0.00766519,-0.00712458,1.37632,0.00854078,0.0127459,608,974,-41.2453,-3.73918
-609,50,-41.2482,3.43207,-0.00678084,0.0054139,0.000971189,0.00549076,-0.0068577,1.49182,0.00714393,0.0116204,615,974,-41.2483,-3.43209
-602,50,-41.2679,3.15674,-0.00662787,0.0040129,-0.000199559,0.00401664,-0.00663161,-1.55205,0.00620925,0.0111158,622,974,-41.2679,-3.15676
-595,50,-41.2541,2.92358,-0.00632822,0.00260657,-0.00128787,0.0027885,-0.00651015,-1.43046,0.00551005,0.0128769,629,974,-41.2541,-2.92357
-588,50,-41.2437,2.5304,0,0,0,0,0,0,0,-1,636,974,-41.2437,-2.53042
-581,50,-41.422,1.47162,0,0,0,0,0,0,0,-1,643,974,-41.422,-1.47164
-574,50,-41.5897,0.473511,0,0,0,0,0,0,0,-1,650,974,-41.5897,-0.473504
-567,50,-41.4678,0.690613,-0.00565573,0.000218194,-0.00281665,0.00135054,-0.00678807,-1.18855,0.00503629,0.0355446,657,974,-41.4678,-0.690625
-560,50,-41.4164,0.533508,-0.00508951,0.000336664,-0.00269601,0.0014484,-0.00620125,-1.17968,0.00469209,0.0404221,664,974,-41.4164,-0.533495
-553,50,-41.3872,0.375427,-0.00397445,0.000547608,-0.002386,0.00157372,-0.00500056,-1.16465,0.00396381,0.0396149,671,974,-41.3872,-0.375439
-546,50,-41.3827,0.560364,-0.00221114,0.000595506,-0.00188091,0.00153892,-0.00315455,-1.10589,0.00276277,0.0397169,678,974,-41.3827,-0.560352
-539,50,-41.3962,0.579041,0.000257063,0.000179673,-0.0014114,0.0016303,-0.00119357,-0.771694,0.00163685,0.0434825,685,974,-41.3962,-0.579017
-532,50,-41.4542,0.475464,0.00262051,-0.000849028,-0.00159302,0.00324097,-0.00146949,-0.371414,0.00278296,0.0414447,692,974,-41.4542,-0.475461
-525,50,-41.457,0.503662,0.00247247,-0.00225257,-0.00250365,0.0035523,-0.0033324,-0.407196,0.00397556,0.0412387,699,974,-41.4569,-0.503641
-518,50,0,0,0,0,0,0,0,0,0,-1,706,974,0,0
-511,50,0,0,0,0,0,0,0,0,0,-1,713,974,0,0
-504,50,0,0,0,0,0,0,0,0,0,-1,720,974,0,0
-497,50,0,0,0,0,0,0,0,0,0,-1,727,974,0,0
-490,50,0,0,0,0,0,0,0,0,0,-1,734,974,0,0
-483,50,0,0,0,0,0,0,0,0,0,-1,741,974,0,0
-476,50,0,0,0,0,0,0,0,0,0,-1,748,974,0,0
-469,50,0,0,0,0,0,0,0,0,0,-1,755,974,0,0
-462,50,0,0,0,0,0,0,0,0,0,-1,762,974,0,0
-455,50,0,0,0,0,0,0,0,0,0,-1,769,974,0,0
-448,50,0,0,0,0,0,0,0,0,0,-1,776,974,0,0
-441,50,0,0,0,0,0,0,0,0,0,-1,783,974,0,0
-434,50,0,0,0,0,0,0,0,0,0,-1,790,974,0,0
-427,50,0,0,0,0,0,0,0,0,0,-1,797,974,0,0
-420,50,0,0,0,0,0,0,0,0,0,-1,804,974,0,0
-413,50,0,0,0,0,0,0,0,0,0,-1,811,974,0,0
-406,50,0,0,0,0,0,0,0,0,0,-1,818,974,0,0
-399,50,0,0,0,0,0,0,0,0,0,-1,825,974,0,0
-392,50,0,0,0,0,0,0,0,0,0,-1,832,974,0,0
-385,50,0,0,0,0,0,0,0,0,0,-1,839,974,0,0
-378,50,0,0,0,0,0,0,0,0,0,-1,846,974,0,0
-371,50,0,0,0,0,0,0,0,0,0,-1,853,974,0,0
-364,50,0,0,0,0,0,0,0,0,0,-1,860,974,0,0
-357,50,0,0,0,0,0,0,0,0,0,-1,867,974,0,0
-350,50,0,0,0,0,0,0,0,0,0,-1,874,974,0,0
-343,50,0,0,0,0,0,0,0,0,0,-1,881,974,0,0
-336,50,0,0,0,0,0,0,0,0,0,-1,888,974,0,0
-329,50,0,0,0,0,0,0,0,0,0,-1,895,974,0,0
-322,50,0,0,0,0,0,0,0,0,0,-1,902,974,0,0
-315,50,0,0,0,0,0,0,0,0,0,-1,909,974,0,0
-308,50,0,0,0,0,0,0,0,0,0,-1,916,974,0,0
-301,50,0,0,0,0,0,0,0,0,0,-1,923,974,0,0
-294,50,0,0,0,0,0,0,0,0,0,-1,930,974,0,0
-287,50,0,0,0,0,0,0,0,0,0,-1,937,974,0,0
-280,50,0,0,0,0,0,0,0,0,0,-1,944,974,0,0
-273,50,0,0,0,0,0,0,0,0,0,-1,951,974,0,0
-266,50,0,0,0,0,0,0,0,0,0,-1,958,974,0,0
-259,50,0,0,0,0,0,0,0,0,0,-1,965,974,0,0
-252,50,0,0,0,0,0,0,0,0,0,-1,972,974,0,0
-245,50,0,0,0,0,0,0,0,0,0,-1,979,974,0,0
-238,50,0,0,0,0,0,0,0,0,0,-1,986,974,0,0
-231,50,0,0,0,0,0,0,0,0,0,-1,993,974,0,0
-224,50,0,0,0,0,0,0,0,0,0,-1,1000,974,0,0
-217,50,0,0,0,0,0,0,0,0,0,-1,1007,974,0,0
-210,50,0,0,0,0,0,0,0,0,0,-1,1014,974,0,0
-203,50,0,0,0,0,0,0,0,0,0,-1,1021,974,0,0
-196,50,0,0,0,0,0,0,0,0,0,-1,1028,974,0,0
-189,50,0,0,0,0,0,0,0,0,0,-1,1035,974,0,0
-182,50,0,0,0,0,0,0,0,0,0,-1,1042,974,0,0
-175,50,0,0,0,0,0,0,0,0,0,-1,1049,974,0,0
-168,50,0,0,0,0,0,0,0,0,0,-1,1056,974,0,0
-161,50,0,0,0,0,0,0,0,0,0,-1,1063,974,0,0
-154,50,0,0,0,0,0,0,0,0,0,-1,1070,974,0,0
-147,50,0,0,0,0,0,0,0,0,0,-1,1077,974,0,0
-140,50,0,0,0,0,0,0,0,0,0,-1,1084,974,0,0
-133,50,0,0,0,0,0,0,0,0,0,-1,1091,974,0,0
-126,50,0,0,0,0,0,0,0,0,0,-1,1098,974,0,0
-119,50,0,0,0,0,0,0,0,0,0,-1,1105,974,0,0
-112,50,0,0,0,0,0,0,0,0,0,-1,1112,974,0,0
-105,50,0,0,0,0,0,0,0,0,0,-1,1119,974,0,0
-98,50,0,0,0,0,0,0,0,0,0,-1,1126,974,0,0
-91,50,0,0,0,0,0,0,0,0,0,-1,1133,974,0,0
-84,50,0,0,0,0,0,0,0,0,0,-1,1140,974,0,0
-77,50,0,0,0,0,0,0,0,0,0,-1,1147,974,0,0
-70,50,0,0,0,0,0,0,0,0,0,-1,1154,974,0,0
-63,50,0,0,0,0,0,0,0,0,0,-1,1161,974,0,0
-56,50,0,0,0,0,0,0,0,0,0,-1,1168,974,0,0
-49,50,0,0,0,0,0,0,0,0,0,-1,1175,974,0,0
-42,50,0,0,0,0,0,0,0,0,0,-1,1182,974,0,0
-35,50,0,0,0,0,0,0,0,0,0,-1,1189,974,0,0
-28,50,0,0,0,0,0,0,0,0,0,-1,1196,974,0,0
-21,50,0,0,0,0,0,0,0,0,0,-1,1203,974,0,0
-14,50,0,0,0,0,0,0,0,0,0,-1,1210,974,0,0
-7,50,0,0,0,0,0,0,0,0,0,-1,1217,974,0,0
0,50,0,0,0,0,0,0,0,0,0,-1,1224,974,0,0
7,50,0,0,0,0,0,0,0,0,0,-1,1231,974,0,0
14,50,0,0,0,0,0,0,0,0,0,-1,1238,974,0,0
21,50,0,0,0,0,0,0,0,0,0,-1,1245,974,0,0
28,50,0,0,0,0,0,0,0,0,0,-1,1252,974,0,0
35,50,0,0,0,0,0,0,0,0,0,-1,1259,974,0,0
42,50,0,0,0,0,0,0,0,0,0,-1,1266,974,0,0
49,50,0,0,0,0,0,0,0,0,0,-1,1273,974,0,0
56,50,0,0,0,0,0,0,0,0,0,-1,1280,974,0,0
63,50,0,0,0,0,0,0,0,0,0,-1,1287,974,0,0
70,50,0,0,0,0,0,0,0,0,0,-1,1294,974,0,0
77,50,0,0,0,0,0,0,0,0,0,-1,1301,974,0,0
84,50,0,0,0,0,0,0,0,0,0,-1,1308,974,0,0
91,50,0,0,0,0,0,0,0,0,0,-1,1315,974,0,0
98,50,0,0,0,0,0,0,0,0,0,-1,1322,974,0,0
105,50,0,0,0,0,0,0,0,0,0,-1,1329,974,0,0
112,50,0,0,0,0,0,0,0,0,0,-1,1336,974,0,0
119,50,0,0,0,0,0,0,0,0,0,-1,1343,974,0,0
126,50,0,0,0,0,0,0,0,0,0,-1,1350,974,0,0
133,50,0,0,0,0,0,0,0,0,0,-1,1357,974,0,0
140,50,0,0,0,0,0,0,0,0,0,-1,1364,974,0,0
147,50,0,0,0,0,0,0,0,0,0,-1,1371,974,0,0
154,50,0,0,0,0,0,0,0,0,0,-1,1378,974,0,0
161,50,0,0,0,0,0,0,0,0,0,-1,1385,974,0,0
168,50,0,0,0,0,0,0,0,0,0,-1,1392,974,0,0
175,50,0,0,0,0,0,0,0,0,0,-1,1399,974,0,0
182,50,0,0,0,0,0,0,0,0,0,-1,1406,974,0,0
189,50,0,0,0,0,0,0,0,0,0,-1,1413,974,0,0
196,50,0,0,0,0,0,0,0,0,0,-1,1420,974,0,0
203,50,0,0,0,0,0,0,0,0,0,-1,1427,974,0,0
210,50,0,0,0,0,0,0,0,0,0,-1,1434,974,0,0
217,50,0,0,0,0,0,0,0,0,0,-1,1441,974,0,0
224,50,0,0,0,0,0,0,0,0,0,-1,1448,974,0,0
231,50,0,0,0,0,0,0,0,0,0,-1,1455,974,0,0
238,50,0,0,0,0,0,0,0,0,0,-1,1462,974,0,0
245,50,0,0,0,0,0,0,0,0,0,-1,1469,974,0,0
252,50,0,0,0,0,0,0,0,0,0,-1,1476,974,0,0
259,50,0,0,0,0,0,0,0,0,0,-1,1483,974,0,0
266,50,0,0,0,0,0,0,0,0,0,-1,1490,974,0,0
273,50,0,0,0,0,0,0,0,0,0,-1,1497,974,0,0
280,50,0,0,0,0,0,0,0,0,0,-1,1504,974,0,0
287,50,0,0,0,0,0,0,0,0,0,-1,1511,974,0,0
294,50,0,0,0,0,0,0,0,0,0,-1,1518,974,0,0
301,50,0,0,0,0,0,0,0,0,0,-1,1525,974,0,0
308,50,0,0,0,0,0,0,0,0,0,-1,1532,974,0,0
315,50,0,0,0,0,0,0,0,0,0,-1,1539,974,0,0
322,50,0,0,0,0,0,0,0,0,0,-1,1546,974,0,0
329,50,0,0,0,0,0,0,0,0,0,-1,1553,974,0,0
336,50,0,0,0,0,0,0,0,0,0,-1,1560,974,0,0
343,50,0,0,0,0,0,0,0,0,0,-1,1567,974,0,0
350,50,0,0,0,0,0,0,0,0,0,-1,1574,974,0,0
357,50,0,0,0,0,0,0,0,0,0,-1,1581,974,0,0
364,50,0,0,0,0,0,0,0,0,0,-1,1588,974,0,0
371,50,0,0,0,0,0,0,0,0,0,-1,1595,974,0,0
378,50,0,0,0,0,0,0,0,0,0,-1,1602,974,0,0
385,50,0,0,0,0,0,0,0,0,0,-1,1609,974,0,0
392,50,0,0,0,0,0,0,0,0,0,-1,1616,974,0,0
399,50,0,0,0,0,0,0,0,0,0,-1,1623,974,0,0
406,50,0,0,0,0,0,0,0,0,0,-1,1630,974,0,0
413,50,0,0,0,0,0,0,0,0,0,-1,1637,974,0,0
420,50,0,0,0,0,0,0,0,0,0,-1,1644,974,0,0
427,50,0,0,0,0,0,0,0,0,0,-1,1651,974,0,0
434,50,0,0,0,0,0,0,0,0,0,-1,1658,974,0,0
441,50,0,0,0,0,0,0,0,0,0,-1,1665,974,0,0
448,50,0,0,0,0,0,0,0,0,0,-1,1672,974,0,0
455,50,0,0,0,0,0,0,0,0,0,-1,1679,974,0,0
462,50,0,0,0,0,0,0,0,0,0,-1,1686,974,0,0
469,50,0,0,0,0,0,0,0,0,0,-1,1693,974,0,0
476,50,0,0,0,0,0,0,0,0,0,-1,1700,974,0,0
483,50,0,0,0,0,0,0,0,0,0,-1,1707,974,0,0
490,50,0,0,0,0,0,0,0,0,0,-1,1714,974,0,0
497,50,0,0,0,0,0,0,0,0,0,-1,1721,974,0,0
504,50,0,0,0,0,0,0,0,0,0,-1,1728,974,0,0
511,50,0,0,0,0,0,0,0,0,0,-1,1735,974,0,0
518,50,0,0,0,0,0,0,0,0,0,-1,1742,974,0,0
525,50,0,0,0,0,0,0,0,0,0,-1,1749,974,0,0
532,50,0,0,0,0,0,0,0,0,0,-1,1756,974,0,0
539,50,0,0,0,0,0,0,0,0,0,-1,1763,974,0,0
546,50,0,0,0,0,0,0,0,0,0,-1,1770,974,0,0
553,50,0,0,0,0,0,0,0,0,0,-1,1777,974,0,0
560,50,0,0,0,0,0,0,0,0,0,-1,1784,974,0,0
567,50,0,0,0,0,0,0,0,0,0,-1,1791,974,0,0
574,50,0,0,0,0,0,0,0,0,0,-1,1798,974,0,0
581,50,0,0,0,0,0,0,0,0,0,-1,1805,974,0,0
588,50,0,0,0,0,0,0,0,0,0,-1,1812,974,0,0
595,50,0,0,0,0,0,0,0,0,0,-1,1819,974,0,0
602,50,0,0,0,0,0,0,0,0,0,-1,1826,974,0,0
609,50,0,0,0,0,0,0,0,0,0,-1,1833,974,0,0
616,50,0,0,0,0,0,0,0,0,0,-1,1840,974,0,0
623,50,0,0,0,0,0,0,0,0,0,-1,1847,974,0,0
630,50,0,0,0,0,0,0,0,0,0,-1,1854,974,0,0
637,50,0,0,0,0,0,0,0,0,0,-1,1861,974,0,0
644,50,55.2346,2.67993,0.00627596,0.00195398,0.00338182,0.00812826,0.000101669,0.501095,0.00538527,0.0382492,1868,974,55.2346,-2.67994
651,50,55.2631,2.65717,0.00443617,0.00122588,0.00215757,0.00552019,0.000141858,0.465586,0.00363376,0.0313592,1875,974,55.2631,-2.65716
658,50,55.1996,2.70367,0.00305234,0.000821775,0.00151113,0.00381519,5.89252e-05,0.467495,0.00252405,0.0358876,1882,974,55.1995,-2.70368
665,50,55.1687,2.61401,0.001979,0.000818271,0.00145872,0.00296857,-0.000171299,0.596069,0.00203855,0.0428014,1889,974,55.1687,-2.614
672,50,55.1987,2.45654,0.000954263,0.000935825,0.00178272,0.00272779,-0.000837703,0.782812,0.00215279,0.0444877,1896,974,55.1987,-2.45652
679,50,55.2533,2.40277,0.000157465,0.00103017,0.00236773,0.00300143,-0.00181379,0.876522,0.00280811,0.0416527,1903,974,55.2533,-2.40274
686,50,55.2101,2.39349,-0.000285408,0.000938388,0.00285585,0.00324715,-0.00259417,0.890933,0.00337951,0.0404825,1910,974,55.2101,-2.39351
693,50,55.1619,2.49817,-0.000652147,0.000744867,0.00313476,0.003258,-0.00316528,0.89502,0.00370862,0.0385973,1917,974,55.1619,-2.49815
700,50,55.172,2.67291,-0.00126759,0.000801418,0.0030952,0.00303042,-0.00349659,0.946676,0.00377158,0.0227012,1924,974,55.1719,-2.67293
707,50,55.2264,2.86469,-0.00176696,0.00108213,0.00283591,0.00283118,-0.00351601,1.01815,0.00367166,0.0363211,1931,974,55.2265,-2.86471
714,50,55.1746,3.10376,0,0,0,0,0,0,0,-1,1938,974,55.1746,-3.10376
721,50,53.9871,5.10114,0,0,0,0,0,0,0,-1,1945,974,53.9871,-5.10113
728,50,53.9955,5.47266,-0.00366087,0.00337892,0.00204976,0.00393225,-0.0042142,1.30713,0.0047043,0.0237745,1952,974,53.9955,-5.47264
735,50,54.0494,5.77777,-0.00445832,0.00515693,0.00161443,0.00542076,-0.00472215,1.40881,0.00586064,0.0204748,1959,974,54.0494,-5.77776
742,50,54.0702,6.08813,-0.0052428,0.00699573,0.000916445,0.00706398,-0.00531105,1.49647,0.00716858,0.0158195,1966,974,54.0702,-6.08812
749,50,54.0063,6.35553,-0.00622244,0.00950329,4.1838e-05,0.0095034,-0.00622255,1.56814,0.00914501,0.0165481,1973,974,54.0063,-6.35555
756,50,53.9512,6.64142,-0.00746117,0.0130142,-0.000676503,0.0130365,-0.00748349,-1.5378,0.011991,0.0136475,1980,974,53.9512,-6.64142
763,50,53.8794,6.93085,-0.00881516,0.0177969,-0.0010245,0.0178363,-0.00885454,-1.53237,0.0156981,0.0135967,1987,974,53.8794,-6.93083
770,50,53.7941,7.19281,-0.0101408,0.0238175,-0.000758934,0.0238344,-0.0101578,-1.54846,0.020148,0.0127979,1994,974,53.794,-7.19281
777,50,53.7344,7.46716,-0.0115117,0.0304137,-7.88624e-05,0.0304139,-0.0115119,-1.56892,0.0250124,0.02513,2001,974,53.7344,-7.46713
784,50,53.5229,7.72314,-0.0123731,0.0380956,0.00143831,0.0381366,-0.012414,1.54233,0.0304188,0.0424687,2008,974,53.523,-7.72313
791,50,53.3594,7.99261,0,0,0,0,0,0,0,-1,2015,974,53.3593,-7.99259
798,50,53.5244,8.28876,0,0,0,0,0,0,0,-1,2022,974,53.5244,-8.28874
805,50,53.1201,6.52881,0,0,0,0,0,0,0,-1,2029,974,53.1201,-6.52879
812,50,0,0,0,0,0,0,0,0,0,-1,2036,974,0,0
-700,43,0,0,0,0,0,0,0,0,0,-1,524,981,0,0
-693,43,-45.7248,4.716,0,0,0,0,0,0,0,-1,531,981,-45.7248,-4.71602
-686,43,-39.6043,2.99567,0,0,0,0,0,0,0,-1,538,981,-39.6043,-2.99568
-679,43,-43.8723,6.14777,0,0,0,0,0,0,0,-1,545,981,-43.8723,-6.14776
-672,43,-40.537,1.22693,0,0,0,0,0,0,0,-1,552,981,-40.5371,-1.22696
-665,43,-41.0924,2.52496,0,0,0,0,0,0,0,-1,559,981,-41.0924,-2.52496
-658,43,-41.1208,4.17542,0,0,0,0,0,0,0,-1,566,981,-41.1208,-4.17541
-651,43,-41.2167,4.27448,0.00892185,0.0222833,0.00667552,0.0250468,0.00615828,1.17829,0.0150706,0.042793,573,981,-41.2167,-4.27449
-644,43,-41.3387,4.40942,0.00499715,0.0188158,0.00686545,0.0216467,0.00216619,1.17969,0.013766,0.026596,580,981,-41.3387,-4.40945
-637,43,-41.4489,4.25153,0.00199414,0.0153132,0.00666477,0.0180754,-0.000768026,1.1779,0.0123142,0.0199258,587,981,-41.4488,-4.25151
-630,43,-41.4813,4.06207,-0.000120415,0.0120374,0.00562482,0.0142405,-0.00232352,1.19749,0.0103554,0.0157062,594,981,-41.4813,-4.0621
-623,43,-41.4831,3.8844,-0.00361446,0.00865814,0.0050085,0.0104426,-0.00539897,1.22852,0.0092994,0.0129457,601,981,-41.4831,-3.8844
-616,43,-41.4891,3.65448,-0.00581341,0.00685307,0.00226297,0.00724523,-0.00620556,1.39921,0.00777355,0.0122142,608,981,-41.4892,-3.65447
-609,43,-41.5151,3.40137,-0.00610229,0.00543283,0.000409286,0.00544733,-0.00611679,1.53537,0.00668028,0.0138467,615,981,-41.5151,-3.40139
-602,43,-41.5186,3.19104,-0.0057487,0.00424477,-0.00072124,0.00429656,-0.00580049,-1.49912,0.00585105,0.0155498,622,981,-41.5186,-3.19101
-595,43,-41.5792,2.98895,-0.00537108,0.00283833,-0.00175616,0.00319822,-0.00573098,-1.36866,0.00522395,0.0161424,629,981,-41.5792,-2.98897
-588,43,-41.7249,2.84863,0,0,0,0,0,0,0,-1,636,981,-41.7249,-2.84862
-581,43,-41.5273,1.23071,0,0,0,0,0,0,0,-1,643,981,-41.5273,-1.23071
-574,43,-41.4774,0.215698,0,0,0,0,0,0,0,-1,650,981,-41.4773,-0.215724
-567,43,-41.4595,0.82074,-0.00460906,0.000279156,-0.00301606,0.00171709,-0.006047,-1.12591,0.00470923,0.037876,657,981,-41.4595,-0.820738
-560,43,-41.4478,0.748352,-0.00413207,0.000363959,-0.00279601,0.00170359,-0.00547171,-1.12399,0.00432889,0.0405321,664,981,-41.4478,-0.748379
-553,43,-41.5045,0.539429,-0.00319318,0.00056116,-0.00235842,0.00169827,-0.00433029,-1.12153,0.00358946,0.0399353,671,981,-41.5045,-0.539423
-546,43,-41.6015,0.671997,-0.001694,0.000604229,-0.0016911,0.00149969,-0.00258946,-1.08382,0.00238866,0.0420083,678,981,-41.6015,-0.672009
-539,43,-41.3951,0.742737,0.000425667,0.000312505,-0.00110191,0.00147244,-0.000734272,-0.759746,0.00129759,0.0453533,685,981,-41.3951,-0.742766
-532,43,-41.4922,0.657471,0.00235487,-0.000475116,-0.00121129,0.00280252,-0.000922762,-0.353994,0.00224021,0.0433394,692,981,-41.4923,-0.657443
-525,43,-41.5018,0.357483,0.00193582,-0.00141909,-0.00190462,0.00279636,-0.00227963,-0.424364,0.00293568,0.0428468,699,981,-41.5017,-0.357509
-518,43,0,0,0,0,0,0,0,0,0,-1,706,981,0,0
-511,43,0,0,0,0,0,0,0,0,0,-1,713,981,0,0
-504,43,0,0,0,0,0,0,0,0,0,-1,720,981,0,0
-497,43,0,0,0,0,0,0,0,0,0,-1,727,981,0,0
-490,43,0,0,0,0,0,0,0,0,0,-1,734,981,0,0
-483,43,0,0,0,0,0,0,0,0,0,-1,741,981,0,0
-476,43,0,0,0,0,0,0,0,0,0,-1,748,981,0,0
-469,43,0,0,0,0,0,0,0,0,0,-1,755,981,0,0
-462,43,0,0,0,0,0,0,0,0,0,-1,762,981,0,0
-455,43,0,0,0,0,0,0,0,0,0,-1,769,981,0,0
-448,43,0,0,0,0,0,0,0,0,0,-1,776,981,0,0
-441,43,0,0,0,0,0,0,0,0,0,-1,783,981,0,0
-434,43,0,0,0,0,0,0,0,0,0,-1,790,981,0,0
-427,43,0,0,0,0,0,0,0,0,0,-1,797,981,0,0
-420,43,0,0,0,0,0,0,0,0,0,-1,804,981,0,0
-413,43,0,0,0,0,0,0,0,0,0,-1,811,981,0,0
-406,43,0,0,0,0,0,0,0,0,0,-1,818,981,0,0
-399,43,0,0,0,0,0,0,0,0,0,-1,825,981,0,0
-392,43,0,0,0,0,0,0,0,0,0,-1,832,981,0,0
-385,43,0,0,0,0,0,0,0,0,0,-1,839,981,0,0
-378,43,0,0,0,0,0,0,0,0,0,-1,846,981,0,0
-371,43,0,0,0,0,0,0,0,0,0,-1,853,981,0,0
-364,43,0,0,0,0,0,0,0,0,0,-1,860,981,0,0
-357,43,0,0,0,0,0,0,0,0,0,-1,867,981,0,0
-350,43,0,0,0,0,0,0,0,0,0,-1,874,981,0,0
-343,43,0,0,0,0,0,0,0,0,0,-1,881,981,0,0
-336,43,0,0,0,0,0,0,0,0,0,-1,888,981,0,0
-329,43,0,0,0,0,0,0,0,0,0,-1,895,981,0,0
-322,43,0,0,0,0,0,0,0,0,0,-1,902,981,0,0
-315,43,0,0,0,0,0,0,0,0,0,-1,909,981,0,0
-308,43,0,0,0,0,0,0,0,0,0,-1,916,981,0,0
-301,43,0,0,0,0,0,0,0,0,0,-1,923,981,0,0
-294,43,0,0,0,0,0,0,0,0,0,-1,930,981,0,0
-287,43,0,0,0,0,0,0,0,0,0,-1,937,981,0,0
-280,43,0,0,0,0,0,0,0,0,0,-1,944,981,0,0
-273,43,0,0,0,0,0,0,0,0,0,-1,951,981,0,0
-266,43,0,0,0,0,0,0,0,0,0,-1,958,981,0,0
-259,43,0,0,0,0,0,0,0,0,0,-1,965,981,0,0
-252,43,0,0,0,0,0,0,0,0,0,-1,972,981,0,0
-245,43,0,0,0,0,0,0,0,0,0,-1,979,981,0,0
-238,43,0,0,0,0,0,0,0,0,0,-1,986,981,0,0
-231,43,0,0,0,0,0,0,0,0,0,-1,993,981,0,0
-224,43,0,0,0,0,0,0,0,0,0,-1,1000,981,0,0
-217,43,0,0,0,0,0,0,0,0,0,-1,1007,981,0,0
-210,43,0,0,0,0,0,0,0,0,0,-1,1014,981,0,0
-203,43,0,0,0,0,0,0,0,0,0,-1,1021,981,0,0
-196,43,0,0,0,0,0,0,0,0,0,-1,1028,981,0,0
-189,43,0,0,0,0,0,0,0,0,0,-1,1035,981,0,0
-182,43,0,0,0,0,0,0,0,0,0,-1,1042,981,0,0
-175,43,0,0,0,0,0,0,0,0,0,-1,1049,981,0,0
-168,43,0,0,0,0,0,0,0,0,0,-1,1056,981,0,0
-161,43,0,0,0,0,0,0,0,0,0,-1,1063,981,0,0
-154,43,0,0,0,0,0,0,0,0,0,-1,1070,981,0,0
-147,43,0,0,0,0,0,0,0,0,0,-1,1077,981,0,0
-140,43,0,0,0,0,0,0,0,0,0,-1,1084,981,0,0
-133,43,0,0,0,0,0,0,0,0,0,-1,1091,981,0,0
-126,43,0,0,0,0,0,0,0,0,0,-1,1098,981,0,0
-119,43,0,0,0,0,0,0,0,0,0,-1,1105,981,0,0
-112,43,0,0,0,0,0,0,0,0,0,-1,1112,981,0,0
-105,43,0,0,0,0,0,0,0,0,0,-1,1119,981,0,0
-98,43,0,0,0,0,0,0,0,0,0,-1,1126,981,0,0
-91,43,0,0,0,0,0,0,0,0,0,-1,1133,981,0,0
-84,43,0,0,0,0,0,0,0,0,0,-1,1140,981,0,0
-77,43,0,0,0,0,0,0,0,0,0,-1,1147,981,0,0
-70,43,0,0,0,0,0,0,0,0,0,-1,1154,981,0,0
-63,43,0,0,0,0,0,0,0,0,0,-1,1161,981,0,0
-56,43,0,0,0,0,0,0,0,0,0,-1,1168,981,0,0
-49,43,0,0,0,0,0,0,0,0,0,-1,1175,981,0,0
-42,43,0,0,0,0,0,0,0,0,0,-1,1182,981,0,0
-35,43,0,0,0,0,0,0,0,0,0,-1,1189,981,0,0
-28,43,0,0,0,0,0,0,0,0,0,-1,1196,981,0,0
-21,43,0,0,0,0,0,0,0,0,0,-1,1203,981,0,0
-14,43,0,0,0,0,0,0,0,0,0,-1,1210,981,0,0
-7,43,0,0,0,0,0,0,0,0,0,-1,1217,981,0,0
0,43,0,0,0,0,0,0,0,0,0,-1,1224,981,0,0
7,43,0,0,0,0,0,0,0,0,0,-1,1231,981,0,0
14,43,0,0,0,0,0,0,0,0,0,-1,1238,981,0,0
21,43,0,0,0,0,0,0,0,0,0,-1,1245,981,0,0
28,43,0,0,0,0,0,0,0,0,0,-1,1252,981,0,0
35,43,0,0,0,0,0,0,0,0,0,-1,1259,981,0,0
42,43,0,0,0,0,0,0,0,0,0,-1,1266,981,0,0
49,43,0,0,0,0,0,0,0,0,0,-1,1273,981,0,0
56,43,0,0,0,0,0,0,0,0,0,-1,1280,981,0,0
63,43,0,0,0,0,0,0,0,0,0,-1,1287,981,0,0
70,43,0,0,0,0,0,0,0,0,0,-1,1294,981,0,0
77,43,0,0,0,0,0,0,0,0,0,-1,1301,981,0,0
84,43,0,0,0,0,0,0,0,0,0,-1,1308,981,0,0
91,43,0,0,0,0,0,0,0,0,0,-1,1315,981,0,0
98,43,0,0,0,0,0,0,0,0,0,-1,1322,981,0,0
105,43,0,0,0,0,0,0,0,0,0,-1,1329,981,0,0
112,43,0,0,0,0,0,0,0,0,0,-1,1336,981,0,0
119,43,0,0,0,0,0,0,0,0,0,-1,1343,981,0,0
126,43,0,0,0,0,0,0,0,0,0,-1,1350,981,0,0
133,43,0,0,0,0,0,0,0,0,0,-1,1357,981,0,0
140,43,0,0,0,0,0,0,0,0,0,-1,1364,981,0,0
147,43,0,0,0,0,0,0,0,0,0,-1,1371,981,0,0
154,43,0,0,0,0,0,0,0,0,0,-1,1378,981,0,0
161,43,0,0,0,0,0,0,0,0,0,-1,1385,981,0,0
168,43,0,0,0,0,0,0,0,0,0,-1,1392,981,0,0
175,43,0,0,0,0,0,0,0,0,0,-1,1399,981,0,0
182,43,0,0,0,0,0,0,0,0,0,-1,1406,981,0,0
189,43,0,0,0,0,0,0,0,0,0,-1,1413,981,0,0
196,43,0,0,0,0,0,0,0,0,0,-1,1420,981,0,0
203,43,0,0,0,0,0,0,0,0,0,-1,1427,981,0,0
210,43,0,0,0,0,0,0,0,0,0,-1,1434,981,0,0
217,43,0,0,0,0,0,0,0,0,0,-1,1441,981,0,0
224,43,0,0,0,0,0,0,0,0,0,-1,1448,981,0,0
231,43,0,0,0,0,0,0,0,0,0,-1,1455,981,0,0
238,43,0,0,0,0,0,0,0,0,0,-1,1462,981,0,0
245,43,0,0,0,0,0,0,0,0,0,-1,1469,981,0,0
252,43,0,0,0,0,0,0,0,0,0,-1,1476,981,0,0
259,43,0,0,0,0,0,0,0,0,0,-1,1483,981,0,0
266,43,0,0,0,0,0,0,0,0,0,-1,1490,981,0,0
273,43,0,0,0,0,0,0,0,0,0,-1,1497,981,0,0
280,43,0,0,0,0,0,0,0,0,0,-1,1504,981,0,0
287,43,0,0,0,0,0,0,0,0,0,-1,1511,981,0,0
294,43,0,0,0,0,0,0,0,0,0,-1,1518,981,0,0
301,43,0,0,0,0,0,0,0,0,0,-1,1525,981,0,0
308,43,0,0,0,0,0,0,0,0,0,-1,1532,981,0,0
315,43,0,0,0,0,0,0,0,0,0,-1,1539,981,0,0
322,43,0,0,0,0,0,0,0,0,0,-1,1546,981,0,0
329,43,0,0,0,0,0,0,0,0,0,-1,1553,981,0,0
336,43,0,0,0,0,0,0,0,0,0,-1,1560,981,0,0
343,43,0,0,0,0,0,0,0,0,0,-1,1567,981,0,0
350,43,0,0,0,0,0,0,0,0,0,-1,1574,981,0,0
357,43,0,0,0,0,0,0,0,0,0,-1,1581,981,0,0
364,43,0,0,0,0,0,0,0,0,0,-1,1588,981,0,0
371,43,0,0,0,0,0,0,0,0,0,-1,1595,981,0,0
378,43,0,0,0,0,0,0,0,0,0,-1,1602,981,0,0
385,43,0,0,0,0,0,0,0,0,0,-1,1609,981,0,0
392,43,0,0,0,0,0,0,0,0,0,-1,1616,981,0,0
399,43,0,0,0,0,0,0,0,0,0,-1,1623,981,0,0
406,43,0,0,0,0,0,0,0,0,0,-1,1630,981,0,0
413,43,0,0,0,0,0,0,0,0,0,-1,1637,981,0,0
420,43,0,0,0,0,0,0,0,0,0,-1,1644,981,0,0
427,43,0,0,0,0,0,0,0,0,0,-1,1651,981,0,0
434,43,0,0,0,0,0,0,0,0,0,-1,1658,981,0,0
441,43,0,0,0,0,0,0,0,0,0,-1,1665,981,0,0
448,43,0,0,0,0,0,0,0,0,0,-1,1672,981,0,0
455,43,0,0,0,0,0,0,0,0,0,-1,1679,981,0,0
462,43,0,0,0,0,0,0,0,0,0,-1,1686,981,0,0
469,43,0,0,0,0,0,0,0,0,0,-1,1693,981,0,0
476,43,0,0,0,0,0,0,0,0,0,-1,1700,981,0,0
483,43,0,0,0,0,0,0,0,0,0,-1,1707,981,0,0
490,43,0,0,0,0,0,0,0,0,0,-1,1714,981,0,0
497,43,0,0,0,0,0,0,0,0,0,-1,1721,981,0,0
504,43,0,0,0,0,0,0,0,0,0,-1,1728,981,0,0
511,43,0,0,0,0,0,0,0,0,0,-1,1735,981,0,0
518,43,0,0,0,0,0,0,0,0,0,-1,1742,981,0,0
525,43,0,0,0,0,0,0,0,0,0,-1,1749,981,0,0
532,43,0,0,0,0,0,0,0,0,0,-1,1756,981,0,0
539,43,0,0,0,0,0,0,0,0,0,-1,1763,981,0,0
546,43,0,0,0,0,0,0,0,0,0,-1,1770,981,0,0
553,43,0,0,0,0,0,0,0,0,0,-1,1777,981,0,0
560,43,0,0,0,0,0,0,0,0,0,-1,1784,981,0,0
567,43,0,0,0,0,0,0,0,0,0,-1,1791,981,0,0
574,43,0,0,0,0,0,0,0,0,0,-1,1798,981,0,0
581,43,0,0,0,0,0,0,0,0,0,-1,1805,981,0,0
588,43,0,0,0,0,0,0,0,0,0,-1,1812,981,0,0
595,43,0,0,0,0,0,0,0,0,0,-1,1819,981,0,0
602,43,0,0,0,0,0,0,0,0,0,-1,1826,981,0,0
609,43,0,0,0,0,0,0,0,0,0,-1,1833,981,0,0
616,43,0,0,0,0,0,0,0,0,0,-1,1840,981,0,0
623,43,0,0,0,0,0,0,0,0,0,-1,1847,981,0,0
630,43,0,0,0,0,0,0,0,0,0,-1,1854,981,0,0
637,43,0,0,0,0,0,0,0,0,0,-1,1861,981,0,0
644,43,55.1786,2.66626,0.00577797,0.00166506,0.00370088,0.00795537,-0.000512345,0.531807,0.00548235,0.0372422,1868,981,55.1786,-2.66629
651,43,55.176,2.69189,0.00403758,0.00114394,0.00228335,0.0052939,-0.000112384,0.503005,0.00356732,0.0346457,1875,981,55.176,-2.69188
658,43,55.3303,2.67151,0.00275092,0.000811074,0.00148991,0.0035588,3.19188e-06,0.496862,0.00237147,0.0356766,1882,981,55.3303,-2.67153
665,43,55.3751,2.69067,0.00177637,0.00080499,0.00133315,0.00270955,-0.000128188,0.610712,0.00185057,0.0375056,1889,981,55.3752,-2.69068
672,43,55.3657,2.65393,0.000860177,0.000915503,0.00159084,0.00247892,-0.00070324,0.794092,0.00193021,0.0396004,1896,981,55.3657,-2.65396
679,43,55.3276,2.51727,0.000140873,0.00104138,0.00216717,0.00280457,-0.00162232,0.887821,0.00258607,0.0409139,1903,981,55.3277,-2.51726
686,43,55.338,2.53595,-0.000267755,0.000977332,0.00271105,0.00313639,-0.00242682,0.898258,0.00322062,0.0424419,1910,981,55.338,-2.53593
693,43,55.22,2.57343,-0.000598789,0.000824869,0.00306371,0.00325836,-0.00303228,0.899544,0.00363268,0.0394227,1917,981,55.2199,-2.5734
700,43,55.1404,2.68744,-0.00113825,0.000881417,0.00310477,0.00313645,-0.00339328,0.942628,0.00377091,0.0339062,1924,981,55.1404,-2.68744
707,43,55.2714,2.71973,-0.00161925,0.00116553,0.00292438,0.00301208,-0.0034658,1.00758,0.00374306,0.0306391,1931,981,55.2714,-2.71974
714,43,55.2192,2.97784,0,0,0,0,0,0,0,-1,1938,981,55.2193,-2.97785
721,43,54.4058,5.11969,0,0,0,0,0,0,0,-1,1945,981,54.4057,-5.11967
728,43,54.4073,5.48328,-0.00370371,0.00367677,0.00217962,0.00427239,-0.00429933,1.30404,0.00494889,0.0211371,1952,981,54.4074,-5.48325
735,43,54.3929,5.81531,-0.00450976,0.00540659,0.00177369,0.00571429,-0.00481746,1.39902,0.00608785,0.0143654,1959,981,54.3929,-5.81528
742,43,54.3584,6.07904,-0.0053524,0.00718463,0.00111316,0.0072827,-0.00545047,1.48292,0.00737682,0.0161886,1966,981,54.3584,-6.07901
749,43,54.3052,6.32288,-0.00640085,0.00953646,0.000242688,0.00954015,-0.00640455,1.55557,0.00926482,0.0184046,1973,981,54.3052,-6.32288
756,43,54.2881,6.55341,-0.00766474,0.0127229,-0.000540198,0.0127372,-0.00767904,-1.54432,0.0119073,0.0207661,1980,981,54.288,-6.55342
763,43,54.2563,6.79755,-0.00900296,0.0170361,-0.00107479,0.0170804,-0.00904725,-1.52961,0.0153206,0.024552,1987,981,54.2563,-6.79755
770,43,54.1672,7.08771,-0.0102624,0.0225815,-0.00102416,0.0226134,-0.0102943,-1.53965,0.019438,0.0203777,1994,981,54.1671,-7.08772
777,43,54.1741,7.35748,-0.0114278,0.0285923,-0.000569312,0.0286004,-0.0114359,-1.55657,0.0238126,0.0251631,2001,981,54.174,-7.35747
784,43,54.2092,7.70874,-0.0119527,0.0354062,0.000661711,0.0354154,-0.011962,1.55683,0.0284486,0.0449013,2008,981,54.2093,-7.70876
791,43,54.2383,8.03986,0,0,0,0,0,0,0,-1,2015,981,54.2383,-8.03984
798,43,53.9443,8.29779,0,0,0,0,0,0,0,-1,2022,981,53.9443,-8.29778
805,43,54.1519,8.51556,0,0,0,0,0,0,0,-1,2029,981,54.1519,-8.51554
812,43,51.9709,1.47284,0,0,0,0,0,0,0,-1,2036,981,51.9708,-1.47286
-700,36,0,0,0,0,0,0,0,0,0,-1,524,988,0,0
-693,36,-44.4886,3.92273,0,0,0,0,0,0,0,-1,531,988,-44.4885,-3.92274
-686,36,-43.6421,4.79852,0,0,0,0,0,0,0,-1,538,988,-43.6421,-4.79854
-679,36,-42.8106,5.28796,0.0316221,0.0412661,-0.00888831,0.0465562,0.026332,-1.03394,0.0269562,0.0441659,545,988,-42.8106,-5.28798
-672,36,-40.4405,2.28693,0.0280115,0.0345219,-0.00276486,0.0355376,0.0269958,-1.21873,0.0214199,0.0450485,552,988,-40.4405,-2.28692
-665,36,-40.5803,3.27094,0.0230123,0.0292469,0.00134901,0.0295263,0.0227329,1.36659,0.0178558,0.0456449,559,988,-40.5803,-3.27093
-658,36,-41.1494,3.96759,0.0175993,0.0248764,0.00398883,0.0266369,0.0158388,1.15515,0.0154703,0.0463165,566,988,-41.1493,-3.96758
-651,36,-41.4438,4.13947,0.0123933,0.0210277,0.00545808,0.0236696,0.00975141,1.12,0.013736,0.0420118,573,988,-41.4438,-4.13948
-644,36,-41.5792,4.15405,0.00778151,0.0178031,0.00585632,0.0204997,0.00508486,1.13927,0.0123262,0.0281881,580,988,-41.5791,-4.15408
-637,36,-41.7124,4.04321,0.004213,0.0145249,0.00590933,0.0172114,0.00152651,1.14411,0.0110008,0.0226658,587,988,-41.7124,-4.04321
-630,36,-41.7096,3.96265,0.00159553,0.0114926,0.00502884,0.0135994,-0.000511236,1.17407,0.00924136,0.0166025,594,988,-41.7096,-3.96265
-623,36,-41.73,3.81683,-0.002308,0.00837951,0.00450926,0.0100278,-0.00395632,1.22034,0.00832355,0.0136256,601,988,-41.73,-3.81686
-616,36,-41.7305,3.63763,-0.0049796,0.00675223,0.00175335,0.00700866,-0.00523604,1.42557,0.00709413,0.0119503,608,988,-41.7305,-3.63765
-609,36,-41.7011,3.47589,-0.00533403,0.00548839,-8.57271e-05,0.00548907,-0.00533471,-1.56288,0.00624932,0.0165943,615,988,-41.7011,-3.4759
-602,36,-41.7381,3.26788,-0.00477368,0.00443361,-0.00115225,0.00457562,-0.00491569,-1.44817,0.00548098,0.0203763,622,988,-41.7381,-3.26788
-595,36,-41.8676,3.05121,-0.00429474,0.00302463,-0.00211627,0.00359246,-0.00486257,-1.30865,0.00489984,0.023685,629,988,-41.8676,-3.05122
-588,36,-41.7769,2.15851,-0.00385032,0.00185618,-0.00259651,0.00286076,-0.00485491,-1.20164,0.00450397,0.0381195,636,988,-41.7769,-2.1585
-581,36,-41.5296,1.11212,0,0,0,0,0,0,0,-1,643,988,-41.5296,-1.11212
-574,36,-41.4524,0.761353,-0.00349336,0.000496919,-0.00317604,0.00225248,-0.00524893,-1.06584,0.00444462,0.032869,650,988,-41.4524,-0.761337
-567,36,-41.4862,0.729004,-0.00337501,0.000275144,-0.00310265,0.0020497,-0.00514957,-1.05126,0.00428301,0.0372246,657,988,-41.4862,-0.72898
-560,36,-41.5748,0.747559,-0.00301304,0.000309071,-0.00279438,0.00189881,-0.00460278,-1.05355,0.00386039,0.0385682,664,988,-41.5748,-0.747563
-553,36,-41.6738,0.762085,-0.00231068,0.000467708,-0.00225866,0.0017302,-0.00357317,-1.0611,0.00312292,0.0406572,671,988,-41.6739,-0.762106
-546,36,-41.6337,0.695496,-0.00118416,0.000482265,-0.00148798,0.00135444,-0.00205633,-1.04063,0.00198306,0.0436611,678,988,-41.6337,-0.695501
-539,36,-41.5157,0.739258,0.000412484,0.000353409,-0.000901395,0.00128483,-0.000518933,-0.76902,0.00107224,0.044288,685,988,-41.5157,-0.739258
-532,36,-41.4702,0.920715,0.00183654,-0.000143332,-0.00105328,0.00229206,-0.00059886,-0.408195,0.00176192,0.0450264,692,988,-41.4702,-0.920708
-525,36,-41.4504,0.640808,0.00130053,-0.000523977,-0.00163091,0.00225698,-0.00148043,-0.5304,0.00217327,0.0470625,699,988,-41.4504,-0.640797
-518,36,0,0,0,0,0,0,0,0,0,-1,706,988,0,0
-511,36,0,0,0,0,0,0,0,0,0,-1,713,988,0,0
-504,36,0,0,0,0,0,0,0,0,0,-1,720,988,0,0
-497,36,0,0,0,0,0,0,0,0,0,-1,727,988,0,0
-490,36,0,0,0,0,0,0,0,0,0,-1,734,988,0,0
-483,36,0,0,0,0,0,0,0,0,0,-1,741,988,0,0
-476,36,0,0,0,0,0,0,0,0,0,-1,748,988,0,0
-469,36,0,0,0,0,0,0,0,0,0,-1,755,988,0,0
-462,36,0,0,0,0,0,0,0,0,0,-1,762,988,0,0
-455,36,0,0,0,0,0,0,0,0,0,-1,769,988,0,0
-448,36,0,0,0,0,0,0,0,0,0,-1,776,988,0,0
-441,36,0,0,0,0,0,0,0,0,0,-1,783,988,0,0
-434,36,0,0,0,0,0,0,0,0,0,-1,790,988,0,0
-427,36,0,0,0,0,0,0,0,0,0,-1,797,988,0,0
-420,36,0,0,0,0,0,0,0,0,0,-1,804,988,0,0
-413,36,0,0,0,0,0,0,0,0,0,-1,811,988,0,0
-406,36,0,0,0,0,0,0,0,0,0,-1,818,988,0,0
-399,36,0,0,0,0,0,0,0,0,0,-1,825,988,0,0
-392,36,0,0,0,0,0,0,0,0,0,-1,832,988,0,0
-385,36,0,0,0,0,0,0,0,0,0,-1,839,988,0,0
-378,36,0,0,0,0,0,0,0,0,0,-1,846,988,0,0
-371,36,0,0,0,0,0,0,0,0,0,-1,853,988,0,0
-364,36,0,0,0,0,0,0,0,0,0,-1,860,988,0,0
-357,36,0,0,0,0,0,0,0,0,0,-1,867,988,0,0
-350,36,0,0,0,0,0,0,0,0,0,-1,874,988,0,0
-343,36,0,0,0,0,0,0,0,0,0,-1,881,988,0,0
-336,36,0,0,0,0,0,0,0,0,0,-1,888,988,0,0
-329,36,0,0,0,0,0,0,0,0,0,-1,895,988,0,0
-322,36,0,0,0,0,0,0,0,0,0,-1,902,988,0,0
-315,36,0,0,0,0,0,0,0,0,0,-1,909,988,0,0
-308,36,0,0,0,0,0,0,0,0,0,-1,916,988,0,0
-301,36,0,0,0,0,0,0,0,0,0,-1,923,988,0,0
-294,36,0,0,0,0,0,0,0,0,0,-1,930,988,0,0
-287,36,0,0,0,0,0,0,0,0,0,-1,937,988,0,0
-280,36,0,0,0,0,0,0,0,0,0,-1,944,988,0,0
-273,36,0,0,0,0,0,0,0,0,0,-1,951,988,0,0
-266,36,0,0,0,0,0,0,0,0,0,-1,958,988,0,0
-259,36,0,0,0,0,0,0,0,0,0,-1,965,988,0,0
-252,36,0,0,0,0,0,0,0,0,0,-1,972,988,0,0
-245,36,0,0,0,0,0,0,0,0,0,-1,979,988,0,0
-238,36,0,0,0,0,0,0,0,0,0,-1,986,988,0,0
-231,36,0,0,0,0,0,0,0,0,0,-1,993,988,0,0
-224,36,0,0,0,0,0,0,0,0,0,-1,1000,988,0,0
-217,36,0,0,0,0,0,0,0,0,0,-1,1007,988,0,0
-210,36,0,0,0,0,0,0,0,0,0,-1,1014,988,0,0
-203,36,0,0,0,0,0,0,0,0,0,-1,1021,988,0,0
-196,36,0,0,0,0,0,0,0,0,0,-1,1028,988,0,0
-189,36,0,0,0,0,0,0,0,0,0,-1,1035,988,0,0
-182,36,0,0,0,0,0,0,0,0,0,-1,1042,988,0,0
-175,36,0,0,0,0,0,0,0,0,0,-1,1049,988,0,0
-168,36,0,0,0,0,0,0,0,0,0,-1,1056,988,0,0
-161,36,0,0,0,0,0,0,0,0,0,-1,1063,988,0,0
-154,36,0,0,0,0,0,0,0,0,0,-1,1070,988,0,0
-147,36,0,0,0,0,0,0,0,0,0,-1,1077,988,0,0
-140,36,0,0,0,0,0,0,0,0,0,-1,1084,988,0,0
-133,36,0,0,0,0,0,0,0,0,0,-1,1091,988,0,0
-126,36,0,0,0,0,0,0,0,0,0,-1,1098,988,0,0
-119,36,0,0,0,0,0,0,0,0,0,-1,1105,988,0,0
-112,36,0,0,0,0,0,0,0,0,0,-1,1112,988,0,0
-105,36,0,0,0,0,0,0,0,0,0,-1,1119,988,0,0
-98,36,0,0,0,0,0,0,0,0,0,-1,1126,988,0,0
-91,36,0,0,0,0,0,0,0,0,0,-1,1133,988,0,0
-84,36,0,0,0,0,0,0,0,0,0,-1,1140,988,0,0
-77,36,0,0,0,0,0,0,0,0,0,-1,1147,988,0,0
-70,36,0,0,0,0,0,0,0,0,0,-1,1154,988,0,0
-63,36,0,0,0,0,0,0,0,0,0,-1,1161,988,0,0
-56,36,0,0,0,0,0,0,0,0,0,-1,1168,988,0,0
-49,36,0,0,0,0,0,0,0,0,0,-1,1175,988,0,0
-42,36,0,0,0,0,0,0,0,0,0,-1,1182,988,0,0
-35,36,0,0,0,0,0,0,0,0,0,-1,1189,988,0,0
-28,36,0,0,0,0,0,0,0,0,0,-1,1196,988,0,0
-21,36,0,0,0,0,0,0,0,0,0,-1,1203,988,0,0
-14,36,0,0,0,0,0,0,0,0,0,-1,1210,988,0,0
-7,36,0,0,0,0,0,0,0,0,0,-1,1217,988,0,0
0,36,0,0,0,0,0,0,0,0,0,-1,1224,988,0,0
7,36,0,0,0,0,0,0,0,0,0,-1,1231,988,0,0
14,36,0,0,0,0,0,0,0,0,0,-1,1238,988,0,0
21,36,0,0,0,0,0,0,0,0,0,-1,1245,988,0,0
28,36,0,0,0,0,0,0,0,0,0,-1,1252,988,0,0
35,36,0,0,0,0,0,0,0,0,0,-1,1259,988,0,0
42,36,0,0,0,0,0,0,0,0,0,-1,1266,988,0,0
49,36,0,0,0,0,0,0,0,0,0,-1,1273,988,0,0
56,36,0,0,0,0,0,0,0,0,0,-1,1280,988,0,0
63,36,0,0,0,0,0,0,0,0,0,-1,1287,988,0,0
70,36,0,0,0,0,0,0,0,0,0,-1,1294,988,0,0
77,36,0,0,0,0,0,0,0,0,0,-1,1301,988,0,0
84,36,0,0,0,0,0,0,0,0,0,-1,1308,988,0,0
91,36,0,0,0,0,0,0,0,0,0,-1,1315,988,0,0
98,36,0,0,0,0,0,0,0,0,0,-1,1322,988,0,0
105,36,0,0,0,0,0,0,0,0,0,-1,1329,988,0,0
112,36,0,0,0,0,0,0,0,0,0,-1,1336,988,0,0
119,36,0,0,0,0,0,0,0,0,0,-1,1343,988,0,0
126,36,0,0,0,0,0,0,0,0,0,-1,1350,988,0,0
133,36,0,0,0,0,0,0,0,0,0,-1,1357,988,0,0
140,36,0,0,0,0,0,0,0,0,0,-1,1364,988,0,0
147,36,0,0,0,0,0,0,0,0,0,-1,1371,988,0,0
154,36,0,0,0,0,0,0,0,0,0,-1,1378,988,0,0
161,36,0,0,0,0,0,0,0,0,0,-1,1385,988,0,0
168,36,0,0,0,0,0,0,0,0,0,-1,1392,988,0,0
175,36,0,0,0,0,0,0,0,0,0,-1,1399,988,0,0
182,36,0,0,0,0,0,0,0,0,0,-1,1406,988,0,0
189,36,0,0,0,0,0,0,0,0,0,-1,1413,988,0,0
196,36,0,0,0,0,0,0,0,0,0,-1,1420,988,0,0
203,36,0,0,0,0,0,0,0,0,0,-1,1427,988,0,0
210,36,0,0,0,0,0,0,0,0,0,-1,1434,988,0,0
217,36,0,0,0,0,0,0,0,0,0,-1,1441,988,0,0
224,36,0,0,0,0,0,0,0,0,0,-1,1448,988,0,0
231,36,0,0,0,0,0,0,0,0,0,-1,1455,988,0,0
238,36,0,0,0,0,0,0,0,0,0,-1,1462,988,0,0
245,36,0,0,0,0,0,0,0,0,0,-1,1469,988,0,0
252,36,0,0,0,0,0,0,0,0,0,-1,1476,988,0,0
259,36,0,0,0,0,0,0,0,0,0,-1,1483,988,0,0
266,36,0,0,0,0,0,0,0,0,0,-1,1490,988,0,0
273,36,0,0,0,0,0,0,0,0,0,-1,1497,988,0,0
280,36,0,0,0,0,0,0,0,0,0,-1,1504,988,0,0
287,36,0,0,0,0,0,0,0,0,0,-1,1511,988,0,0
294,36,0,0,0,0,0,0,0,0,0,-1,1518,988,0,0
301,36,0,0,0,0,0,0,0,0,0,-1,1525,988,0,0
308,36,0,0,0,0,0,0,0,0,0,-1,1532,988,0,0
315,36,0,0,0,0,0,0,0,0,0,-1,1539,988,0,0
322,36,0,0,0,0,0,0,0,0,0,-1,1546,988,0,0
329,36,0,0,0,0,0,0,0,0,0,-1,1553,988,0,0
336,36,0,0,0,0,0,0,0,0,0,-1,1560,988,0,0
343,36,0,0,0,0,0,0,0,0,0,-1,1567,988,0,0
350,36,0,0,0,0,0,0,0,0,0,-1,1574,988,0,0
357,36,0,0,0,0,0,0,0,0,0,-1,1581,988,0,0
364,36,0,0,0,0,0,0,0,0,0,-1,1588,988,0,0
371,36,0,0,0,0,0,0,0,0,0,-1,1595,988,0,0
378,36,0,0,0,0,0,0,0,0,0,-1,1602,988,0,0
385,36,0,0,0,0,0,0,0,0,0,-1,1609,988,0,0
392,36,0,0,0,0,0,0,0,0,0,-1,1616,988,0,0
399,36,0,0,0,0,0,0,0,0,0,-1,1623,988,0,0
406,36,0,0,0,0,0,0,0,0,0,-1,1630,988,0,0
413,36,0,0,0,0,0,0,0,0,0,-1,1637,988,0,0
420,36,0,0,0,0,0,0,0,0,0,-1,1644,988,0,0
427,36,0,0,0,0,0,0,0,0,0,-1,1651,988,0,0
434,36,0,0,0,0,0,0,0,0,0,-1,1658,988,0,0
441,36,0,0,0,0,0,0,0,0,0,-1,1665,988,0,0
448,36,0,0,0,0,0,0,0,0,0,-1,1672,988,0,0
455,36,0,0,0,0,0,0,0,0,0,-1,1679,988,0,0
462,36,0,0,0,0,0,0,0,0,0,-1,1686,988,0,0
469,36,0,0,0,0,0,0,0,0,0,-1,1693,988,0,0
476,36,0,0,0,0,0,0,0,0,0,-1,1700,988,0,0
483,36,0,0,0,0,0,0,0,0,0,-1,1707,988,0,0
490,36,0,0,0,0,0,0,0,0,0,-1,1714,988,0,0
497,36,0,0,0,0,0,0,0,0,0,-1,1721,988,0,0
504,36,0,0,0,0,0,0,0,0,0,-1,1728,988,0,0
511,36,0,0,0,0,0,0,0,0,0,-1,1735,988,0,0
518,36,0,0,0,0,0,0,0,0,0,-1,1742,988,0,0
525,36,0,0,0,0,0,0,0,0,0,-1,1749,988,0,0
532,36,0,0,0,0,0,0,0,0,0,-1,1756,988,0,0
539,36,0,0,0,0,0,0,0,0,0,-1,1763,988,0,0
546,36,0,0,0,0,0,0,0,0,0,-1,1770,988,0,0
553,36,0,0,0,0,0,0,0,0,0,-1,1777,988,0,0
560,36,0,0,0,0,0,0,0,0,0,-1,1784,988,0,0
567,36,0,0,0,0,0,0,0,0,0,-1,1791,988,0,0
574,36,0,0,0,0,0,0,0,0,0,-1,1798,988,0,0
581,36,0,0,0,0,0,0,0,0,0,-1,1805,988,0,0
588,36,0,0,0,0,0,0,0,0,0,-1,1812,988,0,0
595,36,0,0,0,0,0,0,0,0,0,-1,1819,988,0,0
602,36,0,0,0,0,0,0,0,0,0,-1,1826,988,0,0
609,36,0,0,0,0,0,0,0,0,0,-1,1833,988,0,0
616,36,0,0,0,0,0,0,0,0,0,-1,1840,988,0,0
623,36,0,0,0,0,0,0,0,0,0,-1,1847,988,0,0
630,36,0,0,0,0,0,0,0,0,0,-1,1854,988,0,0
637,36,0,0,0,0,0,0,0,0,0,-1,1861,988,0,0
644,36,55.0861,2.64612,0.0051531,0.00205173,0.00394279,0.00783918,-0.000634355,0.598041,0.00544989,0.0412442,1868,988,55.0861,-2.64615
651,36,55.1321,2.81641,0.00347083,0.00160093,0.00243859,0.00514755,-7.57943e-05,0.602341,0.00345724,0.0389338,1875,988,55.1321,-2.81639
658,36,55.2871,2.80957,0.00226962,0.00123929,0.00155327,0.00339093,0.000117979,0.625275,0.00222234,0.0375354,1882,988,55.2871,-2.80955
665,36,55.345,2.67773,0.00139374,0.00114322,0.00131914,0.00259356,-5.65911e-05,0.738063,0.00174821,0.03589,1889,988,55.345,-2.67771
672,36,55.2443,2.93469,0.000604327,0.00116089,0.00151781,0.00242572,-0.000660501,0.876063,0.00187647,0.0381615,1896,988,55.2443,-2.93467
679,36,55.3134,2.84357,-4.52351e-07,0.00125703,0.00207401,0.00279551,-0.00153893,0.932571,0.0025373,0.0411345,1903,988,55.3133,-2.84358
686,36,55.3596,2.65314,-0.000340904,0.00118189,0.00264529,0.00317318,-0.0023322,0.925526,0.00319087,0.040816,1910,988,55.3597,-2.65313
693,36,55.2729,2.68884,-0.000604805,0.0010497,0.00305834,0.00339069,-0.00294579,0.917483,0.00366138,0.040205,1917,988,55.273,-2.68882
700,36,55.1935,2.755,-0.00103241,0.00108531,0.00317151,0.00337005,-0.00331715,0.946513,0.00386089,0.0368781,1924,988,55.1935,-2.75501
707,36,55.3073,2.66669,-0.00145813,0.00136505,0.00305121,0.00331538,-0.00340846,1.00205,0.00388213,0.0293515,1931,988,55.3072,-2.66669
714,36,55.2162,3.05145,-0.00194418,0.00188691,0.00286789,0.00342015,-0.00347742,1.07984,0.00398236,0.0425598,1938,988,55.2162,-3.05144
721,36,54.7289,5.17572,0,0,0,0,0,0,0,-1,1945,988,54.7289,-5.17574
728,36,54.6774,5.55792,-0.0036746,0.00395358,0.00233676,0.00461249,-0.00433351,1.29596,0.00516581,0.0216934,1952,988,54.6773,-5.55795
735,36,54.6514,5.9054,-0.00449187,0.0056272,0.00196684,0.00599605,-0.00486072,1.38542,0.00627957,0.0195266,1959,988,54.6514,-5.90537
742,36,54.6139,6.06866,-0.00537847,0.00732986,0.00134028,0.00746967,-0.00551828,1.46686,0.00752676,0.0161507,1966,988,54.6139,-6.06869
749,36,54.5873,6.30762,-0.0065004,0.00954753,0.000501835,0.00956321,-0.00651608,1.53957,0.00933878,0.017548,1973,988,54.5873,-6.30764
756,36,54.566,6.52386,-0.00784127,0.0124727,-0.000293743,0.012477,-0.00784551,-1.55634,0.0118343,0.0174825,1980,988,54.566,-6.52388
763,36,54.4705,6.71887,-0.00925185,0.0164041,-0.000942138,0.0164386,-0.0092864,-1.53414,0.0150425,0.0200597,1987,988,54.4704,-6.71888
770,36,54.3994,6.95026,-0.0105934,0.0215513,-0.00104369,0.0215851,-0.0106273,-1.53837,0.0189531,0.0162484,1994,988,54.3993,-6.95027
777,36,54.4165,7.19952,-0.0117488,0.0271389,-0.000729886,0.0271526,-0.0117625,-1.55204,0.0230459,0.0246886,2001,988,54.4164,-7.19951
784,36,54.6304,7.59991,-0.0122261,0.033346,0.000298047,0.033348,-0.0122281,1.56426,0.0272388,0.0450206,2008,988,54.6303,-7.59991
791,36,54.6353,7.67987,-0.011305,0.0392483,0.00170101,0.0393055,-0.0113621,1.5372,0.0307001,0.0461206,2015,988,54.6352,-7.67989
798,36,54.5999,7.85217,0,0,0,0,0,0,0,-1,2022,988,54.5999,-7.85219
805,36,54.8027,7.71881,0,0,0,0,0,0,0,-1,2029,988,54.8028,-7.71879
812,36,52.1794,2.04254,0,0,0,0,0,0,0,-1,2036,988,52.1795,-2.04251
-700,29,0,0,0,0,0,0,0,0,0,-1,524,995,0,0
-693,29,-43.2314,3.15656,0.0226479,0.0608747,-0.0378775,0.084188,-0.00066546,-1.01906,0.0563484,0.0411964,531,995,-43.2314,-3.15654
-686,29,-42.4931,3.89691,0,0,0,0,0,0,0,-1,538,995,-42.4931,-3.89689
-679,29,-41.7132,4.39294,0.0348127,0.0392865,-0.0128055,0.050049,0.0240502,-0.871866,0.0289031,0.0431006,545,995,-41.7132,-4.39293
-672,29,-40.882,4.89001,0.0316051,0.0329541,-0.0058064,0.038125,0.0264341,-0.843219,0.0225534,0.0422202,552,995,-40.882,-4.89
-665,29,-40.0816,4.0199,0.0265856,0.0279887,-0.00103,0.0285333,0.0260409,-1.08437,0.0182482,0.0427712,559,995,-40.0816,-4.01992
-658,29,-40.6131,4.60272,0.020902,0.0238514,0.00210925,0.0249503,0.019803,1.09048,0.0152109,0.0448583,566,995,-40.6131,-4.60273
-651,29,-41.5972,3.90796,0,0,0,0,0,0,0,-1,573,995,-41.5972,-3.90799
-644,29,-41.7022,3.74731,0.0101353,0.0171464,0.00458787,0.0194147,0.00786701,1.11163,0.011276,0.0447516,580,995,-41.7022,-3.74733
-637,29,-41.8944,3.87085,0.00615835,0.0139917,0.00494693,0.0163847,0.00376532,1.12024,0.00990945,0.0258102,587,995,-41.8944,-3.87086
-630,29,-41.8877,3.85455,0.00315289,0.0111359,0.00428658,0.0130016,0.00128719,1.16028,0.00827213,0.0136683,594,995,-41.8877,-3.85456
-623,29,-41.8873,3.78143,-0.00106937,0.00823799,0.00384969,0.00962391,-0.00245529,1.22523,0.00737195,0.012655,601,995,-41.8873,-3.7814
-616,29,-41.9211,3.64337,-0.00416091,0.00665874,0.00115752,0.00678119,-0.00428336,1.4654,0.00644215,0.015205,608,995,-41.9211,-3.64334
-609,29,-41.9176,3.55457,-0.00463305,0.00542151,-0.000614616,0.00545894,-0.00467049,-1.50997,0.00585413,0.0223135,615,995,-41.9176,-3.55457
-602,29,-41.9979,3.39142,-0.00395466,0.0043926,-0.00158485,0.00468338,-0.00424543,-1.38934,0.00515712,0.0225269,622,995,-41.998,-3.3914
-595,29,-42.0806,3.45013,0,0,0,0,0,0,0,-1,629,995,-42.0806,-3.45014
-588,29,-41.7888,2.30499,0,0,0,0,0,0,0,-1,636,995,-41.7888,-2.30498
-581,29,-41.4903,1.22852,0,0,0,0,0,0,0,-1,643,995,-41.4903,-1.22849
-574,29,-41.4407,0.801453,-0.00239452,0.00045943,-0.00328346,0.00261259,-0.00454768,-0.990382,0.00418401,0.0360414,650,995,-41.4407,-0.801453
-567,29,-41.4768,0.68457,-0.00229488,0.000233478,-0.00312451,0.00233986,-0.00440126,-0.977632,0.00395218,0.0337119,657,995,-41.4768,-0.684572
-560,29,-41.606,0.780945,-0.0020115,0.000266151,-0.00271919,0.00207536,-0.00382071,-0.983706,0.00345345,0.0346715,664,995,-41.606,-0.780945
-553,29,-41.7121,0.899414,-0.00149811,0.000435191,-0.00207691,0.00175938,-0.0028223,-1.0032,0.00266886,0.0398837,671,995,-41.7121,-0.899412
-546,29,-41.5486,0.752991,-0.000677599,0.000468543,-0.00119025,0.0012165,-0.00142555,-1.00976,0.00152698,0.0442415,678,995,-41.5486,-0.753013
-539,29,-41.554,0.891479,0.000488794,0.000554578,-0.000595482,0.00111808,-7.47037e-05,-0.812988,0.000771491,0.0430155,685,995,-41.554,-0.891485
-532,29,-41.4475,1.16376,0,0,0,0,0,0,0,-1,692,995,-41.4475,-1.16374
-525,29,-41.3417,1.02795,0,0,0,0,0,0,0,-1,699,995,-41.3417,-1.02794
-518,29,0,0,0,0,0,0,0,0,0,-1,706,995,0,0
-511,29,0,0,0,0,0,0,0,0,0,-1,713,995,0,0
-504,29,0,0,0,0,0,0,0,0,0,-1,720,995,0,0
-497,29,0,0,0,0,0,0,0,0,0,-1,727,995,0,0
-490,29,0,0,0,0,0,0,0,0,0,-1,734,995,0,0
-483,29,0,0,0,0,0,0,0,0,0,-1,741,995,0,0
-476,29,0,0,0,0,0,0,0,0,0,-1,748,995,0,0
-469,29,0,0,0,0,0,0,0,0,0,-1,755,995,0,0
-462,29,0,0,0,0,0,0,0,0,0,-1,762,995,0,0
-455,29,0,0,0,0,0,0,0,0,0,-1,769,995,0,0
-448,29,0,0,0,0,0,0,0,0,0,-1,776,995,0,0
-441,29,0,0,0,0,0,0,0,0,0,-1,783,995,0,0
-434,29,0,0,0,0,0,0,0,0,0,-1,790,995,0,0
-427,29,0,0,0,0,0,0,0,0,0,-1,797,995,0,0
-420,29,0,0,0,0,0,0,0,0,0,-1,804,995,0,0
-413,29,0,0,0,0,0,0,0,0,0,-1,811,995,0,0
-406,29,0,0,0,0,0,0,0,0,0,-1,818,995,0,0
-399,29,0,0,0,0,0,0,0,0,0,-1,825,995,0,0
-392,29,0,0,0,0,0,0,0,0,0,-1,832,995,0,0
-385,29,0,0,0,0,0,0,0,0,0,-1,839,995,0,0
-378,29,0,0,0,0,0,0,0,0,0,-1,846,995,0,0
-371,29,0,0,0,0,0,0,0,0,0,-1,853,995,0,0
-364,29,0,0,0,0,0,0,0,0,0,-1,860,995,0,0
-357,29,0,0,0,0,0,0,0,0,0,-1,867,995,0,0
-350,29,0,0,0,0,0,0,0,0,0,-1,874,995,0,0
-343,29,0,0,0,0,0,0,0,0,0,-1,881,995,0,0
-336,29,0,0,0,0,0,0,0,0,0,-1,888,995,0,0
-329,29,0,0,0,0,0,0,0,0,0,-1,895,995,0,0
-322,29,0,0,0,0,0,0,0,0,0,-1,902,995,0,0
-315,29,0,0,0,0,0,0,0,0,0,-1,909,995,0,0
-308,29,0,0,0,0,0,0,0,0,0,-1,916,995,0,0
-301,29,0,0,0,0,0,0,0,0,0,-1,923,995,0,0
-294,29,0,0,0,0,0,0,0,0,0,-1,930,995,0,0
-287,29,0,0,0,0,0,0,0,0,0,-1,937,995,0,0
-280,29,0,0,0,0,0,0,0,0,0,-1,944,995,0,0
-273,29,0,0,0,0,0,0,0,0,0,-1,951,995,0,0
-266,29,0,0,0,0,0,0,0,0,0,-1,958,995,0,0
-259,29,0,0,0,0,0,0,0,0,0,-1,965,995,0,0
-252,29,0,0,0,0,0,0,0,0,0,-1,972,995,0,0
-245,29,0,0,0,0,0,0,0,0,0,-1,979,995,0,0
-238,29,0,0,0,0,0,0,0,0,0,-1,986,995,0,0
-231,29,0,0,0,0,0,0,0,0,0,-1,993,995,0,0
-224,29,0,0,0,0,0,0,0,0,0,-1,1000,995,0,0
-217,29,0,0,0,0,0,0,0,0,0,-1,1007,995,0,0
-210,29,0,0,0,0,0,0,0,0,0,-1,1014,995,0,0
-203,29,0,0,0,0,0,0,0,0,0,-1,1021,995,0,0
-196,29,0,0,0,0,0,0,0,0,0,-1,1028,995,0,0
-189,29,0,0,0,0,0,0,0,0,0,-1,1035,995,0,0
-182,29,0,0,0,0,0,0,0,0,0,-1,1042,995,0,0
-175,29,0,0,0,0,0,0,0,0,0,-1,1049,995,0,0
-168,29,0,0,0,0,0,0,0,0,0,-1,1056,995,0,0
-161,29,0,0,0,0,0,0,0,0,0,-1,1063,995,0,0
-154,29,0,0,0,0,0,0,0,0,0,-1,1070,995,0,0
-147,29,0,0,0,0,0,0,0,0,0,-1,1077,995,0,0
-140,29,0,0,0,0,0,0,0,0,0,-1,1084,995,0,0
-133,29,0,0,0,0,0,0,0,0,0,-1,1091,995,0,0
-126,29,0,0,0,0,0,0,0,0,0,-1,1098,995,0,0
-119,29,0,0,0,0,0,0,0,0,0,-1,1105,995,0,0
-112,29,0,0,0,0,0,0,0,0,0,-1,1112,995,0,0
-105,29,0,0,0,0,0,0,0,0,0,-1,1119,995,0,0
-98,29,0,0,0,0,0,0,0,0,0,-1,1126,995,0,0
-91,29,0,0,0,0,0,0,0,0,0,-1,1133,995,0,0
-84,29,0,0,0,0,0,0,0,0,0,-1,1140,995,0,0
-77,29,0,0,0,0,0,0,0,0,0,-1,1147,995,0,0
-70,29,0,0,0,0,0,0,0,0,0,-1,1154,995,0,0
-63,29,0,0,0,0,0,0,0,0,0,-1,1161,995,0,0
-56,29,0,0,0,0,0,0,0,0,0,-1,1168,995,0,0
-49,29,0,0,0,0,0,0,0,0,0,-1,1175,995,0,0
-42,29,0,0,0,0,0,0,0,0,0,-1,1182,995,0,0
-35,29,0,0,0,0,0,0,0,0,0,-1,1189,995,0,0
-28,29,0,0,0,0,0,0,0,0,0,-1,1196,995,0,0
-21,29,0,0,0,0,0,0,0,0,0,-1,1203,995,0,0
-14,29,0,0,0,0,0,0,0,0,0,-1,1210,995,0,0
-7,29,0,0,0,0,0,0,0,0,0,-1,1217,995,0,0
0,29,0,0,0,0,0,0,0,0,0,-1,1224,995,0,0
7,29,0,0,0,0,0,0,0,0,0,-1,1231,995,0,0
14,29,0,0,0,0,0,0,0,0,0,-1,1238,995,0,0
21,29,0,0,0,0,0,0,0,0,0,-1,1245,995,0,0
28,29,0,0,0,0,0,0,0,0,0,-1,1252,995,0,0
35,29,0,0,0,0,0,0,0,0,0,-1,1259,995,0,0
42,29,0,0,0,0,0,0,0,0,0,-1,1266,995,0,0
49,29,0,0,0,0,0,0,0,0,0,-1,1273,995,0,0
56,29,0,0,0,0,0,0,0,0,0,-1,1280,995,0,0
63,29,0,0,0,0,0,0,0,0,0,-1,1287,995,0,0
70,29,0,0,0,0,0,0,0,0,0,-1,1294,995,0,0
77,29,0,0,0,0,0,0,0,0,0,-1,1301,995,0,0
84,29,0,0,0,0,0,0,0,0,0,-1,1308,995,0,0
91,29,0,0,0,0,0,0,0,0,0,-1,1315,995,0,0
98,29,0,0,0,0,0,0,0,0,0,-1,1322,995,0,0
105,29,0,0,0,0,0,0,0,0,0,-1,1329,995,0,0
112,29,0,0,0,0,0,0,0,0,0,-1,1336,995,0,0
119,29,0,0,0,0,0,0,0,0,0,-1,1343,995,0,0
126,29,0,0,0,0,0,0,0,0,0,-1,1350,995,0,0
133,29,0,0,0,0,0,0,0,0,0,-1,1357,995,0,0
140,29,0,0,0,0,0,0,0,0,0,-1,1364,995,0,0
147,29,0,0,0,0,0,0,0,0,0,-1,1371,995,0,0
154,29,0,0,0,0,0,0,0,0,0,-1,1378,995,0,0
161,29,0,0,0,0,0,0,0,0,0,-1,1385,995,0,0
168,29,0,0,0,0,0,0,0,0,0,-1,1392,995,0,0
175,29,0,0,0,0,0,0,0,0,0,-1,1399,995,0,0
182,29,0,0,0,0,0,0,0,0,0,-1,1406,995,0,0
189,29,0,0,0,0,0,0,0,0,0,-1,1413,995,0,0
196,29,0,0,0,0,0,0,0,0,0,-1,1420,995,0,0
203,29,0,0,0,0,0,0,0,0,0,-1,1427,995,0,0
210,29,0,0,0,0,0,0,0,0,0,-1,1434,995,0,0
217,29,0,0,0,0,0,0,0,0,0,-1,1441,995,0,0
224,29,0,0,0,0,0,0,0,0,0,-1,1448,995,0,0
231,29,0,0,0,0,0,0,0,0,0,-1,1455,995,0,0
238,29,0,0,0,0,0,0,0,0,0,-1,1462,995,0,0
245,29,0,0,0,0,0,0,0,0,0,-1,1469,995,0,0
252,29,0,0,0,0,0,0,0,0,0,-1,1476,995,0,0
259,29,0,0,0,0,0,0,0,0,0,-1,1483,995,0,0
266,29,0,0,0,0,0,0,0,0,0,-1,1490,995,0,0
273,29,0,0,0,0,0,0,0,0,0,-1,1497,995,0,0
280,29,0,0,0,0,0,0,0,0,0,-1,1504,995,0,0
287,29,0,0,0,0,0,0,0,0,0,-1,1511,995,0,0
294,29,0,0,0,0,0,0,0,0,0,-1,1518,995,0,0
301,29,0,0,0,0,0,0,0,0,0,-1,1525,995,0,0
308,29,0,0,0,0,0,0,0,0,0,-1,1532,995,0,0
315,29,0,0,0,0,0,0,0,0,0,-1,1539,995,0,0
322,29,0,0,0,0,0,0,0,0,0,-1,1546,995,0,0
329,29,0,0,0,0,0,0,0,0,0,-1,1553,995,0,0
336,29,0,0,0,0,0,0,0,0,0,-1,1560,995,0,0
343,29,0,0,0,0,0,0,0,0,0,-1,1567,995,0,0
350,29,0,0,0,0,0,0,0,0,0,-1,1574,995,0,0
357,29,0,0,0,0,0,0,0,0,0,-1,1581,995,0,0
364,29,0,0,0,0,0,0,0,0,0,-1,1588,995,0,0
371,29,0,0,0,0,0,0,0,0,0,-1,1595,995,0,0
378,29,0,0,0,0,0,0,0,0,0,-1,1602,995,0,0
385,29,0,0,0,0,0,0,0,0,0,-1,1609,995,0,0
392,29,0,0,0,0,0,0,0,0,0,-1,1616,995,0,0
399,29,0,0,0,0,0,0,0,0,0,-1,1623,995,0,0
406,29,0,0,0,0,0,0,0,0,0,-1,1630,995,0,0
413,29,0,0,0,0,0,0,0,0,0,-1,1637,995,0,0
420,29,0,0,0,0,0,0,0,0,0,-1,1644,995,0,0
427,29,0,0,0,0,0,0,0,0,0,-1,1651,995,0,0
434,29,0,0,0,0,0,0,0,0,0,-1,1658,995,0,0
441,29,0,0,0,0,0,0,0,0,0,-1,1665,995,0,0
448,29,0,0,0,0,0,0,0,0,0,-1,1672,995,0,0
455,29,0,0,0,0,0,0,0,0,0,-1,1679,995,0,0
462,29,0,0,0,0,0,0,0,0,0,-1,1686,995,0,0
469,29,0,0,0,0,0,0,0,0,0,-1,1693,995,0,0
476,29,0,0,0,0,0,0,0,0,0,-1,1700,995,0,0
483,29,0,0,0,0,0,0,0,0,0,-1,1707,995,0,0
490,29,0,0,0,0,0,0,0,0,0,-1,1714,995,0,0
497,29,0,0,0,0,0,0,0,0,0,-1,1721,995,0,0
504,29,0,0,0,0,0,0,0,0,0,-1,1728,995,0,0
511,29,0,0,0,0,0,0,0,0,0,-1,1735,995,0,0
518,29,0,0,0,0,0,0,0,0,0,-1,1742,995,0,0
525,29,0,0,0,0,0,0,0,0,0,-1,1749,995,0,0
532,29,0,0,0,0,0,0,0,0,0,-1,1756,995,0,0
539,29,0,0,0,0,0,0,0,0,0,-1,1763,995,0,0
546,29,0,0,0,0,0,0,0,0,0,-1,1770,995,0,0
553,29,0,0,0,0,0,0,0,0,0,-1,1777,995,0,0
560,29,0,0,0,0,0,0,0,0,0,-1,1784,995,0,0
567,29,0,0,0,0,0,0,0,0,0,-1,1791,995,0,0
574,29,0,0,0,0,0,0,0,0,0,-1,1798,995,0,0
581,29,0,0,0,0,0,0,0,0,0,-1,1805,995,0,0
588,29,0,0,0,0,0,0,0,0,0,-1,1812,995,0,0
595,29,0,0,0,0,0,0,0,0,0,-1,1819,995,0,0
602,29,0,0,0,0,0,0,0,0,0,-1,1826,995,0,0
609,29,0,0,0,0,0,0,0,0,0,-1,1833,995,0,0
616,29,0,0,0,0,0,0,0,0,0,-1,1840,995,0,0
623,29,0,0,0,0,0,0,0,0,0,-1,1847,995,0,0
630,29,0,0,0,0,0,0,0,0,0,-1,1854,995,0,0
637,29,0,0,0,0,0,0,0,0,0,-1,1861,995,0,0
644,29,55.1501,2.69928,0.00435638,0.00266378,0.00378866,0.00739211,-0.000371956,0.675514,0.00505662,0.0426845,1868,995,55.1502,-2.69925
651,29,55.1884,3.0022,0.00279714,0.00213419,0.00242561,0.00491382,1.75072e-05,0.717491,0.00327006,0.0411221,1875,995,55.1884,-3.00219
658,29,55.281,3.19342,0.00171814,0.00163487,0.00156494,0.003242,0.000111018,0.772099,0.00212529,0.0418673,1882,995,55.281,-3.19341
665,29,55.2722,2.72229,0.000964583,0.0013966,0.00131726,0.00251544,-0.000154259,0.866667,0.00173068,0.0391653,1889,995,55.2723,-2.72228
672,29,55.1105,2.8125,0.000313496,0.00129021,0.00148205,0.00236229,-0.000758584,0.944553,0.00187946,0.0383232,1896,995,55.1105,-2.81249
679,29,55.2111,2.80353,-0.000171139,0.00132292,0.00200542,0.00271593,-0.00156415,0.963689,0.00250075,0.0397715,1903,995,55.211,-2.80351
686,29,55.2739,2.63477,-0.000465746,0.00121518,0.00257373,0.00308221,-0.00233277,0.943217,0.0031363,0.0400549,1910,995,55.274,-2.63474
693,29,55.2806,2.70288,-0.000691573,0.00107221,0.00301737,0.00333392,-0.00295329,0.927574,0.00363214,0.0412463,1917,995,55.2806,-2.70289
700,29,55.2646,2.72321,-0.0010246,0.00108042,0.00318248,0.00337992,-0.0033241,0.945096,0.00387061,0.0363783,1924,995,55.2647,-2.72318
707,29,55.2548,2.68604,-0.0014186,0.00136779,0.00311075,0.00338308,-0.00343389,0.995936,0.00393581,0.0237269,1931,995,55.2547,-2.68601
714,29,55.1846,3.07782,-0.00194037,0.0019119,0.00295137,0.00351004,-0.00353852,1.07451,0.0040695,0.045701,1938,995,55.1846,-3.07783
721,29,54.7622,5.29987,0,0,0,0,0,0,0,-1,1945,995,54.7622,-5.29986
728,29,54.8699,5.66858,-0.00380649,0.00403198,0.002414,0.00471576,-0.00449028,1.29477,0.00531564,0.0311601,1952,995,54.8699,-5.66856
735,29,54.8624,5.9715,-0.00462874,0.00566114,0.00206515,0.00606014,-0.00502773,1.37994,0.00641083,0.0169323,1959,995,54.8624,-5.97149
742,29,54.8376,6.10352,-0.00551681,0.00733204,0.00146355,0.00749664,-0.00568141,1.4588,0.00763237,0.013956,1966,995,54.8376,-6.10352
749,29,54.7981,6.29547,-0.00665484,0.00952816,0.000657319,0.00955482,-0.00668149,1.53027,0.00942284,0.0149239,1973,995,54.7981,-6.29547
756,29,54.783,6.50238,-0.00799399,0.0124224,-0.000158095,0.0124237,-0.00799521,-1.56305,0.0118809,0.0151155,1980,995,54.783,-6.50239
763,29,54.7209,6.62213,-0.00937533,0.0162322,-0.000964532,0.0162685,-0.00941161,-1.5332,0.0150016,0.0126175,1987,995,54.721,-6.62215
770,29,54.6204,6.73633,-0.0106495,0.0213725,-0.00134744,0.0214291,-0.0107061,-1.52882,0.0188945,0.0160889,1994,995,54.6204,-6.73635
777,29,54.5171,6.96704,-0.0116657,0.0271546,-0.00134963,0.0272014,-0.0117125,-1.53609,0.0230526,0.0284975,2001,995,54.517,-6.96702
784,29,54.4519,7.20581,-0.011981,0.0336721,-0.000785357,0.0336856,-0.0119945,-1.5536,0.0273466,0.0455609,2008,995,54.4518,-7.20582
791,29,54.4189,7.40649,-0.0111449,0.0402764,3.95539e-05,0.0402764,-0.011145,1.57003,0.0312359,0.047032,2015,995,54.4189,-7.40647
798,29,54.3755,7.60742,0,0,0,0,0,0,0,-1,2022,995,54.3756,-7.60743
805,29,52.4414,3.14838,0,0,0,0,0,0,0,-1,2029,995,52.4414,-3.14837
812,29,52.4426,2.32715,0,0,0,0,0,0,0,-1,2036,995,52.4427,-2.32716
-700,22,0,0,0,0,0,0,0,0,0,-1,524,1002,0,0
-693,22,-42.0392,2.36932,0,0,0,0,0,0,0,-1,531,1002,-42.0392,-2.36932
-686,22,-42.3692,3.66583,0,0,0,0,0,0,0,-1,538,1002,-42.3692,-3.66582
-679,22,-40.7375,3.59131,0.0357638,0.0388203,-0.015139,0.052508,0.0220761,-0.835702,0.0304432,0.0497522,545,1002,-40.7376,-3.59133
-672,22,-40.3482,4.2926,0.0331932,0.0326984,-0.00761743,0.0405672,0.0253243,-0.769165,0.0236613,0.0451171,552,1002,-40.3482,-4.2926
-665,22,-40.0246,4.81232,0.0284819,0.0278263,-0.00247444,0.0306502,0.0256581,-0.719539,0.0189894,0.0420603,559,1002,-40.0246,-4.81232
-658,22,-40.2031,5.07959,0.0228889,0.0237084,0.000911148,0.0242977,0.0222996,0.996698,0.0155752,0.0469094,566,1002,-40.2031,-5.07956
-651,22,-41.067,3.04199,0,0,0,0,0,0,0,-1,573,1002,-41.067,-3.04199
-644,22,-41.6719,3.41357,0.0118983,0.0169649,0.00364796,0.0188729,0.00999032,1.08889,0.0109025,0.0409383,580,1002,-41.6719,-3.41358
-637,22,-42.0349,3.703,0.0077387,0.0137696,0.00417523,0.0159045,0.00560386,1.09814,0.00931495,0.0254292,587,1002,-42.0349,-3.70302
-630,22,-42.0206,3.73126,0.00453714,0.0109326,0.00364272,0.012582,0.00288771,1.14562,0.0076103,0.0139291,594,1002,-42.0206,-3.73125
-623,22,-42.0441,3.67712,0.000212327,0.00810955,0.00323162,0.00926337,-0.0009415,1.22786,0.00651214,0.0117784,601,1002,-42.0441,-3.67714
-616,22,-42.0609,3.57336,-0.00315281,0.00645284,0.000616108,0.0064922,-0.00319217,1.507,0.00569845,0.0183656,608,1002,-42.0609,-3.57339
-609,22,-42.1017,3.50677,-0.00373509,0.00519809,-0.00111324,0.00533473,-0.00387173,-1.44867,0.00533767,0.0288866,615,1002,-42.1017,-3.50675
-602,22,-42.1996,3.44287,-0.00302421,0.00417139,-0.00198621,0.00468323,-0.00353606,-1.31858,0.00476079,0.0277884,622,1002,-42.1996,-3.44285
-595,22,-42.2834,3.22211,-0.0024675,0.00290809,-0.00276244,0.00407455,-0.00363397,-1.17125,0.00445294,0.0296013,629,1002,-42.2835,-3.22209
-588,22,-41.7825,2.58856,0,0,0,0,0,0,0,-1,636,1002,-41.7825,-2.58857
-581,22,-41.4451,0.925415,0,0,0,0,0,0,0,-1,643,1002,-41.445,-0.925409
-574,22,-41.4542,0.8349,-0.00130241,0.000358839,-0.00327797,0.00290978,-0.00385335,-0.909484,0.00391735,0.0349714,650,1002,-41.4542,-0.834874
-567,22,-41.4883,0.787842,-0.00122742,0.000152172,-0.0030228,0.00256288,-0.00363813,-0.897576,0.00359805,0.0307023,657,1002,-41.4883,-0.787825
-560,22,-41.6069,0.903259,-0.00105941,0.00021561,-0.00250367,0.00216166,-0.00300546,-0.910064,0.00299647,0.0353732,664,1002,-41.607,-0.903272
-553,22,-41.6661,1.03699,-0.000796692,0.000422519,-0.00173239,0.00164943,-0.0020236,-0.954576,0.00212429,0.0412638,671,1002,-41.6661,-1.037
-546,22,-41.5089,0.826416,-0.000361016,0.000496617,-0.00069282,0.000882591,-0.000746989,-1.06251,0.000941924,0.0430665,678,1002,-41.5089,-0.826387
-539,22,-41.5838,0.740662,0.000307077,0.000792007,2.06475e-06,0.000792016,0.000307068,1.56654,0.000461099,0.0427358,685,1002,-41.5838,-0.740658
-532,22,-41.6865,0.809814,0.000920149,0.000795244,8.9671e-05,0.000966972,0.000748421,0.481225,0.000585555,0.043556,692,1002,-41.6865,-0.809835
-525,22,0,0,0,0,0,0,0,0,0,-1,699,1002,0,0
-518,22,0,0,0,0,0,0,0,0,0,-1,706,1002,0,0
-511,22,0,0,0,0,0,0,0,0,0,-1,713,1002,0,0
-504,22,0,0,0,0,0,0,0,0,0,-1,720,1002,0,0
-497,22,0,0,0,0,0,0,0,0,0,-1,727,1002,0,0
-490,22,0,0,0,0,0,0,0,0,0,-1,734,1002,0,0
-483,22,0,0,0,0,0,0,0,0,0,-1,741,1002,0,0
-476,22,0,0,0,0,0,0,0,0,0,-1,748,1002,0,0
-469,22,0,0,0,0,0,0,0,0,0,-1,755,1002,0,0
-462,22,0,0,0,0,0,0,0,0,0,-1,762,1002,0,0
-455,22,0,0,0,0,0,0,0,0,0,-1,769,1002,0,0
-448,22,0,0,0,0,0,0,0,0,0,-1,776,1002,0,0
-441,22,0,0,0,0,0,0,0,0,0,-1,783,1002,0,0
-434,22,0,0,0,0,0,0,0,0,0,-1,790,1002,0,0
-427,22,0,0,0,0,0,0,0,0,0,-1,797,1002,0,0
-420,22,0,0,0,0,0,0,0,0,0,-1,804,1002,0,0
-413,22,0,0,0,0,0,0,0,0,0,-1,811,1002,0,0
-406,22,0,0,0,0,0,0,0,0,0,-1,818,1002,0,0
-399,22,0,0,0,0,0,0,0,0,0,-1,825,1002,0,0
-392,22,0,0,0,0,0,0,0,0,0,-1,832,1002,0,0
-385,22,0,0,0,0,0,0,0,0,0,-1,839,1002,0,0
-378,22,0,0,0,0,0,0,0,0,0,-1,846,1002,0,0
-371,22,0,0,0,0,0,0,0,0,0,-1,853,1002,0,0
-364,22,0,0,0,0,0,0,0,0,0,-1,860,1002,0,0
-357,22,0,0,0,0,0,0,0,0,0,-1,867,1002,0,0
-350,22,0,0,0,0,0,0,0,0,0,-1,874,1002,0,0
-343,22,0,0,0,0,0,0,0,0,0,-1,881,1002,0,0
-336,22,0,0,0,0,0,0,0,0,0,-1,888,1002,0,0
-329,22,0,0,0,0,0,0,0,0,0,-1,895,1002,0,0
-322,22,0,0,0,0,0,0,0,0,0,-1,902,1002,0,0
-315,22,0,0,0,0,0,0,0,0,0,-1,909,1002,0,0
-308,22,0,0,0,0,0,0,0,0,0,-1,916,1002,0,0
-301,22,0,0,0,0,0,0,0,0,0,-1,923,1002,0,0
-294,22,0,0,0,0,0,0,0,0,0,-1,930,1002,0,0
-287,22,0,0,0,0,0,0,0,0,0,-1,937,1002,0,0
-280,22,0,0,0,0,0,0,0,0,0,-1,944,1002,0,0
-273,22,0,0,0,0,0,0,0,0,0,-1,951,1002,0,0
-266,22,0,0,0,0,0,0,0,0,0,-1,958,1002,0,0
-259,22,0,0,0,0,0,0,0,0,0,-1,965,1002,0,0
-252,22,0,0,0,0,0,0,0,0,0,-1,972,1002,0,0
-245,22,0,0,0,0,0,0,0,0,0,-1,979,1002,0,0
-238,22,0,0,0,0,0,0,0,0,0,-1,986,1002,0,0
-231,22,0,0,0,0,0,0,0,0,0,-1,993,1002,0,0
-224,22,0,0,0,0,0,0,0,0,0,-1,1000,1002,0,0
-217,22,0,0,0,0,0,0,0,0,0,-1,1007,1002,0,0
-210,22,0,0,0,0,0,0,0,0,0,-1,1014,1002,0,0
-203,22,0,0,0,0,0,0,0,0,0,-1,1021,1002,0,0
-196,22,0,0,0,0,0,0,0,0,0,-1,1028,1002,0,0
-189,22,0,0,0,0,0,0,0,0,0,-1,1035,1002,0,0
-182,22,0,0,0,0,0,0,0,0,0,-1,1042,1002,0,0
-175,22,0,0,0,0,0,0,0,0,0,-1,1049,1002,0,0
-168,22,0,0,0,0,0,0,0,0,0,-1,1056,1002,0,0
-161,22,0,0,0,0,0,0,0,0,0,-1,1063,1002,0,0
-154,22,0,0,0,0,0,0,0,0,0,-1,1070,1002,0,0
-147,22,0,0,0,0,0,0,0,0,0,-1,1077,1002,0,0
-140,22,0,0,0,0,0,0,0,0,0,-1,1084,1002,0,0
-133,22,0,0,0,0,0,0,0,0,0,-1,1091,1002,0,0
-126,22,0,0,0,0,0,0,0,0,0,-1,1098,1002,0,0
-119,22,0,0,0,0,0,0,0,0,0,-1,1105,1002,0,0
-112,22,0,0,0,0,0,0,0,0,0,-1,1112,1002,0,0
-105,22,0,0,0,0,0,0,0,0,0,-1,1119,1002,0,0
-98,22,0,0,0,0,0,0,0,0,0,-1,1126,1002,0,0
-91,22,0,0,0,0,0,0,0,0,0,-1,1133,1002,0,0
-84,22,0,0,0,0,0,0,0,0,0,-1,1140,1002,0,0
-77,22,0,0,0,0,0,0,0,0,0,-1,1147,1002,0,0
-70,22,0,0,0,0,0,0,0,0,0,-1,1154,1002,0,0
-63,22,0,0,0,0,0,0,0,0,0,-1,1161,1002,0,0
-56,22,0,0,0,0,0,0,0,0,0,-1,1168,1002,0,0
-49,22,0,0,0,0,0,0,0,0,0,-1,1175,1002,0,0
-42,22,0,0,0,0,0,0,0,0,0,-1,1182,1002,0,0
-35,22,0,0,0,0,0,0,0,0,0,-1,1189,1002,0,0
-28,22,0,0,0,0,0,0,0,0,0,-1,1196,1002,0,0
-21,22,0,0,0,0,0,0,0,0,0,-1,1203,1002,0,0
-14,22,0,0,0,0,0,0,0,0,0,-1,1210,1002,0,0
-7,22,0,0,0,0,0,0,0,0,0,-1,1217,1002,0,0
0,22,0,0,0,0,0,0,0,0,0,-1,1224,1002,0,0
7,22,0,0,0,0,0,0,0,0,0,-1,1231,1002,0,0
14,22,0,0,0,0,0,0,0,0,0,-1,1238,1002,0,0
21,22,0,0,0,0,0,0,0,0,0,-1,1245,1002,0,0
28,22,0,0,0,0,0,0,0,0,0,-1,1252,1002,0,0
35,22,0,0,0,0,0,0,0,0,0,-1,1259,1002,0,0
42,22,0,0,0,0,0,0,0,0,0,-1,1266,1002,0,0
49,22,0,0,0,0,0,0,0,0,0,-1,1273,1002,0,0
56,22,0,0,0,0,0,0,0,0,0,-1,1280,1002,0,0
63,22,0,0,0,0,0,0,0,0,0,-1,1287,1002,0,0
70,22,0,0,0,0,0,0,0,0,0,-1,1294,1002,0,0
77,22,0,0,0,0,0,0,0,0,0,-1,1301,1002,0,0
84,22,0,0,0,0,0,0,0,0,0,-1,1308,1002,0,0
91,22,0,0,0,0,0,0,0,0,0,-1,1315,1002,0,0
98,22,0,0,0,0,0,0,0,0,0,-1,1322,1002,0,0
105,22,0,0,0,0,0,0,0,0,0,-1,1329,1002,0,0
112,22,0,0,0,0,0,0,0,0,0,-1,1336,1002,0,0
119,22,0,0,0,0,0,0,0,0,0,-1,1343,1002,0,0
126,22,0,0,0,0,0,0,0,0,0,-1,1350,1002,0,0
133,22,0,0,0,0,0,0,0,0,0,-1,1357,1002,0,0
140,22,0,0,0,0,0,0,0,0,0,-1,1364,1002,0,0
147,22,0,0,0,0,0,0,0,0,0,-1,1371,1002,0,0
154,22,0,0,0,0,0,0,0,0,0,-1,1378,1002,0,0
161,22,0,0,0,0,0,0,0,0,0,-1,1385,1002,0,0
168,22,0,0,0,0,0,0,0,0,0,-1,1392,1002,0,0
175,22,0,0,0,0,0,0,0,0,0,-1,1399,1002,0,0
182,22,0,0,0,0,0,0,0,0,0,-1,1406,1002,0,0
189,22,0,0,0,0,0,0,0,0,0,-1,1413,1002,0,0
196,22,0,0,0,0,0,0,0,0,0,-1,1420,1002,0,0
203,22,0,0,0,0,0,0,0,0,0,-1,1427,1002,0,0
210,22,0,0,0,0,0,0,0,0,0,-1,1434,1002,0,0
217,22,0,0,0,0,0,0,0,0,0,-1,1441,1002,0,0
224,22,0,0,0,0,0,0,0,0,0,-1,1448,1002,0,0
231,22,0,0,0,0,0,0,0,0,0,-1,1455,1002,0,0
238,22,0,0,0,0,0,0,0,0,0,-1,1462,1002,0,0
245,22,0,0,0,0,0,0,0,0,0,-1,1469,1002,0,0
252,22,0,0,0,0,0,0,0,0,0,-1,1476,1002,0,0
259,22,0,0,0,0,0,0,0,0,0,-1,1483,1002,0,0
266,22,0,0,0,0,0,0,0,0,0,-1,1490,1002,0,0
273,22,0,0,0,0,0,0,0,0,0,-1,1497,1002,0,0
280,22,0,0,0,0,0,0,0,0,0,-1,1504,1002,0,0
287,22,0,0,0,0,0,0,0,0,0,-1,1511,1002,0,0
294,22,0,0,0,0,0,0,0,0,0,-1,1518,1002,0,0
301,22,0,0,0,0,0,0,0,0,0,-1,1525,1002,0,0
308,22,0,0,0,0,0,0,0,0,0,-1,1532,1002,0,0
315,22,0,0,0,0,0,0,0,0,0,-1,1539,1002,0,0
322,22,0,0,0,0,0,0,0,0,0,-1,1546,1002,0,0
329,22,0,0,0,0,0,0,0,0,0,-1,1553,1002,0,0
336,22,0,0,0,0,0,0,0,0,0,-1,1560,1002,0,0
343,22,0,0,0,0,0,0,0,0,0,-1,1567,1002,0,0
350,22,0,0,0,0,0,0,0,0,0,-1,1574,1002,0,0
357,22,0,0,0,0,0,0,0,0,0,-1,1581,1002,0,0
364,22,0,0,0,0,0,0,0,0,0,-1,1588,1002,0,0
371,22,0,0,0,0,0,0,0,0,0,-1,1595,1002,0,0
378,22,0,0,0,0,0,0,0,0,0,-1,1602,1002,0,0
385,22,0,0,0,0,0,0,0,0,0,-1,1609,1002,0,0
392,22,0,0,0,0,0,0,0,0,0,-1,1616,1002,0,0
399,22,0,0,0,0,0,0,0,0,0,-1,1623,1002,0,0
406,22,0,0,0,0,0,0,0,0,0,-1,1630,1002,0,0
413,22,0,0,0,0,0,0,0,0,0,-1,1637,1002,0,0
420,22,0,0,0,0,0,0,0,0,0,-1,1644,1002,0,0
427,22,0,0,0,0,0,0,0,0,0,-1,1651,1002,0,0
434,22,0,0,0,0,0,0,0,0,0,-1,1658,1002,0,0
441,22,0,0,0,0,0,0,0,0,0,-1,1665,1002,0,0
448,22,0,0,0,0,0,0,0,0,0,-1,1672,1002,0,0
455,22,0,0,0,0,0,0,0,0,0,-1,1679,1002,0,0
462,22,0,0,0,0,0,0,0,0,0,-1,1686,1002,0,0
469,22,0,0,0,0,0,0,0,0,0,-1,1693,1002,0,0
476,22,0,0,0,0,0,0,0,0,0,-1,1700,1002,0,0
483,22,0,0,0,0,0,0,0,0,0,-1,1707,1002,0,0
490,22,0,0,0,0,0,0,0,0,0,-1,1714,1002,0,0
497,22,0,0,0,0,0,0,0,0,0,-1,1721,1002,0,0
504,22,0,0,0,0,0,0,0,0,0,-1,1728,1002,0,0
511,22,0,0,0,0,0,0,0,0,0,-1,1735,1002,0,0
518,22,0,0,0,0,0,0,0,0,0,-1,1742,1002,0,0
525,22,0,0,0,0,0,0,0,0,0,-1,1749,1002,0,0
532,22,0,0,0,0,0,0,0,0,0,-1,1756,1002,0,0
539,22,0,0,0,0,0,0,0,0,0,-1,1763,1002,0,0
546,22,0,0,0,0,0,0,0,0,0,-1,1770,1002,0,0
553,22,0,0,0,0,0,0,0,0,0,-1,1777,1002,0,0
560,22,0,0,0,0,0,0,0,0,0,-1,1784,1002,0,0
567,22,0,0,0,0,0,0,0,0,0,-1,1791,1002,0,0
574,22,0,0,0,0,0,0,0,0,0,-1,1798,1002,0,0
581,22,0,0,0,0,0,0,0,0,0,-1,1805,1002,0,0
588,22,0,0,0,0,0,0,0,0,0,-1,1812,1002,0,0
595,22,0,0,0,0,0,0,0,0,0,-1,1819,1002,0,0
602,22,0,0,0,0,0,0,0,0,0,-1,1826,1002,0,0
609,22,0,0,0,0,0,0,0,0,0,-1,1833,1002,0,0
616,22,0,0,0,0,0,0,0,0,0,-1,1840,1002,0,0
623,22,0,0,0,0,0,0,0,0,0,-1,1847,1002,0,0
630,22,0,0,0,0,0,0,0,0,0,-1,1854,1002,0,0
637,22,0,0,0,0,0,0,0,0,0,-1,1861,1002,0,0
644,22,55.1788,2.60541,0.00325791,0.00319143,0.00354125,0.00676607,-0.000316736,0.780705,0.00461991,0.041717,1868,1002,55.1789,-2.6054
651,22,55.1442,2.82129,0.00186207,0.00267103,0.00236273,0.00466366,-0.000130552,0.870172,0.00315352,0.0426294,1875,1002,55.1442,-2.82129
658,22,55.2458,2.92743,0.000958418,0.00209335,0.00155775,0.00318377,-0.000132004,0.96007,0.00216785,0.0411064,1882,1002,55.2459,-2.92742
665,22,55.1736,2.75159,0.000374647,0.0017389,0.00131368,0.00253699,-0.000423443,1.02486,0.00184871,0.0371491,1889,1002,55.1736,-2.75157
672,22,55.0912,2.63226,-9.4406e-05,0.00151641,0.00148234,0.00239801,-0.000976008,1.03425,0.00200483,0.0362651,1896,1002,55.0912,-2.63229
679,22,55.1715,2.64941,-0.000427981,0.00145484,0.00199269,0.00271731,-0.00169044,1.00607,0.00256773,0.0385949,1903,1002,55.1715,-2.64944
686,22,55.1382,2.66144,-0.000659578,0.00127745,0.00257817,0.00306303,-0.00244515,0.965073,0.00318681,0.0406214,1910,1002,55.1382,-2.66146
693,22,55.1901,2.69763,-0.000834858,0.00108544,0.00306552,0.00333766,-0.00308707,0.937164,0.00371026,0.0402689,1917,1002,55.19,-2.69762
700,22,55.248,2.6264,-0.00108385,0.00103166,0.00330172,0.00344092,-0.00349312,0.940415,0.00400341,0.034684,1924,1002,55.2481,-2.62641
707,22,55.2112,2.69403,-0.00146053,0.00129079,0.00329243,0.0034834,-0.00365314,0.983287,0.00412067,0.0288723,1931,1002,55.2112,-2.69403
714,22,55.1792,2.85126,-0.00200599,0.00183529,0.00316927,0.00362047,-0.00379118,1.05782,0.0042795,0.039865,1938,1002,55.1792,-2.85126
721,22,54.9064,4.51306,0,0,0,0,0,0,0,-1,1945,1002,54.9064,-4.51307
728,22,54.9269,5.42255,-0.00397227,0.00397752,0.00265596,0.0047832,-0.00477795,1.27627,0.00552013,0.0494278,1952,1002,54.9268,-5.42254
735,22,55.0021,6.04285,-0.00477885,0.00554882,0.0023037,0.00603939,-0.00526941,1.36098,0.00653418,0.0163621,1959,1002,55.0021,-6.04284
742,22,55.0308,6.15448,-0.00563791,0.00717549,0.00168491,0.00739334,-0.00585577,1.44221,0.00766653,0.0168525,1966,1002,55.0308,-6.1545
749,22,54.9696,6.2951,-0.00672293,0.0094297,0.000867077,0.00947611,-0.00676934,1.51732,0.00942261,0.0133346,1973,1002,54.9695,-6.29509
756,22,54.9624,6.40924,-0.00794766,0.0123766,1.23149e-05,0.0123767,-0.00794767,1.57019,0.0118268,0.0190351,1980,1002,54.9624,-6.40924
763,22,54.8828,6.53381,-0.00917097,0.0161308,-0.000998442,0.0161701,-0.00921031,-1.53142,0.0148359,0.0201237,1987,1002,54.8828,-6.53383
770,22,54.7349,6.62616,-0.0101725,0.0213068,-0.00177794,0.0214069,-0.0102726,-1.51455,0.0186629,0.0182552,1994,1002,54.735,-6.62618
777,22,54.4526,6.68542,-0.0108068,0.0274282,-0.00220706,0.0275552,-0.0109338,-1.51333,0.0229019,0.0381909,2001,1002,54.4527,-6.68544
784,22,54.1885,6.77161,0,0,0,0,0,0,0,-1,2008,1002,54.1885,-6.77158
791,22,54.2146,7.1087,0,0,0,0,0,0,0,-1,2015,1002,54.2147,-7.10873
798,22,52.8127,5.21808,0,0,0,0,0,0,0,-1,2022,1002,52.8129,-5.21806
805,22,52.9055,4.27399,0,0,0,0,0,0,0,-1,2029,1002,52.9054,-4.27399
812,22,52.6453,2.59845,0,0,0,0,0,0,0,-1,2036,1002,52.6452,-2.59844
-700,15,0,0,0,0,0,0,0,0,0,-1,524,1009,0,0
-693,15,-41.7129,3.60059,0.0191209,0.0571026,-0.0431705,0.0852747,-0.00905127,-0.992611,0.0600945,0.0469969,531,1009,-41.7129,-3.60061
-686,15,-42.1533,3.50977,0.0321026,0.0467558,-0.0278027,0.0681811,0.0106773,-0.91423,0.0423461,0.0461437,538,1009,-42.1533,-3.50974
-679,15,-42.5931,3.16541,0,0,0,0,0,0,0,-1,545,1009,-42.5931,-3.16538
-672,15,-42.162,1.61438,0.0328888,0.0334935,-0.00953797,0.0427339,0.0236484,-0.801243,0.0247193,0.0466883,552,1009,-42.162,-1.61438
-665,15,-39.7768,4.15997,0.0286536,0.0286949,-0.00429213,0.0329664,0.0243821,-0.787806,0.0197482,0.0423232,559,1009,-39.7768,-4.15999
-658,15,-39.8866,5.48187,0,0,0,0,0,0,0,-1,566,1009,-39.8866,-5.48188
-651,15,-39.9013,2.47266,0,0,0,0,0,0,0,-1,573,1009,-39.9013,-2.47268
-644,15,-42.0101,3.67023,0,0,0,0,0,0,0,-1,580,1009,-42.0101,-3.67024
-637,15,-42.001,3.66797,0.00854246,0.0140764,0.00300487,0.0153942,0.00722465,1.1575,0.00889342,0.028086,587,1009,-42.001,-3.66798
-630,15,-42.0607,3.63977,0.00539023,0.0110897,0.00271101,0.0121732,0.0043067,1.19057,0.00712769,0.0144788,594,1009,-42.0607,-3.63975
-623,15,-42.1268,3.604,0.00112324,0.00824644,0.00243455,0.00899901,0.000370673,1.27099,0.00587968,0.0101845,601,1009,-42.1268,-3.60399
-616,15,-42.1468,3.57013,-0.00238385,0.00645939,2.09419e-05,0.00645944,-0.0023839,1.56843,0.00528335,0.0157619,608,1009,-42.1468,-3.57012
-609,15,-42.1969,3.55994,-0.00303017,0.00509963,-0.00155985,0.00538864,-0.00331918,-1.38759,0.00507457,0.0225996,615,1009,-42.1969,-3.55993
-602,15,-42.2415,3.50201,-0.00228591,0.00399301,-0.00225515,0.00471903,-0.00301192,-1.25934,0.00449959,0.0237259,622,1009,-42.2414,-3.50199
-595,15,-42.0014,2.77594,-0.0017085,0.00272366,-0.00286494,0.00412958,-0.00311442,-1.11459,0.004196,0.0498143,629,1009,-42.0014,-2.77592
-588,15,-41.4202,0.861145,0,0,0,0,0,0,0,-1,636,1009,-41.4202,-0.86115
-581,15,-41.4491,0.852112,-0.000648057,0.000688057,-0.00307786,0.00316953,-0.00312953,-0.892267,0.00363679,0.0391601,643,1009,-41.4491,-0.852096
-574,15,-41.4597,0.866516,-0.000449781,0.000105014,-0.00308005,0.00292014,-0.0032649,-0.830308,0.00357278,0.0325675,650,1009,-41.4597,-0.866544
-567,15,-41.5253,0.928528,-0.00042218,-0.000154631,-0.00275037,0.00246521,-0.00304202,-0.809698,0.00318541,0.0326132,657,1009,-41.5253,-0.92854
-560,15,-41.626,1.03076,-0.00038507,-0.000138384,-0.00216381,0.00190559,-0.00242905,-0.813869,0.00250868,0.0383772,664,1009,-41.626,-1.03077
-553,15,-41.5663,1.04608,-0.000386511,2.48313e-05,-0.00133496,0.00116987,-0.00153155,-0.86183,0.00156432,0.04131,671,1009,-41.5663,-1.04609
-546,15,-41.4985,0.794556,-0.000364095,6.90651e-05,-0.000258875,0.00019001,-0.000485041,-1.13374,0.000401957,0.0413218,678,1009,-41.4986,-0.794557
-539,15,-41.528,0.701111,-0.000262493,0.000502966,0.000430924,0.000696585,-0.000456112,1.14852,0.00067032,0.0416715,685,1009,-41.528,-0.70109
-532,15,-41.624,0.738159,-0.00017239,0.000723818,0.00068457,0.0010939,-0.000542475,1.07519,0.000962478,0.0412044,692,1009,-41.624,-0.738185
-525,15,0,0,0,0,0,0,0,0,0,-1,699,1009,0,0
-518,15,0,0,0,0,0,0,0,0,0,-1,706,1009,0,0
-511,15,0,0,0,0,0,0,0,0,0,-1,713,1009,0,0
-504,15,0,0,0,0,0,0,0,0,0,-1,720,1009,0,0
-497,15,0,0,0,0,0,0,0,0,0,-1,727,1009,0,0
-490,15,0,0,0,0,0,0,0,0,0,-1,734,1009,0,0
-483,15,0,0,0,0,0,0,0,0,0,-1,741,1009,0,0
-476,15,0,0,0,0,0,0,0,0,0,-1,748,1009,0,0
-469,15,0,0,0,0,0,0,0,0,0,-1,755,1009,0,0
-462,15,0,0,0,0,0,0,0,0,0,-1,762,1009,0,0
-455,15,0,0,0,0,0,0,0,0,0,-1,769,1009,0,0
-448,15,0,0,0,0,0,0,0,0,0,-1,776,1009,0,0
-441,15,0,0,0,0,0,0,0,0,0,-1,783,1009,0,0
-434,15,0,0,0,0,0,0,0,0,0,-1,790,1009,0,0
-427,15,0,0,0,0,0,0,0,0,0,-1,797,1009,0,0
-420,15,0,0,0,0,0,0,0,0,0,-1,804,1009,0,0
-413,15,0,0,0,0,0,0,0,0,0,-1,811,1009,0,0
-406,15,0,0,0,0,0,0,0,0,0,-1,818,1009,0,0
-399,15,0,0,0,0,0,0,0,0,0,-1,825,1009,0,0
-392,15,0,0,0,0,0,0,0,0,0,-1,832,1009,0,0
-385,15,0,0,0,0,0,0,0,0,0,-1,839,1009,0,0
-378,15,0,0,0,0,0,0,0,0,0,-1,846,1009,0,0
-371,15,0,0,0,0,0,0,0,0,0,-1,853,1009,0,0
-364,15,0,0,0,0,0,0,0,0,0,-1,860,1009,0,0
-357,15,0,0,0,0,0,0,0,0,0,-1,867,1009,0,0
-350,15,0,0,0,0,0,0,0,0,0,-1,874,1009,0,0
-343,15,0,0,0,0,0,0,0,0,0,-1,881,1009,0,0
-336,15,0,0,0,0,0,0,0,0,0,-1,888,1009,0,0
-329,15,0,0,0,0,0,0,0,0,0,-1,895,1009,0,0
-322,15,0,0,0,0,0,0,0,0,0,-1,902,1009,0,0
-315,15,0,0,0,0,0,0,0,0,0,-1,909,1009,0,0
-308,15,0,0,0,0,0,0,0,0,0,-1,916,1009,0,0
-301,15,0,0,0,0,0,0,0,0,0,-1,923,1009,0,0
-294,15,0,0,0,0,0,0,0,0,0,-1,930,1009,0,0
-287,15,0,0,0,0,0,0,0,0,0,-1,937,1009,0,0
-280,15,0,0,0,0,0,0,0,0,0,-1,944,1009,0,0
-273,15,0,0,0,0,0,0,0,0,0,-1,951,1009,0,0
-266,15,0,0,0,0,0,0,0,0,0,-1,958,1009,0,0
-259,15,0,0,0,0,0,0,0,0,0,-1,965,1009,0,0
-252,15,0,0,0,0,0,0,0,0,0,-1,972,1009,0,0
-245,15,0,0,0,0,0,0,0,0,0,-1,979,1009,0,0
-238,15,0,0,0,0,0,0,0,0,0,-1,986,1009,0,0
-231,15,0,0,0,0,0,0,0,0,0,-1,993,1009,0,0
-224,15,0,0,0,0,0,0,0,0,0,-1,1000,1009,0,0
-217,15,0,0,0,0,0,0,0,0,0,-1,1007,1009,0,0
-210,15,0,0,0,0,0,0,0,0,0,-1,1014,1009,0,0
-203,15,0,0,0,0,0,0,0,0,0,-1,1021,1009,0,0
-196,15,0,0,0,0,0,0,0,0,0,-1,1028,1009,0,0
-189,15,0,0,0,0,0,0,0,0,0,-1,1035,1009,0,0
-182,15,0,0,0,0,0,0,0,0,0,-1,1042,1009,0,0
-175,15,0,0,0,0,0,0,0,0,0,-1,1049,1009,0,0
-168,15,0,0,0,0,0,0,0,0,0,-1,1056,1009,0,0
-161,15,0,0,0,0,0,0,0,0,0,-1,1063,1009,0,0
-154,15,0,0,0,0,0,0,0,0,0,-1,1070,1009,0,0
-147,15,0,0,0,0,0,0,0,0,0,-1,1077,1009,0,0
-140,15,0,0,0,0,0,0,0,0,0,-1,1084,1009,0,0
-133,15,0,0,0,0,0,0,0,0,0,-1,1091,1009,0,0
-126,15,0,0,0,0,0,0,0,0,0,-1,1098,1009,0,0
-119,15,0,0,0,0,0,0,0,0,0,-1,1105,1009,0,0
-112,15,0,0,0,0,0,0,0,0,0,-1,1112,1009,0,0
-105,15,0,0,0,0,0,0,0,0,0,-1,1119,1009,0,0
-98,15,0,0,0,0,0,0,0,0,0,-1,1126,1009,0,0
-91,15,0,0,0,0,0,0,0,0,0,-1,1133,1009,0,0
-84,15,0,0,0,0,0,0,0,0,0,-1,1140,1009,0,0
-77,15,0,0,0,0,0,0,0,0,0,-1,1147,1009,0,0
-70,15,0,0,0,0,0,0,0,0,0,-1,1154,1009,0,0
-63,15,0,0,0,0,0,0,0,0,0,-1,1161,1009,0,0
-56,15,0,0,0,0,0,0,0,0,0,-1,1168,1009,0,0
-49,15,0,0,0,0,0,0,0,0,0,-1,1175,1009,0,0
-42,15,0,0,0,0,0,0,0,0,0,-1,1182,1009,0,0
-35,15,0,0,0,0,0,0,0,0,0,-1,1189,1009,0,0
-28,15,0,0,0,0,0,0,0,0,0,-1,1196,1009,0,0
-21,15,0,0,0,0,0,0,0,0,0,-1,1203,1009,0,0
-14,15,0,0,0,0,0,0,0,0,0,-1,1210,1009,0,0
-7,15,0,0,0,0,0,0,0,0,0,-1,1217,1009,0,0
0,15,0,0,0,0,0,0,0,0,0,-1,1224,1009,0,0
7,15,0,0,0,0,0,0,0,0,0,-1,1231,1009,0,0
14,15,0,0,0,0,0,0,0,0,0,-1,1238,1009,0,0
21,15,0,0,0,0,0,0,0,0,0,-1,1245,1009,0,0
28,15,0,0,0,0,0,0,0,0,0,-1,1252,1009,0,0
35,15,0,0,0,0,0,0,0,0,0,-1,1259,1009,0,0
42,15,0,0,0,0,0,0,0,0,0,-1,1266,1009,0,0
49,15,0,0,0,0,0,0,0,0,0,-1,1273,1009,0,0
56,15,0,0,0,0,0,0,0,0,0,-1,1280,1009,0,0
63,15,0,0,0,0,0,0,0,0,0,-1,1287,1009,0,0
70,15,0,0,0,0,0,0,0,0,0,-1,1294,1009,0,0
77,15,0,0,0,0,0,0,0,0,0,-1,1301,1009,0,0
84,15,0,0,0,0,0,0,0,0,0,-1,1308,1009,0,0
91,15,0,0,0,0,0,0,0,0,0,-1,1315,1009,0,0
98,15,0,0,0,0,0,0,0,0,0,-1,1322,1009,0,0
105,15,0,0,0,0,0,0,0,0,0,-1,1329,1009,0,0
112,15,0,0,0,0,0,0,0,0,0,-1,1336,1009,0,0
119,15,0,0,0,0,0,0,0,0,0,-1,1343,1009,0,0
126,15,0,0,0,0,0,0,0,0,0,-1,1350,1009,0,0
133,15,0,0,0,0,0,0,0,0,0,-1,1357,1009,0,0
140,15,0,0,0,0,0,0,0,0,0,-1,1364,1009,0,0
147,15,0,0,0,0,0,0,0,0,0,-1,1371,1009,0,0
154,15,0,0,0,0,0,0,0,0,0,-1,1378,1009,0,0
161,15,0,0,0,0,0,0,0,0,0,-1,1385,1009,0,0
168,15,0,0,0,0,0,0,0,0,0,-1,1392,1009,0,0
175,15,0,0,0,0,0,0,0,0,0,-1,1399,1009,0,0
182,15,0,0,0,0,0,0,0,0,0,-1,1406,1009,0,0
189,15,0,0,0,0,0,0,0,0,0,-1,1413,1009,0,0
196,15,0,0,0,0,0,0,0,0,0,-1,1420,1009,0,0
203,15,0,0,0,0,0,0,0,0,0,-1,1427,1009,0,0
210,15,0,0,0,0,0,0,0,0,0,-1,1434,1009,0,0
217,15,0,0,0,0,0,0,0,0,0,-1,1441,1009,0,0
224,15,0,0,0,0,0,0,0,0,0,-1,1448,1009,0,0
231,15,0,0,0,0,0,0,0,0,0,-1,1455,1009,0,0
238,15,0,0,0,0,0,0,0,0,0,-1,1462,1009,0,0
245,15,0,0,0,0,0,0,0,0,0,-1,1469,1009,0,0
252,15,0,0,0,0,0,0,0,0,0,-1,1476,1009,0,0
259,15,0,0,0,0,0,0,0,0,0,-1,1483,1009,0,0
266,15,0,0,0,0,0,0,0,0,0,-1,1490,1009,0,0
273,15,0,0,0,0,0,0,0,0,0,-1,1497,1009,0,0
280,15,0,0,0,0,0,0,0,0,0,-1,1504,1009,0,0
287,15,0,0,0,0,0,0,0,0,0,-1,1511,1009,0,0
294,15,0,0,0,0,0,0,0,0,0,-1,1518,1009,0,0
301,15,0,0,0,0,0,0,0,0,0,-1,1525,1009,0,0
308,15,0,0,0,0,0,0,0,0,0,-1,1532,1009,0,0
315,15,0,0,0,0,0,0,0,0,0,-1,1539,1009,0,0
322,15,0,0,0,0,0,0,0,0,0,-1,1546,1009,0,0
329,15,0,0,0,0,0,0,0,0,0,-1,1553,1009,0,0
336,15,0,0,0,0,0,0,0,0,0,-1,1560,1009,0,0
343,15,0,0,0,0,0,0,0,0,0,-1,1567,1009,0,0
350,15,0,0,0,0,0,0,0,0,0,-1,1574,1009,0,0
357,15,0,0,0,0,0,0,0,0,0,-1,1581,1009,0,0
364,15,0,0,0,0,0,0,0,0,0,-1,1588,1009,0,0
371,15,0,0,0,0,0,0,0,0,0,-1,1595,1009,0,0
378,15,0,0,0,0,0,0,0,0,0,-1,1602,1009,0,0
385,15,0,0,0,0,0,0,0,0,0,-1,1609,1009,0,0
392,15,0,0,0,0,0,0,0,0,0,-1,1616,1009,0,0
399,15,0,0,0,0,0,0,0,0,0,-1,1623,1009,0,0
406,15,0,0,0,0,0,0,0,0,0,-1,1630,1009,0,0
413,15,0,0,0,0,0,0,0,0,0,-1,1637,1009,0,0
420,15,0,0,0,0,0,0,0,0,0,-1,1644,1009,0,0
427,15,0,0,0,0,0,0,0,0,0,-1,1651,1009,0,0
434,15,0,0,0,0,0,0,0,0,0,-1,1658,1009,0,0
441,15,0,0,0,0,0,0,0,0,0,-1,1665,1009,0,0
448,15,0,0,0,0,0,0,0,0,0,-1,1672,1009,0,0
455,15,0,0,0,0,0,0,0,0,0,-1,1679,1009,0,0
462,15,0,0,0,0,0,0,0,0,0,-1,1686,1009,0,0
469,15,0,0,0,0,0,0,0,0,0,-1,1693,1009,0,0
476,15,0,0,0,0,0,0,0,0,0,-1,1700,1009,0,0
483,15,0,0,0,0,0,0,0,0,0,-1,1707,1009,0,0
490,15,0,0,0,0,0,0,0,0,0,-1,1714,1009,0,0
497,15,0,0,0,0,0,0,0,0,0,-1,1721,1009,0,0
504,15,0,0,0,0,0,0,0,0,0,-1,1728,1009,0,0
511,15,0,0,0,0,0,0,0,0,0,-1,1735,1009,0,0
518,15,0,0,0,0,0,0,0,0,0,-1,1742,1009,0,0
525,15,0,0,0,0,0,0,0,0,0,-1,1749,1009,0,0
532,15,0,0,0,0,0,0,0,0,0,-1,1756,1009,0,0
539,15,0,0,0,0,0,0,0,0,0,-1,1763,1009,0,0
546,15,0,0,0,0,0,0,0,0,0,-1,1770,1009,0,0
553,15,0,0,0,0,0,0,0,0,0,-1,1777,1009,0,0
560,15,0,0,0,0,0,0,0,0,0,-1,1784,1009,0,0
567,15,0,0,0,0,0,0,0,0,0,-1,1791,1009,0,0
574,15,0,0,0,0,0,0,0,0,0,-1,1798,1009,0,0
581,15,0,0,0,0,0,0,0,0,0,-1,1805,1009,0,0
588,15,0,0,0,0,0,0,0,0,0,-1,1812,1009,0,0
595,15,0,0,0,0,0,0,0,0,0,-1,1819,1009,0,0
602,15,0,0,0,0,0,0,0,0,0,-1,1826,1009,0,0
609,15,0,0,0,0,0,0,0,0,0,-1,1833,1009,0,0
616,15,0,0,0,0,0,0,0,0,0,-1,1840,1009,0,0
623,15,0,0,0,0,0,0,0,0,0,-1,1847,1009,0,0
630,15,0,0,0,0,0,0,0,0,0,-1,1854,1009,0,0
637,15,0,0,0,0,0,0,0,0,0,-1,1861,1009,0,0
644,15,55.1471,2.54022,0.00281832,0.00391503,0.00267382,0.00609614,0.000637204,0.886538,0.00386922,0.040868,1868,1009,55.1471,-2.54025
651,15,55.2379,2.58551,0.00132378,0.00352082,0.00183934,0.00456471,0.000279887,1.05459,0.00295427,0.0407839,1875,1009,55.2379,-2.58549
658,15,55.1823,2.61609,0.000429844,0.00294649,0.00120971,0.00343366,-5.73322e-05,1.18794,0.00230846,0.0390635,1882,1009,55.1823,-2.61609
665,15,55.1417,2.66547,-0.000102377,0.00251233,0.0010545,0.0028846,-0.000474651,1.23142,0.00209925,0.0358877,1889,1009,55.1418,-2.66546
672,15,55.1328,2.59515,-0.000470665,0.00218623,0.00130095,0.00271715,-0.00100158,1.18333,0.00222186,0.0333832,1896,1009,55.1328,-2.59513
679,15,55.2367,2.61938,-0.000683126,0.00200107,0.00185499,0.00294856,-0.00163062,1.09856,0.00268004,0.0351908,1903,1009,55.2367,-2.61941
686,15,55.1923,2.67078,-0.000839821,0.00170575,0.0024874,0.00322709,-0.00236116,1.02188,0.00323926,0.0420074,1910,1009,55.1923,-2.67075
693,15,55.1477,2.67206,-0.00094556,0.00140801,0.00304592,0.00349657,-0.00303412,0.969739,0.00377364,0.040567,1917,1009,55.1477,-2.67206
700,15,55.2142,2.60547,-0.00108302,0.00124076,0.00337441,0.00364771,-0.00348997,0.951202,0.00412128,0.0316667,1924,1009,55.2143,-2.60544
707,15,55.2117,2.61163,-0.00142456,0.00142548,0.00343838,0.00372244,-0.00372152,0.981847,0.00429777,0.0294358,1931,1009,55.2116,-2.61164
714,15,55.1965,2.74548,-0.00197094,0.00191964,0.00336668,0.00386262,-0.00391393,1.04737,0.00448983,0.0300777,1938,1009,55.1965,-2.74551
721,15,55.1614,2.77167,0,0,0,0,0,0,0,-1,1945,1009,55.1614,-2.77164
728,15,55.1166,5.97894,0,0,0,0,0,0,0,-1,1952,1009,55.1165,-5.97897
735,15,55.0753,6.10321,-0.00476883,0.00549215,0.00257445,0.00610184,-0.00537852,1.33826,0.00663258,0.0189314,1959,1009,55.0753,-6.10322
742,15,55.1036,6.27557,-0.00552816,0.00705004,0.00189621,0.00732968,-0.00580781,1.42438,0.00760188,0.0359465,1966,1009,55.1036,-6.27556
749,15,55.1194,6.32867,-0.00647624,0.00927798,0.00104788,0.00934737,-0.00654563,1.50467,0.00922323,0.0224859,1973,1009,55.1193,-6.32868
756,15,55.113,6.3028,-0.00755273,0.0121875,0.000162646,0.0121889,-0.00755407,1.56256,0.0115028,0.0171809,1980,1009,55.1131,-6.30278
763,15,55.0201,6.39893,-0.00855428,0.0157945,-0.00103838,0.0158387,-0.00859849,-1.52825,0.0143138,0.0149573,1987,1009,55.0202,-6.39894
770,15,54.8767,6.42554,-0.00916939,0.0207878,-0.00222901,0.0209527,-0.00933433,-1.49693,0.01791,0.019172,1994,1009,54.8767,-6.42552
777,15,54.5364,6.50366,-0.00923248,0.0269185,-0.00315334,0.0271915,-0.00950548,-1.48444,0.0219919,0.0423506,2001,1009,54.5364,-6.50367
784,15,54.2188,6.59045,0,0,0,0,0,0,0,-1,2008,1009,54.2186,-6.59043
791,15,53.9351,5.37921,0,0,0,0,0,0,0,-1,2015,1009,53.9352,-5.37919
798,15,53.6814,5.14575,0,0,0,0,0,0,0,-1,2022,1009,53.6814,-5.14577
805,15,52.8821,4.04376,0,0,0,0,0,0,0,-1,2029,1009,52.8821,-4.04377
812,15,52.9155,2.91199,0,0,0,0,0,0,0,-1,2036,1009,52.9156,-2.91201
-700,8,0,0,0,0,0,0,0,0,0,-1,524,1016,0,0
-693,8,-41.5159,3.6358,0.0142089,0.0542505,-0.0447283,0.0832344,-0.014775,-0.99583,0.0610138,0.0468245,531,1016,-41.5159,-3.63579
-686,8,-41.9722,3.38751,0.0267772,0.045787,-0.0298534,0.0676121,0.00495217,-0.939517,0.043518,0.0457296,538,1016,-41.9722,-3.38753
-679,8,-43.6852,2.14142,0.0302132,0.0393056,-0.0193004,0.054588,0.0149308,-0.901064,0.0325763,0.0434203,545,1016,-43.6852,-2.14139
-672,8,-42.2873,1.84656,0.0292765,0.0339742,-0.0117151,0.0435736,0.0196771,-0.884335,0.0251965,0.042044,552,1016,-42.2873,-1.84657
-665,8,-40.9232,1.5777,0,0,0,0,0,0,0,-1,559,1016,-40.9232,-1.57772
-658,8,-42.0557,2.888,0,0,0,0,0,0,0,-1,566,1016,-42.0557,-2.88799
-651,8,-41.5638,3.22546,0,0,0,0,0,0,0,-1,573,1016,-41.5638,-3.22544
-644,8,-41.8118,3.24493,0,0,0,0,0,0,0,-1,580,1016,-41.8118,-3.24491
-637,8,-41.8766,3.4201,0.00843867,0.0143236,0.00174609,0.0148027,0.0079596,1.30302,0.00855444,0.0411827,587,1016,-41.8767,-3.4201
-630,8,-42.0833,3.56097,0.00565137,0.0111789,0.00172393,0.0116725,0.00515778,1.29194,0.00675429,0.0232365,594,1016,-42.0832,-3.56094
-623,8,-42.0779,3.60394,0.00160449,0.00833421,0.00153787,0.00866899,0.00126971,1.35645,0.00540602,0.014969,601,1016,-42.0779,-3.60397
-616,8,-42.1255,3.57813,-0.00191254,0.00637775,-0.000663882,0.00643058,-0.00196537,-1.49139,0.00507077,0.0158895,608,1016,-42.1255,-3.57812
-609,8,-42.1821,3.51031,-0.00259432,0.00486856,-0.00207594,0.00540715,-0.00313291,-1.31695,0.00498854,0.0179701,615,1016,-42.1821,-3.51029
-602,8,-42.1345,3.53027,-0.0018779,0.00363127,-0.00259575,0.00466161,-0.00290823,-1.19294,0.00440936,0.0239286,622,1016,-42.1344,-3.5303
-595,8,-41.5746,3.37677,0,0,0,0,0,0,0,-1,629,1016,-41.5746,-3.37674
-588,8,-41.4123,0.662964,0,0,0,0,0,0,0,-1,636,1016,-41.4123,-0.66296
-581,8,-41.4463,0.795898,-0.000102059,0.000245212,-0.00294,0.00301669,-0.00287354,-0.814894,0.00340106,0.0325454,643,1016,-41.4463,-0.795907
-574,8,-41.4592,0.899475,0.000141647,-0.000396595,-0.00280302,0.00268843,-0.00294338,-0.737539,0.00325264,0.0360584,650,1016,-41.4591,-0.899493
-567,8,-41.3668,0.842285,0.000196023,-0.000718286,-0.00236626,0.00214889,-0.00267115,-0.689975,0.00278829,0.0389347,657,1016,-41.3668,-0.8423
-560,8,-41.3951,0.83606,0.000238475,-0.000759813,-0.00169643,0.00150767,-0.00202901,-0.64232,0.00204928,0.0391366,664,1016,-41.3952,-0.836052
-553,8,-41.5477,0.819824,0.000203549,-0.000637228,-0.00082138,0.000705869,-0.00113955,-0.548874,0.00107521,0.0397883,671,1016,-41.5477,-0.81982
-546,8,-41.5436,0.660095,0.00015746,-0.000598401,0.000232145,0.000223064,-0.000664005,0.275417,0.000532823,0.041474,678,1016,-41.5436,-0.660098
-539,8,-41.425,0.814026,0.000131509,-6.77587e-05,0.000777065,0.000815301,-0.000751551,0.721637,0.000904872,0.0420045,685,1016,-41.425,-0.814026
-532,8,-41.3496,1.04761,9.11415e-05,0.000299399,0.00107377,0.00127407,-0.000883534,0.833735,0.00125248,0.0402046,692,1016,-41.3496,-1.04758
-525,8,0,0,0,0,0,0,0,0,0,-1,699,1016,0,0
-518,8,0,0,0,0,0,0,0,0,0,-1,706,1016,0,0
-511,8,0,0,0,0,0,0,0,0,0,-1,713,1016,0,0
-504,8,0,0,0,0,0,0,0,0,0,-1,720,1016,0,0
-497,8,0,0,0,0,0,0,0,0,0,-1,727,1016,0,0
-490,8,0,0,0,0,0,0,0,0,0,-1,734,1016,0,0
-483,8,0,0,0,0,0,0,0,0,0,-1,741,1016,0,0
-476,8,0,0,0,0,0,0,0,0,0,-1,748,1016,0,0
-469,8,0,0,0,0,0,0,0,0,0,-1,755,1016,0,0
-462,8,0,0,0,0,0,0,0,0,0,-1,762,1016,0,0
-455,8,0,0,0,0,0,0,0,0,0,-1,769,1016,0,0
-448,8,0,0,0,0,0,0,0,0,0,-1,776,1016,0,0
-441,8,0,0,0,0,0,0,0,0,0,-1,783,1016,0,0
-434,8,0,0,0,0,0,0,0,0,0,-1,790,1016,0,0
-427,8,0,0,0,0,0,0,0,0,0,-1,797,1016,0,0
-420,8,0,0,0,0,0,0,0,0,0,-1,804,1016,0,0
-413,8,0,0,0,0,0,0,0,0,0,-1,811,1016,0,0
-406,8,0,0,0,0,0,0,0,0,0,-1,818,1016,0,0
-399,8,0,0,0,0,0,0,0,0,0,-1,825,1016,0,0
-392,8,0,0,0,0,0,0,0,0,0,-1,832,1016,0,0
-385,8,0,0,0,0,0,0,0,0,0,-1,839,1016,0,0
-378,8,0,0,0,0,0,0,0,0,0,-1,846,1016,0,0
-371,8,0,0,0,0,0,0,0,0,0,-1,853,1016,0,0
-364,8,0,0,0,0,0,0,0,0,0,-1,860,1016,0,0
-357,8,0,0,0,0,0,0,0,0,0,-1,867,1016,0,0
-350,8,0,0,0,0,0,0,0,0,0,-1,874,1016,0,0
-343,8,0,0,0,0,0,0,0,0,0,-1,881,1016,0,0
-336,8,0,0,0,0,0,0,0,0,0,-1,888,1016,0,0
-329,8,0,0,0,0,0,0,0,0,0,-1,895,1016,0,0
-322,8,0,0,0,0,0,0,0,0,0,-1,902,1016,0,0
-315,8,0,0,0,0,0,0,0,0,0,-1,909,1016,0,0
-308,8,0,0,0,0,0,0,0,0,0,-1,916,1016,0,0
-301,8,0,0,0,0,0,0,0,0,0,-1,923,1016,0,0
-294,8,0,0,0,0,0,0,0,0,0,-1,930,1016,0,0
-287,8,0,0,0,0,0,0,0,0,0,-1,937,1016,0,0
-280,8,0,0,0,0,0,0,0,0,0,-1,944,1016,0,0
-273,8,0,0,0,0,0,0,0,0,0,-1,951,1016,0,0
-266,8,0,0,0,0,0,0,0,0,0,-1,958,1016,0,0
-259,8,0,0,0,0,0,0,0,0,0,-1,965,1016,0,0
-252,8,0,0,0,0,0,0,0,0,0,-1,972,1016,0,0
-245,8,0,0,0,0,0,0,0,0,0,-1,979,1016,0,0
-238,8,0,0,0,0,0,0,0,0,0,-1,986,1016,0,0
-231,8,0,0,0,0,0,0,0,0,0,-1,993,1016,0,0
-224,8,0,0,0,0,0,0,0,0,0,-1,1000,1016,0,0
-217,8,0,0,0,0,0,0,0,0,0,-1,1007,1016,0,0
-210,8,0,0,0,0,0,0,0,0,0,-1,1014,1016,0,0
-203,8,0,0,0,0,0,0,0,0,0,-1,1021,1016,0,0
-196,8,0,0,0,0,0,0,0,0,0,-1,1028,1016,0,0
-189,8,0,0,0,0,0,0,0,0,0,-1,1035,1016,0,0
-182,8,0,0,0,0,0,0,0,0,0,-1,1042,1016,0,0
-175,8,0,0,0,0,0,0,0,0,0,-1,1049,1016,0,0
-168,8,0,0,0,0,0,0,0,0,0,-1,1056,1016,0,0
-161,8,0,0,0,0,0,0,0,0,0,-1,1063,1016,0,0
-154,8,0,0,0,0,0,0,0,0,0,-1,1070,1016,0,0
-147,8,0,0,0,0,0,0,0,0,0,-1,1077,1016,0,0
-140,8,0,0,0,0,0,0,0,0,0,-1,1084,1016,0,0
-133,8,0,0,0,0,0,0,0,0,0,-1,1091,1016,0,0
-126,8,0,0,0,0,0,0,0,0,0,-1,1098,1016,0,0
-119,8,0,0,0,0,0,0,0,0,0,-1,1105,1016,0,0
-112,8,0,0,0,0,0,0,0,0,0,-1,1112,1016,0,0
-105,8,0,0,0,0,0,0,0,0,0,-1,1119,1016,0,0
-98,8,0,0,0,0,0,0,0,0,0,-1,1126,1016,0,0
-91,8,0,0,0,0,0,0,0,0,0,-1,1133,1016,0,0
-84,8,0,0,0,0,0,0,0,0,0,-1,1140,1016,0,0
-77,8,0,0,0,0,0,0,0,0,0,-1,1147,1016,0,0
-70,8,0,0,0,0,0,0,0,0,0,-1,1154,1016,0,0
-63,8,0,0,0,0,0,0,0,0,0,-1,1161,1016,0,0
-56,8,0,0,0,0,0,0,0,0,0,-1,1168,1016,0,0
-49,8,0,0,0,0,0,0,0,0,0,-1,1175,1016,0,0
-42,8,0,0,0,0,0,0,0,0,0,-1,1182,1016,0,0
-35,8,0,0,0,0,0,0,0,0,0,-1,1189,1016,0,0
-28,8,0,0,0,0,0,0,0,0,0,-1,1196,1016,0,0
-21,8,0,0,0,0,0,0,0,0,0,-1,1203,1016,0,0
-14,8,0,0,0,0,0,0,0,0,0,-1,1210,1016,0,0
-7,8,0,0,0,0,0,0,0,0,0,-1,1217,1016,0,0
0,8,0,0,0,0,0,0,0,0,0,-1,1224,1016,0,0
7,8,0,0,0,0,0,0,0,0,0,-1,1231,1016,0,0
14,8,0,0,0,0,0,0,0,0,0,-1,1238,1016,0,0
21,8,0,0,0,0,0,0,0,0,0,-1,1245,1016,0,0
28,8,0,0,0,0,0,0,0,0,0,-1,1252,1016,0,0
35,8,0,0,0,0,0,0,0,0,0,-1,1259,1016,0,0
42,8,0,0,0,0,0,0,0,0,0,-1,1266,1016,0,0
49,8,0,0,0,0,0,0,0,0,0,-1,1273,1016,0,0
56,8,0,0,0,0,0,0,0,0,0,-1,1280,1016,0,0
63,8,0,0,0,0,0,0,0,0,0,-1,1287,1016,0,0
70,8,0,0,0,0,0,0,0,0,0,-1,1294,1016,0,0
77,8,0,0,0,0,0,0,0,0,0,-1,1301,1016,0,0
84,8,0,0,0,0,0,0,0,0,0,-1,1308,1016,0,0
91,8,0,0,0,0,0,0,0,0,0,-1,1315,1016,0,0
98,8,0,0,0,0,0,0,0,0,0,-1,1322,1016,0,0
105,8,0,0,0,0,0,0,0,0,0,-1,1329,1016,0,0
112,8,0,0,0,0,0,0,0,0,0,-1,1336,1016,0,0
119,8,0,0,0,0,0,0,0,0,0,-1,1343,1016,0,0
126,8,0,0,0,0,0,0,0,0,0,-1,1350,1016,0,0
133,8,0,0,0,0,0,0,0,0,0,-1,1357,1016,0,0
140,8,0,0,0,0,0,0,0,0,0,-1,1364,1016,0,0
147,8,0,0,0,0,0,0,0,0,0,-1,1371,1016,0,0
154,8,0,0,0,0,0,0,0,0,0,-1,1378,1016,0,0
161,8,0,0,0,0,0,0,0,0,0,-1,1385,1016,0,0
168,8,0,0,0,0,0,0,0,0,0,-1,1392,1016,0,0
175,8,0,0,0,0,0,0,0,0,0,-1,1399,1016,0,0
182,8,0,0,0,0,0,0,0,0,0,-1,1406,1016,0,0
189,8,0,0,0,0,0,0,0,0,0,-1,1413,1016,0,0
196,8,0,0,0,0,0,0,0,0,0,-1,1420,1016,0,0
203,8,0,0,0,0,0,0,0,0,0,-1,1427,1016,0,0
210,8,0,0,0,0,0,0,0,0,0,-1,1434,1016,0,0
217,8,0,0,0,0,0,0,0,0,0,-1,1441,1016,0,0
224,8,0,0,0,0,0,0,0,0,0,-1,1448,1016,0,0
231,8,0,0,0,0,0,0,0,0,0,-1,1455,1016,0,0
238,8,0,0,0,0,0,0,0,0,0,-1,1462,1016,0,0
245,8,0,0,0,0,0,0,0,0,0,-1,1469,1016,0,0
252,8,0,0,0,0,0,0,0,0,0,-1,1476,1016,0,0
259,8,0,0,0,0,0,0,0,0,0,-1,1483,1016,0,0
266,8,0,0,0,0,0,0,0,0,0,-1,1490,1016,0,0
273,8,0,0,0,0,0,0,0,0,0,-1,1497,1016,0,0
280,8,0,0,0,0,0,0,0,0,0,-1,1504,1016,0,0
287,8,0,0,0,0,0,0,0,0,0,-1,1511,1016,0,0
294,8,0,0,0,0,0,0,0,0,0,-1,1518,1016,0,0
301,8,0,0,0,0,0,0,0,0,0,-1,1525,1016,0,0
308,8,0,0,0,0,0,0,0,0,0,-1,1532,1016,0,0
315,8,0,0,0,0,0,0,0,0,0,-1,1539,1016,0,0
322,8,0,0,0,0,0,0,0,0,0,-1,1546,1016,0,0
329,8,0,0,0,0,0,0,0,0,0,-1,1553,1016,0,0
336,8,0,0,0,0,0,0,0,0,0,-1,1560,1016,0,0
343,8,0,0,0,0,0,0,0,0,0,-1,1567,1016,0,0
350,8,0,0,0,0,0,0,0,0,0,-1,1574,1016,0,0
357,8,0,0,0,0,0,0,0,0,0,-1,1581,1016,0,0
364,8,0,0,0,0,0,0,0,0,0,-1,1588,1016,0,0
371,8,0,0,0,0,0,0,0,0,0,-1,1595,1016,0,0
378,8,0,0,0,0,0,0,0,0,0,-1,1602,1016,0,0
385,8,0,0,0,0,0,0,0,0,0,-1,1609,1016,0,0
392,8,0,0,0,0,0,0,0,0,0,-1,1616,1016,0,0
399,8,0,0,0,0,0,0,0,0,0,-1,1623,1016,0,0
406,8,0,0,0,0,0,0,0,0,0,-1,1630,1016,0,0
413,8,0,0,0,0,0,0,0,0,0,-1,1637,1016,0,0
420,8,0,0,0,0,0,0,0,0,0,-1,1644,1016,0,0
427,8,0,0,0,0,0,0,0,0,0,-1,1651,1016,0,0
434,8,0,0,0,0,0,0,0,0,0,-1,1658,1016,0,0
441,8,0,0,0,0,0,0,0,0,0,-1,1665,1016,0,0
448,8,0,0,0,0,0,0,0,0,0,-1,1672,1016,0,0
455,8,0,0,0,0,0,0,0,0,0,-1,1679,1016,0,0
462,8,0,0,0,0,0,0,0,0,0,-1,1686,1016,0,0
469,8,0,0,0,0,0,0,0,0,0,-1,1693,1016,0,0
476,8,0,0,0,0,0,0,0,0,0,-1,1700,1016,0,0
483,8,0,0,0,0,0,0,0,0,0,-1,1707,1016,0,0
490,8,0,0,0,0,0,0,0,0,0,-1,1714,1016,0,0
497,8,0,0,0,0,0,0,0,0,0,-1,1721,1016,0,0
504,8,0,0,0,0,0,0,0,0,0,-1,1728,1016,0,0
511,8,0,0,0,0,0,0,0,0,0,-1,1735,1016,0,0
518,8,0,0,0,0,0,0,0,0,0,-1,1742,1016,0,0
525,8,0,0,0,0,0,0,0,0,0,-1,1749,1016,0,0
532,8,0,0,0,0,0,0,0,0,0,-1,1756,1016,0,0
539,8,0,0,0,0,0,0,0,0,0,-1,1763,1016,0,0
546,8,0,0,0,0,0,0,0,0,0,-1,1770,1016,0,0
553,8,0,0,0,0,0,0,0,0,0,-1,1777,1016,0,0
560,8,0,0,0,0,0,0,0,0,0,-1,1784,1016,0,0
567,8,0,0,0,0,0,0,0,0,0,-1,1791,1016,0,0
574,8,0,0,0,0,0,0,0,0,0,-1,1798,1016,0,0
581,8,0,0,0,0,0,0,0,0,0,-1,1805,1016,0,0
588,8,0,0,0,0,0,0,0,0,0,-1,1812,1016,0,0
595,8,0,0,0,0,0,0,0,0,0,-1,1819,1016,0,0
602,8,0,0,0,0,0,0,0,0,0,-1,1826,1016,0,0
609,8,0,0,0,0,0,0,0,0,0,-1,1833,1016,0,0
616,8,0,0,0,0,0,0,0,0,0,-1,1840,1016,0,0
623,8,0,0,0,0,0,0,0,0,0,-1,1847,1016,0,0
630,8,0,0,0,0,0,0,0,0,0,-1,1854,1016,0,0
637,8,0,0,0,0,0,0,0,0,0,-1,1861,1016,0,0
644,8,55.1659,2.58423,0.00193951,0.00423454,0.0016135,0.00506697,0.00110708,1.0945,0.00307609,0.0425801,1868,1016,55.1658,-2.58426
651,8,55.2744,2.50159,0.000538725,0.00383377,0.00126466,0.00426319,0.000109304,1.24346,0.0028064,0.04019,1875,1016,55.2744,-2.50159
658,8,55.2617,2.48218,-0.000265978,0.00324139,0.00091296,0.0034648,-0.000489388,1.3308,0.00248909,0.0394784,1882,1016,55.2617,-2.48217
665,8,55.1942,2.48419,-0.000693864,0.00274555,0.000880604,0.0029579,-0.000906217,1.33417,0.00233342,0.0390609,1889,1016,55.1942,-2.48419
672,8,55.24,2.58081,-0.000945942,0.00237096,0.00120076,0.00276001,-0.001335,1.25746,0.0024115,0.0360189,1896,1016,55.24,-2.58081
679,8,55.2399,2.71472,-0.00102178,0.00212875,0.00177476,0.0029265,-0.00181954,1.14836,0.00276486,0.0342993,1903,1016,55.2398,-2.71475
686,8,55.2274,2.7807,-0.00109476,0.00178234,0.00240618,0.00314721,-0.00245962,1.05482,0.00324521,0.0393568,1910,1016,55.2275,-2.78068
693,8,55.202,2.73163,-0.00112241,0.00143378,0.00298256,0.00340056,-0.00308919,0.987823,0.0037483,0.0388827,1917,1016,55.202,-2.73161
700,8,55.2344,2.64825,-0.00114633,0.00121452,0.00335364,0.00358941,-0.00352122,0.954619,0.00410539,0.0306232,1924,1016,55.2344,-2.64825
707,8,55.2167,2.59753,-0.00146527,0.00137213,0.00346415,0.00369683,-0.00378997,0.979749,0.00432262,0.0245734,1931,1016,55.2166,-2.59756
714,8,55.2103,2.61108,-0.00201684,0.00184819,0.00342704,0.00385004,-0.00401869,1.04213,0.00454336,0.0273267,1938,1016,55.2103,-2.61108
721,8,55.2474,2.67468,0,0,0,0,0,0,0,-1,1945,1016,55.2474,-2.67468
728,8,52.1681,5.36774,0,0,0,0,0,0,0,-1,1952,1016,52.168,-5.36773
735,8,55.1034,6.19275,0,0,0,0,0,0,0,-1,1959,1016,55.1034,-6.19273
742,8,55.0894,6.38684,0,0,0,0,0,0,0,-1,1966,1016,55.0894,-6.38682
749,8,55.2717,6.36499,0,0,0,0,0,0,0,-1,1973,1016,55.2717,-6.36502
756,8,55.1648,6.20599,-0.00736051,0.011631,0.000223535,0.0116336,-0.00736314,1.55903,0.0110598,0.031999,1980,1016,55.1648,-6.20597
763,8,55.1298,6.26349,-0.00824773,0.0149682,-0.00107278,0.0150177,-0.0082972,-1.52472,0.013646,0.0161005,1987,1016,55.1298,-6.26346
770,8,55.0249,6.21735,-0.00863953,0.0195079,-0.00255576,0.0197381,-0.0088697,-1.48098,0.0169094,0.0207244,1994,1016,55.0249,-6.21737
777,8,54.679,6.22461,-0.00835713,0.0251969,-0.00388393,0.0256406,-0.00880083,-1.45705,0.0206618,0.0348738,2001,1016,54.679,-6.22459
784,8,54.3279,6.21631,0,0,0,0,0,0,0,-1,2008,1016,54.3278,-6.21629
791,8,54.2993,5.73785,-0.00527138,0.0384203,-0.00635487,0.0393258,-0.00617692,-1.42925,0.0285002,0.0474451,2015,1016,54.2993,-5.73785
798,8,54.0161,5.59924,0,0,0,0,0,0,0,-1,2022,1016,54.0162,-5.59927
805,8,53.7012,5.47797,0,0,0,0,0,0,0,-1,2029,1016,53.7011,-5.47798
812,8,52.9133,5.57953,0,0,0,0,0,0,0,-1,2036,1016,52.9133,-5.57955
-700,1,0,0,0,0,0,0,0,0,0,-1,524,1023,0,0
-693,1,-41.4159,3.68982,0.00642833,0.0525509,-0.0448331,0.0799062,-0.0209269,-1.02294,0.061446,0.0428751,531,1023,-41.4159,-3.68983
-686,1,-41.7068,3.02893,0.0181792,0.0455614,-0.0308303,0.0656039,-0.00186331,-0.994358,0.0443701,0.0446892,538,1023,-41.7068,-3.02892
-679,1,-43.3777,2.51831,0.0223645,0.0398344,-0.0207201,0.0535855,0.00861341,-0.984878,0.0332268,0.0484883,545,1023,-43.3777,-2.51828
-672,1,-42.1456,2.27875,0.0227187,0.0348423,-0.0133101,0.043406,0.014155,-0.999079,0.0255606,0.0425227,552,1023,-42.1456,-2.27876
-665,1,-41.6189,3.02087,0,0,0,0,0,0,0,-1,559,1023,-41.6189,-3.02085
-658,1,-42.1154,3.05652,0.0177769,0.0260715,-0.00417018,0.0278056,0.0160428,-1.17672,0.0161168,0.0352292,566,1023,-42.1154,-3.0565
-651,1,-41.8415,3.23053,0.0141392,0.0219832,-0.00174722,0.0223548,0.0137676,-1.36125,0.0130215,0.0286495,573,1023,-41.8415,-3.2305
-644,1,-41.5466,3.45953,0,0,0,0,0,0,0,-1,580,1023,-41.5466,-3.45951
-637,1,-41.8716,3.36029,0.00745002,0.0146031,0.000815362,0.0146949,0.00735825,1.45872,0.00848408,0.0380811,587,1023,-41.8716,-3.36029
-630,1,-42.1211,3.40045,0.00525054,0.0112762,0.00101888,0.0114438,0.00508292,1.40774,0.00662078,0.0330846,594,1023,-42.1211,-3.40047
-623,1,-42.0145,3.58282,0.00156457,0.00842961,0.000871159,0.00853843,0.00145575,1.44652,0.00527443,0.0162361,601,1023,-42.0145,-3.5828
-616,1,-42.131,3.53259,-0.0018528,0.00631212,-0.0011071,0.00645957,-0.00200025,-1.43839,0.00510546,0.0202564,608,1023,-42.1311,-3.53258
-609,1,-42.1381,3.61243,-0.0025774,0.00466855,-0.00237674,0.00537857,-0.00328742,-1.2805,0.00505163,0.0209263,615,1023,-42.1381,-3.61245
-602,1,-41.9808,3.68695,-0.00195124,0.00330441,-0.00276858,0.00449372,-0.00314055,-1.16506,0.00443067,0.0164745,622,1023,-41.9808,-3.68694
-595,1,-41.8164,3.69806,0,0,0,0,0,0,0,-1,629,1023,-41.8164,-3.69806
-588,1,-41.6171,3.72583,0,0,0,0,0,0,0,-1,636,1023,-41.617,-3.72583
-581,1,-41.4433,0.840454,-0.000165482,-2.56675e-05,-0.00271326,0.00261859,-0.00280973,-0.798278,0.00313469,0.031675,643,1023,-41.4433,-0.840441
-574,1,-41.4622,0.962463,0.000127144,-0.000672908,-0.00243975,0.00219944,-0.00274521,-0.70414,0.00286058,0.0390464,650,1023,-41.4621,-0.96247
-567,1,-41.3126,0.902161,0.000247752,-0.000990204,-0.00189915,0.00162624,-0.0023687,-0.627864,0.00231972,0.0432236,657,1023,-41.3126,-0.902159
-560,1,-41.1191,0.513611,0.00038299,-0.00105144,-0.00113536,0.0010087,-0.00167715,-0.503696,0.0015666,0.0425116,664,1023,-41.1191,-0.51362
-553,1,-41.4094,0.502625,0.000479915,-0.00098392,-0.000176467,0.000500887,-0.00100489,-0.118294,0.000885447,0.0399311,671,1023,-41.4094,-0.50263
-546,1,-41.4348,0.620544,0.000608258,-0.00105265,0.000940548,0.00103251,-0.0014769,0.423741,0.00145636,0.0424927,678,1023,-41.4348,-0.620535
-539,1,-41.3394,0.737183,0.000705549,-0.000709524,0.00153751,0.0016905,-0.00169448,0.569753,0.00195432,0.0425842,685,1023,-41.3394,-0.737162
-532,1,-41.3217,1.0282,0.000715755,-0.000512556,0.00209014,0.0022801,-0.00207691,0.642503,0.00251643,0.0417176,692,1023,-41.3217,-1.0282
-525,1,0,0,0,0,0,0,0,0,0,-1,699,1023,0,0
-518,1,0,0,0,0,0,0,0,0,0,-1,706,1023,0,0
-511,1,0,0,0,0,0,0,0,0,0,-1,713,1023,0,0
-504,1,0,0,0,0,0,0,0,0,0,-1,720,1023,0,0
-497,1,0,0,0,0,0,0,0,0,0,-1,727,1023,0,0
-490,1,0,0,0,0,0,0,0,0,0,-1,734,1023,0,0
-483,1,0,0,0,0,0,0,0,0,0,-1,741,1023,0,0
-476,1,0,0,0,0,0,0,0,0,0,-1,748,1023,0,0
-469,1,0,0,0,0,0,0,0,0,0,-1,755,1023,0,0
-462,1,0,0,0,0,0,0,0,0,0,-1,762,1023,0,0
-455,1,0,0,0,0,0,0,0,0,0,-1,769,1023,0,0
-448,1,0,0,0,0,0,0,0,0,0,-1,776,1023,0,0
-441,1,0,0,0,0,0,0,0,0,0,-1,783,1023,0,0
-434,1,0,0,0,0,0,0,0,0,0,-1,790,1023,0,0
-427,1,0,0,0,0,0,0,0,0,0,-1,797,1023,0,0
-420,1,0,0,0,0,0,0,0,0,0,-1,804,1023,0,0
-413,1,0,0,0,0,0,0,0,0,0,-1,811,1023,0,0
-406,1,0,0,0,0,0,0,0,0,0,-1,818,1023,0,0
-399,1,0,0,0,0,0,0,0,0,0,-1,825,1023,0,0
-392,1,0,0,0,0,0,0,0,0,0,-1,832,1023,0,0
-385,1,0,0,0,0,0,0,0,0,0,-1,839,1023,0,0
-378,1,0,0,0,0,0,0,0,0,0,-1,846,1023,0,0
-371,1,0,0,0,0,0,0,0,0,0,-1,853,1023,0,0
-364,1,0,0,0,0,0,0,0,0,0,-1,860,1023,0,0
-357,1,0,0,0,0,0,0,0,0,0,-1,867,1023,0,0
-350,1,0,0,0,0,0,0,0,0,0,-1,874,1023,0,0
-343,1,0,0,0,0,0,0,0,0,0,-1,881,1023,0,0
-336,1,0,0,0,0,0,0,0,0,0,-1,888,1023,0,0
-329,1,0,0,0,0,0,0,0,0,0,-1,895,1023,0,0
-322,1,0,0,0,0,0,0,0,0,0,-1,902,1023,0,0
-315,1,0,0,0,0,0,0,0,0,0,-1,909,1023,0,0
-308,1,0,0,0,0,0,0,0,0,0,-1,916,1023,0,0
-301,1,0,0,0,0,0,0,0,0,0,-1,923,1023,0,0
-294,1,0,0,0,0,0,0,0,0,0,-1,930,1023,0,0
-287,1,0,0,0,0,0,0,0,0,0,-1,937,1023,0,0
-280,1,0,0,0,0,0,0,0,0,0,-1,944,1023,0,0
-273,1,0,0,0,0,0,0,0,0,0,-1,951,1023,0,0
-266,1,0,0,0,0,0,0,0,0,0,-1,958,1023,0,0
-259,1,0,0,0,0,0,0,0,0,0,-1,965,1023,0,0
-252,1,0,0,0,0,0,0,0,0,0,-1,972,1023,0,0
-245,1,0,0,0,0,0,0,0,0,0,-1,979,1023,0,0
-238,1,0,0,0,0,0,0,0,0,0,-1,986,1023,0,0
-231,1,0,0,0,0,0,0,0,0,0,-1,993,1023,0,0
-224,1,0,0,0,0,0,0,0,0,0,-1,1000,1023,0,0
-217,1,0,0,0,0,0,0,0,0,0,-1,1007,1023,0,0
-210,1,0,0,0,0,0,0,0,0,0,-1,1014,1023,0,0
-203,1,0,0,0,0,0,0,0,0,0,-1,1021,1023,0,0
-196,1,0,0,0,0,0,0,0,0,0,-1,1028,1023,0,0
-189,1,0,0,0,0,0,0,0,0,0,-1,1035,1023,0,0
-182,1,0,0,0,0,0,0,0,0,0,-1,1042,1023,0,0
-175,1,0,0,0,0,0,0,0,0,0,-1,1049,1023,0,0
-168,1,0,0,0,0,0,0,0,0,0,-1,1056,1023,0,0
-161,1,0,0,0,0,0,0,0,0,0,-1,1063,1023,0,0
-154,1,0,0,0,0,0,0,0,0,0,-1,1070,1023,0,0
-147,1,0,0,0,0,0,0,0,0,0,-1,1077,1023,0,0
-140,1,0,0,0,0,0,0,0,0,0,-1,1084,1023,0,0
-133,1,0,0,0,0,0,0,0,0,0,-1,1091,1023,0,0
-126,1,0,0,0,0,0,0,0,0,0,-1,1098,1023,0,0
-119,1,0,0,0,0,0,0,0,0,0,-1,1105,1023,0,0
-112,1,0,0,0,0,0,0,0,0,0,-1,1112,1023,0,0
-105,1,0,0,0,0,0,0,0,0,0,-1,1119,1023,0,0
-98,1,0,0,0,0,0,0,0,0,0,-1,1126,1023,0,0
-91,1,0,0,0,0,0,0,0,0,0,-1,1133,1023,0,0
-84,1,0,0,0,0,0,0,0,0,0,-1,1140,1023,0,0
-77,1,0,0,0,0,0,0,0,0,0,-1,1147,1023,0,0
-70,1,0,0,0,0,0,0,0,0,0,-1,1154,1023,0,0
-63,1,0,0,0,0,0,0,0,0,0,-1,1161,1023,0,0
-56,1,0,0,0,0,0,0,0,0,0,-1,1168,1023,0,0
-49,1,0,0,0,0,0,0,0,0,0,-1,1175,1023,0,0
-42,1,0,0,0,0,0,0,0,0,0,-1,1182,1023,0,0
-35,1,0,0,0,0,0,0,0,0,0,-1,1189,1023,0,0
-28,1,0,0,0,0,0,0,0,0,0,-1,1196,1023,0,0
-21,1,0,0,0,0,0,0,0,0,0,-1,1203,1023,0,0
-14,1,0,0,0,0,0,0,0,0,0,-1,1210,1023,0,0
-7,1,0,0,0,0,0,0,0,0,0,-1,1217,1023,0,0
0,1,0,0,0,0,0,0,0,0,0,-1,1224,1023,0,0
7,1,0,0,0,0,0,0,0,0,0,-1,1231,1023,0,0
14,1,0,0,0,0,0,0,0,0,0,-1,1238,1023,0,0
21,1,0,0,0,0,0,0,0,0,0,-1,1245,1023,0,0
28,1,0,0,0,0,0,0,0,0,0,-1,1252,1023,0,0
35,1,0,0,0,0,0,0,0,0,0,-1,1259,1023,0,0
42,1,0,0,0,0,0,0,0,0,0,-1,1266,1023,0,0
49,1,0,0,0,0,0,0,0,0,0,-1,1273,1023,0,0
56,1,0,0,0,0,0,0,0,0,0,-1,1280,1023,0,0
63,1,0,0,0,0,0,0,0,0,0,-1,1287,1023,0,0
70,1,0,0,0,0,0,0,0,0,0,-1,1294,1023,0,0
77,1,0,0,0,0,0,0,0,0,0,-1,1301,1023,0,0
84,1,0,0,0,0,0,0,0,0,0,-1,1308,1023,0,0
91,1,0,0,0,0,0,0,0,0,0,-1,1315,1023,0,0
98,1,0,0,0,0,0,0,0,0,0,-1,1322,1023,0,0
105,1,0,0,0,0,0,0,0,0,0,-1,1329,1023,0,0
112,1,0,0,0,0,0,0,0,0,0,-1,1336,1023,0,0
119,1,0,0,0,0,0,0,0,0,0,-1,1343,1023,0,0
126,1,0,0,0,0,0,0,0,0,0,-1,1350,1023,0,0
133,1,0,0,0,0,0,0,0,0,0,-1,1357,1023,0,0
140,1,0,0,0,0,0,0,0,0,0,-1,1364,1023,0,0
147,1,0,0,0,0,0,0,0,0,0,-1,1371,1023,0,0
154,1,0,0,0,0,0,0,0,0,0,-1,1378,1023,0,0
161,1,0,0,0,0,0,0,0,0,0,-1,1385,1023,0,0
168,1,0,0,0,0,0,0,0,0,0,-1,1392,1023,0,0
175,1,0,0,0,0,0,0,0,0,0,-1,1399,1023,0,0
182,1,0,0,0,0,0,0,0,0,0,-1,1406,1023,0,0
189,1,0,0,0,0,0,0,0,0,0,-1,1413,1023,0,0
196,1,0,0,0,0,0,0,0,0,0,-1,1420,1023,0,0
203,1,0,0,0,0,0,0,0,0,0,-1,1427,1023,0,0
210,1,0,0,0,0,0,0,0,0,0,-1,1434,1023,0,0
217,1,0,0,0,0,0,0,0,0,0,-1,1441,1023,0,0
224,1,0,0,0,0,0,0,0,0,0,-1,1448,1023,0,0
231,1,0,0,0,0,0,0,0,0,0,-1,1455,1023,0,0
238,1,0,0,0,0,0,0,0,0,0,-1,1462,1023,0,0
245,1,0,0,0,0,0,0,0,0,0,-1,1469,1023,0,0
252,1,0,0,0,0,0,0,0,0,0,-1,1476,1023,0,0
259,1,0,0,0,0,0,0,0,0,0,-1,1483,1023,0,0
266,1,0,0,0,0,0,0,0,0,0,-1,1490,1023,0,0
273,1,0,0,0,0,0,0,0,0,0,-1,1497,1023,0,0
280,1,0,0,0,0,0,0,0,0,0,-1,1504,1023,0,0
287,1,0,0,0,0,0,0,0,0,0,-1,1511,1023,0,0
294,1,0,0,0,0,0,0,0,0,0,-1,1518,1023,0,0
301,1,0,0,0,0,0,0,0,0,0,-1,1525,1023,0,0
308,1,0,0,0,0,0,0,0,0,0,-1,1532,1023,0,0
315,1,0,0,0,0,0,0,0,0,0,-1,1539,1023,0,0
322,1,0,0,0,0,0,0,0,0,0,-1,1546,1023,0,0
329,1,0,0,0,0,0,0,0,0,0,-1,1553,1023,0,0
336,1,0,0,0,0,0,0,0,0,0,-1,1560,1023,0,0
343,1,0,0,0,0,0,0,0,0,0,-1,1567,1023,0,0
350,1,0,0,0,0,0,0,0,0,0,-1,1574,1023,0,0
357,1,0,0,0,0,0,0,0,0,0,-1,1581,1023,0,0
364,1,0,0,0,0,0,0,0,0,0,-1,1588,1023,0,0
371,1,0,0,0,0,0,0,0,0,0,-1,1595,1023,0,0
378,1,0,0,0,0,0,0,0,0,0,-1,1602,1023,0,0
385,1,0,0,0,0,0,0,0,0,0,-1,1609,1023,0,0
392,1,0,0,0,0,0,0,0,0,0,-1,1616,1023,0,0
399,1,0,0,0,0,0,0,0,0,0,-1,1623,1023,0,0
406,1,0,0,0,0,0,0,0,0,0,-1,1630,1023,0,0
413,1,0,0,0,0,0,0,0,0,0,-1,1637,1023,0,0
420,1,0,0,0,0,0,0,0,0,0,-1,1644,1023,0,0
427,1,0,0,0,0,0,0,0,0,0,-1,1651,1023,0,0
434,1,0,0,0,0,0,0,0,0,0,-1,1658,1023,0,0
441,1,0,0,0,0,0,0,0,0,0,-1,1665,1023,0,0
448,1,0,0,0,0,0,0,0,0,0,-1,1672,1023,0,0
455,1,0,0,0,0,0,0,0,0,0,-1,1679,1023,0,0
462,1,0,0,0,0,0,0,0,0,0,-1,1686,1023,0,0
469,1,0,0,0,0,0,0,0,0,0,-1,1693,1023,0,0
476,1,0,0,0,0,0,0,0,0,0,-1,1700,1023,0,0
483,1,0,0,0,0,0,0,0,0,0,-1,1707,1023,0,0
490,1,0,0,0,0,0,0,0,0,0,-1,1714,1023,0,0
497,1,0,0,0,0,0,0,0,0,0,-1,1721,1023,0,0
504,1,0,0,0,0,0,0,0,0,0,-1,1728,1023,0,0
511,1,0,0,0,0,0,0,0,0,0,-1,1735,1023,0,0
518,1,0,0,0,0,0,0,0,0,0,-1,1742,1023,0,0
525,1,0,0,0,0,0,0,0,0,0,-1,1749,1023,0,0
532,1,0,0,0,0,0,0,0,0,0,-1,1756,1023,0,0
539,1,0,0,0,0,0,0,0,0,0,-1,1763,1023,0,0
546,1,0,0,0,0,0,0,0,0,0,-1,1770,1023,0,0
553,1,0,0,0,0,0,0,0,0,0,-1,1777,1023,0,0
560,1,0,0,0,0,0,0,0,0,0,-1,1784,1023,0,0
567,1,0,0,0,0,0,0,0,0,0,-1,1791,1023,0,0
574,1,0,0,0,0,0,0,0,0,0,-1,1798,1023,0,0
581,1,0,0,0,0,0,0,0,0,0,-1,1805,1023,0,0
588,1,0,0,0,0,0,0,0,0,0,-1,1812,1023,0,0
595,1,0,0,0,0,0,0,0,0,0,-1,1819,1023,0,0
602,1,0,0,0,0,0,0,0,0,0,-1,1826,1023,0,0
609,1,0,0,0,0,0,0,0,0,0,-1,1833,1023,0,0
616,1,0,0,0,0,0,0,0,0,0,-1,1840,1023,0,0
623,1,0,0,0,0,0,0,0,0,0,-1,1847,1023,0,0
630,1,0,0,0,0,0,0,0,0,0,-1,1854,1023,0,0
637,1,0,0,0,0,0,0,0,0,0,-1,1861,1023,0,0
644,1,0,0,0,0,0,0,0,0,0,-1,1868,1023,0,0
651,1,55.2917,2.7323,0.000352729,0.003549,0.000724999,0.00370576,0.000195969,1.35785,0.00240785,0.0397192,1875,1023,55.2918,-2.73227
658,1,55.3496,2.63513,-0.000557985,0.00296547,0.000667985,0.00308785,-0.000680372,1.38959,0.00231887,0.0415519,1882,1023,55.3496,-2.63516
665,1,55.3079,2.54321,-0.00102091,0.00245087,0.000761823,0.00261068,-0.00118073,1.36402,0.00224026,0.0420496,1889,1023,55.3078,-2.54324
672,1,55.3799,2.56677,-0.00126057,0.00207876,0.0011486,0.00243568,-0.0016175,1.26951,0.00235594,0.0391843,1896,1023,55.3798,-2.56676
679,1,55.2789,2.81,-0.00129953,0.00183354,0.00173383,0.00260371,-0.0020697,1.15277,0.00270406,0.0362243,1903,1023,55.279,-2.80999
686,1,55.2089,2.88873,-0.00137467,0.00148841,0.00235161,0.00280993,-0.00269619,1.05881,0.00317919,0.0379364,1910,1023,55.2088,-2.88874
693,1,55.3517,2.83942,-0.00139084,0.00114446,0.00292142,0.0030614,-0.00330779,0.990098,0.00367817,0.0359082,1917,1023,55.3517,-2.83942
700,1,55.3247,2.73077,-0.0013625,0.00092173,0.0033111,0.00328216,-0.00372292,0.951476,0.00404705,0.0317887,1924,1023,55.3248,-2.73079
707,1,55.2328,2.63898,-0.00168261,0.00107686,0.0034641,0.00342588,-0.00403163,0.974916,0.00431033,0.0252827,1931,1023,55.2328,-2.639
714,1,55.1901,2.64844,-0.00223422,0.00154428,0.00346179,0.00359879,-0.00428873,1.03518,0.00455967,0.0255726,1938,1023,55.1901,-2.64842
721,1,55.2418,2.76385,0,0,0,0,0,0,0,-1,1945,1023,55.2418,-2.76383
728,1,52.4639,5.59277,0,0,0,0,0,0,0,-1,1952,1023,52.4639,-5.59276
735,1,53.3617,6.10699,0,0,0,0,0,0,0,-1,1959,1023,53.3617,-6.10698
742,1,52.4393,5.81525,0,0,0,0,0,0,0,-1,1966,1023,52.4393,-5.81527
749,1,55.2186,6.12012,0,0,0,0,0,0,0,-1,1973,1023,55.2186,-6.1201
756,1,55.1667,6.24622,-0.00724532,0.0110601,0.000402902,0.011069,-0.00725419,1.5488,0.010655,0.0332572,1980,1023,55.1668,-6.24623
763,1,55.0845,6.17871,-0.00797578,0.0140618,-0.00094373,0.0141021,-0.00801612,-1.52808,0.0129301,0.0175469,1987,1023,55.0845,-6.17872
770,1,55.0515,6.1347,-0.00813507,0.0181316,-0.00261877,0.0183901,-0.00839362,-1.47239,0.0158185,0.0188301,1994,1023,55.0514,-6.13469
777,1,54.7827,6.02649,-0.00751448,0.0232321,-0.0042914,0.0238198,-0.00810221,-1.43469,0.0191604,0.025348,2001,1023,54.7826,-6.02651
784,1,54.6121,6.01031,-0.00618282,0.0286287,-0.00594018,0.0296144,-0.00716853,-1.40636,0.0225161,0.0453203,2008,1023,54.612,-6.01032
791,1,54.7971,5.9516,-0.00408113,0.0343218,-0.00775269,0.0358279,-0.00558717,-1.37893,0.0259489,0.0476548,2015,1023,54.7972,-5.95157
798,1,54.7366,5.72437,0,0,0,0,0,0,0,-1,2022,1023,54.7366,-5.72438
805,1,54.1807,5.49139,0,0,0,0,0,0,0,-1,2029,1023,54.1807,-5.49138
812,1,53.7327,5.14545,0,0,0,0,0,0,0,-1,2036,1023,53.7326,-5.14545
-700,-6,0,0,0,0,0,0,0,0,0,-1,524,1030,0,0
-693,-6,-41.2352,3.33472,-0.00255025,0.0532089,-0.0428632,0.0764618,-0.0258031,-1.07374,0.0614099,0.0407758,531,1030,-41.2352,-3.33473
-686,-6,-41.4742,2.49243,0.00793321,0.0469818,-0.0300537,0.0632964,-0.00838138,-1.07346,0.0452508,0.0432953,538,1030,-41.4742,-2.49249
-679,-6,-41.7743,2.34094,0.0127026,0.0415021,-0.0206746,0.0522974,0.00190732,-1.08958,0.0342469,0.0459729,545,1030,-41.7743,-2.34098
-672,-6,-41.7928,2.51379,0.0144199,0.0364732,-0.0136663,0.0430066,0.00788653,-1.12485,0.0264373,0.0475312,552,1030,-41.7928,-2.51375
-665,-6,-41.6946,2.5813,0.0142003,0.0317491,-0.0084862,0.0351815,0.0107679,-1.18645,0.0208151,0.0438033,559,1030,-41.6946,-2.58132
-658,-6,-42.0051,2.85547,0.0127202,0.0272351,-0.00477247,0.0286637,0.0112916,-1.27995,0.0166727,0.0394877,566,1030,-42.0051,-2.85545
-651,-6,-41.8259,3.0033,0.0105047,0.0228604,-0.00233807,0.023288,0.010077,-1.3899,0.0134859,0.0449824,573,1030,-41.8259,-3.00333
-644,-6,-41.5823,3.76709,0,0,0,0,0,0,0,-1,580,1030,-41.5823,-3.76712
-637,-6,-41.8462,3.54175,0.00605211,0.014773,0.000452645,0.0147965,0.00602868,1.51908,0.0085914,0.0426358,587,1030,-41.8462,-3.54177
-630,-6,-41.9624,3.41223,0.0045092,0.0112189,0.000723377,0.011296,0.0044321,1.46461,0.00657195,0.0237134,594,1030,-41.9624,-3.41222
-623,-6,-41.9391,3.48169,0.00137299,0.00834279,0.000496889,0.00837804,0.00133775,1.49998,0.00519715,0.0181537,601,1030,-41.9391,-3.48171
-616,-6,-41.9926,3.53186,-0.00168638,0.00607672,-0.00128764,0.00628472,-0.00189438,-1.41064,0.00494378,0.0205206,608,1030,-41.9926,-3.5319
-609,-6,-41.9668,3.66479,-0.00235826,0.00432571,-0.00246792,0.00513818,-0.00317072,-1.25276,0.00484177,0.0201652,615,1030,-41.9668,-3.66477
-602,-6,-41.8857,3.76648,-0.00183167,0.00284153,-0.00279571,0.00414851,-0.00313865,-1.13349,0.00422069,0.0154573,622,1030,-41.8858,-3.76645
-595,-6,-41.87,3.84717,0,0,0,0,0,0,0,-1,629,1030,-41.87,-3.8472
-588,-6,-41.6093,2.14343,0,0,0,0,0,0,0,-1,636,1030,-41.6093,-2.1434
-581,-6,-41.4328,0.815552,-0.00016845,-0.000330984,-0.00250247,0.00225408,-0.00275351,-0.769167,0.00289592,0.0261688,643,1030,-41.4328,-0.815608
-574,-6,-41.4686,0.865479,0.000137893,-0.0009159,-0.00214248,0.00181732,-0.00259532,-0.664827,0.0025608,0.0332896,650,1030,-41.4686,-0.865466
-567,-6,-41.4764,0.800537,0.000277964,-0.00116795,-0.00153999,0.00125625,-0.00214623,-0.56594,0.0019867,0.0417581,657,1030,-41.4764,-0.800544
-560,-6,-41.3026,0.696899,0.000435875,-0.0011783,-0.000717293,0.000708557,-0.00145098,-0.363281,0.00127113,0.0439702,664,1030,-41.3026,-0.696895
-553,-6,-41.1489,0.419678,0.000576418,-0.00109151,0.000307919,0.000631448,-0.00114654,0.176849,0.00104078,0.0432637,671,1030,-41.1488,-0.41968
-546,-6,-41.2707,0.527344,0.000762447,-0.00117194,0.00150943,0.00158797,-0.00199746,0.50047,0.00207455,0.0419196,678,1030,-41.2707,-0.527308
-539,-6,-41.3046,0.711792,0.000862436,-0.000954785,0.00223944,0.00237057,-0.00246292,0.592679,0.00279078,0.039941,685,1030,-41.3046,-0.711776
-532,-6,-41.4044,0.990234,0.000803389,-0.000832651,0.00311597,0.00320692,-0.00323618,0.657032,0.00371994,0.0411788,692,1030,-41.4044,-0.990209
-525,-6,0,0,0,0,0,0,0,0,0,-1,699,1030,0,0
-518,-6,0,0,0,0,0,0,0,0,0,-1,706,1030,0,0
-511,-6,0,0,0,0,0,0,0,0,0,-1,713,1030,0,0
-504,-6,0,0,0,0,0,0,0,0,0,-1,720,1030,0,0
-497,-6,0,0,0,0,0,0,0,0,0,-1,727,1030,0,0
-490,-6,0,0,0,0,0,0,0,0,0,-1,734,1030,0,0
-483,-6,0,0,0,0,0,0,0,0,0,-1,741,1030,0,0
-476,-6,0,0,0,0,0,0,0,0,0,-1,748,1030,0,0
-469,-6,0,0,0,0,0,0,0,0,0,-1,755,1030,0,0
-462,-6,0,0,0,0,0,0,0,0,0,-1,762,1030,0,0
-455,-6,0,0,0,0,0,0,0,0,0,-1,769,1030,0,0
-448,-6,0,0,0,0,0,0,0,0,0,-1,776,1030,0,0
-441,-6,0,0,0,0,0,0,0,0,0,-1,783,1030,0,0
-434,-6,0,0,0,0,0,0,0,0,0,-1,790,1030,0,0
-427,-6,0,0,0,0,0,0,0,0,0,-1,797,1030,0,0
-420,-6,0,0,0,0,0,0,0,0,0,-1,804,1030,0,0
-413,-6,0,0,0,0,0,0,0,0,0,-1,811,1030,0,0
-406,-6,0,0,0,0,0,0,0,0,0,-1,818,1030,0,0
-399,-6,0,0,0,0,0,0,0,0,0,-1,825,1030,0,0
-392,-6,0,0,0,0,0,0,0,0,0,-1,832,1030,0,0
-385,-6,0,0,0,0,0,0,0,0,0,-1,839,1030,0,0
-378,-6,0,0,0,0,0,0,0,0,0,-1,846,1030,0,0
-371,-6,0,0,0,0,0,0,0,0,0,-1,853,1030,0,0
-364,-6,0,0,0,0,0,0,0,0,0,-1,860,1030,0,0
-357,-6,0,0,0,0,0,0,0,0,0,-1,867,1030,0,0
-350,-6,0,0,0,0,0,0,0,0,0,-1,874,1030,0,0
-343,-6,0,0,0,0,0,0,0,0,0,-1,881,1030,0,0
-336,-6,0,0,0,0,0,0,0,0,0,-1,888,1030,0,0
-329,-6,0,0,0,0,0,0,0,0,0,-1,895,1030,0,0
-322,-6,0,0,0,0,0,0,0,0,0,-1,902,1030,0,0
-315,-6,0,0,0,0,0,0,0,0,0,-1,909,1030,0,0
-308,-6,0,0,0,0,0,0,0,0,0,-1,916,1030,0,0
-301,-6,0,0,0,0,0,0,0,0,0,-1,923,1030,0,0
-294,-6,0,0,0,0,0,0,0,0,0,-1,930,1030,0,0
-287,-6,0,0,0,0,0,0,0,0,0,-1,937,1030,0,0
-280,-6,0,0,0,0,0,0,0,0,0,-1,944,1030,0,0
-273,-6,0,0,0,0,0,0,0,0,0,-1,951,1030,0,0
-266,-6,0,0,0,0,0,0,0,0,0,-1,958,1030,0,0
-259,-6,0,0,0,0,0,0,0,0,0,-1,965,1030,0,0
-252,-6,0,0,0,0,0,0,0,0,0,-1,972,1030,0,0
-245,-6,0,0,0,0,0,0,0,0,0,-1,979,1030,0,0
-238,-6,0,0,0,0,0,0,0,0,0,-1,986,1030,0,0
-231,-6,0,0,0,0,0,0,0,0,0,-1,993,1030,0,0
-224,-6,0,0,0,0,0,0,0,0,0,-1,1000,1030,0,0
-217,-6,0,0,0,0,0,0,0,0,0,-1,1007,1030,0,0
-210,-6,0,0,0,0,0,0,0,0,0,-1,1014,1030,0,0
-203,-6,0,0,0,0,0,0,0,0,0,-1,1021,1030,0,0
-196,-6,0,0,0,0,0,0,0,0,0,-1,1028,1030,0,0
-189,-6,0,0,0,0,0,0,0,0,0,-1,1035,1030,0,0
-182,-6,0,0,0,0,0,0,0,0,0,-1,1042,1030,0,0
-175,-6,0,0,0,0,0,0,0,0,0,-1,1049,1030,0,0
-168,-6,0,0,0,0,0,0,0,0,0,-1,1056,1030,0,0
-161,-6,0,0,0,0,0,0,0,0,0,-1,1063,1030,0,0
-154,-6,0,0,0,0,0,0,0,0,0,-1,1070,1030,0,0
-147,-6,0,0,0,0,0,0,0,0,0,-1,1077,1030,0,0
-140,-6,0,0,0,0,0,0,0,0,0,-1,1084,1030,0,0
-133,-6,0,0,0,0,0,0,0,0,0,-1,1091,1030,0,0
-126,-6,0,0,0,0,0,0,0,0,0,-1,1098,1030,0,0
-119,-6,0,0,0,0,0,0,0,0,0,-1,1105,1030,0,0
-112,-6,0,0,0,0,0,0,0,0,0,-1,1112,1030,0,0
-105,-6,0,0,0,0,0,0,0,0,0,-1,1119,1030,0,0
-98,-6,0,0,0,0,0,0,0,0,0,-1,1126,1030,0,0
-91,-6,0,0,0,0,0,0,0,0,0,-1,1133,1030,0,0
-84,-6,0,0,0,0,0,0,0,0,0,-1,1140,1030,0,0
-77,-6,0,0,0,0,0,0,0,0,0,-1,1147,1030,0,0
-70,-6,0,0,0,0,0,0,0,0,0,-1,1154,1030,0,0
-63,-6,0,0,0,0,0,0,0,0,0,-1,1161,1030,0,0
-56,-6,0,0,0,0,0,0,0,0,0,-1,1168,1030,0,0
-49,-6,0,0,0,0,0,0,0,0,0,-1,1175,1030,0,0
-42,-6,0,0,0,0,0,0,0,0,0,-1,1182,1030,0,0
-35,-6,0,0,0,0,0,0,0,0,0,-1,1189,1030,0,0
-28,-6,0,0,0,0,0,0,0,0,0,-1,1196,1030,0,0
-21,-6,0,0,0,0,0,0,0,0,0,-1,1203,1030,0,0
-14,-6,0,0,0,0,0,0,0,0,0,-1,1210,1030,0,0
-7,-6,0,0,0,0,0,0,0,0,0,-1,1217,1030,0,0
0,-6,0,0,0,0,0,0,0,0,0,-1,1224,1030,0,0
7,-6,0,0,0,0,0,0,0,0,0,-1,1231,1030,0,0
14,-6,0,0,0,0,0,0,0,0,0,-1,1238,1030,0,0
21,-6,0,0,0,0,0,0,0,0,0,-1,1245,1030,0,0
28,-6,0,0,0,0,0,0,0,0,0,-1,1252,1030,0,0
35,-6,0,0,0,0,0,0,0,0,0,-1,1259,1030,0,0
42,-6,0,0,0,0,0,0,0,0,0,-1,1266,1030,0,0
49,-6,0,0,0,0,0,0,0,0,0,-1,1273,1030,0,0
56,-6,0,0,0,0,0,0,0,0,0,-1,1280,1030,0,0
63,-6,0,0,0,0,0,0,0,0,0,-1,1287,1030,0,0
70,-6,0,0,0,0,0,0,0,0,0,-1,1294,1030,0,0
77,-6,0,0,0,0,0,0,0,0,0,-1,1301,1030,0,0
84,-6,0,0,0,0,0,0,0,0,0,-1,1308,1030,0,0
91,-6,0,0,0,0,0,0,0,0,0,-1,1315,1030,0,0
98,-6,0,0,0,0,0,0,0,0,0,-1,1322,1030,0,0
105,-6,0,0,0,0,0,0,0,0,0,-1,1329,1030,0,0
112,-6,0,0,0,0,0,0,0,0,0,-1,1336,1030,0,0
119,-6,0,0,0,0,0,0,0,0,0,-1,1343,1030,0,0
126,-6,0,0,0,0,0,0,0,0,0,-1,1350,1030,0,0
133,-6,0,0,0,0,0,0,0,0,0,-1,1357,1030,0,0
140,-6,0,0,0,0,0,0,0,0,0,-1,1364,1030,0,0
147,-6,0,0,0,0,0,0,0,0,0,-1,1371,1030,0,0
154,-6,0,0,0,0,0,0,0,0,0,-1,1378,1030,0,0
161,-6,0,0,0,0,0,0,0,0,0,-1,1385,1030,0,0
168,-6,0,0,0,0,0,0,0,0,0,-1,1392,1030,0,0
175,-6,0,0,0,0,0,0,0,0,0,-1,1399,1030,0,0
182,-6,0,0,0,0,0,0,0,0,0,-1,1406,1030,0,0
189,-6,0,0,0,0,0,0,0,0,0,-1,1413,1030,0,0
196,-6,0,0,0,0,0,0,0,0,0,-1,1420,1030,0,0
203,-6,0,0,0,0,0,0,0,0,0,-1,1427,1030,0,0
210,-6,0,0,0,0,0,0,0,0,0,-1,1434,1030,0,0
217,-6,0,0,0,0,0,0,0,0,0,-1,1441,1030,0,0
224,-6,0,0,0,0,0,0,0,0,0,-1,1448,1030,0,0
231,-6,0,0,0,0,0,0,0,0,0,-1,1455,1030,0,0
238,-6,0,0,0,0,0,0,0,0,0,-1,1462,1030,0,0
245,-6,0,0,0,0,0,0,0,0,0,-1,1469,1030,0,0
252,-6,0,0,0,0,0,0,0,0,0,-1,1476,1030,0,0
259,-6,0,0,0,0,0,0,0,0,0,-1,1483,1030,0,0
266,-6,0,0,0,0,0,0,0,0,0,-1,1490,1030,0,0
273,-6,0,0,0,0,0,0,0,0,0,-1,1497,1030,0,0
280,-6,0,0,0,0,0,0,0,0,0,-1,1504,1030,0,0
287,-6,0,0,0,0,0,0,0,0,0,-1,1511,1030,0,0
294,-6,0,0,0,0,0,0,0,0,0,-1,1518,1030,0,0
301,-6,0,0,0,0,0,0,0,0,0,-1,1525,1030,0,0
308,-6,0,0,0,0,0,0,0,0,0,-1,1532,1030,0,0
315,-6,0,0,0,0,0,0,0,0,0,-1,1539,1030,0,0
322,-6,0,0,0,0,0,0,0,0,0,-1,1546,1030,0,0
329,-6,0,0,0,0,0,0,0,0,0,-1,1553,1030,0,0
336,-6,0,0,0,0,0,0,0,0,0,-1,1560,1030,0,0
343,-6,0,0,0,0,0,0,0,0,0,-1,1567,1030,0,0
350,-6,0,0,0,0,0,0,0,0,0,-1,1574,1030,0,0
357,-6,0,0,0,0,0,0,0,0,0,-1,1581,1030,0,0
364,-6,0,0,0,0,0,0,0,0,0,-1,1588,1030,0,0
371,-6,0,0,0,0,0,0,0,0,0,-1,1595,1030,0,0
378,-6,0,0,0,0,0,0,0,0,0,-1,1602,1030,0,0
385,-6,0,0,0,0,0,0,0,0,0,-1,1609,1030,0,0
392,-6,0,0,0,0,0,0,0,0,0,-1,1616,1030,0,0
399,-6,0,0,0,0,0,0,0,0,0,-1,1623,1030,0,0
406,-6,0,0,0,0,0,0,0,0,0,-1,1630,1030,0,0
413,-6,0,0,0,0,0,0,0,0,0,-1,1637,1030,0,0
420,-6,0,0,0,0,0,0,0,0,0,-1,1644,1030,0,0
427,-6,0,0,0,0,0,0,0,0,0,-1,1651,1030,0,0
434,-6,0,0,0,0,0,0,0,0,0,-1,1658,1030,0,0
441,-6,0,0,0,0,0,0,0,0,0,-1,1665,1030,0,0
448,-6,0,0,0,0,0,0,0,0,0,-1,1672,1030,0,0
455,-6,0,0,0,0,0,0,0,0,0,-1,1679,1030,0,0
462,-6,0,0,0,0,0,0,0,0,0,-1,1686,1030,0,0
469,-6,0,0,0,0,0,0,0,0,0,-1,1693,1030,0,0
476,-6,0,0,0,0,0,0,0,0,0,-1,1700,1030,0,0
483,-6,0,0,0,0,0,0,0,0,0,-1,1707,1030,0,0
490,-6,0,0,0,0,0,0,0,0,0,-1,1714,1030,0,0
497,-6,0,0,0,0,0,0,0,0,0,-1,1721,1030,0,0
504,-6,0,0,0,0,0,0,0,0,0,-1,1728,1030,0,0
511,-6,0,0,0,0,0,0,0,0,0,-1,1735,1030,0,0
518,-6,0,0,0,0,0,0,0,0,0,-1,1742,1030,0,0
525,-6,0,0,0,0,0,0,0,0,0,-1,1749,1030,0,0
532,-6,0,0,0,0,0,0,0,0,0,-1,1756,1030,0,0
539,-6,0,0,0,0,0,0,0,0,0,-1,1763,1030,0,0
546,-6,0,0,0,0,0,0,0,0,0,-1,1770,1030,0,0
553,-6,0,0,0,0,0,0,0,0,0,-1,1777,1030,0,0
560,-6,0,0,0,0,0,0,0,0,0,-1,1784,1030,0,0
567,-6,0,0,0,0,0,0,0,0,0,-1,1791,1030,0,0
574,-6,0,0,0,0,0,0,0,0,0,-1,1798,1030,0,0
581,-6,0,0,0,0,0,0,0,0,0,-1,1805,1030,0,0
588,-6,0,0,0,0,0,0,0,0,0,-1,1812,1030,0,0
595,-6,0,0,0,0,0,0,0,0,0,-1,1819,1030,0,0
602,-6,0,0,0,0,0,0,0,0,0,-1,1826,1030,0,0
609,-6,0,0,0,0,0,0,0,0,0,-1,1833,1030,0,0
616,-6,0,0,0,0,0,0,0,0,0,-1,1840,1030,0,0
623,-6,0,0,0,0,0,0,0,0,0,-1,1847,1030,0,0
630,-6,0,0,0,0,0,0,0,0,0,-1,1854,1030,0,0
637,-6,0,0,0,0,0,0,0,0,0,-1,1861,1030,0,0
644,-6,0,0,0,0,0,0,0,0,0,-1,1868,1030,0,0
651,-6,55.4805,2.64917,0.000340134,0.00317275,0.000141815,0.00317983,0.000333052,1.5209,0.00201805,0.0377882,1875,1030,55.4805,-2.6492
658,-6,55.3018,2.95117,-0.000711088,0.00271727,0.000397769,0.00276282,-0.000756634,1.45679,0.00213917,0.0423836,1882,1030,55.3018,-2.95113
665,-6,55.5018,2.78833,0,0,0,0,0,0,0,-1,1889,1030,55.5018,-2.78828
672,-6,55.3745,2.5498,-0.00149849,0.00194152,0.00111482,0.00227121,-0.00182818,1.28326,0.00237139,0.0413554,1896,1030,55.3746,-2.54986
679,-6,55.2297,2.56555,-0.00152458,0.00171641,0.00173135,0.00246732,-0.00227549,1.16157,0.00273901,0.0402415,1903,1030,55.2298,-2.56559
686,-6,55.1199,2.64221,-0.00160852,0.00138195,0.00234567,0.00266842,-0.00289499,1.06915,0.00321292,0.0365122,1910,1030,55.1199,-2.64221
693,-6,55.2494,2.70203,-0.00161543,0.0010395,0.00290532,0.00290625,-0.00348218,0.999691,0.00369336,0.034924,1917,1030,55.2494,-2.70208
700,-6,55.2955,2.7074,-0.00155055,0.000802802,0.0033106,0.00313962,-0.00388737,0.956149,0.00406469,0.0315722,1924,1030,55.2956,-2.70746
707,-6,55.2219,2.64185,-0.0018712,0.000922783,0.00350503,0.00329896,-0.00424738,0.975034,0.00436834,0.0272074,1931,1030,55.2219,-2.64187
714,-6,55.1903,2.62793,-0.00240974,0.00134396,0.00353775,0.00347189,-0.00453767,1.02928,0.00463795,0.0326521,1938,1030,55.1904,-2.62794
721,-6,55.204,2.71265,0,0,0,0,0,0,0,-1,1945,1030,55.204,-2.71267
728,-6,53.1713,6.25494,0,0,0,0,0,0,0,-1,1952,1030,53.1713,-6.25495
735,-6,55.1025,6.31714,0,0,0,0,0,0,0,-1,1959,1030,55.1025,-6.31711
742,-6,55.1427,6.43109,0,0,0,0,0,0,0,-1,1966,1030,55.1427,-6.4311
749,-6,55.0992,6.05066,0,0,0,0,0,0,0,-1,1973,1030,55.0993,-6.05069
756,-6,55.1276,6.11884,-0.0069666,0.0105778,0.000636979,0.0106009,-0.0069897,1.53455,0.010227,0.0270922,1980,1030,55.1276,-6.11884
763,-6,55.0079,6.01996,-0.00751758,0.0134749,-0.000714527,0.0134992,-0.00754187,-1.53681,0.0123093,0.0211362,1987,1030,55.0079,-6.01995
770,-6,54.9338,5.97034,-0.00743027,0.017362,-0.0024864,0.0176089,-0.00767717,-1.47182,0.0149696,0.0184422,1994,1030,54.9338,-5.97035
777,-6,54.8342,5.91443,-0.00642806,0.0222841,-0.00439112,0.0229407,-0.00708461,-1.42238,0.0181229,0.019286,2001,1030,54.8343,-5.91441
784,-6,54.8191,5.87683,-0.0047499,0.0274435,-0.0063176,0.0286388,-0.00594527,-1.38379,0.021352,0.044873,2008,1030,54.8192,-5.87686
791,-6,54.948,5.74609,-0.0023514,0.032886,-0.00845909,0.0348115,-0.00427688,-1.34699,0.0247567,0.0499048,2015,1030,54.948,-5.7461
798,-6,54.7537,5.5387,0.00131082,0.0385769,-0.0107431,0.0414521,-0.00156439,-1.30929,0.0281707,0.0475964,2022,1030,54.7537,-5.53869
805,-6,54.7388,5.03174,0,0,0,0,0,0,0,-1,2029,1030,54.7389,-5.03171
812,-6,54.5525,4.76624,0,0,0,0,0,0,0,-1,2036,1030,54.5525,-4.7662
-700,-13,0,0,0,0,0,0,0,0,0,-1,524,1037,0,0
-693,-13,-41.1531,2.85767,-0.0122706,0.054515,-0.0394921,0.0728398,-0.0305954,-1.13635,0.061356,0.0456598,531,1037,-41.1532,-2.85766
-686,-13,-41.2635,1.99146,-0.00269787,0.0479291,-0.0278672,0.0602634,-0.0150322,-1.15411,0.0460122,0.0458626,538,1037,-41.2635,-1.9915
-679,-13,-41.4257,1.99109,0.00262713,0.0421259,-0.0192753,0.0499732,-0.00522016,-1.18417,0.0351849,0.0473738,545,1037,-41.4257,-1.9911
-672,-13,-41.5472,2.16394,0.00552827,0.0368304,-0.0128058,0.0414017,0.000956971,-1.22792,0.0272877,0.0476966,552,1037,-41.5472,-2.16395
-665,-13,-41.7253,2.22888,0.00676066,0.0318923,-0.00800304,0.0342244,0.00442854,-1.28724,0.0214927,0.0460011,559,1037,-41.7253,-2.22882
-658,-13,-41.616,2.49182,0.00678379,0.0272185,-0.00456459,0.0281917,0.00581053,-1.36072,0.0171882,0.0467549,566,1037,-41.616,-2.49179
-651,-13,-41.5953,2.70251,0.00598229,0.0227283,-0.00232121,0.0230441,0.0056665,-1.43558,0.0138654,0.0429496,573,1037,-41.5953,-2.70248
-644,-13,-41.552,3.04736,0.00478198,0.0186308,-0.00101212,0.0187044,0.0047084,-1.49823,0.011234,0.0349279,580,1037,-41.552,-3.04739
-637,-13,-41.6604,3.23511,0.00388783,0.0143245,0.000298815,0.014333,0.00387928,1.5422,0.00856043,0.0268399,587,1037,-41.6604,-3.23508
-630,-13,-41.803,3.26782,0.00317831,0.0107517,0.000504883,0.0107852,0.0031448,1.50452,0.00640462,0.0170978,594,1037,-41.803,-3.26784
-623,-13,-41.8204,3.40027,0.000860689,0.00793007,0.000156317,0.00793353,0.000857234,1.5487,0.00502769,0.014662,601,1037,-41.8204,-3.40027
-616,-13,-41.8116,3.55908,-0.00156073,0.00562267,-0.00141756,0.00589229,-0.00183035,-1.38284,0.00465972,0.0130652,608,1037,-41.8116,-3.55914
-609,-13,-41.7913,3.71924,-0.0020092,0.00380875,-0.00248964,0.00472867,-0.00292912,-1.21686,0.00446173,0.0176184,615,1037,-41.7912,-3.7193
-602,-13,-41.7552,3.82532,-0.00151493,0.00224145,-0.0027635,0.0037046,-0.00297808,-1.08386,0.00386584,0.0136383,622,1037,-41.7552,-3.82527
-595,-13,-41.7814,3.91846,0,0,0,0,0,0,0,-1,629,1037,-41.7814,-3.91848
-588,-13,-41.3496,0.935669,0,0,0,0,0,0,0,-1,636,1037,-41.3496,-0.93572
-581,-13,-41.414,0.696533,-1.16693e-05,-0.000877336,-0.00226542,0.0018619,-0.0027509,-0.691005,0.00267964,0.0253393,643,1037,-41.414,-0.696521
-574,-13,-41.4611,0.587646,0.000282458,-0.00142501,-0.00183225,0.00145011,-0.00259266,-0.567379,0.00236496,0.0336835,650,1037,-41.4611,-0.58768
-567,-13,-41.5245,0.641357,0.000397481,-0.00165066,-0.00118914,0.000942731,-0.00219591,-0.429922,0.00185962,0.0407967,657,1037,-41.5245,-0.641324
-560,-13,-41.585,0.729614,0.000504931,-0.00161987,-0.000335717,0.000556712,-0.00167165,-0.153034,0.00133915,0.0451911,664,1037,-41.585,-0.72959
-553,-13,-41.3983,0.771118,0.000585708,-0.00146158,0.000719664,0.000813368,-0.00168924,0.306382,0.00147408,0.0452118,671,1037,-41.3983,-0.771096
-546,-13,-41.2642,0.559326,0.000684772,-0.00138969,0.00196531,0.00186977,-0.00257469,0.54259,0.00257674,0.0408575,678,1037,-41.2641,-0.559276
-539,-13,-41.2139,0.761719,0.00064789,-0.00101761,0.00280755,0.00274358,-0.00311331,0.641226,0.00338372,0.0395906,685,1037,-41.2139,-0.761668
-532,-13,-41.2697,0.767212,0.000397816,-0.000626391,0.00397156,0.00389016,-0.00411873,0.721281,0.00462456,0.0404226,692,1037,-41.2697,-0.767169
-525,-13,0,0,0,0,0,0,0,0,0,-1,699,1037,0,0
-518,-13,0,0,0,0,0,0,0,0,0,-1,706,1037,0,0
-511,-13,0,0,0,0,0,0,0,0,0,-1,713,1037,0,0
-504,-13,0,0,0,0,0,0,0,0,0,-1,720,1037,0,0
-497,-13,0,0,0,0,0,0,0,0,0,-1,727,1037,0,0
-490,-13,0,0,0,0,0,0,0,0,0,-1,734,1037,0,0
-483,-13,0,0,0,0,0,0,0,0,0,-1,741,1037,0,0
-476,-13,0,0,0,0,0,0,0,0,0,-1,748,1037,0,0
-469,-13,0,0,0,0,0,0,0,0,0,-1,755,1037,0,0
-462,-13,0,0,0,0,0,0,0,0,0,-1,762,1037,0,0
-455,-13,0,0,0,0,0,0,0,0,0,-1,769,1037,0,0
-448,-13,0,0,0,0,0,0,0,0,0,-1,776,1037,0,0
-441,-13,0,0,0,0,0,0,0,0,0,-1,783,1037,0,0
-434,-13,0,0,0,0,0,0,0,0,0,-1,790,1037,0,0
-427,-13,0,0,0,0,0,0,0,0,0,-1,797,1037,0,0
-420,-13,0,0,0,0,0,0,0,0,0,-1,804,1037,0,0
-413,-13,0,0,0,0,0,0,0,0,0,-1,811,1037,0,0
-406,-13,0,0,0,0,0,0,0,0,0,-1,818,1037,0,0
-399,-13,0,0,0,0,0,0,0,0,0,-1,825,1037,0,0
-392,-13,0,0,0,0,0,0,0,0,0,-1,832,1037,0,0
-385,-13,0,0,0,0,0,0,0,0,0,-1,839,1037,0,0
-378,-13,0,0,0,0,0,0,0,0,0,-1,846,1037,0,0
-371,-13,0,0,0,0,0,0,0,0,0,-1,853,1037,0,0
-364,-13,0,0,0,0,0,0,0,0,0,-1,860,1037,0,0
-357,-13,0,0,0,0,0,0,0,0,0,-1,867,1037,0,0
-350,-13,0,0,0,0,0,0,0,0,0,-1,874,1037,0,0
-343,-13,0,0,0,0,0,0,0,0,0,-1,881,1037,0,0
-336,-13,0,0,0,0,0,0,0,0,0,-1,888,1037,0,0
-329,-13,0,0,0,0,0,0,0,0,0,-1,895,1037,0,0
-322,-13,0,0,0,0,0,0,0,0,0,-1,902,1037,0,0
-315,-13,0,0,0,0,0,0,0,0,0,-1,909,1037,0,0
-308,-13,0,0,0,0,0,0,0,0,0,-1,916,1037,0,0
-301,-13,0,0,0,0,0,0,0,0,0,-1,923,1037,0,0
-294,-13,0,0,0,0,0,0,0,0,0,-1,930,1037,0,0
-287,-13,0,0,0,0,0,0,0,0,0,-1,937,1037,0,0
-280,-13,0,0,0,0,0,0,0,0,0,-1,944,1037,0,0
-273,-13,0,0,0,0,0,0,0,0,0,-1,951,1037,0,0
-266,-13,0,0,0,0,0,0,0,0,0,-1,958,1037,0,0
-259,-13,0,0,0,0,0,0,0,0,0,-1,965,1037,0,0
-252,-13,0,0,0,0,0,0,0,0,0,-1,972,1037,0,0
-245,-13,0,0,0,0,0,0,0,0,0,-1,979,1037,0,0
-238,-13,0,0,0,0,0,0,0,0,0,-1,986,1037,0,0
-231,-13,0,0,0,0,0,0,0,0,0,-1,993,1037,0,0
-224,-13,0,0,0,0,0,0,0,0,0,-1,1000,1037,0,0
-217,-13,0,0,0,0,0,0,0,0,0,-1,1007,1037,0,0
-210,-13,0,0,0,0,0,0,0,0,0,-1,1014,1037,0,0
-203,-13,0,0,0,0,0,0,0,0,0,-1,1021,1037,0,0
-196,-13,0,0,0,0,0,0,0,0,0,-1,1028,1037,0,0
-189,-13,0,0,0,0,0,0,0,0,0,-1,1035,1037,0,0
-182,-13,0,0,0,0,0,0,0,0,0,-1,1042,1037,0,0
-175,-13,0,0,0,0,0,0,0,0,0,-1,1049,1037,0,0
-168,-13,0,0,0,0,0,0,0,0,0,-1,1056,1037,0,0
-161,-13,0,0,0,0,0,0,0,0,0,-1,1063,1037,0,0
-154,-13,0,0,0,0,0,0,0,0,0,-1,1070,1037,0,0
-147,-13,0,0,0,0,0,0,0,0,0,-1,1077,1037,0,0
-140,-13,0,0,0,0,0,0,0,0,0,-1,1084,1037,0,0
-133,-13,0,0,0,0,0,0,0,0,0,-1,1091,1037,0,0
-126,-13,0,0,0,0,0,0,0,0,0,-1,1098,1037,0,0
-119,-13,0,0,0,0,0,0,0,0,0,-1,1105,1037,0,0
-112,-13,0,0,0,0,0,0,0,0,0,-1,1112,1037,0,0
-105,-13,0,0,0,0,0,0,0,0,0,-1,1119,1037,0,0
-98,-13,0,0,0,0,0,0,0,0,0,-1,1126,1037,0,0
-91,-13,0,0,0,0,0,0,0,0,0,-1,1133,1037,0,0
-84,-13,0,0,0,0,0,0,0,0,0,-1,1140,1037,0,0
-77,-13,0,0,0,0,0,0,0,0,0,-1,1147,1037,0,0
-70,-13,0,0,0,0,0,0,0,0,0,-1,1154,1037,0,0
-63,-13,0,0,0,0,0,0,0,0,0,-1,1161,1037,0,0
-56,-13,0,0,0,0,0,0,0,0,0,-1,1168,1037,0,0
-49,-13,0,0,0,0,0,0,0,0,0,-1,1175,1037,0,0
-42,-13,0,0,0,0,0,0,0,0,0,-1,1182,1037,0,0
-35,-13,0,0,0,0,0,0,0,0,0,-1,1189,1037,0,0
-28,-13,0,0,0,0,0,0,0,0,0,-1,1196,1037,0,0
-21,-13,0,0,0,0,0,0,0,0,0,-1,1203,1037,0,0
-14,-13,0,0,0,0,0,0,0,0,0,-1,1210,1037,0,0
-7,-13,0,0,0,0,0,0,0,0,0,-1,1217,1037,0,0
0,-13,0,0,0,0,0,0,0,0,0,-1,1224,1037,0,0
7,-13,0,0,0,0,0,0,0,0,0,-1,1231,1037,0,0
14,-13,0,0,0,0,0,0,0,0,0,-1,1238,1037,0,0
21,-13,0,0,0,0,0,0,0,0,0,-1,1245,1037,0,0
28,-13,0,0,0,0,0,0,0,0,0,-1,1252,1037,0,0
35,-13,0,0,0,0,0,0,0,0,0,-1,1259,1037,0,0
42,-13,0,0,0,0,0,0,0,0,0,-1,1266,1037,0,0
49,-13,0,0,0,0,0,0,0,0,0,-1,1273,1037,0,0
56,-13,0,0,0,0,0,0,0,0,0,-1,1280,1037,0,0
63,-13,0,0,0,0,0,0,0,0,0,-1,1287,1037,0,0
70,-13,0,0,0,0,0,0,0,0,0,-1,1294,1037,0,0
77,-13,0,0,0,0,0,0,0,0,0,-1,1301,1037,0,0
84,-13,0,0,0,0,0,0,0,0,0,-1,1308,1037,0,0
91,-13,0,0,0,0,0,0,0,0,0,-1,1315,1037,0,0
98,-13,0,0,0,0,0,0,0,0,0,-1,1322,1037,0,0
105,-13,0,0,0,0,0,0,0,0,0,-1,1329,1037,0,0
112,-13,0,0,0,0,0,0,0,0,0,-1,1336,1037,0,0
119,-13,0,0,0,0,0,0,0,0,0,-1,1343,1037,0,0
126,-13,0,0,0,0,0,0,0,0,0,-1,1350,1037,0,0
133,-13,0,0,0,0,0,0,0,0,0,-1,1357,1037,0,0
140,-13,0,0,0,0,0,0,0,0,0,-1,1364,1037,0,0
147,-13,0,0,0,0,0,0,0,0,0,-1,1371,1037,0,0
154,-13,0,0,0,0,0,0,0,0,0,-1,1378,1037,0,0
161,-13,0,0,0,0,0,0,0,0,0,-1,1385,1037,0,0
168,-13,0,0,0,0,0,0,0,0,0,-1,1392,1037,0,0
175,-13,0,0,0,0,0,0,0,0,0,-1,1399,1037,0,0
182,-13,0,0,0,0,0,0,0,0,0,-1,1406,1037,0,0
189,-13,0,0,0,0,0,0,0,0,0,-1,1413,1037,0,0
196,-13,0,0,0,0,0,0,0,0,0,-1,1420,1037,0,0
203,-13,0,0,0,0,0,0,0,0,0,-1,1427,1037,0,0
210,-13,0,0,0,0,0,0,0,0,0,-1,1434,1037,0,0
217,-13,0,0,0,0,0,0,0,0,0,-1,1441,1037,0,0
224,-13,0,0,0,0,0,0,0,0,0,-1,1448,1037,0,0
231,-13,0,0,0,0,0,0,0,0,0,-1,1455,1037,0,0
238,-13,0,0,0,0,0,0,0,0,0,-1,1462,1037,0,0
245,-13,0,0,0,0,0,0,0,0,0,-1,1469,1037,0,0
252,-13,0,0,0,0,0,0,0,0,0,-1,1476,1037,0,0
259,-13,0,0,0,0,0,0,0,0,0,-1,1483,1037,0,0
266,-13,0,0,0,0,0,0,0,0,0,-1,1490,1037,0,0
273,-13,0,0,0,0,0,0,0,0,0,-1,1497,1037,0,0
280,-13,0,0,0,0,0,0,0,0,0,-1,1504,1037,0,0
287,-13,0,0,0,0,0,0,0,0,0,-1,1511,1037,0,0
294,-13,0,0,0,0,0,0,0,0,0,-1,1518,1037,0,0
301,-13,0,0,0,0,0,0,0,0,0,-1,1525,1037,0,0
308,-13,0,0,0,0,0,0,0,0,0,-1,1532,1037,0,0
315,-13,0,0,0,0,0,0,0,0,0,-1,1539,1037,0,0
322,-13,0,0,0,0,0,0,0,0,0,-1,1546,1037,0,0
329,-13,0,0,0,0,0,0,0,0,0,-1,1553,1037,0,0
336,-13,0,0,0,0,0,0,0,0,0,-1,1560,1037,0,0
343,-13,0,0,0,0,0,0,0,0,0,-1,1567,1037,0,0
350,-13,0,0,0,0,0,0,0,0,0,-1,1574,1037,0,0
357,-13,0,0,0,0,0,0,0,0,0,-1,1581,1037,0,0
364,-13,0,0,0,0,0,0,0,0,0,-1,1588,1037,0,0
371,-13,0,0,0,0,0,0,0,0,0,-1,1595,1037,0,0
378,-13,0,0,0,0,0,0,0,0,0,-1,1602,1037,0,0
385,-13,0,0,0,0,0,0,0,0,0,-1,1609,1037,0,0
392,-13,0,0,0,0,0,0,0,0,0,-1,1616,1037,0,0
399,-13,0,0,0,0,0,0,0,0,0,-1,1623,1037,0,0
406,-13,0,0,0,0,0,0,0,0,0,-1,1630,1037,0,0
413,-13,0,0,0,0,0,0,0,0,0,-1,1637,1037,0,0
420,-13,0,0,0,0,0,0,0,0,0,-1,1644,1037,0,0
427,-13,0,0,0,0,0,0,0,0,0,-1,1651,1037,0,0
434,-13,0,0,0,0,0,0,0,0,0,-1,1658,1037,0,0
441,-13,0,0,0,0,0,0,0,0,0,-1,1665,1037,0,0
448,-13,0,0,0,0,0,0,0,0,0,-1,1672,1037,0,0
455,-13,0,0,0,0,0,0,0,0,0,-1,1679,1037,0,0
462,-13,0,0,0,0,0,0,0,0,0,-1,1686,1037,0,0
469,-13,0,0,0,0,0,0,0,0,0,-1,1693,1037,0,0
476,-13,0,0,0,0,0,0,0,0,0,-1,1700,1037,0,0
483,-13,0,0,0,0,0,0,0,0,0,-1,1707,1037,0,0
490,-13,0,0,0,0,0,0,0,0,0,-1,1714,1037,0,0
497,-13,0,0,0,0,0,0,0,0,0,-1,1721,1037,0,0
504,-13,0,0,0,0,0,0,0,0,0,-1,1728,1037,0,0
511,-13,0,0,0,0,0,0,0,0,0,-1,1735,1037,0,0
518,-13,0,0,0,0,0,0,0,0,0,-1,1742,1037,0,0
525,-13,0,0,0,0,0,0,0,0,0,-1,1749,1037,0,0
532,-13,0,0,0,0,0,0,0,0,0,-1,1756,1037,0,0
539,-13,0,0,0,0,0,0,0,0,0,-1,1763,1037,0,0
546,-13,0,0,0,0,0,0,0,0,0,-1,1770,1037,0,0
553,-13,0,0,0,0,0,0,0,0,0,-1,1777,1037,0,0
560,-13,0,0,0,0,0,0,0,0,0,-1,1784,1037,0,0
567,-13,0,0,0,0,0,0,0,0,0,-1,1791,1037,0,0
574,-13,0,0,0,0,0,0,0,0,0,-1,1798,1037,0,0
581,-13,0,0,0,0,0,0,0,0,0,-1,1805,1037,0,0
588,-13,0,0,0,0,0,0,0,0,0,-1,1812,1037,0,0
595,-13,0,0,0,0,0,0,0,0,0,-1,1819,1037,0,0
602,-13,0,0,0,0,0,0,0,0,0,-1,1826,1037,0,0
609,-13,0,0,0,0,0,0,0,0,0,-1,1833,1037,0,0
616,-13,0,0,0,0,0,0,0,0,0,-1,1840,1037,0,0
623,-13,0,0,0,0,0,0,0,0,0,-1,1847,1037,0,0
630,-13,0,0,0,0,0,0,0,0,0,-1,1854,1037,0,0
637,-13,0,0,0,0,0,0,0,0,0,-1,1861,1037,0,0
644,-13,0,0,0,0,0,0,0,0,0,-1,1868,1037,0,0
651,-13,55.5588,2.39038,0.000319106,0.00268413,-0.000415653,0.00275505,0.000248182,-1.40179,0.00175982,0.0391864,1875,1037,55.5589,-2.39039
658,-13,55.3541,2.46008,-0.000843961,0.0024361,0.000144382,0.00244245,-0.000850304,1.52689,0.00197376,0.043528,1882,1037,55.3542,-2.46004
665,-13,55.3154,2.68921,-0.00143652,0.00212452,0.000562535,0.00221127,-0.00152327,1.41779,0.0021683,0.0433235,1889,1037,55.3155,-2.68921
672,-13,55.332,2.66956,-0.00169114,0.00189663,0.00112719,0.00222138,-0.00201588,1.29029,0.00244734,0.0392324,1896,1037,55.3321,-2.66959
679,-13,55.175,2.44617,-0.00169208,0.00173587,0.00179697,0.0025052,-0.00246141,1.16628,0.00286751,0.0388073,1903,1037,55.1751,-2.44618
686,-13,55.1545,2.42444,-0.00177218,0.00143957,0.00242245,0.00274008,-0.00307269,1.0781,0.00335784,0.038674,1910,1037,55.1546,-2.42447
693,-13,55.082,2.64661,-0.00177025,0.00110661,0.00297743,0.00297487,-0.0036385,1.01042,0.00382464,0.0385423,1917,1037,55.082,-2.64663
700,-13,55.1351,2.6106,-0.00168466,0.000864996,0.00340016,0.00322146,-0.00404112,0.964753,0.00420195,0.0355485,1924,1037,55.1351,-2.61057
707,-13,55.2406,2.60535,-0.00200471,0.000935932,0.00363377,0.00338557,-0.00445435,0.977643,0.00454038,0.0315564,1931,1037,55.2406,-2.60536
714,-13,55.2113,2.7865,-0.00251981,0.0012889,0.00369509,0.00354149,-0.00477241,1.02333,0.00481754,0.0291148,1938,1037,55.2112,-2.7865
721,-13,55.0841,3.01892,0,0,0,0,0,0,0,-1,1945,1037,55.0842,-3.01887
728,-13,55.109,6.36377,0,0,0,0,0,0,0,-1,1952,1037,55.109,-6.3638
735,-13,55.0153,6.32642,-0.00506185,0.00434347,0.0031434,0.00529731,-0.00601569,1.27619,0.00653595,0.0331898,1959,1037,55.0152,-6.32644
742,-13,54.9688,6.25256,-0.00554696,0.00566766,0.00238122,0.00615232,-0.00603162,1.37,0.00703452,0.021202,1966,1037,54.9688,-6.25257
749,-13,55.0334,6.15515,-0.00609352,0.00755165,0.00161715,0.00774069,-0.00628256,1.45443,0.0081109,0.0279248,1973,1037,55.0334,-6.15517
756,-13,55.0219,6.06335,-0.00672672,0.0101025,0.000956693,0.0101567,-0.00678093,1.51419,0.0098435,0.0182772,1980,1037,55.0218,-6.06332
763,-13,54.9417,5.93115,-0.00715899,0.0128865,-0.000321837,0.0128917,-0.00716415,-1.55475,0.0117356,0.0264256,1987,1037,54.9416,-5.9312
770,-13,54.8518,5.87012,-0.00693578,0.0165957,-0.00202737,0.0167691,-0.00710917,-1.48548,0.0141572,0.0226069,1994,1037,54.8519,-5.87013
777,-13,54.7175,5.76892,-0.00572195,0.0212906,-0.00389727,0.0218417,-0.00627299,-1.43034,0.0170414,0.016551,2001,1037,54.7174,-5.76889
784,-13,54.7104,5.6333,-0.00389237,0.0261668,-0.00576402,0.0272342,-0.00495975,-1.38769,0.0200153,0.036287,2008,1037,54.7104,-5.63326
791,-13,54.7881,5.495,-0.00146292,0.0312418,-0.00780155,0.0330075,-0.00322862,-1.34822,0.0231563,0.0481409,2015,1037,54.7881,-5.49494
798,-13,54.7173,5.40002,0.00200307,0.03645,-0.00996865,0.0391268,-0.000673763,-1.30846,0.026312,0.0436892,2022,1037,54.7172,-5.40008
805,-13,54.7278,5.73376,0,0,0,0,0,0,0,-1,2029,1037,54.7277,-5.73379
812,-13,55.4253,4.4895,0,0,0,0,0,0,0,-1,2036,1037,55.4253,-4.48954
-700,-20,-40.883,2.49365,0,0,0,0,0,0,0,-1,524,1044,-40.883,-2.49368
-693,-20,-40.8967,2.08777,-0.022484,0.0556338,-0.0344301,0.0686425,-0.0354926,-1.20955,0.0611295,0.0449364,531,1044,-40.8967,-2.08772
-686,-20,-41.0267,1.66284,-0.0137127,0.0491185,-0.0239516,0.0572075,-0.0218017,-1.2451,0.047118,0.0462699,538,1044,-41.0267,-1.66286
-679,-20,-41.3298,1.48938,0,0,0,0,0,0,0,-1,545,1044,-41.3298,-1.48932
-672,-20,-41.2951,1.75684,0,0,0,0,0,0,0,-1,552,1044,-41.2951,-1.75679
-665,-20,-41.5552,1.828,-0.00139934,0.0328049,-0.00625428,0.0339127,-0.00250706,-1.3955,0.0234888,0.0448201,559,1044,-41.5552,-1.82794
-658,-20,-41.4376,2.42896,9.2028e-05,0.0279884,-0.00330436,0.0283745,-0.000294035,-1.45449,0.0190151,0.0458129,566,1044,-41.4376,-2.42898
-651,-20,-41.4504,2.63464,0.000749527,0.0233388,-0.00146229,0.023433,0.000655261,-1.50642,0.0154082,0.042362,573,1044,-41.4504,-2.63461
-644,-20,-41.4006,2.75488,0.000918624,0.0190107,-0.000414813,0.0190202,0.000909119,-1.54788,0.0123882,0.0299068,580,1044,-41.4005,-2.75492
-637,-20,-41.4772,2.9436,0.00119554,0.0144991,0.000669796,0.0145327,0.0011619,1.52062,0.00932535,0.0197959,587,1044,-41.4772,-2.94359
-630,-20,-41.5649,3.18091,0.00145775,0.0107452,0.00067941,0.0107947,0.00140831,1.49816,0.00677598,0.0165685,594,1044,-41.5649,-3.1809
-623,-20,-41.6216,3.3855,0.000228543,0.00787831,-1.06602e-05,0.00787832,0.000228528,-1.5694,0.00517772,0.0149826,601,1044,-41.6216,-3.38555
-616,-20,-41.6138,3.54321,-0.00144945,0.00534937,-0.00138069,0.00561906,-0.00171914,-1.3779,0.00443166,0.0142972,608,1044,-41.6138,-3.54321
-609,-20,-41.6262,3.72253,-0.00168988,0.00345354,-0.00230155,0.00433304,-0.00256938,-1.20579,0.00402824,0.0157271,615,1044,-41.6262,-3.72255
-602,-20,-41.6164,3.85596,-0.0012409,0.00180414,-0.00250009,0.00320882,-0.00264558,-1.0589,0.00338525,0.0137577,622,1044,-41.6164,-3.85599
-595,-20,-41.6361,4.02991,0,0,0,0,0,0,0,-1,629,1044,-41.6361,-4.02992
-588,-20,-41.3599,0.936279,0,0,0,0,0,0,0,-1,636,1044,-41.3598,-0.936332
-581,-20,-41.3942,0.682861,0.000110995,-0.00122909,-0.00179202,0.00135414,-0.00247224,-0.606494,0.00224038,0.0331018,643,1044,-41.3942,-0.682883
-574,-20,-41.494,0.699341,0.000391893,-0.00173887,-0.00130088,0.00100797,-0.00235495,-0.442297,0.00199283,0.039408,650,1044,-41.494,-0.699337
-567,-20,-41.5706,0.825195,0.000487206,-0.00195369,-0.0006461,0.000647678,-0.00211416,-0.243444,0.00166779,0.0442181,657,1044,-41.5706,-0.825223
-560,-20,-41.5199,0.989624,0.000550742,-0.00190237,0.000187382,0.000564972,-0.0019166,0.0757994,0.00150191,0.0445629,664,1044,-41.5199,-0.989658
-553,-20,-41.5165,0.951416,0.000571503,-0.00168815,0.00119295,0.00108473,-0.00220138,0.406284,0.0019334,0.0435994,671,1044,-41.5165,-0.951463
-546,-20,-41.3055,0.564697,0.000573016,-0.00147632,0.00236964,0.00213005,-0.00303335,0.581332,0.00299625,0.0423867,678,1044,-41.3055,-0.564668
-539,-20,-41.1725,0.530884,0.000388568,-0.000949341,0.00319781,0.00298664,-0.00354742,0.682289,0.00377707,0.044476,685,1044,-41.1726,-0.530843
-532,-20,-41.1991,0.57605,-9.85256e-05,-0.000225666,0.00455981,0.00439816,-0.00472235,0.778428,0.00526684,0.0448979,692,1044,-41.1991,-0.576088
-525,-20,0,0,0,0,0,0,0,0,0,-1,699,1044,0,0
-518,-20,0,0,0,0,0,0,0,0,0,-1,706,1044,0,0
-511,-20,0,0,0,0,0,0,0,0,0,-1,713,1044,0,0
-504,-20,0,0,0,0,0,0,0,0,0,-1,720,1044,0,0
-497,-20,0,0,0,0,0,0,0,0,0,-1,727,1044,0,0
-490,-20,0,0,0,0,0,0,0,0,0,-1,734,1044,0,0
-483,-20,0,0,0,0,0,0,0,0,0,-1,741,1044,0,0
-476,-20,0,0,0,0,0,0,0,0,0,-1,748,1044,0,0
-469,-20,0,0,0,0,0,0,0,0,0,-1,755,1044,0,0
-462,-20,0,0,0,0,0,0,0,0,0,-1,762,1044,0,0
-455,-20,0,0,0,0,0,0,0,0,0,-1,769,1044,0,0
-448,-20,0,0,0,0,0,0,0,0,0,-1,776,1044,0,0
-441,-20,0,0,0,0,0,0,0,0,0,-1,783,1044,0,0
-434,-20,0,0,0,0,0,0,0,0,0,-1,790,1044,0,0
-427,-20,0,0,0,0,0,0,0,0,0,-1,797,1044,0,0
-420,-20,0,0,0,0,0,0,0,0,0,-1,804,1044,0,0
-413,-20,0,0,0,0,0,0,0,0,0,-1,811,1044,0,0
-406,-20,0,0,0,0,0,0,0,0,0,-1,818,1044,0,0
-399,-20,0,0,0,0,0,0,0,0,0,-1,825,1044,0,0
-392,-20,0,0,0,0,0,0,0,0,0,-1,832,1044,0,0
-385,-20,0,0,0,0,0,0,0,0,0,-1,839,1044,0,0
-378,-20,0,0,0,0,0,0,0,0,0,-1,846,1044,0,0
-371,-20,0,0,0,0,0,0,0,0,0,-1,853,1044,0,0
-364,-20,0,0,0,0,0,0,0,0,0,-1,860,1044,0,0
-357,-20,0,0,0,0,0,0,0,0,0,-1,867,1044,0,0
-350,-20,0,0,0,0,0,0,0,0,0,-1,874,1044,0,0
-343,-20,0,0,0,0,0,0,0,0,0,-1,881,1044,0,0
-336,-20,0,0,0,0,0,0,0,0,0,-1,888,1044,0,0
-329,-20,0,0,0,0,0,0,0,0,0,-1,895,1044,0,0
-322,-20,0,0,0,0,0,0,0,0,0,-1,902,1044,0,0
-315,-20,0,0,0,0,0,0,0,0,0,-1,909,1044,0,0
-308,-20,0,0,0,0,0,0,0,0,0,-1,916,1044,0,0
-301,-20,0,0,0,0,0,0,0,0,0,-1,923,1044,0,0
-294,-20,0,0,0,0,0,0,0,0,0,-1,930,1044,0,0
-287,-20,0,0,0,0,0,0,0,0,0,-1,937,1044,0,0
-280,-20,0,0,0,0,0,0,0,0,0,-1,944,1044,0,0
-273,-20,0,0,0,0,0,0,0,0,0,-1,951,1044,0,0
-266,-20,0,0,0,0,0,0,0,0,0,-1,958,1044,0,0
-259,-20,0,0,0,0,0,0,0,0,0,-1,965,1044,0,0
-252,-20,0,0,0,0,0,0,0,0,0,-1,972,1044,0,0
-245,-20,0,0,0,0,0,0,0,0,0,-1,979,1044,0,0
-238,-20,0,0,0,0,0,0,0,0,0,-1,986,1044,0,0
-231,-20,0,0,0,0,0,0,0,0,0,-1,993,1044,0,0
-224,-20,0,0,0,0,0,0,0,0,0,-1,1000,1044,0,0
-217,-20,0,0,0,0,0,0,0,0,0,-1,1007,1044,0,0
-210,-20,0,0,0,0,0,0,0,0,0,-1,1014,1044,0,0
-203,-20,0,0,0,0,0,0,0,0,0,-1,1021,1044,0,0
-196,-20,0,0,0,0,0,0,0,0,0,-1,1028,1044,0,0
-189,-20,0,0,0,0,0,0,0,0,0,-1,1035,1044,0,0
-182,-20,0,0,0,0,0,0,0,0,0,-1,1042,1044,0,0
-175,-20,0,0,0,0,0,0,0,0,0,-1,1049,1044,0,0
-168,-20,0,0,0,0,0,0,0,0,0,-1,1056,1044,0,0
-161,-20,0,0,0,0,0,0,0,0,0,-1,1063,1044,0,0
-154,-20,0,0,0,0,0,0,0,0,0,-1,1070,1044,0,0
-147,-20,0,0,0,0,0,0,0,0,0,-1,1077,1044,0,0
-140,-20,0,0,0,0,0,0,0,0,0,-1,1084,1044,0,0
-133,-20,0,0,0,0,0,0,0,0,0,-1,1091,1044,0,0
-126,-20,0,0,0,0,0,0,0,0,0,-1,1098,1044,0,0
-119,-20,0,0,0,0,0,0,0,0,0,-1,1105,1044,0,0
-112,-20,0,0,0,0,0,0,0,0,0,-1,1112,1044,0,0
-105,-20,0,0,0,0,0,0,0,0,0,-1,1119,1044,0,0
-98,-20,0,0,0,0,0,0,0,0,0,-1,1126,1044,0,0
-91,-20,0,0,0,0,0,0,0,0,0,-1,1133,1044,0,0
-84,-20,0,0,0,0,0,0,0,0,0,-1,1140,1044,0,0
-77,-20,0,0,0,0,0,0,0,0,0,-1,1147,1044,0,0
-70,-20,0,0,0,0,0,0,0,0,0,-1,1154,1044,0,0
-63,-20,0,0,0,0,0,0,0,0,0,-1,1161,1044,0,0
-56,-20,0,0,0,0,0,0,0,0,0,-1,1168,1044,0,0
-49,-20,0,0,0,0,0,0,0,0,0,-1,1175,1044,0,0
-42,-20,0,0,0,0,0,0,0,0,0,-1,1182,1044,0,0
-35,-20,0,0,0,0,0,0,0,0,0,-1,1189,1044,0,0
-28,-20,0,0,0,0,0,0,0,0,0,-1,1196,1044,0,0
-21,-20,0,0,0,0,0,0,0,0,0,-1,1203,1044,0,0
-14,-20,0,0,0,0,0,0,0,0,0,-1,1210,1044,0,0
-7,-20,0,0,0,0,0,0,0,0,0,-1,1217,1044,0,0
0,-20,0,0,0,0,0,0,0,0,0,-1,1224,1044,0,0
7,-20,0,0,0,0,0,0,0,0,0,-1,1231,1044,0,0
14,-20,0,0,0,0,0,0,0,0,0,-1,1238,1044,0,0
21,-20,0,0,0,0,0,0,0,0,0,-1,1245,1044,0,0
28,-20,0,0,0,0,0,0,0,0,0,-1,1252,1044,0,0
35,-20,0,0,0,0,0,0,0,0,0,-1,1259,1044,0,0
42,-20,0,0,0,0,0,0,0,0,0,-1,1266,1044,0,0
49,-20,0,0,0,0,0,0,0,0,0,-1,1273,1044,0,0
56,-20,0,0,0,0,0,0,0,0,0,-1,1280,1044,0,0
63,-20,0,0,0,0,0,0,0,0,0,-1,1287,1044,0,0
70,-20,0,0,0,0,0,0,0,0,0,-1,1294,1044,0,0
77,-20,0,0,0,0,0,0,0,0,0,-1,1301,1044,0,0
84,-20,0,0,0,0,0,0,0,0,0,-1,1308,1044,0,0
91,-20,0,0,0,0,0,0,0,0,0,-1,1315,1044,0,0
98,-20,0,0,0,0,0,0,0,0,0,-1,1322,1044,0,0
105,-20,0,0,0,0,0,0,0,0,0,-1,1329,1044,0,0
112,-20,0,0,0,0,0,0,0,0,0,-1,1336,1044,0,0
119,-20,0,0,0,0,0,0,0,0,0,-1,1343,1044,0,0
126,-20,0,0,0,0,0,0,0,0,0,-1,1350,1044,0,0
133,-20,0,0,0,0,0,0,0,0,0,-1,1357,1044,0,0
140,-20,0,0,0,0,0,0,0,0,0,-1,1364,1044,0,0
147,-20,0,0,0,0,0,0,0,0,0,-1,1371,1044,0,0
154,-20,0,0,0,0,0,0,0,0,0,-1,1378,1044,0,0
161,-20,0,0,0,0,0,0,0,0,0,-1,1385,1044,0,0
168,-20,0,0,0,0,0,0,0,0,0,-1,1392,1044,0,0
175,-20,0,0,0,0,0,0,0,0,0,-1,1399,1044,0,0
182,-20,0,0,0,0,0,0,0,0,0,-1,1406,1044,0,0
189,-20,0,0,0,0,0,0,0,0,0,-1,1413,1044,0,0
196,-20,0,0,0,0,0,0,0,0,0,-1,1420,1044,0,0
203,-20,0,0,0,0,0,0,0,0,0,-1,1427,1044,0,0
210,-20,0,0,0,0,0,0,0,0,0,-1,1434,1044,0,0
217,-20,0,0,0,0,0,0,0,0,0,-1,1441,1044,0,0
224,-20,0,0,0,0,0,0,0,0,0,-1,1448,1044,0,0
231,-20,0,0,0,0,0,0,0,0,0,-1,1455,1044,0,0
238,-20,0,0,0,0,0,0,0,0,0,-1,1462,1044,0,0
245,-20,0,0,0,0,0,0,0,0,0,-1,1469,1044,0,0
252,-20,0,0,0,0,0,0,0,0,0,-1,1476,1044,0,0
259,-20,0,0,0,0,0,0,0,0,0,-1,1483,1044,0,0
266,-20,0,0,0,0,0,0,0,0,0,-1,1490,1044,0,0
273,-20,0,0,0,0,0,0,0,0,0,-1,1497,1044,0,0
280,-20,0,0,0,0,0,0,0,0,0,-1,1504,1044,0,0
287,-20,0,0,0,0,0,0,0,0,0,-1,1511,1044,0,0
294,-20,0,0,0,0,0,0,0,0,0,-1,1518,1044,0,0
301,-20,0,0,0,0,0,0,0,0,0,-1,1525,1044,0,0
308,-20,0,0,0,0,0,0,0,0,0,-1,1532,1044,0,0
315,-20,0,0,0,0,0,0,0,0,0,-1,1539,1044,0,0
322,-20,0,0,0,0,0,0,0,0,0,-1,1546,1044,0,0
329,-20,0,0,0,0,0,0,0,0,0,-1,1553,1044,0,0
336,-20,0,0,0,0,0,0,0,0,0,-1,1560,1044,0,0
343,-20,0,0,0,0,0,0,0,0,0,-1,1567,1044,0,0
350,-20,0,0,0,0,0,0,0,0,0,-1,1574,1044,0,0
357,-20,0,0,0,0,0,0,0,0,0,-1,1581,1044,0,0
364,-20,0,0,0,0,0,0,0,0,0,-1,1588,1044,0,0
371,-20,0,0,0,0,0,0,0,0,0,-1,1595,1044,0,0
378,-20,0,0,0,0,0,0,0,0,0,-1,1602,1044,0,0
385,-20,0,0,0,0,0,0,0,0,0,-1,1609,1044,0,0
392,-20,0,0,0,0,0,0,0,0,0,-1,1616,1044,0,0
399,-20,0,0,0,0,0,0,0,0,0,-1,1623,1044,0,0
406,-20,0,0,0,0,0,0,0,0,0,-1,1630,1044,0,0
413,-20,0,0,0,0,0,0,0,0,0,-1,1637,1044,0,0
420,-20,0,0,0,0,0,0,0,0,0,-1,1644,1044,0,0
427,-20,0,0,0,0,0,0,0,0,0,-1,1651,1044,0,0
434,-20,0,0,0,0,0,0,0,0,0,-1,1658,1044,0,0
441,-20,0,0,0,0,0,0,0,0,0,-1,1665,1044,0,0
448,-20,0,0,0,0,0,0,0,0,0,-1,1672,1044,0,0
455,-20,0,0,0,0,0,0,0,0,0,-1,1679,1044,0,0
462,-20,0,0,0,0,0,0,0,0,0,-1,1686,1044,0,0
469,-20,0,0,0,0,0,0,0,0,0,-1,1693,1044,0,0
476,-20,0,0,0,0,0,0,0,0,0,-1,1700,1044,0,0
483,-20,0,0,0,0,0,0,0,0,0,-1,1707,1044,0,0
490,-20,0,0,0,0,0,0,0,0,0,-1,1714,1044,0,0
497,-20,0,0,0,0,0,0,0,0,0,-1,1721,1044,0,0
504,-20,0,0,0,0,0,0,0,0,0,-1,1728,1044,0,0
511,-20,0,0,0,0,0,0,0,0,0,-1,1735,1044,0,0
518,-20,0,0,0,0,0,0,0,0,0,-1,1742,1044,0,0
525,-20,0,0,0,0,0,0,0,0,0,-1,1749,1044,0,0
532,-20,0,0,0,0,0,0,0,0,0,-1,1756,1044,0,0
539,-20,0,0,0,0,0,0,0,0,0,-1,1763,1044,0,0
546,-20,0,0,0,0,0,0,0,0,0,-1,1770,1044,0,0
553,-20,0,0,0,0,0,0,0,0,0,-1,1777,1044,0,0
560,-20,0,0,0,0,0,0,0,0,0,-1,1784,1044,0,0
567,-20,0,0,0,0,0,0,0,0,0,-1,1791,1044,0,0
574,-20,0,0,0,0,0,0,0,0,0,-1,1798,1044,0,0
581,-20,0,0,0,0,0,0,0,0,0,-1,1805,1044,0,0
588,-20,0,0,0,0,0,0,0,0,0,-1,1812,1044,0,0
595,-20,0,0,0,0,0,0,0,0,0,-1,1819,1044,0,0
602,-20,0,0,0,0,0,0,0,0,0,-1,1826,1044,0,0
609,-20,0,0,0,0,0,0,0,0,0,-1,1833,1044,0,0
616,-20,0,0,0,0,0,0,0,0,0,-1,1840,1044,0,0
623,-20,0,0,0,0,0,0,0,0,0,-1,1847,1044,0,0
630,-20,0,0,0,0,0,0,0,0,0,-1,1854,1044,0,0
637,-20,0,0,0,0,0,0,0,0,0,-1,1861,1044,0,0
644,-20,0,0,0,0,0,0,0,0,0,-1,1868,1044,0,0
651,-20,55.3329,2.70728,0.000509759,0.00253396,-0.00087701,0.00286107,0.000182646,-1.21379,0.00184951,0.0404114,1875,1044,55.3329,-2.70726
658,-20,55.3043,2.35681,-0.000790463,0.00222902,-6.62977e-05,0.00223048,-0.000791918,-1.54885,0.00180967,0.0428884,1882,1044,55.3043,-2.35684
665,-20,55.1888,2.43909,-0.0014508,0.00189596,0.000485962,0.0019651,-0.00151994,1.42948,0.00201755,0.0407812,1889,1044,55.1889,-2.43906
672,-20,55.1779,2.5874,-0.00171391,0.00166804,0.00110511,0.00199713,-0.002043,1.28137,0.00233262,0.0277869,1896,1044,55.1778,-2.58739
679,-20,55.2493,2.48047,-0.00169604,0.00152254,0.00179398,0.00232327,-0.00249676,1.15099,0.00278345,0.0296642,1903,1044,55.2492,-2.48052
686,-20,55.2769,2.47546,-0.00177284,0.00124671,0.0024133,0.00258359,-0.00310971,1.06492,0.00329171,0.0384441,1910,1044,55.2768,-2.47541
693,-20,55.0316,2.52075,-0.00176917,0.000935395,0.00295002,0.00282831,-0.00366208,1.00031,0.00375752,0.0451618,1917,1044,55.0316,-2.52081
700,-20,55.0121,2.62781,-0.00167161,0.000714128,0.00337629,0.00310208,-0.00405956,0.955207,0.00414707,0.0412966,1924,1044,55.0121,-2.6278
707,-20,55.1792,2.62671,-0.00198602,0.000765686,0.00364224,0.00328327,-0.00450361,0.965988,0.00451412,0.0342458,1931,1044,55.1792,-2.62672
714,-20,55.2272,2.77734,-0.00247987,0.0010752,0.00373528,0.00343433,-0.004839,1.00748,0.0047995,0.0287705,1938,1044,55.2272,-2.77736
721,-20,55.3307,3.45313,0,0,0,0,0,0,0,-1,1945,1044,55.3307,-3.45319
728,-20,55.4005,6.40576,0,0,0,0,0,0,0,-1,1952,1044,55.4005,-6.40575
735,-20,55.0601,6.34106,-0.00497215,0.00392209,0.00324531,0.00498032,-0.00603038,1.25559,0.00636666,0.0316884,1959,1044,55.06,-6.34105
742,-20,54.8055,6.18079,-0.00541472,0.00520215,0.00246809,0.00574786,-0.00596043,1.35319,0.00676015,0.0265194,1966,1044,54.8055,-6.18075
749,-20,54.894,6.1228,-0.00585535,0.00702582,0.00172667,0.00725325,-0.00608278,1.43983,0.00770944,0.0271656,1973,1044,54.894,-6.12282
756,-20,54.891,6.03503,-0.00639005,0.009509,0.00113043,0.00958898,-0.00647002,1.50017,0.00932977,0.0178384,1980,1044,54.891,-6.03503
763,-20,54.8003,5.92505,-0.0067141,0.0121644,-6.66875e-05,0.0121647,-0.00671433,-1.56726,0.0110502,0.027173,1987,1044,54.8003,-5.9251
770,-20,54.6963,5.86279,-0.00634781,0.0157261,-0.00168879,0.0158545,-0.00647626,-1.49488,0.0132663,0.0233919,1994,1044,54.6962,-5.8628
777,-20,54.5935,5.66467,-0.00490323,0.020234,-0.00348131,0.0207072,-0.00537645,-1.43569,0.0159029,0.0148242,2001,1044,54.5935,-5.66468
784,-20,54.603,5.53552,-0.00283434,0.0248813,-0.00520931,0.0258281,-0.00378112,-1.39101,0.0186076,0.0190508,2008,1044,54.6031,-5.53549
791,-20,54.646,5.25574,-0.000194353,0.02962,-0.00702057,0.0311905,-0.00176481,-1.35073,0.0214062,0.0340036,2015,1044,54.6461,-5.25576
798,-20,54.5581,4.9574,0.00338725,0.034334,-0.00890297,0.0367124,0.00100878,-1.30974,0.0241457,0.0401836,2022,1044,54.558,-4.95735
805,-20,54.5422,4.89258,0.00824624,0.0389541,-0.0106505,0.0422864,0.00491393,-1.26757,0.0267041,0.0423136,2029,1044,54.5422,-4.89256
812,-20,54.6069,4.7533,0,0,0,0,0,0,0,-1,2036,1044,54.6069,-4.75333
-700,-27,-40.361,1.60889,-0.0381239,0.0618839,-0.0436196,0.0782355,-0.0544755,-1.21214,0.077029,0.0462979,524,1051,-40.361,-1.60893
-693,-27,-40.4557,1.55017,-0.0290938,0.0548418,-0.0313237,0.0652426,-0.0394946,-1.25021,0.0610761,0.0437478,531,1051,-40.4557,-1.55019
-686,-27,-40.7169,1.60022,-0.0211815,0.0485539,-0.0218088,0.0548125,-0.0274402,-1.29133,0.0483572,0.0438121,538,1051,-40.7169,-1.60018
-679,-27,-41.2567,1.43726,0,0,0,0,0,0,0,-1,545,1051,-41.2567,-1.43721
-672,-27,-41.5382,0.757202,-0.0106962,0.0374973,-0.00947178,0.039292,-0.0124909,-1.38354,0.0312031,0.0430985,552,1051,-41.5382,-0.757141
-665,-27,-41.7132,2.12878,-0.00719432,0.032484,-0.00556925,0.0332509,-0.0079612,-1.43396,0.025243,0.0447741,559,1051,-41.7132,-2.1288
-658,-27,-41.5468,2.42786,-0.00465589,0.0277003,-0.00284936,0.0279493,-0.00490489,-1.48363,0.0204647,0.042384,566,1051,-41.5468,-2.42785
-651,-27,-41.1223,2.63989,-0.00294679,0.0230719,-0.00117154,0.0231246,-0.00299943,-1.52589,0.0165073,0.0365691,573,1051,-41.1222,-2.63988
-644,-27,-41.2001,2.66455,-0.00182228,0.0186882,-0.000187572,0.0186899,-0.001824,-1.56165,0.0131103,0.0184558,580,1051,-41.2001,-2.66456
-637,-27,-41.2673,2.80811,-0.000642242,0.0141474,0.000731394,0.0141835,-0.000678324,1.5215,0.0096897,0.016006,587,1051,-41.2673,-2.80813
-630,-27,-41.3691,3.15625,0.000285707,0.0103093,0.00060409,0.0103456,0.000249432,1.51082,0.00681542,0.0200437,594,1051,-41.3691,-3.15627
-623,-27,-41.3968,3.40063,-0.000271967,0.00744713,-0.000215751,0.00745315,-0.000277993,-1.54288,0.00506398,0.0170795,601,1051,-41.3968,-3.40058
-616,-27,-41.3526,3.59424,-0.00129723,0.00491577,-0.00143146,0.00522971,-0.00161118,-1.3549,0.00412966,0.0147683,608,1051,-41.3526,-3.59424
-609,-27,-41.3641,3.75537,-0.0012933,0.00301562,-0.00225344,0.0039788,-0.00225648,-1.16687,0.00364543,0.0150482,615,1051,-41.364,-3.75539
-602,-27,-41.3356,3.95605,-0.000895044,0.00133042,-0.00240214,0.00286503,-0.00242966,-1.0023,0.00306034,0.0137784,622,1051,-41.3356,-3.9561
-595,-27,-41.3875,4.12122,-0.000497649,1.95554e-05,-0.00247323,0.00224767,-0.00272576,-0.837489,0.00287583,0.0171324,629,1051,-41.3875,-4.12119
-588,-27,-41.4,0.769653,0,0,0,0,0,0,0,-1,636,1051,-41.4,-0.769601
-581,-27,-41.3182,0.760742,0.000321514,-0.00157807,-0.0015335,0.00117553,-0.00243208,-0.50813,0.00212455,0.0261226,643,1051,-41.3182,-0.760757
-574,-27,-41.3667,0.93689,0.00058553,-0.00205732,-0.000991922,0.000916399,-0.00238819,-0.321957,0.00196997,0.0359225,650,1051,-41.3667,-0.936872
-567,-27,-41.3385,1.06787,0.00066867,-0.00226942,-0.00031214,0.000701466,-0.00230221,-0.104682,0.00181441,0.0430124,657,1051,-41.3385,-1.06785
-560,-27,-41.2277,1.17358,0,0,0,0,0,0,0,-1,664,1051,-41.2277,-1.17357
-553,-27,-41.0342,0.2854,0,0,0,0,0,0,0,-1,671,1051,-41.0342,-0.285444
-546,-27,-41.2927,0.388184,0.000685008,-0.00198199,0.00260173,0.00227507,-0.00357205,0.548582,0.00340341,0.0447405,678,1051,-41.2927,-0.388223
-539,-27,-41.3282,0.52063,0.000484908,-0.00172186,0.00336317,0.00292106,-0.00415802,0.626891,0.00410785,0.0453653,685,1051,-41.3282,-0.52057
-532,-27,-41.3407,0.566895,-1.98772e-05,-0.00122648,0.00467196,0.00408758,-0.00533394,0.721187,0.00545536,0.0455851,692,1051,-41.3407,-0.566953
-525,-27,0,0,0,0,0,0,0,0,0,-1,699,1051,0,0
-518,-27,0,0,0,0,0,0,0,0,0,-1,706,1051,0,0
-511,-27,0,0,0,0,0,0,0,0,0,-1,713,1051,0,0
-504,-27,0,0,0,0,0,0,0,0,0,-1,720,1051,0,0
-497,-27,0,0,0,0,0,0,0,0,0,-1,727,1051,0,0
-490,-27,0,0,0,0,0,0,0,0,0,-1,734,1051,0,0
-483,-27,0,0,0,0,0,0,0,0,0,-1,741,1051,0,0
-476,-27,0,0,0,0,0,0,0,0,0,-1,748,1051,0,0
-469,-27,0,0,0,0,0,0,0,0,0,-1,755,1051,0,0
-462,-27,0,0,0,0,0,0,0,0,0,-1,762,1051,0,0
-455,-27,0,0,0,0,0,0,0,0,0,-1,769,1051,0,0
-448,-27,0,0,0,0,0,0,0,0,0,-1,776,1051,0,0
-441,-27,0,0,0,0,0,0,0,0,0,-1,783,1051,0,0
-434,-27,0,0,0,0,0,0,0,0,0,-1,790,1051,0,0
-427,-27,0,0,0,0,0,0,0,0,0,-1,797,1051,0,0
-420,-27,0,0,0,0,0,0,0,0,0,-1,804,1051,0,0
-413,-27,0,0,0,0,0,0,0,0,0,-1,811,1051,0,0
-406,-27,0,0,0,0,0,0,0,0,0,-1,818,1051,0,0
-399,-27,0,0,0,0,0,0,0,0,0,-1,825,1051,0,0
-392,-27,0,0,0,0,0,0,0,0,0,-1,832,1051,0,0
-385,-27,0,0,0,0,0,0,0,0,0,-1,839,1051,0,0
-378,-27,0,0,0,0,0,0,0,0,0,-1,846,1051,0,0
-371,-27,0,0,0,0,0,0,0,0,0,-1,853,1051,0,0
-364,-27,0,0,0,0,0,0,0,0,0,-1,860,1051,0,0
-357,-27,0,0,0,0,0,0,0,0,0,-1,867,1051,0,0
-350,-27,0,0,0,0,0,0,0,0,0,-1,874,1051,0,0
-343,-27,0,0,0,0,0,0,0,0,0,-1,881,1051,0,0
-336,-27,0,0,0,0,0,0,0,0,0,-1,888,1051,0,0
-329,-27,0,0,0,0,0,0,0,0,0,-1,895,1051,0,0
-322,-27,0,0,0,0,0,0,0,0,0,-1,902,1051,0,0
-315,-27,0,0,0,0,0,0,0,0,0,-1,909,1051,0,0
-308,-27,0,0,0,0,0,0,0,0,0,-1,916,1051,0,0
-301,-27,0,0,0,0,0,0,0,0,0,-1,923,1051,0,0
-294,-27,0,0,0,0,0,0,0,0,0,-1,930,1051,0,0
-287,-27,0,0,0,0,0,0,0,0,0,-1,937,1051,0,0
-280,-27,0,0,0,0,0,0,0,0,0,-1,944,1051,0,0
-273,-27,0,0,0,0,0,0,0,0,0,-1,951,1051,0,0
-266,-27,0,0,0,0,0,0,0,0,0,-1,958,1051,0,0
-259,-27,0,0,0,0,0,0,0,0,0,-1,965,1051,0,0
-252,-27,0,0,0,0,0,0,0,0,0,-1,972,1051,0,0
-245,-27,0,0,0,0,0,0,0,0,0,-1,979,1051,0,0
-238,-27,0,0,0,0,0,0,0,0,0,-1,986,1051,0,0
-231,-27,0,0,0,0,0,0,0,0,0,-1,993,1051,0,0
-224,-27,0,0,0,0,0,0,0,0,0,-1,1000,1051,0,0
-217,-27,0,0,0,0,0,0,0,0,0,-1,1007,1051,0,0
-210,-27,0,0,0,0,0,0,0,0,0,-1,1014,1051,0,0
-203,-27,0,0,0,0,0,0,0,0,0,-1,1021,1051,0,0
-196,-27,0,0,0,0,0,0,0,0,0,-1,1028,1051,0,0
-189,-27,0,0,0,0,0,0,0,0,0,-1,1035,1051,0,0
-182,-27,0,0,0,0,0,0,0,0,0,-1,1042,1051,0,0
-175,-27,0,0,0,0,0,0,0,0,0,-1,1049,1051,0,0
-168,-27,0,0,0,0,0,0,0,0,0,-1,1056,1051,0,0
-161,-27,0,0,0,0,0,0,0,0,0,-1,1063,1051,0,0
-154,-27,0,0,0,0,0,0,0,0,0,-1,1070,1051,0,0
-147,-27,0,0,0,0,0,0,0,0,0,-1,1077,1051,0,0
-140,-27,0,0,0,0,0,0,0,0,0,-1,1084,1051,0,0
-133,-27,0,0,0,0,0,0,0,0,0,-1,1091,1051,0,0
-126,-27,0,0,0,0,0,0,0,0,0,-1,1098,1051,0,0
-119,-27,0,0,0,0,0,0,0,0,0,-1,1105,1051,0,0
-112,-27,0,0,0,0,0,0,0,0,0,-1,1112,1051,0,0
-105,-27,0,0,0,0,0,0,0,0,0,-1,1119,1051,0,0
-98,-27,0,0,0,0,0,0,0,0,0,-1,1126,1051,0,0
-91,-27,0,0,0,0,0,0,0,0,0,-1,1133,1051,0,0
-84,-27,0,0,0,0,0,0,0,0,0,-1,1140,1051,0,0
-77,-27,0,0,0,0,0,0,0,0,0,-1,1147,1051,0,0
-70,-27,0,0,0,0,0,0,0,0,0,-1,1154,1051,0,0
-63,-27,0,0,0,0,0,0,0,0,0,-1,1161,1051,0,0
-56,-27,0,0,0,0,0,0,0,0,0,-1,1168,1051,0,0
-49,-27,0,0,0,0,0,0,0,0,0,-1,1175,1051,0,0
-42,-27,0,0,0,0,0,0,0,0,0,-1,1182,1051,0,0
-35,-27,0,0,0,0,0,0,0,0,0,-1,1189,1051,0,0
-28,-27,0,0,0,0,0,0,0,0,0,-1,1196,1051,0,0
-21,-27,0,0,0,0,0,0,0,0,0,-1,1203,1051,0,0
-14,-27,0,0,0,0,0,0,0,0,0,-1,1210,1051,0,0
-7,-27,0,0,0,0,0,0,0,0,0,-1,1217,1051,0,0
0,-27,0,0,0,0,0,0,0,0,0,-1,1224,1051,0,0
7,-27,0,0,0,0,0,0,0,0,0,-1,1231,1051,0,0
14,-27,0,0,0,0,0,0,0,0,0,-1,1238,1051,0,0
21,-27,0,0,0,0,0,0,0,0,0,-1,1245,1051,0,0
28,-27,0,0,0,0,0,0,0,0,0,-1,1252,1051,0,0
35,-27,0,0,0,0,0,0,0,0,0,-1,1259,1051,0,0
42,-27,0,0,0,0,0,0,0,0,0,-1,1266,1051,0,0
49,-27,0,0,0,0,0,0,0,0,0,-1,1273,1051,0,0
56,-27,0,0,0,0,0,0,0,0,0,-1,1280,1051,0,0
63,-27,0,0,0,0,0,0,0,0,0,-1,1287,1051,0,0
70,-27,0,0,0,0,0,0,0,0,0,-1,1294,1051,0,0
77,-27,0,0,0,0,0,0,0,0,0,-1,1301,1051,0,0
84,-27,0,0,0,0,0,0,0,0,0,-1,1308,1051,0,0
91,-27,0,0,0,0,0,0,0,0,0,-1,1315,1051,0,0
98,-27,0,0,0,0,0,0,0,0,0,-1,1322,1051,0,0
105,-27,0,0,0,0,0,0,0,0,0,-1,1329,1051,0,0
112,-27,0,0,0,0,0,0,0,0,0,-1,1336,1051,0,0
119,-27,0,0,0,0,0,0,0,0,0,-1,1343,1051,0,0
126,-27,0,0,0,0,0,0,0,0,0,-1,1350,1051,0,0
133,-27,0,0,0,0,0,0,0,0,0,-1,1357,1051,0,0
140,-27,0,0,0,0,0,0,0,0,0,-1,1364,1051,0,0
147,-27,0,0,0,0,0,0,0,0,0,-1,1371,1051,0,0
154,-27,0,0,0,0,0,0,0,0,0,-1,1378,1051,0,0
161,-27,0,0,0,0,0,0,0,0,0,-1,1385,1051,0,0
168,-27,0,0,0,0,0,0,0,0,0,-1,1392,1051,0,0
175,-27,0,0,0,0,0,0,0,0,0,-1,1399,1051,0,0
182,-27,0,0,0,0,0,0,0,0,0,-1,1406,1051,0,0
189,-27,0,0,0,0,0,0,0,0,0,-1,1413,1051,0,0
196,-27,0,0,0,0,0,0,0,0,0,-1,1420,1051,0,0
203,-27,0,0,0,0,0,0,0,0,0,-1,1427,1051,0,0
210,-27,0,0,0,0,0,0,0,0,0,-1,1434,1051,0,0
217,-27,0,0,0,0,0,0,0,0,0,-1,1441,1051,0,0
224,-27,0,0,0,0,0,0,0,0,0,-1,1448,1051,0,0
231,-27,0,0,0,0,0,0,0,0,0,-1,1455,1051,0,0
238,-27,0,0,0,0,0,0,0,0,0,-1,1462,1051,0,0
245,-27,0,0,0,0,0,0,0,0,0,-1,1469,1051,0,0
252,-27,0,0,0,0,0,0,0,0,0,-1,1476,1051,0,0
259,-27,0,0,0,0,0,0,0,0,0,-1,1483,1051,0,0
266,-27,0,0,0,0,0,0,0,0,0,-1,1490,1051,0,0
273,-27,0,0,0,0,0,0,0,0,0,-1,1497,1051,0,0
280,-27,0,0,0,0,0,0,0,0,0,-1,1504,1051,0,0
287,-27,0,0,0,0,0,0,0,0,0,-1,1511,1051,0,0
294,-27,0,0,0,0,0,0,0,0,0,-1,1518,1051,0,0
301,-27,0,0,0,0,0,0,0,0,0,-1,1525,1051,0,0
308,-27,0,0,0,0,0,0,0,0,0,-1,1532,1051,0,0
315,-27,0,0,0,0,0,0,0,0,0,-1,1539,1051,0,0
322,-27,0,0,0,0,0,0,0,0,0,-1,1546,1051,0,0
329,-27,0,0,0,0,0,0,0,0,0,-1,1553,1051,0,0
336,-27,0,0,0,0,0,0,0,0,0,-1,1560,1051,0,0
343,-27,0,0,0,0,0,0,0,0,0,-1,1567,1051,0,0
350,-27,0,0,0,0,0,0,0,0,0,-1,1574,1051,0,0
357,-27,0,0,0,0,0,0,0,0,0,-1,1581,1051,0,0
364,-27,0,0,0,0,0,0,0,0,0,-1,1588,1051,0,0
371,-27,0,0,0,0,0,0,0,0,0,-1,1595,1051,0,0
378,-27,0,0,0,0,0,0,0,0,0,-1,1602,1051,0,0
385,-27,0,0,0,0,0,0,0,0,0,-1,1609,1051,0,0
392,-27,0,0,0,0,0,0,0,0,0,-1,1616,1051,0,0
399,-27,0,0,0,0,0,0,0,0,0,-1,1623,1051,0,0
406,-27,0,0,0,0,0,0,0,0,0,-1,1630,1051,0,0
413,-27,0,0,0,0,0,0,0,0,0,-1,1637,1051,0,0
420,-27,0,0,0,0,0,0,0,0,0,-1,1644,1051,0,0
427,-27,0,0,0,0,0,0,0,0,0,-1,1651,1051,0,0
434,-27,0,0,0,0,0,0,0,0,0,-1,1658,1051,0,0
441,-27,0,0,0,0,0,0,0,0,0,-1,1665,1051,0,0
448,-27,0,0,0,0,0,0,0,0,0,-1,1672,1051,0,0
455,-27,0,0,0,0,0,0,0,0,0,-1,1679,1051,0,0
462,-27,0,0,0,0,0,0,0,0,0,-1,1686,1051,0,0
469,-27,0,0,0,0,0,0,0,0,0,-1,1693,1051,0,0
476,-27,0,0,0,0,0,0,0,0,0,-1,1700,1051,0,0
483,-27,0,0,0,0,0,0,0,0,0,-1,1707,1051,0,0
490,-27,0,0,0,0,0,0,0,0,0,-1,1714,1051,0,0
497,-27,0,0,0,0,0,0,0,0,0,-1,1721,1051,0,0
504,-27,0,0,0,0,0,0,0,0,0,-1,1728,1051,0,0
511,-27,0,0,0,0,0,0,0,0,0,-1,1735,1051,0,0
518,-27,0,0,0,0,0,0,0,0,0,-1,1742,1051,0,0
525,-27,0,0,0,0,0,0,0,0,0,-1,1749,1051,0,0
532,-27,0,0,0,0,0,0,0,0,0,-1,1756,1051,0,0
539,-27,0,0,0,0,0,0,0,0,0,-1,1763,1051,0,0
546,-27,0,0,0,0,0,0,0,0,0,-1,1770,1051,0,0
553,-27,0,0,0,0,0,0,0,0,0,-1,1777,1051,0,0
560,-27,0,0,0,0,0,0,0,0,0,-1,1784,1051,0,0
567,-27,0,0,0,0,0,0,0,0,0,-1,1791,1051,0,0
574,-27,0,0,0,0,0,0,0,0,0,-1,1798,1051,0,0
581,-27,0,0,0,0,0,0,0,0,0,-1,1805,1051,0,0
588,-27,0,0,0,0,0,0,0,0,0,-1,1812,1051,0,0
595,-27,0,0,0,0,0,0,0,0,0,-1,1819,1051,0,0
602,-27,0,0,0,0,0,0,0,0,0,-1,1826,1051,0,0
609,-27,0,0,0,0,0,0,0,0,0,-1,1833,1051,0,0
616,-27,0,0,0,0,0,0,0,0,0,-1,1840,1051,0,0
623,-27,0,0,0,0,0,0,0,0,0,-1,1847,1051,0,0
630,-27,0,0,0,0,0,0,0,0,0,-1,1854,1051,0,0
637,-27,0,0,0,0,0,0,0,0,0,-1,1861,1051,0,0
644,-27,0,0,0,0,0,0,0,0,0,-1,1868,1051,0,0
651,-27,55.1967,2.73047,0.000939075,0.00215101,-0.00124808,0.00293245,0.000157633,-1.0114,0.0019046,0.040021,1875,1051,55.1967,-2.73046
658,-27,55.2417,2.46619,-0.000481258,0.00170243,-0.000223331,0.00172503,-0.000503865,-1.46992,0.0013497,0.0381728,1882,1051,55.2417,-2.46624
665,-27,55.1769,2.52808,-0.00121726,0.00131903,0.000430248,0.00139003,-0.00128826,1.40725,0.00154668,0.0380712,1889,1051,55.1768,-2.52813
672,-27,55.0875,2.72827,0,0,0,0,0,0,0,-1,1896,1051,55.0876,-2.72831
679,-27,55.2606,2.58203,-0.00152747,0.000944953,0.00175492,0.00185536,-0.00243787,1.09224,0.00248629,0.0297754,1903,1051,55.2606,-2.58208
686,-27,55.3151,2.73035,-0.00160873,0.000693137,0.00235216,0.00216085,-0.00307645,1.01293,0.00303912,0.043512,1910,1051,55.3151,-2.73034
693,-27,55.2388,2.71008,-0.00160734,0.000418548,0.00285869,0.00243845,-0.00362725,0.955665,0.00352438,0.0470395,1917,1051,55.2388,-2.71002
700,-27,55.053,2.64709,-0.00150829,0.000235759,0.0032693,0.00274733,-0.00401986,0.91573,0.00393,0.0411435,1924,1051,55.053,-2.64705
707,-27,55.114,2.63538,-0.00181215,0.000294167,0.00356519,0.0029585,-0.00447648,0.929014,0.00432231,0.0263156,1931,1051,55.114,-2.63543
714,-27,55.1869,2.69165,-0.00228167,0.000594439,0.00369442,0.00312082,-0.00480805,0.971001,0.00461215,0.0231303,1938,1051,55.1869,-2.69165
721,-27,55.2098,3.18713,-0.00302092,0.00112993,0.00368625,0.00328485,-0.00517584,1.04179,0.00492528,0.046353,1945,1051,55.2099,-3.18709
728,-27,55.3818,6.50098,0,0,0,0,0,0,0,-1,1952,1051,55.3818,-6.50097
735,-27,54.8712,6.43237,-0.00458017,0.00330691,0.00327736,0.004491,-0.00576426,1.2241,0.00593607,0.0336985,1959,1051,54.8712,-6.43238
742,-27,54.6683,6.31519,-0.00493799,0.00456738,0.00247602,0.00517368,-0.00554429,1.33065,0.00618925,0.0201488,1966,1051,54.6684,-6.31515
749,-27,54.7365,6.1405,-0.00524632,0.00634558,0.00176675,0.00660888,-0.00550961,1.42286,0.0070062,0.0155044,1973,1051,54.7364,-6.1405
756,-27,54.7158,5.98987,-0.0056643,0.00879175,0.00124957,0.00889897,-0.00577152,1.4852,0.00853392,0.0148881,1980,1051,54.7158,-5.98989
763,-27,54.6364,5.82581,-0.00586501,0.0113509,0.000157649,0.0113524,-0.00586646,1.56164,0.0101081,0.0151311,1987,1051,54.6364,-5.82586
770,-27,54.5359,5.66785,-0.00536544,0.0148339,-0.00134046,0.0149224,-0.00545401,-1.50482,0.0121804,0.0158509,1994,1051,54.5359,-5.66786
777,-27,54.4512,5.58643,-0.00379106,0.0192004,-0.00293468,0.019569,-0.00415973,-1.44582,0.0146311,0.0180898,2001,1051,54.4511,-5.58641
784,-27,54.4438,5.5144,-0.0016007,0.0236623,-0.00432907,0.0243836,-0.00232194,-1.40571,0.0170824,0.0263969,2008,1051,54.4438,-5.51439
791,-27,54.3103,4.93323,0.00113297,0.0280878,-0.00562763,0.0292156,5.21634e-06,-1.37302,0.0194753,0.040436,2015,1051,54.3104,-4.93317
798,-27,54.5017,3.96008,0.00467145,0.0323061,-0.00678568,0.0338824,0.00309515,-1.34255,0.0216305,0.0437056,2022,1051,54.5016,-3.96006
805,-27,54.4622,4.07373,0.00925524,0.0361276,-0.00755901,0.038108,0.00727489,-1.31457,0.023361,0.0445889,2029,1051,54.4622,-4.07375
812,-27,54.8169,4.49353,0,0,0,0,0,0,0,-1,2036,1051,54.8168,-4.49353
-700,-34,-40.0424,1.20117,-0.0414739,0.0617207,-0.0388261,0.074697,-0.0544502,-1.24825,0.074868,0.0452192,524,1058,-40.0424,-1.20117
-693,-34,-40.1095,1.11145,-0.035448,0.0544969,-0.0282414,0.062629,-0.0435801,-1.29043,0.0616478,0.0450263,531,1058,-40.1095,-1.11145
-686,-34,-40.6197,1.4646,-0.0287612,0.0479568,-0.0199843,0.0528504,-0.0336547,-1.33065,0.050352,0.0440996,538,1058,-40.6197,-1.46462
-679,-34,-40.76,0.665649,0,0,0,0,0,0,0,-1,545,1058,-40.76,-0.665674
-672,-34,-41.0875,0.307739,0,0,0,0,0,0,0,-1,552,1058,-41.0875,-0.307702
-665,-34,-40.4296,2.00171,0,0,0,0,0,0,0,-1,559,1058,-40.4296,-2.00167
-658,-34,-40.6099,2.17969,-0.0100046,0.0267391,-0.00287206,0.0269622,-0.0102277,-1.49326,0.0221844,0.0455812,566,1058,-40.6098,-2.17964
-651,-34,-40.8054,2.3562,-0.00720479,0.0221606,-0.00128307,0.0222166,-0.00726074,-1.52721,0.0177339,0.0311321,573,1058,-40.8054,-2.35624
-644,-34,-41.0286,2.50854,-0.00508704,0.0177747,-0.000282864,0.0177782,-0.00509054,-1.55843,0.0138641,0.0156626,580,1058,-41.0286,-2.5085
-637,-34,-41.0704,2.72144,-0.00296143,0.013236,0.000559104,0.0132553,-0.0029807,1.53633,0.00997992,0.0172424,587,1058,-41.0704,-2.72139
-630,-34,-41.1129,3.06104,-0.00122205,0.00944826,0.000374023,0.00946135,-0.00123515,1.5358,0.00675702,0.0186571,594,1058,-41.1129,-3.06098
-623,-34,-41.089,3.33655,-0.000966538,0.00665794,-0.000433097,0.00668246,-0.000991061,-1.51424,0.00481941,0.0136638,601,1058,-41.089,-3.33652
-616,-34,-41.0373,3.63159,-0.00115995,0.00431403,-0.00139097,0.00464721,-0.00149312,-1.3357,0.00369773,0.0210471,608,1058,-41.0373,-3.63154
-609,-34,-41.0494,3.84521,-0.000846638,0.00245505,-0.00204571,0.00343294,-0.00182453,-1.12489,0.00308238,0.0212761,615,1058,-41.0494,-3.84523
-602,-34,-41.0661,4.0061,-0.000458202,0.000771357,-0.00218977,0.00243101,-0.00211786,-0.92225,0.00262836,0.0162456,622,1058,-41.0661,-4.00613
-595,-34,-41.189,4.19714,-9.58044e-05,-0.000524906,-0.00226413,0.00196392,-0.00258463,-0.738159,0.00263424,0.0170678,629,1058,-41.189,-4.1971
-588,-34,-41.4927,4.36475,0,0,0,0,0,0,0,-1,636,1058,-41.4927,-4.36471
-581,-34,-41.3093,0.753296,0.000574075,-0.00205306,-0.00127324,0.00108988,-0.00256886,-0.384905,0.00216914,0.0273003,643,1058,-41.3093,-0.753321
-574,-34,-41.2887,0.899048,0.000804187,-0.00250407,-0.000717435,0.00095307,-0.00265296,-0.204618,0.00215767,0.0349945,650,1058,-41.2887,-0.899022
-567,-34,-41.2344,1.02502,0.000859732,-0.00271348,-4.22005e-05,0.00086023,-0.00271398,-0.011808,0.0021541,0.0401712,657,1058,-41.2344,-1.02506
-560,-34,-41.1833,0.785767,0.000843421,-0.00272338,0.000763466,0.000999969,-0.00287993,0.202245,0.00232606,0.0412727,664,1058,-41.1834,-0.7858
-553,-34,-41.2655,0.475708,0.000799126,-0.00264757,0.00169904,0.00149583,-0.00334428,0.389148,0.00286156,0.0420872,671,1058,-41.2655,-0.475668
-546,-34,-41.3306,0.460449,0.00074565,-0.00265751,0.00275496,0.00228215,-0.00419401,0.508753,0.00379293,0.0432357,678,1058,-41.3306,-0.460395
-539,-34,-41.3403,0.627808,0.000557932,-0.00275008,0.00350706,0.00278145,-0.0049736,0.565054,0.00453661,0.0417916,685,1058,-41.3403,-0.627811
-532,-34,-41.4291,0.714844,4.87536e-05,-0.00254619,0.004816,0.003739,-0.00623643,0.653818,0.00581917,0.0419205,692,1058,-41.4291,-0.7148
-525,-34,0,0,0,0,0,0,0,0,0,-1,699,1058,0,0
-518,-34,0,0,0,0,0,0,0,0,0,-1,706,1058,0,0
-511,-34,0,0,0,0,0,0,0,0,0,-1,713,1058,0,0
-504,-34,0,0,0,0,0,0,0,0,0,-1,720,1058,0,0
-497,-34,0,0,0,0,0,0,0,0,0,-1,727,1058,0,0
-490,-34,0,0,0,0,0,0,0,0,0,-1,734,1058,0,0
-483,-34,0,0,0,0,0,0,0,0,0,-1,741,1058,0,0
-476,-34,0,0,0,0,0,0,0,0,0,-1,748,1058,0,0
-469,-34,0,0,0,0,0,0,0,0,0,-1,755,1058,0,0
-462,-34,0,0,0,0,0,0,0,0,0,-1,762,1058,0,0
-455,-34,0,0,0,0,0,0,0,0,0,-1,769,1058,0,0
-448,-34,0,0,0,0,0,0,0,0,0,-1,776,1058,0,0
-441,-34,0,0,0,0,0,0,0,0,0,-1,783,1058,0,0
-434,-34,0,0,0,0,0,0,0,0,0,-1,790,1058,0,0
-427,-34,0,0,0,0,0,0,0,0,0,-1,797,1058,0,0
-420,-34,0,0,0,0,0,0,0,0,0,-1,804,1058,0,0
-413,-34,0,0,0,0,0,0,0,0,0,-1,811,1058,0,0
-406,-34,0,0,0,0,0,0,0,0,0,-1,818,1058,0,0
-399,-34,0,0,0,0,0,0,0,0,0,-1,825,1058,0,0
-392,-34,0,0,0,0,0,0,0,0,0,-1,832,1058,0,0
-385,-34,0,0,0,0,0,0,0,0,0,-1,839,1058,0,0
-378,-34,0,0,0,0,0,0,0,0,0,-1,846,1058,0,0
-371,-34,0,0,0,0,0,0,0,0,0,-1,853,1058,0,0
-364,-34,0,0,0,0,0,0,0,0,0,-1,860,1058,0,0
-357,-34,0,0,0,0,0,0,0,0,0,-1,867,1058,0,0
-350,-34,0,0,0,0,0,0,0,0,0,-1,874,1058,0,0
-343,-34,0,0,0,0,0,0,0,0,0,-1,881,1058,0,0
-336,-34,0,0,0,0,0,0,0,0,0,-1,888,1058,0,0
-329,-34,0,0,0,0,0,0,0,0,0,-1,895,1058,0,0
-322,-34,0,0,0,0,0,0,0,0,0,-1,902,1058,0,0
-315,-34,0,0,0,0,0,0,0,0,0,-1,909,1058,0,0
-308,-34,0,0,0,0,0,0,0,0,0,-1,916,1058,0,0
-301,-34,0,0,0,0,0,0,0,0,0,-1,923,1058,0,0
-294,-34,0,0,0,0,0,0,0,0,0,-1,930,1058,0,0
-287,-34,0,0,0,0,0,0,0,0,0,-1,937,1058,0,0
-280,-34,0,0,0,0,0,0,0,0,0,-1,944,1058,0,0
-273,-34,0,0,0,0,0,0,0,0,0,-1,951,1058,0,0
-266,-34,0,0,0,0,0,0,0,0,0,-1,958,1058,0,0
-259,-34,0,0,0,0,0,0,0,0,0,-1,965,1058,0,0
-252,-34,0,0,0,0,0,0,0,0,0,-1,972,1058,0,0
-245,-34,0,0,0,0,0,0,0,0,0,-1,979,1058,0,0
-238,-34,0,0,0,0,0,0,0,0,0,-1,986,1058,0,0
-231,-34,0,0,0,0,0,0,0,0,0,-1,993,1058,0,0
-224,-34,0,0,0,0,0,0,0,0,0,-1,1000,1058,0,0
-217,-34,0,0,0,0,0,0,0,0,0,-1,1007,1058,0,0
-210,-34,0,0,0,0,0,0,0,0,0,-1,1014,1058,0,0
-203,-34,0,0,0,0,0,0,0,0,0,-1,1021,1058,0,0
-196,-34,0,0,0,0,0,0,0,0,0,-1,1028,1058,0,0
-189,-34,0,0,0,0,0,0,0,0,0,-1,1035,1058,0,0
-182,-34,0,0,0,0,0,0,0,0,0,-1,1042,1058,0,0
-175,-34,0,0,0,0,0,0,0,0,0,-1,1049,1058,0,0
-168,-34,0,0,0,0,0,0,0,0,0,-1,1056,1058,0,0
-161,-34,0,0,0,0,0,0,0,0,0,-1,1063,1058,0,0
-154,-34,0,0,0,0,0,0,0,0,0,-1,1070,1058,0,0
-147,-34,0,0,0,0,0,0,0,0,0,-1,1077,1058,0,0
-140,-34,0,0,0,0,0,0,0,0,0,-1,1084,1058,0,0
-133,-34,0,0,0,0,0,0,0,0,0,-1,1091,1058,0,0
-126,-34,0,0,0,0,0,0,0,0,0,-1,1098,1058,0,0
-119,-34,0,0,0,0,0,0,0,0,0,-1,1105,1058,0,0
-112,-34,0,0,0,0,0,0,0,0,0,-1,1112,1058,0,0
-105,-34,0,0,0,0,0,0,0,0,0,-1,1119,1058,0,0
-98,-34,0,0,0,0,0,0,0,0,0,-1,1126,1058,0,0
-91,-34,0,0,0,0,0,0,0,0,0,-1,1133,1058,0,0
-84,-34,0,0,0,0,0,0,0,0,0,-1,1140,1058,0,0
-77,-34,0,0,0,0,0,0,0,0,0,-1,1147,1058,0,0
-70,-34,0,0,0,0,0,0,0,0,0,-1,1154,1058,0,0
-63,-34,0,0,0,0,0,0,0,0,0,-1,1161,1058,0,0
-56,-34,0,0,0,0,0,0,0,0,0,-1,1168,1058,0,0
-49,-34,0,0,0,0,0,0,0,0,0,-1,1175,1058,0,0
-42,-34,0,0,0,0,0,0,0,0,0,-1,1182,1058,0,0
-35,-34,0,0,0,0,0,0,0,0,0,-1,1189,1058,0,0
-28,-34,0,0,0,0,0,0,0,0,0,-1,1196,1058,0,0
-21,-34,0,0,0,0,0,0,0,0,0,-1,1203,1058,0,0
-14,-34,0,0,0,0,0,0,0,0,0,-1,1210,1058,0,0
-7,-34,0,0,0,0,0,0,0,0,0,-1,1217,1058,0,0
0,-34,0,0,0,0,0,0,0,0,0,-1,1224,1058,0,0
7,-34,0,0,0,0,0,0,0,0,0,-1,1231,1058,0,0
14,-34,0,0,0,0,0,0,0,0,0,-1,1238,1058,0,0
21,-34,0,0,0,0,0,0,0,0,0,-1,1245,1058,0,0
28,-34,0,0,0,0,0,0,0,0,0,-1,1252,1058,0,0
35,-34,0,0,0,0,0,0,0,0,0,-1,1259,1058,0,0
42,-34,0,0,0,0,0,0,0,0,0,-1,1266,1058,0,0
49,-34,0,0,0,0,0,0,0,0,0,-1,1273,1058,0,0
56,-34,0,0,0,0,0,0,0,0,0,-1,1280,1058,0,0
63,-34,0,0,0,0,0,0,0,0,0,-1,1287,1058,0,0
70,-34,0,0,0,0,0,0,0,0,0,-1,1294,1058,0,0
77,-34,0,0,0,0,0,0,0,0,0,-1,1301,1058,0,0
84,-34,0,0,0,0,0,0,0,0,0,-1,1308,1058,0,0
91,-34,0,0,0,0,0,0,0,0,0,-1,1315,1058,0,0
98,-34,0,0,0,0,0,0,0,0,0,-1,1322,1058,0,0
105,-34,0,0,0,0,0,0,0,0,0,-1,1329,1058,0,0
112,-34,0,0,0,0,0,0,0,0,0,-1,1336,1058,0,0
119,-34,0,0,0,0,0,0,0,0,0,-1,1343,1058,0,0
126,-34,0,0,0,0,0,0,0,0,0,-1,1350,1058,0,0
133,-34,0,0,0,0,0,0,0,0,0,-1,1357,1058,0,0
140,-34,0,0,0,0,0,0,0,0,0,-1,1364,1058,0,0
147,-34,0,0,0,0,0,0,0,0,0,-1,1371,1058,0,0
154,-34,0,0,0,0,0,0,0,0,0,-1,1378,1058,0,0
161,-34,0,0,0,0,0,0,0,0,0,-1,1385,1058,0,0
168,-34,0,0,0,0,0,0,0,0,0,-1,1392,1058,0,0
175,-34,0,0,0,0,0,0,0,0,0,-1,1399,1058,0,0
182,-34,0,0,0,0,0,0,0,0,0,-1,1406,1058,0,0
189,-34,0,0,0,0,0,0,0,0,0,-1,1413,1058,0,0
196,-34,0,0,0,0,0,0,0,0,0,-1,1420,1058,0,0
203,-34,0,0,0,0,0,0,0,0,0,-1,1427,1058,0,0
210,-34,0,0,0,0,0,0,0,0,0,-1,1434,1058,0,0
217,-34,0,0,0,0,0,0,0,0,0,-1,1441,1058,0,0
224,-34,0,0,0,0,0,0,0,0,0,-1,1448,1058,0,0
231,-34,0,0,0,0,0,0,0,0,0,-1,1455,1058,0,0
238,-34,0,0,0,0,0,0,0,0,0,-1,1462,1058,0,0
245,-34,0,0,0,0,0,0,0,0,0,-1,1469,1058,0,0
252,-34,0,0,0,0,0,0,0,0,0,-1,1476,1058,0,0
259,-34,0,0,0,0,0,0,0,0,0,-1,1483,1058,0,0
266,-34,0,0,0,0,0,0,0,0,0,-1,1490,1058,0,0
273,-34,0,0,0,0,0,0,0,0,0,-1,1497,1058,0,0
280,-34,0,0,0,0,0,0,0,0,0,-1,1504,1058,0,0
287,-34,0,0,0,0,0,0,0,0,0,-1,1511,1058,0,0
294,-34,0,0,0,0,0,0,0,0,0,-1,1518,1058,0,0
301,-34,0,0,0,0,0,0,0,0,0,-1,1525,1058,0,0
308,-34,0,0,0,0,0,0,0,0,0,-1,1532,1058,0,0
315,-34,0,0,0,0,0,0,0,0,0,-1,1539,1058,0,0
322,-34,0,0,0,0,0,0,0,0,0,-1,1546,1058,0,0
329,-34,0,0,0,0,0,0,0,0,0,-1,1553,1058,0,0
336,-34,0,0,0,0,0,0,0,0,0,-1,1560,1058,0,0
343,-34,0,0,0,0,0,0,0,0,0,-1,1567,1058,0,0
350,-34,0,0,0,0,0,0,0,0,0,-1,1574,1058,0,0
357,-34,0,0,0,0,0,0,0,0,0,-1,1581,1058,0,0
364,-34,0,0,0,0,0,0,0,0,0,-1,1588,1058,0,0
371,-34,0,0,0,0,0,0,0,0,0,-1,1595,1058,0,0
378,-34,0,0,0,0,0,0,0,0,0,-1,1602,1058,0,0
385,-34,0,0,0,0,0,0,0,0,0,-1,1609,1058,0,0
392,-34,0,0,0,0,0,0,0,0,0,-1,1616,1058,0,0
399,-34,0,0,0,0,0,0,0,0,0,-1,1623,1058,0,0
406,-34,0,0,0,0,0,0,0,0,0,-1,1630,1058,0,0
413,-34,0,0,0,0,0,0,0,0,0,-1,1637,1058,0,0
420,-34,0,0,0,0,0,0,0,0,0,-1,1644,1058,0,0
427,-34,0,0,0,0,0,0,0,0,0,-1,1651,1058,0,0
434,-34,0,0,0,0,0,0,0,0,0,-1,1658,1058,0,0
441,-34,0,0,0,0,0,0,0,0,0,-1,1665,1058,0,0
448,-34,0,0,0,0,0,0,0,0,0,-1,1672,1058,0,0
455,-34,0,0,0,0,0,0,0,0,0,-1,1679,1058,0,0
462,-34,0,0,0,0,0,0,0,0,0,-1,1686,1058,0,0
469,-34,0,0,0,0,0,0,0,0,0,-1,1693,1058,0,0
476,-34,0,0,0,0,0,0,0,0,0,-1,1700,1058,0,0
483,-34,0,0,0,0,0,0,0,0,0,-1,1707,1058,0,0
490,-34,0,0,0,0,0,0,0,0,0,-1,1714,1058,0,0
497,-34,0,0,0,0,0,0,0,0,0,-1,1721,1058,0,0
504,-34,0,0,0,0,0,0,0,0,0,-1,1728,1058,0,0
511,-34,0,0,0,0,0,0,0,0,0,-1,1735,1058,0,0
518,-34,0,0,0,0,0,0,0,0,0,-1,1742,1058,0,0
525,-34,0,0,0,0,0,0,0,0,0,-1,1749,1058,0,0
532,-34,0,0,0,0,0,0,0,0,0,-1,1756,1058,0,0
539,-34,0,0,0,0,0,0,0,0,0,-1,1763,1058,0,0
546,-34,0,0,0,0,0,0,0,0,0,-1,1770,1058,0,0
553,-34,0,0,0,0,0,0,0,0,0,-1,1777,1058,0,0
560,-34,0,0,0,0,0,0,0,0,0,-1,1784,1058,0,0
567,-34,0,0,0,0,0,0,0,0,0,-1,1791,1058,0,0
574,-34,0,0,0,0,0,0,0,0,0,-1,1798,1058,0,0
581,-34,0,0,0,0,0,0,0,0,0,-1,1805,1058,0,0
588,-34,0,0,0,0,0,0,0,0,0,-1,1812,1058,0,0
595,-34,0,0,0,0,0,0,0,0,0,-1,1819,1058,0,0
602,-34,0,0,0,0,0,0,0,0,0,-1,1826,1058,0,0
609,-34,0,0,0,0,0,0,0,0,0,-1,1833,1058,0,0
616,-34,0,0,0,0,0,0,0,0,0,-1,1840,1058,0,0
623,-34,0,0,0,0,0,0,0,0,0,-1,1847,1058,0,0
630,-34,0,0,0,0,0,0,0,0,0,-1,1854,1058,0,0
637,-34,0,0,0,0,0,0,0,0,0,-1,1861,1058,0,0
644,-34,0,0,0,0,0,0,0,0,0,-1,1868,1058,0,0
651,-34,55.1393,2.61841,0.00109336,0.000731522,-0.00164358,0.00256595,-0.000741067,-0.73058,0.00200387,0.03856,1875,1058,55.1393,-2.61844
658,-34,55.2886,2.41699,-0.000276599,0.00045638,-0.000430345,0.000655144,-0.000475362,-1.13811,0.000655443,0.0380655,1882,1058,55.2886,-2.41704
665,-34,55.3768,2.42078,-0.000994528,0.000261688,0.00032373,0.000340206,-0.00107305,1.33285,0.000851724,0.0409622,1889,1058,55.3768,-2.42075
672,-34,55.3558,2.42737,-0.00129215,0.000194754,0.00101084,0.000706098,-0.00180349,1.10247,0.00149437,0.0375556,1896,1058,55.3559,-2.42732
679,-34,55.4615,2.04016,0,0,0,0,0,0,0,-1,1903,1058,55.4615,-2.04019
686,-34,55.3621,2.69409,-0.0013891,7.45445e-05,0.00225375,0.00171231,-0.00302687,0.942385,0.00277103,0.046434,1910,1058,55.362,-2.69414
693,-34,55.2839,2.86914,-0.00138033,-0.00011076,0.00272737,0.00205473,-0.00354581,0.899735,0.00327145,0.0449794,1917,1058,55.2839,-2.86912
700,-34,55.1349,2.60168,-0.00127516,-0.000215809,0.00310562,0.00240498,-0.00389595,0.869862,0.00367164,0.0384403,1924,1058,55.1349,-2.6017
707,-34,55.1099,2.60547,-0.00156931,-0.000131212,0.0034101,0.00263482,-0.00433534,0.889305,0.00406395,0.0248598,1931,1058,55.1099,-2.60545
714,-34,55.1373,2.72449,-0.00201429,0.000179276,0.00356479,0.00281219,-0.0046472,0.934638,0.0043499,0.0213596,1938,1058,55.1373,-2.72448
721,-34,55.2236,3.16174,-0.00266922,0.000677899,0.00358272,0.00295866,-0.00494998,1.0039,0.00461405,0.0487808,1945,1058,55.2236,-3.16178
728,-34,54.6555,6.67261,0,0,0,0,0,0,0,-1,1952,1058,54.6555,-6.67265
735,-34,54.5089,6.51636,-0.0040779,0.00277637,0.00324151,0.00406651,-0.00536803,1.19201,0.00546429,0.0225186,1959,1058,54.5089,-6.51632
742,-34,54.4625,6.31763,-0.0043617,0.00402053,0.00250928,0.00471428,-0.00505546,1.30106,0.00564171,0.0169787,1966,1058,54.4625,-6.3176
749,-34,54.5056,6.15503,-0.00457772,0.00574233,0.00191323,0.00608561,-0.004921,1.39326,0.00636651,0.0149617,1973,1058,54.5056,-6.15502
756,-34,54.5157,5.96387,-0.00493617,0.00815946,0.00157582,0.00834641,-0.00512312,1.45271,0.00785051,0.0117267,1980,1058,54.5158,-5.96387
763,-34,54.4243,5.7666,-0.00509564,0.0106457,0.000718699,0.0106784,-0.00512839,1.52527,0.00931168,0.0120525,1987,1058,54.4243,-5.76658
770,-34,54.3088,5.57568,-0.00461969,0.0140846,-0.000467636,0.0140963,-0.00463138,-1.54582,0.0112633,0.0171352,1994,1058,54.3088,-5.57572
777,-34,54.175,5.48633,-0.00320686,0.0183368,-0.00160448,0.0184557,-0.0033257,-1.49686,0.0135491,0.0201446,2001,1058,54.1751,-5.48636
784,-34,54.063,5.36707,-0.00122752,0.0226475,-0.00240334,0.022887,-0.00146705,-1.47146,0.0157698,0.0378523,2008,1058,54.063,-5.3671
791,-34,53.8403,5.10046,0.00123431,0.026811,-0.00297068,0.0271515,0.00089381,-1.45667,0.0178105,0.0495823,2015,1058,53.8403,-5.1005
798,-34,54.7166,3.04578,0.0044076,0.0306282,-0.00319755,0.0310125,0.0040233,-1.45118,0.0194729,0.0473125,2022,1058,54.7166,-3.04572
805,-34,54.7893,2.7655,0.00848414,0.0338366,-0.00287942,0.0341595,0.00816122,-1.45912,0.0205988,0.0457731,2029,1058,54.7893,-2.76555
812,-34,54.7278,2.62939,0,0,0,0,0,0,0,-1,2036,1058,54.7278,-2.62944
-700,-41,-39.8535,0.955078,-0.041359,0.0635019,-0.0321092,0.0725528,-0.0504099,-1.29605,0.0713752,0.0459341,524,1065,-39.8535,-0.955134
-693,-41,-39.9471,0.746948,-0.0385228,0.0554868,-0.0233783,0.0609795,-0.0440156,-1.34003,0.0608821,0.0437133,531,1065,-39.9471,-0.747007
-686,-41,-40.2915,0.472656,-0.0339563,0.048305,-0.0166481,0.0515465,-0.0371978,-1.37849,0.0514593,0.0457968,538,1065,-40.2915,-0.472653
-679,-41,-40.5878,0.152954,0,0,0,0,0,0,0,-1,545,1065,-40.5878,-0.152936
-672,-41,-40.8477,-0.159546,0,0,0,0,0,0,0,-1,552,1065,-40.8477,0.159577
-665,-41,-41.0353,-0.111694,0,0,0,0,0,0,0,-1,559,1065,-41.0353,0.111667
-658,-41,-40.3907,1.90759,0,0,0,0,0,0,0,-1,566,1065,-40.3907,-1.90754
-651,-41,-40.4971,2.04773,-0.0122695,0.0210296,-0.00103484,0.0210618,-0.0123016,-1.53976,0.0194825,0.0320312,573,1065,-40.4971,-2.04774
-644,-41,-40.7774,2.42517,-0.00929858,0.0166031,-0.000114844,0.0166037,-0.00929909,-1.56636,0.0151519,0.0173196,580,1065,-40.7774,-2.42521
-637,-41,-40.8254,2.6864,-0.00625969,0.0120758,0.000558353,0.0120928,-0.00627667,1.54038,0.0107813,0.0184724,587,1065,-40.8254,-2.68645
-630,-41,-40.8245,2.99548,-0.00355392,0.00839273,0.000297062,0.00840011,-0.00356131,1.54595,0.00709179,0.0153848,594,1065,-40.8245,-2.99549
-623,-41,-40.7845,3.27673,-0.00229198,0.00567929,-0.000466947,0.00570655,-0.00231924,-1.51248,0.00476928,0.0121716,601,1065,-40.7845,-3.27669
-616,-41,-40.761,3.59741,-0.00145295,0.00352465,-0.0011208,0.00376538,-0.00169368,-1.35923,0.00322655,0.0167762,608,1065,-40.761,-3.59743
-609,-41,-40.7474,3.85718,-0.000613299,0.00183343,-0.00156528,0.0025967,-0.00137657,-1.1171,0.00232974,0.0226757,615,1065,-40.7474,-3.85722
-602,-41,-40.8086,4.06067,-0.000159713,0.000245134,-0.00172806,0.00178259,-0.00169717,-0.843702,0.00200924,0.0135044,622,1065,-40.8086,-4.06073
-595,-41,-40.9557,4.24573,0.000178268,-0.00100255,-0.00183065,0.00151136,-0.00233564,-0.629407,0.002238,0.0226429,629,1065,-40.9557,-4.24575
-588,-41,-41.2156,2.32654,0,0,0,0,0,0,0,-1,636,1065,-41.2156,-2.32659
-581,-41,-41.3197,0.746948,0.000734466,-0.00245054,-0.000899824,0.000971102,-0.00268718,-0.257157,0.0021882,0.0354763,643,1065,-41.3197,-0.746952
-574,-41,-41.3361,0.831299,0.000921151,-0.00286906,-0.000371008,0.000957126,-0.00290503,-0.0966632,0.00232243,0.0368599,650,1065,-41.3361,-0.831245
-567,-41,-41.4067,0.993408,0.000938522,-0.00305933,0.000255893,0.000954835,-0.00307564,0.0636614,0.00243201,0.0411024,657,1065,-41.4068,-0.993376
-560,-41,-41.4175,0.844238,0.000852678,-0.00305984,0.000991589,0.00108964,-0.00329679,0.234569,0.00263721,0.0410282,664,1065,-41.4176,-0.844232
-553,-41,-41.4196,0.649536,0.00072884,-0.00297957,0.00183985,0.00148675,-0.00373748,0.390756,0.00310811,0.0414065,671,1065,-41.4196,-0.64949
-546,-41,-41.4029,0.628662,0.000575416,-0.00298672,0.00280362,0.00211587,-0.00452717,0.502422,0.00391868,0.0387952,678,1065,-41.4029,-0.628712
-539,-41,-41.2975,0.669922,0.000305879,-0.00322431,0.00354181,0.00249805,-0.00541648,0.554231,0.00467186,0.0387827,685,1065,-41.2975,-0.669918
-532,-41,-41.2455,0.708252,-0.000286345,-0.00309953,0.00481317,0.00332156,-0.00670743,0.643238,0.00589921,0.0388621,692,1065,-41.2455,-0.708224
-525,-41,0,0,0,0,0,0,0,0,0,-1,699,1065,0,0
-518,-41,0,0,0,0,0,0,0,0,0,-1,706,1065,0,0
-511,-41,0,0,0,0,0,0,0,0,0,-1,713,1065,0,0
-504,-41,0,0,0,0,0,0,0,0,0,-1,720,1065,0,0
-497,-41,0,0,0,0,0,0,0,0,0,-1,727,1065,0,0
-490,-41,0,0,0,0,0,0,0,0,0,-1,734,1065,0,0
-483,-41,0,0,0,0,0,0,0,0,0,-1,741,1065,0,0
-476,-41,0,0,0,0,0,0,0,0,0,-1,748,1065,0,0
-469,-41,0,0,0,0,0,0,0,0,0,-1,755,1065,0,0
-462,-41,0,0,0,0,0,0,0,0,0,-1,762,1065,0,0
-455,-41,0,0,0,0,0,0,0,0,0,-1,769,1065,0,0
-448,-41,0,0,0,0,0,0,0,0,0,-1,776,1065,0,0
-441,-41,0,0,0,0,0,0,0,0,0,-1,783,1065,0,0
-434,-41,0,0,0,0,0,0,0,0,0,-1,790,1065,0,0
-427,-41,0,0,0,0,0,0,0,0,0,-1,797,1065,0,0
-420,-41,0,0,0,0,0,0,0,0,0,-1,804,1065,0,0
-413,-41,0,0,0,0,0,0,0,0,0,-1,811,1065,0,0
-406,-41,0,0,0,0,0,0,0,0,0,-1,818,1065,0,0
-399,-41,0,0,0,0,0,0,0,0,0,-1,825,1065,0,0
-392,-41,0,0,0,0,0,0,0,0,0,-1,832,1065,0,0
-385,-41,0,0,0,0,0,0,0,0,0,-1,839,1065,0,0
-378,-41,0,0,0,0,0,0,0,0,0,-1,846,1065,0,0
-371,-41,0,0,0,0,0,0,0,0,0,-1,853,1065,0,0
-364,-41,0,0,0,0,0,0,0,0,0,-1,860,1065,0,0
-357,-41,0,0,0,0,0,0,0,0,0,-1,867,1065,0,0
-350,-41,0,0,0,0,0,0,0,0,0,-1,874,1065,0,0
-343,-41,0,0,0,0,0,0,0,0,0,-1,881,1065,0,0
-336,-41,0,0,0,0,0,0,0,0,0,-1,888,1065,0,0
-329,-41,0,0,0,0,0,0,0,0,0,-1,895,1065,0,0
-322,-41,0,0,0,0,0,0,0,0,0,-1,902,1065,0,0
-315,-41,0,0,0,0,0,0,0,0,0,-1,909,1065,0,0
-308,-41,0,0,0,0,0,0,0,0,0,-1,916,1065,0,0
-301,-41,0,0,0,0,0,0,0,0,0,-1,923,1065,0,0
-294,-41,0,0,0,0,0,0,0,0,0,-1,930,1065,0,0
-287,-41,0,0,0,0,0,0,0,0,0,-1,937,1065,0,0
-280,-41,0,0,0,0,0,0,0,0,0,-1,944,1065,0,0
-273,-41,0,0,0,0,0,0,0,0,0,-1,951,1065,0,0
-266,-41,0,0,0,0,0,0,0,0,0,-1,958,1065,0,0
-259,-41,0,0,0,0,0,0,0,0,0,-1,965,1065,0,0
-252,-41,0,0,0,0,0,0,0,0,0,-1,972,1065,0,0
-245,-41,0,0,0,0,0,0,0,0,0,-1,979,1065,0,0
-238,-41,0,0,0,0,0,0,0,0,0,-1,986,1065,0,0
-231,-41,0,0,0,0,0,0,0,0,0,-1,993,1065,0,0
-224,-41,0,0,0,0,0,0,0,0,0,-1,1000,1065,0,0
-217,-41,0,0,0,0,0,0,0,0,0,-1,1007,1065,0,0
-210,-41,0,0,0,0,0,0,0,0,0,-1,1014,1065,0,0
-203,-41,0,0,0,0,0,0,0,0,0,-1,1021,1065,0,0
-196,-41,0,0,0,0,0,0,0,0,0,-1,1028,1065,0,0
-189,-41,0,0,0,0,0,0,0,0,0,-1,1035,1065,0,0
-182,-41,0,0,0,0,0,0,0,0,0,-1,1042,1065,0,0
-175,-41,0,0,0,0,0,0,0,0,0,-1,1049,1065,0,0
-168,-41,0,0,0,0,0,0,0,0,0,-1,1056,1065,0,0
-161,-41,0,0,0,0,0,0,0,0,0,-1,1063,1065,0,0
-154,-41,0,0,0,0,0,0,0,0,0,-1,1070,1065,0,0
-147,-41,0,0,0,0,0,0,0,0,0,-1,1077,1065,0,0
-140,-41,0,0,0,0,0,0,0,0,0,-1,1084,1065,0,0
-133,-41,0,0,0,0,0,0,0,0,0,-1,1091,1065,0,0
-126,-41,0,0,0,0,0,0,0,0,0,-1,1098,1065,0,0
-119,-41,0,0,0,0,0,0,0,0,0,-1,1105,1065,0,0
-112,-41,0,0,0,0,0,0,0,0,0,-1,1112,1065,0,0
-105,-41,0,0,0,0,0,0,0,0,0,-1,1119,1065,0,0
-98,-41,0,0,0,0,0,0,0,0,0,-1,1126,1065,0,0
-91,-41,0,0,0,0,0,0,0,0,0,-1,1133,1065,0,0
-84,-41,0,0,0,0,0,0,0,0,0,-1,1140,1065,0,0
-77,-41,0,0,0,0,0,0,0,0,0,-1,1147,1065,0,0
-70,-41,0,0,0,0,0,0,0,0,0,-1,1154,1065,0,0
-63,-41,0,0,0,0,0,0,0,0,0,-1,1161,1065,0,0
-56,-41,0,0,0,0,0,0,0,0,0,-1,1168,1065,0,0
-49,-41,0,0,0,0,0,0,0,0,0,-1,1175,1065,0,0
-42,-41,0,0,0,0,0,0,0,0,0,-1,1182,1065,0,0
-35,-41,0,0,0,0,0,0,0,0,0,-1,1189,1065,0,0
-28,-41,0,0,0,0,0,0,0,0,0,-1,1196,1065,0,0
-21,-41,0,0,0,0,0,0,0,0,0,-1,1203,1065,0,0
-14,-41,0,0,0,0,0,0,0,0,0,-1,1210,1065,0,0
-7,-41,0,0,0,0,0,0,0,0,0,-1,1217,1065,0,0
0,-41,0,0,0,0,0,0,0,0,0,-1,1224,1065,0,0
7,-41,0,0,0,0,0,0,0,0,0,-1,1231,1065,0,0
14,-41,0,0,0,0,0,0,0,0,0,-1,1238,1065,0,0
21,-41,0,0,0,0,0,0,0,0,0,-1,1245,1065,0,0
28,-41,0,0,0,0,0,0,0,0,0,-1,1252,1065,0,0
35,-41,0,0,0,0,0,0,0,0,0,-1,1259,1065,0,0
42,-41,0,0,0,0,0,0,0,0,0,-1,1266,1065,0,0
49,-41,0,0,0,0,0,0,0,0,0,-1,1273,1065,0,0
56,-41,0,0,0,0,0,0,0,0,0,-1,1280,1065,0,0
63,-41,0,0,0,0,0,0,0,0,0,-1,1287,1065,0,0
70,-41,0,0,0,0,0,0,0,0,0,-1,1294,1065,0,0
77,-41,0,0,0,0,0,0,0,0,0,-1,1301,1065,0,0
84,-41,0,0,0,0,0,0,0,0,0,-1,1308,1065,0,0
91,-41,0,0,0,0,0,0,0,0,0,-1,1315,1065,0,0
98,-41,0,0,0,0,0,0,0,0,0,-1,1322,1065,0,0
105,-41,0,0,0,0,0,0,0,0,0,-1,1329,1065,0,0
112,-41,0,0,0,0,0,0,0,0,0,-1,1336,1065,0,0
119,-41,0,0,0,0,0,0,0,0,0,-1,1343,1065,0,0
126,-41,0,0,0,0,0,0,0,0,0,-1,1350,1065,0,0
133,-41,0,0,0,0,0,0,0,0,0,-1,1357,1065,0,0
140,-41,0,0,0,0,0,0,0,0,0,-1,1364,1065,0,0
147,-41,0,0,0,0,0,0,0,0,0,-1,1371,1065,0,0
154,-41,0,0,0,0,0,0,0,0,0,-1,1378,1065,0,0
161,-41,0,0,0,0,0,0,0,0,0,-1,1385,1065,0,0
168,-41,0,0,0,0,0,0,0,0,0,-1,1392,1065,0,0
175,-41,0,0,0,0,0,0,0,0,0,-1,1399,1065,0,0
182,-41,0,0,0,0,0,0,0,0,0,-1,1406,1065,0,0
189,-41,0,0,0,0,0,0,0,0,0,-1,1413,1065,0,0
196,-41,0,0,0,0,0,0,0,0,0,-1,1420,1065,0,0
203,-41,0,0,0,0,0,0,0,0,0,-1,1427,1065,0,0
210,-41,0,0,0,0,0,0,0,0,0,-1,1434,1065,0,0
217,-41,0,0,0,0,0,0,0,0,0,-1,1441,1065,0,0
224,-41,0,0,0,0,0,0,0,0,0,-1,1448,1065,0,0
231,-41,0,0,0,0,0,0,0,0,0,-1,1455,1065,0,0
238,-41,0,0,0,0,0,0,0,0,0,-1,1462,1065,0,0
245,-41,0,0,0,0,0,0,0,0,0,-1,1469,1065,0,0
252,-41,0,0,0,0,0,0,0,0,0,-1,1476,1065,0,0
259,-41,0,0,0,0,0,0,0,0,0,-1,1483,1065,0,0
266,-41,0,0,0,0,0,0,0,0,0,-1,1490,1065,0,0
273,-41,0,0,0,0,0,0,0,0,0,-1,1497,1065,0,0
280,-41,0,0,0,0,0,0,0,0,0,-1,1504,1065,0,0
287,-41,0,0,0,0,0,0,0,0,0,-1,1511,1065,0,0
294,-41,0,0,0,0,0,0,0,0,0,-1,1518,1065,0,0
301,-41,0,0,0,0,0,0,0,0,0,-1,1525,1065,0,0
308,-41,0,0,0,0,0,0,0,0,0,-1,1532,1065,0,0
315,-41,0,0,0,0,0,0,0,0,0,-1,1539,1065,0,0
322,-41,0,0,0,0,0,0,0,0,0,-1,1546,1065,0,0
329,-41,0,0,0,0,0,0,0,0,0,-1,1553,1065,0,0
336,-41,0,0,0,0,0,0,0,0,0,-1,1560,1065,0,0
343,-41,0,0,0,0,0,0,0,0,0,-1,1567,1065,0,0
350,-41,0,0,0,0,0,0,0,0,0,-1,1574,1065,0,0
357,-41,0,0,0,0,0,0,0,0,0,-1,1581,1065,0,0
364,-41,0,0,0,0,0,0,0,0,0,-1,1588,1065,0,0
371,-41,0,0,0,0,0,0,0,0,0,-1,1595,1065,0,0
378,-41,0,0,0,0,0,0,0,0,0,-1,1602,1065,0,0
385,-41,0,0,0,0,0,0,0,0,0,-1,1609,1065,0,0
392,-41,0,0,0,0,0,0,0,0,0,-1,1616,1065,0,0
399,-41,0,0,0,0,0,0,0,0,0,-1,1623,1065,0,0
406,-41,0,0,0,0,0,0,0,0,0,-1,1630,1065,0,0
413,-41,0,0,0,0,0,0,0,0,0,-1,1637,1065,0,0
420,-41,0,0,0,0,0,0,0,0,0,-1,1644,1065,0,0
427,-41,0,0,0,0,0,0,0,0,0,-1,1651,1065,0,0
434,-41,0,0,0,0,0,0,0,0,0,-1,1658,1065,0,0
441,-41,0,0,0,0,0,0,0,0,0,-1,1665,1065,0,0
448,-41,0,0,0,0,0,0,0,0,0,-1,1672,1065,0,0
455,-41,0,0,0,0,0,0,0,0,0,-1,1679,1065,0,0
462,-41,0,0,0,0,0,0,0,0,0,-1,1686,1065,0,0
469,-41,0,0,0,0,0,0,0,0,0,-1,1693,1065,0,0
476,-41,0,0,0,0,0,0,0,0,0,-1,1700,1065,0,0
483,-41,0,0,0,0,0,0,0,0,0,-1,1707,1065,0,0
490,-41,0,0,0,0,0,0,0,0,0,-1,1714,1065,0,0
497,-41,0,0,0,0,0,0,0,0,0,-1,1721,1065,0,0
504,-41,0,0,0,0,0,0,0,0,0,-1,1728,1065,0,0
511,-41,0,0,0,0,0,0,0,0,0,-1,1735,1065,0,0
518,-41,0,0,0,0,0,0,0,0,0,-1,1742,1065,0,0
525,-41,0,0,0,0,0,0,0,0,0,-1,1749,1065,0,0
532,-41,0,0,0,0,0,0,0,0,0,-1,1756,1065,0,0
539,-41,0,0,0,0,0,0,0,0,0,-1,1763,1065,0,0
546,-41,0,0,0,0,0,0,0,0,0,-1,1770,1065,0,0
553,-41,0,0,0,0,0,0,0,0,0,-1,1777,1065,0,0
560,-41,0,0,0,0,0,0,0,0,0,-1,1784,1065,0,0
567,-41,0,0,0,0,0,0,0,0,0,-1,1791,1065,0,0
574,-41,0,0,0,0,0,0,0,0,0,-1,1798,1065,0,0
581,-41,0,0,0,0,0,0,0,0,0,-1,1805,1065,0,0
588,-41,0,0,0,0,0,0,0,0,0,-1,1812,1065,0,0
595,-41,0,0,0,0,0,0,0,0,0,-1,1819,1065,0,0
602,-41,0,0,0,0,0,0,0,0,0,-1,1826,1065,0,0
609,-41,0,0,0,0,0,0,0,0,0,-1,1833,1065,0,0
616,-41,0,0,0,0,0,0,0,0,0,-1,1840,1065,0,0
623,-41,0,0,0,0,0,0,0,0,0,-1,1847,1065,0,0
630,-41,0,0,0,0,0,0,0,0,0,-1,1854,1065,0,0
637,-41,0,0,0,0,0,0,0,0,0,-1,1861,1065,0,0
644,-41,0,0,0,0,0,0,0,0,0,-1,1868,1065,0,0
651,-41,55.1852,2.58752,0.00115727,-0.000641729,-0.00169277,0.00217469,-0.00165914,-0.541181,0.00222012,0.0337398,1875,1065,55.1852,-2.58747
658,-41,55.3422,2.35742,-8.48279e-05,-0.000728402,-0.000452916,0.000148975,-0.000962204,-0.476536,0.000696459,0.0377215,1882,1065,55.3422,-2.35744
665,-41,55.4158,2.40076,-0.000741687,-0.000719853,0.000309375,-0.000421202,-0.00104034,0.803035,0.000604252,0.0405075,1889,1065,55.4157,-2.4008
672,-41,55.4144,2.43445,-0.00101313,-0.000593765,0.000974711,0.000193562,-0.00180046,0.891345,0.00126975,0.0406783,1896,1065,55.4144,-2.43446
679,-41,55.2466,2.32947,-0.00102502,-0.000386067,0.00160622,0.000932143,-0.00234323,0.883566,0.00194865,0.0412725,1903,1065,55.2465,-2.32951
686,-41,55.2382,2.51282,-0.00108117,-0.000373772,0.00215574,0.00145709,-0.00291203,0.86671,0.00256871,0.0426743,1910,1065,55.2381,-2.51285
693,-41,55.1667,2.70703,-0.00101452,-0.000437921,0.00260274,0.00189244,-0.00334488,0.840557,0.00306228,0.044146,1917,1065,55.1667,-2.70709
700,-41,55.1873,2.66736,-0.00086055,-0.000437592,0.00296805,0.0023265,-0.00362465,0.820964,0.00346304,0.0379252,1924,1065,55.1872,-2.66741
707,-41,55.1635,2.58484,-0.00112663,-0.000308732,0.00329248,0.0026001,-0.00403546,0.847185,0.0038608,0.0276919,1931,1065,55.1635,-2.58486
714,-41,55.1641,2.65381,-0.00153373,1.95348e-05,0.00349151,0.00281975,-0.00433394,0.894833,0.00416091,0.0250387,1938,1065,55.164,-2.65379
721,-41,55.3113,3.18323,0,0,0,0,0,0,0,-1,1945,1065,55.3113,-3.18327
728,-41,54.4104,6.75012,0,0,0,0,0,0,0,-1,1952,1065,54.4103,-6.75012
735,-41,54.2832,6.53784,-0.00334677,0.0024432,0.00331387,0.00394852,-0.00485209,1.14442,0.00508995,0.0204328,1959,1065,54.2833,-6.53782
742,-41,54.2191,6.31299,-0.00360006,0.00366601,0.00266364,0.00453786,-0.00447191,1.25447,0.00520183,0.0164544,1966,1065,54.2191,-6.31294
749,-41,54.2372,6.15332,-0.00375814,0.00529558,0.00218549,0.00579553,-0.00425809,1.34591,0.00582704,0.0151586,1973,1065,54.2372,-6.15337
756,-41,54.2615,5.96118,-0.00405821,0.00766028,0.00202591,0.00800064,-0.00439856,1.40435,0.00725868,0.0141221,1980,1065,54.2614,-5.96117
763,-41,54.1642,5.69739,-0.00416858,0.0101063,0.00143468,0.0102491,-0.00431134,1.47161,0.00863631,0.0117011,1987,1065,54.1642,-5.69742
770,-41,54.0664,5.49072,-0.00369196,0.0135566,0.000576746,0.0135758,-0.00371123,1.53741,0.0105084,0.0126609,1994,1065,54.0665,-5.49077
777,-41,53.9355,5.30115,-0.00234364,0.0178224,-5.8546e-05,0.0178225,-0.00234381,-1.56789,0.0127351,0.0151939,2001,1065,53.9356,-5.30109
784,-41,53.7947,5.08545,-0.000432387,0.022165,-0.000189892,0.0221666,-0.000433983,-1.56239,0.0149245,0.0269774,2008,1065,53.7947,-5.08544
791,-41,53.7344,4.63538,0.00195513,0.02636,0.000123631,0.0263606,0.0019545,1.56573,0.0169598,0.0465732,2015,1065,53.7344,-4.63537
798,-41,53.6958,4.07434,0.00508311,0.0302086,0.00105638,0.0302529,0.00503878,1.52885,0.0187165,0.0473079,2022,1065,53.6959,-4.07438
805,-41,53.7566,3.64478,0.00905178,0.0334185,0.00283391,0.0337437,0.00872653,1.45653,0.0202246,0.0451373,2029,1065,53.7567,-3.64474
812,-41,53.8174,3.40063,0,0,0,0,0,0,0,-1,2036,1065,53.8175,-3.40062
-700,-48,-39.6356,0.798584,-0.0424452,0.0636657,-0.0248179,0.0691833,-0.0479629,-1.35203,0.0680033,0.0471914,524,1072,-39.6356,-0.798581
-693,-48,-39.7782,0.468994,-0.0405083,0.0556451,-0.0166253,0.0584386,-0.0433017,-1.40433,0.0589561,0.0457208,531,1072,-39.7782,-0.469011
-686,-48,-40.1848,-0.0533447,-0.0365521,0.0483933,-0.010538,0.049681,-0.0378399,-1.4492,0.0506842,0.0483382,538,1072,-40.1848,0.0533862
-679,-48,-40.5412,-0.331421,0,0,0,0,0,0,0,-1,545,1072,-40.5412,0.331419
-672,-48,-40.6259,-0.619385,0,0,0,0,0,0,0,-1,552,1072,-40.6259,0.619423
-665,-48,-40.7615,-0.0439453,0,0,0,0,0,0,0,-1,559,1072,-40.7615,0.0438861
-658,-48,-40.394,0.500977,0,0,0,0,0,0,0,-1,566,1072,-40.394,-0.500944
-651,-48,-40.2314,1.60461,-0.0141875,0.0202233,0.00141499,0.0202814,-0.0142455,1.52977,0.0200354,0.0374706,573,1072,-40.2314,-1.60464
-644,-48,-40.374,2.37256,-0.0108041,0.0157566,0.00179022,0.0158767,-0.0109242,1.5038,0.0155614,0.0222859,580,1072,-40.374,-2.3726
-637,-48,-40.3859,2.58984,-0.00734077,0.0112631,0.00179865,0.0114354,-0.00751308,1.47529,0.0110177,0.022631,587,1072,-40.3859,-2.58984
-630,-48,-40.3969,2.91541,-0.00423644,0.00766902,0.00097948,0.00774907,-0.00431648,1.48926,0.00705939,0.0245589,594,1072,-40.3969,-2.91535
-623,-48,-40.5035,3.23071,-0.0025057,0.00495632,-0.000152123,0.00495942,-0.0025088,-1.55042,0.00438847,0.0126346,601,1072,-40.5035,-3.23071
-616,-48,-40.5017,3.5426,-0.00116217,0.00289532,-0.000890579,0.00308219,-0.00134903,-1.36397,0.00262279,0.011788,608,1072,-40.5017,-3.54256
-609,-48,-40.4627,3.85474,-0.00015971,0.00140672,-0.0012966,0.00213829,-0.000891286,-1.0571,0.00179784,0.0134106,615,1072,-40.4627,-3.85471
-602,-48,-40.4958,4.12219,0.000348124,-2.14597e-05,-0.00148798,0.00166275,-0.00133608,-0.72362,0.00173479,0.0132775,622,1072,-40.4958,-4.12218
-595,-48,-40.5521,4.34814,0.000638953,-0.00116808,-0.0016161,0.00158696,-0.00211608,-0.530508,0.00214521,0.0321748,629,1072,-40.5521,-4.34812
-588,-48,-40.7494,4.52612,0,0,0,0,0,0,0,-1,636,1072,-40.7494,-4.52615
-581,-48,-41.3245,0.655273,0.00102394,-0.00254868,-0.00073429,0.00116898,-0.00269372,-0.195004,0.00228731,0.0485488,643,1072,-41.3245,-0.655287
-574,-48,-41.3847,0.81311,0.00112846,-0.00295932,-0.000227141,0.00114104,-0.0029719,-0.0553388,0.00245178,0.0407787,650,1072,-41.3847,-0.813074
-567,-48,-41.5709,1.04333,0.00105698,-0.00317208,0.000354048,0.00108642,-0.00320152,0.0829483,0.00257408,0.042493,657,1072,-41.571,-1.04335
-560,-48,-41.7017,0.893311,0.000827773,-0.00321273,0.00101926,0.00107033,-0.00345529,0.233628,0.00273113,0.0415049,664,1072,-41.7016,-0.893254
-553,-48,-41.501,0.615479,0.000518388,-0.00319287,0.0017855,0.0012379,-0.00391239,0.38307,0.00310429,0.0417107,671,1072,-41.501,-0.615482
-546,-48,-41.3671,0.51355,0.000133174,-0.00326286,0.00265597,0.00158753,-0.00471721,0.500983,0.00378659,0.0384637,678,1072,-41.3672,-0.513557
-539,-48,-41.3129,0.584106,-0.000322633,-0.00363127,0.00327091,0.00168851,-0.00564241,0.551273,0.00443296,0.0380909,685,1072,-41.3129,-0.584114
-532,-48,-41.2963,0.802856,-0.00110467,-0.00359398,0.00442508,0.00224747,-0.00694611,0.648304,0.00553417,0.0377618,692,1072,-41.2963,-0.802808
-525,-48,0,0,0,0,0,0,0,0,0,-1,699,1072,0,0
-518,-48,0,0,0,0,0,0,0,0,0,-1,706,1072,0,0
-511,-48,0,0,0,0,0,0,0,0,0,-1,713,1072,0,0
-504,-48,0,0,0,0,0,0,0,0,0,-1,720,1072,0,0
-497,-48,0,0,0,0,0,0,0,0,0,-1,727,1072,0,0
-490,-48,0,0,0,0,0,0,0,0,0,-1,734,1072,0,0
-483,-48,0,0,0,0,0,0,0,0,0,-1,741,1072,0,0
-476,-48,0,0,0,0,0,0,0,0,0,-1,748,1072,0,0
-469,-48,0,0,0,0,0,0,0,0,0,-1,755,1072,0,0
-462,-48,0,0,0,0,0,0,0,0,0,-1,762,1072,0,0
-455,-48,0,0,0,0,0,0,0,0,0,-1,769,1072,0,0
-448,-48,0,0,0,0,0,0,0,0,0,-1,776,1072,0,0
-441,-48,0,0,0,0,0,0,0,0,0,-1,783,1072,0,0
-434,-48,0,0,0,0,0,0,0,0,0,-1,790,1072,0,0
-427,-48,0,0,0,0,0,0,0,0,0,-1,797,1072,0,0
-420,-48,0,0,0,0,0,0,0,0,0,-1,804,1072,0,0
-413,-48,0,0,0,0,0,0,0,0,0,-1,811,1072,0,0
-406,-48,0,0,0,0,0,0,0,0,0,-1,818,1072,0,0
-399,-48,0,0,0,0,0,0,0,0,0,-1,825,1072,0,0
-392,-48,0,0,0,0,0,0,0,0,0,-1,832,1072,0,0
-385,-48,0,0,0,0,0,0,0,0,0,-1,839,1072,0,0
-378,-48,0,0,0,0,0,0,0,0,0,-1,846,1072,0,0
-371,-48,0,0,0,0,0,0,0,0,0,-1,853,1072,0,0
-364,-48,0,0,0,0,0,0,0,0,0,-1,860,1072,0,0
-357,-48,0,0,0,0,0,0,0,0,0,-1,867,1072,0,0
-350,-48,0,0,0,0,0,0,0,0,0,-1,874,1072,0,0
-343,-48,0,0,0,0,0,0,0,0,0,-1,881,1072,0,0
-336,-48,0,0,0,0,0,0,0,0,0,-1,888,1072,0,0
-329,-48,0,0,0,0,0,0,0,0,0,-1,895,1072,0,0
-322,-48,0,0,0,0,0,0,0,0,0,-1,902,1072,0,0
-315,-48,0,0,0,0,0,0,0,0,0,-1,909,1072,0,0
-308,-48,0,0,0,0,0,0,0,0,0,-1,916,1072,0,0
-301,-48,0,0,0,0,0,0,0,0,0,-1,923,1072,0,0
-294,-48,0,0,0,0,0,0,0,0,0,-1,930,1072,0,0
-287,-48,0,0,0,0,0,0,0,0,0,-1,937,1072,0,0
-280,-48,0,0,0,0,0,0,0,0,0,-1,944,1072,0,0
-273,-48,0,0,0,0,0,0,0,0,0,-1,951,1072,0,0
-266,-48,0,0,0,0,0,0,0,0,0,-1,958,1072,0,0
-259,-48,0,0,0,0,0,0,0,0,0,-1,965,1072,0,0
-252,-48,0,0,0,0,0,0,0,0,0,-1,972,1072,0,0
-245,-48,0,0,0,0,0,0,0,0,0,-1,979,1072,0,0
-238,-48,0,0,0,0,0,0,0,0,0,-1,986,1072,0,0
-231,-48,0,0,0,0,0,0,0,0,0,-1,993,1072,0,0
-224,-48,0,0,0,0,0,0,0,0,0,-1,1000,1072,0,0
-217,-48,0,0,0,0,0,0,0,0,0,-1,1007,1072,0,0
-210,-48,0,0,0,0,0,0,0,0,0,-1,1014,1072,0,0
-203,-48,0,0,0,0,0,0,0,0,0,-1,1021,1072,0,0
-196,-48,0,0,0,0,0,0,0,0,0,-1,1028,1072,0,0
-189,-48,0,0,0,0,0,0,0,0,0,-1,1035,1072,0,0
-182,-48,0,0,0,0,0,0,0,0,0,-1,1042,1072,0,0
-175,-48,0,0,0,0,0,0,0,0,0,-1,1049,1072,0,0
-168,-48,0,0,0,0,0,0,0,0,0,-1,1056,1072,0,0
-161,-48,0,0,0,0,0,0,0,0,0,-1,1063,1072,0,0
-154,-48,0,0,0,0,0,0,0,0,0,-1,1070,1072,0,0
-147,-48,0,0,0,0,0,0,0,0,0,-1,1077,1072,0,0
-140,-48,0,0,0,0,0,0,0,0,0,-1,1084,1072,0,0
-133,-48,0,0,0,0,0,0,0,0,0,-1,1091,1072,0,0
-126,-48,0,0,0,0,0,0,0,0,0,-1,1098,1072,0,0
-119,-48,0,0,0,0,0,0,0,0,0,-1,1105,1072,0,0
-112,-48,0,0,0,0,0,0,0,0,0,-1,1112,1072,0,0
-105,-48,0,0,0,0,0,0,0,0,0,-1,1119,1072,0,0
-98,-48,0,0,0,0,0,0,0,0,0,-1,1126,1072,0,0
-91,-48,0,0,0,0,0,0,0,0,0,-1,1133,1072,0,0
-84,-48,0,0,0,0,0,0,0,0,0,-1,1140,1072,0,0
-77,-48,0,0,0,0,0,0,0,0,0,-1,1147,1072,0,0
-70,-48,0,0,0,0,0,0,0,0,0,-1,1154,1072,0,0
-63,-48,0,0,0,0,0,0,0,0,0,-1,1161,1072,0,0
-56,-48,0,0,0,0,0,0,0,0,0,-1,1168,1072,0,0
-49,-48,0,0,0,0,0,0,0,0,0,-1,1175,1072,0,0
-42,-48,0,0,0,0,0,0,0,0,0,-1,1182,1072,0,0
-35,-48,0,0,0,0,0,0,0,0,0,-1,1189,1072,0,0
-28,-48,0,0,0,0,0,0,0,0,0,-1,1196,1072,0,0
-21,-48,0,0,0,0,0,0,0,0,0,-1,1203,1072,0,0
-14,-48,0,0,0,0,0,0,0,0,0,-1,1210,1072,0,0
-7,-48,0,0,0,0,0,0,0,0,0,-1,1217,1072,0,0
0,-48,0,0,0,0,0,0,0,0,0,-1,1224,1072,0,0
7,-48,0,0,0,0,0,0,0,0,0,-1,1231,1072,0,0
14,-48,0,0,0,0,0,0,0,0,0,-1,1238,1072,0,0
21,-48,0,0,0,0,0,0,0,0,0,-1,1245,1072,0,0
28,-48,0,0,0,0,0,0,0,0,0,-1,1252,1072,0,0
35,-48,0,0,0,0,0,0,0,0,0,-1,1259,1072,0,0
42,-48,0,0,0,0,0,0,0,0,0,-1,1266,1072,0,0
49,-48,0,0,0,0,0,0,0,0,0,-1,1273,1072,0,0
56,-48,0,0,0,0,0,0,0,0,0,-1,1280,1072,0,0
63,-48,0,0,0,0,0,0,0,0,0,-1,1287,1072,0,0
70,-48,0,0,0,0,0,0,0,0,0,-1,1294,1072,0,0
77,-48,0,0,0,0,0,0,0,0,0,-1,1301,1072,0,0
84,-48,0,0,0,0,0,0,0,0,0,-1,1308,1072,0,0
91,-48,0,0,0,0,0,0,0,0,0,-1,1315,1072,0,0
98,-48,0,0,0,0,0,0,0,0,0,-1,1322,1072,0,0
105,-48,0,0,0,0,0,0,0,0,0,-1,1329,1072,0,0
112,-48,0,0,0,0,0,0,0,0,0,-1,1336,1072,0,0
119,-48,0,0,0,0,0,0,0,0,0,-1,1343,1072,0,0
126,-48,0,0,0,0,0,0,0,0,0,-1,1350,1072,0,0
133,-48,0,0,0,0,0,0,0,0,0,-1,1357,1072,0,0
140,-48,0,0,0,0,0,0,0,0,0,-1,1364,1072,0,0
147,-48,0,0,0,0,0,0,0,0,0,-1,1371,1072,0,0
154,-48,0,0,0,0,0,0,0,0,0,-1,1378,1072,0,0
161,-48,0,0,0,0,0,0,0,0,0,-1,1385,1072,0,0
168,-48,0,0,0,0,0,0,0,0,0,-1,1392,1072,0,0
175,-48,0,0,0,0,0,0,0,0,0,-1,1399,1072,0,0
182,-48,0,0,0,0,0,0,0,0,0,-1,1406,1072,0,0
189,-48,0,0,0,0,0,0,0,0,0,-1,1413,1072,0,0
196,-48,0,0,0,0,0,0,0,0,0,-1,1420,1072,0,0
203,-48,0,0,0,0,0,0,0,0,0,-1,1427,1072,0,0
210,-48,0,0,0,0,0,0,0,0,0,-1,1434,1072,0,0
217,-48,0,0,0,0,0,0,0,0,0,-1,1441,1072,0,0
224,-48,0,0,0,0,0,0,0,0,0,-1,1448,1072,0,0
231,-48,0,0,0,0,0,0,0,0,0,-1,1455,1072,0,0
238,-48,0,0,0,0,0,0,0,0,0,-1,1462,1072,0,0
245,-48,0,0,0,0,0,0,0,0,0,-1,1469,1072,0,0
252,-48,0,0,0,0,0,0,0,0,0,-1,1476,1072,0,0
259,-48,0,0,0,0,0,0,0,0,0,-1,1483,1072,0,0
266,-48,0,0,0,0,0,0,0,0,0,-1,1490,1072,0,0
273,-48,0,0,0,0,0,0,0,0,0,-1,1497,1072,0,0
280,-48,0,0,0,0,0,0,0,0,0,-1,1504,1072,0,0
287,-48,0,0,0,0,0,0,0,0,0,-1,1511,1072,0,0
294,-48,0,0,0,0,0,0,0,0,0,-1,1518,1072,0,0
301,-48,0,0,0,0,0,0,0,0,0,-1,1525,1072,0,0
308,-48,0,0,0,0,0,0,0,0,0,-1,1532,1072,0,0
315,-48,0,0,0,0,0,0,0,0,0,-1,1539,1072,0,0
322,-48,0,0,0,0,0,0,0,0,0,-1,1546,1072,0,0
329,-48,0,0,0,0,0,0,0,0,0,-1,1553,1072,0,0
336,-48,0,0,0,0,0,0,0,0,0,-1,1560,1072,0,0
343,-48,0,0,0,0,0,0,0,0,0,-1,1567,1072,0,0
350,-48,0,0,0,0,0,0,0,0,0,-1,1574,1072,0,0
357,-48,0,0,0,0,0,0,0,0,0,-1,1581,1072,0,0
364,-48,0,0,0,0,0,0,0,0,0,-1,1588,1072,0,0
371,-48,0,0,0,0,0,0,0,0,0,-1,1595,1072,0,0
378,-48,0,0,0,0,0,0,0,0,0,-1,1602,1072,0,0
385,-48,0,0,0,0,0,0,0,0,0,-1,1609,1072,0,0
392,-48,0,0,0,0,0,0,0,0,0,-1,1616,1072,0,0
399,-48,0,0,0,0,0,0,0,0,0,-1,1623,1072,0,0
406,-48,0,0,0,0,0,0,0,0,0,-1,1630,1072,0,0
413,-48,0,0,0,0,0,0,0,0,0,-1,1637,1072,0,0
420,-48,0,0,0,0,0,0,0,0,0,-1,1644,1072,0,0
427,-48,0,0,0,0,0,0,0,0,0,-1,1651,1072,0,0
434,-48,0,0,0,0,0,0,0,0,0,-1,1658,1072,0,0
441,-48,0,0,0,0,0,0,0,0,0,-1,1665,1072,0,0
448,-48,0,0,0,0,0,0,0,0,0,-1,1672,1072,0,0
455,-48,0,0,0,0,0,0,0,0,0,-1,1679,1072,0,0
462,-48,0,0,0,0,0,0,0,0,0,-1,1686,1072,0,0
469,-48,0,0,0,0,0,0,0,0,0,-1,1693,1072,0,0
476,-48,0,0,0,0,0,0,0,0,0,-1,1700,1072,0,0
483,-48,0,0,0,0,0,0,0,0,0,-1,1707,1072,0,0
490,-48,0,0,0,0,0,0,0,0,0,-1,1714,1072,0,0
497,-48,0,0,0,0,0,0,0,0,0,-1,1721,1072,0,0
504,-48,0,0,0,0,0,0,0,0,0,-1,1728,1072,0,0
511,-48,0,0,0,0,0,0,0,0,0,-1,1735,1072,0,0
518,-48,0,0,0,0,0,0,0,0,0,-1,1742,1072,0,0
525,-48,0,0,0,0,0,0,0,0,0,-1,1749,1072,0,0
532,-48,0,0,0,0,0,0,0,0,0,-1,1756,1072,0,0
539,-48,0,0,0,0,0,0,0,0,0,-1,1763,1072,0,0
546,-48,0,0,0,0,0,0,0,0,0,-1,1770,1072,0,0
553,-48,0,0,0,0,0,0,0,0,0,-1,1777,1072,0,0
560,-48,0,0,0,0,0,0,0,0,0,-1,1784,1072,0,0
567,-48,0,0,0,0,0,0,0,0,0,-1,1791,1072,0,0
574,-48,0,0,0,0,0,0,0,0,0,-1,1798,1072,0,0
581,-48,0,0,0,0,0,0,0,0,0,-1,1805,1072,0,0
588,-48,0,0,0,0,0,0,0,0,0,-1,1812,1072,0,0
595,-48,0,0,0,0,0,0,0,0,0,-1,1819,1072,0,0
602,-48,0,0,0,0,0,0,0,0,0,-1,1826,1072,0,0
609,-48,0,0,0,0,0,0,0,0,0,-1,1833,1072,0,0
616,-48,0,0,0,0,0,0,0,0,0,-1,1840,1072,0,0
623,-48,0,0,0,0,0,0,0,0,0,-1,1847,1072,0,0
630,-48,0,0,0,0,0,0,0,0,0,-1,1854,1072,0,0
637,-48,0,0,0,0,0,0,0,0,0,-1,1861,1072,0,0
644,-48,0,0,0,0,0,0,0,0,0,-1,1868,1072,0,0
651,-48,55.1949,2.64099,0.00115635,-0.00144777,-0.00133866,0.00172173,-0.00201316,-0.399628,0.00215853,0.0321326,1875,1072,55.195,-2.64105
658,-48,55.3948,2.60791,0.000109025,-0.00145464,-0.000240244,0.000145104,-0.00149072,-0.149063,0.00104554,0.0359999,1882,1072,55.3948,-2.60793
665,-48,55.254,2.52698,-0.000451822,-0.00132732,0.000433146,-0.000273746,-0.0015054,0.390056,0.000925937,0.0406564,1889,1072,55.254,-2.52703
672,-48,55.1934,2.68506,-0.000684489,-0.00108022,0.00101032,0.000147161,-0.00191187,0.688701,0.00132636,0.0407012,1896,1072,55.1933,-2.68508
679,-48,55.0903,2.56201,-0.000697362,-0.000734393,0.00153585,0.000820086,-0.00225184,0.779371,0.00183667,0.0387081,1903,1072,55.0903,-2.56195
686,-48,55.0795,2.49707,-0.000727742,-0.000605369,0.00200354,0.00133792,-0.00267103,0.800663,0.00235684,0.0391757,1910,1072,55.0795,-2.49711
693,-48,55.079,2.57617,-0.000611761,-0.000579073,0.00237753,0.00178217,-0.002973,0.788835,0.00277394,0.0425238,1917,1072,55.0789,-2.57613
700,-48,55.2002,2.7113,-0.000416129,-0.000502583,0.00267614,0.00221713,-0.00313584,0.777323,0.00310567,0.0362768,1924,1072,55.2002,-2.71135
707,-48,55.2158,2.65051,-0.000638346,-0.000338289,0.00298511,0.00250056,-0.00347719,0.810507,0.00346658,0.0272105,1931,1072,55.2159,-2.65055
714,-48,55.2001,2.60669,-0.000997127,-3.66207e-06,0.00320103,0.00273894,-0.00373973,0.862374,0.00375531,0.0406139,1938,1072,55.2001,-2.60666
721,-48,55.203,2.61633,0,0,0,0,0,0,0,-1,1945,1072,55.203,-2.61639
728,-48,54.1724,6.88916,0,0,0,0,0,0,0,-1,1952,1072,54.1724,-6.88918
735,-48,54.0653,6.66382,-0.00256008,0.00219914,0.00314993,0.00376727,-0.00412821,1.10889,0.00456004,0.0221367,1959,1072,54.0653,-6.66385
742,-48,53.9354,6.39758,-0.00278432,0.00340023,0.00262069,0.00436137,-0.00374547,1.21928,0.00468499,0.0174999,1966,1072,53.9355,-6.39754
749,-48,53.9596,6.12891,-0.00292531,0.00495652,0.00228675,0.00557192,-0.00354071,1.30791,0.00530457,0.0152204,1973,1072,53.9596,-6.12888
756,-48,53.9608,5.90063,-0.00320667,0.00729082,0.00231816,0.00777995,-0.0036958,1.36285,0.00676394,0.0138807,1980,1072,53.9608,-5.9006
763,-48,53.8793,5.6615,-0.00329819,0.00974729,0.00202313,0.0100538,-0.00360474,1.42042,0.00817354,0.0135197,1987,1072,53.8793,-5.66153
770,-48,53.8373,5.41589,-0.00286733,0.0132733,0.00154651,0.0134201,-0.00301418,1.47613,0.0101025,0.0137983,1994,1072,53.8373,-5.41595
777,-48,53.7141,5.17004,-0.00167939,0.0176147,0.00144587,0.0177225,-0.00178714,1.49641,0.0124535,0.0125049,2001,1072,53.714,-5.16998
784,-48,53.5872,4.87622,2.21012e-05,0.0220718,0.00196375,0.0222453,-0.000151426,1.48266,0.014881,0.0239966,2008,1072,53.5871,-4.87626
791,-48,53.5627,4.53967,0.00216377,0.0264489,0.00309489,0.0268371,0.00177556,1.44601,0.0173299,0.040361,2015,1072,53.5628,-4.53968
798,-48,53.519,4.22803,0.00500882,0.0305473,0.00513335,0.0315405,0.00401562,1.37968,0.0198245,0.0459585,2022,1072,53.519,-4.22798
805,-48,53.4883,3.8241,0.00860309,0.0340561,0.00834631,0.0365488,0.00611036,1.28057,0.022606,0.0446139,2029,1072,53.4882,-3.82412
812,-48,53.4675,3.45947,0.0124826,0.0362665,0.0134504,0.0423281,0.00642092,1.14739,0.0263406,0.0460716,2036,1072,53.4676,-3.45945
-700,-55,-39.4641,0.20813,-0.0445427,0.0628574,-0.0174717,0.0656282,-0.0473135,-1.41352,0.065492,0.0460095,524,1079,-39.4641,-0.208164
-693,-55,-39.6483,-0.0170898,-0.0434188,0.0549508,-0.01018,0.0559933,-0.0444612,-1.46875,0.0581247,0.0495438,531,1079,-39.6483,0.0171488
-686,-55,-39.8344,-0.438599,0,0,0,0,0,0,0,-1,538,1079,-39.8344,0.438588
-679,-55,-38.1262,0.0183105,0,0,0,0,0,0,0,-1,545,1079,-38.1262,-0.0183253
-672,-55,-38.5381,0.078125,0,0,0,0,0,0,0,-1,552,1079,-38.5381,-0.0781763
-665,-55,-39.1317,0.556274,0,0,0,0,0,0,0,-1,559,1079,-39.1317,-0.556247
-658,-55,-40.2367,1.02979,0,0,0,0,0,0,0,-1,566,1079,-40.2367,-1.02975
-651,-55,-40.0981,1.2207,-0.0160456,0.0192695,0.00319357,0.019556,-0.0163321,1.48133,0.0207478,0.0434859,573,1079,-40.0981,-1.22073
-644,-55,-40.071,2.23767,-0.0122256,0.0148532,0.00312642,0.0152095,-0.0125818,1.45733,0.0160692,0.0262774,580,1079,-40.071,-2.23768
-637,-55,-40.0845,2.51929,-0.00831738,0.0105054,0.00260044,0.010858,-0.00867004,1.43601,0.0112981,0.0208351,587,1079,-40.0845,-2.51923
-630,-55,-40.0859,2.88721,-0.00478714,0.00706873,0.00139076,0.00722969,-0.00494809,1.45557,0.00707186,0.022651,594,1079,-40.086,-2.88717
-623,-55,-40.2383,3.25659,-0.00262359,0.00440359,5.0023e-05,0.00440395,-0.00262395,1.56368,0.00410071,0.0189478,601,1079,-40.2383,-3.25655
-616,-55,-40.2521,3.5531,-0.000862892,0.00242345,-0.000689421,0.00256222,-0.00100166,-1.37217,0.00212234,0.0177136,608,1079,-40.2521,-3.55315
-609,-55,-40.2012,3.90222,0.000311559,0.00111279,-0.00100369,0.00179286,-0.000368509,-0.975283,0.00133514,0.0182347,615,1079,-40.2012,-3.90222
-602,-55,-40.1661,4.20923,0.000867244,-0.000117328,-0.00122939,0.00169925,-0.000949337,-0.59496,0.00154946,0.0154715,622,1079,-40.1661,-4.20924
-595,-55,-40.037,4.54712,0.00110945,-0.00112668,-0.00138693,0.00177285,-0.00179009,-0.44616,0.00205707,0.0334255,629,1079,-40.0371,-4.54713
-588,-55,-40.0171,4.94849,0,0,0,0,0,0,0,-1,636,1079,-40.0171,-4.94843
-581,-55,-41.3119,0.517944,0,0,0,0,0,0,0,-1,643,1079,-41.3119,-0.517927
-574,-55,-41.2745,0.596436,0.00141046,-0.00287641,-0.00021133,0.00142085,-0.0028868,-0.0491383,0.00253458,0.0410162,650,1079,-41.2745,-0.59647
-567,-55,-41.2948,0.772217,0.00127918,-0.00312815,0.000263503,0.00129488,-0.00314385,0.0595049,0.00263577,0.0422547,657,1079,-41.2948,-0.772162
-560,-55,-41.5547,0.808472,0.000943153,-0.00326299,0.000800602,0.00109039,-0.00341022,0.181871,0.00271105,0.0429217,664,1079,-41.5548,-0.808425
-553,-55,-41.4335,0.675781,0.000481895,-0.00340683,0.0014408,0.000957543,-0.00388248,0.318863,0.0029596,0.0422745,671,1079,-41.4335,-0.675799
-546,-55,-41.3667,0.447876,-4.55033e-05,-0.00371993,0.00221819,0.000997517,-0.00476295,0.439534,0.00355477,0.038734,678,1079,-41.3667,-0.447912
-539,-55,-41.327,0.630981,-0.000478184,-0.00451966,0.00282953,0.000978095,-0.00597594,0.475316,0.00434683,0.0378495,685,1079,-41.327,-0.631026
-532,-55,-41.4161,0.857056,-0.00120633,-0.00495882,0.00401052,0.00134513,-0.00751027,0.566607,0.00551023,0.0378487,692,1079,-41.4161,-0.857068
-525,-55,0,0,0,0,0,0,0,0,0,-1,699,1079,0,0
-518,-55,0,0,0,0,0,0,0,0,0,-1,706,1079,0,0
-511,-55,0,0,0,0,0,0,0,0,0,-1,713,1079,0,0
-504,-55,0,0,0,0,0,0,0,0,0,-1,720,1079,0,0
-497,-55,0,0,0,0,0,0,0,0,0,-1,727,1079,0,0
-490,-55,0,0,0,0,0,0,0,0,0,-1,734,1079,0,0
-483,-55,0,0,0,0,0,0,0,0,0,-1,741,1079,0,0
-476,-55,0,0,0,0,0,0,0,0,0,-1,748,1079,0,0
-469,-55,0,0,0,0,0,0,0,0,0,-1,755,1079,0,0
-462,-55,0,0,0,0,0,0,0,0,0,-1,762,1079,0,0
-455,-55,0,0,0,0,0,0,0,0,0,-1,769,1079,0,0
-448,-55,0,0,0,0,0,0,0,0,0,-1,776,1079,0,0
-441,-55,0,0,0,0,0,0,0,0,0,-1,783,1079,0,0
-434,-55,0,0,0,0,0,0,0,0,0,-1,790,1079,0,0
-427,-55,0,0,0,0,0,0,0,0,0,-1,797,1079,0,0
-420,-55,0,0,0,0,0,0,0,0,0,-1,804,1079,0,0
-413,-55,0,0,0,0,0,0,0,0,0,-1,811,1079,0,0
-406,-55,0,0,0,0,0,0,0,0,0,-1,818,1079,0,0
-399,-55,0,0,0,0,0,0,0,0,0,-1,825,1079,0,0
-392,-55,0,0,0,0,0,0,0,0,0,-1,832,1079,0,0
-385,-55,0,0,0,0,0,0,0,0,0,-1,839,1079,0,0
-378,-55,0,0,0,0,0,0,0,0,0,-1,846,1079,0,0
-371,-55,0,0,0,0,0,0,0,0,0,-1,853,1079,0,0
-364,-55,0,0,0,0,0,0,0,0,0,-1,860,1079,0,0
-357,-55,0,0,0,0,0,0,0,0,0,-1,867,1079,0,0
-350,-55,0,0,0,0,0,0,0,0,0,-1,874,1079,0,0
-343,-55,0,0,0,0,0,0,0,0,0,-1,881,1079,0,0
-336,-55,0,0,0,0,0,0,0,0,0,-1,888,1079,0,0
-329,-55,0,0,0,0,0,0,0,0,0,-1,895,1079,0,0
-322,-55,0,0,0,0,0,0,0,0,0,-1,902,1079,0,0
-315,-55,0,0,0,0,0,0,0,0,0,-1,909,1079,0,0
-308,-55,0,0,0,0,0,0,0,0,0,-1,916,1079,0,0
-301,-55,0,0,0,0,0,0,0,0,0,-1,923,1079,0,0
-294,-55,0,0,0,0,0,0,0,0,0,-1,930,1079,0,0
-287,-55,0,0,0,0,0,0,0,0,0,-1,937,1079,0,0
-280,-55,0,0,0,0,0,0,0,0,0,-1,944,1079,0,0
-273,-55,0,0,0,0,0,0,0,0,0,-1,951,1079,0,0
-266,-55,0,0,0,0,0,0,0,0,0,-1,958,1079,0,0
-259,-55,0,0,0,0,0,0,0,0,0,-1,965,1079,0,0
-252,-55,0,0,0,0,0,0,0,0,0,-1,972,1079,0,0
-245,-55,0,0,0,0,0,0,0,0,0,-1,979,1079,0,0
-238,-55,0,0,0,0,0,0,0,0,0,-1,986,1079,0,0
-231,-55,0,0,0,0,0,0,0,0,0,-1,993,1079,0,0
-224,-55,0,0,0,0,0,0,0,0,0,-1,1000,1079,0,0
-217,-55,0,0,0,0,0,0,0,0,0,-1,1007,1079,0,0
-210,-55,0,0,0,0,0,0,0,0,0,-1,1014,1079,0,0
-203,-55,0,0,0,0,0,0,0,0,0,-1,1021,1079,0,0
-196,-55,0,0,0,0,0,0,0,0,0,-1,1028,1079,0,0
-189,-55,0,0,0,0,0,0,0,0,0,-1,1035,1079,0,0
-182,-55,0,0,0,0,0,0,0,0,0,-1,1042,1079,0,0
-175,-55,0,0,0,0,0,0,0,0,0,-1,1049,1079,0,0
-168,-55,0,0,0,0,0,0,0,0,0,-1,1056,1079,0,0
-161,-55,0,0,0,0,0,0,0,0,0,-1,1063,1079,0,0
-154,-55,0,0,0,0,0,0,0,0,0,-1,1070,1079,0,0
-147,-55,0,0,0,0,0,0,0,0,0,-1,1077,1079,0,0
-140,-55,0,0,0,0,0,0,0,0,0,-1,1084,1079,0,0
-133,-55,0,0,0,0,0,0,0,0,0,-1,1091,1079,0,0
-126,-55,0,0,0,0,0,0,0,0,0,-1,1098,1079,0,0
-119,-55,0,0,0,0,0,0,0,0,0,-1,1105,1079,0,0
-112,-55,0,0,0,0,0,0,0,0,0,-1,1112,1079,0,0
-105,-55,0,0,0,0,0,0,0,0,0,-1,1119,1079,0,0
-98,-55,0,0,0,0,0,0,0,0,0,-1,1126,1079,0,0
-91,-55,0,0,0,0,0,0,0,0,0,-1,1133,1079,0,0
-84,-55,0,0,0,0,0,0,0,0,0,-1,1140,1079,0,0
-77,-55,0,0,0,0,0,0,0,0,0,-1,1147,1079,0,0
-70,-55,0,0,0,0,0,0,0,0,0,-1,1154,1079,0,0
-63,-55,0,0,0,0,0,0,0,0,0,-1,1161,1079,0,0
-56,-55,0,0,0,0,0,0,0,0,0,-1,1168,1079,0,0
-49,-55,0,0,0,0,0,0,0,0,0,-1,1175,1079,0,0
-42,-55,0,0,0,0,0,0,0,0,0,-1,1182,1079,0,0
-35,-55,0,0,0,0,0,0,0,0,0,-1,1189,1079,0,0
-28,-55,0,0,0,0,0,0,0,0,0,-1,1196,1079,0,0
-21,-55,0,0,0,0,0,0,0,0,0,-1,1203,1079,0,0
-14,-55,0,0,0,0,0,0,0,0,0,-1,1210,1079,0,0
-7,-55,0,0,0,0,0,0,0,0,0,-1,1217,1079,0,0
0,-55,0,0,0,0,0,0,0,0,0,-1,1224,1079,0,0
7,-55,0,0,0,0,0,0,0,0,0,-1,1231,1079,0,0
14,-55,0,0,0,0,0,0,0,0,0,-1,1238,1079,0,0
21,-55,0,0,0,0,0,0,0,0,0,-1,1245,1079,0,0
28,-55,0,0,0,0,0,0,0,0,0,-1,1252,1079,0,0
35,-55,0,0,0,0,0,0,0,0,0,-1,1259,1079,0,0
42,-55,0,0,0,0,0,0,0,0,0,-1,1266,1079,0,0
49,-55,0,0,0,0,0,0,0,0,0,-1,1273,1079,0,0
56,-55,0,0,0,0,0,0,0,0,0,-1,1280,1079,0,0
63,-55,0,0,0,0,0,0,0,0,0,-1,1287,1079,0,0
70,-55,0,0,0,0,0,0,0,0,0,-1,1294,1079,0,0
77,-55,0,0,0,0,0,0,0,0,0,-1,1301,1079,0,0
84,-55,0,0,0,0,0,0,0,0,0,-1,1308,1079,0,0
91,-55,0,0,0,0,0,0,0,0,0,-1,1315,1079,0,0
98,-55,0,0,0,0,0,0,0,0,0,-1,1322,1079,0,0
105,-55,0,0,0,0,0,0,0,0,0,-1,1329,1079,0,0
112,-55,0,0,0,0,0,0,0,0,0,-1,1336,1079,0,0
119,-55,0,0,0,0,0,0,0,0,0,-1,1343,1079,0,0
126,-55,0,0,0,0,0,0,0,0,0,-1,1350,1079,0,0
133,-55,0,0,0,0,0,0,0,0,0,-1,1357,1079,0,0
140,-55,0,0,0,0,0,0,0,0,0,-1,1364,1079,0,0
147,-55,0,0,0,0,0,0,0,0,0,-1,1371,1079,0,0
154,-55,0,0,0,0,0,0,0,0,0,-1,1378,1079,0,0
161,-55,0,0,0,0,0,0,0,0,0,-1,1385,1079,0,0
168,-55,0,0,0,0,0,0,0,0,0,-1,1392,1079,0,0
175,-55,0,0,0,0,0,0,0,0,0,-1,1399,1079,0,0
182,-55,0,0,0,0,0,0,0,0,0,-1,1406,1079,0,0
189,-55,0,0,0,0,0,0,0,0,0,-1,1413,1079,0,0
196,-55,0,0,0,0,0,0,0,0,0,-1,1420,1079,0,0
203,-55,0,0,0,0,0,0,0,0,0,-1,1427,1079,0,0
210,-55,0,0,0,0,0,0,0,0,0,-1,1434,1079,0,0
217,-55,0,0,0,0,0,0,0,0,0,-1,1441,1079,0,0
224,-55,0,0,0,0,0,0,0,0,0,-1,1448,1079,0,0
231,-55,0,0,0,0,0,0,0,0,0,-1,1455,1079,0,0
238,-55,0,0,0,0,0,0,0,0,0,-1,1462,1079,0,0
245,-55,0,0,0,0,0,0,0,0,0,-1,1469,1079,0,0
252,-55,0,0,0,0,0,0,0,0,0,-1,1476,1079,0,0
259,-55,0,0,0,0,0,0,0,0,0,-1,1483,1079,0,0
266,-55,0,0,0,0,0,0,0,0,0,-1,1490,1079,0,0
273,-55,0,0,0,0,0,0,0,0,0,-1,1497,1079,0,0
280,-55,0,0,0,0,0,0,0,0,0,-1,1504,1079,0,0
287,-55,0,0,0,0,0,0,0,0,0,-1,1511,1079,0,0
294,-55,0,0,0,0,0,0,0,0,0,-1,1518,1079,0,0
301,-55,0,0,0,0,0,0,0,0,0,-1,1525,1079,0,0
308,-55,0,0,0,0,0,0,0,0,0,-1,1532,1079,0,0
315,-55,0,0,0,0,0,0,0,0,0,-1,1539,1079,0,0
322,-55,0,0,0,0,0,0,0,0,0,-1,1546,1079,0,0
329,-55,0,0,0,0,0,0,0,0,0,-1,1553,1079,0,0
336,-55,0,0,0,0,0,0,0,0,0,-1,1560,1079,0,0
343,-55,0,0,0,0,0,0,0,0,0,-1,1567,1079,0,0
350,-55,0,0,0,0,0,0,0,0,0,-1,1574,1079,0,0
357,-55,0,0,0,0,0,0,0,0,0,-1,1581,1079,0,0
364,-55,0,0,0,0,0,0,0,0,0,-1,1588,1079,0,0
371,-55,0,0,0,0,0,0,0,0,0,-1,1595,1079,0,0
378,-55,0,0,0,0,0,0,0,0,0,-1,1602,1079,0,0
385,-55,0,0,0,0,0,0,0,0,0,-1,1609,1079,0,0
392,-55,0,0,0,0,0,0,0,0,0,-1,1616,1079,0,0
399,-55,0,0,0,0,0,0,0,0,0,-1,1623,1079,0,0
406,-55,0,0,0,0,0,0,0,0,0,-1,1630,1079,0,0
413,-55,0,0,0,0,0,0,0,0,0,-1,1637,1079,0,0
420,-55,0,0,0,0,0,0,0,0,0,-1,1644,1079,0,0
427,-55,0,0,0,0,0,0,0,0,0,-1,1651,1079,0,0
434,-55,0,0,0,0,0,0,0,0,0,-1,1658,1079,0,0
441,-55,0,0,0,0,0,0,0,0,0,-1,1665,1079,0,0
448,-55,0,0,0,0,0,0,0,0,0,-1,1672,1079,0,0
455,-55,0,0,0,0,0,0,0,0,0,-1,1679,1079,0,0
462,-55,0,0,0,0,0,0,0,0,0,-1,1686,1079,0,0
469,-55,0,0,0,0,0,0,0,0,0,-1,1693,1079,0,0
476,-55,0,0,0,0,0,0,0,0,0,-1,1700,1079,0,0
483,-55,0,0,0,0,0,0,0,0,0,-1,1707,1079,0,0
490,-55,0,0,0,0,0,0,0,0,0,-1,1714,1079,0,0
497,-55,0,0,0,0,0,0,0,0,0,-1,1721,1079,0,0
504,-55,0,0,0,0,0,0,0,0,0,-1,1728,1079,0,0
511,-55,0,0,0,0,0,0,0,0,0,-1,1735,1079,0,0
518,-55,0,0,0,0,0,0,0,0,0,-1,1742,1079,0,0
525,-55,0,0,0,0,0,0,0,0,0,-1,1749,1079,0,0
532,-55,0,0,0,0,0,0,0,0,0,-1,1756,1079,0,0
539,-55,0,0,0,0,0,0,0,0,0,-1,1763,1079,0,0
546,-55,0,0,0,0,0,0,0,0,0,-1,1770,1079,0,0
553,-55,0,0,0,0,0,0,0,0,0,-1,1777,1079,0,0
560,-55,0,0,0,0,0,0,0,0,0,-1,1784,1079,0,0
567,-55,0,0,0,0,0,0,0,0,0,-1,1791,1079,0,0
574,-55,0,0,0,0,0,0,0,0,0,-1,1798,1079,0,0
581,-55,0,0,0,0,0,0,0,0,0,-1,1805,1079,0,0
588,-55,0,0,0,0,0,0,0,0,0,-1,1812,1079,0,0
595,-55,0,0,0,0,0,0,0,0,0,-1,1819,1079,0,0
602,-55,0,0,0,0,0,0,0,0,0,-1,1826,1079,0,0
609,-55,0,0,0,0,0,0,0,0,0,-1,1833,1079,0,0
616,-55,0,0,0,0,0,0,0,0,0,-1,1840,1079,0,0
623,-55,0,0,0,0,0,0,0,0,0,-1,1847,1079,0,0
630,-55,0,0,0,0,0,0,0,0,0,-1,1854,1079,0,0
637,-55,0,0,0,0,0,0,0,0,0,-1,1861,1079,0,0
644,-55,0,0,0,0,0,0,0,0,0,-1,1868,1079,0,0
651,-55,55.3134,2.60657,0.00120283,-0.00250203,-0.000791319,0.00136477,-0.00266397,-0.201857,0.00236596,0.036244,1875,1079,55.3134,-2.60661
658,-55,55.4063,2.63989,0.000336229,-0.00243421,3.85881e-05,0.000336766,-0.00243474,0.0139249,0.00174628,0.0336044,1882,1079,55.4063,-2.63987
665,-55,55.2493,2.54041,-0.000125744,-0.00220084,0.000552688,1.228e-05,-0.00233886,0.244727,0.00156335,0.0396182,1889,1079,55.2493,-2.54044
672,-55,55.17,2.672,-0.000312388,-0.00184583,0.000994956,0.000176994,-0.00233522,0.457117,0.00161904,0.0390777,1896,1079,55.1701,-2.67201
679,-55,55.1528,2.66821,-0.000311712,-0.00137261,0.00138253,0.000638641,-0.00232297,0.602219,0.0017997,0.0357852,1903,1079,55.1528,-2.66818
686,-55,55.1346,2.55981,-0.00029516,-0.00112833,0.00176371,0.00110049,-0.00252398,0.669425,0.00214571,0.0375491,1910,1079,55.1347,-2.55981
693,-55,55.2711,2.56653,-0.000127919,-0.000994908,0.0020728,0.00155623,-0.00267905,0.682316,0.00247372,0.041008,1917,1079,55.2712,-2.5665
700,-55,55.1974,2.70239,8.94996e-05,-0.000810995,0.00231137,0.00199407,-0.00271556,0.689205,0.00272972,0.0359784,1924,1079,55.1974,-2.70242
707,-55,55.2156,2.65894,-7.99066e-05,-0.000573622,0.00260746,0.00229235,-0.00294588,0.738202,0.00303213,0.0257215,1931,1079,55.2155,-2.65893
714,-55,55.2023,2.6051,-0.000389814,-0.000192912,0.00285136,0.0025617,-0.00314442,0.802655,0.00330015,0.0491043,1938,1079,55.2023,-2.60508
721,-55,55.2688,2.61096,0,0,0,0,0,0,0,-1,1945,1079,55.2688,-2.61095
728,-55,53.8069,6.96436,0,0,0,0,0,0,0,-1,1952,1079,53.8069,-6.96432
735,-55,53.7137,6.69421,-0.0018108,0.00193745,0.00295828,0.00356529,-0.00343864,1.06775,0.00404394,0.0222134,1959,1079,53.7137,-6.6942
742,-55,53.714,6.43567,-0.0020455,0.00311294,0.00255455,0.00416388,-0.00309645,1.1805,0.00420683,0.0220449,1966,1079,53.714,-6.43561
749,-55,53.7211,6.14636,-0.00222449,0.00461879,0.00237342,0.00536137,-0.00296708,1.26757,0.00487422,0.0144592,1973,1079,53.7211,-6.14633
756,-55,53.6378,5.88538,-0.00255618,0.00698954,0.00265079,0.00767624,-0.00324289,1.31731,0.00647506,0.0123031,1980,1079,53.6379,-5.88536
763,-55,53.5739,5.64343,-0.00271069,0.0095794,0.00275116,0.0101671,-0.00329843,1.36033,0.00810449,0.0158178,1987,1079,53.5739,-5.64344
770,-55,53.5342,5.37,-0.00242273,0.0133074,0.00279387,0.0137889,-0.00290422,1.40013,0.0102981,0.0166201,1994,1079,53.5342,-5.37004
777,-55,53.4573,5.10706,-0.00149399,0.0179386,0.00343976,0.0185295,-0.00208489,1.40067,0.0131034,0.0137972,2001,1079,53.4572,-5.10704
784,-55,53.3364,4.81067,-0.000114619,0.0228054,0.00487502,0.0237992,-0.00110843,1.36969,0.0162482,0.028589,2008,1079,53.3364,-4.81071
791,-55,53.407,4.42712,0.00166102,0.0277715,0.00715885,0.0296055,-0.000172939,1.32001,0.0197949,0.0418371,2015,1079,53.407,-4.42718
798,-55,53.6379,4.21484,0.0040609,0.0327081,0.0107247,0.0362782,0.000490785,1.24945,0.0240236,0.0459865,2022,1079,53.6379,-4.21483
805,-55,53.3628,3.85754,0,0,0,0,0,0,0,-1,2029,1079,53.3627,-3.85752
812,-55,54.0793,5.1051,0,0,0,0,0,0,0,-1,2036,1079,54.0794,-5.10509
-700,-62,-39.3148,-0.296997,0,0,0,0,0,0,0,-1,524,1086,-39.3148,0.296994
-693,-62,-39.4894,-0.381226,0,0,0,0,0,0,0,-1,531,1086,-39.4894,0.381244
-686,-62,-37.7405,-0.9021,-0.0433709,0.0468111,0.0011915,0.0468268,-0.0433866,1.55759,0.0520974,0.0498289,538,1086,-37.7405,0.902125
-679,-62,-38.0112,-0.0142822,-0.0384959,0.0398364,0.00360325,0.0400018,-0.0386613,1.52493,0.0454184,0.0461911,545,1086,-38.0112,0.0142669
-672,-62,-38.436,0.277344,-0.0332028,0.0334878,0.00498347,0.0338581,-0.0335731,1.49662,0.0389316,0.0438283,552,1086,-38.436,-0.277323
-665,-62,-38.9323,0.669556,-0.0278077,0.0277308,0.0055614,0.0282823,-0.0283591,1.47197,0.0327019,0.0459885,559,1086,-38.9323,-0.669519
-658,-62,-39.6352,1.06787,-0.0225045,0.0225491,0.0054837,0.0232069,-0.0231624,1.4514,0.0267713,0.0492412,566,1086,-39.6352,-1.06785
-651,-62,-39.7805,1.61694,-0.0174877,0.0179008,0.00487589,0.0185603,-0.0181472,1.43635,0.0211935,0.0443111,573,1086,-39.7804,-1.61695
-644,-62,-39.7424,2.13403,-0.0132591,0.0136066,0.00434871,0.014293,-0.0139455,1.41425,0.0163039,0.0171549,580,1086,-39.7424,-2.13405
-637,-62,-39.7759,2.53455,-0.00897924,0.00951874,0.00331176,0.0100938,-0.00955428,1.39887,0.0113452,0.0147376,587,1086,-39.7759,-2.53451
-630,-62,-39.8221,2.89734,-0.00507542,0.00631013,0.00176782,0.00657831,-0.00534359,1.42025,0.00689541,0.0155348,594,1086,-39.8221,-2.89732
-623,-62,-39.8983,3.27295,-0.00258849,0.00374471,0.000257409,0.00375516,-0.00259893,1.53024,0.00368872,0.0180536,601,1086,-39.8983,-3.2729
-616,-62,-39.9045,3.64905,-0.0005213,0.00189222,-0.000476457,0.00198287,-0.000611953,-1.38278,0.00156627,0.0183508,608,1086,-39.9045,-3.64906
-609,-62,-39.8577,3.9729,0.000817016,0.000827775,-0.000727017,0.00154943,9.53591e-05,-0.789098,0.00100268,0.017861,615,1086,-39.8577,-3.97295
-602,-62,-39.7699,4.27368,0.00140893,-0.000141611,-0.00102006,0.00191489,-0.000647579,-0.460456,0.00153857,0.0169145,622,1086,-39.7699,-4.27366
-595,-62,-39.6262,4.66589,0.00162869,-0.000974083,-0.00125055,0.00213215,-0.00147754,-0.382739,0.00209545,0.0372531,629,1086,-39.6262,-4.66591
-588,-62,-39.5385,5.0907,0,0,0,0,0,0,0,-1,636,1086,-39.5384,-5.09074
-581,-62,-41.3091,0.753052,0,0,0,0,0,0,0,-1,643,1086,-41.3092,-0.753078
-574,-62,-41.3406,0.686157,0.001766,-0.00253388,-0.000371755,0.0017979,-0.00256578,-0.0856105,0.00253235,0.0357451,650,1086,-41.3406,-0.686129
-567,-62,-41.2372,0.905029,0.00155432,-0.00276169,-3.02046e-05,0.00155453,-0.0027619,-0.0069978,0.00252438,0.0363384,657,1086,-41.2372,-0.905076
-560,-62,-41.0945,1.06824,0.00108471,-0.00293073,0.000360009,0.00111673,-0.00296276,0.0887132,0.00243435,0.0389816,664,1086,-41.0945,-1.0682
-553,-62,-41.0919,0.959839,0.000392455,-0.0031743,0.000855065,0.000586847,-0.00336869,0.223542,0.00246481,0.0373186,671,1086,-41.0919,-0.959826
-546,-62,-41.3099,0.622192,-0.000390885,-0.00368473,0.00153219,0.000211631,-0.00428724,0.374663,0.00293125,0.0325418,678,1086,-41.3099,-0.622234
-539,-62,-41.3728,0.868164,-0.000913397,-0.00489959,0.00219286,5.67937e-05,-0.00586978,0.416542,0.00393225,0.0375524,685,1086,-41.3728,-0.868105
-532,-62,-41.4773,0.966431,-0.00170301,-0.00582906,0.00344316,0.00024787,-0.00777994,0.515495,0.00527119,0.0407175,692,1086,-41.4773,-0.96641
-525,-62,0,0,0,0,0,0,0,0,0,-1,699,1086,0,0
-518,-62,0,0,0,0,0,0,0,0,0,-1,706,1086,0,0
-511,-62,0,0,0,0,0,0,0,0,0,-1,713,1086,0,0
-504,-62,0,0,0,0,0,0,0,0,0,-1,720,1086,0,0
-497,-62,0,0,0,0,0,0,0,0,0,-1,727,1086,0,0
-490,-62,0,0,0,0,0,0,0,0,0,-1,734,1086,0,0
-483,-62,0,0,0,0,0,0,0,0,0,-1,741,1086,0,0
-476,-62,0,0,0,0,0,0,0,0,0,-1,748,1086,0,0
-469,-62,0,0,0,0,0,0,0,0,0,-1,755,1086,0,0
-462,-62,0,0,0,0,0,0,0,0,0,-1,762,1086,0,0
-455,-62,0,0,0,0,0,0,0,0,0,-1,769,1086,0,0
-448,-62,0,0,0,0,0,0,0,0,0,-1,776,1086,0,0
-441,-62,0,0,0,0,0,0,0,0,0,-1,783,1086,0,0
-434,-62,0,0,0,0,0,0,0,0,0,-1,790,1086,0,0
-427,-62,0,0,0,0,0,0,0,0,0,-1,797,1086,0,0
-420,-62,0,0,0,0,0,0,0,0,0,-1,804,1086,0,0
-413,-62,0,0,0,0,0,0,0,0,0,-1,811,1086,0,0
-406,-62,0,0,0,0,0,0,0,0,0,-1,818,1086,0,0
-399,-62,0,0,0,0,0,0,0,0,0,-1,825,1086,0,0
-392,-62,0,0,0,0,0,0,0,0,0,-1,832,1086,0,0
-385,-62,0,0,0,0,0,0,0,0,0,-1,839,1086,0,0
-378,-62,0,0,0,0,0,0,0,0,0,-1,846,1086,0,0
-371,-62,0,0,0,0,0,0,0,0,0,-1,853,1086,0,0
-364,-62,0,0,0,0,0,0,0,0,0,-1,860,1086,0,0
-357,-62,0,0,0,0,0,0,0,0,0,-1,867,1086,0,0
-350,-62,0,0,0,0,0,0,0,0,0,-1,874,1086,0,0
-343,-62,0,0,0,0,0,0,0,0,0,-1,881,1086,0,0
-336,-62,0,0,0,0,0,0,0,0,0,-1,888,1086,0,0
-329,-62,0,0,0,0,0,0,0,0,0,-1,895,1086,0,0
-322,-62,0,0,0,0,0,0,0,0,0,-1,902,1086,0,0
-315,-62,0,0,0,0,0,0,0,0,0,-1,909,1086,0,0
-308,-62,0,0,0,0,0,0,0,0,0,-1,916,1086,0,0
-301,-62,0,0,0,0,0,0,0,0,0,-1,923,1086,0,0
-294,-62,0,0,0,0,0,0,0,0,0,-1,930,1086,0,0
-287,-62,0,0,0,0,0,0,0,0,0,-1,937,1086,0,0
-280,-62,0,0,0,0,0,0,0,0,0,-1,944,1086,0,0
-273,-62,0,0,0,0,0,0,0,0,0,-1,951,1086,0,0
-266,-62,0,0,0,0,0,0,0,0,0,-1,958,1086,0,0
-259,-62,0,0,0,0,0,0,0,0,0,-1,965,1086,0,0
-252,-62,0,0,0,0,0,0,0,0,0,-1,972,1086,0,0
-245,-62,0,0,0,0,0,0,0,0,0,-1,979,1086,0,0
-238,-62,0,0,0,0,0,0,0,0,0,-1,986,1086,0,0
-231,-62,0,0,0,0,0,0,0,0,0,-1,993,1086,0,0
-224,-62,0,0,0,0,0,0,0,0,0,-1,1000,1086,0,0
-217,-62,0,0,0,0,0,0,0,0,0,-1,1007,1086,0,0
-210,-62,0,0,0,0,0,0,0,0,0,-1,1014,1086,0,0
-203,-62,0,0,0,0,0,0,0,0,0,-1,1021,1086,0,0
-196,-62,0,0,0,0,0,0,0,0,0,-1,1028,1086,0,0
-189,-62,0,0,0,0,0,0,0,0,0,-1,1035,1086,0,0
-182,-62,0,0,0,0,0,0,0,0,0,-1,1042,1086,0,0
-175,-62,0,0,0,0,0,0,0,0,0,-1,1049,1086,0,0
-168,-62,0,0,0,0,0,0,0,0,0,-1,1056,1086,0,0
-161,-62,0,0,0,0,0,0,0,0,0,-1,1063,1086,0,0
-154,-62,0,0,0,0,0,0,0,0,0,-1,1070,1086,0,0
-147,-62,0,0,0,0,0,0,0,0,0,-1,1077,1086,0,0
-140,-62,0,0,0,0,0,0,0,0,0,-1,1084,1086,0,0
-133,-62,0,0,0,0,0,0,0,0,0,-1,1091,1086,0,0
-126,-62,0,0,0,0,0,0,0,0,0,-1,1098,1086,0,0
-119,-62,0,0,0,0,0,0,0,0,0,-1,1105,1086,0,0
-112,-62,0,0,0,0,0,0,0,0,0,-1,1112,1086,0,0
-105,-62,0,0,0,0,0,0,0,0,0,-1,1119,1086,0,0
-98,-62,0,0,0,0,0,0,0,0,0,-1,1126,1086,0,0
-91,-62,0,0,0,0,0,0,0,0,0,-1,1133,1086,0,0
-84,-62,0,0,0,0,0,0,0,0,0,-1,1140,1086,0,0
-77,-62,0,0,0,0,0,0,0,0,0,-1,1147,1086,0,0
-70,-62,0,0,0,0,0,0,0,0,0,-1,1154,1086,0,0
-63,-62,0,0,0,0,0,0,0,0,0,-1,1161,1086,0,0
-56,-62,0,0,0,0,0,0,0,0,0,-1,1168,1086,0,0
-49,-62,0,0,0,0,0,0,0,0,0,-1,1175,1086,0,0
-42,-62,0,0,0,0,0,0,0,0,0,-1,1182,1086,0,0
-35,-62,0,0,0,0,0,0,0,0,0,-1,1189,1086,0,0
-28,-62,0,0,0,0,0,0,0,0,0,-1,1196,1086,0,0
-21,-62,0,0,0,0,0,0,0,0,0,-1,1203,1086,0,0
-14,-62,0,0,0,0,0,0,0,0,0,-1,1210,1086,0,0
-7,-62,0,0,0,0,0,0,0,0,0,-1,1217,1086,0,0
0,-62,0,0,0,0,0,0,0,0,0,-1,1224,1086,0,0
7,-62,0,0,0,0,0,0,0,0,0,-1,1231,1086,0,0
14,-62,0,0,0,0,0,0,0,0,0,-1,1238,1086,0,0
21,-62,0,0,0,0,0,0,0,0,0,-1,1245,1086,0,0
28,-62,0,0,0,0,0,0,0,0,0,-1,1252,1086,0,0
35,-62,0,0,0,0,0,0,0,0,0,-1,1259,1086,0,0
42,-62,0,0,0,0,0,0,0,0,0,-1,1266,1086,0,0
49,-62,0,0,0,0,0,0,0,0,0,-1,1273,1086,0,0
56,-62,0,0,0,0,0,0,0,0,0,-1,1280,1086,0,0
63,-62,0,0,0,0,0,0,0,0,0,-1,1287,1086,0,0
70,-62,0,0,0,0,0,0,0,0,0,-1,1294,1086,0,0
77,-62,0,0,0,0,0,0,0,0,0,-1,1301,1086,0,0
84,-62,0,0,0,0,0,0,0,0,0,-1,1308,1086,0,0
91,-62,0,0,0,0,0,0,0,0,0,-1,1315,1086,0,0
98,-62,0,0,0,0,0,0,0,0,0,-1,1322,1086,0,0
105,-62,0,0,0,0,0,0,0,0,0,-1,1329,1086,0,0
112,-62,0,0,0,0,0,0,0,0,0,-1,1336,1086,0,0
119,-62,0,0,0,0,0,0,0,0,0,-1,1343,1086,0,0
126,-62,0,0,0,0,0,0,0,0,0,-1,1350,1086,0,0
133,-62,0,0,0,0,0,0,0,0,0,-1,1357,1086,0,0
140,-62,0,0,0,0,0,0,0,0,0,-1,1364,1086,0,0
147,-62,0,0,0,0,0,0,0,0,0,-1,1371,1086,0,0
154,-62,0,0,0,0,0,0,0,0,0,-1,1378,1086,0,0
161,-62,0,0,0,0,0,0,0,0,0,-1,1385,1086,0,0
168,-62,0,0,0,0,0,0,0,0,0,-1,1392,1086,0,0
175,-62,0,0,0,0,0,0,0,0,0,-1,1399,1086,0,0
182,-62,0,0,0,0,0,0,0,0,0,-1,1406,1086,0,0
189,-62,0,0,0,0,0,0,0,0,0,-1,1413,1086,0,0
196,-62,0,0,0,0,0,0,0,0,0,-1,1420,1086,0,0
203,-62,0,0,0,0,0,0,0,0,0,-1,1427,1086,0,0
210,-62,0,0,0,0,0,0,0,0,0,-1,1434,1086,0,0
217,-62,0,0,0,0,0,0,0,0,0,-1,1441,1086,0,0
224,-62,0,0,0,0,0,0,0,0,0,-1,1448,1086,0,0
231,-62,0,0,0,0,0,0,0,0,0,-1,1455,1086,0,0
238,-62,0,0,0,0,0,0,0,0,0,-1,1462,1086,0,0
245,-62,0,0,0,0,0,0,0,0,0,-1,1469,1086,0,0
252,-62,0,0,0,0,0,0,0,0,0,-1,1476,1086,0,0
259,-62,0,0,0,0,0,0,0,0,0,-1,1483,1086,0,0
266,-62,0,0,0,0,0,0,0,0,0,-1,1490,1086,0,0
273,-62,0,0,0,0,0,0,0,0,0,-1,1497,1086,0,0
280,-62,0,0,0,0,0,0,0,0,0,-1,1504,1086,0,0
287,-62,0,0,0,0,0,0,0,0,0,-1,1511,1086,0,0
294,-62,0,0,0,0,0,0,0,0,0,-1,1518,1086,0,0
301,-62,0,0,0,0,0,0,0,0,0,-1,1525,1086,0,0
308,-62,0,0,0,0,0,0,0,0,0,-1,1532,1086,0,0
315,-62,0,0,0,0,0,0,0,0,0,-1,1539,1086,0,0
322,-62,0,0,0,0,0,0,0,0,0,-1,1546,1086,0,0
329,-62,0,0,0,0,0,0,0,0,0,-1,1553,1086,0,0
336,-62,0,0,0,0,0,0,0,0,0,-1,1560,1086,0,0
343,-62,0,0,0,0,0,0,0,0,0,-1,1567,1086,0,0
350,-62,0,0,0,0,0,0,0,0,0,-1,1574,1086,0,0
357,-62,0,0,0,0,0,0,0,0,0,-1,1581,1086,0,0
364,-62,0,0,0,0,0,0,0,0,0,-1,1588,1086,0,0
371,-62,0,0,0,0,0,0,0,0,0,-1,1595,1086,0,0
378,-62,0,0,0,0,0,0,0,0,0,-1,1602,1086,0,0
385,-62,0,0,0,0,0,0,0,0,0,-1,1609,1086,0,0
392,-62,0,0,0,0,0,0,0,0,0,-1,1616,1086,0,0
399,-62,0,0,0,0,0,0,0,0,0,-1,1623,1086,0,0
406,-62,0,0,0,0,0,0,0,0,0,-1,1630,1086,0,0
413,-62,0,0,0,0,0,0,0,0,0,-1,1637,1086,0,0
420,-62,0,0,0,0,0,0,0,0,0,-1,1644,1086,0,0
427,-62,0,0,0,0,0,0,0,0,0,-1,1651,1086,0,0
434,-62,0,0,0,0,0,0,0,0,0,-1,1658,1086,0,0
441,-62,0,0,0,0,0,0,0,0,0,-1,1665,1086,0,0
448,-62,0,0,0,0,0,0,0,0,0,-1,1672,1086,0,0
455,-62,0,0,0,0,0,0,0,0,0,-1,1679,1086,0,0
462,-62,0,0,0,0,0,0,0,0,0,-1,1686,1086,0,0
469,-62,0,0,0,0,0,0,0,0,0,-1,1693,1086,0,0
476,-62,0,0,0,0,0,0,0,0,0,-1,1700,1086,0,0
483,-62,0,0,0,0,0,0,0,0,0,-1,1707,1086,0,0
490,-62,0,0,0,0,0,0,0,0,0,-1,1714,1086,0,0
497,-62,0,0,0,0,0,0,0,0,0,-1,1721,1086,0,0
504,-62,0,0,0,0,0,0,0,0,0,-1,1728,1086,0,0
511,-62,0,0,0,0,0,0,0,0,0,-1,1735,1086,0,0
518,-62,0,0,0,0,0,0,0,0,0,-1,1742,1086,0,0
525,-62,0,0,0,0,0,0,0,0,0,-1,1749,1086,0,0
532,-62,0,0,0,0,0,0,0,0,0,-1,1756,1086,0,0
539,-62,0,0,0,0,0,0,0,0,0,-1,1763,1086,0,0
546,-62,0,0,0,0,0,0,0,0,0,-1,1770,1086,0,0
553,-62,0,0,0,0,0,0,0,0,0,-1,1777,1086,0,0
560,-62,0,0,0,0,0,0,0,0,0,-1,1784,1086,0,0
567,-62,0,0,0,0,0,0,0,0,0,-1,1791,1086,0,0
574,-62,0,0,0,0,0,0,0,0,0,-1,1798,1086,0,0
581,-62,0,0,0,0,0,0,0,0,0,-1,1805,1086,0,0
588,-62,0,0,0,0,0,0,0,0,0,-1,1812,1086,0,0
595,-62,0,0,0,0,0,0,0,0,0,-1,1819,1086,0,0
602,-62,0,0,0,0,0,0,0,0,0,-1,1826,1086,0,0
609,-62,0,0,0,0,0,0,0,0,0,-1,1833,1086,0,0
616,-62,0,0,0,0,0,0,0,0,0,-1,1840,1086,0,0
623,-62,0,0,0,0,0,0,0,0,0,-1,1847,1086,0,0
630,-62,0,0,0,0,0,0,0,0,0,-1,1854,1086,0,0
637,-62,0,0,0,0,0,0,0,0,0,-1,1861,1086,0,0
644,-62,0,0,0,0,0,0,0,0,0,-1,1868,1086,0,0
651,-62,55.3165,2.66516,0.00176224,-0.0037135,-0.000652143,0.00183884,-0.00379009,-0.116918,0.00331431,0.0391126,1875,1086,55.3165,-2.66521
658,-62,55.3324,2.66565,0.000958835,-0.00347577,-8.14193e-05,0.000960329,-0.00347727,-0.0183517,0.00269592,0.0372048,1882,1086,55.3324,-2.66569
665,-62,55.2645,2.52808,0.000500569,-0.00310056,0.000293576,0.000524345,-0.00312434,0.0808121,0.00227788,0.0391908,1889,1086,55.2645,-2.52812
672,-62,55.1815,2.64636,0.000274985,-0.00261581,0.000630759,0.000406619,-0.00274745,0.20574,0.00198113,0.0397511,1896,1086,55.1816,-2.64637
679,-62,55.1139,2.67944,0.00021766,-0.00202148,0.000919895,0.000547105,-0.00235092,0.343902,0.00177793,0.0387266,1903,1086,55.1138,-2.67948
686,-62,55.1808,2.5719,0.000237194,-0.00168234,0.00126615,0.000866229,-0.00231138,0.461091,0.00189678,0.04013,1910,1086,55.1807,-2.57189
693,-62,55.2487,2.54663,0.00042807,-0.00146298,0.0015587,0.00130561,-0.00234052,0.512764,0.00213317,0.0385431,1917,1086,55.2486,-2.54665
700,-62,55.2208,2.57275,0.000643894,-0.00118971,0.0017767,0.00172639,-0.00227221,0.54721,0.00231575,0.031552,1924,1086,55.2208,-2.57276
707,-62,55.1777,2.58521,0.000508691,-0.000894978,0.00208335,0.00200525,-0.00239153,0.622929,0.00254174,0.0217888,1931,1086,55.1777,-2.58521
714,-62,55.1837,2.56714,0.00023169,-0.000474999,0.00238513,0.00228951,-0.00253282,0.711861,0.00278535,0.0395012,1938,1086,55.1837,-2.56719
721,-62,55.2363,2.62024,0,0,0,0,0,0,0,-1,1945,1086,55.2363,-2.62018
728,-62,53.4552,7.08289,0,0,0,0,0,0,0,-1,1952,1086,53.4553,-7.0829
735,-62,53.4147,6.69226,-0.00112869,0.00159928,0.00267135,0.00323472,-0.00276413,1.02144,0.00346699,0.0262003,1959,1086,53.4147,-6.69221
742,-62,53.3777,6.45898,-0.00138747,0.00275337,0.00239141,0.00384609,-0.00248019,1.14219,0.00368075,0.0267277,1966,1086,53.3777,-6.45894
749,-62,53.3398,6.15015,-0.00167353,0.00428748,0.00244751,0.00516362,-0.00254967,1.22704,0.00453771,0.0202317,1973,1086,53.3398,-6.15013
756,-62,53.2617,5.90967,-0.00213601,0.00676513,0.00302063,0.00769339,-0.00306427,1.27265,0.00639974,0.0149864,1980,1086,53.2618,-5.90967
763,-62,53.2483,5.60925,-0.00243875,0.00960822,0.00361241,0.0106084,-0.00343893,1.30069,0.00845501,0.0165102,1987,1086,53.2483,-5.60926
770,-62,53.2273,5.30591,-0.00240689,0.0136963,0.00433981,0.0147914,-0.00350199,1.32362,0.0112121,0.0139844,1994,1086,53.2273,-5.3059
777,-62,53.0977,4.96606,-0.00187401,0.0188339,0.00595983,0.0204267,-0.00346676,1.30965,0.0149084,0.0150616,2001,1086,53.0977,-4.96606
784,-62,52.9614,4.57056,-0.000961199,0.0243773,0.00857452,0.0270061,-0.00359006,1.2733,0.0193123,0.0274819,2008,1086,52.9615,-4.57051
791,-62,53.1316,4.28906,0.000312713,0.0302558,0.0123118,0.0346679,-0.00409946,1.22669,0.0245926,0.0428583,2015,1086,53.1316,-4.28902
798,-62,53.345,4.34363,0.00214656,0.0364441,0.0177352,0.0439655,-0.00537485,1.16969,0.0312564,0.0446789,2022,1086,53.3449,-4.34364
805,-62,53.4875,4.53259,0.00452663,0.0427064,0.0251509,0.0551917,-0.00795868,1.11002,0.0397141,0.0435495,2029,1086,53.4875,-4.53265
812,-62,53.2104,4.80469,0.0071377,0.0485038,0.0353854,0.0688075,-0.013166,1.04987,0.0508319,0.0462523,2036,1086,53.2104,-4.80474
-700,-69,-39.1645,-0.413818,0,0,0,0,0,0,0,-1,524,1093,-39.1645,0.413816
-693,-69,-39.3092,-0.359009,0,0,0,0,0,0,0,-1,531,1093,-39.3092,0.359053
-686,-69,-37.3751,-0.546021,-0.0460665,0.0464254,0.0082688,0.0471588,-0.0467999,1.48233,0.0542472,0.0461884,538,1093,-37.3751,0.546078
-679,-69,-38.0451,-0.315308,-0.0409184,0.03877,0.00914541,0.0398061,-0.0419545,1.45799,0.04721,0.0463411,545,1093,-38.0451,0.315289
-672,-69,-38.4542,0.204956,-0.0352083,0.0320064,0.00923841,0.0332531,-0.0364549,1.43666,0.0402601,0.0482038,552,1093,-38.4542,-0.204975
-665,-69,-38.7167,0.753906,-0.0293871,0.0260391,0.00871787,0.027378,-0.0307259,1.41841,0.0335649,0.047024,559,1093,-38.7167,-0.753904
-658,-69,-39.4222,1.42407,-0.0236715,0.0208092,0.00772685,0.0221132,-0.0249755,1.40361,0.0272034,0.0467174,566,1093,-39.4222,-1.4241
-651,-69,-39.324,1.76257,-0.0182721,0.0162414,0.00639738,0.017389,-0.0194197,1.39329,0.0212623,0.0359351,573,1093,-39.324,-1.76261
-644,-69,-39.3103,2.12415,-0.0137134,0.0120846,0.00534671,0.0131488,-0.0147776,1.37432,0.0161325,0.0112485,580,1093,-39.3103,-2.12415
-637,-69,-39.3389,2.52588,-0.00917391,0.00830551,0.00381129,0.00910039,-0.00996879,1.36518,0.0110134,0.0126103,587,1093,-39.339,-2.52585
-630,-69,-39.3837,2.86389,-0.00503926,0.00534314,0.00199461,0.00571314,-0.00540927,1.38738,0.00642233,0.0149229,594,1093,-39.3837,-2.86395
-623,-69,-39.4004,3.23303,-0.00235496,0.00292834,0.000382655,0.00295591,-0.00238254,1.49887,0.00308807,0.0173442,601,1093,-39.4004,-3.23304
-616,-69,-39.4172,3.57837,-8.53086e-05,0.00128338,-0.000334029,0.00136055,-0.000162478,-1.34375,0.000965757,0.0202564,608,1093,-39.4172,-3.57835
-609,-69,-39.4194,3.92615,0.00138638,0.000516199,-0.000528341,0.00163572,0.000266857,-0.440944,0.00101331,0.0185828,615,1093,-39.4195,-3.92621
-602,-69,-39.3855,4.33887,0.00199536,-0.000143776,-0.000872615,0.00230616,-0.000454582,-0.342168,0.00170924,0.0197198,622,1093,-39.3855,-4.33888
-595,-69,-39.2563,4.6521,0.00213297,-0.000743357,-0.00115311,0.00253817,-0.00114855,-0.337916,0.00217834,0.0390495,629,1093,-39.2563,-4.65214
-588,-69,-39.2011,4.98914,0,0,0,0,0,0,0,-1,636,1093,-39.2011,-4.98909
-581,-69,-41.304,0.857788,0,0,0,0,0,0,0,-1,643,1093,-41.304,-0.857779
-574,-69,-41.4066,0.846191,0.00209184,-0.00199008,-0.000526683,0.0021587,-0.00205695,-0.126273,0.00243414,0.0322412,650,1093,-41.4066,-0.846173
-567,-69,-41.2789,1.01367,0.0017976,-0.00215907,-0.000301834,0.00182049,-0.00218196,-0.0757012,0.00231396,0.0349119,657,1093,-41.2789,-1.01371
-560,-69,-41.1349,1.18384,0.00118526,-0.00231278,-3.47976e-05,0.00118561,-0.00231313,-0.00994642,0.00205466,0.0385117,664,1093,-41.1349,-1.18389
-553,-69,-41.2229,0.984375,0.000196847,-0.00260083,0.000327474,0.000234667,-0.00263865,0.114982,0.00184231,0.0378702,671,1093,-41.2229,-0.984392
-546,-69,-41.266,0.762817,-0.000973089,-0.00324119,0.000912868,-0.000651325,-0.00356296,0.338879,0.00219071,0.0362102,678,1093,-41.266,-0.762815
-539,-69,-41.3367,0.949585,-0.00183152,-0.0047613,0.00163101,-0.00110413,-0.0054887,0.419502,0.00335226,0.0397675,685,1093,-41.3367,-0.949572
-532,-69,-41.3529,1.0813,-0.00289948,-0.00604116,0.00291518,-0.00115886,-0.00778179,0.538277,0.00484796,0.0413718,692,1093,-41.3529,-1.08129
-525,-69,0,0,0,0,0,0,0,0,0,-1,699,1093,0,0
-518,-69,0,0,0,0,0,0,0,0,0,-1,706,1093,0,0
-511,-69,0,0,0,0,0,0,0,0,0,-1,713,1093,0,0
-504,-69,0,0,0,0,0,0,0,0,0,-1,720,1093,0,0
-497,-69,0,0,0,0,0,0,0,0,0,-1,727,1093,0,0
-490,-69,0,0,0,0,0,0,0,0,0,-1,734,1093,0,0
-483,-69,0,0,0,0,0,0,0,0,0,-1,741,1093,0,0
-476,-69,0,0,0,0,0,0,0,0,0,-1,748,1093,0,0
-469,-69,0,0,0,0,0,0,0,0,0,-1,755,1093,0,0
-462,-69,0,0,0,0,0,0,0,0,0,-1,762,1093,0,0
-455,-69,0,0,0,0,0,0,0,0,0,-1,769,1093,0,0
-448,-69,0,0,0,0,0,0,0,0,0,-1,776,1093,0,0
-441,-69,0,0,0,0,0,0,0,0,0,-1,783,1093,0,0
-434,-69,0,0,0,0,0,0,0,0,0,-1,790,1093,0,0
-427,-69,0,0,0,0,0,0,0,0,0,-1,797,1093,0,0
-420,-69,0,0,0,0,0,0,0,0,0,-1,804,1093,0,0
-413,-69,0,0,0,0,0,0,0,0,0,-1,811,1093,0,0
-406,-69,0,0,0,0,0,0,0,0,0,-1,818,1093,0,0
-399,-69,0,0,0,0,0,0,0,0,0,-1,825,1093,0,0
-392,-69,0,0,0,0,0,0,0,0,0,-1,832,1093,0,0
-385,-69,0,0,0,0,0,0,0,0,0,-1,839,1093,0,0
-378,-69,0,0,0,0,0,0,0,0,0,-1,846,1093,0,0
-371,-69,0,0,0,0,0,0,0,0,0,-1,853,1093,0,0
-364,-69,0,0,0,0,0,0,0,0,0,-1,860,1093,0,0
-357,-69,0,0,0,0,0,0,0,0,0,-1,867,1093,0,0
-350,-69,0,0,0,0,0,0,0,0,0,-1,874,1093,0,0
-343,-69,0,0,0,0,0,0,0,0,0,-1,881,1093,0,0
-336,-69,0,0,0,0,0,0,0,0,0,-1,888,1093,0,0
-329,-69,0,0,0,0,0,0,0,0,0,-1,895,1093,0,0
-322,-69,0,0,0,0,0,0,0,0,0,-1,902,1093,0,0
-315,-69,0,0,0,0,0,0,0,0,0,-1,909,1093,0,0
-308,-69,0,0,0,0,0,0,0,0,0,-1,916,1093,0,0
-301,-69,0,0,0,0,0,0,0,0,0,-1,923,1093,0,0
-294,-69,0,0,0,0,0,0,0,0,0,-1,930,1093,0,0
-287,-69,0,0,0,0,0,0,0,0,0,-1,937,1093,0,0
-280,-69,0,0,0,0,0,0,0,0,0,-1,944,1093,0,0
-273,-69,0,0,0,0,0,0,0,0,0,-1,951,1093,0,0
-266,-69,0,0,0,0,0,0,0,0,0,-1,958,1093,0,0
-259,-69,0,0,0,0,0,0,0,0,0,-1,965,1093,0,0
-252,-69,0,0,0,0,0,0,0,0,0,-1,972,1093,0,0
-245,-69,0,0,0,0,0,0,0,0,0,-1,979,1093,0,0
-238,-69,0,0,0,0,0,0,0,0,0,-1,986,1093,0,0
-231,-69,0,0,0,0,0,0,0,0,0,-1,993,1093,0,0
-224,-69,0,0,0,0,0,0,0,0,0,-1,1000,1093,0,0
-217,-69,0,0,0,0,0,0,0,0,0,-1,1007,1093,0,0
-210,-69,0,0,0,0,0,0,0,0,0,-1,1014,1093,0,0
-203,-69,0,0,0,0,0,0,0,0,0,-1,1021,1093,0,0
-196,-69,0,0,0,0,0,0,0,0,0,-1,1028,1093,0,0
-189,-69,0,0,0,0,0,0,0,0,0,-1,1035,1093,0,0
-182,-69,0,0,0,0,0,0,0,0,0,-1,1042,1093,0,0
-175,-69,0,0,0,0,0,0,0,0,0,-1,1049,1093,0,0
-168,-69,0,0,0,0,0,0,0,0,0,-1,1056,1093,0,0
-161,-69,0,0,0,0,0,0,0,0,0,-1,1063,1093,0,0
-154,-69,0,0,0,0,0,0,0,0,0,-1,1070,1093,0,0
-147,-69,0,0,0,0,0,0,0,0,0,-1,1077,1093,0,0
-140,-69,0,0,0,0,0,0,0,0,0,-1,1084,1093,0,0
-133,-69,0,0,0,0,0,0,0,0,0,-1,1091,1093,0,0
-126,-69,0,0,0,0,0,0,0,0,0,-1,1098,1093,0,0
-119,-69,0,0,0,0,0,0,0,0,0,-1,1105,1093,0,0
-112,-69,0,0,0,0,0,0,0,0,0,-1,1112,1093,0,0
-105,-69,0,0,0,0,0,0,0,0,0,-1,1119,1093,0,0
-98,-69,0,0,0,0,0,0,0,0,0,-1,1126,1093,0,0
-91,-69,0,0,0,0,0,0,0,0,0,-1,1133,1093,0,0
-84,-69,0,0,0,0,0,0,0,0,0,-1,1140,1093,0,0
-77,-69,0,0,0,0,0,0,0,0,0,-1,1147,1093,0,0
-70,-69,0,0,0,0,0,0,0,0,0,-1,1154,1093,0,0
-63,-69,0,0,0,0,0,0,0,0,0,-1,1161,1093,0,0
-56,-69,0,0,0,0,0,0,0,0,0,-1,1168,1093,0,0
-49,-69,0,0,0,0,0,0,0,0,0,-1,1175,1093,0,0
-42,-69,0,0,0,0,0,0,0,0,0,-1,1182,1093,0,0
-35,-69,0,0,0,0,0,0,0,0,0,-1,1189,1093,0,0
-28,-69,0,0,0,0,0,0,0,0,0,-1,1196,1093,0,0
-21,-69,0,0,0,0,0,0,0,0,0,-1,1203,1093,0,0
-14,-69,0,0,0,0,0,0,0,0,0,-1,1210,1093,0,0
-7,-69,0,0,0,0,0,0,0,0,0,-1,1217,1093,0,0
0,-69,0,0,0,0,0,0,0,0,0,-1,1224,1093,0,0
7,-69,0,0,0,0,0,0,0,0,0,-1,1231,1093,0,0
14,-69,0,0,0,0,0,0,0,0,0,-1,1238,1093,0,0
21,-69,0,0,0,0,0,0,0,0,0,-1,1245,1093,0,0
28,-69,0,0,0,0,0,0,0,0,0,-1,1252,1093,0,0
35,-69,0,0,0,0,0,0,0,0,0,-1,1259,1093,0,0
42,-69,0,0,0,0,0,0,0,0,0,-1,1266,1093,0,0
49,-69,0,0,0,0,0,0,0,0,0,-1,1273,1093,0,0
56,-69,0,0,0,0,0,0,0,0,0,-1,1280,1093,0,0
63,-69,0,0,0,0,0,0,0,0,0,-1,1287,1093,0,0
70,-69,0,0,0,0,0,0,0,0,0,-1,1294,1093,0,0
77,-69,0,0,0,0,0,0,0,0,0,-1,1301,1093,0,0
84,-69,0,0,0,0,0,0,0,0,0,-1,1308,1093,0,0
91,-69,0,0,0,0,0,0,0,0,0,-1,1315,1093,0,0
98,-69,0,0,0,0,0,0,0,0,0,-1,1322,1093,0,0
105,-69,0,0,0,0,0,0,0,0,0,-1,1329,1093,0,0
112,-69,0,0,0,0,0,0,0,0,0,-1,1336,1093,0,0
119,-69,0,0,0,0,0,0,0,0,0,-1,1343,1093,0,0
126,-69,0,0,0,0,0,0,0,0,0,-1,1350,1093,0,0
133,-69,0,0,0,0,0,0,0,0,0,-1,1357,1093,0,0
140,-69,0,0,0,0,0,0,0,0,0,-1,1364,1093,0,0
147,-69,0,0,0,0,0,0,0,0,0,-1,1371,1093,0,0
154,-69,0,0,0,0,0,0,0,0,0,-1,1378,1093,0,0
161,-69,0,0,0,0,0,0,0,0,0,-1,1385,1093,0,0
168,-69,0,0,0,0,0,0,0,0,0,-1,1392,1093,0,0
175,-69,0,0,0,0,0,0,0,0,0,-1,1399,1093,0,0
182,-69,0,0,0,0,0,0,0,0,0,-1,1406,1093,0,0
189,-69,0,0,0,0,0,0,0,0,0,-1,1413,1093,0,0
196,-69,0,0,0,0,0,0,0,0,0,-1,1420,1093,0,0
203,-69,0,0,0,0,0,0,0,0,0,-1,1427,1093,0,0
210,-69,0,0,0,0,0,0,0,0,0,-1,1434,1093,0,0
217,-69,0,0,0,0,0,0,0,0,0,-1,1441,1093,0,0
224,-69,0,0,0,0,0,0,0,0,0,-1,1448,1093,0,0
231,-69,0,0,0,0,0,0,0,0,0,-1,1455,1093,0,0
238,-69,0,0,0,0,0,0,0,0,0,-1,1462,1093,0,0
245,-69,0,0,0,0,0,0,0,0,0,-1,1469,1093,0,0
252,-69,0,0,0,0,0,0,0,0,0,-1,1476,1093,0,0
259,-69,0,0,0,0,0,0,0,0,0,-1,1483,1093,0,0
266,-69,0,0,0,0,0,0,0,0,0,-1,1490,1093,0,0
273,-69,0,0,0,0,0,0,0,0,0,-1,1497,1093,0,0
280,-69,0,0,0,0,0,0,0,0,0,-1,1504,1093,0,0
287,-69,0,0,0,0,0,0,0,0,0,-1,1511,1093,0,0
294,-69,0,0,0,0,0,0,0,0,0,-1,1518,1093,0,0
301,-69,0,0,0,0,0,0,0,0,0,-1,1525,1093,0,0
308,-69,0,0,0,0,0,0,0,0,0,-1,1532,1093,0,0
315,-69,0,0,0,0,0,0,0,0,0,-1,1539,1093,0,0
322,-69,0,0,0,0,0,0,0,0,0,-1,1546,1093,0,0
329,-69,0,0,0,0,0,0,0,0,0,-1,1553,1093,0,0
336,-69,0,0,0,0,0,0,0,0,0,-1,1560,1093,0,0
343,-69,0,0,0,0,0,0,0,0,0,-1,1567,1093,0,0
350,-69,0,0,0,0,0,0,0,0,0,-1,1574,1093,0,0
357,-69,0,0,0,0,0,0,0,0,0,-1,1581,1093,0,0
364,-69,0,0,0,0,0,0,0,0,0,-1,1588,1093,0,0
371,-69,0,0,0,0,0,0,0,0,0,-1,1595,1093,0,0
378,-69,0,0,0,0,0,0,0,0,0,-1,1602,1093,0,0
385,-69,0,0,0,0,0,0,0,0,0,-1,1609,1093,0,0
392,-69,0,0,0,0,0,0,0,0,0,-1,1616,1093,0,0
399,-69,0,0,0,0,0,0,0,0,0,-1,1623,1093,0,0
406,-69,0,0,0,0,0,0,0,0,0,-1,1630,1093,0,0
413,-69,0,0,0,0,0,0,0,0,0,-1,1637,1093,0,0
420,-69,0,0,0,0,0,0,0,0,0,-1,1644,1093,0,0
427,-69,0,0,0,0,0,0,0,0,0,-1,1651,1093,0,0
434,-69,0,0,0,0,0,0,0,0,0,-1,1658,1093,0,0
441,-69,0,0,0,0,0,0,0,0,0,-1,1665,1093,0,0
448,-69,0,0,0,0,0,0,0,0,0,-1,1672,1093,0,0
455,-69,0,0,0,0,0,0,0,0,0,-1,1679,1093,0,0
462,-69,0,0,0,0,0,0,0,0,0,-1,1686,1093,0,0
469,-69,0,0,0,0,0,0,0,0,0,-1,1693,1093,0,0
476,-69,0,0,0,0,0,0,0,0,0,-1,1700,1093,0,0
483,-69,0,0,0,0,0,0,0,0,0,-1,1707,1093,0,0
490,-69,0,0,0,0,0,0,0,0,0,-1,1714,1093,0,0
497,-69,0,0,0,0,0,0,0,0,0,-1,1721,1093,0,0
504,-69,0,0,0,0,0,0,0,0,0,-1,1728,1093,0,0
511,-69,0,0,0,0,0,0,0,0,0,-1,1735,1093,0,0
518,-69,0,0,0,0,0,0,0,0,0,-1,1742,1093,0,0
525,-69,0,0,0,0,0,0,0,0,0,-1,1749,1093,0,0
532,-69,0,0,0,0,0,0,0,0,0,-1,1756,1093,0,0
539,-69,0,0,0,0,0,0,0,0,0,-1,1763,1093,0,0
546,-69,0,0,0,0,0,0,0,0,0,-1,1770,1093,0,0
553,-69,0,0,0,0,0,0,0,0,0,-1,1777,1093,0,0
560,-69,0,0,0,0,0,0,0,0,0,-1,1784,1093,0,0
567,-69,0,0,0,0,0,0,0,0,0,-1,1791,1093,0,0
574,-69,0,0,0,0,0,0,0,0,0,-1,1798,1093,0,0
581,-69,0,0,0,0,0,0,0,0,0,-1,1805,1093,0,0
588,-69,0,0,0,0,0,0,0,0,0,-1,1812,1093,0,0
595,-69,0,0,0,0,0,0,0,0,0,-1,1819,1093,0,0
602,-69,0,0,0,0,0,0,0,0,0,-1,1826,1093,0,0
609,-69,0,0,0,0,0,0,0,0,0,-1,1833,1093,0,0
616,-69,0,0,0,0,0,0,0,0,0,-1,1840,1093,0,0
623,-69,0,0,0,0,0,0,0,0,0,-1,1847,1093,0,0
630,-69,0,0,0,0,0,0,0,0,0,-1,1854,1093,0,0
637,-69,0,0,0,0,0,0,0,0,0,-1,1861,1093,0,0
644,-69,0,0,0,0,0,0,0,0,0,-1,1868,1093,0,0
651,-69,55.0809,2.67834,0.00223983,-0.00422983,-0.000651481,0.00230478,-0.00429478,-0.0993686,0.00386757,0.0402273,1875,1093,55.0809,-2.67836
658,-69,55.0828,2.63208,0.00145773,-0.00377654,-0.000236979,0.00146844,-0.00378725,-0.0451513,0.00313127,0.0396226,1882,1093,55.0828,-2.63205
665,-69,55.1208,2.54773,0.000977418,-0.00325985,4.47101e-05,0.00097789,-0.00326032,0.0105501,0.00256248,0.0414024,1889,1093,55.1208,-2.54777
672,-69,54.9966,2.61304,0.000708294,-0.00266874,0.000286229,0.000732383,-0.00269283,0.0839595,0.00208272,0.0385212,1896,1093,54.9965,-2.61307
679,-69,54.9904,2.62109,0.000617518,-0.00201852,0.00046763,0.000698016,-0.00209902,0.170471,0.00168104,0.0389463,1903,1093,54.9904,-2.62109
686,-69,55.1702,2.62073,0.000675321,-0.00165892,0.00076244,0.00090229,-0.00188588,0.289334,0.0016428,0.0408915,1910,1093,55.1702,-2.62067
693,-69,55.1503,2.52783,0.000917332,-0.00144505,0.00101906,0.00129617,-0.00182389,0.355923,0.00180994,0.036797,1917,1093,55.1503,-2.52784
700,-69,55.1365,2.48767,0.00114421,-0.00117884,0.00121861,0.00166618,-0.00170081,0.404689,0.00194397,0.0286341,1924,1093,55.1364,-2.48773
707,-69,55.1392,2.54431,0.00104038,-0.000912772,0.00152978,0.00187872,-0.00175111,0.501318,0.00209612,0.0214319,1931,1093,55.1392,-2.54427
714,-69,55.1583,2.55969,0.000789677,-0.000521266,0.00187067,0.00211638,-0.00184797,0.616885,0.00229057,0.030089,1938,1093,55.1583,-2.55969
721,-69,55.1874,2.58374,0,0,0,0,0,0,0,-1,1945,1093,55.1874,-2.58371
728,-69,52.7505,7.23132,0,0,0,0,0,0,0,-1,1952,1093,52.7505,-7.23132
735,-69,53.0355,6.85767,-0.000495107,0.00136155,0.00228124,0.00289611,-0.00202967,0.978636,0.00285853,0.0384004,1959,1093,53.0356,-6.85761
742,-69,53.0095,6.58301,-0.000784994,0.00246951,0.00211042,0.00350719,-0.00182267,1.11382,0.003128,0.0295787,1966,1093,53.0095,-6.58304
749,-69,52.9276,6.17847,0,0,0,0,0,0,0,-1,1973,1093,52.9276,-6.17847
756,-69,52.8916,5.90186,-0.0018221,0.00664733,0.00327469,0.00776579,-0.00294056,1.24167,0.00638714,0.0173653,1980,1093,52.8917,-5.90189
763,-69,52.8955,5.57373,-0.00229492,0.00975696,0.0043255,0.0111487,-0.00368665,1.25951,0.00891905,0.0178185,1987,1093,52.8955,-5.5737
770,-69,52.8298,5.28149,-0.00257884,0.0142715,0.00578233,0.0160649,-0.00437222,1.27006,0.0124264,0.0190449,1994,1093,52.8299,-5.28151
777,-69,52.6912,4.97571,-0.00250684,0.0199923,0.00840277,0.0227841,-0.00529861,1.25003,0.0172294,0.0250116,2001,1093,52.6912,-4.97566
784,-69,52.5742,4.5675,-0.00211299,0.0263257,0.01221,0.0308487,-0.00663597,1.21604,0.0230977,0.0358552,2008,1093,52.5743,-4.56755
791,-69,52.4294,4.04028,-0.00139877,0.0332764,0.0174262,0.0405206,-0.00864294,1.17682,0.0303083,0.0461748,2015,1093,52.4293,-4.04034
798,-69,52.6992,3.9314,-0.000193592,0.0409158,0.0247016,0.0524962,-0.011774,1.13241,0.0395113,0.0469206,2022,1093,52.6992,-3.93138
805,-69,52.9031,4.18494,0.0014795,0.0490431,0.0343205,0.0670162,-0.0164936,1.08838,0.0510709,0.0463874,2029,1093,52.9031,-4.18496
812,-69,53.0754,4.50354,0.00339962,0.0572686,0.0471968,0.0846757,-0.0240075,1.04469,0.0659265,0.0472919,2036,1093,53.0755,-4.50353
-700,-76,0,0,0,0,0,0,0,0,0,-1,524,1100,0,0
-693,-76,-37.0261,-1.59595,0,0,0,0,0,0,0,-1,531,1100,-37.0261,1.59594
-686,-76,-37.7679,-1.25342,0,0,0,0,0,0,0,-1,538,1100,-37.7679,1.25338
-679,-76,-38.383,-0.795288,0,0,0,0,0,0,0,-1,545,1100,-38.383,0.795317
-672,-76,-35.1011,1.43298,0,0,0,0,0,0,0,-1,552,1100,-35.1011,-1.43304
-665,-76,-39.2781,0.915894,0,0,0,0,0,0,0,-1,559,1100,-39.2782,-0.915915
-658,-76,-39.0717,1.29822,-0.0238857,0.019641,0.00970404,0.0217064,-0.0259511,1.36108,0.0275514,0.0473846,566,1100,-39.0717,-1.29825
-651,-76,-38.7706,1.6947,-0.0183108,0.0151412,0.00760007,0.0167869,-0.0199565,1.35755,0.0212402,0.0317074,573,1100,-38.7706,-1.69473
-644,-76,-38.8192,2.09143,-0.0135744,0.0111195,0.00599886,0.0124997,-0.0149546,1.34466,0.0158718,0.0118903,580,1100,-38.8191,-2.09147
-637,-76,-38.9056,2.46167,-0.00896433,0.00758969,0.00406242,0.00853288,-0.00990753,1.34266,0.0106564,0.0148562,587,1100,-38.9057,-2.46167
-630,-76,-38.9451,2.83301,-0.00477378,0.00477614,0.00207048,0.00520571,-0.00520335,1.36623,0.00600967,0.0159215,594,1100,-38.9451,-2.833
-623,-76,-38.978,3.2113,-0.00200097,0.00244203,0.000431707,0.00248358,-0.00204253,1.47483,0.00261729,0.0177062,601,1100,-38.978,-3.21133
-616,-76,-39.0256,3.60632,0.000367471,0.000951368,-0.000235318,0.0010344,0.000284441,-1.23159,0.000617039,0.0171891,608,1100,-39.0256,-3.60628
-609,-76,-39.022,3.99548,0.00189972,0.000448213,-0.000349101,0.00197931,0.000368615,-0.224175,0.00121545,0.0182875,615,1100,-39.022,-3.99551
-602,-76,-38.9618,4.39294,0.00248968,5.27542e-05,-0.000687956,0.00267048,-0.000128045,-0.256995,0.0018245,0.0195924,622,1100,-38.9618,-4.39294
-595,-76,-38.912,4.69873,0.00250248,-0.000340072,-0.000971411,0.00280273,-0.000640325,-0.299776,0.0021145,0.0340362,629,1100,-38.912,-4.69868
-588,-76,-38.8887,4.99048,0,0,0,0,0,0,0,-1,636,1100,-38.8887,-4.99045
-581,-76,-41.2774,0.689453,0,0,0,0,0,0,0,-1,643,1100,-41.2774,-0.689506
-574,-76,-41.3659,0.733765,0.00235578,-0.00135534,-0.000552696,0.00243635,-0.0014359,-0.144746,0.00226038,0.0349756,650,1100,-41.3659,-0.733711
-567,-76,-41.3698,0.860229,0.00203691,-0.00147936,-0.000423447,0.00208719,-0.00152964,-0.118174,0.00209643,0.0391981,657,1100,-41.3698,-0.86018
-560,-76,-41.4887,0.935059,0.00137718,-0.00162817,-0.000263595,0.00140013,-0.00165112,-0.0868251,0.00176362,0.0405172,664,1100,-41.4887,-0.935117
-553,-76,-41.423,0.886475,0.000205028,-0.00196502,-3.75166e-05,0.000205677,-0.00196567,-0.0172815,0.00138411,0.0409538,671,1100,-41.423,-0.88642
-546,-76,-41.2781,0.813232,-0.00122314,-0.00275212,0.000404425,-0.00112276,-0.0028525,0.243293,0.00165928,0.0417946,678,1100,-41.2781,-0.813255
-539,-76,-41.2357,0.859497,-0.00222618,-0.00458764,0.00106187,-0.00181893,-0.0049949,0.366224,0.00291907,0.0417057,685,1100,-41.2357,-0.859456
-532,-76,-41.1904,0.981689,-0.00332081,-0.00623172,0.00221385,-0.00212683,-0.0074257,0.494607,0.00441569,0.0410705,692,1100,-41.1904,-0.981655
-525,-76,0,0,0,0,0,0,0,0,0,-1,699,1100,0,0
-518,-76,0,0,0,0,0,0,0,0,0,-1,706,1100,0,0
-511,-76,0,0,0,0,0,0,0,0,0,-1,713,1100,0,0
-504,-76,0,0,0,0,0,0,0,0,0,-1,720,1100,0,0
-497,-76,0,0,0,0,0,0,0,0,0,-1,727,1100,0,0
-490,-76,0,0,0,0,0,0,0,0,0,-1,734,1100,0,0
-483,-76,0,0,0,0,0,0,0,0,0,-1,741,1100,0,0
-476,-76,0,0,0,0,0,0,0,0,0,-1,748,1100,0,0
-469,-76,0,0,0,0,0,0,0,0,0,-1,755,1100,0,0
-462,-76,0,0,0,0,0,0,0,0,0,-1,762,1100,0,0
-455,-76,0,0,0,0,0,0,0,0,0,-1,769,1100,0,0
-448,-76,0,0,0,0,0,0,0,0,0,-1,776,1100,0,0
-441,-76,0,0,0,0,0,0,0,0,0,-1,783,1100,0,0
-434,-76,0,0,0,0,0,0,0,0,0,-1,790,1100,0,0
-427,-76,0,0,0,0,0,0,0,0,0,-1,797,1100,0,0
-420,-76,0,0,0,0,0,0,0,0,0,-1,804,1100,0,0
-413,-76,0,0,0,0,0,0,0,0,0,-1,811,1100,0,0
-406,-76,0,0,0,0,0,0,0,0,0,-1,818,1100,0,0
-399,-76,0,0,0,0,0,0,0,0,0,-1,825,1100,0,0
-392,-76,0,0,0,0,0,0,0,0,0,-1,832,1100,0,0
-385,-76,0,0,0,0,0,0,0,0,0,-1,839,1100,0,0
-378,-76,0,0,0,0,0,0,0,0,0,-1,846,1100,0,0
-371,-76,0,0,0,0,0,0,0,0,0,-1,853,1100,0,0
-364,-76,0,0,0,0,0,0,0,0,0,-1,860,1100,0,0
-357,-76,0,0,0,0,0,0,0,0,0,-1,867,1100,0,0
-350,-76,0,0,0,0,0,0,0,0,0,-1,874,1100,0,0
-343,-76,0,0,0,0,0,0,0,0,0,-1,881,1100,0,0
-336,-76,0,0,0,0,0,0,0,0,0,-1,888,1100,0,0
-329,-76,0,0,0,0,0,0,0,0,0,-1,895,1100,0,0
-322,-76,0,0,0,0,0,0,0,0,0,-1,902,1100,0,0
-315,-76,0,0,0,0,0,0,0,0,0,-1,909,1100,0,0
-308,-76,0,0,0,0,0,0,0,0,0,-1,916,1100,0,0
-301,-76,0,0,0,0,0,0,0,0,0,-1,923,1100,0,0
-294,-76,0,0,0,0,0,0,0,0,0,-1,930,1100,0,0
-287,-76,0,0,0,0,0,0,0,0,0,-1,937,1100,0,0
-280,-76,0,0,0,0,0,0,0,0,0,-1,944,1100,0,0
-273,-76,0,0,0,0,0,0,0,0,0,-1,951,1100,0,0
-266,-76,0,0,0,0,0,0,0,0,0,-1,958,1100,0,0
-259,-76,0,0,0,0,0,0,0,0,0,-1,965,1100,0,0
-252,-76,0,0,0,0,0,0,0,0,0,-1,972,1100,0,0
-245,-76,0,0,0,0,0,0,0,0,0,-1,979,1100,0,0
-238,-76,0,0,0,0,0,0,0,0,0,-1,986,1100,0,0
-231,-76,0,0,0,0,0,0,0,0,0,-1,993,1100,0,0
-224,-76,0,0,0,0,0,0,0,0,0,-1,1000,1100,0,0
-217,-76,0,0,0,0,0,0,0,0,0,-1,1007,1100,0,0
-210,-76,0,0,0,0,0,0,0,0,0,-1,1014,1100,0,0
-203,-76,0,0,0,0,0,0,0,0,0,-1,1021,1100,0,0
-196,-76,0,0,0,0,0,0,0,0,0,-1,1028,1100,0,0
-189,-76,0,0,0,0,0,0,0,0,0,-1,1035,1100,0,0
-182,-76,0,0,0,0,0,0,0,0,0,-1,1042,1100,0,0
-175,-76,0,0,0,0,0,0,0,0,0,-1,1049,1100,0,0
-168,-76,0,0,0,0,0,0,0,0,0,-1,1056,1100,0,0
-161,-76,0,0,0,0,0,0,0,0,0,-1,1063,1100,0,0
-154,-76,0,0,0,0,0,0,0,0,0,-1,1070,1100,0,0
-147,-76,0,0,0,0,0,0,0,0,0,-1,1077,1100,0,0
-140,-76,0,0,0,0,0,0,0,0,0,-1,1084,1100,0,0
-133,-76,0,0,0,0,0,0,0,0,0,-1,1091,1100,0,0
-126,-76,0,0,0,0,0,0,0,0,0,-1,1098,1100,0,0
-119,-76,0,0,0,0,0,0,0,0,0,-1,1105,1100,0,0
-112,-76,0,0,0,0,0,0,0,0,0,-1,1112,1100,0,0
-105,-76,0,0,0,0,0,0,0,0,0,-1,1119,1100,0,0
-98,-76,0,0,0,0,0,0,0,0,0,-1,1126,1100,0,0
-91,-76,0,0,0,0,0,0,0,0,0,-1,1133,1100,0,0
-84,-76,0,0,0,0,0,0,0,0,0,-1,1140,1100,0,0
-77,-76,0,0,0,0,0,0,0,0,0,-1,1147,1100,0,0
-70,-76,0,0,0,0,0,0,0,0,0,-1,1154,1100,0,0
-63,-76,0,0,0,0,0,0,0,0,0,-1,1161,1100,0,0
-56,-76,0,0,0,0,0,0,0,0,0,-1,1168,1100,0,0
-49,-76,0,0,0,0,0,0,0,0,0,-1,1175,1100,0,0
-42,-76,0,0,0,0,0,0,0,0,0,-1,1182,1100,0,0
-35,-76,0,0,0,0,0,0,0,0,0,-1,1189,1100,0,0
-28,-76,0,0,0,0,0,0,0,0,0,-1,1196,1100,0,0
-21,-76,0,0,0,0,0,0,0,0,0,-1,1203,1100,0,0
-14,-76,0,0,0,0,0,0,0,0,0,-1,1210,1100,0,0
-7,-76,0,0,0,0,0,0,0,0,0,-1,1217,1100,0,0
0,-76,0,0,0,0,0,0,0,0,0,-1,1224,1100,0,0
7,-76,0,0,0,0,0,0,0,0,0,-1,1231,1100,0,0
14,-76,0,0,0,0,0,0,0,0,0,-1,1238,1100,0,0
21,-76,0,0,0,0,0,0,0,0,0,-1,1245,1100,0,0
28,-76,0,0,0,0,0,0,0,0,0,-1,1252,1100,0,0
35,-76,0,0,0,0,0,0,0,0,0,-1,1259,1100,0,0
42,-76,0,0,0,0,0,0,0,0,0,-1,1266,1100,0,0
49,-76,0,0,0,0,0,0,0,0,0,-1,1273,1100,0,0
56,-76,0,0,0,0,0,0,0,0,0,-1,1280,1100,0,0
63,-76,0,0,0,0,0,0,0,0,0,-1,1287,1100,0,0
70,-76,0,0,0,0,0,0,0,0,0,-1,1294,1100,0,0
77,-76,0,0,0,0,0,0,0,0,0,-1,1301,1100,0,0
84,-76,0,0,0,0,0,0,0,0,0,-1,1308,1100,0,0
91,-76,0,0,0,0,0,0,0,0,0,-1,1315,1100,0,0
98,-76,0,0,0,0,0,0,0,0,0,-1,1322,1100,0,0
105,-76,0,0,0,0,0,0,0,0,0,-1,1329,1100,0,0
112,-76,0,0,0,0,0,0,0,0,0,-1,1336,1100,0,0
119,-76,0,0,0,0,0,0,0,0,0,-1,1343,1100,0,0
126,-76,0,0,0,0,0,0,0,0,0,-1,1350,1100,0,0
133,-76,0,0,0,0,0,0,0,0,0,-1,1357,1100,0,0
140,-76,0,0,0,0,0,0,0,0,0,-1,1364,1100,0,0
147,-76,0,0,0,0,0,0,0,0,0,-1,1371,1100,0,0
154,-76,0,0,0,0,0,0,0,0,0,-1,1378,1100,0,0
161,-76,0,0,0,0,0,0,0,0,0,-1,1385,1100,0,0
168,-76,0,0,0,0,0,0,0,0,0,-1,1392,1100,0,0
175,-76,0,0,0,0,0,0,0,0,0,-1,1399,1100,0,0
182,-76,0,0,0,0,0,0,0,0,0,-1,1406,1100,0,0
189,-76,0,0,0,0,0,0,0,0,0,-1,1413,1100,0,0
196,-76,0,0,0,0,0,0,0,0,0,-1,1420,1100,0,0
203,-76,0,0,0,0,0,0,0,0,0,-1,1427,1100,0,0
210,-76,0,0,0,0,0,0,0,0,0,-1,1434,1100,0,0
217,-76,0,0,0,0,0,0,0,0,0,-1,1441,1100,0,0
224,-76,0,0,0,0,0,0,0,0,0,-1,1448,1100,0,0
231,-76,0,0,0,0,0,0,0,0,0,-1,1455,1100,0,0
238,-76,0,0,0,0,0,0,0,0,0,-1,1462,1100,0,0
245,-76,0,0,0,0,0,0,0,0,0,-1,1469,1100,0,0
252,-76,0,0,0,0,0,0,0,0,0,-1,1476,1100,0,0
259,-76,0,0,0,0,0,0,0,0,0,-1,1483,1100,0,0
266,-76,0,0,0,0,0,0,0,0,0,-1,1490,1100,0,0
273,-76,0,0,0,0,0,0,0,0,0,-1,1497,1100,0,0
280,-76,0,0,0,0,0,0,0,0,0,-1,1504,1100,0,0
287,-76,0,0,0,0,0,0,0,0,0,-1,1511,1100,0,0
294,-76,0,0,0,0,0,0,0,0,0,-1,1518,1100,0,0
301,-76,0,0,0,0,0,0,0,0,0,-1,1525,1100,0,0
308,-76,0,0,0,0,0,0,0,0,0,-1,1532,1100,0,0
315,-76,0,0,0,0,0,0,0,0,0,-1,1539,1100,0,0
322,-76,0,0,0,0,0,0,0,0,0,-1,1546,1100,0,0
329,-76,0,0,0,0,0,0,0,0,0,-1,1553,1100,0,0
336,-76,0,0,0,0,0,0,0,0,0,-1,1560,1100,0,0
343,-76,0,0,0,0,0,0,0,0,0,-1,1567,1100,0,0
350,-76,0,0,0,0,0,0,0,0,0,-1,1574,1100,0,0
357,-76,0,0,0,0,0,0,0,0,0,-1,1581,1100,0,0
364,-76,0,0,0,0,0,0,0,0,0,-1,1588,1100,0,0
371,-76,0,0,0,0,0,0,0,0,0,-1,1595,1100,0,0
378,-76,0,0,0,0,0,0,0,0,0,-1,1602,1100,0,0
385,-76,0,0,0,0,0,0,0,0,0,-1,1609,1100,0,0
392,-76,0,0,0,0,0,0,0,0,0,-1,1616,1100,0,0
399,-76,0,0,0,0,0,0,0,0,0,-1,1623,1100,0,0
406,-76,0,0,0,0,0,0,0,0,0,-1,1630,1100,0,0
413,-76,0,0,0,0,0,0,0,0,0,-1,1637,1100,0,0
420,-76,0,0,0,0,0,0,0,0,0,-1,1644,1100,0,0
427,-76,0,0,0,0,0,0,0,0,0,-1,1651,1100,0,0
434,-76,0,0,0,0,0,0,0,0,0,-1,1658,1100,0,0
441,-76,0,0,0,0,0,0,0,0,0,-1,1665,1100,0,0
448,-76,0,0,0,0,0,0,0,0,0,-1,1672,1100,0,0
455,-76,0,0,0,0,0,0,0,0,0,-1,1679,1100,0,0
462,-76,0,0,0,0,0,0,0,0,0,-1,1686,1100,0,0
469,-76,0,0,0,0,0,0,0,0,0,-1,1693,1100,0,0
476,-76,0,0,0,0,0,0,0,0,0,-1,1700,1100,0,0
483,-76,0,0,0,0,0,0,0,0,0,-1,1707,1100,0,0
490,-76,0,0,0,0,0,0,0,0,0,-1,1714,1100,0,0
497,-76,0,0,0,0,0,0,0,0,0,-1,1721,1100,0,0
504,-76,0,0,0,0,0,0,0,0,0,-1,1728,1100,0,0
511,-76,0,0,0,0,0,0,0,0,0,-1,1735,1100,0,0
518,-76,0,0,0,0,0,0,0,0,0,-1,1742,1100,0,0
525,-76,0,0,0,0,0,0,0,0,0,-1,1749,1100,0,0
532,-76,0,0,0,0,0,0,0,0,0,-1,1756,1100,0,0
539,-76,0,0,0,0,0,0,0,0,0,-1,1763,1100,0,0
546,-76,0,0,0,0,0,0,0,0,0,-1,1770,1100,0,0
553,-76,0,0,0,0,0,0,0,0,0,-1,1777,1100,0,0
560,-76,0,0,0,0,0,0,0,0,0,-1,1784,1100,0,0
567,-76,0,0,0,0,0,0,0,0,0,-1,1791,1100,0,0
574,-76,0,0,0,0,0,0,0,0,0,-1,1798,1100,0,0
581,-76,0,0,0,0,0,0,0,0,0,-1,1805,1100,0,0
588,-76,0,0,0,0,0,0,0,0,0,-1,1812,1100,0,0
595,-76,0,0,0,0,0,0,0,0,0,-1,1819,1100,0,0
602,-76,0,0,0,0,0,0,0,0,0,-1,1826,1100,0,0
609,-76,0,0,0,0,0,0,0,0,0,-1,1833,1100,0,0
616,-76,0,0,0,0,0,0,0,0,0,-1,1840,1100,0,0
623,-76,0,0,0,0,0,0,0,0,0,-1,1847,1100,0,0
630,-76,0,0,0,0,0,0,0,0,0,-1,1854,1100,0,0
637,-76,0,0,0,0,0,0,0,0,0,-1,1861,1100,0,0
644,-76,0,0,0,0,0,0,0,0,0,-1,1868,1100,0,0
651,-76,54.9546,2.54395,0.00224399,-0.00381246,-0.000593617,0.00230162,-0.0038701,-0.0967867,0.0036014,0.0399846,1875,1100,54.9546,-2.54397
658,-76,54.8932,2.61255,0.0015897,-0.00334013,-0.000308473,0.00160893,-0.00335935,-0.0622491,0.00292718,0.0388142,1882,1100,54.8932,-2.61258
665,-76,55.0112,2.50793,0.00116977,-0.00281427,-0.000114873,0.00117308,-0.00281758,-0.0288015,0.00236832,0.038113,1889,1100,55.0112,-2.50798
672,-76,54.9489,2.61438,0.000921183,-0.00223464,3.30409e-05,0.000921528,-0.00223499,0.0104683,0.00187427,0.0367388,1896,1100,54.9489,-2.61433
679,-76,54.9741,2.69482,0.000834084,-0.0016358,0.00011972,0.000839874,-0.00164159,0.0483208,0.00145738,0.0371048,1903,1100,54.9741,-2.69477
686,-76,55.1436,2.74377,0.000961932,-0.00133461,0.000360597,0.00101722,-0.0013899,0.152141,0.00139529,0.0377666,1910,1100,55.1435,-2.74383
693,-76,55.165,2.62476,0.00126071,-0.00117136,0.000583806,0.00139359,-0.00130424,0.223796,0.00155788,0.0380368,1917,1100,55.1651,-2.6247
700,-76,55.1335,2.52148,0.00149482,-0.000971081,0.000767779,0.00171434,-0.00119059,0.278478,0.00168622,0.0330739,1924,1100,55.1336,-2.52151
707,-76,55.1262,2.58948,0.00142481,-0.000755149,0.00106985,0.00186213,-0.00119246,0.388039,0.00177764,0.0243059,1931,1100,55.1263,-2.58953
714,-76,55.1685,2.62744,0,0,0,0,0,0,0,-1,1938,1100,55.1685,-2.62748
721,-76,45.1713,3.04919,0,0,0,0,0,0,0,-1,1945,1100,45.1713,-3.04915
728,-76,51.8995,7.26404,0,0,0,0,0,0,0,-1,1952,1100,51.8995,-7.26403
735,-76,52.3357,6.99622,3.77189e-05,0.0012183,0.00191974,0.00263645,-0.00138043,0.934554,0.00235664,0.0466532,1959,1100,52.3356,-6.99621
742,-76,52.58,6.64941,-0.000265757,0.00222202,0.00183765,0.00319719,-0.00124093,1.08292,0.00264402,0.0310067,1966,1100,52.5799,-6.64943
749,-76,52.4625,6.22729,-0.000784311,0.00376799,0.00228758,0.0047189,-0.00173522,1.17684,0.00385673,0.0286775,1973,1100,52.4625,-6.22725
756,-76,52.52,5.9043,-0.0015227,0.00638741,0.00338804,0.00764017,-0.00277546,1.21663,0.00622826,0.0171523,1980,1100,52.52,-5.90427
763,-76,52.5133,5.55835,-0.00214157,0.00972158,0.00488541,0.0114745,-0.00389445,1.2263,0.00922597,0.0174054,1987,1100,52.5134,-5.55833
770,-76,52.4161,5.2561,-0.00271389,0.0145795,0.00704839,0.0170883,-0.00522269,1.22884,0.0134748,0.0185669,1994,1100,52.4161,-5.25608
777,-76,52.3118,5.01062,-0.0030479,0.0207302,0.010589,0.0247621,-0.00707983,1.20698,0.0193057,0.0233088,2001,1100,52.3118,-5.01068
784,-76,52.4146,4.6449,-0.00311953,0.0277121,0.0155071,0.0341622,-0.00956964,1.17662,0.026546,0.0364555,2008,1100,52.4145,-4.64493
791,-76,52.6082,3.69092,-0.00290516,0.0356425,0.0221795,0.0457525,-0.0130152,1.14311,0.0356412,0.0445275,2015,1100,52.6081,-3.69089
798,-76,52.7043,2.83643,-0.00226154,0.0446794,0.0313095,0.0603388,-0.0179209,1.10703,0.0473439,0.0471175,2022,1100,52.7042,-2.83639
805,-76,52.2302,3.65369,-0.00124356,0.0546616,0.0431696,0.0781383,-0.0247202,1.07271,0.0619974,0.0453165,2029,1100,52.2301,-3.65365
812,-76,52.3684,4.11267,1.60065e-06,0.0653769,0.0587818,0.0999483,-0.0345698,1.03915,0.0806638,0.0468637,2036,1100,52.3684,-4.11263
-700,-83,0,0,0,0,0,0,0,0,0,-1,524,1107,0,0
-693,-83,-37.5278,-2.28418,0,0,0,0,0,0,0,-1,531,1107,-37.5278,2.28421
-686,-83,-38.4236,-1.9613,0,0,0,0,0,0,0,-1,538,1107,-38.4235,1.96134
-679,-83,-36.1735,0.000244141,0,0,0,0,0,0,0,-1,545,1107,-36.1735,-0.000269885
-672,-83,-35.8633,0.919312,-0.0357681,0.0297888,0.0179847,0.0343986,-0.0403778,1.31988,0.0432182,0.0494459,552,1107,-35.8633,-0.919326
-665,-83,-38.6923,0.293335,-0.0295196,0.0235904,0.0146458,0.0273615,-0.0332906,1.31879,0.0350732,0.0486324,559,1107,-38.6923,-0.293294
-658,-83,-38.6144,0.815796,-0.0234744,0.0183578,0.0115021,0.0213118,-0.0264284,1.31941,0.0276155,0.0450837,566,1107,-38.6144,-0.815749
-651,-83,-38.4576,1.40356,-0.0178764,0.0139926,0.00864631,0.0161873,-0.0200711,1.32222,0.0209738,0.034113,573,1107,-38.4576,-1.4036
-644,-83,-38.3986,1.98474,-0.0130739,0.0101855,0.00647759,0.0118677,-0.0147562,1.3167,0.0154015,0.0176844,580,1107,-38.3985,-1.9847
-637,-83,-38.4691,2.41492,-0.00854229,0.00692305,0.00423557,0.00800708,-0.00962632,1.32024,0.0101949,0.0128958,587,1107,-38.4691,-2.41488
-630,-83,-38.5042,2.82996,-0.00445949,0.00429682,0.0021285,0.0047868,-0.00494947,1.34454,0.0056215,0.018409,594,1107,-38.5042,-2.82999
-623,-83,-38.5445,3.18945,-0.00169027,0.00207071,0.000465741,0.00212752,-0.00174709,1.4494,0.0022406,0.0184184,601,1107,-38.5445,-3.18951
-616,-83,-38.618,3.58972,0.000688955,0.000737402,-0.000164859,0.000879808,0.000546549,-0.858343,0.000512909,0.016087,608,1107,-38.6181,-3.58968
-609,-83,-38.5905,3.99182,0.00219263,0.000404416,-0.000237075,0.00222353,0.000373519,-0.129594,0.00137486,0.0197557,615,1107,-38.5904,-3.99183
-602,-83,-38.5739,4.42932,0.00271132,0.000186617,-0.000576659,0.00283679,6.11399e-05,-0.214253,0.00187115,0.0188772,622,1107,-38.5739,-4.4293
-595,-83,-38.4882,4.7887,0.00258636,-0.00010315,-0.000873121,0.00284494,-0.000361738,-0.287934,0.00202799,0.0245757,629,1107,-38.4882,-4.78871
-588,-83,-38.4534,5.0719,0,0,0,0,0,0,0,-1,636,1107,-38.4533,-5.07193
-581,-83,-41.2723,0.682739,0,0,0,0,0,0,0,-1,643,1107,-41.2723,-0.682705
-574,-83,-41.3329,0.723511,0.00241535,-0.00104022,-0.000671707,0.00254133,-0.0011662,-0.185393,0.00218907,0.0367459,650,1107,-41.3329,-0.723544
-567,-83,-41.4431,0.746582,0.00214548,-0.00115086,-0.000636238,0.00226402,-0.0012694,-0.184202,0.00206679,0.0417189,657,1107,-41.4431,-0.746565
-560,-83,-41.4375,0.746826,0.00154766,-0.0012969,-0.000583755,0.00166279,-0.00141204,-0.194735,0.00177722,0.0416549,664,1107,-41.4375,-0.746805
-553,-83,-41.3334,0.899658,0.000317095,-0.00163974,-0.000513036,0.000443443,-0.00176608,-0.24147,0.00134971,0.0403721,671,1107,-41.3334,-0.899603
-546,-83,-41.2452,0.969727,-0.00122577,-0.00242508,-0.000256889,-0.00117306,-0.00247779,-0.20237,0.00143123,0.0400745,678,1107,-41.2452,-0.969754
-539,-83,-41.2087,0.910767,-0.00225101,-0.00430117,0.000290584,-0.00221062,-0.00434156,0.138114,0.00250674,0.0414793,685,1107,-41.2088,-0.910789
-532,-83,-41.2758,0.883667,-0.00327401,-0.00603506,0.00127926,-0.00277242,-0.00653665,0.373673,0.00378839,0.0410584,692,1107,-41.2758,-0.883687
-525,-83,0,0,0,0,0,0,0,0,0,-1,699,1107,0,0
-518,-83,0,0,0,0,0,0,0,0,0,-1,706,1107,0,0
-511,-83,0,0,0,0,0,0,0,0,0,-1,713,1107,0,0
-504,-83,0,0,0,0,0,0,0,0,0,-1,720,1107,0,0
-497,-83,0,0,0,0,0,0,0,0,0,-1,727,1107,0,0
-490,-83,0,0,0,0,0,0,0,0,0,-1,734,1107,0,0
-483,-83,0,0,0,0,0,0,0,0,0,-1,741,1107,0,0
-476,-83,0,0,0,0,0,0,0,0,0,-1,748,1107,0,0
-469,-83,0,0,0,0,0,0,0,0,0,-1,755,1107,0,0
-462,-83,0,0,0,0,0,0,0,0,0,-1,762,1107,0,0
-455,-83,0,0,0,0,0,0,0,0,0,-1,769,1107,0,0
-448,-83,0,0,0,0,0,0,0,0,0,-1,776,1107,0,0
-441,-83,0,0,0,0,0,0,0,0,0,-1,783,1107,0,0
-434,-83,0,0,0,0,0,0,0,0,0,-1,790,1107,0,0
-427,-83,0,0,0,0,0,0,0,0,0,-1,797,1107,0,0
-420,-83,0,0,0,0,0,0,0,0,0,-1,804,1107,0,0
-413,-83,0,0,0,0,0,0,0,0,0,-1,811,1107,0,0
-406,-83,0,0,0,0,0,0,0,0,0,-1,818,1107,0,0
-399,-83,0,0,0,0,0,0,0,0,0,-1,825,1107,0,0
-392,-83,0,0,0,0,0,0,0,0,0,-1,832,1107,0,0
-385,-83,0,0,0,0,0,0,0,0,0,-1,839,1107,0,0
-378,-83,0,0,0,0,0,0,0,0,0,-1,846,1107,0,0
-371,-83,0,0,0,0,0,0,0,0,0,-1,853,1107,0,0
-364,-83,0,0,0,0,0,0,0,0,0,-1,860,1107,0,0
-357,-83,0,0,0,0,0,0,0,0,0,-1,867,1107,0,0
-350,-83,0,0,0,0,0,0,0,0,0,-1,874,1107,0,0
-343,-83,0,0,0,0,0,0,0,0,0,-1,881,1107,0,0
-336,-83,0,0,0,0,0,0,0,0,0,-1,888,1107,0,0
-329,-83,0,0,0,0,0,0,0,0,0,-1,895,1107,0,0
-322,-83,0,0,0,0,0,0,0,0,0,-1,902,1107,0,0
-315,-83,0,0,0,0,0,0,0,0,0,-1,909,1107,0,0
-308,-83,0,0,0,0,0,0,0,0,0,-1,916,1107,0,0
-301,-83,0,0,0,0,0,0,0,0,0,-1,923,1107,0,0
-294,-83,0,0,0,0,0,0,0,0,0,-1,930,1107,0,0
-287,-83,0,0,0,0,0,0,0,0,0,-1,937,1107,0,0
-280,-83,0,0,0,0,0,0,0,0,0,-1,944,1107,0,0
-273,-83,0,0,0,0,0,0,0,0,0,-1,951,1107,0,0
-266,-83,0,0,0,0,0,0,0,0,0,-1,958,1107,0,0
-259,-83,0,0,0,0,0,0,0,0,0,-1,965,1107,0,0
-252,-83,0,0,0,0,0,0,0,0,0,-1,972,1107,0,0
-245,-83,0,0,0,0,0,0,0,0,0,-1,979,1107,0,0
-238,-83,0,0,0,0,0,0,0,0,0,-1,986,1107,0,0
-231,-83,0,0,0,0,0,0,0,0,0,-1,993,1107,0,0
-224,-83,0,0,0,0,0,0,0,0,0,-1,1000,1107,0,0
-217,-83,0,0,0,0,0,0,0,0,0,-1,1007,1107,0,0
-210,-83,0,0,0,0,0,0,0,0,0,-1,1014,1107,0,0
-203,-83,0,0,0,0,0,0,0,0,0,-1,1021,1107,0,0
-196,-83,0,0,0,0,0,0,0,0,0,-1,1028,1107,0,0
-189,-83,0,0,0,0,0,0,0,0,0,-1,1035,1107,0,0
-182,-83,0,0,0,0,0,0,0,0,0,-1,1042,1107,0,0
-175,-83,0,0,0,0,0,0,0,0,0,-1,1049,1107,0,0
-168,-83,0,0,0,0,0,0,0,0,0,-1,1056,1107,0,0
-161,-83,0,0,0,0,0,0,0,0,0,-1,1063,1107,0,0
-154,-83,0,0,0,0,0,0,0,0,0,-1,1070,1107,0,0
-147,-83,0,0,0,0,0,0,0,0,0,-1,1077,1107,0,0
-140,-83,0,0,0,0,0,0,0,0,0,-1,1084,1107,0,0
-133,-83,0,0,0,0,0,0,0,0,0,-1,1091,1107,0,0
-126,-83,0,0,0,0,0,0,0,0,0,-1,1098,1107,0,0
-119,-83,0,0,0,0,0,0,0,0,0,-1,1105,1107,0,0
-112,-83,0,0,0,0,0,0,0,0,0,-1,1112,1107,0,0
-105,-83,0,0,0,0,0,0,0,0,0,-1,1119,1107,0,0
-98,-83,0,0,0,0,0,0,0,0,0,-1,1126,1107,0,0
-91,-83,0,0,0,0,0,0,0,0,0,-1,1133,1107,0,0
-84,-83,0,0,0,0,0,0,0,0,0,-1,1140,1107,0,0
-77,-83,0,0,0,0,0,0,0,0,0,-1,1147,1107,0,0
-70,-83,0,0,0,0,0,0,0,0,0,-1,1154,1107,0,0
-63,-83,0,0,0,0,0,0,0,0,0,-1,1161,1107,0,0
-56,-83,0,0,0,0,0,0,0,0,0,-1,1168,1107,0,0
-49,-83,0,0,0,0,0,0,0,0,0,-1,1175,1107,0,0
-42,-83,0,0,0,0,0,0,0,0,0,-1,1182,1107,0,0
-35,-83,0,0,0,0,0,0,0,0,0,-1,1189,1107,0,0
-28,-83,0,0,0,0,0,0,0,0,0,-1,1196,1107,0,0
-21,-83,0,0,0,0,0,0,0,0,0,-1,1203,1107,0,0
-14,-83,0,0,0,0,0,0,0,0,0,-1,1210,1107,0,0
-7,-83,0,0,0,0,0,0,0,0,0,-1,1217,1107,0,0
0,-83,0,0,0,0,0,0,0,0,0,-1,1224,1107,0,0
7,-83,0,0,0,0,0,0,0,0,0,-1,1231,1107,0,0
14,-83,0,0,0,0,0,0,0,0,0,-1,1238,1107,0,0
21,-83,0,0,0,0,0,0,0,0,0,-1,1245,1107,0,0
28,-83,0,0,0,0,0,0,0,0,0,-1,1252,1107,0,0
35,-83,0,0,0,0,0,0,0,0,0,-1,1259,1107,0,0
42,-83,0,0,0,0,0,0,0,0,0,-1,1266,1107,0,0
49,-83,0,0,0,0,0,0,0,0,0,-1,1273,1107,0,0
56,-83,0,0,0,0,0,0,0,0,0,-1,1280,1107,0,0
63,-83,0,0,0,0,0,0,0,0,0,-1,1287,1107,0,0
70,-83,0,0,0,0,0,0,0,0,0,-1,1294,1107,0,0
77,-83,0,0,0,0,0,0,0,0,0,-1,1301,1107,0,0
84,-83,0,0,0,0,0,0,0,0,0,-1,1308,1107,0,0
91,-83,0,0,0,0,0,0,0,0,0,-1,1315,1107,0,0
98,-83,0,0,0,0,0,0,0,0,0,-1,1322,1107,0,0
105,-83,0,0,0,0,0,0,0,0,0,-1,1329,1107,0,0
112,-83,0,0,0,0,0,0,0,0,0,-1,1336,1107,0,0
119,-83,0,0,0,0,0,0,0,0,0,-1,1343,1107,0,0
126,-83,0,0,0,0,0,0,0,0,0,-1,1350,1107,0,0
133,-83,0,0,0,0,0,0,0,0,0,-1,1357,1107,0,0
140,-83,0,0,0,0,0,0,0,0,0,-1,1364,1107,0,0
147,-83,0,0,0,0,0,0,0,0,0,-1,1371,1107,0,0
154,-83,0,0,0,0,0,0,0,0,0,-1,1378,1107,0,0
161,-83,0,0,0,0,0,0,0,0,0,-1,1385,1107,0,0
168,-83,0,0,0,0,0,0,0,0,0,-1,1392,1107,0,0
175,-83,0,0,0,0,0,0,0,0,0,-1,1399,1107,0,0
182,-83,0,0,0,0,0,0,0,0,0,-1,1406,1107,0,0
189,-83,0,0,0,0,0,0,0,0,0,-1,1413,1107,0,0
196,-83,0,0,0,0,0,0,0,0,0,-1,1420,1107,0,0
203,-83,0,0,0,0,0,0,0,0,0,-1,1427,1107,0,0
210,-83,0,0,0,0,0,0,0,0,0,-1,1434,1107,0,0
217,-83,0,0,0,0,0,0,0,0,0,-1,1441,1107,0,0
224,-83,0,0,0,0,0,0,0,0,0,-1,1448,1107,0,0
231,-83,0,0,0,0,0,0,0,0,0,-1,1455,1107,0,0
238,-83,0,0,0,0,0,0,0,0,0,-1,1462,1107,0,0
245,-83,0,0,0,0,0,0,0,0,0,-1,1469,1107,0,0
252,-83,0,0,0,0,0,0,0,0,0,-1,1476,1107,0,0
259,-83,0,0,0,0,0,0,0,0,0,-1,1483,1107,0,0
266,-83,0,0,0,0,0,0,0,0,0,-1,1490,1107,0,0
273,-83,0,0,0,0,0,0,0,0,0,-1,1497,1107,0,0
280,-83,0,0,0,0,0,0,0,0,0,-1,1504,1107,0,0
287,-83,0,0,0,0,0,0,0,0,0,-1,1511,1107,0,0
294,-83,0,0,0,0,0,0,0,0,0,-1,1518,1107,0,0
301,-83,0,0,0,0,0,0,0,0,0,-1,1525,1107,0,0
308,-83,0,0,0,0,0,0,0,0,0,-1,1532,1107,0,0
315,-83,0,0,0,0,0,0,0,0,0,-1,1539,1107,0,0
322,-83,0,0,0,0,0,0,0,0,0,-1,1546,1107,0,0
329,-83,0,0,0,0,0,0,0,0,0,-1,1553,1107,0,0
336,-83,0,0,0,0,0,0,0,0,0,-1,1560,1107,0,0
343,-83,0,0,0,0,0,0,0,0,0,-1,1567,1107,0,0
350,-83,0,0,0,0,0,0,0,0,0,-1,1574,1107,0,0
357,-83,0,0,0,0,0,0,0,0,0,-1,1581,1107,0,0
364,-83,0,0,0,0,0,0,0,0,0,-1,1588,1107,0,0
371,-83,0,0,0,0,0,0,0,0,0,-1,1595,1107,0,0
378,-83,0,0,0,0,0,0,0,0,0,-1,1602,1107,0,0
385,-83,0,0,0,0,0,0,0,0,0,-1,1609,1107,0,0
392,-83,0,0,0,0,0,0,0,0,0,-1,1616,1107,0,0
399,-83,0,0,0,0,0,0,0,0,0,-1,1623,1107,0,0
406,-83,0,0,0,0,0,0,0,0,0,-1,1630,1107,0,0
413,-83,0,0,0,0,0,0,0,0,0,-1,1637,1107,0,0
420,-83,0,0,0,0,0,0,0,0,0,-1,1644,1107,0,0
427,-83,0,0,0,0,0,0,0,0,0,-1,1651,1107,0,0
434,-83,0,0,0,0,0,0,0,0,0,-1,1658,1107,0,0
441,-83,0,0,0,0,0,0,0,0,0,-1,1665,1107,0,0
448,-83,0,0,0,0,0,0,0,0,0,-1,1672,1107,0,0
455,-83,0,0,0,0,0,0,0,0,0,-1,1679,1107,0,0
462,-83,0,0,0,0,0,0,0,0,0,-1,1686,1107,0,0
469,-83,0,0,0,0,0,0,0,0,0,-1,1693,1107,0,0
476,-83,0,0,0,0,0,0,0,0,0,-1,1700,1107,0,0
483,-83,0,0,0,0,0,0,0,0,0,-1,1707,1107,0,0
490,-83,0,0,0,0,0,0,0,0,0,-1,1714,1107,0,0
497,-83,0,0,0,0,0,0,0,0,0,-1,1721,1107,0,0
504,-83,0,0,0,0,0,0,0,0,0,-1,1728,1107,0,0
511,-83,0,0,0,0,0,0,0,0,0,-1,1735,1107,0,0
518,-83,0,0,0,0,0,0,0,0,0,-1,1742,1107,0,0
525,-83,0,0,0,0,0,0,0,0,0,-1,1749,1107,0,0
532,-83,0,0,0,0,0,0,0,0,0,-1,1756,1107,0,0
539,-83,0,0,0,0,0,0,0,0,0,-1,1763,1107,0,0
546,-83,0,0,0,0,0,0,0,0,0,-1,1770,1107,0,0
553,-83,0,0,0,0,0,0,0,0,0,-1,1777,1107,0,0
560,-83,0,0,0,0,0,0,0,0,0,-1,1784,1107,0,0
567,-83,0,0,0,0,0,0,0,0,0,-1,1791,1107,0,0
574,-83,0,0,0,0,0,0,0,0,0,-1,1798,1107,0,0
581,-83,0,0,0,0,0,0,0,0,0,-1,1805,1107,0,0
588,-83,0,0,0,0,0,0,0,0,0,-1,1812,1107,0,0
595,-83,0,0,0,0,0,0,0,0,0,-1,1819,1107,0,0
602,-83,0,0,0,0,0,0,0,0,0,-1,1826,1107,0,0
609,-83,0,0,0,0,0,0,0,0,0,-1,1833,1107,0,0
616,-83,0,0,0,0,0,0,0,0,0,-1,1840,1107,0,0
623,-83,0,0,0,0,0,0,0,0,0,-1,1847,1107,0,0
630,-83,0,0,0,0,0,0,0,0,0,-1,1854,1107,0,0
637,-83,0,0,0,0,0,0,0,0,0,-1,1861,1107,0,0
644,-83,55.1431,2.64673,0.00317298,-0.0036702,-0.00058559,0.00322273,-0.00371995,-0.0847517,0.00401178,0.0352375,1868,1107,55.1431,-2.64676
651,-83,55.0157,2.54956,0.00230961,-0.00331131,-0.000321533,0.00232794,-0.00332964,-0.0569553,0.00328343,0.0395089,1875,1107,55.0158,-2.54961
658,-83,54.9731,2.47607,0.00173812,-0.0028869,-0.000247816,0.00175136,-0.00290014,-0.053378,0.00271271,0.0402224,1882,1107,54.9732,-2.47603
665,-83,55.0967,2.4071,0.00136066,-0.00239713,-0.00020344,0.00137164,-0.00240811,-0.053928,0.00220942,0.0394412,1889,1107,55.0967,-2.40716
672,-83,54.9895,2.53625,0.00112015,-0.00186543,-0.000201066,0.00113363,-0.00187891,-0.0669429,0.00175694,0.0372538,1896,1107,54.9895,-2.5362
679,-83,55.0024,2.67065,0.0010146,-0.00134937,-0.000231564,0.00103707,-0.00137184,-0.0967301,0.00139526,0.0368966,1903,1107,55.0024,-2.67061
686,-83,55.1118,2.66211,0.00116273,-0.00112066,-6.62317e-05,0.00116465,-0.00112258,-0.0289733,0.00132061,0.0355403,1910,1107,55.1118,-2.6621
693,-83,55.1312,2.62402,0.00146962,-0.000999054,0.000118923,0.00147534,-0.00100477,0.0480245,0.00144046,0.036296,1917,1107,55.1312,-2.62407
700,-83,55.119,2.62305,0.00167444,-0.000854046,0.000281413,0.00170538,-0.000884988,0.109512,0.00152034,0.0332199,1924,1107,55.119,-2.62307
707,-83,55.1388,2.60486,0.00161897,-0.000665333,0.000573401,0.00175482,-0.000801188,0.232638,0.00150956,0.0259815,1931,1107,55.1388,-2.60482
714,-83,55.161,2.58899,0,0,0,0,0,0,0,-1,1938,1107,55.1611,-2.58901
721,-83,49.1162,7.36719,0,0,0,0,0,0,0,-1,1945,1107,49.1162,-7.36721
728,-83,52.1427,7.4718,0,0,0,0,0,0,0,-1,1952,1107,52.1427,-7.47183
735,-83,51.9092,6.97791,0.000396923,0.00107797,0.00155772,0.00233196,-0.000857063,0.893007,0.00190569,0.0462711,1959,1107,51.9092,-6.9779
742,-83,52.0972,6.62512,0.000116361,0.00199514,0.00157392,0.0028887,-0.000777192,1.05445,0.00223046,0.0282165,1966,1107,52.0971,-6.62516
749,-83,52.1594,6.25342,-0.000454904,0.00345632,0.00218774,0.00443509,-0.00143368,1.15011,0.00353295,0.0185879,1973,1107,52.1594,-6.25342
756,-83,52.1792,5.88135,-0.00129267,0.00605762,0.00352703,0.00747626,-0.00271131,1.18838,0.00609248,0.0171738,1980,1107,52.1792,-5.88137
763,-83,52.1572,5.50879,-0.00203206,0.00960433,0.00551437,0.0118024,-0.00423008,1.1915,0.0095943,0.0130907,1987,1107,52.1573,-5.50874
770,-83,52.0787,5.20837,-0.00284886,0.0147449,0.00842431,0.0181281,-0.00623205,1.18891,0.0146126,0.0158235,1994,1107,52.0788,-5.20832
777,-83,51.9756,4.89246,-0.00352605,0.0212287,0.0128542,0.0266959,-0.00899324,1.16865,0.0214334,0.0180321,2001,1107,51.9755,-4.89242
784,-83,51.9277,4.53662,-0.00402931,0.0287487,0.0188059,0.0373049,-0.0125855,1.14381,0.0299596,0.0283938,2008,1107,51.9277,-4.53667
791,-83,51.623,4.5033,0,0,0,0,0,0,0,-1,2015,1107,51.6231,-4.50331
798,-83,52.4668,2.48279,-0.0043037,0.0478872,0.0376788,0.0676247,-0.0240413,1.08826,0.0548812,0.0485186,2022,1107,52.4668,-2.48278
805,-83,51.6382,2.91321,-0.00405523,0.0596577,0.0516102,0.0884514,-0.0328489,1.0619,0.0724438,0.0470791,2029,1107,51.6382,-2.91324
812,-83,51.6851,3.18835,0,0,0,0,0,0,0,-1,2036,1107,51.685,-3.18833
-700,-90,0,0,0,0,0,0,0,0,0,-1,524,1114,0,0
-693,-90,-36.1235,1.83826,0,0,0,0,0,0,0,-1,531,1114,-36.1235,-1.83826
-686,-90,-37.278,-1.39465,0,0,0,0,0,0,0,-1,538,1114,-37.278,1.39467
-679,-90,-36.8514,-0.460083,-0.0386763,0.0352607,0.027171,0.0441718,-0.0475874,1.25389,0.0529894,0.0445919,545,1114,-36.8514,0.460073
-672,-90,-36.6948,0.277954,-0.0324382,0.0277356,0.0223608,0.0351351,-0.0398377,1.25123,0.0433139,0.0448116,552,1114,-36.6948,-0.277941
-665,-90,-37.0576,-0.164917,-0.0261634,0.0215243,0.0177788,0.0274229,-0.032062,1.25045,0.0343784,0.0476462,559,1114,-37.0576,0.164934
-658,-90,-37.9641,0.55957,-0.0204211,0.016444,0.0135906,0.0209126,-0.0248897,1.25313,0.0264772,0.0465024,566,1114,-37.9641,-0.559571
-651,-90,-37.9883,1.16724,-0.0153282,0.0123519,0.00995877,0.0155625,-0.0185387,1.25893,0.0197133,0.0344966,573,1114,-37.9883,-1.1672
-644,-90,-38.0169,1.85681,-0.0109779,0.00888202,0.00718114,0.0112066,-0.0133025,1.25774,0.0141675,0.0161263,580,1114,-38.0169,-1.85681
-637,-90,-38.0396,2.38794,-0.00703472,0.00598627,0.00459747,0.00744592,-0.00849437,1.26337,0.00920977,0.0133431,587,1114,-38.0396,-2.38799
-630,-90,-38.07,2.8053,-0.003531,0.00366159,0.00232576,0.00434811,-0.00421752,1.28377,0.00494556,0.0129876,594,1114,-38.07,-2.80534
-623,-90,-38.0886,3.22656,-0.00111151,0.00159355,0.000569023,0.00170837,-0.00122634,1.37168,0.00170196,0.0114435,601,1114,-38.0885,-3.2266
-616,-90,-38.1268,3.67053,0.000995107,0.000417023,-0.000101551,0.00101243,0.000399703,-0.168932,0.000588822,0.0139998,608,1114,-38.1268,-3.6705
-609,-90,-38.1071,4.07202,0.00231474,0.000257498,-0.000188767,0.00233191,0.00024032,-0.0907476,0.00148102,0.0210008,615,1114,-38.107,-4.07204
-602,-90,-38.2054,4.44629,0.00270664,0.000193788,-0.000526492,0.00281249,8.79357e-05,-0.198406,0.00184638,0.0214019,622,1114,-38.2054,-4.44629
-595,-90,-38.0513,4.92883,0.00238982,2.97509e-05,-0.000848951,0.00266347,-0.000243899,-0.311823,0.00186228,0.018389,629,1114,-38.0513,-4.92879
-588,-90,-38.0245,5.3064,0,0,0,0,0,0,0,-1,636,1114,-38.0245,-5.30639
-581,-90,-41.3143,0.807861,0,0,0,0,0,0,0,-1,643,1114,-41.3143,-0.807823
-574,-90,-41.2991,0.788696,0.00224695,-0.0007425,-0.000834933,0.00246433,-0.000959884,-0.254706,0.00203958,0.0360483,650,1114,-41.2991,-0.78866
-567,-90,-41.3085,0.720581,0.00207476,-0.000790783,-0.000866633,0.00231647,-0.00103249,-0.271994,0.00198033,0.0354707,657,1114,-41.3085,-0.720599
-560,-90,-41.2971,0.691895,0.00162114,-0.000858527,-0.000883517,0.00190374,-0.00114112,-0.309569,0.00177623,0.0392877,664,1114,-41.297,-0.691885
-553,-90,-41.1572,0.871094,0.000433312,-0.00110377,-0.000922783,0.000865679,-0.00153614,-0.438171,0.00140459,0.0397157,671,1114,-41.1571,-0.871056
-546,-90,-41.2108,1.09778,-0.00110979,-0.00173429,-0.000797912,-0.000565203,-0.00227887,-0.598891,0.00137027,0.041329,678,1114,-41.2107,-1.09779
-539,-90,-41.2823,0.983276,-0.00210383,-0.00343656,-0.000291397,-0.0020429,-0.00349749,-0.206119,0.00202878,0.0430756,685,1114,-41.2823,-0.983259
-532,-90,-41.361,0.816895,-0.00299233,-0.00508757,0.000615231,-0.00282503,-0.00525486,0.265502,0.00303675,0.041364,692,1114,-41.361,-0.816873
-525,-90,0,0,0,0,0,0,0,0,0,-1,699,1114,0,0
-518,-90,0,0,0,0,0,0,0,0,0,-1,706,1114,0,0
-511,-90,0,0,0,0,0,0,0,0,0,-1,713,1114,0,0
-504,-90,0,0,0,0,0,0,0,0,0,-1,720,1114,0,0
-497,-90,0,0,0,0,0,0,0,0,0,-1,727,1114,0,0
-490,-90,0,0,0,0,0,0,0,0,0,-1,734,1114,0,0
-483,-90,0,0,0,0,0,0,0,0,0,-1,741,1114,0,0
-476,-90,0,0,0,0,0,0,0,0,0,-1,748,1114,0,0
-469,-90,0,0,0,0,0,0,0,0,0,-1,755,1114,0,0
-462,-90,0,0,0,0,0,0,0,0,0,-1,762,1114,0,0
-455,-90,0,0,0,0,0,0,0,0,0,-1,769,1114,0,0
-448,-90,0,0,0,0,0,0,0,0,0,-1,776,1114,0,0
-441,-90,0,0,0,0,0,0,0,0,0,-1,783,1114,0,0
-434,-90,0,0,0,0,0,0,0,0,0,-1,790,1114,0,0
-427,-90,0,0,0,0,0,0,0,0,0,-1,797,1114,0,0
-420,-90,0,0,0,0,0,0,0,0,0,-1,804,1114,0,0
-413,-90,0,0,0,0,0,0,0,0,0,-1,811,1114,0,0
-406,-90,0,0,0,0,0,0,0,0,0,-1,818,1114,0,0
-399,-90,0,0,0,0,0,0,0,0,0,-1,825,1114,0,0
-392,-90,0,0,0,0,0,0,0,0,0,-1,832,1114,0,0
-385,-90,0,0,0,0,0,0,0,0,0,-1,839,1114,0,0
-378,-90,0,0,0,0,0,0,0,0,0,-1,846,1114,0,0
-371,-90,0,0,0,0,0,0,0,0,0,-1,853,1114,0,0
-364,-90,0,0,0,0,0,0,0,0,0,-1,860,1114,0,0
-357,-90,0,0,0,0,0,0,0,0,0,-1,867,1114,0,0
-350,-90,0,0,0,0,0,0,0,0,0,-1,874,1114,0,0
-343,-90,0,0,0,0,0,0,0,0,0,-1,881,1114,0,0
-336,-90,0,0,0,0,0,0,0,0,0,-1,888,1114,0,0
-329,-90,0,0,0,0,0,0,0,0,0,-1,895,1114,0,0
-322,-90,0,0,0,0,0,0,0,0,0,-1,902,1114,0,0
-315,-90,0,0,0,0,0,0,0,0,0,-1,909,1114,0,0
-308,-90,0,0,0,0,0,0,0,0,0,-1,916,1114,0,0
-301,-90,0,0,0,0,0,0,0,0,0,-1,923,1114,0,0
-294,-90,0,0,0,0,0,0,0,0,0,-1,930,1114,0,0
-287,-90,0,0,0,0,0,0,0,0,0,-1,937,1114,0,0
-280,-90,0,0,0,0,0,0,0,0,0,-1,944,1114,0,0
-273,-90,0,0,0,0,0,0,0,0,0,-1,951,1114,0,0
-266,-90,0,0,0,0,0,0,0,0,0,-1,958,1114,0,0
-259,-90,0,0,0,0,0,0,0,0,0,-1,965,1114,0,0
-252,-90,0,0,0,0,0,0,0,0,0,-1,972,1114,0,0
-245,-90,0,0,0,0,0,0,0,0,0,-1,979,1114,0,0
-238,-90,0,0,0,0,0,0,0,0,0,-1,986,1114,0,0
-231,-90,0,0,0,0,0,0,0,0,0,-1,993,1114,0,0
-224,-90,0,0,0,0,0,0,0,0,0,-1,1000,1114,0,0
-217,-90,0,0,0,0,0,0,0,0,0,-1,1007,1114,0,0
-210,-90,0,0,0,0,0,0,0,0,0,-1,1014,1114,0,0
-203,-90,0,0,0,0,0,0,0,0,0,-1,1021,1114,0,0
-196,-90,0,0,0,0,0,0,0,0,0,-1,1028,1114,0,0
-189,-90,0,0,0,0,0,0,0,0,0,-1,1035,1114,0,0
-182,-90,0,0,0,0,0,0,0,0,0,-1,1042,1114,0,0
-175,-90,0,0,0,0,0,0,0,0,0,-1,1049,1114,0,0
-168,-90,0,0,0,0,0,0,0,0,0,-1,1056,1114,0,0
-161,-90,0,0,0,0,0,0,0,0,0,-1,1063,1114,0,0
-154,-90,0,0,0,0,0,0,0,0,0,-1,1070,1114,0,0
-147,-90,0,0,0,0,0,0,0,0,0,-1,1077,1114,0,0
-140,-90,0,0,0,0,0,0,0,0,0,-1,1084,1114,0,0
-133,-90,0,0,0,0,0,0,0,0,0,-1,1091,1114,0,0
-126,-90,0,0,0,0,0,0,0,0,0,-1,1098,1114,0,0
-119,-90,0,0,0,0,0,0,0,0,0,-1,1105,1114,0,0
-112,-90,0,0,0,0,0,0,0,0,0,-1,1112,1114,0,0
-105,-90,0,0,0,0,0,0,0,0,0,-1,1119,1114,0,0
-98,-90,0,0,0,0,0,0,0,0,0,-1,1126,1114,0,0
-91,-90,0,0,0,0,0,0,0,0,0,-1,1133,1114,0,0
-84,-90,0,0,0,0,0,0,0,0,0,-1,1140,1114,0,0
-77,-90,0,0,0,0,0,0,0,0,0,-1,1147,1114,0,0
-70,-90,0,0,0,0,0,0,0,0,0,-1,1154,1114,0,0
-63,-90,0,0,0,0,0,0,0,0,0,-1,1161,1114,0,0
-56,-90,0,0,0,0,0,0,0,0,0,-1,1168,1114,0,0
-49,-90,0,0,0,0,0,0,0,0,0,-1,1175,1114,0,0
-42,-90,0,0,0,0,0,0,0,0,0,-1,1182,1114,0,0
-35,-90,0,0,0,0,0,0,0,0,0,-1,1189,1114,0,0
-28,-90,0,0,0,0,0,0,0,0,0,-1,1196,1114,0,0
-21,-90,0,0,0,0,0,0,0,0,0,-1,1203,1114,0,0
-14,-90,0,0,0,0,0,0,0,0,0,-1,1210,1114,0,0
-7,-90,0,0,0,0,0,0,0,0,0,-1,1217,1114,0,0
0,-90,0,0,0,0,0,0,0,0,0,-1,1224,1114,0,0
7,-90,0,0,0,0,0,0,0,0,0,-1,1231,1114,0,0
14,-90,0,0,0,0,0,0,0,0,0,-1,1238,1114,0,0
21,-90,0,0,0,0,0,0,0,0,0,-1,1245,1114,0,0
28,-90,0,0,0,0,0,0,0,0,0,-1,1252,1114,0,0
35,-90,0,0,0,0,0,0,0,0,0,-1,1259,1114,0,0
42,-90,0,0,0,0,0,0,0,0,0,-1,1266,1114,0,0
49,-90,0,0,0,0,0,0,0,0,0,-1,1273,1114,0,0
56,-90,0,0,0,0,0,0,0,0,0,-1,1280,1114,0,0
63,-90,0,0,0,0,0,0,0,0,0,-1,1287,1114,0,0
70,-90,0,0,0,0,0,0,0,0,0,-1,1294,1114,0,0
77,-90,0,0,0,0,0,0,0,0,0,-1,1301,1114,0,0
84,-90,0,0,0,0,0,0,0,0,0,-1,1308,1114,0,0
91,-90,0,0,0,0,0,0,0,0,0,-1,1315,1114,0,0
98,-90,0,0,0,0,0,0,0,0,0,-1,1322,1114,0,0
105,-90,0,0,0,0,0,0,0,0,0,-1,1329,1114,0,0
112,-90,0,0,0,0,0,0,0,0,0,-1,1336,1114,0,0
119,-90,0,0,0,0,0,0,0,0,0,-1,1343,1114,0,0
126,-90,0,0,0,0,0,0,0,0,0,-1,1350,1114,0,0
133,-90,0,0,0,0,0,0,0,0,0,-1,1357,1114,0,0
140,-90,0,0,0,0,0,0,0,0,0,-1,1364,1114,0,0
147,-90,0,0,0,0,0,0,0,0,0,-1,1371,1114,0,0
154,-90,0,0,0,0,0,0,0,0,0,-1,1378,1114,0,0
161,-90,0,0,0,0,0,0,0,0,0,-1,1385,1114,0,0
168,-90,0,0,0,0,0,0,0,0,0,-1,1392,1114,0,0
175,-90,0,0,0,0,0,0,0,0,0,-1,1399,1114,0,0
182,-90,0,0,0,0,0,0,0,0,0,-1,1406,1114,0,0
189,-90,0,0,0,0,0,0,0,0,0,-1,1413,1114,0,0
196,-90,0,0,0,0,0,0,0,0,0,-1,1420,1114,0,0
203,-90,0,0,0,0,0,0,0,0,0,-1,1427,1114,0,0
210,-90,0,0,0,0,0,0,0,0,0,-1,1434,1114,0,0
217,-90,0,0,0,0,0,0,0,0,0,-1,1441,1114,0,0
224,-90,0,0,0,0,0,0,0,0,0,-1,1448,1114,0,0
231,-90,0,0,0,0,0,0,0,0,0,-1,1455,1114,0,0
238,-90,0,0,0,0,0,0,0,0,0,-1,1462,1114,0,0
245,-90,0,0,0,0,0,0,0,0,0,-1,1469,1114,0,0
252,-90,0,0,0,0,0,0,0,0,0,-1,1476,1114,0,0
259,-90,0,0,0,0,0,0,0,0,0,-1,1483,1114,0,0
266,-90,0,0,0,0,0,0,0,0,0,-1,1490,1114,0,0
273,-90,0,0,0,0,0,0,0,0,0,-1,1497,1114,0,0
280,-90,0,0,0,0,0,0,0,0,0,-1,1504,1114,0,0
287,-90,0,0,0,0,0,0,0,0,0,-1,1511,1114,0,0
294,-90,0,0,0,0,0,0,0,0,0,-1,1518,1114,0,0
301,-90,0,0,0,0,0,0,0,0,0,-1,1525,1114,0,0
308,-90,0,0,0,0,0,0,0,0,0,-1,1532,1114,0,0
315,-90,0,0,0,0,0,0,0,0,0,-1,1539,1114,0,0
322,-90,0,0,0,0,0,0,0,0,0,-1,1546,1114,0,0
329,-90,0,0,0,0,0,0,0,0,0,-1,1553,1114,0,0
336,-90,0,0,0,0,0,0,0,0,0,-1,1560,1114,0,0
343,-90,0,0,0,0,0,0,0,0,0,-1,1567,1114,0,0
350,-90,0,0,0,0,0,0,0,0,0,-1,1574,1114,0,0
357,-90,0,0,0,0,0,0,0,0,0,-1,1581,1114,0,0
364,-90,0,0,0,0,0,0,0,0,0,-1,1588,1114,0,0
371,-90,0,0,0,0,0,0,0,0,0,-1,1595,1114,0,0
378,-90,0,0,0,0,0,0,0,0,0,-1,1602,1114,0,0
385,-90,0,0,0,0,0,0,0,0,0,-1,1609,1114,0,0
392,-90,0,0,0,0,0,0,0,0,0,-1,1616,1114,0,0
399,-90,0,0,0,0,0,0,0,0,0,-1,1623,1114,0,0
406,-90,0,0,0,0,0,0,0,0,0,-1,1630,1114,0,0
413,-90,0,0,0,0,0,0,0,0,0,-1,1637,1114,0,0
420,-90,0,0,0,0,0,0,0,0,0,-1,1644,1114,0,0
427,-90,0,0,0,0,0,0,0,0,0,-1,1651,1114,0,0
434,-90,0,0,0,0,0,0,0,0,0,-1,1658,1114,0,0
441,-90,0,0,0,0,0,0,0,0,0,-1,1665,1114,0,0
448,-90,0,0,0,0,0,0,0,0,0,-1,1672,1114,0,0
455,-90,0,0,0,0,0,0,0,0,0,-1,1679,1114,0,0
462,-90,0,0,0,0,0,0,0,0,0,-1,1686,1114,0,0
469,-90,0,0,0,0,0,0,0,0,0,-1,1693,1114,0,0
476,-90,0,0,0,0,0,0,0,0,0,-1,1700,1114,0,0
483,-90,0,0,0,0,0,0,0,0,0,-1,1707,1114,0,0
490,-90,0,0,0,0,0,0,0,0,0,-1,1714,1114,0,0
497,-90,0,0,0,0,0,0,0,0,0,-1,1721,1114,0,0
504,-90,0,0,0,0,0,0,0,0,0,-1,1728,1114,0,0
511,-90,0,0,0,0,0,0,0,0,0,-1,1735,1114,0,0
518,-90,0,0,0,0,0,0,0,0,0,-1,1742,1114,0,0
525,-90,0,0,0,0,0,0,0,0,0,-1,1749,1114,0,0
532,-90,0,0,0,0,0,0,0,0,0,-1,1756,1114,0,0
539,-90,0,0,0,0,0,0,0,0,0,-1,1763,1114,0,0
546,-90,0,0,0,0,0,0,0,0,0,-1,1770,1114,0,0
553,-90,0,0,0,0,0,0,0,0,0,-1,1777,1114,0,0
560,-90,0,0,0,0,0,0,0,0,0,-1,1784,1114,0,0
567,-90,0,0,0,0,0,0,0,0,0,-1,1791,1114,0,0
574,-90,0,0,0,0,0,0,0,0,0,-1,1798,1114,0,0
581,-90,0,0,0,0,0,0,0,0,0,-1,1805,1114,0,0
588,-90,0,0,0,0,0,0,0,0,0,-1,1812,1114,0,0
595,-90,0,0,0,0,0,0,0,0,0,-1,1819,1114,0,0
602,-90,0,0,0,0,0,0,0,0,0,-1,1826,1114,0,0
609,-90,0,0,0,0,0,0,0,0,0,-1,1833,1114,0,0
616,-90,0,0,0,0,0,0,0,0,0,-1,1840,1114,0,0
623,-90,0,0,0,0,0,0,0,0,0,-1,1847,1114,0,0
630,-90,0,0,0,0,0,0,0,0,0,-1,1854,1114,0,0
637,-90,0,0,0,0,0,0,0,0,0,-1,1861,1114,0,0
644,-90,55.0507,2.75598,0.00336052,-0.00333999,-0.000349356,0.00337868,-0.00335816,-0.051951,0.00388952,0.0344855,1868,1114,55.0507,-2.75598
651,-90,55.0236,2.66809,0.00243312,-0.0029532,-0.000292613,0.00244897,-0.00296905,-0.0541129,0.0031329,0.0373176,1875,1114,55.0235,-2.66808
658,-90,55.1041,2.57935,0.00186176,-0.00254032,-0.000351952,0.00188973,-0.00256828,-0.0792801,0.00258375,0.0392026,1882,1114,55.1041,-2.57936
665,-90,55.1426,2.47852,0.00148493,-0.00206422,-0.00040591,0.00153076,-0.00211005,-0.112434,0.00211087,0.0431722,1889,1114,55.1426,-2.47848
672,-90,55.0443,2.56738,0.00122426,-0.00157147,-0.000490888,0.00130795,-0.00165516,-0.168858,0.00171466,0.0429602,1896,1114,55.0443,-2.56738
679,-90,55.0269,2.78516,0.00108219,-0.00115812,-0.000558221,0.00121358,-0.00128951,-0.231161,0.00144538,0.0385133,1903,1114,55.0268,-2.7852
686,-90,55.1667,2.63684,0.00121451,-0.00100779,-0.000414764,0.0012894,-0.00108268,-0.178628,0.00137125,0.0358651,1910,1114,55.1668,-2.63685
693,-90,55.1296,2.56287,0.00150404,-0.00093762,-0.000238731,0.00152716,-0.000960743,-0.0965559,0.00144875,0.0351663,1917,1114,55.1296,-2.56284
700,-90,55.1075,2.55835,0.00166164,-0.00084205,-7.43102e-05,0.00166385,-0.000844253,-0.0296455,0.0014736,0.0316292,1924,1114,55.1076,-2.55832
707,-90,55.1345,2.54492,0.00160415,-0.000681759,0.0002147,0.00162414,-0.000701749,0.0928416,0.0013776,0.025436,1931,1114,55.1345,-2.54493
714,-90,55.1583,2.52856,0,0,0,0,0,0,0,-1,1938,1114,55.1584,-2.52855
721,-90,51.7483,7.7677,0,0,0,0,0,0,0,-1,1945,1114,51.7483,-7.76769
728,-90,51.7489,7.47351,0,0,0,0,0,0,0,-1,1952,1114,51.7489,-7.47357
735,-90,51.527,7.12122,0,0,0,0,0,0,0,-1,1959,1114,51.527,-7.12118
742,-90,51.6484,6.61401,0.000370019,0.0017067,0.00143566,0.00262197,-0.000545246,1.00324,0.00195524,0.0329868,1966,1114,51.6484,-6.61407
749,-90,51.9333,6.12744,-0.000233532,0.00314549,0.00220767,0.00423595,-0.001324,1.11201,0.00335358,0.0210605,1973,1114,51.9333,-6.12746
756,-90,51.8687,5.802,-0.00112113,0.0058096,0.00376759,0.00746317,-0.0027747,1.15722,0.00611395,0.018251,1980,1114,51.8687,-5.80196
763,-90,51.7883,5.45776,-0.00191784,0.00961931,0.00624364,0.0123513,-0.00464983,1.15833,0.0101458,0.0129515,1987,1114,51.7884,-5.4577
770,-90,51.7388,5.10315,-0.00285194,0.0150529,0.00983168,0.0193974,-0.00719642,1.15471,0.0158835,0.0163346,1994,1114,51.7387,-5.1031
777,-90,51.6406,4.81458,-0.00370579,0.021846,0.0149997,0.0287733,-0.0106331,1.13815,0.0235411,0.0169789,2001,1114,51.6405,-4.81463
784,-90,51.5608,4.58154,-0.0044899,0.0298978,0.0218396,0.0404996,-0.0150916,1.11887,0.0331942,0.030181,2008,1114,51.5609,-4.58151
791,-90,51.4617,4.23926,-0.00516731,0.0395561,0.0310488,0.0554576,-0.0210688,1.09748,0.0456453,0.0429086,2015,1114,51.4618,-4.23924
798,-90,51.3865,3.94556,0,0,0,0,0,0,0,-1,2022,1114,51.3864,-3.94559
805,-90,51.2996,2.16272,-0.00608918,0.0646727,0.0591098,0.0981814,-0.0395978,1.05508,0.0819087,0.0470063,2029,1114,51.2994,-2.16277
812,-90,51.7537,2.43103,-0.00660331,0.0803677,0.0795793,0.127568,-0.0538033,1.03545,0.107563,0.0494687,2036,1114,51.7538,-2.43108
-700,-97,0,0,0,0,0,0,0,0,0,-1,524,1121,0,0
-693,-97,-35.9323,2.12598,0,0,0,0,0,0,0,-1,531,1121,-35.9323,-2.12602
-686,-97,-37.576,-1.62256,0,0,0,0,0,0,0,-1,538,1121,-37.576,1.62256
-679,-97,-37.5083,-0.916992,-0.0363574,0.033415,0.034134,0.0473364,-0.0502788,1.18355,0.0563667,0.0438756,545,1121,-37.5083,0.917051
-672,-97,-37.4526,-0.296753,-0.0293296,0.0256177,0.0271262,0.0367528,-0.0404647,1.18128,0.0445987,0.0419411,552,1121,-37.4527,0.296778
-665,-97,-37.4275,0.299683,-0.0227687,0.0194342,0.0208252,0.02798,-0.0313145,1.18139,0.0342517,0.0449752,559,1121,-37.4275,-0.299693
-658,-97,-37.373,0.982544,-0.0172933,0.0145679,0.015364,0.0207696,-0.023495,1.18715,0.0255723,0.0432868,566,1121,-37.373,-0.982578
-651,-97,-37.5092,1.46326,-0.0127305,0.0107929,0.0108794,0.015053,-0.0169906,1.19757,0.0185117,0.0327233,573,1121,-37.5092,-1.46326
-644,-97,-37.5806,1.88354,-0.00889231,0.00768377,0.00750946,0.0105798,-0.0117883,1.20272,0.0129205,0.0125858,580,1121,-37.5806,-1.8835
-637,-97,-37.5944,2.35999,-0.00552977,0.00516104,0.00468511,0.00692363,-0.00729236,1.21096,0.00820853,0.0128964,587,1121,-37.5944,-2.35997
-630,-97,-37.6138,2.78748,-0.00257761,0.00314901,0.0023743,0.00400536,-0.00343395,1.22464,0.00429931,0.0107538,594,1121,-37.6138,-2.78746
-623,-97,-37.6448,3.20776,-0.000473251,0.00127303,0.000667782,0.00149912,-0.000699341,1.24434,0.00129698,0.0122973,601,1121,-37.6448,-3.20778
-616,-97,-37.7073,3.68933,0.00139045,0.000282744,5.50864e-05,0.00139318,0.000280011,0.0495672,0.000850948,0.0203862,608,1121,-37.7073,-3.68931
-609,-97,-37.7865,4.15149,0.00254364,0.000308921,-1.24885e-05,0.00254371,0.000308851,-0.00558818,0.0016028,0.0284809,615,1121,-37.7865,-4.1515
-602,-97,-37.8271,4.49512,0.00282775,0.000379212,-0.000324754,0.00287009,0.000336871,-0.129646,0.00181157,0.0266557,622,1121,-37.8271,-4.49512
-595,-97,-37.7166,4.95447,0.00231214,0.000358919,-0.000668327,0.00251892,0.000152132,-0.300068,0.00163094,0.0214129,629,1121,-37.7166,-4.95442
-588,-97,-37.7849,5.39929,0,0,0,0,0,0,0,-1,636,1121,-37.7848,-5.39934
-581,-97,-40.0505,2.5957,0,0,0,0,0,0,0,-1,643,1121,-40.0505,-2.59573
-574,-97,-41.2899,0.834351,0,0,0,0,0,0,0,-1,650,1121,-41.2899,-0.83431
-567,-97,-41.2576,0.744507,0.00202062,-0.000284782,-0.000869404,0.00231172,-0.00057589,-0.323102,0.00176472,0.0331096,657,1121,-41.2576,-0.744512
-560,-97,-41.1569,0.754517,0.00167699,-0.000310081,-0.000938981,0.00205049,-0.000683585,-0.378588,0.00164296,0.0404574,664,1121,-41.1569,-0.754542
-553,-97,-41.1618,0.87561,0.000475361,-0.000542603,-0.00108734,0.00116695,-0.00123419,-0.566497,0.00138648,0.0455081,671,1121,-41.1618,-0.87565
-546,-97,-41.3302,0.666138,-0.0011373,-0.00113373,-0.00107544,-6.00738e-05,-0.00221095,-0.786229,0.00145436,0.0442386,678,1121,-41.3302,-0.666147
-539,-97,-41.3264,0.909546,0,0,0,0,0,0,0,-1,685,1121,-41.3264,-0.909538
-532,-97,-41.2829,0.561646,0,0,0,0,0,0,0,-1,692,1121,-41.2829,-0.561662
-525,-97,0,0,0,0,0,0,0,0,0,-1,699,1121,0,0
-518,-97,0,0,0,0,0,0,0,0,0,-1,706,1121,0,0
-511,-97,0,0,0,0,0,0,0,0,0,-1,713,1121,0,0
-504,-97,0,0,0,0,0,0,0,0,0,-1,720,1121,0,0
-497,-97,0,0,0,0,0,0,0,0,0,-1,727,1121,0,0
-490,-97,0,0,0,0,0,0,0,0,0,-1,734,1121,0,0
-483,-97,0,0,0,0,0,0,0,0,0,-1,741,1121,0,0
-476,-97,0,0,0,0,0,0,0,0,0,-1,748,1121,0,0
-469,-97,0,0,0,0,0,0,0,0,0,-1,755,1121,0,0
-462,-97,0,0,0,0,0,0,0,0,0,-1,762,1121,0,0
-455,-97,0,0,0,0,0,0,0,0,0,-1,769,1121,0,0
-448,-97,0,0,0,0,0,0,0,0,0,-1,776,1121,0,0
-441,-97,0,0,0,0,0,0,0,0,0,-1,783,1121,0,0
-434,-97,0,0,0,0,0,0,0,0,0,-1,790,1121,0,0
-427,-97,0,0,0,0,0,0,0,0,0,-1,797,1121,0,0
-420,-97,0,0,0,0,0,0,0,0,0,-1,804,1121,0,0
-413,-97,0,0,0,0,0,0,0,0,0,-1,811,1121,0,0
-406,-97,0,0,0,0,0,0,0,0,0,-1,818,1121,0,0
-399,-97,0,0,0,0,0,0,0,0,0,-1,825,1121,0,0
-392,-97,0,0,0,0,0,0,0,0,0,-1,832,1121,0,0
-385,-97,0,0,0,0,0,0,0,0,0,-1,839,1121,0,0
-378,-97,0,0,0,0,0,0,0,0,0,-1,846,1121,0,0
-371,-97,0,0,0,0,0,0,0,0,0,-1,853,1121,0,0
-364,-97,0,0,0,0,0,0,0,0,0,-1,860,1121,0,0
-357,-97,0,0,0,0,0,0,0,0,0,-1,867,1121,0,0
-350,-97,0,0,0,0,0,0,0,0,0,-1,874,1121,0,0
-343,-97,0,0,0,0,0,0,0,0,0,-1,881,1121,0,0
-336,-97,0,0,0,0,0,0,0,0,0,-1,888,1121,0,0
-329,-97,0,0,0,0,0,0,0,0,0,-1,895,1121,0,0
-322,-97,0,0,0,0,0,0,0,0,0,-1,902,1121,0,0
-315,-97,0,0,0,0,0,0,0,0,0,-1,909,1121,0,0
-308,-97,0,0,0,0,0,0,0,0,0,-1,916,1121,0,0
-301,-97,0,0,0,0,0,0,0,0,0,-1,923,1121,0,0
-294,-97,0,0,0,0,0,0,0,0,0,-1,930,1121,0,0
-287,-97,0,0,0,0,0,0,0,0,0,-1,937,1121,0,0
-280,-97,0,0,0,0,0,0,0,0,0,-1,944,1121,0,0
-273,-97,0,0,0,0,0,0,0,0,0,-1,951,1121,0,0
-266,-97,0,0,0,0,0,0,0,0,0,-1,958,1121,0,0
-259,-97,0,0,0,0,0,0,0,0,0,-1,965,1121,0,0
-252,-97,0,0,0,0,0,0,0,0,0,-1,972,1121,0,0
-245,-97,0,0,0,0,0,0,0,0,0,-1,979,1121,0,0
-238,-97,0,0,0,0,0,0,0,0,0,-1,986,1121,0,0
-231,-97,0,0,0,0,0,0,0,0,0,-1,993,1121,0,0
-224,-97,0,0,0,0,0,0,0,0,0,-1,1000,1121,0,0
-217,-97,0,0,0,0,0,0,0,0,0,-1,1007,1121,0,0
-210,-97,0,0,0,0,0,0,0,0,0,-1,1014,1121,0,0
-203,-97,0,0,0,0,0,0,0,0,0,-1,1021,1121,0,0
-196,-97,0,0,0,0,0,0,0,0,0,-1,1028,1121,0,0
-189,-97,0,0,0,0,0,0,0,0,0,-1,1035,1121,0,0
-182,-97,0,0,0,0,0,0,0,0,0,-1,1042,1121,0,0
-175,-97,0,0,0,0,0,0,0,0,0,-1,1049,1121,0,0
-168,-97,0,0,0,0,0,0,0,0,0,-1,1056,1121,0,0
-161,-97,0,0,0,0,0,0,0,0,0,-1,1063,1121,0,0
-154,-97,0,0,0,0,0,0,0,0,0,-1,1070,1121,0,0
-147,-97,0,0,0,0,0,0,0,0,0,-1,1077,1121,0,0
-140,-97,0,0,0,0,0,0,0,0,0,-1,1084,1121,0,0
-133,-97,0,0,0,0,0,0,0,0,0,-1,1091,1121,0,0
-126,-97,0,0,0,0,0,0,0,0,0,-1,1098,1121,0,0
-119,-97,0,0,0,0,0,0,0,0,0,-1,1105,1121,0,0
-112,-97,0,0,0,0,0,0,0,0,0,-1,1112,1121,0,0
-105,-97,0,0,0,0,0,0,0,0,0,-1,1119,1121,0,0
-98,-97,0,0,0,0,0,0,0,0,0,-1,1126,1121,0,0
-91,-97,0,0,0,0,0,0,0,0,0,-1,1133,1121,0,0
-84,-97,0,0,0,0,0,0,0,0,0,-1,1140,1121,0,0
-77,-97,0,0,0,0,0,0,0,0,0,-1,1147,1121,0,0
-70,-97,0,0,0,0,0,0,0,0,0,-1,1154,1121,0,0
-63,-97,0,0,0,0,0,0,0,0,0,-1,1161,1121,0,0
-56,-97,0,0,0,0,0,0,0,0,0,-1,1168,1121,0,0
-49,-97,0,0,0,0,0,0,0,0,0,-1,1175,1121,0,0
-42,-97,0,0,0,0,0,0,0,0,0,-1,1182,1121,0,0
-35,-97,0,0,0,0,0,0,0,0,0,-1,1189,1121,0,0
-28,-97,0,0,0,0,0,0,0,0,0,-1,1196,1121,0,0
-21,-97,0,0,0,0,0,0,0,0,0,-1,1203,1121,0,0
-14,-97,0,0,0,0,0,0,0,0,0,-1,1210,1121,0,0
-7,-97,0,0,0,0,0,0,0,0,0,-1,1217,1121,0,0
0,-97,0,0,0,0,0,0,0,0,0,-1,1224,1121,0,0
7,-97,0,0,0,0,0,0,0,0,0,-1,1231,1121,0,0
14,-97,0,0,0,0,0,0,0,0,0,-1,1238,1121,0,0
21,-97,0,0,0,0,0,0,0,0,0,-1,1245,1121,0,0
28,-97,0,0,0,0,0,0,0,0,0,-1,1252,1121,0,0
35,-97,0,0,0,0,0,0,0,0,0,-1,1259,1121,0,0
42,-97,0,0,0,0,0,0,0,0,0,-1,1266,1121,0,0
49,-97,0,0,0,0,0,0,0,0,0,-1,1273,1121,0,0
56,-97,0,0,0,0,0,0,0,0,0,-1,1280,1121,0,0
63,-97,0,0,0,0,0,0,0,0,0,-1,1287,1121,0,0
70,-97,0,0,0,0,0,0,0,0,0,-1,1294,1121,0,0
77,-97,0,0,0,0,0,0,0,0,0,-1,1301,1121,0,0
84,-97,0,0,0,0,0,0,0,0,0,-1,1308,1121,0,0
91,-97,0,0,0,0,0,0,0,0,0,-1,1315,1121,0,0
98,-97,0,0,0,0,0,0,0,0,0,-1,1322,1121,0,0
105,-97,0,0,0,0,0,0,0,0,0,-1,1329,1121,0,0
112,-97,0,0,0,0,0,0,0,0,0,-1,1336,1121,0,0
119,-97,0,0,0,0,0,0,0,0,0,-1,1343,1121,0,0
126,-97,0,0,0,0,0,0,0,0,0,-1,1350,1121,0,0
133,-97,0,0,0,0,0,0,0,0,0,-1,1357,1121,0,0
140,-97,0,0,0,0,0,0,0,0,0,-1,1364,1121,0,0
147,-97,0,0,0,0,0,0,0,0,0,-1,1371,1121,0,0
154,-97,0,0,0,0,0,0,0,0,0,-1,1378,1121,0,0
161,-97,0,0,0,0,0,0,0,0,0,-1,1385,1121,0,0
168,-97,0,0,0,0,0,0,0,0,0,-1,1392,1121,0,0
175,-97,0,0,0,0,0,0,0,0,0,-1,1399,1121,0,0
182,-97,0,0,0,0,0,0,0,0,0,-1,1406,1121,0,0
189,-97,0,0,0,0,0,0,0,0,0,-1,1413,1121,0,0
196,-97,0,0,0,0,0,0,0,0,0,-1,1420,1121,0,0
203,-97,0,0,0,0,0,0,0,0,0,-1,1427,1121,0,0
210,-97,0,0,0,0,0,0,0,0,0,-1,1434,1121,0,0
217,-97,0,0,0,0,0,0,0,0,0,-1,1441,1121,0,0
224,-97,0,0,0,0,0,0,0,0,0,-1,1448,1121,0,0
231,-97,0,0,0,0,0,0,0,0,0,-1,1455,1121,0,0
238,-97,0,0,0,0,0,0,0,0,0,-1,1462,1121,0,0
245,-97,0,0,0,0,0,0,0,0,0,-1,1469,1121,0,0
252,-97,0,0,0,0,0,0,0,0,0,-1,1476,1121,0,0
259,-97,0,0,0,0,0,0,0,0,0,-1,1483,1121,0,0
266,-97,0,0,0,0,0,0,0,0,0,-1,1490,1121,0,0
273,-97,0,0,0,0,0,0,0,0,0,-1,1497,1121,0,0
280,-97,0,0,0,0,0,0,0,0,0,-1,1504,1121,0,0
287,-97,0,0,0,0,0,0,0,0,0,-1,1511,1121,0,0
294,-97,0,0,0,0,0,0,0,0,0,-1,1518,1121,0,0
301,-97,0,0,0,0,0,0,0,0,0,-1,1525,1121,0,0
308,-97,0,0,0,0,0,0,0,0,0,-1,1532,1121,0,0
315,-97,0,0,0,0,0,0,0,0,0,-1,1539,1121,0,0
322,-97,0,0,0,0,0,0,0,0,0,-1,1546,1121,0,0
329,-97,0,0,0,0,0,0,0,0,0,-1,1553,1121,0,0
336,-97,0,0,0,0,0,0,0,0,0,-1,1560,1121,0,0
343,-97,0,0,0,0,0,0,0,0,0,-1,1567,1121,0,0
350,-97,0,0,0,0,0,0,0,0,0,-1,1574,1121,0,0
357,-97,0,0,0,0,0,0,0,0,0,-1,1581,1121,0,0
364,-97,0,0,0,0,0,0,0,0,0,-1,1588,1121,0,0
371,-97,0,0,0,0,0,0,0,0,0,-1,1595,1121,0,0
378,-97,0,0,0,0,0,0,0,0,0,-1,1602,1121,0,0
385,-97,0,0,0,0,0,0,0,0,0,-1,1609,1121,0,0
392,-97,0,0,0,0,0,0,0,0,0,-1,1616,1121,0,0
399,-97,0,0,0,0,0,0,0,0,0,-1,1623,1121,0,0
406,-97,0,0,0,0,0,0,0,0,0,-1,1630,1121,0,0
413,-97,0,0,0,0,0,0,0,0,0,-1,1637,1121,0,0
420,-97,0,0,0,0,0,0,0,0,0,-1,1644,1121,0,0
427,-97,0,0,0,0,0,0,0,0,0,-1,1651,1121,0,0
434,-97,0,0,0,0,0,0,0,0,0,-1,1658,1121,0,0
441,-97,0,0,0,0,0,0,0,0,0,-1,1665,1121,0,0
448,-97,0,0,0,0,0,0,0,0,0,-1,1672,1121,0,0
455,-97,0,0,0,0,0,0,0,0,0,-1,1679,1121,0,0
462,-97,0,0,0,0,0,0,0,0,0,-1,1686,1121,0,0
469,-97,0,0,0,0,0,0,0,0,0,-1,1693,1121,0,0
476,-97,0,0,0,0,0,0,0,0,0,-1,1700,1121,0,0
483,-97,0,0,0,0,0,0,0,0,0,-1,1707,1121,0,0
490,-97,0,0,0,0,0,0,0,0,0,-1,1714,1121,0,0
497,-97,0,0,0,0,0,0,0,0,0,-1,1721,1121,0,0
504,-97,0,0,0,0,0,0,0,0,0,-1,1728,1121,0,0
511,-97,0,0,0,0,0,0,0,0,0,-1,1735,1121,0,0
518,-97,0,0,0,0,0,0,0,0,0,-1,1742,1121,0,0
525,-97,0,0,0,0,0,0,0,0,0,-1,1749,1121,0,0
532,-97,0,0,0,0,0,0,0,0,0,-1,1756,1121,0,0
539,-97,0,0,0,0,0,0,0,0,0,-1,1763,1121,0,0
546,-97,0,0,0,0,0,0,0,0,0,-1,1770,1121,0,0
553,-97,0,0,0,0,0,0,0,0,0,-1,1777,1121,0,0
560,-97,0,0,0,0,0,0,0,0,0,-1,1784,1121,0,0
567,-97,0,0,0,0,0,0,0,0,0,-1,1791,1121,0,0
574,-97,0,0,0,0,0,0,0,0,0,-1,1798,1121,0,0
581,-97,0,0,0,0,0,0,0,0,0,-1,1805,1121,0,0
588,-97,0,0,0,0,0,0,0,0,0,-1,1812,1121,0,0
595,-97,0,0,0,0,0,0,0,0,0,-1,1819,1121,0,0
602,-97,0,0,0,0,0,0,0,0,0,-1,1826,1121,0,0
609,-97,0,0,0,0,0,0,0,0,0,-1,1833,1121,0,0
616,-97,0,0,0,0,0,0,0,0,0,-1,1840,1121,0,0
623,-97,0,0,0,0,0,0,0,0,0,-1,1847,1121,0,0
630,-97,0,0,0,0,0,0,0,0,0,-1,1854,1121,0,0
637,-97,0,0,0,0,0,0,0,0,0,-1,1861,1121,0,0
644,-97,55.0463,2.73999,0.00361338,-0.00276429,-0.000146043,0.00361673,-0.00276763,-0.0228832,0.00369686,0.0375665,1868,1121,55.0463,-2.73997
651,-97,55.0884,2.7627,0.00260525,-0.002249,-0.000286055,0.00262204,-0.0022658,-0.0586583,0.00282449,0.0390115,1875,1121,55.0884,-2.76268
658,-97,55.1206,2.71155,0.00199593,-0.00178708,-0.000487789,0.00205781,-0.00184897,-0.126193,0.00225665,0.0405666,1882,1121,55.1206,-2.7115
665,-97,55.077,2.67578,0.00157468,-0.0013067,-0.000636592,0.00170905,-0.00144107,-0.208035,0.00182092,0.0437537,1889,1121,55.0771,-2.67573
672,-97,55.2087,2.5885,0.0012658,-0.000863834,-0.000781285,0.00152168,-0.00111971,-0.316502,0.00153089,0.0451777,1896,1121,55.2087,-2.58845
679,-97,55.1993,2.73596,0.00109281,-0.000571818,-0.0008633,0.00145968,-0.000938684,-0.401834,0.00139554,0.0420511,1903,1121,55.1993,-2.73596
686,-97,55.2334,2.7406,0.00123178,-0.000519102,-0.000720618,0.00149022,-0.000777543,-0.344348,0.00133067,0.0386694,1910,1121,55.2334,-2.74063
693,-97,55.2024,2.58435,0.00152092,-0.000528795,-0.000540729,0.00165482,-0.000662696,-0.242747,0.00137828,0.0348068,1917,1121,55.2023,-2.58435
700,-97,55.1099,2.5304,0.00164434,-0.000527454,-0.000360975,0.00170277,-0.00058588,-0.160464,0.0013728,0.0282154,1924,1121,55.1099,-2.53038
707,-97,55.1222,2.54211,0.00158312,-0.0004395,-7.15451e-05,0.00158565,-0.000442027,-0.0353136,0.00123118,0.0251184,1931,1121,55.1222,-2.5421
714,-97,55.1117,2.49854,0,0,0,0,0,0,0,-1,1938,1121,55.1117,-2.49859
721,-97,51.4691,7.69006,0,0,0,0,0,0,0,-1,1945,1121,51.4691,-7.69012
728,-97,51.4128,7.42761,0.0010548,0.00034125,0.000964412,0.00172632,-0.000330263,0.608233,0.0012753,0.0271664,1952,1121,51.4129,-7.42763
735,-97,51.3734,6.95837,0.000863385,0.000693746,0.00116326,0.00194492,-0.000387785,0.749005,0.00144334,0.0268838,1959,1121,51.3734,-6.95834
742,-97,51.3735,6.59595,0.000727279,0.00142214,0.00139917,0.00251636,-0.00036695,0.907092,0.00181232,0.0220775,1966,1121,51.3735,-6.59592
749,-97,51.4467,6.17871,0.00015726,0.0028383,0.00229093,0.00415209,-0.00115653,1.05011,0.00322349,0.0230095,1973,1121,51.4466,-6.17872
756,-97,51.459,5.78992,-0.000714949,0.0055719,0.0040282,0.00753802,-0.00268108,1.11672,0.0061181,0.0172669,1980,1121,51.459,-5.7899
763,-97,51.3723,5.45313,-0.00147018,0.00962603,0.00690207,0.0129334,-0.00477758,1.12394,0.0105807,0.012879,1987,1121,51.3723,-5.4531
770,-97,51.3121,5.12244,-0.0023493,0.0152825,0.0109726,0.0205421,-0.00760886,1.12382,0.016815,0.0120509,1994,1121,51.3121,-5.1224
777,-97,51.2683,4.77502,-0.00318404,0.0223144,0.0166526,0.0305378,-0.0114074,1.1121,0.0250426,0.0172887,2001,1121,51.2682,-4.77506
784,-97,51.2754,4.42188,-0.0040446,0.0308541,0.0241877,0.0432297,-0.0164202,1.09787,0.0355794,0.0375952,2008,1121,51.2755,-4.42193
791,-97,51.385,3.97241,-0.00490537,0.0413103,0.0343726,0.0596204,-0.0232155,1.08134,0.0493408,0.042865,2015,1121,51.3851,-3.97244
798,-97,51.4041,3.60474,0,0,0,0,0,0,0,-1,2022,1121,51.4042,-3.60472
805,-97,51.4531,3.27124,0,0,0,0,0,0,0,-1,2029,1121,51.453,-3.27128
812,-97,50.874,2.01172,0,0,0,0,0,0,0,-1,2036,1121,50.8741,-2.01169
-700,-104,0,0,0,0,0,0,0,0,0,-1,524,1128,0,0
-693,-104,-35.8473,2.18945,0,0,0,0,0,0,0,-1,531,1128,-35.8473,-2.1895
-686,-104,-35.3547,1.74561,0,0,0,0,0,0,0,-1,538,1128,-35.3547,-1.74555
-679,-104,-37.918,-0.815674,0,0,0,0,0,0,0,-1,545,1128,-37.918,0.81562
-672,-104,-37.9485,-0.21936,0,0,0,0,0,0,0,-1,552,1128,-37.9485,0.219388
-665,-104,-37.0983,0.894287,0,0,0,0,0,0,0,-1,559,1128,-37.0983,-0.894326
-658,-104,-37.3908,1.44287,-0.0134104,0.0120228,0.0172006,0.0206972,-0.0220847,1.10371,0.0247045,0.0450489,566,1128,-37.3908,-1.4429
-651,-104,-37.1531,1.41223,-0.00964462,0.00889876,0.0118189,0.0146487,-0.0153946,1.118,0.0173473,0.0415917,573,1128,-37.1531,-1.41222
-644,-104,-37.1216,1.86548,-0.00655272,0.00637853,0.00782929,0.0100668,-0.010241,1.13054,0.0117249,0.0162163,580,1128,-37.1216,-1.86554
-637,-104,-37.1103,2.34192,-0.00391934,0.00433842,0.00471675,0.00647814,-0.00605906,1.14492,0.00723971,0.0118587,587,1128,-37.1103,-2.34192
-630,-104,-37.1216,2.71814,-0.0016352,0.00268327,0.00229736,0.00367684,-0.00262877,1.16261,0.00365727,0.0153332,594,1128,-37.1216,-2.71813
-623,-104,-37.1805,3.18799,6.9571e-05,0.0010641,0.000581293,0.0013318,-0.000198131,1.13922,0.000960745,0.017048,601,1128,-37.1805,-3.18804
-616,-104,-37.4462,3.72888,0.00163023,0.000283031,-2.24069e-05,0.00163061,0.000282659,-0.0166261,0.00100617,0.0253998,608,1128,-37.4461,-3.72889
-609,-104,-37.614,4.04138,0.00260036,0.000423627,-7.74691e-05,0.00260312,0.000420873,-0.0355296,0.00161352,0.0332532,615,1128,-37.614,-4.04134
-602,-104,-37.4033,4.51086,0.00274854,0.000569934,-0.000333247,0.00279838,0.000520099,-0.148443,0.00171865,0.028153,622,1128,-37.4033,-4.51087
-595,-104,-37.2151,5.04712,0.00201605,0.000593054,-0.000664943,0.0022784,0.000330705,-0.375794,0.00142158,0.020439,629,1128,-37.2151,-5.04709
-588,-104,-37.1644,5.62756,0,0,0,0,0,0,0,-1,636,1128,-37.1644,-5.62756
-581,-104,-23.9373,2.85864,0,0,0,0,0,0,0,-1,643,1128,-23.9373,-2.85861
-574,-104,-41.2315,0.810059,0,0,0,0,0,0,0,-1,650,1128,-41.2315,-0.810065
-567,-104,-41.2066,0.821167,0,0,0,0,0,0,0,-1,657,1128,-41.2066,-0.821227
-560,-104,-41.3409,1.28247,0,0,0,0,0,0,0,-1,664,1128,-41.341,-1.28242
-553,-104,-41.3851,0.946655,0.000306673,-7.54107e-05,-0.0011505,0.00128189,-0.00105062,-0.703123,0.00134888,0.0490381,671,1128,-41.3851,-0.946662
-546,-104,-41.4987,0.595093,-0.00133723,-0.000560703,-0.00123775,0.000348254,-0.00224619,-0.93738,0.00162602,0.0478532,678,1128,-41.4987,-0.595038
-539,-104,-41.5839,0.495972,-0.00242432,-0.00211831,-0.000834163,-0.00142324,-0.00311939,-0.8761,0.00180328,0.0416919,685,1128,-41.5839,-0.495997
-532,-104,-41.3329,0.542847,-0.00309111,-0.00383628,-3.88113e-05,-0.0030891,-0.0038383,-0.0518968,0.00234929,0.0408672,692,1128,-41.333,-0.542874
-525,-104,-41.3245,0.889771,-0.00348209,-0.00539764,0.00109446,-0.0029855,-0.00589423,0.425952,0.00340313,0.0370357,699,1128,-41.3245,-0.889757
-518,-104,0,0,0,0,0,0,0,0,0,-1,706,1128,0,0
-511,-104,0,0,0,0,0,0,0,0,0,-1,713,1128,0,0
-504,-104,0,0,0,0,0,0,0,0,0,-1,720,1128,0,0
-497,-104,0,0,0,0,0,0,0,0,0,-1,727,1128,0,0
-490,-104,0,0,0,0,0,0,0,0,0,-1,734,1128,0,0
-483,-104,0,0,0,0,0,0,0,0,0,-1,741,1128,0,0
-476,-104,0,0,0,0,0,0,0,0,0,-1,748,1128,0,0
-469,-104,0,0,0,0,0,0,0,0,0,-1,755,1128,0,0
-462,-104,0,0,0,0,0,0,0,0,0,-1,762,1128,0,0
-455,-104,0,0,0,0,0,0,0,0,0,-1,769,1128,0,0
-448,-104,0,0,0,0,0,0,0,0,0,-1,776,1128,0,0
-441,-104,0,0,0,0,0,0,0,0,0,-1,783,1128,0,0
-434,-104,0,0,0,0,0,0,0,0,0,-1,790,1128,0,0
-427,-104,0,0,0,0,0,0,0,0,0,-1,797,1128,0,0
-420,-104,0,0,0,0,0,0,0,0,0,-1,804,1128,0,0
-413,-104,0,0,0,0,0,0,0,0,0,-1,811,1128,0,0
-406,-104,0,0,0,0,0,0,0,0,0,-1,818,1128,0,0
-399,-104,0,0,0,0,0,0,0,0,0,-1,825,1128,0,0
-392,-104,0,0,0,0,0,0,0,0,0,-1,832,1128,0,0
-385,-104,0,0,0,0,0,0,0,0,0,-1,839,1128,0,0
-378,-104,0,0,0,0,0,0,0,0,0,-1,846,1128,0,0
-371,-104,0,0,0,0,0,0,0,0,0,-1,853,1128,0,0
-364,-104,0,0,0,0,0,0,0,0,0,-1,860,1128,0,0
-357,-104,0,0,0,0,0,0,0,0,0,-1,867,1128,0,0
-350,-104,0,0,0,0,0,0,0,0,0,-1,874,1128,0,0
-343,-104,0,0,0,0,0,0,0,0,0,-1,881,1128,0,0
-336,-104,0,0,0,0,0,0,0,0,0,-1,888,1128,0,0
-329,-104,0,0,0,0,0,0,0,0,0,-1,895,1128,0,0
-322,-104,0,0,0,0,0,0,0,0,0,-1,902,1128,0,0
-315,-104,0,0,0,0,0,0,0,0,0,-1,909,1128,0,0
-308,-104,0,0,0,0,0,0,0,0,0,-1,916,1128,0,0
-301,-104,0,0,0,0,0,0,0,0,0,-1,923,1128,0,0
-294,-104,0,0,0,0,0,0,0,0,0,-1,930,1128,0,0
-287,-104,0,0,0,0,0,0,0,0,0,-1,937,1128,0,0
-280,-104,0,0,0,0,0,0,0,0,0,-1,944,1128,0,0
-273,-104,0,0,0,0,0,0,0,0,0,-1,951,1128,0,0
-266,-104,0,0,0,0,0,0,0,0,0,-1,958,1128,0,0
-259,-104,0,0,0,0,0,0,0,0,0,-1,965,1128,0,0
-252,-104,0,0,0,0,0,0,0,0,0,-1,972,1128,0,0
-245,-104,0,0,0,0,0,0,0,0,0,-1,979,1128,0,0
-238,-104,0,0,0,0,0,0,0,0,0,-1,986,1128,0,0
-231,-104,0,0,0,0,0,0,0,0,0,-1,993,1128,0,0
-224,-104,0,0,0,0,0,0,0,0,0,-1,1000,1128,0,0
-217,-104,0,0,0,0,0,0,0,0,0,-1,1007,1128,0,0
-210,-104,0,0,0,0,0,0,0,0,0,-1,1014,1128,0,0
-203,-104,0,0,0,0,0,0,0,0,0,-1,1021,1128,0,0
-196,-104,0,0,0,0,0,0,0,0,0,-1,1028,1128,0,0
-189,-104,0,0,0,0,0,0,0,0,0,-1,1035,1128,0,0
-182,-104,0,0,0,0,0,0,0,0,0,-1,1042,1128,0,0
-175,-104,0,0,0,0,0,0,0,0,0,-1,1049,1128,0,0
-168,-104,0,0,0,0,0,0,0,0,0,-1,1056,1128,0,0
-161,-104,0,0,0,0,0,0,0,0,0,-1,1063,1128,0,0
-154,-104,0,0,0,0,0,0,0,0,0,-1,1070,1128,0,0
-147,-104,0,0,0,0,0,0,0,0,0,-1,1077,1128,0,0
-140,-104,0,0,0,0,0,0,0,0,0,-1,1084,1128,0,0
-133,-104,0,0,0,0,0,0,0,0,0,-1,1091,1128,0,0
-126,-104,0,0,0,0,0,0,0,0,0,-1,1098,1128,0,0
-119,-104,0,0,0,0,0,0,0,0,0,-1,1105,1128,0,0
-112,-104,0,0,0,0,0,0,0,0,0,-1,1112,1128,0,0
-105,-104,0,0,0,0,0,0,0,0,0,-1,1119,1128,0,0
-98,-104,0,0,0,0,0,0,0,0,0,-1,1126,1128,0,0
-91,-104,0,0,0,0,0,0,0,0,0,-1,1133,1128,0,0
-84,-104,0,0,0,0,0,0,0,0,0,-1,1140,1128,0,0
-77,-104,0,0,0,0,0,0,0,0,0,-1,1147,1128,0,0
-70,-104,0,0,0,0,0,0,0,0,0,-1,1154,1128,0,0
-63,-104,0,0,0,0,0,0,0,0,0,-1,1161,1128,0,0
-56,-104,0,0,0,0,0,0,0,0,0,-1,1168,1128,0,0
-49,-104,0,0,0,0,0,0,0,0,0,-1,1175,1128,0,0
-42,-104,0,0,0,0,0,0,0,0,0,-1,1182,1128,0,0
-35,-104,0,0,0,0,0,0,0,0,0,-1,1189,1128,0,0
-28,-104,0,0,0,0,0,0,0,0,0,-1,1196,1128,0,0
-21,-104,0,0,0,0,0,0,0,0,0,-1,1203,1128,0,0
-14,-104,0,0,0,0,0,0,0,0,0,-1,1210,1128,0,0
-7,-104,0,0,0,0,0,0,0,0,0,-1,1217,1128,0,0
0,-104,0,0,0,0,0,0,0,0,0,-1,1224,1128,0,0
7,-104,0,0,0,0,0,0,0,0,0,-1,1231,1128,0,0
14,-104,0,0,0,0,0,0,0,0,0,-1,1238,1128,0,0
21,-104,0,0,0,0,0,0,0,0,0,-1,1245,1128,0,0
28,-104,0,0,0,0,0,0,0,0,0,-1,1252,1128,0,0
35,-104,0,0,0,0,0,0,0,0,0,-1,1259,1128,0,0
42,-104,0,0,0,0,0,0,0,0,0,-1,1266,1128,0,0
49,-104,0,0,0,0,0,0,0,0,0,-1,1273,1128,0,0
56,-104,0,0,0,0,0,0,0,0,0,-1,1280,1128,0,0
63,-104,0,0,0,0,0,0,0,0,0,-1,1287,1128,0,0
70,-104,0,0,0,0,0,0,0,0,0,-1,1294,1128,0,0
77,-104,0,0,0,0,0,0,0,0,0,-1,1301,1128,0,0
84,-104,0,0,0,0,0,0,0,0,0,-1,1308,1128,0,0
91,-104,0,0,0,0,0,0,0,0,0,-1,1315,1128,0,0
98,-104,0,0,0,0,0,0,0,0,0,-1,1322,1128,0,0
105,-104,0,0,0,0,0,0,0,0,0,-1,1329,1128,0,0
112,-104,0,0,0,0,0,0,0,0,0,-1,1336,1128,0,0
119,-104,0,0,0,0,0,0,0,0,0,-1,1343,1128,0,0
126,-104,0,0,0,0,0,0,0,0,0,-1,1350,1128,0,0
133,-104,0,0,0,0,0,0,0,0,0,-1,1357,1128,0,0
140,-104,0,0,0,0,0,0,0,0,0,-1,1364,1128,0,0
147,-104,0,0,0,0,0,0,0,0,0,-1,1371,1128,0,0
154,-104,0,0,0,0,0,0,0,0,0,-1,1378,1128,0,0
161,-104,0,0,0,0,0,0,0,0,0,-1,1385,1128,0,0
168,-104,0,0,0,0,0,0,0,0,0,-1,1392,1128,0,0
175,-104,0,0,0,0,0,0,0,0,0,-1,1399,1128,0,0
182,-104,0,0,0,0,0,0,0,0,0,-1,1406,1128,0,0
189,-104,0,0,0,0,0,0,0,0,0,-1,1413,1128,0,0
196,-104,0,0,0,0,0,0,0,0,0,-1,1420,1128,0,0
203,-104,0,0,0,0,0,0,0,0,0,-1,1427,1128,0,0
210,-104,0,0,0,0,0,0,0,0,0,-1,1434,1128,0,0
217,-104,0,0,0,0,0,0,0,0,0,-1,1441,1128,0,0
224,-104,0,0,0,0,0,0,0,0,0,-1,1448,1128,0,0
231,-104,0,0,0,0,0,0,0,0,0,-1,1455,1128,0,0
238,-104,0,0,0,0,0,0,0,0,0,-1,1462,1128,0,0
245,-104,0,0,0,0,0,0,0,0,0,-1,1469,1128,0,0
252,-104,0,0,0,0,0,0,0,0,0,-1,1476,1128,0,0
259,-104,0,0,0,0,0,0,0,0,0,-1,1483,1128,0,0
266,-104,0,0,0,0,0,0,0,0,0,-1,1490,1128,0,0
273,-104,0,0,0,0,0,0,0,0,0,-1,1497,1128,0,0
280,-104,0,0,0,0,0,0,0,0,0,-1,1504,1128,0,0
287,-104,0,0,0,0,0,0,0,0,0,-1,1511,1128,0,0
294,-104,0,0,0,0,0,0,0,0,0,-1,1518,1128,0,0
301,-104,0,0,0,0,0,0,0,0,0,-1,1525,1128,0,0
308,-104,0,0,0,0,0,0,0,0,0,-1,1532,1128,0,0
315,-104,0,0,0,0,0,0,0,0,0,-1,1539,1128,0,0
322,-104,0,0,0,0,0,0,0,0,0,-1,1546,1128,0,0
329,-104,0,0,0,0,0,0,0,0,0,-1,1553,1128,0,0
336,-104,0,0,0,0,0,0,0,0,0,-1,1560,1128,0,0
343,-104,0,0,0,0,0,0,0,0,0,-1,1567,1128,0,0
350,-104,0,0,0,0,0,0,0,0,0,-1,1574,1128,0,0
357,-104,0,0,0,0,0,0,0,0,0,-1,1581,1128,0,0
364,-104,0,0,0,0,0,0,0,0,0,-1,1588,1128,0,0
371,-104,0,0,0,0,0,0,0,0,0,-1,1595,1128,0,0
378,-104,0,0,0,0,0,0,0,0,0,-1,1602,1128,0,0
385,-104,0,0,0,0,0,0,0,0,0,-1,1609,1128,0,0
392,-104,0,0,0,0,0,0,0,0,0,-1,1616,1128,0,0
399,-104,0,0,0,0,0,0,0,0,0,-1,1623,1128,0,0
406,-104,0,0,0,0,0,0,0,0,0,-1,1630,1128,0,0
413,-104,0,0,0,0,0,0,0,0,0,-1,1637,1128,0,0
420,-104,0,0,0,0,0,0,0,0,0,-1,1644,1128,0,0
427,-104,0,0,0,0,0,0,0,0,0,-1,1651,1128,0,0
434,-104,0,0,0,0,0,0,0,0,0,-1,1658,1128,0,0
441,-104,0,0,0,0,0,0,0,0,0,-1,1665,1128,0,0
448,-104,0,0,0,0,0,0,0,0,0,-1,1672,1128,0,0
455,-104,0,0,0,0,0,0,0,0,0,-1,1679,1128,0,0
462,-104,0,0,0,0,0,0,0,0,0,-1,1686,1128,0,0
469,-104,0,0,0,0,0,0,0,0,0,-1,1693,1128,0,0
476,-104,0,0,0,0,0,0,0,0,0,-1,1700,1128,0,0
483,-104,0,0,0,0,0,0,0,0,0,-1,1707,1128,0,0
490,-104,0,0,0,0,0,0,0,0,0,-1,1714,1128,0,0
497,-104,0,0,0,0,0,0,0,0,0,-1,1721,1128,0,0
504,-104,0,0,0,0,0,0,0,0,0,-1,1728,1128,0,0
511,-104,0,0,0,0,0,0,0,0,0,-1,1735,1128,0,0
518,-104,0,0,0,0,0,0,0,0,0,-1,1742,1128,0,0
525,-104,0,0,0,0,0,0,0,0,0,-1,1749,1128,0,0
532,-104,0,0,0,0,0,0,0,0,0,-1,1756,1128,0,0
539,-104,0,0,0,0,0,0,0,0,0,-1,1763,1128,0,0
546,-104,0,0,0,0,0,0,0,0,0,-1,1770,1128,0,0
553,-104,0,0,0,0,0,0,0,0,0,-1,1777,1128,0,0
560,-104,0,0,0,0,0,0,0,0,0,-1,1784,1128,0,0
567,-104,0,0,0,0,0,0,0,0,0,-1,1791,1128,0,0
574,-104,0,0,0,0,0,0,0,0,0,-1,1798,1128,0,0
581,-104,0,0,0,0,0,0,0,0,0,-1,1805,1128,0,0
588,-104,0,0,0,0,0,0,0,0,0,-1,1812,1128,0,0
595,-104,0,0,0,0,0,0,0,0,0,-1,1819,1128,0,0
602,-104,0,0,0,0,0,0,0,0,0,-1,1826,1128,0,0
609,-104,0,0,0,0,0,0,0,0,0,-1,1833,1128,0,0
616,-104,0,0,0,0,0,0,0,0,0,-1,1840,1128,0,0
623,-104,0,0,0,0,0,0,0,0,0,-1,1847,1128,0,0
630,-104,0,0,0,0,0,0,0,0,0,-1,1854,1128,0,0
637,-104,0,0,0,0,0,0,0,0,0,-1,1861,1128,0,0
644,-104,55.0723,2.80164,0.00402761,-0.00187173,-0.000218946,0.00403573,-0.00187984,-0.0370458,0.00349014,0.038033,1868,1128,55.0723,-2.80159
651,-104,55.1888,2.98071,0.00289032,-0.00134439,-0.00038593,0.00292521,-0.00137927,-0.0901453,0.00253806,0.041916,1875,1128,55.1889,-2.9807
658,-104,55.1731,2.95532,0.00219247,-0.000905393,-0.000619953,0.00231193,-0.00102485,-0.190359,0.00197368,0.0446449,1882,1128,55.1731,-2.9553
665,-104,54.9824,2.76746,0.0016817,-0.000476325,-0.000787254,0.00193837,-0.000732991,-0.31516,0.00159379,0.0454354,1889,1128,54.9824,-2.7675
672,-104,55.0371,2.72424,0.00128962,-0.000118688,-0.000936788,0.00175739,-0.000586458,-0.463114,0.00140838,0.0440872,1896,1128,55.0371,-2.7242
679,-104,55.1846,2.67126,0.00105959,4.16928e-05,-0.000998113,0.00167103,-0.00056974,-0.549625,0.00134478,0.0417382,1903,1128,55.1846,-2.67124
686,-104,55.2091,2.7605,0.0011924,-1.17017e-05,-0.000845444,0.00162825,-0.000447554,-0.475995,0.00126143,0.0408675,1910,1128,55.2091,-2.76053
693,-104,55.2004,2.62317,0.00146195,-9.44345e-05,-0.000651421,0.00169861,-0.000331098,-0.348477,0.00125739,0.0355886,1917,1128,55.2005,-2.62312
700,-104,55.1395,2.55701,0.00153814,-0.000189071,-0.000452637,0.00164957,-0.000300501,-0.24138,0.00121236,0.0260465,1924,1128,55.1395,-2.55697
707,-104,55.1094,2.61218,0,0,0,0,0,0,0,-1,1931,1128,55.1094,-2.61216
714,-104,45.5221,2.32166,0,0,0,0,0,0,0,-1,1938,1128,45.5221,-2.3216
721,-104,50.9746,7.86243,0,0,0,0,0,0,0,-1,1945,1128,50.9746,-7.86238
728,-104,51.1051,7.29358,0.00109531,0.000352126,0.000944564,0.00173874,-0.000291312,0.597997,0.00126747,0.02576,1952,1128,51.1051,-7.29353
735,-104,51.1847,6.8999,0.00107852,0.000576174,0.00116283,0.00201699,-0.000362297,0.679031,0.00148028,0.0298467,1959,1128,51.1847,-6.89989
742,-104,51.0541,6.59082,0.00111048,0.00116349,0.00145185,0.00258908,-0.000315109,0.794526,0.0018401,0.0191941,1966,1128,51.0541,-6.5908
749,-104,50.9677,6.20703,0.00071448,0.00249651,0.00241161,0.00417644,-0.000965455,0.962354,0.00315573,0.0203457,1973,1128,50.9676,-6.207
756,-104,50.9866,5.81506,9.19639e-05,0.00523374,0.00422342,0.00760722,-0.00228152,1.0588,0.00597889,0.0181353,1980,1128,50.9866,-5.81506
763,-104,50.9451,5.44678,-0.000300095,0.00952345,0.00732375,0.01343,-0.00420665,1.08078,0.0106365,0.0161593,1987,1128,50.9451,-5.44675
770,-104,50.8759,5.10791,-0.000634699,0.0152933,0.0115339,0.0213456,-0.00668698,1.08755,0.0169061,0.0142825,1994,1128,50.8758,-5.10797
777,-104,50.8076,4.74036,-0.000869091,0.022476,0.0172794,0.0316559,-0.010049,1.08245,0.0251324,0.0222069,2001,1128,50.8076,-4.74041
784,-104,50.7849,4.32373,-0.0011409,0.0314047,0.0249508,0.0449203,-0.0146565,1.07436,0.0358454,0.0400552,2008,1128,50.785,-4.32368
791,-104,50.9973,3.93152,-0.00139556,0.0425249,0.0353209,0.0621558,-0.0210264,1.06352,0.0499438,0.0471174,2015,1128,50.9974,-3.93149
798,-104,51.4219,3.26392,0,0,0,0,0,0,0,-1,2022,1128,51.4219,-3.26386
805,-104,50.2117,0.747437,-0.00229946,0.0730154,0.0668893,0.112119,-0.0414031,1.04178,0.0917169,0.0469231,2029,1128,50.2116,-0.747482
812,-104,50.0527,1.44189,-0.00355089,0.0930832,0.0899838,0.146901,-0.0573692,1.03178,0.121653,0.0496034,2036,1128,50.0527,-1.44185
-700,-111,0,0,0,0,0,0,0,0,0,-1,524,1135,0,0
-693,-111,-35.085,1.64941,0,0,0,0,0,0,0,-1,531,1135,-35.085,-1.64939
-686,-111,-34.5976,1.30457,0,0,0,0,0,0,0,-1,538,1135,-34.5976,-1.30451
-679,-111,-42.3332,4.40393,0,0,0,0,0,0,0,-1,545,1135,-42.3332,-4.40392
-672,-111,-38.4262,-0.102295,0,0,0,0,0,0,0,-1,552,1135,-38.4262,0.102327
-665,-111,-37.2649,1.20837,0,0,0,0,0,0,0,-1,559,1135,-37.2649,-1.20842
-658,-111,-37.6143,1.48242,0,0,0,0,0,0,0,-1,566,1135,-37.6143,-1.48244
-651,-111,-36.6453,1.22986,0,0,0,0,0,0,0,-1,573,1135,-36.6453,-1.22984
-644,-111,-36.5289,1.82007,-0.00400009,0.0042754,0.0083315,0.00944007,-0.00916476,1.01588,0.0107419,0.0279393,580,1135,-36.529,-1.82012
-637,-111,-36.6345,2.33545,-0.00228711,0.00317411,0.00485823,0.00601653,-0.00512952,1.04143,0.00644196,0.0117047,587,1135,-36.6345,-2.33549
-630,-111,-36.678,2.71277,-0.00085259,0.00220589,0.00223467,0.00338448,-0.00203118,1.08546,0.00315911,0.0220629,594,1135,-36.678,-2.71278
-623,-111,-36.6948,3.19202,0.000318033,0.00101218,0.000460987,0.00124214,8.80723e-05,1.10807,0.000800353,0.0185348,601,1135,-36.6948,-3.19197
-616,-111,-36.9523,3.63623,0.00151795,0.000447348,-0.000124305,0.00153219,0.000433105,-0.114085,0.000912042,0.0212101,608,1135,-36.9523,-3.63624
-609,-111,-37.2045,4.02393,0.00231295,0.000669785,-0.000131605,0.00232342,0.000659311,-0.079418,0.00138261,0.0327933,615,1135,-37.2045,-4.02392
-602,-111,-37.0702,4.53333,0.00234234,0.000873831,-0.000299608,0.00240111,0.000815057,-0.193711,0.0014099,0.0383183,622,1135,-37.0702,-4.53327
-595,-111,-36.8046,5.05945,0.00144622,0.000905912,-0.000611359,0.00184446,0.000507679,-0.577352,0.00110018,0.0180982,629,1135,-36.8046,-5.0594
-588,-111,-36.5012,5.68567,0,0,0,0,0,0,0,-1,636,1135,-36.5012,-5.68568
-581,-111,-21.0555,3.14551,0,0,0,0,0,0,0,-1,643,1135,-21.0555,-3.14548
-574,-111,-41.2306,0.846191,0,0,0,0,0,0,0,-1,650,1135,-41.2306,-0.846228
-567,-111,-41.1878,0.97168,0.00132412,0.000609345,-0.000922753,0.00195628,-2.28116e-05,-0.60064,0.00131186,0.0378916,657,1135,-41.1878,-0.971648
-560,-111,-41.1382,1.11987,0.00134266,0.000693675,-0.000968801,0.00203987,-3.53332e-06,-0.6238,0.00136109,0.0402642,664,1135,-41.1382,-1.11981
-553,-111,-41.2217,0.946045,0.000347594,0.000589251,-0.00123889,0.00171319,-0.000776341,-0.834009,0.00147086,0.0454456,671,1135,-41.2218,-0.945992
-546,-111,-41.1299,0.531494,-0.00111274,0.000292479,-0.00145278,0.00120363,-0.00202389,-1.01063,0.00188337,0.0435424,678,1135,-41.1299,-0.531492
-539,-111,-41.173,0.50293,-0.00201739,-0.000969045,-0.00125329,-0.00013473,-0.00285171,-0.983463,0.00185786,0.0434513,685,1135,-41.173,-0.502981
-532,-111,-41.4173,0.974365,-0.00238343,-0.00245266,-0.000682502,-0.00173466,-0.00310142,-0.76006,0.0017948,0.0401484,692,1135,-41.4173,-0.974345
-525,-111,-41.4688,1.00818,-0.00242638,-0.00377106,0.000189744,-0.00240012,-0.00379732,0.13753,0.00221773,0.0359959,699,1135,-41.4688,-1.00816
-518,-111,0,0,0,0,0,0,0,0,0,-1,706,1135,0,0
-511,-111,0,0,0,0,0,0,0,0,0,-1,713,1135,0,0
-504,-111,0,0,0,0,0,0,0,0,0,-1,720,1135,0,0
-497,-111,0,0,0,0,0,0,0,0,0,-1,727,1135,0,0
-490,-111,0,0,0,0,0,0,0,0,0,-1,734,1135,0,0
-483,-111,0,0,0,0,0,0,0,0,0,-1,741,1135,0,0
-476,-111,0,0,0,0,0,0,0,0,0,-1,748,1135,0,0
-469,-111,0,0,0,0,0,0,0,0,0,-1,755,1135,0,0
-462,-111,0,0,0,0,0,0,0,0,0,-1,762,1135,0,0
-455,-111,0,0,0,0,0,0,0,0,0,-1,769,1135,0,0
-448,-111,0,0,0,0,0,0,0,0,0,-1,776,1135,0,0
-441,-111,0,0,0,0,0,0,0,0,0,-1,783,1135,0,0
-434,-111,0,0,0,0,0,0,0,0,0,-1,790,1135,0,0
-427,-111,0,0,0,0,0,0,0,0,0,-1,797,1135,0,0
-420,-111,0,0,0,0,0,0,0,0,0,-1,804,1135,0,0
-413,-111,0,0,0,0,0,0,0,0,0,-1,811,1135,0,0
-406,-111,0,0,0,0,0,0,0,0,0,-1,818,1135,0,0
-399,-111,0,0,0,0,0,0,0,0,0,-1,825,1135,0,0
-392,-111,0,0,0,0,0,0,0,0,0,-1,832,1135,0,0
-385,-111,0,0,0,0,0,0,0,0,0,-1,839,1135,0,0
-378,-111,0,0,0,0,0,0,0,0,0,-1,846,1135,0,0
-371,-111,0,0,0,0,0,0,0,0,0,-1,853,1135,0,0
-364,-111,0,0,0,0,0,0,0,0,0,-1,860,1135,0,0
-357,-111,0,0,0,0,0,0,0,0,0,-1,867,1135,0,0
-350,-111,0,0,0,0,0,0,0,0,0,-1,874,1135,0,0
-343,-111,0,0,0,0,0,0,0,0,0,-1,881,1135,0,0
-336,-111,0,0,0,0,0,0,0,0,0,-1,888,1135,0,0
-329,-111,0,0,0,0,0,0,0,0,0,-1,895,1135,0,0
-322,-111,0,0,0,0,0,0,0,0,0,-1,902,1135,0,0
-315,-111,0,0,0,0,0,0,0,0,0,-1,909,1135,0,0
-308,-111,0,0,0,0,0,0,0,0,0,-1,916,1135,0,0
-301,-111,0,0,0,0,0,0,0,0,0,-1,923,1135,0,0
-294,-111,0,0,0,0,0,0,0,0,0,-1,930,1135,0,0
-287,-111,0,0,0,0,0,0,0,0,0,-1,937,1135,0,0
-280,-111,0,0,0,0,0,0,0,0,0,-1,944,1135,0,0
-273,-111,0,0,0,0,0,0,0,0,0,-1,951,1135,0,0
-266,-111,0,0,0,0,0,0,0,0,0,-1,958,1135,0,0
-259,-111,0,0,0,0,0,0,0,0,0,-1,965,1135,0,0
-252,-111,0,0,0,0,0,0,0,0,0,-1,972,1135,0,0
-245,-111,0,0,0,0,0,0,0,0,0,-1,979,1135,0,0
-238,-111,0,0,0,0,0,0,0,0,0,-1,986,1135,0,0
-231,-111,0,0,0,0,0,0,0,0,0,-1,993,1135,0,0
-224,-111,0,0,0,0,0,0,0,0,0,-1,1000,1135,0,0
-217,-111,0,0,0,0,0,0,0,0,0,-1,1007,1135,0,0
-210,-111,0,0,0,0,0,0,0,0,0,-1,1014,1135,0,0
-203,-111,0,0,0,0,0,0,0,0,0,-1,1021,1135,0,0
-196,-111,0,0,0,0,0,0,0,0,0,-1,1028,1135,0,0
-189,-111,0,0,0,0,0,0,0,0,0,-1,1035,1135,0,0
-182,-111,0,0,0,0,0,0,0,0,0,-1,1042,1135,0,0
-175,-111,0,0,0,0,0,0,0,0,0,-1,1049,1135,0,0
-168,-111,0,0,0,0,0,0,0,0,0,-1,1056,1135,0,0
-161,-111,0,0,0,0,0,0,0,0,0,-1,1063,1135,0,0
-154,-111,0,0,0,0,0,0,0,0,0,-1,1070,1135,0,0
-147,-111,0,0,0,0,0,0,0,0,0,-1,1077,1135,0,0
-140,-111,0,0,0,0,0,0,0,0,0,-1,1084,1135,0,0
-133,-111,0,0,0,0,0,0,0,0,0,-1,1091,1135,0,0
-126,-111,0,0,0,0,0,0,0,0,0,-1,1098,1135,0,0
-119,-111,0,0,0,0,0,0,0,0,0,-1,1105,1135,0,0
-112,-111,0,0,0,0,0,0,0,0,0,-1,1112,1135,0,0
-105,-111,0,0,0,0,0,0,0,0,0,-1,1119,1135,0,0
-98,-111,0,0,0,0,0,0,0,0,0,-1,1126,1135,0,0
-91,-111,0,0,0,0,0,0,0,0,0,-1,1133,1135,0,0
-84,-111,0,0,0,0,0,0,0,0,0,-1,1140,1135,0,0
-77,-111,0,0,0,0,0,0,0,0,0,-1,1147,1135,0,0
-70,-111,0,0,0,0,0,0,0,0,0,-1,1154,1135,0,0
-63,-111,0,0,0,0,0,0,0,0,0,-1,1161,1135,0,0
-56,-111,0,0,0,0,0,0,0,0,0,-1,1168,1135,0,0
-49,-111,0,0,0,0,0,0,0,0,0,-1,1175,1135,0,0
-42,-111,0,0,0,0,0,0,0,0,0,-1,1182,1135,0,0
-35,-111,0,0,0,0,0,0,0,0,0,-1,1189,1135,0,0
-28,-111,0,0,0,0,0,0,0,0,0,-1,1196,1135,0,0
-21,-111,0,0,0,0,0,0,0,0,0,-1,1203,1135,0,0
-14,-111,0,0,0,0,0,0,0,0,0,-1,1210,1135,0,0
-7,-111,0,0,0,0,0,0,0,0,0,-1,1217,1135,0,0
0,-111,0,0,0,0,0,0,0,0,0,-1,1224,1135,0,0
7,-111,0,0,0,0,0,0,0,0,0,-1,1231,1135,0,0
14,-111,0,0,0,0,0,0,0,0,0,-1,1238,1135,0,0
21,-111,0,0,0,0,0,0,0,0,0,-1,1245,1135,0,0
28,-111,0,0,0,0,0,0,0,0,0,-1,1252,1135,0,0
35,-111,0,0,0,0,0,0,0,0,0,-1,1259,1135,0,0
42,-111,0,0,0,0,0,0,0,0,0,-1,1266,1135,0,0
49,-111,0,0,0,0,0,0,0,0,0,-1,1273,1135,0,0
56,-111,0,0,0,0,0,0,0,0,0,-1,1280,1135,0,0
63,-111,0,0,0,0,0,0,0,0,0,-1,1287,1135,0,0
70,-111,0,0,0,0,0,0,0,0,0,-1,1294,1135,0,0
77,-111,0,0,0,0,0,0,0,0,0,-1,1301,1135,0,0
84,-111,0,0,0,0,0,0,0,0,0,-1,1308,1135,0,0
91,-111,0,0,0,0,0,0,0,0,0,-1,1315,1135,0,0
98,-111,0,0,0,0,0,0,0,0,0,-1,1322,1135,0,0
105,-111,0,0,0,0,0,0,0,0,0,-1,1329,1135,0,0
112,-111,0,0,0,0,0,0,0,0,0,-1,1336,1135,0,0
119,-111,0,0,0,0,0,0,0,0,0,-1,1343,1135,0,0
126,-111,0,0,0,0,0,0,0,0,0,-1,1350,1135,0,0
133,-111,0,0,0,0,0,0,0,0,0,-1,1357,1135,0,0
140,-111,0,0,0,0,0,0,0,0,0,-1,1364,1135,0,0
147,-111,0,0,0,0,0,0,0,0,0,-1,1371,1135,0,0
154,-111,0,0,0,0,0,0,0,0,0,-1,1378,1135,0,0
161,-111,0,0,0,0,0,0,0,0,0,-1,1385,1135,0,0
168,-111,0,0,0,0,0,0,0,0,0,-1,1392,1135,0,0
175,-111,0,0,0,0,0,0,0,0,0,-1,1399,1135,0,0
182,-111,0,0,0,0,0,0,0,0,0,-1,1406,1135,0,0
189,-111,0,0,0,0,0,0,0,0,0,-1,1413,1135,0,0
196,-111,0,0,0,0,0,0,0,0,0,-1,1420,1135,0,0
203,-111,0,0,0,0,0,0,0,0,0,-1,1427,1135,0,0
210,-111,0,0,0,0,0,0,0,0,0,-1,1434,1135,0,0
217,-111,0,0,0,0,0,0,0,0,0,-1,1441,1135,0,0
224,-111,0,0,0,0,0,0,0,0,0,-1,1448,1135,0,0
231,-111,0,0,0,0,0,0,0,0,0,-1,1455,1135,0,0
238,-111,0,0,0,0,0,0,0,0,0,-1,1462,1135,0,0
245,-111,0,0,0,0,0,0,0,0,0,-1,1469,1135,0,0
252,-111,0,0,0,0,0,0,0,0,0,-1,1476,1135,0,0
259,-111,0,0,0,0,0,0,0,0,0,-1,1483,1135,0,0
266,-111,0,0,0,0,0,0,0,0,0,-1,1490,1135,0,0
273,-111,0,0,0,0,0,0,0,0,0,-1,1497,1135,0,0
280,-111,0,0,0,0,0,0,0,0,0,-1,1504,1135,0,0
287,-111,0,0,0,0,0,0,0,0,0,-1,1511,1135,0,0
294,-111,0,0,0,0,0,0,0,0,0,-1,1518,1135,0,0
301,-111,0,0,0,0,0,0,0,0,0,-1,1525,1135,0,0
308,-111,0,0,0,0,0,0,0,0,0,-1,1532,1135,0,0
315,-111,0,0,0,0,0,0,0,0,0,-1,1539,1135,0,0
322,-111,0,0,0,0,0,0,0,0,0,-1,1546,1135,0,0
329,-111,0,0,0,0,0,0,0,0,0,-1,1553,1135,0,0
336,-111,0,0,0,0,0,0,0,0,0,-1,1560,1135,0,0
343,-111,0,0,0,0,0,0,0,0,0,-1,1567,1135,0,0
350,-111,0,0,0,0,0,0,0,0,0,-1,1574,1135,0,0
357,-111,0,0,0,0,0,0,0,0,0,-1,1581,1135,0,0
364,-111,0,0,0,0,0,0,0,0,0,-1,1588,1135,0,0
371,-111,0,0,0,0,0,0,0,0,0,-1,1595,1135,0,0
378,-111,0,0,0,0,0,0,0,0,0,-1,1602,1135,0,0
385,-111,0,0,0,0,0,0,0,0,0,-1,1609,1135,0,0
392,-111,0,0,0,0,0,0,0,0,0,-1,1616,1135,0,0
399,-111,0,0,0,0,0,0,0,0,0,-1,1623,1135,0,0
406,-111,0,0,0,0,0,0,0,0,0,-1,1630,1135,0,0
413,-111,0,0,0,0,0,0,0,0,0,-1,1637,1135,0,0
420,-111,0,0,0,0,0,0,0,0,0,-1,1644,1135,0,0
427,-111,0,0,0,0,0,0,0,0,0,-1,1651,1135,0,0
434,-111,0,0,0,0,0,0,0,0,0,-1,1658,1135,0,0
441,-111,0,0,0,0,0,0,0,0,0,-1,1665,1135,0,0
448,-111,0,0,0,0,0,0,0,0,0,-1,1672,1135,0,0
455,-111,0,0,0,0,0,0,0,0,0,-1,1679,1135,0,0
462,-111,0,0,0,0,0,0,0,0,0,-1,1686,1135,0,0
469,-111,0,0,0,0,0,0,0,0,0,-1,1693,1135,0,0
476,-111,0,0,0,0,0,0,0,0,0,-1,1700,1135,0,0
483,-111,0,0,0,0,0,0,0,0,0,-1,1707,1135,0,0
490,-111,0,0,0,0,0,0,0,0,0,-1,1714,1135,0,0
497,-111,0,0,0,0,0,0,0,0,0,-1,1721,1135,0,0
504,-111,0,0,0,0,0,0,0,0,0,-1,1728,1135,0,0
511,-111,0,0,0,0,0,0,0,0,0,-1,1735,1135,0,0
518,-111,0,0,0,0,0,0,0,0,0,-1,1742,1135,0,0
525,-111,0,0,0,0,0,0,0,0,0,-1,1749,1135,0,0
532,-111,0,0,0,0,0,0,0,0,0,-1,1756,1135,0,0
539,-111,0,0,0,0,0,0,0,0,0,-1,1763,1135,0,0
546,-111,0,0,0,0,0,0,0,0,0,-1,1770,1135,0,0
553,-111,0,0,0,0,0,0,0,0,0,-1,1777,1135,0,0
560,-111,0,0,0,0,0,0,0,0,0,-1,1784,1135,0,0
567,-111,0,0,0,0,0,0,0,0,0,-1,1791,1135,0,0
574,-111,0,0,0,0,0,0,0,0,0,-1,1798,1135,0,0
581,-111,0,0,0,0,0,0,0,0,0,-1,1805,1135,0,0
588,-111,0,0,0,0,0,0,0,0,0,-1,1812,1135,0,0
595,-111,0,0,0,0,0,0,0,0,0,-1,1819,1135,0,0
602,-111,0,0,0,0,0,0,0,0,0,-1,1826,1135,0,0
609,-111,0,0,0,0,0,0,0,0,0,-1,1833,1135,0,0
616,-111,0,0,0,0,0,0,0,0,0,-1,1840,1135,0,0
623,-111,0,0,0,0,0,0,0,0,0,-1,1847,1135,0,0
630,-111,0,0,0,0,0,0,0,0,0,-1,1854,1135,0,0
637,-111,0,0,0,0,0,0,0,0,0,-1,1861,1135,0,0
644,-111,55.0399,2.94653,0.00458671,-0.000730503,-0.000408967,0.00461798,-0.000761775,-0.0763156,0.00336147,0.0375162,1868,1135,55.0399,-2.94651
651,-111,55.1069,3.13367,0.00324748,-0.000363299,-0.000499806,0.00331539,-0.000431206,-0.135038,0.00236712,0.0405953,1875,1135,55.1069,-3.13361
658,-111,55.2628,3.25916,0.00241416,-5.40484e-05,-0.000696638,0.00259721,-0.000237095,-0.256949,0.00181567,0.0464451,1882,1135,55.2629,-3.25915
665,-111,55.1556,2.96997,0.00178049,0.000249285,-0.000845769,0.00215571,-0.000125933,-0.417553,0.0014809,0.0454292,1889,1135,55.1557,-2.96997
672,-111,55.1213,2.83667,0.0012842,0.000482341,-0.000982469,0.0019444,-0.000177856,-0.59167,0.00135943,0.0424199,1896,1135,55.1213,-2.83668
679,-111,55.1456,2.96362,0.000983968,0.000504893,-0.00101424,0.00178657,-0.000297714,-0.669436,0.00130169,0.0408813,1903,1135,55.1456,-2.96361
686,-111,55.1079,2.84888,0.00106123,0.00032817,-0.000860011,0.00162956,-0.00024016,-0.583958,0.00117464,0.0410161,1910,1135,55.1079,-2.84882
693,-111,55.0297,2.67847,0.00125404,0.000175703,-0.000656176,0.00156414,-0.000134405,-0.441488,0.00109033,0.0376283,1917,1135,55.0297,-2.67841
700,-111,55.1444,2.58899,0.00125783,-1.85849e-05,-0.000448683,0.00139977,-0.000160521,-0.30638,0.00099103,0.0279995,1924,1135,55.1444,-2.58897
707,-111,55.1456,2.5321,0,0,0,0,0,0,0,-1,1931,1135,55.1456,-2.53208
714,-111,45.1654,7.39746,0,0,0,0,0,0,0,-1,1938,1135,45.1654,-7.39745
721,-111,50.3512,7.82458,0,0,0,0,0,0,0,-1,1945,1135,50.3512,-7.82459
728,-111,50.6267,7.41479,0.000876101,0.000221917,0.000937356,0.0015418,-0.000443777,0.617528,0.00120338,0.0243108,1952,1135,50.6267,-7.41484
735,-111,50.671,7.01245,0.00100137,0.000329744,0.00116405,0.00187708,-0.000545964,0.644967,0.00146763,0.0248064,1959,1135,50.6711,-7.01245
742,-111,50.6044,6.64038,0.00115331,0.000758949,0.00148863,0.00245776,-0.000545499,0.719552,0.00184738,0.0158221,1966,1135,50.6043,-6.64037
749,-111,50.5438,6.25244,0.000946488,0.00199411,0.00245336,0.00397895,-0.00103836,0.890572,0.00305809,0.0175982,1973,1135,50.5438,-6.25238
756,-111,50.5299,5.83594,0.000648122,0.00469826,0.00423688,0.00736915,-0.00202277,1.00833,0.00570778,0.0176501,1980,1135,50.5299,-5.8359
763,-111,50.5103,5.44434,0.000740844,0.00897485,0.00733342,0.0132679,-0.0035522,1.04118,0.0102369,0.0144254,1987,1135,50.5103,-5.44439
770,-111,50.4781,5.05298,0.00108571,0.0145893,0.0113826,0.021072,-0.00539698,1.05309,0.0161504,0.0120557,1994,1135,50.4781,-5.05297
777,-111,50.3354,4.68372,0.00161366,0.0215762,0.0168193,0.0311529,-0.00796304,1.05319,0.0238699,0.0252759,2001,1135,50.3355,-4.68372
784,-111,50.1851,4.25928,0.00219509,0.030374,0.0241004,0.0442012,-0.0116321,1.04991,0.0340144,0.0428261,2008,1135,50.1851,-4.25927
791,-111,50.0649,3.82373,0,0,0,0,0,0,0,-1,2015,1135,50.0649,-3.82378
798,-111,49.6389,-0.784058,0.00380115,0.0552128,0.0468771,0.0829696,-0.0239557,1.03619,0.0647917,0.0467518,2022,1135,49.6388,0.784063
805,-111,49.2551,-0.0296631,0.00436718,0.0720384,0.0635691,0.110216,-0.0338102,1.02996,0.0869663,0.0454874,2029,1135,49.2552,0.0296804
812,-111,48.8958,0.862549,0.00447986,0.0924244,0.0851627,0.144297,-0.0473928,1.02371,0.11529,0.0456742,2036,1135,48.8957,-0.862555
-700,-118,0,0,0,0,0,0,0,0,0,-1,524,1142,0,0
-693,-118,-33.8345,0.569336,0,0,0,0,0,0,0,-1,531,1142,-33.8345,-0.569337
-686,-118,-33.8129,-0.207886,0,0,0,0,0,0,0,-1,538,1142,-33.8129,0.20783
-679,-118,-40.1547,3.34961,0,0,0,0,0,0,0,-1,545,1142,-40.1547,-3.34958
-672,-118,-40.8999,3.49731,0,0,0,0,0,0,0,-1,552,1142,-40.8999,-3.49729
-665,-118,-34.5362,1.39819,0,0,0,0,0,0,0,-1,559,1142,-34.5362,-1.39818
-658,-118,-36.6014,0.257568,0,0,0,0,0,0,0,-1,566,1142,-36.6014,-0.257616
-651,-118,-36.2243,1.05212,-0.00202226,0.00120251,0.0143024,0.0139831,-0.0148028,0.841529,0.0166218,0.0428531,573,1142,-36.2243,-1.05216
-644,-118,-35.9546,1.84839,-0.00115424,0.00159286,0.00915607,0.00947783,-0.00903921,0.859851,0.0106918,0.033541,580,1142,-35.9546,-1.84843
-637,-118,-36.1293,2.3739,-0.000480156,0.00160991,0.00531388,0.00598054,-0.00485078,0.88249,0.00626479,0.0179406,587,1142,-36.1293,-2.37389
-630,-118,-36.1849,2.78674,-3.93163e-05,0.00152253,0.00236649,0.00323361,-0.0017504,0.944769,0.00291969,0.0243974,594,1142,-36.1849,-2.7867
-623,-118,-36.1907,3.24426,0.00043129,0.000901017,0.000430419,0.00115648,0.000175826,1.03515,0.000719576,0.019516,601,1142,-36.1907,-3.24422
-616,-118,-36.3171,3.65552,0.00114486,0.000592309,-0.000235881,0.00123186,0.000505311,-0.353345,0.000715027,0.0240896,608,1142,-36.3171,-3.65557
-609,-118,-36.5784,3.93738,0.00175034,0.000940996,-0.000265756,0.00182981,0.000861535,-0.29054,0.00105704,0.038668,615,1142,-36.5784,-3.93734
-602,-118,-36.4301,4.68079,0.00168683,0.00122113,-0.000358743,0.00188167,0.00102629,-0.497534,0.00108787,0.0392201,622,1142,-36.4301,-4.68076
-595,-118,-36.6104,5.39465,0,0,0,0,0,0,0,-1,629,1142,-36.6103,-5.39468
-588,-118,-34.6521,5.64136,0,0,0,0,0,0,0,-1,636,1142,-34.6521,-5.64138
-581,-118,-24.6116,3.89648,0,0,0,0,0,0,0,-1,643,1142,-24.6116,-3.89645
-574,-118,-41.2482,0.927612,0,0,0,0,0,0,0,-1,650,1142,-41.2482,-0.927625
-567,-118,-41.1867,0.907959,0.000732281,0.00106008,-0.000906178,0.00181706,-2.47017e-05,-0.874865,0.00121969,0.0421461,657,1142,-41.1867,-0.907948
-560,-118,-41.0927,0.904785,0.000927468,0.00120692,-0.000918409,0.00199617,0.000138217,-0.860889,0.00128718,0.0375815,664,1142,-41.0927,-0.904779
-553,-118,-40.9518,0.805664,0.000150498,0.00117351,-0.00120841,0.00197421,-0.000650206,-0.985608,0.00157817,0.0393226,671,1142,-40.9519,-0.805621
-546,-118,-41.0013,0.765503,-0.000994666,0.00101573,-0.0014549,0.00177891,-0.00175785,-1.0877,0.00204196,0.0412645,678,1142,-41.0013,-0.765539
-539,-118,-41.0842,0.824951,-0.00155625,-7.64451e-05,-0.00130992,0.000688091,-0.00232079,-1.04248,0.00182043,0.0436578,685,1142,-41.0842,-0.824961
-532,-118,-41.3029,0.988159,-0.00151701,-0.00146438,-0.000791819,-0.000698441,-0.00228295,-0.802008,0.00135075,0.0411254,692,1142,-41.3029,-0.988136
-525,-118,-41.4092,0.849854,-0.0011873,-0.00266501,-2.71474e-06,-0.0011873,-0.00266502,-0.00183711,0.00154169,0.0407211,699,1142,-41.4092,-0.849896
-518,-118,0,0,0,0,0,0,0,0,0,-1,706,1142,0,0
-511,-118,0,0,0,0,0,0,0,0,0,-1,713,1142,0,0
-504,-118,0,0,0,0,0,0,0,0,0,-1,720,1142,0,0
-497,-118,0,0,0,0,0,0,0,0,0,-1,727,1142,0,0
-490,-118,0,0,0,0,0,0,0,0,0,-1,734,1142,0,0
-483,-118,0,0,0,0,0,0,0,0,0,-1,741,1142,0,0
-476,-118,0,0,0,0,0,0,0,0,0,-1,748,1142,0,0
-469,-118,0,0,0,0,0,0,0,0,0,-1,755,1142,0,0
-462,-118,0,0,0,0,0,0,0,0,0,-1,762,1142,0,0
-455,-118,0,0,0,0,0,0,0,0,0,-1,769,1142,0,0
-448,-118,0,0,0,0,0,0,0,0,0,-1,776,1142,0,0
-441,-118,0,0,0,0,0,0,0,0,0,-1,783,1142,0,0
-434,-118,0,0,0,0,0,0,0,0,0,-1,790,1142,0,0
-427,-118,0,0,0,0,0,0,0,0,0,-1,797,1142,0,0
-420,-118,0,0,0,0,0,0,0,0,0,-1,804,1142,0,0
-413,-118,0,0,0,0,0,0,0,0,0,-1,811,1142,0,0
-406,-118,0,0,0,0,0,0,0,0,0,-1,818,1142,0,0
-399,-118,0,0,0,0,0,0,0,0,0,-1,825,1142,0,0
-392,-118,0,0,0,0,0,0,0,0,0,-1,832,1142,0,0
-385,-118,0,0,0,0,0,0,0,0,0,-1,839,1142,0,0
-378,-118,0,0,0,0,0,0,0,0,0,-1,846,1142,0,0
-371,-118,0,0,0,0,0,0,0,0,0,-1,853,1142,0,0
-364,-118,0,0,0,0,0,0,0,0,0,-1,860,1142,0,0
-357,-118,0,0,0,0,0,0,0,0,0,-1,867,1142,0,0
-350,-118,0,0,0,0,0,0,0,0,0,-1,874,1142,0,0
-343,-118,0,0,0,0,0,0,0,0,0,-1,881,1142,0,0
-336,-118,0,0,0,0,0,0,0,0,0,-1,888,1142,0,0
-329,-118,0,0,0,0,0,0,0,0,0,-1,895,1142,0,0
-322,-118,0,0,0,0,0,0,0,0,0,-1,902,1142,0,0
-315,-118,0,0,0,0,0,0,0,0,0,-1,909,1142,0,0
-308,-118,0,0,0,0,0,0,0,0,0,-1,916,1142,0,0
-301,-118,0,0,0,0,0,0,0,0,0,-1,923,1142,0,0
-294,-118,0,0,0,0,0,0,0,0,0,-1,930,1142,0,0
-287,-118,0,0,0,0,0,0,0,0,0,-1,937,1142,0,0
-280,-118,0,0,0,0,0,0,0,0,0,-1,944,1142,0,0
-273,-118,0,0,0,0,0,0,0,0,0,-1,951,1142,0,0
-266,-118,0,0,0,0,0,0,0,0,0,-1,958,1142,0,0
-259,-118,0,0,0,0,0,0,0,0,0,-1,965,1142,0,0
-252,-118,0,0,0,0,0,0,0,0,0,-1,972,1142,0,0
-245,-118,0,0,0,0,0,0,0,0,0,-1,979,1142,0,0
-238,-118,0,0,0,0,0,0,0,0,0,-1,986,1142,0,0
-231,-118,0,0,0,0,0,0,0,0,0,-1,993,1142,0,0
-224,-118,0,0,0,0,0,0,0,0,0,-1,1000,1142,0,0
-217,-118,0,0,0,0,0,0,0,0,0,-1,1007,1142,0,0
-210,-118,0,0,0,0,0,0,0,0,0,-1,1014,1142,0,0
-203,-118,0,0,0,0,0,0,0,0,0,-1,1021,1142,0,0
-196,-118,0,0,0,0,0,0,0,0,0,-1,1028,1142,0,0
-189,-118,0,0,0,0,0,0,0,0,0,-1,1035,1142,0,0
-182,-118,0,0,0,0,0,0,0,0,0,-1,1042,1142,0,0
-175,-118,0,0,0,0,0,0,0,0,0,-1,1049,1142,0,0
-168,-118,0,0,0,0,0,0,0,0,0,-1,1056,1142,0,0
-161,-118,0,0,0,0,0,0,0,0,0,-1,1063,1142,0,0
-154,-118,0,0,0,0,0,0,0,0,0,-1,1070,1142,0,0
-147,-118,0,0,0,0,0,0,0,0,0,-1,1077,1142,0,0
-140,-118,0,0,0,0,0,0,0,0,0,-1,1084,1142,0,0
-133,-118,0,0,0,0,0,0,0,0,0,-1,1091,1142,0,0
-126,-118,0,0,0,0,0,0,0,0,0,-1,1098,1142,0,0
-119,-118,0,0,0,0,0,0,0,0,0,-1,1105,1142,0,0
-112,-118,0,0,0,0,0,0,0,0,0,-1,1112,1142,0,0
-105,-118,0,0,0,0,0,0,0,0,0,-1,1119,1142,0,0
-98,-118,0,0,0,0,0,0,0,0,0,-1,1126,1142,0,0
-91,-118,0,0,0,0,0,0,0,0,0,-1,1133,1142,0,0
-84,-118,0,0,0,0,0,0,0,0,0,-1,1140,1142,0,0
-77,-118,0,0,0,0,0,0,0,0,0,-1,1147,1142,0,0
-70,-118,0,0,0,0,0,0,0,0,0,-1,1154,1142,0,0
-63,-118,0,0,0,0,0,0,0,0,0,-1,1161,1142,0,0
-56,-118,0,0,0,0,0,0,0,0,0,-1,1168,1142,0,0
-49,-118,0,0,0,0,0,0,0,0,0,-1,1175,1142,0,0
-42,-118,0,0,0,0,0,0,0,0,0,-1,1182,1142,0,0
-35,-118,0,0,0,0,0,0,0,0,0,-1,1189,1142,0,0
-28,-118,0,0,0,0,0,0,0,0,0,-1,1196,1142,0,0
-21,-118,0,0,0,0,0,0,0,0,0,-1,1203,1142,0,0
-14,-118,0,0,0,0,0,0,0,0,0,-1,1210,1142,0,0
-7,-118,0,0,0,0,0,0,0,0,0,-1,1217,1142,0,0
0,-118,0,0,0,0,0,0,0,0,0,-1,1224,1142,0,0
7,-118,0,0,0,0,0,0,0,0,0,-1,1231,1142,0,0
14,-118,0,0,0,0,0,0,0,0,0,-1,1238,1142,0,0
21,-118,0,0,0,0,0,0,0,0,0,-1,1245,1142,0,0
28,-118,0,0,0,0,0,0,0,0,0,-1,1252,1142,0,0
35,-118,0,0,0,0,0,0,0,0,0,-1,1259,1142,0,0
42,-118,0,0,0,0,0,0,0,0,0,-1,1266,1142,0,0
49,-118,0,0,0,0,0,0,0,0,0,-1,1273,1142,0,0
56,-118,0,0,0,0,0,0,0,0,0,-1,1280,1142,0,0
63,-118,0,0,0,0,0,0,0,0,0,-1,1287,1142,0,0
70,-118,0,0,0,0,0,0,0,0,0,-1,1294,1142,0,0
77,-118,0,0,0,0,0,0,0,0,0,-1,1301,1142,0,0
84,-118,0,0,0,0,0,0,0,0,0,-1,1308,1142,0,0
91,-118,0,0,0,0,0,0,0,0,0,-1,1315,1142,0,0
98,-118,0,0,0,0,0,0,0,0,0,-1,1322,1142,0,0
105,-118,0,0,0,0,0,0,0,0,0,-1,1329,1142,0,0
112,-118,0,0,0,0,0,0,0,0,0,-1,1336,1142,0,0
119,-118,0,0,0,0,0,0,0,0,0,-1,1343,1142,0,0
126,-118,0,0,0,0,0,0,0,0,0,-1,1350,1142,0,0
133,-118,0,0,0,0,0,0,0,0,0,-1,1357,1142,0,0
140,-118,0,0,0,0,0,0,0,0,0,-1,1364,1142,0,0
147,-118,0,0,0,0,0,0,0,0,0,-1,1371,1142,0,0
154,-118,0,0,0,0,0,0,0,0,0,-1,1378,1142,0,0
161,-118,0,0,0,0,0,0,0,0,0,-1,1385,1142,0,0
168,-118,0,0,0,0,0,0,0,0,0,-1,1392,1142,0,0
175,-118,0,0,0,0,0,0,0,0,0,-1,1399,1142,0,0
182,-118,0,0,0,0,0,0,0,0,0,-1,1406,1142,0,0
189,-118,0,0,0,0,0,0,0,0,0,-1,1413,1142,0,0
196,-118,0,0,0,0,0,0,0,0,0,-1,1420,1142,0,0
203,-118,0,0,0,0,0,0,0,0,0,-1,1427,1142,0,0
210,-118,0,0,0,0,0,0,0,0,0,-1,1434,1142,0,0
217,-118,0,0,0,0,0,0,0,0,0,-1,1441,1142,0,0
224,-118,0,0,0,0,0,0,0,0,0,-1,1448,1142,0,0
231,-118,0,0,0,0,0,0,0,0,0,-1,1455,1142,0,0
238,-118,0,0,0,0,0,0,0,0,0,-1,1462,1142,0,0
245,-118,0,0,0,0,0,0,0,0,0,-1,1469,1142,0,0
252,-118,0,0,0,0,0,0,0,0,0,-1,1476,1142,0,0
259,-118,0,0,0,0,0,0,0,0,0,-1,1483,1142,0,0
266,-118,0,0,0,0,0,0,0,0,0,-1,1490,1142,0,0
273,-118,0,0,0,0,0,0,0,0,0,-1,1497,1142,0,0
280,-118,0,0,0,0,0,0,0,0,0,-1,1504,1142,0,0
287,-118,0,0,0,0,0,0,0,0,0,-1,1511,1142,0,0
294,-118,0,0,0,0,0,0,0,0,0,-1,1518,1142,0,0
301,-118,0,0,0,0,0,0,0,0,0,-1,1525,1142,0,0
308,-118,0,0,0,0,0,0,0,0,0,-1,1532,1142,0,0
315,-118,0,0,0,0,0,0,0,0,0,-1,1539,1142,0,0
322,-118,0,0,0,0,0,0,0,0,0,-1,1546,1142,0,0
329,-118,0,0,0,0,0,0,0,0,0,-1,1553,1142,0,0
336,-118,0,0,0,0,0,0,0,0,0,-1,1560,1142,0,0
343,-118,0,0,0,0,0,0,0,0,0,-1,1567,1142,0,0
350,-118,0,0,0,0,0,0,0,0,0,-1,1574,1142,0,0
357,-118,0,0,0,0,0,0,0,0,0,-1,1581,1142,0,0
364,-118,0,0,0,0,0,0,0,0,0,-1,1588,1142,0,0
371,-118,0,0,0,0,0,0,0,0,0,-1,1595,1142,0,0
378,-118,0,0,0,0,0,0,0,0,0,-1,1602,1142,0,0
385,-118,0,0,0,0,0,0,0,0,0,-1,1609,1142,0,0
392,-118,0,0,0,0,0,0,0,0,0,-1,1616,1142,0,0
399,-118,0,0,0,0,0,0,0,0,0,-1,1623,1142,0,0
406,-118,0,0,0,0,0,0,0,0,0,-1,1630,1142,0,0
413,-118,0,0,0,0,0,0,0,0,0,-1,1637,1142,0,0
420,-118,0,0,0,0,0,0,0,0,0,-1,1644,1142,0,0
427,-118,0,0,0,0,0,0,0,0,0,-1,1651,1142,0,0
434,-118,0,0,0,0,0,0,0,0,0,-1,1658,1142,0,0
441,-118,0,0,0,0,0,0,0,0,0,-1,1665,1142,0,0
448,-118,0,0,0,0,0,0,0,0,0,-1,1672,1142,0,0
455,-118,0,0,0,0,0,0,0,0,0,-1,1679,1142,0,0
462,-118,0,0,0,0,0,0,0,0,0,-1,1686,1142,0,0
469,-118,0,0,0,0,0,0,0,0,0,-1,1693,1142,0,0
476,-118,0,0,0,0,0,0,0,0,0,-1,1700,1142,0,0
483,-118,0,0,0,0,0,0,0,0,0,-1,1707,1142,0,0
490,-118,0,0,0,0,0,0,0,0,0,-1,1714,1142,0,0
497,-118,0,0,0,0,0,0,0,0,0,-1,1721,1142,0,0
504,-118,0,0,0,0,0,0,0,0,0,-1,1728,1142,0,0
511,-118,0,0,0,0,0,0,0,0,0,-1,1735,1142,0,0
518,-118,0,0,0,0,0,0,0,0,0,-1,1742,1142,0,0
525,-118,0,0,0,0,0,0,0,0,0,-1,1749,1142,0,0
532,-118,0,0,0,0,0,0,0,0,0,-1,1756,1142,0,0
539,-118,0,0,0,0,0,0,0,0,0,-1,1763,1142,0,0
546,-118,0,0,0,0,0,0,0,0,0,-1,1770,1142,0,0
553,-118,0,0,0,0,0,0,0,0,0,-1,1777,1142,0,0
560,-118,0,0,0,0,0,0,0,0,0,-1,1784,1142,0,0
567,-118,0,0,0,0,0,0,0,0,0,-1,1791,1142,0,0
574,-118,0,0,0,0,0,0,0,0,0,-1,1798,1142,0,0
581,-118,0,0,0,0,0,0,0,0,0,-1,1805,1142,0,0
588,-118,0,0,0,0,0,0,0,0,0,-1,1812,1142,0,0
595,-118,0,0,0,0,0,0,0,0,0,-1,1819,1142,0,0
602,-118,0,0,0,0,0,0,0,0,0,-1,1826,1142,0,0
609,-118,0,0,0,0,0,0,0,0,0,-1,1833,1142,0,0
616,-118,0,0,0,0,0,0,0,0,0,-1,1840,1142,0,0
623,-118,0,0,0,0,0,0,0,0,0,-1,1847,1142,0,0
630,-118,0,0,0,0,0,0,0,0,0,-1,1854,1142,0,0
637,-118,0,0,0,0,0,0,0,0,0,-1,1861,1142,0,0
644,-118,55.0037,3.02014,0.00485679,3.56467e-05,-0.000794137,0.00498423,-9.17944e-05,-0.159121,0.00335384,0.0405784,1868,1142,55.0037,-3.02016
651,-118,55.0826,2.88,0.00342559,0.000302042,-0.000752044,0.00359723,0.000130406,-0.224382,0.00235588,0.0385584,1875,1142,55.0827,-2.87998
658,-118,55.3181,2.74231,0.00250587,0.000536315,-0.000863985,0.00283115,0.000211032,-0.360077,0.00182117,0.0418807,1882,1142,55.3182,-2.74232
665,-118,55.3153,2.69092,0.0017838,0.0007624,-0.000964808,0.00236473,0.000181463,-0.541982,0.00151962,0.0423749,1889,1142,55.3153,-2.69087
672,-118,55.2339,2.66003,0.00120387,0.000926803,-0.00106783,0.00214212,-1.14449e-05,-0.720892,0.00143191,0.0461236,1896,1142,55.2339,-2.66006
679,-118,55.073,2.86499,0.000836863,0.000867022,-0.00105234,0.00190439,-0.000200506,-0.792562,0.00134143,0.0425133,1903,1142,55.0731,-2.86499
686,-118,55.0046,2.86182,0.000879054,0.000625732,-0.000889066,0.00165044,-0.00014565,-0.714642,0.00115191,0.0372424,1910,1142,55.0047,-2.86177
693,-118,54.981,2.70264,0.00101677,0.000437862,-0.000666936,0.00145435,2.75322e-07,-0.580662,0.000969478,0.0346372,1917,1142,54.981,-2.70261
700,-118,55.1094,2.61157,0.000961707,0.000180325,-0.000453038,0.00116925,-2.72174e-05,-0.429579,0.000788729,0.0221154,1924,1142,55.1094,-2.61161
707,-118,55.1722,2.60059,0,0,0,0,0,0,0,-1,1931,1142,55.1722,-2.60062
714,-118,50.4819,8.53809,0,0,0,0,0,0,0,-1,1938,1142,50.4819,-8.53809
721,-118,50.0563,7.9679,0.00058541,9.57615e-05,0.000598637,0.000987351,-0.000306179,0.591291,0.000780574,0.0477848,1945,1142,50.0563,-7.96795
728,-118,50.1797,7.53735,0.000729452,0.000138595,0.000889547,0.00137134,-0.000503298,0.625073,0.00112034,0.020311,1952,1142,50.1796,-7.53733
735,-118,50.1576,7.09912,0.00103298,0.000132172,0.00112534,0.0017947,-0.000629547,0.595041,0.00145253,0.0197837,1959,1142,50.1576,-7.09915
742,-118,50.1946,6.65784,0.00135284,0.00038406,0.00146692,0.00241328,-0.000676378,0.62593,0.00187542,0.0283877,1966,1142,50.1946,-6.65785
749,-118,50.1035,6.25061,0.00140332,0.00144917,0.00237866,0.00380501,-0.000952523,0.790216,0.00290668,0.0233031,1973,1142,50.1036,-6.25059
756,-118,50.0887,5.84851,0.00154276,0.00399816,0.00403939,0.0069923,-0.00145138,0.932928,0.00521311,0.0200282,1980,1142,50.0887,-5.84855
763,-118,50.0968,5.41321,0.00226592,0.00808371,0.00698973,0.0127457,-0.00239605,0.982581,0.00939817,0.0109838,1987,1142,50.0969,-5.41317
770,-118,50.0159,5.03406,0.00337733,0.0133566,0.010752,0.0202203,-0.00348639,1.00264,0.01478,0.0133119,1994,1142,50.0159,-5.0341
777,-118,49.873,4.66711,0.00471243,0.019991,0.0157972,0.0298991,-0.00519568,1.01061,0.0218713,0.0297944,2001,1142,49.8731,-4.66712
784,-118,49.8206,4.25269,0.00619085,0.028493,0.0226209,0.042562,-0.00787817,1.0144,0.0313326,0.045138,2008,1142,49.8206,-4.25273
791,-118,49.8064,3.84338,0,0,0,0,0,0,0,-1,2015,1142,49.8065,-3.84333
798,-118,48.5364,-1.46411,0.00988414,0.0530699,0.0440663,0.0805493,-0.0175953,1.01321,0.0604247,0.0445179,2022,1142,48.5364,1.46408
805,-118,48.0569,-0.729248,0.0115237,0.0700901,0.0599011,0.107483,-0.0258689,1.01275,0.0816555,0.0487216,2029,1142,48.0568,0.729258
812,-118,47.5066,0.223877,0,0,0,0,0,0,0,-1,2036,1142,47.5066,-0.223845
-700,-125,0,0,0,0,0,0,0,0,0,-1,524,1149,0,0
-693,-125,-32.89,-0.343506,0,0,0,0,0,0,0,-1,531,1149,-32.89,0.343507
-686,-125,-37.8103,1.92932,0,0,0,0,0,0,0,-1,538,1149,-37.8103,-1.9293
-679,-125,-38.3563,2.32373,0,0,0,0,0,0,0,-1,545,1149,-38.3563,-2.32371
-672,-125,-34.9208,-1.74963,0,0,0,0,0,0,0,-1,552,1149,-34.9208,1.74966
-665,-125,-35.6869,-0.8573,0,0,0,0,0,0,0,-1,559,1149,-35.6869,0.85735
-658,-125,-36.2505,0.549316,0,0,0,0,0,0,0,-1,566,1149,-36.2505,-0.549363
-651,-125,-35.8534,1.2832,0.00170977,-0.00356286,0.0159972,0.0152865,-0.0171395,0.703733,0.0187313,0.0414102,573,1149,-35.8534,-1.28319
-644,-125,-35.5168,1.91492,0.00142351,-0.00159374,0.0103398,0.0103642,-0.0105344,0.712957,0.0120659,0.032089,580,1149,-35.5168,-1.9149
-637,-125,-35.6565,2.35547,0.00108139,-0.00032574,0.00605741,0.00647596,-0.00572031,0.727582,0.00704602,0.0152442,587,1149,-35.6565,-2.35547
-630,-125,-35.679,2.79395,0.000586224,0.00059304,0.00273528,0.00332491,-0.00214565,0.786021,0.0031828,0.0159708,594,1149,-35.679,-2.79392
-623,-125,-35.6902,3.26086,0.000402706,0.000635564,0.000541867,0.00107337,-3.50995e-05,0.891222,0.000727562,0.0138246,601,1149,-35.6903,-3.26088
-616,-125,-35.7524,3.68799,0.00067853,0.000527211,-0.00027165,0.00088486,0.000320881,-0.649582,0.000517261,0.0248262,608,1149,-35.7524,-3.68805
-609,-125,-35.9343,4.0564,0.00115993,0.00084842,-0.000356851,0.00139353,0.000614813,-0.579627,0.00080641,0.0450739,615,1149,-35.9343,-4.05642
-602,-125,-35.8951,4.71265,0.000979385,0.00112976,-0.000410271,0.00147167,0.000637468,-0.876022,0.000852198,0.0380692,622,1149,-35.8951,-4.7126
-595,-125,-36.0608,5.3125,0,0,0,0,0,0,0,-1,629,1149,-36.0608,-5.3125
-588,-125,-35.8055,5.71277,0,0,0,0,0,0,0,-1,636,1149,-35.8055,-5.71274
-581,-125,-26.4055,4.83203,0,0,0,0,0,0,0,-1,643,1149,-26.4055,-4.83204
-574,-125,-37.674,0.655151,0,0,0,0,0,0,0,-1,650,1149,-37.674,-0.655195
-567,-125,-41.1838,0.830811,0,0,0,0,0,0,0,-1,657,1149,-41.1838,-0.830818
-560,-125,-41.1276,0.745361,0.000158898,0.00121182,-0.000808165,0.00164987,-0.000279157,-1.07409,0.00120381,0.0384139,664,1149,-41.1276,-0.745311
-553,-125,-41.0609,0.796875,-0.000489878,0.0012207,-0.00110307,0.00176122,-0.0010304,-1.11517,0.00163005,0.0397446,671,1149,-41.0609,-0.796926
-546,-125,-41.1771,0.838745,-0.00130594,0.00119412,-0.0013563,0.00178857,-0.0019004,-1.15772,0.00213016,0.0403338,678,1149,-41.1772,-0.838716
-539,-125,-41.2397,0.927002,-0.00143919,0.000358544,-0.00124808,0.000997748,-0.00207839,-1.09748,0.00181217,0.0385349,685,1149,-41.2397,-0.927021
-532,-125,-41.2664,0.777588,-0.000869789,-0.000869106,-0.000718589,-0.000150859,-0.00158804,-0.785636,0.00101216,0.0368736,692,1149,-41.2663,-0.777535
-525,-125,-41.0959,0.613037,2.71288e-05,-0.00196999,8.42855e-05,3.06796e-05,-0.00197354,0.0421037,0.00132604,0.0396338,699,1149,-41.0959,-0.613028
-518,-125,0,0,0,0,0,0,0,0,0,-1,706,1149,0,0
-511,-125,0,0,0,0,0,0,0,0,0,-1,713,1149,0,0
-504,-125,0,0,0,0,0,0,0,0,0,-1,720,1149,0,0
-497,-125,0,0,0,0,0,0,0,0,0,-1,727,1149,0,0
-490,-125,0,0,0,0,0,0,0,0,0,-1,734,1149,0,0
-483,-125,0,0,0,0,0,0,0,0,0,-1,741,1149,0,0
-476,-125,0,0,0,0,0,0,0,0,0,-1,748,1149,0,0
-469,-125,0,0,0,0,0,0,0,0,0,-1,755,1149,0,0
-462,-125,0,0,0,0,0,0,0,0,0,-1,762,1149,0,0
-455,-125,0,0,0,0,0,0,0,0,0,-1,769,1149,0,0
-448,-125,0,0,0,0,0,0,0,0,0,-1,776,1149,0,0
-441,-125,0,0,0,0,0,0,0,0,0,-1,783,1149,0,0
-434,-125,0,0,0,0,0,0,0,0,0,-1,790,1149,0,0
-427,-125,0,0,0,0,0,0,0,0,0,-1,797,1149,0,0
-420,-125,0,0,0,0,0,0,0,0,0,-1,804,1149,0,0
-413,-125,0,0,0,0,0,0,0,0,0,-1,811,1149,0,0
-406,-125,0,0,0,0,0,0,0,0,0,-1,818,1149,0,0
-399,-125,0,0,0,0,0,0,0,0,0,-1,825,1149,0,0
-392,-125,0,0,0,0,0,0,0,0,0,-1,832,1149,0,0
-385,-125,0,0,0,0,0,0,0,0,0,-1,839,1149,0,0
-378,-125,0,0,0,0,0,0,0,0,0,-1,846,1149,0,0
-371,-125,0,0,0,0,0,0,0,0,0,-1,853,1149,0,0
-364,-125,0,0,0,0,0,0,0,0,0,-1,860,1149,0,0
-357,-125,0,0,0,0,0,0,0,0,0,-1,867,1149,0,0
-350,-125,0,0,0,0,0,0,0,0,0,-1,874,1149,0,0
-343,-125,0,0,0,0,0,0,0,0,0,-1,881,1149,0,0
-336,-125,0,0,0,0,0,0,0,0,0,-1,888,1149,0,0
-329,-125,0,0,0,0,0,0,0,0,0,-1,895,1149,0,0
-322,-125,0,0,0,0,0,0,0,0,0,-1,902,1149,0,0
-315,-125,0,0,0,0,0,0,0,0,0,-1,909,1149,0,0
-308,-125,0,0,0,0,0,0,0,0,0,-1,916,1149,0,0
-301,-125,0,0,0,0,0,0,0,0,0,-1,923,1149,0,0
-294,-125,0,0,0,0,0,0,0,0,0,-1,930,1149,0,0
-287,-125,0,0,0,0,0,0,0,0,0,-1,937,1149,0,0
-280,-125,0,0,0,0,0,0,0,0,0,-1,944,1149,0,0
-273,-125,0,0,0,0,0,0,0,0,0,-1,951,1149,0,0
-266,-125,0,0,0,0,0,0,0,0,0,-1,958,1149,0,0
-259,-125,0,0,0,0,0,0,0,0,0,-1,965,1149,0,0
-252,-125,0,0,0,0,0,0,0,0,0,-1,972,1149,0,0
-245,-125,0,0,0,0,0,0,0,0,0,-1,979,1149,0,0
-238,-125,0,0,0,0,0,0,0,0,0,-1,986,1149,0,0
-231,-125,0,0,0,0,0,0,0,0,0,-1,993,1149,0,0
-224,-125,0,0,0,0,0,0,0,0,0,-1,1000,1149,0,0
-217,-125,0,0,0,0,0,0,0,0,0,-1,1007,1149,0,0
-210,-125,0,0,0,0,0,0,0,0,0,-1,1014,1149,0,0
-203,-125,0,0,0,0,0,0,0,0,0,-1,1021,1149,0,0
-196,-125,0,0,0,0,0,0,0,0,0,-1,1028,1149,0,0
-189,-125,0,0,0,0,0,0,0,0,0,-1,1035,1149,0,0
-182,-125,0,0,0,0,0,0,0,0,0,-1,1042,1149,0,0
-175,-125,0,0,0,0,0,0,0,0,0,-1,1049,1149,0,0
-168,-125,0,0,0,0,0,0,0,0,0,-1,1056,1149,0,0
-161,-125,0,0,0,0,0,0,0,0,0,-1,1063,1149,0,0
-154,-125,0,0,0,0,0,0,0,0,0,-1,1070,1149,0,0
-147,-125,0,0,0,0,0,0,0,0,0,-1,1077,1149,0,0
-140,-125,0,0,0,0,0,0,0,0,0,-1,1084,1149,0,0
-133,-125,0,0,0,0,0,0,0,0,0,-1,1091,1149,0,0
-126,-125,0,0,0,0,0,0,0,0,0,-1,1098,1149,0,0
-119,-125,0,0,0,0,0,0,0,0,0,-1,1105,1149,0,0
-112,-125,0,0,0,0,0,0,0,0,0,-1,1112,1149,0,0
-105,-125,0,0,0,0,0,0,0,0,0,-1,1119,1149,0,0
-98,-125,0,0,0,0,0,0,0,0,0,-1,1126,1149,0,0
-91,-125,0,0,0,0,0,0,0,0,0,-1,1133,1149,0,0
-84,-125,0,0,0,0,0,0,0,0,0,-1,1140,1149,0,0
-77,-125,0,0,0,0,0,0,0,0,0,-1,1147,1149,0,0
-70,-125,0,0,0,0,0,0,0,0,0,-1,1154,1149,0,0
-63,-125,0,0,0,0,0,0,0,0,0,-1,1161,1149,0,0
-56,-125,0,0,0,0,0,0,0,0,0,-1,1168,1149,0,0
-49,-125,0,0,0,0,0,0,0,0,0,-1,1175,1149,0,0
-42,-125,0,0,0,0,0,0,0,0,0,-1,1182,1149,0,0
-35,-125,0,0,0,0,0,0,0,0,0,-1,1189,1149,0,0
-28,-125,0,0,0,0,0,0,0,0,0,-1,1196,1149,0,0
-21,-125,0,0,0,0,0,0,0,0,0,-1,1203,1149,0,0
-14,-125,0,0,0,0,0,0,0,0,0,-1,1210,1149,0,0
-7,-125,0,0,0,0,0,0,0,0,0,-1,1217,1149,0,0
0,-125,0,0,0,0,0,0,0,0,0,-1,1224,1149,0,0
7,-125,0,0,0,0,0,0,0,0,0,-1,1231,1149,0,0
14,-125,0,0,0,0,0,0,0,0,0,-1,1238,1149,0,0
21,-125,0,0,0,0,0,0,0,0,0,-1,1245,1149,0,0
28,-125,0,0,0,0,0,0,0,0,0,-1,1252,1149,0,0
35,-125,0,0,0,0,0,0,0,0,0,-1,1259,1149,0,0
42,-125,0,0,0,0,0,0,0,0,0,-1,1266,1149,0,0
49,-125,0,0,0,0,0,0,0,0,0,-1,1273,1149,0,0
56,-125,0,0,0,0,0,0,0,0,0,-1,1280,1149,0,0
63,-125,0,0,0,0,0,0,0,0,0,-1,1287,1149,0,0
70,-125,0,0,0,0,0,0,0,0,0,-1,1294,1149,0,0
77,-125,0,0,0,0,0,0,0,0,0,-1,1301,1149,0,0
84,-125,0,0,0,0,0,0,0,0,0,-1,1308,1149,0,0
91,-125,0,0,0,0,0,0,0,0,0,-1,1315,1149,0,0
98,-125,0,0,0,0,0,0,0,0,0,-1,1322,1149,0,0
105,-125,0,0,0,0,0,0,0,0,0,-1,1329,1149,0,0
112,-125,0,0,0,0,0,0,0,0,0,-1,1336,1149,0,0
119,-125,0,0,0,0,0,0,0,0,0,-1,1343,1149,0,0
126,-125,0,0,0,0,0,0,0,0,0,-1,1350,1149,0,0
133,-125,0,0,0,0,0,0,0,0,0,-1,1357,1149,0,0
140,-125,0,0,0,0,0,0,0,0,0,-1,1364,1149,0,0
147,-125,0,0,0,0,0,0,0,0,0,-1,1371,1149,0,0
154,-125,0,0,0,0,0,0,0,0,0,-1,1378,1149,0,0
161,-125,0,0,0,0,0,0,0,0,0,-1,1385,1149,0,0
168,-125,0,0,0,0,0,0,0,0,0,-1,1392,1149,0,0
175,-125,0,0,0,0,0,0,0,0,0,-1,1399,1149,0,0
182,-125,0,0,0,0,0,0,0,0,0,-1,1406,1149,0,0
189,-125,0,0,0,0,0,0,0,0,0,-1,1413,1149,0,0
196,-125,0,0,0,0,0,0,0,0,0,-1,1420,1149,0,0
203,-125,0,0,0,0,0,0,0,0,0,-1,1427,1149,0,0
210,-125,0,0,0,0,0,0,0,0,0,-1,1434,1149,0,0
217,-125,0,0,0,0,0,0,0,0,0,-1,1441,1149,0,0
224,-125,0,0,0,0,0,0,0,0,0,-1,1448,1149,0,0
231,-125,0,0,0,0,0,0,0,0,0,-1,1455,1149,0,0
238,-125,0,0,0,0,0,0,0,0,0,-1,1462,1149,0,0
245,-125,0,0,0,0,0,0,0,0,0,-1,1469,1149,0,0
252,-125,0,0,0,0,0,0,0,0,0,-1,1476,1149,0,0
259,-125,0,0,0,0,0,0,0,0,0,-1,1483,1149,0,0
266,-125,0,0,0,0,0,0,0,0,0,-1,1490,1149,0,0
273,-125,0,0,0,0,0,0,0,0,0,-1,1497,1149,0,0
280,-125,0,0,0,0,0,0,0,0,0,-1,1504,1149,0,0
287,-125,0,0,0,0,0,0,0,0,0,-1,1511,1149,0,0
294,-125,0,0,0,0,0,0,0,0,0,-1,1518,1149,0,0
301,-125,0,0,0,0,0,0,0,0,0,-1,1525,1149,0,0
308,-125,0,0,0,0,0,0,0,0,0,-1,1532,1149,0,0
315,-125,0,0,0,0,0,0,0,0,0,-1,1539,1149,0,0
322,-125,0,0,0,0,0,0,0,0,0,-1,1546,1149,0,0
329,-125,0,0,0,0,0,0,0,0,0,-1,1553,1149,0,0
336,-125,0,0,0,0,0,0,0,0,0,-1,1560,1149,0,0
343,-125,0,0,0,0,0,0,0,0,0,-1,1567,1149,0,0
350,-125,0,0,0,0,0,0,0,0,0,-1,1574,1149,0,0
357,-125,0,0,0,0,0,0,0,0,0,-1,1581,1149,0,0
364,-125,0,0,0,0,0,0,0,0,0,-1,1588,1149,0,0
371,-125,0,0,0,0,0,0,0,0,0,-1,1595,1149,0,0
378,-125,0,0,0,0,0,0,0,0,0,-1,1602,1149,0,0
385,-125,0,0,0,0,0,0,0,0,0,-1,1609,1149,0,0
392,-125,0,0,0,0,0,0,0,0,0,-1,1616,1149,0,0
399,-125,0,0,0,0,0,0,0,0,0,-1,1623,1149,0,0
406,-125,0,0,0,0,0,0,0,0,0,-1,1630,1149,0,0
413,-125,0,0,0,0,0,0,0,0,0,-1,1637,1149,0,0
420,-125,0,0,0,0,0,0,0,0,0,-1,1644,1149,0,0
427,-125,0,0,0,0,0,0,0,0,0,-1,1651,1149,0,0
434,-125,0,0,0,0,0,0,0,0,0,-1,1658,1149,0,0
441,-125,0,0,0,0,0,0,0,0,0,-1,1665,1149,0,0
448,-125,0,0,0,0,0,0,0,0,0,-1,1672,1149,0,0
455,-125,0,0,0,0,0,0,0,0,0,-1,1679,1149,0,0
462,-125,0,0,0,0,0,0,0,0,0,-1,1686,1149,0,0
469,-125,0,0,0,0,0,0,0,0,0,-1,1693,1149,0,0
476,-125,0,0,0,0,0,0,0,0,0,-1,1700,1149,0,0
483,-125,0,0,0,0,0,0,0,0,0,-1,1707,1149,0,0
490,-125,0,0,0,0,0,0,0,0,0,-1,1714,1149,0,0
497,-125,0,0,0,0,0,0,0,0,0,-1,1721,1149,0,0
504,-125,0,0,0,0,0,0,0,0,0,-1,1728,1149,0,0
511,-125,0,0,0,0,0,0,0,0,0,-1,1735,1149,0,0
518,-125,0,0,0,0,0,0,0,0,0,-1,1742,1149,0,0
525,-125,0,0,0,0,0,0,0,0,0,-1,1749,1149,0,0
532,-125,0,0,0,0,0,0,0,0,0,-1,1756,1149,0,0
539,-125,0,0,0,0,0,0,0,0,0,-1,1763,1149,0,0
546,-125,0,0,0,0,0,0,0,0,0,-1,1770,1149,0,0
553,-125,0,0,0,0,0,0,0,0,0,-1,1777,1149,0,0
560,-125,0,0,0,0,0,0,0,0,0,-1,1784,1149,0,0
567,-125,0,0,0,0,0,0,0,0,0,-1,1791,1149,0,0
574,-125,0,0,0,0,0,0,0,0,0,-1,1798,1149,0,0
581,-125,0,0,0,0,0,0,0,0,0,-1,1805,1149,0,0
588,-125,0,0,0,0,0,0,0,0,0,-1,1812,1149,0,0
595,-125,0,0,0,0,0,0,0,0,0,-1,1819,1149,0,0
602,-125,0,0,0,0,0,0,0,0,0,-1,1826,1149,0,0
609,-125,0,0,0,0,0,0,0,0,0,-1,1833,1149,0,0
616,-125,0,0,0,0,0,0,0,0,0,-1,1840,1149,0,0
623,-125,0,0,0,0,0,0,0,0,0,-1,1847,1149,0,0
630,-125,0,0,0,0,0,0,0,0,0,-1,1854,1149,0,0
637,-125,0,0,0,0,0,0,0,0,0,-1,1861,1149,0,0
644,-125,55.0292,3.01807,0.00501346,0.000156355,-0.000927306,0.00518448,-1.46627e-05,-0.182375,0.00346122,0.0444213,1868,1149,55.0292,-3.01806
651,-125,54.9791,2.70178,0.00348488,0.000485063,-0.000845024,0.00370653,0.000263405,-0.25653,0.00238807,0.038933,1875,1149,54.9792,-2.70177
658,-125,55.2375,2.56519,0.00246959,0.00077876,-0.000922859,0.00287573,0.000372618,-0.414583,0.00180581,0.0408397,1882,1149,55.2376,-2.56521
665,-125,55.1614,2.51099,0.00166408,0.00105601,-0.00101152,0.00241627,0.000303815,-0.639407,0.00151973,0.0423342,1889,1149,55.1613,-2.51099
672,-125,55.1847,2.41748,0.00101003,0.0012669,-0.00109824,0.00224419,3.2743e-05,-0.843607,0.00148533,0.0434399,1896,1149,55.1846,-2.41746
679,-125,55.0845,2.50781,0.0005832,0.00120305,-0.00103628,0.00197476,-0.000188508,-0.930702,0.00138363,0.0377121,1903,1149,55.0844,-2.5078
686,-125,55.0415,2.73267,0.000619162,0.000966777,-0.000868424,0.00167862,-9.26764e-05,-0.884164,0.00115121,0.0351724,1910,1149,55.0415,-2.73261
693,-125,54.9966,2.72437,0.000721593,0.000777863,-0.000623986,0.00137435,0.000125108,-0.807928,0.000877507,0.0319421,1917,1149,54.9965,-2.72435
700,-125,55.0873,2.61584,0.000613915,0.000509817,-0.000398058,0.000963313,0.000160419,-0.720389,0.000595976,0.0167135,1924,1149,55.0872,-2.61588
707,-125,55.1885,2.54895,0,0,0,0,0,0,0,-1,1931,1149,55.1885,-2.549
714,-125,49.8738,8.45129,0,0,0,0,0,0,0,-1,1938,1149,49.8738,-8.45129
721,-125,49.755,7.99841,0.000299586,0.000331144,0.000575675,0.000891256,-0.000260526,0.7991,0.000697426,0.0362603,1945,1149,49.755,-7.99842
728,-125,49.6854,7.59668,0.000587286,0.000280826,0.000858503,0.00130613,-0.000438014,0.697086,0.00104773,0.0206328,1952,1149,49.6854,-7.59668
735,-125,49.7161,7.15015,0.00106802,0.000167467,0.00109312,0.00179997,-0.000564479,0.590028,0.00142588,0.0204588,1959,1149,49.716,-7.15016
742,-125,49.7644,6.69421,0.00154906,0.000253505,0.00144923,0.0024887,-0.000686127,0.575227,0.00192895,0.0280319,1966,1149,49.7644,-6.69421
749,-125,49.6404,6.30896,0.00192458,0.00110871,0.00226863,0.00382166,-0.000788375,0.696441,0.00284719,0.027066,1973,1149,49.6403,-6.30894
756,-125,49.631,5.84412,0.00266622,0.00342255,0.00373348,0.00679697,-0.000708201,0.835871,0.00478488,0.023477,1980,1149,49.6309,-5.84416
763,-125,49.6337,5.42297,0.00415762,0.00718473,0.00638722,0.0122353,-0.000892925,0.901735,0.00847019,0.0128876,1987,1149,49.6337,-5.42292
770,-125,49.5814,4.98853,0.00615919,0.0119921,0.00970235,0.0192069,-0.00105556,0.931399,0.0131705,0.0159576,1994,1149,49.5814,-4.98848
777,-125,49.4834,4.64355,0.00844847,0.0181158,0.0141394,0.0282249,-0.00166061,0.950101,0.0193938,0.0325589,2001,1149,49.4834,-4.64357
784,-125,49.4563,4.27856,0.0110283,0.0260603,0.0201503,0.0400507,-0.00296214,0.963905,0.0277406,0.0479037,2008,1149,49.4564,-4.2786
791,-125,49.5393,3.9209,0,0,0,0,0,0,0,-1,2015,1149,49.5394,-3.92093
798,-125,50.2024,3.77087,0,0,0,0,0,0,0,-1,2022,1149,50.2025,-3.77086
805,-125,46.9448,-1.47827,0,0,0,0,0,0,0,-1,2029,1149,46.9449,1.47825
812,-125,50.1238,-0.0614014,0,0,0,0,0,0,0,-1,2036,1149,50.1238,0.0614023
-700,-132,0,0,0,0,0,0,0,0,0,-1,524,1156,0,0
-693,-132,-36.5409,-3.85193,0,0,0,0,0,0,0,-1,531,1156,-36.5409,3.85187
-686,-132,-36.7745,-2.97595,0,0,0,0,0,0,0,-1,538,1156,-36.7745,2.976
-679,-132,-34.0067,-2.51318,0,0,0,0,0,0,0,-1,545,1156,-34.0066,2.51324
-672,-132,-34.3735,-1.62708,0.00608119,-0.0237711,0.0470291,0.0404959,-0.0581858,0.631735,0.0572783,0.0452195,552,1156,-34.3735,1.62704
-665,-132,-34.8229,-0.77124,0.00658727,-0.017827,0.0355,0.0319203,-0.0431601,0.6198,0.0435093,0.0429385,559,1156,-34.8229,0.771257
-658,-132,-35.8463,0.770874,0,0,0,0,0,0,0,-1,566,1156,-35.8463,-0.770846
-651,-132,-35.4858,1.35022,0.00509017,-0.00823523,0.0180669,0.0176838,-0.0208288,0.608745,0.0222599,0.0415622,573,1156,-35.4858,-1.35019
-644,-132,-35.1205,1.87732,0.00404264,-0.00483058,0.0118946,0.0123011,-0.013089,0.606893,0.0146614,0.0254017,580,1156,-35.1205,-1.87738
-637,-132,-35.1866,2.32861,0.00295604,-0.00234362,0.0070838,0.0078694,-0.00725698,0.606421,0.00873561,0.0130962,587,1156,-35.1867,-2.32859
-630,-132,-35.201,2.77332,0.00177207,-0.000426976,0.00329038,0.00414177,-0.00279668,0.62415,0.00403093,0.0108216,594,1156,-35.201,-2.77333
-623,-132,-35.2451,3.27844,0.00101069,0.000328165,0.000714869,0.00146157,-0.000122721,0.562705,0.00101776,0.0162739,601,1156,-35.2451,-3.27842
-616,-132,-35.2859,3.67944,0.000900162,0.000431649,-0.000307189,0.00105222,0.000279588,-0.459646,0.000629339,0.0321814,608,1156,-35.2859,-3.67945
-609,-132,-35.3181,4.36023,0,0,0,0,0,0,0,-1,615,1156,-35.3181,-4.36026
-602,-132,-35.2682,4.68311,0.000963729,0.00088693,-0.00046014,0.00138707,0.00046359,-0.743769,0.000815365,0.0328019,622,1156,-35.2682,-4.68306
-595,-132,-35.3901,5.17053,-0.000264911,0.000976151,-0.000611916,0.00122711,-0.000515873,-1.18159,0.00103386,0.0460776,629,1156,-35.3901,-5.17047
-588,-132,-35.3883,5.70532,0,0,0,0,0,0,0,-1,636,1156,-35.3883,-5.70534
-581,-132,-35.2696,6.2644,0,0,0,0,0,0,0,-1,643,1156,-35.2696,-6.26443
-574,-132,-33.2071,2.86963,0,0,0,0,0,0,0,-1,650,1156,-33.2071,-2.86963
-567,-132,-41.1219,0.759277,0,0,0,0,0,0,0,-1,657,1156,-41.1219,-0.759324
-560,-132,-41.1648,0.723755,-0.000261562,0.00111315,-0.000784396,0.00146874,-0.000617152,-1.14518,0.00123729,0.0362178,664,1156,-41.1648,-0.723727
-553,-132,-41.2117,0.745361,-0.000886563,0.00117567,-0.00106083,0.00162393,-0.00133482,-1.171,0.00171095,0.0387406,671,1156,-41.2117,-0.745398
-546,-132,-41.4058,0.996948,-0.00150374,0.00133049,-0.00129532,0.00183328,-0.00200654,-1.20053,0.00221768,0.0401326,678,1156,-41.4057,-0.996957
-539,-132,-41.3214,1.03308,-0.00136293,0.000857636,-0.00126049,0.00142711,-0.0019324,-1.14646,0.00194691,0.0376427,685,1156,-41.3214,-1.03303
-532,-132,-41.1725,0.881226,-0.000324623,-5.52628e-05,-0.000832635,0.000653514,-0.0010334,-0.865579,0.000982138,0.0375153,692,1156,-41.1725,-0.8812
-525,-132,-41.1561,0.786499,0.00124222,-0.000957927,-0.000154871,0.00125307,-0.000968775,-0.0699317,0.00128628,0.0405508,699,1156,-41.1561,-0.78653
-518,-132,0,0,0,0,0,0,0,0,0,-1,706,1156,0,0
-511,-132,0,0,0,0,0,0,0,0,0,-1,713,1156,0,0
-504,-132,0,0,0,0,0,0,0,0,0,-1,720,1156,0,0
-497,-132,0,0,0,0,0,0,0,0,0,-1,727,1156,0,0
-490,-132,0,0,0,0,0,0,0,0,0,-1,734,1156,0,0
-483,-132,0,0,0,0,0,0,0,0,0,-1,741,1156,0,0
-476,-132,0,0,0,0,0,0,0,0,0,-1,748,1156,0,0
-469,-132,0,0,0,0,0,0,0,0,0,-1,755,1156,0,0
-462,-132,0,0,0,0,0,0,0,0,0,-1,762,1156,0,0
-455,-132,0,0,0,0,0,0,0,0,0,-1,769,1156,0,0
-448,-132,0,0,0,0,0,0,0,0,0,-1,776,1156,0,0
-441,-132,0,0,0,0,0,0,0,0,0,-1,783,1156,0,0
-434,-132,0,0,0,0,0,0,0,0,0,-1,790,1156,0,0
-427,-132,0,0,0,0,0,0,0,0,0,-1,797,1156,0,0
-420,-132,0,0,0,0,0,0,0,0,0,-1,804,1156,0,0
-413,-132,0,0,0,0,0,0,0,0,0,-1,811,1156,0,0
-406,-132,0,0,0,0,0,0,0,0,0,-1,818,1156,0,0
-399,-132,0,0,0,0,0,0,0,0,0,-1,825,1156,0,0
-392,-132,0,0,0,0,0,0,0,0,0,-1,832,1156,0,0
-385,-132,0,0,0,0,0,0,0,0,0,-1,839,1156,0,0
-378,-132,0,0,0,0,0,0,0,0,0,-1,846,1156,0,0
-371,-132,0,0,0,0,0,0,0,0,0,-1,853,1156,0,0
-364,-132,0,0,0,0,0,0,0,0,0,-1,860,1156,0,0
-357,-132,0,0,0,0,0,0,0,0,0,-1,867,1156,0,0
-350,-132,0,0,0,0,0,0,0,0,0,-1,874,1156,0,0
-343,-132,0,0,0,0,0,0,0,0,0,-1,881,1156,0,0
-336,-132,0,0,0,0,0,0,0,0,0,-1,888,1156,0,0
-329,-132,0,0,0,0,0,0,0,0,0,-1,895,1156,0,0
-322,-132,0,0,0,0,0,0,0,0,0,-1,902,1156,0,0
-315,-132,0,0,0,0,0,0,0,0,0,-1,909,1156,0,0
-308,-132,0,0,0,0,0,0,0,0,0,-1,916,1156,0,0
-301,-132,0,0,0,0,0,0,0,0,0,-1,923,1156,0,0
-294,-132,0,0,0,0,0,0,0,0,0,-1,930,1156,0,0
-287,-132,0,0,0,0,0,0,0,0,0,-1,937,1156,0,0
-280,-132,0,0,0,0,0,0,0,0,0,-1,944,1156,0,0
-273,-132,0,0,0,0,0,0,0,0,0,-1,951,1156,0,0
-266,-132,0,0,0,0,0,0,0,0,0,-1,958,1156,0,0
-259,-132,0,0,0,0,0,0,0,0,0,-1,965,1156,0,0
-252,-132,0,0,0,0,0,0,0,0,0,-1,972,1156,0,0
-245,-132,0,0,0,0,0,0,0,0,0,-1,979,1156,0,0
-238,-132,0,0,0,0,0,0,0,0,0,-1,986,1156,0,0
-231,-132,0,0,0,0,0,0,0,0,0,-1,993,1156,0,0
-224,-132,0,0,0,0,0,0,0,0,0,-1,1000,1156,0,0
-217,-132,0,0,0,0,0,0,0,0,0,-1,1007,1156,0,0
-210,-132,0,0,0,0,0,0,0,0,0,-1,1014,1156,0,0
-203,-132,0,0,0,0,0,0,0,0,0,-1,1021,1156,0,0
-196,-132,0,0,0,0,0,0,0,0,0,-1,1028,1156,0,0
-189,-132,0,0,0,0,0,0,0,0,0,-1,1035,1156,0,0
-182,-132,0,0,0,0,0,0,0,0,0,-1,1042,1156,0,0
-175,-132,0,0,0,0,0,0,0,0,0,-1,1049,1156,0,0
-168,-132,0,0,0,0,0,0,0,0,0,-1,1056,1156,0,0
-161,-132,0,0,0,0,0,0,0,0,0,-1,1063,1156,0,0
-154,-132,0,0,0,0,0,0,0,0,0,-1,1070,1156,0,0
-147,-132,0,0,0,0,0,0,0,0,0,-1,1077,1156,0,0
-140,-132,0,0,0,0,0,0,0,0,0,-1,1084,1156,0,0
-133,-132,0,0,0,0,0,0,0,0,0,-1,1091,1156,0,0
-126,-132,0,0,0,0,0,0,0,0,0,-1,1098,1156,0,0
-119,-132,0,0,0,0,0,0,0,0,0,-1,1105,1156,0,0
-112,-132,0,0,0,0,0,0,0,0,0,-1,1112,1156,0,0
-105,-132,0,0,0,0,0,0,0,0,0,-1,1119,1156,0,0
-98,-132,0,0,0,0,0,0,0,0,0,-1,1126,1156,0,0
-91,-132,0,0,0,0,0,0,0,0,0,-1,1133,1156,0,0
-84,-132,0,0,0,0,0,0,0,0,0,-1,1140,1156,0,0
-77,-132,0,0,0,0,0,0,0,0,0,-1,1147,1156,0,0
-70,-132,0,0,0,0,0,0,0,0,0,-1,1154,1156,0,0
-63,-132,0,0,0,0,0,0,0,0,0,-1,1161,1156,0,0
-56,-132,0,0,0,0,0,0,0,0,0,-1,1168,1156,0,0
-49,-132,0,0,0,0,0,0,0,0,0,-1,1175,1156,0,0
-42,-132,0,0,0,0,0,0,0,0,0,-1,1182,1156,0,0
-35,-132,0,0,0,0,0,0,0,0,0,-1,1189,1156,0,0
-28,-132,0,0,0,0,0,0,0,0,0,-1,1196,1156,0,0
-21,-132,0,0,0,0,0,0,0,0,0,-1,1203,1156,0,0
-14,-132,0,0,0,0,0,0,0,0,0,-1,1210,1156,0,0
-7,-132,0,0,0,0,0,0,0,0,0,-1,1217,1156,0,0
0,-132,0,0,0,0,0,0,0,0,0,-1,1224,1156,0,0
7,-132,0,0,0,0,0,0,0,0,0,-1,1231,1156,0,0
14,-132,0,0,0,0,0,0,0,0,0,-1,1238,1156,0,0
21,-132,0,0,0,0,0,0,0,0,0,-1,1245,1156,0,0
28,-132,0,0,0,0,0,0,0,0,0,-1,1252,1156,0,0
35,-132,0,0,0,0,0,0,0,0,0,-1,1259,1156,0,0
42,-132,0,0,0,0,0,0,0,0,0,-1,1266,1156,0,0
49,-132,0,0,0,0,0,0,0,0,0,-1,1273,1156,0,0
56,-132,0,0,0,0,0,0,0,0,0,-1,1280,1156,0,0
63,-132,0,0,0,0,0,0,0,0,0,-1,1287,1156,0,0
70,-132,0,0,0,0,0,0,0,0,0,-1,1294,1156,0,0
77,-132,0,0,0,0,0,0,0,0,0,-1,1301,1156,0,0
84,-132,0,0,0,0,0,0,0,0,0,-1,1308,1156,0,0
91,-132,0,0,0,0,0,0,0,0,0,-1,1315,1156,0,0
98,-132,0,0,0,0,0,0,0,0,0,-1,1322,1156,0,0
105,-132,0,0,0,0,0,0,0,0,0,-1,1329,1156,0,0
112,-132,0,0,0,0,0,0,0,0,0,-1,1336,1156,0,0
119,-132,0,0,0,0,0,0,0,0,0,-1,1343,1156,0,0
126,-132,0,0,0,0,0,0,0,0,0,-1,1350,1156,0,0
133,-132,0,0,0,0,0,0,0,0,0,-1,1357,1156,0,0
140,-132,0,0,0,0,0,0,0,0,0,-1,1364,1156,0,0
147,-132,0,0,0,0,0,0,0,0,0,-1,1371,1156,0,0
154,-132,0,0,0,0,0,0,0,0,0,-1,1378,1156,0,0
161,-132,0,0,0,0,0,0,0,0,0,-1,1385,1156,0,0
168,-132,0,0,0,0,0,0,0,0,0,-1,1392,1156,0,0
175,-132,0,0,0,0,0,0,0,0,0,-1,1399,1156,0,0
182,-132,0,0,0,0,0,0,0,0,0,-1,1406,1156,0,0
189,-132,0,0,0,0,0,0,0,0,0,-1,1413,1156,0,0
196,-132,0,0,0,0,0,0,0,0,0,-1,1420,1156,0,0
203,-132,0,0,0,0,0,0,0,0,0,-1,1427,1156,0,0
210,-132,0,0,0,0,0,0,0,0,0,-1,1434,1156,0,0
217,-132,0,0,0,0,0,0,0,0,0,-1,1441,1156,0,0
224,-132,0,0,0,0,0,0,0,0,0,-1,1448,1156,0,0
231,-132,0,0,0,0,0,0,0,0,0,-1,1455,1156,0,0
238,-132,0,0,0,0,0,0,0,0,0,-1,1462,1156,0,0
245,-132,0,0,0,0,0,0,0,0,0,-1,1469,1156,0,0
252,-132,0,0,0,0,0,0,0,0,0,-1,1476,1156,0,0
259,-132,0,0,0,0,0,0,0,0,0,-1,1483,1156,0,0
266,-132,0,0,0,0,0,0,0,0,0,-1,1490,1156,0,0
273,-132,0,0,0,0,0,0,0,0,0,-1,1497,1156,0,0
280,-132,0,0,0,0,0,0,0,0,0,-1,1504,1156,0,0
287,-132,0,0,0,0,0,0,0,0,0,-1,1511,1156,0,0
294,-132,0,0,0,0,0,0,0,0,0,-1,1518,1156,0,0
301,-132,0,0,0,0,0,0,0,0,0,-1,1525,1156,0,0
308,-132,0,0,0,0,0,0,0,0,0,-1,1532,1156,0,0
315,-132,0,0,0,0,0,0,0,0,0,-1,1539,1156,0,0
322,-132,0,0,0,0,0,0,0,0,0,-1,1546,1156,0,0
329,-132,0,0,0,0,0,0,0,0,0,-1,1553,1156,0,0
336,-132,0,0,0,0,0,0,0,0,0,-1,1560,1156,0,0
343,-132,0,0,0,0,0,0,0,0,0,-1,1567,1156,0,0
350,-132,0,0,0,0,0,0,0,0,0,-1,1574,1156,0,0
357,-132,0,0,0,0,0,0,0,0,0,-1,1581,1156,0,0
364,-132,0,0,0,0,0,0,0,0,0,-1,1588,1156,0,0
371,-132,0,0,0,0,0,0,0,0,0,-1,1595,1156,0,0
378,-132,0,0,0,0,0,0,0,0,0,-1,1602,1156,0,0
385,-132,0,0,0,0,0,0,0,0,0,-1,1609,1156,0,0
392,-132,0,0,0,0,0,0,0,0,0,-1,1616,1156,0,0
399,-132,0,0,0,0,0,0,0,0,0,-1,1623,1156,0,0
406,-132,0,0,0,0,0,0,0,0,0,-1,1630,1156,0,0
413,-132,0,0,0,0,0,0,0,0,0,-1,1637,1156,0,0
420,-132,0,0,0,0,0,0,0,0,0,-1,1644,1156,0,0
427,-132,0,0,0,0,0,0,0,0,0,-1,1651,1156,0,0
434,-132,0,0,0,0,0,0,0,0,0,-1,1658,1156,0,0
441,-132,0,0,0,0,0,0,0,0,0,-1,1665,1156,0,0
448,-132,0,0,0,0,0,0,0,0,0,-1,1672,1156,0,0
455,-132,0,0,0,0,0,0,0,0,0,-1,1679,1156,0,0
462,-132,0,0,0,0,0,0,0,0,0,-1,1686,1156,0,0
469,-132,0,0,0,0,0,0,0,0,0,-1,1693,1156,0,0
476,-132,0,0,0,0,0,0,0,0,0,-1,1700,1156,0,0
483,-132,0,0,0,0,0,0,0,0,0,-1,1707,1156,0,0
490,-132,0,0,0,0,0,0,0,0,0,-1,1714,1156,0,0
497,-132,0,0,0,0,0,0,0,0,0,-1,1721,1156,0,0
504,-132,0,0,0,0,0,0,0,0,0,-1,1728,1156,0,0
511,-132,0,0,0,0,0,0,0,0,0,-1,1735,1156,0,0
518,-132,0,0,0,0,0,0,0,0,0,-1,1742,1156,0,0
525,-132,0,0,0,0,0,0,0,0,0,-1,1749,1156,0,0
532,-132,0,0,0,0,0,0,0,0,0,-1,1756,1156,0,0
539,-132,0,0,0,0,0,0,0,0,0,-1,1763,1156,0,0
546,-132,0,0,0,0,0,0,0,0,0,-1,1770,1156,0,0
553,-132,0,0,0,0,0,0,0,0,0,-1,1777,1156,0,0
560,-132,0,0,0,0,0,0,0,0,0,-1,1784,1156,0,0
567,-132,0,0,0,0,0,0,0,0,0,-1,1791,1156,0,0
574,-132,0,0,0,0,0,0,0,0,0,-1,1798,1156,0,0
581,-132,0,0,0,0,0,0,0,0,0,-1,1805,1156,0,0
588,-132,0,0,0,0,0,0,0,0,0,-1,1812,1156,0,0
595,-132,0,0,0,0,0,0,0,0,0,-1,1819,1156,0,0
602,-132,0,0,0,0,0,0,0,0,0,-1,1826,1156,0,0
609,-132,0,0,0,0,0,0,0,0,0,-1,1833,1156,0,0
616,-132,0,0,0,0,0,0,0,0,0,-1,1840,1156,0,0
623,-132,0,0,0,0,0,0,0,0,0,-1,1847,1156,0,0
630,-132,0,0,0,0,0,0,0,0,0,-1,1854,1156,0,0
637,-132,0,0,0,0,0,0,0,0,0,-1,1861,1156,0,0
644,-132,54.9456,2.4375,0.0047973,0.000456839,-0.000986787,0.00501111,0.000243029,-0.213375,0.00326275,0.0452066,1868,1156,54.9456,-2.43746
651,-132,54.9983,2.58984,0.00327944,0.00075198,-0.000815879,0.00351993,0.000511492,-0.286642,0.00219607,0.0413598,1875,1156,54.9983,-2.58984
658,-132,54.986,2.72168,0.00224198,0.00104759,-0.000833822,0.00267041,0.000619166,-0.474637,0.00161397,0.0416334,1882,1156,54.986,-2.72173
665,-132,55.0013,2.70508,0.0014273,0.0013451,-0.000902918,0.00229005,0.000482347,-0.762653,0.00139402,0.0413723,1889,1156,55.0013,-2.70509
672,-132,55.0768,2.58728,0.000762752,0.00158452,-0.000973717,0.00223049,0.000116776,-0.98505,0.00144964,0.0382543,1896,1156,55.0768,-2.58729
679,-132,55.104,2.48718,0.000353278,0.00149171,-0.000884103,0.00197399,-0.000129002,-1.07141,0.00136104,0.0369972,1903,1156,55.104,-2.48719
686,-132,55.0762,2.58044,0.000394547,0.00122806,-0.000718032,0.00164152,-1.89115e-05,-1.04834,0.0011007,0.0342044,1910,1156,55.0761,-2.58048
693,-132,55.0303,2.71265,0.000475282,0.00102227,-0.000456242,0.00128071,0.00021684,-1.0554,0.000791491,0.0282591,1917,1156,55.0302,-2.71268
700,-132,55.0643,2.52063,0.000361148,0.000749813,-0.000233366,0.000859166,0.000251795,-1.13259,0.000510003,0.0473162,1924,1156,55.0643,-2.52059
707,-132,55.0437,2.29932,0,0,0,0,0,0,0,-1,1931,1156,55.0437,-2.29935
714,-132,49.3152,8.44739,0,0,0,0,0,0,0,-1,1938,1156,49.3152,-8.44738
721,-132,49.4031,8.02881,0.000193014,0.00051787,0.000606361,0.000983181,-0.000272298,0.916262,0.000762601,0.0386335,1945,1156,49.4031,-8.02876
728,-132,49.2494,7.6217,0.000590872,0.000387977,0.000872699,0.001368,-0.000389151,0.727535,0.00106567,0.0284248,1952,1156,49.2494,-7.62166
735,-132,49.1821,7.21008,0.00116561,0.000175349,0.00109443,0.0018717,-0.000530742,0.572971,0.00145729,0.0283235,1959,1156,49.1821,-7.21014
742,-132,49.2277,6.72937,0.0017371,0.000132349,0.00145316,0.00259469,-0.000725243,0.533149,0.00201552,0.021263,1966,1156,49.2277,-6.72941
749,-132,49.1827,6.31189,0.00243898,0.000801445,0.00218051,0.00394938,-0.000708946,0.605796,0.00289828,0.0242045,1973,1156,49.1828,-6.3119
756,-132,49.1813,5.85046,0.00391304,0.00285928,0.00341875,0.00684527,-7.29517e-05,0.708943,0.00458802,0.0243562,1980,1156,49.1813,-5.85045
763,-132,49.17,5.44653,0.00636443,0.00622671,0.00564415,0.0119401,0.000650999,0.779298,0.00775221,0.014648,1987,1156,49.17,-5.44658
770,-132,49.1642,5.03125,0.00949145,0.0105128,0.00835176,0.0183695,0.00163478,0.815933,0.0117394,0.0148923,1994,1156,49.1641,-5.03126
777,-132,49.0945,4.57727,0.0130952,0.0160523,0.0119442,0.0266091,0.00253842,0.846979,0.0169567,0.0264629,2001,1156,49.0946,-4.57729
784,-132,49.3333,4.57776,0.0172929,0.023306,0.0167475,0.0373147,0.00328426,0.874213,0.0238572,0.0470981,2008,1156,49.3332,-4.57774
791,-132,49.6711,4.6012,0,0,0,0,0,0,0,-1,2015,1156,49.671,-4.60121
798,-132,49.8904,3.84338,0.0275526,0.0453975,0.0316036,0.069314,0.00363611,0.922979,0.0450463,0.0482956,2022,1156,49.8905,-3.84337
805,-132,49.9585,3.44836,0,0,0,0,0,0,0,-1,2029,1156,49.9585,-3.44837
812,-132,50.0771,3.05981,0,0,0,0,0,0,0,-1,2036,1156,50.0772,-3.05976
-700,-139,0,0,0,0,0,0,0,0,0,-1,524,1163,0,0
-693,-139,-36.2431,-3.34229,0,0,0,0,0,0,0,-1,531,1163,-36.2431,3.34234
-686,-139,-36.1296,-2.86584,0,0,0,0,0,0,0,-1,538,1163,-36.1296,2.86585
-679,-139,-34.0656,-2.41443,0,0,0,0,0,0,0,-1,545,1163,-34.0656,2.41446
-672,-139,-34.1238,-1.52832,0.0168229,-0.036003,0.0511798,0.0480035,-0.0671835,0.547183,0.0668099,0.0470636,552,1163,-34.1238,1.5283
-665,-139,-34.0586,-0.740112,0.0150298,-0.027307,0.0389372,0.0381808,-0.050458,0.536419,0.051339,0.0471711,559,1163,-34.0586,0.74015
-658,-139,-35.3707,0.0233154,0,0,0,0,0,0,0,-1,566,1163,-35.3707,-0.023367
-651,-139,-35.0127,0.922485,0.0103007,-0.0134572,0.0201555,0.0218173,-0.0249739,0.519117,0.0270354,0.0448969,573,1163,-35.0127,-0.922487
-644,-139,-34.6163,1.85327,0.00793905,-0.008396,0.0133418,0.0154148,-0.0158718,0.510737,0.018064,0.0255029,580,1163,-34.6162,-1.85328
-637,-139,-34.6736,2.31104,0.00564877,-0.0045439,0.0079577,0.0100022,-0.00889731,0.50059,0.0109178,0.0140925,587,1163,-34.6736,-2.31108
-630,-139,-34.7087,2.7749,0.00340692,-0.00154389,0.00368716,0.00537255,-0.00350952,0.489777,0.00516553,0.0111574,594,1163,-34.7087,-2.77492
-623,-139,-34.7111,3.26721,0.00173408,-1.47985e-06,0.000751892,0.00201451,-0.000281908,0.356984,0.00144617,0.0182599,601,1163,-34.7111,-3.26716
-616,-139,-34.737,3.75549,0.000916533,0.000394736,-0.00048722,0.00120831,0.000102958,-0.539583,0.000773509,0.0196251,608,1163,-34.737,-3.75552
-609,-139,-34.6605,4.11523,0,0,0,0,0,0,0,-1,615,1163,-34.6605,-4.11528
-602,-139,-34.7037,4.75818,0.000623124,0.000726304,-0.000610344,0.00128723,6.21937e-05,-0.827561,0.000838195,0.0373637,622,1163,-34.7037,-4.75823
-595,-139,-34.8911,5.25867,-0.000699834,0.000830039,-0.000709469,0.0011084,-0.000978197,-1.1969,0.00120548,0.0451629,629,1163,-34.8911,-5.25863
-588,-139,-35.143,5.66138,0,0,0,0,0,0,0,-1,636,1163,-35.143,-5.66141
-581,-139,-32.2208,6.02368,0,0,0,0,0,0,0,-1,643,1163,-32.2208,-6.02369
-574,-139,-23.0725,2.4043,0,0,0,0,0,0,0,-1,650,1163,-23.0725,-2.40433
-567,-139,-41.1927,0.960938,0,0,0,0,0,0,0,-1,657,1163,-41.1927,-0.960926
-560,-139,-41.1424,0.848877,-0.000952456,0.00103566,-0.000883248,0.00137137,-0.00128816,-1.20758,0.00153573,0.0356554,664,1163,-41.1424,-0.848937
-553,-139,-41.1075,0.774048,-0.00152907,0.00112751,-0.00110711,0.00152839,-0.00192995,-1.22338,0.00200116,0.0390293,671,1163,-41.1075,-0.77403
-546,-139,-41.3341,1.22131,-0.00184138,0.00140699,-0.00122091,0.0018147,-0.0022491,-1.2485,0.0023507,0.041183,678,1163,-41.3341,-1.2213
-539,-139,-41.2528,1.01099,-0.00129145,0.00116986,-0.00110675,0.00159432,-0.00171591,-1.20458,0.00191159,0.0387068,685,1163,-41.2528,-1.01098
-532,-139,-41.1544,0.749512,0.000215254,0.000393996,-0.000616718,0.000927784,-0.000318535,-0.857354,0.000747672,0.0368247,692,1163,-41.1544,-0.749556
-525,-139,-41.1551,0.801147,0.00245605,-0.000529514,0.000136792,0.0024623,-0.000535768,0.0456904,0.00184622,0.0394558,699,1163,-41.1551,-0.801121
-518,-139,0,0,0,0,0,0,0,0,0,-1,706,1163,0,0
-511,-139,0,0,0,0,0,0,0,0,0,-1,713,1163,0,0
-504,-139,0,0,0,0,0,0,0,0,0,-1,720,1163,0,0
-497,-139,0,0,0,0,0,0,0,0,0,-1,727,1163,0,0
-490,-139,0,0,0,0,0,0,0,0,0,-1,734,1163,0,0
-483,-139,0,0,0,0,0,0,0,0,0,-1,741,1163,0,0
-476,-139,0,0,0,0,0,0,0,0,0,-1,748,1163,0,0
-469,-139,0,0,0,0,0,0,0,0,0,-1,755,1163,0,0
-462,-139,0,0,0,0,0,0,0,0,0,-1,762,1163,0,0
-455,-139,0,0,0,0,0,0,0,0,0,-1,769,1163,0,0
-448,-139,0,0,0,0,0,0,0,0,0,-1,776,1163,0,0
-441,-139,0,0,0,0,0,0,0,0,0,-1,783,1163,0,0
-434,-139,0,0,0,0,0,0,0,0,0,-1,790,1163,0,0
-427,-139,0,0,0,0,0,0,0,0,0,-1,797,1163,0,0
-420,-139,0,0,0,0,0,0,0,0,0,-1,804,1163,0,0
-413,-139,0,0,0,0,0,0,0,0,0,-1,811,1163,0,0
-406,-139,0,0,0,0,0,0,0,0,0,-1,818,1163,0,0
-399,-139,0,0,0,0,0,0,0,0,0,-1,825,1163,0,0
-392,-139,0,0,0,0,0,0,0,0,0,-1,832,1163,0,0
-385,-139,0,0,0,0,0,0,0,0,0,-1,839,1163,0,0
-378,-139,0,0,0,0,0,0,0,0,0,-1,846,1163,0,0
-371,-139,0,0,0,0,0,0,0,0,0,-1,853,1163,0,0
-364,-139,0,0,0,0,0,0,0,0,0,-1,860,1163,0,0
-357,-139,0,0,0,0,0,0,0,0,0,-1,867,1163,0,0
-350,-139,0,0,0,0,0,0,0,0,0,-1,874,1163,0,0
-343,-139,0,0,0,0,0,0,0,0,0,-1,881,1163,0,0
-336,-139,0,0,0,0,0,0,0,0,0,-1,888,1163,0,0
-329,-139,0,0,0,0,0,0,0,0,0,-1,895,1163,0,0
-322,-139,0,0,0,0,0,0,0,0,0,-1,902,1163,0,0
-315,-139,0,0,0,0,0,0,0,0,0,-1,909,1163,0,0
-308,-139,0,0,0,0,0,0,0,0,0,-1,916,1163,0,0
-301,-139,0,0,0,0,0,0,0,0,0,-1,923,1163,0,0
-294,-139,0,0,0,0,0,0,0,0,0,-1,930,1163,0,0
-287,-139,0,0,0,0,0,0,0,0,0,-1,937,1163,0,0
-280,-139,0,0,0,0,0,0,0,0,0,-1,944,1163,0,0
-273,-139,0,0,0,0,0,0,0,0,0,-1,951,1163,0,0
-266,-139,0,0,0,0,0,0,0,0,0,-1,958,1163,0,0
-259,-139,0,0,0,0,0,0,0,0,0,-1,965,1163,0,0
-252,-139,0,0,0,0,0,0,0,0,0,-1,972,1163,0,0
-245,-139,0,0,0,0,0,0,0,0,0,-1,979,1163,0,0
-238,-139,0,0,0,0,0,0,0,0,0,-1,986,1163,0,0
-231,-139,0,0,0,0,0,0,0,0,0,-1,993,1163,0,0
-224,-139,0,0,0,0,0,0,0,0,0,-1,1000,1163,0,0
-217,-139,0,0,0,0,0,0,0,0,0,-1,1007,1163,0,0
-210,-139,0,0,0,0,0,0,0,0,0,-1,1014,1163,0,0
-203,-139,0,0,0,0,0,0,0,0,0,-1,1021,1163,0,0
-196,-139,0,0,0,0,0,0,0,0,0,-1,1028,1163,0,0
-189,-139,0,0,0,0,0,0,0,0,0,-1,1035,1163,0,0
-182,-139,0,0,0,0,0,0,0,0,0,-1,1042,1163,0,0
-175,-139,0,0,0,0,0,0,0,0,0,-1,1049,1163,0,0
-168,-139,0,0,0,0,0,0,0,0,0,-1,1056,1163,0,0
-161,-139,0,0,0,0,0,0,0,0,0,-1,1063,1163,0,0
-154,-139,0,0,0,0,0,0,0,0,0,-1,1070,1163,0,0
-147,-139,0,0,0,0,0,0,0,0,0,-1,1077,1163,0,0
-140,-139,0,0,0,0,0,0,0,0,0,-1,1084,1163,0,0
-133,-139,0,0,0,0,0,0,0,0,0,-1,1091,1163,0,0
-126,-139,0,0,0,0,0,0,0,0,0,-1,1098,1163,0,0
-119,-139,0,0,0,0,0,0,0,0,0,-1,1105,1163,0,0
-112,-139,0,0,0,0,0,0,0,0,0,-1,1112,1163,0,0
-105,-139,0,0,0,0,0,0,0,0,0,-1,1119,1163,0,0
-98,-139,0,0,0,0,0,0,0,0,0,-1,1126,1163,0,0
-91,-139,0,0,0,0,0,0,0,0,0,-1,1133,1163,0,0
-84,-139,0,0,0,0,0,0,0,0,0,-1,1140,1163,0,0
-77,-139,0,0,0,0,0,0,0,0,0,-1,1147,1163,0,0
-70,-139,0,0,0,0,0,0,0,0,0,-1,1154,1163,0,0
-63,-139,0,0,0,0,0,0,0,0,0,-1,1161,1163,0,0
-56,-139,0,0,0,0,0,0,0,0,0,-1,1168,1163,0,0
-49,-139,0,0,0,0,0,0,0,0,0,-1,1175,1163,0,0
-42,-139,0,0,0,0,0,0,0,0,0,-1,1182,1163,0,0
-35,-139,0,0,0,0,0,0,0,0,0,-1,1189,1163,0,0
-28,-139,0,0,0,0,0,0,0,0,0,-1,1196,1163,0,0
-21,-139,0,0,0,0,0,0,0,0,0,-1,1203,1163,0,0
-14,-139,0,0,0,0,0,0,0,0,0,-1,1210,1163,0,0
-7,-139,0,0,0,0,0,0,0,0,0,-1,1217,1163,0,0
0,-139,0,0,0,0,0,0,0,0,0,-1,1224,1163,0,0
7,-139,0,0,0,0,0,0,0,0,0,-1,1231,1163,0,0
14,-139,0,0,0,0,0,0,0,0,0,-1,1238,1163,0,0
21,-139,0,0,0,0,0,0,0,0,0,-1,1245,1163,0,0
28,-139,0,0,0,0,0,0,0,0,0,-1,1252,1163,0,0
35,-139,0,0,0,0,0,0,0,0,0,-1,1259,1163,0,0
42,-139,0,0,0,0,0,0,0,0,0,-1,1266,1163,0,0
49,-139,0,0,0,0,0,0,0,0,0,-1,1273,1163,0,0
56,-139,0,0,0,0,0,0,0,0,0,-1,1280,1163,0,0
63,-139,0,0,0,0,0,0,0,0,0,-1,1287,1163,0,0
70,-139,0,0,0,0,0,0,0,0,0,-1,1294,1163,0,0
77,-139,0,0,0,0,0,0,0,0,0,-1,1301,1163,0,0
84,-139,0,0,0,0,0,0,0,0,0,-1,1308,1163,0,0
91,-139,0,0,0,0,0,0,0,0,0,-1,1315,1163,0,0
98,-139,0,0,0,0,0,0,0,0,0,-1,1322,1163,0,0
105,-139,0,0,0,0,0,0,0,0,0,-1,1329,1163,0,0
112,-139,0,0,0,0,0,0,0,0,0,-1,1336,1163,0,0
119,-139,0,0,0,0,0,0,0,0,0,-1,1343,1163,0,0
126,-139,0,0,0,0,0,0,0,0,0,-1,1350,1163,0,0
133,-139,0,0,0,0,0,0,0,0,0,-1,1357,1163,0,0
140,-139,0,0,0,0,0,0,0,0,0,-1,1364,1163,0,0
147,-139,0,0,0,0,0,0,0,0,0,-1,1371,1163,0,0
154,-139,0,0,0,0,0,0,0,0,0,-1,1378,1163,0,0
161,-139,0,0,0,0,0,0,0,0,0,-1,1385,1163,0,0
168,-139,0,0,0,0,0,0,0,0,0,-1,1392,1163,0,0
175,-139,0,0,0,0,0,0,0,0,0,-1,1399,1163,0,0
182,-139,0,0,0,0,0,0,0,0,0,-1,1406,1163,0,0
189,-139,0,0,0,0,0,0,0,0,0,-1,1413,1163,0,0
196,-139,0,0,0,0,0,0,0,0,0,-1,1420,1163,0,0
203,-139,0,0,0,0,0,0,0,0,0,-1,1427,1163,0,0
210,-139,0,0,0,0,0,0,0,0,0,-1,1434,1163,0,0
217,-139,0,0,0,0,0,0,0,0,0,-1,1441,1163,0,0
224,-139,0,0,0,0,0,0,0,0,0,-1,1448,1163,0,0
231,-139,0,0,0,0,0,0,0,0,0,-1,1455,1163,0,0
238,-139,0,0,0,0,0,0,0,0,0,-1,1462,1163,0,0
245,-139,0,0,0,0,0,0,0,0,0,-1,1469,1163,0,0
252,-139,0,0,0,0,0,0,0,0,0,-1,1476,1163,0,0
259,-139,0,0,0,0,0,0,0,0,0,-1,1483,1163,0,0
266,-139,0,0,0,0,0,0,0,0,0,-1,1490,1163,0,0
273,-139,0,0,0,0,0,0,0,0,0,-1,1497,1163,0,0
280,-139,0,0,0,0,0,0,0,0,0,-1,1504,1163,0,0
287,-139,0,0,0,0,0,0,0,0,0,-1,1511,1163,0,0
294,-139,0,0,0,0,0,0,0,0,0,-1,1518,1163,0,0
301,-139,0,0,0,0,0,0,0,0,0,-1,1525,1163,0,0
308,-139,0,0,0,0,0,0,0,0,0,-1,1532,1163,0,0
315,-139,0,0,0,0,0,0,0,0,0,-1,1539,1163,0,0
322,-139,0,0,0,0,0,0,0,0,0,-1,1546,1163,0,0
329,-139,0,0,0,0,0,0,0,0,0,-1,1553,1163,0,0
336,-139,0,0,0,0,0,0,0,0,0,-1,1560,1163,0,0
343,-139,0,0,0,0,0,0,0,0,0,-1,1567,1163,0,0
350,-139,0,0,0,0,0,0,0,0,0,-1,1574,1163,0,0
357,-139,0,0,0,0,0,0,0,0,0,-1,1581,1163,0,0
364,-139,0,0,0,0,0,0,0,0,0,-1,1588,1163,0,0
371,-139,0,0,0,0,0,0,0,0,0,-1,1595,1163,0,0
378,-139,0,0,0,0,0,0,0,0,0,-1,1602,1163,0,0
385,-139,0,0,0,0,0,0,0,0,0,-1,1609,1163,0,0
392,-139,0,0,0,0,0,0,0,0,0,-1,1616,1163,0,0
399,-139,0,0,0,0,0,0,0,0,0,-1,1623,1163,0,0
406,-139,0,0,0,0,0,0,0,0,0,-1,1630,1163,0,0
413,-139,0,0,0,0,0,0,0,0,0,-1,1637,1163,0,0
420,-139,0,0,0,0,0,0,0,0,0,-1,1644,1163,0,0
427,-139,0,0,0,0,0,0,0,0,0,-1,1651,1163,0,0
434,-139,0,0,0,0,0,0,0,0,0,-1,1658,1163,0,0
441,-139,0,0,0,0,0,0,0,0,0,-1,1665,1163,0,0
448,-139,0,0,0,0,0,0,0,0,0,-1,1672,1163,0,0
455,-139,0,0,0,0,0,0,0,0,0,-1,1679,1163,0,0
462,-139,0,0,0,0,0,0,0,0,0,-1,1686,1163,0,0
469,-139,0,0,0,0,0,0,0,0,0,-1,1693,1163,0,0
476,-139,0,0,0,0,0,0,0,0,0,-1,1700,1163,0,0
483,-139,0,0,0,0,0,0,0,0,0,-1,1707,1163,0,0
490,-139,0,0,0,0,0,0,0,0,0,-1,1714,1163,0,0
497,-139,0,0,0,0,0,0,0,0,0,-1,1721,1163,0,0
504,-139,0,0,0,0,0,0,0,0,0,-1,1728,1163,0,0
511,-139,0,0,0,0,0,0,0,0,0,-1,1735,1163,0,0
518,-139,0,0,0,0,0,0,0,0,0,-1,1742,1163,0,0
525,-139,0,0,0,0,0,0,0,0,0,-1,1749,1163,0,0
532,-139,0,0,0,0,0,0,0,0,0,-1,1756,1163,0,0
539,-139,0,0,0,0,0,0,0,0,0,-1,1763,1163,0,0
546,-139,0,0,0,0,0,0,0,0,0,-1,1770,1163,0,0
553,-139,0,0,0,0,0,0,0,0,0,-1,1777,1163,0,0
560,-139,0,0,0,0,0,0,0,0,0,-1,1784,1163,0,0
567,-139,0,0,0,0,0,0,0,0,0,-1,1791,1163,0,0
574,-139,0,0,0,0,0,0,0,0,0,-1,1798,1163,0,0
581,-139,0,0,0,0,0,0,0,0,0,-1,1805,1163,0,0
588,-139,0,0,0,0,0,0,0,0,0,-1,1812,1163,0,0
595,-139,0,0,0,0,0,0,0,0,0,-1,1819,1163,0,0
602,-139,0,0,0,0,0,0,0,0,0,-1,1826,1163,0,0
609,-139,0,0,0,0,0,0,0,0,0,-1,1833,1163,0,0
616,-139,0,0,0,0,0,0,0,0,0,-1,1840,1163,0,0
623,-139,0,0,0,0,0,0,0,0,0,-1,1847,1163,0,0
630,-139,0,0,0,0,0,0,0,0,0,-1,1854,1163,0,0
637,-139,0,0,0,0,0,0,0,0,0,-1,1861,1163,0,0
644,-139,55.0355,2.44153,0.0044837,0.00101429,-0.00075388,0.00464044,0.00085756,-0.204981,0.00285109,0.0423601,1868,1163,55.0355,-2.44155
651,-139,55.1146,2.54846,0.00302384,0.00119078,-0.000594017,0.0031995,0.00101512,-0.287525,0.0018879,0.0402216,1875,1163,55.1146,-2.54847
658,-139,55.2014,2.63196,0.00198826,0.00140326,-0.000634314,0.00239427,0.000997256,-0.569364,0.00138874,0.0417288,1882,1163,55.2014,-2.63196
665,-139,55.1622,2.63989,0.00118274,0.00164177,-0.000753215,0.00219966,0.000624848,-0.933286,0.00130886,0.0398474,1889,1163,55.1622,-2.63985
672,-139,55.142,2.70081,0.000515548,0.00184178,-0.000863536,0.00226743,8.98945e-05,-1.11283,0.00148256,0.0383565,1896,1163,55.142,-2.70076
679,-139,55.1572,2.6582,0.000122801,0.00167337,-0.0007957,0.00200903,-0.000212862,-1.1716,0.00141565,0.0355468,1903,1163,55.1572,-2.65814
686,-139,55.0394,2.71411,0.000192671,0.00136717,-0.000631714,0.00164243,-8.25904e-05,-1.15987,0.00112349,0.0324637,1910,1163,55.0394,-2.71405
693,-139,55.0707,2.67334,0.000269369,0.00115041,-0.000358225,0.00127768,0.000142101,-1.22943,0.000808592,0.0214554,1917,1163,55.0707,-2.67335
700,-139,55.1487,2.57764,0,0,0,0,0,0,0,-1,1924,1163,55.1487,-2.57767
707,-139,32.116,6.54346,0,0,0,0,0,0,0,-1,1931,1163,32.116,-6.54343
714,-139,48.8037,8.54688,0,0,0,0,0,0,0,-1,1938,1163,48.8038,-8.54682
721,-139,48.8704,8.02283,0.000161432,0.000641032,0.000593683,0.00104152,-0.000239052,0.977338,0.000786236,0.0342036,1945,1163,48.8703,-8.02282
728,-139,48.7274,7.73535,0.000621911,0.000426896,0.000852398,0.00138236,-0.000333553,0.72845,0.00105056,0.043653,1952,1163,48.7274,-7.73536
735,-139,48.6196,7.33313,0.00120955,0.000113253,0.00106298,0.0018574,-0.000534591,0.547345,0.0014497,0.0324447,1959,1163,48.6197,-7.33319
742,-139,48.7339,6.73376,0.0017995,-3.08166e-05,0.00141202,0.002567,-0.000798308,0.497871,0.00203044,0.0222244,1966,1163,48.7338,-6.73381
749,-139,48.7421,6.2865,0.00285948,0.000479384,0.00202109,0.00401486,-0.000675994,0.519321,0.00292803,0.0191326,1973,1163,48.7421,-6.28652
756,-139,48.7109,5.86304,0.00526106,0.00231054,0.00291183,0.00705002,0.000521579,0.550924,0.00453616,0.0120109,1980,1163,48.7109,-5.86305
763,-139,48.6774,5.4209,0.00890706,0.00531941,0.00452959,0.0119851,0.00224138,0.596861,0.00735763,0.0118755,1987,1163,48.6773,-5.42096
770,-139,48.6742,4.99451,0.0134525,0.00914732,0.00641419,0.0180657,0.00453417,0.623503,0.0108529,0.0135372,1994,1163,48.6742,-4.99447
777,-139,48.6699,4.59155,0.0187957,0.0141584,0.00887468,0.0256497,0.00730449,0.65762,0.0152593,0.0270432,2001,1163,48.6699,-4.59152
784,-139,48.9395,4.44263,0.025184,0.0207438,0.0120766,0.0352428,0.010685,0.694497,0.0208663,0.0438119,2008,1163,48.9395,-4.44268
791,-139,49.4189,4.26575,0.0326883,0.0295341,0.0162932,0.0474805,0.0147418,0.737151,0.0280616,0.0484528,2015,1163,49.419,-4.2658
798,-139,49.5879,3.94458,0.0411999,0.0412119,0.0217776,0.0629835,0.0194283,0.785535,0.0372422,0.047959,2022,1163,49.5878,-3.94456
805,-139,49.4412,4.67322,0,0,0,0,0,0,0,-1,2029,1163,49.4412,-4.67318
812,-139,0,0,0,0,0,0,0,0,0,-1,2036,1163,0,0
-700,-146,0,0,0,0,0,0,0,0,0,-1,524,1170,0,0
-693,-146,-35.943,-2.79553,0,0,0,0,0,0,0,-1,531,1170,-35.943,2.79556
-686,-146,-33.8154,-3.18701,0,0,0,0,0,0,0,-1,538,1170,-33.8154,3.18696
-679,-146,-33.861,-2.31323,0,0,0,0,0,0,0,-1,545,1170,-33.861,2.31323
-672,-146,-33.9178,-1.44641,0,0,0,0,0,0,0,-1,552,1170,-33.9178,1.44636
-665,-146,-34.1776,-0.312866,0,0,0,0,0,0,0,-1,559,1170,-34.1775,0.312817
-658,-146,-34.213,0.585327,0,0,0,0,0,0,0,-1,566,1170,-34.213,-0.585346
-651,-146,-34.1448,1.18213,0.0125981,-0.0177074,0.0211383,0.0234537,-0.028563,0.474429,0.0300801,0.0421486,573,1170,-34.1448,-1.18215
-644,-146,-34.0641,1.79675,0.00976193,-0.0113225,0.0140609,0.0167938,-0.0183544,0.463727,0.0202995,0.0231568,580,1170,-34.0641,-1.79675
-637,-146,-34.1349,2.30176,0.00697184,-0.00635329,0.00838005,0.0110151,-0.0103966,0.44954,0.0123638,0.0115839,587,1170,-34.135,-2.30174
-630,-146,-34.1809,2.78076,0.00424928,-0.00246761,0.00383288,0.00598692,-0.00420526,0.425638,0.00591435,0.0104993,594,1170,-34.1809,-2.78077
-623,-146,-34.1992,3.26733,0.00210553,-0.000200153,0.000689119,0.00229579,-0.000390416,0.269385,0.00167589,0.0139769,601,1170,-34.1992,-3.26728
-616,-146,-34.2454,3.76758,0.000776763,0.000476376,-0.000678374,0.00132137,-6.8232e-05,-0.676455,0.000904516,0.0206227,608,1170,-34.2454,-3.76761
-609,-146,-34.0923,4.38867,0.000599722,0.000452985,-0.000766148,0.00129601,-0.000243299,-0.737663,0.000955486,0.0307312,615,1170,-34.0923,-4.38862
-602,-146,-34.2041,4.87512,0,0,0,0,0,0,0,-1,622,1170,-34.2041,-4.87508
-595,-146,-34.3895,5.30652,0,0,0,0,0,0,0,-1,629,1170,-34.3895,-5.3065
-588,-146,-34.6238,5.6626,0,0,0,0,0,0,0,-1,636,1170,-34.6238,-5.66265
-581,-146,-31.7815,6.30347,0,0,0,0,0,0,0,-1,643,1170,-31.7815,-6.3035
-574,-146,-17.9915,3.79114,0,0,0,0,0,0,0,-1,650,1170,-17.9915,-3.79118
-567,-146,-41.1467,0.770264,0,0,0,0,0,0,0,-1,657,1170,-41.1467,-0.770225
-560,-146,-41.1458,0.800293,-0.00154078,0.000813567,-0.00093065,0.00113701,-0.00186423,-1.23631,0.00174964,0.0464079,664,1170,-41.1458,-0.800307
-553,-146,-41.1048,0.840454,-0.00211046,0.000846466,-0.00113571,0.00123232,-0.00249631,-1.24328,0.00219357,0.0385972,671,1170,-41.1048,-0.840414
-546,-146,-41.1218,0.89624,-0.00218377,0.00110939,-0.00115529,0.00147426,-0.00254863,-1.26489,0.00235007,0.0414413,678,1170,-41.1218,-0.89624
-539,-146,-41.2961,0.797241,-0.00131016,0.000922127,-0.000949658,0.00127146,-0.00165949,-1.21831,0.00169712,0.0388872,685,1170,-41.2961,-0.797209
-532,-146,-41.4171,0.607788,0.000556952,0.00014287,-0.000313317,0.000725456,-2.5634e-05,-0.493432,0.000492404,0.0367861,692,1170,-41.417,-0.60782
-525,-146,-41.2312,0.805542,0.00336212,-0.000890859,0.000690524,0.00347142,-0.00100017,0.156992,0.00270991,0.0401487,699,1170,-41.2312,-0.80554
-518,-146,0,0,0,0,0,0,0,0,0,-1,706,1170,0,0
-511,-146,0,0,0,0,0,0,0,0,0,-1,713,1170,0,0
-504,-146,0,0,0,0,0,0,0,0,0,-1,720,1170,0,0
-497,-146,0,0,0,0,0,0,0,0,0,-1,727,1170,0,0
-490,-146,0,0,0,0,0,0,0,0,0,-1,734,1170,0,0
-483,-146,0,0,0,0,0,0,0,0,0,-1,741,1170,0,0
-476,-146,0,0,0,0,0,0,0,0,0,-1,748,1170,0,0
-469,-146,0,0,0,0,0,0,0,0,0,-1,755,1170,0,0
-462,-146,0,0,0,0,0,0,0,0,0,-1,762,1170,0,0
-455,-146,0,0,0,0,0,0,0,0,0,-1,769,1170,0,0
-448,-146,0,0,0,0,0,0,0,0,0,-1,776,1170,0,0
-441,-146,0,0,0,0,0,0,0,0,0,-1,783,1170,0,0
-434,-146,0,0,0,0,0,0,0,0,0,-1,790,1170,0,0
-427,-146,0,0,0,0,0,0,0,0,0,-1,797,1170,0,0
-420,-146,0,0,0,0,0,0,0,0,0,-1,804,1170,0,0
-413,-146,0,0,0,0,0,0,0,0,0,-1,811,1170,0,0
-406,-146,0,0,0,0,0,0,0,0,0,-1,818,1170,0,0
-399,-146,0,0,0,0,0,0,0,0,0,-1,825,1170,0,0
-392,-146,0,0,0,0,0,0,0,0,0,-1,832,1170,0,0
-385,-146,0,0,0,0,0,0,0,0,0,-1,839,1170,0,0
-378,-146,0,0,0,0,0,0,0,0,0,-1,846,1170,0,0
-371,-146,0,0,0,0,0,0,0,0,0,-1,853,1170,0,0
-364,-146,0,0,0,0,0,0,0,0,0,-1,860,1170,0,0
-357,-146,0,0,0,0,0,0,0,0,0,-1,867,1170,0,0
-350,-146,0,0,0,0,0,0,0,0,0,-1,874,1170,0,0
-343,-146,0,0,0,0,0,0,0,0,0,-1,881,1170,0,0
-336,-146,0,0,0,0,0,0,0,0,0,-1,888,1170,0,0
-329,-146,0,0,0,0,0,0,0,0,0,-1,895,1170,0,0
-322,-146,0,0,0,0,0,0,0,0,0,-1,902,1170,0,0
-315,-146,0,0,0,0,0,0,0,0,0,-1,909,1170,0,0
-308,-146,0,0,0,0,0,0,0,0,0,-1,916,1170,0,0
-301,-146,0,0,0,0,0,0,0,0,0,-1,923,1170,0,0
-294,-146,0,0,0,0,0,0,0,0,0,-1,930,1170,0,0
-287,-146,0,0,0,0,0,0,0,0,0,-1,937,1170,0,0
-280,-146,0,0,0,0,0,0,0,0,0,-1,944,1170,0,0
-273,-146,0,0,0,0,0,0,0,0,0,-1,951,1170,0,0
-266,-146,0,0,0,0,0,0,0,0,0,-1,958,1170,0,0
-259,-146,0,0,0,0,0,0,0,0,0,-1,965,1170,0,0
-252,-146,0,0,0,0,0,0,0,0,0,-1,972,1170,0,0
-245,-146,0,0,0,0,0,0,0,0,0,-1,979,1170,0,0
-238,-146,0,0,0,0,0,0,0,0,0,-1,986,1170,0,0
-231,-146,0,0,0,0,0,0,0,0,0,-1,993,1170,0,0
-224,-146,0,0,0,0,0,0,0,0,0,-1,1000,1170,0,0
-217,-146,0,0,0,0,0,0,0,0,0,-1,1007,1170,0,0
-210,-146,0,0,0,0,0,0,0,0,0,-1,1014,1170,0,0
-203,-146,0,0,0,0,0,0,0,0,0,-1,1021,1170,0,0
-196,-146,0,0,0,0,0,0,0,0,0,-1,1028,1170,0,0
-189,-146,0,0,0,0,0,0,0,0,0,-1,1035,1170,0,0
-182,-146,0,0,0,0,0,0,0,0,0,-1,1042,1170,0,0
-175,-146,0,0,0,0,0,0,0,0,0,-1,1049,1170,0,0
-168,-146,0,0,0,0,0,0,0,0,0,-1,1056,1170,0,0
-161,-146,0,0,0,0,0,0,0,0,0,-1,1063,1170,0,0
-154,-146,0,0,0,0,0,0,0,0,0,-1,1070,1170,0,0
-147,-146,0,0,0,0,0,0,0,0,0,-1,1077,1170,0,0
-140,-146,0,0,0,0,0,0,0,0,0,-1,1084,1170,0,0
-133,-146,0,0,0,0,0,0,0,0,0,-1,1091,1170,0,0
-126,-146,0,0,0,0,0,0,0,0,0,-1,1098,1170,0,0
-119,-146,0,0,0,0,0,0,0,0,0,-1,1105,1170,0,0
-112,-146,0,0,0,0,0,0,0,0,0,-1,1112,1170,0,0
-105,-146,0,0,0,0,0,0,0,0,0,-1,1119,1170,0,0
-98,-146,0,0,0,0,0,0,0,0,0,-1,1126,1170,0,0
-91,-146,0,0,0,0,0,0,0,0,0,-1,1133,1170,0,0
-84,-146,0,0,0,0,0,0,0,0,0,-1,1140,1170,0,0
-77,-146,0,0,0,0,0,0,0,0,0,-1,1147,1170,0,0
-70,-146,0,0,0,0,0,0,0,0,0,-1,1154,1170,0,0
-63,-146,0,0,0,0,0,0,0,0,0,-1,1161,1170,0,0
-56,-146,0,0,0,0,0,0,0,0,0,-1,1168,1170,0,0
-49,-146,0,0,0,0,0,0,0,0,0,-1,1175,1170,0,0
-42,-146,0,0,0,0,0,0,0,0,0,-1,1182,1170,0,0
-35,-146,0,0,0,0,0,0,0,0,0,-1,1189,1170,0,0
-28,-146,0,0,0,0,0,0,0,0,0,-1,1196,1170,0,0
-21,-146,0,0,0,0,0,0,0,0,0,-1,1203,1170,0,0
-14,-146,0,0,0,0,0,0,0,0,0,-1,1210,1170,0,0
-7,-146,0,0,0,0,0,0,0,0,0,-1,1217,1170,0,0
0,-146,0,0,0,0,0,0,0,0,0,-1,1224,1170,0,0
7,-146,0,0,0,0,0,0,0,0,0,-1,1231,1170,0,0
14,-146,0,0,0,0,0,0,0,0,0,-1,1238,1170,0,0
21,-146,0,0,0,0,0,0,0,0,0,-1,1245,1170,0,0
28,-146,0,0,0,0,0,0,0,0,0,-1,1252,1170,0,0
35,-146,0,0,0,0,0,0,0,0,0,-1,1259,1170,0,0
42,-146,0,0,0,0,0,0,0,0,0,-1,1266,1170,0,0
49,-146,0,0,0,0,0,0,0,0,0,-1,1273,1170,0,0
56,-146,0,0,0,0,0,0,0,0,0,-1,1280,1170,0,0
63,-146,0,0,0,0,0,0,0,0,0,-1,1287,1170,0,0
70,-146,0,0,0,0,0,0,0,0,0,-1,1294,1170,0,0
77,-146,0,0,0,0,0,0,0,0,0,-1,1301,1170,0,0
84,-146,0,0,0,0,0,0,0,0,0,-1,1308,1170,0,0
91,-146,0,0,0,0,0,0,0,0,0,-1,1315,1170,0,0
98,-146,0,0,0,0,0,0,0,0,0,-1,1322,1170,0,0
105,-146,0,0,0,0,0,0,0,0,0,-1,1329,1170,0,0
112,-146,0,0,0,0,0,0,0,0,0,-1,1336,1170,0,0
119,-146,0,0,0,0,0,0,0,0,0,-1,1343,1170,0,0
126,-146,0,0,0,0,0,0,0,0,0,-1,1350,1170,0,0
133,-146,0,0,0,0,0,0,0,0,0,-1,1357,1170,0,0
140,-146,0,0,0,0,0,0,0,0,0,-1,1364,1170,0,0
147,-146,0,0,0,0,0,0,0,0,0,-1,1371,1170,0,0
154,-146,0,0,0,0,0,0,0,0,0,-1,1378,1170,0,0
161,-146,0,0,0,0,0,0,0,0,0,-1,1385,1170,0,0
168,-146,0,0,0,0,0,0,0,0,0,-1,1392,1170,0,0
175,-146,0,0,0,0,0,0,0,0,0,-1,1399,1170,0,0
182,-146,0,0,0,0,0,0,0,0,0,-1,1406,1170,0,0
189,-146,0,0,0,0,0,0,0,0,0,-1,1413,1170,0,0
196,-146,0,0,0,0,0,0,0,0,0,-1,1420,1170,0,0
203,-146,0,0,0,0,0,0,0,0,0,-1,1427,1170,0,0
210,-146,0,0,0,0,0,0,0,0,0,-1,1434,1170,0,0
217,-146,0,0,0,0,0,0,0,0,0,-1,1441,1170,0,0
224,-146,0,0,0,0,0,0,0,0,0,-1,1448,1170,0,0
231,-146,0,0,0,0,0,0,0,0,0,-1,1455,1170,0,0
238,-146,0,0,0,0,0,0,0,0,0,-1,1462,1170,0,0
245,-146,0,0,0,0,0,0,0,0,0,-1,1469,1170,0,0
252,-146,0,0,0,0,0,0,0,0,0,-1,1476,1170,0,0
259,-146,0,0,0,0,0,0,0,0,0,-1,1483,1170,0,0
266,-146,0,0,0,0,0,0,0,0,0,-1,1490,1170,0,0
273,-146,0,0,0,0,0,0,0,0,0,-1,1497,1170,0,0
280,-146,0,0,0,0,0,0,0,0,0,-1,1504,1170,0,0
287,-146,0,0,0,0,0,0,0,0,0,-1,1511,1170,0,0
294,-146,0,0,0,0,0,0,0,0,0,-1,1518,1170,0,0
301,-146,0,0,0,0,0,0,0,0,0,-1,1525,1170,0,0
308,-146,0,0,0,0,0,0,0,0,0,-1,1532,1170,0,0
315,-146,0,0,0,0,0,0,0,0,0,-1,1539,1170,0,0
322,-146,0,0,0,0,0,0,0,0,0,-1,1546,1170,0,0
329,-146,0,0,0,0,0,0,0,0,0,-1,1553,1170,0,0
336,-146,0,0,0,0,0,0,0,0,0,-1,1560,1170,0,0
343,-146,0,0,0,0,0,0,0,0,0,-1,1567,1170,0,0
350,-146,0,0,0,0,0,0,0,0,0,-1,1574,1170,0,0
357,-146,0,0,0,0,0,0,0,0,0,-1,1581,1170,0,0
364,-146,0,0,0,0,0,0,0,0,0,-1,1588,1170,0,0
371,-146,0,0,0,0,0,0,0,0,0,-1,1595,1170,0,0
378,-146,0,0,0,0,0,0,0,0,0,-1,1602,1170,0,0
385,-146,0,0,0,0,0,0,0,0,0,-1,1609,1170,0,0
392,-146,0,0,0,0,0,0,0,0,0,-1,1616,1170,0,0
399,-146,0,0,0,0,0,0,0,0,0,-1,1623,1170,0,0
406,-146,0,0,0,0,0,0,0,0,0,-1,1630,1170,0,0
413,-146,0,0,0,0,0,0,0,0,0,-1,1637,1170,0,0
420,-146,0,0,0,0,0,0,0,0,0,-1,1644,1170,0,0
427,-146,0,0,0,0,0,0,0,0,0,-1,1651,1170,0,0
434,-146,0,0,0,0,0,0,0,0,0,-1,1658,1170,0,0
441,-146,0,0,0,0,0,0,0,0,0,-1,1665,1170,0,0
448,-146,0,0,0,0,0,0,0,0,0,-1,1672,1170,0,0
455,-146,0,0,0,0,0,0,0,0,0,-1,1679,1170,0,0
462,-146,0,0,0,0,0,0,0,0,0,-1,1686,1170,0,0
469,-146,0,0,0,0,0,0,0,0,0,-1,1693,1170,0,0
476,-146,0,0,0,0,0,0,0,0,0,-1,1700,1170,0,0
483,-146,0,0,0,0,0,0,0,0,0,-1,1707,1170,0,0
490,-146,0,0,0,0,0,0,0,0,0,-1,1714,1170,0,0
497,-146,0,0,0,0,0,0,0,0,0,-1,1721,1170,0,0
504,-146,0,0,0,0,0,0,0,0,0,-1,1728,1170,0,0
511,-146,0,0,0,0,0,0,0,0,0,-1,1735,1170,0,0
518,-146,0,0,0,0,0,0,0,0,0,-1,1742,1170,0,0
525,-146,0,0,0,0,0,0,0,0,0,-1,1749,1170,0,0
532,-146,0,0,0,0,0,0,0,0,0,-1,1756,1170,0,0
539,-146,0,0,0,0,0,0,0,0,0,-1,1763,1170,0,0
546,-146,0,0,0,0,0,0,0,0,0,-1,1770,1170,0,0
553,-146,0,0,0,0,0,0,0,0,0,-1,1777,1170,0,0
560,-146,0,0,0,0,0,0,0,0,0,-1,1784,1170,0,0
567,-146,0,0,0,0,0,0,0,0,0,-1,1791,1170,0,0
574,-146,0,0,0,0,0,0,0,0,0,-1,1798,1170,0,0
581,-146,0,0,0,0,0,0,0,0,0,-1,1805,1170,0,0
588,-146,0,0,0,0,0,0,0,0,0,-1,1812,1170,0,0
595,-146,0,0,0,0,0,0,0,0,0,-1,1819,1170,0,0
602,-146,0,0,0,0,0,0,0,0,0,-1,1826,1170,0,0
609,-146,0,0,0,0,0,0,0,0,0,-1,1833,1170,0,0
616,-146,0,0,0,0,0,0,0,0,0,-1,1840,1170,0,0
623,-146,0,0,0,0,0,0,0,0,0,-1,1847,1170,0,0
630,-146,0,0,0,0,0,0,0,0,0,-1,1854,1170,0,0
637,-146,55.1663,2.46338,0.00554847,0.00111042,-0.000917021,0.00573049,0.000928401,-0.19594,0.00355154,0.0389585,1861,1170,55.1663,-2.46337
644,-146,55.0952,2.55908,0.00375719,0.00127926,-0.000527056,0.00386463,0.00117181,-0.201105,0.00228813,0.0385367,1868,1170,55.0952,-2.55912
651,-146,55.2034,2.67151,0.00247532,0.00144022,-0.000426447,0.00262838,0.00128716,-0.344595,0.0015176,0.0362157,1875,1170,55.2033,-2.67153
658,-146,55.2727,2.64783,0.00154874,0.00162567,-0.000520699,0.00210932,0.00106509,-0.822265,0.00121784,0.0388071,1882,1170,55.2728,-2.6478
665,-146,55.2081,2.52771,0.000868207,0.00186113,-0.000714209,0.00223448,0.00049486,-1.08912,0.00135516,0.0391232,1889,1170,55.2081,-2.52765
672,-146,55.1569,2.58765,0.00029492,0.00204528,-0.000871684,0.00240532,-6.51219e-05,-1.1791,0.00162569,0.0369502,1896,1170,55.1569,-2.58762
679,-146,55.1342,2.63538,-4.18597e-06,0.00183595,-0.000845713,0.00216558,-0.000333821,-1.19914,0.00156689,0.030354,1903,1170,55.1342,-2.63541
686,-146,55.0059,2.57068,0.000129488,0.00152615,-0.000683717,0.00180513,-0.000149491,-1.18338,0.00125622,0.0226829,1910,1170,55.0058,-2.57071
693,-146,55.0706,2.57568,0.000182055,0.00132035,-0.000388277,0.00144018,6.22268e-05,-1.27145,0.000940063,0.0155272,1917,1170,55.0705,-2.5757
700,-146,55.1471,2.53003,0,0,0,0,0,0,0,-1,1924,1170,55.1472,-2.52999
707,-146,29.9441,6.94653,0,0,0,0,0,0,0,-1,1931,1170,29.9441,-6.94652
714,-146,31.325,6.13245,0,0,0,0,0,0,0,-1,1938,1170,31.325,-6.1325
721,-146,48.2795,7.98169,0,0,0,0,0,0,0,-1,1945,1170,48.2795,-7.98165
728,-146,48.2097,7.93018,0,0,0,0,0,0,0,-1,1952,1170,48.2097,-7.93018
735,-146,48.2323,7.18835,0.00117528,0.000154413,0.00107619,0.00185595,-0.000526261,0.563962,0.00144502,0.0323547,1959,1170,48.2323,-7.1884
742,-146,48.3065,6.73022,0.00177487,-7.28229e-05,0.00141989,0.00254501,-0.000842963,0.496984,0.00203666,0.016909,1966,1170,48.3066,-6.73018
749,-146,48.2891,6.31812,0.0032133,0.000296021,0.00195171,0.00419122,-0.000681897,0.464492,0.00304699,0.0153489,1973,1170,48.2891,-6.31807
756,-146,48.2527,5.86389,0.00644405,0.00191393,0.0025266,0.00757224,0.000785731,0.419963,0.0048077,0.0123803,1980,1170,48.2527,-5.86384
763,-146,48.1995,5.401,0.0110132,0.00446732,0.00351872,0.0125458,0.00293469,0.410786,0.00757751,0.0118138,1987,1170,48.1995,-5.40105
770,-146,48.1797,4.96204,0.0166675,0.00780871,0.00455304,0.0185903,0.00588596,0.399581,0.0109711,0.0132072,1994,1170,48.1797,-4.96207
777,-146,48.2297,4.62305,0.0234113,0.0122868,0.00582143,0.0259006,0.00979749,0.404082,0.0151007,0.0243087,2001,1170,48.2298,-4.62301
784,-146,48.4766,4.43213,0.0315804,0.0182214,0.00731363,0.0348057,0.0149961,0.415343,0.020159,0.0411386,2008,1170,48.4767,-4.43218
791,-146,48.8887,4.22473,0.0414349,0.0263443,0.00909927,0.0457103,0.0220689,0.439245,0.0263961,0.0448019,2015,1170,48.8887,-4.22478
798,-146,49.4932,4.35034,0,0,0,0,0,0,0,-1,2022,1170,49.4932,-4.3504
805,-146,49.9998,4.23193,0,0,0,0,0,0,0,-1,2029,1170,49.9997,-4.23197
812,-146,0,0,0,0,0,0,0,0,0,-1,2036,1170,0,0
-700,-153,0,0,0,0,0,0,0,0,0,-1,524,1177,0,0
-693,-153,0,0,0,0,0,0,0,0,0,-1,531,1177,0,0
-686,-153,-33.686,-4.54968,0,0,0,0,0,0,0,-1,538,1177,-33.686,4.54966
-679,-153,-33.6849,-2.27515,0,0,0,0,0,0,0,-1,545,1177,-33.6849,2.27516
-672,-153,-33.7128,-1.38098,0.0222207,-0.0517553,0.052161,0.0491771,-0.0787117,0.476991,0.07449,0.0461783,552,1177,-33.7128,1.38103
-665,-153,-33.6151,-0.542236,0,0,0,0,0,0,0,-1,559,1177,-33.6151,0.542246
-658,-153,-33.5173,0.30127,0,0,0,0,0,0,0,-1,566,1177,-33.5173,-0.301262
-651,-153,-33.565,1.04468,0.0136442,-0.020352,0.0219399,0.0244003,-0.031108,0.455819,0.0321256,0.0474379,573,1177,-33.565,-1.04462
-644,-153,-33.5347,1.77454,0.0106725,-0.0132133,0.0147503,0.0177087,-0.0202494,0.445092,0.0219315,0.0297794,580,1177,-33.5346,-1.77451
-637,-153,-33.6053,2.30872,0.00772906,-0.00759452,0.0088741,0.0117913,-0.0116567,0.429291,0.0135378,0.0122553,587,1177,-33.6053,-2.3087
-630,-153,-33.6548,2.78589,0.00482741,-0.00315998,0.0040892,0.00654958,-0.00488216,0.398607,0.00662348,0.0100014,594,1177,-33.6548,-2.78593
-623,-153,-33.686,3.27637,0.00249812,-0.00039462,0.000711101,0.00266347,-0.000559973,0.228471,0.00198876,0.0105999,601,1177,-33.686,-3.27642
-616,-153,-33.7233,3.77966,0.000842915,0.000518357,-0.000879724,0.0015752,-0.00021393,-0.69419,0.00112823,0.0139588,608,1177,-33.7233,-3.77963
-609,-153,-33.6667,4.24146,0.000350744,0.000374515,-0.000974564,0.00133727,-0.000612006,-0.791496,0.00115109,0.0272496,615,1177,-33.6668,-4.24146
-602,-153,-33.5789,4.64819,0,0,0,0,0,0,0,-1,622,1177,-33.5789,-4.64814
-595,-153,-33.9352,5.37646,0,0,0,0,0,0,0,-1,629,1177,-33.9352,-5.37647
-588,-153,-32.348,5.51038,0,0,0,0,0,0,0,-1,636,1177,-32.348,-5.51034
-581,-153,-33.4568,6.41492,0,0,0,0,0,0,0,-1,643,1177,-33.4568,-6.41497
-574,-153,-25.4814,5.16956,0,0,0,0,0,0,0,-1,650,1177,-25.4814,-5.16961
-567,-153,-35.3121,1.09485,0,0,0,0,0,0,0,-1,657,1177,-35.3121,-1.09482
-560,-153,-41.0896,0.634888,0,0,0,0,0,0,0,-1,664,1177,-41.0896,-0.634869
-553,-153,-41.0779,0.709839,-0.00243661,0.000401892,-0.00123639,0.000864912,-0.00289963,-1.21247,0.00227683,0.0393798,671,1177,-41.0779,-0.70982
-546,-153,-41.0876,0.723877,-0.00235631,0.000575492,-0.00117516,0.000988388,-0.00276921,-1.23292,0.00224919,0.0403199,678,1177,-41.0876,-0.723891
-539,-153,-41.3337,0.632568,-0.00136605,0.000400533,-0.000875444,0.000760867,-0.00172638,-1.18033,0.00147164,0.0398725,685,1177,-41.3337,-0.63255
-532,-153,-41.4719,0.625,0.000579684,-0.000293884,-9.00501e-05,0.00058887,-0.00030307,-0.101659,0.0005237,0.0425014,692,1177,-41.4718,-0.625058
-525,-153,-41.4871,1.13806,0.00367066,-0.00127299,0.00118179,0.00393864,-0.00154097,0.222989,0.00326305,0.0424636,699,1177,-41.4871,-1.13808
-518,-153,0,0,0,0,0,0,0,0,0,-1,706,1177,0,0
-511,-153,0,0,0,0,0,0,0,0,0,-1,713,1177,0,0
-504,-153,0,0,0,0,0,0,0,0,0,-1,720,1177,0,0
-497,-153,0,0,0,0,0,0,0,0,0,-1,727,1177,0,0
-490,-153,0,0,0,0,0,0,0,0,0,-1,734,1177,0,0
-483,-153,0,0,0,0,0,0,0,0,0,-1,741,1177,0,0
-476,-153,0,0,0,0,0,0,0,0,0,-1,748,1177,0,0
-469,-153,0,0,0,0,0,0,0,0,0,-1,755,1177,0,0
-462,-153,0,0,0,0,0,0,0,0,0,-1,762,1177,0,0
-455,-153,0,0,0,0,0,0,0,0,0,-1,769,1177,0,0
-448,-153,0,0,0,0,0,0,0,0,0,-1,776,1177,0,0
-441,-153,0,0,0,0,0,0,0,0,0,-1,783,1177,0,0
-434,-153,0,0,0,0,0,0,0,0,0,-1,790,1177,0,0
-427,-153,0,0,0,0,0,0,0,0,0,-1,797,1177,0,0
-420,-153,0,0,0,0,0,0,0,0,0,-1,804,1177,0,0
-413,-153,0,0,0,0,0,0,0,0,0,-1,811,1177,0,0
-406,-153,0,0,0,0,0,0,0,0,0,-1,818,1177,0,0
-399,-153,0,0,0,0,0,0,0,0,0,-1,825,1177,0,0
-392,-153,0,0,0,0,0,0,0,0,0,-1,832,1177,0,0
-385,-153,0,0,0,0,0,0,0,0,0,-1,839,1177,0,0
-378,-153,0,0,0,0,0,0,0,0,0,-1,846,1177,0,0
-371,-153,0,0,0,0,0,0,0,0,0,-1,853,1177,0,0
-364,-153,0,0,0,0,0,0,0,0,0,-1,860,1177,0,0
-357,-153,0,0,0,0,0,0,0,0,0,-1,867,1177,0,0
-350,-153,0,0,0,0,0,0,0,0,0,-1,874,1177,0,0
-343,-153,0,0,0,0,0,0,0,0,0,-1,881,1177,0,0
-336,-153,0,0,0,0,0,0,0,0,0,-1,888,1177,0,0
-329,-153,0,0,0,0,0,0,0,0,0,-1,895,1177,0,0
-322,-153,0,0,0,0,0,0,0,0,0,-1,902,1177,0,0
-315,-153,0,0,0,0,0,0,0,0,0,-1,909,1177,0,0
-308,-153,0,0,0,0,0,0,0,0,0,-1,916,1177,0,0
-301,-153,0,0,0,0,0,0,0,0,0,-1,923,1177,0,0
-294,-153,0,0,0,0,0,0,0,0,0,-1,930,1177,0,0
-287,-153,0,0,0,0,0,0,0,0,0,-1,937,1177,0,0
-280,-153,0,0,0,0,0,0,0,0,0,-1,944,1177,0,0
-273,-153,0,0,0,0,0,0,0,0,0,-1,951,1177,0,0
-266,-153,0,0,0,0,0,0,0,0,0,-1,958,1177,0,0
-259,-153,0,0,0,0,0,0,0,0,0,-1,965,1177,0,0
-252,-153,0,0,0,0,0,0,0,0,0,-1,972,1177,0,0
-245,-153,0,0,0,0,0,0,0,0,0,-1,979,1177,0,0
-238,-153,0,0,0,0,0,0,0,0,0,-1,986,1177,0,0
-231,-153,0,0,0,0,0,0,0,0,0,-1,993,1177,0,0
-224,-153,0,0,0,0,0,0,0,0,0,-1,1000,1177,0,0
-217,-153,0,0,0,0,0,0,0,0,0,-1,1007,1177,0,0
-210,-153,0,0,0,0,0,0,0,0,0,-1,1014,1177,0,0
-203,-153,0,0,0,0,0,0,0,0,0,-1,1021,1177,0,0
-196,-153,0,0,0,0,0,0,0,0,0,-1,1028,1177,0,0
-189,-153,0,0,0,0,0,0,0,0,0,-1,1035,1177,0,0
-182,-153,0,0,0,0,0,0,0,0,0,-1,1042,1177,0,0
-175,-153,0,0,0,0,0,0,0,0,0,-1,1049,1177,0,0
-168,-153,0,0,0,0,0,0,0,0,0,-1,1056,1177,0,0
-161,-153,0,0,0,0,0,0,0,0,0,-1,1063,1177,0,0
-154,-153,0,0,0,0,0,0,0,0,0,-1,1070,1177,0,0
-147,-153,0,0,0,0,0,0,0,0,0,-1,1077,1177,0,0
-140,-153,0,0,0,0,0,0,0,0,0,-1,1084,1177,0,0
-133,-153,0,0,0,0,0,0,0,0,0,-1,1091,1177,0,0
-126,-153,0,0,0,0,0,0,0,0,0,-1,1098,1177,0,0
-119,-153,0,0,0,0,0,0,0,0,0,-1,1105,1177,0,0
-112,-153,0,0,0,0,0,0,0,0,0,-1,1112,1177,0,0
-105,-153,0,0,0,0,0,0,0,0,0,-1,1119,1177,0,0
-98,-153,0,0,0,0,0,0,0,0,0,-1,1126,1177,0,0
-91,-153,0,0,0,0,0,0,0,0,0,-1,1133,1177,0,0
-84,-153,0,0,0,0,0,0,0,0,0,-1,1140,1177,0,0
-77,-153,0,0,0,0,0,0,0,0,0,-1,1147,1177,0,0
-70,-153,0,0,0,0,0,0,0,0,0,-1,1154,1177,0,0
-63,-153,0,0,0,0,0,0,0,0,0,-1,1161,1177,0,0
-56,-153,0,0,0,0,0,0,0,0,0,-1,1168,1177,0,0
-49,-153,0,0,0,0,0,0,0,0,0,-1,1175,1177,0,0
-42,-153,0,0,0,0,0,0,0,0,0,-1,1182,1177,0,0
-35,-153,0,0,0,0,0,0,0,0,0,-1,1189,1177,0,0
-28,-153,0,0,0,0,0,0,0,0,0,-1,1196,1177,0,0
-21,-153,0,0,0,0,0,0,0,0,0,-1,1203,1177,0,0
-14,-153,0,0,0,0,0,0,0,0,0,-1,1210,1177,0,0
-7,-153,0,0,0,0,0,0,0,0,0,-1,1217,1177,0,0
0,-153,0,0,0,0,0,0,0,0,0,-1,1224,1177,0,0
7,-153,0,0,0,0,0,0,0,0,0,-1,1231,1177,0,0
14,-153,0,0,0,0,0,0,0,0,0,-1,1238,1177,0,0
21,-153,0,0,0,0,0,0,0,0,0,-1,1245,1177,0,0
28,-153,0,0,0,0,0,0,0,0,0,-1,1252,1177,0,0
35,-153,0,0,0,0,0,0,0,0,0,-1,1259,1177,0,0
42,-153,0,0,0,0,0,0,0,0,0,-1,1266,1177,0,0
49,-153,0,0,0,0,0,0,0,0,0,-1,1273,1177,0,0
56,-153,0,0,0,0,0,0,0,0,0,-1,1280,1177,0,0
63,-153,0,0,0,0,0,0,0,0,0,-1,1287,1177,0,0
70,-153,0,0,0,0,0,0,0,0,0,-1,1294,1177,0,0
77,-153,0,0,0,0,0,0,0,0,0,-1,1301,1177,0,0
84,-153,0,0,0,0,0,0,0,0,0,-1,1308,1177,0,0
91,-153,0,0,0,0,0,0,0,0,0,-1,1315,1177,0,0
98,-153,0,0,0,0,0,0,0,0,0,-1,1322,1177,0,0
105,-153,0,0,0,0,0,0,0,0,0,-1,1329,1177,0,0
112,-153,0,0,0,0,0,0,0,0,0,-1,1336,1177,0,0
119,-153,0,0,0,0,0,0,0,0,0,-1,1343,1177,0,0
126,-153,0,0,0,0,0,0,0,0,0,-1,1350,1177,0,0
133,-153,0,0,0,0,0,0,0,0,0,-1,1357,1177,0,0
140,-153,0,0,0,0,0,0,0,0,0,-1,1364,1177,0,0
147,-153,0,0,0,0,0,0,0,0,0,-1,1371,1177,0,0
154,-153,0,0,0,0,0,0,0,0,0,-1,1378,1177,0,0
161,-153,0,0,0,0,0,0,0,0,0,-1,1385,1177,0,0
168,-153,0,0,0,0,0,0,0,0,0,-1,1392,1177,0,0
175,-153,0,0,0,0,0,0,0,0,0,-1,1399,1177,0,0
182,-153,0,0,0,0,0,0,0,0,0,-1,1406,1177,0,0
189,-153,0,0,0,0,0,0,0,0,0,-1,1413,1177,0,0
196,-153,0,0,0,0,0,0,0,0,0,-1,1420,1177,0,0
203,-153,0,0,0,0,0,0,0,0,0,-1,1427,1177,0,0
210,-153,0,0,0,0,0,0,0,0,0,-1,1434,1177,0,0
217,-153,0,0,0,0,0,0,0,0,0,-1,1441,1177,0,0
224,-153,0,0,0,0,0,0,0,0,0,-1,1448,1177,0,0
231,-153,0,0,0,0,0,0,0,0,0,-1,1455,1177,0,0
238,-153,0,0,0,0,0,0,0,0,0,-1,1462,1177,0,0
245,-153,0,0,0,0,0,0,0,0,0,-1,1469,1177,0,0
252,-153,0,0,0,0,0,0,0,0,0,-1,1476,1177,0,0
259,-153,0,0,0,0,0,0,0,0,0,-1,1483,1177,0,0
266,-153,0,0,0,0,0,0,0,0,0,-1,1490,1177,0,0
273,-153,0,0,0,0,0,0,0,0,0,-1,1497,1177,0,0
280,-153,0,0,0,0,0,0,0,0,0,-1,1504,1177,0,0
287,-153,0,0,0,0,0,0,0,0,0,-1,1511,1177,0,0
294,-153,0,0,0,0,0,0,0,0,0,-1,1518,1177,0,0
301,-153,0,0,0,0,0,0,0,0,0,-1,1525,1177,0,0
308,-153,0,0,0,0,0,0,0,0,0,-1,1532,1177,0,0
315,-153,0,0,0,0,0,0,0,0,0,-1,1539,1177,0,0
322,-153,0,0,0,0,0,0,0,0,0,-1,1546,1177,0,0
329,-153,0,0,0,0,0,0,0,0,0,-1,1553,1177,0,0
336,-153,0,0,0,0,0,0,0,0,0,-1,1560,1177,0,0
343,-153,0,0,0,0,0,0,0,0,0,-1,1567,1177,0,0
350,-153,0,0,0,0,0,0,0,0,0,-1,1574,1177,0,0
357,-153,0,0,0,0,0,0,0,0,0,-1,1581,1177,0,0
364,-153,0,0,0,0,0,0,0,0,0,-1,1588,1177,0,0
371,-153,0,0,0,0,0,0,0,0,0,-1,1595,1177,0,0
378,-153,0,0,0,0,0,0,0,0,0,-1,1602,1177,0,0
385,-153,0,0,0,0,0,0,0,0,0,-1,1609,1177,0,0
392,-153,0,0,0,0,0,0,0,0,0,-1,1616,1177,0,0
399,-153,0,0,0,0,0,0,0,0,0,-1,1623,1177,0,0
406,-153,0,0,0,0,0,0,0,0,0,-1,1630,1177,0,0
413,-153,0,0,0,0,0,0,0,0,0,-1,1637,1177,0,0
420,-153,0,0,0,0,0,0,0,0,0,-1,1644,1177,0,0
427,-153,0,0,0,0,0,0,0,0,0,-1,1651,1177,0,0
434,-153,0,0,0,0,0,0,0,0,0,-1,1658,1177,0,0
441,-153,0,0,0,0,0,0,0,0,0,-1,1665,1177,0,0
448,-153,0,0,0,0,0,0,0,0,0,-1,1672,1177,0,0
455,-153,0,0,0,0,0,0,0,0,0,-1,1679,1177,0,0
462,-153,0,0,0,0,0,0,0,0,0,-1,1686,1177,0,0
469,-153,0,0,0,0,0,0,0,0,0,-1,1693,1177,0,0
476,-153,0,0,0,0,0,0,0,0,0,-1,1700,1177,0,0
483,-153,0,0,0,0,0,0,0,0,0,-1,1707,1177,0,0
490,-153,0,0,0,0,0,0,0,0,0,-1,1714,1177,0,0
497,-153,0,0,0,0,0,0,0,0,0,-1,1721,1177,0,0
504,-153,0,0,0,0,0,0,0,0,0,-1,1728,1177,0,0
511,-153,0,0,0,0,0,0,0,0,0,-1,1735,1177,0,0
518,-153,0,0,0,0,0,0,0,0,0,-1,1742,1177,0,0
525,-153,0,0,0,0,0,0,0,0,0,-1,1749,1177,0,0
532,-153,0,0,0,0,0,0,0,0,0,-1,1756,1177,0,0
539,-153,0,0,0,0,0,0,0,0,0,-1,1763,1177,0,0
546,-153,0,0,0,0,0,0,0,0,0,-1,1770,1177,0,0
553,-153,0,0,0,0,0,0,0,0,0,-1,1777,1177,0,0
560,-153,0,0,0,0,0,0,0,0,0,-1,1784,1177,0,0
567,-153,0,0,0,0,0,0,0,0,0,-1,1791,1177,0,0
574,-153,0,0,0,0,0,0,0,0,0,-1,1798,1177,0,0
581,-153,0,0,0,0,0,0,0,0,0,-1,1805,1177,0,0
588,-153,0,0,0,0,0,0,0,0,0,-1,1812,1177,0,0
595,-153,0,0,0,0,0,0,0,0,0,-1,1819,1177,0,0
602,-153,0,0,0,0,0,0,0,0,0,-1,1826,1177,0,0
609,-153,0,0,0,0,0,0,0,0,0,-1,1833,1177,0,0
616,-153,0,0,0,0,0,0,0,0,0,-1,1840,1177,0,0
623,-153,0,0,0,0,0,0,0,0,0,-1,1847,1177,0,0
630,-153,0,0,0,0,0,0,0,0,0,-1,1854,1177,0,0
637,-153,55.1389,2.57935,0.00454011,0.00117241,-0.000777786,0.00471107,0.00100146,-0.216356,0.00286583,0.0414389,1861,1177,55.1389,-2.57931
644,-153,55.1461,2.59473,0.00298636,0.00132594,-0.000459214,0.0031049,0.0012074,-0.252622,0.00180731,0.0394111,1868,1177,55.1461,-2.59469
651,-153,55.1747,2.7334,0.00188196,0.00148778,-0.000403165,0.00213363,0.00123611,-0.558048,0.00123701,0.032857,1875,1177,55.1747,-2.73335
658,-153,55.1721,2.67517,0.00114022,0.00166032,-0.000562101,0.00201961,0.000780926,-1.00206,0.00117596,0.0358877,1882,1177,55.1722,-2.67516
665,-153,55.1036,2.51855,0.000677528,0.00187208,-0.0008182,0.00228782,0.000261794,-1.10068,0.00144587,0.0365107,1889,1177,55.1036,-2.5185
672,-153,55.0546,2.46936,0.000308478,0.0020099,-0.00100016,0.00247221,-0.000153837,-1.13781,0.00170174,0.0355999,1896,1177,55.0545,-2.46941
679,-153,55.0016,2.53699,0.000185746,0.00173729,-0.000986678,0.00221665,-0.000293614,-1.11855,0.00158473,0.0278898,1903,1177,55.0015,-2.53702
686,-153,55.0402,2.56946,0.000355997,0.00140602,-0.000794868,0.00183361,-7.15945e-05,-1.07726,0.00124696,0.0181838,1910,1177,55.0401,-2.56951
693,-153,55.1228,2.55518,0.000396927,0.00119901,-0.000471927,0.00141728,0.000178654,-1.13758,0.00089129,0.0359032,1917,1177,55.1228,-2.55521
700,-153,55.1858,2.53687,0,0,0,0,0,0,0,-1,1924,1177,55.1858,-2.53688
707,-153,29.6483,6.6842,0,0,0,0,0,0,0,-1,1931,1177,29.6483,-6.68415
714,-153,36.0046,6.78418,0,0,0,0,0,0,0,-1,1938,1177,36.0046,-6.78418
721,-153,36.4866,6.47595,0,0,0,0,0,0,0,-1,1945,1177,36.4866,-6.47593
728,-153,47.7305,7.37024,0,0,0,0,0,0,0,-1,1952,1177,47.7304,-7.37022
735,-153,47.7819,7.09998,0.00133388,6.50926e-05,0.00110166,0.00197075,-0.000571779,0.524161,0.00154022,0.0479384,1959,1177,47.7818,-7.10002
742,-153,47.8475,6.77161,0.00196071,-0.000167392,0.00143792,0.00268546,-0.000892141,0.466865,0.00215029,0.014803,1966,1177,47.8476,-6.77156
749,-153,47.8253,6.3479,0.00374141,0.000162538,0.00187054,0.00454061,-0.000636657,0.403777,0.00326008,0.0159324,1973,1177,47.8253,-6.34789
756,-153,47.79,5.88855,0.0076627,0.00169385,0.00210568,0.00833076,0.00102578,0.307223,0.00524546,0.0115046,1980,1177,47.79,-5.88858
763,-153,47.7452,5.42627,0.013078,0.00396821,0.00250785,0.0137227,0.00332345,0.251646,0.00826644,0.0118025,1987,1177,47.7452,-5.42628
770,-153,47.738,4.98303,0.0198366,0.00700684,0.00272679,0.0203921,0.00645135,0.200966,0.0120351,0.0118474,1994,1177,47.738,-4.983
777,-153,47.7578,4.53687,0.0280949,0.0111463,0.0028293,0.0285548,0.0106865,0.161116,0.016659,0.0230686,2001,1177,47.7577,-4.53686
784,-153,48.3662,4.4635,0.0382245,0.0166109,0.0026614,0.0385474,0.016288,0.120733,0.0223442,0.0407806,2008,1177,48.3661,-4.46351
791,-153,49.094,4.36389,0.050826,0.0242481,0.00200611,0.0509765,0.0240975,0.0749149,0.0294459,0.0468238,2015,1177,49.094,-4.36391
798,-153,49.8938,3.98816,0.0655549,0.0345914,0.000664849,0.0655692,0.0345771,0.0214588,0.0378752,0.0495248,2022,1177,49.8937,-3.98822
805,-153,50.52,3.80969,0.0818842,0.0483486,-0.00155096,0.0819558,0.048277,-0.0461168,0.0475668,0.0460116,2029,1177,50.5201,-3.80963
812,-153,0,0,0,0,0,0,0,0,0,-1,2036,1177,0,0
-700,-160,0,0,0,0,0,0,0,0,0,-1,524,1184,0,0
-693,-160,0,0,0,0,0,0,0,0,0,-1,531,1184,0,0
-686,-160,-33.8811,-3.51599,0.0272038,-0.0861192,0.0832566,0.0712507,-0.130166,0.486617,0.117935,0.0468116,538,1184,-33.8811,3.516
-679,-160,-33.5979,-2.04004,0.0260935,-0.0692402,0.0682163,0.0616468,-0.104794,0.480452,0.0971647,0.0484508,545,1184,-33.5979,2.03998
-672,-160,-33.5824,-0.990601,0.0235997,-0.0547395,0.054793,0.0517839,-0.0829237,0.475082,0.0784631,0.0448063,552,1184,-33.5824,0.990557
-665,-160,-33.0526,-0.771729,0,0,0,0,0,0,0,-1,559,1184,-33.0526,0.771674
-658,-160,-33.0037,0.0838623,0,0,0,0,0,0,0,-1,566,1184,-33.0037,-0.0838813
-651,-160,-33.1046,0.975342,0,0,0,0,0,0,0,-1,573,1184,-33.1046,-0.975384
-644,-160,-33.01,1.78296,0.0115299,-0.0149773,0.0161043,0.0191331,-0.0225804,0.441098,0.0241107,0.038879,580,1184,-33.01,-1.783
-637,-160,-33.0687,2.29004,0.00845896,-0.0089597,0.00985906,0.0129046,-0.0134054,0.423619,0.015191,0.0159728,587,1184,-33.0687,-2.29004
-630,-160,-33.1392,2.76941,0.00540018,-0.00411326,0.00471402,0.00734035,-0.00605343,0.390445,0.00774479,0.00966843,594,1184,-33.1392,-2.76942
-623,-160,-33.1927,3.24158,0.00289838,-0.00091962,0.00095226,0.00312271,-0.00114395,0.231354,0.00255013,0.0127751,601,1184,-33.1927,-3.24159
-616,-160,-33.2247,3.75623,0.000999696,0.000311177,-0.000962976,0.0016781,-0.000367226,-0.61373,0.00125912,0.0111668,608,1184,-33.2247,-3.75619
-609,-160,-33.2297,4.32104,0.000211829,0.000134917,-0.0011703,0.00134431,-0.000997561,-0.768974,0.00135701,0.0163667,615,1184,-33.2297,-4.32108
-602,-160,-33.3249,4.85962,0,0,0,0,0,0,0,-1,622,1184,-33.3249,-4.85966
-595,-160,-29.6506,5.44702,0,0,0,0,0,0,0,-1,629,1184,-29.6506,-5.44707
-588,-160,-33.4845,5.66699,0,0,0,0,0,0,0,-1,636,1184,-33.4845,-5.66697
-581,-160,-33.1338,6.41174,0,0,0,0,0,0,0,-1,643,1184,-33.1338,-6.41176
-574,-160,-32.7831,7.15649,0,0,0,0,0,0,0,-1,650,1184,-32.7831,-7.15655
-567,-160,-29.5828,0.643921,0,0,0,0,0,0,0,-1,657,1184,-29.5828,-0.643968
-560,-160,-41.0967,0.895996,0,0,0,0,0,0,0,-1,664,1184,-41.0967,-0.896005
-553,-160,-41.0939,0.783936,-0.00236301,-7.54921e-05,-0.00136162,0.000559007,-0.00299751,-1.13473,0.00220838,0.0406643,671,1184,-41.0939,-0.783933
-546,-160,-41.1349,0.782593,-0.00210409,-8.54348e-06,-0.00126277,0.00058454,-0.00269717,-1.13171,0.00202133,0.0397356,678,1184,-41.1349,-0.782609
-539,-160,-41.209,0.543701,-0.00111528,-0.000111407,-0.000974754,0.000483053,-0.00170974,-1.02316,0.00133041,0.0426057,685,1184,-41.209,-0.543667
-532,-160,-40.9927,0.369507,0.000665278,-0.000519314,-0.000206663,0.000700297,-0.000554334,-0.167856,0.000725994,0.047464,692,1184,-40.9927,-0.369538
-525,-160,-40.9792,0.699219,0.00372128,-0.00110868,0.00113831,0.00397611,-0.00136352,0.220235,0.00320348,0.0452878,699,1184,-40.9793,-0.699259
-518,-160,-40.9888,0.72998,0.00645819,-0.0017029,0.00284447,0.00735176,-0.00259648,0.304382,0.00595833,0.043239,706,1184,-40.9888,-0.72996
-511,-160,0,0,0,0,0,0,0,0,0,-1,713,1184,0,0
-504,-160,0,0,0,0,0,0,0,0,0,-1,720,1184,0,0
-497,-160,0,0,0,0,0,0,0,0,0,-1,727,1184,0,0
-490,-160,0,0,0,0,0,0,0,0,0,-1,734,1184,0,0
-483,-160,0,0,0,0,0,0,0,0,0,-1,741,1184,0,0
-476,-160,0,0,0,0,0,0,0,0,0,-1,748,1184,0,0
-469,-160,0,0,0,0,0,0,0,0,0,-1,755,1184,0,0
-462,-160,0,0,0,0,0,0,0,0,0,-1,762,1184,0,0
-455,-160,0,0,0,0,0,0,0,0,0,-1,769,1184,0,0
-448,-160,0,0,0,0,0,0,0,0,0,-1,776,1184,0,0
-441,-160,0,0,0,0,0,0,0,0,0,-1,783,1184,0,0
-434,-160,0,0,0,0,0,0,0,0,0,-1,790,1184,0,0
-427,-160,0,0,0,0,0,0,0,0,0,-1,797,1184,0,0
-420,-160,0,0,0,0,0,0,0,0,0,-1,804,1184,0,0
-413,-160,0,0,0,0,0,0,0,0,0,-1,811,1184,0,0
-406,-160,0,0,0,0,0,0,0,0,0,-1,818,1184,0,0
-399,-160,0,0,0,0,0,0,0,0,0,-1,825,1184,0,0
-392,-160,0,0,0,0,0,0,0,0,0,-1,832,1184,0,0
-385,-160,0,0,0,0,0,0,0,0,0,-1,839,1184,0,0
-378,-160,0,0,0,0,0,0,0,0,0,-1,846,1184,0,0
-371,-160,0,0,0,0,0,0,0,0,0,-1,853,1184,0,0
-364,-160,0,0,0,0,0,0,0,0,0,-1,860,1184,0,0
-357,-160,0,0,0,0,0,0,0,0,0,-1,867,1184,0,0
-350,-160,0,0,0,0,0,0,0,0,0,-1,874,1184,0,0
-343,-160,0,0,0,0,0,0,0,0,0,-1,881,1184,0,0
-336,-160,0,0,0,0,0,0,0,0,0,-1,888,1184,0,0
-329,-160,0,0,0,0,0,0,0,0,0,-1,895,1184,0,0
-322,-160,0,0,0,0,0,0,0,0,0,-1,902,1184,0,0
-315,-160,0,0,0,0,0,0,0,0,0,-1,909,1184,0,0
-308,-160,0,0,0,0,0,0,0,0,0,-1,916,1184,0,0
-301,-160,0,0,0,0,0,0,0,0,0,-1,923,1184,0,0
-294,-160,0,0,0,0,0,0,0,0,0,-1,930,1184,0,0
-287,-160,0,0,0,0,0,0,0,0,0,-1,937,1184,0,0
-280,-160,0,0,0,0,0,0,0,0,0,-1,944,1184,0,0
-273,-160,0,0,0,0,0,0,0,0,0,-1,951,1184,0,0
-266,-160,0,0,0,0,0,0,0,0,0,-1,958,1184,0,0
-259,-160,0,0,0,0,0,0,0,0,0,-1,965,1184,0,0
-252,-160,0,0,0,0,0,0,0,0,0,-1,972,1184,0,0
-245,-160,0,0,0,0,0,0,0,0,0,-1,979,1184,0,0
-238,-160,0,0,0,0,0,0,0,0,0,-1,986,1184,0,0
-231,-160,0,0,0,0,0,0,0,0,0,-1,993,1184,0,0
-224,-160,0,0,0,0,0,0,0,0,0,-1,1000,1184,0,0
-217,-160,0,0,0,0,0,0,0,0,0,-1,1007,1184,0,0
-210,-160,0,0,0,0,0,0,0,0,0,-1,1014,1184,0,0
-203,-160,0,0,0,0,0,0,0,0,0,-1,1021,1184,0,0
-196,-160,0,0,0,0,0,0,0,0,0,-1,1028,1184,0,0
-189,-160,0,0,0,0,0,0,0,0,0,-1,1035,1184,0,0
-182,-160,0,0,0,0,0,0,0,0,0,-1,1042,1184,0,0
-175,-160,0,0,0,0,0,0,0,0,0,-1,1049,1184,0,0
-168,-160,0,0,0,0,0,0,0,0,0,-1,1056,1184,0,0
-161,-160,0,0,0,0,0,0,0,0,0,-1,1063,1184,0,0
-154,-160,0,0,0,0,0,0,0,0,0,-1,1070,1184,0,0
-147,-160,0,0,0,0,0,0,0,0,0,-1,1077,1184,0,0
-140,-160,0,0,0,0,0,0,0,0,0,-1,1084,1184,0,0
-133,-160,0,0,0,0,0,0,0,0,0,-1,1091,1184,0,0
-126,-160,0,0,0,0,0,0,0,0,0,-1,1098,1184,0,0
-119,-160,0,0,0,0,0,0,0,0,0,-1,1105,1184,0,0
-112,-160,0,0,0,0,0,0,0,0,0,-1,1112,1184,0,0
-105,-160,0,0,0,0,0,0,0,0,0,-1,1119,1184,0,0
-98,-160,0,0,0,0,0,0,0,0,0,-1,1126,1184,0,0
-91,-160,0,0,0,0,0,0,0,0,0,-1,1133,1184,0,0
-84,-160,0,0,0,0,0,0,0,0,0,-1,1140,1184,0,0
-77,-160,0,0,0,0,0,0,0,0,0,-1,1147,1184,0,0
-70,-160,0,0,0,0,0,0,0,0,0,-1,1154,1184,0,0
-63,-160,0,0,0,0,0,0,0,0,0,-1,1161,1184,0,0
-56,-160,0,0,0,0,0,0,0,0,0,-1,1168,1184,0,0
-49,-160,0,0,0,0,0,0,0,0,0,-1,1175,1184,0,0
-42,-160,0,0,0,0,0,0,0,0,0,-1,1182,1184,0,0
-35,-160,0,0,0,0,0,0,0,0,0,-1,1189,1184,0,0
-28,-160,0,0,0,0,0,0,0,0,0,-1,1196,1184,0,0
-21,-160,0,0,0,0,0,0,0,0,0,-1,1203,1184,0,0
-14,-160,0,0,0,0,0,0,0,0,0,-1,1210,1184,0,0
-7,-160,0,0,0,0,0,0,0,0,0,-1,1217,1184,0,0
0,-160,0,0,0,0,0,0,0,0,0,-1,1224,1184,0,0
7,-160,0,0,0,0,0,0,0,0,0,-1,1231,1184,0,0
14,-160,0,0,0,0,0,0,0,0,0,-1,1238,1184,0,0
21,-160,0,0,0,0,0,0,0,0,0,-1,1245,1184,0,0
28,-160,0,0,0,0,0,0,0,0,0,-1,1252,1184,0,0
35,-160,0,0,0,0,0,0,0,0,0,-1,1259,1184,0,0
42,-160,0,0,0,0,0,0,0,0,0,-1,1266,1184,0,0
49,-160,0,0,0,0,0,0,0,0,0,-1,1273,1184,0,0
56,-160,0,0,0,0,0,0,0,0,0,-1,1280,1184,0,0
63,-160,0,0,0,0,0,0,0,0,0,-1,1287,1184,0,0
70,-160,0,0,0,0,0,0,0,0,0,-1,1294,1184,0,0
77,-160,0,0,0,0,0,0,0,0,0,-1,1301,1184,0,0
84,-160,0,0,0,0,0,0,0,0,0,-1,1308,1184,0,0
91,-160,0,0,0,0,0,0,0,0,0,-1,1315,1184,0,0
98,-160,0,0,0,0,0,0,0,0,0,-1,1322,1184,0,0
105,-160,0,0,0,0,0,0,0,0,0,-1,1329,1184,0,0
112,-160,0,0,0,0,0,0,0,0,0,-1,1336,1184,0,0
119,-160,0,0,0,0,0,0,0,0,0,-1,1343,1184,0,0
126,-160,0,0,0,0,0,0,0,0,0,-1,1350,1184,0,0
133,-160,0,0,0,0,0,0,0,0,0,-1,1357,1184,0,0
140,-160,0,0,0,0,0,0,0,0,0,-1,1364,1184,0,0
147,-160,0,0,0,0,0,0,0,0,0,-1,1371,1184,0,0
154,-160,0,0,0,0,0,0,0,0,0,-1,1378,1184,0,0
161,-160,0,0,0,0,0,0,0,0,0,-1,1385,1184,0,0
168,-160,0,0,0,0,0,0,0,0,0,-1,1392,1184,0,0
175,-160,0,0,0,0,0,0,0,0,0,-1,1399,1184,0,0
182,-160,0,0,0,0,0,0,0,0,0,-1,1406,1184,0,0
189,-160,0,0,0,0,0,0,0,0,0,-1,1413,1184,0,0
196,-160,0,0,0,0,0,0,0,0,0,-1,1420,1184,0,0
203,-160,0,0,0,0,0,0,0,0,0,-1,1427,1184,0,0
210,-160,0,0,0,0,0,0,0,0,0,-1,1434,1184,0,0
217,-160,0,0,0,0,0,0,0,0,0,-1,1441,1184,0,0
224,-160,0,0,0,0,0,0,0,0,0,-1,1448,1184,0,0
231,-160,0,0,0,0,0,0,0,0,0,-1,1455,1184,0,0
238,-160,0,0,0,0,0,0,0,0,0,-1,1462,1184,0,0
245,-160,0,0,0,0,0,0,0,0,0,-1,1469,1184,0,0
252,-160,0,0,0,0,0,0,0,0,0,-1,1476,1184,0,0
259,-160,0,0,0,0,0,0,0,0,0,-1,1483,1184,0,0
266,-160,0,0,0,0,0,0,0,0,0,-1,1490,1184,0,0
273,-160,0,0,0,0,0,0,0,0,0,-1,1497,1184,0,0
280,-160,0,0,0,0,0,0,0,0,0,-1,1504,1184,0,0
287,-160,0,0,0,0,0,0,0,0,0,-1,1511,1184,0,0
294,-160,0,0,0,0,0,0,0,0,0,-1,1518,1184,0,0
301,-160,0,0,0,0,0,0,0,0,0,-1,1525,1184,0,0
308,-160,0,0,0,0,0,0,0,0,0,-1,1532,1184,0,0
315,-160,0,0,0,0,0,0,0,0,0,-1,1539,1184,0,0
322,-160,0,0,0,0,0,0,0,0,0,-1,1546,1184,0,0
329,-160,0,0,0,0,0,0,0,0,0,-1,1553,1184,0,0
336,-160,0,0,0,0,0,0,0,0,0,-1,1560,1184,0,0
343,-160,0,0,0,0,0,0,0,0,0,-1,1567,1184,0,0
350,-160,0,0,0,0,0,0,0,0,0,-1,1574,1184,0,0
357,-160,0,0,0,0,0,0,0,0,0,-1,1581,1184,0,0
364,-160,0,0,0,0,0,0,0,0,0,-1,1588,1184,0,0
371,-160,0,0,0,0,0,0,0,0,0,-1,1595,1184,0,0
378,-160,0,0,0,0,0,0,0,0,0,-1,1602,1184,0,0
385,-160,0,0,0,0,0,0,0,0,0,-1,1609,1184,0,0
392,-160,0,0,0,0,0,0,0,0,0,-1,1616,1184,0,0
399,-160,0,0,0,0,0,0,0,0,0,-1,1623,1184,0,0
406,-160,0,0,0,0,0,0,0,0,0,-1,1630,1184,0,0
413,-160,0,0,0,0,0,0,0,0,0,-1,1637,1184,0,0
420,-160,0,0,0,0,0,0,0,0,0,-1,1644,1184,0,0
427,-160,0,0,0,0,0,0,0,0,0,-1,1651,1184,0,0
434,-160,0,0,0,0,0,0,0,0,0,-1,1658,1184,0,0
441,-160,0,0,0,0,0,0,0,0,0,-1,1665,1184,0,0
448,-160,0,0,0,0,0,0,0,0,0,-1,1672,1184,0,0
455,-160,0,0,0,0,0,0,0,0,0,-1,1679,1184,0,0
462,-160,0,0,0,0,0,0,0,0,0,-1,1686,1184,0,0
469,-160,0,0,0,0,0,0,0,0,0,-1,1693,1184,0,0
476,-160,0,0,0,0,0,0,0,0,0,-1,1700,1184,0,0
483,-160,0,0,0,0,0,0,0,0,0,-1,1707,1184,0,0
490,-160,0,0,0,0,0,0,0,0,0,-1,1714,1184,0,0
497,-160,0,0,0,0,0,0,0,0,0,-1,1721,1184,0,0
504,-160,0,0,0,0,0,0,0,0,0,-1,1728,1184,0,0
511,-160,0,0,0,0,0,0,0,0,0,-1,1735,1184,0,0
518,-160,0,0,0,0,0,0,0,0,0,-1,1742,1184,0,0
525,-160,0,0,0,0,0,0,0,0,0,-1,1749,1184,0,0
532,-160,0,0,0,0,0,0,0,0,0,-1,1756,1184,0,0
539,-160,0,0,0,0,0,0,0,0,0,-1,1763,1184,0,0
546,-160,0,0,0,0,0,0,0,0,0,-1,1770,1184,0,0
553,-160,0,0,0,0,0,0,0,0,0,-1,1777,1184,0,0
560,-160,0,0,0,0,0,0,0,0,0,-1,1784,1184,0,0
567,-160,0,0,0,0,0,0,0,0,0,-1,1791,1184,0,0
574,-160,0,0,0,0,0,0,0,0,0,-1,1798,1184,0,0
581,-160,0,0,0,0,0,0,0,0,0,-1,1805,1184,0,0
588,-160,0,0,0,0,0,0,0,0,0,-1,1812,1184,0,0
595,-160,0,0,0,0,0,0,0,0,0,-1,1819,1184,0,0
602,-160,0,0,0,0,0,0,0,0,0,-1,1826,1184,0,0
609,-160,0,0,0,0,0,0,0,0,0,-1,1833,1184,0,0
616,-160,0,0,0,0,0,0,0,0,0,-1,1840,1184,0,0
623,-160,0,0,0,0,0,0,0,0,0,-1,1847,1184,0,0
630,-160,0,0,0,0,0,0,0,0,0,-1,1854,1184,0,0
637,-160,55.1273,2.7334,0.00359595,0.00148462,-0.00085014,0.00389571,0.00118487,-0.338986,0.00230599,0.0455305,1861,1184,55.1273,-2.73341
644,-160,55.2546,2.45703,0.00232211,0.00150001,-0.000528117,0.00258029,0.00124183,-0.454707,0.00149008,0.0437536,1868,1184,55.2547,-2.45705
651,-160,55.1437,2.62524,0.00142058,0.00155396,-0.000466609,0.00195862,0.00101592,-0.856378,0.00113107,0.0391181,1875,1184,55.1437,-2.62529
658,-160,54.9832,2.73218,0.000886498,0.00164822,-0.000660023,0.00202939,0.000505331,-1.04708,0.00121988,0.0402053,1882,1184,54.9832,-2.73216
665,-160,55.059,2.62146,0.000644503,0.00176765,-0.000944415,0.00230484,0.000107313,-1.05363,0.00150207,0.0376751,1889,1184,55.059,-2.6214
672,-160,55.0588,2.56604,0.000480944,0.0018242,-0.00113499,0.00247139,-0.000166247,-1.05256,0.00170571,0.0327374,1896,1184,55.0589,-2.56598
679,-160,55.0272,2.59058,0.000497984,0.00153829,-0.0011496,0.00227993,-0.000243659,-0.997849,0.00160734,0.0241791,1903,1184,55.0272,-2.59061
686,-160,55.079,2.57446,0.000655452,0.00123475,-0.000976552,0.0019637,-7.35009e-05,-0.929567,0.00133431,0.0159802,1910,1184,55.0789,-2.57449
693,-160,55.1501,2.56531,0,0,0,0,0,0,0,-1,1917,1184,55.1501,-2.56529
700,-160,42.8784,2.44617,0,0,0,0,0,0,0,-1,1924,1184,42.8785,-2.4462
707,-160,24.5115,6.27405,0,0,0,0,0,0,0,-1,1931,1184,24.5115,-6.27401
714,-160,35.6892,6.8905,0,0,0,0,0,0,0,-1,1938,1184,35.6892,-6.89048
721,-160,36.2388,6.37878,0,0,0,0,0,0,0,-1,1945,1184,36.2388,-6.37876
728,-160,47.276,7.76843,0,0,0,0,0,0,0,-1,1952,1184,47.276,-7.76839
735,-160,47.4718,7.17871,0.00152377,2.66505e-05,0.000921804,0.00196267,-0.000412251,0.444373,0.00146532,0.038086,1959,1184,47.4718,-7.17866
742,-160,47.3589,6.75085,0.00224185,-0.000181467,0.00126793,0.00278398,-0.000723596,0.404045,0.00213839,0.0162903,1966,1184,47.3588,-6.75087
749,-160,47.3384,6.31165,0.00435696,0.000134827,0.0016263,0.00491074,-0.00041896,0.328205,0.00342204,0.0178896,1973,1184,47.3383,-6.3117
756,-160,47.3191,5.88379,0.00879945,0.00151154,0.00152801,0.00910685,0.00120414,0.198528,0.00571231,0.0118325,1980,1184,47.3191,-5.88385
763,-160,47.2645,5.46924,0.014873,0.00339561,0.00129083,0.0150164,0.00325222,0.110626,0.00912217,0.0129721,1987,1184,47.2645,-5.46928
770,-160,47.197,4.97144,0.0225862,0.00602412,0.000643106,0.0226111,0.00599919,0.0387523,0.0135253,0.025336,1994,1184,47.1971,-4.97144
777,-160,47.2622,4.44104,0.0322418,0.00971203,-0.000524325,0.032254,0.00969984,-0.0232557,0.0191085,0.0353254,2001,1184,47.2623,-4.44101
784,-160,47.5051,3.78796,0,0,0,0,0,0,0,-1,2008,1184,47.5051,-3.78793
791,-160,48.8845,4.10986,0,0,0,0,0,0,0,-1,2015,1184,48.8846,-4.1099
798,-160,50.2029,3.64294,0.0779966,0.0316976,-0.010822,0.0804012,0.029293,-0.218649,0.0469858,0.0475623,2022,1184,50.2028,-3.643
805,-160,51.0732,3.34998,0.0990095,0.0449715,-0.0182196,0.104579,0.0394025,-0.296642,0.0609866,0.0473318,2029,1184,51.0732,-3.35004
812,-160,0,0,0,0,0,0,0,0,0,-1,2036,1184,0,0
-700,-167,0,0,0,0,0,0,0,0,0,-1,524,1191,0,0
-693,-167,0,0,0,0,0,0,0,0,0,-1,531,1191,0,0
-686,-167,-33.858,-2.75256,0.0290668,-0.0883992,0.0855507,0.0741051,-0.133437,0.484584,0.121446,0.0486038,538,1191,-33.858,2.75258
-679,-167,-33.5184,-1.3031,0.0278999,-0.0715419,0.0702542,0.0642477,-0.10789,0.477451,0.100443,0.0464611,545,1191,-33.5184,1.30309
-672,-167,-33.5048,-0.282715,0.0252407,-0.0570396,0.056666,0.0541258,-0.0859248,0.471413,0.0815501,0.0462425,552,1191,-33.5048,0.282719
-665,-167,-33.6863,0.635376,0.0221904,-0.0445169,0.0446908,0.0446017,-0.0669282,0.464827,0.0648205,0.0479863,559,1191,-33.6863,-0.635361
-658,-167,-32.5017,-0.0706787,0,0,0,0,0,0,0,-1,566,1191,-32.5017,0.0706508
-651,-167,-32.5543,0.696533,0,0,0,0,0,0,0,-1,573,1191,-32.5542,-0.696514
-644,-167,-32.47,1.77307,0.0125733,-0.0165759,0.0172327,0.0205683,-0.0245708,0.434386,0.0260952,0.0417304,580,1191,-32.4701,-1.77309
-637,-167,-32.5115,2.29224,0.00936725,-0.0102679,0.0107746,0.0141263,-0.0150269,0.415921,0.0168343,0.0190403,587,1191,-32.5115,-2.29222
-630,-167,-32.6052,2.76477,0.0061642,-0.00509047,0.00541967,0.00834966,-0.00727593,0.383301,0.00902854,0.0100625,594,1191,-32.6052,-2.76474
-623,-167,-32.6407,3.24536,0.00351039,-0.00149045,0.00138131,0.00386656,-0.00184662,0.252354,0.00336652,0.0123916,601,1191,-32.6408,-3.24539
-616,-167,-32.6674,3.7616,0.00136198,0.000110883,-0.000823835,0.00177085,-0.000297983,-0.46068,0.00129141,0.0153673,608,1191,-32.6674,-3.76165
-609,-167,-32.6785,4.33252,0.000211237,-6.89166e-05,-0.00114373,0.00122343,-0.00108111,-0.724465,0.00133137,0.0147054,615,1191,-32.6785,-4.33252
-602,-167,-32.7271,4.83582,-0.000669379,1.33158e-05,-0.0010243,0.000751644,-0.00140771,-0.946236,0.00126574,0.0193686,622,1191,-32.7271,-4.8358
-595,-167,-32.6212,5.26526,0,0,0,0,0,0,0,-1,629,1191,-32.6212,-5.26526
-588,-167,-32.9225,5.78845,0,0,0,0,0,0,0,-1,636,1191,-32.9225,-5.78849
-581,-167,-32.8646,6.30542,0,0,0,0,0,0,0,-1,643,1191,-32.8646,-6.30537
-574,-167,-32.4808,7.37524,0,0,0,0,0,0,0,-1,650,1191,-32.4808,-7.37525
-567,-167,-27.3643,2.55859,0,0,0,0,0,0,0,-1,657,1191,-27.3643,-2.55864
-560,-167,-40.9254,0.662964,0,0,0,0,0,0,0,-1,664,1191,-40.9254,-0.662929
-553,-167,-41.0215,0.71228,-0.00212493,-0.000700293,-0.00147384,0.000224334,-0.00304956,-1.0105,0.00211179,0.0430524,671,1191,-41.0215,-0.712332
-546,-167,-41.1433,0.826294,-0.00170136,-0.000820032,-0.00143443,0.000239891,-0.00276129,-0.934426,0.00192581,0.0358441,678,1191,-41.1433,-0.826249
-539,-167,-41.2014,0.697998,-0.000583404,-0.000979953,-0.00129519,0.000528598,-0.00209196,-0.709445,0.00160021,0.0410536,685,1191,-41.2014,-0.698027
-532,-167,-40.9372,0.585083,0.00127459,-0.00122859,-0.000738247,0.0014761,-0.0014301,-0.26646,0.00167796,0.045698,692,1191,-40.9372,-0.585137
-525,-167,-40.8661,0.643311,0.00486811,-0.00151361,0.000491278,0.00490571,-0.00155121,0.0763823,0.00389199,0.0456316,699,1191,-40.8661,-0.643272
-518,-167,-40.9926,0.713135,0.00826396,-0.00184752,0.00200907,0.00864852,-0.00223208,0.189125,0.00663604,0.0431241,706,1191,-40.9926,-0.71318
-511,-167,0,0,0,0,0,0,0,0,0,-1,713,1191,0,0
-504,-167,0,0,0,0,0,0,0,0,0,-1,720,1191,0,0
-497,-167,0,0,0,0,0,0,0,0,0,-1,727,1191,0,0
-490,-167,0,0,0,0,0,0,0,0,0,-1,734,1191,0,0
-483,-167,0,0,0,0,0,0,0,0,0,-1,741,1191,0,0
-476,-167,0,0,0,0,0,0,0,0,0,-1,748,1191,0,0
-469,-167,0,0,0,0,0,0,0,0,0,-1,755,1191,0,0
-462,-167,0,0,0,0,0,0,0,0,0,-1,762,1191,0,0
-455,-167,0,0,0,0,0,0,0,0,0,-1,769,1191,0,0
-448,-167,0,0,0,0,0,0,0,0,0,-1,776,1191,0,0
-441,-167,0,0,0,0,0,0,0,0,0,-1,783,1191,0,0
-434,-167,0,0,0,0,0,0,0,0,0,-1,790,1191,0,0
-427,-167,0,0,0,0,0,0,0,0,0,-1,797,1191,0,0
-420,-167,0,0,0,0,0,0,0,0,0,-1,804,1191,0,0
-413,-167,0,0,0,0,0,0,0,0,0,-1,811,1191,0,0
-406,-167,0,0,0,0,0,0,0,0,0,-1,818,1191,0,0
-399,-167,0,0,0,0,0,0,0,0,0,-1,825,1191,0,0
-392,-167,0,0,0,0,0,0,0,0,0,-1,832,1191,0,0
-385,-167,0,0,0,0,0,0,0,0,0,-1,839,1191,0,0
-378,-167,0,0,0,0,0,0,0,0,0,-1,846,1191,0,0
-371,-167,0,0,0,0,0,0,0,0,0,-1,853,1191,0,0
-364,-167,0,0,0,0,0,0,0,0,0,-1,860,1191,0,0
-357,-167,0,0,0,0,0,0,0,0,0,-1,867,1191,0,0
-350,-167,0,0,0,0,0,0,0,0,0,-1,874,1191,0,0
-343,-167,0,0,0,0,0,0,0,0,0,-1,881,1191,0,0
-336,-167,0,0,0,0,0,0,0,0,0,-1,888,1191,0,0
-329,-167,0,0,0,0,0,0,0,0,0,-1,895,1191,0,0
-322,-167,0,0,0,0,0,0,0,0,0,-1,902,1191,0,0
-315,-167,0,0,0,0,0,0,0,0,0,-1,909,1191,0,0
-308,-167,0,0,0,0,0,0,0,0,0,-1,916,1191,0,0
-301,-167,0,0,0,0,0,0,0,0,0,-1,923,1191,0,0
-294,-167,0,0,0,0,0,0,0,0,0,-1,930,1191,0,0
-287,-167,0,0,0,0,0,0,0,0,0,-1,937,1191,0,0
-280,-167,0,0,0,0,0,0,0,0,0,-1,944,1191,0,0
-273,-167,0,0,0,0,0,0,0,0,0,-1,951,1191,0,0
-266,-167,0,0,0,0,0,0,0,0,0,-1,958,1191,0,0
-259,-167,0,0,0,0,0,0,0,0,0,-1,965,1191,0,0
-252,-167,0,0,0,0,0,0,0,0,0,-1,972,1191,0,0
-245,-167,0,0,0,0,0,0,0,0,0,-1,979,1191,0,0
-238,-167,0,0,0,0,0,0,0,0,0,-1,986,1191,0,0
-231,-167,0,0,0,0,0,0,0,0,0,-1,993,1191,0,0
-224,-167,0,0,0,0,0,0,0,0,0,-1,1000,1191,0,0
-217,-167,0,0,0,0,0,0,0,0,0,-1,1007,1191,0,0
-210,-167,0,0,0,0,0,0,0,0,0,-1,1014,1191,0,0
-203,-167,0,0,0,0,0,0,0,0,0,-1,1021,1191,0,0
-196,-167,0,0,0,0,0,0,0,0,0,-1,1028,1191,0,0
-189,-167,0,0,0,0,0,0,0,0,0,-1,1035,1191,0,0
-182,-167,0,0,0,0,0,0,0,0,0,-1,1042,1191,0,0
-175,-167,0,0,0,0,0,0,0,0,0,-1,1049,1191,0,0
-168,-167,0,0,0,0,0,0,0,0,0,-1,1056,1191,0,0
-161,-167,0,0,0,0,0,0,0,0,0,-1,1063,1191,0,0
-154,-167,0,0,0,0,0,0,0,0,0,-1,1070,1191,0,0
-147,-167,0,0,0,0,0,0,0,0,0,-1,1077,1191,0,0
-140,-167,0,0,0,0,0,0,0,0,0,-1,1084,1191,0,0
-133,-167,0,0,0,0,0,0,0,0,0,-1,1091,1191,0,0
-126,-167,0,0,0,0,0,0,0,0,0,-1,1098,1191,0,0
-119,-167,0,0,0,0,0,0,0,0,0,-1,1105,1191,0,0
-112,-167,0,0,0,0,0,0,0,0,0,-1,1112,1191,0,0
-105,-167,0,0,0,0,0,0,0,0,0,-1,1119,1191,0,0
-98,-167,0,0,0,0,0,0,0,0,0,-1,1126,1191,0,0
-91,-167,0,0,0,0,0,0,0,0,0,-1,1133,1191,0,0
-84,-167,0,0,0,0,0,0,0,0,0,-1,1140,1191,0,0
-77,-167,0,0,0,0,0,0,0,0,0,-1,1147,1191,0,0
-70,-167,0,0,0,0,0,0,0,0,0,-1,1154,1191,0,0
-63,-167,0,0,0,0,0,0,0,0,0,-1,1161,1191,0,0
-56,-167,0,0,0,0,0,0,0,0,0,-1,1168,1191,0,0
-49,-167,0,0,0,0,0,0,0,0,0,-1,1175,1191,0,0
-42,-167,0,0,0,0,0,0,0,0,0,-1,1182,1191,0,0
-35,-167,0,0,0,0,0,0,0,0,0,-1,1189,1191,0,0
-28,-167,0,0,0,0,0,0,0,0,0,-1,1196,1191,0,0
-21,-167,0,0,0,0,0,0,0,0,0,-1,1203,1191,0,0
-14,-167,0,0,0,0,0,0,0,0,0,-1,1210,1191,0,0
-7,-167,0,0,0,0,0,0,0,0,0,-1,1217,1191,0,0
0,-167,0,0,0,0,0,0,0,0,0,-1,1224,1191,0,0
7,-167,0,0,0,0,0,0,0,0,0,-1,1231,1191,0,0
14,-167,0,0,0,0,0,0,0,0,0,-1,1238,1191,0,0
21,-167,0,0,0,0,0,0,0,0,0,-1,1245,1191,0,0
28,-167,0,0,0,0,0,0,0,0,0,-1,1252,1191,0,0
35,-167,0,0,0,0,0,0,0,0,0,-1,1259,1191,0,0
42,-167,0,0,0,0,0,0,0,0,0,-1,1266,1191,0,0
49,-167,0,0,0,0,0,0,0,0,0,-1,1273,1191,0,0
56,-167,0,0,0,0,0,0,0,0,0,-1,1280,1191,0,0
63,-167,0,0,0,0,0,0,0,0,0,-1,1287,1191,0,0
70,-167,0,0,0,0,0,0,0,0,0,-1,1294,1191,0,0
77,-167,0,0,0,0,0,0,0,0,0,-1,1301,1191,0,0
84,-167,0,0,0,0,0,0,0,0,0,-1,1308,1191,0,0
91,-167,0,0,0,0,0,0,0,0,0,-1,1315,1191,0,0
98,-167,0,0,0,0,0,0,0,0,0,-1,1322,1191,0,0
105,-167,0,0,0,0,0,0,0,0,0,-1,1329,1191,0,0
112,-167,0,0,0,0,0,0,0,0,0,-1,1336,1191,0,0
119,-167,0,0,0,0,0,0,0,0,0,-1,1343,1191,0,0
126,-167,0,0,0,0,0,0,0,0,0,-1,1350,1191,0,0
133,-167,0,0,0,0,0,0,0,0,0,-1,1357,1191,0,0
140,-167,0,0,0,0,0,0,0,0,0,-1,1364,1191,0,0
147,-167,0,0,0,0,0,0,0,0,0,-1,1371,1191,0,0
154,-167,0,0,0,0,0,0,0,0,0,-1,1378,1191,0,0
161,-167,0,0,0,0,0,0,0,0,0,-1,1385,1191,0,0
168,-167,0,0,0,0,0,0,0,0,0,-1,1392,1191,0,0
175,-167,0,0,0,0,0,0,0,0,0,-1,1399,1191,0,0
182,-167,0,0,0,0,0,0,0,0,0,-1,1406,1191,0,0
189,-167,0,0,0,0,0,0,0,0,0,-1,1413,1191,0,0
196,-167,0,0,0,0,0,0,0,0,0,-1,1420,1191,0,0
203,-167,0,0,0,0,0,0,0,0,0,-1,1427,1191,0,0
210,-167,0,0,0,0,0,0,0,0,0,-1,1434,1191,0,0
217,-167,0,0,0,0,0,0,0,0,0,-1,1441,1191,0,0
224,-167,0,0,0,0,0,0,0,0,0,-1,1448,1191,0,0
231,-167,0,0,0,0,0,0,0,0,0,-1,1455,1191,0,0
238,-167,0,0,0,0,0,0,0,0,0,-1,1462,1191,0,0
245,-167,0,0,0,0,0,0,0,0,0,-1,1469,1191,0,0
252,-167,0,0,0,0,0,0,0,0,0,-1,1476,1191,0,0
259,-167,0,0,0,0,0,0,0,0,0,-1,1483,1191,0,0
266,-167,0,0,0,0,0,0,0,0,0,-1,1490,1191,0,0
273,-167,0,0,0,0,0,0,0,0,0,-1,1497,1191,0,0
280,-167,0,0,0,0,0,0,0,0,0,-1,1504,1191,0,0
287,-167,0,0,0,0,0,0,0,0,0,-1,1511,1191,0,0
294,-167,0,0,0,0,0,0,0,0,0,-1,1518,1191,0,0
301,-167,0,0,0,0,0,0,0,0,0,-1,1525,1191,0,0
308,-167,0,0,0,0,0,0,0,0,0,-1,1532,1191,0,0
315,-167,0,0,0,0,0,0,0,0,0,-1,1539,1191,0,0
322,-167,0,0,0,0,0,0,0,0,0,-1,1546,1191,0,0
329,-167,0,0,0,0,0,0,0,0,0,-1,1553,1191,0,0
336,-167,0,0,0,0,0,0,0,0,0,-1,1560,1191,0,0
343,-167,0,0,0,0,0,0,0,0,0,-1,1567,1191,0,0
350,-167,0,0,0,0,0,0,0,0,0,-1,1574,1191,0,0
357,-167,0,0,0,0,0,0,0,0,0,-1,1581,1191,0,0
364,-167,0,0,0,0,0,0,0,0,0,-1,1588,1191,0,0
371,-167,0,0,0,0,0,0,0,0,0,-1,1595,1191,0,0
378,-167,0,0,0,0,0,0,0,0,0,-1,1602,1191,0,0
385,-167,0,0,0,0,0,0,0,0,0,-1,1609,1191,0,0
392,-167,0,0,0,0,0,0,0,0,0,-1,1616,1191,0,0
399,-167,0,0,0,0,0,0,0,0,0,-1,1623,1191,0,0
406,-167,0,0,0,0,0,0,0,0,0,-1,1630,1191,0,0
413,-167,0,0,0,0,0,0,0,0,0,-1,1637,1191,0,0
420,-167,0,0,0,0,0,0,0,0,0,-1,1644,1191,0,0
427,-167,0,0,0,0,0,0,0,0,0,-1,1651,1191,0,0
434,-167,0,0,0,0,0,0,0,0,0,-1,1658,1191,0,0
441,-167,0,0,0,0,0,0,0,0,0,-1,1665,1191,0,0
448,-167,0,0,0,0,0,0,0,0,0,-1,1672,1191,0,0
455,-167,0,0,0,0,0,0,0,0,0,-1,1679,1191,0,0
462,-167,0,0,0,0,0,0,0,0,0,-1,1686,1191,0,0
469,-167,0,0,0,0,0,0,0,0,0,-1,1693,1191,0,0
476,-167,0,0,0,0,0,0,0,0,0,-1,1700,1191,0,0
483,-167,0,0,0,0,0,0,0,0,0,-1,1707,1191,0,0
490,-167,0,0,0,0,0,0,0,0,0,-1,1714,1191,0,0
497,-167,0,0,0,0,0,0,0,0,0,-1,1721,1191,0,0
504,-167,0,0,0,0,0,0,0,0,0,-1,1728,1191,0,0
511,-167,0,0,0,0,0,0,0,0,0,-1,1735,1191,0,0
518,-167,0,0,0,0,0,0,0,0,0,-1,1742,1191,0,0
525,-167,0,0,0,0,0,0,0,0,0,-1,1749,1191,0,0
532,-167,0,0,0,0,0,0,0,0,0,-1,1756,1191,0,0
539,-167,0,0,0,0,0,0,0,0,0,-1,1763,1191,0,0
546,-167,0,0,0,0,0,0,0,0,0,-1,1770,1191,0,0
553,-167,0,0,0,0,0,0,0,0,0,-1,1777,1191,0,0
560,-167,0,0,0,0,0,0,0,0,0,-1,1784,1191,0,0
567,-167,0,0,0,0,0,0,0,0,0,-1,1791,1191,0,0
574,-167,0,0,0,0,0,0,0,0,0,-1,1798,1191,0,0
581,-167,0,0,0,0,0,0,0,0,0,-1,1805,1191,0,0
588,-167,0,0,0,0,0,0,0,0,0,-1,1812,1191,0,0
595,-167,0,0,0,0,0,0,0,0,0,-1,1819,1191,0,0
602,-167,0,0,0,0,0,0,0,0,0,-1,1826,1191,0,0
609,-167,0,0,0,0,0,0,0,0,0,-1,1833,1191,0,0
616,-167,0,0,0,0,0,0,0,0,0,-1,1840,1191,0,0
623,-167,0,0,0,0,0,0,0,0,0,-1,1847,1191,0,0
630,-167,0,0,0,0,0,0,0,0,0,-1,1854,1191,0,0
637,-167,55.0551,2.70581,0.00252927,0.00113699,-0.000896862,0.00296846,0.000697798,-0.455369,0.00179224,0.0439067,1861,1191,55.055,-2.70584
644,-167,55.0457,2.22461,0.00162753,0.00106537,-0.00059484,0.00200436,0.000688543,-0.564681,0.00117595,0.0456102,1868,1191,55.0457,-2.22461
651,-167,55.0559,2.41821,0.00102565,0.00109501,-0.000548788,0.00161021,0.000510448,-0.816956,0.000950185,0.0409709,1875,1191,55.0559,-2.41819
658,-167,54.9302,2.81042,0.000724595,0.00123634,-0.000789651,0.00181054,0.000150396,-0.942077,0.00116015,0.044481,1882,1191,54.9302,-2.81047
665,-167,55.0443,2.73376,0.000666094,0.00139983,-0.00109346,0.00218633,-0.000120402,-0.947253,0.0014993,0.0392036,1889,1191,55.0443,-2.73379
672,-167,55.0769,2.64758,0.000633062,0.00152943,-0.00127902,0.00243652,-0.000274021,-0.95392,0.00172296,0.0284412,1896,1191,55.0769,-2.64762
679,-167,55.0514,2.59924,0.00071763,0.00138322,-0.00131262,0.00240457,-0.000303721,-0.909551,0.00171329,0.0205059,1903,1191,55.0514,-2.59924
686,-167,55.0406,2.54993,0.00081758,0.00116487,-0.00116163,0.00216576,-0.000183315,-0.85959,0.00150866,0.0262622,1910,1191,55.0407,-2.54999
693,-167,55.0229,2.56482,0,0,0,0,0,0,0,-1,1917,1191,55.023,-2.56479
700,-167,28.0459,2.70508,0,0,0,0,0,0,0,-1,1924,1191,28.0459,-2.70513
707,-167,29.4708,7.10168,0,0,0,0,0,0,0,-1,1931,1191,29.4708,-7.10172
714,-167,35.9202,6.84668,0,0,0,0,0,0,0,-1,1938,1191,35.9202,-6.84664
721,-167,36.2072,6.38892,0,0,0,0,0,0,0,-1,1945,1191,36.2072,-6.38891
728,-167,46.7682,7.84973,0,0,0,0,0,0,0,-1,1952,1191,46.7682,-7.84971
735,-167,46.9045,7.38354,0.00159038,0.000168741,0.000731541,0.00189957,-0.000140447,0.399881,0.0013157,0.02185,1959,1191,46.9046,-7.38358
742,-167,46.8623,6.8042,0.00249452,-5.76234e-05,0.00109263,0.00289839,-0.00046149,0.354054,0.00210304,0.0156854,1966,1191,46.8623,-6.80417
749,-167,46.8441,6.33167,0.00500393,0.000148124,0.00135118,0.00535458,-0.000202534,0.253918,0.00363911,0.0144666,1973,1191,46.8441,-6.3317
756,-167,46.8536,5.8999,0.00990191,0.00125111,0.000926247,0.00999998,0.00115304,0.105478,0.00631748,0.0113434,1980,1191,46.8536,-5.89992
763,-167,46.7766,5.43469,0.0165474,0.00265852,7.11672e-05,0.0165477,0.00265816,0.00512388,0.0102612,0.013944,1987,1191,46.7766,-5.43467
770,-167,46.6355,5.06409,0.0251204,0.00479509,-0.00141886,0.025219,0.00469652,-0.0693591,0.0154864,0.0333241,1994,1191,46.6355,-5.06411
777,-167,47.177,4.75146,0.0360458,0.00797034,-0.00382368,0.0365573,0.0074589,-0.132967,0.0223049,0.0477027,2001,1191,47.177,-4.7515
784,-167,47.7654,4.38098,0,0,0,0,0,0,0,-1,2008,1191,47.7654,-4.38099
791,-167,49.5684,3.30774,0,0,0,0,0,0,0,-1,2015,1191,49.5684,-3.30769
798,-167,50.178,3.10229,0,0,0,0,0,0,0,-1,2022,1191,50.178,-3.10228
805,-167,51.5579,2.90186,0,0,0,0,0,0,0,-1,2029,1191,51.5578,-2.90189
812,-167,0,0,0,0,0,0,0,0,0,-1,2036,1191,0,0
-700,-174,0,0,0,0,0,0,0,0,0,-1,524,1198,0,0
-693,-174,0,0,0,0,0,0,0,0,0,-1,531,1198,0,0
-686,-174,-33.7939,-1.92529,0,0,0,0,0,0,0,-1,538,1198,-33.7939,1.92527
-679,-174,-33.4884,-0.646118,0.0246805,-0.0744996,0.0734971,0.0637527,-0.113572,0.488619,0.103716,0.0464676,545,1198,-33.4884,0.646095
-672,-174,-33.5293,0.357788,0.0218389,-0.0603476,0.0600126,0.0534792,-0.0919879,0.485191,0.0849607,0.0466445,552,1198,-33.5293,-0.357755
-665,-174,-33.463,1.4126,0.0190239,-0.0478999,0.0479433,0.0440279,-0.0729039,0.480725,0.0681933,0.0464122,559,1198,-33.4629,-1.41254
-658,-174,-33.3231,2.38733,0,0,0,0,0,0,0,-1,566,1198,-33.3231,-2.38729
-651,-174,-32.09,0.282715,0,0,0,0,0,0,0,-1,573,1198,-32.09,-0.282655
-644,-174,-31.9386,1.78491,0,0,0,0,0,0,0,-1,580,1198,-31.9386,-1.78492
-637,-174,-31.9254,2.30042,0.00853065,-0.0123493,0.0125689,0.0144299,-0.0182486,0.438831,0.0189098,0.0249641,587,1198,-31.9254,-2.30045
-630,-174,-32.0617,2.79443,0.00585737,-0.00665206,0.00676429,0.00881553,-0.00961022,0.412259,0.0106414,0.0133428,594,1198,-32.0617,-2.79438
-623,-174,-32.1025,3.28821,0.00364153,-0.00243658,0.00221269,0.00436171,-0.00315676,0.314664,0.00435933,0.0134419,601,1198,-32.1025,-3.28826
-616,-174,-32.1118,3.81812,0.00184289,-0.000123108,-0.000562769,0.00199258,-0.000272804,-0.259978,0.00142804,0.0179947,608,1198,-32.1118,-3.81814
-609,-174,-32.1495,4.35657,0.000552623,7.75993e-06,-0.0011779,0.00148919,-0.000928804,-0.671754,0.00140847,0.020084,615,1198,-32.1495,-4.35658
-602,-174,-32.202,4.8158,-0.000595212,-7.82959e-05,-0.00104593,0.000740637,-0.00141414,-0.906526,0.00126416,0.0165474,622,1198,-32.202,-4.81585
-595,-174,-31.9691,5.2157,0,0,0,0,0,0,0,-1,629,1198,-31.969,-5.21573
-588,-174,-32.6313,5.77881,-0.00232169,-0.000310805,-0.00130424,0.000330554,-0.00296305,-1.11377,0.00209426,0.0400843,636,1198,-32.6313,-5.77886
-581,-174,-32.6124,6.41016,-0.00190922,-0.000491898,-0.00153809,0.000492939,-0.00289406,-1.00127,0.00211294,0.046745,643,1198,-32.6125,-6.41015
-574,-174,-31.7448,7.09595,0,0,0,0,0,0,0,-1,650,1198,-31.7448,-7.09599
-567,-174,-26.6597,3.04041,0,0,0,0,0,0,0,-1,657,1198,-26.6597,-3.04039
-560,-174,-40.5177,0.553345,0,0,0,0,0,0,0,-1,664,1198,-40.5177,-0.553376
-553,-174,-40.8272,0.627075,-0.00157111,-0.00122968,-0.00176196,0.00036982,-0.0031706,-0.833692,0.00224718,0.0485232,671,1198,-40.8272,-0.627054
-546,-174,-41.123,0.705811,-0.00102939,-0.00152774,-0.00177953,0.000518325,-0.00307546,-0.715838,0.00224313,0.0309143,678,1198,-41.123,-0.705777
-539,-174,-41.2864,0.875,3.89304e-05,-0.00186525,-0.00175692,0.00108515,-0.00291147,-0.537094,0.00238641,0.0356249,685,1198,-41.2864,-0.875023
-532,-174,-41.1057,0.925293,0.00168206,-0.00220441,-0.00131333,0.00208424,-0.00260659,-0.297165,0.00271385,0.0458436,692,1198,-41.1057,-0.925347
-525,-174,-40.8838,0.882935,0,0,0,0,0,0,0,-1,699,1198,-40.8838,-0.882898
-518,-174,-40.9871,0.813232,0,0,0,0,0,0,0,-1,706,1198,-40.9871,-0.813264
-511,-174,0,0,0,0,0,0,0,0,0,-1,713,1198,0,0
-504,-174,0,0,0,0,0,0,0,0,0,-1,720,1198,0,0
-497,-174,0,0,0,0,0,0,0,0,0,-1,727,1198,0,0
-490,-174,0,0,0,0,0,0,0,0,0,-1,734,1198,0,0
-483,-174,0,0,0,0,0,0,0,0,0,-1,741,1198,0,0
-476,-174,0,0,0,0,0,0,0,0,0,-1,748,1198,0,0
-469,-174,0,0,0,0,0,0,0,0,0,-1,755,1198,0,0
-462,-174,0,0,0,0,0,0,0,0,0,-1,762,1198,0,0
-455,-174,0,0,0,0,0,0,0,0,0,-1,769,1198,0,0
-448,-174,0,0,0,0,0,0,0,0,0,-1,776,1198,0,0
-441,-174,0,0,0,0,0,0,0,0,0,-1,783,1198,0,0
-434,-174,0,0,0,0,0,0,0,0,0,-1,790,1198,0,0
-427,-174,0,0,0,0,0,0,0,0,0,-1,797,1198,0,0
-420,-174,0,0,0,0,0,0,0,0,0,-1,804,1198,0,0
-413,-174,0,0,0,0,0,0,0,0,0,-1,811,1198,0,0
-406,-174,0,0,0,0,0,0,0,0,0,-1,818,1198,0,0
-399,-174,0,0,0,0,0,0,0,0,0,-1,825,1198,0,0
-392,-174,0,0,0,0,0,0,0,0,0,-1,832,1198,0,0
-385,-174,0,0,0,0,0,0,0,0,0,-1,839,1198,0,0
-378,-174,0,0,0,0,0,0,0,0,0,-1,846,1198,0,0
-371,-174,0,0,0,0,0,0,0,0,0,-1,853,1198,0,0
-364,-174,0,0,0,0,0,0,0,0,0,-1,860,1198,0,0
-357,-174,0,0,0,0,0,0,0,0,0,-1,867,1198,0,0
-350,-174,0,0,0,0,0,0,0,0,0,-1,874,1198,0,0
-343,-174,0,0,0,0,0,0,0,0,0,-1,881,1198,0,0
-336,-174,0,0,0,0,0,0,0,0,0,-1,888,1198,0,0
-329,-174,0,0,0,0,0,0,0,0,0,-1,895,1198,0,0
-322,-174,0,0,0,0,0,0,0,0,0,-1,902,1198,0,0
-315,-174,0,0,0,0,0,0,0,0,0,-1,909,1198,0,0
-308,-174,0,0,0,0,0,0,0,0,0,-1,916,1198,0,0
-301,-174,0,0,0,0,0,0,0,0,0,-1,923,1198,0,0
-294,-174,0,0,0,0,0,0,0,0,0,-1,930,1198,0,0
-287,-174,0,0,0,0,0,0,0,0,0,-1,937,1198,0,0
-280,-174,0,0,0,0,0,0,0,0,0,-1,944,1198,0,0
-273,-174,0,0,0,0,0,0,0,0,0,-1,951,1198,0,0
-266,-174,0,0,0,0,0,0,0,0,0,-1,958,1198,0,0
-259,-174,0,0,0,0,0,0,0,0,0,-1,965,1198,0,0
-252,-174,0,0,0,0,0,0,0,0,0,-1,972,1198,0,0
-245,-174,0,0,0,0,0,0,0,0,0,-1,979,1198,0,0
-238,-174,0,0,0,0,0,0,0,0,0,-1,986,1198,0,0
-231,-174,0,0,0,0,0,0,0,0,0,-1,993,1198,0,0
-224,-174,0,0,0,0,0,0,0,0,0,-1,1000,1198,0,0
-217,-174,0,0,0,0,0,0,0,0,0,-1,1007,1198,0,0
-210,-174,0,0,0,0,0,0,0,0,0,-1,1014,1198,0,0
-203,-174,0,0,0,0,0,0,0,0,0,-1,1021,1198,0,0
-196,-174,0,0,0,0,0,0,0,0,0,-1,1028,1198,0,0
-189,-174,0,0,0,0,0,0,0,0,0,-1,1035,1198,0,0
-182,-174,0,0,0,0,0,0,0,0,0,-1,1042,1198,0,0
-175,-174,0,0,0,0,0,0,0,0,0,-1,1049,1198,0,0
-168,-174,0,0,0,0,0,0,0,0,0,-1,1056,1198,0,0
-161,-174,0,0,0,0,0,0,0,0,0,-1,1063,1198,0,0
-154,-174,0,0,0,0,0,0,0,0,0,-1,1070,1198,0,0
-147,-174,0,0,0,0,0,0,0,0,0,-1,1077,1198,0,0
-140,-174,0,0,0,0,0,0,0,0,0,-1,1084,1198,0,0
-133,-174,0,0,0,0,0,0,0,0,0,-1,1091,1198,0,0
-126,-174,0,0,0,0,0,0,0,0,0,-1,1098,1198,0,0
-119,-174,0,0,0,0,0,0,0,0,0,-1,1105,1198,0,0
-112,-174,0,0,0,0,0,0,0,0,0,-1,1112,1198,0,0
-105,-174,0,0,0,0,0,0,0,0,0,-1,1119,1198,0,0
-98,-174,0,0,0,0,0,0,0,0,0,-1,1126,1198,0,0
-91,-174,0,0,0,0,0,0,0,0,0,-1,1133,1198,0,0
-84,-174,0,0,0,0,0,0,0,0,0,-1,1140,1198,0,0
-77,-174,0,0,0,0,0,0,0,0,0,-1,1147,1198,0,0
-70,-174,0,0,0,0,0,0,0,0,0,-1,1154,1198,0,0
-63,-174,0,0,0,0,0,0,0,0,0,-1,1161,1198,0,0
-56,-174,0,0,0,0,0,0,0,0,0,-1,1168,1198,0,0
-49,-174,0,0,0,0,0,0,0,0,0,-1,1175,1198,0,0
-42,-174,0,0,0,0,0,0,0,0,0,-1,1182,1198,0,0
-35,-174,0,0,0,0,0,0,0,0,0,-1,1189,1198,0,0
-28,-174,0,0,0,0,0,0,0,0,0,-1,1196,1198,0,0
-21,-174,0,0,0,0,0,0,0,0,0,-1,1203,1198,0,0
-14,-174,0,0,0,0,0,0,0,0,0,-1,1210,1198,0,0
-7,-174,0,0,0,0,0,0,0,0,0,-1,1217,1198,0,0
0,-174,0,0,0,0,0,0,0,0,0,-1,1224,1198,0,0
7,-174,0,0,0,0,0,0,0,0,0,-1,1231,1198,0,0
14,-174,0,0,0,0,0,0,0,0,0,-1,1238,1198,0,0
21,-174,0,0,0,0,0,0,0,0,0,-1,1245,1198,0,0
28,-174,0,0,0,0,0,0,0,0,0,-1,1252,1198,0,0
35,-174,0,0,0,0,0,0,0,0,0,-1,1259,1198,0,0
42,-174,0,0,0,0,0,0,0,0,0,-1,1266,1198,0,0
49,-174,0,0,0,0,0,0,0,0,0,-1,1273,1198,0,0
56,-174,0,0,0,0,0,0,0,0,0,-1,1280,1198,0,0
63,-174,0,0,0,0,0,0,0,0,0,-1,1287,1198,0,0
70,-174,0,0,0,0,0,0,0,0,0,-1,1294,1198,0,0
77,-174,0,0,0,0,0,0,0,0,0,-1,1301,1198,0,0
84,-174,0,0,0,0,0,0,0,0,0,-1,1308,1198,0,0
91,-174,0,0,0,0,0,0,0,0,0,-1,1315,1198,0,0
98,-174,0,0,0,0,0,0,0,0,0,-1,1322,1198,0,0
105,-174,0,0,0,0,0,0,0,0,0,-1,1329,1198,0,0
112,-174,0,0,0,0,0,0,0,0,0,-1,1336,1198,0,0
119,-174,0,0,0,0,0,0,0,0,0,-1,1343,1198,0,0
126,-174,0,0,0,0,0,0,0,0,0,-1,1350,1198,0,0
133,-174,0,0,0,0,0,0,0,0,0,-1,1357,1198,0,0
140,-174,0,0,0,0,0,0,0,0,0,-1,1364,1198,0,0
147,-174,0,0,0,0,0,0,0,0,0,-1,1371,1198,0,0
154,-174,0,0,0,0,0,0,0,0,0,-1,1378,1198,0,0
161,-174,0,0,0,0,0,0,0,0,0,-1,1385,1198,0,0
168,-174,0,0,0,0,0,0,0,0,0,-1,1392,1198,0,0
175,-174,0,0,0,0,0,0,0,0,0,-1,1399,1198,0,0
182,-174,0,0,0,0,0,0,0,0,0,-1,1406,1198,0,0
189,-174,0,0,0,0,0,0,0,0,0,-1,1413,1198,0,0
196,-174,0,0,0,0,0,0,0,0,0,-1,1420,1198,0,0
203,-174,0,0,0,0,0,0,0,0,0,-1,1427,1198,0,0
210,-174,0,0,0,0,0,0,0,0,0,-1,1434,1198,0,0
217,-174,0,0,0,0,0,0,0,0,0,-1,1441,1198,0,0
224,-174,0,0,0,0,0,0,0,0,0,-1,1448,1198,0,0
231,-174,0,0,0,0,0,0,0,0,0,-1,1455,1198,0,0
238,-174,0,0,0,0,0,0,0,0,0,-1,1462,1198,0,0
245,-174,0,0,0,0,0,0,0,0,0,-1,1469,1198,0,0
252,-174,0,0,0,0,0,0,0,0,0,-1,1476,1198,0,0
259,-174,0,0,0,0,0,0,0,0,0,-1,1483,1198,0,0
266,-174,0,0,0,0,0,0,0,0,0,-1,1490,1198,0,0
273,-174,0,0,0,0,0,0,0,0,0,-1,1497,1198,0,0
280,-174,0,0,0,0,0,0,0,0,0,-1,1504,1198,0,0
287,-174,0,0,0,0,0,0,0,0,0,-1,1511,1198,0,0
294,-174,0,0,0,0,0,0,0,0,0,-1,1518,1198,0,0
301,-174,0,0,0,0,0,0,0,0,0,-1,1525,1198,0,0
308,-174,0,0,0,0,0,0,0,0,0,-1,1532,1198,0,0
315,-174,0,0,0,0,0,0,0,0,0,-1,1539,1198,0,0
322,-174,0,0,0,0,0,0,0,0,0,-1,1546,1198,0,0
329,-174,0,0,0,0,0,0,0,0,0,-1,1553,1198,0,0
336,-174,0,0,0,0,0,0,0,0,0,-1,1560,1198,0,0
343,-174,0,0,0,0,0,0,0,0,0,-1,1567,1198,0,0
350,-174,0,0,0,0,0,0,0,0,0,-1,1574,1198,0,0
357,-174,0,0,0,0,0,0,0,0,0,-1,1581,1198,0,0
364,-174,0,0,0,0,0,0,0,0,0,-1,1588,1198,0,0
371,-174,0,0,0,0,0,0,0,0,0,-1,1595,1198,0,0
378,-174,0,0,0,0,0,0,0,0,0,-1,1602,1198,0,0
385,-174,0,0,0,0,0,0,0,0,0,-1,1609,1198,0,0
392,-174,0,0,0,0,0,0,0,0,0,-1,1616,1198,0,0
399,-174,0,0,0,0,0,0,0,0,0,-1,1623,1198,0,0
406,-174,0,0,0,0,0,0,0,0,0,-1,1630,1198,0,0
413,-174,0,0,0,0,0,0,0,0,0,-1,1637,1198,0,0
420,-174,0,0,0,0,0,0,0,0,0,-1,1644,1198,0,0
427,-174,0,0,0,0,0,0,0,0,0,-1,1651,1198,0,0
434,-174,0,0,0,0,0,0,0,0,0,-1,1658,1198,0,0
441,-174,0,0,0,0,0,0,0,0,0,-1,1665,1198,0,0
448,-174,0,0,0,0,0,0,0,0,0,-1,1672,1198,0,0
455,-174,0,0,0,0,0,0,0,0,0,-1,1679,1198,0,0
462,-174,0,0,0,0,0,0,0,0,0,-1,1686,1198,0,0
469,-174,0,0,0,0,0,0,0,0,0,-1,1693,1198,0,0
476,-174,0,0,0,0,0,0,0,0,0,-1,1700,1198,0,0
483,-174,0,0,0,0,0,0,0,0,0,-1,1707,1198,0,0
490,-174,0,0,0,0,0,0,0,0,0,-1,1714,1198,0,0
497,-174,0,0,0,0,0,0,0,0,0,-1,1721,1198,0,0
504,-174,0,0,0,0,0,0,0,0,0,-1,1728,1198,0,0
511,-174,0,0,0,0,0,0,0,0,0,-1,1735,1198,0,0
518,-174,0,0,0,0,0,0,0,0,0,-1,1742,1198,0,0
525,-174,0,0,0,0,0,0,0,0,0,-1,1749,1198,0,0
532,-174,0,0,0,0,0,0,0,0,0,-1,1756,1198,0,0
539,-174,0,0,0,0,0,0,0,0,0,-1,1763,1198,0,0
546,-174,0,0,0,0,0,0,0,0,0,-1,1770,1198,0,0
553,-174,0,0,0,0,0,0,0,0,0,-1,1777,1198,0,0
560,-174,0,0,0,0,0,0,0,0,0,-1,1784,1198,0,0
567,-174,0,0,0,0,0,0,0,0,0,-1,1791,1198,0,0
574,-174,0,0,0,0,0,0,0,0,0,-1,1798,1198,0,0
581,-174,0,0,0,0,0,0,0,0,0,-1,1805,1198,0,0
588,-174,0,0,0,0,0,0,0,0,0,-1,1812,1198,0,0
595,-174,0,0,0,0,0,0,0,0,0,-1,1819,1198,0,0
602,-174,0,0,0,0,0,0,0,0,0,-1,1826,1198,0,0
609,-174,0,0,0,0,0,0,0,0,0,-1,1833,1198,0,0
616,-174,0,0,0,0,0,0,0,0,0,-1,1840,1198,0,0
623,-174,0,0,0,0,0,0,0,0,0,-1,1847,1198,0,0
630,-174,0,0,0,0,0,0,0,0,0,-1,1854,1198,0,0
637,-174,54.9934,2.61169,0.00152822,0.000601745,-0.000650295,0.0018634,0.000266563,-0.475916,0.00116363,0.0414095,1861,1198,54.9934,-2.61168
644,-174,55.0869,2.58948,0.000977817,0.000466371,-0.000512054,0.00129445,0.000149736,-0.553812,0.000817639,0.0423012,1868,1198,55.0869,-2.58949
651,-174,55.1483,2.80286,0.000672703,0.00050051,-0.000614606,0.00120721,-3.40007e-05,-0.715809,0.000816379,0.042888,1875,1198,55.1483,-2.80289
658,-174,55.0751,2.88684,0.000582544,0.000665408,-0.000973993,0.00159885,-0.000350898,-0.806654,0.00120009,0.0427328,1882,1198,55.0751,-2.88689
665,-174,55.0615,2.72363,0.000657415,0.00079213,-0.00129916,0.00202567,-0.000576129,-0.811299,0.00157795,0.0364685,1889,1198,55.0615,-2.72362
672,-174,55.054,2.60938,0.000675976,0.000921164,-0.00144156,0.00224533,-0.000648195,-0.827817,0.00175336,0.0266063,1896,1198,55.054,-2.60933
679,-174,55.0646,2.56702,0.000767861,0.000824797,-0.00143741,0.00223402,-0.000641358,-0.795299,0.00174292,0.022262,1903,1198,55.0646,-2.567
686,-174,55.0747,2.49744,0,0,0,0,0,0,0,-1,1910,1198,55.0748,-2.49745
693,-174,51.1324,2.57349,0,0,0,0,0,0,0,-1,1917,1198,51.1325,-2.57343
700,-174,25.4004,6.11792,0,0,0,0,0,0,0,-1,1924,1198,25.4004,-6.11797
707,-174,34.7908,7.34473,0,0,0,0,0,0,0,-1,1931,1198,34.7908,-7.34475
714,-174,40.1135,7.79871,0,0,0,0,0,0,0,-1,1938,1198,40.1135,-7.79875
721,-174,40.8693,7.59863,0,0,0,0,0,0,0,-1,1945,1198,40.8693,-7.59859
728,-174,46.2246,7.85632,0,0,0,0,0,0,0,-1,1952,1198,46.2246,-7.85635
735,-174,46.3578,7.31836,0.00150822,0.000187636,0.000719699,0.00182463,-0.000128777,0.414211,0.00126154,0.0149668,1959,1198,46.3578,-7.31838
742,-174,46.3706,6.81787,0.00262726,-2.35862e-05,0.0010714,0.00300613,-0.000402463,0.339904,0.00215083,0.0200821,1966,1198,46.3706,-6.81789
749,-174,46.3752,6.34875,0.0054447,9.35871e-05,0.00119371,0.00569891,-0.000160624,0.209825,0.00385393,0.018166,1973,1198,46.3752,-6.3487
756,-174,46.3646,5.8728,0.0105875,0.000966313,0.000478929,0.0106113,0.000942532,0.0496151,0.00678188,0.0110331,1980,1198,46.3647,-5.87279
763,-174,46.3235,5.39941,0.0174728,0.00207346,-0.000712343,0.0175057,0.00204058,-0.0461267,0.0110532,0.0152824,1987,1198,46.3235,-5.39936
770,-174,46.4777,4.96387,0.026555,0.00385561,-0.00272757,0.0268781,0.00353246,-0.117924,0.016865,0.0368677,1994,1198,46.4776,-4.96385
777,-174,46.8427,4.47522,0,0,0,0,0,0,0,-1,2001,1198,46.8426,-4.47523
784,-174,46.7341,3.90161,0,0,0,0,0,0,0,-1,2008,1198,46.734,-3.90159
791,-174,49.6594,2.77734,0,0,0,0,0,0,0,-1,2015,1198,49.6594,-2.77734
798,-174,50.3738,2.57471,0,0,0,0,0,0,0,-1,2022,1198,50.3738,-2.5747
805,-174,51.4019,2.58081,0,0,0,0,0,0,0,-1,2029,1198,51.4019,-2.58082
812,-174,0,0,0,0,0,0,0,0,0,-1,2036,1198,0,0
-700,-181,0,0,0,0,0,0,0,0,0,-1,524,1205,0,0
-693,-181,0,0,0,0,0,0,0,0,0,-1,531,1205,0,0
-686,-181,-33.8871,-1.42297,0,0,0,0,0,0,0,-1,538,1205,-33.8871,1.42299
-679,-181,-33.7585,-0.371094,0.0162899,-0.078808,0.0783383,0.0603805,-0.122899,0.512634,0.107849,0.0495706,545,1205,-33.7585,0.371083
-672,-181,-33.5545,0.738892,0.0137137,-0.0651639,0.0650604,0.0503556,-0.101806,0.512919,0.0895088,0.0487348,552,1205,-33.5545,-0.73892
-665,-181,-33.3072,1.77136,0.0116551,-0.0527932,0.0528615,0.04134,-0.0824781,0.511676,0.0727898,0.0464933,559,1205,-33.3072,-1.77133
-658,-181,-33.0464,0.130615,0,0,0,0,0,0,0,-1,566,1205,-33.0464,-0.130632
-651,-181,-32.5338,0.854858,0.00853707,-0.0317618,0.0318807,0.0261021,-0.0493268,0.50358,0.0442316,0.0451171,573,1205,-32.5338,-0.854879
-644,-181,-32.0457,1.55469,0.00713996,-0.0229051,0.022988,0.0195788,-0.0353439,0.495984,0.0321422,0.0417784,580,1205,-32.0456,-1.55471
-637,-181,-31.4665,2.27393,0.00580708,-0.0154524,0.015401,0.0138905,-0.0235358,0.483341,0.021846,0.026516,587,1205,-31.4665,-2.27394
-630,-181,-31.5365,2.80225,0.00422783,-0.00905742,0.008917,0.00870444,-0.013534,0.465271,0.0129399,0.0139669,594,1205,-31.5365,-2.80227
-623,-181,-31.5981,3.30432,0.00291141,-0.00406947,0.00364586,0.00446829,-0.00562635,0.403586,0.00584091,0.0140497,601,1205,-31.5982,-3.30426
-616,-181,-31.5877,3.84167,0.00200349,-0.00081866,1.1639e-05,0.00200354,-0.000818708,0.00412405,0.00167661,0.0138481,608,1205,-31.5877,-3.84164
-609,-181,-31.5986,4.39844,0.00108067,4.47737e-05,-0.00128532,0.00194848,-0.000823034,-0.593865,0.00164352,0.0141792,615,1205,-31.5987,-4.39843
-602,-181,-31.6015,4.90479,-0.000127071,-8.52219e-05,-0.00127854,0.00117257,-0.00138486,-0.79358,0.00147823,0.0153153,622,1205,-31.6015,-4.90483
-595,-181,-31.5123,5.3772,0,0,0,0,0,0,0,-1,629,1205,-31.5124,-5.37714
-588,-181,-32.1358,5.901,-0.00182836,-0.000495982,-0.00159078,0.000562471,-0.00288681,-0.983694,0.00213685,0.0351508,636,1205,-32.1358,-5.90106
-581,-181,-32.0451,6.48962,-0.00143882,-0.000757518,-0.00188733,0.000819656,-0.00301599,-0.874683,0.00233239,0.0337726,643,1205,-32.0451,-6.48965
-574,-181,-31.4653,6.98145,0,0,0,0,0,0,0,-1,650,1205,-31.4653,-6.98148
-567,-181,-25.8839,3.34485,0,0,0,0,0,0,0,-1,657,1205,-25.8839,-3.3449
-560,-181,-31.7396,1.63306,0,0,0,0,0,0,0,-1,664,1205,-31.7396,-1.63303
-553,-181,-40.7111,0.668457,0,0,0,0,0,0,0,-1,671,1205,-40.711,-0.668401
-546,-181,-41.0242,0.741333,-0.000256965,-0.00224838,-0.00228524,0.00124007,-0.00374542,-0.579943,0.00299707,0.0348579,678,1205,-41.0242,-0.741274
-539,-181,-41.1885,0.923584,0.000603015,-0.00270744,-0.00235037,0.00182251,-0.00392693,-0.478615,0.00339275,0.0381014,685,1205,-41.1885,-0.923581
-532,-181,-41.2053,0.899536,0.00169363,-0.00307123,-0.0020296,0.00244093,-0.00381854,-0.352799,0.00364296,0.0442454,692,1205,-41.2053,-0.899528
-525,-181,-41.1868,0.723267,0.00420119,-0.00339071,-0.000768384,0.00427817,-0.00346769,-0.0998617,0.00448023,0.0424664,699,1205,-41.1868,-0.723316
-518,-181,-40.9509,0.582275,0.00731523,-0.00339845,0.00117775,0.00744317,-0.00352639,0.108208,0.00646645,0.0428329,706,1205,-40.9509,-0.582239
-511,-181,0,0,0,0,0,0,0,0,0,-1,713,1205,0,0
-504,-181,0,0,0,0,0,0,0,0,0,-1,720,1205,0,0
-497,-181,0,0,0,0,0,0,0,0,0,-1,727,1205,0,0
-490,-181,0,0,0,0,0,0,0,0,0,-1,734,1205,0,0
-483,-181,0,0,0,0,0,0,0,0,0,-1,741,1205,0,0
-476,-181,0,0,0,0,0,0,0,0,0,-1,748,1205,0,0
-469,-181,0,0,0,0,0,0,0,0,0,-1,755,1205,0,0
-462,-181,0,0,0,0,0,0,0,0,0,-1,762,1205,0,0
-455,-181,0,0,0,0,0,0,0,0,0,-1,769,1205,0,0
-448,-181,0,0,0,0,0,0,0,0,0,-1,776,1205,0,0
-441,-181,0,0,0,0,0,0,0,0,0,-1,783,1205,0,0
-434,-181,0,0,0,0,0,0,0,0,0,-1,790,1205,0,0
-427,-181,0,0,0,0,0,0,0,0,0,-1,797,1205,0,0
-420,-181,0,0,0,0,0,0,0,0,0,-1,804,1205,0,0
-413,-181,0,0,0,0,0,0,0,0,0,-1,811,1205,0,0
-406,-181,0,0,0,0,0,0,0,0,0,-1,818,1205,0,0
-399,-181,0,0,0,0,0,0,0,0,0,-1,825,1205,0,0
-392,-181,0,0,0,0,0,0,0,0,0,-1,832,1205,0,0
-385,-181,0,0,0,0,0,0,0,0,0,-1,839,1205,0,0
-378,-181,0,0,0,0,0,0,0,0,0,-1,846,1205,0,0
-371,-181,0,0,0,0,0,0,0,0,0,-1,853,1205,0,0
-364,-181,0,0,0,0,0,0,0,0,0,-1,860,1205,0,0
-357,-181,0,0,0,0,0,0,0,0,0,-1,867,1205,0,0
-350,-181,0,0,0,0,0,0,0,0,0,-1,874,1205,0,0
-343,-181,0,0,0,0,0,0,0,0,0,-1,881,1205,0,0
-336,-181,0,0,0,0,0,0,0,0,0,-1,888,1205,0,0
-329,-181,0,0,0,0,0,0,0,0,0,-1,895,1205,0,0
-322,-181,0,0,0,0,0,0,0,0,0,-1,902,1205,0,0
-315,-181,0,0,0,0,0,0,0,0,0,-1,909,1205,0,0
-308,-181,0,0,0,0,0,0,0,0,0,-1,916,1205,0,0
-301,-181,0,0,0,0,0,0,0,0,0,-1,923,1205,0,0
-294,-181,0,0,0,0,0,0,0,0,0,-1,930,1205,0,0
-287,-181,0,0,0,0,0,0,0,0,0,-1,937,1205,0,0
-280,-181,0,0,0,0,0,0,0,0,0,-1,944,1205,0,0
-273,-181,0,0,0,0,0,0,0,0,0,-1,951,1205,0,0
-266,-181,0,0,0,0,0,0,0,0,0,-1,958,1205,0,0
-259,-181,0,0,0,0,0,0,0,0,0,-1,965,1205,0,0
-252,-181,0,0,0,0,0,0,0,0,0,-1,972,1205,0,0
-245,-181,0,0,0,0,0,0,0,0,0,-1,979,1205,0,0
-238,-181,0,0,0,0,0,0,0,0,0,-1,986,1205,0,0
-231,-181,0,0,0,0,0,0,0,0,0,-1,993,1205,0,0
-224,-181,0,0,0,0,0,0,0,0,0,-1,1000,1205,0,0
-217,-181,0,0,0,0,0,0,0,0,0,-1,1007,1205,0,0
-210,-181,0,0,0,0,0,0,0,0,0,-1,1014,1205,0,0
-203,-181,0,0,0,0,0,0,0,0,0,-1,1021,1205,0,0
-196,-181,0,0,0,0,0,0,0,0,0,-1,1028,1205,0,0
-189,-181,0,0,0,0,0,0,0,0,0,-1,1035,1205,0,0
-182,-181,0,0,0,0,0,0,0,0,0,-1,1042,1205,0,0
-175,-181,0,0,0,0,0,0,0,0,0,-1,1049,1205,0,0
-168,-181,0,0,0,0,0,0,0,0,0,-1,1056,1205,0,0
-161,-181,0,0,0,0,0,0,0,0,0,-1,1063,1205,0,0
-154,-181,0,0,0,0,0,0,0,0,0,-1,1070,1205,0,0
-147,-181,0,0,0,0,0,0,0,0,0,-1,1077,1205,0,0
-140,-181,0,0,0,0,0,0,0,0,0,-1,1084,1205,0,0
-133,-181,0,0,0,0,0,0,0,0,0,-1,1091,1205,0,0
-126,-181,0,0,0,0,0,0,0,0,0,-1,1098,1205,0,0
-119,-181,0,0,0,0,0,0,0,0,0,-1,1105,1205,0,0
-112,-181,0,0,0,0,0,0,0,0,0,-1,1112,1205,0,0
-105,-181,0,0,0,0,0,0,0,0,0,-1,1119,1205,0,0
-98,-181,0,0,0,0,0,0,0,0,0,-1,1126,1205,0,0
-91,-181,0,0,0,0,0,0,0,0,0,-1,1133,1205,0,0
-84,-181,0,0,0,0,0,0,0,0,0,-1,1140,1205,0,0
-77,-181,0,0,0,0,0,0,0,0,0,-1,1147,1205,0,0
-70,-181,0,0,0,0,0,0,0,0,0,-1,1154,1205,0,0
-63,-181,0,0,0,0,0,0,0,0,0,-1,1161,1205,0,0
-56,-181,0,0,0,0,0,0,0,0,0,-1,1168,1205,0,0
-49,-181,0,0,0,0,0,0,0,0,0,-1,1175,1205,0,0
-42,-181,0,0,0,0,0,0,0,0,0,-1,1182,1205,0,0
-35,-181,0,0,0,0,0,0,0,0,0,-1,1189,1205,0,0
-28,-181,0,0,0,0,0,0,0,0,0,-1,1196,1205,0,0
-21,-181,0,0,0,0,0,0,0,0,0,-1,1203,1205,0,0
-14,-181,0,0,0,0,0,0,0,0,0,-1,1210,1205,0,0
-7,-181,0,0,0,0,0,0,0,0,0,-1,1217,1205,0,0
0,-181,0,0,0,0,0,0,0,0,0,-1,1224,1205,0,0
7,-181,0,0,0,0,0,0,0,0,0,-1,1231,1205,0,0
14,-181,0,0,0,0,0,0,0,0,0,-1,1238,1205,0,0
21,-181,0,0,0,0,0,0,0,0,0,-1,1245,1205,0,0
28,-181,0,0,0,0,0,0,0,0,0,-1,1252,1205,0,0
35,-181,0,0,0,0,0,0,0,0,0,-1,1259,1205,0,0
42,-181,0,0,0,0,0,0,0,0,0,-1,1266,1205,0,0
49,-181,0,0,0,0,0,0,0,0,0,-1,1273,1205,0,0
56,-181,0,0,0,0,0,0,0,0,0,-1,1280,1205,0,0
63,-181,0,0,0,0,0,0,0,0,0,-1,1287,1205,0,0
70,-181,0,0,0,0,0,0,0,0,0,-1,1294,1205,0,0
77,-181,0,0,0,0,0,0,0,0,0,-1,1301,1205,0,0
84,-181,0,0,0,0,0,0,0,0,0,-1,1308,1205,0,0
91,-181,0,0,0,0,0,0,0,0,0,-1,1315,1205,0,0
98,-181,0,0,0,0,0,0,0,0,0,-1,1322,1205,0,0
105,-181,0,0,0,0,0,0,0,0,0,-1,1329,1205,0,0
112,-181,0,0,0,0,0,0,0,0,0,-1,1336,1205,0,0
119,-181,0,0,0,0,0,0,0,0,0,-1,1343,1205,0,0
126,-181,0,0,0,0,0,0,0,0,0,-1,1350,1205,0,0
133,-181,0,0,0,0,0,0,0,0,0,-1,1357,1205,0,0
140,-181,0,0,0,0,0,0,0,0,0,-1,1364,1205,0,0
147,-181,0,0,0,0,0,0,0,0,0,-1,1371,1205,0,0
154,-181,0,0,0,0,0,0,0,0,0,-1,1378,1205,0,0
161,-181,0,0,0,0,0,0,0,0,0,-1,1385,1205,0,0
168,-181,0,0,0,0,0,0,0,0,0,-1,1392,1205,0,0
175,-181,0,0,0,0,0,0,0,0,0,-1,1399,1205,0,0
182,-181,0,0,0,0,0,0,0,0,0,-1,1406,1205,0,0
189,-181,0,0,0,0,0,0,0,0,0,-1,1413,1205,0,0
196,-181,0,0,0,0,0,0,0,0,0,-1,1420,1205,0,0
203,-181,0,0,0,0,0,0,0,0,0,-1,1427,1205,0,0
210,-181,0,0,0,0,0,0,0,0,0,-1,1434,1205,0,0
217,-181,0,0,0,0,0,0,0,0,0,-1,1441,1205,0,0
224,-181,0,0,0,0,0,0,0,0,0,-1,1448,1205,0,0
231,-181,0,0,0,0,0,0,0,0,0,-1,1455,1205,0,0
238,-181,0,0,0,0,0,0,0,0,0,-1,1462,1205,0,0
245,-181,0,0,0,0,0,0,0,0,0,-1,1469,1205,0,0
252,-181,0,0,0,0,0,0,0,0,0,-1,1476,1205,0,0
259,-181,0,0,0,0,0,0,0,0,0,-1,1483,1205,0,0
266,-181,0,0,0,0,0,0,0,0,0,-1,1490,1205,0,0
273,-181,0,0,0,0,0,0,0,0,0,-1,1497,1205,0,0
280,-181,0,0,0,0,0,0,0,0,0,-1,1504,1205,0,0
287,-181,0,0,0,0,0,0,0,0,0,-1,1511,1205,0,0
294,-181,0,0,0,0,0,0,0,0,0,-1,1518,1205,0,0
301,-181,0,0,0,0,0,0,0,0,0,-1,1525,1205,0,0
308,-181,0,0,0,0,0,0,0,0,0,-1,1532,1205,0,0
315,-181,0,0,0,0,0,0,0,0,0,-1,1539,1205,0,0
322,-181,0,0,0,0,0,0,0,0,0,-1,1546,1205,0,0
329,-181,0,0,0,0,0,0,0,0,0,-1,1553,1205,0,0
336,-181,0,0,0,0,0,0,0,0,0,-1,1560,1205,0,0
343,-181,0,0,0,0,0,0,0,0,0,-1,1567,1205,0,0
350,-181,0,0,0,0,0,0,0,0,0,-1,1574,1205,0,0
357,-181,0,0,0,0,0,0,0,0,0,-1,1581,1205,0,0
364,-181,0,0,0,0,0,0,0,0,0,-1,1588,1205,0,0
371,-181,0,0,0,0,0,0,0,0,0,-1,1595,1205,0,0
378,-181,0,0,0,0,0,0,0,0,0,-1,1602,1205,0,0
385,-181,0,0,0,0,0,0,0,0,0,-1,1609,1205,0,0
392,-181,0,0,0,0,0,0,0,0,0,-1,1616,1205,0,0
399,-181,0,0,0,0,0,0,0,0,0,-1,1623,1205,0,0
406,-181,0,0,0,0,0,0,0,0,0,-1,1630,1205,0,0
413,-181,0,0,0,0,0,0,0,0,0,-1,1637,1205,0,0
420,-181,0,0,0,0,0,0,0,0,0,-1,1644,1205,0,0
427,-181,0,0,0,0,0,0,0,0,0,-1,1651,1205,0,0
434,-181,0,0,0,0,0,0,0,0,0,-1,1658,1205,0,0
441,-181,0,0,0,0,0,0,0,0,0,-1,1665,1205,0,0
448,-181,0,0,0,0,0,0,0,0,0,-1,1672,1205,0,0
455,-181,0,0,0,0,0,0,0,0,0,-1,1679,1205,0,0
462,-181,0,0,0,0,0,0,0,0,0,-1,1686,1205,0,0
469,-181,0,0,0,0,0,0,0,0,0,-1,1693,1205,0,0
476,-181,0,0,0,0,0,0,0,0,0,-1,1700,1205,0,0
483,-181,0,0,0,0,0,0,0,0,0,-1,1707,1205,0,0
490,-181,0,0,0,0,0,0,0,0,0,-1,1714,1205,0,0
497,-181,0,0,0,0,0,0,0,0,0,-1,1721,1205,0,0
504,-181,0,0,0,0,0,0,0,0,0,-1,1728,1205,0,0
511,-181,0,0,0,0,0,0,0,0,0,-1,1735,1205,0,0
518,-181,0,0,0,0,0,0,0,0,0,-1,1742,1205,0,0
525,-181,0,0,0,0,0,0,0,0,0,-1,1749,1205,0,0
532,-181,0,0,0,0,0,0,0,0,0,-1,1756,1205,0,0
539,-181,0,0,0,0,0,0,0,0,0,-1,1763,1205,0,0
546,-181,0,0,0,0,0,0,0,0,0,-1,1770,1205,0,0
553,-181,0,0,0,0,0,0,0,0,0,-1,1777,1205,0,0
560,-181,0,0,0,0,0,0,0,0,0,-1,1784,1205,0,0
567,-181,0,0,0,0,0,0,0,0,0,-1,1791,1205,0,0
574,-181,0,0,0,0,0,0,0,0,0,-1,1798,1205,0,0
581,-181,0,0,0,0,0,0,0,0,0,-1,1805,1205,0,0
588,-181,0,0,0,0,0,0,0,0,0,-1,1812,1205,0,0
595,-181,0,0,0,0,0,0,0,0,0,-1,1819,1205,0,0
602,-181,0,0,0,0,0,0,0,0,0,-1,1826,1205,0,0
609,-181,0,0,0,0,0,0,0,0,0,-1,1833,1205,0,0
616,-181,0,0,0,0,0,0,0,0,0,-1,1840,1205,0,0
623,-181,0,0,0,0,0,0,0,0,0,-1,1847,1205,0,0
630,-181,55.0676,2.74866,0.00128571,0.000706737,-0.000726473,0.00177825,0.000214198,-0.595799,0.00112094,0.0373466,1854,1205,55.0677,-2.74867
637,-181,55.1373,2.66553,0.000870253,0.000429743,-0.000515237,0.00121034,8.96578e-05,-0.583412,0.000778728,0.0355089,1861,1205,55.1373,-2.66558
644,-181,55.1094,2.70105,0.000584526,0.000343111,-0.000523506,0.00100106,-7.34233e-05,-0.672091,0.000693146,0.0394982,1868,1205,55.1094,-2.70109
651,-181,55.0779,2.74866,0.000492101,0.000401589,-0.000771379,0.00121955,-0.000325861,-0.756097,0.00094066,0.0394814,1875,1205,55.0779,-2.7487
658,-181,55.0648,2.78467,0.000534172,0.000528797,-0.00121986,0.00175135,-0.000688378,-0.784297,0.00145246,0.0366299,1882,1205,55.0648,-2.7847
665,-181,54.9816,2.70862,0.000671378,0.00051951,-0.00152755,0.00212488,-0.000933995,-0.760564,0.00181011,0.0334853,1889,1205,54.9816,-2.70864
672,-181,55.0389,2.62317,0.000737401,0.000523719,-0.00161114,0.00224523,-0.000984114,-0.75229,0.00191127,0.0234219,1896,1205,55.039,-2.62312
679,-181,55.0841,2.56519,0.000857726,0.000375839,-0.00157417,0.00220929,-0.00097572,-0.709457,0.00188428,0.0285144,1903,1205,55.0841,-2.56518
686,-181,55.0764,2.4834,0,0,0,0,0,0,0,-1,1910,1205,55.0764,-2.48336
693,-181,36.1301,2.91016,0,0,0,0,0,0,0,-1,1917,1205,36.1302,-2.9102
700,-181,29.5845,6.58398,0,0,0,0,0,0,0,-1,1924,1205,29.5844,-6.58395
707,-181,39.8232,8.03186,0,0,0,0,0,0,0,-1,1931,1205,39.8233,-8.0319
714,-181,46.7612,8.90369,0,0,0,0,0,0,0,-1,1938,1205,46.7612,-8.90373
721,-181,45.5988,8.41882,0,0,0,0,0,0,0,-1,1945,1205,45.5988,-8.41877
728,-181,45.8398,7.7887,0.00120995,0.000276388,0.000247147,0.00127134,0.000214997,0.243472,0.000785764,0.0394436,1952,1205,45.8398,-7.78864
735,-181,45.92,7.31738,0.0017123,8.74908e-05,0.000644451,0.00193687,-0.00013708,0.33531,0.00133928,0.0133868,1959,1205,45.92,-7.31734
742,-181,45.8589,6.85608,0.00296738,-3.24088e-05,0.000998938,0.00326958,-0.000334613,0.293772,0.00229939,0.0173687,1966,1205,45.8589,-6.85613
749,-181,45.8715,6.3551,0.00580796,0.000160275,0.00108321,0.00600859,-4.03535e-05,0.183141,0.00401924,0.0164352,1973,1205,45.8715,-6.35512
756,-181,45.8829,5.84851,0.0107214,0.00105893,0.000370867,0.0107356,0.00104471,0.0383072,0.00683548,0.0114234,1980,1205,45.8829,-5.84852
763,-181,45.8854,5.37683,0.0173448,0.00216366,-0.000788305,0.0173856,0.00212283,-0.0517412,0.0109516,0.014649,1987,1205,45.8854,-5.3768
770,-181,46.0752,4.8501,0.0262986,0.00393102,-0.00277878,0.0266387,0.00359098,-0.121766,0.0166914,0.0418215,1994,1205,46.0752,-4.85004
777,-181,46.3666,4.21179,0,0,0,0,0,0,0,-1,2001,1205,46.3666,-4.21176
784,-181,49.4673,-0.801392,0,0,0,0,0,0,0,-1,2008,1205,49.4674,0.801388
791,-181,48.0928,2.18481,0,0,0,0,0,0,0,-1,2015,1205,48.0929,-2.18484
798,-181,50.3003,1.9906,0,0,0,0,0,0,0,-1,2022,1205,50.3003,-1.99056
805,-181,0,0,0,0,0,0,0,0,0,-1,2029,1205,0,0
812,-181,0,0,0,0,0,0,0,0,0,-1,2036,1205,0,0
-700,-188,0,0,0,0,0,0,0,0,0,-1,524,1212,0,0
-693,-188,0,0,0,0,0,0,0,0,0,-1,531,1212,0,0
-686,-188,0,0,0,0,0,0,0,0,0,-1,538,1212,0,0
-679,-188,-33.6897,0.0206299,0,0,0,0,0,0,0,-1,545,1212,-33.6897,-0.0206747
-672,-188,-33.5052,1.09912,0,0,0,0,0,0,0,-1,552,1212,-33.5052,-1.09911
-665,-188,-33.3227,-0.519653,0,0,0,0,0,0,0,-1,559,1212,-33.3227,0.5197
-658,-188,-32.7358,0.166016,0,0,0,0,0,0,0,-1,566,1212,-32.7358,-0.166047
-651,-188,-32.058,0.893433,0.00220938,-0.0369418,0.0364828,0.0240367,-0.0587691,0.539162,0.0491898,0.0470025,573,1212,-32.058,-0.893455
-644,-188,-31.5453,1.62732,0.00210331,-0.0274711,0.0269793,0.0180821,-0.0434498,0.534709,0.036518,0.0417607,580,1212,-31.5453,-1.62737
-637,-188,-31.0117,2.28528,0.00206187,-0.0192478,0.0186851,0.0129165,-0.0301025,0.526277,0.0254892,0.0242188,587,1212,-31.0117,-2.28526
-630,-188,-31.0056,2.81714,0.00169926,-0.0120571,0.0114888,0.00821139,-0.0185693,0.51567,0.0158426,0.0112611,594,1212,-31.0056,-2.81708
-623,-188,-31.0278,3.34265,0.00139438,-0.006251,0.00551572,0.00428259,-0.00913921,0.482374,0.00791637,0.0107888,601,1212,-31.0278,-3.34271
-616,-188,-31.0323,3.87,0.00148865,-0.00202021,0.00104287,0.0017752,-0.00230676,0.268155,0.00236338,0.0110339,608,1212,-31.0323,-3.86994
-609,-188,-31.0289,4.42078,0.00133603,-0.000126422,-0.00109649,0.00192275,-0.000713144,-0.491324,0.00157434,0.0143792,615,1212,-31.0289,-4.42073
-602,-188,-31.0468,4.974,0.000443956,-1.96087e-05,-0.00135428,0.00158614,-0.0011618,-0.700645,0.00159282,0.0181365,622,1212,-31.0467,-4.97404
-595,-188,-31.1526,5.43115,-0.000997989,-0.000141948,-0.00121426,0.000717517,-0.00185745,-0.954847,0.00153445,0.0280182,629,1212,-31.1526,-5.4312
-588,-188,-31.3781,5.97107,-0.00120719,-0.000559739,-0.0016535,0.000801428,-0.00256836,-0.882066,0.00203274,0.0269826,636,1212,-31.378,-5.9711
-581,-188,-31.3693,6.47595,-0.000843191,-0.000899823,-0.00202031,0.001149,-0.00289202,-0.778391,0.00240434,0.0278591,643,1212,-31.3693,-6.47596
-574,-188,-31.6431,6.89941,0,0,0,0,0,0,0,-1,650,1212,-31.6431,-6.8994
-567,-188,-19.5786,4.10388,0,0,0,0,0,0,0,-1,657,1212,-19.5785,-4.10383
-560,-188,-23.9507,0.416626,0,0,0,0,0,0,0,-1,664,1212,-23.9508,-0.416602
-553,-188,-40.8964,0.729004,0,0,0,0,0,0,0,-1,671,1212,-40.8964,-0.728948
-546,-188,-40.9869,0.835083,0.000411198,-0.00287079,-0.00258391,0.00183116,-0.00429075,-0.50249,0.00362833,0.0425108,678,1212,-40.9869,-0.835129
-539,-188,-41.1229,0.885376,0.00101985,-0.00348176,-0.0027792,0.00234537,-0.00480727,-0.445031,0.00421033,0.0347484,685,1212,-41.123,-0.885396
-532,-188,-41.188,0.719238,0.00157952,-0.00393344,-0.00270186,0.00268286,-0.00503678,-0.387696,0.00452548,0.0389942,692,1212,-41.188,-0.719263
-525,-188,-41.1372,0.546753,0.00305906,-0.00430262,-0.00180092,0.00347601,-0.00471957,-0.227513,0.00474984,0.0422133,699,1212,-41.1372,-0.546794
-518,-188,-40.9821,0.648804,0.00536002,-0.00418952,3.29007e-05,0.00536014,-0.00418964,0.00344521,0.00552735,0.0472433,706,1212,-40.9821,-0.648829
-511,-188,-40.9818,0.790894,0.00834271,-0.00336659,0.00289304,0.00901849,-0.00404238,0.229476,0.00772097,0.044877,713,1212,-40.9818,-0.790866
-504,-188,0,0,0,0,0,0,0,0,0,-1,720,1212,0,0
-497,-188,0,0,0,0,0,0,0,0,0,-1,727,1212,0,0
-490,-188,0,0,0,0,0,0,0,0,0,-1,734,1212,0,0
-483,-188,0,0,0,0,0,0,0,0,0,-1,741,1212,0,0
-476,-188,0,0,0,0,0,0,0,0,0,-1,748,1212,0,0
-469,-188,0,0,0,0,0,0,0,0,0,-1,755,1212,0,0
-462,-188,0,0,0,0,0,0,0,0,0,-1,762,1212,0,0
-455,-188,0,0,0,0,0,0,0,0,0,-1,769,1212,0,0
-448,-188,0,0,0,0,0,0,0,0,0,-1,776,1212,0,0
-441,-188,0,0,0,0,0,0,0,0,0,-1,783,1212,0,0
-434,-188,0,0,0,0,0,0,0,0,0,-1,790,1212,0,0
-427,-188,0,0,0,0,0,0,0,0,0,-1,797,1212,0,0
-420,-188,0,0,0,0,0,0,0,0,0,-1,804,1212,0,0
-413,-188,0,0,0,0,0,0,0,0,0,-1,811,1212,0,0
-406,-188,0,0,0,0,0,0,0,0,0,-1,818,1212,0,0
-399,-188,0,0,0,0,0,0,0,0,0,-1,825,1212,0,0
-392,-188,0,0,0,0,0,0,0,0,0,-1,832,1212,0,0
-385,-188,0,0,0,0,0,0,0,0,0,-1,839,1212,0,0
-378,-188,0,0,0,0,0,0,0,0,0,-1,846,1212,0,0
-371,-188,0,0,0,0,0,0,0,0,0,-1,853,1212,0,0
-364,-188,0,0,0,0,0,0,0,0,0,-1,860,1212,0,0
-357,-188,0,0,0,0,0,0,0,0,0,-1,867,1212,0,0
-350,-188,0,0,0,0,0,0,0,0,0,-1,874,1212,0,0
-343,-188,0,0,0,0,0,0,0,0,0,-1,881,1212,0,0
-336,-188,0,0,0,0,0,0,0,0,0,-1,888,1212,0,0
-329,-188,0,0,0,0,0,0,0,0,0,-1,895,1212,0,0
-322,-188,0,0,0,0,0,0,0,0,0,-1,902,1212,0,0
-315,-188,0,0,0,0,0,0,0,0,0,-1,909,1212,0,0
-308,-188,0,0,0,0,0,0,0,0,0,-1,916,1212,0,0
-301,-188,0,0,0,0,0,0,0,0,0,-1,923,1212,0,0
-294,-188,0,0,0,0,0,0,0,0,0,-1,930,1212,0,0
-287,-188,0,0,0,0,0,0,0,0,0,-1,937,1212,0,0
-280,-188,0,0,0,0,0,0,0,0,0,-1,944,1212,0,0
-273,-188,0,0,0,0,0,0,0,0,0,-1,951,1212,0,0
-266,-188,0,0,0,0,0,0,0,0,0,-1,958,1212,0,0
-259,-188,0,0,0,0,0,0,0,0,0,-1,965,1212,0,0
-252,-188,0,0,0,0,0,0,0,0,0,-1,972,1212,0,0
-245,-188,0,0,0,0,0,0,0,0,0,-1,979,1212,0,0
-238,-188,0,0,0,0,0,0,0,0,0,-1,986,1212,0,0
-231,-188,0,0,0,0,0,0,0,0,0,-1,993,1212,0,0
-224,-188,0,0,0,0,0,0,0,0,0,-1,1000,1212,0,0
-217,-188,0,0,0,0,0,0,0,0,0,-1,1007,1212,0,0
-210,-188,0,0,0,0,0,0,0,0,0,-1,1014,1212,0,0
-203,-188,0,0,0,0,0,0,0,0,0,-1,1021,1212,0,0
-196,-188,0,0,0,0,0,0,0,0,0,-1,1028,1212,0,0
-189,-188,0,0,0,0,0,0,0,0,0,-1,1035,1212,0,0
-182,-188,0,0,0,0,0,0,0,0,0,-1,1042,1212,0,0
-175,-188,0,0,0,0,0,0,0,0,0,-1,1049,1212,0,0
-168,-188,0,0,0,0,0,0,0,0,0,-1,1056,1212,0,0
-161,-188,0,0,0,0,0,0,0,0,0,-1,1063,1212,0,0
-154,-188,0,0,0,0,0,0,0,0,0,-1,1070,1212,0,0
-147,-188,0,0,0,0,0,0,0,0,0,-1,1077,1212,0,0
-140,-188,0,0,0,0,0,0,0,0,0,-1,1084,1212,0,0
-133,-188,0,0,0,0,0,0,0,0,0,-1,1091,1212,0,0
-126,-188,0,0,0,0,0,0,0,0,0,-1,1098,1212,0,0
-119,-188,0,0,0,0,0,0,0,0,0,-1,1105,1212,0,0
-112,-188,0,0,0,0,0,0,0,0,0,-1,1112,1212,0,0
-105,-188,0,0,0,0,0,0,0,0,0,-1,1119,1212,0,0
-98,-188,0,0,0,0,0,0,0,0,0,-1,1126,1212,0,0
-91,-188,0,0,0,0,0,0,0,0,0,-1,1133,1212,0,0
-84,-188,0,0,0,0,0,0,0,0,0,-1,1140,1212,0,0
-77,-188,0,0,0,0,0,0,0,0,0,-1,1147,1212,0,0
-70,-188,0,0,0,0,0,0,0,0,0,-1,1154,1212,0,0
-63,-188,0,0,0,0,0,0,0,0,0,-1,1161,1212,0,0
-56,-188,0,0,0,0,0,0,0,0,0,-1,1168,1212,0,0
-49,-188,0,0,0,0,0,0,0,0,0,-1,1175,1212,0,0
-42,-188,0,0,0,0,0,0,0,0,0,-1,1182,1212,0,0
-35,-188,0,0,0,0,0,0,0,0,0,-1,1189,1212,0,0
-28,-188,0,0,0,0,0,0,0,0,0,-1,1196,1212,0,0
-21,-188,0,0,0,0,0,0,0,0,0,-1,1203,1212,0,0
-14,-188,0,0,0,0,0,0,0,0,0,-1,1210,1212,0,0
-7,-188,0,0,0,0,0,0,0,0,0,-1,1217,1212,0,0
0,-188,0,0,0,0,0,0,0,0,0,-1,1224,1212,0,0
7,-188,0,0,0,0,0,0,0,0,0,-1,1231,1212,0,0
14,-188,0,0,0,0,0,0,0,0,0,-1,1238,1212,0,0
21,-188,0,0,0,0,0,0,0,0,0,-1,1245,1212,0,0
28,-188,0,0,0,0,0,0,0,0,0,-1,1252,1212,0,0
35,-188,0,0,0,0,0,0,0,0,0,-1,1259,1212,0,0
42,-188,0,0,0,0,0,0,0,0,0,-1,1266,1212,0,0
49,-188,0,0,0,0,0,0,0,0,0,-1,1273,1212,0,0
56,-188,0,0,0,0,0,0,0,0,0,-1,1280,1212,0,0
63,-188,0,0,0,0,0,0,0,0,0,-1,1287,1212,0,0
70,-188,0,0,0,0,0,0,0,0,0,-1,1294,1212,0,0
77,-188,0,0,0,0,0,0,0,0,0,-1,1301,1212,0,0
84,-188,0,0,0,0,0,0,0,0,0,-1,1308,1212,0,0
91,-188,0,0,0,0,0,0,0,0,0,-1,1315,1212,0,0
98,-188,0,0,0,0,0,0,0,0,0,-1,1322,1212,0,0
105,-188,0,0,0,0,0,0,0,0,0,-1,1329,1212,0,0
112,-188,0,0,0,0,0,0,0,0,0,-1,1336,1212,0,0
119,-188,0,0,0,0,0,0,0,0,0,-1,1343,1212,0,0
126,-188,0,0,0,0,0,0,0,0,0,-1,1350,1212,0,0
133,-188,0,0,0,0,0,0,0,0,0,-1,1357,1212,0,0
140,-188,0,0,0,0,0,0,0,0,0,-1,1364,1212,0,0
147,-188,0,0,0,0,0,0,0,0,0,-1,1371,1212,0,0
154,-188,0,0,0,0,0,0,0,0,0,-1,1378,1212,0,0
161,-188,0,0,0,0,0,0,0,0,0,-1,1385,1212,0,0
168,-188,0,0,0,0,0,0,0,0,0,-1,1392,1212,0,0
175,-188,0,0,0,0,0,0,0,0,0,-1,1399,1212,0,0
182,-188,0,0,0,0,0,0,0,0,0,-1,1406,1212,0,0
189,-188,0,0,0,0,0,0,0,0,0,-1,1413,1212,0,0
196,-188,0,0,0,0,0,0,0,0,0,-1,1420,1212,0,0
203,-188,0,0,0,0,0,0,0,0,0,-1,1427,1212,0,0
210,-188,0,0,0,0,0,0,0,0,0,-1,1434,1212,0,0
217,-188,0,0,0,0,0,0,0,0,0,-1,1441,1212,0,0
224,-188,0,0,0,0,0,0,0,0,0,-1,1448,1212,0,0
231,-188,0,0,0,0,0,0,0,0,0,-1,1455,1212,0,0
238,-188,0,0,0,0,0,0,0,0,0,-1,1462,1212,0,0
245,-188,0,0,0,0,0,0,0,0,0,-1,1469,1212,0,0
252,-188,0,0,0,0,0,0,0,0,0,-1,1476,1212,0,0
259,-188,0,0,0,0,0,0,0,0,0,-1,1483,1212,0,0
266,-188,0,0,0,0,0,0,0,0,0,-1,1490,1212,0,0
273,-188,0,0,0,0,0,0,0,0,0,-1,1497,1212,0,0
280,-188,0,0,0,0,0,0,0,0,0,-1,1504,1212,0,0
287,-188,0,0,0,0,0,0,0,0,0,-1,1511,1212,0,0
294,-188,0,0,0,0,0,0,0,0,0,-1,1518,1212,0,0
301,-188,0,0,0,0,0,0,0,0,0,-1,1525,1212,0,0
308,-188,0,0,0,0,0,0,0,0,0,-1,1532,1212,0,0
315,-188,0,0,0,0,0,0,0,0,0,-1,1539,1212,0,0
322,-188,0,0,0,0,0,0,0,0,0,-1,1546,1212,0,0
329,-188,0,0,0,0,0,0,0,0,0,-1,1553,1212,0,0
336,-188,0,0,0,0,0,0,0,0,0,-1,1560,1212,0,0
343,-188,0,0,0,0,0,0,0,0,0,-1,1567,1212,0,0
350,-188,0,0,0,0,0,0,0,0,0,-1,1574,1212,0,0
357,-188,0,0,0,0,0,0,0,0,0,-1,1581,1212,0,0
364,-188,0,0,0,0,0,0,0,0,0,-1,1588,1212,0,0
371,-188,0,0,0,0,0,0,0,0,0,-1,1595,1212,0,0
378,-188,0,0,0,0,0,0,0,0,0,-1,1602,1212,0,0
385,-188,0,0,0,0,0,0,0,0,0,-1,1609,1212,0,0
392,-188,0,0,0,0,0,0,0,0,0,-1,1616,1212,0,0
399,-188,0,0,0,0,0,0,0,0,0,-1,1623,1212,0,0
406,-188,0,0,0,0,0,0,0,0,0,-1,1630,1212,0,0
413,-188,0,0,0,0,0,0,0,0,0,-1,1637,1212,0,0
420,-188,0,0,0,0,0,0,0,0,0,-1,1644,1212,0,0
427,-188,0,0,0,0,0,0,0,0,0,-1,1651,1212,0,0
434,-188,0,0,0,0,0,0,0,0,0,-1,1658,1212,0,0
441,-188,0,0,0,0,0,0,0,0,0,-1,1665,1212,0,0
448,-188,0,0,0,0,0,0,0,0,0,-1,1672,1212,0,0
455,-188,0,0,0,0,0,0,0,0,0,-1,1679,1212,0,0
462,-188,0,0,0,0,0,0,0,0,0,-1,1686,1212,0,0
469,-188,0,0,0,0,0,0,0,0,0,-1,1693,1212,0,0
476,-188,0,0,0,0,0,0,0,0,0,-1,1700,1212,0,0
483,-188,0,0,0,0,0,0,0,0,0,-1,1707,1212,0,0
490,-188,0,0,0,0,0,0,0,0,0,-1,1714,1212,0,0
497,-188,0,0,0,0,0,0,0,0,0,-1,1721,1212,0,0
504,-188,0,0,0,0,0,0,0,0,0,-1,1728,1212,0,0
511,-188,0,0,0,0,0,0,0,0,0,-1,1735,1212,0,0
518,-188,0,0,0,0,0,0,0,0,0,-1,1742,1212,0,0
525,-188,0,0,0,0,0,0,0,0,0,-1,1749,1212,0,0
532,-188,0,0,0,0,0,0,0,0,0,-1,1756,1212,0,0
539,-188,0,0,0,0,0,0,0,0,0,-1,1763,1212,0,0
546,-188,0,0,0,0,0,0,0,0,0,-1,1770,1212,0,0
553,-188,0,0,0,0,0,0,0,0,0,-1,1777,1212,0,0
560,-188,0,0,0,0,0,0,0,0,0,-1,1784,1212,0,0
567,-188,0,0,0,0,0,0,0,0,0,-1,1791,1212,0,0
574,-188,0,0,0,0,0,0,0,0,0,-1,1798,1212,0,0
581,-188,0,0,0,0,0,0,0,0,0,-1,1805,1212,0,0
588,-188,0,0,0,0,0,0,0,0,0,-1,1812,1212,0,0
595,-188,0,0,0,0,0,0,0,0,0,-1,1819,1212,0,0
602,-188,0,0,0,0,0,0,0,0,0,-1,1826,1212,0,0
609,-188,0,0,0,0,0,0,0,0,0,-1,1833,1212,0,0
616,-188,0,0,0,0,0,0,0,0,0,-1,1840,1212,0,0
623,-188,0,0,0,0,0,0,0,0,0,-1,1847,1212,0,0
630,-188,55.1058,2.63647,0.000368785,0.000714781,-0.00090038,0.00145863,-0.000375066,-0.880311,0.0011186,0.03772,1854,1212,55.1059,-2.6365
637,-188,55.1182,2.65759,0.000203479,0.000553065,-0.000726017,0.00112503,-0.00036849,-0.903528,0.000898406,0.0365679,1861,1212,55.1181,-2.65753
644,-188,55.0643,2.69177,0.000161913,0.00054091,-0.000766304,0.0011408,-0.000437975,-0.906611,0.00094113,0.0365305,1868,1212,55.0643,-2.69173
651,-188,54.9886,2.70715,0.000259519,0.000600966,-0.00104307,0.00148719,-0.000626702,-0.866516,0.00125371,0.0342547,1875,1212,54.9887,-2.70714
658,-188,54.9799,2.65796,0.000420435,0.000672155,-0.00146812,0.0020198,-0.000927213,-0.828158,0.00174,0.0338666,1882,1212,54.9798,-2.65793
665,-188,54.9406,2.65247,0.000607993,0.00053596,-0.00168309,0.00225545,-0.0011115,-0.7747,0.00198095,0.0310468,1889,1212,54.9406,-2.65248
672,-188,55.0317,2.61035,0.000733131,0.000436277,-0.00169474,0.00228593,-0.00111652,-0.741719,0.0020027,0.0245868,1896,1212,55.0318,-2.61033
679,-188,55.0106,2.47888,0.000919658,0.000268766,-0.00164059,0.00226677,-0.00107834,-0.687483,0.00197151,0.0448738,1903,1212,55.0106,-2.47885
686,-188,54.9916,2.39795,0,0,0,0,0,0,0,-1,1910,1212,54.9916,-2.39795
693,-188,35.9054,2.18042,0,0,0,0,0,0,0,-1,1917,1212,35.9054,-2.18038
700,-188,39.0826,8.68848,0,0,0,0,0,0,0,-1,1924,1212,39.0826,-8.68852
707,-188,45.5986,9.4812,0,0,0,0,0,0,0,-1,1931,1212,45.5986,-9.48126
714,-188,45.8107,8.8252,0,0,0,0,0,0,0,-1,1938,1212,45.8106,-8.82514
721,-188,45.2677,8.44897,0,0,0,0,0,0,0,-1,1945,1212,45.2677,-8.44893
728,-188,45.4106,7.84119,0.0014352,0.000144519,0.0001121,0.00144487,0.000134855,0.0859952,0.000921589,0.0193267,1952,1212,45.4106,-7.84124
735,-188,45.3971,7.33972,0.00196535,-4.47233e-05,0.000528375,0.00209578,-0.000175151,0.242009,0.00145908,0.0137368,1959,1212,45.3971,-7.33968
742,-188,45.3578,6.85547,0.00314664,-0.000125591,0.00094062,0.00339776,-0.000376706,0.260883,0.00240061,0.0155921,1966,1212,45.3578,-6.85546
749,-188,45.3679,6.37268,0.00570776,0.000110711,0.00109846,0.00591562,-9.71491e-05,0.187018,0.00397653,0.0146119,1973,1212,45.3679,-6.37263
756,-188,45.373,5.85547,0.0101192,0.000955295,0.000514787,0.010148,0.000926467,0.0559411,0.00647862,0.0126008,1980,1212,45.3731,-5.85551
763,-188,45.3802,5.37976,0.016269,0.00200262,-0.000499164,0.0162864,0.00198517,-0.0349319,0.0102601,0.0166626,1987,1212,45.3802,-5.37971
770,-188,45.405,4.88098,0.0249585,0.0036839,-0.00233028,0.0252107,0.00343165,-0.10783,0.0157881,0.0359731,1994,1212,45.405,-4.88095
777,-188,45.4968,4.35779,0,0,0,0,0,0,0,-1,2001,1212,45.4968,-4.35778
784,-188,50.2876,-0.510742,0,0,0,0,0,0,0,-1,2008,1212,50.2875,0.510762
791,-188,49.8389,1.40027,0,0,0,0,0,0,0,-1,2015,1212,49.8389,-1.40024
798,-188,49.3804,3.30933,0,0,0,0,0,0,0,-1,2022,1212,49.3803,-3.30931
805,-188,0,0,0,0,0,0,0,0,0,-1,2029,1212,0,0
812,-188,0,0,0,0,0,0,0,0,0,-1,2036,1212,0,0
-700,-195,0,0,0,0,0,0,0,0,0,-1,524,1219,0,0
-693,-195,0,0,0,0,0,0,0,0,0,-1,531,1219,0,0
-686,-195,0,0,0,0,0,0,0,0,0,-1,538,1219,0,0
-679,-195,-33.5622,0.483521,-0.00830783,-0.0902163,0.090526,0.0500969,-0.148621,0.572973,0.119338,0.0466621,545,1219,-33.5622,-0.483581
-672,-195,-33.4918,1.50232,-0.0089987,-0.0774576,0.0773997,0.0414026,-0.127859,0.577206,0.101884,0.0470322,552,1219,-33.4918,-1.50234
-665,-195,-33.4154,2.56287,-0.00832822,-0.0649214,0.0645766,0.0338793,-0.107129,0.578905,0.0849938,0.0456516,559,1219,-33.4154,-2.56285
-658,-195,-32.3081,0.377686,0,0,0,0,0,0,0,-1,566,1219,-32.3081,-0.377738
-651,-195,-31.5875,0.968018,0,0,0,0,0,0,0,-1,573,1219,-31.5875,-0.968064
-644,-195,-30.3362,1.85779,-0.00386759,-0.0319116,0.0311438,0.0162653,-0.0520445,0.573874,0.0412025,0.0420482,580,1219,-30.3362,-1.85778
-637,-195,-30.3525,2.3302,-0.00231608,-0.022873,0.0220515,0.0117348,-0.0369239,0.567312,0.029321,0.0239294,587,1219,-30.3525,-2.33022
-630,-195,-30.4487,2.81628,-0.00126095,-0.0149004,0.0140999,0.00758186,-0.0237432,0.560147,0.0188708,0.00885082,594,1219,-30.4487,-2.81626
-623,-195,-30.48,3.34338,-0.00047289,-0.00837121,0.00746523,0.00402339,-0.0128675,0.542106,0.0101878,0.00839081,601,1219,-30.48,-3.34338
-616,-195,-30.4907,3.88733,0.000683723,-0.00328481,0.00220566,0.00166632,-0.0042674,0.419095,0.00353385,0.0104423,608,1219,-30.4907,-3.88733
-609,-195,-30.4904,4.44592,0.00135247,-0.000515768,-0.000723439,0.00159985,-0.000763149,-0.329487,0.00139249,0.0186115,615,1219,-30.4904,-4.44593
-602,-195,-30.538,4.97327,0.00101841,-1.73072e-05,-0.00136728,0.00196261,-0.000961516,-0.604371,0.00172091,0.0211159,622,1219,-30.538,-4.97321
-595,-195,-30.6098,5.48376,-0.00025535,-0.000207161,-0.00123963,0.00100861,-0.00147112,-0.795115,0.00143995,0.023723,629,1219,-30.6098,-5.48381
-588,-195,-30.6296,6.13342,-0.000380206,-0.000773484,-0.0016192,0.00105425,-0.00220794,-0.724973,0.00192229,0.0267093,636,1219,-30.6296,-6.1334
-581,-195,-30.3356,6.74304,0,0,0,0,0,0,0,-1,643,1219,-30.3356,-6.74301
-574,-195,-29.8815,6.30896,0,0,0,0,0,0,0,-1,650,1219,-29.8815,-6.30895
-567,-195,-20.6388,3.78369,0,0,0,0,0,0,0,-1,657,1219,-20.6388,-3.78369
-560,-195,-20.878,2.10388,0,0,0,0,0,0,0,-1,664,1219,-20.878,-2.10385
-553,-195,-39.6884,1.13794,0,0,0,0,0,0,0,-1,671,1219,-39.6884,-1.13798
-546,-195,-40.9459,0.857788,0,0,0,0,0,0,0,-1,678,1219,-40.9458,-0.857784
-539,-195,-41.0092,0.93811,0.00189711,-0.00435247,-0.00317516,0.0032272,-0.00568256,-0.396697,0.00520876,0.0359959,685,1219,-41.0091,-0.938093
-532,-195,-41.063,0.690796,0.00222577,-0.00482978,-0.0033528,0.00356488,-0.00616888,-0.379987,0.00568642,0.0325336,692,1219,-41.063,-0.690763
-525,-195,-41.0278,0.712158,0.00298512,-0.00519518,-0.00298163,0.00395654,-0.0061666,-0.314956,0.00589084,0.0392274,699,1219,-41.0278,-0.712135
-518,-195,-41.1168,0.858276,0.00436719,-0.00501485,-0.00170821,0.00466853,-0.00531619,-0.17461,0.00576873,0.0446121,706,1219,-41.1168,-0.858315
-511,-195,-41.0919,0.950439,0.00679208,-0.00399165,0.00091059,0.00686843,-0.004068,0.0836518,0.00638278,0.0455731,713,1219,-41.0919,-0.950446
-504,-195,0,0,0,0,0,0,0,0,0,-1,720,1219,0,0
-497,-195,0,0,0,0,0,0,0,0,0,-1,727,1219,0,0
-490,-195,0,0,0,0,0,0,0,0,0,-1,734,1219,0,0
-483,-195,0,0,0,0,0,0,0,0,0,-1,741,1219,0,0
-476,-195,0,0,0,0,0,0,0,0,0,-1,748,1219,0,0
-469,-195,0,0,0,0,0,0,0,0,0,-1,755,1219,0,0
-462,-195,0,0,0,0,0,0,0,0,0,-1,762,1219,0,0
-455,-195,0,0,0,0,0,0,0,0,0,-1,769,1219,0,0
-448,-195,0,0,0,0,0,0,0,0,0,-1,776,1219,0,0
-441,-195,0,0,0,0,0,0,0,0,0,-1,783,1219,0,0
-434,-195,0,0,0,0,0,0,0,0,0,-1,790,1219,0,0
-427,-195,0,0,0,0,0,0,0,0,0,-1,797,1219,0,0
-420,-195,0,0,0,0,0,0,0,0,0,-1,804,1219,0,0
-413,-195,0,0,0,0,0,0,0,0,0,-1,811,1219,0,0
-406,-195,0,0,0,0,0,0,0,0,0,-1,818,1219,0,0
-399,-195,0,0,0,0,0,0,0,0,0,-1,825,1219,0,0
-392,-195,0,0,0,0,0,0,0,0,0,-1,832,1219,0,0
-385,-195,0,0,0,0,0,0,0,0,0,-1,839,1219,0,0
-378,-195,0,0,0,0,0,0,0,0,0,-1,846,1219,0,0
-371,-195,0,0,0,0,0,0,0,0,0,-1,853,1219,0,0
-364,-195,0,0,0,0,0,0,0,0,0,-1,860,1219,0,0
-357,-195,0,0,0,0,0,0,0,0,0,-1,867,1219,0,0
-350,-195,0,0,0,0,0,0,0,0,0,-1,874,1219,0,0
-343,-195,0,0,0,0,0,0,0,0,0,-1,881,1219,0,0
-336,-195,0,0,0,0,0,0,0,0,0,-1,888,1219,0,0
-329,-195,0,0,0,0,0,0,0,0,0,-1,895,1219,0,0
-322,-195,0,0,0,0,0,0,0,0,0,-1,902,1219,0,0
-315,-195,0,0,0,0,0,0,0,0,0,-1,909,1219,0,0
-308,-195,0,0,0,0,0,0,0,0,0,-1,916,1219,0,0
-301,-195,0,0,0,0,0,0,0,0,0,-1,923,1219,0,0
-294,-195,0,0,0,0,0,0,0,0,0,-1,930,1219,0,0
-287,-195,0,0,0,0,0,0,0,0,0,-1,937,1219,0,0
-280,-195,0,0,0,0,0,0,0,0,0,-1,944,1219,0,0
-273,-195,0,0,0,0,0,0,0,0,0,-1,951,1219,0,0
-266,-195,0,0,0,0,0,0,0,0,0,-1,958,1219,0,0
-259,-195,0,0,0,0,0,0,0,0,0,-1,965,1219,0,0
-252,-195,0,0,0,0,0,0,0,0,0,-1,972,1219,0,0
-245,-195,0,0,0,0,0,0,0,0,0,-1,979,1219,0,0
-238,-195,0,0,0,0,0,0,0,0,0,-1,986,1219,0,0
-231,-195,0,0,0,0,0,0,0,0,0,-1,993,1219,0,0
-224,-195,0,0,0,0,0,0,0,0,0,-1,1000,1219,0,0
-217,-195,0,0,0,0,0,0,0,0,0,-1,1007,1219,0,0
-210,-195,0,0,0,0,0,0,0,0,0,-1,1014,1219,0,0
-203,-195,0,0,0,0,0,0,0,0,0,-1,1021,1219,0,0
-196,-195,0,0,0,0,0,0,0,0,0,-1,1028,1219,0,0
-189,-195,0,0,0,0,0,0,0,0,0,-1,1035,1219,0,0
-182,-195,0,0,0,0,0,0,0,0,0,-1,1042,1219,0,0
-175,-195,0,0,0,0,0,0,0,0,0,-1,1049,1219,0,0
-168,-195,0,0,0,0,0,0,0,0,0,-1,1056,1219,0,0
-161,-195,0,0,0,0,0,0,0,0,0,-1,1063,1219,0,0
-154,-195,0,0,0,0,0,0,0,0,0,-1,1070,1219,0,0
-147,-195,0,0,0,0,0,0,0,0,0,-1,1077,1219,0,0
-140,-195,0,0,0,0,0,0,0,0,0,-1,1084,1219,0,0
-133,-195,0,0,0,0,0,0,0,0,0,-1,1091,1219,0,0
-126,-195,0,0,0,0,0,0,0,0,0,-1,1098,1219,0,0
-119,-195,0,0,0,0,0,0,0,0,0,-1,1105,1219,0,0
-112,-195,0,0,0,0,0,0,0,0,0,-1,1112,1219,0,0
-105,-195,0,0,0,0,0,0,0,0,0,-1,1119,1219,0,0
-98,-195,0,0,0,0,0,0,0,0,0,-1,1126,1219,0,0
-91,-195,0,0,0,0,0,0,0,0,0,-1,1133,1219,0,0
-84,-195,0,0,0,0,0,0,0,0,0,-1,1140,1219,0,0
-77,-195,0,0,0,0,0,0,0,0,0,-1,1147,1219,0,0
-70,-195,0,0,0,0,0,0,0,0,0,-1,1154,1219,0,0
-63,-195,0,0,0,0,0,0,0,0,0,-1,1161,1219,0,0
-56,-195,0,0,0,0,0,0,0,0,0,-1,1168,1219,0,0
-49,-195,0,0,0,0,0,0,0,0,0,-1,1175,1219,0,0
-42,-195,0,0,0,0,0,0,0,0,0,-1,1182,1219,0,0
-35,-195,0,0,0,0,0,0,0,0,0,-1,1189,1219,0,0
-28,-195,0,0,0,0,0,0,0,0,0,-1,1196,1219,0,0
-21,-195,0,0,0,0,0,0,0,0,0,-1,1203,1219,0,0
-14,-195,0,0,0,0,0,0,0,0,0,-1,1210,1219,0,0
-7,-195,0,0,0,0,0,0,0,0,0,-1,1217,1219,0,0
0,-195,0,0,0,0,0,0,0,0,0,-1,1224,1219,0,0
7,-195,0,0,0,0,0,0,0,0,0,-1,1231,1219,0,0
14,-195,0,0,0,0,0,0,0,0,0,-1,1238,1219,0,0
21,-195,0,0,0,0,0,0,0,0,0,-1,1245,1219,0,0
28,-195,0,0,0,0,0,0,0,0,0,-1,1252,1219,0,0
35,-195,0,0,0,0,0,0,0,0,0,-1,1259,1219,0,0
42,-195,0,0,0,0,0,0,0,0,0,-1,1266,1219,0,0
49,-195,0,0,0,0,0,0,0,0,0,-1,1273,1219,0,0
56,-195,0,0,0,0,0,0,0,0,0,-1,1280,1219,0,0
63,-195,0,0,0,0,0,0,0,0,0,-1,1287,1219,0,0
70,-195,0,0,0,0,0,0,0,0,0,-1,1294,1219,0,0
77,-195,0,0,0,0,0,0,0,0,0,-1,1301,1219,0,0
84,-195,0,0,0,0,0,0,0,0,0,-1,1308,1219,0,0
91,-195,0,0,0,0,0,0,0,0,0,-1,1315,1219,0,0
98,-195,0,0,0,0,0,0,0,0,0,-1,1322,1219,0,0
105,-195,0,0,0,0,0,0,0,0,0,-1,1329,1219,0,0
112,-195,0,0,0,0,0,0,0,0,0,-1,1336,1219,0,0
119,-195,0,0,0,0,0,0,0,0,0,-1,1343,1219,0,0
126,-195,0,0,0,0,0,0,0,0,0,-1,1350,1219,0,0
133,-195,0,0,0,0,0,0,0,0,0,-1,1357,1219,0,0
140,-195,0,0,0,0,0,0,0,0,0,-1,1364,1219,0,0
147,-195,0,0,0,0,0,0,0,0,0,-1,1371,1219,0,0
154,-195,0,0,0,0,0,0,0,0,0,-1,1378,1219,0,0
161,-195,0,0,0,0,0,0,0,0,0,-1,1385,1219,0,0
168,-195,0,0,0,0,0,0,0,0,0,-1,1392,1219,0,0
175,-195,0,0,0,0,0,0,0,0,0,-1,1399,1219,0,0
182,-195,0,0,0,0,0,0,0,0,0,-1,1406,1219,0,0
189,-195,0,0,0,0,0,0,0,0,0,-1,1413,1219,0,0
196,-195,0,0,0,0,0,0,0,0,0,-1,1420,1219,0,0
203,-195,0,0,0,0,0,0,0,0,0,-1,1427,1219,0,0
210,-195,0,0,0,0,0,0,0,0,0,-1,1434,1219,0,0
217,-195,0,0,0,0,0,0,0,0,0,-1,1441,1219,0,0
224,-195,0,0,0,0,0,0,0,0,0,-1,1448,1219,0,0
231,-195,0,0,0,0,0,0,0,0,0,-1,1455,1219,0,0
238,-195,0,0,0,0,0,0,0,0,0,-1,1462,1219,0,0
245,-195,0,0,0,0,0,0,0,0,0,-1,1469,1219,0,0
252,-195,0,0,0,0,0,0,0,0,0,-1,1476,1219,0,0
259,-195,0,0,0,0,0,0,0,0,0,-1,1483,1219,0,0
266,-195,0,0,0,0,0,0,0,0,0,-1,1490,1219,0,0
273,-195,0,0,0,0,0,0,0,0,0,-1,1497,1219,0,0
280,-195,0,0,0,0,0,0,0,0,0,-1,1504,1219,0,0
287,-195,0,0,0,0,0,0,0,0,0,-1,1511,1219,0,0
294,-195,0,0,0,0,0,0,0,0,0,-1,1518,1219,0,0
301,-195,0,0,0,0,0,0,0,0,0,-1,1525,1219,0,0
308,-195,0,0,0,0,0,0,0,0,0,-1,1532,1219,0,0
315,-195,0,0,0,0,0,0,0,0,0,-1,1539,1219,0,0
322,-195,0,0,0,0,0,0,0,0,0,-1,1546,1219,0,0
329,-195,0,0,0,0,0,0,0,0,0,-1,1553,1219,0,0
336,-195,0,0,0,0,0,0,0,0,0,-1,1560,1219,0,0
343,-195,0,0,0,0,0,0,0,0,0,-1,1567,1219,0,0
350,-195,0,0,0,0,0,0,0,0,0,-1,1574,1219,0,0
357,-195,0,0,0,0,0,0,0,0,0,-1,1581,1219,0,0
364,-195,0,0,0,0,0,0,0,0,0,-1,1588,1219,0,0
371,-195,0,0,0,0,0,0,0,0,0,-1,1595,1219,0,0
378,-195,0,0,0,0,0,0,0,0,0,-1,1602,1219,0,0
385,-195,0,0,0,0,0,0,0,0,0,-1,1609,1219,0,0
392,-195,0,0,0,0,0,0,0,0,0,-1,1616,1219,0,0
399,-195,0,0,0,0,0,0,0,0,0,-1,1623,1219,0,0
406,-195,0,0,0,0,0,0,0,0,0,-1,1630,1219,0,0
413,-195,0,0,0,0,0,0,0,0,0,-1,1637,1219,0,0
420,-195,0,0,0,0,0,0,0,0,0,-1,1644,1219,0,0
427,-195,0,0,0,0,0,0,0,0,0,-1,1651,1219,0,0
434,-195,0,0,0,0,0,0,0,0,0,-1,1658,1219,0,0
441,-195,0,0,0,0,0,0,0,0,0,-1,1665,1219,0,0
448,-195,0,0,0,0,0,0,0,0,0,-1,1672,1219,0,0
455,-195,0,0,0,0,0,0,0,0,0,-1,1679,1219,0,0
462,-195,0,0,0,0,0,0,0,0,0,-1,1686,1219,0,0
469,-195,0,0,0,0,0,0,0,0,0,-1,1693,1219,0,0
476,-195,0,0,0,0,0,0,0,0,0,-1,1700,1219,0,0
483,-195,0,0,0,0,0,0,0,0,0,-1,1707,1219,0,0
490,-195,0,0,0,0,0,0,0,0,0,-1,1714,1219,0,0
497,-195,0,0,0,0,0,0,0,0,0,-1,1721,1219,0,0
504,-195,0,0,0,0,0,0,0,0,0,-1,1728,1219,0,0
511,-195,0,0,0,0,0,0,0,0,0,-1,1735,1219,0,0
518,-195,0,0,0,0,0,0,0,0,0,-1,1742,1219,0,0
525,-195,0,0,0,0,0,0,0,0,0,-1,1749,1219,0,0
532,-195,0,0,0,0,0,0,0,0,0,-1,1756,1219,0,0
539,-195,0,0,0,0,0,0,0,0,0,-1,1763,1219,0,0
546,-195,0,0,0,0,0,0,0,0,0,-1,1770,1219,0,0
553,-195,0,0,0,0,0,0,0,0,0,-1,1777,1219,0,0
560,-195,0,0,0,0,0,0,0,0,0,-1,1784,1219,0,0
567,-195,0,0,0,0,0,0,0,0,0,-1,1791,1219,0,0
574,-195,0,0,0,0,0,0,0,0,0,-1,1798,1219,0,0
581,-195,0,0,0,0,0,0,0,0,0,-1,1805,1219,0,0
588,-195,0,0,0,0,0,0,0,0,0,-1,1812,1219,0,0
595,-195,0,0,0,0,0,0,0,0,0,-1,1819,1219,0,0
602,-195,0,0,0,0,0,0,0,0,0,-1,1826,1219,0,0
609,-195,0,0,0,0,0,0,0,0,0,-1,1833,1219,0,0
616,-195,0,0,0,0,0,0,0,0,0,-1,1840,1219,0,0
623,-195,0,0,0,0,0,0,0,0,0,-1,1847,1219,0,0
630,-195,55.1318,2.55176,-0.000521629,0.00127347,-0.000767758,0.00155704,-0.000805201,-1.21699,0.00138668,0.0378133,1854,1219,55.1318,-2.55176
637,-195,55.0964,2.59985,-0.000491684,0.00120805,-0.000712608,0.00146728,-0.000750908,-1.22191,0.00130274,0.0350772,1861,1219,55.0965,-2.59987
644,-195,55.098,2.67444,-0.000321072,0.00120268,-0.000846871,0.00157995,-0.000698338,-1.15171,0.0013478,0.0340928,1868,1219,55.0981,-2.67443
651,-195,55.0724,2.6615,-4.74455e-05,0.00115784,-0.00121903,0.00191505,-0.000804658,-1.01496,0.00161326,0.0283687,1875,1219,55.0724,-2.66147
658,-195,55.0704,2.6543,0.000245809,0.00106768,-0.00165021,0.00235736,-0.00104386,-0.907427,0.00201191,0.0258424,1882,1219,55.0705,-2.65434
665,-195,55.0612,2.63843,0.00051805,0.000738557,-0.00180664,0.00243831,-0.0011817,-0.815874,0.00213158,0.0241805,1889,1219,55.0611,-2.63843
672,-195,55.0601,2.50085,0.000722361,0.000485633,-0.0018031,0.00241098,-0.00120299,-0.752623,0.00212502,0.03517,1896,1219,55.0601,-2.50087
679,-195,54.928,2.32275,0,0,0,0,0,0,0,-1,1903,1219,54.928,-2.32281
686,-195,51.2117,1.94312,0,0,0,0,0,0,0,-1,1910,1219,51.2117,-1.9431
693,-195,24.4368,5.68298,0,0,0,0,0,0,0,-1,1917,1219,24.4368,-5.68293
700,-195,45.0507,9.94312,0,0,0,0,0,0,0,-1,1924,1219,45.0506,-9.94307
707,-195,45.0143,9.34814,0.001159,-4.50368e-05,-0.00129576,0.00198576,-0.000871802,-0.567932,0.00169109,0.0321329,1931,1219,45.0143,-9.34811
714,-195,45.0269,8.67236,0.00132737,-6.64832e-05,-0.00107137,0.00190855,-0.000647655,-0.497034,0.0015345,0.0420868,1938,1219,45.0268,-8.67232
721,-195,44.936,8.33936,0.00136912,-8.27794e-05,-0.000578034,0.00157114,-0.000284799,-0.336224,0.00115413,0.0282704,1945,1219,44.936,-8.33938
728,-195,44.9268,7.87317,0.00154069,-6.28144e-05,-7.17304e-05,0.00154389,-6.60168e-05,-0.0446148,0.00105196,0.0104689,1952,1219,44.9268,-7.87313
735,-195,44.9203,7.31689,0.00196268,-0.000266055,0.000450157,0.00205017,-0.000353543,0.191957,0.00149859,0.0122931,1959,1219,44.9203,-7.3169
742,-195,44.8964,6.84338,0.00284947,-0.000357422,0.00101657,0.00314457,-0.000652518,0.28252,0.00234435,0.0151369,1966,1219,44.8964,-6.84334
749,-195,44.8824,6.37842,0.00485989,-0.000156687,0.00136659,0.00520801,-0.000504807,0.249432,0.00365193,0.0143755,1973,1219,44.8825,-6.37844
756,-195,44.8485,5.88171,0.00852349,0.000548722,0.00100616,0.00864847,0.000423735,0.123588,0.00562972,0.0139,1980,1219,44.8485,-5.88171
763,-195,44.8604,5.40906,0.0139212,0.0014661,0.000194624,0.0139242,0.00146306,0.015621,0.00883558,0.0197461,1987,1219,44.8604,-5.40912
770,-195,44.9067,5.17114,0.0220687,0.00295602,-0.00143363,0.0221756,0.00284909,-0.0744544,0.0139315,0.0394204,1994,1219,44.9067,-5.17115
777,-195,45.0906,5.13635,0,0,0,0,0,0,0,-1,2001,1219,45.0906,-5.13633
784,-195,51.2444,-0.069458,0,0,0,0,0,0,0,-1,2008,1219,51.2443,0.0694704
791,-195,50.6421,1.65222,0,0,0,0,0,0,0,-1,2015,1219,50.6422,-1.65218
798,-195,50.3787,3.47571,0,0,0,0,0,0,0,-1,2022,1219,50.3786,-3.47566
805,-195,0,0,0,0,0,0,0,0,0,-1,2029,1219,0,0
812,-195,0,0,0,0,0,0,0,0,0,-1,2036,1219,0,0
-700,-202,0,0,0,0,0,0,0,0,0,-1,524,1226,0,0
-693,-202,0,0,0,0,0,0,0,0,0,-1,531,1226,0,0
-686,-202,0,0,0,0,0,0,0,0,0,-1,538,1226,0,0
-679,-202,-33.2528,0.921753,-0.0276245,-0.0980278,0.0985395,0.0418122,-0.167464,0.613846,0.12788,0.0491975,545,1226,-33.2528,-0.921813
-672,-202,-33.3522,1.78479,-0.0263613,-0.0853555,0.0854267,0.0345175,-0.146234,0.619161,0.110802,0.0483885,552,1226,-33.3521,-1.78475
-665,-202,-33.4003,2.92896,-0.023055,-0.0722426,0.0720218,0.0284564,-0.123754,0.620867,0.0934438,0.0466281,559,1226,-33.4003,-2.92891
-658,-202,-33.3571,4.02856,0,0,0,0,0,0,0,-1,566,1226,-33.3571,-4.02856
-651,-202,-29.3357,1.01831,0,0,0,0,0,0,0,-1,573,1226,-29.3357,-1.01837
-644,-202,-29.5584,1.76074,0,0,0,0,0,0,0,-1,580,1226,-29.5584,-1.76072
-637,-202,-29.7491,2.30042,-0.00775912,-0.0266214,0.0259621,0.0104318,-0.0448124,0.611176,0.0338916,0.0430939,587,1226,-29.7492,-2.3004
-630,-202,-29.8887,2.78796,-0.0050196,-0.0178165,0.0171515,0.00688804,-0.0297242,0.606865,0.0224669,0.018013,594,1226,-29.8888,-2.78793
-623,-202,-29.9236,3.33411,-0.00300425,-0.0105997,0.00981469,0.00372186,-0.0173258,0.600799,0.0129704,0.00878984,601,1226,-29.9236,-3.33411
-616,-202,-29.9493,3.88623,-0.000735412,-0.0047326,0.00371469,0.00148421,-0.00695222,0.538597,0.00520063,0.00915094,608,1226,-29.9493,-3.88624
-609,-202,-29.9493,4.45813,0.000776849,-0.00117856,-5.53332e-05,0.000778414,-0.00118012,-0.0282674,0.00113866,0.0219258,615,1226,-29.9493,-4.45808
-602,-202,-30.0089,4.95996,0.00113521,-0.00021237,-0.00126477,0.00189447,-0.000971632,-0.540652,0.00168309,0.0217591,622,1226,-30.0089,-4.95995
-595,-202,-30.061,5.48083,0.000156443,-0.000476005,-0.00122504,0.00110541,-0.00142497,-0.659088,0.0014648,0.0154643,629,1226,-30.061,-5.48081
-588,-202,-30.0175,6.06921,0.000246755,-0.00118159,-0.0015236,0.00121526,-0.0021501,-0.566234,0.00196782,0.0181331,636,1226,-30.0175,-6.06915
-581,-202,-29.8756,6.66003,0,0,0,0,0,0,0,-1,643,1226,-29.8756,-6.66008
-574,-202,-26.922,5.99512,0,0,0,0,0,0,0,-1,650,1226,-26.922,-5.99512
-567,-202,-22.1768,4.56995,0,0,0,0,0,0,0,-1,657,1226,-22.1768,-4.56991
-560,-202,-10.929,2.73096,0,0,0,0,0,0,0,-1,664,1226,-10.929,-2.73092
-553,-202,-30.2701,1.474,0,0,0,0,0,0,0,-1,671,1226,-30.2701,-1.47395
-546,-202,-41.3354,1.33447,0,0,0,0,0,0,0,-1,678,1226,-41.3355,-1.33447
-539,-202,-41.1176,1.11426,0.00270419,-0.00484572,-0.00341963,0.00402278,-0.0061643,-0.368026,0.00592468,0.0417509,685,1226,-41.1176,-1.11427
-532,-202,-41.0029,0.863892,0.00283994,-0.00524359,-0.00380762,0.004351,-0.00675465,-0.377789,0.00646172,0.0281516,692,1226,-41.0029,-0.863899
-525,-202,-41.0618,0.809326,0.003022,-0.00547663,-0.00394285,0.00456947,-0.0070241,-0.374003,0.00674337,0.0356483,699,1226,-41.0617,-0.809306
-518,-202,-41.1871,0.954346,0.00341207,-0.00515844,-0.00346338,0.00463666,-0.00638304,-0.339863,0.0063888,0.0433501,706,1226,-41.187,-0.954349
-511,-202,-41.1863,1.04114,0.0047898,-0.00397829,-0.00170485,0.00510962,-0.00429812,-0.18544,0.00543829,0.0440997,713,1226,-41.1864,-1.04114
-504,-202,0,0,0,0,0,0,0,0,0,-1,720,1226,0,0
-497,-202,0,0,0,0,0,0,0,0,0,-1,727,1226,0,0
-490,-202,0,0,0,0,0,0,0,0,0,-1,734,1226,0,0
-483,-202,0,0,0,0,0,0,0,0,0,-1,741,1226,0,0
-476,-202,0,0,0,0,0,0,0,0,0,-1,748,1226,0,0
-469,-202,0,0,0,0,0,0,0,0,0,-1,755,1226,0,0
-462,-202,0,0,0,0,0,0,0,0,0,-1,762,1226,0,0
-455,-202,0,0,0,0,0,0,0,0,0,-1,769,1226,0,0
-448,-202,0,0,0,0,0,0,0,0,0,-1,776,1226,0,0
-441,-202,0,0,0,0,0,0,0,0,0,-1,783,1226,0,0
-434,-202,0,0,0,0,0,0,0,0,0,-1,790,1226,0,0
-427,-202,0,0,0,0,0,0,0,0,0,-1,797,1226,0,0
-420,-202,0,0,0,0,0,0,0,0,0,-1,804,1226,0,0
-413,-202,0,0,0,0,0,0,0,0,0,-1,811,1226,0,0
-406,-202,0,0,0,0,0,0,0,0,0,-1,818,1226,0,0
-399,-202,0,0,0,0,0,0,0,0,0,-1,825,1226,0,0
-392,-202,0,0,0,0,0,0,0,0,0,-1,832,1226,0,0
-385,-202,0,0,0,0,0,0,0,0,0,-1,839,1226,0,0
-378,-202,0,0,0,0,0,0,0,0,0,-1,846,1226,0,0
-371,-202,0,0,0,0,0,0,0,0,0,-1,853,1226,0,0
-364,-202,0,0,0,0,0,0,0,0,0,-1,860,1226,0,0
-357,-202,0,0,0,0,0,0,0,0,0,-1,867,1226,0,0
-350,-202,0,0,0,0,0,0,0,0,0,-1,874,1226,0,0
-343,-202,0,0,0,0,0,0,0,0,0,-1,881,1226,0,0
-336,-202,0,0,0,0,0,0,0,0,0,-1,888,1226,0,0
-329,-202,0,0,0,0,0,0,0,0,0,-1,895,1226,0,0
-322,-202,0,0,0,0,0,0,0,0,0,-1,902,1226,0,0
-315,-202,0,0,0,0,0,0,0,0,0,-1,909,1226,0,0
-308,-202,0,0,0,0,0,0,0,0,0,-1,916,1226,0,0
-301,-202,0,0,0,0,0,0,0,0,0,-1,923,1226,0,0
-294,-202,0,0,0,0,0,0,0,0,0,-1,930,1226,0,0
-287,-202,0,0,0,0,0,0,0,0,0,-1,937,1226,0,0
-280,-202,0,0,0,0,0,0,0,0,0,-1,944,1226,0,0
-273,-202,0,0,0,0,0,0,0,0,0,-1,951,1226,0,0
-266,-202,0,0,0,0,0,0,0,0,0,-1,958,1226,0,0
-259,-202,0,0,0,0,0,0,0,0,0,-1,965,1226,0,0
-252,-202,0,0,0,0,0,0,0,0,0,-1,972,1226,0,0
-245,-202,0,0,0,0,0,0,0,0,0,-1,979,1226,0,0
-238,-202,0,0,0,0,0,0,0,0,0,-1,986,1226,0,0
-231,-202,0,0,0,0,0,0,0,0,0,-1,993,1226,0,0
-224,-202,0,0,0,0,0,0,0,0,0,-1,1000,1226,0,0
-217,-202,0,0,0,0,0,0,0,0,0,-1,1007,1226,0,0
-210,-202,0,0,0,0,0,0,0,0,0,-1,1014,1226,0,0
-203,-202,0,0,0,0,0,0,0,0,0,-1,1021,1226,0,0
-196,-202,0,0,0,0,0,0,0,0,0,-1,1028,1226,0,0
-189,-202,0,0,0,0,0,0,0,0,0,-1,1035,1226,0,0
-182,-202,0,0,0,0,0,0,0,0,0,-1,1042,1226,0,0
-175,-202,0,0,0,0,0,0,0,0,0,-1,1049,1226,0,0
-168,-202,0,0,0,0,0,0,0,0,0,-1,1056,1226,0,0
-161,-202,0,0,0,0,0,0,0,0,0,-1,1063,1226,0,0
-154,-202,0,0,0,0,0,0,0,0,0,-1,1070,1226,0,0
-147,-202,0,0,0,0,0,0,0,0,0,-1,1077,1226,0,0
-140,-202,0,0,0,0,0,0,0,0,0,-1,1084,1226,0,0
-133,-202,0,0,0,0,0,0,0,0,0,-1,1091,1226,0,0
-126,-202,0,0,0,0,0,0,0,0,0,-1,1098,1226,0,0
-119,-202,0,0,0,0,0,0,0,0,0,-1,1105,1226,0,0
-112,-202,0,0,0,0,0,0,0,0,0,-1,1112,1226,0,0
-105,-202,0,0,0,0,0,0,0,0,0,-1,1119,1226,0,0
-98,-202,0,0,0,0,0,0,0,0,0,-1,1126,1226,0,0
-91,-202,0,0,0,0,0,0,0,0,0,-1,1133,1226,0,0
-84,-202,0,0,0,0,0,0,0,0,0,-1,1140,1226,0,0
-77,-202,0,0,0,0,0,0,0,0,0,-1,1147,1226,0,0
-70,-202,0,0,0,0,0,0,0,0,0,-1,1154,1226,0,0
-63,-202,0,0,0,0,0,0,0,0,0,-1,1161,1226,0,0
-56,-202,0,0,0,0,0,0,0,0,0,-1,1168,1226,0,0
-49,-202,0,0,0,0,0,0,0,0,0,-1,1175,1226,0,0
-42,-202,0,0,0,0,0,0,0,0,0,-1,1182,1226,0,0
-35,-202,0,0,0,0,0,0,0,0,0,-1,1189,1226,0,0
-28,-202,0,0,0,0,0,0,0,0,0,-1,1196,1226,0,0
-21,-202,0,0,0,0,0,0,0,0,0,-1,1203,1226,0,0
-14,-202,0,0,0,0,0,0,0,0,0,-1,1210,1226,0,0
-7,-202,0,0,0,0,0,0,0,0,0,-1,1217,1226,0,0
0,-202,0,0,0,0,0,0,0,0,0,-1,1224,1226,0,0
7,-202,0,0,0,0,0,0,0,0,0,-1,1231,1226,0,0
14,-202,0,0,0,0,0,0,0,0,0,-1,1238,1226,0,0
21,-202,0,0,0,0,0,0,0,0,0,-1,1245,1226,0,0
28,-202,0,0,0,0,0,0,0,0,0,-1,1252,1226,0,0
35,-202,0,0,0,0,0,0,0,0,0,-1,1259,1226,0,0
42,-202,0,0,0,0,0,0,0,0,0,-1,1266,1226,0,0
49,-202,0,0,0,0,0,0,0,0,0,-1,1273,1226,0,0
56,-202,0,0,0,0,0,0,0,0,0,-1,1280,1226,0,0
63,-202,0,0,0,0,0,0,0,0,0,-1,1287,1226,0,0
70,-202,0,0,0,0,0,0,0,0,0,-1,1294,1226,0,0
77,-202,0,0,0,0,0,0,0,0,0,-1,1301,1226,0,0
84,-202,0,0,0,0,0,0,0,0,0,-1,1308,1226,0,0
91,-202,0,0,0,0,0,0,0,0,0,-1,1315,1226,0,0
98,-202,0,0,0,0,0,0,0,0,0,-1,1322,1226,0,0
105,-202,0,0,0,0,0,0,0,0,0,-1,1329,1226,0,0
112,-202,0,0,0,0,0,0,0,0,0,-1,1336,1226,0,0
119,-202,0,0,0,0,0,0,0,0,0,-1,1343,1226,0,0
126,-202,0,0,0,0,0,0,0,0,0,-1,1350,1226,0,0
133,-202,0,0,0,0,0,0,0,0,0,-1,1357,1226,0,0
140,-202,0,0,0,0,0,0,0,0,0,-1,1364,1226,0,0
147,-202,0,0,0,0,0,0,0,0,0,-1,1371,1226,0,0
154,-202,0,0,0,0,0,0,0,0,0,-1,1378,1226,0,0
161,-202,0,0,0,0,0,0,0,0,0,-1,1385,1226,0,0
168,-202,0,0,0,0,0,0,0,0,0,-1,1392,1226,0,0
175,-202,0,0,0,0,0,0,0,0,0,-1,1399,1226,0,0
182,-202,0,0,0,0,0,0,0,0,0,-1,1406,1226,0,0
189,-202,0,0,0,0,0,0,0,0,0,-1,1413,1226,0,0
196,-202,0,0,0,0,0,0,0,0,0,-1,1420,1226,0,0
203,-202,0,0,0,0,0,0,0,0,0,-1,1427,1226,0,0
210,-202,0,0,0,0,0,0,0,0,0,-1,1434,1226,0,0
217,-202,0,0,0,0,0,0,0,0,0,-1,1441,1226,0,0
224,-202,0,0,0,0,0,0,0,0,0,-1,1448,1226,0,0
231,-202,0,0,0,0,0,0,0,0,0,-1,1455,1226,0,0
238,-202,0,0,0,0,0,0,0,0,0,-1,1462,1226,0,0
245,-202,0,0,0,0,0,0,0,0,0,-1,1469,1226,0,0
252,-202,0,0,0,0,0,0,0,0,0,-1,1476,1226,0,0
259,-202,0,0,0,0,0,0,0,0,0,-1,1483,1226,0,0
266,-202,0,0,0,0,0,0,0,0,0,-1,1490,1226,0,0
273,-202,0,0,0,0,0,0,0,0,0,-1,1497,1226,0,0
280,-202,0,0,0,0,0,0,0,0,0,-1,1504,1226,0,0
287,-202,0,0,0,0,0,0,0,0,0,-1,1511,1226,0,0
294,-202,0,0,0,0,0,0,0,0,0,-1,1518,1226,0,0
301,-202,0,0,0,0,0,0,0,0,0,-1,1525,1226,0,0
308,-202,0,0,0,0,0,0,0,0,0,-1,1532,1226,0,0
315,-202,0,0,0,0,0,0,0,0,0,-1,1539,1226,0,0
322,-202,0,0,0,0,0,0,0,0,0,-1,1546,1226,0,0
329,-202,0,0,0,0,0,0,0,0,0,-1,1553,1226,0,0
336,-202,0,0,0,0,0,0,0,0,0,-1,1560,1226,0,0
343,-202,0,0,0,0,0,0,0,0,0,-1,1567,1226,0,0
350,-202,0,0,0,0,0,0,0,0,0,-1,1574,1226,0,0
357,-202,0,0,0,0,0,0,0,0,0,-1,1581,1226,0,0
364,-202,0,0,0,0,0,0,0,0,0,-1,1588,1226,0,0
371,-202,0,0,0,0,0,0,0,0,0,-1,1595,1226,0,0
378,-202,0,0,0,0,0,0,0,0,0,-1,1602,1226,0,0
385,-202,0,0,0,0,0,0,0,0,0,-1,1609,1226,0,0
392,-202,0,0,0,0,0,0,0,0,0,-1,1616,1226,0,0
399,-202,0,0,0,0,0,0,0,0,0,-1,1623,1226,0,0
406,-202,0,0,0,0,0,0,0,0,0,-1,1630,1226,0,0
413,-202,0,0,0,0,0,0,0,0,0,-1,1637,1226,0,0
420,-202,0,0,0,0,0,0,0,0,0,-1,1644,1226,0,0
427,-202,0,0,0,0,0,0,0,0,0,-1,1651,1226,0,0
434,-202,0,0,0,0,0,0,0,0,0,-1,1658,1226,0,0
441,-202,0,0,0,0,0,0,0,0,0,-1,1665,1226,0,0
448,-202,0,0,0,0,0,0,0,0,0,-1,1672,1226,0,0
455,-202,0,0,0,0,0,0,0,0,0,-1,1679,1226,0,0
462,-202,0,0,0,0,0,0,0,0,0,-1,1686,1226,0,0
469,-202,0,0,0,0,0,0,0,0,0,-1,1693,1226,0,0
476,-202,0,0,0,0,0,0,0,0,0,-1,1700,1226,0,0
483,-202,0,0,0,0,0,0,0,0,0,-1,1707,1226,0,0
490,-202,0,0,0,0,0,0,0,0,0,-1,1714,1226,0,0
497,-202,0,0,0,0,0,0,0,0,0,-1,1721,1226,0,0
504,-202,0,0,0,0,0,0,0,0,0,-1,1728,1226,0,0
511,-202,0,0,0,0,0,0,0,0,0,-1,1735,1226,0,0
518,-202,0,0,0,0,0,0,0,0,0,-1,1742,1226,0,0
525,-202,0,0,0,0,0,0,0,0,0,-1,1749,1226,0,0
532,-202,0,0,0,0,0,0,0,0,0,-1,1756,1226,0,0
539,-202,0,0,0,0,0,0,0,0,0,-1,1763,1226,0,0
546,-202,0,0,0,0,0,0,0,0,0,-1,1770,1226,0,0
553,-202,0,0,0,0,0,0,0,0,0,-1,1777,1226,0,0
560,-202,0,0,0,0,0,0,0,0,0,-1,1784,1226,0,0
567,-202,0,0,0,0,0,0,0,0,0,-1,1791,1226,0,0
574,-202,0,0,0,0,0,0,0,0,0,-1,1798,1226,0,0
581,-202,0,0,0,0,0,0,0,0,0,-1,1805,1226,0,0
588,-202,0,0,0,0,0,0,0,0,0,-1,1812,1226,0,0
595,-202,0,0,0,0,0,0,0,0,0,-1,1819,1226,0,0
602,-202,0,0,0,0,0,0,0,0,0,-1,1826,1226,0,0
609,-202,0,0,0,0,0,0,0,0,0,-1,1833,1226,0,0
616,-202,0,0,0,0,0,0,0,0,0,-1,1840,1226,0,0
623,-202,0,0,0,0,0,0,0,0,0,-1,1847,1226,0,0
630,-202,55.0989,2.71399,-0.000982246,0.00178662,-0.00074943,0.00197645,-0.00117207,-1.32272,0.00183747,0.0366148,1854,1226,55.0988,-2.71395
637,-202,55.1241,2.67004,-0.000895951,0.00197674,-0.00100798,0.00229514,-0.00121435,-1.26484,0.00205798,0.033965,1861,1226,55.1242,-2.67007
644,-202,55.1306,2.60791,-0.000629377,0.00207692,-0.00137928,0.00265598,-0.00120843,-1.17332,0.0022827,0.0318382,1868,1226,55.1306,-2.6079
651,-202,55.1146,2.61462,-0.0003109,0.00193469,-0.00184594,0.00297248,-0.00134869,-1.05863,0.00255287,0.0249432,1875,1226,55.1146,-2.61467
658,-202,55.0916,2.61499,2.86064e-05,0.00165565,-0.00219223,0.00318043,-0.00149618,-0.963069,0.00275779,0.0212875,1882,1226,55.0916,-2.61504
665,-202,55.0995,2.5741,0.000330807,0.00112418,-0.00219775,0.00296076,-0.00150577,-0.874685,0.00262396,0.0210426,1889,1226,55.0995,-2.57415
672,-202,55.134,2.48596,0.000553996,0.000708763,-0.00206847,0.0027013,-0.00143854,-0.804095,0.00242691,0.0430853,1896,1226,55.1341,-2.48596
679,-202,55.1818,2.39807,0,0,0,0,0,0,0,-1,1903,1226,55.1817,-2.39811
686,-202,49.1708,2.15198,0,0,0,0,0,0,0,-1,1910,1226,49.1708,-2.15195
693,-202,44.2804,10.5959,0,0,0,0,0,0,0,-1,1917,1226,44.2804,-10.596
700,-202,44.4034,9.94019,0.000854296,-0.000319588,-0.00137151,0.00175918,-0.00122447,-0.583214,0.00173181,0.0466619,1924,1226,44.4034,-9.94014
707,-202,44.4817,9.21252,0.00102892,-0.000447049,-0.00136058,0.00183878,-0.0012569,-0.536902,0.00179779,0.0327629,1931,1226,44.4817,-9.21251
714,-202,44.4325,8.71777,0.00113724,-0.000481284,-0.00110327,0.00169623,-0.00104027,-0.468965,0.00159498,0.0289431,1938,1226,44.4325,-8.71779
721,-202,44.4607,8.37891,0.00108616,-0.000459576,-0.000558499,0.00126684,-0.000640252,-0.312877,0.00112069,0.0160097,1945,1226,44.4606,-8.3789
728,-202,44.4482,7.86914,0.00117306,-0.000364985,4.02223e-05,0.00117411,-0.000366036,0.0261278,0.000929105,0.0108925,1952,1226,44.4483,-7.86916
735,-202,44.4248,7.36072,0.0014387,-0.000477797,0.000674815,0.00165246,-0.000691562,0.306775,0.00139071,0.0113541,1959,1226,44.4248,-7.36077
742,-202,44.405,6.86707,0.00202045,-0.000487757,0.00133948,0.00260128,-0.00106859,0.409153,0.00217953,0.0128805,1966,1226,44.405,-6.8671
749,-202,44.3561,6.38562,0.00350487,-0.000270209,0.00181015,0.00423257,-0.000997901,0.382235,0.00320653,0.0131481,1973,1226,44.3561,-6.38563
756,-202,44.3591,5.91028,0.00637819,0.00035344,0.0016523,0.00680158,-6.99537e-05,0.250847,0.00455789,0.0125331,1980,1226,44.3591,-5.91028
763,-202,44.4337,5.45007,0.0108348,0.0011831,0.00109046,0.0109565,0.00106143,0.111115,0.00697748,0.0234127,1987,1226,44.4337,-5.45011
770,-202,44.4701,5.04504,0,0,0,0,0,0,0,-1,1994,1226,44.47,-5.04499
777,-202,53.3003,-4.00098,0,0,0,0,0,0,0,-1,2001,1226,53.3002,4.00099
784,-202,52.9231,-1.28162,0,0,0,0,0,0,0,-1,2008,1226,52.9232,1.28167
791,-202,52.2668,1.22656,0,0,0,0,0,0,0,-1,2015,1226,52.2668,-1.22651
798,-202,51.8999,3.58789,0,0,0,0,0,0,0,-1,2022,1226,51.9,-3.58791
805,-202,0,0,0,0,0,0,0,0,0,-1,2029,1226,0,0
812,-202,0,0,0,0,0,0,0,0,0,-1,2036,1226,0,0
-700,-209,0,0,0,0,0,0,0,0,0,-1,524,1233,0,0
-693,-209,0,0,0,0,0,0,0,0,0,-1,531,1233,0,0
-686,-209,0,0,0,0,0,0,0,0,0,-1,538,1233,0,0
-679,-209,-33.0417,1.2644,0,0,0,0,0,0,0,-1,545,1233,-33.0418,-1.26436
-672,-209,-33.1466,2.13696,0,0,0,0,0,0,0,-1,552,1233,-33.1466,-2.1369
-665,-209,-33.4254,3.1311,0,0,0,0,0,0,0,-1,559,1233,-33.4253,-3.13107
-658,-209,-33.5088,4.32886,0,0,0,0,0,0,0,-1,566,1233,-33.5088,-4.32891
-651,-209,-27.2171,0.730591,0,0,0,0,0,0,0,-1,573,1233,-27.2171,-0.730583
-644,-209,-29.2568,2.02795,0,0,0,0,0,0,0,-1,580,1233,-29.2568,-2.02799
-637,-209,-29.2376,2.15027,0,0,0,0,0,0,0,-1,587,1233,-29.2376,-2.15029
-630,-209,-29.2498,2.7439,-0.00963105,-0.021151,0.0206424,0.00603994,-0.036822,0.649341,0.0267892,0.0298423,594,1233,-29.2497,-2.74389
-623,-209,-29.3438,3.349,-0.00614809,-0.0131064,0.0125301,0.00337695,-0.0226314,0.649978,0.0163301,0.0140736,601,1233,-29.3438,-3.34895
-616,-209,-29.3861,3.9325,-0.00253901,-0.00635781,0.00555854,0.00142893,-0.0103258,0.619959,0.00740624,0.0128874,608,1233,-29.3861,-3.93246
-609,-209,-29.4006,4.48462,-6.77508e-06,-0.00194013,0.000964748,0.000392273,-0.00233917,0.3922,0.00170531,0.0147793,615,1233,-29.4006,-4.48464
-602,-209,-29.4387,5.00464,0.00126064,-0.000302584,-0.000925547,0.00169045,-0.000732399,-0.434756,0.00143483,0.0169188,622,1233,-29.4387,-5.00466
-595,-209,-29.4414,5.5332,0.000718913,-0.000432796,-0.00109753,0.00138248,-0.00109637,-0.543798,0.00143434,0.0123699,629,1233,-29.4414,-5.53317
-588,-209,-29.4303,6.12146,0.000982365,-0.00121245,-0.00130891,0.00159304,-0.00182313,-0.436533,0.00197382,0.0207258,636,1233,-29.4303,-6.12142
-581,-209,-29.4025,6.7157,0,0,0,0,0,0,0,-1,643,1233,-29.4024,-6.71568
-574,-209,-26.2147,6.6123,0,0,0,0,0,0,0,-1,650,1233,-26.2147,-6.61234
-567,-209,-26.2951,6.92981,0,0,0,0,0,0,0,-1,657,1233,-26.2951,-6.92986
-560,-209,-13.9294,4.16626,0,0,0,0,0,0,0,-1,664,1233,-13.9294,-4.16621
-553,-209,-22.7542,0.748779,0,0,0,0,0,0,0,-1,671,1233,-22.7541,-0.748796
-546,-209,-41.6793,1.45959,0,0,0,0,0,0,0,-1,678,1233,-41.6793,-1.45961
-539,-209,-41.3226,1.21936,0.00326252,-0.00488622,-0.00355065,0.00459256,-0.00621626,-0.358411,0.0062639,0.0424477,685,1233,-41.3225,-1.21937
-532,-209,-40.9531,0.959717,0.00314121,-0.00513256,-0.00407674,0.00481239,-0.00680374,-0.389038,0.00673934,0.0342327,692,1233,-40.9531,-0.959746
-525,-209,-41.0303,0.928101,0.00282535,-0.00518529,-0.00453396,0.00486977,-0.00722971,-0.423613,0.00702979,0.0358895,699,1233,-41.0303,-0.928053
-518,-209,-41.1277,0.982178,0,0,0,0,0,0,0,-1,706,1233,-41.1278,-0.982139
-511,-209,-41.3177,1.09851,0,0,0,0,0,0,0,-1,713,1233,-41.3177,-1.09848
-504,-209,0,0,0,0,0,0,0,0,0,-1,720,1233,0,0
-497,-209,0,0,0,0,0,0,0,0,0,-1,727,1233,0,0
-490,-209,0,0,0,0,0,0,0,0,0,-1,734,1233,0,0
-483,-209,0,0,0,0,0,0,0,0,0,-1,741,1233,0,0
-476,-209,0,0,0,0,0,0,0,0,0,-1,748,1233,0,0
-469,-209,0,0,0,0,0,0,0,0,0,-1,755,1233,0,0
-462,-209,0,0,0,0,0,0,0,0,0,-1,762,1233,0,0
-455,-209,0,0,0,0,0,0,0,0,0,-1,769,1233,0,0
-448,-209,0,0,0,0,0,0,0,0,0,-1,776,1233,0,0
-441,-209,0,0,0,0,0,0,0,0,0,-1,783,1233,0,0
-434,-209,0,0,0,0,0,0,0,0,0,-1,790,1233,0,0
-427,-209,0,0,0,0,0,0,0,0,0,-1,797,1233,0,0
-420,-209,0,0,0,0,0,0,0,0,0,-1,804,1233,0,0
-413,-209,0,0,0,0,0,0,0,0,0,-1,811,1233,0,0
-406,-209,0,0,0,0,0,0,0,0,0,-1,818,1233,0,0
-399,-209,0,0,0,0,0,0,0,0,0,-1,825,1233,0,0
-392,-209,0,0,0,0,0,0,0,0,0,-1,832,1233,0,0
-385,-209,0,0,0,0,0,0,0,0,0,-1,839,1233,0,0
-378,-209,0,0,0,0,0,0,0,0,0,-1,846,1233,0,0
-371,-209,0,0,0,0,0,0,0,0,0,-1,853,1233,0,0
-364,-209,0,0,0,0,0,0,0,0,0,-1,860,1233,0,0
-357,-209,0,0,0,0,0,0,0,0,0,-1,867,1233,0,0
-350,-209,0,0,0,0,0,0,0,0,0,-1,874,1233,0,0
-343,-209,0,0,0,0,0,0,0,0,0,-1,881,1233,0,0
-336,-209,0,0,0,0,0,0,0,0,0,-1,888,1233,0,0
-329,-209,0,0,0,0,0,0,0,0,0,-1,895,1233,0,0
-322,-209,0,0,0,0,0,0,0,0,0,-1,902,1233,0,0
-315,-209,0,0,0,0,0,0,0,0,0,-1,909,1233,0,0
-308,-209,0,0,0,0,0,0,0,0,0,-1,916,1233,0,0
-301,-209,0,0,0,0,0,0,0,0,0,-1,923,1233,0,0
-294,-209,0,0,0,0,0,0,0,0,0,-1,930,1233,0,0
-287,-209,0,0,0,0,0,0,0,0,0,-1,937,1233,0,0
-280,-209,0,0,0,0,0,0,0,0,0,-1,944,1233,0,0
-273,-209,0,0,0,0,0,0,0,0,0,-1,951,1233,0,0
-266,-209,0,0,0,0,0,0,0,0,0,-1,958,1233,0,0
-259,-209,0,0,0,0,0,0,0,0,0,-1,965,1233,0,0
-252,-209,0,0,0,0,0,0,0,0,0,-1,972,1233,0,0
-245,-209,0,0,0,0,0,0,0,0,0,-1,979,1233,0,0
-238,-209,0,0,0,0,0,0,0,0,0,-1,986,1233,0,0
-231,-209,0,0,0,0,0,0,0,0,0,-1,993,1233,0,0
-224,-209,0,0,0,0,0,0,0,0,0,-1,1000,1233,0,0
-217,-209,0,0,0,0,0,0,0,0,0,-1,1007,1233,0,0
-210,-209,0,0,0,0,0,0,0,0,0,-1,1014,1233,0,0
-203,-209,0,0,0,0,0,0,0,0,0,-1,1021,1233,0,0
-196,-209,0,0,0,0,0,0,0,0,0,-1,1028,1233,0,0
-189,-209,0,0,0,0,0,0,0,0,0,-1,1035,1233,0,0
-182,-209,0,0,0,0,0,0,0,0,0,-1,1042,1233,0,0
-175,-209,0,0,0,0,0,0,0,0,0,-1,1049,1233,0,0
-168,-209,0,0,0,0,0,0,0,0,0,-1,1056,1233,0,0
-161,-209,0,0,0,0,0,0,0,0,0,-1,1063,1233,0,0
-154,-209,0,0,0,0,0,0,0,0,0,-1,1070,1233,0,0
-147,-209,0,0,0,0,0,0,0,0,0,-1,1077,1233,0,0
-140,-209,0,0,0,0,0,0,0,0,0,-1,1084,1233,0,0
-133,-209,0,0,0,0,0,0,0,0,0,-1,1091,1233,0,0
-126,-209,0,0,0,0,0,0,0,0,0,-1,1098,1233,0,0
-119,-209,0,0,0,0,0,0,0,0,0,-1,1105,1233,0,0
-112,-209,0,0,0,0,0,0,0,0,0,-1,1112,1233,0,0
-105,-209,0,0,0,0,0,0,0,0,0,-1,1119,1233,0,0
-98,-209,0,0,0,0,0,0,0,0,0,-1,1126,1233,0,0
-91,-209,0,0,0,0,0,0,0,0,0,-1,1133,1233,0,0
-84,-209,0,0,0,0,0,0,0,0,0,-1,1140,1233,0,0
-77,-209,0,0,0,0,0,0,0,0,0,-1,1147,1233,0,0
-70,-209,0,0,0,0,0,0,0,0,0,-1,1154,1233,0,0
-63,-209,0,0,0,0,0,0,0,0,0,-1,1161,1233,0,0
-56,-209,0,0,0,0,0,0,0,0,0,-1,1168,1233,0,0
-49,-209,0,0,0,0,0,0,0,0,0,-1,1175,1233,0,0
-42,-209,0,0,0,0,0,0,0,0,0,-1,1182,1233,0,0
-35,-209,0,0,0,0,0,0,0,0,0,-1,1189,1233,0,0
-28,-209,0,0,0,0,0,0,0,0,0,-1,1196,1233,0,0
-21,-209,0,0,0,0,0,0,0,0,0,-1,1203,1233,0,0
-14,-209,0,0,0,0,0,0,0,0,0,-1,1210,1233,0,0
-7,-209,0,0,0,0,0,0,0,0,0,-1,1217,1233,0,0
0,-209,0,0,0,0,0,0,0,0,0,-1,1224,1233,0,0
7,-209,0,0,0,0,0,0,0,0,0,-1,1231,1233,0,0
14,-209,0,0,0,0,0,0,0,0,0,-1,1238,1233,0,0
21,-209,0,0,0,0,0,0,0,0,0,-1,1245,1233,0,0
28,-209,0,0,0,0,0,0,0,0,0,-1,1252,1233,0,0
35,-209,0,0,0,0,0,0,0,0,0,-1,1259,1233,0,0
42,-209,0,0,0,0,0,0,0,0,0,-1,1266,1233,0,0
49,-209,0,0,0,0,0,0,0,0,0,-1,1273,1233,0,0
56,-209,0,0,0,0,0,0,0,0,0,-1,1280,1233,0,0
63,-209,0,0,0,0,0,0,0,0,0,-1,1287,1233,0,0
70,-209,0,0,0,0,0,0,0,0,0,-1,1294,1233,0,0
77,-209,0,0,0,0,0,0,0,0,0,-1,1301,1233,0,0
84,-209,0,0,0,0,0,0,0,0,0,-1,1308,1233,0,0
91,-209,0,0,0,0,0,0,0,0,0,-1,1315,1233,0,0
98,-209,0,0,0,0,0,0,0,0,0,-1,1322,1233,0,0
105,-209,0,0,0,0,0,0,0,0,0,-1,1329,1233,0,0
112,-209,0,0,0,0,0,0,0,0,0,-1,1336,1233,0,0
119,-209,0,0,0,0,0,0,0,0,0,-1,1343,1233,0,0
126,-209,0,0,0,0,0,0,0,0,0,-1,1350,1233,0,0
133,-209,0,0,0,0,0,0,0,0,0,-1,1357,1233,0,0
140,-209,0,0,0,0,0,0,0,0,0,-1,1364,1233,0,0
147,-209,0,0,0,0,0,0,0,0,0,-1,1371,1233,0,0
154,-209,0,0,0,0,0,0,0,0,0,-1,1378,1233,0,0
161,-209,0,0,0,0,0,0,0,0,0,-1,1385,1233,0,0
168,-209,0,0,0,0,0,0,0,0,0,-1,1392,1233,0,0
175,-209,0,0,0,0,0,0,0,0,0,-1,1399,1233,0,0
182,-209,0,0,0,0,0,0,0,0,0,-1,1406,1233,0,0
189,-209,0,0,0,0,0,0,0,0,0,-1,1413,1233,0,0
196,-209,0,0,0,0,0,0,0,0,0,-1,1420,1233,0,0
203,-209,0,0,0,0,0,0,0,0,0,-1,1427,1233,0,0
210,-209,0,0,0,0,0,0,0,0,0,-1,1434,1233,0,0
217,-209,0,0,0,0,0,0,0,0,0,-1,1441,1233,0,0
224,-209,0,0,0,0,0,0,0,0,0,-1,1448,1233,0,0
231,-209,0,0,0,0,0,0,0,0,0,-1,1455,1233,0,0
238,-209,0,0,0,0,0,0,0,0,0,-1,1462,1233,0,0
245,-209,0,0,0,0,0,0,0,0,0,-1,1469,1233,0,0
252,-209,0,0,0,0,0,0,0,0,0,-1,1476,1233,0,0
259,-209,0,0,0,0,0,0,0,0,0,-1,1483,1233,0,0
266,-209,0,0,0,0,0,0,0,0,0,-1,1490,1233,0,0
273,-209,0,0,0,0,0,0,0,0,0,-1,1497,1233,0,0
280,-209,0,0,0,0,0,0,0,0,0,-1,1504,1233,0,0
287,-209,0,0,0,0,0,0,0,0,0,-1,1511,1233,0,0
294,-209,0,0,0,0,0,0,0,0,0,-1,1518,1233,0,0
301,-209,0,0,0,0,0,0,0,0,0,-1,1525,1233,0,0
308,-209,0,0,0,0,0,0,0,0,0,-1,1532,1233,0,0
315,-209,0,0,0,0,0,0,0,0,0,-1,1539,1233,0,0
322,-209,0,0,0,0,0,0,0,0,0,-1,1546,1233,0,0
329,-209,0,0,0,0,0,0,0,0,0,-1,1553,1233,0,0
336,-209,0,0,0,0,0,0,0,0,0,-1,1560,1233,0,0
343,-209,0,0,0,0,0,0,0,0,0,-1,1567,1233,0,0
350,-209,0,0,0,0,0,0,0,0,0,-1,1574,1233,0,0
357,-209,0,0,0,0,0,0,0,0,0,-1,1581,1233,0,0
364,-209,0,0,0,0,0,0,0,0,0,-1,1588,1233,0,0
371,-209,0,0,0,0,0,0,0,0,0,-1,1595,1233,0,0
378,-209,0,0,0,0,0,0,0,0,0,-1,1602,1233,0,0
385,-209,0,0,0,0,0,0,0,0,0,-1,1609,1233,0,0
392,-209,0,0,0,0,0,0,0,0,0,-1,1616,1233,0,0
399,-209,0,0,0,0,0,0,0,0,0,-1,1623,1233,0,0
406,-209,0,0,0,0,0,0,0,0,0,-1,1630,1233,0,0
413,-209,0,0,0,0,0,0,0,0,0,-1,1637,1233,0,0
420,-209,0,0,0,0,0,0,0,0,0,-1,1644,1233,0,0
427,-209,0,0,0,0,0,0,0,0,0,-1,1651,1233,0,0
434,-209,0,0,0,0,0,0,0,0,0,-1,1658,1233,0,0
441,-209,0,0,0,0,0,0,0,0,0,-1,1665,1233,0,0
448,-209,0,0,0,0,0,0,0,0,0,-1,1672,1233,0,0
455,-209,0,0,0,0,0,0,0,0,0,-1,1679,1233,0,0
462,-209,0,0,0,0,0,0,0,0,0,-1,1686,1233,0,0
469,-209,0,0,0,0,0,0,0,0,0,-1,1693,1233,0,0
476,-209,0,0,0,0,0,0,0,0,0,-1,1700,1233,0,0
483,-209,0,0,0,0,0,0,0,0,0,-1,1707,1233,0,0
490,-209,0,0,0,0,0,0,0,0,0,-1,1714,1233,0,0
497,-209,0,0,0,0,0,0,0,0,0,-1,1721,1233,0,0
504,-209,0,0,0,0,0,0,0,0,0,-1,1728,1233,0,0
511,-209,0,0,0,0,0,0,0,0,0,-1,1735,1233,0,0
518,-209,0,0,0,0,0,0,0,0,0,-1,1742,1233,0,0
525,-209,0,0,0,0,0,0,0,0,0,-1,1749,1233,0,0
532,-209,0,0,0,0,0,0,0,0,0,-1,1756,1233,0,0
539,-209,0,0,0,0,0,0,0,0,0,-1,1763,1233,0,0
546,-209,0,0,0,0,0,0,0,0,0,-1,1770,1233,0,0
553,-209,0,0,0,0,0,0,0,0,0,-1,1777,1233,0,0
560,-209,0,0,0,0,0,0,0,0,0,-1,1784,1233,0,0
567,-209,0,0,0,0,0,0,0,0,0,-1,1791,1233,0,0
574,-209,0,0,0,0,0,0,0,0,0,-1,1798,1233,0,0
581,-209,0,0,0,0,0,0,0,0,0,-1,1805,1233,0,0
588,-209,0,0,0,0,0,0,0,0,0,-1,1812,1233,0,0
595,-209,0,0,0,0,0,0,0,0,0,-1,1819,1233,0,0
602,-209,0,0,0,0,0,0,0,0,0,-1,1826,1233,0,0
609,-209,0,0,0,0,0,0,0,0,0,-1,1833,1233,0,0
616,-209,0,0,0,0,0,0,0,0,0,-1,1840,1233,0,0
623,-209,54.9934,2.7334,-0.00157443,0.0014605,0.000169797,0.00146997,-0.0015839,1.51508,0.00176356,0.0327286,1847,1233,54.9934,-2.73341
630,-209,55.0066,2.70508,-0.00151207,0.00205772,-0.000669167,0.00217904,-0.00163338,-1.39145,0.0022086,0.0348761,1854,1233,55.0066,-2.70506
637,-209,55.0739,2.64246,-0.00131245,0.0025715,-0.00151025,0.00308963,-0.00183059,-1.2403,0.00287153,0.0341105,1861,1233,55.0738,-2.64241
644,-209,55.0857,2.60046,-0.000930015,0.00287255,-0.00232743,0.00397656,-0.00203403,-1.12788,0.00353011,0.0290596,1868,1233,55.0857,-2.60049
651,-209,55.0537,2.58618,-0.000606013,0.00267557,-0.00285009,0.00432343,-0.00225387,-1.04658,0.00385955,0.0229046,1875,1233,55.0537,-2.58619
658,-209,55.0585,2.59509,-0.000254205,0.00226168,-0.00301749,0.00427294,-0.00226546,-0.982886,0.0038338,0.0202398,1882,1233,55.0585,-2.59515
665,-209,55.127,2.57849,5.09585e-05,0.00161944,-0.00280856,0.0037512,-0.0020808,-0.921547,0.00341283,0.0336726,1889,1233,55.1269,-2.57847
672,-209,55.1539,2.67712,0.0002707,0.00112892,-0.00250661,0.00324288,-0.00184326,-0.870173,0.00297332,0.0476126,1896,1233,55.154,-2.67713
679,-209,55.2465,2.78674,0,0,0,0,0,0,0,-1,1903,1233,55.2464,-2.78678
686,-209,33.3711,3.89856,0,0,0,0,0,0,0,-1,1910,1233,33.3711,-3.89855
693,-209,43.809,10.728,0,0,0,0,0,0,0,-1,1917,1233,43.809,-10.7281
700,-209,43.8754,10.0095,0.000656357,-0.000400333,-0.001413,0.00163656,-0.00138053,-0.606487,0.00174401,0.0443732,1924,1233,43.8754,-10.0095
707,-209,43.9102,9.35535,0.000787171,-0.000565339,-0.00137521,0.0016434,-0.00142157,-0.556886,0.00177111,0.0356654,1931,1233,43.9102,-9.35538
714,-209,43.9191,8.91089,0.000802702,-0.000606292,-0.00107048,0.00137971,-0.0011833,-0.49437,0.0014812,0.0208524,1938,1233,43.9191,-8.91084
721,-209,43.9528,8.39258,0.000662545,-0.000565644,-0.000476674,0.000825837,-0.000728936,-0.330037,0.00089823,0.013487,1945,1233,43.9528,-8.3926
728,-209,43.9757,7.90015,0.000638885,-0.000435417,0.000196455,0.000673683,-0.000470215,0.175311,0.000663903,0.0134119,1952,1233,43.9757,-7.90017
735,-209,43.9634,7.40552,0.000683265,-0.000465434,0.000913732,0.00118817,-0.000970336,0.504815,0.00124833,0.0155708,1959,1233,43.9634,-7.40551
742,-209,43.922,6.88696,0.000845551,-0.000394842,0.00166535,0.00200244,-0.00155174,0.607149,0.0020575,0.0153246,1966,1233,43.9221,-6.88691
749,-209,43.8663,6.38904,0.00154446,-0.000229063,0.00231968,0.00314109,-0.0018257,0.60283,0.00290091,0.013846,1973,1233,43.8663,-6.38908
756,-209,43.8658,5.91333,0.00310379,0.000103457,0.00259835,0.00460394,-0.0013967,0.523598,0.00362567,0.0125921,1980,1233,43.8658,-5.91328
763,-209,43.8501,5.47888,0.00577568,0.000541894,0.00266028,0.00689044,-0.000572867,0.39681,0.004796,0.0242795,1987,1233,43.85,-5.47882
770,-209,43.9169,5.13635,0,0,0,0,0,0,0,-1,1994,1233,43.9169,-5.13631
777,-209,49.8105,-3.45435,0,0,0,0,0,0,0,-1,2001,1233,49.8106,3.45429
784,-209,53.6729,-0.603394,0,0,0,0,0,0,0,-1,2008,1233,53.6728,0.603386
791,-209,53.6887,1.53479,0,0,0,0,0,0,0,-1,2015,1233,53.6887,-1.53478
798,-209,53.6404,3.71179,0,0,0,0,0,0,0,-1,2022,1233,53.6404,-3.71185
805,-209,0,0,0,0,0,0,0,0,0,-1,2029,1233,0,0
812,-209,0,0,0,0,0,0,0,0,0,-1,2036,1233,0,0
-700,-216,0,0,0,0,0,0,0,0,0,-1,524,1240,0,0
-693,-216,0,0,0,0,0,0,0,0,0,-1,531,1240,0,0
-686,-216,0,0,0,0,0,0,0,0,0,-1,538,1240,0,0
-679,-216,-37.0311,-5.80054,0,0,0,0,0,0,0,-1,545,1240,-37.0311,5.80055
-672,-216,-33.4537,1.63782,0,0,0,0,0,0,0,-1,552,1240,-33.4537,-1.6378
-665,-216,-33.8674,3.21411,0,0,0,0,0,0,0,-1,559,1240,-33.8674,-3.21407
-658,-216,-34.2813,4.79041,0,0,0,0,0,0,0,-1,566,1240,-34.2812,-4.79035
-651,-216,-37.6235,-3.32495,0,0,0,0,0,0,0,-1,573,1240,-37.6235,3.3249
-644,-216,-27.3541,1.91699,0,0,0,0,0,0,0,-1,580,1240,-27.3541,-1.91702
-637,-216,-28.6567,2.1239,0,0,0,0,0,0,0,-1,587,1240,-28.6568,-2.12389
-630,-216,-28.6633,2.77722,-0.0145668,-0.0245209,0.0244054,0.00536384,-0.0444515,0.684812,0.0315745,0.0382914,594,1240,-28.6633,-2.7772
-623,-216,-28.7568,3.40967,-0.00943471,-0.0156311,0.0154906,0.00326446,-0.0283302,0.686698,0.0200637,0.0168975,601,1240,-28.7568,-3.4097
-616,-216,-28.8398,3.97021,-0.00443198,-0.0080001,0.00764589,0.00163524,-0.0140673,0.670781,0.0099681,0.0138663,608,1240,-28.8398,-3.97017
-609,-216,-28.8669,4.52161,-0.000864709,-0.00276502,0.00224724,0.000624992,-0.00425472,0.585392,0.00306612,0.0140343,615,1240,-28.867,-4.52166
-602,-216,-28.8707,5.02136,0.00131431,-0.00039068,-0.000408955,0.00140732,-0.000483696,-0.223645,0.00113436,0.0140347,622,1240,-28.8706,-5.02141
-595,-216,-28.8417,5.54871,0.00122328,-0.000282867,-0.000905186,0.0016477,-0.000707282,-0.438436,0.00139532,0.0193524,629,1240,-28.8416,-5.54872
-588,-216,-28.8754,6.11877,0.0015138,-0.00106145,-0.00101224,0.00186404,-0.00141169,-0.333112,0.00189725,0.0214274,636,1240,-28.8754,-6.11878
-581,-216,-28.8618,6.73987,0.00210162,-0.00183821,-0.00146431,0.00258625,-0.00232284,-0.319612,0.00283562,0.039214,643,1240,-28.8618,-6.7399
-574,-216,-28.7332,7.18823,0,0,0,0,0,0,0,-1,650,1240,-28.7332,-7.18828
-567,-216,-29.3939,8.30139,0,0,0,0,0,0,0,-1,657,1240,-29.3939,-8.3014
-560,-216,-16.5087,5.4574,0,0,0,0,0,0,0,-1,664,1240,-16.5087,-5.45746
-553,-216,-16.2355,1.22351,0,0,0,0,0,0,0,-1,671,1240,-16.2356,-1.22356
-546,-216,-37.1617,-0.25415,0,0,0,0,0,0,0,-1,678,1240,-37.1618,0.254161
-539,-216,-41.4377,1.30432,0,0,0,0,0,0,0,-1,685,1240,-41.4377,-1.30433
-532,-216,-40.9198,0.978027,0,0,0,0,0,0,0,-1,692,1240,-40.9198,-0.978042
-525,-216,-40.8873,0.928711,0,0,0,0,0,0,0,-1,699,1240,-40.8873,-0.928718
-518,-216,-41.5361,1.58765,0,0,0,0,0,0,0,-1,706,1240,-41.5361,-1.5877
-511,-216,-41.3656,1.24292,5.94139e-05,-0.00304966,-0.00553039,0.00424959,-0.00723984,-0.648389,0.0067079,0.0445453,713,1240,-41.3656,-1.24287
-504,-216,-41.0677,0.803833,0.00225024,-0.0028037,-0.003345,0.00391548,-0.00446894,-0.461909,0.00484426,0.0426457,720,1240,-41.0677,-0.803833
-497,-216,0,0,0,0,0,0,0,0,0,-1,727,1240,0,0
-490,-216,0,0,0,0,0,0,0,0,0,-1,734,1240,0,0
-483,-216,0,0,0,0,0,0,0,0,0,-1,741,1240,0,0
-476,-216,0,0,0,0,0,0,0,0,0,-1,748,1240,0,0
-469,-216,0,0,0,0,0,0,0,0,0,-1,755,1240,0,0
-462,-216,0,0,0,0,0,0,0,0,0,-1,762,1240,0,0
-455,-216,0,0,0,0,0,0,0,0,0,-1,769,1240,0,0
-448,-216,0,0,0,0,0,0,0,0,0,-1,776,1240,0,0
-441,-216,0,0,0,0,0,0,0,0,0,-1,783,1240,0,0
-434,-216,0,0,0,0,0,0,0,0,0,-1,790,1240,0,0
-427,-216,0,0,0,0,0,0,0,0,0,-1,797,1240,0,0
-420,-216,0,0,0,0,0,0,0,0,0,-1,804,1240,0,0
-413,-216,0,0,0,0,0,0,0,0,0,-1,811,1240,0,0
-406,-216,0,0,0,0,0,0,0,0,0,-1,818,1240,0,0
-399,-216,0,0,0,0,0,0,0,0,0,-1,825,1240,0,0
-392,-216,0,0,0,0,0,0,0,0,0,-1,832,1240,0,0
-385,-216,0,0,0,0,0,0,0,0,0,-1,839,1240,0,0
-378,-216,0,0,0,0,0,0,0,0,0,-1,846,1240,0,0
-371,-216,0,0,0,0,0,0,0,0,0,-1,853,1240,0,0
-364,-216,0,0,0,0,0,0,0,0,0,-1,860,1240,0,0
-357,-216,0,0,0,0,0,0,0,0,0,-1,867,1240,0,0
-350,-216,0,0,0,0,0,0,0,0,0,-1,874,1240,0,0
-343,-216,0,0,0,0,0,0,0,0,0,-1,881,1240,0,0
-336,-216,0,0,0,0,0,0,0,0,0,-1,888,1240,0,0
-329,-216,0,0,0,0,0,0,0,0,0,-1,895,1240,0,0
-322,-216,0,0,0,0,0,0,0,0,0,-1,902,1240,0,0
-315,-216,0,0,0,0,0,0,0,0,0,-1,909,1240,0,0
-308,-216,0,0,0,0,0,0,0,0,0,-1,916,1240,0,0
-301,-216,0,0,0,0,0,0,0,0,0,-1,923,1240,0,0
-294,-216,0,0,0,0,0,0,0,0,0,-1,930,1240,0,0
-287,-216,0,0,0,0,0,0,0,0,0,-1,937,1240,0,0
-280,-216,0,0,0,0,0,0,0,0,0,-1,944,1240,0,0
-273,-216,0,0,0,0,0,0,0,0,0,-1,951,1240,0,0
-266,-216,0,0,0,0,0,0,0,0,0,-1,958,1240,0,0
-259,-216,0,0,0,0,0,0,0,0,0,-1,965,1240,0,0
-252,-216,0,0,0,0,0,0,0,0,0,-1,972,1240,0,0
-245,-216,0,0,0,0,0,0,0,0,0,-1,979,1240,0,0
-238,-216,0,0,0,0,0,0,0,0,0,-1,986,1240,0,0
-231,-216,0,0,0,0,0,0,0,0,0,-1,993,1240,0,0
-224,-216,0,0,0,0,0,0,0,0,0,-1,1000,1240,0,0
-217,-216,0,0,0,0,0,0,0,0,0,-1,1007,1240,0,0
-210,-216,0,0,0,0,0,0,0,0,0,-1,1014,1240,0,0
-203,-216,0,0,0,0,0,0,0,0,0,-1,1021,1240,0,0
-196,-216,0,0,0,0,0,0,0,0,0,-1,1028,1240,0,0
-189,-216,0,0,0,0,0,0,0,0,0,-1,1035,1240,0,0
-182,-216,0,0,0,0,0,0,0,0,0,-1,1042,1240,0,0
-175,-216,0,0,0,0,0,0,0,0,0,-1,1049,1240,0,0
-168,-216,0,0,0,0,0,0,0,0,0,-1,1056,1240,0,0
-161,-216,0,0,0,0,0,0,0,0,0,-1,1063,1240,0,0
-154,-216,0,0,0,0,0,0,0,0,0,-1,1070,1240,0,0
-147,-216,0,0,0,0,0,0,0,0,0,-1,1077,1240,0,0
-140,-216,0,0,0,0,0,0,0,0,0,-1,1084,1240,0,0
-133,-216,0,0,0,0,0,0,0,0,0,-1,1091,1240,0,0
-126,-216,0,0,0,0,0,0,0,0,0,-1,1098,1240,0,0
-119,-216,0,0,0,0,0,0,0,0,0,-1,1105,1240,0,0
-112,-216,0,0,0,0,0,0,0,0,0,-1,1112,1240,0,0
-105,-216,0,0,0,0,0,0,0,0,0,-1,1119,1240,0,0
-98,-216,0,0,0,0,0,0,0,0,0,-1,1126,1240,0,0
-91,-216,0,0,0,0,0,0,0,0,0,-1,1133,1240,0,0
-84,-216,0,0,0,0,0,0,0,0,0,-1,1140,1240,0,0
-77,-216,0,0,0,0,0,0,0,0,0,-1,1147,1240,0,0
-70,-216,0,0,0,0,0,0,0,0,0,-1,1154,1240,0,0
-63,-216,0,0,0,0,0,0,0,0,0,-1,1161,1240,0,0
-56,-216,0,0,0,0,0,0,0,0,0,-1,1168,1240,0,0
-49,-216,0,0,0,0,0,0,0,0,0,-1,1175,1240,0,0
-42,-216,0,0,0,0,0,0,0,0,0,-1,1182,1240,0,0
-35,-216,0,0,0,0,0,0,0,0,0,-1,1189,1240,0,0
-28,-216,0,0,0,0,0,0,0,0,0,-1,1196,1240,0,0
-21,-216,0,0,0,0,0,0,0,0,0,-1,1203,1240,0,0
-14,-216,0,0,0,0,0,0,0,0,0,-1,1210,1240,0,0
-7,-216,0,0,0,0,0,0,0,0,0,-1,1217,1240,0,0
0,-216,0,0,0,0,0,0,0,0,0,-1,1224,1240,0,0
7,-216,0,0,0,0,0,0,0,0,0,-1,1231,1240,0,0
14,-216,0,0,0,0,0,0,0,0,0,-1,1238,1240,0,0
21,-216,0,0,0,0,0,0,0,0,0,-1,1245,1240,0,0
28,-216,0,0,0,0,0,0,0,0,0,-1,1252,1240,0,0
35,-216,0,0,0,0,0,0,0,0,0,-1,1259,1240,0,0
42,-216,0,0,0,0,0,0,0,0,0,-1,1266,1240,0,0
49,-216,0,0,0,0,0,0,0,0,0,-1,1273,1240,0,0
56,-216,0,0,0,0,0,0,0,0,0,-1,1280,1240,0,0
63,-216,0,0,0,0,0,0,0,0,0,-1,1287,1240,0,0
70,-216,0,0,0,0,0,0,0,0,0,-1,1294,1240,0,0
77,-216,0,0,0,0,0,0,0,0,0,-1,1301,1240,0,0
84,-216,0,0,0,0,0,0,0,0,0,-1,1308,1240,0,0
91,-216,0,0,0,0,0,0,0,0,0,-1,1315,1240,0,0
98,-216,0,0,0,0,0,0,0,0,0,-1,1322,1240,0,0
105,-216,0,0,0,0,0,0,0,0,0,-1,1329,1240,0,0
112,-216,0,0,0,0,0,0,0,0,0,-1,1336,1240,0,0
119,-216,0,0,0,0,0,0,0,0,0,-1,1343,1240,0,0
126,-216,0,0,0,0,0,0,0,0,0,-1,1350,1240,0,0
133,-216,0,0,0,0,0,0,0,0,0,-1,1357,1240,0,0
140,-216,0,0,0,0,0,0,0,0,0,-1,1364,1240,0,0
147,-216,0,0,0,0,0,0,0,0,0,-1,1371,1240,0,0
154,-216,0,0,0,0,0,0,0,0,0,-1,1378,1240,0,0
161,-216,0,0,0,0,0,0,0,0,0,-1,1385,1240,0,0
168,-216,0,0,0,0,0,0,0,0,0,-1,1392,1240,0,0
175,-216,0,0,0,0,0,0,0,0,0,-1,1399,1240,0,0
182,-216,0,0,0,0,0,0,0,0,0,-1,1406,1240,0,0
189,-216,0,0,0,0,0,0,0,0,0,-1,1413,1240,0,0
196,-216,0,0,0,0,0,0,0,0,0,-1,1420,1240,0,0
203,-216,0,0,0,0,0,0,0,0,0,-1,1427,1240,0,0
210,-216,0,0,0,0,0,0,0,0,0,-1,1434,1240,0,0
217,-216,0,0,0,0,0,0,0,0,0,-1,1441,1240,0,0
224,-216,0,0,0,0,0,0,0,0,0,-1,1448,1240,0,0
231,-216,0,0,0,0,0,0,0,0,0,-1,1455,1240,0,0
238,-216,0,0,0,0,0,0,0,0,0,-1,1462,1240,0,0
245,-216,0,0,0,0,0,0,0,0,0,-1,1469,1240,0,0
252,-216,0,0,0,0,0,0,0,0,0,-1,1476,1240,0,0
259,-216,0,0,0,0,0,0,0,0,0,-1,1483,1240,0,0
266,-216,0,0,0,0,0,0,0,0,0,-1,1490,1240,0,0
273,-216,0,0,0,0,0,0,0,0,0,-1,1497,1240,0,0
280,-216,0,0,0,0,0,0,0,0,0,-1,1504,1240,0,0
287,-216,0,0,0,0,0,0,0,0,0,-1,1511,1240,0,0
294,-216,0,0,0,0,0,0,0,0,0,-1,1518,1240,0,0
301,-216,0,0,0,0,0,0,0,0,0,-1,1525,1240,0,0
308,-216,0,0,0,0,0,0,0,0,0,-1,1532,1240,0,0
315,-216,0,0,0,0,0,0,0,0,0,-1,1539,1240,0,0
322,-216,0,0,0,0,0,0,0,0,0,-1,1546,1240,0,0
329,-216,0,0,0,0,0,0,0,0,0,-1,1553,1240,0,0
336,-216,0,0,0,0,0,0,0,0,0,-1,1560,1240,0,0
343,-216,0,0,0,0,0,0,0,0,0,-1,1567,1240,0,0
350,-216,0,0,0,0,0,0,0,0,0,-1,1574,1240,0,0
357,-216,0,0,0,0,0,0,0,0,0,-1,1581,1240,0,0
364,-216,0,0,0,0,0,0,0,0,0,-1,1588,1240,0,0
371,-216,0,0,0,0,0,0,0,0,0,-1,1595,1240,0,0
378,-216,0,0,0,0,0,0,0,0,0,-1,1602,1240,0,0
385,-216,0,0,0,0,0,0,0,0,0,-1,1609,1240,0,0
392,-216,0,0,0,0,0,0,0,0,0,-1,1616,1240,0,0
399,-216,0,0,0,0,0,0,0,0,0,-1,1623,1240,0,0
406,-216,0,0,0,0,0,0,0,0,0,-1,1630,1240,0,0
413,-216,0,0,0,0,0,0,0,0,0,-1,1637,1240,0,0
420,-216,0,0,0,0,0,0,0,0,0,-1,1644,1240,0,0
427,-216,0,0,0,0,0,0,0,0,0,-1,1651,1240,0,0
434,-216,0,0,0,0,0,0,0,0,0,-1,1658,1240,0,0
441,-216,0,0,0,0,0,0,0,0,0,-1,1665,1240,0,0
448,-216,0,0,0,0,0,0,0,0,0,-1,1672,1240,0,0
455,-216,0,0,0,0,0,0,0,0,0,-1,1679,1240,0,0
462,-216,0,0,0,0,0,0,0,0,0,-1,1686,1240,0,0
469,-216,0,0,0,0,0,0,0,0,0,-1,1693,1240,0,0
476,-216,0,0,0,0,0,0,0,0,0,-1,1700,1240,0,0
483,-216,0,0,0,0,0,0,0,0,0,-1,1707,1240,0,0
490,-216,0,0,0,0,0,0,0,0,0,-1,1714,1240,0,0
497,-216,0,0,0,0,0,0,0,0,0,-1,1721,1240,0,0
504,-216,0,0,0,0,0,0,0,0,0,-1,1728,1240,0,0
511,-216,0,0,0,0,0,0,0,0,0,-1,1735,1240,0,0
518,-216,0,0,0,0,0,0,0,0,0,-1,1742,1240,0,0
525,-216,0,0,0,0,0,0,0,0,0,-1,1749,1240,0,0
532,-216,0,0,0,0,0,0,0,0,0,-1,1756,1240,0,0
539,-216,0,0,0,0,0,0,0,0,0,-1,1763,1240,0,0
546,-216,0,0,0,0,0,0,0,0,0,-1,1770,1240,0,0
553,-216,0,0,0,0,0,0,0,0,0,-1,1777,1240,0,0
560,-216,0,0,0,0,0,0,0,0,0,-1,1784,1240,0,0
567,-216,0,0,0,0,0,0,0,0,0,-1,1791,1240,0,0
574,-216,0,0,0,0,0,0,0,0,0,-1,1798,1240,0,0
581,-216,0,0,0,0,0,0,0,0,0,-1,1805,1240,0,0
588,-216,0,0,0,0,0,0,0,0,0,-1,1812,1240,0,0
595,-216,0,0,0,0,0,0,0,0,0,-1,1819,1240,0,0
602,-216,0,0,0,0,0,0,0,0,0,-1,1826,1240,0,0
609,-216,0,0,0,0,0,0,0,0,0,-1,1833,1240,0,0
616,-216,0,0,0,0,0,0,0,0,0,-1,1840,1240,0,0
623,-216,55.0527,2.69873,-0.00256833,0.00138927,0.000684674,0.00150437,-0.00268343,1.40424,0.00244956,0.0361042,1847,1240,55.0527,-2.69871
630,-216,54.9907,2.69727,-0.00200886,0.00232428,-0.000648274,0.00241919,-0.00210377,-1.42543,0.00261345,0.0342458,1854,1240,54.9907,-2.69727
637,-216,55.022,2.65918,-0.00137708,0.00314299,-0.00193168,0.00385602,-0.00209012,-1.21718,0.0034831,0.0304486,1861,1240,55.022,-2.65914
644,-216,55.0569,2.65906,-0.000649439,0.00356355,-0.00297323,0.00510087,-0.00218676,-1.0936,0.00431819,0.0244668,1868,1240,55.0568,-2.6591
651,-216,55.0261,2.59485,-0.000341501,0.0032443,-0.00337423,0.00527239,-0.00236959,-1.0296,0.00451695,0.0215698,1875,1240,55.0262,-2.59482
658,-216,55.0602,2.63281,-6.42288e-05,0.00271033,-0.00337767,0.00497452,-0.00232842,-0.980255,0.00430762,0.031795,1882,1240,55.0601,-2.63279
665,-216,55.1632,2.67493,0.000142737,0.00201918,-0.00305932,0.00428091,-0.00211899,-0.934184,0.0037646,0.0441404,1889,1240,55.1632,-2.67488
672,-216,55.2795,2.62817,0,0,0,0,0,0,0,-1,1896,1240,55.2796,-2.6282
679,-216,47.3159,3.82703,0,0,0,0,0,0,0,-1,1903,1240,47.316,-3.82708
686,-216,21.5172,6.19458,0,0,0,0,0,0,0,-1,1910,1240,21.5172,-6.19453
693,-216,44.0118,10.2555,0,0,0,0,0,0,0,-1,1917,1240,44.0118,-10.2554
700,-216,43.5375,9.94421,0.000611972,-0.000421299,-0.00134492,0.00153607,-0.0013454,-0.602019,0.00166483,0.041027,1924,1240,43.5374,-9.94416
707,-216,43.4039,9.44031,0.000657871,-0.000571919,-0.00125882,0.00144395,-0.001358,-0.558208,0.00161796,0.0369696,1931,1240,43.404,-9.4403
714,-216,43.4567,8.91199,0.000568761,-0.000601633,-0.000886764,0.00104602,-0.00107889,-0.493738,0.00122686,0.0149468,1938,1240,43.4566,-8.91195
721,-216,43.4711,8.42834,0.000360016,-0.000539074,-0.000248166,0.000423966,-0.000603024,-0.252203,0.000595929,0.0137715,1945,1240,43.471,-8.42838
728,-216,43.4988,7.91528,0.000240011,-0.000388526,0.000490881,0.000508605,-0.000657121,0.500666,0.00067485,0.0130035,1952,1240,43.4988,-7.91524
735,-216,43.5142,7.40466,0.000150251,-0.00036504,0.00126472,0.0011833,-0.00139809,0.684914,0.00149208,0.0140501,1959,1240,43.5141,-7.40463
742,-216,43.4283,6.92383,0.000141366,-0.000272393,0.00205474,0.00199962,-0.00213064,0.735225,0.00238501,0.0155049,1966,1240,43.4283,-6.92389
749,-216,43.3971,6.39807,0.000350967,-0.000220057,0.00283397,0.00291377,-0.00278286,0.735195,0.00328925,0.0122907,1973,1240,43.3971,-6.3981
756,-216,43.3674,5.89026,0.000873115,-0.000243254,0.0035233,0.00388217,-0.00325231,0.706838,0.00412445,0.0119188,1980,1240,43.3674,-5.89026
763,-216,43.3234,5.48035,0.00207039,-0.000365077,0.00420462,0.00523007,-0.00352475,0.644445,0.00508646,0.0208568,1987,1240,43.3233,-5.48032
770,-216,43.4158,5.18262,0,0,0,0,0,0,0,-1,1994,1240,43.4158,-5.18267
777,-216,43.571,4.87048,0,0,0,0,0,0,0,-1,2001,1240,43.571,-4.87047
784,-216,51.8208,-0.443726,0,0,0,0,0,0,0,-1,2008,1240,51.8208,0.443779
791,-216,55.1682,1.76636,0,0,0,0,0,0,0,-1,2015,1240,55.1682,-1.76635
798,-216,0,0,0,0,0,0,0,0,0,-1,2022,1240,0,0
805,-216,0,0,0,0,0,0,0,0,0,-1,2029,1240,0,0
812,-216,0,0,0,0,0,0,0,0,0,-1,2036,1240,0,0
-700,-223,0,0,0,0,0,0,0,0,0,-1,524,1247,0,0
-693,-223,0,0,0,0,0,0,0,0,0,-1,531,1247,0,0
-686,-223,0,0,0,0,0,0,0,0,0,-1,538,1247,0,0
-679,-223,0,0,0,0,0,0,0,0,0,-1,545,1247,0,0
-672,-223,-33.4503,2.20239,-0.0955372,-0.120073,0.117612,0.010445,-0.226055,0.733432,0.154303,0.0491289,552,1247,-33.4502,-2.20237
-665,-223,-34.4696,3.60889,-0.0812055,-0.103023,0.101289,0.00976092,-0.193989,0.731756,0.1327,0.0451114,559,1247,-34.4696,-3.60884
-658,-223,-35.5076,5.03894,-0.0663592,-0.085798,0.0847511,0.00922804,-0.161385,0.728307,0.110794,0.0481509,566,1247,-35.5076,-5.03889
-651,-223,-36.411,6.55054,0,0,0,0,0,0,0,-1,573,1247,-36.411,-6.55056
-644,-223,-38.563,-3.12415,0,0,0,0,0,0,0,-1,580,1247,-38.563,3.12416
-637,-223,-37.1149,-1.51843,0,0,0,0,0,0,0,-1,587,1247,-37.1149,1.51847
-630,-223,-28.1167,2.83582,0,0,0,0,0,0,0,-1,594,1247,-28.1167,-2.83578
-623,-223,-28.2883,3.45459,-0.0127059,-0.0180796,0.0183414,0.0031444,-0.0339299,0.71267,0.0237376,0.0272725,601,1247,-28.2884,-3.45458
-616,-223,-28.294,3.94531,-0.00634064,-0.00957927,0.00963515,0.00181032,-0.0177302,0.702145,0.0124675,0.015486,608,1247,-28.294,-3.94526
-609,-223,-28.297,4.50757,-0.00178134,-0.00365703,0.00354498,0.000947755,-0.00638612,0.656082,0.00460595,0.0122149,615,1247,-28.297,-4.5076
-602,-223,-28.3178,5.00732,0.00126419,-0.000559102,0.000173751,0.0012806,-0.000575512,0.0941658,0.0010971,0.015673,622,1247,-28.3178,-5.00736
-595,-223,-28.3001,5.58545,0.00168348,-0.000166354,-0.000704529,0.00192125,-0.000404121,-0.325481,0.00143464,0.0223054,629,1247,-28.3001,-5.58543
-588,-223,-28.334,6.19092,0.00201281,-0.000909898,-0.000768918,0.00220275,-0.00109984,-0.242182,0.00194187,0.0244386,636,1247,-28.334,-6.19091
-581,-223,-28.4205,6.72656,0.00262773,-0.00165871,-0.00119594,0.00293883,-0.00196981,-0.254487,0.00285235,0.0226169,643,1247,-28.4205,-6.72659
-574,-223,-28.4383,7.22681,0.00299741,-0.00240408,-0.00151232,0.00339201,-0.00279867,-0.255231,0.00357966,0.0286752,650,1247,-28.4383,-7.22684
-567,-223,-28.4033,7.85925,0.00352839,-0.00345329,-0.00142988,0.00380989,-0.00373479,-0.194381,0.00435599,0.0446217,657,1247,-28.4032,-7.85919
-560,-223,-28.5696,8.50623,0,0,0,0,0,0,0,-1,664,1247,-28.5697,-8.50624
-553,-223,-11.4025,4.14722,0,0,0,0,0,0,0,-1,671,1247,-11.4025,-4.14719
-546,-223,-26.9034,-0.148682,0,0,0,0,0,0,0,-1,678,1247,-26.9034,0.14867
-539,-223,-36.7405,0.35376,0,0,0,0,0,0,0,-1,685,1247,-36.7405,-0.353807
-532,-223,-39.1525,0.761719,0,0,0,0,0,0,0,-1,692,1247,-39.1525,-0.761714
-525,-223,-40.7741,0.81189,0,0,0,0,0,0,0,-1,699,1247,-40.7741,-0.811837
-518,-223,-41.1971,1.1311,0,0,0,0,0,0,0,-1,706,1247,-41.1971,-1.13111
-511,-223,-41.1683,1.06226,-0.00306223,-0.00178474,-0.00633836,0.00394698,-0.00879395,-0.835616,0.00753132,0.0415201,713,1247,-41.1683,-1.0622
-504,-223,-41.0827,0.926025,-0.00289397,-0.00105544,-0.0056938,0.00379283,-0.00774224,-0.865433,0.00678864,0.0408213,720,1247,-41.0827,-0.92604
-497,-223,0,0,0,0,0,0,0,0,0,-1,727,1247,0,0
-490,-223,0,0,0,0,0,0,0,0,0,-1,734,1247,0,0
-483,-223,0,0,0,0,0,0,0,0,0,-1,741,1247,0,0
-476,-223,0,0,0,0,0,0,0,0,0,-1,748,1247,0,0
-469,-223,0,0,0,0,0,0,0,0,0,-1,755,1247,0,0
-462,-223,0,0,0,0,0,0,0,0,0,-1,762,1247,0,0
-455,-223,0,0,0,0,0,0,0,0,0,-1,769,1247,0,0
-448,-223,0,0,0,0,0,0,0,0,0,-1,776,1247,0,0
-441,-223,0,0,0,0,0,0,0,0,0,-1,783,1247,0,0
-434,-223,0,0,0,0,0,0,0,0,0,-1,790,1247,0,0
-427,-223,0,0,0,0,0,0,0,0,0,-1,797,1247,0,0
-420,-223,0,0,0,0,0,0,0,0,0,-1,804,1247,0,0
-413,-223,0,0,0,0,0,0,0,0,0,-1,811,1247,0,0
-406,-223,0,0,0,0,0,0,0,0,0,-1,818,1247,0,0
-399,-223,0,0,0,0,0,0,0,0,0,-1,825,1247,0,0
-392,-223,0,0,0,0,0,0,0,0,0,-1,832,1247,0,0
-385,-223,0,0,0,0,0,0,0,0,0,-1,839,1247,0,0
-378,-223,0,0,0,0,0,0,0,0,0,-1,846,1247,0,0
-371,-223,0,0,0,0,0,0,0,0,0,-1,853,1247,0,0
-364,-223,0,0,0,0,0,0,0,0,0,-1,860,1247,0,0
-357,-223,0,0,0,0,0,0,0,0,0,-1,867,1247,0,0
-350,-223,0,0,0,0,0,0,0,0,0,-1,874,1247,0,0
-343,-223,0,0,0,0,0,0,0,0,0,-1,881,1247,0,0
-336,-223,0,0,0,0,0,0,0,0,0,-1,888,1247,0,0
-329,-223,0,0,0,0,0,0,0,0,0,-1,895,1247,0,0
-322,-223,0,0,0,0,0,0,0,0,0,-1,902,1247,0,0
-315,-223,0,0,0,0,0,0,0,0,0,-1,909,1247,0,0
-308,-223,0,0,0,0,0,0,0,0,0,-1,916,1247,0,0
-301,-223,0,0,0,0,0,0,0,0,0,-1,923,1247,0,0
-294,-223,0,0,0,0,0,0,0,0,0,-1,930,1247,0,0
-287,-223,0,0,0,0,0,0,0,0,0,-1,937,1247,0,0
-280,-223,0,0,0,0,0,0,0,0,0,-1,944,1247,0,0
-273,-223,0,0,0,0,0,0,0,0,0,-1,951,1247,0,0
-266,-223,0,0,0,0,0,0,0,0,0,-1,958,1247,0,0
-259,-223,0,0,0,0,0,0,0,0,0,-1,965,1247,0,0
-252,-223,0,0,0,0,0,0,0,0,0,-1,972,1247,0,0
-245,-223,0,0,0,0,0,0,0,0,0,-1,979,1247,0,0
-238,-223,0,0,0,0,0,0,0,0,0,-1,986,1247,0,0
-231,-223,0,0,0,0,0,0,0,0,0,-1,993,1247,0,0
-224,-223,0,0,0,0,0,0,0,0,0,-1,1000,1247,0,0
-217,-223,0,0,0,0,0,0,0,0,0,-1,1007,1247,0,0
-210,-223,0,0,0,0,0,0,0,0,0,-1,1014,1247,0,0
-203,-223,0,0,0,0,0,0,0,0,0,-1,1021,1247,0,0
-196,-223,0,0,0,0,0,0,0,0,0,-1,1028,1247,0,0
-189,-223,0,0,0,0,0,0,0,0,0,-1,1035,1247,0,0
-182,-223,0,0,0,0,0,0,0,0,0,-1,1042,1247,0,0
-175,-223,0,0,0,0,0,0,0,0,0,-1,1049,1247,0,0
-168,-223,0,0,0,0,0,0,0,0,0,-1,1056,1247,0,0
-161,-223,0,0,0,0,0,0,0,0,0,-1,1063,1247,0,0
-154,-223,0,0,0,0,0,0,0,0,0,-1,1070,1247,0,0
-147,-223,0,0,0,0,0,0,0,0,0,-1,1077,1247,0,0
-140,-223,0,0,0,0,0,0,0,0,0,-1,1084,1247,0,0
-133,-223,0,0,0,0,0,0,0,0,0,-1,1091,1247,0,0
-126,-223,0,0,0,0,0,0,0,0,0,-1,1098,1247,0,0
-119,-223,0,0,0,0,0,0,0,0,0,-1,1105,1247,0,0
-112,-223,0,0,0,0,0,0,0,0,0,-1,1112,1247,0,0
-105,-223,0,0,0,0,0,0,0,0,0,-1,1119,1247,0,0
-98,-223,0,0,0,0,0,0,0,0,0,-1,1126,1247,0,0
-91,-223,0,0,0,0,0,0,0,0,0,-1,1133,1247,0,0
-84,-223,0,0,0,0,0,0,0,0,0,-1,1140,1247,0,0
-77,-223,0,0,0,0,0,0,0,0,0,-1,1147,1247,0,0
-70,-223,0,0,0,0,0,0,0,0,0,-1,1154,1247,0,0
-63,-223,0,0,0,0,0,0,0,0,0,-1,1161,1247,0,0
-56,-223,0,0,0,0,0,0,0,0,0,-1,1168,1247,0,0
-49,-223,0,0,0,0,0,0,0,0,0,-1,1175,1247,0,0
-42,-223,0,0,0,0,0,0,0,0,0,-1,1182,1247,0,0
-35,-223,0,0,0,0,0,0,0,0,0,-1,1189,1247,0,0
-28,-223,0,0,0,0,0,0,0,0,0,-1,1196,1247,0,0
-21,-223,0,0,0,0,0,0,0,0,0,-1,1203,1247,0,0
-14,-223,0,0,0,0,0,0,0,0,0,-1,1210,1247,0,0
-7,-223,0,0,0,0,0,0,0,0,0,-1,1217,1247,0,0
0,-223,0,0,0,0,0,0,0,0,0,-1,1224,1247,0,0
7,-223,0,0,0,0,0,0,0,0,0,-1,1231,1247,0,0
14,-223,0,0,0,0,0,0,0,0,0,-1,1238,1247,0,0
21,-223,0,0,0,0,0,0,0,0,0,-1,1245,1247,0,0
28,-223,0,0,0,0,0,0,0,0,0,-1,1252,1247,0,0
35,-223,0,0,0,0,0,0,0,0,0,-1,1259,1247,0,0
42,-223,0,0,0,0,0,0,0,0,0,-1,1266,1247,0,0
49,-223,0,0,0,0,0,0,0,0,0,-1,1273,1247,0,0
56,-223,0,0,0,0,0,0,0,0,0,-1,1280,1247,0,0
63,-223,0,0,0,0,0,0,0,0,0,-1,1287,1247,0,0
70,-223,0,0,0,0,0,0,0,0,0,-1,1294,1247,0,0
77,-223,0,0,0,0,0,0,0,0,0,-1,1301,1247,0,0
84,-223,0,0,0,0,0,0,0,0,0,-1,1308,1247,0,0
91,-223,0,0,0,0,0,0,0,0,0,-1,1315,1247,0,0
98,-223,0,0,0,0,0,0,0,0,0,-1,1322,1247,0,0
105,-223,0,0,0,0,0,0,0,0,0,-1,1329,1247,0,0
112,-223,0,0,0,0,0,0,0,0,0,-1,1336,1247,0,0
119,-223,0,0,0,0,0,0,0,0,0,-1,1343,1247,0,0
126,-223,0,0,0,0,0,0,0,0,0,-1,1350,1247,0,0
133,-223,0,0,0,0,0,0,0,0,0,-1,1357,1247,0,0
140,-223,0,0,0,0,0,0,0,0,0,-1,1364,1247,0,0
147,-223,0,0,0,0,0,0,0,0,0,-1,1371,1247,0,0
154,-223,0,0,0,0,0,0,0,0,0,-1,1378,1247,0,0
161,-223,0,0,0,0,0,0,0,0,0,-1,1385,1247,0,0
168,-223,0,0,0,0,0,0,0,0,0,-1,1392,1247,0,0
175,-223,0,0,0,0,0,0,0,0,0,-1,1399,1247,0,0
182,-223,0,0,0,0,0,0,0,0,0,-1,1406,1247,0,0
189,-223,0,0,0,0,0,0,0,0,0,-1,1413,1247,0,0
196,-223,0,0,0,0,0,0,0,0,0,-1,1420,1247,0,0
203,-223,0,0,0,0,0,0,0,0,0,-1,1427,1247,0,0
210,-223,0,0,0,0,0,0,0,0,0,-1,1434,1247,0,0
217,-223,0,0,0,0,0,0,0,0,0,-1,1441,1247,0,0
224,-223,0,0,0,0,0,0,0,0,0,-1,1448,1247,0,0
231,-223,0,0,0,0,0,0,0,0,0,-1,1455,1247,0,0
238,-223,0,0,0,0,0,0,0,0,0,-1,1462,1247,0,0
245,-223,0,0,0,0,0,0,0,0,0,-1,1469,1247,0,0
252,-223,0,0,0,0,0,0,0,0,0,-1,1476,1247,0,0
259,-223,0,0,0,0,0,0,0,0,0,-1,1483,1247,0,0
266,-223,0,0,0,0,0,0,0,0,0,-1,1490,1247,0,0
273,-223,0,0,0,0,0,0,0,0,0,-1,1497,1247,0,0
280,-223,0,0,0,0,0,0,0,0,0,-1,1504,1247,0,0
287,-223,0,0,0,0,0,0,0,0,0,-1,1511,1247,0,0
294,-223,0,0,0,0,0,0,0,0,0,-1,1518,1247,0,0
301,-223,0,0,0,0,0,0,0,0,0,-1,1525,1247,0,0
308,-223,0,0,0,0,0,0,0,0,0,-1,1532,1247,0,0
315,-223,0,0,0,0,0,0,0,0,0,-1,1539,1247,0,0
322,-223,0,0,0,0,0,0,0,0,0,-1,1546,1247,0,0
329,-223,0,0,0,0,0,0,0,0,0,-1,1553,1247,0,0
336,-223,0,0,0,0,0,0,0,0,0,-1,1560,1247,0,0
343,-223,0,0,0,0,0,0,0,0,0,-1,1567,1247,0,0
350,-223,0,0,0,0,0,0,0,0,0,-1,1574,1247,0,0
357,-223,0,0,0,0,0,0,0,0,0,-1,1581,1247,0,0
364,-223,0,0,0,0,0,0,0,0,0,-1,1588,1247,0,0
371,-223,0,0,0,0,0,0,0,0,0,-1,1595,1247,0,0
378,-223,0,0,0,0,0,0,0,0,0,-1,1602,1247,0,0
385,-223,0,0,0,0,0,0,0,0,0,-1,1609,1247,0,0
392,-223,0,0,0,0,0,0,0,0,0,-1,1616,1247,0,0
399,-223,0,0,0,0,0,0,0,0,0,-1,1623,1247,0,0
406,-223,0,0,0,0,0,0,0,0,0,-1,1630,1247,0,0
413,-223,0,0,0,0,0,0,0,0,0,-1,1637,1247,0,0
420,-223,0,0,0,0,0,0,0,0,0,-1,1644,1247,0,0
427,-223,0,0,0,0,0,0,0,0,0,-1,1651,1247,0,0
434,-223,0,0,0,0,0,0,0,0,0,-1,1658,1247,0,0
441,-223,0,0,0,0,0,0,0,0,0,-1,1665,1247,0,0
448,-223,0,0,0,0,0,0,0,0,0,-1,1672,1247,0,0
455,-223,0,0,0,0,0,0,0,0,0,-1,1679,1247,0,0
462,-223,0,0,0,0,0,0,0,0,0,-1,1686,1247,0,0
469,-223,0,0,0,0,0,0,0,0,0,-1,1693,1247,0,0
476,-223,0,0,0,0,0,0,0,0,0,-1,1700,1247,0,0
483,-223,0,0,0,0,0,0,0,0,0,-1,1707,1247,0,0
490,-223,0,0,0,0,0,0,0,0,0,-1,1714,1247,0,0
497,-223,0,0,0,0,0,0,0,0,0,-1,1721,1247,0,0
504,-223,0,0,0,0,0,0,0,0,0,-1,1728,1247,0,0
511,-223,0,0,0,0,0,0,0,0,0,-1,1735,1247,0,0
518,-223,0,0,0,0,0,0,0,0,0,-1,1742,1247,0,0
525,-223,0,0,0,0,0,0,0,0,0,-1,1749,1247,0,0
532,-223,0,0,0,0,0,0,0,0,0,-1,1756,1247,0,0
539,-223,0,0,0,0,0,0,0,0,0,-1,1763,1247,0,0
546,-223,0,0,0,0,0,0,0,0,0,-1,1770,1247,0,0
553,-223,0,0,0,0,0,0,0,0,0,-1,1777,1247,0,0
560,-223,0,0,0,0,0,0,0,0,0,-1,1784,1247,0,0
567,-223,0,0,0,0,0,0,0,0,0,-1,1791,1247,0,0
574,-223,0,0,0,0,0,0,0,0,0,-1,1798,1247,0,0
581,-223,0,0,0,0,0,0,0,0,0,-1,1805,1247,0,0
588,-223,0,0,0,0,0,0,0,0,0,-1,1812,1247,0,0
595,-223,0,0,0,0,0,0,0,0,0,-1,1819,1247,0,0
602,-223,0,0,0,0,0,0,0,0,0,-1,1826,1247,0,0
609,-223,0,0,0,0,0,0,0,0,0,-1,1833,1247,0,0
616,-223,0,0,0,0,0,0,0,0,0,-1,1840,1247,0,0
623,-223,55.0632,2.64526,-0.00286429,0.00190907,0.000917104,0.00207921,-0.00303443,1.38736,0.00296948,0.0370751,1847,1247,55.0632,-2.64524
630,-223,54.9934,2.65332,-0.00219102,0.00322981,-0.000997076,0.00340739,-0.0023686,-1.39454,0.0033527,0.0336569,1854,1247,54.9935,-2.65335
637,-223,54.9788,2.6438,-0.00141113,0.00432794,-0.00278829,0.00545951,-0.0025427,-1.18528,0.00472127,0.0279061,1861,1247,54.9787,-2.64383
644,-223,55.022,2.59961,-0.000597742,0.00467975,-0.00390988,0.00675801,-0.002676,-1.08224,0.00561412,0.0221666,1868,1247,55.022,-2.59958
651,-223,55.0272,2.55627,-0.000391271,0.00409252,-0.00403246,0.0064644,-0.00276314,-1.0391,0.00546851,0.0287888,1875,1247,55.0273,-2.55631
658,-223,55.0837,2.76489,0,0,0,0,0,0,0,-1,1882,1247,55.0837,-2.76486
665,-223,55.188,2.74695,0,0,0,0,0,0,0,-1,1889,1247,55.188,-2.74698
672,-223,55.2922,2.72913,0,0,0,0,0,0,0,-1,1896,1247,55.2922,-2.72909
679,-223,43.2783,2.46973,0,0,0,0,0,0,0,-1,1903,1247,43.2784,-2.46978
686,-223,40.7926,10.0316,0,0,0,0,0,0,0,-1,1910,1247,40.7926,-10.0316
693,-223,43.5032,10.1957,0,0,0,0,0,0,0,-1,1917,1247,43.5032,-10.1957
700,-223,43.1196,9.86218,0.000584655,-0.000499742,-0.00122505,0.00138213,-0.00129722,-0.57706,0.00154719,0.0312809,1924,1247,43.1197,-9.8622
707,-223,42.9572,9.40906,0.000534789,-0.000674728,-0.00107462,0.00116314,-0.00130308,-0.529104,0.00142463,0.026303,1931,1247,42.9572,-9.4091
714,-223,42.9761,8.922,0.000302543,-0.000681435,-0.000621272,0.000603039,-0.000981931,-0.450505,0.000923757,0.0123516,1938,1247,42.9761,-8.92196
721,-223,42.9762,8.41089,-3.49609e-05,-0.000584736,7.31328e-05,-2.53988e-05,-0.000594298,0.130011,0.00038801,0.0152079,1945,1247,42.9762,-8.41084
728,-223,42.9565,7.91345,-0.000358464,-0.000413503,0.000883238,0.000497684,-0.00126965,0.769824,0.00105232,0.0182745,1952,1247,42.9565,-7.91345
735,-223,42.9388,7.43787,-0.000677139,-0.000362237,0.00172813,0.0012156,-0.00225497,0.830828,0.00203346,0.0172343,1959,1247,42.9389,-7.4379
742,-223,42.8811,6.98633,-0.000945191,-0.000271235,0.00258334,0.00199701,-0.00321344,0.850253,0.00303546,0.0155035,1966,1247,42.8811,-6.98633
749,-223,42.8774,6.42517,-0.00105321,-0.000190369,0.00343016,0.0028354,-0.00407898,0.847956,0.00401348,0.0127874,1973,1247,42.8775,-6.42519
756,-223,42.8308,5.90356,-0.00102058,-0.000133759,0.0042124,0.00365851,-0.00481284,0.837837,0.00490605,0.0154679,1980,1247,42.8309,-5.90358
763,-223,42.7985,5.4895,-0.000502141,-9.45455e-05,0.00502614,0.00473193,-0.00532862,0.805661,0.00581186,0.0227088,1987,1247,42.7985,-5.48955
770,-223,42.9132,5.22571,0,0,0,0,0,0,0,-1,1994,1247,42.9132,-5.22566
777,-223,42.4672,5.29602,0,0,0,0,0,0,0,-1,2001,1247,42.4671,-5.29602
784,-223,54.1208,-0.293457,0,0,0,0,0,0,0,-1,2008,1247,54.1208,0.293477
791,-223,34.7136,2.92554,0,0,0,0,0,0,0,-1,2015,1247,34.7137,-2.92555
798,-223,0,0,0,0,0,0,0,0,0,-1,2022,1247,0,0
805,-223,0,0,0,0,0,0,0,0,0,-1,2029,1247,0,0
812,-223,0,0,0,0,0,0,0,0,0,-1,2036,1247,0,0
-700,-230,0,0,0,0,0,0,0,0,0,-1,524,1254,0,0
-693,-230,0,0,0,0,0,0,0,0,0,-1,531,1254,0,0
-686,-230,0,0,0,0,0,0,0,0,0,-1,538,1254,0,0
-679,-230,0,0,0,0,0,0,0,0,0,-1,545,1254,0,0
-672,-230,-33.895,3.13806,-0.123214,-0.137242,0.131642,0.0016003,-0.262056,0.758783,0.17524,0.0466276,552,1254,-33.895,-3.138
-665,-230,-34.9182,4.62256,-0.103056,-0.116854,0.113103,0.00335781,-0.223268,0.754936,0.149977,0.043185,559,1254,-34.9182,-4.62258
-658,-230,-36.3386,5.94019,-0.0829558,-0.0966207,0.0945786,0.0050368,-0.184613,0.74934,0.124788,0.0448713,566,1254,-36.3386,-5.9402
-651,-230,-37.3264,7.49634,-0.0650473,-0.0778129,0.0768491,0.00568368,-0.148544,0.743965,0.100977,0.0476577,573,1254,-37.3264,-7.49634
-644,-230,-38.0501,9.0769,0,0,0,0,0,0,0,-1,580,1254,-38.0501,-9.07692
-637,-230,-38.0911,-1.91528,0,0,0,0,0,0,0,-1,587,1254,-38.0911,1.91533
-630,-230,-27.8602,2.77795,0,0,0,0,0,0,0,-1,594,1254,-27.8602,-2.77794
-623,-230,-27.7714,3.4176,-0.0154031,-0.0201958,0.0211128,0.00344891,-0.0390478,0.728889,0.0272543,0.0315614,601,1254,-27.7714,-3.41764
-616,-230,-27.7108,3.97229,-0.00765064,-0.0107511,0.0115439,0.00244665,-0.0208484,0.718653,0.0147821,0.0163822,608,1254,-27.7108,-3.9723
-609,-230,-27.7253,4.51526,-0.0021921,-0.00419021,0.00482955,0.00174065,-0.00812296,0.683405,0.00607916,0.0118683,615,1254,-27.7253,-4.51524
-602,-230,-27.7488,5.03528,0.00146483,-0.000489364,0.000805218,0.00175386,-0.000778401,0.34463,0.00149773,0.0117229,622,1254,-27.7489,-5.03533
-595,-230,-27.7857,5.6167,0.00222376,0.000144954,-0.000482947,0.00233048,3.82349e-05,-0.21748,0.00154107,0.0199003,629,1254,-27.7857,-5.61674
-588,-230,-27.7974,6.24414,0.0025154,-0.000620415,-0.000572365,0.0026166,-0.00072162,-0.175009,0.0020282,0.0275,636,1254,-27.7974,-6.24413
-581,-230,-27.791,6.81458,0.00314793,-0.00141887,-0.0010041,0.00335896,-0.00162989,-0.207144,0.00293741,0.023921,643,1254,-27.791,-6.81454
-574,-230,-27.7808,7.24426,0.00363389,-0.00224081,-0.00133355,0.00392244,-0.00252935,-0.213087,0.00375377,0.0250196,650,1254,-27.7808,-7.24425
-567,-230,-27.7272,7.72644,0.004271,-0.00330487,-0.00132104,0.00449475,-0.00352862,-0.16778,0.00464348,0.0404049,657,1254,-27.7272,-7.72645
-560,-230,-27.8,8.16956,0,0,0,0,0,0,0,-1,664,1254,-27.8001,-8.16958
-553,-230,-13.1939,4.9718,0,0,0,0,0,0,0,-1,671,1254,-13.1939,-4.97175
-546,-230,-15.23,0.453979,0,0,0,0,0,0,0,-1,678,1254,-15.23,-0.453996
-539,-230,-25.8232,0.512817,0,0,0,0,0,0,0,-1,685,1254,-25.8232,-0.512878
-532,-230,-21.1644,1.52966,0,0,0,0,0,0,0,-1,692,1254,-21.1644,-1.52969
-525,-230,-29.4775,0.731445,0,0,0,0,0,0,0,-1,699,1254,-29.4775,-0.731432
-518,-230,-40.7408,0.712646,0,0,0,0,0,0,0,-1,706,1254,-40.7408,-0.712612
-511,-230,-40.9645,0.74353,-0.00685458,-0.000445232,-0.00606703,0.00321149,-0.0105113,-1.02838,0.0082881,0.0429814,713,1254,-40.9645,-0.743472
-504,-230,-41.1263,0.802368,-0.00929324,0.000623025,-0.00645345,0.00380308,-0.0124733,-1.11295,0.00983155,0.0415315,720,1254,-41.1263,-0.802375
-497,-230,0,0,0,0,0,0,0,0,0,-1,727,1254,0,0
-490,-230,0,0,0,0,0,0,0,0,0,-1,734,1254,0,0
-483,-230,0,0,0,0,0,0,0,0,0,-1,741,1254,0,0
-476,-230,0,0,0,0,0,0,0,0,0,-1,748,1254,0,0
-469,-230,0,0,0,0,0,0,0,0,0,-1,755,1254,0,0
-462,-230,0,0,0,0,0,0,0,0,0,-1,762,1254,0,0
-455,-230,0,0,0,0,0,0,0,0,0,-1,769,1254,0,0
-448,-230,0,0,0,0,0,0,0,0,0,-1,776,1254,0,0
-441,-230,0,0,0,0,0,0,0,0,0,-1,783,1254,0,0
-434,-230,0,0,0,0,0,0,0,0,0,-1,790,1254,0,0
-427,-230,0,0,0,0,0,0,0,0,0,-1,797,1254,0,0
-420,-230,0,0,0,0,0,0,0,0,0,-1,804,1254,0,0
-413,-230,0,0,0,0,0,0,0,0,0,-1,811,1254,0,0
-406,-230,0,0,0,0,0,0,0,0,0,-1,818,1254,0,0
-399,-230,0,0,0,0,0,0,0,0,0,-1,825,1254,0,0
-392,-230,0,0,0,0,0,0,0,0,0,-1,832,1254,0,0
-385,-230,0,0,0,0,0,0,0,0,0,-1,839,1254,0,0
-378,-230,0,0,0,0,0,0,0,0,0,-1,846,1254,0,0
-371,-230,0,0,0,0,0,0,0,0,0,-1,853,1254,0,0
-364,-230,0,0,0,0,0,0,0,0,0,-1,860,1254,0,0
-357,-230,0,0,0,0,0,0,0,0,0,-1,867,1254,0,0
-350,-230,0,0,0,0,0,0,0,0,0,-1,874,1254,0,0
-343,-230,0,0,0,0,0,0,0,0,0,-1,881,1254,0,0
-336,-230,0,0,0,0,0,0,0,0,0,-1,888,1254,0,0
-329,-230,0,0,0,0,0,0,0,0,0,-1,895,1254,0,0
-322,-230,0,0,0,0,0,0,0,0,0,-1,902,1254,0,0
-315,-230,0,0,0,0,0,0,0,0,0,-1,909,1254,0,0
-308,-230,0,0,0,0,0,0,0,0,0,-1,916,1254,0,0
-301,-230,0,0,0,0,0,0,0,0,0,-1,923,1254,0,0
-294,-230,0,0,0,0,0,0,0,0,0,-1,930,1254,0,0
-287,-230,0,0,0,0,0,0,0,0,0,-1,937,1254,0,0
-280,-230,0,0,0,0,0,0,0,0,0,-1,944,1254,0,0
-273,-230,0,0,0,0,0,0,0,0,0,-1,951,1254,0,0
-266,-230,0,0,0,0,0,0,0,0,0,-1,958,1254,0,0
-259,-230,0,0,0,0,0,0,0,0,0,-1,965,1254,0,0
-252,-230,0,0,0,0,0,0,0,0,0,-1,972,1254,0,0
-245,-230,0,0,0,0,0,0,0,0,0,-1,979,1254,0,0
-238,-230,0,0,0,0,0,0,0,0,0,-1,986,1254,0,0
-231,-230,0,0,0,0,0,0,0,0,0,-1,993,1254,0,0
-224,-230,0,0,0,0,0,0,0,0,0,-1,1000,1254,0,0
-217,-230,0,0,0,0,0,0,0,0,0,-1,1007,1254,0,0
-210,-230,0,0,0,0,0,0,0,0,0,-1,1014,1254,0,0
-203,-230,0,0,0,0,0,0,0,0,0,-1,1021,1254,0,0
-196,-230,0,0,0,0,0,0,0,0,0,-1,1028,1254,0,0
-189,-230,0,0,0,0,0,0,0,0,0,-1,1035,1254,0,0
-182,-230,0,0,0,0,0,0,0,0,0,-1,1042,1254,0,0
-175,-230,0,0,0,0,0,0,0,0,0,-1,1049,1254,0,0
-168,-230,0,0,0,0,0,0,0,0,0,-1,1056,1254,0,0
-161,-230,0,0,0,0,0,0,0,0,0,-1,1063,1254,0,0
-154,-230,0,0,0,0,0,0,0,0,0,-1,1070,1254,0,0
-147,-230,0,0,0,0,0,0,0,0,0,-1,1077,1254,0,0
-140,-230,0,0,0,0,0,0,0,0,0,-1,1084,1254,0,0
-133,-230,0,0,0,0,0,0,0,0,0,-1,1091,1254,0,0
-126,-230,0,0,0,0,0,0,0,0,0,-1,1098,1254,0,0
-119,-230,0,0,0,0,0,0,0,0,0,-1,1105,1254,0,0
-112,-230,0,0,0,0,0,0,0,0,0,-1,1112,1254,0,0
-105,-230,0,0,0,0,0,0,0,0,0,-1,1119,1254,0,0
-98,-230,0,0,0,0,0,0,0,0,0,-1,1126,1254,0,0
-91,-230,0,0,0,0,0,0,0,0,0,-1,1133,1254,0,0
-84,-230,0,0,0,0,0,0,0,0,0,-1,1140,1254,0,0
-77,-230,0,0,0,0,0,0,0,0,0,-1,1147,1254,0,0
-70,-230,0,0,0,0,0,0,0,0,0,-1,1154,1254,0,0
-63,-230,0,0,0,0,0,0,0,0,0,-1,1161,1254,0,0
-56,-230,0,0,0,0,0,0,0,0,0,-1,1168,1254,0,0
-49,-230,0,0,0,0,0,0,0,0,0,-1,1175,1254,0,0
-42,-230,0,0,0,0,0,0,0,0,0,-1,1182,1254,0,0
-35,-230,0,0,0,0,0,0,0,0,0,-1,1189,1254,0,0
-28,-230,0,0,0,0,0,0,0,0,0,-1,1196,1254,0,0
-21,-230,0,0,0,0,0,0,0,0,0,-1,1203,1254,0,0
-14,-230,0,0,0,0,0,0,0,0,0,-1,1210,1254,0,0
-7,-230,0,0,0,0,0,0,0,0,0,-1,1217,1254,0,0
0,-230,0,0,0,0,0,0,0,0,0,-1,1224,1254,0,0
7,-230,0,0,0,0,0,0,0,0,0,-1,1231,1254,0,0
14,-230,0,0,0,0,0,0,0,0,0,-1,1238,1254,0,0
21,-230,0,0,0,0,0,0,0,0,0,-1,1245,1254,0,0
28,-230,0,0,0,0,0,0,0,0,0,-1,1252,1254,0,0
35,-230,0,0,0,0,0,0,0,0,0,-1,1259,1254,0,0
42,-230,0,0,0,0,0,0,0,0,0,-1,1266,1254,0,0
49,-230,0,0,0,0,0,0,0,0,0,-1,1273,1254,0,0
56,-230,0,0,0,0,0,0,0,0,0,-1,1280,1254,0,0
63,-230,0,0,0,0,0,0,0,0,0,-1,1287,1254,0,0
70,-230,0,0,0,0,0,0,0,0,0,-1,1294,1254,0,0
77,-230,0,0,0,0,0,0,0,0,0,-1,1301,1254,0,0
84,-230,0,0,0,0,0,0,0,0,0,-1,1308,1254,0,0
91,-230,0,0,0,0,0,0,0,0,0,-1,1315,1254,0,0
98,-230,0,0,0,0,0,0,0,0,0,-1,1322,1254,0,0
105,-230,0,0,0,0,0,0,0,0,0,-1,1329,1254,0,0
112,-230,0,0,0,0,0,0,0,0,0,-1,1336,1254,0,0
119,-230,0,0,0,0,0,0,0,0,0,-1,1343,1254,0,0
126,-230,0,0,0,0,0,0,0,0,0,-1,1350,1254,0,0
133,-230,0,0,0,0,0,0,0,0,0,-1,1357,1254,0,0
140,-230,0,0,0,0,0,0,0,0,0,-1,1364,1254,0,0
147,-230,0,0,0,0,0,0,0,0,0,-1,1371,1254,0,0
154,-230,0,0,0,0,0,0,0,0,0,-1,1378,1254,0,0
161,-230,0,0,0,0,0,0,0,0,0,-1,1385,1254,0,0
168,-230,0,0,0,0,0,0,0,0,0,-1,1392,1254,0,0
175,-230,0,0,0,0,0,0,0,0,0,-1,1399,1254,0,0
182,-230,0,0,0,0,0,0,0,0,0,-1,1406,1254,0,0
189,-230,0,0,0,0,0,0,0,0,0,-1,1413,1254,0,0
196,-230,0,0,0,0,0,0,0,0,0,-1,1420,1254,0,0
203,-230,0,0,0,0,0,0,0,0,0,-1,1427,1254,0,0
210,-230,0,0,0,0,0,0,0,0,0,-1,1434,1254,0,0
217,-230,0,0,0,0,0,0,0,0,0,-1,1441,1254,0,0
224,-230,0,0,0,0,0,0,0,0,0,-1,1448,1254,0,0
231,-230,0,0,0,0,0,0,0,0,0,-1,1455,1254,0,0
238,-230,0,0,0,0,0,0,0,0,0,-1,1462,1254,0,0
245,-230,0,0,0,0,0,0,0,0,0,-1,1469,1254,0,0
252,-230,0,0,0,0,0,0,0,0,0,-1,1476,1254,0,0
259,-230,0,0,0,0,0,0,0,0,0,-1,1483,1254,0,0
266,-230,0,0,0,0,0,0,0,0,0,-1,1490,1254,0,0
273,-230,0,0,0,0,0,0,0,0,0,-1,1497,1254,0,0
280,-230,0,0,0,0,0,0,0,0,0,-1,1504,1254,0,0
287,-230,0,0,0,0,0,0,0,0,0,-1,1511,1254,0,0
294,-230,0,0,0,0,0,0,0,0,0,-1,1518,1254,0,0
301,-230,0,0,0,0,0,0,0,0,0,-1,1525,1254,0,0
308,-230,0,0,0,0,0,0,0,0,0,-1,1532,1254,0,0
315,-230,0,0,0,0,0,0,0,0,0,-1,1539,1254,0,0
322,-230,0,0,0,0,0,0,0,0,0,-1,1546,1254,0,0
329,-230,0,0,0,0,0,0,0,0,0,-1,1553,1254,0,0
336,-230,0,0,0,0,0,0,0,0,0,-1,1560,1254,0,0
343,-230,0,0,0,0,0,0,0,0,0,-1,1567,1254,0,0
350,-230,0,0,0,0,0,0,0,0,0,-1,1574,1254,0,0
357,-230,0,0,0,0,0,0,0,0,0,-1,1581,1254,0,0
364,-230,0,0,0,0,0,0,0,0,0,-1,1588,1254,0,0
371,-230,0,0,0,0,0,0,0,0,0,-1,1595,1254,0,0
378,-230,0,0,0,0,0,0,0,0,0,-1,1602,1254,0,0
385,-230,0,0,0,0,0,0,0,0,0,-1,1609,1254,0,0
392,-230,0,0,0,0,0,0,0,0,0,-1,1616,1254,0,0
399,-230,0,0,0,0,0,0,0,0,0,-1,1623,1254,0,0
406,-230,0,0,0,0,0,0,0,0,0,-1,1630,1254,0,0
413,-230,0,0,0,0,0,0,0,0,0,-1,1637,1254,0,0
420,-230,0,0,0,0,0,0,0,0,0,-1,1644,1254,0,0
427,-230,0,0,0,0,0,0,0,0,0,-1,1651,1254,0,0
434,-230,0,0,0,0,0,0,0,0,0,-1,1658,1254,0,0
441,-230,0,0,0,0,0,0,0,0,0,-1,1665,1254,0,0
448,-230,0,0,0,0,0,0,0,0,0,-1,1672,1254,0,0
455,-230,0,0,0,0,0,0,0,0,0,-1,1679,1254,0,0
462,-230,0,0,0,0,0,0,0,0,0,-1,1686,1254,0,0
469,-230,0,0,0,0,0,0,0,0,0,-1,1693,1254,0,0
476,-230,0,0,0,0,0,0,0,0,0,-1,1700,1254,0,0
483,-230,0,0,0,0,0,0,0,0,0,-1,1707,1254,0,0
490,-230,0,0,0,0,0,0,0,0,0,-1,1714,1254,0,0
497,-230,0,0,0,0,0,0,0,0,0,-1,1721,1254,0,0
504,-230,0,0,0,0,0,0,0,0,0,-1,1728,1254,0,0
511,-230,0,0,0,0,0,0,0,0,0,-1,1735,1254,0,0
518,-230,0,0,0,0,0,0,0,0,0,-1,1742,1254,0,0
525,-230,0,0,0,0,0,0,0,0,0,-1,1749,1254,0,0
532,-230,0,0,0,0,0,0,0,0,0,-1,1756,1254,0,0
539,-230,0,0,0,0,0,0,0,0,0,-1,1763,1254,0,0
546,-230,0,0,0,0,0,0,0,0,0,-1,1770,1254,0,0
553,-230,0,0,0,0,0,0,0,0,0,-1,1777,1254,0,0
560,-230,0,0,0,0,0,0,0,0,0,-1,1784,1254,0,0
567,-230,0,0,0,0,0,0,0,0,0,-1,1791,1254,0,0
574,-230,0,0,0,0,0,0,0,0,0,-1,1798,1254,0,0
581,-230,0,0,0,0,0,0,0,0,0,-1,1805,1254,0,0
588,-230,0,0,0,0,0,0,0,0,0,-1,1812,1254,0,0
595,-230,0,0,0,0,0,0,0,0,0,-1,1819,1254,0,0
602,-230,0,0,0,0,0,0,0,0,0,-1,1826,1254,0,0
609,-230,0,0,0,0,0,0,0,0,0,-1,1833,1254,0,0
616,-230,55.0906,2.62598,-0.00411896,0.000844182,0.00277482,0.00208522,-0.00536,1.15023,0.00443494,0.0359803,1840,1254,55.0906,-2.62597
623,-230,55.0739,2.59924,-0.00333122,0.00311141,0.000306214,0.00312594,-0.00334574,1.52341,0.00373714,0.0334141,1847,1254,55.0739,-2.59924
630,-230,55.0306,2.61853,-0.00238494,0.00474692,-0.00206182,0.00530008,-0.0029381,-1.30868,0.00482104,0.0289755,1854,1254,55.0307,-2.61855
637,-230,54.9874,2.62109,-0.00132795,0.00592893,-0.00411119,0.00778388,-0.0031829,-1.14695,0.00651476,0.0250064,1861,1254,54.9874,-2.62107
644,-230,54.9884,2.55029,-0.000448894,0.00594918,-0.00493867,0.00863439,-0.0031341,-1.0728,0.00703756,0.0209154,1868,1254,54.9884,-2.55026
651,-230,54.9967,2.53552,-0.000352137,0.00504242,-0.00468091,0.00774757,-0.00305729,-1.04678,0.00643112,0.0446479,1875,1254,54.9967,-2.53554
658,-230,54.9891,2.5304,0,0,0,0,0,0,0,-1,1882,1254,54.9892,-2.53042
665,-230,55.2135,2.80713,0,0,0,0,0,0,0,-1,1889,1254,55.2134,-2.80708
672,-230,43.0962,2.78699,0,0,0,0,0,0,0,-1,1896,1254,43.0962,-2.78698
679,-230,27.9967,2.37708,0,0,0,0,0,0,0,-1,1903,1254,27.9967,-2.3771
686,-230,40.8854,10.1788,0,0,0,0,0,0,0,-1,1910,1254,40.8853,-10.1788
693,-230,42.72,10.5221,0,0,0,0,0,0,0,-1,1917,1254,42.72,-10.5221
700,-230,42.5645,9.99512,0.000683711,-0.000581598,-0.00103187,0.00126143,-0.00115932,-0.510394,0.00139803,0.0313918,1924,1254,42.5644,-9.9951
707,-230,42.4587,9.47705,0.000494913,-0.000772585,-0.000835843,0.000910102,-0.00118777,-0.461029,0.00121474,0.0147611,1931,1254,42.4587,-9.47702
714,-230,42.4432,8.93933,5.57089e-05,-0.000733865,-0.000326246,0.000173067,-0.000851223,-0.345312,0.000633106,0.0135845,1938,1254,42.4433,-8.93935
721,-230,42.4337,8.43335,-0.000463962,-0.000613717,0.000413538,-0.000118578,-0.000959102,0.695836,0.000603769,0.0135381,1945,1254,42.4337,-8.43334
728,-230,42.3918,7.96875,-0.000973463,-0.000466745,0.00125863,0.000563769,-0.00200398,0.88472,0.00155828,0.0149094,1952,1254,42.3919,-7.96876
735,-230,42.3771,7.49121,-0.00149179,-0.000418789,0.00213495,0.00124604,-0.00315661,0.908496,0.00262044,0.015534,1959,1254,42.3771,-7.49127
742,-230,42.3575,6.96716,-0.00196599,-0.000356145,0.00302153,0.00196584,-0.00428797,0.915573,0.00369268,0.0118028,1966,1254,42.3576,-6.96714
749,-230,42.3599,6.43726,-0.00229746,-0.000293269,0.00390474,0.00273592,-0.00532665,0.911005,0.00473435,0.0112455,1973,1254,42.3598,-6.43724
756,-230,42.3192,5.9386,-0.00258439,-0.000256349,0.00474914,0.00346935,-0.00631008,0.905579,0.00572501,0.0170191,1980,1254,42.3192,-5.93861
763,-230,42.4259,5.31372,-0.00243077,-0.000244187,0.00564245,0.00440992,-0.00708487,0.881093,0.00669615,0.0378265,1987,1254,42.4259,-5.31366
770,-230,42.8976,4.64539,0,0,0,0,0,0,0,-1,1994,1254,42.8976,-4.64534
777,-230,41.8693,3.74707,0,0,0,0,0,0,0,-1,2001,1254,41.8692,-3.74713
784,-230,35.8896,1.80334,0,0,0,0,0,0,0,-1,2008,1254,35.8897,-1.80338
791,-230,35.6028,2.20642,0,0,0,0,0,0,0,-1,2015,1254,35.6027,-2.2064
798,-230,0,0,0,0,0,0,0,0,0,-1,2022,1254,0,0
805,-230,0,0,0,0,0,0,0,0,0,-1,2029,1254,0,0
812,-230,0,0,0,0,0,0,0,0,0,-1,2036,1254,0,0
-700,-237,0,0,0,0,0,0,0,0,0,-1,524,1261,0,0
-693,-237,0,0,0,0,0,0,0,0,0,-1,531,1261,0,0
-686,-237,0,0,0,0,0,0,0,0,0,-1,538,1261,0,0
-679,-237,0,0,0,0,0,0,0,0,0,-1,545,1261,0,0
-672,-237,-34.37,3.95947,0,0,0,0,0,0,0,-1,552,1261,-34.37,-3.95951
-665,-237,-35.3574,5.78271,0,0,0,0,0,0,0,-1,559,1261,-35.3574,-5.78277
-658,-237,-36.8185,7.11401,-0.0982213,-0.107759,0.104501,0.00161903,-0.2076,0.762596,0.138942,0.0469801,566,1261,-36.8185,-7.11399
-651,-237,-38.1342,8.50635,-0.077085,-0.0865173,0.0847609,0.00309085,-0.166693,0.757607,0.112173,0.0465304,573,1261,-38.1341,-8.5063
-644,-237,-39.1362,10.0416,0,0,0,0,0,0,0,-1,580,1261,-39.1362,-10.0416
-637,-237,-38.7684,-2.22546,0,0,0,0,0,0,0,-1,587,1261,-38.7684,2.22548
-630,-237,-27.0677,2.85559,0,0,0,0,0,0,0,-1,594,1261,-27.0677,-2.8556
-623,-237,-27.0751,3.41309,-0.0186993,-0.022328,0.0236649,0.00322073,-0.044248,0.747139,0.0306288,0.032608,601,1261,-27.0751,-3.41309
-616,-237,-27.087,3.96802,-0.00949342,-0.0118598,0.0132233,0.00259949,-0.0239527,0.740777,0.0169018,0.0139545,608,1261,-27.087,-3.968
-609,-237,-27.1429,4.50879,-0.00308612,-0.00466729,0.00597239,0.00214778,-0.00990119,0.719594,0.00742105,0.0157803,615,1261,-27.1429,-4.50885
-602,-237,-27.1971,5.05432,0.00118942,-0.000446926,0.00143039,0.0020191,-0.00127661,0.525613,0.0019188,0.0115478,622,1261,-27.1971,-5.05431
-595,-237,-27.2385,5.64844,0.00233712,0.000443382,-0.000190152,0.00235603,0.000424477,-0.0990926,0.00145005,0.0153945,629,1261,-27.2385,-5.64843
-588,-237,-27.2397,6.26563,0.00257042,-0.000332983,-0.000271929,0.00259567,-0.000358232,-0.0925861,0.00186138,0.0278231,636,1261,-27.2397,-6.26567
-581,-237,-27.2319,6.83777,0.00319477,-0.00120945,-0.000632972,0.00328393,-0.00129861,-0.139947,0.00272724,0.0255588,643,1261,-27.2319,-6.83782
-574,-237,-27.2495,7.32312,0.00375908,-0.00219138,-0.000928872,0.00390071,-0.00233301,-0.151306,0.00363678,0.0188522,650,1261,-27.2494,-7.32314
-567,-237,-27.2443,7.89355,0.00448673,-0.00334391,-0.000977623,0.00460694,-0.00346412,-0.122344,0.00467537,0.0319323,657,1261,-27.2444,-7.89351
-560,-237,-27.1546,8.33801,0,0,0,0,0,0,0,-1,664,1261,-27.1546,-8.33797
-553,-237,-20.6102,6.92139,0,0,0,0,0,0,0,-1,671,1261,-20.6102,-6.92138
-546,-237,-11.192,1.14014,0,0,0,0,0,0,0,-1,678,1261,-11.192,-1.14011
-539,-237,-16.512,1.53455,0,0,0,0,0,0,0,-1,685,1261,-16.512,-1.53457
-532,-237,-29.7025,1.23621,0,0,0,0,0,0,0,-1,692,1261,-29.7025,-1.23618
-525,-237,-37.9338,0.75708,0,0,0,0,0,0,0,-1,699,1261,-37.9339,-0.757056
-518,-237,-40.4896,0.741821,0,0,0,0,0,0,0,-1,706,1261,-40.4897,-0.741779
-511,-237,-40.8345,0.836548,-0.0109491,0.0012716,-0.00545818,0.00335443,-0.0130319,-1.20625,0.00999551,0.0470451,713,1261,-40.8344,-0.836572
-504,-237,-41.1848,0.924805,-0.014958,0.00245322,-0.00602297,0.00433363,-0.0168384,-1.26818,0.0129148,0.0444036,720,1261,-41.1847,-0.924753
-497,-237,-41.5045,1.09229,0,0,0,0,0,0,0,-1,727,1261,-41.5045,-1.09226
-490,-237,0,0,0,0,0,0,0,0,0,-1,734,1261,0,0
-483,-237,0,0,0,0,0,0,0,0,0,-1,741,1261,0,0
-476,-237,0,0,0,0,0,0,0,0,0,-1,748,1261,0,0
-469,-237,0,0,0,0,0,0,0,0,0,-1,755,1261,0,0
-462,-237,0,0,0,0,0,0,0,0,0,-1,762,1261,0,0
-455,-237,0,0,0,0,0,0,0,0,0,-1,769,1261,0,0
-448,-237,0,0,0,0,0,0,0,0,0,-1,776,1261,0,0
-441,-237,0,0,0,0,0,0,0,0,0,-1,783,1261,0,0
-434,-237,0,0,0,0,0,0,0,0,0,-1,790,1261,0,0
-427,-237,0,0,0,0,0,0,0,0,0,-1,797,1261,0,0
-420,-237,0,0,0,0,0,0,0,0,0,-1,804,1261,0,0
-413,-237,0,0,0,0,0,0,0,0,0,-1,811,1261,0,0
-406,-237,0,0,0,0,0,0,0,0,0,-1,818,1261,0,0
-399,-237,0,0,0,0,0,0,0,0,0,-1,825,1261,0,0
-392,-237,0,0,0,0,0,0,0,0,0,-1,832,1261,0,0
-385,-237,0,0,0,0,0,0,0,0,0,-1,839,1261,0,0
-378,-237,0,0,0,0,0,0,0,0,0,-1,846,1261,0,0
-371,-237,0,0,0,0,0,0,0,0,0,-1,853,1261,0,0
-364,-237,0,0,0,0,0,0,0,0,0,-1,860,1261,0,0
-357,-237,0,0,0,0,0,0,0,0,0,-1,867,1261,0,0
-350,-237,0,0,0,0,0,0,0,0,0,-1,874,1261,0,0
-343,-237,0,0,0,0,0,0,0,0,0,-1,881,1261,0,0
-336,-237,0,0,0,0,0,0,0,0,0,-1,888,1261,0,0
-329,-237,0,0,0,0,0,0,0,0,0,-1,895,1261,0,0
-322,-237,0,0,0,0,0,0,0,0,0,-1,902,1261,0,0
-315,-237,0,0,0,0,0,0,0,0,0,-1,909,1261,0,0
-308,-237,0,0,0,0,0,0,0,0,0,-1,916,1261,0,0
-301,-237,0,0,0,0,0,0,0,0,0,-1,923,1261,0,0
-294,-237,0,0,0,0,0,0,0,0,0,-1,930,1261,0,0
-287,-237,0,0,0,0,0,0,0,0,0,-1,937,1261,0,0
-280,-237,0,0,0,0,0,0,0,0,0,-1,944,1261,0,0
-273,-237,0,0,0,0,0,0,0,0,0,-1,951,1261,0,0
-266,-237,0,0,0,0,0,0,0,0,0,-1,958,1261,0,0
-259,-237,0,0,0,0,0,0,0,0,0,-1,965,1261,0,0
-252,-237,0,0,0,0,0,0,0,0,0,-1,972,1261,0,0
-245,-237,0,0,0,0,0,0,0,0,0,-1,979,1261,0,0
-238,-237,0,0,0,0,0,0,0,0,0,-1,986,1261,0,0
-231,-237,0,0,0,0,0,0,0,0,0,-1,993,1261,0,0
-224,-237,0,0,0,0,0,0,0,0,0,-1,1000,1261,0,0
-217,-237,0,0,0,0,0,0,0,0,0,-1,1007,1261,0,0
-210,-237,0,0,0,0,0,0,0,0,0,-1,1014,1261,0,0
-203,-237,0,0,0,0,0,0,0,0,0,-1,1021,1261,0,0
-196,-237,0,0,0,0,0,0,0,0,0,-1,1028,1261,0,0
-189,-237,0,0,0,0,0,0,0,0,0,-1,1035,1261,0,0
-182,-237,0,0,0,0,0,0,0,0,0,-1,1042,1261,0,0
-175,-237,0,0,0,0,0,0,0,0,0,-1,1049,1261,0,0
-168,-237,0,0,0,0,0,0,0,0,0,-1,1056,1261,0,0
-161,-237,0,0,0,0,0,0,0,0,0,-1,1063,1261,0,0
-154,-237,0,0,0,0,0,0,0,0,0,-1,1070,1261,0,0
-147,-237,0,0,0,0,0,0,0,0,0,-1,1077,1261,0,0
-140,-237,0,0,0,0,0,0,0,0,0,-1,1084,1261,0,0
-133,-237,0,0,0,0,0,0,0,0,0,-1,1091,1261,0,0
-126,-237,0,0,0,0,0,0,0,0,0,-1,1098,1261,0,0
-119,-237,0,0,0,0,0,0,0,0,0,-1,1105,1261,0,0
-112,-237,0,0,0,0,0,0,0,0,0,-1,1112,1261,0,0
-105,-237,0,0,0,0,0,0,0,0,0,-1,1119,1261,0,0
-98,-237,0,0,0,0,0,0,0,0,0,-1,1126,1261,0,0
-91,-237,0,0,0,0,0,0,0,0,0,-1,1133,1261,0,0
-84,-237,0,0,0,0,0,0,0,0,0,-1,1140,1261,0,0
-77,-237,0,0,0,0,0,0,0,0,0,-1,1147,1261,0,0
-70,-237,0,0,0,0,0,0,0,0,0,-1,1154,1261,0,0
-63,-237,0,0,0,0,0,0,0,0,0,-1,1161,1261,0,0
-56,-237,0,0,0,0,0,0,0,0,0,-1,1168,1261,0,0
-49,-237,0,0,0,0,0,0,0,0,0,-1,1175,1261,0,0
-42,-237,0,0,0,0,0,0,0,0,0,-1,1182,1261,0,0
-35,-237,0,0,0,0,0,0,0,0,0,-1,1189,1261,0,0
-28,-237,0,0,0,0,0,0,0,0,0,-1,1196,1261,0,0
-21,-237,0,0,0,0,0,0,0,0,0,-1,1203,1261,0,0
-14,-237,0,0,0,0,0,0,0,0,0,-1,1210,1261,0,0
-7,-237,0,0,0,0,0,0,0,0,0,-1,1217,1261,0,0
0,-237,0,0,0,0,0,0,0,0,0,-1,1224,1261,0,0
7,-237,0,0,0,0,0,0,0,0,0,-1,1231,1261,0,0
14,-237,0,0,0,0,0,0,0,0,0,-1,1238,1261,0,0
21,-237,0,0,0,0,0,0,0,0,0,-1,1245,1261,0,0
28,-237,0,0,0,0,0,0,0,0,0,-1,1252,1261,0,0
35,-237,0,0,0,0,0,0,0,0,0,-1,1259,1261,0,0
42,-237,0,0,0,0,0,0,0,0,0,-1,1266,1261,0,0
49,-237,0,0,0,0,0,0,0,0,0,-1,1273,1261,0,0
56,-237,0,0,0,0,0,0,0,0,0,-1,1280,1261,0,0
63,-237,0,0,0,0,0,0,0,0,0,-1,1287,1261,0,0
70,-237,0,0,0,0,0,0,0,0,0,-1,1294,1261,0,0
77,-237,0,0,0,0,0,0,0,0,0,-1,1301,1261,0,0
84,-237,0,0,0,0,0,0,0,0,0,-1,1308,1261,0,0
91,-237,0,0,0,0,0,0,0,0,0,-1,1315,1261,0,0
98,-237,0,0,0,0,0,0,0,0,0,-1,1322,1261,0,0
105,-237,0,0,0,0,0,0,0,0,0,-1,1329,1261,0,0
112,-237,0,0,0,0,0,0,0,0,0,-1,1336,1261,0,0
119,-237,0,0,0,0,0,0,0,0,0,-1,1343,1261,0,0
126,-237,0,0,0,0,0,0,0,0,0,-1,1350,1261,0,0
133,-237,0,0,0,0,0,0,0,0,0,-1,1357,1261,0,0
140,-237,0,0,0,0,0,0,0,0,0,-1,1364,1261,0,0
147,-237,0,0,0,0,0,0,0,0,0,-1,1371,1261,0,0
154,-237,0,0,0,0,0,0,0,0,0,-1,1378,1261,0,0
161,-237,0,0,0,0,0,0,0,0,0,-1,1385,1261,0,0
168,-237,0,0,0,0,0,0,0,0,0,-1,1392,1261,0,0
175,-237,0,0,0,0,0,0,0,0,0,-1,1399,1261,0,0
182,-237,0,0,0,0,0,0,0,0,0,-1,1406,1261,0,0
189,-237,0,0,0,0,0,0,0,0,0,-1,1413,1261,0,0
196,-237,0,0,0,0,0,0,0,0,0,-1,1420,1261,0,0
203,-237,0,0,0,0,0,0,0,0,0,-1,1427,1261,0,0
210,-237,0,0,0,0,0,0,0,0,0,-1,1434,1261,0,0
217,-237,0,0,0,0,0,0,0,0,0,-1,1441,1261,0,0
224,-237,0,0,0,0,0,0,0,0,0,-1,1448,1261,0,0
231,-237,0,0,0,0,0,0,0,0,0,-1,1455,1261,0,0
238,-237,0,0,0,0,0,0,0,0,0,-1,1462,1261,0,0
245,-237,0,0,0,0,0,0,0,0,0,-1,1469,1261,0,0
252,-237,0,0,0,0,0,0,0,0,0,-1,1476,1261,0,0
259,-237,0,0,0,0,0,0,0,0,0,-1,1483,1261,0,0
266,-237,0,0,0,0,0,0,0,0,0,-1,1490,1261,0,0
273,-237,0,0,0,0,0,0,0,0,0,-1,1497,1261,0,0
280,-237,0,0,0,0,0,0,0,0,0,-1,1504,1261,0,0
287,-237,0,0,0,0,0,0,0,0,0,-1,1511,1261,0,0
294,-237,0,0,0,0,0,0,0,0,0,-1,1518,1261,0,0
301,-237,0,0,0,0,0,0,0,0,0,-1,1525,1261,0,0
308,-237,0,0,0,0,0,0,0,0,0,-1,1532,1261,0,0
315,-237,0,0,0,0,0,0,0,0,0,-1,1539,1261,0,0
322,-237,0,0,0,0,0,0,0,0,0,-1,1546,1261,0,0
329,-237,0,0,0,0,0,0,0,0,0,-1,1553,1261,0,0
336,-237,0,0,0,0,0,0,0,0,0,-1,1560,1261,0,0
343,-237,0,0,0,0,0,0,0,0,0,-1,1567,1261,0,0
350,-237,0,0,0,0,0,0,0,0,0,-1,1574,1261,0,0
357,-237,0,0,0,0,0,0,0,0,0,-1,1581,1261,0,0
364,-237,0,0,0,0,0,0,0,0,0,-1,1588,1261,0,0
371,-237,0,0,0,0,0,0,0,0,0,-1,1595,1261,0,0
378,-237,0,0,0,0,0,0,0,0,0,-1,1602,1261,0,0
385,-237,0,0,0,0,0,0,0,0,0,-1,1609,1261,0,0
392,-237,0,0,0,0,0,0,0,0,0,-1,1616,1261,0,0
399,-237,0,0,0,0,0,0,0,0,0,-1,1623,1261,0,0
406,-237,0,0,0,0,0,0,0,0,0,-1,1630,1261,0,0
413,-237,0,0,0,0,0,0,0,0,0,-1,1637,1261,0,0
420,-237,0,0,0,0,0,0,0,0,0,-1,1644,1261,0,0
427,-237,0,0,0,0,0,0,0,0,0,-1,1651,1261,0,0
434,-237,0,0,0,0,0,0,0,0,0,-1,1658,1261,0,0
441,-237,0,0,0,0,0,0,0,0,0,-1,1665,1261,0,0
448,-237,0,0,0,0,0,0,0,0,0,-1,1672,1261,0,0
455,-237,0,0,0,0,0,0,0,0,0,-1,1679,1261,0,0
462,-237,0,0,0,0,0,0,0,0,0,-1,1686,1261,0,0
469,-237,0,0,0,0,0,0,0,0,0,-1,1693,1261,0,0
476,-237,0,0,0,0,0,0,0,0,0,-1,1700,1261,0,0
483,-237,0,0,0,0,0,0,0,0,0,-1,1707,1261,0,0
490,-237,0,0,0,0,0,0,0,0,0,-1,1714,1261,0,0
497,-237,0,0,0,0,0,0,0,0,0,-1,1721,1261,0,0
504,-237,0,0,0,0,0,0,0,0,0,-1,1728,1261,0,0
511,-237,0,0,0,0,0,0,0,0,0,-1,1735,1261,0,0
518,-237,0,0,0,0,0,0,0,0,0,-1,1742,1261,0,0
525,-237,0,0,0,0,0,0,0,0,0,-1,1749,1261,0,0
532,-237,0,0,0,0,0,0,0,0,0,-1,1756,1261,0,0
539,-237,0,0,0,0,0,0,0,0,0,-1,1763,1261,0,0
546,-237,0,0,0,0,0,0,0,0,0,-1,1770,1261,0,0
553,-237,0,0,0,0,0,0,0,0,0,-1,1777,1261,0,0
560,-237,0,0,0,0,0,0,0,0,0,-1,1784,1261,0,0
567,-237,0,0,0,0,0,0,0,0,0,-1,1791,1261,0,0
574,-237,0,0,0,0,0,0,0,0,0,-1,1798,1261,0,0
581,-237,0,0,0,0,0,0,0,0,0,-1,1805,1261,0,0
588,-237,0,0,0,0,0,0,0,0,0,-1,1812,1261,0,0
595,-237,0,0,0,0,0,0,0,0,0,-1,1819,1261,0,0
602,-237,0,0,0,0,0,0,0,0,0,-1,1826,1261,0,0
609,-237,0,0,0,0,0,0,0,0,0,-1,1833,1261,0,0
616,-237,55.1451,2.5647,-0.00542775,0.00178506,0.00176284,0.00219285,-0.00583554,1.34347,0.00479159,0.0333814,1840,1261,55.1451,-2.56469
623,-237,55.1201,2.58081,-0.00410671,0.00430282,-0.00105453,0.00443304,-0.00423693,-1.44793,0.00500603,0.0294895,1847,1261,55.1202,-2.58077
630,-237,55.0657,2.62537,-0.00270322,0.00639785,-0.00393281,0.00786182,-0.00416719,-1.21444,0.0070533,0.0239677,1854,1261,55.0657,-2.62534
637,-237,55.0044,2.57593,-0.00129984,0.00750592,-0.0059411,0.0104978,-0.00429169,-1.10428,0.00878572,0.0202853,1861,1261,55.0044,-2.57598
644,-237,54.9354,2.50098,-0.000427147,0.00701763,-0.00614637,0.0104809,-0.00389044,-1.05767,0.00858321,0.0413854,1868,1261,54.9354,-2.501
651,-237,54.9811,2.58179,0,0,0,0,0,0,0,-1,1875,1261,54.9811,-2.58179
658,-237,53.9769,2.04419,0,0,0,0,0,0,0,-1,1882,1261,53.9769,-2.04421
665,-237,54.8519,3.0769,0,0,0,0,0,0,0,-1,1889,1261,54.8519,-3.07696
672,-237,45.3922,1.95618,0,0,0,0,0,0,0,-1,1896,1261,45.3922,-1.95623
679,-237,23.1501,7.37488,0,0,0,0,0,0,0,-1,1903,1261,23.1502,-7.37493
686,-237,36.8348,9.99426,0,0,0,0,0,0,0,-1,1910,1261,36.8349,-9.99424
693,-237,41.8108,10.7281,0,0,0,0,0,0,0,-1,1917,1261,41.8108,-10.7282
700,-237,41.9731,10.0192,0.000812027,-0.000707611,-0.000927814,0.00125144,-0.00114703,-0.442308,0.00138519,0.0167062,1924,1261,41.9732,-10.0192
707,-237,41.9542,9.50159,0.000464856,-0.000810565,-0.000662281,0.000746543,-0.00109225,-0.402148,0.00106786,0.0118054,1931,1261,41.9542,-9.50156
714,-237,41.9232,8.96277,-0.000157555,-0.000692322,-7.2807e-05,-0.00014782,-0.000702057,-0.132924,0.000427373,0.0155939,1938,1261,41.9232,-8.96281
721,-237,41.8533,8.47778,-0.000834527,-0.000545457,0.000700987,2.57411e-05,-0.00140572,0.887067,0.000945847,0.0170591,1945,1261,41.8533,-8.47783
728,-237,41.8658,7.97241,-0.00150457,-0.000415357,0.00155308,0.000685838,-0.00260577,0.95403,0.00200527,0.0152054,1952,1261,41.8658,-7.97236
735,-237,41.8636,7.44092,-0.00219837,-0.000366982,0.00242976,0.0013139,-0.00387925,0.965601,0.00311783,0.020577,1959,1261,41.8637,-7.44087
742,-237,41.8479,6.94006,-0.00286342,-0.0003251,0.0033208,0.0019608,-0.00514932,0.967926,0.00424039,0.0160022,1966,1261,41.8479,-6.94005
749,-237,41.8,6.46863,-0.00342033,-0.000275625,0.00420854,0.0026447,-0.00634066,0.964174,0.00533198,0.0104779,1973,1261,41.8,-6.46865
756,-237,41.7567,5.97034,-0.00404319,-0.000265684,0.00508379,0.00326888,-0.00757775,0.963258,0.0064249,0.0191438,1980,1261,41.7567,-5.97035
763,-237,41.7673,5.44836,0,0,0,0,0,0,0,-1,1987,1261,41.7674,-5.44836
770,-237,41.5109,4.80408,0,0,0,0,0,0,0,-1,1994,1261,41.5108,-4.80404
777,-237,41.8568,3.93359,0,0,0,0,0,0,0,-1,2001,1261,41.8568,-3.93361
784,-237,36.3441,1.68591,0,0,0,0,0,0,0,-1,2008,1261,36.3441,-1.68592
791,-237,32.3025,6.03235,0,0,0,0,0,0,0,-1,2015,1261,32.3025,-6.03229
798,-237,0,0,0,0,0,0,0,0,0,-1,2022,1261,0,0
805,-237,0,0,0,0,0,0,0,0,0,-1,2029,1261,0,0
812,-237,0,0,0,0,0,0,0,0,0,-1,2036,1261,0,0
-700,-244,0,0,0,0,0,0,0,0,0,-1,524,1268,0,0
-693,-244,0,0,0,0,0,0,0,0,0,-1,531,1268,0,0
-686,-244,0,0,0,0,0,0,0,0,0,-1,538,1268,0,0
-679,-244,0,0,0,0,0,0,0,0,0,-1,545,1268,0,0
-672,-244,-37.6608,-8.39966,0,0,0,0,0,0,0,-1,552,1268,-37.6608,8.3996
-665,-244,-37.3451,-7.36536,0,0,0,0,0,0,0,-1,559,1268,-37.3451,7.36536
-658,-244,-37.2944,8.26355,0,0,0,0,0,0,0,-1,566,1268,-37.2944,-8.26352
-651,-244,-38.7541,9.51599,0,0,0,0,0,0,0,-1,573,1268,-38.7541,-9.51598
-644,-244,-39.7151,11.0574,0,0,0,0,0,0,0,-1,580,1268,-39.7152,-11.0574
-637,-244,-27.189,3.27356,0,0,0,0,0,0,0,-1,587,1268,-27.189,-3.27358
-630,-244,-27.1231,3.52356,0,0,0,0,0,0,0,-1,594,1268,-27.1231,-3.52357
-623,-244,-26.8052,3.59863,-0.0207077,-0.0239375,0.0259867,0.00371429,-0.0483594,0.754366,0.0335463,0.0331448,601,1268,-26.8052,-3.59863
-616,-244,-26.5421,3.9873,-0.0104952,-0.0126026,0.014732,0.00322081,-0.0263185,0.749697,0.0187119,0.0156104,608,1268,-26.5421,-3.98728
-609,-244,-26.5959,4.52686,-0.00346835,-0.00493557,0.00701988,0.00285615,-0.0112601,0.733335,0.008618,0.0145009,615,1268,-26.596,-4.52682
-602,-244,-26.6595,5.06836,0.00124096,-0.000384957,0.00209811,0.0026781,-0.0018221,0.600569,0.00261382,0.0139433,622,1268,-26.6596,-5.06842
-595,-244,-26.6616,5.67163,0.00269865,0.000677964,0.000214023,0.00272107,0.000655544,0.104373,0.00163981,0.0156335,629,1268,-26.6616,-5.67167
-588,-244,-26.6589,6.24097,0.00287086,-0.000103399,0.000125239,0.00287612,-0.000108663,0.0420087,0.00195464,0.021478,636,1268,-26.6589,-6.24094
-581,-244,-26.6791,6.79822,0.00343806,-0.00100186,-0.000121626,0.00344139,-0.00100518,-0.0273663,0.00269261,0.0192911,643,1268,-26.6791,-6.79822
-574,-244,-26.7157,7.36365,0.00405785,-0.00201,-0.000340021,0.00407684,-0.002029,-0.0558036,0.00359069,0.0138993,650,1268,-26.7157,-7.36365
-567,-244,-26.7222,7.92749,0.00494793,-0.00313924,-0.000454926,0.00497344,-0.00316475,-0.0560172,0.00473711,0.0193953,657,1268,-26.7222,-7.9275
-560,-244,-26.6059,8.47205,0.00466277,-0.00281828,-0.00129028,0.00487905,-0.00303456,-0.166083,0.00461011,0.0409582,664,1268,-26.6059,-8.47203
-553,-244,-26.4271,9.01257,0,0,0,0,0,0,0,-1,671,1268,-26.4271,-9.01252
-546,-244,-11.2686,4.41772,0,0,0,0,0,0,0,-1,678,1268,-11.2686,-4.41767
-539,-244,-12.8706,0.3302,0,0,0,0,0,0,0,-1,685,1268,-12.8706,-0.330156
-532,-244,-18.1502,0.816528,0,0,0,0,0,0,0,-1,692,1268,-18.1502,-0.816514
-525,-244,-33.0835,0.693604,0,0,0,0,0,0,0,-1,699,1268,-33.0835,-0.69365
-518,-244,-38.1713,0.902832,0,0,0,0,0,0,0,-1,706,1268,-38.1713,-0.902888
-511,-244,-40.8203,1.02405,0,0,0,0,0,0,0,-1,713,1268,-40.8203,-1.02405
-504,-244,-41.1774,1.10413,0,0,0,0,0,0,0,-1,720,1268,-41.1774,-1.10418
-497,-244,-40.5762,1.43079,0,0,0,0,0,0,0,-1,727,1268,-40.5762,-1.4308
-490,-244,0,0,0,0,0,0,0,0,0,-1,734,1268,0,0
-483,-244,0,0,0,0,0,0,0,0,0,-1,741,1268,0,0
-476,-244,0,0,0,0,0,0,0,0,0,-1,748,1268,0,0
-469,-244,0,0,0,0,0,0,0,0,0,-1,755,1268,0,0
-462,-244,0,0,0,0,0,0,0,0,0,-1,762,1268,0,0
-455,-244,0,0,0,0,0,0,0,0,0,-1,769,1268,0,0
-448,-244,0,0,0,0,0,0,0,0,0,-1,776,1268,0,0
-441,-244,0,0,0,0,0,0,0,0,0,-1,783,1268,0,0
-434,-244,0,0,0,0,0,0,0,0,0,-1,790,1268,0,0
-427,-244,0,0,0,0,0,0,0,0,0,-1,797,1268,0,0
-420,-244,0,0,0,0,0,0,0,0,0,-1,804,1268,0,0
-413,-244,0,0,0,0,0,0,0,0,0,-1,811,1268,0,0
-406,-244,0,0,0,0,0,0,0,0,0,-1,818,1268,0,0
-399,-244,0,0,0,0,0,0,0,0,0,-1,825,1268,0,0
-392,-244,0,0,0,0,0,0,0,0,0,-1,832,1268,0,0
-385,-244,0,0,0,0,0,0,0,0,0,-1,839,1268,0,0
-378,-244,0,0,0,0,0,0,0,0,0,-1,846,1268,0,0
-371,-244,0,0,0,0,0,0,0,0,0,-1,853,1268,0,0
-364,-244,0,0,0,0,0,0,0,0,0,-1,860,1268,0,0
-357,-244,0,0,0,0,0,0,0,0,0,-1,867,1268,0,0
-350,-244,0,0,0,0,0,0,0,0,0,-1,874,1268,0,0
-343,-244,0,0,0,0,0,0,0,0,0,-1,881,1268,0,0
-336,-244,0,0,0,0,0,0,0,0,0,-1,888,1268,0,0
-329,-244,0,0,0,0,0,0,0,0,0,-1,895,1268,0,0
-322,-244,0,0,0,0,0,0,0,0,0,-1,902,1268,0,0
-315,-244,0,0,0,0,0,0,0,0,0,-1,909,1268,0,0
-308,-244,0,0,0,0,0,0,0,0,0,-1,916,1268,0,0
-301,-244,0,0,0,0,0,0,0,0,0,-1,923,1268,0,0
-294,-244,0,0,0,0,0,0,0,0,0,-1,930,1268,0,0
-287,-244,0,0,0,0,0,0,0,0,0,-1,937,1268,0,0
-280,-244,0,0,0,0,0,0,0,0,0,-1,944,1268,0,0
-273,-244,0,0,0,0,0,0,0,0,0,-1,951,1268,0,0
-266,-244,0,0,0,0,0,0,0,0,0,-1,958,1268,0,0
-259,-244,0,0,0,0,0,0,0,0,0,-1,965,1268,0,0
-252,-244,0,0,0,0,0,0,0,0,0,-1,972,1268,0,0
-245,-244,0,0,0,0,0,0,0,0,0,-1,979,1268,0,0
-238,-244,0,0,0,0,0,0,0,0,0,-1,986,1268,0,0
-231,-244,0,0,0,0,0,0,0,0,0,-1,993,1268,0,0
-224,-244,0,0,0,0,0,0,0,0,0,-1,1000,1268,0,0
-217,-244,0,0,0,0,0,0,0,0,0,-1,1007,1268,0,0
-210,-244,0,0,0,0,0,0,0,0,0,-1,1014,1268,0,0
-203,-244,0,0,0,0,0,0,0,0,0,-1,1021,1268,0,0
-196,-244,0,0,0,0,0,0,0,0,0,-1,1028,1268,0,0
-189,-244,0,0,0,0,0,0,0,0,0,-1,1035,1268,0,0
-182,-244,0,0,0,0,0,0,0,0,0,-1,1042,1268,0,0
-175,-244,0,0,0,0,0,0,0,0,0,-1,1049,1268,0,0
-168,-244,0,0,0,0,0,0,0,0,0,-1,1056,1268,0,0
-161,-244,0,0,0,0,0,0,0,0,0,-1,1063,1268,0,0
-154,-244,0,0,0,0,0,0,0,0,0,-1,1070,1268,0,0
-147,-244,0,0,0,0,0,0,0,0,0,-1,1077,1268,0,0
-140,-244,0,0,0,0,0,0,0,0,0,-1,1084,1268,0,0
-133,-244,0,0,0,0,0,0,0,0,0,-1,1091,1268,0,0
-126,-244,0,0,0,0,0,0,0,0,0,-1,1098,1268,0,0
-119,-244,0,0,0,0,0,0,0,0,0,-1,1105,1268,0,0
-112,-244,0,0,0,0,0,0,0,0,0,-1,1112,1268,0,0
-105,-244,0,0,0,0,0,0,0,0,0,-1,1119,1268,0,0
-98,-244,0,0,0,0,0,0,0,0,0,-1,1126,1268,0,0
-91,-244,0,0,0,0,0,0,0,0,0,-1,1133,1268,0,0
-84,-244,0,0,0,0,0,0,0,0,0,-1,1140,1268,0,0
-77,-244,0,0,0,0,0,0,0,0,0,-1,1147,1268,0,0
-70,-244,0,0,0,0,0,0,0,0,0,-1,1154,1268,0,0
-63,-244,0,0,0,0,0,0,0,0,0,-1,1161,1268,0,0
-56,-244,0,0,0,0,0,0,0,0,0,-1,1168,1268,0,0
-49,-244,0,0,0,0,0,0,0,0,0,-1,1175,1268,0,0
-42,-244,0,0,0,0,0,0,0,0,0,-1,1182,1268,0,0
-35,-244,0,0,0,0,0,0,0,0,0,-1,1189,1268,0,0
-28,-244,0,0,0,0,0,0,0,0,0,-1,1196,1268,0,0
-21,-244,0,0,0,0,0,0,0,0,0,-1,1203,1268,0,0
-14,-244,0,0,0,0,0,0,0,0,0,-1,1210,1268,0,0
-7,-244,0,0,0,0,0,0,0,0,0,-1,1217,1268,0,0
0,-244,0,0,0,0,0,0,0,0,0,-1,1224,1268,0,0
7,-244,0,0,0,0,0,0,0,0,0,-1,1231,1268,0,0
14,-244,0,0,0,0,0,0,0,0,0,-1,1238,1268,0,0
21,-244,0,0,0,0,0,0,0,0,0,-1,1245,1268,0,0
28,-244,0,0,0,0,0,0,0,0,0,-1,1252,1268,0,0
35,-244,0,0,0,0,0,0,0,0,0,-1,1259,1268,0,0
42,-244,0,0,0,0,0,0,0,0,0,-1,1266,1268,0,0
49,-244,0,0,0,0,0,0,0,0,0,-1,1273,1268,0,0
56,-244,0,0,0,0,0,0,0,0,0,-1,1280,1268,0,0
63,-244,0,0,0,0,0,0,0,0,0,-1,1287,1268,0,0
70,-244,0,0,0,0,0,0,0,0,0,-1,1294,1268,0,0
77,-244,0,0,0,0,0,0,0,0,0,-1,1301,1268,0,0
84,-244,0,0,0,0,0,0,0,0,0,-1,1308,1268,0,0
91,-244,0,0,0,0,0,0,0,0,0,-1,1315,1268,0,0
98,-244,0,0,0,0,0,0,0,0,0,-1,1322,1268,0,0
105,-244,0,0,0,0,0,0,0,0,0,-1,1329,1268,0,0
112,-244,0,0,0,0,0,0,0,0,0,-1,1336,1268,0,0
119,-244,0,0,0,0,0,0,0,0,0,-1,1343,1268,0,0
126,-244,0,0,0,0,0,0,0,0,0,-1,1350,1268,0,0
133,-244,0,0,0,0,0,0,0,0,0,-1,1357,1268,0,0
140,-244,0,0,0,0,0,0,0,0,0,-1,1364,1268,0,0
147,-244,0,0,0,0,0,0,0,0,0,-1,1371,1268,0,0
154,-244,0,0,0,0,0,0,0,0,0,-1,1378,1268,0,0
161,-244,0,0,0,0,0,0,0,0,0,-1,1385,1268,0,0
168,-244,0,0,0,0,0,0,0,0,0,-1,1392,1268,0,0
175,-244,0,0,0,0,0,0,0,0,0,-1,1399,1268,0,0
182,-244,0,0,0,0,0,0,0,0,0,-1,1406,1268,0,0
189,-244,0,0,0,0,0,0,0,0,0,-1,1413,1268,0,0
196,-244,0,0,0,0,0,0,0,0,0,-1,1420,1268,0,0
203,-244,0,0,0,0,0,0,0,0,0,-1,1427,1268,0,0
210,-244,0,0,0,0,0,0,0,0,0,-1,1434,1268,0,0
217,-244,0,0,0,0,0,0,0,0,0,-1,1441,1268,0,0
224,-244,0,0,0,0,0,0,0,0,0,-1,1448,1268,0,0
231,-244,0,0,0,0,0,0,0,0,0,-1,1455,1268,0,0
238,-244,0,0,0,0,0,0,0,0,0,-1,1462,1268,0,0
245,-244,0,0,0,0,0,0,0,0,0,-1,1469,1268,0,0
252,-244,0,0,0,0,0,0,0,0,0,-1,1476,1268,0,0
259,-244,0,0,0,0,0,0,0,0,0,-1,1483,1268,0,0
266,-244,0,0,0,0,0,0,0,0,0,-1,1490,1268,0,0
273,-244,0,0,0,0,0,0,0,0,0,-1,1497,1268,0,0
280,-244,0,0,0,0,0,0,0,0,0,-1,1504,1268,0,0
287,-244,0,0,0,0,0,0,0,0,0,-1,1511,1268,0,0
294,-244,0,0,0,0,0,0,0,0,0,-1,1518,1268,0,0
301,-244,0,0,0,0,0,0,0,0,0,-1,1525,1268,0,0
308,-244,0,0,0,0,0,0,0,0,0,-1,1532,1268,0,0
315,-244,0,0,0,0,0,0,0,0,0,-1,1539,1268,0,0
322,-244,0,0,0,0,0,0,0,0,0,-1,1546,1268,0,0
329,-244,0,0,0,0,0,0,0,0,0,-1,1553,1268,0,0
336,-244,0,0,0,0,0,0,0,0,0,-1,1560,1268,0,0
343,-244,0,0,0,0,0,0,0,0,0,-1,1567,1268,0,0
350,-244,0,0,0,0,0,0,0,0,0,-1,1574,1268,0,0
357,-244,0,0,0,0,0,0,0,0,0,-1,1581,1268,0,0
364,-244,0,0,0,0,0,0,0,0,0,-1,1588,1268,0,0
371,-244,0,0,0,0,0,0,0,0,0,-1,1595,1268,0,0
378,-244,0,0,0,0,0,0,0,0,0,-1,1602,1268,0,0
385,-244,0,0,0,0,0,0,0,0,0,-1,1609,1268,0,0
392,-244,0,0,0,0,0,0,0,0,0,-1,1616,1268,0,0
399,-244,0,0,0,0,0,0,0,0,0,-1,1623,1268,0,0
406,-244,0,0,0,0,0,0,0,0,0,-1,1630,1268,0,0
413,-244,0,0,0,0,0,0,0,0,0,-1,1637,1268,0,0
420,-244,0,0,0,0,0,0,0,0,0,-1,1644,1268,0,0
427,-244,0,0,0,0,0,0,0,0,0,-1,1651,1268,0,0
434,-244,0,0,0,0,0,0,0,0,0,-1,1658,1268,0,0
441,-244,0,0,0,0,0,0,0,0,0,-1,1665,1268,0,0
448,-244,0,0,0,0,0,0,0,0,0,-1,1672,1268,0,0
455,-244,0,0,0,0,0,0,0,0,0,-1,1679,1268,0,0
462,-244,0,0,0,0,0,0,0,0,0,-1,1686,1268,0,0
469,-244,0,0,0,0,0,0,0,0,0,-1,1693,1268,0,0
476,-244,0,0,0,0,0,0,0,0,0,-1,1700,1268,0,0
483,-244,0,0,0,0,0,0,0,0,0,-1,1707,1268,0,0
490,-244,0,0,0,0,0,0,0,0,0,-1,1714,1268,0,0
497,-244,0,0,0,0,0,0,0,0,0,-1,1721,1268,0,0
504,-244,0,0,0,0,0,0,0,0,0,-1,1728,1268,0,0
511,-244,0,0,0,0,0,0,0,0,0,-1,1735,1268,0,0
518,-244,0,0,0,0,0,0,0,0,0,-1,1742,1268,0,0
525,-244,0,0,0,0,0,0,0,0,0,-1,1749,1268,0,0
532,-244,0,0,0,0,0,0,0,0,0,-1,1756,1268,0,0
539,-244,0,0,0,0,0,0,0,0,0,-1,1763,1268,0,0
546,-244,0,0,0,0,0,0,0,0,0,-1,1770,1268,0,0
553,-244,0,0,0,0,0,0,0,0,0,-1,1777,1268,0,0
560,-244,0,0,0,0,0,0,0,0,0,-1,1784,1268,0,0
567,-244,0,0,0,0,0,0,0,0,0,-1,1791,1268,0,0
574,-244,0,0,0,0,0,0,0,0,0,-1,1798,1268,0,0
581,-244,0,0,0,0,0,0,0,0,0,-1,1805,1268,0,0
588,-244,0,0,0,0,0,0,0,0,0,-1,1812,1268,0,0
595,-244,0,0,0,0,0,0,0,0,0,-1,1819,1268,0,0
602,-244,0,0,0,0,0,0,0,0,0,-1,1826,1268,0,0
609,-244,0,0,0,0,0,0,0,0,0,-1,1833,1268,0,0
616,-244,55.1278,2.58459,-0.00618296,0.00334486,0.000386222,0.00336049,-0.00619859,1.53035,0.00559944,0.0313819,1840,1268,55.1278,-2.58465
623,-244,55.1074,2.64221,-0.00452777,0.00613094,-0.00284128,0.00684103,-0.00523786,-1.32589,0.00699419,0.0242177,1847,1268,55.1074,-2.64224
630,-244,55.0336,2.6377,-0.00278635,0.00854072,-0.00613957,0.01123,-0.00547566,-1.15794,0.00983391,0.0219309,1854,1268,55.0336,-2.63766
637,-244,54.9622,2.54846,-0.00125322,0.0089237,-0.00743575,0.0128454,-0.00517491,-1.08546,0.0107136,0.0373189,1861,1268,54.9621,-2.54848
644,-244,54.8784,2.4823,-0.000491373,0.00778839,-0.00690876,0.0117027,-0.00440565,-1.05532,0.00961296,0.0473181,1868,1268,54.8784,-2.4823
651,-244,54.5717,2.24084,0,0,0,0,0,0,0,-1,1875,1268,54.5717,-2.2408
658,-244,53.9952,1.99402,0,0,0,0,0,0,0,-1,1882,1268,53.9952,-1.99407
665,-244,50.7988,1.09888,0,0,0,0,0,0,0,-1,1889,1268,50.7989,-1.09893
672,-244,32.224,3.6123,0,0,0,0,0,0,0,-1,1896,1268,32.224,-3.6123
679,-244,27.2593,7.90649,0,0,0,0,0,0,0,-1,1903,1268,27.2592,-7.9065
686,-244,41.4327,11.2568,0,0,0,0,0,0,0,-1,1910,1268,41.4327,-11.2569
693,-244,41.3845,10.6758,0.000467743,0.00151189,-0.00231669,0.00336461,-0.00138497,-0.896224,0.00282045,0.0288548,1917,1268,41.3845,-10.6758
700,-244,41.4153,10.0674,0.000979844,-0.000837956,-0.000771561,0.00126317,-0.00112128,-0.351926,0.00137748,0.0109732,1924,1268,41.4152,-10.0674
707,-244,41.4387,9.53125,0.000490917,-0.00083507,-0.000454013,0.00063147,-0.000975624,-0.300223,0.000934921,0.0119572,1931,1268,41.4387,-9.53125
714,-244,41.4691,8.99438,-0.000263767,-0.000655405,0.000180392,-0.000193341,-0.000725831,0.372207,0.00043404,0.0146607,1938,1268,41.4691,-8.99438
721,-244,41.3893,8.51733,-0.00105994,-0.000487798,0.000959065,0.00022695,-0.00177469,0.930338,0.00126558,0.0195597,1945,1268,41.3893,-8.51728
728,-244,41.3633,7.98364,-0.00187045,-0.000371242,0.00180182,0.000830683,-0.00307237,0.98252,0.00237409,0.0244566,1952,1268,41.3632,-7.98365
735,-244,41.3385,7.41003,-0.00271413,-0.000327236,0.00267192,0.00140566,-0.00444703,0.995436,0.00352786,0.0261936,1959,1268,41.3385,-7.40999
742,-244,41.2667,6.9845,-0.00354233,-0.000298135,0.00357045,0.00200141,-0.00584188,0.998615,0.0047058,0.0181994,1966,1268,41.2667,-6.98448
749,-244,41.1093,6.56458,-0.00430096,-0.000237493,0.00446505,0.00263634,-0.0071748,0.998913,0.005863,0.0267369,1973,1268,41.1093,-6.56461
756,-244,40.9558,6.15234,-0.00522347,-0.000213223,0.00537547,0.00321219,-0.00864889,1.00345,0.00708373,0.0381844,1980,1268,40.9558,-6.15237
763,-244,40.963,5.57495,0,0,0,0,0,0,0,-1,1987,1268,40.9631,-5.57498
770,-244,41.4612,4.73767,0,0,0,0,0,0,0,-1,1994,1268,41.4612,-4.73763
777,-244,40.9116,3.7749,0,0,0,0,0,0,0,-1,2001,1268,40.9116,-3.77485
784,-244,31.7908,5.20081,0,0,0,0,0,0,0,-1,2008,1268,31.7907,-5.20083
791,-244,0,0,0,0,0,0,0,0,0,-1,2015,1268,0,0
798,-244,0,0,0,0,0,0,0,0,0,-1,2022,1268,0,0
805,-244,0,0,0,0,0,0,0,0,0,-1,2029,1268,0,0
812,-244,0,0,0,0,0,0,0,0,0,-1,2036,1268,0,0
-700,-251,0,0,0,0,0,0,0,0,0,-1,524,1275,0,0
-693,-251,0,0,0,0,0,0,0,0,0,-1,531,1275,0,0
-686,-251,0,0,0,0,0,0,0,0,0,-1,538,1275,0,0
-679,-251,0,0,0,0,0,0,0,0,0,-1,545,1275,0,0
-672,-251,0,0,0,0,0,0,0,0,0,-1,552,1275,0,0
-665,-251,-39.3416,-7.43286,0,0,0,0,0,0,0,-1,559,1275,-39.3415,7.43292
-658,-251,-39.3706,-6.07568,0,0,0,0,0,0,0,-1,566,1275,-39.3706,6.07565
-651,-251,-39.3334,10.5758,0,0,0,0,0,0,0,-1,573,1275,-39.3334,-10.5758
-644,-251,-39.4733,-3.44775,0,0,0,0,0,0,0,-1,580,1275,-39.4733,3.44771
-637,-251,-25.7649,2.06409,0,0,0,0,0,0,0,-1,587,1275,-25.7649,-2.06411
-630,-251,-26.2245,2.84155,0,0,0,0,0,0,0,-1,594,1275,-26.2245,-2.84158
-623,-251,-26.1072,3.40112,-0.0210211,-0.0247727,0.0278788,0.00504491,-0.0508387,0.751807,0.0356932,0.0401806,601,1275,-26.1071,-3.40107
-616,-251,-25.9718,3.97021,-0.00992943,-0.0127348,0.015933,0.00466247,-0.0273267,0.741493,0.0199544,0.0199097,608,1275,-25.9718,-3.9702
-609,-251,-26.0044,4.51807,-0.00275354,-0.00491752,0.00795867,0.00419635,-0.0118674,0.717837,0.00962045,0.0192394,615,1275,-26.0044,-4.51807
-602,-251,-26.0391,5.1051,0.00182713,-0.000295712,0.00278772,0.00374866,-0.00221725,0.603498,0.00348204,0.014068,622,1275,-26.0391,-5.1051
-595,-251,-26.0778,5.68152,0.0031507,0.000841432,0.000638052,0.00331527,0.000676865,0.252419,0.00202267,0.013149,629,1275,-26.0778,-5.68152
-588,-251,-26.0865,6.229,0.00302653,8.48769e-05,0.000425432,0.00308682,2.45849e-05,0.140782,0.00204973,0.0155469,636,1275,-26.0866,-6.229
-581,-251,-26.1049,6.82593,0.00334908,-0.000723505,0.000213079,0.0033602,-0.000734623,0.0521307,0.00252094,0.0147341,643,1275,-26.1048,-6.82597
-574,-251,-26.1133,7.427,0.0039151,-0.00158676,4.08463e-05,0.00391541,-0.00158706,0.00742354,0.00327028,0.0126635,650,1275,-26.1133,-7.42698
-567,-251,-26.1293,8.00061,0.00491169,-0.00249824,-8.61925e-05,0.00491269,-0.00249924,-0.0116299,0.00435424,0.0154912,657,1275,-26.1293,-8.00066
-560,-251,-26.0317,8.73315,0.00484062,-0.00218959,-0.000898638,0.00495367,-0.00230264,-0.125145,0.00428162,0.038582,664,1275,-26.0317,-8.73312
-553,-251,-25.8362,9.34949,0,0,0,0,0,0,0,-1,671,1275,-25.8362,-9.34944
-546,-251,-12.995,4.5675,0,0,0,0,0,0,0,-1,678,1275,-12.995,-4.56745
-539,-251,-10.7916,0.366333,0,0,0,0,0,0,0,-1,685,1275,-10.7916,-0.366282
-532,-251,-10.7391,-0.00769043,0,0,0,0,0,0,0,-1,692,1275,-10.7391,0.00773227
-525,-251,-29.4286,-0.250244,0,0,0,0,0,0,0,-1,699,1275,-29.4286,0.250266
-518,-251,-32.6981,0.678833,0,0,0,0,0,0,0,-1,706,1275,-32.6981,-0.678787
-511,-251,-29.4731,0.637085,0,0,0,0,0,0,0,-1,713,1275,-29.4731,-0.637025
-504,-251,-30.6428,0.792358,0,0,0,0,0,0,0,-1,720,1275,-30.6427,-0.792335
-497,-251,-40.731,1.61963,0,0,0,0,0,0,0,-1,727,1275,-40.731,-1.61959
-490,-251,0,0,0,0,0,0,0,0,0,-1,734,1275,0,0
-483,-251,0,0,0,0,0,0,0,0,0,-1,741,1275,0,0
-476,-251,0,0,0,0,0,0,0,0,0,-1,748,1275,0,0
-469,-251,0,0,0,0,0,0,0,0,0,-1,755,1275,0,0
-462,-251,0,0,0,0,0,0,0,0,0,-1,762,1275,0,0
-455,-251,0,0,0,0,0,0,0,0,0,-1,769,1275,0,0
-448,-251,0,0,0,0,0,0,0,0,0,-1,776,1275,0,0
-441,-251,0,0,0,0,0,0,0,0,0,-1,783,1275,0,0
-434,-251,0,0,0,0,0,0,0,0,0,-1,790,1275,0,0
-427,-251,0,0,0,0,0,0,0,0,0,-1,797,1275,0,0
-420,-251,0,0,0,0,0,0,0,0,0,-1,804,1275,0,0
-413,-251,0,0,0,0,0,0,0,0,0,-1,811,1275,0,0
-406,-251,0,0,0,0,0,0,0,0,0,-1,818,1275,0,0
-399,-251,0,0,0,0,0,0,0,0,0,-1,825,1275,0,0
-392,-251,0,0,0,0,0,0,0,0,0,-1,832,1275,0,0
-385,-251,0,0,0,0,0,0,0,0,0,-1,839,1275,0,0
-378,-251,0,0,0,0,0,0,0,0,0,-1,846,1275,0,0
-371,-251,0,0,0,0,0,0,0,0,0,-1,853,1275,0,0
-364,-251,0,0,0,0,0,0,0,0,0,-1,860,1275,0,0
-357,-251,0,0,0,0,0,0,0,0,0,-1,867,1275,0,0
-350,-251,0,0,0,0,0,0,0,0,0,-1,874,1275,0,0
-343,-251,0,0,0,0,0,0,0,0,0,-1,881,1275,0,0
-336,-251,0,0,0,0,0,0,0,0,0,-1,888,1275,0,0
-329,-251,0,0,0,0,0,0,0,0,0,-1,895,1275,0,0
-322,-251,0,0,0,0,0,0,0,0,0,-1,902,1275,0,0
-315,-251,0,0,0,0,0,0,0,0,0,-1,909,1275,0,0
-308,-251,0,0,0,0,0,0,0,0,0,-1,916,1275,0,0
-301,-251,0,0,0,0,0,0,0,0,0,-1,923,1275,0,0
-294,-251,0,0,0,0,0,0,0,0,0,-1,930,1275,0,0
-287,-251,0,0,0,0,0,0,0,0,0,-1,937,1275,0,0
-280,-251,0,0,0,0,0,0,0,0,0,-1,944,1275,0,0
-273,-251,0,0,0,0,0,0,0,0,0,-1,951,1275,0,0
-266,-251,0,0,0,0,0,0,0,0,0,-1,958,1275,0,0
-259,-251,0,0,0,0,0,0,0,0,0,-1,965,1275,0,0
-252,-251,0,0,0,0,0,0,0,0,0,-1,972,1275,0,0
-245,-251,0,0,0,0,0,0,0,0,0,-1,979,1275,0,0
-238,-251,0,0,0,0,0,0,0,0,0,-1,986,1275,0,0
-231,-251,0,0,0,0,0,0,0,0,0,-1,993,1275,0,0
-224,-251,0,0,0,0,0,0,0,0,0,-1,1000,1275,0,0
-217,-251,0,0,0,0,0,0,0,0,0,-1,1007,1275,0,0
-210,-251,0,0,0,0,0,0,0,0,0,-1,1014,1275,0,0
-203,-251,0,0,0,0,0,0,0,0,0,-1,1021,1275,0,0
-196,-251,0,0,0,0,0,0,0,0,0,-1,1028,1275,0,0
-189,-251,0,0,0,0,0,0,0,0,0,-1,1035,1275,0,0
-182,-251,0,0,0,0,0,0,0,0,0,-1,1042,1275,0,0
-175,-251,0,0,0,0,0,0,0,0,0,-1,1049,1275,0,0
-168,-251,0,0,0,0,0,0,0,0,0,-1,1056,1275,0,0
-161,-251,0,0,0,0,0,0,0,0,0,-1,1063,1275,0,0
-154,-251,0,0,0,0,0,0,0,0,0,-1,1070,1275,0,0
-147,-251,0,0,0,0,0,0,0,0,0,-1,1077,1275,0,0
-140,-251,0,0,0,0,0,0,0,0,0,-1,1084,1275,0,0
-133,-251,0,0,0,0,0,0,0,0,0,-1,1091,1275,0,0
-126,-251,0,0,0,0,0,0,0,0,0,-1,1098,1275,0,0
-119,-251,0,0,0,0,0,0,0,0,0,-1,1105,1275,0,0
-112,-251,0,0,0,0,0,0,0,0,0,-1,1112,1275,0,0
-105,-251,0,0,0,0,0,0,0,0,0,-1,1119,1275,0,0
-98,-251,0,0,0,0,0,0,0,0,0,-1,1126,1275,0,0
-91,-251,0,0,0,0,0,0,0,0,0,-1,1133,1275,0,0
-84,-251,0,0,0,0,0,0,0,0,0,-1,1140,1275,0,0
-77,-251,0,0,0,0,0,0,0,0,0,-1,1147,1275,0,0
-70,-251,0,0,0,0,0,0,0,0,0,-1,1154,1275,0,0
-63,-251,0,0,0,0,0,0,0,0,0,-1,1161,1275,0,0
-56,-251,0,0,0,0,0,0,0,0,0,-1,1168,1275,0,0
-49,-251,0,0,0,0,0,0,0,0,0,-1,1175,1275,0,0
-42,-251,0,0,0,0,0,0,0,0,0,-1,1182,1275,0,0
-35,-251,0,0,0,0,0,0,0,0,0,-1,1189,1275,0,0
-28,-251,0,0,0,0,0,0,0,0,0,-1,1196,1275,0,0
-21,-251,0,0,0,0,0,0,0,0,0,-1,1203,1275,0,0
-14,-251,0,0,0,0,0,0,0,0,0,-1,1210,1275,0,0
-7,-251,0,0,0,0,0,0,0,0,0,-1,1217,1275,0,0
0,-251,0,0,0,0,0,0,0,0,0,-1,1224,1275,0,0
7,-251,0,0,0,0,0,0,0,0,0,-1,1231,1275,0,0
14,-251,0,0,0,0,0,0,0,0,0,-1,1238,1275,0,0
21,-251,0,0,0,0,0,0,0,0,0,-1,1245,1275,0,0
28,-251,0,0,0,0,0,0,0,0,0,-1,1252,1275,0,0
35,-251,0,0,0,0,0,0,0,0,0,-1,1259,1275,0,0
42,-251,0,0,0,0,0,0,0,0,0,-1,1266,1275,0,0
49,-251,0,0,0,0,0,0,0,0,0,-1,1273,1275,0,0
56,-251,0,0,0,0,0,0,0,0,0,-1,1280,1275,0,0
63,-251,0,0,0,0,0,0,0,0,0,-1,1287,1275,0,0
70,-251,0,0,0,0,0,0,0,0,0,-1,1294,1275,0,0
77,-251,0,0,0,0,0,0,0,0,0,-1,1301,1275,0,0
84,-251,0,0,0,0,0,0,0,0,0,-1,1308,1275,0,0
91,-251,0,0,0,0,0,0,0,0,0,-1,1315,1275,0,0
98,-251,0,0,0,0,0,0,0,0,0,-1,1322,1275,0,0
105,-251,0,0,0,0,0,0,0,0,0,-1,1329,1275,0,0
112,-251,0,0,0,0,0,0,0,0,0,-1,1336,1275,0,0
119,-251,0,0,0,0,0,0,0,0,0,-1,1343,1275,0,0
126,-251,0,0,0,0,0,0,0,0,0,-1,1350,1275,0,0
133,-251,0,0,0,0,0,0,0,0,0,-1,1357,1275,0,0
140,-251,0,0,0,0,0,0,0,0,0,-1,1364,1275,0,0
147,-251,0,0,0,0,0,0,0,0,0,-1,1371,1275,0,0
154,-251,0,0,0,0,0,0,0,0,0,-1,1378,1275,0,0
161,-251,0,0,0,0,0,0,0,0,0,-1,1385,1275,0,0
168,-251,0,0,0,0,0,0,0,0,0,-1,1392,1275,0,0
175,-251,0,0,0,0,0,0,0,0,0,-1,1399,1275,0,0
182,-251,0,0,0,0,0,0,0,0,0,-1,1406,1275,0,0
189,-251,0,0,0,0,0,0,0,0,0,-1,1413,1275,0,0
196,-251,0,0,0,0,0,0,0,0,0,-1,1420,1275,0,0
203,-251,0,0,0,0,0,0,0,0,0,-1,1427,1275,0,0
210,-251,0,0,0,0,0,0,0,0,0,-1,1434,1275,0,0
217,-251,0,0,0,0,0,0,0,0,0,-1,1441,1275,0,0
224,-251,0,0,0,0,0,0,0,0,0,-1,1448,1275,0,0
231,-251,0,0,0,0,0,0,0,0,0,-1,1455,1275,0,0
238,-251,0,0,0,0,0,0,0,0,0,-1,1462,1275,0,0
245,-251,0,0,0,0,0,0,0,0,0,-1,1469,1275,0,0
252,-251,0,0,0,0,0,0,0,0,0,-1,1476,1275,0,0
259,-251,0,0,0,0,0,0,0,0,0,-1,1483,1275,0,0
266,-251,0,0,0,0,0,0,0,0,0,-1,1490,1275,0,0
273,-251,0,0,0,0,0,0,0,0,0,-1,1497,1275,0,0
280,-251,0,0,0,0,0,0,0,0,0,-1,1504,1275,0,0
287,-251,0,0,0,0,0,0,0,0,0,-1,1511,1275,0,0
294,-251,0,0,0,0,0,0,0,0,0,-1,1518,1275,0,0
301,-251,0,0,0,0,0,0,0,0,0,-1,1525,1275,0,0
308,-251,0,0,0,0,0,0,0,0,0,-1,1532,1275,0,0
315,-251,0,0,0,0,0,0,0,0,0,-1,1539,1275,0,0
322,-251,0,0,0,0,0,0,0,0,0,-1,1546,1275,0,0
329,-251,0,0,0,0,0,0,0,0,0,-1,1553,1275,0,0
336,-251,0,0,0,0,0,0,0,0,0,-1,1560,1275,0,0
343,-251,0,0,0,0,0,0,0,0,0,-1,1567,1275,0,0
350,-251,0,0,0,0,0,0,0,0,0,-1,1574,1275,0,0
357,-251,0,0,0,0,0,0,0,0,0,-1,1581,1275,0,0
364,-251,0,0,0,0,0,0,0,0,0,-1,1588,1275,0,0
371,-251,0,0,0,0,0,0,0,0,0,-1,1595,1275,0,0
378,-251,0,0,0,0,0,0,0,0,0,-1,1602,1275,0,0
385,-251,0,0,0,0,0,0,0,0,0,-1,1609,1275,0,0
392,-251,0,0,0,0,0,0,0,0,0,-1,1616,1275,0,0
399,-251,0,0,0,0,0,0,0,0,0,-1,1623,1275,0,0
406,-251,0,0,0,0,0,0,0,0,0,-1,1630,1275,0,0
413,-251,0,0,0,0,0,0,0,0,0,-1,1637,1275,0,0
420,-251,0,0,0,0,0,0,0,0,0,-1,1644,1275,0,0
427,-251,0,0,0,0,0,0,0,0,0,-1,1651,1275,0,0
434,-251,0,0,0,0,0,0,0,0,0,-1,1658,1275,0,0
441,-251,0,0,0,0,0,0,0,0,0,-1,1665,1275,0,0
448,-251,0,0,0,0,0,0,0,0,0,-1,1672,1275,0,0
455,-251,0,0,0,0,0,0,0,0,0,-1,1679,1275,0,0
462,-251,0,0,0,0,0,0,0,0,0,-1,1686,1275,0,0
469,-251,0,0,0,0,0,0,0,0,0,-1,1693,1275,0,0
476,-251,0,0,0,0,0,0,0,0,0,-1,1700,1275,0,0
483,-251,0,0,0,0,0,0,0,0,0,-1,1707,1275,0,0
490,-251,0,0,0,0,0,0,0,0,0,-1,1714,1275,0,0
497,-251,0,0,0,0,0,0,0,0,0,-1,1721,1275,0,0
504,-251,0,0,0,0,0,0,0,0,0,-1,1728,1275,0,0
511,-251,0,0,0,0,0,0,0,0,0,-1,1735,1275,0,0
518,-251,0,0,0,0,0,0,0,0,0,-1,1742,1275,0,0
525,-251,0,0,0,0,0,0,0,0,0,-1,1749,1275,0,0
532,-251,0,0,0,0,0,0,0,0,0,-1,1756,1275,0,0
539,-251,0,0,0,0,0,0,0,0,0,-1,1763,1275,0,0
546,-251,0,0,0,0,0,0,0,0,0,-1,1770,1275,0,0
553,-251,0,0,0,0,0,0,0,0,0,-1,1777,1275,0,0
560,-251,0,0,0,0,0,0,0,0,0,-1,1784,1275,0,0
567,-251,0,0,0,0,0,0,0,0,0,-1,1791,1275,0,0
574,-251,0,0,0,0,0,0,0,0,0,-1,1798,1275,0,0
581,-251,0,0,0,0,0,0,0,0,0,-1,1805,1275,0,0
588,-251,0,0,0,0,0,0,0,0,0,-1,1812,1275,0,0
595,-251,0,0,0,0,0,0,0,0,0,-1,1819,1275,0,0
602,-251,0,0,0,0,0,0,0,0,0,-1,1826,1275,0,0
609,-251,55.0575,2.63049,-0.00853357,0.00277867,0.00148105,0.00296936,-0.00872426,1.44275,0.00701856,0.028138,1833,1275,55.0575,-2.63055
616,-251,55.0703,2.63269,-0.00676899,0.00585773,-0.00171743,0.00608716,-0.00699842,-1.43799,0.00756107,0.0251078,1840,1275,55.0703,-2.63273
623,-251,55.0394,2.61926,-0.00468698,0.00875326,-0.00525543,0.0105642,-0.00649796,-1.23895,0.00994367,0.0213132,1847,1275,55.0394,-2.61924
630,-251,54.9994,2.56689,-0.00262533,0.0107066,-0.00823857,0.0146382,-0.00655697,-1.12554,0.01253,0.0308185,1854,1275,54.9994,-2.56686
637,-251,54.9836,2.47595,-0.0011251,0.0099063,-0.00830315,0.0143588,-0.00557761,-1.07858,0.0118766,0.0388341,1861,1275,54.9836,-2.476
644,-251,54.8253,1.68738,-0.000477728,0.00834478,-0.00726823,0.0124357,-0.00456861,-1.05815,0.0101616,0.0446511,1868,1275,54.8254,-1.68741
651,-251,54.5487,1.10217,0,0,0,0,0,0,0,-1,1875,1275,54.5487,-1.10221
658,-251,51.5793,1.25964,0,0,0,0,0,0,0,-1,1882,1275,51.5793,-1.2597
665,-251,32.9579,2.60229,0,0,0,0,0,0,0,-1,1889,1275,32.9579,-2.60231
672,-251,26.0721,4.53064,0,0,0,0,0,0,0,-1,1896,1275,26.0721,-4.53063
679,-251,29.1344,8.63782,0,0,0,0,0,0,0,-1,1903,1275,29.1344,-8.63778
686,-251,41.0112,11.1769,0,0,0,0,0,0,0,-1,1910,1275,41.0112,-11.1768
693,-251,40.9336,10.6492,0.00062842,0.00164878,-0.00235015,0.00354349,-0.00126629,-0.892281,0.0028788,0.0163527,1917,1275,40.9336,-10.6492
700,-251,40.9012,10.0988,0.00114997,-0.000864511,-0.000572292,0.0013012,-0.00101574,-0.258346,0.00134107,0.00920886,1924,1275,40.9012,-10.0987
707,-251,40.9219,9.54602,0.000505904,-0.000818693,-0.000205998,0.000537201,-0.00084999,-0.150775,0.000807653,0.0118653,1931,1275,40.9219,-9.54603
714,-251,40.9287,9.02844,-0.00038154,-0.000660235,0.000452942,-4.69951e-05,-0.00099478,0.636168,0.00064809,0.0143987,1938,1275,40.9287,-9.0285
721,-251,40.848,8.54858,-0.00132468,-0.000530171,0.0012317,0.000366751,-0.0022216,0.941394,0.00161724,0.021387,1945,1275,40.848,-8.54859
728,-251,40.8292,8.06921,-0.00230405,-0.000470389,0.0020819,0.000887621,-0.00366206,0.992811,0.0027848,0.0248534,1952,1275,40.8292,-8.06927
735,-251,40.8334,7.4856,-0.00333173,-0.00045589,0.00296659,0.00140289,-0.00519052,1.01107,0.00401062,0.0197066,1959,1275,40.8334,-7.4856
742,-251,40.7311,7.04138,-0.00436477,-0.000449465,0.00389172,0.00194925,-0.00676348,1.01843,0.00528007,0.01843,1966,1275,40.731,-7.04135
749,-251,40.4468,6.72083,-0.00538344,-0.000370393,0.0048016,0.00253954,-0.00829338,1.02595,0.00654186,0.0388424,1973,1275,40.4468,-6.72079
756,-251,40.1965,6.29541,0,0,0,0,0,0,0,-1,1980,1275,40.1965,-6.29545
763,-251,40.524,5.61914,0,0,0,0,0,0,0,-1,1987,1275,40.524,-5.61909
770,-251,40.5034,4.45117,0,0,0,0,0,0,0,-1,1994,1275,40.5034,-4.45113
777,-251,31.5731,4.33252,0,0,0,0,0,0,0,-1,2001,1275,31.5731,-4.33251
784,-251,32.0776,5.78247,0,0,0,0,0,0,0,-1,2008,1275,32.0776,-5.78247
791,-251,0,0,0,0,0,0,0,0,0,-1,2015,1275,0,0
798,-251,0,0,0,0,0,0,0,0,0,-1,2022,1275,0,0
805,-251,0,0,0,0,0,0,0,0,0,-1,2029,1275,0,0
812,-251,0,0,0,0,0,0,0,0,0,-1,2036,1275,0,0
-700,-258,0,0,0,0,0,0,0,0,0,-1,524,1282,0,0
-693,-258,0,0,0,0,0,0,0,0,0,-1,531,1282,0,0
-686,-258,0,0,0,0,0,0,0,0,0,-1,538,1282,0,0
-679,-258,0,0,0,0,0,0,0,0,0,-1,545,1282,0,0
-672,-258,0,0,0,0,0,0,0,0,0,-1,552,1282,0,0
-665,-258,-35.0007,-0.969238,0,0,0,0,0,0,0,-1,559,1282,-35.0008,0.969225
-658,-258,-39.6628,-6.20264,0,0,0,0,0,0,0,-1,566,1282,-39.6628,6.20262
-651,-258,-39.7765,-4.8811,0,0,0,0,0,0,0,-1,573,1282,-39.7765,4.88109
-644,-258,-39.832,-3.56323,0,0,0,0,0,0,0,-1,580,1282,-39.832,3.56317
-637,-258,-36.0912,-1.18311,0,0,0,0,0,0,0,-1,587,1282,-36.0912,1.18306
-630,-258,-25.3735,2.58899,0,0,0,0,0,0,0,-1,594,1282,-25.3736,-2.58905
-623,-258,-25.4393,3.33484,0,0,0,0,0,0,0,-1,601,1282,-25.4392,-3.33484
-616,-258,-25.4373,3.94275,-0.00835964,-0.0123148,0.0164183,0.00619969,-0.0268742,0.725461,0.0203007,0.0355337,608,1282,-25.4372,-3.94279
-609,-258,-25.401,4.55005,-0.0014614,-0.00456878,0.00848173,0.00560778,-0.011638,0.694812,0.0101577,0.017093,615,1282,-25.401,-4.55008
-602,-258,-25.433,5.14856,0.00267697,-9.47037e-05,0.00333915,0.00490644,-0.00232418,0.588702,0.00426242,0.0134024,622,1282,-25.433,-5.14857
-595,-258,-25.4767,5.71423,0.00368913,0.00102289,0.00108644,0.00407577,0.000636258,0.341898,0.00253188,0.0116878,629,1282,-25.4767,-5.71427
-588,-258,-25.5138,6.27039,0.00322677,0.000310204,0.000757585,0.00341182,0.00012516,0.239565,0.00223399,0.0129475,636,1282,-25.5138,-6.27042
-581,-258,-25.5319,6.84631,0.00320978,-0.000407615,0.000498769,0.00327729,-0.000475126,0.134537,0.00235924,0.014561,643,1282,-25.5319,-6.84633
-574,-258,-25.5217,7.44116,0.00356844,-0.00113701,0.00030926,0.00358868,-0.00115725,0.0653491,0.00285741,0.0138826,650,1282,-25.5217,-7.4412
-567,-258,-25.5663,8.04089,0.00444519,-0.00185441,0.000156538,0.00444908,-0.0018583,0.0248285,0.00374257,0.0137181,657,1282,-25.5663,-8.04092
-560,-258,-25.5288,8.63306,0.00459961,-0.00160893,-0.000570549,0.00465161,-0.00166093,-0.0908832,0.00377842,0.040886,664,1282,-25.5288,-8.63304
-553,-258,-25.3859,9.20728,0,0,0,0,0,0,0,-1,671,1282,-25.386,-9.20722
-546,-258,-14.2231,5.92029,0,0,0,0,0,0,0,-1,678,1282,-14.2231,-5.92028
-539,-258,-10.2228,4.05823,0,0,0,0,0,0,0,-1,685,1282,-10.2228,-4.05823
-532,-258,-10.2173,-0.353882,0,0,0,0,0,0,0,-1,692,1282,-10.2173,0.353836
-525,-258,-21.8661,-1.5929,0,0,0,0,0,0,0,-1,699,1282,-21.8661,1.59285
-518,-258,-29.2484,0.123169,0,0,0,0,0,0,0,-1,706,1282,-29.2484,-0.123186
-511,-258,-23.5061,1.16833,0,0,0,0,0,0,0,-1,713,1282,-23.5061,-1.16833
-504,-258,-22.9178,0.484131,0,0,0,0,0,0,0,-1,720,1282,-22.9178,-0.484106
-497,-258,-17.8047,0.730469,0,0,0,0,0,0,0,-1,727,1282,-17.8048,-0.730489
-490,-258,-15.4346,0.632935,0,0,0,0,0,0,0,-1,734,1282,-15.4346,-0.632917
-483,-258,0,0,0,0,0,0,0,0,0,-1,741,1282,0,0
-476,-258,0,0,0,0,0,0,0,0,0,-1,748,1282,0,0
-469,-258,0,0,0,0,0,0,0,0,0,-1,755,1282,0,0
-462,-258,0,0,0,0,0,0,0,0,0,-1,762,1282,0,0
-455,-258,0,0,0,0,0,0,0,0,0,-1,769,1282,0,0
-448,-258,0,0,0,0,0,0,0,0,0,-1,776,1282,0,0
-441,-258,0,0,0,0,0,0,0,0,0,-1,783,1282,0,0
-434,-258,0,0,0,0,0,0,0,0,0,-1,790,1282,0,0
-427,-258,0,0,0,0,0,0,0,0,0,-1,797,1282,0,0
-420,-258,0,0,0,0,0,0,0,0,0,-1,804,1282,0,0
-413,-258,0,0,0,0,0,0,0,0,0,-1,811,1282,0,0
-406,-258,0,0,0,0,0,0,0,0,0,-1,818,1282,0,0
-399,-258,0,0,0,0,0,0,0,0,0,-1,825,1282,0,0
-392,-258,0,0,0,0,0,0,0,0,0,-1,832,1282,0,0
-385,-258,0,0,0,0,0,0,0,0,0,-1,839,1282,0,0
-378,-258,0,0,0,0,0,0,0,0,0,-1,846,1282,0,0
-371,-258,0,0,0,0,0,0,0,0,0,-1,853,1282,0,0
-364,-258,0,0,0,0,0,0,0,0,0,-1,860,1282,0,0
-357,-258,0,0,0,0,0,0,0,0,0,-1,867,1282,0,0
-350,-258,0,0,0,0,0,0,0,0,0,-1,874,1282,0,0
-343,-258,0,0,0,0,0,0,0,0,0,-1,881,1282,0,0
-336,-258,0,0,0,0,0,0,0,0,0,-1,888,1282,0,0
-329,-258,0,0,0,0,0,0,0,0,0,-1,895,1282,0,0
-322,-258,0,0,0,0,0,0,0,0,0,-1,902,1282,0,0
-315,-258,0,0,0,0,0,0,0,0,0,-1,909,1282,0,0
-308,-258,0,0,0,0,0,0,0,0,0,-1,916,1282,0,0
-301,-258,0,0,0,0,0,0,0,0,0,-1,923,1282,0,0
-294,-258,0,0,0,0,0,0,0,0,0,-1,930,1282,0,0
-287,-258,0,0,0,0,0,0,0,0,0,-1,937,1282,0,0
-280,-258,0,0,0,0,0,0,0,0,0,-1,944,1282,0,0
-273,-258,0,0,0,0,0,0,0,0,0,-1,951,1282,0,0
-266,-258,0,0,0,0,0,0,0,0,0,-1,958,1282,0,0
-259,-258,0,0,0,0,0,0,0,0,0,-1,965,1282,0,0
-252,-258,0,0,0,0,0,0,0,0,0,-1,972,1282,0,0
-245,-258,0,0,0,0,0,0,0,0,0,-1,979,1282,0,0
-238,-258,0,0,0,0,0,0,0,0,0,-1,986,1282,0,0
-231,-258,0,0,0,0,0,0,0,0,0,-1,993,1282,0,0
-224,-258,0,0,0,0,0,0,0,0,0,-1,1000,1282,0,0
-217,-258,0,0,0,0,0,0,0,0,0,-1,1007,1282,0,0
-210,-258,0,0,0,0,0,0,0,0,0,-1,1014,1282,0,0
-203,-258,0,0,0,0,0,0,0,0,0,-1,1021,1282,0,0
-196,-258,0,0,0,0,0,0,0,0,0,-1,1028,1282,0,0
-189,-258,0,0,0,0,0,0,0,0,0,-1,1035,1282,0,0
-182,-258,0,0,0,0,0,0,0,0,0,-1,1042,1282,0,0
-175,-258,0,0,0,0,0,0,0,0,0,-1,1049,1282,0,0
-168,-258,0,0,0,0,0,0,0,0,0,-1,1056,1282,0,0
-161,-258,0,0,0,0,0,0,0,0,0,-1,1063,1282,0,0
-154,-258,0,0,0,0,0,0,0,0,0,-1,1070,1282,0,0
-147,-258,0,0,0,0,0,0,0,0,0,-1,1077,1282,0,0
-140,-258,0,0,0,0,0,0,0,0,0,-1,1084,1282,0,0
-133,-258,0,0,0,0,0,0,0,0,0,-1,1091,1282,0,0
-126,-258,0,0,0,0,0,0,0,0,0,-1,1098,1282,0,0
-119,-258,0,0,0,0,0,0,0,0,0,-1,1105,1282,0,0
-112,-258,0,0,0,0,0,0,0,0,0,-1,1112,1282,0,0
-105,-258,0,0,0,0,0,0,0,0,0,-1,1119,1282,0,0
-98,-258,0,0,0,0,0,0,0,0,0,-1,1126,1282,0,0
-91,-258,0,0,0,0,0,0,0,0,0,-1,1133,1282,0,0
-84,-258,0,0,0,0,0,0,0,0,0,-1,1140,1282,0,0
-77,-258,0,0,0,0,0,0,0,0,0,-1,1147,1282,0,0
-70,-258,0,0,0,0,0,0,0,0,0,-1,1154,1282,0,0
-63,-258,0,0,0,0,0,0,0,0,0,-1,1161,1282,0,0
-56,-258,0,0,0,0,0,0,0,0,0,-1,1168,1282,0,0
-49,-258,0,0,0,0,0,0,0,0,0,-1,1175,1282,0,0
-42,-258,0,0,0,0,0,0,0,0,0,-1,1182,1282,0,0
-35,-258,0,0,0,0,0,0,0,0,0,-1,1189,1282,0,0
-28,-258,0,0,0,0,0,0,0,0,0,-1,1196,1282,0,0
-21,-258,0,0,0,0,0,0,0,0,0,-1,1203,1282,0,0
-14,-258,0,0,0,0,0,0,0,0,0,-1,1210,1282,0,0
-7,-258,0,0,0,0,0,0,0,0,0,-1,1217,1282,0,0
0,-258,0,0,0,0,0,0,0,0,0,-1,1224,1282,0,0
7,-258,0,0,0,0,0,0,0,0,0,-1,1231,1282,0,0
14,-258,0,0,0,0,0,0,0,0,0,-1,1238,1282,0,0
21,-258,0,0,0,0,0,0,0,0,0,-1,1245,1282,0,0
28,-258,0,0,0,0,0,0,0,0,0,-1,1252,1282,0,0
35,-258,0,0,0,0,0,0,0,0,0,-1,1259,1282,0,0
42,-258,0,0,0,0,0,0,0,0,0,-1,1266,1282,0,0
49,-258,0,0,0,0,0,0,0,0,0,-1,1273,1282,0,0
56,-258,0,0,0,0,0,0,0,0,0,-1,1280,1282,0,0
63,-258,0,0,0,0,0,0,0,0,0,-1,1287,1282,0,0
70,-258,0,0,0,0,0,0,0,0,0,-1,1294,1282,0,0
77,-258,0,0,0,0,0,0,0,0,0,-1,1301,1282,0,0
84,-258,0,0,0,0,0,0,0,0,0,-1,1308,1282,0,0
91,-258,0,0,0,0,0,0,0,0,0,-1,1315,1282,0,0
98,-258,0,0,0,0,0,0,0,0,0,-1,1322,1282,0,0
105,-258,0,0,0,0,0,0,0,0,0,-1,1329,1282,0,0
112,-258,0,0,0,0,0,0,0,0,0,-1,1336,1282,0,0
119,-258,0,0,0,0,0,0,0,0,0,-1,1343,1282,0,0
126,-258,0,0,0,0,0,0,0,0,0,-1,1350,1282,0,0
133,-258,0,0,0,0,0,0,0,0,0,-1,1357,1282,0,0
140,-258,0,0,0,0,0,0,0,0,0,-1,1364,1282,0,0
147,-258,0,0,0,0,0,0,0,0,0,-1,1371,1282,0,0
154,-258,0,0,0,0,0,0,0,0,0,-1,1378,1282,0,0
161,-258,0,0,0,0,0,0,0,0,0,-1,1385,1282,0,0
168,-258,0,0,0,0,0,0,0,0,0,-1,1392,1282,0,0
175,-258,0,0,0,0,0,0,0,0,0,-1,1399,1282,0,0
182,-258,0,0,0,0,0,0,0,0,0,-1,1406,1282,0,0
189,-258,0,0,0,0,0,0,0,0,0,-1,1413,1282,0,0
196,-258,0,0,0,0,0,0,0,0,0,-1,1420,1282,0,0
203,-258,0,0,0,0,0,0,0,0,0,-1,1427,1282,0,0
210,-258,0,0,0,0,0,0,0,0,0,-1,1434,1282,0,0
217,-258,0,0,0,0,0,0,0,0,0,-1,1441,1282,0,0
224,-258,0,0,0,0,0,0,0,0,0,-1,1448,1282,0,0
231,-258,0,0,0,0,0,0,0,0,0,-1,1455,1282,0,0
238,-258,0,0,0,0,0,0,0,0,0,-1,1462,1282,0,0
245,-258,0,0,0,0,0,0,0,0,0,-1,1469,1282,0,0
252,-258,0,0,0,0,0,0,0,0,0,-1,1476,1282,0,0
259,-258,0,0,0,0,0,0,0,0,0,-1,1483,1282,0,0
266,-258,0,0,0,0,0,0,0,0,0,-1,1490,1282,0,0
273,-258,0,0,0,0,0,0,0,0,0,-1,1497,1282,0,0
280,-258,0,0,0,0,0,0,0,0,0,-1,1504,1282,0,0
287,-258,0,0,0,0,0,0,0,0,0,-1,1511,1282,0,0
294,-258,0,0,0,0,0,0,0,0,0,-1,1518,1282,0,0
301,-258,0,0,0,0,0,0,0,0,0,-1,1525,1282,0,0
308,-258,0,0,0,0,0,0,0,0,0,-1,1532,1282,0,0
315,-258,0,0,0,0,0,0,0,0,0,-1,1539,1282,0,0
322,-258,0,0,0,0,0,0,0,0,0,-1,1546,1282,0,0
329,-258,0,0,0,0,0,0,0,0,0,-1,1553,1282,0,0
336,-258,0,0,0,0,0,0,0,0,0,-1,1560,1282,0,0
343,-258,0,0,0,0,0,0,0,0,0,-1,1567,1282,0,0
350,-258,0,0,0,0,0,0,0,0,0,-1,1574,1282,0,0
357,-258,0,0,0,0,0,0,0,0,0,-1,1581,1282,0,0
364,-258,0,0,0,0,0,0,0,0,0,-1,1588,1282,0,0
371,-258,0,0,0,0,0,0,0,0,0,-1,1595,1282,0,0
378,-258,0,0,0,0,0,0,0,0,0,-1,1602,1282,0,0
385,-258,0,0,0,0,0,0,0,0,0,-1,1609,1282,0,0
392,-258,0,0,0,0,0,0,0,0,0,-1,1616,1282,0,0
399,-258,0,0,0,0,0,0,0,0,0,-1,1623,1282,0,0
406,-258,0,0,0,0,0,0,0,0,0,-1,1630,1282,0,0
413,-258,0,0,0,0,0,0,0,0,0,-1,1637,1282,0,0
420,-258,0,0,0,0,0,0,0,0,0,-1,1644,1282,0,0
427,-258,0,0,0,0,0,0,0,0,0,-1,1651,1282,0,0
434,-258,0,0,0,0,0,0,0,0,0,-1,1658,1282,0,0
441,-258,0,0,0,0,0,0,0,0,0,-1,1665,1282,0,0
448,-258,0,0,0,0,0,0,0,0,0,-1,1672,1282,0,0
455,-258,0,0,0,0,0,0,0,0,0,-1,1679,1282,0,0
462,-258,0,0,0,0,0,0,0,0,0,-1,1686,1282,0,0
469,-258,0,0,0,0,0,0,0,0,0,-1,1693,1282,0,0
476,-258,0,0,0,0,0,0,0,0,0,-1,1700,1282,0,0
483,-258,0,0,0,0,0,0,0,0,0,-1,1707,1282,0,0
490,-258,0,0,0,0,0,0,0,0,0,-1,1714,1282,0,0
497,-258,0,0,0,0,0,0,0,0,0,-1,1721,1282,0,0
504,-258,0,0,0,0,0,0,0,0,0,-1,1728,1282,0,0
511,-258,0,0,0,0,0,0,0,0,0,-1,1735,1282,0,0
518,-258,0,0,0,0,0,0,0,0,0,-1,1742,1282,0,0
525,-258,0,0,0,0,0,0,0,0,0,-1,1749,1282,0,0
532,-258,0,0,0,0,0,0,0,0,0,-1,1756,1282,0,0
539,-258,0,0,0,0,0,0,0,0,0,-1,1763,1282,0,0
546,-258,0,0,0,0,0,0,0,0,0,-1,1770,1282,0,0
553,-258,0,0,0,0,0,0,0,0,0,-1,1777,1282,0,0
560,-258,0,0,0,0,0,0,0,0,0,-1,1784,1282,0,0
567,-258,0,0,0,0,0,0,0,0,0,-1,1791,1282,0,0
574,-258,0,0,0,0,0,0,0,0,0,-1,1798,1282,0,0
581,-258,0,0,0,0,0,0,0,0,0,-1,1805,1282,0,0
588,-258,0,0,0,0,0,0,0,0,0,-1,1812,1282,0,0
595,-258,0,0,0,0,0,0,0,0,0,-1,1819,1282,0,0
602,-258,0,0,0,0,0,0,0,0,0,-1,1826,1282,0,0
609,-258,55.0316,2.67542,-0.0105217,0.00656692,-0.0024552,0.00691268,-0.0108674,-1.43089,0.0103496,0.0246098,1833,1282,55.0316,-2.6754
616,-258,55.012,2.67029,-0.0082575,0.00979329,-0.00597256,0.0115905,-0.0100547,-1.2785,0.0125074,0.0231778,1840,1282,55.012,-2.6703
623,-258,54.9551,2.56653,-0.00577059,0.0119217,-0.00885752,0.0155939,-0.00944284,-1.17778,0.0145997,0.0319365,1847,1282,54.9551,-2.56656
630,-258,54.9518,2.57129,-0.00352659,0.0123203,-0.0101775,0.017295,-0.00850133,-1.11615,0.0151793,0.0411964,1854,1282,54.9518,-2.57133
637,-258,54.9288,2.4093,-0.00194099,0.010435,-0.00889188,0.0150802,-0.00658613,-1.08939,0.0128255,0.0444884,1861,1282,54.9289,-2.40936
644,-258,54.8573,1.3866,-0.00113497,0.00867871,-0.00750623,0.0127396,-0.00519588,-1.07488,0.010656,0.0499955,1868,1282,54.8573,-1.38655
651,-258,54.5481,0.612183,0,0,0,0,0,0,0,-1,1875,1282,54.5481,-0.612146
658,-258,45.4424,3.1405,0,0,0,0,0,0,0,-1,1882,1282,45.4423,-3.14046
665,-258,35.4747,1.1864,0,0,0,0,0,0,0,-1,1889,1282,35.4747,-1.18637
672,-258,22.703,2.80957,0,0,0,0,0,0,0,-1,1896,1282,22.703,-2.80962
679,-258,26.8693,8.19543,0,0,0,0,0,0,0,-1,1903,1282,26.8692,-8.19548
686,-258,40.3632,11.2753,0,0,0,0,0,0,0,-1,1910,1282,40.3632,-11.2753
693,-258,40.4236,10.6746,0.000552265,0.00183732,-0.00224523,0.00353015,-0.00114057,-0.92476,0.00281182,0.0153348,1917,1282,40.4236,-10.6745
700,-258,40.3813,10.1058,0.00102935,-0.000652442,-0.000327447,0.00109085,-0.000713948,-0.185669,0.00104955,0.00928975,1924,1282,40.3814,-10.1059
707,-258,40.3921,9.56702,0.000325944,-0.000618955,9.1537e-05,0.000334729,-0.000627741,0.0956893,0.000564201,0.0110808,1931,1282,40.392,-9.56698
714,-258,40.3829,9.05737,-0.00057979,-0.000560169,0.000759023,0.000189107,-0.00132907,0.79186,0.000955339,0.0116186,1938,1282,40.3829,-9.05732
721,-258,40.3505,8.53296,-0.0015525,-0.000565707,0.00153124,0.000549664,-0.00266787,0.941256,0.0019873,0.0196255,1945,1282,40.3505,-8.53294
728,-258,40.2994,8.04785,-0.00260995,-0.00065999,0.00239745,0.000953151,-0.00422309,0.978521,0.00318107,0.019226,1952,1282,40.2995,-8.04788
735,-258,40.3212,7.51685,-0.00375084,-0.000782618,0.00331163,0.00136225,-0.00589571,0.996056,0.00445454,0.0172509,1959,1282,40.3211,-7.51681
742,-258,40.2695,7.04932,-0.00492735,-0.000932711,0.00429236,0.00180427,-0.00766433,1.00316,0.00580521,0.0189702,1966,1282,40.2696,-7.04936
749,-258,40.0933,6.5918,-0.00616254,-0.0010202,0.00526811,0.0022707,-0.00945344,1.01242,0.00717989,0.0409411,1973,1282,40.0933,-6.59175
756,-258,39.9513,5.98254,0,0,0,0,0,0,0,-1,1980,1282,39.9513,-5.98251
763,-258,39.3638,5.09753,0,0,0,0,0,0,0,-1,1987,1282,39.3638,-5.09751
770,-258,40.3713,4.08325,0,0,0,0,0,0,0,-1,1994,1282,40.3713,-4.08323
777,-258,31.912,4.83093,0,0,0,0,0,0,0,-1,2001,1282,31.912,-4.8309
784,-258,32.6525,6.43091,0,0,0,0,0,0,0,-1,2008,1282,32.6525,-6.43091
791,-258,0,0,0,0,0,0,0,0,0,-1,2015,1282,0,0
798,-258,0,0,0,0,0,0,0,0,0,-1,2022,1282,0,0
805,-258,0,0,0,0,0,0,0,0,0,-1,2029,1282,0,0
812,-258,0,0,0,0,0,0,0,0,0,-1,2036,1282,0,0
-700,-265,0,0,0,0,0,0,0,0,0,-1,524,1289,0,0
-693,-265,0,0,0,0,0,0,0,0,0,-1,531,1289,0,0
-686,-265,0,0,0,0,0,0,0,0,0,-1,538,1289,0,0
-679,-265,0,0,0,0,0,0,0,0,0,-1,545,1289,0,0
-672,-265,0,0,0,0,0,0,0,0,0,-1,552,1289,0,0
-665,-265,-35.2086,-0.556274,0,0,0,0,0,0,0,-1,559,1289,-35.2086,0.556237
-658,-265,-35.6984,-0.362793,0,0,0,0,0,0,0,-1,566,1289,-35.6984,0.362835
-651,-265,-36.0469,-0.512085,0,0,0,0,0,0,0,-1,573,1289,-36.0469,0.51209
-644,-265,-36.3206,-0.629395,0,0,0,0,0,0,0,-1,580,1289,-36.3206,0.629443
-637,-265,-36.59,-0.684814,0,0,0,0,0,0,0,-1,587,1289,-36.59,0.68479
-630,-265,-36.6934,-0.568481,0,0,0,0,0,0,0,-1,594,1289,-36.6934,0.568483
-623,-265,-24.9936,2.83142,0,0,0,0,0,0,0,-1,601,1289,-24.9936,-2.83139
-616,-265,-24.8825,3.66943,-0.00605681,-0.0111845,0.0165986,0.00817478,-0.0254161,0.708774,0.0202273,0.0471109,608,1289,-24.8825,-3.66943
-609,-265,-24.8453,4.56763,0.00011486,-0.00377536,0.00877473,0.00715748,-0.010818,0.676326,0.0104496,0.0193972,615,1289,-24.8453,-4.56763
-602,-265,-24.8646,5.18494,0.0036082,0.000341686,0.00382398,0.00613311,-0.00218322,0.58357,0.00497868,0.0137693,622,1289,-24.8646,-5.18489
-595,-265,-24.8804,5.76038,0.00422844,0.00132216,0.00156114,0.00490809,0.000642515,0.410607,0.0030803,0.0118542,629,1289,-24.8804,-5.76041
-588,-265,-24.9136,6.31201,0.00348093,0.000612186,0.00110548,0.0038575,0.000235617,0.328311,0.00249684,0.0113883,636,1289,-24.9136,-6.31197
-581,-265,-24.9522,6.87134,0.00311934,-8.52777e-05,0.000765104,0.00329264,-0.000258575,0.222743,0.00228617,0.0134649,643,1289,-24.9522,-6.87134
-574,-265,-24.9858,7.48523,0.00313866,-0.000777317,0.000544086,0.00321285,-0.000851506,0.135521,0.00247505,0.0144108,650,1289,-24.9858,-7.48519
-567,-265,-25.0375,8.09119,0.00357999,-0.00144184,0.000423688,0.00361548,-0.00147733,0.0835821,0.00302548,0.0197012,657,1289,-25.0376,-8.09123
-560,-265,-25.0638,8.66138,0.00363111,-0.00140819,-3.67303e-05,0.00363138,-0.00140846,-0.00728826,0.00300262,0.0234235,664,1289,-25.0638,-8.66136
-553,-265,-25.0649,9.22949,0,0,0,0,0,0,0,-1,671,1289,-25.0649,-9.22954
-546,-265,-24.2283,10.2581,0,0,0,0,0,0,0,-1,678,1289,-24.2283,-10.258
-539,-265,-13.7668,6.39917,0,0,0,0,0,0,0,-1,685,1289,-13.7668,-6.39915
-532,-265,-8.53998,3.41467,0,0,0,0,0,0,0,-1,692,1289,-8.53996,-3.41473
-525,-265,-12.1317,0.514648,0,0,0,0,0,0,0,-1,699,1289,-12.1317,-0.514634
-518,-265,-24.1604,0.712402,0,0,0,0,0,0,0,-1,706,1289,-24.1604,-0.712425
-511,-265,-23.233,0.791626,0,0,0,0,0,0,0,-1,713,1289,-23.233,-0.791617
-504,-265,-22.3056,0.87085,0,0,0,0,0,0,0,-1,720,1289,-22.3056,-0.87081
-497,-265,-18.689,-0.278442,0,0,0,0,0,0,0,-1,727,1289,-18.689,0.278423
-490,-265,-15.1696,0.492676,0,0,0,0,0,0,0,-1,734,1289,-15.1696,-0.492688
-483,-265,0,0,0,0,0,0,0,0,0,-1,741,1289,0,0
-476,-265,0,0,0,0,0,0,0,0,0,-1,748,1289,0,0
-469,-265,0,0,0,0,0,0,0,0,0,-1,755,1289,0,0
-462,-265,0,0,0,0,0,0,0,0,0,-1,762,1289,0,0
-455,-265,0,0,0,0,0,0,0,0,0,-1,769,1289,0,0
-448,-265,0,0,0,0,0,0,0,0,0,-1,776,1289,0,0
-441,-265,0,0,0,0,0,0,0,0,0,-1,783,1289,0,0
-434,-265,0,0,0,0,0,0,0,0,0,-1,790,1289,0,0
-427,-265,0,0,0,0,0,0,0,0,0,-1,797,1289,0,0
-420,-265,0,0,0,0,0,0,0,0,0,-1,804,1289,0,0
-413,-265,0,0,0,0,0,0,0,0,0,-1,811,1289,0,0
-406,-265,0,0,0,0,0,0,0,0,0,-1,818,1289,0,0
-399,-265,0,0,0,0,0,0,0,0,0,-1,825,1289,0,0
-392,-265,0,0,0,0,0,0,0,0,0,-1,832,1289,0,0
-385,-265,0,0,0,0,0,0,0,0,0,-1,839,1289,0,0
-378,-265,0,0,0,0,0,0,0,0,0,-1,846,1289,0,0
-371,-265,0,0,0,0,0,0,0,0,0,-1,853,1289,0,0
-364,-265,0,0,0,0,0,0,0,0,0,-1,860,1289,0,0
-357,-265,0,0,0,0,0,0,0,0,0,-1,867,1289,0,0
-350,-265,0,0,0,0,0,0,0,0,0,-1,874,1289,0,0
-343,-265,0,0,0,0,0,0,0,0,0,-1,881,1289,0,0
-336,-265,0,0,0,0,0,0,0,0,0,-1,888,1289,0,0
-329,-265,0,0,0,0,0,0,0,0,0,-1,895,1289,0,0
-322,-265,0,0,0,0,0,0,0,0,0,-1,902,1289,0,0
-315,-265,0,0,0,0,0,0,0,0,0,-1,909,1289,0,0
-308,-265,0,0,0,0,0,0,0,0,0,-1,916,1289,0,0
-301,-265,0,0,0,0,0,0,0,0,0,-1,923,1289,0,0
-294,-265,0,0,0,0,0,0,0,0,0,-1,930,1289,0,0
-287,-265,0,0,0,0,0,0,0,0,0,-1,937,1289,0,0
-280,-265,0,0,0,0,0,0,0,0,0,-1,944,1289,0,0
-273,-265,0,0,0,0,0,0,0,0,0,-1,951,1289,0,0
-266,-265,0,0,0,0,0,0,0,0,0,-1,958,1289,0,0
-259,-265,0,0,0,0,0,0,0,0,0,-1,965,1289,0,0
-252,-265,0,0,0,0,0,0,0,0,0,-1,972,1289,0,0
-245,-265,0,0,0,0,0,0,0,0,0,-1,979,1289,0,0
-238,-265,0,0,0,0,0,0,0,0,0,-1,986,1289,0,0
-231,-265,0,0,0,0,0,0,0,0,0,-1,993,1289,0,0
-224,-265,0,0,0,0,0,0,0,0,0,-1,1000,1289,0,0
-217,-265,0,0,0,0,0,0,0,0,0,-1,1007,1289,0,0
-210,-265,0,0,0,0,0,0,0,0,0,-1,1014,1289,0,0
-203,-265,0,0,0,0,0,0,0,0,0,-1,1021,1289,0,0
-196,-265,0,0,0,0,0,0,0,0,0,-1,1028,1289,0,0
-189,-265,0,0,0,0,0,0,0,0,0,-1,1035,1289,0,0
-182,-265,0,0,0,0,0,0,0,0,0,-1,1042,1289,0,0
-175,-265,0,0,0,0,0,0,0,0,0,-1,1049,1289,0,0
-168,-265,0,0,0,0,0,0,0,0,0,-1,1056,1289,0,0
-161,-265,0,0,0,0,0,0,0,0,0,-1,1063,1289,0,0
-154,-265,0,0,0,0,0,0,0,0,0,-1,1070,1289,0,0
-147,-265,0,0,0,0,0,0,0,0,0,-1,1077,1289,0,0
-140,-265,0,0,0,0,0,0,0,0,0,-1,1084,1289,0,0
-133,-265,0,0,0,0,0,0,0,0,0,-1,1091,1289,0,0
-126,-265,0,0,0,0,0,0,0,0,0,-1,1098,1289,0,0
-119,-265,0,0,0,0,0,0,0,0,0,-1,1105,1289,0,0
-112,-265,0,0,0,0,0,0,0,0,0,-1,1112,1289,0,0
-105,-265,0,0,0,0,0,0,0,0,0,-1,1119,1289,0,0
-98,-265,0,0,0,0,0,0,0,0,0,-1,1126,1289,0,0
-91,-265,0,0,0,0,0,0,0,0,0,-1,1133,1289,0,0
-84,-265,0,0,0,0,0,0,0,0,0,-1,1140,1289,0,0
-77,-265,0,0,0,0,0,0,0,0,0,-1,1147,1289,0,0
-70,-265,0,0,0,0,0,0,0,0,0,-1,1154,1289,0,0
-63,-265,0,0,0,0,0,0,0,0,0,-1,1161,1289,0,0
-56,-265,0,0,0,0,0,0,0,0,0,-1,1168,1289,0,0
-49,-265,0,0,0,0,0,0,0,0,0,-1,1175,1289,0,0
-42,-265,0,0,0,0,0,0,0,0,0,-1,1182,1289,0,0
-35,-265,0,0,0,0,0,0,0,0,0,-1,1189,1289,0,0
-28,-265,0,0,0,0,0,0,0,0,0,-1,1196,1289,0,0
-21,-265,0,0,0,0,0,0,0,0,0,-1,1203,1289,0,0
-14,-265,0,0,0,0,0,0,0,0,0,-1,1210,1289,0,0
-7,-265,0,0,0,0,0,0,0,0,0,-1,1217,1289,0,0
0,-265,0,0,0,0,0,0,0,0,0,-1,1224,1289,0,0
7,-265,0,0,0,0,0,0,0,0,0,-1,1231,1289,0,0
14,-265,0,0,0,0,0,0,0,0,0,-1,1238,1289,0,0
21,-265,0,0,0,0,0,0,0,0,0,-1,1245,1289,0,0
28,-265,0,0,0,0,0,0,0,0,0,-1,1252,1289,0,0
35,-265,0,0,0,0,0,0,0,0,0,-1,1259,1289,0,0
42,-265,0,0,0,0,0,0,0,0,0,-1,1266,1289,0,0
49,-265,0,0,0,0,0,0,0,0,0,-1,1273,1289,0,0
56,-265,0,0,0,0,0,0,0,0,0,-1,1280,1289,0,0
63,-265,0,0,0,0,0,0,0,0,0,-1,1287,1289,0,0
70,-265,0,0,0,0,0,0,0,0,0,-1,1294,1289,0,0
77,-265,0,0,0,0,0,0,0,0,0,-1,1301,1289,0,0
84,-265,0,0,0,0,0,0,0,0,0,-1,1308,1289,0,0
91,-265,0,0,0,0,0,0,0,0,0,-1,1315,1289,0,0
98,-265,0,0,0,0,0,0,0,0,0,-1,1322,1289,0,0
105,-265,0,0,0,0,0,0,0,0,0,-1,1329,1289,0,0
112,-265,0,0,0,0,0,0,0,0,0,-1,1336,1289,0,0
119,-265,0,0,0,0,0,0,0,0,0,-1,1343,1289,0,0
126,-265,0,0,0,0,0,0,0,0,0,-1,1350,1289,0,0
133,-265,0,0,0,0,0,0,0,0,0,-1,1357,1289,0,0
140,-265,0,0,0,0,0,0,0,0,0,-1,1364,1289,0,0
147,-265,0,0,0,0,0,0,0,0,0,-1,1371,1289,0,0
154,-265,0,0,0,0,0,0,0,0,0,-1,1378,1289,0,0
161,-265,0,0,0,0,0,0,0,0,0,-1,1385,1289,0,0
168,-265,0,0,0,0,0,0,0,0,0,-1,1392,1289,0,0
175,-265,0,0,0,0,0,0,0,0,0,-1,1399,1289,0,0
182,-265,0,0,0,0,0,0,0,0,0,-1,1406,1289,0,0
189,-265,0,0,0,0,0,0,0,0,0,-1,1413,1289,0,0
196,-265,0,0,0,0,0,0,0,0,0,-1,1420,1289,0,0
203,-265,0,0,0,0,0,0,0,0,0,-1,1427,1289,0,0
210,-265,0,0,0,0,0,0,0,0,0,-1,1434,1289,0,0
217,-265,0,0,0,0,0,0,0,0,0,-1,1441,1289,0,0
224,-265,0,0,0,0,0,0,0,0,0,-1,1448,1289,0,0
231,-265,0,0,0,0,0,0,0,0,0,-1,1455,1289,0,0
238,-265,0,0,0,0,0,0,0,0,0,-1,1462,1289,0,0
245,-265,0,0,0,0,0,0,0,0,0,-1,1469,1289,0,0
252,-265,0,0,0,0,0,0,0,0,0,-1,1476,1289,0,0
259,-265,0,0,0,0,0,0,0,0,0,-1,1483,1289,0,0
266,-265,0,0,0,0,0,0,0,0,0,-1,1490,1289,0,0
273,-265,0,0,0,0,0,0,0,0,0,-1,1497,1289,0,0
280,-265,0,0,0,0,0,0,0,0,0,-1,1504,1289,0,0
287,-265,0,0,0,0,0,0,0,0,0,-1,1511,1289,0,0
294,-265,0,0,0,0,0,0,0,0,0,-1,1518,1289,0,0
301,-265,0,0,0,0,0,0,0,0,0,-1,1525,1289,0,0
308,-265,0,0,0,0,0,0,0,0,0,-1,1532,1289,0,0
315,-265,0,0,0,0,0,0,0,0,0,-1,1539,1289,0,0
322,-265,0,0,0,0,0,0,0,0,0,-1,1546,1289,0,0
329,-265,0,0,0,0,0,0,0,0,0,-1,1553,1289,0,0
336,-265,0,0,0,0,0,0,0,0,0,-1,1560,1289,0,0
343,-265,0,0,0,0,0,0,0,0,0,-1,1567,1289,0,0
350,-265,0,0,0,0,0,0,0,0,0,-1,1574,1289,0,0
357,-265,0,0,0,0,0,0,0,0,0,-1,1581,1289,0,0
364,-265,0,0,0,0,0,0,0,0,0,-1,1588,1289,0,0
371,-265,0,0,0,0,0,0,0,0,0,-1,1595,1289,0,0
378,-265,0,0,0,0,0,0,0,0,0,-1,1602,1289,0,0
385,-265,0,0,0,0,0,0,0,0,0,-1,1609,1289,0,0
392,-265,0,0,0,0,0,0,0,0,0,-1,1616,1289,0,0
399,-265,0,0,0,0,0,0,0,0,0,-1,1623,1289,0,0
406,-265,0,0,0,0,0,0,0,0,0,-1,1630,1289,0,0
413,-265,0,0,0,0,0,0,0,0,0,-1,1637,1289,0,0
420,-265,0,0,0,0,0,0,0,0,0,-1,1644,1289,0,0
427,-265,0,0,0,0,0,0,0,0,0,-1,1651,1289,0,0
434,-265,0,0,0,0,0,0,0,0,0,-1,1658,1289,0,0
441,-265,0,0,0,0,0,0,0,0,0,-1,1665,1289,0,0
448,-265,0,0,0,0,0,0,0,0,0,-1,1672,1289,0,0
455,-265,0,0,0,0,0,0,0,0,0,-1,1679,1289,0,0
462,-265,0,0,0,0,0,0,0,0,0,-1,1686,1289,0,0
469,-265,0,0,0,0,0,0,0,0,0,-1,1693,1289,0,0
476,-265,0,0,0,0,0,0,0,0,0,-1,1700,1289,0,0
483,-265,0,0,0,0,0,0,0,0,0,-1,1707,1289,0,0
490,-265,0,0,0,0,0,0,0,0,0,-1,1714,1289,0,0
497,-265,0,0,0,0,0,0,0,0,0,-1,1721,1289,0,0
504,-265,0,0,0,0,0,0,0,0,0,-1,1728,1289,0,0
511,-265,0,0,0,0,0,0,0,0,0,-1,1735,1289,0,0
518,-265,0,0,0,0,0,0,0,0,0,-1,1742,1289,0,0
525,-265,0,0,0,0,0,0,0,0,0,-1,1749,1289,0,0
532,-265,0,0,0,0,0,0,0,0,0,-1,1756,1289,0,0
539,-265,0,0,0,0,0,0,0,0,0,-1,1763,1289,0,0
546,-265,0,0,0,0,0,0,0,0,0,-1,1770,1289,0,0
553,-265,0,0,0,0,0,0,0,0,0,-1,1777,1289,0,0
560,-265,0,0,0,0,0,0,0,0,0,-1,1784,1289,0,0
567,-265,0,0,0,0,0,0,0,0,0,-1,1791,1289,0,0
574,-265,0,0,0,0,0,0,0,0,0,-1,1798,1289,0,0
581,-265,0,0,0,0,0,0,0,0,0,-1,1805,1289,0,0
588,-265,0,0,0,0,0,0,0,0,0,-1,1812,1289,0,0
595,-265,0,0,0,0,0,0,0,0,0,-1,1819,1289,0,0
602,-265,55.0308,2.68359,-0.0156671,0.0086854,-0.00667909,0.010397,-0.0173787,-1.31994,0.0162042,0.0268749,1826,1289,55.0307,-2.68358
609,-265,55.0294,2.64258,-0.0137705,0.0122045,-0.0100136,0.0156167,-0.0171826,-1.24239,0.0189439,0.0268968,1833,1289,55.0294,-2.64264
616,-265,54.991,2.65576,-0.0110734,0.0152245,-0.0133974,0.0208475,-0.0166963,-1.17342,0.02172,0.0323554,1840,1289,54.991,-2.65579
623,-265,54.9471,2.56799,-0.0079352,0.0156393,-0.0141985,0.0223057,-0.0146016,-1.13183,0.0214626,0.0448064,1847,1289,54.9471,-2.56795
630,-265,54.5206,2.44714,-0.00515751,0.014005,-0.0128672,0.0204663,-0.0116188,-1.10543,0.0187576,0.043348,1854,1289,54.5206,-2.44719
637,-265,55.2041,2.61731,-0.00319558,0.0112584,-0.0102261,0.0165535,-0.00849066,-1.09301,0.0147069,0.0434363,1861,1289,55.204,-2.61725
644,-265,54.9049,1.67285,0,0,0,0,0,0,0,-1,1868,1289,54.9049,-1.67291
651,-265,45.0878,3.73743,0,0,0,0,0,0,0,-1,1875,1289,45.0877,-3.73741
658,-265,41.7163,3.71619,0,0,0,0,0,0,0,-1,1882,1289,41.7163,-3.71624
665,-265,34.7902,1.43164,0,0,0,0,0,0,0,-1,1889,1289,34.7901,-1.43162
672,-265,20.0045,6.62671,0,0,0,0,0,0,0,-1,1896,1289,20.0045,-6.62668
679,-265,39.7894,11.7535,0,0,0,0,0,0,0,-1,1903,1289,39.7895,-11.7536
686,-265,39.845,11.1992,0.00141476,0.00267352,-0.00399347,0.00608691,-0.00199862,-0.863556,0.00486303,0.0402666,1910,1289,39.8449,-11.1993
693,-265,39.8811,10.6794,0.00056769,0.00209378,-0.0021837,0.00364391,-0.000982438,-0.953481,0.0028145,0.0107686,1917,1289,39.8811,-10.6795
700,-265,39.8549,10.1445,0.000925332,-0.000317357,-0.000163995,0.00094661,-0.000338635,-0.129026,0.000769213,0.0107306,1924,1289,39.8549,-10.1445
707,-265,39.8542,9.60291,0.000175667,-0.000392839,0.000365438,0.000354388,-0.00057156,0.454856,0.000539475,0.0109724,1931,1289,39.8542,-9.60293
714,-265,39.8254,9.06372,-0.00072869,-0.000478195,0.00106865,0.000472519,-0.0016794,0.843733,0.00130592,0.0124862,1938,1289,39.8255,-9.06366
721,-265,39.7618,8.53027,-0.0017183,-0.000628292,0.00184939,0.000754725,-0.00310132,0.928689,0.0023597,0.0139153,1945,1289,39.7619,-8.53032
728,-265,39.7466,8.03308,-0.00282053,-0.000857054,0.00272213,0.00105496,-0.00473255,0.958464,0.00355919,0.0150604,1952,1289,39.7465,-8.03308
735,-265,39.7969,7.54346,-0.00402786,-0.0011167,0.00364593,0.00135347,-0.00649802,0.975321,0.00484658,0.0170321,1959,1289,39.7969,-7.54341
742,-265,39.7488,7.03394,-0.0052887,-0.0014412,0.00465829,0.00167494,-0.00840484,0.981218,0.00623696,0.0206747,1966,1289,39.7487,-7.03395
749,-265,39.7814,6.49866,-0.00667079,-0.00174016,0.00566853,0.00197595,-0.0103869,0.990517,0.00766859,0.0491313,1973,1289,39.7814,-6.49863
756,-265,39.9952,5.93823,0,0,0,0,0,0,0,-1,1980,1289,39.9953,-5.93823
763,-265,39.1299,4.9679,0,0,0,0,0,0,0,-1,1987,1289,39.1299,-4.96791
770,-265,35.1674,5.07715,0,0,0,0,0,0,0,-1,1994,1289,35.1673,-5.07718
777,-265,32.1664,5.3457,0,0,0,0,0,0,0,-1,2001,1289,32.1664,-5.34568
784,-265,0,0,0,0,0,0,0,0,0,-1,2008,1289,0,0
791,-265,0,0,0,0,0,0,0,0,0,-1,2015,1289,0,0
798,-265,0,0,0,0,0,0,0,0,0,-1,2022,1289,0,0
805,-265,0,0,0,0,0,0,0,0,0,-1,2029,1289,0,0
812,-265,0,0,0,0,0,0,0,0,0,-1,2036,1289,0,0
-700,-272,0,0,0,0,0,0,0,0,0,-1,524,1296,0,0
-693,-272,0,0,0,0,0,0,0,0,0,-1,531,1296,0,0
-686,-272,0,0,0,0,0,0,0,0,0,-1,538,1296,0,0
-679,-272,0,0,0,0,0,0,0,0,0,-1,545,1296,0,0
-672,-272,0,0,0,0,0,0,0,0,0,-1,552,1296,0,0
-665,-272,0,0,0,0,0,0,0,0,0,-1,559,1296,0,0
-658,-272,-36.5144,0.088501,0,0,0,0,0,0,0,-1,566,1296,-36.5144,-0.0884768
-651,-272,-36.4545,-0.0233154,0,0,0,0,0,0,0,-1,573,1296,-36.4545,0.023367
-644,-272,-37.3553,-1.27917,0,0,0,0,0,0,0,-1,580,1296,-37.3553,1.27916
-637,-272,-37.7366,-2.38599,0,0,0,0,0,0,0,-1,587,1296,-37.7366,2.38599
-630,-272,-37.0609,-0.684937,0,0,0,0,0,0,0,-1,594,1296,-37.0609,0.684889
-623,-272,-24.2695,2.94043,0,0,0,0,0,0,0,-1,601,1296,-24.2695,-2.94045
-616,-272,-24.2099,3.9397,-0.00328931,-0.00976849,0.0167425,0.0105242,-0.023582,0.689832,0.0201665,0.0496978,608,1296,-24.2099,-3.93973
-609,-272,-24.2403,4.77588,0.00192855,-0.00285893,0.00905138,0.00889737,-0.00982774,0.656127,0.0108154,0.027118,615,1296,-24.2403,-4.77586
-602,-272,-24.2764,5.18311,0.00461949,0.000780002,0.00432306,0.00742988,-0.0020304,0.576442,0.0057508,0.014833,622,1296,-24.2764,-5.1831
-595,-272,-24.3038,5.77112,0.00476797,0.00155923,0.0020654,0.00577892,0.00054828,0.455186,0.00368348,0.0110151,629,1296,-24.3038,-5.77112
-588,-272,-24.3297,6.33972,0.0037815,0.000850684,0.00145178,0.00437888,0.000253308,0.390363,0.00283859,0.0107835,636,1296,-24.3297,-6.33972
-581,-272,-24.382,6.88721,0.00321905,0.000164881,0.000987791,0.00351068,-0.000126748,0.287078,0.00238383,0.0105885,643,1296,-24.382,-6.88716
-574,-272,-24.4075,7.48401,0.00304759,-0.000506013,0.000666804,0.00316859,-0.000627013,0.179509,0.00234946,0.0157624,650,1296,-24.4075,-7.484
-567,-272,-24.4306,8.0752,0.00326852,-0.00115085,0.000478076,0.00331965,-0.00120198,0.106535,0.00270432,0.0205347,657,1296,-24.4306,-8.07522
-560,-272,-24.4776,8.66614,0.00324636,-0.00146652,0.000303486,0.00326583,-0.00148599,0.0640424,0.00280688,0.0188654,664,1296,-24.4776,-8.66616
-553,-272,-24.3917,9.22937,0.00272972,-0.00174177,0.000565087,0.00280003,-0.00181207,0.123783,0.00268309,0.0256674,671,1296,-24.3918,-9.22934
-546,-272,-24.3306,9.8457,0,0,0,0,0,0,0,-1,678,1296,-24.3306,-9.84569
-539,-272,-24.1416,11.0325,0,0,0,0,0,0,0,-1,685,1296,-24.1416,-11.0324
-532,-272,-10.5572,4.53943,0,0,0,0,0,0,0,-1,692,1296,-10.5572,-4.53943
-525,-272,-11.9599,0.0393066,0,0,0,0,0,0,0,-1,699,1296,-11.9599,-0.0393577
-518,-272,-21.1357,-1.41382,0,0,0,0,0,0,0,-1,706,1296,-21.1357,1.41379
-511,-272,-23.2565,0.226318,0,0,0,0,0,0,0,-1,713,1296,-23.2565,-0.22626
-504,-272,-19.7397,0.114746,0,0,0,0,0,0,0,-1,720,1296,-19.7397,-0.114701
-497,-272,-19.2225,1.71301,0,0,0,0,0,0,0,-1,727,1296,-19.2225,-1.71302
-490,-272,-20.1948,2.4032,0,0,0,0,0,0,0,-1,734,1296,-20.1948,-2.40322
-483,-272,-15.3736,0.792603,0,0,0,0,0,0,0,-1,741,1296,-15.3736,-0.79263
-476,-272,0,0,0,0,0,0,0,0,0,-1,748,1296,0,0
-469,-272,0,0,0,0,0,0,0,0,0,-1,755,1296,0,0
-462,-272,0,0,0,0,0,0,0,0,0,-1,762,1296,0,0
-455,-272,0,0,0,0,0,0,0,0,0,-1,769,1296,0,0
-448,-272,0,0,0,0,0,0,0,0,0,-1,776,1296,0,0
-441,-272,0,0,0,0,0,0,0,0,0,-1,783,1296,0,0
-434,-272,0,0,0,0,0,0,0,0,0,-1,790,1296,0,0
-427,-272,0,0,0,0,0,0,0,0,0,-1,797,1296,0,0
-420,-272,0,0,0,0,0,0,0,0,0,-1,804,1296,0,0
-413,-272,0,0,0,0,0,0,0,0,0,-1,811,1296,0,0
-406,-272,0,0,0,0,0,0,0,0,0,-1,818,1296,0,0
-399,-272,0,0,0,0,0,0,0,0,0,-1,825,1296,0,0
-392,-272,0,0,0,0,0,0,0,0,0,-1,832,1296,0,0
-385,-272,0,0,0,0,0,0,0,0,0,-1,839,1296,0,0
-378,-272,0,0,0,0,0,0,0,0,0,-1,846,1296,0,0
-371,-272,0,0,0,0,0,0,0,0,0,-1,853,1296,0,0
-364,-272,0,0,0,0,0,0,0,0,0,-1,860,1296,0,0
-357,-272,0,0,0,0,0,0,0,0,0,-1,867,1296,0,0
-350,-272,0,0,0,0,0,0,0,0,0,-1,874,1296,0,0
-343,-272,0,0,0,0,0,0,0,0,0,-1,881,1296,0,0
-336,-272,0,0,0,0,0,0,0,0,0,-1,888,1296,0,0
-329,-272,0,0,0,0,0,0,0,0,0,-1,895,1296,0,0
-322,-272,0,0,0,0,0,0,0,0,0,-1,902,1296,0,0
-315,-272,0,0,0,0,0,0,0,0,0,-1,909,1296,0,0
-308,-272,0,0,0,0,0,0,0,0,0,-1,916,1296,0,0
-301,-272,0,0,0,0,0,0,0,0,0,-1,923,1296,0,0
-294,-272,0,0,0,0,0,0,0,0,0,-1,930,1296,0,0
-287,-272,0,0,0,0,0,0,0,0,0,-1,937,1296,0,0
-280,-272,0,0,0,0,0,0,0,0,0,-1,944,1296,0,0
-273,-272,0,0,0,0,0,0,0,0,0,-1,951,1296,0,0
-266,-272,0,0,0,0,0,0,0,0,0,-1,958,1296,0,0
-259,-272,0,0,0,0,0,0,0,0,0,-1,965,1296,0,0
-252,-272,0,0,0,0,0,0,0,0,0,-1,972,1296,0,0
-245,-272,0,0,0,0,0,0,0,0,0,-1,979,1296,0,0
-238,-272,0,0,0,0,0,0,0,0,0,-1,986,1296,0,0
-231,-272,0,0,0,0,0,0,0,0,0,-1,993,1296,0,0
-224,-272,0,0,0,0,0,0,0,0,0,-1,1000,1296,0,0
-217,-272,0,0,0,0,0,0,0,0,0,-1,1007,1296,0,0
-210,-272,0,0,0,0,0,0,0,0,0,-1,1014,1296,0,0
-203,-272,0,0,0,0,0,0,0,0,0,-1,1021,1296,0,0
-196,-272,0,0,0,0,0,0,0,0,0,-1,1028,1296,0,0
-189,-272,0,0,0,0,0,0,0,0,0,-1,1035,1296,0,0
-182,-272,0,0,0,0,0,0,0,0,0,-1,1042,1296,0,0
-175,-272,0,0,0,0,0,0,0,0,0,-1,1049,1296,0,0
-168,-272,0,0,0,0,0,0,0,0,0,-1,1056,1296,0,0
-161,-272,0,0,0,0,0,0,0,0,0,-1,1063,1296,0,0
-154,-272,0,0,0,0,0,0,0,0,0,-1,1070,1296,0,0
-147,-272,0,0,0,0,0,0,0,0,0,-1,1077,1296,0,0
-140,-272,0,0,0,0,0,0,0,0,0,-1,1084,1296,0,0
-133,-272,0,0,0,0,0,0,0,0,0,-1,1091,1296,0,0
-126,-272,0,0,0,0,0,0,0,0,0,-1,1098,1296,0,0
-119,-272,0,0,0,0,0,0,0,0,0,-1,1105,1296,0,0
-112,-272,0,0,0,0,0,0,0,0,0,-1,1112,1296,0,0
-105,-272,0,0,0,0,0,0,0,0,0,-1,1119,1296,0,0
-98,-272,0,0,0,0,0,0,0,0,0,-1,1126,1296,0,0
-91,-272,0,0,0,0,0,0,0,0,0,-1,1133,1296,0,0
-84,-272,0,0,0,0,0,0,0,0,0,-1,1140,1296,0,0
-77,-272,0,0,0,0,0,0,0,0,0,-1,1147,1296,0,0
-70,-272,0,0,0,0,0,0,0,0,0,-1,1154,1296,0,0
-63,-272,0,0,0,0,0,0,0,0,0,-1,1161,1296,0,0
-56,-272,0,0,0,0,0,0,0,0,0,-1,1168,1296,0,0
-49,-272,0,0,0,0,0,0,0,0,0,-1,1175,1296,0,0
-42,-272,0,0,0,0,0,0,0,0,0,-1,1182,1296,0,0
-35,-272,0,0,0,0,0,0,0,0,0,-1,1189,1296,0,0
-28,-272,0,0,0,0,0,0,0,0,0,-1,1196,1296,0,0
-21,-272,0,0,0,0,0,0,0,0,0,-1,1203,1296,0,0
-14,-272,0,0,0,0,0,0,0,0,0,-1,1210,1296,0,0
-7,-272,0,0,0,0,0,0,0,0,0,-1,1217,1296,0,0
0,-272,0,0,0,0,0,0,0,0,0,-1,1224,1296,0,0
7,-272,0,0,0,0,0,0,0,0,0,-1,1231,1296,0,0
14,-272,0,0,0,0,0,0,0,0,0,-1,1238,1296,0,0
21,-272,0,0,0,0,0,0,0,0,0,-1,1245,1296,0,0
28,-272,0,0,0,0,0,0,0,0,0,-1,1252,1296,0,0
35,-272,0,0,0,0,0,0,0,0,0,-1,1259,1296,0,0
42,-272,0,0,0,0,0,0,0,0,0,-1,1266,1296,0,0
49,-272,0,0,0,0,0,0,0,0,0,-1,1273,1296,0,0
56,-272,0,0,0,0,0,0,0,0,0,-1,1280,1296,0,0
63,-272,0,0,0,0,0,0,0,0,0,-1,1287,1296,0,0
70,-272,0,0,0,0,0,0,0,0,0,-1,1294,1296,0,0
77,-272,0,0,0,0,0,0,0,0,0,-1,1301,1296,0,0
84,-272,0,0,0,0,0,0,0,0,0,-1,1308,1296,0,0
91,-272,0,0,0,0,0,0,0,0,0,-1,1315,1296,0,0
98,-272,0,0,0,0,0,0,0,0,0,-1,1322,1296,0,0
105,-272,0,0,0,0,0,0,0,0,0,-1,1329,1296,0,0
112,-272,0,0,0,0,0,0,0,0,0,-1,1336,1296,0,0
119,-272,0,0,0,0,0,0,0,0,0,-1,1343,1296,0,0
126,-272,0,0,0,0,0,0,0,0,0,-1,1350,1296,0,0
133,-272,0,0,0,0,0,0,0,0,0,-1,1357,1296,0,0
140,-272,0,0,0,0,0,0,0,0,0,-1,1364,1296,0,0
147,-272,0,0,0,0,0,0,0,0,0,-1,1371,1296,0,0
154,-272,0,0,0,0,0,0,0,0,0,-1,1378,1296,0,0
161,-272,0,0,0,0,0,0,0,0,0,-1,1385,1296,0,0
168,-272,0,0,0,0,0,0,0,0,0,-1,1392,1296,0,0
175,-272,0,0,0,0,0,0,0,0,0,-1,1399,1296,0,0
182,-272,0,0,0,0,0,0,0,0,0,-1,1406,1296,0,0
189,-272,0,0,0,0,0,0,0,0,0,-1,1413,1296,0,0
196,-272,0,0,0,0,0,0,0,0,0,-1,1420,1296,0,0
203,-272,0,0,0,0,0,0,0,0,0,-1,1427,1296,0,0
210,-272,0,0,0,0,0,0,0,0,0,-1,1434,1296,0,0
217,-272,0,0,0,0,0,0,0,0,0,-1,1441,1296,0,0
224,-272,0,0,0,0,0,0,0,0,0,-1,1448,1296,0,0
231,-272,0,0,0,0,0,0,0,0,0,-1,1455,1296,0,0
238,-272,0,0,0,0,0,0,0,0,0,-1,1462,1296,0,0
245,-272,0,0,0,0,0,0,0,0,0,-1,1469,1296,0,0
252,-272,0,0,0,0,0,0,0,0,0,-1,1476,1296,0,0
259,-272,0,0,0,0,0,0,0,0,0,-1,1483,1296,0,0
266,-272,0,0,0,0,0,0,0,0,0,-1,1490,1296,0,0
273,-272,0,0,0,0,0,0,0,0,0,-1,1497,1296,0,0
280,-272,0,0,0,0,0,0,0,0,0,-1,1504,1296,0,0
287,-272,0,0,0,0,0,0,0,0,0,-1,1511,1296,0,0
294,-272,0,0,0,0,0,0,0,0,0,-1,1518,1296,0,0
301,-272,0,0,0,0,0,0,0,0,0,-1,1525,1296,0,0
308,-272,0,0,0,0,0,0,0,0,0,-1,1532,1296,0,0
315,-272,0,0,0,0,0,0,0,0,0,-1,1539,1296,0,0
322,-272,0,0,0,0,0,0,0,0,0,-1,1546,1296,0,0
329,-272,0,0,0,0,0,0,0,0,0,-1,1553,1296,0,0
336,-272,0,0,0,0,0,0,0,0,0,-1,1560,1296,0,0
343,-272,0,0,0,0,0,0,0,0,0,-1,1567,1296,0,0
350,-272,0,0,0,0,0,0,0,0,0,-1,1574,1296,0,0
357,-272,0,0,0,0,0,0,0,0,0,-1,1581,1296,0,0
364,-272,0,0,0,0,0,0,0,0,0,-1,1588,1296,0,0
371,-272,0,0,0,0,0,0,0,0,0,-1,1595,1296,0,0
378,-272,0,0,0,0,0,0,0,0,0,-1,1602,1296,0,0
385,-272,0,0,0,0,0,0,0,0,0,-1,1609,1296,0,0
392,-272,0,0,0,0,0,0,0,0,0,-1,1616,1296,0,0
399,-272,0,0,0,0,0,0,0,0,0,-1,1623,1296,0,0
406,-272,0,0,0,0,0,0,0,0,0,-1,1630,1296,0,0
413,-272,0,0,0,0,0,0,0,0,0,-1,1637,1296,0,0
420,-272,0,0,0,0,0,0,0,0,0,-1,1644,1296,0,0
427,-272,0,0,0,0,0,0,0,0,0,-1,1651,1296,0,0
434,-272,0,0,0,0,0,0,0,0,0,-1,1658,1296,0,0
441,-272,0,0,0,0,0,0,0,0,0,-1,1665,1296,0,0
448,-272,0,0,0,0,0,0,0,0,0,-1,1672,1296,0,0
455,-272,0,0,0,0,0,0,0,0,0,-1,1679,1296,0,0
462,-272,0,0,0,0,0,0,0,0,0,-1,1686,1296,0,0
469,-272,0,0,0,0,0,0,0,0,0,-1,1693,1296,0,0
476,-272,0,0,0,0,0,0,0,0,0,-1,1700,1296,0,0
483,-272,0,0,0,0,0,0,0,0,0,-1,1707,1296,0,0
490,-272,0,0,0,0,0,0,0,0,0,-1,1714,1296,0,0
497,-272,0,0,0,0,0,0,0,0,0,-1,1721,1296,0,0
504,-272,0,0,0,0,0,0,0,0,0,-1,1728,1296,0,0
511,-272,0,0,0,0,0,0,0,0,0,-1,1735,1296,0,0
518,-272,0,0,0,0,0,0,0,0,0,-1,1742,1296,0,0
525,-272,0,0,0,0,0,0,0,0,0,-1,1749,1296,0,0
532,-272,0,0,0,0,0,0,0,0,0,-1,1756,1296,0,0
539,-272,0,0,0,0,0,0,0,0,0,-1,1763,1296,0,0
546,-272,0,0,0,0,0,0,0,0,0,-1,1770,1296,0,0
553,-272,0,0,0,0,0,0,0,0,0,-1,1777,1296,0,0
560,-272,0,0,0,0,0,0,0,0,0,-1,1784,1296,0,0
567,-272,0,0,0,0,0,0,0,0,0,-1,1791,1296,0,0
574,-272,0,0,0,0,0,0,0,0,0,-1,1798,1296,0,0
581,-272,0,0,0,0,0,0,0,0,0,-1,1805,1296,0,0
588,-272,0,0,0,0,0,0,0,0,0,-1,1812,1296,0,0
595,-272,0,0,0,0,0,0,0,0,0,-1,1819,1296,0,0
602,-272,54.9491,2.62378,-0.0198452,0.0150222,-0.0153834,0.0208389,-0.0256619,-1.2093,0.0268953,0.0303254,1826,1296,54.9491,-2.62383
609,-272,54.9489,2.54749,-0.0177198,0.0187844,-0.0189442,0.0268386,-0.0257741,-1.16879,0.030378,0.0358741,1833,1296,54.9489,-2.54751
616,-272,54.9501,2.51672,-0.0143806,0.0202905,-0.0204955,0.0297987,-0.0238888,-1.13643,0.031059,0.0425993,1840,1296,54.9501,-2.51674
623,-272,54.9515,2.56494,0,0,0,0,0,0,0,-1,1847,1296,54.9516,-2.56495
630,-272,54.203,2.36157,0,0,0,0,0,0,0,-1,1854,1296,54.203,-2.36157
637,-272,55.316,2.90271,0,0,0,0,0,0,0,-1,1861,1296,55.316,-2.90271
644,-272,48.4819,-0.241943,0,0,0,0,0,0,0,-1,1868,1296,48.4819,0.24191
651,-272,41.9225,4.27161,0,0,0,0,0,0,0,-1,1875,1296,41.9225,-4.27157
658,-272,35.1527,2.10571,0,0,0,0,0,0,0,-1,1882,1296,35.1527,-2.10573
665,-272,22.0238,4.14417,0,0,0,0,0,0,0,-1,1889,1296,22.0238,-4.14421
672,-272,22.661,7.21765,0,0,0,0,0,0,0,-1,1896,1296,22.661,-7.21761
679,-272,39.3276,11.7933,0,0,0,0,0,0,0,-1,1903,1296,39.3277,-11.7933
686,-272,39.3259,11.2471,0.00163521,0.00249065,-0.00389032,0.00597669,-0.00185083,-0.840151,0.00472385,0.026719,1910,1296,39.326,-11.2471
693,-272,39.3555,10.7067,0.000729241,0.00184188,-0.00193043,0.00329455,-0.000723438,-0.925688,0.00247304,0.0115682,1917,1296,39.3554,-10.7066
700,-272,39.3268,10.1792,0.000918394,-0.000316893,4.04901e-05,0.00091972,-0.000318218,0.0327311,0.000742314,0.011735,1924,1296,39.3268,-10.1792
707,-272,39.3121,9.62659,0.000118686,-0.000442065,0.000639605,0.000536669,-0.000860048,0.578833,0.000813567,0.0119741,1931,1296,39.3121,-9.62659
714,-272,39.2809,9.08777,-0.000820753,-0.000586847,0.00135383,0.000655069,-0.00206267,0.828485,0.00163774,0.0134851,1938,1296,39.2809,-9.08776
721,-272,39.2356,8.56592,-0.00186737,-0.000797321,0.00213555,0.000869205,-0.0035339,0.908138,0.00269284,0.016682,1945,1296,39.2356,-8.56587
728,-272,39.2422,8.01221,-0.00304837,-0.00109287,0.00301316,0.0010972,-0.00523845,0.942285,0.00390969,0.0174029,1952,1296,39.2422,-8.01224
735,-272,39.2521,7.54919,-0.00435357,-0.00144605,0.00395345,0.00131245,-0.00711207,0.961584,0.00523401,0.0155712,1959,1296,39.2521,-7.54919
742,-272,39.1581,7.10168,-0.00572835,-0.00191129,0.00500754,0.0015391,-0.00917873,0.967466,0.00669145,0.0253785,1966,1296,39.1581,-7.10163
749,-272,39.1462,6.70386,-0.00729686,-0.00239774,0.00606741,0.00169592,-0.0113905,0.977254,0.00821753,0.0488538,1973,1296,39.1463,-6.70384
756,-272,39.3412,6.40869,0,0,0,0,0,0,0,-1,1980,1296,39.3412,-6.40868
763,-272,34.3995,5.88416,0,0,0,0,0,0,0,-1,1987,1296,34.3996,-5.88419
770,-272,25.9485,3.67749,0,0,0,0,0,0,0,-1,1994,1296,25.9485,-3.67744
777,-272,32.3619,6.13257,0,0,0,0,0,0,0,-1,2001,1296,32.362,-6.1326
784,-272,0,0,0,0,0,0,0,0,0,-1,2008,1296,0,0
791,-272,0,0,0,0,0,0,0,0,0,-1,2015,1296,0,0
798,-272,0,0,0,0,0,0,0,0,0,-1,2022,1296,0,0
805,-272,0,0,0,0,0,0,0,0,0,-1,2029,1296,0,0
812,-272,0,0,0,0,0,0,0,0,0,-1,2036,1296,0,0
-700,-279,0,0,0,0,0,0,0,0,0,-1,524,1303,0,0
-693,-279,0,0,0,0,0,0,0,0,0,-1,531,1303,0,0
-686,-279,0,0,0,0,0,0,0,0,0,-1,538,1303,0,0
-679,-279,0,0,0,0,0,0,0,0,0,-1,545,1303,0,0
-672,-279,0,0,0,0,0,0,0,0,0,-1,552,1303,0,0
-665,-279,0,0,0,0,0,0,0,0,0,-1,559,1303,0,0
-658,-279,-37.5104,0.649658,0,0,0,0,0,0,0,-1,566,1303,-37.5105,-0.649669
-651,-279,-37.7213,0.227173,0,0,0,0,0,0,0,-1,573,1303,-37.7213,-0.227215
-644,-279,-37.8957,-0.373413,0,0,0,0,0,0,0,-1,580,1303,-37.8957,0.373419
-637,-279,-37.8995,-1.21082,0,0,0,0,0,0,0,-1,587,1303,-37.8995,1.21076
-630,-279,-37.8927,-1.96741,0,0,0,0,0,0,0,-1,594,1303,-37.8927,1.96745
-623,-279,-22.2665,2.68457,0,0,0,0,0,0,0,-1,601,1303,-22.2665,-2.68451
-616,-279,-24.4854,4.02075,0,0,0,0,0,0,0,-1,608,1303,-24.4854,-4.02077
-609,-279,-24.0314,4.6217,0.00429173,-0.00141711,0.00890981,0.0107932,-0.00791857,0.63038,0.0108456,0.0495392,615,1303,-24.0315,-4.6217
-602,-279,-23.6686,5.20679,0.00567217,0.00130213,0.00486486,0.00882019,-0.00184588,0.574328,0.00658226,0.0156475,622,1303,-23.6686,-5.20679
-595,-279,-23.7219,5.77661,0.00532173,0.00184707,0.00263757,0.00674274,0.000426067,0.49417,0.00436008,0.0101948,629,1303,-23.7219,-5.77657
-588,-279,-23.7466,6.34875,0.00412086,0.00113672,0.00186713,0.00501887,0.000238716,0.448295,0.00326925,0.0111417,636,1303,-23.7466,-6.34882
-581,-279,-23.7904,6.91162,0.00338134,0.000446943,0.00129647,0.00387207,-4.37957e-05,0.361851,0.0025961,0.012627,643,1303,-23.7904,-6.9116
-574,-279,-23.8184,7.48718,0.00303613,-0.000224861,0.000897465,0.00326681,-0.000455537,0.251585,0.00234452,0.0131811,650,1303,-23.8184,-7.48712
-567,-279,-23.8214,8.06335,0.00305347,-0.000882637,0.000659696,0.00316109,-0.00099026,0.161716,0.00250363,0.0172869,657,1303,-23.8214,-8.06332
-560,-279,-23.8458,8.68811,0.00304642,-0.00144857,0.00055789,0.00311463,-0.00151678,0.121655,0.00272647,0.015941,664,1303,-23.8458,-8.68815
-553,-279,-23.869,9.28479,0.00280342,-0.00196282,0.000879798,0.00296063,-0.00212004,0.176829,0.00294668,0.0138042,671,1303,-23.869,-9.28477
-546,-279,-23.8516,9.84753,0.00227961,-0.00235227,0.00110753,0.00253081,-0.00260347,0.223037,0.00296437,0.0286565,678,1303,-23.8515,-9.84759
-539,-279,-24.1333,10.5205,0,0,0,0,0,0,0,-1,685,1303,-24.1333,-10.5205
-532,-279,-14.9813,7.89917,0,0,0,0,0,0,0,-1,692,1303,-14.9813,-7.89918
-525,-279,-11.7063,-0.539185,0,0,0,0,0,0,0,-1,699,1303,-11.7063,0.539166
-518,-279,-16.8138,1.11963,0,0,0,0,0,0,0,-1,706,1303,-16.8138,-1.11968
-511,-279,-20.1063,-1.37915,0,0,0,0,0,0,0,-1,713,1303,-20.1062,1.37918
-504,-279,-18.3766,1.04578,0,0,0,0,0,0,0,-1,720,1303,-18.3767,-1.04577
-497,-279,-19.0046,2.08911,0,0,0,0,0,0,0,-1,727,1303,-19.0046,-2.08905
-490,-279,-20.0176,2.55188,0,0,0,0,0,0,0,-1,734,1303,-20.0176,-2.55183
-483,-279,-20.8064,2.99792,0,0,0,0,0,0,0,-1,741,1303,-20.8064,-2.99797
-476,-279,0,0,0,0,0,0,0,0,0,-1,748,1303,0,0
-469,-279,0,0,0,0,0,0,0,0,0,-1,755,1303,0,0
-462,-279,0,0,0,0,0,0,0,0,0,-1,762,1303,0,0
-455,-279,0,0,0,0,0,0,0,0,0,-1,769,1303,0,0
-448,-279,0,0,0,0,0,0,0,0,0,-1,776,1303,0,0
-441,-279,0,0,0,0,0,0,0,0,0,-1,783,1303,0,0
-434,-279,0,0,0,0,0,0,0,0,0,-1,790,1303,0,0
-427,-279,0,0,0,0,0,0,0,0,0,-1,797,1303,0,0
-420,-279,0,0,0,0,0,0,0,0,0,-1,804,1303,0,0
-413,-279,0,0,0,0,0,0,0,0,0,-1,811,1303,0,0
-406,-279,0,0,0,0,0,0,0,0,0,-1,818,1303,0,0
-399,-279,0,0,0,0,0,0,0,0,0,-1,825,1303,0,0
-392,-279,0,0,0,0,0,0,0,0,0,-1,832,1303,0,0
-385,-279,0,0,0,0,0,0,0,0,0,-1,839,1303,0,0
-378,-279,0,0,0,0,0,0,0,0,0,-1,846,1303,0,0
-371,-279,0,0,0,0,0,0,0,0,0,-1,853,1303,0,0
-364,-279,0,0,0,0,0,0,0,0,0,-1,860,1303,0,0
-357,-279,0,0,0,0,0,0,0,0,0,-1,867,1303,0,0
-350,-279,0,0,0,0,0,0,0,0,0,-1,874,1303,0,0
-343,-279,0,0,0,0,0,0,0,0,0,-1,881,1303,0,0
-336,-279,0,0,0,0,0,0,0,0,0,-1,888,1303,0,0
-329,-279,0,0,0,0,0,0,0,0,0,-1,895,1303,0,0
-322,-279,0,0,0,0,0,0,0,0,0,-1,902,1303,0,0
-315,-279,0,0,0,0,0,0,0,0,0,-1,909,1303,0,0
-308,-279,0,0,0,0,0,0,0,0,0,-1,916,1303,0,0
-301,-279,0,0,0,0,0,0,0,0,0,-1,923,1303,0,0
-294,-279,0,0,0,0,0,0,0,0,0,-1,930,1303,0,0
-287,-279,0,0,0,0,0,0,0,0,0,-1,937,1303,0,0
-280,-279,0,0,0,0,0,0,0,0,0,-1,944,1303,0,0
-273,-279,0,0,0,0,0,0,0,0,0,-1,951,1303,0,0
-266,-279,0,0,0,0,0,0,0,0,0,-1,958,1303,0,0
-259,-279,0,0,0,0,0,0,0,0,0,-1,965,1303,0,0
-252,-279,0,0,0,0,0,0,0,0,0,-1,972,1303,0,0
-245,-279,0,0,0,0,0,0,0,0,0,-1,979,1303,0,0
-238,-279,0,0,0,0,0,0,0,0,0,-1,986,1303,0,0
-231,-279,0,0,0,0,0,0,0,0,0,-1,993,1303,0,0
-224,-279,0,0,0,0,0,0,0,0,0,-1,1000,1303,0,0
-217,-279,0,0,0,0,0,0,0,0,0,-1,1007,1303,0,0
-210,-279,0,0,0,0,0,0,0,0,0,-1,1014,1303,0,0
-203,-279,0,0,0,0,0,0,0,0,0,-1,1021,1303,0,0
-196,-279,0,0,0,0,0,0,0,0,0,-1,1028,1303,0,0
-189,-279,0,0,0,0,0,0,0,0,0,-1,1035,1303,0,0
-182,-279,0,0,0,0,0,0,0,0,0,-1,1042,1303,0,0
-175,-279,0,0,0,0,0,0,0,0,0,-1,1049,1303,0,0
-168,-279,0,0,0,0,0,0,0,0,0,-1,1056,1303,0,0
-161,-279,0,0,0,0,0,0,0,0,0,-1,1063,1303,0,0
-154,-279,0,0,0,0,0,0,0,0,0,-1,1070,1303,0,0
-147,-279,0,0,0,0,0,0,0,0,0,-1,1077,1303,0,0
-140,-279,0,0,0,0,0,0,0,0,0,-1,1084,1303,0,0
-133,-279,0,0,0,0,0,0,0,0,0,-1,1091,1303,0,0
-126,-279,0,0,0,0,0,0,0,0,0,-1,1098,1303,0,0
-119,-279,0,0,0,0,0,0,0,0,0,-1,1105,1303,0,0
-112,-279,0,0,0,0,0,0,0,0,0,-1,1112,1303,0,0
-105,-279,0,0,0,0,0,0,0,0,0,-1,1119,1303,0,0
-98,-279,0,0,0,0,0,0,0,0,0,-1,1126,1303,0,0
-91,-279,0,0,0,0,0,0,0,0,0,-1,1133,1303,0,0
-84,-279,0,0,0,0,0,0,0,0,0,-1,1140,1303,0,0
-77,-279,0,0,0,0,0,0,0,0,0,-1,1147,1303,0,0
-70,-279,0,0,0,0,0,0,0,0,0,-1,1154,1303,0,0
-63,-279,0,0,0,0,0,0,0,0,0,-1,1161,1303,0,0
-56,-279,0,0,0,0,0,0,0,0,0,-1,1168,1303,0,0
-49,-279,0,0,0,0,0,0,0,0,0,-1,1175,1303,0,0
-42,-279,0,0,0,0,0,0,0,0,0,-1,1182,1303,0,0
-35,-279,0,0,0,0,0,0,0,0,0,-1,1189,1303,0,0
-28,-279,0,0,0,0,0,0,0,0,0,-1,1196,1303,0,0
-21,-279,0,0,0,0,0,0,0,0,0,-1,1203,1303,0,0
-14,-279,0,0,0,0,0,0,0,0,0,-1,1210,1303,0,0
-7,-279,0,0,0,0,0,0,0,0,0,-1,1217,1303,0,0
0,-279,0,0,0,0,0,0,0,0,0,-1,1224,1303,0,0
7,-279,0,0,0,0,0,0,0,0,0,-1,1231,1303,0,0
14,-279,0,0,0,0,0,0,0,0,0,-1,1238,1303,0,0
21,-279,0,0,0,0,0,0,0,0,0,-1,1245,1303,0,0
28,-279,0,0,0,0,0,0,0,0,0,-1,1252,1303,0,0
35,-279,0,0,0,0,0,0,0,0,0,-1,1259,1303,0,0
42,-279,0,0,0,0,0,0,0,0,0,-1,1266,1303,0,0
49,-279,0,0,0,0,0,0,0,0,0,-1,1273,1303,0,0
56,-279,0,0,0,0,0,0,0,0,0,-1,1280,1303,0,0
63,-279,0,0,0,0,0,0,0,0,0,-1,1287,1303,0,0
70,-279,0,0,0,0,0,0,0,0,0,-1,1294,1303,0,0
77,-279,0,0,0,0,0,0,0,0,0,-1,1301,1303,0,0
84,-279,0,0,0,0,0,0,0,0,0,-1,1308,1303,0,0
91,-279,0,0,0,0,0,0,0,0,0,-1,1315,1303,0,0
98,-279,0,0,0,0,0,0,0,0,0,-1,1322,1303,0,0
105,-279,0,0,0,0,0,0,0,0,0,-1,1329,1303,0,0
112,-279,0,0,0,0,0,0,0,0,0,-1,1336,1303,0,0
119,-279,0,0,0,0,0,0,0,0,0,-1,1343,1303,0,0
126,-279,0,0,0,0,0,0,0,0,0,-1,1350,1303,0,0
133,-279,0,0,0,0,0,0,0,0,0,-1,1357,1303,0,0
140,-279,0,0,0,0,0,0,0,0,0,-1,1364,1303,0,0
147,-279,0,0,0,0,0,0,0,0,0,-1,1371,1303,0,0
154,-279,0,0,0,0,0,0,0,0,0,-1,1378,1303,0,0
161,-279,0,0,0,0,0,0,0,0,0,-1,1385,1303,0,0
168,-279,0,0,0,0,0,0,0,0,0,-1,1392,1303,0,0
175,-279,0,0,0,0,0,0,0,0,0,-1,1399,1303,0,0
182,-279,0,0,0,0,0,0,0,0,0,-1,1406,1303,0,0
189,-279,0,0,0,0,0,0,0,0,0,-1,1413,1303,0,0
196,-279,0,0,0,0,0,0,0,0,0,-1,1420,1303,0,0
203,-279,0,0,0,0,0,0,0,0,0,-1,1427,1303,0,0
210,-279,0,0,0,0,0,0,0,0,0,-1,1434,1303,0,0
217,-279,0,0,0,0,0,0,0,0,0,-1,1441,1303,0,0
224,-279,0,0,0,0,0,0,0,0,0,-1,1448,1303,0,0
231,-279,0,0,0,0,0,0,0,0,0,-1,1455,1303,0,0
238,-279,0,0,0,0,0,0,0,0,0,-1,1462,1303,0,0
245,-279,0,0,0,0,0,0,0,0,0,-1,1469,1303,0,0
252,-279,0,0,0,0,0,0,0,0,0,-1,1476,1303,0,0
259,-279,0,0,0,0,0,0,0,0,0,-1,1483,1303,0,0
266,-279,0,0,0,0,0,0,0,0,0,-1,1490,1303,0,0
273,-279,0,0,0,0,0,0,0,0,0,-1,1497,1303,0,0
280,-279,0,0,0,0,0,0,0,0,0,-1,1504,1303,0,0
287,-279,0,0,0,0,0,0,0,0,0,-1,1511,1303,0,0
294,-279,0,0,0,0,0,0,0,0,0,-1,1518,1303,0,0
301,-279,0,0,0,0,0,0,0,0,0,-1,1525,1303,0,0
308,-279,0,0,0,0,0,0,0,0,0,-1,1532,1303,0,0
315,-279,0,0,0,0,0,0,0,0,0,-1,1539,1303,0,0
322,-279,0,0,0,0,0,0,0,0,0,-1,1546,1303,0,0
329,-279,0,0,0,0,0,0,0,0,0,-1,1553,1303,0,0
336,-279,0,0,0,0,0,0,0,0,0,-1,1560,1303,0,0
343,-279,0,0,0,0,0,0,0,0,0,-1,1567,1303,0,0
350,-279,0,0,0,0,0,0,0,0,0,-1,1574,1303,0,0
357,-279,0,0,0,0,0,0,0,0,0,-1,1581,1303,0,0
364,-279,0,0,0,0,0,0,0,0,0,-1,1588,1303,0,0
371,-279,0,0,0,0,0,0,0,0,0,-1,1595,1303,0,0
378,-279,0,0,0,0,0,0,0,0,0,-1,1602,1303,0,0
385,-279,0,0,0,0,0,0,0,0,0,-1,1609,1303,0,0
392,-279,0,0,0,0,0,0,0,0,0,-1,1616,1303,0,0
399,-279,0,0,0,0,0,0,0,0,0,-1,1623,1303,0,0
406,-279,0,0,0,0,0,0,0,0,0,-1,1630,1303,0,0
413,-279,0,0,0,0,0,0,0,0,0,-1,1637,1303,0,0
420,-279,0,0,0,0,0,0,0,0,0,-1,1644,1303,0,0
427,-279,0,0,0,0,0,0,0,0,0,-1,1651,1303,0,0
434,-279,0,0,0,0,0,0,0,0,0,-1,1658,1303,0,0
441,-279,0,0,0,0,0,0,0,0,0,-1,1665,1303,0,0
448,-279,0,0,0,0,0,0,0,0,0,-1,1672,1303,0,0
455,-279,0,0,0,0,0,0,0,0,0,-1,1679,1303,0,0
462,-279,0,0,0,0,0,0,0,0,0,-1,1686,1303,0,0
469,-279,0,0,0,0,0,0,0,0,0,-1,1693,1303,0,0
476,-279,0,0,0,0,0,0,0,0,0,-1,1700,1303,0,0
483,-279,0,0,0,0,0,0,0,0,0,-1,1707,1303,0,0
490,-279,0,0,0,0,0,0,0,0,0,-1,1714,1303,0,0
497,-279,0,0,0,0,0,0,0,0,0,-1,1721,1303,0,0
504,-279,0,0,0,0,0,0,0,0,0,-1,1728,1303,0,0
511,-279,0,0,0,0,0,0,0,0,0,-1,1735,1303,0,0
518,-279,0,0,0,0,0,0,0,0,0,-1,1742,1303,0,0
525,-279,0,0,0,0,0,0,0,0,0,-1,1749,1303,0,0
532,-279,0,0,0,0,0,0,0,0,0,-1,1756,1303,0,0
539,-279,0,0,0,0,0,0,0,0,0,-1,1763,1303,0,0
546,-279,0,0,0,0,0,0,0,0,0,-1,1770,1303,0,0
553,-279,0,0,0,0,0,0,0,0,0,-1,1777,1303,0,0
560,-279,0,0,0,0,0,0,0,0,0,-1,1784,1303,0,0
567,-279,0,0,0,0,0,0,0,0,0,-1,1791,1303,0,0
574,-279,0,0,0,0,0,0,0,0,0,-1,1798,1303,0,0
581,-279,0,0,0,0,0,0,0,0,0,-1,1805,1303,0,0
588,-279,0,0,0,0,0,0,0,0,0,-1,1812,1303,0,0
595,-279,0,0,0,0,0,0,0,0,0,-1,1819,1303,0,0
602,-279,55.0229,2.58777,-0.0258339,0.0233983,-0.0277588,0.0358835,-0.0383191,-1.14813,0.0428486,0.0433512,1826,1303,55.023,-2.58772
609,-279,54.9155,2.33301,-0.0232753,0.0268936,-0.0308368,0.0415601,-0.0379418,-1.12684,0.0459162,0.0498157,1833,1303,54.9155,-2.33297
616,-279,54.9108,2.28906,-0.018575,0.0247377,-0.0276279,0.0381855,-0.0320227,-1.11781,0.0405867,0.0466547,1840,1303,54.9108,-2.28911
623,-279,54.9282,2.25281,0,0,0,0,0,0,0,-1,1847,1303,54.9282,-2.25282
630,-279,54.9589,2.57861,0,0,0,0,0,0,0,-1,1854,1303,54.9589,-2.57855
637,-279,55.1598,2.46362,0,0,0,0,0,0,0,-1,1861,1303,55.1598,-2.46359
644,-279,33.5021,3.40234,0,0,0,0,0,0,0,-1,1868,1303,33.5021,-3.40237
651,-279,29.8456,2.3562,0,0,0,0,0,0,0,-1,1875,1303,29.8455,-2.35615
658,-279,21.5076,7.65649,0,0,0,0,0,0,0,-1,1882,1303,21.5076,-7.65648
665,-279,18.9794,6.09607,0,0,0,0,0,0,0,-1,1889,1303,18.9793,-6.09601
672,-279,23.5206,8.32507,0,0,0,0,0,0,0,-1,1896,1303,23.5206,-8.32512
679,-279,38.6401,11.7708,0,0,0,0,0,0,0,-1,1903,1303,38.6401,-11.7707
686,-279,38.7546,11.2559,0.00192688,0.00192045,-0.00341195,0.00533562,-0.00148829,-0.784927,0.00414325,0.028229,1910,1303,38.7546,-11.2559
693,-279,38.8087,10.744,0.000983413,0.00132197,-0.00151004,0.00267219,-0.000366808,-0.841216,0.00191547,0.0162604,1917,1303,38.8088,-10.7441
700,-279,38.7915,10.2111,0.000927081,-0.000346024,0.000205677,0.000959484,-0.000378428,0.156261,0.000796356,0.0116283,1924,1303,38.7915,-10.211
707,-279,38.751,9.65344,7.9628e-05,-0.000500914,0.000836407,0.000674701,-0.00109599,0.618378,0.00103191,0.0095378,1931,1303,38.7509,-9.65339
714,-279,38.7208,9.11584,-0.000890801,-0.000711858,0.00156372,0.00076495,-0.00236761,0.813975,0.00188583,0.0110162,1938,1303,38.7209,-9.11587
721,-279,38.7305,8.56995,-0.00198615,-0.00101471,0.00238264,0.000931214,-0.00393208,0.88595,0.00298068,0.0147566,1945,1303,38.7305,-8.56993
728,-279,38.7418,8.04431,-0.00323694,-0.00142647,0.00331563,0.00110528,-0.00576869,0.918661,0.00426226,0.0158277,1952,1303,38.7418,-8.04437
735,-279,38.6981,7.56836,-0.00464222,-0.00193419,0.00433652,0.00125478,-0.00783119,0.93672,0.0056854,0.0155501,1959,1303,38.6981,-7.56832
742,-279,38.6062,7.08521,-0.00614209,-0.00262596,0.00552305,0.00141208,-0.0101801,0.939485,0.0073031,0.0307769,1966,1303,38.6062,-7.08526
749,-279,38.6216,6.55627,0,0,0,0,0,0,0,-1,1973,1303,38.6216,-6.55623
756,-279,23.2091,4.43433,0,0,0,0,0,0,0,-1,1980,1303,23.2092,-4.43432
763,-279,27.1613,3.46265,0,0,0,0,0,0,0,-1,1987,1303,27.1613,-3.4627
770,-279,21.5828,3.54199,0,0,0,0,0,0,0,-1,1994,1303,21.5827,-3.54198
777,-279,32.5369,6.99609,0,0,0,0,0,0,0,-1,2001,1303,32.5369,-6.99608
784,-279,0,0,0,0,0,0,0,0,0,-1,2008,1303,0,0
791,-279,0,0,0,0,0,0,0,0,0,-1,2015,1303,0,0
798,-279,0,0,0,0,0,0,0,0,0,-1,2022,1303,0,0
805,-279,0,0,0,0,0,0,0,0,0,-1,2029,1303,0,0
812,-279,0,0,0,0,0,0,0,0,0,-1,2036,1303,0,0
-700,-286,0,0,0,0,0,0,0,0,0,-1,524,1310,0,0
-693,-286,0,0,0,0,0,0,0,0,0,-1,531,1310,0,0
-686,-286,0,0,0,0,0,0,0,0,0,-1,538,1310,0,0
-679,-286,0,0,0,0,0,0,0,0,0,-1,545,1310,0,0
-672,-286,0,0,0,0,0,0,0,0,0,-1,552,1310,0,0
-665,-286,0,0,0,0,0,0,0,0,0,-1,559,1310,0,0
-658,-286,-38.3453,0.977295,0,0,0,0,0,0,0,-1,566,1310,-38.3453,-0.977338
-651,-286,-38.598,0.329712,0,0,0,0,0,0,0,-1,573,1310,-38.598,-0.329668
-644,-286,-38.4286,0.334717,0,0,0,0,0,0,0,-1,580,1310,-38.4286,-0.334716
-637,-286,-38.3278,-0.351196,0,0,0,0,0,0,0,-1,587,1310,-38.3278,0.351213
-630,-286,-38.5034,-1.13623,0,0,0,0,0,0,0,-1,594,1310,-38.5034,1.13617
-623,-286,-20.1415,-1.72998,0,0,0,0,0,0,0,-1,601,1310,-20.1415,1.72995
-616,-286,-22.0634,2.37744,0,0,0,0,0,0,0,-1,608,1310,-22.0633,-2.37746
-609,-286,-23.6115,4.3075,0,0,0,0,0,0,0,-1,615,1310,-23.6115,-4.30749
-602,-286,-23.116,5.15686,0.00712493,0.00207003,0.00488327,0.010096,-0.000901097,0.546595,0.00705029,0.0223004,622,1310,-23.116,-5.15688
-595,-286,-23.1591,5.79358,0.00587145,0.00203846,0.00311233,0.00761003,0.000299884,0.509429,0.0049764,0.0120919,629,1310,-23.1591,-5.79359
-588,-286,-23.1751,6.35376,0.00443381,0.00138243,0.00220861,0.00559247,0.00022378,0.483139,0.003656,0.0129044,636,1310,-23.1751,-6.35378
-581,-286,-23.1754,6.94202,0.00351791,0.000749741,0.00156607,0.00422387,4.3785e-05,0.423503,0.00280143,0.015024,643,1310,-23.1754,-6.94198
-574,-286,-23.2083,7.52795,0.00301343,0.000140227,0.00112161,0.00339942,-0.00024576,0.331442,0.00235248,0.0151805,650,1310,-23.2082,-7.52794
-567,-286,-23.239,8.10339,0.00286147,-0.000460402,0.000858214,0.00307009,-0.000669022,0.238461,0.00230237,0.0147792,657,1310,-23.239,-8.10335
-560,-286,-23.2632,8.72266,0.00292832,-0.00105101,0.000747085,0.00306396,-0.00118665,0.179597,0.00253262,0.0139938,664,1310,-23.2632,-8.7226
-553,-286,-23.2825,9.30334,0.00312707,-0.0016479,0.000970181,0.00331666,-0.00183749,0.192989,0.00301632,0.0102285,671,1310,-23.2826,-9.30332
-546,-286,-23.2678,9.88879,0.00332772,-0.0022032,0.00122479,0.00358681,-0.00246229,0.208463,0.0035125,0.0212128,678,1310,-23.2678,-9.88882
-539,-286,-23.21,10.3911,0,0,0,0,0,0,0,-1,685,1310,-23.21,-10.3911
-532,-286,-21.6771,10.4924,0,0,0,0,0,0,0,-1,692,1310,-21.6771,-10.4924
-525,-286,-11.4528,-1.11768,0,0,0,0,0,0,0,-1,699,1310,-11.4528,1.11769
-518,-286,-11.0701,1.37329,0,0,0,0,0,0,0,-1,706,1310,-11.0701,-1.37332
-511,-286,-17.7545,-0.0791016,0,0,0,0,0,0,0,-1,713,1310,-17.7544,0.0791606
-504,-286,-18.0455,1.29602,0,0,0,0,0,0,0,-1,720,1310,-18.0455,-1.29601
-497,-286,-18.3367,2.67114,0,0,0,0,0,0,0,-1,727,1310,-18.3366,-2.67118
-490,-286,-19.5795,2.47266,0,0,0,0,0,0,0,-1,734,1310,-19.5795,-2.4727
-483,-286,-19.7277,2.74744,0,0,0,0,0,0,0,-1,741,1310,-19.7277,-2.74747
-476,-286,-20.0391,3.06177,0,0,0,0,0,0,0,-1,748,1310,-20.0391,-3.06178
-469,-286,0,0,0,0,0,0,0,0,0,-1,755,1310,0,0
-462,-286,0,0,0,0,0,0,0,0,0,-1,762,1310,0,0
-455,-286,0,0,0,0,0,0,0,0,0,-1,769,1310,0,0
-448,-286,0,0,0,0,0,0,0,0,0,-1,776,1310,0,0
-441,-286,0,0,0,0,0,0,0,0,0,-1,783,1310,0,0
-434,-286,0,0,0,0,0,0,0,0,0,-1,790,1310,0,0
-427,-286,0,0,0,0,0,0,0,0,0,-1,797,1310,0,0
-420,-286,0,0,0,0,0,0,0,0,0,-1,804,1310,0,0
-413,-286,0,0,0,0,0,0,0,0,0,-1,811,1310,0,0
-406,-286,0,0,0,0,0,0,0,0,0,-1,818,1310,0,0
-399,-286,0,0,0,0,0,0,0,0,0,-1,825,1310,0,0
-392,-286,0,0,0,0,0,0,0,0,0,-1,832,1310,0,0
-385,-286,0,0,0,0,0,0,0,0,0,-1,839,1310,0,0
-378,-286,0,0,0,0,0,0,0,0,0,-1,846,1310,0,0
-371,-286,0,0,0,0,0,0,0,0,0,-1,853,1310,0,0
-364,-286,0,0,0,0,0,0,0,0,0,-1,860,1310,0,0
-357,-286,0,0,0,0,0,0,0,0,0,-1,867,1310,0,0
-350,-286,0,0,0,0,0,0,0,0,0,-1,874,1310,0,0
-343,-286,0,0,0,0,0,0,0,0,0,-1,881,1310,0,0
-336,-286,0,0,0,0,0,0,0,0,0,-1,888,1310,0,0
-329,-286,0,0,0,0,0,0,0,0,0,-1,895,1310,0,0
-322,-286,0,0,0,0,0,0,0,0,0,-1,902,1310,0,0
-315,-286,0,0,0,0,0,0,0,0,0,-1,909,1310,0,0
-308,-286,0,0,0,0,0,0,0,0,0,-1,916,1310,0,0
-301,-286,0,0,0,0,0,0,0,0,0,-1,923,1310,0,0
-294,-286,0,0,0,0,0,0,0,0,0,-1,930,1310,0,0
-287,-286,0,0,0,0,0,0,0,0,0,-1,937,1310,0,0
-280,-286,0,0,0,0,0,0,0,0,0,-1,944,1310,0,0
-273,-286,0,0,0,0,0,0,0,0,0,-1,951,1310,0,0
-266,-286,0,0,0,0,0,0,0,0,0,-1,958,1310,0,0
-259,-286,0,0,0,0,0,0,0,0,0,-1,965,1310,0,0
-252,-286,0,0,0,0,0,0,0,0,0,-1,972,1310,0,0
-245,-286,0,0,0,0,0,0,0,0,0,-1,979,1310,0,0
-238,-286,0,0,0,0,0,0,0,0,0,-1,986,1310,0,0
-231,-286,0,0,0,0,0,0,0,0,0,-1,993,1310,0,0
-224,-286,0,0,0,0,0,0,0,0,0,-1,1000,1310,0,0
-217,-286,0,0,0,0,0,0,0,0,0,-1,1007,1310,0,0
-210,-286,0,0,0,0,0,0,0,0,0,-1,1014,1310,0,0
-203,-286,0,0,0,0,0,0,0,0,0,-1,1021,1310,0,0
-196,-286,0,0,0,0,0,0,0,0,0,-1,1028,1310,0,0
-189,-286,0,0,0,0,0,0,0,0,0,-1,1035,1310,0,0
-182,-286,0,0,0,0,0,0,0,0,0,-1,1042,1310,0,0
-175,-286,0,0,0,0,0,0,0,0,0,-1,1049,1310,0,0
-168,-286,0,0,0,0,0,0,0,0,0,-1,1056,1310,0,0
-161,-286,0,0,0,0,0,0,0,0,0,-1,1063,1310,0,0
-154,-286,0,0,0,0,0,0,0,0,0,-1,1070,1310,0,0
-147,-286,0,0,0,0,0,0,0,0,0,-1,1077,1310,0,0
-140,-286,0,0,0,0,0,0,0,0,0,-1,1084,1310,0,0
-133,-286,0,0,0,0,0,0,0,0,0,-1,1091,1310,0,0
-126,-286,0,0,0,0,0,0,0,0,0,-1,1098,1310,0,0
-119,-286,0,0,0,0,0,0,0,0,0,-1,1105,1310,0,0
-112,-286,0,0,0,0,0,0,0,0,0,-1,1112,1310,0,0
-105,-286,0,0,0,0,0,0,0,0,0,-1,1119,1310,0,0
-98,-286,0,0,0,0,0,0,0,0,0,-1,1126,1310,0,0
-91,-286,0,0,0,0,0,0,0,0,0,-1,1133,1310,0,0
-84,-286,0,0,0,0,0,0,0,0,0,-1,1140,1310,0,0
-77,-286,0,0,0,0,0,0,0,0,0,-1,1147,1310,0,0
-70,-286,0,0,0,0,0,0,0,0,0,-1,1154,1310,0,0
-63,-286,0,0,0,0,0,0,0,0,0,-1,1161,1310,0,0
-56,-286,0,0,0,0,0,0,0,0,0,-1,1168,1310,0,0
-49,-286,0,0,0,0,0,0,0,0,0,-1,1175,1310,0,0
-42,-286,0,0,0,0,0,0,0,0,0,-1,1182,1310,0,0
-35,-286,0,0,0,0,0,0,0,0,0,-1,1189,1310,0,0
-28,-286,0,0,0,0,0,0,0,0,0,-1,1196,1310,0,0
-21,-286,0,0,0,0,0,0,0,0,0,-1,1203,1310,0,0
-14,-286,0,0,0,0,0,0,0,0,0,-1,1210,1310,0,0
-7,-286,0,0,0,0,0,0,0,0,0,-1,1217,1310,0,0
0,-286,0,0,0,0,0,0,0,0,0,-1,1224,1310,0,0
7,-286,0,0,0,0,0,0,0,0,0,-1,1231,1310,0,0
14,-286,0,0,0,0,0,0,0,0,0,-1,1238,1310,0,0
21,-286,0,0,0,0,0,0,0,0,0,-1,1245,1310,0,0
28,-286,0,0,0,0,0,0,0,0,0,-1,1252,1310,0,0
35,-286,0,0,0,0,0,0,0,0,0,-1,1259,1310,0,0
42,-286,0,0,0,0,0,0,0,0,0,-1,1266,1310,0,0
49,-286,0,0,0,0,0,0,0,0,0,-1,1273,1310,0,0
56,-286,0,0,0,0,0,0,0,0,0,-1,1280,1310,0,0
63,-286,0,0,0,0,0,0,0,0,0,-1,1287,1310,0,0
70,-286,0,0,0,0,0,0,0,0,0,-1,1294,1310,0,0
77,-286,0,0,0,0,0,0,0,0,0,-1,1301,1310,0,0
84,-286,0,0,0,0,0,0,0,0,0,-1,1308,1310,0,0
91,-286,0,0,0,0,0,0,0,0,0,-1,1315,1310,0,0
98,-286,0,0,0,0,0,0,0,0,0,-1,1322,1310,0,0
105,-286,0,0,0,0,0,0,0,0,0,-1,1329,1310,0,0
112,-286,0,0,0,0,0,0,0,0,0,-1,1336,1310,0,0
119,-286,0,0,0,0,0,0,0,0,0,-1,1343,1310,0,0
126,-286,0,0,0,0,0,0,0,0,0,-1,1350,1310,0,0
133,-286,0,0,0,0,0,0,0,0,0,-1,1357,1310,0,0
140,-286,0,0,0,0,0,0,0,0,0,-1,1364,1310,0,0
147,-286,0,0,0,0,0,0,0,0,0,-1,1371,1310,0,0
154,-286,0,0,0,0,0,0,0,0,0,-1,1378,1310,0,0
161,-286,0,0,0,0,0,0,0,0,0,-1,1385,1310,0,0
168,-286,0,0,0,0,0,0,0,0,0,-1,1392,1310,0,0
175,-286,0,0,0,0,0,0,0,0,0,-1,1399,1310,0,0
182,-286,0,0,0,0,0,0,0,0,0,-1,1406,1310,0,0
189,-286,0,0,0,0,0,0,0,0,0,-1,1413,1310,0,0
196,-286,0,0,0,0,0,0,0,0,0,-1,1420,1310,0,0
203,-286,0,0,0,0,0,0,0,0,0,-1,1427,1310,0,0
210,-286,0,0,0,0,0,0,0,0,0,-1,1434,1310,0,0
217,-286,0,0,0,0,0,0,0,0,0,-1,1441,1310,0,0
224,-286,0,0,0,0,0,0,0,0,0,-1,1448,1310,0,0
231,-286,0,0,0,0,0,0,0,0,0,-1,1455,1310,0,0
238,-286,0,0,0,0,0,0,0,0,0,-1,1462,1310,0,0
245,-286,0,0,0,0,0,0,0,0,0,-1,1469,1310,0,0
252,-286,0,0,0,0,0,0,0,0,0,-1,1476,1310,0,0
259,-286,0,0,0,0,0,0,0,0,0,-1,1483,1310,0,0
266,-286,0,0,0,0,0,0,0,0,0,-1,1490,1310,0,0
273,-286,0,0,0,0,0,0,0,0,0,-1,1497,1310,0,0
280,-286,0,0,0,0,0,0,0,0,0,-1,1504,1310,0,0
287,-286,0,0,0,0,0,0,0,0,0,-1,1511,1310,0,0
294,-286,0,0,0,0,0,0,0,0,0,-1,1518,1310,0,0
301,-286,0,0,0,0,0,0,0,0,0,-1,1525,1310,0,0
308,-286,0,0,0,0,0,0,0,0,0,-1,1532,1310,0,0
315,-286,0,0,0,0,0,0,0,0,0,-1,1539,1310,0,0
322,-286,0,0,0,0,0,0,0,0,0,-1,1546,1310,0,0
329,-286,0,0,0,0,0,0,0,0,0,-1,1553,1310,0,0
336,-286,0,0,0,0,0,0,0,0,0,-1,1560,1310,0,0
343,-286,0,0,0,0,0,0,0,0,0,-1,1567,1310,0,0
350,-286,0,0,0,0,0,0,0,0,0,-1,1574,1310,0,0
357,-286,0,0,0,0,0,0,0,0,0,-1,1581,1310,0,0
364,-286,0,0,0,0,0,0,0,0,0,-1,1588,1310,0,0
371,-286,0,0,0,0,0,0,0,0,0,-1,1595,1310,0,0
378,-286,0,0,0,0,0,0,0,0,0,-1,1602,1310,0,0
385,-286,0,0,0,0,0,0,0,0,0,-1,1609,1310,0,0
392,-286,0,0,0,0,0,0,0,0,0,-1,1616,1310,0,0
399,-286,0,0,0,0,0,0,0,0,0,-1,1623,1310,0,0
406,-286,0,0,0,0,0,0,0,0,0,-1,1630,1310,0,0
413,-286,0,0,0,0,0,0,0,0,0,-1,1637,1310,0,0
420,-286,0,0,0,0,0,0,0,0,0,-1,1644,1310,0,0
427,-286,0,0,0,0,0,0,0,0,0,-1,1651,1310,0,0
434,-286,0,0,0,0,0,0,0,0,0,-1,1658,1310,0,0
441,-286,0,0,0,0,0,0,0,0,0,-1,1665,1310,0,0
448,-286,0,0,0,0,0,0,0,0,0,-1,1672,1310,0,0
455,-286,0,0,0,0,0,0,0,0,0,-1,1679,1310,0,0
462,-286,0,0,0,0,0,0,0,0,0,-1,1686,1310,0,0
469,-286,0,0,0,0,0,0,0,0,0,-1,1693,1310,0,0
476,-286,0,0,0,0,0,0,0,0,0,-1,1700,1310,0,0
483,-286,0,0,0,0,0,0,0,0,0,-1,1707,1310,0,0
490,-286,0,0,0,0,0,0,0,0,0,-1,1714,1310,0,0
497,-286,0,0,0,0,0,0,0,0,0,-1,1721,1310,0,0
504,-286,0,0,0,0,0,0,0,0,0,-1,1728,1310,0,0
511,-286,0,0,0,0,0,0,0,0,0,-1,1735,1310,0,0
518,-286,0,0,0,0,0,0,0,0,0,-1,1742,1310,0,0
525,-286,0,0,0,0,0,0,0,0,0,-1,1749,1310,0,0
532,-286,0,0,0,0,0,0,0,0,0,-1,1756,1310,0,0
539,-286,0,0,0,0,0,0,0,0,0,-1,1763,1310,0,0
546,-286,0,0,0,0,0,0,0,0,0,-1,1770,1310,0,0
553,-286,0,0,0,0,0,0,0,0,0,-1,1777,1310,0,0
560,-286,0,0,0,0,0,0,0,0,0,-1,1784,1310,0,0
567,-286,0,0,0,0,0,0,0,0,0,-1,1791,1310,0,0
574,-286,0,0,0,0,0,0,0,0,0,-1,1798,1310,0,0
581,-286,0,0,0,0,0,0,0,0,0,-1,1805,1310,0,0
588,-286,0,0,0,0,0,0,0,0,0,-1,1812,1310,0,0
595,-286,55.037,2.64087,0,0,0,0,0,0,0,-1,1819,1310,55.037,-2.6409
602,-286,55.178,2.56262,-0.0335407,0.0335304,-0.043701,0.0550803,-0.0550906,-1.11267,0.0636072,0.0497807,1826,1310,55.178,-2.56267
609,-286,54.7432,1.88989,-0.0297221,0.0350314,-0.043994,0.0572781,-0.0519688,-1.10262,0.0630986,0.0452274,1833,1310,54.7432,-1.88986
616,-286,54.8239,2.04236,0,0,0,0,0,0,0,-1,1840,1310,54.8239,-2.04237
623,-286,55.0455,2.54919,0,0,0,0,0,0,0,-1,1847,1310,55.0456,-2.54917
630,-286,55.1019,2.17871,0,0,0,0,0,0,0,-1,1854,1310,55.1019,-2.17868
637,-286,47.8409,3.69824,0,0,0,0,0,0,0,-1,1861,1310,47.841,-3.69823
644,-286,25.6433,1.33862,0,0,0,0,0,0,0,-1,1868,1310,25.6433,-1.33858
651,-286,25.2507,1.88245,0,0,0,0,0,0,0,-1,1875,1310,25.2508,-1.88245
658,-286,25.9475,9.43689,0,0,0,0,0,0,0,-1,1882,1310,25.9475,-9.43693
665,-286,24.9838,8.03101,0,0,0,0,0,0,0,-1,1889,1310,24.9837,-8.03104
672,-286,37.5676,11.838,0,0,0,0,0,0,0,-1,1896,1310,37.5676,-11.838
679,-286,38.2468,11.8171,0,0,0,0,0,0,0,-1,1903,1310,38.2468,-11.8172
686,-286,38.2386,11.2815,0.00207904,0.00136115,-0.00278702,0.00453014,-0.00108995,-0.721355,0.00344143,0.0219622,1910,1310,38.2387,-11.2815
693,-286,38.2448,10.7513,0.00109272,0.000859473,-0.0010572,0.00203971,-8.75127e-05,-0.730462,0.0013899,0.0161888,1917,1310,38.2447,-10.7513
700,-286,38.2386,10.2092,0.000814415,-0.000358946,0.000365528,0.000918969,-0.0004635,0.278596,0.00081248,0.0114801,1924,1310,38.2387,-10.2092
707,-286,38.2084,9.69495,-4.31274e-05,-0.000558822,0.00101032,0.000741731,-0.00134368,0.660459,0.00122062,0.00885743,1931,1310,38.2083,-9.69495
714,-286,38.1786,9.15625,-0.00103977,-0.000859324,0.00176574,0.000818495,-0.00271759,0.810924,0.00213745,0.00940851,1938,1310,38.1786,-9.15623
721,-286,38.1821,8.62,-0.00218517,-0.00127936,0.00264315,0.00094941,-0.00441394,0.870249,0.00330487,0.012225,1945,1310,38.1821,-8.62
728,-286,38.1702,8.10291,-0.00352678,-0.0018373,0.00366706,0.00108106,-0.00644514,0.898603,0.00469875,0.0152288,1952,1310,38.1702,-8.10294
735,-286,38.1538,7.55786,-0.00509081,-0.00255587,0.00483341,0.00117349,-0.00882017,0.913626,0.00630777,0.0193781,1959,1310,38.1538,-7.55786
742,-286,38.1432,7.03088,-0.00683271,-0.00357876,0.00626909,0.00127104,-0.0116825,0.912359,0.00824474,0.0432529,1966,1310,38.1432,-7.03092
749,-286,38.2786,6.4541,0,0,0,0,0,0,0,-1,1973,1310,38.2786,-6.45414
756,-286,24.8226,4.43481,0,0,0,0,0,0,0,-1,1980,1310,24.8227,-4.43479
763,-286,20.6671,3.99683,0,0,0,0,0,0,0,-1,1987,1310,20.6671,-3.99683
770,-286,23.9147,4.45679,0,0,0,0,0,0,0,-1,1994,1310,23.9146,-4.45675
777,-286,0,0,0,0,0,0,0,0,0,-1,2001,1310,0,0
784,-286,0,0,0,0,0,0,0,0,0,-1,2008,1310,0,0
791,-286,0,0,0,0,0,0,0,0,0,-1,2015,1310,0,0
798,-286,0,0,0,0,0,0,0,0,0,-1,2022,1310,0,0
805,-286,0,0,0,0,0,0,0,0,0,-1,2029,1310,0,0
812,-286,0,0,0,0,0,0,0,0,0,-1,2036,1310,0,0
-700,-293,0,0,0,0,0,0,0,0,0,-1,524,1317,0,0
-693,-293,0,0,0,0,0,0,0,0,0,-1,531,1317,0,0
-686,-293,0,0,0,0,0,0,0,0,0,-1,538,1317,0,0
-679,-293,0,0,0,0,0,0,0,0,0,-1,545,1317,0,0
-672,-293,0,0,0,0,0,0,0,0,0,-1,552,1317,0,0
-665,-293,0,0,0,0,0,0,0,0,0,-1,559,1317,0,0
-658,-293,0,0,0,0,0,0,0,0,0,-1,566,1317,0,0
-651,-293,-38.4809,1.63257,0,0,0,0,0,0,0,-1,573,1317,-38.4809,-1.63252
-644,-293,-38.8182,0.873047,0,0,0,0,0,0,0,-1,580,1317,-38.8183,-0.873024
-637,-293,-38.7209,0.0534668,0,0,0,0,0,0,0,-1,587,1317,-38.7209,-0.0534282
-630,-293,-24.5684,-3.7887,0,0,0,0,0,0,0,-1,594,1317,-24.5684,3.78869
-623,-293,-15.6058,0.229614,0,0,0,0,0,0,0,-1,601,1317,-15.6058,-0.229666
-616,-293,-15.5056,2.17737,0,0,0,0,0,0,0,-1,608,1317,-15.5055,-2.17742
-609,-293,-22.1621,4.20154,0,0,0,0,0,0,0,-1,615,1317,-22.1621,-4.20148
-602,-293,-22.6118,5.07471,0,0,0,0,0,0,0,-1,622,1317,-22.6117,-5.07467
-595,-293,-22.6022,5.78882,0.00660759,0.00229638,0.00359486,0.0086436,0.000260375,0.515322,0.0056776,0.0202266,629,1317,-22.6021,-5.78883
-588,-293,-22.5817,6.38342,0.00489468,0.00164341,0.00251863,0.00626674,0.000271352,0.498816,0.00409038,0.0173641,636,1317,-22.5817,-6.38339
-581,-293,-22.5867,6.95898,0.00379333,0.00103358,0.00177439,0.00466124,0.000165671,0.454913,0.00305377,0.0198243,643,1317,-22.5867,-6.95904
-574,-293,-22.6199,7.56848,0.00312929,0.000461688,0.00125444,0.00362651,-3.55353e-05,0.377373,0.00242961,0.0176053,650,1317,-22.6199,-7.56844
-567,-293,-22.6602,8.17188,0.0028311,-9.2824e-05,0.000939902,0.00310716,-0.000368892,0.285686,0.00220472,0.0168154,657,1317,-22.6602,-8.17185
-560,-293,-22.6857,8.77039,0.00293468,-0.000586778,0.000778081,0.00309894,-0.000751037,0.208052,0.00235654,0.0166602,664,1317,-22.6857,-8.77038
-553,-293,-22.6913,9.32617,0.00350394,-0.00104585,0.000882149,0.00366899,-0.0012109,0.184962,0.00293413,0.0115006,671,1317,-22.6913,-9.32612
-546,-293,-22.6888,9.91455,0.00441932,-0.00142982,0.00111132,0.00462335,-0.00163385,0.181571,0.00374751,0.0136577,678,1317,-22.6888,-9.9146
-539,-293,-22.5936,10.5105,0.00599821,-0.00182394,0.00169232,0.00634864,-0.00217437,0.204187,0.00511371,0.0425673,685,1317,-22.5936,-10.5105
-532,-293,-22.4494,11.0415,0,0,0,0,0,0,0,-1,692,1317,-22.4494,-11.0415
-525,-293,-8.20642,3.62256,0,0,0,0,0,0,0,-1,699,1317,-8.20639,-3.6226
-518,-293,-10.1053,0.314209,0,0,0,0,0,0,0,-1,706,1317,-10.1053,-0.314234
-511,-293,-11.6276,0.235352,0,0,0,0,0,0,0,-1,713,1317,-11.6276,-0.235372
-504,-293,-17.9086,1.25427,0,0,0,0,0,0,0,-1,720,1317,-17.9086,-1.25423
-497,-293,-18.8006,1.62122,0,0,0,0,0,0,0,-1,727,1317,-18.8006,-1.62119
-490,-293,-18.8961,1.99255,0,0,0,0,0,0,0,-1,734,1317,-18.8961,-1.99251
-483,-293,-19.0831,2.35498,0,0,0,0,0,0,0,-1,741,1317,-19.0831,-2.35497
-476,-293,-19.5228,2.61243,0,0,0,0,0,0,0,-1,748,1317,-19.5228,-2.61237
-469,-293,0,0,0,0,0,0,0,0,0,-1,755,1317,0,0
-462,-293,0,0,0,0,0,0,0,0,0,-1,762,1317,0,0
-455,-293,0,0,0,0,0,0,0,0,0,-1,769,1317,0,0
-448,-293,0,0,0,0,0,0,0,0,0,-1,776,1317,0,0
-441,-293,0,0,0,0,0,0,0,0,0,-1,783,1317,0,0
-434,-293,0,0,0,0,0,0,0,0,0,-1,790,1317,0,0
-427,-293,0,0,0,0,0,0,0,0,0,-1,797,1317,0,0
-420,-293,0,0,0,0,0,0,0,0,0,-1,804,1317,0,0
-413,-293,0,0,0,0,0,0,0,0,0,-1,811,1317,0,0
-406,-293,0,0,0,0,0,0,0,0,0,-1,818,1317,0,0
-399,-293,0,0,0,0,0,0,0,0,0,-1,825,1317,0,0
-392,-293,0,0,0,0,0,0,0,0,0,-1,832,1317,0,0
-385,-293,0,0,0,0,0,0,0,0,0,-1,839,1317,0,0
-378,-293,0,0,0,0,0,0,0,0,0,-1,846,1317,0,0
-371,-293,0,0,0,0,0,0,0,0,0,-1,853,1317,0,0
-364,-293,0,0,0,0,0,0,0,0,0,-1,860,1317,0,0
-357,-293,0,0,0,0,0,0,0,0,0,-1,867,1317,0,0
-350,-293,0,0,0,0,0,0,0,0,0,-1,874,1317,0,0
-343,-293,0,0,0,0,0,0,0,0,0,-1,881,1317,0,0
-336,-293,0,0,0,0,0,0,0,0,0,-1,888,1317,0,0
-329,-293,0,0,0,0,0,0,0,0,0,-1,895,1317,0,0
-322,-293,0,0,0,0,0,0,0,0,0,-1,902,1317,0,0
-315,-293,0,0,0,0,0,0,0,0,0,-1,909,1317,0,0
-308,-293,0,0,0,0,0,0,0,0,0,-1,916,1317,0,0
-301,-293,0,0,0,0,0,0,0,0,0,-1,923,1317,0,0
-294,-293,0,0,0,0,0,0,0,0,0,-1,930,1317,0,0
-287,-293,0,0,0,0,0,0,0,0,0,-1,937,1317,0,0
-280,-293,0,0,0,0,0,0,0,0,0,-1,944,1317,0,0
-273,-293,0,0,0,0,0,0,0,0,0,-1,951,1317,0,0
-266,-293,0,0,0,0,0,0,0,0,0,-1,958,1317,0,0
-259,-293,0,0,0,0,0,0,0,0,0,-1,965,1317,0,0
-252,-293,0,0,0,0,0,0,0,0,0,-1,972,1317,0,0
-245,-293,0,0,0,0,0,0,0,0,0,-1,979,1317,0,0
-238,-293,0,0,0,0,0,0,0,0,0,-1,986,1317,0,0
-231,-293,0,0,0,0,0,0,0,0,0,-1,993,1317,0,0
-224,-293,0,0,0,0,0,0,0,0,0,-1,1000,1317,0,0
-217,-293,0,0,0,0,0,0,0,0,0,-1,1007,1317,0,0
-210,-293,0,0,0,0,0,0,0,0,0,-1,1014,1317,0,0
-203,-293,0,0,0,0,0,0,0,0,0,-1,1021,1317,0,0
-196,-293,0,0,0,0,0,0,0,0,0,-1,1028,1317,0,0
-189,-293,0,0,0,0,0,0,0,0,0,-1,1035,1317,0,0
-182,-293,0,0,0,0,0,0,0,0,0,-1,1042,1317,0,0
-175,-293,0,0,0,0,0,0,0,0,0,-1,1049,1317,0,0
-168,-293,0,0,0,0,0,0,0,0,0,-1,1056,1317,0,0
-161,-293,0,0,0,0,0,0,0,0,0,-1,1063,1317,0,0
-154,-293,0,0,0,0,0,0,0,0,0,-1,1070,1317,0,0
-147,-293,0,0,0,0,0,0,0,0,0,-1,1077,1317,0,0
-140,-293,0,0,0,0,0,0,0,0,0,-1,1084,1317,0,0
-133,-293,0,0,0,0,0,0,0,0,0,-1,1091,1317,0,0
-126,-293,0,0,0,0,0,0,0,0,0,-1,1098,1317,0,0
-119,-293,0,0,0,0,0,0,0,0,0,-1,1105,1317,0,0
-112,-293,0,0,0,0,0,0,0,0,0,-1,1112,1317,0,0
-105,-293,0,0,0,0,0,0,0,0,0,-1,1119,1317,0,0
-98,-293,0,0,0,0,0,0,0,0,0,-1,1126,1317,0,0
-91,-293,0,0,0,0,0,0,0,0,0,-1,1133,1317,0,0
-84,-293,0,0,0,0,0,0,0,0,0,-1,1140,1317,0,0
-77,-293,0,0,0,0,0,0,0,0,0,-1,1147,1317,0,0
-70,-293,0,0,0,0,0,0,0,0,0,-1,1154,1317,0,0
-63,-293,0,0,0,0,0,0,0,0,0,-1,1161,1317,0,0
-56,-293,0,0,0,0,0,0,0,0,0,-1,1168,1317,0,0
-49,-293,0,0,0,0,0,0,0,0,0,-1,1175,1317,0,0
-42,-293,0,0,0,0,0,0,0,0,0,-1,1182,1317,0,0
-35,-293,0,0,0,0,0,0,0,0,0,-1,1189,1317,0,0
-28,-293,0,0,0,0,0,0,0,0,0,-1,1196,1317,0,0
-21,-293,0,0,0,0,0,0,0,0,0,-1,1203,1317,0,0
-14,-293,0,0,0,0,0,0,0,0,0,-1,1210,1317,0,0
-7,-293,0,0,0,0,0,0,0,0,0,-1,1217,1317,0,0
0,-293,0,0,0,0,0,0,0,0,0,-1,1224,1317,0,0
7,-293,0,0,0,0,0,0,0,0,0,-1,1231,1317,0,0
14,-293,0,0,0,0,0,0,0,0,0,-1,1238,1317,0,0
21,-293,0,0,0,0,0,0,0,0,0,-1,1245,1317,0,0
28,-293,0,0,0,0,0,0,0,0,0,-1,1252,1317,0,0
35,-293,0,0,0,0,0,0,0,0,0,-1,1259,1317,0,0
42,-293,0,0,0,0,0,0,0,0,0,-1,1266,1317,0,0
49,-293,0,0,0,0,0,0,0,0,0,-1,1273,1317,0,0
56,-293,0,0,0,0,0,0,0,0,0,-1,1280,1317,0,0
63,-293,0,0,0,0,0,0,0,0,0,-1,1287,1317,0,0
70,-293,0,0,0,0,0,0,0,0,0,-1,1294,1317,0,0
77,-293,0,0,0,0,0,0,0,0,0,-1,1301,1317,0,0
84,-293,0,0,0,0,0,0,0,0,0,-1,1308,1317,0,0
91,-293,0,0,0,0,0,0,0,0,0,-1,1315,1317,0,0
98,-293,0,0,0,0,0,0,0,0,0,-1,1322,1317,0,0
105,-293,0,0,0,0,0,0,0,0,0,-1,1329,1317,0,0
112,-293,0,0,0,0,0,0,0,0,0,-1,1336,1317,0,0
119,-293,0,0,0,0,0,0,0,0,0,-1,1343,1317,0,0
126,-293,0,0,0,0,0,0,0,0,0,-1,1350,1317,0,0
133,-293,0,0,0,0,0,0,0,0,0,-1,1357,1317,0,0
140,-293,0,0,0,0,0,0,0,0,0,-1,1364,1317,0,0
147,-293,0,0,0,0,0,0,0,0,0,-1,1371,1317,0,0
154,-293,0,0,0,0,0,0,0,0,0,-1,1378,1317,0,0
161,-293,0,0,0,0,0,0,0,0,0,-1,1385,1317,0,0
168,-293,0,0,0,0,0,0,0,0,0,-1,1392,1317,0,0
175,-293,0,0,0,0,0,0,0,0,0,-1,1399,1317,0,0
182,-293,0,0,0,0,0,0,0,0,0,-1,1406,1317,0,0
189,-293,0,0,0,0,0,0,0,0,0,-1,1413,1317,0,0
196,-293,0,0,0,0,0,0,0,0,0,-1,1420,1317,0,0
203,-293,0,0,0,0,0,0,0,0,0,-1,1427,1317,0,0
210,-293,0,0,0,0,0,0,0,0,0,-1,1434,1317,0,0
217,-293,0,0,0,0,0,0,0,0,0,-1,1441,1317,0,0
224,-293,0,0,0,0,0,0,0,0,0,-1,1448,1317,0,0
231,-293,0,0,0,0,0,0,0,0,0,-1,1455,1317,0,0
238,-293,0,0,0,0,0,0,0,0,0,-1,1462,1317,0,0
245,-293,0,0,0,0,0,0,0,0,0,-1,1469,1317,0,0
252,-293,0,0,0,0,0,0,0,0,0,-1,1476,1317,0,0
259,-293,0,0,0,0,0,0,0,0,0,-1,1483,1317,0,0
266,-293,0,0,0,0,0,0,0,0,0,-1,1490,1317,0,0
273,-293,0,0,0,0,0,0,0,0,0,-1,1497,1317,0,0
280,-293,0,0,0,0,0,0,0,0,0,-1,1504,1317,0,0
287,-293,0,0,0,0,0,0,0,0,0,-1,1511,1317,0,0
294,-293,0,0,0,0,0,0,0,0,0,-1,1518,1317,0,0
301,-293,0,0,0,0,0,0,0,0,0,-1,1525,1317,0,0
308,-293,0,0,0,0,0,0,0,0,0,-1,1532,1317,0,0
315,-293,0,0,0,0,0,0,0,0,0,-1,1539,1317,0,0
322,-293,0,0,0,0,0,0,0,0,0,-1,1546,1317,0,0
329,-293,0,0,0,0,0,0,0,0,0,-1,1553,1317,0,0
336,-293,0,0,0,0,0,0,0,0,0,-1,1560,1317,0,0
343,-293,0,0,0,0,0,0,0,0,0,-1,1567,1317,0,0
350,-293,0,0,0,0,0,0,0,0,0,-1,1574,1317,0,0
357,-293,0,0,0,0,0,0,0,0,0,-1,1581,1317,0,0
364,-293,0,0,0,0,0,0,0,0,0,-1,1588,1317,0,0
371,-293,0,0,0,0,0,0,0,0,0,-1,1595,1317,0,0
378,-293,0,0,0,0,0,0,0,0,0,-1,1602,1317,0,0
385,-293,0,0,0,0,0,0,0,0,0,-1,1609,1317,0,0
392,-293,0,0,0,0,0,0,0,0,0,-1,1616,1317,0,0
399,-293,0,0,0,0,0,0,0,0,0,-1,1623,1317,0,0
406,-293,0,0,0,0,0,0,0,0,0,-1,1630,1317,0,0
413,-293,0,0,0,0,0,0,0,0,0,-1,1637,1317,0,0
420,-293,0,0,0,0,0,0,0,0,0,-1,1644,1317,0,0
427,-293,0,0,0,0,0,0,0,0,0,-1,1651,1317,0,0
434,-293,0,0,0,0,0,0,0,0,0,-1,1658,1317,0,0
441,-293,0,0,0,0,0,0,0,0,0,-1,1665,1317,0,0
448,-293,0,0,0,0,0,0,0,0,0,-1,1672,1317,0,0
455,-293,0,0,0,0,0,0,0,0,0,-1,1679,1317,0,0
462,-293,0,0,0,0,0,0,0,0,0,-1,1686,1317,0,0
469,-293,0,0,0,0,0,0,0,0,0,-1,1693,1317,0,0
476,-293,0,0,0,0,0,0,0,0,0,-1,1700,1317,0,0
483,-293,0,0,0,0,0,0,0,0,0,-1,1707,1317,0,0
490,-293,0,0,0,0,0,0,0,0,0,-1,1714,1317,0,0
497,-293,0,0,0,0,0,0,0,0,0,-1,1721,1317,0,0
504,-293,0,0,0,0,0,0,0,0,0,-1,1728,1317,0,0
511,-293,0,0,0,0,0,0,0,0,0,-1,1735,1317,0,0
518,-293,0,0,0,0,0,0,0,0,0,-1,1742,1317,0,0
525,-293,0,0,0,0,0,0,0,0,0,-1,1749,1317,0,0
532,-293,0,0,0,0,0,0,0,0,0,-1,1756,1317,0,0
539,-293,0,0,0,0,0,0,0,0,0,-1,1763,1317,0,0
546,-293,0,0,0,0,0,0,0,0,0,-1,1770,1317,0,0
553,-293,0,0,0,0,0,0,0,0,0,-1,1777,1317,0,0
560,-293,0,0,0,0,0,0,0,0,0,-1,1784,1317,0,0
567,-293,0,0,0,0,0,0,0,0,0,-1,1791,1317,0,0
574,-293,0,0,0,0,0,0,0,0,0,-1,1798,1317,0,0
581,-293,0,0,0,0,0,0,0,0,0,-1,1805,1317,0,0
588,-293,0,0,0,0,0,0,0,0,0,-1,1812,1317,0,0
595,-293,55.1052,2.48181,0,0,0,0,0,0,0,-1,1819,1317,55.1052,-2.4818
602,-293,54.6864,2.13684,0,0,0,0,0,0,0,-1,1826,1317,54.6864,-2.13681
609,-293,54.4138,1.64404,-0.0361705,0.0421254,-0.0568166,0.0719753,-0.0660203,-1.08706,0.0796965,0.0495283,1833,1317,54.4138,-1.64401
616,-293,53.9088,1.15625,0,0,0,0,0,0,0,-1,1840,1317,53.9088,-1.1562
623,-293,53.6134,0.406982,0,0,0,0,0,0,0,-1,1847,1317,53.6134,-0.407001
630,-293,46.6716,3.21558,0,0,0,0,0,0,0,-1,1854,1317,46.6716,-3.2156
637,-293,42.7729,4.95544,0,0,0,0,0,0,0,-1,1861,1317,42.773,-4.95546
644,-293,24.4565,0.520752,0,0,0,0,0,0,0,-1,1868,1317,24.4566,-0.520709
651,-293,25.8926,9.51245,0,0,0,0,0,0,0,-1,1875,1317,25.8926,-9.51246
658,-293,25.4904,9.10205,0,0,0,0,0,0,0,-1,1882,1317,25.4904,-9.10209
665,-293,37.1918,12.2797,0,0,0,0,0,0,0,-1,1889,1317,37.1918,-12.2797
672,-293,37.8004,12.4219,0,0,0,0,0,0,0,-1,1896,1317,37.8004,-12.4218
679,-293,37.7709,11.8579,0.00254059,0.00164733,-0.00259974,0.00473179,-0.000543867,-0.700329,0.00335056,0.0155081,1903,1317,37.7709,-11.8579
686,-293,37.7405,11.3096,0.00203081,0.000798529,-0.00197768,0.00348611,-0.000656765,-0.63439,0.00257111,0.0163083,1910,1317,37.7405,-11.3096
693,-293,37.7216,10.7633,0.00104139,0.00040701,-0.000548356,0.00135769,9.07151e-05,-0.523191,0.000876452,0.0124157,1917,1317,37.7215,-10.7633
700,-293,37.6926,10.2159,0.000595031,-0.000435973,0.000558843,0.000839823,-0.000680765,0.412859,0.000879512,0.0104423,1924,1317,37.6926,-10.2159
707,-293,37.6768,9.70874,-0.000223663,-0.000673301,0.00118586,0.000758499,-0.00165546,0.691718,0.00142541,0.0110136,1931,1317,37.6768,-9.70878
714,-293,37.6486,9.1991,-0.00119194,-0.00102583,0.00193828,0.000831179,-0.00304895,0.806809,0.00235902,0.00823712,1938,1317,37.6486,-9.19914
721,-293,37.65,8.64587,-0.0023356,-0.00152634,0.00284154,0.000939238,-0.00480117,0.856121,0.00355546,0.01024,1945,1317,37.6501,-8.64584
728,-293,37.6366,8.08728,-0.00369559,-0.00216798,0.003897,0.00103936,-0.00690293,0.882171,0.00498466,0.0129159,1952,1317,37.6366,-8.08727
735,-293,37.6073,7.52368,-0.0053194,-0.00301609,0.00512134,0.00108149,-0.00941697,0.895995,0.00666778,0.0251813,1959,1317,37.6073,-7.52363
742,-293,37.6718,6.94678,0,0,0,0,0,0,0,-1,1966,1317,37.6717,-6.94676
749,-293,29.439,5.35339,0,0,0,0,0,0,0,-1,1973,1317,29.4389,-5.35334
756,-293,24.978,3.9718,0,0,0,0,0,0,0,-1,1980,1317,24.978,-3.97186
763,-293,26.6713,4.74097,0,0,0,0,0,0,0,-1,1987,1317,26.6713,-4.74098
770,-293,24.1349,4.69153,0,0,0,0,0,0,0,-1,1994,1317,24.1348,-4.69159
777,-293,0,0,0,0,0,0,0,0,0,-1,2001,1317,0,0
784,-293,0,0,0,0,0,0,0,0,0,-1,2008,1317,0,0
791,-293,0,0,0,0,0,0,0,0,0,-1,2015,1317,0,0
798,-293,0,0,0,0,0,0,0,0,0,-1,2022,1317,0,0
805,-293,0,0,0,0,0,0,0,0,0,-1,2029,1317,0,0
812,-293,0,0,0,0,0,0,0,0,0,-1,2036,1317,0,0
-700,-300,0,0,0,0,0,0,0,0,0,-1,524,1324,0,0
-693,-300,0,0,0,0,0,0,0,0,0,-1,531,1324,0,0
-686,-300,0,0,0,0,0,0,0,0,0,-1,538,1324,0,0
-679,-300,0,0,0,0,0,0,0,0,0,-1,545,1324,0,0
-672,-300,0,0,0,0,0,0,0,0,0,-1,552,1324,0,0
-665,-300,0,0,0,0,0,0,0,0,0,-1,559,1324,0,0
-658,-300,0,0,0,0,0,0,0,0,0,-1,566,1324,0,0
-651,-300,-39.1017,2.25647,0,0,0,0,0,0,0,-1,573,1324,-39.1017,-2.25649
-644,-300,-39.5129,1.53003,0,0,0,0,0,0,0,-1,580,1324,-39.5129,-1.53009
-637,-300,-24.088,-5.12695,0,0,0,0,0,0,0,-1,587,1324,-24.088,5.12694
-630,-300,-21.1108,2.26306,0,0,0,0,0,0,0,-1,594,1324,-21.1109,-2.2631
-623,-300,-12.7067,1.48462,0,0,0,0,0,0,0,-1,601,1324,-12.7067,-1.48462
-616,-300,-14.9988,1.68628,0,0,0,0,0,0,0,-1,608,1324,-14.9988,-1.68627
-609,-300,-15.5027,3.29907,0,0,0,0,0,0,0,-1,615,1324,-15.5027,-3.29902
-602,-300,-22.0839,4.98767,0,0,0,0,0,0,0,-1,622,1324,-22.0839,-4.98769
-595,-300,-22.0642,5.77344,0.00702655,0.00247016,0.00414384,0.00947715,1.95499e-05,0.534061,0.0063116,0.0357476,629,1324,-22.0642,-5.77345
-588,-300,-21.9846,6.43945,0.00510031,0.00184705,0.00286465,0.00676794,0.000179422,0.527185,0.00445336,0.0213642,636,1324,-21.9845,-6.43949
-581,-300,-22.0198,7.04333,0.00387584,0.00128201,0.00201445,0.00497475,0.000183098,0.499393,0.00325719,0.0210481,643,1324,-22.0197,-7.04339
-574,-300,-22.051,7.61938,0.0031021,0.000765172,0.00142392,0.00377561,9.16662e-05,0.441811,0.00248708,0.0164578,650,1324,-22.051,-7.61937
-567,-300,-22.0682,8.19958,0.00271463,0.000277927,0.00105845,0.00311018,-0.000117628,0.357641,0.00211376,0.0175722,657,1324,-22.0682,-8.19961
-560,-300,-22.0918,8.78369,0.00268993,-0.000136431,0.000854998,0.00292844,-0.000374947,0.27205,0.00208853,0.0159162,664,1324,-22.0918,-8.78367
-553,-300,-22.0919,9.36096,0.00307036,-0.000531309,0.000889999,0.00327828,-0.000739231,0.229505,0.0024691,0.0108315,671,1324,-22.0919,-9.36098
-546,-300,-22.1039,9.94702,0.00382915,-0.000854424,0.00109835,0.00407393,-0.0010992,0.219279,0.00314701,0.00967312,678,1324,-22.104,-9.94702
-539,-300,-22.0726,10.5569,0.00518409,-0.0011641,0.00161132,0.00556966,-0.00154968,0.234874,0.00432326,0.0231792,685,1324,-22.0726,-10.5569
-532,-300,-22.0254,11.1196,0,0,0,0,0,0,0,-1,692,1324,-22.0254,-11.1196
-525,-300,-13.5115,6.27783,0,0,0,0,0,0,0,-1,699,1324,-13.5115,-6.2778
-518,-300,-9.8349,-0.537109,0,0,0,0,0,0,0,-1,706,1324,-9.83487,0.537068
-511,-300,-12.8644,0.081665,0,0,0,0,0,0,0,-1,713,1324,-12.8644,-0.0817016
-504,-300,-13.4829,-0.165527,0,0,0,0,0,0,0,-1,720,1324,-13.4829,0.165544
-497,-300,-18.1063,0.956543,0,0,0,0,0,0,0,-1,727,1324,-18.1063,-0.9565
-490,-300,-18.2293,1.53625,0,0,0,0,0,0,0,-1,734,1324,-18.2293,-1.53626
-483,-300,-18.3522,1.61084,0,0,0,0,0,0,0,-1,741,1324,-18.3522,-1.6108
-476,-300,-18.7489,1.96387,0,0,0,0,0,0,0,-1,748,1324,-18.7489,-1.96387
-469,-300,0,0,0,0,0,0,0,0,0,-1,755,1324,0,0
-462,-300,0,0,0,0,0,0,0,0,0,-1,762,1324,0,0
-455,-300,0,0,0,0,0,0,0,0,0,-1,769,1324,0,0
-448,-300,0,0,0,0,0,0,0,0,0,-1,776,1324,0,0
-441,-300,0,0,0,0,0,0,0,0,0,-1,783,1324,0,0
-434,-300,0,0,0,0,0,0,0,0,0,-1,790,1324,0,0
-427,-300,0,0,0,0,0,0,0,0,0,-1,797,1324,0,0
-420,-300,0,0,0,0,0,0,0,0,0,-1,804,1324,0,0
-413,-300,0,0,0,0,0,0,0,0,0,-1,811,1324,0,0
-406,-300,0,0,0,0,0,0,0,0,0,-1,818,1324,0,0
-399,-300,0,0,0,0,0,0,0,0,0,-1,825,1324,0,0
-392,-300,0,0,0,0,0,0,0,0,0,-1,832,1324,0,0
-385,-300,0,0,0,0,0,0,0,0,0,-1,839,1324,0,0
-378,-300,0,0,0,0,0,0,0,0,0,-1,846,1324,0,0
-371,-300,0,0,0,0,0,0,0,0,0,-1,853,1324,0,0
-364,-300,0,0,0,0,0,0,0,0,0,-1,860,1324,0,0
-357,-300,0,0,0,0,0,0,0,0,0,-1,867,1324,0,0
-350,-300,0,0,0,0,0,0,0,0,0,-1,874,1324,0,0
-343,-300,0,0,0,0,0,0,0,0,0,-1,881,1324,0,0
-336,-300,0,0,0,0,0,0,0,0,0,-1,888,1324,0,0
-329,-300,0,0,0,0,0,0,0,0,0,-1,895,1324,0,0
-322,-300,0,0,0,0,0,0,0,0,0,-1,902,1324,0,0
-315,-300,0,0,0,0,0,0,0,0,0,-1,909,1324,0,0
-308,-300,0,0,0,0,0,0,0,0,0,-1,916,1324,0,0
-301,-300,0,0,0,0,0,0,0,0,0,-1,923,1324,0,0
-294,-300,0,0,0,0,0,0,0,0,0,-1,930,1324,0,0
-287,-300,0,0,0,0,0,0,0,0,0,-1,937,1324,0,0
-280,-300,0,0,0,0,0,0,0,0,0,-1,944,1324,0,0
-273,-300,0,0,0,0,0,0,0,0,0,-1,951,1324,0,0
-266,-300,0,0,0,0,0,0,0,0,0,-1,958,1324,0,0
-259,-300,0,0,0,0,0,0,0,0,0,-1,965,1324,0,0
-252,-300,0,0,0,0,0,0,0,0,0,-1,972,1324,0,0
-245,-300,0,0,0,0,0,0,0,0,0,-1,979,1324,0,0
-238,-300,0,0,0,0,0,0,0,0,0,-1,986,1324,0,0
-231,-300,0,0,0,0,0,0,0,0,0,-1,993,1324,0,0
-224,-300,0,0,0,0,0,0,0,0,0,-1,1000,1324,0,0
-217,-300,0,0,0,0,0,0,0,0,0,-1,1007,1324,0,0
-210,-300,0,0,0,0,0,0,0,0,0,-1,1014,1324,0,0
-203,-300,0,0,0,0,0,0,0,0,0,-1,1021,1324,0,0
-196,-300,0,0,0,0,0,0,0,0,0,-1,1028,1324,0,0
-189,-300,0,0,0,0,0,0,0,0,0,-1,1035,1324,0,0
-182,-300,0,0,0,0,0,0,0,0,0,-1,1042,1324,0,0
-175,-300,0,0,0,0,0,0,0,0,0,-1,1049,1324,0,0
-168,-300,0,0,0,0,0,0,0,0,0,-1,1056,1324,0,0
-161,-300,0,0,0,0,0,0,0,0,0,-1,1063,1324,0,0
-154,-300,0,0,0,0,0,0,0,0,0,-1,1070,1324,0,0
-147,-300,0,0,0,0,0,0,0,0,0,-1,1077,1324,0,0
-140,-300,0,0,0,0,0,0,0,0,0,-1,1084,1324,0,0
-133,-300,0,0,0,0,0,0,0,0,0,-1,1091,1324,0,0
-126,-300,0,0,0,0,0,0,0,0,0,-1,1098,1324,0,0
-119,-300,0,0,0,0,0,0,0,0,0,-1,1105,1324,0,0
-112,-300,0,0,0,0,0,0,0,0,0,-1,1112,1324,0,0
-105,-300,0,0,0,0,0,0,0,0,0,-1,1119,1324,0,0
-98,-300,0,0,0,0,0,0,0,0,0,-1,1126,1324,0,0
-91,-300,0,0,0,0,0,0,0,0,0,-1,1133,1324,0,0
-84,-300,0,0,0,0,0,0,0,0,0,-1,1140,1324,0,0
-77,-300,0,0,0,0,0,0,0,0,0,-1,1147,1324,0,0
-70,-300,0,0,0,0,0,0,0,0,0,-1,1154,1324,0,0
-63,-300,0,0,0,0,0,0,0,0,0,-1,1161,1324,0,0
-56,-300,0,0,0,0,0,0,0,0,0,-1,1168,1324,0,0
-49,-300,0,0,0,0,0,0,0,0,0,-1,1175,1324,0,0
-42,-300,0,0,0,0,0,0,0,0,0,-1,1182,1324,0,0
-35,-300,0,0,0,0,0,0,0,0,0,-1,1189,1324,0,0
-28,-300,0,0,0,0,0,0,0,0,0,-1,1196,1324,0,0
-21,-300,0,0,0,0,0,0,0,0,0,-1,1203,1324,0,0
-14,-300,0,0,0,0,0,0,0,0,0,-1,1210,1324,0,0
-7,-300,0,0,0,0,0,0,0,0,0,-1,1217,1324,0,0
0,-300,0,0,0,0,0,0,0,0,0,-1,1224,1324,0,0
7,-300,0,0,0,0,0,0,0,0,0,-1,1231,1324,0,0
14,-300,0,0,0,0,0,0,0,0,0,-1,1238,1324,0,0
21,-300,0,0,0,0,0,0,0,0,0,-1,1245,1324,0,0
28,-300,0,0,0,0,0,0,0,0,0,-1,1252,1324,0,0
35,-300,0,0,0,0,0,0,0,0,0,-1,1259,1324,0,0
42,-300,0,0,0,0,0,0,0,0,0,-1,1266,1324,0,0
49,-300,0,0,0,0,0,0,0,0,0,-1,1273,1324,0,0
56,-300,0,0,0,0,0,0,0,0,0,-1,1280,1324,0,0
63,-300,0,0,0,0,0,0,0,0,0,-1,1287,1324,0,0
70,-300,0,0,0,0,0,0,0,0,0,-1,1294,1324,0,0
77,-300,0,0,0,0,0,0,0,0,0,-1,1301,1324,0,0
84,-300,0,0,0,0,0,0,0,0,0,-1,1308,1324,0,0
91,-300,0,0,0,0,0,0,0,0,0,-1,1315,1324,0,0
98,-300,0,0,0,0,0,0,0,0,0,-1,1322,1324,0,0
105,-300,0,0,0,0,0,0,0,0,0,-1,1329,1324,0,0
112,-300,0,0,0,0,0,0,0,0,0,-1,1336,1324,0,0
119,-300,0,0,0,0,0,0,0,0,0,-1,1343,1324,0,0
126,-300,0,0,0,0,0,0,0,0,0,-1,1350,1324,0,0
133,-300,0,0,0,0,0,0,0,0,0,-1,1357,1324,0,0
140,-300,0,0,0,0,0,0,0,0,0,-1,1364,1324,0,0
147,-300,0,0,0,0,0,0,0,0,0,-1,1371,1324,0,0
154,-300,0,0,0,0,0,0,0,0,0,-1,1378,1324,0,0
161,-300,0,0,0,0,0,0,0,0,0,-1,1385,1324,0,0
168,-300,0,0,0,0,0,0,0,0,0,-1,1392,1324,0,0
175,-300,0,0,0,0,0,0,0,0,0,-1,1399,1324,0,0
182,-300,0,0,0,0,0,0,0,0,0,-1,1406,1324,0,0
189,-300,0,0,0,0,0,0,0,0,0,-1,1413,1324,0,0
196,-300,0,0,0,0,0,0,0,0,0,-1,1420,1324,0,0
203,-300,0,0,0,0,0,0,0,0,0,-1,1427,1324,0,0
210,-300,0,0,0,0,0,0,0,0,0,-1,1434,1324,0,0
217,-300,0,0,0,0,0,0,0,0,0,-1,1441,1324,0,0
224,-300,0,0,0,0,0,0,0,0,0,-1,1448,1324,0,0
231,-300,0,0,0,0,0,0,0,0,0,-1,1455,1324,0,0
238,-300,0,0,0,0,0,0,0,0,0,-1,1462,1324,0,0
245,-300,0,0,0,0,0,0,0,0,0,-1,1469,1324,0,0
252,-300,0,0,0,0,0,0,0,0,0,-1,1476,1324,0,0
259,-300,0,0,0,0,0,0,0,0,0,-1,1483,1324,0,0
266,-300,0,0,0,0,0,0,0,0,0,-1,1490,1324,0,0
273,-300,0,0,0,0,0,0,0,0,0,-1,1497,1324,0,0
280,-300,0,0,0,0,0,0,0,0,0,-1,1504,1324,0,0
287,-300,0,0,0,0,0,0,0,0,0,-1,1511,1324,0,0
294,-300,0,0,0,0,0,0,0,0,0,-1,1518,1324,0,0
301,-300,0,0,0,0,0,0,0,0,0,-1,1525,1324,0,0
308,-300,0,0,0,0,0,0,0,0,0,-1,1532,1324,0,0
315,-300,0,0,0,0,0,0,0,0,0,-1,1539,1324,0,0
322,-300,0,0,0,0,0,0,0,0,0,-1,1546,1324,0,0
329,-300,0,0,0,0,0,0,0,0,0,-1,1553,1324,0,0
336,-300,0,0,0,0,0,0,0,0,0,-1,1560,1324,0,0
343,-300,0,0,0,0,0,0,0,0,0,-1,1567,1324,0,0
350,-300,0,0,0,0,0,0,0,0,0,-1,1574,1324,0,0
357,-300,0,0,0,0,0,0,0,0,0,-1,1581,1324,0,0
364,-300,0,0,0,0,0,0,0,0,0,-1,1588,1324,0,0
371,-300,0,0,0,0,0,0,0,0,0,-1,1595,1324,0,0
378,-300,0,0,0,0,0,0,0,0,0,-1,1602,1324,0,0
385,-300,0,0,0,0,0,0,0,0,0,-1,1609,1324,0,0
392,-300,0,0,0,0,0,0,0,0,0,-1,1616,1324,0,0
399,-300,0,0,0,0,0,0,0,0,0,-1,1623,1324,0,0
406,-300,0,0,0,0,0,0,0,0,0,-1,1630,1324,0,0
413,-300,0,0,0,0,0,0,0,0,0,-1,1637,1324,0,0
420,-300,0,0,0,0,0,0,0,0,0,-1,1644,1324,0,0
427,-300,0,0,0,0,0,0,0,0,0,-1,1651,1324,0,0
434,-300,0,0,0,0,0,0,0,0,0,-1,1658,1324,0,0
441,-300,0,0,0,0,0,0,0,0,0,-1,1665,1324,0,0
448,-300,0,0,0,0,0,0,0,0,0,-1,1672,1324,0,0
455,-300,0,0,0,0,0,0,0,0,0,-1,1679,1324,0,0
462,-300,0,0,0,0,0,0,0,0,0,-1,1686,1324,0,0
469,-300,0,0,0,0,0,0,0,0,0,-1,1693,1324,0,0
476,-300,0,0,0,0,0,0,0,0,0,-1,1700,1324,0,0
483,-300,0,0,0,0,0,0,0,0,0,-1,1707,1324,0,0
490,-300,0,0,0,0,0,0,0,0,0,-1,1714,1324,0,0
497,-300,0,0,0,0,0,0,0,0,0,-1,1721,1324,0,0
504,-300,0,0,0,0,0,0,0,0,0,-1,1728,1324,0,0
511,-300,0,0,0,0,0,0,0,0,0,-1,1735,1324,0,0
518,-300,0,0,0,0,0,0,0,0,0,-1,1742,1324,0,0
525,-300,0,0,0,0,0,0,0,0,0,-1,1749,1324,0,0
532,-300,0,0,0,0,0,0,0,0,0,-1,1756,1324,0,0
539,-300,0,0,0,0,0,0,0,0,0,-1,1763,1324,0,0
546,-300,0,0,0,0,0,0,0,0,0,-1,1770,1324,0,0
553,-300,0,0,0,0,0,0,0,0,0,-1,1777,1324,0,0
560,-300,0,0,0,0,0,0,0,0,0,-1,1784,1324,0,0
567,-300,0,0,0,0,0,0,0,0,0,-1,1791,1324,0,0
574,-300,0,0,0,0,0,0,0,0,0,-1,1798,1324,0,0
581,-300,0,0,0,0,0,0,0,0,0,-1,1805,1324,0,0
588,-300,54.0984,2.25806,0,0,0,0,0,0,0,-1,1812,1324,54.0984,-2.25804
595,-300,54.0885,1.7854,0,0,0,0,0,0,0,-1,1819,1324,54.0885,-1.78538
602,-300,54.7198,2.45483,0,0,0,0,0,0,0,-1,1826,1324,54.7199,-2.45478
609,-300,54.077,1.57483,0,0,0,0,0,0,0,-1,1833,1324,54.077,-1.5748
616,-300,53.4341,0.694824,0,0,0,0,0,0,0,-1,1840,1324,53.434,-0.694815
623,-300,47.4474,2.43188,0,0,0,0,0,0,0,-1,1847,1324,47.4474,-2.43194
630,-300,42.4099,3.9165,0,0,0,0,0,0,0,-1,1854,1324,42.4099,-3.91649
637,-300,31.1719,4.6366,0,0,0,0,0,0,0,-1,1861,1324,31.1718,-4.63665
644,-300,22.9836,3.44934,0,0,0,0,0,0,0,-1,1868,1324,22.9836,-3.4493
651,-300,25.5004,9.11853,0,0,0,0,0,0,0,-1,1875,1324,25.5004,-9.11851
658,-300,25.4012,9.20032,0,0,0,0,0,0,0,-1,1882,1324,25.4012,-9.20036
665,-300,37.3981,13.0863,0,0,0,0,0,0,0,-1,1889,1324,37.3981,-13.0863
672,-300,37.2,12.4875,0.00253671,0.001033,-0.00255012,0.00444351,-0.000873791,-0.642044,0.00329248,0.0269064,1896,1324,37.2,-12.4875
679,-300,37.2148,11.8926,0.00239588,0.000620732,-0.00172016,0.00344395,-0.00042734,-0.547221,0.00245086,0.0132108,1903,1324,37.2149,-11.8925
686,-300,37.1931,11.3418,0.00175592,0.000125866,-0.00113629,0.00233926,-0.000457471,-0.474286,0.00173225,0.0140667,1910,1324,37.1931,-11.3417
693,-300,37.1633,10.797,0.000866858,-4.10188e-05,-6.00191e-05,0.000870809,-4.49694e-05,-0.065728,0.000596095,0.0121151,1917,1324,37.1633,-10.7969
700,-300,37.1556,10.2417,0.000386079,-0.000499262,0.000745156,0.000810135,-0.000923318,0.517377,0.00100152,0.0123694,1924,1324,37.1557,-10.2417
707,-300,37.1458,9.7074,-0.000296907,-0.00073515,0.0013022,0.000804476,-0.00183653,0.702044,0.00156311,0.00899082,1931,1324,37.1457,-9.70739
714,-300,37.1357,9.19861,-0.00115891,-0.00110266,0.00200508,0.000874491,-0.00313606,0.792411,0.00243512,0.0113217,1938,1324,37.1358,-9.19865
721,-300,37.1311,8.64819,-0.00223459,-0.00165716,0.00289495,0.000963438,-0.00485519,0.835099,0.00360116,0.0132224,1945,1324,37.1311,-8.64825
728,-300,37.137,8.06763,-0.00354743,-0.00235634,0.0039329,0.00102585,-0.00692963,0.860541,0.00499693,0.0171623,1952,1324,37.137,-8.06764
735,-300,36.8995,7.77026,-0.00517228,-0.00333208,0.0051671,0.000996199,-0.00950056,0.873509,0.00669054,0.0338888,1959,1324,36.8995,-7.77021
742,-300,36.806,7.30676,0,0,0,0,0,0,0,-1,1966,1324,36.806,-7.30674
749,-300,27.4065,5.9718,0,0,0,0,0,0,0,-1,1973,1324,27.4065,-5.97181
756,-300,22.1423,3.45642,0,0,0,0,0,0,0,-1,1980,1324,22.1423,-3.45638
763,-300,22.6136,5.1571,0,0,0,0,0,0,0,-1,1987,1324,22.6136,-5.15706
770,-300,24.859,4.77979,0,0,0,0,0,0,0,-1,1994,1324,24.859,-4.77972
777,-300,0,0,0,0,0,0,0,0,0,-1,2001,1324,0,0
784,-300,0,0,0,0,0,0,0,0,0,-1,2008,1324,0,0
791,-300,0,0,0,0,0,0,0,0,0,-1,2015,1324,0,0
798,-300,0,0,0,0,0,0,0,0,0,-1,2022,1324,0,0
805,-300,0,0,0,0,0,0,0,0,0,-1,2029,1324,0,0
812,-300,0,0,0,0,0,0,0,0,0,-1,2036,1324,0,0
-700,-307,0,0,0,0,0,0,0,0,0,-1,524,1331,0,0
-693,-307,0,0,0,0,0,0,0,0,0,-1,531,1331,0,0
-686,-307,0,0,0,0,0,0,0,0,0,-1,538,1331,0,0
-679,-307,0,0,0,0,0,0,0,0,0,-1,545,1331,0,0
-672,-307,0,0,0,0,0,0,0,0,0,-1,552,1331,0,0
-665,-307,0,0,0,0,0,0,0,0,0,-1,559,1331,0,0
-658,-307,0,0,0,0,0,0,0,0,0,-1,566,1331,0,0
-651,-307,-39.5316,2.82068,0,0,0,0,0,0,0,-1,573,1331,-39.5316,-2.82062
-644,-307,-39.322,2.05688,0,0,0,0,0,0,0,-1,580,1331,-39.3219,-2.05683
-637,-307,-21.0822,1.21277,0,0,0,0,0,0,0,-1,587,1331,-21.0821,-1.21273
-630,-307,-12.0005,0.767212,0,0,0,0,0,0,0,-1,594,1331,-12.0005,-0.767266
-623,-307,-12.2128,2.93811,0,0,0,0,0,0,0,-1,601,1331,-12.2128,-2.93813
-616,-307,-12.6612,2.08289,0,0,0,0,0,0,0,-1,608,1331,-12.6612,-2.08293
-609,-307,-12.2767,1.83228,0,0,0,0,0,0,0,-1,615,1331,-12.2768,-1.83224
-602,-307,-21.4828,5.0603,0,0,0,0,0,0,0,-1,622,1331,-21.4828,-5.06026
-595,-307,-21.5377,5.80798,0.00772361,0.00249082,0.0047746,0.0105517,-0.000337262,0.534752,0.00714954,0.0476312,629,1331,-21.5376,-5.80792
-588,-307,-21.4209,6.49622,0.00549648,0.00195533,0.00324215,0.00742002,3.17902e-05,0.535471,0.00493612,0.0218696,636,1331,-21.4209,-6.49625
-581,-307,-21.4197,7.08142,0.00409816,0.00145027,0.00225524,0.00538934,0.00015908,0.519976,0.00354106,0.0165439,643,1331,-21.4197,-7.08147
-574,-307,-21.4489,7.63477,0.00318408,0.000974918,0.00156813,0.00399761,0.000161392,0.478564,0.00261294,0.0130416,650,1331,-21.4489,-7.63473
-567,-307,-21.4744,8.21375,0.00268779,0.000539551,0.00112288,0.00316756,5.97779e-05,0.403793,0.00209207,0.0140541,657,1331,-21.4743,-8.21375
-560,-307,-21.472,8.80359,0.00253931,0.000150604,0.000856868,0.00281489,-0.000124976,0.311165,0.00191961,0.0147283,664,1331,-21.472,-8.80357
-553,-307,-21.4949,9.37427,0.00275524,-0.000230695,0.000806201,0.00295901,-0.000434463,0.247566,0.0021323,0.0115268,671,1331,-21.4949,-9.3743
-546,-307,-21.5309,9.96057,0.00336778,-0.000540731,0.000956439,0.00358927,-0.000762226,0.227571,0.00268326,0.010879,678,1331,-21.5309,-9.96052
-539,-307,-21.5409,10.5797,0.00450927,-0.000817011,0.00136713,0.00483968,-0.00114742,0.237136,0.00366923,0.016443,685,1331,-21.5409,-10.5797
-532,-307,-21.5396,11.1831,0,0,0,0,0,0,0,-1,692,1331,-21.5396,-11.1831
-525,-307,-13.2009,6.91309,0,0,0,0,0,0,0,-1,699,1331,-13.2009,-6.9131
-518,-307,-9.77777,-1.56653,0,0,0,0,0,0,0,-1,706,1331,-9.77777,1.56651
-511,-307,-12.5226,0.26709,0,0,0,0,0,0,0,-1,713,1331,-12.5226,-0.267038
-504,-307,-12.5913,-0.308105,0,0,0,0,0,0,0,-1,720,1331,-12.5913,0.308124
-497,-307,-13.8586,-0.115845,0,0,0,0,0,0,0,-1,727,1331,-13.8587,0.115861
-490,-307,-17.9429,0.982178,0,0,0,0,0,0,0,-1,734,1331,-17.9429,-0.982198
-483,-307,-18.1066,0.927612,0,0,0,0,0,0,0,-1,741,1331,-18.1066,-0.927609
-476,-307,-18.1288,1.1228,0,0,0,0,0,0,0,-1,748,1331,-18.1289,-1.12286
-469,-307,-18.2028,0.798584,0,0,0,0,0,0,0,-1,755,1331,-18.2027,-0.798546
-462,-307,0,0,0,0,0,0,0,0,0,-1,762,1331,0,0
-455,-307,0,0,0,0,0,0,0,0,0,-1,769,1331,0,0
-448,-307,0,0,0,0,0,0,0,0,0,-1,776,1331,0,0
-441,-307,0,0,0,0,0,0,0,0,0,-1,783,1331,0,0
-434,-307,0,0,0,0,0,0,0,0,0,-1,790,1331,0,0
-427,-307,0,0,0,0,0,0,0,0,0,-1,797,1331,0,0
-420,-307,0,0,0,0,0,0,0,0,0,-1,804,1331,0,0
-413,-307,0,0,0,0,0,0,0,0,0,-1,811,1331,0,0
-406,-307,0,0,0,0,0,0,0,0,0,-1,818,1331,0,0
-399,-307,0,0,0,0,0,0,0,0,0,-1,825,1331,0,0
-392,-307,0,0,0,0,0,0,0,0,0,-1,832,1331,0,0
-385,-307,0,0,0,0,0,0,0,0,0,-1,839,1331,0,0
-378,-307,0,0,0,0,0,0,0,0,0,-1,846,1331,0,0
-371,-307,0,0,0,0,0,0,0,0,0,-1,853,1331,0,0
-364,-307,0,0,0,0,0,0,0,0,0,-1,860,1331,0,0
-357,-307,0,0,0,0,0,0,0,0,0,-1,867,1331,0,0
-350,-307,0,0,0,0,0,0,0,0,0,-1,874,1331,0,0
-343,-307,0,0,0,0,0,0,0,0,0,-1,881,1331,0,0
-336,-307,0,0,0,0,0,0,0,0,0,-1,888,1331,0,0
-329,-307,0,0,0,0,0,0,0,0,0,-1,895,1331,0,0
-322,-307,0,0,0,0,0,0,0,0,0,-1,902,1331,0,0
-315,-307,0,0,0,0,0,0,0,0,0,-1,909,1331,0,0
-308,-307,0,0,0,0,0,0,0,0,0,-1,916,1331,0,0
-301,-307,0,0,0,0,0,0,0,0,0,-1,923,1331,0,0
-294,-307,0,0,0,0,0,0,0,0,0,-1,930,1331,0,0
-287,-307,0,0,0,0,0,0,0,0,0,-1,937,1331,0,0
-280,-307,0,0,0,0,0,0,0,0,0,-1,944,1331,0,0
-273,-307,0,0,0,0,0,0,0,0,0,-1,951,1331,0,0
-266,-307,0,0,0,0,0,0,0,0,0,-1,958,1331,0,0
-259,-307,0,0,0,0,0,0,0,0,0,-1,965,1331,0,0
-252,-307,0,0,0,0,0,0,0,0,0,-1,972,1331,0,0
-245,-307,0,0,0,0,0,0,0,0,0,-1,979,1331,0,0
-238,-307,0,0,0,0,0,0,0,0,0,-1,986,1331,0,0
-231,-307,0,0,0,0,0,0,0,0,0,-1,993,1331,0,0
-224,-307,0,0,0,0,0,0,0,0,0,-1,1000,1331,0,0
-217,-307,0,0,0,0,0,0,0,0,0,-1,1007,1331,0,0
-210,-307,0,0,0,0,0,0,0,0,0,-1,1014,1331,0,0
-203,-307,0,0,0,0,0,0,0,0,0,-1,1021,1331,0,0
-196,-307,0,0,0,0,0,0,0,0,0,-1,1028,1331,0,0
-189,-307,0,0,0,0,0,0,0,0,0,-1,1035,1331,0,0
-182,-307,0,0,0,0,0,0,0,0,0,-1,1042,1331,0,0
-175,-307,0,0,0,0,0,0,0,0,0,-1,1049,1331,0,0
-168,-307,0,0,0,0,0,0,0,0,0,-1,1056,1331,0,0
-161,-307,0,0,0,0,0,0,0,0,0,-1,1063,1331,0,0
-154,-307,0,0,0,0,0,0,0,0,0,-1,1070,1331,0,0
-147,-307,0,0,0,0,0,0,0,0,0,-1,1077,1331,0,0
-140,-307,0,0,0,0,0,0,0,0,0,-1,1084,1331,0,0
-133,-307,0,0,0,0,0,0,0,0,0,-1,1091,1331,0,0
-126,-307,0,0,0,0,0,0,0,0,0,-1,1098,1331,0,0
-119,-307,0,0,0,0,0,0,0,0,0,-1,1105,1331,0,0
-112,-307,0,0,0,0,0,0,0,0,0,-1,1112,1331,0,0
-105,-307,0,0,0,0,0,0,0,0,0,-1,1119,1331,0,0
-98,-307,0,0,0,0,0,0,0,0,0,-1,1126,1331,0,0
-91,-307,0,0,0,0,0,0,0,0,0,-1,1133,1331,0,0
-84,-307,0,0,0,0,0,0,0,0,0,-1,1140,1331,0,0
-77,-307,0,0,0,0,0,0,0,0,0,-1,1147,1331,0,0
-70,-307,0,0,0,0,0,0,0,0,0,-1,1154,1331,0,0
-63,-307,0,0,0,0,0,0,0,0,0,-1,1161,1331,0,0
-56,-307,0,0,0,0,0,0,0,0,0,-1,1168,1331,0,0
-49,-307,0,0,0,0,0,0,0,0,0,-1,1175,1331,0,0
-42,-307,0,0,0,0,0,0,0,0,0,-1,1182,1331,0,0
-35,-307,0,0,0,0,0,0,0,0,0,-1,1189,1331,0,0
-28,-307,0,0,0,0,0,0,0,0,0,-1,1196,1331,0,0
-21,-307,0,0,0,0,0,0,0,0,0,-1,1203,1331,0,0
-14,-307,0,0,0,0,0,0,0,0,0,-1,1210,1331,0,0
-7,-307,0,0,0,0,0,0,0,0,0,-1,1217,1331,0,0
0,-307,0,0,0,0,0,0,0,0,0,-1,1224,1331,0,0
7,-307,0,0,0,0,0,0,0,0,0,-1,1231,1331,0,0
14,-307,0,0,0,0,0,0,0,0,0,-1,1238,1331,0,0
21,-307,0,0,0,0,0,0,0,0,0,-1,1245,1331,0,0
28,-307,0,0,0,0,0,0,0,0,0,-1,1252,1331,0,0
35,-307,0,0,0,0,0,0,0,0,0,-1,1259,1331,0,0
42,-307,0,0,0,0,0,0,0,0,0,-1,1266,1331,0,0
49,-307,0,0,0,0,0,0,0,0,0,-1,1273,1331,0,0
56,-307,0,0,0,0,0,0,0,0,0,-1,1280,1331,0,0
63,-307,0,0,0,0,0,0,0,0,0,-1,1287,1331,0,0
70,-307,0,0,0,0,0,0,0,0,0,-1,1294,1331,0,0
77,-307,0,0,0,0,0,0,0,0,0,-1,1301,1331,0,0
84,-307,0,0,0,0,0,0,0,0,0,-1,1308,1331,0,0
91,-307,0,0,0,0,0,0,0,0,0,-1,1315,1331,0,0
98,-307,0,0,0,0,0,0,0,0,0,-1,1322,1331,0,0
105,-307,0,0,0,0,0,0,0,0,0,-1,1329,1331,0,0
112,-307,0,0,0,0,0,0,0,0,0,-1,1336,1331,0,0
119,-307,0,0,0,0,0,0,0,0,0,-1,1343,1331,0,0
126,-307,0,0,0,0,0,0,0,0,0,-1,1350,1331,0,0
133,-307,0,0,0,0,0,0,0,0,0,-1,1357,1331,0,0
140,-307,0,0,0,0,0,0,0,0,0,-1,1364,1331,0,0
147,-307,0,0,0,0,0,0,0,0,0,-1,1371,1331,0,0
154,-307,0,0,0,0,0,0,0,0,0,-1,1378,1331,0,0
161,-307,0,0,0,0,0,0,0,0,0,-1,1385,1331,0,0
168,-307,0,0,0,0,0,0,0,0,0,-1,1392,1331,0,0
175,-307,0,0,0,0,0,0,0,0,0,-1,1399,1331,0,0
182,-307,0,0,0,0,0,0,0,0,0,-1,1406,1331,0,0
189,-307,0,0,0,0,0,0,0,0,0,-1,1413,1331,0,0
196,-307,0,0,0,0,0,0,0,0,0,-1,1420,1331,0,0
203,-307,0,0,0,0,0,0,0,0,0,-1,1427,1331,0,0
210,-307,0,0,0,0,0,0,0,0,0,-1,1434,1331,0,0
217,-307,0,0,0,0,0,0,0,0,0,-1,1441,1331,0,0
224,-307,0,0,0,0,0,0,0,0,0,-1,1448,1331,0,0
231,-307,0,0,0,0,0,0,0,0,0,-1,1455,1331,0,0
238,-307,0,0,0,0,0,0,0,0,0,-1,1462,1331,0,0
245,-307,0,0,0,0,0,0,0,0,0,-1,1469,1331,0,0
252,-307,0,0,0,0,0,0,0,0,0,-1,1476,1331,0,0
259,-307,0,0,0,0,0,0,0,0,0,-1,1483,1331,0,0
266,-307,0,0,0,0,0,0,0,0,0,-1,1490,1331,0,0
273,-307,0,0,0,0,0,0,0,0,0,-1,1497,1331,0,0
280,-307,0,0,0,0,0,0,0,0,0,-1,1504,1331,0,0
287,-307,0,0,0,0,0,0,0,0,0,-1,1511,1331,0,0
294,-307,0,0,0,0,0,0,0,0,0,-1,1518,1331,0,0
301,-307,0,0,0,0,0,0,0,0,0,-1,1525,1331,0,0
308,-307,0,0,0,0,0,0,0,0,0,-1,1532,1331,0,0
315,-307,0,0,0,0,0,0,0,0,0,-1,1539,1331,0,0
322,-307,0,0,0,0,0,0,0,0,0,-1,1546,1331,0,0
329,-307,0,0,0,0,0,0,0,0,0,-1,1553,1331,0,0
336,-307,0,0,0,0,0,0,0,0,0,-1,1560,1331,0,0
343,-307,0,0,0,0,0,0,0,0,0,-1,1567,1331,0,0
350,-307,0,0,0,0,0,0,0,0,0,-1,1574,1331,0,0
357,-307,0,0,0,0,0,0,0,0,0,-1,1581,1331,0,0
364,-307,0,0,0,0,0,0,0,0,0,-1,1588,1331,0,0
371,-307,0,0,0,0,0,0,0,0,0,-1,1595,1331,0,0
378,-307,0,0,0,0,0,0,0,0,0,-1,1602,1331,0,0
385,-307,0,0,0,0,0,0,0,0,0,-1,1609,1331,0,0
392,-307,0,0,0,0,0,0,0,0,0,-1,1616,1331,0,0
399,-307,0,0,0,0,0,0,0,0,0,-1,1623,1331,0,0
406,-307,0,0,0,0,0,0,0,0,0,-1,1630,1331,0,0
413,-307,0,0,0,0,0,0,0,0,0,-1,1637,1331,0,0
420,-307,0,0,0,0,0,0,0,0,0,-1,1644,1331,0,0
427,-307,0,0,0,0,0,0,0,0,0,-1,1651,1331,0,0
434,-307,0,0,0,0,0,0,0,0,0,-1,1658,1331,0,0
441,-307,0,0,0,0,0,0,0,0,0,-1,1665,1331,0,0
448,-307,0,0,0,0,0,0,0,0,0,-1,1672,1331,0,0
455,-307,0,0,0,0,0,0,0,0,0,-1,1679,1331,0,0
462,-307,0,0,0,0,0,0,0,0,0,-1,1686,1331,0,0
469,-307,0,0,0,0,0,0,0,0,0,-1,1693,1331,0,0
476,-307,0,0,0,0,0,0,0,0,0,-1,1700,1331,0,0
483,-307,0,0,0,0,0,0,0,0,0,-1,1707,1331,0,0
490,-307,0,0,0,0,0,0,0,0,0,-1,1714,1331,0,0
497,-307,0,0,0,0,0,0,0,0,0,-1,1721,1331,0,0
504,-307,0,0,0,0,0,0,0,0,0,-1,1728,1331,0,0
511,-307,0,0,0,0,0,0,0,0,0,-1,1735,1331,0,0
518,-307,0,0,0,0,0,0,0,0,0,-1,1742,1331,0,0
525,-307,0,0,0,0,0,0,0,0,0,-1,1749,1331,0,0
532,-307,0,0,0,0,0,0,0,0,0,-1,1756,1331,0,0
539,-307,0,0,0,0,0,0,0,0,0,-1,1763,1331,0,0
546,-307,0,0,0,0,0,0,0,0,0,-1,1770,1331,0,0
553,-307,0,0,0,0,0,0,0,0,0,-1,1777,1331,0,0
560,-307,0,0,0,0,0,0,0,0,0,-1,1784,1331,0,0
567,-307,0,0,0,0,0,0,0,0,0,-1,1791,1331,0,0
574,-307,0,0,0,0,0,0,0,0,0,-1,1798,1331,0,0
581,-307,0,0,0,0,0,0,0,0,0,-1,1805,1331,0,0
588,-307,54.2791,1.93567,0,0,0,0,0,0,0,-1,1812,1331,54.279,-1.93565
595,-307,55.3657,4.45007,0,0,0,0,0,0,0,-1,1819,1331,55.3657,-4.45004
602,-307,54.7405,2.89111,-0.0593783,0.0660361,-0.10106,0.122263,-0.115606,-1.06307,0.137352,0.0437841,1826,1331,54.7405,-2.89108
609,-307,54.0002,1.32251,0,0,0,0,0,0,0,-1,1833,1331,54.0003,-1.32251
616,-307,53.2878,0.135498,0,0,0,0,0,0,0,-1,1840,1331,53.2878,-0.135477
623,-307,44.3966,2.84888,0,0,0,0,0,0,0,-1,1847,1331,44.3966,-2.84884
630,-307,29.8116,1.51184,0,0,0,0,0,0,0,-1,1854,1331,29.8116,-1.51188
637,-307,24.6407,4.09106,0,0,0,0,0,0,0,-1,1861,1331,24.6407,-4.09103
644,-307,22.6885,5.80408,0,0,0,0,0,0,0,-1,1868,1331,22.6884,-5.80408
651,-307,17.5013,5.80078,0,0,0,0,0,0,0,-1,1875,1331,17.5014,-5.80072
658,-307,37.1295,13.5767,0,0,0,0,0,0,0,-1,1882,1331,37.1295,-13.5766
665,-307,36.7891,12.9442,0.00258397,0.000874058,-0.00127082,0.00326066,0.000197371,-0.489293,0.00211106,0.0492791,1889,1331,36.7891,-12.9442
672,-307,36.6849,12.4481,0.00241958,-0.000351094,-0.00102645,0.00275841,-0.000689924,-0.318838,0.00210691,0.0169059,1896,1331,36.685,-12.4482
679,-307,36.6624,11.9114,0.0020941,-0.00030601,-0.00058955,0.0022311,-0.000443004,-0.228319,0.00165495,0.0111279,1903,1331,36.6623,-11.9114
686,-307,36.6349,11.3735,0.00146952,-0.000400753,-0.000320605,0.00152295,-0.000454185,-0.165143,0.0011958,0.0112488,1910,1331,36.6348,-11.3735
693,-307,36.6273,10.8309,0.000746265,-0.000357375,0.00029044,0.000818032,-0.000429142,0.242245,0.000731632,0.0134004,1917,1331,36.6273,-10.831
700,-307,36.6379,10.2588,0.000294516,-0.00055934,0.00080995,0.000783168,-0.00104799,0.542851,0.0010609,0.0141531,1924,1331,36.638,-10.2588
707,-307,36.618,9.68152,-0.000308368,-0.000796166,0.00133657,0.000806373,-0.00191091,0.69515,0.00161145,0.0149008,1931,1331,36.6181,-9.68151
714,-307,36.5946,9.19275,-0.0011033,-0.00118025,0.00203034,0.000888921,-0.00317248,0.775924,0.0024653,0.0137466,1938,1331,36.5946,-9.19274
721,-307,36.6244,8.67114,-0.00214909,-0.00181061,0.00297478,0.000999746,-0.00495944,0.813813,0.00368503,0.0178711,1945,1331,36.6244,-8.67118
728,-307,36.5693,8.32397,-0.00345752,-0.00260679,0.00408934,0.00107925,-0.00714356,0.837221,0.00515989,0.0484872,1952,1331,36.5693,-8.32399
735,-307,36.6144,7.66467,0,0,0,0,0,0,0,-1,1959,1331,36.6144,-7.66466
742,-307,26.677,6.09192,0,0,0,0,0,0,0,-1,1966,1331,26.677,-6.0919
749,-307,26.7727,5.9032,0,0,0,0,0,0,0,-1,1973,1331,26.7727,-5.90323
756,-307,27.1556,5.74756,0,0,0,0,0,0,0,-1,1980,1331,27.1557,-5.7475
763,-307,18.7522,3.55298,0,0,0,0,0,0,0,-1,1987,1331,18.7522,-3.55301
770,-307,0,0,0,0,0,0,0,0,0,-1,1994,1331,0,0
777,-307,0,0,0,0,0,0,0,0,0,-1,2001,1331,0,0
784,-307,0,0,0,0,0,0,0,0,0,-1,2008,1331,0,0
791,-307,0,0,0,0,0,0,0,0,0,-1,2015,1331,0,0
798,-307,0,0,0,0,0,0,0,0,0,-1,2022,1331,0,0
805,-307,0,0,0,0,0,0,0,0,0,-1,2029,1331,0,0
812,-307,0,0,0,0,0,0,0,0,0,-1,2036,1331,0,0
-700,-314,0,0,0,0,0,0,0,0,0,-1,524,1338,0,0
-693,-314,0,0,0,0,0,0,0,0,0,-1,531,1338,0,0
-686,-314,0,0,0,0,0,0,0,0,0,-1,538,1338,0,0
-679,-314,0,0,0,0,0,0,0,0,0,-1,545,1338,0,0
-672,-314,0,0,0,0,0,0,0,0,0,-1,552,1338,0,0
-665,-314,0,0,0,0,0,0,0,0,0,-1,559,1338,0,0
-658,-314,0,0,0,0,0,0,0,0,0,-1,566,1338,0,0
-651,-314,0,0,0,0,0,0,0,0,0,-1,573,1338,0,0
-644,-314,-20.9896,-0.0299072,0,0,0,0,0,0,0,-1,580,1338,-20.9896,0.0299587
-637,-314,-18.8677,6.62646,0,0,0,0,0,0,0,-1,587,1338,-18.8677,-6.62651
-630,-314,-13.2771,2.98938,0,0,0,0,0,0,0,-1,594,1338,-13.2771,-2.98943
-623,-314,-13.3542,3.00903,0,0,0,0,0,0,0,-1,601,1338,-13.3542,-3.00907
-616,-314,-9.93311,1.15088,0,0,0,0,0,0,0,-1,608,1338,-9.93308,-1.15093
-609,-314,-9.4361,2.86292,0,0,0,0,0,0,0,-1,615,1338,-9.43612,-2.86286
-602,-314,-11.8027,2.42798,0,0,0,0,0,0,0,-1,622,1338,-11.8027,-2.42802
-595,-314,-20.9589,5.49609,0,0,0,0,0,0,0,-1,629,1338,-20.9588,-5.49606
-588,-314,-20.8751,6.40356,0.0058491,0.00208375,0.00339795,0.00785108,8.17704e-05,0.53242,0.00520701,0.0338471,636,1338,-20.8751,-6.4035
-581,-314,-20.8053,7.05591,0.00429226,0.00159308,0.00234435,0.00564773,0.000237609,0.524227,0.0036885,0.0132743,643,1338,-20.8053,-7.05587
-574,-314,-20.8687,7.6051,0.00326983,0.0011253,0.00162147,0.0041415,0.000253619,0.493262,0.00268047,0.0124831,650,1338,-20.8686,-7.60514
-567,-314,-20.8585,8.21765,0.00270166,0.000701782,0.00115691,0.00323088,0.000172561,0.429025,0.00209876,0.0149025,657,1338,-20.8585,-8.21763
-560,-314,-20.8454,8.83643,0.00250238,0.000348988,0.000884784,0.00281928,3.20852e-05,0.343934,0.00186892,0.0150592,664,1338,-20.8454,-8.8364
-553,-314,-20.9088,9.4032,0.0026362,-1.18371e-05,0.000806206,0.00286234,-0.000237977,0.273472,0.0019923,0.0179351,671,1338,-20.9088,-9.40317
-546,-314,-20.961,9.99268,0.00316988,-0.000292056,0.000941274,0.00340925,-0.00053143,0.24903,0.00246911,0.0188337,678,1338,-20.961,-9.99266
-539,-314,-20.9753,10.6057,0.00416944,-0.000510304,0.00130336,0.00450796,-0.000848819,0.25411,0.00332456,0.0178506,685,1338,-20.9753,-10.6057
-532,-314,-20.9388,11.1885,0,0,0,0,0,0,0,-1,692,1338,-20.9388,-11.1884
-525,-314,-13.3017,7.50671,0,0,0,0,0,0,0,-1,699,1338,-13.3017,-7.50669
-518,-314,-8.52753,4.70032,0,0,0,0,0,0,0,-1,706,1338,-8.52755,-4.70034
-511,-314,-11.8597,0.384888,0,0,0,0,0,0,0,-1,713,1338,-11.8597,-0.384927
-504,-314,-11.4322,-0.187378,0,0,0,0,0,0,0,-1,720,1338,-11.4322,0.187381
-497,-314,-11.0047,-0.759644,0,0,0,0,0,0,0,-1,727,1338,-11.0047,0.759689
-490,-314,-18.5143,0.471069,0,0,0,0,0,0,0,-1,734,1338,-18.5143,-0.47103
-483,-314,-17.8528,0.577271,0,0,0,0,0,0,0,-1,741,1338,-17.8528,-0.577327
-476,-314,-17.714,0.665405,0,0,0,0,0,0,0,-1,748,1338,-17.714,-0.665388
-469,-314,-17.7246,0.794678,0,0,0,0,0,0,0,-1,755,1338,-17.7246,-0.794645
-462,-314,0,0,0,0,0,0,0,0,0,-1,762,1338,0,0
-455,-314,0,0,0,0,0,0,0,0,0,-1,769,1338,0,0
-448,-314,0,0,0,0,0,0,0,0,0,-1,776,1338,0,0
-441,-314,0,0,0,0,0,0,0,0,0,-1,783,1338,0,0
-434,-314,0,0,0,0,0,0,0,0,0,-1,790,1338,0,0
-427,-314,0,0,0,0,0,0,0,0,0,-1,797,1338,0,0
-420,-314,0,0,0,0,0,0,0,0,0,-1,804,1338,0,0
-413,-314,0,0,0,0,0,0,0,0,0,-1,811,1338,0,0
-406,-314,0,0,0,0,0,0,0,0,0,-1,818,1338,0,0
-399,-314,0,0,0,0,0,0,0,0,0,-1,825,1338,0,0
-392,-314,0,0,0,0,0,0,0,0,0,-1,832,1338,0,0
-385,-314,0,0,0,0,0,0,0,0,0,-1,839,1338,0,0
-378,-314,0,0,0,0,0,0,0,0,0,-1,846,1338,0,0
-371,-314,0,0,0,0,0,0,0,0,0,-1,853,1338,0,0
-364,-314,0,0,0,0,0,0,0,0,0,-1,860,1338,0,0
-357,-314,0,0,0,0,0,0,0,0,0,-1,867,1338,0,0
-350,-314,0,0,0,0,0,0,0,0,0,-1,874,1338,0,0
-343,-314,0,0,0,0,0,0,0,0,0,-1,881,1338,0,0
-336,-314,0,0,0,0,0,0,0,0,0,-1,888,1338,0,0
-329,-314,0,0,0,0,0,0,0,0,0,-1,895,1338,0,0
-322,-314,0,0,0,0,0,0,0,0,0,-1,902,1338,0,0
-315,-314,0,0,0,0,0,0,0,0,0,-1,909,1338,0,0
-308,-314,0,0,0,0,0,0,0,0,0,-1,916,1338,0,0
-301,-314,0,0,0,0,0,0,0,0,0,-1,923,1338,0,0
-294,-314,0,0,0,0,0,0,0,0,0,-1,930,1338,0,0
-287,-314,0,0,0,0,0,0,0,0,0,-1,937,1338,0,0
-280,-314,0,0,0,0,0,0,0,0,0,-1,944,1338,0,0
-273,-314,0,0,0,0,0,0,0,0,0,-1,951,1338,0,0
-266,-314,0,0,0,0,0,0,0,0,0,-1,958,1338,0,0
-259,-314,0,0,0,0,0,0,0,0,0,-1,965,1338,0,0
-252,-314,0,0,0,0,0,0,0,0,0,-1,972,1338,0,0
-245,-314,0,0,0,0,0,0,0,0,0,-1,979,1338,0,0
-238,-314,0,0,0,0,0,0,0,0,0,-1,986,1338,0,0
-231,-314,0,0,0,0,0,0,0,0,0,-1,993,1338,0,0
-224,-314,0,0,0,0,0,0,0,0,0,-1,1000,1338,0,0
-217,-314,0,0,0,0,0,0,0,0,0,-1,1007,1338,0,0
-210,-314,0,0,0,0,0,0,0,0,0,-1,1014,1338,0,0
-203,-314,0,0,0,0,0,0,0,0,0,-1,1021,1338,0,0
-196,-314,0,0,0,0,0,0,0,0,0,-1,1028,1338,0,0
-189,-314,0,0,0,0,0,0,0,0,0,-1,1035,1338,0,0
-182,-314,0,0,0,0,0,0,0,0,0,-1,1042,1338,0,0
-175,-314,0,0,0,0,0,0,0,0,0,-1,1049,1338,0,0
-168,-314,0,0,0,0,0,0,0,0,0,-1,1056,1338,0,0
-161,-314,0,0,0,0,0,0,0,0,0,-1,1063,1338,0,0
-154,-314,0,0,0,0,0,0,0,0,0,-1,1070,1338,0,0
-147,-314,0,0,0,0,0,0,0,0,0,-1,1077,1338,0,0
-140,-314,0,0,0,0,0,0,0,0,0,-1,1084,1338,0,0
-133,-314,0,0,0,0,0,0,0,0,0,-1,1091,1338,0,0
-126,-314,0,0,0,0,0,0,0,0,0,-1,1098,1338,0,0
-119,-314,0,0,0,0,0,0,0,0,0,-1,1105,1338,0,0
-112,-314,0,0,0,0,0,0,0,0,0,-1,1112,1338,0,0
-105,-314,0,0,0,0,0,0,0,0,0,-1,1119,1338,0,0
-98,-314,0,0,0,0,0,0,0,0,0,-1,1126,1338,0,0
-91,-314,0,0,0,0,0,0,0,0,0,-1,1133,1338,0,0
-84,-314,0,0,0,0,0,0,0,0,0,-1,1140,1338,0,0
-77,-314,0,0,0,0,0,0,0,0,0,-1,1147,1338,0,0
-70,-314,0,0,0,0,0,0,0,0,0,-1,1154,1338,0,0
-63,-314,0,0,0,0,0,0,0,0,0,-1,1161,1338,0,0
-56,-314,0,0,0,0,0,0,0,0,0,-1,1168,1338,0,0
-49,-314,0,0,0,0,0,0,0,0,0,-1,1175,1338,0,0
-42,-314,0,0,0,0,0,0,0,0,0,-1,1182,1338,0,0
-35,-314,0,0,0,0,0,0,0,0,0,-1,1189,1338,0,0
-28,-314,0,0,0,0,0,0,0,0,0,-1,1196,1338,0,0
-21,-314,0,0,0,0,0,0,0,0,0,-1,1203,1338,0,0
-14,-314,0,0,0,0,0,0,0,0,0,-1,1210,1338,0,0
-7,-314,0,0,0,0,0,0,0,0,0,-1,1217,1338,0,0
0,-314,0,0,0,0,0,0,0,0,0,-1,1224,1338,0,0
7,-314,0,0,0,0,0,0,0,0,0,-1,1231,1338,0,0
14,-314,0,0,0,0,0,0,0,0,0,-1,1238,1338,0,0
21,-314,0,0,0,0,0,0,0,0,0,-1,1245,1338,0,0
28,-314,0,0,0,0,0,0,0,0,0,-1,1252,1338,0,0
35,-314,0,0,0,0,0,0,0,0,0,-1,1259,1338,0,0
42,-314,0,0,0,0,0,0,0,0,0,-1,1266,1338,0,0
49,-314,0,0,0,0,0,0,0,0,0,-1,1273,1338,0,0
56,-314,0,0,0,0,0,0,0,0,0,-1,1280,1338,0,0
63,-314,0,0,0,0,0,0,0,0,0,-1,1287,1338,0,0
70,-314,0,0,0,0,0,0,0,0,0,-1,1294,1338,0,0
77,-314,0,0,0,0,0,0,0,0,0,-1,1301,1338,0,0
84,-314,0,0,0,0,0,0,0,0,0,-1,1308,1338,0,0
91,-314,0,0,0,0,0,0,0,0,0,-1,1315,1338,0,0
98,-314,0,0,0,0,0,0,0,0,0,-1,1322,1338,0,0
105,-314,0,0,0,0,0,0,0,0,0,-1,1329,1338,0,0
112,-314,0,0,0,0,0,0,0,0,0,-1,1336,1338,0,0
119,-314,0,0,0,0,0,0,0,0,0,-1,1343,1338,0,0
126,-314,0,0,0,0,0,0,0,0,0,-1,1350,1338,0,0
133,-314,0,0,0,0,0,0,0,0,0,-1,1357,1338,0,0
140,-314,0,0,0,0,0,0,0,0,0,-1,1364,1338,0,0
147,-314,0,0,0,0,0,0,0,0,0,-1,1371,1338,0,0
154,-314,0,0,0,0,0,0,0,0,0,-1,1378,1338,0,0
161,-314,0,0,0,0,0,0,0,0,0,-1,1385,1338,0,0
168,-314,0,0,0,0,0,0,0,0,0,-1,1392,1338,0,0
175,-314,0,0,0,0,0,0,0,0,0,-1,1399,1338,0,0
182,-314,0,0,0,0,0,0,0,0,0,-1,1406,1338,0,0
189,-314,0,0,0,0,0,0,0,0,0,-1,1413,1338,0,0
196,-314,0,0,0,0,0,0,0,0,0,-1,1420,1338,0,0
203,-314,0,0,0,0,0,0,0,0,0,-1,1427,1338,0,0
210,-314,0,0,0,0,0,0,0,0,0,-1,1434,1338,0,0
217,-314,0,0,0,0,0,0,0,0,0,-1,1441,1338,0,0
224,-314,0,0,0,0,0,0,0,0,0,-1,1448,1338,0,0
231,-314,0,0,0,0,0,0,0,0,0,-1,1455,1338,0,0
238,-314,0,0,0,0,0,0,0,0,0,-1,1462,1338,0,0
245,-314,0,0,0,0,0,0,0,0,0,-1,1469,1338,0,0
252,-314,0,0,0,0,0,0,0,0,0,-1,1476,1338,0,0
259,-314,0,0,0,0,0,0,0,0,0,-1,1483,1338,0,0
266,-314,0,0,0,0,0,0,0,0,0,-1,1490,1338,0,0
273,-314,0,0,0,0,0,0,0,0,0,-1,1497,1338,0,0
280,-314,0,0,0,0,0,0,0,0,0,-1,1504,1338,0,0
287,-314,0,0,0,0,0,0,0,0,0,-1,1511,1338,0,0
294,-314,0,0,0,0,0,0,0,0,0,-1,1518,1338,0,0
301,-314,0,0,0,0,0,0,0,0,0,-1,1525,1338,0,0
308,-314,0,0,0,0,0,0,0,0,0,-1,1532,1338,0,0
315,-314,0,0,0,0,0,0,0,0,0,-1,1539,1338,0,0
322,-314,0,0,0,0,0,0,0,0,0,-1,1546,1338,0,0
329,-314,0,0,0,0,0,0,0,0,0,-1,1553,1338,0,0
336,-314,0,0,0,0,0,0,0,0,0,-1,1560,1338,0,0
343,-314,0,0,0,0,0,0,0,0,0,-1,1567,1338,0,0
350,-314,0,0,0,0,0,0,0,0,0,-1,1574,1338,0,0
357,-314,0,0,0,0,0,0,0,0,0,-1,1581,1338,0,0
364,-314,0,0,0,0,0,0,0,0,0,-1,1588,1338,0,0
371,-314,0,0,0,0,0,0,0,0,0,-1,1595,1338,0,0
378,-314,0,0,0,0,0,0,0,0,0,-1,1602,1338,0,0
385,-314,0,0,0,0,0,0,0,0,0,-1,1609,1338,0,0
392,-314,0,0,0,0,0,0,0,0,0,-1,1616,1338,0,0
399,-314,0,0,0,0,0,0,0,0,0,-1,1623,1338,0,0
406,-314,0,0,0,0,0,0,0,0,0,-1,1630,1338,0,0
413,-314,0,0,0,0,0,0,0,0,0,-1,1637,1338,0,0
420,-314,0,0,0,0,0,0,0,0,0,-1,1644,1338,0,0
427,-314,0,0,0,0,0,0,0,0,0,-1,1651,1338,0,0
434,-314,0,0,0,0,0,0,0,0,0,-1,1658,1338,0,0
441,-314,0,0,0,0,0,0,0,0,0,-1,1665,1338,0,0
448,-314,0,0,0,0,0,0,0,0,0,-1,1672,1338,0,0
455,-314,0,0,0,0,0,0,0,0,0,-1,1679,1338,0,0
462,-314,0,0,0,0,0,0,0,0,0,-1,1686,1338,0,0
469,-314,0,0,0,0,0,0,0,0,0,-1,1693,1338,0,0
476,-314,0,0,0,0,0,0,0,0,0,-1,1700,1338,0,0
483,-314,0,0,0,0,0,0,0,0,0,-1,1707,1338,0,0
490,-314,0,0,0,0,0,0,0,0,0,-1,1714,1338,0,0
497,-314,0,0,0,0,0,0,0,0,0,-1,1721,1338,0,0
504,-314,0,0,0,0,0,0,0,0,0,-1,1728,1338,0,0
511,-314,0,0,0,0,0,0,0,0,0,-1,1735,1338,0,0
518,-314,0,0,0,0,0,0,0,0,0,-1,1742,1338,0,0
525,-314,0,0,0,0,0,0,0,0,0,-1,1749,1338,0,0
532,-314,0,0,0,0,0,0,0,0,0,-1,1756,1338,0,0
539,-314,0,0,0,0,0,0,0,0,0,-1,1763,1338,0,0
546,-314,0,0,0,0,0,0,0,0,0,-1,1770,1338,0,0
553,-314,0,0,0,0,0,0,0,0,0,-1,1777,1338,0,0
560,-314,0,0,0,0,0,0,0,0,0,-1,1784,1338,0,0
567,-314,0,0,0,0,0,0,0,0,0,-1,1791,1338,0,0
574,-314,0,0,0,0,0,0,0,0,0,-1,1798,1338,0,0
581,-314,49.7633,3.98621,0,0,0,0,0,0,0,-1,1805,1338,49.7633,-3.9862
588,-314,56.3665,5.37769,0,0,0,0,0,0,0,-1,1812,1338,56.3665,-5.3777
595,-314,55.6843,3.89685,-0.0767916,0.0862454,-0.14612,0.172048,-0.162594,-1.03984,0.193232,0.0455275,1819,1338,55.6843,-3.89691
602,-314,55.0531,2.33179,-0.0652114,0.0737571,-0.119994,0.142933,-0.134387,-1.04784,0.160136,0.0416549,1826,1338,55.0532,-2.33177
609,-314,54.1774,1.05957,0,0,0,0,0,0,0,-1,1833,1338,54.1774,-1.05961
616,-314,48.1149,3.005,0,0,0,0,0,0,0,-1,1840,1338,48.1149,-3.00505
623,-314,38.7728,2.71741,0,0,0,0,0,0,0,-1,1847,1338,38.7728,-2.71737
630,-314,29.4308,6.23206,0,0,0,0,0,0,0,-1,1854,1338,29.4308,-6.23202
637,-314,22.1349,5.16418,0,0,0,0,0,0,0,-1,1861,1338,22.1349,-5.16414
644,-314,18.7517,6.2605,0,0,0,0,0,0,0,-1,1868,1338,18.7517,-6.26053
651,-314,23.1317,8.005,0,0,0,0,0,0,0,-1,1875,1338,23.1317,-8.00506
658,-314,36.207,13.5719,0,0,0,0,0,0,0,-1,1882,1338,36.207,-13.5719
665,-314,36.1259,13.0435,0.00228183,3.29092e-05,0.000599677,0.00243175,-0.000117002,0.244966,0.00166154,0.0287125,1889,1338,36.1259,-13.0434
672,-314,36.1362,12.5165,0.00196996,-0.000862711,0.000377356,0.00201937,-0.000912119,0.130191,0.00173227,0.013517,1896,1338,36.1362,-12.5165
679,-314,36.1259,11.9548,0.00166442,-0.00058897,0.000237509,0.00168918,-0.000613732,0.10388,0.00137707,0.0112346,1903,1338,36.1259,-11.9548
686,-314,36.0826,11.4026,0.00120842,-0.00051261,0.000182232,0.0012275,-0.000531695,0.104344,0.00104182,0.0135022,1910,1338,36.0827,-11.4026
693,-314,36.0638,10.8282,0.00072509,-0.000432829,0.000400424,0.000850072,-0.000557811,0.302542,0.000818659,0.0137695,1917,1338,36.0638,-10.8282
700,-314,36.0789,10.2571,0.00036643,-0.00055938,0.000747384,0.000782652,-0.000975602,0.508129,0.00101716,0.0153722,1924,1338,36.0789,-10.257
707,-314,36.0811,9.69983,-0.000151062,-0.000787205,0.00123895,0.000809994,-0.00174826,0.659748,0.00150976,0.0142734,1931,1338,36.081,-9.6998
714,-314,36.0428,9.21509,-0.000874199,-0.00118024,0.00192323,0.000902086,-0.00295653,0.745699,0.00233065,0.0118477,1938,1338,36.0429,-9.21505
721,-314,36.0103,8.75452,-0.0019043,-0.0018944,0.00294793,0.00104859,-0.00484729,0.786237,0.00363187,0.0257584,1945,1338,36.0103,-8.75457
728,-314,36.2831,8.56628,0,0,0,0,0,0,0,-1,1952,1338,36.283,-8.56629
735,-314,26.3665,6.21582,0,0,0,0,0,0,0,-1,1959,1338,26.3664,-6.21581
742,-314,26.2235,6.0166,0,0,0,0,0,0,0,-1,1966,1338,26.2235,-6.01662
749,-314,26.2223,5.47046,0,0,0,0,0,0,0,-1,1973,1338,26.2223,-5.47041
756,-314,24.2521,5.93408,0,0,0,0,0,0,0,-1,1980,1338,24.252,-5.93413
763,-314,19.2207,4.07239,0,0,0,0,0,0,0,-1,1987,1338,19.2206,-4.07239
770,-314,0,0,0,0,0,0,0,0,0,-1,1994,1338,0,0
777,-314,0,0,0,0,0,0,0,0,0,-1,2001,1338,0,0
784,-314,0,0,0,0,0,0,0,0,0,-1,2008,1338,0,0
791,-314,0,0,0,0,0,0,0,0,0,-1,2015,1338,0,0
798,-314,0,0,0,0,0,0,0,0,0,-1,2022,1338,0,0
805,-314,0,0,0,0,0,0,0,0,0,-1,2029,1338,0,0
812,-314,0,0,0,0,0,0,0,0,0,-1,2036,1338,0,0
-700,-321,0,0,0,0,0,0,0,0,0,-1,524,1345,0,0
-693,-321,0,0,0,0,0,0,0,0,0,-1,531,1345,0,0
-686,-321,0,0,0,0,0,0,0,0,0,-1,538,1345,0,0
-679,-321,0,0,0,0,0,0,0,0,0,-1,545,1345,0,0
-672,-321,0,0,0,0,0,0,0,0,0,-1,552,1345,0,0
-665,-321,0,0,0,0,0,0,0,0,0,-1,559,1345,0,0
-658,-321,0,0,0,0,0,0,0,0,0,-1,566,1345,0,0
-651,-321,0,0,0,0,0,0,0,0,0,-1,573,1345,0,0
-644,-321,-17.2769,5.65454,0,0,0,0,0,0,0,-1,580,1345,-17.2768,-5.65454
-637,-321,-13.3991,3.59241,0,0,0,0,0,0,0,-1,587,1345,-13.3991,-3.59236
-630,-321,-13.2958,3.65039,0,0,0,0,0,0,0,-1,594,1345,-13.2958,-3.65042
-623,-321,-13.2242,3.14148,0,0,0,0,0,0,0,-1,601,1345,-13.2243,-3.14146
-616,-321,-11.6754,3.13794,0,0,0,0,0,0,0,-1,608,1345,-11.6754,-3.13789
-609,-321,-7.95209,1.14758,0,0,0,0,0,0,0,-1,615,1345,-7.95208,-1.14757
-602,-321,-8.85791,2.50049,0,0,0,0,0,0,0,-1,622,1345,-8.85791,-2.50048
-595,-321,-19.8463,5.36584,0,0,0,0,0,0,0,-1,629,1345,-19.8462,-5.36589
-588,-321,-20.2482,6.43994,0,0,0,0,0,0,0,-1,636,1345,-20.2482,-6.43993
-581,-321,-20.2438,7.04688,0.00449041,0.00188163,0.00235951,0.00588208,0.000489961,0.532895,0.0037687,0.0140098,643,1345,-20.2438,-7.04686
-574,-321,-20.2896,7.6449,0.00339553,0.00137023,0.001653,0.0043214,0.000444365,0.510577,0.00274483,0.0154708,650,1345,-20.2896,-7.64489
-567,-321,-20.2756,8.28516,0.0027807,0.000925424,0.00119852,0.00336864,0.000337485,0.456061,0.00214214,0.0218035,657,1345,-20.2756,-8.28517
-560,-321,-20.2716,8.92957,0.00254385,0.000574314,0.00094148,0.00292149,0.000196675,0.381465,0.00188552,0.02533,664,1345,-20.2716,-8.9296
-553,-321,-20.3322,9.48999,0.00260383,0.00022426,0.000841567,0.00287138,-4.32895e-05,0.307814,0.00192884,0.0275139,671,1345,-20.3321,-9.49001
-546,-321,-20.3403,10.0645,0.00303856,-3.406e-05,0.000941488,0.0033041,-0.000299595,0.274898,0.00230909,0.0276032,678,1345,-20.3404,-10.0645
-539,-321,-20.373,10.6226,0.00386526,-0.000219287,0.00123296,0.00420858,-0.000562612,0.271576,0.00301083,0.0244817,685,1345,-20.373,-10.6225
-532,-321,-20.3417,11.215,0.00513028,-0.000248562,0.00173466,0.00564117,-0.000759457,0.286424,0.00403781,0.0346163,692,1345,-20.3417,-11.215
-525,-321,-20.3359,11.8013,0,0,0,0,0,0,0,-1,699,1345,-20.3359,-11.8013
-518,-321,-10.3564,6.75696,0,0,0,0,0,0,0,-1,706,1345,-10.3564,-6.75694
-511,-321,-9.3302,5.29297,0,0,0,0,0,0,0,-1,713,1345,-9.33023,-5.29294
-504,-321,-10.4713,0.0145264,0,0,0,0,0,0,0,-1,720,1345,-10.4713,-0.0145296
-497,-321,-9.96771,0.313599,0,0,0,0,0,0,0,-1,727,1345,-9.96769,-0.313618
-490,-321,-10.7631,0.973511,0,0,0,0,0,0,0,-1,734,1345,-10.7631,-0.97353
-483,-321,-17.5908,0.2323,0,0,0,0,0,0,0,-1,741,1345,-17.5908,-0.232355
-476,-321,-17.2915,0.297363,0,0,0,0,0,0,0,-1,748,1345,-17.2915,-0.297342
-469,-321,-17.2441,0.478027,0,0,0,0,0,0,0,-1,755,1345,-17.2441,-0.477994
-462,-321,-17.1672,0.526489,0,0,0,0,0,0,0,-1,762,1345,-17.1672,-0.526533
-455,-321,0,0,0,0,0,0,0,0,0,-1,769,1345,0,0
-448,-321,0,0,0,0,0,0,0,0,0,-1,776,1345,0,0
-441,-321,0,0,0,0,0,0,0,0,0,-1,783,1345,0,0
-434,-321,0,0,0,0,0,0,0,0,0,-1,790,1345,0,0
-427,-321,0,0,0,0,0,0,0,0,0,-1,797,1345,0,0
-420,-321,0,0,0,0,0,0,0,0,0,-1,804,1345,0,0
-413,-321,0,0,0,0,0,0,0,0,0,-1,811,1345,0,0
-406,-321,0,0,0,0,0,0,0,0,0,-1,818,1345,0,0
-399,-321,0,0,0,0,0,0,0,0,0,-1,825,1345,0,0
-392,-321,0,0,0,0,0,0,0,0,0,-1,832,1345,0,0
-385,-321,0,0,0,0,0,0,0,0,0,-1,839,1345,0,0
-378,-321,0,0,0,0,0,0,0,0,0,-1,846,1345,0,0
-371,-321,0,0,0,0,0,0,0,0,0,-1,853,1345,0,0
-364,-321,0,0,0,0,0,0,0,0,0,-1,860,1345,0,0
-357,-321,0,0,0,0,0,0,0,0,0,-1,867,1345,0,0
-350,-321,0,0,0,0,0,0,0,0,0,-1,874,1345,0,0
-343,-321,0,0,0,0,0,0,0,0,0,-1,881,1345,0,0
-336,-321,0,0,0,0,0,0,0,0,0,-1,888,1345,0,0
-329,-321,0,0,0,0,0,0,0,0,0,-1,895,1345,0,0
-322,-321,0,0,0,0,0,0,0,0,0,-1,902,1345,0,0
-315,-321,0,0,0,0,0,0,0,0,0,-1,909,1345,0,0
-308,-321,0,0,0,0,0,0,0,0,0,-1,916,1345,0,0
-301,-321,0,0,0,0,0,0,0,0,0,-1,923,1345,0,0
-294,-321,0,0,0,0,0,0,0,0,0,-1,930,1345,0,0
-287,-321,0,0,0,0,0,0,0,0,0,-1,937,1345,0,0
-280,-321,0,0,0,0,0,0,0,0,0,-1,944,1345,0,0
-273,-321,0,0,0,0,0,0,0,0,0,-1,951,1345,0,0
-266,-321,0,0,0,0,0,0,0,0,0,-1,958,1345,0,0
-259,-321,0,0,0,0,0,0,0,0,0,-1,965,1345,0,0
-252,-321,0,0,0,0,0,0,0,0,0,-1,972,1345,0,0
-245,-321,0,0,0,0,0,0,0,0,0,-1,979,1345,0,0
-238,-321,0,0,0,0,0,0,0,0,0,-1,986,1345,0,0
-231,-321,0,0,0,0,0,0,0,0,0,-1,993,1345,0,0
-224,-321,0,0,0,0,0,0,0,0,0,-1,1000,1345,0,0
-217,-321,0,0,0,0,0,0,0,0,0,-1,1007,1345,0,0
-210,-321,0,0,0,0,0,0,0,0,0,-1,1014,1345,0,0
-203,-321,0,0,0,0,0,0,0,0,0,-1,1021,1345,0,0
-196,-321,0,0,0,0,0,0,0,0,0,-1,1028,1345,0,0
-189,-321,0,0,0,0,0,0,0,0,0,-1,1035,1345,0,0
-182,-321,0,0,0,0,0,0,0,0,0,-1,1042,1345,0,0
-175,-321,0,0,0,0,0,0,0,0,0,-1,1049,1345,0,0
-168,-321,0,0,0,0,0,0,0,0,0,-1,1056,1345,0,0
-161,-321,0,0,0,0,0,0,0,0,0,-1,1063,1345,0,0
-154,-321,0,0,0,0,0,0,0,0,0,-1,1070,1345,0,0
-147,-321,0,0,0,0,0,0,0,0,0,-1,1077,1345,0,0
-140,-321,0,0,0,0,0,0,0,0,0,-1,1084,1345,0,0
-133,-321,0,0,0,0,0,0,0,0,0,-1,1091,1345,0,0
-126,-321,0,0,0,0,0,0,0,0,0,-1,1098,1345,0,0
-119,-321,0,0,0,0,0,0,0,0,0,-1,1105,1345,0,0
-112,-321,0,0,0,0,0,0,0,0,0,-1,1112,1345,0,0
-105,-321,0,0,0,0,0,0,0,0,0,-1,1119,1345,0,0
-98,-321,0,0,0,0,0,0,0,0,0,-1,1126,1345,0,0
-91,-321,0,0,0,0,0,0,0,0,0,-1,1133,1345,0,0
-84,-321,0,0,0,0,0,0,0,0,0,-1,1140,1345,0,0
-77,-321,0,0,0,0,0,0,0,0,0,-1,1147,1345,0,0
-70,-321,0,0,0,0,0,0,0,0,0,-1,1154,1345,0,0
-63,-321,0,0,0,0,0,0,0,0,0,-1,1161,1345,0,0
-56,-321,0,0,0,0,0,0,0,0,0,-1,1168,1345,0,0
-49,-321,0,0,0,0,0,0,0,0,0,-1,1175,1345,0,0
-42,-321,0,0,0,0,0,0,0,0,0,-1,1182,1345,0,0
-35,-321,0,0,0,0,0,0,0,0,0,-1,1189,1345,0,0
-28,-321,0,0,0,0,0,0,0,0,0,-1,1196,1345,0,0
-21,-321,0,0,0,0,0,0,0,0,0,-1,1203,1345,0,0
-14,-321,0,0,0,0,0,0,0,0,0,-1,1210,1345,0,0
-7,-321,0,0,0,0,0,0,0,0,0,-1,1217,1345,0,0
0,-321,0,0,0,0,0,0,0,0,0,-1,1224,1345,0,0
7,-321,0,0,0,0,0,0,0,0,0,-1,1231,1345,0,0
14,-321,0,0,0,0,0,0,0,0,0,-1,1238,1345,0,0
21,-321,0,0,0,0,0,0,0,0,0,-1,1245,1345,0,0
28,-321,0,0,0,0,0,0,0,0,0,-1,1252,1345,0,0
35,-321,0,0,0,0,0,0,0,0,0,-1,1259,1345,0,0
42,-321,0,0,0,0,0,0,0,0,0,-1,1266,1345,0,0
49,-321,0,0,0,0,0,0,0,0,0,-1,1273,1345,0,0
56,-321,0,0,0,0,0,0,0,0,0,-1,1280,1345,0,0
63,-321,0,0,0,0,0,0,0,0,0,-1,1287,1345,0,0
70,-321,0,0,0,0,0,0,0,0,0,-1,1294,1345,0,0
77,-321,0,0,0,0,0,0,0,0,0,-1,1301,1345,0,0
84,-321,0,0,0,0,0,0,0,0,0,-1,1308,1345,0,0
91,-321,0,0,0,0,0,0,0,0,0,-1,1315,1345,0,0
98,-321,0,0,0,0,0,0,0,0,0,-1,1322,1345,0,0
105,-321,0,0,0,0,0,0,0,0,0,-1,1329,1345,0,0
112,-321,0,0,0,0,0,0,0,0,0,-1,1336,1345,0,0
119,-321,0,0,0,0,0,0,0,0,0,-1,1343,1345,0,0
126,-321,0,0,0,0,0,0,0,0,0,-1,1350,1345,0,0
133,-321,0,0,0,0,0,0,0,0,0,-1,1357,1345,0,0
140,-321,0,0,0,0,0,0,0,0,0,-1,1364,1345,0,0
147,-321,0,0,0,0,0,0,0,0,0,-1,1371,1345,0,0
154,-321,0,0,0,0,0,0,0,0,0,-1,1378,1345,0,0
161,-321,0,0,0,0,0,0,0,0,0,-1,1385,1345,0,0
168,-321,0,0,0,0,0,0,0,0,0,-1,1392,1345,0,0
175,-321,0,0,0,0,0,0,0,0,0,-1,1399,1345,0,0
182,-321,0,0,0,0,0,0,0,0,0,-1,1406,1345,0,0
189,-321,0,0,0,0,0,0,0,0,0,-1,1413,1345,0,0
196,-321,0,0,0,0,0,0,0,0,0,-1,1420,1345,0,0
203,-321,0,0,0,0,0,0,0,0,0,-1,1427,1345,0,0
210,-321,0,0,0,0,0,0,0,0,0,-1,1434,1345,0,0
217,-321,0,0,0,0,0,0,0,0,0,-1,1441,1345,0,0
224,-321,0,0,0,0,0,0,0,0,0,-1,1448,1345,0,0
231,-321,0,0,0,0,0,0,0,0,0,-1,1455,1345,0,0
238,-321,0,0,0,0,0,0,0,0,0,-1,1462,1345,0,0
245,-321,0,0,0,0,0,0,0,0,0,-1,1469,1345,0,0
252,-321,0,0,0,0,0,0,0,0,0,-1,1476,1345,0,0
259,-321,0,0,0,0,0,0,0,0,0,-1,1483,1345,0,0
266,-321,0,0,0,0,0,0,0,0,0,-1,1490,1345,0,0
273,-321,0,0,0,0,0,0,0,0,0,-1,1497,1345,0,0
280,-321,0,0,0,0,0,0,0,0,0,-1,1504,1345,0,0
287,-321,0,0,0,0,0,0,0,0,0,-1,1511,1345,0,0
294,-321,0,0,0,0,0,0,0,0,0,-1,1518,1345,0,0
301,-321,0,0,0,0,0,0,0,0,0,-1,1525,1345,0,0
308,-321,0,0,0,0,0,0,0,0,0,-1,1532,1345,0,0
315,-321,0,0,0,0,0,0,0,0,0,-1,1539,1345,0,0
322,-321,0,0,0,0,0,0,0,0,0,-1,1546,1345,0,0
329,-321,0,0,0,0,0,0,0,0,0,-1,1553,1345,0,0
336,-321,0,0,0,0,0,0,0,0,0,-1,1560,1345,0,0
343,-321,0,0,0,0,0,0,0,0,0,-1,1567,1345,0,0
350,-321,0,0,0,0,0,0,0,0,0,-1,1574,1345,0,0
357,-321,0,0,0,0,0,0,0,0,0,-1,1581,1345,0,0
364,-321,0,0,0,0,0,0,0,0,0,-1,1588,1345,0,0
371,-321,0,0,0,0,0,0,0,0,0,-1,1595,1345,0,0
378,-321,0,0,0,0,0,0,0,0,0,-1,1602,1345,0,0
385,-321,0,0,0,0,0,0,0,0,0,-1,1609,1345,0,0
392,-321,0,0,0,0,0,0,0,0,0,-1,1616,1345,0,0
399,-321,0,0,0,0,0,0,0,0,0,-1,1623,1345,0,0
406,-321,0,0,0,0,0,0,0,0,0,-1,1630,1345,0,0
413,-321,0,0,0,0,0,0,0,0,0,-1,1637,1345,0,0
420,-321,0,0,0,0,0,0,0,0,0,-1,1644,1345,0,0
427,-321,0,0,0,0,0,0,0,0,0,-1,1651,1345,0,0
434,-321,0,0,0,0,0,0,0,0,0,-1,1658,1345,0,0
441,-321,0,0,0,0,0,0,0,0,0,-1,1665,1345,0,0
448,-321,0,0,0,0,0,0,0,0,0,-1,1672,1345,0,0
455,-321,0,0,0,0,0,0,0,0,0,-1,1679,1345,0,0
462,-321,0,0,0,0,0,0,0,0,0,-1,1686,1345,0,0
469,-321,0,0,0,0,0,0,0,0,0,-1,1693,1345,0,0
476,-321,0,0,0,0,0,0,0,0,0,-1,1700,1345,0,0
483,-321,0,0,0,0,0,0,0,0,0,-1,1707,1345,0,0
490,-321,0,0,0,0,0,0,0,0,0,-1,1714,1345,0,0
497,-321,0,0,0,0,0,0,0,0,0,-1,1721,1345,0,0
504,-321,0,0,0,0,0,0,0,0,0,-1,1728,1345,0,0
511,-321,0,0,0,0,0,0,0,0,0,-1,1735,1345,0,0
518,-321,0,0,0,0,0,0,0,0,0,-1,1742,1345,0,0
525,-321,0,0,0,0,0,0,0,0,0,-1,1749,1345,0,0
532,-321,0,0,0,0,0,0,0,0,0,-1,1756,1345,0,0
539,-321,0,0,0,0,0,0,0,0,0,-1,1763,1345,0,0
546,-321,0,0,0,0,0,0,0,0,0,-1,1770,1345,0,0
553,-321,0,0,0,0,0,0,0,0,0,-1,1777,1345,0,0
560,-321,0,0,0,0,0,0,0,0,0,-1,1784,1345,0,0
567,-321,0,0,0,0,0,0,0,0,0,-1,1791,1345,0,0
574,-321,0,0,0,0,0,0,0,0,0,-1,1798,1345,0,0
581,-321,49.9773,4.13696,0,0,0,0,0,0,0,-1,1805,1345,49.9772,-4.13692
588,-321,56.7845,4.70703,0,0,0,0,0,0,0,-1,1812,1345,56.7845,-4.70701
595,-321,56.1301,3.26428,0,0,0,0,0,0,0,-1,1819,1345,56.1301,-3.26424
602,-321,55.4094,1.73413,0,0,0,0,0,0,0,-1,1826,1345,55.4094,-1.7341
609,-321,48.311,3.39575,0,0,0,0,0,0,0,-1,1833,1345,48.311,-3.39571
616,-321,37.8107,2.58704,0,0,0,0,0,0,0,-1,1840,1345,37.8106,-2.58705
623,-321,37.6854,3.68933,0,0,0,0,0,0,0,-1,1847,1345,37.6854,-3.68931
630,-321,23.6674,4.34106,0,0,0,0,0,0,0,-1,1854,1345,23.6674,-4.34112
637,-321,21.7925,6.79224,0,0,0,0,0,0,0,-1,1861,1345,21.7925,-6.7922
644,-321,16.8844,6.71973,0,0,0,0,0,0,0,-1,1868,1345,16.8844,-6.71971
651,-321,27.4924,10.0319,0,0,0,0,0,0,0,-1,1875,1345,27.4924,-10.0319
658,-321,35.5222,13.6155,0,0,0,0,0,0,0,-1,1882,1345,35.5222,-13.6155
665,-321,35.5627,13.1011,0.000377898,8.86049e-06,0.000411583,0.000644431,-0.000257672,0.574672,0.000536548,0.021959,1889,1345,35.5628,-13.1011
672,-321,35.594,12.5325,0.000662083,-0.0006032,0.000228613,0.000702122,-0.000643239,0.173381,0.000776993,0.0136195,1896,1345,35.5939,-12.5325
679,-321,35.5751,11.9764,0.000865383,-0.000411669,0.000111158,0.000874986,-0.000421272,0.0861791,0.000763524,0.0120157,1903,1345,35.575,-11.9764
686,-321,35.5267,11.422,0.000911223,-0.000347903,0.000134007,0.000925327,-0.000362007,0.104863,0.000766596,0.0127333,1910,1345,35.5268,-11.4219
693,-321,35.4996,10.871,0.00081863,-0.000313859,0.000259979,0.00087546,-0.000370689,0.21521,0.000738877,0.0137722,1917,1345,35.4997,-10.8709
700,-321,35.5092,10.2874,0.000587088,-0.000398983,0.000535267,0.000821785,-0.00063368,0.413222,0.000842649,0.0146201,1924,1345,35.5091,-10.2874
707,-321,35.5265,9.74536,0.000175448,-0.000574123,0.000956252,0.000827737,-0.00122641,0.598632,0.00119339,0.0155246,1931,1345,35.5264,-9.74536
714,-321,35.4957,9.22632,-0.000469416,-0.000917595,0.00158769,0.000909923,-0.00229693,0.71529,0.00190833,0.0135099,1938,1345,35.4957,-9.22632
721,-321,35.4,8.7124,-0.00150753,-0.00164174,0.00265113,0.00107735,-0.00422662,0.772746,0.00323718,0.0402714,1945,1345,35.4,-8.71243
728,-321,35.3812,8.26721,0,0,0,0,0,0,0,-1,1952,1345,35.3812,-8.26717
735,-321,22.0081,5.65479,0,0,0,0,0,0,0,-1,1959,1345,22.008,-5.65481
742,-321,24.5398,5.05725,0,0,0,0,0,0,0,-1,1966,1345,24.5398,-5.05729
749,-321,24.0675,5.4458,0,0,0,0,0,0,0,-1,1973,1345,24.0675,-5.44581
756,-321,19.6251,4.98315,0,0,0,0,0,0,0,-1,1980,1345,19.6251,-4.98311
763,-321,19.6747,4.61438,0,0,0,0,0,0,0,-1,1987,1345,19.6747,-4.61436
770,-321,0,0,0,0,0,0,0,0,0,-1,1994,1345,0,0
777,-321,0,0,0,0,0,0,0,0,0,-1,2001,1345,0,0
784,-321,0,0,0,0,0,0,0,0,0,-1,2008,1345,0,0
791,-321,0,0,0,0,0,0,0,0,0,-1,2015,1345,0,0
798,-321,0,0,0,0,0,0,0,0,0,-1,2022,1345,0,0
805,-321,0,0,0,0,0,0,0,0,0,-1,2029,1345,0,0
812,-321,0,0,0,0,0,0,0,0,0,-1,2036,1345,0,0
-700,-328,0,0,0,0,0,0,0,0,0,-1,524,1352,0,0
-693,-328,0,0,0,0,0,0,0,0,0,-1,531,1352,0,0
-686,-328,0,0,0,0,0,0,0,0,0,-1,538,1352,0,0
-679,-328,0,0,0,0,0,0,0,0,0,-1,545,1352,0,0
-672,-328,0,0,0,0,0,0,0,0,0,-1,552,1352,0,0
-665,-328,0,0,0,0,0,0,0,0,0,-1,559,1352,0,0
-658,-328,0,0,0,0,0,0,0,0,0,-1,566,1352,0,0
-651,-328,0,0,0,0,0,0,0,0,0,-1,573,1352,0,0
-644,-328,0,0,0,0,0,0,0,0,0,-1,580,1352,0,0
-637,-328,-12.0695,1.02014,0,0,0,0,0,0,0,-1,587,1352,-12.0694,-1.02017
-630,-328,-13.3971,4.54578,0,0,0,0,0,0,0,-1,594,1352,-13.3971,-4.54572
-623,-328,-10.7739,4.55042,0,0,0,0,0,0,0,-1,601,1352,-10.7739,-4.55041
-616,-328,-8.22198,-0.25708,0,0,0,0,0,0,0,-1,608,1352,-8.22201,0.257067
-609,-328,-7.87439,0.192871,0,0,0,0,0,0,0,-1,615,1352,-7.87441,-0.192822
-602,-328,-7.63062,1.31665,0,0,0,0,0,0,0,-1,622,1352,-7.63064,-1.3166
-595,-328,-9.42639,2.93494,0,0,0,0,0,0,0,-1,629,1352,-9.42638,-2.93499
-588,-328,-19.8057,6.22229,0,0,0,0,0,0,0,-1,636,1352,-19.8057,-6.22228
-581,-328,-19.6907,7.01611,0.00481848,0.00221976,0.00240321,0.00625111,0.000787136,0.537569,0.00393138,0.0266445,643,1352,-19.6907,-7.01612
-574,-328,-19.6931,7.66748,0.00354094,0.00160178,0.00170755,0.00453499,0.000607736,0.527189,0.00284248,0.0157738,650,1352,-19.6931,-7.66749
-567,-328,-19.7073,8.29431,0.00281718,0.00111089,0.00126193,0.00348729,0.000440775,0.488159,0.00219275,0.0201916,657,1352,-19.7073,-8.29431
-560,-328,-19.6868,8.94043,0.00250397,0.00073003,0.00101559,0.00296538,0.000268613,0.426451,0.00189375,0.0276635,664,1352,-19.6867,-8.94046
-553,-328,-19.7309,9.5116,0.00248306,0.000412862,0.000912303,0.00282771,6.82048e-05,0.361213,0.00186282,0.0296147,671,1352,-19.7309,-9.51161
-546,-328,-19.7876,10.0819,0.00281866,0.000183984,0.000981944,0.00314436,-0.000141722,0.320276,0.00214504,0.0284594,678,1352,-19.7876,-10.0819
-539,-328,-19.794,10.6073,0.00348827,2.74038e-05,0.00121661,0.00387315,-0.000357475,0.306391,0.00270913,0.0238114,685,1352,-19.794,-10.6074
-532,-328,-19.7704,11.2255,0.00454016,-7.47049e-06,0.00164431,0.00507241,-0.00053972,0.313048,0.00357512,0.0184611,692,1352,-19.7704,-11.2255
-525,-328,-19.7886,11.8815,0.00589633,-4.5063e-05,0.00222803,0.00663901,-0.000787743,0.321752,0.00471059,0.0326202,699,1352,-19.7887,-11.8815
-518,-328,-19.8757,12.5389,0,0,0,0,0,0,0,-1,706,1352,-19.8757,-12.539
-511,-328,-9.39868,7.16113,0,0,0,0,0,0,0,-1,713,1352,-9.39869,-7.16113
-504,-328,-8.60626,-0.905762,0,0,0,0,0,0,0,-1,720,1352,-8.60623,0.905787
-497,-328,-9.29102,-0.0517578,0,0,0,0,0,0,0,-1,727,1352,-9.29104,0.0518175
-490,-328,-10.0663,0.882813,0,0,0,0,0,0,0,-1,734,1352,-10.0663,-0.882795
-483,-328,-10.8181,1.72375,0,0,0,0,0,0,0,-1,741,1352,-10.8181,-1.72374
-476,-328,-16.8951,-0.150757,0,0,0,0,0,0,0,-1,748,1352,-16.8951,0.150795
-469,-328,-16.8412,0.00158691,0,0,0,0,0,0,0,-1,755,1352,-16.8412,-0.00161515
-462,-328,-16.3546,-0.203491,0,0,0,0,0,0,0,-1,762,1352,-16.3545,0.203532
-455,-328,0,0,0,0,0,0,0,0,0,-1,769,1352,0,0
-448,-328,0,0,0,0,0,0,0,0,0,-1,776,1352,0,0
-441,-328,0,0,0,0,0,0,0,0,0,-1,783,1352,0,0
-434,-328,0,0,0,0,0,0,0,0,0,-1,790,1352,0,0
-427,-328,0,0,0,0,0,0,0,0,0,-1,797,1352,0,0
-420,-328,0,0,0,0,0,0,0,0,0,-1,804,1352,0,0
-413,-328,0,0,0,0,0,0,0,0,0,-1,811,1352,0,0
-406,-328,0,0,0,0,0,0,0,0,0,-1,818,1352,0,0
-399,-328,0,0,0,0,0,0,0,0,0,-1,825,1352,0,0
-392,-328,0,0,0,0,0,0,0,0,0,-1,832,1352,0,0
-385,-328,0,0,0,0,0,0,0,0,0,-1,839,1352,0,0
-378,-328,0,0,0,0,0,0,0,0,0,-1,846,1352,0,0
-371,-328,0,0,0,0,0,0,0,0,0,-1,853,1352,0,0
-364,-328,0,0,0,0,0,0,0,0,0,-1,860,1352,0,0
-357,-328,0,0,0,0,0,0,0,0,0,-1,867,1352,0,0
-350,-328,0,0,0,0,0,0,0,0,0,-1,874,1352,0,0
-343,-328,0,0,0,0,0,0,0,0,0,-1,881,1352,0,0
-336,-328,0,0,0,0,0,0,0,0,0,-1,888,1352,0,0
-329,-328,0,0,0,0,0,0,0,0,0,-1,895,1352,0,0
-322,-328,0,0,0,0,0,0,0,0,0,-1,902,1352,0,0
-315,-328,0,0,0,0,0,0,0,0,0,-1,909,1352,0,0
-308,-328,0,0,0,0,0,0,0,0,0,-1,916,1352,0,0
-301,-328,0,0,0,0,0,0,0,0,0,-1,923,1352,0,0
-294,-328,0,0,0,0,0,0,0,0,0,-1,930,1352,0,0
-287,-328,0,0,0,0,0,0,0,0,0,-1,937,1352,0,0
-280,-328,0,0,0,0,0,0,0,0,0,-1,944,1352,0,0
-273,-328,0,0,0,0,0,0,0,0,0,-1,951,1352,0,0
-266,-328,0,0,0,0,0,0,0,0,0,-1,958,1352,0,0
-259,-328,0,0,0,0,0,0,0,0,0,-1,965,1352,0,0
-252,-328,0,0,0,0,0,0,0,0,0,-1,972,1352,0,0
-245,-328,0,0,0,0,0,0,0,0,0,-1,979,1352,0,0
-238,-328,0,0,0,0,0,0,0,0,0,-1,986,1352,0,0
-231,-328,0,0,0,0,0,0,0,0,0,-1,993,1352,0,0
-224,-328,0,0,0,0,0,0,0,0,0,-1,1000,1352,0,0
-217,-328,0,0,0,0,0,0,0,0,0,-1,1007,1352,0,0
-210,-328,0,0,0,0,0,0,0,0,0,-1,1014,1352,0,0
-203,-328,0,0,0,0,0,0,0,0,0,-1,1021,1352,0,0
-196,-328,0,0,0,0,0,0,0,0,0,-1,1028,1352,0,0
-189,-328,0,0,0,0,0,0,0,0,0,-1,1035,1352,0,0
-182,-328,0,0,0,0,0,0,0,0,0,-1,1042,1352,0,0
-175,-328,0,0,0,0,0,0,0,0,0,-1,1049,1352,0,0
-168,-328,0,0,0,0,0,0,0,0,0,-1,1056,1352,0,0
-161,-328,0,0,0,0,0,0,0,0,0,-1,1063,1352,0,0
-154,-328,0,0,0,0,0,0,0,0,0,-1,1070,1352,0,0
-147,-328,0,0,0,0,0,0,0,0,0,-1,1077,1352,0,0
-140,-328,0,0,0,0,0,0,0,0,0,-1,1084,1352,0,0
-133,-328,0,0,0,0,0,0,0,0,0,-1,1091,1352,0,0
-126,-328,0,0,0,0,0,0,0,0,0,-1,1098,1352,0,0
-119,-328,0,0,0,0,0,0,0,0,0,-1,1105,1352,0,0
-112,-328,0,0,0,0,0,0,0,0,0,-1,1112,1352,0,0
-105,-328,0,0,0,0,0,0,0,0,0,-1,1119,1352,0,0
-98,-328,0,0,0,0,0,0,0,0,0,-1,1126,1352,0,0
-91,-328,0,0,0,0,0,0,0,0,0,-1,1133,1352,0,0
-84,-328,0,0,0,0,0,0,0,0,0,-1,1140,1352,0,0
-77,-328,0,0,0,0,0,0,0,0,0,-1,1147,1352,0,0
-70,-328,0,0,0,0,0,0,0,0,0,-1,1154,1352,0,0
-63,-328,0,0,0,0,0,0,0,0,0,-1,1161,1352,0,0
-56,-328,0,0,0,0,0,0,0,0,0,-1,1168,1352,0,0
-49,-328,0,0,0,0,0,0,0,0,0,-1,1175,1352,0,0
-42,-328,0,0,0,0,0,0,0,0,0,-1,1182,1352,0,0
-35,-328,0,0,0,0,0,0,0,0,0,-1,1189,1352,0,0
-28,-328,0,0,0,0,0,0,0,0,0,-1,1196,1352,0,0
-21,-328,0,0,0,0,0,0,0,0,0,-1,1203,1352,0,0
-14,-328,0,0,0,0,0,0,0,0,0,-1,1210,1352,0,0
-7,-328,0,0,0,0,0,0,0,0,0,-1,1217,1352,0,0
0,-328,0,0,0,0,0,0,0,0,0,-1,1224,1352,0,0
7,-328,0,0,0,0,0,0,0,0,0,-1,1231,1352,0,0
14,-328,0,0,0,0,0,0,0,0,0,-1,1238,1352,0,0
21,-328,0,0,0,0,0,0,0,0,0,-1,1245,1352,0,0
28,-328,0,0,0,0,0,0,0,0,0,-1,1252,1352,0,0
35,-328,0,0,0,0,0,0,0,0,0,-1,1259,1352,0,0
42,-328,0,0,0,0,0,0,0,0,0,-1,1266,1352,0,0
49,-328,0,0,0,0,0,0,0,0,0,-1,1273,1352,0,0
56,-328,0,0,0,0,0,0,0,0,0,-1,1280,1352,0,0
63,-328,0,0,0,0,0,0,0,0,0,-1,1287,1352,0,0
70,-328,0,0,0,0,0,0,0,0,0,-1,1294,1352,0,0
77,-328,0,0,0,0,0,0,0,0,0,-1,1301,1352,0,0
84,-328,0,0,0,0,0,0,0,0,0,-1,1308,1352,0,0
91,-328,0,0,0,0,0,0,0,0,0,-1,1315,1352,0,0
98,-328,0,0,0,0,0,0,0,0,0,-1,1322,1352,0,0
105,-328,0,0,0,0,0,0,0,0,0,-1,1329,1352,0,0
112,-328,0,0,0,0,0,0,0,0,0,-1,1336,1352,0,0
119,-328,0,0,0,0,0,0,0,0,0,-1,1343,1352,0,0
126,-328,0,0,0,0,0,0,0,0,0,-1,1350,1352,0,0
133,-328,0,0,0,0,0,0,0,0,0,-1,1357,1352,0,0
140,-328,0,0,0,0,0,0,0,0,0,-1,1364,1352,0,0
147,-328,0,0,0,0,0,0,0,0,0,-1,1371,1352,0,0
154,-328,0,0,0,0,0,0,0,0,0,-1,1378,1352,0,0
161,-328,0,0,0,0,0,0,0,0,0,-1,1385,1352,0,0
168,-328,0,0,0,0,0,0,0,0,0,-1,1392,1352,0,0
175,-328,0,0,0,0,0,0,0,0,0,-1,1399,1352,0,0
182,-328,0,0,0,0,0,0,0,0,0,-1,1406,1352,0,0
189,-328,0,0,0,0,0,0,0,0,0,-1,1413,1352,0,0
196,-328,0,0,0,0,0,0,0,0,0,-1,1420,1352,0,0
203,-328,0,0,0,0,0,0,0,0,0,-1,1427,1352,0,0
210,-328,0,0,0,0,0,0,0,0,0,-1,1434,1352,0,0
217,-328,0,0,0,0,0,0,0,0,0,-1,1441,1352,0,0
224,-328,0,0,0,0,0,0,0,0,0,-1,1448,1352,0,0
231,-328,0,0,0,0,0,0,0,0,0,-1,1455,1352,0,0
238,-328,0,0,0,0,0,0,0,0,0,-1,1462,1352,0,0
245,-328,0,0,0,0,0,0,0,0,0,-1,1469,1352,0,0
252,-328,0,0,0,0,0,0,0,0,0,-1,1476,1352,0,0
259,-328,0,0,0,0,0,0,0,0,0,-1,1483,1352,0,0
266,-328,0,0,0,0,0,0,0,0,0,-1,1490,1352,0,0
273,-328,0,0,0,0,0,0,0,0,0,-1,1497,1352,0,0
280,-328,0,0,0,0,0,0,0,0,0,-1,1504,1352,0,0
287,-328,0,0,0,0,0,0,0,0,0,-1,1511,1352,0,0
294,-328,0,0,0,0,0,0,0,0,0,-1,1518,1352,0,0
301,-328,0,0,0,0,0,0,0,0,0,-1,1525,1352,0,0
308,-328,0,0,0,0,0,0,0,0,0,-1,1532,1352,0,0
315,-328,0,0,0,0,0,0,0,0,0,-1,1539,1352,0,0
322,-328,0,0,0,0,0,0,0,0,0,-1,1546,1352,0,0
329,-328,0,0,0,0,0,0,0,0,0,-1,1553,1352,0,0
336,-328,0,0,0,0,0,0,0,0,0,-1,1560,1352,0,0
343,-328,0,0,0,0,0,0,0,0,0,-1,1567,1352,0,0
350,-328,0,0,0,0,0,0,0,0,0,-1,1574,1352,0,0
357,-328,0,0,0,0,0,0,0,0,0,-1,1581,1352,0,0
364,-328,0,0,0,0,0,0,0,0,0,-1,1588,1352,0,0
371,-328,0,0,0,0,0,0,0,0,0,-1,1595,1352,0,0
378,-328,0,0,0,0,0,0,0,0,0,-1,1602,1352,0,0
385,-328,0,0,0,0,0,0,0,0,0,-1,1609,1352,0,0
392,-328,0,0,0,0,0,0,0,0,0,-1,1616,1352,0,0
399,-328,0,0,0,0,0,0,0,0,0,-1,1623,1352,0,0
406,-328,0,0,0,0,0,0,0,0,0,-1,1630,1352,0,0
413,-328,0,0,0,0,0,0,0,0,0,-1,1637,1352,0,0
420,-328,0,0,0,0,0,0,0,0,0,-1,1644,1352,0,0
427,-328,0,0,0,0,0,0,0,0,0,-1,1651,1352,0,0
434,-328,0,0,0,0,0,0,0,0,0,-1,1658,1352,0,0
441,-328,0,0,0,0,0,0,0,0,0,-1,1665,1352,0,0
448,-328,0,0,0,0,0,0,0,0,0,-1,1672,1352,0,0
455,-328,0,0,0,0,0,0,0,0,0,-1,1679,1352,0,0
462,-328,0,0,0,0,0,0,0,0,0,-1,1686,1352,0,0
469,-328,0,0,0,0,0,0,0,0,0,-1,1693,1352,0,0
476,-328,0,0,0,0,0,0,0,0,0,-1,1700,1352,0,0
483,-328,0,0,0,0,0,0,0,0,0,-1,1707,1352,0,0
490,-328,0,0,0,0,0,0,0,0,0,-1,1714,1352,0,0
497,-328,0,0,0,0,0,0,0,0,0,-1,1721,1352,0,0
504,-328,0,0,0,0,0,0,0,0,0,-1,1728,1352,0,0
511,-328,0,0,0,0,0,0,0,0,0,-1,1735,1352,0,0
518,-328,0,0,0,0,0,0,0,0,0,-1,1742,1352,0,0
525,-328,0,0,0,0,0,0,0,0,0,-1,1749,1352,0,0
532,-328,0,0,0,0,0,0,0,0,0,-1,1756,1352,0,0
539,-328,0,0,0,0,0,0,0,0,0,-1,1763,1352,0,0
546,-328,0,0,0,0,0,0,0,0,0,-1,1770,1352,0,0
553,-328,0,0,0,0,0,0,0,0,0,-1,1777,1352,0,0
560,-328,0,0,0,0,0,0,0,0,0,-1,1784,1352,0,0
567,-328,0,0,0,0,0,0,0,0,0,-1,1791,1352,0,0
574,-328,44.8926,5.11475,0,0,0,0,0,0,0,-1,1798,1352,44.8926,-5.11469
581,-328,50.5533,4.3905,0,0,0,0,0,0,0,-1,1805,1352,50.5533,-4.39048
588,-328,50.1937,4.06274,0,0,0,0,0,0,0,-1,1812,1352,50.1937,-4.06278
595,-328,56.5437,2.5697,0,0,0,0,0,0,0,-1,1819,1352,56.5437,-2.56974
602,-328,48.7734,3.66785,0,0,0,0,0,0,0,-1,1826,1352,48.7734,-3.66782
609,-328,37.0468,1.17407,0,0,0,0,0,0,0,-1,1833,1352,37.0468,-1.17407
616,-328,36.999,2.42859,0,0,0,0,0,0,0,-1,1840,1352,36.999,-2.42862
623,-328,34.345,5.14722,0,0,0,0,0,0,0,-1,1847,1352,34.3449,-5.14718
630,-328,22.0211,5.026,0,0,0,0,0,0,0,-1,1854,1352,22.0212,-5.02603
637,-328,21.15,5.53699,0,0,0,0,0,0,0,-1,1861,1352,21.15,-5.53704
644,-328,16.9579,6.3396,0,0,0,0,0,0,0,-1,1868,1352,16.9579,-6.33959
651,-328,35.2872,14.1858,0,0,0,0,0,0,0,-1,1875,1352,35.2872,-14.1857
658,-328,35.0626,13.677,-0.0017171,0.00188141,-0.000593713,0.00197683,-0.00181253,-1.41143,0.00218848,0.0488461,1882,1352,35.0626,-13.6771
665,-328,35.0676,13.1079,0.000491583,-0.000188206,0.000227778,0.000560847,-0.00025747,0.295203,0.000483157,0.0150219,1889,1352,35.0677,-13.108
672,-328,35.0258,12.5565,0.00073818,-0.000400243,9.54513e-05,0.000746127,-0.00040819,0.0830723,0.000675899,0.0122995,1896,1352,35.0258,-12.5565
679,-328,35.0143,11.9862,0.000947899,-0.000274754,4.79207e-06,0.000947918,-0.000274772,0.00391932,0.000740724,0.0138412,1903,1352,35.0142,-11.9862
686,-328,34.9895,11.4279,0.00105391,-0.000227242,8.56239e-06,0.00105396,-0.0002273,0.00668296,0.000789394,0.0142902,1910,1352,34.9895,-11.4278
693,-328,34.9618,10.8944,0.00107038,-0.000173145,6.75722e-05,0.00107404,-0.000176806,0.054127,0.000781654,0.0107196,1917,1352,34.9618,-10.8944
700,-328,34.9612,10.3239,0.000982429,-0.000185066,0.000224317,0.00102404,-0.000226682,0.183437,0.000769469,0.0148982,1924,1352,34.9612,-10.3238
707,-328,34.9658,9.7738,0.00070465,-0.000275659,0.000521823,0.000930422,-0.000501431,0.408341,0.000838957,0.0165605,1931,1352,34.9659,-9.77384
714,-328,34.9331,9.22217,0.000194528,-0.000511015,0.00101065,0.000912202,-0.00122869,0.617482,0.00124054,0.0170287,1938,1352,34.9331,-9.22212
721,-328,34.9058,8.54102,0,0,0,0,0,0,0,-1,1945,1352,34.9058,-8.54107
728,-328,29.2787,6.74695,0,0,0,0,0,0,0,-1,1952,1352,29.2787,-6.74693
735,-328,20.8927,5.23523,0,0,0,0,0,0,0,-1,1959,1352,20.8927,-5.23528
742,-328,20.3547,4.11316,0,0,0,0,0,0,0,-1,1966,1352,20.3547,-4.11321
749,-328,20.0669,5.66321,0,0,0,0,0,0,0,-1,1973,1352,20.0669,-5.66319
756,-328,19.9543,5.50464,0,0,0,0,0,0,0,-1,1980,1352,19.9543,-5.50463
763,-328,0,0,0,0,0,0,0,0,0,-1,1987,1352,0,0
770,-328,0,0,0,0,0,0,0,0,0,-1,1994,1352,0,0
777,-328,0,0,0,0,0,0,0,0,0,-1,2001,1352,0,0
784,-328,0,0,0,0,0,0,0,0,0,-1,2008,1352,0,0
791,-328,0,0,0,0,0,0,0,0,0,-1,2015,1352,0,0
798,-328,0,0,0,0,0,0,0,0,0,-1,2022,1352,0,0
805,-328,0,0,0,0,0,0,0,0,0,-1,2029,1352,0,0
812,-328,0,0,0,0,0,0,0,0,0,-1,2036,1352,0,0
-700,-335,0,0,0,0,0,0,0,0,0,-1,524,1359,0,0
-693,-335,0,0,0,0,0,0,0,0,0,-1,531,1359,0,0
-686,-335,0,0,0,0,0,0,0,0,0,-1,538,1359,0,0
-679,-335,0,0,0,0,0,0,0,0,0,-1,545,1359,0,0
-672,-335,0,0,0,0,0,0,0,0,0,-1,552,1359,0,0
-665,-335,0,0,0,0,0,0,0,0,0,-1,559,1359,0,0
-658,-335,0,0,0,0,0,0,0,0,0,-1,566,1359,0,0
-651,-335,0,0,0,0,0,0,0,0,0,-1,573,1359,0,0
-644,-335,0,0,0,0,0,0,0,0,0,-1,580,1359,0,0
-637,-335,-9.64746,3.53809,0,0,0,0,0,0,0,-1,587,1359,-9.64744,-3.53803
-630,-335,-6.07397,-2.99902,0,0,0,0,0,0,0,-1,594,1359,-6.07397,2.99902
-623,-335,-8.43304,1.09509,0,0,0,0,0,0,0,-1,601,1359,-8.43301,-1.09507
-616,-335,-7.80927,-0.485352,0,0,0,0,0,0,0,-1,608,1359,-7.80926,0.485291
-609,-335,-7.12256,-2.03601,0,0,0,0,0,0,0,-1,615,1359,-7.12253,2.03601
-602,-335,-9.39935,2.25146,0,0,0,0,0,0,0,-1,622,1359,-9.39935,-2.25145
-595,-335,-9.54767,3.01917,0,0,0,0,0,0,0,-1,629,1359,-9.54768,-3.01911
-588,-335,-19.2454,6.21033,0,0,0,0,0,0,0,-1,636,1359,-19.2454,-6.21032
-581,-335,-19.0851,7.10645,0.00454933,0.00202449,0.00234858,0.00595328,0.000620538,0.538791,0.00377903,0.0446038,643,1359,-19.0851,-7.10645
-574,-335,-19.1003,7.65198,0.00337428,0.0015189,0.00170194,0.00438494,0.000508244,0.535869,0.00276947,0.0138759,650,1359,-19.1003,-7.65203
-567,-335,-19.0876,8.28967,0.00271561,0.00110284,0.00128348,0.003425,0.000393449,0.504922,0.00216414,0.0172934,657,1359,-19.0876,-8.28968
-560,-335,-19.0695,8.88171,0.00243849,0.0007854,0.00105049,0.00294863,0.000275266,0.452073,0.00188072,0.0255551,664,1359,-19.0695,-8.88174
-553,-335,-19.1659,9.48389,0.00244248,0.000533395,0.000964724,0.00284508,0.000130792,0.395351,0.00185466,0.0289727,671,1359,-19.1659,-9.48394
-546,-335,-19.2365,10.069,0.0027202,0.000347314,0.00101502,0.00309514,-2.76223e-05,0.353843,0.00207269,0.0267485,678,1359,-19.2364,-10.0689
-539,-335,-19.2324,10.634,0.00326388,0.000229335,0.00120846,0.00368632,-0.000193106,0.336292,0.00252438,0.0207657,685,1359,-19.2324,-10.634
-532,-335,-19.2377,11.2766,0.00414026,0.000211944,0.00157849,0.00469593,-0.000343726,0.33848,0.00325126,0.0149054,692,1359,-19.2377,-11.2766
-525,-335,-19.1882,11.9073,0.00529413,0.000228817,0.00209848,0.00605054,-0.000527593,0.345959,0.00422057,0.012245,699,1359,-19.1883,-11.9073
-518,-335,-19.2784,12.4626,0,0,0,0,0,0,0,-1,706,1359,-19.2784,-12.4627
-511,-335,-17.3098,11.6718,0,0,0,0,0,0,0,-1,713,1359,-17.3097,-11.6717
-504,-335,-9.35767,5.99695,0,0,0,0,0,0,0,-1,720,1359,-9.35767,-5.99694
-497,-335,-8.75024,-0.650513,0,0,0,0,0,0,0,-1,727,1359,-8.75024,0.650521
-490,-335,-9.51971,0.417603,0,0,0,0,0,0,0,-1,734,1359,-9.51974,-0.41765
-483,-335,-10.2883,1.29224,0,0,0,0,0,0,0,-1,741,1359,-10.2883,-1.2922
-476,-335,-11.9938,-0.173462,0,0,0,0,0,0,0,-1,748,1359,-11.9938,0.173429
-469,-335,-12.8704,-0.204102,0,0,0,0,0,0,0,-1,755,1359,-12.8704,0.204117
-462,-335,-13.486,0.0218506,0,0,0,0,0,0,0,-1,762,1359,-13.4859,-0.0217908
-455,-335,-14.1504,0.549561,0,0,0,0,0,0,0,-1,769,1359,-14.1504,-0.549583
-448,-335,0,0,0,0,0,0,0,0,0,-1,776,1359,0,0
-441,-335,0,0,0,0,0,0,0,0,0,-1,783,1359,0,0
-434,-335,0,0,0,0,0,0,0,0,0,-1,790,1359,0,0
-427,-335,0,0,0,0,0,0,0,0,0,-1,797,1359,0,0
-420,-335,0,0,0,0,0,0,0,0,0,-1,804,1359,0,0
-413,-335,0,0,0,0,0,0,0,0,0,-1,811,1359,0,0
-406,-335,0,0,0,0,0,0,0,0,0,-1,818,1359,0,0
-399,-335,0,0,0,0,0,0,0,0,0,-1,825,1359,0,0
-392,-335,0,0,0,0,0,0,0,0,0,-1,832,1359,0,0
-385,-335,0,0,0,0,0,0,0,0,0,-1,839,1359,0,0
-378,-335,0,0,0,0,0,0,0,0,0,-1,846,1359,0,0
-371,-335,0,0,0,0,0,0,0,0,0,-1,853,1359,0,0
-364,-335,0,0,0,0,0,0,0,0,0,-1,860,1359,0,0
-357,-335,0,0,0,0,0,0,0,0,0,-1,867,1359,0,0
-350,-335,0,0,0,0,0,0,0,0,0,-1,874,1359,0,0
-343,-335,0,0,0,0,0,0,0,0,0,-1,881,1359,0,0
-336,-335,0,0,0,0,0,0,0,0,0,-1,888,1359,0,0
-329,-335,0,0,0,0,0,0,0,0,0,-1,895,1359,0,0
-322,-335,0,0,0,0,0,0,0,0,0,-1,902,1359,0,0
-315,-335,0,0,0,0,0,0,0,0,0,-1,909,1359,0,0
-308,-335,0,0,0,0,0,0,0,0,0,-1,916,1359,0,0
-301,-335,0,0,0,0,0,0,0,0,0,-1,923,1359,0,0
-294,-335,0,0,0,0,0,0,0,0,0,-1,930,1359,0,0
-287,-335,0,0,0,0,0,0,0,0,0,-1,937,1359,0,0
-280,-335,0,0,0,0,0,0,0,0,0,-1,944,1359,0,0
-273,-335,0,0,0,0,0,0,0,0,0,-1,951,1359,0,0
-266,-335,0,0,0,0,0,0,0,0,0,-1,958,1359,0,0
-259,-335,0,0,0,0,0,0,0,0,0,-1,965,1359,0,0
-252,-335,0,0,0,0,0,0,0,0,0,-1,972,1359,0,0
-245,-335,0,0,0,0,0,0,0,0,0,-1,979,1359,0,0
-238,-335,0,0,0,0,0,0,0,0,0,-1,986,1359,0,0
-231,-335,0,0,0,0,0,0,0,0,0,-1,993,1359,0,0
-224,-335,0,0,0,0,0,0,0,0,0,-1,1000,1359,0,0
-217,-335,0,0,0,0,0,0,0,0,0,-1,1007,1359,0,0
-210,-335,0,0,0,0,0,0,0,0,0,-1,1014,1359,0,0
-203,-335,0,0,0,0,0,0,0,0,0,-1,1021,1359,0,0
-196,-335,0,0,0,0,0,0,0,0,0,-1,1028,1359,0,0
-189,-335,0,0,0,0,0,0,0,0,0,-1,1035,1359,0,0
-182,-335,0,0,0,0,0,0,0,0,0,-1,1042,1359,0,0
-175,-335,0,0,0,0,0,0,0,0,0,-1,1049,1359,0,0
-168,-335,0,0,0,0,0,0,0,0,0,-1,1056,1359,0,0
-161,-335,0,0,0,0,0,0,0,0,0,-1,1063,1359,0,0
-154,-335,0,0,0,0,0,0,0,0,0,-1,1070,1359,0,0
-147,-335,0,0,0,0,0,0,0,0,0,-1,1077,1359,0,0
-140,-335,0,0,0,0,0,0,0,0,0,-1,1084,1359,0,0
-133,-335,0,0,0,0,0,0,0,0,0,-1,1091,1359,0,0
-126,-335,0,0,0,0,0,0,0,0,0,-1,1098,1359,0,0
-119,-335,0,0,0,0,0,0,0,0,0,-1,1105,1359,0,0
-112,-335,0,0,0,0,0,0,0,0,0,-1,1112,1359,0,0
-105,-335,0,0,0,0,0,0,0,0,0,-1,1119,1359,0,0
-98,-335,0,0,0,0,0,0,0,0,0,-1,1126,1359,0,0
-91,-335,0,0,0,0,0,0,0,0,0,-1,1133,1359,0,0
-84,-335,0,0,0,0,0,0,0,0,0,-1,1140,1359,0,0
-77,-335,0,0,0,0,0,0,0,0,0,-1,1147,1359,0,0
-70,-335,0,0,0,0,0,0,0,0,0,-1,1154,1359,0,0
-63,-335,0,0,0,0,0,0,0,0,0,-1,1161,1359,0,0
-56,-335,0,0,0,0,0,0,0,0,0,-1,1168,1359,0,0
-49,-335,0,0,0,0,0,0,0,0,0,-1,1175,1359,0,0
-42,-335,0,0,0,0,0,0,0,0,0,-1,1182,1359,0,0
-35,-335,0,0,0,0,0,0,0,0,0,-1,1189,1359,0,0
-28,-335,0,0,0,0,0,0,0,0,0,-1,1196,1359,0,0
-21,-335,0,0,0,0,0,0,0,0,0,-1,1203,1359,0,0
-14,-335,0,0,0,0,0,0,0,0,0,-1,1210,1359,0,0
-7,-335,0,0,0,0,0,0,0,0,0,-1,1217,1359,0,0
0,-335,0,0,0,0,0,0,0,0,0,-1,1224,1359,0,0
7,-335,0,0,0,0,0,0,0,0,0,-1,1231,1359,0,0
14,-335,0,0,0,0,0,0,0,0,0,-1,1238,1359,0,0
21,-335,0,0,0,0,0,0,0,0,0,-1,1245,1359,0,0
28,-335,0,0,0,0,0,0,0,0,0,-1,1252,1359,0,0
35,-335,0,0,0,0,0,0,0,0,0,-1,1259,1359,0,0
42,-335,0,0,0,0,0,0,0,0,0,-1,1266,1359,0,0
49,-335,0,0,0,0,0,0,0,0,0,-1,1273,1359,0,0
56,-335,0,0,0,0,0,0,0,0,0,-1,1280,1359,0,0
63,-335,0,0,0,0,0,0,0,0,0,-1,1287,1359,0,0
70,-335,0,0,0,0,0,0,0,0,0,-1,1294,1359,0,0
77,-335,0,0,0,0,0,0,0,0,0,-1,1301,1359,0,0
84,-335,0,0,0,0,0,0,0,0,0,-1,1308,1359,0,0
91,-335,0,0,0,0,0,0,0,0,0,-1,1315,1359,0,0
98,-335,0,0,0,0,0,0,0,0,0,-1,1322,1359,0,0
105,-335,0,0,0,0,0,0,0,0,0,-1,1329,1359,0,0
112,-335,0,0,0,0,0,0,0,0,0,-1,1336,1359,0,0
119,-335,0,0,0,0,0,0,0,0,0,-1,1343,1359,0,0
126,-335,0,0,0,0,0,0,0,0,0,-1,1350,1359,0,0
133,-335,0,0,0,0,0,0,0,0,0,-1,1357,1359,0,0
140,-335,0,0,0,0,0,0,0,0,0,-1,1364,1359,0,0
147,-335,0,0,0,0,0,0,0,0,0,-1,1371,1359,0,0
154,-335,0,0,0,0,0,0,0,0,0,-1,1378,1359,0,0
161,-335,0,0,0,0,0,0,0,0,0,-1,1385,1359,0,0
168,-335,0,0,0,0,0,0,0,0,0,-1,1392,1359,0,0
175,-335,0,0,0,0,0,0,0,0,0,-1,1399,1359,0,0
182,-335,0,0,0,0,0,0,0,0,0,-1,1406,1359,0,0
189,-335,0,0,0,0,0,0,0,0,0,-1,1413,1359,0,0
196,-335,0,0,0,0,0,0,0,0,0,-1,1420,1359,0,0
203,-335,0,0,0,0,0,0,0,0,0,-1,1427,1359,0,0
210,-335,0,0,0,0,0,0,0,0,0,-1,1434,1359,0,0
217,-335,0,0,0,0,0,0,0,0,0,-1,1441,1359,0,0
224,-335,0,0,0,0,0,0,0,0,0,-1,1448,1359,0,0
231,-335,0,0,0,0,0,0,0,0,0,-1,1455,1359,0,0
238,-335,0,0,0,0,0,0,0,0,0,-1,1462,1359,0,0
245,-335,0,0,0,0,0,0,0,0,0,-1,1469,1359,0,0
252,-335,0,0,0,0,0,0,0,0,0,-1,1476,1359,0,0
259,-335,0,0,0,0,0,0,0,0,0,-1,1483,1359,0,0
266,-335,0,0,0,0,0,0,0,0,0,-1,1490,1359,0,0
273,-335,0,0,0,0,0,0,0,0,0,-1,1497,1359,0,0
280,-335,0,0,0,0,0,0,0,0,0,-1,1504,1359,0,0
287,-335,0,0,0,0,0,0,0,0,0,-1,1511,1359,0,0
294,-335,0,0,0,0,0,0,0,0,0,-1,1518,1359,0,0
301,-335,0,0,0,0,0,0,0,0,0,-1,1525,1359,0,0
308,-335,0,0,0,0,0,0,0,0,0,-1,1532,1359,0,0
315,-335,0,0,0,0,0,0,0,0,0,-1,1539,1359,0,0
322,-335,0,0,0,0,0,0,0,0,0,-1,1546,1359,0,0
329,-335,0,0,0,0,0,0,0,0,0,-1,1553,1359,0,0
336,-335,0,0,0,0,0,0,0,0,0,-1,1560,1359,0,0
343,-335,0,0,0,0,0,0,0,0,0,-1,1567,1359,0,0
350,-335,0,0,0,0,0,0,0,0,0,-1,1574,1359,0,0
357,-335,0,0,0,0,0,0,0,0,0,-1,1581,1359,0,0
364,-335,0,0,0,0,0,0,0,0,0,-1,1588,1359,0,0
371,-335,0,0,0,0,0,0,0,0,0,-1,1595,1359,0,0
378,-335,0,0,0,0,0,0,0,0,0,-1,1602,1359,0,0
385,-335,0,0,0,0,0,0,0,0,0,-1,1609,1359,0,0
392,-335,0,0,0,0,0,0,0,0,0,-1,1616,1359,0,0
399,-335,0,0,0,0,0,0,0,0,0,-1,1623,1359,0,0
406,-335,0,0,0,0,0,0,0,0,0,-1,1630,1359,0,0
413,-335,0,0,0,0,0,0,0,0,0,-1,1637,1359,0,0
420,-335,0,0,0,0,0,0,0,0,0,-1,1644,1359,0,0
427,-335,0,0,0,0,0,0,0,0,0,-1,1651,1359,0,0
434,-335,0,0,0,0,0,0,0,0,0,-1,1658,1359,0,0
441,-335,0,0,0,0,0,0,0,0,0,-1,1665,1359,0,0
448,-335,0,0,0,0,0,0,0,0,0,-1,1672,1359,0,0
455,-335,0,0,0,0,0,0,0,0,0,-1,1679,1359,0,0
462,-335,0,0,0,0,0,0,0,0,0,-1,1686,1359,0,0
469,-335,0,0,0,0,0,0,0,0,0,-1,1693,1359,0,0
476,-335,0,0,0,0,0,0,0,0,0,-1,1700,1359,0,0
483,-335,0,0,0,0,0,0,0,0,0,-1,1707,1359,0,0
490,-335,0,0,0,0,0,0,0,0,0,-1,1714,1359,0,0
497,-335,0,0,0,0,0,0,0,0,0,-1,1721,1359,0,0
504,-335,0,0,0,0,0,0,0,0,0,-1,1728,1359,0,0
511,-335,0,0,0,0,0,0,0,0,0,-1,1735,1359,0,0
518,-335,0,0,0,0,0,0,0,0,0,-1,1742,1359,0,0
525,-335,0,0,0,0,0,0,0,0,0,-1,1749,1359,0,0
532,-335,0,0,0,0,0,0,0,0,0,-1,1756,1359,0,0
539,-335,0,0,0,0,0,0,0,0,0,-1,1763,1359,0,0
546,-335,0,0,0,0,0,0,0,0,0,-1,1770,1359,0,0
553,-335,0,0,0,0,0,0,0,0,0,-1,1777,1359,0,0
560,-335,0,0,0,0,0,0,0,0,0,-1,1784,1359,0,0
567,-335,0,0,0,0,0,0,0,0,0,-1,1791,1359,0,0
574,-335,44.5405,5.74219,0,0,0,0,0,0,0,-1,1798,1359,44.5406,-5.74224
581,-335,44.1571,6.41992,0,0,0,0,0,0,0,-1,1805,1359,44.1571,-6.41989
588,-335,50.7247,4.16223,0,0,0,0,0,0,0,-1,1812,1359,50.7247,-4.16227
595,-335,49.984,3.76465,0,0,0,0,0,0,0,-1,1819,1359,49.984,-3.76467
602,-335,36.5643,0.0861816,0,0,0,0,0,0,0,-1,1826,1359,36.5643,-0.0862283
609,-335,36.2933,0.993896,0,0,0,0,0,0,0,-1,1833,1359,36.2934,-0.993911
616,-335,34.6969,4.82666,0,0,0,0,0,0,0,-1,1840,1359,34.6969,-4.82667
623,-335,26.6051,6.54333,0,0,0,0,0,0,0,-1,1847,1359,26.6051,-6.54339
630,-335,19.1707,1.00952,0,0,0,0,0,0,0,-1,1854,1359,19.1707,-1.00953
637,-335,18.2009,6.65454,0,0,0,0,0,0,0,-1,1861,1359,18.2009,-6.6546
644,-335,28.1042,12.067,0,0,0,0,0,0,0,-1,1868,1359,28.1042,-12.067
651,-335,34.4412,14.3453,0,0,0,0,0,0,0,-1,1875,1359,34.4412,-14.3453
658,-335,34.4937,13.7219,-0.00103516,0.00074749,-0.000504737,0.000880479,-0.00116815,-1.31317,0.00118666,0.0304366,1882,1359,34.4936,-13.722
665,-335,34.5283,13.1283,0.000496108,-0.000244034,4.2889e-05,0.000498586,-0.000246511,0.0576896,0.000438311,0.0156544,1889,1359,34.5283,-13.1283
672,-335,34.4993,12.5635,0.000790082,-0.000245452,-4.59364e-05,0.000792116,-0.000247486,-0.0442443,0.000627069,0.0173049,1896,1359,34.4992,-12.5634
679,-335,34.4622,12.0244,0.00107443,-0.000187645,-0.00012375,0.00108645,-0.000199665,-0.0968241,0.00079921,0.0144595,1903,1359,34.4621,-12.0244
686,-335,34.4685,11.4414,0.00129958,-0.000162743,-0.000150854,0.00131498,-0.000178143,-0.101733,0.000941667,0.0128277,1910,1359,34.4685,-11.4414
693,-335,34.4385,10.9016,0.00148695,-0.000108922,-0.000157674,0.00150238,-0.000124351,-0.0975445,0.00104551,0.0111301,1917,1359,34.4385,-10.9016
700,-335,34.4126,10.3754,0.00159967,-8.90699e-05,-9.93201e-05,0.00160549,-9.48912e-05,-0.0585441,0.00110332,0.0116276,1924,1359,34.4126,-10.3754
707,-335,34.4055,9.82117,0.00151172,-0.000128485,9.47845e-05,0.00151718,-0.000133944,0.0575331,0.00105893,0.0152835,1931,1359,34.4056,-9.82119
714,-335,34.4037,9.17468,0.00123386,-0.000301734,0.000462118,0.0013622,-0.000430076,0.270898,0.00108041,0.0374847,1938,1359,34.4037,-9.17465
721,-335,34.3232,8.44727,0,0,0,0,0,0,0,-1,1945,1359,34.3233,-8.4473
728,-335,20.8126,5.21167,0,0,0,0,0,0,0,-1,1952,1359,20.8127,-5.21172
735,-335,20.2725,5.34729,0,0,0,0,0,0,0,-1,1959,1359,20.2724,-5.34734
742,-335,19.8624,4.72229,0,0,0,0,0,0,0,-1,1966,1359,19.8624,-4.72225
749,-335,20.5887,6.05322,0,0,0,0,0,0,0,-1,1973,1359,20.5887,-6.05322
756,-335,20.7832,6.00452,0,0,0,0,0,0,0,-1,1980,1359,20.7832,-6.00447
763,-335,0,0,0,0,0,0,0,0,0,-1,1987,1359,0,0
770,-335,0,0,0,0,0,0,0,0,0,-1,1994,1359,0,0
777,-335,0,0,0,0,0,0,0,0,0,-1,2001,1359,0,0
784,-335,0,0,0,0,0,0,0,0,0,-1,2008,1359,0,0
791,-335,0,0,0,0,0,0,0,0,0,-1,2015,1359,0,0
798,-335,0,0,0,0,0,0,0,0,0,-1,2022,1359,0,0
805,-335,0,0,0,0,0,0,0,0,0,-1,2029,1359,0,0
812,-335,0,0,0,0,0,0,0,0,0,-1,2036,1359,0,0
-700,-342,0,0,0,0,0,0,0,0,0,-1,524,1366,0,0
-693,-342,0,0,0,0,0,0,0,0,0,-1,531,1366,0,0
-686,-342,0,0,0,0,0,0,0,0,0,-1,538,1366,0,0
-679,-342,0,0,0,0,0,0,0,0,0,-1,545,1366,0,0
-672,-342,0,0,0,0,0,0,0,0,0,-1,552,1366,0,0
-665,-342,0,0,0,0,0,0,0,0,0,-1,559,1366,0,0
-658,-342,0,0,0,0,0,0,0,0,0,-1,566,1366,0,0
-651,-342,0,0,0,0,0,0,0,0,0,-1,573,1366,0,0
-644,-342,0,0,0,0,0,0,0,0,0,-1,580,1366,0,0
-637,-342,-8.67786,-4.58557,0,0,0,0,0,0,0,-1,587,1366,-8.67788,4.5856
-630,-342,-8.60132,2.71777,0,0,0,0,0,0,0,-1,594,1366,-8.60135,-2.71779
-623,-342,-8.41168,0.662476,0,0,0,0,0,0,0,-1,601,1366,-8.41168,-0.662442
-616,-342,-6.625,-1.28015,0,0,0,0,0,0,0,-1,608,1366,-6.62499,1.28011
-609,-342,-7.83154,0.674561,0,0,0,0,0,0,0,-1,615,1366,-7.83155,-0.674598
-602,-342,-9.65765,2.25195,0,0,0,0,0,0,0,-1,622,1366,-9.65767,-2.25192
-595,-342,-9.47687,3.00671,0,0,0,0,0,0,0,-1,629,1366,-9.47686,-3.00668
-588,-342,-9.78467,3.57727,0,0,0,0,0,0,0,-1,636,1366,-9.78468,-3.57723
-581,-342,-18.6351,7.12292,0,0,0,0,0,0,0,-1,643,1366,-18.6351,-7.12291
-574,-342,-18.5415,7.6969,0.00362787,0.00147018,0.00173787,0.00459453,0.000503512,0.507617,0.00290974,0.0157243,650,1366,-18.5415,-7.69694
-567,-342,-18.4792,8.31738,0.00284352,0.00109178,0.00130265,0.00353737,0.000397922,0.489425,0.00223743,0.0177874,657,1366,-18.4792,-8.31741
-560,-342,-18.5284,8.88696,0.00249154,0.000809981,0.00105228,0.00299769,0.000303836,0.44833,0.00190527,0.027056,664,1366,-18.5285,-8.88692
-553,-342,-18.5999,9.45264,0.00242585,0.000593792,0.000953478,0.00283203,0.000187615,0.402713,0.00182869,0.03002,671,1366,-18.5999,-9.4526
-546,-342,-18.618,10.0585,0.00262087,0.000447702,0.000985536,0.00300124,6.73346e-05,0.368336,0.00197876,0.0295916,678,1366,-18.618,-10.0585
-539,-342,-18.6432,10.6721,0.0030534,0.000362905,0.00114049,0.00347179,-5.5483e-05,0.351606,0.00233324,0.024293,685,1366,-18.6432,-10.6721
-532,-342,-18.6479,11.3241,0.00377838,0.000366498,0.00145391,0.00431389,-0.000169009,0.352903,0.00293388,0.0176912,692,1366,-18.648,-11.3241
-525,-342,-18.5984,11.944,0.00475543,0.000436062,0.001908,0.00547753,-0.000286039,0.361801,0.00375067,0.0131194,699,1366,-18.5984,-11.944
-518,-342,-18.5439,12.5566,0.00605838,0.000767428,0.00255998,0.00709421,-0.000268404,0.384488,0.00482143,0.0345176,706,1366,-18.544,-12.5566
-511,-342,-18.5355,13.1564,0,0,0,0,0,0,0,-1,713,1366,-18.5354,-13.1564
-504,-342,-8.95709,6.5719,0,0,0,0,0,0,0,-1,720,1366,-8.95707,-6.57192
-497,-342,-8.26587,-0.943604,0,0,0,0,0,0,0,-1,727,1366,-8.26586,0.943543
-490,-342,-9.07153,-0.0227051,0,0,0,0,0,0,0,-1,734,1366,-9.07155,0.0227087
-483,-342,-9.87726,0.898071,0,0,0,0,0,0,0,-1,741,1366,-9.87724,-0.898125
-476,-342,-11.6371,-0.736328,0,0,0,0,0,0,0,-1,748,1366,-11.6371,0.736281
-469,-342,-12.6245,-0.987549,0,0,0,0,0,0,0,-1,755,1366,-12.6245,0.987553
-462,-342,-13.0912,-0.533203,0,0,0,0,0,0,0,-1,762,1366,-13.0912,0.533224
-455,-342,-13.7612,0.122925,0,0,0,0,0,0,0,-1,769,1366,-13.7612,-0.122896
-448,-342,-14.5278,0.826904,0,0,0,0,0,0,0,-1,776,1366,-14.5277,-0.826861
-441,-342,0,0,0,0,0,0,0,0,0,-1,783,1366,0,0
-434,-342,0,0,0,0,0,0,0,0,0,-1,790,1366,0,0
-427,-342,0,0,0,0,0,0,0,0,0,-1,797,1366,0,0
-420,-342,0,0,0,0,0,0,0,0,0,-1,804,1366,0,0
-413,-342,0,0,0,0,0,0,0,0,0,-1,811,1366,0,0
-406,-342,0,0,0,0,0,0,0,0,0,-1,818,1366,0,0
-399,-342,0,0,0,0,0,0,0,0,0,-1,825,1366,0,0
-392,-342,0,0,0,0,0,0,0,0,0,-1,832,1366,0,0
-385,-342,0,0,0,0,0,0,0,0,0,-1,839,1366,0,0
-378,-342,0,0,0,0,0,0,0,0,0,-1,846,1366,0,0
-371,-342,0,0,0,0,0,0,0,0,0,-1,853,1366,0,0
-364,-342,0,0,0,0,0,0,0,0,0,-1,860,1366,0,0
-357,-342,0,0,0,0,0,0,0,0,0,-1,867,1366,0,0
-350,-342,0,0,0,0,0,0,0,0,0,-1,874,1366,0,0
-343,-342,0,0,0,0,0,0,0,0,0,-1,881,1366,0,0
-336,-342,0,0,0,0,0,0,0,0,0,-1,888,1366,0,0
-329,-342,0,0,0,0,0,0,0,0,0,-1,895,1366,0,0
-322,-342,0,0,0,0,0,0,0,0,0,-1,902,1366,0,0
-315,-342,0,0,0,0,0,0,0,0,0,-1,909,1366,0,0
-308,-342,0,0,0,0,0,0,0,0,0,-1,916,1366,0,0
-301,-342,0,0,0,0,0,0,0,0,0,-1,923,1366,0,0
-294,-342,0,0,0,0,0,0,0,0,0,-1,930,1366,0,0
-287,-342,0,0,0,0,0,0,0,0,0,-1,937,1366,0,0
-280,-342,0,0,0,0,0,0,0,0,0,-1,944,1366,0,0
-273,-342,0,0,0,0,0,0,0,0,0,-1,951,1366,0,0
-266,-342,0,0,0,0,0,0,0,0,0,-1,958,1366,0,0
-259,-342,0,0,0,0,0,0,0,0,0,-1,965,1366,0,0
-252,-342,0,0,0,0,0,0,0,0,0,-1,972,1366,0,0
-245,-342,0,0,0,0,0,0,0,0,0,-1,979,1366,0,0
-238,-342,0,0,0,0,0,0,0,0,0,-1,986,1366,0,0
-231,-342,0,0,0,0,0,0,0,0,0,-1,993,1366,0,0
-224,-342,0,0,0,0,0,0,0,0,0,-1,1000,1366,0,0
-217,-342,0,0,0,0,0,0,0,0,0,-1,1007,1366,0,0
-210,-342,0,0,0,0,0,0,0,0,0,-1,1014,1366,0,0
-203,-342,0,0,0,0,0,0,0,0,0,-1,1021,1366,0,0
-196,-342,0,0,0,0,0,0,0,0,0,-1,1028,1366,0,0
-189,-342,0,0,0,0,0,0,0,0,0,-1,1035,1366,0,0
-182,-342,0,0,0,0,0,0,0,0,0,-1,1042,1366,0,0
-175,-342,0,0,0,0,0,0,0,0,0,-1,1049,1366,0,0
-168,-342,0,0,0,0,0,0,0,0,0,-1,1056,1366,0,0
-161,-342,0,0,0,0,0,0,0,0,0,-1,1063,1366,0,0
-154,-342,0,0,0,0,0,0,0,0,0,-1,1070,1366,0,0
-147,-342,0,0,0,0,0,0,0,0,0,-1,1077,1366,0,0
-140,-342,0,0,0,0,0,0,0,0,0,-1,1084,1366,0,0
-133,-342,0,0,0,0,0,0,0,0,0,-1,1091,1366,0,0
-126,-342,0,0,0,0,0,0,0,0,0,-1,1098,1366,0,0
-119,-342,0,0,0,0,0,0,0,0,0,-1,1105,1366,0,0
-112,-342,0,0,0,0,0,0,0,0,0,-1,1112,1366,0,0
-105,-342,0,0,0,0,0,0,0,0,0,-1,1119,1366,0,0
-98,-342,0,0,0,0,0,0,0,0,0,-1,1126,1366,0,0
-91,-342,0,0,0,0,0,0,0,0,0,-1,1133,1366,0,0
-84,-342,0,0,0,0,0,0,0,0,0,-1,1140,1366,0,0
-77,-342,0,0,0,0,0,0,0,0,0,-1,1147,1366,0,0
-70,-342,0,0,0,0,0,0,0,0,0,-1,1154,1366,0,0
-63,-342,0,0,0,0,0,0,0,0,0,-1,1161,1366,0,0
-56,-342,0,0,0,0,0,0,0,0,0,-1,1168,1366,0,0
-49,-342,0,0,0,0,0,0,0,0,0,-1,1175,1366,0,0
-42,-342,0,0,0,0,0,0,0,0,0,-1,1182,1366,0,0
-35,-342,0,0,0,0,0,0,0,0,0,-1,1189,1366,0,0
-28,-342,0,0,0,0,0,0,0,0,0,-1,1196,1366,0,0
-21,-342,0,0,0,0,0,0,0,0,0,-1,1203,1366,0,0
-14,-342,0,0,0,0,0,0,0,0,0,-1,1210,1366,0,0
-7,-342,0,0,0,0,0,0,0,0,0,-1,1217,1366,0,0
0,-342,0,0,0,0,0,0,0,0,0,-1,1224,1366,0,0
7,-342,0,0,0,0,0,0,0,0,0,-1,1231,1366,0,0
14,-342,0,0,0,0,0,0,0,0,0,-1,1238,1366,0,0
21,-342,0,0,0,0,0,0,0,0,0,-1,1245,1366,0,0
28,-342,0,0,0,0,0,0,0,0,0,-1,1252,1366,0,0
35,-342,0,0,0,0,0,0,0,0,0,-1,1259,1366,0,0
42,-342,0,0,0,0,0,0,0,0,0,-1,1266,1366,0,0
49,-342,0,0,0,0,0,0,0,0,0,-1,1273,1366,0,0
56,-342,0,0,0,0,0,0,0,0,0,-1,1280,1366,0,0
63,-342,0,0,0,0,0,0,0,0,0,-1,1287,1366,0,0
70,-342,0,0,0,0,0,0,0,0,0,-1,1294,1366,0,0
77,-342,0,0,0,0,0,0,0,0,0,-1,1301,1366,0,0
84,-342,0,0,0,0,0,0,0,0,0,-1,1308,1366,0,0
91,-342,0,0,0,0,0,0,0,0,0,-1,1315,1366,0,0
98,-342,0,0,0,0,0,0,0,0,0,-1,1322,1366,0,0
105,-342,0,0,0,0,0,0,0,0,0,-1,1329,1366,0,0
112,-342,0,0,0,0,0,0,0,0,0,-1,1336,1366,0,0
119,-342,0,0,0,0,0,0,0,0,0,-1,1343,1366,0,0
126,-342,0,0,0,0,0,0,0,0,0,-1,1350,1366,0,0
133,-342,0,0,0,0,0,0,0,0,0,-1,1357,1366,0,0
140,-342,0,0,0,0,0,0,0,0,0,-1,1364,1366,0,0
147,-342,0,0,0,0,0,0,0,0,0,-1,1371,1366,0,0
154,-342,0,0,0,0,0,0,0,0,0,-1,1378,1366,0,0
161,-342,0,0,0,0,0,0,0,0,0,-1,1385,1366,0,0
168,-342,0,0,0,0,0,0,0,0,0,-1,1392,1366,0,0
175,-342,0,0,0,0,0,0,0,0,0,-1,1399,1366,0,0
182,-342,0,0,0,0,0,0,0,0,0,-1,1406,1366,0,0
189,-342,0,0,0,0,0,0,0,0,0,-1,1413,1366,0,0
196,-342,0,0,0,0,0,0,0,0,0,-1,1420,1366,0,0
203,-342,0,0,0,0,0,0,0,0,0,-1,1427,1366,0,0
210,-342,0,0,0,0,0,0,0,0,0,-1,1434,1366,0,0
217,-342,0,0,0,0,0,0,0,0,0,-1,1441,1366,0,0
224,-342,0,0,0,0,0,0,0,0,0,-1,1448,1366,0,0
231,-342,0,0,0,0,0,0,0,0,0,-1,1455,1366,0,0
238,-342,0,0,0,0,0,0,0,0,0,-1,1462,1366,0,0
245,-342,0,0,0,0,0,0,0,0,0,-1,1469,1366,0,0
252,-342,0,0,0,0,0,0,0,0,0,-1,1476,1366,0,0
259,-342,0,0,0,0,0,0,0,0,0,-1,1483,1366,0,0
266,-342,0,0,0,0,0,0,0,0,0,-1,1490,1366,0,0
273,-342,0,0,0,0,0,0,0,0,0,-1,1497,1366,0,0
280,-342,0,0,0,0,0,0,0,0,0,-1,1504,1366,0,0
287,-342,0,0,0,0,0,0,0,0,0,-1,1511,1366,0,0
294,-342,0,0,0,0,0,0,0,0,0,-1,1518,1366,0,0
301,-342,0,0,0,0,0,0,0,0,0,-1,1525,1366,0,0
308,-342,0,0,0,0,0,0,0,0,0,-1,1532,1366,0,0
315,-342,0,0,0,0,0,0,0,0,0,-1,1539,1366,0,0
322,-342,0,0,0,0,0,0,0,0,0,-1,1546,1366,0,0
329,-342,0,0,0,0,0,0,0,0,0,-1,1553,1366,0,0
336,-342,0,0,0,0,0,0,0,0,0,-1,1560,1366,0,0
343,-342,0,0,0,0,0,0,0,0,0,-1,1567,1366,0,0
350,-342,0,0,0,0,0,0,0,0,0,-1,1574,1366,0,0
357,-342,0,0,0,0,0,0,0,0,0,-1,1581,1366,0,0
364,-342,0,0,0,0,0,0,0,0,0,-1,1588,1366,0,0
371,-342,0,0,0,0,0,0,0,0,0,-1,1595,1366,0,0
378,-342,0,0,0,0,0,0,0,0,0,-1,1602,1366,0,0
385,-342,0,0,0,0,0,0,0,0,0,-1,1609,1366,0,0
392,-342,0,0,0,0,0,0,0,0,0,-1,1616,1366,0,0
399,-342,0,0,0,0,0,0,0,0,0,-1,1623,1366,0,0
406,-342,0,0,0,0,0,0,0,0,0,-1,1630,1366,0,0
413,-342,0,0,0,0,0,0,0,0,0,-1,1637,1366,0,0
420,-342,0,0,0,0,0,0,0,0,0,-1,1644,1366,0,0
427,-342,0,0,0,0,0,0,0,0,0,-1,1651,1366,0,0
434,-342,0,0,0,0,0,0,0,0,0,-1,1658,1366,0,0
441,-342,0,0,0,0,0,0,0,0,0,-1,1665,1366,0,0
448,-342,0,0,0,0,0,0,0,0,0,-1,1672,1366,0,0
455,-342,0,0,0,0,0,0,0,0,0,-1,1679,1366,0,0
462,-342,0,0,0,0,0,0,0,0,0,-1,1686,1366,0,0
469,-342,0,0,0,0,0,0,0,0,0,-1,1693,1366,0,0
476,-342,0,0,0,0,0,0,0,0,0,-1,1700,1366,0,0
483,-342,0,0,0,0,0,0,0,0,0,-1,1707,1366,0,0
490,-342,0,0,0,0,0,0,0,0,0,-1,1714,1366,0,0
497,-342,0,0,0,0,0,0,0,0,0,-1,1721,1366,0,0
504,-342,0,0,0,0,0,0,0,0,0,-1,1728,1366,0,0
511,-342,0,0,0,0,0,0,0,0,0,-1,1735,1366,0,0
518,-342,0,0,0,0,0,0,0,0,0,-1,1742,1366,0,0
525,-342,0,0,0,0,0,0,0,0,0,-1,1749,1366,0,0
532,-342,0,0,0,0,0,0,0,0,0,-1,1756,1366,0,0
539,-342,0,0,0,0,0,0,0,0,0,-1,1763,1366,0,0
546,-342,0,0,0,0,0,0,0,0,0,-1,1770,1366,0,0
553,-342,0,0,0,0,0,0,0,0,0,-1,1777,1366,0,0
560,-342,0,0,0,0,0,0,0,0,0,-1,1784,1366,0,0
567,-342,42.6652,5.53748,0,0,0,0,0,0,0,-1,1791,1366,42.6652,-5.53752
574,-342,43.0466,5.95728,0,0,0,0,0,0,0,-1,1798,1366,43.0466,-5.9573
581,-342,43.4904,6.59937,0,0,0,0,0,0,0,-1,1805,1366,43.4903,-6.59938
588,-342,43.9108,7.22559,0,0,0,0,0,0,0,-1,1812,1366,43.9107,-7.22554
595,-342,35.7993,0.709961,0,0,0,0,0,0,0,-1,1819,1366,35.7993,-0.709913
602,-342,36.3618,3.28723,0,0,0,0,0,0,0,-1,1826,1366,36.3619,-3.28719
609,-342,35.3777,4.14978,0,0,0,0,0,0,0,-1,1833,1366,35.3777,-4.14976
616,-342,34.199,5.8158,0,0,0,0,0,0,0,-1,1840,1366,34.199,-5.81579
623,-342,26.0299,6.86865,0,0,0,0,0,0,0,-1,1847,1366,26.0299,-6.86863
630,-342,17.3431,0.773071,0,0,0,0,0,0,0,-1,1854,1366,17.3432,-0.773095
637,-342,16.196,6.76172,0,0,0,0,0,0,0,-1,1861,1366,16.1961,-6.76174
644,-342,31.8916,14.0614,0,0,0,0,0,0,0,-1,1868,1366,31.8916,-14.0613
651,-342,33.9297,14.2915,0,0,0,0,0,0,0,-1,1875,1366,33.9296,-14.2915
658,-342,33.9471,13.7001,-0.000270515,0.000259073,-0.000223582,0.000340841,-0.000352282,-1.22019,0.000400193,0.0212145,1882,1366,33.9471,-13.7001
665,-342,33.9578,13.0975,0.000529135,-0.000146268,-4.69738e-05,0.000532386,-0.000149519,-0.069106,0.000413867,0.0169875,1889,1366,33.9578,-13.0975
672,-342,33.933,12.5914,0.000898178,-0.000206718,-8.04471e-05,0.000904005,-0.000212545,-0.0723014,0.000684606,0.0133358,1896,1366,33.933,-12.5914
679,-342,33.9033,12.0706,0.00128252,-0.000223617,-0.000131928,0.00129399,-0.000235086,-0.0867137,0.000950758,0.012985,1903,1366,33.9033,-12.0706
686,-342,33.9314,11.5162,0.00164425,-0.000239148,-0.000169925,0.00165946,-0.000254356,-0.0892619,0.00120011,0.011873,1910,1366,33.9314,-11.5162
693,-342,33.8969,10.9612,0.00198557,-0.000224299,-0.000199122,0.00200336,-0.000242098,-0.089149,0.00142316,0.0124557,1917,1366,33.8969,-10.9612
700,-342,33.8514,10.4189,0.00228235,-0.000205098,-0.000198813,0.00229814,-0.000220888,-0.0792562,0.00161078,0.0142273,1924,1366,33.8515,-10.419
707,-342,33.8513,9.81152,0.00234664,-0.000227041,-6.52605e-05,0.0023483,-0.000228695,-0.0253351,0.00164706,0.0142767,1931,1366,33.8514,-9.81155
714,-342,33.8767,9.20068,0,0,0,0,0,0,0,-1,1938,1366,33.8768,-9.20063
721,-342,22.4666,6.08679,0,0,0,0,0,0,0,-1,1945,1366,22.4666,-6.08678
728,-342,19.8912,5.26636,0,0,0,0,0,0,0,-1,1952,1366,19.8913,-5.26636
735,-342,19.481,4.41968,0,0,0,0,0,0,0,-1,1959,1366,19.4809,-4.41962
742,-342,19.309,2.66943,0,0,0,0,0,0,0,-1,1966,1366,19.3089,-2.66948
749,-342,21.0934,6.47729,0,0,0,0,0,0,0,-1,1973,1366,21.0934,-6.4773
756,-342,0,0,0,0,0,0,0,0,0,-1,1980,1366,0,0
763,-342,0,0,0,0,0,0,0,0,0,-1,1987,1366,0,0
770,-342,0,0,0,0,0,0,0,0,0,-1,1994,1366,0,0
777,-342,0,0,0,0,0,0,0,0,0,-1,2001,1366,0,0
784,-342,0,0,0,0,0,0,0,0,0,-1,2008,1366,0,0
791,-342,0,0,0,0,0,0,0,0,0,-1,2015,1366,0,0
798,-342,0,0,0,0,0,0,0,0,0,-1,2022,1366,0,0
805,-342,0,0,0,0,0,0,0,0,0,-1,2029,1366,0,0
812,-342,0,0,0,0,0,0,0,0,0,-1,2036,1366,0,0
-700,-349,0,0,0,0,0,0,0,0,0,-1,524,1373,0,0
-693,-349,0,0,0,0,0,0,0,0,0,-1,531,1373,0,0
-686,-349,0,0,0,0,0,0,0,0,0,-1,538,1373,0,0
-679,-349,0,0,0,0,0,0,0,0,0,-1,545,1373,0,0
-672,-349,0,0,0,0,0,0,0,0,0,-1,552,1373,0,0
-665,-349,0,0,0,0,0,0,0,0,0,-1,559,1373,0,0
-658,-349,0,0,0,0,0,0,0,0,0,-1,566,1373,0,0
-651,-349,0,0,0,0,0,0,0,0,0,-1,573,1373,0,0
-644,-349,0,0,0,0,0,0,0,0,0,-1,580,1373,0,0
-637,-349,0,0,0,0,0,0,0,0,0,-1,587,1373,0,0
-630,-349,-7.64117,-5.06177,0,0,0,0,0,0,0,-1,594,1373,-7.64118,5.0618
-623,-349,-8.63507,0.51123,0,0,0,0,0,0,0,-1,601,1373,-8.63505,-0.511275
-616,-349,-5.2066,-0.188232,0,0,0,0,0,0,0,-1,608,1373,-5.20659,0.188211
-609,-349,-7.12073,1.37048,0,0,0,0,0,0,0,-1,615,1373,-7.12072,-1.37044
-602,-349,-9.00623,3.39587,0,0,0,0,0,0,0,-1,622,1373,-9.0062,-3.39591
-595,-349,-9.50568,2.96912,0,0,0,0,0,0,0,-1,629,1373,-9.50569,-2.96906
-588,-349,-8.60046,3.56042,0,0,0,0,0,0,0,-1,636,1373,-8.60046,-3.56047
-581,-349,-17.8019,7.10925,0,0,0,0,0,0,0,-1,643,1373,-17.8019,-7.1093
-574,-349,-17.8713,7.66553,0.00406497,0.00146387,0.00186713,0.00503985,0.000488986,0.481196,0.00320935,0.0355472,650,1373,-17.8713,-7.66554
-567,-349,-17.9403,8.34546,0.00312516,0.00110314,0.00138401,0.00382811,0.000400195,0.469948,0.00242968,0.0189097,657,1373,-17.9403,-8.3455
-560,-349,-17.9496,8.9679,0.00266253,0.000839659,0.00108488,0.00316802,0.000334169,0.436031,0.00200991,0.0233169,664,1373,-17.9496,-8.96788
-553,-349,-17.9225,9.51404,0.00248503,0.000648593,0.00095068,0.00288852,0.000245101,0.401383,0.0018494,0.0282907,671,1373,-17.9225,-9.51402
-546,-349,-17.9681,10.1094,0.00254525,0.000523685,0.000939682,0.00291457,0.000154365,0.374481,0.00189369,0.0300553,678,1373,-17.9681,-10.1094
-539,-349,-18.0724,10.7069,0.00281372,0.000459859,0.00104311,0.00320944,6.41316e-05,0.362597,0.00211858,0.0245882,685,1373,-18.0724,-10.7069
-532,-349,-18.0628,11.3344,0.00333383,0.000467647,0.00128628,0.00382642,-2.4948e-05,0.365732,0.0025593,0.0183514,692,1373,-18.0628,-11.3344
-525,-349,-18.0225,11.9637,0.00407352,0.000553373,0.00166038,0.0047331,-0.000106209,0.378131,0.00319139,0.0138626,699,1373,-18.0225,-11.9637
-518,-349,-18.0006,12.564,0.00504857,0.000839749,0.00219288,0.00598344,-9.51269e-05,0.402991,0.00402105,0.0219287,706,1373,-18.0006,-12.5639
-511,-349,-17.9653,13.167,0,0,0,0,0,0,0,-1,713,1373,-17.9653,-13.167
-504,-349,-9.60516,7.88831,0,0,0,0,0,0,0,-1,720,1373,-9.60519,-7.88825
-497,-349,-7.9339,5.58789,0,0,0,0,0,0,0,-1,727,1373,-7.93388,-5.58785
-490,-349,-8.73969,-0.503784,0,0,0,0,0,0,0,-1,734,1373,-8.73966,0.503752
-483,-349,-5.66974,3.7395,0,0,0,0,0,0,0,-1,741,1373,-5.66975,-3.73949
-476,-349,-10.8496,1.15759,0,0,0,0,0,0,0,-1,748,1373,-10.8496,-1.15756
-469,-349,-12.3314,-1.74878,0,0,0,0,0,0,0,-1,755,1373,-12.3314,1.74882
-462,-349,-12.6559,-0.995361,0,0,0,0,0,0,0,-1,762,1373,-12.656,0.995351
-455,-349,-13.2897,-0.234253,0,0,0,0,0,0,0,-1,769,1373,-13.2897,0.234261
-448,-349,-14.045,0.712891,0,0,0,0,0,0,0,-1,776,1373,-14.045,-0.712838
-441,-349,0,0,0,0,0,0,0,0,0,-1,783,1373,0,0
-434,-349,0,0,0,0,0,0,0,0,0,-1,790,1373,0,0
-427,-349,0,0,0,0,0,0,0,0,0,-1,797,1373,0,0
-420,-349,0,0,0,0,0,0,0,0,0,-1,804,1373,0,0
-413,-349,0,0,0,0,0,0,0,0,0,-1,811,1373,0,0
-406,-349,0,0,0,0,0,0,0,0,0,-1,818,1373,0,0
-399,-349,0,0,0,0,0,0,0,0,0,-1,825,1373,0,0
-392,-349,0,0,0,0,0,0,0,0,0,-1,832,1373,0,0
-385,-349,0,0,0,0,0,0,0,0,0,-1,839,1373,0,0
-378,-349,0,0,0,0,0,0,0,0,0,-1,846,1373,0,0
-371,-349,0,0,0,0,0,0,0,0,0,-1,853,1373,0,0
-364,-349,0,0,0,0,0,0,0,0,0,-1,860,1373,0,0
-357,-349,0,0,0,0,0,0,0,0,0,-1,867,1373,0,0
-350,-349,0,0,0,0,0,0,0,0,0,-1,874,1373,0,0
-343,-349,0,0,0,0,0,0,0,0,0,-1,881,1373,0,0
-336,-349,0,0,0,0,0,0,0,0,0,-1,888,1373,0,0
-329,-349,0,0,0,0,0,0,0,0,0,-1,895,1373,0,0
-322,-349,0,0,0,0,0,0,0,0,0,-1,902,1373,0,0
-315,-349,0,0,0,0,0,0,0,0,0,-1,909,1373,0,0
-308,-349,0,0,0,0,0,0,0,0,0,-1,916,1373,0,0
-301,-349,0,0,0,0,0,0,0,0,0,-1,923,1373,0,0
-294,-349,0,0,0,0,0,0,0,0,0,-1,930,1373,0,0
-287,-349,0,0,0,0,0,0,0,0,0,-1,937,1373,0,0
-280,-349,0,0,0,0,0,0,0,0,0,-1,944,1373,0,0
-273,-349,0,0,0,0,0,0,0,0,0,-1,951,1373,0,0
-266,-349,0,0,0,0,0,0,0,0,0,-1,958,1373,0,0
-259,-349,0,0,0,0,0,0,0,0,0,-1,965,1373,0,0
-252,-349,0,0,0,0,0,0,0,0,0,-1,972,1373,0,0
-245,-349,0,0,0,0,0,0,0,0,0,-1,979,1373,0,0
-238,-349,0,0,0,0,0,0,0,0,0,-1,986,1373,0,0
-231,-349,0,0,0,0,0,0,0,0,0,-1,993,1373,0,0
-224,-349,0,0,0,0,0,0,0,0,0,-1,1000,1373,0,0
-217,-349,0,0,0,0,0,0,0,0,0,-1,1007,1373,0,0
-210,-349,0,0,0,0,0,0,0,0,0,-1,1014,1373,0,0
-203,-349,0,0,0,0,0,0,0,0,0,-1,1021,1373,0,0
-196,-349,0,0,0,0,0,0,0,0,0,-1,1028,1373,0,0
-189,-349,0,0,0,0,0,0,0,0,0,-1,1035,1373,0,0
-182,-349,0,0,0,0,0,0,0,0,0,-1,1042,1373,0,0
-175,-349,0,0,0,0,0,0,0,0,0,-1,1049,1373,0,0
-168,-349,0,0,0,0,0,0,0,0,0,-1,1056,1373,0,0
-161,-349,0,0,0,0,0,0,0,0,0,-1,1063,1373,0,0
-154,-349,0,0,0,0,0,0,0,0,0,-1,1070,1373,0,0
-147,-349,0,0,0,0,0,0,0,0,0,-1,1077,1373,0,0
-140,-349,0,0,0,0,0,0,0,0,0,-1,1084,1373,0,0
-133,-349,0,0,0,0,0,0,0,0,0,-1,1091,1373,0,0
-126,-349,0,0,0,0,0,0,0,0,0,-1,1098,1373,0,0
-119,-349,0,0,0,0,0,0,0,0,0,-1,1105,1373,0,0
-112,-349,0,0,0,0,0,0,0,0,0,-1,1112,1373,0,0
-105,-349,0,0,0,0,0,0,0,0,0,-1,1119,1373,0,0
-98,-349,0,0,0,0,0,0,0,0,0,-1,1126,1373,0,0
-91,-349,0,0,0,0,0,0,0,0,0,-1,1133,1373,0,0
-84,-349,0,0,0,0,0,0,0,0,0,-1,1140,1373,0,0
-77,-349,0,0,0,0,0,0,0,0,0,-1,1147,1373,0,0
-70,-349,0,0,0,0,0,0,0,0,0,-1,1154,1373,0,0
-63,-349,0,0,0,0,0,0,0,0,0,-1,1161,1373,0,0
-56,-349,0,0,0,0,0,0,0,0,0,-1,1168,1373,0,0
-49,-349,0,0,0,0,0,0,0,0,0,-1,1175,1373,0,0
-42,-349,0,0,0,0,0,0,0,0,0,-1,1182,1373,0,0
-35,-349,0,0,0,0,0,0,0,0,0,-1,1189,1373,0,0
-28,-349,0,0,0,0,0,0,0,0,0,-1,1196,1373,0,0
-21,-349,0,0,0,0,0,0,0,0,0,-1,1203,1373,0,0
-14,-349,0,0,0,0,0,0,0,0,0,-1,1210,1373,0,0
-7,-349,0,0,0,0,0,0,0,0,0,-1,1217,1373,0,0
0,-349,0,0,0,0,0,0,0,0,0,-1,1224,1373,0,0
7,-349,0,0,0,0,0,0,0,0,0,-1,1231,1373,0,0
14,-349,0,0,0,0,0,0,0,0,0,-1,1238,1373,0,0
21,-349,0,0,0,0,0,0,0,0,0,-1,1245,1373,0,0
28,-349,0,0,0,0,0,0,0,0,0,-1,1252,1373,0,0
35,-349,0,0,0,0,0,0,0,0,0,-1,1259,1373,0,0
42,-349,0,0,0,0,0,0,0,0,0,-1,1266,1373,0,0
49,-349,0,0,0,0,0,0,0,0,0,-1,1273,1373,0,0
56,-349,0,0,0,0,0,0,0,0,0,-1,1280,1373,0,0
63,-349,0,0,0,0,0,0,0,0,0,-1,1287,1373,0,0
70,-349,0,0,0,0,0,0,0,0,0,-1,1294,1373,0,0
77,-349,0,0,0,0,0,0,0,0,0,-1,1301,1373,0,0
84,-349,0,0,0,0,0,0,0,0,0,-1,1308,1373,0,0
91,-349,0,0,0,0,0,0,0,0,0,-1,1315,1373,0,0
98,-349,0,0,0,0,0,0,0,0,0,-1,1322,1373,0,0
105,-349,0,0,0,0,0,0,0,0,0,-1,1329,1373,0,0
112,-349,0,0,0,0,0,0,0,0,0,-1,1336,1373,0,0
119,-349,0,0,0,0,0,0,0,0,0,-1,1343,1373,0,0
126,-349,0,0,0,0,0,0,0,0,0,-1,1350,1373,0,0
133,-349,0,0,0,0,0,0,0,0,0,-1,1357,1373,0,0
140,-349,0,0,0,0,0,0,0,0,0,-1,1364,1373,0,0
147,-349,0,0,0,0,0,0,0,0,0,-1,1371,1373,0,0
154,-349,0,0,0,0,0,0,0,0,0,-1,1378,1373,0,0
161,-349,0,0,0,0,0,0,0,0,0,-1,1385,1373,0,0
168,-349,0,0,0,0,0,0,0,0,0,-1,1392,1373,0,0
175,-349,0,0,0,0,0,0,0,0,0,-1,1399,1373,0,0
182,-349,0,0,0,0,0,0,0,0,0,-1,1406,1373,0,0
189,-349,0,0,0,0,0,0,0,0,0,-1,1413,1373,0,0
196,-349,0,0,0,0,0,0,0,0,0,-1,1420,1373,0,0
203,-349,0,0,0,0,0,0,0,0,0,-1,1427,1373,0,0
210,-349,0,0,0,0,0,0,0,0,0,-1,1434,1373,0,0
217,-349,0,0,0,0,0,0,0,0,0,-1,1441,1373,0,0
224,-349,0,0,0,0,0,0,0,0,0,-1,1448,1373,0,0
231,-349,0,0,0,0,0,0,0,0,0,-1,1455,1373,0,0
238,-349,0,0,0,0,0,0,0,0,0,-1,1462,1373,0,0
245,-349,0,0,0,0,0,0,0,0,0,-1,1469,1373,0,0
252,-349,0,0,0,0,0,0,0,0,0,-1,1476,1373,0,0
259,-349,0,0,0,0,0,0,0,0,0,-1,1483,1373,0,0
266,-349,0,0,0,0,0,0,0,0,0,-1,1490,1373,0,0
273,-349,0,0,0,0,0,0,0,0,0,-1,1497,1373,0,0
280,-349,0,0,0,0,0,0,0,0,0,-1,1504,1373,0,0
287,-349,0,0,0,0,0,0,0,0,0,-1,1511,1373,0,0
294,-349,0,0,0,0,0,0,0,0,0,-1,1518,1373,0,0
301,-349,0,0,0,0,0,0,0,0,0,-1,1525,1373,0,0
308,-349,0,0,0,0,0,0,0,0,0,-1,1532,1373,0,0
315,-349,0,0,0,0,0,0,0,0,0,-1,1539,1373,0,0
322,-349,0,0,0,0,0,0,0,0,0,-1,1546,1373,0,0
329,-349,0,0,0,0,0,0,0,0,0,-1,1553,1373,0,0
336,-349,0,0,0,0,0,0,0,0,0,-1,1560,1373,0,0
343,-349,0,0,0,0,0,0,0,0,0,-1,1567,1373,0,0
350,-349,0,0,0,0,0,0,0,0,0,-1,1574,1373,0,0
357,-349,0,0,0,0,0,0,0,0,0,-1,1581,1373,0,0
364,-349,0,0,0,0,0,0,0,0,0,-1,1588,1373,0,0
371,-349,0,0,0,0,0,0,0,0,0,-1,1595,1373,0,0
378,-349,0,0,0,0,0,0,0,0,0,-1,1602,1373,0,0
385,-349,0,0,0,0,0,0,0,0,0,-1,1609,1373,0,0
392,-349,0,0,0,0,0,0,0,0,0,-1,1616,1373,0,0
399,-349,0,0,0,0,0,0,0,0,0,-1,1623,1373,0,0
406,-349,0,0,0,0,0,0,0,0,0,-1,1630,1373,0,0
413,-349,0,0,0,0,0,0,0,0,0,-1,1637,1373,0,0
420,-349,0,0,0,0,0,0,0,0,0,-1,1644,1373,0,0
427,-349,0,0,0,0,0,0,0,0,0,-1,1651,1373,0,0
434,-349,0,0,0,0,0,0,0,0,0,-1,1658,1373,0,0
441,-349,0,0,0,0,0,0,0,0,0,-1,1665,1373,0,0
448,-349,0,0,0,0,0,0,0,0,0,-1,1672,1373,0,0
455,-349,0,0,0,0,0,0,0,0,0,-1,1679,1373,0,0
462,-349,0,0,0,0,0,0,0,0,0,-1,1686,1373,0,0
469,-349,0,0,0,0,0,0,0,0,0,-1,1693,1373,0,0
476,-349,0,0,0,0,0,0,0,0,0,-1,1700,1373,0,0
483,-349,0,0,0,0,0,0,0,0,0,-1,1707,1373,0,0
490,-349,0,0,0,0,0,0,0,0,0,-1,1714,1373,0,0
497,-349,0,0,0,0,0,0,0,0,0,-1,1721,1373,0,0
504,-349,0,0,0,0,0,0,0,0,0,-1,1728,1373,0,0
511,-349,0,0,0,0,0,0,0,0,0,-1,1735,1373,0,0
518,-349,0,0,0,0,0,0,0,0,0,-1,1742,1373,0,0
525,-349,0,0,0,0,0,0,0,0,0,-1,1749,1373,0,0
532,-349,0,0,0,0,0,0,0,0,0,-1,1756,1373,0,0
539,-349,0,0,0,0,0,0,0,0,0,-1,1763,1373,0,0
546,-349,0,0,0,0,0,0,0,0,0,-1,1770,1373,0,0
553,-349,0,0,0,0,0,0,0,0,0,-1,1777,1373,0,0
560,-349,45.6893,3.53845,0,0,0,0,0,0,0,-1,1784,1373,45.6893,-3.5385
567,-349,41.9424,6.03833,0,0,0,0,0,0,0,-1,1791,1373,41.9423,-6.03834
574,-349,42.4165,6.17078,0,0,0,0,0,0,0,-1,1798,1373,42.4165,-6.17072
581,-349,42.8947,6.78381,0,0,0,0,0,0,0,-1,1805,1373,42.8946,-6.78376
588,-349,44.8121,5.06213,0,0,0,0,0,0,0,-1,1812,1373,44.8121,-5.06215
595,-349,44.4338,6.14099,0,0,0,0,0,0,0,-1,1819,1373,44.4338,-6.14095
602,-349,35.6641,3.26465,0,0,0,0,0,0,0,-1,1826,1373,35.6641,-3.26468
609,-349,34.7175,4.401,0,0,0,0,0,0,0,-1,1833,1373,34.7175,-4.40096
616,-349,27.1451,6.68274,0,0,0,0,0,0,0,-1,1840,1373,27.1451,-6.6828
623,-349,18.8478,2.75769,0,0,0,0,0,0,0,-1,1847,1373,18.8478,-2.75774
630,-349,15.4948,6.47644,0,0,0,0,0,0,0,-1,1854,1373,15.4947,-6.4765
637,-349,16.5161,6.92639,0,0,0,0,0,0,0,-1,1861,1373,16.5161,-6.92636
644,-349,33.5497,14.8416,0,0,0,0,0,0,0,-1,1868,1373,33.5497,-14.8415
651,-349,33.5276,14.2728,-0.00148048,0.00277066,-0.00467599,0.00578152,-0.00449134,-0.998723,0.00594661,0.0395936,1875,1373,33.5276,-14.2728
658,-349,33.4087,13.7074,0.000501627,7.89307e-05,-0.00023456,0.00060601,-2.54527e-05,-0.418703,0.000412753,0.0266562,1882,1373,33.4087,-13.7074
665,-349,33.3757,13.1216,0.000760038,-0.000162698,-7.5189e-05,0.000766125,-0.000168785,-0.0807747,0.000575324,0.0203195,1889,1373,33.3758,-13.1216
672,-349,33.3683,12.5925,0.00110113,-0.000289855,-1.06256e-06,0.00110113,-0.000289856,-0.000763896,0.000847391,0.0143127,1896,1373,33.3683,-12.5925
679,-349,33.3478,12.0743,0.00149411,-0.000392899,3.85598e-05,0.0014949,-0.000393686,0.020423,0.0011505,0.0144373,1903,1373,33.3478,-12.0743
686,-349,33.3986,11.5444,0.00191186,-0.000471878,6.04858e-05,0.0019134,-0.000473412,0.0253525,0.00145923,0.0155173,1910,1373,33.3986,-11.5445
693,-349,33.3401,10.9895,0.00235143,-0.000512549,6.7621e-05,0.00235302,-0.000514145,0.0235934,0.0017652,0.017462,1917,1373,33.3401,-10.9895
700,-349,33.2869,10.4417,0.00279517,-0.000502465,6.55136e-05,0.00279647,-0.000503766,0.0198564,0.00205294,0.0174085,1924,1373,33.2869,-10.4417
707,-349,33.3517,9.84424,0.00298364,-0.000497956,0.00018787,0.00299375,-0.000508065,0.0537527,0.00218497,0.0341725,1931,1373,33.3517,-9.84424
714,-349,33.4694,9.15259,0,0,0,0,0,0,0,-1,1938,1373,33.4693,-9.15261
721,-349,19.6688,5.93604,0,0,0,0,0,0,0,-1,1945,1373,19.6688,-5.93606
728,-349,18.6333,3.73218,0,0,0,0,0,0,0,-1,1952,1373,18.6333,-3.73214
735,-349,18.1918,3.39954,0,0,0,0,0,0,0,-1,1959,1373,18.1918,-3.3995
742,-349,20.7345,2.07483,0,0,0,0,0,0,0,-1,1966,1373,20.7345,-2.07485
749,-349,21.9037,1.45789,0,0,0,0,0,0,0,-1,1973,1373,21.9037,-1.45788
756,-349,0,0,0,0,0,0,0,0,0,-1,1980,1373,0,0
763,-349,0,0,0,0,0,0,0,0,0,-1,1987,1373,0,0
770,-349,0,0,0,0,0,0,0,0,0,-1,1994,1373,0,0
777,-349,0,0,0,0,0,0,0,0,0,-1,2001,1373,0,0
784,-349,0,0,0,0,0,0,0,0,0,-1,2008,1373,0,0
791,-349,0,0,0,0,0,0,0,0,0,-1,2015,1373,0,0
798,-349,0,0,0,0,0,0,0,0,0,-1,2022,1373,0,0
805,-349,0,0,0,0,0,0,0,0,0,-1,2029,1373,0,0
812,-349,0,0,0,0,0,0,0,0,0,-1,2036,1373,0,0
-700,-356,0,0,0,0,0,0,0,0,0,-1,524,1380,0,0
-693,-356,0,0,0,0,0,0,0,0,0,-1,531,1380,0,0
-686,-356,0,0,0,0,0,0,0,0,0,-1,538,1380,0,0
-679,-356,0,0,0,0,0,0,0,0,0,-1,545,1380,0,0
-672,-356,0,0,0,0,0,0,0,0,0,-1,552,1380,0,0
-665,-356,0,0,0,0,0,0,0,0,0,-1,559,1380,0,0
-658,-356,0,0,0,0,0,0,0,0,0,-1,566,1380,0,0
-651,-356,0,0,0,0,0,0,0,0,0,-1,573,1380,0,0
-644,-356,0,0,0,0,0,0,0,0,0,-1,580,1380,0,0
-637,-356,0,0,0,0,0,0,0,0,0,-1,587,1380,0,0
-630,-356,-8.23126,-5.01917,0,0,0,0,0,0,0,-1,594,1380,-8.23124,5.0192
-623,-356,-0.263855,-0.675781,0,0,0,0,0,0,0,-1,601,1380,-0.263835,0.675841
-616,-356,-8.26532,-3.43945,0,0,0,0,0,0,0,-1,608,1380,-8.2653,3.43948
-609,-356,-4.88483,0.734497,0,0,0,0,0,0,0,-1,615,1380,-4.88485,-0.734532
-602,-356,-9.06635,2.4021,0,0,0,0,0,0,0,-1,622,1380,-9.06634,-2.40206
-595,-356,-8.45703,3.61853,0,0,0,0,0,0,0,-1,629,1380,-8.45706,-3.61848
-588,-356,-9.31738,4.14258,0,0,0,0,0,0,0,-1,636,1380,-9.31736,-4.14255
-581,-356,-16.5185,7.32312,0,0,0,0,0,0,0,-1,643,1380,-16.5185,-7.32306
-574,-356,-17.1888,7.85168,0,0,0,0,0,0,0,-1,650,1380,-17.1888,-7.85167
-567,-356,-17.3524,8.31335,0.00334436,0.001203,0.0014715,0.00409348,0.000453887,0.470888,0.00259098,0.0210034,657,1380,-17.3524,-8.31341
-560,-356,-17.3252,8.96655,0.0028097,0.000916679,0.00112291,0.00333179,0.000394583,0.435217,0.00210205,0.0196525,664,1380,-17.3252,-8.96655
-553,-356,-17.3113,9.56274,0.00256536,0.000717096,0.000959266,0.00297323,0.000309234,0.402025,0.00188754,0.0223786,671,1380,-17.3113,-9.56269
-546,-356,-17.3647,10.1444,0.0025312,0.000576118,0.000908709,0.00288833,0.000218991,0.374461,0.00185686,0.0229476,678,1380,-17.3648,-10.1444
-539,-356,-17.4289,10.7565,0.00269305,0.000496682,0.000970865,0.00306068,0.000129061,0.36197,0.00199882,0.0162696,685,1380,-17.4289,-10.7564
-532,-356,-17.4584,11.3744,0.00308829,0.000506462,0.00117684,0.0035442,5.05504e-05,0.369602,0.00234613,0.016109,692,1380,-17.4584,-11.3744
-525,-356,-17.4438,11.9773,0.0036761,0.000597375,0.00150564,0.00429001,-1.65349e-05,0.387161,0.00286554,0.01305,699,1380,-17.4438,-11.9772
-518,-356,-17.42,12.5771,0.00446213,0.000852718,0.0019847,0.00533996,-2.51113e-05,0.416431,0.00356838,0.0130775,706,1380,-17.42,-12.5772
-511,-356,-17.4075,13.1985,0,0,0,0,0,0,0,-1,713,1380,-17.4075,-13.1985
-504,-356,-14.3925,12.3971,0,0,0,0,0,0,0,-1,720,1380,-14.3925,-12.3971
-497,-356,-5.68604,4.96387,0,0,0,0,0,0,0,-1,727,1380,-5.68605,-4.96385
-490,-356,-7.95288,5.5625,0,0,0,0,0,0,0,-1,734,1380,-7.95285,-5.56246
-483,-356,-7.2627,4.07446,0,0,0,0,0,0,0,-1,741,1380,-7.2627,-4.07441
-476,-356,-5.1936,4.16016,0,0,0,0,0,0,0,-1,748,1380,-5.1936,-4.16012
-469,-356,-10.0883,0.536011,0,0,0,0,0,0,0,-1,755,1380,-10.0883,-0.535989
-462,-356,-12.3481,-0.215698,0,0,0,0,0,0,0,-1,762,1380,-12.3481,0.215641
-455,-356,-13.1367,-0.264648,0,0,0,0,0,0,0,-1,769,1380,-13.1367,0.264647
-448,-356,-13.9116,-0.310181,0,0,0,0,0,0,0,-1,776,1380,-13.9115,0.310207
-441,-356,-13.1602,3.05603,0,0,0,0,0,0,0,-1,783,1380,-13.1602,-3.05609
-434,-356,0,0,0,0,0,0,0,0,0,-1,790,1380,0,0
-427,-356,0,0,0,0,0,0,0,0,0,-1,797,1380,0,0
-420,-356,0,0,0,0,0,0,0,0,0,-1,804,1380,0,0
-413,-356,0,0,0,0,0,0,0,0,0,-1,811,1380,0,0
-406,-356,0,0,0,0,0,0,0,0,0,-1,818,1380,0,0
-399,-356,0,0,0,0,0,0,0,0,0,-1,825,1380,0,0
-392,-356,0,0,0,0,0,0,0,0,0,-1,832,1380,0,0
-385,-356,0,0,0,0,0,0,0,0,0,-1,839,1380,0,0
-378,-356,0,0,0,0,0,0,0,0,0,-1,846,1380,0,0
-371,-356,0,0,0,0,0,0,0,0,0,-1,853,1380,0,0
-364,-356,0,0,0,0,0,0,0,0,0,-1,860,1380,0,0
-357,-356,0,0,0,0,0,0,0,0,0,-1,867,1380,0,0
-350,-356,0,0,0,0,0,0,0,0,0,-1,874,1380,0,0
-343,-356,0,0,0,0,0,0,0,0,0,-1,881,1380,0,0
-336,-356,0,0,0,0,0,0,0,0,0,-1,888,1380,0,0
-329,-356,0,0,0,0,0,0,0,0,0,-1,895,1380,0,0
-322,-356,0,0,0,0,0,0,0,0,0,-1,902,1380,0,0
-315,-356,0,0,0,0,0,0,0,0,0,-1,909,1380,0,0
-308,-356,0,0,0,0,0,0,0,0,0,-1,916,1380,0,0
-301,-356,0,0,0,0,0,0,0,0,0,-1,923,1380,0,0
-294,-356,0,0,0,0,0,0,0,0,0,-1,930,1380,0,0
-287,-356,0,0,0,0,0,0,0,0,0,-1,937,1380,0,0
-280,-356,0,0,0,0,0,0,0,0,0,-1,944,1380,0,0
-273,-356,0,0,0,0,0,0,0,0,0,-1,951,1380,0,0
-266,-356,0,0,0,0,0,0,0,0,0,-1,958,1380,0,0
-259,-356,0,0,0,0,0,0,0,0,0,-1,965,1380,0,0
-252,-356,0,0,0,0,0,0,0,0,0,-1,972,1380,0,0
-245,-356,0,0,0,0,0,0,0,0,0,-1,979,1380,0,0
-238,-356,0,0,0,0,0,0,0,0,0,-1,986,1380,0,0
-231,-356,0,0,0,0,0,0,0,0,0,-1,993,1380,0,0
-224,-356,0,0,0,0,0,0,0,0,0,-1,1000,1380,0,0
-217,-356,0,0,0,0,0,0,0,0,0,-1,1007,1380,0,0
-210,-356,0,0,0,0,0,0,0,0,0,-1,1014,1380,0,0
-203,-356,0,0,0,0,0,0,0,0,0,-1,1021,1380,0,0
-196,-356,0,0,0,0,0,0,0,0,0,-1,1028,1380,0,0
-189,-356,0,0,0,0,0,0,0,0,0,-1,1035,1380,0,0
-182,-356,0,0,0,0,0,0,0,0,0,-1,1042,1380,0,0
-175,-356,0,0,0,0,0,0,0,0,0,-1,1049,1380,0,0
-168,-356,0,0,0,0,0,0,0,0,0,-1,1056,1380,0,0
-161,-356,0,0,0,0,0,0,0,0,0,-1,1063,1380,0,0
-154,-356,0,0,0,0,0,0,0,0,0,-1,1070,1380,0,0
-147,-356,0,0,0,0,0,0,0,0,0,-1,1077,1380,0,0
-140,-356,0,0,0,0,0,0,0,0,0,-1,1084,1380,0,0
-133,-356,0,0,0,0,0,0,0,0,0,-1,1091,1380,0,0
-126,-356,0,0,0,0,0,0,0,0,0,-1,1098,1380,0,0
-119,-356,0,0,0,0,0,0,0,0,0,-1,1105,1380,0,0
-112,-356,0,0,0,0,0,0,0,0,0,-1,1112,1380,0,0
-105,-356,0,0,0,0,0,0,0,0,0,-1,1119,1380,0,0
-98,-356,0,0,0,0,0,0,0,0,0,-1,1126,1380,0,0
-91,-356,0,0,0,0,0,0,0,0,0,-1,1133,1380,0,0
-84,-356,0,0,0,0,0,0,0,0,0,-1,1140,1380,0,0
-77,-356,0,0,0,0,0,0,0,0,0,-1,1147,1380,0,0
-70,-356,0,0,0,0,0,0,0,0,0,-1,1154,1380,0,0
-63,-356,0,0,0,0,0,0,0,0,0,-1,1161,1380,0,0
-56,-356,0,0,0,0,0,0,0,0,0,-1,1168,1380,0,0
-49,-356,0,0,0,0,0,0,0,0,0,-1,1175,1380,0,0
-42,-356,0,0,0,0,0,0,0,0,0,-1,1182,1380,0,0
-35,-356,0,0,0,0,0,0,0,0,0,-1,1189,1380,0,0
-28,-356,0,0,0,0,0,0,0,0,0,-1,1196,1380,0,0
-21,-356,0,0,0,0,0,0,0,0,0,-1,1203,1380,0,0
-14,-356,0,0,0,0,0,0,0,0,0,-1,1210,1380,0,0
-7,-356,0,0,0,0,0,0,0,0,0,-1,1217,1380,0,0
0,-356,0,0,0,0,0,0,0,0,0,-1,1224,1380,0,0
7,-356,0,0,0,0,0,0,0,0,0,-1,1231,1380,0,0
14,-356,0,0,0,0,0,0,0,0,0,-1,1238,1380,0,0
21,-356,0,0,0,0,0,0,0,0,0,-1,1245,1380,0,0
28,-356,0,0,0,0,0,0,0,0,0,-1,1252,1380,0,0
35,-356,0,0,0,0,0,0,0,0,0,-1,1259,1380,0,0
42,-356,0,0,0,0,0,0,0,0,0,-1,1266,1380,0,0
49,-356,0,0,0,0,0,0,0,0,0,-1,1273,1380,0,0
56,-356,0,0,0,0,0,0,0,0,0,-1,1280,1380,0,0
63,-356,0,0,0,0,0,0,0,0,0,-1,1287,1380,0,0
70,-356,0,0,0,0,0,0,0,0,0,-1,1294,1380,0,0
77,-356,0,0,0,0,0,0,0,0,0,-1,1301,1380,0,0
84,-356,0,0,0,0,0,0,0,0,0,-1,1308,1380,0,0
91,-356,0,0,0,0,0,0,0,0,0,-1,1315,1380,0,0
98,-356,0,0,0,0,0,0,0,0,0,-1,1322,1380,0,0
105,-356,0,0,0,0,0,0,0,0,0,-1,1329,1380,0,0
112,-356,0,0,0,0,0,0,0,0,0,-1,1336,1380,0,0
119,-356,0,0,0,0,0,0,0,0,0,-1,1343,1380,0,0
126,-356,0,0,0,0,0,0,0,0,0,-1,1350,1380,0,0
133,-356,0,0,0,0,0,0,0,0,0,-1,1357,1380,0,0
140,-356,0,0,0,0,0,0,0,0,0,-1,1364,1380,0,0
147,-356,0,0,0,0,0,0,0,0,0,-1,1371,1380,0,0
154,-356,0,0,0,0,0,0,0,0,0,-1,1378,1380,0,0
161,-356,0,0,0,0,0,0,0,0,0,-1,1385,1380,0,0
168,-356,0,0,0,0,0,0,0,0,0,-1,1392,1380,0,0
175,-356,0,0,0,0,0,0,0,0,0,-1,1399,1380,0,0
182,-356,0,0,0,0,0,0,0,0,0,-1,1406,1380,0,0
189,-356,0,0,0,0,0,0,0,0,0,-1,1413,1380,0,0
196,-356,0,0,0,0,0,0,0,0,0,-1,1420,1380,0,0
203,-356,0,0,0,0,0,0,0,0,0,-1,1427,1380,0,0
210,-356,0,0,0,0,0,0,0,0,0,-1,1434,1380,0,0
217,-356,0,0,0,0,0,0,0,0,0,-1,1441,1380,0,0
224,-356,0,0,0,0,0,0,0,0,0,-1,1448,1380,0,0
231,-356,0,0,0,0,0,0,0,0,0,-1,1455,1380,0,0
238,-356,0,0,0,0,0,0,0,0,0,-1,1462,1380,0,0
245,-356,0,0,0,0,0,0,0,0,0,-1,1469,1380,0,0
252,-356,0,0,0,0,0,0,0,0,0,-1,1476,1380,0,0
259,-356,0,0,0,0,0,0,0,0,0,-1,1483,1380,0,0
266,-356,0,0,0,0,0,0,0,0,0,-1,1490,1380,0,0
273,-356,0,0,0,0,0,0,0,0,0,-1,1497,1380,0,0
280,-356,0,0,0,0,0,0,0,0,0,-1,1504,1380,0,0
287,-356,0,0,0,0,0,0,0,0,0,-1,1511,1380,0,0
294,-356,0,0,0,0,0,0,0,0,0,-1,1518,1380,0,0
301,-356,0,0,0,0,0,0,0,0,0,-1,1525,1380,0,0
308,-356,0,0,0,0,0,0,0,0,0,-1,1532,1380,0,0
315,-356,0,0,0,0,0,0,0,0,0,-1,1539,1380,0,0
322,-356,0,0,0,0,0,0,0,0,0,-1,1546,1380,0,0
329,-356,0,0,0,0,0,0,0,0,0,-1,1553,1380,0,0
336,-356,0,0,0,0,0,0,0,0,0,-1,1560,1380,0,0
343,-356,0,0,0,0,0,0,0,0,0,-1,1567,1380,0,0
350,-356,0,0,0,0,0,0,0,0,0,-1,1574,1380,0,0
357,-356,0,0,0,0,0,0,0,0,0,-1,1581,1380,0,0
364,-356,0,0,0,0,0,0,0,0,0,-1,1588,1380,0,0
371,-356,0,0,0,0,0,0,0,0,0,-1,1595,1380,0,0
378,-356,0,0,0,0,0,0,0,0,0,-1,1602,1380,0,0
385,-356,0,0,0,0,0,0,0,0,0,-1,1609,1380,0,0
392,-356,0,0,0,0,0,0,0,0,0,-1,1616,1380,0,0
399,-356,0,0,0,0,0,0,0,0,0,-1,1623,1380,0,0
406,-356,0,0,0,0,0,0,0,0,0,-1,1630,1380,0,0
413,-356,0,0,0,0,0,0,0,0,0,-1,1637,1380,0,0
420,-356,0,0,0,0,0,0,0,0,0,-1,1644,1380,0,0
427,-356,0,0,0,0,0,0,0,0,0,-1,1651,1380,0,0
434,-356,0,0,0,0,0,0,0,0,0,-1,1658,1380,0,0
441,-356,0,0,0,0,0,0,0,0,0,-1,1665,1380,0,0
448,-356,0,0,0,0,0,0,0,0,0,-1,1672,1380,0,0
455,-356,0,0,0,0,0,0,0,0,0,-1,1679,1380,0,0
462,-356,0,0,0,0,0,0,0,0,0,-1,1686,1380,0,0
469,-356,0,0,0,0,0,0,0,0,0,-1,1693,1380,0,0
476,-356,0,0,0,0,0,0,0,0,0,-1,1700,1380,0,0
483,-356,0,0,0,0,0,0,0,0,0,-1,1707,1380,0,0
490,-356,0,0,0,0,0,0,0,0,0,-1,1714,1380,0,0
497,-356,0,0,0,0,0,0,0,0,0,-1,1721,1380,0,0
504,-356,0,0,0,0,0,0,0,0,0,-1,1728,1380,0,0
511,-356,0,0,0,0,0,0,0,0,0,-1,1735,1380,0,0
518,-356,0,0,0,0,0,0,0,0,0,-1,1742,1380,0,0
525,-356,0,0,0,0,0,0,0,0,0,-1,1749,1380,0,0
532,-356,0,0,0,0,0,0,0,0,0,-1,1756,1380,0,0
539,-356,0,0,0,0,0,0,0,0,0,-1,1763,1380,0,0
546,-356,0,0,0,0,0,0,0,0,0,-1,1770,1380,0,0
553,-356,0,0,0,0,0,0,0,0,0,-1,1777,1380,0,0
560,-356,45.7938,3.65295,0,0,0,0,0,0,0,-1,1784,1380,45.7938,-3.65294
567,-356,45.6788,3.51428,0,0,0,0,0,0,0,-1,1791,1380,45.6788,-3.51422
574,-356,45.5742,3.39575,0,0,0,0,0,0,0,-1,1798,1380,45.5742,-3.39574
581,-356,45.6708,3.64172,0,0,0,0,0,0,0,-1,1805,1380,45.6707,-3.64175
588,-356,44.4739,4.87085,0,0,0,0,0,0,0,-1,1812,1380,44.4739,-4.87086
595,-356,32.0834,5.86084,0,0,0,0,0,0,0,-1,1819,1380,32.0834,-5.86079
602,-356,30.1604,6.07104,0,0,0,0,0,0,0,-1,1826,1380,30.1604,-6.07104
609,-356,28.3435,6.48901,0,0,0,0,0,0,0,-1,1833,1380,28.3435,-6.48899
616,-356,26.9358,6.80872,0,0,0,0,0,0,0,-1,1840,1380,26.9358,-6.80877
623,-356,16.1803,1.07532,0,0,0,0,0,0,0,-1,1847,1380,16.1803,-1.07529
630,-356,16.4138,6.91553,0,0,0,0,0,0,0,-1,1854,1380,16.4138,-6.9155
637,-356,24.8021,12.0151,0,0,0,0,0,0,0,-1,1861,1380,24.8022,-12.0151
644,-356,32.967,14.8865,0,0,0,0,0,0,0,-1,1868,1380,32.967,-14.8865
651,-356,32.9318,14.2701,-0.000438994,0.00188173,-0.00316161,0.00408919,-0.00264645,-0.961275,0.00391845,0.0191339,1875,1380,32.9317,-14.2702
658,-356,32.8586,13.7072,0.000745876,9.90003e-05,-0.000291471,0.000857832,-1.29552e-05,-0.366729,0.000576255,0.0146963,1882,1380,32.8587,-13.7071
665,-356,32.8368,13.1963,0.000949042,-0.000191623,-4.2956e-05,0.000950658,-0.000193238,-0.0375878,0.000707042,0.0145938,1889,1380,32.8368,-13.1963
672,-356,32.806,12.6754,0.0012512,-0.000420341,0.000138054,0.00126252,-0.000431667,0.0818518,0.00101659,0.0142876,1896,1380,32.8061,-12.6754
679,-356,32.8091,12.1127,0.00167152,-0.000589749,0.000230932,0.00169486,-0.000613092,0.100739,0.00138043,0.0161069,1903,1380,32.8091,-12.1127
686,-356,32.7937,11.5475,0.00220306,-0.000702744,0.000249603,0.00222435,-0.000724029,0.0850676,0.00177419,0.0178177,1910,1380,32.7937,-11.5475
693,-356,32.7695,11.0103,0.00281779,-0.000762842,0.000216748,0.00283086,-0.000775915,0.0602404,0.00219214,0.0156237,1917,1380,32.7695,-11.0103
700,-356,32.752,10.4445,0.00354845,-0.000691019,0.000103517,0.00355098,-0.000693545,0.0243979,0.00262917,0.0213411,1924,1380,32.752,-10.4444
707,-356,32.8102,9.88464,0,0,0,0,0,0,0,-1,1931,1380,32.8102,-9.8846
714,-356,19.6907,5.82129,0,0,0,0,0,0,0,-1,1938,1380,19.6907,-5.82132
721,-356,17.2948,4.1958,0,0,0,0,0,0,0,-1,1945,1380,17.2948,-4.19584
728,-356,19.1846,2.31519,0,0,0,0,0,0,0,-1,1952,1380,19.1846,-2.31514
735,-356,20.0731,2.50842,0,0,0,0,0,0,0,-1,1959,1380,20.0731,-2.50844
742,-356,21.0111,2.43762,0,0,0,0,0,0,0,-1,1966,1380,21.0112,-2.43762
749,-356,22.1411,1.83276,0,0,0,0,0,0,0,-1,1973,1380,22.1411,-1.83275
756,-356,0,0,0,0,0,0,0,0,0,-1,1980,1380,0,0
763,-356,0,0,0,0,0,0,0,0,0,-1,1987,1380,0,0
770,-356,0,0,0,0,0,0,0,0,0,-1,1994,1380,0,0
777,-356,0,0,0,0,0,0,0,0,0,-1,2001,1380,0,0
784,-356,0,0,0,0,0,0,0,0,0,-1,2008,1380,0,0
791,-356,0,0,0,0,0,0,0,0,0,-1,2015,1380,0,0
798,-356,0,0,0,0,0,0,0,0,0,-1,2022,1380,0,0
805,-356,0,0,0,0,0,0,0,0,0,-1,2029,1380,0,0
812,-356,0,0,0,0,0,0,0,0,0,-1,2036,1380,0,0
-700,-363,0,0,0,0,0,0,0,0,0,-1,524,1387,0,0
-693,-363,0,0,0,0,0,0,0,0,0,-1,531,1387,0,0
-686,-363,0,0,0,0,0,0,0,0,0,-1,538,1387,0,0
-679,-363,0,0,0,0,0,0,0,0,0,-1,545,1387,0,0
-672,-363,0,0,0,0,0,0,0,0,0,-1,552,1387,0,0
-665,-363,0,0,0,0,0,0,0,0,0,-1,559,1387,0,0
-658,-363,0,0,0,0,0,0,0,0,0,-1,566,1387,0,0
-651,-363,0,0,0,0,0,0,0,0,0,-1,573,1387,0,0
-644,-363,0,0,0,0,0,0,0,0,0,-1,580,1387,0,0
-637,-363,0,0,0,0,0,0,0,0,0,-1,587,1387,0,0
-630,-363,0,0,0,0,0,0,0,0,0,-1,594,1387,0,0
-623,-363,-9.67566,-5.91846,0,0,0,0,0,0,0,-1,601,1387,-9.67563,5.91847
-616,-363,-9.02985,-2.98083,0,0,0,0,0,0,0,-1,608,1387,-9.02987,2.98079
-609,-363,-4.90265,0.195679,0,0,0,0,0,0,0,-1,615,1387,-4.90263,-0.195721
-602,-363,-9.65009,3.5321,0,0,0,0,0,0,0,-1,622,1387,-9.65007,-3.53211
-595,-363,-8.00256,3.48853,0,0,0,0,0,0,0,-1,629,1387,-8.00256,-3.48855
-588,-363,-10.8846,4.49768,0,0,0,0,0,0,0,-1,636,1387,-10.8846,-4.49773
-581,-363,-11.7469,5.15161,0,0,0,0,0,0,0,-1,643,1387,-11.747,-5.15167
-574,-363,-16.6622,7.67542,0,0,0,0,0,0,0,-1,650,1387,-16.6622,-7.6754
-567,-363,-16.7521,8.40967,0.00347393,0.00123682,0.00167675,0.00437098,0.000339775,0.491247,0.00280759,0.047029,657,1387,-16.7521,-8.40968
-560,-363,-16.7524,8.96118,0.00290303,0.000939844,0.00125665,0.00351602,0.000326858,0.453836,0.00224301,0.0146772,664,1387,-16.7525,-8.96115
-553,-363,-16.7485,9.58948,0.00262232,0.000742974,0.00105037,0.00309199,0.000273301,0.420483,0.00197653,0.0145344,671,1387,-16.7486,-9.58942
-546,-363,-16.7639,10.1783,0.00251824,0.00059072,0.00094614,0.00290504,0.000203919,0.388086,0.00187243,0.0146027,678,1387,-16.7639,-10.1783
-539,-363,-16.7689,10.7729,0.00259767,0.000499748,0.000949411,0.00296353,0.000133895,0.367811,0.0019326,0.0163265,685,1387,-16.7689,-10.7729
-532,-363,-16.832,11.3896,0.00290014,0.000510221,0.00110117,0.00333015,8.0215e-05,0.372288,0.00219385,0.0137114,692,1387,-16.832,-11.3897
-525,-363,-16.845,11.98,0.00344772,0.000683613,0.00144503,0.00406521,6.61223e-05,0.403835,0.00268837,0.0117453,699,1387,-16.845,-11.9799
-518,-363,-16.8187,12.5796,0.00417912,0.000989071,0.00193078,0.00508849,7.97003e-05,0.440169,0.00336608,0.0101404,706,1387,-16.8187,-12.5796
-511,-363,-16.7561,13.243,0.00522343,0.00143768,0.00266377,0.00659838,6.27302e-05,0.476496,0.00437816,0.026926,713,1387,-16.7561,-13.243
-504,-363,-16.6559,13.9514,0,0,0,0,0,0,0,-1,720,1387,-16.656,-13.9514
-497,-363,-7.18842,7.29944,0,0,0,0,0,0,0,-1,727,1387,-7.18839,-7.29945
-490,-363,-5.42413,4.6958,0,0,0,0,0,0,0,-1,734,1387,-5.42412,-4.69583
-483,-363,-6.28375,4.1394,0,0,0,0,0,0,0,-1,741,1387,-6.28374,-4.13944
-476,-363,-5.83807,4.31018,0,0,0,0,0,0,0,-1,748,1387,-5.8381,-4.31013
-469,-363,-10.7125,0.697754,0,0,0,0,0,0,0,-1,755,1387,-10.7125,-0.697811
-462,-363,-9.55951,-0.0830078,0,0,0,0,0,0,0,-1,762,1387,-9.55949,0.0830163
-455,-363,-13.1008,-0.290894,0,0,0,0,0,0,0,-1,769,1387,-13.1008,0.290921
-448,-363,-11.7324,2.46606,0,0,0,0,0,0,0,-1,776,1387,-11.7324,-2.46605
-441,-363,-12.4464,2.5354,0,0,0,0,0,0,0,-1,783,1387,-12.4463,-2.53537
-434,-363,-13.6918,2.14661,0,0,0,0,0,0,0,-1,790,1387,-13.6918,-2.14662
-427,-363,0,0,0,0,0,0,0,0,0,-1,797,1387,0,0
-420,-363,0,0,0,0,0,0,0,0,0,-1,804,1387,0,0
-413,-363,0,0,0,0,0,0,0,0,0,-1,811,1387,0,0
-406,-363,0,0,0,0,0,0,0,0,0,-1,818,1387,0,0
-399,-363,0,0,0,0,0,0,0,0,0,-1,825,1387,0,0
-392,-363,0,0,0,0,0,0,0,0,0,-1,832,1387,0,0
-385,-363,0,0,0,0,0,0,0,0,0,-1,839,1387,0,0
-378,-363,0,0,0,0,0,0,0,0,0,-1,846,1387,0,0
-371,-363,0,0,0,0,0,0,0,0,0,-1,853,1387,0,0
-364,-363,0,0,0,0,0,0,0,0,0,-1,860,1387,0,0
-357,-363,0,0,0,0,0,0,0,0,0,-1,867,1387,0,0
-350,-363,0,0,0,0,0,0,0,0,0,-1,874,1387,0,0
-343,-363,0,0,0,0,0,0,0,0,0,-1,881,1387,0,0
-336,-363,0,0,0,0,0,0,0,0,0,-1,888,1387,0,0
-329,-363,0,0,0,0,0,0,0,0,0,-1,895,1387,0,0
-322,-363,0,0,0,0,0,0,0,0,0,-1,902,1387,0,0
-315,-363,0,0,0,0,0,0,0,0,0,-1,909,1387,0,0
-308,-363,0,0,0,0,0,0,0,0,0,-1,916,1387,0,0
-301,-363,0,0,0,0,0,0,0,0,0,-1,923,1387,0,0
-294,-363,0,0,0,0,0,0,0,0,0,-1,930,1387,0,0
-287,-363,0,0,0,0,0,0,0,0,0,-1,937,1387,0,0
-280,-363,0,0,0,0,0,0,0,0,0,-1,944,1387,0,0
-273,-363,0,0,0,0,0,0,0,0,0,-1,951,1387,0,0
-266,-363,0,0,0,0,0,0,0,0,0,-1,958,1387,0,0
-259,-363,0,0,0,0,0,0,0,0,0,-1,965,1387,0,0
-252,-363,0,0,0,0,0,0,0,0,0,-1,972,1387,0,0
-245,-363,0,0,0,0,0,0,0,0,0,-1,979,1387,0,0
-238,-363,0,0,0,0,0,0,0,0,0,-1,986,1387,0,0
-231,-363,0,0,0,0,0,0,0,0,0,-1,993,1387,0,0
-224,-363,0,0,0,0,0,0,0,0,0,-1,1000,1387,0,0
-217,-363,0,0,0,0,0,0,0,0,0,-1,1007,1387,0,0
-210,-363,0,0,0,0,0,0,0,0,0,-1,1014,1387,0,0
-203,-363,0,0,0,0,0,0,0,0,0,-1,1021,1387,0,0
-196,-363,0,0,0,0,0,0,0,0,0,-1,1028,1387,0,0
-189,-363,0,0,0,0,0,0,0,0,0,-1,1035,1387,0,0
-182,-363,0,0,0,0,0,0,0,0,0,-1,1042,1387,0,0
-175,-363,0,0,0,0,0,0,0,0,0,-1,1049,1387,0,0
-168,-363,0,0,0,0,0,0,0,0,0,-1,1056,1387,0,0
-161,-363,0,0,0,0,0,0,0,0,0,-1,1063,1387,0,0
-154,-363,0,0,0,0,0,0,0,0,0,-1,1070,1387,0,0
-147,-363,0,0,0,0,0,0,0,0,0,-1,1077,1387,0,0
-140,-363,0,0,0,0,0,0,0,0,0,-1,1084,1387,0,0
-133,-363,0,0,0,0,0,0,0,0,0,-1,1091,1387,0,0
-126,-363,0,0,0,0,0,0,0,0,0,-1,1098,1387,0,0
-119,-363,0,0,0,0,0,0,0,0,0,-1,1105,1387,0,0
-112,-363,0,0,0,0,0,0,0,0,0,-1,1112,1387,0,0
-105,-363,0,0,0,0,0,0,0,0,0,-1,1119,1387,0,0
-98,-363,0,0,0,0,0,0,0,0,0,-1,1126,1387,0,0
-91,-363,0,0,0,0,0,0,0,0,0,-1,1133,1387,0,0
-84,-363,0,0,0,0,0,0,0,0,0,-1,1140,1387,0,0
-77,-363,0,0,0,0,0,0,0,0,0,-1,1147,1387,0,0
-70,-363,0,0,0,0,0,0,0,0,0,-1,1154,1387,0,0
-63,-363,0,0,0,0,0,0,0,0,0,-1,1161,1387,0,0
-56,-363,0,0,0,0,0,0,0,0,0,-1,1168,1387,0,0
-49,-363,0,0,0,0,0,0,0,0,0,-1,1175,1387,0,0
-42,-363,0,0,0,0,0,0,0,0,0,-1,1182,1387,0,0
-35,-363,0,0,0,0,0,0,0,0,0,-1,1189,1387,0,0
-28,-363,0,0,0,0,0,0,0,0,0,-1,1196,1387,0,0
-21,-363,0,0,0,0,0,0,0,0,0,-1,1203,1387,0,0
-14,-363,0,0,0,0,0,0,0,0,0,-1,1210,1387,0,0
-7,-363,0,0,0,0,0,0,0,0,0,-1,1217,1387,0,0
0,-363,0,0,0,0,0,0,0,0,0,-1,1224,1387,0,0
7,-363,0,0,0,0,0,0,0,0,0,-1,1231,1387,0,0
14,-363,0,0,0,0,0,0,0,0,0,-1,1238,1387,0,0
21,-363,0,0,0,0,0,0,0,0,0,-1,1245,1387,0,0
28,-363,0,0,0,0,0,0,0,0,0,-1,1252,1387,0,0
35,-363,0,0,0,0,0,0,0,0,0,-1,1259,1387,0,0
42,-363,0,0,0,0,0,0,0,0,0,-1,1266,1387,0,0
49,-363,0,0,0,0,0,0,0,0,0,-1,1273,1387,0,0
56,-363,0,0,0,0,0,0,0,0,0,-1,1280,1387,0,0
63,-363,0,0,0,0,0,0,0,0,0,-1,1287,1387,0,0
70,-363,0,0,0,0,0,0,0,0,0,-1,1294,1387,0,0
77,-363,0,0,0,0,0,0,0,0,0,-1,1301,1387,0,0
84,-363,0,0,0,0,0,0,0,0,0,-1,1308,1387,0,0
91,-363,0,0,0,0,0,0,0,0,0,-1,1315,1387,0,0
98,-363,0,0,0,0,0,0,0,0,0,-1,1322,1387,0,0
105,-363,0,0,0,0,0,0,0,0,0,-1,1329,1387,0,0
112,-363,0,0,0,0,0,0,0,0,0,-1,1336,1387,0,0
119,-363,0,0,0,0,0,0,0,0,0,-1,1343,1387,0,0
126,-363,0,0,0,0,0,0,0,0,0,-1,1350,1387,0,0
133,-363,0,0,0,0,0,0,0,0,0,-1,1357,1387,0,0
140,-363,0,0,0,0,0,0,0,0,0,-1,1364,1387,0,0
147,-363,0,0,0,0,0,0,0,0,0,-1,1371,1387,0,0
154,-363,0,0,0,0,0,0,0,0,0,-1,1378,1387,0,0
161,-363,0,0,0,0,0,0,0,0,0,-1,1385,1387,0,0
168,-363,0,0,0,0,0,0,0,0,0,-1,1392,1387,0,0
175,-363,0,0,0,0,0,0,0,0,0,-1,1399,1387,0,0
182,-363,0,0,0,0,0,0,0,0,0,-1,1406,1387,0,0
189,-363,0,0,0,0,0,0,0,0,0,-1,1413,1387,0,0
196,-363,0,0,0,0,0,0,0,0,0,-1,1420,1387,0,0
203,-363,0,0,0,0,0,0,0,0,0,-1,1427,1387,0,0
210,-363,0,0,0,0,0,0,0,0,0,-1,1434,1387,0,0
217,-363,0,0,0,0,0,0,0,0,0,-1,1441,1387,0,0
224,-363,0,0,0,0,0,0,0,0,0,-1,1448,1387,0,0
231,-363,0,0,0,0,0,0,0,0,0,-1,1455,1387,0,0
238,-363,0,0,0,0,0,0,0,0,0,-1,1462,1387,0,0
245,-363,0,0,0,0,0,0,0,0,0,-1,1469,1387,0,0
252,-363,0,0,0,0,0,0,0,0,0,-1,1476,1387,0,0
259,-363,0,0,0,0,0,0,0,0,0,-1,1483,1387,0,0
266,-363,0,0,0,0,0,0,0,0,0,-1,1490,1387,0,0
273,-363,0,0,0,0,0,0,0,0,0,-1,1497,1387,0,0
280,-363,0,0,0,0,0,0,0,0,0,-1,1504,1387,0,0
287,-363,0,0,0,0,0,0,0,0,0,-1,1511,1387,0,0
294,-363,0,0,0,0,0,0,0,0,0,-1,1518,1387,0,0
301,-363,0,0,0,0,0,0,0,0,0,-1,1525,1387,0,0
308,-363,0,0,0,0,0,0,0,0,0,-1,1532,1387,0,0
315,-363,0,0,0,0,0,0,0,0,0,-1,1539,1387,0,0
322,-363,0,0,0,0,0,0,0,0,0,-1,1546,1387,0,0
329,-363,0,0,0,0,0,0,0,0,0,-1,1553,1387,0,0
336,-363,0,0,0,0,0,0,0,0,0,-1,1560,1387,0,0
343,-363,0,0,0,0,0,0,0,0,0,-1,1567,1387,0,0
350,-363,0,0,0,0,0,0,0,0,0,-1,1574,1387,0,0
357,-363,0,0,0,0,0,0,0,0,0,-1,1581,1387,0,0
364,-363,0,0,0,0,0,0,0,0,0,-1,1588,1387,0,0
371,-363,0,0,0,0,0,0,0,0,0,-1,1595,1387,0,0
378,-363,0,0,0,0,0,0,0,0,0,-1,1602,1387,0,0
385,-363,0,0,0,0,0,0,0,0,0,-1,1609,1387,0,0
392,-363,0,0,0,0,0,0,0,0,0,-1,1616,1387,0,0
399,-363,0,0,0,0,0,0,0,0,0,-1,1623,1387,0,0
406,-363,0,0,0,0,0,0,0,0,0,-1,1630,1387,0,0
413,-363,0,0,0,0,0,0,0,0,0,-1,1637,1387,0,0
420,-363,0,0,0,0,0,0,0,0,0,-1,1644,1387,0,0
427,-363,0,0,0,0,0,0,0,0,0,-1,1651,1387,0,0
434,-363,0,0,0,0,0,0,0,0,0,-1,1658,1387,0,0
441,-363,0,0,0,0,0,0,0,0,0,-1,1665,1387,0,0
448,-363,0,0,0,0,0,0,0,0,0,-1,1672,1387,0,0
455,-363,0,0,0,0,0,0,0,0,0,-1,1679,1387,0,0
462,-363,0,0,0,0,0,0,0,0,0,-1,1686,1387,0,0
469,-363,0,0,0,0,0,0,0,0,0,-1,1693,1387,0,0
476,-363,0,0,0,0,0,0,0,0,0,-1,1700,1387,0,0
483,-363,0,0,0,0,0,0,0,0,0,-1,1707,1387,0,0
490,-363,0,0,0,0,0,0,0,0,0,-1,1714,1387,0,0
497,-363,0,0,0,0,0,0,0,0,0,-1,1721,1387,0,0
504,-363,0,0,0,0,0,0,0,0,0,-1,1728,1387,0,0
511,-363,0,0,0,0,0,0,0,0,0,-1,1735,1387,0,0
518,-363,0,0,0,0,0,0,0,0,0,-1,1742,1387,0,0
525,-363,0,0,0,0,0,0,0,0,0,-1,1749,1387,0,0
532,-363,0,0,0,0,0,0,0,0,0,-1,1756,1387,0,0
539,-363,0,0,0,0,0,0,0,0,0,-1,1763,1387,0,0
546,-363,0,0,0,0,0,0,0,0,0,-1,1770,1387,0,0
553,-363,45.9076,3.64331,0,0,0,0,0,0,0,-1,1777,1387,45.9076,-3.64336
560,-363,45.9459,3.6875,0,0,0,0,0,0,0,-1,1784,1387,45.9459,-3.68756
567,-363,45.9266,3.32825,0,0,0,0,0,0,0,-1,1791,1387,45.9266,-3.32824
574,-363,45.7261,2.8075,0,0,0,0,0,0,0,-1,1798,1387,45.7261,-2.80754
581,-363,39.2413,1.97632,0,0,0,0,0,0,0,-1,1805,1387,39.2413,-1.97636
588,-363,32.5608,6.72131,0,0,0,0,0,0,0,-1,1812,1387,32.5608,-6.72131
595,-363,31.4688,6.95435,0,0,0,0,0,0,0,-1,1819,1387,31.4688,-6.95431
602,-363,25.7437,5.33667,0,0,0,0,0,0,0,-1,1826,1387,25.7437,-5.33667
609,-363,27.7048,7.06885,0,0,0,0,0,0,0,-1,1833,1387,27.7048,-7.06882
616,-363,16.229,1.08704,0,0,0,0,0,0,0,-1,1840,1387,16.229,-1.08706
623,-363,15.7283,7.16663,0,0,0,0,0,0,0,-1,1847,1387,15.7282,-7.16665
630,-363,18.3192,9.27844,0,0,0,0,0,0,0,-1,1854,1387,18.3192,-9.27843
637,-363,32.2568,15.6589,0,0,0,0,0,0,0,-1,1861,1387,32.2568,-15.6589
644,-363,32.3112,14.9386,-4.04554e-06,0.00290747,-0.00462535,0.00630074,-0.00339732,-0.937858,0.0056822,0.0173142,1868,1387,32.3112,-14.9386
651,-363,32.3319,14.2988,0.000653517,0.000976539,-0.00166613,0.00248897,-0.00085891,-0.833716,0.00200782,0.0119558,1875,1387,32.3319,-14.2988
658,-363,32.3176,13.7419,0.0010582,0.000102352,-0.000369752,0.00118453,-2.39826e-05,-0.329238,0.000797801,0.0123104,1882,1387,32.3176,-13.742
665,-363,32.2958,13.2369,0.00124429,-0.000237617,-4.28051e-05,0.00124552,-0.000238852,-0.0288531,0.000920357,0.0126453,1889,1387,32.2957,-13.237
672,-363,32.2704,12.71,0.00155429,-0.000552326,0.000226864,0.00157844,-0.00057648,0.106071,0.00128819,0.0130284,1896,1387,32.2703,-12.7099
679,-363,32.2483,12.1466,0.00201333,-0.000782366,0.000384925,0.00206536,-0.000834396,0.134355,0.00172372,0.0135308,1903,1387,32.2483,-12.1466
686,-363,32.2233,11.6007,0.00259466,-0.00098498,0.000474421,0.00265646,-0.00104679,0.129554,0.00220437,0.015025,1910,1387,32.2232,-11.6007
693,-363,32.2158,11.0283,0.00331652,-0.00111688,0.000465336,0.00336484,-0.0011652,0.103459,0.00271625,0.0147177,1917,1387,32.2158,-11.0283
700,-363,32.3116,10.4054,0.00422827,-0.0010558,0.000323345,0.00424799,-0.00107551,0.0608896,0.00325036,0.0265766,1924,1387,32.3116,-10.4055
707,-363,32.5211,9.8335,0,0,0,0,0,0,0,-1,1931,1387,32.5211,-9.83356
714,-363,16.5782,5.3147,0,0,0,0,0,0,0,-1,1938,1387,16.5783,-5.31472
721,-363,14.4045,4.51685,0,0,0,0,0,0,0,-1,1945,1387,14.4045,-4.51685
728,-363,19.9756,0.853027,0,0,0,0,0,0,0,-1,1952,1387,19.9756,-0.853059
735,-363,21.4297,1.2981,0,0,0,0,0,0,0,-1,1959,1387,21.4297,-1.29811
742,-363,21.3621,2.79663,0,0,0,0,0,0,0,-1,1966,1387,21.362,-2.7966
749,-363,0,0,0,0,0,0,0,0,0,-1,1973,1387,0,0
756,-363,0,0,0,0,0,0,0,0,0,-1,1980,1387,0,0
763,-363,0,0,0,0,0,0,0,0,0,-1,1987,1387,0,0
770,-363,0,0,0,0,0,0,0,0,0,-1,1994,1387,0,0
777,-363,0,0,0,0,0,0,0,0,0,-1,2001,1387,0,0
784,-363,0,0,0,0,0,0,0,0,0,-1,2008,1387,0,0
791,-363,0,0,0,0,0,0,0,0,0,-1,2015,1387,0,0
798,-363,0,0,0,0,0,0,0,0,0,-1,2022,1387,0,0
805,-363,0,0,0,0,0,0,0,0,0,-1,2029,1387,0,0
812,-363,0,0,0,0,0,0,0,0,0,-1,2036,1387,0,0
-700,-370,0,0,0,0,0,0,0,0,0,-1,524,1394,0,0
-693,-370,0,0,0,0,0,0,0,0,0,-1,531,1394,0,0
-686,-370,0,0,0,0,0,0,0,0,0,-1,538,1394,0,0
-679,-370,0,0,0,0,0,0,0,0,0,-1,545,1394,0,0
-672,-370,0,0,0,0,0,0,0,0,0,-1,552,1394,0,0
-665,-370,0,0,0,0,0,0,0,0,0,-1,559,1394,0,0
-658,-370,0,0,0,0,0,0,0,0,0,-1,566,1394,0,0
-651,-370,0,0,0,0,0,0,0,0,0,-1,573,1394,0,0
-644,-370,0,0,0,0,0,0,0,0,0,-1,580,1394,0,0
-637,-370,0,0,0,0,0,0,0,0,0,-1,587,1394,0,0
-630,-370,0,0,0,0,0,0,0,0,0,-1,594,1394,0,0
-623,-370,-10.1758,-7.10486,0,0,0,0,0,0,0,-1,601,1394,-10.1758,7.10483
-616,-370,-8.85925,-1.61475,0,0,0,0,0,0,0,-1,608,1394,-8.85925,1.61476
-609,-370,-5.39325,0.0421143,0,0,0,0,0,0,0,-1,615,1394,-5.39328,-0.0421372
-602,-370,-12.3151,3.44592,0,0,0,0,0,0,0,-1,622,1394,-12.3151,-3.44595
-595,-370,-7.53284,5.44214,0,0,0,0,0,0,0,-1,629,1394,-7.53284,-5.44216
-588,-370,-11.2422,4.50598,0,0,0,0,0,0,0,-1,636,1394,-11.2422,-4.50596
-581,-370,-13.1575,5.84888,0,0,0,0,0,0,0,-1,643,1394,-13.1575,-5.84887
-574,-370,-13.0107,6.69861,0,0,0,0,0,0,0,-1,650,1394,-13.0108,-6.69866
-567,-370,-16.1904,8.26904,0,0,0,0,0,0,0,-1,657,1394,-16.1904,-8.26903
-560,-370,-16.2109,8.94458,0.00314782,0.000967801,0.00143593,0.00386059,0.000255033,0.460749,0.00249307,0.0278409,664,1394,-16.2109,-8.94462
-553,-370,-16.1594,9.60486,0.0027858,0.000817404,0.00117575,0.00333491,0.000268292,0.436926,0.00213946,0.0112891,671,1394,-16.1594,-9.60488
-546,-370,-16.1321,10.2257,0.00257963,0.000670245,0.0010134,0.0030172,0.00023267,0.407609,0.00193857,0.0162004,678,1394,-16.1321,-10.2257
-539,-370,-16.1282,10.8501,0.00254255,0.000573764,0.000952476,0.00292792,0.000188399,0.38446,0.00189227,0.0211041,685,1394,-16.1283,-10.8501
-532,-370,-16.1914,11.4139,0.00272534,0.000571108,0.00104244,0.00314718,0.000149271,0.38452,0.00205018,0.0205162,692,1394,-16.1914,-11.414
-525,-370,-16.2328,11.9999,0.00315871,0.000769716,0.00134786,0.0037652,0.000163225,0.422825,0.00245753,0.017273,699,1394,-16.2328,-11.9999
-518,-370,-16.23,12.5826,0.00376181,0.00107098,0.00178264,0.00464977,0.000183027,0.462137,0.00304067,0.0125074,706,1394,-16.23,-12.5827
-511,-370,-16.2234,13.2224,0.0046486,0.00156752,0.00245195,0.0060038,0.000212317,0.504918,0.00393367,0.014181,713,1394,-16.2235,-13.2224
-504,-370,-16.2108,13.877,0,0,0,0,0,0,0,-1,720,1394,-16.2108,-13.8769
-497,-370,-12.3546,11.7982,0,0,0,0,0,0,0,-1,727,1394,-12.3546,-11.7983
-490,-370,-5.30695,4.5271,0,0,0,0,0,0,0,-1,734,1394,-5.30698,-4.52704
-483,-370,-6.02997,4.59253,0,0,0,0,0,0,0,-1,741,1394,-6.02994,-4.5925
-476,-370,-6.75293,4.65796,0,0,0,0,0,0,0,-1,748,1394,-6.7529,-4.65795
-469,-370,-10.584,1.14294,0,0,0,0,0,0,0,-1,755,1394,-10.584,-1.14293
-462,-370,-9.54462,0.387207,0,0,0,0,0,0,0,-1,762,1394,-9.5446,-0.387176
-455,-370,-8.50525,-0.36853,0,0,0,0,0,0,0,-1,769,1394,-8.50523,0.368582
-448,-370,-10.9543,2.28833,0,0,0,0,0,0,0,-1,776,1394,-10.9543,-2.28835
-441,-370,-11.8699,1.8313,0,0,0,0,0,0,0,-1,783,1394,-11.8699,-1.83127
-434,-370,-12.7855,1.37415,0,0,0,0,0,0,0,-1,790,1394,-12.7855,-1.37419
-427,-370,0,0,0,0,0,0,0,0,0,-1,797,1394,0,0
-420,-370,0,0,0,0,0,0,0,0,0,-1,804,1394,0,0
-413,-370,0,0,0,0,0,0,0,0,0,-1,811,1394,0,0
-406,-370,0,0,0,0,0,0,0,0,0,-1,818,1394,0,0
-399,-370,0,0,0,0,0,0,0,0,0,-1,825,1394,0,0
-392,-370,0,0,0,0,0,0,0,0,0,-1,832,1394,0,0
-385,-370,0,0,0,0,0,0,0,0,0,-1,839,1394,0,0
-378,-370,0,0,0,0,0,0,0,0,0,-1,846,1394,0,0
-371,-370,0,0,0,0,0,0,0,0,0,-1,853,1394,0,0
-364,-370,0,0,0,0,0,0,0,0,0,-1,860,1394,0,0
-357,-370,0,0,0,0,0,0,0,0,0,-1,867,1394,0,0
-350,-370,0,0,0,0,0,0,0,0,0,-1,874,1394,0,0
-343,-370,0,0,0,0,0,0,0,0,0,-1,881,1394,0,0
-336,-370,0,0,0,0,0,0,0,0,0,-1,888,1394,0,0
-329,-370,0,0,0,0,0,0,0,0,0,-1,895,1394,0,0
-322,-370,0,0,0,0,0,0,0,0,0,-1,902,1394,0,0
-315,-370,0,0,0,0,0,0,0,0,0,-1,909,1394,0,0
-308,-370,0,0,0,0,0,0,0,0,0,-1,916,1394,0,0
-301,-370,0,0,0,0,0,0,0,0,0,-1,923,1394,0,0
-294,-370,0,0,0,0,0,0,0,0,0,-1,930,1394,0,0
-287,-370,0,0,0,0,0,0,0,0,0,-1,937,1394,0,0
-280,-370,0,0,0,0,0,0,0,0,0,-1,944,1394,0,0
-273,-370,0,0,0,0,0,0,0,0,0,-1,951,1394,0,0
-266,-370,0,0,0,0,0,0,0,0,0,-1,958,1394,0,0
-259,-370,0,0,0,0,0,0,0,0,0,-1,965,1394,0,0
-252,-370,0,0,0,0,0,0,0,0,0,-1,972,1394,0,0
-245,-370,0,0,0,0,0,0,0,0,0,-1,979,1394,0,0
-238,-370,0,0,0,0,0,0,0,0,0,-1,986,1394,0,0
-231,-370,0,0,0,0,0,0,0,0,0,-1,993,1394,0,0
-224,-370,0,0,0,0,0,0,0,0,0,-1,1000,1394,0,0
-217,-370,0,0,0,0,0,0,0,0,0,-1,1007,1394,0,0
-210,-370,0,0,0,0,0,0,0,0,0,-1,1014,1394,0,0
-203,-370,0,0,0,0,0,0,0,0,0,-1,1021,1394,0,0
-196,-370,0,0,0,0,0,0,0,0,0,-1,1028,1394,0,0
-189,-370,0,0,0,0,0,0,0,0,0,-1,1035,1394,0,0
-182,-370,0,0,0,0,0,0,0,0,0,-1,1042,1394,0,0
-175,-370,0,0,0,0,0,0,0,0,0,-1,1049,1394,0,0
-168,-370,0,0,0,0,0,0,0,0,0,-1,1056,1394,0,0
-161,-370,0,0,0,0,0,0,0,0,0,-1,1063,1394,0,0
-154,-370,0,0,0,0,0,0,0,0,0,-1,1070,1394,0,0
-147,-370,0,0,0,0,0,0,0,0,0,-1,1077,1394,0,0
-140,-370,0,0,0,0,0,0,0,0,0,-1,1084,1394,0,0
-133,-370,0,0,0,0,0,0,0,0,0,-1,1091,1394,0,0
-126,-370,0,0,0,0,0,0,0,0,0,-1,1098,1394,0,0
-119,-370,0,0,0,0,0,0,0,0,0,-1,1105,1394,0,0
-112,-370,0,0,0,0,0,0,0,0,0,-1,1112,1394,0,0
-105,-370,0,0,0,0,0,0,0,0,0,-1,1119,1394,0,0
-98,-370,0,0,0,0,0,0,0,0,0,-1,1126,1394,0,0
-91,-370,0,0,0,0,0,0,0,0,0,-1,1133,1394,0,0
-84,-370,0,0,0,0,0,0,0,0,0,-1,1140,1394,0,0
-77,-370,0,0,0,0,0,0,0,0,0,-1,1147,1394,0,0
-70,-370,0,0,0,0,0,0,0,0,0,-1,1154,1394,0,0
-63,-370,0,0,0,0,0,0,0,0,0,-1,1161,1394,0,0
-56,-370,0,0,0,0,0,0,0,0,0,-1,1168,1394,0,0
-49,-370,0,0,0,0,0,0,0,0,0,-1,1175,1394,0,0
-42,-370,0,0,0,0,0,0,0,0,0,-1,1182,1394,0,0
-35,-370,0,0,0,0,0,0,0,0,0,-1,1189,1394,0,0
-28,-370,0,0,0,0,0,0,0,0,0,-1,1196,1394,0,0
-21,-370,0,0,0,0,0,0,0,0,0,-1,1203,1394,0,0
-14,-370,0,0,0,0,0,0,0,0,0,-1,1210,1394,0,0
-7,-370,0,0,0,0,0,0,0,0,0,-1,1217,1394,0,0
0,-370,0,0,0,0,0,0,0,0,0,-1,1224,1394,0,0
7,-370,0,0,0,0,0,0,0,0,0,-1,1231,1394,0,0
14,-370,0,0,0,0,0,0,0,0,0,-1,1238,1394,0,0
21,-370,0,0,0,0,0,0,0,0,0,-1,1245,1394,0,0
28,-370,0,0,0,0,0,0,0,0,0,-1,1252,1394,0,0
35,-370,0,0,0,0,0,0,0,0,0,-1,1259,1394,0,0
42,-370,0,0,0,0,0,0,0,0,0,-1,1266,1394,0,0
49,-370,0,0,0,0,0,0,0,0,0,-1,1273,1394,0,0
56,-370,0,0,0,0,0,0,0,0,0,-1,1280,1394,0,0
63,-370,0,0,0,0,0,0,0,0,0,-1,1287,1394,0,0
70,-370,0,0,0,0,0,0,0,0,0,-1,1294,1394,0,0
77,-370,0,0,0,0,0,0,0,0,0,-1,1301,1394,0,0
84,-370,0,0,0,0,0,0,0,0,0,-1,1308,1394,0,0
91,-370,0,0,0,0,0,0,0,0,0,-1,1315,1394,0,0
98,-370,0,0,0,0,0,0,0,0,0,-1,1322,1394,0,0
105,-370,0,0,0,0,0,0,0,0,0,-1,1329,1394,0,0
112,-370,0,0,0,0,0,0,0,0,0,-1,1336,1394,0,0
119,-370,0,0,0,0,0,0,0,0,0,-1,1343,1394,0,0
126,-370,0,0,0,0,0,0,0,0,0,-1,1350,1394,0,0
133,-370,0,0,0,0,0,0,0,0,0,-1,1357,1394,0,0
140,-370,0,0,0,0,0,0,0,0,0,-1,1364,1394,0,0
147,-370,0,0,0,0,0,0,0,0,0,-1,1371,1394,0,0
154,-370,0,0,0,0,0,0,0,0,0,-1,1378,1394,0,0
161,-370,0,0,0,0,0,0,0,0,0,-1,1385,1394,0,0
168,-370,0,0,0,0,0,0,0,0,0,-1,1392,1394,0,0
175,-370,0,0,0,0,0,0,0,0,0,-1,1399,1394,0,0
182,-370,0,0,0,0,0,0,0,0,0,-1,1406,1394,0,0
189,-370,0,0,0,0,0,0,0,0,0,-1,1413,1394,0,0
196,-370,0,0,0,0,0,0,0,0,0,-1,1420,1394,0,0
203,-370,0,0,0,0,0,0,0,0,0,-1,1427,1394,0,0
210,-370,0,0,0,0,0,0,0,0,0,-1,1434,1394,0,0
217,-370,0,0,0,0,0,0,0,0,0,-1,1441,1394,0,0
224,-370,0,0,0,0,0,0,0,0,0,-1,1448,1394,0,0
231,-370,0,0,0,0,0,0,0,0,0,-1,1455,1394,0,0
238,-370,0,0,0,0,0,0,0,0,0,-1,1462,1394,0,0
245,-370,0,0,0,0,0,0,0,0,0,-1,1469,1394,0,0
252,-370,0,0,0,0,0,0,0,0,0,-1,1476,1394,0,0
259,-370,0,0,0,0,0,0,0,0,0,-1,1483,1394,0,0
266,-370,0,0,0,0,0,0,0,0,0,-1,1490,1394,0,0
273,-370,0,0,0,0,0,0,0,0,0,-1,1497,1394,0,0
280,-370,0,0,0,0,0,0,0,0,0,-1,1504,1394,0,0
287,-370,0,0,0,0,0,0,0,0,0,-1,1511,1394,0,0
294,-370,0,0,0,0,0,0,0,0,0,-1,1518,1394,0,0
301,-370,0,0,0,0,0,0,0,0,0,-1,1525,1394,0,0
308,-370,0,0,0,0,0,0,0,0,0,-1,1532,1394,0,0
315,-370,0,0,0,0,0,0,0,0,0,-1,1539,1394,0,0
322,-370,0,0,0,0,0,0,0,0,0,-1,1546,1394,0,0
329,-370,0,0,0,0,0,0,0,0,0,-1,1553,1394,0,0
336,-370,0,0,0,0,0,0,0,0,0,-1,1560,1394,0,0
343,-370,0,0,0,0,0,0,0,0,0,-1,1567,1394,0,0
350,-370,0,0,0,0,0,0,0,0,0,-1,1574,1394,0,0
357,-370,0,0,0,0,0,0,0,0,0,-1,1581,1394,0,0
364,-370,0,0,0,0,0,0,0,0,0,-1,1588,1394,0,0
371,-370,0,0,0,0,0,0,0,0,0,-1,1595,1394,0,0
378,-370,0,0,0,0,0,0,0,0,0,-1,1602,1394,0,0
385,-370,0,0,0,0,0,0,0,0,0,-1,1609,1394,0,0
392,-370,0,0,0,0,0,0,0,0,0,-1,1616,1394,0,0
399,-370,0,0,0,0,0,0,0,0,0,-1,1623,1394,0,0
406,-370,0,0,0,0,0,0,0,0,0,-1,1630,1394,0,0
413,-370,0,0,0,0,0,0,0,0,0,-1,1637,1394,0,0
420,-370,0,0,0,0,0,0,0,0,0,-1,1644,1394,0,0
427,-370,0,0,0,0,0,0,0,0,0,-1,1651,1394,0,0
434,-370,0,0,0,0,0,0,0,0,0,-1,1658,1394,0,0
441,-370,0,0,0,0,0,0,0,0,0,-1,1665,1394,0,0
448,-370,0,0,0,0,0,0,0,0,0,-1,1672,1394,0,0
455,-370,0,0,0,0,0,0,0,0,0,-1,1679,1394,0,0
462,-370,0,0,0,0,0,0,0,0,0,-1,1686,1394,0,0
469,-370,0,0,0,0,0,0,0,0,0,-1,1693,1394,0,0
476,-370,0,0,0,0,0,0,0,0,0,-1,1700,1394,0,0
483,-370,0,0,0,0,0,0,0,0,0,-1,1707,1394,0,0
490,-370,0,0,0,0,0,0,0,0,0,-1,1714,1394,0,0
497,-370,0,0,0,0,0,0,0,0,0,-1,1721,1394,0,0
504,-370,0,0,0,0,0,0,0,0,0,-1,1728,1394,0,0
511,-370,0,0,0,0,0,0,0,0,0,-1,1735,1394,0,0
518,-370,0,0,0,0,0,0,0,0,0,-1,1742,1394,0,0
525,-370,0,0,0,0,0,0,0,0,0,-1,1749,1394,0,0
532,-370,0,0,0,0,0,0,0,0,0,-1,1756,1394,0,0
539,-370,0,0,0,0,0,0,0,0,0,-1,1763,1394,0,0
546,-370,27.4949,2.81201,0,0,0,0,0,0,0,-1,1770,1394,27.4948,-2.81198
553,-370,26.5985,1.99329,0,0,0,0,0,0,0,-1,1777,1394,26.5985,-1.99327
560,-370,46.0132,3.65686,0,0,0,0,0,0,0,-1,1784,1394,46.0132,-3.65689
567,-370,46.1089,3.11719,0,0,0,0,0,0,0,-1,1791,1394,46.1089,-3.1172
574,-370,38.8953,1.49353,0,0,0,0,0,0,0,-1,1798,1394,38.8952,-1.49348
581,-370,39.178,2.86145,0,0,0,0,0,0,0,-1,1805,1394,39.1779,-2.86145
588,-370,39.2102,4.27661,0,0,0,0,0,0,0,-1,1812,1394,39.2102,-4.27657
595,-370,25.793,4.5271,0,0,0,0,0,0,0,-1,1819,1394,25.793,-4.52711
602,-370,25.1077,5.34937,0,0,0,0,0,0,0,-1,1826,1394,25.1077,-5.34932
609,-370,16.712,0.993286,0,0,0,0,0,0,0,-1,1833,1394,16.7121,-0.99323
616,-370,16.7764,7.23315,0,0,0,0,0,0,0,-1,1840,1394,16.7764,-7.23313
623,-370,17.6625,8.94263,0,0,0,0,0,0,0,-1,1847,1394,17.6624,-8.94258
630,-370,20.9681,11.1785,0,0,0,0,0,0,0,-1,1854,1394,20.9681,-11.1784
637,-370,31.7422,15.4609,0,0,0,0,0,0,0,-1,1861,1394,31.7422,-15.461
644,-370,31.7925,14.9001,0.00131386,0.000821331,-0.00132667,0.00241693,-0.000281738,-0.69363,0.00171294,0.0147733,1868,1394,31.7925,-14.9001
651,-370,31.793,14.3423,0.00110463,0.000330828,-0.000690793,0.00150949,-7.40327e-05,-0.530122,0.00103189,0.0135639,1875,1394,31.7929,-14.3423
658,-370,31.7708,13.8085,0.00119303,-4.26714e-05,-0.000250186,0.00124176,-9.14035e-05,-0.192375,0.000859928,0.0132989,1882,1394,31.7708,-13.8085
665,-370,31.743,13.267,0.00141334,-0.000405622,0.000115057,0.00142059,-0.00041287,0.0629196,0.00111057,0.0144235,1889,1394,31.743,-13.267
672,-370,31.709,12.709,0.00176426,-0.000780279,0.000445259,0.00183993,-0.000855944,0.168325,0.00159065,0.0154208,1896,1394,31.709,-12.709
679,-370,31.7047,12.1456,0.002272,-0.00110386,0.000684983,0.00240569,-0.00123756,0.192754,0.00213917,0.0145693,1903,1394,31.7048,-12.1457
686,-370,31.6823,11.6041,0.00290636,-0.00145488,0.000882863,0.0030783,-0.00162682,0.192348,0.00275925,0.0146077,1910,1394,31.6823,-11.6041
693,-370,31.6692,11.0187,0.00373726,-0.00176942,0.000958246,0.00389924,-0.0019314,0.16746,0.00342964,0.0134246,1917,1394,31.6691,-11.0187
700,-370,31.7849,10.3658,0.00482863,-0.00192037,0.000897052,0.00494583,-0.00203756,0.129912,0.00414677,0.0384483,1924,1394,31.7849,-10.3658
707,-370,31.996,9.63672,0,0,0,0,0,0,0,-1,1931,1394,31.996,-9.63673
714,-370,16.9116,5.93018,0,0,0,0,0,0,0,-1,1938,1394,16.9116,-5.93014
721,-370,17.2007,4.69153,0,0,0,0,0,0,0,-1,1945,1394,17.2007,-4.69158
728,-370,20.5315,-0.313354,0,0,0,0,0,0,0,-1,1952,1394,20.5315,0.313332
735,-370,22.3652,0.233398,0,0,0,0,0,0,0,-1,1959,1394,22.3652,-0.233355
742,-370,24.1989,0.780029,0,0,0,0,0,0,0,-1,1966,1394,24.1989,-0.780041
749,-370,0,0,0,0,0,0,0,0,0,-1,1973,1394,0,0
756,-370,0,0,0,0,0,0,0,0,0,-1,1980,1394,0,0
763,-370,0,0,0,0,0,0,0,0,0,-1,1987,1394,0,0
770,-370,0,0,0,0,0,0,0,0,0,-1,1994,1394,0,0
777,-370,0,0,0,0,0,0,0,0,0,-1,2001,1394,0,0
784,-370,0,0,0,0,0,0,0,0,0,-1,2008,1394,0,0
791,-370,0,0,0,0,0,0,0,0,0,-1,2015,1394,0,0
798,-370,0,0,0,0,0,0,0,0,0,-1,2022,1394,0,0
805,-370,0,0,0,0,0,0,0,0,0,-1,2029,1394,0,0
812,-370,0,0,0,0,0,0,0,0,0,-1,2036,1394,0,0
-700,-377,0,0,0,0,0,0,0,0,0,-1,524,1401,0,0
-693,-377,0,0,0,0,0,0,0,0,0,-1,531,1401,0,0
-686,-377,0,0,0,0,0,0,0,0,0,-1,538,1401,0,0
-679,-377,0,0,0,0,0,0,0,0,0,-1,545,1401,0,0
-672,-377,0,0,0,0,0,0,0,0,0,-1,552,1401,0,0
-665,-377,0,0,0,0,0,0,0,0,0,-1,559,1401,0,0
-658,-377,0,0,0,0,0,0,0,0,0,-1,566,1401,0,0
-651,-377,0,0,0,0,0,0,0,0,0,-1,573,1401,0,0
-644,-377,0,0,0,0,0,0,0,0,0,-1,580,1401,0,0
-637,-377,0,0,0,0,0,0,0,0,0,-1,587,1401,0,0
-630,-377,0,0,0,0,0,0,0,0,0,-1,594,1401,0,0
-623,-377,0,0,0,0,0,0,0,0,0,-1,601,1401,0,0
-616,-377,-9.43915,-2.4906,0,0,0,0,0,0,0,-1,608,1401,-9.43915,2.49062
-609,-377,-7.2821,-1.35278,0,0,0,0,0,0,0,-1,615,1401,-7.28208,1.35279
-602,-377,-14.9736,3.98279,0,0,0,0,0,0,0,-1,622,1401,-14.9737,-3.98276
-595,-377,-6.9082,1.18201,0,0,0,0,0,0,0,-1,629,1401,-6.90822,-1.18204
-588,-377,-12.8003,3.44751,0,0,0,0,0,0,0,-1,636,1401,-12.8003,-3.44754
-581,-377,-11.8243,6.21521,0,0,0,0,0,0,0,-1,643,1401,-11.8244,-6.21519
-574,-377,-12.2761,6.60547,0,0,0,0,0,0,0,-1,650,1401,-12.2761,-6.60552
-567,-377,-13.4844,7.41931,0,0,0,0,0,0,0,-1,657,1401,-13.4845,-7.41926
-560,-377,-15.5724,8.84448,0,0,0,0,0,0,0,-1,664,1401,-15.5724,-8.84451
-553,-377,-15.5539,9.5979,0.00313442,0.00107619,0.0013607,0.00381134,0.000399266,0.461634,0.00241882,0.0159296,671,1401,-15.5539,-9.59788
-546,-377,-15.5661,10.2839,0.00276209,0.000867526,0.00113601,0.00329395,0.000335666,0.437871,0.00209307,0.0168274,678,1401,-15.5661,-10.2839
-539,-377,-15.546,10.8358,0.00256569,0.000719434,0.00100945,0.00301047,0.000274658,0.415018,0.00192198,0.0216285,685,1401,-15.5459,-10.8358
-532,-377,-15.6001,11.3662,0.00258647,0.000657123,0.00102639,0.00303037,0.000213223,0.408193,0.00195306,0.0207823,692,1401,-15.6001,-11.3662
-525,-377,-15.5784,12.0199,0.00287706,0.000823388,0.00127313,0.00348584,0.000214607,0.446038,0.00225576,0.0217955,699,1401,-15.5784,-12.02
-518,-377,-15.6253,12.6198,0.00333844,0.00107276,0.00163912,0.00419809,0.000213107,0.483026,0.00273047,0.0144524,706,1401,-15.6253,-12.6197
-511,-377,-15.6542,13.2421,0.00406082,0.00153935,0.00222365,0.00535627,0.000243898,0.527511,0.00349239,0.0117687,713,1401,-15.6542,-13.2421
-504,-377,-15.6841,13.8799,0.00514269,0.0023474,0.00312731,0.00717047,0.000319626,0.575255,0.00467741,0.0150214,720,1401,-15.6841,-13.8798
-497,-377,-15.5422,14.5389,0,0,0,0,0,0,0,-1,727,1401,-15.5422,-14.5389
-490,-377,-8.88409,10.1245,0,0,0,0,0,0,0,-1,734,1401,-8.8841,-10.1245
-483,-377,-5.6524,5.07324,0,0,0,0,0,0,0,-1,741,1401,-5.6524,-5.07325
-476,-377,-6.11682,5.10535,0,0,0,0,0,0,0,-1,748,1401,-6.11681,-5.10537
-469,-377,-10.3211,1.9281,0,0,0,0,0,0,0,-1,755,1401,-10.3211,-1.92808
-462,-377,-9.2204,1.0022,0,0,0,0,0,0,0,-1,762,1401,-9.22039,-1.00218
-455,-377,-8.11969,0.0762939,0,0,0,0,0,0,0,-1,769,1401,-8.11968,-0.0762759
-448,-377,-9.05334,0.877319,0,0,0,0,0,0,0,-1,776,1401,-9.05332,-0.877324
-441,-377,-11.212,0.763428,0,0,0,0,0,0,0,-1,783,1401,-11.212,-0.763415
-434,-377,-11.0984,0.996216,0,0,0,0,0,0,0,-1,790,1401,-11.0984,-0.996265
-427,-377,-11.1733,1.25732,0,0,0,0,0,0,0,-1,797,1401,-11.1733,-1.25732
-420,-377,0,0,0,0,0,0,0,0,0,-1,804,1401,0,0
-413,-377,0,0,0,0,0,0,0,0,0,-1,811,1401,0,0
-406,-377,0,0,0,0,0,0,0,0,0,-1,818,1401,0,0
-399,-377,0,0,0,0,0,0,0,0,0,-1,825,1401,0,0
-392,-377,0,0,0,0,0,0,0,0,0,-1,832,1401,0,0
-385,-377,0,0,0,0,0,0,0,0,0,-1,839,1401,0,0
-378,-377,0,0,0,0,0,0,0,0,0,-1,846,1401,0,0
-371,-377,0,0,0,0,0,0,0,0,0,-1,853,1401,0,0
-364,-377,0,0,0,0,0,0,0,0,0,-1,860,1401,0,0
-357,-377,0,0,0,0,0,0,0,0,0,-1,867,1401,0,0
-350,-377,0,0,0,0,0,0,0,0,0,-1,874,1401,0,0
-343,-377,0,0,0,0,0,0,0,0,0,-1,881,1401,0,0
-336,-377,0,0,0,0,0,0,0,0,0,-1,888,1401,0,0
-329,-377,0,0,0,0,0,0,0,0,0,-1,895,1401,0,0
-322,-377,0,0,0,0,0,0,0,0,0,-1,902,1401,0,0
-315,-377,0,0,0,0,0,0,0,0,0,-1,909,1401,0,0
-308,-377,0,0,0,0,0,0,0,0,0,-1,916,1401,0,0
-301,-377,0,0,0,0,0,0,0,0,0,-1,923,1401,0,0
-294,-377,0,0,0,0,0,0,0,0,0,-1,930,1401,0,0
-287,-377,0,0,0,0,0,0,0,0,0,-1,937,1401,0,0
-280,-377,0,0,0,0,0,0,0,0,0,-1,944,1401,0,0
-273,-377,0,0,0,0,0,0,0,0,0,-1,951,1401,0,0
-266,-377,0,0,0,0,0,0,0,0,0,-1,958,1401,0,0
-259,-377,0,0,0,0,0,0,0,0,0,-1,965,1401,0,0
-252,-377,0,0,0,0,0,0,0,0,0,-1,972,1401,0,0
-245,-377,0,0,0,0,0,0,0,0,0,-1,979,1401,0,0
-238,-377,0,0,0,0,0,0,0,0,0,-1,986,1401,0,0
-231,-377,0,0,0,0,0,0,0,0,0,-1,993,1401,0,0
-224,-377,0,0,0,0,0,0,0,0,0,-1,1000,1401,0,0
-217,-377,0,0,0,0,0,0,0,0,0,-1,1007,1401,0,0
-210,-377,0,0,0,0,0,0,0,0,0,-1,1014,1401,0,0
-203,-377,0,0,0,0,0,0,0,0,0,-1,1021,1401,0,0
-196,-377,0,0,0,0,0,0,0,0,0,-1,1028,1401,0,0
-189,-377,0,0,0,0,0,0,0,0,0,-1,1035,1401,0,0
-182,-377,0,0,0,0,0,0,0,0,0,-1,1042,1401,0,0
-175,-377,0,0,0,0,0,0,0,0,0,-1,1049,1401,0,0
-168,-377,0,0,0,0,0,0,0,0,0,-1,1056,1401,0,0
-161,-377,0,0,0,0,0,0,0,0,0,-1,1063,1401,0,0
-154,-377,0,0,0,0,0,0,0,0,0,-1,1070,1401,0,0
-147,-377,0,0,0,0,0,0,0,0,0,-1,1077,1401,0,0
-140,-377,0,0,0,0,0,0,0,0,0,-1,1084,1401,0,0
-133,-377,0,0,0,0,0,0,0,0,0,-1,1091,1401,0,0
-126,-377,0,0,0,0,0,0,0,0,0,-1,1098,1401,0,0
-119,-377,0,0,0,0,0,0,0,0,0,-1,1105,1401,0,0
-112,-377,0,0,0,0,0,0,0,0,0,-1,1112,1401,0,0
-105,-377,0,0,0,0,0,0,0,0,0,-1,1119,1401,0,0
-98,-377,0,0,0,0,0,0,0,0,0,-1,1126,1401,0,0
-91,-377,0,0,0,0,0,0,0,0,0,-1,1133,1401,0,0
-84,-377,0,0,0,0,0,0,0,0,0,-1,1140,1401,0,0
-77,-377,0,0,0,0,0,0,0,0,0,-1,1147,1401,0,0
-70,-377,0,0,0,0,0,0,0,0,0,-1,1154,1401,0,0
-63,-377,0,0,0,0,0,0,0,0,0,-1,1161,1401,0,0
-56,-377,0,0,0,0,0,0,0,0,0,-1,1168,1401,0,0
-49,-377,0,0,0,0,0,0,0,0,0,-1,1175,1401,0,0
-42,-377,0,0,0,0,0,0,0,0,0,-1,1182,1401,0,0
-35,-377,0,0,0,0,0,0,0,0,0,-1,1189,1401,0,0
-28,-377,0,0,0,0,0,0,0,0,0,-1,1196,1401,0,0
-21,-377,0,0,0,0,0,0,0,0,0,-1,1203,1401,0,0
-14,-377,0,0,0,0,0,0,0,0,0,-1,1210,1401,0,0
-7,-377,0,0,0,0,0,0,0,0,0,-1,1217,1401,0,0
0,-377,0,0,0,0,0,0,0,0,0,-1,1224,1401,0,0
7,-377,0,0,0,0,0,0,0,0,0,-1,1231,1401,0,0
14,-377,0,0,0,0,0,0,0,0,0,-1,1238,1401,0,0
21,-377,0,0,0,0,0,0,0,0,0,-1,1245,1401,0,0
28,-377,0,0,0,0,0,0,0,0,0,-1,1252,1401,0,0
35,-377,0,0,0,0,0,0,0,0,0,-1,1259,1401,0,0
42,-377,0,0,0,0,0,0,0,0,0,-1,1266,1401,0,0
49,-377,0,0,0,0,0,0,0,0,0,-1,1273,1401,0,0
56,-377,0,0,0,0,0,0,0,0,0,-1,1280,1401,0,0
63,-377,0,0,0,0,0,0,0,0,0,-1,1287,1401,0,0
70,-377,0,0,0,0,0,0,0,0,0,-1,1294,1401,0,0
77,-377,0,0,0,0,0,0,0,0,0,-1,1301,1401,0,0
84,-377,0,0,0,0,0,0,0,0,0,-1,1308,1401,0,0
91,-377,0,0,0,0,0,0,0,0,0,-1,1315,1401,0,0
98,-377,0,0,0,0,0,0,0,0,0,-1,1322,1401,0,0
105,-377,0,0,0,0,0,0,0,0,0,-1,1329,1401,0,0
112,-377,0,0,0,0,0,0,0,0,0,-1,1336,1401,0,0
119,-377,0,0,0,0,0,0,0,0,0,-1,1343,1401,0,0
126,-377,0,0,0,0,0,0,0,0,0,-1,1350,1401,0,0
133,-377,0,0,0,0,0,0,0,0,0,-1,1357,1401,0,0
140,-377,0,0,0,0,0,0,0,0,0,-1,1364,1401,0,0
147,-377,0,0,0,0,0,0,0,0,0,-1,1371,1401,0,0
154,-377,0,0,0,0,0,0,0,0,0,-1,1378,1401,0,0
161,-377,0,0,0,0,0,0,0,0,0,-1,1385,1401,0,0
168,-377,0,0,0,0,0,0,0,0,0,-1,1392,1401,0,0
175,-377,0,0,0,0,0,0,0,0,0,-1,1399,1401,0,0
182,-377,0,0,0,0,0,0,0,0,0,-1,1406,1401,0,0
189,-377,0,0,0,0,0,0,0,0,0,-1,1413,1401,0,0
196,-377,0,0,0,0,0,0,0,0,0,-1,1420,1401,0,0
203,-377,0,0,0,0,0,0,0,0,0,-1,1427,1401,0,0
210,-377,0,0,0,0,0,0,0,0,0,-1,1434,1401,0,0
217,-377,0,0,0,0,0,0,0,0,0,-1,1441,1401,0,0
224,-377,0,0,0,0,0,0,0,0,0,-1,1448,1401,0,0
231,-377,0,0,0,0,0,0,0,0,0,-1,1455,1401,0,0
238,-377,0,0,0,0,0,0,0,0,0,-1,1462,1401,0,0
245,-377,0,0,0,0,0,0,0,0,0,-1,1469,1401,0,0
252,-377,0,0,0,0,0,0,0,0,0,-1,1476,1401,0,0
259,-377,0,0,0,0,0,0,0,0,0,-1,1483,1401,0,0
266,-377,0,0,0,0,0,0,0,0,0,-1,1490,1401,0,0
273,-377,0,0,0,0,0,0,0,0,0,-1,1497,1401,0,0
280,-377,0,0,0,0,0,0,0,0,0,-1,1504,1401,0,0
287,-377,0,0,0,0,0,0,0,0,0,-1,1511,1401,0,0
294,-377,0,0,0,0,0,0,0,0,0,-1,1518,1401,0,0
301,-377,0,0,0,0,0,0,0,0,0,-1,1525,1401,0,0
308,-377,0,0,0,0,0,0,0,0,0,-1,1532,1401,0,0
315,-377,0,0,0,0,0,0,0,0,0,-1,1539,1401,0,0
322,-377,0,0,0,0,0,0,0,0,0,-1,1546,1401,0,0
329,-377,0,0,0,0,0,0,0,0,0,-1,1553,1401,0,0
336,-377,0,0,0,0,0,0,0,0,0,-1,1560,1401,0,0
343,-377,0,0,0,0,0,0,0,0,0,-1,1567,1401,0,0
350,-377,0,0,0,0,0,0,0,0,0,-1,1574,1401,0,0
357,-377,0,0,0,0,0,0,0,0,0,-1,1581,1401,0,0
364,-377,0,0,0,0,0,0,0,0,0,-1,1588,1401,0,0
371,-377,0,0,0,0,0,0,0,0,0,-1,1595,1401,0,0
378,-377,0,0,0,0,0,0,0,0,0,-1,1602,1401,0,0
385,-377,0,0,0,0,0,0,0,0,0,-1,1609,1401,0,0
392,-377,0,0,0,0,0,0,0,0,0,-1,1616,1401,0,0
399,-377,0,0,0,0,0,0,0,0,0,-1,1623,1401,0,0
406,-377,0,0,0,0,0,0,0,0,0,-1,1630,1401,0,0
413,-377,0,0,0,0,0,0,0,0,0,-1,1637,1401,0,0
420,-377,0,0,0,0,0,0,0,0,0,-1,1644,1401,0,0
427,-377,0,0,0,0,0,0,0,0,0,-1,1651,1401,0,0
434,-377,0,0,0,0,0,0,0,0,0,-1,1658,1401,0,0
441,-377,0,0,0,0,0,0,0,0,0,-1,1665,1401,0,0
448,-377,0,0,0,0,0,0,0,0,0,-1,1672,1401,0,0
455,-377,0,0,0,0,0,0,0,0,0,-1,1679,1401,0,0
462,-377,0,0,0,0,0,0,0,0,0,-1,1686,1401,0,0
469,-377,0,0,0,0,0,0,0,0,0,-1,1693,1401,0,0
476,-377,0,0,0,0,0,0,0,0,0,-1,1700,1401,0,0
483,-377,0,0,0,0,0,0,0,0,0,-1,1707,1401,0,0
490,-377,0,0,0,0,0,0,0,0,0,-1,1714,1401,0,0
497,-377,0,0,0,0,0,0,0,0,0,-1,1721,1401,0,0
504,-377,0,0,0,0,0,0,0,0,0,-1,1728,1401,0,0
511,-377,0,0,0,0,0,0,0,0,0,-1,1735,1401,0,0
518,-377,0,0,0,0,0,0,0,0,0,-1,1742,1401,0,0
525,-377,0,0,0,0,0,0,0,0,0,-1,1749,1401,0,0
532,-377,0,0,0,0,0,0,0,0,0,-1,1756,1401,0,0
539,-377,0,0,0,0,0,0,0,0,0,-1,1763,1401,0,0
546,-377,27.8485,2.34094,0,0,0,0,0,0,0,-1,1770,1401,27.8486,-2.34091
553,-377,27.2189,2.42493,0,0,0,0,0,0,0,-1,1777,1401,27.2188,-2.42498
560,-377,38.3577,-2.15015,0,0,0,0,0,0,0,-1,1784,1401,38.3576,2.1501
567,-377,38.4889,-0.285645,0,0,0,0,0,0,0,-1,1791,1401,38.4889,0.2857
574,-377,38.6221,1.61694,0,0,0,0,0,0,0,-1,1798,1401,38.6221,-1.61689
581,-377,39.1818,3.76367,0,0,0,0,0,0,0,-1,1805,1401,39.1818,-3.76366
588,-377,25.882,4.35217,0,0,0,0,0,0,0,-1,1812,1401,25.8819,-4.3522
595,-377,25.5392,5.11804,0,0,0,0,0,0,0,-1,1819,1401,25.5392,-5.11808
602,-377,24.816,5.79126,0,0,0,0,0,0,0,-1,1826,1401,24.816,-5.79124
609,-377,15.0223,4.76135,0,0,0,0,0,0,0,-1,1833,1401,15.0224,-4.76129
616,-377,14.1842,5.78992,0,0,0,0,0,0,0,-1,1840,1401,14.1842,-5.78987
623,-377,15.8248,8.76721,0,0,0,0,0,0,0,-1,1847,1401,15.8248,-8.76725
630,-377,30.6957,16.4041,0,0,0,0,0,0,0,-1,1854,1401,30.6957,-16.4041
637,-377,31.0963,15.5199,0.00178448,0.000558345,-0.0013995,0.0026993,-0.000356478,-0.578957,0.00192937,0.0371366,1861,1401,31.0963,-15.5199
644,-377,31.2468,14.9152,0.00138025,0.000500287,-0.00102436,0.00205512,-0.000174581,-0.582551,0.00143183,0.0136008,1868,1401,31.2469,-14.9152
651,-377,31.2435,14.348,0.00124432,0.00011452,-0.000475834,0.00141802,-5.91805e-05,-0.350014,0.000965676,0.014065,1875,1401,31.2435,-14.348
658,-377,31.2089,13.8204,0.00133517,-0.000226227,-3.8236e-05,0.00133611,-0.000227163,-0.0244688,0.000975317,0.0150095,1882,1401,31.2089,-13.8204
665,-377,31.1882,13.2445,0.00157169,-0.000590736,0.000354698,0.00162839,-0.00064743,0.158496,0.00135402,0.0188118,1889,1401,31.1882,-13.2446
672,-377,31.1687,12.694,0.00195734,-0.0010157,0.000743578,0.00213294,-0.0011913,0.231909,0.00194475,0.0196833,1896,1401,31.1687,-12.6939
679,-377,31.1074,12.1705,0.00249931,-0.00144157,0.00108293,0.00277729,-0.00171955,0.251264,0.00262008,0.0193013,1903,1401,31.1074,-12.1705
686,-377,31.0975,11.6392,0.00316452,-0.00197583,0.00143968,0.00354027,-0.00235158,0.255302,0.00342466,0.0160392,1910,1401,31.0976,-11.6392
693,-377,31.1586,11.0333,0.00408584,-0.00253831,0.0016753,0.00448544,-0.0029379,0.234145,0.0043168,0.0169418,1917,1401,31.1586,-11.0333
700,-377,31.3022,10.3613,0,0,0,0,0,0,0,-1,1924,1401,31.3023,-10.3613
707,-377,28.6234,9.18152,0,0,0,0,0,0,0,-1,1931,1401,28.6234,-9.18151
714,-377,16.5369,5.45959,0,0,0,0,0,0,0,-1,1938,1401,16.5369,-5.4596
721,-377,17.0913,5.42529,0,0,0,0,0,0,0,-1,1945,1401,17.0914,-5.42529
728,-377,14.5396,2.79724,0,0,0,0,0,0,0,-1,1952,1401,14.5396,-2.7972
735,-377,23.2977,-0.991089,0,0,0,0,0,0,0,-1,1959,1401,23.2978,0.991076
742,-377,0,0,0,0,0,0,0,0,0,-1,1966,1401,0,0
749,-377,0,0,0,0,0,0,0,0,0,-1,1973,1401,0,0
756,-377,0,0,0,0,0,0,0,0,0,-1,1980,1401,0,0
763,-377,0,0,0,0,0,0,0,0,0,-1,1987,1401,0,0
770,-377,0,0,0,0,0,0,0,0,0,-1,1994,1401,0,0
777,-377,0,0,0,0,0,0,0,0,0,-1,2001,1401,0,0
784,-377,0,0,0,0,0,0,0,0,0,-1,2008,1401,0,0
791,-377,0,0,0,0,0,0,0,0,0,-1,2015,1401,0,0
798,-377,0,0,0,0,0,0,0,0,0,-1,2022,1401,0,0
805,-377,0,0,0,0,0,0,0,0,0,-1,2029,1401,0,0
812,-377,0,0,0,0,0,0,0,0,0,-1,2036,1401,0,0
-700,-384,0,0,0,0,0,0,0,0,0,-1,524,1408,0,0
-693,-384,0,0,0,0,0,0,0,0,0,-1,531,1408,0,0
-686,-384,0,0,0,0,0,0,0,0,0,-1,538,1408,0,0
-679,-384,0,0,0,0,0,0,0,0,0,-1,545,1408,0,0
-672,-384,0,0,0,0,0,0,0,0,0,-1,552,1408,0,0
-665,-384,0,0,0,0,0,0,0,0,0,-1,559,1408,0,0
-658,-384,0,0,0,0,0,0,0,0,0,-1,566,1408,0,0
-651,-384,0,0,0,0,0,0,0,0,0,-1,573,1408,0,0
-644,-384,0,0,0,0,0,0,0,0,0,-1,580,1408,0,0
-637,-384,0,0,0,0,0,0,0,0,0,-1,587,1408,0,0
-630,-384,0,0,0,0,0,0,0,0,0,-1,594,1408,0,0
-623,-384,0,0,0,0,0,0,0,0,0,-1,601,1408,0,0
-616,-384,-10.019,-3.36646,0,0,0,0,0,0,0,-1,608,1408,-10.019,3.36648
-609,-384,-7.72357,-2.3418,0,0,0,0,0,0,0,-1,615,1408,-7.72358,2.34182
-602,-384,-11.7632,-2.85156,0,0,0,0,0,0,0,-1,622,1408,-11.7632,2.85157
-595,-384,-10.2217,2.8855,0,0,0,0,0,0,0,-1,629,1408,-10.2218,-2.88548
-588,-384,-12.1653,2.29041,0,0,0,0,0,0,0,-1,636,1408,-12.1654,-2.29038
-581,-384,-11.9297,3.60376,0,0,0,0,0,0,0,-1,643,1408,-11.9298,-3.6038
-574,-384,-11.8677,6.02722,0,0,0,0,0,0,0,-1,650,1408,-11.8677,-6.02722
-567,-384,-12.0743,7.04639,0,0,0,0,0,0,0,-1,657,1408,-12.0743,-7.04641
-560,-384,-15.1412,8.93005,0,0,0,0,0,0,0,-1,664,1408,-15.1411,-8.92999
-553,-384,-14.9991,9.63794,0.00344611,0.00141081,0.00161707,0.0043391,0.000517822,0.50455,0.00273651,0.0408355,671,1408,-14.9991,-9.63797
-546,-384,-14.9625,10.2971,0.00292349,0.00109831,0.00129727,0.003597,0.000424792,0.478872,0.00226969,0.0144171,678,1408,-14.9625,-10.2971
-539,-384,-15.0034,10.8475,0.00258856,0.000881765,0.00107992,0.00311158,0.000358745,0.451018,0.00196575,0.0152318,685,1408,-15.0034,-10.8475
-532,-384,-15.0093,11.3793,0.0024634,0.000746723,0.000998163,0.00292152,0.000288598,0.430287,0.00185896,0.0232319,692,1408,-15.0094,-11.3792
-525,-384,-15.0084,12.0555,0.0026372,0.000863273,0.00116766,0.00321657,0.000283905,0.460587,0.00205629,0.0234061,699,1408,-15.0083,-12.0556
-518,-384,-15.0425,12.6678,0.00299823,0.00108034,0.00147261,0.00379659,0.000281974,0.496793,0.0024425,0.0138219,706,1408,-15.0425,-12.6678
-511,-384,-15.0767,13.282,0.00361332,0.00153167,0.00199805,0.00482539,0.000319602,0.545277,0.00311586,0.0110212,713,1408,-15.0767,-13.282
-504,-384,-15.0858,13.9128,0.00455518,0.00227652,0.00281889,0.00645628,0.000375421,0.593346,0.00418466,0.0122234,720,1408,-15.0858,-13.9128
-497,-384,-15.0638,14.538,0.00593467,0.00337475,0.00407206,0.0089232,0.000386221,0.633124,0.00582433,0.0408104,727,1408,-15.0639,-14.5379
-490,-384,-14.9012,15.2571,0,0,0,0,0,0,0,-1,734,1408,-14.9013,-15.257
-483,-384,-6.26471,7.61194,0,0,0,0,0,0,0,-1,741,1408,-6.26469,-7.61191
-476,-384,-6.02734,5.67761,0,0,0,0,0,0,0,-1,748,1408,-6.02736,-5.6776
-469,-384,-10.206,2.63721,0,0,0,0,0,0,0,-1,755,1408,-10.206,-2.6372
-462,-384,-9.04291,1.43542,0,0,0,0,0,0,0,-1,762,1408,-9.04293,-1.43545
-455,-384,-7.87988,0.233765,0,0,0,0,0,0,0,-1,769,1408,-7.87986,-0.233709
-448,-384,-9.35529,7.19226,0,0,0,0,0,0,0,-1,776,1408,-9.35531,-7.19226
-441,-384,-10.4697,1.79004,0,0,0,0,0,0,0,-1,783,1408,-10.4697,-1.79003
-434,-384,-10.6449,0.552246,0,0,0,0,0,0,0,-1,790,1408,-10.6449,-0.552216
-427,-384,-10.968,1.10583,0,0,0,0,0,0,0,-1,797,1408,-10.968,-1.10588
-420,-384,-12.5607,4.54858,0,0,0,0,0,0,0,-1,804,1408,-12.5607,-4.54859
-413,-384,0,0,0,0,0,0,0,0,0,-1,811,1408,0,0
-406,-384,0,0,0,0,0,0,0,0,0,-1,818,1408,0,0
-399,-384,0,0,0,0,0,0,0,0,0,-1,825,1408,0,0
-392,-384,0,0,0,0,0,0,0,0,0,-1,832,1408,0,0
-385,-384,0,0,0,0,0,0,0,0,0,-1,839,1408,0,0
-378,-384,0,0,0,0,0,0,0,0,0,-1,846,1408,0,0
-371,-384,0,0,0,0,0,0,0,0,0,-1,853,1408,0,0
-364,-384,0,0,0,0,0,0,0,0,0,-1,860,1408,0,0
-357,-384,0,0,0,0,0,0,0,0,0,-1,867,1408,0,0
-350,-384,0,0,0,0,0,0,0,0,0,-1,874,1408,0,0
-343,-384,0,0,0,0,0,0,0,0,0,-1,881,1408,0,0
-336,-384,0,0,0,0,0,0,0,0,0,-1,888,1408,0,0
-329,-384,0,0,0,0,0,0,0,0,0,-1,895,1408,0,0
-322,-384,0,0,0,0,0,0,0,0,0,-1,902,1408,0,0
-315,-384,0,0,0,0,0,0,0,0,0,-1,909,1408,0,0
-308,-384,0,0,0,0,0,0,0,0,0,-1,916,1408,0,0
-301,-384,0,0,0,0,0,0,0,0,0,-1,923,1408,0,0
-294,-384,0,0,0,0,0,0,0,0,0,-1,930,1408,0,0
-287,-384,0,0,0,0,0,0,0,0,0,-1,937,1408,0,0
-280,-384,0,0,0,0,0,0,0,0,0,-1,944,1408,0,0
-273,-384,0,0,0,0,0,0,0,0,0,-1,951,1408,0,0
-266,-384,0,0,0,0,0,0,0,0,0,-1,958,1408,0,0
-259,-384,0,0,0,0,0,0,0,0,0,-1,965,1408,0,0
-252,-384,0,0,0,0,0,0,0,0,0,-1,972,1408,0,0
-245,-384,0,0,0,0,0,0,0,0,0,-1,979,1408,0,0
-238,-384,0,0,0,0,0,0,0,0,0,-1,986,1408,0,0
-231,-384,0,0,0,0,0,0,0,0,0,-1,993,1408,0,0
-224,-384,0,0,0,0,0,0,0,0,0,-1,1000,1408,0,0
-217,-384,0,0,0,0,0,0,0,0,0,-1,1007,1408,0,0
-210,-384,0,0,0,0,0,0,0,0,0,-1,1014,1408,0,0
-203,-384,0,0,0,0,0,0,0,0,0,-1,1021,1408,0,0
-196,-384,0,0,0,0,0,0,0,0,0,-1,1028,1408,0,0
-189,-384,0,0,0,0,0,0,0,0,0,-1,1035,1408,0,0
-182,-384,0,0,0,0,0,0,0,0,0,-1,1042,1408,0,0
-175,-384,0,0,0,0,0,0,0,0,0,-1,1049,1408,0,0
-168,-384,0,0,0,0,0,0,0,0,0,-1,1056,1408,0,0
-161,-384,0,0,0,0,0,0,0,0,0,-1,1063,1408,0,0
-154,-384,0,0,0,0,0,0,0,0,0,-1,1070,1408,0,0
-147,-384,0,0,0,0,0,0,0,0,0,-1,1077,1408,0,0
-140,-384,0,0,0,0,0,0,0,0,0,-1,1084,1408,0,0
-133,-384,0,0,0,0,0,0,0,0,0,-1,1091,1408,0,0
-126,-384,0,0,0,0,0,0,0,0,0,-1,1098,1408,0,0
-119,-384,0,0,0,0,0,0,0,0,0,-1,1105,1408,0,0
-112,-384,0,0,0,0,0,0,0,0,0,-1,1112,1408,0,0
-105,-384,0,0,0,0,0,0,0,0,0,-1,1119,1408,0,0
-98,-384,0,0,0,0,0,0,0,0,0,-1,1126,1408,0,0
-91,-384,0,0,0,0,0,0,0,0,0,-1,1133,1408,0,0
-84,-384,0,0,0,0,0,0,0,0,0,-1,1140,1408,0,0
-77,-384,0,0,0,0,0,0,0,0,0,-1,1147,1408,0,0
-70,-384,0,0,0,0,0,0,0,0,0,-1,1154,1408,0,0
-63,-384,0,0,0,0,0,0,0,0,0,-1,1161,1408,0,0
-56,-384,0,0,0,0,0,0,0,0,0,-1,1168,1408,0,0
-49,-384,0,0,0,0,0,0,0,0,0,-1,1175,1408,0,0
-42,-384,0,0,0,0,0,0,0,0,0,-1,1182,1408,0,0
-35,-384,0,0,0,0,0,0,0,0,0,-1,1189,1408,0,0
-28,-384,0,0,0,0,0,0,0,0,0,-1,1196,1408,0,0
-21,-384,0,0,0,0,0,0,0,0,0,-1,1203,1408,0,0
-14,-384,0,0,0,0,0,0,0,0,0,-1,1210,1408,0,0
-7,-384,0,0,0,0,0,0,0,0,0,-1,1217,1408,0,0
0,-384,0,0,0,0,0,0,0,0,0,-1,1224,1408,0,0
7,-384,0,0,0,0,0,0,0,0,0,-1,1231,1408,0,0
14,-384,0,0,0,0,0,0,0,0,0,-1,1238,1408,0,0
21,-384,0,0,0,0,0,0,0,0,0,-1,1245,1408,0,0
28,-384,0,0,0,0,0,0,0,0,0,-1,1252,1408,0,0
35,-384,0,0,0,0,0,0,0,0,0,-1,1259,1408,0,0
42,-384,0,0,0,0,0,0,0,0,0,-1,1266,1408,0,0
49,-384,0,0,0,0,0,0,0,0,0,-1,1273,1408,0,0
56,-384,0,0,0,0,0,0,0,0,0,-1,1280,1408,0,0
63,-384,0,0,0,0,0,0,0,0,0,-1,1287,1408,0,0
70,-384,0,0,0,0,0,0,0,0,0,-1,1294,1408,0,0
77,-384,0,0,0,0,0,0,0,0,0,-1,1301,1408,0,0
84,-384,0,0,0,0,0,0,0,0,0,-1,1308,1408,0,0
91,-384,0,0,0,0,0,0,0,0,0,-1,1315,1408,0,0
98,-384,0,0,0,0,0,0,0,0,0,-1,1322,1408,0,0
105,-384,0,0,0,0,0,0,0,0,0,-1,1329,1408,0,0
112,-384,0,0,0,0,0,0,0,0,0,-1,1336,1408,0,0
119,-384,0,0,0,0,0,0,0,0,0,-1,1343,1408,0,0
126,-384,0,0,0,0,0,0,0,0,0,-1,1350,1408,0,0
133,-384,0,0,0,0,0,0,0,0,0,-1,1357,1408,0,0
140,-384,0,0,0,0,0,0,0,0,0,-1,1364,1408,0,0
147,-384,0,0,0,0,0,0,0,0,0,-1,1371,1408,0,0
154,-384,0,0,0,0,0,0,0,0,0,-1,1378,1408,0,0
161,-384,0,0,0,0,0,0,0,0,0,-1,1385,1408,0,0
168,-384,0,0,0,0,0,0,0,0,0,-1,1392,1408,0,0
175,-384,0,0,0,0,0,0,0,0,0,-1,1399,1408,0,0
182,-384,0,0,0,0,0,0,0,0,0,-1,1406,1408,0,0
189,-384,0,0,0,0,0,0,0,0,0,-1,1413,1408,0,0
196,-384,0,0,0,0,0,0,0,0,0,-1,1420,1408,0,0
203,-384,0,0,0,0,0,0,0,0,0,-1,1427,1408,0,0
210,-384,0,0,0,0,0,0,0,0,0,-1,1434,1408,0,0
217,-384,0,0,0,0,0,0,0,0,0,-1,1441,1408,0,0
224,-384,0,0,0,0,0,0,0,0,0,-1,1448,1408,0,0
231,-384,0,0,0,0,0,0,0,0,0,-1,1455,1408,0,0
238,-384,0,0,0,0,0,0,0,0,0,-1,1462,1408,0,0
245,-384,0,0,0,0,0,0,0,0,0,-1,1469,1408,0,0
252,-384,0,0,0,0,0,0,0,0,0,-1,1476,1408,0,0
259,-384,0,0,0,0,0,0,0,0,0,-1,1483,1408,0,0
266,-384,0,0,0,0,0,0,0,0,0,-1,1490,1408,0,0
273,-384,0,0,0,0,0,0,0,0,0,-1,1497,1408,0,0
280,-384,0,0,0,0,0,0,0,0,0,-1,1504,1408,0,0
287,-384,0,0,0,0,0,0,0,0,0,-1,1511,1408,0,0
294,-384,0,0,0,0,0,0,0,0,0,-1,1518,1408,0,0
301,-384,0,0,0,0,0,0,0,0,0,-1,1525,1408,0,0
308,-384,0,0,0,0,0,0,0,0,0,-1,1532,1408,0,0
315,-384,0,0,0,0,0,0,0,0,0,-1,1539,1408,0,0
322,-384,0,0,0,0,0,0,0,0,0,-1,1546,1408,0,0
329,-384,0,0,0,0,0,0,0,0,0,-1,1553,1408,0,0
336,-384,0,0,0,0,0,0,0,0,0,-1,1560,1408,0,0
343,-384,0,0,0,0,0,0,0,0,0,-1,1567,1408,0,0
350,-384,0,0,0,0,0,0,0,0,0,-1,1574,1408,0,0
357,-384,0,0,0,0,0,0,0,0,0,-1,1581,1408,0,0
364,-384,0,0,0,0,0,0,0,0,0,-1,1588,1408,0,0
371,-384,0,0,0,0,0,0,0,0,0,-1,1595,1408,0,0
378,-384,0,0,0,0,0,0,0,0,0,-1,1602,1408,0,0
385,-384,0,0,0,0,0,0,0,0,0,-1,1609,1408,0,0
392,-384,0,0,0,0,0,0,0,0,0,-1,1616,1408,0,0
399,-384,0,0,0,0,0,0,0,0,0,-1,1623,1408,0,0
406,-384,0,0,0,0,0,0,0,0,0,-1,1630,1408,0,0
413,-384,0,0,0,0,0,0,0,0,0,-1,1637,1408,0,0
420,-384,0,0,0,0,0,0,0,0,0,-1,1644,1408,0,0
427,-384,0,0,0,0,0,0,0,0,0,-1,1651,1408,0,0
434,-384,0,0,0,0,0,0,0,0,0,-1,1658,1408,0,0
441,-384,0,0,0,0,0,0,0,0,0,-1,1665,1408,0,0
448,-384,0,0,0,0,0,0,0,0,0,-1,1672,1408,0,0
455,-384,0,0,0,0,0,0,0,0,0,-1,1679,1408,0,0
462,-384,0,0,0,0,0,0,0,0,0,-1,1686,1408,0,0
469,-384,0,0,0,0,0,0,0,0,0,-1,1693,1408,0,0
476,-384,0,0,0,0,0,0,0,0,0,-1,1700,1408,0,0
483,-384,0,0,0,0,0,0,0,0,0,-1,1707,1408,0,0
490,-384,0,0,0,0,0,0,0,0,0,-1,1714,1408,0,0
497,-384,0,0,0,0,0,0,0,0,0,-1,1721,1408,0,0
504,-384,0,0,0,0,0,0,0,0,0,-1,1728,1408,0,0
511,-384,0,0,0,0,0,0,0,0,0,-1,1735,1408,0,0
518,-384,0,0,0,0,0,0,0,0,0,-1,1742,1408,0,0
525,-384,0,0,0,0,0,0,0,0,0,-1,1749,1408,0,0
532,-384,0,0,0,0,0,0,0,0,0,-1,1756,1408,0,0
539,-384,27.6886,2.85803,0,0,0,0,0,0,0,-1,1763,1408,27.6886,-2.85807
546,-384,27.5044,2.9425,0,0,0,0,0,0,0,-1,1770,1408,27.5044,-2.94255
553,-384,27.3052,2.78394,0,0,0,0,0,0,0,-1,1777,1408,27.3051,-2.78394
560,-384,26.833,3.19812,0,0,0,0,0,0,0,-1,1784,1408,26.833,-3.19816
567,-384,38.2566,0.109985,0,0,0,0,0,0,0,-1,1791,1408,38.2566,-0.110044
574,-384,38.4003,2.05945,0,0,0,0,0,0,0,-1,1798,1408,38.4003,-2.05949
581,-384,25.819,3.91846,0,0,0,0,0,0,0,-1,1805,1408,25.8189,-3.91848
588,-384,23.3721,4.25439,0,0,0,0,0,0,0,-1,1812,1408,23.3721,-4.25442
595,-384,24.981,5.59595,0,0,0,0,0,0,0,-1,1819,1408,24.981,-5.59598
602,-384,20.6605,4.17261,0,0,0,0,0,0,0,-1,1826,1408,20.6606,-4.17265
609,-384,14.158,5.49475,0,0,0,0,0,0,0,-1,1833,1408,14.158,-5.49474
616,-384,14.7997,7.6908,0,0,0,0,0,0,0,-1,1840,1408,14.7996,-7.69079
623,-384,16.4293,9.58899,0,0,0,0,0,0,0,-1,1847,1408,16.4294,-9.58901
630,-384,30.7162,16.0293,0,0,0,0,0,0,0,-1,1854,1408,30.7162,-16.0293
637,-384,30.6816,15.5297,0.00180606,0.000367198,-0.00111356,0.00241237,-0.000239113,-0.498596,0.00169359,0.0213523,1861,1408,30.6817,-15.5297
644,-384,30.6604,14.976,0.00146206,0.00026112,-0.000749531,0.00182198,-9.88063e-05,-0.447684,0.0012489,0.0168453,1868,1408,30.6604,-14.976
651,-384,30.6473,14.3761,0.00137374,-6.39097e-05,-0.000263375,0.00142047,-0.000110641,-0.175603,0.000985932,0.0159552,1875,1408,30.6473,-14.3761
658,-384,30.6208,13.8237,0.00145831,-0.000399338,0.000179614,0.00147551,-0.000416546,0.0955103,0.001148,0.0157924,1882,1408,30.6208,-13.8237
665,-384,30.6234,13.276,0.00169436,-0.000792461,0.000613299,0.00183738,-0.000935487,0.229112,0.0016289,0.017835,1889,1408,30.6234,-13.276
672,-384,30.6176,12.7097,0.00207855,-0.00127683,0.00108316,0.00239783,-0.00159611,0.286647,0.00232133,0.0168316,1896,1408,30.6175,-12.7097
679,-384,30.5686,12.1643,0.00260756,-0.00183259,0.00156403,0.00310316,-0.0023282,0.306869,0.00314642,0.0165964,1903,1408,30.5686,-12.1643
686,-384,30.5442,11.655,0.00322336,-0.00258784,0.0021572,0.0039366,-0.00330108,0.319319,0.00418405,0.0130208,1910,1408,30.5441,-11.6551
693,-384,30.6072,11.1023,0.00411111,-0.00344503,0.00267617,0.00496291,-0.00429683,0.308151,0.00535072,0.0259908,1917,1408,30.6072,-11.1023
700,-384,30.7023,10.5734,0,0,0,0,0,0,0,-1,1924,1408,30.7023,-10.5734
707,-384,17.0566,6.62842,0,0,0,0,0,0,0,-1,1931,1408,17.0567,-6.62848
714,-384,16.038,5.0282,0,0,0,0,0,0,0,-1,1938,1408,16.038,-5.02819
721,-384,13.8843,2.8717,0,0,0,0,0,0,0,-1,1945,1408,13.8843,-2.87171
728,-384,15.4409,6.25745,0,0,0,0,0,0,0,-1,1952,1408,15.4409,-6.2574
735,-384,16.7598,6.71289,0,0,0,0,0,0,0,-1,1959,1408,16.7598,-6.71287
742,-384,0,0,0,0,0,0,0,0,0,-1,1966,1408,0,0
749,-384,0,0,0,0,0,0,0,0,0,-1,1973,1408,0,0
756,-384,0,0,0,0,0,0,0,0,0,-1,1980,1408,0,0
763,-384,0,0,0,0,0,0,0,0,0,-1,1987,1408,0,0
770,-384,0,0,0,0,0,0,0,0,0,-1,1994,1408,0,0
777,-384,0,0,0,0,0,0,0,0,0,-1,2001,1408,0,0
784,-384,0,0,0,0,0,0,0,0,0,-1,2008,1408,0,0
791,-384,0,0,0,0,0,0,0,0,0,-1,2015,1408,0,0
798,-384,0,0,0,0,0,0,0,0,0,-1,2022,1408,0,0
805,-384,0,0,0,0,0,0,0,0,0,-1,2029,1408,0,0
812,-384,0,0,0,0,0,0,0,0,0,-1,2036,1408,0,0
-700,-391,0,0,0,0,0,0,0,0,0,-1,524,1415,0,0
-693,-391,0,0,0,0,0,0,0,0,0,-1,531,1415,0,0
-686,-391,0,0,0,0,0,0,0,0,0,-1,538,1415,0,0
-679,-391,0,0,0,0,0,0,0,0,0,-1,545,1415,0,0
-672,-391,0,0,0,0,0,0,0,0,0,-1,552,1415,0,0
-665,-391,0,0,0,0,0,0,0,0,0,-1,559,1415,0,0
-658,-391,0,0,0,0,0,0,0,0,0,-1,566,1415,0,0
-651,-391,0,0,0,0,0,0,0,0,0,-1,573,1415,0,0
-644,-391,0,0,0,0,0,0,0,0,0,-1,580,1415,0,0
-637,-391,0,0,0,0,0,0,0,0,0,-1,587,1415,0,0
-630,-391,0,0,0,0,0,0,0,0,0,-1,594,1415,0,0
-623,-391,0,0,0,0,0,0,0,0,0,-1,601,1415,0,0
-616,-391,0,0,0,0,0,0,0,0,0,-1,608,1415,0,0
-609,-391,-7.71753,-3.69763,0,0,0,0,0,0,0,-1,615,1415,-7.71751,3.69759
-602,-391,-13.9493,-4.12805,0,0,0,0,0,0,0,-1,622,1415,-13.9493,4.12803
-595,-391,-10.8315,1.76172,0,0,0,0,0,0,0,-1,629,1415,-10.8315,-1.76171
-588,-391,-10.265,2.16431,0,0,0,0,0,0,0,-1,636,1415,-10.265,-2.16431
-581,-391,-11.3325,2.44836,0,0,0,0,0,0,0,-1,643,1415,-11.3325,-2.44842
-574,-391,-11.1471,6.19983,0,0,0,0,0,0,0,-1,650,1415,-11.1471,-6.19981
-567,-391,-11.5172,6.82458,0,0,0,0,0,0,0,-1,657,1415,-11.5171,-6.82454
-560,-391,-11.2459,7.37195,0,0,0,0,0,0,0,-1,664,1415,-11.2459,-7.37191
-553,-391,-14.4715,9.54431,0,0,0,0,0,0,0,-1,671,1415,-14.4715,-9.54427
-546,-391,-14.3795,10.296,0.00328756,0.00152,0.00162444,0.00425307,0.000554492,0.536267,0.00266981,0.015465,678,1415,-14.3795,-10.296
-539,-391,-14.3575,10.8837,0.0027819,0.0011919,0.00128754,0.0035001,0.000473696,0.508821,0.00219263,0.0143566,685,1415,-14.3575,-10.8837
-532,-391,-14.4026,11.4636,0.00246249,0.000937394,0.00107367,0.00301686,0.00038303,0.476621,0.0018965,0.0264838,692,1415,-14.4026,-11.4637
-525,-391,-14.4484,12.1174,0.00246659,0.000948708,0.00112572,0.00306531,0.000349986,0.488806,0.00193744,0.0255902,699,1415,-14.4484,-12.1174
-518,-391,-14.4839,12.7162,0.00268337,0.00111694,0.0013541,0.00346445,0.000335859,0.523204,0.00220622,0.0156238,706,1415,-14.4839,-12.7162
-511,-391,-14.4753,13.3038,0.00312786,0.00152249,0.00178963,0.00428657,0.000363777,0.574587,0.0027445,0.0136682,713,1415,-14.4753,-13.3038
-504,-391,-14.4819,13.9242,0.00386326,0.00219778,0.00249748,0.00566318,0.000397872,0.624479,0.00365006,0.0121023,720,1415,-14.4819,-13.9242
-497,-391,-14.4891,14.5188,0.00496178,0.0032114,0.00357258,0.0077648,0.000408372,0.665277,0.00504592,0.0137459,727,1415,-14.4891,-14.5188
-490,-391,-14.4486,15.1393,0,0,0,0,0,0,0,-1,734,1415,-14.4486,-15.1393
-483,-391,-11.1018,12.9382,0,0,0,0,0,0,0,-1,741,1415,-11.1018,-12.9382
-476,-391,-6.05731,6.85303,0,0,0,0,0,0,0,-1,748,1415,-6.05728,-6.85304
-469,-391,-3.88953,5.0979,0,0,0,0,0,0,0,-1,755,1415,-3.88955,-5.09794
-462,-391,-8.67688,2.03125,0,0,0,0,0,0,0,-1,762,1415,-8.67685,-2.03121
-455,-391,-8.65576,6.46997,0,0,0,0,0,0,0,-1,769,1415,-8.65579,-6.46999
-448,-391,-8.39618,4.38403,0,0,0,0,0,0,0,-1,776,1415,-8.39617,-4.38405
-441,-391,-9.77704,2.5946,0,0,0,0,0,0,0,-1,783,1415,-9.77702,-2.5946
-434,-391,-11.5403,2.12878,0,0,0,0,0,0,0,-1,790,1415,-11.5403,-2.12881
-427,-391,-10.5311,2.50403,0,0,0,0,0,0,0,-1,797,1415,-10.5311,-2.504
-420,-391,-14.7087,1.24365,0,0,0,0,0,0,0,-1,804,1415,-14.7088,-1.24365
-413,-391,0,0,0,0,0,0,0,0,0,-1,811,1415,0,0
-406,-391,0,0,0,0,0,0,0,0,0,-1,818,1415,0,0
-399,-391,0,0,0,0,0,0,0,0,0,-1,825,1415,0,0
-392,-391,0,0,0,0,0,0,0,0,0,-1,832,1415,0,0
-385,-391,0,0,0,0,0,0,0,0,0,-1,839,1415,0,0
-378,-391,0,0,0,0,0,0,0,0,0,-1,846,1415,0,0
-371,-391,0,0,0,0,0,0,0,0,0,-1,853,1415,0,0
-364,-391,0,0,0,0,0,0,0,0,0,-1,860,1415,0,0
-357,-391,0,0,0,0,0,0,0,0,0,-1,867,1415,0,0
-350,-391,0,0,0,0,0,0,0,0,0,-1,874,1415,0,0
-343,-391,0,0,0,0,0,0,0,0,0,-1,881,1415,0,0
-336,-391,0,0,0,0,0,0,0,0,0,-1,888,1415,0,0
-329,-391,0,0,0,0,0,0,0,0,0,-1,895,1415,0,0
-322,-391,0,0,0,0,0,0,0,0,0,-1,902,1415,0,0
-315,-391,0,0,0,0,0,0,0,0,0,-1,909,1415,0,0
-308,-391,0,0,0,0,0,0,0,0,0,-1,916,1415,0,0
-301,-391,0,0,0,0,0,0,0,0,0,-1,923,1415,0,0
-294,-391,0,0,0,0,0,0,0,0,0,-1,930,1415,0,0
-287,-391,0,0,0,0,0,0,0,0,0,-1,937,1415,0,0
-280,-391,0,0,0,0,0,0,0,0,0,-1,944,1415,0,0
-273,-391,0,0,0,0,0,0,0,0,0,-1,951,1415,0,0
-266,-391,0,0,0,0,0,0,0,0,0,-1,958,1415,0,0
-259,-391,0,0,0,0,0,0,0,0,0,-1,965,1415,0,0
-252,-391,0,0,0,0,0,0,0,0,0,-1,972,1415,0,0
-245,-391,0,0,0,0,0,0,0,0,0,-1,979,1415,0,0
-238,-391,0,0,0,0,0,0,0,0,0,-1,986,1415,0,0
-231,-391,0,0,0,0,0,0,0,0,0,-1,993,1415,0,0
-224,-391,0,0,0,0,0,0,0,0,0,-1,1000,1415,0,0
-217,-391,0,0,0,0,0,0,0,0,0,-1,1007,1415,0,0
-210,-391,0,0,0,0,0,0,0,0,0,-1,1014,1415,0,0
-203,-391,0,0,0,0,0,0,0,0,0,-1,1021,1415,0,0
-196,-391,0,0,0,0,0,0,0,0,0,-1,1028,1415,0,0
-189,-391,0,0,0,0,0,0,0,0,0,-1,1035,1415,0,0
-182,-391,0,0,0,0,0,0,0,0,0,-1,1042,1415,0,0
-175,-391,0,0,0,0,0,0,0,0,0,-1,1049,1415,0,0
-168,-391,0,0,0,0,0,0,0,0,0,-1,1056,1415,0,0
-161,-391,0,0,0,0,0,0,0,0,0,-1,1063,1415,0,0
-154,-391,0,0,0,0,0,0,0,0,0,-1,1070,1415,0,0
-147,-391,0,0,0,0,0,0,0,0,0,-1,1077,1415,0,0
-140,-391,0,0,0,0,0,0,0,0,0,-1,1084,1415,0,0
-133,-391,0,0,0,0,0,0,0,0,0,-1,1091,1415,0,0
-126,-391,0,0,0,0,0,0,0,0,0,-1,1098,1415,0,0
-119,-391,0,0,0,0,0,0,0,0,0,-1,1105,1415,0,0
-112,-391,0,0,0,0,0,0,0,0,0,-1,1112,1415,0,0
-105,-391,0,0,0,0,0,0,0,0,0,-1,1119,1415,0,0
-98,-391,0,0,0,0,0,0,0,0,0,-1,1126,1415,0,0
-91,-391,0,0,0,0,0,0,0,0,0,-1,1133,1415,0,0
-84,-391,0,0,0,0,0,0,0,0,0,-1,1140,1415,0,0
-77,-391,0,0,0,0,0,0,0,0,0,-1,1147,1415,0,0
-70,-391,0,0,0,0,0,0,0,0,0,-1,1154,1415,0,0
-63,-391,0,0,0,0,0,0,0,0,0,-1,1161,1415,0,0
-56,-391,0,0,0,0,0,0,0,0,0,-1,1168,1415,0,0
-49,-391,0,0,0,0,0,0,0,0,0,-1,1175,1415,0,0
-42,-391,0,0,0,0,0,0,0,0,0,-1,1182,1415,0,0
-35,-391,0,0,0,0,0,0,0,0,0,-1,1189,1415,0,0
-28,-391,0,0,0,0,0,0,0,0,0,-1,1196,1415,0,0
-21,-391,0,0,0,0,0,0,0,0,0,-1,1203,1415,0,0
-14,-391,0,0,0,0,0,0,0,0,0,-1,1210,1415,0,0
-7,-391,0,0,0,0,0,0,0,0,0,-1,1217,1415,0,0
0,-391,0,0,0,0,0,0,0,0,0,-1,1224,1415,0,0
7,-391,0,0,0,0,0,0,0,0,0,-1,1231,1415,0,0
14,-391,0,0,0,0,0,0,0,0,0,-1,1238,1415,0,0
21,-391,0,0,0,0,0,0,0,0,0,-1,1245,1415,0,0
28,-391,0,0,0,0,0,0,0,0,0,-1,1252,1415,0,0
35,-391,0,0,0,0,0,0,0,0,0,-1,1259,1415,0,0
42,-391,0,0,0,0,0,0,0,0,0,-1,1266,1415,0,0
49,-391,0,0,0,0,0,0,0,0,0,-1,1273,1415,0,0
56,-391,0,0,0,0,0,0,0,0,0,-1,1280,1415,0,0
63,-391,0,0,0,0,0,0,0,0,0,-1,1287,1415,0,0
70,-391,0,0,0,0,0,0,0,0,0,-1,1294,1415,0,0
77,-391,0,0,0,0,0,0,0,0,0,-1,1301,1415,0,0
84,-391,0,0,0,0,0,0,0,0,0,-1,1308,1415,0,0
91,-391,0,0,0,0,0,0,0,0,0,-1,1315,1415,0,0
98,-391,0,0,0,0,0,0,0,0,0,-1,1322,1415,0,0
105,-391,0,0,0,0,0,0,0,0,0,-1,1329,1415,0,0
112,-391,0,0,0,0,0,0,0,0,0,-1,1336,1415,0,0
119,-391,0,0,0,0,0,0,0,0,0,-1,1343,1415,0,0
126,-391,0,0,0,0,0,0,0,0,0,-1,1350,1415,0,0
133,-391,0,0,0,0,0,0,0,0,0,-1,1357,1415,0,0
140,-391,0,0,0,0,0,0,0,0,0,-1,1364,1415,0,0
147,-391,0,0,0,0,0,0,0,0,0,-1,1371,1415,0,0
154,-391,0,0,0,0,0,0,0,0,0,-1,1378,1415,0,0
161,-391,0,0,0,0,0,0,0,0,0,-1,1385,1415,0,0
168,-391,0,0,0,0,0,0,0,0,0,-1,1392,1415,0,0
175,-391,0,0,0,0,0,0,0,0,0,-1,1399,1415,0,0
182,-391,0,0,0,0,0,0,0,0,0,-1,1406,1415,0,0
189,-391,0,0,0,0,0,0,0,0,0,-1,1413,1415,0,0
196,-391,0,0,0,0,0,0,0,0,0,-1,1420,1415,0,0
203,-391,0,0,0,0,0,0,0,0,0,-1,1427,1415,0,0
210,-391,0,0,0,0,0,0,0,0,0,-1,1434,1415,0,0
217,-391,0,0,0,0,0,0,0,0,0,-1,1441,1415,0,0
224,-391,0,0,0,0,0,0,0,0,0,-1,1448,1415,0,0
231,-391,0,0,0,0,0,0,0,0,0,-1,1455,1415,0,0
238,-391,0,0,0,0,0,0,0,0,0,-1,1462,1415,0,0
245,-391,0,0,0,0,0,0,0,0,0,-1,1469,1415,0,0
252,-391,0,0,0,0,0,0,0,0,0,-1,1476,1415,0,0
259,-391,0,0,0,0,0,0,0,0,0,-1,1483,1415,0,0
266,-391,0,0,0,0,0,0,0,0,0,-1,1490,1415,0,0
273,-391,0,0,0,0,0,0,0,0,0,-1,1497,1415,0,0
280,-391,0,0,0,0,0,0,0,0,0,-1,1504,1415,0,0
287,-391,0,0,0,0,0,0,0,0,0,-1,1511,1415,0,0
294,-391,0,0,0,0,0,0,0,0,0,-1,1518,1415,0,0
301,-391,0,0,0,0,0,0,0,0,0,-1,1525,1415,0,0
308,-391,0,0,0,0,0,0,0,0,0,-1,1532,1415,0,0
315,-391,0,0,0,0,0,0,0,0,0,-1,1539,1415,0,0
322,-391,0,0,0,0,0,0,0,0,0,-1,1546,1415,0,0
329,-391,0,0,0,0,0,0,0,0,0,-1,1553,1415,0,0
336,-391,0,0,0,0,0,0,0,0,0,-1,1560,1415,0,0
343,-391,0,0,0,0,0,0,0,0,0,-1,1567,1415,0,0
350,-391,0,0,0,0,0,0,0,0,0,-1,1574,1415,0,0
357,-391,0,0,0,0,0,0,0,0,0,-1,1581,1415,0,0
364,-391,0,0,0,0,0,0,0,0,0,-1,1588,1415,0,0
371,-391,0,0,0,0,0,0,0,0,0,-1,1595,1415,0,0
378,-391,0,0,0,0,0,0,0,0,0,-1,1602,1415,0,0
385,-391,0,0,0,0,0,0,0,0,0,-1,1609,1415,0,0
392,-391,0,0,0,0,0,0,0,0,0,-1,1616,1415,0,0
399,-391,0,0,0,0,0,0,0,0,0,-1,1623,1415,0,0
406,-391,0,0,0,0,0,0,0,0,0,-1,1630,1415,0,0
413,-391,0,0,0,0,0,0,0,0,0,-1,1637,1415,0,0
420,-391,0,0,0,0,0,0,0,0,0,-1,1644,1415,0,0
427,-391,0,0,0,0,0,0,0,0,0,-1,1651,1415,0,0
434,-391,0,0,0,0,0,0,0,0,0,-1,1658,1415,0,0
441,-391,0,0,0,0,0,0,0,0,0,-1,1665,1415,0,0
448,-391,0,0,0,0,0,0,0,0,0,-1,1672,1415,0,0
455,-391,0,0,0,0,0,0,0,0,0,-1,1679,1415,0,0
462,-391,0,0,0,0,0,0,0,0,0,-1,1686,1415,0,0
469,-391,0,0,0,0,0,0,0,0,0,-1,1693,1415,0,0
476,-391,0,0,0,0,0,0,0,0,0,-1,1700,1415,0,0
483,-391,0,0,0,0,0,0,0,0,0,-1,1707,1415,0,0
490,-391,0,0,0,0,0,0,0,0,0,-1,1714,1415,0,0
497,-391,0,0,0,0,0,0,0,0,0,-1,1721,1415,0,0
504,-391,0,0,0,0,0,0,0,0,0,-1,1728,1415,0,0
511,-391,0,0,0,0,0,0,0,0,0,-1,1735,1415,0,0
518,-391,0,0,0,0,0,0,0,0,0,-1,1742,1415,0,0
525,-391,0,0,0,0,0,0,0,0,0,-1,1749,1415,0,0
532,-391,28.5959,3.02356,0,0,0,0,0,0,0,-1,1756,1415,28.596,-3.02358
539,-391,27.5881,3.25012,0,0,0,0,0,0,0,-1,1763,1415,27.5882,-3.25016
546,-391,27.2837,3.28064,0,0,0,0,0,0,0,-1,1770,1415,27.2837,-3.28064
553,-391,32.5952,5.04553,0,0,0,0,0,0,0,-1,1777,1415,32.5952,-5.04551
560,-391,31.2947,5.67017,0,0,0,0,0,0,0,-1,1784,1415,31.2947,-5.67011
567,-391,30.1473,6.17603,0,0,0,0,0,0,0,-1,1791,1415,30.1473,-6.17602
574,-391,27.5656,5.6842,0,0,0,0,0,0,0,-1,1798,1415,27.5655,-5.68422
581,-391,25.8883,5.76123,0,0,0,0,0,0,0,-1,1805,1415,25.8883,-5.76124
588,-391,24.2717,5.47986,0,0,0,0,0,0,0,-1,1812,1415,24.2717,-5.47982
595,-391,22.8827,6.1991,0,0,0,0,0,0,0,-1,1819,1415,22.8827,-6.19909
602,-391,15.1635,5.69849,0,0,0,0,0,0,0,-1,1826,1415,15.1635,-5.69847
609,-391,14.8285,7.50476,0,0,0,0,0,0,0,-1,1833,1415,14.8285,-7.50479
616,-391,20.7952,12.0503,0,0,0,0,0,0,0,-1,1840,1415,20.7952,-12.0503
623,-391,30.0005,16.6891,0,0,0,0,0,0,0,-1,1847,1415,30.0005,-16.6891
630,-391,30.2594,15.9821,0.00224071,0.000484463,-0.00130173,0.00293281,-0.000207633,-0.488666,0.00202796,0.043476,1854,1415,30.2594,-15.9821
637,-391,30.1255,15.5354,0.00179377,0.000254533,-0.000902503,0.00221025,-0.000161945,-0.432351,0.00153034,0.0162731,1861,1415,30.1255,-15.5354
644,-391,30.1063,14.9751,0.0015255,8.68582e-05,-0.000534656,0.00170244,-9.00794e-05,-0.319592,0.00116615,0.0169821,1868,1415,30.1063,-14.9751
651,-391,30.0881,14.42,0.00148551,-0.000196538,-9.61958e-05,0.00149099,-0.000202021,-0.0569423,0.00106772,0.0175615,1875,1415,30.0882,-14.42
658,-391,30.0623,13.8779,0.00159143,-0.000515671,0.000339241,0.0016447,-0.000568942,0.155757,0.0013274,0.0176131,1882,1415,30.0623,-13.8779
665,-391,30.0718,13.3096,0.00184672,-0.000925873,0.000809019,0.00206552,-0.00114467,0.26413,0.00187865,0.014429,1889,1415,30.0717,-13.3096
672,-391,30.0604,12.749,0.00223441,-0.00145307,0.0013606,0.00268209,-0.00190075,0.317874,0.00265869,0.0129493,1896,1415,30.0605,-12.7491
679,-391,30.0181,12.1959,0.00273814,-0.00214643,0.00200921,0.00345839,-0.00286669,0.344207,0.00365711,0.0123908,1903,1415,30.0181,-12.1959
686,-391,30.0068,11.6624,0.00326138,-0.00316029,0.00290454,0.00438018,-0.0042791,0.367677,0.00499956,0.0131736,1910,1415,30.0068,-11.6623
693,-391,30.0321,11.3368,0.00403022,-0.00438925,0.00382517,0.00550852,-0.00586756,0.368786,0.00656907,0.0357803,1917,1415,30.0321,-11.3368
700,-391,30.17,10.9963,0,0,0,0,0,0,0,-1,1924,1415,30.17,-10.9964
707,-391,12.9524,5.96851,0,0,0,0,0,0,0,-1,1931,1415,12.9524,-5.96849
714,-391,15.6875,7.67896,0,0,0,0,0,0,0,-1,1938,1415,15.6875,-7.67893
721,-391,14.1808,8.08435,0,0,0,0,0,0,0,-1,1945,1415,14.1808,-8.08439
728,-391,13.8102,7.28174,0,0,0,0,0,0,0,-1,1952,1415,13.8102,-7.28174
735,-391,0,0,0,0,0,0,0,0,0,-1,1959,1415,0,0
742,-391,0,0,0,0,0,0,0,0,0,-1,1966,1415,0,0
749,-391,0,0,0,0,0,0,0,0,0,-1,1973,1415,0,0
756,-391,0,0,0,0,0,0,0,0,0,-1,1980,1415,0,0
763,-391,0,0,0,0,0,0,0,0,0,-1,1987,1415,0,0
770,-391,0,0,0,0,0,0,0,0,0,-1,1994,1415,0,0
777,-391,0,0,0,0,0,0,0,0,0,-1,2001,1415,0,0
784,-391,0,0,0,0,0,0,0,0,0,-1,2008,1415,0,0
791,-391,0,0,0,0,0,0,0,0,0,-1,2015,1415,0,0
798,-391,0,0,0,0,0,0,0,0,0,-1,2022,1415,0,0
805,-391,0,0,0,0,0,0,0,0,0,-1,2029,1415,0,0
812,-391,0,0,0,0,0,0,0,0,0,-1,2036,1415,0,0
-700,-398,0,0,0,0,0,0,0,0,0,-1,524,1422,0,0
-693,-398,0,0,0,0,0,0,0,0,0,-1,531,1422,0,0
-686,-398,0,0,0,0,0,0,0,0,0,-1,538,1422,0,0
-679,-398,0,0,0,0,0,0,0,0,0,-1,545,1422,0,0
-672,-398,0,0,0,0,0,0,0,0,0,-1,552,1422,0,0
-665,-398,0,0,0,0,0,0,0,0,0,-1,559,1422,0,0
-658,-398,0,0,0,0,0,0,0,0,0,-1,566,1422,0,0
-651,-398,0,0,0,0,0,0,0,0,0,-1,573,1422,0,0
-644,-398,0,0,0,0,0,0,0,0,0,-1,580,1422,0,0
-637,-398,0,0,0,0,0,0,0,0,0,-1,587,1422,0,0
-630,-398,0,0,0,0,0,0,0,0,0,-1,594,1422,0,0
-623,-398,0,0,0,0,0,0,0,0,0,-1,601,1422,0,0
-616,-398,0,0,0,0,0,0,0,0,0,-1,608,1422,0,0
-609,-398,-7.47125,-4.05322,0,0,0,0,0,0,0,-1,615,1422,-7.47128,4.05317
-602,-398,-4.58868,-2.77026,0,0,0,0,0,0,0,-1,622,1422,-4.58869,2.77023
-595,-398,-12.2224,-1.82007,0,0,0,0,0,0,0,-1,629,1422,-12.2224,1.82006
-588,-398,-10.6939,1.32336,0,0,0,0,0,0,0,-1,636,1422,-10.6939,-1.32337
-581,-398,-10.433,3.1123,0,0,0,0,0,0,0,-1,643,1422,-10.433,-3.11233
-574,-398,-10.4475,5.89807,0,0,0,0,0,0,0,-1,650,1422,-10.4475,-5.89802
-567,-398,-10.4904,6.80115,0,0,0,0,0,0,0,-1,657,1422,-10.4904,-6.80115
-560,-398,-10.5333,7.70435,0,0,0,0,0,0,0,-1,664,1422,-10.5333,-7.70429
-553,-398,-13.8573,9.56738,0,0,0,0,0,0,0,-1,671,1422,-13.8573,-9.56736
-546,-398,-13.8143,10.29,0.00371286,0.00213132,0.00207707,0.00514459,0.000699583,0.603513,0.00322195,0.027137,678,1422,-13.8143,-10.29
-539,-398,-13.743,10.9418,0.00304069,0.00166124,0.00162057,0.00411221,0.000589721,0.584206,0.00256757,0.0127114,685,1422,-13.743,-10.9418
-532,-398,-13.8027,11.5243,0.00251189,0.00123917,0.00125211,0.00328007,0.000470985,0.550294,0.00204785,0.0209371,692,1422,-13.8027,-11.5243
-525,-398,-13.8362,12.1653,0.00233472,0.0010875,0.00115641,0.00302495,0.000397267,0.538117,0.00189812,0.0210249,699,1422,-13.8362,-12.1653
-518,-398,-13.8456,12.757,0.00242252,0.00117279,0.00129079,0.00323173,0.00036357,0.559976,0.00204411,0.0188935,706,1422,-13.8456,-12.7569
-511,-398,-13.8536,13.3218,0.00272144,0.0014962,0.00162352,0.00384407,0.000373563,0.604987,0.00244771,0.0138122,713,1422,-13.8536,-13.3218
-504,-398,-13.8627,13.9377,0.00328268,0.00207539,0.00220322,0.00496345,0.00039462,0.651687,0.00318559,0.0135008,720,1422,-13.8627,-13.9378
-497,-398,-13.8939,14.525,0.00416318,0.00298361,0.00309485,0.00672394,0.000422842,0.691243,0.00434854,0.0105682,727,1422,-13.8938,-14.525
-490,-398,-13.919,15.1388,0.00552917,0.00439176,0.00436099,0.00935838,0.000562547,0.72056,0.00606012,0.0192668,734,1422,-13.919,-15.1388
-483,-398,-13.9169,15.7896,0,0,0,0,0,0,0,-1,741,1422,-13.9169,-15.7896
-476,-398,-8.64392,11.9448,0,0,0,0,0,0,0,-1,748,1422,-8.6439,-11.9448
-469,-398,-8.91699,10.6276,0,0,0,0,0,0,0,-1,755,1422,-8.91697,-10.6275
-462,-398,-9.59753,9.32532,0,0,0,0,0,0,0,-1,762,1422,-9.59753,-9.32531
-455,-398,-8.08331,6.75024,0,0,0,0,0,0,0,-1,769,1422,-8.08333,-6.75022
-448,-398,-7.4505,5.25293,0,0,0,0,0,0,0,-1,776,1422,-7.4505,-5.25291
-441,-398,-7.61639,3.32141,0,0,0,0,0,0,0,-1,783,1422,-7.61637,-3.32145
-434,-398,-10.7618,3.297,0,0,0,0,0,0,0,-1,790,1422,-10.7618,-3.29704
-427,-398,-11.9061,2.24939,0,0,0,0,0,0,0,-1,797,1422,-11.9061,-2.24941
-420,-398,-13.467,2.32788,0,0,0,0,0,0,0,-1,804,1422,-13.467,-2.32787
-413,-398,-14.7983,2.15515,0,0,0,0,0,0,0,-1,811,1422,-14.7983,-2.15516
-406,-398,0,0,0,0,0,0,0,0,0,-1,818,1422,0,0
-399,-398,0,0,0,0,0,0,0,0,0,-1,825,1422,0,0
-392,-398,0,0,0,0,0,0,0,0,0,-1,832,1422,0,0
-385,-398,0,0,0,0,0,0,0,0,0,-1,839,1422,0,0
-378,-398,0,0,0,0,0,0,0,0,0,-1,846,1422,0,0
-371,-398,0,0,0,0,0,0,0,0,0,-1,853,1422,0,0
-364,-398,0,0,0,0,0,0,0,0,0,-1,860,1422,0,0
-357,-398,0,0,0,0,0,0,0,0,0,-1,867,1422,0,0
-350,-398,0,0,0,0,0,0,0,0,0,-1,874,1422,0,0
-343,-398,0,0,0,0,0,0,0,0,0,-1,881,1422,0,0
-336,-398,0,0,0,0,0,0,0,0,0,-1,888,1422,0,0
-329,-398,0,0,0,0,0,0,0,0,0,-1,895,1422,0,0
-322,-398,0,0,0,0,0,0,0,0,0,-1,902,1422,0,0
-315,-398,0,0,0,0,0,0,0,0,0,-1,909,1422,0,0
-308,-398,0,0,0,0,0,0,0,0,0,-1,916,1422,0,0
-301,-398,0,0,0,0,0,0,0,0,0,-1,923,1422,0,0
-294,-398,0,0,0,0,0,0,0,0,0,-1,930,1422,0,0
-287,-398,0,0,0,0,0,0,0,0,0,-1,937,1422,0,0
-280,-398,0,0,0,0,0,0,0,0,0,-1,944,1422,0,0
-273,-398,0,0,0,0,0,0,0,0,0,-1,951,1422,0,0
-266,-398,0,0,0,0,0,0,0,0,0,-1,958,1422,0,0
-259,-398,0,0,0,0,0,0,0,0,0,-1,965,1422,0,0
-252,-398,0,0,0,0,0,0,0,0,0,-1,972,1422,0,0
-245,-398,0,0,0,0,0,0,0,0,0,-1,979,1422,0,0
-238,-398,0,0,0,0,0,0,0,0,0,-1,986,1422,0,0
-231,-398,0,0,0,0,0,0,0,0,0,-1,993,1422,0,0
-224,-398,0,0,0,0,0,0,0,0,0,-1,1000,1422,0,0
-217,-398,0,0,0,0,0,0,0,0,0,-1,1007,1422,0,0
-210,-398,0,0,0,0,0,0,0,0,0,-1,1014,1422,0,0
-203,-398,0,0,0,0,0,0,0,0,0,-1,1021,1422,0,0
-196,-398,0,0,0,0,0,0,0,0,0,-1,1028,1422,0,0
-189,-398,0,0,0,0,0,0,0,0,0,-1,1035,1422,0,0
-182,-398,0,0,0,0,0,0,0,0,0,-1,1042,1422,0,0
-175,-398,0,0,0,0,0,0,0,0,0,-1,1049,1422,0,0
-168,-398,0,0,0,0,0,0,0,0,0,-1,1056,1422,0,0
-161,-398,0,0,0,0,0,0,0,0,0,-1,1063,1422,0,0
-154,-398,0,0,0,0,0,0,0,0,0,-1,1070,1422,0,0
-147,-398,0,0,0,0,0,0,0,0,0,-1,1077,1422,0,0
-140,-398,0,0,0,0,0,0,0,0,0,-1,1084,1422,0,0
-133,-398,0,0,0,0,0,0,0,0,0,-1,1091,1422,0,0
-126,-398,0,0,0,0,0,0,0,0,0,-1,1098,1422,0,0
-119,-398,0,0,0,0,0,0,0,0,0,-1,1105,1422,0,0
-112,-398,0,0,0,0,0,0,0,0,0,-1,1112,1422,0,0
-105,-398,0,0,0,0,0,0,0,0,0,-1,1119,1422,0,0
-98,-398,0,0,0,0,0,0,0,0,0,-1,1126,1422,0,0
-91,-398,0,0,0,0,0,0,0,0,0,-1,1133,1422,0,0
-84,-398,0,0,0,0,0,0,0,0,0,-1,1140,1422,0,0
-77,-398,0,0,0,0,0,0,0,0,0,-1,1147,1422,0,0
-70,-398,0,0,0,0,0,0,0,0,0,-1,1154,1422,0,0
-63,-398,0,0,0,0,0,0,0,0,0,-1,1161,1422,0,0
-56,-398,0,0,0,0,0,0,0,0,0,-1,1168,1422,0,0
-49,-398,0,0,0,0,0,0,0,0,0,-1,1175,1422,0,0
-42,-398,0,0,0,0,0,0,0,0,0,-1,1182,1422,0,0
-35,-398,0,0,0,0,0,0,0,0,0,-1,1189,1422,0,0
-28,-398,0,0,0,0,0,0,0,0,0,-1,1196,1422,0,0
-21,-398,0,0,0,0,0,0,0,0,0,-1,1203,1422,0,0
-14,-398,0,0,0,0,0,0,0,0,0,-1,1210,1422,0,0
-7,-398,0,0,0,0,0,0,0,0,0,-1,1217,1422,0,0
0,-398,0,0,0,0,0,0,0,0,0,-1,1224,1422,0,0
7,-398,0,0,0,0,0,0,0,0,0,-1,1231,1422,0,0
14,-398,0,0,0,0,0,0,0,0,0,-1,1238,1422,0,0
21,-398,0,0,0,0,0,0,0,0,0,-1,1245,1422,0,0
28,-398,0,0,0,0,0,0,0,0,0,-1,1252,1422,0,0
35,-398,0,0,0,0,0,0,0,0,0,-1,1259,1422,0,0
42,-398,0,0,0,0,0,0,0,0,0,-1,1266,1422,0,0
49,-398,0,0,0,0,0,0,0,0,0,-1,1273,1422,0,0
56,-398,0,0,0,0,0,0,0,0,0,-1,1280,1422,0,0
63,-398,0,0,0,0,0,0,0,0,0,-1,1287,1422,0,0
70,-398,0,0,0,0,0,0,0,0,0,-1,1294,1422,0,0
77,-398,0,0,0,0,0,0,0,0,0,-1,1301,1422,0,0
84,-398,0,0,0,0,0,0,0,0,0,-1,1308,1422,0,0
91,-398,0,0,0,0,0,0,0,0,0,-1,1315,1422,0,0
98,-398,0,0,0,0,0,0,0,0,0,-1,1322,1422,0,0
105,-398,0,0,0,0,0,0,0,0,0,-1,1329,1422,0,0
112,-398,0,0,0,0,0,0,0,0,0,-1,1336,1422,0,0
119,-398,0,0,0,0,0,0,0,0,0,-1,1343,1422,0,0
126,-398,0,0,0,0,0,0,0,0,0,-1,1350,1422,0,0
133,-398,0,0,0,0,0,0,0,0,0,-1,1357,1422,0,0
140,-398,0,0,0,0,0,0,0,0,0,-1,1364,1422,0,0
147,-398,0,0,0,0,0,0,0,0,0,-1,1371,1422,0,0
154,-398,0,0,0,0,0,0,0,0,0,-1,1378,1422,0,0
161,-398,0,0,0,0,0,0,0,0,0,-1,1385,1422,0,0
168,-398,0,0,0,0,0,0,0,0,0,-1,1392,1422,0,0
175,-398,0,0,0,0,0,0,0,0,0,-1,1399,1422,0,0
182,-398,0,0,0,0,0,0,0,0,0,-1,1406,1422,0,0
189,-398,0,0,0,0,0,0,0,0,0,-1,1413,1422,0,0
196,-398,0,0,0,0,0,0,0,0,0,-1,1420,1422,0,0
203,-398,0,0,0,0,0,0,0,0,0,-1,1427,1422,0,0
210,-398,0,0,0,0,0,0,0,0,0,-1,1434,1422,0,0
217,-398,0,0,0,0,0,0,0,0,0,-1,1441,1422,0,0
224,-398,0,0,0,0,0,0,0,0,0,-1,1448,1422,0,0
231,-398,0,0,0,0,0,0,0,0,0,-1,1455,1422,0,0
238,-398,0,0,0,0,0,0,0,0,0,-1,1462,1422,0,0
245,-398,0,0,0,0,0,0,0,0,0,-1,1469,1422,0,0
252,-398,0,0,0,0,0,0,0,0,0,-1,1476,1422,0,0
259,-398,0,0,0,0,0,0,0,0,0,-1,1483,1422,0,0
266,-398,0,0,0,0,0,0,0,0,0,-1,1490,1422,0,0
273,-398,0,0,0,0,0,0,0,0,0,-1,1497,1422,0,0
280,-398,0,0,0,0,0,0,0,0,0,-1,1504,1422,0,0
287,-398,0,0,0,0,0,0,0,0,0,-1,1511,1422,0,0
294,-398,0,0,0,0,0,0,0,0,0,-1,1518,1422,0,0
301,-398,0,0,0,0,0,0,0,0,0,-1,1525,1422,0,0
308,-398,0,0,0,0,0,0,0,0,0,-1,1532,1422,0,0
315,-398,0,0,0,0,0,0,0,0,0,-1,1539,1422,0,0
322,-398,0,0,0,0,0,0,0,0,0,-1,1546,1422,0,0
329,-398,0,0,0,0,0,0,0,0,0,-1,1553,1422,0,0
336,-398,0,0,0,0,0,0,0,0,0,-1,1560,1422,0,0
343,-398,0,0,0,0,0,0,0,0,0,-1,1567,1422,0,0
350,-398,0,0,0,0,0,0,0,0,0,-1,1574,1422,0,0
357,-398,0,0,0,0,0,0,0,0,0,-1,1581,1422,0,0
364,-398,0,0,0,0,0,0,0,0,0,-1,1588,1422,0,0
371,-398,0,0,0,0,0,0,0,0,0,-1,1595,1422,0,0
378,-398,0,0,0,0,0,0,0,0,0,-1,1602,1422,0,0
385,-398,0,0,0,0,0,0,0,0,0,-1,1609,1422,0,0
392,-398,0,0,0,0,0,0,0,0,0,-1,1616,1422,0,0
399,-398,0,0,0,0,0,0,0,0,0,-1,1623,1422,0,0
406,-398,0,0,0,0,0,0,0,0,0,-1,1630,1422,0,0
413,-398,0,0,0,0,0,0,0,0,0,-1,1637,1422,0,0
420,-398,0,0,0,0,0,0,0,0,0,-1,1644,1422,0,0
427,-398,0,0,0,0,0,0,0,0,0,-1,1651,1422,0,0
434,-398,0,0,0,0,0,0,0,0,0,-1,1658,1422,0,0
441,-398,0,0,0,0,0,0,0,0,0,-1,1665,1422,0,0
448,-398,0,0,0,0,0,0,0,0,0,-1,1672,1422,0,0
455,-398,0,0,0,0,0,0,0,0,0,-1,1679,1422,0,0
462,-398,0,0,0,0,0,0,0,0,0,-1,1686,1422,0,0
469,-398,0,0,0,0,0,0,0,0,0,-1,1693,1422,0,0
476,-398,0,0,0,0,0,0,0,0,0,-1,1700,1422,0,0
483,-398,0,0,0,0,0,0,0,0,0,-1,1707,1422,0,0
490,-398,0,0,0,0,0,0,0,0,0,-1,1714,1422,0,0
497,-398,0,0,0,0,0,0,0,0,0,-1,1721,1422,0,0
504,-398,0,0,0,0,0,0,0,0,0,-1,1728,1422,0,0
511,-398,0,0,0,0,0,0,0,0,0,-1,1735,1422,0,0
518,-398,0,0,0,0,0,0,0,0,0,-1,1742,1422,0,0
525,-398,0,0,0,0,0,0,0,0,0,-1,1749,1422,0,0
532,-398,28.4558,3.84094,0,0,0,0,0,0,0,-1,1756,1422,28.4558,-3.8409
539,-398,27.0594,3.33887,0,0,0,0,0,0,0,-1,1763,1422,27.0595,-3.3389
546,-398,31.6873,5.58582,0,0,0,0,0,0,0,-1,1770,1422,31.6872,-5.58585
553,-398,30.4392,5.92383,0,0,0,0,0,0,0,-1,1777,1422,30.4392,-5.92386
560,-398,29.1621,6.30469,0,0,0,0,0,0,0,-1,1784,1422,29.1621,-6.30469
567,-398,27.8411,6.55029,0,0,0,0,0,0,0,-1,1791,1422,27.8411,-6.55033
574,-398,26.411,6.8916,0,0,0,0,0,0,0,-1,1798,1422,26.411,-6.8916
581,-398,24.75,7.11145,0,0,0,0,0,0,0,-1,1805,1422,24.7499,-7.11142
588,-398,23.1649,7.67969,0,0,0,0,0,0,0,-1,1812,1422,23.1649,-7.67975
595,-398,21.4253,7.86023,0,0,0,0,0,0,0,-1,1819,1422,21.4253,-7.86029
602,-398,19.6857,8.04077,0,0,0,0,0,0,0,-1,1826,1422,19.6856,-8.04083
609,-398,21.1835,13.2628,0,0,0,0,0,0,0,-1,1833,1422,21.1835,-13.2628
616,-398,29.0917,17.7328,0,0,0,0,0,0,0,-1,1840,1422,29.0917,-17.7328
623,-398,29.5851,16.6766,0.00306564,0.000988942,-0.00195605,0.00424186,-0.00018727,-0.54139,0.00289235,0.0433005,1847,1422,29.585,-16.6766
630,-398,29.6045,16.0833,0.00221927,0.000487872,-0.0012206,0.00285,-0.000142861,-0.476949,0.00194937,0.0133312,1854,1422,29.6045,-16.0832
637,-398,29.5956,15.5388,0.00180845,0.000241955,-0.000817642,0.00215747,-0.000107058,-0.403439,0.00147529,0.0142138,1861,1422,29.5956,-15.5388
644,-398,29.5024,14.9816,0.00160253,3.61505e-06,-0.000420065,0.00170617,-0.000100026,-0.241896,0.00117221,0.0209063,1868,1422,29.5024,-14.9816
651,-398,29.5016,14.4984,0.00160907,-0.000247982,-1.53284e-05,0.0016092,-0.000248108,-0.00825339,0.00116435,0.0288503,1875,1422,29.5016,-14.4984
658,-398,29.5304,13.9861,0.00173814,-0.000545975,0.000416216,0.00181162,-0.000619455,0.174742,0.00145875,0.0238865,1882,1422,29.5304,-13.9861
665,-398,29.5254,13.3772,0.0020123,-0.000949601,0.000911617,0.00227039,-0.00120769,0.275892,0.00203908,0.0157097,1889,1422,29.5253,-13.3772
672,-398,29.4906,12.7993,0.00240106,-0.00148541,0.00153054,0.00293143,-0.00201578,0.333575,0.00287253,0.0131441,1896,1422,29.4906,-12.7993
679,-398,29.4562,12.2399,0.00287024,-0.00229091,0.00234037,0.00377344,-0.00319411,0.368311,0.00402735,0.0122472,1903,1422,29.4562,-12.2399
686,-398,29.4624,11.6998,0.00326868,-0.00354144,0.00355263,0.00478456,-0.00505732,0.403303,0.00568294,0.0186284,1910,1422,29.4624,-11.6998
693,-398,29.3486,11.525,0.00384215,-0.00512498,0.00491576,0.00601193,-0.00729476,0.415674,0.00769452,0.0460717,1917,1422,29.3486,-11.525
700,-398,29.3137,11.4363,0,0,0,0,0,0,0,-1,1924,1422,29.3137,-11.4363
707,-398,10.9731,5.479,0,0,0,0,0,0,0,-1,1931,1422,10.9732,-5.47896
714,-398,11.7313,6.17346,0,0,0,0,0,0,0,-1,1938,1422,11.7313,-6.17348
721,-398,13.9371,8.05103,0,0,0,0,0,0,0,-1,1945,1422,13.9372,-8.05102
728,-398,14.786,7.0282,0,0,0,0,0,0,0,-1,1952,1422,14.786,-7.0282
735,-398,0,0,0,0,0,0,0,0,0,-1,1959,1422,0,0
742,-398,0,0,0,0,0,0,0,0,0,-1,1966,1422,0,0
749,-398,0,0,0,0,0,0,0,0,0,-1,1973,1422,0,0
756,-398,0,0,0,0,0,0,0,0,0,-1,1980,1422,0,0
763,-398,0,0,0,0,0,0,0,0,0,-1,1987,1422,0,0
770,-398,0,0,0,0,0,0,0,0,0,-1,1994,1422,0,0
777,-398,0,0,0,0,0,0,0,0,0,-1,2001,1422,0,0
784,-398,0,0,0,0,0,0,0,0,0,-1,2008,1422,0,0
791,-398,0,0,0,0,0,0,0,0,0,-1,2015,1422,0,0
798,-398,0,0,0,0,0,0,0,0,0,-1,2022,1422,0,0
805,-398,0,0,0,0,0,0,0,0,0,-1,2029,1422,0,0
812,-398,0,0,0,0,0,0,0,0,0,-1,2036,1422,0,0
-700,-405,0,0,0,0,0,0,0,0,0,-1,524,1429,0,0
-693,-405,0,0,0,0,0,0,0,0,0,-1,531,1429,0,0
-686,-405,0,0,0,0,0,0,0,0,0,-1,538,1429,0,0
-679,-405,0,0,0,0,0,0,0,0,0,-1,545,1429,0,0
-672,-405,0,0,0,0,0,0,0,0,0,-1,552,1429,0,0
-665,-405,0,0,0,0,0,0,0,0,0,-1,559,1429,0,0
-658,-405,0,0,0,0,0,0,0,0,0,-1,566,1429,0,0
-651,-405,0,0,0,0,0,0,0,0,0,-1,573,1429,0,0
-644,-405,0,0,0,0,0,0,0,0,0,-1,580,1429,0,0
-637,-405,0,0,0,0,0,0,0,0,0,-1,587,1429,0,0
-630,-405,0,0,0,0,0,0,0,0,0,-1,594,1429,0,0
-623,-405,0,0,0,0,0,0,0,0,0,-1,601,1429,0,0
-616,-405,0,0,0,0,0,0,0,0,0,-1,608,1429,0,0
-609,-405,0,0,0,0,0,0,0,0,0,-1,615,1429,0,0
-602,-405,-5.80988,-3.46594,0,0,0,0,0,0,0,-1,622,1429,-5.80987,3.46592
-595,-405,-9.35413,2.01477,0,0,0,0,0,0,0,-1,629,1429,-9.35411,-2.01476
-588,-405,-7.35693,0.507202,0,0,0,0,0,0,0,-1,636,1429,-7.35696,-0.507187
-581,-405,-10.1284,1.62927,0,0,0,0,0,0,0,-1,643,1429,-10.1284,-1.62922
-574,-405,-9.32074,3.05896,0,0,0,0,0,0,0,-1,650,1429,-9.32077,-3.0589
-567,-405,-9.68781,6.92163,0,0,0,0,0,0,0,-1,657,1429,-9.68782,-6.92166
-560,-405,-9.28674,7.20886,0,0,0,0,0,0,0,-1,664,1429,-9.28675,-7.20885
-553,-405,-13.1523,9.6333,0,0,0,0,0,0,0,-1,671,1429,-13.1523,-9.63335
-546,-405,-13.1685,10.2733,0.00438649,0.00293858,0.00271989,0.00647713,0.000847941,0.655328,0.00406503,0.0411307,678,1429,-13.1685,-10.2733
-539,-405,-13.1768,10.9114,0.00353186,0.00233032,0.00216227,0.00517527,0.000686913,0.649894,0.00324553,0.012909,685,1429,-13.1768,-10.9114
-532,-405,-13.1809,11.5477,0.00276725,0.0017174,0.00162292,0.00394803,0.000536627,0.628986,0.00247263,0.0147552,692,1429,-13.1809,-11.5478
-525,-405,-13.207,12.1759,0.00238647,0.001348,0.00134262,0.00330676,0.000427703,0.60089,0.00207667,0.0149837,699,1429,-13.207,-12.1759
-518,-405,-13.2267,12.7776,0.0023344,0.00132738,0.0013629,0.00328383,0.000377956,0.608455,0.00207474,0.016412,706,1429,-13.2267,-12.7776
-511,-405,-13.2477,13.3571,0.00248172,0.00153047,0.00156273,0.0036396,0.00037259,0.637675,0.00231223,0.0158688,713,1429,-13.2477,-13.357
-504,-405,-13.2518,13.9727,0.00286504,0.0019724,0.0019756,0.00444411,0.000393331,0.674306,0.00284072,0.0173161,720,1429,-13.2518,-13.9727
-497,-405,-13.2766,14.5769,0.00351879,0.00271591,0.0026484,0.005796,0.000438701,0.710181,0.00372638,0.0150925,727,1429,-13.2766,-14.577
-490,-405,-13.3403,15.1659,0.00452547,0.00384906,0.00362402,0.00782702,0.000547497,0.738871,0.00504543,0.0137674,734,1429,-13.3403,-15.1659
-483,-405,-13.2445,15.8944,0.00581103,0.00542194,0.004949,0.0105693,0.000663661,0.765753,0.00683573,0.0273225,741,1429,-13.2445,-15.8944
-476,-405,-12.9841,16.8087,0,0,0,0,0,0,0,-1,748,1429,-12.9841,-16.8087
-469,-405,-9.65692,12.8171,0,0,0,0,0,0,0,-1,755,1429,-9.65691,-12.8172
-462,-405,-9.14862,11.3597,0,0,0,0,0,0,0,-1,762,1429,-9.14865,-11.3597
-455,-405,-9.021,9.51111,0,0,0,0,0,0,0,-1,769,1429,-9.021,-9.51109
-448,-405,-8.4649,6.82813,0,0,0,0,0,0,0,-1,776,1429,-8.46492,-6.82817
-441,-405,-6.6712,4.23767,0,0,0,0,0,0,0,-1,783,1429,-6.67121,-4.23764
-434,-405,-9.62549,3.94189,0,0,0,0,0,0,0,-1,790,1429,-9.62546,-3.94191
-427,-405,-10.9764,3.73926,0,0,0,0,0,0,0,-1,797,1429,-10.9764,-3.73923
-420,-405,-12.1187,3.68506,0,0,0,0,0,0,0,-1,804,1429,-12.1187,-3.68512
-413,-405,-13.5353,3.75659,0,0,0,0,0,0,0,-1,811,1429,-13.5353,-3.75655
-406,-405,-14.7374,3.99817,0,0,0,0,0,0,0,-1,818,1429,-14.7374,-3.99814
-399,-405,0,0,0,0,0,0,0,0,0,-1,825,1429,0,0
-392,-405,0,0,0,0,0,0,0,0,0,-1,832,1429,0,0
-385,-405,0,0,0,0,0,0,0,0,0,-1,839,1429,0,0
-378,-405,0,0,0,0,0,0,0,0,0,-1,846,1429,0,0
-371,-405,0,0,0,0,0,0,0,0,0,-1,853,1429,0,0
-364,-405,0,0,0,0,0,0,0,0,0,-1,860,1429,0,0
-357,-405,0,0,0,0,0,0,0,0,0,-1,867,1429,0,0
-350,-405,0,0,0,0,0,0,0,0,0,-1,874,1429,0,0
-343,-405,0,0,0,0,0,0,0,0,0,-1,881,1429,0,0
-336,-405,0,0,0,0,0,0,0,0,0,-1,888,1429,0,0
-329,-405,0,0,0,0,0,0,0,0,0,-1,895,1429,0,0
-322,-405,0,0,0,0,0,0,0,0,0,-1,902,1429,0,0
-315,-405,0,0,0,0,0,0,0,0,0,-1,909,1429,0,0
-308,-405,0,0,0,0,0,0,0,0,0,-1,916,1429,0,0
-301,-405,0,0,0,0,0,0,0,0,0,-1,923,1429,0,0
-294,-405,0,0,0,0,0,0,0,0,0,-1,930,1429,0,0
-287,-405,0,0,0,0,0,0,0,0,0,-1,937,1429,0,0
-280,-405,0,0,0,0,0,0,0,0,0,-1,944,1429,0,0
-273,-405,0,0,0,0,0,0,0,0,0,-1,951,1429,0,0
-266,-405,0,0,0,0,0,0,0,0,0,-1,958,1429,0,0
-259,-405,0,0,0,0,0,0,0,0,0,-1,965,1429,0,0
-252,-405,0,0,0,0,0,0,0,0,0,-1,972,1429,0,0
-245,-405,0,0,0,0,0,0,0,0,0,-1,979,1429,0,0
-238,-405,0,0,0,0,0,0,0,0,0,-1,986,1429,0,0
-231,-405,0,0,0,0,0,0,0,0,0,-1,993,1429,0,0
-224,-405,0,0,0,0,0,0,0,0,0,-1,1000,1429,0,0
-217,-405,0,0,0,0,0,0,0,0,0,-1,1007,1429,0,0
-210,-405,0,0,0,0,0,0,0,0,0,-1,1014,1429,0,0
-203,-405,0,0,0,0,0,0,0,0,0,-1,1021,1429,0,0
-196,-405,0,0,0,0,0,0,0,0,0,-1,1028,1429,0,0
-189,-405,0,0,0,0,0,0,0,0,0,-1,1035,1429,0,0
-182,-405,0,0,0,0,0,0,0,0,0,-1,1042,1429,0,0
-175,-405,0,0,0,0,0,0,0,0,0,-1,1049,1429,0,0
-168,-405,0,0,0,0,0,0,0,0,0,-1,1056,1429,0,0
-161,-405,0,0,0,0,0,0,0,0,0,-1,1063,1429,0,0
-154,-405,0,0,0,0,0,0,0,0,0,-1,1070,1429,0,0
-147,-405,0,0,0,0,0,0,0,0,0,-1,1077,1429,0,0
-140,-405,0,0,0,0,0,0,0,0,0,-1,1084,1429,0,0
-133,-405,0,0,0,0,0,0,0,0,0,-1,1091,1429,0,0
-126,-405,0,0,0,0,0,0,0,0,0,-1,1098,1429,0,0
-119,-405,0,0,0,0,0,0,0,0,0,-1,1105,1429,0,0
-112,-405,0,0,0,0,0,0,0,0,0,-1,1112,1429,0,0
-105,-405,0,0,0,0,0,0,0,0,0,-1,1119,1429,0,0
-98,-405,0,0,0,0,0,0,0,0,0,-1,1126,1429,0,0
-91,-405,0,0,0,0,0,0,0,0,0,-1,1133,1429,0,0
-84,-405,0,0,0,0,0,0,0,0,0,-1,1140,1429,0,0
-77,-405,0,0,0,0,0,0,0,0,0,-1,1147,1429,0,0
-70,-405,0,0,0,0,0,0,0,0,0,-1,1154,1429,0,0
-63,-405,0,0,0,0,0,0,0,0,0,-1,1161,1429,0,0
-56,-405,0,0,0,0,0,0,0,0,0,-1,1168,1429,0,0
-49,-405,0,0,0,0,0,0,0,0,0,-1,1175,1429,0,0
-42,-405,0,0,0,0,0,0,0,0,0,-1,1182,1429,0,0
-35,-405,0,0,0,0,0,0,0,0,0,-1,1189,1429,0,0
-28,-405,0,0,0,0,0,0,0,0,0,-1,1196,1429,0,0
-21,-405,0,0,0,0,0,0,0,0,0,-1,1203,1429,0,0
-14,-405,0,0,0,0,0,0,0,0,0,-1,1210,1429,0,0
-7,-405,0,0,0,0,0,0,0,0,0,-1,1217,1429,0,0
0,-405,0,0,0,0,0,0,0,0,0,-1,1224,1429,0,0
7,-405,0,0,0,0,0,0,0,0,0,-1,1231,1429,0,0
14,-405,0,0,0,0,0,0,0,0,0,-1,1238,1429,0,0
21,-405,0,0,0,0,0,0,0,0,0,-1,1245,1429,0,0
28,-405,0,0,0,0,0,0,0,0,0,-1,1252,1429,0,0
35,-405,0,0,0,0,0,0,0,0,0,-1,1259,1429,0,0
42,-405,0,0,0,0,0,0,0,0,0,-1,1266,1429,0,0
49,-405,0,0,0,0,0,0,0,0,0,-1,1273,1429,0,0
56,-405,0,0,0,0,0,0,0,0,0,-1,1280,1429,0,0
63,-405,0,0,0,0,0,0,0,0,0,-1,1287,1429,0,0
70,-405,0,0,0,0,0,0,0,0,0,-1,1294,1429,0,0
77,-405,0,0,0,0,0,0,0,0,0,-1,1301,1429,0,0
84,-405,0,0,0,0,0,0,0,0,0,-1,1308,1429,0,0
91,-405,0,0,0,0,0,0,0,0,0,-1,1315,1429,0,0
98,-405,0,0,0,0,0,0,0,0,0,-1,1322,1429,0,0
105,-405,0,0,0,0,0,0,0,0,0,-1,1329,1429,0,0
112,-405,0,0,0,0,0,0,0,0,0,-1,1336,1429,0,0
119,-405,0,0,0,0,0,0,0,0,0,-1,1343,1429,0,0
126,-405,0,0,0,0,0,0,0,0,0,-1,1350,1429,0,0
133,-405,0,0,0,0,0,0,0,0,0,-1,1357,1429,0,0
140,-405,0,0,0,0,0,0,0,0,0,-1,1364,1429,0,0
147,-405,0,0,0,0,0,0,0,0,0,-1,1371,1429,0,0
154,-405,0,0,0,0,0,0,0,0,0,-1,1378,1429,0,0
161,-405,0,0,0,0,0,0,0,0,0,-1,1385,1429,0,0
168,-405,0,0,0,0,0,0,0,0,0,-1,1392,1429,0,0
175,-405,0,0,0,0,0,0,0,0,0,-1,1399,1429,0,0
182,-405,0,0,0,0,0,0,0,0,0,-1,1406,1429,0,0
189,-405,0,0,0,0,0,0,0,0,0,-1,1413,1429,0,0
196,-405,0,0,0,0,0,0,0,0,0,-1,1420,1429,0,0
203,-405,0,0,0,0,0,0,0,0,0,-1,1427,1429,0,0
210,-405,0,0,0,0,0,0,0,0,0,-1,1434,1429,0,0
217,-405,0,0,0,0,0,0,0,0,0,-1,1441,1429,0,0
224,-405,0,0,0,0,0,0,0,0,0,-1,1448,1429,0,0
231,-405,0,0,0,0,0,0,0,0,0,-1,1455,1429,0,0
238,-405,0,0,0,0,0,0,0,0,0,-1,1462,1429,0,0
245,-405,0,0,0,0,0,0,0,0,0,-1,1469,1429,0,0
252,-405,0,0,0,0,0,0,0,0,0,-1,1476,1429,0,0
259,-405,0,0,0,0,0,0,0,0,0,-1,1483,1429,0,0
266,-405,0,0,0,0,0,0,0,0,0,-1,1490,1429,0,0
273,-405,0,0,0,0,0,0,0,0,0,-1,1497,1429,0,0
280,-405,0,0,0,0,0,0,0,0,0,-1,1504,1429,0,0
287,-405,0,0,0,0,0,0,0,0,0,-1,1511,1429,0,0
294,-405,0,0,0,0,0,0,0,0,0,-1,1518,1429,0,0
301,-405,0,0,0,0,0,0,0,0,0,-1,1525,1429,0,0
308,-405,0,0,0,0,0,0,0,0,0,-1,1532,1429,0,0
315,-405,0,0,0,0,0,0,0,0,0,-1,1539,1429,0,0
322,-405,0,0,0,0,0,0,0,0,0,-1,1546,1429,0,0
329,-405,0,0,0,0,0,0,0,0,0,-1,1553,1429,0,0
336,-405,0,0,0,0,0,0,0,0,0,-1,1560,1429,0,0
343,-405,0,0,0,0,0,0,0,0,0,-1,1567,1429,0,0
350,-405,0,0,0,0,0,0,0,0,0,-1,1574,1429,0,0
357,-405,0,0,0,0,0,0,0,0,0,-1,1581,1429,0,0
364,-405,0,0,0,0,0,0,0,0,0,-1,1588,1429,0,0
371,-405,0,0,0,0,0,0,0,0,0,-1,1595,1429,0,0
378,-405,0,0,0,0,0,0,0,0,0,-1,1602,1429,0,0
385,-405,0,0,0,0,0,0,0,0,0,-1,1609,1429,0,0
392,-405,0,0,0,0,0,0,0,0,0,-1,1616,1429,0,0
399,-405,0,0,0,0,0,0,0,0,0,-1,1623,1429,0,0
406,-405,0,0,0,0,0,0,0,0,0,-1,1630,1429,0,0
413,-405,0,0,0,0,0,0,0,0,0,-1,1637,1429,0,0
420,-405,0,0,0,0,0,0,0,0,0,-1,1644,1429,0,0
427,-405,0,0,0,0,0,0,0,0,0,-1,1651,1429,0,0
434,-405,0,0,0,0,0,0,0,0,0,-1,1658,1429,0,0
441,-405,0,0,0,0,0,0,0,0,0,-1,1665,1429,0,0
448,-405,0,0,0,0,0,0,0,0,0,-1,1672,1429,0,0
455,-405,0,0,0,0,0,0,0,0,0,-1,1679,1429,0,0
462,-405,0,0,0,0,0,0,0,0,0,-1,1686,1429,0,0
469,-405,0,0,0,0,0,0,0,0,0,-1,1693,1429,0,0
476,-405,0,0,0,0,0,0,0,0,0,-1,1700,1429,0,0
483,-405,0,0,0,0,0,0,0,0,0,-1,1707,1429,0,0
490,-405,0,0,0,0,0,0,0,0,0,-1,1714,1429,0,0
497,-405,0,0,0,0,0,0,0,0,0,-1,1721,1429,0,0
504,-405,0,0,0,0,0,0,0,0,0,-1,1728,1429,0,0
511,-405,0,0,0,0,0,0,0,0,0,-1,1735,1429,0,0
518,-405,0,0,0,0,0,0,0,0,0,-1,1742,1429,0,0
525,-405,31.1563,-1.40942,0,0,0,0,0,0,0,-1,1749,1429,31.1563,1.40937
532,-405,28.156,4.8783,0,0,0,0,0,0,0,-1,1756,1429,28.1561,-4.87833
539,-405,26.5133,3.02454,0,0,0,0,0,0,0,-1,1763,1429,26.5133,-3.0246
546,-405,29.5735,6.53052,0,0,0,0,0,0,0,-1,1770,1429,29.5735,-6.53049
553,-405,28.2911,6.70654,0,0,0,0,0,0,0,-1,1777,1429,28.2912,-6.70656
560,-405,26.9299,7.08472,0,0,0,0,0,0,0,-1,1784,1429,26.9299,-7.08469
567,-405,25.804,7.14661,0,0,0,0,0,0,0,-1,1791,1429,25.8039,-7.14665
574,-405,25.1151,8.07971,0,0,0,0,0,0,0,-1,1798,1429,25.1151,-8.07965
581,-405,23.5055,8.505,0,0,0,0,0,0,0,-1,1805,1429,23.5054,-8.50501
588,-405,21.7491,8.98254,0,0,0,0,0,0,0,-1,1812,1429,21.7491,-8.98254
595,-405,21.6327,10.7795,0,0,0,0,0,0,0,-1,1819,1429,21.6327,-10.7796
602,-405,21.6461,13.9199,0,0,0,0,0,0,0,-1,1826,1429,21.6461,-13.92
609,-405,28.6245,18.1768,0,0,0,0,0,0,0,-1,1833,1429,28.6245,-18.1768
616,-405,28.9542,17.4534,0.00423384,0.00197991,-0.002857,0.00617811,3.56389e-05,-0.597539,0.00410691,0.0489042,1840,1429,28.9542,-17.4534
623,-405,29.0153,16.7477,0.00303068,0.00111258,-0.00185142,0.0041567,-1.34392e-05,-0.546423,0.00277563,0.0141327,1847,1429,29.0153,-16.7477
630,-405,29.0208,16.1338,0.0023128,0.000565464,-0.00119515,0.00291956,-4.12965e-05,-0.469778,0.00196029,0.0103705,1854,1429,29.0208,-16.1338
637,-405,29.0057,15.5747,0.00193389,0.000279847,-0.000792007,0.00225196,-3.82256e-05,-0.381887,0.00151421,0.0118926,1861,1429,29.0058,-15.5747
644,-405,28.9017,15.0366,0.00177182,-1.56775e-05,-0.000385534,0.00185142,-9.52859e-05,-0.203626,0.00126724,0.0320005,1868,1429,28.9017,-15.0366
651,-405,28.8152,14.5712,0.00180409,-0.000242829,-2.37708e-05,0.00180437,-0.000243105,-0.0116108,0.0012916,0.0336677,1875,1429,28.8152,-14.5711
658,-405,28.8888,14.0061,0.00193569,-0.000512331,0.000385057,0.00199483,-0.000571469,0.152392,0.00155576,0.0247683,1882,1429,28.8888,-14.0061
665,-405,28.9465,13.412,0.00220644,-0.000892883,0.000884286,0.00244099,-0.00112743,0.259273,0.00210624,0.0193641,1889,1429,28.9466,-13.412
672,-405,28.9271,12.8185,0.00256478,-0.0014016,0.00153991,0.00309244,-0.00192927,0.330118,0.00292509,0.0226808,1896,1429,28.9271,-12.8185
679,-405,28.9628,12.2832,0.0029527,-0.00230433,0.00249304,0.00394695,-0.00329857,0.379477,0.00418878,0.022356,1903,1429,28.9628,-12.2832
686,-405,28.8329,11.8347,0.00314513,-0.00379694,0.00403937,0.00499993,-0.00565175,0.430463,0.00615359,0.0395924,1910,1429,28.8328,-11.8347
693,-405,28.51,11.2902,0,0,0,0,0,0,0,-1,1917,1429,28.51,-11.2902
700,-405,9.1958,4.02026,0,0,0,0,0,0,0,-1,1924,1429,9.19579,-4.02025
707,-405,7.40308,3.83191,0,0,0,0,0,0,0,-1,1931,1429,7.40311,-3.83194
714,-405,7.33252,3.47388,0,0,0,0,0,0,0,-1,1938,1429,7.33255,-3.47383
721,-405,9.23523,0.993896,0,0,0,0,0,0,0,-1,1945,1429,9.23523,-0.993884
728,-405,0,0,0,0,0,0,0,0,0,-1,1952,1429,0,0
735,-405,0,0,0,0,0,0,0,0,0,-1,1959,1429,0,0
742,-405,0,0,0,0,0,0,0,0,0,-1,1966,1429,0,0
749,-405,0,0,0,0,0,0,0,0,0,-1,1973,1429,0,0
756,-405,0,0,0,0,0,0,0,0,0,-1,1980,1429,0,0
763,-405,0,0,0,0,0,0,0,0,0,-1,1987,1429,0,0
770,-405,0,0,0,0,0,0,0,0,0,-1,1994,1429,0,0
777,-405,0,0,0,0,0,0,0,0,0,-1,2001,1429,0,0
784,-405,0,0,0,0,0,0,0,0,0,-1,2008,1429,0,0
791,-405,0,0,0,0,0,0,0,0,0,-1,2015,1429,0,0
798,-405,0,0,0,0,0,0,0,0,0,-1,2022,1429,0,0
805,-405,0,0,0,0,0,0,0,0,0,-1,2029,1429,0,0
812,-405,0,0,0,0,0,0,0,0,0,-1,2036,1429,0,0
-700,-412,0,0,0,0,0,0,0,0,0,-1,524,1436,0,0
-693,-412,0,0,0,0,0,0,0,0,0,-1,531,1436,0,0
-686,-412,0,0,0,0,0,0,0,0,0,-1,538,1436,0,0
-679,-412,0,0,0,0,0,0,0,0,0,-1,545,1436,0,0
-672,-412,0,0,0,0,0,0,0,0,0,-1,552,1436,0,0
-665,-412,0,0,0,0,0,0,0,0,0,-1,559,1436,0,0
-658,-412,0,0,0,0,0,0,0,0,0,-1,566,1436,0,0
-651,-412,0,0,0,0,0,0,0,0,0,-1,573,1436,0,0
-644,-412,0,0,0,0,0,0,0,0,0,-1,580,1436,0,0
-637,-412,0,0,0,0,0,0,0,0,0,-1,587,1436,0,0
-630,-412,0,0,0,0,0,0,0,0,0,-1,594,1436,0,0
-623,-412,0,0,0,0,0,0,0,0,0,-1,601,1436,0,0
-616,-412,0,0,0,0,0,0,0,0,0,-1,608,1436,0,0
-609,-412,0,0,0,0,0,0,0,0,0,-1,615,1436,0,0
-602,-412,-3.72766,-3.50012,0,0,0,0,0,0,0,-1,622,1436,-3.72764,3.50017
-595,-412,-10.3706,0.65564,0,0,0,0,0,0,0,-1,629,1436,-10.3706,-0.655672
-588,-412,-8.17957,1.94934,0,0,0,0,0,0,0,-1,636,1436,-8.17956,-1.94939
-581,-412,-6.60065,-0.0554199,0,0,0,0,0,0,0,-1,643,1436,-6.60063,0.0554733
-574,-412,-8.34131,5.25012,0,0,0,0,0,0,0,-1,650,1436,-8.34129,-5.25012
-567,-412,-7.50354,3.65454,0,0,0,0,0,0,0,-1,657,1436,-7.50356,-3.65452
-560,-412,-8.52448,7.39014,0,0,0,0,0,0,0,-1,664,1436,-8.52447,-7.39019
-553,-412,-7.36761,6.54651,0,0,0,0,0,0,0,-1,671,1436,-7.36763,-6.54654
-546,-412,-12.5271,10.3126,0,0,0,0,0,0,0,-1,678,1436,-12.5271,-10.3126
-539,-412,-12.5427,10.8896,0.00406404,0.0031736,0.00273127,0.00638614,0.000851506,0.704604,0.00400389,0.0246534,685,1436,-12.5427,-10.8897
-532,-412,-12.5836,11.5876,0.0030996,0.00230777,0.00201074,0.00475304,0.000654338,0.688192,0.00297466,0.0138227,692,1436,-12.5836,-11.5877
-525,-412,-12.6053,12.2177,0.00252539,0.00165664,0.00152807,0.00367962,0.000502405,0.646919,0.00230395,0.0163151,699,1436,-12.6053,-12.2177
-518,-412,-12.6186,12.8,0.00235711,0.00150831,0.00144461,0.00343837,0.000427056,0.642526,0.00216399,0.0176644,706,1436,-12.6186,-12.8
-511,-412,-12.6542,13.3884,0.00235952,0.00158135,0.00152507,0.00354435,0.00039651,0.660499,0.00224245,0.0196566,713,1436,-12.6542,-13.3884
-504,-412,-12.6856,14.0076,0.00255835,0.00188944,0.00179246,0.00404729,0.000400499,0.693164,0.00257509,0.0188496,720,1436,-12.6856,-14.0075
-497,-412,-12.7103,14.6228,0.00299835,0.00247221,0.00228384,0.00503422,0.000436341,0.728056,0.00322057,0.0153708,727,1436,-12.7102,-14.6229
-490,-412,-12.7317,15.1948,0.0037344,0.00338404,0.00304379,0.00660805,0.000510396,0.756653,0.00424547,0.0140532,734,1436,-12.7317,-15.1949
-483,-412,-12.7255,15.7906,0.00471244,0.00464326,0.00407221,0.00875021,0.000605491,0.781152,0.00564248,0.0108059,741,1436,-12.7255,-15.7907
-476,-412,-12.5084,16.722,0.00593285,0.00618074,0.00542421,0.0114824,0.000631169,0.796821,0.00745347,0.0467991,748,1436,-12.5083,-16.7221
-469,-412,-12.3622,17.6776,0,0,0,0,0,0,0,-1,755,1436,-12.3623,-17.6776
-462,-412,-8.94659,13.3385,0,0,0,0,0,0,0,-1,762,1436,-8.94657,-13.3385
-455,-412,-8.25006,11.2572,0,0,0,0,0,0,0,-1,769,1436,-8.25007,-11.2572
-448,-412,-7.38086,8.78186,0,0,0,0,0,0,0,-1,776,1436,-7.38088,-8.78183
-441,-412,-8.79523,9.05286,0,0,0,0,0,0,0,-1,783,1436,-8.79521,-9.0529
-434,-412,-10.6305,8.03577,0,0,0,0,0,0,0,-1,790,1436,-10.6305,-8.0358
-427,-412,-10.0004,5.15271,0,0,0,0,0,0,0,-1,797,1436,-10.0004,-5.15266
-420,-412,-10.4468,4.9043,0,0,0,0,0,0,0,-1,804,1436,-10.4468,-4.90429
-413,-412,-11.5704,4.97766,0,0,0,0,0,0,0,-1,811,1436,-11.5704,-4.97771
-406,-412,-13.1968,5.70093,0,0,0,0,0,0,0,-1,818,1436,-13.1968,-5.70096
-399,-412,-10.5506,0.771973,0,0,0,0,0,0,0,-1,825,1436,-10.5506,-0.771954
-392,-412,0,0,0,0,0,0,0,0,0,-1,832,1436,0,0
-385,-412,0,0,0,0,0,0,0,0,0,-1,839,1436,0,0
-378,-412,0,0,0,0,0,0,0,0,0,-1,846,1436,0,0
-371,-412,0,0,0,0,0,0,0,0,0,-1,853,1436,0,0
-364,-412,0,0,0,0,0,0,0,0,0,-1,860,1436,0,0
-357,-412,0,0,0,0,0,0,0,0,0,-1,867,1436,0,0
-350,-412,0,0,0,0,0,0,0,0,0,-1,874,1436,0,0
-343,-412,0,0,0,0,0,0,0,0,0,-1,881,1436,0,0
-336,-412,0,0,0,0,0,0,0,0,0,-1,888,1436,0,0
-329,-412,0,0,0,0,0,0,0,0,0,-1,895,1436,0,0
-322,-412,0,0,0,0,0,0,0,0,0,-1,902,1436,0,0
-315,-412,0,0,0,0,0,0,0,0,0,-1,909,1436,0,0
-308,-412,0,0,0,0,0,0,0,0,0,-1,916,1436,0,0
-301,-412,0,0,0,0,0,0,0,0,0,-1,923,1436,0,0
-294,-412,0,0,0,0,0,0,0,0,0,-1,930,1436,0,0
-287,-412,0,0,0,0,0,0,0,0,0,-1,937,1436,0,0
-280,-412,0,0,0,0,0,0,0,0,0,-1,944,1436,0,0
-273,-412,0,0,0,0,0,0,0,0,0,-1,951,1436,0,0
-266,-412,0,0,0,0,0,0,0,0,0,-1,958,1436,0,0
-259,-412,0,0,0,0,0,0,0,0,0,-1,965,1436,0,0
-252,-412,0,0,0,0,0,0,0,0,0,-1,972,1436,0,0
-245,-412,0,0,0,0,0,0,0,0,0,-1,979,1436,0,0
-238,-412,0,0,0,0,0,0,0,0,0,-1,986,1436,0,0
-231,-412,0,0,0,0,0,0,0,0,0,-1,993,1436,0,0
-224,-412,0,0,0,0,0,0,0,0,0,-1,1000,1436,0,0
-217,-412,0,0,0,0,0,0,0,0,0,-1,1007,1436,0,0
-210,-412,0,0,0,0,0,0,0,0,0,-1,1014,1436,0,0
-203,-412,0,0,0,0,0,0,0,0,0,-1,1021,1436,0,0
-196,-412,0,0,0,0,0,0,0,0,0,-1,1028,1436,0,0
-189,-412,0,0,0,0,0,0,0,0,0,-1,1035,1436,0,0
-182,-412,0,0,0,0,0,0,0,0,0,-1,1042,1436,0,0
-175,-412,0,0,0,0,0,0,0,0,0,-1,1049,1436,0,0
-168,-412,0,0,0,0,0,0,0,0,0,-1,1056,1436,0,0
-161,-412,0,0,0,0,0,0,0,0,0,-1,1063,1436,0,0
-154,-412,0,0,0,0,0,0,0,0,0,-1,1070,1436,0,0
-147,-412,0,0,0,0,0,0,0,0,0,-1,1077,1436,0,0
-140,-412,0,0,0,0,0,0,0,0,0,-1,1084,1436,0,0
-133,-412,0,0,0,0,0,0,0,0,0,-1,1091,1436,0,0
-126,-412,0,0,0,0,0,0,0,0,0,-1,1098,1436,0,0
-119,-412,0,0,0,0,0,0,0,0,0,-1,1105,1436,0,0
-112,-412,0,0,0,0,0,0,0,0,0,-1,1112,1436,0,0
-105,-412,0,0,0,0,0,0,0,0,0,-1,1119,1436,0,0
-98,-412,0,0,0,0,0,0,0,0,0,-1,1126,1436,0,0
-91,-412,0,0,0,0,0,0,0,0,0,-1,1133,1436,0,0
-84,-412,0,0,0,0,0,0,0,0,0,-1,1140,1436,0,0
-77,-412,0,0,0,0,0,0,0,0,0,-1,1147,1436,0,0
-70,-412,0,0,0,0,0,0,0,0,0,-1,1154,1436,0,0
-63,-412,0,0,0,0,0,0,0,0,0,-1,1161,1436,0,0
-56,-412,0,0,0,0,0,0,0,0,0,-1,1168,1436,0,0
-49,-412,0,0,0,0,0,0,0,0,0,-1,1175,1436,0,0
-42,-412,0,0,0,0,0,0,0,0,0,-1,1182,1436,0,0
-35,-412,0,0,0,0,0,0,0,0,0,-1,1189,1436,0,0
-28,-412,0,0,0,0,0,0,0,0,0,-1,1196,1436,0,0
-21,-412,0,0,0,0,0,0,0,0,0,-1,1203,1436,0,0
-14,-412,0,0,0,0,0,0,0,0,0,-1,1210,1436,0,0
-7,-412,0,0,0,0,0,0,0,0,0,-1,1217,1436,0,0
0,-412,0,0,0,0,0,0,0,0,0,-1,1224,1436,0,0
7,-412,0,0,0,0,0,0,0,0,0,-1,1231,1436,0,0
14,-412,0,0,0,0,0,0,0,0,0,-1,1238,1436,0,0
21,-412,0,0,0,0,0,0,0,0,0,-1,1245,1436,0,0
28,-412,0,0,0,0,0,0,0,0,0,-1,1252,1436,0,0
35,-412,0,0,0,0,0,0,0,0,0,-1,1259,1436,0,0
42,-412,0,0,0,0,0,0,0,0,0,-1,1266,1436,0,0
49,-412,0,0,0,0,0,0,0,0,0,-1,1273,1436,0,0
56,-412,0,0,0,0,0,0,0,0,0,-1,1280,1436,0,0
63,-412,0,0,0,0,0,0,0,0,0,-1,1287,1436,0,0
70,-412,0,0,0,0,0,0,0,0,0,-1,1294,1436,0,0
77,-412,0,0,0,0,0,0,0,0,0,-1,1301,1436,0,0
84,-412,0,0,0,0,0,0,0,0,0,-1,1308,1436,0,0
91,-412,0,0,0,0,0,0,0,0,0,-1,1315,1436,0,0
98,-412,0,0,0,0,0,0,0,0,0,-1,1322,1436,0,0
105,-412,0,0,0,0,0,0,0,0,0,-1,1329,1436,0,0
112,-412,0,0,0,0,0,0,0,0,0,-1,1336,1436,0,0
119,-412,0,0,0,0,0,0,0,0,0,-1,1343,1436,0,0
126,-412,0,0,0,0,0,0,0,0,0,-1,1350,1436,0,0
133,-412,0,0,0,0,0,0,0,0,0,-1,1357,1436,0,0
140,-412,0,0,0,0,0,0,0,0,0,-1,1364,1436,0,0
147,-412,0,0,0,0,0,0,0,0,0,-1,1371,1436,0,0
154,-412,0,0,0,0,0,0,0,0,0,-1,1378,1436,0,0
161,-412,0,0,0,0,0,0,0,0,0,-1,1385,1436,0,0
168,-412,0,0,0,0,0,0,0,0,0,-1,1392,1436,0,0
175,-412,0,0,0,0,0,0,0,0,0,-1,1399,1436,0,0
182,-412,0,0,0,0,0,0,0,0,0,-1,1406,1436,0,0
189,-412,0,0,0,0,0,0,0,0,0,-1,1413,1436,0,0
196,-412,0,0,0,0,0,0,0,0,0,-1,1420,1436,0,0
203,-412,0,0,0,0,0,0,0,0,0,-1,1427,1436,0,0
210,-412,0,0,0,0,0,0,0,0,0,-1,1434,1436,0,0
217,-412,0,0,0,0,0,0,0,0,0,-1,1441,1436,0,0
224,-412,0,0,0,0,0,0,0,0,0,-1,1448,1436,0,0
231,-412,0,0,0,0,0,0,0,0,0,-1,1455,1436,0,0
238,-412,0,0,0,0,0,0,0,0,0,-1,1462,1436,0,0
245,-412,0,0,0,0,0,0,0,0,0,-1,1469,1436,0,0
252,-412,0,0,0,0,0,0,0,0,0,-1,1476,1436,0,0
259,-412,0,0,0,0,0,0,0,0,0,-1,1483,1436,0,0
266,-412,0,0,0,0,0,0,0,0,0,-1,1490,1436,0,0
273,-412,0,0,0,0,0,0,0,0,0,-1,1497,1436,0,0
280,-412,0,0,0,0,0,0,0,0,0,-1,1504,1436,0,0
287,-412,0,0,0,0,0,0,0,0,0,-1,1511,1436,0,0
294,-412,0,0,0,0,0,0,0,0,0,-1,1518,1436,0,0
301,-412,0,0,0,0,0,0,0,0,0,-1,1525,1436,0,0
308,-412,0,0,0,0,0,0,0,0,0,-1,1532,1436,0,0
315,-412,0,0,0,0,0,0,0,0,0,-1,1539,1436,0,0
322,-412,0,0,0,0,0,0,0,0,0,-1,1546,1436,0,0
329,-412,0,0,0,0,0,0,0,0,0,-1,1553,1436,0,0
336,-412,0,0,0,0,0,0,0,0,0,-1,1560,1436,0,0
343,-412,0,0,0,0,0,0,0,0,0,-1,1567,1436,0,0
350,-412,0,0,0,0,0,0,0,0,0,-1,1574,1436,0,0
357,-412,0,0,0,0,0,0,0,0,0,-1,1581,1436,0,0
364,-412,0,0,0,0,0,0,0,0,0,-1,1588,1436,0,0
371,-412,0,0,0,0,0,0,0,0,0,-1,1595,1436,0,0
378,-412,0,0,0,0,0,0,0,0,0,-1,1602,1436,0,0
385,-412,0,0,0,0,0,0,0,0,0,-1,1609,1436,0,0
392,-412,0,0,0,0,0,0,0,0,0,-1,1616,1436,0,0
399,-412,0,0,0,0,0,0,0,0,0,-1,1623,1436,0,0
406,-412,0,0,0,0,0,0,0,0,0,-1,1630,1436,0,0
413,-412,0,0,0,0,0,0,0,0,0,-1,1637,1436,0,0
420,-412,0,0,0,0,0,0,0,0,0,-1,1644,1436,0,0
427,-412,0,0,0,0,0,0,0,0,0,-1,1651,1436,0,0
434,-412,0,0,0,0,0,0,0,0,0,-1,1658,1436,0,0
441,-412,0,0,0,0,0,0,0,0,0,-1,1665,1436,0,0
448,-412,0,0,0,0,0,0,0,0,0,-1,1672,1436,0,0
455,-412,0,0,0,0,0,0,0,0,0,-1,1679,1436,0,0
462,-412,0,0,0,0,0,0,0,0,0,-1,1686,1436,0,0
469,-412,0,0,0,0,0,0,0,0,0,-1,1693,1436,0,0
476,-412,0,0,0,0,0,0,0,0,0,-1,1700,1436,0,0
483,-412,0,0,0,0,0,0,0,0,0,-1,1707,1436,0,0
490,-412,0,0,0,0,0,0,0,0,0,-1,1714,1436,0,0
497,-412,0,0,0,0,0,0,0,0,0,-1,1721,1436,0,0
504,-412,0,0,0,0,0,0,0,0,0,-1,1728,1436,0,0
511,-412,0,0,0,0,0,0,0,0,0,-1,1735,1436,0,0
518,-412,30.1038,-2.43384,0,0,0,0,0,0,0,-1,1742,1436,30.1038,2.43383
525,-412,29.5283,-1.42493,0,0,0,0,0,0,0,-1,1749,1436,29.5283,1.42495
532,-412,28.8533,-0.386597,0,0,0,0,0,0,0,-1,1756,1436,28.8533,0.386632
539,-412,25.8654,2.74683,0,0,0,0,0,0,0,-1,1763,1436,25.8654,-2.74685
546,-412,25.4265,2.4342,0,0,0,0,0,0,0,-1,1770,1436,25.4265,-2.4342
553,-412,26.3595,7.49255,0,0,0,0,0,0,0,-1,1777,1436,26.3595,-7.4925
560,-412,24.9116,7.94324,0,0,0,0,0,0,0,-1,1784,1436,24.9116,-7.94327
567,-412,23.668,7.94531,0,0,0,0,0,0,0,-1,1791,1436,23.6679,-7.94534
574,-412,23.0142,9.17236,0,0,0,0,0,0,0,-1,1798,1436,23.0141,-9.17235
581,-412,22.2615,10.0349,0,0,0,0,0,0,0,-1,1805,1436,22.2615,-10.0349
588,-412,21.6893,10.8069,0,0,0,0,0,0,0,-1,1812,1436,21.6893,-10.8069
595,-412,21.5137,14.3157,0,0,0,0,0,0,0,-1,1819,1436,21.5137,-14.3157
602,-412,28.3658,18.6071,0,0,0,0,0,0,0,-1,1826,1436,28.3658,-18.6071
609,-412,28.4637,17.9017,0.00511293,0.00329838,-0.00372766,0.00804213,0.000369175,-0.666024,0.0052427,0.039455,1833,1436,28.4637,-17.9018
616,-412,28.5089,17.3158,0.00377909,0.00195582,-0.00257897,0.00560281,0.000132104,-0.615509,0.00369196,0.0125,1840,1436,28.5089,-17.3158
623,-412,28.4597,16.7543,0.0028452,0.00120745,-0.00176465,0.00397171,8.09297e-05,-0.568163,0.00262125,0.00965887,1847,1436,28.4597,-16.7543
630,-412,28.4581,16.1631,0.00228326,0.000653997,-0.00118666,0.00290801,2.92558e-05,-0.484597,0.00192899,0.0115897,1854,1436,28.4581,-16.1631
637,-412,28.4453,15.5753,0.00197818,0.000346733,-0.000782939,0.00229312,3.1793e-05,-0.382447,0.00151826,0.0142407,1861,1436,28.4454,-15.5753
644,-412,28.4191,15.0228,0.00188494,2.09541e-05,-0.000371433,0.00195623,-5.03341e-05,-0.189622,0.00132125,0.0159891,1868,1436,28.4191,-15.0229
651,-412,28.3982,14.4625,0.0019746,-0.000185957,-4.43083e-05,0.0019755,-0.000186865,-0.0204964,0.0013835,0.0263913,1875,1436,28.3982,-14.4625
658,-412,28.3683,13.949,0.00216694,-0.000422481,0.000322005,0.00220638,-0.000461923,0.121881,0.00164664,0.0182205,1882,1436,28.3683,-13.949
665,-412,28.3872,13.4208,0.00249108,-0.000765718,0.000796212,0.00267531,-0.000949951,0.227386,0.00217063,0.0233404,1889,1436,28.3872,-13.4208
672,-412,28.4078,12.8296,0.00287652,-0.00121026,0.0014331,0.00332897,-0.00166271,0.30581,0.00293498,0.0293177,1896,1436,28.4078,-12.8296
679,-412,28.5035,12.2908,0.00324849,-0.00218433,0.00245928,0.00419636,-0.00313219,0.367879,0.00424598,0.0435963,1903,1436,28.5036,-12.2907
686,-412,28.4919,11.6993,0,0,0,0,0,0,0,-1,1910,1436,28.492,-11.6993
693,-412,11.9346,6.02344,0,0,0,0,0,0,0,-1,1917,1436,11.9346,-6.02343
700,-412,8.82764,5.8844,0,0,0,0,0,0,0,-1,1924,1436,8.82761,-5.88444
707,-412,6.59998,1.68994,0,0,0,0,0,0,0,-1,1931,1436,6.60002,-1.68995
714,-412,4.77283,-2.39832,0,0,0,0,0,0,0,-1,1938,1436,4.77288,2.39835
721,-412,0,0,0,0,0,0,0,0,0,-1,1945,1436,0,0
728,-412,0,0,0,0,0,0,0,0,0,-1,1952,1436,0,0
735,-412,0,0,0,0,0,0,0,0,0,-1,1959,1436,0,0
742,-412,0,0,0,0,0,0,0,0,0,-1,1966,1436,0,0
749,-412,0,0,0,0,0,0,0,0,0,-1,1973,1436,0,0
756,-412,0,0,0,0,0,0,0,0,0,-1,1980,1436,0,0
763,-412,0,0,0,0,0,0,0,0,0,-1,1987,1436,0,0
770,-412,0,0,0,0,0,0,0,0,0,-1,1994,1436,0,0
777,-412,0,0,0,0,0,0,0,0,0,-1,2001,1436,0,0
784,-412,0,0,0,0,0,0,0,0,0,-1,2008,1436,0,0
791,-412,0,0,0,0,0,0,0,0,0,-1,2015,1436,0,0
798,-412,0,0,0,0,0,0,0,0,0,-1,2022,1436,0,0
805,-412,0,0,0,0,0,0,0,0,0,-1,2029,1436,0,0
812,-412,0,0,0,0,0,0,0,0,0,-1,2036,1436,0,0
-700,-419,0,0,0,0,0,0,0,0,0,-1,524,1443,0,0
-693,-419,0,0,0,0,0,0,0,0,0,-1,531,1443,0,0
-686,-419,0,0,0,0,0,0,0,0,0,-1,538,1443,0,0
-679,-419,0,0,0,0,0,0,0,0,0,-1,545,1443,0,0
-672,-419,0,0,0,0,0,0,0,0,0,-1,552,1443,0,0
-665,-419,0,0,0,0,0,0,0,0,0,-1,559,1443,0,0
-658,-419,0,0,0,0,0,0,0,0,0,-1,566,1443,0,0
-651,-419,0,0,0,0,0,0,0,0,0,-1,573,1443,0,0
-644,-419,0,0,0,0,0,0,0,0,0,-1,580,1443,0,0
-637,-419,0,0,0,0,0,0,0,0,0,-1,587,1443,0,0
-630,-419,0,0,0,0,0,0,0,0,0,-1,594,1443,0,0
-623,-419,0,0,0,0,0,0,0,0,0,-1,601,1443,0,0
-616,-419,0,0,0,0,0,0,0,0,0,-1,608,1443,0,0
-609,-419,0,0,0,0,0,0,0,0,0,-1,615,1443,0,0
-602,-419,0,0,0,0,0,0,0,0,0,-1,622,1443,0,0
-595,-419,-11.4904,-0.622681,0,0,0,0,0,0,0,-1,629,1443,-11.4903,0.622714
-588,-419,-9.09369,0.742432,0,0,0,0,0,0,0,-1,636,1443,-9.09366,-0.742482
-581,-419,-6.39172,2.14673,0,0,0,0,0,0,0,-1,643,1443,-6.39175,-2.14668
-574,-419,-4.09772,3.54773,0,0,0,0,0,0,0,-1,650,1443,-4.09772,-3.54767
-567,-419,-6.14038,3.22498,0,0,0,0,0,0,0,-1,657,1443,-6.14037,-3.22497
-560,-419,-4.52814,5.22253,0,0,0,0,0,0,0,-1,664,1443,-4.52816,-5.22251
-553,-419,-5.08331,6.11829,0,0,0,0,0,0,0,-1,671,1443,-5.08331,-6.1183
-546,-419,-10.3732,9.23279,0,0,0,0,0,0,0,-1,678,1443,-10.3732,-9.23275
-539,-419,-11.9536,10.8774,0,0,0,0,0,0,0,-1,685,1443,-11.9536,-10.8774
-532,-419,-12.003,11.575,0.00339928,0.00299208,0.00251436,0.00571828,0.000673088,0.744999,0.00360881,0.0237657,692,1443,-12.003,-11.575
-525,-419,-12.0181,12.2271,0.0025645,0.00196404,0.00175307,0.00404287,0.000485681,0.700591,0.00254882,0.0139282,699,1443,-12.018,-12.227
-518,-419,-12.006,12.8113,0.00227648,0.00166112,0.00154138,0.00354059,0.000397017,0.686887,0.00223981,0.0185306,706,1443,-12.0061,-12.8112
-511,-419,-12.0276,13.4287,0.00215647,0.00158205,0.00148535,0.00338213,0.0003564,0.689896,0.00214584,0.0194977,713,1443,-12.0276,-13.4287
-504,-419,-12.0986,14.0481,0.00221633,0.00175151,0.00160415,0.00360482,0.000363029,0.713458,0.00229181,0.0188844,720,1443,-12.0986,-14.0481
-497,-419,-12.1123,14.6282,0.00250113,0.00217951,0.00192241,0.00426944,0.000411195,0.74367,0.00271961,0.0137629,727,1443,-12.1123,-14.6282
-490,-419,-12.1133,15.1892,0.00304139,0.00289117,0.00248038,0.00544779,0.000484764,0.770262,0.00348154,0.0120971,734,1443,-12.1133,-15.1892
-483,-419,-12.137,15.8022,0.00380675,0.00389605,0.00325643,0.00710814,0.000594661,0.792254,0.0045535,0.0106643,741,1443,-12.137,-15.8022
-476,-419,-12.1125,16.4529,0.00477901,0.00514774,0.00427043,0.00923778,0.000688968,0.806971,0.00594219,0.0170914,748,1443,-12.1126,-16.4529
-469,-419,-12.1099,17.1172,0,0,0,0,0,0,0,-1,755,1443,-12.1099,-17.1172
-462,-419,-11.5347,18.1563,0,0,0,0,0,0,0,-1,762,1443,-11.5347,-18.1562
-455,-419,-7.35645,11.9451,0,0,0,0,0,0,0,-1,769,1443,-7.35646,-11.9451
-448,-419,-7.49109,9.92444,0,0,0,0,0,0,0,-1,776,1443,-7.49109,-9.92442
-441,-419,-7.65527,8.75574,0,0,0,0,0,0,0,-1,783,1443,-7.65525,-8.75568
-434,-419,-11.3724,12.3643,0,0,0,0,0,0,0,-1,790,1443,-11.3724,-12.3643
-427,-419,-8.23193,7.89404,0,0,0,0,0,0,0,-1,797,1443,-8.23193,-7.89404
-420,-419,-8.74091,6.36597,0,0,0,0,0,0,0,-1,804,1443,-8.74089,-6.366
-413,-419,-9.88391,6.53955,0,0,0,0,0,0,0,-1,811,1443,-9.8839,-6.53955
-406,-419,-10.3372,2.75195,0,0,0,0,0,0,0,-1,818,1443,-10.3372,-2.75201
-399,-419,-11.5999,1.40002,0,0,0,0,0,0,0,-1,825,1443,-11.5999,-1.39998
-392,-419,0,0,0,0,0,0,0,0,0,-1,832,1443,0,0
-385,-419,0,0,0,0,0,0,0,0,0,-1,839,1443,0,0
-378,-419,0,0,0,0,0,0,0,0,0,-1,846,1443,0,0
-371,-419,0,0,0,0,0,0,0,0,0,-1,853,1443,0,0
-364,-419,0,0,0,0,0,0,0,0,0,-1,860,1443,0,0
-357,-419,0,0,0,0,0,0,0,0,0,-1,867,1443,0,0
-350,-419,0,0,0,0,0,0,0,0,0,-1,874,1443,0,0
-343,-419,0,0,0,0,0,0,0,0,0,-1,881,1443,0,0
-336,-419,0,0,0,0,0,0,0,0,0,-1,888,1443,0,0
-329,-419,0,0,0,0,0,0,0,0,0,-1,895,1443,0,0
-322,-419,0,0,0,0,0,0,0,0,0,-1,902,1443,0,0
-315,-419,0,0,0,0,0,0,0,0,0,-1,909,1443,0,0
-308,-419,0,0,0,0,0,0,0,0,0,-1,916,1443,0,0
-301,-419,0,0,0,0,0,0,0,0,0,-1,923,1443,0,0
-294,-419,0,0,0,0,0,0,0,0,0,-1,930,1443,0,0
-287,-419,0,0,0,0,0,0,0,0,0,-1,937,1443,0,0
-280,-419,0,0,0,0,0,0,0,0,0,-1,944,1443,0,0
-273,-419,0,0,0,0,0,0,0,0,0,-1,951,1443,0,0
-266,-419,0,0,0,0,0,0,0,0,0,-1,958,1443,0,0
-259,-419,0,0,0,0,0,0,0,0,0,-1,965,1443,0,0
-252,-419,0,0,0,0,0,0,0,0,0,-1,972,1443,0,0
-245,-419,0,0,0,0,0,0,0,0,0,-1,979,1443,0,0
-238,-419,0,0,0,0,0,0,0,0,0,-1,986,1443,0,0
-231,-419,0,0,0,0,0,0,0,0,0,-1,993,1443,0,0
-224,-419,0,0,0,0,0,0,0,0,0,-1,1000,1443,0,0
-217,-419,0,0,0,0,0,0,0,0,0,-1,1007,1443,0,0
-210,-419,0,0,0,0,0,0,0,0,0,-1,1014,1443,0,0
-203,-419,0,0,0,0,0,0,0,0,0,-1,1021,1443,0,0
-196,-419,0,0,0,0,0,0,0,0,0,-1,1028,1443,0,0
-189,-419,0,0,0,0,0,0,0,0,0,-1,1035,1443,0,0
-182,-419,0,0,0,0,0,0,0,0,0,-1,1042,1443,0,0
-175,-419,0,0,0,0,0,0,0,0,0,-1,1049,1443,0,0
-168,-419,0,0,0,0,0,0,0,0,0,-1,1056,1443,0,0
-161,-419,0,0,0,0,0,0,0,0,0,-1,1063,1443,0,0
-154,-419,0,0,0,0,0,0,0,0,0,-1,1070,1443,0,0
-147,-419,0,0,0,0,0,0,0,0,0,-1,1077,1443,0,0
-140,-419,0,0,0,0,0,0,0,0,0,-1,1084,1443,0,0
-133,-419,0,0,0,0,0,0,0,0,0,-1,1091,1443,0,0
-126,-419,0,0,0,0,0,0,0,0,0,-1,1098,1443,0,0
-119,-419,0,0,0,0,0,0,0,0,0,-1,1105,1443,0,0
-112,-419,0,0,0,0,0,0,0,0,0,-1,1112,1443,0,0
-105,-419,0,0,0,0,0,0,0,0,0,-1,1119,1443,0,0
-98,-419,0,0,0,0,0,0,0,0,0,-1,1126,1443,0,0
-91,-419,0,0,0,0,0,0,0,0,0,-1,1133,1443,0,0
-84,-419,0,0,0,0,0,0,0,0,0,-1,1140,1443,0,0
-77,-419,0,0,0,0,0,0,0,0,0,-1,1147,1443,0,0
-70,-419,0,0,0,0,0,0,0,0,0,-1,1154,1443,0,0
-63,-419,0,0,0,0,0,0,0,0,0,-1,1161,1443,0,0
-56,-419,0,0,0,0,0,0,0,0,0,-1,1168,1443,0,0
-49,-419,0,0,0,0,0,0,0,0,0,-1,1175,1443,0,0
-42,-419,0,0,0,0,0,0,0,0,0,-1,1182,1443,0,0
-35,-419,0,0,0,0,0,0,0,0,0,-1,1189,1443,0,0
-28,-419,0,0,0,0,0,0,0,0,0,-1,1196,1443,0,0
-21,-419,0,0,0,0,0,0,0,0,0,-1,1203,1443,0,0
-14,-419,0,0,0,0,0,0,0,0,0,-1,1210,1443,0,0
-7,-419,0,0,0,0,0,0,0,0,0,-1,1217,1443,0,0
0,-419,0,0,0,0,0,0,0,0,0,-1,1224,1443,0,0
7,-419,0,0,0,0,0,0,0,0,0,-1,1231,1443,0,0
14,-419,0,0,0,0,0,0,0,0,0,-1,1238,1443,0,0
21,-419,0,0,0,0,0,0,0,0,0,-1,1245,1443,0,0
28,-419,0,0,0,0,0,0,0,0,0,-1,1252,1443,0,0
35,-419,0,0,0,0,0,0,0,0,0,-1,1259,1443,0,0
42,-419,0,0,0,0,0,0,0,0,0,-1,1266,1443,0,0
49,-419,0,0,0,0,0,0,0,0,0,-1,1273,1443,0,0
56,-419,0,0,0,0,0,0,0,0,0,-1,1280,1443,0,0
63,-419,0,0,0,0,0,0,0,0,0,-1,1287,1443,0,0
70,-419,0,0,0,0,0,0,0,0,0,-1,1294,1443,0,0
77,-419,0,0,0,0,0,0,0,0,0,-1,1301,1443,0,0
84,-419,0,0,0,0,0,0,0,0,0,-1,1308,1443,0,0
91,-419,0,0,0,0,0,0,0,0,0,-1,1315,1443,0,0
98,-419,0,0,0,0,0,0,0,0,0,-1,1322,1443,0,0
105,-419,0,0,0,0,0,0,0,0,0,-1,1329,1443,0,0
112,-419,0,0,0,0,0,0,0,0,0,-1,1336,1443,0,0
119,-419,0,0,0,0,0,0,0,0,0,-1,1343,1443,0,0
126,-419,0,0,0,0,0,0,0,0,0,-1,1350,1443,0,0
133,-419,0,0,0,0,0,0,0,0,0,-1,1357,1443,0,0
140,-419,0,0,0,0,0,0,0,0,0,-1,1364,1443,0,0
147,-419,0,0,0,0,0,0,0,0,0,-1,1371,1443,0,0
154,-419,0,0,0,0,0,0,0,0,0,-1,1378,1443,0,0
161,-419,0,0,0,0,0,0,0,0,0,-1,1385,1443,0,0
168,-419,0,0,0,0,0,0,0,0,0,-1,1392,1443,0,0
175,-419,0,0,0,0,0,0,0,0,0,-1,1399,1443,0,0
182,-419,0,0,0,0,0,0,0,0,0,-1,1406,1443,0,0
189,-419,0,0,0,0,0,0,0,0,0,-1,1413,1443,0,0
196,-419,0,0,0,0,0,0,0,0,0,-1,1420,1443,0,0
203,-419,0,0,0,0,0,0,0,0,0,-1,1427,1443,0,0
210,-419,0,0,0,0,0,0,0,0,0,-1,1434,1443,0,0
217,-419,0,0,0,0,0,0,0,0,0,-1,1441,1443,0,0
224,-419,0,0,0,0,0,0,0,0,0,-1,1448,1443,0,0
231,-419,0,0,0,0,0,0,0,0,0,-1,1455,1443,0,0
238,-419,0,0,0,0,0,0,0,0,0,-1,1462,1443,0,0
245,-419,0,0,0,0,0,0,0,0,0,-1,1469,1443,0,0
252,-419,0,0,0,0,0,0,0,0,0,-1,1476,1443,0,0
259,-419,0,0,0,0,0,0,0,0,0,-1,1483,1443,0,0
266,-419,0,0,0,0,0,0,0,0,0,-1,1490,1443,0,0
273,-419,0,0,0,0,0,0,0,0,0,-1,1497,1443,0,0
280,-419,0,0,0,0,0,0,0,0,0,-1,1504,1443,0,0
287,-419,0,0,0,0,0,0,0,0,0,-1,1511,1443,0,0
294,-419,0,0,0,0,0,0,0,0,0,-1,1518,1443,0,0
301,-419,0,0,0,0,0,0,0,0,0,-1,1525,1443,0,0
308,-419,0,0,0,0,0,0,0,0,0,-1,1532,1443,0,0
315,-419,0,0,0,0,0,0,0,0,0,-1,1539,1443,0,0
322,-419,0,0,0,0,0,0,0,0,0,-1,1546,1443,0,0
329,-419,0,0,0,0,0,0,0,0,0,-1,1553,1443,0,0
336,-419,0,0,0,0,0,0,0,0,0,-1,1560,1443,0,0
343,-419,0,0,0,0,0,0,0,0,0,-1,1567,1443,0,0
350,-419,0,0,0,0,0,0,0,0,0,-1,1574,1443,0,0
357,-419,0,0,0,0,0,0,0,0,0,-1,1581,1443,0,0
364,-419,0,0,0,0,0,0,0,0,0,-1,1588,1443,0,0
371,-419,0,0,0,0,0,0,0,0,0,-1,1595,1443,0,0
378,-419,0,0,0,0,0,0,0,0,0,-1,1602,1443,0,0
385,-419,0,0,0,0,0,0,0,0,0,-1,1609,1443,0,0
392,-419,0,0,0,0,0,0,0,0,0,-1,1616,1443,0,0
399,-419,0,0,0,0,0,0,0,0,0,-1,1623,1443,0,0
406,-419,0,0,0,0,0,0,0,0,0,-1,1630,1443,0,0
413,-419,0,0,0,0,0,0,0,0,0,-1,1637,1443,0,0
420,-419,0,0,0,0,0,0,0,0,0,-1,1644,1443,0,0
427,-419,0,0,0,0,0,0,0,0,0,-1,1651,1443,0,0
434,-419,0,0,0,0,0,0,0,0,0,-1,1658,1443,0,0
441,-419,0,0,0,0,0,0,0,0,0,-1,1665,1443,0,0
448,-419,0,0,0,0,0,0,0,0,0,-1,1672,1443,0,0
455,-419,0,0,0,0,0,0,0,0,0,-1,1679,1443,0,0
462,-419,0,0,0,0,0,0,0,0,0,-1,1686,1443,0,0
469,-419,0,0,0,0,0,0,0,0,0,-1,1693,1443,0,0
476,-419,0,0,0,0,0,0,0,0,0,-1,1700,1443,0,0
483,-419,0,0,0,0,0,0,0,0,0,-1,1707,1443,0,0
490,-419,0,0,0,0,0,0,0,0,0,-1,1714,1443,0,0
497,-419,0,0,0,0,0,0,0,0,0,-1,1721,1443,0,0
504,-419,0,0,0,0,0,0,0,0,0,-1,1728,1443,0,0
511,-419,20.3005,3.7959,0,0,0,0,0,0,0,-1,1735,1443,20.3005,-3.79584
518,-419,21.3154,2.03027,0,0,0,0,0,0,0,-1,1742,1443,21.3155,-2.03029
525,-419,28.3439,-1.24475,0,0,0,0,0,0,0,-1,1749,1443,28.3438,1.24471
532,-419,27.5902,-0.272583,0,0,0,0,0,0,0,-1,1756,1443,27.5902,0.272526
539,-419,26.5278,1.60583,0,0,0,0,0,0,0,-1,1763,1443,26.5279,-1.60579
546,-419,24.9509,2.77539,0,0,0,0,0,0,0,-1,1770,1443,24.9509,-2.77537
553,-419,24.118,3.75525,0,0,0,0,0,0,0,-1,1777,1443,24.1181,-3.75526
560,-419,11.8199,8.26343,0,0,0,0,0,0,0,-1,1784,1443,11.82,-8.26341
567,-419,21.5143,8.74719,0,0,0,0,0,0,0,-1,1791,1443,21.5143,-8.74722
574,-419,19.5886,6.46155,0,0,0,0,0,0,0,-1,1798,1443,19.5886,-6.46157
581,-419,20.7926,11.4265,0,0,0,0,0,0,0,-1,1805,1443,20.7926,-11.4265
588,-419,19.4242,12.5363,0,0,0,0,0,0,0,-1,1812,1443,19.4242,-12.5362
595,-419,22.9375,16.0151,0,0,0,0,0,0,0,-1,1819,1443,22.9375,-16.0152
602,-419,27.8981,18.5447,0,0,0,0,0,0,0,-1,1826,1443,27.898,-18.5447
609,-419,27.9554,17.8812,0.00431654,0.00284614,-0.00321187,0.00687628,0.000286404,-0.672886,0.00449176,0.0219699,1833,1443,27.9555,-17.8812
616,-419,27.9451,17.3479,0.00330537,0.00183446,-0.00230803,0.00499229,0.000147537,-0.63116,0.00328012,0.0122221,1840,1443,27.9451,-17.3479
623,-419,27.9149,16.792,0.00259203,0.00118464,-0.00161146,0.00364675,0.000129929,-0.579537,0.00238903,0.0103623,1847,1443,27.915,-16.792
630,-419,27.9159,16.2028,0.00218482,0.000649876,-0.00108872,0.00274938,8.53151e-05,-0.478383,0.00180516,0.0125665,1854,1443,27.9159,-16.2027
637,-419,27.9108,15.6443,0.00198132,0.000338982,-0.000687691,0.00223124,8.90587e-05,-0.348583,0.00145871,0.0131473,1861,1443,27.9108,-15.6443
644,-419,27.8893,15.0813,0.00198201,1.2852e-05,-0.000279936,0.00202103,-2.61704e-05,-0.138505,0.00135616,0.0120502,1868,1443,27.8892,-15.0813
651,-419,27.8461,14.5447,0.0021563,-0.000163144,1.12382e-05,0.00215635,-0.000163198,0.00484508,0.00149494,0.0122036,1875,1443,27.8461,-14.5447
658,-419,27.8091,13.9747,0.00246598,-0.000348626,0.000317206,0.00250129,-0.000383933,0.110848,0.00180913,0.0130829,1882,1443,27.8091,-13.9748
665,-419,27.8462,13.4485,0.0029043,-0.000621091,0.000740159,0.00305339,-0.000770184,0.198773,0.00233505,0.021018,1889,1443,27.8462,-13.4485
672,-419,27.9036,12.8318,0.00337278,-0.00093753,0.00130608,0.00373765,-0.0013024,0.272418,0.00302098,0.0327738,1896,1443,27.9036,-12.8318
679,-419,28.083,12.2432,0,0,0,0,0,0,0,-1,1903,1443,28.083,-12.2431
686,-419,17.4127,8.03076,0,0,0,0,0,0,0,-1,1910,1443,17.4127,-8.03071
693,-419,8.76086,5.60535,0,0,0,0,0,0,0,-1,1917,1443,8.76091,-5.6054
700,-419,11.0498,4.85156,0,0,0,0,0,0,0,-1,1924,1443,11.0498,-4.85153
707,-419,9.5752,1.80042,0,0,0,0,0,0,0,-1,1931,1443,9.57523,-1.80037
714,-419,5.77576,-1.25061,0,0,0,0,0,0,0,-1,1938,1443,5.7757,1.25056
721,-419,0,0,0,0,0,0,0,0,0,-1,1945,1443,0,0
728,-419,0,0,0,0,0,0,0,0,0,-1,1952,1443,0,0
735,-419,0,0,0,0,0,0,0,0,0,-1,1959,1443,0,0
742,-419,0,0,0,0,0,0,0,0,0,-1,1966,1443,0,0
749,-419,0,0,0,0,0,0,0,0,0,-1,1973,1443,0,0
756,-419,0,0,0,0,0,0,0,0,0,-1,1980,1443,0,0
763,-419,0,0,0,0,0,0,0,0,0,-1,1987,1443,0,0
770,-419,0,0,0,0,0,0,0,0,0,-1,1994,1443,0,0
777,-419,0,0,0,0,0,0,0,0,0,-1,2001,1443,0,0
784,-419,0,0,0,0,0,0,0,0,0,-1,2008,1443,0,0
791,-419,0,0,0,0,0,0,0,0,0,-1,2015,1443,0,0
798,-419,0,0,0,0,0,0,0,0,0,-1,2022,1443,0,0
805,-419,0,0,0,0,0,0,0,0,0,-1,2029,1443,0,0
812,-419,0,0,0,0,0,0,0,0,0,-1,2036,1443,0,0
-700,-426,0,0,0,0,0,0,0,0,0,-1,524,1450,0,0
-693,-426,0,0,0,0,0,0,0,0,0,-1,531,1450,0,0
-686,-426,0,0,0,0,0,0,0,0,0,-1,538,1450,0,0
-679,-426,0,0,0,0,0,0,0,0,0,-1,545,1450,0,0
-672,-426,0,0,0,0,0,0,0,0,0,-1,552,1450,0,0
-665,-426,0,0,0,0,0,0,0,0,0,-1,559,1450,0,0
-658,-426,0,0,0,0,0,0,0,0,0,-1,566,1450,0,0
-651,-426,0,0,0,0,0,0,0,0,0,-1,573,1450,0,0
-644,-426,0,0,0,0,0,0,0,0,0,-1,580,1450,0,0
-637,-426,0,0,0,0,0,0,0,0,0,-1,587,1450,0,0
-630,-426,0,0,0,0,0,0,0,0,0,-1,594,1450,0,0
-623,-426,0,0,0,0,0,0,0,0,0,-1,601,1450,0,0
-616,-426,0,0,0,0,0,0,0,0,0,-1,608,1450,0,0
-609,-426,0,0,0,0,0,0,0,0,0,-1,615,1450,0,0
-602,-426,0,0,0,0,0,0,0,0,0,-1,622,1450,0,0
-595,-426,0,0,0,0,0,0,0,0,0,-1,629,1450,0,0
-588,-426,-10.184,-0.554321,0,0,0,0,0,0,0,-1,636,1450,-10.184,0.554321
-581,-426,-7.3349,1.48157,0,0,0,0,0,0,0,-1,643,1450,-7.33491,-1.48152
-574,-426,-5.02856,2.89319,0,0,0,0,0,0,0,-1,650,1450,-5.02858,-2.89319
-567,-426,-3.04797,1.72644,0,0,0,0,0,0,0,-1,657,1450,-3.04797,-1.72639
-560,-426,-5.55682,3.44397,0,0,0,0,0,0,0,-1,664,1450,-5.55684,-3.44399
-553,-426,-4.67017,6.66614,0,0,0,0,0,0,0,-1,671,1450,-4.67015,-6.66619
-546,-426,-7.58752,8.28882,0,0,0,0,0,0,0,-1,678,1450,-7.58752,-8.28878
-539,-426,-10.436,10.7441,0,0,0,0,0,0,0,-1,685,1450,-10.436,-10.7441
-532,-426,-11.4423,11.5195,0,0,0,0,0,0,0,-1,692,1450,-11.4423,-11.5195
-525,-426,-11.4488,12.1781,0.0027068,0.0021094,0.001992,0.00442238,0.000393825,0.710978,0.00282614,0.0199384,699,1450,-11.4488,-12.1781
-518,-426,-11.4145,12.8369,0.00234333,0.00168171,0.00166903,0.00371402,0.000311014,0.687564,0.00237913,0.016431,706,1450,-11.4145,-12.8369
-511,-426,-11.4269,13.4662,0.00212549,0.00148638,0.001497,0.00333666,0.000275207,0.680244,0.00213861,0.0154278,713,1450,-11.4269,-13.4662
-504,-426,-11.4722,14.0511,0.00205098,0.0015365,0.00148019,0.00329611,0.000291363,0.699362,0.00210701,0.0150428,720,1450,-11.4722,-14.0512
-497,-426,-11.4848,14.6184,0.00216536,0.00183514,0.00163993,0.00364848,0.000352028,0.735227,0.00232388,0.0123607,727,1450,-11.4848,-14.6184
-490,-426,-11.5041,15.2095,0.00249718,0.00238423,0.00201884,0.00446033,0.000421077,0.771415,0.00284361,0.0117254,734,1450,-11.5041,-15.2095
-483,-426,-11.5452,15.8279,0.00303353,0.00319083,0.00258522,0.0056986,0.000525764,0.800605,0.00363651,0.0116677,741,1450,-11.5452,-15.8279
-476,-426,-11.558,16.4227,0.00376563,0.00423554,0.00336905,0.00737781,0.000623353,0.820211,0.00472448,0.0098309,748,1450,-11.558,-16.4227
-469,-426,-11.5732,17.0088,0.0047441,0.00555095,0.00435997,0.00952612,0.000768937,0.831531,0.00611058,0.0112732,755,1450,-11.5733,-17.0088
-462,-426,-11.4952,17.6307,0,0,0,0,0,0,0,-1,762,1450,-11.4952,-17.6307
-455,-426,-10.215,17.7007,0,0,0,0,0,0,0,-1,769,1450,-10.215,-17.7007
-448,-426,-6.46545,10.1322,0,0,0,0,0,0,0,-1,776,1450,-6.46543,-10.1322
-441,-426,-10.9547,11.4747,0,0,0,0,0,0,0,-1,783,1450,-10.9546,-11.4748
-434,-426,-10.4998,13.6189,0,0,0,0,0,0,0,-1,790,1450,-10.4997,-13.6189
-427,-426,-9.36627,13.7396,0,0,0,0,0,0,0,-1,797,1450,-9.36628,-13.7396
-420,-426,-5.33765,7.95044,0,0,0,0,0,0,0,-1,804,1450,-5.33766,-7.95041
-413,-426,-10.1148,5.0415,0,0,0,0,0,0,0,-1,811,1450,-10.1148,-5.04152
-406,-426,-11.4199,3.6438,0,0,0,0,0,0,0,-1,818,1450,-11.4198,-3.64382
-399,-426,-12.7595,2.29004,0,0,0,0,0,0,0,-1,825,1450,-12.7595,-2.29003
-392,-426,-12.4147,0.537354,0,0,0,0,0,0,0,-1,832,1450,-12.4147,-0.53731
-385,-426,0,0,0,0,0,0,0,0,0,-1,839,1450,0,0
-378,-426,0,0,0,0,0,0,0,0,0,-1,846,1450,0,0
-371,-426,0,0,0,0,0,0,0,0,0,-1,853,1450,0,0
-364,-426,0,0,0,0,0,0,0,0,0,-1,860,1450,0,0
-357,-426,0,0,0,0,0,0,0,0,0,-1,867,1450,0,0
-350,-426,0,0,0,0,0,0,0,0,0,-1,874,1450,0,0
-343,-426,0,0,0,0,0,0,0,0,0,-1,881,1450,0,0
-336,-426,0,0,0,0,0,0,0,0,0,-1,888,1450,0,0
-329,-426,0,0,0,0,0,0,0,0,0,-1,895,1450,0,0
-322,-426,0,0,0,0,0,0,0,0,0,-1,902,1450,0,0
-315,-426,0,0,0,0,0,0,0,0,0,-1,909,1450,0,0
-308,-426,0,0,0,0,0,0,0,0,0,-1,916,1450,0,0
-301,-426,0,0,0,0,0,0,0,0,0,-1,923,1450,0,0
-294,-426,0,0,0,0,0,0,0,0,0,-1,930,1450,0,0
-287,-426,0,0,0,0,0,0,0,0,0,-1,937,1450,0,0
-280,-426,0,0,0,0,0,0,0,0,0,-1,944,1450,0,0
-273,-426,0,0,0,0,0,0,0,0,0,-1,951,1450,0,0
-266,-426,0,0,0,0,0,0,0,0,0,-1,958,1450,0,0
-259,-426,0,0,0,0,0,0,0,0,0,-1,965,1450,0,0
-252,-426,0,0,0,0,0,0,0,0,0,-1,972,1450,0,0
-245,-426,0,0,0,0,0,0,0,0,0,-1,979,1450,0,0
-238,-426,0,0,0,0,0,0,0,0,0,-1,986,1450,0,0
-231,-426,0,0,0,0,0,0,0,0,0,-1,993,1450,0,0
-224,-426,0,0,0,0,0,0,0,0,0,-1,1000,1450,0,0
-217,-426,0,0,0,0,0,0,0,0,0,-1,1007,1450,0,0
-210,-426,0,0,0,0,0,0,0,0,0,-1,1014,1450,0,0
-203,-426,0,0,0,0,0,0,0,0,0,-1,1021,1450,0,0
-196,-426,0,0,0,0,0,0,0,0,0,-1,1028,1450,0,0
-189,-426,0,0,0,0,0,0,0,0,0,-1,1035,1450,0,0
-182,-426,0,0,0,0,0,0,0,0,0,-1,1042,1450,0,0
-175,-426,0,0,0,0,0,0,0,0,0,-1,1049,1450,0,0
-168,-426,0,0,0,0,0,0,0,0,0,-1,1056,1450,0,0
-161,-426,0,0,0,0,0,0,0,0,0,-1,1063,1450,0,0
-154,-426,0,0,0,0,0,0,0,0,0,-1,1070,1450,0,0
-147,-426,0,0,0,0,0,0,0,0,0,-1,1077,1450,0,0
-140,-426,0,0,0,0,0,0,0,0,0,-1,1084,1450,0,0
-133,-426,0,0,0,0,0,0,0,0,0,-1,1091,1450,0,0
-126,-426,0,0,0,0,0,0,0,0,0,-1,1098,1450,0,0
-119,-426,0,0,0,0,0,0,0,0,0,-1,1105,1450,0,0
-112,-426,0,0,0,0,0,0,0,0,0,-1,1112,1450,0,0
-105,-426,0,0,0,0,0,0,0,0,0,-1,1119,1450,0,0
-98,-426,0,0,0,0,0,0,0,0,0,-1,1126,1450,0,0
-91,-426,0,0,0,0,0,0,0,0,0,-1,1133,1450,0,0
-84,-426,0,0,0,0,0,0,0,0,0,-1,1140,1450,0,0
-77,-426,0,0,0,0,0,0,0,0,0,-1,1147,1450,0,0
-70,-426,0,0,0,0,0,0,0,0,0,-1,1154,1450,0,0
-63,-426,0,0,0,0,0,0,0,0,0,-1,1161,1450,0,0
-56,-426,0,0,0,0,0,0,0,0,0,-1,1168,1450,0,0
-49,-426,0,0,0,0,0,0,0,0,0,-1,1175,1450,0,0
-42,-426,0,0,0,0,0,0,0,0,0,-1,1182,1450,0,0
-35,-426,0,0,0,0,0,0,0,0,0,-1,1189,1450,0,0
-28,-426,0,0,0,0,0,0,0,0,0,-1,1196,1450,0,0
-21,-426,0,0,0,0,0,0,0,0,0,-1,1203,1450,0,0
-14,-426,0,0,0,0,0,0,0,0,0,-1,1210,1450,0,0
-7,-426,0,0,0,0,0,0,0,0,0,-1,1217,1450,0,0
0,-426,0,0,0,0,0,0,0,0,0,-1,1224,1450,0,0
7,-426,0,0,0,0,0,0,0,0,0,-1,1231,1450,0,0
14,-426,0,0,0,0,0,0,0,0,0,-1,1238,1450,0,0
21,-426,0,0,0,0,0,0,0,0,0,-1,1245,1450,0,0
28,-426,0,0,0,0,0,0,0,0,0,-1,1252,1450,0,0
35,-426,0,0,0,0,0,0,0,0,0,-1,1259,1450,0,0
42,-426,0,0,0,0,0,0,0,0,0,-1,1266,1450,0,0
49,-426,0,0,0,0,0,0,0,0,0,-1,1273,1450,0,0
56,-426,0,0,0,0,0,0,0,0,0,-1,1280,1450,0,0
63,-426,0,0,0,0,0,0,0,0,0,-1,1287,1450,0,0
70,-426,0,0,0,0,0,0,0,0,0,-1,1294,1450,0,0
77,-426,0,0,0,0,0,0,0,0,0,-1,1301,1450,0,0
84,-426,0,0,0,0,0,0,0,0,0,-1,1308,1450,0,0
91,-426,0,0,0,0,0,0,0,0,0,-1,1315,1450,0,0
98,-426,0,0,0,0,0,0,0,0,0,-1,1322,1450,0,0
105,-426,0,0,0,0,0,0,0,0,0,-1,1329,1450,0,0
112,-426,0,0,0,0,0,0,0,0,0,-1,1336,1450,0,0
119,-426,0,0,0,0,0,0,0,0,0,-1,1343,1450,0,0
126,-426,0,0,0,0,0,0,0,0,0,-1,1350,1450,0,0
133,-426,0,0,0,0,0,0,0,0,0,-1,1357,1450,0,0
140,-426,0,0,0,0,0,0,0,0,0,-1,1364,1450,0,0
147,-426,0,0,0,0,0,0,0,0,0,-1,1371,1450,0,0
154,-426,0,0,0,0,0,0,0,0,0,-1,1378,1450,0,0
161,-426,0,0,0,0,0,0,0,0,0,-1,1385,1450,0,0
168,-426,0,0,0,0,0,0,0,0,0,-1,1392,1450,0,0
175,-426,0,0,0,0,0,0,0,0,0,-1,1399,1450,0,0
182,-426,0,0,0,0,0,0,0,0,0,-1,1406,1450,0,0
189,-426,0,0,0,0,0,0,0,0,0,-1,1413,1450,0,0
196,-426,0,0,0,0,0,0,0,0,0,-1,1420,1450,0,0
203,-426,0,0,0,0,0,0,0,0,0,-1,1427,1450,0,0
210,-426,0,0,0,0,0,0,0,0,0,-1,1434,1450,0,0
217,-426,0,0,0,0,0,0,0,0,0,-1,1441,1450,0,0
224,-426,0,0,0,0,0,0,0,0,0,-1,1448,1450,0,0
231,-426,0,0,0,0,0,0,0,0,0,-1,1455,1450,0,0
238,-426,0,0,0,0,0,0,0,0,0,-1,1462,1450,0,0
245,-426,0,0,0,0,0,0,0,0,0,-1,1469,1450,0,0
252,-426,0,0,0,0,0,0,0,0,0,-1,1476,1450,0,0
259,-426,0,0,0,0,0,0,0,0,0,-1,1483,1450,0,0
266,-426,0,0,0,0,0,0,0,0,0,-1,1490,1450,0,0
273,-426,0,0,0,0,0,0,0,0,0,-1,1497,1450,0,0
280,-426,0,0,0,0,0,0,0,0,0,-1,1504,1450,0,0
287,-426,0,0,0,0,0,0,0,0,0,-1,1511,1450,0,0
294,-426,0,0,0,0,0,0,0,0,0,-1,1518,1450,0,0
301,-426,0,0,0,0,0,0,0,0,0,-1,1525,1450,0,0
308,-426,0,0,0,0,0,0,0,0,0,-1,1532,1450,0,0
315,-426,0,0,0,0,0,0,0,0,0,-1,1539,1450,0,0
322,-426,0,0,0,0,0,0,0,0,0,-1,1546,1450,0,0
329,-426,0,0,0,0,0,0,0,0,0,-1,1553,1450,0,0
336,-426,0,0,0,0,0,0,0,0,0,-1,1560,1450,0,0
343,-426,0,0,0,0,0,0,0,0,0,-1,1567,1450,0,0
350,-426,0,0,0,0,0,0,0,0,0,-1,1574,1450,0,0
357,-426,0,0,0,0,0,0,0,0,0,-1,1581,1450,0,0
364,-426,0,0,0,0,0,0,0,0,0,-1,1588,1450,0,0
371,-426,0,0,0,0,0,0,0,0,0,-1,1595,1450,0,0
378,-426,0,0,0,0,0,0,0,0,0,-1,1602,1450,0,0
385,-426,0,0,0,0,0,0,0,0,0,-1,1609,1450,0,0
392,-426,0,0,0,0,0,0,0,0,0,-1,1616,1450,0,0
399,-426,0,0,0,0,0,0,0,0,0,-1,1623,1450,0,0
406,-426,0,0,0,0,0,0,0,0,0,-1,1630,1450,0,0
413,-426,0,0,0,0,0,0,0,0,0,-1,1637,1450,0,0
420,-426,0,0,0,0,0,0,0,0,0,-1,1644,1450,0,0
427,-426,0,0,0,0,0,0,0,0,0,-1,1651,1450,0,0
434,-426,0,0,0,0,0,0,0,0,0,-1,1658,1450,0,0
441,-426,0,0,0,0,0,0,0,0,0,-1,1665,1450,0,0
448,-426,0,0,0,0,0,0,0,0,0,-1,1672,1450,0,0
455,-426,0,0,0,0,0,0,0,0,0,-1,1679,1450,0,0
462,-426,0,0,0,0,0,0,0,0,0,-1,1686,1450,0,0
469,-426,0,0,0,0,0,0,0,0,0,-1,1693,1450,0,0
476,-426,0,0,0,0,0,0,0,0,0,-1,1700,1450,0,0
483,-426,0,0,0,0,0,0,0,0,0,-1,1707,1450,0,0
490,-426,0,0,0,0,0,0,0,0,0,-1,1714,1450,0,0
497,-426,0,0,0,0,0,0,0,0,0,-1,1721,1450,0,0
504,-426,20.6873,3.38367,0,0,0,0,0,0,0,-1,1728,1450,20.6873,-3.38361
511,-426,19.6676,3.53748,0,0,0,0,0,0,0,-1,1735,1450,19.6676,-3.53749
518,-426,18.6853,3.32288,0,0,0,0,0,0,0,-1,1742,1450,18.6853,-3.3229
525,-426,18.9552,2.71033,0,0,0,0,0,0,0,-1,1749,1450,18.9552,-2.71034
532,-426,19.4333,2.70764,0,0,0,0,0,0,0,-1,1756,1450,19.4334,-2.70764
539,-426,25.1482,2.56287,0,0,0,0,0,0,0,-1,1763,1450,25.1482,-2.56286
546,-426,24.1136,3.75659,0,0,0,0,0,0,0,-1,1770,1450,24.1136,-3.7566
553,-426,23.0791,4.95032,0,0,0,0,0,0,0,-1,1777,1450,23.0791,-4.95034
560,-426,12.9688,11.8289,0,0,0,0,0,0,0,-1,1784,1450,12.9688,-11.8288
567,-426,13.6388,11.5623,0,0,0,0,0,0,0,-1,1791,1450,13.6388,-11.5623
574,-426,14.3943,11.0286,0,0,0,0,0,0,0,-1,1798,1450,14.3942,-11.0285
581,-426,16.3879,11.4653,0,0,0,0,0,0,0,-1,1805,1450,16.3879,-11.4653
588,-426,18.1212,12.5547,0,0,0,0,0,0,0,-1,1812,1450,18.1212,-12.5547
595,-426,27.1285,19.087,0,0,0,0,0,0,0,-1,1819,1450,27.1286,-19.087
602,-426,27.3075,18.4883,0.00484424,0.00348311,-0.00365456,0.00788106,0.000446291,-0.693341,0.00511177,0.0420313,1826,1450,27.3075,-18.4883
609,-426,27.4017,17.873,0.0038315,0.00249401,-0.0027509,0.00599378,0.000331737,-0.666161,0.00388999,0.0137365,1833,1450,27.4017,-17.873
616,-426,27.392,17.3195,0.00297767,0.00166416,-0.00200452,0.00443029,0.000211551,-0.627091,0.00288559,0.0150005,1840,1450,27.392,-17.3195
623,-426,27.3767,16.791,0.0024183,0.00106057,-0.00141769,0.00331129,0.000167582,-0.562104,0.00215384,0.0120349,1847,1450,27.3767,-16.791
630,-426,27.3851,16.2491,0.00213549,0.000534336,-0.000967769,0.0025909,7.89274e-05,-0.439832,0.00170157,0.0126873,1854,1450,27.3851,-16.2491
637,-426,27.3583,15.6924,0.00201486,0.000214033,-0.000602949,0.00219809,3.07984e-05,-0.295028,0.00145524,0.0129143,1861,1450,27.3582,-15.6924
644,-426,27.2979,15.1304,0.00208804,-0.000102146,-0.000228532,0.00211163,-0.000125738,-0.102867,0.00145149,0.0128018,1868,1450,27.2978,-15.1304
651,-426,27.2549,14.578,0.00233031,-0.00024399,1.06591e-05,0.00233035,-0.000244034,0.00414049,0.00164097,0.0126934,1875,1450,27.2549,-14.578
658,-426,27.26,13.9669,0.00276235,-0.00036671,0.000244084,0.00278128,-0.000385635,0.0773816,0.00199519,0.0119999,1882,1450,27.26,-13.9669
665,-426,27.282,13.3138,0.00332672,-0.000537831,0.000614874,0.00342219,-0.000633303,0.15404,0.00251924,0.0262314,1889,1450,27.282,-13.3138
672,-426,27.5004,12.8451,0,0,0,0,0,0,0,-1,1896,1450,27.5004,-12.8451
679,-426,17.1522,8.15784,0,0,0,0,0,0,0,-1,1903,1450,17.1522,-8.15784
686,-426,13.5326,8.03711,0,0,0,0,0,0,0,-1,1910,1450,13.5326,-8.03717
693,-426,11.8607,6.45215,0,0,0,0,0,0,0,-1,1917,1450,11.8607,-6.45215
700,-426,9.24304,2.95447,0,0,0,0,0,0,0,-1,1924,1450,9.24305,-2.95442
707,-426,8.44519,-1.21448,0,0,0,0,0,0,0,-1,1931,1450,8.44514,1.21454
714,-426,0,0,0,0,0,0,0,0,0,-1,1938,1450,0,0
721,-426,0,0,0,0,0,0,0,0,0,-1,1945,1450,0,0
728,-426,0,0,0,0,0,0,0,0,0,-1,1952,1450,0,0
735,-426,0,0,0,0,0,0,0,0,0,-1,1959,1450,0,0
742,-426,0,0,0,0,0,0,0,0,0,-1,1966,1450,0,0
749,-426,0,0,0,0,0,0,0,0,0,-1,1973,1450,0,0
756,-426,0,0,0,0,0,0,0,0,0,-1,1980,1450,0,0
763,-426,0,0,0,0,0,0,0,0,0,-1,1987,1450,0,0
770,-426,0,0,0,0,0,0,0,0,0,-1,1994,1450,0,0
777,-426,0,0,0,0,0,0,0,0,0,-1,2001,1450,0,0
784,-426,0,0,0,0,0,0,0,0,0,-1,2008,1450,0,0
791,-426,0,0,0,0,0,0,0,0,0,-1,2015,1450,0,0
798,-426,0,0,0,0,0,0,0,0,0,-1,2022,1450,0,0
805,-426,0,0,0,0,0,0,0,0,0,-1,2029,1450,0,0
812,-426,0,0,0,0,0,0,0,0,0,-1,2036,1450,0,0
-700,-433,0,0,0,0,0,0,0,0,0,-1,524,1457,0,0
-693,-433,0,0,0,0,0,0,0,0,0,-1,531,1457,0,0
-686,-433,0,0,0,0,0,0,0,0,0,-1,538,1457,0,0
-679,-433,0,0,0,0,0,0,0,0,0,-1,545,1457,0,0
-672,-433,0,0,0,0,0,0,0,0,0,-1,552,1457,0,0
-665,-433,0,0,0,0,0,0,0,0,0,-1,559,1457,0,0
-658,-433,0,0,0,0,0,0,0,0,0,-1,566,1457,0,0
-651,-433,0,0,0,0,0,0,0,0,0,-1,573,1457,0,0
-644,-433,0,0,0,0,0,0,0,0,0,-1,580,1457,0,0
-637,-433,0,0,0,0,0,0,0,0,0,-1,587,1457,0,0
-630,-433,0,0,0,0,0,0,0,0,0,-1,594,1457,0,0
-623,-433,0,0,0,0,0,0,0,0,0,-1,601,1457,0,0
-616,-433,0,0,0,0,0,0,0,0,0,-1,608,1457,0,0
-609,-433,0,0,0,0,0,0,0,0,0,-1,615,1457,0,0
-602,-433,0,0,0,0,0,0,0,0,0,-1,622,1457,0,0
-595,-433,0,0,0,0,0,0,0,0,0,-1,629,1457,0,0
-588,-433,-10.3756,-0.467041,0,0,0,0,0,0,0,-1,636,1457,-10.3756,0.467081
-581,-433,-8.12201,0.884033,0,0,0,0,0,0,0,-1,643,1457,-8.12204,-0.884056
-574,-433,-5.86847,2.23523,0,0,0,0,0,0,0,-1,650,1457,-5.86844,-2.23519
-567,-433,-5.42255,1.16833,0,0,0,0,0,0,0,-1,657,1457,-5.42254,-1.1683
-560,-433,-6.84027,1.86414,0,0,0,0,0,0,0,-1,664,1457,-6.84026,-1.86412
-553,-433,-5.74017,1.79163,0,0,0,0,0,0,0,-1,671,1457,-5.74015,-1.79166
-546,-433,-6.9668,8.25073,0,0,0,0,0,0,0,-1,678,1457,-6.96679,-8.25074
-539,-433,-7.3136,8.75659,0,0,0,0,0,0,0,-1,685,1457,-7.31362,-8.75659
-532,-433,-10.5116,11.2261,0,0,0,0,0,0,0,-1,692,1457,-10.5116,-11.2261
-525,-433,-10.8789,12.1986,0,0,0,0,0,0,0,-1,699,1457,-10.8789,-12.1986
-518,-433,-10.818,12.879,0.00260015,0.00182008,0.00195045,0.00419918,0.000221049,0.686714,0.00272876,0.017649,706,1457,-10.818,-12.879
-511,-433,-10.8507,13.4763,0.0022751,0.00150861,0.0016503,0.00358607,0.000197641,0.671308,0.00232763,0.0162816,713,1457,-10.8507,-13.4763
-504,-433,-10.8381,14.0342,0.00205212,0.00142364,0.00148042,0.00325129,0.000224469,0.680818,0.00209671,0.0124125,720,1457,-10.8381,-14.0342
-497,-433,-10.8478,14.6152,0.00199137,0.00157511,0.00147798,0.00327581,0.00029068,0.715448,0.00209371,0.0128238,727,1457,-10.8479,-14.6152
-490,-433,-10.9061,15.2379,0.00212843,0.00195117,0.00167552,0.00371765,0.000361937,0.758974,0.00236703,0.0140197,734,1457,-10.9061,-15.2379
-483,-433,-10.9496,15.8578,0.0024513,0.00254991,0.00203848,0.00453968,0.000461526,0.797489,0.00288494,0.0147801,741,1457,-10.9496,-15.8577
-476,-433,-10.9649,16.4578,0.00297263,0.00337072,0.00261813,0.00579737,0.000545987,0.823337,0.00369638,0.0106403,748,1457,-10.9649,-16.4578
-469,-433,-10.986,17.0522,0.00374389,0.00443459,0.00346097,0.00756739,0.000611087,0.835125,0.00485407,0.0111449,755,1457,-10.9859,-17.0522
-462,-433,-11.0177,17.6482,0,0,0,0,0,0,0,-1,762,1457,-11.0177,-17.6482
-455,-433,-10.3182,18.5469,0,0,0,0,0,0,0,-1,769,1457,-10.3182,-18.5469
-448,-433,-6.94812,14.5563,0,0,0,0,0,0,0,-1,776,1457,-6.94809,-14.5562
-441,-433,-9.97485,14.0258,0,0,0,0,0,0,0,-1,783,1457,-9.97488,-14.0257
-434,-433,-9.41205,14.2297,0,0,0,0,0,0,0,-1,790,1457,-9.41205,-14.2297
-427,-433,-8.67419,13.6827,0,0,0,0,0,0,0,-1,797,1457,-8.67422,-13.6827
-420,-433,-5.74658,9.49121,0,0,0,0,0,0,0,-1,804,1457,-5.7466,-9.49119
-413,-433,-3.63074,5.5813,0,0,0,0,0,0,0,-1,811,1457,-3.63072,-5.58129
-406,-433,-12.3472,4.69373,0,0,0,0,0,0,0,-1,818,1457,-12.3472,-4.69374
-399,-433,-12.055,2.83594,0,0,0,0,0,0,0,-1,825,1457,-12.055,-2.83594
-392,-433,-12.9772,1.6228,0,0,0,0,0,0,0,-1,832,1457,-12.9772,-1.62282
-385,-433,-13.7999,0.514771,0,0,0,0,0,0,0,-1,839,1457,-13.7999,-0.514788
-378,-433,0,0,0,0,0,0,0,0,0,-1,846,1457,0,0
-371,-433,0,0,0,0,0,0,0,0,0,-1,853,1457,0,0
-364,-433,0,0,0,0,0,0,0,0,0,-1,860,1457,0,0
-357,-433,0,0,0,0,0,0,0,0,0,-1,867,1457,0,0
-350,-433,0,0,0,0,0,0,0,0,0,-1,874,1457,0,0
-343,-433,0,0,0,0,0,0,0,0,0,-1,881,1457,0,0
-336,-433,0,0,0,0,0,0,0,0,0,-1,888,1457,0,0
-329,-433,0,0,0,0,0,0,0,0,0,-1,895,1457,0,0
-322,-433,0,0,0,0,0,0,0,0,0,-1,902,1457,0,0
-315,-433,0,0,0,0,0,0,0,0,0,-1,909,1457,0,0
-308,-433,0,0,0,0,0,0,0,0,0,-1,916,1457,0,0
-301,-433,0,0,0,0,0,0,0,0,0,-1,923,1457,0,0
-294,-433,0,0,0,0,0,0,0,0,0,-1,930,1457,0,0
-287,-433,0,0,0,0,0,0,0,0,0,-1,937,1457,0,0
-280,-433,0,0,0,0,0,0,0,0,0,-1,944,1457,0,0
-273,-433,0,0,0,0,0,0,0,0,0,-1,951,1457,0,0
-266,-433,0,0,0,0,0,0,0,0,0,-1,958,1457,0,0
-259,-433,0,0,0,0,0,0,0,0,0,-1,965,1457,0,0
-252,-433,0,0,0,0,0,0,0,0,0,-1,972,1457,0,0
-245,-433,0,0,0,0,0,0,0,0,0,-1,979,1457,0,0
-238,-433,0,0,0,0,0,0,0,0,0,-1,986,1457,0,0
-231,-433,0,0,0,0,0,0,0,0,0,-1,993,1457,0,0
-224,-433,0,0,0,0,0,0,0,0,0,-1,1000,1457,0,0
-217,-433,0,0,0,0,0,0,0,0,0,-1,1007,1457,0,0
-210,-433,0,0,0,0,0,0,0,0,0,-1,1014,1457,0,0
-203,-433,0,0,0,0,0,0,0,0,0,-1,1021,1457,0,0
-196,-433,0,0,0,0,0,0,0,0,0,-1,1028,1457,0,0
-189,-433,0,0,0,0,0,0,0,0,0,-1,1035,1457,0,0
-182,-433,0,0,0,0,0,0,0,0,0,-1,1042,1457,0,0
-175,-433,0,0,0,0,0,0,0,0,0,-1,1049,1457,0,0
-168,-433,0,0,0,0,0,0,0,0,0,-1,1056,1457,0,0
-161,-433,0,0,0,0,0,0,0,0,0,-1,1063,1457,0,0
-154,-433,0,0,0,0,0,0,0,0,0,-1,1070,1457,0,0
-147,-433,0,0,0,0,0,0,0,0,0,-1,1077,1457,0,0
-140,-433,0,0,0,0,0,0,0,0,0,-1,1084,1457,0,0
-133,-433,0,0,0,0,0,0,0,0,0,-1,1091,1457,0,0
-126,-433,0,0,0,0,0,0,0,0,0,-1,1098,1457,0,0
-119,-433,0,0,0,0,0,0,0,0,0,-1,1105,1457,0,0
-112,-433,0,0,0,0,0,0,0,0,0,-1,1112,1457,0,0
-105,-433,0,0,0,0,0,0,0,0,0,-1,1119,1457,0,0
-98,-433,0,0,0,0,0,0,0,0,0,-1,1126,1457,0,0
-91,-433,0,0,0,0,0,0,0,0,0,-1,1133,1457,0,0
-84,-433,0,0,0,0,0,0,0,0,0,-1,1140,1457,0,0
-77,-433,0,0,0,0,0,0,0,0,0,-1,1147,1457,0,0
-70,-433,0,0,0,0,0,0,0,0,0,-1,1154,1457,0,0
-63,-433,0,0,0,0,0,0,0,0,0,-1,1161,1457,0,0
-56,-433,0,0,0,0,0,0,0,0,0,-1,1168,1457,0,0
-49,-433,0,0,0,0,0,0,0,0,0,-1,1175,1457,0,0
-42,-433,0,0,0,0,0,0,0,0,0,-1,1182,1457,0,0
-35,-433,0,0,0,0,0,0,0,0,0,-1,1189,1457,0,0
-28,-433,0,0,0,0,0,0,0,0,0,-1,1196,1457,0,0
-21,-433,0,0,0,0,0,0,0,0,0,-1,1203,1457,0,0
-14,-433,0,0,0,0,0,0,0,0,0,-1,1210,1457,0,0
-7,-433,0,0,0,0,0,0,0,0,0,-1,1217,1457,0,0
0,-433,0,0,0,0,0,0,0,0,0,-1,1224,1457,0,0
7,-433,0,0,0,0,0,0,0,0,0,-1,1231,1457,0,0
14,-433,0,0,0,0,0,0,0,0,0,-1,1238,1457,0,0
21,-433,0,0,0,0,0,0,0,0,0,-1,1245,1457,0,0
28,-433,0,0,0,0,0,0,0,0,0,-1,1252,1457,0,0
35,-433,0,0,0,0,0,0,0,0,0,-1,1259,1457,0,0
42,-433,0,0,0,0,0,0,0,0,0,-1,1266,1457,0,0
49,-433,0,0,0,0,0,0,0,0,0,-1,1273,1457,0,0
56,-433,0,0,0,0,0,0,0,0,0,-1,1280,1457,0,0
63,-433,0,0,0,0,0,0,0,0,0,-1,1287,1457,0,0
70,-433,0,0,0,0,0,0,0,0,0,-1,1294,1457,0,0
77,-433,0,0,0,0,0,0,0,0,0,-1,1301,1457,0,0
84,-433,0,0,0,0,0,0,0,0,0,-1,1308,1457,0,0
91,-433,0,0,0,0,0,0,0,0,0,-1,1315,1457,0,0
98,-433,0,0,0,0,0,0,0,0,0,-1,1322,1457,0,0
105,-433,0,0,0,0,0,0,0,0,0,-1,1329,1457,0,0
112,-433,0,0,0,0,0,0,0,0,0,-1,1336,1457,0,0
119,-433,0,0,0,0,0,0,0,0,0,-1,1343,1457,0,0
126,-433,0,0,0,0,0,0,0,0,0,-1,1350,1457,0,0
133,-433,0,0,0,0,0,0,0,0,0,-1,1357,1457,0,0
140,-433,0,0,0,0,0,0,0,0,0,-1,1364,1457,0,0
147,-433,0,0,0,0,0,0,0,0,0,-1,1371,1457,0,0
154,-433,0,0,0,0,0,0,0,0,0,-1,1378,1457,0,0
161,-433,0,0,0,0,0,0,0,0,0,-1,1385,1457,0,0
168,-433,0,0,0,0,0,0,0,0,0,-1,1392,1457,0,0
175,-433,0,0,0,0,0,0,0,0,0,-1,1399,1457,0,0
182,-433,0,0,0,0,0,0,0,0,0,-1,1406,1457,0,0
189,-433,0,0,0,0,0,0,0,0,0,-1,1413,1457,0,0
196,-433,0,0,0,0,0,0,0,0,0,-1,1420,1457,0,0
203,-433,0,0,0,0,0,0,0,0,0,-1,1427,1457,0,0
210,-433,0,0,0,0,0,0,0,0,0,-1,1434,1457,0,0
217,-433,0,0,0,0,0,0,0,0,0,-1,1441,1457,0,0
224,-433,0,0,0,0,0,0,0,0,0,-1,1448,1457,0,0
231,-433,0,0,0,0,0,0,0,0,0,-1,1455,1457,0,0
238,-433,0,0,0,0,0,0,0,0,0,-1,1462,1457,0,0
245,-433,0,0,0,0,0,0,0,0,0,-1,1469,1457,0,0
252,-433,0,0,0,0,0,0,0,0,0,-1,1476,1457,0,0
259,-433,0,0,0,0,0,0,0,0,0,-1,1483,1457,0,0
266,-433,0,0,0,0,0,0,0,0,0,-1,1490,1457,0,0
273,-433,0,0,0,0,0,0,0,0,0,-1,1497,1457,0,0
280,-433,0,0,0,0,0,0,0,0,0,-1,1504,1457,0,0
287,-433,0,0,0,0,0,0,0,0,0,-1,1511,1457,0,0
294,-433,0,0,0,0,0,0,0,0,0,-1,1518,1457,0,0
301,-433,0,0,0,0,0,0,0,0,0,-1,1525,1457,0,0
308,-433,0,0,0,0,0,0,0,0,0,-1,1532,1457,0,0
315,-433,0,0,0,0,0,0,0,0,0,-1,1539,1457,0,0
322,-433,0,0,0,0,0,0,0,0,0,-1,1546,1457,0,0
329,-433,0,0,0,0,0,0,0,0,0,-1,1553,1457,0,0
336,-433,0,0,0,0,0,0,0,0,0,-1,1560,1457,0,0
343,-433,0,0,0,0,0,0,0,0,0,-1,1567,1457,0,0
350,-433,0,0,0,0,0,0,0,0,0,-1,1574,1457,0,0
357,-433,0,0,0,0,0,0,0,0,0,-1,1581,1457,0,0
364,-433,0,0,0,0,0,0,0,0,0,-1,1588,1457,0,0
371,-433,0,0,0,0,0,0,0,0,0,-1,1595,1457,0,0
378,-433,0,0,0,0,0,0,0,0,0,-1,1602,1457,0,0
385,-433,0,0,0,0,0,0,0,0,0,-1,1609,1457,0,0
392,-433,0,0,0,0,0,0,0,0,0,-1,1616,1457,0,0
399,-433,0,0,0,0,0,0,0,0,0,-1,1623,1457,0,0
406,-433,0,0,0,0,0,0,0,0,0,-1,1630,1457,0,0
413,-433,0,0,0,0,0,0,0,0,0,-1,1637,1457,0,0
420,-433,0,0,0,0,0,0,0,0,0,-1,1644,1457,0,0
427,-433,0,0,0,0,0,0,0,0,0,-1,1651,1457,0,0
434,-433,0,0,0,0,0,0,0,0,0,-1,1658,1457,0,0
441,-433,0,0,0,0,0,0,0,0,0,-1,1665,1457,0,0
448,-433,0,0,0,0,0,0,0,0,0,-1,1672,1457,0,0
455,-433,0,0,0,0,0,0,0,0,0,-1,1679,1457,0,0
462,-433,0,0,0,0,0,0,0,0,0,-1,1686,1457,0,0
469,-433,0,0,0,0,0,0,0,0,0,-1,1693,1457,0,0
476,-433,0,0,0,0,0,0,0,0,0,-1,1700,1457,0,0
483,-433,0,0,0,0,0,0,0,0,0,-1,1707,1457,0,0
490,-433,0,0,0,0,0,0,0,0,0,-1,1714,1457,0,0
497,-433,0,0,0,0,0,0,0,0,0,-1,1721,1457,0,0
504,-433,19.9058,3.03662,0,0,0,0,0,0,0,-1,1728,1457,19.9058,-3.03656
511,-433,19.0145,3.07837,0,0,0,0,0,0,0,-1,1735,1457,19.0146,-3.07834
518,-433,18.071,3.06433,0,0,0,0,0,0,0,-1,1742,1457,18.071,-3.06432
525,-433,17.2048,3.37085,0,0,0,0,0,0,0,-1,1749,1457,17.2049,-3.37083
532,-433,16.5637,3.36646,0,0,0,0,0,0,0,-1,1756,1457,16.5637,-3.36643
539,-433,15.9193,3.30396,0,0,0,0,0,0,0,-1,1763,1457,15.9193,-3.30394
546,-433,23.1903,4.81775,0,0,0,0,0,0,0,-1,1770,1457,23.1903,-4.81775
553,-433,13.9674,11.5781,0,0,0,0,0,0,0,-1,1777,1457,13.9674,-11.5781
560,-433,13.9855,11.7341,0,0,0,0,0,0,0,-1,1784,1457,13.9855,-11.7341
567,-433,13.9264,11.3364,0,0,0,0,0,0,0,-1,1791,1457,13.9263,-11.3364
574,-433,15.5305,12.3673,0,0,0,0,0,0,0,-1,1798,1457,15.5305,-12.3673
581,-433,16.6405,12.1898,0,0,0,0,0,0,0,-1,1805,1457,16.6405,-12.1898
588,-433,26.4386,19.7478,0,0,0,0,0,0,0,-1,1812,1457,26.4386,-19.7478
595,-433,26.8529,19.1095,0,0,0,0,0,0,0,-1,1819,1457,26.8529,-19.1095
602,-433,26.8312,18.4928,0.0040901,0.00296038,-0.00304496,0.00662215,0.00042833,-0.693687,0.00427914,0.0251089,1826,1457,26.8311,-18.4928
609,-433,26.8789,17.8973,0.00324953,0.00209298,-0.00227541,0.005019,0.000323513,-0.660963,0.00324354,0.0162993,1833,1457,26.8789,-17.8974
616,-433,26.8689,17.3463,0.00255217,0.00137893,-0.00163526,0.00370285,0.000228248,-0.613181,0.00239611,0.0144166,1840,1457,26.8689,-17.3463
623,-433,26.8186,16.7905,0.00215075,0.000805891,-0.0011297,0.002793,0.000163639,-0.516947,0.00180992,0.0113774,1847,1457,26.8186,-16.7905
630,-433,26.807,16.2473,0.00201583,0.000283017,-0.000736214,0.00228638,1.24663e-05,-0.35217,0.00152011,0.0140808,1854,1457,26.807,-16.2473
637,-433,26.7804,15.7112,0.00202391,-5.17465e-05,-0.000412355,0.00210283,-0.000130665,-0.189099,0.00144741,0.0154452,1861,1457,26.7804,-15.7111
644,-433,26.7361,15.1724,0.00222621,-0.000353425,-9.05838e-05,0.00222939,-0.000356602,-0.0350574,0.00161828,0.0164612,1868,1457,26.736,-15.1724
651,-433,26.7178,14.5804,0.00263521,-0.000452145,6.22746e-05,0.00263647,-0.000453401,0.0201599,0.00192665,0.0127054,1875,1457,26.7177,-14.5805
658,-433,26.672,13.981,0.00331428,-0.000504925,0.000183948,0.00332312,-0.000513764,0.0480158,0.00240503,0.0299425,1882,1457,26.672,-13.981
665,-433,26.7246,13.2461,0,0,0,0,0,0,0,-1,1889,1457,26.7247,-13.2461
672,-433,18.115,8.7207,0,0,0,0,0,0,0,-1,1896,1457,18.115,-8.72074
679,-433,17.2969,9.6355,0,0,0,0,0,0,0,-1,1903,1457,17.2968,-9.63548
686,-433,13.6356,8.61694,0,0,0,0,0,0,0,-1,1910,1457,13.6356,-8.61694
693,-433,13.4081,8.39624,0,0,0,0,0,0,0,-1,1917,1457,13.4081,-8.39624
700,-433,7.16809,-1.5166,0,0,0,0,0,0,0,-1,1924,1457,7.16806,1.51656
707,-433,8.68359,-2.82202,0,0,0,0,0,0,0,-1,1931,1457,8.68359,2.82197
714,-433,0,0,0,0,0,0,0,0,0,-1,1938,1457,0,0
721,-433,0,0,0,0,0,0,0,0,0,-1,1945,1457,0,0
728,-433,0,0,0,0,0,0,0,0,0,-1,1952,1457,0,0
735,-433,0,0,0,0,0,0,0,0,0,-1,1959,1457,0,0
742,-433,0,0,0,0,0,0,0,0,0,-1,1966,1457,0,0
749,-433,0,0,0,0,0,0,0,0,0,-1,1973,1457,0,0
756,-433,0,0,0,0,0,0,0,0,0,-1,1980,1457,0,0
763,-433,0,0,0,0,0,0,0,0,0,-1,1987,1457,0,0
770,-433,0,0,0,0,0,0,0,0,0,-1,1994,1457,0,0
777,-433,0,0,0,0,0,0,0,0,0,-1,2001,1457,0,0
784,-433,0,0,0,0,0,0,0,0,0,-1,2008,1457,0,0
791,-433,0,0,0,0,0,0,0,0,0,-1,2015,1457,0,0
798,-433,0,0,0,0,0,0,0,0,0,-1,2022,1457,0,0
805,-433,0,0,0,0,0,0,0,0,0,-1,2029,1457,0,0
812,-433,0,0,0,0,0,0,0,0,0,-1,2036,1457,0,0
-700,-440,0,0,0,0,0,0,0,0,0,-1,524,1464,0,0
-693,-440,0,0,0,0,0,0,0,0,0,-1,531,1464,0,0
-686,-440,0,0,0,0,0,0,0,0,0,-1,538,1464,0,0
-679,-440,0,0,0,0,0,0,0,0,0,-1,545,1464,0,0
-672,-440,0,0,0,0,0,0,0,0,0,-1,552,1464,0,0
-665,-440,0,0,0,0,0,0,0,0,0,-1,559,1464,0,0
-658,-440,0,0,0,0,0,0,0,0,0,-1,566,1464,0,0
-651,-440,0,0,0,0,0,0,0,0,0,-1,573,1464,0,0
-644,-440,0,0,0,0,0,0,0,0,0,-1,580,1464,0,0
-637,-440,0,0,0,0,0,0,0,0,0,-1,587,1464,0,0
-630,-440,0,0,0,0,0,0,0,0,0,-1,594,1464,0,0
-623,-440,0,0,0,0,0,0,0,0,0,-1,601,1464,0,0
-616,-440,0,0,0,0,0,0,0,0,0,-1,608,1464,0,0
-609,-440,0,0,0,0,0,0,0,0,0,-1,615,1464,0,0
-602,-440,0,0,0,0,0,0,0,0,0,-1,622,1464,0,0
-595,-440,0,0,0,0,0,0,0,0,0,-1,629,1464,0,0
-588,-440,0,0,0,0,0,0,0,0,0,-1,636,1464,0,0
-581,-440,-8.97278,0.254517,0,0,0,0,0,0,0,-1,643,1464,-8.97276,-0.254526
-574,-440,-7.00818,-0.918579,0,0,0,0,0,0,0,-1,650,1464,-7.00817,0.918538
-567,-440,-6.12152,-0.0766602,0,0,0,0,0,0,0,-1,657,1464,-6.12151,0.0767097
-560,-440,-5.46747,0.82251,0,0,0,0,0,0,0,-1,664,1464,-5.46748,-0.822551
-553,-440,-6.84729,0.0831299,0,0,0,0,0,0,0,-1,671,1464,-6.84732,-0.083136
-546,-440,-5.63446,-0.153198,0,0,0,0,0,0,0,-1,678,1464,-5.63447,0.153147
-539,-440,-6.80017,8.58252,0,0,0,0,0,0,0,-1,685,1464,-6.80015,-8.58257
-532,-440,-9.69647,11.3262,0,0,0,0,0,0,0,-1,692,1464,-9.69649,-11.3262
-525,-440,-10.3234,12.1576,0,0,0,0,0,0,0,-1,699,1464,-10.3234,-12.1576
-518,-440,-10.2725,12.8356,0.00296641,0.00198792,0.00233367,0.00486157,9.27704e-05,0.682072,0.00321057,0.0233329,706,1464,-10.2725,-12.8356
-511,-440,-10.2266,13.495,0.00251176,0.00153519,0.0018963,0.00398163,6.5316e-05,0.659388,0.00263292,0.0159425,713,1464,-10.2266,-13.4949
-504,-440,-10.2013,14.0826,0.00212595,0.00129668,0.00156829,0.00333349,8.91372e-05,0.656162,0.00219322,0.0185335,720,1464,-10.2013,-14.0826
-497,-440,-10.243,14.6738,0.00189139,0.00129575,0.00140719,0.00303194,0.00015521,0.681116,0.00197159,0.0210481,727,1464,-10.243,-14.6739
-490,-440,-10.3041,15.2378,0.00185064,0.00152152,0.00143927,0.00313472,0.000237433,0.728478,0.00201534,0.0211091,734,1464,-10.3041,-15.2378
-483,-440,-10.3509,15.8507,0.0019966,0.00195886,0.00163399,0.00361182,0.00034363,0.779624,0.00230191,0.019113,741,1464,-10.3509,-15.8507
-476,-440,-10.3666,16.4535,0.00233984,0.00261126,0.00204864,0.00452868,0.000422415,0.818471,0.00288863,0.0135493,748,1464,-10.3666,-16.4535
-469,-440,-10.4062,17.053,0.00290423,0.00352125,0.00274784,0.00597784,0.000447636,0.841302,0.00384471,0.0132903,755,1464,-10.4062,-17.0529
-462,-440,-10.4825,17.6354,0.00369433,0.00463514,0.00366411,0.00785892,0.000470553,0.849239,0.00508968,0.0173166,762,1464,-10.4825,-17.6354
-455,-440,-10.4235,18.3243,0,0,0,0,0,0,0,-1,769,1464,-10.4235,-18.3244
-448,-440,-9.44476,19.2422,0,0,0,0,0,0,0,-1,776,1464,-9.44475,-19.2422
-441,-440,-7.28583,14.7465,0,0,0,0,0,0,0,-1,783,1464,-7.28584,-14.7464
-434,-440,-8.33636,14.5024,0,0,0,0,0,0,0,-1,790,1464,-8.33638,-14.5025
-427,-440,-8.28094,14.2512,0,0,0,0,0,0,0,-1,797,1464,-8.28094,-14.2512
-420,-440,-6.86603,8.09216,0,0,0,0,0,0,0,-1,804,1464,-6.86602,-8.09222
-413,-440,-3.46796,5.72278,0,0,0,0,0,0,0,-1,811,1464,-3.46797,-5.72276
-406,-440,-5.2887,5.20264,0,0,0,0,0,0,0,-1,818,1464,-5.2887,-5.20261
-399,-440,-12.7318,3.94421,0,0,0,0,0,0,0,-1,825,1464,-12.7318,-3.94419
-392,-440,-13.5565,2.51855,0,0,0,0,0,0,0,-1,832,1464,-13.5565,-2.51861
-385,-440,-14.6741,1.39795,0,0,0,0,0,0,0,-1,839,1464,-14.6741,-1.39801
-378,-440,-15.8063,0.293457,0,0,0,0,0,0,0,-1,846,1464,-15.8063,-0.293412
-371,-440,0,0,0,0,0,0,0,0,0,-1,853,1464,0,0
-364,-440,0,0,0,0,0,0,0,0,0,-1,860,1464,0,0
-357,-440,0,0,0,0,0,0,0,0,0,-1,867,1464,0,0
-350,-440,0,0,0,0,0,0,0,0,0,-1,874,1464,0,0
-343,-440,0,0,0,0,0,0,0,0,0,-1,881,1464,0,0
-336,-440,0,0,0,0,0,0,0,0,0,-1,888,1464,0,0
-329,-440,0,0,0,0,0,0,0,0,0,-1,895,1464,0,0
-322,-440,0,0,0,0,0,0,0,0,0,-1,902,1464,0,0
-315,-440,0,0,0,0,0,0,0,0,0,-1,909,1464,0,0
-308,-440,0,0,0,0,0,0,0,0,0,-1,916,1464,0,0
-301,-440,0,0,0,0,0,0,0,0,0,-1,923,1464,0,0
-294,-440,0,0,0,0,0,0,0,0,0,-1,930,1464,0,0
-287,-440,0,0,0,0,0,0,0,0,0,-1,937,1464,0,0
-280,-440,0,0,0,0,0,0,0,0,0,-1,944,1464,0,0
-273,-440,0,0,0,0,0,0,0,0,0,-1,951,1464,0,0
-266,-440,0,0,0,0,0,0,0,0,0,-1,958,1464,0,0
-259,-440,0,0,0,0,0,0,0,0,0,-1,965,1464,0,0
-252,-440,0,0,0,0,0,0,0,0,0,-1,972,1464,0,0
-245,-440,0,0,0,0,0,0,0,0,0,-1,979,1464,0,0
-238,-440,0,0,0,0,0,0,0,0,0,-1,986,1464,0,0
-231,-440,0,0,0,0,0,0,0,0,0,-1,993,1464,0,0
-224,-440,0,0,0,0,0,0,0,0,0,-1,1000,1464,0,0
-217,-440,0,0,0,0,0,0,0,0,0,-1,1007,1464,0,0
-210,-440,0,0,0,0,0,0,0,0,0,-1,1014,1464,0,0
-203,-440,0,0,0,0,0,0,0,0,0,-1,1021,1464,0,0
-196,-440,0,0,0,0,0,0,0,0,0,-1,1028,1464,0,0
-189,-440,0,0,0,0,0,0,0,0,0,-1,1035,1464,0,0
-182,-440,0,0,0,0,0,0,0,0,0,-1,1042,1464,0,0
-175,-440,0,0,0,0,0,0,0,0,0,-1,1049,1464,0,0
-168,-440,0,0,0,0,0,0,0,0,0,-1,1056,1464,0,0
-161,-440,0,0,0,0,0,0,0,0,0,-1,1063,1464,0,0
-154,-440,0,0,0,0,0,0,0,0,0,-1,1070,1464,0,0
-147,-440,0,0,0,0,0,0,0,0,0,-1,1077,1464,0,0
-140,-440,0,0,0,0,0,0,0,0,0,-1,1084,1464,0,0
-133,-440,0,0,0,0,0,0,0,0,0,-1,1091,1464,0,0
-126,-440,0,0,0,0,0,0,0,0,0,-1,1098,1464,0,0
-119,-440,0,0,0,0,0,0,0,0,0,-1,1105,1464,0,0
-112,-440,0,0,0,0,0,0,0,0,0,-1,1112,1464,0,0
-105,-440,0,0,0,0,0,0,0,0,0,-1,1119,1464,0,0
-98,-440,0,0,0,0,0,0,0,0,0,-1,1126,1464,0,0
-91,-440,0,0,0,0,0,0,0,0,0,-1,1133,1464,0,0
-84,-440,0,0,0,0,0,0,0,0,0,-1,1140,1464,0,0
-77,-440,0,0,0,0,0,0,0,0,0,-1,1147,1464,0,0
-70,-440,0,0,0,0,0,0,0,0,0,-1,1154,1464,0,0
-63,-440,0,0,0,0,0,0,0,0,0,-1,1161,1464,0,0
-56,-440,0,0,0,0,0,0,0,0,0,-1,1168,1464,0,0
-49,-440,0,0,0,0,0,0,0,0,0,-1,1175,1464,0,0
-42,-440,0,0,0,0,0,0,0,0,0,-1,1182,1464,0,0
-35,-440,0,0,0,0,0,0,0,0,0,-1,1189,1464,0,0
-28,-440,0,0,0,0,0,0,0,0,0,-1,1196,1464,0,0
-21,-440,0,0,0,0,0,0,0,0,0,-1,1203,1464,0,0
-14,-440,0,0,0,0,0,0,0,0,0,-1,1210,1464,0,0
-7,-440,0,0,0,0,0,0,0,0,0,-1,1217,1464,0,0
0,-440,0,0,0,0,0,0,0,0,0,-1,1224,1464,0,0
7,-440,0,0,0,0,0,0,0,0,0,-1,1231,1464,0,0
14,-440,0,0,0,0,0,0,0,0,0,-1,1238,1464,0,0
21,-440,0,0,0,0,0,0,0,0,0,-1,1245,1464,0,0
28,-440,0,0,0,0,0,0,0,0,0,-1,1252,1464,0,0
35,-440,0,0,0,0,0,0,0,0,0,-1,1259,1464,0,0
42,-440,0,0,0,0,0,0,0,0,0,-1,1266,1464,0,0
49,-440,0,0,0,0,0,0,0,0,0,-1,1273,1464,0,0
56,-440,0,0,0,0,0,0,0,0,0,-1,1280,1464,0,0
63,-440,0,0,0,0,0,0,0,0,0,-1,1287,1464,0,0
70,-440,0,0,0,0,0,0,0,0,0,-1,1294,1464,0,0
77,-440,0,0,0,0,0,0,0,0,0,-1,1301,1464,0,0
84,-440,0,0,0,0,0,0,0,0,0,-1,1308,1464,0,0
91,-440,0,0,0,0,0,0,0,0,0,-1,1315,1464,0,0
98,-440,0,0,0,0,0,0,0,0,0,-1,1322,1464,0,0
105,-440,0,0,0,0,0,0,0,0,0,-1,1329,1464,0,0
112,-440,0,0,0,0,0,0,0,0,0,-1,1336,1464,0,0
119,-440,0,0,0,0,0,0,0,0,0,-1,1343,1464,0,0
126,-440,0,0,0,0,0,0,0,0,0,-1,1350,1464,0,0
133,-440,0,0,0,0,0,0,0,0,0,-1,1357,1464,0,0
140,-440,0,0,0,0,0,0,0,0,0,-1,1364,1464,0,0
147,-440,0,0,0,0,0,0,0,0,0,-1,1371,1464,0,0
154,-440,0,0,0,0,0,0,0,0,0,-1,1378,1464,0,0
161,-440,0,0,0,0,0,0,0,0,0,-1,1385,1464,0,0
168,-440,0,0,0,0,0,0,0,0,0,-1,1392,1464,0,0
175,-440,0,0,0,0,0,0,0,0,0,-1,1399,1464,0,0
182,-440,0,0,0,0,0,0,0,0,0,-1,1406,1464,0,0
189,-440,0,0,0,0,0,0,0,0,0,-1,1413,1464,0,0
196,-440,0,0,0,0,0,0,0,0,0,-1,1420,1464,0,0
203,-440,0,0,0,0,0,0,0,0,0,-1,1427,1464,0,0
210,-440,0,0,0,0,0,0,0,0,0,-1,1434,1464,0,0
217,-440,0,0,0,0,0,0,0,0,0,-1,1441,1464,0,0
224,-440,0,0,0,0,0,0,0,0,0,-1,1448,1464,0,0
231,-440,0,0,0,0,0,0,0,0,0,-1,1455,1464,0,0
238,-440,0,0,0,0,0,0,0,0,0,-1,1462,1464,0,0
245,-440,0,0,0,0,0,0,0,0,0,-1,1469,1464,0,0
252,-440,0,0,0,0,0,0,0,0,0,-1,1476,1464,0,0
259,-440,0,0,0,0,0,0,0,0,0,-1,1483,1464,0,0
266,-440,0,0,0,0,0,0,0,0,0,-1,1490,1464,0,0
273,-440,0,0,0,0,0,0,0,0,0,-1,1497,1464,0,0
280,-440,0,0,0,0,0,0,0,0,0,-1,1504,1464,0,0
287,-440,0,0,0,0,0,0,0,0,0,-1,1511,1464,0,0
294,-440,0,0,0,0,0,0,0,0,0,-1,1518,1464,0,0
301,-440,0,0,0,0,0,0,0,0,0,-1,1525,1464,0,0
308,-440,0,0,0,0,0,0,0,0,0,-1,1532,1464,0,0
315,-440,0,0,0,0,0,0,0,0,0,-1,1539,1464,0,0
322,-440,0,0,0,0,0,0,0,0,0,-1,1546,1464,0,0
329,-440,0,0,0,0,0,0,0,0,0,-1,1553,1464,0,0
336,-440,0,0,0,0,0,0,0,0,0,-1,1560,1464,0,0
343,-440,0,0,0,0,0,0,0,0,0,-1,1567,1464,0,0
350,-440,0,0,0,0,0,0,0,0,0,-1,1574,1464,0,0
357,-440,0,0,0,0,0,0,0,0,0,-1,1581,1464,0,0
364,-440,0,0,0,0,0,0,0,0,0,-1,1588,1464,0,0
371,-440,0,0,0,0,0,0,0,0,0,-1,1595,1464,0,0
378,-440,0,0,0,0,0,0,0,0,0,-1,1602,1464,0,0
385,-440,0,0,0,0,0,0,0,0,0,-1,1609,1464,0,0
392,-440,0,0,0,0,0,0,0,0,0,-1,1616,1464,0,0
399,-440,0,0,0,0,0,0,0,0,0,-1,1623,1464,0,0
406,-440,0,0,0,0,0,0,0,0,0,-1,1630,1464,0,0
413,-440,0,0,0,0,0,0,0,0,0,-1,1637,1464,0,0
420,-440,0,0,0,0,0,0,0,0,0,-1,1644,1464,0,0
427,-440,0,0,0,0,0,0,0,0,0,-1,1651,1464,0,0
434,-440,0,0,0,0,0,0,0,0,0,-1,1658,1464,0,0
441,-440,0,0,0,0,0,0,0,0,0,-1,1665,1464,0,0
448,-440,0,0,0,0,0,0,0,0,0,-1,1672,1464,0,0
455,-440,0,0,0,0,0,0,0,0,0,-1,1679,1464,0,0
462,-440,0,0,0,0,0,0,0,0,0,-1,1686,1464,0,0
469,-440,0,0,0,0,0,0,0,0,0,-1,1693,1464,0,0
476,-440,0,0,0,0,0,0,0,0,0,-1,1700,1464,0,0
483,-440,0,0,0,0,0,0,0,0,0,-1,1707,1464,0,0
490,-440,0,0,0,0,0,0,0,0,0,-1,1714,1464,0,0
497,-440,16.965,-0.528442,0,0,0,0,0,0,0,-1,1721,1464,16.965,0.528492
504,-440,15.8052,0.670166,0,0,0,0,0,0,0,-1,1728,1464,15.8052,-0.670145
511,-440,17.5754,2.77832,0,0,0,0,0,0,0,-1,1735,1464,17.5754,-2.77826
518,-440,16.9017,3.07861,0,0,0,0,0,0,0,-1,1742,1464,16.9018,-3.07859
525,-440,18.4495,12.0867,0,0,0,0,0,0,0,-1,1749,1464,18.4495,-12.0867
532,-440,15.4319,3.64392,0,0,0,0,0,0,0,-1,1756,1464,15.4318,-3.64391
539,-440,14.8214,3.41321,0,0,0,0,0,0,0,-1,1763,1464,14.8214,-3.4132
546,-440,14.8651,10.7683,0,0,0,0,0,0,0,-1,1770,1464,14.8651,-10.7683
553,-440,15.1213,11.4121,0,0,0,0,0,0,0,-1,1777,1464,15.1213,-11.4121
560,-440,17.4325,12.5394,0,0,0,0,0,0,0,-1,1784,1464,17.4325,-12.5394
567,-440,16.9025,12.4249,0,0,0,0,0,0,0,-1,1791,1464,16.9025,-12.425
574,-440,19.2841,14.8679,0,0,0,0,0,0,0,-1,1798,1464,19.2841,-14.868
581,-440,25.8342,20.9955,0,0,0,0,0,0,0,-1,1805,1464,25.8342,-20.9955
588,-440,26.0328,19.7987,0,0,0,0,0,0,0,-1,1812,1464,26.0328,-19.7988
595,-440,26.2233,19.1195,0.00448055,0.00315165,-0.00317955,0.00706433,0.000567868,-0.682393,0.00453214,0.0288695,1819,1464,26.2232,-19.1195
602,-440,26.2983,18.4803,0.00357592,0.00234095,-0.00245854,0.00549333,0.000423544,-0.662363,0.00352952,0.0189177,1826,1464,26.2983,-18.4804
609,-440,26.304,17.9343,0.00287886,0.00159487,-0.00181562,0.00416265,0.000311087,-0.615462,0.00267743,0.0165459,1833,1464,26.3039,-17.9343
616,-440,26.274,17.4125,0.00231022,0.00100636,-0.00128284,0.00309728,0.000219295,-0.550308,0.00199577,0.0180662,1840,1464,26.274,-17.4125
623,-440,26.27,16.832,0.00203205,0.00048537,-0.000854077,0.00241089,0.000106538,-0.417483,0.00157295,0.0135143,1847,1464,26.27,-16.8321
630,-440,26.2314,16.2382,0.00200332,-4.91613e-06,-0.000511185,0.00212595,-0.000127547,-0.235446,0.00146167,0.0114612,1854,1464,26.2315,-16.2381
637,-440,26.2156,15.7341,0.00209786,-0.000331842,-0.000226753,0.00211884,-0.000352823,-0.0922637,0.00154367,0.0165817,1861,1464,26.2156,-15.7341
644,-440,26.2032,15.2065,0.00237253,-0.000581501,3.95499e-05,0.00237306,-0.00058203,0.0133852,0.00180756,0.0160715,1868,1464,26.2033,-15.2066
651,-440,26.2343,14.5653,0.00288453,-0.000621227,0.000114699,0.00288827,-0.000624976,0.0326707,0.00216413,0.0208573,1875,1464,26.2343,-14.5654
658,-440,26.3044,13.8956,0,0,0,0,0,0,0,-1,1882,1464,26.3044,-13.8957
665,-440,24.2067,12.5813,0,0,0,0,0,0,0,-1,1889,1464,24.2067,-12.5813
672,-440,18.9385,9.6394,0,0,0,0,0,0,0,-1,1896,1464,18.9384,-9.63939
679,-440,16.9508,10.2336,0,0,0,0,0,0,0,-1,1903,1464,16.9508,-10.2337
686,-440,15.2556,8.44177,0,0,0,0,0,0,0,-1,1910,1464,15.2556,-8.44177
693,-440,9.88635,2.89795,0,0,0,0,0,0,0,-1,1917,1464,9.88638,-2.89798
700,-440,7.07825,-2.62061,0,0,0,0,0,0,0,-1,1924,1464,7.07829,2.62057
707,-440,0,0,0,0,0,0,0,0,0,-1,1931,1464,0,0
714,-440,0,0,0,0,0,0,0,0,0,-1,1938,1464,0,0
721,-440,0,0,0,0,0,0,0,0,0,-1,1945,1464,0,0
728,-440,0,0,0,0,0,0,0,0,0,-1,1952,1464,0,0
735,-440,0,0,0,0,0,0,0,0,0,-1,1959,1464,0,0
742,-440,0,0,0,0,0,0,0,0,0,-1,1966,1464,0,0
749,-440,0,0,0,0,0,0,0,0,0,-1,1973,1464,0,0
756,-440,0,0,0,0,0,0,0,0,0,-1,1980,1464,0,0
763,-440,0,0,0,0,0,0,0,0,0,-1,1987,1464,0,0
770,-440,0,0,0,0,0,0,0,0,0,-1,1994,1464,0,0
777,-440,0,0,0,0,0,0,0,0,0,-1,2001,1464,0,0
784,-440,0,0,0,0,0,0,0,0,0,-1,2008,1464,0,0
791,-440,0,0,0,0,0,0,0,0,0,-1,2015,1464,0,0
798,-440,0,0,0,0,0,0,0,0,0,-1,2022,1464,0,0
805,-440,0,0,0,0,0,0,0,0,0,-1,2029,1464,0,0
812,-440,0,0,0,0,0,0,0,0,0,-1,2036,1464,0,0
-700,-447,0,0,0,0,0,0,0,0,0,-1,524,1471,0,0
-693,-447,0,0,0,0,0,0,0,0,0,-1,531,1471,0,0
-686,-447,0,0,0,0,0,0,0,0,0,-1,538,1471,0,0
-679,-447,0,0,0,0,0,0,0,0,0,-1,545,1471,0,0
-672,-447,0,0,0,0,0,0,0,0,0,-1,552,1471,0,0
-665,-447,0,0,0,0,0,0,0,0,0,-1,559,1471,0,0
-658,-447,0,0,0,0,0,0,0,0,0,-1,566,1471,0,0
-651,-447,0,0,0,0,0,0,0,0,0,-1,573,1471,0,0
-644,-447,0,0,0,0,0,0,0,0,0,-1,580,1471,0,0
-637,-447,0,0,0,0,0,0,0,0,0,-1,587,1471,0,0
-630,-447,0,0,0,0,0,0,0,0,0,-1,594,1471,0,0
-623,-447,0,0,0,0,0,0,0,0,0,-1,601,1471,0,0
-616,-447,0,0,0,0,0,0,0,0,0,-1,608,1471,0,0
-609,-447,0,0,0,0,0,0,0,0,0,-1,615,1471,0,0
-602,-447,0,0,0,0,0,0,0,0,0,-1,622,1471,0,0
-595,-447,0,0,0,0,0,0,0,0,0,-1,629,1471,0,0
-588,-447,0,0,0,0,0,0,0,0,0,-1,636,1471,0,0
-581,-447,-7.06482,-1.50476,0,0,0,0,0,0,0,-1,643,1471,-7.0648,1.50474
-574,-447,-6.88092,-0.00585938,0,0,0,0,0,0,0,-1,650,1471,-6.88095,0.00589852
-567,-447,-6.8205,-1.32178,0,0,0,0,0,0,0,-1,657,1471,-6.82047,1.32172
-560,-447,-8.85748,2.80774,0,0,0,0,0,0,0,-1,664,1471,-8.85748,-2.80775
-553,-447,-7.60486,3.26794,0,0,0,0,0,0,0,-1,671,1471,-7.60487,-3.26799
-546,-447,-3.94501,1.8656,0,0,0,0,0,0,0,-1,678,1471,-3.945,-1.86554
-539,-447,-5.35492,4.50024,0,0,0,0,0,0,0,-1,685,1471,-5.35492,-4.50018
-532,-447,-6.12781,8.81091,0,0,0,0,0,0,0,-1,692,1471,-6.12781,-8.81094
-525,-447,-9.44501,12.098,0,0,0,0,0,0,0,-1,699,1471,-9.44502,-12.098
-518,-447,-9.70923,12.7061,0,0,0,0,0,0,0,-1,706,1471,-9.70924,-12.706
-511,-447,-9.66077,13.4913,0.00270168,0.00141764,0.00209736,0.00425308,-0.000133767,0.636873,0.00288101,0.0231545,713,1471,-9.66074,-13.4914
-504,-447,-9.61273,14.1594,0.00216567,0.00102809,0.00162692,0.00332036,-0.000126602,0.617234,0.00225696,0.0206027,720,1471,-9.61275,-14.1595
-497,-447,-9.69641,14.7722,0.00177803,0.000895667,0.00132639,0.00273469,-6.0993e-05,0.624845,0.0018438,0.0238419,727,1471,-9.69643,-14.7722
-490,-447,-9.70282,15.3057,0.00160752,0.00100238,0.00122872,0.00257038,3.95295e-05,0.664676,0.00170056,0.0230106,734,1471,-9.7028,-15.3056
-483,-447,-9.75458,15.8708,0.00164496,0.00133428,0.00130955,0.00280835,0.000170884,0.726364,0.00181795,0.0212308,741,1471,-9.75455,-15.8709
-476,-447,-9.77502,16.4559,0.00189178,0.00189124,0.00161962,0.00351113,0.00027189,0.785315,0.00225559,0.0148405,748,1471,-9.77501,-16.4559
-469,-447,-9.80884,17.0625,0.00237194,0.00273081,0.00221631,0.00477494,0.000327817,0.82579,0.00307984,0.0140538,755,1471,-9.80886,-17.0625
-462,-447,-9.84131,17.6753,0.00307674,0.00376528,0.00300769,0.00644834,0.000393682,0.842382,0.00417386,0.0138881,762,1471,-9.84129,-17.6753
-455,-447,-9.85925,18.2876,0.00416845,0.00515123,0.00418488,0.00887347,0.000446207,0.843841,0.00577266,0.0221371,769,1471,-9.85924,-18.2876
-448,-447,-9.85175,18.9082,0,0,0,0,0,0,0,-1,776,1471,-9.85177,-18.9082
-441,-447,-8.68506,19.0931,0,0,0,0,0,0,0,-1,783,1471,-8.68504,-19.0932
-434,-447,-7.43402,15.6273,0,0,0,0,0,0,0,-1,790,1471,-7.43404,-15.6274
-427,-447,-7.21832,14.691,0,0,0,0,0,0,0,-1,797,1471,-7.21834,-14.6911
-420,-447,-8.0545,12.8055,0,0,0,0,0,0,0,-1,804,1471,-8.05452,-12.8055
-413,-447,-4.27393,6.59705,0,0,0,0,0,0,0,-1,811,1471,-4.27392,-6.59707
-406,-447,-1.04279,6.18591,0,0,0,0,0,0,0,-1,818,1471,-1.04276,-6.18586
-399,-447,0.0134888,0.687622,0,0,0,0,0,0,0,-1,825,1471,0.0134841,-0.68767
-392,-447,-14.0646,3.76147,0,0,0,0,0,0,0,-1,832,1471,-14.0646,-3.7615
-385,-447,-15.1695,2.61865,0,0,0,0,0,0,0,-1,839,1471,-15.1695,-2.61871
-378,-447,-15.9424,1.49316,0,0,0,0,0,0,0,-1,846,1471,-15.9424,-1.49313
-371,-447,-17.3655,0.73291,0,0,0,0,0,0,0,-1,853,1471,-17.3655,-0.732946
-364,-447,0,0,0,0,0,0,0,0,0,-1,860,1471,0,0
-357,-447,0,0,0,0,0,0,0,0,0,-1,867,1471,0,0
-350,-447,0,0,0,0,0,0,0,0,0,-1,874,1471,0,0
-343,-447,0,0,0,0,0,0,0,0,0,-1,881,1471,0,0
-336,-447,0,0,0,0,0,0,0,0,0,-1,888,1471,0,0
-329,-447,0,0,0,0,0,0,0,0,0,-1,895,1471,0,0
-322,-447,0,0,0,0,0,0,0,0,0,-1,902,1471,0,0
-315,-447,0,0,0,0,0,0,0,0,0,-1,909,1471,0,0
-308,-447,0,0,0,0,0,0,0,0,0,-1,916,1471,0,0
-301,-447,0,0,0,0,0,0,0,0,0,-1,923,1471,0,0
-294,-447,0,0,0,0,0,0,0,0,0,-1,930,1471,0,0
-287,-447,0,0,0,0,0,0,0,0,0,-1,937,1471,0,0
-280,-447,0,0,0,0,0,0,0,0,0,-1,944,1471,0,0
-273,-447,0,0,0,0,0,0,0,0,0,-1,951,1471,0,0
-266,-447,0,0,0,0,0,0,0,0,0,-1,958,1471,0,0
-259,-447,0,0,0,0,0,0,0,0,0,-1,965,1471,0,0
-252,-447,0,0,0,0,0,0,0,0,0,-1,972,1471,0,0
-245,-447,0,0,0,0,0,0,0,0,0,-1,979,1471,0,0
-238,-447,0,0,0,0,0,0,0,0,0,-1,986,1471,0,0
-231,-447,0,0,0,0,0,0,0,0,0,-1,993,1471,0,0
-224,-447,0,0,0,0,0,0,0,0,0,-1,1000,1471,0,0
-217,-447,0,0,0,0,0,0,0,0,0,-1,1007,1471,0,0
-210,-447,0,0,0,0,0,0,0,0,0,-1,1014,1471,0,0
-203,-447,0,0,0,0,0,0,0,0,0,-1,1021,1471,0,0
-196,-447,0,0,0,0,0,0,0,0,0,-1,1028,1471,0,0
-189,-447,0,0,0,0,0,0,0,0,0,-1,1035,1471,0,0
-182,-447,0,0,0,0,0,0,0,0,0,-1,1042,1471,0,0
-175,-447,0,0,0,0,0,0,0,0,0,-1,1049,1471,0,0
-168,-447,0,0,0,0,0,0,0,0,0,-1,1056,1471,0,0
-161,-447,0,0,0,0,0,0,0,0,0,-1,1063,1471,0,0
-154,-447,0,0,0,0,0,0,0,0,0,-1,1070,1471,0,0
-147,-447,0,0,0,0,0,0,0,0,0,-1,1077,1471,0,0
-140,-447,0,0,0,0,0,0,0,0,0,-1,1084,1471,0,0
-133,-447,0,0,0,0,0,0,0,0,0,-1,1091,1471,0,0
-126,-447,0,0,0,0,0,0,0,0,0,-1,1098,1471,0,0
-119,-447,0,0,0,0,0,0,0,0,0,-1,1105,1471,0,0
-112,-447,0,0,0,0,0,0,0,0,0,-1,1112,1471,0,0
-105,-447,0,0,0,0,0,0,0,0,0,-1,1119,1471,0,0
-98,-447,0,0,0,0,0,0,0,0,0,-1,1126,1471,0,0
-91,-447,0,0,0,0,0,0,0,0,0,-1,1133,1471,0,0
-84,-447,0,0,0,0,0,0,0,0,0,-1,1140,1471,0,0
-77,-447,0,0,0,0,0,0,0,0,0,-1,1147,1471,0,0
-70,-447,0,0,0,0,0,0,0,0,0,-1,1154,1471,0,0
-63,-447,0,0,0,0,0,0,0,0,0,-1,1161,1471,0,0
-56,-447,0,0,0,0,0,0,0,0,0,-1,1168,1471,0,0
-49,-447,0,0,0,0,0,0,0,0,0,-1,1175,1471,0,0
-42,-447,0,0,0,0,0,0,0,0,0,-1,1182,1471,0,0
-35,-447,0,0,0,0,0,0,0,0,0,-1,1189,1471,0,0
-28,-447,0,0,0,0,0,0,0,0,0,-1,1196,1471,0,0
-21,-447,0,0,0,0,0,0,0,0,0,-1,1203,1471,0,0
-14,-447,0,0,0,0,0,0,0,0,0,-1,1210,1471,0,0
-7,-447,0,0,0,0,0,0,0,0,0,-1,1217,1471,0,0
0,-447,0,0,0,0,0,0,0,0,0,-1,1224,1471,0,0
7,-447,0,0,0,0,0,0,0,0,0,-1,1231,1471,0,0
14,-447,0,0,0,0,0,0,0,0,0,-1,1238,1471,0,0
21,-447,0,0,0,0,0,0,0,0,0,-1,1245,1471,0,0
28,-447,0,0,0,0,0,0,0,0,0,-1,1252,1471,0,0
35,-447,0,0,0,0,0,0,0,0,0,-1,1259,1471,0,0
42,-447,0,0,0,0,0,0,0,0,0,-1,1266,1471,0,0
49,-447,0,0,0,0,0,0,0,0,0,-1,1273,1471,0,0
56,-447,0,0,0,0,0,0,0,0,0,-1,1280,1471,0,0
63,-447,0,0,0,0,0,0,0,0,0,-1,1287,1471,0,0
70,-447,0,0,0,0,0,0,0,0,0,-1,1294,1471,0,0
77,-447,0,0,0,0,0,0,0,0,0,-1,1301,1471,0,0
84,-447,0,0,0,0,0,0,0,0,0,-1,1308,1471,0,0
91,-447,0,0,0,0,0,0,0,0,0,-1,1315,1471,0,0
98,-447,0,0,0,0,0,0,0,0,0,-1,1322,1471,0,0
105,-447,0,0,0,0,0,0,0,0,0,-1,1329,1471,0,0
112,-447,0,0,0,0,0,0,0,0,0,-1,1336,1471,0,0
119,-447,0,0,0,0,0,0,0,0,0,-1,1343,1471,0,0
126,-447,0,0,0,0,0,0,0,0,0,-1,1350,1471,0,0
133,-447,0,0,0,0,0,0,0,0,0,-1,1357,1471,0,0
140,-447,0,0,0,0,0,0,0,0,0,-1,1364,1471,0,0
147,-447,0,0,0,0,0,0,0,0,0,-1,1371,1471,0,0
154,-447,0,0,0,0,0,0,0,0,0,-1,1378,1471,0,0
161,-447,0,0,0,0,0,0,0,0,0,-1,1385,1471,0,0
168,-447,0,0,0,0,0,0,0,0,0,-1,1392,1471,0,0
175,-447,0,0,0,0,0,0,0,0,0,-1,1399,1471,0,0
182,-447,0,0,0,0,0,0,0,0,0,-1,1406,1471,0,0
189,-447,0,0,0,0,0,0,0,0,0,-1,1413,1471,0,0
196,-447,0,0,0,0,0,0,0,0,0,-1,1420,1471,0,0
203,-447,0,0,0,0,0,0,0,0,0,-1,1427,1471,0,0
210,-447,0,0,0,0,0,0,0,0,0,-1,1434,1471,0,0
217,-447,0,0,0,0,0,0,0,0,0,-1,1441,1471,0,0
224,-447,0,0,0,0,0,0,0,0,0,-1,1448,1471,0,0
231,-447,0,0,0,0,0,0,0,0,0,-1,1455,1471,0,0
238,-447,0,0,0,0,0,0,0,0,0,-1,1462,1471,0,0
245,-447,0,0,0,0,0,0,0,0,0,-1,1469,1471,0,0
252,-447,0,0,0,0,0,0,0,0,0,-1,1476,1471,0,0
259,-447,0,0,0,0,0,0,0,0,0,-1,1483,1471,0,0
266,-447,0,0,0,0,0,0,0,0,0,-1,1490,1471,0,0
273,-447,0,0,0,0,0,0,0,0,0,-1,1497,1471,0,0
280,-447,0,0,0,0,0,0,0,0,0,-1,1504,1471,0,0
287,-447,0,0,0,0,0,0,0,0,0,-1,1511,1471,0,0
294,-447,0,0,0,0,0,0,0,0,0,-1,1518,1471,0,0
301,-447,0,0,0,0,0,0,0,0,0,-1,1525,1471,0,0
308,-447,0,0,0,0,0,0,0,0,0,-1,1532,1471,0,0
315,-447,0,0,0,0,0,0,0,0,0,-1,1539,1471,0,0
322,-447,0,0,0,0,0,0,0,0,0,-1,1546,1471,0,0
329,-447,0,0,0,0,0,0,0,0,0,-1,1553,1471,0,0
336,-447,0,0,0,0,0,0,0,0,0,-1,1560,1471,0,0
343,-447,0,0,0,0,0,0,0,0,0,-1,1567,1471,0,0
350,-447,0,0,0,0,0,0,0,0,0,-1,1574,1471,0,0
357,-447,0,0,0,0,0,0,0,0,0,-1,1581,1471,0,0
364,-447,0,0,0,0,0,0,0,0,0,-1,1588,1471,0,0
371,-447,0,0,0,0,0,0,0,0,0,-1,1595,1471,0,0
378,-447,0,0,0,0,0,0,0,0,0,-1,1602,1471,0,0
385,-447,0,0,0,0,0,0,0,0,0,-1,1609,1471,0,0
392,-447,0,0,0,0,0,0,0,0,0,-1,1616,1471,0,0
399,-447,0,0,0,0,0,0,0,0,0,-1,1623,1471,0,0
406,-447,0,0,0,0,0,0,0,0,0,-1,1630,1471,0,0
413,-447,0,0,0,0,0,0,0,0,0,-1,1637,1471,0,0
420,-447,0,0,0,0,0,0,0,0,0,-1,1644,1471,0,0
427,-447,0,0,0,0,0,0,0,0,0,-1,1651,1471,0,0
434,-447,0,0,0,0,0,0,0,0,0,-1,1658,1471,0,0
441,-447,0,0,0,0,0,0,0,0,0,-1,1665,1471,0,0
448,-447,0,0,0,0,0,0,0,0,0,-1,1672,1471,0,0
455,-447,0,0,0,0,0,0,0,0,0,-1,1679,1471,0,0
462,-447,0,0,0,0,0,0,0,0,0,-1,1686,1471,0,0
469,-447,0,0,0,0,0,0,0,0,0,-1,1693,1471,0,0
476,-447,0,0,0,0,0,0,0,0,0,-1,1700,1471,0,0
483,-447,0,0,0,0,0,0,0,0,0,-1,1707,1471,0,0
490,-447,18.2214,-0.810303,0,0,0,0,0,0,0,-1,1714,1471,18.2215,0.810307
497,-447,17.0237,0.352417,0,0,0,0,0,0,0,-1,1721,1471,17.0237,-0.352442
504,-447,15.8998,1.53479,0,0,0,0,0,0,0,-1,1728,1471,15.8997,-1.53478
511,-447,14.7201,2.76111,0,0,0,0,0,0,0,-1,1735,1471,14.7201,-2.76107
518,-447,17.7618,13.2864,0,0,0,0,0,0,0,-1,1742,1471,17.7619,-13.2863
525,-447,17.1191,11.9014,0,0,0,0,0,0,0,-1,1749,1471,17.1191,-11.9013
532,-447,16.3959,10.0455,0,0,0,0,0,0,0,-1,1756,1471,16.3959,-10.0456
539,-447,14.1699,10.0204,0,0,0,0,0,0,0,-1,1763,1471,14.1699,-10.0204
546,-447,16.3715,11.8046,0,0,0,0,0,0,0,-1,1770,1471,16.3714,-11.8046
553,-447,17.5106,13.4012,0,0,0,0,0,0,0,-1,1777,1471,17.5107,-13.4012
560,-447,17.0187,13.168,0,0,0,0,0,0,0,-1,1784,1471,17.0187,-13.168
567,-447,18.9286,15.1703,0,0,0,0,0,0,0,-1,1791,1471,18.9286,-15.1703
574,-447,25.5176,21.224,0,0,0,0,0,0,0,-1,1798,1471,25.5176,-21.224
581,-447,25.7354,20.3964,0,0,0,0,0,0,0,-1,1805,1471,25.7354,-20.3964
588,-447,25.7632,19.6685,0.00493113,0.0030497,-0.00299642,0.00713103,0.000849796,-0.633298,0.0044976,0.0277435,1812,1471,25.7632,-19.6685
595,-447,25.7706,19.0599,0.00388408,0.00246771,-0.00251198,0.0057858,0.000565995,-0.648002,0.00368306,0.0144236,1819,1471,25.7706,-19.0599
602,-447,25.7466,18.4749,0.00316349,0.00178804,-0.00197453,0.00456663,0.000384896,-0.617818,0.00292458,0.0119485,1826,1471,25.7466,-18.4748
609,-447,25.7343,17.936,0.00262046,0.00116921,-0.00146792,0.0035323,0.000257362,-0.555851,0.00227394,0.0131829,1833,1471,25.7343,-17.936
616,-447,25.7227,17.4041,0.00219961,0.000683667,-0.00103973,0.00272832,0.00015495,-0.470434,0.0017695,0.0146873,1840,1471,25.7226,-17.4041
623,-447,25.7168,16.8575,0.00205318,0.00019868,-0.000671319,0.00227069,-1.88242e-05,-0.313323,0.0015201,0.0156472,1847,1471,25.7167,-16.8575
630,-447,25.688,16.2938,0.00212743,-0.000265782,-0.000354519,0.00217884,-0.000317194,-0.144016,0.00156902,0.0097245,1854,1471,25.688,-16.2938
637,-447,25.6726,15.7396,0.00230095,-0.000602509,-8.54643e-05,0.00230346,-0.000605022,-0.0294014,0.00177208,0.0107222,1861,1471,25.6726,-15.7397
644,-447,25.6788,15.1838,0.00263271,-0.000808249,0.000127592,0.00263744,-0.000812974,0.0370126,0.00208286,0.0113778,1868,1471,25.6788,-15.1838
651,-447,25.807,14.458,0,0,0,0,0,0,0,-1,1875,1471,25.8069,-14.4581
658,-447,25.8036,14.0095,0,0,0,0,0,0,0,-1,1882,1471,25.8036,-14.0096
665,-447,18.4946,9.79919,0,0,0,0,0,0,0,-1,1889,1471,18.4946,-9.79922
672,-447,18.9784,9.66077,0,0,0,0,0,0,0,-1,1896,1471,18.9784,-9.66081
679,-447,14.844,7.4248,0,0,0,0,0,0,0,-1,1903,1471,14.844,-7.42477
686,-447,9.81079,4.30859,0,0,0,0,0,0,0,-1,1910,1471,9.8108,-4.30864
693,-447,10.48,2.08643,0,0,0,0,0,0,0,-1,1917,1471,10.48,-2.08642
700,-447,0,0,0,0,0,0,0,0,0,-1,1924,1471,0,0
707,-447,0,0,0,0,0,0,0,0,0,-1,1931,1471,0,0
714,-447,0,0,0,0,0,0,0,0,0,-1,1938,1471,0,0
721,-447,0,0,0,0,0,0,0,0,0,-1,1945,1471,0,0
728,-447,0,0,0,0,0,0,0,0,0,-1,1952,1471,0,0
735,-447,0,0,0,0,0,0,0,0,0,-1,1959,1471,0,0
742,-447,0,0,0,0,0,0,0,0,0,-1,1966,1471,0,0
749,-447,0,0,0,0,0,0,0,0,0,-1,1973,1471,0,0
756,-447,0,0,0,0,0,0,0,0,0,-1,1980,1471,0,0
763,-447,0,0,0,0,0,0,0,0,0,-1,1987,1471,0,0
770,-447,0,0,0,0,0,0,0,0,0,-1,1994,1471,0,0
777,-447,0,0,0,0,0,0,0,0,0,-1,2001,1471,0,0
784,-447,0,0,0,0,0,0,0,0,0,-1,2008,1471,0,0
791,-447,0,0,0,0,0,0,0,0,0,-1,2015,1471,0,0
798,-447,0,0,0,0,0,0,0,0,0,-1,2022,1471,0,0
805,-447,0,0,0,0,0,0,0,0,0,-1,2029,1471,0,0
812,-447,0,0,0,0,0,0,0,0,0,-1,2036,1471,0,0
-700,-454,0,0,0,0,0,0,0,0,0,-1,524,1478,0,0
-693,-454,0,0,0,0,0,0,0,0,0,-1,531,1478,0,0
-686,-454,0,0,0,0,0,0,0,0,0,-1,538,1478,0,0
-679,-454,0,0,0,0,0,0,0,0,0,-1,545,1478,0,0
-672,-454,0,0,0,0,0,0,0,0,0,-1,552,1478,0,0
-665,-454,0,0,0,0,0,0,0,0,0,-1,559,1478,0,0
-658,-454,0,0,0,0,0,0,0,0,0,-1,566,1478,0,0
-651,-454,0,0,0,0,0,0,0,0,0,-1,573,1478,0,0
-644,-454,0,0,0,0,0,0,0,0,0,-1,580,1478,0,0
-637,-454,0,0,0,0,0,0,0,0,0,-1,587,1478,0,0
-630,-454,0,0,0,0,0,0,0,0,0,-1,594,1478,0,0
-623,-454,0,0,0,0,0,0,0,0,0,-1,601,1478,0,0
-616,-454,0,0,0,0,0,0,0,0,0,-1,608,1478,0,0
-609,-454,0,0,0,0,0,0,0,0,0,-1,615,1478,0,0
-602,-454,0,0,0,0,0,0,0,0,0,-1,622,1478,0,0
-595,-454,0,0,0,0,0,0,0,0,0,-1,629,1478,0,0
-588,-454,0,0,0,0,0,0,0,0,0,-1,636,1478,0,0
-581,-454,0,0,0,0,0,0,0,0,0,-1,643,1478,0,0
-574,-454,-8.4881,-0.465942,0,0,0,0,0,0,0,-1,650,1478,-8.4881,0.465885
-567,-454,-8.10046,0.922974,0,0,0,0,0,0,0,-1,657,1478,-8.10047,-0.923034
-560,-454,-10.656,3.51172,0,0,0,0,0,0,0,-1,664,1478,-10.656,-3.51176
-553,-454,-9.01129,3.95251,0,0,0,0,0,0,0,-1,671,1478,-9.0113,-3.95256
-546,-454,-9.61896,6.05237,0,0,0,0,0,0,0,-1,678,1478,-9.61897,-6.05239
-539,-454,-7.72589,4.96533,0,0,0,0,0,0,0,-1,685,1478,-7.72592,-4.96532
-532,-454,-7.03931,7.59985,0,0,0,0,0,0,0,-1,692,1478,-7.03929,-7.59981
-525,-454,-5.78723,9.677,0,0,0,0,0,0,0,-1,699,1478,-5.78722,-9.67703
-518,-454,-8.95483,12.9135,0,0,0,0,0,0,0,-1,706,1478,-8.95485,-12.9135
-511,-454,-9.15399,13.4254,0.0028241,0.00130041,0.00229665,0.00448197,-0.000357463,0.625249,0.00311398,0.0475535,713,1478,-9.15399,-13.4254
-504,-454,-9.08661,14.1484,0.00217362,0.000790973,0.00168593,0.00330446,-0.000339865,0.590825,0.00232456,0.0181852,720,1478,-9.08661,-14.1484
-497,-454,-9.12469,14.8185,0.00165852,0.000555305,0.00124952,0.00247277,-0.000258943,0.577535,0.00174125,0.0184972,727,1478,-9.12471,-14.8185
-490,-454,-9.12939,15.3625,0.00138838,0.000559032,0.00103069,0.00208469,-0.000137277,0.594143,0.00143774,0.016653,734,1478,-9.12941,-15.3626
-483,-454,-9.17407,15.9259,0.00134679,0.000800589,0.00101985,0.00212947,1.79051e-05,0.654576,0.00141372,0.0152929,741,1478,-9.17407,-15.9259
-476,-454,-9.20874,16.4917,0.00152506,0.00126792,0.00124697,0.00265007,0.000142906,0.734027,0.00172106,0.0135167,748,1478,-9.20871,-16.4917
-469,-454,-9.22168,17.0968,0.00195035,0.00201978,0.00176848,0.00375389,0.000216244,0.795212,0.00243372,0.0103497,755,1478,-9.22171,-17.0968
-462,-454,-9.24518,17.7073,0.00258555,0.00294607,0.00247309,0.00524546,0.000286165,0.821779,0.00340559,0.0104625,762,1478,-9.24515,-17.7073
-455,-454,-9.27753,18.2931,0.00355049,0.00414675,0.0035162,0.00737744,0.000319803,0.827691,0.00481524,0.0115075,769,1478,-9.27751,-18.293
-448,-454,-9.2608,18.9238,0.00487454,0.00578817,0.00497249,0.0103248,0.000337929,0.831203,0.00677336,0.0201118,776,1478,-9.26081,-18.9238
-441,-454,-8.98065,19.9158,0,0,0,0,0,0,0,-1,783,1478,-8.98067,-19.9158
-434,-454,-7.55743,19.4857,0,0,0,0,0,0,0,-1,790,1478,-7.55746,-19.4858
-427,-454,-6.00183,15.8636,0,0,0,0,0,0,0,-1,797,1478,-6.00184,-15.8637
-420,-454,-6.28088,15.2135,0,0,0,0,0,0,0,-1,804,1478,-6.28087,-15.2135
-413,-454,-5.4408,13.674,0,0,0,0,0,0,0,-1,811,1478,-5.44079,-13.6739
-406,-454,-2.38208,10.0308,0,0,0,0,0,0,0,-1,818,1478,-2.38209,-10.0308
-399,-454,-1.21033,6.95447,0,0,0,0,0,0,0,-1,825,1478,-1.21035,-6.95452
-392,-454,0.0967407,0.985474,0,0,0,0,0,0,0,-1,832,1478,0.0967364,-0.985529
-385,-454,2.38629,3.297,0,0,0,0,0,0,0,-1,839,1478,2.38629,-3.29702
-378,-454,-15.9756,2.83997,0,0,0,0,0,0,0,-1,846,1478,-15.9756,-2.83994
-371,-454,-17.2753,2.01453,0,0,0,0,0,0,0,-1,853,1478,-17.2753,-2.01455
-364,-454,1.08124,0.819458,0,0,0,0,0,0,0,-1,860,1478,1.08124,-0.819513
-357,-454,0,0,0,0,0,0,0,0,0,-1,867,1478,0,0
-350,-454,0,0,0,0,0,0,0,0,0,-1,874,1478,0,0
-343,-454,0,0,0,0,0,0,0,0,0,-1,881,1478,0,0
-336,-454,0,0,0,0,0,0,0,0,0,-1,888,1478,0,0
-329,-454,0,0,0,0,0,0,0,0,0,-1,895,1478,0,0
-322,-454,0,0,0,0,0,0,0,0,0,-1,902,1478,0,0
-315,-454,0,0,0,0,0,0,0,0,0,-1,909,1478,0,0
-308,-454,0,0,0,0,0,0,0,0,0,-1,916,1478,0,0
-301,-454,0,0,0,0,0,0,0,0,0,-1,923,1478,0,0
-294,-454,0,0,0,0,0,0,0,0,0,-1,930,1478,0,0
-287,-454,0,0,0,0,0,0,0,0,0,-1,937,1478,0,0
-280,-454,0,0,0,0,0,0,0,0,0,-1,944,1478,0,0
-273,-454,0,0,0,0,0,0,0,0,0,-1,951,1478,0,0
-266,-454,0,0,0,0,0,0,0,0,0,-1,958,1478,0,0
-259,-454,0,0,0,0,0,0,0,0,0,-1,965,1478,0,0
-252,-454,0,0,0,0,0,0,0,0,0,-1,972,1478,0,0
-245,-454,0,0,0,0,0,0,0,0,0,-1,979,1478,0,0
-238,-454,0,0,0,0,0,0,0,0,0,-1,986,1478,0,0
-231,-454,0,0,0,0,0,0,0,0,0,-1,993,1478,0,0
-224,-454,0,0,0,0,0,0,0,0,0,-1,1000,1478,0,0
-217,-454,0,0,0,0,0,0,0,0,0,-1,1007,1478,0,0
-210,-454,0,0,0,0,0,0,0,0,0,-1,1014,1478,0,0
-203,-454,0,0,0,0,0,0,0,0,0,-1,1021,1478,0,0
-196,-454,0,0,0,0,0,0,0,0,0,-1,1028,1478,0,0
-189,-454,0,0,0,0,0,0,0,0,0,-1,1035,1478,0,0
-182,-454,0,0,0,0,0,0,0,0,0,-1,1042,1478,0,0
-175,-454,0,0,0,0,0,0,0,0,0,-1,1049,1478,0,0
-168,-454,0,0,0,0,0,0,0,0,0,-1,1056,1478,0,0
-161,-454,0,0,0,0,0,0,0,0,0,-1,1063,1478,0,0
-154,-454,0,0,0,0,0,0,0,0,0,-1,1070,1478,0,0
-147,-454,0,0,0,0,0,0,0,0,0,-1,1077,1478,0,0
-140,-454,0,0,0,0,0,0,0,0,0,-1,1084,1478,0,0
-133,-454,0,0,0,0,0,0,0,0,0,-1,1091,1478,0,0
-126,-454,0,0,0,0,0,0,0,0,0,-1,1098,1478,0,0
-119,-454,0,0,0,0,0,0,0,0,0,-1,1105,1478,0,0
-112,-454,0,0,0,0,0,0,0,0,0,-1,1112,1478,0,0
-105,-454,0,0,0,0,0,0,0,0,0,-1,1119,1478,0,0
-98,-454,0,0,0,0,0,0,0,0,0,-1,1126,1478,0,0
-91,-454,0,0,0,0,0,0,0,0,0,-1,1133,1478,0,0
-84,-454,0,0,0,0,0,0,0,0,0,-1,1140,1478,0,0
-77,-454,0,0,0,0,0,0,0,0,0,-1,1147,1478,0,0
-70,-454,0,0,0,0,0,0,0,0,0,-1,1154,1478,0,0
-63,-454,0,0,0,0,0,0,0,0,0,-1,1161,1478,0,0
-56,-454,0,0,0,0,0,0,0,0,0,-1,1168,1478,0,0
-49,-454,0,0,0,0,0,0,0,0,0,-1,1175,1478,0,0
-42,-454,0,0,0,0,0,0,0,0,0,-1,1182,1478,0,0
-35,-454,0,0,0,0,0,0,0,0,0,-1,1189,1478,0,0
-28,-454,0,0,0,0,0,0,0,0,0,-1,1196,1478,0,0
-21,-454,0,0,0,0,0,0,0,0,0,-1,1203,1478,0,0
-14,-454,0,0,0,0,0,0,0,0,0,-1,1210,1478,0,0
-7,-454,0,0,0,0,0,0,0,0,0,-1,1217,1478,0,0
0,-454,0,0,0,0,0,0,0,0,0,-1,1224,1478,0,0
7,-454,0,0,0,0,0,0,0,0,0,-1,1231,1478,0,0
14,-454,0,0,0,0,0,0,0,0,0,-1,1238,1478,0,0
21,-454,0,0,0,0,0,0,0,0,0,-1,1245,1478,0,0
28,-454,0,0,0,0,0,0,0,0,0,-1,1252,1478,0,0
35,-454,0,0,0,0,0,0,0,0,0,-1,1259,1478,0,0
42,-454,0,0,0,0,0,0,0,0,0,-1,1266,1478,0,0
49,-454,0,0,0,0,0,0,0,0,0,-1,1273,1478,0,0
56,-454,0,0,0,0,0,0,0,0,0,-1,1280,1478,0,0
63,-454,0,0,0,0,0,0,0,0,0,-1,1287,1478,0,0
70,-454,0,0,0,0,0,0,0,0,0,-1,1294,1478,0,0
77,-454,0,0,0,0,0,0,0,0,0,-1,1301,1478,0,0
84,-454,0,0,0,0,0,0,0,0,0,-1,1308,1478,0,0
91,-454,0,0,0,0,0,0,0,0,0,-1,1315,1478,0,0
98,-454,0,0,0,0,0,0,0,0,0,-1,1322,1478,0,0
105,-454,0,0,0,0,0,0,0,0,0,-1,1329,1478,0,0
112,-454,0,0,0,0,0,0,0,0,0,-1,1336,1478,0,0
119,-454,0,0,0,0,0,0,0,0,0,-1,1343,1478,0,0
126,-454,0,0,0,0,0,0,0,0,0,-1,1350,1478,0,0
133,-454,0,0,0,0,0,0,0,0,0,-1,1357,1478,0,0
140,-454,0,0,0,0,0,0,0,0,0,-1,1364,1478,0,0
147,-454,0,0,0,0,0,0,0,0,0,-1,1371,1478,0,0
154,-454,0,0,0,0,0,0,0,0,0,-1,1378,1478,0,0
161,-454,0,0,0,0,0,0,0,0,0,-1,1385,1478,0,0
168,-454,0,0,0,0,0,0,0,0,0,-1,1392,1478,0,0
175,-454,0,0,0,0,0,0,0,0,0,-1,1399,1478,0,0
182,-454,0,0,0,0,0,0,0,0,0,-1,1406,1478,0,0
189,-454,0,0,0,0,0,0,0,0,0,-1,1413,1478,0,0
196,-454,0,0,0,0,0,0,0,0,0,-1,1420,1478,0,0
203,-454,0,0,0,0,0,0,0,0,0,-1,1427,1478,0,0
210,-454,0,0,0,0,0,0,0,0,0,-1,1434,1478,0,0
217,-454,0,0,0,0,0,0,0,0,0,-1,1441,1478,0,0
224,-454,0,0,0,0,0,0,0,0,0,-1,1448,1478,0,0
231,-454,0,0,0,0,0,0,0,0,0,-1,1455,1478,0,0
238,-454,0,0,0,0,0,0,0,0,0,-1,1462,1478,0,0
245,-454,0,0,0,0,0,0,0,0,0,-1,1469,1478,0,0
252,-454,0,0,0,0,0,0,0,0,0,-1,1476,1478,0,0
259,-454,0,0,0,0,0,0,0,0,0,-1,1483,1478,0,0
266,-454,0,0,0,0,0,0,0,0,0,-1,1490,1478,0,0
273,-454,0,0,0,0,0,0,0,0,0,-1,1497,1478,0,0
280,-454,0,0,0,0,0,0,0,0,0,-1,1504,1478,0,0
287,-454,0,0,0,0,0,0,0,0,0,-1,1511,1478,0,0
294,-454,0,0,0,0,0,0,0,0,0,-1,1518,1478,0,0
301,-454,0,0,0,0,0,0,0,0,0,-1,1525,1478,0,0
308,-454,0,0,0,0,0,0,0,0,0,-1,1532,1478,0,0
315,-454,0,0,0,0,0,0,0,0,0,-1,1539,1478,0,0
322,-454,0,0,0,0,0,0,0,0,0,-1,1546,1478,0,0
329,-454,0,0,0,0,0,0,0,0,0,-1,1553,1478,0,0
336,-454,0,0,0,0,0,0,0,0,0,-1,1560,1478,0,0
343,-454,0,0,0,0,0,0,0,0,0,-1,1567,1478,0,0
350,-454,0,0,0,0,0,0,0,0,0,-1,1574,1478,0,0
357,-454,0,0,0,0,0,0,0,0,0,-1,1581,1478,0,0
364,-454,0,0,0,0,0,0,0,0,0,-1,1588,1478,0,0
371,-454,0,0,0,0,0,0,0,0,0,-1,1595,1478,0,0
378,-454,0,0,0,0,0,0,0,0,0,-1,1602,1478,0,0
385,-454,0,0,0,0,0,0,0,0,0,-1,1609,1478,0,0
392,-454,0,0,0,0,0,0,0,0,0,-1,1616,1478,0,0
399,-454,0,0,0,0,0,0,0,0,0,-1,1623,1478,0,0
406,-454,0,0,0,0,0,0,0,0,0,-1,1630,1478,0,0
413,-454,0,0,0,0,0,0,0,0,0,-1,1637,1478,0,0
420,-454,0,0,0,0,0,0,0,0,0,-1,1644,1478,0,0
427,-454,0,0,0,0,0,0,0,0,0,-1,1651,1478,0,0
434,-454,0,0,0,0,0,0,0,0,0,-1,1658,1478,0,0
441,-454,0,0,0,0,0,0,0,0,0,-1,1665,1478,0,0
448,-454,0,0,0,0,0,0,0,0,0,-1,1672,1478,0,0
455,-454,0,0,0,0,0,0,0,0,0,-1,1679,1478,0,0
462,-454,0,0,0,0,0,0,0,0,0,-1,1686,1478,0,0
469,-454,0,0,0,0,0,0,0,0,0,-1,1693,1478,0,0
476,-454,0,0,0,0,0,0,0,0,0,-1,1700,1478,0,0
483,-454,14.2399,3.97498,0,0,0,0,0,0,0,-1,1707,1478,14.2399,-3.97502
490,-454,18.1821,-0.175781,0,0,0,0,0,0,0,-1,1714,1478,18.1821,0.175822
497,-454,16.8854,1.01208,0,0,0,0,0,0,0,-1,1721,1478,16.8854,-1.01209
504,-454,15.587,2.05994,0,0,0,0,0,0,0,-1,1728,1478,15.5871,-2.05998
511,-454,17.0273,14.5258,0,0,0,0,0,0,0,-1,1735,1478,17.0273,-14.5258
518,-454,16.4158,13.1039,0,0,0,0,0,0,0,-1,1742,1478,16.4157,-13.1038
525,-454,15.7842,11.6628,0,0,0,0,0,0,0,-1,1749,1478,15.7841,-11.6629
532,-454,15.1094,10.2476,0,0,0,0,0,0,0,-1,1756,1478,15.1094,-10.2475
539,-454,13.7905,10.9373,0,0,0,0,0,0,0,-1,1763,1478,13.7906,-10.9372
546,-454,16.2002,13.2458,0,0,0,0,0,0,0,-1,1770,1478,16.2002,-13.2459
553,-454,15.6747,12.1868,0,0,0,0,0,0,0,-1,1777,1478,15.6747,-12.1868
560,-454,16.3895,14.0527,0,0,0,0,0,0,0,-1,1784,1478,16.3895,-14.0528
567,-454,25.3823,21.5967,0,0,0,0,0,0,0,-1,1791,1478,25.3823,-21.5967
574,-454,25.2434,20.8518,0.00659959,0.00353534,-0.00320992,0.00862429,0.00151064,-0.562733,0.00531799,0.0415826,1798,1478,25.2435,-20.8518
581,-454,25.2267,20.2292,0.00529518,0.00305496,-0.00279403,0.00718526,0.00116488,-0.59476,0.00445296,0.0253401,1805,1478,25.2266,-20.2292
588,-454,25.2771,19.6215,0.00416626,0.00245092,-0.00234845,0.00580875,0.00080843,-0.610319,0.00363313,0.0144917,1812,1478,25.2771,-19.6214
595,-454,25.2269,19.0616,0.00331938,0.00190656,-0.00195528,0.00469194,0.000534004,-0.612052,0.00296603,0.0132371,1819,1478,25.2269,-19.0617
602,-454,25.1915,18.496,0.00273266,0.00132599,-0.00154273,0.00372482,0.000333832,-0.571523,0.00237975,0.00963697,1826,1478,25.1915,-18.496
609,-454,25.1964,17.9561,0.00231406,0.000794557,-0.00113516,0.00292025,0.000188365,-0.490489,0.00188718,0.0114952,1833,1478,25.1964,-17.956
616,-454,25.1815,17.4238,0.0020274,0.000358476,-0.000774379,0.00233135,5.45233e-05,-0.374035,0.00153638,0.0143492,1840,1478,25.1815,-17.4239
623,-454,25.1786,16.885,0.00201323,-0.00013319,-0.000437675,0.00209905,-0.000219005,-0.193614,0.00147779,0.0142283,1847,1478,25.1786,-16.885
630,-454,25.176,16.3337,0.00221085,-0.000600999,-0.000128764,0.00221674,-0.000606883,-0.0456659,0.00171627,0.0138284,1854,1478,25.176,-16.3338
637,-454,25.1125,15.7778,0.00252563,-0.000974225,0.000122419,0.00252991,-0.000978502,0.0349215,0.00209055,0.0120909,1861,1478,25.1125,-15.7778
644,-454,25.1576,15.209,0.00304705,-0.00117541,0.000239674,0.00306061,-0.00118897,0.0565197,0.00253157,0.0220305,1868,1478,25.1576,-15.209
651,-454,25.2374,14.6158,0,0,0,0,0,0,0,-1,1875,1478,25.2374,-14.6159
658,-454,17.2583,10.0765,0,0,0,0,0,0,0,-1,1882,1478,17.2583,-10.0765
665,-454,17.683,9.67566,0,0,0,0,0,0,0,-1,1889,1478,17.683,-9.67572
672,-454,16.5476,6.41931,0,0,0,0,0,0,0,-1,1896,1478,16.5476,-6.41929
679,-454,14.2161,5.45007,0,0,0,0,0,0,0,-1,1903,1478,14.2161,-5.45013
686,-454,10.3767,2.12842,0,0,0,0,0,0,0,-1,1910,1478,10.3767,-2.12839
693,-454,11.1857,1.48486,0,0,0,0,0,0,0,-1,1917,1478,11.1857,-1.48487
700,-454,0,0,0,0,0,0,0,0,0,-1,1924,1478,0,0
707,-454,0,0,0,0,0,0,0,0,0,-1,1931,1478,0,0
714,-454,0,0,0,0,0,0,0,0,0,-1,1938,1478,0,0
721,-454,0,0,0,0,0,0,0,0,0,-1,1945,1478,0,0
728,-454,0,0,0,0,0,0,0,0,0,-1,1952,1478,0,0
735,-454,0,0,0,0,0,0,0,0,0,-1,1959,1478,0,0
742,-454,0,0,0,0,0,0,0,0,0,-1,1966,1478,0,0
749,-454,0,0,0,0,0,0,0,0,0,-1,1973,1478,0,0
756,-454,0,0,0,0,0,0,0,0,0,-1,1980,1478,0,0
763,-454,0,0,0,0,0,0,0,0,0,-1,1987,1478,0,0
770,-454,0,0,0,0,0,0,0,0,0,-1,1994,1478,0,0
777,-454,0,0,0,0,0,0,0,0,0,-1,2001,1478,0,0
784,-454,0,0,0,0,0,0,0,0,0,-1,2008,1478,0,0
791,-454,0,0,0,0,0,0,0,0,0,-1,2015,1478,0,0
798,-454,0,0,0,0,0,0,0,0,0,-1,2022,1478,0,0
805,-454,0,0,0,0,0,0,0,0,0,-1,2029,1478,0,0
812,-454,0,0,0,0,0,0,0,0,0,-1,2036,1478,0,0
-700,-461,0,0,0,0,0,0,0,0,0,-1,524,1485,0,0
-693,-461,0,0,0,0,0,0,0,0,0,-1,531,1485,0,0
-686,-461,0,0,0,0,0,0,0,0,0,-1,538,1485,0,0
-679,-461,0,0,0,0,0,0,0,0,0,-1,545,1485,0,0
-672,-461,0,0,0,0,0,0,0,0,0,-1,552,1485,0,0
-665,-461,0,0,0,0,0,0,0,0,0,-1,559,1485,0,0
-658,-461,0,0,0,0,0,0,0,0,0,-1,566,1485,0,0
-651,-461,0,0,0,0,0,0,0,0,0,-1,573,1485,0,0
-644,-461,0,0,0,0,0,0,0,0,0,-1,580,1485,0,0
-637,-461,0,0,0,0,0,0,0,0,0,-1,587,1485,0,0
-630,-461,0,0,0,0,0,0,0,0,0,-1,594,1485,0,0
-623,-461,0,0,0,0,0,0,0,0,0,-1,601,1485,0,0
-616,-461,0,0,0,0,0,0,0,0,0,-1,608,1485,0,0
-609,-461,0,0,0,0,0,0,0,0,0,-1,615,1485,0,0
-602,-461,0,0,0,0,0,0,0,0,0,-1,622,1485,0,0
-595,-461,0,0,0,0,0,0,0,0,0,-1,629,1485,0,0
-588,-461,0,0,0,0,0,0,0,0,0,-1,636,1485,0,0
-581,-461,0,0,0,0,0,0,0,0,0,-1,643,1485,0,0
-574,-461,0,0,0,0,0,0,0,0,0,-1,650,1485,0,0
-567,-461,-9.69031,0.513306,0,0,0,0,0,0,0,-1,657,1485,-9.69032,-0.513305
-560,-461,-7.28815,1.54004,0,0,0,0,0,0,0,-1,664,1485,-7.28817,-1.54005
-553,-461,-11.9607,5.27783,0,0,0,0,0,0,0,-1,671,1485,-11.9607,-5.27778
-546,-461,-11.4215,4.44666,0,0,0,0,0,0,0,-1,678,1485,-11.4215,-4.4467
-539,-461,-9.36493,5.23438,0,0,0,0,0,0,0,-1,685,1485,-9.3649,-5.23432
-532,-461,-7.82898,6.78357,0,0,0,0,0,0,0,-1,692,1485,-7.829,-6.78363
-525,-461,-6.37878,8.75659,0,0,0,0,0,0,0,-1,699,1485,-6.3788,-8.75659
-518,-461,-6.49695,10.886,0,0,0,0,0,0,0,-1,706,1485,-6.49696,-10.8859
-511,-461,-8.77441,13.4429,0,0,0,0,0,0,0,-1,713,1485,-8.77442,-13.4429
-504,-461,-8.58081,14.0991,0.001626,-0.000313021,0.00175982,0.0026657,-0.00135272,0.533626,0.00236096,0.02941,720,1485,-8.5808,-14.0991
-497,-461,-8.50818,14.7979,0.000984372,-0.000515024,0.00116203,0.00161756,-0.00114821,0.498915,0.00160446,0.0114364,727,1485,-8.50818,-14.7978
-490,-461,-8.5459,15.379,0.00065438,-0.000459536,0.000813374,0.00108321,-0.000888367,0.485189,0.00114014,0.0125373,734,1485,-8.54588,-15.379
-483,-461,-8.59277,15.9548,0.000635284,-0.000132817,0.00072005,0.0010673,-0.000564835,0.540407,0.000957083,0.012657,741,1485,-8.59275,-15.9549
-476,-461,-8.62714,16.546,0.000868065,0.000416385,0.000869546,0.00154062,-0.00025617,0.658344,0.00112226,0.0116475,748,1485,-8.62716,-16.546
-469,-461,-8.62604,17.1083,0.00137039,0.00123719,0.00131927,0.00262474,-1.71604e-05,0.760178,0.00175558,0.0127961,755,1485,-8.62604,-17.1082
-462,-461,-8.64691,17.679,0.00207796,0.00220389,0.00194564,0.00408758,0.000194271,0.801573,0.00266266,0.0176031,762,1485,-8.64692,-17.679
-455,-461,-8.71655,18.2706,0.0030456,0.00336037,0.0028487,0.00605603,0.000349947,0.812994,0.00392591,0.0215804,769,1485,-8.71653,-18.2707
-448,-461,-8.70532,18.9132,0.00438444,0.00492329,0.00417001,0.00883257,0.000475158,0.817658,0.00573656,0.0193434,776,1485,-8.70533,-18.9132
-441,-461,-8.58594,19.5966,0.0060649,0.00665009,0.00589743,0.0122622,0.000452804,0.810185,0.00802811,0.0306138,783,1485,-8.58595,-19.5966
-434,-461,-8.51801,20.2135,0,0,0,0,0,0,0,-1,790,1485,-8.51798,-20.2135
-427,-461,-7.73358,20.3715,0,0,0,0,0,0,0,-1,797,1485,-7.7336,-20.3715
-420,-461,-5.70355,16.6116,0,0,0,0,0,0,0,-1,804,1485,-5.70353,-16.6115
-413,-461,-5.98798,16.0605,0,0,0,0,0,0,0,-1,811,1485,-5.98796,-16.0605
-406,-461,-5.52667,14.839,0,0,0,0,0,0,0,-1,818,1485,-5.52666,-14.839
-399,-461,-1.93439,9.82849,0,0,0,0,0,0,0,-1,825,1485,-1.9344,-9.82846
-392,-461,-0.357544,5.55225,0,0,0,0,0,0,0,-1,832,1485,-0.357536,-5.55228
-385,-461,1.71509,3.35254,0,0,0,0,0,0,0,-1,839,1485,1.71511,-3.35255
-378,-461,1.95996,3.01111,0,0,0,0,0,0,0,-1,846,1485,1.95993,-3.01111
-371,-461,0.702881,2.33459,0,0,0,0,0,0,0,-1,853,1485,0.702859,-2.33459
-364,-461,-1.93097,2.56458,0,0,0,0,0,0,0,-1,860,1485,-1.93095,-2.56456
-357,-461,-2.41516,3.49487,0,0,0,0,0,0,0,-1,867,1485,-2.41517,-3.49487
-350,-461,0,0,0,0,0,0,0,0,0,-1,874,1485,0,0
-343,-461,0,0,0,0,0,0,0,0,0,-1,881,1485,0,0
-336,-461,0,0,0,0,0,0,0,0,0,-1,888,1485,0,0
-329,-461,0,0,0,0,0,0,0,0,0,-1,895,1485,0,0
-322,-461,0,0,0,0,0,0,0,0,0,-1,902,1485,0,0
-315,-461,0,0,0,0,0,0,0,0,0,-1,909,1485,0,0
-308,-461,0,0,0,0,0,0,0,0,0,-1,916,1485,0,0
-301,-461,0,0,0,0,0,0,0,0,0,-1,923,1485,0,0
-294,-461,0,0,0,0,0,0,0,0,0,-1,930,1485,0,0
-287,-461,0,0,0,0,0,0,0,0,0,-1,937,1485,0,0
-280,-461,0,0,0,0,0,0,0,0,0,-1,944,1485,0,0
-273,-461,0,0,0,0,0,0,0,0,0,-1,951,1485,0,0
-266,-461,0,0,0,0,0,0,0,0,0,-1,958,1485,0,0
-259,-461,0,0,0,0,0,0,0,0,0,-1,965,1485,0,0
-252,-461,0,0,0,0,0,0,0,0,0,-1,972,1485,0,0
-245,-461,0,0,0,0,0,0,0,0,0,-1,979,1485,0,0
-238,-461,0,0,0,0,0,0,0,0,0,-1,986,1485,0,0
-231,-461,0,0,0,0,0,0,0,0,0,-1,993,1485,0,0
-224,-461,0,0,0,0,0,0,0,0,0,-1,1000,1485,0,0
-217,-461,0,0,0,0,0,0,0,0,0,-1,1007,1485,0,0
-210,-461,0,0,0,0,0,0,0,0,0,-1,1014,1485,0,0
-203,-461,0,0,0,0,0,0,0,0,0,-1,1021,1485,0,0
-196,-461,0,0,0,0,0,0,0,0,0,-1,1028,1485,0,0
-189,-461,0,0,0,0,0,0,0,0,0,-1,1035,1485,0,0
-182,-461,0,0,0,0,0,0,0,0,0,-1,1042,1485,0,0
-175,-461,0,0,0,0,0,0,0,0,0,-1,1049,1485,0,0
-168,-461,0,0,0,0,0,0,0,0,0,-1,1056,1485,0,0
-161,-461,0,0,0,0,0,0,0,0,0,-1,1063,1485,0,0
-154,-461,0,0,0,0,0,0,0,0,0,-1,1070,1485,0,0
-147,-461,0,0,0,0,0,0,0,0,0,-1,1077,1485,0,0
-140,-461,0,0,0,0,0,0,0,0,0,-1,1084,1485,0,0
-133,-461,0,0,0,0,0,0,0,0,0,-1,1091,1485,0,0
-126,-461,0,0,0,0,0,0,0,0,0,-1,1098,1485,0,0
-119,-461,0,0,0,0,0,0,0,0,0,-1,1105,1485,0,0
-112,-461,0,0,0,0,0,0,0,0,0,-1,1112,1485,0,0
-105,-461,0,0,0,0,0,0,0,0,0,-1,1119,1485,0,0
-98,-461,0,0,0,0,0,0,0,0,0,-1,1126,1485,0,0
-91,-461,0,0,0,0,0,0,0,0,0,-1,1133,1485,0,0
-84,-461,0,0,0,0,0,0,0,0,0,-1,1140,1485,0,0
-77,-461,0,0,0,0,0,0,0,0,0,-1,1147,1485,0,0
-70,-461,0,0,0,0,0,0,0,0,0,-1,1154,1485,0,0
-63,-461,0,0,0,0,0,0,0,0,0,-1,1161,1485,0,0
-56,-461,0,0,0,0,0,0,0,0,0,-1,1168,1485,0,0
-49,-461,0,0,0,0,0,0,0,0,0,-1,1175,1485,0,0
-42,-461,0,0,0,0,0,0,0,0,0,-1,1182,1485,0,0
-35,-461,0,0,0,0,0,0,0,0,0,-1,1189,1485,0,0
-28,-461,0,0,0,0,0,0,0,0,0,-1,1196,1485,0,0
-21,-461,0,0,0,0,0,0,0,0,0,-1,1203,1485,0,0
-14,-461,0,0,0,0,0,0,0,0,0,-1,1210,1485,0,0
-7,-461,0,0,0,0,0,0,0,0,0,-1,1217,1485,0,0
0,-461,0,0,0,0,0,0,0,0,0,-1,1224,1485,0,0
7,-461,0,0,0,0,0,0,0,0,0,-1,1231,1485,0,0
14,-461,0,0,0,0,0,0,0,0,0,-1,1238,1485,0,0
21,-461,0,0,0,0,0,0,0,0,0,-1,1245,1485,0,0
28,-461,0,0,0,0,0,0,0,0,0,-1,1252,1485,0,0
35,-461,0,0,0,0,0,0,0,0,0,-1,1259,1485,0,0
42,-461,0,0,0,0,0,0,0,0,0,-1,1266,1485,0,0
49,-461,0,0,0,0,0,0,0,0,0,-1,1273,1485,0,0
56,-461,0,0,0,0,0,0,0,0,0,-1,1280,1485,0,0
63,-461,0,0,0,0,0,0,0,0,0,-1,1287,1485,0,0
70,-461,0,0,0,0,0,0,0,0,0,-1,1294,1485,0,0
77,-461,0,0,0,0,0,0,0,0,0,-1,1301,1485,0,0
84,-461,0,0,0,0,0,0,0,0,0,-1,1308,1485,0,0
91,-461,0,0,0,0,0,0,0,0,0,-1,1315,1485,0,0
98,-461,0,0,0,0,0,0,0,0,0,-1,1322,1485,0,0
105,-461,0,0,0,0,0,0,0,0,0,-1,1329,1485,0,0
112,-461,0,0,0,0,0,0,0,0,0,-1,1336,1485,0,0
119,-461,0,0,0,0,0,0,0,0,0,-1,1343,1485,0,0
126,-461,0,0,0,0,0,0,0,0,0,-1,1350,1485,0,0
133,-461,0,0,0,0,0,0,0,0,0,-1,1357,1485,0,0
140,-461,0,0,0,0,0,0,0,0,0,-1,1364,1485,0,0
147,-461,0,0,0,0,0,0,0,0,0,-1,1371,1485,0,0
154,-461,0,0,0,0,0,0,0,0,0,-1,1378,1485,0,0
161,-461,0,0,0,0,0,0,0,0,0,-1,1385,1485,0,0
168,-461,0,0,0,0,0,0,0,0,0,-1,1392,1485,0,0
175,-461,0,0,0,0,0,0,0,0,0,-1,1399,1485,0,0
182,-461,0,0,0,0,0,0,0,0,0,-1,1406,1485,0,0
189,-461,0,0,0,0,0,0,0,0,0,-1,1413,1485,0,0
196,-461,0,0,0,0,0,0,0,0,0,-1,1420,1485,0,0
203,-461,0,0,0,0,0,0,0,0,0,-1,1427,1485,0,0
210,-461,0,0,0,0,0,0,0,0,0,-1,1434,1485,0,0
217,-461,0,0,0,0,0,0,0,0,0,-1,1441,1485,0,0
224,-461,0,0,0,0,0,0,0,0,0,-1,1448,1485,0,0
231,-461,0,0,0,0,0,0,0,0,0,-1,1455,1485,0,0
238,-461,0,0,0,0,0,0,0,0,0,-1,1462,1485,0,0
245,-461,0,0,0,0,0,0,0,0,0,-1,1469,1485,0,0
252,-461,0,0,0,0,0,0,0,0,0,-1,1476,1485,0,0
259,-461,0,0,0,0,0,0,0,0,0,-1,1483,1485,0,0
266,-461,0,0,0,0,0,0,0,0,0,-1,1490,1485,0,0
273,-461,0,0,0,0,0,0,0,0,0,-1,1497,1485,0,0
280,-461,0,0,0,0,0,0,0,0,0,-1,1504,1485,0,0
287,-461,0,0,0,0,0,0,0,0,0,-1,1511,1485,0,0
294,-461,0,0,0,0,0,0,0,0,0,-1,1518,1485,0,0
301,-461,0,0,0,0,0,0,0,0,0,-1,1525,1485,0,0
308,-461,0,0,0,0,0,0,0,0,0,-1,1532,1485,0,0
315,-461,0,0,0,0,0,0,0,0,0,-1,1539,1485,0,0
322,-461,0,0,0,0,0,0,0,0,0,-1,1546,1485,0,0
329,-461,0,0,0,0,0,0,0,0,0,-1,1553,1485,0,0
336,-461,0,0,0,0,0,0,0,0,0,-1,1560,1485,0,0
343,-461,0,0,0,0,0,0,0,0,0,-1,1567,1485,0,0
350,-461,0,0,0,0,0,0,0,0,0,-1,1574,1485,0,0
357,-461,0,0,0,0,0,0,0,0,0,-1,1581,1485,0,0
364,-461,0,0,0,0,0,0,0,0,0,-1,1588,1485,0,0
371,-461,0,0,0,0,0,0,0,0,0,-1,1595,1485,0,0
378,-461,0,0,0,0,0,0,0,0,0,-1,1602,1485,0,0
385,-461,0,0,0,0,0,0,0,0,0,-1,1609,1485,0,0
392,-461,0,0,0,0,0,0,0,0,0,-1,1616,1485,0,0
399,-461,0,0,0,0,0,0,0,0,0,-1,1623,1485,0,0
406,-461,0,0,0,0,0,0,0,0,0,-1,1630,1485,0,0
413,-461,0,0,0,0,0,0,0,0,0,-1,1637,1485,0,0
420,-461,0,0,0,0,0,0,0,0,0,-1,1644,1485,0,0
427,-461,0,0,0,0,0,0,0,0,0,-1,1651,1485,0,0
434,-461,0,0,0,0,0,0,0,0,0,-1,1658,1485,0,0
441,-461,0,0,0,0,0,0,0,0,0,-1,1665,1485,0,0
448,-461,0,0,0,0,0,0,0,0,0,-1,1672,1485,0,0
455,-461,0,0,0,0,0,0,0,0,0,-1,1679,1485,0,0
462,-461,0,0,0,0,0,0,0,0,0,-1,1686,1485,0,0
469,-461,0,0,0,0,0,0,0,0,0,-1,1693,1485,0,0
476,-461,14.1906,0.690552,0,0,0,0,0,0,0,-1,1700,1485,14.1906,-0.690525
483,-461,10.6361,3.09106,0,0,0,0,0,0,0,-1,1707,1485,10.6361,-3.091
490,-461,17.9972,0.665894,0,0,0,0,0,0,0,-1,1714,1485,17.9972,-0.665876
497,-461,16.6829,1.87732,0,0,0,0,0,0,0,-1,1721,1485,16.6828,-1.87736
504,-461,15.3884,3.09216,0,0,0,0,0,0,0,-1,1728,1485,15.3885,-3.09212
511,-461,15.4292,14.3512,0,0,0,0,0,0,0,-1,1735,1485,15.4292,-14.3512
518,-461,14.8081,10.0085,0,0,0,0,0,0,0,-1,1742,1485,14.8081,-10.0086
525,-461,14.0022,10.8033,0,0,0,0,0,0,0,-1,1749,1485,14.0022,-10.8033
532,-461,17.1704,14.077,0,0,0,0,0,0,0,-1,1756,1485,17.1704,-14.077
539,-461,17.0229,14.7386,0,0,0,0,0,0,0,-1,1763,1485,17.0229,-14.7387
546,-461,16.2106,14.1372,0,0,0,0,0,0,0,-1,1770,1485,16.2106,-14.1372
553,-461,24.0547,22.358,0,0,0,0,0,0,0,-1,1777,1485,24.0547,-22.358
560,-461,24.5005,21.5822,0,0,0,0,0,0,0,-1,1784,1485,24.5005,-21.5822
567,-461,24.7404,21.2015,0.00693477,0.00365598,-0.00297365,0.00869099,0.00189976,-0.533475,0.00527601,0.0349148,1791,1485,24.7404,-21.2015
574,-461,24.7618,20.7483,0.00551933,0.00292426,-0.00251143,0.00704861,0.00139498,-0.546958,0.00431,0.0296093,1798,1485,24.7618,-20.7483
581,-461,24.7537,20.1915,0.00440915,0.00242371,-0.00215105,0.00578551,0.00104736,-0.569207,0.00355962,0.0175804,1805,1485,24.7536,-20.1916
588,-461,24.7133,19.6394,0.00347155,0.00185143,-0.0017621,0.00460087,0.000722113,-0.569948,0.00285712,0.0115866,1812,1485,24.7132,-19.6394
595,-461,24.6619,19.1044,0.00285608,0.00134444,-0.00146212,0.00374619,0.000454338,-0.546847,0.00236063,0.00943,1819,1485,24.6619,-19.1044
602,-461,24.6448,18.5321,0.00242857,0.000850613,-0.00116832,0.00304937,0.000229817,-0.488417,0.0019608,0.0098064,1826,1485,24.6447,-18.5321
609,-461,24.6318,17.9711,0.00214121,0.000395863,-0.000860896,0.00249439,4.269e-05,-0.389302,0.00164888,0.0118346,1833,1485,24.6318,-17.9711
616,-461,24.6278,17.4365,0.00199494,-3.0566e-06,-0.00056967,0.00214595,-0.000154068,-0.259126,0.00148466,0.0139016,1840,1485,24.6278,-17.4365
623,-461,24.6353,16.9243,0.00211157,-0.000502724,-0.000267174,0.00213859,-0.000529749,-0.100809,0.00163124,0.0160119,1847,1485,24.6353,-16.9244
630,-461,24.6088,16.3862,0.00243407,-0.000966092,2.54473e-05,0.00243427,-0.000966282,0.00748358,0.00202337,0.0163177,1854,1485,24.6088,-16.3863
637,-461,24.563,15.8232,0.00290885,-0.0013629,0.000258911,0.00292448,-0.00137854,0.0603157,0.00253723,0.0154872,1861,1485,24.563,-15.8232
644,-461,24.6223,15.3463,0.0035761,-0.00161839,0.000391308,0.00360541,-0.0016477,0.074769,0.0031023,0.0296331,1868,1485,24.6223,-15.3463
651,-461,24.7291,14.8313,0,0,0,0,0,0,0,-1,1875,1485,24.7291,-14.8313
658,-461,16.8987,10.1084,0,0,0,0,0,0,0,-1,1882,1485,16.8986,-10.1084
665,-461,17.2638,9.81384,0,0,0,0,0,0,0,-1,1889,1485,17.2638,-9.81385
672,-461,14.4877,6.89429,0,0,0,0,0,0,0,-1,1896,1485,14.4876,-6.89431
679,-461,10.0535,2.16321,0,0,0,0,0,0,0,-1,1903,1485,10.0535,-2.16317
686,-461,10.8195,1.84192,0,0,0,0,0,0,0,-1,1910,1485,10.8194,-1.84195
693,-461,0,0,0,0,0,0,0,0,0,-1,1917,1485,0,0
700,-461,0,0,0,0,0,0,0,0,0,-1,1924,1485,0,0
707,-461,0,0,0,0,0,0,0,0,0,-1,1931,1485,0,0
714,-461,0,0,0,0,0,0,0,0,0,-1,1938,1485,0,0
721,-461,0,0,0,0,0,0,0,0,0,-1,1945,1485,0,0
728,-461,0,0,0,0,0,0,0,0,0,-1,1952,1485,0,0
735,-461,0,0,0,0,0,0,0,0,0,-1,1959,1485,0,0
742,-461,0,0,0,0,0,0,0,0,0,-1,1966,1485,0,0
749,-461,0,0,0,0,0,0,0,0,0,-1,1973,1485,0,0
756,-461,0,0,0,0,0,0,0,0,0,-1,1980,1485,0,0
763,-461,0,0,0,0,0,0,0,0,0,-1,1987,1485,0,0
770,-461,0,0,0,0,0,0,0,0,0,-1,1994,1485,0,0
777,-461,0,0,0,0,0,0,0,0,0,-1,2001,1485,0,0
784,-461,0,0,0,0,0,0,0,0,0,-1,2008,1485,0,0
791,-461,0,0,0,0,0,0,0,0,0,-1,2015,1485,0,0
798,-461,0,0,0,0,0,0,0,0,0,-1,2022,1485,0,0
805,-461,0,0,0,0,0,0,0,0,0,-1,2029,1485,0,0
812,-461,0,0,0,0,0,0,0,0,0,-1,2036,1485,0,0
-700,-468,0,0,0,0,0,0,0,0,0,-1,524,1492,0,0
-693,-468,0,0,0,0,0,0,0,0,0,-1,531,1492,0,0
-686,-468,0,0,0,0,0,0,0,0,0,-1,538,1492,0,0
-679,-468,0,0,0,0,0,0,0,0,0,-1,545,1492,0,0
-672,-468,0,0,0,0,0,0,0,0,0,-1,552,1492,0,0
-665,-468,0,0,0,0,0,0,0,0,0,-1,559,1492,0,0
-658,-468,0,0,0,0,0,0,0,0,0,-1,566,1492,0,0
-651,-468,0,0,0,0,0,0,0,0,0,-1,573,1492,0,0
-644,-468,0,0,0,0,0,0,0,0,0,-1,580,1492,0,0
-637,-468,0,0,0,0,0,0,0,0,0,-1,587,1492,0,0
-630,-468,0,0,0,0,0,0,0,0,0,-1,594,1492,0,0
-623,-468,0,0,0,0,0,0,0,0,0,-1,601,1492,0,0
-616,-468,0,0,0,0,0,0,0,0,0,-1,608,1492,0,0
-609,-468,0,0,0,0,0,0,0,0,0,-1,615,1492,0,0
-602,-468,0,0,0,0,0,0,0,0,0,-1,622,1492,0,0
-595,-468,0,0,0,0,0,0,0,0,0,-1,629,1492,0,0
-588,-468,0,0,0,0,0,0,0,0,0,-1,636,1492,0,0
-581,-468,0,0,0,0,0,0,0,0,0,-1,643,1492,0,0
-574,-468,0,0,0,0,0,0,0,0,0,-1,650,1492,0,0
-567,-468,-11.2603,1.8042,0,0,0,0,0,0,0,-1,657,1492,-11.2603,-1.80424
-560,-468,-8.77441,2.23694,0,0,0,0,0,0,0,-1,664,1492,-8.77443,-2.23692
-553,-468,-5.94061,9.26318,0,0,0,0,0,0,0,-1,671,1492,-5.94062,-9.26322
-546,-468,-10.47,5.43237,0,0,0,0,0,0,0,-1,678,1492,-10.47,-5.4324
-539,-468,-10.2468,5.45203,0,0,0,0,0,0,0,-1,685,1492,-10.2468,-5.45197
-532,-468,-8.39795,6.02783,0,0,0,0,0,0,0,-1,692,1492,-8.39793,-6.02789
-525,-468,-6.59332,7.15405,0,0,0,0,0,0,0,-1,699,1492,-6.59331,-7.15411
-518,-468,-6.33588,8.65393,0,0,0,0,0,0,0,-1,706,1492,-6.33588,-8.65397
-511,-468,-7.86639,13.5436,0,0,0,0,0,0,0,-1,713,1492,-7.86639,-13.5435
-504,-468,-7.81586,14.127,0.000301417,-0.00209907,0.00155367,0.00106446,-0.00286211,0.456518,0.00234486,0.0468835,720,1492,-7.81588,-14.1269
-497,-468,-7.94037,14.7413,-0.000443837,-0.00224866,0.000810636,-0.000133203,-0.00255929,0.365938,0.00166357,0.0203767,727,1492,-7.94036,-14.7413
-490,-468,-7.9563,15.4056,-0.00076609,-0.00210352,0.000368095,-0.000671475,-0.00219814,0.251594,0.00130072,0.00818863,734,1492,-7.95631,-15.4056
-483,-468,-8.00525,15.9865,-0.000668779,-0.00162591,0.000232861,-0.000615133,-0.00167956,0.226427,0.000981191,0.00891904,741,1492,-8.00527,-15.9865
-476,-468,-8.02301,16.5745,-0.000285225,-0.000916328,0.000348168,-0.00013089,-0.00107066,0.417251,0.000674393,0.00978436,748,1492,-8.02301,-16.5745
-469,-468,-8.01379,17.1445,0.000383566,5.5558e-05,0.00076359,0.00100057,-0.000561442,0.679615,0.000913627,0.0134325,755,1492,-8.01382,-17.1445
-462,-468,-8.00378,17.7073,0.00125231,0.00116592,0.00135735,0.00256715,-0.000148925,0.769492,0.00176317,0.0239429,762,1492,-8.00377,-17.7073
-455,-468,-8.03754,18.2562,0.00231694,0.00240178,0.00217759,0.00453737,0.000181356,0.795137,0.00296631,0.0258326,769,1492,-8.03752,-18.2562
-448,-468,-8.07556,18.8987,0.0037157,0.00398371,0.00338796,0.00724031,0.000459095,0.805165,0.00468135,0.0152819,776,1492,-8.07558,-18.8987
-441,-468,-8.08917,19.5067,0.00542169,0.0057661,0.00496478,0.0105617,0.000626127,0.802734,0.00684196,0.0143963,783,1492,-8.08919,-19.5067
-434,-468,-8.06696,20.16,0.00749333,0.00800008,0.00700974,0.014761,0.000732386,0.803463,0.00960586,0.0251272,790,1492,-8.06697,-20.16
-427,-468,-8.07306,20.8387,0,0,0,0,0,0,0,-1,797,1492,-8.07303,-20.8388
-420,-468,-7.06097,20.8763,0,0,0,0,0,0,0,-1,804,1492,-7.06098,-20.8764
-413,-468,-5.30328,17.3519,0,0,0,0,0,0,0,-1,811,1492,-5.30329,-17.352
-406,-468,-2.2356,9.396,0,0,0,0,0,0,0,-1,818,1492,-2.2356,-9.396
-399,-468,-0.940369,8.1936,0,0,0,0,0,0,0,-1,825,1492,-0.940365,-8.19357
-392,-468,-0.35144,8.14673,0,0,0,0,0,0,0,-1,832,1492,-0.351449,-8.14674
-385,-468,0.465759,5.35864,0,0,0,0,0,0,0,-1,839,1492,0.465732,-5.35864
-378,-468,1.99835,3.25391,0,0,0,0,0,0,0,-1,846,1492,1.99837,-3.2539
-371,-468,-0.31842,3.1532,0,0,0,0,0,0,0,-1,853,1492,-0.318441,-3.15324
-364,-468,-0.966736,2.14563,0,0,0,0,0,0,0,-1,860,1492,-0.966735,-2.14557
-357,-468,-3.06787,3.22742,0,0,0,0,0,0,0,-1,867,1492,-3.06784,-3.2274
-350,-468,-3.18658,4.12659,0,0,0,0,0,0,0,-1,874,1492,-3.18659,-4.12658
-343,-468,0,0,0,0,0,0,0,0,0,-1,881,1492,0,0
-336,-468,0,0,0,0,0,0,0,0,0,-1,888,1492,0,0
-329,-468,0,0,0,0,0,0,0,0,0,-1,895,1492,0,0
-322,-468,0,0,0,0,0,0,0,0,0,-1,902,1492,0,0
-315,-468,0,0,0,0,0,0,0,0,0,-1,909,1492,0,0
-308,-468,0,0,0,0,0,0,0,0,0,-1,916,1492,0,0
-301,-468,0,0,0,0,0,0,0,0,0,-1,923,1492,0,0
-294,-468,0,0,0,0,0,0,0,0,0,-1,930,1492,0,0
-287,-468,0,0,0,0,0,0,0,0,0,-1,937,1492,0,0
-280,-468,0,0,0,0,0,0,0,0,0,-1,944,1492,0,0
-273,-468,0,0,0,0,0,0,0,0,0,-1,951,1492,0,0
-266,-468,0,0,0,0,0,0,0,0,0,-1,958,1492,0,0
-259,-468,0,0,0,0,0,0,0,0,0,-1,965,1492,0,0
-252,-468,0,0,0,0,0,0,0,0,0,-1,972,1492,0,0
-245,-468,0,0,0,0,0,0,0,0,0,-1,979,1492,0,0
-238,-468,0,0,0,0,0,0,0,0,0,-1,986,1492,0,0
-231,-468,0,0,0,0,0,0,0,0,0,-1,993,1492,0,0
-224,-468,0,0,0,0,0,0,0,0,0,-1,1000,1492,0,0
-217,-468,0,0,0,0,0,0,0,0,0,-1,1007,1492,0,0
-210,-468,0,0,0,0,0,0,0,0,0,-1,1014,1492,0,0
-203,-468,0,0,0,0,0,0,0,0,0,-1,1021,1492,0,0
-196,-468,0,0,0,0,0,0,0,0,0,-1,1028,1492,0,0
-189,-468,0,0,0,0,0,0,0,0,0,-1,1035,1492,0,0
-182,-468,0,0,0,0,0,0,0,0,0,-1,1042,1492,0,0
-175,-468,0,0,0,0,0,0,0,0,0,-1,1049,1492,0,0
-168,-468,0,0,0,0,0,0,0,0,0,-1,1056,1492,0,0
-161,-468,0,0,0,0,0,0,0,0,0,-1,1063,1492,0,0
-154,-468,0,0,0,0,0,0,0,0,0,-1,1070,1492,0,0
-147,-468,0,0,0,0,0,0,0,0,0,-1,1077,1492,0,0
-140,-468,0,0,0,0,0,0,0,0,0,-1,1084,1492,0,0
-133,-468,0,0,0,0,0,0,0,0,0,-1,1091,1492,0,0
-126,-468,0,0,0,0,0,0,0,0,0,-1,1098,1492,0,0
-119,-468,0,0,0,0,0,0,0,0,0,-1,1105,1492,0,0
-112,-468,0,0,0,0,0,0,0,0,0,-1,1112,1492,0,0
-105,-468,0,0,0,0,0,0,0,0,0,-1,1119,1492,0,0
-98,-468,0,0,0,0,0,0,0,0,0,-1,1126,1492,0,0
-91,-468,0,0,0,0,0,0,0,0,0,-1,1133,1492,0,0
-84,-468,0,0,0,0,0,0,0,0,0,-1,1140,1492,0,0
-77,-468,0,0,0,0,0,0,0,0,0,-1,1147,1492,0,0
-70,-468,0,0,0,0,0,0,0,0,0,-1,1154,1492,0,0
-63,-468,0,0,0,0,0,0,0,0,0,-1,1161,1492,0,0
-56,-468,0,0,0,0,0,0,0,0,0,-1,1168,1492,0,0
-49,-468,0,0,0,0,0,0,0,0,0,-1,1175,1492,0,0
-42,-468,0,0,0,0,0,0,0,0,0,-1,1182,1492,0,0
-35,-468,0,0,0,0,0,0,0,0,0,-1,1189,1492,0,0
-28,-468,0,0,0,0,0,0,0,0,0,-1,1196,1492,0,0
-21,-468,0,0,0,0,0,0,0,0,0,-1,1203,1492,0,0
-14,-468,0,0,0,0,0,0,0,0,0,-1,1210,1492,0,0
-7,-468,0,0,0,0,0,0,0,0,0,-1,1217,1492,0,0
0,-468,0,0,0,0,0,0,0,0,0,-1,1224,1492,0,0
7,-468,0,0,0,0,0,0,0,0,0,-1,1231,1492,0,0
14,-468,0,0,0,0,0,0,0,0,0,-1,1238,1492,0,0
21,-468,0,0,0,0,0,0,0,0,0,-1,1245,1492,0,0
28,-468,0,0,0,0,0,0,0,0,0,-1,1252,1492,0,0
35,-468,0,0,0,0,0,0,0,0,0,-1,1259,1492,0,0
42,-468,0,0,0,0,0,0,0,0,0,-1,1266,1492,0,0
49,-468,0,0,0,0,0,0,0,0,0,-1,1273,1492,0,0
56,-468,0,0,0,0,0,0,0,0,0,-1,1280,1492,0,0
63,-468,0,0,0,0,0,0,0,0,0,-1,1287,1492,0,0
70,-468,0,0,0,0,0,0,0,0,0,-1,1294,1492,0,0
77,-468,0,0,0,0,0,0,0,0,0,-1,1301,1492,0,0
84,-468,0,0,0,0,0,0,0,0,0,-1,1308,1492,0,0
91,-468,0,0,0,0,0,0,0,0,0,-1,1315,1492,0,0
98,-468,0,0,0,0,0,0,0,0,0,-1,1322,1492,0,0
105,-468,0,0,0,0,0,0,0,0,0,-1,1329,1492,0,0
112,-468,0,0,0,0,0,0,0,0,0,-1,1336,1492,0,0
119,-468,0,0,0,0,0,0,0,0,0,-1,1343,1492,0,0
126,-468,0,0,0,0,0,0,0,0,0,-1,1350,1492,0,0
133,-468,0,0,0,0,0,0,0,0,0,-1,1357,1492,0,0
140,-468,0,0,0,0,0,0,0,0,0,-1,1364,1492,0,0
147,-468,0,0,0,0,0,0,0,0,0,-1,1371,1492,0,0
154,-468,0,0,0,0,0,0,0,0,0,-1,1378,1492,0,0
161,-468,0,0,0,0,0,0,0,0,0,-1,1385,1492,0,0
168,-468,0,0,0,0,0,0,0,0,0,-1,1392,1492,0,0
175,-468,0,0,0,0,0,0,0,0,0,-1,1399,1492,0,0
182,-468,0,0,0,0,0,0,0,0,0,-1,1406,1492,0,0
189,-468,0,0,0,0,0,0,0,0,0,-1,1413,1492,0,0
196,-468,0,0,0,0,0,0,0,0,0,-1,1420,1492,0,0
203,-468,0,0,0,0,0,0,0,0,0,-1,1427,1492,0,0
210,-468,0,0,0,0,0,0,0,0,0,-1,1434,1492,0,0
217,-468,0,0,0,0,0,0,0,0,0,-1,1441,1492,0,0
224,-468,0,0,0,0,0,0,0,0,0,-1,1448,1492,0,0
231,-468,0,0,0,0,0,0,0,0,0,-1,1455,1492,0,0
238,-468,0,0,0,0,0,0,0,0,0,-1,1462,1492,0,0
245,-468,0,0,0,0,0,0,0,0,0,-1,1469,1492,0,0
252,-468,0,0,0,0,0,0,0,0,0,-1,1476,1492,0,0
259,-468,0,0,0,0,0,0,0,0,0,-1,1483,1492,0,0
266,-468,0,0,0,0,0,0,0,0,0,-1,1490,1492,0,0
273,-468,0,0,0,0,0,0,0,0,0,-1,1497,1492,0,0
280,-468,0,0,0,0,0,0,0,0,0,-1,1504,1492,0,0
287,-468,0,0,0,0,0,0,0,0,0,-1,1511,1492,0,0
294,-468,0,0,0,0,0,0,0,0,0,-1,1518,1492,0,0
301,-468,0,0,0,0,0,0,0,0,0,-1,1525,1492,0,0
308,-468,0,0,0,0,0,0,0,0,0,-1,1532,1492,0,0
315,-468,0,0,0,0,0,0,0,0,0,-1,1539,1492,0,0
322,-468,0,0,0,0,0,0,0,0,0,-1,1546,1492,0,0
329,-468,0,0,0,0,0,0,0,0,0,-1,1553,1492,0,0
336,-468,0,0,0,0,0,0,0,0,0,-1,1560,1492,0,0
343,-468,0,0,0,0,0,0,0,0,0,-1,1567,1492,0,0
350,-468,0,0,0,0,0,0,0,0,0,-1,1574,1492,0,0
357,-468,0,0,0,0,0,0,0,0,0,-1,1581,1492,0,0
364,-468,0,0,0,0,0,0,0,0,0,-1,1588,1492,0,0
371,-468,0,0,0,0,0,0,0,0,0,-1,1595,1492,0,0
378,-468,0,0,0,0,0,0,0,0,0,-1,1602,1492,0,0
385,-468,0,0,0,0,0,0,0,0,0,-1,1609,1492,0,0
392,-468,0,0,0,0,0,0,0,0,0,-1,1616,1492,0,0
399,-468,0,0,0,0,0,0,0,0,0,-1,1623,1492,0,0
406,-468,0,0,0,0,0,0,0,0,0,-1,1630,1492,0,0
413,-468,0,0,0,0,0,0,0,0,0,-1,1637,1492,0,0
420,-468,0,0,0,0,0,0,0,0,0,-1,1644,1492,0,0
427,-468,0,0,0,0,0,0,0,0,0,-1,1651,1492,0,0
434,-468,0,0,0,0,0,0,0,0,0,-1,1658,1492,0,0
441,-468,0,0,0,0,0,0,0,0,0,-1,1665,1492,0,0
448,-468,0,0,0,0,0,0,0,0,0,-1,1672,1492,0,0
455,-468,0,0,0,0,0,0,0,0,0,-1,1679,1492,0,0
462,-468,0,0,0,0,0,0,0,0,0,-1,1686,1492,0,0
469,-468,15.6879,1.2677,0,0,0,0,0,0,0,-1,1693,1492,15.6879,-1.26772
476,-468,14.9318,1.61865,0,0,0,0,0,0,0,-1,1700,1492,14.9318,-1.61869
483,-468,11.265,4.64795,0,0,0,0,0,0,0,-1,1707,1492,11.265,-4.64798
490,-468,12.1316,3.51624,0,0,0,0,0,0,0,-1,1714,1492,12.1316,-3.51628
497,-468,16.5355,3.14587,0,0,0,0,0,0,0,-1,1721,1492,16.5356,-3.14583
504,-468,15.0642,4.10437,0,0,0,0,0,0,0,-1,1728,1492,15.0643,-4.10431
511,-468,15.6877,9.4801,0,0,0,0,0,0,0,-1,1735,1492,15.6878,-9.48007
518,-468,13.759,11.0887,0,0,0,0,0,0,0,-1,1742,1492,13.759,-11.0887
525,-468,16.6531,14.2238,0,0,0,0,0,0,0,-1,1749,1492,16.653,-14.2237
532,-468,16.9696,15.9641,0,0,0,0,0,0,0,-1,1756,1492,16.9696,-15.9641
539,-468,21.5308,20.7551,0,0,0,0,0,0,0,-1,1763,1492,21.5308,-20.7551
546,-468,23.7786,23.0702,0,0,0,0,0,0,0,-1,1770,1492,23.7786,-23.0702
553,-468,24.093,22.3431,0,0,0,0,0,0,0,-1,1777,1492,24.093,-22.3431
560,-468,24.1281,21.833,0.00793793,0.00460872,-0.00356488,0.0102077,0.00233896,-0.56697,0.00617494,0.0410437,1784,1492,24.1281,-21.833
567,-468,24.1624,21.3206,0.00617221,0.00330725,-0.00265014,0.00775225,0.00172721,-0.537627,0.00469945,0.0223432,1791,1492,24.1624,-21.3205
574,-468,24.2111,20.7246,0.00486927,0.00252671,-0.00216703,0.0061613,0.00123468,-0.537638,0.00376409,0.0154391,1798,1492,24.2111,-20.7246
581,-468,24.219,20.2015,0.00382823,0.00199,-0.00180815,0.00493746,0.000880775,-0.550258,0.00304087,0.0159566,1805,1492,24.219,-20.2016
588,-468,24.1559,19.6646,0.00300093,0.00144591,-0.0014595,0.0038771,0.00056974,-0.540655,0.0024173,0.0127503,1812,1492,24.1558,-19.6645
595,-468,24.1302,19.1176,0.00254288,0.000967548,-0.00121731,0.00320514,0.000305294,-0.498248,0.00204261,0.0106919,1819,1492,24.1303,-19.1176
602,-468,24.1128,18.5532,0.00223756,0.000544008,-0.00100091,0.00270183,7.9738e-05,-0.434311,0.00177524,0.00956224,1826,1492,24.1128,-18.5533
609,-468,24.0699,17.9954,0.00206386,0.000154271,-0.000763111,0.00233135,-0.000113216,-0.337139,0.00159331,0.0102672,1833,1492,24.07,-17.9953
616,-468,24.0637,17.4573,0.00205322,-0.000227373,-0.000510717,0.00216237,-0.000336519,-0.210545,0.00156585,0.00995901,1840,1492,24.0637,-17.4572
623,-468,24.0598,16.9249,0.00229318,-0.000754646,-0.000206343,0.00230708,-0.000768552,-0.0672926,0.00184829,0.0108158,1847,1492,24.0599,-16.925
630,-468,24.0441,16.3665,0.00269843,-0.00123847,0.000119054,0.00270203,-0.00124206,0.0302037,0.00232854,0.0122733,1854,1492,24.0441,-16.3664
637,-468,24.0142,15.8141,0.00323193,-0.00174907,0.000432568,0.00326922,-0.00178636,0.0859858,0.00296039,0.0147932,1861,1492,24.0141,-15.8141
644,-468,24.0773,15.438,0.00391061,-0.00219165,0.000709812,0.00399209,-0.00227313,0.114287,0.00366233,0.0371675,1868,1492,24.0773,-15.438
651,-468,24.283,15.025,0,0,0,0,0,0,0,-1,1875,1492,24.283,-15.025
658,-468,16.4969,10.0774,0,0,0,0,0,0,0,-1,1882,1492,16.497,-10.0774
665,-468,15.4673,8.59546,0,0,0,0,0,0,0,-1,1889,1492,15.4672,-8.59548
672,-468,9.96814,3.61133,0,0,0,0,0,0,0,-1,1896,1492,9.96817,-3.61139
679,-468,11.2191,1.91968,0,0,0,0,0,0,0,-1,1903,1492,11.2191,-1.91965
686,-468,11.9252,1.42285,0,0,0,0,0,0,0,-1,1910,1492,11.9252,-1.42291
693,-468,0,0,0,0,0,0,0,0,0,-1,1917,1492,0,0
700,-468,0,0,0,0,0,0,0,0,0,-1,1924,1492,0,0
707,-468,0,0,0,0,0,0,0,0,0,-1,1931,1492,0,0
714,-468,0,0,0,0,0,0,0,0,0,-1,1938,1492,0,0
721,-468,0,0,0,0,0,0,0,0,0,-1,1945,1492,0,0
728,-468,0,0,0,0,0,0,0,0,0,-1,1952,1492,0,0
735,-468,0,0,0,0,0,0,0,0,0,-1,1959,1492,0,0
742,-468,0,0,0,0,0,0,0,0,0,-1,1966,1492,0,0
749,-468,0,0,0,0,0,0,0,0,0,-1,1973,1492,0,0
756,-468,0,0,0,0,0,0,0,0,0,-1,1980,1492,0,0
763,-468,0,0,0,0,0,0,0,0,0,-1,1987,1492,0,0
770,-468,0,0,0,0,0,0,0,0,0,-1,1994,1492,0,0
777,-468,0,0,0,0,0,0,0,0,0,-1,2001,1492,0,0
784,-468,0,0,0,0,0,0,0,0,0,-1,2008,1492,0,0
791,-468,0,0,0,0,0,0,0,0,0,-1,2015,1492,0,0
798,-468,0,0,0,0,0,0,0,0,0,-1,2022,1492,0,0
805,-468,0,0,0,0,0,0,0,0,0,-1,2029,1492,0,0
812,-468,0,0,0,0,0,0,0,0,0,-1,2036,1492,0,0
-700,-475,0,0,0,0,0,0,0,0,0,-1,524,1499,0,0
-693,-475,0,0,0,0,0,0,0,0,0,-1,531,1499,0,0
-686,-475,0,0,0,0,0,0,0,0,0,-1,538,1499,0,0
-679,-475,0,0,0,0,0,0,0,0,0,-1,545,1499,0,0
-672,-475,0,0,0,0,0,0,0,0,0,-1,552,1499,0,0
-665,-475,0,0,0,0,0,0,0,0,0,-1,559,1499,0,0
-658,-475,0,0,0,0,0,0,0,0,0,-1,566,1499,0,0
-651,-475,0,0,0,0,0,0,0,0,0,-1,573,1499,0,0
-644,-475,0,0,0,0,0,0,0,0,0,-1,580,1499,0,0
-637,-475,0,0,0,0,0,0,0,0,0,-1,587,1499,0,0
-630,-475,0,0,0,0,0,0,0,0,0,-1,594,1499,0,0
-623,-475,0,0,0,0,0,0,0,0,0,-1,601,1499,0,0
-616,-475,0,0,0,0,0,0,0,0,0,-1,608,1499,0,0
-609,-475,0,0,0,0,0,0,0,0,0,-1,615,1499,0,0
-602,-475,0,0,0,0,0,0,0,0,0,-1,622,1499,0,0
-595,-475,0,0,0,0,0,0,0,0,0,-1,629,1499,0,0
-588,-475,0,0,0,0,0,0,0,0,0,-1,636,1499,0,0
-581,-475,0,0,0,0,0,0,0,0,0,-1,643,1499,0,0
-574,-475,0,0,0,0,0,0,0,0,0,-1,650,1499,0,0
-567,-475,0,0,0,0,0,0,0,0,0,-1,657,1499,0,0
-560,-475,-9.42731,9.29517,0,0,0,0,0,0,0,-1,664,1499,-9.42731,-9.29519
-553,-475,-8.15131,8.78369,0,0,0,0,0,0,0,-1,671,1499,-8.15131,-8.78367
-546,-475,-8.41254,8.20654,0,0,0,0,0,0,0,-1,678,1499,-8.41251,-8.20655
-539,-475,-4.7345,4.17419,0,0,0,0,0,0,0,-1,685,1499,-4.73449,-4.17418
-532,-475,-7.07379,4.25024,0,0,0,0,0,0,0,-1,692,1499,-7.07378,-4.2503
-525,-475,-6.13147,5.82166,0,0,0,0,0,0,0,-1,699,1499,-6.1315,-5.8216
-518,-475,-7.28784,9.31506,0,0,0,0,0,0,0,-1,706,1499,-7.28782,-9.315
-511,-475,-6.84851,12.4244,0,0,0,0,0,0,0,-1,713,1499,-6.84851,-12.4244
-504,-475,-7.22278,14.0688,0,0,0,0,0,0,0,-1,720,1499,-7.22275,-14.0688
-497,-475,-7.38104,14.9092,-0.0029771,-0.00456296,0.000640351,-0.00275082,-0.00478924,0.339671,0.00277525,0.0409991,727,1499,-7.38106,-14.9092
-490,-475,-7.3974,15.4055,-0.0029439,-0.00418048,0.000108351,-0.00293448,-0.0041899,0.086741,0.00248294,0.0138129,734,1499,-7.39738,-15.4055
-483,-475,-7.40466,16.0216,-0.00245429,-0.00344686,-8.15542e-05,-0.00244763,-0.00345352,-0.0814368,0.00205099,0.0096598,741,1499,-7.40469,-16.0216
-476,-475,-7.41827,16.6021,-0.00173044,-0.0024916,-1.71253e-05,-0.00173006,-0.00249198,-0.0224839,0.00147449,0.0109442,748,1499,-7.41828,-16.6021
-469,-475,-7.42194,17.1888,-0.000775453,-0.00131338,0.000345387,-0.000606657,-0.00148218,0.454579,0.000860416,0.0125873,755,1499,-7.42191,-17.1889
-462,-475,-7.40479,17.7593,0.000328761,-1.86687e-05,0.000901822,0.00107345,-0.000763354,0.69025,0.0010655,0.0184206,762,1499,-7.40481,-17.7593
-455,-475,-7.42444,18.3268,0.00153537,0.00133889,0.00165438,0.00309442,-0.000220167,0.755741,0.00214012,0.0174401,769,1499,-7.42446,-18.3267
-448,-475,-7.49023,18.924,0.00299216,0.00297447,0.00277068,0.00575401,0.000212622,0.783802,0.00376713,0.0142626,776,1499,-7.4902,-18.9239
-441,-475,-7.52045,19.5287,0.00467011,0.00479994,0.00420396,0.00893948,0.000530566,0.793118,0.0057909,0.0160009,783,1499,-7.52045,-19.5287
-434,-475,-7.5293,20.1068,0.00656157,0.00698227,0.00602596,0.0128016,0.00074229,0.802845,0.00829801,0.0111231,790,1499,-7.52932,-20.1068
-427,-475,-7.48419,20.7925,0.00838677,0.00898391,0.00829008,0.0169808,0.000389881,0.803398,0.0111928,0.030243,797,1499,-7.48422,-20.7925
-420,-475,-7.39063,21.463,0,0,0,0,0,0,0,-1,804,1499,-7.39063,-21.4631
-413,-475,-6.46777,20.8481,0,0,0,0,0,0,0,-1,811,1499,-6.46776,-20.8481
-406,-475,-2.56116,12.4956,0,0,0,0,0,0,0,-1,818,1499,-2.56116,-12.4956
-399,-475,-1.39667,6.1615,0,0,0,0,0,0,0,-1,825,1499,-1.39664,-6.16155
-392,-475,0.217163,8.61389,0,0,0,0,0,0,0,-1,832,1499,0.217167,-8.6139
-385,-475,1.18372,2.73999,0,0,0,0,0,0,0,-1,839,1499,1.18372,-2.73995
-378,-475,1.31409,2.90149,0,0,0,0,0,0,0,-1,846,1499,1.31411,-2.90151
-371,-475,2.3476,3.31116,0,0,0,0,0,0,0,-1,853,1499,2.34761,-3.31121
-364,-475,1.04462,9.05823,0,0,0,0,0,0,0,-1,860,1499,1.04461,-9.05825
-357,-475,-0.262756,7.97205,0,0,0,0,0,0,0,-1,867,1499,-0.262784,-7.97205
-350,-475,-2.77173,4.35486,0,0,0,0,0,0,0,-1,874,1499,-2.77175,-4.35491
-343,-475,-6.81641,-1.95203,0,0,0,0,0,0,0,-1,881,1499,-6.81643,1.95198
-336,-475,0,0,0,0,0,0,0,0,0,-1,888,1499,0,0
-329,-475,0,0,0,0,0,0,0,0,0,-1,895,1499,0,0
-322,-475,0,0,0,0,0,0,0,0,0,-1,902,1499,0,0
-315,-475,0,0,0,0,0,0,0,0,0,-1,909,1499,0,0
-308,-475,0,0,0,0,0,0,0,0,0,-1,916,1499,0,0
-301,-475,0,0,0,0,0,0,0,0,0,-1,923,1499,0,0
-294,-475,0,0,0,0,0,0,0,0,0,-1,930,1499,0,0
-287,-475,0,0,0,0,0,0,0,0,0,-1,937,1499,0,0
-280,-475,0,0,0,0,0,0,0,0,0,-1,944,1499,0,0
-273,-475,0,0,0,0,0,0,0,0,0,-1,951,1499,0,0
-266,-475,0,0,0,0,0,0,0,0,0,-1,958,1499,0,0
-259,-475,0,0,0,0,0,0,0,0,0,-1,965,1499,0,0
-252,-475,0,0,0,0,0,0,0,0,0,-1,972,1499,0,0
-245,-475,0,0,0,0,0,0,0,0,0,-1,979,1499,0,0
-238,-475,0,0,0,0,0,0,0,0,0,-1,986,1499,0,0
-231,-475,0,0,0,0,0,0,0,0,0,-1,993,1499,0,0
-224,-475,0,0,0,0,0,0,0,0,0,-1,1000,1499,0,0
-217,-475,0,0,0,0,0,0,0,0,0,-1,1007,1499,0,0
-210,-475,0,0,0,0,0,0,0,0,0,-1,1014,1499,0,0
-203,-475,0,0,0,0,0,0,0,0,0,-1,1021,1499,0,0
-196,-475,0,0,0,0,0,0,0,0,0,-1,1028,1499,0,0
-189,-475,0,0,0,0,0,0,0,0,0,-1,1035,1499,0,0
-182,-475,0,0,0,0,0,0,0,0,0,-1,1042,1499,0,0
-175,-475,0,0,0,0,0,0,0,0,0,-1,1049,1499,0,0
-168,-475,0,0,0,0,0,0,0,0,0,-1,1056,1499,0,0
-161,-475,0,0,0,0,0,0,0,0,0,-1,1063,1499,0,0
-154,-475,0,0,0,0,0,0,0,0,0,-1,1070,1499,0,0
-147,-475,0,0,0,0,0,0,0,0,0,-1,1077,1499,0,0
-140,-475,0,0,0,0,0,0,0,0,0,-1,1084,1499,0,0
-133,-475,0,0,0,0,0,0,0,0,0,-1,1091,1499,0,0
-126,-475,0,0,0,0,0,0,0,0,0,-1,1098,1499,0,0
-119,-475,0,0,0,0,0,0,0,0,0,-1,1105,1499,0,0
-112,-475,0,0,0,0,0,0,0,0,0,-1,1112,1499,0,0
-105,-475,0,0,0,0,0,0,0,0,0,-1,1119,1499,0,0
-98,-475,0,0,0,0,0,0,0,0,0,-1,1126,1499,0,0
-91,-475,0,0,0,0,0,0,0,0,0,-1,1133,1499,0,0
-84,-475,0,0,0,0,0,0,0,0,0,-1,1140,1499,0,0
-77,-475,0,0,0,0,0,0,0,0,0,-1,1147,1499,0,0
-70,-475,0,0,0,0,0,0,0,0,0,-1,1154,1499,0,0
-63,-475,0,0,0,0,0,0,0,0,0,-1,1161,1499,0,0
-56,-475,0,0,0,0,0,0,0,0,0,-1,1168,1499,0,0
-49,-475,0,0,0,0,0,0,0,0,0,-1,1175,1499,0,0
-42,-475,0,0,0,0,0,0,0,0,0,-1,1182,1499,0,0
-35,-475,0,0,0,0,0,0,0,0,0,-1,1189,1499,0,0
-28,-475,0,0,0,0,0,0,0,0,0,-1,1196,1499,0,0
-21,-475,0,0,0,0,0,0,0,0,0,-1,1203,1499,0,0
-14,-475,0,0,0,0,0,0,0,0,0,-1,1210,1499,0,0
-7,-475,0,0,0,0,0,0,0,0,0,-1,1217,1499,0,0
0,-475,0,0,0,0,0,0,0,0,0,-1,1224,1499,0,0
7,-475,0,0,0,0,0,0,0,0,0,-1,1231,1499,0,0
14,-475,0,0,0,0,0,0,0,0,0,-1,1238,1499,0,0
21,-475,0,0,0,0,0,0,0,0,0,-1,1245,1499,0,0
28,-475,0,0,0,0,0,0,0,0,0,-1,1252,1499,0,0
35,-475,0,0,0,0,0,0,0,0,0,-1,1259,1499,0,0
42,-475,0,0,0,0,0,0,0,0,0,-1,1266,1499,0,0
49,-475,0,0,0,0,0,0,0,0,0,-1,1273,1499,0,0
56,-475,0,0,0,0,0,0,0,0,0,-1,1280,1499,0,0
63,-475,0,0,0,0,0,0,0,0,0,-1,1287,1499,0,0
70,-475,0,0,0,0,0,0,0,0,0,-1,1294,1499,0,0
77,-475,0,0,0,0,0,0,0,0,0,-1,1301,1499,0,0
84,-475,0,0,0,0,0,0,0,0,0,-1,1308,1499,0,0
91,-475,0,0,0,0,0,0,0,0,0,-1,1315,1499,0,0
98,-475,0,0,0,0,0,0,0,0,0,-1,1322,1499,0,0
105,-475,0,0,0,0,0,0,0,0,0,-1,1329,1499,0,0
112,-475,0,0,0,0,0,0,0,0,0,-1,1336,1499,0,0
119,-475,0,0,0,0,0,0,0,0,0,-1,1343,1499,0,0
126,-475,0,0,0,0,0,0,0,0,0,-1,1350,1499,0,0
133,-475,0,0,0,0,0,0,0,0,0,-1,1357,1499,0,0
140,-475,0,0,0,0,0,0,0,0,0,-1,1364,1499,0,0
147,-475,0,0,0,0,0,0,0,0,0,-1,1371,1499,0,0
154,-475,0,0,0,0,0,0,0,0,0,-1,1378,1499,0,0
161,-475,0,0,0,0,0,0,0,0,0,-1,1385,1499,0,0
168,-475,0,0,0,0,0,0,0,0,0,-1,1392,1499,0,0
175,-475,0,0,0,0,0,0,0,0,0,-1,1399,1499,0,0
182,-475,0,0,0,0,0,0,0,0,0,-1,1406,1499,0,0
189,-475,0,0,0,0,0,0,0,0,0,-1,1413,1499,0,0
196,-475,0,0,0,0,0,0,0,0,0,-1,1420,1499,0,0
203,-475,0,0,0,0,0,0,0,0,0,-1,1427,1499,0,0
210,-475,0,0,0,0,0,0,0,0,0,-1,1434,1499,0,0
217,-475,0,0,0,0,0,0,0,0,0,-1,1441,1499,0,0
224,-475,0,0,0,0,0,0,0,0,0,-1,1448,1499,0,0
231,-475,0,0,0,0,0,0,0,0,0,-1,1455,1499,0,0
238,-475,0,0,0,0,0,0,0,0,0,-1,1462,1499,0,0
245,-475,0,0,0,0,0,0,0,0,0,-1,1469,1499,0,0
252,-475,0,0,0,0,0,0,0,0,0,-1,1476,1499,0,0
259,-475,0,0,0,0,0,0,0,0,0,-1,1483,1499,0,0
266,-475,0,0,0,0,0,0,0,0,0,-1,1490,1499,0,0
273,-475,0,0,0,0,0,0,0,0,0,-1,1497,1499,0,0
280,-475,0,0,0,0,0,0,0,0,0,-1,1504,1499,0,0
287,-475,0,0,0,0,0,0,0,0,0,-1,1511,1499,0,0
294,-475,0,0,0,0,0,0,0,0,0,-1,1518,1499,0,0
301,-475,0,0,0,0,0,0,0,0,0,-1,1525,1499,0,0
308,-475,0,0,0,0,0,0,0,0,0,-1,1532,1499,0,0
315,-475,0,0,0,0,0,0,0,0,0,-1,1539,1499,0,0
322,-475,0,0,0,0,0,0,0,0,0,-1,1546,1499,0,0
329,-475,0,0,0,0,0,0,0,0,0,-1,1553,1499,0,0
336,-475,0,0,0,0,0,0,0,0,0,-1,1560,1499,0,0
343,-475,0,0,0,0,0,0,0,0,0,-1,1567,1499,0,0
350,-475,0,0,0,0,0,0,0,0,0,-1,1574,1499,0,0
357,-475,0,0,0,0,0,0,0,0,0,-1,1581,1499,0,0
364,-475,0,0,0,0,0,0,0,0,0,-1,1588,1499,0,0
371,-475,0,0,0,0,0,0,0,0,0,-1,1595,1499,0,0
378,-475,0,0,0,0,0,0,0,0,0,-1,1602,1499,0,0
385,-475,0,0,0,0,0,0,0,0,0,-1,1609,1499,0,0
392,-475,0,0,0,0,0,0,0,0,0,-1,1616,1499,0,0
399,-475,0,0,0,0,0,0,0,0,0,-1,1623,1499,0,0
406,-475,0,0,0,0,0,0,0,0,0,-1,1630,1499,0,0
413,-475,0,0,0,0,0,0,0,0,0,-1,1637,1499,0,0
420,-475,0,0,0,0,0,0,0,0,0,-1,1644,1499,0,0
427,-475,0,0,0,0,0,0,0,0,0,-1,1651,1499,0,0
434,-475,0,0,0,0,0,0,0,0,0,-1,1658,1499,0,0
441,-475,0,0,0,0,0,0,0,0,0,-1,1665,1499,0,0
448,-475,0,0,0,0,0,0,0,0,0,-1,1672,1499,0,0
455,-475,0,0,0,0,0,0,0,0,0,-1,1679,1499,0,0
462,-475,12.6372,0.275391,0,0,0,0,0,0,0,-1,1686,1499,12.6372,-0.27536
469,-475,15.6437,2.28296,0,0,0,0,0,0,0,-1,1693,1499,15.6437,-2.28293
476,-475,15.3302,2.71436,0,0,0,0,0,0,0,-1,1700,1499,15.3303,-2.7143
483,-475,10.7461,5.91479,0,0,0,0,0,0,0,-1,1707,1499,10.7461,-5.91476
490,-475,11.9305,4.4364,0,0,0,0,0,0,0,-1,1714,1499,11.9305,-4.43644
497,-475,15.3451,4.3479,0,0,0,0,0,0,0,-1,1721,1499,15.3451,-4.34789
504,-475,16.9646,7.71265,0,0,0,0,0,0,0,-1,1728,1499,16.9646,-7.71265
511,-475,18.941,12.7572,0,0,0,0,0,0,0,-1,1735,1499,18.941,-12.7572
518,-475,17.0021,13.8564,0,0,0,0,0,0,0,-1,1742,1499,17.0021,-13.8564
525,-475,17.5637,15.2103,0,0,0,0,0,0,0,-1,1749,1499,17.5637,-15.2103
532,-475,20.8623,20.8413,0,0,0,0,0,0,0,-1,1756,1499,20.8623,-20.8413
539,-475,20.5494,20.8519,0,0,0,0,0,0,0,-1,1763,1499,20.5494,-20.852
546,-475,20.4524,19.8799,0,0,0,0,0,0,0,-1,1770,1499,20.4524,-19.8798
553,-475,23.3905,22.5781,0,0,0,0,0,0,0,-1,1777,1499,23.3905,-22.5781
560,-475,23.4877,21.9673,0.00684184,0.00419845,-0.0032877,0.00906356,0.00197673,-0.594279,0.00550311,0.029153,1784,1499,23.4877,-21.9673
567,-475,23.6555,21.3196,0.00536625,0.00296719,-0.00242698,0.00687395,0.00145948,-0.55588,0.00418191,0.0160154,1791,1499,23.6556,-21.3195
574,-475,23.6423,20.7452,0.00428043,0.00222302,-0.00196426,0.00546905,0.0010344,-0.54418,0.00335482,0.0148239,1798,1499,23.6424,-20.7452
581,-475,23.6409,20.2174,0.0033971,0.00169567,-0.00163378,0.00438839,0.000704384,-0.545362,0.00272135,0.0117342,1805,1499,23.6409,-20.2174
588,-475,23.6039,19.6831,0.00271454,0.00121061,-0.00134024,0.00349936,0.000425802,-0.529747,0.00220472,0.0104486,1812,1499,23.6039,-19.6831
595,-475,23.5929,19.1277,0.00241414,0.000788895,-0.00116603,0.00302277,0.000180259,-0.481072,0.00195786,0.0115707,1819,1499,23.5929,-19.1277
602,-475,23.5804,18.5673,0.00223607,0.000455289,-0.00103675,0.0027123,-2.09421e-05,-0.430601,0.00181522,0.0133159,1826,1499,23.5805,-18.5673
609,-475,23.5425,18.0394,0.00217248,0.000144098,-0.000875491,0.00249809,-0.000181513,-0.356065,0.00172908,0.0126795,1833,1499,23.5425,-18.0394
616,-475,23.5114,17.5149,0.00230223,-0.000229682,-0.000665141,0.00246633,-0.00039378,-0.241883,0.00178998,0.0116143,1840,1499,23.5114,-17.5148
623,-475,23.5087,16.9441,0.00265906,-0.000803438,-0.000346397,0.00269338,-0.000837752,-0.0987385,0.00213047,0.0106174,1847,1499,23.5087,-16.9441
630,-475,23.4966,16.3918,0.00314283,-0.00132195,2.26376e-05,0.00314295,-0.00132207,0.00507007,0.00264837,0.013203,1854,1499,23.4966,-16.3918
637,-475,23.4814,15.8527,0.00370113,-0.00200117,0.00046169,0.00373827,-0.00203831,0.0802687,0.00338291,0.0244194,1861,1499,23.4814,-15.8527
644,-475,23.4515,15.5906,0,0,0,0,0,0,0,-1,1868,1499,23.4515,-15.5906
651,-475,11.7965,7.57593,0,0,0,0,0,0,0,-1,1875,1499,11.7965,-7.5759
658,-475,14.6708,8.80322,0,0,0,0,0,0,0,-1,1882,1499,14.6708,-8.8032
665,-475,9.33435,5.43335,0,0,0,0,0,0,0,-1,1889,1499,9.33439,-5.43332
672,-475,9.38635,1.10474,0,0,0,0,0,0,0,-1,1896,1499,9.38629,-1.10475
679,-475,12.2594,1.31079,0,0,0,0,0,0,0,-1,1903,1499,12.2594,-1.31077
686,-475,0,0,0,0,0,0,0,0,0,-1,1910,1499,0,0
693,-475,0,0,0,0,0,0,0,0,0,-1,1917,1499,0,0
700,-475,0,0,0,0,0,0,0,0,0,-1,1924,1499,0,0
707,-475,0,0,0,0,0,0,0,0,0,-1,1931,1499,0,0
714,-475,0,0,0,0,0,0,0,0,0,-1,1938,1499,0,0
721,-475,0,0,0,0,0,0,0,0,0,-1,1945,1499,0,0
728,-475,0,0,0,0,0,0,0,0,0,-1,1952,1499,0,0
735,-475,0,0,0,0,0,0,0,0,0,-1,1959,1499,0,0
742,-475,0,0,0,0,0,0,0,0,0,-1,1966,1499,0,0
749,-475,0,0,0,0,0,0,0,0,0,-1,1973,1499,0,0
756,-475,0,0,0,0,0,0,0,0,0,-1,1980,1499,0,0
763,-475,0,0,0,0,0,0,0,0,0,-1,1987,1499,0,0
770,-475,0,0,0,0,0,0,0,0,0,-1,1994,1499,0,0
777,-475,0,0,0,0,0,0,0,0,0,-1,2001,1499,0,0
784,-475,0,0,0,0,0,0,0,0,0,-1,2008,1499,0,0
791,-475,0,0,0,0,0,0,0,0,0,-1,2015,1499,0,0
798,-475,0,0,0,0,0,0,0,0,0,-1,2022,1499,0,0
805,-475,0,0,0,0,0,0,0,0,0,-1,2029,1499,0,0
812,-475,0,0,0,0,0,0,0,0,0,-1,2036,1499,0,0
-700,-482,0,0,0,0,0,0,0,0,0,-1,524,1506,0,0
-693,-482,0,0,0,0,0,0,0,0,0,-1,531,1506,0,0
-686,-482,0,0,0,0,0,0,0,0,0,-1,538,1506,0,0
-679,-482,0,0,0,0,0,0,0,0,0,-1,545,1506,0,0
-672,-482,0,0,0,0,0,0,0,0,0,-1,552,1506,0,0
-665,-482,0,0,0,0,0,0,0,0,0,-1,559,1506,0,0
-658,-482,0,0,0,0,0,0,0,0,0,-1,566,1506,0,0
-651,-482,0,0,0,0,0,0,0,0,0,-1,573,1506,0,0
-644,-482,0,0,0,0,0,0,0,0,0,-1,580,1506,0,0
-637,-482,0,0,0,0,0,0,0,0,0,-1,587,1506,0,0
-630,-482,0,0,0,0,0,0,0,0,0,-1,594,1506,0,0
-623,-482,0,0,0,0,0,0,0,0,0,-1,601,1506,0,0
-616,-482,0,0,0,0,0,0,0,0,0,-1,608,1506,0,0
-609,-482,0,0,0,0,0,0,0,0,0,-1,615,1506,0,0
-602,-482,0,0,0,0,0,0,0,0,0,-1,622,1506,0,0
-595,-482,0,0,0,0,0,0,0,0,0,-1,629,1506,0,0
-588,-482,0,0,0,0,0,0,0,0,0,-1,636,1506,0,0
-581,-482,0,0,0,0,0,0,0,0,0,-1,643,1506,0,0
-574,-482,0,0,0,0,0,0,0,0,0,-1,650,1506,0,0
-567,-482,0,0,0,0,0,0,0,0,0,-1,657,1506,0,0
-560,-482,0,0,0,0,0,0,0,0,0,-1,664,1506,0,0
-553,-482,-9.06055,9.34314,0,0,0,0,0,0,0,-1,671,1506,-9.06056,-9.34312
-546,-482,-4.08624,8.34241,0,0,0,0,0,0,0,-1,678,1506,-4.08624,-8.3424
-539,-482,-4.29877,2.73499,0,0,0,0,0,0,0,-1,685,1506,-4.29879,-2.73494
-532,-482,-3.63611,4.23987,0,0,0,0,0,0,0,-1,692,1506,-3.63609,-4.23983
-525,-482,-6.19116,5.24927,0,0,0,0,0,0,0,-1,699,1506,-6.19117,-5.24927
-518,-482,-5.92957,6.39807,0,0,0,0,0,0,0,-1,706,1506,-5.92958,-6.39806
-511,-482,-7.74634,11.9137,0,0,0,0,0,0,0,-1,713,1506,-7.74633,-11.9137
-504,-482,-6.42358,13.4211,0,0,0,0,0,0,0,-1,720,1506,-6.42356,-13.4212
-497,-482,-6.87848,15.0824,0,0,0,0,0,0,0,-1,727,1506,-6.8785,-15.0824
-490,-482,-6.86176,15.3981,-0.00582236,-0.00602219,-0.000472039,-0.00543978,-0.00640478,-0.681104,0.0039873,0.0379739,734,1506,-6.86177,-15.3981
-483,-482,-6.81836,16.0336,-0.00484792,-0.00499093,-0.000608574,-0.00430666,-0.00553219,-0.726915,0.00335507,0.0104415,741,1506,-6.81834,-16.0335
-476,-482,-6.82324,16.6239,-0.00372335,-0.00382093,-0.000517838,-0.00325201,-0.00429227,-0.738427,0.00258548,0.0105014,748,1506,-6.82325,-16.6239
-469,-482,-6.84009,17.2184,-0.00243171,-0.00251246,-0.000149097,-0.00231762,-0.00262655,-0.653169,0.00165768,0.0114392,755,1506,-6.8401,-17.2184
-462,-482,-6.85999,17.802,-0.00103824,-0.00113394,0.000415334,-0.000668006,-0.00150417,0.728047,0.000870239,0.0124324,762,1506,-6.85998,-17.802
-455,-482,-6.88562,18.3618,0.000390228,0.00024773,0.00113601,0.00145722,-0.00081926,0.75408,0.00133142,0.013567,769,1506,-6.8856,-18.3618
-448,-482,-6.92236,18.9662,0.00199558,0.00184337,0.00217502,0.00409583,-0.000256875,0.76791,0.00282008,0.0139991,776,1506,-6.92235,-18.9662
-441,-482,-6.94568,19.5616,0.00374474,0.00361342,0.00348194,0.00716164,0.000196522,0.775971,0.00471028,0.0121306,783,1506,-6.94569,-19.5617
-434,-482,-6.9585,20.1378,0.00558914,0.00565694,0.00509757,0.0107207,0.000525361,0.788723,0.00697862,0.0146581,790,1506,-6.95847,-20.1378
-427,-482,-6.98627,20.7408,0.0073564,0.00752985,0.00704458,0.0144882,0.000398013,0.791554,0.00952893,0.0186288,797,1506,-6.98626,-20.7409
-420,-482,-6.87488,21.5566,0.00927383,0.00985246,0.00958143,0.0191489,-2.26535e-05,0.800491,0.0127735,0.0499737,804,1506,-6.87491,-21.5567
-413,-482,-6.56415,22.3163,0,0,0,0,0,0,0,-1,811,1506,-6.56417,-22.3163
-406,-482,-2.51373,12.7556,0,0,0,0,0,0,0,-1,818,1506,-2.51376,-12.7556
-399,-482,-1.3822,9.22595,0,0,0,0,0,0,0,-1,825,1506,-1.38221,-9.22598
-392,-482,-1.06836,9.22729,0,0,0,0,0,0,0,-1,832,1506,-1.06835,-9.2273
-385,-482,0.0647583,8.90649,0,0,0,0,0,0,0,-1,839,1506,0.0647778,-8.90644
-378,-482,0.215698,5.96948,0,0,0,0,0,0,0,-1,846,1506,0.215681,-5.9695
-371,-482,-0.10907,8.10437,0,0,0,0,0,0,0,-1,853,1506,-0.109063,-8.10433
-364,-482,-0.154968,10.5032,0,0,0,0,0,0,0,-1,860,1506,-0.154976,-10.5032
-357,-482,2.14807,4.60144,0,0,0,0,0,0,0,-1,867,1506,2.14807,-4.60144
-350,-482,-7.5813,-1.45935,0,0,0,0,0,0,0,-1,874,1506,-7.58133,1.45937
-343,-482,-7.19983,-1.26416,0,0,0,0,0,0,0,-1,881,1506,-7.19981,1.26414
-336,-482,-5.21637,-0.0332031,0,0,0,0,0,0,0,-1,888,1506,-5.21639,0.0331993
-329,-482,0,0,0,0,0,0,0,0,0,-1,895,1506,0,0
-322,-482,0,0,0,0,0,0,0,0,0,-1,902,1506,0,0
-315,-482,0,0,0,0,0,0,0,0,0,-1,909,1506,0,0
-308,-482,0,0,0,0,0,0,0,0,0,-1,916,1506,0,0
-301,-482,0,0,0,0,0,0,0,0,0,-1,923,1506,0,0
-294,-482,0,0,0,0,0,0,0,0,0,-1,930,1506,0,0
-287,-482,0,0,0,0,0,0,0,0,0,-1,937,1506,0,0
-280,-482,0,0,0,0,0,0,0,0,0,-1,944,1506,0,0
-273,-482,0,0,0,0,0,0,0,0,0,-1,951,1506,0,0
-266,-482,0,0,0,0,0,0,0,0,0,-1,958,1506,0,0
-259,-482,0,0,0,0,0,0,0,0,0,-1,965,1506,0,0
-252,-482,0,0,0,0,0,0,0,0,0,-1,972,1506,0,0
-245,-482,0,0,0,0,0,0,0,0,0,-1,979,1506,0,0
-238,-482,0,0,0,0,0,0,0,0,0,-1,986,1506,0,0
-231,-482,0,0,0,0,0,0,0,0,0,-1,993,1506,0,0
-224,-482,0,0,0,0,0,0,0,0,0,-1,1000,1506,0,0
-217,-482,0,0,0,0,0,0,0,0,0,-1,1007,1506,0,0
-210,-482,0,0,0,0,0,0,0,0,0,-1,1014,1506,0,0
-203,-482,0,0,0,0,0,0,0,0,0,-1,1021,1506,0,0
-196,-482,0,0,0,0,0,0,0,0,0,-1,1028,1506,0,0
-189,-482,0,0,0,0,0,0,0,0,0,-1,1035,1506,0,0
-182,-482,0,0,0,0,0,0,0,0,0,-1,1042,1506,0,0
-175,-482,0,0,0,0,0,0,0,0,0,-1,1049,1506,0,0
-168,-482,0,0,0,0,0,0,0,0,0,-1,1056,1506,0,0
-161,-482,0,0,0,0,0,0,0,0,0,-1,1063,1506,0,0
-154,-482,0,0,0,0,0,0,0,0,0,-1,1070,1506,0,0
-147,-482,0,0,0,0,0,0,0,0,0,-1,1077,1506,0,0
-140,-482,0,0,0,0,0,0,0,0,0,-1,1084,1506,0,0
-133,-482,0,0,0,0,0,0,0,0,0,-1,1091,1506,0,0
-126,-482,0,0,0,0,0,0,0,0,0,-1,1098,1506,0,0
-119,-482,0,0,0,0,0,0,0,0,0,-1,1105,1506,0,0
-112,-482,0,0,0,0,0,0,0,0,0,-1,1112,1506,0,0
-105,-482,0,0,0,0,0,0,0,0,0,-1,1119,1506,0,0
-98,-482,0,0,0,0,0,0,0,0,0,-1,1126,1506,0,0
-91,-482,0,0,0,0,0,0,0,0,0,-1,1133,1506,0,0
-84,-482,0,0,0,0,0,0,0,0,0,-1,1140,1506,0,0
-77,-482,0,0,0,0,0,0,0,0,0,-1,1147,1506,0,0
-70,-482,0,0,0,0,0,0,0,0,0,-1,1154,1506,0,0
-63,-482,0,0,0,0,0,0,0,0,0,-1,1161,1506,0,0
-56,-482,0,0,0,0,0,0,0,0,0,-1,1168,1506,0,0
-49,-482,0,0,0,0,0,0,0,0,0,-1,1175,1506,0,0
-42,-482,0,0,0,0,0,0,0,0,0,-1,1182,1506,0,0
-35,-482,0,0,0,0,0,0,0,0,0,-1,1189,1506,0,0
-28,-482,0,0,0,0,0,0,0,0,0,-1,1196,1506,0,0
-21,-482,0,0,0,0,0,0,0,0,0,-1,1203,1506,0,0
-14,-482,0,0,0,0,0,0,0,0,0,-1,1210,1506,0,0
-7,-482,0,0,0,0,0,0,0,0,0,-1,1217,1506,0,0
0,-482,0,0,0,0,0,0,0,0,0,-1,1224,1506,0,0
7,-482,0,0,0,0,0,0,0,0,0,-1,1231,1506,0,0
14,-482,0,0,0,0,0,0,0,0,0,-1,1238,1506,0,0
21,-482,0,0,0,0,0,0,0,0,0,-1,1245,1506,0,0
28,-482,0,0,0,0,0,0,0,0,0,-1,1252,1506,0,0
35,-482,0,0,0,0,0,0,0,0,0,-1,1259,1506,0,0
42,-482,0,0,0,0,0,0,0,0,0,-1,1266,1506,0,0
49,-482,0,0,0,0,0,0,0,0,0,-1,1273,1506,0,0
56,-482,0,0,0,0,0,0,0,0,0,-1,1280,1506,0,0
63,-482,0,0,0,0,0,0,0,0,0,-1,1287,1506,0,0
70,-482,0,0,0,0,0,0,0,0,0,-1,1294,1506,0,0
77,-482,0,0,0,0,0,0,0,0,0,-1,1301,1506,0,0
84,-482,0,0,0,0,0,0,0,0,0,-1,1308,1506,0,0
91,-482,0,0,0,0,0,0,0,0,0,-1,1315,1506,0,0
98,-482,0,0,0,0,0,0,0,0,0,-1,1322,1506,0,0
105,-482,0,0,0,0,0,0,0,0,0,-1,1329,1506,0,0
112,-482,0,0,0,0,0,0,0,0,0,-1,1336,1506,0,0
119,-482,0,0,0,0,0,0,0,0,0,-1,1343,1506,0,0
126,-482,0,0,0,0,0,0,0,0,0,-1,1350,1506,0,0
133,-482,0,0,0,0,0,0,0,0,0,-1,1357,1506,0,0
140,-482,0,0,0,0,0,0,0,0,0,-1,1364,1506,0,0
147,-482,0,0,0,0,0,0,0,0,0,-1,1371,1506,0,0
154,-482,0,0,0,0,0,0,0,0,0,-1,1378,1506,0,0
161,-482,0,0,0,0,0,0,0,0,0,-1,1385,1506,0,0
168,-482,0,0,0,0,0,0,0,0,0,-1,1392,1506,0,0
175,-482,0,0,0,0,0,0,0,0,0,-1,1399,1506,0,0
182,-482,0,0,0,0,0,0,0,0,0,-1,1406,1506,0,0
189,-482,0,0,0,0,0,0,0,0,0,-1,1413,1506,0,0
196,-482,0,0,0,0,0,0,0,0,0,-1,1420,1506,0,0
203,-482,0,0,0,0,0,0,0,0,0,-1,1427,1506,0,0
210,-482,0,0,0,0,0,0,0,0,0,-1,1434,1506,0,0
217,-482,0,0,0,0,0,0,0,0,0,-1,1441,1506,0,0
224,-482,0,0,0,0,0,0,0,0,0,-1,1448,1506,0,0
231,-482,0,0,0,0,0,0,0,0,0,-1,1455,1506,0,0
238,-482,0,0,0,0,0,0,0,0,0,-1,1462,1506,0,0
245,-482,0,0,0,0,0,0,0,0,0,-1,1469,1506,0,0
252,-482,0,0,0,0,0,0,0,0,0,-1,1476,1506,0,0
259,-482,0,0,0,0,0,0,0,0,0,-1,1483,1506,0,0
266,-482,0,0,0,0,0,0,0,0,0,-1,1490,1506,0,0
273,-482,0,0,0,0,0,0,0,0,0,-1,1497,1506,0,0
280,-482,0,0,0,0,0,0,0,0,0,-1,1504,1506,0,0
287,-482,0,0,0,0,0,0,0,0,0,-1,1511,1506,0,0
294,-482,0,0,0,0,0,0,0,0,0,-1,1518,1506,0,0
301,-482,0,0,0,0,0,0,0,0,0,-1,1525,1506,0,0
308,-482,0,0,0,0,0,0,0,0,0,-1,1532,1506,0,0
315,-482,0,0,0,0,0,0,0,0,0,-1,1539,1506,0,0
322,-482,0,0,0,0,0,0,0,0,0,-1,1546,1506,0,0
329,-482,0,0,0,0,0,0,0,0,0,-1,1553,1506,0,0
336,-482,0,0,0,0,0,0,0,0,0,-1,1560,1506,0,0
343,-482,0,0,0,0,0,0,0,0,0,-1,1567,1506,0,0
350,-482,0,0,0,0,0,0,0,0,0,-1,1574,1506,0,0
357,-482,0,0,0,0,0,0,0,0,0,-1,1581,1506,0,0
364,-482,0,0,0,0,0,0,0,0,0,-1,1588,1506,0,0
371,-482,0,0,0,0,0,0,0,0,0,-1,1595,1506,0,0
378,-482,0,0,0,0,0,0,0,0,0,-1,1602,1506,0,0
385,-482,0,0,0,0,0,0,0,0,0,-1,1609,1506,0,0
392,-482,0,0,0,0,0,0,0,0,0,-1,1616,1506,0,0
399,-482,0,0,0,0,0,0,0,0,0,-1,1623,1506,0,0
406,-482,0,0,0,0,0,0,0,0,0,-1,1630,1506,0,0
413,-482,0,0,0,0,0,0,0,0,0,-1,1637,1506,0,0
420,-482,0,0,0,0,0,0,0,0,0,-1,1644,1506,0,0
427,-482,0,0,0,0,0,0,0,0,0,-1,1651,1506,0,0
434,-482,0,0,0,0,0,0,0,0,0,-1,1658,1506,0,0
441,-482,0,0,0,0,0,0,0,0,0,-1,1665,1506,0,0
448,-482,4.24146,1.55383,0,0,0,0,0,0,0,-1,1672,1506,4.24149,-1.55381
455,-482,12.4122,1.09729,0,0,0,0,0,0,0,-1,1679,1506,12.4122,-1.09734
462,-482,15.0673,3.13135,0,0,0,0,0,0,0,-1,1686,1506,15.0672,-3.13134
469,-482,15.3793,3.46301,0,0,0,0,0,0,0,-1,1693,1506,15.3793,-3.46307
476,-482,8.69751,9.18738,0,0,0,0,0,0,0,-1,1700,1506,8.69753,-9.18739
483,-482,10.0902,7.17432,0,0,0,0,0,0,0,-1,1707,1506,10.0902,-7.1743
490,-482,11.6289,5.4928,0,0,0,0,0,0,0,-1,1714,1506,11.6289,-5.49283
497,-482,15.9539,7.40222,0,0,0,0,0,0,0,-1,1721,1506,15.9538,-7.40219
504,-482,20.4233,12.006,0,0,0,0,0,0,0,-1,1728,1506,20.4233,-12.006
511,-482,18.4937,12.9175,0,0,0,0,0,0,0,-1,1735,1506,18.4936,-12.9174
518,-482,16.6002,13.9679,0,0,0,0,0,0,0,-1,1742,1506,16.6003,-13.9679
525,-482,18.495,15.9618,0,0,0,0,0,0,0,-1,1749,1506,18.495,-15.9618
532,-482,19.9375,21.0775,0,0,0,0,0,0,0,-1,1756,1506,19.9375,-21.0775
539,-482,20.2291,20.5577,0,0,0,0,0,0,0,-1,1763,1506,20.2291,-20.5578
546,-482,23.0098,23.2748,0,0,0,0,0,0,0,-1,1770,1506,23.0098,-23.2748
553,-482,22.9591,22.4886,0,0,0,0,0,0,0,-1,1777,1506,22.9591,-22.4886
560,-482,23.0463,21.8887,0.00582157,0.00380422,-0.00300359,0.00798133,0.00164446,-0.623404,0.00486625,0.0158154,1784,1506,23.0462,-21.8886
567,-482,23.132,21.3248,0.00461495,0.00270787,-0.00223227,0.00608881,0.00123402,-0.583547,0.00371679,0.0157534,1791,1506,23.132,-21.3249
574,-482,23.1237,20.8025,0.00374883,0.00203671,-0.00181817,0.00490239,0.000883141,-0.565376,0.00301728,0.0145603,1798,1506,23.1237,-20.8025
581,-482,23.0858,20.2529,0.00305197,0.00155027,-0.00154162,0.00401587,0.00058637,-0.558779,0.00250477,0.0101092,1805,1506,23.0858,-20.2529
588,-482,23.0474,19.6936,0.00255047,0.00114474,-0.00133083,0.00335264,0.000342578,-0.542445,0.0021301,0.0118084,1812,1506,23.0474,-19.6936
595,-482,23.036,19.1263,0.00243283,0.000809494,-0.00125156,0.00311288,0.000129448,-0.49773,0.00203348,0.0172822,1819,1506,23.0361,-19.1264
602,-482,23.0476,18.5822,0.00241946,0.000582346,-0.00123835,0.00304274,-4.09338e-05,-0.466296,0.00204227,0.0209968,1826,1506,23.0476,-18.5822
609,-482,23.021,18.0778,0.00251058,0.00036003,-0.00118728,0.00303713,-0.000166519,-0.41743,0.00208248,0.0169996,1833,1506,23.021,-18.0778
616,-482,22.9585,17.5426,0.00285194,-5.68134e-06,-0.00105135,0.00319706,-0.000350801,-0.317182,0.00225741,0.012294,1840,1506,22.9585,-17.5426
623,-482,22.9338,16.9957,0.00340994,-0.000617121,-0.000765647,0.0035506,-0.000757778,-0.181683,0.00265594,0.0162421,1847,1506,22.9339,-16.9957
630,-482,22.9546,16.5089,0.00404273,-0.0011623,-0.000397158,0.00407286,-0.00119243,-0.0757188,0.00318794,0.0349698,1854,1506,22.9546,-16.5089
637,-482,23.045,16.0334,0,0,0,0,0,0,0,-1,1861,1506,23.0451,-16.0334
644,-482,17.5909,11.6163,0,0,0,0,0,0,0,-1,1868,1506,17.5909,-11.6163
651,-482,4.03845,7.05273,0,0,0,0,0,0,0,-1,1875,1506,4.03843,-7.05279
658,-482,10.0278,5.87903,0,0,0,0,0,0,0,-1,1882,1506,10.0279,-5.87902
665,-482,8.15198,3.22229,0,0,0,0,0,0,0,-1,1889,1506,8.15199,-3.22232
672,-482,9.87415,1.3147,0,0,0,0,0,0,0,-1,1896,1506,9.87416,-1.31473
679,-482,0,0,0,0,0,0,0,0,0,-1,1903,1506,0,0
686,-482,0,0,0,0,0,0,0,0,0,-1,1910,1506,0,0
693,-482,0,0,0,0,0,0,0,0,0,-1,1917,1506,0,0
700,-482,0,0,0,0,0,0,0,0,0,-1,1924,1506,0,0
707,-482,0,0,0,0,0,0,0,0,0,-1,1931,1506,0,0
714,-482,0,0,0,0,0,0,0,0,0,-1,1938,1506,0,0
721,-482,0,0,0,0,0,0,0,0,0,-1,1945,1506,0,0
728,-482,0,0,0,0,0,0,0,0,0,-1,1952,1506,0,0
735,-482,0,0,0,0,0,0,0,0,0,-1,1959,1506,0,0
742,-482,0,0,0,0,0,0,0,0,0,-1,1966,1506,0,0
749,-482,0,0,0,0,0,0,0,0,0,-1,1973,1506,0,0
756,-482,0,0,0,0,0,0,0,0,0,-1,1980,1506,0,0
763,-482,0,0,0,0,0,0,0,0,0,-1,1987,1506,0,0
770,-482,0,0,0,0,0,0,0,0,0,-1,1994,1506,0,0
777,-482,0,0,0,0,0,0,0,0,0,-1,2001,1506,0,0
784,-482,0,0,0,0,0,0,0,0,0,-1,2008,1506,0,0
791,-482,0,0,0,0,0,0,0,0,0,-1,2015,1506,0,0
798,-482,0,0,0,0,0,0,0,0,0,-1,2022,1506,0,0
805,-482,0,0,0,0,0,0,0,0,0,-1,2029,1506,0,0
812,-482,0,0,0,0,0,0,0,0,0,-1,2036,1506,0,0
-700,-489,0,0,0,0,0,0,0,0,0,-1,524,1513,0,0
-693,-489,0,0,0,0,0,0,0,0,0,-1,531,1513,0,0
-686,-489,0,0,0,0,0,0,0,0,0,-1,538,1513,0,0
-679,-489,0,0,0,0,0,0,0,0,0,-1,545,1513,0,0
-672,-489,0,0,0,0,0,0,0,0,0,-1,552,1513,0,0
-665,-489,0,0,0,0,0,0,0,0,0,-1,559,1513,0,0
-658,-489,0,0,0,0,0,0,0,0,0,-1,566,1513,0,0
-651,-489,0,0,0,0,0,0,0,0,0,-1,573,1513,0,0
-644,-489,0,0,0,0,0,0,0,0,0,-1,580,1513,0,0
-637,-489,0,0,0,0,0,0,0,0,0,-1,587,1513,0,0
-630,-489,0,0,0,0,0,0,0,0,0,-1,594,1513,0,0
-623,-489,0,0,0,0,0,0,0,0,0,-1,601,1513,0,0
-616,-489,0,0,0,0,0,0,0,0,0,-1,608,1513,0,0
-609,-489,0,0,0,0,0,0,0,0,0,-1,615,1513,0,0
-602,-489,0,0,0,0,0,0,0,0,0,-1,622,1513,0,0
-595,-489,0,0,0,0,0,0,0,0,0,-1,629,1513,0,0
-588,-489,0,0,0,0,0,0,0,0,0,-1,636,1513,0,0
-581,-489,0,0,0,0,0,0,0,0,0,-1,643,1513,0,0
-574,-489,0,0,0,0,0,0,0,0,0,-1,650,1513,0,0
-567,-489,0,0,0,0,0,0,0,0,0,-1,657,1513,0,0
-560,-489,0,0,0,0,0,0,0,0,0,-1,664,1513,0,0
-553,-489,-9.42206,8.5116,0,0,0,0,0,0,0,-1,671,1513,-9.42205,-8.51158
-546,-489,-7.80951,8.18506,0,0,0,0,0,0,0,-1,678,1513,-7.8095,-8.18503
-539,-489,-3.06879,2.82349,0,0,0,0,0,0,0,-1,685,1513,-3.06881,-2.82354
-532,-489,-3.14215,2.5835,0,0,0,0,0,0,0,-1,692,1513,-3.14213,-2.58353
-525,-489,-2.604,4.06274,0,0,0,0,0,0,0,-1,699,1513,-2.60399,-4.06274
-518,-489,-5.43774,7.48059,0,0,0,0,0,0,0,-1,706,1513,-5.43777,-7.48058
-511,-489,-7.52856,10.951,0,0,0,0,0,0,0,-1,713,1513,-7.52857,-10.951
-504,-489,-7.17352,12.8508,0,0,0,0,0,0,0,-1,720,1513,-7.17352,-12.8508
-497,-489,-5.51678,14.9254,0,0,0,0,0,0,0,-1,727,1513,-5.51681,-14.9254
-490,-489,-6.31305,15.3529,0,0,0,0,0,0,0,-1,734,1513,-6.31306,-15.3529
-483,-489,-6.25787,15.9814,-0.00736817,-0.00666939,-0.00120459,-0.00576454,-0.00827302,-0.92655,0.00489819,0.0208382,741,1513,-6.25788,-15.9815
-476,-489,-6.25659,16.6296,-0.00574712,-0.00512975,-0.00111161,-0.00428476,-0.00659211,-0.920834,0.00386261,0.0102952,748,1513,-6.25658,-16.6297
-469,-489,-6.26074,17.2207,-0.00409488,-0.00360325,-0.000764896,-0.00304564,-0.00465249,-0.94087,0.0027286,0.01054,755,1513,-6.26072,-17.2207
-462,-489,-6.28589,17.8221,-0.00243288,-0.00208276,-0.000204987,-0.00198825,-0.00252738,-1.1388,0.00153706,0.0152061,762,1513,-6.28587,-17.8221
-455,-489,-6.32623,18.4194,-0.000832403,-0.000665109,0.000485551,-0.000256053,-0.00124146,0.870697,0.000756866,0.0197764,769,1513,-6.32626,-18.4195
-448,-489,-6.36591,18.9846,0.000834821,0.000849972,0.00145641,0.00229882,-0.000614031,0.787999,0.00177303,0.0181813,776,1513,-6.36588,-18.9846
-441,-489,-6.35785,19.5801,0.00254739,0.00247521,0.00266809,0.00517963,-0.000157031,0.778635,0.0035066,0.0143164,783,1513,-6.35785,-19.5801
-434,-489,-6.38928,20.157,0.00425023,0.00428613,0.00413458,0.00840279,0.000133566,0.787569,0.00555788,0.0163734,790,1513,-6.38926,-20.157
-427,-489,-6.44818,20.7396,0.00585279,0.00592768,0.00584953,0.0117399,4.05908e-05,0.788599,0.00781309,0.0190856,797,1513,-6.44815,-20.7396
-420,-489,-6.48749,21.4388,0.0075122,0.00782675,0.0080328,0.0157038,-0.000364873,0.795187,0.0105929,0.0249574,804,1513,-6.48751,-21.4389
-413,-489,-6.44781,22.218,0,0,0,0,0,0,0,-1,811,1513,-6.44782,-22.2181
-406,-489,-3.10559,15.8143,0,0,0,0,0,0,0,-1,818,1513,-3.10556,-15.8143
-399,-489,-1.41241,9.10718,0,0,0,0,0,0,0,-1,825,1513,-1.41244,-9.10722
-392,-489,-1.0368,9.30469,0,0,0,0,0,0,0,-1,832,1513,-1.03682,-9.30466
-385,-489,-1.75165,10.6559,0,0,0,0,0,0,0,-1,839,1513,-1.75165,-10.6559
-378,-489,-0.401428,9.87048,0,0,0,0,0,0,0,-1,846,1513,-0.401415,-9.87047
-371,-489,-1.11633,10.6606,0,0,0,0,0,0,0,-1,853,1513,-1.11633,-10.6606
-364,-489,-0.503113,8.98486,0,0,0,0,0,0,0,-1,860,1513,-0.503097,-8.98482
-357,-489,-0.609924,10.9606,0,0,0,0,0,0,0,-1,867,1513,-0.609947,-10.9605
-350,-489,-7.94659,-0.358887,0,0,0,0,0,0,0,-1,874,1513,-7.94657,0.358912
-343,-489,-7.49323,-0.437866,0,0,0,0,0,0,0,-1,881,1513,-7.49322,0.437823
-336,-489,-7.02332,-0.53125,0,0,0,0,0,0,0,-1,888,1513,-7.0233,0.531295
-329,-489,-12.7423,4.73523,0,0,0,0,0,0,0,-1,895,1513,-12.7423,-4.73521
-322,-489,0,0,0,0,0,0,0,0,0,-1,902,1513,0,0
-315,-489,0,0,0,0,0,0,0,0,0,-1,909,1513,0,0
-308,-489,0,0,0,0,0,0,0,0,0,-1,916,1513,0,0
-301,-489,0,0,0,0,0,0,0,0,0,-1,923,1513,0,0
-294,-489,0,0,0,0,0,0,0,0,0,-1,930,1513,0,0
-287,-489,0,0,0,0,0,0,0,0,0,-1,937,1513,0,0
-280,-489,0,0,0,0,0,0,0,0,0,-1,944,1513,0,0
-273,-489,0,0,0,0,0,0,0,0,0,-1,951,1513,0,0
-266,-489,0,0,0,0,0,0,0,0,0,-1,958,1513,0,0
-259,-489,0,0,0,0,0,0,0,0,0,-1,965,1513,0,0
-252,-489,0,0,0,0,0,0,0,0,0,-1,972,1513,0,0
-245,-489,0,0,0,0,0,0,0,0,0,-1,979,1513,0,0
-238,-489,0,0,0,0,0,0,0,0,0,-1,986,1513,0,0
-231,-489,0,0,0,0,0,0,0,0,0,-1,993,1513,0,0
-224,-489,0,0,0,0,0,0,0,0,0,-1,1000,1513,0,0
-217,-489,0,0,0,0,0,0,0,0,0,-1,1007,1513,0,0
-210,-489,0,0,0,0,0,0,0,0,0,-1,1014,1513,0,0
-203,-489,0,0,0,0,0,0,0,0,0,-1,1021,1513,0,0
-196,-489,0,0,0,0,0,0,0,0,0,-1,1028,1513,0,0
-189,-489,0,0,0,0,0,0,0,0,0,-1,1035,1513,0,0
-182,-489,0,0,0,0,0,0,0,0,0,-1,1042,1513,0,0
-175,-489,0,0,0,0,0,0,0,0,0,-1,1049,1513,0,0
-168,-489,0,0,0,0,0,0,0,0,0,-1,1056,1513,0,0
-161,-489,0,0,0,0,0,0,0,0,0,-1,1063,1513,0,0
-154,-489,0,0,0,0,0,0,0,0,0,-1,1070,1513,0,0
-147,-489,0,0,0,0,0,0,0,0,0,-1,1077,1513,0,0
-140,-489,0,0,0,0,0,0,0,0,0,-1,1084,1513,0,0
-133,-489,0,0,0,0,0,0,0,0,0,-1,1091,1513,0,0
-126,-489,0,0,0,0,0,0,0,0,0,-1,1098,1513,0,0
-119,-489,0,0,0,0,0,0,0,0,0,-1,1105,1513,0,0
-112,-489,0,0,0,0,0,0,0,0,0,-1,1112,1513,0,0
-105,-489,0,0,0,0,0,0,0,0,0,-1,1119,1513,0,0
-98,-489,0,0,0,0,0,0,0,0,0,-1,1126,1513,0,0
-91,-489,0,0,0,0,0,0,0,0,0,-1,1133,1513,0,0
-84,-489,0,0,0,0,0,0,0,0,0,-1,1140,1513,0,0
-77,-489,0,0,0,0,0,0,0,0,0,-1,1147,1513,0,0
-70,-489,0,0,0,0,0,0,0,0,0,-1,1154,1513,0,0
-63,-489,0,0,0,0,0,0,0,0,0,-1,1161,1513,0,0
-56,-489,0,0,0,0,0,0,0,0,0,-1,1168,1513,0,0
-49,-489,0,0,0,0,0,0,0,0,0,-1,1175,1513,0,0
-42,-489,0,0,0,0,0,0,0,0,0,-1,1182,1513,0,0
-35,-489,0,0,0,0,0,0,0,0,0,-1,1189,1513,0,0
-28,-489,0,0,0,0,0,0,0,0,0,-1,1196,1513,0,0
-21,-489,0,0,0,0,0,0,0,0,0,-1,1203,1513,0,0
-14,-489,0,0,0,0,0,0,0,0,0,-1,1210,1513,0,0
-7,-489,0,0,0,0,0,0,0,0,0,-1,1217,1513,0,0
0,-489,0,0,0,0,0,0,0,0,0,-1,1224,1513,0,0
7,-489,0,0,0,0,0,0,0,0,0,-1,1231,1513,0,0
14,-489,0,0,0,0,0,0,0,0,0,-1,1238,1513,0,0
21,-489,0,0,0,0,0,0,0,0,0,-1,1245,1513,0,0
28,-489,0,0,0,0,0,0,0,0,0,-1,1252,1513,0,0
35,-489,0,0,0,0,0,0,0,0,0,-1,1259,1513,0,0
42,-489,0,0,0,0,0,0,0,0,0,-1,1266,1513,0,0
49,-489,0,0,0,0,0,0,0,0,0,-1,1273,1513,0,0
56,-489,0,0,0,0,0,0,0,0,0,-1,1280,1513,0,0
63,-489,0,0,0,0,0,0,0,0,0,-1,1287,1513,0,0
70,-489,0,0,0,0,0,0,0,0,0,-1,1294,1513,0,0
77,-489,0,0,0,0,0,0,0,0,0,-1,1301,1513,0,0
84,-489,0,0,0,0,0,0,0,0,0,-1,1308,1513,0,0
91,-489,0,0,0,0,0,0,0,0,0,-1,1315,1513,0,0
98,-489,0,0,0,0,0,0,0,0,0,-1,1322,1513,0,0
105,-489,0,0,0,0,0,0,0,0,0,-1,1329,1513,0,0
112,-489,0,0,0,0,0,0,0,0,0,-1,1336,1513,0,0
119,-489,0,0,0,0,0,0,0,0,0,-1,1343,1513,0,0
126,-489,0,0,0,0,0,0,0,0,0,-1,1350,1513,0,0
133,-489,0,0,0,0,0,0,0,0,0,-1,1357,1513,0,0
140,-489,0,0,0,0,0,0,0,0,0,-1,1364,1513,0,0
147,-489,0,0,0,0,0,0,0,0,0,-1,1371,1513,0,0
154,-489,0,0,0,0,0,0,0,0,0,-1,1378,1513,0,0
161,-489,0,0,0,0,0,0,0,0,0,-1,1385,1513,0,0
168,-489,0,0,0,0,0,0,0,0,0,-1,1392,1513,0,0
175,-489,0,0,0,0,0,0,0,0,0,-1,1399,1513,0,0
182,-489,0,0,0,0,0,0,0,0,0,-1,1406,1513,0,0
189,-489,0,0,0,0,0,0,0,0,0,-1,1413,1513,0,0
196,-489,0,0,0,0,0,0,0,0,0,-1,1420,1513,0,0
203,-489,0,0,0,0,0,0,0,0,0,-1,1427,1513,0,0
210,-489,0,0,0,0,0,0,0,0,0,-1,1434,1513,0,0
217,-489,0,0,0,0,0,0,0,0,0,-1,1441,1513,0,0
224,-489,0,0,0,0,0,0,0,0,0,-1,1448,1513,0,0
231,-489,0,0,0,0,0,0,0,0,0,-1,1455,1513,0,0
238,-489,0,0,0,0,0,0,0,0,0,-1,1462,1513,0,0
245,-489,0,0,0,0,0,0,0,0,0,-1,1469,1513,0,0
252,-489,0,0,0,0,0,0,0,0,0,-1,1476,1513,0,0
259,-489,0,0,0,0,0,0,0,0,0,-1,1483,1513,0,0
266,-489,0,0,0,0,0,0,0,0,0,-1,1490,1513,0,0
273,-489,0,0,0,0,0,0,0,0,0,-1,1497,1513,0,0
280,-489,0,0,0,0,0,0,0,0,0,-1,1504,1513,0,0
287,-489,0,0,0,0,0,0,0,0,0,-1,1511,1513,0,0
294,-489,0,0,0,0,0,0,0,0,0,-1,1518,1513,0,0
301,-489,0,0,0,0,0,0,0,0,0,-1,1525,1513,0,0
308,-489,0,0,0,0,0,0,0,0,0,-1,1532,1513,0,0
315,-489,0,0,0,0,0,0,0,0,0,-1,1539,1513,0,0
322,-489,0,0,0,0,0,0,0,0,0,-1,1546,1513,0,0
329,-489,0,0,0,0,0,0,0,0,0,-1,1553,1513,0,0
336,-489,0,0,0,0,0,0,0,0,0,-1,1560,1513,0,0
343,-489,0,0,0,0,0,0,0,0,0,-1,1567,1513,0,0
350,-489,0,0,0,0,0,0,0,0,0,-1,1574,1513,0,0
357,-489,0,0,0,0,0,0,0,0,0,-1,1581,1513,0,0
364,-489,0,0,0,0,0,0,0,0,0,-1,1588,1513,0,0
371,-489,0,0,0,0,0,0,0,0,0,-1,1595,1513,0,0
378,-489,0,0,0,0,0,0,0,0,0,-1,1602,1513,0,0
385,-489,0,0,0,0,0,0,0,0,0,-1,1609,1513,0,0
392,-489,0,0,0,0,0,0,0,0,0,-1,1616,1513,0,0
399,-489,0,0,0,0,0,0,0,0,0,-1,1623,1513,0,0
406,-489,0,0,0,0,0,0,0,0,0,-1,1630,1513,0,0
413,-489,0,0,0,0,0,0,0,0,0,-1,1637,1513,0,0
420,-489,0,0,0,0,0,0,0,0,0,-1,1644,1513,0,0
427,-489,0,0,0,0,0,0,0,0,0,-1,1651,1513,0,0
434,-489,0,0,0,0,0,0,0,0,0,-1,1658,1513,0,0
441,-489,11.4602,2.56787,0,0,0,0,0,0,0,-1,1665,1513,11.4602,-2.56786
448,-489,12.4425,1.72351,0,0,0,0,0,0,0,-1,1672,1513,12.4425,-1.72349
455,-489,12.5575,1.37463,0,0,0,0,0,0,0,-1,1679,1513,12.5575,-1.37469
462,-489,14.9784,3.84888,0,0,0,0,0,0,0,-1,1686,1513,14.9784,-3.84892
469,-489,15.1367,4.53101,0,0,0,0,0,0,0,-1,1693,1513,15.1368,-4.531
476,-489,15.5536,5.09338,0,0,0,0,0,0,0,-1,1700,1513,15.5536,-5.09339
483,-489,8.96912,8.37805,0,0,0,0,0,0,0,-1,1707,1513,8.96909,-8.37809
490,-489,10.5366,7.49561,0,0,0,0,0,0,0,-1,1714,1513,10.5367,-7.49558
497,-489,14.6051,11.8397,0,0,0,0,0,0,0,-1,1721,1513,14.6051,-11.8397
504,-489,16.7527,14.1735,0,0,0,0,0,0,0,-1,1728,1513,16.7527,-14.1735
511,-489,17.83,17.7993,0,0,0,0,0,0,0,-1,1735,1513,17.83,-17.7993
518,-489,16.4751,14.3682,0,0,0,0,0,0,0,-1,1742,1513,16.4751,-14.3682
525,-489,17.2606,17.4949,0,0,0,0,0,0,0,-1,1749,1513,17.2606,-17.4949
532,-489,19.397,21.0182,0,0,0,0,0,0,0,-1,1756,1513,19.397,-21.0182
539,-489,22.2449,23.8129,0,0,0,0,0,0,0,-1,1763,1513,22.2449,-23.8128
546,-489,22.5651,23.1747,0.00791126,0.00651551,-0.00516821,0.0124285,0.00199827,-0.718288,0.00770643,0.0301836,1770,1513,22.5651,-23.1747
553,-489,22.551,22.4906,0.00631551,0.00481831,-0.0038003,0.00944024,0.00169358,-0.688152,0.00581181,0.0195804,1777,1513,22.5511,-22.4906
560,-489,22.5734,21.8932,0.00504568,0.0034965,-0.00276923,0.00714661,0.00139556,-0.649027,0.00437407,0.0126355,1784,1513,22.5734,-21.8932
567,-489,22.6018,21.3578,0.00407451,0.00255066,-0.00210883,0.00555484,0.00107033,-0.612045,0.00340302,0.0151565,1791,1513,22.6018,-21.3578
574,-489,22.5565,20.8391,0.00339551,0.00195941,-0.00175256,0.00457142,0.000783507,-0.590971,0.00282292,0.015077,1798,1513,22.5566,-20.8391
581,-489,22.5515,20.2883,0.00287168,0.00152039,-0.00153755,0.00387548,0.000516586,-0.578382,0.00242983,0.0108923,1805,1513,22.5515,-20.2884
588,-489,22.5161,19.7401,0.00254884,0.00120475,-0.00142499,0.00345231,0.00030128,-0.565058,0.00220797,0.0141616,1812,1513,22.5161,-19.7401
595,-489,22.4923,19.2104,0.00259524,0.000973211,-0.00144654,0.00344261,0.000125844,-0.529904,0.0022543,0.0202171,1819,1513,22.4923,-19.2104
602,-489,22.4937,18.6664,0.0027428,0.000865207,-0.00155234,0.00361814,-1.01333e-05,-0.513441,0.00241548,0.0258005,1826,1513,22.4937,-18.6664
609,-489,22.4691,18.104,0.00300313,0.000738081,-0.00162744,0.00385332,-0.000112117,-0.481417,0.00260706,0.0188058,1833,1513,22.4691,-18.104
616,-489,22.4583,17.5388,0.00360061,0.000430467,-0.0016062,0.00427216,-0.000241077,-0.396008,0.00293177,0.0181817,1840,1513,22.4583,-17.5388
623,-489,22.4226,16.9952,0.00440899,-0.000147682,-0.0014042,0.00480695,-0.00054565,-0.27617,0.00340114,0.0391216,1847,1513,22.4226,-16.9953
630,-489,22.3989,16.3158,0,0,0,0,0,0,0,-1,1854,1513,22.3989,-16.3158
637,-489,17.2048,11.8091,0,0,0,0,0,0,0,-1,1861,1513,17.2048,-11.8091
644,-489,9.67578,8.45874,0,0,0,0,0,0,0,-1,1868,1513,9.67576,-8.45879
651,-489,6.13818,6.85095,0,0,0,0,0,0,0,-1,1875,1513,6.13823,-6.85097
658,-489,5.43848,7.75513,0,0,0,0,0,0,0,-1,1882,1513,5.43844,-7.75509
665,-489,5.48438,8.59912,0,0,0,0,0,0,0,-1,1889,1513,5.48434,-8.59907
672,-489,0,0,0,0,0,0,0,0,0,-1,1896,1513,0,0
679,-489,0,0,0,0,0,0,0,0,0,-1,1903,1513,0,0
686,-489,0,0,0,0,0,0,0,0,0,-1,1910,1513,0,0
693,-489,0,0,0,0,0,0,0,0,0,-1,1917,1513,0,0
700,-489,0,0,0,0,0,0,0,0,0,-1,1924,1513,0,0
707,-489,0,0,0,0,0,0,0,0,0,-1,1931,1513,0,0
714,-489,0,0,0,0,0,0,0,0,0,-1,1938,1513,0,0
721,-489,0,0,0,0,0,0,0,0,0,-1,1945,1513,0,0
728,-489,0,0,0,0,0,0,0,0,0,-1,1952,1513,0,0
735,-489,0,0,0,0,0,0,0,0,0,-1,1959,1513,0,0
742,-489,0,0,0,0,0,0,0,0,0,-1,1966,1513,0,0
749,-489,0,0,0,0,0,0,0,0,0,-1,1973,1513,0,0
756,-489,0,0,0,0,0,0,0,0,0,-1,1980,1513,0,0
763,-489,0,0,0,0,0,0,0,0,0,-1,1987,1513,0,0
770,-489,0,0,0,0,0,0,0,0,0,-1,1994,1513,0,0
777,-489,0,0,0,0,0,0,0,0,0,-1,2001,1513,0,0
784,-489,0,0,0,0,0,0,0,0,0,-1,2008,1513,0,0
791,-489,0,0,0,0,0,0,0,0,0,-1,2015,1513,0,0
798,-489,0,0,0,0,0,0,0,0,0,-1,2022,1513,0,0
805,-489,0,0,0,0,0,0,0,0,0,-1,2029,1513,0,0
812,-489,0,0,0,0,0,0,0,0,0,-1,2036,1513,0,0
-700,-496,0,0,0,0,0,0,0,0,0,-1,524,1520,0,0
-693,-496,0,0,0,0,0,0,0,0,0,-1,531,1520,0,0
-686,-496,0,0,0,0,0,0,0,0,0,-1,538,1520,0,0
-679,-496,0,0,0,0,0,0,0,0,0,-1,545,1520,0,0
-672,-496,0,0,0,0,0,0,0,0,0,-1,552,1520,0,0
-665,-496,0,0,0,0,0,0,0,0,0,-1,559,1520,0,0
-658,-496,0,0,0,0,0,0,0,0,0,-1,566,1520,0,0
-651,-496,0,0,0,0,0,0,0,0,0,-1,573,1520,0,0
-644,-496,0,0,0,0,0,0,0,0,0,-1,580,1520,0,0
-637,-496,0,0,0,0,0,0,0,0,0,-1,587,1520,0,0
-630,-496,0,0,0,0,0,0,0,0,0,-1,594,1520,0,0
-623,-496,0,0,0,0,0,0,0,0,0,-1,601,1520,0,0
-616,-496,0,0,0,0,0,0,0,0,0,-1,608,1520,0,0
-609,-496,0,0,0,0,0,0,0,0,0,-1,615,1520,0,0
-602,-496,0,0,0,0,0,0,0,0,0,-1,622,1520,0,0
-595,-496,0,0,0,0,0,0,0,0,0,-1,629,1520,0,0
-588,-496,0,0,0,0,0,0,0,0,0,-1,636,1520,0,0
-581,-496,0,0,0,0,0,0,0,0,0,-1,643,1520,0,0
-574,-496,0,0,0,0,0,0,0,0,0,-1,650,1520,0,0
-567,-496,0,0,0,0,0,0,0,0,0,-1,657,1520,0,0
-560,-496,0,0,0,0,0,0,0,0,0,-1,664,1520,0,0
-553,-496,0,0,0,0,0,0,0,0,0,-1,671,1520,0,0
-546,-496,-8.09711,7.94836,0,0,0,0,0,0,0,-1,678,1520,-8.09712,-7.94842
-539,-496,-3.20129,1.16052,0,0,0,0,0,0,0,-1,685,1520,-3.20131,-1.16054
-532,-496,-2.98279,2.62146,0,0,0,0,0,0,0,-1,692,1520,-2.98278,-2.62151
-525,-496,-2.75201,4.08032,0,0,0,0,0,0,0,-1,699,1520,-2.75201,-4.08031
-518,-496,-2.6333,5.36072,0,0,0,0,0,0,0,-1,706,1520,-2.63328,-5.36077
-511,-496,-7.92126,9.68604,0,0,0,0,0,0,0,-1,713,1520,-7.92127,-9.68598
-504,-496,-7.51044,11.6274,0,0,0,0,0,0,0,-1,720,1520,-7.51042,-11.6275
-497,-496,-5.30933,14.4291,0,0,0,0,0,0,0,-1,727,1520,-5.30932,-14.4291
-490,-496,-5.49463,15.4386,0,0,0,0,0,0,0,-1,734,1520,-5.49462,-15.4386
-483,-496,-5.57288,16.153,-0.0101606,-0.00760207,-0.00125722,-0.0070877,-0.0106749,-1.18244,0.00627266,0.0369231,741,1520,-5.57289,-16.1529
-476,-496,-5.69409,16.6499,-0.00777971,-0.00553086,-0.00109129,-0.00508836,-0.00822221,-1.18557,0.00479159,0.0161225,748,1520,-5.69408,-16.6499
-469,-496,-5.69904,17.2561,-0.00560813,-0.00373665,-0.00075704,-0.00346876,-0.00587602,-1.23069,0.00341092,0.0104602,755,1520,-5.69903,-17.2561
-462,-496,-5.72076,17.8558,-0.00359272,-0.00211056,-0.000248135,-0.00207012,-0.00363316,-1.40925,0.0021044,0.0152823,762,1520,-5.72077,-17.8558
-455,-496,-5.76801,18.4425,-0.00180193,-0.000767876,0.000313093,-0.000680466,-0.00188934,1.29855,0.00110494,0.020426,769,1520,-5.768,-18.4425
-448,-496,-5.78162,19.0229,-0.000104144,0.000498437,0.00106847,0.00130729,-0.000912993,0.922821,0.0012886,0.0196827,776,1520,-5.78165,-19.023
-441,-496,-5.7713,19.6084,0.00152021,0.00177564,0.00201016,0.00366214,-0.000366285,0.817123,0.00257223,0.0151527,783,1520,-5.77129,-19.6085
-434,-496,-5.81085,20.186,0.00303432,0.00316075,0.00314554,0.00624371,-4.86351e-05,0.795446,0.00417878,0.0139596,790,1520,-5.81084,-20.1861
-427,-496,-5.86212,20.7684,0.00444389,0.00440807,0.00444807,0.00887408,-2.21203e-05,0.783385,0.00592344,0.018138,797,1520,-5.86212,-20.7684
-420,-496,-5.85571,21.3114,0.00583001,0.00577704,0.00611081,0.0119144,-0.00030734,0.783231,0.00804733,0.0184064,804,1520,-5.85574,-21.3114
-413,-496,-5.78308,21.927,0.00740931,0.00795787,0.00801147,0.0156998,-0.000332575,0.802509,0.0105791,0.0303015,811,1520,-5.78308,-21.927
-406,-496,-5.63489,22.7441,0,0,0,0,0,0,0,-1,818,1520,-5.63489,-22.7442
-399,-496,-5.27856,23.658,0,0,0,0,0,0,0,-1,825,1520,-5.27859,-23.658
-392,-496,-1.49786,12.387,0,0,0,0,0,0,0,-1,832,1520,-1.49788,-12.387
-385,-496,-1.72437,11.4985,0,0,0,0,0,0,0,-1,839,1520,-1.72436,-11.4985
-378,-496,-1.45532,14.0719,0,0,0,0,0,0,0,-1,846,1520,-1.45533,-14.0719
-371,-496,0.0877075,12.5299,0,0,0,0,0,0,0,-1,853,1520,0.0876896,-12.5299
-364,-496,0.0881348,10.6422,0,0,0,0,0,0,0,-1,860,1520,0.0881368,-10.6423
-357,-496,0.323792,7.56812,0,0,0,0,0,0,0,-1,867,1520,0.323782,-7.56806
-350,-496,2.1535,7.18945,0,0,0,0,0,0,0,-1,874,1520,2.15348,-7.1894
-343,-496,-7.56244,0.335327,0,0,0,0,0,0,0,-1,881,1520,-7.56242,-0.335322
-336,-496,-3.99249,6.02222,0,0,0,0,0,0,0,-1,888,1520,-3.99246,-6.0222
-329,-496,-6.93689,-0.100342,0,0,0,0,0,0,0,-1,895,1520,-6.93686,0.1003
-322,-496,-6.17505,0.494385,0,0,0,0,0,0,0,-1,902,1520,-6.17507,-0.49437
-315,-496,-7.539,5.78638,0,0,0,0,0,0,0,-1,909,1520,-7.53898,-5.78633
-308,-496,0,0,0,0,0,0,0,0,0,-1,916,1520,0,0
-301,-496,0,0,0,0,0,0,0,0,0,-1,923,1520,0,0
-294,-496,0,0,0,0,0,0,0,0,0,-1,930,1520,0,0
-287,-496,0,0,0,0,0,0,0,0,0,-1,937,1520,0,0
-280,-496,0,0,0,0,0,0,0,0,0,-1,944,1520,0,0
-273,-496,0,0,0,0,0,0,0,0,0,-1,951,1520,0,0
-266,-496,0,0,0,0,0,0,0,0,0,-1,958,1520,0,0
-259,-496,0,0,0,0,0,0,0,0,0,-1,965,1520,0,0
-252,-496,0,0,0,0,0,0,0,0,0,-1,972,1520,0,0
-245,-496,0,0,0,0,0,0,0,0,0,-1,979,1520,0,0
-238,-496,0,0,0,0,0,0,0,0,0,-1,986,1520,0,0
-231,-496,0,0,0,0,0,0,0,0,0,-1,993,1520,0,0
-224,-496,0,0,0,0,0,0,0,0,0,-1,1000,1520,0,0
-217,-496,0,0,0,0,0,0,0,0,0,-1,1007,1520,0,0
-210,-496,0,0,0,0,0,0,0,0,0,-1,1014,1520,0,0
-203,-496,0,0,0,0,0,0,0,0,0,-1,1021,1520,0,0
-196,-496,0,0,0,0,0,0,0,0,0,-1,1028,1520,0,0
-189,-496,0,0,0,0,0,0,0,0,0,-1,1035,1520,0,0
-182,-496,0,0,0,0,0,0,0,0,0,-1,1042,1520,0,0
-175,-496,0,0,0,0,0,0,0,0,0,-1,1049,1520,0,0
-168,-496,0,0,0,0,0,0,0,0,0,-1,1056,1520,0,0
-161,-496,0,0,0,0,0,0,0,0,0,-1,1063,1520,0,0
-154,-496,0,0,0,0,0,0,0,0,0,-1,1070,1520,0,0
-147,-496,0,0,0,0,0,0,0,0,0,-1,1077,1520,0,0
-140,-496,0,0,0,0,0,0,0,0,0,-1,1084,1520,0,0
-133,-496,0,0,0,0,0,0,0,0,0,-1,1091,1520,0,0
-126,-496,0,0,0,0,0,0,0,0,0,-1,1098,1520,0,0
-119,-496,0,0,0,0,0,0,0,0,0,-1,1105,1520,0,0
-112,-496,0,0,0,0,0,0,0,0,0,-1,1112,1520,0,0
-105,-496,0,0,0,0,0,0,0,0,0,-1,1119,1520,0,0
-98,-496,0,0,0,0,0,0,0,0,0,-1,1126,1520,0,0
-91,-496,0,0,0,0,0,0,0,0,0,-1,1133,1520,0,0
-84,-496,0,0,0,0,0,0,0,0,0,-1,1140,1520,0,0
-77,-496,0,0,0,0,0,0,0,0,0,-1,1147,1520,0,0
-70,-496,0,0,0,0,0,0,0,0,0,-1,1154,1520,0,0
-63,-496,0,0,0,0,0,0,0,0,0,-1,1161,1520,0,0
-56,-496,0,0,0,0,0,0,0,0,0,-1,1168,1520,0,0
-49,-496,0,0,0,0,0,0,0,0,0,-1,1175,1520,0,0
-42,-496,0,0,0,0,0,0,0,0,0,-1,1182,1520,0,0
-35,-496,0,0,0,0,0,0,0,0,0,-1,1189,1520,0,0
-28,-496,0,0,0,0,0,0,0,0,0,-1,1196,1520,0,0
-21,-496,0,0,0,0,0,0,0,0,0,-1,1203,1520,0,0
-14,-496,0,0,0,0,0,0,0,0,0,-1,1210,1520,0,0
-7,-496,0,0,0,0,0,0,0,0,0,-1,1217,1520,0,0
0,-496,0,0,0,0,0,0,0,0,0,-1,1224,1520,0,0
7,-496,0,0,0,0,0,0,0,0,0,-1,1231,1520,0,0
14,-496,0,0,0,0,0,0,0,0,0,-1,1238,1520,0,0
21,-496,0,0,0,0,0,0,0,0,0,-1,1245,1520,0,0
28,-496,0,0,0,0,0,0,0,0,0,-1,1252,1520,0,0
35,-496,0,0,0,0,0,0,0,0,0,-1,1259,1520,0,0
42,-496,0,0,0,0,0,0,0,0,0,-1,1266,1520,0,0
49,-496,0,0,0,0,0,0,0,0,0,-1,1273,1520,0,0
56,-496,0,0,0,0,0,0,0,0,0,-1,1280,1520,0,0
63,-496,0,0,0,0,0,0,0,0,0,-1,1287,1520,0,0
70,-496,0,0,0,0,0,0,0,0,0,-1,1294,1520,0,0
77,-496,0,0,0,0,0,0,0,0,0,-1,1301,1520,0,0
84,-496,0,0,0,0,0,0,0,0,0,-1,1308,1520,0,0
91,-496,0,0,0,0,0,0,0,0,0,-1,1315,1520,0,0
98,-496,0,0,0,0,0,0,0,0,0,-1,1322,1520,0,0
105,-496,0,0,0,0,0,0,0,0,0,-1,1329,1520,0,0
112,-496,0,0,0,0,0,0,0,0,0,-1,1336,1520,0,0
119,-496,0,0,0,0,0,0,0,0,0,-1,1343,1520,0,0
126,-496,0,0,0,0,0,0,0,0,0,-1,1350,1520,0,0
133,-496,0,0,0,0,0,0,0,0,0,-1,1357,1520,0,0
140,-496,0,0,0,0,0,0,0,0,0,-1,1364,1520,0,0
147,-496,0,0,0,0,0,0,0,0,0,-1,1371,1520,0,0
154,-496,0,0,0,0,0,0,0,0,0,-1,1378,1520,0,0
161,-496,0,0,0,0,0,0,0,0,0,-1,1385,1520,0,0
168,-496,0,0,0,0,0,0,0,0,0,-1,1392,1520,0,0
175,-496,0,0,0,0,0,0,0,0,0,-1,1399,1520,0,0
182,-496,0,0,0,0,0,0,0,0,0,-1,1406,1520,0,0
189,-496,0,0,0,0,0,0,0,0,0,-1,1413,1520,0,0
196,-496,0,0,0,0,0,0,0,0,0,-1,1420,1520,0,0
203,-496,0,0,0,0,0,0,0,0,0,-1,1427,1520,0,0
210,-496,0,0,0,0,0,0,0,0,0,-1,1434,1520,0,0
217,-496,0,0,0,0,0,0,0,0,0,-1,1441,1520,0,0
224,-496,0,0,0,0,0,0,0,0,0,-1,1448,1520,0,0
231,-496,0,0,0,0,0,0,0,0,0,-1,1455,1520,0,0
238,-496,0,0,0,0,0,0,0,0,0,-1,1462,1520,0,0
245,-496,0,0,0,0,0,0,0,0,0,-1,1469,1520,0,0
252,-496,0,0,0,0,0,0,0,0,0,-1,1476,1520,0,0
259,-496,0,0,0,0,0,0,0,0,0,-1,1483,1520,0,0
266,-496,0,0,0,0,0,0,0,0,0,-1,1490,1520,0,0
273,-496,0,0,0,0,0,0,0,0,0,-1,1497,1520,0,0
280,-496,0,0,0,0,0,0,0,0,0,-1,1504,1520,0,0
287,-496,0,0,0,0,0,0,0,0,0,-1,1511,1520,0,0
294,-496,0,0,0,0,0,0,0,0,0,-1,1518,1520,0,0
301,-496,0,0,0,0,0,0,0,0,0,-1,1525,1520,0,0
308,-496,0,0,0,0,0,0,0,0,0,-1,1532,1520,0,0
315,-496,0,0,0,0,0,0,0,0,0,-1,1539,1520,0,0
322,-496,0,0,0,0,0,0,0,0,0,-1,1546,1520,0,0
329,-496,0,0,0,0,0,0,0,0,0,-1,1553,1520,0,0
336,-496,0,0,0,0,0,0,0,0,0,-1,1560,1520,0,0
343,-496,0,0,0,0,0,0,0,0,0,-1,1567,1520,0,0
350,-496,0,0,0,0,0,0,0,0,0,-1,1574,1520,0,0
357,-496,0,0,0,0,0,0,0,0,0,-1,1581,1520,0,0
364,-496,0,0,0,0,0,0,0,0,0,-1,1588,1520,0,0
371,-496,0,0,0,0,0,0,0,0,0,-1,1595,1520,0,0
378,-496,0,0,0,0,0,0,0,0,0,-1,1602,1520,0,0
385,-496,0,0,0,0,0,0,0,0,0,-1,1609,1520,0,0
392,-496,0,0,0,0,0,0,0,0,0,-1,1616,1520,0,0
399,-496,0,0,0,0,0,0,0,0,0,-1,1623,1520,0,0
406,-496,0,0,0,0,0,0,0,0,0,-1,1630,1520,0,0
413,-496,0,0,0,0,0,0,0,0,0,-1,1637,1520,0,0
420,-496,0,0,0,0,0,0,0,0,0,-1,1644,1520,0,0
427,-496,0,0,0,0,0,0,0,0,0,-1,1651,1520,0,0
434,-496,11.0457,3.37732,0,0,0,0,0,0,0,-1,1658,1520,11.0456,-3.37736
441,-496,11.788,2.75488,0,0,0,0,0,0,0,-1,1665,1520,11.7879,-2.75485
448,-496,12.2146,2.18494,0,0,0,0,0,0,0,-1,1672,1520,12.2146,-2.18489
455,-496,12.3489,1.65173,0,0,0,0,0,0,0,-1,1679,1520,12.3489,-1.65178
462,-496,12.1912,1.32361,0,0,0,0,0,0,0,-1,1686,1520,12.1911,-1.32357
469,-496,14.8138,5.77954,0,0,0,0,0,0,0,-1,1693,1520,14.8138,-5.77958
476,-496,15.2449,6.27942,0,0,0,0,0,0,0,-1,1700,1520,15.2449,-6.27936
483,-496,9.19812,6.88367,0,0,0,0,0,0,0,-1,1707,1520,9.19812,-6.88361
490,-496,10.2123,7.97144,0,0,0,0,0,0,0,-1,1714,1520,10.2122,-7.97145
497,-496,13.9297,12.2981,0,0,0,0,0,0,0,-1,1721,1520,13.9297,-12.2982
504,-496,16.3271,16.6501,0,0,0,0,0,0,0,-1,1728,1520,16.3272,-16.6502
511,-496,17.6753,18.0685,0,0,0,0,0,0,0,-1,1735,1520,17.6753,-18.0685
518,-496,17.0537,17.3118,0,0,0,0,0,0,0,-1,1742,1520,17.0538,-17.3118
525,-496,18.2721,19.3259,0,0,0,0,0,0,0,-1,1749,1520,18.2721,-19.3259
532,-496,21.5659,24.6676,0,0,0,0,0,0,0,-1,1756,1520,21.566,-24.6676
539,-496,22.0454,23.6945,0.00848259,0.0077484,-0.00631723,0.0144434,0.00178761,-0.756376,0.00909182,0.0443589,1763,1520,22.0454,-23.6945
546,-496,21.964,23.0837,0.00672547,0.00579903,-0.0046206,0.010906,0.00161849,-0.73544,0.00679572,0.018127,1770,1520,21.964,-23.0838
553,-496,22.05,22.4332,0.00539711,0.00431387,-0.00339995,0.00829831,0.00141267,-0.70641,0.00512661,0.0141802,1777,1520,22.0501,-22.4332
560,-496,22.0614,21.9084,0.00436019,0.00313348,-0.00249018,0.00631144,0.00118223,-0.664647,0.00387415,0.0136482,1784,1520,22.0614,-21.9084
567,-496,22.0537,21.3649,0.00362308,0.00234311,-0.00196267,0.00504747,0.000918721,-0.627795,0.00310439,0.0117021,1791,1520,22.0537,-21.3649
574,-496,22.0363,20.8099,0.00314104,0.00185732,-0.00169616,0.00431273,0.000685632,-0.604515,0.00267605,0.0125994,1798,1520,22.0362,-20.8099
581,-496,22.01,20.2906,0.00281683,0.00150953,-0.00158001,0.00387306,0.000453293,-0.589268,0.00244499,0.0134997,1805,1520,22.01,-20.2906
588,-496,21.9893,19.7629,0.00271062,0.00133769,-0.00161474,0.00377875,0.000269559,-0.584411,0.0024343,0.0160489,1812,1520,21.9893,-19.7629
595,-496,21.9603,19.2446,0.00294205,0.00127234,-0.00177908,0.00407242,0.000141973,-0.56602,0.00266888,0.018121,1819,1520,21.9604,-19.2446
602,-496,21.9396,18.7125,0.00327125,0.0013558,-0.00204666,0.00457318,5.38733e-05,-0.566559,0.00303099,0.0196162,1826,1520,21.9395,-18.7126
609,-496,21.9514,18.1119,0.00373208,0.00139953,-0.00230096,0.00514545,-1.38471e-05,-0.550835,0.00343493,0.0180951,1833,1520,21.9514,-18.1119
616,-496,22.0271,17.4323,0.00466034,0.00125189,-0.00247145,0.00595819,-4.59584e-05,-0.483555,0.00398754,0.0392913,1840,1520,22.0271,-17.4323
623,-496,22.0151,16.8661,0,0,0,0,0,0,0,-1,1847,1520,22.0151,-16.8661
630,-496,18.5656,13.8966,0,0,0,0,0,0,0,-1,1854,1520,18.5655,-13.8967
637,-496,14.6411,10.1016,0,0,0,0,0,0,0,-1,1861,1520,14.6411,-10.1016
644,-496,12.4537,10.087,0,0,0,0,0,0,0,-1,1868,1520,12.4537,-10.0871
651,-496,8.18506,5.47803,0,0,0,0,0,0,0,-1,1875,1520,8.18505,-5.47806
658,-496,7.79993,4.02563,0,0,0,0,0,0,0,-1,1882,1520,7.79997,-4.02568
665,-496,5.47583,7.90625,0,0,0,0,0,0,0,-1,1889,1520,5.47581,-7.90628
672,-496,0,0,0,0,0,0,0,0,0,-1,1896,1520,0,0
679,-496,0,0,0,0,0,0,0,0,0,-1,1903,1520,0,0
686,-496,0,0,0,0,0,0,0,0,0,-1,1910,1520,0,0
693,-496,0,0,0,0,0,0,0,0,0,-1,1917,1520,0,0
700,-496,0,0,0,0,0,0,0,0,0,-1,1924,1520,0,0
707,-496,0,0,0,0,0,0,0,0,0,-1,1931,1520,0,0
714,-496,0,0,0,0,0,0,0,0,0,-1,1938,1520,0,0
721,-496,0,0,0,0,0,0,0,0,0,-1,1945,1520,0,0
728,-496,0,0,0,0,0,0,0,0,0,-1,1952,1520,0,0
735,-496,0,0,0,0,0,0,0,0,0,-1,1959,1520,0,0
742,-496,0,0,0,0,0,0,0,0,0,-1,1966,1520,0,0
749,-496,0,0,0,0,0,0,0,0,0,-1,1973,1520,0,0
756,-496,0,0,0,0,0,0,0,0,0,-1,1980,1520,0,0
763,-496,0,0,0,0,0,0,0,0,0,-1,1987,1520,0,0
770,-496,0,0,0,0,0,0,0,0,0,-1,1994,1520,0,0
777,-496,0,0,0,0,0,0,0,0,0,-1,2001,1520,0,0
784,-496,0,0,0,0,0,0,0,0,0,-1,2008,1520,0,0
791,-496,0,0,0,0,0,0,0,0,0,-1,2015,1520,0,0
798,-496,0,0,0,0,0,0,0,0,0,-1,2022,1520,0,0
805,-496,0,0,0,0,0,0,0,0,0,-1,2029,1520,0,0
812,-496,0,0,0,0,0,0,0,0,0,-1,2036,1520,0,0
-700,-503,0,0,0,0,0,0,0,0,0,-1,524,1527,0,0
-693,-503,0,0,0,0,0,0,0,0,0,-1,531,1527,0,0
-686,-503,0,0,0,0,0,0,0,0,0,-1,538,1527,0,0
-679,-503,0,0,0,0,0,0,0,0,0,-1,545,1527,0,0
-672,-503,0,0,0,0,0,0,0,0,0,-1,552,1527,0,0
-665,-503,0,0,0,0,0,0,0,0,0,-1,559,1527,0,0
-658,-503,0,0,0,0,0,0,0,0,0,-1,566,1527,0,0
-651,-503,0,0,0,0,0,0,0,0,0,-1,573,1527,0,0
-644,-503,0,0,0,0,0,0,0,0,0,-1,580,1527,0,0
-637,-503,0,0,0,0,0,0,0,0,0,-1,587,1527,0,0
-630,-503,0,0,0,0,0,0,0,0,0,-1,594,1527,0,0
-623,-503,0,0,0,0,0,0,0,0,0,-1,601,1527,0,0
-616,-503,0,0,0,0,0,0,0,0,0,-1,608,1527,0,0
-609,-503,0,0,0,0,0,0,0,0,0,-1,615,1527,0,0
-602,-503,0,0,0,0,0,0,0,0,0,-1,622,1527,0,0
-595,-503,0,0,0,0,0,0,0,0,0,-1,629,1527,0,0
-588,-503,0,0,0,0,0,0,0,0,0,-1,636,1527,0,0
-581,-503,0,0,0,0,0,0,0,0,0,-1,643,1527,0,0
-574,-503,0,0,0,0,0,0,0,0,0,-1,650,1527,0,0
-567,-503,0,0,0,0,0,0,0,0,0,-1,657,1527,0,0
-560,-503,0,0,0,0,0,0,0,0,0,-1,664,1527,0,0
-553,-503,0,0,0,0,0,0,0,0,0,-1,671,1527,0,0
-546,-503,0,0,0,0,0,0,0,0,0,-1,678,1527,0,0
-539,-503,3.50177,4.26428,0,0,0,0,0,0,0,-1,685,1527,3.50177,-4.26424
-532,-503,-3.13196,1.05298,0,0,0,0,0,0,0,-1,692,1527,-3.13194,-1.05299
-525,-503,-2.94293,2.59314,0,0,0,0,0,0,0,-1,699,1527,-2.94296,-2.59314
-518,-503,-2.7395,4.05872,0,0,0,0,0,0,0,-1,706,1527,-2.73948,-4.05871
-511,-503,-1.60022,7.23877,0,0,0,0,0,0,0,-1,713,1527,-1.60023,-7.23872
-504,-503,-8.1402,10.1541,0,0,0,0,0,0,0,-1,720,1527,-8.14017,-10.1541
-497,-503,-4.51758,14.0781,0,0,0,0,0,0,0,-1,727,1527,-4.5176,-14.0782
-490,-503,-4.28577,15.8732,0,0,0,0,0,0,0,-1,734,1527,-4.28578,-15.8731
-483,-503,-4.97498,16.3116,0,0,0,0,0,0,0,-1,741,1527,-4.97498,-16.3117
-476,-503,-5.01617,16.7665,-0.0104828,-0.0064401,-0.00141047,-0.00599664,-0.0109262,-1.26617,0.00631827,0.0295007,748,1527,-5.01616,-16.7665
-469,-503,-5.13098,17.2886,-0.00764443,-0.00426738,-0.0010829,-0.00394997,-0.00796185,-1.28567,0.00459682,0.0117051,755,1527,-5.131,-17.2886
-462,-503,-5.15179,17.9049,-0.00516234,-0.00243697,-0.000601944,-0.00230994,-0.00528937,-1.36282,0.00306196,0.0118093,762,1527,-5.15181,-17.9049
-455,-503,-5.18195,18.4996,-0.0030499,-0.00102016,-9.54774e-05,-0.00101567,-0.00305438,-1.5239,0.00179612,0.0180121,769,1527,-5.18195,-18.4996
-448,-503,-5.18933,19.0829,-0.00119391,0.000168351,0.000546218,0.000360314,-0.00138587,1.23284,0.00106454,0.0168342,776,1527,-5.18931,-19.0828
-441,-503,-5.17102,19.6323,0.000479448,0.00129431,0.00135081,0.0022978,-0.000524043,0.931868,0.00173316,0.0135803,783,1527,-5.17101,-19.6323
-434,-503,-5.20752,20.1934,0.0019641,0.00248337,0.00232529,0.00456347,-0.000116006,0.840997,0.00308171,0.0120938,790,1527,-5.2075,-20.1934
-427,-503,-5.29272,20.7561,0.00336825,0.00361133,0.00343287,0.00692481,5.47701e-05,0.803093,0.00459839,0.0188647,797,1527,-5.29273,-20.7561
-420,-503,-5.25446,21.2947,0.00468459,0.00479153,0.0048425,0.00958086,-0.000104739,0.790919,0.00642244,0.0181018,804,1527,-5.25443,-21.2947
-413,-503,-5.2652,21.8722,0.00606104,0.006524,0.00643426,0.0127309,-0.000145898,0.803378,0.00853634,0.0164372,811,1527,-5.26521,-21.8722
-406,-503,-5.26123,22.4695,0.0077145,0.00858824,0.00840928,0.016572,-0.000269255,0.81135,0.0111388,0.0256279,818,1527,-5.26125,-22.4695
-399,-503,-5.12097,23.2621,0.0103999,0.0125373,0.011308,0.022827,0.000110224,0.832512,0.0151814,0.0416348,825,1527,-5.12094,-23.2621
-392,-503,-4.80145,24.2454,0,0,0,0,0,0,0,-1,832,1527,-4.80143,-24.2453
-385,-503,-2.00403,14.1218,0,0,0,0,0,0,0,-1,839,1527,-2.00403,-14.1218
-378,-503,-2.07043,13.8632,0,0,0,0,0,0,0,-1,846,1527,-2.07043,-13.8631
-371,-503,-1.67285,13.8081,0,0,0,0,0,0,0,-1,853,1527,-1.67285,-13.8081
-364,-503,0.181396,12.3768,0,0,0,0,0,0,0,-1,860,1527,0.18138,-12.3768
-357,-503,0.558533,9.25452,0,0,0,0,0,0,0,-1,867,1527,0.558542,-9.25446
-350,-503,0.219971,6.84827,0,0,0,0,0,0,0,-1,874,1527,0.21996,-6.84831
-343,-503,-3.5802,4.43274,0,0,0,0,0,0,0,-1,881,1527,-3.58018,-4.43276
-336,-503,-3.2384,6.40637,0,0,0,0,0,0,0,-1,888,1527,-3.2384,-6.40643
-329,-503,-1.70691,11.886,0,0,0,0,0,0,0,-1,895,1527,-1.70689,-11.886
-322,-503,-3.31317,8.81519,0,0,0,0,0,0,0,-1,902,1527,-3.31315,-8.81524
-315,-503,-3.90265,7.73853,0,0,0,0,0,0,0,-1,909,1527,-3.90264,-7.73854
-308,-503,-1.70264,7.35413,0,0,0,0,0,0,0,-1,916,1527,-1.70262,-7.35416
-301,-503,0,0,0,0,0,0,0,0,0,-1,923,1527,0,0
-294,-503,0,0,0,0,0,0,0,0,0,-1,930,1527,0,0
-287,-503,0,0,0,0,0,0,0,0,0,-1,937,1527,0,0
-280,-503,0,0,0,0,0,0,0,0,0,-1,944,1527,0,0
-273,-503,0,0,0,0,0,0,0,0,0,-1,951,1527,0,0
-266,-503,0,0,0,0,0,0,0,0,0,-1,958,1527,0,0
-259,-503,0,0,0,0,0,0,0,0,0,-1,965,1527,0,0
-252,-503,0,0,0,0,0,0,0,0,0,-1,972,1527,0,0
-245,-503,0,0,0,0,0,0,0,0,0,-1,979,1527,0,0
-238,-503,0,0,0,0,0,0,0,0,0,-1,986,1527,0,0
-231,-503,0,0,0,0,0,0,0,0,0,-1,993,1527,0,0
-224,-503,0,0,0,0,0,0,0,0,0,-1,1000,1527,0,0
-217,-503,0,0,0,0,0,0,0,0,0,-1,1007,1527,0,0
-210,-503,0,0,0,0,0,0,0,0,0,-1,1014,1527,0,0
-203,-503,0,0,0,0,0,0,0,0,0,-1,1021,1527,0,0
-196,-503,0,0,0,0,0,0,0,0,0,-1,1028,1527,0,0
-189,-503,0,0,0,0,0,0,0,0,0,-1,1035,1527,0,0
-182,-503,0,0,0,0,0,0,0,0,0,-1,1042,1527,0,0
-175,-503,0,0,0,0,0,0,0,0,0,-1,1049,1527,0,0
-168,-503,0,0,0,0,0,0,0,0,0,-1,1056,1527,0,0
-161,-503,0,0,0,0,0,0,0,0,0,-1,1063,1527,0,0
-154,-503,0,0,0,0,0,0,0,0,0,-1,1070,1527,0,0
-147,-503,0,0,0,0,0,0,0,0,0,-1,1077,1527,0,0
-140,-503,0,0,0,0,0,0,0,0,0,-1,1084,1527,0,0
-133,-503,0,0,0,0,0,0,0,0,0,-1,1091,1527,0,0
-126,-503,0,0,0,0,0,0,0,0,0,-1,1098,1527,0,0
-119,-503,0,0,0,0,0,0,0,0,0,-1,1105,1527,0,0
-112,-503,0,0,0,0,0,0,0,0,0,-1,1112,1527,0,0
-105,-503,0,0,0,0,0,0,0,0,0,-1,1119,1527,0,0
-98,-503,0,0,0,0,0,0,0,0,0,-1,1126,1527,0,0
-91,-503,0,0,0,0,0,0,0,0,0,-1,1133,1527,0,0
-84,-503,0,0,0,0,0,0,0,0,0,-1,1140,1527,0,0
-77,-503,0,0,0,0,0,0,0,0,0,-1,1147,1527,0,0
-70,-503,0,0,0,0,0,0,0,0,0,-1,1154,1527,0,0
-63,-503,0,0,0,0,0,0,0,0,0,-1,1161,1527,0,0
-56,-503,0,0,0,0,0,0,0,0,0,-1,1168,1527,0,0
-49,-503,0,0,0,0,0,0,0,0,0,-1,1175,1527,0,0
-42,-503,0,0,0,0,0,0,0,0,0,-1,1182,1527,0,0
-35,-503,0,0,0,0,0,0,0,0,0,-1,1189,1527,0,0
-28,-503,0,0,0,0,0,0,0,0,0,-1,1196,1527,0,0
-21,-503,0,0,0,0,0,0,0,0,0,-1,1203,1527,0,0
-14,-503,0,0,0,0,0,0,0,0,0,-1,1210,1527,0,0
-7,-503,0,0,0,0,0,0,0,0,0,-1,1217,1527,0,0
0,-503,0,0,0,0,0,0,0,0,0,-1,1224,1527,0,0
7,-503,0,0,0,0,0,0,0,0,0,-1,1231,1527,0,0
14,-503,0,0,0,0,0,0,0,0,0,-1,1238,1527,0,0
21,-503,0,0,0,0,0,0,0,0,0,-1,1245,1527,0,0
28,-503,0,0,0,0,0,0,0,0,0,-1,1252,1527,0,0
35,-503,0,0,0,0,0,0,0,0,0,-1,1259,1527,0,0
42,-503,0,0,0,0,0,0,0,0,0,-1,1266,1527,0,0
49,-503,0,0,0,0,0,0,0,0,0,-1,1273,1527,0,0
56,-503,0,0,0,0,0,0,0,0,0,-1,1280,1527,0,0
63,-503,0,0,0,0,0,0,0,0,0,-1,1287,1527,0,0
70,-503,0,0,0,0,0,0,0,0,0,-1,1294,1527,0,0
77,-503,0,0,0,0,0,0,0,0,0,-1,1301,1527,0,0
84,-503,0,0,0,0,0,0,0,0,0,-1,1308,1527,0,0
91,-503,0,0,0,0,0,0,0,0,0,-1,1315,1527,0,0
98,-503,0,0,0,0,0,0,0,0,0,-1,1322,1527,0,0
105,-503,0,0,0,0,0,0,0,0,0,-1,1329,1527,0,0
112,-503,0,0,0,0,0,0,0,0,0,-1,1336,1527,0,0
119,-503,0,0,0,0,0,0,0,0,0,-1,1343,1527,0,0
126,-503,0,0,0,0,0,0,0,0,0,-1,1350,1527,0,0
133,-503,0,0,0,0,0,0,0,0,0,-1,1357,1527,0,0
140,-503,0,0,0,0,0,0,0,0,0,-1,1364,1527,0,0
147,-503,0,0,0,0,0,0,0,0,0,-1,1371,1527,0,0
154,-503,0,0,0,0,0,0,0,0,0,-1,1378,1527,0,0
161,-503,0,0,0,0,0,0,0,0,0,-1,1385,1527,0,0
168,-503,0,0,0,0,0,0,0,0,0,-1,1392,1527,0,0
175,-503,0,0,0,0,0,0,0,0,0,-1,1399,1527,0,0
182,-503,0,0,0,0,0,0,0,0,0,-1,1406,1527,0,0
189,-503,0,0,0,0,0,0,0,0,0,-1,1413,1527,0,0
196,-503,0,0,0,0,0,0,0,0,0,-1,1420,1527,0,0
203,-503,0,0,0,0,0,0,0,0,0,-1,1427,1527,0,0
210,-503,0,0,0,0,0,0,0,0,0,-1,1434,1527,0,0
217,-503,0,0,0,0,0,0,0,0,0,-1,1441,1527,0,0
224,-503,0,0,0,0,0,0,0,0,0,-1,1448,1527,0,0
231,-503,0,0,0,0,0,0,0,0,0,-1,1455,1527,0,0
238,-503,0,0,0,0,0,0,0,0,0,-1,1462,1527,0,0
245,-503,0,0,0,0,0,0,0,0,0,-1,1469,1527,0,0
252,-503,0,0,0,0,0,0,0,0,0,-1,1476,1527,0,0
259,-503,0,0,0,0,0,0,0,0,0,-1,1483,1527,0,0
266,-503,0,0,0,0,0,0,0,0,0,-1,1490,1527,0,0
273,-503,0,0,0,0,0,0,0,0,0,-1,1497,1527,0,0
280,-503,0,0,0,0,0,0,0,0,0,-1,1504,1527,0,0
287,-503,0,0,0,0,0,0,0,0,0,-1,1511,1527,0,0
294,-503,0,0,0,0,0,0,0,0,0,-1,1518,1527,0,0
301,-503,0,0,0,0,0,0,0,0,0,-1,1525,1527,0,0
308,-503,0,0,0,0,0,0,0,0,0,-1,1532,1527,0,0
315,-503,0,0,0,0,0,0,0,0,0,-1,1539,1527,0,0
322,-503,0,0,0,0,0,0,0,0,0,-1,1546,1527,0,0
329,-503,0,0,0,0,0,0,0,0,0,-1,1553,1527,0,0
336,-503,0,0,0,0,0,0,0,0,0,-1,1560,1527,0,0
343,-503,0,0,0,0,0,0,0,0,0,-1,1567,1527,0,0
350,-503,0,0,0,0,0,0,0,0,0,-1,1574,1527,0,0
357,-503,0,0,0,0,0,0,0,0,0,-1,1581,1527,0,0
364,-503,0,0,0,0,0,0,0,0,0,-1,1588,1527,0,0
371,-503,0,0,0,0,0,0,0,0,0,-1,1595,1527,0,0
378,-503,0,0,0,0,0,0,0,0,0,-1,1602,1527,0,0
385,-503,0,0,0,0,0,0,0,0,0,-1,1609,1527,0,0
392,-503,0,0,0,0,0,0,0,0,0,-1,1616,1527,0,0
399,-503,0,0,0,0,0,0,0,0,0,-1,1623,1527,0,0
406,-503,0,0,0,0,0,0,0,0,0,-1,1630,1527,0,0
413,-503,0,0,0,0,0,0,0,0,0,-1,1637,1527,0,0
420,-503,0,0,0,0,0,0,0,0,0,-1,1644,1527,0,0
427,-503,10.5968,4.9856,0,0,0,0,0,0,0,-1,1651,1527,10.5969,-4.98563
434,-503,11.4329,3.97217,0,0,0,0,0,0,0,-1,1658,1527,11.4328,-3.97222
441,-503,12.0957,2.96509,0,0,0,0,0,0,0,-1,1665,1527,12.0957,-2.96512
448,-503,12.3259,2.53894,0,0,0,0,0,0,0,-1,1672,1527,12.326,-2.53895
455,-503,12.1669,2.18762,0,0,0,0,0,0,0,-1,1679,1527,12.1668,-2.18767
462,-503,11.59,2.60791,0,0,0,0,0,0,0,-1,1686,1527,11.5899,-2.60794
469,-503,11.1625,1.61853,0,0,0,0,0,0,0,-1,1693,1527,11.1625,-1.61856
476,-503,9.07703,5.81042,0,0,0,0,0,0,0,-1,1700,1527,9.07699,-5.81047
483,-503,9.74414,6.92432,0,0,0,0,0,0,0,-1,1707,1527,9.74417,-6.9243
490,-503,10.5033,10.1071,0,0,0,0,0,0,0,-1,1714,1527,10.5032,-10.107
497,-503,15.0057,17.9476,0,0,0,0,0,0,0,-1,1721,1527,15.0058,-17.9476
504,-503,16.4764,18.4486,0,0,0,0,0,0,0,-1,1728,1527,16.4764,-18.4486
511,-503,16.8276,18.3271,0,0,0,0,0,0,0,-1,1735,1527,16.8276,-18.3272
518,-503,17.2533,18.2738,0,0,0,0,0,0,0,-1,1742,1527,17.2533,-18.2738
525,-503,20.5665,25.0525,0,0,0,0,0,0,0,-1,1749,1527,20.5665,-25.0525
532,-503,21.296,24.2968,0.00899812,0.00874545,-0.00726042,0.0161333,0.00161027,-0.776699,0.010261,0.0462924,1756,1527,21.296,-24.2968
539,-503,21.4814,23.6069,0.00708083,0.00669428,-0.00543373,0.0123247,0.00145039,-0.767621,0.00777823,0.0228445,1763,1527,21.4815,-23.6069
546,-503,21.4993,22.9929,0.00566098,0.00503702,-0.00401552,0.00937662,0.00132138,-0.746629,0.00586049,0.0124678,1770,1527,21.4993,-22.9929
553,-503,21.5272,22.4614,0.00459238,0.00375056,-0.00296165,0.00716288,0.00118006,-0.714811,0.00443455,0.013199,1777,1527,21.5272,-22.4615
560,-503,21.5009,21.936,0.0037859,0.00271179,-0.00217827,0.00549234,0.00100535,-0.664533,0.00337671,0.0131193,1784,1527,21.5008,-21.9361
567,-503,21.4918,21.379,0.00327114,0.002076,-0.00178055,0.00455172,0.000795424,-0.623498,0.00280716,0.0122866,1791,1527,21.4918,-21.379
574,-503,21.5061,20.8308,0.0029831,0.00170935,-0.00161384,0.00408119,0.00061126,-0.597462,0.00254166,0.0129942,1798,1527,21.5061,-20.8308
581,-503,21.4542,20.3063,0.00286883,0.00148481,-0.00161473,0.00393359,0.000420057,-0.582957,0.00249419,0.0139083,1805,1527,21.4542,-20.3063
588,-503,21.4136,19.7937,0.00300544,0.00150673,-0.00182948,0.00423309,0.00027908,-0.59102,0.00273379,0.0167019,1812,1527,21.4136,-19.7937
595,-503,21.399,19.2565,0.0034303,0.00167006,-0.00216843,0.00489042,0.000209946,-0.592616,0.0031926,0.0135424,1819,1527,21.399,-19.2565
602,-503,21.4513,18.6606,0.00395726,0.00203021,-0.00264874,0.00581229,0.000175188,-0.610955,0.0038178,0.0267435,1826,1527,21.4513,-18.6606
609,-503,21.5114,17.9303,0,0,0,0,0,0,0,-1,1833,1527,21.5113,-17.9304
616,-503,21.5786,17.4777,0,0,0,0,0,0,0,-1,1840,1527,21.5786,-17.4776
623,-503,18.7351,15.5999,0,0,0,0,0,0,0,-1,1847,1527,18.7351,-15.5999
630,-503,20.6721,13.9077,0,0,0,0,0,0,0,-1,1854,1527,20.6721,-13.9077
637,-503,14.5564,9.20496,0,0,0,0,0,0,0,-1,1861,1527,14.5564,-9.2049
644,-503,11.4802,7.57214,0,0,0,0,0,0,0,-1,1868,1527,11.4802,-7.57215
651,-503,11.5718,6.5448,0,0,0,0,0,0,0,-1,1875,1527,11.5718,-6.54476
658,-503,8.25635,3.10498,0,0,0,0,0,0,0,-1,1882,1527,8.2563,-3.10493
665,-503,0,0,0,0,0,0,0,0,0,-1,1889,1527,0,0
672,-503,0,0,0,0,0,0,0,0,0,-1,1896,1527,0,0
679,-503,0,0,0,0,0,0,0,0,0,-1,1903,1527,0,0
686,-503,0,0,0,0,0,0,0,0,0,-1,1910,1527,0,0
693,-503,0,0,0,0,0,0,0,0,0,-1,1917,1527,0,0
700,-503,0,0,0,0,0,0,0,0,0,-1,1924,1527,0,0
707,-503,0,0,0,0,0,0,0,0,0,-1,1931,1527,0,0
714,-503,0,0,0,0,0,0,0,0,0,-1,1938,1527,0,0
721,-503,0,0,0,0,0,0,0,0,0,-1,1945,1527,0,0
728,-503,0,0,0,0,0,0,0,0,0,-1,1952,1527,0,0
735,-503,0,0,0,0,0,0,0,0,0,-1,1959,1527,0,0
742,-503,0,0,0,0,0,0,0,0,0,-1,1966,1527,0,0
749,-503,0,0,0,0,0,0,0,0,0,-1,1973,1527,0,0
756,-503,0,0,0,0,0,0,0,0,0,-1,1980,1527,0,0
763,-503,0,0,0,0,0,0,0,0,0,-1,1987,1527,0,0
770,-503,0,0,0,0,0,0,0,0,0,-1,1994,1527,0,0
777,-503,0,0,0,0,0,0,0,0,0,-1,2001,1527,0,0
784,-503,0,0,0,0,0,0,0,0,0,-1,2008,1527,0,0
791,-503,0,0,0,0,0,0,0,0,0,-1,2015,1527,0,0
798,-503,0,0,0,0,0,0,0,0,0,-1,2022,1527,0,0
805,-503,0,0,0,0,0,0,0,0,0,-1,2029,1527,0,0
812,-503,0,0,0,0,0,0,0,0,0,-1,2036,1527,0,0
-700,-510,0,0,0,0,0,0,0,0,0,-1,524,1534,0,0
-693,-510,0,0,0,0,0,0,0,0,0,-1,531,1534,0,0
-686,-510,0,0,0,0,0,0,0,0,0,-1,538,1534,0,0
-679,-510,0,0,0,0,0,0,0,0,0,-1,545,1534,0,0
-672,-510,0,0,0,0,0,0,0,0,0,-1,552,1534,0,0
-665,-510,0,0,0,0,0,0,0,0,0,-1,559,1534,0,0
-658,-510,0,0,0,0,0,0,0,0,0,-1,566,1534,0,0
-651,-510,0,0,0,0,0,0,0,0,0,-1,573,1534,0,0
-644,-510,0,0,0,0,0,0,0,0,0,-1,580,1534,0,0
-637,-510,0,0,0,0,0,0,0,0,0,-1,587,1534,0,0
-630,-510,0,0,0,0,0,0,0,0,0,-1,594,1534,0,0
-623,-510,0,0,0,0,0,0,0,0,0,-1,601,1534,0,0
-616,-510,0,0,0,0,0,0,0,0,0,-1,608,1534,0,0
-609,-510,0,0,0,0,0,0,0,0,0,-1,615,1534,0,0
-602,-510,0,0,0,0,0,0,0,0,0,-1,622,1534,0,0
-595,-510,0,0,0,0,0,0,0,0,0,-1,629,1534,0,0
-588,-510,0,0,0,0,0,0,0,0,0,-1,636,1534,0,0
-581,-510,0,0,0,0,0,0,0,0,0,-1,643,1534,0,0
-574,-510,0,0,0,0,0,0,0,0,0,-1,650,1534,0,0
-567,-510,0,0,0,0,0,0,0,0,0,-1,657,1534,0,0
-560,-510,0,0,0,0,0,0,0,0,0,-1,664,1534,0,0
-553,-510,0,0,0,0,0,0,0,0,0,-1,671,1534,0,0
-546,-510,0,0,0,0,0,0,0,0,0,-1,678,1534,0,0
-539,-510,0,0,0,0,0,0,0,0,0,-1,685,1534,0,0
-532,-510,-3.95129,4.52014,0,0,0,0,0,0,0,-1,692,1534,-3.95131,-4.5202
-525,-510,-2.77411,0.316772,0,0,0,0,0,0,0,-1,699,1534,-2.77409,-0.3168
-518,-510,-2.86847,2.71423,0,0,0,0,0,0,0,-1,706,1534,-2.86849,-2.71424
-511,-510,-2.28571,4.48083,0,0,0,0,0,0,0,-1,713,1534,-2.28571,-4.48086
-504,-510,-4.86731,10.8224,0,0,0,0,0,0,0,-1,720,1534,-4.8673,-10.8224
-497,-510,-3.57507,15.3401,0,0,0,0,0,0,0,-1,727,1534,-3.57509,-15.3401
-490,-510,-3.99969,15.4836,0,0,0,0,0,0,0,-1,734,1534,-3.99967,-15.4836
-483,-510,-3.99194,16.0334,-0.0180337,-0.0105605,-0.00192404,-0.0100943,-0.0185,-1.33304,0.0106958,0.0437059,741,1534,-3.99194,-16.0334
-476,-510,-4.2262,16.6892,-0.0135239,-0.00696384,-0.00163804,-0.00657756,-0.0139101,-1.33921,0.00803497,0.0395057,748,1534,-4.22621,-16.6891
-469,-510,-4.55371,17.3254,-0.00990326,-0.00435259,-0.00134085,-0.00404566,-0.0102102,-1.34577,0.00593702,0.0150993,755,1534,-4.55371,-17.3255
-462,-510,-4.57123,17.9131,-0.00691185,-0.0023355,-0.000919682,-0.00215759,-0.00708975,-1.37971,0.00419645,0.011743,762,1534,-4.57124,-17.9131
-455,-510,-4.60638,18.5251,-0.00446499,-0.000894125,-0.000494009,-0.000827042,-0.00453207,-1.43583,0.00278691,0.0148664,769,1534,-4.60637,-18.5252
-448,-510,-4.60382,19.101,-0.00244595,0.000153785,1.19705e-05,0.00015384,-0.002446,1.56619,0.00168429,0.0130473,776,1534,-4.6038,-19.101
-441,-510,-4.60205,19.6467,-0.000708876,0.00106808,0.000668755,0.00129164,-0.000932435,1.24818,0.00128964,0.0136229,783,1534,-4.60203,-19.6467
-434,-510,-4.66302,20.1893,0.00079276,0.00201355,0.00149348,0.00301656,-0.000210248,0.979393,0.00208466,0.0158823,790,1534,-4.66301,-20.1893
-427,-510,-4.71661,20.7283,0.00226862,0.00298781,0.00243975,0.00509432,0.000162108,0.858566,0.00334348,0.0247822,797,1534,-4.71661,-20.7283
-420,-510,-4.71326,21.2927,0.00361902,0.00398565,0.00365587,0.0074628,0.000141872,0.810449,0.00492859,0.0225585,804,1534,-4.71326,-21.2928
-413,-510,-4.71326,21.9125,0.00495366,0.00531099,0.00504492,0.0101804,8.42432e-05,0.803098,0.00675903,0.0117875,811,1534,-4.71323,-21.9125
-406,-510,-4.74762,22.4781,0.00647341,0.00703537,0.00670142,0.0134617,4.7076e-05,0.80635,0.00895881,0.0117248,818,1534,-4.74762,-22.4782
-399,-510,-4.75397,23.0295,0.00874565,0.0102093,0.00901972,0.0185269,0.000428133,0.825879,0.012211,0.014747,825,1534,-4.75395,-23.0296
-392,-510,-4.57477,23.8458,0.0112869,0.0131631,0.0113814,0.0236451,0.00080499,0.826518,0.015502,0.0451106,832,1534,-4.57478,-23.8458
-385,-510,-4.26221,24.7581,0,0,0,0,0,0,0,-1,839,1534,-4.26222,-24.7581
-378,-510,-1.78308,13.8044,0,0,0,0,0,0,0,-1,846,1534,-1.78309,-13.8044
-371,-510,-1.74982,13.8027,0,0,0,0,0,0,0,-1,853,1534,-1.74981,-13.8028
-364,-510,-1.3479,13.7771,0,0,0,0,0,0,0,-1,860,1534,-1.34791,-13.7771
-357,-510,-0.254395,8.89575,0,0,0,0,0,0,0,-1,867,1534,-0.254397,-8.89569
-350,-510,0.471191,6.06458,0,0,0,0,0,0,0,-1,874,1534,0.47118,-6.06453
-343,-510,-6.96869,26.3074,0,0,0,0,0,0,0,-1,881,1534,-6.9687,-26.3074
-336,-510,-5.76508,28.7972,0,0,0,0,0,0,0,-1,888,1534,-5.76506,-28.7972
-329,-510,-4.87781,20.6893,0,0,0,0,0,0,0,-1,895,1534,-4.87782,-20.6894
-322,-510,-0.251526,11.973,0,0,0,0,0,0,0,-1,902,1534,-0.251497,-11.9731
-315,-510,-1.73047,10.9796,0,0,0,0,0,0,0,-1,909,1534,-1.73049,-10.9796
-308,-510,-2.05328,9.72034,0,0,0,0,0,0,0,-1,916,1534,-2.05327,-9.72036
-301,-510,-1.85437,11.5869,0,0,0,0,0,0,0,-1,923,1534,-1.85437,-11.5869
-294,-510,0,0,0,0,0,0,0,0,0,-1,930,1534,0,0
-287,-510,0,0,0,0,0,0,0,0,0,-1,937,1534,0,0
-280,-510,0,0,0,0,0,0,0,0,0,-1,944,1534,0,0
-273,-510,0,0,0,0,0,0,0,0,0,-1,951,1534,0,0
-266,-510,0,0,0,0,0,0,0,0,0,-1,958,1534,0,0
-259,-510,0,0,0,0,0,0,0,0,0,-1,965,1534,0,0
-252,-510,0,0,0,0,0,0,0,0,0,-1,972,1534,0,0
-245,-510,0,0,0,0,0,0,0,0,0,-1,979,1534,0,0
-238,-510,0,0,0,0,0,0,0,0,0,-1,986,1534,0,0
-231,-510,0,0,0,0,0,0,0,0,0,-1,993,1534,0,0
-224,-510,0,0,0,0,0,0,0,0,0,-1,1000,1534,0,0
-217,-510,0,0,0,0,0,0,0,0,0,-1,1007,1534,0,0
-210,-510,0,0,0,0,0,0,0,0,0,-1,1014,1534,0,0
-203,-510,0,0,0,0,0,0,0,0,0,-1,1021,1534,0,0
-196,-510,0,0,0,0,0,0,0,0,0,-1,1028,1534,0,0
-189,-510,0,0,0,0,0,0,0,0,0,-1,1035,1534,0,0
-182,-510,0,0,0,0,0,0,0,0,0,-1,1042,1534,0,0
-175,-510,0,0,0,0,0,0,0,0,0,-1,1049,1534,0,0
-168,-510,0,0,0,0,0,0,0,0,0,-1,1056,1534,0,0
-161,-510,0,0,0,0,0,0,0,0,0,-1,1063,1534,0,0
-154,-510,0,0,0,0,0,0,0,0,0,-1,1070,1534,0,0
-147,-510,0,0,0,0,0,0,0,0,0,-1,1077,1534,0,0
-140,-510,0,0,0,0,0,0,0,0,0,-1,1084,1534,0,0
-133,-510,0,0,0,0,0,0,0,0,0,-1,1091,1534,0,0
-126,-510,0,0,0,0,0,0,0,0,0,-1,1098,1534,0,0
-119,-510,0,0,0,0,0,0,0,0,0,-1,1105,1534,0,0
-112,-510,0,0,0,0,0,0,0,0,0,-1,1112,1534,0,0
-105,-510,0,0,0,0,0,0,0,0,0,-1,1119,1534,0,0
-98,-510,0,0,0,0,0,0,0,0,0,-1,1126,1534,0,0
-91,-510,0,0,0,0,0,0,0,0,0,-1,1133,1534,0,0
-84,-510,0,0,0,0,0,0,0,0,0,-1,1140,1534,0,0
-77,-510,0,0,0,0,0,0,0,0,0,-1,1147,1534,0,0
-70,-510,0,0,0,0,0,0,0,0,0,-1,1154,1534,0,0
-63,-510,0,0,0,0,0,0,0,0,0,-1,1161,1534,0,0
-56,-510,0,0,0,0,0,0,0,0,0,-1,1168,1534,0,0
-49,-510,0,0,0,0,0,0,0,0,0,-1,1175,1534,0,0
-42,-510,0,0,0,0,0,0,0,0,0,-1,1182,1534,0,0
-35,-510,0,0,0,0,0,0,0,0,0,-1,1189,1534,0,0
-28,-510,0,0,0,0,0,0,0,0,0,-1,1196,1534,0,0
-21,-510,0,0,0,0,0,0,0,0,0,-1,1203,1534,0,0
-14,-510,0,0,0,0,0,0,0,0,0,-1,1210,1534,0,0
-7,-510,0,0,0,0,0,0,0,0,0,-1,1217,1534,0,0
0,-510,0,0,0,0,0,0,0,0,0,-1,1224,1534,0,0
7,-510,0,0,0,0,0,0,0,0,0,-1,1231,1534,0,0
14,-510,0,0,0,0,0,0,0,0,0,-1,1238,1534,0,0
21,-510,0,0,0,0,0,0,0,0,0,-1,1245,1534,0,0
28,-510,0,0,0,0,0,0,0,0,0,-1,1252,1534,0,0
35,-510,0,0,0,0,0,0,0,0,0,-1,1259,1534,0,0
42,-510,0,0,0,0,0,0,0,0,0,-1,1266,1534,0,0
49,-510,0,0,0,0,0,0,0,0,0,-1,1273,1534,0,0
56,-510,0,0,0,0,0,0,0,0,0,-1,1280,1534,0,0
63,-510,0,0,0,0,0,0,0,0,0,-1,1287,1534,0,0
70,-510,0,0,0,0,0,0,0,0,0,-1,1294,1534,0,0
77,-510,0,0,0,0,0,0,0,0,0,-1,1301,1534,0,0
84,-510,0,0,0,0,0,0,0,0,0,-1,1308,1534,0,0
91,-510,0,0,0,0,0,0,0,0,0,-1,1315,1534,0,0
98,-510,0,0,0,0,0,0,0,0,0,-1,1322,1534,0,0
105,-510,0,0,0,0,0,0,0,0,0,-1,1329,1534,0,0
112,-510,0,0,0,0,0,0,0,0,0,-1,1336,1534,0,0
119,-510,0,0,0,0,0,0,0,0,0,-1,1343,1534,0,0
126,-510,0,0,0,0,0,0,0,0,0,-1,1350,1534,0,0
133,-510,0,0,0,0,0,0,0,0,0,-1,1357,1534,0,0
140,-510,0,0,0,0,0,0,0,0,0,-1,1364,1534,0,0
147,-510,0,0,0,0,0,0,0,0,0,-1,1371,1534,0,0
154,-510,0,0,0,0,0,0,0,0,0,-1,1378,1534,0,0
161,-510,0,0,0,0,0,0,0,0,0,-1,1385,1534,0,0
168,-510,0,0,0,0,0,0,0,0,0,-1,1392,1534,0,0
175,-510,0,0,0,0,0,0,0,0,0,-1,1399,1534,0,0
182,-510,0,0,0,0,0,0,0,0,0,-1,1406,1534,0,0
189,-510,0,0,0,0,0,0,0,0,0,-1,1413,1534,0,0
196,-510,0,0,0,0,0,0,0,0,0,-1,1420,1534,0,0
203,-510,0,0,0,0,0,0,0,0,0,-1,1427,1534,0,0
210,-510,0,0,0,0,0,0,0,0,0,-1,1434,1534,0,0
217,-510,0,0,0,0,0,0,0,0,0,-1,1441,1534,0,0
224,-510,0,0,0,0,0,0,0,0,0,-1,1448,1534,0,0
231,-510,0,0,0,0,0,0,0,0,0,-1,1455,1534,0,0
238,-510,0,0,0,0,0,0,0,0,0,-1,1462,1534,0,0
245,-510,0,0,0,0,0,0,0,0,0,-1,1469,1534,0,0
252,-510,0,0,0,0,0,0,0,0,0,-1,1476,1534,0,0
259,-510,0,0,0,0,0,0,0,0,0,-1,1483,1534,0,0
266,-510,0,0,0,0,0,0,0,0,0,-1,1490,1534,0,0
273,-510,0,0,0,0,0,0,0,0,0,-1,1497,1534,0,0
280,-510,0,0,0,0,0,0,0,0,0,-1,1504,1534,0,0
287,-510,0,0,0,0,0,0,0,0,0,-1,1511,1534,0,0
294,-510,0,0,0,0,0,0,0,0,0,-1,1518,1534,0,0
301,-510,0,0,0,0,0,0,0,0,0,-1,1525,1534,0,0
308,-510,0,0,0,0,0,0,0,0,0,-1,1532,1534,0,0
315,-510,0,0,0,0,0,0,0,0,0,-1,1539,1534,0,0
322,-510,0,0,0,0,0,0,0,0,0,-1,1546,1534,0,0
329,-510,0,0,0,0,0,0,0,0,0,-1,1553,1534,0,0
336,-510,0,0,0,0,0,0,0,0,0,-1,1560,1534,0,0
343,-510,0,0,0,0,0,0,0,0,0,-1,1567,1534,0,0
350,-510,0,0,0,0,0,0,0,0,0,-1,1574,1534,0,0
357,-510,0,0,0,0,0,0,0,0,0,-1,1581,1534,0,0
364,-510,0,0,0,0,0,0,0,0,0,-1,1588,1534,0,0
371,-510,0,0,0,0,0,0,0,0,0,-1,1595,1534,0,0
378,-510,0,0,0,0,0,0,0,0,0,-1,1602,1534,0,0
385,-510,0,0,0,0,0,0,0,0,0,-1,1609,1534,0,0
392,-510,0,0,0,0,0,0,0,0,0,-1,1616,1534,0,0
399,-510,0,0,0,0,0,0,0,0,0,-1,1623,1534,0,0
406,-510,0,0,0,0,0,0,0,0,0,-1,1630,1534,0,0
413,-510,0,0,0,0,0,0,0,0,0,-1,1637,1534,0,0
420,-510,14.1888,6.71936,0,0,0,0,0,0,0,-1,1644,1534,14.1889,-6.71939
427,-510,10.2134,5.59485,0,0,0,0,0,0,0,-1,1651,1534,10.2134,-5.59485
434,-510,11.8219,4.07898,0,0,0,0,0,0,0,-1,1658,1534,11.8219,-4.07895
441,-510,12.6812,3.02991,0,0,0,0,0,0,0,-1,1665,1534,12.6811,-3.0299
448,-510,13.2379,2.2804,0,0,0,0,0,0,0,-1,1672,1534,13.2379,-2.28037
455,-510,9.76892,2.20642,0,0,0,0,0,0,0,-1,1679,1534,9.76894,-2.20647
462,-510,9.84692,2.49182,0,0,0,0,0,0,0,-1,1686,1534,9.84695,-2.49185
469,-510,16.6072,7.26941,0,0,0,0,0,0,0,-1,1693,1534,16.6072,-7.26945
476,-510,15.9199,7.8645,0,0,0,0,0,0,0,-1,1700,1534,15.9199,-7.86455
483,-510,13.0833,8.10938,0,0,0,0,0,0,0,-1,1707,1534,13.0833,-8.10932
490,-510,13.0841,15.3286,0,0,0,0,0,0,0,-1,1714,1534,13.0841,-15.3286
497,-510,15.5652,18.823,0,0,0,0,0,0,0,-1,1721,1534,15.5652,-18.823
504,-510,15.998,18.7478,0,0,0,0,0,0,0,-1,1728,1534,15.998,-18.7478
511,-510,15.9443,18.0476,0,0,0,0,0,0,0,-1,1735,1534,15.9443,-18.0476
518,-510,20.6954,25.5142,0,0,0,0,0,0,0,-1,1742,1534,20.6955,-25.5142
525,-510,20.6442,24.8336,0,0,0,0,0,0,0,-1,1749,1534,20.6441,-24.8336
532,-510,20.973,24.1212,0.00734027,0.00730482,-0.00594354,0.0132661,0.00137897,-0.783907,0.00842213,0.0243336,1756,1534,20.973,-24.1213
539,-510,21.0422,23.4866,0.00583415,0.00561287,-0.00449627,0.0102211,0.00122588,-0.773097,0.00644445,0.0131137,1763,1534,21.0423,-23.4866
546,-510,20.9932,23.0083,0.0047143,0.00419881,-0.00334049,0.00780697,0.00110614,-0.746896,0.00487792,0.012544,1770,1534,20.9932,-23.0083
553,-510,20.975,22.4777,0.00388012,0.00307683,-0.00245117,0.00596233,0.000994618,-0.70419,0.00368833,0.0130748,1777,1534,20.975,-22.4777
560,-510,20.9585,21.9219,0.00328511,0.00216504,-0.00179389,0.00460434,0.0008458,-0.634097,0.00283008,0.0138134,1784,1534,20.9585,-21.9219
567,-510,20.941,21.3743,0.00297246,0.0016701,-0.00151862,0.00397362,0.000668942,-0.582856,0.00245665,0.0130411,1791,1534,20.9411,-21.3743
574,-510,20.9204,20.8761,0.00286731,0.00142896,-0.00145753,0.00377343,0.000522832,-0.556213,0.00236072,0.0138554,1798,1534,20.9204,-20.8761
581,-510,20.8955,20.3811,0.00297615,0.00135482,-0.00160002,0.00395915,0.000371819,-0.550916,0.00252464,0.0130776,1805,1534,20.8955,-20.3811
588,-510,20.8865,19.8324,0.00340014,0.00162939,-0.00204277,0.00474116,0.000288377,-0.580908,0.00306917,0.0136325,1812,1534,20.8865,-19.8324
595,-510,21.0093,19.1439,0.00404812,0.00211446,-0.00260353,0.00585854,0.00030404,-0.607613,0.0038084,0.023123,1819,1534,21.0093,-19.1439
602,-510,21.0625,18.5024,0,0,0,0,0,0,0,-1,1826,1534,21.0625,-18.5024
609,-510,20.798,18.4797,0,0,0,0,0,0,0,-1,1833,1534,20.7979,-18.4797
616,-510,18.7024,16.2474,0,0,0,0,0,0,0,-1,1840,1534,18.7024,-16.2474
623,-510,19.6013,14.6211,0,0,0,0,0,0,0,-1,1847,1534,19.6013,-14.6211
630,-510,13.7461,9.30334,0,0,0,0,0,0,0,-1,1854,1534,13.7461,-9.30335
637,-510,11.0155,7.38464,0,0,0,0,0,0,0,-1,1861,1534,11.0155,-7.38463
644,-510,11.5809,7.17126,0,0,0,0,0,0,0,-1,1868,1534,11.5809,-7.17123
651,-510,8.70471,3.5061,0,0,0,0,0,0,0,-1,1875,1534,8.70475,-3.50611
658,-510,0,0,0,0,0,0,0,0,0,-1,1882,1534,0,0
665,-510,0,0,0,0,0,0,0,0,0,-1,1889,1534,0,0
672,-510,0,0,0,0,0,0,0,0,0,-1,1896,1534,0,0
679,-510,0,0,0,0,0,0,0,0,0,-1,1903,1534,0,0
686,-510,0,0,0,0,0,0,0,0,0,-1,1910,1534,0,0
693,-510,0,0,0,0,0,0,0,0,0,-1,1917,1534,0,0
700,-510,0,0,0,0,0,0,0,0,0,-1,1924,1534,0,0
707,-510,0,0,0,0,0,0,0,0,0,-1,1931,1534,0,0
714,-510,0,0,0,0,0,0,0,0,0,-1,1938,1534,0,0
721,-510,0,0,0,0,0,0,0,0,0,-1,1945,1534,0,0
728,-510,0,0,0,0,0,0,0,0,0,-1,1952,1534,0,0
735,-510,0,0,0,0,0,0,0,0,0,-1,1959,1534,0,0
742,-510,0,0,0,0,0,0,0,0,0,-1,1966,1534,0,0
749,-510,0,0,0,0,0,0,0,0,0,-1,1973,1534,0,0
756,-510,0,0,0,0,0,0,0,0,0,-1,1980,1534,0,0
763,-510,0,0,0,0,0,0,0,0,0,-1,1987,1534,0,0
770,-510,0,0,0,0,0,0,0,0,0,-1,1994,1534,0,0
777,-510,0,0,0,0,0,0,0,0,0,-1,2001,1534,0,0
784,-510,0,0,0,0,0,0,0,0,0,-1,2008,1534,0,0
791,-510,0,0,0,0,0,0,0,0,0,-1,2015,1534,0,0
798,-510,0,0,0,0,0,0,0,0,0,-1,2022,1534,0,0
805,-510,0,0,0,0,0,0,0,0,0,-1,2029,1534,0,0
812,-510,0,0,0,0,0,0,0,0,0,-1,2036,1534,0,0
-700,-517,0,0,0,0,0,0,0,0,0,-1,524,1541,0,0
-693,-517,0,0,0,0,0,0,0,0,0,-1,531,1541,0,0
-686,-517,0,0,0,0,0,0,0,0,0,-1,538,1541,0,0
-679,-517,0,0,0,0,0,0,0,0,0,-1,545,1541,0,0
-672,-517,0,0,0,0,0,0,0,0,0,-1,552,1541,0,0
-665,-517,0,0,0,0,0,0,0,0,0,-1,559,1541,0,0
-658,-517,0,0,0,0,0,0,0,0,0,-1,566,1541,0,0
-651,-517,0,0,0,0,0,0,0,0,0,-1,573,1541,0,0
-644,-517,0,0,0,0,0,0,0,0,0,-1,580,1541,0,0
-637,-517,0,0,0,0,0,0,0,0,0,-1,587,1541,0,0
-630,-517,0,0,0,0,0,0,0,0,0,-1,594,1541,0,0
-623,-517,0,0,0,0,0,0,0,0,0,-1,601,1541,0,0
-616,-517,0,0,0,0,0,0,0,0,0,-1,608,1541,0,0
-609,-517,0,0,0,0,0,0,0,0,0,-1,615,1541,0,0
-602,-517,0,0,0,0,0,0,0,0,0,-1,622,1541,0,0
-595,-517,0,0,0,0,0,0,0,0,0,-1,629,1541,0,0
-588,-517,0,0,0,0,0,0,0,0,0,-1,636,1541,0,0
-581,-517,0,0,0,0,0,0,0,0,0,-1,643,1541,0,0
-574,-517,0,0,0,0,0,0,0,0,0,-1,650,1541,0,0
-567,-517,0,0,0,0,0,0,0,0,0,-1,657,1541,0,0
-560,-517,0,0,0,0,0,0,0,0,0,-1,664,1541,0,0
-553,-517,0,0,0,0,0,0,0,0,0,-1,671,1541,0,0
-546,-517,0,0,0,0,0,0,0,0,0,-1,678,1541,0,0
-539,-517,0,0,0,0,0,0,0,0,0,-1,685,1541,0,0
-532,-517,0,0,0,0,0,0,0,0,0,-1,692,1541,0,0
-525,-517,-3.62903,4.3606,0,0,0,0,0,0,0,-1,699,1541,-3.62904,-4.36056
-518,-517,-1.664,2.27209,0,0,0,0,0,0,0,-1,706,1541,-1.66399,-2.27207
-511,-517,-0.999146,5.52063,0,0,0,0,0,0,0,-1,713,1541,-0.999126,-5.52059
-504,-517,-1.06946,8.67432,0,0,0,0,0,0,0,-1,720,1541,-1.06947,-8.6743
-497,-517,-2.65582,14.3612,0,0,0,0,0,0,0,-1,727,1541,-2.6558,-14.3611
-490,-517,-3.0354,16.5394,0,0,0,0,0,0,0,-1,734,1541,-3.03543,-16.5394
-483,-517,-3.28088,16.6292,-0.0222329,-0.0107916,-0.00160906,-0.0105696,-0.0224549,-1.4337,0.0129718,0.0405967,741,1541,-3.28088,-16.6292
-476,-517,-3.60193,16.8408,-0.0163382,-0.00636777,-0.00136951,-0.00618308,-0.0165229,-1.43675,0.00963961,0.0450565,748,1541,-3.60192,-16.8409
-469,-517,-3.92078,17.3535,-0.0118391,-0.00341595,-0.00118178,-0.00325329,-0.0120017,-1.43401,0.00716723,0.0202034,755,1541,-3.92075,-17.3535
-462,-517,-4.01135,17.918,-0.00831055,-0.00135202,-0.000882574,-0.00124182,-0.00842075,-1.44658,0.00524909,0.01899,762,1541,-4.01137,-17.918
-455,-517,-4.02094,18.5313,-0.00556138,-4.22922e-05,-0.000602297,2.26717e-05,-0.00562635,-1.46335,0.00375848,0.0148436,769,1541,-4.02094,-18.5312
-448,-517,-4.03192,19.1205,-0.00341092,0.000728339,-0.000283763,0.000747702,-0.00343029,-1.50267,0.00257257,0.0135879,776,1541,-4.0319,-19.1205
-441,-517,-4.07367,19.6578,-0.00166567,0.00130536,0.000179918,0.00131621,-0.00167653,1.51053,0.00173203,0.0124689,783,1541,-4.07365,-19.6579
-434,-517,-4.09686,20.197,-0.00021485,0.00189266,0.000809808,0.00216788,-0.000490076,1.24318,0.00163331,0.0148282,790,1541,-4.09684,-20.197
-427,-517,-4.11658,20.782,0.00124783,0.00261695,0.00155603,0.00363235,0.000232431,0.992627,0.00234793,0.0142209,797,1541,-4.11661,-20.7819
-420,-517,-4.16614,21.3912,0.0025222,0.00336525,0.0025404,0.00551886,0.000368593,0.867614,0.00356273,0.0197137,804,1541,-4.16616,-21.3912
-413,-517,-4.16705,21.9365,0.0037109,0.0042434,0.0037058,0.0076925,0.0002618,0.82126,0.00504333,0.0101658,811,1541,-4.16707,-21.9365
-406,-517,-4.18488,22.5043,0.00500941,0.00560608,0.00504742,0.010364,0.000251516,0.814917,0.00682702,0.0109435,818,1541,-4.18484,-22.5042
-399,-517,-4.18762,23.0642,0.00680079,0.007995,0.0068324,0.0142563,0.000539453,0.828984,0.0093296,0.0109907,825,1541,-4.18764,-23.0642
-392,-517,-4.17224,23.6476,0.00878821,0.0103177,0.00864638,0.0182331,0.000872803,0.829506,0.0118751,0.0165627,832,1541,-4.17227,-23.6476
-385,-517,-4.06183,24.5114,0.0106798,0.0127155,0.0105648,0.0223113,0.001084,0.833421,0.0145264,0.0405048,839,1541,-4.06184,-24.5113
-378,-517,-3.9007,25.5032,0,0,0,0,0,0,0,-1,846,1541,-3.90067,-25.5032
-371,-517,-1.37585,13.2646,0,0,0,0,0,0,0,-1,853,1541,-1.37586,-13.2647
-364,-517,-1.26245,12.6289,0,0,0,0,0,0,0,-1,860,1541,-1.26243,-12.6289
-357,-517,-1.23889,12.979,0,0,0,0,0,0,0,-1,867,1541,-1.23891,-12.979
-350,-517,-5.40198,23.8954,0,0,0,0,0,0,0,-1,874,1541,-5.40196,-23.8954
-343,-517,-5.68799,28.3315,0,0,0,0,0,0,0,-1,881,1541,-5.68797,-28.3315
-336,-517,-4.8252,28.7935,0,0,0,0,0,0,0,-1,888,1541,-4.82519,-28.7934
-329,-517,-3.9624,29.2552,0,0,0,0,0,0,0,-1,895,1541,-3.96241,-29.2553
-322,-517,-4.21246,19.5819,0,0,0,0,0,0,0,-1,902,1541,-4.21244,-19.5819
-315,-517,-0.987976,7.29749,0,0,0,0,0,0,0,-1,909,1541,-0.987993,-7.29743
-308,-517,3.27911,17.621,0,0,0,0,0,0,0,-1,916,1541,3.27913,-17.621
-301,-517,-1.69141,8.87488,0,0,0,0,0,0,0,-1,923,1541,-1.69141,-8.87485
-294,-517,-1.72583,9.92566,0,0,0,0,0,0,0,-1,930,1541,-1.72584,-9.92571
-287,-517,-3.09045,12.1472,0,0,0,0,0,0,0,-1,937,1541,-3.09043,-12.1472
-280,-517,0,0,0,0,0,0,0,0,0,-1,944,1541,0,0
-273,-517,0,0,0,0,0,0,0,0,0,-1,951,1541,0,0
-266,-517,0,0,0,0,0,0,0,0,0,-1,958,1541,0,0
-259,-517,0,0,0,0,0,0,0,0,0,-1,965,1541,0,0
-252,-517,0,0,0,0,0,0,0,0,0,-1,972,1541,0,0
-245,-517,0,0,0,0,0,0,0,0,0,-1,979,1541,0,0
-238,-517,0,0,0,0,0,0,0,0,0,-1,986,1541,0,0
-231,-517,0,0,0,0,0,0,0,0,0,-1,993,1541,0,0
-224,-517,0,0,0,0,0,0,0,0,0,-1,1000,1541,0,0
-217,-517,0,0,0,0,0,0,0,0,0,-1,1007,1541,0,0
-210,-517,0,0,0,0,0,0,0,0,0,-1,1014,1541,0,0
-203,-517,0,0,0,0,0,0,0,0,0,-1,1021,1541,0,0
-196,-517,0,0,0,0,0,0,0,0,0,-1,1028,1541,0,0
-189,-517,0,0,0,0,0,0,0,0,0,-1,1035,1541,0,0
-182,-517,0,0,0,0,0,0,0,0,0,-1,1042,1541,0,0
-175,-517,0,0,0,0,0,0,0,0,0,-1,1049,1541,0,0
-168,-517,0,0,0,0,0,0,0,0,0,-1,1056,1541,0,0
-161,-517,0,0,0,0,0,0,0,0,0,-1,1063,1541,0,0
-154,-517,0,0,0,0,0,0,0,0,0,-1,1070,1541,0,0
-147,-517,0,0,0,0,0,0,0,0,0,-1,1077,1541,0,0
-140,-517,0,0,0,0,0,0,0,0,0,-1,1084,1541,0,0
-133,-517,0,0,0,0,0,0,0,0,0,-1,1091,1541,0,0
-126,-517,0,0,0,0,0,0,0,0,0,-1,1098,1541,0,0
-119,-517,0,0,0,0,0,0,0,0,0,-1,1105,1541,0,0
-112,-517,0,0,0,0,0,0,0,0,0,-1,1112,1541,0,0
-105,-517,0,0,0,0,0,0,0,0,0,-1,1119,1541,0,0
-98,-517,0,0,0,0,0,0,0,0,0,-1,1126,1541,0,0
-91,-517,0,0,0,0,0,0,0,0,0,-1,1133,1541,0,0
-84,-517,0,0,0,0,0,0,0,0,0,-1,1140,1541,0,0
-77,-517,0,0,0,0,0,0,0,0,0,-1,1147,1541,0,0
-70,-517,0,0,0,0,0,0,0,0,0,-1,1154,1541,0,0
-63,-517,0,0,0,0,0,0,0,0,0,-1,1161,1541,0,0
-56,-517,0,0,0,0,0,0,0,0,0,-1,1168,1541,0,0
-49,-517,0,0,0,0,0,0,0,0,0,-1,1175,1541,0,0
-42,-517,0,0,0,0,0,0,0,0,0,-1,1182,1541,0,0
-35,-517,0,0,0,0,0,0,0,0,0,-1,1189,1541,0,0
-28,-517,0,0,0,0,0,0,0,0,0,-1,1196,1541,0,0
-21,-517,0,0,0,0,0,0,0,0,0,-1,1203,1541,0,0
-14,-517,0,0,0,0,0,0,0,0,0,-1,1210,1541,0,0
-7,-517,0,0,0,0,0,0,0,0,0,-1,1217,1541,0,0
0,-517,0,0,0,0,0,0,0,0,0,-1,1224,1541,0,0
7,-517,0,0,0,0,0,0,0,0,0,-1,1231,1541,0,0
14,-517,0,0,0,0,0,0,0,0,0,-1,1238,1541,0,0
21,-517,0,0,0,0,0,0,0,0,0,-1,1245,1541,0,0
28,-517,0,0,0,0,0,0,0,0,0,-1,1252,1541,0,0
35,-517,0,0,0,0,0,0,0,0,0,-1,1259,1541,0,0
42,-517,0,0,0,0,0,0,0,0,0,-1,1266,1541,0,0
49,-517,0,0,0,0,0,0,0,0,0,-1,1273,1541,0,0
56,-517,0,0,0,0,0,0,0,0,0,-1,1280,1541,0,0
63,-517,0,0,0,0,0,0,0,0,0,-1,1287,1541,0,0
70,-517,0,0,0,0,0,0,0,0,0,-1,1294,1541,0,0
77,-517,0,0,0,0,0,0,0,0,0,-1,1301,1541,0,0
84,-517,0,0,0,0,0,0,0,0,0,-1,1308,1541,0,0
91,-517,0,0,0,0,0,0,0,0,0,-1,1315,1541,0,0
98,-517,0,0,0,0,0,0,0,0,0,-1,1322,1541,0,0
105,-517,0,0,0,0,0,0,0,0,0,-1,1329,1541,0,0
112,-517,0,0,0,0,0,0,0,0,0,-1,1336,1541,0,0
119,-517,0,0,0,0,0,0,0,0,0,-1,1343,1541,0,0
126,-517,0,0,0,0,0,0,0,0,0,-1,1350,1541,0,0
133,-517,0,0,0,0,0,0,0,0,0,-1,1357,1541,0,0
140,-517,0,0,0,0,0,0,0,0,0,-1,1364,1541,0,0
147,-517,0,0,0,0,0,0,0,0,0,-1,1371,1541,0,0
154,-517,0,0,0,0,0,0,0,0,0,-1,1378,1541,0,0
161,-517,0,0,0,0,0,0,0,0,0,-1,1385,1541,0,0
168,-517,0,0,0,0,0,0,0,0,0,-1,1392,1541,0,0
175,-517,0,0,0,0,0,0,0,0,0,-1,1399,1541,0,0
182,-517,0,0,0,0,0,0,0,0,0,-1,1406,1541,0,0
189,-517,0,0,0,0,0,0,0,0,0,-1,1413,1541,0,0
196,-517,0,0,0,0,0,0,0,0,0,-1,1420,1541,0,0
203,-517,0,0,0,0,0,0,0,0,0,-1,1427,1541,0,0
210,-517,0,0,0,0,0,0,0,0,0,-1,1434,1541,0,0
217,-517,0,0,0,0,0,0,0,0,0,-1,1441,1541,0,0
224,-517,0,0,0,0,0,0,0,0,0,-1,1448,1541,0,0
231,-517,0,0,0,0,0,0,0,0,0,-1,1455,1541,0,0
238,-517,0,0,0,0,0,0,0,0,0,-1,1462,1541,0,0
245,-517,0,0,0,0,0,0,0,0,0,-1,1469,1541,0,0
252,-517,0,0,0,0,0,0,0,0,0,-1,1476,1541,0,0
259,-517,0,0,0,0,0,0,0,0,0,-1,1483,1541,0,0
266,-517,0,0,0,0,0,0,0,0,0,-1,1490,1541,0,0
273,-517,0,0,0,0,0,0,0,0,0,-1,1497,1541,0,0
280,-517,0,0,0,0,0,0,0,0,0,-1,1504,1541,0,0
287,-517,0,0,0,0,0,0,0,0,0,-1,1511,1541,0,0
294,-517,0,0,0,0,0,0,0,0,0,-1,1518,1541,0,0
301,-517,0,0,0,0,0,0,0,0,0,-1,1525,1541,0,0
308,-517,0,0,0,0,0,0,0,0,0,-1,1532,1541,0,0
315,-517,0,0,0,0,0,0,0,0,0,-1,1539,1541,0,0
322,-517,0,0,0,0,0,0,0,0,0,-1,1546,1541,0,0
329,-517,0,0,0,0,0,0,0,0,0,-1,1553,1541,0,0
336,-517,0,0,0,0,0,0,0,0,0,-1,1560,1541,0,0
343,-517,0,0,0,0,0,0,0,0,0,-1,1567,1541,0,0
350,-517,0,0,0,0,0,0,0,0,0,-1,1574,1541,0,0
357,-517,0,0,0,0,0,0,0,0,0,-1,1581,1541,0,0
364,-517,0,0,0,0,0,0,0,0,0,-1,1588,1541,0,0
371,-517,0,0,0,0,0,0,0,0,0,-1,1595,1541,0,0
378,-517,0,0,0,0,0,0,0,0,0,-1,1602,1541,0,0
385,-517,0,0,0,0,0,0,0,0,0,-1,1609,1541,0,0
392,-517,0,0,0,0,0,0,0,0,0,-1,1616,1541,0,0
399,-517,0,0,0,0,0,0,0,0,0,-1,1623,1541,0,0
406,-517,13.1395,7.01978,0,0,0,0,0,0,0,-1,1630,1541,13.1396,-7.01981
413,-517,12.8859,6.31592,0,0,0,0,0,0,0,-1,1637,1541,12.8858,-6.31588
420,-517,12.4789,6.20337,0,0,0,0,0,0,0,-1,1644,1541,12.4789,-6.20333
427,-517,11.647,4.66516,0,0,0,0,0,0,0,-1,1651,1541,11.647,-4.66519
434,-517,12.3719,3.92773,0,0,0,0,0,0,0,-1,1658,1541,12.3719,-3.92776
441,-517,13.146,3.14124,0,0,0,0,0,0,0,-1,1665,1541,13.146,-3.14121
448,-517,13.8861,2.36682,0,0,0,0,0,0,0,-1,1672,1541,13.8861,-2.36684
455,-517,13.6012,4.06335,0,0,0,0,0,0,0,-1,1679,1541,13.6012,-4.06335
462,-517,14.8956,7.0752,0,0,0,0,0,0,0,-1,1686,1541,14.8956,-7.07525
469,-517,13.6292,6.87744,0,0,0,0,0,0,0,-1,1693,1541,13.6292,-6.87739
476,-517,17.1632,14.1487,0,0,0,0,0,0,0,-1,1700,1541,17.1632,-14.1487
483,-517,16.5157,15.0776,0,0,0,0,0,0,0,-1,1707,1541,16.5157,-15.0777
490,-517,15.5439,18.0258,0,0,0,0,0,0,0,-1,1714,1541,15.5439,-18.0258
497,-517,16.0292,18.7786,0,0,0,0,0,0,0,-1,1721,1541,16.0291,-18.7786
504,-517,17.3815,22.3873,0,0,0,0,0,0,0,-1,1728,1541,17.3814,-22.3873
511,-517,16.9674,21.8491,0,0,0,0,0,0,0,-1,1735,1541,16.9674,-21.8491
518,-517,20.1202,25.2194,0,0,0,0,0,0,0,-1,1742,1541,20.1203,-25.2193
525,-517,20.3455,24.644,0.00753215,0.00795645,-0.00640065,0.0141485,0.00134014,-0.801965,0.00901885,0.0246502,1749,1541,20.3455,-24.644
532,-517,20.5172,24.0048,0.00599884,0.00621648,-0.00497946,0.0110883,0.00112701,-0.796323,0.00704664,0.012048,1756,1541,20.5172,-24.0048
539,-517,20.5337,23.4725,0.00478745,0.00469777,-0.00375386,0.00849674,0.000988481,-0.779426,0.00536544,0.0131448,1763,1541,20.5337,-23.4726
546,-517,20.4945,23.0028,0.00384619,0.00336032,-0.00272128,0.00633535,0.000871152,-0.74088,0.00396521,0.0140146,1770,1541,20.4946,-23.0028
553,-517,20.4504,22.4926,0.00314114,0.00225516,-0.00187859,0.00462827,0.000768034,-0.669609,0.00286404,0.0175213,1777,1541,20.4505,-22.4925
560,-517,20.4526,21.9662,0.00266978,0.00134748,-0.00124588,0.00341906,0.000598187,-0.541458,0.00210846,0.0171944,1784,1541,20.4526,-21.9661
567,-517,20.4288,21.4415,0.00247872,0.000866061,-0.00098695,0.00294685,0.000397935,-0.44289,0.00184627,0.0139599,1791,1541,20.4289,-21.4416
574,-517,20.397,20.9049,0.00249732,0.000643697,-0.000941204,0.00289143,0.000249582,-0.396552,0.00185005,0.0153571,1798,1541,20.3969,-20.9049
581,-517,20.3802,20.3634,0.00280307,0.00063898,-0.00115663,0.00330488,0.000137165,-0.409351,0.00215898,0.0165792,1805,1541,20.3802,-20.3634
588,-517,20.3833,19.8167,0.00352663,0.00111619,-0.00178406,0.00447442,0.000168402,-0.488334,0.00292843,0.0175889,1812,1541,20.3833,-19.8167
595,-517,20.3964,19.2249,0,0,0,0,0,0,0,-1,1819,1541,20.3964,-19.2248
602,-517,15.8027,13.5498,0,0,0,0,0,0,0,-1,1826,1541,15.8027,-13.5498
609,-517,12.6417,10.8751,0,0,0,0,0,0,0,-1,1833,1541,12.6417,-10.8751
616,-517,14.205,10.3193,0,0,0,0,0,0,0,-1,1840,1541,14.205,-10.3194
623,-517,12.578,10.0779,0,0,0,0,0,0,0,-1,1847,1541,12.578,-10.0779
630,-517,11.7035,7.47815,0,0,0,0,0,0,0,-1,1854,1541,11.7035,-7.47812
637,-517,11.5172,5.79822,0,0,0,0,0,0,0,-1,1861,1541,11.5173,-5.79825
644,-517,11.4232,3.30579,0,0,0,0,0,0,0,-1,1868,1541,11.4232,-3.30574
651,-517,0,0,0,0,0,0,0,0,0,-1,1875,1541,0,0
658,-517,0,0,0,0,0,0,0,0,0,-1,1882,1541,0,0
665,-517,0,0,0,0,0,0,0,0,0,-1,1889,1541,0,0
672,-517,0,0,0,0,0,0,0,0,0,-1,1896,1541,0,0
679,-517,0,0,0,0,0,0,0,0,0,-1,1903,1541,0,0
686,-517,0,0,0,0,0,0,0,0,0,-1,1910,1541,0,0
693,-517,0,0,0,0,0,0,0,0,0,-1,1917,1541,0,0
700,-517,0,0,0,0,0,0,0,0,0,-1,1924,1541,0,0
707,-517,0,0,0,0,0,0,0,0,0,-1,1931,1541,0,0
714,-517,0,0,0,0,0,0,0,0,0,-1,1938,1541,0,0
721,-517,0,0,0,0,0,0,0,0,0,-1,1945,1541,0,0
728,-517,0,0,0,0,0,0,0,0,0,-1,1952,1541,0,0
735,-517,0,0,0,0,0,0,0,0,0,-1,1959,1541,0,0
742,-517,0,0,0,0,0,0,0,0,0,-1,1966,1541,0,0
749,-517,0,0,0,0,0,0,0,0,0,-1,1973,1541,0,0
756,-517,0,0,0,0,0,0,0,0,0,-1,1980,1541,0,0
763,-517,0,0,0,0,0,0,0,0,0,-1,1987,1541,0,0
770,-517,0,0,0,0,0,0,0,0,0,-1,1994,1541,0,0
777,-517,0,0,0,0,0,0,0,0,0,-1,2001,1541,0,0
784,-517,0,0,0,0,0,0,0,0,0,-1,2008,1541,0,0
791,-517,0,0,0,0,0,0,0,0,0,-1,2015,1541,0,0
798,-517,0,0,0,0,0,0,0,0,0,-1,2022,1541,0,0
805,-517,0,0,0,0,0,0,0,0,0,-1,2029,1541,0,0
812,-517,0,0,0,0,0,0,0,0,0,-1,2036,1541,0,0
-700,-524,0,0,0,0,0,0,0,0,0,-1,524,1548,0,0
-693,-524,0,0,0,0,0,0,0,0,0,-1,531,1548,0,0
-686,-524,0,0,0,0,0,0,0,0,0,-1,538,1548,0,0
-679,-524,0,0,0,0,0,0,0,0,0,-1,545,1548,0,0
-672,-524,0,0,0,0,0,0,0,0,0,-1,552,1548,0,0
-665,-524,0,0,0,0,0,0,0,0,0,-1,559,1548,0,0
-658,-524,0,0,0,0,0,0,0,0,0,-1,566,1548,0,0
-651,-524,0,0,0,0,0,0,0,0,0,-1,573,1548,0,0
-644,-524,0,0,0,0,0,0,0,0,0,-1,580,1548,0,0
-637,-524,0,0,0,0,0,0,0,0,0,-1,587,1548,0,0
-630,-524,0,0,0,0,0,0,0,0,0,-1,594,1548,0,0
-623,-524,0,0,0,0,0,0,0,0,0,-1,601,1548,0,0
-616,-524,0,0,0,0,0,0,0,0,0,-1,608,1548,0,0
-609,-524,0,0,0,0,0,0,0,0,0,-1,615,1548,0,0
-602,-524,0,0,0,0,0,0,0,0,0,-1,622,1548,0,0
-595,-524,0,0,0,0,0,0,0,0,0,-1,629,1548,0,0
-588,-524,0,0,0,0,0,0,0,0,0,-1,636,1548,0,0
-581,-524,0,0,0,0,0,0,0,0,0,-1,643,1548,0,0
-574,-524,0,0,0,0,0,0,0,0,0,-1,650,1548,0,0
-567,-524,0,0,0,0,0,0,0,0,0,-1,657,1548,0,0
-560,-524,0,0,0,0,0,0,0,0,0,-1,664,1548,0,0
-553,-524,0,0,0,0,0,0,0,0,0,-1,671,1548,0,0
-546,-524,0,0,0,0,0,0,0,0,0,-1,678,1548,0,0
-539,-524,0,0,0,0,0,0,0,0,0,-1,685,1548,0,0
-532,-524,0,0,0,0,0,0,0,0,0,-1,692,1548,0,0
-525,-524,-0.215515,3.97131,0,0,0,0,0,0,0,-1,699,1548,-0.215501,-3.97136
-518,-524,-0.806274,4.35632,0,0,0,0,0,0,0,-1,706,1548,-0.806259,-4.35633
-511,-524,-1.08301,4.29004,0,0,0,0,0,0,0,-1,713,1548,-1.08301,-4.29006
-504,-524,-1.28821,3.98145,0,0,0,0,0,0,0,-1,720,1548,-1.28822,-3.98151
-497,-524,-0.328491,8.63416,0,0,0,0,0,0,0,-1,727,1548,-0.328487,-8.63411
-490,-524,-2.26514,16.1068,0,0,0,0,0,0,0,-1,734,1548,-2.26512,-16.1069
-483,-524,-2.9043,16.6742,-0.0260898,-0.00933632,-0.000680002,-0.00930877,-0.0261174,-1.5303,0.0152847,0.0485907,741,1548,-2.90429,-16.6742
-476,-524,-3.36395,17.3601,-0.0187267,-0.00417374,-0.000612992,-0.00414796,-0.0187525,-1.52877,0.011374,0.0464372,748,1548,-3.36397,-17.3601
-469,-524,-3.43097,17.7017,-0.0133407,-0.00107134,-0.000634377,-0.00103863,-0.0133734,-1.51928,0.00859035,0.0378459,755,1548,-3.43098,-17.7016
-462,-524,-3.32489,18.1052,-0.00931654,0.00081238,-0.000539845,0.000841071,-0.00934524,-1.5177,0.0065286,0.0311827,762,1548,-3.32492,-18.1052
-455,-524,-3.47632,18.5698,-0.00632541,0.00176964,-0.000461075,0.00179581,-0.00635159,-1.51408,0.00494296,0.0261357,769,1548,-3.47629,-18.5698
-448,-524,-3.47217,19.1376,-0.00411985,0.0020466,-0.000384233,0.00207045,-0.0041437,-1.50881,0.00365369,0.014001,776,1548,-3.47216,-19.1376
-441,-524,-3.49677,19.679,-0.00241387,0.00210623,-0.00014676,0.00211099,-0.00241863,-1.53837,0.00261719,0.0113271,783,1548,-3.49677,-19.679
-434,-524,-3.49951,20.2178,-0.00103644,0.00219922,0.000271679,0.00222187,-0.0010591,1.48761,0.00193352,0.0132863,790,1548,-3.49953,-20.2177
-427,-524,-3.52039,20.8174,0.000392425,0.00257327,0.000821636,0.00284817,0.000117525,1.24793,0.00186084,0.0134499,797,1548,-3.52037,-20.8174
-420,-524,-3.57861,21.421,0.0015739,0.00300893,0.00158885,0.00403477,0.000548066,0.997487,0.00252705,0.0106698,804,1548,-3.57862,-21.421
-413,-524,-3.58746,21.9806,0.00262943,0.00342244,0.00256346,0.00561989,0.00043199,0.862128,0.00361122,0.0104406,811,1548,-3.58743,-21.9806
-406,-524,-3.5979,22.5383,0.00374406,0.00442213,0.00364001,0.00773886,0.000427328,0.831835,0.00502286,0.0120023,818,1548,-3.5979,-22.5383
-399,-524,-3.60962,23.0852,0.00510823,0.00604029,0.0049672,0.0105633,0.000585249,0.832172,0.00685543,0.0100639,825,1548,-3.60959,-23.0852
-392,-524,-3.62201,23.625,0.00664565,0.00784972,0.00635472,0.0136309,0.000864514,0.832627,0.00881321,0.00982504,832,1548,-3.62199,-23.625
-385,-524,-3.63806,24.2043,0.00815698,0.00970324,0.00776234,0.0167309,0.00112937,0.835035,0.0107972,0.0145858,839,1548,-3.63804,-24.2043
-378,-524,-3.612,24.8148,0,0,0,0,0,0,0,-1,846,1548,-3.61202,-24.8148
-371,-524,-3.23895,25.8873,0,0,0,0,0,0,0,-1,853,1548,-3.23895,-25.8873
-364,-524,-0.712097,14.9871,0,0,0,0,0,0,0,-1,860,1548,-0.712116,-14.9871
-357,-524,-1.34052,14.7448,0,0,0,0,0,0,0,-1,867,1548,-1.34054,-14.7447
-350,-524,-4.31909,25.032,0,0,0,0,0,0,0,-1,874,1548,-4.31906,-25.0319
-343,-524,-5.0224,28.7482,0,0,0,0,0,0,0,-1,881,1548,-5.02239,-28.7481
-336,-524,-3.70892,28.6487,0,0,0,0,0,0,0,-1,888,1548,-3.70894,-28.6487
-329,-524,-2.99182,29.0154,0,0,0,0,0,0,0,-1,895,1548,-2.99184,-29.0154
-322,-524,-4.31378,25.6389,0,0,0,0,0,0,0,-1,902,1548,-4.31379,-25.639
-315,-524,-1.90839,19.4824,0,0,0,0,0,0,0,-1,909,1548,-1.90838,-19.4824
-308,-524,-2.36938,19.3059,0,0,0,0,0,0,0,-1,916,1548,-2.3694,-19.3058
-301,-524,2.72394,17.7618,0,0,0,0,0,0,0,-1,923,1548,2.72396,-17.7619
-294,-524,-1.52515,9.05408,0,0,0,0,0,0,0,-1,930,1548,-1.52512,-9.05411
-287,-524,-0.962219,10.3199,0,0,0,0,0,0,0,-1,937,1548,-0.962241,-10.32
-280,-524,-1.36255,10.3859,0,0,0,0,0,0,0,-1,944,1548,-1.36253,-10.3859
-273,-524,0,0,0,0,0,0,0,0,0,-1,951,1548,0,0
-266,-524,0,0,0,0,0,0,0,0,0,-1,958,1548,0,0
-259,-524,0,0,0,0,0,0,0,0,0,-1,965,1548,0,0
-252,-524,0,0,0,0,0,0,0,0,0,-1,972,1548,0,0
-245,-524,0,0,0,0,0,0,0,0,0,-1,979,1548,0,0
-238,-524,0,0,0,0,0,0,0,0,0,-1,986,1548,0,0
-231,-524,0,0,0,0,0,0,0,0,0,-1,993,1548,0,0
-224,-524,0,0,0,0,0,0,0,0,0,-1,1000,1548,0,0
-217,-524,0,0,0,0,0,0,0,0,0,-1,1007,1548,0,0
-210,-524,0,0,0,0,0,0,0,0,0,-1,1014,1548,0,0
-203,-524,0,0,0,0,0,0,0,0,0,-1,1021,1548,0,0
-196,-524,0,0,0,0,0,0,0,0,0,-1,1028,1548,0,0
-189,-524,0,0,0,0,0,0,0,0,0,-1,1035,1548,0,0
-182,-524,0,0,0,0,0,0,0,0,0,-1,1042,1548,0,0
-175,-524,0,0,0,0,0,0,0,0,0,-1,1049,1548,0,0
-168,-524,0,0,0,0,0,0,0,0,0,-1,1056,1548,0,0
-161,-524,0,0,0,0,0,0,0,0,0,-1,1063,1548,0,0
-154,-524,0,0,0,0,0,0,0,0,0,-1,1070,1548,0,0
-147,-524,0,0,0,0,0,0,0,0,0,-1,1077,1548,0,0
-140,-524,0,0,0,0,0,0,0,0,0,-1,1084,1548,0,0
-133,-524,0,0,0,0,0,0,0,0,0,-1,1091,1548,0,0
-126,-524,0,0,0,0,0,0,0,0,0,-1,1098,1548,0,0
-119,-524,0,0,0,0,0,0,0,0,0,-1,1105,1548,0,0
-112,-524,0,0,0,0,0,0,0,0,0,-1,1112,1548,0,0
-105,-524,0,0,0,0,0,0,0,0,0,-1,1119,1548,0,0
-98,-524,0,0,0,0,0,0,0,0,0,-1,1126,1548,0,0
-91,-524,0,0,0,0,0,0,0,0,0,-1,1133,1548,0,0
-84,-524,0,0,0,0,0,0,0,0,0,-1,1140,1548,0,0
-77,-524,0,0,0,0,0,0,0,0,0,-1,1147,1548,0,0
-70,-524,0,0,0,0,0,0,0,0,0,-1,1154,1548,0,0
-63,-524,0,0,0,0,0,0,0,0,0,-1,1161,1548,0,0
-56,-524,0,0,0,0,0,0,0,0,0,-1,1168,1548,0,0
-49,-524,0,0,0,0,0,0,0,0,0,-1,1175,1548,0,0
-42,-524,0,0,0,0,0,0,0,0,0,-1,1182,1548,0,0
-35,-524,0,0,0,0,0,0,0,0,0,-1,1189,1548,0,0
-28,-524,0,0,0,0,0,0,0,0,0,-1,1196,1548,0,0
-21,-524,0,0,0,0,0,0,0,0,0,-1,1203,1548,0,0
-14,-524,0,0,0,0,0,0,0,0,0,-1,1210,1548,0,0
-7,-524,0,0,0,0,0,0,0,0,0,-1,1217,1548,0,0
0,-524,0,0,0,0,0,0,0,0,0,-1,1224,1548,0,0
7,-524,0,0,0,0,0,0,0,0,0,-1,1231,1548,0,0
14,-524,0,0,0,0,0,0,0,0,0,-1,1238,1548,0,0
21,-524,0,0,0,0,0,0,0,0,0,-1,1245,1548,0,0
28,-524,0,0,0,0,0,0,0,0,0,-1,1252,1548,0,0
35,-524,0,0,0,0,0,0,0,0,0,-1,1259,1548,0,0
42,-524,0,0,0,0,0,0,0,0,0,-1,1266,1548,0,0
49,-524,0,0,0,0,0,0,0,0,0,-1,1273,1548,0,0
56,-524,0,0,0,0,0,0,0,0,0,-1,1280,1548,0,0
63,-524,0,0,0,0,0,0,0,0,0,-1,1287,1548,0,0
70,-524,0,0,0,0,0,0,0,0,0,-1,1294,1548,0,0
77,-524,0,0,0,0,0,0,0,0,0,-1,1301,1548,0,0
84,-524,0,0,0,0,0,0,0,0,0,-1,1308,1548,0,0
91,-524,0,0,0,0,0,0,0,0,0,-1,1315,1548,0,0
98,-524,0,0,0,0,0,0,0,0,0,-1,1322,1548,0,0
105,-524,0,0,0,0,0,0,0,0,0,-1,1329,1548,0,0
112,-524,0,0,0,0,0,0,0,0,0,-1,1336,1548,0,0
119,-524,0,0,0,0,0,0,0,0,0,-1,1343,1548,0,0
126,-524,0,0,0,0,0,0,0,0,0,-1,1350,1548,0,0
133,-524,0,0,0,0,0,0,0,0,0,-1,1357,1548,0,0
140,-524,0,0,0,0,0,0,0,0,0,-1,1364,1548,0,0
147,-524,0,0,0,0,0,0,0,0,0,-1,1371,1548,0,0
154,-524,0,0,0,0,0,0,0,0,0,-1,1378,1548,0,0
161,-524,0,0,0,0,0,0,0,0,0,-1,1385,1548,0,0
168,-524,0,0,0,0,0,0,0,0,0,-1,1392,1548,0,0
175,-524,0,0,0,0,0,0,0,0,0,-1,1399,1548,0,0
182,-524,0,0,0,0,0,0,0,0,0,-1,1406,1548,0,0
189,-524,0,0,0,0,0,0,0,0,0,-1,1413,1548,0,0
196,-524,0,0,0,0,0,0,0,0,0,-1,1420,1548,0,0
203,-524,0,0,0,0,0,0,0,0,0,-1,1427,1548,0,0
210,-524,0,0,0,0,0,0,0,0,0,-1,1434,1548,0,0
217,-524,0,0,0,0,0,0,0,0,0,-1,1441,1548,0,0
224,-524,0,0,0,0,0,0,0,0,0,-1,1448,1548,0,0
231,-524,0,0,0,0,0,0,0,0,0,-1,1455,1548,0,0
238,-524,0,0,0,0,0,0,0,0,0,-1,1462,1548,0,0
245,-524,0,0,0,0,0,0,0,0,0,-1,1469,1548,0,0
252,-524,0,0,0,0,0,0,0,0,0,-1,1476,1548,0,0
259,-524,0,0,0,0,0,0,0,0,0,-1,1483,1548,0,0
266,-524,0,0,0,0,0,0,0,0,0,-1,1490,1548,0,0
273,-524,0,0,0,0,0,0,0,0,0,-1,1497,1548,0,0
280,-524,0,0,0,0,0,0,0,0,0,-1,1504,1548,0,0
287,-524,0,0,0,0,0,0,0,0,0,-1,1511,1548,0,0
294,-524,0,0,0,0,0,0,0,0,0,-1,1518,1548,0,0
301,-524,0,0,0,0,0,0,0,0,0,-1,1525,1548,0,0
308,-524,0,0,0,0,0,0,0,0,0,-1,1532,1548,0,0
315,-524,0,0,0,0,0,0,0,0,0,-1,1539,1548,0,0
322,-524,0,0,0,0,0,0,0,0,0,-1,1546,1548,0,0
329,-524,0,0,0,0,0,0,0,0,0,-1,1553,1548,0,0
336,-524,0,0,0,0,0,0,0,0,0,-1,1560,1548,0,0
343,-524,0,0,0,0,0,0,0,0,0,-1,1567,1548,0,0
350,-524,0,0,0,0,0,0,0,0,0,-1,1574,1548,0,0
357,-524,0,0,0,0,0,0,0,0,0,-1,1581,1548,0,0
364,-524,0,0,0,0,0,0,0,0,0,-1,1588,1548,0,0
371,-524,0,0,0,0,0,0,0,0,0,-1,1595,1548,0,0
378,-524,0,0,0,0,0,0,0,0,0,-1,1602,1548,0,0
385,-524,0,0,0,0,0,0,0,0,0,-1,1609,1548,0,0
392,-524,0,0,0,0,0,0,0,0,0,-1,1616,1548,0,0
399,-524,8.81848,5.05774,0,0,0,0,0,0,0,-1,1623,1548,8.81843,-5.05769
406,-524,8.64294,6.06799,0,0,0,0,0,0,0,-1,1630,1548,8.6429,-6.06805
413,-524,11.677,6.41858,0,0,0,0,0,0,0,-1,1637,1548,11.677,-6.41864
420,-524,11.4913,6.36401,0,0,0,0,0,0,0,-1,1644,1548,11.4913,-6.36402
427,-524,7.68335,6.17249,0,0,0,0,0,0,0,-1,1651,1548,7.68341,-6.17245
434,-524,10.432,11.6801,0,0,0,0,0,0,0,-1,1658,1548,10.432,-11.68
441,-524,8.78552,4.12305,0,0,0,0,0,0,0,-1,1665,1548,8.78553,-4.12301
448,-524,14.1854,4.78674,0,0,0,0,0,0,0,-1,1672,1548,14.1854,-4.78674
455,-524,12.4784,3.65576,0,0,0,0,0,0,0,-1,1679,1548,12.4784,-3.65572
462,-524,14.7551,9.29395,0,0,0,0,0,0,0,-1,1686,1548,14.7552,-9.29397
469,-524,16.3314,14.3779,0,0,0,0,0,0,0,-1,1693,1548,16.3314,-14.3779
476,-524,15.9106,15.1875,0,0,0,0,0,0,0,-1,1700,1548,15.9107,-15.1876
483,-524,15.2776,16.2268,0,0,0,0,0,0,0,-1,1707,1548,15.2776,-16.2269
490,-524,15.2563,18.5848,0,0,0,0,0,0,0,-1,1714,1548,15.2564,-18.5848
497,-524,17.5173,22.6123,0,0,0,0,0,0,0,-1,1721,1548,17.5174,-22.6123
504,-524,19.5455,26.5883,0,0,0,0,0,0,0,-1,1728,1548,19.5455,-26.5883
511,-524,19.9613,25.8088,0,0,0,0,0,0,0,-1,1735,1548,19.9613,-25.8088
518,-524,19.9889,25.1315,0.00739918,0.00838535,-0.00673403,0.0146443,0.0011402,-0.821944,0.00940588,0.0267229,1742,1548,19.9889,-25.1314
525,-524,19.9658,24.6124,0.0060012,0.00671348,-0.00537852,0.0117476,0.000967047,-0.818457,0.00753013,0.0149519,1749,1548,19.9658,-24.6124
532,-524,19.9839,24.0542,0.00470049,0.00505629,-0.00404947,0.00893177,0.000825014,-0.80735,0.00569945,0.0108055,1756,1548,19.9839,-24.0542
539,-524,19.9816,23.5017,0.00367499,0.00357486,-0.00286455,0.00648991,0.000759938,-0.77666,0.00409686,0.011822,1763,1548,19.9816,-23.5017
546,-524,19.9484,23.0408,0.00282693,0.00217408,-0.00178395,0.00431408,0.000686934,-0.694911,0.00267662,0.0156933,1770,1548,19.9484,-23.0407
553,-524,19.9366,22.5365,0.00218605,0.00094676,-0.000835097,0.00260628,0.000526525,-0.466217,0.00159132,0.0254535,1777,1548,19.9366,-22.5364
560,-524,19.9785,22.0126,0.00178865,-8.76013e-05,-8.69666e-05,0.00179267,-9.16236e-05,-0.0462192,0.0012268,0.0323105,1784,1548,19.9785,-22.0125
567,-524,19.9167,21.4836,0.00167962,-0.000701165,0.000296331,0.00171595,-0.000737494,0.121988,0.00145356,0.019445,1791,1548,19.9168,-21.4836
574,-524,19.8816,20.9264,0.00180101,-0.00104476,0.000447006,0.00186957,-0.00111333,0.152196,0.00174053,0.0147319,1798,1548,19.8816,-20.9264
581,-524,19.8788,20.3619,0.0023097,-0.00110012,0.000248636,0.00232774,-0.00111815,0.0724072,0.00202993,0.0152922,1805,1548,19.8788,-20.362
588,-524,19.9487,19.8147,0.00338181,-0.000515782,-0.000510465,0.00344756,-0.000581528,-0.128091,0.00251473,0.0277302,1812,1548,19.9487,-19.8147
595,-524,20.0309,19.0632,0,0,0,0,0,0,0,-1,1819,1548,20.0309,-19.0632
602,-524,13.837,12.0682,0,0,0,0,0,0,0,-1,1826,1548,13.837,-12.0683
609,-524,13.0056,10.5138,0,0,0,0,0,0,0,-1,1833,1548,13.0056,-10.5138
616,-524,11.6941,8.65515,0,0,0,0,0,0,0,-1,1840,1548,11.6941,-8.65514
623,-524,9.38452,5.15356,0,0,0,0,0,0,0,-1,1847,1548,9.38456,-5.15359
630,-524,11.0541,3.57434,0,0,0,0,0,0,0,-1,1854,1548,11.0541,-3.57438
637,-524,11.6067,3.20728,0,0,0,0,0,0,0,-1,1861,1548,11.6067,-3.20724
644,-524,12.2134,0.727173,0,0,0,0,0,0,0,-1,1868,1548,12.2134,-0.727222
651,-524,0,0,0,0,0,0,0,0,0,-1,1875,1548,0,0
658,-524,0,0,0,0,0,0,0,0,0,-1,1882,1548,0,0
665,-524,0,0,0,0,0,0,0,0,0,-1,1889,1548,0,0
672,-524,0,0,0,0,0,0,0,0,0,-1,1896,1548,0,0
679,-524,0,0,0,0,0,0,0,0,0,-1,1903,1548,0,0
686,-524,0,0,0,0,0,0,0,0,0,-1,1910,1548,0,0
693,-524,0,0,0,0,0,0,0,0,0,-1,1917,1548,0,0
700,-524,0,0,0,0,0,0,0,0,0,-1,1924,1548,0,0
707,-524,0,0,0,0,0,0,0,0,0,-1,1931,1548,0,0
714,-524,0,0,0,0,0,0,0,0,0,-1,1938,1548,0,0
721,-524,0,0,0,0,0,0,0,0,0,-1,1945,1548,0,0
728,-524,0,0,0,0,0,0,0,0,0,-1,1952,1548,0,0
735,-524,0,0,0,0,0,0,0,0,0,-1,1959,1548,0,0
742,-524,0,0,0,0,0,0,0,0,0,-1,1966,1548,0,0
749,-524,0,0,0,0,0,0,0,0,0,-1,1973,1548,0,0
756,-524,0,0,0,0,0,0,0,0,0,-1,1980,1548,0,0
763,-524,0,0,0,0,0,0,0,0,0,-1,1987,1548,0,0
770,-524,0,0,0,0,0,0,0,0,0,-1,1994,1548,0,0
777,-524,0,0,0,0,0,0,0,0,0,-1,2001,1548,0,0
784,-524,0,0,0,0,0,0,0,0,0,-1,2008,1548,0,0
791,-524,0,0,0,0,0,0,0,0,0,-1,2015,1548,0,0
798,-524,0,0,0,0,0,0,0,0,0,-1,2022,1548,0,0
805,-524,0,0,0,0,0,0,0,0,0,-1,2029,1548,0,0
812,-524,0,0,0,0,0,0,0,0,0,-1,2036,1548,0,0
-700,-531,0,0,0,0,0,0,0,0,0,-1,524,1555,0,0
-693,-531,0,0,0,0,0,0,0,0,0,-1,531,1555,0,0
-686,-531,0,0,0,0,0,0,0,0,0,-1,538,1555,0,0
-679,-531,0,0,0,0,0,0,0,0,0,-1,545,1555,0,0
-672,-531,0,0,0,0,0,0,0,0,0,-1,552,1555,0,0
-665,-531,0,0,0,0,0,0,0,0,0,-1,559,1555,0,0
-658,-531,0,0,0,0,0,0,0,0,0,-1,566,1555,0,0
-651,-531,0,0,0,0,0,0,0,0,0,-1,573,1555,0,0
-644,-531,0,0,0,0,0,0,0,0,0,-1,580,1555,0,0
-637,-531,0,0,0,0,0,0,0,0,0,-1,587,1555,0,0
-630,-531,0,0,0,0,0,0,0,0,0,-1,594,1555,0,0
-623,-531,0,0,0,0,0,0,0,0,0,-1,601,1555,0,0
-616,-531,0,0,0,0,0,0,0,0,0,-1,608,1555,0,0
-609,-531,0,0,0,0,0,0,0,0,0,-1,615,1555,0,0
-602,-531,0,0,0,0,0,0,0,0,0,-1,622,1555,0,0
-595,-531,0,0,0,0,0,0,0,0,0,-1,629,1555,0,0
-588,-531,0,0,0,0,0,0,0,0,0,-1,636,1555,0,0
-581,-531,0,0,0,0,0,0,0,0,0,-1,643,1555,0,0
-574,-531,0,0,0,0,0,0,0,0,0,-1,650,1555,0,0
-567,-531,0,0,0,0,0,0,0,0,0,-1,657,1555,0,0
-560,-531,0,0,0,0,0,0,0,0,0,-1,664,1555,0,0
-553,-531,0,0,0,0,0,0,0,0,0,-1,671,1555,0,0
-546,-531,0,0,0,0,0,0,0,0,0,-1,678,1555,0,0
-539,-531,0,0,0,0,0,0,0,0,0,-1,685,1555,0,0
-532,-531,0,0,0,0,0,0,0,0,0,-1,692,1555,0,0
-525,-531,0,0,0,0,0,0,0,0,0,-1,699,1555,0,0
-518,-531,-1.63983,4.03821,0,0,0,0,0,0,0,-1,706,1555,-1.63982,-4.03821
-511,-531,-2.9682,8.07483,0,0,0,0,0,0,0,-1,713,1555,-2.9682,-8.07479
-504,-531,-2.95978,0.557861,0,0,0,0,0,0,0,-1,720,1555,-2.95978,-0.557917
-497,-531,-2.46039,8.07422,0,0,0,0,0,0,0,-1,727,1555,-2.46039,-8.07423
-490,-531,-0.423462,7.92065,0,0,0,0,0,0,0,-1,734,1555,-0.42344,-7.92066
-483,-531,-2.81482,16.4888,0,0,0,0,0,0,0,-1,741,1555,-2.8148,-16.4888
-476,-531,-1.98981,16.5956,0,0,0,0,0,0,0,-1,748,1555,-1.98979,-16.5956
-469,-531,-2.29059,17.3562,-0.0142494,0.00323477,0.000496952,0.00324889,-0.0142636,1.5424,0.0107568,0.044365,755,1555,-2.2906,-17.3562
-462,-531,-2.61475,18.1964,-0.00983893,0.00447492,0.000226869,0.00447852,-0.00984253,1.55495,0.00845938,0.0423437,762,1555,-2.61474,-18.1965
-455,-531,-2.94952,18.8292,-0.00672651,0.00471139,-1.97192e-05,0.00471143,-0.00672655,-1.56907,0.00663779,0.0406814,769,1555,-2.94953,-18.8293
-448,-531,-2.85394,19.1545,-0.00458081,0.00415846,-0.000276207,0.00416718,-0.00458953,-1.53923,0.00505765,0.0195268,776,1555,-2.85392,-19.1545
-441,-531,-2.94281,19.6836,-0.00300091,0.00347094,-0.000349354,0.00348974,-0.00301972,-1.51702,0.0037615,0.0124649,783,1555,-2.94282,-19.6836
-434,-531,-2.95093,20.2786,-0.00175437,0.00290369,-0.000182334,0.00291082,-0.00176149,-1.53173,0.00272463,0.0121779,790,1555,-2.95094,-20.2786
-427,-531,-2.97272,20.8792,-0.000403776,0.0028174,0.000167431,0.00282608,-0.000412455,1.519,0.00203552,0.014601,797,1555,-2.97274,-20.8792
-420,-531,-3.01453,21.4412,0.000658493,0.00287082,0.000731455,0.00309079,0.000438525,1.27867,0.00193102,0.0130153,804,1555,-3.01452,-21.4411
-413,-531,-3.0274,21.9965,0.00159157,0.0028163,0.0015487,0.00386931,0.000538558,0.973668,0.00242008,0.011321,811,1555,-3.02738,-21.9964
-406,-531,-3.04614,22.5466,0.00255739,0.00346172,0.00242308,0.00547446,0.000544645,0.87764,0.00348232,0.0133121,818,1555,-3.04615,-22.5466
-399,-531,-3.0379,23.0857,0.0035588,0.00435135,0.00339131,0.00736946,0.000540696,0.84356,0.00474303,0.0146753,825,1555,-3.03793,-23.0857
-392,-531,-3.05347,23.6206,0.0047623,0.00575617,0.00448193,0.00976863,0.000749841,0.84061,0.00627742,0.0165276,832,1555,-3.05346,-23.6206
-385,-531,-3.10468,24.1633,0.0060249,0.00721347,0.00555546,0.0122063,0.00103202,0.838682,0.0078163,0.0137165,839,1555,-3.10466,-24.1633
-378,-531,-3.12488,24.6876,0.00715056,0.00856168,0.00635491,0.0142501,0.00146216,0.840685,0.00905211,0.0174514,846,1555,-3.12485,-24.6876
-371,-531,-3.02881,25.4065,0.00831939,0.00992937,0.00717904,0.0163484,0.00190035,0.84123,0.010324,0.0361417,853,1555,-3.02878,-25.4065
-364,-531,-2.77173,26.4448,0,0,0,0,0,0,0,-1,860,1555,-2.7717,-26.4448
-357,-531,-3.01556,26.7009,0,0,0,0,0,0,0,-1,867,1555,-3.01558,-26.7009
-350,-531,-3.80219,27.2609,0,0,0,0,0,0,0,-1,874,1555,-3.80218,-27.2609
-343,-531,-2.51416,28.1543,0,0,0,0,0,0,0,-1,881,1555,-2.51417,-28.1543
-336,-531,-1.78955,28.7963,0,0,0,0,0,0,0,-1,888,1555,-1.78957,-28.7963
-329,-531,-1.61566,29.6801,0,0,0,0,0,0,0,-1,895,1555,-1.61566,-29.6801
-322,-531,-0.655029,28.5603,0,0,0,0,0,0,0,-1,902,1555,-0.655029,-28.5602
-315,-531,-3.92139,28.7059,0,0,0,0,0,0,0,-1,909,1555,-3.92138,-28.706
-308,-531,-1.66455,19.0624,0,0,0,0,0,0,0,-1,916,1555,-1.66455,-19.0623
-301,-531,-2.02405,18.8912,0,0,0,0,0,0,0,-1,923,1555,-2.02407,-18.8913
-294,-531,-1.3244,8.1825,0,0,0,0,0,0,0,-1,930,1555,-1.3244,-8.18251
-287,-531,-1.78192,10.1661,0,0,0,0,0,0,0,-1,937,1555,-1.78192,-10.1661
-280,-531,-2.14508,10.3945,0,0,0,0,0,0,0,-1,944,1555,-2.14506,-10.3945
-273,-531,-2.50818,10.6229,0,0,0,0,0,0,0,-1,951,1555,-2.5082,-10.6229
-266,-531,-4.97742,17.9215,0,0,0,0,0,0,0,-1,958,1555,-4.97744,-17.9215
-259,-531,0,0,0,0,0,0,0,0,0,-1,965,1555,0,0
-252,-531,0,0,0,0,0,0,0,0,0,-1,972,1555,0,0
-245,-531,0,0,0,0,0,0,0,0,0,-1,979,1555,0,0
-238,-531,0,0,0,0,0,0,0,0,0,-1,986,1555,0,0
-231,-531,0,0,0,0,0,0,0,0,0,-1,993,1555,0,0
-224,-531,0,0,0,0,0,0,0,0,0,-1,1000,1555,0,0
-217,-531,0,0,0,0,0,0,0,0,0,-1,1007,1555,0,0
-210,-531,0,0,0,0,0,0,0,0,0,-1,1014,1555,0,0
-203,-531,0,0,0,0,0,0,0,0,0,-1,1021,1555,0,0
-196,-531,0,0,0,0,0,0,0,0,0,-1,1028,1555,0,0
-189,-531,0,0,0,0,0,0,0,0,0,-1,1035,1555,0,0
-182,-531,0,0,0,0,0,0,0,0,0,-1,1042,1555,0,0
-175,-531,0,0,0,0,0,0,0,0,0,-1,1049,1555,0,0
-168,-531,0,0,0,0,0,0,0,0,0,-1,1056,1555,0,0
-161,-531,0,0,0,0,0,0,0,0,0,-1,1063,1555,0,0
-154,-531,0,0,0,0,0,0,0,0,0,-1,1070,1555,0,0
-147,-531,0,0,0,0,0,0,0,0,0,-1,1077,1555,0,0
-140,-531,0,0,0,0,0,0,0,0,0,-1,1084,1555,0,0
-133,-531,0,0,0,0,0,0,0,0,0,-1,1091,1555,0,0
-126,-531,0,0,0,0,0,0,0,0,0,-1,1098,1555,0,0
-119,-531,0,0,0,0,0,0,0,0,0,-1,1105,1555,0,0
-112,-531,0,0,0,0,0,0,0,0,0,-1,1112,1555,0,0
-105,-531,0,0,0,0,0,0,0,0,0,-1,1119,1555,0,0
-98,-531,0,0,0,0,0,0,0,0,0,-1,1126,1555,0,0
-91,-531,0,0,0,0,0,0,0,0,0,-1,1133,1555,0,0
-84,-531,0,0,0,0,0,0,0,0,0,-1,1140,1555,0,0
-77,-531,0,0,0,0,0,0,0,0,0,-1,1147,1555,0,0
-70,-531,0,0,0,0,0,0,0,0,0,-1,1154,1555,0,0
-63,-531,0,0,0,0,0,0,0,0,0,-1,1161,1555,0,0
-56,-531,0,0,0,0,0,0,0,0,0,-1,1168,1555,0,0
-49,-531,0,0,0,0,0,0,0,0,0,-1,1175,1555,0,0
-42,-531,0,0,0,0,0,0,0,0,0,-1,1182,1555,0,0
-35,-531,0,0,0,0,0,0,0,0,0,-1,1189,1555,0,0
-28,-531,0,0,0,0,0,0,0,0,0,-1,1196,1555,0,0
-21,-531,0,0,0,0,0,0,0,0,0,-1,1203,1555,0,0
-14,-531,0,0,0,0,0,0,0,0,0,-1,1210,1555,0,0
-7,-531,0,0,0,0,0,0,0,0,0,-1,1217,1555,0,0
0,-531,0,0,0,0,0,0,0,0,0,-1,1224,1555,0,0
7,-531,0,0,0,0,0,0,0,0,0,-1,1231,1555,0,0
14,-531,0,0,0,0,0,0,0,0,0,-1,1238,1555,0,0
21,-531,0,0,0,0,0,0,0,0,0,-1,1245,1555,0,0
28,-531,0,0,0,0,0,0,0,0,0,-1,1252,1555,0,0
35,-531,0,0,0,0,0,0,0,0,0,-1,1259,1555,0,0
42,-531,0,0,0,0,0,0,0,0,0,-1,1266,1555,0,0
49,-531,0,0,0,0,0,0,0,0,0,-1,1273,1555,0,0
56,-531,0,0,0,0,0,0,0,0,0,-1,1280,1555,0,0
63,-531,0,0,0,0,0,0,0,0,0,-1,1287,1555,0,0
70,-531,0,0,0,0,0,0,0,0,0,-1,1294,1555,0,0
77,-531,0,0,0,0,0,0,0,0,0,-1,1301,1555,0,0
84,-531,0,0,0,0,0,0,0,0,0,-1,1308,1555,0,0
91,-531,0,0,0,0,0,0,0,0,0,-1,1315,1555,0,0
98,-531,0,0,0,0,0,0,0,0,0,-1,1322,1555,0,0
105,-531,0,0,0,0,0,0,0,0,0,-1,1329,1555,0,0
112,-531,0,0,0,0,0,0,0,0,0,-1,1336,1555,0,0
119,-531,0,0,0,0,0,0,0,0,0,-1,1343,1555,0,0
126,-531,0,0,0,0,0,0,0,0,0,-1,1350,1555,0,0
133,-531,0,0,0,0,0,0,0,0,0,-1,1357,1555,0,0
140,-531,0,0,0,0,0,0,0,0,0,-1,1364,1555,0,0
147,-531,0,0,0,0,0,0,0,0,0,-1,1371,1555,0,0
154,-531,0,0,0,0,0,0,0,0,0,-1,1378,1555,0,0
161,-531,0,0,0,0,0,0,0,0,0,-1,1385,1555,0,0
168,-531,0,0,0,0,0,0,0,0,0,-1,1392,1555,0,0
175,-531,0,0,0,0,0,0,0,0,0,-1,1399,1555,0,0
182,-531,0,0,0,0,0,0,0,0,0,-1,1406,1555,0,0
189,-531,0,0,0,0,0,0,0,0,0,-1,1413,1555,0,0
196,-531,0,0,0,0,0,0,0,0,0,-1,1420,1555,0,0
203,-531,0,0,0,0,0,0,0,0,0,-1,1427,1555,0,0
210,-531,0,0,0,0,0,0,0,0,0,-1,1434,1555,0,0
217,-531,0,0,0,0,0,0,0,0,0,-1,1441,1555,0,0
224,-531,0,0,0,0,0,0,0,0,0,-1,1448,1555,0,0
231,-531,0,0,0,0,0,0,0,0,0,-1,1455,1555,0,0
238,-531,0,0,0,0,0,0,0,0,0,-1,1462,1555,0,0
245,-531,0,0,0,0,0,0,0,0,0,-1,1469,1555,0,0
252,-531,0,0,0,0,0,0,0,0,0,-1,1476,1555,0,0
259,-531,0,0,0,0,0,0,0,0,0,-1,1483,1555,0,0
266,-531,0,0,0,0,0,0,0,0,0,-1,1490,1555,0,0
273,-531,0,0,0,0,0,0,0,0,0,-1,1497,1555,0,0
280,-531,0,0,0,0,0,0,0,0,0,-1,1504,1555,0,0
287,-531,0,0,0,0,0,0,0,0,0,-1,1511,1555,0,0
294,-531,0,0,0,0,0,0,0,0,0,-1,1518,1555,0,0
301,-531,0,0,0,0,0,0,0,0,0,-1,1525,1555,0,0
308,-531,0,0,0,0,0,0,0,0,0,-1,1532,1555,0,0
315,-531,0,0,0,0,0,0,0,0,0,-1,1539,1555,0,0
322,-531,0,0,0,0,0,0,0,0,0,-1,1546,1555,0,0
329,-531,0,0,0,0,0,0,0,0,0,-1,1553,1555,0,0
336,-531,0,0,0,0,0,0,0,0,0,-1,1560,1555,0,0
343,-531,0,0,0,0,0,0,0,0,0,-1,1567,1555,0,0
350,-531,0,0,0,0,0,0,0,0,0,-1,1574,1555,0,0
357,-531,0,0,0,0,0,0,0,0,0,-1,1581,1555,0,0
364,-531,0,0,0,0,0,0,0,0,0,-1,1588,1555,0,0
371,-531,0,0,0,0,0,0,0,0,0,-1,1595,1555,0,0
378,-531,0,0,0,0,0,0,0,0,0,-1,1602,1555,0,0
385,-531,3.48169,1.78625,0,0,0,0,0,0,0,-1,1609,1555,3.48165,-1.78624
392,-531,10.8781,9.09204,0,0,0,0,0,0,0,-1,1616,1555,10.8781,-9.09205
399,-531,8.26306,5.29602,0,0,0,0,0,0,0,-1,1623,1555,8.26302,-5.29607
406,-531,8.26147,5.42712,0,0,0,0,0,0,0,-1,1630,1555,8.26145,-5.42716
413,-531,8.20618,5.75012,0,0,0,0,0,0,0,-1,1637,1555,8.20619,-5.75017
420,-531,7.64868,7.09558,0,0,0,0,0,0,0,-1,1644,1555,7.64867,-7.09564
427,-531,9.93054,11.8412,0,0,0,0,0,0,0,-1,1651,1555,9.93059,-11.8412
434,-531,10.244,11.7072,0,0,0,0,0,0,0,-1,1658,1555,10.244,-11.7071
441,-531,11.4528,12.9397,0,0,0,0,0,0,0,-1,1665,1555,11.4528,-12.9397
448,-531,11.928,18.8029,0,0,0,0,0,0,0,-1,1672,1555,11.928,-18.8028
455,-531,14.4877,9.67065,0,0,0,0,0,0,0,-1,1679,1555,14.4876,-9.67066
462,-531,13.5253,12.2002,0,0,0,0,0,0,0,-1,1686,1555,13.5252,-12.2002
469,-531,15.5087,15.7894,0,0,0,0,0,0,0,-1,1693,1555,15.5086,-15.7895
476,-531,14.6582,16.2264,0,0,0,0,0,0,0,-1,1700,1555,14.6582,-16.2264
483,-531,14.755,18.5994,0,0,0,0,0,0,0,-1,1707,1555,14.7551,-18.5994
490,-531,16.9362,25.4943,0,0,0,0,0,0,0,-1,1714,1555,16.9362,-25.4942
497,-531,19.1777,27.1027,0,0,0,0,0,0,0,-1,1721,1555,19.1777,-27.1026
504,-531,19.3384,26.3239,0.00810733,0.00945544,-0.00741402,0.016226,0.00133678,-0.830732,0.0104004,0.0411338,1728,1555,19.3384,-26.3239
511,-531,19.4611,25.7004,0.0068478,0.00825781,-0.00640623,0.0139977,0.0011079,-0.840203,0.00898531,0.0169971,1735,1555,19.4611,-25.7004
518,-531,19.4742,25.1669,0.00555459,0.00645769,-0.00505598,0.0110822,0.000930036,-0.829935,0.00709849,0.0143382,1742,1555,19.4742,-25.1669
525,-531,19.4634,24.6465,0.00436832,0.00494795,-0.00388163,0.00855057,0.0007657,-0.822661,0.00546306,0.0145962,1749,1555,19.4633,-24.6465
532,-531,19.4644,24.0894,0.00329509,0.00340449,-0.00270905,0.0060594,0.000640187,-0.795493,0.00384401,0.0116703,1756,1555,19.4643,-24.0893
539,-531,19.4471,23.5518,0.0024642,0.00200762,-0.00163811,0.00388985,0.000581971,-0.716164,0.00242265,0.0132814,1763,1555,19.4471,-23.5517
546,-531,19.3767,23.0649,0.00174497,0.000615748,-0.00059591,0.00200127,0.000359448,-0.406181,0.00123197,0.0169554,1770,1555,19.3767,-23.0649
553,-531,19.3745,22.6078,0.00121276,-0.000648331,0.00036251,0.00128088,-0.000716449,0.18574,0.00116841,0.0314783,1777,1555,19.3745,-22.6078
560,-531,19.3633,22.0804,0.000935227,-0.00172108,0.0011338,0.00135335,-0.0021392,0.353309,0.00203337,0.0340125,1784,1555,19.3633,-22.0804
567,-531,19.3519,21.4501,0.000952136,-0.00240311,0.00157455,0.0015753,-0.00302627,0.376857,0.00270038,0.0202035,1791,1555,19.3519,-21.4501
574,-531,19.3278,20.9226,0.00122288,-0.00281754,0.00178106,0.00189589,-0.00349055,0.361284,0.00315496,0.0147708,1798,1555,19.3278,-20.9227
581,-531,19.353,20.368,0.00200507,-0.0028624,0.00155463,0.00245923,-0.00331656,0.284225,0.00334688,0.0212709,1805,1555,19.353,-20.368
588,-531,19.4259,19.7478,0.00355206,-0.00211257,0.000641156,0.00362372,-0.00218423,0.11131,0.00338738,0.0368675,1812,1555,19.4259,-19.7478
595,-531,19.4301,19.0793,0,0,0,0,0,0,0,-1,1819,1555,19.43,-19.0793
602,-531,13.701,11.8346,0,0,0,0,0,0,0,-1,1826,1555,13.701,-11.8347
609,-531,10.9072,8.50903,0,0,0,0,0,0,0,-1,1833,1555,10.9073,-8.50902
616,-531,10.5723,7.17859,0,0,0,0,0,0,0,-1,1840,1555,10.5723,-7.17855
623,-531,10.0674,5.08984,0,0,0,0,0,0,0,-1,1847,1555,10.0674,-5.08981
630,-531,11.672,3.18909,0,0,0,0,0,0,0,-1,1854,1555,11.672,-3.18904
637,-531,13.2546,1.38965,0,0,0,0,0,0,0,-1,1861,1555,13.2547,-1.3896
644,-531,0,0,0,0,0,0,0,0,0,-1,1868,1555,0,0
651,-531,0,0,0,0,0,0,0,0,0,-1,1875,1555,0,0
658,-531,0,0,0,0,0,0,0,0,0,-1,1882,1555,0,0
665,-531,0,0,0,0,0,0,0,0,0,-1,1889,1555,0,0
672,-531,0,0,0,0,0,0,0,0,0,-1,1896,1555,0,0
679,-531,0,0,0,0,0,0,0,0,0,-1,1903,1555,0,0
686,-531,0,0,0,0,0,0,0,0,0,-1,1910,1555,0,0
693,-531,0,0,0,0,0,0,0,0,0,-1,1917,1555,0,0
700,-531,0,0,0,0,0,0,0,0,0,-1,1924,1555,0,0
707,-531,0,0,0,0,0,0,0,0,0,-1,1931,1555,0,0
714,-531,0,0,0,0,0,0,0,0,0,-1,1938,1555,0,0
721,-531,0,0,0,0,0,0,0,0,0,-1,1945,1555,0,0
728,-531,0,0,0,0,0,0,0,0,0,-1,1952,1555,0,0
735,-531,0,0,0,0,0,0,0,0,0,-1,1959,1555,0,0
742,-531,0,0,0,0,0,0,0,0,0,-1,1966,1555,0,0
749,-531,0,0,0,0,0,0,0,0,0,-1,1973,1555,0,0
756,-531,0,0,0,0,0,0,0,0,0,-1,1980,1555,0,0
763,-531,0,0,0,0,0,0,0,0,0,-1,1987,1555,0,0
770,-531,0,0,0,0,0,0,0,0,0,-1,1994,1555,0,0
777,-531,0,0,0,0,0,0,0,0,0,-1,2001,1555,0,0
784,-531,0,0,0,0,0,0,0,0,0,-1,2008,1555,0,0
791,-531,0,0,0,0,0,0,0,0,0,-1,2015,1555,0,0
798,-531,0,0,0,0,0,0,0,0,0,-1,2022,1555,0,0
805,-531,0,0,0,0,0,0,0,0,0,-1,2029,1555,0,0
812,-531,0,0,0,0,0,0,0,0,0,-1,2036,1555,0,0
-700,-538,0,0,0,0,0,0,0,0,0,-1,524,1562,0,0
-693,-538,0,0,0,0,0,0,0,0,0,-1,531,1562,0,0
-686,-538,0,0,0,0,0,0,0,0,0,-1,538,1562,0,0
-679,-538,0,0,0,0,0,0,0,0,0,-1,545,1562,0,0
-672,-538,0,0,0,0,0,0,0,0,0,-1,552,1562,0,0
-665,-538,0,0,0,0,0,0,0,0,0,-1,559,1562,0,0
-658,-538,0,0,0,0,0,0,0,0,0,-1,566,1562,0,0
-651,-538,0,0,0,0,0,0,0,0,0,-1,573,1562,0,0
-644,-538,0,0,0,0,0,0,0,0,0,-1,580,1562,0,0
-637,-538,0,0,0,0,0,0,0,0,0,-1,587,1562,0,0
-630,-538,0,0,0,0,0,0,0,0,0,-1,594,1562,0,0
-623,-538,0,0,0,0,0,0,0,0,0,-1,601,1562,0,0
-616,-538,0,0,0,0,0,0,0,0,0,-1,608,1562,0,0
-609,-538,0,0,0,0,0,0,0,0,0,-1,615,1562,0,0
-602,-538,0,0,0,0,0,0,0,0,0,-1,622,1562,0,0
-595,-538,0,0,0,0,0,0,0,0,0,-1,629,1562,0,0
-588,-538,0,0,0,0,0,0,0,0,0,-1,636,1562,0,0
-581,-538,0,0,0,0,0,0,0,0,0,-1,643,1562,0,0
-574,-538,0,0,0,0,0,0,0,0,0,-1,650,1562,0,0
-567,-538,0,0,0,0,0,0,0,0,0,-1,657,1562,0,0
-560,-538,0,0,0,0,0,0,0,0,0,-1,664,1562,0,0
-553,-538,0,0,0,0,0,0,0,0,0,-1,671,1562,0,0
-546,-538,0,0,0,0,0,0,0,0,0,-1,678,1562,0,0
-539,-538,0,0,0,0,0,0,0,0,0,-1,685,1562,0,0
-532,-538,0,0,0,0,0,0,0,0,0,-1,692,1562,0,0
-525,-538,0,0,0,0,0,0,0,0,0,-1,699,1562,0,0
-518,-538,0,0,0,0,0,0,0,0,0,-1,706,1562,0,0
-511,-538,-2.6582,-1.54321,0,0,0,0,0,0,0,-1,713,1562,-2.65821,1.54327
-504,-538,-2.66455,-0.71167,0,0,0,0,0,0,0,-1,720,1562,-2.66456,0.711667
-497,-538,-0.763855,6.77747,0,0,0,0,0,0,0,-1,727,1562,-0.76385,-6.77743
-490,-538,-2.70453,8.01465,0,0,0,0,0,0,0,-1,734,1562,-2.70451,-8.0147
-483,-538,-0.933533,7.84644,0,0,0,0,0,0,0,-1,741,1562,-0.933548,-7.84638
-476,-538,-3.29962,15.8307,0,0,0,0,0,0,0,-1,748,1562,-3.29962,-15.8306
-469,-538,-1.5968,17.4225,0,0,0,0,0,0,0,-1,755,1562,-1.59681,-17.4225
-462,-538,-1.93134,18.3243,0,0,0,0,0,0,0,-1,762,1562,-1.93131,-18.3243
-455,-538,-2.52277,18.9784,-0.00660795,0.00901119,0.000903348,0.00906326,-0.00666002,1.51322,0.00911312,0.0412032,769,1562,-2.52276,-18.9784
-448,-538,-2.24445,19.3068,-0.00471889,0.00718632,0.000164371,0.00718859,-0.00472116,1.55699,0.00692511,0.0215582,776,1562,-2.24447,-19.3068
-441,-538,-2.34515,19.8459,-0.00347274,0.00546757,-0.000334097,0.00548004,-0.0034852,-1.5335,0.00521862,0.0238464,783,1562,-2.34513,-19.8459
-434,-538,-2.41803,20.312,-0.00247357,0.00400236,-0.000481708,0.004038,-0.0025092,-1.49695,0.00381422,0.0130544,790,1562,-2.41803,-20.312
-427,-538,-2.44482,20.9053,-0.00127492,0.00332847,-0.00035457,0.00335562,-0.00130207,-1.49437,0.00277487,0.0139077,797,1562,-2.44483,-20.9053
-420,-538,-2.46747,21.4425,-0.000373308,0.00291542,-3.95982e-06,0.00291542,-0.000373312,-1.56959,0.00207925,0.0178518,804,1562,-2.46744,-21.4426
-413,-538,-2.47675,21.9823,0.000439606,0.00238793,0.000659157,0.00258998,0.000237554,1.27336,0.00165317,0.0180196,811,1562,-2.47677,-21.9823
-406,-538,-2.48523,22.5547,0.00129408,0.00267394,0.0013594,0.00350847,0.000459549,1.02022,0.00220184,0.015516,818,1562,-2.48526,-22.5547
-399,-538,-2.50281,23.095,0.00202691,0.00288398,0.00202859,0.0045288,0.000382087,0.889492,0.00290024,0.013378,825,1562,-2.50283,-23.095
-392,-538,-2.50916,23.639,0.00304423,0.00396706,0.00290298,0.00644507,0.000566224,0.864211,0.00412096,0.0140476,832,1562,-2.50915,-23.639
-385,-538,-2.54889,24.2019,0.00422096,0.00513085,0.00375324,0.00845662,0.00089519,0.84571,0.00536431,0.0122542,839,1562,-2.54888,-24.202
-378,-538,-2.55402,24.7562,0.00531533,0.00616257,0.00439801,0.0101573,0.00132059,0.83341,0.00637709,0.0107338,846,1562,-2.55403,-24.7563
-371,-538,-2.5874,25.2898,0.00641744,0.00716954,0.00501231,0.0118199,0.0017671,0.822841,0.00736193,0.0136936,853,1562,-2.58739,-25.2898
-364,-538,-2.54077,25.9075,0.00772889,0.00840385,0.005748,0.0138243,0.00230847,0.814721,0.00855119,0.018447,860,1562,-2.54079,-25.9075
-357,-538,-2.51031,26.5616,0.00909451,0.00977392,0.00652702,0.0159701,0.00289836,0.811398,0.00982416,0.0425898,867,1562,-2.51029,-26.5617
-350,-538,-2.30774,27.3296,0,0,0,0,0,0,0,-1,874,1562,-2.30776,-27.3296
-343,-538,-2.17896,27.6536,0,0,0,0,0,0,0,-1,881,1562,-2.17893,-27.6535
-336,-538,-1.76166,28.2788,0,0,0,0,0,0,0,-1,888,1562,-1.76169,-28.2788
-329,-538,-1.75354,28.733,0,0,0,0,0,0,0,-1,895,1562,-1.75357,-28.733
-322,-538,-1.93585,28.8976,0,0,0,0,0,0,0,-1,902,1562,-1.93587,-28.8976
-315,-538,-3.11243,27.4591,0,0,0,0,0,0,0,-1,909,1562,-3.11243,-27.4591
-308,-538,-3.32458,27.5726,0,0,0,0,0,0,0,-1,916,1562,-3.32458,-27.5727
-301,-538,-0.452393,18.5101,0,0,0,0,0,0,0,-1,923,1562,-0.452367,-18.5102
-294,-538,1.23138,14.0757,0,0,0,0,0,0,0,-1,930,1562,1.23137,-14.0757
-287,-538,-2.60419,10.2361,0,0,0,0,0,0,0,-1,937,1562,-2.6042,-10.2361
-280,-538,-2.93475,10.5106,0,0,0,0,0,0,0,-1,944,1562,-2.93475,-10.5106
-273,-538,-3.26532,10.785,0,0,0,0,0,0,0,-1,951,1562,-3.26531,-10.785
-266,-538,-5.03412,15.9951,0,0,0,0,0,0,0,-1,958,1562,-5.03409,-15.9951
-259,-538,-5.89642,16.5184,0,0,0,0,0,0,0,-1,965,1562,-5.89644,-16.5184
-252,-538,0,0,0,0,0,0,0,0,0,-1,972,1562,0,0
-245,-538,0,0,0,0,0,0,0,0,0,-1,979,1562,0,0
-238,-538,0,0,0,0,0,0,0,0,0,-1,986,1562,0,0
-231,-538,0,0,0,0,0,0,0,0,0,-1,993,1562,0,0
-224,-538,0,0,0,0,0,0,0,0,0,-1,1000,1562,0,0
-217,-538,0,0,0,0,0,0,0,0,0,-1,1007,1562,0,0
-210,-538,0,0,0,0,0,0,0,0,0,-1,1014,1562,0,0
-203,-538,0,0,0,0,0,0,0,0,0,-1,1021,1562,0,0
-196,-538,0,0,0,0,0,0,0,0,0,-1,1028,1562,0,0
-189,-538,0,0,0,0,0,0,0,0,0,-1,1035,1562,0,0
-182,-538,0,0,0,0,0,0,0,0,0,-1,1042,1562,0,0
-175,-538,0,0,0,0,0,0,0,0,0,-1,1049,1562,0,0
-168,-538,0,0,0,0,0,0,0,0,0,-1,1056,1562,0,0
-161,-538,0,0,0,0,0,0,0,0,0,-1,1063,1562,0,0
-154,-538,0,0,0,0,0,0,0,0,0,-1,1070,1562,0,0
-147,-538,0,0,0,0,0,0,0,0,0,-1,1077,1562,0,0
-140,-538,0,0,0,0,0,0,0,0,0,-1,1084,1562,0,0
-133,-538,0,0,0,0,0,0,0,0,0,-1,1091,1562,0,0
-126,-538,0,0,0,0,0,0,0,0,0,-1,1098,1562,0,0
-119,-538,0,0,0,0,0,0,0,0,0,-1,1105,1562,0,0
-112,-538,0,0,0,0,0,0,0,0,0,-1,1112,1562,0,0
-105,-538,0,0,0,0,0,0,0,0,0,-1,1119,1562,0,0
-98,-538,0,0,0,0,0,0,0,0,0,-1,1126,1562,0,0
-91,-538,0,0,0,0,0,0,0,0,0,-1,1133,1562,0,0
-84,-538,0,0,0,0,0,0,0,0,0,-1,1140,1562,0,0
-77,-538,0,0,0,0,0,0,0,0,0,-1,1147,1562,0,0
-70,-538,0,0,0,0,0,0,0,0,0,-1,1154,1562,0,0
-63,-538,0,0,0,0,0,0,0,0,0,-1,1161,1562,0,0
-56,-538,0,0,0,0,0,0,0,0,0,-1,1168,1562,0,0
-49,-538,0,0,0,0,0,0,0,0,0,-1,1175,1562,0,0
-42,-538,0,0,0,0,0,0,0,0,0,-1,1182,1562,0,0
-35,-538,0,0,0,0,0,0,0,0,0,-1,1189,1562,0,0
-28,-538,0,0,0,0,0,0,0,0,0,-1,1196,1562,0,0
-21,-538,0,0,0,0,0,0,0,0,0,-1,1203,1562,0,0
-14,-538,0,0,0,0,0,0,0,0,0,-1,1210,1562,0,0
-7,-538,0,0,0,0,0,0,0,0,0,-1,1217,1562,0,0
0,-538,0,0,0,0,0,0,0,0,0,-1,1224,1562,0,0
7,-538,0,0,0,0,0,0,0,0,0,-1,1231,1562,0,0
14,-538,0,0,0,0,0,0,0,0,0,-1,1238,1562,0,0
21,-538,0,0,0,0,0,0,0,0,0,-1,1245,1562,0,0
28,-538,0,0,0,0,0,0,0,0,0,-1,1252,1562,0,0
35,-538,0,0,0,0,0,0,0,0,0,-1,1259,1562,0,0
42,-538,0,0,0,0,0,0,0,0,0,-1,1266,1562,0,0
49,-538,0,0,0,0,0,0,0,0,0,-1,1273,1562,0,0
56,-538,0,0,0,0,0,0,0,0,0,-1,1280,1562,0,0
63,-538,0,0,0,0,0,0,0,0,0,-1,1287,1562,0,0
70,-538,0,0,0,0,0,0,0,0,0,-1,1294,1562,0,0
77,-538,0,0,0,0,0,0,0,0,0,-1,1301,1562,0,0
84,-538,0,0,0,0,0,0,0,0,0,-1,1308,1562,0,0
91,-538,0,0,0,0,0,0,0,0,0,-1,1315,1562,0,0
98,-538,0,0,0,0,0,0,0,0,0,-1,1322,1562,0,0
105,-538,0,0,0,0,0,0,0,0,0,-1,1329,1562,0,0
112,-538,0,0,0,0,0,0,0,0,0,-1,1336,1562,0,0
119,-538,0,0,0,0,0,0,0,0,0,-1,1343,1562,0,0
126,-538,0,0,0,0,0,0,0,0,0,-1,1350,1562,0,0
133,-538,0,0,0,0,0,0,0,0,0,-1,1357,1562,0,0
140,-538,0,0,0,0,0,0,0,0,0,-1,1364,1562,0,0
147,-538,0,0,0,0,0,0,0,0,0,-1,1371,1562,0,0
154,-538,0,0,0,0,0,0,0,0,0,-1,1378,1562,0,0
161,-538,0,0,0,0,0,0,0,0,0,-1,1385,1562,0,0
168,-538,0,0,0,0,0,0,0,0,0,-1,1392,1562,0,0
175,-538,0,0,0,0,0,0,0,0,0,-1,1399,1562,0,0
182,-538,0,0,0,0,0,0,0,0,0,-1,1406,1562,0,0
189,-538,0,0,0,0,0,0,0,0,0,-1,1413,1562,0,0
196,-538,0,0,0,0,0,0,0,0,0,-1,1420,1562,0,0
203,-538,0,0,0,0,0,0,0,0,0,-1,1427,1562,0,0
210,-538,0,0,0,0,0,0,0,0,0,-1,1434,1562,0,0
217,-538,0,0,0,0,0,0,0,0,0,-1,1441,1562,0,0
224,-538,0,0,0,0,0,0,0,0,0,-1,1448,1562,0,0
231,-538,0,0,0,0,0,0,0,0,0,-1,1455,1562,0,0
238,-538,0,0,0,0,0,0,0,0,0,-1,1462,1562,0,0
245,-538,0,0,0,0,0,0,0,0,0,-1,1469,1562,0,0
252,-538,0,0,0,0,0,0,0,0,0,-1,1476,1562,0,0
259,-538,0,0,0,0,0,0,0,0,0,-1,1483,1562,0,0
266,-538,0,0,0,0,0,0,0,0,0,-1,1490,1562,0,0
273,-538,0,0,0,0,0,0,0,0,0,-1,1497,1562,0,0
280,-538,0,0,0,0,0,0,0,0,0,-1,1504,1562,0,0
287,-538,0,0,0,0,0,0,0,0,0,-1,1511,1562,0,0
294,-538,0,0,0,0,0,0,0,0,0,-1,1518,1562,0,0
301,-538,0,0,0,0,0,0,0,0,0,-1,1525,1562,0,0
308,-538,0,0,0,0,0,0,0,0,0,-1,1532,1562,0,0
315,-538,0,0,0,0,0,0,0,0,0,-1,1539,1562,0,0
322,-538,0,0,0,0,0,0,0,0,0,-1,1546,1562,0,0
329,-538,0,0,0,0,0,0,0,0,0,-1,1553,1562,0,0
336,-538,0,0,0,0,0,0,0,0,0,-1,1560,1562,0,0
343,-538,0,0,0,0,0,0,0,0,0,-1,1567,1562,0,0
350,-538,0,0,0,0,0,0,0,0,0,-1,1574,1562,0,0
357,-538,0,0,0,0,0,0,0,0,0,-1,1581,1562,0,0
364,-538,0,0,0,0,0,0,0,0,0,-1,1588,1562,0,0
371,-538,0,0,0,0,0,0,0,0,0,-1,1595,1562,0,0
378,-538,9.65479,5.82434,0,0,0,0,0,0,0,-1,1602,1562,9.6548,-5.82439
385,-538,10.5449,7.9502,0,0,0,0,0,0,0,-1,1609,1562,10.5449,-7.95014
392,-538,8.20361,7.07214,0,0,0,0,0,0,0,-1,1616,1562,8.20362,-7.07211
399,-538,7.85425,4.70508,0,0,0,0,0,0,0,-1,1623,1562,7.85425,-4.70512
406,-538,7.77734,4.96094,0,0,0,0,0,0,0,-1,1630,1562,7.77729,-4.96097
413,-538,13.0446,13.1765,0,0,0,0,0,0,0,-1,1637,1562,13.0446,-13.1765
420,-538,9.96216,12.7653,0,0,0,0,0,0,0,-1,1644,1562,9.96221,-12.7653
427,-538,10.1732,14.5863,0,0,0,0,0,0,0,-1,1651,1562,10.1732,-14.5863
434,-538,9.64331,14.7745,0,0,0,0,0,0,0,-1,1658,1562,9.64326,-14.7746
441,-538,11.5039,20.5195,0,0,0,0,0,0,0,-1,1665,1562,11.5039,-20.5195
448,-538,12.8766,22.4932,0,0,0,0,0,0,0,-1,1672,1562,12.8766,-22.4932
455,-538,12.5693,17.4128,0,0,0,0,0,0,0,-1,1679,1562,12.5694,-17.4128
462,-538,12.1389,17.017,0,0,0,0,0,0,0,-1,1686,1562,12.1389,-17.017
469,-538,14.3802,16.6945,0,0,0,0,0,0,0,-1,1693,1562,14.3803,-16.6945
476,-538,13.724,19.0608,0,0,0,0,0,0,0,-1,1700,1562,13.724,-19.0608
483,-538,17.088,25.2936,0,0,0,0,0,0,0,-1,1707,1562,17.088,-25.2936
490,-538,18.7404,27.4098,0,0,0,0,0,0,0,-1,1714,1562,18.7403,-27.4098
497,-538,18.9808,26.7114,0,0,0,0,0,0,0,-1,1721,1562,18.9808,-26.7114
504,-538,18.9958,26.1648,0.00611748,0.00739824,-0.00558098,0.0123755,0.00114026,-0.84252,0.00789771,0.0168223,1728,1562,18.9959,-26.1648
511,-538,18.9636,25.661,0.00510698,0.00625235,-0.00471837,0.0104327,0.000926665,-0.845789,0.00666772,0.0101519,1735,1562,18.9637,-25.661
518,-538,18.954,25.1429,0.00401082,0.00460516,-0.00354862,0.00786904,0.000746951,-0.827172,0.00501561,0.0112472,1742,1562,18.954,-25.143
525,-538,18.9421,24.6222,0.00300888,0.00320827,-0.00249852,0.00560909,0.000608071,-0.805338,0.00355408,0.012724,1749,1562,18.9421,-24.6222
532,-538,18.9286,24.1063,0.00211599,0.00172208,-0.00141469,0.00334737,0.0004907,-0.716233,0.00208733,0.0141545,1756,1562,18.9286,-24.1063
539,-538,18.9015,23.5975,0.00141745,0.000329891,-0.000379452,0.00153675,0.000210587,-0.304626,0.000962019,0.0160468,1763,1562,18.9015,-23.5975
546,-538,18.8682,23.0688,0.000768637,-0.00113331,0.000702027,0.000999692,-0.00136436,0.31796,0.00137029,0.0169374,1770,1562,18.8681,-23.0688
553,-538,18.8673,22.5437,0.000274908,-0.00252038,0.0017503,0.00111712,-0.00336259,0.448481,0.00269249,0.0271616,1777,1562,18.8673,-22.5437
560,-538,18.8461,22.0651,2.88492e-05,-0.0037266,0.0026353,0.00138697,-0.00508472,0.475856,0.00393448,0.0303107,1784,1562,18.846,-22.0651
567,-538,18.8187,21.4738,7.37175e-05,-0.00459162,0.0032417,0.00173479,-0.00625269,0.473524,0.00485124,0.0235827,1791,1562,18.8187,-21.4738
574,-538,18.7318,20.9406,0.000388476,-0.00519675,0.00360945,0.00215951,-0.00696778,0.456151,0.00550799,0.0278781,1798,1562,18.7318,-20.9405
581,-538,18.7789,20.3997,0.00133768,-0.00532245,0.00343385,0.00279099,-0.00677576,0.400371,0.00568083,0.0385837,1805,1562,18.779,-20.3997
588,-538,18.8356,19.7854,0,0,0,0,0,0,0,-1,1812,1562,18.8356,-19.7854
595,-538,15.9808,16.0894,0,0,0,0,0,0,0,-1,1819,1562,15.9808,-16.0893
602,-538,10.314,8.94238,0,0,0,0,0,0,0,-1,1826,1562,10.314,-8.94238
609,-538,10.1046,7.05713,0,0,0,0,0,0,0,-1,1833,1562,10.1046,-7.05719
616,-538,9.92249,5.43506,0,0,0,0,0,0,0,-1,1840,1562,9.92254,-5.43507
623,-538,11.1711,4.31604,0,0,0,0,0,0,0,-1,1847,1562,11.1711,-4.316
630,-538,12.6112,2.61633,0,0,0,0,0,0,0,-1,1854,1562,12.6112,-2.61637
637,-538,0,0,0,0,0,0,0,0,0,-1,1861,1562,0,0
644,-538,0,0,0,0,0,0,0,0,0,-1,1868,1562,0,0
651,-538,0,0,0,0,0,0,0,0,0,-1,1875,1562,0,0
658,-538,0,0,0,0,0,0,0,0,0,-1,1882,1562,0,0
665,-538,0,0,0,0,0,0,0,0,0,-1,1889,1562,0,0
672,-538,0,0,0,0,0,0,0,0,0,-1,1896,1562,0,0
679,-538,0,0,0,0,0,0,0,0,0,-1,1903,1562,0,0
686,-538,0,0,0,0,0,0,0,0,0,-1,1910,1562,0,0
693,-538,0,0,0,0,0,0,0,0,0,-1,1917,1562,0,0
700,-538,0,0,0,0,0,0,0,0,0,-1,1924,1562,0,0
707,-538,0,0,0,0,0,0,0,0,0,-1,1931,1562,0,0
714,-538,0,0,0,0,0,0,0,0,0,-1,1938,1562,0,0
721,-538,0,0,0,0,0,0,0,0,0,-1,1945,1562,0,0
728,-538,0,0,0,0,0,0,0,0,0,-1,1952,1562,0,0
735,-538,0,0,0,0,0,0,0,0,0,-1,1959,1562,0,0
742,-538,0,0,0,0,0,0,0,0,0,-1,1966,1562,0,0
749,-538,0,0,0,0,0,0,0,0,0,-1,1973,1562,0,0
756,-538,0,0,0,0,0,0,0,0,0,-1,1980,1562,0,0
763,-538,0,0,0,0,0,0,0,0,0,-1,1987,1562,0,0
770,-538,0,0,0,0,0,0,0,0,0,-1,1994,1562,0,0
777,-538,0,0,0,0,0,0,0,0,0,-1,2001,1562,0,0
784,-538,0,0,0,0,0,0,0,0,0,-1,2008,1562,0,0
791,-538,0,0,0,0,0,0,0,0,0,-1,2015,1562,0,0
798,-538,0,0,0,0,0,0,0,0,0,-1,2022,1562,0,0
805,-538,0,0,0,0,0,0,0,0,0,-1,2029,1562,0,0
812,-538,0,0,0,0,0,0,0,0,0,-1,2036,1562,0,0
-700,-545,0,0,0,0,0,0,0,0,0,-1,524,1569,0,0
-693,-545,0,0,0,0,0,0,0,0,0,-1,531,1569,0,0
-686,-545,0,0,0,0,0,0,0,0,0,-1,538,1569,0,0
-679,-545,0,0,0,0,0,0,0,0,0,-1,545,1569,0,0
-672,-545,0,0,0,0,0,0,0,0,0,-1,552,1569,0,0
-665,-545,0,0,0,0,0,0,0,0,0,-1,559,1569,0,0
-658,-545,0,0,0,0,0,0,0,0,0,-1,566,1569,0,0
-651,-545,0,0,0,0,0,0,0,0,0,-1,573,1569,0,0
-644,-545,0,0,0,0,0,0,0,0,0,-1,580,1569,0,0
-637,-545,0,0,0,0,0,0,0,0,0,-1,587,1569,0,0
-630,-545,0,0,0,0,0,0,0,0,0,-1,594,1569,0,0
-623,-545,0,0,0,0,0,0,0,0,0,-1,601,1569,0,0
-616,-545,0,0,0,0,0,0,0,0,0,-1,608,1569,0,0
-609,-545,0,0,0,0,0,0,0,0,0,-1,615,1569,0,0
-602,-545,0,0,0,0,0,0,0,0,0,-1,622,1569,0,0
-595,-545,0,0,0,0,0,0,0,0,0,-1,629,1569,0,0
-588,-545,0,0,0,0,0,0,0,0,0,-1,636,1569,0,0
-581,-545,0,0,0,0,0,0,0,0,0,-1,643,1569,0,0
-574,-545,0,0,0,0,0,0,0,0,0,-1,650,1569,0,0
-567,-545,0,0,0,0,0,0,0,0,0,-1,657,1569,0,0
-560,-545,0,0,0,0,0,0,0,0,0,-1,664,1569,0,0
-553,-545,0,0,0,0,0,0,0,0,0,-1,671,1569,0,0
-546,-545,0,0,0,0,0,0,0,0,0,-1,678,1569,0,0
-539,-545,0,0,0,0,0,0,0,0,0,-1,685,1569,0,0
-532,-545,0,0,0,0,0,0,0,0,0,-1,692,1569,0,0
-525,-545,0,0,0,0,0,0,0,0,0,-1,699,1569,0,0
-518,-545,0,0,0,0,0,0,0,0,0,-1,706,1569,0,0
-511,-545,0,0,0,0,0,0,0,0,0,-1,713,1569,0,0
-504,-545,-3.55237,-2.5354,0,0,0,0,0,0,0,-1,720,1569,-3.55236,2.53545
-497,-545,2.26575,5.69214,0,0,0,0,0,0,0,-1,727,1569,2.26573,-5.6922
-490,-545,-2.17334,7.81396,0,0,0,0,0,0,0,-1,734,1569,-2.17334,-7.81399
-483,-545,-1.88336,5.8446,0,0,0,0,0,0,0,-1,741,1569,-1.88334,-5.84466
-476,-545,-1.13147,6.5741,0,0,0,0,0,0,0,-1,748,1569,-1.13149,-6.57405
-469,-545,-1.03412,15.8353,0,0,0,0,0,0,0,-1,755,1569,-1.03414,-15.8353
-462,-545,-2.27869,16.1335,0,0,0,0,0,0,0,-1,762,1569,-2.27867,-16.1335
-455,-545,-2.07654,17.6238,-0.00620207,0.0148561,0.00219002,0.0150815,-0.00642741,1.46826,0.0127488,0.0451652,769,1569,-2.07652,-17.6238
-448,-545,-1.70197,19.0911,-0.00476638,0.0111606,0.000825405,0.0112033,-0.00480904,1.51916,0.00948726,0.0327652,776,1569,-1.702,-19.0911
-441,-545,-1.67841,19.9454,-0.00393718,0.00805037,-0.00017717,0.00805299,-0.0039398,-1.55602,0.00705848,0.0285343,783,1569,-1.67841,-19.9455
-434,-545,-1.9259,20.3893,-0.00324511,0.00536759,-0.000697166,0.00542366,-0.00330118,-1.49055,0.00508673,0.0246144,790,1569,-1.92589,-20.3893
-427,-545,-1.89221,20.9193,-0.00219804,0.00397541,-0.000780066,0.00407245,-0.00229509,-1.44703,0.00372373,0.0196633,797,1569,-1.8922,-20.9194
-420,-545,-1.85376,21.4456,-0.00141479,0.00302211,-0.000612421,0.00310509,-0.00149777,-1.43612,0.00271093,0.0231722,804,1569,-1.85377,-21.4456
-413,-545,-1.87054,21.9727,-0.000670599,0.00202999,-7.01593e-05,0.00203181,-0.000672421,-1.54484,0.00162572,0.022347,811,1569,-1.87053,-21.9726
-406,-545,-1.91016,22.5492,0.000116394,0.00196575,0.000503746,0.00209406,-1.19195e-05,1.32138,0.00140003,0.0171973,818,1569,-1.91016,-22.5492
-399,-545,-1.94153,23.1047,0.000641891,0.00158046,0.000943008,0.0021645,5.78526e-05,1.01628,0.00142411,0.0115253,825,1569,-1.94153,-23.1047
-392,-545,-1.97308,23.6538,0.00153545,0.00243979,0.00167955,0.00372697,0.000248266,0.91689,0.00240617,0.0118388,832,1569,-1.97306,-23.6539
-385,-545,-1.96973,24.2281,0.00265562,0.00342425,0.00240165,0.00547214,0.000607736,0.864736,0.00346333,0.010565,839,1569,-1.9697,-24.2282
-378,-545,-1.9939,24.7885,0.00374219,0.00428591,0.00300148,0.00702782,0.00100028,0.830563,0.00438994,0.0125176,846,1569,-1.99389,-24.7885
-371,-545,-2.03046,25.3531,0.00478742,0.00510106,0.00351158,0.00845932,0.00142916,0.807712,0.00522868,0.0159741,853,1569,-2.03046,-25.3531
-364,-545,-2.04938,25.8452,0.00593746,0.00613129,0.00409387,0.0101294,0.00193935,0.797233,0.00620828,0.0112369,860,1569,-2.04935,-25.8452
-357,-545,-1.97461,26.4625,0.00714596,0.00724896,0.00467684,0.0118746,0.00252034,0.790904,0.00722434,0.0190941,867,1569,-1.97464,-26.4625
-350,-545,-1.92096,27.0511,0.00853154,0.00858147,0.00540572,0.0139623,0.00315073,0.787707,0.00845593,0.0299326,874,1569,-1.92096,-27.0512
-343,-545,-1.93188,27.7501,0,0,0,0,0,0,0,-1,881,1569,-1.93189,-27.7502
-336,-545,-1.71381,27.8519,0,0,0,0,0,0,0,-1,888,1569,-1.71381,-27.8519
-329,-545,-1.89148,27.7859,0,0,0,0,0,0,0,-1,895,1569,-1.89147,-27.7859
-322,-545,-2.08643,26.1931,0,0,0,0,0,0,0,-1,902,1569,-2.08642,-26.1931
-315,-545,-2.30347,26.2123,0,0,0,0,0,0,0,-1,909,1569,-2.30348,-26.2122
-308,-545,-1.54358,21.4457,0,0,0,0,0,0,0,-1,916,1569,-1.54357,-21.4457
-301,-545,1.52191,17.5009,0,0,0,0,0,0,0,-1,923,1569,1.52192,-17.5008
-294,-545,-2.69287,8.42102,0,0,0,0,0,0,0,-1,930,1569,-2.69287,-8.42097
-287,-545,-3.47784,9.96021,0,0,0,0,0,0,0,-1,937,1569,-3.47785,-9.96021
-280,-545,-3.7879,10.5448,0,0,0,0,0,0,0,-1,944,1569,-3.78793,-10.5448
-273,-545,-5.10333,12.864,0,0,0,0,0,0,0,-1,951,1569,-5.10331,-12.864
-266,-545,-5.78955,13.3704,0,0,0,0,0,0,0,-1,958,1569,-5.78952,-13.3703
-259,-545,-6.32184,13.8101,0,0,0,0,0,0,0,-1,965,1569,-6.32182,-13.81
-252,-545,0.369263,7.54053,0,0,0,0,0,0,0,-1,972,1569,0.369276,-7.54056
-245,-545,-0.236633,6.65564,0,0,0,0,0,0,0,-1,979,1569,-0.236605,-6.65566
-238,-545,0,0,0,0,0,0,0,0,0,-1,986,1569,0,0
-231,-545,0,0,0,0,0,0,0,0,0,-1,993,1569,0,0
-224,-545,0,0,0,0,0,0,0,0,0,-1,1000,1569,0,0
-217,-545,0,0,0,0,0,0,0,0,0,-1,1007,1569,0,0
-210,-545,0,0,0,0,0,0,0,0,0,-1,1014,1569,0,0
-203,-545,0,0,0,0,0,0,0,0,0,-1,1021,1569,0,0
-196,-545,0,0,0,0,0,0,0,0,0,-1,1028,1569,0,0
-189,-545,0,0,0,0,0,0,0,0,0,-1,1035,1569,0,0
-182,-545,0,0,0,0,0,0,0,0,0,-1,1042,1569,0,0
-175,-545,0,0,0,0,0,0,0,0,0,-1,1049,1569,0,0
-168,-545,0,0,0,0,0,0,0,0,0,-1,1056,1569,0,0
-161,-545,0,0,0,0,0,0,0,0,0,-1,1063,1569,0,0
-154,-545,0,0,0,0,0,0,0,0,0,-1,1070,1569,0,0
-147,-545,0,0,0,0,0,0,0,0,0,-1,1077,1569,0,0
-140,-545,0,0,0,0,0,0,0,0,0,-1,1084,1569,0,0
-133,-545,0,0,0,0,0,0,0,0,0,-1,1091,1569,0,0
-126,-545,0,0,0,0,0,0,0,0,0,-1,1098,1569,0,0
-119,-545,0,0,0,0,0,0,0,0,0,-1,1105,1569,0,0
-112,-545,0,0,0,0,0,0,0,0,0,-1,1112,1569,0,0
-105,-545,0,0,0,0,0,0,0,0,0,-1,1119,1569,0,0
-98,-545,0,0,0,0,0,0,0,0,0,-1,1126,1569,0,0
-91,-545,0,0,0,0,0,0,0,0,0,-1,1133,1569,0,0
-84,-545,0,0,0,0,0,0,0,0,0,-1,1140,1569,0,0
-77,-545,0,0,0,0,0,0,0,0,0,-1,1147,1569,0,0
-70,-545,0,0,0,0,0,0,0,0,0,-1,1154,1569,0,0
-63,-545,0,0,0,0,0,0,0,0,0,-1,1161,1569,0,0
-56,-545,0,0,0,0,0,0,0,0,0,-1,1168,1569,0,0
-49,-545,0,0,0,0,0,0,0,0,0,-1,1175,1569,0,0
-42,-545,0,0,0,0,0,0,0,0,0,-1,1182,1569,0,0
-35,-545,0,0,0,0,0,0,0,0,0,-1,1189,1569,0,0
-28,-545,0,0,0,0,0,0,0,0,0,-1,1196,1569,0,0
-21,-545,0,0,0,0,0,0,0,0,0,-1,1203,1569,0,0
-14,-545,0,0,0,0,0,0,0,0,0,-1,1210,1569,0,0
-7,-545,0,0,0,0,0,0,0,0,0,-1,1217,1569,0,0
0,-545,0,0,0,0,0,0,0,0,0,-1,1224,1569,0,0
7,-545,0,0,0,0,0,0,0,0,0,-1,1231,1569,0,0
14,-545,0,0,0,0,0,0,0,0,0,-1,1238,1569,0,0
21,-545,0,0,0,0,0,0,0,0,0,-1,1245,1569,0,0
28,-545,0,0,0,0,0,0,0,0,0,-1,1252,1569,0,0
35,-545,0,0,0,0,0,0,0,0,0,-1,1259,1569,0,0
42,-545,0,0,0,0,0,0,0,0,0,-1,1266,1569,0,0
49,-545,0,0,0,0,0,0,0,0,0,-1,1273,1569,0,0
56,-545,0,0,0,0,0,0,0,0,0,-1,1280,1569,0,0
63,-545,0,0,0,0,0,0,0,0,0,-1,1287,1569,0,0
70,-545,0,0,0,0,0,0,0,0,0,-1,1294,1569,0,0
77,-545,0,0,0,0,0,0,0,0,0,-1,1301,1569,0,0
84,-545,0,0,0,0,0,0,0,0,0,-1,1308,1569,0,0
91,-545,0,0,0,0,0,0,0,0,0,-1,1315,1569,0,0
98,-545,0,0,0,0,0,0,0,0,0,-1,1322,1569,0,0
105,-545,0,0,0,0,0,0,0,0,0,-1,1329,1569,0,0
112,-545,0,0,0,0,0,0,0,0,0,-1,1336,1569,0,0
119,-545,0,0,0,0,0,0,0,0,0,-1,1343,1569,0,0
126,-545,0,0,0,0,0,0,0,0,0,-1,1350,1569,0,0
133,-545,0,0,0,0,0,0,0,0,0,-1,1357,1569,0,0
140,-545,0,0,0,0,0,0,0,0,0,-1,1364,1569,0,0
147,-545,0,0,0,0,0,0,0,0,0,-1,1371,1569,0,0
154,-545,0,0,0,0,0,0,0,0,0,-1,1378,1569,0,0
161,-545,0,0,0,0,0,0,0,0,0,-1,1385,1569,0,0
168,-545,0,0,0,0,0,0,0,0,0,-1,1392,1569,0,0
175,-545,0,0,0,0,0,0,0,0,0,-1,1399,1569,0,0
182,-545,0,0,0,0,0,0,0,0,0,-1,1406,1569,0,0
189,-545,0,0,0,0,0,0,0,0,0,-1,1413,1569,0,0
196,-545,0,0,0,0,0,0,0,0,0,-1,1420,1569,0,0
203,-545,0,0,0,0,0,0,0,0,0,-1,1427,1569,0,0
210,-545,0,0,0,0,0,0,0,0,0,-1,1434,1569,0,0
217,-545,0,0,0,0,0,0,0,0,0,-1,1441,1569,0,0
224,-545,0,0,0,0,0,0,0,0,0,-1,1448,1569,0,0
231,-545,0,0,0,0,0,0,0,0,0,-1,1455,1569,0,0
238,-545,0,0,0,0,0,0,0,0,0,-1,1462,1569,0,0
245,-545,0,0,0,0,0,0,0,0,0,-1,1469,1569,0,0
252,-545,0,0,0,0,0,0,0,0,0,-1,1476,1569,0,0
259,-545,0,0,0,0,0,0,0,0,0,-1,1483,1569,0,0
266,-545,0,0,0,0,0,0,0,0,0,-1,1490,1569,0,0
273,-545,0,0,0,0,0,0,0,0,0,-1,1497,1569,0,0
280,-545,0,0,0,0,0,0,0,0,0,-1,1504,1569,0,0
287,-545,0,0,0,0,0,0,0,0,0,-1,1511,1569,0,0
294,-545,0,0,0,0,0,0,0,0,0,-1,1518,1569,0,0
301,-545,0,0,0,0,0,0,0,0,0,-1,1525,1569,0,0
308,-545,0,0,0,0,0,0,0,0,0,-1,1532,1569,0,0
315,-545,0,0,0,0,0,0,0,0,0,-1,1539,1569,0,0
322,-545,0,0,0,0,0,0,0,0,0,-1,1546,1569,0,0
329,-545,0,0,0,0,0,0,0,0,0,-1,1553,1569,0,0
336,-545,0,0,0,0,0,0,0,0,0,-1,1560,1569,0,0
343,-545,0,0,0,0,0,0,0,0,0,-1,1567,1569,0,0
350,-545,0,0,0,0,0,0,0,0,0,-1,1574,1569,0,0
357,-545,0,0,0,0,0,0,0,0,0,-1,1581,1569,0,0
364,-545,7.19495,4.88098,0,0,0,0,0,0,0,-1,1588,1569,7.19497,-4.88095
371,-545,7.82324,3.84302,0,0,0,0,0,0,0,-1,1595,1569,7.82324,-3.84307
378,-545,7.65674,5.52673,0,0,0,0,0,0,0,-1,1602,1569,7.6567,-5.52667
385,-545,8.58447,1.16125,0,0,0,0,0,0,0,-1,1609,1569,8.5845,-1.1612
392,-545,12.5654,3.89526,0,0,0,0,0,0,0,-1,1616,1569,12.5655,-3.89532
399,-545,11.5869,5.6333,0,0,0,0,0,0,0,-1,1623,1569,11.5869,-5.63326
406,-545,11.234,6.36414,0,0,0,0,0,0,0,-1,1630,1569,11.234,-6.3641
413,-545,12.1521,13.4817,0,0,0,0,0,0,0,-1,1637,1569,12.1521,-13.4817
420,-545,11.1954,13.6047,0,0,0,0,0,0,0,-1,1644,1569,11.1954,-13.6047
427,-545,9.61072,14.9135,0,0,0,0,0,0,0,-1,1651,1569,9.61076,-14.9134
434,-545,13.1598,23.9921,0,0,0,0,0,0,0,-1,1658,1569,13.1598,-23.992
441,-545,12.2833,22.2238,0,0,0,0,0,0,0,-1,1665,1569,12.2833,-22.2237
448,-545,13.0082,21.941,0,0,0,0,0,0,0,-1,1672,1569,13.0082,-21.941
455,-545,13.733,21.6583,0,0,0,0,0,0,0,-1,1679,1569,13.733,-21.6583
462,-545,12.449,20.7413,0,0,0,0,0,0,0,-1,1686,1569,12.4489,-20.7413
469,-545,12.7837,17.7919,0,0,0,0,0,0,0,-1,1693,1569,12.7837,-17.7919
476,-545,15.7562,24.8708,0,0,0,0,0,0,0,-1,1700,1569,15.7563,-24.8709
483,-545,18.3927,27.8781,0,0,0,0,0,0,0,-1,1707,1569,18.3927,-27.878
490,-545,18.4086,27.2559,0.00684083,0.00937753,-0.00647,0.0147023,0.00151603,-0.882189,0.00933732,0.0295862,1714,1569,18.4086,-27.2558
497,-545,18.4569,26.7363,0.00561268,0.00732647,-0.00501774,0.01156,0.00137919,-0.869968,0.00729052,0.0238466,1721,1569,18.4569,-26.7364
504,-545,18.5271,26.1906,0.00464888,0.00561531,-0.00413827,0.00929848,0.000965714,-0.843518,0.00590347,0.0169212,1728,1569,18.5272,-26.1905
511,-545,18.4821,25.6671,0.0037528,0.00446723,-0.00331065,0.00743988,0.000780151,-0.83914,0.0047214,0.0123238,1735,1569,18.482,-25.6671
518,-545,18.47,25.1432,0.0027673,0.00293409,-0.002241,0.00509325,0.000608142,-0.803996,0.00321204,0.0140715,1742,1569,18.4699,-25.1431
525,-545,18.4287,24.6268,0.00185816,0.00158731,-0.00123205,0.00296221,0.000483262,-0.73066,0.00183505,0.014561,1749,1569,18.4287,-24.6268
532,-545,18.3879,24.1355,0.00105158,8.92082e-05,-0.00014788,0.00107379,6.69973e-05,-0.149082,0.000694603,0.0141732,1756,1569,18.388,-24.1355
539,-545,18.3571,23.6146,0.00039233,-0.00139404,0.000951215,0.000803977,-0.00180569,0.408425,0.00154325,0.0161791,1763,1569,18.357,-23.6146
546,-545,18.3295,23.0554,-0.000267054,-0.00303538,0.00217491,0.000926798,-0.00422923,0.502013,0.00317385,0.0179858,1770,1569,18.3294,-23.0554
553,-545,18.3903,22.5261,-0.000807404,-0.00467448,0.00342676,0.00119368,-0.00667556,0.528541,0.00489701,0.0262186,1777,1569,18.3903,-22.5261
560,-545,18.3982,21.9998,-0.00113372,-0.00617697,0.00456523,0.00156,-0.0088707,0.533074,0.00649654,0.0293922,1784,1569,18.3982,-21.9997
567,-545,18.3882,21.3848,0,0,0,0,0,0,0,-1,1791,1569,18.3882,-21.3848
574,-545,18.3438,20.7966,0,0,0,0,0,0,0,-1,1798,1569,18.3438,-20.7966
581,-545,18.3204,20.275,0,0,0,0,0,0,0,-1,1805,1569,18.3205,-20.2751
588,-545,15.4786,16.7035,0,0,0,0,0,0,0,-1,1812,1569,15.4786,-16.7035
595,-545,10.2859,9.11218,0,0,0,0,0,0,0,-1,1819,1569,10.2858,-9.11215
602,-545,8.82117,6.32214,0,0,0,0,0,0,0,-1,1826,1569,8.82121,-6.32217
609,-545,10.2406,5.22351,0,0,0,0,0,0,0,-1,1833,1569,10.2406,-5.22353
616,-545,11.701,3.93188,0,0,0,0,0,0,0,-1,1840,1569,11.701,-3.93191
623,-545,13.2139,2.32043,0,0,0,0,0,0,0,-1,1847,1569,13.2139,-2.32042
630,-545,0,0,0,0,0,0,0,0,0,-1,1854,1569,0,0
637,-545,0,0,0,0,0,0,0,0,0,-1,1861,1569,0,0
644,-545,0,0,0,0,0,0,0,0,0,-1,1868,1569,0,0
651,-545,0,0,0,0,0,0,0,0,0,-1,1875,1569,0,0
658,-545,0,0,0,0,0,0,0,0,0,-1,1882,1569,0,0
665,-545,0,0,0,0,0,0,0,0,0,-1,1889,1569,0,0
672,-545,0,0,0,0,0,0,0,0,0,-1,1896,1569,0,0
679,-545,0,0,0,0,0,0,0,0,0,-1,1903,1569,0,0
686,-545,0,0,0,0,0,0,0,0,0,-1,1910,1569,0,0
693,-545,0,0,0,0,0,0,0,0,0,-1,1917,1569,0,0
700,-545,0,0,0,0,0,0,0,0,0,-1,1924,1569,0,0
707,-545,0,0,0,0,0,0,0,0,0,-1,1931,1569,0,0
714,-545,0,0,0,0,0,0,0,0,0,-1,1938,1569,0,0
721,-545,0,0,0,0,0,0,0,0,0,-1,1945,1569,0,0
728,-545,0,0,0,0,0,0,0,0,0,-1,1952,1569,0,0
735,-545,0,0,0,0,0,0,0,0,0,-1,1959,1569,0,0
742,-545,0,0,0,0,0,0,0,0,0,-1,1966,1569,0,0
749,-545,0,0,0,0,0,0,0,0,0,-1,1973,1569,0,0
756,-545,0,0,0,0,0,0,0,0,0,-1,1980,1569,0,0
763,-545,0,0,0,0,0,0,0,0,0,-1,1987,1569,0,0
770,-545,0,0,0,0,0,0,0,0,0,-1,1994,1569,0,0
777,-545,0,0,0,0,0,0,0,0,0,-1,2001,1569,0,0
784,-545,0,0,0,0,0,0,0,0,0,-1,2008,1569,0,0
791,-545,0,0,0,0,0,0,0,0,0,-1,2015,1569,0,0
798,-545,0,0,0,0,0,0,0,0,0,-1,2022,1569,0,0
805,-545,0,0,0,0,0,0,0,0,0,-1,2029,1569,0,0
812,-545,0,0,0,0,0,0,0,0,0,-1,2036,1569,0,0
-700,-552,0,0,0,0,0,0,0,0,0,-1,524,1576,0,0
-693,-552,0,0,0,0,0,0,0,0,0,-1,531,1576,0,0
-686,-552,0,0,0,0,0,0,0,0,0,-1,538,1576,0,0
-679,-552,0,0,0,0,0,0,0,0,0,-1,545,1576,0,0
-672,-552,0,0,0,0,0,0,0,0,0,-1,552,1576,0,0
-665,-552,0,0,0,0,0,0,0,0,0,-1,559,1576,0,0
-658,-552,0,0,0,0,0,0,0,0,0,-1,566,1576,0,0
-651,-552,0,0,0,0,0,0,0,0,0,-1,573,1576,0,0
-644,-552,0,0,0,0,0,0,0,0,0,-1,580,1576,0,0
-637,-552,0,0,0,0,0,0,0,0,0,-1,587,1576,0,0
-630,-552,0,0,0,0,0,0,0,0,0,-1,594,1576,0,0
-623,-552,0,0,0,0,0,0,0,0,0,-1,601,1576,0,0
-616,-552,0,0,0,0,0,0,0,0,0,-1,608,1576,0,0
-609,-552,0,0,0,0,0,0,0,0,0,-1,615,1576,0,0
-602,-552,0,0,0,0,0,0,0,0,0,-1,622,1576,0,0
-595,-552,0,0,0,0,0,0,0,0,0,-1,629,1576,0,0
-588,-552,0,0,0,0,0,0,0,0,0,-1,636,1576,0,0
-581,-552,0,0,0,0,0,0,0,0,0,-1,643,1576,0,0
-574,-552,0,0,0,0,0,0,0,0,0,-1,650,1576,0,0
-567,-552,0,0,0,0,0,0,0,0,0,-1,657,1576,0,0
-560,-552,0,0,0,0,0,0,0,0,0,-1,664,1576,0,0
-553,-552,0,0,0,0,0,0,0,0,0,-1,671,1576,0,0
-546,-552,0,0,0,0,0,0,0,0,0,-1,678,1576,0,0
-539,-552,0,0,0,0,0,0,0,0,0,-1,685,1576,0,0
-532,-552,0,0,0,0,0,0,0,0,0,-1,692,1576,0,0
-525,-552,0,0,0,0,0,0,0,0,0,-1,699,1576,0,0
-518,-552,0,0,0,0,0,0,0,0,0,-1,706,1576,0,0
-511,-552,0,0,0,0,0,0,0,0,0,-1,713,1576,0,0
-504,-552,0,0,0,0,0,0,0,0,0,-1,720,1576,0,0
-497,-552,1.51282,3.96924,0,0,0,0,0,0,0,-1,727,1576,1.5128,-3.96924
-490,-552,-3.82312,6.32104,0,0,0,0,0,0,0,-1,734,1576,-3.82314,-6.3211
-483,-552,-3.50586,6.47986,0,0,0,0,0,0,0,-1,741,1576,-3.50587,-6.47983
-476,-552,-1.95129,4.43054,0,0,0,0,0,0,0,-1,748,1576,-1.95128,-4.43054
-469,-552,-1.40491,7.9895,0,0,0,0,0,0,0,-1,755,1576,-1.40491,-7.98947
-462,-552,0.0459595,16.3469,0,0,0,0,0,0,0,-1,762,1576,0.0459611,-16.3469
-455,-552,-1.81445,17.3268,0,0,0,0,0,0,0,-1,769,1576,-1.81448,-17.3268
-448,-552,-1.22601,18.8019,0,0,0,0,0,0,0,-1,776,1576,-1.22602,-18.8019
-441,-552,-1.13696,19.9379,-0.00432454,0.0112425,-7.47581e-06,0.0112425,-0.00432454,-1.57032,0.00927878,0.0455336,783,1576,-1.13695,-19.9379
-434,-552,-1.14886,20.5546,-0.00402594,0.00709349,-0.000898679,0.00716565,-0.0040981,-1.49067,0.00658303,0.0363707,790,1576,-1.14885,-20.5546
-427,-552,-1.37488,20.8333,-0.00318626,0.00486635,-0.0011582,0.00502962,-0.00334953,-1.43075,0.00487001,0.0318682,797,1576,-1.37485,-20.8333
-420,-552,-1.30719,21.4672,-0.00252389,0.00331925,-0.00112093,0.00352691,-0.00273154,-1.38762,0.00362303,0.0222303,804,1576,-1.30719,-21.4671
-413,-552,-1.31482,22.0199,-0.00183055,0.00189766,-0.0006529,0.00200869,-0.00194158,-1.40235,0.0022808,0.017398,811,1576,-1.31483,-22.0199
-406,-552,-1.35376,22.5751,-0.00108349,0.00149676,-0.000152851,0.00150578,-0.00109252,-1.51183,0.00150644,0.0140747,818,1576,-1.35374,-22.575
-399,-552,-1.3858,23.1431,-0.000703545,0.000591401,0.00011956,0.000602347,-0.000714491,1.4795,0.000761195,0.0141321,825,1576,-1.3858,-23.143
-392,-552,-1.43542,23.6982,0.000126695,0.00126825,0.000769669,0.00165569,-0.000260742,1.10445,0.00120019,0.0157001,832,1576,-1.43544,-23.6983
-385,-552,-1.44592,24.2483,0.0012268,0.00209829,0.00140669,0.00313518,0.00018991,0.935596,0.00202978,0.0144988,839,1576,-1.44592,-24.2483
-378,-552,-1.45764,24.7798,0.00233823,0.00281355,0.00198957,0.00457961,0.000572174,0.844843,0.00288135,0.0162804,846,1576,-1.45764,-24.7798
-371,-552,-1.4798,25.3427,0.00335601,0.00345678,0.00241136,0.00581828,0.00099451,0.795844,0.00359352,0.0204924,853,1576,-1.47981,-25.3426
-364,-552,-1.50513,25.8749,0.00439184,0.00426205,0.00284273,0.00717042,0.00148347,0.773986,0.00437053,0.015371,860,1576,-1.50514,-25.8749
-357,-552,-1.49261,26.3835,0.00547981,0.00512963,0.00326874,0.00857815,0.0020313,0.758641,0.00517627,0.0108507,867,1576,-1.4926,-26.3836
-350,-552,-1.48096,26.9602,0.00670599,0.00613022,0.00381405,0.010243,0.0025932,0.74773,0.00614932,0.013696,874,1576,-1.48096,-26.9602
-343,-552,-1.48822,27.4747,0.00794206,0.00723021,0.00451153,0.0121117,0.00306059,0.746033,0.0072722,0.0199711,881,1576,-1.48822,-27.4747
-336,-552,-1.43512,27.8627,0,0,0,0,0,0,0,-1,888,1576,-1.43514,-27.8627
-329,-552,-1.27319,28.4653,0,0,0,0,0,0,0,-1,895,1576,-1.27321,-28.4653
-322,-552,-1.31458,25.5044,0,0,0,0,0,0,0,-1,902,1576,-1.31457,-25.5044
-315,-552,-0.605347,28.994,0,0,0,0,0,0,0,-1,909,1576,-0.605331,-28.9941
-308,-552,-1.01624,30.3169,0,0,0,0,0,0,0,-1,916,1576,-1.01624,-30.3169
-301,-552,1.39453,18.4995,0,0,0,0,0,0,0,-1,923,1576,1.3945,-18.4995
-294,-552,0.842163,13.7863,0,0,0,0,0,0,0,-1,930,1576,0.842149,-13.7863
-287,-552,-0.663757,13.3474,0,0,0,0,0,0,0,-1,937,1576,-0.663744,-13.3474
-280,-552,-5.47241,8.96765,0,0,0,0,0,0,0,-1,944,1576,-5.47239,-8.96766
-273,-552,1.64587,10.6685,0,0,0,0,0,0,0,-1,951,1576,1.6459,-10.6685
-266,-552,-1.32678,8.05688,0,0,0,0,0,0,0,-1,958,1576,-1.32677,-8.05683
-259,-552,-5.54321,8.31213,0,0,0,0,0,0,0,-1,965,1576,-5.54324,-8.31214
-252,-552,-1.93445,7.81543,0,0,0,0,0,0,0,-1,972,1576,-1.93445,-7.81546
-245,-552,-2.53613,6.92212,0,0,0,0,0,0,0,-1,979,1576,-2.53614,-6.92216
-238,-552,-6.5365,2.81885,0,0,0,0,0,0,0,-1,986,1576,-6.53649,-2.8188
-231,-552,-4.32239,4.34583,0,0,0,0,0,0,0,-1,993,1576,-4.32239,-4.34587
-224,-552,0,0,0,0,0,0,0,0,0,-1,1000,1576,0,0
-217,-552,0,0,0,0,0,0,0,0,0,-1,1007,1576,0,0
-210,-552,0,0,0,0,0,0,0,0,0,-1,1014,1576,0,0
-203,-552,0,0,0,0,0,0,0,0,0,-1,1021,1576,0,0
-196,-552,0,0,0,0,0,0,0,0,0,-1,1028,1576,0,0
-189,-552,0,0,0,0,0,0,0,0,0,-1,1035,1576,0,0
-182,-552,0,0,0,0,0,0,0,0,0,-1,1042,1576,0,0
-175,-552,0,0,0,0,0,0,0,0,0,-1,1049,1576,0,0
-168,-552,0,0,0,0,0,0,0,0,0,-1,1056,1576,0,0
-161,-552,0,0,0,0,0,0,0,0,0,-1,1063,1576,0,0
-154,-552,0,0,0,0,0,0,0,0,0,-1,1070,1576,0,0
-147,-552,0,0,0,0,0,0,0,0,0,-1,1077,1576,0,0
-140,-552,0,0,0,0,0,0,0,0,0,-1,1084,1576,0,0
-133,-552,0,0,0,0,0,0,0,0,0,-1,1091,1576,0,0
-126,-552,0,0,0,0,0,0,0,0,0,-1,1098,1576,0,0
-119,-552,0,0,0,0,0,0,0,0,0,-1,1105,1576,0,0
-112,-552,0,0,0,0,0,0,0,0,0,-1,1112,1576,0,0
-105,-552,0,0,0,0,0,0,0,0,0,-1,1119,1576,0,0
-98,-552,0,0,0,0,0,0,0,0,0,-1,1126,1576,0,0
-91,-552,0,0,0,0,0,0,0,0,0,-1,1133,1576,0,0
-84,-552,0,0,0,0,0,0,0,0,0,-1,1140,1576,0,0
-77,-552,0,0,0,0,0,0,0,0,0,-1,1147,1576,0,0
-70,-552,0,0,0,0,0,0,0,0,0,-1,1154,1576,0,0
-63,-552,0,0,0,0,0,0,0,0,0,-1,1161,1576,0,0
-56,-552,0,0,0,0,0,0,0,0,0,-1,1168,1576,0,0
-49,-552,0,0,0,0,0,0,0,0,0,-1,1175,1576,0,0
-42,-552,0,0,0,0,0,0,0,0,0,-1,1182,1576,0,0
-35,-552,0,0,0,0,0,0,0,0,0,-1,1189,1576,0,0
-28,-552,0,0,0,0,0,0,0,0,0,-1,1196,1576,0,0
-21,-552,0,0,0,0,0,0,0,0,0,-1,1203,1576,0,0
-14,-552,0,0,0,0,0,0,0,0,0,-1,1210,1576,0,0
-7,-552,0,0,0,0,0,0,0,0,0,-1,1217,1576,0,0
0,-552,0,0,0,0,0,0,0,0,0,-1,1224,1576,0,0
7,-552,0,0,0,0,0,0,0,0,0,-1,1231,1576,0,0
14,-552,0,0,0,0,0,0,0,0,0,-1,1238,1576,0,0
21,-552,0,0,0,0,0,0,0,0,0,-1,1245,1576,0,0
28,-552,0,0,0,0,0,0,0,0,0,-1,1252,1576,0,0
35,-552,0,0,0,0,0,0,0,0,0,-1,1259,1576,0,0
42,-552,0,0,0,0,0,0,0,0,0,-1,1266,1576,0,0
49,-552,0,0,0,0,0,0,0,0,0,-1,1273,1576,0,0
56,-552,0,0,0,0,0,0,0,0,0,-1,1280,1576,0,0
63,-552,0,0,0,0,0,0,0,0,0,-1,1287,1576,0,0
70,-552,0,0,0,0,0,0,0,0,0,-1,1294,1576,0,0
77,-552,0,0,0,0,0,0,0,0,0,-1,1301,1576,0,0
84,-552,0,0,0,0,0,0,0,0,0,-1,1308,1576,0,0
91,-552,0,0,0,0,0,0,0,0,0,-1,1315,1576,0,0
98,-552,0,0,0,0,0,0,0,0,0,-1,1322,1576,0,0
105,-552,0,0,0,0,0,0,0,0,0,-1,1329,1576,0,0
112,-552,0,0,0,0,0,0,0,0,0,-1,1336,1576,0,0
119,-552,0,0,0,0,0,0,0,0,0,-1,1343,1576,0,0
126,-552,0,0,0,0,0,0,0,0,0,-1,1350,1576,0,0
133,-552,0,0,0,0,0,0,0,0,0,-1,1357,1576,0,0
140,-552,0,0,0,0,0,0,0,0,0,-1,1364,1576,0,0
147,-552,0,0,0,0,0,0,0,0,0,-1,1371,1576,0,0
154,-552,0,0,0,0,0,0,0,0,0,-1,1378,1576,0,0
161,-552,0,0,0,0,0,0,0,0,0,-1,1385,1576,0,0
168,-552,0,0,0,0,0,0,0,0,0,-1,1392,1576,0,0
175,-552,0,0,0,0,0,0,0,0,0,-1,1399,1576,0,0
182,-552,0,0,0,0,0,0,0,0,0,-1,1406,1576,0,0
189,-552,0,0,0,0,0,0,0,0,0,-1,1413,1576,0,0
196,-552,0,0,0,0,0,0,0,0,0,-1,1420,1576,0,0
203,-552,0,0,0,0,0,0,0,0,0,-1,1427,1576,0,0
210,-552,0,0,0,0,0,0,0,0,0,-1,1434,1576,0,0
217,-552,0,0,0,0,0,0,0,0,0,-1,1441,1576,0,0
224,-552,0,0,0,0,0,0,0,0,0,-1,1448,1576,0,0
231,-552,0,0,0,0,0,0,0,0,0,-1,1455,1576,0,0
238,-552,0,0,0,0,0,0,0,0,0,-1,1462,1576,0,0
245,-552,0,0,0,0,0,0,0,0,0,-1,1469,1576,0,0
252,-552,0,0,0,0,0,0,0,0,0,-1,1476,1576,0,0
259,-552,0,0,0,0,0,0,0,0,0,-1,1483,1576,0,0
266,-552,0,0,0,0,0,0,0,0,0,-1,1490,1576,0,0
273,-552,0,0,0,0,0,0,0,0,0,-1,1497,1576,0,0
280,-552,0,0,0,0,0,0,0,0,0,-1,1504,1576,0,0
287,-552,0,0,0,0,0,0,0,0,0,-1,1511,1576,0,0
294,-552,0,0,0,0,0,0,0,0,0,-1,1518,1576,0,0
301,-552,0,0,0,0,0,0,0,0,0,-1,1525,1576,0,0
308,-552,0,0,0,0,0,0,0,0,0,-1,1532,1576,0,0
315,-552,0,0,0,0,0,0,0,0,0,-1,1539,1576,0,0
322,-552,0,0,0,0,0,0,0,0,0,-1,1546,1576,0,0
329,-552,0,0,0,0,0,0,0,0,0,-1,1553,1576,0,0
336,-552,0,0,0,0,0,0,0,0,0,-1,1560,1576,0,0
343,-552,0,0,0,0,0,0,0,0,0,-1,1567,1576,0,0
350,-552,4.97876,4.09888,0,0,0,0,0,0,0,-1,1574,1576,4.97875,-4.09883
357,-552,5.18469,4.10706,0,0,0,0,0,0,0,-1,1581,1576,5.1847,-4.10702
364,-552,5.80872,5.07031,0,0,0,0,0,0,0,-1,1588,1576,5.80874,-5.07037
371,-552,7.10657,5.64783,0,0,0,0,0,0,0,-1,1595,1576,7.10651,-5.64786
378,-552,6.44446,4.91492,0,0,0,0,0,0,0,-1,1602,1576,6.44448,-4.91496
385,-552,12.8276,3.16504,0,0,0,0,0,0,0,-1,1609,1576,12.8276,-3.16503
392,-552,12.1301,4.3363,0,0,0,0,0,0,0,-1,1616,1576,12.1302,-4.33631
399,-552,11.3486,5.6012,0,0,0,0,0,0,0,-1,1623,1576,11.3486,-5.60115
406,-552,10.7863,6.42542,0,0,0,0,0,0,0,-1,1630,1576,10.7863,-6.42536
413,-552,8.39307,10.365,0,0,0,0,0,0,0,-1,1637,1576,8.3931,-10.365
420,-552,10.2306,12.7225,0,0,0,0,0,0,0,-1,1644,1576,10.2305,-12.7226
427,-552,9.73267,14.783,0,0,0,0,0,0,0,-1,1651,1576,9.73269,-14.783
434,-552,12.0377,20.1364,0,0,0,0,0,0,0,-1,1658,1576,12.0377,-20.1364
441,-552,12.4963,21.5277,0,0,0,0,0,0,0,-1,1665,1576,12.4964,-21.5277
448,-552,12.9141,21.5482,0,0,0,0,0,0,0,-1,1672,1576,12.9141,-21.5482
455,-552,13.3318,21.5687,0,0,0,0,0,0,0,-1,1679,1576,13.3317,-21.5687
462,-552,12.745,20.5947,0,0,0,0,0,0,0,-1,1686,1576,12.745,-20.5947
469,-552,17.3148,29.0583,0,0,0,0,0,0,0,-1,1693,1576,17.3148,-29.0583
476,-552,17.839,28.4299,0,0,0,0,0,0,0,-1,1700,1576,17.839,-28.4299
483,-552,18.0283,27.6348,0.00580143,0.0104796,-0.00606458,0.0146405,0.00164046,-0.969454,0.00926207,0.0353595,1707,1576,18.0284,-27.6348
490,-552,18.005,27.1823,0.00542602,0.00768245,-0.00499691,0.0116769,0.00143154,-0.896427,0.00735403,0.0162093,1714,1576,18.005,-27.1822
497,-552,18.1025,26.6951,0.00438118,0.00582742,-0.00380544,0.00897783,0.00123077,-0.87929,0.00562007,0.0252281,1721,1576,18.1026,-26.6951
504,-552,18.0548,26.2097,0.00347475,0.00419805,-0.00297037,0.00682871,0.000844091,-0.845977,0.00429882,0.0264442,1728,1576,18.0548,-26.2098
511,-552,17.9841,25.6702,0.00260172,0.00293517,-0.00211815,0.00489314,0.000643745,-0.824673,0.00307009,0.018514,1735,1576,17.9841,-25.6701
518,-552,17.9701,25.1432,0.00166106,0.00142641,-0.00109743,0.00264742,0.000440049,-0.732145,0.00163809,0.0159128,1742,1576,17.9701,-25.1432
525,-552,17.9199,24.6417,0.000776508,3.2637e-05,-7.38476e-05,0.000783768,2.53767e-05,-0.0980003,0.000514262,0.0157194,1749,1576,17.9199,-24.6417
532,-552,17.9004,24.1489,-1.63016e-05,-0.00157248,0.00107836,0.000535379,-0.00212416,0.472878,0.00162425,0.0149338,1756,1576,17.9004,-24.1489
539,-552,17.8617,23.6301,-0.000717266,-0.0032652,0.00233387,0.000667706,-0.00465017,0.535569,0.00334497,0.0180351,1763,1576,17.8617,-23.6301
546,-552,17.8309,23.1014,-0.00146204,-0.00521671,0.00381032,0.000908322,-0.00758707,0.556505,0.00538641,0.023138,1770,1576,17.831,-23.1015
553,-552,17.8672,22.5494,-0.00213476,-0.00727587,0.00540918,0.00128359,-0.0106942,0.563584,0.00759359,0.026131,1777,1576,17.8671,-22.5495
560,-552,17.8419,22.1101,-0.00266785,-0.00929241,0.00700076,0.00176467,-0.0137249,0.564437,0.00979133,0.0423271,1784,1576,17.8419,-22.1101
567,-552,17.8564,21.3503,0,0,0,0,0,0,0,-1,1791,1576,17.8565,-21.3503
574,-552,12.8835,14.8463,0,0,0,0,0,0,0,-1,1798,1576,12.8836,-14.8463
581,-552,9.74841,9.98645,0,0,0,0,0,0,0,-1,1805,1576,9.74847,-9.9864
588,-552,10.5619,9.34924,0,0,0,0,0,0,0,-1,1812,1576,10.5619,-9.34921
595,-552,5.36194,6.62744,0,0,0,0,0,0,0,-1,1819,1576,5.36193,-6.62742
602,-552,10.6863,4.31616,0,0,0,0,0,0,0,-1,1826,1576,10.6862,-4.31619
609,-552,12.146,3.18286,0,0,0,0,0,0,0,-1,1833,1576,12.1459,-3.18281
616,-552,13.8762,2.08167,0,0,0,0,0,0,0,-1,1840,1576,13.8763,-2.08167
623,-552,0,0,0,0,0,0,0,0,0,-1,1847,1576,0,0
630,-552,0,0,0,0,0,0,0,0,0,-1,1854,1576,0,0
637,-552,0,0,0,0,0,0,0,0,0,-1,1861,1576,0,0
644,-552,0,0,0,0,0,0,0,0,0,-1,1868,1576,0,0
651,-552,0,0,0,0,0,0,0,0,0,-1,1875,1576,0,0
658,-552,0,0,0,0,0,0,0,0,0,-1,1882,1576,0,0
665,-552,0,0,0,0,0,0,0,0,0,-1,1889,1576,0,0
672,-552,0,0,0,0,0,0,0,0,0,-1,1896,1576,0,0
679,-552,0,0,0,0,0,0,0,0,0,-1,1903,1576,0,0
686,-552,0,0,0,0,0,0,0,0,0,-1,1910,1576,0,0
693,-552,0,0,0,0,0,0,0,0,0,-1,1917,1576,0,0
700,-552,0,0,0,0,0,0,0,0,0,-1,1924,1576,0,0
707,-552,0,0,0,0,0,0,0,0,0,-1,1931,1576,0,0
714,-552,0,0,0,0,0,0,0,0,0,-1,1938,1576,0,0
721,-552,0,0,0,0,0,0,0,0,0,-1,1945,1576,0,0
728,-552,0,0,0,0,0,0,0,0,0,-1,1952,1576,0,0
735,-552,0,0,0,0,0,0,0,0,0,-1,1959,1576,0,0
742,-552,0,0,0,0,0,0,0,0,0,-1,1966,1576,0,0
749,-552,0,0,0,0,0,0,0,0,0,-1,1973,1576,0,0
756,-552,0,0,0,0,0,0,0,0,0,-1,1980,1576,0,0
763,-552,0,0,0,0,0,0,0,0,0,-1,1987,1576,0,0
770,-552,0,0,0,0,0,0,0,0,0,-1,1994,1576,0,0
777,-552,0,0,0,0,0,0,0,0,0,-1,2001,1576,0,0
784,-552,0,0,0,0,0,0,0,0,0,-1,2008,1576,0,0
791,-552,0,0,0,0,0,0,0,0,0,-1,2015,1576,0,0
798,-552,0,0,0,0,0,0,0,0,0,-1,2022,1576,0,0
805,-552,0,0,0,0,0,0,0,0,0,-1,2029,1576,0,0
812,-552,0,0,0,0,0,0,0,0,0,-1,2036,1576,0,0
-700,-559,0,0,0,0,0,0,0,0,0,-1,524,1583,0,0
-693,-559,0,0,0,0,0,0,0,0,0,-1,531,1583,0,0
-686,-559,0,0,0,0,0,0,0,0,0,-1,538,1583,0,0
-679,-559,0,0,0,0,0,0,0,0,0,-1,545,1583,0,0
-672,-559,0,0,0,0,0,0,0,0,0,-1,552,1583,0,0
-665,-559,0,0,0,0,0,0,0,0,0,-1,559,1583,0,0
-658,-559,0,0,0,0,0,0,0,0,0,-1,566,1583,0,0
-651,-559,0,0,0,0,0,0,0,0,0,-1,573,1583,0,0
-644,-559,0,0,0,0,0,0,0,0,0,-1,580,1583,0,0
-637,-559,0,0,0,0,0,0,0,0,0,-1,587,1583,0,0
-630,-559,0,0,0,0,0,0,0,0,0,-1,594,1583,0,0
-623,-559,0,0,0,0,0,0,0,0,0,-1,601,1583,0,0
-616,-559,0,0,0,0,0,0,0,0,0,-1,608,1583,0,0
-609,-559,0,0,0,0,0,0,0,0,0,-1,615,1583,0,0
-602,-559,0,0,0,0,0,0,0,0,0,-1,622,1583,0,0
-595,-559,0,0,0,0,0,0,0,0,0,-1,629,1583,0,0
-588,-559,0,0,0,0,0,0,0,0,0,-1,636,1583,0,0
-581,-559,0,0,0,0,0,0,0,0,0,-1,643,1583,0,0
-574,-559,0,0,0,0,0,0,0,0,0,-1,650,1583,0,0
-567,-559,0,0,0,0,0,0,0,0,0,-1,657,1583,0,0
-560,-559,0,0,0,0,0,0,0,0,0,-1,664,1583,0,0
-553,-559,0,0,0,0,0,0,0,0,0,-1,671,1583,0,0
-546,-559,0,0,0,0,0,0,0,0,0,-1,678,1583,0,0
-539,-559,0,0,0,0,0,0,0,0,0,-1,685,1583,0,0
-532,-559,0,0,0,0,0,0,0,0,0,-1,692,1583,0,0
-525,-559,0,0,0,0,0,0,0,0,0,-1,699,1583,0,0
-518,-559,0,0,0,0,0,0,0,0,0,-1,706,1583,0,0
-511,-559,0,0,0,0,0,0,0,0,0,-1,713,1583,0,0
-504,-559,0,0,0,0,0,0,0,0,0,-1,720,1583,0,0
-497,-559,0,0,0,0,0,0,0,0,0,-1,727,1583,0,0
-490,-559,-5.49835,4.47424,0,0,0,0,0,0,0,-1,734,1583,-5.49833,-4.4743
-483,-559,-5.24078,4.74561,0,0,0,0,0,0,0,-1,741,1583,-5.24079,-4.74563
-476,-559,-4.98022,4.99316,0,0,0,0,0,0,0,-1,748,1583,-4.98024,-4.99321
-469,-559,-4.6424,5.38062,0,0,0,0,0,0,0,-1,755,1583,-4.64237,-5.38058
-462,-559,-0.161865,6.49438,0,0,0,0,0,0,0,-1,762,1583,-0.161835,-6.49444
-455,-559,1.08826,7.02527,0,0,0,0,0,0,0,-1,769,1583,1.08823,-7.02529
-448,-559,-1.20264,17.3962,0,0,0,0,0,0,0,-1,776,1583,-1.20264,-17.3963
-441,-559,-0.660706,19.8396,0,0,0,0,0,0,0,-1,783,1583,-0.660713,-19.8396
-434,-559,-0.25177,20.649,-0.00488707,0.00926085,-0.000868113,0.00931391,-0.00494014,-1.50974,0.00835773,0.0465883,790,1583,-0.251768,-20.649
-427,-559,-0.593201,21.0588,-0.00423958,0.00606217,-0.00131463,0.00622728,-0.00440469,-1.44585,0.00616836,0.0425811,797,1583,-0.593178,-21.0588
-420,-559,-0.770386,21.3967,0,0,0,0,0,0,0,-1,804,1583,-0.770409,-21.3968
-413,-559,-0.801025,22.0609,-0.00302965,0.00193417,-0.00105246,0.0021481,-0.00324358,-1.37026,0.00313423,0.0179459,811,1583,-0.801033,-22.0609
-406,-559,-0.837341,22.624,-0.00230896,0.00118538,-0.000625321,0.00129391,-0.00241749,-1.39895,0.00217526,0.0104256,818,1583,-0.837318,-22.6241
-399,-559,-0.848572,23.1755,-0.00202279,-0.000176988,-0.00049813,-5.11378e-05,-0.00214864,-1.32333,0.00141569,0.0134703,825,1583,-0.848568,-23.1755
-392,-559,-0.895874,23.722,-0.00121015,0.00034967,8.67021e-05,0.000354474,-0.00121495,1.51544,0.000950423,0.0167986,832,1583,-0.895847,-23.7221
-385,-559,-0.9245,24.2734,-0.000107626,0.00105936,0.000663017,0.00135908,-0.00040734,1.14624,0.00106805,0.0161955,839,1583,-0.924486,-24.2735
-378,-559,-0.918335,24.8242,0.00104789,0.00168129,0.00124636,0.00265056,7.86179e-05,0.909815,0.00174142,0.0148663,846,1583,-0.918322,-24.8242
-371,-559,-0.942993,25.3917,0.00207003,0.00221904,0.00160288,0.00374915,0.000539928,0.808623,0.00234031,0.0221825,853,1583,-0.942974,-25.3917
-364,-559,-0.96759,25.9126,0.00304135,0.00285363,0.00191676,0.00486655,0.00102844,0.760934,0.00296168,0.0197439,860,1583,-0.967615,-25.9126
-357,-559,-0.97583,26.4229,0.00406213,0.00354948,0.00222305,0.00604359,0.00156802,0.728,0.00362137,0.0122327,867,1583,-0.975812,-26.4229
-350,-559,-0.967834,26.9222,0.00521453,0.0043128,0.00263305,0.00743504,0.00209229,0.700604,0.00442725,0.010225,874,1583,-0.967859,-26.9222
-343,-559,-0.985291,27.4399,0.00638382,0.0052739,0.00324026,0.0091163,0.00254142,0.700585,0.0054323,0.0113644,881,1583,-0.985311,-27.4399
-336,-559,-1.03101,27.9562,0,0,0,0,0,0,0,-1,888,1583,-1.03103,-27.9562
-329,-559,-0.92688,28.7168,0,0,0,0,0,0,0,-1,895,1583,-0.926876,-28.7168
-322,-559,-0.477783,29.6207,0,0,0,0,0,0,0,-1,902,1583,-0.477763,-29.6208
-315,-559,-0.659607,29.1698,0,0,0,0,0,0,0,-1,909,1583,-0.659577,-29.1698
-308,-559,-0.755493,30.4624,0,0,0,0,0,0,0,-1,916,1583,-0.755509,-30.4625
-301,-559,-1.22174,31.0372,0,0,0,0,0,0,0,-1,923,1583,-1.22176,-31.0372
-294,-559,0.945129,18.5165,0,0,0,0,0,0,0,-1,930,1583,0.945117,-18.5165
-287,-559,-0.11792,15.4912,0,0,0,0,0,0,0,-1,937,1583,-0.117939,-15.4912
-280,-559,0.191467,13.5093,0,0,0,0,0,0,0,-1,944,1583,0.191441,-13.5093
-273,-559,2.12836,10.3059,0,0,0,0,0,0,0,-1,951,1583,2.12839,-10.3059
-266,-559,-0.597046,6.68933,0,0,0,0,0,0,0,-1,958,1583,-0.597031,-6.68937
-259,-559,-7.00311,8.62756,0,0,0,0,0,0,0,-1,965,1583,-7.00312,-8.6275
-252,-559,-9.4483,2.87805,0,0,0,0,0,0,0,-1,972,1583,-9.44829,-2.87805
-245,-559,-4.80804,7.1803,0,0,0,0,0,0,0,-1,979,1583,-4.80804,-7.18027
-238,-559,-8.45764,2.54858,0,0,0,0,0,0,0,-1,986,1583,-8.45763,-2.54862
-231,-559,-5.86914,4.34021,0,0,0,0,0,0,0,-1,993,1583,-5.86914,-4.34019
-224,-559,-3.30505,6.22864,0,0,0,0,0,0,0,-1,1000,1583,-3.30505,-6.22859
-217,-559,0,0,0,0,0,0,0,0,0,-1,1007,1583,0,0
-210,-559,0,0,0,0,0,0,0,0,0,-1,1014,1583,0,0
-203,-559,0,0,0,0,0,0,0,0,0,-1,1021,1583,0,0
-196,-559,0,0,0,0,0,0,0,0,0,-1,1028,1583,0,0
-189,-559,0,0,0,0,0,0,0,0,0,-1,1035,1583,0,0
-182,-559,0,0,0,0,0,0,0,0,0,-1,1042,1583,0,0
-175,-559,0,0,0,0,0,0,0,0,0,-1,1049,1583,0,0
-168,-559,0,0,0,0,0,0,0,0,0,-1,1056,1583,0,0
-161,-559,0,0,0,0,0,0,0,0,0,-1,1063,1583,0,0
-154,-559,0,0,0,0,0,0,0,0,0,-1,1070,1583,0,0
-147,-559,0,0,0,0,0,0,0,0,0,-1,1077,1583,0,0
-140,-559,0,0,0,0,0,0,0,0,0,-1,1084,1583,0,0
-133,-559,0,0,0,0,0,0,0,0,0,-1,1091,1583,0,0
-126,-559,0,0,0,0,0,0,0,0,0,-1,1098,1583,0,0
-119,-559,0,0,0,0,0,0,0,0,0,-1,1105,1583,0,0
-112,-559,0,0,0,0,0,0,0,0,0,-1,1112,1583,0,0
-105,-559,0,0,0,0,0,0,0,0,0,-1,1119,1583,0,0
-98,-559,0,0,0,0,0,0,0,0,0,-1,1126,1583,0,0
-91,-559,0,0,0,0,0,0,0,0,0,-1,1133,1583,0,0
-84,-559,0,0,0,0,0,0,0,0,0,-1,1140,1583,0,0
-77,-559,0,0,0,0,0,0,0,0,0,-1,1147,1583,0,0
-70,-559,0,0,0,0,0,0,0,0,0,-1,1154,1583,0,0
-63,-559,0,0,0,0,0,0,0,0,0,-1,1161,1583,0,0
-56,-559,0,0,0,0,0,0,0,0,0,-1,1168,1583,0,0
-49,-559,0,0,0,0,0,0,0,0,0,-1,1175,1583,0,0
-42,-559,0,0,0,0,0,0,0,0,0,-1,1182,1583,0,0
-35,-559,0,0,0,0,0,0,0,0,0,-1,1189,1583,0,0
-28,-559,0,0,0,0,0,0,0,0,0,-1,1196,1583,0,0
-21,-559,0,0,0,0,0,0,0,0,0,-1,1203,1583,0,0
-14,-559,0,0,0,0,0,0,0,0,0,-1,1210,1583,0,0
-7,-559,0,0,0,0,0,0,0,0,0,-1,1217,1583,0,0
0,-559,0,0,0,0,0,0,0,0,0,-1,1224,1583,0,0
7,-559,0,0,0,0,0,0,0,0,0,-1,1231,1583,0,0
14,-559,0,0,0,0,0,0,0,0,0,-1,1238,1583,0,0
21,-559,0,0,0,0,0,0,0,0,0,-1,1245,1583,0,0
28,-559,0,0,0,0,0,0,0,0,0,-1,1252,1583,0,0
35,-559,0,0,0,0,0,0,0,0,0,-1,1259,1583,0,0
42,-559,0,0,0,0,0,0,0,0,0,-1,1266,1583,0,0
49,-559,0,0,0,0,0,0,0,0,0,-1,1273,1583,0,0
56,-559,0,0,0,0,0,0,0,0,0,-1,1280,1583,0,0
63,-559,0,0,0,0,0,0,0,0,0,-1,1287,1583,0,0
70,-559,0,0,0,0,0,0,0,0,0,-1,1294,1583,0,0
77,-559,0,0,0,0,0,0,0,0,0,-1,1301,1583,0,0
84,-559,0,0,0,0,0,0,0,0,0,-1,1308,1583,0,0
91,-559,0,0,0,0,0,0,0,0,0,-1,1315,1583,0,0
98,-559,0,0,0,0,0,0,0,0,0,-1,1322,1583,0,0
105,-559,0,0,0,0,0,0,0,0,0,-1,1329,1583,0,0
112,-559,0,0,0,0,0,0,0,0,0,-1,1336,1583,0,0
119,-559,0,0,0,0,0,0,0,0,0,-1,1343,1583,0,0
126,-559,0,0,0,0,0,0,0,0,0,-1,1350,1583,0,0
133,-559,0,0,0,0,0,0,0,0,0,-1,1357,1583,0,0
140,-559,0,0,0,0,0,0,0,0,0,-1,1364,1583,0,0
147,-559,0,0,0,0,0,0,0,0,0,-1,1371,1583,0,0
154,-559,0,0,0,0,0,0,0,0,0,-1,1378,1583,0,0
161,-559,0,0,0,0,0,0,0,0,0,-1,1385,1583,0,0
168,-559,0,0,0,0,0,0,0,0,0,-1,1392,1583,0,0
175,-559,0,0,0,0,0,0,0,0,0,-1,1399,1583,0,0
182,-559,0,0,0,0,0,0,0,0,0,-1,1406,1583,0,0
189,-559,0,0,0,0,0,0,0,0,0,-1,1413,1583,0,0
196,-559,0,0,0,0,0,0,0,0,0,-1,1420,1583,0,0
203,-559,0,0,0,0,0,0,0,0,0,-1,1427,1583,0,0
210,-559,0,0,0,0,0,0,0,0,0,-1,1434,1583,0,0
217,-559,0,0,0,0,0,0,0,0,0,-1,1441,1583,0,0
224,-559,0,0,0,0,0,0,0,0,0,-1,1448,1583,0,0
231,-559,0,0,0,0,0,0,0,0,0,-1,1455,1583,0,0
238,-559,0,0,0,0,0,0,0,0,0,-1,1462,1583,0,0
245,-559,0,0,0,0,0,0,0,0,0,-1,1469,1583,0,0
252,-559,0,0,0,0,0,0,0,0,0,-1,1476,1583,0,0
259,-559,0,0,0,0,0,0,0,0,0,-1,1483,1583,0,0
266,-559,0,0,0,0,0,0,0,0,0,-1,1490,1583,0,0
273,-559,0,0,0,0,0,0,0,0,0,-1,1497,1583,0,0
280,-559,0,0,0,0,0,0,0,0,0,-1,1504,1583,0,0
287,-559,0,0,0,0,0,0,0,0,0,-1,1511,1583,0,0
294,-559,0,0,0,0,0,0,0,0,0,-1,1518,1583,0,0
301,-559,0,0,0,0,0,0,0,0,0,-1,1525,1583,0,0
308,-559,0,0,0,0,0,0,0,0,0,-1,1532,1583,0,0
315,-559,0,0,0,0,0,0,0,0,0,-1,1539,1583,0,0
322,-559,0,0,0,0,0,0,0,0,0,-1,1546,1583,0,0
329,-559,0,0,0,0,0,0,0,0,0,-1,1553,1583,0,0
336,-559,5.97668,3.09827,0,0,0,0,0,0,0,-1,1560,1583,5.97667,-3.09824
343,-559,5.44824,2.88696,0,0,0,0,0,0,0,-1,1567,1583,5.44819,-2.88693
350,-559,4.69775,3.27051,0,0,0,0,0,0,0,-1,1574,1583,4.69771,-3.27048
357,-559,3.88025,3.60999,0,0,0,0,0,0,0,-1,1581,1583,3.88027,-3.60998
364,-559,5.00928,5.32605,0,0,0,0,0,0,0,-1,1588,1583,5.00928,-5.32607
371,-559,1.84436,2.52441,0,0,0,0,0,0,0,-1,1595,1583,1.84441,-2.52447
378,-559,6.34753,1.53137,0,0,0,0,0,0,0,-1,1602,1583,6.34752,-1.53139
385,-559,6.95911,1.48181,0,0,0,0,0,0,0,-1,1609,1583,6.95916,-1.48175
392,-559,11.6949,4.77734,0,0,0,0,0,0,0,-1,1616,1583,11.6949,-4.77731
399,-559,11.1104,5.56909,0,0,0,0,0,0,0,-1,1623,1583,11.1103,-5.56905
406,-559,10.3385,6.48657,0,0,0,0,0,0,0,-1,1630,1583,10.3385,-6.48661
413,-559,9.76147,6.97571,0,0,0,0,0,0,0,-1,1637,1583,9.76143,-6.97574
420,-559,7.77124,10.5851,0,0,0,0,0,0,0,-1,1644,1583,7.77128,-10.585
427,-559,10.1022,12.5565,0,0,0,0,0,0,0,-1,1651,1583,10.1021,-12.5565
434,-559,9.62769,14.6309,0,0,0,0,0,0,0,-1,1658,1583,9.62771,-14.6309
441,-559,12.6149,21.3678,0,0,0,0,0,0,0,-1,1665,1583,12.6149,-21.3678
448,-559,13.7046,22.6677,0,0,0,0,0,0,0,-1,1672,1583,13.7046,-22.6677
455,-559,13.9427,23.0509,0,0,0,0,0,0,0,-1,1679,1583,13.9427,-23.0509
462,-559,17.2673,29.7983,0,0,0,0,0,0,0,-1,1686,1583,17.2674,-29.7983
469,-559,17.1638,28.9832,0,0,0,0,0,0,0,-1,1693,1583,17.1638,-28.9831
476,-559,17.4351,28.2614,0.00413829,0.0127354,-0.00529518,0.0152572,0.00161655,-1.12634,0.00967771,0.0218825,1700,1583,17.435,-28.2614
483,-559,17.5078,27.6846,0.00455591,0.00865512,-0.00471271,0.0117446,0.0014664,-0.990515,0.00738961,0.013117,1707,1583,17.5078,-27.6846
490,-559,17.5072,27.1854,0.00416892,0.00615056,-0.00382322,0.00910926,0.00121022,-0.912188,0.00571233,0.0152901,1714,1583,17.5072,-27.1854
497,-559,17.5492,26.7168,0.00318624,0.00448358,-0.00279839,0.0067075,0.000962324,-0.899287,0.00418791,0.0192099,1721,1583,17.5491,-26.7168
504,-559,17.5017,26.2235,0.00225711,0.0029268,-0.00194782,0.00456835,0.000615567,-0.87052,0.00286252,0.0245806,1728,1583,17.5017,-26.2235
511,-559,17.4498,25.6912,0.00134518,0.00152776,-0.00100887,0.00244946,0.000423483,-0.830517,0.00151171,0.0216912,1735,1583,17.4499,-25.6911
518,-559,17.4602,25.1744,0.000413623,1.47614e-05,1.54969e-05,0.000414224,1.41602e-05,0.038775,0.000271552,0.0141934,1742,1583,17.4602,-25.1744
525,-559,17.4204,24.6638,-0.000464645,-0.00147315,0.00109953,0.000240742,-0.00217854,0.570403,0.0015389,0.0137351,1749,1583,17.4204,-24.6639
532,-559,17.4087,24.1617,-0.00125202,-0.00323906,0.00236964,0.000323946,-0.00481503,0.586894,0.00332327,0.0142101,1756,1583,17.4087,-24.1617
539,-559,17.3689,23.6556,-0.00199724,-0.00523257,0.00384975,0.000560912,-0.00779072,0.586499,0.00539052,0.0181031,1763,1583,17.3688,-23.6556
546,-559,17.3302,23.1276,-0.0028193,-0.00762018,0.00566919,0.00093671,-0.0113762,0.585133,0.00791486,0.0173987,1770,1583,17.3302,-23.1276
553,-559,17.3899,22.5723,-0.00362669,-0.010275,0.0077401,0.00147287,-0.0153746,0.582572,0.0107743,0.0205268,1777,1583,17.3899,-22.5723
560,-559,17.3473,22.1726,-0.00436964,-0.0130593,0.00995638,0.00214863,-0.0195776,0.579661,0.0138237,0.0380028,1784,1583,17.3473,-22.1726
567,-559,17.2507,21.6248,0,0,0,0,0,0,0,-1,1791,1583,17.2508,-21.6247
574,-559,10.5109,10.7317,0,0,0,0,0,0,0,-1,1798,1583,10.5108,-10.7317
581,-559,5.97095,5.96179,0,0,0,0,0,0,0,-1,1805,1583,5.97093,-5.96181
588,-559,5.79102,5.89954,0,0,0,0,0,0,0,-1,1812,1583,5.79098,-5.89949
595,-559,5.79089,6.24231,0,0,0,0,0,0,0,-1,1819,1583,5.7909,-6.24227
602,-559,12.478,2.35669,0,0,0,0,0,0,0,-1,1826,1583,12.4781,-2.35675
609,-559,14.0479,1.22681,0,0,0,0,0,0,0,-1,1833,1583,14.0479,-1.22681
616,-559,0,0,0,0,0,0,0,0,0,-1,1840,1583,0,0
623,-559,0,0,0,0,0,0,0,0,0,-1,1847,1583,0,0
630,-559,0,0,0,0,0,0,0,0,0,-1,1854,1583,0,0
637,-559,0,0,0,0,0,0,0,0,0,-1,1861,1583,0,0
644,-559,0,0,0,0,0,0,0,0,0,-1,1868,1583,0,0
651,-559,0,0,0,0,0,0,0,0,0,-1,1875,1583,0,0
658,-559,0,0,0,0,0,0,0,0,0,-1,1882,1583,0,0
665,-559,0,0,0,0,0,0,0,0,0,-1,1889,1583,0,0
672,-559,0,0,0,0,0,0,0,0,0,-1,1896,1583,0,0
679,-559,0,0,0,0,0,0,0,0,0,-1,1903,1583,0,0
686,-559,0,0,0,0,0,0,0,0,0,-1,1910,1583,0,0
693,-559,0,0,0,0,0,0,0,0,0,-1,1917,1583,0,0
700,-559,0,0,0,0,0,0,0,0,0,-1,1924,1583,0,0
707,-559,0,0,0,0,0,0,0,0,0,-1,1931,1583,0,0
714,-559,0,0,0,0,0,0,0,0,0,-1,1938,1583,0,0
721,-559,0,0,0,0,0,0,0,0,0,-1,1945,1583,0,0
728,-559,0,0,0,0,0,0,0,0,0,-1,1952,1583,0,0
735,-559,0,0,0,0,0,0,0,0,0,-1,1959,1583,0,0
742,-559,0,0,0,0,0,0,0,0,0,-1,1966,1583,0,0
749,-559,0,0,0,0,0,0,0,0,0,-1,1973,1583,0,0
756,-559,0,0,0,0,0,0,0,0,0,-1,1980,1583,0,0
763,-559,0,0,0,0,0,0,0,0,0,-1,1987,1583,0,0
770,-559,0,0,0,0,0,0,0,0,0,-1,1994,1583,0,0
777,-559,0,0,0,0,0,0,0,0,0,-1,2001,1583,0,0
784,-559,0,0,0,0,0,0,0,0,0,-1,2008,1583,0,0
791,-559,0,0,0,0,0,0,0,0,0,-1,2015,1583,0,0
798,-559,0,0,0,0,0,0,0,0,0,-1,2022,1583,0,0
805,-559,0,0,0,0,0,0,0,0,0,-1,2029,1583,0,0
812,-559,0,0,0,0,0,0,0,0,0,-1,2036,1583,0,0
-700,-566,0,0,0,0,0,0,0,0,0,-1,524,1590,0,0
-693,-566,0,0,0,0,0,0,0,0,0,-1,531,1590,0,0
-686,-566,0,0,0,0,0,0,0,0,0,-1,538,1590,0,0
-679,-566,0,0,0,0,0,0,0,0,0,-1,545,1590,0,0
-672,-566,0,0,0,0,0,0,0,0,0,-1,552,1590,0,0
-665,-566,0,0,0,0,0,0,0,0,0,-1,559,1590,0,0
-658,-566,0,0,0,0,0,0,0,0,0,-1,566,1590,0,0
-651,-566,0,0,0,0,0,0,0,0,0,-1,573,1590,0,0
-644,-566,0,0,0,0,0,0,0,0,0,-1,580,1590,0,0
-637,-566,0,0,0,0,0,0,0,0,0,-1,587,1590,0,0
-630,-566,0,0,0,0,0,0,0,0,0,-1,594,1590,0,0
-623,-566,0,0,0,0,0,0,0,0,0,-1,601,1590,0,0
-616,-566,0,0,0,0,0,0,0,0,0,-1,608,1590,0,0
-609,-566,0,0,0,0,0,0,0,0,0,-1,615,1590,0,0
-602,-566,0,0,0,0,0,0,0,0,0,-1,622,1590,0,0
-595,-566,0,0,0,0,0,0,0,0,0,-1,629,1590,0,0
-588,-566,0,0,0,0,0,0,0,0,0,-1,636,1590,0,0
-581,-566,0,0,0,0,0,0,0,0,0,-1,643,1590,0,0
-574,-566,0,0,0,0,0,0,0,0,0,-1,650,1590,0,0
-567,-566,0,0,0,0,0,0,0,0,0,-1,657,1590,0,0
-560,-566,0,0,0,0,0,0,0,0,0,-1,664,1590,0,0
-553,-566,0,0,0,0,0,0,0,0,0,-1,671,1590,0,0
-546,-566,0,0,0,0,0,0,0,0,0,-1,678,1590,0,0
-539,-566,0,0,0,0,0,0,0,0,0,-1,685,1590,0,0
-532,-566,0,0,0,0,0,0,0,0,0,-1,692,1590,0,0
-525,-566,0,0,0,0,0,0,0,0,0,-1,699,1590,0,0
-518,-566,0,0,0,0,0,0,0,0,0,-1,706,1590,0,0
-511,-566,0,0,0,0,0,0,0,0,0,-1,713,1590,0,0
-504,-566,0,0,0,0,0,0,0,0,0,-1,720,1590,0,0
-497,-566,0,0,0,0,0,0,0,0,0,-1,727,1590,0,0
-490,-566,0,0,0,0,0,0,0,0,0,-1,734,1590,0,0
-483,-566,-7.17084,2.78613,0,0,0,0,0,0,0,-1,741,1590,-7.17083,-2.78618
-476,-566,-7.13971,2.87183,0,0,0,0,0,0,0,-1,748,1590,-7.13971,-2.87184
-469,-566,-6.43829,3.2998,0,0,0,0,0,0,0,-1,755,1590,-6.43829,-3.2998
-462,-566,-0.459106,3.89343,0,0,0,0,0,0,0,-1,762,1590,-0.459095,-3.89341
-455,-566,0.280212,4.74023,0,0,0,0,0,0,0,-1,769,1590,0.280207,-4.74023
-448,-566,0.436951,5.51306,0,0,0,0,0,0,0,-1,776,1590,0.436971,-5.51301
-441,-566,-0.440735,12.4063,0,0,0,0,0,0,0,-1,783,1590,-0.440753,-12.4062
-434,-566,0.415283,20.7571,0,0,0,0,0,0,0,-1,790,1590,0.415277,-20.7571
-427,-566,-0.0164795,21.6674,0,0,0,0,0,0,0,-1,797,1590,-0.016492,-21.6674
-420,-566,-0.388306,21.4097,0,0,0,0,0,0,0,-1,804,1590,-0.388285,-21.4096
-413,-566,-0.286011,22.077,-0.00424698,0.00216016,-0.00125833,0.00239843,-0.00448524,-1.38366,0.00403471,0.0295395,811,1590,-0.285986,-22.077
-406,-566,-0.304688,22.6401,-0.00351024,0.00106647,-0.000891848,0.00123412,-0.00367789,-1.38498,0.00295062,0.0129209,818,1590,-0.304701,-22.6401
-399,-566,-0.32074,23.1855,-0.0032517,-0.000679546,-0.000889339,-0.000401999,-0.00352924,-1.26829,0.00223093,0.0105508,825,1590,-0.320768,-23.1855
-392,-566,-0.351746,23.7335,-0.00240935,-0.000289564,-0.000351828,-0.000232695,-0.00246622,-1.41055,0.00157233,0.0133247,832,1590,-0.351768,-23.7335
-385,-566,-0.357849,24.3132,-0.00129298,0.000306292,0.000179326,0.000326153,-0.00131284,1.46049,0.0010018,0.0154817,839,1590,-0.357872,-24.3132
-378,-566,-0.371826,24.8713,-9.93066e-05,0.000848658,0.000763134,0.00127303,-0.000523674,1.06329,0.00106697,0.0151613,846,1590,-0.371797,-24.8714
-371,-566,-0.429199,25.4036,0.00092039,0.00129877,0.00106689,0.00219311,2.60433e-05,0.873149,0.00145347,0.0209044,853,1590,-0.429208,-25.4036
-364,-566,-0.453674,25.9321,0.00183105,0.00178926,0.00129788,0.00310821,0.000512099,0.777349,0.00192429,0.0214285,860,1590,-0.453692,-25.9321
-357,-566,-0.472473,26.4321,0.00279107,0.00236399,0.00153357,0.00412589,0.00102916,0.716221,0.00247978,0.0178202,867,1590,-0.472448,-26.4321
-350,-566,-0.449951,26.9574,0.00385925,0.00298356,0.00186149,0.0053337,0.00150911,0.669891,0.00317466,0.0204242,874,1590,-0.449948,-26.9574
-343,-566,-0.444458,27.4403,0.0049343,0.00383861,0.00239755,0.0068458,0.00192712,0.673075,0.00407628,0.0249357,881,1590,-0.444446,-27.4403
-336,-566,-0.540344,27.9243,0.00594547,0.00534728,0.00315078,0.00881133,0.00248143,0.738076,0.00524647,0.0279726,888,1590,-0.540372,-27.9243
-329,-566,-0.465759,28.4165,0.00709211,0.00659755,0.00408552,0.0109378,0.00275183,0.755172,0.00656961,0.0255638,895,1590,-0.465745,-28.4165
-322,-566,-0.362122,29.0795,0.00838517,0.00895912,0.00563292,0.0143124,0.00303192,0.810849,0.00870868,0.0341496,902,1590,-0.36214,-29.0795
-315,-566,-0.0334473,29.7676,0,0,0,0,0,0,0,-1,909,1590,-0.0334703,-29.7676
-308,-566,-0.127258,29.7607,0,0,0,0,0,0,0,-1,916,1590,-0.12725,-29.7608
-301,-566,0.424011,30.6545,0,0,0,0,0,0,0,-1,923,1590,0.424036,-30.6546
-294,-566,0.741455,25.3229,0,0,0,0,0,0,0,-1,930,1590,0.741475,-25.3229
-287,-566,1.25391,23.4589,0,0,0,0,0,0,0,-1,937,1590,1.2539,-23.4589
-280,-566,1.59406,17.8762,0,0,0,0,0,0,0,-1,944,1590,1.59405,-17.8762
-273,-566,0.49762,11.2427,0,0,0,0,0,0,0,-1,951,1590,0.497591,-11.2426
-266,-566,0.392151,6.90295,0,0,0,0,0,0,0,-1,958,1590,0.392151,-6.90294
-259,-566,0.343628,6.47437,0,0,0,0,0,0,0,-1,965,1590,0.34363,-6.47438
-252,-566,-7.68311,1.01343,0,0,0,0,0,0,0,-1,972,1590,-7.68308,-1.01348
-245,-566,-11.1835,1.97522,0,0,0,0,0,0,0,-1,979,1590,-11.1835,-1.97527
-238,-566,-10.4883,2.40491,0,0,0,0,0,0,0,-1,986,1590,-10.4883,-2.40487
-231,-566,-7.41827,4.22803,0,0,0,0,0,0,0,-1,993,1590,-7.41827,-4.22803
-224,-566,-4.67188,6.30859,0,0,0,0,0,0,0,-1,1000,1590,-4.67185,-6.30853
-217,-566,-2.82867,7.52527,0,0,0,0,0,0,0,-1,1007,1590,-2.82869,-7.52531
-210,-566,-1.03436,8.67737,0,0,0,0,0,0,0,-1,1014,1590,-1.03439,-8.67733
-203,-566,0,0,0,0,0,0,0,0,0,-1,1021,1590,0,0
-196,-566,0,0,0,0,0,0,0,0,0,-1,1028,1590,0,0
-189,-566,0,0,0,0,0,0,0,0,0,-1,1035,1590,0,0
-182,-566,0,0,0,0,0,0,0,0,0,-1,1042,1590,0,0
-175,-566,0,0,0,0,0,0,0,0,0,-1,1049,1590,0,0
-168,-566,0,0,0,0,0,0,0,0,0,-1,1056,1590,0,0
-161,-566,0,0,0,0,0,0,0,0,0,-1,1063,1590,0,0
-154,-566,0,0,0,0,0,0,0,0,0,-1,1070,1590,0,0
-147,-566,0,0,0,0,0,0,0,0,0,-1,1077,1590,0,0
-140,-566,0,0,0,0,0,0,0,0,0,-1,1084,1590,0,0
-133,-566,0,0,0,0,0,0,0,0,0,-1,1091,1590,0,0
-126,-566,0,0,0,0,0,0,0,0,0,-1,1098,1590,0,0
-119,-566,0,0,0,0,0,0,0,0,0,-1,1105,1590,0,0
-112,-566,0,0,0,0,0,0,0,0,0,-1,1112,1590,0,0
-105,-566,0,0,0,0,0,0,0,0,0,-1,1119,1590,0,0
-98,-566,0,0,0,0,0,0,0,0,0,-1,1126,1590,0,0
-91,-566,0,0,0,0,0,0,0,0,0,-1,1133,1590,0,0
-84,-566,0,0,0,0,0,0,0,0,0,-1,1140,1590,0,0
-77,-566,0,0,0,0,0,0,0,0,0,-1,1147,1590,0,0
-70,-566,0,0,0,0,0,0,0,0,0,-1,1154,1590,0,0
-63,-566,0,0,0,0,0,0,0,0,0,-1,1161,1590,0,0
-56,-566,0,0,0,0,0,0,0,0,0,-1,1168,1590,0,0
-49,-566,0,0,0,0,0,0,0,0,0,-1,1175,1590,0,0
-42,-566,0,0,0,0,0,0,0,0,0,-1,1182,1590,0,0
-35,-566,0,0,0,0,0,0,0,0,0,-1,1189,1590,0,0
-28,-566,0,0,0,0,0,0,0,0,0,-1,1196,1590,0,0
-21,-566,0,0,0,0,0,0,0,0,0,-1,1203,1590,0,0
-14,-566,0,0,0,0,0,0,0,0,0,-1,1210,1590,0,0
-7,-566,0,0,0,0,0,0,0,0,0,-1,1217,1590,0,0
0,-566,0,0,0,0,0,0,0,0,0,-1,1224,1590,0,0
7,-566,0,0,0,0,0,0,0,0,0,-1,1231,1590,0,0
14,-566,0,0,0,0,0,0,0,0,0,-1,1238,1590,0,0
21,-566,0,0,0,0,0,0,0,0,0,-1,1245,1590,0,0
28,-566,0,0,0,0,0,0,0,0,0,-1,1252,1590,0,0
35,-566,0,0,0,0,0,0,0,0,0,-1,1259,1590,0,0
42,-566,0,0,0,0,0,0,0,0,0,-1,1266,1590,0,0
49,-566,0,0,0,0,0,0,0,0,0,-1,1273,1590,0,0
56,-566,0,0,0,0,0,0,0,0,0,-1,1280,1590,0,0
63,-566,0,0,0,0,0,0,0,0,0,-1,1287,1590,0,0
70,-566,0,0,0,0,0,0,0,0,0,-1,1294,1590,0,0
77,-566,0,0,0,0,0,0,0,0,0,-1,1301,1590,0,0
84,-566,0,0,0,0,0,0,0,0,0,-1,1308,1590,0,0
91,-566,0,0,0,0,0,0,0,0,0,-1,1315,1590,0,0
98,-566,0,0,0,0,0,0,0,0,0,-1,1322,1590,0,0
105,-566,0,0,0,0,0,0,0,0,0,-1,1329,1590,0,0
112,-566,0,0,0,0,0,0,0,0,0,-1,1336,1590,0,0
119,-566,0,0,0,0,0,0,0,0,0,-1,1343,1590,0,0
126,-566,0,0,0,0,0,0,0,0,0,-1,1350,1590,0,0
133,-566,0,0,0,0,0,0,0,0,0,-1,1357,1590,0,0
140,-566,0,0,0,0,0,0,0,0,0,-1,1364,1590,0,0
147,-566,0,0,0,0,0,0,0,0,0,-1,1371,1590,0,0
154,-566,0,0,0,0,0,0,0,0,0,-1,1378,1590,0,0
161,-566,0,0,0,0,0,0,0,0,0,-1,1385,1590,0,0
168,-566,0,0,0,0,0,0,0,0,0,-1,1392,1590,0,0
175,-566,0,0,0,0,0,0,0,0,0,-1,1399,1590,0,0
182,-566,0,0,0,0,0,0,0,0,0,-1,1406,1590,0,0
189,-566,0,0,0,0,0,0,0,0,0,-1,1413,1590,0,0
196,-566,0,0,0,0,0,0,0,0,0,-1,1420,1590,0,0
203,-566,0,0,0,0,0,0,0,0,0,-1,1427,1590,0,0
210,-566,0,0,0,0,0,0,0,0,0,-1,1434,1590,0,0
217,-566,0,0,0,0,0,0,0,0,0,-1,1441,1590,0,0
224,-566,0,0,0,0,0,0,0,0,0,-1,1448,1590,0,0
231,-566,0,0,0,0,0,0,0,0,0,-1,1455,1590,0,0
238,-566,0,0,0,0,0,0,0,0,0,-1,1462,1590,0,0
245,-566,0,0,0,0,0,0,0,0,0,-1,1469,1590,0,0
252,-566,0,0,0,0,0,0,0,0,0,-1,1476,1590,0,0
259,-566,0,0,0,0,0,0,0,0,0,-1,1483,1590,0,0
266,-566,0,0,0,0,0,0,0,0,0,-1,1490,1590,0,0
273,-566,0,0,0,0,0,0,0,0,0,-1,1497,1590,0,0
280,-566,0,0,0,0,0,0,0,0,0,-1,1504,1590,0,0
287,-566,0,0,0,0,0,0,0,0,0,-1,1511,1590,0,0
294,-566,0,0,0,0,0,0,0,0,0,-1,1518,1590,0,0
301,-566,0,0,0,0,0,0,0,0,0,-1,1525,1590,0,0
308,-566,0,0,0,0,0,0,0,0,0,-1,1532,1590,0,0
315,-566,0,0,0,0,0,0,0,0,0,-1,1539,1590,0,0
322,-566,6.07983,4.44873,0,0,0,0,0,0,0,-1,1546,1590,6.07983,-4.44873
329,-566,5.77026,3.47534,0,0,0,0,0,0,0,-1,1553,1590,5.77026,-3.47535
336,-566,5.41138,2.62915,0,0,0,0,0,0,0,-1,1560,1590,5.41138,-2.62909
343,-566,4.81873,1.79089,0,0,0,0,0,0,0,-1,1567,1590,4.81878,-1.79095
350,-566,4.41663,2.44214,0,0,0,0,0,0,0,-1,1574,1590,4.41666,-2.44214
357,-566,6.34058,5.18579,0,0,0,0,0,0,0,-1,1581,1590,6.34059,-5.1858
364,-566,6.06262,4.20251,0,0,0,0,0,0,0,-1,1588,1590,6.06259,-4.20246
371,-566,5.78455,3.21912,0,0,0,0,0,0,0,-1,1595,1590,5.7846,-3.21912
378,-566,5.7439,0.695557,0,0,0,0,0,0,0,-1,1602,1590,5.74392,-0.695531
385,-566,5.67615,-0.573975,0,0,0,0,0,0,0,-1,1609,1590,5.67612,0.573956
392,-566,5.78638,1.82434,0,0,0,0,0,0,0,-1,1616,1590,5.78637,-1.82439
399,-566,12.8856,32.293,0,0,0,0,0,0,0,-1,1623,1590,12.8856,-32.293
406,-566,4.30359,5.26868,0,0,0,0,0,0,0,-1,1630,1590,4.30364,-5.26867
413,-566,4.27124,5.79492,0,0,0,0,0,0,0,-1,1637,1590,4.27123,-5.7949
420,-566,18.0121,32.5314,0,0,0,0,0,0,0,-1,1644,1590,18.0121,-32.5313
427,-566,18.3013,32.9268,0,0,0,0,0,0,0,-1,1651,1590,18.3012,-32.9267
434,-566,18.0503,31.8282,0,0,0,0,0,0,0,-1,1658,1590,18.0503,-31.8283
441,-566,15.5841,27.5869,0,0,0,0,0,0,0,-1,1665,1590,15.5842,-27.587
448,-566,17.0679,30.9957,0,0,0,0,0,0,0,-1,1672,1590,17.0679,-30.9957
455,-566,16.734,30.1235,0,0,0,0,0,0,0,-1,1679,1590,16.734,-30.1235
462,-566,16.8268,29.4742,0.0020783,0.0179574,-0.0053715,0.0196037,0.000431947,-1.27339,0.0129276,0.0397816,1686,1590,16.8267,-29.4742
469,-566,16.9393,28.6924,0.00280993,0.0137687,-0.00474734,0.0155392,0.00103942,-1.21383,0.0100309,0.0174439,1693,1590,16.9393,-28.6923
476,-566,16.9963,28.1626,0.00307086,0.0104206,-0.00408288,0.0122388,0.00125258,-1.15182,0.0077754,0.0107085,1700,1590,16.9963,-28.1626
483,-566,16.9948,27.6746,0.00334935,0.00693186,-0.00360896,0.00916965,0.00111156,-1.01575,0.00577833,0.0111515,1707,1590,16.9948,-27.6746
490,-566,16.9733,27.1812,0.00298853,0.00474309,-0.00286308,0.00686028,0.000871337,-0.934063,0.00431252,0.0120945,1714,1590,16.9733,-27.1811
497,-566,17.0087,26.6913,0.00209874,0.0032758,-0.00198852,0.00476105,0.000613488,-0.929273,0.00299059,0.0148755,1721,1590,17.0087,-26.6912
504,-566,16.9742,26.2079,0.00118748,0.00182237,-0.00112844,0.00267717,0.000332678,-0.922512,0.00168487,0.0187138,1728,1590,16.9742,-26.2079
511,-566,16.9379,25.7245,0.000268204,0.000313512,-9.96828e-05,0.000393082,0.000188633,-0.89713,0.000227007,0.0190992,1735,1590,16.9378,-25.7245
518,-566,16.9407,25.2369,-0.000634467,-0.00119746,0.000947485,7.2454e-05,-0.00190438,0.641002,0.00129441,0.0120777,1742,1590,16.9407,-25.2369
525,-566,16.902,24.6991,-0.00151608,-0.00281098,0.00213092,6.35765e-05,-0.00439064,0.637911,0.00294851,0.0123307,1749,1590,16.902,-24.6991
532,-566,16.8898,24.157,-0.00235082,-0.00479569,0.00358783,0.000217107,-0.00736362,0.621208,0.00498302,0.0139675,1756,1590,16.8897,-24.157
539,-566,16.8627,23.6346,-0.00324238,-0.00719391,0.00540246,0.000534265,-0.0109706,0.610095,0.00749814,0.0174985,1763,1590,16.8627,-23.6347
546,-566,16.9185,23.0651,-0.00428539,-0.0101909,0.00772431,0.0010313,-0.0155076,0.602834,0.0106987,0.0198872,1770,1590,16.9184,-23.0651
553,-566,16.9288,22.7235,-0.0053999,-0.013632,0.0104479,0.00171352,-0.0207454,0.597755,0.0144354,0.0324102,1777,1590,16.9288,-22.7235
560,-566,16.6588,22.5129,-0.00665547,-0.0175136,0.0136004,0.00255942,-0.0267285,0.595496,0.0187305,0.0391699,1784,1590,16.6589,-22.5129
567,-566,16.4824,22.1823,0,0,0,0,0,0,0,-1,1791,1590,16.4824,-22.1823
574,-566,7.99548,3.14514,0,0,0,0,0,0,0,-1,1798,1590,7.99543,-3.14511
581,-566,2.54102,5.1311,0,0,0,0,0,0,0,-1,1805,1590,2.54099,-5.13111
588,-566,-1.91321,8.39197,0,0,0,0,0,0,0,-1,1812,1590,-1.91316,-8.39199
595,-566,9.0271,4.66467,0,0,0,0,0,0,0,-1,1819,1590,9.02705,-4.66468
602,-566,9.953,3.54895,0,0,0,0,0,0,0,-1,1826,1590,9.953,-3.54898
609,-566,0,0,0,0,0,0,0,0,0,-1,1833,1590,0,0
616,-566,0,0,0,0,0,0,0,0,0,-1,1840,1590,0,0
623,-566,0,0,0,0,0,0,0,0,0,-1,1847,1590,0,0
630,-566,0,0,0,0,0,0,0,0,0,-1,1854,1590,0,0
637,-566,0,0,0,0,0,0,0,0,0,-1,1861,1590,0,0
644,-566,0,0,0,0,0,0,0,0,0,-1,1868,1590,0,0
651,-566,0,0,0,0,0,0,0,0,0,-1,1875,1590,0,0
658,-566,0,0,0,0,0,0,0,0,0,-1,1882,1590,0,0
665,-566,0,0,0,0,0,0,0,0,0,-1,1889,1590,0,0
672,-566,0,0,0,0,0,0,0,0,0,-1,1896,1590,0,0
679,-566,0,0,0,0,0,0,0,0,0,-1,1903,1590,0,0
686,-566,0,0,0,0,0,0,0,0,0,-1,1910,1590,0,0
693,-566,0,0,0,0,0,0,0,0,0,-1,1917,1590,0,0
700,-566,0,0,0,0,0,0,0,0,0,-1,1924,1590,0,0
707,-566,0,0,0,0,0,0,0,0,0,-1,1931,1590,0,0
714,-566,0,0,0,0,0,0,0,0,0,-1,1938,1590,0,0
721,-566,0,0,0,0,0,0,0,0,0,-1,1945,1590,0,0
728,-566,0,0,0,0,0,0,0,0,0,-1,1952,1590,0,0
735,-566,0,0,0,0,0,0,0,0,0,-1,1959,1590,0,0
742,-566,0,0,0,0,0,0,0,0,0,-1,1966,1590,0,0
749,-566,0,0,0,0,0,0,0,0,0,-1,1973,1590,0,0
756,-566,0,0,0,0,0,0,0,0,0,-1,1980,1590,0,0
763,-566,0,0,0,0,0,0,0,0,0,-1,1987,1590,0,0
770,-566,0,0,0,0,0,0,0,0,0,-1,1994,1590,0,0
777,-566,0,0,0,0,0,0,0,0,0,-1,2001,1590,0,0
784,-566,0,0,0,0,0,0,0,0,0,-1,2008,1590,0,0
791,-566,0,0,0,0,0,0,0,0,0,-1,2015,1590,0,0
798,-566,0,0,0,0,0,0,0,0,0,-1,2022,1590,0,0
805,-566,0,0,0,0,0,0,0,0,0,-1,2029,1590,0,0
812,-566,0,0,0,0,0,0,0,0,0,-1,2036,1590,0,0
-700,-573,0,0,0,0,0,0,0,0,0,-1,524,1597,0,0
-693,-573,0,0,0,0,0,0,0,0,0,-1,531,1597,0,0
-686,-573,0,0,0,0,0,0,0,0,0,-1,538,1597,0,0
-679,-573,0,0,0,0,0,0,0,0,0,-1,545,1597,0,0
-672,-573,0,0,0,0,0,0,0,0,0,-1,552,1597,0,0
-665,-573,0,0,0,0,0,0,0,0,0,-1,559,1597,0,0
-658,-573,0,0,0,0,0,0,0,0,0,-1,566,1597,0,0
-651,-573,0,0,0,0,0,0,0,0,0,-1,573,1597,0,0
-644,-573,0,0,0,0,0,0,0,0,0,-1,580,1597,0,0
-637,-573,0,0,0,0,0,0,0,0,0,-1,587,1597,0,0
-630,-573,0,0,0,0,0,0,0,0,0,-1,594,1597,0,0
-623,-573,0,0,0,0,0,0,0,0,0,-1,601,1597,0,0
-616,-573,0,0,0,0,0,0,0,0,0,-1,608,1597,0,0
-609,-573,0,0,0,0,0,0,0,0,0,-1,615,1597,0,0
-602,-573,0,0,0,0,0,0,0,0,0,-1,622,1597,0,0
-595,-573,0,0,0,0,0,0,0,0,0,-1,629,1597,0,0
-588,-573,0,0,0,0,0,0,0,0,0,-1,636,1597,0,0
-581,-573,0,0,0,0,0,0,0,0,0,-1,643,1597,0,0
-574,-573,0,0,0,0,0,0,0,0,0,-1,650,1597,0,0
-567,-573,0,0,0,0,0,0,0,0,0,-1,657,1597,0,0
-560,-573,0,0,0,0,0,0,0,0,0,-1,664,1597,0,0
-553,-573,0,0,0,0,0,0,0,0,0,-1,671,1597,0,0
-546,-573,0,0,0,0,0,0,0,0,0,-1,678,1597,0,0
-539,-573,0,0,0,0,0,0,0,0,0,-1,685,1597,0,0
-532,-573,0,0,0,0,0,0,0,0,0,-1,692,1597,0,0
-525,-573,0,0,0,0,0,0,0,0,0,-1,699,1597,0,0
-518,-573,0,0,0,0,0,0,0,0,0,-1,706,1597,0,0
-511,-573,0,0,0,0,0,0,0,0,0,-1,713,1597,0,0
-504,-573,0,0,0,0,0,0,0,0,0,-1,720,1597,0,0
-497,-573,0,0,0,0,0,0,0,0,0,-1,727,1597,0,0
-490,-573,0,0,0,0,0,0,0,0,0,-1,734,1597,0,0
-483,-573,0,0,0,0,0,0,0,0,0,-1,741,1597,0,0
-476,-573,-9.3327,0.972778,0,0,0,0,0,0,0,-1,748,1597,-9.33268,-0.972776
-469,-573,-1.41681,1.13379,0,0,0,0,0,0,0,-1,755,1597,-1.41681,-1.13382
-462,-573,-0.748535,2.02588,0,0,0,0,0,0,0,-1,762,1597,-0.748533,-2.02584
-455,-573,-0.112976,2.70703,0,0,0,0,0,0,0,-1,769,1597,-0.112988,-2.70697
-448,-573,-1.26172,3.33252,0,0,0,0,0,0,0,-1,776,1597,-1.26173,-3.33248
-441,-573,0.108582,5.06726,0,0,0,0,0,0,0,-1,783,1597,0.108584,-5.06721
-434,-573,1.61768,7.05444,0,0,0,0,0,0,0,-1,790,1597,1.61767,-7.05446
-427,-573,-0.534973,20.728,0,0,0,0,0,0,0,-1,797,1597,-0.534995,-20.7281
-420,-573,0.768616,20.683,0,0,0,0,0,0,0,-1,804,1597,0.768625,-20.683
-413,-573,0.18866,21.8667,0,0,0,0,0,0,0,-1,811,1597,0.188631,-21.8668
-406,-573,0.231201,22.5763,-0.00479065,0.00122617,-0.000923265,0.00136466,-0.00492914,-1.42191,0.00382305,0.0326567,818,1597,0.231186,-22.5762
-399,-573,0.202332,23.2107,-0.00448532,-0.000862285,-0.001025,-0.000592402,-0.0047552,-1.31334,0.00299228,0.0141948,825,1597,0.202307,-23.2107
-392,-573,0.205505,23.7705,-0.0035553,-0.000621569,-0.000522921,-0.000531148,-0.00364572,-1.39957,0.0022742,0.0120416,832,1597,0.20553,-23.7705
-385,-573,0.184998,24.3218,-0.00239365,-0.000155775,-3.37869e-05,-0.000155265,-0.00239416,-1.5557,0.00154695,0.0142772,839,1597,0.184999,-24.3218
-378,-573,0.166504,24.8652,-0.00115847,0.00029234,0.000523422,0.000461465,-0.00132759,1.25827,0.0010725,0.0155906,846,1597,0.166478,-24.8653
-371,-573,0.129333,25.4071,-0.000143639,0.000640951,0.000754733,0.00109925,-0.000601942,1.02507,0.000996077,0.0160089,853,1597,0.129323,-25.4072
-364,-573,0.0992432,25.9246,0.000721014,0.000983156,0.000892961,0.00175461,-5.04446e-05,0.858269,0.00118692,0.0183356,860,1597,0.0992578,-25.9245
-357,-573,0.0958862,26.452,0.00164041,0.00144127,0.00105724,0.00260276,0.000478919,0.738448,0.00159961,0.0212635,867,1597,0.0959032,-26.452
-350,-573,0.0901489,26.9861,0.00264585,0.00193952,0.00131123,0.00365064,0.000934725,0.65385,0.00218973,0.0164577,874,1597,0.090175,-26.986
-343,-573,0.109497,27.4696,0.00363424,0.0026837,0.00176163,0.00498359,0.00133435,0.653641,0.00297895,0.0208821,881,1597,0.109495,-27.4696
-336,-573,0.0661621,27.998,0.00459202,0.00399585,0.00244021,0.00675229,0.00183558,0.724621,0.00403145,0.0172423,888,1597,0.0661745,-27.998
-329,-573,0.0718994,28.511,0.00565409,0.00522735,0.00329553,0.00874314,0.00213829,0.753071,0.00526284,0.0177932,895,1597,0.0719157,-28.5109
-322,-573,0.09021,29.0621,0.00675817,0.00723004,0.00456846,0.0115686,0.00241956,0.811198,0.00704578,0.0162316,902,1597,0.0902391,-29.0622
-315,-573,0.233276,29.767,0.00798853,0.0102116,0.00620224,0.0154011,0.00279903,0.874065,0.00947327,0.0368866,909,1597,0.233251,-29.767
-308,-573,0.566711,30.5537,0,0,0,0,0,0,0,-1,916,1597,0.566725,-30.5537
-301,-573,0.310791,30.8612,0,0,0,0,0,0,0,-1,923,1597,0.310763,-30.8612
-294,-573,1.00702,24.802,0,0,0,0,0,0,0,-1,930,1597,1.00701,-24.802
-287,-573,1.27222,30.7164,0,0,0,0,0,0,0,-1,937,1597,1.27222,-30.7164
-280,-573,1.19684,26.4906,0,0,0,0,0,0,0,-1,944,1597,1.19685,-26.4906
-273,-573,2.24805,25.4375,0,0,0,0,0,0,0,-1,951,1597,2.24803,-25.4374
-266,-573,1.31116,7.1814,0,0,0,0,0,0,0,-1,958,1597,1.31118,-7.18142
-259,-573,1.2514,6.70959,0,0,0,0,0,0,0,-1,965,1597,1.25137,-6.70965
-252,-573,2.07874,5.27161,0,0,0,0,0,0,0,-1,972,1597,2.07875,-5.27157
-245,-573,-10.2592,1.09827,0,0,0,0,0,0,0,-1,979,1597,-10.2592,-1.09823
-238,-573,-11.5463,4.44141,0,0,0,0,0,0,0,-1,986,1597,-11.5463,-4.44146
-231,-573,-9.23431,4.14539,0,0,0,0,0,0,0,-1,993,1597,-9.23431,-4.14534
-224,-573,-6.70044,7.40857,0,0,0,0,0,0,0,-1,1000,1597,-6.70045,-7.40851
-217,-573,-4.25824,8.59119,0,0,0,0,0,0,0,-1,1007,1597,-4.25824,-8.59122
-210,-573,-2.39661,9.73914,0,0,0,0,0,0,0,-1,1014,1597,-2.39658,-9.73915
-203,-573,-0.557373,10.9005,0,0,0,0,0,0,0,-1,1021,1597,-0.557387,-10.9006
-196,-573,-1.65344,9.02246,0,0,0,0,0,0,0,-1,1028,1597,-1.65349,-9.02241
-189,-573,-6.12915,6.66882,0,0,0,0,0,0,0,-1,1035,1597,-6.12913,-6.66884
-182,-573,0,0,0,0,0,0,0,0,0,-1,1042,1597,0,0
-175,-573,0,0,0,0,0,0,0,0,0,-1,1049,1597,0,0
-168,-573,0,0,0,0,0,0,0,0,0,-1,1056,1597,0,0
-161,-573,0,0,0,0,0,0,0,0,0,-1,1063,1597,0,0
-154,-573,0,0,0,0,0,0,0,0,0,-1,1070,1597,0,0
-147,-573,0,0,0,0,0,0,0,0,0,-1,1077,1597,0,0
-140,-573,0,0,0,0,0,0,0,0,0,-1,1084,1597,0,0
-133,-573,0,0,0,0,0,0,0,0,0,-1,1091,1597,0,0
-126,-573,0,0,0,0,0,0,0,0,0,-1,1098,1597,0,0
-119,-573,0,0,0,0,0,0,0,0,0,-1,1105,1597,0,0
-112,-573,0,0,0,0,0,0,0,0,0,-1,1112,1597,0,0
-105,-573,0,0,0,0,0,0,0,0,0,-1,1119,1597,0,0
-98,-573,0,0,0,0,0,0,0,0,0,-1,1126,1597,0,0
-91,-573,0,0,0,0,0,0,0,0,0,-1,1133,1597,0,0
-84,-573,0,0,0,0,0,0,0,0,0,-1,1140,1597,0,0
-77,-573,0,0,0,0,0,0,0,0,0,-1,1147,1597,0,0
-70,-573,0,0,0,0,0,0,0,0,0,-1,1154,1597,0,0
-63,-573,0,0,0,0,0,0,0,0,0,-1,1161,1597,0,0
-56,-573,0,0,0,0,0,0,0,0,0,-1,1168,1597,0,0
-49,-573,0,0,0,0,0,0,0,0,0,-1,1175,1597,0,0
-42,-573,0,0,0,0,0,0,0,0,0,-1,1182,1597,0,0
-35,-573,0,0,0,0,0,0,0,0,0,-1,1189,1597,0,0
-28,-573,0,0,0,0,0,0,0,0,0,-1,1196,1597,0,0
-21,-573,0,0,0,0,0,0,0,0,0,-1,1203,1597,0,0
-14,-573,0,0,0,0,0,0,0,0,0,-1,1210,1597,0,0
-7,-573,0,0,0,0,0,0,0,0,0,-1,1217,1597,0,0
0,-573,0,0,0,0,0,0,0,0,0,-1,1224,1597,0,0
7,-573,0,0,0,0,0,0,0,0,0,-1,1231,1597,0,0
14,-573,0,0,0,0,0,0,0,0,0,-1,1238,1597,0,0
21,-573,0,0,0,0,0,0,0,0,0,-1,1245,1597,0,0
28,-573,0,0,0,0,0,0,0,0,0,-1,1252,1597,0,0
35,-573,0,0,0,0,0,0,0,0,0,-1,1259,1597,0,0
42,-573,0,0,0,0,0,0,0,0,0,-1,1266,1597,0,0
49,-573,0,0,0,0,0,0,0,0,0,-1,1273,1597,0,0
56,-573,0,0,0,0,0,0,0,0,0,-1,1280,1597,0,0
63,-573,0,0,0,0,0,0,0,0,0,-1,1287,1597,0,0
70,-573,0,0,0,0,0,0,0,0,0,-1,1294,1597,0,0
77,-573,0,0,0,0,0,0,0,0,0,-1,1301,1597,0,0
84,-573,0,0,0,0,0,0,0,0,0,-1,1308,1597,0,0
91,-573,0,0,0,0,0,0,0,0,0,-1,1315,1597,0,0
98,-573,0,0,0,0,0,0,0,0,0,-1,1322,1597,0,0
105,-573,0,0,0,0,0,0,0,0,0,-1,1329,1597,0,0
112,-573,0,0,0,0,0,0,0,0,0,-1,1336,1597,0,0
119,-573,0,0,0,0,0,0,0,0,0,-1,1343,1597,0,0
126,-573,0,0,0,0,0,0,0,0,0,-1,1350,1597,0,0
133,-573,0,0,0,0,0,0,0,0,0,-1,1357,1597,0,0
140,-573,0,0,0,0,0,0,0,0,0,-1,1364,1597,0,0
147,-573,0,0,0,0,0,0,0,0,0,-1,1371,1597,0,0
154,-573,0,0,0,0,0,0,0,0,0,-1,1378,1597,0,0
161,-573,0,0,0,0,0,0,0,0,0,-1,1385,1597,0,0
168,-573,0,0,0,0,0,0,0,0,0,-1,1392,1597,0,0
175,-573,0,0,0,0,0,0,0,0,0,-1,1399,1597,0,0
182,-573,0,0,0,0,0,0,0,0,0,-1,1406,1597,0,0
189,-573,0,0,0,0,0,0,0,0,0,-1,1413,1597,0,0
196,-573,0,0,0,0,0,0,0,0,0,-1,1420,1597,0,0
203,-573,0,0,0,0,0,0,0,0,0,-1,1427,1597,0,0
210,-573,0,0,0,0,0,0,0,0,0,-1,1434,1597,0,0
217,-573,0,0,0,0,0,0,0,0,0,-1,1441,1597,0,0
224,-573,0,0,0,0,0,0,0,0,0,-1,1448,1597,0,0
231,-573,0,0,0,0,0,0,0,0,0,-1,1455,1597,0,0
238,-573,0,0,0,0,0,0,0,0,0,-1,1462,1597,0,0
245,-573,0,0,0,0,0,0,0,0,0,-1,1469,1597,0,0
252,-573,0,0,0,0,0,0,0,0,0,-1,1476,1597,0,0
259,-573,0,0,0,0,0,0,0,0,0,-1,1483,1597,0,0
266,-573,0,0,0,0,0,0,0,0,0,-1,1490,1597,0,0
273,-573,0,0,0,0,0,0,0,0,0,-1,1497,1597,0,0
280,-573,0,0,0,0,0,0,0,0,0,-1,1504,1597,0,0
287,-573,0,0,0,0,0,0,0,0,0,-1,1511,1597,0,0
294,-573,0,0,0,0,0,0,0,0,0,-1,1518,1597,0,0
301,-573,0,0,0,0,0,0,0,0,0,-1,1525,1597,0,0
308,-573,5.93042,9.71143,0,0,0,0,0,0,0,-1,1532,1597,5.93046,-9.71144
315,-573,4.34204,11.719,0,0,0,0,0,0,0,-1,1539,1597,4.34205,-11.719
322,-573,10.3269,7.77563,0,0,0,0,0,0,0,-1,1546,1597,10.327,-7.77565
329,-573,4.99573,3.80273,0,0,0,0,0,0,0,-1,1553,1597,4.9957,-3.80273
336,-573,4.85693,2.53455,0,0,0,0,0,0,0,-1,1560,1597,4.8569,-2.53459
343,-573,5.5946,2.15894,0,0,0,0,0,0,0,-1,1567,1597,5.59456,-2.1589
350,-573,2.53748,1.56433,0,0,0,0,0,0,0,-1,1574,1597,2.53753,-1.5643
357,-573,7.40247,4.03613,0,0,0,0,0,0,0,-1,1581,1597,7.40244,-4.03614
364,-573,7.14551,3.02087,0,0,0,0,0,0,0,-1,1588,1597,7.14556,-3.02084
371,-573,6.88867,2.00549,0,0,0,0,0,0,0,-1,1595,1597,6.88868,-2.00553
378,-573,8.62012,6.09106,0,0,0,0,0,0,0,-1,1602,1597,8.62012,-6.09103
385,-573,6.54346,-0.951904,0,0,0,0,0,0,0,-1,1609,1597,6.54349,0.951901
392,-573,14.558,33.3009,0,0,0,0,0,0,0,-1,1616,1597,14.558,-33.3009
399,-573,13.819,32.2833,0,0,0,0,0,0,0,-1,1623,1597,13.8189,-32.2833
406,-573,13.7181,31.6494,0,0,0,0,0,0,0,-1,1630,1597,13.7182,-31.6494
413,-573,18.2855,33.5858,0,0,0,0,0,0,0,-1,1637,1597,18.2855,-33.5858
420,-573,17.8607,32.8143,0,0,0,0,0,0,0,-1,1644,1597,17.8608,-32.8143
427,-573,17.4708,32.4204,-0.00624034,0.0371327,-0.00526315,0.0377622,-0.00686986,-1.45175,0.0277497,0.0452223,1651,1597,17.4708,-32.4204
434,-573,17.1632,31.5588,-0.0046011,0.0317715,-0.00491343,0.0324236,-0.00525315,-1.43886,0.0235628,0.0468784,1658,1597,17.1632,-31.5589
441,-573,16.3185,31.1603,0,0,0,0,0,0,0,-1,1665,1597,16.3185,-31.1603
448,-573,16.4498,30.4709,-0.000706099,0.0221896,-0.00464161,0.0230948,-0.0016113,-1.3782,0.0159608,0.0464937,1672,1597,16.4498,-30.471
455,-573,16.4514,29.8038,0.00050635,0.0179801,-0.00442301,0.0190358,-0.000549425,-1.33648,0.0128776,0.0340029,1679,1597,16.4514,-29.8039
462,-573,16.5164,29.1134,0.00142705,0.0143069,-0.00410398,0.0155035,0.000230535,-1.28711,0.0102597,0.0210791,1686,1597,16.5163,-29.1135
469,-573,16.5298,28.6346,0.0019531,0.0109541,-0.0036247,0.0122323,0.000674942,-1.23178,0.00793943,0.0148807,1693,1597,16.5298,-28.6347
476,-573,16.5474,28.1761,0.0020645,0.00822846,-0.00305761,0.00948786,0.000805102,-1.18008,0.00607468,0.0142839,1700,1597,16.5473,-28.1761
483,-573,16.532,27.6954,0.00219126,0.00529699,-0.00266278,0.00682662,0.000661632,-1.04938,0.00434735,0.0126431,1707,1597,16.532,-27.6954
490,-573,16.4891,27.1846,0.00181481,0.00341065,-0.00202483,0.00478911,0.000436349,-0.973089,0.00305769,0.0132547,1714,1597,16.4891,-27.1845
497,-573,16.5049,26.6738,0.000986146,0.00212768,-0.00128083,0.00295916,0.000154663,-0.995001,0.00192329,0.0201924,1721,1597,16.5048,-26.6738
504,-573,16.4741,26.1927,8.37941e-05,0.000798032,-0.000421695,0.000993507,-0.000111681,-1.13673,0.000702531,0.0174127,1728,1597,16.4741,-26.1927
511,-573,16.4602,25.6943,-0.000845625,-0.000789,0.000683187,-0.000133539,-0.00150109,0.806107,0.000959314,0.017885,1735,1597,16.4602,-25.6944
518,-573,16.4243,25.2285,-0.00171799,-0.00227971,0.00175423,-0.000222278,-0.00377543,0.70602,0.00244623,0.0141245,1742,1597,16.4243,-25.2285
525,-573,16.3904,24.7355,-0.00260009,-0.0040314,0.00305807,-0.000175055,-0.00645644,0.670456,0.00424714,0.0171537,1749,1597,16.3904,-24.7355
532,-573,16.4044,24.2047,-0.00347826,-0.00626904,0.00474893,7.60434e-05,-0.00982335,0.642504,0.00657439,0.0158326,1756,1597,16.4044,-24.2047
539,-573,16.3644,23.6896,-0.00450311,-0.00915986,0.00697395,0.00052088,-0.0141838,0.624282,0.00963422,0.0220907,1763,1597,16.3644,-23.6895
546,-573,16.4612,23.201,-0.00573673,-0.0128974,0.00988456,0.00119596,-0.01983,0.611642,0.0136362,0.0374955,1770,1597,16.4611,-23.2011
553,-573,16.0295,23.0339,-0.00716165,-0.017373,0.0134397,0.0021095,-0.0266442,0.60387,0.0185061,0.0463861,1777,1597,16.0295,-23.034
560,-573,15.92,23.1099,-0.00897155,-0.0227771,0.0178256,0.00324111,-0.0349898,0.600669,0.0244785,0.0460372,1784,1597,15.92,-23.1099
567,-573,15.8738,23.1705,0,0,0,0,0,0,0,-1,1791,1597,15.8738,-23.1706
574,-573,0.83374,5.7041,0,0,0,0,0,0,0,-1,1798,1597,0.833718,-5.70405
581,-573,-0.224854,7.41602,0,0,0,0,0,0,0,-1,1805,1597,-0.224904,-7.41596
588,-573,-0.134033,7.67065,0,0,0,0,0,0,0,-1,1812,1597,-0.134037,-7.67063
595,-573,-0.0825195,8.35083,0,0,0,0,0,0,0,-1,1819,1597,-0.0824684,-8.35088
602,-573,0,0,0,0,0,0,0,0,0,-1,1826,1597,0,0
609,-573,0,0,0,0,0,0,0,0,0,-1,1833,1597,0,0
616,-573,0,0,0,0,0,0,0,0,0,-1,1840,1597,0,0
623,-573,0,0,0,0,0,0,0,0,0,-1,1847,1597,0,0
630,-573,0,0,0,0,0,0,0,0,0,-1,1854,1597,0,0
637,-573,0,0,0,0,0,0,0,0,0,-1,1861,1597,0,0
644,-573,0,0,0,0,0,0,0,0,0,-1,1868,1597,0,0
651,-573,0,0,0,0,0,0,0,0,0,-1,1875,1597,0,0
658,-573,0,0,0,0,0,0,0,0,0,-1,1882,1597,0,0
665,-573,0,0,0,0,0,0,0,0,0,-1,1889,1597,0,0
672,-573,0,0,0,0,0,0,0,0,0,-1,1896,1597,0,0
679,-573,0,0,0,0,0,0,0,0,0,-1,1903,1597,0,0
686,-573,0,0,0,0,0,0,0,0,0,-1,1910,1597,0,0
693,-573,0,0,0,0,0,0,0,0,0,-1,1917,1597,0,0
700,-573,0,0,0,0,0,0,0,0,0,-1,1924,1597,0,0
707,-573,0,0,0,0,0,0,0,0,0,-1,1931,1597,0,0
714,-573,0,0,0,0,0,0,0,0,0,-1,1938,1597,0,0
721,-573,0,0,0,0,0,0,0,0,0,-1,1945,1597,0,0
728,-573,0,0,0,0,0,0,0,0,0,-1,1952,1597,0,0
735,-573,0,0,0,0,0,0,0,0,0,-1,1959,1597,0,0
742,-573,0,0,0,0,0,0,0,0,0,-1,1966,1597,0,0
749,-573,0,0,0,0,0,0,0,0,0,-1,1973,1597,0,0
756,-573,0,0,0,0,0,0,0,0,0,-1,1980,1597,0,0
763,-573,0,0,0,0,0,0,0,0,0,-1,1987,1597,0,0
770,-573,0,0,0,0,0,0,0,0,0,-1,1994,1597,0,0
777,-573,0,0,0,0,0,0,0,0,0,-1,2001,1597,0,0
784,-573,0,0,0,0,0,0,0,0,0,-1,2008,1597,0,0
791,-573,0,0,0,0,0,0,0,0,0,-1,2015,1597,0,0
798,-573,0,0,0,0,0,0,0,0,0,-1,2022,1597,0,0
805,-573,0,0,0,0,0,0,0,0,0,-1,2029,1597,0,0
812,-573,0,0,0,0,0,0,0,0,0,-1,2036,1597,0,0
-700,-580,0,0,0,0,0,0,0,0,0,-1,524,1604,0,0
-693,-580,0,0,0,0,0,0,0,0,0,-1,531,1604,0,0
-686,-580,0,0,0,0,0,0,0,0,0,-1,538,1604,0,0
-679,-580,0,0,0,0,0,0,0,0,0,-1,545,1604,0,0
-672,-580,0,0,0,0,0,0,0,0,0,-1,552,1604,0,0
-665,-580,0,0,0,0,0,0,0,0,0,-1,559,1604,0,0
-658,-580,0,0,0,0,0,0,0,0,0,-1,566,1604,0,0
-651,-580,0,0,0,0,0,0,0,0,0,-1,573,1604,0,0
-644,-580,0,0,0,0,0,0,0,0,0,-1,580,1604,0,0
-637,-580,0,0,0,0,0,0,0,0,0,-1,587,1604,0,0
-630,-580,0,0,0,0,0,0,0,0,0,-1,594,1604,0,0
-623,-580,0,0,0,0,0,0,0,0,0,-1,601,1604,0,0
-616,-580,0,0,0,0,0,0,0,0,0,-1,608,1604,0,0
-609,-580,0,0,0,0,0,0,0,0,0,-1,615,1604,0,0
-602,-580,0,0,0,0,0,0,0,0,0,-1,622,1604,0,0
-595,-580,0,0,0,0,0,0,0,0,0,-1,629,1604,0,0
-588,-580,0,0,0,0,0,0,0,0,0,-1,636,1604,0,0
-581,-580,0,0,0,0,0,0,0,0,0,-1,643,1604,0,0
-574,-580,0,0,0,0,0,0,0,0,0,-1,650,1604,0,0
-567,-580,0,0,0,0,0,0,0,0,0,-1,657,1604,0,0
-560,-580,0,0,0,0,0,0,0,0,0,-1,664,1604,0,0
-553,-580,0,0,0,0,0,0,0,0,0,-1,671,1604,0,0
-546,-580,0,0,0,0,0,0,0,0,0,-1,678,1604,0,0
-539,-580,0,0,0,0,0,0,0,0,0,-1,685,1604,0,0
-532,-580,0,0,0,0,0,0,0,0,0,-1,692,1604,0,0
-525,-580,0,0,0,0,0,0,0,0,0,-1,699,1604,0,0
-518,-580,0,0,0,0,0,0,0,0,0,-1,706,1604,0,0
-511,-580,0,0,0,0,0,0,0,0,0,-1,713,1604,0,0
-504,-580,0,0,0,0,0,0,0,0,0,-1,720,1604,0,0
-497,-580,0,0,0,0,0,0,0,0,0,-1,727,1604,0,0
-490,-580,0,0,0,0,0,0,0,0,0,-1,734,1604,0,0
-483,-580,0,0,0,0,0,0,0,0,0,-1,741,1604,0,0
-476,-580,0,0,0,0,0,0,0,0,0,-1,748,1604,0,0
-469,-580,-1.69189,-0.38916,0,0,0,0,0,0,0,-1,755,1604,-1.69192,0.389188
-462,-580,-0.859863,0.675293,0,0,0,0,0,0,0,-1,762,1604,-0.859834,-0.675245
-455,-580,-0.730164,0.651978,0,0,0,0,0,0,0,-1,769,1604,-0.730153,-0.651957
-448,-580,-3.31891,2.07544,0,0,0,0,0,0,0,-1,776,1604,-3.3189,-2.07539
-441,-580,-1.63843,3.9469,0,0,0,0,0,0,0,-1,783,1604,-1.63842,-3.94695
-434,-580,0.23291,5.97876,0,0,0,0,0,0,0,-1,790,1604,0.232901,-5.97878
-427,-580,1.62756,8.05493,0,0,0,0,0,0,0,-1,797,1604,1.62758,-8.05488
-420,-580,0.986572,11.2383,0,0,0,0,0,0,0,-1,804,1604,0.986544,-11.2382
-413,-580,0.922913,21.5701,0,0,0,0,0,0,0,-1,811,1604,0.922905,-21.5701
-406,-580,0.73291,22.5492,0,0,0,0,0,0,0,-1,818,1604,0.732927,-22.5492
-399,-580,0.742615,23.2456,-0.00594588,-0.000911847,-0.00117197,-0.000652374,-0.00620535,-1.35291,0.0039375,0.0360901,825,1604,0.742637,-23.2456
-392,-580,0.732605,23.7983,-0.00479311,-0.000724406,-0.000673571,-0.000615796,-0.00490172,-1.41093,0.00308311,0.0169619,832,1604,0.732634,-23.7983
-385,-580,0.713257,24.3527,-0.00349501,-0.000322526,-0.000152605,-0.000315202,-0.00350233,-1.52284,0.00223723,0.0116768,839,1604,0.713271,-24.3526
-378,-580,0.677185,24.9063,-0.00216954,7.83846e-05,0.0004084,0.000150283,-0.00224144,1.39653,0.00154682,0.014549,846,1604,0.677184,-24.9063
-371,-580,0.654053,25.4458,-0.00113274,0.000353561,0.00058597,0.000556789,-0.00133597,1.23695,0.00112323,0.0136645,853,1604,0.654061,-25.4458
-364,-580,0.646545,25.9489,-0.000287703,0.000561674,0.000645933,0.000910025,-0.000636054,1.07621,0.000897288,0.019398,860,1604,0.646548,-25.9488
-357,-580,0.650574,26.4359,0.000607909,0.000897239,0.000753981,0.00152031,-1.51597e-05,0.880181,0.00101863,0.013274,867,1604,0.650577,-26.436
-350,-580,0.621704,26.9995,0.00155673,0.00126651,0.000947322,0.00236999,0.000453251,0.709399,0.00145268,0.010147,874,1604,0.621687,-26.9995
-343,-580,0.619568,27.5146,0.00246469,0.00187268,0.0013222,0.00352361,0.000813761,0.675279,0.00213027,0.0113633,881,1604,0.619562,-27.5147
-336,-580,0.623413,27.9802,0.00335777,0.00293036,0.00190951,0.00506549,0.00122264,0.729672,0.0030522,0.0194449,888,1604,0.623391,-27.9802
-329,-580,0.605469,28.5151,0.00430721,0.00402588,0.00264729,0.00681757,0.00151552,0.758855,0.00413354,0.0177982,895,1604,0.605461,-28.5152
-322,-580,0.607056,29.0581,0.00524802,0.0056825,0.00370229,0.00917392,0.0017566,0.814703,0.00562263,0.0210672,902,1604,0.60705,-29.0581
-315,-580,0.638123,29.5726,0.00626207,0.00818898,0.00506371,0.0123801,0.00207098,0.879408,0.00765699,0.0221729,909,1604,0.638094,-29.5726
-308,-580,0.67157,30.1927,0.00728202,0.0108165,0.00663823,0.0159187,0.00217981,0.91549,0.00996564,0.0321322,916,1604,0.671591,-30.1927
-301,-580,0.747009,30.597,0.00848607,0.0138592,0.00860286,0.0201852,0.00216003,0.936743,0.0127977,0.03008,923,1604,0.747038,-30.5971
-294,-580,0.720703,31.1198,0,0,0,0,0,0,0,-1,930,1604,0.720677,-31.1198
-287,-580,0.834473,32.5167,0,0,0,0,0,0,0,-1,937,1604,0.834477,-32.5167
-280,-580,1.71606,31.5383,0,0,0,0,0,0,0,-1,944,1604,1.71604,-31.5383
-273,-580,1.39575,28.6672,0,0,0,0,0,0,0,-1,951,1604,1.39577,-28.6672
-266,-580,1.71777,25.6515,0,0,0,0,0,0,0,-1,958,1604,1.71775,-25.6515
-259,-580,1.31091,9.11536,0,0,0,0,0,0,0,-1,965,1604,1.31092,-9.11539
-252,-580,1.07629,7.74097,0,0,0,0,0,0,0,-1,972,1604,1.07627,-7.74101
-245,-580,3.80304,9.16028,0,0,0,0,0,0,0,-1,979,1604,3.80306,-9.16034
-238,-580,-10.3588,1.57556,0,0,0,0,0,0,0,-1,986,1604,-10.3588,-1.5755
-231,-580,-10.576,6.43787,0,0,0,0,0,0,0,-1,993,1604,-10.576,-6.43783
-224,-580,-8.27435,7.58972,0,0,0,0,0,0,0,-1,1000,1604,-8.27435,-7.5897
-217,-580,-5.85632,9.51221,0,0,0,0,0,0,0,-1,1007,1604,-5.85632,-9.5122
-210,-580,-3.6684,11.1569,0,0,0,0,0,0,0,-1,1014,1604,-3.66839,-11.1569
-203,-580,-1.92474,12.7845,0,0,0,0,0,0,0,-1,1021,1604,-1.92477,-12.7845
-196,-580,-2.28552,10.3289,0,0,0,0,0,0,0,-1,1028,1604,-2.28552,-10.3288
-189,-580,-4.58252,7.59058,0,0,0,0,0,0,0,-1,1035,1604,-4.58256,-7.59057
-182,-580,-5.45874,7.65942,0,0,0,0,0,0,0,-1,1042,1604,-5.45876,-7.65939
-175,-580,-6.38977,7.55005,0,0,0,0,0,0,0,-1,1049,1604,-6.38981,-7.5501
-168,-580,0,0,0,0,0,0,0,0,0,-1,1056,1604,0,0
-161,-580,0,0,0,0,0,0,0,0,0,-1,1063,1604,0,0
-154,-580,0,0,0,0,0,0,0,0,0,-1,1070,1604,0,0
-147,-580,0,0,0,0,0,0,0,0,0,-1,1077,1604,0,0
-140,-580,0,0,0,0,0,0,0,0,0,-1,1084,1604,0,0
-133,-580,0,0,0,0,0,0,0,0,0,-1,1091,1604,0,0
-126,-580,0,0,0,0,0,0,0,0,0,-1,1098,1604,0,0
-119,-580,0,0,0,0,0,0,0,0,0,-1,1105,1604,0,0
-112,-580,0,0,0,0,0,0,0,0,0,-1,1112,1604,0,0
-105,-580,0,0,0,0,0,0,0,0,0,-1,1119,1604,0,0
-98,-580,0,0,0,0,0,0,0,0,0,-1,1126,1604,0,0
-91,-580,0,0,0,0,0,0,0,0,0,-1,1133,1604,0,0
-84,-580,0,0,0,0,0,0,0,0,0,-1,1140,1604,0,0
-77,-580,0,0,0,0,0,0,0,0,0,-1,1147,1604,0,0
-70,-580,0,0,0,0,0,0,0,0,0,-1,1154,1604,0,0
-63,-580,0,0,0,0,0,0,0,0,0,-1,1161,1604,0,0
-56,-580,0,0,0,0,0,0,0,0,0,-1,1168,1604,0,0
-49,-580,0,0,0,0,0,0,0,0,0,-1,1175,1604,0,0
-42,-580,0,0,0,0,0,0,0,0,0,-1,1182,1604,0,0
-35,-580,0,0,0,0,0,0,0,0,0,-1,1189,1604,0,0
-28,-580,0,0,0,0,0,0,0,0,0,-1,1196,1604,0,0
-21,-580,0,0,0,0,0,0,0,0,0,-1,1203,1604,0,0
-14,-580,0,0,0,0,0,0,0,0,0,-1,1210,1604,0,0
-7,-580,0,0,0,0,0,0,0,0,0,-1,1217,1604,0,0
0,-580,0,0,0,0,0,0,0,0,0,-1,1224,1604,0,0
7,-580,0,0,0,0,0,0,0,0,0,-1,1231,1604,0,0
14,-580,0,0,0,0,0,0,0,0,0,-1,1238,1604,0,0
21,-580,0,0,0,0,0,0,0,0,0,-1,1245,1604,0,0
28,-580,0,0,0,0,0,0,0,0,0,-1,1252,1604,0,0
35,-580,0,0,0,0,0,0,0,0,0,-1,1259,1604,0,0
42,-580,0,0,0,0,0,0,0,0,0,-1,1266,1604,0,0
49,-580,0,0,0,0,0,0,0,0,0,-1,1273,1604,0,0
56,-580,0,0,0,0,0,0,0,0,0,-1,1280,1604,0,0
63,-580,0,0,0,0,0,0,0,0,0,-1,1287,1604,0,0
70,-580,0,0,0,0,0,0,0,0,0,-1,1294,1604,0,0
77,-580,0,0,0,0,0,0,0,0,0,-1,1301,1604,0,0
84,-580,0,0,0,0,0,0,0,0,0,-1,1308,1604,0,0
91,-580,0,0,0,0,0,0,0,0,0,-1,1315,1604,0,0
98,-580,0,0,0,0,0,0,0,0,0,-1,1322,1604,0,0
105,-580,0,0,0,0,0,0,0,0,0,-1,1329,1604,0,0
112,-580,0,0,0,0,0,0,0,0,0,-1,1336,1604,0,0
119,-580,0,0,0,0,0,0,0,0,0,-1,1343,1604,0,0
126,-580,0,0,0,0,0,0,0,0,0,-1,1350,1604,0,0
133,-580,0,0,0,0,0,0,0,0,0,-1,1357,1604,0,0
140,-580,0,0,0,0,0,0,0,0,0,-1,1364,1604,0,0
147,-580,0,0,0,0,0,0,0,0,0,-1,1371,1604,0,0
154,-580,0,0,0,0,0,0,0,0,0,-1,1378,1604,0,0
161,-580,0,0,0,0,0,0,0,0,0,-1,1385,1604,0,0
168,-580,0,0,0,0,0,0,0,0,0,-1,1392,1604,0,0
175,-580,0,0,0,0,0,0,0,0,0,-1,1399,1604,0,0
182,-580,0,0,0,0,0,0,0,0,0,-1,1406,1604,0,0
189,-580,0,0,0,0,0,0,0,0,0,-1,1413,1604,0,0
196,-580,0,0,0,0,0,0,0,0,0,-1,1420,1604,0,0
203,-580,0,0,0,0,0,0,0,0,0,-1,1427,1604,0,0
210,-580,0,0,0,0,0,0,0,0,0,-1,1434,1604,0,0
217,-580,0,0,0,0,0,0,0,0,0,-1,1441,1604,0,0
224,-580,0,0,0,0,0,0,0,0,0,-1,1448,1604,0,0
231,-580,0,0,0,0,0,0,0,0,0,-1,1455,1604,0,0
238,-580,0,0,0,0,0,0,0,0,0,-1,1462,1604,0,0
245,-580,0,0,0,0,0,0,0,0,0,-1,1469,1604,0,0
252,-580,0,0,0,0,0,0,0,0,0,-1,1476,1604,0,0
259,-580,0,0,0,0,0,0,0,0,0,-1,1483,1604,0,0
266,-580,0,0,0,0,0,0,0,0,0,-1,1490,1604,0,0
273,-580,0,0,0,0,0,0,0,0,0,-1,1497,1604,0,0
280,-580,0,0,0,0,0,0,0,0,0,-1,1504,1604,0,0
287,-580,0,0,0,0,0,0,0,0,0,-1,1511,1604,0,0
294,-580,4.0437,0.177368,0,0,0,0,0,0,0,-1,1518,1604,4.04369,-0.177371
301,-580,7.55164,8.05798,0,0,0,0,0,0,0,-1,1525,1604,7.55158,-8.05802
308,-580,5.9126,9.99341,0,0,0,0,0,0,0,-1,1532,1604,5.91255,-9.99337
315,-580,4.27356,11.9287,0,0,0,0,0,0,0,-1,1539,1604,4.27352,-11.9287
322,-580,10.2366,7.50281,0,0,0,0,0,0,0,-1,1546,1604,10.2366,-7.50282
329,-580,10.5962,8.69641,0,0,0,0,0,0,0,-1,1553,1604,10.5962,-8.69642
336,-580,3.66431,1.58862,0,0,0,0,0,0,0,-1,1560,1604,3.6643,-1.58864
343,-580,3.32227,1.39636,0,0,0,0,0,0,0,-1,1567,1604,3.32222,-1.39633
350,-580,8.71277,4.0564,0,0,0,0,0,0,0,-1,1574,1604,8.71271,-4.05638
357,-580,8.52332,3.08154,0,0,0,0,0,0,0,-1,1581,1604,8.52332,-3.08157
364,-580,8.25818,2.07605,0,0,0,0,0,0,0,-1,1588,1604,8.25812,-2.07608
371,-580,7.42114,7.14282,0,0,0,0,0,0,0,-1,1595,1604,7.42119,-7.14281
378,-580,7.9718,6.6731,0,0,0,0,0,0,0,-1,1602,1604,7.9718,-6.67307
385,-580,8.52246,6.20337,0,0,0,0,0,0,0,-1,1609,1604,8.52241,-6.20334
392,-580,15.1675,33.2534,0,0,0,0,0,0,0,-1,1616,1604,15.1675,-33.2535
399,-580,14.5144,32.5269,0,0,0,0,0,0,0,-1,1623,1604,14.5144,-32.5268
406,-580,15.9471,33.2709,0,0,0,0,0,0,0,-1,1630,1604,15.9471,-33.2709
413,-580,15.9882,32.7598,0,0,0,0,0,0,0,-1,1637,1604,15.9881,-32.7597
420,-580,15.8081,32.0701,0,0,0,0,0,0,0,-1,1644,1604,15.8081,-32.0701
427,-580,16.4702,31.9775,-0.00370817,0.0282947,-0.00412159,0.028817,-0.00423045,-1.44475,0.0207656,0.0393348,1651,1604,16.4702,-31.9775
434,-580,16.1437,31.4023,-0.0030078,0.0243004,-0.00372686,0.0247999,-0.00350729,-1.43757,0.0178178,0.0350326,1658,1604,16.1437,-31.4023
441,-580,15.9432,30.6648,-0.00171007,0.020588,-0.00360601,0.0211566,-0.00227872,-1.41439,0.0149221,0.020646,1665,1604,15.9433,-30.6648
448,-580,16.0376,30.0913,-0.000522033,0.0171192,-0.00349712,0.0177872,-0.00118999,-1.38207,0.012274,0.0163402,1672,1604,16.0376,-30.0914
455,-580,16.0776,29.6443,0.000268474,0.013846,-0.00332676,0.0146173,-0.000502832,-1.34297,0.00991672,0.0200169,1679,1604,16.0777,-29.6442
462,-580,16.0161,29.1442,0.000864665,0.0109226,-0.00306687,0.011784,3.28152e-06,-1.29698,0.00785488,0.0225267,1686,1604,16.0161,-29.1442
469,-580,16.0171,28.645,0.00122002,0.00826221,-0.00269429,0.00917477,0.000307465,-1.24422,0.00601664,0.0200988,1693,1604,16.017,-28.645
476,-580,16.0516,28.1721,0.00124826,0.00606503,-0.00221791,0.0069307,0.000382585,-1.19867,0.00449836,0.0151398,1700,1604,16.0517,-28.1722
483,-580,16.0283,27.7074,0.00124618,0.00367156,-0.00187249,0.00468975,0.00022799,-1.07275,0.00305334,0.0133223,1707,1604,16.0283,-27.7073
490,-580,15.9875,27.2335,0.000833937,0.00209176,-0.0013114,0.00291726,8.43604e-06,-1.00898,0.00194203,0.0173202,1714,1604,15.9876,-27.2335
497,-580,15.9669,26.7158,3.90912e-05,0.000996962,-0.000676384,0.0013468,-0.000310752,-1.09346,0.0010174,0.0140809,1721,1604,15.967,-26.7159
504,-580,15.9481,26.2034,-0.000882501,-0.000177664,0.000178101,-0.000135217,-0.000924948,1.33683,0.000576867,0.0171751,1728,1604,15.9482,-26.2034
511,-580,15.9325,25.7262,-0.00186335,-0.00180029,0.00134753,-0.00048392,-0.00317972,0.797096,0.00197833,0.0175197,1735,1604,15.9325,-25.7261
518,-580,15.9077,25.2417,-0.00276598,-0.00325694,0.00244964,-0.000549549,-0.00547336,0.735459,0.00348022,0.0159921,1742,1604,15.9077,-25.2416
525,-580,15.8948,24.7418,-0.00373145,-0.00516463,0.00389921,-0.000483535,-0.00841255,0.694523,0.00545434,0.0187782,1749,1604,15.8948,-24.7418
532,-580,15.8562,24.2655,-0.0047789,-0.0076736,0.00587658,-0.000174063,-0.0122784,0.664656,0.00812823,0.0248219,1756,1604,15.8561,-24.2655
539,-580,15.8662,23.8,-0.00606499,-0.0111735,0.00861811,0.00036942,-0.0176079,0.641331,0.0118637,0.0287817,1763,1604,15.8662,-23.8001
546,-580,16.1942,23.1254,0,0,0,0,0,0,0,-1,1770,1604,16.1942,-23.1253
553,-580,15.0555,23.2351,0,0,0,0,0,0,0,-1,1777,1604,15.0555,-23.2351
560,-580,15.0349,23.3972,0,0,0,0,0,0,0,-1,1784,1604,15.0349,-23.3972
567,-580,3.87708,4.0647,0,0,0,0,0,0,0,-1,1791,1604,3.87711,-4.06471
574,-580,2.31653,5.62952,0,0,0,0,0,0,0,-1,1798,1604,2.31654,-5.62947
581,-580,1.60876,6.67664,0,0,0,0,0,0,0,-1,1805,1604,1.60873,-6.67667
588,-580,1.38684,7.14441,0,0,0,0,0,0,0,-1,1812,1604,1.38689,-7.14443
595,-580,0,0,0,0,0,0,0,0,0,-1,1819,1604,0,0
602,-580,0,0,0,0,0,0,0,0,0,-1,1826,1604,0,0
609,-580,0,0,0,0,0,0,0,0,0,-1,1833,1604,0,0
616,-580,0,0,0,0,0,0,0,0,0,-1,1840,1604,0,0
623,-580,0,0,0,0,0,0,0,0,0,-1,1847,1604,0,0
630,-580,0,0,0,0,0,0,0,0,0,-1,1854,1604,0,0
637,-580,0,0,0,0,0,0,0,0,0,-1,1861,1604,0,0
644,-580,0,0,0,0,0,0,0,0,0,-1,1868,1604,0,0
651,-580,0,0,0,0,0,0,0,0,0,-1,1875,1604,0,0
658,-580,0,0,0,0,0,0,0,0,0,-1,1882,1604,0,0
665,-580,0,0,0,0,0,0,0,0,0,-1,1889,1604,0,0
672,-580,0,0,0,0,0,0,0,0,0,-1,1896,1604,0,0
679,-580,0,0,0,0,0,0,0,0,0,-1,1903,1604,0,0
686,-580,0,0,0,0,0,0,0,0,0,-1,1910,1604,0,0
693,-580,0,0,0,0,0,0,0,0,0,-1,1917,1604,0,0
700,-580,0,0,0,0,0,0,0,0,0,-1,1924,1604,0,0
707,-580,0,0,0,0,0,0,0,0,0,-1,1931,1604,0,0
714,-580,0,0,0,0,0,0,0,0,0,-1,1938,1604,0,0
721,-580,0,0,0,0,0,0,0,0,0,-1,1945,1604,0,0
728,-580,0,0,0,0,0,0,0,0,0,-1,1952,1604,0,0
735,-580,0,0,0,0,0,0,0,0,0,-1,1959,1604,0,0
742,-580,0,0,0,0,0,0,0,0,0,-1,1966,1604,0,0
749,-580,0,0,0,0,0,0,0,0,0,-1,1973,1604,0,0
756,-580,0,0,0,0,0,0,0,0,0,-1,1980,1604,0,0
763,-580,0,0,0,0,0,0,0,0,0,-1,1987,1604,0,0
770,-580,0,0,0,0,0,0,0,0,0,-1,1994,1604,0,0
777,-580,0,0,0,0,0,0,0,0,0,-1,2001,1604,0,0
784,-580,0,0,0,0,0,0,0,0,0,-1,2008,1604,0,0
791,-580,0,0,0,0,0,0,0,0,0,-1,2015,1604,0,0
798,-580,0,0,0,0,0,0,0,0,0,-1,2022,1604,0,0
805,-580,0,0,0,0,0,0,0,0,0,-1,2029,1604,0,0
812,-580,0,0,0,0,0,0,0,0,0,-1,2036,1604,0,0
-700,-587,0,0,0,0,0,0,0,0,0,-1,524,1611,0,0
-693,-587,0,0,0,0,0,0,0,0,0,-1,531,1611,0,0
-686,-587,0,0,0,0,0,0,0,0,0,-1,538,1611,0,0
-679,-587,0,0,0,0,0,0,0,0,0,-1,545,1611,0,0
-672,-587,0,0,0,0,0,0,0,0,0,-1,552,1611,0,0
-665,-587,0,0,0,0,0,0,0,0,0,-1,559,1611,0,0
-658,-587,0,0,0,0,0,0,0,0,0,-1,566,1611,0,0
-651,-587,0,0,0,0,0,0,0,0,0,-1,573,1611,0,0
-644,-587,0,0,0,0,0,0,0,0,0,-1,580,1611,0,0
-637,-587,0,0,0,0,0,0,0,0,0,-1,587,1611,0,0
-630,-587,0,0,0,0,0,0,0,0,0,-1,594,1611,0,0
-623,-587,0,0,0,0,0,0,0,0,0,-1,601,1611,0,0
-616,-587,0,0,0,0,0,0,0,0,0,-1,608,1611,0,0
-609,-587,0,0,0,0,0,0,0,0,0,-1,615,1611,0,0
-602,-587,0,0,0,0,0,0,0,0,0,-1,622,1611,0,0
-595,-587,0,0,0,0,0,0,0,0,0,-1,629,1611,0,0
-588,-587,0,0,0,0,0,0,0,0,0,-1,636,1611,0,0
-581,-587,0,0,0,0,0,0,0,0,0,-1,643,1611,0,0
-574,-587,0,0,0,0,0,0,0,0,0,-1,650,1611,0,0
-567,-587,0,0,0,0,0,0,0,0,0,-1,657,1611,0,0
-560,-587,0,0,0,0,0,0,0,0,0,-1,664,1611,0,0
-553,-587,0,0,0,0,0,0,0,0,0,-1,671,1611,0,0
-546,-587,0,0,0,0,0,0,0,0,0,-1,678,1611,0,0
-539,-587,0,0,0,0,0,0,0,0,0,-1,685,1611,0,0
-532,-587,0,0,0,0,0,0,0,0,0,-1,692,1611,0,0
-525,-587,0,0,0,0,0,0,0,0,0,-1,699,1611,0,0
-518,-587,0,0,0,0,0,0,0,0,0,-1,706,1611,0,0
-511,-587,0,0,0,0,0,0,0,0,0,-1,713,1611,0,0
-504,-587,0,0,0,0,0,0,0,0,0,-1,720,1611,0,0
-497,-587,0,0,0,0,0,0,0,0,0,-1,727,1611,0,0
-490,-587,0,0,0,0,0,0,0,0,0,-1,734,1611,0,0
-483,-587,0,0,0,0,0,0,0,0,0,-1,741,1611,0,0
-476,-587,0,0,0,0,0,0,0,0,0,-1,748,1611,0,0
-469,-587,0,0,0,0,0,0,0,0,0,-1,755,1611,0,0
-462,-587,-0.714355,-0.418457,0,0,0,0,0,0,0,-1,762,1611,-0.714359,0.418483
-455,-587,-0.619812,-0.522461,0,0,0,0,0,0,0,-1,769,1611,-0.619802,0.522515
-448,-587,-0.461731,-0.686523,0,0,0,0,0,0,0,-1,776,1611,-0.461739,0.686559
-441,-587,-3.56555,2.72253,0,0,0,0,0,0,0,-1,783,1611,-3.56555,-2.72259
-434,-587,-1.77319,4.76318,0,0,0,0,0,0,0,-1,790,1611,-1.77318,-4.76323
-427,-587,0.0346069,6.92944,0,0,0,0,0,0,0,-1,797,1611,0.034587,-6.92941
-420,-587,-0.647156,10.1157,0,0,0,0,0,0,0,-1,804,1611,-0.647128,-10.1158
-413,-587,2.13971,10.3901,0,0,0,0,0,0,0,-1,811,1611,2.13971,-10.3902
-406,-587,2.2525,19.7814,0,0,0,0,0,0,0,-1,818,1611,2.25253,-19.7814
-399,-587,1.2049,23.1919,0,0,0,0,0,0,0,-1,825,1611,1.20492,-23.1918
-392,-587,1.42969,23.704,-0.00645564,-0.00060814,-0.000818326,-0.000495778,-0.006568,-1.43434,0.00422312,0.0450128,832,1611,1.42969,-23.704
-385,-587,1.19757,24.3098,-0.00518359,-0.000205752,-0.000263875,-0.000191803,-0.00519754,-1.51798,0.00340289,0.0210946,839,1611,1.19757,-24.3098
-378,-587,1.16748,24.9308,-0.00382915,0.000194285,0.000272563,0.000212665,-0.00384754,1.50346,0.00263877,0.0129721,846,1611,1.16745,-24.9308
-371,-587,1.14764,25.4797,-0.0028124,0.000406765,0.000368337,0.000448372,-0.00285401,1.45831,0.00206839,0.0136178,853,1611,1.14764,-25.4797
-364,-587,1.15039,25.9835,-0.00197731,0.00047851,0.000341105,0.000525008,-0.00202381,1.43532,0.00155406,0.0175682,860,1611,1.15041,-25.9836
-357,-587,1.14264,26.4484,-0.00104515,0.000682692,0.000398683,0.000770248,-0.0011327,1.35462,0.00110529,0.0167029,867,1611,1.14264,-26.4484
-350,-587,1.12024,27.0127,-4.51998e-05,0.000917285,0.00054492,0.00116304,-0.000290959,1.14711,0.000888376,0.00967991,874,1611,1.12022,-27.0127
-343,-587,1.1051,27.5217,0.00094266,0.0013662,0.000860817,0.00204091,0.000267947,0.906008,0.00128067,0.0123815,881,1611,1.10509,-27.5217
-336,-587,1.0929,28.0142,0.00195647,0.00215013,0.00137109,0.00342781,0.000678797,0.820651,0.0020959,0.0126751,888,1611,1.09292,-28.0142
-329,-587,1.08093,28.5155,0.00299932,0.00306258,0.0020049,0.0050361,0.0010258,0.793286,0.00307308,0.0149498,895,1611,1.08092,-28.5155
-322,-587,1.08728,29.048,0.00398384,0.00438155,0.00287651,0.00706607,0.00129932,0.819909,0.00434289,0.0198015,902,1611,1.0873,-29.048
-315,-587,1.07214,29.5479,0.0049774,0.00644161,0.00400769,0.00978352,0.00163549,0.87574,0.0060513,0.0160071,909,1611,1.07213,-29.5479
-308,-587,1.07739,30.0387,0.00594469,0.00853712,0.00524787,0.0126465,0.00183532,0.906474,0.00789069,0.0146015,916,1611,1.07741,-30.0387
-301,-587,1.11603,30.5516,0.00702874,0.0109725,0.00677418,0.0160559,0.00194527,0.927027,0.0101181,0.0159436,923,1611,1.11601,-30.5517
-294,-587,1.17291,31.1268,0.00834235,0.0139088,0.00871749,0.0202766,0.00197458,0.939919,0.01291,0.0291851,930,1611,1.17294,-31.1268
-287,-587,1.10858,31.8379,0.00952732,0.0178685,0.0109119,0.0253796,0.00201614,0.967934,0.0162894,0.0457293,937,1611,1.10856,-31.8379
-280,-587,1.4104,32.9429,0,0,0,0,0,0,0,-1,944,1611,1.41039,-32.9429
-273,-587,1.58167,33.4265,0,0,0,0,0,0,0,-1,951,1611,1.58165,-33.4265
-266,-587,1.58057,34.1771,0,0,0,0,0,0,0,-1,958,1611,1.58059,-34.1771
-259,-587,1.76306,28.5784,0,0,0,0,0,0,0,-1,965,1611,1.76307,-28.5784
-252,-587,1.30188,10.3103,0,0,0,0,0,0,0,-1,972,1611,1.30188,-10.3104
-245,-587,1.52075,27.4791,0,0,0,0,0,0,0,-1,979,1611,1.52076,-27.4791
-238,-587,2.87799,9.53821,0,0,0,0,0,0,0,-1,986,1611,2.87797,-9.53823
-231,-587,2.49548,9.14465,0,0,0,0,0,0,0,-1,993,1611,2.49551,-9.14468
-224,-587,-9.72528,9.21069,0,0,0,0,0,0,0,-1,1000,1611,-9.72529,-9.21072
-217,-587,-7.07495,10.7847,0,0,0,0,0,0,0,-1,1007,1611,-7.07495,-10.7847
-210,-587,-4.72308,12.5889,0,0,0,0,0,0,0,-1,1014,1611,-4.72307,-12.5888
-203,-587,-3.2583,13.7289,0,0,0,0,0,0,0,-1,1021,1611,-3.25828,-13.7289
-196,-587,-1.953,14.8145,0,0,0,0,0,0,0,-1,1028,1611,-1.95302,-14.8144
-189,-587,-3.04138,8.66638,0,0,0,0,0,0,0,-1,1035,1611,-3.04136,-8.66635
-182,-587,-3.97095,9.7146,0,0,0,0,0,0,0,-1,1042,1611,-3.97093,-9.71461
-175,-587,-4.80969,8.37878,0,0,0,0,0,0,0,-1,1049,1611,-4.80964,-8.37883
-168,-587,-5.91394,8.72546,0,0,0,0,0,0,0,-1,1056,1611,-5.91398,-8.72542
-161,-587,-7.06946,8.88501,0,0,0,0,0,0,0,-1,1063,1611,-7.06947,-8.885
-154,-587,-2.24731,6.56519,0,0,0,0,0,0,0,-1,1070,1611,-2.24728,-6.56517
-147,-587,0,0,0,0,0,0,0,0,0,-1,1077,1611,0,0
-140,-587,0,0,0,0,0,0,0,0,0,-1,1084,1611,0,0
-133,-587,0,0,0,0,0,0,0,0,0,-1,1091,1611,0,0
-126,-587,0,0,0,0,0,0,0,0,0,-1,1098,1611,0,0
-119,-587,0,0,0,0,0,0,0,0,0,-1,1105,1611,0,0
-112,-587,0,0,0,0,0,0,0,0,0,-1,1112,1611,0,0
-105,-587,0,0,0,0,0,0,0,0,0,-1,1119,1611,0,0
-98,-587,0,0,0,0,0,0,0,0,0,-1,1126,1611,0,0
-91,-587,0,0,0,0,0,0,0,0,0,-1,1133,1611,0,0
-84,-587,0,0,0,0,0,0,0,0,0,-1,1140,1611,0,0
-77,-587,0,0,0,0,0,0,0,0,0,-1,1147,1611,0,0
-70,-587,0,0,0,0,0,0,0,0,0,-1,1154,1611,0,0
-63,-587,0,0,0,0,0,0,0,0,0,-1,1161,1611,0,0
-56,-587,0,0,0,0,0,0,0,0,0,-1,1168,1611,0,0
-49,-587,0,0,0,0,0,0,0,0,0,-1,1175,1611,0,0
-42,-587,0,0,0,0,0,0,0,0,0,-1,1182,1611,0,0
-35,-587,0,0,0,0,0,0,0,0,0,-1,1189,1611,0,0
-28,-587,0,0,0,0,0,0,0,0,0,-1,1196,1611,0,0
-21,-587,0,0,0,0,0,0,0,0,0,-1,1203,1611,0,0
-14,-587,0,0,0,0,0,0,0,0,0,-1,1210,1611,0,0
-7,-587,0,0,0,0,0,0,0,0,0,-1,1217,1611,0,0
0,-587,0,0,0,0,0,0,0,0,0,-1,1224,1611,0,0
7,-587,0,0,0,0,0,0,0,0,0,-1,1231,1611,0,0
14,-587,0,0,0,0,0,0,0,0,0,-1,1238,1611,0,0
21,-587,0,0,0,0,0,0,0,0,0,-1,1245,1611,0,0
28,-587,0,0,0,0,0,0,0,0,0,-1,1252,1611,0,0
35,-587,0,0,0,0,0,0,0,0,0,-1,1259,1611,0,0
42,-587,0,0,0,0,0,0,0,0,0,-1,1266,1611,0,0
49,-587,0,0,0,0,0,0,0,0,0,-1,1273,1611,0,0
56,-587,0,0,0,0,0,0,0,0,0,-1,1280,1611,0,0
63,-587,0,0,0,0,0,0,0,0,0,-1,1287,1611,0,0
70,-587,0,0,0,0,0,0,0,0,0,-1,1294,1611,0,0
77,-587,0,0,0,0,0,0,0,0,0,-1,1301,1611,0,0
84,-587,0,0,0,0,0,0,0,0,0,-1,1308,1611,0,0
91,-587,0,0,0,0,0,0,0,0,0,-1,1315,1611,0,0
98,-587,0,0,0,0,0,0,0,0,0,-1,1322,1611,0,0
105,-587,0,0,0,0,0,0,0,0,0,-1,1329,1611,0,0
112,-587,0,0,0,0,0,0,0,0,0,-1,1336,1611,0,0
119,-587,0,0,0,0,0,0,0,0,0,-1,1343,1611,0,0
126,-587,0,0,0,0,0,0,0,0,0,-1,1350,1611,0,0
133,-587,0,0,0,0,0,0,0,0,0,-1,1357,1611,0,0
140,-587,0,0,0,0,0,0,0,0,0,-1,1364,1611,0,0
147,-587,0,0,0,0,0,0,0,0,0,-1,1371,1611,0,0
154,-587,0,0,0,0,0,0,0,0,0,-1,1378,1611,0,0
161,-587,0,0,0,0,0,0,0,0,0,-1,1385,1611,0,0
168,-587,0,0,0,0,0,0,0,0,0,-1,1392,1611,0,0
175,-587,0,0,0,0,0,0,0,0,0,-1,1399,1611,0,0
182,-587,0,0,0,0,0,0,0,0,0,-1,1406,1611,0,0
189,-587,0,0,0,0,0,0,0,0,0,-1,1413,1611,0,0
196,-587,0,0,0,0,0,0,0,0,0,-1,1420,1611,0,0
203,-587,0,0,0,0,0,0,0,0,0,-1,1427,1611,0,0
210,-587,0,0,0,0,0,0,0,0,0,-1,1434,1611,0,0
217,-587,0,0,0,0,0,0,0,0,0,-1,1441,1611,0,0
224,-587,0,0,0,0,0,0,0,0,0,-1,1448,1611,0,0
231,-587,0,0,0,0,0,0,0,0,0,-1,1455,1611,0,0
238,-587,0,0,0,0,0,0,0,0,0,-1,1462,1611,0,0
245,-587,0,0,0,0,0,0,0,0,0,-1,1469,1611,0,0
252,-587,0,0,0,0,0,0,0,0,0,-1,1476,1611,0,0
259,-587,0,0,0,0,0,0,0,0,0,-1,1483,1611,0,0
266,-587,0,0,0,0,0,0,0,0,0,-1,1490,1611,0,0
273,-587,10.2936,6.35083,0,0,0,0,0,0,0,-1,1497,1611,10.2936,-6.35087
280,-587,2.09204,1.1217,0,0,0,0,0,0,0,-1,1504,1611,2.092,-1.12176
287,-587,3.2865,0.671509,0,0,0,0,0,0,0,-1,1511,1611,3.28656,-0.671538
294,-587,4.24646,1.58765,0,0,0,0,0,0,0,-1,1518,1611,4.24648,-1.58761
301,-587,7.60474,8.37085,0,0,0,0,0,0,0,-1,1525,1611,7.60478,-8.37084
308,-587,5.99316,10.2291,0,0,0,0,0,0,0,-1,1532,1611,5.99315,-10.2291
315,-587,4.34558,12.3289,0,0,0,0,0,0,0,-1,1539,1611,4.34556,-12.3288
322,-587,10.4526,6.38245,0,0,0,0,0,0,0,-1,1546,1611,10.4526,-6.38245
329,-587,10.7738,8.42444,0,0,0,0,0,0,0,-1,1553,1611,10.7738,-8.42438
336,-587,7.5531,5.96619,0,0,0,0,0,0,0,-1,1560,1611,7.55311,-5.96617
343,-587,9.57495,4.38391,0,0,0,0,0,0,0,-1,1567,1611,9.57494,-4.38397
350,-587,9.50378,3.45093,0,0,0,0,0,0,0,-1,1574,1611,9.50376,-3.4509
357,-587,9.40027,2.50806,0,0,0,0,0,0,0,-1,1581,1611,9.40022,-2.50803
364,-587,9.26477,1.34131,0,0,0,0,0,0,0,-1,1588,1611,9.26479,-1.34126
371,-587,6.98926,7.87561,0,0,0,0,0,0,0,-1,1595,1611,6.98928,-7.87564
378,-587,9.25146,13.8358,0,0,0,0,0,0,0,-1,1602,1611,9.2515,-13.8359
385,-587,17.0917,35.9944,0,0,0,0,0,0,0,-1,1609,1611,17.0917,-35.9944
392,-587,15.9075,33.9827,0,0,0,0,0,0,0,-1,1616,1611,15.9074,-33.9827
399,-587,15.5764,33.8435,0,0,0,0,0,0,0,-1,1623,1611,15.5764,-33.8435
406,-587,15.5905,33.1256,0.00197265,0.0324128,-0.00757957,0.0341957,0.000189764,-1.33977,0.0227341,0.0437613,1630,1611,15.5904,-33.1256
413,-587,15.6222,32.616,5.51499e-05,0.0283314,-0.00567246,0.0294269,-0.00104036,-1.38002,0.0199737,0.0395944,1637,1611,15.6222,-32.6159
420,-587,15.543,31.999,-0.00102231,0.0247438,-0.00439264,0.0254721,-0.00175059,-1.4065,0.017594,0.0352139,1644,1611,15.543,-31.999
427,-587,15.5038,31.5854,-0.001876,0.0212684,-0.0032336,0.0217117,-0.00231929,-1.43456,0.0153063,0.0286147,1651,1611,15.5037,-31.5855
434,-587,15.5647,31.0015,-0.00174406,0.0181899,-0.00281132,0.0185788,-0.00213296,-1.43334,0.0131546,0.0196476,1658,1611,15.5647,-31.0014
441,-587,15.5914,30.4742,-0.000975624,0.0153859,-0.0026933,0.0158179,-0.00140757,-1.41177,0.0110444,0.0226876,1665,1611,15.5914,-30.4742
448,-587,15.5873,30.1177,-0.000227061,0.0127341,-0.00258876,0.013232,-0.000724989,-1.38077,0.00907266,0.0156682,1672,1611,15.5873,-30.1176
455,-587,15.5852,29.6567,0.00020993,0.0101806,-0.00243414,0.0107431,-0.000352579,-1.34369,0.00728245,0.0146548,1679,1611,15.5852,-29.6568
462,-587,15.5553,29.1714,0.00049725,0.00786095,-0.00220099,0.00846867,-0.000110465,-1.3014,0.00568296,0.018886,1686,1611,15.5553,-29.1714
469,-587,15.5334,28.6996,0.000643549,0.00575538,-0.00188948,0.00637796,2.09683e-05,-1.2525,0.004245,0.0168705,1693,1611,15.5334,-28.6996
476,-587,15.5409,28.2167,0.00053438,0.00400021,-0.00147718,0.00454436,-9.77796e-06,-1.21785,0.00303284,0.0107762,1700,1611,15.5409,-28.2167
483,-587,15.525,27.7281,0.00034709,0.00210003,-0.00115146,0.00267064,-0.000223526,-1.11071,0.00185942,0.0131415,1707,1611,15.5251,-27.7281
490,-587,15.4957,27.2516,-0.000166864,0.000809845,-0.000644976,0.00113049,-0.000487511,-1.10943,0.000958427,0.0156941,1714,1611,15.4957,-27.2515
497,-587,15.458,26.7535,-0.00097742,-0.000109755,-0.000105855,-9.70272e-05,-0.000990148,-1.45113,0.000630251,0.0129487,1721,1611,15.4581,-26.7536
504,-587,15.4368,26.2645,-0.00193528,-0.00110982,0.000721588,-0.000691263,-0.00235383,1.04518,0.00139702,0.0124901,1728,1611,15.4368,-26.2646
511,-587,15.4181,25.7917,-0.00297368,-0.00271497,0.00191757,-0.000922397,-0.00476625,0.819076,0.00291903,0.0147396,1735,1611,15.4181,-25.7918
518,-587,15.4216,25.2811,-0.00392343,-0.00409669,0.00302946,-0.000979365,-0.00704076,0.771104,0.00440383,0.0142242,1742,1611,15.4217,-25.2812
525,-587,15.441,24.8041,-0.00498626,-0.00610793,0.0046207,-0.000892485,-0.0102017,0.725006,0.00652402,0.0212941,1749,1611,15.4411,-24.804
532,-587,15.4845,24.2852,-0.00620138,-0.0088366,0.00689851,-0.00049577,-0.0145422,0.691035,0.00953384,0.035144,1756,1611,15.4845,-24.2852
539,-587,15.507,23.6909,0,0,0,0,0,0,0,-1,1763,1611,15.507,-23.6909
546,-587,16.0444,22.3002,0,0,0,0,0,0,0,-1,1770,1611,16.0444,-22.3002
553,-587,7.5813,8.45068,0,0,0,0,0,0,0,-1,1777,1611,7.58125,-8.45068
560,-587,4.21179,5.23547,0,0,0,0,0,0,0,-1,1784,1611,4.21185,-5.23553
567,-587,4.03711,5.46387,0,0,0,0,0,0,0,-1,1791,1611,4.03715,-5.46382
574,-587,3.83142,5.68884,0,0,0,0,0,0,0,-1,1798,1611,3.83141,-5.68881
581,-587,3.47168,6.00977,0,0,0,0,0,0,0,-1,1805,1611,3.47167,-6.00983
588,-587,0,0,0,0,0,0,0,0,0,-1,1812,1611,0,0
595,-587,0,0,0,0,0,0,0,0,0,-1,1819,1611,0,0
602,-587,0,0,0,0,0,0,0,0,0,-1,1826,1611,0,0
609,-587,0,0,0,0,0,0,0,0,0,-1,1833,1611,0,0
616,-587,0,0,0,0,0,0,0,0,0,-1,1840,1611,0,0
623,-587,0,0,0,0,0,0,0,0,0,-1,1847,1611,0,0
630,-587,0,0,0,0,0,0,0,0,0,-1,1854,1611,0,0
637,-587,0,0,0,0,0,0,0,0,0,-1,1861,1611,0,0
644,-587,0,0,0,0,0,0,0,0,0,-1,1868,1611,0,0
651,-587,0,0,0,0,0,0,0,0,0,-1,1875,1611,0,0
658,-587,0,0,0,0,0,0,0,0,0,-1,1882,1611,0,0
665,-587,0,0,0,0,0,0,0,0,0,-1,1889,1611,0,0
672,-587,0,0,0,0,0,0,0,0,0,-1,1896,1611,0,0
679,-587,0,0,0,0,0,0,0,0,0,-1,1903,1611,0,0
686,-587,0,0,0,0,0,0,0,0,0,-1,1910,1611,0,0
693,-587,0,0,0,0,0,0,0,0,0,-1,1917,1611,0,0
700,-587,0,0,0,0,0,0,0,0,0,-1,1924,1611,0,0
707,-587,0,0,0,0,0,0,0,0,0,-1,1931,1611,0,0
714,-587,0,0,0,0,0,0,0,0,0,-1,1938,1611,0,0
721,-587,0,0,0,0,0,0,0,0,0,-1,1945,1611,0,0
728,-587,0,0,0,0,0,0,0,0,0,-1,1952,1611,0,0
735,-587,0,0,0,0,0,0,0,0,0,-1,1959,1611,0,0
742,-587,0,0,0,0,0,0,0,0,0,-1,1966,1611,0,0
749,-587,0,0,0,0,0,0,0,0,0,-1,1973,1611,0,0
756,-587,0,0,0,0,0,0,0,0,0,-1,1980,1611,0,0
763,-587,0,0,0,0,0,0,0,0,0,-1,1987,1611,0,0
770,-587,0,0,0,0,0,0,0,0,0,-1,1994,1611,0,0
777,-587,0,0,0,0,0,0,0,0,0,-1,2001,1611,0,0
784,-587,0,0,0,0,0,0,0,0,0,-1,2008,1611,0,0
791,-587,0,0,0,0,0,0,0,0,0,-1,2015,1611,0,0
798,-587,0,0,0,0,0,0,0,0,0,-1,2022,1611,0,0
805,-587,0,0,0,0,0,0,0,0,0,-1,2029,1611,0,0
812,-587,0,0,0,0,0,0,0,0,0,-1,2036,1611,0,0
-700,-594,0,0,0,0,0,0,0,0,0,-1,524,1618,0,0
-693,-594,0,0,0,0,0,0,0,0,0,-1,531,1618,0,0
-686,-594,0,0,0,0,0,0,0,0,0,-1,538,1618,0,0
-679,-594,0,0,0,0,0,0,0,0,0,-1,545,1618,0,0
-672,-594,0,0,0,0,0,0,0,0,0,-1,552,1618,0,0
-665,-594,0,0,0,0,0,0,0,0,0,-1,559,1618,0,0
-658,-594,0,0,0,0,0,0,0,0,0,-1,566,1618,0,0
-651,-594,0,0,0,0,0,0,0,0,0,-1,573,1618,0,0
-644,-594,0,0,0,0,0,0,0,0,0,-1,580,1618,0,0
-637,-594,0,0,0,0,0,0,0,0,0,-1,587,1618,0,0
-630,-594,0,0,0,0,0,0,0,0,0,-1,594,1618,0,0
-623,-594,0,0,0,0,0,0,0,0,0,-1,601,1618,0,0
-616,-594,0,0,0,0,0,0,0,0,0,-1,608,1618,0,0
-609,-594,0,0,0,0,0,0,0,0,0,-1,615,1618,0,0
-602,-594,0,0,0,0,0,0,0,0,0,-1,622,1618,0,0
-595,-594,0,0,0,0,0,0,0,0,0,-1,629,1618,0,0
-588,-594,0,0,0,0,0,0,0,0,0,-1,636,1618,0,0
-581,-594,0,0,0,0,0,0,0,0,0,-1,643,1618,0,0
-574,-594,0,0,0,0,0,0,0,0,0,-1,650,1618,0,0
-567,-594,0,0,0,0,0,0,0,0,0,-1,657,1618,0,0
-560,-594,0,0,0,0,0,0,0,0,0,-1,664,1618,0,0
-553,-594,0,0,0,0,0,0,0,0,0,-1,671,1618,0,0
-546,-594,0,0,0,0,0,0,0,0,0,-1,678,1618,0,0
-539,-594,0,0,0,0,0,0,0,0,0,-1,685,1618,0,0
-532,-594,0,0,0,0,0,0,0,0,0,-1,692,1618,0,0
-525,-594,0,0,0,0,0,0,0,0,0,-1,699,1618,0,0
-518,-594,0,0,0,0,0,0,0,0,0,-1,706,1618,0,0
-511,-594,0,0,0,0,0,0,0,0,0,-1,713,1618,0,0
-504,-594,0,0,0,0,0,0,0,0,0,-1,720,1618,0,0
-497,-594,0,0,0,0,0,0,0,0,0,-1,727,1618,0,0
-490,-594,0,0,0,0,0,0,0,0,0,-1,734,1618,0,0
-483,-594,0,0,0,0,0,0,0,0,0,-1,741,1618,0,0
-476,-594,0,0,0,0,0,0,0,0,0,-1,748,1618,0,0
-469,-594,0,0,0,0,0,0,0,0,0,-1,755,1618,0,0
-462,-594,0,0,0,0,0,0,0,0,0,-1,762,1618,0,0
-455,-594,-0.509216,-1.58411,0,0,0,0,0,0,0,-1,769,1618,-0.509245,1.58415
-448,-594,-7.71887,-0.0559082,0,0,0,0,0,0,0,-1,776,1618,-7.71885,0.055939
-441,-594,-5.78473,1.18298,0,0,0,0,0,0,0,-1,783,1618,-5.78474,-1.18295
-434,-594,-3.93628,3.06213,0,0,0,0,0,0,0,-1,790,1618,-3.93631,-3.06208
-427,-594,-3.97693,6.77759,0,0,0,0,0,0,0,-1,797,1618,-3.97695,-6.77764
-420,-594,-2.53046,7.71606,0,0,0,0,0,0,0,-1,804,1618,-2.53047,-7.71609
-413,-594,-0.860413,8.00391,0,0,0,0,0,0,0,-1,811,1618,-0.860423,-8.00389
-406,-594,2.45746,13.6218,0,0,0,0,0,0,0,-1,818,1618,2.45747,-13.6218
-399,-594,2.51508,22.5181,0,0,0,0,0,0,0,-1,825,1618,2.51507,-22.518
-392,-594,2.25421,23.6184,0,0,0,0,0,0,0,-1,832,1618,2.25424,-23.6184
-385,-594,1.81232,24.519,-0.0069761,0.000151772,-0.000274661,0.00016234,-0.00698667,-1.53234,0.00471283,0.034288,839,1618,1.81234,-24.519
-378,-594,1.66986,24.9205,-0.00546786,0.000558561,0.000264175,0.000570119,-0.00547942,1.52707,0.00385705,0.0161273,846,1618,1.66988,-24.9205
-371,-594,1.6839,25.4894,-0.00439439,0.000654105,0.000278583,0.000669431,-0.00440972,1.51584,0.00318648,0.012842,853,1618,1.68391,-25.4893
-364,-594,1.6861,26.0077,-0.00351572,0.000556389,0.000166404,0.000563177,-0.00352251,1.53002,0.00255683,0.0112322,860,1618,1.68609,-26.0077
-357,-594,1.6626,26.5228,-0.002523,0.000620817,0.000172594,0.000630264,-0.00253245,1.51612,0.00193295,0.0110422,867,1618,1.66257,-26.5228
-350,-594,1.63458,27.0547,-0.00149358,0.000725516,0.000264467,0.000756599,-0.00152467,1.4538,0.00134174,0.0153796,874,1618,1.6346,-27.0547
-343,-594,1.60571,27.5548,-0.000480879,0.00102859,0.000506369,0.00118272,-0.000635009,1.27532,0.00106523,0.0169169,881,1618,1.60569,-27.5548
-336,-594,1.57623,28.0281,0.000565033,0.00156486,0.00092069,0.0021126,1.7289e-05,1.03411,0.00140267,0.0143665,888,1618,1.57622,-28.028
-329,-594,1.57318,28.5555,0.00159258,0.00232443,0.00143796,0.00344229,0.000474714,0.90999,0.00215413,0.0144709,895,1618,1.57318,-28.5555
-322,-594,1.58545,29.0831,0.00251417,0.00336326,0.00212474,0.00510546,0.000771974,0.884005,0.00317772,0.0174098,902,1618,1.58546,-29.0831
-315,-594,1.59583,29.5538,0.00340616,0.00501415,0.00302037,0.0073357,0.00108462,0.915478,0.00457202,0.0176877,909,1618,1.59581,-29.5538
-308,-594,1.5777,30.0332,0.00428546,0.00668311,0.00398532,0.00964602,0.00132256,0.931498,0.0060383,0.0149306,916,1618,1.57768,-30.0332
-301,-594,1.55493,30.5055,0.00525658,0.00862096,0.00516158,0.0123676,0.00150999,0.942924,0.00779063,0.0123803,923,1618,1.55494,-30.5055
-294,-594,1.57214,30.9843,0.00641149,0.0109189,0.006667,0.0157028,0.00162758,0.948388,0.00997039,0.0147799,930,1618,1.57217,-30.9843
-287,-594,1.5105,31.4653,0.00745429,0.0139134,0.00829531,0.0195857,0.00178204,0.971033,0.0125055,0.0251525,937,1618,1.51049,-31.4654
-280,-594,1.64032,32.0317,0.00874688,0.0170222,0.0102851,0.0239707,0.00179832,0.976639,0.015416,0.0314886,944,1618,1.64032,-32.0317
-273,-594,1.71521,32.7422,0.0103264,0.0201818,0.0124327,0.0286278,0.00188046,0.974076,0.0184903,0.0399437,951,1618,1.71519,-32.7422
-266,-594,1.76685,33.454,0.0119652,0.0233624,0.0146512,0.0333842,0.00194344,0.97087,0.0216374,0.0430688,958,1618,1.76686,-33.454
-259,-594,1.82709,34.0391,0,0,0,0,0,0,0,-1,965,1618,1.82706,-34.039
-252,-594,2.32947,34.1461,0,0,0,0,0,0,0,-1,972,1618,2.32947,-34.1461
-245,-594,2.30096,35.2712,0,0,0,0,0,0,0,-1,979,1618,2.30097,-35.2713
-238,-594,2.09015,28.0121,0,0,0,0,0,0,0,-1,986,1618,2.09012,-28.0121
-231,-594,1.93774,9.35388,0,0,0,0,0,0,0,-1,993,1618,1.93776,-9.35393
-224,-594,1.81824,8.62744,0,0,0,0,0,0,0,-1,1000,1618,1.81822,-8.62745
-217,-594,-8.24066,12.0752,0,0,0,0,0,0,0,-1,1007,1618,-8.24068,-12.0751
-210,-594,-5.61438,14.2119,0,0,0,0,0,0,0,-1,1014,1618,-5.6144,-14.212
-203,-594,-3.94507,15.5768,0,0,0,0,0,0,0,-1,1021,1618,-3.94506,-15.5768
-196,-594,2.78613,10.5815,0,0,0,0,0,0,0,-1,1028,1618,2.78612,-10.5815
-189,-594,2.60913,9.48865,0,0,0,0,0,0,0,-1,1035,1618,2.6091,-9.48871
-182,-594,1.2395,9.38806,0,0,0,0,0,0,0,-1,1042,1618,1.23951,-9.38804
-175,-594,0.234863,8.73792,0,0,0,0,0,0,0,-1,1049,1618,0.234812,-8.73786
-168,-594,-0.495483,8.46289,0,0,0,0,0,0,0,-1,1056,1618,-0.495513,-8.46285
-161,-594,-1.39734,8.28699,0,0,0,0,0,0,0,-1,1063,1618,-1.39729,-8.28699
-154,-594,-0.000854492,7.68445,0,0,0,0,0,0,0,-1,1070,1618,-0.000805755,-7.6845
-147,-594,0.348267,9.3385,0,0,0,0,0,0,0,-1,1077,1618,0.348237,-9.33849
-140,-594,0.675171,11.5884,0,0,0,0,0,0,0,-1,1084,1618,0.675204,-11.5884
-133,-594,0,0,0,0,0,0,0,0,0,-1,1091,1618,0,0
-126,-594,0,0,0,0,0,0,0,0,0,-1,1098,1618,0,0
-119,-594,0,0,0,0,0,0,0,0,0,-1,1105,1618,0,0
-112,-594,0,0,0,0,0,0,0,0,0,-1,1112,1618,0,0
-105,-594,0,0,0,0,0,0,0,0,0,-1,1119,1618,0,0
-98,-594,0,0,0,0,0,0,0,0,0,-1,1126,1618,0,0
-91,-594,0,0,0,0,0,0,0,0,0,-1,1133,1618,0,0
-84,-594,0,0,0,0,0,0,0,0,0,-1,1140,1618,0,0
-77,-594,0,0,0,0,0,0,0,0,0,-1,1147,1618,0,0
-70,-594,0,0,0,0,0,0,0,0,0,-1,1154,1618,0,0
-63,-594,0,0,0,0,0,0,0,0,0,-1,1161,1618,0,0
-56,-594,0,0,0,0,0,0,0,0,0,-1,1168,1618,0,0
-49,-594,0,0,0,0,0,0,0,0,0,-1,1175,1618,0,0
-42,-594,0,0,0,0,0,0,0,0,0,-1,1182,1618,0,0
-35,-594,0,0,0,0,0,0,0,0,0,-1,1189,1618,0,0
-28,-594,0,0,0,0,0,0,0,0,0,-1,1196,1618,0,0
-21,-594,0,0,0,0,0,0,0,0,0,-1,1203,1618,0,0
-14,-594,0,0,0,0,0,0,0,0,0,-1,1210,1618,0,0
-7,-594,0,0,0,0,0,0,0,0,0,-1,1217,1618,0,0
0,-594,0,0,0,0,0,0,0,0,0,-1,1224,1618,0,0
7,-594,0,0,0,0,0,0,0,0,0,-1,1231,1618,0,0
14,-594,0,0,0,0,0,0,0,0,0,-1,1238,1618,0,0
21,-594,0,0,0,0,0,0,0,0,0,-1,1245,1618,0,0
28,-594,0,0,0,0,0,0,0,0,0,-1,1252,1618,0,0
35,-594,0,0,0,0,0,0,0,0,0,-1,1259,1618,0,0
42,-594,0,0,0,0,0,0,0,0,0,-1,1266,1618,0,0
49,-594,0,0,0,0,0,0,0,0,0,-1,1273,1618,0,0
56,-594,0,0,0,0,0,0,0,0,0,-1,1280,1618,0,0
63,-594,0,0,0,0,0,0,0,0,0,-1,1287,1618,0,0
70,-594,0,0,0,0,0,0,0,0,0,-1,1294,1618,0,0
77,-594,0,0,0,0,0,0,0,0,0,-1,1301,1618,0,0
84,-594,0,0,0,0,0,0,0,0,0,-1,1308,1618,0,0
91,-594,0,0,0,0,0,0,0,0,0,-1,1315,1618,0,0
98,-594,0,0,0,0,0,0,0,0,0,-1,1322,1618,0,0
105,-594,0,0,0,0,0,0,0,0,0,-1,1329,1618,0,0
112,-594,0,0,0,0,0,0,0,0,0,-1,1336,1618,0,0
119,-594,0,0,0,0,0,0,0,0,0,-1,1343,1618,0,0
126,-594,0,0,0,0,0,0,0,0,0,-1,1350,1618,0,0
133,-594,0,0,0,0,0,0,0,0,0,-1,1357,1618,0,0
140,-594,0,0,0,0,0,0,0,0,0,-1,1364,1618,0,0
147,-594,0,0,0,0,0,0,0,0,0,-1,1371,1618,0,0
154,-594,0,0,0,0,0,0,0,0,0,-1,1378,1618,0,0
161,-594,0,0,0,0,0,0,0,0,0,-1,1385,1618,0,0
168,-594,0,0,0,0,0,0,0,0,0,-1,1392,1618,0,0
175,-594,0,0,0,0,0,0,0,0,0,-1,1399,1618,0,0
182,-594,0,0,0,0,0,0,0,0,0,-1,1406,1618,0,0
189,-594,0,0,0,0,0,0,0,0,0,-1,1413,1618,0,0
196,-594,0,0,0,0,0,0,0,0,0,-1,1420,1618,0,0
203,-594,0,0,0,0,0,0,0,0,0,-1,1427,1618,0,0
210,-594,0,0,0,0,0,0,0,0,0,-1,1434,1618,0,0
217,-594,0,0,0,0,0,0,0,0,0,-1,1441,1618,0,0
224,-594,0,0,0,0,0,0,0,0,0,-1,1448,1618,0,0
231,-594,0,0,0,0,0,0,0,0,0,-1,1455,1618,0,0
238,-594,0,0,0,0,0,0,0,0,0,-1,1462,1618,0,0
245,-594,0,0,0,0,0,0,0,0,0,-1,1469,1618,0,0
252,-594,3.03674,1.20996,0,0,0,0,0,0,0,-1,1476,1618,3.0368,-1.20999
259,-594,4.79834,1.53113,0,0,0,0,0,0,0,-1,1483,1618,4.79837,-1.53118
266,-594,3.71606,2.68152,0,0,0,0,0,0,0,-1,1490,1618,3.71609,-2.68149
273,-594,9.7655,6.33557,0,0,0,0,0,0,0,-1,1497,1618,9.76555,-6.33554
280,-594,3.13281,0.911255,0,0,0,0,0,0,0,-1,1504,1618,3.13277,-0.911207
287,-594,4.42749,1.51563,0,0,0,0,0,0,0,-1,1511,1618,4.42747,-1.51564
294,-594,5.36475,3.34937,0,0,0,0,0,0,0,-1,1518,1618,5.36475,-3.3494
301,-594,7.97144,9.04333,0,0,0,0,0,0,0,-1,1525,1618,7.9714,-9.04328
308,-594,6.30347,10.4633,0,0,0,0,0,0,0,-1,1532,1618,6.30351,-10.4633
315,-594,4.62012,11.934,0,0,0,0,0,0,0,-1,1539,1618,4.62006,-11.934
322,-594,2.91528,13.3134,0,0,0,0,0,0,0,-1,1546,1618,2.91523,-13.3133
329,-594,4.19861,9.77258,0,0,0,0,0,0,0,-1,1553,1618,4.19865,-9.77264
336,-594,10.1353,4.66528,0,0,0,0,0,0,0,-1,1560,1618,10.1353,-4.66533
343,-594,10.5729,3.71228,0,0,0,0,0,0,0,-1,1567,1618,10.5729,-3.71232
350,-594,10.219,2.98792,0,0,0,0,0,0,0,-1,1574,1618,10.219,-2.98797
357,-594,9.83154,1.96326,0,0,0,0,0,0,0,-1,1581,1618,9.8315,-1.96321
364,-594,9.74939,0.700562,0,0,0,0,0,0,0,-1,1588,1618,9.74939,-0.700615
371,-594,8.54297,14.3988,0,0,0,0,0,0,0,-1,1595,1618,8.54296,-14.3989
378,-594,15.4661,35.5759,0,0,0,0,0,0,0,-1,1602,1618,15.4661,-35.576
385,-594,15.0574,34.7407,0,0,0,0,0,0,0,-1,1609,1618,15.0574,-34.7408
392,-594,14.9154,34.0768,0,0,0,0,0,0,0,-1,1616,1618,14.9154,-34.0768
399,-594,15.1024,33.6104,0.00658585,0.0300101,-0.00937149,0.033298,0.00329802,-1.23338,0.021185,0.0414499,1623,1618,15.1024,-33.6104
406,-594,15.1569,33.0347,0.00356795,0.0255367,-0.00668583,0.0274115,0.00169322,-1.29741,0.0177369,0.0259773,1630,1618,15.1568,-33.0347
413,-594,15.1663,32.5293,0.0016538,0.0217869,-0.00488168,0.0229082,0.000532579,-1.34503,0.0150977,0.0182035,1637,1618,15.1662,-32.5293
420,-594,15.1426,32.0696,0.00046914,0.0187633,-0.00366674,0.0194708,-0.000238428,-1.38017,0.0130608,0.0164852,1644,1618,15.1426,-32.0696
427,-594,15.1285,31.5775,-0.00062789,0.0158198,-0.00251964,0.0161972,-0.00100522,-1.42215,0.0111483,0.0132541,1651,1618,15.1285,-31.5775
434,-594,15.1146,31.0889,-0.000825242,0.0133804,-0.00210171,0.0136848,-0.00112966,-1.42695,0.00952211,0.0181783,1658,1618,15.1146,-31.0888
441,-594,15.0979,30.5986,-0.0004008,0.0112234,-0.00198953,0.0115545,-0.000731885,-1.40589,0.00795819,0.0167625,1665,1618,15.0979,-30.5986
448,-594,15.1101,30.1466,4.44164e-05,0.0091686,-0.00188577,0.00954299,-0.000329971,-1.37481,0.00647479,0.0159746,1672,1618,15.1101,-30.1466
455,-594,15.089,29.6563,0.000258233,0.00716641,-0.00175881,0.00758842,-0.000163776,-1.33531,0.00511441,0.0123004,1679,1618,15.089,-29.6562
462,-594,15.0834,29.1794,0.00031517,0.00530807,-0.00153959,0.00574464,-0.000121398,-1.29449,0.00387086,0.0137824,1686,1618,15.0834,-29.1794
469,-594,15.0734,28.7244,0.000280086,0.00363695,-0.0012655,0.00406057,-0.000143535,-1.24778,0.00275614,0.0125802,1693,1618,15.0734,-28.7243
476,-594,15.0723,28.2312,3.13883e-05,0.00223054,-0.00089267,0.00254727,-0.000285343,-1.22984,0.00180085,0.0127484,1700,1618,15.0723,-28.2311
483,-594,15.0299,27.7383,-0.000365162,0.000766362,-0.000556633,0.00099428,-0.00059308,-1.18216,0.000926168,0.0154158,1707,1618,15.0299,-27.7383
490,-594,15.0135,27.2582,-0.0010412,-0.000273537,-7.20672e-05,-0.00026683,-0.00104791,-1.478,0.000628825,0.0133741,1714,1618,15.0135,-27.2582
497,-594,14.9861,26.7588,-0.00193839,-0.00105881,0.000407195,-0.000899251,-0.00209795,1.19733,0.00121536,0.0103577,1721,1618,14.9861,-26.7588
504,-594,14.9788,26.269,-0.00300473,-0.00190205,0.00122256,-0.00111226,-0.00379452,0.997229,0.00225241,0.0106435,1728,1618,14.9788,-26.269
511,-594,14.9629,25.7566,-0.0042092,-0.00350195,0.0024433,-0.00138682,-0.00632433,0.857266,0.00383838,0.0159018,1735,1618,14.9628,-25.7566
518,-594,14.9032,25.2305,-0.00536203,-0.00483539,0.00358766,-0.0015014,-0.00869602,0.822031,0.00536734,0.0215573,1742,1618,14.9031,-25.2304
525,-594,14.875,24.6986,-0.00664406,-0.00690242,0.00533911,-0.00143257,-0.0121139,0.773303,0.0076433,0.0343803,1749,1618,14.875,-24.6987
532,-594,15.2452,24.083,0,0,0,0,0,0,0,-1,1756,1618,15.2453,-24.083
539,-594,15.9656,22.989,0,0,0,0,0,0,0,-1,1763,1618,15.9656,-22.989
546,-594,7.48645,8.54785,0,0,0,0,0,0,0,-1,1770,1618,7.48639,-8.54789
553,-594,3.69714,5.68762,0,0,0,0,0,0,0,-1,1777,1618,3.69715,-5.68764
560,-594,6.06616,4.44482,0,0,0,0,0,0,0,-1,1784,1618,6.06621,-4.44477
567,-594,5.97266,4.73303,0,0,0,0,0,0,0,-1,1791,1618,5.97271,-4.73309
574,-594,5.9906,4.96326,0,0,0,0,0,0,0,-1,1798,1618,5.99065,-4.96326
581,-594,0,0,0,0,0,0,0,0,0,-1,1805,1618,0,0
588,-594,0,0,0,0,0,0,0,0,0,-1,1812,1618,0,0
595,-594,0,0,0,0,0,0,0,0,0,-1,1819,1618,0,0
602,-594,0,0,0,0,0,0,0,0,0,-1,1826,1618,0,0
609,-594,0,0,0,0,0,0,0,0,0,-1,1833,1618,0,0
616,-594,0,0,0,0,0,0,0,0,0,-1,1840,1618,0,0
623,-594,0,0,0,0,0,0,0,0,0,-1,1847,1618,0,0
630,-594,0,0,0,0,0,0,0,0,0,-1,1854,1618,0,0
637,-594,0,0,0,0,0,0,0,0,0,-1,1861,1618,0,0
644,-594,0,0,0,0,0,0,0,0,0,-1,1868,1618,0,0
651,-594,0,0,0,0,0,0,0,0,0,-1,1875,1618,0,0
658,-594,0,0,0,0,0,0,0,0,0,-1,1882,1618,0,0
665,-594,0,0,0,0,0,0,0,0,0,-1,1889,1618,0,0
672,-594,0,0,0,0,0,0,0,0,0,-1,1896,1618,0,0
679,-594,0,0,0,0,0,0,0,0,0,-1,1903,1618,0,0
686,-594,0,0,0,0,0,0,0,0,0,-1,1910,1618,0,0
693,-594,0,0,0,0,0,0,0,0,0,-1,1917,1618,0,0
700,-594,0,0,0,0,0,0,0,0,0,-1,1924,1618,0,0
707,-594,0,0,0,0,0,0,0,0,0,-1,1931,1618,0,0
714,-594,0,0,0,0,0,0,0,0,0,-1,1938,1618,0,0
721,-594,0,0,0,0,0,0,0,0,0,-1,1945,1618,0,0
728,-594,0,0,0,0,0,0,0,0,0,-1,1952,1618,0,0
735,-594,0,0,0,0,0,0,0,0,0,-1,1959,1618,0,0
742,-594,0,0,0,0,0,0,0,0,0,-1,1966,1618,0,0
749,-594,0,0,0,0,0,0,0,0,0,-1,1973,1618,0,0
756,-594,0,0,0,0,0,0,0,0,0,-1,1980,1618,0,0
763,-594,0,0,0,0,0,0,0,0,0,-1,1987,1618,0,0
770,-594,0,0,0,0,0,0,0,0,0,-1,1994,1618,0,0
777,-594,0,0,0,0,0,0,0,0,0,-1,2001,1618,0,0
784,-594,0,0,0,0,0,0,0,0,0,-1,2008,1618,0,0
791,-594,0,0,0,0,0,0,0,0,0,-1,2015,1618,0,0
798,-594,0,0,0,0,0,0,0,0,0,-1,2022,1618,0,0
805,-594,0,0,0,0,0,0,0,0,0,-1,2029,1618,0,0
812,-594,0,0,0,0,0,0,0,0,0,-1,2036,1618,0,0
-700,-601,0,0,0,0,0,0,0,0,0,-1,524,1625,0,0
-693,-601,0,0,0,0,0,0,0,0,0,-1,531,1625,0,0
-686,-601,0,0,0,0,0,0,0,0,0,-1,538,1625,0,0
-679,-601,0,0,0,0,0,0,0,0,0,-1,545,1625,0,0
-672,-601,0,0,0,0,0,0,0,0,0,-1,552,1625,0,0
-665,-601,0,0,0,0,0,0,0,0,0,-1,559,1625,0,0
-658,-601,0,0,0,0,0,0,0,0,0,-1,566,1625,0,0
-651,-601,0,0,0,0,0,0,0,0,0,-1,573,1625,0,0
-644,-601,0,0,0,0,0,0,0,0,0,-1,580,1625,0,0
-637,-601,0,0,0,0,0,0,0,0,0,-1,587,1625,0,0
-630,-601,0,0,0,0,0,0,0,0,0,-1,594,1625,0,0
-623,-601,0,0,0,0,0,0,0,0,0,-1,601,1625,0,0
-616,-601,0,0,0,0,0,0,0,0,0,-1,608,1625,0,0
-609,-601,0,0,0,0,0,0,0,0,0,-1,615,1625,0,0
-602,-601,0,0,0,0,0,0,0,0,0,-1,622,1625,0,0
-595,-601,0,0,0,0,0,0,0,0,0,-1,629,1625,0,0
-588,-601,0,0,0,0,0,0,0,0,0,-1,636,1625,0,0
-581,-601,0,0,0,0,0,0,0,0,0,-1,643,1625,0,0
-574,-601,0,0,0,0,0,0,0,0,0,-1,650,1625,0,0
-567,-601,0,0,0,0,0,0,0,0,0,-1,657,1625,0,0
-560,-601,0,0,0,0,0,0,0,0,0,-1,664,1625,0,0
-553,-601,0,0,0,0,0,0,0,0,0,-1,671,1625,0,0
-546,-601,0,0,0,0,0,0,0,0,0,-1,678,1625,0,0
-539,-601,0,0,0,0,0,0,0,0,0,-1,685,1625,0,0
-532,-601,0,0,0,0,0,0,0,0,0,-1,692,1625,0,0
-525,-601,0,0,0,0,0,0,0,0,0,-1,699,1625,0,0
-518,-601,0,0,0,0,0,0,0,0,0,-1,706,1625,0,0
-511,-601,0,0,0,0,0,0,0,0,0,-1,713,1625,0,0
-504,-601,0,0,0,0,0,0,0,0,0,-1,720,1625,0,0
-497,-601,0,0,0,0,0,0,0,0,0,-1,727,1625,0,0
-490,-601,0,0,0,0,0,0,0,0,0,-1,734,1625,0,0
-483,-601,0,0,0,0,0,0,0,0,0,-1,741,1625,0,0
-476,-601,0,0,0,0,0,0,0,0,0,-1,748,1625,0,0
-469,-601,0,0,0,0,0,0,0,0,0,-1,755,1625,0,0
-462,-601,0,0,0,0,0,0,0,0,0,-1,762,1625,0,0
-455,-601,0,0,0,0,0,0,0,0,0,-1,769,1625,0,0
-448,-601,-7.07623,2.7616,0,0,0,0,0,0,0,-1,776,1625,-7.07626,-2.76161
-441,-601,-6.06689,3.33447,0,0,0,0,0,0,0,-1,783,1625,-6.06691,-3.33448
-434,-601,-5.02655,3.8468,0,0,0,0,0,0,0,-1,790,1625,-5.02657,-3.84674
-427,-601,-5.78601,4.2406,0,0,0,0,0,0,0,-1,797,1625,-5.786,-4.24058
-420,-601,-5.5191,5.60364,0,0,0,0,0,0,0,-1,804,1625,-5.51907,-5.60368
-413,-601,-4.30756,5.86047,0,0,0,0,0,0,0,-1,811,1625,-4.30757,-5.86046
-406,-601,-1.67493,7.20422,0,0,0,0,0,0,0,-1,818,1625,-1.67493,-7.20428
-399,-601,1.40094,15.3108,0,0,0,0,0,0,0,-1,825,1625,1.40096,-15.3107
-392,-601,2.37701,24.3478,0,0,0,0,0,0,0,-1,832,1625,2.37704,-24.3478
-385,-601,2.37341,24.7968,0,0,0,0,0,0,0,-1,839,1625,2.37342,-24.7967
-378,-601,2.36981,25.2456,0,0,0,0,0,0,0,-1,846,1625,2.36979,-25.2456
-371,-601,2.18463,25.4458,-0.00619663,0.00127361,0.000273679,0.00128363,-0.00620665,1.53423,0.0046254,0.0251751,853,1625,2.18464,-25.4458
-364,-601,2.17926,26.0082,-0.00520818,0.000988497,0.000100401,0.000990123,-0.00520981,1.5546,0.00384597,0.0137443,860,1625,2.17924,-26.0082
-357,-601,2.13983,26.5612,-0.00408182,0.000903583,8.61743e-05,0.000905072,-0.0040833,1.55352,0.00306871,0.0106563,867,1625,2.13985,-26.5611
-350,-601,2.15723,27.1161,-0.00296876,0.000869148,0.000151063,0.000875085,-0.00297469,1.53152,0.00233025,0.0214245,874,1625,2.15723,-27.1161
-343,-601,2.10535,27.634,-0.00188,0.0010067,0.00033325,0.00104468,-0.00191797,1.45734,0.00173508,0.023342,881,1625,2.10536,-27.6341
-336,-601,2.05365,28.1163,-0.000764395,0.00128625,0.000661315,0.00148102,-0.000959165,1.28438,0.00141954,0.0200292,888,1625,2.05363,-28.1163
-329,-601,2.06433,28.6208,0.000277539,0.00187682,0.00107194,0.00241452,-0.000260158,1.10586,0.00170303,0.0165443,895,1625,2.06436,-28.6209
-322,-601,2.07507,29.1053,0.00117129,0.0026325,0.00158868,0.00365052,0.000153265,1.00092,0.00238424,0.0132226,902,1625,2.07505,-29.1053
-315,-601,2.07849,29.5538,0.0020008,0.00387336,0.00226122,0.00538448,0.000489684,0.981682,0.00343807,0.0132552,909,1625,2.07851,-29.5538
-308,-601,2.05249,30.031,0.00282519,0.00514003,0.00297312,0.00717308,0.000792145,0.97102,0.00454109,0.0117328,916,1625,2.05249,-30.031
-301,-601,2.04614,30.5175,0.00371737,0.00662307,0.00384611,0.0092816,0.00105885,0.965986,0.00586672,0.0104705,923,1625,2.04612,-30.5174
-294,-601,2.03735,31.0037,0.00475031,0.00838981,0.00499379,0.0118851,0.00125504,0.960122,0.00753994,0.0107006,930,1625,2.03736,-31.0036
-287,-601,1.99713,31.5103,0.00570244,0.0106203,0.00620113,0.0148323,0.00149053,0.974155,0.00943068,0.0113437,937,1625,1.99716,-31.5102
-280,-601,2.01624,32.0211,0.0068249,0.0129246,0.00763071,0.0180924,0.00165714,0.975515,0.0115489,0.0159123,944,1625,2.01626,-32.0211
-273,-601,2.01941,32.525,0.0081893,0.0152245,0.00922039,0.0215755,0.00183831,0.967628,0.0138117,0.0179628,951,1625,2.01939,-32.525
-266,-601,2.06537,33.0031,0.00955027,0.0174854,0.0108141,0.0250368,0.00199885,0.961217,0.0160664,0.0204371,958,1625,2.06537,-33.0031
-259,-601,2.24475,33.3367,0,0,0,0,0,0,0,-1,965,1625,2.24474,-33.3367
-252,-601,2.53564,34.0325,0,0,0,0,0,0,0,-1,972,1625,2.53562,-34.0325
-245,-601,2.82654,34.7284,0,0,0,0,0,0,0,-1,979,1625,2.82651,-34.7284
-238,-601,2.97003,35.9097,0,0,0,0,0,0,0,-1,986,1625,2.97002,-35.9097
-231,-601,2.66772,13.7051,0,0,0,0,0,0,0,-1,993,1625,2.6677,-13.7051
-224,-601,-0.0305176,9.13684,0,0,0,0,0,0,0,-1,1000,1625,-0.030498,-9.13681
-217,-601,3.39429,10.3898,0,0,0,0,0,0,0,-1,1007,1625,3.39431,-10.3898
-210,-601,-6.53699,15.7931,0,0,0,0,0,0,0,-1,1014,1625,-6.53697,-15.7931
-203,-601,2.69348,15.9099,0,0,0,0,0,0,0,-1,1021,1625,2.69351,-15.91
-196,-601,2.66992,16.1815,0,0,0,0,0,0,0,-1,1028,1625,2.66995,-16.1815
-189,-601,2.849,16.6105,0,0,0,0,0,0,0,-1,1035,1625,2.84902,-16.6104
-182,-601,1.82153,13.9752,0,0,0,0,0,0,0,-1,1042,1625,1.82155,-13.9752
-175,-601,0.544922,9.28687,0,0,0,0,0,0,0,-1,1049,1625,0.544879,-9.28685
-168,-601,-0.247559,8.97461,0,0,0,0,0,0,0,-1,1056,1625,-0.247598,-8.97466
-161,-601,-1.16833,8.80078,0,0,0,0,0,0,0,-1,1063,1625,-1.16837,-8.80081
-154,-601,1.12756,7.94861,0,0,0,0,0,0,0,-1,1070,1625,1.12762,-7.94855
-147,-601,1.35352,9.55432,0,0,0,0,0,0,0,-1,1077,1625,1.35351,-9.55429
-140,-601,1.72437,11.1498,0,0,0,0,0,0,0,-1,1084,1625,1.72432,-11.1498
-133,-601,2.13281,12.8347,0,0,0,0,0,0,0,-1,1091,1625,2.13287,-12.8348
-126,-601,3.09534,15.427,0,0,0,0,0,0,0,-1,1098,1625,3.0953,-15.4271
-119,-601,1.22485,9.43457,0,0,0,0,0,0,0,-1,1105,1625,1.22489,-9.43456
-112,-601,0,0,0,0,0,0,0,0,0,-1,1112,1625,0,0
-105,-601,0,0,0,0,0,0,0,0,0,-1,1119,1625,0,0
-98,-601,0,0,0,0,0,0,0,0,0,-1,1126,1625,0,0
-91,-601,0,0,0,0,0,0,0,0,0,-1,1133,1625,0,0
-84,-601,0,0,0,0,0,0,0,0,0,-1,1140,1625,0,0
-77,-601,0,0,0,0,0,0,0,0,0,-1,1147,1625,0,0
-70,-601,0,0,0,0,0,0,0,0,0,-1,1154,1625,0,0
-63,-601,0,0,0,0,0,0,0,0,0,-1,1161,1625,0,0
-56,-601,0,0,0,0,0,0,0,0,0,-1,1168,1625,0,0
-49,-601,0,0,0,0,0,0,0,0,0,-1,1175,1625,0,0
-42,-601,0,0,0,0,0,0,0,0,0,-1,1182,1625,0,0
-35,-601,0,0,0,0,0,0,0,0,0,-1,1189,1625,0,0
-28,-601,0,0,0,0,0,0,0,0,0,-1,1196,1625,0,0
-21,-601,0,0,0,0,0,0,0,0,0,-1,1203,1625,0,0
-14,-601,0,0,0,0,0,0,0,0,0,-1,1210,1625,0,0
-7,-601,0,0,0,0,0,0,0,0,0,-1,1217,1625,0,0
0,-601,0,0,0,0,0,0,0,0,0,-1,1224,1625,0,0
7,-601,0,0,0,0,0,0,0,0,0,-1,1231,1625,0,0
14,-601,0,0,0,0,0,0,0,0,0,-1,1238,1625,0,0
21,-601,0,0,0,0,0,0,0,0,0,-1,1245,1625,0,0
28,-601,0,0,0,0,0,0,0,0,0,-1,1252,1625,0,0
35,-601,0,0,0,0,0,0,0,0,0,-1,1259,1625,0,0
42,-601,0,0,0,0,0,0,0,0,0,-1,1266,1625,0,0
49,-601,0,0,0,0,0,0,0,0,0,-1,1273,1625,0,0
56,-601,0,0,0,0,0,0,0,0,0,-1,1280,1625,0,0
63,-601,0,0,0,0,0,0,0,0,0,-1,1287,1625,0,0
70,-601,0,0,0,0,0,0,0,0,0,-1,1294,1625,0,0
77,-601,0,0,0,0,0,0,0,0,0,-1,1301,1625,0,0
84,-601,0,0,0,0,0,0,0,0,0,-1,1308,1625,0,0
91,-601,0,0,0,0,0,0,0,0,0,-1,1315,1625,0,0
98,-601,0,0,0,0,0,0,0,0,0,-1,1322,1625,0,0
105,-601,0,0,0,0,0,0,0,0,0,-1,1329,1625,0,0
112,-601,0,0,0,0,0,0,0,0,0,-1,1336,1625,0,0
119,-601,0,0,0,0,0,0,0,0,0,-1,1343,1625,0,0
126,-601,0,0,0,0,0,0,0,0,0,-1,1350,1625,0,0
133,-601,0,0,0,0,0,0,0,0,0,-1,1357,1625,0,0
140,-601,0,0,0,0,0,0,0,0,0,-1,1364,1625,0,0
147,-601,0,0,0,0,0,0,0,0,0,-1,1371,1625,0,0
154,-601,0,0,0,0,0,0,0,0,0,-1,1378,1625,0,0
161,-601,0,0,0,0,0,0,0,0,0,-1,1385,1625,0,0
168,-601,0,0,0,0,0,0,0,0,0,-1,1392,1625,0,0
175,-601,0,0,0,0,0,0,0,0,0,-1,1399,1625,0,0
182,-601,0,0,0,0,0,0,0,0,0,-1,1406,1625,0,0
189,-601,0,0,0,0,0,0,0,0,0,-1,1413,1625,0,0
196,-601,0,0,0,0,0,0,0,0,0,-1,1420,1625,0,0
203,-601,0,0,0,0,0,0,0,0,0,-1,1427,1625,0,0
210,-601,0,0,0,0,0,0,0,0,0,-1,1434,1625,0,0
217,-601,0,0,0,0,0,0,0,0,0,-1,1441,1625,0,0
224,-601,0,0,0,0,0,0,0,0,0,-1,1448,1625,0,0
231,-601,-0.0371094,0.525879,0,0,0,0,0,0,0,-1,1455,1625,-0.0371518,-0.525824
238,-601,2.03369,-1.32861,0,0,0,0,0,0,0,-1,1462,1625,2.03364,1.32858
245,-601,2.71375,2.44983,0,0,0,0,0,0,0,-1,1469,1625,2.71371,-2.44979
252,-601,4.66943,2.28381,0,0,0,0,0,0,0,-1,1476,1625,4.66947,-2.28376
259,-601,6.42712,2.61987,0,0,0,0,0,0,0,-1,1483,1625,6.42711,-2.61985
266,-601,6.75317,1.68701,0,0,0,0,0,0,0,-1,1490,1625,6.75323,-1.687
273,-601,5.4314,2.92053,0,0,0,0,0,0,0,-1,1497,1625,5.43144,-2.92051
280,-601,4.64722,1.17786,0,0,0,0,0,0,0,-1,1504,1625,4.64722,-1.1779
287,-601,5.32532,2.6217,0,0,0,0,0,0,0,-1,1511,1625,5.32535,-2.62171
294,-601,5.97693,4.22693,0,0,0,0,0,0,0,-1,1518,1625,5.97697,-4.22694
301,-601,7.28162,9.50024,0,0,0,0,0,0,0,-1,1525,1625,7.28162,-9.50025
308,-601,6.53528,10.3927,0,0,0,0,0,0,0,-1,1532,1625,6.53529,-10.3927
315,-601,4.88013,11.7184,0,0,0,0,0,0,0,-1,1539,1625,4.88015,-11.7184
322,-601,3.38098,12.7864,0,0,0,0,0,0,0,-1,1546,1625,3.38104,-12.7864
329,-601,1.8772,13.8768,0,0,0,0,0,0,0,-1,1553,1625,1.87716,-13.8768
336,-601,4.67847,9.53308,0,0,0,0,0,0,0,-1,1560,1625,4.67848,-9.53309
343,-601,11.1404,3.14575,0,0,0,0,0,0,0,-1,1567,1625,11.1404,-3.1458
350,-601,10.9462,2.37769,0,0,0,0,0,0,0,-1,1574,1625,10.9461,-2.37764
357,-601,10.7518,1.6095,0,0,0,0,0,0,0,-1,1581,1625,10.7518,-1.60948
364,-601,5.33643,9.74426,0,0,0,0,0,0,0,-1,1588,1625,5.33637,-9.74429
371,-601,13.4047,36.1344,0,0,0,0,0,0,0,-1,1595,1625,13.4046,-36.1344
378,-601,14.7881,34.8939,0,0,0,0,0,0,0,-1,1602,1625,14.788,-34.894
385,-601,14.7045,34.53,0.0139714,0.0337547,-0.014607,0.0415042,0.00622196,-1.08302,0.0258463,0.0477877,1609,1625,14.7044,-34.53
392,-601,14.587,33.9623,0.0100025,0.02831,-0.0109804,0.0334517,0.00486084,-1.13286,0.0208704,0.0399528,1616,1625,14.587,-33.9622
399,-601,14.6178,33.4331,0.00678849,0.0237404,-0.0079363,0.0268759,0.00365296,-1.19453,0.0168323,0.0212157,1623,1625,14.6178,-33.4331
406,-601,14.6929,32.8782,0.00424839,0.0199097,-0.00567716,0.0217512,0.00240696,-1.25715,0.0137688,0.0130614,1630,1625,14.6929,-32.8781
413,-601,14.6602,32.4181,0.00249911,0.0166763,-0.00408566,0.0177694,0.00140597,-1.30936,0.0114065,0.0118694,1637,1625,14.6601,-32.4181
420,-601,14.6461,31.9468,0.0013251,0.0141435,-0.00299698,0.0148096,0.000659014,-1.3521,0.00966091,0.0110218,1644,1625,14.6461,-31.9468
427,-601,14.6587,31.5165,0.000151546,0.0116445,-0.00193729,0.0119623,-0.000166224,-1.40822,0.00803083,0.0151412,1651,1625,14.6587,-31.5165
434,-601,14.642,31.0549,-0.000242572,0.0096729,-0.00155565,0.00991124,-0.000480912,-1.41877,0.00677349,0.0159095,1658,1625,14.642,-31.0549
441,-601,14.6533,30.5801,-7.10524e-05,0.00798645,-0.0014607,0.00824307,-0.00032768,-1.39688,0.0056078,0.0178159,1665,1625,14.6533,-30.5801
448,-601,14.6528,30.1244,0.000136923,0.00636111,-0.0013612,0.00664578,-0.000147746,-1.36464,0.00448058,0.0146702,1672,1625,14.6529,-30.1244
455,-601,14.6453,29.6426,0.000166905,0.00475595,-0.00125851,0.00507843,-0.000155572,-1.31996,0.00343865,0.0132873,1679,1625,14.6452,-29.6425
462,-601,14.6216,29.1918,2.46549e-05,0.00322158,-0.00104266,0.00353158,-0.000285344,-1.2818,0.00245504,0.0116724,1686,1625,14.6216,-29.1918
469,-601,14.6147,28.7501,-0.000177437,0.00185892,-0.00078926,0.00212901,-0.000447519,-1.24109,0.00158965,0.0116447,1693,1625,14.6147,-28.7501
476,-601,14.5914,28.2572,-0.000559414,0.000692194,-0.000437103,0.000829731,-0.000696952,-1.26595,0.000882541,0.0145761,1700,1625,14.5914,-28.2572
483,-601,14.5248,27.7712,-0.00115687,-0.000420198,-7.03029e-05,-0.000413549,-0.00116352,-1.4765,0.000681056,0.0183384,1707,1625,14.5248,-27.7712
490,-601,14.5181,27.2916,-0.00200171,-0.00126134,0.000410227,-0.00107896,-0.00218408,1.15247,0.00126101,0.0138685,1714,1625,14.518,-27.2917
497,-601,14.519,26.7906,-0.0029954,-0.00194119,0.000841517,-0.00147532,-0.00346126,1.06519,0.0020056,0.0116751,1721,1625,14.5191,-26.7907
504,-601,14.5475,26.2664,-0.00417516,-0.00262433,0.00164556,-0.00158064,-0.00521885,1.00558,0.00309018,0.0211736,1728,1625,14.5474,-26.2663
511,-601,14.4287,25.8417,-0.00556328,-0.00423672,0.00287444,-0.00195002,-0.00784998,0.898789,0.00471956,0.0355941,1735,1625,14.4287,-25.8417
518,-601,14.2892,25.2102,-0.00701571,-0.00548666,0.00400312,-0.0021757,-0.0103267,0.879753,0.00628599,0.0454444,1742,1625,14.2891,-25.2102
525,-601,14.2767,24.6294,0,0,0,0,0,0,0,-1,1749,1625,14.2767,-24.6294
532,-601,15.9272,20.312,0,0,0,0,0,0,0,-1,1756,1625,15.9273,-20.312
539,-601,7.77112,11.4299,0,0,0,0,0,0,0,-1,1763,1625,7.77116,-11.4299
546,-601,6.56873,3.62354,0,0,0,0,0,0,0,-1,1770,1625,6.56867,-3.62352
553,-601,7.03015,4.25049,0,0,0,0,0,0,0,-1,1777,1625,7.03011,-4.25048
560,-601,7.50745,4.83374,0,0,0,0,0,0,0,-1,1784,1625,7.50744,-4.83376
567,-601,7.82043,3.83301,0,0,0,0,0,0,0,-1,1791,1625,7.82041,-3.83303
574,-601,0,0,0,0,0,0,0,0,0,-1,1798,1625,0,0
581,-601,0,0,0,0,0,0,0,0,0,-1,1805,1625,0,0
588,-601,0,0,0,0,0,0,0,0,0,-1,1812,1625,0,0
595,-601,0,0,0,0,0,0,0,0,0,-1,1819,1625,0,0
602,-601,0,0,0,0,0,0,0,0,0,-1,1826,1625,0,0
609,-601,0,0,0,0,0,0,0,0,0,-1,1833,1625,0,0
616,-601,0,0,0,0,0,0,0,0,0,-1,1840,1625,0,0
623,-601,0,0,0,0,0,0,0,0,0,-1,1847,1625,0,0
630,-601,0,0,0,0,0,0,0,0,0,-1,1854,1625,0,0
637,-601,0,0,0,0,0,0,0,0,0,-1,1861,1625,0,0
644,-601,0,0,0,0,0,0,0,0,0,-1,1868,1625,0,0
651,-601,0,0,0,0,0,0,0,0,0,-1,1875,1625,0,0
658,-601,0,0,0,0,0,0,0,0,0,-1,1882,1625,0,0
665,-601,0,0,0,0,0,0,0,0,0,-1,1889,1625,0,0
672,-601,0,0,0,0,0,0,0,0,0,-1,1896,1625,0,0
679,-601,0,0,0,0,0,0,0,0,0,-1,1903,1625,0,0
686,-601,0,0,0,0,0,0,0,0,0,-1,1910,1625,0,0
693,-601,0,0,0,0,0,0,0,0,0,-1,1917,1625,0,0
700,-601,0,0,0,0,0,0,0,0,0,-1,1924,1625,0,0
707,-601,0,0,0,0,0,0,0,0,0,-1,1931,1625,0,0
714,-601,0,0,0,0,0,0,0,0,0,-1,1938,1625,0,0
721,-601,0,0,0,0,0,0,0,0,0,-1,1945,1625,0,0
728,-601,0,0,0,0,0,0,0,0,0,-1,1952,1625,0,0
735,-601,0,0,0,0,0,0,0,0,0,-1,1959,1625,0,0
742,-601,0,0,0,0,0,0,0,0,0,-1,1966,1625,0,0
749,-601,0,0,0,0,0,0,0,0,0,-1,1973,1625,0,0
756,-601,0,0,0,0,0,0,0,0,0,-1,1980,1625,0,0
763,-601,0,0,0,0,0,0,0,0,0,-1,1987,1625,0,0
770,-601,0,0,0,0,0,0,0,0,0,-1,1994,1625,0,0
777,-601,0,0,0,0,0,0,0,0,0,-1,2001,1625,0,0
784,-601,0,0,0,0,0,0,0,0,0,-1,2008,1625,0,0
791,-601,0,0,0,0,0,0,0,0,0,-1,2015,1625,0,0
798,-601,0,0,0,0,0,0,0,0,0,-1,2022,1625,0,0
805,-601,0,0,0,0,0,0,0,0,0,-1,2029,1625,0,0
812,-601,0,0,0,0,0,0,0,0,0,-1,2036,1625,0,0
-700,-608,0,0,0,0,0,0,0,0,0,-1,524,1632,0,0
-693,-608,0,0,0,0,0,0,0,0,0,-1,531,1632,0,0
-686,-608,0,0,0,0,0,0,0,0,0,-1,538,1632,0,0
-679,-608,0,0,0,0,0,0,0,0,0,-1,545,1632,0,0
-672,-608,0,0,0,0,0,0,0,0,0,-1,552,1632,0,0
-665,-608,0,0,0,0,0,0,0,0,0,-1,559,1632,0,0
-658,-608,0,0,0,0,0,0,0,0,0,-1,566,1632,0,0
-651,-608,0,0,0,0,0,0,0,0,0,-1,573,1632,0,0
-644,-608,0,0,0,0,0,0,0,0,0,-1,580,1632,0,0
-637,-608,0,0,0,0,0,0,0,0,0,-1,587,1632,0,0
-630,-608,0,0,0,0,0,0,0,0,0,-1,594,1632,0,0
-623,-608,0,0,0,0,0,0,0,0,0,-1,601,1632,0,0
-616,-608,0,0,0,0,0,0,0,0,0,-1,608,1632,0,0
-609,-608,0,0,0,0,0,0,0,0,0,-1,615,1632,0,0
-602,-608,0,0,0,0,0,0,0,0,0,-1,622,1632,0,0
-595,-608,0,0,0,0,0,0,0,0,0,-1,629,1632,0,0
-588,-608,0,0,0,0,0,0,0,0,0,-1,636,1632,0,0
-581,-608,0,0,0,0,0,0,0,0,0,-1,643,1632,0,0
-574,-608,0,0,0,0,0,0,0,0,0,-1,650,1632,0,0
-567,-608,0,0,0,0,0,0,0,0,0,-1,657,1632,0,0
-560,-608,0,0,0,0,0,0,0,0,0,-1,664,1632,0,0
-553,-608,0,0,0,0,0,0,0,0,0,-1,671,1632,0,0
-546,-608,0,0,0,0,0,0,0,0,0,-1,678,1632,0,0
-539,-608,0,0,0,0,0,0,0,0,0,-1,685,1632,0,0
-532,-608,0,0,0,0,0,0,0,0,0,-1,692,1632,0,0
-525,-608,0,0,0,0,0,0,0,0,0,-1,699,1632,0,0
-518,-608,0,0,0,0,0,0,0,0,0,-1,706,1632,0,0
-511,-608,0,0,0,0,0,0,0,0,0,-1,713,1632,0,0
-504,-608,0,0,0,0,0,0,0,0,0,-1,720,1632,0,0
-497,-608,0,0,0,0,0,0,0,0,0,-1,727,1632,0,0
-490,-608,0,0,0,0,0,0,0,0,0,-1,734,1632,0,0
-483,-608,0,0,0,0,0,0,0,0,0,-1,741,1632,0,0
-476,-608,0,0,0,0,0,0,0,0,0,-1,748,1632,0,0
-469,-608,0,0,0,0,0,0,0,0,0,-1,755,1632,0,0
-462,-608,0,0,0,0,0,0,0,0,0,-1,762,1632,0,0
-455,-608,0,0,0,0,0,0,0,0,0,-1,769,1632,0,0
-448,-608,0,0,0,0,0,0,0,0,0,-1,776,1632,0,0
-441,-608,-7.34601,2.78052,0,0,0,0,0,0,0,-1,783,1632,-7.346,-2.78056
-434,-608,-6.34558,3.27405,0,0,0,0,0,0,0,-1,790,1632,-6.34555,-3.27406
-427,-608,-7.74335,4.17688,0,0,0,0,0,0,0,-1,797,1632,-7.74334,-4.17693
-420,-608,-6.82794,4.34839,0,0,0,0,0,0,0,-1,804,1632,-6.82794,-4.34838
-413,-608,-5.41919,5.66138,0,0,0,0,0,0,0,-1,811,1632,-5.41917,-5.66133
-406,-608,-4.79681,4.98999,0,0,0,0,0,0,0,-1,818,1632,-4.79684,-4.98997
-399,-608,-2.60645,6.34167,0,0,0,0,0,0,0,-1,825,1632,-2.60643,-6.34169
-392,-608,2.08356,15.437,0,0,0,0,0,0,0,-1,832,1632,2.08354,-15.437
-385,-608,3.01709,25.0293,0,0,0,0,0,0,0,-1,839,1632,3.0171,-25.0293
-378,-608,2.8407,25.0438,0,0,0,0,0,0,0,-1,846,1632,2.84072,-25.0439
-371,-608,2.6452,25.2465,0,0,0,0,0,0,0,-1,853,1632,2.64519,-25.2465
-364,-608,2.75647,25.8865,-0.00747342,0.00167792,-0.000206475,0.00168258,-0.00747808,-1.54825,0.00563068,0.0307197,860,1632,2.75648,-25.8865
-357,-608,2.64435,26.5173,-0.0060909,0.00141407,-0.000175561,0.00141817,-0.006095,-1.54742,0.00460936,0.0202879,867,1632,2.64437,-26.5173
-350,-608,2.65393,27.095,-0.00477789,0.00131374,-6.46448e-05,0.00131442,-0.00477857,-1.56019,0.00370246,0.0186958,874,1632,2.65392,-27.0949
-343,-608,2.62744,27.6025,-0.00350611,0.00129626,0.000117178,0.00129912,-0.00350897,1.54642,0.00287202,0.0250329,881,1632,2.62747,-27.6025
-336,-608,2.5943,28.1451,-0.00223341,0.00133255,0.000410186,0.00137913,-0.00227998,1.45774,0.00213382,0.017778,888,1632,2.59432,-28.1451
-329,-608,2.55988,28.6488,-0.00109434,0.00176156,0.000769647,0.00195577,-0.00128855,1.32362,0.00188626,0.0159385,895,1632,2.55985,-28.6489
-322,-608,2.54596,29.0974,-0.000137729,0.00225434,0.00117762,0.00273678,-0.00062017,1.18198,0.00206256,0.0158087,902,1632,2.54594,-29.0975
-315,-608,2.55554,29.556,0.000718297,0.00312021,0.0016948,0.00399642,-0.000157919,1.09364,0.00271845,0.0144186,909,1632,2.55553,-29.556
-308,-608,2.53381,30.049,0.00155862,0.00403845,0.00223059,0.00535057,0.000246495,1.03907,0.00348779,0.0139963,916,1632,2.53378,-30.0489
-301,-608,2.51526,30.535,0.00242706,0.00512509,0.0028861,0.00696189,0.000590268,1.00402,0.00445755,0.0107341,923,1632,2.51526,-30.5351
-294,-608,2.51459,31.0201,0.0033939,0.00644629,0.00377208,0.00898923,0.000850956,0.977632,0.00573027,0.0108479,930,1632,2.5146,-31.0201
-287,-608,2.49066,31.5018,0.00431768,0.00806293,0.00469211,0.0112423,0.00113831,0.975264,0.00714572,0.0102867,937,1632,2.49064,-31.5018
-280,-608,2.49585,31.9586,0.00531997,0.00974325,0.00572729,0.0136711,0.00139213,0.969657,0.00868728,0.00858236,944,1632,2.49587,-31.9586
-273,-608,2.487,32.436,0.00645494,0.0113353,0.0068558,0.0161722,0.00161798,0.95637,0.0102847,0.0101212,951,1632,2.487,-32.4361
-266,-608,2.50684,32.9325,0.0075724,0.012913,0.00797461,0.0186525,0.00183288,0.946955,0.0118713,0.0113188,958,1632,2.50685,-32.9325
-259,-608,2.58148,33.4028,0.00886141,0.0144402,0.00916044,0.0212265,0.00207508,0.93319,0.0135125,0.0157555,965,1632,2.58149,-33.4028
-252,-608,2.71448,33.8961,0.0104041,0.0160556,0.0103355,0.0239446,0.00251501,0.918839,0.0151943,0.0311293,972,1632,2.7145,-33.8961
-245,-608,2.93237,34.5162,0.0119054,0.0177493,0.0114744,0.0266679,0.0029867,0.910073,0.0168714,0.0424889,979,1632,2.93237,-34.5162
-238,-608,3.17694,35.1597,0,0,0,0,0,0,0,-1,986,1632,3.17691,-35.1597
-231,-608,3.26025,27.5262,0,0,0,0,0,0,0,-1,993,1632,3.26023,-27.5263
-224,-608,2.51642,15.3452,0,0,0,0,0,0,0,-1,1000,1632,2.5164,-15.3452
-217,-608,1.04419,12.8451,0,0,0,0,0,0,0,-1,1007,1632,1.04418,-12.8451
-210,-608,2.75903,15.9414,0,0,0,0,0,0,0,-1,1014,1632,2.75903,-15.9414
-203,-608,2.76776,16.217,0,0,0,0,0,0,0,-1,1021,1632,2.76773,-16.217
-196,-608,1.53955,18.6058,0,0,0,0,0,0,0,-1,1028,1632,1.53959,-18.6058
-189,-608,1.37634,19.119,0,0,0,0,0,0,0,-1,1035,1632,1.37634,-19.1191
-182,-608,2.89221,16.7092,0,0,0,0,0,0,0,-1,1042,1632,2.89224,-16.7093
-175,-608,0.219116,15.1643,0,0,0,0,0,0,0,-1,1049,1632,0.219173,-15.1644
-168,-608,0.000366211,9.48645,0,0,0,0,0,0,0,-1,1056,1632,0.000317105,-9.48648
-161,-608,2.27832,15.4423,0,0,0,0,0,0,0,-1,1063,1632,2.27826,-15.4423
-154,-608,1.3999,16.4037,0,0,0,0,0,0,0,-1,1070,1632,1.39987,-16.4037
-147,-608,2.4386,9.50317,0,0,0,0,0,0,0,-1,1077,1632,2.43858,-9.50313
-140,-608,2.60132,10.8401,0,0,0,0,0,0,0,-1,1084,1632,2.60134,-10.8401
-133,-608,3.2312,12.4738,0,0,0,0,0,0,0,-1,1091,1632,3.23116,-12.4738
-126,-608,3.76465,13.9644,0,0,0,0,0,0,0,-1,1098,1632,3.76466,-13.9644
-119,-608,4.28906,15.4196,0,0,0,0,0,0,0,-1,1105,1632,4.28911,-15.4195
-112,-608,0.745117,10.5587,0,0,0,0,0,0,0,-1,1112,1632,0.745145,-10.5587
-105,-608,-0.252319,1.42419,0,0,0,0,0,0,0,-1,1119,1632,-0.252331,-1.42418
-98,-608,-2.8595,3.0863,0,0,0,0,0,0,0,-1,1126,1632,-2.85948,-3.08625
-91,-608,-3.71948,1.73608,0,0,0,0,0,0,0,-1,1133,1632,-3.7195,-1.73607
-84,-608,0,0,0,0,0,0,0,0,0,-1,1140,1632,0,0
-77,-608,0,0,0,0,0,0,0,0,0,-1,1147,1632,0,0
-70,-608,0,0,0,0,0,0,0,0,0,-1,1154,1632,0,0
-63,-608,0,0,0,0,0,0,0,0,0,-1,1161,1632,0,0
-56,-608,0,0,0,0,0,0,0,0,0,-1,1168,1632,0,0
-49,-608,0,0,0,0,0,0,0,0,0,-1,1175,1632,0,0
-42,-608,0,0,0,0,0,0,0,0,0,-1,1182,1632,0,0
-35,-608,0,0,0,0,0,0,0,0,0,-1,1189,1632,0,0
-28,-608,0,0,0,0,0,0,0,0,0,-1,1196,1632,0,0
-21,-608,0,0,0,0,0,0,0,0,0,-1,1203,1632,0,0
-14,-608,0,0,0,0,0,0,0,0,0,-1,1210,1632,0,0
-7,-608,0,0,0,0,0,0,0,0,0,-1,1217,1632,0,0
0,-608,0,0,0,0,0,0,0,0,0,-1,1224,1632,0,0
7,-608,0,0,0,0,0,0,0,0,0,-1,1231,1632,0,0
14,-608,0,0,0,0,0,0,0,0,0,-1,1238,1632,0,0
21,-608,0,0,0,0,0,0,0,0,0,-1,1245,1632,0,0
28,-608,0,0,0,0,0,0,0,0,0,-1,1252,1632,0,0
35,-608,0,0,0,0,0,0,0,0,0,-1,1259,1632,0,0
42,-608,0,0,0,0,0,0,0,0,0,-1,1266,1632,0,0
49,-608,0,0,0,0,0,0,0,0,0,-1,1273,1632,0,0
56,-608,0,0,0,0,0,0,0,0,0,-1,1280,1632,0,0
63,-608,0,0,0,0,0,0,0,0,0,-1,1287,1632,0,0
70,-608,0,0,0,0,0,0,0,0,0,-1,1294,1632,0,0
77,-608,0,0,0,0,0,0,0,0,0,-1,1301,1632,0,0
84,-608,0,0,0,0,0,0,0,0,0,-1,1308,1632,0,0
91,-608,0,0,0,0,0,0,0,0,0,-1,1315,1632,0,0
98,-608,0,0,0,0,0,0,0,0,0,-1,1322,1632,0,0
105,-608,0,0,0,0,0,0,0,0,0,-1,1329,1632,0,0
112,-608,0,0,0,0,0,0,0,0,0,-1,1336,1632,0,0
119,-608,0,0,0,0,0,0,0,0,0,-1,1343,1632,0,0
126,-608,0,0,0,0,0,0,0,0,0,-1,1350,1632,0,0
133,-608,0,0,0,0,0,0,0,0,0,-1,1357,1632,0,0
140,-608,0,0,0,0,0,0,0,0,0,-1,1364,1632,0,0
147,-608,0,0,0,0,0,0,0,0,0,-1,1371,1632,0,0
154,-608,0,0,0,0,0,0,0,0,0,-1,1378,1632,0,0
161,-608,0,0,0,0,0,0,0,0,0,-1,1385,1632,0,0
168,-608,0,0,0,0,0,0,0,0,0,-1,1392,1632,0,0
175,-608,0,0,0,0,0,0,0,0,0,-1,1399,1632,0,0
182,-608,0,0,0,0,0,0,0,0,0,-1,1406,1632,0,0
189,-608,0,0,0,0,0,0,0,0,0,-1,1413,1632,0,0
196,-608,0,0,0,0,0,0,0,0,0,-1,1420,1632,0,0
203,-608,0,0,0,0,0,0,0,0,0,-1,1427,1632,0,0
210,-608,5.7157,-0.333008,0,0,0,0,0,0,0,-1,1434,1632,5.71566,0.333004
217,-608,4.49402,-0.831787,0,0,0,0,0,0,0,-1,1441,1632,4.49396,0.831738
224,-608,4.18018,-1.11792,0,0,0,0,0,0,0,-1,1448,1632,4.1802,1.11796
231,-608,0.361816,0.825195,0,0,0,0,0,0,0,-1,1455,1632,0.36185,-0.825226
238,-608,2.85388,-0.28833,0,0,0,0,0,0,0,-1,1462,1632,2.85391,0.288282
245,-608,3.87537,4.02173,0,0,0,0,0,0,0,-1,1469,1632,3.87538,-4.02168
252,-608,5.66956,3.5282,0,0,0,0,0,0,0,-1,1476,1632,5.6696,-3.52815
259,-608,7.47437,3.07178,0,0,0,0,0,0,0,-1,1483,1632,7.4744,-3.07172
266,-608,9.46936,2.34766,0,0,0,0,0,0,0,-1,1490,1632,9.46932,-2.34764
273,-608,6.03003,3.34241,0,0,0,0,0,0,0,-1,1497,1632,6.02997,-3.34245
280,-608,5.72461,2.0769,0,0,0,0,0,0,0,-1,1504,1632,5.72457,-2.07688
287,-608,6.20581,3.59338,0,0,0,0,0,0,0,-1,1511,1632,6.20585,-3.59341
294,-608,6.94922,5.17151,0,0,0,0,0,0,0,-1,1518,1632,6.94925,-5.17151
301,-608,7.60083,6.68018,0,0,0,0,0,0,0,-1,1525,1632,7.60086,-6.68013
308,-608,7.64746,9.93848,0,0,0,0,0,0,0,-1,1532,1632,7.64745,-9.93842
315,-608,5.30688,11.2054,0,0,0,0,0,0,0,-1,1539,1632,5.30694,-11.2054
322,-608,5.32617,13.7581,0,0,0,0,0,0,0,-1,1546,1632,5.32613,-13.758
329,-608,7.12231,13.9607,0,0,0,0,0,0,0,-1,1553,1632,7.12231,-13.9607
336,-608,5.48633,7.82446,0,0,0,0,0,0,0,-1,1560,1632,5.48634,-7.82446
343,-608,5.47192,5.61047,0,0,0,0,0,0,0,-1,1567,1632,5.47192,-5.61045
350,-608,11.6957,1.71387,0,0,0,0,0,0,0,-1,1574,1632,11.6957,-1.71388
357,-608,3.77002,5.10046,0,0,0,0,0,0,0,-1,1581,1632,3.77002,-5.10043
364,-608,13.2234,36.9875,0,0,0,0,0,0,0,-1,1588,1632,13.2234,-36.9876
371,-608,13.463,35.9806,0.0196991,0.0366134,-0.0190523,0.0490013,0.00731126,-0.994279,0.0305237,0.046912,1595,1632,13.463,-35.9806
378,-608,14.049,35.014,0.0155237,0.0317363,-0.0150911,0.0407605,0.00649953,-1.03186,0.0252872,0.0379865,1602,1632,14.0489,-35.0141
385,-608,14.2596,34.3479,0.0119326,0.0267706,-0.0117568,0.0332535,0.00544969,-1.06686,0.0205942,0.0332759,1609,1632,14.2597,-34.3479
392,-608,14.1932,33.7667,0.00892814,0.022365,-0.00900622,0.0268827,0.00441051,-1.10586,0.0166475,0.0232746,1616,1632,14.1932,-33.7667
399,-608,14.2175,33.2598,0.0063331,0.0185478,-0.00658925,0.0214248,0.00345614,-1.15913,0.0132819,0.0106464,1623,1632,14.2175,-33.2598
406,-608,14.2299,32.8168,0.0042006,0.0153838,-0.0047509,0.0171296,0.00245483,-1.21865,0.0106958,0.00897057,1630,1632,14.2298,-32.8168
413,-608,14.2078,32.3887,0.00265365,0.0126187,-0.00337838,0.013656,0.00161629,-1.27288,0.00861594,0.0101099,1637,1632,14.2077,-32.3887
420,-608,14.1925,31.9554,0.00155461,0.0104905,-0.00242272,0.0111051,0.000940025,-1.32236,0.00711079,0.0184875,1644,1632,14.1925,-31.9554
427,-608,14.2018,31.5187,0.000422681,0.00836197,-0.00147413,0.00862684,0.00015781,-1.39301,0.00569935,0.0200036,1651,1632,14.2017,-31.5186
434,-608,14.1871,31.0759,-5.20595e-05,0.00675532,-0.00113084,0.00693826,-0.000234998,-1.41041,0.0047058,0.016083,1658,1632,14.1871,-31.0759
441,-608,14.1768,30.6199,-2.56193e-05,0.00541576,-0.00104587,0.00560986,-0.00021972,-1.3873,0.00381525,0.0145075,1665,1632,14.1767,-30.6199
448,-608,14.1945,30.1489,4.65448e-05,0.004108,-0.000949288,0.00431892,-0.000164379,-1.35216,0.00293561,0.0154113,1672,1632,14.1945,-30.149
455,-608,14.1989,29.6775,-1.46591e-05,0.0028017,-0.000859144,0.0030431,-0.000256054,-1.29689,0.00211925,0.0119711,1679,1632,14.1988,-29.6774
462,-608,14.1732,29.2118,-0.000276285,0.00150916,-0.000635609,0.00171231,-0.000479443,-1.26143,0.00133047,0.0116582,1686,1632,14.1732,-29.2119
469,-608,14.1329,28.7625,-0.000589492,0.000372654,-0.000385226,0.000507885,-0.000724723,-1.23319,0.000715307,0.00904808,1693,1632,14.1329,-28.7625
476,-608,14.0985,28.2928,-0.00107294,-0.000635434,-2.98345e-05,-0.000633409,-0.00107496,-1.50302,0.000623916,0.00961876,1700,1632,14.0985,-28.2928
483,-608,14.0834,27.8013,-0.0018565,-0.001456,0.000395299,-0.00121312,-0.00209938,1.01985,0.00121696,0.00953907,1707,1632,14.0834,-27.8013
490,-608,14.0854,27.3135,-0.00289042,-0.00216731,0.000908689,-0.00155089,-0.00350684,0.974739,0.00202917,0.0103512,1714,1632,14.0855,-27.3135
497,-608,14.0927,26.8077,-0.0040244,-0.00278949,0.00132902,-0.0019415,-0.0048724,1.00286,0.00283235,0.0217007,1721,1632,14.0926,-26.8077
504,-608,14.0406,26.3611,-0.00542558,-0.0033603,0.00218248,-0.00197849,-0.0068074,1.00637,0.00404347,0.0499183,1728,1632,14.0406,-26.361
511,-608,13.7434,25.9526,-0.00715975,-0.00501617,0.00346119,-0.00246463,-0.00971129,0.935545,0.005829,0.0497621,1735,1632,13.7434,-25.9527
518,-608,13.484,25.4677,0,0,0,0,0,0,0,-1,1742,1632,13.484,-25.4676
525,-608,11.2109,16.2579,0,0,0,0,0,0,0,-1,1749,1632,11.2109,-16.2579
532,-608,8.27917,11.6693,0,0,0,0,0,0,0,-1,1756,1632,8.27919,-11.6694
539,-608,9.40796,1.43457,0,0,0,0,0,0,0,-1,1763,1632,9.40801,-1.43463
546,-608,9.94031,2.1134,0,0,0,0,0,0,0,-1,1770,1632,9.94031,-2.11346
553,-608,10.363,2.81335,0,0,0,0,0,0,0,-1,1777,1632,10.3631,-2.81333
560,-608,9.23999,4.5636,0,0,0,0,0,0,0,-1,1784,1632,9.24,-4.56354
567,-608,0,0,0,0,0,0,0,0,0,-1,1791,1632,0,0
574,-608,0,0,0,0,0,0,0,0,0,-1,1798,1632,0,0
581,-608,0,0,0,0,0,0,0,0,0,-1,1805,1632,0,0
588,-608,0,0,0,0,0,0,0,0,0,-1,1812,1632,0,0
595,-608,0,0,0,0,0,0,0,0,0,-1,1819,1632,0,0
602,-608,0,0,0,0,0,0,0,0,0,-1,1826,1632,0,0
609,-608,0,0,0,0,0,0,0,0,0,-1,1833,1632,0,0
616,-608,0,0,0,0,0,0,0,0,0,-1,1840,1632,0,0
623,-608,0,0,0,0,0,0,0,0,0,-1,1847,1632,0,0
630,-608,0,0,0,0,0,0,0,0,0,-1,1854,1632,0,0
637,-608,0,0,0,0,0,0,0,0,0,-1,1861,1632,0,0
644,-608,0,0,0,0,0,0,0,0,0,-1,1868,1632,0,0
651,-608,0,0,0,0,0,0,0,0,0,-1,1875,1632,0,0
658,-608,0,0,0,0,0,0,0,0,0,-1,1882,1632,0,0
665,-608,0,0,0,0,0,0,0,0,0,-1,1889,1632,0,0
672,-608,0,0,0,0,0,0,0,0,0,-1,1896,1632,0,0
679,-608,0,0,0,0,0,0,0,0,0,-1,1903,1632,0,0
686,-608,0,0,0,0,0,0,0,0,0,-1,1910,1632,0,0
693,-608,0,0,0,0,0,0,0,0,0,-1,1917,1632,0,0
700,-608,0,0,0,0,0,0,0,0,0,-1,1924,1632,0,0
707,-608,0,0,0,0,0,0,0,0,0,-1,1931,1632,0,0
714,-608,0,0,0,0,0,0,0,0,0,-1,1938,1632,0,0
721,-608,0,0,0,0,0,0,0,0,0,-1,1945,1632,0,0
728,-608,0,0,0,0,0,0,0,0,0,-1,1952,1632,0,0
735,-608,0,0,0,0,0,0,0,0,0,-1,1959,1632,0,0
742,-608,0,0,0,0,0,0,0,0,0,-1,1966,1632,0,0
749,-608,0,0,0,0,0,0,0,0,0,-1,1973,1632,0,0
756,-608,0,0,0,0,0,0,0,0,0,-1,1980,1632,0,0
763,-608,0,0,0,0,0,0,0,0,0,-1,1987,1632,0,0
770,-608,0,0,0,0,0,0,0,0,0,-1,1994,1632,0,0
777,-608,0,0,0,0,0,0,0,0,0,-1,2001,1632,0,0
784,-608,0,0,0,0,0,0,0,0,0,-1,2008,1632,0,0
791,-608,0,0,0,0,0,0,0,0,0,-1,2015,1632,0,0
798,-608,0,0,0,0,0,0,0,0,0,-1,2022,1632,0,0
805,-608,0,0,0,0,0,0,0,0,0,-1,2029,1632,0,0
812,-608,0,0,0,0,0,0,0,0,0,-1,2036,1632,0,0
-700,-615,0,0,0,0,0,0,0,0,0,-1,524,1639,0,0
-693,-615,0,0,0,0,0,0,0,0,0,-1,531,1639,0,0
-686,-615,0,0,0,0,0,0,0,0,0,-1,538,1639,0,0
-679,-615,0,0,0,0,0,0,0,0,0,-1,545,1639,0,0
-672,-615,0,0,0,0,0,0,0,0,0,-1,552,1639,0,0
-665,-615,0,0,0,0,0,0,0,0,0,-1,559,1639,0,0
-658,-615,0,0,0,0,0,0,0,0,0,-1,566,1639,0,0
-651,-615,0,0,0,0,0,0,0,0,0,-1,573,1639,0,0
-644,-615,0,0,0,0,0,0,0,0,0,-1,580,1639,0,0
-637,-615,0,0,0,0,0,0,0,0,0,-1,587,1639,0,0
-630,-615,0,0,0,0,0,0,0,0,0,-1,594,1639,0,0
-623,-615,0,0,0,0,0,0,0,0,0,-1,601,1639,0,0
-616,-615,0,0,0,0,0,0,0,0,0,-1,608,1639,0,0
-609,-615,0,0,0,0,0,0,0,0,0,-1,615,1639,0,0
-602,-615,0,0,0,0,0,0,0,0,0,-1,622,1639,0,0
-595,-615,0,0,0,0,0,0,0,0,0,-1,629,1639,0,0
-588,-615,0,0,0,0,0,0,0,0,0,-1,636,1639,0,0
-581,-615,0,0,0,0,0,0,0,0,0,-1,643,1639,0,0
-574,-615,0,0,0,0,0,0,0,0,0,-1,650,1639,0,0
-567,-615,0,0,0,0,0,0,0,0,0,-1,657,1639,0,0
-560,-615,0,0,0,0,0,0,0,0,0,-1,664,1639,0,0
-553,-615,0,0,0,0,0,0,0,0,0,-1,671,1639,0,0
-546,-615,0,0,0,0,0,0,0,0,0,-1,678,1639,0,0
-539,-615,0,0,0,0,0,0,0,0,0,-1,685,1639,0,0
-532,-615,0,0,0,0,0,0,0,0,0,-1,692,1639,0,0
-525,-615,0,0,0,0,0,0,0,0,0,-1,699,1639,0,0
-518,-615,0,0,0,0,0,0,0,0,0,-1,706,1639,0,0
-511,-615,0,0,0,0,0,0,0,0,0,-1,713,1639,0,0
-504,-615,0,0,0,0,0,0,0,0,0,-1,720,1639,0,0
-497,-615,0,0,0,0,0,0,0,0,0,-1,727,1639,0,0
-490,-615,0,0,0,0,0,0,0,0,0,-1,734,1639,0,0
-483,-615,0,0,0,0,0,0,0,0,0,-1,741,1639,0,0
-476,-615,0,0,0,0,0,0,0,0,0,-1,748,1639,0,0
-469,-615,0,0,0,0,0,0,0,0,0,-1,755,1639,0,0
-462,-615,0,0,0,0,0,0,0,0,0,-1,762,1639,0,0
-455,-615,0,0,0,0,0,0,0,0,0,-1,769,1639,0,0
-448,-615,0,0,0,0,0,0,0,0,0,-1,776,1639,0,0
-441,-615,0,0,0,0,0,0,0,0,0,-1,783,1639,0,0
-434,-615,-7.64508,2.98596,0,0,0,0,0,0,0,-1,790,1639,-7.64505,-2.98594
-427,-615,-9.0011,2.89404,0,0,0,0,0,0,0,-1,797,1639,-9.00107,-2.89399
-420,-615,-8.07568,3.0752,0,0,0,0,0,0,0,-1,804,1639,-8.07569,-3.07514
-413,-615,-7.09149,3.396,0,0,0,0,0,0,0,-1,811,1639,-7.09147,-3.39599
-406,-615,-6.21368,3.7312,0,0,0,0,0,0,0,-1,818,1639,-6.21366,-3.73114
-399,-615,-4.84875,3.91907,0,0,0,0,0,0,0,-1,825,1639,-4.84877,-3.91901
-392,-615,1.7395,13.3127,0,0,0,0,0,0,0,-1,832,1639,1.73953,-13.3128
-385,-615,3.42297,14.9401,0,0,0,0,0,0,0,-1,839,1639,3.42296,-14.94
-378,-615,2.54102,17.2609,0,0,0,0,0,0,0,-1,846,1639,2.54099,-17.2608
-371,-615,3.35449,25.2009,0,0,0,0,0,0,0,-1,853,1639,3.35446,-25.2009
-364,-615,3.18018,26.0839,0,0,0,0,0,0,0,-1,860,1639,3.18015,-26.0839
-357,-615,3.09058,26.5487,0,0,0,0,0,0,0,-1,867,1639,3.0906,-26.5487
-350,-615,3.151,27.14,-0.00683405,0.00219824,-0.000182077,0.00220191,-0.00683772,-1.55065,0.00544299,0.0299148,874,1639,3.15097,-27.14
-343,-615,3.11688,27.5874,-0.00525299,0.00210064,0.000114969,0.00210243,-0.00525479,1.55517,0.00437573,0.0198444,881,1639,3.11687,-27.5874
-336,-615,3.112,28.1139,-0.00374414,0.00194777,0.000436126,0.001981,-0.00377736,1.49477,0.00337808,0.0112777,888,1639,3.112,-28.1139
-329,-615,3.06097,28.6149,-0.00244763,0.00223615,0.000790281,0.0023659,-0.00257738,1.40807,0.00285487,0.0113623,895,1639,3.06097,-28.6149
-322,-615,3.04779,29.1066,-0.00137165,0.00249104,0.0011307,0.00279768,-0.00167829,1.30597,0.002611,0.0124457,902,1639,3.04778,-29.1066
-315,-615,3.05176,29.6152,-0.00044626,0.00300259,0.0015183,0.00357575,-0.00101942,1.20984,0.0027865,0.0147279,909,1639,3.05176,-29.6153
-308,-615,3.00378,30.099,0.000434139,0.00359304,0.00189354,0.00447939,-0.000452206,1.133,0.00314784,0.0207519,916,1639,3.00377,-30.099
-301,-615,3.00806,30.5623,0.00129011,0.00428945,0.00233068,0.00556126,1.83028e-05,1.07128,0.00370142,0.0130928,923,1639,3.00807,-30.5623
-294,-615,2.99225,31.0468,0.00219966,0.0051708,0.00294688,0.00698538,0.000385074,1.01887,0.00453402,0.010902,930,1639,2.99223,-31.0468
-287,-615,2.9588,31.5087,0.00310841,0.00621859,0.00359851,0.00858365,0.000743351,0.989353,0.00549144,0.00793552,937,1639,2.9588,-31.5087
-280,-615,2.95966,31.9612,0.0040016,0.00733495,0.00426066,0.0102433,0.00109323,0.971837,0.00649521,0.0091312,944,1639,2.95966,-31.9611
-273,-615,2.94641,32.4412,0.00492824,0.00833907,0.00497441,0.0118923,0.00137502,0.950538,0.00751192,0.0108706,951,1639,2.9464,-32.4411
-266,-615,2.94202,32.9036,0.00584455,0.00938431,0.00569328,0.0135765,0.00165239,0.936099,0.00855356,0.0111187,958,1639,2.94201,-32.9035
-259,-615,2.96948,33.3463,0.00688337,0.0104333,0.00647099,0.0153683,0.00194832,0.919254,0.00966183,0.0124673,965,1639,2.96948,-33.3463
-252,-615,2.98352,33.8474,0.00806658,0.0116091,0.00722313,0.017275,0.00240069,0.905634,0.0108057,0.0173175,972,1639,2.98353,-33.8474
-245,-615,3.10498,34.4462,0.00923762,0.0130618,0.00804146,0.0194154,0.00288405,0.90212,0.0120974,0.0275793,979,1639,3.10497,-34.4462
-238,-615,3.1543,34.9563,0.0103917,0.0138804,0.0085914,0.0209028,0.00336938,0.885554,0.0129589,0.0395499,986,1639,3.15431,-34.9564
-231,-615,3.20624,35.552,0,0,0,0,0,0,0,-1,993,1639,3.20623,-35.552
-224,-615,3.34985,35.5419,0,0,0,0,0,0,0,-1,1000,1639,3.34987,-35.5419
-217,-615,3.99097,27.3737,0,0,0,0,0,0,0,-1,1007,1639,3.99096,-27.3736
-210,-615,2.48901,18.9324,0,0,0,0,0,0,0,-1,1014,1639,2.48902,-18.9323
-203,-615,2.13684,18.6173,0,0,0,0,0,0,0,-1,1021,1639,2.13683,-18.6173
-196,-615,4.27161,21.3264,0,0,0,0,0,0,0,-1,1028,1639,4.27165,-21.3264
-189,-615,1.8269,19.6761,0,0,0,0,0,0,0,-1,1035,1639,1.82691,-19.6761
-182,-615,1.63489,20.2278,0,0,0,0,0,0,0,-1,1042,1639,1.63492,-20.2277
-175,-615,-0.609985,13.8434,0,0,0,0,0,0,0,-1,1049,1639,-0.610016,-13.8434
-168,-615,3.85754,15.472,0,0,0,0,0,0,0,-1,1056,1639,3.85757,-15.472
-161,-615,5.38062,36.9541,0,0,0,0,0,0,0,-1,1063,1639,5.38058,-36.9541
-154,-615,6.04199,37.49,0,0,0,0,0,0,0,-1,1070,1639,6.04202,-37.49
-147,-615,1.52502,17.3442,0,0,0,0,0,0,0,-1,1077,1639,1.52501,-17.3442
-140,-615,3.73401,10.2349,0,0,0,0,0,0,0,-1,1084,1639,3.73402,-10.2348
-133,-615,2.6178,17.45,0,0,0,0,0,0,0,-1,1091,1639,2.61776,-17.4499
-126,-615,4.43408,12.5017,0,0,0,0,0,0,0,-1,1098,1639,4.43403,-12.5018
-119,-615,4.82983,13.9279,0,0,0,0,0,0,0,-1,1105,1639,4.82986,-13.9278
-112,-615,3.65698,14.4874,0,0,0,0,0,0,0,-1,1112,1639,3.65695,-14.4875
-105,-615,0.958496,2.45398,0,0,0,0,0,0,0,-1,1119,1639,0.958452,-2.45398
-98,-615,-0.647705,2.12109,0,0,0,0,0,0,0,-1,1126,1639,-0.647756,-2.12105
-91,-615,-3.07983,2.97375,0,0,0,0,0,0,0,-1,1133,1639,-3.07989,-2.97376
-84,-615,-2.46509,0.703247,0,0,0,0,0,0,0,-1,1140,1639,-2.46505,-0.703273
-77,-615,-3.17859,1.23755,0,0,0,0,0,0,0,-1,1147,1639,-3.17865,-1.23752
-70,-615,-4.03943,1.43335,0,0,0,0,0,0,0,-1,1154,1639,-4.03942,-1.43339
-63,-615,-4.8877,1.45544,0,0,0,0,0,0,0,-1,1161,1639,-4.88766,-1.45549
-56,-615,0,0,0,0,0,0,0,0,0,-1,1168,1639,0,0
-49,-615,0,0,0,0,0,0,0,0,0,-1,1175,1639,0,0
-42,-615,0,0,0,0,0,0,0,0,0,-1,1182,1639,0,0
-35,-615,0,0,0,0,0,0,0,0,0,-1,1189,1639,0,0
-28,-615,0,0,0,0,0,0,0,0,0,-1,1196,1639,0,0
-21,-615,0,0,0,0,0,0,0,0,0,-1,1203,1639,0,0
-14,-615,0,0,0,0,0,0,0,0,0,-1,1210,1639,0,0
-7,-615,0,0,0,0,0,0,0,0,0,-1,1217,1639,0,0
0,-615,0,0,0,0,0,0,0,0,0,-1,1224,1639,0,0
7,-615,0,0,0,0,0,0,0,0,0,-1,1231,1639,0,0
14,-615,0,0,0,0,0,0,0,0,0,-1,1238,1639,0,0
21,-615,0,0,0,0,0,0,0,0,0,-1,1245,1639,0,0
28,-615,0,0,0,0,0,0,0,0,0,-1,1252,1639,0,0
35,-615,0,0,0,0,0,0,0,0,0,-1,1259,1639,0,0
42,-615,0,0,0,0,0,0,0,0,0,-1,1266,1639,0,0
49,-615,0,0,0,0,0,0,0,0,0,-1,1273,1639,0,0
56,-615,0,0,0,0,0,0,0,0,0,-1,1280,1639,0,0
63,-615,0,0,0,0,0,0,0,0,0,-1,1287,1639,0,0
70,-615,0,0,0,0,0,0,0,0,0,-1,1294,1639,0,0
77,-615,0,0,0,0,0,0,0,0,0,-1,1301,1639,0,0
84,-615,0,0,0,0,0,0,0,0,0,-1,1308,1639,0,0
91,-615,0,0,0,0,0,0,0,0,0,-1,1315,1639,0,0
98,-615,0,0,0,0,0,0,0,0,0,-1,1322,1639,0,0
105,-615,0,0,0,0,0,0,0,0,0,-1,1329,1639,0,0
112,-615,0,0,0,0,0,0,0,0,0,-1,1336,1639,0,0
119,-615,0,0,0,0,0,0,0,0,0,-1,1343,1639,0,0
126,-615,0,0,0,0,0,0,0,0,0,-1,1350,1639,0,0
133,-615,0,0,0,0,0,0,0,0,0,-1,1357,1639,0,0
140,-615,0,0,0,0,0,0,0,0,0,-1,1364,1639,0,0
147,-615,0,0,0,0,0,0,0,0,0,-1,1371,1639,0,0
154,-615,0,0,0,0,0,0,0,0,0,-1,1378,1639,0,0
161,-615,0,0,0,0,0,0,0,0,0,-1,1385,1639,0,0
168,-615,0,0,0,0,0,0,0,0,0,-1,1392,1639,0,0
175,-615,5.39648,-2.00879,0,0,0,0,0,0,0,-1,1399,1639,5.3965,2.00881
182,-615,5.65393,-1.51025,0,0,0,0,0,0,0,-1,1406,1639,5.65388,1.51028
189,-615,5.58972,-1.35608,0,0,0,0,0,0,0,-1,1413,1639,5.58967,1.35607
196,-615,5.49915,-0.693604,0,0,0,0,0,0,0,-1,1420,1639,5.4991,0.693602
203,-615,5.33411,-0.226685,0,0,0,0,0,0,0,-1,1427,1639,5.33414,0.226689
210,-615,5.60278,0.108276,0,0,0,0,0,0,0,-1,1434,1639,5.60284,-0.10831
217,-615,6.26331,-0.307373,0,0,0,0,0,0,0,-1,1441,1639,6.26331,0.307372
224,-615,5.45422,-0.333984,0,0,0,0,0,0,0,-1,1448,1639,5.45422,0.333992
231,-615,4.92542,1.80298,0,0,0,0,0,0,0,-1,1455,1639,4.92537,-1.80297
238,-615,4.76355,1.96729,0,0,0,0,0,0,0,-1,1462,1639,4.76357,-1.96734
245,-615,4.08643,3.15906,0,0,0,0,0,0,0,-1,1469,1639,4.08638,-3.159
252,-615,6.37805,3.73889,0,0,0,0,0,0,0,-1,1476,1639,6.37806,-3.73891
259,-615,8.35974,3.16443,0,0,0,0,0,0,0,-1,1483,1639,8.35975,-3.16444
266,-615,10.3414,2.58997,0,0,0,0,0,0,0,-1,1490,1639,10.3414,-2.58996
273,-615,6.57043,1.84766,0,0,0,0,0,0,0,-1,1497,1639,6.5704,-1.84771
280,-615,7.10449,3.23438,0,0,0,0,0,0,0,-1,1504,1639,7.10447,-3.23435
287,-615,7.35779,4.68542,0,0,0,0,0,0,0,-1,1511,1639,7.35776,-4.68546
294,-615,7.63733,6.29114,0,0,0,0,0,0,0,-1,1518,1639,7.63735,-6.29109
301,-615,8.47925,11.452,0,0,0,0,0,0,0,-1,1525,1639,8.47922,-11.452
308,-615,6.8114,10.9059,0,0,0,0,0,0,0,-1,1532,1639,6.81137,-10.9058
315,-615,5.1427,14.7251,0,0,0,0,0,0,0,-1,1539,1639,5.14269,-14.7251
322,-615,7.17981,17.6864,0,0,0,0,0,0,0,-1,1546,1639,7.17985,-17.6864
329,-615,7.62134,20.4354,0,0,0,0,0,0,0,-1,1553,1639,7.62139,-20.4354
336,-615,6.45007,14.1138,0,0,0,0,0,0,0,-1,1560,1639,6.45011,-14.1138
343,-615,2.40491,6.50134,0,0,0,0,0,0,0,-1,1567,1639,2.40489,-6.50137
350,-615,12.8768,37.0074,0,0,0,0,0,0,0,-1,1574,1639,12.8768,-37.0074
357,-615,13.4052,36.6835,0,0,0,0,0,0,0,-1,1581,1639,13.4052,-36.6834
364,-615,12.8752,36.0583,0,0,0,0,0,0,0,-1,1588,1639,12.8752,-36.0584
371,-615,13.3779,35.4786,0.0152825,0.0285066,-0.0144648,0.0377989,0.00599016,-0.999775,0.0234589,0.0424729,1595,1639,13.3779,-35.4786
378,-615,13.7454,34.5835,0.012439,0.0247988,-0.0117415,0.0318874,0.00535029,-1.02764,0.0197183,0.0209952,1602,1639,13.7454,-34.5835
385,-615,13.738,34.0997,0.00986086,0.0209257,-0.00933423,0.0262439,0.00454269,-1.05292,0.0161955,0.0124374,1609,1639,13.7381,-34.0997
392,-615,13.7729,33.6698,0.00756655,0.0174085,-0.00725078,0.0212505,0.00372455,-1.08354,0.0131032,0.0106266,1616,1639,13.773,-33.6698
399,-615,13.7854,33.2485,0.00545617,0.0142116,-0.00532657,0.0167286,0.0029392,-1.12936,0.0103132,0.0114292,1623,1639,13.7854,-33.2485
406,-615,13.7738,32.8356,0.00366313,0.0115954,-0.00382688,0.0131407,0.00211789,-1.18703,0.00814676,0.0110367,1630,1639,13.7738,-32.8356
413,-615,13.7568,32.4222,0.00231814,0.00924005,-0.00265369,0.0101403,0.00141787,-1.24373,0.00634065,0.013065,1637,1639,13.7568,-32.4223
420,-615,13.7529,31.9847,0.00132373,0.0074415,-0.00182741,0.00794579,0.000819442,-1.30154,0.00504627,0.0147613,1644,1639,13.753,-31.9848
427,-615,13.7501,31.5408,0.000300162,0.00563762,-0.00100845,0.00582179,0.000115984,-1.39015,0.00384312,0.0158256,1651,1639,13.7501,-31.5408
434,-615,13.7437,31.0847,-0.000186067,0.00431428,-0.000705126,0.00442218,-0.000293961,-1.41896,0.00305083,0.0149839,1658,1639,13.7437,-31.0847
441,-615,13.7474,30.6208,-0.000242273,0.00325638,-0.000633513,0.00336756,-0.000353453,-1.39707,0.00237165,0.0150503,1665,1639,13.7475,-30.6209
448,-615,13.7546,30.179,-0.000245374,0.00221327,-0.000549846,0.00233063,-0.000362738,-1.3605,0.00168771,0.0147433,1672,1639,13.7547,-30.179
455,-615,13.7439,29.7368,-0.00034239,0.00116887,-0.000480832,0.00130888,-0.000482403,-1.28744,0.00107026,0.013988,1679,1639,13.744,-29.7369
462,-615,13.7152,29.2565,-0.000661839,9.39174e-05,-0.000261642,0.000175657,-0.000743579,-1.26799,0.000563473,0.014775,1686,1639,13.7152,-29.2565
469,-615,13.6815,28.7789,-0.00102922,-0.000834792,-2.28502e-05,-0.000832143,-0.00103187,-1.45537,0.000631947,0.0120244,1693,1639,13.6815,-28.779
476,-615,13.6602,28.3059,-0.00155057,-0.00170819,0.000324786,-0.00129517,-0.00196359,0.666372,0.00115277,0.0115953,1700,1639,13.6602,-28.3059
483,-615,13.677,27.7708,-0.00243724,-0.00221775,0.000781615,-0.00153822,-0.00311678,0.855145,0.00179952,0.0223324,1707,1639,13.6769,-27.7707
490,-615,13.6327,27.2759,-0.00363816,-0.00281862,0.00135234,-0.00181533,-0.00464146,0.932505,0.00270084,0.0313658,1714,1639,13.6327,-27.2759
497,-615,13.5306,26.9028,-0.00490807,-0.00340962,0.00180908,-0.00220076,-0.00611693,0.981719,0.0035776,0.0415411,1721,1639,13.5306,-26.9028
504,-615,13.5354,26.4366,0,0,0,0,0,0,0,-1,1728,1639,13.5354,-26.4367
511,-615,13.1537,26.0305,0,0,0,0,0,0,0,-1,1735,1639,13.1537,-26.0305
518,-615,13.2416,9.81812,0,0,0,0,0,0,0,-1,1742,1639,13.2416,-9.81813
525,-615,4.37524,3.90491,0,0,0,0,0,0,0,-1,1749,1639,4.37518,-3.90495
532,-615,7.3645,0.848145,0,0,0,0,0,0,0,-1,1756,1639,7.36451,-0.848093
539,-615,12.8112,-0.0476074,0,0,0,0,0,0,0,-1,1763,1639,12.8111,0.0475553
546,-615,8.33813,2.94556,0,0,0,0,0,0,0,-1,1770,1639,8.33813,-2.9455
553,-615,5.82532,-2.04199,0,0,0,0,0,0,0,-1,1777,1639,5.82534,2.04195
560,-615,0,0,0,0,0,0,0,0,0,-1,1784,1639,0,0
567,-615,0,0,0,0,0,0,0,0,0,-1,1791,1639,0,0
574,-615,0,0,0,0,0,0,0,0,0,-1,1798,1639,0,0
581,-615,0,0,0,0,0,0,0,0,0,-1,1805,1639,0,0
588,-615,0,0,0,0,0,0,0,0,0,-1,1812,1639,0,0
595,-615,0,0,0,0,0,0,0,0,0,-1,1819,1639,0,0
602,-615,0,0,0,0,0,0,0,0,0,-1,1826,1639,0,0
609,-615,0,0,0,0,0,0,0,0,0,-1,1833,1639,0,0
616,-615,0,0,0,0,0,0,0,0,0,-1,1840,1639,0,0
623,-615,0,0,0,0,0,0,0,0,0,-1,1847,1639,0,0
630,-615,0,0,0,0,0,0,0,0,0,-1,1854,1639,0,0
637,-615,0,0,0,0,0,0,0,0,0,-1,1861,1639,0,0
644,-615,0,0,0,0,0,0,0,0,0,-1,1868,1639,0,0
651,-615,0,0,0,0,0,0,0,0,0,-1,1875,1639,0,0
658,-615,0,0,0,0,0,0,0,0,0,-1,1882,1639,0,0
665,-615,0,0,0,0,0,0,0,0,0,-1,1889,1639,0,0
672,-615,0,0,0,0,0,0,0,0,0,-1,1896,1639,0,0
679,-615,0,0,0,0,0,0,0,0,0,-1,1903,1639,0,0
686,-615,0,0,0,0,0,0,0,0,0,-1,1910,1639,0,0
693,-615,0,0,0,0,0,0,0,0,0,-1,1917,1639,0,0
700,-615,0,0,0,0,0,0,0,0,0,-1,1924,1639,0,0
707,-615,0,0,0,0,0,0,0,0,0,-1,1931,1639,0,0
714,-615,0,0,0,0,0,0,0,0,0,-1,1938,1639,0,0
721,-615,0,0,0,0,0,0,0,0,0,-1,1945,1639,0,0
728,-615,0,0,0,0,0,0,0,0,0,-1,1952,1639,0,0
735,-615,0,0,0,0,0,0,0,0,0,-1,1959,1639,0,0
742,-615,0,0,0,0,0,0,0,0,0,-1,1966,1639,0,0
749,-615,0,0,0,0,0,0,0,0,0,-1,1973,1639,0,0
756,-615,0,0,0,0,0,0,0,0,0,-1,1980,1639,0,0
763,-615,0,0,0,0,0,0,0,0,0,-1,1987,1639,0,0
770,-615,0,0,0,0,0,0,0,0,0,-1,1994,1639,0,0
777,-615,0,0,0,0,0,0,0,0,0,-1,2001,1639,0,0
784,-615,0,0,0,0,0,0,0,0,0,-1,2008,1639,0,0
791,-615,0,0,0,0,0,0,0,0,0,-1,2015,1639,0,0
798,-615,0,0,0,0,0,0,0,0,0,-1,2022,1639,0,0
805,-615,0,0,0,0,0,0,0,0,0,-1,2029,1639,0,0
812,-615,0,0,0,0,0,0,0,0,0,-1,2036,1639,0,0
-700,-622,0,0,0,0,0,0,0,0,0,-1,524,1646,0,0
-693,-622,0,0,0,0,0,0,0,0,0,-1,531,1646,0,0
-686,-622,0,0,0,0,0,0,0,0,0,-1,538,1646,0,0
-679,-622,0,0,0,0,0,0,0,0,0,-1,545,1646,0,0
-672,-622,0,0,0,0,0,0,0,0,0,-1,552,1646,0,0
-665,-622,0,0,0,0,0,0,0,0,0,-1,559,1646,0,0
-658,-622,0,0,0,0,0,0,0,0,0,-1,566,1646,0,0
-651,-622,0,0,0,0,0,0,0,0,0,-1,573,1646,0,0
-644,-622,0,0,0,0,0,0,0,0,0,-1,580,1646,0,0
-637,-622,0,0,0,0,0,0,0,0,0,-1,587,1646,0,0
-630,-622,0,0,0,0,0,0,0,0,0,-1,594,1646,0,0
-623,-622,0,0,0,0,0,0,0,0,0,-1,601,1646,0,0
-616,-622,0,0,0,0,0,0,0,0,0,-1,608,1646,0,0
-609,-622,0,0,0,0,0,0,0,0,0,-1,615,1646,0,0
-602,-622,0,0,0,0,0,0,0,0,0,-1,622,1646,0,0
-595,-622,0,0,0,0,0,0,0,0,0,-1,629,1646,0,0
-588,-622,0,0,0,0,0,0,0,0,0,-1,636,1646,0,0
-581,-622,0,0,0,0,0,0,0,0,0,-1,643,1646,0,0
-574,-622,0,0,0,0,0,0,0,0,0,-1,650,1646,0,0
-567,-622,0,0,0,0,0,0,0,0,0,-1,657,1646,0,0
-560,-622,0,0,0,0,0,0,0,0,0,-1,664,1646,0,0
-553,-622,0,0,0,0,0,0,0,0,0,-1,671,1646,0,0
-546,-622,0,0,0,0,0,0,0,0,0,-1,678,1646,0,0
-539,-622,0,0,0,0,0,0,0,0,0,-1,685,1646,0,0
-532,-622,0,0,0,0,0,0,0,0,0,-1,692,1646,0,0
-525,-622,0,0,0,0,0,0,0,0,0,-1,699,1646,0,0
-518,-622,0,0,0,0,0,0,0,0,0,-1,706,1646,0,0
-511,-622,0,0,0,0,0,0,0,0,0,-1,713,1646,0,0
-504,-622,0,0,0,0,0,0,0,0,0,-1,720,1646,0,0
-497,-622,0,0,0,0,0,0,0,0,0,-1,727,1646,0,0
-490,-622,0,0,0,0,0,0,0,0,0,-1,734,1646,0,0
-483,-622,0,0,0,0,0,0,0,0,0,-1,741,1646,0,0
-476,-622,0,0,0,0,0,0,0,0,0,-1,748,1646,0,0
-469,-622,0,0,0,0,0,0,0,0,0,-1,755,1646,0,0
-462,-622,0,0,0,0,0,0,0,0,0,-1,762,1646,0,0
-455,-622,0,0,0,0,0,0,0,0,0,-1,769,1646,0,0
-448,-622,0,0,0,0,0,0,0,0,0,-1,776,1646,0,0
-441,-622,0,0,0,0,0,0,0,0,0,-1,783,1646,0,0
-434,-622,0,0,0,0,0,0,0,0,0,-1,790,1646,0,0
-427,-622,-7.62891,3.48096,0,0,0,0,0,0,0,-1,797,1646,-7.62892,-3.48092
-420,-622,-9.35791,1.77185,0,0,0,0,0,0,0,-1,804,1646,-9.35789,-1.77183
-413,-622,-8.46075,1.96777,0,0,0,0,0,0,0,-1,811,1646,-8.46074,-1.96774
-406,-622,-4.44318,2.16858,0,0,0,0,0,0,0,-1,818,1646,-4.44315,-2.16859
-399,-622,-7.06976,1.51001,0,0,0,0,0,0,0,-1,825,1646,-7.06976,-1.51005
-392,-622,3.89551,5.85376,0,0,0,0,0,0,0,-1,832,1646,3.8955,-5.85379
-385,-622,2.00543,14.0448,0,0,0,0,0,0,0,-1,839,1646,2.00544,-14.0448
-378,-622,1.49036,15.3436,0,0,0,0,0,0,0,-1,846,1646,1.49033,-15.3436
-371,-622,3.23883,20.4496,0,0,0,0,0,0,0,-1,853,1646,3.23886,-20.4496
-364,-622,3.3559,26.0116,0,0,0,0,0,0,0,-1,860,1646,3.35592,-26.0116
-357,-622,3.73706,26.6737,0,0,0,0,0,0,0,-1,867,1646,3.73708,-26.6737
-350,-622,3.68707,27.204,-0.00918478,0.00325239,-0.000324873,0.00326087,-0.00919326,-1.5447,0.00745736,0.049587,874,1646,3.68707,-27.2039
-343,-622,3.59113,27.6404,-0.00706156,0.00303967,0.000234754,0.00304512,-0.00706701,1.54757,0.00599019,0.0243289,881,1646,3.59111,-27.6404
-336,-622,3.59479,28.1455,-0.00518833,0.00270807,0.000645337,0.00276046,-0.00524073,1.48979,0.00469289,0.00993154,888,1646,3.59478,-28.1455
-329,-622,3.55054,28.6169,-0.00367866,0.00284059,0.00102439,0.00299777,-0.00383583,1.41855,0.00395526,0.00905958,895,1646,3.55056,-28.617
-322,-622,3.52356,29.1086,-0.00243817,0.00286022,0.0013223,0.00317189,-0.00274984,1.33932,0.0034218,0.0107635,902,1646,3.52356,-29.1087
-315,-622,3.49951,29.635,-0.00141138,0.0030347,0.00161593,0.00355996,-0.00193663,1.25652,0.00321926,0.0142537,909,1646,3.49953,-29.635
-308,-622,3.49957,30.1118,-0.000481545,0.00334707,0.00186632,0.00410628,-0.00124076,1.18444,0.00323151,0.0145515,916,1646,3.49956,-30.1118
-301,-622,3.48291,30.5702,0.000360975,0.00373225,0.00212949,0.00476251,-0.000669283,1.12019,0.00342,0.0147387,923,1646,3.48293,-30.5702
-294,-622,3.45044,31.0544,0.00120642,0.00427788,0.0025258,0.00569818,-0.000213887,1.05854,0.00387205,0.0117031,930,1646,3.45043,-31.0544
-287,-622,3.4364,31.5138,0.00209066,0.00490705,0.00297604,0.00679124,0.000206469,1.00638,0.00446027,0.00855034,937,1646,3.43641,-31.5138
-280,-622,3.42188,31.9711,0.00286138,0.00563113,0.00334238,0.00786418,0.000628327,0.981801,0.0050464,0.00928903,944,1646,3.42187,-31.9711
-273,-622,3.42358,32.422,0.00359123,0.00625574,0.0037378,0.00889162,0.000955351,0.956593,0.00563635,0.0138235,951,1646,3.42358,-32.422
-266,-622,3.40143,32.8704,0.00433902,0.00698313,0.00416635,0.0100322,0.00129,0.939032,0.00630227,0.0128318,958,1646,3.40145,-32.8704
-259,-622,3.40454,33.3523,0.00517442,0.00773416,0.00463933,0.0112669,0.00164166,0.919987,0.00702827,0.0119095,965,1646,3.40456,-33.3523
-252,-622,3.4115,33.7888,0.00609021,0.00862542,0.00508141,0.012595,0.00212068,0.907633,0.00778661,0.0134488,972,1646,3.41152,-33.7889
-245,-622,3.46503,34.22,0.00699571,0.00967069,0.00553911,0.0140315,0.0026349,0.903862,0.00861147,0.0117086,979,1646,3.465,-34.22
-238,-622,3.47461,34.6533,0.00796875,0.0103282,0.00591103,0.0151761,0.00312085,0.883892,0.0092542,0.0150897,986,1646,3.47462,-34.6534
-231,-622,3.55933,35.1759,0.00899482,0.0109828,0.00627313,0.0163402,0.00363741,0.86397,0.00990615,0.0281315,993,1646,3.55935,-35.1758
-224,-622,3.6167,35.4856,0.0100284,0.0120455,0.0065134,0.017628,0.00444594,0.862209,0.0105859,0.0432201,1000,1646,3.61671,-35.4856
-217,-622,3.73694,35.9944,0,0,0,0,0,0,0,-1,1007,1646,3.73693,-35.9944
-210,-622,3.87927,28.0903,0,0,0,0,0,0,0,-1,1014,1646,3.87925,-28.0903
-203,-622,4.21375,20.9574,0,0,0,0,0,0,0,-1,1021,1646,4.21375,-20.9574
-196,-622,4.18518,21.2491,0,0,0,0,0,0,0,-1,1028,1646,4.18521,-21.2491
-189,-622,4.98254,25.8979,0,0,0,0,0,0,0,-1,1035,1646,4.98255,-25.8979
-182,-622,2.21411,20.6752,0,0,0,0,0,0,0,-1,1042,1646,2.21416,-20.6751
-175,-622,2.56091,11.0195,0,0,0,0,0,0,0,-1,1049,1646,2.56095,-11.0195
-168,-622,5.58191,36.0128,0,0,0,0,0,0,0,-1,1056,1646,5.58189,-36.0128
-161,-622,5.81848,37.2841,0,0,0,0,0,0,0,-1,1063,1646,5.81853,-37.284
-154,-622,6.2561,37.6737,0,0,0,0,0,0,0,-1,1070,1646,6.25613,-37.6737
-147,-622,6.5719,37.891,0,0,0,0,0,0,0,-1,1077,1646,6.57185,-37.891
-140,-622,3.27515,16.0353,0,0,0,0,0,0,0,-1,1084,1646,3.27519,-16.0353
-133,-622,3.09644,17.677,0,0,0,0,0,0,0,-1,1091,1646,3.09638,-17.677
-126,-622,3.5061,19.5251,0,0,0,0,0,0,0,-1,1098,1646,3.50616,-19.5252
-119,-622,4.06384,13.1715,0,0,0,0,0,0,0,-1,1105,1646,4.06379,-13.1716
-112,-622,4.33276,14.6605,0,0,0,0,0,0,0,-1,1112,1646,4.33281,-14.6605
-105,-622,0.306519,4.38159,0,0,0,0,0,0,0,-1,1119,1646,0.306536,-4.38159
-98,-622,-0.510376,3.5033,0,0,0,0,0,0,0,-1,1126,1646,-0.510393,-3.50324
-91,-622,-1.146,0.975952,0,0,0,0,0,0,0,-1,1133,1646,-1.14599,-0.97597
-84,-622,-2.04895,1.31787,0,0,0,0,0,0,0,-1,1140,1646,-2.0489,-1.31781
-77,-622,-1.80627,0.332275,0,0,0,0,0,0,0,-1,1147,1646,-1.80622,-0.33223
-70,-622,-3.65588,2.28149,0,0,0,0,0,0,0,-1,1154,1646,-3.65589,-2.28155
-63,-622,-2.49683,1.27087,0,0,0,0,0,0,0,-1,1161,1646,-2.49679,-1.27093
-56,-622,-2.44238,-0.575562,0,0,0,0,0,0,0,-1,1168,1646,-2.44242,0.575508
-49,-622,-2.41089,1.38818,0,0,0,0,0,0,0,-1,1175,1646,-2.41088,-1.38815
-42,-622,-2.71497,2.85242,0,0,0,0,0,0,0,-1,1182,1646,-2.71491,-2.85247
-35,-622,-3.0177,4.25842,0,0,0,0,0,0,0,-1,1189,1646,-3.01773,-4.25838
-28,-622,-0.896606,0.678833,0,0,0,0,0,0,0,-1,1196,1646,-0.89661,-0.678835
-21,-622,16.4141,36.2849,0,0,0,0,0,0,0,-1,1203,1646,16.4141,-36.285
-14,-622,12.7726,35.3608,0,0,0,0,0,0,0,-1,1210,1646,12.7726,-35.3609
-7,-622,13.2388,35.5912,0,0,0,0,0,0,0,-1,1217,1646,13.2388,-35.5912
0,-622,0,0,0,0,0,0,0,0,0,-1,1224,1646,0,0
7,-622,0,0,0,0,0,0,0,0,0,-1,1231,1646,0,0
14,-622,0,0,0,0,0,0,0,0,0,-1,1238,1646,0,0
21,-622,0,0,0,0,0,0,0,0,0,-1,1245,1646,0,0
28,-622,0,0,0,0,0,0,0,0,0,-1,1252,1646,0,0
35,-622,0,0,0,0,0,0,0,0,0,-1,1259,1646,0,0
42,-622,0,0,0,0,0,0,0,0,0,-1,1266,1646,0,0
49,-622,0,0,0,0,0,0,0,0,0,-1,1273,1646,0,0
56,-622,0,0,0,0,0,0,0,0,0,-1,1280,1646,0,0
63,-622,0,0,0,0,0,0,0,0,0,-1,1287,1646,0,0
70,-622,0,0,0,0,0,0,0,0,0,-1,1294,1646,0,0
77,-622,0,0,0,0,0,0,0,0,0,-1,1301,1646,0,0
84,-622,0,0,0,0,0,0,0,0,0,-1,1308,1646,0,0
91,-622,0,0,0,0,0,0,0,0,0,-1,1315,1646,0,0
98,-622,0,0,0,0,0,0,0,0,0,-1,1322,1646,0,0
105,-622,0,0,0,0,0,0,0,0,0,-1,1329,1646,0,0
112,-622,0,0,0,0,0,0,0,0,0,-1,1336,1646,0,0
119,-622,0,0,0,0,0,0,0,0,0,-1,1343,1646,0,0
126,-622,13.9971,61.0496,0,0,0,0,0,0,0,-1,1350,1646,13.997,-61.0496
133,-622,15.5415,60.2661,0.16712,0.559314,0.0232745,0.560691,0.165743,1.51173,0.332609,0.0481797,1357,1646,15.5415,-60.2661
140,-622,16.3479,60.3273,0.17104,0.600081,-0.00102563,0.600083,0.171037,-1.56841,0.356973,0.0472198,1364,1646,16.3479,-60.3273
147,-622,17.3477,59.3773,0,0,0,0,0,0,0,-1,1371,1646,17.3476,-59.3774
154,-622,17.2712,25.0475,0,0,0,0,0,0,0,-1,1378,1646,17.2712,-25.0474
161,-622,10.6884,6.46448,0,0,0,0,0,0,0,-1,1385,1646,10.6883,-6.46442
168,-622,12.2402,5.18091,0,0,0,0,0,0,0,-1,1392,1646,12.2403,-5.1809
175,-622,5.64355,-1.77075,0,0,0,0,0,0,0,-1,1399,1646,5.64351,1.77077
182,-622,5.88586,-1.32251,0,0,0,0,0,0,0,-1,1406,1646,5.88587,1.32256
189,-622,5.97986,-1.18005,0,0,0,0,0,0,0,-1,1413,1646,5.97986,1.18003
196,-622,5.85022,-0.244507,0,0,0,0,0,0,0,-1,1420,1646,5.85026,0.244478
203,-622,5.25159,0.138794,0,0,0,0,0,0,0,-1,1427,1646,5.25162,-0.138822
210,-622,6.66833,0.0397949,0,0,0,0,0,0,0,-1,1434,1646,6.6684,-0.0398278
217,-622,6.12061,0.0506592,0,0,0,0,0,0,0,-1,1441,1646,6.12058,-0.0507181
224,-622,5.57275,0.0616455,0,0,0,0,0,0,0,-1,1448,1646,5.57276,-0.0616084
231,-622,5.31348,1.3949,0,0,0,0,0,0,0,-1,1455,1646,5.31342,-1.39495
238,-622,3.76477,2.90686,0,0,0,0,0,0,0,-1,1462,1646,3.7648,-2.90686
245,-622,5.13794,2.67993,0,0,0,0,0,0,0,-1,1469,1646,5.13796,-2.67992
252,-622,6.66528,2.53992,0,0,0,0,0,0,0,-1,1476,1646,6.66522,-2.53991
259,-622,8.93787,3.31458,0,0,0,0,0,0,0,-1,1483,1646,8.93791,-3.31454
266,-622,5.72644,3.11926,0,0,0,0,0,0,0,-1,1490,1646,5.72647,-3.1192
273,-622,7.28076,3.61218,0,0,0,0,0,0,0,-1,1497,1646,7.28071,-3.61212
280,-622,8.43127,4.4447,0,0,0,0,0,0,0,-1,1504,1646,8.43123,-4.44467
287,-622,8.60315,5.94617,0,0,0,0,0,0,0,-1,1511,1646,8.60319,-5.94622
294,-622,7.62756,11.5143,0,0,0,0,0,0,0,-1,1518,1646,7.62762,-11.5143
301,-622,7.36548,11.6569,0,0,0,0,0,0,0,-1,1525,1646,7.36549,-11.6569
308,-622,7.10339,11.7994,0,0,0,0,0,0,0,-1,1532,1646,7.10335,-11.7995
315,-622,8.28687,16.5842,0,0,0,0,0,0,0,-1,1539,1646,8.28689,-16.5843
322,-622,7.43689,20.5786,0,0,0,0,0,0,0,-1,1546,1646,7.43685,-20.5786
329,-622,9.76477,26.4202,0,0,0,0,0,0,0,-1,1553,1646,9.7648,-26.4202
336,-622,10.4526,28.8552,0,0,0,0,0,0,0,-1,1560,1646,10.4526,-28.8552
343,-622,12.9164,37.213,0,0,0,0,0,0,0,-1,1567,1646,12.9164,-37.213
350,-622,13.2539,36.3661,0,0,0,0,0,0,0,-1,1574,1646,13.254,-36.3661
357,-622,13.1783,36.2434,0.0149168,0.0284854,-0.0140958,0.0373446,0.00605767,-1.00969,0.0231429,0.0469526,1581,1646,13.1783,-36.2434
364,-622,13.1833,35.5865,0.0133267,0.0251396,-0.0125069,0.0330646,0.0054017,-1.006,0.0204814,0.0390734,1588,1646,13.1834,-35.5866
371,-622,13.2935,34.9886,0.011655,0.0218265,-0.0108212,0.0286974,0.00478404,-1.00507,0.0177531,0.0232911,1595,1646,13.2935,-34.9886
378,-622,13.3136,34.5331,0.00969067,0.0189986,-0.00894656,0.0244293,0.00425997,-1.02523,0.0150683,0.0112831,1602,1646,13.3136,-34.5331
385,-622,13.3157,34.1012,0.00781927,0.0159463,-0.00719991,0.0201502,0.00361533,-1.04231,0.0124053,0.00947607,1609,1646,13.3156,-34.1012
392,-622,13.3198,33.6888,0.00604565,0.0131068,-0.00561336,0.0162076,0.00294488,-1.06612,0.00996948,0.0109161,1616,1646,13.3199,-33.6888
399,-622,13.3243,33.2672,0.0043182,0.0104179,-0.00408678,0.0124674,0.0022687,-1.10595,0.00766805,0.0115275,1623,1646,13.3243,-33.2672
406,-622,13.3102,32.8236,0.00281344,0.00826543,-0.00287531,0.00950157,0.0015773,-1.16477,0.00587956,0.0141862,1630,1646,13.3102,-32.8236
413,-622,13.3018,32.3954,0.00165222,0.00627704,-0.00187741,0.00694321,0.000986056,-1.22982,0.00433764,0.016017,1637,1646,13.3018,-32.3954
420,-622,13.2994,32.0018,0.000765837,0.00478105,-0.00117623,0.00510024,0.000446642,-1.30581,0.00326149,0.016872,1644,1646,13.2995,-32.0019
427,-622,13.2997,31.5553,-0.000101577,0.0033022,-0.000514138,0.00337816,-0.000177542,-1.42411,0.00231356,0.0135546,1651,1646,13.2997,-31.5553
434,-622,13.2961,31.073,-0.000553797,0.00224665,-0.000264807,0.00227147,-0.000578617,-1.47734,0.00173956,0.0140643,1658,1646,13.2961,-31.073
441,-622,13.2971,30.6104,-0.000658227,0.00145939,-0.000214718,0.00148094,-0.00067978,-1.47076,0.00127576,0.0155832,1665,1646,13.2971,-30.6104
448,-622,13.271,30.1954,-0.000697962,0.000681733,-0.000159304,0.000699888,-0.000716117,-1.45732,0.000817548,0.0139548,1672,1646,13.271,-30.1954
455,-622,13.2489,29.7245,-0.000782654,-8.06069e-05,-0.000135538,-5.53486e-05,-0.000807912,-1.38655,0.000521139,0.0164785,1679,1646,13.2489,-29.7245
462,-622,13.2437,29.2472,-0.0010922,-0.000893109,2.95052e-05,-0.000888829,-0.00109648,1.42672,0.000672542,0.0171742,1686,1646,13.2436,-29.2472
469,-622,13.223,28.791,-0.00143811,-0.00156301,0.000197303,-0.00129361,-0.00170751,0.632124,0.00102852,0.0172093,1693,1646,13.223,-28.791
476,-622,13.2838,28.3177,-0.00192504,-0.00225967,0.000484557,-0.00157973,-0.00260499,0.61916,0.0015153,0.027493,1700,1646,13.2838,-28.3177
483,-622,13.2023,27.918,-0.00283504,-0.00239578,0.000910499,-0.0016788,-0.00355202,0.903747,0.00205179,0.0448173,1707,1646,13.2023,-27.918
490,-622,13.196,27.2723,0,0,0,0,0,0,0,-1,1714,1646,13.196,-27.2724
497,-622,13.118,27.1371,0,0,0,0,0,0,0,-1,1721,1646,13.1181,-27.1371
504,-622,10.8306,19.8021,0,0,0,0,0,0,0,-1,1728,1646,10.8306,-19.8022
511,-622,5.29004,4.14587,0,0,0,0,0,0,0,-1,1735,1646,5.29008,-4.14589
518,-622,5.6001,1.55359,0,0,0,0,0,0,0,-1,1742,1646,5.60015,-1.5536
525,-622,5.83093,2.01807,0,0,0,0,0,0,0,-1,1749,1646,5.83097,-2.01802
532,-622,5.44202,0.57373,0,0,0,0,0,0,0,-1,1756,1646,5.44196,-0.573705
539,-622,9.32129,1.06116,0,0,0,0,0,0,0,-1,1763,1646,9.32131,-1.0612
546,-622,6.50977,-3.45618,0,0,0,0,0,0,0,-1,1770,1646,6.50981,3.4562
553,-622,0,0,0,0,0,0,0,0,0,-1,1777,1646,0,0
560,-622,0,0,0,0,0,0,0,0,0,-1,1784,1646,0,0
567,-622,0,0,0,0,0,0,0,0,0,-1,1791,1646,0,0
574,-622,0,0,0,0,0,0,0,0,0,-1,1798,1646,0,0
581,-622,0,0,0,0,0,0,0,0,0,-1,1805,1646,0,0
588,-622,0,0,0,0,0,0,0,0,0,-1,1812,1646,0,0
595,-622,0,0,0,0,0,0,0,0,0,-1,1819,1646,0,0
602,-622,0,0,0,0,0,0,0,0,0,-1,1826,1646,0,0
609,-622,0,0,0,0,0,0,0,0,0,-1,1833,1646,0,0
616,-622,0,0,0,0,0,0,0,0,0,-1,1840,1646,0,0
623,-622,0,0,0,0,0,0,0,0,0,-1,1847,1646,0,0
630,-622,0,0,0,0,0,0,0,0,0,-1,1854,1646,0,0
637,-622,0,0,0,0,0,0,0,0,0,-1,1861,1646,0,0
644,-622,0,0,0,0,0,0,0,0,0,-1,1868,1646,0,0
651,-622,0,0,0,0,0,0,0,0,0,-1,1875,1646,0,0
658,-622,0,0,0,0,0,0,0,0,0,-1,1882,1646,0,0
665,-622,0,0,0,0,0,0,0,0,0,-1,1889,1646,0,0
672,-622,0,0,0,0,0,0,0,0,0,-1,1896,1646,0,0
679,-622,0,0,0,0,0,0,0,0,0,-1,1903,1646,0,0
686,-622,0,0,0,0,0,0,0,0,0,-1,1910,1646,0,0
693,-622,0,0,0,0,0,0,0,0,0,-1,1917,1646,0,0
700,-622,0,0,0,0,0,0,0,0,0,-1,1924,1646,0,0
707,-622,0,0,0,0,0,0,0,0,0,-1,1931,1646,0,0
714,-622,0,0,0,0,0,0,0,0,0,-1,1938,1646,0,0
721,-622,0,0,0,0,0,0,0,0,0,-1,1945,1646,0,0
728,-622,0,0,0,0,0,0,0,0,0,-1,1952,1646,0,0
735,-622,0,0,0,0,0,0,0,0,0,-1,1959,1646,0,0
742,-622,0,0,0,0,0,0,0,0,0,-1,1966,1646,0,0
749,-622,0,0,0,0,0,0,0,0,0,-1,1973,1646,0,0
756,-622,0,0,0,0,0,0,0,0,0,-1,1980,1646,0,0
763,-622,0,0,0,0,0,0,0,0,0,-1,1987,1646,0,0
770,-622,0,0,0,0,0,0,0,0,0,-1,1994,1646,0,0
777,-622,0,0,0,0,0,0,0,0,0,-1,2001,1646,0,0
784,-622,0,0,0,0,0,0,0,0,0,-1,2008,1646,0,0
791,-622,0,0,0,0,0,0,0,0,0,-1,2015,1646,0,0
798,-622,0,0,0,0,0,0,0,0,0,-1,2022,1646,0,0
805,-622,0,0,0,0,0,0,0,0,0,-1,2029,1646,0,0
812,-622,0,0,0,0,0,0,0,0,0,-1,2036,1646,0,0
-700,-629,0,0,0,0,0,0,0,0,0,-1,524,1653,0,0
-693,-629,0,0,0,0,0,0,0,0,0,-1,531,1653,0,0
-686,-629,0,0,0,0,0,0,0,0,0,-1,538,1653,0,0
-679,-629,0,0,0,0,0,0,0,0,0,-1,545,1653,0,0
-672,-629,0,0,0,0,0,0,0,0,0,-1,552,1653,0,0
-665,-629,0,0,0,0,0,0,0,0,0,-1,559,1653,0,0
-658,-629,0,0,0,0,0,0,0,0,0,-1,566,1653,0,0
-651,-629,0,0,0,0,0,0,0,0,0,-1,573,1653,0,0
-644,-629,0,0,0,0,0,0,0,0,0,-1,580,1653,0,0
-637,-629,0,0,0,0,0,0,0,0,0,-1,587,1653,0,0
-630,-629,0,0,0,0,0,0,0,0,0,-1,594,1653,0,0
-623,-629,0,0,0,0,0,0,0,0,0,-1,601,1653,0,0
-616,-629,0,0,0,0,0,0,0,0,0,-1,608,1653,0,0
-609,-629,0,0,0,0,0,0,0,0,0,-1,615,1653,0,0
-602,-629,0,0,0,0,0,0,0,0,0,-1,622,1653,0,0
-595,-629,0,0,0,0,0,0,0,0,0,-1,629,1653,0,0
-588,-629,0,0,0,0,0,0,0,0,0,-1,636,1653,0,0
-581,-629,0,0,0,0,0,0,0,0,0,-1,643,1653,0,0
-574,-629,0,0,0,0,0,0,0,0,0,-1,650,1653,0,0
-567,-629,0,0,0,0,0,0,0,0,0,-1,657,1653,0,0
-560,-629,0,0,0,0,0,0,0,0,0,-1,664,1653,0,0
-553,-629,0,0,0,0,0,0,0,0,0,-1,671,1653,0,0
-546,-629,0,0,0,0,0,0,0,0,0,-1,678,1653,0,0
-539,-629,0,0,0,0,0,0,0,0,0,-1,685,1653,0,0
-532,-629,0,0,0,0,0,0,0,0,0,-1,692,1653,0,0
-525,-629,0,0,0,0,0,0,0,0,0,-1,699,1653,0,0
-518,-629,0,0,0,0,0,0,0,0,0,-1,706,1653,0,0
-511,-629,0,0,0,0,0,0,0,0,0,-1,713,1653,0,0
-504,-629,0,0,0,0,0,0,0,0,0,-1,720,1653,0,0
-497,-629,0,0,0,0,0,0,0,0,0,-1,727,1653,0,0
-490,-629,0,0,0,0,0,0,0,0,0,-1,734,1653,0,0
-483,-629,0,0,0,0,0,0,0,0,0,-1,741,1653,0,0
-476,-629,0,0,0,0,0,0,0,0,0,-1,748,1653,0,0
-469,-629,0,0,0,0,0,0,0,0,0,-1,755,1653,0,0
-462,-629,0,0,0,0,0,0,0,0,0,-1,762,1653,0,0
-455,-629,0,0,0,0,0,0,0,0,0,-1,769,1653,0,0
-448,-629,0,0,0,0,0,0,0,0,0,-1,776,1653,0,0
-441,-629,0,0,0,0,0,0,0,0,0,-1,783,1653,0,0
-434,-629,0,0,0,0,0,0,0,0,0,-1,790,1653,0,0
-427,-629,0,0,0,0,0,0,0,0,0,-1,797,1653,0,0
-420,-629,-3.87103,3.37634,0,0,0,0,0,0,0,-1,804,1653,-3.87101,-3.37633
-413,-629,-5.69751,1.33582,0,0,0,0,0,0,0,-1,811,1653,-5.69754,-1.3358
-406,-629,2.85406,6.01501,0,0,0,0,0,0,0,-1,818,1653,2.85405,-6.01507
-399,-629,-0.455627,10.8687,0,0,0,0,0,0,0,-1,825,1653,-0.455625,-10.8687
-392,-629,1.15369,11.1295,0,0,0,0,0,0,0,-1,832,1653,1.1537,-11.1295
-385,-629,1.81976,11.6935,0,0,0,0,0,0,0,-1,839,1653,1.81975,-11.6935
-378,-629,2.19452,14.7941,0,0,0,0,0,0,0,-1,846,1653,2.19451,-14.7941
-371,-629,3.60114,14.7299,0,0,0,0,0,0,0,-1,853,1653,3.60113,-14.7299
-364,-629,3.26898,21.0801,0,0,0,0,0,0,0,-1,860,1653,3.26895,-21.08
-357,-629,4.38782,16.3444,0,0,0,0,0,0,0,-1,867,1653,4.38783,-16.3443
-350,-629,4.27698,27.3334,0,0,0,0,0,0,0,-1,874,1653,4.27697,-27.3334
-343,-629,4.10541,27.6356,-0.00900377,0.00462392,0.000611563,0.00465131,-0.00903116,1.52604,0.00803336,0.0388821,881,1653,4.10543,-27.6356
-336,-629,4.0542,28.1422,-0.00666841,0.00403574,0.00112257,0.0041522,-0.00678487,1.46742,0.00637521,0.0195301,888,1653,4.05417,-28.1422
-329,-629,4.04901,28.6399,-0.00491089,0.00390822,0.00150492,0.00415795,-0.00516062,1.40635,0.00539045,0.0122051,895,1653,4.04899,-28.6399
-322,-629,4.01208,29.1268,-0.00352305,0.0035977,0.00174007,0.00400016,-0.00392551,1.3435,0.00457596,0.0125228,902,1653,4.01212,-29.1269
-315,-629,3.95837,29.6398,-0.00240926,0.00338277,0.00194139,0.00397328,-0.00299977,1.27552,0.00403895,0.0154824,909,1653,3.95837,-29.6398
-308,-629,3.95441,30.1333,-0.00142702,0.00338243,0.00206327,0.00414627,-0.00219086,1.21623,0.00371635,0.0128072,916,1653,3.95443,-30.1332
-301,-629,3.95135,30.6079,-0.0006024,0.0034473,0.00216149,0.00438421,-0.00153932,1.16178,0.00354899,0.0124002,923,1653,3.95134,-30.6079
-294,-629,3.92889,31.0782,0.000183223,0.00365935,0.00235597,0.00484899,-0.00100642,1.1032,0.00361513,0.0133462,930,1653,3.9289,-31.0782
-287,-629,3.91687,31.5331,0.00106539,0.00390094,0.00264279,0.00548224,-0.000515906,1.0316,0.00383837,0.0100227,937,1653,3.91689,-31.5331
-280,-629,3.90363,32.0015,0.00175439,0.00429123,0.00277929,0.00607787,-3.22417e-05,0.999472,0.0040627,0.0104875,944,1653,3.90365,-32.0014
-273,-629,3.8783,32.4324,0.00234465,0.0046241,0.00293222,0.0066303,0.000338445,0.970758,0.00431182,0.0142668,951,1653,3.87832,-32.4324
-266,-629,3.86316,32.8805,0.00300489,0.0051149,0.00315538,0.00738698,0.000732816,0.946732,0.00469946,0.0133272,958,1653,3.86313,-32.8805
-259,-629,3.86243,33.3733,0.00374403,0.00563417,0.00342552,0.00824259,0.0011356,0.919995,0.00515836,0.0146306,965,1653,3.86243,-33.3733
-252,-629,3.86957,33.801,0.0045015,0.00629244,0.00365595,0.00916099,0.00163295,0.905502,0.00564233,0.0119448,972,1653,3.86957,-33.8011
-245,-629,3.88251,34.2141,0.00524765,0.0070054,0.00386992,0.010095,0.00215806,0.897056,0.00613842,0.00857103,979,1653,3.88248,-34.2141
-238,-629,3.87769,34.6384,0.00602888,0.00752603,0.00404542,0.0108916,0.00266336,0.876884,0.00655613,0.0108888,986,1653,3.8777,-34.6384
-231,-629,3.84497,35.0603,0.00685781,0.00812098,0.00427752,0.0118133,0.0031655,0.858695,0.00706098,0.0172632,993,1653,3.84499,-35.0603
-224,-629,3.94904,35.6379,0.00772487,0.00900785,0.00441481,0.0128275,0.00390518,0.857545,0.00759246,0.0222658,1000,1653,3.94904,-35.6379
-217,-629,3.88977,35.9628,0.00877867,0.00947727,0.00490456,0.0140449,0.00421099,0.820948,0.00832266,0.0366866,1007,1653,3.88977,-35.9628
-210,-629,4.08319,36.454,0,0,0,0,0,0,0,-1,1014,1653,4.08321,-36.454
-203,-629,4.00342,37.7021,0,0,0,0,0,0,0,-1,1021,1653,4.00345,-37.7021
-196,-629,4.39551,37.4965,0,0,0,0,0,0,0,-1,1028,1653,4.39555,-37.4965
-189,-629,4.2157,37.6132,0,0,0,0,0,0,0,-1,1035,1653,4.21571,-37.6132
-182,-629,4.29175,38.3519,0,0,0,0,0,0,0,-1,1042,1653,4.29173,-38.352
-175,-629,5.42114,37.6913,0,0,0,0,0,0,0,-1,1049,1653,5.42116,-37.6912
-168,-629,4.67834,37.9139,0,0,0,0,0,0,0,-1,1056,1653,4.67831,-37.914
-161,-629,6.27295,37.527,0,0,0,0,0,0,0,-1,1063,1653,6.27297,-37.527
-154,-629,6.43225,37.8851,0,0,0,0,0,0,0,-1,1070,1653,6.43231,-37.8851
-147,-629,6.60645,38.0795,0,0,0,0,0,0,0,-1,1077,1653,6.60649,-38.0795
-140,-629,2.34851,19.2911,0,0,0,0,0,0,0,-1,1084,1653,2.34853,-19.2911
-133,-629,3.41248,17.6686,0,0,0,0,0,0,0,-1,1091,1653,3.41243,-17.6686
-126,-629,4.01025,19.5328,0,0,0,0,0,0,0,-1,1098,1653,4.01022,-19.5328
-119,-629,4.94177,13.5525,0,0,0,0,0,0,0,-1,1105,1653,4.94172,-13.5525
-112,-629,5.63123,15.9187,0,0,0,0,0,0,0,-1,1112,1653,5.63118,-15.9187
-105,-629,2.15881,4.38342,0,0,0,0,0,0,0,-1,1119,1653,2.15878,-4.38347
-98,-629,0.825806,4.19385,0,0,0,0,0,0,0,-1,1126,1653,0.825779,-4.1939
-91,-629,-0.452271,3.64465,0,0,0,0,0,0,0,-1,1133,1653,-0.452278,-3.6446
-84,-629,-2.6084,0.466797,0,0,0,0,0,0,0,-1,1140,1653,-2.6084,-0.466786
-77,-629,-3.50903,2.10706,0,0,0,0,0,0,0,-1,1147,1653,-3.509,-2.10707
-70,-629,-1.20886,2.52502,0,0,0,0,0,0,0,-1,1154,1653,-1.20886,-2.525
-63,-629,-0.960693,4.30212,0,0,0,0,0,0,0,-1,1161,1653,-0.960691,-4.30215
-56,-629,-1.31934,5.64343,0,0,0,0,0,0,0,-1,1168,1653,-1.31928,-5.6434
-49,-629,-2.15662,2.57458,0,0,0,0,0,0,0,-1,1175,1653,-2.15656,-2.57459
-42,-629,-2.46326,3.91467,0,0,0,0,0,0,0,-1,1182,1653,-2.4633,-3.91466
-35,-629,-2.67261,5.24292,0,0,0,0,0,0,0,-1,1189,1653,-2.67257,-5.24298
-28,-629,-0.402954,-0.866577,0,0,0,0,0,0,0,-1,1196,1653,-0.402943,0.866612
-21,-629,3.45508,27.0596,0,0,0,0,0,0,0,-1,1203,1653,3.45508,-27.0596
-14,-629,12.2919,36.3945,0,0,0,0,0,0,0,-1,1210,1653,12.2919,-36.3945
-7,-629,6.03821,44.2125,0,0,0,0,0,0,0,-1,1217,1653,6.03823,-44.2125
0,-629,6.83264,45.0521,0,0,0,0,0,0,0,-1,1224,1653,6.83261,-45.0521
7,-629,6.07007,42.6497,0,0,0,0,0,0,0,-1,1231,1653,6.07001,-42.6497
14,-629,7.28369,43.3163,0.164736,-7.04473e-05,-0.0258256,0.168689,-0.00402261,-0.151854,0.113824,0.0458615,1238,1653,7.28367,-43.3163
21,-629,7.39099,43.5946,0.155813,0.00691714,-0.0155798,0.157425,0.0053044,-0.103148,0.103227,0.0464283,1245,1653,7.39093,-43.5946
28,-629,6.54736,44.1151,0.139781,0.0116084,-0.00924646,0.140445,0.0109448,-0.0716462,0.0902032,0.0453795,1252,1653,6.54742,-44.1152
35,-629,6.93762,45.0634,0.120102,0.0142677,-0.00513602,0.12035,0.0140191,-0.0483774,0.0759929,0.0438705,1259,1653,6.93759,-45.0633
42,-629,7.41968,45.8409,0.101227,0.0163093,0.000136554,0.101227,0.0163091,0.00160807,0.0627588,0.0459437,1266,1653,7.41964,-45.841
49,-629,7.42114,46.5608,0.0873498,0.0330023,0.0104996,0.0893077,0.0310444,0.184358,0.052354,0.045145,1273,1653,7.42118,-46.5607
56,-629,7.33044,47.1874,0.0789288,0.0535504,0.023263,0.0927384,0.0397409,0.535721,0.0537245,0.0459227,1280,1653,7.33045,-47.1873
63,-629,7.24731,47.5386,0.0743332,0.084089,0.0372979,0.116827,0.0415955,0.85042,0.0683754,0.0449017,1287,1653,7.24731,-47.5386
70,-629,7.7019,47.9216,0.0764888,0.127466,0.0540346,0.161722,0.042233,1.00578,0.0968566,0.0458514,1294,1653,7.70195,-47.9216
77,-629,8.17664,48.3612,0,0,0,0,0,0,0,-1,1301,1653,8.17667,-48.3612
84,-629,8.6355,48.8044,0.0875886,0.235137,0.0847202,0.273702,0.0490234,1.14362,0.168521,0.0449887,1308,1653,8.63556,-48.8044
91,-629,9.07947,49.2023,0.101721,0.293558,0.080533,0.322883,0.0723961,1.22158,0.195641,0.0447095,1315,1653,9.07953,-49.2023
98,-629,8.8031,49.1989,0,0,0,0,0,0,0,-1,1322,1653,8.80306,-49.1989
105,-629,8.61536,49.5433,0,0,0,0,0,0,0,-1,1329,1653,8.61536,-49.5434
112,-629,13.6373,52.9319,0,0,0,0,0,0,0,-1,1336,1653,13.6373,-52.9319
119,-629,15.3617,57.5522,0,0,0,0,0,0,0,-1,1343,1653,15.3617,-57.5522
126,-629,14.1669,58.3468,0,0,0,0,0,0,0,-1,1350,1653,14.1669,-58.3469
133,-629,15.0498,57.6948,0.152077,0.576942,0.0037243,0.576975,0.152044,1.56203,0.345312,0.0461435,1357,1653,15.0498,-57.6948
140,-629,15.937,57.0802,0.150336,0.59445,-0.028769,0.596306,0.14848,-1.50638,0.358446,0.0477085,1364,1653,15.9371,-57.0802
147,-629,17.377,54.8859,0,0,0,0,0,0,0,-1,1371,1653,17.3769,-54.8858
154,-629,1.58569,52.5651,0,0,0,0,0,0,0,-1,1378,1653,1.58564,-52.5651
161,-629,10.5461,6.83752,0,0,0,0,0,0,0,-1,1385,1653,10.5461,-6.83758
168,-629,12.0059,5.56348,0,0,0,0,0,0,0,-1,1392,1653,12.0059,-5.56352
175,-629,5.84485,-1.78845,0,0,0,0,0,0,0,-1,1399,1653,5.84479,1.7884
182,-629,5.99036,-1.27783,0,0,0,0,0,0,0,-1,1406,1653,5.99041,1.27778
189,-629,5.97668,-0.748535,0,0,0,0,0,0,0,-1,1413,1653,5.97671,0.748544
196,-629,4.52869,9.24695,0,0,0,0,0,0,0,-1,1420,1653,4.52869,-9.2469
203,-629,3.75085,6.88037,0,0,0,0,0,0,0,-1,1427,1653,3.75087,-6.88032
210,-629,3.5907,6.52637,0,0,0,0,0,0,0,-1,1434,1653,3.59067,-6.52642
217,-629,2.4585,4.84448,0,0,0,0,0,0,0,-1,1441,1653,2.45855,-4.84448
224,-629,1.31982,3.68481,0,0,0,0,0,0,0,-1,1448,1653,1.31986,-3.68487
231,-629,3.63025,1.73499,0,0,0,0,0,0,0,-1,1455,1653,3.6303,-1.735
238,-629,4.26428,2.11255,0,0,0,0,0,0,0,-1,1462,1653,4.26429,-2.11253
245,-629,5.61816,1.95361,0,0,0,0,0,0,0,-1,1469,1653,5.61815,-1.95359
252,-629,7.27136,2.18982,0,0,0,0,0,0,0,-1,1476,1653,7.27131,-2.18985
259,-629,8.67334,2.18628,0,0,0,0,0,0,0,-1,1483,1653,8.6733,-2.18633
266,-629,6.86475,3.72058,0,0,0,0,0,0,0,-1,1490,1653,6.86479,-3.72063
273,-629,7.9021,3.8717,0,0,0,0,0,0,0,-1,1497,1653,7.90205,-3.87171
280,-629,9.70837,4.39087,0,0,0,0,0,0,0,-1,1504,1653,9.7084,-4.39082
287,-629,9.82947,7.19348,0,0,0,0,0,0,0,-1,1511,1653,9.8295,-7.19347
294,-629,6.56555,11.6359,0,0,0,0,0,0,0,-1,1518,1653,6.5656,-11.6358
301,-629,6.93835,15.6102,0,0,0,0,0,0,0,-1,1525,1653,6.93835,-15.6103
308,-629,6.08264,12.1423,0,0,0,0,0,0,0,-1,1532,1653,6.08263,-12.1423
315,-629,6.82043,18.2764,0,0,0,0,0,0,0,-1,1539,1653,6.82049,-18.2764
322,-629,10.3922,29.9829,0,0,0,0,0,0,0,-1,1546,1653,10.3922,-29.9829
329,-629,12.9545,37.7571,0,0,0,0,0,0,0,-1,1553,1653,12.9545,-37.7571
336,-629,12.911,37.0834,0,0,0,0,0,0,0,-1,1560,1653,12.911,-37.0834
343,-629,12.6765,36.8862,0.0117062,0.0252759,-0.0104993,0.0309918,0.00599023,-1.07225,0.0189822,0.0455667,1567,1653,12.6765,-36.8862
350,-629,12.8456,36.2477,0.0116718,0.0237196,-0.0106964,0.0299717,0.00541976,-1.04185,0.0184419,0.0302893,1574,1653,12.8456,-36.2477
357,-629,12.9208,35.7194,0.0109988,0.0211124,-0.0100696,0.0273236,0.00478763,-1.0181,0.0168482,0.0182007,1581,1653,12.9207,-35.7194
364,-629,12.8881,35.3114,0.0099094,0.0187014,-0.00905707,0.0243729,0.00423785,-1.01133,0.0150364,0.0148612,1588,1653,12.8881,-35.3115
371,-629,12.886,34.9268,0.00871369,0.0162738,-0.00791571,0.0212657,0.0037218,-1.00816,0.0131138,0.0115731,1595,1653,12.886,-34.9268
378,-629,12.8955,34.5142,0.00735346,0.0140259,-0.0066209,0.0181036,0.00327573,-1.01878,0.0111389,0.0103843,1602,1653,12.8955,-34.5141
385,-629,12.9113,34.0978,0.00598951,0.0115629,-0.00534508,0.0148041,0.0027483,-1.02569,0.00909281,0.0117162,1609,1653,12.9112,-34.0978
392,-629,12.9034,33.6825,0.00458084,0.00921394,-0.0041176,0.0116219,0.00217288,-1.04163,0.0071348,0.0108193,1616,1653,12.9035,-33.6825
399,-629,12.9004,33.2604,0.00313529,0.00689744,-0.00289276,0.00846694,0.00156579,-1.07368,0.00520185,0.0116015,1623,1653,12.9004,-33.2603
406,-629,12.9022,32.8347,0.00184184,0.00510719,-0.00190046,0.00597998,0.000969044,-1.14027,0.00370611,0.0148698,1630,1653,12.9022,-32.8347
413,-629,12.8811,32.4183,0.000833416,0.00347241,-0.00107424,0.00385441,0.000451424,-1.22915,0.00243313,0.0240629,1637,1653,12.8811,-32.4184
420,-629,12.8584,32.0298,3.69521e-05,0.00226289,-0.000503018,0.00237128,-7.14416e-05,-1.35855,0.0016052,0.0224732,1644,1653,12.8584,-32.0298
427,-629,12.8656,31.5709,-0.000688191,0.00113248,-9.69776e-06,0.00113253,-0.000688243,-1.56547,0.0010616,0.0143105,1651,1653,12.8656,-31.571
434,-629,12.8651,31.1145,-0.00112247,0.00038942,0.000171437,0.000408616,-0.00114167,1.45929,0.00092781,0.0118911,1658,1653,12.8651,-31.1145
441,-629,12.843,30.649,-0.00130061,-4.98805e-05,0.000181295,-2.41315e-05,-0.00132636,1.42971,0.000876306,0.0160136,1665,1653,12.843,-30.649
448,-629,12.8168,30.2018,-0.00140633,-0.000443833,0.000181578,-0.000410717,-0.00143945,1.3904,0.000856216,0.0155988,1672,1653,12.8168,-30.2018
455,-629,12.7922,29.712,-0.00149643,-0.000772122,0.000134258,-0.000748037,-0.00152051,1.39329,0.000877907,0.0156551,1679,1653,12.7923,-29.712
462,-629,12.8009,29.2693,-0.00179109,-0.0011298,0.00020075,-0.00107363,-0.00184726,1.29797,0.00107119,0.0177317,1686,1653,12.8009,-29.2692
469,-629,12.7837,28.8014,-0.00214303,-0.00140269,0.000289331,-0.00130303,-0.00224269,1.23908,0.00130047,0.0214777,1693,1653,12.7837,-28.8013
476,-629,12.9138,28.4487,-0.00261373,-0.00181219,0.000512822,-0.00156211,-0.0028638,1.11708,0.0016557,0.0442019,1700,1653,12.9138,-28.4488
483,-629,13.0286,27.9546,0,0,0,0,0,0,0,-1,1707,1653,13.0286,-27.9546
490,-629,13.3649,26.5394,0,0,0,0,0,0,0,-1,1714,1653,13.3649,-26.5395
497,-629,10.3662,19.8605,0,0,0,0,0,0,0,-1,1721,1653,10.3662,-19.8605
504,-629,7.89453,15.5316,0,0,0,0,0,0,0,-1,1728,1653,7.89447,-15.5316
511,-629,6.29138,3.40295,0,0,0,0,0,0,0,-1,1735,1653,6.29137,-3.403
518,-629,5.84387,1.41858,0,0,0,0,0,0,0,-1,1742,1653,5.84391,-1.4186
525,-629,6.4729,1.02319,0,0,0,0,0,0,0,-1,1749,1653,6.47284,-1.02316
532,-629,6.86511,0.903687,0,0,0,0,0,0,0,-1,1756,1653,6.86514,-0.903691
539,-629,6.60803,0.746704,0,0,0,0,0,0,0,-1,1763,1653,6.60809,-0.746691
546,-629,0,0,0,0,0,0,0,0,0,-1,1770,1653,0,0
553,-629,0,0,0,0,0,0,0,0,0,-1,1777,1653,0,0
560,-629,0,0,0,0,0,0,0,0,0,-1,1784,1653,0,0
567,-629,0,0,0,0,0,0,0,0,0,-1,1791,1653,0,0
574,-629,0,0,0,0,0,0,0,0,0,-1,1798,1653,0,0
581,-629,0,0,0,0,0,0,0,0,0,-1,1805,1653,0,0
588,-629,0,0,0,0,0,0,0,0,0,-1,1812,1653,0,0
595,-629,0,0,0,0,0,0,0,0,0,-1,1819,1653,0,0
602,-629,0,0,0,0,0,0,0,0,0,-1,1826,1653,0,0
609,-629,0,0,0,0,0,0,0,0,0,-1,1833,1653,0,0
616,-629,0,0,0,0,0,0,0,0,0,-1,1840,1653,0,0
623,-629,0,0,0,0,0,0,0,0,0,-1,1847,1653,0,0
630,-629,0,0,0,0,0,0,0,0,0,-1,1854,1653,0,0
637,-629,0,0,0,0,0,0,0,0,0,-1,1861,1653,0,0
644,-629,0,0,0,0,0,0,0,0,0,-1,1868,1653,0,0
651,-629,0,0,0,0,0,0,0,0,0,-1,1875,1653,0,0
658,-629,0,0,0,0,0,0,0,0,0,-1,1882,1653,0,0
665,-629,0,0,0,0,0,0,0,0,0,-1,1889,1653,0,0
672,-629,0,0,0,0,0,0,0,0,0,-1,1896,1653,0,0
679,-629,0,0,0,0,0,0,0,0,0,-1,1903,1653,0,0
686,-629,0,0,0,0,0,0,0,0,0,-1,1910,1653,0,0
693,-629,0,0,0,0,0,0,0,0,0,-1,1917,1653,0,0
700,-629,0,0,0,0,0,0,0,0,0,-1,1924,1653,0,0
707,-629,0,0,0,0,0,0,0,0,0,-1,1931,1653,0,0
714,-629,0,0,0,0,0,0,0,0,0,-1,1938,1653,0,0
721,-629,0,0,0,0,0,0,0,0,0,-1,1945,1653,0,0
728,-629,0,0,0,0,0,0,0,0,0,-1,1952,1653,0,0
735,-629,0,0,0,0,0,0,0,0,0,-1,1959,1653,0,0
742,-629,0,0,0,0,0,0,0,0,0,-1,1966,1653,0,0
749,-629,0,0,0,0,0,0,0,0,0,-1,1973,1653,0,0
756,-629,0,0,0,0,0,0,0,0,0,-1,1980,1653,0,0
763,-629,0,0,0,0,0,0,0,0,0,-1,1987,1653,0,0
770,-629,0,0,0,0,0,0,0,0,0,-1,1994,1653,0,0
777,-629,0,0,0,0,0,0,0,0,0,-1,2001,1653,0,0
784,-629,0,0,0,0,0,0,0,0,0,-1,2008,1653,0,0
791,-629,0,0,0,0,0,0,0,0,0,-1,2015,1653,0,0
798,-629,0,0,0,0,0,0,0,0,0,-1,2022,1653,0,0
805,-629,0,0,0,0,0,0,0,0,0,-1,2029,1653,0,0
812,-629,0,0,0,0,0,0,0,0,0,-1,2036,1653,0,0
-700,-636,0,0,0,0,0,0,0,0,0,-1,524,1660,0,0
-693,-636,0,0,0,0,0,0,0,0,0,-1,531,1660,0,0
-686,-636,0,0,0,0,0,0,0,0,0,-1,538,1660,0,0
-679,-636,0,0,0,0,0,0,0,0,0,-1,545,1660,0,0
-672,-636,0,0,0,0,0,0,0,0,0,-1,552,1660,0,0
-665,-636,0,0,0,0,0,0,0,0,0,-1,559,1660,0,0
-658,-636,0,0,0,0,0,0,0,0,0,-1,566,1660,0,0
-651,-636,0,0,0,0,0,0,0,0,0,-1,573,1660,0,0
-644,-636,0,0,0,0,0,0,0,0,0,-1,580,1660,0,0
-637,-636,0,0,0,0,0,0,0,0,0,-1,587,1660,0,0
-630,-636,0,0,0,0,0,0,0,0,0,-1,594,1660,0,0
-623,-636,0,0,0,0,0,0,0,0,0,-1,601,1660,0,0
-616,-636,0,0,0,0,0,0,0,0,0,-1,608,1660,0,0
-609,-636,0,0,0,0,0,0,0,0,0,-1,615,1660,0,0
-602,-636,0,0,0,0,0,0,0,0,0,-1,622,1660,0,0
-595,-636,0,0,0,0,0,0,0,0,0,-1,629,1660,0,0
-588,-636,0,0,0,0,0,0,0,0,0,-1,636,1660,0,0
-581,-636,0,0,0,0,0,0,0,0,0,-1,643,1660,0,0
-574,-636,0,0,0,0,0,0,0,0,0,-1,650,1660,0,0
-567,-636,0,0,0,0,0,0,0,0,0,-1,657,1660,0,0
-560,-636,0,0,0,0,0,0,0,0,0,-1,664,1660,0,0
-553,-636,0,0,0,0,0,0,0,0,0,-1,671,1660,0,0
-546,-636,0,0,0,0,0,0,0,0,0,-1,678,1660,0,0
-539,-636,0,0,0,0,0,0,0,0,0,-1,685,1660,0,0
-532,-636,0,0,0,0,0,0,0,0,0,-1,692,1660,0,0
-525,-636,0,0,0,0,0,0,0,0,0,-1,699,1660,0,0
-518,-636,0,0,0,0,0,0,0,0,0,-1,706,1660,0,0
-511,-636,0,0,0,0,0,0,0,0,0,-1,713,1660,0,0
-504,-636,0,0,0,0,0,0,0,0,0,-1,720,1660,0,0
-497,-636,0,0,0,0,0,0,0,0,0,-1,727,1660,0,0
-490,-636,0,0,0,0,0,0,0,0,0,-1,734,1660,0,0
-483,-636,0,0,0,0,0,0,0,0,0,-1,741,1660,0,0
-476,-636,0,0,0,0,0,0,0,0,0,-1,748,1660,0,0
-469,-636,0,0,0,0,0,0,0,0,0,-1,755,1660,0,0
-462,-636,0,0,0,0,0,0,0,0,0,-1,762,1660,0,0
-455,-636,0,0,0,0,0,0,0,0,0,-1,769,1660,0,0
-448,-636,0,0,0,0,0,0,0,0,0,-1,776,1660,0,0
-441,-636,0,0,0,0,0,0,0,0,0,-1,783,1660,0,0
-434,-636,0,0,0,0,0,0,0,0,0,-1,790,1660,0,0
-427,-636,0,0,0,0,0,0,0,0,0,-1,797,1660,0,0
-420,-636,0,0,0,0,0,0,0,0,0,-1,804,1660,0,0
-413,-636,0,0,0,0,0,0,0,0,0,-1,811,1660,0,0
-406,-636,-0.591125,10.6943,0,0,0,0,0,0,0,-1,818,1660,-0.59115,-10.6943
-399,-636,0.0766602,11.2408,0,0,0,0,0,0,0,-1,825,1660,0.076685,-11.2409
-392,-636,0.75946,11.9233,0,0,0,0,0,0,0,-1,832,1660,0.759481,-11.9233
-385,-636,1.68878,12.517,0,0,0,0,0,0,0,-1,839,1660,1.6888,-12.5169
-378,-636,2.22107,13.0013,0,0,0,0,0,0,0,-1,846,1660,2.22107,-13.0014
-371,-636,2.52185,11.9684,0,0,0,0,0,0,0,-1,853,1660,2.52184,-11.9684
-364,-636,4.51947,14.8503,0,0,0,0,0,0,0,-1,860,1660,4.51949,-14.8504
-357,-636,4.55682,15.8809,0,0,0,0,0,0,0,-1,867,1660,4.55681,-15.8808
-350,-636,5.44299,27.2808,0,0,0,0,0,0,0,-1,874,1660,5.44301,-27.2807
-343,-636,5.27765,27.5474,-0.0111647,0.00711592,0.00137776,0.00721917,-0.0112679,1.49599,0.0107585,0.0460814,881,1660,5.27768,-27.5474
-336,-636,4.55823,28.1095,-0.0081254,0.00619679,0.00203974,0.00648163,-0.00841023,1.43205,0.00862182,0.035058,888,1660,4.55824,-28.1095
-329,-636,4.52875,28.6578,-0.00599217,0.0057093,0.00244057,0.00619792,-0.0064808,1.3732,0.00732067,0.0193127,895,1660,4.52873,-28.6578
-322,-636,4.49323,29.1643,-0.00437545,0.00499144,0.00261036,0.00566977,-0.00505378,1.31656,0.00619465,0.0121494,902,1660,4.49326,-29.1643
-315,-636,4.43036,29.6497,-0.00305683,0.00434874,0.0027162,0.00523817,-0.00394625,1.25435,0.00532008,0.0128929,909,1660,4.43036,-29.6497
-308,-636,4.4162,30.1492,-0.00194634,0.00399729,0.00269756,0.00503901,-0.00298806,1.20227,0.00468459,0.0112417,916,1660,4.41618,-30.1491
-301,-636,4.41229,30.6278,-0.00109007,0.00372941,0.00261452,0.0048753,-0.00223596,1.15773,0.00419889,0.0111824,923,1660,4.41226,-30.6278
-294,-636,4.39441,31.0941,-0.000340918,0.00359988,0.00259468,0.00488752,-0.00162856,1.11014,0.00391577,0.0141459,930,1660,4.3944,-31.0941
-287,-636,4.37531,31.5385,0.000540903,0.0034561,0.00270302,0.00506948,-0.00107247,1.03267,0.00378809,0.012747,937,1660,4.37533,-31.5384
-280,-636,4.36456,32.0027,0.00113623,0.00351402,0.00260996,0.00519311,-0.000542865,0.999117,0.00365649,0.0126188,944,1660,4.36457,-32.0027
-273,-636,4.33667,32.444,0.00156677,0.0035679,0.00253141,0.00528932,-0.000154645,0.973604,0.00357888,0.0129331,951,1660,4.33667,-32.444
-266,-636,4.33331,32.8958,0.00209491,0.00382427,0.00256725,0.00566854,0.000250637,0.947838,0.00369832,0.0130789,958,1660,4.33333,-32.8957
-259,-636,4.33521,33.3821,0.00266641,0.00409212,0.00265368,0.00612702,0.000631506,0.916615,0.0038913,0.0147241,965,1660,4.33518,-33.3821
-252,-636,4.32336,33.7917,0.00320972,0.00450989,0.00271356,0.00665015,0.00106946,0.902967,0.00412344,0.0113592,972,1660,4.32334,-33.7917
-245,-636,4.32361,34.2363,0.00374154,0.00489427,0.00273466,0.00711264,0.00152317,0.889259,0.0043244,0.0102029,979,1660,4.32359,-34.2364
-238,-636,4.32007,34.6652,0.00429006,0.00528325,0.00276444,0.00759534,0.00197797,0.874269,0.00454988,0.0119457,986,1660,4.3201,-34.6652
-231,-636,4.31561,35.0865,0.00492338,0.0058034,0.00291822,0.00831459,0.00241219,0.860224,0.0049394,0.0114184,993,1660,4.31564,-35.0866
-224,-636,4.3335,35.5076,0.0056556,0.00655887,0.00300605,0.00914702,0.00306746,0.859962,0.00537563,0.00991249,1000,1660,4.33351,-35.5075
-217,-636,4.31769,35.9877,0.00654363,0.00704035,0.00339847,0.0101995,0.00338446,0.821873,0.0059987,0.0188206,1007,1660,4.31769,-35.9877
-210,-636,4.31354,36.3953,0.00717053,0.00742116,0.00419012,0.0114878,0.00310385,0.800348,0.00686206,0.03284,1014,1660,4.31353,-36.3952
-203,-636,4.32959,36.9309,0.00720068,0.0079852,0.00476358,0.0123726,0.00281324,0.826478,0.00748894,0.0390928,1021,1660,4.32961,-36.9309
-196,-636,4.50854,37.1881,0.00745861,0.00878643,0.00554982,0.0137119,0.00253313,0.844929,0.0084248,0.0386631,1028,1660,4.5085,-37.1881
-189,-636,4.48657,37.4867,0.00738496,0.00940699,0.00645834,0.014933,0.00185897,0.86304,0.00939715,0.0345942,1035,1660,4.48659,-37.4868
-182,-636,4.59302,38.0785,0.00719509,0.00983249,0.00787235,0.0164958,0.000531749,0.868383,0.0108243,0.0459536,1042,1660,4.59304,-38.0784
-175,-636,4.6521,38.5184,0,0,0,0,0,0,0,-1,1049,1660,4.65205,-38.5184
-168,-636,5.73523,38.6365,0,0,0,0,0,0,0,-1,1056,1660,5.73522,-38.6364
-161,-636,5.86926,38.9774,0,0,0,0,0,0,0,-1,1063,1660,5.86928,-38.9775
-154,-636,4.76965,39.111,0,0,0,0,0,0,0,-1,1070,1660,4.76962,-39.1109
-147,-636,4.32129,31.4845,0,0,0,0,0,0,0,-1,1077,1660,4.32127,-31.4845
-140,-636,3.4729,27.1271,0,0,0,0,0,0,0,-1,1084,1660,3.47287,-27.1271
-133,-636,4.68311,18.0922,0,0,0,0,0,0,0,-1,1091,1660,4.68316,-18.0921
-126,-636,3.79028,18.2225,0,0,0,0,0,0,0,-1,1098,1660,3.79025,-18.2226
-119,-636,1.8667,13.8916,0,0,0,0,0,0,0,-1,1105,1660,1.86668,-13.8916
-112,-636,-1.24963,9.7998,0,0,0,0,0,0,0,-1,1112,1660,-1.24968,-9.79978
-105,-636,3.51624,4.72791,0,0,0,0,0,0,0,-1,1119,1660,3.51618,-4.7279
-98,-636,1.54504,5.11914,0,0,0,0,0,0,0,-1,1126,1660,1.54503,-5.11912
-91,-636,-1.87964,-2.25012,0,0,0,0,0,0,0,-1,1133,1660,-1.87966,2.25016
-84,-636,-2.84143,0.133667,0,0,0,0,0,0,0,-1,1140,1660,-2.84144,-0.133701
-77,-636,-3.57349,2.45935,0,0,0,0,0,0,0,-1,1147,1660,-3.57345,-2.45939
-70,-636,-4.23682,4.82312,0,0,0,0,0,0,0,-1,1154,1660,-4.23681,-4.82307
-63,-636,-2.21033,6.97168,0,0,0,0,0,0,0,-1,1161,1660,-2.21034,-6.97165
-56,-636,-2.51917,8.80359,0,0,0,0,0,0,0,-1,1168,1660,-2.51916,-8.80361
-49,-636,-3.13,10.4113,0,0,0,0,0,0,0,-1,1175,1660,-3.12996,-10.4112
-42,-636,-2.27771,4.90173,0,0,0,0,0,0,0,-1,1182,1660,-2.27775,-4.90173
-35,-636,-2.27698,5.89685,0,0,0,0,0,0,0,-1,1189,1660,-2.27695,-5.89686
-28,-636,-1.70654,4.83936,0,0,0,0,0,0,0,-1,1196,1660,-1.70656,-4.8393
-21,-636,4.24683,27.7834,0,0,0,0,0,0,0,-1,1203,1660,4.24687,-27.7835
-14,-636,6.02441,42.83,0,0,0,0,0,0,0,-1,1210,1660,6.02439,-42.8299
-7,-636,6.61853,43.6249,0,0,0,0,0,0,0,-1,1217,1660,6.61853,-43.6249
0,-636,6.88855,44.5944,0.1398,-0.0168656,-0.0337635,0.146767,-0.0238323,-0.203482,0.10668,0.0470737,1224,1660,6.8885,-44.5944
7,-636,6.22034,42.8602,0,0,0,0,0,0,0,-1,1231,1660,6.22033,-42.8602
14,-636,7.32764,43.5143,0.150653,0.0114027,-0.000666361,0.150656,0.0113995,-0.00478519,0.0968616,0.043833,1238,1660,7.32763,-43.5143
21,-636,7.4198,43.8081,0.141705,0.0191878,0.00646375,0.142045,0.0188478,0.0525634,0.0890812,0.0479228,1245,1660,7.41975,-43.8081
28,-636,14.2086,48.6876,0.12707,0.0244909,0.00947447,0.127938,0.0236231,0.091333,0.0786096,0.0473731,1252,1660,14.2087,-48.6876
35,-636,7.56067,45.1157,0.109055,0.0274464,0.00997606,0.110257,0.0262446,0.119891,0.0665054,0.0454232,1259,1660,7.56066,-45.1158
42,-636,7.49744,45.7489,0.0929115,0.0302245,0.0111475,0.0948348,0.0283012,0.170852,0.0562165,0.047683,1266,1660,7.4974,-45.7489
49,-636,7.46497,46.5393,0.0814663,0.0481514,0.0175611,0.0890134,0.0406042,0.4059,0.0514577,0.0445662,1273,1660,7.46492,-46.5393
56,-636,6.94568,46.6581,0.0749422,0.0691992,0.0262286,0.098456,0.0456853,0.730875,0.0568926,0.046938,1280,1660,6.94568,-46.6581
63,-636,6.71912,47.0767,0.0708341,0.098286,0.0352971,0.122432,0.046688,0.970835,0.0713467,0.0450222,1287,1660,6.71909,-47.0767
70,-636,7.06042,47.4935,0.0714399,0.139791,0.0463049,0.163167,0.0480645,1.1033,0.0968183,0.0468258,1294,1660,7.06043,-47.4936
77,-636,8.7876,48.0579,0,0,0,0,0,0,0,-1,1301,1660,8.78765,-48.0578
84,-636,8.74219,48.4441,0.0781335,0.241901,0.0692885,0.267283,0.052752,1.21966,0.163467,0.0440726,1308,1660,8.74215,-48.444
91,-636,8.51587,48.7764,0.0915421,0.29893,0.0680105,0.319244,0.0712286,1.28055,0.193507,0.0412067,1315,1660,8.5159,-48.7763
98,-636,13.4645,57.1654,0,0,0,0,0,0,0,-1,1322,1660,13.4645,-57.1654
105,-636,13.8,56.6611,0,0,0,0,0,0,0,-1,1329,1660,13.8,-56.6611
112,-636,14.2163,56.1249,0,0,0,0,0,0,0,-1,1336,1660,14.2163,-56.1249
119,-636,14.3527,55.2611,0,0,0,0,0,0,0,-1,1343,1660,14.3527,-55.2612
126,-636,14.5425,54.9017,0,0,0,0,0,0,0,-1,1350,1660,14.5425,-54.9018
133,-636,14.6454,54.2653,0.131086,0.554091,-0.0152511,0.55464,0.130537,-1.5348,0.33484,0.0459972,1357,1660,14.6454,-54.2652
140,-636,15.7153,53.0292,0.12561,0.550877,-0.05228,0.55721,0.119277,-1.45025,0.338787,0.0420828,1364,1660,15.7153,-53.0291
147,-636,16.8142,51.6556,0.11675,0.484472,-0.105348,0.512514,0.088708,-1.31064,0.316281,0.0471453,1371,1660,16.8142,-51.6556
154,-636,17.7921,50.6945,0,0,0,0,0,0,0,-1,1378,1660,17.7922,-50.6945
161,-636,10.2961,7.13025,0,0,0,0,0,0,0,-1,1385,1660,10.2961,-7.13021
168,-636,11.7659,5.83899,0,0,0,0,0,0,0,-1,1392,1660,11.7658,-5.83899
175,-636,5.94592,-1.72888,0,0,0,0,0,0,0,-1,1399,1660,5.94598,1.72886
182,-636,5.93994,-1.11938,0,0,0,0,0,0,0,-1,1406,1660,5.93998,1.11936
189,-636,5.32544,11.9595,0,0,0,0,0,0,0,-1,1413,1660,5.32542,-11.9595
196,-636,5.3623,9.38025,0,0,0,0,0,0,0,-1,1420,1660,5.36225,-9.38027
203,-636,5.18542,9.02429,0,0,0,0,0,0,0,-1,1427,1660,5.18547,-9.0243
210,-636,4.09167,7.17041,0,0,0,0,0,0,0,-1,1434,1660,4.09173,-7.17041
217,-636,2.94897,5.28992,0,0,0,0,0,0,0,-1,1441,1660,2.94899,-5.28991
224,-636,1.49194,3.63916,0,0,0,0,0,0,0,-1,1448,1660,1.49197,-3.63918
231,-636,0.17749,2.24854,0,0,0,0,0,0,0,-1,1455,1660,0.177501,-2.24855
238,-636,-0.764648,1.00598,0,0,0,0,0,0,0,-1,1462,1660,-0.764704,-1.00595
245,-636,6.21204,1.18005,0,0,0,0,0,0,0,-1,1469,1660,6.21206,-1.18001
252,-636,7.70251,0.865723,0,0,0,0,0,0,0,-1,1476,1660,7.7025,-0.865692
259,-636,9.03601,0.787231,0,0,0,0,0,0,0,-1,1483,1660,9.03598,-0.787243
266,-636,10.1071,3.24109,0,0,0,0,0,0,0,-1,1490,1660,10.1071,-3.24103
273,-636,8.48535,5.02466,0,0,0,0,0,0,0,-1,1497,1660,8.48533,-5.02472
280,-636,11.908,32.0698,0,0,0,0,0,0,0,-1,1504,1660,11.9079,-32.0698
287,-636,12.1218,36.4158,0,0,0,0,0,0,0,-1,1511,1660,12.1218,-36.4158
294,-636,12.5927,38.8149,0,0,0,0,0,0,0,-1,1518,1660,12.5927,-38.815
301,-636,12.3665,39.3929,0,0,0,0,0,0,0,-1,1525,1660,12.3664,-39.3929
308,-636,12.3973,39.0066,0,0,0,0,0,0,0,-1,1532,1660,12.3973,-39.0066
315,-636,12.4396,38.3573,0,0,0,0,0,0,0,-1,1539,1660,12.4395,-38.3573
322,-636,12.3872,37.5231,0,0,0,0,0,0,0,-1,1546,1660,12.3872,-37.523
329,-636,12.4727,37.3766,0.00799566,0.0203922,-0.00536451,0.0223913,0.00599658,-1.21409,0.0133842,0.0361455,1553,1660,12.4727,-37.3766
336,-636,12.4509,36.9014,0.0082582,0.0194046,-0.00623211,0.022192,0.00547079,-1.15022,0.0133501,0.0255469,1560,1660,12.4509,-36.9014
343,-636,12.4316,36.5813,0.00837288,0.0182244,-0.00698556,0.0218462,0.00475106,-1.09248,0.0132671,0.0221563,1567,1660,12.4317,-36.5813
350,-636,12.4402,36.1459,0.00836364,0.0171338,-0.00732047,0.0212821,0.00421536,-1.05525,0.0130125,0.0133136,1574,1660,12.4402,-36.1458
357,-636,12.4854,35.7004,0.00791893,0.015234,-0.00700975,0.0194831,0.00366988,-1.02586,0.0119547,0.0111462,1581,1660,12.4853,-35.7005
364,-636,12.4907,35.3062,0.00713157,0.0134475,-0.00636054,0.0173909,0.00318818,-1.01582,0.0106909,0.0112716,1588,1660,12.4908,-35.3061
371,-636,12.4841,34.9221,0.00624204,0.0116311,-0.00558063,0.0151336,0.00273946,-1.01031,0.00931125,0.00942533,1595,1660,12.4842,-34.9221
378,-636,12.4949,34.5176,0.00525991,0.00981318,-0.00467536,0.0127367,0.00233635,-1.01197,0.00782945,0.00953526,1602,1660,12.4949,-34.5175
385,-636,12.5074,34.1014,0.00423091,0.00779299,-0.00372404,0.01014,0.00188393,-1.00845,0.00622773,0.0144444,1609,1660,12.5075,-34.1014
392,-636,12.4865,33.6761,0.0030894,0.0058176,-0.00274548,0.00751918,0.00138781,-1.01596,0.00462019,0.016638,1616,1660,12.4865,-33.6762
399,-636,12.4739,33.2736,0.00185683,0.00383774,-0.00176596,0.00487204,0.00082253,-1.04097,0.00301153,0.0130534,1623,1660,12.4739,-33.2736
406,-636,12.4973,32.8838,0.000727372,0.00237298,-0.000963551,0.00281724,0.000283119,-1.13878,0.00179126,0.0152534,1630,1660,12.4973,-32.8837
413,-636,12.4752,32.462,-0.000165162,0.00109291,-0.000294727,0.00115853,-0.000230785,-1.35172,0.000859672,0.0241395,1637,1660,12.4753,-32.4621
420,-636,12.4183,32.0173,-0.000909851,0.000166559,0.000158884,0.000189522,-0.000932814,1.42727,0.000693733,0.0234777,1644,1660,12.4183,-32.0174
427,-636,12.4127,31.5568,-0.00152956,-0.00059273,0.000490743,-0.000382734,-0.00173955,1.16646,0.00105551,0.0133228,1651,1660,12.4127,-31.5567
434,-636,12.3982,31.1194,-0.00197232,-0.000989281,0.00061246,-0.000695499,-0.0022661,1.12354,0.00134046,0.0115898,1658,1660,12.3982,-31.1194
441,-636,12.391,30.6678,-0.00225849,-0.00105526,0.00058465,-0.000817975,-0.00249578,1.18525,0.00146916,0.0120035,1665,1660,12.391,-30.6678
448,-636,12.3949,30.2295,-0.00248559,-0.00101805,0.000534243,-0.000844163,-0.00265947,1.25613,0.0015692,0.0144147,1672,1660,12.3949,-30.2295
455,-636,12.3458,29.7694,-0.00264647,-0.000857255,0.000443938,-0.000753162,-0.00275056,1.34048,0.0016413,0.0154294,1679,1660,12.3458,-29.7694
462,-636,12.3384,29.3077,-0.00294754,-0.000700129,0.00044615,-0.0006148,-0.00303287,1.38182,0.00185133,0.0199863,1686,1660,12.3384,-29.3077
469,-636,12.3713,28.8126,-0.00332504,-0.000518826,0.000503862,-0.000431099,-0.00341276,1.39841,0.00214596,0.0333175,1693,1660,12.3713,-28.8126
476,-636,12.4705,28.3081,0,0,0,0,0,0,0,-1,1700,1660,12.4705,-28.3082
483,-636,11.3833,24.3958,0,0,0,0,0,0,0,-1,1707,1660,11.3833,-24.3957
490,-636,10.8951,23.9569,0,0,0,0,0,0,0,-1,1714,1660,10.8951,-23.9569
497,-636,9.55579,18.0111,0,0,0,0,0,0,0,-1,1721,1660,9.55574,-18.0111
504,-636,6.26428,19.4268,0,0,0,0,0,0,0,-1,1728,1660,6.26433,-19.4268
511,-636,5.65466,9.23218,0,0,0,0,0,0,0,-1,1735,1660,5.65461,-9.23216
518,-636,6.72791,1.07605,0,0,0,0,0,0,0,-1,1742,1660,6.7279,-1.0761
525,-636,7.04309,0.93335,0,0,0,0,0,0,0,-1,1749,1660,7.04308,-0.933298
532,-636,0,0,0,0,0,0,0,0,0,-1,1756,1660,0,0
539,-636,0,0,0,0,0,0,0,0,0,-1,1763,1660,0,0
546,-636,0,0,0,0,0,0,0,0,0,-1,1770,1660,0,0
553,-636,0,0,0,0,0,0,0,0,0,-1,1777,1660,0,0
560,-636,0,0,0,0,0,0,0,0,0,-1,1784,1660,0,0
567,-636,0,0,0,0,0,0,0,0,0,-1,1791,1660,0,0
574,-636,0,0,0,0,0,0,0,0,0,-1,1798,1660,0,0
581,-636,0,0,0,0,0,0,0,0,0,-1,1805,1660,0,0
588,-636,0,0,0,0,0,0,0,0,0,-1,1812,1660,0,0
595,-636,0,0,0,0,0,0,0,0,0,-1,1819,1660,0,0
602,-636,0,0,0,0,0,0,0,0,0,-1,1826,1660,0,0
609,-636,0,0,0,0,0,0,0,0,0,-1,1833,1660,0,0
616,-636,0,0,0,0,0,0,0,0,0,-1,1840,1660,0,0
623,-636,0,0,0,0,0,0,0,0,0,-1,1847,1660,0,0
630,-636,0,0,0,0,0,0,0,0,0,-1,1854,1660,0,0
637,-636,0,0,0,0,0,0,0,0,0,-1,1861,1660,0,0
644,-636,0,0,0,0,0,0,0,0,0,-1,1868,1660,0,0
651,-636,0,0,0,0,0,0,0,0,0,-1,1875,1660,0,0
658,-636,0,0,0,0,0,0,0,0,0,-1,1882,1660,0,0
665,-636,0,0,0,0,0,0,0,0,0,-1,1889,1660,0,0
672,-636,0,0,0,0,0,0,0,0,0,-1,1896,1660,0,0
679,-636,0,0,0,0,0,0,0,0,0,-1,1903,1660,0,0
686,-636,0,0,0,0,0,0,0,0,0,-1,1910,1660,0,0
693,-636,0,0,0,0,0,0,0,0,0,-1,1917,1660,0,0
700,-636,0,0,0,0,0,0,0,0,0,-1,1924,1660,0,0
707,-636,0,0,0,0,0,0,0,0,0,-1,1931,1660,0,0
714,-636,0,0,0,0,0,0,0,0,0,-1,1938,1660,0,0
721,-636,0,0,0,0,0,0,0,0,0,-1,1945,1660,0,0
728,-636,0,0,0,0,0,0,0,0,0,-1,1952,1660,0,0
735,-636,0,0,0,0,0,0,0,0,0,-1,1959,1660,0,0
742,-636,0,0,0,0,0,0,0,0,0,-1,1966,1660,0,0
749,-636,0,0,0,0,0,0,0,0,0,-1,1973,1660,0,0
756,-636,0,0,0,0,0,0,0,0,0,-1,1980,1660,0,0
763,-636,0,0,0,0,0,0,0,0,0,-1,1987,1660,0,0
770,-636,0,0,0,0,0,0,0,0,0,-1,1994,1660,0,0
777,-636,0,0,0,0,0,0,0,0,0,-1,2001,1660,0,0
784,-636,0,0,0,0,0,0,0,0,0,-1,2008,1660,0,0
791,-636,0,0,0,0,0,0,0,0,0,-1,2015,1660,0,0
798,-636,0,0,0,0,0,0,0,0,0,-1,2022,1660,0,0
805,-636,0,0,0,0,0,0,0,0,0,-1,2029,1660,0,0
812,-636,0,0,0,0,0,0,0,0,0,-1,2036,1660,0,0
-700,-643,0,0,0,0,0,0,0,0,0,-1,524,1667,0,0
-693,-643,0,0,0,0,0,0,0,0,0,-1,531,1667,0,0
-686,-643,0,0,0,0,0,0,0,0,0,-1,538,1667,0,0
-679,-643,0,0,0,0,0,0,0,0,0,-1,545,1667,0,0
-672,-643,0,0,0,0,0,0,0,0,0,-1,552,1667,0,0
-665,-643,0,0,0,0,0,0,0,0,0,-1,559,1667,0,0
-658,-643,0,0,0,0,0,0,0,0,0,-1,566,1667,0,0
-651,-643,0,0,0,0,0,0,0,0,0,-1,573,1667,0,0
-644,-643,0,0,0,0,0,0,0,0,0,-1,580,1667,0,0
-637,-643,0,0,0,0,0,0,0,0,0,-1,587,1667,0,0
-630,-643,0,0,0,0,0,0,0,0,0,-1,594,1667,0,0
-623,-643,0,0,0,0,0,0,0,0,0,-1,601,1667,0,0
-616,-643,0,0,0,0,0,0,0,0,0,-1,608,1667,0,0
-609,-643,0,0,0,0,0,0,0,0,0,-1,615,1667,0,0
-602,-643,0,0,0,0,0,0,0,0,0,-1,622,1667,0,0
-595,-643,0,0,0,0,0,0,0,0,0,-1,629,1667,0,0
-588,-643,0,0,0,0,0,0,0,0,0,-1,636,1667,0,0
-581,-643,0,0,0,0,0,0,0,0,0,-1,643,1667,0,0
-574,-643,0,0,0,0,0,0,0,0,0,-1,650,1667,0,0
-567,-643,0,0,0,0,0,0,0,0,0,-1,657,1667,0,0
-560,-643,0,0,0,0,0,0,0,0,0,-1,664,1667,0,0
-553,-643,0,0,0,0,0,0,0,0,0,-1,671,1667,0,0
-546,-643,0,0,0,0,0,0,0,0,0,-1,678,1667,0,0
-539,-643,0,0,0,0,0,0,0,0,0,-1,685,1667,0,0
-532,-643,0,0,0,0,0,0,0,0,0,-1,692,1667,0,0
-525,-643,0,0,0,0,0,0,0,0,0,-1,699,1667,0,0
-518,-643,0,0,0,0,0,0,0,0,0,-1,706,1667,0,0
-511,-643,0,0,0,0,0,0,0,0,0,-1,713,1667,0,0
-504,-643,0,0,0,0,0,0,0,0,0,-1,720,1667,0,0
-497,-643,0,0,0,0,0,0,0,0,0,-1,727,1667,0,0
-490,-643,0,0,0,0,0,0,0,0,0,-1,734,1667,0,0
-483,-643,0,0,0,0,0,0,0,0,0,-1,741,1667,0,0
-476,-643,0,0,0,0,0,0,0,0,0,-1,748,1667,0,0
-469,-643,0,0,0,0,0,0,0,0,0,-1,755,1667,0,0
-462,-643,0,0,0,0,0,0,0,0,0,-1,762,1667,0,0
-455,-643,0,0,0,0,0,0,0,0,0,-1,769,1667,0,0
-448,-643,0,0,0,0,0,0,0,0,0,-1,776,1667,0,0
-441,-643,0,0,0,0,0,0,0,0,0,-1,783,1667,0,0
-434,-643,0,0,0,0,0,0,0,0,0,-1,790,1667,0,0
-427,-643,0,0,0,0,0,0,0,0,0,-1,797,1667,0,0
-420,-643,0,0,0,0,0,0,0,0,0,-1,804,1667,0,0
-413,-643,0,0,0,0,0,0,0,0,0,-1,811,1667,0,0
-406,-643,0,0,0,0,0,0,0,0,0,-1,818,1667,0,0
-399,-643,0.589417,11.6465,0,0,0,0,0,0,0,-1,825,1667,0.58939,-11.6465
-392,-643,0.865295,12.6523,0,0,0,0,0,0,0,-1,832,1667,0.865315,-12.6523
-385,-643,1.72968,13.2692,0,0,0,0,0,0,0,-1,839,1667,1.72967,-13.2692
-378,-643,2.66522,13.8193,0,0,0,0,0,0,0,-1,846,1667,2.66524,-13.8193
-371,-643,0.466125,3.35095,0,0,0,0,0,0,0,-1,853,1667,0.466148,-3.351
-364,-643,1.69513,9.922,0,0,0,0,0,0,0,-1,860,1667,1.69511,-9.92205
-357,-643,1.14227,10.8429,0,0,0,0,0,0,0,-1,867,1667,1.14228,-10.8429
-350,-643,2.50061,9.96948,0,0,0,0,0,0,0,-1,874,1667,2.50059,-9.96954
-343,-643,6.46564,27.2192,0,0,0,0,0,0,0,-1,881,1667,6.46563,-27.2192
-336,-643,5.00848,28.1664,0,0,0,0,0,0,0,-1,888,1667,5.00849,-28.1664
-329,-643,4.96118,28.6569,-0.00694725,0.00860013,0.00420047,0.0096624,-0.00800952,1.3231,0.0102178,0.0400339,895,1667,4.9612,-28.6568
-322,-643,4.98206,29.2412,-0.0050611,0.00732754,0.00421091,0.00862331,-0.00635687,1.27228,0.00868174,0.0262655,902,1667,4.98204,-29.2412
-315,-643,4.88416,29.7018,-0.00354849,0.00610149,0.00411683,0.00761912,-0.00506612,1.21761,0.0073731,0.0178012,909,1667,4.88415,-29.7018
-308,-643,4.88507,30.1605,-0.00233952,0.00525506,0.00385172,0.00686657,-0.00395103,1.17454,0.00632071,0.0127766,916,1667,4.88506,-30.1605
-301,-643,4.89471,30.637,-0.0014896,0.00451358,0.0034919,0.00611665,-0.00309267,1.14041,0.00541171,0.0136683,923,1667,4.89471,-30.637
-294,-643,4.86658,31.0956,-0.000781931,0.00394114,0.00318982,0.00554845,-0.00238925,1.10404,0.00470227,0.0128887,930,1667,4.86657,-31.0956
-287,-643,4.8382,31.5496,7.95134e-05,0.00333426,0.0030569,0.00516998,-0.0017562,1.03,0.00415759,0.011174,937,1667,4.83819,-31.5496
-280,-643,4.82117,31.9996,0.000566649,0.00300698,0.00270193,0.00475147,-0.00117784,0.997486,0.00362463,0.0147351,944,1667,4.82118,-31.9996
-273,-643,4.78809,32.4457,0.000855748,0.00276819,0.00238236,0.00437906,-0.000755127,0.976244,0.00320091,0.0125365,951,1667,4.78809,-32.4456
-266,-643,4.76862,32.8892,0.00129892,0.00280822,0.00224629,0.00442323,-0.000316099,0.947452,0.00305964,0.0119164,958,1667,4.76863,-32.8892
-259,-643,4.76752,33.3484,0.00177287,0.00286485,0.00217445,0.00456081,7.69109e-05,0.908403,0.00301523,0.0117729,965,1667,4.76751,-33.3484
-252,-643,4.76453,33.8055,0.00219431,0.00310137,0.00210474,0.00480089,0.000494789,0.891516,0.00304907,0.0124262,972,1667,4.76456,-33.8056
-245,-643,4.75153,34.254,0.0026154,0.00324901,0.00198922,0.0049465,0.000917915,0.864366,0.00303827,0.0115295,979,1667,4.75153,-34.254
-238,-643,4.76526,34.6721,0.00303555,0.00358897,0.00191828,0.0052504,0.00137413,0.857028,0.00314397,0.0151606,986,1667,4.76527,-34.6721
-231,-643,4.74731,35.1086,0.00356269,0.00409605,0.00203396,0.00588074,0.001778,0.850584,0.00348256,0.0114016,993,1667,4.74732,-35.1086
-224,-643,4.75256,35.5026,0.00422823,0.00476066,0.00209283,0.00660414,0.00238475,0.848659,0.00386163,0.00951166,1000,1667,4.75254,-35.5025
-217,-643,4.7467,35.8831,0.00500315,0.00523395,0.00240183,0.00752315,0.00271395,0.809403,0.00439929,0.00882009,1007,1667,4.74668,-35.8831
-210,-643,4.75299,36.3115,0.00554,0.00565548,0.0029996,0.00859789,0.00259759,0.795021,0.00509193,0.012177,1014,1667,4.75296,-36.3115
-203,-643,4.75012,36.7906,0.00562711,0.00609928,0.00343064,0.00930195,0.00242444,0.819752,0.00557184,0.0173474,1021,1667,4.75006,-36.7907
-196,-643,4.76013,37.1719,0.0059323,0.00670456,0.00403552,0.0103724,0.00226448,0.833094,0.0062973,0.0172108,1028,1667,4.76018,-37.1719
-189,-643,4.86914,37.4929,0.00605459,0.00724462,0.00479324,0.0114796,0.00181958,0.847151,0.00712444,0.0163596,1035,1667,4.86919,-37.4929
-182,-643,4.92236,37.9113,0.00599725,0.00772094,0.00582906,0.0127515,0.000966667,0.858793,0.00819781,0.0232496,1042,1667,4.92238,-37.9112
-175,-643,5.07507,38.4706,0.0054856,0.00824514,0.00703219,0.0140316,-0.000300895,0.882272,0.00945632,0.034319,1049,1667,5.07504,-38.4705
-168,-643,5.5033,38.6324,0.0049896,0.00914957,0.00839223,0.0157157,-0.00157656,0.906874,0.0110403,0.0384063,1056,1667,5.50328,-38.6324
-161,-643,5.60107,38.938,0.0041382,0.00970883,0.0097611,0.0170742,-0.0032272,0.924379,0.0125971,0.0436017,1063,1667,5.60104,-38.938
-154,-643,5.06311,39.1493,0.00295159,0.0102103,0.0108024,0.0179768,-0.00481491,0.94746,0.0138709,0.0498416,1070,1667,5.0631,-39.1493
-147,-643,5.31104,39.6012,0,0,0,0,0,0,0,-1,1077,1667,5.31105,-39.6012
-140,-643,4.30322,22.9166,0,0,0,0,0,0,0,-1,1084,1667,4.30327,-22.9167
-133,-643,3.66748,21.6034,0,0,0,0,0,0,0,-1,1091,1667,3.66743,-21.6034
-126,-643,3.13904,17.689,0,0,0,0,0,0,0,-1,1098,1667,3.13909,-17.689
-119,-643,3.76282,14.1458,0,0,0,0,0,0,0,-1,1105,1667,3.76283,-14.1458
-112,-643,3.81458,16.2069,0,0,0,0,0,0,0,-1,1112,1667,3.81463,-16.2069
-105,-643,-2.23413,10.0996,0,0,0,0,0,0,0,-1,1119,1667,-2.23415,-10.0996
-98,-643,3.11035,4.68066,0,0,0,0,0,0,0,-1,1126,1667,3.11041,-4.68071
-91,-643,-1.74146,-2.5885,0,0,0,0,0,0,0,-1,1133,1667,-1.74146,2.58856
-84,-643,-3.07446,-0.199341,0,0,0,0,0,0,0,-1,1140,1667,-3.07449,0.199383
-77,-643,-3.63794,2.81165,0,0,0,0,0,0,0,-1,1147,1667,-3.63791,-2.8117
-70,-643,-3.36938,4.45203,0,0,0,0,0,0,0,-1,1154,1667,-3.36941,-4.452
-63,-643,-3.67822,6.26855,0,0,0,0,0,0,0,-1,1161,1667,-3.67823,-6.26856
-56,-643,-3.95142,8.1073,0,0,0,0,0,0,0,-1,1168,1667,-3.95139,-8.10732
-49,-643,-4.23535,9.90552,0,0,0,0,0,0,0,-1,1175,1667,-4.23537,-9.90557
-42,-643,-4.25195,10.7059,0,0,0,0,0,0,0,-1,1182,1667,-4.25192,-10.706
-35,-643,-4.10986,11.6588,0,0,0,0,0,0,0,-1,1189,1667,-4.10982,-11.6589
-28,-643,-1.38513,5.604,0,0,0,0,0,0,0,-1,1196,1667,-1.3851,-5.60403
-21,-643,1.61011,23.1276,0,0,0,0,0,0,0,-1,1203,1667,1.61011,-23.1275
-14,-643,4.11682,43.7566,0,0,0,0,0,0,0,-1,1210,1667,4.11685,-43.7567
-7,-643,6.52283,43.2551,0,0,0,0,0,0,0,-1,1217,1667,6.5228,-43.2551
0,-643,7.00696,44.0961,0,0,0,0,0,0,0,-1,1224,1667,7.00694,-44.0961
7,-643,7.11487,43.1896,0,0,0,0,0,0,0,-1,1231,1667,7.11484,-43.1895
14,-643,7.39502,43.5701,0.132098,0.0205002,0.0164389,0.134469,0.018129,0.143252,0.0842556,0.0443349,1238,1667,7.39499,-43.5701
21,-643,7.66956,43.9821,0.123793,0.0284903,0.0208772,0.128165,0.0241175,0.206468,0.0786469,0.0470663,1245,1667,7.66952,-43.9821
28,-643,12.5507,48.2117,0.111142,0.034008,0.0214669,0.116713,0.0284361,0.253954,0.0702749,0.0443381,1252,1667,12.5506,-48.2116
35,-643,11.5637,49.6954,0,0,0,0,0,0,0,-1,1259,1667,11.5637,-49.6955
42,-643,7.4281,46.0012,0.0819052,0.0409185,0.0184228,0.0889686,0.033855,0.366121,0.0518525,0.0441848,1266,1667,7.42809,-46.0012
49,-643,7.31714,46.7056,0.0727891,0.0583593,0.021745,0.0884849,0.0426635,0.625216,0.0510976,0.044796,1273,1667,7.31715,-46.7056
56,-643,7.62415,47.467,0.0677356,0.0782252,0.0271296,0.100612,0.0453485,0.880882,0.0581825,0.045425,1280,1667,7.6242,-47.467
63,-643,6.02734,46.1827,0.0639986,0.104529,0.032283,0.122381,0.0461474,1.06568,0.0713646,0.0444747,1287,1667,6.02735,-46.1827
70,-643,6.70593,46.7892,0.0633514,0.141581,0.0384641,0.157325,0.0476077,1.18229,0.0931609,0.0494026,1294,1667,6.70589,-46.7892
77,-643,8.75134,48.0183,0,0,0,0,0,0,0,-1,1301,1667,8.75136,-48.0183
84,-643,8.80261,48.2123,0.066445,0.231321,0.0534938,0.247156,0.0506099,1.283,0.15076,0.0433206,1308,1667,8.8026,-48.2122
91,-643,8.42493,48.5453,0.0785873,0.284187,0.0537991,0.297413,0.0653606,1.32972,0.180478,0.0427976,1315,1667,8.42488,-48.5453
98,-643,12.6423,54.4628,0.0895761,0.336514,0.0520791,0.347048,0.079042,1.37122,0.210036,0.0487283,1322,1667,12.6423,-54.4628
105,-643,12.8451,54.1444,0.0994247,0.38869,0.0490336,0.396775,0.091339,1.40737,0.239937,0.0471779,1329,1667,12.8451,-54.1444
112,-643,13.0919,53.6808,0.107063,0.434259,0.0407651,0.439262,0.102061,1.44869,0.265444,0.0445332,1336,1667,13.0919,-53.6808
119,-643,13.4265,52.9236,0.111116,0.469029,0.0257051,0.470865,0.109279,1.49946,0.284566,0.0435363,1343,1667,13.4266,-52.9236
126,-643,13.4913,52.5088,0,0,0,0,0,0,0,-1,1350,1667,13.4913,-52.5088
133,-643,14.2449,51.2965,0.112457,0.498382,-0.021144,0.499537,0.111302,-1.51623,0.302821,0.047841,1357,1667,14.2449,-51.2965
140,-643,14.9327,49.9846,0.109754,0.487379,-0.0485034,0.49351,0.103623,-1.44507,0.300481,0.0421897,1364,1667,14.9328,-49.9846
147,-643,15.6377,48.5311,0.109089,0.444341,-0.0725927,0.459384,0.094045,-1.36646,0.280219,0.042445,1371,1667,15.6378,-48.5311
154,-643,16.3632,47.3088,0,0,0,0,0,0,0,-1,1378,1667,16.3631,-47.3088
161,-643,5.57935,26.2754,0,0,0,0,0,0,0,-1,1385,1667,5.57931,-26.2754
168,-643,10.5563,10.9818,0,0,0,0,0,0,0,-1,1392,1667,10.5562,-10.9819
175,-643,5.88525,-1.1698,0,0,0,0,0,0,0,-1,1399,1667,5.88526,1.16977
182,-643,5.80945,-0.418701,0,0,0,0,0,0,0,-1,1406,1667,5.80949,0.418712
189,-643,5.42297,12.9208,0,0,0,0,0,0,0,-1,1413,1667,5.42298,-12.9208
196,-643,5.51953,11.2415,0,0,0,0,0,0,0,-1,1420,1667,5.51948,-11.2414
203,-643,5.60828,9.82153,0,0,0,0,0,0,0,-1,1427,1667,5.60833,-9.82148
210,-643,4.73218,7.58728,0,0,0,0,0,0,0,-1,1434,1667,4.73222,-7.58728
217,-643,3.8031,5.28955,0,0,0,0,0,0,0,-1,1441,1667,3.80305,-5.28955
224,-643,2.96436,2.97095,0,0,0,0,0,0,0,-1,1448,1667,2.96432,-2.97095
231,-643,2.13403,1.08472,0,0,0,0,0,0,0,-1,1455,1667,2.13403,-1.08467
238,-643,1.18152,-0.261963,0,0,0,0,0,0,0,-1,1462,1667,1.18152,0.26192
245,-643,-0.157471,-1.79016,0,0,0,0,0,0,0,-1,1469,1667,-0.157517,1.7901
252,-643,8.08789,0.0202637,0,0,0,0,0,0,0,-1,1476,1667,8.08791,-0.0203056
259,-643,9.02979,-0.46936,0,0,0,0,0,0,0,-1,1483,1667,9.02974,0.46933
266,-643,4.55066,5.17554,0,0,0,0,0,0,0,-1,1490,1667,4.55063,-5.17556
273,-643,10.74,31.432,0,0,0,0,0,0,0,-1,1497,1667,10.7399,-31.4319
280,-643,11.291,37.8925,0,0,0,0,0,0,0,-1,1504,1667,11.291,-37.8925
287,-643,12.4426,39.3301,0,0,0,0,0,0,0,-1,1511,1667,12.4426,-39.3301
294,-643,12.0327,38.996,0.00351308,0.0158998,0.00393171,0.0170424,0.0023705,1.28798,0.0106597,0.0486321,1518,1667,12.0327,-38.996
301,-643,11.9152,39.0808,0.0037477,0.0153323,0.00264376,0.0159072,0.00317288,1.3567,0.0097213,0.0428958,1525,1667,11.9151,-39.0808
308,-643,11.9934,38.5903,0.00391694,0.0154567,0.00114707,0.0155696,0.00380402,1.47267,0.0093727,0.0400889,1532,1667,11.9934,-38.5903
315,-643,12.0394,38.0817,0.00405808,0.0149686,-0.000153316,0.0149707,0.00405592,-1.55675,0.00894063,0.0318327,1539,1667,12.0395,-38.0816
322,-643,12.0627,37.5601,0.005151,0.0150198,-0.00203748,0.0154239,0.0047469,-1.375,0.00912176,0.0207955,1546,1667,12.0628,-37.56
329,-643,12.0586,37.1837,0.0057234,0.0145882,-0.00310253,0.0155662,0.00474545,-1.26544,0.00921246,0.0152581,1553,1667,12.0586,-37.1837
336,-643,12.006,36.8688,0.00583833,0.0138543,-0.00384265,0.0153988,0.00429385,-1.18863,0.00917583,0.0127437,1560,1667,12.006,-36.8688
343,-643,12.0233,36.5303,0.00589085,0.012947,-0.00452173,0.0151542,0.00368366,-1.11669,0.00912618,0.0137159,1567,1667,12.0233,-36.5303
350,-643,12.0865,36.1215,0.00589906,0.0120924,-0.00489683,0.0147895,0.00320191,-1.06734,0.00898461,0.0124388,1574,1667,12.0865,-36.1214
357,-643,12.0879,35.7255,0.00556801,0.0106188,-0.00477215,0.0134925,0.00269422,-1.02876,0.00824502,0.0106898,1581,1667,12.0879,-35.7255
364,-643,12.0872,35.3254,0.00496448,0.0092162,-0.00435675,0.0119381,0.0022426,-1.01238,0.0073265,0.00971909,1588,1667,12.0872,-35.3254
371,-643,12.0854,34.9395,0.00425642,0.00780211,-0.0038127,0.010234,0.00182455,-1.00302,0.00630312,0.00813265,1595,1667,12.0855,-34.9395
378,-643,12.09,34.549,0.00343752,0.00628195,-0.00313384,0.0083012,0.00141828,-0.998413,0.00512718,0.0100575,1602,1667,12.0899,-34.549
385,-643,12.1067,34.1448,0.00254186,0.00460176,-0.00238031,0.00616539,0.000978234,-0.989584,0.0038261,0.0159265,1609,1667,12.1067,-34.1448
392,-643,12.0714,33.73,0.0015017,0.00292464,-0.00156738,0.00393447,0.000491867,-0.998454,0.00247537,0.0171488,1616,1667,12.0714,-33.7299
399,-643,12.0361,33.3169,0.000356214,0.00124622,-0.000762365,0.00168396,-8.15208e-05,-1.04958,0.00115078,0.0147045,1623,1667,12.0361,-33.3169
406,-643,12.0515,32.8795,-0.000719811,6.27451e-05,-9.00291e-05,7.29689e-05,-0.000730035,-1.45772,0.000512747,0.0134282,1630,1667,12.0515,-32.8796
413,-643,12.052,32.4619,-0.00158401,-0.000904717,0.000475223,-0.000660244,-0.00182849,1.09566,0.00106917,0.0197818,1637,1667,12.052,-32.4619
420,-643,12.0022,32.0402,-0.00233862,-0.00158982,0.000852382,-0.00103324,-0.0028952,0.992331,0.00169422,0.0187066,1644,1667,12.0021,-32.0402
427,-643,11.9916,31.5903,-0.00289369,-0.00203253,0.0010413,-0.0013363,-0.00358992,0.981445,0.00209507,0.0151477,1651,1667,11.9916,-31.5903
434,-643,11.9779,31.1538,-0.00334651,-0.00211851,0.00111671,-0.00145814,-0.00400689,1.03675,0.00234177,0.0166456,1658,1667,11.978,-31.1538
441,-643,11.9563,30.6853,-0.00370532,-0.00187979,0.00106866,-0.00138714,-0.00419797,1.13884,0.00246972,0.0161828,1665,1667,11.9563,-30.6853
448,-643,11.8579,30.1987,-0.00400178,-0.00148055,0.000985506,-0.00114105,-0.00434128,1.23903,0.00259873,0.0196675,1672,1667,11.8579,-30.1988
455,-643,11.7639,29.6587,-0.00406597,-0.000896495,0.000898259,-0.000659623,-0.00430285,1.31296,0.00267593,0.0265789,1679,1667,11.7639,-29.6587
462,-643,11.8386,29.1344,-0.00430083,-0.000273308,0.00085516,-9.9255e-05,-0.00447489,1.37001,0.00295073,0.0419639,1686,1667,11.8386,-29.1344
469,-643,11.9869,28.606,0,0,0,0,0,0,0,-1,1693,1667,11.9869,-28.6059
476,-643,10.5598,24.5066,0,0,0,0,0,0,0,-1,1700,1667,10.5598,-24.5065
483,-643,10.4502,24.3062,0,0,0,0,0,0,0,-1,1707,1667,10.4502,-24.3062
490,-643,10.6885,24.1522,0,0,0,0,0,0,0,-1,1714,1667,10.6884,-24.1522
497,-643,10.9073,23.9465,0,0,0,0,0,0,0,-1,1721,1667,10.9074,-23.9465
504,-643,8.05591,19.0656,0,0,0,0,0,0,0,-1,1728,1667,8.0559,-19.0655
511,-643,7.74719,18.1564,0,0,0,0,0,0,0,-1,1735,1667,7.74724,-18.1563
518,-643,7.40564,0.922607,0,0,0,0,0,0,0,-1,1742,1667,7.4057,-0.922598
525,-643,0,0,0,0,0,0,0,0,0,-1,1749,1667,0,0
532,-643,0,0,0,0,0,0,0,0,0,-1,1756,1667,0,0
539,-643,0,0,0,0,0,0,0,0,0,-1,1763,1667,0,0
546,-643,0,0,0,0,0,0,0,0,0,-1,1770,1667,0,0
553,-643,0,0,0,0,0,0,0,0,0,-1,1777,1667,0,0
560,-643,0,0,0,0,0,0,0,0,0,-1,1784,1667,0,0
567,-643,0,0,0,0,0,0,0,0,0,-1,1791,1667,0,0
574,-643,0,0,0,0,0,0,0,0,0,-1,1798,1667,0,0
581,-643,0,0,0,0,0,0,0,0,0,-1,1805,1667,0,0
588,-643,0,0,0,0,0,0,0,0,0,-1,1812,1667,0,0
595,-643,0,0,0,0,0,0,0,0,0,-1,1819,1667,0,0
602,-643,0,0,0,0,0,0,0,0,0,-1,1826,1667,0,0
609,-643,0,0,0,0,0,0,0,0,0,-1,1833,1667,0,0
616,-643,0,0,0,0,0,0,0,0,0,-1,1840,1667,0,0
623,-643,0,0,0,0,0,0,0,0,0,-1,1847,1667,0,0
630,-643,0,0,0,0,0,0,0,0,0,-1,1854,1667,0,0
637,-643,0,0,0,0,0,0,0,0,0,-1,1861,1667,0,0
644,-643,0,0,0,0,0,0,0,0,0,-1,1868,1667,0,0
651,-643,0,0,0,0,0,0,0,0,0,-1,1875,1667,0,0
658,-643,0,0,0,0,0,0,0,0,0,-1,1882,1667,0,0
665,-643,0,0,0,0,0,0,0,0,0,-1,1889,1667,0,0
672,-643,0,0,0,0,0,0,0,0,0,-1,1896,1667,0,0
679,-643,0,0,0,0,0,0,0,0,0,-1,1903,1667,0,0
686,-643,0,0,0,0,0,0,0,0,0,-1,1910,1667,0,0
693,-643,0,0,0,0,0,0,0,0,0,-1,1917,1667,0,0
700,-643,0,0,0,0,0,0,0,0,0,-1,1924,1667,0,0
707,-643,0,0,0,0,0,0,0,0,0,-1,1931,1667,0,0
714,-643,0,0,0,0,0,0,0,0,0,-1,1938,1667,0,0
721,-643,0,0,0,0,0,0,0,0,0,-1,1945,1667,0,0
728,-643,0,0,0,0,0,0,0,0,0,-1,1952,1667,0,0
735,-643,0,0,0,0,0,0,0,0,0,-1,1959,1667,0,0
742,-643,0,0,0,0,0,0,0,0,0,-1,1966,1667,0,0
749,-643,0,0,0,0,0,0,0,0,0,-1,1973,1667,0,0
756,-643,0,0,0,0,0,0,0,0,0,-1,1980,1667,0,0
763,-643,0,0,0,0,0,0,0,0,0,-1,1987,1667,0,0
770,-643,0,0,0,0,0,0,0,0,0,-1,1994,1667,0,0
777,-643,0,0,0,0,0,0,0,0,0,-1,2001,1667,0,0
784,-643,0,0,0,0,0,0,0,0,0,-1,2008,1667,0,0
791,-643,0,0,0,0,0,0,0,0,0,-1,2015,1667,0,0
798,-643,0,0,0,0,0,0,0,0,0,-1,2022,1667,0,0
805,-643,0,0,0,0,0,0,0,0,0,-1,2029,1667,0,0
812,-643,0,0,0,0,0,0,0,0,0,-1,2036,1667,0,0
-700,-650,0,0,0,0,0,0,0,0,0,-1,524,1674,0,0
-693,-650,0,0,0,0,0,0,0,0,0,-1,531,1674,0,0
-686,-650,0,0,0,0,0,0,0,0,0,-1,538,1674,0,0
-679,-650,0,0,0,0,0,0,0,0,0,-1,545,1674,0,0
-672,-650,0,0,0,0,0,0,0,0,0,-1,552,1674,0,0
-665,-650,0,0,0,0,0,0,0,0,0,-1,559,1674,0,0
-658,-650,0,0,0,0,0,0,0,0,0,-1,566,1674,0,0
-651,-650,0,0,0,0,0,0,0,0,0,-1,573,1674,0,0
-644,-650,0,0,0,0,0,0,0,0,0,-1,580,1674,0,0
-637,-650,0,0,0,0,0,0,0,0,0,-1,587,1674,0,0
-630,-650,0,0,0,0,0,0,0,0,0,-1,594,1674,0,0
-623,-650,0,0,0,0,0,0,0,0,0,-1,601,1674,0,0
-616,-650,0,0,0,0,0,0,0,0,0,-1,608,1674,0,0
-609,-650,0,0,0,0,0,0,0,0,0,-1,615,1674,0,0
-602,-650,0,0,0,0,0,0,0,0,0,-1,622,1674,0,0
-595,-650,0,0,0,0,0,0,0,0,0,-1,629,1674,0,0
-588,-650,0,0,0,0,0,0,0,0,0,-1,636,1674,0,0
-581,-650,0,0,0,0,0,0,0,0,0,-1,643,1674,0,0
-574,-650,0,0,0,0,0,0,0,0,0,-1,650,1674,0,0
-567,-650,0,0,0,0,0,0,0,0,0,-1,657,1674,0,0
-560,-650,0,0,0,0,0,0,0,0,0,-1,664,1674,0,0
-553,-650,0,0,0,0,0,0,0,0,0,-1,671,1674,0,0
-546,-650,0,0,0,0,0,0,0,0,0,-1,678,1674,0,0
-539,-650,0,0,0,0,0,0,0,0,0,-1,685,1674,0,0
-532,-650,0,0,0,0,0,0,0,0,0,-1,692,1674,0,0
-525,-650,0,0,0,0,0,0,0,0,0,-1,699,1674,0,0
-518,-650,0,0,0,0,0,0,0,0,0,-1,706,1674,0,0
-511,-650,0,0,0,0,0,0,0,0,0,-1,713,1674,0,0
-504,-650,0,0,0,0,0,0,0,0,0,-1,720,1674,0,0
-497,-650,0,0,0,0,0,0,0,0,0,-1,727,1674,0,0
-490,-650,0,0,0,0,0,0,0,0,0,-1,734,1674,0,0
-483,-650,0,0,0,0,0,0,0,0,0,-1,741,1674,0,0
-476,-650,0,0,0,0,0,0,0,0,0,-1,748,1674,0,0
-469,-650,0,0,0,0,0,0,0,0,0,-1,755,1674,0,0
-462,-650,0,0,0,0,0,0,0,0,0,-1,762,1674,0,0
-455,-650,0,0,0,0,0,0,0,0,0,-1,769,1674,0,0
-448,-650,0,0,0,0,0,0,0,0,0,-1,776,1674,0,0
-441,-650,0,0,0,0,0,0,0,0,0,-1,783,1674,0,0
-434,-650,0,0,0,0,0,0,0,0,0,-1,790,1674,0,0
-427,-650,0,0,0,0,0,0,0,0,0,-1,797,1674,0,0
-420,-650,0,0,0,0,0,0,0,0,0,-1,804,1674,0,0
-413,-650,0,0,0,0,0,0,0,0,0,-1,811,1674,0,0
-406,-650,0,0,0,0,0,0,0,0,0,-1,818,1674,0,0
-399,-650,0,0,0,0,0,0,0,0,0,-1,825,1674,0,0
-392,-650,5.44415,6.85669,0,0,0,0,0,0,0,-1,832,1674,5.44414,-6.85674
-385,-650,1.74451,14.0183,0,0,0,0,0,0,0,-1,839,1674,1.74453,-14.0183
-378,-650,0.997986,4.11108,0,0,0,0,0,0,0,-1,846,1674,0.998006,-4.11113
-371,-650,-1.80096,3.78625,0,0,0,0,0,0,0,-1,853,1674,-1.80094,-3.78625
-364,-650,-2.95679,2.57507,0,0,0,0,0,0,0,-1,860,1674,-2.95681,-2.57506
-357,-650,1.97833,10.8362,0,0,0,0,0,0,0,-1,867,1674,1.97835,-10.8362
-350,-650,-5.30243,0.159912,0,0,0,0,0,0,0,-1,874,1674,-5.30244,-0.159866
-343,-650,-6.21338,-1.4425,0,0,0,0,0,0,0,-1,881,1674,-6.21341,1.44248
-336,-650,5.5885,27.6781,0,0,0,0,0,0,0,-1,888,1674,5.5885,-27.6781
-329,-650,5.3385,28.5477,-0.00751746,0.0122952,0.00672348,0.0143614,-0.00958361,1.27265,0.0139161,0.0489655,895,1674,5.33848,-28.5477
-322,-650,5.43677,29.3351,-0.00538416,0.0105286,0.00662954,0.0129286,-0.00778417,1.22346,0.0120809,0.04627,902,1674,5.43677,-29.3351
-315,-650,5.25598,29.6641,-0.00366841,0.00881458,0.00636802,0.0114898,-0.00634364,1.17308,0.0104381,0.0404239,909,1674,5.256,-29.664
-308,-650,5.31732,30.0343,-0.00238657,0.00735367,0.00576343,0.0100291,-0.00506199,1.13619,0.00886876,0.0242795,916,1674,5.31733,-30.0343
-301,-650,5.34589,30.655,-0.00159153,0.00602209,0.00502221,0.00851721,-0.00408666,1.1097,0.0074252,0.0139115,923,1674,5.3459,-30.655
-294,-650,5.30225,31.1014,-0.000984257,0.00488298,0.00432641,0.00717659,-0.00327787,1.08333,0.0061742,0.0111581,930,1674,5.30224,-31.1015
-287,-650,5.28986,31.576,-0.000200478,0.00371861,0.00385083,0.00607979,-0.00256166,1.02075,0.00512512,0.0131703,937,1674,5.28983,-31.5761
-280,-650,5.26239,32.0234,0.000104569,0.00291312,0.00313636,0.00494523,-0.00192754,0.995885,0.00409351,0.0146929,944,1674,5.26236,-32.0235
-273,-650,5.22888,32.4768,0.000212594,0.00231612,0.00250473,0.00398095,-0.00145223,0.984174,0.00324813,0.0140983,951,1674,5.22889,-32.4768
-266,-650,5.18823,32.9336,0.000552047,0.00209007,0.00214911,0.00360361,-0.000961492,0.957215,0.00277892,0.0115854,958,1674,5.1882,-32.9336
-259,-650,5.18866,33.3734,0.000924007,0.00191227,0.00188977,0.00337144,-0.000535167,0.913274,0.00244561,0.014341,965,1674,5.18863,-33.3735
-252,-650,5.19745,33.8171,0.00122897,0.00195456,0.00167974,0.00331024,-0.000126707,0.891755,0.00225025,0.0132922,972,1674,5.19742,-33.8171
-245,-650,5.16949,34.2551,0.00155084,0.00187753,0.00143378,0.00315724,0.000271126,0.842117,0.00202052,0.0129378,979,1674,5.16949,-34.2551
-238,-650,5.16614,34.7031,0.0018667,0.00218073,0.00127406,0.00330741,0.000740009,0.846709,0.00200434,0.0138343,986,1674,5.16615,-34.7032
-231,-650,5.14008,35.1322,0.00233367,0.00265507,0.00136959,0.00387336,0.00111538,0.843799,0.00230234,0.0181304,993,1674,5.14009,-35.1322
-224,-650,5.13409,35.5396,0.00296546,0.0032628,0.00144451,0.00456628,0.00166199,0.836678,0.00266866,0.0149302,1000,1674,5.1341,-35.5395
-217,-650,5.14417,35.9205,0.00366439,0.00375092,0.00171478,0.00542298,0.00199233,0.79801,0.00316746,0.0100903,1007,1674,5.14417,-35.9205
-210,-650,5.16968,36.3027,0.00413255,0.00421066,0.00217494,0.00634689,0.00199631,0.794375,0.00374747,0.00924347,1014,1674,5.16968,-36.3028
-203,-650,5.20935,36.7029,0.00425736,0.00455148,0.00249957,0.00690831,0.00190053,0.814782,0.0041208,0.0143257,1021,1674,5.20939,-36.7029
-196,-650,5.2002,37.0995,0.00458402,0.00499204,0.00295243,0.0077475,0.00182856,0.819892,0.00467621,0.0134028,1028,1674,5.20019,-37.0995
-189,-650,5.20398,37.4557,0.00479221,0.00539837,0.00351518,0.00862351,0.00156707,0.828402,0.00530438,0.0109602,1035,1674,5.20393,-37.4557
-182,-650,5.24817,37.864,0.00484993,0.00586197,0.00424775,0.00963374,0.00107816,0.844682,0.00609497,0.0111262,1042,1674,5.24815,-37.864
-175,-650,5.28149,38.2312,0.00459437,0.00628798,0.00508391,0.0105951,0.000287227,0.867923,0.00696965,0.0168585,1049,1674,5.28153,-38.2312
-168,-650,5.29578,38.5787,0.00442257,0.00701214,0.0060395,0.0118941,-0.000459375,0.890993,0.00808686,0.020585,1056,1674,5.29581,-38.5787
-161,-650,5.30798,38.8815,0.0040206,0.00754355,0.0069996,0.0129999,-0.00143577,0.908665,0.00918269,0.0293313,1063,1674,5.30796,-38.8814
-154,-650,5.35266,39.1791,0.00350393,0.00810719,0.0077522,0.0138922,-0.0022811,0.929704,0.010108,0.0358084,1070,1674,5.35261,-39.1791
-147,-650,5.49792,39.5481,0,0,0,0,0,0,0,-1,1077,1674,5.4979,-39.5482
-140,-650,4.9696,36.0964,0,0,0,0,0,0,0,-1,1084,1674,4.96957,-36.0964
-133,-650,4.69751,37.2125,0,0,0,0,0,0,0,-1,1091,1674,4.69756,-37.2125
-126,-650,4.56946,39.0813,0,0,0,0,0,0,0,-1,1098,1674,4.5695,-39.0813
-119,-650,5.16663,20.6232,0,0,0,0,0,0,0,-1,1105,1674,5.16665,-20.6232
-112,-650,3.86292,14.4513,0,0,0,0,0,0,0,-1,1112,1674,3.8629,-14.4513
-105,-650,7.92102,38.1313,0,0,0,0,0,0,0,-1,1119,1674,7.92104,-38.1314
-98,-650,3.3761,6.78003,0,0,0,0,0,0,0,-1,1126,1674,3.37611,-6.78009
-91,-650,3.66809,7.04443,0,0,0,0,0,0,0,-1,1133,1674,3.66806,-7.04439
-84,-650,-3.82666,-1.59521,0,0,0,0,0,0,0,-1,1140,1674,-3.82661,1.59517
-77,-650,-4.70557,1.90198,0,0,0,0,0,0,0,-1,1147,1674,-4.7056,-1.90194
-70,-650,-4.88171,3.81653,0,0,0,0,0,0,0,-1,1154,1674,-4.88176,-3.81651
-63,-650,-5.14612,5.56543,0,0,0,0,0,0,0,-1,1161,1674,-5.14612,-5.56547
-56,-650,-5.38367,7.41101,0,0,0,0,0,0,0,-1,1168,1674,-5.38361,-7.41102
-49,-650,-5.11316,8.23706,0,0,0,0,0,0,0,-1,1175,1674,-5.11317,-8.23708
-42,-650,-4.99487,9.6792,0,0,0,0,0,0,0,-1,1182,1674,-4.99484,-9.67921
-35,-650,-4.77771,11.3369,0,0,0,0,0,0,0,-1,1189,1674,-4.77769,-11.3369
-28,-650,-4.1936,13.1501,0,0,0,0,0,0,0,-1,1196,1674,-4.19358,-13.1501
-21,-650,7.49512,36.2162,0,0,0,0,0,0,0,-1,1203,1674,7.49515,-36.2162
-14,-650,5.77307,41.3855,0,0,0,0,0,0,0,-1,1210,1674,5.77302,-41.3855
-7,-650,6.62842,42.7701,0,0,0,0,0,0,0,-1,1217,1674,6.62841,-42.7701
0,-650,7.13708,43.5936,0.112198,0.00218324,0.00707343,0.112651,0.00173032,0.0639444,0.0745305,0.0430757,1224,1674,7.13703,-43.5936
7,-650,7.52734,44.0863,0.115347,0.0156853,0.0187565,0.11876,0.0122722,0.18,0.0754165,0.0394296,1231,1674,7.52736,-44.0863
14,-650,7.61511,43.8202,0.112544,0.0257966,0.0250497,0.119258,0.0190827,0.261869,0.0739692,0.0409897,1238,1674,7.61506,-43.8202
21,-650,8.01636,44.205,0,0,0,0,0,0,0,-1,1245,1674,8.01632,-44.2049
28,-650,11.1581,47.8069,0.0947205,0.0391204,0.02727,0.105863,0.0279782,0.387887,0.0633433,0.0456206,1252,1674,11.1581,-47.8069
35,-650,10.7051,49.201,0.0813919,0.0426648,0.0245158,0.0932689,0.0307878,0.451141,0.0548753,0.0432158,1259,1674,10.7051,-49.2011
42,-650,10.1064,50.7402,0,0,0,0,0,0,0,-1,1266,1674,10.1065,-50.7403
49,-650,10.0637,51.0178,0.0629997,0.0624092,0.0231588,0.0858652,0.0395438,0.779023,0.0496257,0.0452862,1273,1674,10.0637,-51.0178
56,-650,7.68835,47.6626,0.0590174,0.0801974,0.0262902,0.0979503,0.0412645,0.976863,0.0567848,0.0473601,1280,1674,7.68838,-47.6626
63,-650,8.54211,46.6486,0.0556279,0.102887,0.0288018,0.116512,0.042003,1.12893,0.0681354,0.0463174,1287,1674,8.54213,-46.6485
70,-650,8.56458,47.2845,0,0,0,0,0,0,0,-1,1294,1674,8.56458,-47.2845
77,-650,8.74475,47.4882,0.0526368,0.169798,0.0371311,0.180574,0.0418603,1.28833,0.109139,0.0464152,1301,1674,8.74478,-47.4881
84,-650,8.72095,47.79,0.0550198,0.209281,0.0406207,0.219323,0.0449771,1.32843,0.133768,0.04451,1308,1674,8.72098,-47.79
91,-650,8.17285,48.2416,0.0653714,0.255147,0.0414214,0.263794,0.0567245,1.365,0.160335,0.0422432,1315,1674,8.1729,-48.2415
98,-650,8.34131,47.2703,0.0748284,0.301348,0.0406053,0.308407,0.0677696,1.39868,0.18715,0.0428375,1322,1674,8.34137,-47.2703
105,-650,11.6379,51.6989,0.0831358,0.346885,0.0383675,0.352353,0.0776678,1.42923,0.213768,0.0456874,1329,1674,11.6379,-51.6989
112,-650,11.9196,51.2124,0.0895088,0.385201,0.0314218,0.388503,0.0862066,1.46609,0.235584,0.0427035,1336,1674,11.9196,-51.2124
119,-650,12.2252,50.6948,0.0931459,0.413001,0.0185605,0.414074,0.0920725,1.51303,0.251051,0.0417535,1343,1674,12.2253,-50.6948
126,-650,12.4553,50.3163,0,0,0,0,0,0,0,-1,1350,1674,12.4554,-50.3162
133,-650,7.03711,44.6732,0,0,0,0,0,0,0,-1,1357,1674,7.03707,-44.6732
140,-650,7.51477,44.1676,0,0,0,0,0,0,0,-1,1364,1674,7.51474,-44.1676
147,-650,14.3962,45.7719,0,0,0,0,0,0,0,-1,1371,1674,14.3962,-45.7718
154,-650,15.2657,44.5326,0,0,0,0,0,0,0,-1,1378,1674,15.2657,-44.5326
161,-650,4.09106,30.3021,0,0,0,0,0,0,0,-1,1385,1674,4.09104,-30.3021
168,-650,11.2113,7.87231,0,0,0,0,0,0,0,-1,1392,1674,11.2113,-7.87236
175,-650,5.62537,-0.230713,0,0,0,0,0,0,0,-1,1399,1674,5.62538,0.230745
182,-650,5.56006,0.421631,0,0,0,0,0,0,0,-1,1406,1674,5.56,-0.421652
189,-650,4.81543,11.0654,0,0,0,0,0,0,0,-1,1413,1674,4.81542,-11.0654
196,-650,5.39575,11.9077,0,0,0,0,0,0,0,-1,1420,1674,5.39575,-11.9078
203,-650,3.93628,11.8215,0,0,0,0,0,0,0,-1,1427,1674,3.93624,-11.8216
210,-650,5.40955,8.08594,0,0,0,0,0,0,0,-1,1434,1674,5.40958,-8.086
217,-650,5.12451,4.69739,0,0,0,0,0,0,0,-1,1441,1674,5.12451,-4.69738
224,-650,4.79041,1.45813,0,0,0,0,0,0,0,-1,1448,1674,4.79046,-1.45816
231,-650,4.04102,-0.642212,0,0,0,0,0,0,0,-1,1455,1674,4.04101,0.642209
238,-650,3.23022,-1.43396,0,0,0,0,0,0,0,-1,1462,1674,3.23023,1.43394
245,-650,1.65894,-2.55042,0,0,0,0,0,0,0,-1,1469,1674,1.65889,2.55036
252,-650,8.75342,0.355103,0,0,0,0,0,0,0,-1,1476,1674,8.75337,-0.355147
259,-650,5.61255,3.17566,0,0,0,0,0,0,0,-1,1483,1674,5.61257,-3.17572
266,-650,4.00403,6.10229,0,0,0,0,0,0,0,-1,1490,1674,4.00401,-6.10225
273,-650,10.4366,38.2324,0,0,0,0,0,0,0,-1,1497,1674,10.4366,-38.2324
280,-650,11.7368,39.6788,0,0,0,0,0,0,0,-1,1504,1674,11.7368,-39.6789
287,-650,11.7698,39.4011,0.00416699,0.0113377,0.00350731,0.012768,0.00273677,1.1836,0.00776224,0.0458892,1511,1674,11.7698,-39.4012
294,-650,11.6251,39.1158,0.00390205,0.0114363,0.0026447,0.012272,0.00306639,1.26475,0.00737482,0.0414953,1518,1674,11.6252,-39.1159
301,-650,11.5712,38.7386,0.00374422,0.0110656,0.00188451,0.0115222,0.00328763,1.33309,0.00685369,0.0325866,1525,1674,11.5712,-38.7386
308,-650,11.6116,38.3218,0.003584,0.0110868,0.000968147,0.0112097,0.00346108,1.44451,0.00662784,0.0178015,1532,1674,11.6116,-38.3217
315,-650,11.6479,37.9537,0.00346626,0.0107241,0.00014001,0.0107268,0.00346356,1.55151,0.0063213,0.012776,1539,1674,11.648,-37.9537
322,-650,11.6514,37.6184,0.00390303,0.0106304,-0.0010525,0.0107912,0.00374221,-1.41917,0.00632705,0.0117125,1546,1674,11.6513,-37.6184
329,-650,11.6753,37.2112,0.00408752,0.0102228,-0.00178994,0.0107069,0.0036035,-1.3067,0.00629074,0.015735,1553,1674,11.6752,-37.2111
336,-650,11.6808,36.8505,0.00409359,0.00962741,-0.00238228,0.0105117,0.00320933,-1.21538,0.00622039,0.0140525,1560,1674,11.6808,-36.8505
343,-650,11.6655,36.4995,0.00409833,0.00886865,-0.00294634,0.0102743,0.00269272,-1.12566,0.00615162,0.0139091,1567,1674,11.6655,-36.4996
350,-650,11.6945,36.1423,0.00406246,0.00813945,-0.00330262,0.00998203,0.00221988,-1.0619,0.00605199,0.0157692,1574,1674,11.6945,-36.1423
357,-650,11.6882,35.7434,0.00377779,0.00689063,-0.00324687,0.00893485,0.00173357,-1.0089,0.00547104,0.0131702,1581,1674,11.6882,-35.7434
364,-650,11.6863,35.3444,0.00327762,0.00568515,-0.0029537,0.00767096,0.00129181,-0.978894,0.00474239,0.00911137,1588,1674,11.6862,-35.3443
371,-650,11.6747,34.9545,0.00266378,0.00447629,-0.00253852,0.00626547,0.000874599,-0.956847,0.00391812,0.0114571,1595,1674,11.6747,-34.9545
378,-650,11.6715,34.5508,0.00192546,0.00311914,-0.00196308,0.0045741,0.0004705,-0.932974,0.00290529,0.013516,1602,1674,11.6715,-34.5508
385,-650,11.6808,34.1429,0.001092,0.00167367,-0.00130696,0.00272177,4.39008e-05,-0.894879,0.00180006,0.0142579,1609,1674,11.6808,-34.1429
392,-650,11.6705,33.7374,8.24643e-05,0.000198008,-0.000568229,0.000711395,-0.000430923,-0.836059,0.000666111,0.0173793,1616,1674,11.6706,-33.7374
399,-650,11.6425,33.3354,-0.00103458,-0.0012538,0.000145232,-0.000962234,-0.00132614,0.462134,0.000791199,0.0156797,1623,1674,11.6424,-33.3355
406,-650,11.6293,32.9081,-0.00212031,-0.0021933,0.00076097,-0.00139496,-0.00291865,0.761436,0.00168563,0.0146548,1630,1674,11.6293,-32.908
413,-650,11.6235,32.4795,-0.00303003,-0.00287956,0.00129097,-0.00166164,-0.00424795,0.814504,0.00247185,0.0158059,1637,1674,11.6236,-32.4795
420,-650,11.5958,32.0669,-0.00386946,-0.00333431,0.00165796,-0.00192248,-0.0052813,0.865403,0.00308652,0.0165989,1644,1674,11.5959,-32.067
427,-650,11.5713,31.6301,-0.00442591,-0.00349497,0.00173479,-0.00216429,-0.00575659,0.916469,0.00335748,0.0153999,1651,1674,11.5713,-31.6301
434,-650,11.5349,31.2039,-0.00495691,-0.00330734,0.001785,-0.00216579,-0.00609846,1.00182,0.00356987,0.0180632,1658,1674,11.5349,-31.2038
441,-650,11.4476,30.7745,-0.00547754,-0.00279671,0.00172329,-0.0019539,-0.00632035,1.11593,0.00373661,0.0290318,1665,1674,11.4477,-30.7745
448,-650,11.3147,30.2798,-0.00595869,-0.00204325,0.00159595,-0.00147516,-0.00652678,1.22882,0.00395232,0.0426155,1672,1674,11.3147,-30.2797
455,-650,11.1322,29.5349,-0.00606274,-0.00111113,0.00152439,-0.000679463,-0.0064944,1.29485,0.00412183,0.0462072,1679,1674,11.1322,-29.5349
462,-650,11.1633,29.1066,0,0,0,0,0,0,0,-1,1686,1674,11.1633,-29.1066
469,-650,12.004,28.7467,0,0,0,0,0,0,0,-1,1693,1674,12.004,-28.7467
476,-650,10.9189,27.1289,0,0,0,0,0,0,0,-1,1700,1674,10.919,-27.1289
483,-650,10.2426,24.5127,0,0,0,0,0,0,0,-1,1707,1674,10.2425,-24.5127
490,-650,10.4818,24.3475,0,0,0,0,0,0,0,-1,1714,1674,10.4818,-24.3475
497,-650,10.4985,20.1362,0,0,0,0,0,0,0,-1,1721,1674,10.4986,-20.1362
504,-650,9.69458,18.7721,0,0,0,0,0,0,0,-1,1728,1674,9.6946,-18.772
511,-650,9.37158,17.7506,0,0,0,0,0,0,0,-1,1735,1674,9.37159,-17.7506
518,-650,0,0,0,0,0,0,0,0,0,-1,1742,1674,0,0
525,-650,0,0,0,0,0,0,0,0,0,-1,1749,1674,0,0
532,-650,0,0,0,0,0,0,0,0,0,-1,1756,1674,0,0
539,-650,0,0,0,0,0,0,0,0,0,-1,1763,1674,0,0
546,-650,0,0,0,0,0,0,0,0,0,-1,1770,1674,0,0
553,-650,0,0,0,0,0,0,0,0,0,-1,1777,1674,0,0
560,-650,0,0,0,0,0,0,0,0,0,-1,1784,1674,0,0
567,-650,0,0,0,0,0,0,0,0,0,-1,1791,1674,0,0
574,-650,0,0,0,0,0,0,0,0,0,-1,1798,1674,0,0
581,-650,0,0,0,0,0,0,0,0,0,-1,1805,1674,0,0
588,-650,0,0,0,0,0,0,0,0,0,-1,1812,1674,0,0
595,-650,0,0,0,0,0,0,0,0,0,-1,1819,1674,0,0
602,-650,0,0,0,0,0,0,0,0,0,-1,1826,1674,0,0
609,-650,0,0,0,0,0,0,0,0,0,-1,1833,1674,0,0
616,-650,0,0,0,0,0,0,0,0,0,-1,1840,1674,0,0
623,-650,0,0,0,0,0,0,0,0,0,-1,1847,1674,0,0
630,-650,0,0,0,0,0,0,0,0,0,-1,1854,1674,0,0
637,-650,0,0,0,0,0,0,0,0,0,-1,1861,1674,0,0
644,-650,0,0,0,0,0,0,0,0,0,-1,1868,1674,0,0
651,-650,0,0,0,0,0,0,0,0,0,-1,1875,1674,0,0
658,-650,0,0,0,0,0,0,0,0,0,-1,1882,1674,0,0
665,-650,0,0,0,0,0,0,0,0,0,-1,1889,1674,0,0
672,-650,0,0,0,0,0,0,0,0,0,-1,1896,1674,0,0
679,-650,0,0,0,0,0,0,0,0,0,-1,1903,1674,0,0
686,-650,0,0,0,0,0,0,0,0,0,-1,1910,1674,0,0
693,-650,0,0,0,0,0,0,0,0,0,-1,1917,1674,0,0
700,-650,0,0,0,0,0,0,0,0,0,-1,1924,1674,0,0
707,-650,0,0,0,0,0,0,0,0,0,-1,1931,1674,0,0
714,-650,0,0,0,0,0,0,0,0,0,-1,1938,1674,0,0
721,-650,0,0,0,0,0,0,0,0,0,-1,1945,1674,0,0
728,-650,0,0,0,0,0,0,0,0,0,-1,1952,1674,0,0
735,-650,0,0,0,0,0,0,0,0,0,-1,1959,1674,0,0
742,-650,0,0,0,0,0,0,0,0,0,-1,1966,1674,0,0
749,-650,0,0,0,0,0,0,0,0,0,-1,1973,1674,0,0
756,-650,0,0,0,0,0,0,0,0,0,-1,1980,1674,0,0
763,-650,0,0,0,0,0,0,0,0,0,-1,1987,1674,0,0
770,-650,0,0,0,0,0,0,0,0,0,-1,1994,1674,0,0
777,-650,0,0,0,0,0,0,0,0,0,-1,2001,1674,0,0
784,-650,0,0,0,0,0,0,0,0,0,-1,2008,1674,0,0
791,-650,0,0,0,0,0,0,0,0,0,-1,2015,1674,0,0
798,-650,0,0,0,0,0,0,0,0,0,-1,2022,1674,0,0
805,-650,0,0,0,0,0,0,0,0,0,-1,2029,1674,0,0
812,-650,0,0,0,0,0,0,0,0,0,-1,2036,1674,0,0
-700,-657,0,0,0,0,0,0,0,0,0,-1,524,1681,0,0
-693,-657,0,0,0,0,0,0,0,0,0,-1,531,1681,0,0
-686,-657,0,0,0,0,0,0,0,0,0,-1,538,1681,0,0
-679,-657,0,0,0,0,0,0,0,0,0,-1,545,1681,0,0
-672,-657,0,0,0,0,0,0,0,0,0,-1,552,1681,0,0
-665,-657,0,0,0,0,0,0,0,0,0,-1,559,1681,0,0
-658,-657,0,0,0,0,0,0,0,0,0,-1,566,1681,0,0
-651,-657,0,0,0,0,0,0,0,0,0,-1,573,1681,0,0
-644,-657,0,0,0,0,0,0,0,0,0,-1,580,1681,0,0
-637,-657,0,0,0,0,0,0,0,0,0,-1,587,1681,0,0
-630,-657,0,0,0,0,0,0,0,0,0,-1,594,1681,0,0
-623,-657,0,0,0,0,0,0,0,0,0,-1,601,1681,0,0
-616,-657,0,0,0,0,0,0,0,0,0,-1,608,1681,0,0
-609,-657,0,0,0,0,0,0,0,0,0,-1,615,1681,0,0
-602,-657,0,0,0,0,0,0,0,0,0,-1,622,1681,0,0
-595,-657,0,0,0,0,0,0,0,0,0,-1,629,1681,0,0
-588,-657,0,0,0,0,0,0,0,0,0,-1,636,1681,0,0
-581,-657,0,0,0,0,0,0,0,0,0,-1,643,1681,0,0
-574,-657,0,0,0,0,0,0,0,0,0,-1,650,1681,0,0
-567,-657,0,0,0,0,0,0,0,0,0,-1,657,1681,0,0
-560,-657,0,0,0,0,0,0,0,0,0,-1,664,1681,0,0
-553,-657,0,0,0,0,0,0,0,0,0,-1,671,1681,0,0
-546,-657,0,0,0,0,0,0,0,0,0,-1,678,1681,0,0
-539,-657,0,0,0,0,0,0,0,0,0,-1,685,1681,0,0
-532,-657,0,0,0,0,0,0,0,0,0,-1,692,1681,0,0
-525,-657,0,0,0,0,0,0,0,0,0,-1,699,1681,0,0
-518,-657,0,0,0,0,0,0,0,0,0,-1,706,1681,0,0
-511,-657,0,0,0,0,0,0,0,0,0,-1,713,1681,0,0
-504,-657,0,0,0,0,0,0,0,0,0,-1,720,1681,0,0
-497,-657,0,0,0,0,0,0,0,0,0,-1,727,1681,0,0
-490,-657,0,0,0,0,0,0,0,0,0,-1,734,1681,0,0
-483,-657,0,0,0,0,0,0,0,0,0,-1,741,1681,0,0
-476,-657,0,0,0,0,0,0,0,0,0,-1,748,1681,0,0
-469,-657,0,0,0,0,0,0,0,0,0,-1,755,1681,0,0
-462,-657,0,0,0,0,0,0,0,0,0,-1,762,1681,0,0
-455,-657,0,0,0,0,0,0,0,0,0,-1,769,1681,0,0
-448,-657,0,0,0,0,0,0,0,0,0,-1,776,1681,0,0
-441,-657,0,0,0,0,0,0,0,0,0,-1,783,1681,0,0
-434,-657,0,0,0,0,0,0,0,0,0,-1,790,1681,0,0
-427,-657,0,0,0,0,0,0,0,0,0,-1,797,1681,0,0
-420,-657,0,0,0,0,0,0,0,0,0,-1,804,1681,0,0
-413,-657,0,0,0,0,0,0,0,0,0,-1,811,1681,0,0
-406,-657,0,0,0,0,0,0,0,0,0,-1,818,1681,0,0
-399,-657,0,0,0,0,0,0,0,0,0,-1,825,1681,0,0
-392,-657,0,0,0,0,0,0,0,0,0,-1,832,1681,0,0
-385,-657,1.09814,6.18896,0,0,0,0,0,0,0,-1,839,1681,1.09814,-6.18894
-378,-657,0.31488,4.46753,0,0,0,0,0,0,0,-1,846,1681,0.31487,-4.46755
-371,-657,-0.519043,2.69421,0,0,0,0,0,0,0,-1,853,1681,-0.519064,-2.69422
-364,-657,-3.42017,4.18323,0,0,0,0,0,0,0,-1,860,1681,-3.42019,-4.18319
-357,-657,-4.41913,2.97168,0,0,0,0,0,0,0,-1,867,1681,-4.41913,-2.97165
-350,-657,-5.42291,1.70276,0,0,0,0,0,0,0,-1,874,1681,-5.42291,-1.70277
-343,-657,-6.51294,0.397339,0,0,0,0,0,0,0,-1,881,1681,-6.51295,-0.397335
-336,-657,3.08527,26.0612,0,0,0,0,0,0,0,-1,888,1681,3.08528,-26.0611
-329,-657,5.56702,28.6906,0,0,0,0,0,0,0,-1,895,1681,5.56699,-28.6905
-322,-657,5.91357,29.4165,0,0,0,0,0,0,0,-1,902,1681,5.91356,-29.4165
-315,-657,5.58838,29.515,0,0,0,0,0,0,0,-1,909,1681,5.58838,-29.515
-308,-657,5.67841,29.7914,0,0,0,0,0,0,0,-1,916,1681,5.67838,-29.7914
-301,-657,5.80853,30.593,-0.00141532,0.00800707,0.00704382,0.01177,-0.00517826,1.08015,0.0100287,0.0338144,923,1681,5.80852,-30.593
-294,-657,5.76514,31.1737,-0.000908384,0.00626668,0.00590302,0.00958683,-0.00422853,1.05845,0.00817383,0.0208505,930,1681,5.76511,-31.1737
-287,-657,5.73682,31.6178,-0.00021755,0.00452886,0.00504228,0.00772851,-0.0034172,1.00535,0.0065935,0.0130065,937,1681,5.73683,-31.6178
-280,-657,5.69824,32.0422,-8.65858e-05,0.00324313,0.00396155,0.00587544,-0.0027189,0.98432,0.00507227,0.0139573,944,1681,5.69823,-32.0423
-273,-657,5.67822,32.5129,-0.000135032,0.00229658,0.0030223,0.00433846,-0.00217691,0.976632,0.00383003,0.0108201,951,1681,5.67823,-32.5129
-266,-657,5.65179,32.965,0.000130824,0.0018122,0.00245674,0.00356811,-0.00162509,0.950251,0.00306745,0.0152906,958,1681,5.65181,-32.965
-259,-657,5.64099,33.3844,0.000416137,0.00141836,0.00201641,0.00299499,-0.00116049,0.90719,0.00247587,0.0184853,965,1681,5.64099,-33.3844
-252,-657,5.60779,33.8108,0.000607143,0.00127187,0.00166616,0.00263849,-0.000759481,0.883845,0.00205938,0.0136034,972,1681,5.60779,-33.8108
-245,-657,5.59216,34.2633,0.000813903,0.000964131,0.00128839,0.00217959,-0.000401561,0.814516,0.00160376,0.0160181,979,1681,5.59214,-34.2633
-238,-657,5.60461,34.6937,0.000995261,0.001209,0.00102583,0.00213351,7.07507e-05,0.837299,0.00139935,0.0208822,986,1681,5.60462,-34.6937
-231,-657,5.59344,35.1124,0.00136019,0.00161477,0.00108372,0.00257865,0.000396316,0.843858,0.0016034,0.0217464,993,1681,5.59345,-35.1125
-224,-657,5.56006,35.5471,0.00190227,0.00215382,0.0011414,0.00317635,0.000879738,0.840273,0.0018937,0.0172435,1000,1681,5.56008,-35.5471
-217,-657,5.56494,35.9558,0.00248191,0.00261451,0.00132911,0.00387897,0.00121745,0.810318,0.00229067,0.010579,1007,1681,5.56497,-35.9558
-210,-657,5.57483,36.3336,0.00283956,0.00302589,0.00162115,0.00455655,0.0013089,0.814101,0.00270894,0.010582,1014,1681,5.57485,-36.3336
-203,-657,5.59412,36.7433,0.0029583,0.00328831,0.001856,0.00498662,0.00125999,0.829734,0.00299413,0.0142491,1021,1681,5.59415,-36.7433
-196,-657,5.6012,37.1331,0.00327109,0.00360155,0.00217584,0.00561842,0.00125421,0.823294,0.00340542,0.0152713,1028,1681,5.60117,-37.1331
-189,-657,5.60132,37.4756,0.00351799,0.00389798,0.00256069,0.00627571,0.00114026,0.822429,0.00386027,0.00995891,1035,1681,5.60137,-37.4756
-182,-657,5.58557,37.8365,0.00366356,0.00432677,0.00305731,0.0070704,0.000919927,0.839418,0.00443885,0.0078813,1042,1681,5.58556,-37.8365
-175,-657,5.61279,38.2169,0.00363898,0.0046837,0.00362634,0.00782511,0.000497577,0.856929,0.00505904,0.0105872,1049,1681,5.61279,-38.2169
-168,-657,5.58679,38.5972,0.00370892,0.00527457,0.00428053,0.00884327,0.00014022,0.875839,0.00584933,0.0133054,1056,1681,5.58676,-38.5971
-161,-657,5.59912,38.9468,0.00360704,0.00574286,0.00491589,0.0097055,-0.000355592,0.892355,0.00659206,0.0140371,1063,1681,5.59914,-38.9467
-154,-657,5.677,39.2388,0.0034942,0.00628519,0.00542823,0.0104944,-0.000715043,0.911214,0.00724641,0.015822,1070,1681,5.67694,-39.2388
-147,-657,5.68457,39.5809,0.00344405,0.00688607,0.00590531,0.011316,-0.000985918,0.927188,0.00789322,0.0345013,1077,1681,5.68456,-39.5809
-140,-657,5.7334,40.377,0,0,0,0,0,0,0,-1,1084,1681,5.73342,-40.3769
-133,-657,5.58118,41.1725,0,0,0,0,0,0,0,-1,1091,1681,5.58115,-41.1725
-126,-657,5.59253,40.3773,0,0,0,0,0,0,0,-1,1098,1681,5.59251,-40.3773
-119,-657,5.60754,41.4712,0,0,0,0,0,0,0,-1,1105,1681,5.60749,-41.4712
-112,-657,5.78979,41.7,0,0,0,0,0,0,0,-1,1112,1681,5.78977,-41.7
-105,-657,7.37256,41.0361,0,0,0,0,0,0,0,-1,1119,1681,7.37254,-41.0362
-98,-657,8.14404,38.4435,0,0,0,0,0,0,0,-1,1126,1681,8.14405,-38.4435
-91,-657,3.6521,16.6017,0,0,0,0,0,0,0,-1,1133,1681,3.65215,-16.6017
-84,-657,4.08008,10.4579,0,0,0,0,0,0,0,-1,1140,1681,4.08006,-10.4579
-77,-657,-5.29846,0.396606,0,0,0,0,0,0,0,-1,1147,1681,-5.29842,-0.396573
-70,-657,-4.14893,2.14575,0,0,0,0,0,0,0,-1,1154,1681,-4.14893,-2.1458
-63,-657,-4.1239,3.177,0,0,0,0,0,0,0,-1,1161,1681,-4.12391,-3.17698
-56,-657,-6.40576,5.73987,0,0,0,0,0,0,0,-1,1168,1681,-6.40577,-5.7399
-49,-657,-5.98462,7.54053,0,0,0,0,0,0,0,-1,1175,1681,-5.98466,-7.5405
-42,-657,-5.71948,9.28955,0,0,0,0,0,0,0,-1,1182,1681,-5.71951,-9.2895
-35,-657,-5.44556,11.015,0,0,0,0,0,0,0,-1,1189,1681,-5.44555,-11.015
-28,-657,-1.3446,8.92847,0,0,0,0,0,0,0,-1,1196,1681,-1.34459,-8.92848
-21,-657,5.98743,41.011,0,0,0,0,0,0,0,-1,1203,1681,5.98741,-41.011
-14,-657,6.50317,41.7075,0.084126,-0.00729948,-0.000547182,0.0841293,-0.00730276,-0.00598472,0.0586721,0.0458828,1210,1681,6.50321,-41.7075
-7,-657,6.93665,42.5342,0.0917608,-0.00194638,0.00679838,0.0922515,-0.00243702,0.0720463,0.0623292,0.0440707,1217,1681,6.93659,-42.5342
0,-657,7.49634,43.4653,0.0961376,0.0081516,0.0158765,0.0989147,0.00537444,0.17317,0.0642267,0.0439089,1224,1681,7.49631,-43.4653
7,-657,7.6814,43.7783,0.0969891,0.0190481,0.0241142,0.103846,0.0121907,0.277057,0.0655464,0.0433322,1231,1681,7.6814,-43.7784
14,-657,7.87048,44.076,0.0939234,0.0281648,0.0285768,0.104606,0.0174817,0.357752,0.0647025,0.0438445,1238,1681,7.87047,-44.076
21,-657,8.24121,44.483,0.0878089,0.0354497,0.0304362,0.101776,0.0214829,0.430221,0.061944,0.0456814,1245,1681,8.24124,-44.4831
28,-657,8.60266,44.7761,0.079169,0.0407733,0.0291999,0.0949167,0.0250256,0.494597,0.0568042,0.0446357,1252,1681,8.60272,-44.7761
35,-657,9.81067,48.7058,0.0682244,0.04429,0.0260496,0.0849243,0.0275902,0.570076,0.0500234,0.0405615,1259,1681,9.81065,-48.7058
42,-657,9.68188,49.7451,0.0591166,0.0482329,0.0228492,0.077163,0.0301864,0.668494,0.0449002,0.0435033,1266,1681,9.68189,-49.7451
49,-657,10.3365,50.1924,0.0532982,0.0620652,0.0228507,0.0809491,0.0344143,0.880163,0.0469103,0.0427316,1273,1681,10.3365,-50.1924
56,-657,11.4259,50.4293,0.0501089,0.077432,0.024439,0.0917687,0.0357722,1.04026,0.0534099,0.0437132,1280,1681,11.4259,-50.4293
63,-657,8.45081,46.4935,0.0470728,0.0963965,0.0252117,0.107003,0.0364666,1.17259,0.0628132,0.0476816,1287,1681,8.45077,-46.4935
70,-657,8.6156,46.7786,0.0452198,0.122543,0.0259583,0.130449,0.0373136,1.27515,0.0775791,0.0468787,1294,1681,8.61564,-46.7785
77,-657,8.77808,46.911,0.0433028,0.150725,0.0287101,0.157917,0.0361111,1.32535,0.0955432,0.045329,1301,1681,8.7781,-46.9111
84,-657,8.94067,47.0272,0,0,0,0,0,0,0,-1,1308,1681,8.94071,-47.0272
91,-657,8.44324,46.7394,0.0530552,0.220387,0.0310305,0.225956,0.0474862,1.39322,0.137568,0.0428961,1315,1681,8.44323,-46.7394
98,-657,8.84631,46.1206,0.0609037,0.259123,0.0307294,0.263778,0.0562491,1.42047,0.160423,0.0464218,1322,1681,8.84635,-46.1207
105,-657,9.11548,45.3649,0.0677852,0.297159,0.0292932,0.300841,0.0641033,1.44576,0.182975,0.0484972,1329,1681,9.1155,-45.3649
112,-657,10.7142,48.7811,0.073251,0.328742,0.0241451,0.331004,0.0709892,1.47739,0.201225,0.0472351,1336,1681,10.7143,-48.7811
119,-657,7.69666,44.4478,0.0767839,0.351641,0.0141897,0.352372,0.0760533,1.51935,0.214114,0.0444743,1343,1681,7.6966,-44.4478
126,-657,6.93982,44.9115,0,0,0,0,0,0,0,-1,1350,1681,6.93983,-44.9115
133,-657,7.37732,44.4561,0,0,0,0,0,0,0,-1,1357,1681,7.3773,-44.456
140,-657,7.8147,43.9657,0,0,0,0,0,0,0,-1,1364,1681,7.81476,-43.9657
147,-657,8.19897,43.4812,0,0,0,0,0,0,0,-1,1371,1681,8.19903,-43.4811
154,-657,10.5236,41.9224,0,0,0,0,0,0,0,-1,1378,1681,10.5236,-41.9224
161,-657,4.2926,24.9226,0,0,0,0,0,0,0,-1,1385,1681,4.29264,-24.9226
168,-657,5.21643,0.70105,0,0,0,0,0,0,0,-1,1392,1681,5.21648,-0.7011
175,-657,5.52771,0.649048,0,0,0,0,0,0,0,-1,1399,1681,5.52774,-0.649019
182,-657,5.73999,1.02612,0,0,0,0,0,0,0,-1,1406,1681,5.73995,-1.02611
189,-657,5.92126,1.44116,0,0,0,0,0,0,0,-1,1413,1681,5.92126,-1.44115
196,-657,4.92834,9.59021,0,0,0,0,0,0,0,-1,1420,1681,4.9284,-9.59018
203,-657,6.26343,5.16492,0,0,0,0,0,0,0,-1,1427,1681,6.26345,-5.16488
210,-657,3.9856,5.28088,0,0,0,0,0,0,0,-1,1434,1681,3.98555,-5.28084
217,-657,3.95178,5.2843,0,0,0,0,0,0,0,-1,1441,1681,3.95174,-5.28431
224,-657,6.66736,-0.250244,0,0,0,0,0,0,0,-1,1448,1681,6.66737,0.250229
231,-657,6.85498,-1.70752,0,0,0,0,0,0,0,-1,1455,1681,6.855,1.70758
238,-657,5.34143,-2.89819,0,0,0,0,0,0,0,-1,1462,1681,5.34143,2.89813
245,-657,8.66003,-0.102783,0,0,0,0,0,0,0,-1,1469,1681,8.66,0.102824
252,-657,4.78955,0.623779,0,0,0,0,0,0,0,-1,1476,1681,4.7895,-0.623826
259,-657,2.61523,4.31909,0,0,0,0,0,0,0,-1,1483,1681,2.61523,-4.31908
266,-657,5.35437,11.4742,0,0,0,0,0,0,0,-1,1490,1681,5.35441,-11.4742
273,-657,10.467,39.9858,0,0,0,0,0,0,0,-1,1497,1681,10.467,-39.9859
280,-657,11.051,39.6569,0.00499444,0.00816243,0.00238851,0.00944444,0.00371243,1.07819,0.00549415,0.0430198,1504,1681,11.051,-39.6568
287,-657,11.084,39.3503,0.00427788,0.00792201,0.00230922,0.00904145,0.00315844,1.11941,0.0052985,0.0348628,1511,1681,11.084,-39.3503
294,-657,11.222,39.0212,0.00383831,0.00788876,0.00176249,0.00854828,0.00317878,1.21272,0.00498908,0.0296687,1518,1681,11.222,-39.0212
301,-657,11.2548,38.6844,0.00348599,0.00770188,0.00123526,0.00803715,0.00315072,1.30576,0.00467618,0.0203371,1525,1681,11.2548,-38.6844
308,-657,11.2466,38.3097,0.00319558,0.00771477,0.000636983,0.00780284,0.00310752,1.43341,0.00453596,0.014508,1532,1681,11.2466,-38.3096
315,-657,11.2681,37.9359,0.00297044,0.00745033,7.75919e-05,0.00745168,0.0029691,1.55348,0.00433171,0.0114611,1539,1681,11.2681,-37.936
322,-657,11.2974,37.5798,0.0030583,0.00732932,-0.000681051,0.00743529,0.00295233,-1.41644,0.00432298,0.0130143,1546,1681,11.2973,-37.5798
329,-657,11.3009,37.2107,0.00301867,0.00696785,-0.00117522,0.00729112,0.0026954,-1.30237,0.00425692,0.0189315,1553,1681,11.301,-37.2107
336,-657,11.3041,36.8367,0.00295715,0.00646788,-0.00159915,0.00708709,0.00233795,-1.20136,0.00416992,0.0168953,1560,1681,11.3041,-36.8367
343,-657,11.316,36.5,0.00291748,0.00579816,-0.00198967,0.00681411,0.00190153,-1.09869,0.00406014,0.0130632,1567,1681,11.3161,-36.5
350,-657,11.3173,36.1389,0.00279642,0.00511854,-0.002227,0.00646897,0.00144598,-1.02569,0.00392057,0.0150606,1574,1681,11.3172,-36.1389
357,-657,11.304,35.7302,0.00249336,0.00399208,-0.00212601,0.00549693,0.000988518,-0.954836,0.00338359,0.0149067,1581,1681,11.304,-35.7303
364,-657,11.3146,35.3574,0.00202241,0.00287761,-0.0018434,0.00434236,0.000557664,-0.899363,0.00272808,0.0108392,1588,1681,11.3146,-35.3574
371,-657,11.3083,35.0038,0.00142449,0.00175555,-0.00146574,0.00306508,0.000114965,-0.841626,0.00200616,0.0148983,1595,1681,11.3083,-35.0038
378,-657,11.2615,34.5782,0.000678054,0.000434598,-0.000919812,0.00148416,-0.000371506,-0.71961,0.00113375,0.0152825,1602,1681,11.2615,-34.5783
385,-657,11.2318,34.1376,-0.00018256,-0.000882958,-0.00030062,-7.12268e-05,-0.000994291,-0.354683,0.00064044,0.0132755,1609,1681,11.2318,-34.1376
392,-657,11.2426,33.7478,-0.00124522,-0.00227545,0.000410239,-0.00110182,-0.00241885,0.336271,0.00139836,0.0131208,1616,1681,11.2426,-33.7479
399,-657,11.2666,33.3374,-0.00242562,-0.00360593,0.00104489,-0.00181574,-0.0042158,0.52833,0.00244178,0.0135969,1623,1681,11.2667,-33.3373
406,-657,11.2466,32.9314,-0.00362443,-0.00432993,0.00160615,-0.00233275,-0.00562161,0.677301,0.00326125,0.0147727,1630,1681,11.2466,-32.9315
413,-657,11.2281,32.4979,-0.00466301,-0.00478356,0.00214686,-0.00257558,-0.00687099,0.771363,0.00400818,0.0140506,1637,1681,11.2281,-32.4979
420,-657,11.2155,32.0546,-0.00567933,-0.00504295,0.0025538,-0.00278759,-0.00793468,0.847376,0.00464812,0.0158806,1644,1681,11.2154,-32.0546
427,-657,11.1523,31.6055,-0.00634497,-0.00493454,0.00257258,-0.00297227,-0.00830725,0.919175,0.00486043,0.0202291,1651,1681,11.1524,-31.6055
434,-657,11.0756,31.1903,-0.00705441,-0.00444831,0.00265509,-0.00279375,-0.00870897,1.01352,0.00513466,0.0281535,1658,1681,11.0756,-31.1903
441,-657,10.912,30.8719,-0.00777829,-0.00369642,0.00265085,-0.00239184,-0.00908286,1.11346,0.00543628,0.0459318,1665,1681,10.912,-30.8719
448,-657,10.802,30.5607,0,0,0,0,0,0,0,-1,1672,1681,10.802,-30.5607
455,-657,10.4929,29.3829,0,0,0,0,0,0,0,-1,1679,1681,10.4929,-29.383
462,-657,10.9337,29.0739,0,0,0,0,0,0,0,-1,1686,1681,10.9337,-29.0739
469,-657,9.22205,26.4175,0,0,0,0,0,0,0,-1,1693,1681,9.2221,-26.4175
476,-657,8.9519,20.5712,0,0,0,0,0,0,0,-1,1700,1681,8.95194,-20.5712
483,-657,10.0663,21.8628,0,0,0,0,0,0,0,-1,1707,1681,10.0663,-21.8628
490,-657,11.6039,21.2185,0,0,0,0,0,0,0,-1,1714,1681,11.6038,-21.2185
497,-657,9.20862,17.8127,0,0,0,0,0,0,0,-1,1721,1681,9.2086,-17.8127
504,-657,0,0,0,0,0,0,0,0,0,-1,1728,1681,0,0
511,-657,0,0,0,0,0,0,0,0,0,-1,1735,1681,0,0
518,-657,0,0,0,0,0,0,0,0,0,-1,1742,1681,0,0
525,-657,0,0,0,0,0,0,0,0,0,-1,1749,1681,0,0
532,-657,0,0,0,0,0,0,0,0,0,-1,1756,1681,0,0
539,-657,0,0,0,0,0,0,0,0,0,-1,1763,1681,0,0
546,-657,0,0,0,0,0,0,0,0,0,-1,1770,1681,0,0
553,-657,0,0,0,0,0,0,0,0,0,-1,1777,1681,0,0
560,-657,0,0,0,0,0,0,0,0,0,-1,1784,1681,0,0
567,-657,0,0,0,0,0,0,0,0,0,-1,1791,1681,0,0
574,-657,0,0,0,0,0,0,0,0,0,-1,1798,1681,0,0
581,-657,0,0,0,0,0,0,0,0,0,-1,1805,1681,0,0
588,-657,0,0,0,0,0,0,0,0,0,-1,1812,1681,0,0
595,-657,0,0,0,0,0,0,0,0,0,-1,1819,1681,0,0
602,-657,0,0,0,0,0,0,0,0,0,-1,1826,1681,0,0
609,-657,0,0,0,0,0,0,0,0,0,-1,1833,1681,0,0
616,-657,0,0,0,0,0,0,0,0,0,-1,1840,1681,0,0
623,-657,0,0,0,0,0,0,0,0,0,-1,1847,1681,0,0
630,-657,0,0,0,0,0,0,0,0,0,-1,1854,1681,0,0
637,-657,0,0,0,0,0,0,0,0,0,-1,1861,1681,0,0
644,-657,0,0,0,0,0,0,0,0,0,-1,1868,1681,0,0
651,-657,0,0,0,0,0,0,0,0,0,-1,1875,1681,0,0
658,-657,0,0,0,0,0,0,0,0,0,-1,1882,1681,0,0
665,-657,0,0,0,0,0,0,0,0,0,-1,1889,1681,0,0
672,-657,0,0,0,0,0,0,0,0,0,-1,1896,1681,0,0
679,-657,0,0,0,0,0,0,0,0,0,-1,1903,1681,0,0
686,-657,0,0,0,0,0,0,0,0,0,-1,1910,1681,0,0
693,-657,0,0,0,0,0,0,0,0,0,-1,1917,1681,0,0
700,-657,0,0,0,0,0,0,0,0,0,-1,1924,1681,0,0
707,-657,0,0,0,0,0,0,0,0,0,-1,1931,1681,0,0
714,-657,0,0,0,0,0,0,0,0,0,-1,1938,1681,0,0
721,-657,0,0,0,0,0,0,0,0,0,-1,1945,1681,0,0
728,-657,0,0,0,0,0,0,0,0,0,-1,1952,1681,0,0
735,-657,0,0,0,0,0,0,0,0,0,-1,1959,1681,0,0
742,-657,0,0,0,0,0,0,0,0,0,-1,1966,1681,0,0
749,-657,0,0,0,0,0,0,0,0,0,-1,1973,1681,0,0
756,-657,0,0,0,0,0,0,0,0,0,-1,1980,1681,0,0
763,-657,0,0,0,0,0,0,0,0,0,-1,1987,1681,0,0
770,-657,0,0,0,0,0,0,0,0,0,-1,1994,1681,0,0
777,-657,0,0,0,0,0,0,0,0,0,-1,2001,1681,0,0
784,-657,0,0,0,0,0,0,0,0,0,-1,2008,1681,0,0
791,-657,0,0,0,0,0,0,0,0,0,-1,2015,1681,0,0
798,-657,0,0,0,0,0,0,0,0,0,-1,2022,1681,0,0
805,-657,0,0,0,0,0,0,0,0,0,-1,2029,1681,0,0
812,-657,0,0,0,0,0,0,0,0,0,-1,2036,1681,0,0
-700,-664,0,0,0,0,0,0,0,0,0,-1,524,1688,0,0
-693,-664,0,0,0,0,0,0,0,0,0,-1,531,1688,0,0
-686,-664,0,0,0,0,0,0,0,0,0,-1,538,1688,0,0
-679,-664,0,0,0,0,0,0,0,0,0,-1,545,1688,0,0
-672,-664,0,0,0,0,0,0,0,0,0,-1,552,1688,0,0
-665,-664,0,0,0,0,0,0,0,0,0,-1,559,1688,0,0
-658,-664,0,0,0,0,0,0,0,0,0,-1,566,1688,0,0
-651,-664,0,0,0,0,0,0,0,0,0,-1,573,1688,0,0
-644,-664,0,0,0,0,0,0,0,0,0,-1,580,1688,0,0
-637,-664,0,0,0,0,0,0,0,0,0,-1,587,1688,0,0
-630,-664,0,0,0,0,0,0,0,0,0,-1,594,1688,0,0
-623,-664,0,0,0,0,0,0,0,0,0,-1,601,1688,0,0
-616,-664,0,0,0,0,0,0,0,0,0,-1,608,1688,0,0
-609,-664,0,0,0,0,0,0,0,0,0,-1,615,1688,0,0
-602,-664,0,0,0,0,0,0,0,0,0,-1,622,1688,0,0
-595,-664,0,0,0,0,0,0,0,0,0,-1,629,1688,0,0
-588,-664,0,0,0,0,0,0,0,0,0,-1,636,1688,0,0
-581,-664,0,0,0,0,0,0,0,0,0,-1,643,1688,0,0
-574,-664,0,0,0,0,0,0,0,0,0,-1,650,1688,0,0
-567,-664,0,0,0,0,0,0,0,0,0,-1,657,1688,0,0
-560,-664,0,0,0,0,0,0,0,0,0,-1,664,1688,0,0
-553,-664,0,0,0,0,0,0,0,0,0,-1,671,1688,0,0
-546,-664,0,0,0,0,0,0,0,0,0,-1,678,1688,0,0
-539,-664,0,0,0,0,0,0,0,0,0,-1,685,1688,0,0
-532,-664,0,0,0,0,0,0,0,0,0,-1,692,1688,0,0
-525,-664,0,0,0,0,0,0,0,0,0,-1,699,1688,0,0
-518,-664,0,0,0,0,0,0,0,0,0,-1,706,1688,0,0
-511,-664,0,0,0,0,0,0,0,0,0,-1,713,1688,0,0
-504,-664,0,0,0,0,0,0,0,0,0,-1,720,1688,0,0
-497,-664,0,0,0,0,0,0,0,0,0,-1,727,1688,0,0
-490,-664,0,0,0,0,0,0,0,0,0,-1,734,1688,0,0
-483,-664,0,0,0,0,0,0,0,0,0,-1,741,1688,0,0
-476,-664,0,0,0,0,0,0,0,0,0,-1,748,1688,0,0
-469,-664,0,0,0,0,0,0,0,0,0,-1,755,1688,0,0
-462,-664,0,0,0,0,0,0,0,0,0,-1,762,1688,0,0
-455,-664,0,0,0,0,0,0,0,0,0,-1,769,1688,0,0
-448,-664,0,0,0,0,0,0,0,0,0,-1,776,1688,0,0
-441,-664,0,0,0,0,0,0,0,0,0,-1,783,1688,0,0
-434,-664,0,0,0,0,0,0,0,0,0,-1,790,1688,0,0
-427,-664,0,0,0,0,0,0,0,0,0,-1,797,1688,0,0
-420,-664,0,0,0,0,0,0,0,0,0,-1,804,1688,0,0
-413,-664,0,0,0,0,0,0,0,0,0,-1,811,1688,0,0
-406,-664,0,0,0,0,0,0,0,0,0,-1,818,1688,0,0
-399,-664,0,0,0,0,0,0,0,0,0,-1,825,1688,0,0
-392,-664,0,0,0,0,0,0,0,0,0,-1,832,1688,0,0
-385,-664,0,0,0,0,0,0,0,0,0,-1,839,1688,0,0
-378,-664,0,0,0,0,0,0,0,0,0,-1,846,1688,0,0
-371,-664,-1.61676,5.92737,0,0,0,0,0,0,0,-1,853,1688,-1.61675,-5.92735
-364,-664,-3.901,5.87024,0,0,0,0,0,0,0,-1,860,1688,-3.90097,-5.87027
-357,-664,-4.81012,4.53479,0,0,0,0,0,0,0,-1,867,1688,-4.81012,-4.5348
-350,-664,-5.7193,3.19934,0,0,0,0,0,0,0,-1,874,1688,-5.71927,-3.19932
-343,-664,2.13544,25.5537,0,0,0,0,0,0,0,-1,881,1688,2.13546,-25.5537
-336,-664,3.50238,26.167,0,0,0,0,0,0,0,-1,888,1688,3.50241,-26.167
-329,-664,5.55524,29.2793,0,0,0,0,0,0,0,-1,895,1688,5.55522,-29.2793
-322,-664,5.82025,29.3121,0,0,0,0,0,0,0,-1,902,1688,5.82022,-29.3121
-315,-664,6.12994,29.374,0,0,0,0,0,0,0,-1,909,1688,6.12994,-29.374
-308,-664,6.43335,29.4537,0,0,0,0,0,0,0,-1,916,1688,6.43335,-29.4538
-301,-664,6.35413,29.8898,-0.000669307,0.0104625,0.0097526,0.0161257,-0.0063325,1.0447,0.0133708,0.0468251,923,1688,6.35411,-29.8898
-294,-664,6.31927,31.0645,-0.000241604,0.00805707,0.00812211,0.0130283,-0.00521288,1.02155,0.010849,0.0446132,930,1688,6.31929,-31.0645
-287,-664,6.27142,31.6534,0.000276816,0.00565721,0.00673807,0.0102223,-0.00428824,0.975329,0.00860799,0.0319168,937,1688,6.27141,-31.6534
-280,-664,6.13379,32.0673,0.000132072,0.00383772,0.00517475,0.00748135,-0.00351155,0.957313,0.00648323,0.0204513,944,1688,6.13378,-32.0673
-273,-664,6.09375,32.5101,-0.000147361,0.00252483,0.00384471,0.00525899,-0.00288152,0.952628,0.00476627,0.0150344,951,1688,6.09373,-32.5101
-266,-664,6.05682,32.9631,-2.92934e-05,0.00177665,0.00300587,0.00401224,-0.00226489,0.931311,0.00367061,0.0216865,958,1688,6.05682,-32.9632
-259,-664,6.03815,33.3876,9.89784e-05,0.00117636,0.00233239,0.00303146,-0.00175612,0.898889,0.00279661,0.0179031,965,1688,6.03812,-33.3876
-252,-664,6.052,33.829,0.000116127,0.000847094,0.0017986,0.00231696,-0.00135374,0.885636,0.00214347,0.0159247,972,1688,6.05199,-33.829
-245,-664,6.02789,34.313,0.00016239,0.000311618,0.00127772,0.0015169,-0.00104289,0.814563,0.00148632,0.020487,979,1688,6.0279,-34.313
-238,-664,6.05225,34.7313,0.000176805,0.000466384,0.000902553,0.00123569,-0.000592499,0.864932,0.00107706,0.0249803,986,1688,6.05222,-34.7313
-231,-664,6.0509,35.1251,0.000423919,0.000760877,0.000923543,0.00153118,-0.000346387,0.875619,0.00115372,0.0222722,993,1688,6.05089,-35.1251
-224,-664,5.99561,35.5614,0.000878857,0.00120371,0.000970675,0.00202546,5.71144e-05,0.868298,0.00133167,0.0153008,1000,1688,5.99562,-35.5614
-217,-664,5.97986,35.9628,0.00136205,0.00160279,0.00109754,0.00258654,0.000378302,0.840018,0.00161311,0.0110664,1007,1688,5.97984,-35.9627
-210,-664,5.97534,36.3469,0.00162312,0.0019296,0.00126637,0.00305197,0.000500748,0.845608,0.00188998,0.0119378,1014,1688,5.97533,-36.3469
-203,-664,5.97144,36.7379,0.00174829,0.00213697,0.0014612,0.00341669,0.000468567,0.851511,0.00213878,0.0151621,1021,1688,5.9714,-36.7379
-196,-664,5.97754,37.0966,0.00207497,0.0023636,0.00170892,0.00393428,0.000504283,0.827522,0.00247196,0.0158171,1028,1688,5.97757,-37.0966
-189,-664,5.97253,37.4836,0.00237393,0.00259509,0.00197895,0.00446654,0.000502473,0.813308,0.00282514,0.00997744,1035,1688,5.97252,-37.4837
-182,-664,5.95618,37.8503,0.00259872,0.00301821,0.00230673,0.00512471,0.000492221,0.830737,0.00326479,0.00878531,1042,1688,5.95612,-37.8503
-175,-664,5.97461,38.1859,0.00274951,0.00337358,0.00268751,0.00576711,0.000355984,0.843192,0.00373174,0.0123554,1049,1688,5.97458,-38.1859
-168,-664,5.98657,38.5374,0.00297076,0.00392223,0.00312635,0.00660884,0.000284155,0.860904,0.0043143,0.0146357,1056,1688,5.98653,-38.5374
-161,-664,5.98486,38.8839,0.00303484,0.00437983,0.00350802,0.00727923,0.000135436,0.8801,0.00480831,0.0112225,1063,1688,5.98486,-38.8839
-154,-664,6.04321,39.2097,0.00315186,0.0049183,0.00381797,0.00795388,0.000116276,0.899065,0.00526425,0.0112068,1070,1688,6.0432,-39.2097
-147,-664,6.03748,39.5458,0.0033618,0.00549179,0.00410939,0.00867195,0.000181643,0.912189,0.00572171,0.0199759,1077,1688,6.03745,-39.5458
-140,-664,6.05151,39.917,0.00366352,0.00607285,0.00436833,0.00939958,0.000336792,0.919941,0.00615719,0.0267393,1084,1688,6.05156,-39.9169
-133,-664,6.0083,40.4155,0.00418208,0.00670579,0.00461928,0.0102325,0.000655401,0.91873,0.00661401,0.0273475,1091,1688,6.00825,-40.4155
-126,-664,6.10925,40.6449,0,0,0,0,0,0,0,-1,1098,1688,6.10923,-40.6449
-119,-664,6.17822,41.1504,0.00557047,0.00713782,0.00461125,0.0110315,0.00167678,0.869568,0.00686403,0.0416977,1105,1688,6.17821,-41.1504
-112,-664,6.38245,41.5499,0,0,0,0,0,0,0,-1,1112,1688,6.38245,-41.5499
-105,-664,6.5813,41.8535,0,0,0,0,0,0,0,-1,1119,1688,6.58124,-41.8535
-98,-664,7.69324,41.3359,0,0,0,0,0,0,0,-1,1126,1688,7.69321,-41.3359
-91,-664,5.41931,25.6302,0,0,0,0,0,0,0,-1,1133,1688,5.41932,-25.6302
-84,-664,3.48389,16.6913,0,0,0,0,0,0,0,-1,1140,1688,3.4839,-16.6913
-77,-664,4.52014,11.2122,0,0,0,0,0,0,0,-1,1147,1688,4.5202,-11.2122
-70,-664,4.20374,8.24524,0,0,0,0,0,0,0,-1,1154,1688,4.20379,-8.24519
-63,-664,-4.677,2.40503,0,0,0,0,0,0,0,-1,1161,1688,-4.67702,-2.40498
-56,-664,-4.66504,3.32727,0,0,0,0,0,0,0,-1,1168,1688,-4.6651,-3.32724
-49,-664,-2.54297,3.31848,0,0,0,0,0,0,0,-1,1175,1688,-2.54297,-3.31852
-42,-664,-0.359253,4.38684,0,0,0,0,0,0,0,-1,1182,1688,-0.359261,-4.38685
-35,-664,-0.705566,3.55017,0,0,0,0,0,0,0,-1,1189,1688,-0.705567,-3.55023
-28,-664,-1.54236,10.2538,0,0,0,0,0,0,0,-1,1196,1688,-1.54236,-10.2538
-21,-664,6.04761,41.2031,0,0,0,0,0,0,0,-1,1203,1688,6.04762,-41.2032
-14,-664,6.94263,41.8209,0.074785,-0.000548821,0.00840628,0.0757116,-0.00147545,0.109788,0.0509734,0.0472567,1210,1688,6.94257,-41.821
-7,-664,7.58032,42.7142,0.078498,0.00400807,0.0137603,0.0809586,0.00154744,0.17695,0.053464,0.0458966,1217,1688,7.58036,-42.7142
0,-664,7.95142,43.6033,0.0802806,0.0118332,0.0201892,0.0857918,0.00632199,0.266487,0.055208,0.044336,1224,1688,7.95142,-43.6033
7,-664,7.43787,44.0437,0,0,0,0,0,0,0,-1,1231,1688,7.43781,-44.0437
14,-664,7.95544,44.0338,0,0,0,0,0,0,0,-1,1238,1688,7.95549,-44.0338
21,-664,8.4032,44.5686,0,0,0,0,0,0,0,-1,1245,1688,8.4032,-44.5686
28,-664,9.22156,47.4756,0,0,0,0,0,0,0,-1,1252,1688,9.22159,-47.4756
35,-664,9.24341,48.074,0.0562859,0.0432602,0.0255198,0.0761108,0.0234353,0.660461,0.0450106,0.0443885,1259,1688,9.24339,-48.0739
42,-664,9.22754,48.6735,0.0488915,0.0470843,0.0222353,0.0702416,0.0257342,0.765091,0.041034,0.044411,1266,1688,9.2275,-48.6734
49,-664,9.47021,49.3137,0.0442186,0.0587395,0.0214363,0.0741115,0.0288466,0.948684,0.0431369,0.0466329,1273,1688,9.47026,-49.3137
56,-664,9.6665,49.8856,0,0,0,0,0,0,0,-1,1280,1688,9.66655,-49.8856
63,-664,8.82507,46.3239,0,0,0,0,0,0,0,-1,1287,1688,8.82504,-46.3239
70,-664,8.70056,46.2272,0.0369407,0.108098,0.0210329,0.11385,0.0311887,1.30385,0.0679339,0.0474101,1294,1688,8.70051,-46.2272
77,-664,8.74841,46.1754,0.0349722,0.129894,0.0219662,0.13473,0.0301353,1.35406,0.0816504,0.042395,1301,1688,8.74837,-46.1754
84,-664,8.52454,45.8505,0.035542,0.154385,0.0221627,0.158384,0.0315435,1.3923,0.0968032,0.0429852,1308,1688,8.52453,-45.8505
91,-664,8.36243,45.4529,0.0421169,0.184408,0.0225205,0.187887,0.0386377,1.41751,0.114571,0.0441993,1315,1688,8.36244,-45.4529
98,-664,8.19604,45.0311,0,0,0,0,0,0,0,-1,1322,1688,8.19601,-45.0311
105,-664,9.15857,46.9825,0.0538967,0.245866,0.021628,0.248272,0.0514902,1.45998,0.151301,0.048528,1329,1688,9.15863,-46.9826
112,-664,9.75476,46.5135,0.0585331,0.271292,0.0182134,0.27284,0.0569852,1.48601,0.166188,0.0463843,1336,1688,9.7548,-46.5136
119,-664,7.78076,44.2729,0.0618701,0.290252,0.0110448,0.290785,0.0613372,1.52259,0.17699,0.0464183,1343,1688,7.78076,-44.273
126,-664,7.87573,43.9808,0,0,0,0,0,0,0,-1,1350,1688,7.87577,-43.9809
133,-664,7.78052,44.2109,0,0,0,0,0,0,0,-1,1357,1688,7.78048,-44.2109
140,-664,8.08838,43.7344,0,0,0,0,0,0,0,-1,1364,1688,8.08832,-43.7344
147,-664,8.32532,43.4392,0,0,0,0,0,0,0,-1,1371,1688,8.32538,-43.4392
154,-664,11.5098,42.1732,0,0,0,0,0,0,0,-1,1378,1688,11.5097,-42.1732
161,-664,4.60132,1.56238,0,0,0,0,0,0,0,-1,1385,1688,4.60134,-1.56233
168,-664,5.172,1.25488,0,0,0,0,0,0,0,-1,1392,1688,5.17203,-1.25484
175,-664,5.58313,1.16467,0,0,0,0,0,0,0,-1,1399,1688,5.58317,-1.16466
182,-664,5.74268,1.41113,0,0,0,0,0,0,0,-1,1406,1688,5.74263,-1.41115
189,-664,5.87744,1.87061,0,0,0,0,0,0,0,-1,1413,1688,5.87745,-1.87065
196,-664,6.7594,5.97473,0,0,0,0,0,0,0,-1,1420,1688,6.75943,-5.97478
203,-664,5.38452,5.22034,0,0,0,0,0,0,0,-1,1427,1688,5.38453,-5.2203
210,-664,5.25549,6.45715,0,0,0,0,0,0,0,-1,1434,1688,5.25549,-6.45721
217,-664,5.72009,6.73975,0,0,0,0,0,0,0,-1,1441,1688,5.72014,-6.73972
224,-664,5.05725,7.42908,0,0,0,0,0,0,0,-1,1448,1688,5.05723,-7.42912
231,-664,5.13318,7.60864,0,0,0,0,0,0,0,-1,1455,1688,5.13313,-7.60862
238,-664,4.23193,6.45471,0,0,0,0,0,0,0,-1,1462,1688,4.23197,-6.45476
245,-664,4.42004,6.80896,0,0,0,0,0,0,0,-1,1469,1688,4.4201,-6.80901
252,-664,3.67346,6.85461,0,0,0,0,0,0,0,-1,1476,1688,3.6734,-6.85462
259,-664,4.55823,11.7435,0,0,0,0,0,0,0,-1,1483,1688,4.55826,-11.7435
266,-664,10.546,39.9031,0,0,0,0,0,0,0,-1,1490,1688,10.546,-39.9031
273,-664,10.4885,39.9021,0.00515323,0.00523917,0.00138577,0.00658263,0.00380976,0.800897,0.00381617,0.0494402,1497,1688,10.4885,-39.9021
280,-664,10.7102,39.6521,0.00451933,0.00544261,0.00143976,0.00649293,0.00346901,0.94054,0.00375163,0.0280018,1504,1688,10.7102,-39.6521
287,-664,10.731,39.2782,0.00387379,0.00537334,0.00144604,0.00625243,0.0029947,1.02457,0.00361091,0.0269626,1511,1688,10.731,-39.2782
294,-664,10.8427,38.9531,0.00342458,0.00546225,0.00111357,0.00595274,0.00293408,1.1559,0.00343693,0.0193095,1518,1688,10.8426,-38.9531
301,-664,10.8972,38.6182,0.0030542,0.00540327,0.000763091,0.0056294,0.00282807,1.28272,0.00325015,0.0121062,1525,1688,10.8972,-38.6182
308,-664,10.9194,38.2787,0.00274891,0.00545311,0.000331617,0.00549318,0.00270884,1.45054,0.00317159,0.011402,1532,1688,10.9195,-38.2787
315,-664,10.9337,37.9342,0.00251333,0.00525659,-8.56402e-05,0.00525926,0.00251066,-1.53962,0.00303747,0.0114298,1539,1688,10.9337,-37.9342
322,-664,10.9508,37.6019,0.00236898,0.0050644,-0.000539982,0.00516855,0.00226483,-1.38026,0.00299166,0.0145974,1546,1688,10.9509,-37.6019
329,-664,10.9435,37.2664,0.00215786,0.00463095,-0.000849007,0.00489435,0.00189445,-1.26996,0.00284968,0.0175692,1553,1688,10.9435,-37.2663
336,-664,10.9359,36.8779,0.00199146,0.0040906,-0.00112901,0.00458255,0.00149952,-1.15987,0.00269787,0.015124,1560,1688,10.9359,-36.878
343,-664,10.9398,36.506,0.00186511,0.00337367,-0.00135614,0.00417118,0.0010676,-1.03919,0.00250203,0.0115617,1567,1688,10.9399,-36.5059
350,-664,10.9341,36.1364,0.00161164,0.00262241,-0.00146918,0.0036707,0.000563347,-0.951053,0.00228264,0.013241,1574,1688,10.9341,-36.1363
357,-664,10.9296,35.7328,0.00124482,0.00150922,-0.0013107,0.00269436,5.96714e-05,-0.83566,0.00177669,0.0134644,1581,1688,10.9296,-35.7328
364,-664,10.9369,35.3516,0.000772733,0.00041977,-0.00102594,0.00163726,-0.000444753,-0.700222,0.00126607,0.0114419,1588,1688,10.9369,-35.3515
371,-664,10.9324,34.9983,0.000181494,-0.000645922,-0.000665564,0.00055145,-0.00101588,-0.507326,0.000918045,0.0138691,1595,1688,10.9324,-34.9983
378,-664,10.8875,34.5913,-0.000568407,-0.00197596,-0.000116213,-0.000558876,-0.00198549,-0.0818257,0.00118225,0.012979,1602,1688,10.8874,-34.5913
385,-664,10.8441,34.1635,-0.00141801,-0.00315298,0.000463393,-0.001302,-0.00326899,0.245308,0.00190032,0.0137065,1609,1688,10.8442,-34.1635
392,-664,10.8252,33.7777,-0.0024902,-0.00444478,0.0011509,-0.00195764,-0.00497734,0.433398,0.0028954,0.0168528,1616,1688,10.8252,-33.7778
399,-664,10.8496,33.3665,-0.00368894,-0.00564337,0.00172747,-0.00268144,-0.00665087,0.527992,0.00386381,0.0148418,1623,1688,10.8497,-33.3664
406,-664,10.8508,32.9438,-0.0049804,-0.00618707,0.00226754,-0.0032373,-0.00793017,0.655373,0.00460412,0.0121797,1630,1688,10.8509,-32.9438
413,-664,10.8313,32.499,-0.00617077,-0.00646132,0.0028673,-0.00344507,-0.00918702,0.760087,0.0053591,0.0114915,1637,1688,10.8313,-32.499
420,-664,10.8138,32.0933,-0.00742928,-0.00659484,0.00339058,-0.00359591,-0.0104282,0.846617,0.00611662,0.0288208,1644,1688,10.8139,-32.0933
427,-664,10.642,31.8961,-0.00849012,-0.00648622,0.00355177,-0.00379778,-0.0111786,0.922875,0.00656352,0.0495066,1651,1688,10.642,-31.8961
434,-664,10.452,31.4967,0,0,0,0,0,0,0,-1,1658,1688,10.4521,-31.4967
441,-664,10.3022,30.8744,0,0,0,0,0,0,0,-1,1665,1688,10.3023,-30.8744
448,-664,7.27502,19.7417,0,0,0,0,0,0,0,-1,1672,1688,7.27505,-19.7417
455,-664,7.53198,11.3838,0,0,0,0,0,0,0,-1,1679,1688,7.53195,-11.3838
462,-664,4.3147,4.25439,0,0,0,0,0,0,0,-1,1686,1688,4.31467,-4.25435
469,-664,6.05469,7.49341,0,0,0,0,0,0,0,-1,1693,1688,6.05474,-7.49339
476,-664,10.2377,22.7128,0,0,0,0,0,0,0,-1,1700,1688,10.2377,-22.7128
483,-664,8.41895,10.9768,0,0,0,0,0,0,0,-1,1707,1688,8.41897,-10.9769
490,-664,3.90771,13.2842,0,0,0,0,0,0,0,-1,1714,1688,3.90776,-13.2841
497,-664,0,0,0,0,0,0,0,0,0,-1,1721,1688,0,0
504,-664,0,0,0,0,0,0,0,0,0,-1,1728,1688,0,0
511,-664,0,0,0,0,0,0,0,0,0,-1,1735,1688,0,0
518,-664,0,0,0,0,0,0,0,0,0,-1,1742,1688,0,0
525,-664,0,0,0,0,0,0,0,0,0,-1,1749,1688,0,0
532,-664,0,0,0,0,0,0,0,0,0,-1,1756,1688,0,0
539,-664,0,0,0,0,0,0,0,0,0,-1,1763,1688,0,0
546,-664,0,0,0,0,0,0,0,0,0,-1,1770,1688,0,0
553,-664,0,0,0,0,0,0,0,0,0,-1,1777,1688,0,0
560,-664,0,0,0,0,0,0,0,0,0,-1,1784,1688,0,0
567,-664,0,0,0,0,0,0,0,0,0,-1,1791,1688,0,0
574,-664,0,0,0,0,0,0,0,0,0,-1,1798,1688,0,0
581,-664,0,0,0,0,0,0,0,0,0,-1,1805,1688,0,0
588,-664,0,0,0,0,0,0,0,0,0,-1,1812,1688,0,0
595,-664,0,0,0,0,0,0,0,0,0,-1,1819,1688,0,0
602,-664,0,0,0,0,0,0,0,0,0,-1,1826,1688,0,0
609,-664,0,0,0,0,0,0,0,0,0,-1,1833,1688,0,0
616,-664,0,0,0,0,0,0,0,0,0,-1,1840,1688,0,0
623,-664,0,0,0,0,0,0,0,0,0,-1,1847,1688,0,0
630,-664,0,0,0,0,0,0,0,0,0,-1,1854,1688,0,0
637,-664,0,0,0,0,0,0,0,0,0,-1,1861,1688,0,0
644,-664,0,0,0,0,0,0,0,0,0,-1,1868,1688,0,0
651,-664,0,0,0,0,0,0,0,0,0,-1,1875,1688,0,0
658,-664,0,0,0,0,0,0,0,0,0,-1,1882,1688,0,0
665,-664,0,0,0,0,0,0,0,0,0,-1,1889,1688,0,0
672,-664,0,0,0,0,0,0,0,0,0,-1,1896,1688,0,0
679,-664,0,0,0,0,0,0,0,0,0,-1,1903,1688,0,0
686,-664,0,0,0,0,0,0,0,0,0,-1,1910,1688,0,0
693,-664,0,0,0,0,0,0,0,0,0,-1,1917,1688,0,0
700,-664,0,0,0,0,0,0,0,0,0,-1,1924,1688,0,0
707,-664,0,0,0,0,0,0,0,0,0,-1,1931,1688,0,0
714,-664,0,0,0,0,0,0,0,0,0,-1,1938,1688,0,0
721,-664,0,0,0,0,0,0,0,0,0,-1,1945,1688,0,0
728,-664,0,0,0,0,0,0,0,0,0,-1,1952,1688,0,0
735,-664,0,0,0,0,0,0,0,0,0,-1,1959,1688,0,0
742,-664,0,0,0,0,0,0,0,0,0,-1,1966,1688,0,0
749,-664,0,0,0,0,0,0,0,0,0,-1,1973,1688,0,0
756,-664,0,0,0,0,0,0,0,0,0,-1,1980,1688,0,0
763,-664,0,0,0,0,0,0,0,0,0,-1,1987,1688,0,0
770,-664,0,0,0,0,0,0,0,0,0,-1,1994,1688,0,0
777,-664,0,0,0,0,0,0,0,0,0,-1,2001,1688,0,0
784,-664,0,0,0,0,0,0,0,0,0,-1,2008,1688,0,0
791,-664,0,0,0,0,0,0,0,0,0,-1,2015,1688,0,0
798,-664,0,0,0,0,0,0,0,0,0,-1,2022,1688,0,0
805,-664,0,0,0,0,0,0,0,0,0,-1,2029,1688,0,0
812,-664,0,0,0,0,0,0,0,0,0,-1,2036,1688,0,0
-700,-671,0,0,0,0,0,0,0,0,0,-1,524,1695,0,0
-693,-671,0,0,0,0,0,0,0,0,0,-1,531,1695,0,0
-686,-671,0,0,0,0,0,0,0,0,0,-1,538,1695,0,0
-679,-671,0,0,0,0,0,0,0,0,0,-1,545,1695,0,0
-672,-671,0,0,0,0,0,0,0,0,0,-1,552,1695,0,0
-665,-671,0,0,0,0,0,0,0,0,0,-1,559,1695,0,0
-658,-671,0,0,0,0,0,0,0,0,0,-1,566,1695,0,0
-651,-671,0,0,0,0,0,0,0,0,0,-1,573,1695,0,0
-644,-671,0,0,0,0,0,0,0,0,0,-1,580,1695,0,0
-637,-671,0,0,0,0,0,0,0,0,0,-1,587,1695,0,0
-630,-671,0,0,0,0,0,0,0,0,0,-1,594,1695,0,0
-623,-671,0,0,0,0,0,0,0,0,0,-1,601,1695,0,0
-616,-671,0,0,0,0,0,0,0,0,0,-1,608,1695,0,0
-609,-671,0,0,0,0,0,0,0,0,0,-1,615,1695,0,0
-602,-671,0,0,0,0,0,0,0,0,0,-1,622,1695,0,0
-595,-671,0,0,0,0,0,0,0,0,0,-1,629,1695,0,0
-588,-671,0,0,0,0,0,0,0,0,0,-1,636,1695,0,0
-581,-671,0,0,0,0,0,0,0,0,0,-1,643,1695,0,0
-574,-671,0,0,0,0,0,0,0,0,0,-1,650,1695,0,0
-567,-671,0,0,0,0,0,0,0,0,0,-1,657,1695,0,0
-560,-671,0,0,0,0,0,0,0,0,0,-1,664,1695,0,0
-553,-671,0,0,0,0,0,0,0,0,0,-1,671,1695,0,0
-546,-671,0,0,0,0,0,0,0,0,0,-1,678,1695,0,0
-539,-671,0,0,0,0,0,0,0,0,0,-1,685,1695,0,0
-532,-671,0,0,0,0,0,0,0,0,0,-1,692,1695,0,0
-525,-671,0,0,0,0,0,0,0,0,0,-1,699,1695,0,0
-518,-671,0,0,0,0,0,0,0,0,0,-1,706,1695,0,0
-511,-671,0,0,0,0,0,0,0,0,0,-1,713,1695,0,0
-504,-671,0,0,0,0,0,0,0,0,0,-1,720,1695,0,0
-497,-671,0,0,0,0,0,0,0,0,0,-1,727,1695,0,0
-490,-671,0,0,0,0,0,0,0,0,0,-1,734,1695,0,0
-483,-671,0,0,0,0,0,0,0,0,0,-1,741,1695,0,0
-476,-671,0,0,0,0,0,0,0,0,0,-1,748,1695,0,0
-469,-671,0,0,0,0,0,0,0,0,0,-1,755,1695,0,0
-462,-671,0,0,0,0,0,0,0,0,0,-1,762,1695,0,0
-455,-671,0,0,0,0,0,0,0,0,0,-1,769,1695,0,0
-448,-671,0,0,0,0,0,0,0,0,0,-1,776,1695,0,0
-441,-671,0,0,0,0,0,0,0,0,0,-1,783,1695,0,0
-434,-671,0,0,0,0,0,0,0,0,0,-1,790,1695,0,0
-427,-671,0,0,0,0,0,0,0,0,0,-1,797,1695,0,0
-420,-671,0,0,0,0,0,0,0,0,0,-1,804,1695,0,0
-413,-671,0,0,0,0,0,0,0,0,0,-1,811,1695,0,0
-406,-671,0,0,0,0,0,0,0,0,0,-1,818,1695,0,0
-399,-671,0,0,0,0,0,0,0,0,0,-1,825,1695,0,0
-392,-671,0,0,0,0,0,0,0,0,0,-1,832,1695,0,0
-385,-671,0,0,0,0,0,0,0,0,0,-1,839,1695,0,0
-378,-671,0,0,0,0,0,0,0,0,0,-1,846,1695,0,0
-371,-671,0,0,0,0,0,0,0,0,0,-1,853,1695,0,0
-364,-671,-4.18738,7.51416,0,0,0,0,0,0,0,-1,860,1695,-4.18739,-7.51419
-357,-671,-5.02393,6.07129,0,0,0,0,0,0,0,-1,867,1695,-5.0239,-6.07135
-350,-671,-5.72333,4.58386,0,0,0,0,0,0,0,-1,874,1695,-5.72333,-4.58386
-343,-671,2.99432,25.8125,0,0,0,0,0,0,0,-1,881,1695,2.9943,-25.8125
-336,-671,4.1355,26.2717,0,0,0,0,0,0,0,-1,888,1695,4.13547,-26.2718
-329,-671,5.27954,26.6194,0,0,0,0,0,0,0,-1,895,1695,5.27955,-26.6194
-322,-671,6.58679,29.3051,0,0,0,0,0,0,0,-1,902,1695,6.58682,-29.3051
-315,-671,6.94165,29.3059,0,0,0,0,0,0,0,-1,909,1695,6.94165,-29.3059
-308,-671,9.79431,29.1393,0,0,0,0,0,0,0,-1,916,1695,9.79433,-29.1393
-301,-671,6.84552,29.3926,0,0,0,0,0,0,0,-1,923,1695,6.84555,-29.3926
-294,-671,6.63385,30.8301,0.000869998,0.0102758,0.0109527,0.0174926,-0.00634676,0.988188,0.0142563,0.0475336,930,1695,6.63386,-30.8301
-287,-671,6.86694,31.6077,0.00119685,0.00726555,0.00895553,0.0136868,-0.00522442,0.94874,0.0112769,0.0460358,937,1695,6.86692,-31.6077
-280,-671,6.70996,32.1467,0.000707879,0.00482334,0.00677784,0.00984893,-0.0043177,0.932775,0.00838434,0.0384966,944,1695,6.70997,-32.1467
-273,-671,6.52393,32.5343,0.000168715,0.00309298,0.00497852,0.00681964,-0.00355794,0.928226,0.00608934,0.0328472,951,1695,6.52392,-32.5343
-266,-671,6.53284,33.0187,0.000128308,0.00204218,0.00382464,0.00502778,-0.00285729,0.907983,0.00460959,0.0255181,958,1695,6.53283,-33.0187
-259,-671,6.44879,33.3933,8.59605e-05,0.00121721,0.00289093,0.00359732,-0.00229416,0.882005,0.00342907,0.0218456,965,1695,6.44877,-33.3933
-252,-671,6.461,33.8442,-8.88226e-05,0.000677582,0.00215715,0.0024853,-0.00189654,0.873303,0.00253746,0.0173667,972,1695,6.46099,-33.8443
-245,-671,6.44116,34.3209,-0.000229973,-0.000101636,0.00148416,0.00131975,-0.00165136,0.807002,0.00171892,0.0207808,979,1695,6.44114,-34.3209
-238,-671,6.45386,34.7579,-0.000402153,-0.000153934,0.00101893,0.000748414,-0.0013045,0.846002,0.00119966,0.0221701,986,1695,6.45387,-34.758
-231,-671,6.42578,35.1583,-0.000283394,-9.44927e-05,0.00100971,0.000825178,-0.00120306,0.832034,0.00117776,0.0171778,993,1695,6.42578,-35.1583
-224,-671,6.37738,35.556,8.54835e-05,0.000102305,0.00106021,0.00115414,-0.00096635,0.789365,0.00122586,0.012729,1000,1695,6.37738,-35.5561
-217,-671,6.36505,35.9592,0.000472167,0.000353325,0.00114067,0.00155496,-0.000729468,0.759375,0.00134731,0.0118703,1007,1695,6.36504,-35.9592
-210,-671,6.37097,36.3661,0.000644752,0.000513818,0.00122488,0.00180591,-0.000647342,0.7587,0.00146809,0.0115861,1014,1695,6.371,-36.3661
-203,-671,6.35999,36.7246,0.000767738,0.000619929,0.00140378,0.00209956,-0.000711894,0.759099,0.00168781,0.0197981,1021,1695,6.35998,-36.7247
-196,-671,6.34509,37.0941,0.00109762,0.000767435,0.00160325,0.00254425,-0.000679197,0.734092,0.00196215,0.0172125,1028,1695,6.34505,-37.0942
-189,-671,6.35828,37.5277,0.0014218,0.000970815,0.00177588,0.00298644,-0.000593828,0.722249,0.00221559,0.0119006,1035,1695,6.35833,-37.5277
-182,-671,6.32837,37.8779,0.00171249,0.00145099,0.00198627,0.00357231,-0.000408826,0.752533,0.00252885,0.00923187,1042,1695,6.3284,-37.8779
-175,-671,6.3396,38.2039,0.00198287,0.00189638,0.00222235,0.00416239,-0.000283145,0.77567,0.00287396,0.0127166,1049,1695,6.3396,-38.2038
-168,-671,6.34424,38.5391,0.00226374,0.00251885,0.00247979,0.00487436,-9.17723e-05,0.811095,0.00328059,0.0147602,1056,1695,6.34419,-38.5391
-161,-671,6.35522,38.8811,0.002376,0.00308922,0.00264007,0.00539665,6.85675e-05,0.85253,0.00357513,0.0102849,1063,1695,6.35517,-38.8811
-154,-671,6.36511,39.2164,0.00256115,0.00373294,0.00275682,0.00596544,0.000328651,0.890103,0.00387206,0.00848077,1070,1695,6.36515,-39.2165
-147,-671,6.3595,39.5551,0.00284357,0.0043713,0.00286203,0.00656965,0.000645228,0.915807,0.00418132,0.00952682,1077,1695,6.35954,-39.5551
-140,-671,6.39392,39.8636,0.0031838,0.00491834,0.00292891,0.00710568,0.000996452,0.929339,0.00444238,0.0127806,1084,1695,6.39398,-39.8637
-133,-671,6.41064,40.1616,0.00369526,0.00533041,0.00304992,0.00767044,0.00135523,0.916352,0.00472709,0.0185107,1091,1695,6.41066,-40.1616
-126,-671,6.46216,40.5688,0.00433211,0.0054374,0.00302099,0.00795587,0.00181364,0.875866,0.00481461,0.0275543,1098,1695,6.46213,-40.5689
-119,-671,6.54175,41.0813,0.00504471,0.00515062,0.00295333,0.00805147,0.00214386,0.794362,0.00481484,0.0467137,1105,1695,6.5418,-41.0814
-112,-671,6.5603,41.7285,0,0,0,0,0,0,0,-1,1112,1695,6.56028,-41.7286
-105,-671,7.33252,41.3418,0,0,0,0,0,0,0,-1,1119,1695,7.33247,-41.3418
-98,-671,6.44116,42.1858,0,0,0,0,0,0,0,-1,1126,1695,6.44117,-42.1858
-91,-671,6.40063,38.2443,0,0,0,0,0,0,0,-1,1133,1695,6.40059,-38.2442
-84,-671,5.4209,26.2415,0,0,0,0,0,0,0,-1,1140,1695,5.42096,-26.2414
-77,-671,4.31763,16.489,0,0,0,0,0,0,0,-1,1147,1695,4.31757,-16.489
-70,-671,3.06067,10.7737,0,0,0,0,0,0,0,-1,1154,1695,3.0607,-10.7737
-63,-671,2.94592,6.90198,0,0,0,0,0,0,0,-1,1161,1695,2.94594,-6.90198
-56,-671,-3.07678,2.87976,0,0,0,0,0,0,0,-1,1168,1695,-3.07675,-2.87979
-49,-671,-1.05957,4.76917,0,0,0,0,0,0,0,-1,1175,1695,-1.05958,-4.76921
-42,-671,0.539307,3.7865,0,0,0,0,0,0,0,-1,1182,1695,0.539266,-3.78648
-35,-671,-0.272461,0.347534,0,0,0,0,0,0,0,-1,1189,1695,-0.272434,-0.347569
-28,-671,-10.4878,17.2009,0,0,0,0,0,0,0,-1,1196,1695,-10.4878,-17.2009
-21,-671,6.61353,40.9438,0,0,0,0,0,0,0,-1,1203,1695,6.61358,-40.9438
-14,-671,7.40808,41.9061,0.0630007,0.00320152,0.0126306,0.0655591,0.000643186,0.199847,0.0434932,0.0486623,1210,1695,7.40813,-41.9062
-7,-671,8.05725,42.895,0.0647483,0.00743074,0.0167504,0.0692844,0.00289461,0.264464,0.0452556,0.0467644,1217,1695,8.05725,-42.895
0,-671,7.22852,43.9218,0,0,0,0,0,0,0,-1,1224,1695,7.22847,-43.9217
7,-671,7.49133,44.0314,0.0643217,0.020305,0.0250192,0.0756349,0.00899175,0.424666,0.0477093,0.0451965,1231,1695,7.4913,-44.0314
14,-671,7.90161,44.166,0.0617842,0.0269645,0.0271332,0.0766127,0.012136,0.500159,0.0475489,0.0427337,1238,1695,7.90157,-44.166
21,-671,8.31604,44.6592,0.0578314,0.0327301,0.0278917,0.0758661,0.0146954,0.57398,0.0464602,0.0428916,1245,1695,8.316,-44.6592
28,-671,8.87646,46.5382,0.0524623,0.0372085,0.0264895,0.0724011,0.0172698,0.645229,0.0436644,0.047959,1252,1695,8.87642,-46.5382
35,-671,8.88184,47.2262,0.0456887,0.0403298,0.0236674,0.0668279,0.0191906,0.729032,0.0397312,0.046361,1259,1695,8.88179,-47.2262
42,-671,8.79016,47.7616,0.0397569,0.0439065,0.0205804,0.0625165,0.021147,0.835636,0.036718,0.0467428,1266,1695,8.79019,-47.7616
49,-671,8.76233,48.2925,0,0,0,0,0,0,0,-1,1273,1695,8.7623,-48.2925
56,-671,9.2594,45.5502,0,0,0,0,0,0,0,-1,1280,1695,9.2594,-45.5502
63,-671,8.71802,45.9255,0,0,0,0,0,0,0,-1,1287,1695,8.71796,-45.9256
70,-671,8.61328,45.8214,0.0295699,0.0926076,0.0167929,0.096802,0.0253755,1.32603,0.0579584,0.0460731,1294,1695,8.61334,-45.8214
77,-671,8.4906,45.6603,0.0277376,0.108922,0.0165545,0.112168,0.0244917,1.37718,0.0680989,0.0451436,1301,1695,8.49061,-45.6602
84,-671,8.45166,45.0038,0.0278055,0.127039,0.0157922,0.129491,0.0253529,1.41672,0.0792401,0.0470991,1308,1695,8.4517,-45.0038
91,-671,8.06616,44.7098,0.032716,0.149747,0.0157212,0.151822,0.0306409,1.43956,0.0927045,0.0479814,1315,1695,8.06616,-44.7098
98,-671,7.81091,45.0371,0.03749,0.173317,0.0156316,0.175093,0.0357143,1.45768,0.106833,0.0440143,1322,1695,7.81088,-45.0371
105,-671,8.01233,45.0762,0.0417219,0.196591,0.0152296,0.198074,0.0402384,1.4737,0.12089,0.043347,1329,1695,8.01232,-45.0762
112,-671,8.02759,44.9673,0,0,0,0,0,0,0,-1,1336,1695,8.02761,-44.9673
119,-671,8.15759,44.2885,0,0,0,0,0,0,0,-1,1343,1695,8.15756,-44.2885
126,-671,8.2345,44.2319,0,0,0,0,0,0,0,-1,1350,1695,8.23453,-44.2319
133,-671,8.56018,43.9233,0,0,0,0,0,0,0,-1,1357,1695,8.56023,-43.9233
140,-671,8.60193,43.6815,0.0562388,0.255656,-0.0102948,0.256186,0.0557088,-1.51935,0.155582,0.0488891,1364,1695,8.60192,-43.6815
147,-671,8.82556,43.3745,0,0,0,0,0,0,0,-1,1371,1695,8.82561,-43.3745
154,-671,9.05554,43.1348,0,0,0,0,0,0,0,-1,1378,1695,9.05558,-43.1347
161,-671,4.49292,4.91272,0,0,0,0,0,0,0,-1,1385,1695,4.49297,-4.91273
168,-671,5.17639,6.1416,0,0,0,0,0,0,0,-1,1392,1695,5.1764,-6.14164
175,-671,5.6731,1.64685,0,0,0,0,0,0,0,-1,1399,1695,5.67313,-1.64691
182,-671,5.56812,1.71692,0,0,0,0,0,0,0,-1,1406,1695,5.56809,-1.71686
189,-671,6.98315,6.36169,0,0,0,0,0,0,0,-1,1413,1695,6.98312,-6.36175
196,-671,5.38123,5.69775,0,0,0,0,0,0,0,-1,1420,1695,5.38125,-5.69769
203,-671,5.95117,8.11658,0,0,0,0,0,0,0,-1,1427,1695,5.9512,-8.11662
210,-671,4.73596,8.39624,0,0,0,0,0,0,0,-1,1434,1695,4.736,-8.39618
217,-671,5.37097,11.863,0,0,0,0,0,0,0,-1,1441,1695,5.37094,-11.863
224,-671,5.08167,13.6694,0,0,0,0,0,0,0,-1,1448,1695,5.08165,-13.6695
231,-671,5.66663,15.3348,0,0,0,0,0,0,0,-1,1455,1695,5.66667,-15.3349
238,-671,6.32959,16.2036,0,0,0,0,0,0,0,-1,1462,1695,6.32961,-16.2037
245,-671,10.6449,40.4673,0,0,0,0,0,0,0,-1,1469,1695,10.6449,-40.4673
252,-671,10.4019,40.5442,0,0,0,0,0,0,0,-1,1476,1695,10.4018,-40.5442
259,-671,10.4287,40.5393,0,0,0,0,0,0,0,-1,1483,1695,10.4287,-40.5392
266,-671,10.443,40.1418,0.00502652,0.00337099,0.000364899,0.00510338,0.00329413,0.207599,0.00298772,0.0322712,1490,1695,10.443,-40.1419
273,-671,10.5052,39.8844,0.00447892,0.00337296,0.000535016,0.00469538,0.00315651,0.384444,0.00276398,0.0100356,1497,1695,10.5053,-39.8844
280,-671,10.505,39.5858,0.00390699,0.00362943,0.000605965,0.00438986,0.00314655,0.672827,0.00261268,0.00977398,1504,1695,10.505,-39.5858
287,-671,10.5177,39.1987,0.00333069,0.00372056,0.000654323,0.00420837,0.00284288,0.930172,0.00247911,0.0117707,1511,1695,10.5177,-39.1987
294,-671,10.5321,38.8727,0.00289816,0.00392988,0.000480662,0.00411911,0.00270894,1.19575,0.00241725,0.0115433,1518,1695,10.5322,-38.8727
301,-671,10.5447,38.6017,0.00254287,0.00394576,0.000280993,0.00399995,0.00248868,1.38029,0.00233224,0.0109892,1525,1695,10.5447,-38.6017
308,-671,10.5746,38.2977,0.00225162,0.00401032,-1.72986e-05,0.00401049,0.00225145,-1.56096,0.00232127,0.0121927,1532,1695,10.5746,-38.2977
315,-671,10.597,37.9702,0.00203806,0.00382491,-0.000319488,0.00388032,0.00198266,-1.39908,0.00224048,0.0131334,1539,1695,10.597,-37.9702
322,-671,10.6035,37.6423,0.00184572,0.00357882,-0.000584471,0.0037575,0.00166703,-1.2741,0.00217398,0.0151155,1546,1695,10.6036,-37.6424
329,-671,10.5583,37.2888,0.00161871,0.00307872,-0.000783023,0.00341924,0.00127819,-1.16058,0.00199494,0.0147389,1553,1695,10.5583,-37.2888
336,-671,10.5612,36.8876,0.00144469,0.00247843,-0.000968098,0.003059,0.000864122,-1.0306,0.00182097,0.0114088,1560,1695,10.5611,-36.8876
343,-671,10.584,36.4955,0.00130253,0.00168256,-0.00108091,0.00259003,0.000395062,-0.872406,0.00161122,0.0114633,1567,1695,10.584,-36.4955
350,-671,10.5786,36.167,0.000974279,0.000832508,-0.00110908,0.00201474,-0.000207949,-0.753485,0.00141757,0.0122103,1574,1695,10.5786,-36.167
357,-671,10.5593,35.7472,0.000587499,-0.000316382,-0.000927054,0.00116691,-0.00089579,-0.558598,0.00119432,0.0112453,1581,1695,10.5593,-35.7471
364,-671,10.5381,35.3438,0.000114715,-0.00142227,-0.000666445,0.000363439,-0.001671,-0.357201,0.00125284,0.0124234,1588,1695,10.538,-35.3438
371,-671,10.5079,35.0059,-0.000507589,-0.00246861,-0.000322064,-0.00045605,-0.00252015,-0.158681,0.0015506,0.014404,1595,1695,10.5079,-35.0058
378,-671,10.4915,34.6139,-0.00133164,-0.00387857,0.000269969,-0.00130333,-0.00390687,0.104451,0.00229689,0.0127103,1602,1695,10.4915,-34.6138
385,-671,10.4556,34.1736,-0.00227808,-0.00501852,0.000879309,-0.00202021,-0.00527639,0.28527,0.00307406,0.0144878,1609,1695,10.4556,-34.1736
392,-671,10.4457,33.7869,-0.00348109,-0.00633421,0.00162651,-0.00274418,-0.00707112,0.425398,0.00411646,0.0188252,1616,1695,10.4457,-33.7869
399,-671,10.4144,33.3894,-0.00483247,-0.00754071,0.00223468,-0.00357366,-0.00879953,0.513004,0.00511017,0.0149456,1623,1695,10.4145,-33.3894
406,-671,10.4099,32.9517,-0.00636837,-0.00800734,0.00284839,-0.00422393,-0.0101518,0.64533,0.00588859,0.0194181,1630,1695,10.41,-32.9517
413,-671,10.3701,32.6313,-0.00786744,-0.00824116,0.00364926,-0.00440027,-0.0117083,0.759818,0.00682895,0.031441,1637,1695,10.3701,-32.6313
420,-671,10.3784,32.2848,0,0,0,0,0,0,0,-1,1644,1695,10.3784,-32.2848
427,-671,10.1639,32.3407,0,0,0,0,0,0,0,-1,1651,1695,10.1639,-32.3407
434,-671,9.66528,26.177,0,0,0,0,0,0,0,-1,1658,1695,9.66528,-26.177
441,-671,8.34961,20.6522,0,0,0,0,0,0,0,-1,1665,1695,8.34964,-20.6522
448,-671,7.44873,20.2306,0,0,0,0,0,0,0,-1,1672,1695,7.44872,-20.2306
455,-671,6.62805,19.8612,0,0,0,0,0,0,0,-1,1679,1695,6.62811,-19.8612
462,-671,5.86255,4.47961,0,0,0,0,0,0,0,-1,1686,1695,5.8625,-4.4796
469,-671,3.71301,3.76978,0,0,0,0,0,0,0,-1,1693,1695,3.71297,-3.76974
476,-671,3.75574,3.18848,0,0,0,0,0,0,0,-1,1700,1695,3.7558,-3.18847
483,-671,7.81824,12.1041,0,0,0,0,0,0,0,-1,1707,1695,7.81826,-12.1041
490,-671,0,0,0,0,0,0,0,0,0,-1,1714,1695,0,0
497,-671,0,0,0,0,0,0,0,0,0,-1,1721,1695,0,0
504,-671,0,0,0,0,0,0,0,0,0,-1,1728,1695,0,0
511,-671,0,0,0,0,0,0,0,0,0,-1,1735,1695,0,0
518,-671,0,0,0,0,0,0,0,0,0,-1,1742,1695,0,0
525,-671,0,0,0,0,0,0,0,0,0,-1,1749,1695,0,0
532,-671,0,0,0,0,0,0,0,0,0,-1,1756,1695,0,0
539,-671,0,0,0,0,0,0,0,0,0,-1,1763,1695,0,0
546,-671,0,0,0,0,0,0,0,0,0,-1,1770,1695,0,0
553,-671,0,0,0,0,0,0,0,0,0,-1,1777,1695,0,0
560,-671,0,0,0,0,0,0,0,0,0,-1,1784,1695,0,0
567,-671,0,0,0,0,0,0,0,0,0,-1,1791,1695,0,0
574,-671,0,0,0,0,0,0,0,0,0,-1,1798,1695,0,0
581,-671,0,0,0,0,0,0,0,0,0,-1,1805,1695,0,0
588,-671,0,0,0,0,0,0,0,0,0,-1,1812,1695,0,0
595,-671,0,0,0,0,0,0,0,0,0,-1,1819,1695,0,0
602,-671,0,0,0,0,0,0,0,0,0,-1,1826,1695,0,0
609,-671,0,0,0,0,0,0,0,0,0,-1,1833,1695,0,0
616,-671,0,0,0,0,0,0,0,0,0,-1,1840,1695,0,0
623,-671,0,0,0,0,0,0,0,0,0,-1,1847,1695,0,0
630,-671,0,0,0,0,0,0,0,0,0,-1,1854,1695,0,0
637,-671,0,0,0,0,0,0,0,0,0,-1,1861,1695,0,0
644,-671,0,0,0,0,0,0,0,0,0,-1,1868,1695,0,0
651,-671,0,0,0,0,0,0,0,0,0,-1,1875,1695,0,0
658,-671,0,0,0,0,0,0,0,0,0,-1,1882,1695,0,0
665,-671,0,0,0,0,0,0,0,0,0,-1,1889,1695,0,0
672,-671,0,0,0,0,0,0,0,0,0,-1,1896,1695,0,0
679,-671,0,0,0,0,0,0,0,0,0,-1,1903,1695,0,0
686,-671,0,0,0,0,0,0,0,0,0,-1,1910,1695,0,0
693,-671,0,0,0,0,0,0,0,0,0,-1,1917,1695,0,0
700,-671,0,0,0,0,0,0,0,0,0,-1,1924,1695,0,0
707,-671,0,0,0,0,0,0,0,0,0,-1,1931,1695,0,0
714,-671,0,0,0,0,0,0,0,0,0,-1,1938,1695,0,0
721,-671,0,0,0,0,0,0,0,0,0,-1,1945,1695,0,0
728,-671,0,0,0,0,0,0,0,0,0,-1,1952,1695,0,0
735,-671,0,0,0,0,0,0,0,0,0,-1,1959,1695,0,0
742,-671,0,0,0,0,0,0,0,0,0,-1,1966,1695,0,0
749,-671,0,0,0,0,0,0,0,0,0,-1,1973,1695,0,0
756,-671,0,0,0,0,0,0,0,0,0,-1,1980,1695,0,0
763,-671,0,0,0,0,0,0,0,0,0,-1,1987,1695,0,0
770,-671,0,0,0,0,0,0,0,0,0,-1,1994,1695,0,0
777,-671,0,0,0,0,0,0,0,0,0,-1,2001,1695,0,0
784,-671,0,0,0,0,0,0,0,0,0,-1,2008,1695,0,0
791,-671,0,0,0,0,0,0,0,0,0,-1,2015,1695,0,0
798,-671,0,0,0,0,0,0,0,0,0,-1,2022,1695,0,0
805,-671,0,0,0,0,0,0,0,0,0,-1,2029,1695,0,0
812,-671,0,0,0,0,0,0,0,0,0,-1,2036,1695,0,0
-700,-678,0,0,0,0,0,0,0,0,0,-1,524,1702,0,0
-693,-678,0,0,0,0,0,0,0,0,0,-1,531,1702,0,0
-686,-678,0,0,0,0,0,0,0,0,0,-1,538,1702,0,0
-679,-678,0,0,0,0,0,0,0,0,0,-1,545,1702,0,0
-672,-678,0,0,0,0,0,0,0,0,0,-1,552,1702,0,0
-665,-678,0,0,0,0,0,0,0,0,0,-1,559,1702,0,0
-658,-678,0,0,0,0,0,0,0,0,0,-1,566,1702,0,0
-651,-678,0,0,0,0,0,0,0,0,0,-1,573,1702,0,0
-644,-678,0,0,0,0,0,0,0,0,0,-1,580,1702,0,0
-637,-678,0,0,0,0,0,0,0,0,0,-1,587,1702,0,0
-630,-678,0,0,0,0,0,0,0,0,0,-1,594,1702,0,0
-623,-678,0,0,0,0,0,0,0,0,0,-1,601,1702,0,0
-616,-678,0,0,0,0,0,0,0,0,0,-1,608,1702,0,0
-609,-678,0,0,0,0,0,0,0,0,0,-1,615,1702,0,0
-602,-678,0,0,0,0,0,0,0,0,0,-1,622,1702,0,0
-595,-678,0,0,0,0,0,0,0,0,0,-1,629,1702,0,0
-588,-678,0,0,0,0,0,0,0,0,0,-1,636,1702,0,0
-581,-678,0,0,0,0,0,0,0,0,0,-1,643,1702,0,0
-574,-678,0,0,0,0,0,0,0,0,0,-1,650,1702,0,0
-567,-678,0,0,0,0,0,0,0,0,0,-1,657,1702,0,0
-560,-678,0,0,0,0,0,0,0,0,0,-1,664,1702,0,0
-553,-678,0,0,0,0,0,0,0,0,0,-1,671,1702,0,0
-546,-678,0,0,0,0,0,0,0,0,0,-1,678,1702,0,0
-539,-678,0,0,0,0,0,0,0,0,0,-1,685,1702,0,0
-532,-678,0,0,0,0,0,0,0,0,0,-1,692,1702,0,0
-525,-678,0,0,0,0,0,0,0,0,0,-1,699,1702,0,0
-518,-678,0,0,0,0,0,0,0,0,0,-1,706,1702,0,0
-511,-678,0,0,0,0,0,0,0,0,0,-1,713,1702,0,0
-504,-678,0,0,0,0,0,0,0,0,0,-1,720,1702,0,0
-497,-678,0,0,0,0,0,0,0,0,0,-1,727,1702,0,0
-490,-678,0,0,0,0,0,0,0,0,0,-1,734,1702,0,0
-483,-678,0,0,0,0,0,0,0,0,0,-1,741,1702,0,0
-476,-678,0,0,0,0,0,0,0,0,0,-1,748,1702,0,0
-469,-678,0,0,0,0,0,0,0,0,0,-1,755,1702,0,0
-462,-678,0,0,0,0,0,0,0,0,0,-1,762,1702,0,0
-455,-678,0,0,0,0,0,0,0,0,0,-1,769,1702,0,0
-448,-678,0,0,0,0,0,0,0,0,0,-1,776,1702,0,0
-441,-678,0,0,0,0,0,0,0,0,0,-1,783,1702,0,0
-434,-678,0,0,0,0,0,0,0,0,0,-1,790,1702,0,0
-427,-678,0,0,0,0,0,0,0,0,0,-1,797,1702,0,0
-420,-678,0,0,0,0,0,0,0,0,0,-1,804,1702,0,0
-413,-678,0,0,0,0,0,0,0,0,0,-1,811,1702,0,0
-406,-678,0,0,0,0,0,0,0,0,0,-1,818,1702,0,0
-399,-678,0,0,0,0,0,0,0,0,0,-1,825,1702,0,0
-392,-678,0,0,0,0,0,0,0,0,0,-1,832,1702,0,0
-385,-678,0,0,0,0,0,0,0,0,0,-1,839,1702,0,0
-378,-678,0,0,0,0,0,0,0,0,0,-1,846,1702,0,0
-371,-678,0,0,0,0,0,0,0,0,0,-1,853,1702,0,0
-364,-678,0,0,0,0,0,0,0,0,0,-1,860,1702,0,0
-357,-678,0,0,0,0,0,0,0,0,0,-1,867,1702,0,0
-350,-678,-5.79944,6.11865,0,0,0,0,0,0,0,-1,874,1702,-5.79942,-6.11864
-343,-678,-6.44891,4.52759,0,0,0,0,0,0,0,-1,881,1702,-6.4489,-4.52758
-336,-678,4.8537,26.4368,0,0,0,0,0,0,0,-1,888,1702,4.85368,-26.4368
-329,-678,5.70953,26.5249,0,0,0,0,0,0,0,-1,895,1702,5.70955,-26.5249
-322,-678,3.78455,20.3917,0,0,0,0,0,0,0,-1,902,1702,3.78457,-20.3917
-315,-678,4.74176,22.3245,0,0,0,0,0,0,0,-1,909,1702,4.74178,-22.3244
-308,-678,5.16455,30.2467,0,0,0,0,0,0,0,-1,916,1702,5.16454,-30.2467
-301,-678,5.92584,30.6565,0,0,0,0,0,0,0,-1,923,1702,5.92584,-30.6565
-294,-678,6.52966,31.1063,0,0,0,0,0,0,0,-1,930,1702,6.52964,-31.1063
-287,-678,7.45496,31.5834,0,0,0,0,0,0,0,-1,937,1702,7.45495,-31.5834
-280,-678,7.2674,32.2556,0.00178414,0.00612576,0.00862868,0.0128525,-0.00494261,0.908631,0.0106069,0.0489542,944,1702,7.26739,-32.2556
-273,-678,7.0965,32.7455,0.000910851,0.00390785,0.00628981,0.00887519,-0.0040565,0.902339,0.00763694,0.0457833,951,1702,7.09651,-32.7455
-266,-678,6.66229,33.3073,0.000637288,0.0025424,0.00478257,0.00646635,-0.00328666,0.883698,0.00572979,0.0375208,958,1702,6.6623,-33.3072
-259,-678,6.87164,33.4874,0.000354109,0.00151331,0.00357183,0.00455226,-0.00268484,0.865832,0.00422446,0.024035,965,1702,6.87165,-33.4874
-252,-678,6.88525,33.8741,-8.13706e-05,0.000772822,0.00263957,0.00301962,-0.00232817,0.865606,0.00309614,0.0186496,972,1702,6.88526,-33.8741
-245,-678,6.8689,34.3059,-0.000468392,-0.00023385,0.00184228,0.00149489,-0.00219713,0.817183,0.0021444,0.0197058,979,1702,6.86888,-34.3059
-238,-678,6.80896,34.7308,-0.000754671,-0.000676067,0.0013402,0.000625412,-0.00205615,0.800057,0.00161999,0.0160982,986,1702,6.80895,-34.7308
-231,-678,6.76892,35.1453,-0.000721717,-0.000999165,0.00131241,0.000459277,-0.00218016,0.732743,0.00162827,0.0129663,993,1702,6.76892,-35.1453
-224,-678,6.74316,35.5341,-0.000402631,-0.00120037,0.001379,0.000634024,-0.00223702,0.644617,0.00174159,0.0129164,1000,1702,6.74319,-35.5341
-217,-678,6.75848,35.9559,-6.03452e-05,-0.00129684,0.00141829,0.000868589,-0.00222577,0.57986,0.00184292,0.01362,1007,1702,6.75849,-35.956
-210,-678,6.74695,36.4008,3.87696e-05,-0.00143744,0.00141164,0.00089363,-0.0022923,0.544511,0.00189756,0.0141096,1014,1702,6.74694,-36.4008
-203,-678,6.73267,36.7413,0.000170922,-0.00153965,0.00157583,0.00110861,-0.00247733,0.536768,0.00212002,0.0185812,1021,1702,6.73266,-36.7413
-196,-678,6.72375,37.1144,0.000498953,-0.00154495,0.00172481,0.00148183,-0.00252783,0.517955,0.00234109,0.0184317,1028,1702,6.7238,-37.1143
-189,-678,6.70825,37.519,0.00082624,-0.00139295,0.00181765,0.00184621,-0.00241292,0.511363,0.00246626,0.010028,1035,1702,6.70826,-37.519
-182,-678,6.70557,37.8931,0.0011434,-0.000876513,0.00193895,0.00231966,-0.00205277,0.545293,0.00252599,0.00934934,1042,1702,6.70553,-37.8931
-175,-678,6.68433,38.2443,0.0014613,-0.000277462,0.00208295,0.00284902,-0.00166519,0.587699,0.00263598,0.0108598,1049,1702,6.68428,-38.2442
-168,-678,6.67065,38.5771,0.00172212,0.00050768,0.00221389,0.00341055,-0.00118075,0.651551,0.00275302,0.0105344,1056,1702,6.6706,-38.5771
-161,-678,6.67676,38.915,0.00179715,0.00132224,0.00223167,0.00380396,-0.000684573,0.732397,0.00279228,0.00918245,1063,1702,6.67681,-38.9151
-154,-678,6.69092,39.2537,0.00195908,0.00221863,0.00223267,0.0043253,-0.000147585,0.814428,0.00293397,0.00796735,1070,1702,6.69092,-39.2537
-147,-678,6.68396,39.5856,0.00223488,0.00307864,0.00222967,0.00492599,0.000387528,0.878898,0.00316274,0.00948964,1077,1702,6.68391,-39.5856
-140,-678,6.72083,39.9,0.00255724,0.00376088,0.00217989,0.0054205,0.000897615,0.920082,0.00335473,0.0116016,1084,1702,6.72088,-39.9
-133,-678,6.75,40.1976,0.00305863,0.00417399,0.00219001,0.00587621,0.00135641,0.910072,0.00355272,0.0133716,1091,1702,6.74994,-40.1976
-126,-678,6.7533,40.5175,0.00365169,0.0042116,0.00208542,0.00603577,0.00182752,0.852122,0.00357397,0.0130531,1098,1702,6.75328,-40.5174
-119,-678,6.79578,41.0759,0.00427519,0.00378504,0.00195541,0.00600082,0.00205941,0.723057,0.00352091,0.0353117,1105,1702,6.79575,-41.0759
-112,-678,6.84668,41.608,0,0,0,0,0,0,0,-1,1112,1702,6.84668,-41.6081
-105,-678,6.80371,41.4047,0,0,0,0,0,0,0,-1,1119,1702,6.80368,-41.4046
-98,-678,6.82813,41.8131,0,0,0,0,0,0,0,-1,1126,1702,6.82807,-41.8131
-91,-678,6.92456,41.7896,0,0,0,0,0,0,0,-1,1133,1702,6.92453,-41.7896
-84,-678,6.58545,36.5073,0,0,0,0,0,0,0,-1,1140,1702,6.58544,-36.5073
-77,-678,5.95154,29.1879,0,0,0,0,0,0,0,-1,1147,1702,5.95156,-29.1878
-70,-678,4.75891,19.6552,0,0,0,0,0,0,0,-1,1154,1702,4.75895,-19.6551
-63,-678,3.41687,11.0365,0,0,0,0,0,0,0,-1,1161,1702,3.41682,-11.0365
-56,-678,1.72388,6.13159,0,0,0,0,0,0,0,-1,1168,1702,1.72388,-6.13157
-49,-678,-0.241699,5.29895,0,0,0,0,0,0,0,-1,1175,1702,-0.241682,-5.29897
-42,-678,0.297119,3.90649,0,0,0,0,0,0,0,-1,1182,1702,0.297139,-3.90655
-35,-678,0.498413,3.64038,0,0,0,0,0,0,0,-1,1189,1702,0.498471,-3.64038
-28,-678,0.132446,3.55994,0,0,0,0,0,0,0,-1,1196,1702,0.132432,-3.55993
-21,-678,7.51904,43.7405,0,0,0,0,0,0,0,-1,1203,1702,7.51902,-43.7405
-14,-678,8.11804,42.0527,0,0,0,0,0,0,0,-1,1210,1702,8.11805,-42.0527
-7,-678,7.20178,44.2028,0,0,0,0,0,0,0,-1,1217,1702,7.20174,-44.2028
0,-678,7.40588,44.1235,0,0,0,0,0,0,0,-1,1224,1702,7.40584,-44.1235
7,-678,7.64978,44.1281,0.0505534,0.0189582,0.0226361,0.0623594,0.00715219,0.480743,0.0394058,0.0472781,1231,1702,7.6498,-44.128
14,-678,7.93396,44.3564,0.048548,0.0244087,0.0241021,0.0634337,0.00952303,0.553266,0.0394993,0.0436889,1238,1702,7.93392,-44.3564
21,-678,8.2207,44.7902,0.0455482,0.0293221,0.024605,0.0633433,0.0115271,0.626145,0.0389591,0.0408914,1245,1702,8.22075,-44.7902
28,-678,8.52209,45.6132,0.0414906,0.033244,0.0233708,0.0610991,0.0136355,0.698081,0.037034,0.0457814,1252,1702,8.52213,-45.6132
35,-678,8.52148,46.1901,0.0364113,0.0360651,0.0209951,0.057234,0.0152424,0.781276,0.0342259,0.0447392,1259,1702,8.52153,-46.19
42,-678,8.38989,46.6388,0.0317349,0.0393025,0.0182774,0.0541837,0.0168537,0.887467,0.0320189,0.0460192,1266,1702,8.38992,-46.6388
49,-678,8.44092,47.193,0,0,0,0,0,0,0,-1,1273,1702,8.44086,-47.193
56,-678,8.70984,45.0958,0,0,0,0,0,0,0,-1,1280,1702,8.70981,-45.0958
63,-678,8.16296,45.0544,0,0,0,0,0,0,0,-1,1287,1702,8.16298,-45.0544
70,-678,8.62927,45.5045,0.0231734,0.0769496,0.0131465,0.0799914,0.0201315,1.34342,0.0480442,0.0461302,1294,1702,8.62924,-45.5045
77,-678,8.75378,45.4009,0.021585,0.0887123,0.0122201,0.0908677,0.0194296,1.39621,0.0552527,0.0481288,1301,1702,8.75384,-45.4009
84,-678,8.8053,45.4929,0,0,0,0,0,0,0,-1,1308,1702,8.80525,-45.4929
91,-678,7.56384,43.6912,0.0248099,0.117757,0.0104715,0.118922,0.0236448,1.45999,0.0726934,0.0471451,1315,1702,7.56384,-43.6912
98,-678,7.11426,43.6036,0.0282715,0.134804,0.0102719,0.135786,0.0272901,1.47555,0.0829374,0.0435107,1322,1702,7.11423,-43.6036
105,-678,6.69604,43.5492,0,0,0,0,0,0,0,-1,1329,1702,6.696,-43.5492
112,-678,8.41602,44.2905,0,0,0,0,0,0,0,-1,1336,1702,8.416,-44.2905
119,-678,8.52222,44.2562,0.0365627,0.177956,0.00566937,0.178183,0.0363358,1.53079,0.10872,0.0404154,1343,1702,8.52224,-44.2562
126,-678,8.69592,44.1165,0.0385665,0.187015,0.00100585,0.187022,0.0385597,1.56402,0.114023,0.04474,1350,1702,8.69594,-44.1164
133,-678,8.99329,43.8512,0,0,0,0,0,0,0,-1,1357,1702,8.99327,-43.8512
140,-678,9.10608,43.6044,0,0,0,0,0,0,0,-1,1364,1702,9.10611,-43.6044
147,-678,9.28699,43.3411,0,0,0,0,0,0,0,-1,1371,1702,9.28697,-43.341
154,-678,13.7267,41.666,0,0,0,0,0,0,0,-1,1378,1702,13.7266,-41.666
161,-678,8.81226,34.8624,0,0,0,0,0,0,0,-1,1385,1702,8.81229,-34.8624
168,-678,4.21863,5.25781,0,0,0,0,0,0,0,-1,1392,1702,4.21865,-5.25781
175,-678,5.21899,5.9635,0,0,0,0,0,0,0,-1,1399,1702,5.21894,-5.96346
182,-678,7.31262,6.75122,0,0,0,0,0,0,0,-1,1406,1702,7.3126,-6.75123
189,-678,5.96021,6.36853,0,0,0,0,0,0,0,-1,1413,1702,5.96018,-6.36851
196,-678,5.01599,8.15771,0,0,0,0,0,0,0,-1,1420,1702,5.01596,-8.15767
203,-678,4.64771,13.0559,0,0,0,0,0,0,0,-1,1427,1702,4.64766,-13.0559
210,-678,5.6532,18.5957,0,0,0,0,0,0,0,-1,1434,1702,5.65318,-18.5958
217,-678,6.88049,23.4835,0,0,0,0,0,0,0,-1,1441,1702,6.88047,-23.4835
224,-678,8.521,32.0977,0,0,0,0,0,0,0,-1,1448,1702,8.52098,-32.0977
231,-678,9.90344,41.6539,0,0,0,0,0,0,0,-1,1455,1702,9.90345,-41.6539
238,-678,10.042,41.384,0,0,0,0,0,0,0,-1,1462,1702,10.042,-41.384
245,-678,10.1373,41.1134,0.00529347,0.00135019,0.000318653,0.00531905,0.0013246,0.0801162,0.00319731,0.0366359,1469,1702,10.1374,-41.1134
252,-678,10.1628,40.7468,0.00484598,0.00176111,0.000247489,0.00486571,0.00174138,0.0795489,0.00284679,0.0279589,1476,1702,10.1628,-40.7468
259,-678,10.1619,40.5159,0.00444731,0.0020731,7.89629e-05,0.00444993,0.00207047,0.0332096,0.00257123,0.0169586,1483,1702,10.1618,-40.5159
266,-678,10.1979,40.2023,0.00401201,0.00234702,-3.67586e-06,0.00401202,0.00234701,-0.00220771,0.00232747,0.0112346,1490,1702,10.1979,-40.2023
273,-678,10.212,39.9012,0.00355645,0.0023866,6.72449e-05,0.00356031,0.00238275,0.0572302,0.00209443,0.0105691,1497,1702,10.212,-39.9013
280,-678,10.2023,39.6132,0.00307637,0.00258208,8.3563e-05,0.00309011,0.00256833,0.163023,0.00191005,0.011195,1504,1702,10.2023,-39.6131
287,-678,10.2334,39.2788,0.00259678,0.0027136,9.72656e-05,0.00276864,0.00254173,1.0558,0.00177497,0.0112238,1511,1702,10.2334,-39.2788
294,-678,10.2336,38.9399,0.00223079,0.00296796,-1.34372e-05,0.00296821,0.00223055,-1.55258,0.00178449,0.0117055,1518,1702,10.2336,-38.9399
301,-678,10.22,38.6239,0.00194819,0.00298675,-0.000133609,0.00300366,0.00193128,-1.44488,0.00175764,0.0123879,1525,1702,10.2199,-38.6239
308,-678,10.2273,38.3058,0.0017218,0.00300676,-0.000353445,0.00309757,0.001631,-1.31933,0.00178922,0.0142361,1532,1702,10.2273,-38.3058
315,-678,10.2297,37.9775,0.00157367,0.00278919,-0.00058475,0.00302482,0.00133804,-1.18774,0.00175024,0.0147464,1539,1702,10.2297,-37.9775
322,-678,10.2104,37.666,0.00144607,0.00253421,-0.00076496,0.00292885,0.00105143,-1.09451,0.00171324,0.0174072,1546,1702,10.2104,-37.666
329,-678,10.2015,37.2855,0.00129399,0.00200757,-0.000916269,0.00263407,0.0006675,-0.971063,0.00158123,0.0151719,1553,1702,10.2016,-37.2856
336,-678,10.1821,36.8854,0.00117672,0.00136922,-0.00105581,0.00233316,0.000212783,-0.830852,0.00148959,0.0123167,1560,1702,10.1822,-36.8853
343,-678,10.1866,36.5314,0.00107905,0.000513371,-0.0011014,0.00193335,-0.000340927,-0.659714,0.00141629,0.0130375,1567,1702,10.1867,-36.5314
350,-678,10.1924,36.1636,0.000707135,-0.000417313,-0.00108235,0.00136457,-0.00107475,-0.545856,0.00141165,0.0134875,1574,1702,10.1924,-36.1635
357,-678,10.1758,35.7544,0.000310458,-0.00160355,-0.000896988,0.000665111,-0.0019582,-0.376519,0.00157471,0.0102742,1581,1702,10.1758,-35.7544
364,-678,10.1503,35.3647,-0.000177964,-0.00274087,-0.000665436,-1.54891e-05,-0.00290334,-0.239477,0.00193042,0.0110557,1588,1702,10.1502,-35.3647
371,-678,10.1084,35.015,-0.000875119,-0.00380721,-0.000323824,-0.000839782,-0.00384255,-0.108696,0.00233272,0.0121263,1595,1702,10.1084,-35.015
378,-678,10.0806,34.62,-0.00186004,-0.00537797,0.000351729,-0.00182522,-0.00541279,0.0986802,0.00317981,0.0127533,1602,1702,10.0805,-34.62
385,-678,10.0743,34.2169,-0.00302076,-0.00655526,0.00103793,-0.00273851,-0.00683752,0.26552,0.0039736,0.0131107,1609,1702,10.0744,-34.2169
392,-678,10.0571,33.8411,-0.00449387,-0.00800225,0.00190728,-0.00365675,-0.00883937,0.413593,0.0051287,0.0224131,1616,1702,10.0571,-33.8411
399,-678,10.014,33.483,-0.00616845,-0.00935322,0.00261706,-0.00469739,-0.0108243,0.512088,0.00626754,0.0353591,1623,1702,10.0141,-33.4831
406,-678,9.85486,33.1885,-0.00815468,-0.00981626,0.00337746,-0.00550733,-0.0124636,0.664802,0.00721206,0.0423366,1630,1702,9.85481,-33.1885
413,-678,9.92639,32.7495,0,0,0,0,0,0,0,-1,1637,1702,9.92644,-32.7495
420,-678,9.6665,28.3398,0,0,0,0,0,0,0,-1,1644,1702,9.66649,-28.3398
427,-678,4.57483,10.1555,0,0,0,0,0,0,0,-1,1651,1702,4.57485,-10.1555
434,-678,9.48169,21.6665,0,0,0,0,0,0,0,-1,1658,1702,9.48169,-21.6665
441,-678,8.64539,21.1864,0,0,0,0,0,0,0,-1,1665,1702,8.64536,-21.1865
448,-678,7.62244,20.7195,0,0,0,0,0,0,0,-1,1672,1702,7.6224,-20.7195
455,-678,5.44678,5.54297,0,0,0,0,0,0,0,-1,1679,1702,5.44676,-5.54294
462,-678,3.86792,2.87402,0,0,0,0,0,0,0,-1,1686,1702,3.86796,-2.87406
469,-678,2.26587,1.98755,0,0,0,0,0,0,0,-1,1693,1702,2.26592,-1.98755
476,-678,0,0,0,0,0,0,0,0,0,-1,1700,1702,0,0
483,-678,0,0,0,0,0,0,0,0,0,-1,1707,1702,0,0
490,-678,0,0,0,0,0,0,0,0,0,-1,1714,1702,0,0
497,-678,0,0,0,0,0,0,0,0,0,-1,1721,1702,0,0
504,-678,0,0,0,0,0,0,0,0,0,-1,1728,1702,0,0
511,-678,0,0,0,0,0,0,0,0,0,-1,1735,1702,0,0
518,-678,0,0,0,0,0,0,0,0,0,-1,1742,1702,0,0
525,-678,0,0,0,0,0,0,0,0,0,-1,1749,1702,0,0
532,-678,0,0,0,0,0,0,0,0,0,-1,1756,1702,0,0
539,-678,0,0,0,0,0,0,0,0,0,-1,1763,1702,0,0
546,-678,0,0,0,0,0,0,0,0,0,-1,1770,1702,0,0
553,-678,0,0,0,0,0,0,0,0,0,-1,1777,1702,0,0
560,-678,0,0,0,0,0,0,0,0,0,-1,1784,1702,0,0
567,-678,0,0,0,0,0,0,0,0,0,-1,1791,1702,0,0
574,-678,0,0,0,0,0,0,0,0,0,-1,1798,1702,0,0
581,-678,0,0,0,0,0,0,0,0,0,-1,1805,1702,0,0
588,-678,0,0,0,0,0,0,0,0,0,-1,1812,1702,0,0
595,-678,0,0,0,0,0,0,0,0,0,-1,1819,1702,0,0
602,-678,0,0,0,0,0,0,0,0,0,-1,1826,1702,0,0
609,-678,0,0,0,0,0,0,0,0,0,-1,1833,1702,0,0
616,-678,0,0,0,0,0,0,0,0,0,-1,1840,1702,0,0
623,-678,0,0,0,0,0,0,0,0,0,-1,1847,1702,0,0
630,-678,0,0,0,0,0,0,0,0,0,-1,1854,1702,0,0
637,-678,0,0,0,0,0,0,0,0,0,-1,1861,1702,0,0
644,-678,0,0,0,0,0,0,0,0,0,-1,1868,1702,0,0
651,-678,0,0,0,0,0,0,0,0,0,-1,1875,1702,0,0
658,-678,0,0,0,0,0,0,0,0,0,-1,1882,1702,0,0
665,-678,0,0,0,0,0,0,0,0,0,-1,1889,1702,0,0
672,-678,0,0,0,0,0,0,0,0,0,-1,1896,1702,0,0
679,-678,0,0,0,0,0,0,0,0,0,-1,1903,1702,0,0
686,-678,0,0,0,0,0,0,0,0,0,-1,1910,1702,0,0
693,-678,0,0,0,0,0,0,0,0,0,-1,1917,1702,0,0
700,-678,0,0,0,0,0,0,0,0,0,-1,1924,1702,0,0
707,-678,0,0,0,0,0,0,0,0,0,-1,1931,1702,0,0
714,-678,0,0,0,0,0,0,0,0,0,-1,1938,1702,0,0
721,-678,0,0,0,0,0,0,0,0,0,-1,1945,1702,0,0
728,-678,0,0,0,0,0,0,0,0,0,-1,1952,1702,0,0
735,-678,0,0,0,0,0,0,0,0,0,-1,1959,1702,0,0
742,-678,0,0,0,0,0,0,0,0,0,-1,1966,1702,0,0
749,-678,0,0,0,0,0,0,0,0,0,-1,1973,1702,0,0
756,-678,0,0,0,0,0,0,0,0,0,-1,1980,1702,0,0
763,-678,0,0,0,0,0,0,0,0,0,-1,1987,1702,0,0
770,-678,0,0,0,0,0,0,0,0,0,-1,1994,1702,0,0
777,-678,0,0,0,0,0,0,0,0,0,-1,2001,1702,0,0
784,-678,0,0,0,0,0,0,0,0,0,-1,2008,1702,0,0
791,-678,0,0,0,0,0,0,0,0,0,-1,2015,1702,0,0
798,-678,0,0,0,0,0,0,0,0,0,-1,2022,1702,0,0
805,-678,0,0,0,0,0,0,0,0,0,-1,2029,1702,0,0
812,-678,0,0,0,0,0,0,0,0,0,-1,2036,1702,0,0
-700,-685,0,0,0,0,0,0,0,0,0,-1,524,1709,0,0
-693,-685,0,0,0,0,0,0,0,0,0,-1,531,1709,0,0
-686,-685,0,0,0,0,0,0,0,0,0,-1,538,1709,0,0
-679,-685,0,0,0,0,0,0,0,0,0,-1,545,1709,0,0
-672,-685,0,0,0,0,0,0,0,0,0,-1,552,1709,0,0
-665,-685,0,0,0,0,0,0,0,0,0,-1,559,1709,0,0
-658,-685,0,0,0,0,0,0,0,0,0,-1,566,1709,0,0
-651,-685,0,0,0,0,0,0,0,0,0,-1,573,1709,0,0
-644,-685,0,0,0,0,0,0,0,0,0,-1,580,1709,0,0
-637,-685,0,0,0,0,0,0,0,0,0,-1,587,1709,0,0
-630,-685,0,0,0,0,0,0,0,0,0,-1,594,1709,0,0
-623,-685,0,0,0,0,0,0,0,0,0,-1,601,1709,0,0
-616,-685,0,0,0,0,0,0,0,0,0,-1,608,1709,0,0
-609,-685,0,0,0,0,0,0,0,0,0,-1,615,1709,0,0
-602,-685,0,0,0,0,0,0,0,0,0,-1,622,1709,0,0
-595,-685,0,0,0,0,0,0,0,0,0,-1,629,1709,0,0
-588,-685,0,0,0,0,0,0,0,0,0,-1,636,1709,0,0
-581,-685,0,0,0,0,0,0,0,0,0,-1,643,1709,0,0
-574,-685,0,0,0,0,0,0,0,0,0,-1,650,1709,0,0
-567,-685,0,0,0,0,0,0,0,0,0,-1,657,1709,0,0
-560,-685,0,0,0,0,0,0,0,0,0,-1,664,1709,0,0
-553,-685,0,0,0,0,0,0,0,0,0,-1,671,1709,0,0
-546,-685,0,0,0,0,0,0,0,0,0,-1,678,1709,0,0
-539,-685,0,0,0,0,0,0,0,0,0,-1,685,1709,0,0
-532,-685,0,0,0,0,0,0,0,0,0,-1,692,1709,0,0
-525,-685,0,0,0,0,0,0,0,0,0,-1,699,1709,0,0
-518,-685,0,0,0,0,0,0,0,0,0,-1,706,1709,0,0
-511,-685,0,0,0,0,0,0,0,0,0,-1,713,1709,0,0
-504,-685,0,0,0,0,0,0,0,0,0,-1,720,1709,0,0
-497,-685,0,0,0,0,0,0,0,0,0,-1,727,1709,0,0
-490,-685,0,0,0,0,0,0,0,0,0,-1,734,1709,0,0
-483,-685,0,0,0,0,0,0,0,0,0,-1,741,1709,0,0
-476,-685,0,0,0,0,0,0,0,0,0,-1,748,1709,0,0
-469,-685,0,0,0,0,0,0,0,0,0,-1,755,1709,0,0
-462,-685,0,0,0,0,0,0,0,0,0,-1,762,1709,0,0
-455,-685,0,0,0,0,0,0,0,0,0,-1,769,1709,0,0
-448,-685,0,0,0,0,0,0,0,0,0,-1,776,1709,0,0
-441,-685,0,0,0,0,0,0,0,0,0,-1,783,1709,0,0
-434,-685,0,0,0,0,0,0,0,0,0,-1,790,1709,0,0
-427,-685,0,0,0,0,0,0,0,0,0,-1,797,1709,0,0
-420,-685,0,0,0,0,0,0,0,0,0,-1,804,1709,0,0
-413,-685,0,0,0,0,0,0,0,0,0,-1,811,1709,0,0
-406,-685,0,0,0,0,0,0,0,0,0,-1,818,1709,0,0
-399,-685,0,0,0,0,0,0,0,0,0,-1,825,1709,0,0
-392,-685,0,0,0,0,0,0,0,0,0,-1,832,1709,0,0
-385,-685,0,0,0,0,0,0,0,0,0,-1,839,1709,0,0
-378,-685,0,0,0,0,0,0,0,0,0,-1,846,1709,0,0
-371,-685,0,0,0,0,0,0,0,0,0,-1,853,1709,0,0
-364,-685,0,0,0,0,0,0,0,0,0,-1,860,1709,0,0
-357,-685,0,0,0,0,0,0,0,0,0,-1,867,1709,0,0
-350,-685,0,0,0,0,0,0,0,0,0,-1,874,1709,0,0
-343,-685,-5.98505,6.56335,0,0,0,0,0,0,0,-1,881,1709,-5.98505,-6.56329
-336,-685,-6.51312,5.10571,0,0,0,0,0,0,0,-1,888,1709,-6.51311,-5.10575
-329,-685,-6.81384,3.34106,0,0,0,0,0,0,0,-1,895,1709,-6.81385,-3.341
-322,-685,3.83191,16.7219,0,0,0,0,0,0,0,-1,902,1709,3.8319,-16.7219
-315,-685,5.15784,21.4388,0,0,0,0,0,0,0,-1,909,1709,5.15783,-21.4389
-308,-685,6.36969,21.0303,0,0,0,0,0,0,0,-1,916,1709,6.36968,-21.0302
-301,-685,6.08997,31.184,0,0,0,0,0,0,0,-1,923,1709,6.08999,-31.1839
-294,-685,6.40417,31.6605,0,0,0,0,0,0,0,-1,930,1709,6.40415,-31.6606
-287,-685,7.98877,31.77,0,0,0,0,0,0,0,-1,937,1709,7.98874,-31.77
-280,-685,7.83588,32.3446,0,0,0,0,0,0,0,-1,944,1709,7.83589,-32.3446
-273,-685,7.68304,32.9193,0,0,0,0,0,0,0,-1,951,1709,7.68303,-32.9193
-266,-685,6.71039,33.1431,0.00144397,0.00309548,0.00581634,0.00814439,-0.00360494,0.855913,0.00695019,0.0458347,958,1709,6.7104,-33.1431
-259,-685,7.0506,33.4343,0.000810939,0.00190542,0.00428692,0.00567988,-0.00296353,0.848881,0.00507175,0.0451016,965,1709,7.05063,-33.4343
-252,-685,7.28943,33.7448,2.52223e-05,0.000986452,0.00314485,0.0036872,-0.00267553,0.861224,0.00368897,0.0386525,972,1709,7.28943,-33.7448
-245,-685,7.34253,34.285,-0.000662102,-0.000220023,0.00225536,0.0018251,-0.00270723,0.834245,0.00263321,0.0356294,979,1709,7.34254,-34.285
-238,-685,7.28491,34.7776,-0.00107668,-0.00111974,0.00176264,0.000664555,-0.00286098,0.779292,0.00216314,0.0268725,986,1709,7.28491,-34.7775
-231,-685,7.17981,35.218,-0.00113026,-0.00186799,0.00173877,0.00027834,-0.00327658,0.680876,0.00228283,0.0175413,993,1709,7.17983,-35.2181
-224,-685,7.1488,35.5662,-0.000852526,-0.0024945,0.00183841,0.000339886,-0.00368691,0.575398,0.00257871,0.0154355,1000,1709,7.14882,-35.5662
-217,-685,7.14612,35.9836,-0.000541513,-0.00293669,0.00185952,0.00047269,-0.00395089,0.499314,0.0028048,0.0116025,1007,1709,7.14611,-35.9836
-210,-685,7.12543,36.4119,-0.00049971,-0.00337948,0.00180036,0.000365744,-0.00424493,0.448097,0.00295941,0.0157832,1014,1709,7.12544,-36.4118
-203,-685,7.10876,36.7798,-0.000348431,-0.00369885,0.00196893,0.000561509,-0.00460879,0.432912,0.00327578,0.0162925,1021,1709,7.10871,-36.7798
-196,-685,7.0885,37.1511,-6.05086e-06,-0.00386972,0.00208961,0.000907896,-0.00478366,0.412306,0.00353087,0.0133682,1028,1709,7.08851,-37.1511
-189,-685,7.07959,37.4984,0.000332867,-0.00381021,0.00211755,0.00122364,-0.00470098,0.398191,0.00361164,0.00884613,1035,1709,7.07961,-37.4985
-182,-685,7.06213,37.8771,0.000644773,-0.00330573,0.00214045,0.00158211,-0.00424307,0.412758,0.00347816,0.012838,1042,1709,7.06212,-37.8771
-175,-685,7.0415,38.2266,0.00097342,-0.00259215,0.00219815,0.00202086,-0.00363959,0.44468,0.00331231,0.0133625,1049,1709,7.04148,-38.2266
-168,-685,7.01379,38.5784,0.00117858,-0.00167118,0.00222099,0.00239246,-0.00288506,0.500192,0.0030514,0.0105762,1056,1709,7.01376,-38.5784
-161,-685,7.02197,38.9359,0.00118828,-0.000690883,0.00211698,0.00256482,-0.00206742,0.576542,0.00267956,0.0112388,1063,1709,7.02198,-38.9359
-154,-685,7.03296,39.2844,0.00130294,0.000386692,0.00202128,0.00291736,-0.00122773,0.673955,0.00245855,0.00982966,1070,1709,7.03297,-39.2845
-147,-685,7.0293,39.5992,0.0015466,0.00142032,0.00193314,0.00341763,-0.000450708,0.769073,0.00244256,0.0092144,1077,1709,7.02924,-39.5992
-140,-685,7.03638,39.8982,0.00184399,0.00224606,0.00180206,0.00385826,0.000231783,0.840947,0.0024985,0.0121532,1084,1709,7.03632,-39.8982
-133,-685,7.06189,40.1985,0.00227991,0.00282386,0.00172044,0.00429369,0.000810082,0.863792,0.00263428,0.0116215,1091,1709,7.0619,-40.1985
-126,-685,7.0752,40.5032,0.00282754,0.00299191,0.00158626,0.00449811,0.00132134,0.81128,0.00266962,0.00915638,1098,1709,7.0752,-40.5032
-119,-685,7.06934,40.8107,0.0034041,0.00271061,0.0014288,0.00452763,0.00158709,0.666357,0.00265267,0.0123484,1105,1709,7.06935,-40.8107
-112,-685,7.08215,41.0751,0.0039609,0.00236691,0.00110068,0.00452284,0.00180498,0.472041,0.00262893,0.0132365,1112,1709,7.08218,-41.075
-105,-685,7.08093,41.3374,0.00459677,0.00188669,0.000682104,0.00475876,0.00172469,0.233175,0.00278192,0.0140267,1119,1709,7.08099,-41.3374
-98,-685,7.15784,41.5736,0.00544013,0.00150574,0.000448967,0.00549071,0.00145516,0.112192,0.00328468,0.0191886,1126,1709,7.15787,-41.5736
-91,-685,7.15674,41.7297,0.0059061,0.00102729,0.000102598,0.00590826,0.00102513,0.0210169,0.00364549,0.0339997,1133,1709,7.15677,-41.7298
-84,-685,7.14978,41.9944,0,0,0,0,0,0,0,-1,1140,1709,7.14982,-41.9944
-77,-685,7.21716,42.3818,0,0,0,0,0,0,0,-1,1147,1709,7.2172,-42.3818
-70,-685,7.32849,42.6389,0,0,0,0,0,0,0,-1,1154,1709,7.32849,-42.6389
-63,-685,6.03015,29.7728,0,0,0,0,0,0,0,-1,1161,1709,6.0302,-29.7728
-56,-685,3.93909,15.8704,0,0,0,0,0,0,0,-1,1168,1709,3.93905,-15.8704
-49,-685,3.07471,9.86011,0,0,0,0,0,0,0,-1,1175,1709,3.07467,-9.86009
-42,-685,2.70618,7.54504,0,0,0,0,0,0,0,-1,1182,1709,2.7062,-7.54504
-35,-685,2.95264,7.91516,0,0,0,0,0,0,0,-1,1189,1709,2.95262,-7.91517
-28,-685,7.67883,43.5864,0,0,0,0,0,0,0,-1,1196,1709,7.67879,-43.5864
-21,-685,7.67151,43.7413,0.0390685,0.00283645,0.0112525,0.0422787,-0.000373757,0.277907,0.0283112,0.0499752,1203,1709,7.67147,-43.7413
-14,-685,7.78735,43.8086,0.0402099,0.00543604,0.0139141,0.0450919,0.000554012,0.33745,0.0298783,0.0290161,1210,1709,7.78739,-43.8086
-7,-685,7.76428,44.0188,0.0409258,0.00919123,0.0168731,0.0482204,0.00189666,0.408055,0.0315337,0.0441192,1217,1709,7.76425,-44.0187
0,-685,7.63538,44.0244,0,0,0,0,0,0,0,-1,1224,1709,7.63541,-44.0244
7,-685,7.85876,44.1737,0.0404595,0.0173506,0.0213241,0.0531584,0.00465179,0.537116,0.0339946,0.0453464,1231,1709,7.85877,-44.1737
14,-685,8.11646,44.5674,0.0390832,0.0218036,0.0224303,0.0544801,0.00640664,0.601564,0.034384,0.0479362,1238,1709,8.11647,-44.5673
21,-685,8.27368,44.8679,0.0368807,0.0259786,0.0227351,0.0548091,0.00805022,0.667737,0.0341736,0.0418673,1245,1709,8.27374,-44.8679
28,-685,8.41443,44.9623,0.033786,0.0293656,0.0215489,0.0532378,0.00991386,0.734294,0.0326922,0.0463944,1252,1709,8.41442,-44.9622
35,-685,8.39758,44.6874,0,0,0,0,0,0,0,-1,1259,1709,8.39756,-44.6874
42,-685,8.43738,44.9612,0,0,0,0,0,0,0,-1,1266,1709,8.43733,-44.9612
49,-685,8.18433,44.6483,0,0,0,0,0,0,0,-1,1273,1709,8.1843,-44.6483
56,-685,8.34448,44.7438,0.021974,0.0473454,0.0141008,0.053627,0.0156924,1.15171,0.0318369,0.0485572,1280,1709,8.34446,-44.7438
63,-685,8.35925,44.7297,0.0201733,0.0547037,0.0124867,0.0587459,0.0161311,1.25772,0.035047,0.0443149,1287,1709,8.3592,-44.7297
70,-685,8.63208,45.0134,0.0183482,0.0641461,0.0103092,0.0663598,0.0161346,1.35929,0.0399625,0.0448673,1294,1709,8.63204,-45.0135
77,-685,8.75146,45.0295,0.0168078,0.0724502,0.0088751,0.0738315,0.0154265,1.4164,0.0449696,0.0499605,1301,1709,8.75151,-45.0296
84,-685,8.73389,44.9048,0,0,0,0,0,0,0,-1,1308,1709,8.73386,-44.9048
91,-685,8.87402,44.4246,0,0,0,0,0,0,0,-1,1315,1709,8.87406,-44.4245
98,-685,8.97583,44.34,0.0208983,0.102894,0.0061503,0.103353,0.0204396,1.49634,0.0632004,0.0402379,1322,1709,8.9758,-44.34
105,-685,8.97266,44.2516,0.022845,0.11381,0.00613338,0.114222,0.0224333,1.50377,0.0698808,0.0420825,1329,1709,8.97261,-44.2515
112,-685,8.83643,44.2551,0,0,0,0,0,0,0,-1,1336,1709,8.83637,-44.2552
119,-685,8.78418,44.076,0.0262506,0.13003,0.00387807,0.130175,0.0261059,1.5335,0.0795227,0.0410643,1343,1709,8.78423,-44.076
126,-685,9.0144,43.8812,0.0275044,0.13517,0.000898475,0.135178,0.0274969,1.56245,0.0824947,0.0435495,1350,1709,9.01442,-43.8813
133,-685,9.18701,43.7086,0,0,0,0,0,0,0,-1,1357,1709,9.18702,-43.7086
140,-685,9.61011,43.4681,0,0,0,0,0,0,0,-1,1364,1709,9.61016,-43.4681
147,-685,9.46118,43.9375,0,0,0,0,0,0,0,-1,1371,1709,9.46117,-43.9375
154,-685,9.43689,43.988,0,0,0,0,0,0,0,-1,1378,1709,9.43693,-43.988
161,-685,9.74438,43.7274,0,0,0,0,0,0,0,-1,1385,1709,9.74435,-43.7275
168,-685,4.37524,10.8778,0,0,0,0,0,0,0,-1,1392,1709,4.37525,-10.8778
175,-685,3.97522,8.94324,0,0,0,0,0,0,0,-1,1399,1709,3.97519,-8.94328
182,-685,3.98218,9.19739,0,0,0,0,0,0,0,-1,1406,1709,3.98221,-9.1974
189,-685,4.53479,15.2343,0,0,0,0,0,0,0,-1,1413,1709,4.53474,-15.2343
196,-685,9.64185,42.9238,0,0,0,0,0,0,0,-1,1420,1709,9.64189,-42.9238
203,-685,9.68225,42.649,0,0,0,0,0,0,0,-1,1427,1709,9.68225,-42.649
210,-685,9.8689,42.3252,0,0,0,0,0,0,0,-1,1434,1709,9.86885,-42.3252
217,-685,9.7876,42.0104,0,0,0,0,0,0,0,-1,1441,1709,9.78755,-42.0104
224,-685,9.74878,41.8132,0,0,0,0,0,0,0,-1,1448,1709,9.74876,-41.8132
231,-685,9.75708,41.5967,0.00423363,0.000526471,0.000210977,0.0042456,0.000514502,0.0566669,0.00267544,0.0483584,1455,1709,9.75705,-41.5966
238,-685,9.82483,41.2823,0.00395832,0.000840832,0.000163504,0.00396688,0.00083228,0.0522563,0.00241544,0.0219501,1462,1709,9.8248,-41.2823
245,-685,9.82935,41.0204,0.00364865,0.000917156,0.000189201,0.00366169,0.000904113,0.0688283,0.00220251,0.0200661,1469,1709,9.8294,-41.0204
252,-685,9.86597,40.7843,0.00342717,0.00125254,1.03235e-05,0.00342722,0.00125249,0.0047471,0.00200245,0.0142549,1476,1709,9.86598,-40.7843
259,-685,9.89343,40.5054,0.00320886,0.00150387,-0.000205866,0.00323336,0.00147936,-0.118475,0.00186902,0.0106922,1483,1709,9.89341,-40.5054
266,-685,9.89697,40.2134,0.00294143,0.00169313,-0.000343142,0.00302953,0.00160502,-0.251335,0.00175014,0.0123813,1490,1709,9.89691,-40.2133
273,-685,9.90869,39.9103,0.00263522,0.00178935,-0.000373138,0.0027763,0.00164828,-0.361464,0.00161225,0.0139119,1497,1709,9.9087,-39.9102
280,-685,9.9032,39.6157,0.00227753,0.00194424,-0.000410236,0.00255368,0.00166809,-0.592473,0.00149726,0.0155188,1504,1709,9.90317,-39.6157
287,-685,9.89355,39.3199,0.00190533,0.00212496,-0.000431972,0.00246085,0.00156943,-0.90987,0.00143864,0.0119014,1511,1709,9.89356,-39.32
294,-685,9.90979,38.9894,0.00159848,0.00241853,-0.000479153,0.00263915,0.00137787,-1.1393,0.00152421,0.0106497,1518,1709,9.90978,-38.9894
301,-685,9.92163,38.6541,0.00138616,0.00242369,-0.000515426,0.00263621,0.00117364,-1.17971,0.00152506,0.0131094,1525,1709,9.9216,-38.654
308,-685,9.90857,38.3197,0.00122254,0.00244112,-0.000684459,0.00274819,0.000915469,-1.14908,0.00161586,0.0139355,1532,1709,9.90852,-38.3197
315,-685,9.8844,37.9785,0.00115783,0.00223769,-0.000888814,0.00273772,0.0006578,-1.05835,0.00165018,0.0125949,1539,1709,9.88442,-37.9785
322,-685,9.86279,37.6454,0.00111953,0.00204658,-0.00104994,0.00273076,0.000435355,-0.99327,0.00169414,0.0203067,1546,1709,9.86281,-37.6453
329,-685,9.84985,37.3018,0.00105614,0.00156592,-0.00119493,0.00253285,8.92171e-05,-0.890479,0.00165963,0.0192364,1553,1709,9.8498,-37.3018
336,-685,9.83813,36.9041,0.00105156,0.000910266,-0.00133591,0.00231869,-0.000356858,-0.75898,0.00167745,0.0135508,1560,1709,9.83812,-36.9041
343,-685,9.82617,36.5389,0.00105745,-4.65631e-06,-0.00135732,0.00198391,-0.00093111,-0.598926,0.00171919,0.0120758,1567,1709,9.82621,-36.539
350,-685,9.82056,36.1678,0.000687104,-0.00103379,-0.00131843,0.00140102,-0.0017477,-0.496287,0.00182159,0.0124166,1574,1709,9.8205,-36.1679
357,-685,9.80273,35.7908,0.000327256,-0.00231524,-0.00114902,0.000756992,-0.00274498,-0.357895,0.00212768,0.0102546,1581,1709,9.80274,-35.7908
364,-685,9.77026,35.4297,-0.000154841,-0.0035608,-0.000954325,9.43259e-05,-0.00380996,-0.255391,0.00257199,0.010854,1588,1709,9.77021,-35.4297
371,-685,9.74744,35.0555,-0.000938128,-0.00474112,-0.000594643,-0.000847317,-0.00483193,-0.151545,0.00297928,0.0172914,1595,1709,9.7475,-35.0555
378,-685,9.73328,34.6284,-0.00214639,-0.00665181,0.000237263,-0.00213393,-0.00666427,0.0524683,0.00392966,0.0202095,1602,1709,9.73331,-34.6284
385,-685,9.60791,34.2518,-0.0036177,-0.00801779,0.00106845,-0.00337198,-0.00826352,0.22605,0.00479776,0.0337196,1609,1709,9.60791,-34.2519
392,-685,9.552,33.9487,-0.00548991,-0.00977705,0.00214025,-0.00460436,-0.0106626,0.392311,0.0061751,0.0378058,1616,1709,9.552,-33.9487
399,-685,9.61169,33.5924,-0.00771359,-0.0115648,0.00309241,-0.00599627,-0.0132822,0.506929,0.00768049,0.0459847,1623,1709,9.61165,-33.5924
406,-685,9.51685,33.1997,0,0,0,0,0,0,0,-1,1630,1709,9.51686,-33.1998
413,-685,8.40112,31.3749,0,0,0,0,0,0,0,-1,1637,1709,8.40117,-31.3749
420,-685,4.84631,10.3781,0,0,0,0,0,0,0,-1,1644,1709,4.84634,-10.378
427,-685,6.05151,9.21155,0,0,0,0,0,0,0,-1,1651,1709,6.05156,-9.21156
434,-685,4.87769,8.91418,0,0,0,0,0,0,0,-1,1658,1709,4.87768,-8.91413
441,-685,5.62,8.75549,0,0,0,0,0,0,0,-1,1665,1709,5.61996,-8.75545
448,-685,6.4043,8.58972,0,0,0,0,0,0,0,-1,1672,1709,6.40435,-8.58971
455,-685,2.31958,4.09802,0,0,0,0,0,0,0,-1,1679,1709,2.31957,-4.09803
462,-685,0,0,0,0,0,0,0,0,0,-1,1686,1709,0,0
469,-685,0,0,0,0,0,0,0,0,0,-1,1693,1709,0,0
476,-685,0,0,0,0,0,0,0,0,0,-1,1700,1709,0,0
483,-685,0,0,0,0,0,0,0,0,0,-1,1707,1709,0,0
490,-685,0,0,0,0,0,0,0,0,0,-1,1714,1709,0,0
497,-685,0,0,0,0,0,0,0,0,0,-1,1721,1709,0,0
504,-685,0,0,0,0,0,0,0,0,0,-1,1728,1709,0,0
511,-685,0,0,0,0,0,0,0,0,0,-1,1735,1709,0,0
518,-685,0,0,0,0,0,0,0,0,0,-1,1742,1709,0,0
525,-685,0,0,0,0,0,0,0,0,0,-1,1749,1709,0,0
532,-685,0,0,0,0,0,0,0,0,0,-1,1756,1709,0,0
539,-685,0,0,0,0,0,0,0,0,0,-1,1763,1709,0,0
546,-685,0,0,0,0,0,0,0,0,0,-1,1770,1709,0,0
553,-685,0,0,0,0,0,0,0,0,0,-1,1777,1709,0,0
560,-685,0,0,0,0,0,0,0,0,0,-1,1784,1709,0,0
567,-685,0,0,0,0,0,0,0,0,0,-1,1791,1709,0,0
574,-685,0,0,0,0,0,0,0,0,0,-1,1798,1709,0,0
581,-685,0,0,0,0,0,0,0,0,0,-1,1805,1709,0,0
588,-685,0,0,0,0,0,0,0,0,0,-1,1812,1709,0,0
595,-685,0,0,0,0,0,0,0,0,0,-1,1819,1709,0,0
602,-685,0,0,0,0,0,0,0,0,0,-1,1826,1709,0,0
609,-685,0,0,0,0,0,0,0,0,0,-1,1833,1709,0,0
616,-685,0,0,0,0,0,0,0,0,0,-1,1840,1709,0,0
623,-685,0,0,0,0,0,0,0,0,0,-1,1847,1709,0,0
630,-685,0,0,0,0,0,0,0,0,0,-1,1854,1709,0,0
637,-685,0,0,0,0,0,0,0,0,0,-1,1861,1709,0,0
644,-685,0,0,0,0,0,0,0,0,0,-1,1868,1709,0,0
651,-685,0,0,0,0,0,0,0,0,0,-1,1875,1709,0,0
658,-685,0,0,0,0,0,0,0,0,0,-1,1882,1709,0,0
665,-685,0,0,0,0,0,0,0,0,0,-1,1889,1709,0,0
672,-685,0,0,0,0,0,0,0,0,0,-1,1896,1709,0,0
679,-685,0,0,0,0,0,0,0,0,0,-1,1903,1709,0,0
686,-685,0,0,0,0,0,0,0,0,0,-1,1910,1709,0,0
693,-685,0,0,0,0,0,0,0,0,0,-1,1917,1709,0,0
700,-685,0,0,0,0,0,0,0,0,0,-1,1924,1709,0,0
707,-685,0,0,0,0,0,0,0,0,0,-1,1931,1709,0,0
714,-685,0,0,0,0,0,0,0,0,0,-1,1938,1709,0,0
721,-685,0,0,0,0,0,0,0,0,0,-1,1945,1709,0,0
728,-685,0,0,0,0,0,0,0,0,0,-1,1952,1709,0,0
735,-685,0,0,0,0,0,0,0,0,0,-1,1959,1709,0,0
742,-685,0,0,0,0,0,0,0,0,0,-1,1966,1709,0,0
749,-685,0,0,0,0,0,0,0,0,0,-1,1973,1709,0,0
756,-685,0,0,0,0,0,0,0,0,0,-1,1980,1709,0,0
763,-685,0,0,0,0,0,0,0,0,0,-1,1987,1709,0,0
770,-685,0,0,0,0,0,0,0,0,0,-1,1994,1709,0,0
777,-685,0,0,0,0,0,0,0,0,0,-1,2001,1709,0,0
784,-685,0,0,0,0,0,0,0,0,0,-1,2008,1709,0,0
791,-685,0,0,0,0,0,0,0,0,0,-1,2015,1709,0,0
798,-685,0,0,0,0,0,0,0,0,0,-1,2022,1709,0,0
805,-685,0,0,0,0,0,0,0,0,0,-1,2029,1709,0,0
812,-685,0,0,0,0,0,0,0,0,0,-1,2036,1709,0,0
-700,-692,0,0,0,0,0,0,0,0,0,-1,524,1716,0,0
-693,-692,0,0,0,0,0,0,0,0,0,-1,531,1716,0,0
-686,-692,0,0,0,0,0,0,0,0,0,-1,538,1716,0,0
-679,-692,0,0,0,0,0,0,0,0,0,-1,545,1716,0,0
-672,-692,0,0,0,0,0,0,0,0,0,-1,552,1716,0,0
-665,-692,0,0,0,0,0,0,0,0,0,-1,559,1716,0,0
-658,-692,0,0,0,0,0,0,0,0,0,-1,566,1716,0,0
-651,-692,0,0,0,0,0,0,0,0,0,-1,573,1716,0,0
-644,-692,0,0,0,0,0,0,0,0,0,-1,580,1716,0,0
-637,-692,0,0,0,0,0,0,0,0,0,-1,587,1716,0,0
-630,-692,0,0,0,0,0,0,0,0,0,-1,594,1716,0,0
-623,-692,0,0,0,0,0,0,0,0,0,-1,601,1716,0,0
-616,-692,0,0,0,0,0,0,0,0,0,-1,608,1716,0,0
-609,-692,0,0,0,0,0,0,0,0,0,-1,615,1716,0,0
-602,-692,0,0,0,0,0,0,0,0,0,-1,622,1716,0,0
-595,-692,0,0,0,0,0,0,0,0,0,-1,629,1716,0,0
-588,-692,0,0,0,0,0,0,0,0,0,-1,636,1716,0,0
-581,-692,0,0,0,0,0,0,0,0,0,-1,643,1716,0,0
-574,-692,0,0,0,0,0,0,0,0,0,-1,650,1716,0,0
-567,-692,0,0,0,0,0,0,0,0,0,-1,657,1716,0,0
-560,-692,0,0,0,0,0,0,0,0,0,-1,664,1716,0,0
-553,-692,0,0,0,0,0,0,0,0,0,-1,671,1716,0,0
-546,-692,0,0,0,0,0,0,0,0,0,-1,678,1716,0,0
-539,-692,0,0,0,0,0,0,0,0,0,-1,685,1716,0,0
-532,-692,0,0,0,0,0,0,0,0,0,-1,692,1716,0,0
-525,-692,0,0,0,0,0,0,0,0,0,-1,699,1716,0,0
-518,-692,0,0,0,0,0,0,0,0,0,-1,706,1716,0,0
-511,-692,0,0,0,0,0,0,0,0,0,-1,713,1716,0,0
-504,-692,0,0,0,0,0,0,0,0,0,-1,720,1716,0,0
-497,-692,0,0,0,0,0,0,0,0,0,-1,727,1716,0,0
-490,-692,0,0,0,0,0,0,0,0,0,-1,734,1716,0,0
-483,-692,0,0,0,0,0,0,0,0,0,-1,741,1716,0,0
-476,-692,0,0,0,0,0,0,0,0,0,-1,748,1716,0,0
-469,-692,0,0,0,0,0,0,0,0,0,-1,755,1716,0,0
-462,-692,0,0,0,0,0,0,0,0,0,-1,762,1716,0,0
-455,-692,0,0,0,0,0,0,0,0,0,-1,769,1716,0,0
-448,-692,0,0,0,0,0,0,0,0,0,-1,776,1716,0,0
-441,-692,0,0,0,0,0,0,0,0,0,-1,783,1716,0,0
-434,-692,0,0,0,0,0,0,0,0,0,-1,790,1716,0,0
-427,-692,0,0,0,0,0,0,0,0,0,-1,797,1716,0,0
-420,-692,0,0,0,0,0,0,0,0,0,-1,804,1716,0,0
-413,-692,0,0,0,0,0,0,0,0,0,-1,811,1716,0,0
-406,-692,0,0,0,0,0,0,0,0,0,-1,818,1716,0,0
-399,-692,0,0,0,0,0,0,0,0,0,-1,825,1716,0,0
-392,-692,0,0,0,0,0,0,0,0,0,-1,832,1716,0,0
-385,-692,0,0,0,0,0,0,0,0,0,-1,839,1716,0,0
-378,-692,0,0,0,0,0,0,0,0,0,-1,846,1716,0,0
-371,-692,0,0,0,0,0,0,0,0,0,-1,853,1716,0,0
-364,-692,0,0,0,0,0,0,0,0,0,-1,860,1716,0,0
-357,-692,0,0,0,0,0,0,0,0,0,-1,867,1716,0,0
-350,-692,0,0,0,0,0,0,0,0,0,-1,874,1716,0,0
-343,-692,0,0,0,0,0,0,0,0,0,-1,881,1716,0,0
-336,-692,0,0,0,0,0,0,0,0,0,-1,888,1716,0,0
-329,-692,3.03107,4.10266,0,0,0,0,0,0,0,-1,895,1716,3.03105,-4.10267
-322,-692,4.43713,18.5242,0,0,0,0,0,0,0,-1,902,1716,4.43711,-18.5241
-315,-692,5.38965,17.975,0,0,0,0,0,0,0,-1,909,1716,5.38963,-17.975
-308,-692,5.86938,17.4392,0,0,0,0,0,0,0,-1,916,1716,5.86937,-17.4392
-301,-692,8.65558,20.7662,0,0,0,0,0,0,0,-1,923,1716,8.65556,-20.7663
-294,-692,7.04529,27.412,0,0,0,0,0,0,0,-1,930,1716,7.04529,-27.412
-287,-692,7.63824,32.4249,0,0,0,0,0,0,0,-1,937,1716,7.63826,-32.425
-280,-692,8.32324,32.3727,0,0,0,0,0,0,0,-1,944,1716,8.32323,-32.3726
-273,-692,8.92554,30.3801,0,0,0,0,0,0,0,-1,951,1716,8.92552,-30.3801
-266,-692,7.02252,32.8141,0,0,0,0,0,0,0,-1,958,1716,7.02254,-32.8141
-259,-692,7.37476,33.2949,0,0,0,0,0,0,0,-1,965,1716,7.37478,-33.2949
-252,-692,7.64301,33.576,0,0,0,0,0,0,0,-1,972,1716,7.64302,-33.5761
-245,-692,7.79694,34.1442,-0.000687141,0.000206061,0.0027266,0.00252239,-0.00300347,0.866575,0.00319438,0.0454151,979,1716,7.79694,-34.1441
-238,-692,7.90137,34.8552,-0.00116037,-0.00151405,0.00235321,0.00102264,-0.00369705,0.747895,0.00286703,0.0415317,986,1716,7.90139,-34.8552
-231,-692,7.70673,35.3296,-0.00125598,-0.00291091,0.00239376,0.000449299,-0.00461619,0.618989,0.00323763,0.037671,993,1716,7.70674,-35.3295
-224,-692,7.52405,35.6344,-0.00100957,-0.0041859,0.00255303,0.000408968,-0.00560443,0.507154,0.0038798,0.0189647,1000,1716,7.52405,-35.6344
-217,-692,7.48944,36.0004,-0.000722291,-0.00514124,0.00256657,0.000454833,-0.00631836,0.430014,0.00437175,0.0124622,1007,1716,7.48945,-36.0004
-210,-692,7.49152,36.3987,-0.000745341,-0.00597279,0.00246374,0.000232809,-0.00695094,0.377934,0.00471348,0.0133874,1014,1716,7.49151,-36.3987
-203,-692,7.48596,36.7797,-0.000583466,-0.00655356,0.00263382,0.000412378,-0.0075494,0.361485,0.00517587,0.0161678,1021,1716,7.486,-36.7797
-196,-692,7.45361,37.2028,-0.000246664,-0.00688411,0.002719,0.000724937,-0.00785571,0.343197,0.00549475,0.0176375,1028,1716,7.45358,-37.2028
-189,-692,7.41504,37.4996,7.50545e-05,-0.00687669,0.0026791,0.000987718,-0.00778936,0.328331,0.00555151,0.00866273,1035,1716,7.41504,-37.4996
-182,-692,7.39136,37.8688,0.000349804,-0.00633133,0.00259839,0.00124138,-0.0072229,0.330538,0.00527795,0.0129919,1042,1716,7.39136,-37.8687
-175,-692,7.36719,38.2341,0.000645747,-0.00545073,0.00256091,0.00157872,-0.0063837,0.349368,0.00486813,0.0148794,1049,1716,7.36716,-38.2341
-168,-692,7.37793,38.5811,0.000753385,-0.00432124,0.00246512,0.00175369,-0.00532155,0.385484,0.0042545,0.0117921,1056,1716,7.37799,-38.581
-161,-692,7.37939,38.9591,0.000661045,-0.00309593,0.00224565,0.00171029,-0.00414518,0.437096,0.00347672,0.0137778,1063,1716,7.37944,-38.9591
-154,-692,7.35962,39.3202,0.000674101,-0.0017526,0.0020481,0.00184128,-0.00291978,0.517982,0.00277221,0.0141413,1070,1716,7.35962,-39.3202
-147,-692,7.35608,39.6185,0.000828687,-0.000439928,0.00186808,0.00216721,-0.00177845,0.62173,0.00228171,0.0144506,1077,1716,7.3561,-39.6185
-140,-692,7.35486,39.9072,0.00103648,0.000647884,0.00165485,0.0025084,-0.000824035,0.72696,0.00200423,0.0112542,1084,1716,7.35488,-39.9072
-133,-692,7.35571,40.2107,0.00132091,0.00155308,0.00148567,0.0029272,-5.31989e-05,0.824387,0.00196944,0.00979508,1091,1716,7.35568,-40.2108
-126,-692,7.36047,40.5083,0.00175311,0.00201127,0.00135056,0.0032389,0.000525478,0.83304,0.00200717,0.00748557,1098,1716,7.36047,-40.5083
-119,-692,7.34045,40.8083,0.00222923,0.00199693,0.00119651,0.00331521,0.000910946,0.737013,0.00197771,0.0107244,1105,1716,7.34045,-40.8084
-112,-692,7.35876,41.0696,0.00271373,0.001804,0.000959588,0.0033208,0.00119692,0.564072,0.001942,0.0112974,1112,1716,7.35881,-41.0696
-105,-692,7.36938,41.3278,0.00321648,0.00142265,0.000638844,0.00342074,0.00121839,0.309455,0.00200201,0.0154003,1119,1716,7.36937,-41.3277
-98,-692,7.43677,41.5797,0.00382329,0.00106037,0.000403069,0.00388089,0.00100277,0.141945,0.0023262,0.0166396,1126,1716,7.43676,-41.5797
-91,-692,7.43164,41.8213,0.0042444,0.000662133,0.000102876,0.00424735,0.000659181,0.0286865,0.00263942,0.0196184,1133,1716,7.43169,-41.8212
-84,-692,7.43591,42.0251,0.00457513,0.00037222,-0.000222696,0.0045869,0.000360453,-0.0527891,0.00294514,0.0237048,1140,1716,7.43587,-42.0251
-77,-692,7.46045,42.3191,0.00471837,-0.000346313,-0.000669659,0.00480541,-0.00043336,-0.129263,0.0033574,0.0193562,1147,1716,7.4604,-42.3191
-70,-692,7.521,42.5408,0.00474707,-0.000487541,-0.00116325,0.00499393,-0.000734399,-0.209112,0.00359915,0.0343773,1154,1716,7.521,-42.5408
-63,-692,7.55444,42.792,0,0,0,0,0,0,0,-1,1161,1716,7.55442,-42.792
-56,-692,7.51331,42.938,0,0,0,0,0,0,0,-1,1168,1716,7.51327,-42.938
-49,-692,7.54639,43.1722,0,0,0,0,0,0,0,-1,1175,1716,7.5464,-43.1722
-42,-692,7.67871,43.4535,0,0,0,0,0,0,0,-1,1182,1716,7.67871,-43.4535
-35,-692,7.77966,43.6306,0,0,0,0,0,0,0,-1,1189,1716,7.77971,-43.6306
-28,-692,7.83765,43.7144,0,0,0,0,0,0,0,-1,1196,1716,7.83765,-43.7143
-21,-692,7.82922,43.7083,0.026521,0.00200446,0.00968433,0.0298849,-0.00135941,0.334314,0.0203915,0.0337128,1203,1716,7.82922,-43.7082
-14,-692,7.84033,43.8115,0.0275774,0.00450738,0.0122963,0.0329022,-0.000817474,0.408666,0.0222123,0.0164297,1210,1716,7.84031,-43.8115
-7,-692,7.85889,43.9854,0.02798,0.00793191,0.0147809,0.0358153,9.65558e-05,0.487435,0.0238448,0.0163576,1217,1716,7.85883,-43.9853
0,-692,7.89917,44.1067,0.028107,0.0114521,0.0169862,0.0386972,0.000861896,0.557491,0.0255157,0.0205608,1224,1716,7.89917,-44.1067
7,-692,7.98132,44.173,0.0276117,0.0147961,0.0182828,0.0405771,0.00183073,0.616846,0.0264623,0.025385,1231,1716,7.98131,-44.1729
14,-692,8.14502,44.4189,0.0266937,0.0184637,0.0191416,0.0421577,0.00299981,0.679521,0.0271604,0.0283872,1238,1716,8.14501,-44.419
21,-692,8.26245,44.5005,0.0252746,0.0219999,0.0193413,0.0430477,0.00422676,0.74317,0.0273985,0.0272202,1245,1716,8.26248,-44.5005
28,-692,8.29797,44.4712,0.0232886,0.0249168,0.0183261,0.0424468,0.00575853,0.807595,0.0265871,0.0278284,1252,1716,8.29796,-44.4712
35,-692,8.34668,44.5637,0.0208676,0.0271762,0.0166012,0.0409201,0.00712364,0.879281,0.0252428,0.0293019,1259,1716,8.34665,-44.5637
42,-692,8.38574,44.7184,0.0183663,0.029747,0.0143868,0.039528,0.00858535,0.97372,0.0240075,0.027795,1266,1716,8.38572,-44.7184
49,-692,8.43225,44.7891,0.0167508,0.0344013,0.0126549,0.0410043,0.0101478,1.08988,0.0246597,0.0336948,1273,1716,8.4322,-44.7891
56,-692,8.43799,44.6873,0.0159257,0.0392294,0.0114268,0.0438974,0.0112578,1.18297,0.0263273,0.042558,1280,1716,8.43799,-44.6873
63,-692,8.45093,44.6704,0.0148563,0.0446596,0.00981724,0.0476028,0.0119132,1.27953,0.0286034,0.0417734,1287,1716,8.45095,-44.6704
70,-692,8.55322,44.7699,0.0136081,0.0513271,0.00764803,0.0528189,0.0121163,1.37817,0.031949,0.0356104,1294,1716,8.5532,-44.7699
77,-692,8.7074,44.7706,0.0129956,0.0567179,0.00614487,0.0575651,0.0121484,1.43379,0.0350365,0.0399568,1301,1716,8.70738,-44.7707
84,-692,8.74316,44.5149,0.0126179,0.0616467,0.0041985,0.0620037,0.0122609,1.48599,0.0379155,0.0489725,1308,1716,8.74322,-44.5149
91,-692,8.75659,44.4348,0.0138082,0.0679489,0.00348677,0.0681725,0.0135846,1.50675,0.041665,0.0455167,1315,1716,8.75661,-44.4348
98,-692,8.86304,44.4388,0.0150337,0.0742303,0.0033569,0.07442,0.0148439,1.51433,0.0454801,0.0354099,1322,1716,8.86304,-44.4389
105,-692,8.8783,44.3961,0.0159198,0.080157,0.00350694,0.0803479,0.0157289,1.51642,0.0491682,0.0405835,1329,1716,8.87824,-44.3961
112,-692,8.88696,44.311,0.0167895,0.0848178,0.00366911,0.0850151,0.0165922,1.51707,0.0520354,0.0425899,1336,1716,8.88694,-44.311
119,-692,8.85449,44.1915,0.0172804,0.0875619,0.00282172,0.087675,0.0171673,1.53073,0.0536511,0.0353135,1343,1716,8.85451,-44.1916
126,-692,8.95862,44.0474,0.0175285,0.0886657,0.001218,0.0886866,0.0175077,1.55368,0.0542387,0.0339663,1350,1716,8.95856,-44.0474
133,-692,9.12085,43.9685,0.017717,0.08816,-0.000311083,0.0881614,0.0177157,-1.56638,0.0538493,0.0262309,1357,1716,9.12082,-43.9685
140,-692,9.12231,43.9519,0.0179142,0.0857086,-0.00179104,0.0857558,0.0178669,-1.5444,0.0522434,0.030118,1364,1716,9.12235,-43.9519
147,-692,9.21838,43.89,0.0170314,0.0810843,-0.003283,0.0812522,0.0168635,-1.51972,0.0495136,0.036907,1371,1716,9.2184,-43.89
154,-692,9.20923,43.8146,0.0143854,0.0690382,-0.00656173,0.069815,0.0136086,-1.45297,0.0427356,0.0322928,1378,1716,9.20927,-43.8146
161,-692,9.41846,43.6494,0.0113482,0.0566167,-0.00991935,0.0586949,0.00927008,-1.36428,0.0364351,0.0416597,1385,1716,9.41844,-43.6494
168,-692,9.6156,43.5304,0,0,0,0,0,0,0,-1,1392,1716,9.61562,-43.5303
175,-692,9.37952,43.2704,0,0,0,0,0,0,0,-1,1399,1716,9.3795,-43.2704
182,-692,9.37976,43.0392,0,0,0,0,0,0,0,-1,1406,1716,9.37976,-43.0392
189,-692,9.42004,42.8834,0,0,0,0,0,0,0,-1,1413,1716,9.4201,-42.8834
196,-692,9.43921,42.7125,0.00663064,0.00715079,0.00113922,0.00805924,0.00572219,0.897621,0.00478787,0.0372444,1420,1716,9.43924,-42.7125
203,-692,9.46924,42.5168,0.00474143,0.000719342,0.0015053,0.0052424,0.000218369,0.321276,0.00342447,0.024923,1427,1716,9.46924,-42.5169
210,-692,9.55359,42.3011,0.00399426,0.000231129,0.00132713,0.0044152,-0.000189818,0.307148,0.00300874,0.0207147,1434,1716,9.5536,-42.3011
217,-692,9.54358,42.0575,0.00324859,-0.000119217,0.000903873,0.00347585,-0.000346469,0.246315,0.00244093,0.0174933,1441,1716,9.5436,-42.0575
224,-692,9.53235,41.835,0.00308044,9.77293e-05,0.000475939,0.00315454,2.36267e-05,0.154458,0.00209519,0.0129919,1448,1716,9.53239,-41.8349
231,-692,9.521,41.5717,0.00294905,0.000281238,0.000133595,0.00295572,0.000274564,0.0499101,0.00188563,0.0110657,1455,1716,9.52103,-41.5717
238,-692,9.5321,41.2782,0.00276792,0.000575985,-3.74302e-05,0.00276856,0.000575346,-0.0170697,0.00168695,0.0165053,1462,1716,9.53216,-41.2782
245,-692,9.53809,41.032,0.00259303,0.00075214,-0.000177142,0.00260992,0.00073525,-0.0950636,0.00155397,0.0199136,1469,1716,9.5381,-41.032
252,-692,9.57605,40.8011,0.00244194,0.00105885,-0.000403692,0.00255115,0.000949645,-0.264193,0.00148885,0.0172499,1476,1716,9.576,-40.8011
259,-692,9.58716,40.5049,0.00227268,0.0012884,-0.00061685,0.00256966,0.000991422,-0.448689,0.00149643,0.00981912,1483,1716,9.58714,-40.5049
266,-692,9.57263,40.2205,0.00205949,0.0014219,-0.000756666,0.00256178,0.000919614,-0.586025,0.00149852,0.0103046,1490,1716,9.57259,-40.2204
273,-692,9.58569,39.9199,0.00181711,0.00160238,-0.000851209,0.0025677,0.000851792,-0.722663,0.00151019,0.0141598,1497,1716,9.58574,-39.92
280,-692,9.59705,39.6161,0.00151924,0.00173658,-0.000912008,0.00254637,0.000709452,-0.844696,0.00151742,0.0142806,1504,1716,9.5971,-39.6161
287,-692,9.57605,39.311,0.00121364,0.00198486,-0.000954407,0.00262862,0.00056989,-0.977387,0.00159672,0.0114893,1511,1716,9.57604,-39.311
294,-692,9.57703,38.9968,0.000973797,0.00237098,-0.000960312,0.00285992,0.000484858,-1.09986,0.00176731,0.0110881,1518,1716,9.57698,-38.9968
301,-692,9.59644,38.6899,0.000855292,0.00237695,-0.000925916,0.00281453,0.000417713,-1.12932,0.00175377,0.014083,1525,1716,9.59649,-38.6899
308,-692,9.5675,38.3665,0.000773461,0.00238637,-0.00105571,0.00290841,0.000251423,-1.11157,0.0018608,0.0164612,1532,1716,9.56745,-38.3665
315,-692,9.56201,38.0126,0.00081325,0.00222839,-0.00125227,0.00295916,8.24771e-05,-1.04255,0.00194587,0.0152729,1539,1716,9.56196,-38.0126
322,-692,9.51477,37.6368,0.000900241,0.00213701,-0.00141751,0.00306515,-2.78995e-05,-0.991077,0.0020528,0.0204908,1546,1716,9.51474,-37.6368
329,-692,9.48267,37.2854,0.000967025,0.00173306,-0.00157006,0.00296614,-0.000266061,-0.905036,0.00207182,0.0182038,1553,1716,9.48263,-37.2855
336,-692,9.49597,36.9169,0.00111279,0.00106256,-0.00172561,0.00281347,-0.000638116,-0.778121,0.0021206,0.0128375,1560,1716,9.49596,-36.9169
343,-692,9.48401,36.5782,0.00125323,5.53654e-05,-0.00172643,0.00248167,-0.00117307,-0.618434,0.00215468,0.0137738,1567,1716,9.48406,-36.5782
350,-692,9.47327,36.2361,0.00089958,-0.00114314,-0.00165263,0.00182099,-0.00206455,-0.508616,0.00224479,0.0176615,1574,1716,9.47328,-36.2361
357,-692,9.43457,35.7734,0.000596731,-0.00264765,-0.00148488,0.00117372,-0.00322464,-0.370617,0.0026298,0.0248537,1581,1716,9.43452,-35.7734
364,-692,9.39246,35.3335,0.000113375,-0.00415329,-0.00131855,0.000487967,-0.00452788,-0.276801,0.00319369,0.0295815,1588,1716,9.3925,-35.3335
371,-692,9.43164,35.0551,-0.000800024,-0.00560177,-0.000915867,-0.000631267,-0.00577053,-0.182216,0.00365482,0.0359521,1595,1716,9.43165,-35.0551
378,-692,9.46216,34.8192,-0.0023353,-0.00813249,0.00015877,-0.00233096,-0.00813684,0.02736,0.0048385,0.0438606,1602,1716,9.46217,-34.8193
385,-692,9.12097,34.3215,0,0,0,0,0,0,0,-1,1609,1716,9.12098,-34.3215
392,-692,8.94556,33.9663,0,0,0,0,0,0,0,-1,1616,1716,8.94561,-33.9664
399,-692,9.22107,33.6049,-0.00953129,-0.014723,0.00363358,-0.00766157,-0.0165927,0.475233,0.00958916,0.0497012,1623,1716,9.22101,-33.6048
406,-692,8.83264,33.1635,0,0,0,0,0,0,0,-1,1630,1716,8.83258,-33.1634
413,-692,8.40808,32.6432,0,0,0,0,0,0,0,-1,1637,1716,8.40802,-32.6432
420,-692,5.48901,10.4845,0,0,0,0,0,0,0,-1,1644,1716,5.48906,-10.4845
427,-692,3.79578,8.60339,0,0,0,0,0,0,0,-1,1651,1716,3.79577,-8.6034
434,-692,4.78516,8.64636,0,0,0,0,0,0,0,-1,1658,1716,4.78512,-8.64634
441,-692,5.8208,8.74036,0,0,0,0,0,0,0,-1,1665,1716,5.82084,-8.7404
448,-692,6.73792,8.51013,0,0,0,0,0,0,0,-1,1672,1716,6.73793,-8.5101
455,-692,0,0,0,0,0,0,0,0,0,-1,1679,1716,0,0
462,-692,0,0,0,0,0,0,0,0,0,-1,1686,1716,0,0
469,-692,0,0,0,0,0,0,0,0,0,-1,1693,1716,0,0
476,-692,0,0,0,0,0,0,0,0,0,-1,1700,1716,0,0
483,-692,0,0,0,0,0,0,0,0,0,-1,1707,1716,0,0
490,-692,0,0,0,0,0,0,0,0,0,-1,1714,1716,0,0
497,-692,0,0,0,0,0,0,0,0,0,-1,1721,1716,0,0
504,-692,0,0,0,0,0,0,0,0,0,-1,1728,1716,0,0
511,-692,0,0,0,0,0,0,0,0,0,-1,1735,1716,0,0
518,-692,0,0,0,0,0,0,0,0,0,-1,1742,1716,0,0
525,-692,0,0,0,0,0,0,0,0,0,-1,1749,1716,0,0
532,-692,0,0,0,0,0,0,0,0,0,-1,1756,1716,0,0
539,-692,0,0,0,0,0,0,0,0,0,-1,1763,1716,0,0
546,-692,0,0,0,0,0,0,0,0,0,-1,1770,1716,0,0
553,-692,0,0,0,0,0,0,0,0,0,-1,1777,1716,0,0
560,-692,0,0,0,0,0,0,0,0,0,-1,1784,1716,0,0
567,-692,0,0,0,0,0,0,0,0,0,-1,1791,1716,0,0
574,-692,0,0,0,0,0,0,0,0,0,-1,1798,1716,0,0
581,-692,0,0,0,0,0,0,0,0,0,-1,1805,1716,0,0
588,-692,0,0,0,0,0,0,0,0,0,-1,1812,1716,0,0
595,-692,0,0,0,0,0,0,0,0,0,-1,1819,1716,0,0
602,-692,0,0,0,0,0,0,0,0,0,-1,1826,1716,0,0
609,-692,0,0,0,0,0,0,0,0,0,-1,1833,1716,0,0
616,-692,0,0,0,0,0,0,0,0,0,-1,1840,1716,0,0
623,-692,0,0,0,0,0,0,0,0,0,-1,1847,1716,0,0
630,-692,0,0,0,0,0,0,0,0,0,-1,1854,1716,0,0
637,-692,0,0,0,0,0,0,0,0,0,-1,1861,1716,0,0
644,-692,0,0,0,0,0,0,0,0,0,-1,1868,1716,0,0
651,-692,0,0,0,0,0,0,0,0,0,-1,1875,1716,0,0
658,-692,0,0,0,0,0,0,0,0,0,-1,1882,1716,0,0
665,-692,0,0,0,0,0,0,0,0,0,-1,1889,1716,0,0
672,-692,0,0,0,0,0,0,0,0,0,-1,1896,1716,0,0
679,-692,0,0,0,0,0,0,0,0,0,-1,1903,1716,0,0
686,-692,0,0,0,0,0,0,0,0,0,-1,1910,1716,0,0
693,-692,0,0,0,0,0,0,0,0,0,-1,1917,1716,0,0
700,-692,0,0,0,0,0,0,0,0,0,-1,1924,1716,0,0
707,-692,0,0,0,0,0,0,0,0,0,-1,1931,1716,0,0
714,-692,0,0,0,0,0,0,0,0,0,-1,1938,1716,0,0
721,-692,0,0,0,0,0,0,0,0,0,-1,1945,1716,0,0
728,-692,0,0,0,0,0,0,0,0,0,-1,1952,1716,0,0
735,-692,0,0,0,0,0,0,0,0,0,-1,1959,1716,0,0
742,-692,0,0,0,0,0,0,0,0,0,-1,1966,1716,0,0
749,-692,0,0,0,0,0,0,0,0,0,-1,1973,1716,0,0
756,-692,0,0,0,0,0,0,0,0,0,-1,1980,1716,0,0
763,-692,0,0,0,0,0,0,0,0,0,-1,1987,1716,0,0
770,-692,0,0,0,0,0,0,0,0,0,-1,1994,1716,0,0
777,-692,0,0,0,0,0,0,0,0,0,-1,2001,1716,0,0
784,-692,0,0,0,0,0,0,0,0,0,-1,2008,1716,0,0
791,-692,0,0,0,0,0,0,0,0,0,-1,2015,1716,0,0
798,-692,0,0,0,0,0,0,0,0,0,-1,2022,1716,0,0
805,-692,0,0,0,0,0,0,0,0,0,-1,2029,1716,0,0
812,-692,0,0,0,0,0,0,0,0,0,-1,2036,1716,0,0
-700,-699,0,0,0,0,0,0,0,0,0,-1,524,1723,0,0
-693,-699,0,0,0,0,0,0,0,0,0,-1,531,1723,0,0
-686,-699,0,0,0,0,0,0,0,0,0,-1,538,1723,0,0
-679,-699,0,0,0,0,0,0,0,0,0,-1,545,1723,0,0
-672,-699,0,0,0,0,0,0,0,0,0,-1,552,1723,0,0
-665,-699,0,0,0,0,0,0,0,0,0,-1,559,1723,0,0
-658,-699,0,0,0,0,0,0,0,0,0,-1,566,1723,0,0
-651,-699,0,0,0,0,0,0,0,0,0,-1,573,1723,0,0
-644,-699,0,0,0,0,0,0,0,0,0,-1,580,1723,0,0
-637,-699,0,0,0,0,0,0,0,0,0,-1,587,1723,0,0
-630,-699,0,0,0,0,0,0,0,0,0,-1,594,1723,0,0
-623,-699,0,0,0,0,0,0,0,0,0,-1,601,1723,0,0
-616,-699,0,0,0,0,0,0,0,0,0,-1,608,1723,0,0
-609,-699,0,0,0,0,0,0,0,0,0,-1,615,1723,0,0
-602,-699,0,0,0,0,0,0,0,0,0,-1,622,1723,0,0
-595,-699,0,0,0,0,0,0,0,0,0,-1,629,1723,0,0
-588,-699,0,0,0,0,0,0,0,0,0,-1,636,1723,0,0
-581,-699,0,0,0,0,0,0,0,0,0,-1,643,1723,0,0
-574,-699,0,0,0,0,0,0,0,0,0,-1,650,1723,0,0
-567,-699,0,0,0,0,0,0,0,0,0,-1,657,1723,0,0
-560,-699,0,0,0,0,0,0,0,0,0,-1,664,1723,0,0
-553,-699,0,0,0,0,0,0,0,0,0,-1,671,1723,0,0
-546,-699,0,0,0,0,0,0,0,0,0,-1,678,1723,0,0
-539,-699,0,0,0,0,0,0,0,0,0,-1,685,1723,0,0
-532,-699,0,0,0,0,0,0,0,0,0,-1,692,1723,0,0
-525,-699,0,0,0,0,0,0,0,0,0,-1,699,1723,0,0
-518,-699,0,0,0,0,0,0,0,0,0,-1,706,1723,0,0
-511,-699,0,0,0,0,0,0,0,0,0,-1,713,1723,0,0
-504,-699,0,0,0,0,0,0,0,0,0,-1,720,1723,0,0
-497,-699,0,0,0,0,0,0,0,0,0,-1,727,1723,0,0
-490,-699,0,0,0,0,0,0,0,0,0,-1,734,1723,0,0
-483,-699,0,0,0,0,0,0,0,0,0,-1,741,1723,0,0
-476,-699,0,0,0,0,0,0,0,0,0,-1,748,1723,0,0
-469,-699,0,0,0,0,0,0,0,0,0,-1,755,1723,0,0
-462,-699,0,0,0,0,0,0,0,0,0,-1,762,1723,0,0
-455,-699,0,0,0,0,0,0,0,0,0,-1,769,1723,0,0
-448,-699,0,0,0,0,0,0,0,0,0,-1,776,1723,0,0
-441,-699,0,0,0,0,0,0,0,0,0,-1,783,1723,0,0
-434,-699,0,0,0,0,0,0,0,0,0,-1,790,1723,0,0
-427,-699,0,0,0,0,0,0,0,0,0,-1,797,1723,0,0
-420,-699,0,0,0,0,0,0,0,0,0,-1,804,1723,0,0
-413,-699,0,0,0,0,0,0,0,0,0,-1,811,1723,0,0
-406,-699,0,0,0,0,0,0,0,0,0,-1,818,1723,0,0
-399,-699,0,0,0,0,0,0,0,0,0,-1,825,1723,0,0
-392,-699,0,0,0,0,0,0,0,0,0,-1,832,1723,0,0
-385,-699,0,0,0,0,0,0,0,0,0,-1,839,1723,0,0
-378,-699,0,0,0,0,0,0,0,0,0,-1,846,1723,0,0
-371,-699,0,0,0,0,0,0,0,0,0,-1,853,1723,0,0
-364,-699,0,0,0,0,0,0,0,0,0,-1,860,1723,0,0
-357,-699,0,0,0,0,0,0,0,0,0,-1,867,1723,0,0
-350,-699,0,0,0,0,0,0,0,0,0,-1,874,1723,0,0
-343,-699,0,0,0,0,0,0,0,0,0,-1,881,1723,0,0
-336,-699,0,0,0,0,0,0,0,0,0,-1,888,1723,0,0
-329,-699,0,0,0,0,0,0,0,0,0,-1,895,1723,0,0
-322,-699,0,0,0,0,0,0,0,0,0,-1,902,1723,0,0
-315,-699,6.20001,19.5193,0,0,0,0,0,0,0,-1,909,1723,6.20001,-19.5193
-308,-699,6.98151,18.9218,0,0,0,0,0,0,0,-1,916,1723,6.98151,-18.9217
-301,-699,4.72729,12.8752,0,0,0,0,0,0,0,-1,923,1723,4.72732,-12.8752
-294,-699,6.90332,19.8601,0,0,0,0,0,0,0,-1,930,1723,6.90332,-19.8601
-287,-699,7.71405,27.0637,0,0,0,0,0,0,0,-1,937,1723,7.71407,-27.0637
-280,-699,10.1707,29.3217,0,0,0,0,0,0,0,-1,944,1723,10.1707,-29.3216
-273,-699,7.89496,31.2267,0,0,0,0,0,0,0,-1,951,1723,7.89495,-31.2267
-266,-699,6.81915,20.8951,0,0,0,0,0,0,0,-1,958,1723,6.81914,-20.8952
-259,-699,5.39758,14.5466,0,0,0,0,0,0,0,-1,965,1723,5.39759,-14.5466
-252,-699,8.3866,31.6284,0,0,0,0,0,0,0,-1,972,1723,8.38657,-31.6284
-245,-699,8.38104,34.1235,0,0,0,0,0,0,0,-1,979,1723,8.38106,-34.1236
-238,-699,8.44702,35.0464,0,0,0,0,0,0,0,-1,986,1723,8.44705,-35.0464
-231,-699,8.20239,35.4136,-0.000996376,-0.00449696,0.00330877,0.000996525,-0.00648986,0.542115,0.00469414,0.0448749,993,1723,8.20239,-35.4136
-224,-699,7.9245,35.6685,-0.000643276,-0.00658562,0.00358438,0.00104126,-0.00827016,0.439334,0.00589128,0.040997,1000,1723,7.92449,-35.6685
-217,-699,7.83441,35.9985,-0.000286478,-0.00822051,0.00366672,0.00114855,-0.00965553,0.37304,0.00685203,0.0266231,1007,1723,7.83441,-35.9985
-210,-699,7.87006,36.4025,-0.000422444,-0.00951649,0.00358115,0.000818458,-0.0107574,0.333561,0.0074594,0.0173323,1014,1723,7.87008,-36.4025
-203,-699,7.87256,36.7764,-0.000331419,-0.0104219,0.00374856,0.000908736,-0.011662,0.319501,0.00809461,0.0207831,1021,1723,7.87258,-36.7764
-196,-699,7.81396,37.1831,-3.29862e-05,-0.0109004,0.00377664,0.00115057,-0.0120839,0.303695,0.00846558,0.0172018,1028,1723,7.81399,-37.1831
-189,-699,7.76184,37.536,0.000226374,-0.0108807,0.0036405,0.00131324,-0.0119676,0.290125,0.00845024,0.00915812,1035,1723,7.76185,-37.5361
-182,-699,7.7384,37.8843,0.000387914,-0.0101963,0.00339638,0.00138403,-0.0111924,0.285289,0.00796314,0.0125909,1042,1723,7.73846,-37.8843
-175,-699,7.72473,38.2704,0.000567258,-0.00901905,0.00320986,0.00154277,-0.00999456,0.295041,0.00723236,0.0150812,1049,1723,7.72469,-38.2704
-168,-699,7.73022,38.6244,0.000511619,-0.00754028,0.00294643,0.00147463,-0.00850329,0.315895,0.00621895,0.0157648,1056,1723,7.7302,-38.6243
-161,-699,7.71423,38.9532,0.000275433,-0.00593169,0.00258312,0.00120976,-0.00686603,0.347066,0.00502934,0.0138773,1063,1723,7.71426,-38.9532
-154,-699,7.68347,39.3054,0.000154571,-0.00419169,0.00226019,0.00111687,-0.005154,0.402516,0.0038625,0.0131742,1070,1723,7.68346,-39.3054
-147,-699,7.66125,39.6158,0.000186233,-0.00248201,0.00197557,0.00123597,-0.00353174,0.488417,0.00285703,0.0152313,1077,1723,7.66125,-39.6159
-140,-699,7.65344,39.9143,0.000284267,-0.0010141,0.00167626,0.00143266,-0.00216249,0.600651,0.00208987,0.0106086,1084,1723,7.65341,-39.9143
-133,-699,7.65247,40.229,0.000393579,0.000354166,0.00141572,0.00178973,-0.00104199,0.778439,0.00165379,0.00905754,1091,1723,7.65245,-40.2289
-126,-699,7.65247,40.5259,0.000694928,0.00119001,0.00127627,0.00224253,-0.000357587,0.881187,0.00162736,0.0109582,1098,1723,7.65246,-40.5258
-119,-699,7.65002,40.8076,0.00108505,0.00153143,0.00113803,0.00246795,0.000148529,0.882229,0.0015981,0.0162923,1105,1723,7.65001,-40.8076
-112,-699,7.63489,41.0828,0.00152176,0.00155055,0.00100595,0.0025422,0.000530103,0.792553,0.00154864,0.0118395,1112,1723,7.63484,-41.0828
-105,-699,7.63708,41.3523,0.00191048,0.001308,0.000795445,0.00245982,0.000758665,0.604389,0.00145451,0.0120828,1119,1723,7.63708,-41.3523
-98,-699,7.68579,41.6063,0.00230517,0.000993244,0.000577276,0.00252301,0.000775401,0.360841,0.00149227,0.0139132,1126,1723,7.68584,-41.6063
-91,-699,7.70667,41.8483,0.00271554,0.000672551,0.000327994,0.0027669,0.000621184,0.155347,0.00167636,0.0196921,1133,1723,7.70665,-41.8482
-84,-699,7.69141,42.0787,0.00304374,0.000433515,5.91966e-05,0.00304508,0.000432173,0.0226632,0.00190243,0.0246349,1140,1723,7.69145,-42.0788
-77,-699,7.70972,42.2916,0.00323482,-1.09711e-05,-0.000259496,0.00325544,-3.15866e-05,-0.0792773,0.0021809,0.016812,1147,1723,7.70967,-42.2916
-70,-699,7.72546,42.5221,0.00335558,-0.000121053,-0.000618397,0.0034623,-0.000227774,-0.170892,0.00238775,0.0174011,1154,1723,7.72548,-42.5221
-63,-699,7.74231,42.761,0.00576129,-0.000795997,0.000173583,0.00576588,-0.000800589,0.0264471,0.00413669,0.0149872,1161,1723,7.7423,-42.761
-56,-699,7.73071,42.9539,0.00836402,-0.00103727,0.00120236,0.00851536,-0.00118861,0.125209,0.00611176,0.0114565,1168,1723,7.73071,-42.9538
-49,-699,7.74866,43.1674,0.0102367,-0.00100892,0.00194226,0.0105627,-0.00133492,0.166296,0.00752636,0.0251349,1175,1723,7.74867,-43.1674
-42,-699,7.83118,43.3756,0.0119683,-0.000761063,0.0024417,0.0124206,-0.00121335,0.183159,0.00871303,0.0283341,1182,1723,7.8312,-43.3756
-35,-699,7.86743,43.5264,0.013548,-0.00097916,0.00296116,0.0141284,-0.00155956,0.193552,0.00997946,0.0263893,1189,1723,7.86741,-43.5264
-28,-699,7.9209,43.656,0.0149319,-0.00103775,0.00370796,0.0157508,-0.0018567,0.217373,0.011171,0.0217007,1196,1723,7.92084,-43.656
-21,-699,7.91699,43.7302,0.0160437,0.00161736,0.00582701,0.0181033,-0.000442221,0.339749,0.0122189,0.0145068,1203,1723,7.91703,-43.7303
-14,-699,7.92566,43.8569,0.0165885,0.00359536,0.0077058,0.0201709,1.3018e-05,0.435167,0.0134429,0.0122244,1210,1723,7.92562,-43.8569
-7,-699,7.9635,43.9941,0.0166717,0.00634367,0.00948739,0.0223095,0.000705953,0.536168,0.0146433,0.00902852,1217,1723,7.96349,-43.9942
0,-699,8.02429,44.1167,0.0165639,0.00928478,0.0111447,0.0246483,0.00120036,0.627572,0.016047,0.0111043,1224,1723,8.02432,-44.1167
7,-699,8.10278,44.1996,0.0160584,0.0120521,0.0121184,0.0263381,0.00177235,0.703491,0.0169988,0.0171584,1231,1723,8.10276,-44.1996
14,-699,8.16589,44.2961,0.0153464,0.0150328,0.0129006,0.0280912,0.00228803,0.779322,0.0180133,0.0186181,1238,1723,8.16585,-44.2962
21,-699,8.18823,44.3618,0.014399,0.0179689,0.0131817,0.029486,0.00288194,0.852693,0.0187706,0.0170522,1245,1723,8.18825,-44.3618
28,-699,8.23181,44.3977,0.0132496,0.0204384,0.0126112,0.0299575,0.00373053,0.924225,0.0188516,0.0157965,1252,1723,8.23181,-44.3978
35,-699,8.29834,44.4874,0.0119479,0.0224309,0.0115857,0.0299055,0.00447319,0.997827,0.0186259,0.0143707,1259,1723,8.29835,-44.4875
42,-699,8.34387,44.5645,0.0101545,0.0246319,0.00999403,0.0297333,0.00505302,1.09882,0.018371,0.0137573,1266,1723,8.34382,-44.5645
49,-699,8.37585,44.6021,0.00888047,0.0268715,0.00815477,0.0300176,0.00573434,1.20259,0.0184006,0.0157753,1273,1723,8.37581,-44.602
56,-699,8.44934,44.6111,0.00851052,0.0295719,0.00701796,0.0316961,0.00638628,1.27688,0.0193564,0.015734,1280,1723,8.44929,-44.6111
63,-699,8.52441,44.6174,0.00777161,0.0325007,0.00546575,0.0336549,0.00661742,1.36268,0.0205884,0.0140044,1287,1723,8.52442,-44.6174
70,-699,8.54248,44.6302,0.00685598,0.0360198,0.00334611,0.0363988,0.00647699,1.45801,0.0224209,0.012134,1294,1723,8.54247,-44.6302
77,-699,8.56909,44.593,0.00662292,0.0383697,0.00173804,0.0384646,0.00652805,1.51627,0.0237678,0.012184,1301,1723,8.56904,-44.593
84,-699,8.59302,44.5189,0.00653688,0.0398922,8.68663e-06,0.0398922,0.00653688,1.57054,0.0247058,0.0149493,1308,1723,8.59301,-44.519
91,-699,8.67444,44.5016,0.00689792,0.0423416,-0.0010408,0.0423722,0.00686739,-1.54147,0.02626,0.0151026,1315,1723,8.67444,-44.5015
98,-699,8.73621,44.4915,0.00731871,0.0444763,-0.00144181,0.0445322,0.00726285,-1.53207,0.0275877,0.012988,1322,1723,8.73618,-44.4914
105,-699,8.77258,44.4647,0.00764184,0.0464773,-0.00144564,0.0465311,0.00758811,-1.53364,0.0288262,0.0167598,1329,1723,8.77256,-44.4647
112,-699,8.81226,44.3899,0.00805522,0.0478068,-0.00109907,0.0478372,0.00802485,-1.54318,0.0295816,0.022677,1336,1723,8.81229,-44.3899
119,-699,8.81409,44.2919,0.0082424,0.047645,-0.0013438,0.0476908,0.00819662,-1.53674,0.0294444,0.0163694,1343,1723,8.81412,-44.2919
126,-699,8.89404,44.1833,0.00835746,0.0461457,-0.00191376,0.0462424,0.00826079,-1.52032,0.0284769,0.0167206,1350,1723,8.89407,-44.1833
133,-699,8.96826,44.0856,0.00839346,0.0435023,-0.00233365,0.0436567,0.00823903,-1.50471,0.0267839,0.0151682,1357,1723,8.96824,-44.0856
140,-699,9.00793,43.9825,0.00842445,0.0393679,-0.00258345,0.0395821,0.00821025,-1.48807,0.0241217,0.016572,1364,1723,9.00795,-43.9826
147,-699,9.03625,43.8602,0.00845123,0.0338122,-0.00269078,0.0340946,0.00816888,-1.46625,0.0205551,0.015145,1371,1723,9.03624,-43.8602
154,-699,9.02759,43.7323,0.00745006,0.026658,-0.00300158,0.0271162,0.00699194,-1.41934,0.016256,0.0151998,1378,1723,9.02762,-43.7323
161,-699,9.10046,43.5779,0.00520167,0.0176438,-0.00482136,0.0192934,0.00355208,-1.24114,0.0118569,0.0107219,1385,1723,9.1004,-43.5779
168,-699,9.14307,43.4419,0.00507098,0.0100661,-0.00363273,0.011977,0.00316008,-1.08655,0.00716739,0.0119315,1392,1723,9.14306,-43.4419
175,-699,9.1875,43.2948,0.00659137,0.00129895,-5.33817e-05,0.00659191,0.00129841,-0.0100851,0.0040321,0.0143346,1399,1723,9.18755,-43.2949
182,-699,9.19507,43.0916,0.00543482,0.00123395,0.000749077,0.0055644,0.00110437,0.171284,0.00340176,0.0147074,1406,1723,9.19512,-43.0915
189,-699,9.20898,42.9037,0.00472409,0.00129185,0.000715644,0.00486733,0.00114861,0.197543,0.00293784,0.0165766,1413,1723,9.20895,-42.9037
196,-699,9.22546,42.6979,0.00390919,0.00117755,0.00116625,0.00433937,0.000747371,0.353373,0.00267877,0.0159321,1420,1723,9.22544,-42.6978
203,-699,9.24146,42.5055,0.00338068,0.000712833,0.000926438,0.00367084,0.000422676,0.30352,0.00231921,0.0133349,1427,1723,9.24145,-42.5055
210,-699,9.26721,42.2922,0.00282351,0.000444743,0.000750803,0.00304066,0.000227593,0.281542,0.00195566,0.0133547,1434,1723,9.26718,-42.2922
217,-699,9.29016,42.0789,0.00226756,0.000287023,0.000400825,0.0023456,0.000208979,0.192303,0.00149894,0.0136786,1441,1723,9.29017,-42.0789
224,-699,9.29199,41.84,0.00211411,0.000477882,3.92073e-05,0.00211505,0.000476943,0.0239437,0.001281,0.0155893,1448,1723,9.29197,-41.84
231,-699,9.29895,41.5833,0.00198185,0.000661867,-0.000283075,0.00204,0.000603722,-0.202587,0.00121005,0.0117133,1455,1723,9.29895,-41.5832
238,-699,9.2959,41.312,0.0018656,0.000908582,-0.00051502,0.00209009,0.000684085,-0.411066,0.00123048,0.00946673,1462,1723,9.29593,-41.312
245,-699,9.30286,41.0461,0.00179117,0.00109739,-0.000777651,0.00229579,0.000592768,-0.575605,0.00137617,0.0114375,1469,1723,9.30288,-41.0462
252,-699,9.29944,40.7845,0.00167803,0.00129484,-0.00102222,0.00252645,0.000446422,-0.692758,0.00155698,0.0106999,1476,1723,9.2994,-40.7846
259,-699,9.28992,40.521,0.00152451,0.00141112,-0.00118722,0.00265639,0.000279244,-0.76154,0.00168557,0.0109423,1483,1723,9.28995,-40.521
266,-699,9.27283,40.2432,0.00133568,0.00140304,-0.00127818,0.00264798,9.07291e-05,-0.79857,0.00173587,0.0127371,1490,1723,9.27279,-40.2432
273,-699,9.26855,39.932,0.00113264,0.00162291,-0.00139951,0.00279859,-4.30398e-05,-0.872099,0.00188024,0.0115887,1497,1723,9.26858,-39.932
280,-699,9.28882,39.6144,0.000863046,0.00174562,-0.00145964,0.00282922,-0.000220557,-0.932193,0.0019638,0.0125676,1504,1723,9.28877,-39.6144
287,-699,9.26538,39.283,0.000591875,0.00208529,-0.00149969,0.00301388,-0.000336717,-1.01639,0.00213038,0.0108626,1511,1723,9.26535,-39.2829
294,-699,9.25378,38.9702,0.00038921,0.0026302,-0.00145043,0.00334253,-0.000323125,-1.11428,0.0023435,0.0109271,1518,1723,9.25379,-38.9702
301,-699,9.25671,38.6876,0.000348208,0.00270683,-0.00132738,0.00330311,-0.000248072,-1.1486,0.00228925,0.0125141,1525,1723,9.25669,-38.6876
308,-699,9.24585,38.3718,0.00033943,0.00278947,-0.00139803,0.00342325,-0.000294359,-1.14517,0.00238635,0.0165962,1532,1723,9.24583,-38.3719
315,-699,9.23425,38.011,0.000488556,0.00275473,-0.00157338,0.00356056,-0.000317275,-1.09746,0.00248622,0.0190977,1539,1723,9.23428,-38.011
322,-699,9.19336,37.6473,0.000722807,0.00283711,-0.00174279,0.00381831,-0.000258392,-1.05802,0.00263589,0.0200352,1546,1723,9.19338,-37.6473
329,-699,9.14978,37.307,0.000954926,0.00258825,-0.00189251,0.00383278,-0.00028961,-0.989089,0.00265699,0.0176632,1553,1723,9.14983,-37.3071
336,-699,9.16077,36.9944,0.00132907,0.00189168,-0.00207075,0.00370014,-0.000479391,-0.852908,0.0026411,0.0216194,1560,1723,9.16077,-36.9944
343,-699,9.21179,36.6624,0.0016879,0.000722888,-0.00205109,0.00331247,-0.000901684,-0.669877,0.00256232,0.0315939,1567,1723,9.21174,-36.6624
350,-699,9.21216,36.2474,0.00143435,-0.000739762,-0.00197087,0.00259808,-0.00190349,-0.533378,0.00260927,0.0444723,1574,1723,9.2122,-36.2475
357,-699,9.35938,35.8752,0.00127196,-0.00272226,-0.00181227,0.00197165,-0.00342196,-0.368457,0.0031513,0.0466085,1581,1723,9.35941,-35.8752
364,-699,9.42834,35.593,0.000808912,-0.00472886,-0.00167294,0.00127506,-0.00519501,-0.271748,0.00395743,0.0440167,1588,1723,9.42835,-35.593
371,-699,9.02112,35.2865,0,0,0,0,0,0,0,-1,1595,1723,9.02108,-35.2865
378,-699,9.16223,35.1147,0,0,0,0,0,0,0,-1,1602,1723,9.16225,-35.1147
385,-699,8.52649,33.9635,0,0,0,0,0,0,0,-1,1609,1723,8.52643,-33.9635
392,-699,8.77649,33.7261,0,0,0,0,0,0,0,-1,1616,1723,8.77653,-33.7261
399,-699,8.854,33.699,0,0,0,0,0,0,0,-1,1623,1723,8.85395,-33.699
406,-699,8.66675,34.332,0,0,0,0,0,0,0,-1,1630,1723,8.66669,-34.332
413,-699,9.31396,23.2781,0,0,0,0,0,0,0,-1,1637,1723,9.31396,-23.278
420,-699,2.15076,7.65527,0,0,0,0,0,0,0,-1,1644,1723,2.15079,-7.65522
427,-699,3.36328,8.2428,0,0,0,0,0,0,0,-1,1651,1723,3.36332,-8.24283
434,-699,4.66455,8.90222,0,0,0,0,0,0,0,-1,1658,1723,4.66456,-8.90223
441,-699,0,0,0,0,0,0,0,0,0,-1,1665,1723,0,0
448,-699,0,0,0,0,0,0,0,0,0,-1,1672,1723,0,0
455,-699,0,0,0,0,0,0,0,0,0,-1,1679,1723,0,0
462,-699,0,0,0,0,0,0,0,0,0,-1,1686,1723,0,0
469,-699,0,0,0,0,0,0,0,0,0,-1,1693,1723,0,0
476,-699,0,0,0,0,0,0,0,0,0,-1,1700,1723,0,0
483,-699,0,0,0,0,0,0,0,0,0,-1,1707,1723,0,0
490,-699,0,0,0,0,0,0,0,0,0,-1,1714,1723,0,0
497,-699,0,0,0,0,0,0,0,0,0,-1,1721,1723,0,0
504,-699,0,0,0,0,0,0,0,0,0,-1,1728,1723,0,0
511,-699,0,0,0,0,0,0,0,0,0,-1,1735,1723,0,0
518,-699,0,0,0,0,0,0,0,0,0,-1,1742,1723,0,0
525,-699,0,0,0,0,0,0,0,0,0,-1,1749,1723,0,0
532,-699,0,0,0,0,0,0,0,0,0,-1,1756,1723,0,0
539,-699,0,0,0,0,0,0,0,0,0,-1,1763,1723,0,0
546,-699,0,0,0,0,0,0,0,0,0,-1,1770,1723,0,0
553,-699,0,0,0,0,0,0,0,0,0,-1,1777,1723,0,0
560,-699,0,0,0,0,0,0,0,0,0,-1,1784,1723,0,0
567,-699,0,0,0,0,0,0,0,0,0,-1,1791,1723,0,0
574,-699,0,0,0,0,0,0,0,0,0,-1,1798,1723,0,0
581,-699,0,0,0,0,0,0,0,0,0,-1,1805,1723,0,0
588,-699,0,0,0,0,0,0,0,0,0,-1,1812,1723,0,0
595,-699,0,0,0,0,0,0,0,0,0,-1,1819,1723,0,0
602,-699,0,0,0,0,0,0,0,0,0,-1,1826,1723,0,0
609,-699,0,0,0,0,0,0,0,0,0,-1,1833,1723,0,0
616,-699,0,0,0,0,0,0,0,0,0,-1,1840,1723,0,0
623,-699,0,0,0,0,0,0,0,0,0,-1,1847,1723,0,0
630,-699,0,0,0,0,0,0,0,0,0,-1,1854,1723,0,0
637,-699,0,0,0,0,0,0,0,0,0,-1,1861,1723,0,0
644,-699,0,0,0,0,0,0,0,0,0,-1,1868,1723,0,0
651,-699,0,0,0,0,0,0,0,0,0,-1,1875,1723,0,0
658,-699,0,0,0,0,0,0,0,0,0,-1,1882,1723,0,0
665,-699,0,0,0,0,0,0,0,0,0,-1,1889,1723,0,0
672,-699,0,0,0,0,0,0,0,0,0,-1,1896,1723,0,0
679,-699,0,0,0,0,0,0,0,0,0,-1,1903,1723,0,0
686,-699,0,0,0,0,0,0,0,0,0,-1,1910,1723,0,0
693,-699,0,0,0,0,0,0,0,0,0,-1,1917,1723,0,0
700,-699,0,0,0,0,0,0,0,0,0,-1,1924,1723,0,0
707,-699,0,0,0,0,0,0,0,0,0,-1,1931,1723,0,0
714,-699,0,0,0,0,0,0,0,0,0,-1,1938,1723,0,0
721,-699,0,0,0,0,0,0,0,0,0,-1,1945,1723,0,0
728,-699,0,0,0,0,0,0,0,0,0,-1,1952,1723,0,0
735,-699,0,0,0,0,0,0,0,0,0,-1,1959,1723,0,0
742,-699,0,0,0,0,0,0,0,0,0,-1,1966,1723,0,0
749,-699,0,0,0,0,0,0,0,0,0,-1,1973,1723,0,0
756,-699,0,0,0,0,0,0,0,0,0,-1,1980,1723,0,0
763,-699,0,0,0,0,0,0,0,0,0,-1,1987,1723,0,0
770,-699,0,0,0,0,0,0,0,0,0,-1,1994,1723,0,0
777,-699,0,0,0,0,0,0,0,0,0,-1,2001,1723,0,0
784,-699,0,0,0,0,0,0,0,0,0,-1,2008,1723,0,0
791,-699,0,0,0,0,0,0,0,0,0,-1,2015,1723,0,0
798,-699,0,0,0,0,0,0,0,0,0,-1,2022,1723,0,0
805,-699,0,0,0,0,0,0,0,0,0,-1,2029,1723,0,0
812,-699,0,0,0,0,0,0,0,0,0,-1,2036,1723,0,0
-700,-706,0,0,0,0,0,0,0,0,0,-1,524,1730,0,0
-693,-706,0,0,0,0,0,0,0,0,0,-1,531,1730,0,0
-686,-706,0,0,0,0,0,0,0,0,0,-1,538,1730,0,0
-679,-706,0,0,0,0,0,0,0,0,0,-1,545,1730,0,0
-672,-706,0,0,0,0,0,0,0,0,0,-1,552,1730,0,0
-665,-706,0,0,0,0,0,0,0,0,0,-1,559,1730,0,0
-658,-706,0,0,0,0,0,0,0,0,0,-1,566,1730,0,0
-651,-706,0,0,0,0,0,0,0,0,0,-1,573,1730,0,0
-644,-706,0,0,0,0,0,0,0,0,0,-1,580,1730,0,0
-637,-706,0,0,0,0,0,0,0,0,0,-1,587,1730,0,0
-630,-706,0,0,0,0,0,0,0,0,0,-1,594,1730,0,0
-623,-706,0,0,0,0,0,0,0,0,0,-1,601,1730,0,0
-616,-706,0,0,0,0,0,0,0,0,0,-1,608,1730,0,0
-609,-706,0,0,0,0,0,0,0,0,0,-1,615,1730,0,0
-602,-706,0,0,0,0,0,0,0,0,0,-1,622,1730,0,0
-595,-706,0,0,0,0,0,0,0,0,0,-1,629,1730,0,0
-588,-706,0,0,0,0,0,0,0,0,0,-1,636,1730,0,0
-581,-706,0,0,0,0,0,0,0,0,0,-1,643,1730,0,0
-574,-706,0,0,0,0,0,0,0,0,0,-1,650,1730,0,0
-567,-706,0,0,0,0,0,0,0,0,0,-1,657,1730,0,0
-560,-706,0,0,0,0,0,0,0,0,0,-1,664,1730,0,0
-553,-706,0,0,0,0,0,0,0,0,0,-1,671,1730,0,0
-546,-706,0,0,0,0,0,0,0,0,0,-1,678,1730,0,0
-539,-706,0,0,0,0,0,0,0,0,0,-1,685,1730,0,0
-532,-706,0,0,0,0,0,0,0,0,0,-1,692,1730,0,0
-525,-706,0,0,0,0,0,0,0,0,0,-1,699,1730,0,0
-518,-706,0,0,0,0,0,0,0,0,0,-1,706,1730,0,0
-511,-706,0,0,0,0,0,0,0,0,0,-1,713,1730,0,0
-504,-706,0,0,0,0,0,0,0,0,0,-1,720,1730,0,0
-497,-706,0,0,0,0,0,0,0,0,0,-1,727,1730,0,0
-490,-706,0,0,0,0,0,0,0,0,0,-1,734,1730,0,0
-483,-706,0,0,0,0,0,0,0,0,0,-1,741,1730,0,0
-476,-706,0,0,0,0,0,0,0,0,0,-1,748,1730,0,0
-469,-706,0,0,0,0,0,0,0,0,0,-1,755,1730,0,0
-462,-706,0,0,0,0,0,0,0,0,0,-1,762,1730,0,0
-455,-706,0,0,0,0,0,0,0,0,0,-1,769,1730,0,0
-448,-706,0,0,0,0,0,0,0,0,0,-1,776,1730,0,0
-441,-706,0,0,0,0,0,0,0,0,0,-1,783,1730,0,0
-434,-706,0,0,0,0,0,0,0,0,0,-1,790,1730,0,0
-427,-706,0,0,0,0,0,0,0,0,0,-1,797,1730,0,0
-420,-706,0,0,0,0,0,0,0,0,0,-1,804,1730,0,0
-413,-706,0,0,0,0,0,0,0,0,0,-1,811,1730,0,0
-406,-706,0,0,0,0,0,0,0,0,0,-1,818,1730,0,0
-399,-706,0,0,0,0,0,0,0,0,0,-1,825,1730,0,0
-392,-706,0,0,0,0,0,0,0,0,0,-1,832,1730,0,0
-385,-706,0,0,0,0,0,0,0,0,0,-1,839,1730,0,0
-378,-706,0,0,0,0,0,0,0,0,0,-1,846,1730,0,0
-371,-706,0,0,0,0,0,0,0,0,0,-1,853,1730,0,0
-364,-706,0,0,0,0,0,0,0,0,0,-1,860,1730,0,0
-357,-706,0,0,0,0,0,0,0,0,0,-1,867,1730,0,0
-350,-706,0,0,0,0,0,0,0,0,0,-1,874,1730,0,0
-343,-706,0,0,0,0,0,0,0,0,0,-1,881,1730,0,0
-336,-706,0,0,0,0,0,0,0,0,0,-1,888,1730,0,0
-329,-706,0,0,0,0,0,0,0,0,0,-1,895,1730,0,0
-322,-706,0,0,0,0,0,0,0,0,0,-1,902,1730,0,0
-315,-706,0,0,0,0,0,0,0,0,0,-1,909,1730,0,0
-308,-706,5.08191,14.6245,0,0,0,0,0,0,0,-1,916,1730,5.08188,-14.6245
-301,-706,7.45007,21.1975,0,0,0,0,0,0,0,-1,923,1730,7.45005,-21.1976
-294,-706,11.8603,21.026,0,0,0,0,0,0,0,-1,930,1730,11.8603,-21.026
-287,-706,10.3292,20.8425,0,0,0,0,0,0,0,-1,937,1730,10.3292,-20.8425
-280,-706,7.9162,21.8951,0,0,0,0,0,0,0,-1,944,1730,7.9162,-21.8952
-273,-706,7.38953,20.6355,0,0,0,0,0,0,0,-1,951,1730,7.38955,-20.6355
-266,-706,9.66724,22.8231,0,0,0,0,0,0,0,-1,958,1730,9.66722,-22.8231
-259,-706,3.47852,20.7363,0,0,0,0,0,0,0,-1,965,1730,3.47851,-20.7364
-252,-706,3.84259,20.1979,0,0,0,0,0,0,0,-1,972,1730,3.84256,-20.1979
-245,-706,4.698,19.2992,0,0,0,0,0,0,0,-1,979,1730,4.69799,-19.2991
-238,-706,7.70691,32.0442,0,0,0,0,0,0,0,-1,986,1730,7.70689,-32.0442
-231,-706,8.73383,35.5132,0,0,0,0,0,0,0,-1,993,1730,8.73381,-35.5132
-224,-706,8.31818,35.713,0,0,0,0,0,0,0,-1,1000,1730,8.3182,-35.713
-217,-706,8.11615,36.0024,0.000680176,-0.0130253,0.00512215,0.00238292,-0.0147281,0.320936,0.0107018,0.0437627,1007,1730,8.11618,-36.0024
-210,-706,8.19934,36.3608,0.000456222,-0.0148014,0.00508643,0.0019964,-0.0163416,0.294026,0.0116172,0.0380801,1014,1730,8.19934,-36.3608
-203,-706,8.1825,36.7629,0.000546609,-0.0160265,0.00527499,0.00208312,-0.017563,0.283439,0.0124612,0.0325122,1021,1730,8.18247,-36.763
-196,-706,8.12183,37.155,0.000781615,-0.0165464,0.00525075,0.00224852,-0.0180133,0.272426,0.0128242,0.023349,1028,1730,8.12178,-37.155
-189,-706,8.0636,37.5439,0.000931825,-0.0163576,0.00502593,0.00228666,-0.0177124,0.263311,0.0126396,0.0190522,1035,1730,8.06365,-37.544
-182,-706,8.05591,37.9113,0.000874875,-0.015338,0.00459068,0.00208448,-0.0165476,0.257635,0.0117882,0.0163988,1042,1730,8.05589,-37.9113
-175,-706,8.05908,38.2897,0.000807584,-0.0136397,0.00423281,0.00195638,-0.0147885,0.265019,0.0105716,0.0167023,1049,1730,8.05906,-38.2897
-168,-706,8.0531,38.636,0.000460521,-0.0115741,0.00378386,0.00155135,-0.012665,0.280673,0.00900508,0.0161511,1056,1730,8.0531,-38.636
-161,-706,8.0365,38.9486,-3.05329e-05,-0.00936691,0.00327445,0.00100338,-0.0104008,0.305846,0.00729139,0.0133188,1063,1730,8.03645,-38.9486
-154,-706,8.00037,39.3043,-0.000393278,-0.00702575,0.00281765,0.000642101,-0.00806113,0.352146,0.0056004,0.0125479,1070,1730,8.00042,-39.3043
-147,-706,7.9696,39.6279,-0.0005856,-0.00474096,0.00241724,0.000524169,-0.00585073,0.4304,0.00408643,0.0117683,1077,1730,7.96961,-39.6279
-140,-706,7.96851,39.9418,-0.000676007,-0.0027367,0.00202147,0.000562554,-0.00397526,0.549709,0.00285622,0.0103469,1084,1730,7.96856,-39.9418
-133,-706,7.95105,40.2251,-0.000809052,-0.000749652,0.00165291,0.000873822,-0.00243253,0.794381,0.00197837,0.00793311,1091,1730,7.9511,-40.2251
-126,-706,7.95056,40.521,-0.000660214,0.000567023,0.00149679,0.00157109,-0.00166428,0.979928,0.0018682,0.0125762,1098,1730,7.95061,-40.521
-119,-706,7.93787,40.8384,-0.000366145,0.00131565,0.00135435,0.00206892,-0.00111942,1.06322,0.0018678,0.018999,1105,1730,7.93785,-40.8384
-112,-706,7.92224,41.1147,4.4157e-05,0.00160293,0.00128932,0.00233013,-0.000683041,1.05726,0.00182424,0.0132939,1112,1730,7.92219,-41.1148
-105,-706,7.90723,41.3746,0.00044962,0.00152248,0.00113945,0.00224546,-0.000273357,1.0054,0.00159592,0.0092078,1119,1730,7.90728,-41.3746
-98,-706,7.91797,41.6077,0.000861519,0.00128203,0.000960964,0.00205547,8.80773e-05,0.893099,0.00134192,0.0109018,1126,1730,7.91792,-41.6077
-91,-706,7.94006,41.8649,0.00129231,0.00103184,0.000763855,0.00193695,0.000387198,0.700963,0.00118354,0.0148162,1133,1730,7.94004,-41.8649
-84,-706,7.93567,42.0935,0.00163966,0.000812192,0.000533044,0.0019007,0.000551159,0.455377,0.00112918,0.0175004,1140,1730,7.93561,-42.0935
-77,-706,7.93884,42.3,0.00191651,0.000556419,0.000324972,0.00199017,0.000482761,0.222893,0.00119871,0.0157596,1147,1730,7.93885,-42.3001
-70,-706,7.93091,42.5453,0.0021233,0.000406881,2.67135e-05,0.00212371,0.000406465,0.0155585,0.00130165,0.0181136,1154,1730,7.93095,-42.5452
-63,-706,7.92053,42.7657,0.00334855,1.55355e-05,0.000269369,0.00337018,-6.09423e-06,0.0801255,0.00224882,0.0138243,1161,1730,7.92057,-42.7657
-56,-706,7.93494,42.9583,0.00477955,-0.000107721,0.000750682,0.00489225,-0.000220426,0.149024,0.00333741,0.0135249,1168,1730,7.93489,-42.9583
-49,-706,7.93127,43.1666,0.00589057,-0.00019186,0.00112558,0.00609219,-0.000393471,0.177238,0.00419876,0.0144604,1175,1730,7.93122,-43.1666
-42,-706,7.97571,43.3531,0.0071498,-0.000246003,0.00146191,0.00742829,-0.000524487,0.188239,0.00513595,0.0187131,1182,1730,7.97566,-43.3532
-35,-706,8.00745,43.4915,0.00841522,-0.00043274,0.00190508,0.00880797,-0.000825493,0.203313,0.00616559,0.0169764,1189,1730,8.00742,-43.4915
-28,-706,8.0365,43.6234,0.00953013,-0.000551762,0.00246546,0.0101007,-0.00112238,0.227439,0.00713743,0.0108491,1196,1730,8.03646,-43.6234
-21,-706,8.04626,43.7671,0.0105701,0.000787533,0.00369342,0.0118079,-0.000450297,0.32338,0.00802626,0.0114565,1203,1730,8.04626,-43.7671
-14,-706,8.073,43.8834,0.0112623,0.00202352,0.00493444,0.0134021,-0.000116349,0.409182,0.00897379,0.0112424,1210,1730,8.07303,-43.8835
-7,-706,8.1084,44.0115,0.0115633,0.00386641,0.00620304,0.0150147,0.000414975,0.507751,0.00987441,0.00874896,1217,1730,8.10841,-44.0115
0,-706,8.15381,44.1366,0.0118946,0.00599331,0.00756859,0.0170674,0.00082053,0.599535,0.0111148,0.0118148,1224,1730,8.15377,-44.1366
7,-706,8.19202,44.2383,0.0118601,0.00807778,0.00851846,0.0186948,0.00124307,0.676166,0.0120702,0.013648,1231,1730,8.19203,-44.2383
14,-706,8.22058,44.3206,0.0115648,0.010327,0.00938516,0.0203514,0.00154036,0.752475,0.0130844,0.0141185,1238,1730,8.22063,-44.3205
21,-706,8.25269,44.382,0.011083,0.0126358,0.00982851,0.0217186,0.0020003,0.824814,0.0138605,0.0119213,1245,1730,8.25268,-44.3819
28,-706,8.28174,44.4451,0.0104151,0.0146585,0.00967612,0.0224428,0.00263083,0.893326,0.0141666,0.0124872,1252,1730,8.28176,-44.4451
35,-706,8.31165,44.5148,0.00962766,0.0163512,0.00922169,0.0228048,0.00317409,0.960188,0.0142634,0.014521,1259,1730,8.31164,-44.5148
42,-706,8.34717,44.5721,0.00837932,0.0181376,0.00834617,0.0229261,0.00359074,1.04991,0.0142389,0.0117243,1266,1730,8.34717,-44.5722
49,-706,8.39063,44.593,0.00713355,0.0192355,0.00691436,0.0223727,0.00399635,1.14485,0.0137776,0.0138101,1273,1730,8.39063,-44.593
56,-706,8.46069,44.6117,0.00640219,0.0203254,0.00577985,0.022412,0.00431556,1.22434,0.0137308,0.0135269,1280,1730,8.4607,-44.6117
63,-706,8.50928,44.6287,0.0054574,0.0215624,0.00437438,0.0226739,0.00434595,1.32198,0.0138957,0.0114273,1287,1730,8.50927,-44.6286
70,-706,8.52185,44.6208,0.00436015,0.0225762,0.00230547,0.0228635,0.00407289,1.44684,0.0140824,0.0122183,1294,1730,8.52182,-44.6209
77,-706,8.54102,44.6007,0.00377322,0.0229258,0.000599205,0.0229446,0.00375449,1.53955,0.0142112,0.0111488,1301,1730,8.54104,-44.6007
84,-706,8.58704,44.5623,0.00323383,0.0224431,-0.0011349,0.0225099,0.00316702,-1.51199,0.0140702,0.0094059,1308,1730,8.58708,-44.5623
91,-706,8.64307,44.548,0.00309805,0.0224161,-0.0024632,0.0227252,0.00278892,-1.44595,0.0143114,0.0110028,1315,1730,8.64308,-44.548
98,-706,8.65527,44.5177,0.003087,0.0221514,-0.00335197,0.0227236,0.00251482,-1.40173,0.0143843,0.0151718,1322,1730,8.65528,-44.5177
105,-706,8.69055,44.4822,0.00300648,0.0219217,-0.00387089,0.0226832,0.00224497,-1.37655,0.0144321,0.016811,1329,1730,8.69049,-44.4822
112,-706,8.70398,44.4286,0.00323349,0.0215541,-0.00389916,0.0223494,0.00243816,-1.36958,0.0141571,0.0153735,1336,1730,8.70395,-44.4286
119,-706,8.72937,44.3643,0.00346323,0.0204547,-0.00412975,0.0214053,0.00251267,-1.34456,0.0135107,0.0121806,1343,1730,8.72941,-44.3642
126,-706,8.76465,44.2498,0.0036404,0.018693,-0.00435942,0.0198644,0.00246901,-1.30829,0.0125014,0.0134258,1350,1730,8.76467,-44.2498
133,-706,8.81873,44.0948,0.00384875,0.0165258,-0.00431411,0.0178546,0.00251991,-1.272,0.0111584,0.0118833,1357,1730,8.81878,-44.0949
140,-706,8.88171,43.9674,0.0041239,0.0140696,-0.00399443,0.0154752,0.00271829,-1.23244,0.00954068,0.0117638,1364,1730,8.8817,-43.9673
147,-706,8.93909,43.8586,0.00441704,0.0110988,-0.00365373,0.0127088,0.00280704,-1.15575,0.00770913,0.0217371,1371,1730,8.93911,-43.8587
154,-706,8.9635,43.7516,0.00453719,0.00864861,-0.0029255,0.0101684,0.00301736,-1.09166,0.00603029,0.0216731,1378,1730,8.96346,-43.7516
161,-706,8.92505,43.5988,0.00391785,0.00551878,-0.00300815,0.00783115,0.00160548,-0.915434,0.00477641,0.0108845,1385,1730,8.92503,-43.5987
168,-706,8.94788,43.4324,0.00380201,0.00290097,-0.00203763,0.00543834,0.00126465,-0.676598,0.00328615,0.00974919,1392,1730,8.94793,-43.4324
175,-706,8.98364,43.2764,0.00433988,0.000873045,0.00013076,0.00434481,0.00086812,0.037646,0.00265491,0.0097253,1399,1730,8.98359,-43.2764
182,-706,8.99548,43.1078,0.00352733,0.000896007,0.000547001,0.00363651,0.000786827,0.19701,0.00220928,0.0105022,1406,1730,8.99545,-43.1078
189,-706,9.00989,42.8999,0.00299967,0.000980353,0.00046699,0.00310244,0.000877586,0.216609,0.00184664,0.013357,1413,1730,9.00986,-42.8999
196,-706,9.02368,42.7006,0.00245274,0.000973844,0.000594883,0.00266233,0.000764257,0.338738,0.00158288,0.0119417,1420,1730,9.02365,-42.7006
203,-706,9.02808,42.5083,0.0021076,0.00087406,0.000347781,0.0021989,0.000782764,0.256716,0.00128697,0.0132937,1427,1730,9.02805,-42.5083
210,-706,9.02563,42.2889,0.00175202,0.000868928,0.000116637,0.00176717,0.000853783,0.129129,0.00102047,0.0122122,1434,1730,9.02567,-42.2889
217,-706,9.02795,42.0686,0.00139766,0.00091211,-0.000196784,0.0014674,0.000842374,-0.340572,0.000850296,0.013147,1441,1730,9.02791,-42.0686
224,-706,9.04102,41.8387,0.00132484,0.0010809,-0.000548879,0.00176514,0.000640601,-0.676066,0.00103179,0.0187751,1448,1730,9.04103,-41.8388
231,-706,9.05872,41.5769,0.00122337,0.00128726,-0.000877544,0.00213344,0.000377189,-0.803591,0.00131472,0.013946,1455,1730,9.05875,-41.5769
238,-706,9.04797,41.3217,0.00119326,0.00150357,-0.00117474,0.00253336,0.000163474,-0.851056,0.00163714,0.00866526,1462,1730,9.04798,-41.3216
245,-706,9.05786,41.0398,0.00118094,0.00167766,-0.00149301,0.00294283,-8.42288e-05,-0.867816,0.00199056,0.0109964,1469,1730,9.05785,-41.0398
252,-706,9.04785,40.7755,0.00108651,0.00184941,-0.00173789,0.00324722,-0.000311292,-0.89343,0.00227568,0.0119178,1476,1730,9.04786,-40.7755
259,-706,9.04272,40.5154,0.000941941,0.00191055,-0.00185111,0.00333967,-0.000487175,-0.913345,0.00240534,0.0128668,1483,1730,9.04269,-40.5154
266,-706,9.01501,40.2456,0.000764411,0.00178614,-0.00187872,0.00322221,-0.000671663,-0.918149,0.00240352,0.0130384,1490,1730,9.01501,-40.2456
273,-706,8.99976,39.9487,0.000580796,0.00205332,-0.00200736,0.00345518,-0.000821063,-0.961171,0.00262037,0.0118907,1497,1730,8.99977,-39.9487
280,-706,8.99487,39.6293,0.000307507,0.00219387,-0.00204196,0.00349996,-0.000998577,-1.00175,0.00272779,0.0103569,1504,1730,8.99489,-39.6292
287,-706,8.95642,39.3065,3.48073e-05,0.0026552,-0.00205942,0.00378587,-0.00109587,-1.0687,0.00295767,0.0112184,1511,1730,8.95636,-39.3065
294,-706,8.94873,39.0045,-0.000161827,0.00339535,-0.00194043,0.00424899,-0.00101547,-1.15635,0.00322489,0.0104862,1518,1730,8.94874,-39.0045
301,-706,8.94495,38.691,-0.000144567,0.00357911,-0.00170523,0.004242,-0.000807456,-1.20004,0.00313204,0.0100338,1525,1730,8.94494,-38.691
308,-706,8.93469,38.3605,-9.6793e-05,0.0037299,-0.00167542,0.00435976,-0.000726659,-1.2112,0.00317656,0.0121746,1532,1730,8.93469,-38.3605
315,-706,8.89819,38.0201,0.000164954,0.00385397,-0.00179836,0.00458557,-0.000566638,-1.18443,0.00326237,0.0197598,1539,1730,8.89819,-38.0201
322,-706,8.84204,37.7188,0.000573426,0.00415834,-0.00197127,0.00503024,-0.000298477,-1.15436,0.00345728,0.0277578,1546,1730,8.84201,-37.7188
329,-706,8.88794,37.2751,0.00100485,0.00414562,-0.00209544,0.00519382,-4.33542e-05,-1.10697,0.00347709,0.0299233,1553,1730,8.88792,-37.2751
336,-706,8.83142,36.7223,0.00170795,0.00338408,-0.00230192,0.00499575,9.62864e-05,-0.959976,0.00329887,0.0460158,1560,1730,8.83138,-36.7222
343,-706,8.80249,36.3146,0.00242791,0.00194826,-0.00231364,0.00451412,-0.000137948,-0.733754,0.00305643,0.0472687,1567,1730,8.80254,-36.3146
350,-706,8.92578,36.5348,0.00236741,0.000100647,-0.00218037,0.00369138,-0.00122332,-0.545713,0.00295436,0.0471387,1574,1730,8.92582,-36.5348
357,-706,9.17358,36.3586,0,0,0,0,0,0,0,-1,1581,1730,9.17353,-36.3586
364,-706,9.29614,35.9178,0,0,0,0,0,0,0,-1,1588,1730,9.29616,-35.9178
371,-706,6.27881,24.0759,0,0,0,0,0,0,0,-1,1595,1730,6.27883,-24.0759
378,-706,4.80444,25.0989,0,0,0,0,0,0,0,-1,1602,1730,4.80445,-25.0989
385,-706,5.55212,24.9753,0,0,0,0,0,0,0,-1,1609,1730,5.55214,-24.9753
392,-706,8.1698,33.7717,0,0,0,0,0,0,0,-1,1616,1730,8.16977,-33.7718
399,-706,3.9502,25.5428,0,0,0,0,0,0,0,-1,1623,1730,3.95019,-25.5428
406,-706,6.04211,18.8085,0,0,0,0,0,0,0,-1,1630,1730,6.04216,-18.8085
413,-706,6.23413,20.7725,0,0,0,0,0,0,0,-1,1637,1730,6.23413,-20.7725
420,-706,6.51294,21.9171,0,0,0,0,0,0,0,-1,1644,1730,6.51292,-21.9171
427,-706,0,0,0,0,0,0,0,0,0,-1,1651,1730,0,0
434,-706,0,0,0,0,0,0,0,0,0,-1,1658,1730,0,0
441,-706,0,0,0,0,0,0,0,0,0,-1,1665,1730,0,0
448,-706,0,0,0,0,0,0,0,0,0,-1,1672,1730,0,0
455,-706,0,0,0,0,0,0,0,0,0,-1,1679,1730,0,0
462,-706,0,0,0,0,0,0,0,0,0,-1,1686,1730,0,0
469,-706,0,0,0,0,0,0,0,0,0,-1,1693,1730,0,0
476,-706,0,0,0,0,0,0,0,0,0,-1,1700,1730,0,0
483,-706,0,0,0,0,0,0,0,0,0,-1,1707,1730,0,0
490,-706,0,0,0,0,0,0,0,0,0,-1,1714,1730,0,0
497,-706,0,0,0,0,0,0,0,0,0,-1,1721,1730,0,0
504,-706,0,0,0,0,0,0,0,0,0,-1,1728,1730,0,0
511,-706,0,0,0,0,0,0,0,0,0,-1,1735,1730,0,0
518,-706,0,0,0,0,0,0,0,0,0,-1,1742,1730,0,0
525,-706,0,0,0,0,0,0,0,0,0,-1,1749,1730,0,0
532,-706,0,0,0,0,0,0,0,0,0,-1,1756,1730,0,0
539,-706,0,0,0,0,0,0,0,0,0,-1,1763,1730,0,0
546,-706,0,0,0,0,0,0,0,0,0,-1,1770,1730,0,0
553,-706,0,0,0,0,0,0,0,0,0,-1,1777,1730,0,0
560,-706,0,0,0,0,0,0,0,0,0,-1,1784,1730,0,0
567,-706,0,0,0,0,0,0,0,0,0,-1,1791,1730,0,0
574,-706,0,0,0,0,0,0,0,0,0,-1,1798,1730,0,0
581,-706,0,0,0,0,0,0,0,0,0,-1,1805,1730,0,0
588,-706,0,0,0,0,0,0,0,0,0,-1,1812,1730,0,0
595,-706,0,0,0,0,0,0,0,0,0,-1,1819,1730,0,0
602,-706,0,0,0,0,0,0,0,0,0,-1,1826,1730,0,0
609,-706,0,0,0,0,0,0,0,0,0,-1,1833,1730,0,0
616,-706,0,0,0,0,0,0,0,0,0,-1,1840,1730,0,0
623,-706,0,0,0,0,0,0,0,0,0,-1,1847,1730,0,0
630,-706,0,0,0,0,0,0,0,0,0,-1,1854,1730,0,0
637,-706,0,0,0,0,0,0,0,0,0,-1,1861,1730,0,0
644,-706,0,0,0,0,0,0,0,0,0,-1,1868,1730,0,0
651,-706,0,0,0,0,0,0,0,0,0,-1,1875,1730,0,0
658,-706,0,0,0,0,0,0,0,0,0,-1,1882,1730,0,0
665,-706,0,0,0,0,0,0,0,0,0,-1,1889,1730,0,0
672,-706,0,0,0,0,0,0,0,0,0,-1,1896,1730,0,0
679,-706,0,0,0,0,0,0,0,0,0,-1,1903,1730,0,0
686,-706,0,0,0,0,0,0,0,0,0,-1,1910,1730,0,0
693,-706,0,0,0,0,0,0,0,0,0,-1,1917,1730,0,0
700,-706,0,0,0,0,0,0,0,0,0,-1,1924,1730,0,0
707,-706,0,0,0,0,0,0,0,0,0,-1,1931,1730,0,0
714,-706,0,0,0,0,0,0,0,0,0,-1,1938,1730,0,0
721,-706,0,0,0,0,0,0,0,0,0,-1,1945,1730,0,0
728,-706,0,0,0,0,0,0,0,0,0,-1,1952,1730,0,0
735,-706,0,0,0,0,0,0,0,0,0,-1,1959,1730,0,0
742,-706,0,0,0,0,0,0,0,0,0,-1,1966,1730,0,0
749,-706,0,0,0,0,0,0,0,0,0,-1,1973,1730,0,0
756,-706,0,0,0,0,0,0,0,0,0,-1,1980,1730,0,0
763,-706,0,0,0,0,0,0,0,0,0,-1,1987,1730,0,0
770,-706,0,0,0,0,0,0,0,0,0,-1,1994,1730,0,0
777,-706,0,0,0,0,0,0,0,0,0,-1,2001,1730,0,0
784,-706,0,0,0,0,0,0,0,0,0,-1,2008,1730,0,0
791,-706,0,0,0,0,0,0,0,0,0,-1,2015,1730,0,0
798,-706,0,0,0,0,0,0,0,0,0,-1,2022,1730,0,0
805,-706,0,0,0,0,0,0,0,0,0,-1,2029,1730,0,0
812,-706,0,0,0,0,0,0,0,0,0,-1,2036,1730,0,0
-700,-713,0,0,0,0,0,0,0,0,0,-1,524,1737,0,0
-693,-713,0,0,0,0,0,0,0,0,0,-1,531,1737,0,0
-686,-713,0,0,0,0,0,0,0,0,0,-1,538,1737,0,0
-679,-713,0,0,0,0,0,0,0,0,0,-1,545,1737,0,0
-672,-713,0,0,0,0,0,0,0,0,0,-1,552,1737,0,0
-665,-713,0,0,0,0,0,0,0,0,0,-1,559,1737,0,0
-658,-713,0,0,0,0,0,0,0,0,0,-1,566,1737,0,0
-651,-713,0,0,0,0,0,0,0,0,0,-1,573,1737,0,0
-644,-713,0,0,0,0,0,0,0,0,0,-1,580,1737,0,0
-637,-713,0,0,0,0,0,0,0,0,0,-1,587,1737,0,0
-630,-713,0,0,0,0,0,0,0,0,0,-1,594,1737,0,0
-623,-713,0,0,0,0,0,0,0,0,0,-1,601,1737,0,0
-616,-713,0,0,0,0,0,0,0,0,0,-1,608,1737,0,0
-609,-713,0,0,0,0,0,0,0,0,0,-1,615,1737,0,0
-602,-713,0,0,0,0,0,0,0,0,0,-1,622,1737,0,0
-595,-713,0,0,0,0,0,0,0,0,0,-1,629,1737,0,0
-588,-713,0,0,0,0,0,0,0,0,0,-1,636,1737,0,0
-581,-713,0,0,0,0,0,0,0,0,0,-1,643,1737,0,0
-574,-713,0,0,0,0,0,0,0,0,0,-1,650,1737,0,0
-567,-713,0,0,0,0,0,0,0,0,0,-1,657,1737,0,0
-560,-713,0,0,0,0,0,0,0,0,0,-1,664,1737,0,0
-553,-713,0,0,0,0,0,0,0,0,0,-1,671,1737,0,0
-546,-713,0,0,0,0,0,0,0,0,0,-1,678,1737,0,0
-539,-713,0,0,0,0,0,0,0,0,0,-1,685,1737,0,0
-532,-713,0,0,0,0,0,0,0,0,0,-1,692,1737,0,0
-525,-713,0,0,0,0,0,0,0,0,0,-1,699,1737,0,0
-518,-713,0,0,0,0,0,0,0,0,0,-1,706,1737,0,0
-511,-713,0,0,0,0,0,0,0,0,0,-1,713,1737,0,0
-504,-713,0,0,0,0,0,0,0,0,0,-1,720,1737,0,0
-497,-713,0,0,0,0,0,0,0,0,0,-1,727,1737,0,0
-490,-713,0,0,0,0,0,0,0,0,0,-1,734,1737,0,0
-483,-713,0,0,0,0,0,0,0,0,0,-1,741,1737,0,0
-476,-713,0,0,0,0,0,0,0,0,0,-1,748,1737,0,0
-469,-713,0,0,0,0,0,0,0,0,0,-1,755,1737,0,0
-462,-713,0,0,0,0,0,0,0,0,0,-1,762,1737,0,0
-455,-713,0,0,0,0,0,0,0,0,0,-1,769,1737,0,0
-448,-713,0,0,0,0,0,0,0,0,0,-1,776,1737,0,0
-441,-713,0,0,0,0,0,0,0,0,0,-1,783,1737,0,0
-434,-713,0,0,0,0,0,0,0,0,0,-1,790,1737,0,0
-427,-713,0,0,0,0,0,0,0,0,0,-1,797,1737,0,0
-420,-713,0,0,0,0,0,0,0,0,0,-1,804,1737,0,0
-413,-713,0,0,0,0,0,0,0,0,0,-1,811,1737,0,0
-406,-713,0,0,0,0,0,0,0,0,0,-1,818,1737,0,0
-399,-713,0,0,0,0,0,0,0,0,0,-1,825,1737,0,0
-392,-713,0,0,0,0,0,0,0,0,0,-1,832,1737,0,0
-385,-713,0,0,0,0,0,0,0,0,0,-1,839,1737,0,0
-378,-713,0,0,0,0,0,0,0,0,0,-1,846,1737,0,0
-371,-713,0,0,0,0,0,0,0,0,0,-1,853,1737,0,0
-364,-713,0,0,0,0,0,0,0,0,0,-1,860,1737,0,0
-357,-713,0,0,0,0,0,0,0,0,0,-1,867,1737,0,0
-350,-713,0,0,0,0,0,0,0,0,0,-1,874,1737,0,0
-343,-713,0,0,0,0,0,0,0,0,0,-1,881,1737,0,0
-336,-713,0,0,0,0,0,0,0,0,0,-1,888,1737,0,0
-329,-713,0,0,0,0,0,0,0,0,0,-1,895,1737,0,0
-322,-713,0,0,0,0,0,0,0,0,0,-1,902,1737,0,0
-315,-713,0,0,0,0,0,0,0,0,0,-1,909,1737,0,0
-308,-713,0,0,0,0,0,0,0,0,0,-1,916,1737,0,0
-301,-713,0,0,0,0,0,0,0,0,0,-1,923,1737,0,0
-294,-713,7.17883,22.0453,0,0,0,0,0,0,0,-1,930,1737,7.17881,-22.0453
-287,-713,11.8916,21.5834,0,0,0,0,0,0,0,-1,937,1737,11.8916,-21.5833
-280,-713,10.2786,21.3551,0,0,0,0,0,0,0,-1,944,1737,10.2787,-21.3551
-273,-713,11.1981,23.8683,0,0,0,0,0,0,0,-1,951,1737,11.198,-23.8683
-266,-713,3.17981,19.8851,0,0,0,0,0,0,0,-1,958,1737,3.17983,-19.8851
-259,-713,3.5921,19.6868,0,0,0,0,0,0,0,-1,965,1737,3.59207,-19.6868
-252,-713,4.55469,20.5758,0,0,0,0,0,0,0,-1,972,1737,4.55466,-20.5758
-245,-713,3.89014,25.9825,0,0,0,0,0,0,0,-1,979,1737,3.89013,-25.9826
-238,-713,6.62506,30.5463,0,0,0,0,0,0,0,-1,986,1737,6.62509,-30.5462
-231,-713,8.23462,31.5148,0,0,0,0,0,0,0,-1,993,1737,8.23462,-31.5148
-224,-713,7.59491,25.9907,0,0,0,0,0,0,0,-1,1000,1737,7.59488,-25.9908
-217,-713,8.44885,35.9192,0,0,0,0,0,0,0,-1,1007,1737,8.44885,-35.9192
-210,-713,8.51379,36.3276,0,0,0,0,0,0,0,-1,1014,1737,8.51377,-36.3277
-203,-713,8.42407,36.7911,0,0,0,0,0,0,0,-1,1021,1737,8.42411,-36.7911
-196,-713,8.24585,37.2225,0.0023651,-0.0246008,0.00700166,0.00407469,-0.0263104,0.239483,0.0190444,0.0469201,1028,1737,8.2459,-37.2225
-189,-713,8.25842,37.6012,0.00231374,-0.0240016,0.0066734,0.00390932,-0.0255972,0.23469,0.0185061,0.0400033,1035,1737,8.25838,-37.6012
-182,-713,8.24292,37.863,0.00188753,-0.0223408,0.00599445,0.00328952,-0.0237428,0.229751,0.0170313,0.0279832,1042,1737,8.24294,-37.863
-175,-713,8.41846,38.3315,0,0,0,0,0,0,0,-1,1049,1737,8.41843,-38.3315
-168,-713,8.37988,38.6444,0,0,0,0,0,0,0,-1,1056,1737,8.37986,-38.6444
-161,-713,8.39648,38.9136,-0.000185408,-0.0136432,0.00412536,0.000978515,-0.0148071,0.274991,0.0102132,0.0174232,1063,1737,8.39655,-38.9135
-154,-713,8.29541,39.2909,-0.000860438,-0.0104114,0.00354094,0.000309121,-0.0115809,0.319015,0.00782569,0.0127757,1070,1737,8.29542,-39.2908
-147,-713,8.27173,39.632,-0.00133792,-0.00730806,0.00303063,-6.91265e-05,-0.00857685,0.396486,0.005695,0.0187489,1077,1737,8.27167,-39.6319
-140,-713,8.28333,39.9604,-0.00165519,-0.00457203,0.00254976,-0.000176213,-0.006051,0.525616,0.00397656,0.017431,1084,1737,8.28332,-39.9605
-133,-713,8.24548,40.2229,-0.00206696,-0.00179513,0.00207624,0.000149638,-0.00401173,0.818083,0.00272573,0.0105435,1091,1737,8.24554,-40.2229
-126,-713,8.2345,40.5026,-0.00207271,0.000117365,0.00191581,0.00122901,-0.00318435,1.04503,0.00263009,0.0157689,1098,1737,8.23446,-40.5025
-119,-713,8.21216,40.7858,-0.00185524,0.00133993,0.00176892,0.00212591,-0.00264122,1.15267,0.00275766,0.0267421,1105,1737,8.21214,-40.7857
-112,-713,8.19141,41.1217,-0.0014371,0.00195452,0.00176786,0.00270843,-0.00219101,1.1677,0.00283394,0.0143141,1112,1737,8.19139,-41.1217
-105,-713,8.18726,41.3783,-0.000983042,0.00206141,0.00167533,0.00280279,-0.00172442,1.15417,0.00263838,0.0110224,1119,1737,8.18731,-41.3783
-98,-713,8.15796,41.6211,-0.000526938,0.00190516,0.00154331,0.00265395,-0.00127572,1.11907,0.00231484,0.0103156,1126,1737,8.15799,-41.6211
-91,-713,8.15271,41.8644,-4.61896e-05,0.00171481,0.00139731,0.0024859,-0.000817283,1.06654,0.00198655,0.0103219,1133,1737,8.15275,-41.8644
-84,-713,8.15417,42.1,0.000340647,0.00147971,0.00118455,0.00222453,-0.000404171,1.00948,0.00163449,0.00993615,1140,1737,8.15413,-42.1
-77,-713,8.16028,42.3407,0.000736661,0.00134141,0.00107083,0.00215174,-7.36701e-05,0.923002,0.00145967,0.0122094,1147,1737,8.16026,-42.3408
-70,-713,8.14893,42.5645,0.00103052,0.0010965,0.000777608,0.00184182,0.000285202,0.806597,0.00114471,0.0141343,1154,1737,8.14896,-42.5645
-63,-713,8.13855,42.7771,0.00145436,0.000655939,0.000544594,0.00173039,0.000379908,0.469117,0.00105012,0.0133516,1161,1737,8.13859,-42.7772
-56,-713,8.1676,42.981,0.00199039,0.000514956,0.000550343,0.00217306,0.000332291,0.32047,0.00135163,0.0131078,1168,1737,8.16761,-42.981
-49,-713,8.14209,43.183,0.00250765,0.00035466,0.000614644,0.00267076,0.000191547,0.2594,0.00172022,0.0160181,1175,1737,8.14205,-43.183
-42,-713,8.16797,43.309,0.00328504,0.000165226,0.000739561,0.00345147,-1.20979e-06,0.221359,0.00230139,0.018306,1182,1737,8.16796,-43.309
-35,-713,8.20801,43.4526,0.00414154,-4.49137e-05,0.00096442,0.00435303,-0.000256401,0.215872,0.00299115,0.0150022,1189,1737,8.20799,-43.4527
-28,-713,8.21179,43.6254,0.00494398,-0.0002446,0.00127667,0.0052411,-0.000541718,0.228658,0.00368792,0.0133426,1196,1737,8.2118,-43.6254
-21,-713,8.18652,43.7852,0.00564442,4.37474e-05,0.00177058,0.00615722,-0.000469047,0.281906,0.00426976,0.00988494,1203,1737,8.18658,-43.7852
-14,-713,8.21106,43.8864,0.00616182,0.000586603,0.00240391,0.00705518,-0.000306759,0.355812,0.00480897,0.0110227,1210,1737,8.21104,-43.8863
-7,-713,8.25867,44.0234,0.00645865,0.00149674,0.00312542,0.00796811,-1.27186e-05,0.449924,0.00531632,0.00952747,1217,1737,8.25865,-44.0235
0,-713,8.28406,44.1576,0.00670337,0.00267989,0.00392102,0.00909862,0.000284642,0.548375,0.00597313,0.0136173,1224,1737,8.28401,-44.1576
7,-713,8.30029,44.2476,0.0067276,0.00405329,0.0046407,0.0102199,0.000560949,0.645129,0.00663422,0.0169654,1231,1737,8.30033,-44.2476
14,-713,8.31824,44.3414,0.00660775,0.00553392,0.00529585,0.0113938,0.000747834,0.734879,0.00735929,0.012836,1238,1737,8.31821,-44.3414
21,-713,8.33264,44.4067,0.00635767,0.00718371,0.00567353,0.0124592,0.00108215,0.821733,0.00796997,0.0111024,1245,1737,8.33267,-44.4067
28,-713,8.34021,44.4722,0.00599925,0.00869391,0.00568268,0.0131868,0.00150636,0.901796,0.00833457,0.0119303,1252,1737,8.34022,-44.4722
35,-713,8.35376,44.5258,0.00555806,0.0100064,0.00552314,0.0137364,0.00182806,0.976812,0.00861313,0.0114621,1259,1737,8.35381,-44.5258
42,-713,8.38171,44.579,0.00478122,0.0113353,0.00517152,0.0141807,0.00193588,1.0678,0.00887912,0.0106074,1266,1737,8.38175,-44.5789
49,-713,8.43018,44.5861,0.00401635,0.0121104,0.00444719,0.0140764,0.0020504,1.15456,0.00878093,0.011349,1273,1737,8.43014,-44.586
56,-713,8.47302,44.5928,0.00352421,0.0126044,0.00377582,0.0139693,0.00215929,1.22392,0.00868309,0.012133,1280,1737,8.47299,-44.5928
63,-713,8.47803,44.6245,0.00282398,0.0131165,0.00295445,0.0139043,0.00203621,1.31022,0.00867084,0.0117505,1287,1737,8.47797,-44.6246
70,-713,8.49866,44.6284,0.00217704,0.0130453,0.00183038,0.0133453,0.00187706,1.40835,0.00834188,0.0115117,1294,1737,8.49863,-44.6284
77,-713,8.52881,44.6113,0.00183557,0.0126215,0.00076258,0.0126752,0.00178192,1.50056,0.00792321,0.011986,1301,1737,8.52886,-44.6113
84,-713,8.5647,44.6125,0.00156593,0.0116576,-0.000141296,0.0116595,0.00156395,-1.5568,0.00730772,0.0121939,1308,1737,8.56475,-44.6126
91,-713,8.57959,44.582,0.00154777,0.010696,-0.000930641,0.0107897,0.00145406,-1.47044,0.00676079,0.0124952,1315,1737,8.57965,-44.582
98,-713,8.5863,44.5294,0.00154238,0.0095867,-0.00148365,0.00985161,0.00127747,-1.3941,0.00618604,0.0124846,1322,1737,8.58629,-44.5294
105,-713,8.62024,44.4824,0.0015502,0.00864629,-0.00177104,0.00906375,0.00113274,-1.33931,0.00570255,0.0140395,1329,1737,8.62025,-44.4824
112,-713,8.66016,44.4313,0.00173971,0.00767695,-0.00185993,0.00821147,0.00120518,-1.29095,0.00512009,0.0131352,1336,1737,8.66021,-44.4312
119,-713,8.67712,44.3542,0.00192112,0.00656104,-0.00193503,0.0072621,0.00122006,-1.22321,0.00449031,0.0127473,1343,1737,8.67712,-44.3542
126,-713,8.66809,44.2732,0.0021479,0.00520626,-0.00191192,0.00612531,0.00122884,-1.12271,0.0037418,0.0130741,1350,1737,8.66808,-44.2732
133,-713,8.67859,44.137,0.0023875,0.00395471,-0.00173403,0.00507397,0.00126824,-0.997614,0.00304913,0.0125372,1357,1737,8.67853,-44.137
140,-713,8.74573,43.9994,0.00262019,0.00292732,-0.00145376,0.0042356,0.00131191,-0.838019,0.00250375,0.0133566,1364,1737,8.74572,-43.9994
147,-713,8.76147,43.8783,0.00283712,0.00187269,-0.00123864,0.0036841,0.00102572,-0.599769,0.00219553,0.0144132,1371,1737,8.76141,-43.8783
154,-713,8.75342,43.7677,0.00287534,0.00125077,-0.000859866,0.00324593,0.000880187,-0.406922,0.00193835,0.0148457,1378,1737,8.75337,-43.7677
161,-713,8.76453,43.604,0.00259251,0.000724081,-0.000704057,0.0028281,0.000488487,-0.322912,0.00174551,0.0105824,1385,1737,8.76455,-43.6041
168,-713,8.77051,43.436,0.00239951,0.000325711,-0.000292749,0.00244005,0.000285177,-0.137584,0.00154046,0.0095423,1392,1737,8.77048,-43.4361
175,-713,8.79785,43.2834,0.00221117,0.000413042,0.000231256,0.00224044,0.000383777,0.12588,0.00138356,0.0123356,1399,1737,8.79789,-43.2834
182,-713,8.80725,43.1112,0.00168582,0.000503574,0.000342237,0.00177774,0.00041165,0.262403,0.00107456,0.0112125,1406,1737,8.80727,-43.1112
189,-713,8.8125,42.9282,0.00133948,0.000696279,0.000198407,0.00139576,0.000640001,0.27639,0.000806764,0.0105454,1413,1737,8.81244,-42.9283
196,-713,8.83508,42.7345,0.00101087,0.00084235,0.000107039,0.00106284,0.000790386,0.451952,0.000637454,0.0128383,1420,1737,8.83508,-42.7345
203,-713,8.823,42.527,0.000891193,0.0011951,-0.000223628,0.00131352,0.000772779,-1.08382,0.000762294,0.0181956,1427,1737,8.82302,-42.527
210,-713,8.80957,42.2778,0.000783491,0.00151349,-0.000584699,0.00183777,0.000459218,-1.06443,0.0011044,0.0146513,1434,1737,8.8096,-42.2778
217,-713,8.81531,42.054,0.000642769,0.0017733,-0.000894304,0.00226601,0.000150062,-1.06723,0.00146322,0.0112364,1441,1737,8.81527,-42.054
224,-713,8.8125,41.8435,0.000709369,0.00193163,-0.00128446,0.00274293,-0.000101935,-1.00744,0.00186353,0.0121029,1448,1737,8.81246,-41.8435
231,-713,8.80188,41.5992,0.000671171,0.0021881,-0.00164927,0.00324495,-0.000385679,-1.00092,0.00230265,0.011386,1455,1737,8.80182,-41.5992
238,-713,8.78516,41.3315,0.000710582,0.0024181,-0.00198622,0.00372627,-0.000597592,-0.988381,0.00270547,0.00866662,1462,1737,8.78521,-41.3316
245,-713,8.80542,41.0602,0.000751564,0.00258999,-0.00236395,0.00420715,-0.000865601,-0.970825,0.00313341,0.0111256,1469,1737,8.8054,-41.0601
252,-713,8.79822,40.776,0.000674526,0.0027693,-0.00262661,0.00454965,-0.00110582,-0.975117,0.0034611,0.0118765,1476,1737,8.79821,-40.776
259,-713,8.78711,40.4939,0.000540306,0.00279603,-0.00269186,0.00458677,-0.00125043,-0.983783,0.00354886,0.0116902,1483,1737,8.78707,-40.4939
266,-713,8.74487,40.228,0.000376614,0.0025599,-0.0026427,0.00432755,-0.00139104,-0.981263,0.00344367,0.0104288,1490,1737,8.74487,-40.2281
273,-713,8.71216,39.9526,0.000218138,0.00286583,-0.00275794,0.00460119,-0.00151723,-1.00916,0.00367901,0.00894845,1497,1737,8.71219,-39.9527
280,-713,8.69092,39.6486,-4.62857e-05,0.00302504,-0.00274351,0.00463344,-0.00165468,-1.04054,0.00376378,0.0102352,1504,1737,8.69092,-39.6486
287,-713,8.6637,39.3506,-0.000303705,0.00361461,-0.00271603,0.00500435,-0.00169345,-1.09785,0.00402138,0.0113348,1511,1737,8.66371,-39.3506
294,-713,8.66492,39.0634,-0.000471873,0.00456162,-0.00250608,0.00559656,-0.00150681,-1.17916,0.00432178,0.0156389,1518,1737,8.66493,-39.0634
301,-713,8.63538,38.7257,-0.000366267,0.00487649,-0.00211973,0.0056263,-0.00111607,-1.23081,0.00417294,0.0177763,1525,1737,8.63543,-38.7257
308,-713,8.64246,38.3713,-0.000236559,0.00505929,-0.00191603,0.0056798,-0.000857072,-1.2576,0.00410218,0.0209123,1532,1737,8.64245,-38.3713
315,-713,8.58459,38.0001,0.000167018,0.00538613,-0.00191735,0.00601479,-0.000461635,-1.25396,0.00417226,0.0285206,1539,1737,8.58461,-38.0001
322,-713,8.68152,37.3662,0.000789401,0.00599394,-0.00207325,0.00671885,6.44838e-05,-1.23443,0.0044579,0.0409412,1546,1737,8.68154,-37.3662
329,-713,8.70776,37.1259,0,0,0,0,0,0,0,-1,1553,1737,8.70781,-37.1258
336,-713,8.72913,36.58,0,0,0,0,0,0,0,-1,1560,1737,8.72919,-36.5799
343,-713,8.17542,36.1342,0,0,0,0,0,0,0,-1,1567,1737,8.17547,-36.1341
350,-713,8.3429,36.9088,0,0,0,0,0,0,0,-1,1574,1737,8.34285,-36.9088
357,-713,8.06165,35.0448,0,0,0,0,0,0,0,-1,1581,1737,8.06159,-35.0448
364,-713,7.35474,20.9537,0,0,0,0,0,0,0,-1,1588,1737,7.35472,-20.9537
371,-713,3.07507,25.4108,0,0,0,0,0,0,0,-1,1595,1737,3.07502,-25.4107
378,-713,4.21838,25.306,0,0,0,0,0,0,0,-1,1602,1737,4.21837,-25.306
385,-713,5.078,25.3104,0,0,0,0,0,0,0,-1,1609,1737,5.07795,-25.3104
392,-713,5.92114,25.3118,0,0,0,0,0,0,0,-1,1616,1737,5.92112,-25.3118
399,-713,3.14368,25.2808,0,0,0,0,0,0,0,-1,1623,1737,3.14369,-25.2808
406,-713,1.82678,26.7354,0,0,0,0,0,0,0,-1,1630,1737,1.82679,-26.7354
413,-713,3.24731,18.2787,0,0,0,0,0,0,0,-1,1637,1737,3.24726,-18.2787
420,-713,0,0,0,0,0,0,0,0,0,-1,1644,1737,0,0
427,-713,0,0,0,0,0,0,0,0,0,-1,1651,1737,0,0
434,-713,0,0,0,0,0,0,0,0,0,-1,1658,1737,0,0
441,-713,0,0,0,0,0,0,0,0,0,-1,1665,1737,0,0
448,-713,0,0,0,0,0,0,0,0,0,-1,1672,1737,0,0
455,-713,0,0,0,0,0,0,0,0,0,-1,1679,1737,0,0
462,-713,0,0,0,0,0,0,0,0,0,-1,1686,1737,0,0
469,-713,0,0,0,0,0,0,0,0,0,-1,1693,1737,0,0
476,-713,0,0,0,0,0,0,0,0,0,-1,1700,1737,0,0
483,-713,0,0,0,0,0,0,0,0,0,-1,1707,1737,0,0
490,-713,0,0,0,0,0,0,0,0,0,-1,1714,1737,0,0
497,-713,0,0,0,0,0,0,0,0,0,-1,1721,1737,0,0
504,-713,0,0,0,0,0,0,0,0,0,-1,1728,1737,0,0
511,-713,0,0,0,0,0,0,0,0,0,-1,1735,1737,0,0
518,-713,0,0,0,0,0,0,0,0,0,-1,1742,1737,0,0
525,-713,0,0,0,0,0,0,0,0,0,-1,1749,1737,0,0
532,-713,0,0,0,0,0,0,0,0,0,-1,1756,1737,0,0
539,-713,0,0,0,0,0,0,0,0,0,-1,1763,1737,0,0
546,-713,0,0,0,0,0,0,0,0,0,-1,1770,1737,0,0
553,-713,0,0,0,0,0,0,0,0,0,-1,1777,1737,0,0
560,-713,0,0,0,0,0,0,0,0,0,-1,1784,1737,0,0
567,-713,0,0,0,0,0,0,0,0,0,-1,1791,1737,0,0
574,-713,0,0,0,0,0,0,0,0,0,-1,1798,1737,0,0
581,-713,0,0,0,0,0,0,0,0,0,-1,1805,1737,0,0
588,-713,0,0,0,0,0,0,0,0,0,-1,1812,1737,0,0
595,-713,0,0,0,0,0,0,0,0,0,-1,1819,1737,0,0
602,-713,0,0,0,0,0,0,0,0,0,-1,1826,1737,0,0
609,-713,0,0,0,0,0,0,0,0,0,-1,1833,1737,0,0
616,-713,0,0,0,0,0,0,0,0,0,-1,1840,1737,0,0
623,-713,0,0,0,0,0,0,0,0,0,-1,1847,1737,0,0
630,-713,0,0,0,0,0,0,0,0,0,-1,1854,1737,0,0
637,-713,0,0,0,0,0,0,0,0,0,-1,1861,1737,0,0
644,-713,0,0,0,0,0,0,0,0,0,-1,1868,1737,0,0
651,-713,0,0,0,0,0,0,0,0,0,-1,1875,1737,0,0
658,-713,0,0,0,0,0,0,0,0,0,-1,1882,1737,0,0
665,-713,0,0,0,0,0,0,0,0,0,-1,1889,1737,0,0
672,-713,0,0,0,0,0,0,0,0,0,-1,1896,1737,0,0
679,-713,0,0,0,0,0,0,0,0,0,-1,1903,1737,0,0
686,-713,0,0,0,0,0,0,0,0,0,-1,1910,1737,0,0
693,-713,0,0,0,0,0,0,0,0,0,-1,1917,1737,0,0
700,-713,0,0,0,0,0,0,0,0,0,-1,1924,1737,0,0
707,-713,0,0,0,0,0,0,0,0,0,-1,1931,1737,0,0
714,-713,0,0,0,0,0,0,0,0,0,-1,1938,1737,0,0
721,-713,0,0,0,0,0,0,0,0,0,-1,1945,1737,0,0
728,-713,0,0,0,0,0,0,0,0,0,-1,1952,1737,0,0
735,-713,0,0,0,0,0,0,0,0,0,-1,1959,1737,0,0
742,-713,0,0,0,0,0,0,0,0,0,-1,1966,1737,0,0
749,-713,0,0,0,0,0,0,0,0,0,-1,1973,1737,0,0
756,-713,0,0,0,0,0,0,0,0,0,-1,1980,1737,0,0
763,-713,0,0,0,0,0,0,0,0,0,-1,1987,1737,0,0
770,-713,0,0,0,0,0,0,0,0,0,-1,1994,1737,0,0
777,-713,0,0,0,0,0,0,0,0,0,-1,2001,1737,0,0
784,-713,0,0,0,0,0,0,0,0,0,-1,2008,1737,0,0
791,-713,0,0,0,0,0,0,0,0,0,-1,2015,1737,0,0
798,-713,0,0,0,0,0,0,0,0,0,-1,2022,1737,0,0
805,-713,0,0,0,0,0,0,0,0,0,-1,2029,1737,0,0
812,-713,0,0,0,0,0,0,0,0,0,-1,2036,1737,0,0
-700,-720,0,0,0,0,0,0,0,0,0,-1,524,1744,0,0
-693,-720,0,0,0,0,0,0,0,0,0,-1,531,1744,0,0
-686,-720,0,0,0,0,0,0,0,0,0,-1,538,1744,0,0
-679,-720,0,0,0,0,0,0,0,0,0,-1,545,1744,0,0
-672,-720,0,0,0,0,0,0,0,0,0,-1,552,1744,0,0
-665,-720,0,0,0,0,0,0,0,0,0,-1,559,1744,0,0
-658,-720,0,0,0,0,0,0,0,0,0,-1,566,1744,0,0
-651,-720,0,0,0,0,0,0,0,0,0,-1,573,1744,0,0
-644,-720,0,0,0,0,0,0,0,0,0,-1,580,1744,0,0
-637,-720,0,0,0,0,0,0,0,0,0,-1,587,1744,0,0
-630,-720,0,0,0,0,0,0,0,0,0,-1,594,1744,0,0
-623,-720,0,0,0,0,0,0,0,0,0,-1,601,1744,0,0
-616,-720,0,0,0,0,0,0,0,0,0,-1,608,1744,0,0
-609,-720,0,0,0,0,0,0,0,0,0,-1,615,1744,0,0
-602,-720,0,0,0,0,0,0,0,0,0,-1,622,1744,0,0
-595,-720,0,0,0,0,0,0,0,0,0,-1,629,1744,0,0
-588,-720,0,0,0,0,0,0,0,0,0,-1,636,1744,0,0
-581,-720,0,0,0,0,0,0,0,0,0,-1,643,1744,0,0
-574,-720,0,0,0,0,0,0,0,0,0,-1,650,1744,0,0
-567,-720,0,0,0,0,0,0,0,0,0,-1,657,1744,0,0
-560,-720,0,0,0,0,0,0,0,0,0,-1,664,1744,0,0
-553,-720,0,0,0,0,0,0,0,0,0,-1,671,1744,0,0
-546,-720,0,0,0,0,0,0,0,0,0,-1,678,1744,0,0
-539,-720,0,0,0,0,0,0,0,0,0,-1,685,1744,0,0
-532,-720,0,0,0,0,0,0,0,0,0,-1,692,1744,0,0
-525,-720,0,0,0,0,0,0,0,0,0,-1,699,1744,0,0
-518,-720,0,0,0,0,0,0,0,0,0,-1,706,1744,0,0
-511,-720,0,0,0,0,0,0,0,0,0,-1,713,1744,0,0
-504,-720,0,0,0,0,0,0,0,0,0,-1,720,1744,0,0
-497,-720,0,0,0,0,0,0,0,0,0,-1,727,1744,0,0
-490,-720,0,0,0,0,0,0,0,0,0,-1,734,1744,0,0
-483,-720,0,0,0,0,0,0,0,0,0,-1,741,1744,0,0
-476,-720,0,0,0,0,0,0,0,0,0,-1,748,1744,0,0
-469,-720,0,0,0,0,0,0,0,0,0,-1,755,1744,0,0
-462,-720,0,0,0,0,0,0,0,0,0,-1,762,1744,0,0
-455,-720,0,0,0,0,0,0,0,0,0,-1,769,1744,0,0
-448,-720,0,0,0,0,0,0,0,0,0,-1,776,1744,0,0
-441,-720,0,0,0,0,0,0,0,0,0,-1,783,1744,0,0
-434,-720,0,0,0,0,0,0,0,0,0,-1,790,1744,0,0
-427,-720,0,0,0,0,0,0,0,0,0,-1,797,1744,0,0
-420,-720,0,0,0,0,0,0,0,0,0,-1,804,1744,0,0
-413,-720,0,0,0,0,0,0,0,0,0,-1,811,1744,0,0
-406,-720,0,0,0,0,0,0,0,0,0,-1,818,1744,0,0
-399,-720,0,0,0,0,0,0,0,0,0,-1,825,1744,0,0
-392,-720,0,0,0,0,0,0,0,0,0,-1,832,1744,0,0
-385,-720,0,0,0,0,0,0,0,0,0,-1,839,1744,0,0
-378,-720,0,0,0,0,0,0,0,0,0,-1,846,1744,0,0
-371,-720,0,0,0,0,0,0,0,0,0,-1,853,1744,0,0
-364,-720,0,0,0,0,0,0,0,0,0,-1,860,1744,0,0
-357,-720,0,0,0,0,0,0,0,0,0,-1,867,1744,0,0
-350,-720,0,0,0,0,0,0,0,0,0,-1,874,1744,0,0
-343,-720,0,0,0,0,0,0,0,0,0,-1,881,1744,0,0
-336,-720,0,0,0,0,0,0,0,0,0,-1,888,1744,0,0
-329,-720,0,0,0,0,0,0,0,0,0,-1,895,1744,0,0
-322,-720,0,0,0,0,0,0,0,0,0,-1,902,1744,0,0
-315,-720,0,0,0,0,0,0,0,0,0,-1,909,1744,0,0
-308,-720,0,0,0,0,0,0,0,0,0,-1,916,1744,0,0
-301,-720,0,0,0,0,0,0,0,0,0,-1,923,1744,0,0
-294,-720,0,0,0,0,0,0,0,0,0,-1,930,1744,0,0
-287,-720,0,0,0,0,0,0,0,0,0,-1,937,1744,0,0
-280,-720,6.46796,22.6417,0,0,0,0,0,0,0,-1,944,1744,6.46793,-22.6417
-273,-720,8.54633,13.262,0,0,0,0,0,0,0,-1,951,1744,8.54636,-13.2619
-266,-720,7.28027,13.3165,0,0,0,0,0,0,0,-1,958,1744,7.28026,-13.3166
-259,-720,3.70563,18.6372,0,0,0,0,0,0,0,-1,965,1744,3.70564,-18.6372
-252,-720,4.00989,18.5059,0,0,0,0,0,0,0,-1,972,1744,4.00988,-18.5058
-245,-720,7.05634,33.8489,0,0,0,0,0,0,0,-1,979,1744,7.05634,-33.8489
-238,-720,5.02216,24.1455,0,0,0,0,0,0,0,-1,986,1744,5.02217,-24.1455
-231,-720,7.35455,28.3225,0,0,0,0,0,0,0,-1,993,1744,7.35453,-28.3225
-224,-720,7.65991,19.4061,0,0,0,0,0,0,0,-1,1000,1744,7.6599,-19.4061
-217,-720,4.77637,30.7196,0,0,0,0,0,0,0,-1,1007,1744,4.77636,-30.7197
-210,-720,8.31781,34.7283,0,0,0,0,0,0,0,-1,1014,1744,8.31781,-34.7282
-203,-720,7.89978,34.8447,0,0,0,0,0,0,0,-1,1021,1744,7.89975,-34.8447
-196,-720,8.20789,37.1249,0,0,0,0,0,0,0,-1,1028,1744,8.20787,-37.1249
-189,-720,8.35962,37.8461,0.00462964,-0.0345131,0.00861575,0.00644214,-0.0363256,0.207347,0.0266255,0.0480965,1035,1744,8.35959,-37.8461
-182,-720,8.36633,38.2727,0.00360039,-0.0317668,0.00763228,0.00517715,-0.0333435,0.203725,0.0241405,0.0394147,1042,1744,8.36633,-38.2727
-175,-720,8.43018,38.6011,0.00248354,-0.0278477,0.00678073,0.0039304,-0.0292946,0.210225,0.020963,0.0387277,1049,1744,8.43023,-38.6011
-168,-720,8.55933,38.7921,0,0,0,0,0,0,0,-1,1056,1744,8.55928,-38.7921
-161,-720,8.53931,38.9449,-0.000139853,-0.0189456,0.00510024,0.0011543,-0.0202398,0.248499,0.013894,0.0372069,1063,1744,8.53935,-38.945
-154,-720,8.62988,39.3556,-0.00122814,-0.014413,0.00438557,9.73418e-05,-0.0157385,0.293507,0.0105249,0.0297122,1070,1744,8.62992,-39.3556
-147,-720,8.56543,39.7306,-0.00207845,-0.0101445,0.00376778,-0.00059228,-0.0116306,0.375705,0.00756406,0.0251364,1077,1744,8.56543,-39.7306
-140,-720,8.57336,40.0369,-0.00267587,-0.0064047,0.00321704,-0.000822031,-0.00825853,0.522777,0.00525316,0.0195246,1084,1744,8.57333,-40.0368
-133,-720,8.52502,40.2528,-0.00340786,-0.00262009,0.00265146,-0.000333418,-0.00569453,0.859136,0.00369024,0.0142385,1091,1744,8.52505,-40.2528
-126,-720,8.50134,40.5293,-0.00356271,1.52722e-05,0.00251304,0.00131106,-0.00485849,1.09473,0.00375314,0.0131822,1098,1744,8.50129,-40.5293
-119,-720,8.45996,40.8151,-0.00339286,0.00177373,0.00237499,0.00269956,-0.00431869,1.19909,0.00408777,0.0148431,1105,1744,8.45994,-40.8151
-112,-720,8.44006,41.0867,-0.00292374,0.0027577,0.00245779,0.00367336,-0.00383941,1.21417,0.00433785,0.0140871,1112,1744,8.44006,-41.0867
-105,-720,8.43762,41.3699,-0.00238242,0.00304681,0.00244169,0.00398335,-0.00331896,1.20454,0.0042218,0.0138837,1119,1744,8.4376,-41.3699
-98,-720,8.41077,41.6265,-0.00185108,0.00294824,0.0023535,0.00390973,-0.00281257,1.18295,0.00389831,0.010586,1126,1744,8.41073,-41.6264
-91,-720,8.38379,41.8661,-0.00128681,0.00277789,0.00224593,0.00377451,-0.00228343,1.15316,0.00353269,0.00917853,1133,1744,8.38379,-41.8661
-84,-720,8.36743,42.1019,-0.000842805,0.00246048,0.0020174,0.00341611,-0.00179843,1.12842,0.00305852,0.0105654,1140,1744,8.36742,-42.102
-77,-720,8.36023,42.3514,-0.00030172,0.00233651,0.00197086,0.00338897,-0.00135418,1.08031,0.0028212,0.0125807,1147,1744,8.36017,-42.3514
-70,-720,8.35266,42.5737,7.08697e-05,0.00192889,0.00163125,0.00287712,-0.000877358,1.04425,0.00226783,0.0119105,1154,1744,8.3526,-42.5737
-63,-720,8.33008,42.7676,0.000114464,0.00111753,0.00102086,0.0017534,-0.000521405,1.01373,0.00137607,0.0123079,1161,1744,8.33004,-42.7676
-56,-720,8.35986,42.9792,0.000148393,0.000791189,0.000633888,0.0011805,-0.00024092,1.02002,0.000878392,0.0137453,1168,1744,8.35989,-42.9793
-49,-720,8.33618,43.1737,0.000256474,0.00046662,0.000422762,0.000797171,-7.40768e-05,0.9072,0.000557782,0.0203107,1175,1744,8.33614,-43.1738
-42,-720,8.37073,43.304,0.000584088,0.000208675,0.000344154,0.000788397,4.36653e-06,0.535741,0.000524149,0.0216667,1182,1744,8.37068,-43.3039
-35,-720,8.39563,43.4446,0.00103783,-6.64867e-05,0.000347826,0.00113826,-0.000166909,0.281071,0.000820154,0.0180716,1189,1744,8.39561,-43.4446
-28,-720,8.36035,43.6328,0.00148146,-0.000322805,0.000407201,0.0015691,-0.000410448,0.211999,0.00120639,0.0114448,1196,1744,8.3603,-43.6328
-21,-720,8.33606,43.7917,0.00195646,-0.000329029,0.000638142,0.00212256,-0.000495136,0.254646,0.00160574,0.00981095,1203,1744,8.33607,-43.7917
-14,-720,8.3396,43.8943,0.00242648,-0.000143684,0.00101978,0.00278194,-0.000499145,0.335398,0.00204145,0.0116205,1210,1744,8.33958,-43.8942
-7,-720,8.37256,44.0438,0.00277875,0.000201275,0.00145955,0.00343709,-0.000457069,0.423735,0.00245796,0.0123663,1217,1744,8.37257,-44.0439
0,-720,8.37341,44.1866,0.00312534,0.00086299,0.00195613,0.00425382,-0.000265482,0.523253,0.00292838,0.0134148,1224,1744,8.37338,-44.1867
7,-720,8.38831,44.277,0.00334971,0.00178208,0.00242716,0.00511648,1.53088e-05,0.629217,0.00340589,0.0158111,1231,1744,8.38834,-44.277
14,-720,8.41626,44.3558,0.00348079,0.00282066,0.00284311,0.00601293,0.000288523,0.727611,0.00391599,0.0143683,1238,1744,8.41626,-44.3558
21,-720,8.40723,44.4229,0.00353982,0.00405248,0.00308403,0.00689081,0.000701481,0.82686,0.00437882,0.0117647,1245,1744,8.40717,-44.4228
28,-720,8.40637,44.4843,0.00349392,0.00510962,0.00308061,0.00748654,0.001117,0.91363,0.0046635,0.0122513,1252,1744,8.40641,-44.4843
35,-720,8.42261,44.54,0.00336867,0.00599649,0.00296674,0.00792725,0.00143791,0.993857,0.00487671,0.0118133,1259,1744,8.42264,-44.5401
42,-720,8.427,44.5804,0.00307301,0.00689828,0.00278117,0.00836101,0.00161028,1.08661,0.00512232,0.0116477,1266,1744,8.42705,-44.5805
49,-720,8.45715,44.5956,0.0026758,0.00740705,0.00231345,0.00835024,0.00173261,1.18367,0.00508858,0.0120235,1273,1744,8.45713,-44.5956
56,-720,8.48096,44.6127,0.00234907,0.00769962,0.00190475,0.00830842,0.00174026,1.26143,0.00505963,0.0105265,1280,1744,8.48093,-44.6127
63,-720,8.48059,44.6368,0.00188665,0.00781992,0.0014591,0.00815933,0.00154724,1.34225,0.00500418,0.0119547,1287,1744,8.48055,-44.6368
70,-720,8.51135,44.6423,0.00155843,0.00768006,0.000905797,0.00781128,0.00142722,1.42694,0.00480299,0.0128783,1294,1744,8.51132,-44.6423
77,-720,8.52356,44.6335,0.00136905,0.00721138,0.00033813,0.00723088,0.00134955,1.51318,0.00443964,0.0148881,1301,1744,8.52353,-44.6335
84,-720,8.53076,44.5924,0.00122434,0.00627639,-9.02299e-05,0.00627801,0.00122273,-1.55294,0.00384315,0.0158156,1308,1744,8.53077,-44.5924
91,-720,8.54138,44.5544,0.00124588,0.00542576,-0.000425129,0.00546856,0.00120308,-1.47046,0.0033182,0.0152991,1315,1744,8.5414,-44.5544
98,-720,8.5249,44.522,0.00127252,0.0045097,-0.00059639,0.00461608,0.00116614,-1.39428,0.00277169,0.0132402,1322,1744,8.52494,-44.522
105,-720,8.53625,44.4838,0.00128432,0.00372001,-0.000591243,0.00385594,0.00114839,-1.34481,0.00228609,0.0116964,1329,1744,8.53624,-44.4838
112,-720,8.57568,44.4137,0.00140713,0.0028859,-0.000550024,0.00306805,0.00122499,-1.25101,0.00178328,0.0103709,1336,1744,8.57567,-44.4137
119,-720,8.59338,44.3223,0.00149373,0.0020508,-0.000540547,0.00238036,0.00116418,-1.0233,0.00137441,0.0105111,1343,1744,8.59338,-44.3223
126,-720,8.59448,44.2369,0.00159015,0.0011443,-0.000477892,0.00189455,0.000839895,-0.567164,0.00109616,0.0112785,1350,1744,8.59445,-44.237
133,-720,8.59399,44.13,0.00165574,0.000537122,-0.00035384,0.00175826,0.000434593,-0.282037,0.00105751,0.0130179,1357,1744,8.59395,-44.13
140,-720,8.62146,44.0317,0.00163688,0.000173028,-0.000196137,0.00166271,0.000147203,-0.130911,0.00106281,0.0192818,1364,1744,8.6214,-44.0317
147,-720,8.62805,43.9144,0.00152971,-0.000160133,-9.63148e-05,0.00153518,-0.000165605,-0.0567514,0.00108288,0.018963,1371,1744,8.62804,-43.9144
154,-720,8.6156,43.762,0.00134477,-0.000290202,6.95421e-05,0.00134772,-0.000293155,0.042432,0.00101047,0.0126379,1378,1744,8.61555,-43.762
161,-720,8.63062,43.595,0.00104393,-0.000260236,0.000139936,0.00105878,-0.000275082,0.105696,0.000813206,0.0096585,1385,1744,8.63057,-43.595
168,-720,8.62854,43.4408,0.000686864,-0.000197546,0.000217084,0.000737276,-0.000247957,0.228176,0.000591747,0.00959833,1392,1744,8.62858,-43.4408
175,-720,8.62317,43.275,0.000318829,-9.67335e-05,0.000232153,0.000422606,-0.00020051,0.42037,0.000367294,0.0152662,1399,1744,8.62315,-43.275
182,-720,8.62817,43.1042,5.56549e-06,6.23801e-05,0.000111426,0.000148963,-8.10176e-05,0.910211,0.000134697,0.0149647,1406,1744,8.62818,-43.1042
189,-720,8.63928,42.9333,-0.000213858,0.000453334,-9.17632e-05,0.000465724,-0.000226248,-1.43658,0.000407407,0.0126248,1413,1744,8.63931,-42.9333
196,-720,8.65088,42.7313,-0.000391885,0.000788473,-0.000318622,0.000868989,-0.000472401,-1.32328,0.000785653,0.0148585,1420,1744,8.65084,-42.7314
203,-720,8.62708,42.495,-0.000259006,0.00168528,-0.000797188,0.00197034,-0.000544071,-1.22738,0.00152756,0.0178545,1427,1744,8.62708,-42.495
210,-720,8.60083,42.2849,-8.17881e-05,0.00238656,-0.00135862,0.00298788,-0.000683107,-1.15412,0.00225439,0.0148919,1434,1744,8.60085,-42.2849
217,-720,8.56946,42.0616,7.72752e-06,0.00289076,-0.00169916,0.0036775,-0.000779011,-1.13717,0.00274839,0.0127161,1441,1744,8.56943,-42.0616
224,-720,8.57214,41.8197,0.00028271,0.00306274,-0.00217889,0.00425723,-0.000911787,-1.06933,0.00318588,0.00943203,1448,1744,8.57219,-41.8197
231,-720,8.56616,41.5839,0.000355204,0.00341822,-0.00261852,0.00492021,-0.0011468,-1.05001,0.00372178,0.00998012,1455,1744,8.56615,-41.5839
238,-720,8.55151,41.3241,0.000515262,0.00370561,-0.00302322,0.00552869,-0.00130782,-1.02816,0.00419032,0.00909228,1462,1744,8.55149,-41.3241
245,-720,8.53003,41.0725,0.000664841,0.0039041,-0.00348792,0.00613009,-0.00156115,-1.00276,0.00469445,0.0115225,1469,1744,8.53004,-41.0725
252,-720,8.5249,40.7886,0.000651952,0.00409963,-0.00380415,0.00655229,-0.00180071,-0.998132,0.00507604,0.0109764,1476,1744,8.52495,-40.7886
259,-720,8.50684,40.509,0.000571494,0.00409177,-0.00385327,0.00656787,-0.00190461,-0.999641,0.00513263,0.00971399,1483,1744,8.50688,-40.509
266,-720,8.45007,40.2311,0.00046733,0.00373476,-0.00374614,0.00618793,-0.00198584,-0.991018,0.00492261,0.00827938,1490,1744,8.45013,-40.2311
273,-720,8.41772,39.9456,0.000376942,0.00405223,-0.0038533,0.00648365,-0.00205448,-1.0079,0.00514583,0.0134262,1497,1744,8.41771,-39.9455
280,-720,8.35913,39.6508,0.00016512,0.00421977,-0.00379429,0.00649439,-0.00210949,-1.03076,0.00517802,0.0179857,1504,1744,8.35913,-39.6507
287,-720,8.33179,39.3007,-3.50652e-05,0.00493416,-0.00372485,0.00692702,-0.00202793,-1.07953,0.00542192,0.0312729,1511,1744,8.33174,-39.3007
294,-720,8.43286,38.8903,-0.000143079,0.00609573,-0.00342093,0.00760596,-0.0016533,-1.15506,0.0057022,0.0361768,1518,1744,8.43281,-38.8903
301,-720,8.27246,38.5229,7.67716e-05,0.00657338,-0.00284504,0.00764314,-0.000992994,-1.21114,0.00545663,0.0393617,1525,1744,8.27241,-38.5229
308,-720,8.15173,38.3412,0.000293858,0.00671949,-0.00235708,0.0074914,-0.000478048,-1.25432,0.005161,0.0389713,1532,1744,8.15174,-38.3412
315,-720,8.15234,38.1248,0.000834946,0.00731149,-0.00209958,0.00793258,0.00021386,-1.28318,0.00521856,0.0406262,1539,1744,8.1523,-38.1248
322,-720,8.15918,37.9613,0,0,0,0,0,0,0,-1,1546,1744,8.1592,-37.9613
329,-720,9.15906,34.7668,0,0,0,0,0,0,0,-1,1553,1744,9.1591,-34.7669
336,-720,6.14148,26.5682,0,0,0,0,0,0,0,-1,1560,1744,6.14151,-26.5683
343,-720,6.78552,21.3625,0,0,0,0,0,0,0,-1,1567,1744,6.78551,-21.3625
350,-720,4.0741,11.1836,0,0,0,0,0,0,0,-1,1574,1744,4.07412,-11.1836
357,-720,6.90833,21.4504,0,0,0,0,0,0,0,-1,1581,1744,6.90827,-21.4505
364,-720,5.83777,24.1599,0,0,0,0,0,0,0,-1,1588,1744,5.83773,-24.1599
371,-720,5.46997,23.6176,0,0,0,0,0,0,0,-1,1595,1744,5.47001,-23.6176
378,-720,3.88257,25.5404,0,0,0,0,0,0,0,-1,1602,1744,3.88262,-25.5404
385,-720,4.63611,25.6746,0,0,0,0,0,0,0,-1,1609,1744,4.63612,-25.6746
392,-720,3.49377,23.5042,0,0,0,0,0,0,0,-1,1616,1744,3.4938,-23.5042
399,-720,2.37317,24.7166,0,0,0,0,0,0,0,-1,1623,1744,2.37317,-24.7166
406,-720,0,0,0,0,0,0,0,0,0,-1,1630,1744,0,0
413,-720,0,0,0,0,0,0,0,0,0,-1,1637,1744,0,0
420,-720,0,0,0,0,0,0,0,0,0,-1,1644,1744,0,0
427,-720,0,0,0,0,0,0,0,0,0,-1,1651,1744,0,0
434,-720,0,0,0,0,0,0,0,0,0,-1,1658,1744,0,0
441,-720,0,0,0,0,0,0,0,0,0,-1,1665,1744,0,0
448,-720,0,0,0,0,0,0,0,0,0,-1,1672,1744,0,0
455,-720,0,0,0,0,0,0,0,0,0,-1,1679,1744,0,0
462,-720,0,0,0,0,0,0,0,0,0,-1,1686,1744,0,0
469,-720,0,0,0,0,0,0,0,0,0,-1,1693,1744,0,0
476,-720,0,0,0,0,0,0,0,0,0,-1,1700,1744,0,0
483,-720,0,0,0,0,0,0,0,0,0,-1,1707,1744,0,0
490,-720,0,0,0,0,0,0,0,0,0,-1,1714,1744,0,0
497,-720,0,0,0,0,0,0,0,0,0,-1,1721,1744,0,0
504,-720,0,0,0,0,0,0,0,0,0,-1,1728,1744,0,0
511,-720,0,0,0,0,0,0,0,0,0,-1,1735,1744,0,0
518,-720,0,0,0,0,0,0,0,0,0,-1,1742,1744,0,0
525,-720,0,0,0,0,0,0,0,0,0,-1,1749,1744,0,0
532,-720,0,0,0,0,0,0,0,0,0,-1,1756,1744,0,0
539,-720,0,0,0,0,0,0,0,0,0,-1,1763,1744,0,0
546,-720,0,0,0,0,0,0,0,0,0,-1,1770,1744,0,0
553,-720,0,0,0,0,0,0,0,0,0,-1,1777,1744,0,0
560,-720,0,0,0,0,0,0,0,0,0,-1,1784,1744,0,0
567,-720,0,0,0,0,0,0,0,0,0,-1,1791,1744,0,0
574,-720,0,0,0,0,0,0,0,0,0,-1,1798,1744,0,0
581,-720,0,0,0,0,0,0,0,0,0,-1,1805,1744,0,0
588,-720,0,0,0,0,0,0,0,0,0,-1,1812,1744,0,0
595,-720,0,0,0,0,0,0,0,0,0,-1,1819,1744,0,0
602,-720,0,0,0,0,0,0,0,0,0,-1,1826,1744,0,0
609,-720,0,0,0,0,0,0,0,0,0,-1,1833,1744,0,0
616,-720,0,0,0,0,0,0,0,0,0,-1,1840,1744,0,0
623,-720,0,0,0,0,0,0,0,0,0,-1,1847,1744,0,0
630,-720,0,0,0,0,0,0,0,0,0,-1,1854,1744,0,0
637,-720,0,0,0,0,0,0,0,0,0,-1,1861,1744,0,0
644,-720,0,0,0,0,0,0,0,0,0,-1,1868,1744,0,0
651,-720,0,0,0,0,0,0,0,0,0,-1,1875,1744,0,0
658,-720,0,0,0,0,0,0,0,0,0,-1,1882,1744,0,0
665,-720,0,0,0,0,0,0,0,0,0,-1,1889,1744,0,0
672,-720,0,0,0,0,0,0,0,0,0,-1,1896,1744,0,0
679,-720,0,0,0,0,0,0,0,0,0,-1,1903,1744,0,0
686,-720,0,0,0,0,0,0,0,0,0,-1,1910,1744,0,0
693,-720,0,0,0,0,0,0,0,0,0,-1,1917,1744,0,0
700,-720,0,0,0,0,0,0,0,0,0,-1,1924,1744,0,0
707,-720,0,0,0,0,0,0,0,0,0,-1,1931,1744,0,0
714,-720,0,0,0,0,0,0,0,0,0,-1,1938,1744,0,0
721,-720,0,0,0,0,0,0,0,0,0,-1,1945,1744,0,0
728,-720,0,0,0,0,0,0,0,0,0,-1,1952,1744,0,0
735,-720,0,0,0,0,0,0,0,0,0,-1,1959,1744,0,0
742,-720,0,0,0,0,0,0,0,0,0,-1,1966,1744,0,0
749,-720,0,0,0,0,0,0,0,0,0,-1,1973,1744,0,0
756,-720,0,0,0,0,0,0,0,0,0,-1,1980,1744,0,0
763,-720,0,0,0,0,0,0,0,0,0,-1,1987,1744,0,0
770,-720,0,0,0,0,0,0,0,0,0,-1,1994,1744,0,0
777,-720,0,0,0,0,0,0,0,0,0,-1,2001,1744,0,0
784,-720,0,0,0,0,0,0,0,0,0,-1,2008,1744,0,0
791,-720,0,0,0,0,0,0,0,0,0,-1,2015,1744,0,0
798,-720,0,0,0,0,0,0,0,0,0,-1,2022,1744,0,0
805,-720,0,0,0,0,0,0,0,0,0,-1,2029,1744,0,0
812,-720,0,0,0,0,0,0,0,0,0,-1,2036,1744,0,0
-700,-727,0,0,0,0,0,0,0,0,0,-1,524,1751,0,0
-693,-727,0,0,0,0,0,0,0,0,0,-1,531,1751,0,0
-686,-727,0,0,0,0,0,0,0,0,0,-1,538,1751,0,0
-679,-727,0,0,0,0,0,0,0,0,0,-1,545,1751,0,0
-672,-727,0,0,0,0,0,0,0,0,0,-1,552,1751,0,0
-665,-727,0,0,0,0,0,0,0,0,0,-1,559,1751,0,0
-658,-727,0,0,0,0,0,0,0,0,0,-1,566,1751,0,0
-651,-727,0,0,0,0,0,0,0,0,0,-1,573,1751,0,0
-644,-727,0,0,0,0,0,0,0,0,0,-1,580,1751,0,0
-637,-727,0,0,0,0,0,0,0,0,0,-1,587,1751,0,0
-630,-727,0,0,0,0,0,0,0,0,0,-1,594,1751,0,0
-623,-727,0,0,0,0,0,0,0,0,0,-1,601,1751,0,0
-616,-727,0,0,0,0,0,0,0,0,0,-1,608,1751,0,0
-609,-727,0,0,0,0,0,0,0,0,0,-1,615,1751,0,0
-602,-727,0,0,0,0,0,0,0,0,0,-1,622,1751,0,0
-595,-727,0,0,0,0,0,0,0,0,0,-1,629,1751,0,0
-588,-727,0,0,0,0,0,0,0,0,0,-1,636,1751,0,0
-581,-727,0,0,0,0,0,0,0,0,0,-1,643,1751,0,0
-574,-727,0,0,0,0,0,0,0,0,0,-1,650,1751,0,0
-567,-727,0,0,0,0,0,0,0,0,0,-1,657,1751,0,0
-560,-727,0,0,0,0,0,0,0,0,0,-1,664,1751,0,0
-553,-727,0,0,0,0,0,0,0,0,0,-1,671,1751,0,0
-546,-727,0,0,0,0,0,0,0,0,0,-1,678,1751,0,0
-539,-727,0,0,0,0,0,0,0,0,0,-1,685,1751,0,0
-532,-727,0,0,0,0,0,0,0,0,0,-1,692,1751,0,0
-525,-727,0,0,0,0,0,0,0,0,0,-1,699,1751,0,0
-518,-727,0,0,0,0,0,0,0,0,0,-1,706,1751,0,0
-511,-727,0,0,0,0,0,0,0,0,0,-1,713,1751,0,0
-504,-727,0,0,0,0,0,0,0,0,0,-1,720,1751,0,0
-497,-727,0,0,0,0,0,0,0,0,0,-1,727,1751,0,0
-490,-727,0,0,0,0,0,0,0,0,0,-1,734,1751,0,0
-483,-727,0,0,0,0,0,0,0,0,0,-1,741,1751,0,0
-476,-727,0,0,0,0,0,0,0,0,0,-1,748,1751,0,0
-469,-727,0,0,0,0,0,0,0,0,0,-1,755,1751,0,0
-462,-727,0,0,0,0,0,0,0,0,0,-1,762,1751,0,0
-455,-727,0,0,0,0,0,0,0,0,0,-1,769,1751,0,0
-448,-727,0,0,0,0,0,0,0,0,0,-1,776,1751,0,0
-441,-727,0,0,0,0,0,0,0,0,0,-1,783,1751,0,0
-434,-727,0,0,0,0,0,0,0,0,0,-1,790,1751,0,0
-427,-727,0,0,0,0,0,0,0,0,0,-1,797,1751,0,0
-420,-727,0,0,0,0,0,0,0,0,0,-1,804,1751,0,0
-413,-727,0,0,0,0,0,0,0,0,0,-1,811,1751,0,0
-406,-727,0,0,0,0,0,0,0,0,0,-1,818,1751,0,0
-399,-727,0,0,0,0,0,0,0,0,0,-1,825,1751,0,0
-392,-727,0,0,0,0,0,0,0,0,0,-1,832,1751,0,0
-385,-727,0,0,0,0,0,0,0,0,0,-1,839,1751,0,0
-378,-727,0,0,0,0,0,0,0,0,0,-1,846,1751,0,0
-371,-727,0,0,0,0,0,0,0,0,0,-1,853,1751,0,0
-364,-727,0,0,0,0,0,0,0,0,0,-1,860,1751,0,0
-357,-727,0,0,0,0,0,0,0,0,0,-1,867,1751,0,0
-350,-727,0,0,0,0,0,0,0,0,0,-1,874,1751,0,0
-343,-727,0,0,0,0,0,0,0,0,0,-1,881,1751,0,0
-336,-727,0,0,0,0,0,0,0,0,0,-1,888,1751,0,0
-329,-727,0,0,0,0,0,0,0,0,0,-1,895,1751,0,0
-322,-727,0,0,0,0,0,0,0,0,0,-1,902,1751,0,0
-315,-727,0,0,0,0,0,0,0,0,0,-1,909,1751,0,0
-308,-727,0,0,0,0,0,0,0,0,0,-1,916,1751,0,0
-301,-727,0,0,0,0,0,0,0,0,0,-1,923,1751,0,0
-294,-727,0,0,0,0,0,0,0,0,0,-1,930,1751,0,0
-287,-727,0,0,0,0,0,0,0,0,0,-1,937,1751,0,0
-280,-727,0,0,0,0,0,0,0,0,0,-1,944,1751,0,0
-273,-727,0,0,0,0,0,0,0,0,0,-1,951,1751,0,0
-266,-727,4.24805,7.61145,0,0,0,0,0,0,0,-1,958,1751,4.24802,-7.6115
-259,-727,3.65228,5.4082,0,0,0,0,0,0,0,-1,965,1751,3.65229,-5.40818
-252,-727,5.8797,32.9292,0,0,0,0,0,0,0,-1,972,1751,5.87972,-32.9292
-245,-727,6.59198,32.2588,0,0,0,0,0,0,0,-1,979,1751,6.59195,-32.2587
-238,-727,6.6189,30.4597,0,0,0,0,0,0,0,-1,986,1751,6.61889,-30.4598
-231,-727,6.70105,28.9473,0,0,0,0,0,0,0,-1,993,1751,6.70103,-28.9472
-224,-727,7.0614,27.79,0,0,0,0,0,0,0,-1,1000,1751,7.06139,-27.79
-217,-727,4.72937,32.0111,0,0,0,0,0,0,0,-1,1007,1751,4.72935,-32.0111
-210,-727,5.0921,32.4524,0,0,0,0,0,0,0,-1,1014,1751,5.09209,-32.4523
-203,-727,10.5354,32.1929,0,0,0,0,0,0,0,-1,1021,1751,10.5354,-32.1928
-196,-727,8.03845,37.6969,0,0,0,0,0,0,0,-1,1028,1751,8.03841,-37.6969
-189,-727,8.28052,38.5197,0.00823763,-0.0491968,0.0108774,0.0102286,-0.0511878,0.181038,0.0379965,0.0488793,1035,1751,8.28055,-38.5196
-182,-727,8.64868,38.7804,0.00630608,-0.0447907,0.00942561,0.00798934,-0.0464739,0.17672,0.0339605,0.0439784,1042,1751,8.64868,-38.7803
-175,-727,8.56384,39.1838,0.00426555,-0.0388775,0.00823491,0.00578395,-0.0403959,0.182337,0.0290511,0.0488833,1049,1751,8.5639,-39.1838
-168,-727,8.70764,39.3474,0.00215027,-0.0324211,0.00712518,0.00356119,-0.033832,0.19549,0.0238306,0.0470532,1056,1751,8.70759,-39.3474
-161,-727,8.60266,39.1868,0.000205511,-0.0259248,0.00618109,0.00159387,-0.0273132,0.220947,0.0187627,0.04597,1063,1751,8.60267,-39.1867
-154,-727,8.93652,39.3745,0,0,0,0,0,0,0,-1,1070,1751,8.93648,-39.3745
-147,-727,8.81958,39.4413,-0.002784,-0.0135529,0.0046553,-0.00105059,-0.0152864,0.356448,0.00985939,0.046605,1077,1751,8.8196,-39.4413
-140,-727,8.72913,39.7922,-0.00374019,-0.00840025,0.0040741,-0.00137689,-0.0107635,0.525643,0.00676361,0.030782,1084,1751,8.72908,-39.7923
-133,-727,8.81006,40.1434,-0.00484955,-0.00330087,0.00345158,-0.000537837,-0.00761258,0.895742,0.00490561,0.0225131,1091,1751,8.81006,-40.1434
-126,-727,8.72058,40.4921,-0.00514307,0.000234221,0.00338391,0.00186758,-0.00677642,1.1211,0.00525202,0.0156134,1098,1751,8.72063,-40.492
-119,-727,8.69287,40.8212,-0.00497977,0.0026066,0.00328044,0.00382835,-0.00620152,1.21428,0.00584453,0.0127048,1105,1751,8.69285,-40.8212
-112,-727,8.70227,41.0812,-0.00440534,0.00402579,0.0034735,0.00527248,-0.00565203,1.2262,0.00630854,0.0140446,1112,1751,8.70224,-41.0811
-105,-727,8.65247,41.3685,-0.00372774,0.00449767,0.00355216,0.00581931,-0.00504939,1.2146,0.00628029,0.0140142,1119,1751,8.6525,-41.3685
-98,-727,8.64355,41.6281,-0.00308544,0.00443305,0.00349343,0.00580567,-0.00445806,1.19641,0.00594277,0.0113392,1126,1751,8.64354,-41.628
-91,-727,8.63098,41.8435,-0.00241423,0.00424746,0.00339815,0.00567497,-0.00384174,1.1731,0.00552835,0.0103879,1133,1751,8.63094,-41.8435
-84,-727,8.59131,42.0817,-0.00190283,0.00377525,0.00310371,0.00514254,-0.00327012,1.15584,0.00489698,0.0110594,1140,1751,8.59126,-42.0817
-77,-727,8.56946,42.3325,-0.00119804,0.00355089,0.00307255,0.00505955,-0.0027067,1.11437,0.00455192,0.0122381,1147,1751,8.56941,-42.3326
-70,-727,8.56409,42.5704,-0.00075798,0.00289063,0.00260514,0.00424671,-0.00211406,1.09085,0.00374056,0.0138747,1154,1751,8.56406,-42.5704
-63,-727,8.53503,42.7666,-0.000792205,0.00137978,0.00162948,0.002252,-0.00166442,1.07933,0.00226961,0.0116388,1161,1751,8.53508,-42.7666
-56,-727,8.52087,42.9634,-0.000906487,0.000748138,0.000946035,0.00117758,-0.00133593,1.14467,0.00145213,0.0111946,1168,1751,8.52086,-42.9634
-49,-727,8.52466,43.1656,-0.0011847,0.000274136,0.000506593,0.000432799,-0.00134336,1.26728,0.00106944,0.0141491,1175,1751,8.5246,-43.1657
-42,-727,8.54028,43.3458,-0.00122285,-9.21508e-05,0.000272947,-2.97106e-05,-0.00128529,1.3459,0.000847131,0.0166611,1182,1751,8.54027,-43.3458
-35,-727,8.52722,43.4708,-0.0011058,-0.000477079,0.000108598,-0.000458849,-0.00112403,1.40449,0.00065259,0.0140884,1189,1751,8.52726,-43.4708
-28,-727,8.49524,43.6215,-0.00101512,-0.000724243,-1.8997e-05,-0.000723008,-0.00101636,-1.50585,0.000604019,0.00906261,1196,1751,8.49528,-43.6215
-21,-727,8.48035,43.7821,-0.000840795,-0.000907908,-1.48112e-05,-0.000837672,-0.000911031,-0.207831,0.000584438,0.0108717,1203,1751,8.48035,-43.7822
-14,-727,8.47021,43.9077,-0.000508327,-0.000894926,0.000214222,-0.000413085,-0.000990167,0.418347,0.000574281,0.0119545,1210,1751,8.47017,-43.9077
-7,-727,8.48291,44.0446,-0.000191851,-0.000787628,0.000403376,1.17082e-05,-0.000991188,0.467352,0.000664729,0.0149525,1217,1751,8.48286,-44.0445
0,-727,8.47095,44.1765,0.000155281,-0.000350263,0.000689761,0.000637127,-0.000832109,0.609766,0.00085075,0.0153064,1224,1751,8.4709,-44.1765
7,-727,8.46814,44.2775,0.000486428,0.00036185,0.000963229,0.00138938,-0.000541102,0.75311,0.00114987,0.0146216,1231,1751,8.4681,-44.2774
14,-727,8.49414,44.37,0.00079894,0.00119365,0.00120108,0.00221348,-0.000220892,0.866828,0.00155453,0.0137588,1238,1751,8.49416,-44.37
21,-727,8.48059,44.4376,0.0010988,0.00230307,0.00146772,0.00328736,0.000114504,0.980056,0.00215442,0.011928,1245,1751,8.48056,-44.4376
28,-727,8.47803,44.4711,0.00130085,0.00332853,0.00156863,0.00418244,0.000446944,1.07229,0.0026519,0.0112901,1252,1751,8.47806,-44.4711
35,-727,8.49939,44.5378,0.0014164,0.00407529,0.00156935,0.00480261,0.000689073,1.13681,0.00299856,0.0119561,1259,1751,8.49941,-44.5379
42,-727,8.47986,44.5798,0.00146821,0.00482847,0.00168687,0.00552917,0.000767502,1.1771,0.00345878,0.0120472,1266,1751,8.47987,-44.5799
49,-727,8.4585,44.5981,0.00136735,0.00521398,0.00153974,0.00575439,0.000826945,1.23325,0.00359248,0.010802,1273,1751,8.45845,-44.5982
56,-727,8.45776,44.6357,0.0011999,0.00529798,0.00138048,0.00571963,0.000778251,1.27436,0.00358196,0.00961361,1280,1751,8.45772,-44.6357
63,-727,8.48242,44.6464,0.000888708,0.00531472,0.00120548,0.00562175,0.000581678,1.3214,0.00356977,0.0119237,1287,1751,8.48237,-44.6464
70,-727,8.51392,44.6484,0.000801627,0.00531703,0.000978717,0.00552004,0.000598616,1.36627,0.0034976,0.013959,1294,1751,8.5139,-44.6484
77,-727,8.5177,44.6465,0.000882154,0.00509319,0.00118625,0.00540436,0.000570979,1.31426,0.00342847,0.0158519,1301,1751,8.51772,-44.6465
84,-727,8.52271,44.5621,0.000886187,0.0044224,0.00120012,0.00479123,0.000517359,1.27263,0.00303643,0.0184054,1308,1751,8.52268,-44.5622
91,-727,8.52454,44.5127,0.000965618,0.0038767,0.00123838,0.00433222,0.00051009,1.21832,0.00273403,0.0192212,1315,1751,8.52449,-44.5127
98,-727,8.50159,44.5122,0.00108124,0.00330177,0.00145933,0.00402518,0.000357839,1.11059,0.00257248,0.0148525,1322,1751,8.50158,-44.5122
105,-727,8.49561,44.4659,0.00121962,0.0028401,0.00175376,0.00396174,9.79813e-05,1.00179,0.00260911,0.0128891,1329,1751,8.49558,-44.4659
112,-727,8.50293,44.4104,0.00142716,0.00234751,0.00204738,0.00398579,-0.000211126,0.895943,0.00273029,0.0108776,1336,1751,8.50295,-44.4104
119,-727,8.51013,44.3425,0.00155825,0.00190047,0.00226933,0.00400513,-0.000546408,0.823028,0.00286961,0.0087454,1343,1751,8.51015,-44.3426
126,-727,8.53052,44.2223,0.00164479,0.00136709,0.0023988,0.00390876,-0.000896879,0.756489,0.00295059,0.0110277,1350,1751,8.53047,-44.2223
133,-727,8.53406,44.1257,0.00164836,0.001117,0.00255347,0.00394994,-0.00118458,0.733561,0.00310442,0.0160579,1357,1751,8.53401,-44.1257
140,-727,8.52759,44.0353,0.0014943,0.00110657,0.00269337,0.00400077,-0.0013999,0.749472,0.00323637,0.0225266,1364,1751,8.52764,-44.0353
147,-727,8.52148,43.9038,0.00115764,0.00104672,0.00260091,0.00370368,-0.00149932,0.774738,0.00309251,0.0184438,1371,1751,8.52148,-43.9038
154,-727,8.51709,43.7476,0.000754307,0.000909362,0.00249481,0.00332785,-0.00166418,0.800931,0.00293501,0.0113245,1378,1751,8.51712,-43.7475
161,-727,8.49426,43.593,0.000374821,0.000892283,0.00235482,0.00300255,-0.00173544,0.840115,0.00276789,0.00953614,1385,1751,8.49428,-43.593
168,-727,8.46655,43.4438,-7.94021e-05,0.000644773,0.00206074,0.00237499,-0.00180962,0.872364,0.00242333,0.0118163,1392,1751,8.46656,-43.4439
175,-727,8.46228,43.2877,-0.000853819,7.45188e-05,0.00157536,0.00125267,-0.00203197,0.928666,0.00191409,0.0166594,1399,1751,8.46223,-43.2877
182,-727,8.48206,43.1149,-0.00154247,-0.000430757,-0.000158858,-0.000408502,-0.00156472,-1.43161,0.000937142,0.0193043,1406,1751,8.48206,-43.1149
189,-727,8.43787,42.9158,-0.00166663,0.000242252,-0.00042744,0.000333595,-0.00175797,-1.36027,0.00129755,0.012063,1413,1751,8.43781,-42.9158
196,-727,8.42432,42.726,-0.00177584,0.00078999,-0.000664587,0.00095191,-0.00193776,-1.33181,0.00170041,0.0143681,1420,1751,8.42437,-42.726
203,-727,8.40588,42.4968,-0.00135677,0.00234367,-0.00136505,0.00279272,-0.00180583,-1.25298,0.00267528,0.0178114,1427,1751,8.40594,-42.4968
210,-727,8.38599,42.2961,-0.00084239,0.00349957,-0.00221177,0.0044278,-0.00177061,-1.17344,0.00368663,0.0163401,1434,1751,8.38595,-42.2962
217,-727,8.34595,42.0811,-0.000494508,0.00428027,-0.00262368,0.00544018,-0.00165442,-1.15454,0.00428605,0.0123871,1441,1751,8.346,-42.081
224,-727,8.33276,41.8058,4.72659e-05,0.00450356,-0.00324487,0.00621164,-0.00166081,-1.08626,0.00479161,0.0129728,1448,1751,8.33275,-41.8058
231,-727,8.32373,41.5747,0.000269358,0.00501849,-0.00381151,0.0071346,-0.00184675,-1.06398,0.00547677,0.0104916,1455,1751,8.32373,-41.5746
238,-727,8.31592,41.3193,0.000589928,0.00540087,-0.00434023,0.00795764,-0.00196685,-1.03844,0.00606791,0.0109421,1462,1751,8.31594,-41.3194
245,-727,8.28674,41.072,0.000893554,0.00564262,-0.00493723,0.00874664,-0.00221047,-1.00954,0.00669076,0.0104637,1469,1751,8.28669,-41.0721
252,-727,8.25635,40.7971,0.000991156,0.00584348,-0.00535751,0.00929858,-0.00246394,-0.99801,0.00716304,0.0115133,1476,1751,8.25635,-40.7971
259,-727,8.26001,40.5104,0.000999872,0.00577646,-0.00543594,0.00932562,-0.00254929,-0.99238,0.00721849,0.0152937,1483,1751,8.26004,-40.5104
266,-727,8.23755,40.265,0.000974908,0.00525728,-0.00529498,0.00882761,-0.00259543,-0.977537,0.00691454,0.019781,1490,1751,8.23758,-40.265
273,-727,8.23926,39.9863,0.000948835,0.00550026,-0.00538586,0.00907145,-0.00262236,-0.985289,0.0070854,0.0330226,1497,1751,8.23932,-39.9863
280,-727,8.1156,39.7156,0,0,0,0,0,0,0,-1,1504,1751,8.11556,-39.7156
287,-727,7.99329,39.0845,0,0,0,0,0,0,0,-1,1511,1751,7.99323,-39.0845
294,-727,8.22668,38.7051,0,0,0,0,0,0,0,-1,1518,1751,8.22671,-38.705
301,-727,7.81653,38.4437,0,0,0,0,0,0,0,-1,1525,1751,7.81648,-38.4437
308,-727,7.64221,38.5182,0,0,0,0,0,0,0,-1,1532,1751,7.64218,-38.5182
315,-727,7.70569,38.4077,0,0,0,0,0,0,0,-1,1539,1751,7.70575,-38.4077
322,-727,7.55579,38.0198,0,0,0,0,0,0,0,-1,1546,1751,7.55577,-38.0198
329,-727,5.54419,31.0325,0,0,0,0,0,0,0,-1,1553,1751,5.54425,-31.0325
336,-727,5.55823,20.2439,0,0,0,0,0,0,0,-1,1560,1751,5.55829,-20.2438
343,-727,2.41699,8.72095,0,0,0,0,0,0,0,-1,1567,1751,2.41702,-8.72098
350,-727,3.89783,7.50195,0,0,0,0,0,0,0,-1,1574,1751,3.89782,-7.50193
357,-727,4.48462,10.2948,0,0,0,0,0,0,0,-1,1581,1751,4.48464,-10.2948
364,-727,6.96729,17.2365,0,0,0,0,0,0,0,-1,1588,1751,6.96732,-17.2365
371,-727,5.04565,23.2227,0,0,0,0,0,0,0,-1,1595,1751,5.04564,-23.2227
378,-727,4.56726,23.0574,0,0,0,0,0,0,0,-1,1602,1751,4.56727,-23.0574
385,-727,3.52307,22.6431,0,0,0,0,0,0,0,-1,1609,1751,3.52303,-22.643
392,-727,0,0,0,0,0,0,0,0,0,-1,1616,1751,0,0
399,-727,0,0,0,0,0,0,0,0,0,-1,1623,1751,0,0
406,-727,0,0,0,0,0,0,0,0,0,-1,1630,1751,0,0
413,-727,0,0,0,0,0,0,0,0,0,-1,1637,1751,0,0
420,-727,0,0,0,0,0,0,0,0,0,-1,1644,1751,0,0
427,-727,0,0,0,0,0,0,0,0,0,-1,1651,1751,0,0
434,-727,0,0,0,0,0,0,0,0,0,-1,1658,1751,0,0
441,-727,0,0,0,0,0,0,0,0,0,-1,1665,1751,0,0
448,-727,0,0,0,0,0,0,0,0,0,-1,1672,1751,0,0
455,-727,0,0,0,0,0,0,0,0,0,-1,1679,1751,0,0
462,-727,0,0,0,0,0,0,0,0,0,-1,1686,1751,0,0
469,-727,0,0,0,0,0,0,0,0,0,-1,1693,1751,0,0
476,-727,0,0,0,0,0,0,0,0,0,-1,1700,1751,0,0
483,-727,0,0,0,0,0,0,0,0,0,-1,1707,1751,0,0
490,-727,0,0,0,0,0,0,0,0,0,-1,1714,1751,0,0
497,-727,0,0,0,0,0,0,0,0,0,-1,1721,1751,0,0
504,-727,0,0,0,0,0,0,0,0,0,-1,1728,1751,0,0
511,-727,0,0,0,0,0,0,0,0,0,-1,1735,1751,0,0
518,-727,0,0,0,0,0,0,0,0,0,-1,1742,1751,0,0
525,-727,0,0,0,0,0,0,0,0,0,-1,1749,1751,0,0
532,-727,0,0,0,0,0,0,0,0,0,-1,1756,1751,0,0
539,-727,0,0,0,0,0,0,0,0,0,-1,1763,1751,0,0
546,-727,0,0,0,0,0,0,0,0,0,-1,1770,1751,0,0
553,-727,0,0,0,0,0,0,0,0,0,-1,1777,1751,0,0
560,-727,0,0,0,0,0,0,0,0,0,-1,1784,1751,0,0
567,-727,0,0,0,0,0,0,0,0,0,-1,1791,1751,0,0
574,-727,0,0,0,0,0,0,0,0,0,-1,1798,1751,0,0
581,-727,0,0,0,0,0,0,0,0,0,-1,1805,1751,0,0
588,-727,0,0,0,0,0,0,0,0,0,-1,1812,1751,0,0
595,-727,0,0,0,0,0,0,0,0,0,-1,1819,1751,0,0
602,-727,0,0,0,0,0,0,0,0,0,-1,1826,1751,0,0
609,-727,0,0,0,0,0,0,0,0,0,-1,1833,1751,0,0
616,-727,0,0,0,0,0,0,0,0,0,-1,1840,1751,0,0
623,-727,0,0,0,0,0,0,0,0,0,-1,1847,1751,0,0
630,-727,0,0,0,0,0,0,0,0,0,-1,1854,1751,0,0
637,-727,0,0,0,0,0,0,0,0,0,-1,1861,1751,0,0
644,-727,0,0,0,0,0,0,0,0,0,-1,1868,1751,0,0
651,-727,0,0,0,0,0,0,0,0,0,-1,1875,1751,0,0
658,-727,0,0,0,0,0,0,0,0,0,-1,1882,1751,0,0
665,-727,0,0,0,0,0,0,0,0,0,-1,1889,1751,0,0
672,-727,0,0,0,0,0,0,0,0,0,-1,1896,1751,0,0
679,-727,0,0,0,0,0,0,0,0,0,-1,1903,1751,0,0
686,-727,0,0,0,0,0,0,0,0,0,-1,1910,1751,0,0
693,-727,0,0,0,0,0,0,0,0,0,-1,1917,1751,0,0
700,-727,0,0,0,0,0,0,0,0,0,-1,1924,1751,0,0
707,-727,0,0,0,0,0,0,0,0,0,-1,1931,1751,0,0
714,-727,0,0,0,0,0,0,0,0,0,-1,1938,1751,0,0
721,-727,0,0,0,0,0,0,0,0,0,-1,1945,1751,0,0
728,-727,0,0,0,0,0,0,0,0,0,-1,1952,1751,0,0
735,-727,0,0,0,0,0,0,0,0,0,-1,1959,1751,0,0
742,-727,0,0,0,0,0,0,0,0,0,-1,1966,1751,0,0
749,-727,0,0,0,0,0,0,0,0,0,-1,1973,1751,0,0
756,-727,0,0,0,0,0,0,0,0,0,-1,1980,1751,0,0
763,-727,0,0,0,0,0,0,0,0,0,-1,1987,1751,0,0
770,-727,0,0,0,0,0,0,0,0,0,-1,1994,1751,0,0
777,-727,0,0,0,0,0,0,0,0,0,-1,2001,1751,0,0
784,-727,0,0,0,0,0,0,0,0,0,-1,2008,1751,0,0
791,-727,0,0,0,0,0,0,0,0,0,-1,2015,1751,0,0
798,-727,0,0,0,0,0,0,0,0,0,-1,2022,1751,0,0
805,-727,0,0,0,0,0,0,0,0,0,-1,2029,1751,0,0
812,-727,0,0,0,0,0,0,0,0,0,-1,2036,1751,0,0
-700,-734,0,0,0,0,0,0,0,0,0,-1,524,1758,0,0
-693,-734,0,0,0,0,0,0,0,0,0,-1,531,1758,0,0
-686,-734,0,0,0,0,0,0,0,0,0,-1,538,1758,0,0
-679,-734,0,0,0,0,0,0,0,0,0,-1,545,1758,0,0
-672,-734,0,0,0,0,0,0,0,0,0,-1,552,1758,0,0
-665,-734,0,0,0,0,0,0,0,0,0,-1,559,1758,0,0
-658,-734,0,0,0,0,0,0,0,0,0,-1,566,1758,0,0
-651,-734,0,0,0,0,0,0,0,0,0,-1,573,1758,0,0
-644,-734,0,0,0,0,0,0,0,0,0,-1,580,1758,0,0
-637,-734,0,0,0,0,0,0,0,0,0,-1,587,1758,0,0
-630,-734,0,0,0,0,0,0,0,0,0,-1,594,1758,0,0
-623,-734,0,0,0,0,0,0,0,0,0,-1,601,1758,0,0
-616,-734,0,0,0,0,0,0,0,0,0,-1,608,1758,0,0
-609,-734,0,0,0,0,0,0,0,0,0,-1,615,1758,0,0
-602,-734,0,0,0,0,0,0,0,0,0,-1,622,1758,0,0
-595,-734,0,0,0,0,0,0,0,0,0,-1,629,1758,0,0
-588,-734,0,0,0,0,0,0,0,0,0,-1,636,1758,0,0
-581,-734,0,0,0,0,0,0,0,0,0,-1,643,1758,0,0
-574,-734,0,0,0,0,0,0,0,0,0,-1,650,1758,0,0
-567,-734,0,0,0,0,0,0,0,0,0,-1,657,1758,0,0
-560,-734,0,0,0,0,0,0,0,0,0,-1,664,1758,0,0
-553,-734,0,0,0,0,0,0,0,0,0,-1,671,1758,0,0
-546,-734,0,0,0,0,0,0,0,0,0,-1,678,1758,0,0
-539,-734,0,0,0,0,0,0,0,0,0,-1,685,1758,0,0
-532,-734,0,0,0,0,0,0,0,0,0,-1,692,1758,0,0
-525,-734,0,0,0,0,0,0,0,0,0,-1,699,1758,0,0
-518,-734,0,0,0,0,0,0,0,0,0,-1,706,1758,0,0
-511,-734,0,0,0,0,0,0,0,0,0,-1,713,1758,0,0
-504,-734,0,0,0,0,0,0,0,0,0,-1,720,1758,0,0
-497,-734,0,0,0,0,0,0,0,0,0,-1,727,1758,0,0
-490,-734,0,0,0,0,0,0,0,0,0,-1,734,1758,0,0
-483,-734,0,0,0,0,0,0,0,0,0,-1,741,1758,0,0
-476,-734,0,0,0,0,0,0,0,0,0,-1,748,1758,0,0
-469,-734,0,0,0,0,0,0,0,0,0,-1,755,1758,0,0
-462,-734,0,0,0,0,0,0,0,0,0,-1,762,1758,0,0
-455,-734,0,0,0,0,0,0,0,0,0,-1,769,1758,0,0
-448,-734,0,0,0,0,0,0,0,0,0,-1,776,1758,0,0
-441,-734,0,0,0,0,0,0,0,0,0,-1,783,1758,0,0
-434,-734,0,0,0,0,0,0,0,0,0,-1,790,1758,0,0
-427,-734,0,0,0,0,0,0,0,0,0,-1,797,1758,0,0
-420,-734,0,0,0,0,0,0,0,0,0,-1,804,1758,0,0
-413,-734,0,0,0,0,0,0,0,0,0,-1,811,1758,0,0
-406,-734,0,0,0,0,0,0,0,0,0,-1,818,1758,0,0
-399,-734,0,0,0,0,0,0,0,0,0,-1,825,1758,0,0
-392,-734,0,0,0,0,0,0,0,0,0,-1,832,1758,0,0
-385,-734,0,0,0,0,0,0,0,0,0,-1,839,1758,0,0
-378,-734,0,0,0,0,0,0,0,0,0,-1,846,1758,0,0
-371,-734,0,0,0,0,0,0,0,0,0,-1,853,1758,0,0
-364,-734,0,0,0,0,0,0,0,0,0,-1,860,1758,0,0
-357,-734,0,0,0,0,0,0,0,0,0,-1,867,1758,0,0
-350,-734,0,0,0,0,0,0,0,0,0,-1,874,1758,0,0
-343,-734,0,0,0,0,0,0,0,0,0,-1,881,1758,0,0
-336,-734,0,0,0,0,0,0,0,0,0,-1,888,1758,0,0
-329,-734,0,0,0,0,0,0,0,0,0,-1,895,1758,0,0
-322,-734,0,0,0,0,0,0,0,0,0,-1,902,1758,0,0
-315,-734,0,0,0,0,0,0,0,0,0,-1,909,1758,0,0
-308,-734,0,0,0,0,0,0,0,0,0,-1,916,1758,0,0
-301,-734,0,0,0,0,0,0,0,0,0,-1,923,1758,0,0
-294,-734,0,0,0,0,0,0,0,0,0,-1,930,1758,0,0
-287,-734,0,0,0,0,0,0,0,0,0,-1,937,1758,0,0
-280,-734,0,0,0,0,0,0,0,0,0,-1,944,1758,0,0
-273,-734,0,0,0,0,0,0,0,0,0,-1,951,1758,0,0
-266,-734,0,0,0,0,0,0,0,0,0,-1,958,1758,0,0
-259,-734,0,0,0,0,0,0,0,0,0,-1,965,1758,0,0
-252,-734,5.73883,31.5245,0,0,0,0,0,0,0,-1,972,1758,5.73884,-31.5246
-245,-734,6.32513,30.9761,0,0,0,0,0,0,0,-1,979,1758,6.32511,-30.9761
-238,-734,6.82385,30.0449,0,0,0,0,0,0,0,-1,986,1758,6.82387,-30.0449
-231,-734,7.1958,29.1666,0,0,0,0,0,0,0,-1,993,1758,7.19578,-29.1666
-224,-734,7.36169,28.5652,0,0,0,0,0,0,0,-1,1000,1758,7.36172,-28.5651
-217,-734,7.45984,28.4386,0,0,0,0,0,0,0,-1,1007,1758,7.45986,-28.4386
-210,-734,7.45483,28.4388,0,0,0,0,0,0,0,-1,1014,1758,7.45482,-28.4388
-203,-734,7.93079,29.6151,0,0,0,0,0,0,0,-1,1021,1758,7.93076,-29.6151
-196,-734,11.3601,34.9989,0,0,0,0,0,0,0,-1,1028,1758,11.3601,-34.9989
-189,-734,8.25732,39.3181,0,0,0,0,0,0,0,-1,1035,1758,8.25732,-39.3181
-182,-734,9.20093,39.2748,0,0,0,0,0,0,0,-1,1042,1758,9.20087,-39.2748
-175,-734,8.73071,39.7979,0,0,0,0,0,0,0,-1,1049,1758,8.73077,-39.7979
-168,-734,8.76563,40.0339,0,0,0,0,0,0,0,-1,1056,1758,8.76563,-40.0339
-161,-734,9.08203,40.3207,0,0,0,0,0,0,0,-1,1063,1758,9.08203,-40.3207
-154,-734,9.48169,39.3427,0,0,0,0,0,0,0,-1,1070,1758,9.48165,-39.3426
-147,-734,9.34717,39.7474,0,0,0,0,0,0,0,-1,1077,1758,9.34723,-39.7474
-140,-734,9.0271,40.1281,0,0,0,0,0,0,0,-1,1084,1758,9.02705,-40.1281
-133,-734,9.20764,40.2163,-0.00653795,-0.00377111,0.00453718,-0.000411132,-0.00989793,0.933375,0.00646593,0.0441483,1091,1758,9.20765,-40.2163
-126,-734,8.94824,40.3689,-0.00693396,0.000811174,0.00459648,0.00294896,-0.00907175,1.13546,0.00723403,0.0382682,1098,1758,8.94824,-40.3689
-119,-734,8.79419,40.7397,-0.0067071,0.00382789,0.00455559,0.00552458,-0.00840379,1.21427,0.00809861,0.0412534,1105,1758,8.79418,-40.7398
-112,-734,8.80469,41.0571,-0.00595548,0.00573853,0.00488246,0.007509,-0.00772595,1.22293,0.0087962,0.0385144,1112,1758,8.80471,-41.0571
-105,-734,8.85547,41.3273,-0.0050829,0.00638961,0.00506423,0.00830522,-0.00699852,1.20917,0.00884635,0.0316751,1119,1758,8.85543,-41.3273
-98,-734,8.85046,41.6304,0,0,0,0,0,0,0,-1,1126,1758,8.85051,-41.6304
-91,-734,8.87012,41.8262,0,0,0,0,0,0,0,-1,1133,1758,8.87011,-41.8261
-84,-734,8.81128,42.043,0,0,0,0,0,0,0,-1,1140,1758,8.81122,-42.043
-77,-734,8.78796,42.3328,0,0,0,0,0,0,0,-1,1147,1758,8.78798,-42.3328
-70,-734,8.7959,42.5784,0,0,0,0,0,0,0,-1,1154,1758,8.79595,-42.5784
-63,-734,8.66504,42.552,-0.00171601,0.00136958,0.00217508,0.00249347,-0.0028399,1.09387,0.00308139,0.0351014,1161,1758,8.6651,-42.552
-56,-734,8.6947,42.9076,-0.00203482,0.000413831,0.00114886,0.000868449,-0.00248944,1.19399,0.00201257,0.0166547,1168,1758,8.69465,-42.9076
-49,-734,8.68958,43.1648,-0.00267762,-0.000218001,0.000477229,-0.000128652,-0.00276697,1.38571,0.00180329,0.0127552,1175,1758,8.68952,-43.1648
-42,-734,8.66687,43.365,-0.00286111,-0.00074125,0.00015706,-0.000729676,-0.00287268,1.49724,0.00172416,0.0130646,1182,1758,8.66685,-43.365
-35,-734,8.65601,43.4805,-0.00283378,-0.00131793,-8.12354e-05,-0.00131358,-0.00283812,-1.51741,0.0016401,0.0132,1189,1758,8.656,-43.4805
-28,-734,8.6571,43.6273,-0.00304184,-0.00149621,-0.000253558,-0.00145567,-0.00308237,-1.41228,0.00178052,0.00986652,1196,1758,8.65715,-43.6273
-21,-734,8.67896,43.7833,-0.00314386,-0.000909556,-0.000696172,-0.000710393,-0.00334302,-1.29216,0.00203367,0.0156321,1203,1758,8.67895,-43.7834
-14,-734,8.61865,43.9419,-0.00289504,-0.000707292,-0.00056348,-0.000570691,-0.00303165,-1.33296,0.00186028,0.0163925,1210,1758,8.61862,-43.9419
-7,-734,8.60596,44.0551,-0.00271358,-0.000276929,-0.00070927,-8.551e-05,-0.002905,-1.30719,0.0019088,0.0181476,1217,1758,8.60595,-44.055
0,-734,8.58228,44.1603,-0.00244285,0.000336407,-0.000694008,0.00050007,-0.00260651,-1.3392,0.00192613,0.0173357,1224,1758,8.58226,-44.1603
7,-734,8.55579,44.2661,-0.00213513,0.00126192,-0.000701895,0.00140123,-0.00227444,-1.37486,0.00214202,0.0131905,1231,1758,8.55579,-44.2661
14,-734,8.55359,44.3792,-0.00179494,0.00227929,-0.000720677,0.00240301,-0.00191866,-1.40078,0.00250034,0.0139945,1238,1758,8.55362,-44.3791
21,-734,8.53711,44.4388,-0.00139469,0.00363105,-0.000554079,0.00369141,-0.00145505,-1.46228,0.0030634,0.0122924,1245,1758,8.53714,-44.4388
28,-734,8.5304,44.4795,-0.00110704,0.00522243,-0.000388665,0.0052462,-0.00113081,-1.5097,0.00392903,0.0115873,1252,1758,8.53044,-44.4795
35,-734,8.526,44.5502,-0.00101958,0.00605737,-0.000109498,0.00605907,-0.00102127,-1.55533,0.00441931,0.0138643,1259,1758,8.526,-44.5501
42,-734,8.52258,44.5981,-0.000995362,0.00673336,0.000526379,0.00676905,-0.00103105,1.50311,0.00489273,0.0121593,1266,1758,8.52259,-44.5981
49,-734,8.48694,44.6155,-0.00116788,0.00735657,0.00088167,0.00744681,-0.00125811,1.46881,0.00543269,0.0102372,1273,1758,8.48697,-44.6155
56,-734,8.46655,44.6337,-0.00140618,0.00754644,0.00125656,0.00771946,-0.0015792,1.43396,0.00574551,0.00954348,1280,1758,8.46649,-44.6337
63,-734,8.46545,44.6427,-0.00194007,0.00783041,0.00150254,0.00805626,-0.00216591,1.4216,0.00621981,0.0121998,1287,1758,8.46543,-44.6427
70,-734,8.47241,44.6506,-0.00223792,0.00833025,0.00193693,0.00867406,-0.00258173,1.39512,0.00680845,0.0121962,1294,1758,8.47237,-44.6506
77,-734,8.48877,44.6449,-0.00237128,0.00868942,0.00288584,0.00939708,-0.00307894,1.33032,0.00750461,0.0165192,1301,1758,8.48872,-44.6448
84,-734,8.49036,44.5846,-0.00257054,0.00821531,0.00352759,0.00926658,-0.0036218,1.28117,0.00767532,0.0172016,1308,1758,8.49035,-44.5846
91,-734,8.50439,44.5453,-0.00274676,0.00827211,0.00383187,0.00947365,-0.00394829,1.26694,0.00796502,0.0190706,1315,1758,8.50436,-44.5453
98,-734,8.47839,44.543,-0.00276522,0.00821445,0.00435043,0.00972922,-0.00427999,1.23574,0.00828968,0.0138017,1322,1758,8.47834,-44.543
105,-734,8.46313,44.4917,-0.00266704,0.00823371,0.0047134,0.00998908,-0.0044224,1.21429,0.00852487,0.0144238,1329,1758,8.46317,-44.4917
112,-734,8.46265,44.4089,-0.00240196,0.00813052,0.00502529,0.0101435,-0.00441493,1.1898,0.00861948,0.0126648,1336,1758,8.4627,-44.4089
119,-734,8.44958,44.3126,-0.00211482,0.00800501,0.00522977,0.010222,-0.0043318,1.16984,0.00862897,0.0133228,1343,1758,8.44954,-44.3126
126,-734,8.45239,44.2056,-0.00183129,0.00764508,0.00528607,0.0100057,-0.0041919,1.1508,0.00842296,0.0164901,1350,1758,8.45238,-44.2056
133,-734,8.42212,44.1068,-0.00152313,0.00713116,0.00530844,0.00965264,-0.00404461,1.12735,0.00812605,0.0159341,1357,1758,8.42213,-44.1069
140,-734,8.40283,44.0181,-0.0012464,0.00722985,0.00521577,0.00971229,-0.00372884,1.12657,0.00801244,0.0204115,1364,1758,8.4028,-44.0181
147,-734,8.3855,43.8719,-0.00120068,0.0071308,0.0047837,0.00930834,-0.00337822,1.14363,0.00758663,0.0144221,1371,1758,8.3855,-43.8719
154,-734,8.36707,43.7467,-0.00126508,0.00610986,0.00461727,0.00833143,-0.00348664,1.12235,0.00701167,0.00983186,1378,1758,8.3671,-43.7467
161,-734,8.35901,43.603,-0.00148917,0.00552126,0.0043495,0.00760216,-0.00357006,1.12456,0.00658883,0.00902036,1385,1758,8.35904,-43.603
168,-734,8.30554,43.4485,-0.00154709,0.00407007,0.00414098,0.00626507,-0.00374209,1.08338,0.00583852,0.014218,1392,1758,8.30556,-43.4485
175,-734,8.2749,43.3104,-0.00231241,0.00148028,0.00286426,0.00301907,-0.0038512,1.0778,0.00397623,0.0168577,1399,1758,8.2749,-43.3105
182,-734,8.31177,43.1033,-0.00300132,-0.00105269,-0.000302943,-0.00100668,-0.00304733,-1.42007,0.00179282,0.0157776,1406,1758,8.31176,-43.1033
189,-734,8.25671,42.9012,-0.00307483,4.42715e-06,-0.000642131,0.000132968,-0.00320337,-1.37323,0.00218125,0.0115406,1413,1758,8.25671,-42.9013
196,-734,8.2168,42.7271,-0.00316736,0.000839445,-0.000916252,0.00103903,-0.00336694,-1.35632,0.00265951,0.0140685,1420,1758,8.21678,-42.727
203,-734,8.22791,42.4967,-0.00242855,0.00319428,-0.00193048,0.00379326,-0.00302753,-1.26994,0.00394625,0.0205767,1427,1758,8.22786,-42.4967
210,-734,8.23352,42.252,-0.00150183,0.00492334,-0.00318446,0.0062342,-0.00281269,-1.1803,0.00534629,0.033477,1434,1758,8.23351,-42.2519
217,-734,8.15369,42.097,0,0,0,0,0,0,0,-1,1441,1758,8.15366,-42.0971
224,-734,8.11414,41.853,0,0,0,0,0,0,0,-1,1448,1758,8.11416,-41.8531
231,-734,8.05457,41.5856,0,0,0,0,0,0,0,-1,1455,1758,8.05452,-41.5856
238,-734,8.03992,41.2092,0.000971665,0.00777328,-0.00600153,0.0112706,-0.00252563,-1.04317,0.00848187,0.0417974,1462,1758,8.03991,-41.2092
245,-734,8.08728,40.9755,0.00149321,0.00806911,-0.00678739,0.012323,-0.00276068,-1.01095,0.00927356,0.0291554,1469,1758,8.08733,-40.9755
252,-734,8.08887,40.6873,0.00177047,0.00824534,-0.00738196,0.0130686,-0.00305276,-0.992048,0.00988831,0.0301349,1476,1758,8.08886,-40.6873
259,-734,8.20032,40.4623,0.00193042,0.0080694,-0.00754918,0.0131493,-0.00314944,-0.978489,0.00998298,0.0373449,1483,1758,8.20026,-40.4623
266,-734,8.08716,40.3118,0.00203447,0.00731075,-0.00739585,0.0125249,-0.00317967,-0.956716,0.00958722,0.0454079,1490,1758,8.08712,-40.3118
273,-734,8.31055,40.2344,0.00210809,0.0073423,-0.00744668,0.0126184,-0.00316799,-0.954379,0.00964329,0.0499489,1497,1758,8.31058,-40.2343
280,-734,8.60669,40.2765,0,0,0,0,0,0,0,-1,1504,1758,8.60665,-40.2765
287,-734,7.55359,38.9696,0,0,0,0,0,0,0,-1,1511,1758,7.55364,-38.9696
294,-734,7.03406,36.0077,0,0,0,0,0,0,0,-1,1518,1758,7.03407,-36.0077
301,-734,6.88904,37.8728,0,0,0,0,0,0,0,-1,1525,1758,6.88907,-37.8729
308,-734,7.677,40.0679,0,0,0,0,0,0,0,-1,1532,1758,7.67705,-40.0678
315,-734,7.12585,39.0027,0,0,0,0,0,0,0,-1,1539,1758,7.12583,-39.0027
322,-734,6.57458,37.9376,0,0,0,0,0,0,0,-1,1546,1758,6.5746,-37.9376
329,-734,5.73267,19.656,0,0,0,0,0,0,0,-1,1553,1758,5.73262,-19.656
336,-734,6.71375,23.7469,0,0,0,0,0,0,0,-1,1560,1758,6.71372,-23.7469
343,-734,5.54968,5.14221,0,0,0,0,0,0,0,-1,1567,1758,5.54973,-5.14225
350,-734,5.07397,6.73242,0,0,0,0,0,0,0,-1,1574,1758,5.07402,-6.73243
357,-734,5.05542,7.19189,0,0,0,0,0,0,0,-1,1581,1758,5.05541,-7.19184
364,-734,4.43896,10.4904,0,0,0,0,0,0,0,-1,1588,1758,4.43893,-10.4904
371,-734,7.36975,17.4751,0,0,0,0,0,0,0,-1,1595,1758,7.36972,-17.4752
378,-734,0,0,0,0,0,0,0,0,0,-1,1602,1758,0,0
385,-734,0,0,0,0,0,0,0,0,0,-1,1609,1758,0,0
392,-734,0,0,0,0,0,0,0,0,0,-1,1616,1758,0,0
399,-734,0,0,0,0,0,0,0,0,0,-1,1623,1758,0,0
406,-734,0,0,0,0,0,0,0,0,0,-1,1630,1758,0,0
413,-734,0,0,0,0,0,0,0,0,0,-1,1637,1758,0,0
420,-734,0,0,0,0,0,0,0,0,0,-1,1644,1758,0,0
427,-734,0,0,0,0,0,0,0,0,0,-1,1651,1758,0,0
434,-734,0,0,0,0,0,0,0,0,0,-1,1658,1758,0,0
441,-734,0,0,0,0,0,0,0,0,0,-1,1665,1758,0,0
448,-734,0,0,0,0,0,0,0,0,0,-1,1672,1758,0,0
455,-734,0,0,0,0,0,0,0,0,0,-1,1679,1758,0,0
462,-734,0,0,0,0,0,0,0,0,0,-1,1686,1758,0,0
469,-734,0,0,0,0,0,0,0,0,0,-1,1693,1758,0,0
476,-734,0,0,0,0,0,0,0,0,0,-1,1700,1758,0,0
483,-734,0,0,0,0,0,0,0,0,0,-1,1707,1758,0,0
490,-734,0,0,0,0,0,0,0,0,0,-1,1714,1758,0,0
497,-734,0,0,0,0,0,0,0,0,0,-1,1721,1758,0,0
504,-734,0,0,0,0,0,0,0,0,0,-1,1728,1758,0,0
511,-734,0,0,0,0,0,0,0,0,0,-1,1735,1758,0,0
518,-734,0,0,0,0,0,0,0,0,0,-1,1742,1758,0,0
525,-734,0,0,0,0,0,0,0,0,0,-1,1749,1758,0,0
532,-734,0,0,0,0,0,0,0,0,0,-1,1756,1758,0,0
539,-734,0,0,0,0,0,0,0,0,0,-1,1763,1758,0,0
546,-734,0,0,0,0,0,0,0,0,0,-1,1770,1758,0,0
553,-734,0,0,0,0,0,0,0,0,0,-1,1777,1758,0,0
560,-734,0,0,0,0,0,0,0,0,0,-1,1784,1758,0,0
567,-734,0,0,0,0,0,0,0,0,0,-1,1791,1758,0,0
574,-734,0,0,0,0,0,0,0,0,0,-1,1798,1758,0,0
581,-734,0,0,0,0,0,0,0,0,0,-1,1805,1758,0,0
588,-734,0,0,0,0,0,0,0,0,0,-1,1812,1758,0,0
595,-734,0,0,0,0,0,0,0,0,0,-1,1819,1758,0,0
602,-734,0,0,0,0,0,0,0,0,0,-1,1826,1758,0,0
609,-734,0,0,0,0,0,0,0,0,0,-1,1833,1758,0,0
616,-734,0,0,0,0,0,0,0,0,0,-1,1840,1758,0,0
623,-734,0,0,0,0,0,0,0,0,0,-1,1847,1758,0,0
630,-734,0,0,0,0,0,0,0,0,0,-1,1854,1758,0,0
637,-734,0,0,0,0,0,0,0,0,0,-1,1861,1758,0,0
644,-734,0,0,0,0,0,0,0,0,0,-1,1868,1758,0,0
651,-734,0,0,0,0,0,0,0,0,0,-1,1875,1758,0,0
658,-734,0,0,0,0,0,0,0,0,0,-1,1882,1758,0,0
665,-734,0,0,0,0,0,0,0,0,0,-1,1889,1758,0,0
672,-734,0,0,0,0,0,0,0,0,0,-1,1896,1758,0,0
679,-734,0,0,0,0,0,0,0,0,0,-1,1903,1758,0,0
686,-734,0,0,0,0,0,0,0,0,0,-1,1910,1758,0,0
693,-734,0,0,0,0,0,0,0,0,0,-1,1917,1758,0,0
700,-734,0,0,0,0,0,0,0,0,0,-1,1924,1758,0,0
707,-734,0,0,0,0,0,0,0,0,0,-1,1931,1758,0,0
714,-734,0,0,0,0,0,0,0,0,0,-1,1938,1758,0,0
721,-734,0,0,0,0,0,0,0,0,0,-1,1945,1758,0,0
728,-734,0,0,0,0,0,0,0,0,0,-1,1952,1758,0,0
735,-734,0,0,0,0,0,0,0,0,0,-1,1959,1758,0,0
742,-734,0,0,0,0,0,0,0,0,0,-1,1966,1758,0,0
749,-734,0,0,0,0,0,0,0,0,0,-1,1973,1758,0,0
756,-734,0,0,0,0,0,0,0,0,0,-1,1980,1758,0,0
763,-734,0,0,0,0,0,0,0,0,0,-1,1987,1758,0,0
770,-734,0,0,0,0,0,0,0,0,0,-1,1994,1758,0,0
777,-734,0,0,0,0,0,0,0,0,0,-1,2001,1758,0,0
784,-734,0,0,0,0,0,0,0,0,0,-1,2008,1758,0,0
791,-734,0,0,0,0,0,0,0,0,0,-1,2015,1758,0,0
798,-734,0,0,0,0,0,0,0,0,0,-1,2022,1758,0,0
805,-734,0,0,0,0,0,0,0,0,0,-1,2029,1758,0,0
812,-734,0,0,0,0,0,0,0,0,0,-1,2036,1758,0,0
-700,-741,0,0,0,0,0,0,0,0,0,-1,524,1765,0,0
-693,-741,0,0,0,0,0,0,0,0,0,-1,531,1765,0,0
-686,-741,0,0,0,0,0,0,0,0,0,-1,538,1765,0,0
-679,-741,0,0,0,0,0,0,0,0,0,-1,545,1765,0,0
-672,-741,0,0,0,0,0,0,0,0,0,-1,552,1765,0,0
-665,-741,0,0,0,0,0,0,0,0,0,-1,559,1765,0,0
-658,-741,0,0,0,0,0,0,0,0,0,-1,566,1765,0,0
-651,-741,0,0,0,0,0,0,0,0,0,-1,573,1765,0,0
-644,-741,0,0,0,0,0,0,0,0,0,-1,580,1765,0,0
-637,-741,0,0,0,0,0,0,0,0,0,-1,587,1765,0,0
-630,-741,0,0,0,0,0,0,0,0,0,-1,594,1765,0,0
-623,-741,0,0,0,0,0,0,0,0,0,-1,601,1765,0,0
-616,-741,0,0,0,0,0,0,0,0,0,-1,608,1765,0,0
-609,-741,0,0,0,0,0,0,0,0,0,-1,615,1765,0,0
-602,-741,0,0,0,0,0,0,0,0,0,-1,622,1765,0,0
-595,-741,0,0,0,0,0,0,0,0,0,-1,629,1765,0,0
-588,-741,0,0,0,0,0,0,0,0,0,-1,636,1765,0,0
-581,-741,0,0,0,0,0,0,0,0,0,-1,643,1765,0,0
-574,-741,0,0,0,0,0,0,0,0,0,-1,650,1765,0,0
-567,-741,0,0,0,0,0,0,0,0,0,-1,657,1765,0,0
-560,-741,0,0,0,0,0,0,0,0,0,-1,664,1765,0,0
-553,-741,0,0,0,0,0,0,0,0,0,-1,671,1765,0,0
-546,-741,0,0,0,0,0,0,0,0,0,-1,678,1765,0,0
-539,-741,0,0,0,0,0,0,0,0,0,-1,685,1765,0,0
-532,-741,0,0,0,0,0,0,0,0,0,-1,692,1765,0,0
-525,-741,0,0,0,0,0,0,0,0,0,-1,699,1765,0,0
-518,-741,0,0,0,0,0,0,0,0,0,-1,706,1765,0,0
-511,-741,0,0,0,0,0,0,0,0,0,-1,713,1765,0,0
-504,-741,0,0,0,0,0,0,0,0,0,-1,720,1765,0,0
-497,-741,0,0,0,0,0,0,0,0,0,-1,727,1765,0,0
-490,-741,0,0,0,0,0,0,0,0,0,-1,734,1765,0,0
-483,-741,0,0,0,0,0,0,0,0,0,-1,741,1765,0,0
-476,-741,0,0,0,0,0,0,0,0,0,-1,748,1765,0,0
-469,-741,0,0,0,0,0,0,0,0,0,-1,755,1765,0,0
-462,-741,0,0,0,0,0,0,0,0,0,-1,762,1765,0,0
-455,-741,0,0,0,0,0,0,0,0,0,-1,769,1765,0,0
-448,-741,0,0,0,0,0,0,0,0,0,-1,776,1765,0,0
-441,-741,0,0,0,0,0,0,0,0,0,-1,783,1765,0,0
-434,-741,0,0,0,0,0,0,0,0,0,-1,790,1765,0,0
-427,-741,0,0,0,0,0,0,0,0,0,-1,797,1765,0,0
-420,-741,0,0,0,0,0,0,0,0,0,-1,804,1765,0,0
-413,-741,0,0,0,0,0,0,0,0,0,-1,811,1765,0,0
-406,-741,0,0,0,0,0,0,0,0,0,-1,818,1765,0,0
-399,-741,0,0,0,0,0,0,0,0,0,-1,825,1765,0,0
-392,-741,0,0,0,0,0,0,0,0,0,-1,832,1765,0,0
-385,-741,0,0,0,0,0,0,0,0,0,-1,839,1765,0,0
-378,-741,0,0,0,0,0,0,0,0,0,-1,846,1765,0,0
-371,-741,0,0,0,0,0,0,0,0,0,-1,853,1765,0,0
-364,-741,0,0,0,0,0,0,0,0,0,-1,860,1765,0,0
-357,-741,0,0,0,0,0,0,0,0,0,-1,867,1765,0,0
-350,-741,0,0,0,0,0,0,0,0,0,-1,874,1765,0,0
-343,-741,0,0,0,0,0,0,0,0,0,-1,881,1765,0,0
-336,-741,0,0,0,0,0,0,0,0,0,-1,888,1765,0,0
-329,-741,0,0,0,0,0,0,0,0,0,-1,895,1765,0,0
-322,-741,0,0,0,0,0,0,0,0,0,-1,902,1765,0,0
-315,-741,0,0,0,0,0,0,0,0,0,-1,909,1765,0,0
-308,-741,0,0,0,0,0,0,0,0,0,-1,916,1765,0,0
-301,-741,0,0,0,0,0,0,0,0,0,-1,923,1765,0,0
-294,-741,0,0,0,0,0,0,0,0,0,-1,930,1765,0,0
-287,-741,0,0,0,0,0,0,0,0,0,-1,937,1765,0,0
-280,-741,0,0,0,0,0,0,0,0,0,-1,944,1765,0,0
-273,-741,0,0,0,0,0,0,0,0,0,-1,951,1765,0,0
-266,-741,0,0,0,0,0,0,0,0,0,-1,958,1765,0,0
-259,-741,0,0,0,0,0,0,0,0,0,-1,965,1765,0,0
-252,-741,0,0,0,0,0,0,0,0,0,-1,972,1765,0,0
-245,-741,0,0,0,0,0,0,0,0,0,-1,979,1765,0,0
-238,-741,7.13855,29.8348,0,0,0,0,0,0,0,-1,986,1765,7.13856,-29.8348
-231,-741,7.74182,29.3066,0,0,0,0,0,0,0,-1,993,1765,7.74183,-29.3066
-224,-741,7.80078,29.0964,0,0,0,0,0,0,0,-1,1000,1765,7.80079,-29.0964
-217,-741,8.15863,29.113,0,0,0,0,0,0,0,-1,1007,1765,8.15863,-29.1131
-210,-741,8.37024,29.3896,0,0,0,0,0,0,0,-1,1014,1765,8.37022,-29.3896
-203,-741,8.33801,29.8871,0,0,0,0,0,0,0,-1,1021,1765,8.33805,-29.8871
-196,-741,8.75513,30.84,0,0,0,0,0,0,0,-1,1028,1765,8.75516,-30.8399
-189,-741,9.16321,31.9888,0,0,0,0,0,0,0,-1,1035,1765,9.16327,-31.9888
-182,-741,9.71594,33.2998,0,0,0,0,0,0,0,-1,1042,1765,9.71593,-33.2998
-175,-741,9.8988,37.3856,0,0,0,0,0,0,0,-1,1049,1765,9.89882,-37.3856
-168,-741,8.59607,40.5542,0,0,0,0,0,0,0,-1,1056,1765,8.59612,-40.5542
-161,-741,9.60486,39.6904,0,0,0,0,0,0,0,-1,1063,1765,9.60487,-39.6904
-154,-741,10.2113,39.8828,0,0,0,0,0,0,0,-1,1070,1765,10.2114,-39.8828
-147,-741,9.84436,40.2544,0,0,0,0,0,0,0,-1,1077,1765,9.84441,-40.2544
-140,-741,9.47742,40.626,0,0,0,0,0,0,0,-1,1084,1765,9.47746,-40.626
-133,-741,9.7229,40.4899,0,0,0,0,0,0,0,-1,1091,1765,9.72287,-40.4898
-126,-741,9.21838,40.3661,0,0,0,0,0,0,0,-1,1098,1765,9.21833,-40.3661
-119,-741,8.88989,40.6936,0,0,0,0,0,0,0,-1,1105,1765,8.8899,-40.6936
-112,-741,8.84949,41.02,0,0,0,0,0,0,0,-1,1112,1765,8.84948,-41.02
-105,-741,9.10278,41.2107,0,0,0,0,0,0,0,-1,1119,1765,9.10279,-41.2107
-98,-741,9.19971,40.25,0,0,0,0,0,0,0,-1,1126,1765,9.19971,-40.25
-91,-741,8.40002,36.3687,0,0,0,0,0,0,0,-1,1133,1765,8.40002,-36.3687
-84,-741,7.8877,35.0892,0,0,0,0,0,0,0,-1,1140,1765,7.88776,-35.0892
-77,-741,7.73303,34.1174,0,0,0,0,0,0,0,-1,1147,1765,7.73304,-34.1174
-70,-741,7.5437,32.0275,0,0,0,0,0,0,0,-1,1154,1765,7.5437,-32.0275
-63,-741,8.64966,42.1838,0,0,0,0,0,0,0,-1,1161,1765,8.64966,-42.1838
-56,-741,8.90149,42.8022,0,0,0,0,0,0,0,-1,1168,1765,8.90143,-42.8023
-49,-741,8.85303,43.2043,0,0,0,0,0,0,0,-1,1175,1765,8.853,-43.2044
-42,-741,8.77661,43.3818,0,0,0,0,0,0,0,-1,1182,1765,8.77663,-43.3818
-35,-741,8.81006,43.4912,-0.00408985,0.000949145,0.000342271,0.000972287,-0.00411299,1.50329,0.00311705,0.0246632,1189,1765,8.81006,-43.4912
-28,-741,8.81689,43.6428,-0.00355426,0.00149934,-0.000511156,0.00155052,-0.00360544,-1.471,0.00305459,0.0150842,1196,1765,8.81694,-43.6428
-21,-741,8.8053,43.7877,-0.00242385,0.00311762,-0.00207765,0.00381006,-0.0031163,-1.24909,0.00400562,0.0178475,1203,1765,8.80527,-43.7877
-14,-741,8.75171,43.9365,-0.00181264,0.00350929,-0.00225358,0.00433535,-0.00263871,-1.21945,0.004066,0.0196211,1210,1765,8.75174,-43.9365
-7,-741,8.71582,44.0347,-0.00129179,0.00420327,-0.00282501,0.00539651,-0.00248502,-1.17115,0.00465274,0.0170801,1217,1765,8.71578,-44.0347
0,-741,8.6792,44.1454,-0.000632641,0.00499577,-0.00320303,0.00644526,-0.00208214,-1.14583,0.00513362,0.0159324,1224,1765,8.67916,-44.1454
7,-741,8.6532,44.2711,3.29026e-05,0.00609893,-0.00358348,0.00776064,-0.00162881,-1.1366,0.00579353,0.0172433,1231,1765,8.65315,-44.2711
14,-741,8.63367,44.3524,0.000644821,0.00725211,-0.00390764,0.00906547,-0.00116853,-1.13632,0.00646844,0.0172168,1238,1765,8.63361,-44.3524
21,-741,8.61121,44.4243,0.00114689,0.00874241,-0.00380597,0.0103213,-0.000432003,-1.17756,0.00702929,0.0135933,1245,1765,8.61123,-44.4244
28,-741,8.57898,44.5006,0.00133253,0.0106112,-0.00351983,0.0117953,0.000148407,-1.24628,0.00781454,0.0137992,1252,1765,8.57904,-44.5006
35,-741,8.57227,44.5514,0.00103008,0.0113247,-0.00289667,0.0120837,0.000270994,-1.3145,0.00796703,0.0148435,1259,1765,8.57225,-44.5514
42,-741,8.54492,44.5803,0.000535724,0.0117398,-0.00163734,0.0119741,0.000301349,-1.42862,0.00788422,0.0150581,1266,1765,8.54489,-44.5803
49,-741,8.52502,44.6136,-0.000304938,0.0123093,-0.000641937,0.0123419,-0.000337522,-1.52008,0.0083427,0.0102374,1273,1765,8.52506,-44.6136
56,-741,8.48853,44.63,-0.00123462,0.0122861,0.00040654,0.0122983,-0.00124683,1.54076,0.0086445,0.00991285,1280,1765,8.48854,-44.63
63,-741,8.46277,44.6349,-0.00268443,0.0125613,0.00120199,0.0126555,-0.00277862,1.4926,0.00949966,0.0138639,1287,1765,8.46274,-44.6349
70,-741,8.47168,44.6387,-0.0037722,0.0133067,0.00226787,0.0136027,-0.00406822,1.441,0.0106859,0.0153873,1294,1765,8.4717,-44.6387
77,-741,8.47253,44.6394,-0.00474232,0.0139307,0.00428561,0.0148673,-0.00567892,1.35563,0.0122514,0.0135732,1301,1765,8.47255,-44.6395
84,-741,8.42993,44.6212,-0.00582213,0.0134579,0.00575887,0.015047,-0.0074113,1.30155,0.0132138,0.0167341,1308,1765,8.42995,-44.6212
91,-741,8.41858,44.5829,-0.00620596,0.0140056,0.00622226,0.0157676,-0.00796792,1.29485,0.0139481,0.01244,1315,1765,8.41855,-44.5829
98,-741,8.40344,44.5244,-0.00631673,0.014409,0.0069911,0.0165467,-0.00845445,1.27405,0.0146843,0.00976537,1322,1765,8.40349,-44.5244
105,-741,8.39856,44.4572,-0.00620172,0.0149286,0.00747852,0.0173076,-0.0085807,1.26281,0.015227,0.0102679,1329,1765,8.39853,-44.4571
112,-741,8.40369,44.3802,-0.00582693,0.0152349,0.00788872,0.017862,-0.00845397,1.24933,0.0155138,0.0103986,1336,1765,8.40364,-44.3803
119,-741,8.37097,44.285,-0.00534358,0.0154558,0.00816632,0.0182789,-0.00816669,1.23796,0.015636,0.0130446,1343,1765,8.37102,-44.2851
126,-741,8.34241,44.1859,-0.00483465,0.0152756,0.00822107,0.0182086,-0.00776766,1.22811,0.0153959,0.0173134,1350,1765,8.34242,-44.1859
133,-741,8.31055,44.0968,-0.00422124,0.0146013,0.00823968,0.0176986,-0.00731855,1.21124,0.0148523,0.0145267,1357,1765,8.31053,-44.0968
140,-741,8.2843,43.9852,-0.00355047,0.0148072,0.00808417,0.0178596,-0.00660295,1.20976,0.0146134,0.0115838,1364,1765,8.28427,-43.9852
147,-741,8.26514,43.8691,-0.00316265,0.0146211,0.0074235,0.0173126,-0.00585412,1.22298,0.01391,0.0107259,1371,1765,8.26508,-43.8692
154,-741,8.23608,43.7673,-0.00291917,0.0127554,0.00731147,0.0156364,-0.00580012,1.19545,0.0128033,0.00891197,1378,1765,8.23608,-43.7673
161,-741,8.22021,43.605,-0.00296245,0.0115425,0.00696064,0.0143423,-0.00576229,1.18836,0.0119546,0.0105379,1385,1765,8.22023,-43.605
168,-741,8.18604,43.4541,-0.00242765,0.00852428,0.00702754,0.0119574,-0.00586081,1.11637,0.0104862,0.0255725,1392,1765,8.18603,-43.4541
175,-741,8.15149,43.3488,0,0,0,0,0,0,0,-1,1399,1765,8.15144,-43.3487
182,-741,8.12427,43.1206,0,0,0,0,0,0,0,-1,1406,1765,8.12431,-43.1206
189,-741,8.06775,42.952,0,0,0,0,0,0,0,-1,1413,1765,8.0678,-42.952
196,-741,8.02576,42.7588,0,0,0,0,0,0,0,-1,1420,1765,8.02571,-42.7588
203,-741,8.03552,42.4327,0,0,0,0,0,0,0,-1,1427,1765,8.0355,-42.4327
210,-741,8.02173,41.9901,0,0,0,0,0,0,0,-1,1434,1765,8.02172,-41.9901
217,-741,8.4032,40.1213,0,0,0,0,0,0,0,-1,1441,1765,8.40325,-40.1214
224,-741,8.0719,38.4249,0,0,0,0,0,0,0,-1,1448,1765,8.07187,-38.4249
231,-741,7.95923,39.0671,0,0,0,0,0,0,0,-1,1455,1765,7.9592,-39.0671
238,-741,7.7937,41.0979,0,0,0,0,0,0,0,-1,1462,1765,7.79373,-41.0979
245,-741,7.90784,40.7612,0,0,0,0,0,0,0,-1,1469,1765,7.90785,-40.7612
252,-741,8.43933,40.3015,0.00334518,0.0117012,-0.009904,0.0182724,-0.003226,-0.984998,0.0133871,0.0440838,1476,1765,8.43934,-40.3015
259,-741,8.47009,40.3757,0.00374034,0.0113475,-0.0102314,0.0184594,-0.0033716,-0.96336,0.0135705,0.0454504,1483,1765,8.4701,-40.3757
266,-741,7.88586,40.4617,0,0,0,0,0,0,0,-1,1490,1765,7.88583,-40.4616
273,-741,8.05688,40.4602,0,0,0,0,0,0,0,-1,1497,1765,8.05687,-40.4602
280,-741,8.22986,40.8604,0,0,0,0,0,0,0,-1,1504,1765,8.22988,-40.8604
287,-741,7.92236,41.7656,0,0,0,0,0,0,0,-1,1511,1765,7.92231,-41.7656
294,-741,6.55676,41.248,0,0,0,0,0,0,0,-1,1518,1765,6.55675,-41.248
301,-741,6.20667,38.5165,0,0,0,0,0,0,0,-1,1525,1765,6.20667,-38.5165
308,-741,6.57507,40.9431,0,0,0,0,0,0,0,-1,1532,1765,6.57504,-40.9431
315,-741,6.30457,39.5544,0,0,0,0,0,0,0,-1,1539,1765,6.30452,-39.5544
322,-741,6.03406,38.1658,0,0,0,0,0,0,0,-1,1546,1765,6.034,-38.1658
329,-741,4.74414,17.928,0,0,0,0,0,0,0,-1,1553,1765,4.74414,-17.928
336,-741,5.74304,22.0945,0,0,0,0,0,0,0,-1,1560,1765,5.74306,-22.0945
343,-741,7.09888,26.501,0,0,0,0,0,0,0,-1,1567,1765,7.09885,-26.501
350,-741,4.90369,5.44666,0,0,0,0,0,0,0,-1,1574,1765,4.90368,-5.44664
357,-741,4.02063,5.16626,0,0,0,0,0,0,0,-1,1581,1765,4.02058,-5.1662
364,-741,0,0,0,0,0,0,0,0,0,-1,1588,1765,0,0
371,-741,0,0,0,0,0,0,0,0,0,-1,1595,1765,0,0
378,-741,0,0,0,0,0,0,0,0,0,-1,1602,1765,0,0
385,-741,0,0,0,0,0,0,0,0,0,-1,1609,1765,0,0
392,-741,0,0,0,0,0,0,0,0,0,-1,1616,1765,0,0
399,-741,0,0,0,0,0,0,0,0,0,-1,1623,1765,0,0
406,-741,0,0,0,0,0,0,0,0,0,-1,1630,1765,0,0
413,-741,0,0,0,0,0,0,0,0,0,-1,1637,1765,0,0
420,-741,0,0,0,0,0,0,0,0,0,-1,1644,1765,0,0
427,-741,0,0,0,0,0,0,0,0,0,-1,1651,1765,0,0
434,-741,0,0,0,0,0,0,0,0,0,-1,1658,1765,0,0
441,-741,0,0,0,0,0,0,0,0,0,-1,1665,1765,0,0
448,-741,0,0,0,0,0,0,0,0,0,-1,1672,1765,0,0
455,-741,0,0,0,0,0,0,0,0,0,-1,1679,1765,0,0
462,-741,0,0,0,0,0,0,0,0,0,-1,1686,1765,0,0
469,-741,0,0,0,0,0,0,0,0,0,-1,1693,1765,0,0
476,-741,0,0,0,0,0,0,0,0,0,-1,1700,1765,0,0
483,-741,0,0,0,0,0,0,0,0,0,-1,1707,1765,0,0
490,-741,0,0,0,0,0,0,0,0,0,-1,1714,1765,0,0
497,-741,0,0,0,0,0,0,0,0,0,-1,1721,1765,0,0
504,-741,0,0,0,0,0,0,0,0,0,-1,1728,1765,0,0
511,-741,0,0,0,0,0,0,0,0,0,-1,1735,1765,0,0
518,-741,0,0,0,0,0,0,0,0,0,-1,1742,1765,0,0
525,-741,0,0,0,0,0,0,0,0,0,-1,1749,1765,0,0
532,-741,0,0,0,0,0,0,0,0,0,-1,1756,1765,0,0
539,-741,0,0,0,0,0,0,0,0,0,-1,1763,1765,0,0
546,-741,0,0,0,0,0,0,0,0,0,-1,1770,1765,0,0
553,-741,0,0,0,0,0,0,0,0,0,-1,1777,1765,0,0
560,-741,0,0,0,0,0,0,0,0,0,-1,1784,1765,0,0
567,-741,0,0,0,0,0,0,0,0,0,-1,1791,1765,0,0
574,-741,0,0,0,0,0,0,0,0,0,-1,1798,1765,0,0
581,-741,0,0,0,0,0,0,0,0,0,-1,1805,1765,0,0
588,-741,0,0,0,0,0,0,0,0,0,-1,1812,1765,0,0
595,-741,0,0,0,0,0,0,0,0,0,-1,1819,1765,0,0
602,-741,0,0,0,0,0,0,0,0,0,-1,1826,1765,0,0
609,-741,0,0,0,0,0,0,0,0,0,-1,1833,1765,0,0
616,-741,0,0,0,0,0,0,0,0,0,-1,1840,1765,0,0
623,-741,0,0,0,0,0,0,0,0,0,-1,1847,1765,0,0
630,-741,0,0,0,0,0,0,0,0,0,-1,1854,1765,0,0
637,-741,0,0,0,0,0,0,0,0,0,-1,1861,1765,0,0
644,-741,0,0,0,0,0,0,0,0,0,-1,1868,1765,0,0
651,-741,0,0,0,0,0,0,0,0,0,-1,1875,1765,0,0
658,-741,0,0,0,0,0,0,0,0,0,-1,1882,1765,0,0
665,-741,0,0,0,0,0,0,0,0,0,-1,1889,1765,0,0
672,-741,0,0,0,0,0,0,0,0,0,-1,1896,1765,0,0
679,-741,0,0,0,0,0,0,0,0,0,-1,1903,1765,0,0
686,-741,0,0,0,0,0,0,0,0,0,-1,1910,1765,0,0
693,-741,0,0,0,0,0,0,0,0,0,-1,1917,1765,0,0
700,-741,0,0,0,0,0,0,0,0,0,-1,1924,1765,0,0
707,-741,0,0,0,0,0,0,0,0,0,-1,1931,1765,0,0
714,-741,0,0,0,0,0,0,0,0,0,-1,1938,1765,0,0
721,-741,0,0,0,0,0,0,0,0,0,-1,1945,1765,0,0
728,-741,0,0,0,0,0,0,0,0,0,-1,1952,1765,0,0
735,-741,0,0,0,0,0,0,0,0,0,-1,1959,1765,0,0
742,-741,0,0,0,0,0,0,0,0,0,-1,1966,1765,0,0
749,-741,0,0,0,0,0,0,0,0,0,-1,1973,1765,0,0
756,-741,0,0,0,0,0,0,0,0,0,-1,1980,1765,0,0
763,-741,0,0,0,0,0,0,0,0,0,-1,1987,1765,0,0
770,-741,0,0,0,0,0,0,0,0,0,-1,1994,1765,0,0
777,-741,0,0,0,0,0,0,0,0,0,-1,2001,1765,0,0
784,-741,0,0,0,0,0,0,0,0,0,-1,2008,1765,0,0
791,-741,0,0,0,0,0,0,0,0,0,-1,2015,1765,0,0
798,-741,0,0,0,0,0,0,0,0,0,-1,2022,1765,0,0
805,-741,0,0,0,0,0,0,0,0,0,-1,2029,1765,0,0
812,-741,0,0,0,0,0,0,0,0,0,-1,2036,1765,0,0
-700,-748,0,0,0,0,0,0,0,0,0,-1,524,1772,0,0
-693,-748,0,0,0,0,0,0,0,0,0,-1,531,1772,0,0
-686,-748,0,0,0,0,0,0,0,0,0,-1,538,1772,0,0
-679,-748,0,0,0,0,0,0,0,0,0,-1,545,1772,0,0
-672,-748,0,0,0,0,0,0,0,0,0,-1,552,1772,0,0
-665,-748,0,0,0,0,0,0,0,0,0,-1,559,1772,0,0
-658,-748,0,0,0,0,0,0,0,0,0,-1,566,1772,0,0
-651,-748,0,0,0,0,0,0,0,0,0,-1,573,1772,0,0
-644,-748,0,0,0,0,0,0,0,0,0,-1,580,1772,0,0
-637,-748,0,0,0,0,0,0,0,0,0,-1,587,1772,0,0
-630,-748,0,0,0,0,0,0,0,0,0,-1,594,1772,0,0
-623,-748,0,0,0,0,0,0,0,0,0,-1,601,1772,0,0
-616,-748,0,0,0,0,0,0,0,0,0,-1,608,1772,0,0
-609,-748,0,0,0,0,0,0,0,0,0,-1,615,1772,0,0
-602,-748,0,0,0,0,0,0,0,0,0,-1,622,1772,0,0
-595,-748,0,0,0,0,0,0,0,0,0,-1,629,1772,0,0
-588,-748,0,0,0,0,0,0,0,0,0,-1,636,1772,0,0
-581,-748,0,0,0,0,0,0,0,0,0,-1,643,1772,0,0
-574,-748,0,0,0,0,0,0,0,0,0,-1,650,1772,0,0
-567,-748,0,0,0,0,0,0,0,0,0,-1,657,1772,0,0
-560,-748,0,0,0,0,0,0,0,0,0,-1,664,1772,0,0
-553,-748,0,0,0,0,0,0,0,0,0,-1,671,1772,0,0
-546,-748,0,0,0,0,0,0,0,0,0,-1,678,1772,0,0
-539,-748,0,0,0,0,0,0,0,0,0,-1,685,1772,0,0
-532,-748,0,0,0,0,0,0,0,0,0,-1,692,1772,0,0
-525,-748,0,0,0,0,0,0,0,0,0,-1,699,1772,0,0
-518,-748,0,0,0,0,0,0,0,0,0,-1,706,1772,0,0
-511,-748,0,0,0,0,0,0,0,0,0,-1,713,1772,0,0
-504,-748,0,0,0,0,0,0,0,0,0,-1,720,1772,0,0
-497,-748,0,0,0,0,0,0,0,0,0,-1,727,1772,0,0
-490,-748,0,0,0,0,0,0,0,0,0,-1,734,1772,0,0
-483,-748,0,0,0,0,0,0,0,0,0,-1,741,1772,0,0
-476,-748,0,0,0,0,0,0,0,0,0,-1,748,1772,0,0
-469,-748,0,0,0,0,0,0,0,0,0,-1,755,1772,0,0
-462,-748,0,0,0,0,0,0,0,0,0,-1,762,1772,0,0
-455,-748,0,0,0,0,0,0,0,0,0,-1,769,1772,0,0
-448,-748,0,0,0,0,0,0,0,0,0,-1,776,1772,0,0
-441,-748,0,0,0,0,0,0,0,0,0,-1,783,1772,0,0
-434,-748,0,0,0,0,0,0,0,0,0,-1,790,1772,0,0
-427,-748,0,0,0,0,0,0,0,0,0,-1,797,1772,0,0
-420,-748,0,0,0,0,0,0,0,0,0,-1,804,1772,0,0
-413,-748,0,0,0,0,0,0,0,0,0,-1,811,1772,0,0
-406,-748,0,0,0,0,0,0,0,0,0,-1,818,1772,0,0
-399,-748,0,0,0,0,0,0,0,0,0,-1,825,1772,0,0
-392,-748,0,0,0,0,0,0,0,0,0,-1,832,1772,0,0
-385,-748,0,0,0,0,0,0,0,0,0,-1,839,1772,0,0
-378,-748,0,0,0,0,0,0,0,0,0,-1,846,1772,0,0
-371,-748,0,0,0,0,0,0,0,0,0,-1,853,1772,0,0
-364,-748,0,0,0,0,0,0,0,0,0,-1,860,1772,0,0
-357,-748,0,0,0,0,0,0,0,0,0,-1,867,1772,0,0
-350,-748,0,0,0,0,0,0,0,0,0,-1,874,1772,0,0
-343,-748,0,0,0,0,0,0,0,0,0,-1,881,1772,0,0
-336,-748,0,0,0,0,0,0,0,0,0,-1,888,1772,0,0
-329,-748,0,0,0,0,0,0,0,0,0,-1,895,1772,0,0
-322,-748,0,0,0,0,0,0,0,0,0,-1,902,1772,0,0
-315,-748,0,0,0,0,0,0,0,0,0,-1,909,1772,0,0
-308,-748,0,0,0,0,0,0,0,0,0,-1,916,1772,0,0
-301,-748,0,0,0,0,0,0,0,0,0,-1,923,1772,0,0
-294,-748,0,0,0,0,0,0,0,0,0,-1,930,1772,0,0
-287,-748,0,0,0,0,0,0,0,0,0,-1,937,1772,0,0
-280,-748,0,0,0,0,0,0,0,0,0,-1,944,1772,0,0
-273,-748,0,0,0,0,0,0,0,0,0,-1,951,1772,0,0
-266,-748,0,0,0,0,0,0,0,0,0,-1,958,1772,0,0
-259,-748,0,0,0,0,0,0,0,0,0,-1,965,1772,0,0
-252,-748,0,0,0,0,0,0,0,0,0,-1,972,1772,0,0
-245,-748,0,0,0,0,0,0,0,0,0,-1,979,1772,0,0
-238,-748,0,0,0,0,0,0,0,0,0,-1,986,1772,0,0
-231,-748,0,0,0,0,0,0,0,0,0,-1,993,1772,0,0
-224,-748,0,0,0,0,0,0,0,0,0,-1,1000,1772,0,0
-217,-748,8.97742,29.9884,0,0,0,0,0,0,0,-1,1007,1772,8.97744,-29.9884
-210,-748,8.8941,30.14,0,0,0,0,0,0,0,-1,1014,1772,8.8941,-30.14
-203,-748,8.57703,30.2961,0,0,0,0,0,0,0,-1,1021,1772,8.57706,-30.2962
-196,-748,8.01953,29.9611,0,0,0,0,0,0,0,-1,1028,1772,8.01957,-29.9611
-189,-748,9.63245,31.4406,0,0,0,0,0,0,0,-1,1035,1772,9.6325,-31.4406
-182,-748,3.94958,20.8662,0,0,0,0,0,0,0,-1,1042,1772,3.94959,-20.8662
-175,-748,3.56726,19.4518,0,0,0,0,0,0,0,-1,1049,1772,3.5673,-19.4518
-168,-748,3.04858,18.0109,0,0,0,0,0,0,0,-1,1056,1772,3.04853,-18.0108
-161,-748,3.50562,13.2729,0,0,0,0,0,0,0,-1,1063,1772,3.5056,-13.2729
-154,-748,-3.38562,10.6989,0,0,0,0,0,0,0,-1,1070,1772,-3.38564,-10.6989
-147,-748,10.3278,40.7567,0,0,0,0,0,0,0,-1,1077,1772,10.3278,-40.7567
-140,-748,10.5353,40.1616,0,0,0,0,0,0,0,-1,1084,1772,10.5353,-40.1616
-133,-748,7.44727,22.0308,0,0,0,0,0,0,0,-1,1091,1772,7.44728,-22.0308
-126,-748,5.98035,22.6067,0,0,0,0,0,0,0,-1,1098,1772,5.9803,-22.6067
-119,-748,6.63342,26.309,0,0,0,0,0,0,0,-1,1105,1772,6.6334,-26.3089
-112,-748,6.91333,24.923,0,0,0,0,0,0,0,-1,1112,1772,6.91339,-24.923
-105,-748,6.83313,25.0537,0,0,0,0,0,0,0,-1,1119,1772,6.83311,-25.0537
-98,-748,8.13623,30.8743,0,0,0,0,0,0,0,-1,1126,1772,8.13628,-30.8742
-91,-748,4.85352,15.3033,0,0,0,0,0,0,0,-1,1133,1772,4.85351,-15.3033
-84,-748,-0.192017,7.26196,0,0,0,0,0,0,0,-1,1140,1772,-0.192047,-7.26201
-77,-748,4.42615,13.5537,0,0,0,0,0,0,0,-1,1147,1772,4.4261,-13.5538
-70,-748,4.46191,13.7446,0,0,0,0,0,0,0,-1,1154,1772,4.4619,-13.7446
-63,-748,4.49768,13.9355,0,0,0,0,0,0,0,-1,1161,1772,4.49769,-13.9355
-56,-748,3.05762,7.87817,0,0,0,0,0,0,0,-1,1168,1772,3.05768,-7.87822
-49,-748,3.04102,7.82471,0,0,0,0,0,0,0,-1,1175,1772,3.04096,-7.82468
-42,-748,0.793457,14.9474,0,0,0,0,0,0,0,-1,1182,1772,0.793413,-14.9474
-35,-748,8.99756,43.436,0,0,0,0,0,0,0,-1,1189,1772,8.99752,-43.4361
-28,-748,8.96155,43.6678,-0.000717548,0.00881936,-0.00134765,0.00900614,-0.000904324,-1.43308,0.00632711,0.0496259,1196,1772,8.96153,-43.6678
-21,-748,8.9375,43.8115,0.000965448,0.0109866,-0.00387768,0.0123118,-0.000359775,-1.24148,0.00833037,0.0237143,1203,1772,8.93748,-43.8116
-14,-748,8.86218,43.885,0.00175372,0.0114657,-0.00454551,0.0132612,-4.17745e-05,-1.1946,0.00885477,0.0179237,1210,1772,8.8622,-43.885
-7,-748,8.81128,43.9988,0.00233889,0.0123699,-0.00561762,0.0148852,-0.000176407,-1.14981,0.00998276,0.0172653,1217,1772,8.81127,-43.9988
0,-748,8.76575,44.1108,0.00316369,0.013271,-0.00647891,0.0164341,5.41098e-07,-1.11662,0.0109559,0.0161478,1224,1772,8.76575,-44.1109
7,-748,8.75,44.2123,0.00377617,0.0146063,-0.00727706,0.018262,0.000120479,-1.10526,0.0121347,0.0147964,1231,1772,8.75005,-44.2123
14,-748,8.71838,44.3253,0.00428377,0.0160234,-0.00808886,0.0201478,0.000159372,-1.09927,0.0133791,0.0160659,1238,1772,8.71842,-44.3253
21,-748,8.70142,44.4083,0.00453628,0.0172774,-0.00803251,0.0211589,0.00065476,-1.12066,0.0138928,0.0115264,1245,1772,8.70136,-44.4083
28,-748,8.62537,44.5018,0.00416645,0.0194621,-0.00741343,0.0224655,0.00116307,-1.18588,0.0146048,0.0120419,1252,1772,8.62535,-44.5019
35,-748,8.6095,44.5326,0.00297869,0.0201147,-0.00631366,0.0221897,0.000903717,-1.25327,0.0145013,0.0130038,1259,1772,8.60947,-44.5326
42,-748,8.58191,44.5658,0.00165764,0.0202222,-0.00434201,0.0211875,0.000692295,-1.35203,0.0139,0.0140745,1266,1772,8.58186,-44.5658
49,-748,8.5575,44.582,-0.000136242,0.0206862,-0.00259911,0.0210058,-0.000455766,-1.44847,0.0141582,0.0109414,1273,1772,8.55752,-44.5821
56,-748,8.51965,44.6171,-0.00197922,0.0203814,-0.00067972,0.020402,-0.00199987,-1.54044,0.0143146,0.0105834,1280,1772,8.51961,-44.6171
63,-748,8.48889,44.6271,-0.00449277,0.0204185,0.00091375,0.020452,-0.00452624,1.53418,0.0153672,0.0122144,1287,1772,8.48889,-44.6271
70,-748,8.48364,44.6284,-0.00673669,0.0210905,0.00289703,0.0213889,-0.00703509,1.46815,0.0170939,0.0139806,1294,1772,8.4837,-44.6284
77,-748,8.46289,44.6129,-0.0086536,0.0215366,0.00643054,0.0228492,-0.00996624,1.36944,0.0194266,0.0134571,1301,1772,8.46292,-44.6129
84,-748,8.39233,44.6095,-0.0102565,0.0210353,0.00879741,0.023339,-0.0125602,1.31468,0.0210355,0.0155242,1308,1772,8.39231,-44.6095
91,-748,8.36584,44.5758,-0.0108118,0.0219403,0.00965873,0.0245765,-0.013448,1.30435,0.0222647,0.0117896,1315,1772,8.36583,-44.5757
98,-748,8.3335,44.5181,-0.0109838,0.0226266,0.010903,0.0258536,-0.0142108,1.28304,0.0234545,0.0104366,1322,1772,8.33353,-44.5181
105,-748,8.32886,44.4402,-0.0108464,0.023558,0.0116643,0.0271397,-0.0144281,1.27287,0.0243704,0.0117115,1329,1772,8.32891,-44.4402
112,-748,8.31226,44.3613,-0.0102888,0.0241488,0.0123546,0.0281225,-0.0142625,1.25961,0.0249033,0.0144598,1336,1772,8.31223,-44.3613
119,-748,8.29321,44.2783,-0.00963798,0.0247084,0.013034,0.0290945,-0.0140241,1.24619,0.0253963,0.0123482,1343,1772,8.29316,-44.2783
126,-748,8.2572,44.2145,-0.00894866,0.0252659,0.013215,0.0297756,-0.0134584,1.24193,0.0255469,0.0136051,1350,1772,8.2572,-44.2145
133,-748,8.20239,44.1069,-0.00788586,0.0243196,0.0132509,0.0290708,-0.012637,1.22652,0.0246952,0.00889866,1357,1772,8.20244,-44.107
140,-748,8.20007,43.9822,-0.0065593,0.0246698,0.0133007,0.0295668,-0.0114563,1.21802,0.0244419,0.0124771,1364,1772,8.20008,-43.9821
147,-748,8.16736,43.8656,-0.00572095,0.0246906,0.0125591,0.0292066,-0.0102369,1.22562,0.0236343,0.0147498,1371,1772,8.16732,-43.8656
154,-748,8.09998,43.751,-0.00503603,0.0221102,0.0126143,0.0270668,-0.00999259,1.1964,0.0221403,0.0122607,1378,1772,8.09999,-43.751
161,-748,8.05457,43.6205,-0.00477478,0.0203992,0.0122123,0.0253499,-0.00972557,1.18565,0.0209099,0.0179548,1385,1772,8.05456,-43.6204
168,-748,8.04578,43.4834,0,0,0,0,0,0,0,-1,1392,1772,8.04579,-43.4834
175,-748,11.6235,16.8242,0,0,0,0,0,0,0,-1,1399,1772,11.6236,-16.8242
182,-748,7.62476,10.3058,0,0,0,0,0,0,0,-1,1406,1772,7.62476,-10.3058
189,-748,6.15857,6.95898,0,0,0,0,0,0,0,-1,1413,1772,6.15862,-6.95896
196,-748,3.9425,8.46021,0,0,0,0,0,0,0,-1,1420,1772,3.9425,-8.46026
203,-748,3.9668,12.9835,0,0,0,0,0,0,0,-1,1427,1772,3.96678,-12.9836
210,-748,4.71472,16.8318,0,0,0,0,0,0,0,-1,1434,1772,4.71471,-16.8317
217,-748,5.38452,21.5551,0,0,0,0,0,0,0,-1,1441,1772,5.38455,-21.555
224,-748,6.14258,25.2345,0,0,0,0,0,0,0,-1,1448,1772,6.14263,-25.2345
231,-748,6.46045,29.7867,0,0,0,0,0,0,0,-1,1455,1772,6.46049,-29.7867
238,-748,7.41565,32.8574,0,0,0,0,0,0,0,-1,1462,1772,7.41562,-32.8574
245,-748,7.84912,32.0914,0,0,0,0,0,0,0,-1,1469,1772,7.84914,-32.0914
252,-748,8.74976,39.9578,0,0,0,0,0,0,0,-1,1476,1772,8.7498,-39.9577
259,-748,8.71497,40.2614,0,0,0,0,0,0,0,-1,1483,1772,8.71497,-40.2614
266,-748,8.25952,39.3665,0,0,0,0,0,0,0,-1,1490,1772,8.25952,-39.3664
273,-748,8.50684,39.9956,0,0,0,0,0,0,0,-1,1497,1772,8.50682,-39.9957
280,-748,8.76538,40.4501,0,0,0,0,0,0,0,-1,1504,1772,8.76537,-40.45
287,-748,14.161,8.32813,0,0,0,0,0,0,0,-1,1511,1772,14.161,-8.32808
294,-748,6.38525,32.4724,0,0,0,0,0,0,0,-1,1518,1772,6.38521,-32.4725
301,-748,5.40393,38.9807,0,0,0,0,0,0,0,-1,1525,1772,5.40397,-38.9807
308,-748,5.95227,37.1827,0,0,0,0,0,0,0,-1,1532,1772,5.95229,-37.1827
315,-748,5.78125,40.1671,0,0,0,0,0,0,0,-1,1539,1772,5.78121,-40.1671
322,-748,4.27344,28.8549,0,0,0,0,0,0,0,-1,1546,1772,4.27338,-28.8549
329,-748,3.87256,16.1473,0,0,0,0,0,0,0,-1,1553,1772,3.87259,-16.1474
336,-748,4.81006,19.6141,0,0,0,0,0,0,0,-1,1560,1772,4.81011,-19.6141
343,-748,0,0,0,0,0,0,0,0,0,-1,1567,1772,0,0
350,-748,0,0,0,0,0,0,0,0,0,-1,1574,1772,0,0
357,-748,0,0,0,0,0,0,0,0,0,-1,1581,1772,0,0
364,-748,0,0,0,0,0,0,0,0,0,-1,1588,1772,0,0
371,-748,0,0,0,0,0,0,0,0,0,-1,1595,1772,0,0
378,-748,0,0,0,0,0,0,0,0,0,-1,1602,1772,0,0
385,-748,0,0,0,0,0,0,0,0,0,-1,1609,1772,0,0
392,-748,0,0,0,0,0,0,0,0,0,-1,1616,1772,0,0
399,-748,0,0,0,0,0,0,0,0,0,-1,1623,1772,0,0
406,-748,0,0,0,0,0,0,0,0,0,-1,1630,1772,0,0
413,-748,0,0,0,0,0,0,0,0,0,-1,1637,1772,0,0
420,-748,0,0,0,0,0,0,0,0,0,-1,1644,1772,0,0
427,-748,0,0,0,0,0,0,0,0,0,-1,1651,1772,0,0
434,-748,0,0,0,0,0,0,0,0,0,-1,1658,1772,0,0
441,-748,0,0,0,0,0,0,0,0,0,-1,1665,1772,0,0
448,-748,0,0,0,0,0,0,0,0,0,-1,1672,1772,0,0
455,-748,0,0,0,0,0,0,0,0,0,-1,1679,1772,0,0
462,-748,0,0,0,0,0,0,0,0,0,-1,1686,1772,0,0
469,-748,0,0,0,0,0,0,0,0,0,-1,1693,1772,0,0
476,-748,0,0,0,0,0,0,0,0,0,-1,1700,1772,0,0
483,-748,0,0,0,0,0,0,0,0,0,-1,1707,1772,0,0
490,-748,0,0,0,0,0,0,0,0,0,-1,1714,1772,0,0
497,-748,0,0,0,0,0,0,0,0,0,-1,1721,1772,0,0
504,-748,0,0,0,0,0,0,0,0,0,-1,1728,1772,0,0
511,-748,0,0,0,0,0,0,0,0,0,-1,1735,1772,0,0
518,-748,0,0,0,0,0,0,0,0,0,-1,1742,1772,0,0
525,-748,0,0,0,0,0,0,0,0,0,-1,1749,1772,0,0
532,-748,0,0,0,0,0,0,0,0,0,-1,1756,1772,0,0
539,-748,0,0,0,0,0,0,0,0,0,-1,1763,1772,0,0
546,-748,0,0,0,0,0,0,0,0,0,-1,1770,1772,0,0
553,-748,0,0,0,0,0,0,0,0,0,-1,1777,1772,0,0
560,-748,0,0,0,0,0,0,0,0,0,-1,1784,1772,0,0
567,-748,0,0,0,0,0,0,0,0,0,-1,1791,1772,0,0
574,-748,0,0,0,0,0,0,0,0,0,-1,1798,1772,0,0
581,-748,0,0,0,0,0,0,0,0,0,-1,1805,1772,0,0
588,-748,0,0,0,0,0,0,0,0,0,-1,1812,1772,0,0
595,-748,0,0,0,0,0,0,0,0,0,-1,1819,1772,0,0
602,-748,0,0,0,0,0,0,0,0,0,-1,1826,1772,0,0
609,-748,0,0,0,0,0,0,0,0,0,-1,1833,1772,0,0
616,-748,0,0,0,0,0,0,0,0,0,-1,1840,1772,0,0
623,-748,0,0,0,0,0,0,0,0,0,-1,1847,1772,0,0
630,-748,0,0,0,0,0,0,0,0,0,-1,1854,1772,0,0
637,-748,0,0,0,0,0,0,0,0,0,-1,1861,1772,0,0
644,-748,0,0,0,0,0,0,0,0,0,-1,1868,1772,0,0
651,-748,0,0,0,0,0,0,0,0,0,-1,1875,1772,0,0
658,-748,0,0,0,0,0,0,0,0,0,-1,1882,1772,0,0
665,-748,0,0,0,0,0,0,0,0,0,-1,1889,1772,0,0
672,-748,0,0,0,0,0,0,0,0,0,-1,1896,1772,0,0
679,-748,0,0,0,0,0,0,0,0,0,-1,1903,1772,0,0
686,-748,0,0,0,0,0,0,0,0,0,-1,1910,1772,0,0
693,-748,0,0,0,0,0,0,0,0,0,-1,1917,1772,0,0
700,-748,0,0,0,0,0,0,0,0,0,-1,1924,1772,0,0
707,-748,0,0,0,0,0,0,0,0,0,-1,1931,1772,0,0
714,-748,0,0,0,0,0,0,0,0,0,-1,1938,1772,0,0
721,-748,0,0,0,0,0,0,0,0,0,-1,1945,1772,0,0
728,-748,0,0,0,0,0,0,0,0,0,-1,1952,1772,0,0
735,-748,0,0,0,0,0,0,0,0,0,-1,1959,1772,0,0
742,-748,0,0,0,0,0,0,0,0,0,-1,1966,1772,0,0
749,-748,0,0,0,0,0,0,0,0,0,-1,1973,1772,0,0
756,-748,0,0,0,0,0,0,0,0,0,-1,1980,1772,0,0
763,-748,0,0,0,0,0,0,0,0,0,-1,1987,1772,0,0
770,-748,0,0,0,0,0,0,0,0,0,-1,1994,1772,0,0
777,-748,0,0,0,0,0,0,0,0,0,-1,2001,1772,0,0
784,-748,0,0,0,0,0,0,0,0,0,-1,2008,1772,0,0
791,-748,0,0,0,0,0,0,0,0,0,-1,2015,1772,0,0
798,-748,0,0,0,0,0,0,0,0,0,-1,2022,1772,0,0
805,-748,0,0,0,0,0,0,0,0,0,-1,2029,1772,0,0
812,-748,0,0,0,0,0,0,0,0,0,-1,2036,1772,0,0
-700,-755,0,0,0,0,0,0,0,0,0,-1,524,1779,0,0
-693,-755,0,0,0,0,0,0,0,0,0,-1,531,1779,0,0
-686,-755,0,0,0,0,0,0,0,0,0,-1,538,1779,0,0
-679,-755,0,0,0,0,0,0,0,0,0,-1,545,1779,0,0
-672,-755,0,0,0,0,0,0,0,0,0,-1,552,1779,0,0
-665,-755,0,0,0,0,0,0,0,0,0,-1,559,1779,0,0
-658,-755,0,0,0,0,0,0,0,0,0,-1,566,1779,0,0
-651,-755,0,0,0,0,0,0,0,0,0,-1,573,1779,0,0
-644,-755,0,0,0,0,0,0,0,0,0,-1,580,1779,0,0
-637,-755,0,0,0,0,0,0,0,0,0,-1,587,1779,0,0
-630,-755,0,0,0,0,0,0,0,0,0,-1,594,1779,0,0
-623,-755,0,0,0,0,0,0,0,0,0,-1,601,1779,0,0
-616,-755,0,0,0,0,0,0,0,0,0,-1,608,1779,0,0
-609,-755,0,0,0,0,0,0,0,0,0,-1,615,1779,0,0
-602,-755,0,0,0,0,0,0,0,0,0,-1,622,1779,0,0
-595,-755,0,0,0,0,0,0,0,0,0,-1,629,1779,0,0
-588,-755,0,0,0,0,0,0,0,0,0,-1,636,1779,0,0
-581,-755,0,0,0,0,0,0,0,0,0,-1,643,1779,0,0
-574,-755,0,0,0,0,0,0,0,0,0,-1,650,1779,0,0
-567,-755,0,0,0,0,0,0,0,0,0,-1,657,1779,0,0
-560,-755,0,0,0,0,0,0,0,0,0,-1,664,1779,0,0
-553,-755,0,0,0,0,0,0,0,0,0,-1,671,1779,0,0
-546,-755,0,0,0,0,0,0,0,0,0,-1,678,1779,0,0
-539,-755,0,0,0,0,0,0,0,0,0,-1,685,1779,0,0
-532,-755,0,0,0,0,0,0,0,0,0,-1,692,1779,0,0
-525,-755,0,0,0,0,0,0,0,0,0,-1,699,1779,0,0
-518,-755,0,0,0,0,0,0,0,0,0,-1,706,1779,0,0
-511,-755,0,0,0,0,0,0,0,0,0,-1,713,1779,0,0
-504,-755,0,0,0,0,0,0,0,0,0,-1,720,1779,0,0
-497,-755,0,0,0,0,0,0,0,0,0,-1,727,1779,0,0
-490,-755,0,0,0,0,0,0,0,0,0,-1,734,1779,0,0
-483,-755,0,0,0,0,0,0,0,0,0,-1,741,1779,0,0
-476,-755,0,0,0,0,0,0,0,0,0,-1,748,1779,0,0
-469,-755,0,0,0,0,0,0,0,0,0,-1,755,1779,0,0
-462,-755,0,0,0,0,0,0,0,0,0,-1,762,1779,0,0
-455,-755,0,0,0,0,0,0,0,0,0,-1,769,1779,0,0
-448,-755,0,0,0,0,0,0,0,0,0,-1,776,1779,0,0
-441,-755,0,0,0,0,0,0,0,0,0,-1,783,1779,0,0
-434,-755,0,0,0,0,0,0,0,0,0,-1,790,1779,0,0
-427,-755,0,0,0,0,0,0,0,0,0,-1,797,1779,0,0
-420,-755,0,0,0,0,0,0,0,0,0,-1,804,1779,0,0
-413,-755,0,0,0,0,0,0,0,0,0,-1,811,1779,0,0
-406,-755,0,0,0,0,0,0,0,0,0,-1,818,1779,0,0
-399,-755,0,0,0,0,0,0,0,0,0,-1,825,1779,0,0
-392,-755,0,0,0,0,0,0,0,0,0,-1,832,1779,0,0
-385,-755,0,0,0,0,0,0,0,0,0,-1,839,1779,0,0
-378,-755,0,0,0,0,0,0,0,0,0,-1,846,1779,0,0
-371,-755,0,0,0,0,0,0,0,0,0,-1,853,1779,0,0
-364,-755,0,0,0,0,0,0,0,0,0,-1,860,1779,0,0
-357,-755,0,0,0,0,0,0,0,0,0,-1,867,1779,0,0
-350,-755,0,0,0,0,0,0,0,0,0,-1,874,1779,0,0
-343,-755,0,0,0,0,0,0,0,0,0,-1,881,1779,0,0
-336,-755,0,0,0,0,0,0,0,0,0,-1,888,1779,0,0
-329,-755,0,0,0,0,0,0,0,0,0,-1,895,1779,0,0
-322,-755,0,0,0,0,0,0,0,0,0,-1,902,1779,0,0
-315,-755,0,0,0,0,0,0,0,0,0,-1,909,1779,0,0
-308,-755,0,0,0,0,0,0,0,0,0,-1,916,1779,0,0
-301,-755,0,0,0,0,0,0,0,0,0,-1,923,1779,0,0
-294,-755,0,0,0,0,0,0,0,0,0,-1,930,1779,0,0
-287,-755,0,0,0,0,0,0,0,0,0,-1,937,1779,0,0
-280,-755,0,0,0,0,0,0,0,0,0,-1,944,1779,0,0
-273,-755,0,0,0,0,0,0,0,0,0,-1,951,1779,0,0
-266,-755,0,0,0,0,0,0,0,0,0,-1,958,1779,0,0
-259,-755,0,0,0,0,0,0,0,0,0,-1,965,1779,0,0
-252,-755,0,0,0,0,0,0,0,0,0,-1,972,1779,0,0
-245,-755,0,0,0,0,0,0,0,0,0,-1,979,1779,0,0
-238,-755,0,0,0,0,0,0,0,0,0,-1,986,1779,0,0
-231,-755,0,0,0,0,0,0,0,0,0,-1,993,1779,0,0
-224,-755,0,0,0,0,0,0,0,0,0,-1,1000,1779,0,0
-217,-755,0,0,0,0,0,0,0,0,0,-1,1007,1779,0,0
-210,-755,0,0,0,0,0,0,0,0,0,-1,1014,1779,0,0
-203,-755,8.97363,30.5414,0,0,0,0,0,0,0,-1,1021,1779,8.97362,-30.5414
-196,-755,8.34436,29.0909,0,0,0,0,0,0,0,-1,1028,1779,8.3443,-29.091
-189,-755,4.8175,22.4788,0,0,0,0,0,0,0,-1,1035,1779,4.81745,-22.4788
-182,-755,4.021,20.8032,0,0,0,0,0,0,0,-1,1042,1779,4.02094,-20.8032
-175,-755,3.79993,18.8242,0,0,0,0,0,0,0,-1,1049,1779,3.79995,-18.8242
-168,-755,3.14294,16.9865,0,0,0,0,0,0,0,-1,1056,1779,3.14291,-16.9864
-161,-755,-2.85889,11.5868,0,0,0,0,0,0,0,-1,1063,1779,-2.85887,-11.5868
-154,-755,-5.39026,8.51416,0,0,0,0,0,0,0,-1,1070,1779,-5.3903,-8.51417
-147,-755,-6.45593,10.2422,0,0,0,0,0,0,0,-1,1077,1779,-6.45594,-10.2422
-140,-755,1.33521,21.3856,0,0,0,0,0,0,0,-1,1084,1779,1.33522,-21.3857
-133,-755,2.89417,21.0964,0,0,0,0,0,0,0,-1,1091,1779,2.89422,-21.0964
-126,-755,3.26404,20.9304,0,0,0,0,0,0,0,-1,1098,1779,3.26399,-20.9305
-119,-755,5.17761,21.9325,0,0,0,0,0,0,0,-1,1105,1779,5.17761,-21.9325
-112,-755,5.40247,24.5646,0,0,0,0,0,0,0,-1,1112,1779,5.40244,-24.5646
-105,-755,7.01294,20.1539,0,0,0,0,0,0,0,-1,1119,1779,7.01295,-20.154
-98,-755,5.50708,16.9628,0,0,0,0,0,0,0,-1,1126,1779,5.5071,-16.9628
-91,-755,5.51025,12.0438,0,0,0,0,0,0,0,-1,1133,1779,5.51022,-12.0439
-84,-755,0.169312,8.66443,0,0,0,0,0,0,0,-1,1140,1779,0.16932,-8.66446
-77,-755,-0.0491943,6.87439,0,0,0,0,0,0,0,-1,1147,1779,-0.0491385,-6.87443
-70,-755,4.5686,13.2169,0,0,0,0,0,0,0,-1,1154,1779,4.56865,-13.2169
-63,-755,-1.36316,7.3147,0,0,0,0,0,0,0,-1,1161,1779,-1.36312,-7.31473
-56,-755,0.0483398,5.06079,0,0,0,0,0,0,0,-1,1168,1779,0.0483138,-5.06084
-49,-755,-1.32263,5.33716,0,0,0,0,0,0,0,-1,1175,1779,-1.32264,-5.33718
-42,-755,-2.03613,4.01672,0,0,0,0,0,0,0,-1,1182,1779,-2.0361,-4.01671
-35,-755,-2.72498,2.37476,0,0,0,0,0,0,0,-1,1189,1779,-2.72502,-2.37473
-28,-755,8.98499,43.7345,0,0,0,0,0,0,0,-1,1196,1779,8.98495,-43.7345
-21,-755,9.00708,43.9043,0,0,0,0,0,0,0,-1,1203,1779,9.00714,-43.9044
-14,-755,9.06555,43.8665,0.00450247,0.0194209,-0.00683669,0.02208,0.00184338,-1.19986,0.0141456,0.0355301,1210,1779,9.06554,-43.8665
-7,-755,8.92224,43.9558,0.00505048,0.0207124,-0.00848843,0.0244304,0.00133253,-1.15796,0.0158614,0.0246321,1217,1779,8.92228,-43.9558
0,-755,8.85486,44.0588,0.00609155,0.0220112,-0.00994977,0.0267933,0.00130945,-1.12277,0.0174421,0.0144105,1224,1779,8.85481,-44.0588
7,-755,8.82361,44.1791,0.00659661,0.0239261,-0.0112503,0.0294616,0.00106107,-1.11354,0.0192971,0.012822,1231,1779,8.82359,-44.179
14,-755,8.80615,44.2944,0.0068176,0.0259761,-0.0125221,0.0321628,0.000630883,-1.11191,0.0212347,0.0115998,1238,1779,8.80618,-44.2944
21,-755,8.74048,44.4249,0.00655183,0.0269815,-0.012437,0.0328608,0.000672475,-1.1292,0.0216865,0.0161311,1245,1779,8.74052,-44.4249
28,-755,8.67444,44.4601,0.00532749,0.0297468,-0.0114615,0.0342835,0.000790764,-1.1939,0.0225967,0.0199196,1252,1779,8.67447,-44.4601
35,-755,8.67395,44.5413,0.00292828,0.0304958,-0.00975999,0.0336014,-0.000177288,-1.26273,0.0224602,0.0206769,1259,1779,8.67399,-44.5413
42,-755,8.63196,44.5486,0.000523897,0.0303958,-0.00697555,0.0319444,-0.00102472,-1.35233,0.0216459,0.0155718,1266,1779,8.632,-44.5486
49,-755,8.59204,44.5461,-0.00250093,0.0308309,-0.00438794,0.0313989,-0.0030689,-1.44207,0.0220269,0.010678,1273,1779,8.59199,-44.5462
56,-755,8.54688,44.5912,-0.00546052,0.0303003,-0.00151474,0.0303644,-0.00552456,-1.52854,0.0223136,0.0101257,1280,1779,8.54681,-44.5912
63,-755,8.53015,44.6201,-0.00911413,0.0302109,0.000840186,0.0302289,-0.00913207,1.54944,0.0237882,0.0100639,1287,1779,8.53016,-44.6201
70,-755,8.50403,44.6012,-0.0123247,0.030951,0.00368278,0.0312622,-0.0126359,1.4865,0.026094,0.0132706,1294,1779,8.50402,-44.6012
77,-755,8.43628,44.5627,-0.0150772,0.0314936,0.00862122,0.0330383,-0.0166219,1.3935,0.0291889,0.0127755,1301,1779,8.43623,-44.5627
84,-755,8.38965,44.5551,-0.0172586,0.0310284,0.0119857,0.0338398,-0.02007,1.3404,0.0314614,0.0132552,1308,1779,8.38965,-44.5551
91,-755,8.34778,44.5142,-0.0178374,0.0325286,0.0133734,0.0358593,-0.0211682,1.32671,0.033287,0.0133123,1315,1779,8.34776,-44.5142
98,-755,8.2926,44.472,-0.0178897,0.0337502,0.0152129,0.0378986,-0.0220381,1.30458,0.035006,0.0137785,1322,1779,8.29258,-44.472
105,-755,8.28955,44.4363,-0.0174987,0.0354196,0.0163286,0.0400524,-0.0221315,1.29434,0.0363954,0.0174199,1329,1779,8.28956,-44.4363
112,-755,8.23462,44.3578,-0.0164858,0.0366776,0.0174548,0.0418962,-0.0217044,1.28028,0.0373316,0.023328,1336,1779,8.2346,-44.3578
119,-755,8.20239,44.2535,-0.0153394,0.0379908,0.0186523,0.0438669,-0.0212155,1.2656,0.0383265,0.0231768,1343,1779,8.20239,-44.2535
126,-755,8.14368,44.2578,-0.0141485,0.0401587,0.0191646,0.0462406,-0.0202304,1.2635,0.0393442,0.0254937,1350,1779,8.14368,-44.2578
133,-755,8.01941,44.1307,-0.0123533,0.0390882,0.0195767,0.0456909,-0.018956,1.2455,0.0383731,0.0266055,1357,1779,8.0194,-44.1307
140,-755,7.95801,44.0095,-0.0100814,0.039796,0.0200928,0.0468832,-0.0171686,1.2317,0.0382838,0.0357167,1364,1779,7.95798,-44.0095
147,-755,8.00427,43.9183,-0.00868499,0.0403739,0.0194388,0.0471423,-0.0154535,1.23573,0.0376518,0.0388071,1371,1779,8.00425,-43.9183
154,-755,7.80994,43.839,-0.00750373,0.0372504,0.019961,0.0448595,-0.0151129,1.2066,0.0360169,0.0374673,1378,1779,7.80989,-43.839
161,-755,7.92212,43.6549,0,0,0,0,0,0,0,-1,1385,1779,7.92216,-43.6549
168,-755,3.98181,7.35901,0,0,0,0,0,0,0,-1,1392,1779,3.98184,-7.35904
175,-755,8.17065,1.34363,0,0,0,0,0,0,0,-1,1399,1779,8.1706,-1.34368
182,-755,8.09216,2.96924,0,0,0,0,0,0,0,-1,1406,1779,8.09213,-2.9693
189,-755,8.04419,4.68042,0,0,0,0,0,0,0,-1,1413,1779,8.04419,-4.68046
196,-755,7.74841,7.4541,0,0,0,0,0,0,0,-1,1420,1779,7.74842,-7.45405
203,-755,4.80554,6.88696,0,0,0,0,0,0,0,-1,1427,1779,4.80554,-6.88697
210,-755,25.1694,7.35693,0,0,0,0,0,0,0,-1,1434,1779,25.1694,-7.35688
217,-755,5.01648,16.411,0,0,0,0,0,0,0,-1,1441,1779,5.01646,-16.411
224,-755,5.18103,22.6283,0,0,0,0,0,0,0,-1,1448,1779,5.18101,-22.6283
231,-755,5.7489,30.15,0,0,0,0,0,0,0,-1,1455,1779,5.74885,-30.15
238,-755,6.56323,29.2726,0,0,0,0,0,0,0,-1,1462,1779,6.56327,-29.2726
245,-755,5.76453,29.2085,0,0,0,0,0,0,0,-1,1469,1779,5.76455,-29.2085
252,-755,5.57678,29.0841,0,0,0,0,0,0,0,-1,1476,1779,5.57682,-29.0841
259,-755,5.37292,29.1577,0,0,0,0,0,0,0,-1,1483,1779,5.37293,-29.1577
266,-755,17.255,7.86096,0,0,0,0,0,0,0,-1,1490,1779,17.255,-7.86092
273,-755,15.7932,7.59778,0,0,0,0,0,0,0,-1,1497,1779,15.7932,-7.59777
280,-755,14.6255,7.34802,0,0,0,0,0,0,0,-1,1504,1779,14.6254,-7.34806
287,-755,13.8279,7.83105,0,0,0,0,0,0,0,-1,1511,1779,13.8279,-7.83104
294,-755,12.5695,7.96814,0,0,0,0,0,0,0,-1,1518,1779,12.5694,-7.9682
301,-755,11.2659,8.27087,0,0,0,0,0,0,0,-1,1525,1779,11.2658,-8.27087
308,-755,5.17737,37.2896,0,0,0,0,0,0,0,-1,1532,1779,5.17742,-37.2896
315,-755,0.828613,31.032,0,0,0,0,0,0,0,-1,1539,1779,0.828668,-31.032
322,-755,0,0,0,0,0,0,0,0,0,-1,1546,1779,0,0
329,-755,0,0,0,0,0,0,0,0,0,-1,1553,1779,0,0
336,-755,0,0,0,0,0,0,0,0,0,-1,1560,1779,0,0
343,-755,0,0,0,0,0,0,0,0,0,-1,1567,1779,0,0
350,-755,0,0,0,0,0,0,0,0,0,-1,1574,1779,0,0
357,-755,0,0,0,0,0,0,0,0,0,-1,1581,1779,0,0
364,-755,0,0,0,0,0,0,0,0,0,-1,1588,1779,0,0
371,-755,0,0,0,0,0,0,0,0,0,-1,1595,1779,0,0
378,-755,0,0,0,0,0,0,0,0,0,-1,1602,1779,0,0
385,-755,0,0,0,0,0,0,0,0,0,-1,1609,1779,0,0
392,-755,0,0,0,0,0,0,0,0,0,-1,1616,1779,0,0
399,-755,0,0,0,0,0,0,0,0,0,-1,1623,1779,0,0
406,-755,0,0,0,0,0,0,0,0,0,-1,1630,1779,0,0
413,-755,0,0,0,0,0,0,0,0,0,-1,1637,1779,0,0
420,-755,0,0,0,0,0,0,0,0,0,-1,1644,1779,0,0
427,-755,0,0,0,0,0,0,0,0,0,-1,1651,1779,0,0
434,-755,0,0,0,0,0,0,0,0,0,-1,1658,1779,0,0
441,-755,0,0,0,0,0,0,0,0,0,-1,1665,1779,0,0
448,-755,0,0,0,0,0,0,0,0,0,-1,1672,1779,0,0
455,-755,0,0,0,0,0,0,0,0,0,-1,1679,1779,0,0
462,-755,0,0,0,0,0,0,0,0,0,-1,1686,1779,0,0
469,-755,0,0,0,0,0,0,0,0,0,-1,1693,1779,0,0
476,-755,0,0,0,0,0,0,0,0,0,-1,1700,1779,0,0
483,-755,0,0,0,0,0,0,0,0,0,-1,1707,1779,0,0
490,-755,0,0,0,0,0,0,0,0,0,-1,1714,1779,0,0
497,-755,0,0,0,0,0,0,0,0,0,-1,1721,1779,0,0
504,-755,0,0,0,0,0,0,0,0,0,-1,1728,1779,0,0
511,-755,0,0,0,0,0,0,0,0,0,-1,1735,1779,0,0
518,-755,0,0,0,0,0,0,0,0,0,-1,1742,1779,0,0
525,-755,0,0,0,0,0,0,0,0,0,-1,1749,1779,0,0
532,-755,0,0,0,0,0,0,0,0,0,-1,1756,1779,0,0
539,-755,0,0,0,0,0,0,0,0,0,-1,1763,1779,0,0
546,-755,0,0,0,0,0,0,0,0,0,-1,1770,1779,0,0
553,-755,0,0,0,0,0,0,0,0,0,-1,1777,1779,0,0
560,-755,0,0,0,0,0,0,0,0,0,-1,1784,1779,0,0
567,-755,0,0,0,0,0,0,0,0,0,-1,1791,1779,0,0
574,-755,0,0,0,0,0,0,0,0,0,-1,1798,1779,0,0
581,-755,0,0,0,0,0,0,0,0,0,-1,1805,1779,0,0
588,-755,0,0,0,0,0,0,0,0,0,-1,1812,1779,0,0
595,-755,0,0,0,0,0,0,0,0,0,-1,1819,1779,0,0
602,-755,0,0,0,0,0,0,0,0,0,-1,1826,1779,0,0
609,-755,0,0,0,0,0,0,0,0,0,-1,1833,1779,0,0
616,-755,0,0,0,0,0,0,0,0,0,-1,1840,1779,0,0
623,-755,0,0,0,0,0,0,0,0,0,-1,1847,1779,0,0
630,-755,0,0,0,0,0,0,0,0,0,-1,1854,1779,0,0
637,-755,0,0,0,0,0,0,0,0,0,-1,1861,1779,0,0
644,-755,0,0,0,0,0,0,0,0,0,-1,1868,1779,0,0
651,-755,0,0,0,0,0,0,0,0,0,-1,1875,1779,0,0
658,-755,0,0,0,0,0,0,0,0,0,-1,1882,1779,0,0
665,-755,0,0,0,0,0,0,0,0,0,-1,1889,1779,0,0
672,-755,0,0,0,0,0,0,0,0,0,-1,1896,1779,0,0
679,-755,0,0,0,0,0,0,0,0,0,-1,1903,1779,0,0
686,-755,0,0,0,0,0,0,0,0,0,-1,1910,1779,0,0
693,-755,0,0,0,0,0,0,0,0,0,-1,1917,1779,0,0
700,-755,0,0,0,0,0,0,0,0,0,-1,1924,1779,0,0
707,-755,0,0,0,0,0,0,0,0,0,-1,1931,1779,0,0
714,-755,0,0,0,0,0,0,0,0,0,-1,1938,1779,0,0
721,-755,0,0,0,0,0,0,0,0,0,-1,1945,1779,0,0
728,-755,0,0,0,0,0,0,0,0,0,-1,1952,1779,0,0
735,-755,0,0,0,0,0,0,0,0,0,-1,1959,1779,0,0
742,-755,0,0,0,0,0,0,0,0,0,-1,1966,1779,0,0
749,-755,0,0,0,0,0,0,0,0,0,-1,1973,1779,0,0
756,-755,0,0,0,0,0,0,0,0,0,-1,1980,1779,0,0
763,-755,0,0,0,0,0,0,0,0,0,-1,1987,1779,0,0
770,-755,0,0,0,0,0,0,0,0,0,-1,1994,1779,0,0
777,-755,0,0,0,0,0,0,0,0,0,-1,2001,1779,0,0
784,-755,0,0,0,0,0,0,0,0,0,-1,2008,1779,0,0
791,-755,0,0,0,0,0,0,0,0,0,-1,2015,1779,0,0
798,-755,0,0,0,0,0,0,0,0,0,-1,2022,1779,0,0
805,-755,0,0,0,0,0,0,0,0,0,-1,2029,1779,0,0
812,-755,0,0,0,0,0,0,0,0,0,-1,2036,1779,0,0
-700,-762,0,0,0,0,0,0,0,0,0,-1,524,1786,0,0
-693,-762,0,0,0,0,0,0,0,0,0,-1,531,1786,0,0
-686,-762,0,0,0,0,0,0,0,0,0,-1,538,1786,0,0
-679,-762,0,0,0,0,0,0,0,0,0,-1,545,1786,0,0
-672,-762,0,0,0,0,0,0,0,0,0,-1,552,1786,0,0
-665,-762,0,0,0,0,0,0,0,0,0,-1,559,1786,0,0
-658,-762,0,0,0,0,0,0,0,0,0,-1,566,1786,0,0
-651,-762,0,0,0,0,0,0,0,0,0,-1,573,1786,0,0
-644,-762,0,0,0,0,0,0,0,0,0,-1,580,1786,0,0
-637,-762,0,0,0,0,0,0,0,0,0,-1,587,1786,0,0
-630,-762,0,0,0,0,0,0,0,0,0,-1,594,1786,0,0
-623,-762,0,0,0,0,0,0,0,0,0,-1,601,1786,0,0
-616,-762,0,0,0,0,0,0,0,0,0,-1,608,1786,0,0
-609,-762,0,0,0,0,0,0,0,0,0,-1,615,1786,0,0
-602,-762,0,0,0,0,0,0,0,0,0,-1,622,1786,0,0
-595,-762,0,0,0,0,0,0,0,0,0,-1,629,1786,0,0
-588,-762,0,0,0,0,0,0,0,0,0,-1,636,1786,0,0
-581,-762,0,0,0,0,0,0,0,0,0,-1,643,1786,0,0
-574,-762,0,0,0,0,0,0,0,0,0,-1,650,1786,0,0
-567,-762,0,0,0,0,0,0,0,0,0,-1,657,1786,0,0
-560,-762,0,0,0,0,0,0,0,0,0,-1,664,1786,0,0
-553,-762,0,0,0,0,0,0,0,0,0,-1,671,1786,0,0
-546,-762,0,0,0,0,0,0,0,0,0,-1,678,1786,0,0
-539,-762,0,0,0,0,0,0,0,0,0,-1,685,1786,0,0
-532,-762,0,0,0,0,0,0,0,0,0,-1,692,1786,0,0
-525,-762,0,0,0,0,0,0,0,0,0,-1,699,1786,0,0
-518,-762,0,0,0,0,0,0,0,0,0,-1,706,1786,0,0
-511,-762,0,0,0,0,0,0,0,0,0,-1,713,1786,0,0
-504,-762,0,0,0,0,0,0,0,0,0,-1,720,1786,0,0
-497,-762,0,0,0,0,0,0,0,0,0,-1,727,1786,0,0
-490,-762,0,0,0,0,0,0,0,0,0,-1,734,1786,0,0
-483,-762,0,0,0,0,0,0,0,0,0,-1,741,1786,0,0
-476,-762,0,0,0,0,0,0,0,0,0,-1,748,1786,0,0
-469,-762,0,0,0,0,0,0,0,0,0,-1,755,1786,0,0
-462,-762,0,0,0,0,0,0,0,0,0,-1,762,1786,0,0
-455,-762,0,0,0,0,0,0,0,0,0,-1,769,1786,0,0
-448,-762,0,0,0,0,0,0,0,0,0,-1,776,1786,0,0
-441,-762,0,0,0,0,0,0,0,0,0,-1,783,1786,0,0
-434,-762,0,0,0,0,0,0,0,0,0,-1,790,1786,0,0
-427,-762,0,0,0,0,0,0,0,0,0,-1,797,1786,0,0
-420,-762,0,0,0,0,0,0,0,0,0,-1,804,1786,0,0
-413,-762,0,0,0,0,0,0,0,0,0,-1,811,1786,0,0
-406,-762,0,0,0,0,0,0,0,0,0,-1,818,1786,0,0
-399,-762,0,0,0,0,0,0,0,0,0,-1,825,1786,0,0
-392,-762,0,0,0,0,0,0,0,0,0,-1,832,1786,0,0
-385,-762,0,0,0,0,0,0,0,0,0,-1,839,1786,0,0
-378,-762,0,0,0,0,0,0,0,0,0,-1,846,1786,0,0
-371,-762,0,0,0,0,0,0,0,0,0,-1,853,1786,0,0
-364,-762,0,0,0,0,0,0,0,0,0,-1,860,1786,0,0
-357,-762,0,0,0,0,0,0,0,0,0,-1,867,1786,0,0
-350,-762,0,0,0,0,0,0,0,0,0,-1,874,1786,0,0
-343,-762,0,0,0,0,0,0,0,0,0,-1,881,1786,0,0
-336,-762,0,0,0,0,0,0,0,0,0,-1,888,1786,0,0
-329,-762,0,0,0,0,0,0,0,0,0,-1,895,1786,0,0
-322,-762,0,0,0,0,0,0,0,0,0,-1,902,1786,0,0
-315,-762,0,0,0,0,0,0,0,0,0,-1,909,1786,0,0
-308,-762,0,0,0,0,0,0,0,0,0,-1,916,1786,0,0
-301,-762,0,0,0,0,0,0,0,0,0,-1,923,1786,0,0
-294,-762,0,0,0,0,0,0,0,0,0,-1,930,1786,0,0
-287,-762,0,0,0,0,0,0,0,0,0,-1,937,1786,0,0
-280,-762,0,0,0,0,0,0,0,0,0,-1,944,1786,0,0
-273,-762,0,0,0,0,0,0,0,0,0,-1,951,1786,0,0
-266,-762,0,0,0,0,0,0,0,0,0,-1,958,1786,0,0
-259,-762,0,0,0,0,0,0,0,0,0,-1,965,1786,0,0
-252,-762,0,0,0,0,0,0,0,0,0,-1,972,1786,0,0
-245,-762,0,0,0,0,0,0,0,0,0,-1,979,1786,0,0
-238,-762,0,0,0,0,0,0,0,0,0,-1,986,1786,0,0
-231,-762,0,0,0,0,0,0,0,0,0,-1,993,1786,0,0
-224,-762,0,0,0,0,0,0,0,0,0,-1,1000,1786,0,0
-217,-762,0,0,0,0,0,0,0,0,0,-1,1007,1786,0,0
-210,-762,0,0,0,0,0,0,0,0,0,-1,1014,1786,0,0
-203,-762,0,0,0,0,0,0,0,0,0,-1,1021,1786,0,0
-196,-762,0,0,0,0,0,0,0,0,0,-1,1028,1786,0,0
-189,-762,0,0,0,0,0,0,0,0,0,-1,1035,1786,0,0
-182,-762,4.44226,13.2462,0,0,0,0,0,0,0,-1,1042,1786,4.44227,-13.2462
-175,-762,4.3219,18.3975,0,0,0,0,0,0,0,-1,1049,1786,4.32192,-18.3974
-168,-762,-2.08618,13.0768,0,0,0,0,0,0,0,-1,1056,1786,-2.08623,-13.0768
-161,-762,-3.29077,11.9508,0,0,0,0,0,0,0,-1,1063,1786,-3.29076,-11.9508
-154,-762,-4.55823,11.1176,0,0,0,0,0,0,0,-1,1070,1786,-4.55828,-11.1175
-147,-762,-6.52454,9.41418,0,0,0,0,0,0,0,-1,1077,1786,-6.52458,-9.41419
-140,-762,4.99792,5.28589,0,0,0,0,0,0,0,-1,1084,1786,4.99793,-5.28587
-133,-762,0.689819,19.2172,0,0,0,0,0,0,0,-1,1091,1786,0.689867,-19.2171
-126,-762,1.48743,19.9288,0,0,0,0,0,0,0,-1,1098,1786,1.48738,-19.9289
-119,-762,2.65637,20.208,0,0,0,0,0,0,0,-1,1105,1786,2.65632,-20.208
-112,-762,6.84705,25.5554,0,0,0,0,0,0,0,-1,1112,1786,6.84706,-25.5554
-105,-762,5.57947,21.618,0,0,0,0,0,0,0,-1,1119,1786,5.57948,-21.618
-98,-762,5.0636,17.9901,0,0,0,0,0,0,0,-1,1126,1786,5.06361,-17.9901
-91,-762,4.54773,14.3622,0,0,0,0,0,0,0,-1,1133,1786,4.54774,-14.3622
-84,-762,3.96375,10.4547,0,0,0,0,0,0,0,-1,1140,1786,3.96371,-10.4548
-77,-762,0.305054,8.49365,0,0,0,0,0,0,0,-1,1147,1786,0.305008,-8.49362
-70,-762,0.183716,6.74622,0,0,0,0,0,0,0,-1,1154,1786,0.183696,-6.74621
-63,-762,-0.883057,9.08813,0,0,0,0,0,0,0,-1,1161,1786,-0.88311,-9.08808
-56,-762,-0.578979,5.10254,0,0,0,0,0,0,0,-1,1168,1786,-0.578951,-5.10249
-49,-762,-2.04541,3.66321,0,0,0,0,0,0,0,-1,1175,1786,-2.0454,-3.66319
-42,-762,-2.23462,3.474,0,0,0,0,0,0,0,-1,1182,1786,-2.23459,-3.47399
-35,-762,-3.28992,1.68164,0,0,0,0,0,0,0,-1,1189,1786,-3.28998,-1.68164
-28,-762,-3.75378,1.37769,0,0,0,0,0,0,0,-1,1196,1786,-3.75373,-1.37767
-21,-762,9.36987,44.4329,0,0,0,0,0,0,0,-1,1203,1786,9.36984,-44.4329
-14,-762,9.02612,44.5212,0.00883233,0.0301481,-0.00930687,0.0336397,0.00534071,-1.21188,0.0208752,0.0474418,1210,1786,9.02616,-44.5213
-7,-762,9.00085,43.9895,0.0096964,0.0318903,-0.0118474,0.0370261,0.00456057,-1.16175,0.0233131,0.0497291,1217,1786,9.00085,-43.9895
0,-762,8.9198,44.1909,0.0112391,0.033851,-0.0142854,0.0407631,0.00432699,-1.12015,0.025854,0.0368442,1224,1786,8.91983,-44.1909
7,-762,8.89038,44.2075,0.0118807,0.036479,-0.0164197,0.0446952,0.00366461,-1.10684,0.0286535,0.021374,1231,1786,8.89034,-44.2075
14,-762,8.89905,44.4259,0.0119693,0.0392581,-0.0184629,0.0485712,0.0026561,-1.10362,0.0315328,0.0344031,1238,1786,8.89907,-44.4258
21,-762,8.75293,44.4696,0.011232,0.0400674,-0.0185076,0.0491104,0.00218906,-1.11631,0.0320355,0.0451114,1245,1786,8.75292,-44.4696
28,-762,8.53711,44.6255,0.00906448,0.043451,-0.01711,0.0505139,0.00200162,-1.17931,0.0330289,0.0470651,1252,1786,8.53717,-44.6255
35,-762,8.60864,44.7223,0.00521688,0.0441425,-0.0146245,0.0490246,0.000334764,-1.2486,0.0325721,0.0462393,1259,1786,8.60865,-44.7223
42,-762,8.63342,44.6155,0.00144056,0.0436068,-0.0107653,0.0461963,-0.00114887,-1.33475,0.0311875,0.0499897,1266,1786,8.63337,-44.6155
49,-762,8.60986,44.5784,-0.00318705,0.0438382,-0.00701156,0.0448614,-0.00421023,-1.42589,0.0314052,0.0409607,1273,1786,8.60985,-44.5784
56,-762,8.61194,44.5823,-0.00767674,0.0428291,-0.00275687,0.0429792,-0.00782678,-1.51643,0.0315866,0.0300967,1280,1786,8.61191,-44.5823
63,-762,8.56873,44.6,-0.0129374,0.0424409,0.000663637,0.0424488,-0.0129453,1.55881,0.0334598,0.0267826,1287,1786,8.56879,-44.5999
70,-762,8.51978,44.597,-0.0176493,0.0431604,0.0047018,0.0435218,-0.0180107,1.49408,0.0365294,0.0267486,1294,1786,8.51974,-44.5971
77,-762,8.46814,44.5195,-0.0217762,0.0436786,0.011602,0.0456742,-0.0237718,1.40046,0.040754,0.0331391,1301,1786,8.4682,-44.5195
84,-762,8.44836,44.5275,-0.0249739,0.0432386,0.0163379,0.0469498,-0.0286851,1.34743,0.0440902,0.0399063,1308,1786,8.44831,-44.5274
91,-762,8.3844,44.5781,-0.0258144,0.0455736,0.01833,0.0500051,-0.0302458,1.33359,0.0467987,0.0488791,1315,1786,8.38435,-44.5782
98,-762,8.22656,44.3966,0,0,0,0,0,0,0,-1,1322,1786,8.22655,-44.3966
105,-762,8.34302,44.4725,-0.0254212,0.0503786,0.0223497,0.0564777,-0.0315203,1.30439,0.0514822,0.0456661,1329,1786,8.34299,-44.4725
112,-762,8.24158,44.3496,-0.0240602,0.0528056,0.023953,0.0596588,-0.0309134,1.29213,0.0531625,0.0444178,1336,1786,8.24163,-44.3496
119,-762,8.0802,44.243,-0.022496,0.0554507,0.0257747,0.0632027,-0.030248,1.27864,0.0550607,0.0473123,1343,1786,8.08021,-44.243
126,-762,8.1355,44.1847,0,0,0,0,0,0,0,-1,1350,1786,8.13555,-44.1847
133,-762,7.61304,44.4985,-0.0182903,0.0593268,0.0276477,0.068168,-0.0271315,1.26129,0.0566961,0.0466719,1357,1786,7.61298,-44.4986
140,-762,7.77161,44.1063,-0.015057,0.0610015,0.0288871,0.0707287,-0.0247842,1.24599,0.0572316,0.0472126,1364,1786,7.77155,-44.1063
147,-762,7.96924,43.8986,0,0,0,0,0,0,0,-1,1371,1786,7.96929,-43.8986
154,-762,7.39319,43.99,0,0,0,0,0,0,0,-1,1378,1786,7.39314,-43.99
161,-762,8.65051,34.8102,0,0,0,0,0,0,0,-1,1385,1786,8.65054,-34.8101
168,-762,8.19287,0.880615,0,0,0,0,0,0,0,-1,1392,1786,8.19291,-0.880603
175,-762,8.33997,1.95947,0,0,0,0,0,0,0,-1,1399,1786,8.33997,-1.95942
182,-762,8.28418,3.56482,0,0,0,0,0,0,0,-1,1406,1786,8.28415,-3.56485
189,-762,8.21179,5.23389,0,0,0,0,0,0,0,-1,1413,1786,8.21183,-5.23383
196,-762,8.05969,6.95483,0,0,0,0,0,0,0,-1,1420,1786,8.05972,-6.9548
203,-762,24.0077,7.10425,0,0,0,0,0,0,0,-1,1427,1786,24.0077,-7.10426
210,-762,23.8073,7.6499,0,0,0,0,0,0,0,-1,1434,1786,23.8073,-7.64987
217,-762,23.3193,8.24426,0,0,0,0,0,0,0,-1,1441,1786,23.3194,-8.2442
224,-762,2.65149,20.6106,0,0,0,0,0,0,0,-1,1448,1786,2.65153,-20.6106
231,-762,5.46655,23.521,0,0,0,0,0,0,0,-1,1455,1786,5.46653,-23.521
238,-762,5.35632,29.7203,0,0,0,0,0,0,0,-1,1462,1786,5.35629,-29.7203
245,-762,5.84509,28.6954,0,0,0,0,0,0,0,-1,1469,1786,5.84509,-28.6954
252,-762,5.82837,27.7246,0,0,0,0,0,0,0,-1,1476,1786,5.82839,-27.7247
259,-762,10.7311,18.3031,0,0,0,0,0,0,0,-1,1483,1786,10.7311,-18.3031
266,-762,16.451,7.67773,0,0,0,0,0,0,0,-1,1490,1786,16.4511,-7.67773
273,-762,15.287,7.5304,0,0,0,0,0,0,0,-1,1497,1786,15.2869,-7.53044
280,-762,14.1501,7.38379,0,0,0,0,0,0,0,-1,1504,1786,14.1502,-7.38376
287,-762,12.6891,7.99133,0,0,0,0,0,0,0,-1,1511,1786,12.6891,-7.99135
294,-762,12.6959,8.30371,0,0,0,0,0,0,0,-1,1518,1786,12.6959,-8.30368
301,-762,11.4222,8.84143,0,0,0,0,0,0,0,-1,1525,1786,11.4223,-8.84149
308,-762,0,0,0,0,0,0,0,0,0,-1,1532,1786,0,0
315,-762,0,0,0,0,0,0,0,0,0,-1,1539,1786,0,0
322,-762,0,0,0,0,0,0,0,0,0,-1,1546,1786,0,0
329,-762,0,0,0,0,0,0,0,0,0,-1,1553,1786,0,0
336,-762,0,0,0,0,0,0,0,0,0,-1,1560,1786,0,0
343,-762,0,0,0,0,0,0,0,0,0,-1,1567,1786,0,0
350,-762,0,0,0,0,0,0,0,0,0,-1,1574,1786,0,0
357,-762,0,0,0,0,0,0,0,0,0,-1,1581,1786,0,0
364,-762,0,0,0,0,0,0,0,0,0,-1,1588,1786,0,0
371,-762,0,0,0,0,0,0,0,0,0,-1,1595,1786,0,0
378,-762,0,0,0,0,0,0,0,0,0,-1,1602,1786,0,0
385,-762,0,0,0,0,0,0,0,0,0,-1,1609,1786,0,0
392,-762,0,0,0,0,0,0,0,0,0,-1,1616,1786,0,0
399,-762,0,0,0,0,0,0,0,0,0,-1,1623,1786,0,0
406,-762,0,0,0,0,0,0,0,0,0,-1,1630,1786,0,0
413,-762,0,0,0,0,0,0,0,0,0,-1,1637,1786,0,0
420,-762,0,0,0,0,0,0,0,0,0,-1,1644,1786,0,0
427,-762,0,0,0,0,0,0,0,0,0,-1,1651,1786,0,0
434,-762,0,0,0,0,0,0,0,0,0,-1,1658,1786,0,0
441,-762,0,0,0,0,0,0,0,0,0,-1,1665,1786,0,0
448,-762,0,0,0,0,0,0,0,0,0,-1,1672,1786,0,0
455,-762,0,0,0,0,0,0,0,0,0,-1,1679,1786,0,0
462,-762,0,0,0,0,0,0,0,0,0,-1,1686,1786,0,0
469,-762,0,0,0,0,0,0,0,0,0,-1,1693,1786,0,0
476,-762,0,0,0,0,0,0,0,0,0,-1,1700,1786,0,0
483,-762,0,0,0,0,0,0,0,0,0,-1,1707,1786,0,0
490,-762,0,0,0,0,0,0,0,0,0,-1,1714,1786,0,0
497,-762,0,0,0,0,0,0,0,0,0,-1,1721,1786,0,0
504,-762,0,0,0,0,0,0,0,0,0,-1,1728,1786,0,0
511,-762,0,0,0,0,0,0,0,0,0,-1,1735,1786,0,0
518,-762,0,0,0,0,0,0,0,0,0,-1,1742,1786,0,0
525,-762,0,0,0,0,0,0,0,0,0,-1,1749,1786,0,0
532,-762,0,0,0,0,0,0,0,0,0,-1,1756,1786,0,0
539,-762,0,0,0,0,0,0,0,0,0,-1,1763,1786,0,0
546,-762,0,0,0,0,0,0,0,0,0,-1,1770,1786,0,0
553,-762,0,0,0,0,0,0,0,0,0,-1,1777,1786,0,0
560,-762,0,0,0,0,0,0,0,0,0,-1,1784,1786,0,0
567,-762,0,0,0,0,0,0,0,0,0,-1,1791,1786,0,0
574,-762,0,0,0,0,0,0,0,0,0,-1,1798,1786,0,0
581,-762,0,0,0,0,0,0,0,0,0,-1,1805,1786,0,0
588,-762,0,0,0,0,0,0,0,0,0,-1,1812,1786,0,0
595,-762,0,0,0,0,0,0,0,0,0,-1,1819,1786,0,0
602,-762,0,0,0,0,0,0,0,0,0,-1,1826,1786,0,0
609,-762,0,0,0,0,0,0,0,0,0,-1,1833,1786,0,0
616,-762,0,0,0,0,0,0,0,0,0,-1,1840,1786,0,0
623,-762,0,0,0,0,0,0,0,0,0,-1,1847,1786,0,0
630,-762,0,0,0,0,0,0,0,0,0,-1,1854,1786,0,0
637,-762,0,0,0,0,0,0,0,0,0,-1,1861,1786,0,0
644,-762,0,0,0,0,0,0,0,0,0,-1,1868,1786,0,0
651,-762,0,0,0,0,0,0,0,0,0,-1,1875,1786,0,0
658,-762,0,0,0,0,0,0,0,0,0,-1,1882,1786,0,0
665,-762,0,0,0,0,0,0,0,0,0,-1,1889,1786,0,0
672,-762,0,0,0,0,0,0,0,0,0,-1,1896,1786,0,0
679,-762,0,0,0,0,0,0,0,0,0,-1,1903,1786,0,0
686,-762,0,0,0,0,0,0,0,0,0,-1,1910,1786,0,0
693,-762,0,0,0,0,0,0,0,0,0,-1,1917,1786,0,0
700,-762,0,0,0,0,0,0,0,0,0,-1,1924,1786,0,0
707,-762,0,0,0,0,0,0,0,0,0,-1,1931,1786,0,0
714,-762,0,0,0,0,0,0,0,0,0,-1,1938,1786,0,0
721,-762,0,0,0,0,0,0,0,0,0,-1,1945,1786,0,0
728,-762,0,0,0,0,0,0,0,0,0,-1,1952,1786,0,0
735,-762,0,0,0,0,0,0,0,0,0,-1,1959,1786,0,0
742,-762,0,0,0,0,0,0,0,0,0,-1,1966,1786,0,0
749,-762,0,0,0,0,0,0,0,0,0,-1,1973,1786,0,0
756,-762,0,0,0,0,0,0,0,0,0,-1,1980,1786,0,0
763,-762,0,0,0,0,0,0,0,0,0,-1,1987,1786,0,0
770,-762,0,0,0,0,0,0,0,0,0,-1,1994,1786,0,0
777,-762,0,0,0,0,0,0,0,0,0,-1,2001,1786,0,0
784,-762,0,0,0,0,0,0,0,0,0,-1,2008,1786,0,0
791,-762,0,0,0,0,0,0,0,0,0,-1,2015,1786,0,0
798,-762,0,0,0,0,0,0,0,0,0,-1,2022,1786,0,0
805,-762,0,0,0,0,0,0,0,0,0,-1,2029,1786,0,0
812,-762,0,0,0,0,0,0,0,0,0,-1,2036,1786,0,0
-700,-769,0,0,0,0,0,0,0,0,0,-1,524,1793,0,0
-693,-769,0,0,0,0,0,0,0,0,0,-1,531,1793,0,0
-686,-769,0,0,0,0,0,0,0,0,0,-1,538,1793,0,0
-679,-769,0,0,0,0,0,0,0,0,0,-1,545,1793,0,0
-672,-769,0,0,0,0,0,0,0,0,0,-1,552,1793,0,0
-665,-769,0,0,0,0,0,0,0,0,0,-1,559,1793,0,0
-658,-769,0,0,0,0,0,0,0,0,0,-1,566,1793,0,0
-651,-769,0,0,0,0,0,0,0,0,0,-1,573,1793,0,0
-644,-769,0,0,0,0,0,0,0,0,0,-1,580,1793,0,0
-637,-769,0,0,0,0,0,0,0,0,0,-1,587,1793,0,0
-630,-769,0,0,0,0,0,0,0,0,0,-1,594,1793,0,0
-623,-769,0,0,0,0,0,0,0,0,0,-1,601,1793,0,0
-616,-769,0,0,0,0,0,0,0,0,0,-1,608,1793,0,0
-609,-769,0,0,0,0,0,0,0,0,0,-1,615,1793,0,0
-602,-769,0,0,0,0,0,0,0,0,0,-1,622,1793,0,0
-595,-769,0,0,0,0,0,0,0,0,0,-1,629,1793,0,0
-588,-769,0,0,0,0,0,0,0,0,0,-1,636,1793,0,0
-581,-769,0,0,0,0,0,0,0,0,0,-1,643,1793,0,0
-574,-769,0,0,0,0,0,0,0,0,0,-1,650,1793,0,0
-567,-769,0,0,0,0,0,0,0,0,0,-1,657,1793,0,0
-560,-769,0,0,0,0,0,0,0,0,0,-1,664,1793,0,0
-553,-769,0,0,0,0,0,0,0,0,0,-1,671,1793,0,0
-546,-769,0,0,0,0,0,0,0,0,0,-1,678,1793,0,0
-539,-769,0,0,0,0,0,0,0,0,0,-1,685,1793,0,0
-532,-769,0,0,0,0,0,0,0,0,0,-1,692,1793,0,0
-525,-769,0,0,0,0,0,0,0,0,0,-1,699,1793,0,0
-518,-769,0,0,0,0,0,0,0,0,0,-1,706,1793,0,0
-511,-769,0,0,0,0,0,0,0,0,0,-1,713,1793,0,0
-504,-769,0,0,0,0,0,0,0,0,0,-1,720,1793,0,0
-497,-769,0,0,0,0,0,0,0,0,0,-1,727,1793,0,0
-490,-769,0,0,0,0,0,0,0,0,0,-1,734,1793,0,0
-483,-769,0,0,0,0,0,0,0,0,0,-1,741,1793,0,0
-476,-769,0,0,0,0,0,0,0,0,0,-1,748,1793,0,0
-469,-769,0,0,0,0,0,0,0,0,0,-1,755,1793,0,0
-462,-769,0,0,0,0,0,0,0,0,0,-1,762,1793,0,0
-455,-769,0,0,0,0,0,0,0,0,0,-1,769,1793,0,0
-448,-769,0,0,0,0,0,0,0,0,0,-1,776,1793,0,0
-441,-769,0,0,0,0,0,0,0,0,0,-1,783,1793,0,0
-434,-769,0,0,0,0,0,0,0,0,0,-1,790,1793,0,0
-427,-769,0,0,0,0,0,0,0,0,0,-1,797,1793,0,0
-420,-769,0,0,0,0,0,0,0,0,0,-1,804,1793,0,0
-413,-769,0,0,0,0,0,0,0,0,0,-1,811,1793,0,0
-406,-769,0,0,0,0,0,0,0,0,0,-1,818,1793,0,0
-399,-769,0,0,0,0,0,0,0,0,0,-1,825,1793,0,0
-392,-769,0,0,0,0,0,0,0,0,0,-1,832,1793,0,0
-385,-769,0,0,0,0,0,0,0,0,0,-1,839,1793,0,0
-378,-769,0,0,0,0,0,0,0,0,0,-1,846,1793,0,0
-371,-769,0,0,0,0,0,0,0,0,0,-1,853,1793,0,0
-364,-769,0,0,0,0,0,0,0,0,0,-1,860,1793,0,0
-357,-769,0,0,0,0,0,0,0,0,0,-1,867,1793,0,0
-350,-769,0,0,0,0,0,0,0,0,0,-1,874,1793,0,0
-343,-769,0,0,0,0,0,0,0,0,0,-1,881,1793,0,0
-336,-769,0,0,0,0,0,0,0,0,0,-1,888,1793,0,0
-329,-769,0,0,0,0,0,0,0,0,0,-1,895,1793,0,0
-322,-769,0,0,0,0,0,0,0,0,0,-1,902,1793,0,0
-315,-769,0,0,0,0,0,0,0,0,0,-1,909,1793,0,0
-308,-769,0,0,0,0,0,0,0,0,0,-1,916,1793,0,0
-301,-769,0,0,0,0,0,0,0,0,0,-1,923,1793,0,0
-294,-769,0,0,0,0,0,0,0,0,0,-1,930,1793,0,0
-287,-769,0,0,0,0,0,0,0,0,0,-1,937,1793,0,0
-280,-769,0,0,0,0,0,0,0,0,0,-1,944,1793,0,0
-273,-769,0,0,0,0,0,0,0,0,0,-1,951,1793,0,0
-266,-769,0,0,0,0,0,0,0,0,0,-1,958,1793,0,0
-259,-769,0,0,0,0,0,0,0,0,0,-1,965,1793,0,0
-252,-769,0,0,0,0,0,0,0,0,0,-1,972,1793,0,0
-245,-769,0,0,0,0,0,0,0,0,0,-1,979,1793,0,0
-238,-769,0,0,0,0,0,0,0,0,0,-1,986,1793,0,0
-231,-769,0,0,0,0,0,0,0,0,0,-1,993,1793,0,0
-224,-769,0,0,0,0,0,0,0,0,0,-1,1000,1793,0,0
-217,-769,0,0,0,0,0,0,0,0,0,-1,1007,1793,0,0
-210,-769,0,0,0,0,0,0,0,0,0,-1,1014,1793,0,0
-203,-769,0,0,0,0,0,0,0,0,0,-1,1021,1793,0,0
-196,-769,0,0,0,0,0,0,0,0,0,-1,1028,1793,0,0
-189,-769,0,0,0,0,0,0,0,0,0,-1,1035,1793,0,0
-182,-769,0,0,0,0,0,0,0,0,0,-1,1042,1793,0,0
-175,-769,0,0,0,0,0,0,0,0,0,-1,1049,1793,0,0
-168,-769,0,0,0,0,0,0,0,0,0,-1,1056,1793,0,0
-161,-769,-3.61145,12.4761,0,0,0,0,0,0,0,-1,1063,1793,-3.6114,-12.476
-154,-769,-0.813232,5.32874,0,0,0,0,0,0,0,-1,1070,1793,-0.813269,-5.32872
-147,-769,4.26587,4.7002,0,0,0,0,0,0,0,-1,1077,1793,4.26593,-4.70022
-140,-769,4.10376,5.28589,0,0,0,0,0,0,0,-1,1084,1793,4.10371,-5.28584
-133,-769,6.422,8.21777,0,0,0,0,0,0,0,-1,1091,1793,6.42198,-8.21773
-126,-769,-0.352295,19.326,0,0,0,0,0,0,0,-1,1098,1793,-0.352235,-19.326
-119,-769,6.01685,16.2577,0,0,0,0,0,0,0,-1,1105,1793,6.01689,-16.2576
-112,-769,5.76416,27.2615,0,0,0,0,0,0,0,-1,1112,1793,5.7642,-27.2615
-105,-769,4.97009,22.8479,0,0,0,0,0,0,0,-1,1119,1793,4.97006,-22.8479
-98,-769,4.69373,18.9142,0,0,0,0,0,0,0,-1,1126,1793,4.69376,-18.9142
-91,-769,4.41748,14.9805,0,0,0,0,0,0,0,-1,1133,1793,4.41746,-14.9805
-84,-769,3.2207,12.4565,0,0,0,0,0,0,0,-1,1140,1793,3.22066,-12.4565
-77,-769,2.48816,8.98486,0,0,0,0,0,0,0,-1,1147,1793,2.48815,-8.98489
-70,-769,1.04944,11.9852,0,0,0,0,0,0,0,-1,1154,1793,1.04947,-11.9852
-63,-769,-2.39709,9.60339,0,0,0,0,0,0,0,-1,1161,1793,-2.39706,-9.6034
-56,-769,-5.84363,7.22156,0,0,0,0,0,0,0,-1,1168,1793,-5.84359,-7.22157
-49,-769,-2.41443,3.95471,0,0,0,0,0,0,0,-1,1175,1793,-2.41446,-3.95471
-42,-769,-3.1991,2.64941,0,0,0,0,0,0,0,-1,1182,1793,-3.19914,-2.64944
-35,-769,-3.50183,1.73389,0,0,0,0,0,0,0,-1,1189,1793,-3.50189,-1.7339
-28,-769,-3.96985,1.14075,0,0,0,0,0,0,0,-1,1196,1793,-3.96985,-1.14078
-21,-769,8.47876,36.2402,0,0,0,0,0,0,0,-1,1203,1793,8.47874,-36.2402
-14,-769,8.8894,45.0516,0,0,0,0,0,0,0,-1,1210,1793,8.88942,-45.0517
-7,-769,9.08215,43.98,0,0,0,0,0,0,0,-1,1217,1793,9.08214,-43.9799
0,-769,9.21619,44.3518,0.0183771,0.0489357,-0.0193822,0.0583368,0.00897591,-1.11919,0.0362714,0.0476347,1224,1793,9.21624,-44.3518
7,-769,8.99854,44.3279,0.0192836,0.0525754,-0.0228088,0.0641665,0.00769256,-1.10062,0.040458,0.0459972,1231,1793,8.99857,-44.3279
14,-769,9.00525,44.5302,0.0191432,0.0563012,-0.0259567,0.0696428,0.0058015,-1.09601,0.0446206,0.0436211,1238,1793,9.00527,-44.5301
21,-769,8.36157,44.691,0,0,0,0,0,0,0,-1,1245,1793,8.36157,-44.691
28,-769,8.58484,44.532,0.0141361,0.0605587,-0.0243617,0.0709965,0.00369832,-1.16601,0.0461476,0.0462726,1252,1793,8.58482,-44.5319
35,-769,8.62256,44.6183,0.00831473,0.06105,-0.0209078,0.0683334,0.00103137,-1.23559,0.0452157,0.0468462,1259,1793,8.62257,-44.6183
42,-769,8.77319,44.9984,0.00270264,0.0598856,-0.0158053,0.0639634,-0.00137514,-1.3183,0.0431079,0.045228,1266,1793,8.77315,-44.9984
49,-769,8.7688,44.702,-0.00403084,0.059697,-0.0106123,0.0614178,-0.00575158,-1.41005,0.0429908,0.0455234,1273,1793,8.76886,-44.702
56,-769,8.95032,44.1007,-0.0105591,0.0579772,-0.00458278,0.0582823,-0.0108642,-1.50432,0.0429369,0.0453896,1280,1793,8.95029,-44.1006
63,-769,8.66785,43.934,-0.0177963,0.0571263,0.000153044,0.0571266,-0.0177966,1.56875,0.0451999,0.0462634,1287,1793,8.66786,-43.9339
70,-769,8.849,43.7791,-0.024399,0.0577016,0.00561935,0.0580844,-0.0247819,1.50277,0.0491138,0.0452077,1294,1793,8.849,-43.779
77,-769,8.58618,44.7363,-0.0302897,0.058088,0.0148173,0.0605061,-0.0327078,1.40903,0.0546089,0.0458921,1301,1793,8.58616,-44.7364
84,-769,8.3783,44.7278,-0.034757,0.0577982,0.0211612,0.0624069,-0.0393657,1.35636,0.0592582,0.0440131,1308,1793,8.3783,-44.7277
91,-769,8.276,44.7225,-0.0359367,0.0612293,0.0239077,0.0667932,-0.0415006,1.34214,0.0630893,0.0441677,1315,1793,8.276,-44.7225
98,-769,9.36353,45.2507,0,0,0,0,0,0,0,-1,1322,1793,9.36352,-45.2507
105,-769,8.45532,44.6941,-0.0355687,0.068627,0.0291289,0.0762173,-0.043159,1.31589,0.0697973,0.0453814,1329,1793,8.45538,-44.6942
112,-769,7.89722,44.1173,-0.0338632,0.0727281,0.0312876,0.0812333,-0.0423684,1.30537,0.0725279,0.0489726,1336,1793,7.89718,-44.1173
119,-769,7.98413,44.1282,-0.0318649,0.0773254,0.033878,0.0869825,-0.0415219,1.29311,0.0757238,0.046405,1343,1793,7.98417,-44.1282
126,-769,8.05945,44.108,0,0,0,0,0,0,0,-1,1350,1793,8.05943,-44.108
133,-769,7.29639,44.7378,0,0,0,0,0,0,0,-1,1357,1793,7.2964,-44.7378
140,-769,7.62476,44.204,0,0,0,0,0,0,0,-1,1364,1793,7.62475,-44.2039
147,-769,8.11877,43.698,0,0,0,0,0,0,0,-1,1371,1793,8.11874,-43.698
154,-769,7.76904,34.4832,0,0,0,0,0,0,0,-1,1378,1793,7.7691,-34.4832
161,-769,6.57019,1.53223,0,0,0,0,0,0,0,-1,1385,1793,6.57019,-1.53226
168,-769,8.27637,0.756958,0,0,0,0,0,0,0,-1,1392,1793,8.27639,-0.756944
175,-769,8.47144,2.41174,0,0,0,0,0,0,0,-1,1399,1793,8.47147,-2.4118
182,-769,8.41479,4.05994,0,0,0,0,0,0,0,-1,1406,1793,8.41479,-4.05997
189,-769,8.25049,5.68433,0,0,0,0,0,0,0,-1,1413,1793,8.25054,-5.68428
196,-769,7.97729,7.42847,0,0,0,0,0,0,0,-1,1420,1793,7.9773,-7.42848
203,-769,22.0977,6.73889,0,0,0,0,0,0,0,-1,1427,1793,22.0977,-6.7389
210,-769,22.1115,7.77246,0,0,0,0,0,0,0,-1,1434,1793,22.1115,-7.77248
217,-769,22.4723,8.79102,0,0,0,0,0,0,0,-1,1441,1793,22.4723,-8.79099
224,-769,22.1348,9.35278,0,0,0,0,0,0,0,-1,1448,1793,22.1348,-9.35283
231,-769,3.13318,19.7184,0,0,0,0,0,0,0,-1,1455,1793,3.13323,-19.7184
238,-769,5.74512,18.6597,0,0,0,0,0,0,0,-1,1462,1793,5.74512,-18.6596
245,-769,5.80798,22.87,0,0,0,0,0,0,0,-1,1469,1793,5.80796,-22.87
252,-769,8.39099,20.3199,0,0,0,0,0,0,0,-1,1476,1793,8.39098,-20.3199
259,-769,10.974,17.7698,0,0,0,0,0,0,0,-1,1483,1793,10.974,-17.7698
266,-769,15.8488,7.3905,0,0,0,0,0,0,0,-1,1490,1793,15.8488,-7.39046
273,-769,14.8075,7.56152,0,0,0,0,0,0,0,-1,1497,1793,14.8075,-7.56152
280,-769,13.6519,7.43054,0,0,0,0,0,0,0,-1,1504,1793,13.6518,-7.43058
287,-769,0,0,0,0,0,0,0,0,0,-1,1511,1793,0,0
294,-769,0,0,0,0,0,0,0,0,0,-1,1518,1793,0,0
301,-769,0,0,0,0,0,0,0,0,0,-1,1525,1793,0,0
308,-769,0,0,0,0,0,0,0,0,0,-1,1532,1793,0,0
315,-769,0,0,0,0,0,0,0,0,0,-1,1539,1793,0,0
322,-769,0,0,0,0,0,0,0,0,0,-1,1546,1793,0,0
329,-769,0,0,0,0,0,0,0,0,0,-1,1553,1793,0,0
336,-769,0,0,0,0,0,0,0,0,0,-1,1560,1793,0,0
343,-769,0,0,0,0,0,0,0,0,0,-1,1567,1793,0,0
350,-769,0,0,0,0,0,0,0,0,0,-1,1574,1793,0,0
357,-769,0,0,0,0,0,0,0,0,0,-1,1581,1793,0,0
364,-769,0,0,0,0,0,0,0,0,0,-1,1588,1793,0,0
371,-769,0,0,0,0,0,0,0,0,0,-1,1595,1793,0,0
378,-769,0,0,0,0,0,0,0,0,0,-1,1602,1793,0,0
385,-769,0,0,0,0,0,0,0,0,0,-1,1609,1793,0,0
392,-769,0,0,0,0,0,0,0,0,0,-1,1616,1793,0,0
399,-769,0,0,0,0,0,0,0,0,0,-1,1623,1793,0,0
406,-769,0,0,0,0,0,0,0,0,0,-1,1630,1793,0,0
413,-769,0,0,0,0,0,0,0,0,0,-1,1637,1793,0,0
420,-769,0,0,0,0,0,0,0,0,0,-1,1644,1793,0,0
427,-769,0,0,0,0,0,0,0,0,0,-1,1651,1793,0,0
434,-769,0,0,0,0,0,0,0,0,0,-1,1658,1793,0,0
441,-769,0,0,0,0,0,0,0,0,0,-1,1665,1793,0,0
448,-769,0,0,0,0,0,0,0,0,0,-1,1672,1793,0,0
455,-769,0,0,0,0,0,0,0,0,0,-1,1679,1793,0,0
462,-769,0,0,0,0,0,0,0,0,0,-1,1686,1793,0,0
469,-769,0,0,0,0,0,0,0,0,0,-1,1693,1793,0,0
476,-769,0,0,0,0,0,0,0,0,0,-1,1700,1793,0,0
483,-769,0,0,0,0,0,0,0,0,0,-1,1707,1793,0,0
490,-769,0,0,0,0,0,0,0,0,0,-1,1714,1793,0,0
497,-769,0,0,0,0,0,0,0,0,0,-1,1721,1793,0,0
504,-769,0,0,0,0,0,0,0,0,0,-1,1728,1793,0,0
511,-769,0,0,0,0,0,0,0,0,0,-1,1735,1793,0,0
518,-769,0,0,0,0,0,0,0,0,0,-1,1742,1793,0,0
525,-769,0,0,0,0,0,0,0,0,0,-1,1749,1793,0,0
532,-769,0,0,0,0,0,0,0,0,0,-1,1756,1793,0,0
539,-769,0,0,0,0,0,0,0,0,0,-1,1763,1793,0,0
546,-769,0,0,0,0,0,0,0,0,0,-1,1770,1793,0,0
553,-769,0,0,0,0,0,0,0,0,0,-1,1777,1793,0,0
560,-769,0,0,0,0,0,0,0,0,0,-1,1784,1793,0,0
567,-769,0,0,0,0,0,0,0,0,0,-1,1791,1793,0,0
574,-769,0,0,0,0,0,0,0,0,0,-1,1798,1793,0,0
581,-769,0,0,0,0,0,0,0,0,0,-1,1805,1793,0,0
588,-769,0,0,0,0,0,0,0,0,0,-1,1812,1793,0,0
595,-769,0,0,0,0,0,0,0,0,0,-1,1819,1793,0,0
602,-769,0,0,0,0,0,0,0,0,0,-1,1826,1793,0,0
609,-769,0,0,0,0,0,0,0,0,0,-1,1833,1793,0,0
616,-769,0,0,0,0,0,0,0,0,0,-1,1840,1793,0,0
623,-769,0,0,0,0,0,0,0,0,0,-1,1847,1793,0,0
630,-769,0,0,0,0,0,0,0,0,0,-1,1854,1793,0,0
637,-769,0,0,0,0,0,0,0,0,0,-1,1861,1793,0,0
644,-769,0,0,0,0,0,0,0,0,0,-1,1868,1793,0,0
651,-769,0,0,0,0,0,0,0,0,0,-1,1875,1793,0,0
658,-769,0,0,0,0,0,0,0,0,0,-1,1882,1793,0,0
665,-769,0,0,0,0,0,0,0,0,0,-1,1889,1793,0,0
672,-769,0,0,0,0,0,0,0,0,0,-1,1896,1793,0,0
679,-769,0,0,0,0,0,0,0,0,0,-1,1903,1793,0,0
686,-769,0,0,0,0,0,0,0,0,0,-1,1910,1793,0,0
693,-769,0,0,0,0,0,0,0,0,0,-1,1917,1793,0,0
700,-769,0,0,0,0,0,0,0,0,0,-1,1924,1793,0,0
707,-769,0,0,0,0,0,0,0,0,0,-1,1931,1793,0,0
714,-769,0,0,0,0,0,0,0,0,0,-1,1938,1793,0,0
721,-769,0,0,0,0,0,0,0,0,0,-1,1945,1793,0,0
728,-769,0,0,0,0,0,0,0,0,0,-1,1952,1793,0,0
735,-769,0,0,0,0,0,0,0,0,0,-1,1959,1793,0,0
742,-769,0,0,0,0,0,0,0,0,0,-1,1966,1793,0,0
749,-769,0,0,0,0,0,0,0,0,0,-1,1973,1793,0,0
756,-769,0,0,0,0,0,0,0,0,0,-1,1980,1793,0,0
763,-769,0,0,0,0,0,0,0,0,0,-1,1987,1793,0,0
770,-769,0,0,0,0,0,0,0,0,0,-1,1994,1793,0,0
777,-769,0,0,0,0,0,0,0,0,0,-1,2001,1793,0,0
784,-769,0,0,0,0,0,0,0,0,0,-1,2008,1793,0,0
791,-769,0,0,0,0,0,0,0,0,0,-1,2015,1793,0,0
798,-769,0,0,0,0,0,0,0,0,0,-1,2022,1793,0,0
805,-769,0,0,0,0,0,0,0,0,0,-1,2029,1793,0,0
812,-769,0,0,0,0,0,0,0,0,0,-1,2036,1793,0,0
-700,-776,0,0,0,0,0,0,0,0,0,-1,524,1800,0,0
-693,-776,0,0,0,0,0,0,0,0,0,-1,531,1800,0,0
-686,-776,0,0,0,0,0,0,0,0,0,-1,538,1800,0,0
-679,-776,0,0,0,0,0,0,0,0,0,-1,545,1800,0,0
-672,-776,0,0,0,0,0,0,0,0,0,-1,552,1800,0,0
-665,-776,0,0,0,0,0,0,0,0,0,-1,559,1800,0,0
-658,-776,0,0,0,0,0,0,0,0,0,-1,566,1800,0,0
-651,-776,0,0,0,0,0,0,0,0,0,-1,573,1800,0,0
-644,-776,0,0,0,0,0,0,0,0,0,-1,580,1800,0,0
-637,-776,0,0,0,0,0,0,0,0,0,-1,587,1800,0,0
-630,-776,0,0,0,0,0,0,0,0,0,-1,594,1800,0,0
-623,-776,0,0,0,0,0,0,0,0,0,-1,601,1800,0,0
-616,-776,0,0,0,0,0,0,0,0,0,-1,608,1800,0,0
-609,-776,0,0,0,0,0,0,0,0,0,-1,615,1800,0,0
-602,-776,0,0,0,0,0,0,0,0,0,-1,622,1800,0,0
-595,-776,0,0,0,0,0,0,0,0,0,-1,629,1800,0,0
-588,-776,0,0,0,0,0,0,0,0,0,-1,636,1800,0,0
-581,-776,0,0,0,0,0,0,0,0,0,-1,643,1800,0,0
-574,-776,0,0,0,0,0,0,0,0,0,-1,650,1800,0,0
-567,-776,0,0,0,0,0,0,0,0,0,-1,657,1800,0,0
-560,-776,0,0,0,0,0,0,0,0,0,-1,664,1800,0,0
-553,-776,0,0,0,0,0,0,0,0,0,-1,671,1800,0,0
-546,-776,0,0,0,0,0,0,0,0,0,-1,678,1800,0,0
-539,-776,0,0,0,0,0,0,0,0,0,-1,685,1800,0,0
-532,-776,0,0,0,0,0,0,0,0,0,-1,692,1800,0,0
-525,-776,0,0,0,0,0,0,0,0,0,-1,699,1800,0,0
-518,-776,0,0,0,0,0,0,0,0,0,-1,706,1800,0,0
-511,-776,0,0,0,0,0,0,0,0,0,-1,713,1800,0,0
-504,-776,0,0,0,0,0,0,0,0,0,-1,720,1800,0,0
-497,-776,0,0,0,0,0,0,0,0,0,-1,727,1800,0,0
-490,-776,0,0,0,0,0,0,0,0,0,-1,734,1800,0,0
-483,-776,0,0,0,0,0,0,0,0,0,-1,741,1800,0,0
-476,-776,0,0,0,0,0,0,0,0,0,-1,748,1800,0,0
-469,-776,0,0,0,0,0,0,0,0,0,-1,755,1800,0,0
-462,-776,0,0,0,0,0,0,0,0,0,-1,762,1800,0,0
-455,-776,0,0,0,0,0,0,0,0,0,-1,769,1800,0,0
-448,-776,0,0,0,0,0,0,0,0,0,-1,776,1800,0,0
-441,-776,0,0,0,0,0,0,0,0,0,-1,783,1800,0,0
-434,-776,0,0,0,0,0,0,0,0,0,-1,790,1800,0,0
-427,-776,0,0,0,0,0,0,0,0,0,-1,797,1800,0,0
-420,-776,0,0,0,0,0,0,0,0,0,-1,804,1800,0,0
-413,-776,0,0,0,0,0,0,0,0,0,-1,811,1800,0,0
-406,-776,0,0,0,0,0,0,0,0,0,-1,818,1800,0,0
-399,-776,0,0,0,0,0,0,0,0,0,-1,825,1800,0,0
-392,-776,0,0,0,0,0,0,0,0,0,-1,832,1800,0,0
-385,-776,0,0,0,0,0,0,0,0,0,-1,839,1800,0,0
-378,-776,0,0,0,0,0,0,0,0,0,-1,846,1800,0,0
-371,-776,0,0,0,0,0,0,0,0,0,-1,853,1800,0,0
-364,-776,0,0,0,0,0,0,0,0,0,-1,860,1800,0,0
-357,-776,0,0,0,0,0,0,0,0,0,-1,867,1800,0,0
-350,-776,0,0,0,0,0,0,0,0,0,-1,874,1800,0,0
-343,-776,0,0,0,0,0,0,0,0,0,-1,881,1800,0,0
-336,-776,0,0,0,0,0,0,0,0,0,-1,888,1800,0,0
-329,-776,0,0,0,0,0,0,0,0,0,-1,895,1800,0,0
-322,-776,0,0,0,0,0,0,0,0,0,-1,902,1800,0,0
-315,-776,0,0,0,0,0,0,0,0,0,-1,909,1800,0,0
-308,-776,0,0,0,0,0,0,0,0,0,-1,916,1800,0,0
-301,-776,0,0,0,0,0,0,0,0,0,-1,923,1800,0,0
-294,-776,0,0,0,0,0,0,0,0,0,-1,930,1800,0,0
-287,-776,0,0,0,0,0,0,0,0,0,-1,937,1800,0,0
-280,-776,0,0,0,0,0,0,0,0,0,-1,944,1800,0,0
-273,-776,0,0,0,0,0,0,0,0,0,-1,951,1800,0,0
-266,-776,0,0,0,0,0,0,0,0,0,-1,958,1800,0,0
-259,-776,0,0,0,0,0,0,0,0,0,-1,965,1800,0,0
-252,-776,0,0,0,0,0,0,0,0,0,-1,972,1800,0,0
-245,-776,0,0,0,0,0,0,0,0,0,-1,979,1800,0,0
-238,-776,0,0,0,0,0,0,0,0,0,-1,986,1800,0,0
-231,-776,0,0,0,0,0,0,0,0,0,-1,993,1800,0,0
-224,-776,0,0,0,0,0,0,0,0,0,-1,1000,1800,0,0
-217,-776,0,0,0,0,0,0,0,0,0,-1,1007,1800,0,0
-210,-776,0,0,0,0,0,0,0,0,0,-1,1014,1800,0,0
-203,-776,0,0,0,0,0,0,0,0,0,-1,1021,1800,0,0
-196,-776,0,0,0,0,0,0,0,0,0,-1,1028,1800,0,0
-189,-776,0,0,0,0,0,0,0,0,0,-1,1035,1800,0,0
-182,-776,0,0,0,0,0,0,0,0,0,-1,1042,1800,0,0
-175,-776,0,0,0,0,0,0,0,0,0,-1,1049,1800,0,0
-168,-776,0,0,0,0,0,0,0,0,0,-1,1056,1800,0,0
-161,-776,0,0,0,0,0,0,0,0,0,-1,1063,1800,0,0
-154,-776,0,0,0,0,0,0,0,0,0,-1,1070,1800,0,0
-147,-776,0,0,0,0,0,0,0,0,0,-1,1077,1800,0,0
-140,-776,2.98499,5.20911,0,0,0,0,0,0,0,-1,1084,1800,2.98493,-5.2091
-133,-776,6.72363,9.35828,0,0,0,0,0,0,0,-1,1091,1800,6.72358,-9.35824
-126,-776,6.55029,13.7832,0,0,0,0,0,0,0,-1,1098,1800,6.55029,-13.7832
-119,-776,5.72107,13.7787,0,0,0,0,0,0,0,-1,1105,1800,5.72106,-13.7787
-112,-776,6.84998,20.4421,0,0,0,0,0,0,0,-1,1112,1800,6.84993,-20.4421
-105,-776,4.46863,24.6742,0,0,0,0,0,0,0,-1,1119,1800,4.46868,-24.6742
-98,-776,4.31616,19.7659,0,0,0,0,0,0,0,-1,1126,1800,4.31619,-19.7659
-91,-776,3.30225,18.134,0,0,0,0,0,0,0,-1,1133,1800,3.30222,-18.134
-84,-776,2.67932,14.3162,0,0,0,0,0,0,0,-1,1140,1800,2.67926,-14.3161
-77,-776,0.580078,11.1272,0,0,0,0,0,0,0,-1,1147,1800,0.58002,-11.1272
-70,-776,-0.562866,12.3163,0,0,0,0,0,0,0,-1,1154,1800,-0.562897,-12.3163
-63,-776,-3.96106,9.97656,0,0,0,0,0,0,0,-1,1161,1800,-3.961,-9.97654
-56,-776,-7.35913,7.63672,0,0,0,0,0,0,0,-1,1168,1800,-7.3591,-7.63676
-49,-776,-7.62952,3.1908,0,0,0,0,0,0,0,-1,1175,1800,-7.62955,-3.19076
-42,-776,-3.41272,3.0249,0,0,0,0,0,0,0,-1,1182,1800,-3.41269,-3.02488
-35,-776,-3.71753,1.63635,0,0,0,0,0,0,0,-1,1189,1800,-3.71755,-1.63631
-28,-776,-4.03979,0.716064,0,0,0,0,0,0,0,-1,1196,1800,-4.03977,-0.716055
-21,-776,8.32678,44.1613,0,0,0,0,0,0,0,-1,1203,1800,8.32676,-44.1612
-14,-776,8.28638,44.2256,0,0,0,0,0,0,0,-1,1210,1800,8.28636,-44.2256
-7,-776,9.59241,44.4154,0,0,0,0,0,0,0,-1,1217,1800,9.59235,-44.4154
0,-776,9.45972,44.1339,0.0275191,0.067127,-0.024985,0.0792048,0.0154413,-1.12051,0.0484828,0.0461683,1224,1800,9.45973,-44.1339
7,-776,9.05457,44.3612,0.028897,0.0722142,-0.0303054,0.0878049,0.0133063,-1.09565,0.0546439,0.048076,1231,1800,9.05456,-44.3612
14,-776,9.0636,44.6179,0.0283797,0.0771342,-0.0349409,0.0953612,0.0101527,-1.08998,0.0604746,0.0483385,1238,1800,9.06359,-44.6179
21,-776,9.0509,44.7917,0.0258104,0.0766973,-0.0356819,0.0950782,0.00742956,-1.09512,0.0610598,0.0465,1245,1800,9.05092,-44.7918
28,-776,8.31665,44.4053,0,0,0,0,0,0,0,-1,1252,1800,8.31664,-44.4053
35,-776,8.28979,44.6768,0.0120069,0.0809477,-0.0286157,0.0912776,0.00167699,-1.22437,0.0603005,0.0449637,1259,1800,8.28978,-44.6768
42,-776,8.66614,45.3602,0.00405416,0.0789448,-0.0221679,0.0850146,-0.00201568,-1.30354,0.0573601,0.0423052,1266,1800,8.66613,-45.3603
49,-776,8.85413,44.7095,0,0,0,0,0,0,0,-1,1273,1800,8.85411,-44.7095
56,-776,9.2915,43.4342,0,0,0,0,0,0,0,-1,1280,1800,9.29148,-43.4342
63,-776,8.83569,43.1021,0,0,0,0,0,0,0,-1,1287,1800,8.83568,-43.1021
70,-776,9.12292,42.741,-0.0328143,0.0741217,0.00625935,0.0744868,-0.0331794,1.51253,0.0636679,0.0479979,1294,1800,9.12297,-42.7409
77,-776,8.43494,45.3431,-0.0408302,0.0742575,0.0179718,0.0769986,-0.0435713,1.41944,0.0704972,0.0459222,1301,1800,8.43491,-45.3431
84,-776,8.22656,44.9341,-0.0467737,0.0743175,0.0260532,0.079685,-0.0521412,1.36762,0.0766617,0.0457482,1308,1800,8.2266,-44.9341
91,-776,7.88123,44.5197,-0.0483787,0.0791058,0.0296891,0.0856808,-0.0549537,1.35285,0.0818388,0.0435851,1315,1800,7.88126,-44.5197
98,-776,0.963257,50.2606,0,0,0,0,0,0,0,-1,1322,1800,0.963249,-50.2607
105,-776,8.35657,44.9218,0,0,0,0,0,0,0,-1,1329,1800,8.3566,-44.9218
112,-776,-1.92664,50.3057,0,0,0,0,0,0,0,-1,1336,1800,-1.92662,-50.3057
119,-776,7.89465,44.0566,-0.0437699,0.103245,0.0423591,0.114577,-0.0551013,1.30941,0.0999494,0.046373,1343,1800,7.8947,-44.0567
126,-776,-4.51611,50.6414,-0.040893,0.115373,0.0446973,0.127255,-0.0527745,1.31098,0.106864,0.0482369,1350,1800,-4.51607,-50.6414
133,-776,-5.93091,50.9523,0,0,0,0,0,0,0,-1,1357,1800,-5.93089,-50.9522
140,-776,7.59167,44.3367,0,0,0,0,0,0,0,-1,1364,1800,7.59164,-44.3367
147,-776,4.38184,33.3923,0,0,0,0,0,0,0,-1,1371,1800,4.38185,-33.3923
154,-776,38.4338,21.854,0,0,0,0,0,0,0,-1,1378,1800,38.4339,-21.854
161,-776,6.50293,1.1731,0,0,0,0,0,0,0,-1,1385,1800,6.5029,-1.17313
168,-776,8.44971,1.22913,0,0,0,0,0,0,0,-1,1392,1800,8.44974,-1.22915
175,-776,8.61523,2.87061,0,0,0,0,0,0,0,-1,1399,1800,8.6152,-2.87063
182,-776,8.54065,4.60645,0,0,0,0,0,0,0,-1,1406,1800,8.5407,-4.60643
189,-776,8.35303,6.28223,0,0,0,0,0,0,0,-1,1413,1800,8.35297,-6.28225
196,-776,8.0387,8.21704,0,0,0,0,0,0,0,-1,1420,1800,8.03865,-8.217
203,-776,7.91736,9.79919,0,0,0,0,0,0,0,-1,1427,1800,7.91735,-9.79922
210,-776,20.2479,7.85718,0,0,0,0,0,0,0,-1,1434,1800,20.248,-7.85719
217,-776,21.5171,9.3418,0,0,0,0,0,0,0,-1,1441,1800,21.5171,-9.34182
224,-776,3.09253,14.9313,0,0,0,0,0,0,0,-1,1448,1800,3.09254,-14.9313
231,-776,20.8671,9.21057,0,0,0,0,0,0,0,-1,1455,1800,20.867,-9.21054
238,-776,20.7511,9.05847,0,0,0,0,0,0,0,-1,1462,1800,20.7511,-9.05848
245,-776,3.80823,15.4108,0,0,0,0,0,0,0,-1,1469,1800,3.80826,-15.4108
252,-776,8.57837,20.2009,0,0,0,0,0,0,0,-1,1476,1800,8.57841,-20.2009
259,-776,14.1882,7.69055,0,0,0,0,0,0,0,-1,1483,1800,14.1882,-7.69061
266,-776,0,0,0,0,0,0,0,0,0,-1,1490,1800,0,0
273,-776,0,0,0,0,0,0,0,0,0,-1,1497,1800,0,0
280,-776,0,0,0,0,0,0,0,0,0,-1,1504,1800,0,0
287,-776,0,0,0,0,0,0,0,0,0,-1,1511,1800,0,0
294,-776,0,0,0,0,0,0,0,0,0,-1,1518,1800,0,0
301,-776,0,0,0,0,0,0,0,0,0,-1,1525,1800,0,0
308,-776,0,0,0,0,0,0,0,0,0,-1,1532,1800,0,0
315,-776,0,0,0,0,0,0,0,0,0,-1,1539,1800,0,0
322,-776,0,0,0,0,0,0,0,0,0,-1,1546,1800,0,0
329,-776,0,0,0,0,0,0,0,0,0,-1,1553,1800,0,0
336,-776,0,0,0,0,0,0,0,0,0,-1,1560,1800,0,0
343,-776,0,0,0,0,0,0,0,0,0,-1,1567,1800,0,0
350,-776,0,0,0,0,0,0,0,0,0,-1,1574,1800,0,0
357,-776,0,0,0,0,0,0,0,0,0,-1,1581,1800,0,0
364,-776,0,0,0,0,0,0,0,0,0,-1,1588,1800,0,0
371,-776,0,0,0,0,0,0,0,0,0,-1,1595,1800,0,0
378,-776,0,0,0,0,0,0,0,0,0,-1,1602,1800,0,0
385,-776,0,0,0,0,0,0,0,0,0,-1,1609,1800,0,0
392,-776,0,0,0,0,0,0,0,0,0,-1,1616,1800,0,0
399,-776,0,0,0,0,0,0,0,0,0,-1,1623,1800,0,0
406,-776,0,0,0,0,0,0,0,0,0,-1,1630,1800,0,0
413,-776,0,0,0,0,0,0,0,0,0,-1,1637,1800,0,0
420,-776,0,0,0,0,0,0,0,0,0,-1,1644,1800,0,0
427,-776,0,0,0,0,0,0,0,0,0,-1,1651,1800,0,0
434,-776,0,0,0,0,0,0,0,0,0,-1,1658,1800,0,0
441,-776,0,0,0,0,0,0,0,0,0,-1,1665,1800,0,0
448,-776,0,0,0,0,0,0,0,0,0,-1,1672,1800,0,0
455,-776,0,0,0,0,0,0,0,0,0,-1,1679,1800,0,0
462,-776,0,0,0,0,0,0,0,0,0,-1,1686,1800,0,0
469,-776,0,0,0,0,0,0,0,0,0,-1,1693,1800,0,0
476,-776,0,0,0,0,0,0,0,0,0,-1,1700,1800,0,0
483,-776,0,0,0,0,0,0,0,0,0,-1,1707,1800,0,0
490,-776,0,0,0,0,0,0,0,0,0,-1,1714,1800,0,0
497,-776,0,0,0,0,0,0,0,0,0,-1,1721,1800,0,0
504,-776,0,0,0,0,0,0,0,0,0,-1,1728,1800,0,0
511,-776,0,0,0,0,0,0,0,0,0,-1,1735,1800,0,0
518,-776,0,0,0,0,0,0,0,0,0,-1,1742,1800,0,0
525,-776,0,0,0,0,0,0,0,0,0,-1,1749,1800,0,0
532,-776,0,0,0,0,0,0,0,0,0,-1,1756,1800,0,0
539,-776,0,0,0,0,0,0,0,0,0,-1,1763,1800,0,0
546,-776,0,0,0,0,0,0,0,0,0,-1,1770,1800,0,0
553,-776,0,0,0,0,0,0,0,0,0,-1,1777,1800,0,0
560,-776,0,0,0,0,0,0,0,0,0,-1,1784,1800,0,0
567,-776,0,0,0,0,0,0,0,0,0,-1,1791,1800,0,0
574,-776,0,0,0,0,0,0,0,0,0,-1,1798,1800,0,0
581,-776,0,0,0,0,0,0,0,0,0,-1,1805,1800,0,0
588,-776,0,0,0,0,0,0,0,0,0,-1,1812,1800,0,0
595,-776,0,0,0,0,0,0,0,0,0,-1,1819,1800,0,0
602,-776,0,0,0,0,0,0,0,0,0,-1,1826,1800,0,0
609,-776,0,0,0,0,0,0,0,0,0,-1,1833,1800,0,0
616,-776,0,0,0,0,0,0,0,0,0,-1,1840,1800,0,0
623,-776,0,0,0,0,0,0,0,0,0,-1,1847,1800,0,0
630,-776,0,0,0,0,0,0,0,0,0,-1,1854,1800,0,0
637,-776,0,0,0,0,0,0,0,0,0,-1,1861,1800,0,0
644,-776,0,0,0,0,0,0,0,0,0,-1,1868,1800,0,0
651,-776,0,0,0,0,0,0,0,0,0,-1,1875,1800,0,0
658,-776,0,0,0,0,0,0,0,0,0,-1,1882,1800,0,0
665,-776,0,0,0,0,0,0,0,0,0,-1,1889,1800,0,0
672,-776,0,0,0,0,0,0,0,0,0,-1,1896,1800,0,0
679,-776,0,0,0,0,0,0,0,0,0,-1,1903,1800,0,0
686,-776,0,0,0,0,0,0,0,0,0,-1,1910,1800,0,0
693,-776,0,0,0,0,0,0,0,0,0,-1,1917,1800,0,0
700,-776,0,0,0,0,0,0,0,0,0,-1,1924,1800,0,0
707,-776,0,0,0,0,0,0,0,0,0,-1,1931,1800,0,0
714,-776,0,0,0,0,0,0,0,0,0,-1,1938,1800,0,0
721,-776,0,0,0,0,0,0,0,0,0,-1,1945,1800,0,0
728,-776,0,0,0,0,0,0,0,0,0,-1,1952,1800,0,0
735,-776,0,0,0,0,0,0,0,0,0,-1,1959,1800,0,0
742,-776,0,0,0,0,0,0,0,0,0,-1,1966,1800,0,0
749,-776,0,0,0,0,0,0,0,0,0,-1,1973,1800,0,0
756,-776,0,0,0,0,0,0,0,0,0,-1,1980,1800,0,0
763,-776,0,0,0,0,0,0,0,0,0,-1,1987,1800,0,0
770,-776,0,0,0,0,0,0,0,0,0,-1,1994,1800,0,0
777,-776,0,0,0,0,0,0,0,0,0,-1,2001,1800,0,0
784,-776,0,0,0,0,0,0,0,0,0,-1,2008,1800,0,0
791,-776,0,0,0,0,0,0,0,0,0,-1,2015,1800,0,0
798,-776,0,0,0,0,0,0,0,0,0,-1,2022,1800,0,0
805,-776,0,0,0,0,0,0,0,0,0,-1,2029,1800,0,0
812,-776,0,0,0,0,0,0,0,0,0,-1,2036,1800,0,0
-700,-783,0,0,0,0,0,0,0,0,0,-1,524,1807,0,0
-693,-783,0,0,0,0,0,0,0,0,0,-1,531,1807,0,0
-686,-783,0,0,0,0,0,0,0,0,0,-1,538,1807,0,0
-679,-783,0,0,0,0,0,0,0,0,0,-1,545,1807,0,0
-672,-783,0,0,0,0,0,0,0,0,0,-1,552,1807,0,0
-665,-783,0,0,0,0,0,0,0,0,0,-1,559,1807,0,0
-658,-783,0,0,0,0,0,0,0,0,0,-1,566,1807,0,0
-651,-783,0,0,0,0,0,0,0,0,0,-1,573,1807,0,0
-644,-783,0,0,0,0,0,0,0,0,0,-1,580,1807,0,0
-637,-783,0,0,0,0,0,0,0,0,0,-1,587,1807,0,0
-630,-783,0,0,0,0,0,0,0,0,0,-1,594,1807,0,0
-623,-783,0,0,0,0,0,0,0,0,0,-1,601,1807,0,0
-616,-783,0,0,0,0,0,0,0,0,0,-1,608,1807,0,0
-609,-783,0,0,0,0,0,0,0,0,0,-1,615,1807,0,0
-602,-783,0,0,0,0,0,0,0,0,0,-1,622,1807,0,0
-595,-783,0,0,0,0,0,0,0,0,0,-1,629,1807,0,0
-588,-783,0,0,0,0,0,0,0,0,0,-1,636,1807,0,0
-581,-783,0,0,0,0,0,0,0,0,0,-1,643,1807,0,0
-574,-783,0,0,0,0,0,0,0,0,0,-1,650,1807,0,0
-567,-783,0,0,0,0,0,0,0,0,0,-1,657,1807,0,0
-560,-783,0,0,0,0,0,0,0,0,0,-1,664,1807,0,0
-553,-783,0,0,0,0,0,0,0,0,0,-1,671,1807,0,0
-546,-783,0,0,0,0,0,0,0,0,0,-1,678,1807,0,0
-539,-783,0,0,0,0,0,0,0,0,0,-1,685,1807,0,0
-532,-783,0,0,0,0,0,0,0,0,0,-1,692,1807,0,0
-525,-783,0,0,0,0,0,0,0,0,0,-1,699,1807,0,0
-518,-783,0,0,0,0,0,0,0,0,0,-1,706,1807,0,0
-511,-783,0,0,0,0,0,0,0,0,0,-1,713,1807,0,0
-504,-783,0,0,0,0,0,0,0,0,0,-1,720,1807,0,0
-497,-783,0,0,0,0,0,0,0,0,0,-1,727,1807,0,0
-490,-783,0,0,0,0,0,0,0,0,0,-1,734,1807,0,0
-483,-783,0,0,0,0,0,0,0,0,0,-1,741,1807,0,0
-476,-783,0,0,0,0,0,0,0,0,0,-1,748,1807,0,0
-469,-783,0,0,0,0,0,0,0,0,0,-1,755,1807,0,0
-462,-783,0,0,0,0,0,0,0,0,0,-1,762,1807,0,0
-455,-783,0,0,0,0,0,0,0,0,0,-1,769,1807,0,0
-448,-783,0,0,0,0,0,0,0,0,0,-1,776,1807,0,0
-441,-783,0,0,0,0,0,0,0,0,0,-1,783,1807,0,0
-434,-783,0,0,0,0,0,0,0,0,0,-1,790,1807,0,0
-427,-783,0,0,0,0,0,0,0,0,0,-1,797,1807,0,0
-420,-783,0,0,0,0,0,0,0,0,0,-1,804,1807,0,0
-413,-783,0,0,0,0,0,0,0,0,0,-1,811,1807,0,0
-406,-783,0,0,0,0,0,0,0,0,0,-1,818,1807,0,0
-399,-783,0,0,0,0,0,0,0,0,0,-1,825,1807,0,0
-392,-783,0,0,0,0,0,0,0,0,0,-1,832,1807,0,0
-385,-783,0,0,0,0,0,0,0,0,0,-1,839,1807,0,0
-378,-783,0,0,0,0,0,0,0,0,0,-1,846,1807,0,0
-371,-783,0,0,0,0,0,0,0,0,0,-1,853,1807,0,0
-364,-783,0,0,0,0,0,0,0,0,0,-1,860,1807,0,0
-357,-783,0,0,0,0,0,0,0,0,0,-1,867,1807,0,0
-350,-783,0,0,0,0,0,0,0,0,0,-1,874,1807,0,0
-343,-783,0,0,0,0,0,0,0,0,0,-1,881,1807,0,0
-336,-783,0,0,0,0,0,0,0,0,0,-1,888,1807,0,0
-329,-783,0,0,0,0,0,0,0,0,0,-1,895,1807,0,0
-322,-783,0,0,0,0,0,0,0,0,0,-1,902,1807,0,0
-315,-783,0,0,0,0,0,0,0,0,0,-1,909,1807,0,0
-308,-783,0,0,0,0,0,0,0,0,0,-1,916,1807,0,0
-301,-783,0,0,0,0,0,0,0,0,0,-1,923,1807,0,0
-294,-783,0,0,0,0,0,0,0,0,0,-1,930,1807,0,0
-287,-783,0,0,0,0,0,0,0,0,0,-1,937,1807,0,0
-280,-783,0,0,0,0,0,0,0,0,0,-1,944,1807,0,0
-273,-783,0,0,0,0,0,0,0,0,0,-1,951,1807,0,0
-266,-783,0,0,0,0,0,0,0,0,0,-1,958,1807,0,0
-259,-783,0,0,0,0,0,0,0,0,0,-1,965,1807,0,0
-252,-783,0,0,0,0,0,0,0,0,0,-1,972,1807,0,0
-245,-783,0,0,0,0,0,0,0,0,0,-1,979,1807,0,0
-238,-783,0,0,0,0,0,0,0,0,0,-1,986,1807,0,0
-231,-783,0,0,0,0,0,0,0,0,0,-1,993,1807,0,0
-224,-783,0,0,0,0,0,0,0,0,0,-1,1000,1807,0,0
-217,-783,0,0,0,0,0,0,0,0,0,-1,1007,1807,0,0
-210,-783,0,0,0,0,0,0,0,0,0,-1,1014,1807,0,0
-203,-783,0,0,0,0,0,0,0,0,0,-1,1021,1807,0,0
-196,-783,0,0,0,0,0,0,0,0,0,-1,1028,1807,0,0
-189,-783,0,0,0,0,0,0,0,0,0,-1,1035,1807,0,0
-182,-783,0,0,0,0,0,0,0,0,0,-1,1042,1807,0,0
-175,-783,0,0,0,0,0,0,0,0,0,-1,1049,1807,0,0
-168,-783,0,0,0,0,0,0,0,0,0,-1,1056,1807,0,0
-161,-783,0,0,0,0,0,0,0,0,0,-1,1063,1807,0,0
-154,-783,0,0,0,0,0,0,0,0,0,-1,1070,1807,0,0
-147,-783,0,0,0,0,0,0,0,0,0,-1,1077,1807,0,0
-140,-783,0,0,0,0,0,0,0,0,0,-1,1084,1807,0,0
-133,-783,0,0,0,0,0,0,0,0,0,-1,1091,1807,0,0
-126,-783,0,0,0,0,0,0,0,0,0,-1,1098,1807,0,0
-119,-783,0,0,0,0,0,0,0,0,0,-1,1105,1807,0,0
-112,-783,5.33936,14.7699,0,0,0,0,0,0,0,-1,1112,1807,5.33931,-14.7699
-105,-783,6.44263,21.2224,0,0,0,0,0,0,0,-1,1119,1807,6.44263,-21.2224
-98,-783,5.54773,20.5695,0,0,0,0,0,0,0,-1,1126,1807,5.54772,-20.5695
-91,-783,2.6106,20.2491,0,0,0,0,0,0,0,-1,1133,1807,2.61056,-20.2492
-84,-783,-0.0491943,14.5743,0,0,0,0,0,0,0,-1,1140,1807,-0.0491562,-14.5743
-77,-783,0.332764,12.7788,0,0,0,0,0,0,0,-1,1147,1807,0.332743,-12.7788
-70,-783,-1.93176,5.12817,0,0,0,0,0,0,0,-1,1154,1807,-1.93171,-5.12813
-63,-783,-5.31702,10.54,0,0,0,0,0,0,0,-1,1161,1807,-5.31703,-10.54
-56,-783,-6.26135,6.9679,0,0,0,0,0,0,0,-1,1168,1807,-6.26136,-6.96785
-49,-783,-3.17688,4.59705,0,0,0,0,0,0,0,-1,1175,1807,-3.17685,-4.5971
-42,-783,-3.72876,3.1405,0,0,0,0,0,0,0,-1,1182,1807,-3.72874,-3.14055
-35,-783,-3.97046,1.59399,0,0,0,0,0,0,0,-1,1189,1807,-3.97041,-1.59401
-28,-783,-4.12195,0.270386,0,0,0,0,0,0,0,-1,1196,1807,-4.12197,-0.270408
-21,-783,8.24231,44.88,0,0,0,0,0,0,0,-1,1203,1807,8.24227,-44.8799
-14,-783,8.82703,42.5447,0,0,0,0,0,0,0,-1,1210,1807,8.82697,-42.5447
-7,-783,8.88696,42.9968,0,0,0,0,0,0,0,-1,1217,1807,8.88699,-42.9968
0,-783,9.6781,43.9381,0,0,0,0,0,0,0,-1,1224,1807,9.67814,-43.9382
7,-783,9.11011,44.4719,0,0,0,0,0,0,0,-1,1231,1807,9.11012,-44.472
14,-783,9.15979,44.6975,0,0,0,0,0,0,0,-1,1238,1807,9.15983,-44.6975
21,-783,9.13684,44.4548,0.0354432,0.0998885,-0.0465805,0.124305,0.0110262,-1.08799,0.0794503,0.0482388,1245,1807,9.1369,-44.4549
28,-783,8.28113,44.5792,0.0275096,0.103863,-0.0434517,0.123526,0.00784581,-1.14583,0.0798641,0.0435001,1252,1807,8.28113,-44.5793
35,-783,7.95056,44.6563,0,0,0,0,0,0,0,-1,1259,1807,7.95059,-44.6562
42,-783,11.082,43.8158,0.00513424,0.100217,-0.0298263,0.108799,-0.00344735,-1.29064,0.0737084,0.0452652,1266,1807,11.082,-43.8159
49,-783,10.3658,43.4698,0,0,0,0,0,0,0,-1,1273,1807,10.3659,-43.4698
56,-783,9.67505,43.0996,0,0,0,0,0,0,0,-1,1280,1807,9.67508,-43.0996
63,-783,9.01794,42.6841,0,0,0,0,0,0,0,-1,1287,1807,9.01798,-42.6841
70,-783,9.22229,42.0236,-0.0431377,0.0916867,0.00646385,0.0919959,-0.0434469,1.523,0.0798549,0.04542,1294,1807,9.2223,-42.0235
77,-783,9.49133,42.0266,-0.0535591,0.0914439,0.0207325,0.09435,-0.0564652,1.43153,0.0879841,0.0475226,1301,1807,9.49139,-42.0266
84,-783,8.10242,45.0419,-0.0610849,0.0921295,0.0305105,0.0979817,-0.0669371,1.38129,0.0957766,0.0494125,1308,1807,8.10237,-45.0419
91,-783,3.36816,48.5155,-0.0632009,0.0984854,0.0351285,0.105788,-0.0705032,1.36584,0.102459,0.042521,1315,1807,3.36821,-48.5155
98,-783,1.89038,48.5641,-0.0639632,0.104589,0.0399911,0.113596,-0.0729702,1.34927,0.108562,0.0424172,1322,1807,1.89033,-48.5641
105,-783,0.3927,48.6306,0,0,0,0,0,0,0,-1,1329,1807,0.392685,-48.6306
112,-783,-0.997559,48.681,-0.0611845,0.1219,0.0460726,0.13284,-0.0721247,1.33766,0.120055,0.0478155,1336,1807,-0.997507,-48.681
119,-783,-2.38843,48.723,-0.0584266,0.132155,0.0503794,0.144653,-0.0709246,1.32763,0.126867,0.0438169,1343,1807,-2.38845,-48.723
126,-783,-3.61597,48.6211,-0.0546391,0.149658,0.0535622,0.162849,-0.0678302,1.32932,0.136897,0.0477959,1350,1807,-3.61601,-48.6212
133,-783,-4.98035,48.5542,0,0,0,0,0,0,0,-1,1357,1807,-4.98038,-48.5542
140,-783,-0.409668,53.6488,0,0,0,0,0,0,0,-1,1364,1807,-0.409629,-53.6488
147,-783,9.69092,45.6047,0,0,0,0,0,0,0,-1,1371,1807,9.69091,-45.6048
154,-783,38.2109,17.545,0,0,0,0,0,0,0,-1,1378,1807,38.2109,-17.545
161,-783,39.5087,17.5449,0,0,0,0,0,0,0,-1,1385,1807,39.5087,-17.545
168,-783,8.62561,1.79944,0,0,0,0,0,0,0,-1,1392,1807,8.62561,-1.79946
175,-783,8.78699,3.40857,0,0,0,0,0,0,0,-1,1399,1807,8.78697,-3.40854
182,-783,8.70984,5.14661,0,0,0,0,0,0,0,-1,1406,1807,8.70989,-5.14666
189,-783,8.55762,6.79871,0,0,0,0,0,0,0,-1,1413,1807,8.55766,-6.79872
196,-783,8.25488,8.66626,0,0,0,0,0,0,0,-1,1420,1807,8.25492,-8.66628
203,-783,7.86755,10.5735,0,0,0,0,0,0,0,-1,1427,1807,7.8676,-10.5734
210,-783,5.6969,8.99231,0,0,0,0,0,0,0,-1,1434,1807,5.69693,-8.99234
217,-783,5.28503,3.80872,0,0,0,0,0,0,0,-1,1441,1807,5.285,-3.80868
224,-783,3.22571,6.62903,0,0,0,0,0,0,0,-1,1448,1807,3.2257,-6.62907
231,-783,4.27942,4.56262,0,0,0,0,0,0,0,-1,1455,1807,4.27948,-4.56267
238,-783,0,0,0,0,0,0,0,0,0,-1,1462,1807,0,0
245,-783,0,0,0,0,0,0,0,0,0,-1,1469,1807,0,0
252,-783,0,0,0,0,0,0,0,0,0,-1,1476,1807,0,0
259,-783,0,0,0,0,0,0,0,0,0,-1,1483,1807,0,0
266,-783,0,0,0,0,0,0,0,0,0,-1,1490,1807,0,0
273,-783,0,0,0,0,0,0,0,0,0,-1,1497,1807,0,0
280,-783,0,0,0,0,0,0,0,0,0,-1,1504,1807,0,0
287,-783,0,0,0,0,0,0,0,0,0,-1,1511,1807,0,0
294,-783,0,0,0,0,0,0,0,0,0,-1,1518,1807,0,0
301,-783,0,0,0,0,0,0,0,0,0,-1,1525,1807,0,0
308,-783,0,0,0,0,0,0,0,0,0,-1,1532,1807,0,0
315,-783,0,0,0,0,0,0,0,0,0,-1,1539,1807,0,0
322,-783,0,0,0,0,0,0,0,0,0,-1,1546,1807,0,0
329,-783,0,0,0,0,0,0,0,0,0,-1,1553,1807,0,0
336,-783,0,0,0,0,0,0,0,0,0,-1,1560,1807,0,0
343,-783,0,0,0,0,0,0,0,0,0,-1,1567,1807,0,0
350,-783,0,0,0,0,0,0,0,0,0,-1,1574,1807,0,0
357,-783,0,0,0,0,0,0,0,0,0,-1,1581,1807,0,0
364,-783,0,0,0,0,0,0,0,0,0,-1,1588,1807,0,0
371,-783,0,0,0,0,0,0,0,0,0,-1,1595,1807,0,0
378,-783,0,0,0,0,0,0,0,0,0,-1,1602,1807,0,0
385,-783,0,0,0,0,0,0,0,0,0,-1,1609,1807,0,0
392,-783,0,0,0,0,0,0,0,0,0,-1,1616,1807,0,0
399,-783,0,0,0,0,0,0,0,0,0,-1,1623,1807,0,0
406,-783,0,0,0,0,0,0,0,0,0,-1,1630,1807,0,0
413,-783,0,0,0,0,0,0,0,0,0,-1,1637,1807,0,0
420,-783,0,0,0,0,0,0,0,0,0,-1,1644,1807,0,0
427,-783,0,0,0,0,0,0,0,0,0,-1,1651,1807,0,0
434,-783,0,0,0,0,0,0,0,0,0,-1,1658,1807,0,0
441,-783,0,0,0,0,0,0,0,0,0,-1,1665,1807,0,0
448,-783,0,0,0,0,0,0,0,0,0,-1,1672,1807,0,0
455,-783,0,0,0,0,0,0,0,0,0,-1,1679,1807,0,0
462,-783,0,0,0,0,0,0,0,0,0,-1,1686,1807,0,0
469,-783,0,0,0,0,0,0,0,0,0,-1,1693,1807,0,0
476,-783,0,0,0,0,0,0,0,0,0,-1,1700,1807,0,0
483,-783,0,0,0,0,0,0,0,0,0,-1,1707,1807,0,0
490,-783,0,0,0,0,0,0,0,0,0,-1,1714,1807,0,0
497,-783,0,0,0,0,0,0,0,0,0,-1,1721,1807,0,0
504,-783,0,0,0,0,0,0,0,0,0,-1,1728,1807,0,0
511,-783,0,0,0,0,0,0,0,0,0,-1,1735,1807,0,0
518,-783,0,0,0,0,0,0,0,0,0,-1,1742,1807,0,0
525,-783,0,0,0,0,0,0,0,0,0,-1,1749,1807,0,0
532,-783,0,0,0,0,0,0,0,0,0,-1,1756,1807,0,0
539,-783,0,0,0,0,0,0,0,0,0,-1,1763,1807,0,0
546,-783,0,0,0,0,0,0,0,0,0,-1,1770,1807,0,0
553,-783,0,0,0,0,0,0,0,0,0,-1,1777,1807,0,0
560,-783,0,0,0,0,0,0,0,0,0,-1,1784,1807,0,0
567,-783,0,0,0,0,0,0,0,0,0,-1,1791,1807,0,0
574,-783,0,0,0,0,0,0,0,0,0,-1,1798,1807,0,0
581,-783,0,0,0,0,0,0,0,0,0,-1,1805,1807,0,0
588,-783,0,0,0,0,0,0,0,0,0,-1,1812,1807,0,0
595,-783,0,0,0,0,0,0,0,0,0,-1,1819,1807,0,0
602,-783,0,0,0,0,0,0,0,0,0,-1,1826,1807,0,0
609,-783,0,0,0,0,0,0,0,0,0,-1,1833,1807,0,0
616,-783,0,0,0,0,0,0,0,0,0,-1,1840,1807,0,0
623,-783,0,0,0,0,0,0,0,0,0,-1,1847,1807,0,0
630,-783,0,0,0,0,0,0,0,0,0,-1,1854,1807,0,0
637,-783,0,0,0,0,0,0,0,0,0,-1,1861,1807,0,0
644,-783,0,0,0,0,0,0,0,0,0,-1,1868,1807,0,0
651,-783,0,0,0,0,0,0,0,0,0,-1,1875,1807,0,0
658,-783,0,0,0,0,0,0,0,0,0,-1,1882,1807,0,0
665,-783,0,0,0,0,0,0,0,0,0,-1,1889,1807,0,0
672,-783,0,0,0,0,0,0,0,0,0,-1,1896,1807,0,0
679,-783,0,0,0,0,0,0,0,0,0,-1,1903,1807,0,0
686,-783,0,0,0,0,0,0,0,0,0,-1,1910,1807,0,0
693,-783,0,0,0,0,0,0,0,0,0,-1,1917,1807,0,0
700,-783,0,0,0,0,0,0,0,0,0,-1,1924,1807,0,0
707,-783,0,0,0,0,0,0,0,0,0,-1,1931,1807,0,0
714,-783,0,0,0,0,0,0,0,0,0,-1,1938,1807,0,0
721,-783,0,0,0,0,0,0,0,0,0,-1,1945,1807,0,0
728,-783,0,0,0,0,0,0,0,0,0,-1,1952,1807,0,0
735,-783,0,0,0,0,0,0,0,0,0,-1,1959,1807,0,0
742,-783,0,0,0,0,0,0,0,0,0,-1,1966,1807,0,0
749,-783,0,0,0,0,0,0,0,0,0,-1,1973,1807,0,0
756,-783,0,0,0,0,0,0,0,0,0,-1,1980,1807,0,0
763,-783,0,0,0,0,0,0,0,0,0,-1,1987,1807,0,0
770,-783,0,0,0,0,0,0,0,0,0,-1,1994,1807,0,0
777,-783,0,0,0,0,0,0,0,0,0,-1,2001,1807,0,0
784,-783,0,0,0,0,0,0,0,0,0,-1,2008,1807,0,0
791,-783,0,0,0,0,0,0,0,0,0,-1,2015,1807,0,0
798,-783,0,0,0,0,0,0,0,0,0,-1,2022,1807,0,0
805,-783,0,0,0,0,0,0,0,0,0,-1,2029,1807,0,0
812,-783,0,0,0,0,0,0,0,0,0,-1,2036,1807,0,0
-700,-790,0,0,0,0,0,0,0,0,0,-1,524,1814,0,0
-693,-790,0,0,0,0,0,0,0,0,0,-1,531,1814,0,0
-686,-790,0,0,0,0,0,0,0,0,0,-1,538,1814,0,0
-679,-790,0,0,0,0,0,0,0,0,0,-1,545,1814,0,0
-672,-790,0,0,0,0,0,0,0,0,0,-1,552,1814,0,0
-665,-790,0,0,0,0,0,0,0,0,0,-1,559,1814,0,0
-658,-790,0,0,0,0,0,0,0,0,0,-1,566,1814,0,0
-651,-790,0,0,0,0,0,0,0,0,0,-1,573,1814,0,0
-644,-790,0,0,0,0,0,0,0,0,0,-1,580,1814,0,0
-637,-790,0,0,0,0,0,0,0,0,0,-1,587,1814,0,0
-630,-790,0,0,0,0,0,0,0,0,0,-1,594,1814,0,0
-623,-790,0,0,0,0,0,0,0,0,0,-1,601,1814,0,0
-616,-790,0,0,0,0,0,0,0,0,0,-1,608,1814,0,0
-609,-790,0,0,0,0,0,0,0,0,0,-1,615,1814,0,0
-602,-790,0,0,0,0,0,0,0,0,0,-1,622,1814,0,0
-595,-790,0,0,0,0,0,0,0,0,0,-1,629,1814,0,0
-588,-790,0,0,0,0,0,0,0,0,0,-1,636,1814,0,0
-581,-790,0,0,0,0,0,0,0,0,0,-1,643,1814,0,0
-574,-790,0,0,0,0,0,0,0,0,0,-1,650,1814,0,0
-567,-790,0,0,0,0,0,0,0,0,0,-1,657,1814,0,0
-560,-790,0,0,0,0,0,0,0,0,0,-1,664,1814,0,0
-553,-790,0,0,0,0,0,0,0,0,0,-1,671,1814,0,0
-546,-790,0,0,0,0,0,0,0,0,0,-1,678,1814,0,0
-539,-790,0,0,0,0,0,0,0,0,0,-1,685,1814,0,0
-532,-790,0,0,0,0,0,0,0,0,0,-1,692,1814,0,0
-525,-790,0,0,0,0,0,0,0,0,0,-1,699,1814,0,0
-518,-790,0,0,0,0,0,0,0,0,0,-1,706,1814,0,0
-511,-790,0,0,0,0,0,0,0,0,0,-1,713,1814,0,0
-504,-790,0,0,0,0,0,0,0,0,0,-1,720,1814,0,0
-497,-790,0,0,0,0,0,0,0,0,0,-1,727,1814,0,0
-490,-790,0,0,0,0,0,0,0,0,0,-1,734,1814,0,0
-483,-790,0,0,0,0,0,0,0,0,0,-1,741,1814,0,0
-476,-790,0,0,0,0,0,0,0,0,0,-1,748,1814,0,0
-469,-790,0,0,0,0,0,0,0,0,0,-1,755,1814,0,0
-462,-790,0,0,0,0,0,0,0,0,0,-1,762,1814,0,0
-455,-790,0,0,0,0,0,0,0,0,0,-1,769,1814,0,0
-448,-790,0,0,0,0,0,0,0,0,0,-1,776,1814,0,0
-441,-790,0,0,0,0,0,0,0,0,0,-1,783,1814,0,0
-434,-790,0,0,0,0,0,0,0,0,0,-1,790,1814,0,0
-427,-790,0,0,0,0,0,0,0,0,0,-1,797,1814,0,0
-420,-790,0,0,0,0,0,0,0,0,0,-1,804,1814,0,0
-413,-790,0,0,0,0,0,0,0,0,0,-1,811,1814,0,0
-406,-790,0,0,0,0,0,0,0,0,0,-1,818,1814,0,0
-399,-790,0,0,0,0,0,0,0,0,0,-1,825,1814,0,0
-392,-790,0,0,0,0,0,0,0,0,0,-1,832,1814,0,0
-385,-790,0,0,0,0,0,0,0,0,0,-1,839,1814,0,0
-378,-790,0,0,0,0,0,0,0,0,0,-1,846,1814,0,0
-371,-790,0,0,0,0,0,0,0,0,0,-1,853,1814,0,0
-364,-790,0,0,0,0,0,0,0,0,0,-1,860,1814,0,0
-357,-790,0,0,0,0,0,0,0,0,0,-1,867,1814,0,0
-350,-790,0,0,0,0,0,0,0,0,0,-1,874,1814,0,0
-343,-790,0,0,0,0,0,0,0,0,0,-1,881,1814,0,0
-336,-790,0,0,0,0,0,0,0,0,0,-1,888,1814,0,0
-329,-790,0,0,0,0,0,0,0,0,0,-1,895,1814,0,0
-322,-790,0,0,0,0,0,0,0,0,0,-1,902,1814,0,0
-315,-790,0,0,0,0,0,0,0,0,0,-1,909,1814,0,0
-308,-790,0,0,0,0,0,0,0,0,0,-1,916,1814,0,0
-301,-790,0,0,0,0,0,0,0,0,0,-1,923,1814,0,0
-294,-790,0,0,0,0,0,0,0,0,0,-1,930,1814,0,0
-287,-790,0,0,0,0,0,0,0,0,0,-1,937,1814,0,0
-280,-790,0,0,0,0,0,0,0,0,0,-1,944,1814,0,0
-273,-790,0,0,0,0,0,0,0,0,0,-1,951,1814,0,0
-266,-790,0,0,0,0,0,0,0,0,0,-1,958,1814,0,0
-259,-790,0,0,0,0,0,0,0,0,0,-1,965,1814,0,0
-252,-790,0,0,0,0,0,0,0,0,0,-1,972,1814,0,0
-245,-790,0,0,0,0,0,0,0,0,0,-1,979,1814,0,0
-238,-790,0,0,0,0,0,0,0,0,0,-1,986,1814,0,0
-231,-790,0,0,0,0,0,0,0,0,0,-1,993,1814,0,0
-224,-790,0,0,0,0,0,0,0,0,0,-1,1000,1814,0,0
-217,-790,0,0,0,0,0,0,0,0,0,-1,1007,1814,0,0
-210,-790,0,0,0,0,0,0,0,0,0,-1,1014,1814,0,0
-203,-790,0,0,0,0,0,0,0,0,0,-1,1021,1814,0,0
-196,-790,0,0,0,0,0,0,0,0,0,-1,1028,1814,0,0
-189,-790,0,0,0,0,0,0,0,0,0,-1,1035,1814,0,0
-182,-790,0,0,0,0,0,0,0,0,0,-1,1042,1814,0,0
-175,-790,0,0,0,0,0,0,0,0,0,-1,1049,1814,0,0
-168,-790,0,0,0,0,0,0,0,0,0,-1,1056,1814,0,0
-161,-790,0,0,0,0,0,0,0,0,0,-1,1063,1814,0,0
-154,-790,0,0,0,0,0,0,0,0,0,-1,1070,1814,0,0
-147,-790,0,0,0,0,0,0,0,0,0,-1,1077,1814,0,0
-140,-790,0,0,0,0,0,0,0,0,0,-1,1084,1814,0,0
-133,-790,0,0,0,0,0,0,0,0,0,-1,1091,1814,0,0
-126,-790,0,0,0,0,0,0,0,0,0,-1,1098,1814,0,0
-119,-790,0,0,0,0,0,0,0,0,0,-1,1105,1814,0,0
-112,-790,0,0,0,0,0,0,0,0,0,-1,1112,1814,0,0
-105,-790,0,0,0,0,0,0,0,0,0,-1,1119,1814,0,0
-98,-790,0,0,0,0,0,0,0,0,0,-1,1126,1814,0,0
-91,-790,0,0,0,0,0,0,0,0,0,-1,1133,1814,0,0
-84,-790,0,0,0,0,0,0,0,0,0,-1,1140,1814,0,0
-77,-790,-0.969238,5.30847,0,0,0,0,0,0,0,-1,1147,1814,-0.969277,-5.3085
-70,-790,-1.23169,4.98914,0,0,0,0,0,0,0,-1,1154,1814,-1.23163,-4.98916
-63,-790,-1.69128,4.32263,0,0,0,0,0,0,0,-1,1161,1814,-1.69128,-4.32258
-56,-790,-2.24756,3.75305,0,0,0,0,0,0,0,-1,1168,1814,-2.24758,-3.75302
-49,-790,-3.11011,3.35779,0,0,0,0,0,0,0,-1,1175,1814,-3.11006,-3.35781
-42,-790,0.593262,1.19165,0,0,0,0,0,0,0,-1,1182,1814,0.593225,-1.19165
-35,-790,0.307129,-0.20105,0,0,0,0,0,0,0,-1,1189,1814,0.307178,0.201006
-28,-790,-2.78467,0.785156,0,0,0,0,0,0,0,-1,1196,1814,-2.78471,-0.785183
-21,-790,9.1217,41.4879,0,0,0,0,0,0,0,-1,1203,1814,9.1217,-41.4879
-14,-790,9.18274,41.8688,0.0277766,0.0860636,-0.00516628,0.0865179,0.0273222,-1.48307,0.0510686,0.0471867,1210,1814,9.18277,-41.8688
-7,-790,9.11938,42.2754,0.042679,0.100089,-0.0221564,0.107645,0.0351227,-1.24212,0.0633872,0.0489054,1217,1814,9.11936,-42.2753
0,-790,9.12451,42.6285,0,0,0,0,0,0,0,-1,1224,1814,9.12446,-42.6286
7,-790,9.03003,42.7924,0.0547605,0.12178,-0.0480857,0.146881,0.0296603,-1.08971,0.0896837,0.0442048,1231,1814,9.03,-42.7924
14,-790,9.07629,43.2552,0.0525515,0.129574,-0.0566806,0.159589,0.0225368,-1.0838,0.0997326,0.0440629,1238,1814,9.07626,-43.2553
21,-790,9.25183,44.0975,0.0461739,0.125755,-0.0586862,0.156868,0.0150606,-1.08331,0.0999376,0.0451951,1245,1814,9.25179,-44.0976
28,-790,12.9597,42.5253,0.0350097,0.128839,-0.0548518,0.154103,0.00974621,-1.13918,0.0996456,0.0431787,1252,1814,12.9597,-42.5253
35,-790,12.5559,43.4485,0,0,0,0,0,0,0,-1,1259,1814,12.5559,-43.4485
42,-790,11.6007,43.2622,0,0,0,0,0,0,0,-1,1266,1814,11.6007,-43.2622
49,-790,10.7119,43.0551,0,0,0,0,0,0,0,-1,1273,1814,10.7119,-43.055
56,-790,10.0526,42.7366,0,0,0,0,0,0,0,-1,1280,1814,10.0526,-42.7366
63,-790,9.40735,42.308,0,0,0,0,0,0,0,-1,1287,1814,9.40734,-42.308
70,-790,9.28613,41.2422,0,0,0,0,0,0,0,-1,1294,1814,9.28619,-41.2422
77,-790,9.70935,41.0688,0,0,0,0,0,0,0,-1,1301,1814,9.70933,-41.0688
84,-790,5.07373,47.41,0,0,0,0,0,0,0,-1,1308,1814,5.07373,-47.41
91,-790,4.01331,47.8979,0,0,0,0,0,0,0,-1,1315,1814,4.01328,-47.898
98,-790,2.93896,47.2113,0,0,0,0,0,0,0,-1,1322,1814,2.93898,-47.2113
105,-790,1.92981,47.4735,0,0,0,0,0,0,0,-1,1329,1814,1.92983,-47.4735
112,-790,2.38672,47.479,-0.0789986,0.148816,0.0518711,0.160071,-0.0902532,1.35714,0.146386,0.0473181,1336,1814,2.3867,-47.479
119,-790,1.6261,48.3474,-0.0759966,0.162465,0.0569327,0.175361,-0.0888919,1.34805,0.155265,0.0440598,1343,1814,1.62606,-48.3475
126,-790,0.812378,49.2277,0,0,0,0,0,0,0,-1,1350,1814,0.812433,-49.2276
133,-790,0.233032,51.6038,0,0,0,0,0,0,0,-1,1357,1814,0.233055,-51.6037
140,-790,-0.393433,52.6211,0,0,0,0,0,0,0,-1,1364,1814,-0.393475,-52.6211
147,-790,-1.02405,53.5978,0,0,0,0,0,0,0,-1,1371,1814,-1.02405,-53.5978
154,-790,40.215,13.2396,0,0,0,0,0,0,0,-1,1378,1814,40.2149,-13.2396
161,-790,39.3429,13.0336,0,0,0,0,0,0,0,-1,1385,1814,39.3429,-13.0336
168,-790,7.04077,2.23279,0,0,0,0,0,0,0,-1,1392,1814,7.04082,-2.23275
175,-790,9.03918,3.98535,0,0,0,0,0,0,0,-1,1399,1814,9.0392,-3.98535
182,-790,8.96997,5.67896,0,0,0,0,0,0,0,-1,1406,1814,8.97001,-5.6789
189,-790,8.59729,6.86975,0,0,0,0,0,0,0,-1,1413,1814,8.59728,-6.86972
196,-790,8.21924,9.29053,0,0,0,0,0,0,0,-1,1420,1814,8.21924,-9.29048
203,-790,0,0,0,0,0,0,0,0,0,-1,1427,1814,0,0
210,-790,0,0,0,0,0,0,0,0,0,-1,1434,1814,0,0
217,-790,0,0,0,0,0,0,0,0,0,-1,1441,1814,0,0
224,-790,0,0,0,0,0,0,0,0,0,-1,1448,1814,0,0
231,-790,0,0,0,0,0,0,0,0,0,-1,1455,1814,0,0
238,-790,0,0,0,0,0,0,0,0,0,-1,1462,1814,0,0
245,-790,0,0,0,0,0,0,0,0,0,-1,1469,1814,0,0
252,-790,0,0,0,0,0,0,0,0,0,-1,1476,1814,0,0
259,-790,0,0,0,0,0,0,0,0,0,-1,1483,1814,0,0
266,-790,0,0,0,0,0,0,0,0,0,-1,1490,1814,0,0
273,-790,0,0,0,0,0,0,0,0,0,-1,1497,1814,0,0
280,-790,0,0,0,0,0,0,0,0,0,-1,1504,1814,0,0
287,-790,0,0,0,0,0,0,0,0,0,-1,1511,1814,0,0
294,-790,0,0,0,0,0,0,0,0,0,-1,1518,1814,0,0
301,-790,0,0,0,0,0,0,0,0,0,-1,1525,1814,0,0
308,-790,0,0,0,0,0,0,0,0,0,-1,1532,1814,0,0
315,-790,0,0,0,0,0,0,0,0,0,-1,1539,1814,0,0
322,-790,0,0,0,0,0,0,0,0,0,-1,1546,1814,0,0
329,-790,0,0,0,0,0,0,0,0,0,-1,1553,1814,0,0
336,-790,0,0,0,0,0,0,0,0,0,-1,1560,1814,0,0
343,-790,0,0,0,0,0,0,0,0,0,-1,1567,1814,0,0
350,-790,0,0,0,0,0,0,0,0,0,-1,1574,1814,0,0
357,-790,0,0,0,0,0,0,0,0,0,-1,1581,1814,0,0
364,-790,0,0,0,0,0,0,0,0,0,-1,1588,1814,0,0
371,-790,0,0,0,0,0,0,0,0,0,-1,1595,1814,0,0
378,-790,0,0,0,0,0,0,0,0,0,-1,1602,1814,0,0
385,-790,0,0,0,0,0,0,0,0,0,-1,1609,1814,0,0
392,-790,0,0,0,0,0,0,0,0,0,-1,1616,1814,0,0
399,-790,0,0,0,0,0,0,0,0,0,-1,1623,1814,0,0
406,-790,0,0,0,0,0,0,0,0,0,-1,1630,1814,0,0
413,-790,0,0,0,0,0,0,0,0,0,-1,1637,1814,0,0
420,-790,0,0,0,0,0,0,0,0,0,-1,1644,1814,0,0
427,-790,0,0,0,0,0,0,0,0,0,-1,1651,1814,0,0
434,-790,0,0,0,0,0,0,0,0,0,-1,1658,1814,0,0
441,-790,0,0,0,0,0,0,0,0,0,-1,1665,1814,0,0
448,-790,0,0,0,0,0,0,0,0,0,-1,1672,1814,0,0
455,-790,0,0,0,0,0,0,0,0,0,-1,1679,1814,0,0
462,-790,0,0,0,0,0,0,0,0,0,-1,1686,1814,0,0
469,-790,0,0,0,0,0,0,0,0,0,-1,1693,1814,0,0
476,-790,0,0,0,0,0,0,0,0,0,-1,1700,1814,0,0
483,-790,0,0,0,0,0,0,0,0,0,-1,1707,1814,0,0
490,-790,0,0,0,0,0,0,0,0,0,-1,1714,1814,0,0
497,-790,0,0,0,0,0,0,0,0,0,-1,1721,1814,0,0
504,-790,0,0,0,0,0,0,0,0,0,-1,1728,1814,0,0
511,-790,0,0,0,0,0,0,0,0,0,-1,1735,1814,0,0
518,-790,0,0,0,0,0,0,0,0,0,-1,1742,1814,0,0
525,-790,0,0,0,0,0,0,0,0,0,-1,1749,1814,0,0
532,-790,0,0,0,0,0,0,0,0,0,-1,1756,1814,0,0
539,-790,0,0,0,0,0,0,0,0,0,-1,1763,1814,0,0
546,-790,0,0,0,0,0,0,0,0,0,-1,1770,1814,0,0
553,-790,0,0,0,0,0,0,0,0,0,-1,1777,1814,0,0
560,-790,0,0,0,0,0,0,0,0,0,-1,1784,1814,0,0
567,-790,0,0,0,0,0,0,0,0,0,-1,1791,1814,0,0
574,-790,0,0,0,0,0,0,0,0,0,-1,1798,1814,0,0
581,-790,0,0,0,0,0,0,0,0,0,-1,1805,1814,0,0
588,-790,0,0,0,0,0,0,0,0,0,-1,1812,1814,0,0
595,-790,0,0,0,0,0,0,0,0,0,-1,1819,1814,0,0
602,-790,0,0,0,0,0,0,0,0,0,-1,1826,1814,0,0
609,-790,0,0,0,0,0,0,0,0,0,-1,1833,1814,0,0
616,-790,0,0,0,0,0,0,0,0,0,-1,1840,1814,0,0
623,-790,0,0,0,0,0,0,0,0,0,-1,1847,1814,0,0
630,-790,0,0,0,0,0,0,0,0,0,-1,1854,1814,0,0
637,-790,0,0,0,0,0,0,0,0,0,-1,1861,1814,0,0
644,-790,0,0,0,0,0,0,0,0,0,-1,1868,1814,0,0
651,-790,0,0,0,0,0,0,0,0,0,-1,1875,1814,0,0
658,-790,0,0,0,0,0,0,0,0,0,-1,1882,1814,0,0
665,-790,0,0,0,0,0,0,0,0,0,-1,1889,1814,0,0
672,-790,0,0,0,0,0,0,0,0,0,-1,1896,1814,0,0
679,-790,0,0,0,0,0,0,0,0,0,-1,1903,1814,0,0
686,-790,0,0,0,0,0,0,0,0,0,-1,1910,1814,0,0
693,-790,0,0,0,0,0,0,0,0,0,-1,1917,1814,0,0
700,-790,0,0,0,0,0,0,0,0,0,-1,1924,1814,0,0
707,-790,0,0,0,0,0,0,0,0,0,-1,1931,1814,0,0
714,-790,0,0,0,0,0,0,0,0,0,-1,1938,1814,0,0
721,-790,0,0,0,0,0,0,0,0,0,-1,1945,1814,0,0
728,-790,0,0,0,0,0,0,0,0,0,-1,1952,1814,0,0
735,-790,0,0,0,0,0,0,0,0,0,-1,1959,1814,0,0
742,-790,0,0,0,0,0,0,0,0,0,-1,1966,1814,0,0
749,-790,0,0,0,0,0,0,0,0,0,-1,1973,1814,0,0
756,-790,0,0,0,0,0,0,0,0,0,-1,1980,1814,0,0
763,-790,0,0,0,0,0,0,0,0,0,-1,1987,1814,0,0
770,-790,0,0,0,0,0,0,0,0,0,-1,1994,1814,0,0
777,-790,0,0,0,0,0,0,0,0,0,-1,2001,1814,0,0
784,-790,0,0,0,0,0,0,0,0,0,-1,2008,1814,0,0
791,-790,0,0,0,0,0,0,0,0,0,-1,2015,1814,0,0
798,-790,0,0,0,0,0,0,0,0,0,-1,2022,1814,0,0
805,-790,0,0,0,0,0,0,0,0,0,-1,2029,1814,0,0
812,-790,0,0,0,0,0,0,0,0,0,-1,2036,1814,0,0
-700,-797,0,0,0,0,0,0,0,0,0,-1,524,1821,0,0
-693,-797,0,0,0,0,0,0,0,0,0,-1,531,1821,0,0
-686,-797,0,0,0,0,0,0,0,0,0,-1,538,1821,0,0
-679,-797,0,0,0,0,0,0,0,0,0,-1,545,1821,0,0
-672,-797,0,0,0,0,0,0,0,0,0,-1,552,1821,0,0
-665,-797,0,0,0,0,0,0,0,0,0,-1,559,1821,0,0
-658,-797,0,0,0,0,0,0,0,0,0,-1,566,1821,0,0
-651,-797,0,0,0,0,0,0,0,0,0,-1,573,1821,0,0
-644,-797,0,0,0,0,0,0,0,0,0,-1,580,1821,0,0
-637,-797,0,0,0,0,0,0,0,0,0,-1,587,1821,0,0
-630,-797,0,0,0,0,0,0,0,0,0,-1,594,1821,0,0
-623,-797,0,0,0,0,0,0,0,0,0,-1,601,1821,0,0
-616,-797,0,0,0,0,0,0,0,0,0,-1,608,1821,0,0
-609,-797,0,0,0,0,0,0,0,0,0,-1,615,1821,0,0
-602,-797,0,0,0,0,0,0,0,0,0,-1,622,1821,0,0
-595,-797,0,0,0,0,0,0,0,0,0,-1,629,1821,0,0
-588,-797,0,0,0,0,0,0,0,0,0,-1,636,1821,0,0
-581,-797,0,0,0,0,0,0,0,0,0,-1,643,1821,0,0
-574,-797,0,0,0,0,0,0,0,0,0,-1,650,1821,0,0
-567,-797,0,0,0,0,0,0,0,0,0,-1,657,1821,0,0
-560,-797,0,0,0,0,0,0,0,0,0,-1,664,1821,0,0
-553,-797,0,0,0,0,0,0,0,0,0,-1,671,1821,0,0
-546,-797,0,0,0,0,0,0,0,0,0,-1,678,1821,0,0
-539,-797,0,0,0,0,0,0,0,0,0,-1,685,1821,0,0
-532,-797,0,0,0,0,0,0,0,0,0,-1,692,1821,0,0
-525,-797,0,0,0,0,0,0,0,0,0,-1,699,1821,0,0
-518,-797,0,0,0,0,0,0,0,0,0,-1,706,1821,0,0
-511,-797,0,0,0,0,0,0,0,0,0,-1,713,1821,0,0
-504,-797,0,0,0,0,0,0,0,0,0,-1,720,1821,0,0
-497,-797,0,0,0,0,0,0,0,0,0,-1,727,1821,0,0
-490,-797,0,0,0,0,0,0,0,0,0,-1,734,1821,0,0
-483,-797,0,0,0,0,0,0,0,0,0,-1,741,1821,0,0
-476,-797,0,0,0,0,0,0,0,0,0,-1,748,1821,0,0
-469,-797,0,0,0,0,0,0,0,0,0,-1,755,1821,0,0
-462,-797,0,0,0,0,0,0,0,0,0,-1,762,1821,0,0
-455,-797,0,0,0,0,0,0,0,0,0,-1,769,1821,0,0
-448,-797,0,0,0,0,0,0,0,0,0,-1,776,1821,0,0
-441,-797,0,0,0,0,0,0,0,0,0,-1,783,1821,0,0
-434,-797,0,0,0,0,0,0,0,0,0,-1,790,1821,0,0
-427,-797,0,0,0,0,0,0,0,0,0,-1,797,1821,0,0
-420,-797,0,0,0,0,0,0,0,0,0,-1,804,1821,0,0
-413,-797,0,0,0,0,0,0,0,0,0,-1,811,1821,0,0
-406,-797,0,0,0,0,0,0,0,0,0,-1,818,1821,0,0
-399,-797,0,0,0,0,0,0,0,0,0,-1,825,1821,0,0
-392,-797,0,0,0,0,0,0,0,0,0,-1,832,1821,0,0
-385,-797,0,0,0,0,0,0,0,0,0,-1,839,1821,0,0
-378,-797,0,0,0,0,0,0,0,0,0,-1,846,1821,0,0
-371,-797,0,0,0,0,0,0,0,0,0,-1,853,1821,0,0
-364,-797,0,0,0,0,0,0,0,0,0,-1,860,1821,0,0
-357,-797,0,0,0,0,0,0,0,0,0,-1,867,1821,0,0
-350,-797,0,0,0,0,0,0,0,0,0,-1,874,1821,0,0
-343,-797,0,0,0,0,0,0,0,0,0,-1,881,1821,0,0
-336,-797,0,0,0,0,0,0,0,0,0,-1,888,1821,0,0
-329,-797,0,0,0,0,0,0,0,0,0,-1,895,1821,0,0
-322,-797,0,0,0,0,0,0,0,0,0,-1,902,1821,0,0
-315,-797,0,0,0,0,0,0,0,0,0,-1,909,1821,0,0
-308,-797,0,0,0,0,0,0,0,0,0,-1,916,1821,0,0
-301,-797,0,0,0,0,0,0,0,0,0,-1,923,1821,0,0
-294,-797,0,0,0,0,0,0,0,0,0,-1,930,1821,0,0
-287,-797,0,0,0,0,0,0,0,0,0,-1,937,1821,0,0
-280,-797,0,0,0,0,0,0,0,0,0,-1,944,1821,0,0
-273,-797,0,0,0,0,0,0,0,0,0,-1,951,1821,0,0
-266,-797,0,0,0,0,0,0,0,0,0,-1,958,1821,0,0
-259,-797,0,0,0,0,0,0,0,0,0,-1,965,1821,0,0
-252,-797,0,0,0,0,0,0,0,0,0,-1,972,1821,0,0
-245,-797,0,0,0,0,0,0,0,0,0,-1,979,1821,0,0
-238,-797,0,0,0,0,0,0,0,0,0,-1,986,1821,0,0
-231,-797,0,0,0,0,0,0,0,0,0,-1,993,1821,0,0
-224,-797,0,0,0,0,0,0,0,0,0,-1,1000,1821,0,0
-217,-797,0,0,0,0,0,0,0,0,0,-1,1007,1821,0,0
-210,-797,0,0,0,0,0,0,0,0,0,-1,1014,1821,0,0
-203,-797,0,0,0,0,0,0,0,0,0,-1,1021,1821,0,0
-196,-797,0,0,0,0,0,0,0,0,0,-1,1028,1821,0,0
-189,-797,0,0,0,0,0,0,0,0,0,-1,1035,1821,0,0
-182,-797,0,0,0,0,0,0,0,0,0,-1,1042,1821,0,0
-175,-797,0,0,0,0,0,0,0,0,0,-1,1049,1821,0,0
-168,-797,0,0,0,0,0,0,0,0,0,-1,1056,1821,0,0
-161,-797,0,0,0,0,0,0,0,0,0,-1,1063,1821,0,0
-154,-797,0,0,0,0,0,0,0,0,0,-1,1070,1821,0,0
-147,-797,0,0,0,0,0,0,0,0,0,-1,1077,1821,0,0
-140,-797,0,0,0,0,0,0,0,0,0,-1,1084,1821,0,0
-133,-797,0,0,0,0,0,0,0,0,0,-1,1091,1821,0,0
-126,-797,0,0,0,0,0,0,0,0,0,-1,1098,1821,0,0
-119,-797,0,0,0,0,0,0,0,0,0,-1,1105,1821,0,0
-112,-797,0,0,0,0,0,0,0,0,0,-1,1112,1821,0,0
-105,-797,0,0,0,0,0,0,0,0,0,-1,1119,1821,0,0
-98,-797,0,0,0,0,0,0,0,0,0,-1,1126,1821,0,0
-91,-797,0,0,0,0,0,0,0,0,0,-1,1133,1821,0,0
-84,-797,0,0,0,0,0,0,0,0,0,-1,1140,1821,0,0
-77,-797,0,0,0,0,0,0,0,0,0,-1,1147,1821,0,0
-70,-797,0,0,0,0,0,0,0,0,0,-1,1154,1821,0,0
-63,-797,0,0,0,0,0,0,0,0,0,-1,1161,1821,0,0
-56,-797,0,0,0,0,0,0,0,0,0,-1,1168,1821,0,0
-49,-797,0,0,0,0,0,0,0,0,0,-1,1175,1821,0,0
-42,-797,0.579834,0.692871,0,0,0,0,0,0,0,-1,1182,1821,0.579856,-0.692816
-35,-797,-0.185425,5.55396,0,0,0,0,0,0,0,-1,1189,1821,-0.18542,-5.55396
-28,-797,-0.310181,4.71509,0,0,0,0,0,0,0,-1,1196,1821,-0.310228,-4.71503
-21,-797,9.08179,40.7666,0,0,0,0,0,0,0,-1,1203,1821,9.08179,-40.7666
-14,-797,9.33594,41.2948,0.0348814,0.105553,-0.00112178,0.10557,0.0348636,-1.55493,0.062111,0.045389,1210,1821,9.33597,-41.2948
-7,-797,9.31824,41.7931,0.0560707,0.124699,-0.0245323,0.132567,0.0482032,-1.26046,0.0774807,0.0491405,1217,1821,9.31829,-41.7931
0,-797,9.32825,41.858,0,0,0,0,0,0,0,-1,1224,1821,9.32822,-41.8581
7,-797,9.46863,41.9136,0.0709239,0.152041,-0.0584215,0.182603,0.0403625,-1.08882,0.11076,0.0472607,1231,1821,9.46869,-41.9136
14,-797,9.44983,42.2766,0.0668052,0.160805,-0.0689513,0.197251,0.0303588,-1.08455,0.12264,0.0440691,1238,1821,9.44982,-42.2766
21,-797,14.166,42.3258,0.0573305,0.15363,-0.0715695,0.191739,0.0192214,-1.08151,0.121925,0.0452221,1245,1821,14.1661,-42.3258
28,-797,13.4347,42.4332,0.0421247,0.154782,-0.0669971,0.185984,0.0109232,-1.13495,0.120513,0.0424146,1252,1821,13.4347,-42.4332
35,-797,12.8363,42.5673,0.0224112,0.151837,-0.0586921,0.174488,-0.000240207,-1.20247,0.116406,0.0457627,1259,1821,12.8363,-42.5673
42,-797,12.0635,42.7695,0.00431455,0.145923,-0.0486311,0.161015,-0.0107778,-1.26988,0.111111,0.046495,1266,1821,12.0635,-42.7695
49,-797,11.1107,42.666,0,0,0,0,0,0,0,-1,1273,1821,11.1107,-42.666
56,-797,10.09,43.7487,-0.035892,0.132989,-0.0193153,0.13517,-0.038073,-1.45836,0.105128,0.0446824,1280,1821,10.09,-43.7487
63,-797,9.30957,44.1578,-0.0536248,0.128122,-0.00724173,0.12841,-0.0539129,-1.53104,0.108153,0.0443461,1287,1821,9.30957,-44.1579
70,-797,9.41101,40.3892,-0.0708043,0.126022,0.00509842,0.126154,-0.0709362,1.54492,0.115269,0.0422294,1294,1821,9.41096,-40.3891
77,-797,7.20544,45.2716,-0.086297,0.124639,0.0236448,0.127257,-0.088915,1.46053,0.12546,0.0418885,1301,1821,7.20547,-45.2717
84,-797,6.08948,45.7361,-0.0965761,0.127785,0.0356353,0.133309,-0.1021,1.41701,0.136311,0.048047,1308,1821,6.08944,-45.7361
91,-797,4.8197,46.0334,0,0,0,0,0,0,0,-1,1315,1821,4.81965,-46.0334
98,-797,3.87451,46.2175,0,0,0,0,0,0,0,-1,1322,1821,3.87448,-46.2175
105,-797,3.09473,46.5839,0,0,0,0,0,0,0,-1,1329,1821,3.0947,-46.5839
112,-797,2.44263,47.2887,-0.0997655,0.174702,0.0549165,0.185282,-0.110346,1.38047,0.172499,0.0457295,1336,1821,2.44266,-47.2887
119,-797,1.76367,48.4379,-0.0967275,0.191694,0.0604952,0.203869,-0.108902,1.3722,0.183332,0.0416401,1343,1821,1.76372,-48.4378
126,-797,1.19409,49.5975,0,0,0,0,0,0,0,-1,1350,1821,1.19413,-49.5975
133,-797,0.4646,50.7323,0,0,0,0,0,0,0,-1,1357,1821,0.464631,-50.7323
140,-797,-0.303955,51.6664,0,0,0,0,0,0,0,-1,1364,1821,-0.303898,-51.6664
147,-797,-1.03394,52.619,0,0,0,0,0,0,0,-1,1371,1821,-1.03394,-52.619
154,-797,40.2623,8.88733,0,0,0,0,0,0,0,-1,1378,1821,40.2623,-8.88731
161,-797,42.2798,8.17371,0,0,0,0,0,0,0,-1,1385,1821,42.2798,-8.17367
168,-797,0,0,0,0,0,0,0,0,0,-1,1392,1821,0,0
175,-797,0,0,0,0,0,0,0,0,0,-1,1399,1821,0,0
182,-797,0,0,0,0,0,0,0,0,0,-1,1406,1821,0,0
189,-797,0,0,0,0,0,0,0,0,0,-1,1413,1821,0,0
196,-797,0,0,0,0,0,0,0,0,0,-1,1420,1821,0,0
203,-797,0,0,0,0,0,0,0,0,0,-1,1427,1821,0,0
210,-797,0,0,0,0,0,0,0,0,0,-1,1434,1821,0,0
217,-797,0,0,0,0,0,0,0,0,0,-1,1441,1821,0,0
224,-797,0,0,0,0,0,0,0,0,0,-1,1448,1821,0,0
231,-797,0,0,0,0,0,0,0,0,0,-1,1455,1821,0,0
238,-797,0,0,0,0,0,0,0,0,0,-1,1462,1821,0,0
245,-797,0,0,0,0,0,0,0,0,0,-1,1469,1821,0,0
252,-797,0,0,0,0,0,0,0,0,0,-1,1476,1821,0,0
259,-797,0,0,0,0,0,0,0,0,0,-1,1483,1821,0,0
266,-797,0,0,0,0,0,0,0,0,0,-1,1490,1821,0,0
273,-797,0,0,0,0,0,0,0,0,0,-1,1497,1821,0,0
280,-797,0,0,0,0,0,0,0,0,0,-1,1504,1821,0,0
287,-797,0,0,0,0,0,0,0,0,0,-1,1511,1821,0,0
294,-797,0,0,0,0,0,0,0,0,0,-1,1518,1821,0,0
301,-797,0,0,0,0,0,0,0,0,0,-1,1525,1821,0,0
308,-797,0,0,0,0,0,0,0,0,0,-1,1532,1821,0,0
315,-797,0,0,0,0,0,0,0,0,0,-1,1539,1821,0,0
322,-797,0,0,0,0,0,0,0,0,0,-1,1546,1821,0,0
329,-797,0,0,0,0,0,0,0,0,0,-1,1553,1821,0,0
336,-797,0,0,0,0,0,0,0,0,0,-1,1560,1821,0,0
343,-797,0,0,0,0,0,0,0,0,0,-1,1567,1821,0,0
350,-797,0,0,0,0,0,0,0,0,0,-1,1574,1821,0,0
357,-797,0,0,0,0,0,0,0,0,0,-1,1581,1821,0,0
364,-797,0,0,0,0,0,0,0,0,0,-1,1588,1821,0,0
371,-797,0,0,0,0,0,0,0,0,0,-1,1595,1821,0,0
378,-797,0,0,0,0,0,0,0,0,0,-1,1602,1821,0,0
385,-797,0,0,0,0,0,0,0,0,0,-1,1609,1821,0,0
392,-797,0,0,0,0,0,0,0,0,0,-1,1616,1821,0,0
399,-797,0,0,0,0,0,0,0,0,0,-1,1623,1821,0,0
406,-797,0,0,0,0,0,0,0,0,0,-1,1630,1821,0,0
413,-797,0,0,0,0,0,0,0,0,0,-1,1637,1821,0,0
420,-797,0,0,0,0,0,0,0,0,0,-1,1644,1821,0,0
427,-797,0,0,0,0,0,0,0,0,0,-1,1651,1821,0,0
434,-797,0,0,0,0,0,0,0,0,0,-1,1658,1821,0,0
441,-797,0,0,0,0,0,0,0,0,0,-1,1665,1821,0,0
448,-797,0,0,0,0,0,0,0,0,0,-1,1672,1821,0,0
455,-797,0,0,0,0,0,0,0,0,0,-1,1679,1821,0,0
462,-797,0,0,0,0,0,0,0,0,0,-1,1686,1821,0,0
469,-797,0,0,0,0,0,0,0,0,0,-1,1693,1821,0,0
476,-797,0,0,0,0,0,0,0,0,0,-1,1700,1821,0,0
483,-797,0,0,0,0,0,0,0,0,0,-1,1707,1821,0,0
490,-797,0,0,0,0,0,0,0,0,0,-1,1714,1821,0,0
497,-797,0,0,0,0,0,0,0,0,0,-1,1721,1821,0,0
504,-797,0,0,0,0,0,0,0,0,0,-1,1728,1821,0,0
511,-797,0,0,0,0,0,0,0,0,0,-1,1735,1821,0,0
518,-797,0,0,0,0,0,0,0,0,0,-1,1742,1821,0,0
525,-797,0,0,0,0,0,0,0,0,0,-1,1749,1821,0,0
532,-797,0,0,0,0,0,0,0,0,0,-1,1756,1821,0,0
539,-797,0,0,0,0,0,0,0,0,0,-1,1763,1821,0,0
546,-797,0,0,0,0,0,0,0,0,0,-1,1770,1821,0,0
553,-797,0,0,0,0,0,0,0,0,0,-1,1777,1821,0,0
560,-797,0,0,0,0,0,0,0,0,0,-1,1784,1821,0,0
567,-797,0,0,0,0,0,0,0,0,0,-1,1791,1821,0,0
574,-797,0,0,0,0,0,0,0,0,0,-1,1798,1821,0,0
581,-797,0,0,0,0,0,0,0,0,0,-1,1805,1821,0,0
588,-797,0,0,0,0,0,0,0,0,0,-1,1812,1821,0,0
595,-797,0,0,0,0,0,0,0,0,0,-1,1819,1821,0,0
602,-797,0,0,0,0,0,0,0,0,0,-1,1826,1821,0,0
609,-797,0,0,0,0,0,0,0,0,0,-1,1833,1821,0,0
616,-797,0,0,0,0,0,0,0,0,0,-1,1840,1821,0,0
623,-797,0,0,0,0,0,0,0,0,0,-1,1847,1821,0,0
630,-797,0,0,0,0,0,0,0,0,0,-1,1854,1821,0,0
637,-797,0,0,0,0,0,0,0,0,0,-1,1861,1821,0,0
644,-797,0,0,0,0,0,0,0,0,0,-1,1868,1821,0,0
651,-797,0,0,0,0,0,0,0,0,0,-1,1875,1821,0,0
658,-797,0,0,0,0,0,0,0,0,0,-1,1882,1821,0,0
665,-797,0,0,0,0,0,0,0,0,0,-1,1889,1821,0,0
672,-797,0,0,0,0,0,0,0,0,0,-1,1896,1821,0,0
679,-797,0,0,0,0,0,0,0,0,0,-1,1903,1821,0,0
686,-797,0,0,0,0,0,0,0,0,0,-1,1910,1821,0,0
693,-797,0,0,0,0,0,0,0,0,0,-1,1917,1821,0,0
700,-797,0,0,0,0,0,0,0,0,0,-1,1924,1821,0,0
707,-797,0,0,0,0,0,0,0,0,0,-1,1931,1821,0,0
714,-797,0,0,0,0,0,0,0,0,0,-1,1938,1821,0,0
721,-797,0,0,0,0,0,0,0,0,0,-1,1945,1821,0,0
728,-797,0,0,0,0,0,0,0,0,0,-1,1952,1821,0,0
735,-797,0,0,0,0,0,0,0,0,0,-1,1959,1821,0,0
742,-797,0,0,0,0,0,0,0,0,0,-1,1966,1821,0,0
749,-797,0,0,0,0,0,0,0,0,0,-1,1973,1821,0,0
756,-797,0,0,0,0,0,0,0,0,0,-1,1980,1821,0,0
763,-797,0,0,0,0,0,0,0,0,0,-1,1987,1821,0,0
770,-797,0,0,0,0,0,0,0,0,0,-1,1994,1821,0,0
777,-797,0,0,0,0,0,0,0,0,0,-1,2001,1821,0,0
784,-797,0,0,0,0,0,0,0,0,0,-1,2008,1821,0,0
791,-797,0,0,0,0,0,0,0,0,0,-1,2015,1821,0,0
798,-797,0,0,0,0,0,0,0,0,0,-1,2022,1821,0,0
805,-797,0,0,0,0,0,0,0,0,0,-1,2029,1821,0,0
812,-797,0,0,0,0,0,0,0,0,0,-1,2036,1821,0,0
-700,-804,0,0,0,0,0,0,0,0,0,-1,524,1828,0,0
-693,-804,0,0,0,0,0,0,0,0,0,-1,531,1828,0,0
-686,-804,0,0,0,0,0,0,0,0,0,-1,538,1828,0,0
-679,-804,0,0,0,0,0,0,0,0,0,-1,545,1828,0,0
-672,-804,0,0,0,0,0,0,0,0,0,-1,552,1828,0,0
-665,-804,0,0,0,0,0,0,0,0,0,-1,559,1828,0,0
-658,-804,0,0,0,0,0,0,0,0,0,-1,566,1828,0,0
-651,-804,0,0,0,0,0,0,0,0,0,-1,573,1828,0,0
-644,-804,0,0,0,0,0,0,0,0,0,-1,580,1828,0,0
-637,-804,0,0,0,0,0,0,0,0,0,-1,587,1828,0,0
-630,-804,0,0,0,0,0,0,0,0,0,-1,594,1828,0,0
-623,-804,0,0,0,0,0,0,0,0,0,-1,601,1828,0,0
-616,-804,0,0,0,0,0,0,0,0,0,-1,608,1828,0,0
-609,-804,0,0,0,0,0,0,0,0,0,-1,615,1828,0,0
-602,-804,0,0,0,0,0,0,0,0,0,-1,622,1828,0,0
-595,-804,0,0,0,0,0,0,0,0,0,-1,629,1828,0,0
-588,-804,0,0,0,0,0,0,0,0,0,-1,636,1828,0,0
-581,-804,0,0,0,0,0,0,0,0,0,-1,643,1828,0,0
-574,-804,0,0,0,0,0,0,0,0,0,-1,650,1828,0,0
-567,-804,0,0,0,0,0,0,0,0,0,-1,657,1828,0,0
-560,-804,0,0,0,0,0,0,0,0,0,-1,664,1828,0,0
-553,-804,0,0,0,0,0,0,0,0,0,-1,671,1828,0,0
-546,-804,0,0,0,0,0,0,0,0,0,-1,678,1828,0,0
-539,-804,0,0,0,0,0,0,0,0,0,-1,685,1828,0,0
-532,-804,0,0,0,0,0,0,0,0,0,-1,692,1828,0,0
-525,-804,0,0,0,0,0,0,0,0,0,-1,699,1828,0,0
-518,-804,0,0,0,0,0,0,0,0,0,-1,706,1828,0,0
-511,-804,0,0,0,0,0,0,0,0,0,-1,713,1828,0,0
-504,-804,0,0,0,0,0,0,0,0,0,-1,720,1828,0,0
-497,-804,0,0,0,0,0,0,0,0,0,-1,727,1828,0,0
-490,-804,0,0,0,0,0,0,0,0,0,-1,734,1828,0,0
-483,-804,0,0,0,0,0,0,0,0,0,-1,741,1828,0,0
-476,-804,0,0,0,0,0,0,0,0,0,-1,748,1828,0,0
-469,-804,0,0,0,0,0,0,0,0,0,-1,755,1828,0,0
-462,-804,0,0,0,0,0,0,0,0,0,-1,762,1828,0,0
-455,-804,0,0,0,0,0,0,0,0,0,-1,769,1828,0,0
-448,-804,0,0,0,0,0,0,0,0,0,-1,776,1828,0,0
-441,-804,0,0,0,0,0,0,0,0,0,-1,783,1828,0,0
-434,-804,0,0,0,0,0,0,0,0,0,-1,790,1828,0,0
-427,-804,0,0,0,0,0,0,0,0,0,-1,797,1828,0,0
-420,-804,0,0,0,0,0,0,0,0,0,-1,804,1828,0,0
-413,-804,0,0,0,0,0,0,0,0,0,-1,811,1828,0,0
-406,-804,0,0,0,0,0,0,0,0,0,-1,818,1828,0,0
-399,-804,0,0,0,0,0,0,0,0,0,-1,825,1828,0,0
-392,-804,0,0,0,0,0,0,0,0,0,-1,832,1828,0,0
-385,-804,0,0,0,0,0,0,0,0,0,-1,839,1828,0,0
-378,-804,0,0,0,0,0,0,0,0,0,-1,846,1828,0,0
-371,-804,0,0,0,0,0,0,0,0,0,-1,853,1828,0,0
-364,-804,0,0,0,0,0,0,0,0,0,-1,860,1828,0,0
-357,-804,0,0,0,0,0,0,0,0,0,-1,867,1828,0,0
-350,-804,0,0,0,0,0,0,0,0,0,-1,874,1828,0,0
-343,-804,0,0,0,0,0,0,0,0,0,-1,881,1828,0,0
-336,-804,0,0,0,0,0,0,0,0,0,-1,888,1828,0,0
-329,-804,0,0,0,0,0,0,0,0,0,-1,895,1828,0,0
-322,-804,0,0,0,0,0,0,0,0,0,-1,902,1828,0,0
-315,-804,0,0,0,0,0,0,0,0,0,-1,909,1828,0,0
-308,-804,0,0,0,0,0,0,0,0,0,-1,916,1828,0,0
-301,-804,0,0,0,0,0,0,0,0,0,-1,923,1828,0,0
-294,-804,0,0,0,0,0,0,0,0,0,-1,930,1828,0,0
-287,-804,0,0,0,0,0,0,0,0,0,-1,937,1828,0,0
-280,-804,0,0,0,0,0,0,0,0,0,-1,944,1828,0,0
-273,-804,0,0,0,0,0,0,0,0,0,-1,951,1828,0,0
-266,-804,0,0,0,0,0,0,0,0,0,-1,958,1828,0,0
-259,-804,0,0,0,0,0,0,0,0,0,-1,965,1828,0,0
-252,-804,0,0,0,0,0,0,0,0,0,-1,972,1828,0,0
-245,-804,0,0,0,0,0,0,0,0,0,-1,979,1828,0,0
-238,-804,0,0,0,0,0,0,0,0,0,-1,986,1828,0,0
-231,-804,0,0,0,0,0,0,0,0,0,-1,993,1828,0,0
-224,-804,0,0,0,0,0,0,0,0,0,-1,1000,1828,0,0
-217,-804,0,0,0,0,0,0,0,0,0,-1,1007,1828,0,0
-210,-804,0,0,0,0,0,0,0,0,0,-1,1014,1828,0,0
-203,-804,0,0,0,0,0,0,0,0,0,-1,1021,1828,0,0
-196,-804,0,0,0,0,0,0,0,0,0,-1,1028,1828,0,0
-189,-804,0,0,0,0,0,0,0,0,0,-1,1035,1828,0,0
-182,-804,0,0,0,0,0,0,0,0,0,-1,1042,1828,0,0
-175,-804,0,0,0,0,0,0,0,0,0,-1,1049,1828,0,0
-168,-804,0,0,0,0,0,0,0,0,0,-1,1056,1828,0,0
-161,-804,0,0,0,0,0,0,0,0,0,-1,1063,1828,0,0
-154,-804,0,0,0,0,0,0,0,0,0,-1,1070,1828,0,0
-147,-804,0,0,0,0,0,0,0,0,0,-1,1077,1828,0,0
-140,-804,0,0,0,0,0,0,0,0,0,-1,1084,1828,0,0
-133,-804,0,0,0,0,0,0,0,0,0,-1,1091,1828,0,0
-126,-804,0,0,0,0,0,0,0,0,0,-1,1098,1828,0,0
-119,-804,0,0,0,0,0,0,0,0,0,-1,1105,1828,0,0
-112,-804,0,0,0,0,0,0,0,0,0,-1,1112,1828,0,0
-105,-804,0,0,0,0,0,0,0,0,0,-1,1119,1828,0,0
-98,-804,0,0,0,0,0,0,0,0,0,-1,1126,1828,0,0
-91,-804,0,0,0,0,0,0,0,0,0,-1,1133,1828,0,0
-84,-804,0,0,0,0,0,0,0,0,0,-1,1140,1828,0,0
-77,-804,0,0,0,0,0,0,0,0,0,-1,1147,1828,0,0
-70,-804,0,0,0,0,0,0,0,0,0,-1,1154,1828,0,0
-63,-804,0,0,0,0,0,0,0,0,0,-1,1161,1828,0,0
-56,-804,0,0,0,0,0,0,0,0,0,-1,1168,1828,0,0
-49,-804,0,0,0,0,0,0,0,0,0,-1,1175,1828,0,0
-42,-804,0,0,0,0,0,0,0,0,0,-1,1182,1828,0,0
-35,-804,0,0,0,0,0,0,0,0,0,-1,1189,1828,0,0
-28,-804,0,0,0,0,0,0,0,0,0,-1,1196,1828,0,0
-21,-804,0,0,0,0,0,0,0,0,0,-1,1203,1828,0,0
-14,-804,0,0,0,0,0,0,0,0,0,-1,1210,1828,0,0
-7,-804,0,0,0,0,0,0,0,0,0,-1,1217,1828,0,0
0,-804,0,0,0,0,0,0,0,0,0,-1,1224,1828,0,0
7,-804,0,0,0,0,0,0,0,0,0,-1,1231,1828,0,0
14,-804,0,0,0,0,0,0,0,0,0,-1,1238,1828,0,0
21,-804,0,0,0,0,0,0,0,0,0,-1,1245,1828,0,0
28,-804,0,0,0,0,0,0,0,0,0,-1,1252,1828,0,0
35,-804,13.2706,42.2513,0.0229725,0.17519,-0.0699713,0.202466,-0.00430405,-1.19909,0.136435,0.0493394,1259,1828,13.2707,-42.2513
42,-804,12.5349,41.8833,0.000561416,0.167587,-0.0594826,0.186605,-0.0184567,-1.26134,0.13099,0.0483294,1266,1828,12.5349,-41.8833
49,-804,11.5923,42.0831,0,0,0,0,0,0,0,-1,1273,1828,11.5923,-42.0831
56,-804,10.663,42.4097,-0.048472,0.14992,-0.0252837,0.153091,-0.0516435,-1.44601,0.122946,0.0455405,1280,1828,10.6629,-42.4096
63,-804,9.76807,42.8484,-0.0691345,0.143255,-0.0108783,0.143811,-0.0696902,-1.51976,0.125717,0.0470494,1287,1828,9.76808,-42.8484
70,-804,8.91479,43.391,-0.0893297,0.139495,0.00314998,0.139538,-0.089373,1.55703,0.133216,0.0464899,1294,1828,8.91474,-43.391
77,-804,8.02075,43.8138,-0.106995,0.137349,0.0226212,0.139426,-0.109072,1.47925,0.143826,0.0457216,1301,1828,8.0207,-43.8138
84,-804,6.86353,44.2529,-0.117787,0.142577,0.0341996,0.146995,-0.122204,1.44235,0.155642,0.045768,1308,1828,6.86358,-44.2529
91,-804,0,0,0,0,0,0,0,0,0,-1,1315,1828,0,0
98,-804,0,0,0,0,0,0,0,0,0,-1,1322,1828,0,0
105,-804,0,0,0,0,0,0,0,0,0,-1,1329,1828,0,0
112,-804,0,0,0,0,0,0,0,0,0,-1,1336,1828,0,0
119,-804,0,0,0,0,0,0,0,0,0,-1,1343,1828,0,0
126,-804,0,0,0,0,0,0,0,0,0,-1,1350,1828,0,0
133,-804,0,0,0,0,0,0,0,0,0,-1,1357,1828,0,0
140,-804,0,0,0,0,0,0,0,0,0,-1,1364,1828,0,0
147,-804,0,0,0,0,0,0,0,0,0,-1,1371,1828,0,0
154,-804,0,0,0,0,0,0,0,0,0,-1,1378,1828,0,0
161,-804,0,0,0,0,0,0,0,0,0,-1,1385,1828,0,0
168,-804,0,0,0,0,0,0,0,0,0,-1,1392,1828,0,0
175,-804,0,0,0,0,0,0,0,0,0,-1,1399,1828,0,0
182,-804,0,0,0,0,0,0,0,0,0,-1,1406,1828,0,0
189,-804,0,0,0,0,0,0,0,0,0,-1,1413,1828,0,0
196,-804,0,0,0,0,0,0,0,0,0,-1,1420,1828,0,0
203,-804,0,0,0,0,0,0,0,0,0,-1,1427,1828,0,0
210,-804,0,0,0,0,0,0,0,0,0,-1,1434,1828,0,0
217,-804,0,0,0,0,0,0,0,0,0,-1,1441,1828,0,0
224,-804,0,0,0,0,0,0,0,0,0,-1,1448,1828,0,0
231,-804,0,0,0,0,0,0,0,0,0,-1,1455,1828,0,0
238,-804,0,0,0,0,0,0,0,0,0,-1,1462,1828,0,0
245,-804,0,0,0,0,0,0,0,0,0,-1,1469,1828,0,0
252,-804,0,0,0,0,0,0,0,0,0,-1,1476,1828,0,0
259,-804,0,0,0,0,0,0,0,0,0,-1,1483,1828,0,0
266,-804,0,0,0,0,0,0,0,0,0,-1,1490,1828,0,0
273,-804,0,0,0,0,0,0,0,0,0,-1,1497,1828,0,0
280,-804,0,0,0,0,0,0,0,0,0,-1,1504,1828,0,0
287,-804,0,0,0,0,0,0,0,0,0,-1,1511,1828,0,0
294,-804,0,0,0,0,0,0,0,0,0,-1,1518,1828,0,0
301,-804,0,0,0,0,0,0,0,0,0,-1,1525,1828,0,0
308,-804,0,0,0,0,0,0,0,0,0,-1,1532,1828,0,0
315,-804,0,0,0,0,0,0,0,0,0,-1,1539,1828,0,0
322,-804,0,0,0,0,0,0,0,0,0,-1,1546,1828,0,0
329,-804,0,0,0,0,0,0,0,0,0,-1,1553,1828,0,0
336,-804,0,0,0,0,0,0,0,0,0,-1,1560,1828,0,0
343,-804,0,0,0,0,0,0,0,0,0,-1,1567,1828,0,0
350,-804,0,0,0,0,0,0,0,0,0,-1,1574,1828,0,0
357,-804,0,0,0,0,0,0,0,0,0,-1,1581,1828,0,0
364,-804,0,0,0,0,0,0,0,0,0,-1,1588,1828,0,0
371,-804,0,0,0,0,0,0,0,0,0,-1,1595,1828,0,0
378,-804,0,0,0,0,0,0,0,0,0,-1,1602,1828,0,0
385,-804,0,0,0,0,0,0,0,0,0,-1,1609,1828,0,0
392,-804,0,0,0,0,0,0,0,0,0,-1,1616,1828,0,0
399,-804,0,0,0,0,0,0,0,0,0,-1,1623,1828,0,0
406,-804,0,0,0,0,0,0,0,0,0,-1,1630,1828,0,0
413,-804,0,0,0,0,0,0,0,0,0,-1,1637,1828,0,0
420,-804,0,0,0,0,0,0,0,0,0,-1,1644,1828,0,0
427,-804,0,0,0,0,0,0,0,0,0,-1,1651,1828,0,0
434,-804,0,0,0,0,0,0,0,0,0,-1,1658,1828,0,0
441,-804,0,0,0,0,0,0,0,0,0,-1,1665,1828,0,0
448,-804,0,0,0,0,0,0,0,0,0,-1,1672,1828,0,0
455,-804,0,0,0,0,0,0,0,0,0,-1,1679,1828,0,0
462,-804,0,0,0,0,0,0,0,0,0,-1,1686,1828,0,0
469,-804,0,0,0,0,0,0,0,0,0,-1,1693,1828,0,0
476,-804,0,0,0,0,0,0,0,0,0,-1,1700,1828,0,0
483,-804,0,0,0,0,0,0,0,0,0,-1,1707,1828,0,0
490,-804,0,0,0,0,0,0,0,0,0,-1,1714,1828,0,0
497,-804,0,0,0,0,0,0,0,0,0,-1,1721,1828,0,0
504,-804,0,0,0,0,0,0,0,0,0,-1,1728,1828,0,0
511,-804,0,0,0,0,0,0,0,0,0,-1,1735,1828,0,0
518,-804,0,0,0,0,0,0,0,0,0,-1,1742,1828,0,0
525,-804,0,0,0,0,0,0,0,0,0,-1,1749,1828,0,0
532,-804,0,0,0,0,0,0,0,0,0,-1,1756,1828,0,0
539,-804,0,0,0,0,0,0,0,0,0,-1,1763,1828,0,0
546,-804,0,0,0,0,0,0,0,0,0,-1,1770,1828,0,0
553,-804,0,0,0,0,0,0,0,0,0,-1,1777,1828,0,0
560,-804,0,0,0,0,0,0,0,0,0,-1,1784,1828,0,0
567,-804,0,0,0,0,0,0,0,0,0,-1,1791,1828,0,0
574,-804,0,0,0,0,0,0,0,0,0,-1,1798,1828,0,0
581,-804,0,0,0,0,0,0,0,0,0,-1,1805,1828,0,0
588,-804,0,0,0,0,0,0,0,0,0,-1,1812,1828,0,0
595,-804,0,0,0,0,0,0,0,0,0,-1,1819,1828,0,0
602,-804,0,0,0,0,0,0,0,0,0,-1,1826,1828,0,0
609,-804,0,0,0,0,0,0,0,0,0,-1,1833,1828,0,0
616,-804,0,0,0,0,0,0,0,0,0,-1,1840,1828,0,0
623,-804,0,0,0,0,0,0,0,0,0,-1,1847,1828,0,0
630,-804,0,0,0,0,0,0,0,0,0,-1,1854,1828,0,0
637,-804,0,0,0,0,0,0,0,0,0,-1,1861,1828,0,0
644,-804,0,0,0,0,0,0,0,0,0,-1,1868,1828,0,0
651,-804,0,0,0,0,0,0,0,0,0,-1,1875,1828,0,0
658,-804,0,0,0,0,0,0,0,0,0,-1,1882,1828,0,0
665,-804,0,0,0,0,0,0,0,0,0,-1,1889,1828,0,0
672,-804,0,0,0,0,0,0,0,0,0,-1,1896,1828,0,0
679,-804,0,0,0,0,0,0,0,0,0,-1,1903,1828,0,0
686,-804,0,0,0,0,0,0,0,0,0,-1,1910,1828,0,0
693,-804,0,0,0,0,0,0,0,0,0,-1,1917,1828,0,0
700,-804,0,0,0,0,0,0,0,0,0,-1,1924,1828,0,0
707,-804,0,0,0,0,0,0,0,0,0,-1,1931,1828,0,0
714,-804,0,0,0,0,0,0,0,0,0,-1,1938,1828,0,0
721,-804,0,0,0,0,0,0,0,0,0,-1,1945,1828,0,0
728,-804,0,0,0,0,0,0,0,0,0,-1,1952,1828,0,0
735,-804,0,0,0,0,0,0,0,0,0,-1,1959,1828,0,0
742,-804,0,0,0,0,0,0,0,0,0,-1,1966,1828,0,0
749,-804,0,0,0,0,0,0,0,0,0,-1,1973,1828,0,0
756,-804,0,0,0,0,0,0,0,0,0,-1,1980,1828,0,0
763,-804,0,0,0,0,0,0,0,0,0,-1,1987,1828,0,0
770,-804,0,0,0,0,0,0,0,0,0,-1,1994,1828,0,0
777,-804,0,0,0,0,0,0,0,0,0,-1,2001,1828,0,0
784,-804,0,0,0,0,0,0,0,0,0,-1,2008,1828,0,0
791,-804,0,0,0,0,0,0,0,0,0,-1,2015,1828,0,0
798,-804,0,0,0,0,0,0,0,0,0,-1,2022,1828,0,0
805,-804,0,0,0,0,0,0,0,0,0,-1,2029,1828,0,0
812,-804,0,0,0,0,0,0,0,0,0,-1,2036,1828,0,0

